
#######################################################################
#
#                 Cambridge Crystallographic Data Centre
#                                CCDC
#
#######################################################################
#
# If this CIF has been generated from an entry in the Cambridge
# Structural Database, then it will include bibliographic, chemical,
# crystal, experimental, refinement or atomic coordinate data resulting
# from the CCDC's data processing and validation procedures.
#
#######################################################################

data_CSD_CIF_IFAREN
_audit_creation_date 2008-12-02
_audit_creation_method CSD-ConQuest-V1
_database_code_CSD IFAREN
_database_code_depnum_ccdc_archive 'CCDC 683708'
_chemical_formula_sum 'C54 H98.8 Co3 Mo10 N12 O68.4 P4'
_chemical_formula_moiety
;
(C54 H50 Co3 Mo10 N12 O45 P4 2-)n,2n(H3 O1 1+),21.4n(H2 O1)
;
_journal_coden_Cambridge 9
_journal_volume 47
_journal_year 2008
_journal_page_first 832
_journal_name_full 'Inorg.Chem. '
loop_
_publ_author_name
"N.G.Armatas"
"D.G.Allis"
"A.Prosvirin"
"G.Carnutu"
"C.J.O'Connor"
"K.Dunbar"
"J.Zubieta"
_chemical_name_systematic
;
catena-(bis(Oxonium) 
bis(\m~10~-propane-1,3-diphosphonato)-tridecakis(\m~2~-oxo)-bis(\m~2~-2,3,5,6-
tetrakis(2-pyridyl)pyrazine)-triaqua-heptadecaoxo-tri-cobalt-deca-molybdenum 
hydrate)
;
_cell_volume  10401.601
_exptl_crystal_colour 'red'
_exptl_crystal_density_diffrn 2.087
_exptl_crystal_description 'block'
_diffrn_ambient_temperature 90
_refine_special_details
;
Two water molecules are each disordered with occupancies 0.7:0.3.

;
#These two values have been output from a single CSD field.
_refine_ls_R_factor_gt 0.0515
_refine_ls_wR_factor_gt 0.0515
_symmetry_cell_setting monoclinic
_symmetry_space_group_name_H-M 'P 21/n'
_symmetry_Int_Tables_number 14
loop_
_symmetry_equiv_pos_site_id
_symmetry_equiv_pos_as_xyz
1 x,y,z
2 1/2-x,1/2+y,1/2-z
3 -x,-y,-z
4 -1/2+x,-1/2-y,-1/2+z
_cell_length_a 18.2174(6)
_cell_length_b 20.2987(7)
_cell_length_c 28.4749(9)
_cell_angle_alpha 90
_cell_angle_beta 98.947(1)
_cell_angle_gamma 90
_cell_formula_units_Z 4
loop_
_atom_type_symbol
_atom_type_radius_bond
C 0.68
H 0.23
Co 1.33
Mo 1.45
N 0.68
O 0.68
P 1.05
loop_
_atom_site_label
_atom_site_type_symbol
_atom_site_fract_x
_atom_site_fract_y
_atom_site_fract_z
Mo1 Mo 0.25141(2) 0.37477(2) 0.202002(16)
Mo2 Mo 0.10233(2) 0.44059(2) 0.132691(15)
Mo3 Mo 0.00369(2) 0.31379(2) 0.073902(16)
Mo4 Mo 0.09794(3) 0.17081(2) 0.092909(16)
Mo5 Mo 0.27343(2) 0.20817(2) 0.155000(16)
Mo6 Mo 0.13032(2) -0.04788(2) 0.645755(16)
Mo7 Mo 0.29109(3) -0.11687(2) 0.695985(17)
Mo8 Mo 0.23219(3) 0.21648(2) 0.813115(17)
Mo9 Mo 0.40258(3) 0.18819(3) 0.897646(18)
Mo10 Mo 0.48865(3) 0.33786(2) 0.906931(17)
Co1 Co 0.17724(4) 0.08408(4) 0.72616(3)
Co2 Co 0.24581(4) 0.14266(4) 0.50151(3)
Co3 Co 0.28409(4) 0.12977(4) 0.26990(3)
P1 P 0.19384(7) 0.31924(7) 0.08167(5)
P2 P 0.10250(7) 0.27560(7) 0.18481(5)
P3 P -0.11670(8) 0.19916(7) 0.29982(5)
P4 P 0.29706(8) 0.32155(7) -0.09015(5)
O1 O 0.2663(2) 0.15313(19) 0.20097(13)
O2 O 0.3588(2) 0.1895(2) 0.14258(14)
O3 O 0.28642(19) 0.28588(18) 0.18939(13)
O4 O 0.2817(2) 0.3813(2) 0.26175(13)
O5 O 0.3175(2) 0.41664(19) 0.17842(13)
O6 O 0.1709(2) 0.43619(18) 0.19283(12)
O7 O 0.18714(19) 0.36570(18) 0.12387(12)
O8 O 0.14551(19) 0.22796(18) 0.15565(12)
O9 O 0.12244(19) 0.27753(18) 0.06814(12)
O10 O 0.0111(2) 0.22056(18) 0.09389(13)
O11 O 0.0899(2) 0.14562(19) 0.03496(14)
O12 O -0.0805(2) 0.32877(19) 0.09071(14)
O13 O 0.0499(2) 0.39831(18) 0.07718(13)
O14 O 0.1396(2) 0.50454(19) 0.10549(13)
O15 O 0.2096(2) 0.15639(19) 0.10454(13)
O16 O 0.2613(2) 0.27577(19) 0.09481(13)
O17 O -0.0161(2) 0.30568(19) 0.01366(13)
O18 O 0.05590(19) 0.32576(18) 0.15303(12)
O19 O 0.0310(2) 0.4743(2) 0.15620(13)
O20 O 0.15935(19) 0.31031(18) 0.22156(13)
O21 O 0.1263(2) 0.00040(19) 0.69547(14)
O22 O 0.2160(2) 0.1632(2) 0.76605(14)
O23 O -0.0804(2) 0.22036(19) 0.35035(13)
O24 O 0.4688(2) 0.2525(2) 0.93467(14)
O25 O 0.3637(2) 0.36765(19) -0.09240(13)
O26 O 0.3122(2) 0.1774(2) 0.85429(14)
O27 O -0.1698(2) 0.2518(2) 0.27772(13)
O28 O 0.1903(2) 0.29378(19) 0.77748(13)
O29 O 0.2516(2) 0.31040(19) -0.14057(13)
O30 O -0.1580(2) 0.13296(19) 0.30197(13)
O31 O 0.1610(2) 0.1976(2) 0.84353(14)
O32 O 0.23649(19) -0.05737(19) 0.65196(13)
O33 O 0.1176(2) 0.00821(19) 0.60059(13)
O34 O 0.0368(2) -0.09036(19) 0.63708(14)
O35 O 0.5088(2) 0.3772(2) 0.95993(14)
O36 O 0.3907(3) 0.1347(2) 0.94182(15)
O37 O 0.5736(2) 0.3224(2) 0.89029(15)
O38 O 0.3228(2) 0.25531(19) -0.06884(13)
O39 O 0.2913(2) -0.0804(2) 0.74940(14)
O40 O 0.3768(2) -0.1004(2) 0.68231(16)
O41 O 0.4658(2) 0.1484(2) 0.86947(15)
O42 O 0.0753(2) 0.1022(2) 0.12270(14)
O43 O 0.2262(2) 0.2153(2) 0.28125(14)
O44 O 0.3466(2) 0.04554(19) 0.25211(14)
O45 O 0.1475(3) 0.0490(2) 0.78817(16)
O46 O 0.1795(2) 0.2584(2) 0.36056(15)
O47 O 0.2217(3) 0.1610(2) 0.95140(17)
O48 O 0.2717(3) 0.1089(3) 0.03685(17)
O49 O 0.2975(3) 0.2414(3) 0.67797(19)
O50 O 0.4928(3) 0.0679(2) 0.24148(19)
O51 O 0.1669(3) 0.9852(3) 0.10981(19)
O52 O 0.1285(3) 0.3687(3) 0.30763(18)
O53 O 0.9270(3) 0.2478(3) 0.5233(2)
O54 O 0.3898(3) 0.3822(3) 0.34462(18)
O55 O 0.3824(3) 0.3238(3) 0.63204(19)
O56 O 0.1597(3) 0.2920(3) 0.68351(19)
O57 O 0.3135(3) 0.9924(3) 0.1587(2)
O58 O 0.1639(4) 0.9201(3) 0.80017(19)
O59 O 0.5902(3) 0.2684(5) 0.4508(2)
O60 O 0.9297(5) 0.3692(4) 0.5651(3)
O61 O 0.2158(5) 0.0593(3) 0.8823(2)
O62 O 0.5388(4) 0.3679(4) 0.3787(4)
O63 O 0.5731(5) 0.0470(4) 0.8955(3)
O64 O 0.1842(9) 0.4128(6) 0.6389(4)
O65 O 0.2195(11) 0.9829(5) 0.0233(4)
O66 O 0.0269(8) 0.4214(7) 0.6475(4)
O67 O 0.5691(8) 0.9924(6) 0.9878(5)
O68 O 0.1957(8) 0.4725(7) 0.5521(5)
O69 O 0.5501(9) 0.5044(9) 0.4074(7)
O70 O 0.5523(9) 0.4699(9) 0.4842(9)
O71? O 0.1229(10) 0.4916(9) 0.6092(8)
O72? O 0.5285(19) 0.9926(11) 0.9485(8)
O73 O 0.3017(15) 0.4508(12) 0.5675(9)
N1 N 0.2933(3) 0.0653(2) 0.73075(16)
N2 N 0.2037(2) 0.1145(2) 0.65964(15)
N3 N 0.0853(3) 0.1413(2) 0.69383(18)
N4 N 0.3275(2) 0.0716(2) 0.52960(15)
N5 N 0.2327(2) 0.1360(2) 0.57210(15)
N6 N 0.1657(2) 0.2178(2) 0.50937(16)
N7 N 0.3160(2) 0.2220(2) 0.49108(16)
N8 N 0.2602(2) 0.1327(2) 0.43113(15)
N9 N 0.1670(2) 0.0696(2) 0.47453(15)
N10 N 0.3851(2) 0.1737(2) 0.30140(17)
N11 N 0.2818(2) 0.1182(2) 0.34163(15)
N12 N 0.1926(3) 0.0666(2) 0.27190(16)
C1 C 0.3391(3) 0.0577(3) 0.7722(2)
H1 H 0.31800 0.04730 0.79980
C2 C 0.4149(4) 0.0642(3) 0.7767(2)
H2 H 0.44550 0.05790 0.80660
C3 C 0.4461(3) 0.0804(3) 0.7366(2)
H3 H 0.49830 0.08600 0.73890
C4 C 0.3998(3) 0.0882(3) 0.6932(2)
H4 H 0.41960 0.09920 0.66520
C5 C 0.3246(3) 0.0794(3) 0.69188(19)
C6 C 0.2692(3) 0.0953(3) 0.64898(19)
C7 C 0.1535(3) 0.1471(3) 0.62909(19)
C8 C 0.0823(3) 0.1563(3) 0.6474(2)
C9 C 0.0159(3) 0.1757(3) 0.6192(2)
H5 H 0.01390 0.18290 0.58600
C10 C -0.0470(3) 0.1842(3) 0.6405(2)
H6 H -0.09260 0.19780 0.62230
C11 C -0.0421(3) 0.1724(3) 0.6884(3)
H7 H -0.08400 0.17960 0.70390
C12 C 0.0241(3) 0.1501(3) 0.7143(2)
H8 H 0.02630 0.14090 0.74720
C13 C 0.3713(3) 0.0375(3) 0.50503(19)
H9 H 0.37090 0.04830 0.47250
C14 C 0.4176(3) -0.0132(3) 0.52477(19)
H10 H 0.44850 -0.03600 0.50620
C15 C 0.4176(3) -0.0295(3) 0.5714(2)
H11 H 0.44830 -0.06420 0.58560
C16 C 0.3720(3) 0.0055(3) 0.59801(18)
H12 H 0.37080 -0.00540 0.63030
C17 C 0.3289(3) 0.0563(3) 0.57615(18)
C18 C 0.2776(3) 0.0962(3) 0.60049(18)
C19 C 0.1746(3) 0.1678(3) 0.58611(19)
C20 C 0.1449(3) 0.2216(3) 0.5532(2)
C21 C 0.1089(3) 0.2763(3) 0.5673(2)
H13 H 0.09600 0.27880 0.59830
C22 C 0.0918(4) 0.3277(3) 0.5351(2)
H14 H 0.06780 0.36610 0.54430
C23 C 0.1096(4) 0.3228(3) 0.4906(2)
H15 H 0.09660 0.35690 0.46790
C24 C 0.1475(3) 0.2668(3) 0.4788(2)
H16 H 0.16060 0.26360 0.44790
C25 C 0.3337(3) 0.2722(3) 0.5214(2)
H17 H 0.32060 0.26910 0.55240
C26 C 0.3699(3) 0.3280(3) 0.5098(2)
H18 H 0.38250 0.36210 0.53240
C27 C 0.3877(3) 0.3335(3) 0.4647(2)
H19 H 0.41200 0.37180 0.45580
C28 C 0.3698(3) 0.2829(3) 0.4326(2)
H20 H 0.38010 0.28660 0.40100
C29 C 0.3368(3) 0.2267(3) 0.4472(2)
C30 C 0.3111(3) 0.1705(3) 0.41529(19)
C31 C 0.2188(3) 0.0888(3) 0.40356(18)
C32 C 0.1744(3) 0.0457(3) 0.43094(18)
C33 C 0.1479(3) -0.0158(3) 0.4157(2)
H21 H 0.15700 -0.03310 0.38610
C34 C 0.1077(3) -0.0517(3) 0.4448(2)
H22 H 0.08840 -0.09390 0.43520
C35 C 0.0961(3) -0.0253(3) 0.48795(19)
H23 H 0.06770 -0.04830 0.50790
C36 C 0.1270(3) 0.0351(3) 0.50104(19)
H24 H 0.11930 0.05310 0.53070
C37 C 0.4404(3) 0.1936(3) 0.2789(2)
H25 H 0.43200 0.19550 0.24510
C38 C 0.5096(3) 0.2117(3) 0.3031(2)
H26 H 0.54780 0.22590 0.28620
C39 C 0.5220(3) 0.2086(3) 0.3524(2)
H27 H 0.56960 0.21890 0.36960
C40 C 0.4645(3) 0.1905(3) 0.3763(2)
H28 H 0.47160 0.18880 0.41010
C41 C 0.3961(3) 0.1749(3) 0.34978(19)
C42 C 0.3298(3) 0.1546(3) 0.37082(19)
C43 C 0.2222(3) 0.0890(3) 0.35487(19)
C44 C 0.1672(3) 0.0652(3) 0.31454(19)
C45 C 0.0957(3) 0.0473(3) 0.31709(19)
H29 H 0.07790 0.04910 0.34670
C46 C 0.0484(3) 0.0263(3) 0.2763(2)
H30 H -0.00130 0.01350 0.27780
C47 C 0.0757(3) 0.0244(3) 0.2337(2)
H31 H 0.04590 0.00880 0.20550
C48 C 0.1480(3) 0.0460(3) 0.2332(2)
H32 H 0.16650 0.04620 0.20380
C49 C 0.2034(3) 0.3674(3) 0.03014(18)
H33 H 0.15340 0.37720 0.01240
H34 H 0.22750 0.40990 0.04040
C50 C 0.0477(3) 0.2202(3) 0.21422(18)
H35 H 0.01850 0.19290 0.18920
H36 H 0.08280 0.19020 0.23380
C51 C -0.0064(3) 0.2458(3) 0.24619(19)
H37 H 0.02070 0.27170 0.27280
H38 H -0.04430 0.27450 0.22780
C52 C -0.0437(3) 0.1859(3) 0.2653(2)
H39 H -0.06390 0.15800 0.23780
H40 H -0.00440 0.15990 0.28500
C53 C 0.2368(3) 0.3594(3) -0.05322(18)
H41 H 0.24560 0.40750 -0.05210
H42 H 0.18450 0.35180 -0.06760
C54 C 0.2494(3) 0.3323(3) -0.00299(19)
H43 H 0.30280 0.33650 0.01030
H44 H 0.23680 0.28490 -0.00400
Mo6A Mo 0.36968(2) 0.45212(2) -0.145755(16)
Mo6B Mo -0.13032(2) 0.04788(2) 0.354245(16)
Mo7A Mo 0.20891(3) 0.38313(2) 0.804015(17)
Mo7A* Mo 0.20891(3) 0.38313(2) -0.195985(17)
Mo7B Mo -0.29109(3) 0.11687(2) 0.304015(17)
Mo8C Mo -0.26781(3) 0.28352(2) 0.313115(17)
Mo8* Mo 0.23219(3) 0.21648(2) -0.186885(17)
Mo9C Mo -0.09742(3) 0.31181(3) 0.397646(18)
Mo9* Mo 0.40258(3) 0.18819(3) -0.102354(18)
Mo10C Mo -0.01135(3) 0.16214(2) 0.406931(17)
Mo10* Mo 0.48865(3) 0.33786(2) -0.093069(17)
Mo10A Mo 0.01135(3) -0.16214(2) 0.593069(17)
O23C O 0.4196(2) 0.27964(19) 0.85035(13)
O25A O 0.1363(2) -0.13235(19) 0.59240(13)
O25* O 0.3637(2) 0.36765(19) 0.90760(13)
O27C O 0.3302(2) 0.2482(2) 0.77772(13)
O28A O 0.3097(2) -0.20622(19) 0.72252(13)
O29A O 0.2484(2) -0.18960(19) 0.64057(13)
O29* O 0.2516(2) 0.31040(19) 0.85943(13)
O30B O 0.1580(2) -0.13296(19) 0.69803(13)
O34A O 0.4632(2) 0.40964(19) 0.86292(14)
O38* O 0.3228(2) 0.25531(19) 0.93116(13)
#END
