
#######################################################################
#
#                 Cambridge Crystallographic Data Centre
#                                CCDC
#
#######################################################################
#
# If this CIF has been generated from an entry in the Cambridge
# Structural Database, then it will include bibliographic, chemical,
# crystal, experimental, refinement or atomic coordinate data resulting
# from the CCDC's data processing and validation procedures.
#
#######################################################################

data_CSD_CIF_IFASIS
_audit_creation_date 2008-12-02
_audit_creation_method CSD-ConQuest-V1
_database_code_CSD IFASIS
_database_code_depnum_ccdc_archive 'CCDC 683714'
_chemical_formula_sum 'C33 H32 Co1 Mo5 N6 O22 P2'
_chemical_formula_moiety
;
(C3 H8 Mo5 O21 P2 2-)n,n(C30 H22 Co1 N6 2+),n(H2 O1)
;
_journal_coden_Cambridge 9
_journal_volume 47
_journal_year 2008
_journal_page_first 832
_journal_name_full 'Inorg.Chem. '
loop_
_publ_author_name
"N.G.Armatas"
"D.G.Allis"
"A.Prosvirin"
"G.Carnutu"
"C.J.O'Connor"
"K.Dunbar"
"J.Zubieta"
_chemical_name_systematic
;
catena-(tris(2,2':6',2''-Terpyridine-N,N',N'')-cobalt(ii) (\m~10~-hydrogen 
propane-1,3-diphosphonato)-(\m~2~-hydroxo)-tetrakis(\m~2~-oxo)-decaoxo-penta-m
olybdenum monohydrate)
;
_cell_volume   4211.828
_exptl_crystal_colour 'yellow'
_exptl_crystal_density_diffrn 2.307
_exptl_crystal_description 'rod'
_diffrn_ambient_temperature 90
#These two values have been output from a single CSD field.
_refine_ls_R_factor_gt 0.0274
_refine_ls_wR_factor_gt 0.0274
_symmetry_cell_setting monoclinic
_symmetry_space_group_name_H-M 'P 21/c'
_symmetry_Int_Tables_number 14
loop_
_symmetry_equiv_pos_site_id
_symmetry_equiv_pos_as_xyz
1 x,y,z
2 -x,1/2+y,1/2-z
3 -x,-y,-z
4 x,-1/2-y,-1/2+z
_cell_length_a 8.8341(7)
_cell_length_b 30.889(2)
_cell_length_c 15.435(1)
_cell_angle_alpha 90
_cell_angle_beta 90.180(2)
_cell_angle_gamma 90
_cell_formula_units_Z 4
loop_
_atom_type_symbol
_atom_type_radius_bond
C 0.68
H 0.23
Co 1.33
Mo 1.39
N 0.68
O 0.68
P 1.05
loop_
_atom_site_label
_atom_site_type_symbol
_atom_site_fract_x
_atom_site_fract_y
_atom_site_fract_z
Mo1 Mo -0.56121(3) 0.177270(8) 0.941740(15)
Mo2 Mo -0.41278(3) 0.080080(8) 0.885770(15)
Mo3 Mo -0.29558(3) 0.082230(8) 0.678090(15)
Mo4 Mo -0.37405(3) 0.179380(8) 0.590710(15)
Mo5 Mo -0.47554(3) 0.249940(8) 0.770400(16)
Co1 Co 0.03153(4) 0.098243(12) 0.28891(2)
P1 P 0.38302(8) 0.14317(2) 0.73788(5)
P2 P -0.23466(8) 0.17045(2) 0.80995(5)
O1 O -0.3886(2) 0.03533(7) 0.65219(14)
O2 O -0.1135(2) 0.07279(7) 0.64630(14)
O3 O -0.2613(2) 0.07284(7) 0.80067(13)
O4 O -0.5139(2) 0.03307(7) 0.87510(14)
O5 O -0.3037(2) 0.07142(7) 0.97626(13)
O6 O -0.2739(2) 0.15106(6) 0.71993(12)
O7 O 0.4250(2) 0.18080(6) 0.80093(13)
O8 O -0.3313(2) 0.15010(7) 0.88260(13)
O9 O -0.7476(2) 0.18636(7) 0.96317(14)
O10 O -0.4721(2) 0.18524(7) 1.03793(14)
O11 O -0.5055(2) 0.23832(7) 0.90026(13)
O12 O -0.3832(3) 0.29791(7) 0.78345(14)
O13 O -0.4171(2) 0.22851(7) 0.66228(13)
O14 O -0.2545(2) 0.21885(7) 0.80849(13)
O15 O -0.6571(2) 0.26594(7) 0.75033(15)
O16 O -0.1922(2) 0.19180(7) 0.56365(14)
O17 O -0.4723(2) 0.19114(7) 0.49712(14)
O18 O 0.3965(2) 0.15939(7) 0.64615(13)
O19 O -0.3658(2) 0.11771(7) 0.58390(13)
O20 O -0.5747(2) 0.11598(7) 0.93218(13)
O21 O 0.4813(2) 0.10286(7) 0.75520(13)
O22 O 0.1432(3) 0.09956(11) 0.0033(2)
N1 N 0.1159(3) 0.07065(8) 0.39240(15)
N2 N 0.0617(3) 0.14831(8) 0.35338(15)
N3 N -0.0464(3) 0.13900(8) 0.20434(16)
N4 N 0.2276(3) 0.09897(8) 0.23125(15)
N5 N 0.0056(3) 0.04824(8) 0.22314(15)
N6 N -0.1746(3) 0.08514(8) 0.32500(16)
C1 C 0.1326(3) 0.02832(10) 0.40850(19)
C2 C 0.2042(3) 0.01338(10) 0.4830(2)
C3 C 0.2627(4) 0.04305(11) 0.5415(2)
C4 C 0.2416(4) 0.08704(11) 0.5267(2)
C5 C 0.1655(3) 0.10017(9) 0.45304(18)
C6 C 0.1303(3) 0.14493(10) 0.43105(18)
C7 C 0.1586(3) 0.18182(10) 0.4798(2)
C8 C 0.1103(4) 0.22141(10) 0.4472(2)
C9 C 0.0393(3) 0.22414(10) 0.3667(2)
C10 C 0.0193(3) 0.18629(9) 0.31907(19)
C11 C -0.0412(3) 0.18098(10) 0.23090(19)
C12 C -0.0887(3) 0.21422(10) 0.1771(2)
C13 C -0.1442(4) 0.20430(11) 0.0954(2)
C14 C -0.1507(3) 0.16153(11) 0.0695(2)
C15 C -0.1007(3) 0.12953(10) 0.12540(19)
C16 C 0.3346(3) 0.12954(10) 0.23683(19)
C17 C 0.4669(3) 0.12698(10) 0.1886(2)
C18 C 0.4905(3) 0.09202(11) 0.1346(2)
C19 C 0.3800(3) 0.06031(10) 0.1285(2)
C20 C 0.2491(3) 0.0648(1) 0.17635(18)
C21 C 0.1177(3) 0.03596(9) 0.17028(18)
C22 C 0.0976(3) 0.00047(10) 0.1162(2)
C23 C -0.0388(4) -0.02178(10) 0.1200(2)
C24 C -0.1535(4) -0.0086(1) 0.1754(2)
C25 C -0.1278(3) 0.02748(10) 0.22674(19)
C26 C -0.2327(3) 0.04867(9) 0.28681(18)
C27 C -0.3776(3) 0.03432(10) 0.3043(2)
C28 C -0.4657(3) 0.05786(11) 0.3617(2)
C29 C -0.4089(3) 0.09517(11) 0.3986(2)
C30 C -0.2616(3) 0.10799(11) 0.37913(19)
C31 C 0.1939(3) 0.12725(10) 0.76362(19)
C32 C -0.0438(3) 0.15476(10) 0.83254(19)
C33 C 0.0725(3) 0.1630(1) 0.7605(2)
H1 H 0.097(3) 0.0110(11) 0.369(2)
H2 H 0.216(4) -0.0148(12) 0.492(2)
H3 H 0.314(4) 0.0346(13) 0.591(2)
H4 H 0.277(4) 0.1041(12) 0.564(2)
H5 H 0.204(4) 0.1793(11) 0.530(2)
H6 H 0.122(4) 0.2487(12) 0.478(2)
H7 H 0.007(3) 0.2511(10) 0.347(2)
H8 H -0.085(4) 0.2397(13) 0.192(2)
H9 H -0.173(5) 0.2253(14) 0.057(3)
H10 H -0.189(4) 0.1505(13) 0.018(3)
H11 H -0.099(4) 0.1005(13) 0.110(2)
H12 H 0.312(4) 0.1526(13) 0.276(2)
H13 H 0.530(4) 0.1479(12) 0.192(2)
H14 H 0.578(4) 0.0891(12) 0.102(2)
H15 H 0.395(5) 0.0355(14) 0.092(3)
H16 H 0.171(4) -0.0080(12) 0.081(2)
H17 H -0.056(4) -0.0454(12) 0.086(2)
H18 H -0.239(5) -0.0207(13) 0.179(2)
H19 H -0.413(4) 0.0115(12) 0.279(2)
H20 H -0.562(4) 0.0476(11) 0.376(2)
H21 H -0.459(4) 0.1096(12) 0.435(2)
H22 H -0.227(4) 0.1304(12) 0.403(2)
H23 H 0.168(3) 0.1011(10) 0.727(2)
H24 H -0.008(4) 0.1657(12) 0.886(2)
H25 H 0.118(4) 0.1902(12) 0.767(2)
H26 H 0.198(4) 0.1130(12) 0.817(2)
H27 H -0.051(4) 0.1251(12) 0.842(2)
H28 H 0.026(4) 0.1590(12) 0.701(2)
Mo1* Mo 0.43879(3) 0.177270(8) 0.941740(15)
Mo2* Mo 0.58722(3) 0.080080(8) 0.885770(15)
Mo3* Mo 0.70442(3) 0.082230(8) 0.678090(15)
Mo4* Mo 0.62595(3) 0.179380(8) 0.590710(15)
Mo5* Mo 0.52446(3) 0.249940(8) 0.770400(16)
O7* O -0.5750(2) 0.18080(6) 0.80093(13)
O18* O -0.6035(2) 0.15939(7) 0.64615(13)
O21* O -0.5187(2) 0.10286(7) 0.75520(13)
#END
