
#######################################################################
#
#                 Cambridge Crystallographic Data Centre
#                                CCDC
#
#######################################################################
#
# If this CIF has been generated from an entry in the Cambridge
# Structural Database, then it will include bibliographic, chemical,
# crystal, experimental, refinement or atomic coordinate data resulting
# from the CCDC's data processing and validation procedures.
#
#######################################################################

data_CSD_CIF_IFEJUZ
_audit_creation_date 2008-12-02
_audit_creation_method CSD-ConQuest-V1
_database_code_CSD IFEJUZ
_database_code_depnum_ccdc_archive 'CCDC 694866'
_chemical_formula_sum 'C76 H50 Ag2 N8 O19 U3'
_chemical_formula_moiety
;
(C36 H18 O19 U3 2-)n,2n(C20 H16 Ag1 N4 1+)
;
_journal_coden_Cambridge 9
_journal_volume 47
_journal_year 2008
_journal_page_first 4844
_journal_name_full 'Inorg.Chem. '
loop_
_publ_author_name
"Zuo-Lei Liao"
"Guo-Dong Li"
"Ming-Hui Bi"
"Jie-Sheng Chen"
_chemical_name_systematic
;
catena-(bis(bis(2,2'-bipyridine)-silver(i)) 
(\m~3~-naphthalene-1,4-dicarboxylato-O,O,O',O'',O''')-(\m~3~-naphthalene-1,4-d
icarboxylato-O,O',O'',O''')-(\m~3~-oxo)-(\m~2~-naphthalene-1,4-dicarboxylato-O
,O',O'',O''')-tris(dioxo-uranium(vi)))
;
_cell_volume   3505.694
_exptl_crystal_colour 'yellow'
_exptl_crystal_density_diffrn 2.186
_exptl_crystal_description 'block'
_diffrn_ambient_temperature 293
#These two values have been output from a single CSD field.
_refine_ls_R_factor_gt 0.0347
_refine_ls_wR_factor_gt 0.0347
_symmetry_cell_setting triclinic
_symmetry_space_group_name_H-M 'P -1'
_symmetry_Int_Tables_number 2
loop_
_symmetry_equiv_pos_site_id
_symmetry_equiv_pos_as_xyz
1 x,y,z
2 -x,-y,-z
_cell_length_a 14.161(3)
_cell_length_b 15.122(3)
_cell_length_c 18.212(4)
_cell_angle_alpha 85.73(3)
_cell_angle_beta 76.99(3)
_cell_angle_gamma 67.32(3)
_cell_formula_units_Z 2
loop_
_atom_type_symbol
_atom_type_radius_bond
C 0.68
H 0.23
Ag 1.59
N 0.68
O 0.68
U 1.44
loop_
_atom_site_label
_atom_site_type_symbol
_atom_site_fract_x
_atom_site_fract_y
_atom_site_fract_z
C1 C 0.4507(6) 0.8530(6) -0.2760(4)
C2 C 0.3648(5) 0.8210(5) -0.2340(4)
C3 C 0.3878(5) 0.7247(5) -0.2314(4)
H1 H 0.45240 0.68330 -0.25790
C4 C 0.3164(5) 0.6864(5) -0.1899(4)
H2 H 0.33400 0.62050 -0.18920
C5 C 0.2224(5) 0.7450(5) -0.1510(3)
C6 C 0.1913(5) 0.8467(5) -0.1551(4)
C7 C 0.2626(5) 0.8854(5) -0.1996(4)
C8 C 0.2266(7) 0.9864(6) -0.2093(5)
H3 H 0.27160 1.01310 -0.23850
C9 C 0.1275(7) 1.0445(6) -0.1765(6)
H4 H 0.10560 1.11040 -0.18270
C10 C 0.0572(7) 1.0049(7) -0.1327(6)
H5 H -0.01140 1.04500 -0.11250
C11 C 0.0882(6) 0.9111(6) -0.1201(5)
H6 H 0.04270 0.88700 -0.08840
C12 C 0.1549(5) 0.6988(5) -0.0991(4)
C13 C 0.8510(6) 1.2559(5) -0.1847(4)
C14 C 0.8000(5) 1.2160(5) -0.2325(3)
C15 C 0.7108(5) 1.2024(5) -0.1954(4)
H7 H 0.68180 1.22220 -0.14550
C16 C 0.6635(5) 1.1587(5) -0.2328(4)
H8 H 0.60170 1.15240 -0.20740
C17 C 0.8427(5) 1.1902(5) -0.3111(3)
C18 C 0.9329(5) 1.2082(5) -0.3518(4)
H9 H 0.96360 1.23920 -0.32820
C19 C 0.9733(6) 1.1790(5) -0.4264(4)
H10 H 1.03200 1.19010 -0.45280
C20 C 0.9267(6) 1.1326(6) -0.4629(4)
H11 H 0.95530 1.11250 -0.51290
C21 C 0.8411(6) 1.1175(6) -0.4254(4)
H12 H 0.81000 1.08870 -0.45070
C22 C 0.7965(5) 1.1440(5) -0.3483(3)
C23 C 0.7062(5) 1.1241(5) -0.3072(4)
C24 C 0.6666(6) 1.0583(5) -0.3346(4)
C25 C 0.9391(5) 0.5454(5) -0.7585(3)
C26 C 0.9078(5) 0.5966(5) -0.6843(3)
C27 C 0.8762(6) 0.6934(6) -0.6849(4)
H13 H 0.88500 0.72490 -0.73020
C28 C 0.8305(6) 0.7456(6) -0.6175(4)
H14 H 0.80780 0.81200 -0.61840
C29 C 0.8185(5) 0.7002(6) -0.5498(4)
C30 C 0.7580(6) 0.7655(6) -0.4809(4)
C31 C 0.8550(5) 0.6006(5) -0.5455(3)
C32 C 0.9011(5) 0.5438(5) -0.6149(3)
C33 C 0.9407(6) 0.4441(6) -0.6102(4)
H15 H 0.97170 0.40710 -0.65420
C34 C 0.9347(6) 0.3999(6) -0.5423(4)
H16 H 0.96320 0.33340 -0.54050
C35 C 0.8870(7) 0.4524(7) -0.4758(4)
H17 H 0.87910 0.42100 -0.43030
C36 C 0.8516(6) 0.5493(6) -0.4765(4)
H18 H 0.82440 0.58320 -0.43100
C37 C 0.3584(7) 0.7954(8) -0.4304(7)
H19 H 0.41510 0.73830 -0.44490
C38 C 0.3710(8) 0.8788(8) -0.4530(6)
H20 H 0.43480 0.87890 -0.48060
C39 C 0.2870(9) 0.9618(8) -0.4338(5)
H21 H 0.29180 1.02030 -0.44880
C40 C 0.1936(9) 0.9584(7) -0.3912(5)
H22 H 0.13520 1.01470 -0.37790
C41 C 0.1883(6) 0.8709(6) -0.3689(4)
C42 C 0.0914(6) 0.8602(5) -0.3235(4)
C43 C 0.0020(9) 0.9391(7) -0.2980(6)
H23 H 0.00060 1.00050 -0.30960
C44 C -0.0866(9) 0.9266(9) -0.2549(7)
H24 H -0.14790 0.97940 -0.23850
C45 C -0.0827(8) 0.8385(9) -0.2372(6)
H25 H -0.14080 0.82870 -0.20810
C46 C 0.0098(8) 0.7615(7) -0.2631(5)
H26 H 0.01280 0.69990 -0.25040
C47 C 0.2803(9) 0.9138(11) -0.0059(6)
H27 H 0.25860 0.87670 -0.03160
C48 C 0.2109(10) 1.0031(12) 0.0158(8)
H28 H 0.14470 1.02670 0.00450
C49 C 0.2414(10) 1.0577(10) 0.0550(7)
H29 H 0.19800 1.12030 0.07020
C50 C 0.3387(10) 1.0154(9) 0.0703(6)
H30 H 0.35960 1.05050 0.09850
C51 C 0.4085(7) 0.9243(7) 0.0471(4)
C52 C 0.5135(7) 0.8763(7) 0.0611(4)
C53 C 0.5467(10) 0.9173(9) 0.1116(5)
H31 H 0.50250 0.97420 0.13750
C54 C 0.6470(15) 0.8701(14) 0.1211(8)
H32 H 0.67080 0.89610 0.15430
C55 C 0.7122(12) 0.7885(13) 0.0849(10)
H33 H 0.78030 0.75720 0.09180
C56 C 0.6722(9) 0.7537(9) 0.0368(8)
H34 H 0.71520 0.69640 0.01120
C57 C 0.7057(8) 0.6820(8) -0.1835(6)
H35 H 0.70290 0.74050 -0.16840
C58 C 0.7881(8) 0.6299(10) -0.2387(6)
H36 H 0.84050 0.65250 -0.26040
C59 C 0.7919(7) 0.5455(9) -0.2607(5)
H37 H 0.84690 0.50980 -0.29870
C60 C 0.7140(7) 0.5105(7) -0.2271(4)
H38 H 0.71650 0.45170 -0.24130
C61 C 0.6317(6) 0.5685(7) -0.1708(4)
C62 C 0.5459(6) 0.5364(6) -0.1316(4)
C63 C 0.5373(7) 0.4542(7) -0.1526(5)
H39 H 0.58640 0.41620 -0.19240
C64 C 0.4550(8) 0.4288(7) -0.1142(5)
H40 H 0.44900 0.37350 -0.12780
C65 C 0.3831(7) 0.4857(7) -0.0563(5)
H41 H 0.32760 0.47010 -0.02960
C66 C 0.3954(6) 0.5663(6) -0.0387(4)
H42 H 0.34550 0.60600 -0.00010
C67 C 0.3275(7) 0.4402(7) -0.2804(6)
H43 H 0.30000 0.47780 -0.23670
C68 C 0.3634(9) 0.3441(8) -0.2724(7)
H44 H 0.36230 0.31650 -0.22500
C69 C 0.4021(8) 0.2882(7) -0.3374(8)
H45 H 0.42890 0.22170 -0.33450
C70 C 0.4006(7) 0.3325(7) -0.4071(7)
H46 H 0.42290 0.29630 -0.45130
C71 C 0.3652(6) 0.4310(6) -0.4094(5)
C72 C 0.3660(6) 0.4820(6) -0.4824(5)
C73 C 0.3987(8) 0.4347(8) -0.5528(7)
H47 H 0.41780 0.36860 -0.55480
C74 C 0.3346(9) 0.6245(8) -0.5446(6)
H48 H 0.30610 0.69110 -0.54160
C75 C 0.3720(9) 0.5851(10) -0.6129(6)
H49 H 0.37790 0.62190 -0.65560
C76 C 0.4025(10) 0.4851(9) -0.6179(7)
H50 H 0.42470 0.45410 -0.66460
N1 N 0.6275(6) 0.6514(6) -0.1496(4)
N2 N 0.4756(5) 0.5919(5) -0.0739(4)
N3 N 0.3770(6) 0.8744(6) 0.0065(4)
N4 N 0.5758(6) 0.7971(6) 0.0247(5)
N5 N 0.2698(5) 0.7900(5) -0.3885(5)
N6 N 0.0955(6) 0.7723(5) -0.3059(4)
N7 N 0.3282(5) 0.4850(5) -0.3456(4)
N8 N 0.3341(6) 0.5770(6) -0.4795(5)
O1 O 0.5469(5) 0.9557(5) -0.4279(3)
O2 O 0.6985(5) 0.8419(5) -0.2952(3)
O3 O 0.4554(4) 0.9315(4) -0.2640(3)
O4 O 0.5226(4) 0.7938(4) -0.3241(3)
O5 O 0.1341(5) 0.7141(5) -0.0308(3)
O6 O 0.1293(6) 0.6440(5) -0.1292(3)
O7 O 0.9191(4) 0.4731(4) -0.7652(3)
O8 O 0.9822(4) 0.5786(4) -0.8181(2)
O9 O 0.7777(4) 0.8364(4) -0.4697(3)
O10 O 0.6883(5) 0.7456(5) -0.4353(4)
O11 O 0.8318(5) 1.2427(4) -0.1143(3)
O12 O 0.9068(4) 1.3004(4) -0.2133(3)
O13 O 0.7193(4) 1.0028(4) -0.3892(3)
O14 O 0.5805(4) 1.0538(4) -0.2992(3)
O15 O 0.1733(4) 0.4453(4) -0.1000(3)
O16 O -0.0795(4) 0.6241(4) -0.0989(3)
O17 O -0.0436(4) 0.7569(4) 0.0967(3)
O18 O 0.1970(4) 0.5604(4) 0.0845(3)
Ag1 Ag 0.24583(6) 0.64487(5) -0.35347(5)
Ag2 Ag 0.49336(6) 0.73050(6) -0.04676(4)
U1 U 0.62242(2) 0.89700(2) -0.361757(13)
U2 U 0.075665(18) 0.656947(18) 0.088939(12)
U3 U 0.044775(19) 0.533630(18) -0.094889(12)
O19 O 0.0258(4) 0.5677(3) 0.0264(2)
O7A O 0.0809(4) 0.5269(4) -0.2348(3)
O8* O -0.0178(4) 0.5786(4) 0.1819(2)
O8A O 0.0178(4) 0.4214(4) -0.1819(2)
O11A O 0.1682(5) 0.7573(4) 0.1143(3)
O12A O 0.0932(4) 0.6996(4) 0.2133(3)
U2* U 1.075665(18) 0.656947(18) -0.911061(12)
U2A U 0.924335(18) 1.343053(18) -0.088939(12)
U3A U 0.955225(19) 0.466370(18) -0.905111(12)
U3A* U -0.044775(19) 0.466370(18) 0.094889(12)
O19A O -0.0258(4) 0.4323(3) -0.0264(2)
#END
