
#######################################################################
#
#                 Cambridge Crystallographic Data Centre
#                                CCDC
#
#######################################################################
#
# If this CIF has been generated from an entry in the Cambridge
# Structural Database, then it will include bibliographic, chemical,
# crystal, experimental, refinement or atomic coordinate data resulting
# from the CCDC's data processing and validation procedures.
#
#######################################################################

data_CSD_CIF_IFEJOT
_audit_creation_date 2008-12-02
_audit_creation_method CSD-ConQuest-V1
_database_code_CSD IFEJOT
_database_code_depnum_ccdc_archive 'CCDC 694865'
_chemical_formula_sum 'C102 H64 N6 O32 U4'
_chemical_formula_moiety
;
(C72 H36 O32 U4 4-)n,n(C10 H10 N2 2+),2n(C10 H9 N2 1+)
;
_journal_coden_Cambridge 9
_journal_volume 47
_journal_year 2008
_journal_page_first 4844
_journal_name_full 'Inorg.Chem. '
loop_
_publ_author_name
"Zuo-Lei Liao"
"Guo-Dong Li"
"Ming-Hui Bi"
"Jie-Sheng Chen"
_chemical_name_systematic
;
catena-(bis(4,4'-bipyridinium) (4,4'-bipyridinedi-ium) 
tetrakis(\m~3~-naphthalene-1,4-dicarboxylato-O,O',O'')-bis(\m~2~-naphthalene-1
,4-dicarboxylato-O,O',O'',O''')-tetrakis(dioxo-uranium(vi)))
;
_cell_volume   2199.574
_exptl_crystal_colour 'yellow'
_exptl_crystal_density_diffrn 2.142
_exptl_special_details
;
The published formula unit is (UO2)8 (NDC)12 (bipyH2)3 (bipyrH)3, giving a 9- 
charge for the U8 assembly. Our program presents the structure for half of 
the assembly with z=1 and charge 4.5-, but we are unable to represent the 
0.5- charge. Instead, we have allocated a charge of 4- to the anionic moiety 
and changed the relevant amounts of each cation for charge balance
;
_exptl_crystal_description 'block'
_diffrn_ambient_temperature 293
#These two values have been output from a single CSD field.
_refine_ls_R_factor_gt 0.0263
_refine_ls_wR_factor_gt 0.0263
_symmetry_cell_setting triclinic
_symmetry_space_group_name_H-M 'P -1'
_symmetry_Int_Tables_number 2
loop_
_symmetry_equiv_pos_site_id
_symmetry_equiv_pos_as_xyz
1 x,y,z
2 -x,-y,-z
_cell_length_a 11.037(2)
_cell_length_b 15.126(3)
_cell_length_c 15.660(3)
_cell_angle_alpha 62.05(3)
_cell_angle_beta 72.26(3)
_cell_angle_gamma 82.05(3)
_cell_formula_units_Z 1
loop_
_atom_type_symbol
_atom_type_radius_bond
C 0.68
H 0.23
N 0.68
O 0.68
U 1.43
loop_
_atom_site_label
_atom_site_type_symbol
_atom_site_fract_x
_atom_site_fract_y
_atom_site_fract_z
U1 U 0.152588(13) 0.126197(10) 0.689692(11)
O1 O 0.2982(3) 0.0229(2) 0.7905(2)
O2 O 0.4283(3) -0.4182(2) 1.1913(2)
O3 O 0.0959(3) 0.0050(2) 0.8721(2)
O4 O 0.2267(3) -0.4351(2) 1.2741(2)
O5 O 0.1581(3) 0.2227(2) 0.7216(2)
O6 O 0.1469(3) 0.0266(2) 0.6621(2)
O7 O -0.5551(3) 0.3176(2) 0.5000(2)
O8 O -0.0659(3) 0.1264(2) 0.7384(2)
C1 C -0.5526(4) 0.2254(3) 0.5546(3)
O9 O -0.6429(3) 0.1670(2) 0.5814(2)
C2 C 0.4775(4) 0.0527(3) 0.9753(3)
N1 N 0.3961(3) 0.2448(3) 0.8851(3)
C3 C 0.2088(4) -0.0268(3) 0.8666(3)
C4 C 0.8940(5) -0.4801(4) 0.8688(4)
H1 H 0.94280 -0.49400 0.81660
C5 C -0.2988(4) 0.0465(3) 0.6707(3)
C6 C -0.2507(5) -0.0510(3) 0.6900(4)
H2 H -0.19050 -0.07730 0.72620
O10 O -0.1880(3) -0.0089(2) 0.8400(3)
C7 C 0.4098(5) 0.2078(3) 0.9779(4)
H3 H 0.39240 0.24780 1.01060
C8 C -0.2478(4) 0.1110(3) 0.6949(3)
C9 C 0.3149(4) -0.1962(3) 0.9250(3)
C10 C -0.2907(5) -0.1063(4) 0.6567(4)
H4 H -0.25560 -0.16910 0.66830
C11 C -0.3833(5) -0.0712(4) 0.6057(4)
H5 H -0.41020 -0.11060 0.58370
C12 C 1.0169(4) -0.6817(3) 0.9283(4)
H6 H 1.02280 -0.64160 0.86050
C13 C 0.2353(4) -0.1246(3) 0.9491(3)
C14 C 0.4191(5) 0.1890(4) 0.8372(4)
H7 H 0.40670 0.21540 0.77360
N2 N 1.0673(4) -0.8307(3) 1.0548(3)
C15 C -0.3949(4) 0.0831(3) 0.6196(3)
C16 C 0.3395(4) -0.2875(3) 1.0062(3)
C17 C -0.1605(4) 0.0704(3) 0.7633(3)
N3 N 0.7572(5) -0.3655(4) 0.9178(4)
C18 C 0.4610(4) 0.0926(4) 0.8806(4)
H8 H 0.47830 0.05430 0.84610
C19 C 1.0729(5) -0.7733(4) 0.9581(4)
H9 H 1.11520 -0.79590 0.91090
C20 C 0.2030(4) -0.2314(3) 1.1254(3)
H10 H 0.16350 -0.24360 1.19150
C21 C 0.8102(5) -0.5213(4) 1.0403(4)
H11 H 0.80080 -0.56420 1.10810
C22 C 0.7483(6) -0.4308(5) 1.0119(5)
H12 H 0.69710 -0.41490 1.06210
C23 C 0.9514(4) -0.6477(3) 0.9978(3)
C24 C 0.9483(5) -0.7106(4) 1.0980(4)
H13 H 0.90590 -0.69070 1.14740
C25 C -0.4356(4) 0.0215(3) 0.5874(3)
H14 H -0.49840 0.04430 0.55360
C26 C 0.3657(4) -0.1858(3) 0.8266(3)
H15 H 0.35100 -0.12700 0.77300
C27 C 0.4489(4) 0.1119(3) 1.0243(3)
H16 H 0.45650 0.08610 1.08920
C28 C -0.4372(4) 0.1840(3) 0.5935(3)
C29 C 0.2838(4) -0.3004(3) 1.1064(3)
C30 C 0.8861(4) -0.5484(3) 0.9686(4)
C31 C -0.2803(4) 0.2096(3) 0.6593(3)
H17 H -0.23890 0.25310 0.66790
C32 C 0.1784(4) -0.1412(3) 1.0457(3)
H18 H 0.12410 -0.09380 1.05920
C33 C 0.4612(5) -0.3474(4) 0.8871(4)
H19 H 0.51050 -0.39680 0.87360
C34 C -0.3772(4) 0.2457(3) 0.6090(3)
H20 H -0.40000 0.31270 0.58620
C35 C 0.3139(4) -0.3893(3) 1.1949(3)
C36 C 0.4356(5) -0.2589(4) 0.8078(4)
H21 H 0.46650 -0.25040 0.74220
C37 C 0.4141(4) -0.3618(3) 0.9848(4)
H22 H 0.43150 -0.42080 1.03690
C38 C 1.0067(5) -0.8002(4) 1.1235(4)
H23 H 1.00440 -0.84130 1.19050
U2 U 0.375544(13) -0.552806(10) 1.365806(11)
O11 O 0.3682(3) -0.6356(2) 1.3175(2)
O12 O 0.3798(4) -0.4706(2) 1.4144(3)
O13 O -0.4049(3) 0.4548(2) 0.3052(3)
O14 O -0.2897(3) 0.5937(2) 0.2252(3)
C39 C -0.1717(4) 0.3478(3) 0.3621(3)
C40 C -0.2040(4) 0.4510(3) 0.3360(3)
C41 C -0.3078(4) 0.5044(3) 0.2857(3)
C42 C -0.2333(4) 0.2879(3) 0.3401(3)
H24 H -0.29850 0.31510 0.30920
C43 C 0.8285(6) -0.3921(5) 0.8491(5)
H25 H 0.83470 -0.34760 0.78220
C44 C -0.0079(4) 0.3664(3) 0.4301(3)
C45 C -0.0423(4) 0.4639(3) 0.4037(3)
H26 H 0.00030 0.50320 0.41670
C46 C -0.1401(4) 0.5058(3) 0.3576(3)
H27 H -0.16230 0.57230 0.34120
C47 C -0.0708(4) 0.3052(3) 0.4086(3)
C48 C -0.0380(4) 0.2042(3) 0.4304(3)
H28 H 0.02720 0.17480 0.46080
C49 C -0.0993(5) 0.1497(3) 0.4079(4)
H29 H -0.07470 0.08400 0.42230
C50 C -0.1983(5) 0.1902(3) 0.3638(3)
H30 H -0.24080 0.15130 0.35040
O15 O 0.0995(3) 0.2365(2) 0.5408(2)
C51 C 0.0955(4) 0.3279(3) 0.4835(3)
O16 O 0.1721(3) 0.3913(2) 0.4698(2)
H31 H 0.362(4) 0.307(4) 0.852(4)
H32 H 1.105(5) -0.900(4) 1.087(4)
U1* U 1.152588(13) 0.126197(10) 0.689692(11)
U1** U -0.847412(13) 0.126197(10) 0.689692(11)
U1*** U 1.152588(13) -0.873803(10) 1.689692(11)
O1* O 1.2982(3) 0.0229(2) 0.7905(2)
O2* O 1.4283(3) -0.4182(2) 1.1913(2)
O2** O -0.5717(3) 0.5818(2) 0.1913(2)
O3* O 1.0959(3) 0.0050(2) 0.8721(2)
O4* O 1.2267(3) -0.4351(2) 1.2741(2)
O4** O -0.7733(3) 0.5649(2) 0.2741(2)
O5* O 1.1581(3) 0.2227(2) 0.7216(2)
O6* O 1.1469(3) 0.0266(2) 0.6621(2)
O7* O 0.4449(3) 0.3176(2) 0.5000(2)
O7** O 0.4449(3) -0.6824(2) 1.5000(2)
O8* O 0.9341(3) 0.1264(2) 0.7384(2)
C1* C 0.4474(4) 0.2254(3) 0.5546(3)
O9* O 0.3571(3) 0.1670(2) 0.5814(2)
O9** O 1.3571(3) 0.1670(2) 0.5814(2)
C2A C 0.5225(4) -0.0527(3) 1.0247(3)
N1A N 0.6039(3) -0.2448(3) 1.1149(3)
C3* C 1.2088(4) -0.0268(3) 0.8666(3)
C5* C 0.7012(4) 0.0465(3) 0.6707(3)
C6* C 0.7493(5) -0.0510(3) 0.6900(4)
H2* H 0.80950 -0.07730 0.72620
O10* O 0.8120(3) -0.0089(2) 0.8400(3)
C7A C 0.5902(5) -0.2078(3) 1.0221(4)
H3A H 0.60760 -0.24780 0.98940
C8* C 0.7522(4) 0.1110(3) 0.6949(3)
C9* C 1.3149(4) -0.1962(3) 0.9250(3)
C10* C 0.7093(5) -0.1063(4) 0.6567(4)
H4* H 0.74440 -0.16910 0.66830
C11* C 0.6167(5) -0.0712(4) 0.6057(4)
H5* H 0.58980 -0.11060 0.58370
C13* C 1.2353(4) -0.1246(3) 0.9491(3)
C14A C 0.5809(5) -0.1890(4) 1.1628(4)
H7A H 0.59330 -0.21540 1.22640
C15* C 0.6051(4) 0.0831(3) 0.6196(3)
C16* C 1.3395(4) -0.2875(3) 1.0062(3)
C17* C 0.8395(4) 0.0704(3) 0.7633(3)
C18A C 0.5390(4) -0.0926(4) 1.1194(4)
H8A H 0.52170 -0.05430 1.15390
C20* C 1.2030(4) -0.2314(3) 1.1254(3)
H10* H 1.16350 -0.24360 1.19150
C25* C 0.5644(4) 0.0215(3) 0.5874(3)
H14* H 0.50160 0.04430 0.55360
C26* C 1.3657(4) -0.1858(3) 0.8266(3)
H15* H 1.35100 -0.12700 0.77300
C27A C 0.5511(4) -0.1119(3) 0.9757(3)
H16A H 0.54350 -0.08610 0.91080
C28* C 0.5628(4) 0.1840(3) 0.5935(3)
C29* C 1.2838(4) -0.3004(3) 1.1064(3)
C31* C 0.7197(4) 0.2096(3) 0.6593(3)
H17* H 0.76110 0.25310 0.66790
C32* C 1.1784(4) -0.1412(3) 1.0457(3)
H18* H 1.12410 -0.09380 1.05920
C33* C 1.4612(5) -0.3474(4) 0.8871(4)
H19* H 1.51050 -0.39680 0.87360
C34* C 0.6228(4) 0.2457(3) 0.6090(3)
H20* H 0.60000 0.31270 0.58620
C35* C 1.3139(4) -0.3893(3) 1.1949(3)
C36* C 1.4356(5) -0.2589(4) 0.8078(4)
H21* H 1.46650 -0.25040 0.74220
C37* C 1.4141(4) -0.3618(3) 0.9848(4)
H22* H 1.43150 -0.42080 1.03690
U2* U -0.624456(13) 0.447194(10) 0.365806(11)
U2** U 0.375544(13) 0.447194(10) 0.365806(11)
U2*** U 1.375544(13) -0.552806(10) 1.365806(11)
O11* O -0.6318(3) 0.3644(2) 0.3175(2)
O12* O -0.6202(4) 0.5294(2) 0.4144(3)
O13* O 0.5951(3) -0.5452(2) 1.3052(3)
O14* O 0.7103(3) -0.4063(2) 1.2252(3)
C39* C 0.8283(4) -0.6522(3) 1.3621(3)
C40* C 0.7960(4) -0.5490(3) 1.3360(3)
C41* C 0.6922(4) -0.4956(3) 1.2857(3)
C42* C 0.7667(4) -0.7121(3) 1.3401(3)
H24* H 0.70150 -0.68490 1.30920
C44* C 0.9921(4) -0.6336(3) 1.4301(3)
C45* C 0.9577(4) -0.5361(3) 1.4037(3)
H26* H 1.00030 -0.49680 1.41670
C46* C 0.8599(4) -0.4942(3) 1.3576(3)
H27* H 0.83770 -0.42770 1.34120
C47* C 0.9292(4) -0.6948(3) 1.4086(3)
C48* C 0.9620(4) -0.7958(3) 1.4304(3)
H28* H 1.02720 -0.82520 1.46080
C49* C 0.9007(5) -0.8503(3) 1.4079(4)
H29* H 0.92530 -0.91600 1.42230
C50* C 0.8017(5) -0.8098(3) 1.3638(3)
H30* H 0.75920 -0.84870 1.35040
O15* O 1.0995(3) -0.7635(2) 1.5408(2)
O15** O 1.0995(3) 0.2365(2) 0.5408(2)
C51* C 1.0955(4) -0.6721(3) 1.4835(3)
O16* O 1.1721(3) -0.6087(2) 1.4698(2)
O16** O 0.1721(3) -0.6087(2) 1.4698(2)
O16*** O -0.8279(3) 0.3913(2) 0.4698(2)
H31A H 0.638(4) -0.307(4) 1.148(4)
#END
