
#######################################################################
#
#                 Cambridge Crystallographic Data Centre
#                                CCDC
#
#######################################################################
#
# If this CIF has been generated from an entry in the Cambridge
# Structural Database, then it will include bibliographic, chemical,
# crystal, experimental, refinement or atomic coordinate data resulting
# from the CCDC's data processing and validation procedures.
#
#######################################################################

data_CSD_CIF_IFIPUJ
_audit_creation_date 2008-12-02
_audit_creation_method CSD-ConQuest-V1
_database_code_CSD IFIPUJ
_database_code_depnum_ccdc_archive 'CCDC 295873'
_chemical_formula_sum 'C16 H30 N4 Ni2 O18'
_chemical_formula_moiety
;
(C6 H16 N4 Ni1 O4 2+)n,n(C10 H10 Ni1 O12 2-),2n(H2 O1)
;
_journal_coden_Cambridge 702
_journal_volume 24
_journal_year 2008
_journal_page_first 1168
_journal_name_full 'Wuji Huaxue Xuebao(Chin.)(Chin.J.Inorg.Chem.) '
loop_
_publ_author_name
"Quan-Zheng Zhang"
_chemical_name_systematic
;
catena-(Tetraaqua-bis(imidazole)-nickel(ii) 
(\m~2~-benzene-1,2,4,5-tetracarboxylato-O,O')-tetraaqua-nickel(ii) dihydrate)
;
_cell_volume    664.092
_exptl_crystal_colour 'green'
_exptl_crystal_density_diffrn 1.71
_exptl_crystal_description 'prism'
_diffrn_ambient_temperature 293
#These two values have been output from a single CSD field.
_refine_ls_R_factor_gt 0.0672
_refine_ls_wR_factor_gt 0.0672
_symmetry_cell_setting triclinic
_symmetry_space_group_name_H-M 'P -1'
_symmetry_Int_Tables_number 2
loop_
_symmetry_equiv_pos_site_id
_symmetry_equiv_pos_as_xyz
1 x,y,z
2 -x,-y,-z
_cell_length_a 6.7542(2)
_cell_length_b 10.0014(1)
_cell_length_c 10.9088(3)
_cell_angle_alpha 74.140(2)
_cell_angle_beta 74.388(1)
_cell_angle_gamma 73.239(2)
_cell_formula_units_Z 1
loop_
_atom_type_symbol
_atom_type_radius_bond
C 0.68
H 0.23
N 0.68
Ni 1.50
O 0.68
loop_
_atom_site_label
_atom_site_type_symbol
_atom_site_fract_x
_atom_site_fract_y
_atom_site_fract_z
Ni1 Ni 0.00000 0.00000 0.00000
Ni2 Ni -0.50000 0.50000 0.50000
O1 O 0.1784(11) -0.1996(7) 0.0816(7)
O2 O 0.2527(11) 0.0816(8) -0.0131(7)
O3 O -0.4461(9) 0.7130(6) 0.2014(5)
O4 O -0.3489(8) 0.4884(6) 0.3131(5)
O5 O -0.2671(10) 0.3244(7) 0.5638(6)
O6 O -0.3252(9) 0.6419(6) 0.4875(5)
O7 O 0.0465(8) 0.5889(6) 0.2939(5)
O8 O 0.2171(11) 0.3600(7) 0.2964(6)
O9 O 0.3529(16) 0.0988(10) 0.2125(10)
N1 N 0.1244(12) -0.0447(8) -0.1829(8)
C1 C 0.217(2) -0.0341(16) -0.3976(12)
H1 H 0.25090 -0.00030 -0.48720
C2 C 0.164(2) 0.0427(12) -0.3043(11)
H2 H 0.15470 0.14020 -0.31980
N2 N 0.2111(16) -0.1712(11) -0.334(1)
H3 H 0.23580 -0.24290 -0.36950
C3 C 0.1609(16) -0.1738(11) -0.2094(12)
H4 H 0.15150 -0.25660 -0.14570
C4 C -0.2068(12) 0.5607(9) -0.0182(7)
H5 H -0.34460 0.60110 -0.02990
C5 C -0.1561(11) 0.5475(7) 0.1004(7)
C6 C -0.3337(12) 0.5887(8) 0.2147(7)
C7 C 0.0489(12) 0.4872(8) 0.1202(7)
C8 C 0.1073(12) 0.4773(9) 0.2468(7)
H6 H -0.182(13) 0.342(8) 0.593(8)
H7 H 0.236(15) 0.103(10) 0.056(6)
H8 H 0.309(10) -0.205(14) 0.085(13)
H9 H -0.358(19) 0.277(13) 0.625(12)
H10 H 0.317(18) 0.144(11) -0.068(10)
H11 H 0.115(16) -0.259(10) 0.140(8)
H12 H 0.264(14) 0.117(12) 0.169(10)
H13 H 0.38(2) 0.168(11) 0.226(16)
H14 H -0.287(17) 0.640(12) 0.556(7)
H15 H -0.205(10) 0.629(12) 0.441(9)
Ni2* Ni 0.50000 0.50000 -0.50000
O1A O -0.1784(11) 0.1996(7) -0.0816(7)
O2A O -0.2527(11) -0.0816(8) 0.0131(7)
O3A O 0.4461(9) 0.2870(6) -0.2014(5)
O4A O 0.3489(8) 0.5116(6) -0.3131(5)
O4A* O -0.6511(8) 0.5116(6) 0.6869(5)
O5A O -0.7329(10) 0.6756(7) 0.4362(6)
O6A O -0.6748(9) 0.3581(6) 0.5125(5)
O7A O -0.0465(8) 0.4111(6) -0.2939(5)
O8A O -0.2171(11) 0.6400(7) -0.2964(6)
N1A N -0.1244(12) 0.0447(8) 0.1829(8)
C1A C -0.217(2) 0.0341(16) 0.3976(12)
H1A H -0.25090 0.00030 0.48720
C2A C -0.164(2) -0.0427(12) 0.3043(11)
H2A H -0.15470 -0.14020 0.31980
N2A N -0.2111(16) 0.1712(11) 0.334(1)
H3A H -0.23580 0.24290 0.36950
C3A C -0.1609(16) 0.1738(11) 0.2094(12)
H4A H -0.15150 0.25660 0.14570
C4A C 0.2068(12) 0.4393(9) 0.0182(7)
H5A H 0.34460 0.39890 0.02990
C5A C 0.1561(11) 0.4525(7) -0.1004(7)
C6A C 0.3337(12) 0.4113(8) -0.2147(7)
C7A C -0.0489(12) 0.5128(8) -0.1202(7)
C8A C -0.1073(12) 0.5227(9) -0.2468(7)
H6A H -0.818(13) 0.658(8) 0.407(8)
H7A H -0.236(15) -0.103(10) -0.056(6)
H8A H -0.309(10) 0.205(14) -0.085(13)
H9A H -0.642(19) 0.723(13) 0.375(12)
H10A H -0.317(18) -0.144(11) 0.068(10)
H11A H -0.115(16) 0.259(10) -0.140(8)
H14A H -0.713(17) 0.360(12) 0.444(7)
H15A H -0.795(10) 0.371(12) 0.559(9)
#END
