
#######################################################################
#
#                 Cambridge Crystallographic Data Centre
#                                CCDC
#
#######################################################################
#
# If this CIF has been generated from an entry in the Cambridge
# Structural Database, then it will include bibliographic, chemical,
# crystal, experimental, refinement or atomic coordinate data resulting
# from the CCDC's data processing and validation procedures.
#
#######################################################################

data_CSD_CIF_IFIPIZ
_audit_creation_date 2018-08-09
_audit_creation_method CSD-ConQuest-V1
_database_code_CSD IFIPIZ
_database_code_depnum_ccdc_archive 'CCDC 1839770'
_chemical_formula_sum 'C16 H20 In1 N1 O10 S2'
_chemical_formula_moiety
;
C4 H12 N1 1+,n(C12 H4 In1 O8 S2 1-),2(H2 O1)
;
_journal_coden_Cambridge 1295
_journal_volume 95
_journal_year 2018
_journal_page_first 22
_journal_name_full 'Inorg.Chem.Commun. '
loop_
_publ_author_name
"Daofu Liu"
"Gulin Wen"
"Weiwei Zhou"
_chemical_name_systematic
;
catena-[tetramethylammonium bis(\m-thiophene-2,5-dicarboxylato)-indium(iii) 
dihydrate]
;
_cell_volume   6545.814
_exptl_crystal_colour 'colorless'
_exptl_crystal_description 'prism'
_diffrn_ambient_temperature 293
_refine_special_details
;
The structure is disordered. The authors report the structure as a dihydrate, 
however no water is modelled from the diffraction data. We calculate 11% void 
space in the structure.
;
#These two values have been output from a single CSD field.
_refine_ls_R_factor_gt 0.0609
_refine_ls_wR_factor_gt 0.0609
_symmetry_cell_setting cubic
_symmetry_space_group_name_H-M 'P 21 3'
_symmetry_Int_Tables_number 198
loop_
_symmetry_equiv_pos_site_id
_symmetry_equiv_pos_as_xyz
1 x,y,z
2 1/2-x,-y,1/2+z
3 -x,1/2+y,1/2-z
4 1/2+x,1/2-y,-z
5 z,x,y
6 1/2+z,1/2-x,-y
7 1/2-z,-x,1/2+y
8 -z,1/2+x,1/2-y
9 y,z,x
10 -y,1/2+z,1/2-x
11 1/2+y,1/2-z,-x
12 1/2-y,-z,1/2+x
_cell_length_a 18.7063(2)
_cell_length_b 18.7063(2)
_cell_length_c 18.7063(2)
_cell_angle_alpha 90
_cell_angle_beta 90
_cell_angle_gamma 90
_cell_formula_units_Z 12
loop_
_atom_type_symbol
_atom_type_radius_bond
C 0.68
H 0.23
In 1.42
N 0.68
O 0.68
S 1.02
loop_
_atom_site_label
_atom_site_type_symbol
_atom_site_fract_x
_atom_site_fract_y
_atom_site_fract_z
In1 In 0.37162(4) 0.52085(4) 0.74499(4)
O1 O 0.1972(6) 0.4865(6) 1.1495(4)
O2 O 0.6557(5) 0.1367(4) 0.7392(5)
O3 O 0.4709(5) 0.4617(4) 0.7466(6)
O4 O 0.0915(5) 0.4538(5) 1.1237(5)
O5 O 0.3890(6) 0.3880(6) 0.7275(7)
O6 O 0.5435(5) 0.1085(5) 0.7254(5)
O7 O 0.2691(5) 0.4900(5) 0.7949(4)
O8 O 0.3557(5) 0.5018(6) 0.8733(5)
C1 C 0.5696(7) 0.2315(6) 0.7228(6)
C2 C 0.1724(6) 0.4677(6) 1.0302(6)
C3 C 0.5778(7) 0.3517(7) 0.7273(7)
H1 H 0.60030 0.39600 0.72880
C4 C 0.2395(7) 0.4794(7) 0.9153(6)
C5 C 0.5057(7) 0.3436(6) 0.7298(6)
C6 C 0.1288(9) 0.4560(8) 0.9706(6)
H2 H 0.08040 0.44500 0.97340
C7 C 0.2964(10) 0.4927(7) 0.8586(8)
C8 C 0.4501(9) 0.3998(7) 0.7339(7)
C9 C 0.1530(7) 0.4681(6) 1.1041(6)
C10 C 0.1673(7) 0.4628(8) 0.9049(7)
H3 H 0.14660 0.45680 0.86010
C11 C 0.6150(7) 0.2871(6) 0.7221(7)
H4 H 0.66440 0.28320 0.71880
C12 C 0.5914(8) 0.1534(6) 0.7288(6)
S1 S 0.48347(17) 0.25530(17) 0.72355(18)
S2 S 0.25855(19) 0.48416(19) 1.00318(15)
C13 C -0.0938(12) 0.4496(12) 1.1600(11)
C14 C -0.1583(17) 0.3417(17) 1.1583(17)
N1 N -0.1113(7) 0.3887(7) 1.1113(7)
C15 C 0.5526(11) 0.5124(11) 0.9063(11)
C16 C 0.4874(12) 0.5126(12) 1.0126(12)
N2 N 0.5306(6) 0.4694(6) 0.9694(6)
N3? N 0.1734(11) 0.3266(11) 0.6734(11)
C17? C 0.1408(13) 0.2578(13) 0.6701(12)
C18? C 0.108(5) 0.392(5) 0.608(5)
In1A In 0.12838(4) 0.47915(4) 1.24499(4)
In1B In 0.62838(4) 0.02085(4) 0.75501(4)
O1A O 0.3028(6) 0.5135(6) 0.6495(4)
O2B O 0.3443(5) 0.6367(4) 0.7608(5)
O4A O 0.4085(5) 0.5462(5) 0.6237(5)
O6B O 0.4565(5) 0.6085(5) 0.7746(5)
C13G C -0.1600(12) 0.4062(12) 1.0504(11)
C13J C -0.0504(12) 0.3400(12) 1.0938(11)
C15F C 0.5937(11) 0.4474(11) 1.0124(11)
C15I C 0.4876(11) 0.4063(11) 0.9474(11)
#END
