
#######################################################################
#
#                 Cambridge Crystallographic Data Centre
#                                CCDC
#
#######################################################################
#
# If this CIF has been generated from an entry in the Cambridge
# Structural Database, then it will include bibliographic, chemical,
# crystal, experimental, refinement or atomic coordinate data resulting
# from the CCDC's data processing and validation procedures.
#
#######################################################################

data_CSD_CIF_IFOFAK
_audit_creation_date 2002-09-05
_audit_creation_method CSD-ConQuest-V1
_database_code_CSD IFOFAK
_database_code_depnum_ccdc_archive 'CCDC 189221'
_chemical_formula_sum 'C12 H17 K3 N2 O19 W2'
_chemical_formula_moiety
;
(C12 H13 N2 O17 W2 3-)n,3n(K1 1+),2n(H2 O1)
;
_journal_coden_Cambridge 1295
_journal_volume 5
_journal_year 2002
_journal_page_first 388
_journal_name_full 'Inorg.Chem.Commun. '
loop_
_publ_author_name
"Zhao-Hui Zhou"
"Shu-Ya Hou"
"Zhi-Jie Ma"
"Hui-Lin Wan"
"Khi-Rui Tsai"
"Seik Weng Ng"
_chemical_name_systematic
;
catena-(Tri-potassium (\m~2~-hydrogen 
bis(trans-nitrilotriacetato-O,O',O'',O'''))-(\m~2~-oxo)-bis(cis-dioxo-tungsten
(vi)) dihydrate)
;
_cell_volume   2460.801
_exptl_crystal_colour 'colorless'
_exptl_crystal_density_diffrn 2.641
_exptl_special_details
;
The acid hydrogen is located at the centre of symmetry

;
_diffrn_ambient_temperature 298
#These two values have been output from a single CSD field.
_refine_ls_R_factor_gt 0.055
_refine_ls_wR_factor_gt 0.055
_symmetry_cell_setting monoclinic
_symmetry_space_group_name_H-M 'C 2/c'
_symmetry_Int_Tables_number 15
loop_
_symmetry_equiv_pos_site_id
_symmetry_equiv_pos_as_xyz
1 x,y,z
2 1/2+x,1/2+y,z
3 x,-y,1/2+z
4 1/2+x,1/2-y,1/2+z
5 -x,-y,-z
6 -1/2-x,-1/2-y,-z
7 -x,y,-1/2-z
8 -1/2-x,-1/2+y,-1/2-z
_cell_length_a 14.981(1)
_cell_length_b 10.188(1)
_cell_length_c 16.895(2)
_cell_angle_alpha 90
_cell_angle_beta 107.387(6)
_cell_angle_gamma 90
_cell_formula_units_Z 4
loop_
_atom_type_symbol
_atom_type_radius_bond
C 0.68
H 0.23
K 1.33
N 0.68
O 0.68
W 1.37
loop_
_atom_site_label
_atom_site_type_symbol
_atom_site_fract_x
_atom_site_fract_y
_atom_site_fract_z
W1 W 0.37037(3) 0.03058(4) 0.20933(2)
K1 K 0.5284(2) -0.3231(3) 0.36487(16)
K2 K 0.25000 -0.25000 0.50000
O1 O 0.3941(6) -0.1129(7) 0.3052(5)
O2 O 0.4073(7) -0.1698(9) 0.4353(6)
O3 O 0.2402(6) 0.0093(9) 0.2200(6)
O4 O 0.1209(6) 0.0793(9) 0.2609(6)
O5 O 0.4960(7) 0.4400(9) 0.4332(6)
H1 H 0.50000 0.50000 0.50000
O6 O 0.3893(7) 0.3184(9) 0.4671(5)
O7 O 0.3633(6) -0.0896(9) 0.1362(5)
O8 O 0.3408(6) 0.1756(9) 0.1546(5)
O9 O 0.50000 0.0596(11) 0.25000
O10 O 0.2185(14) 0.006(2) 0.4768(12)
H2 H 0.17220 0.03200 0.49320
H3 H 0.26750 0.05220 0.50890
N1 N 0.3700(6) 0.1467(8) 0.3337(6)
C1 C 0.3983(7) -0.0859(11) 0.3806(7)
C2 C 0.4037(9) 0.0564(12) 0.4042(7)
H4 H 0.36710 0.07020 0.44220
H5 H 0.46820 0.07790 0.43350
C3 C 0.2035(8) 0.0838(10) 0.2646(7)
C4 C 0.2698(8) 0.1827(11) 0.3181(7)
H6 H 0.25870 0.26780 0.29120
H7 H 0.25680 0.19040 0.37080
C5 C 0.4361(8) 0.3448(11) 0.4211(6)
C6 C 0.4279(8) 0.2658(10) 0.3424(6)
H8 H 0.40150 0.32180 0.29480
H9 H 0.49020 0.24060 0.34190
O5D O 0.5040(7) 0.5600(9) 0.5668(6)
C5D C 0.5639(8) 0.6552(11) 0.5789(6)
O6D O 0.6107(7) 0.6816(9) 0.5329(5)
C6D C 0.5721(8) 0.7342(10) 0.6576(6)
N1D N 0.6300(6) 0.8533(8) 0.6663(6)
C2D C 0.5963(9) 0.9436(12) 0.5958(7)
C1D C 0.6017(7) 1.0859(11) 0.6194(7)
O1D O 0.6059(6) 1.1129(7) 0.6948(5)
O2D O 0.5927(7) 1.1698(9) 0.5647(6)
H4D H 0.63290 0.92980 0.55780
H5D H 0.53180 0.92210 0.56650
C4D C 0.7302(8) 0.8173(11) 0.6819(7)
C3D C 0.7965(8) 0.9162(10) 0.7354(7)
O3D O 0.7598(6) 0.9907(9) 0.7800(6)
O4D O 0.8791(6) 0.9207(9) 0.7391(6)
H6D H 0.74130 0.73220 0.70880
H7D H 0.74320 0.80960 0.62920
H8D H 0.59850 0.67820 0.70520
H9D H 0.50980 0.75940 0.65810
W1D W 0.62963(3) 0.96942(4) 0.79067(2)
O7D O 0.6367(6) 1.0896(9) 0.8638(5)
O8D O 0.6592(6) 0.8244(9) 0.8454(5)
W1F W 0.62963(3) 0.03058(4) 0.29067(2)
O9B O 0.50000 0.9404(11) 0.75000
#END
