
#######################################################################
#
#                 Cambridge Crystallographic Data Centre
#                                CCDC
#
#######################################################################
#
# If this CIF has been generated from an entry in the Cambridge
# Structural Database, then it will include bibliographic, chemical,
# crystal, experimental, refinement or atomic coordinate data resulting
# from the CCDC's data processing and validation procedures.
#
#######################################################################

data_CSD_CIF_IFUDAO
_audit_creation_date 2002-09-05
_audit_creation_method CSD-ConQuest-V1
_database_code_CSD IFUDAO
_database_code_depnum_ccdc_archive 'CCDC 189545'
_chemical_formula_sum 'C8 H15.8 Cd1 N2 O19.9 Zr1'
_chemical_formula_moiety
;
(H4 N1 1+)2n,n(C8 Cd1 O16 Zr1 2-),3.9n(H2 O1)
;
_journal_coden_Cambridge 1096
_journal_volume 14
_journal_year 2002
_journal_page_first 1187
_journal_name_full 'Chem.Mater. '
loop_
_publ_author_name
"E.Jeanneau"
"N.Audebrand"
"D.Louer"
_chemical_name_systematic
;
catena-(Diammonium tetrakis(\m~2~-oxalato)-cadmium-zirconium hydrate)
;
_cell_volume   1663.364
_exptl_crystal_colour 'colorless'
_exptl_crystal_density_diffrn 1.984
_exptl_crystal_description 'bipyramidal'
_diffrn_ambient_temperature 298
#These two values have been output from a single CSD field.
_refine_ls_R_factor_gt 0.0309
_refine_ls_wR_factor_gt 0.0309
_symmetry_cell_setting hexagonal
_symmetry_space_group_name_H-M 'P 64 2 2'
_symmetry_Int_Tables_number 181
loop_
_symmetry_equiv_pos_site_id
_symmetry_equiv_pos_as_xyz
1 x,y,z
2 -y,x-y,1/3+z
3 -x+y,-x,-1/3+z
4 -x,-y,z
5 y,-x+y,1/3+z
6 x-y,x,-1/3+z
7 y,x,1/3-z
8 x-y,-y,-z
9 -x,-x+y,-1/3-z
10 -y,-x,1/3-z
11 -x+y,y,-z
12 x,x-y,-1/3-z
_cell_length_a 9.061(5)
_cell_length_b 9.061(5)
_cell_length_c 23.394(5)
_cell_angle_alpha 90
_cell_angle_beta 90
_cell_angle_gamma 120
_cell_formula_units_Z 3
loop_
_atom_type_symbol
_atom_type_radius_bond
C 0.68
H 0.23
Cd 1.69
N 0.68
O 0.68
Zr 1.56
loop_
_atom_site_label
_atom_site_type_symbol
_atom_site_fract_x
_atom_site_fract_y
_atom_site_fract_z
Cd1 Cd 1.00000 0.50000 0.33330
Zr1 Zr 0.50000 0.00000 0.50000
O1 O 0.9199(3) 0.2629(3) 0.38899(9)
O2 O 0.7344(3) 0.0832(2) 0.45216(8)
O3 O 0.5461(3) 0.2209(3) 0.44576(9)
O4 O 0.7388(3) 0.4354(3) 0.39134(10)
C1 C 0.7916(4) 0.2109(4) 0.41857(10)
C2 C 0.6854(3) 0.3011(3) 0.41763(11)
N1 N 1.00000 0.00000 0.50000
N2 N 1.00000 0.00000 0.33330
O5 O 0.7539(4) -0.2435(4) 0.41620(12)
H1 H 1.079(3) 0.100(5) 0.3577(11)
H2 H 0.8998(9) -0.0744(11) 0.4756(4)
H3 H 0.643(3) -0.256(5) 0.4176(17)
H4 H 0.727(5) -0.358(3) 0.4200(17)
O2C O 0.2656(3) -0.0832(2) 0.45216(8)
O3C O 0.4539(3) -0.2209(3) 0.44576(9)
O2G O 0.6512(3) -0.0832(2) 0.54784(8)
O2J O 0.3488(3) 0.0832(2) 0.54784(8)
O1C O 1.0801(3) 0.7371(3) 0.38899(9)
O1H O 1.0801(3) 0.3430(3) 0.277677(90)
O1K O 0.9199(3) 0.6570(3) 0.277677(90)
O4C O 1.2612(3) 0.5646(3) 0.39134(10)
O4H O 1.2612(3) 0.6966(3) 0.275327(100)
O4K O 0.7388(3) 0.3034(3) 0.275327(100)
O3G O 0.3252(3) -0.2209(3) 0.55424(9)
O3J O 0.6748(3) 0.2209(3) 0.55424(9)
H2C H 1.1002(9) 0.0744(11) 0.4756(4)
H2G H 0.9742(9) 0.0744(11) 0.5244(4)
H2J H 1.0258(9) -0.0744(11) 0.5244(4)
H1C H 0.921(3) -0.100(5) 0.3577(11)
H1H H 0.921(3) 0.021(5) 0.308967(1100)
H1K H 1.079(3) -0.021(5) 0.308967(1100)
C1C C 1.2084(4) 0.7891(4) 0.41857(10)
C1H C 1.2084(4) 0.4193(4) 0.248097(100)
C1K C 0.7916(4) 0.5807(4) 0.248097(100)
C2C C 1.3146(3) 0.6989(3) 0.41763(11)
C2H C 1.3146(3) 0.6157(3) 0.249037(110)
C2K C 0.6854(3) 0.3843(3) 0.249037(110)
O2C* O 1.2656(3) 0.9168(2) 0.45216(8)
O2H O 1.2656(3) 0.3488(2) 0.214507(80)
O2K O 0.7344(3) 0.6512(2) 0.214507(80)
O3C* O 1.4539(3) 0.7791(3) 0.44576(9)
O3H O 1.4539(3) 0.6748(3) 0.220907(90)
O3K O 0.5461(3) 0.3252(3) 0.220907(90)
Zr1B Zr 0.50000 0.50000 0.16667
Zr1* Zr 1.50000 1.00000 0.50000
Zr1B* Zr 1.50000 0.50000 0.16667
#END
