
#######################################################################
#
#                 Cambridge Crystallographic Data Centre
#                                CCDC
#
#######################################################################
#
# If this CIF has been generated from an entry in the Cambridge
# Structural Database, then it will include bibliographic, chemical,
# crystal, experimental, refinement or atomic coordinate data resulting
# from the CCDC's data processing and validation procedures.
#
#######################################################################

data_CSD_CIF_IGAGAA
_audit_creation_date 2013-08-07
_audit_creation_method CSD-ConQuest-V1
_database_code_CSD IGAGAA
_database_code_depnum_ccdc_archive 'CCDC 909522'
_chemical_formula_sum 'C12 H19 Co3 N10 O12.5'
_chemical_formula_moiety
;
(C10 H4 Co3 N9 O9 1-)n,n(C2 H8 N1 1+),3.5n(H2 O1)
;
_journal_coden_Cambridge 182
_journal_volume 49
_journal_year 2013
_journal_page_first 8226
_journal_name_full 'Chem.Commun. '
loop_
_publ_author_name
"Ji-Yong Zou"
"Wei Shi"
"Na Xu"
"Lei-Lei Li"
"Jin-Kui Tang"
"Hong-Ling Gao"
"Jian-Zhong Cui"
"Peng Cheng"
_chemical_name_systematic
;
catena-(Dimethylammonium 
bis(\m~4~-4,5-dicarboxylato-1H-1,2,3-triazolato)-(\m~3~-1,2,4-triazolato)-aqua
-tri-cobalt hydrate)
;
_cell_volume   9834.511
_exptl_crystal_colour 'pink'
_exptl_crystal_density_diffrn 1.824
_exptl_crystal_description 'rhombic'
_diffrn_ambient_temperature 293
_refine_special_details
;
O9 disordered by symmetry over two sites with occupancy 0.25.

;
#These two values have been output from a single CSD field.
_refine_ls_R_factor_gt 0.049
_refine_ls_wR_factor_gt 0.049
_symmetry_cell_setting orthorhombic
_symmetry_space_group_name_H-M 'F d d d'
_symmetry_Int_Tables_number 70
loop_
_symmetry_equiv_pos_site_id
_symmetry_equiv_pos_as_xyz
1 x,y,z
2 1/4-x,1/4-y,z
3 x,1/4-y,1/4-z
4 1/4-x,y,1/4-z
5 x,1/2+y,1/2+z
6 1/4-x,3/4-y,1/2+z
7 x,3/4-y,3/4-z
8 1/4-x,1/2+y,3/4-z
9 1/2+x,y,1/2+z
10 3/4-x,1/4-y,1/2+z
11 1/2+x,1/4-y,3/4-z
12 3/4-x,y,3/4-z
13 1/2+x,1/2+y,z
14 3/4-x,3/4-y,z
15 1/2+x,3/4-y,1/4-z
16 3/4-x,1/2+y,1/4-z
17 -x,-y,-z
18 -1/4+x,-1/4+y,-z
19 -x,-1/4+y,-1/4+z
20 -1/4+x,-y,-1/4+z
21 -x,-1/2-y,-1/2-z
22 -1/4+x,-3/4+y,-1/2-z
23 -x,-3/4+y,-3/4+z
24 -1/4+x,-1/2-y,-3/4+z
25 -1/2-x,-y,-1/2-z
26 -3/4+x,-1/4+y,-1/2-z
27 -1/2-x,-1/4+y,-3/4+z
28 -3/4+x,-y,-3/4+z
29 -1/2-x,-1/2-y,-z
30 -3/4+x,-3/4+y,-z
31 -1/2-x,-3/4+y,-1/4+z
32 -3/4+x,-1/2-y,-1/4+z
_cell_length_a 15.6139(8)
_cell_length_b 18.3439(11)
_cell_length_c 34.336(3)
_cell_angle_alpha 90
_cell_angle_beta 90
_cell_angle_gamma 90
_cell_formula_units_Z 16
loop_
_atom_type_symbol
_atom_type_radius_bond
C 0.68
H 0.23
Co 1.26
N 0.68
O 0.68
loop_
_atom_site_label
_atom_site_type_symbol
_atom_site_fract_x
_atom_site_fract_y
_atom_site_fract_z
Co1 Co 0.50379(5) 0.61040(4) 0.48158(2)
Co2 Co 0.87500 0.37500 0.56079(3)
N1 N 0.6760(3) 0.5568(3) 0.50860(15)
O1 O 0.8323(3) 0.5892(2) 0.52589(14)
C1 C 0.7201(4) 0.5055(3) 0.52759(18)
C2 C 0.8093(4) 0.5272(3) 0.53810(19)
O2 O 0.7407(2) 0.3483(2) 0.56220(13)
O3 O 0.6002(3) 0.3416(2) 0.55570(13)
N2 N 0.5880(3) 0.4692(2) 0.52115(15)
O4 O 0.8543(3) 0.4873(2) 0.55976(14)
C3 C 0.6700(4) 0.3738(3) 0.55281(17)
N3 N 0.5957(3) 0.5348(2) 0.50529(15)
C4 C 0.6645(3) 0.4488(3) 0.53534(18)
N4 N 0.87500 0.37500 0.6209(2)
O5 O 0.87500 0.37500 0.5007(2)
N5 N 0.8310(3) 0.3802(3) 0.68250(15)
C5 C 0.8093(4) 0.3834(3) 0.64594(17)
H1 H 0.75310 0.39090 0.63780
H2 H 0.843(4) 0.353(4) 0.4841(16)
O6 O 0.7677(4) 0.3076(3) 0.45192(19)
H3 H 0.79000 0.26700 0.44580
H4 H 0.72510 0.30040 0.46690
O7 O 0.37500 0.7590(4) 0.37500
N6 N 0.7380(8) 0.37500 0.37500
H5 H 0.77180 0.35330 0.39280
C6 C 0.6830(8) 0.4309(8) 0.3945(4)
H6 H 0.65660 0.46120 0.37510
H7 H 0.71760 0.46040 0.41140
H8 H 0.63950 0.40690 0.40950
O8 O 0.62500 0.4722(15) 0.62500
H9? H 0.77180 0.35330 0.39280
O9? O 0.62500 0.5988(14) 0.62500
N5M N 0.9190(3) 0.3698(3) 0.68250(15)
C5M C 0.9407(4) 0.3666(3) 0.64594(17)
H1M H 0.99690 0.35910 0.63780
H2M H 0.907(4) 0.397(4) 0.4841(16)
Co1A Co 0.74621(5) 0.63960(4) 0.48158(2)
N1A N 0.5740(3) 0.6932(3) 0.50860(15)
O1A O 0.4177(3) 0.6608(2) 0.52589(14)
C1A C 0.5299(4) 0.7445(3) 0.52759(18)
C2A C 0.4407(4) 0.7228(3) 0.53810(19)
O2A O 0.5093(2) 0.9017(2) 0.56220(13)
O3A O 0.6498(3) 0.9084(2) 0.55570(13)
N2A N 0.6620(3) 0.7808(2) 0.52115(15)
O4A O 0.3957(3) 0.7627(2) 0.55976(14)
C3A C 0.5800(4) 0.8762(3) 0.55281(17)
N3A N 0.6543(3) 0.7152(2) 0.50529(15)
C4A C 0.5855(3) 0.8012(3) 0.53534(18)
Co1P Co 0.49621(5) 0.38960(4) 0.51842(2)
Co1Z Co 0.99621(5) 0.36040(4) 0.73158(2)
Co1AA Co 0.75379(5) 0.38960(4) 0.73158(2)
Co1CA Co 0.75379(5) 0.86040(4) 0.51842(2)
Co2A Co 0.37500 0.87500 0.56079(3)
O2M O 1.0093(2) 0.4017(2) 0.56220(13)
O3P O 0.3998(3) 0.6584(2) 0.44430(13)
O3CA O 0.8502(3) 0.5916(2) 0.44430(13)
N2P N 0.4120(3) 0.5308(2) 0.47885(15)
N2CA N 0.8380(3) 0.7192(2) 0.47885(15)
O4M O 0.8957(3) 0.2627(2) 0.55976(14)
N5S N 0.5810(3) 0.6198(3) 0.43250(15)
N5DA N 0.6690(3) 0.6302(3) 0.43250(15)
H5F H 0.77180 0.39670 0.35720
C6F C 0.6830(8) 0.3191(8) 0.3555(4)
H6F H 0.65660 0.28880 0.37490
H7F H 0.71760 0.28960 0.33860
H8F H 0.63950 0.34310 0.34050
#END
