
#######################################################################
#
#                 Cambridge Crystallographic Data Centre
#                                CCDC
#
#######################################################################
#
# If this CIF has been generated from an entry in the Cambridge
# Structural Database, then it will include bibliographic, chemical,
# crystal, experimental, refinement or atomic coordinate data resulting
# from the CCDC's data processing and validation procedures.
#
#######################################################################

data_CSD_CIF_IGECEF
_audit_creation_date 2020-03-03
_audit_creation_method CSD-ConQuest-V1
_database_code_CSD IGECEF
_database_code_depnum_ccdc_archive 'CCDC 1969999'
_chemical_formula_sum 'C50 H37 K1 N8 O20 Tb2'
_chemical_formula_moiety
;
(C50 H30 K1 N8 O17 Tb2 1-)n,H3 O1 1+,2(H2 O1)
;
_journal_coden_Cambridge 1699
_journal_volume 8
_journal_year 2020
_journal_page_first 5587
_journal_name_full 'J.Mater.Chem.A '
loop_
_publ_author_name
"Tiancheng Sun"
"Ruiqing Fan"
"Rui Xiao"
"Tingfeng Xing"
"Mingyue Qin"
"Yaqi Liu"
"Sue Hao"
"Wei Chen"
"Yulin Yang"
_chemical_name_systematic
;
catena-[oxonium 
tetrakis(\m-[2,2'-bipyridine]-6,6'-dicarboxylato)-(ethanol)-potassium-di-terbi
um dihydrate]
;
_cell_volume  20271.172
_exptl_crystal_colour 'colorless'
_exptl_crystal_density_diffrn 1.87
_exptl_crystal_description 'block'
_diffrn_ambient_temperature 172
#These two values have been output from a single CSD field.
_refine_ls_R_factor_gt 0.0566
_refine_ls_wR_factor_gt 0.0566
_symmetry_cell_setting tetragonal
_symmetry_space_group_name_H-M 'I 41/a'
_symmetry_Int_Tables_number 88
loop_
_symmetry_equiv_pos_site_id
_symmetry_equiv_pos_as_xyz
1 x,y,z
2 1/2-x,-y,1/2+z
3 3/4-y,1/4+x,1/4+z
4 3/4+y,3/4-x,3/4+z
5 1/2+x,1/2+y,1/2+z
6 -x,1/2-y,z
7 1/4-y,3/4+x,3/4+z
8 1/4+y,1/4-x,1/4+z
9 -x,-y,-z
10 -1/2+x,y,-1/2-z
11 -3/4+y,-1/4-x,-1/4-z
12 -3/4-y,-3/4+x,-3/4-z
13 -1/2-x,-1/2-y,-1/2-z
14 x,-1/2+y,-z
15 -1/4+y,-3/4-x,-3/4-z
16 -1/4-y,-1/4+x,-1/4-z
_cell_length_a 26.3404(6)
_cell_length_b 26.3404(6)
_cell_length_c 29.2169(12)
_cell_angle_alpha 90
_cell_angle_beta 90
_cell_angle_gamma 90
_cell_formula_units_Z 16
loop_
_atom_type_symbol
_atom_type_radius_bond
C 0.68
H 0.23
K 2.03
N 0.68
O 0.68
Tb 1.94
loop_
_atom_site_label
_atom_site_type_symbol
_atom_site_fract_x
_atom_site_fract_y
_atom_site_fract_z
Tb1 Tb 0.35919(2) 0.91838(2) 0.02092(2)
Tb2 Tb 0.09034(2) 0.63047(2) 0.05469(2)
K1 K 0.33623(4) 0.66520(4) 0.00942(3)
O1 O 0.37040(19) 0.83046(17) 0.0114(2)
O2 O 0.3411(2) 0.75124(18) 0.01218(18)
O3 O 0.36986(18) 1.00646(18) 0.02575(19)
O4 O 0.3398(2) 1.08340(18) 0.0124(2)
O5 O 0.33591(18) 0.9236(2) -0.05540(17)
O6 O 0.3508(3) 0.9454(4) -0.1273(2)
O7 O 0.36217(18) 0.90433(19) 0.10104(17)
O8 O 0.4037(2) 0.8902(2) 0.16630(17)
O9 O 0.17236(18) 0.66672(18) 0.05366(19)
O10 O 0.25620(19) 0.6583(2) 0.0457(2)
O11 O 0.00360(18) 0.61590(18) 0.05002(19)
O12 O -0.0656(2) 0.5670(2) 0.0562(3)
O13 O 0.0911(2) 0.61670(19) -0.02442(19)
O14 O 0.0729(4) 0.6428(3) -0.0957(2)
O15 O 0.0871(2) 0.62127(18) 0.13561(18)
O16 O 0.0787(2) 0.6524(2) 0.20655(18)
O17 O 0.2863(2) 0.6725(2) -0.05969(18)
H1 H 0.28797 0.64394 -0.07950
N1 N 0.2776(2) 0.8689(2) 0.02374(19)
N2 N 0.2775(2) 0.9678(2) 0.02994(19)
N3 N 0.44745(19) 0.91778(19) 0.05467(18)
N4 N 0.4329(2) 0.9316(2) -0.03310(19)
N5 N 0.1610(2) 0.5669(2) 0.0637(2)
N6 N 0.0653(2) 0.5385(2) 0.0604(2)
N7 N 0.0734(2) 0.7090(2) 0.0087(2)
N8 N 0.07335(19) 0.7116(2) 0.0987(2)
C1 C 0.2818(2) 0.8185(2) 0.0192(2)
C2 C 0.2392(3) 0.7864(3) 0.0189(3)
H2 H 0.24279 0.75056 0.01748
C3 C 0.1920(3) 0.8091(3) 0.0209(3)
H3 H 0.16238 0.78863 0.01952
C4 C 0.1874(3) 0.8608(3) 0.0249(3)
H4 H 0.15483 0.87623 0.02626
C5 C 0.2313(2) 0.8903(2) 0.0269(2)
C6 C 0.2314(2) 0.9463(2) 0.0329(2)
C7 C 0.1880(3) 0.9747(3) 0.0406(3)
H5 H 0.15577 0.95876 0.04328
C8 C 0.1927(3) 1.0273(3) 0.0444(3)
H6 H 0.16362 1.04756 0.05047
C9 C 0.2399(3) 1.0498(3) 0.0394(3)
H7 H 0.24369 1.08566 0.04091
C10 C 0.2811(2) 1.0187(2) 0.0321(2)
C11 C 0.3351(3) 0.7986(2) 0.0139(2)
C12 C 0.3342(3) 1.0379(2) 0.0229(2)
C13 C 0.4523(3) 0.9094(3) 0.0998(2)
C14 C 0.4983(3) 0.9084(3) 0.1219(3)
H8 H 0.50025 0.90187 0.15381
C15 C 0.5418(3) 0.9169(3) 0.0966(3)
H9 H 0.57402 0.91677 0.11113
C16 C 0.5383(3) 0.9257(3) 0.0501(3)
H10 H 0.56791 0.93139 0.03216
C17 C 0.4901(2) 0.9259(2) 0.0301(2)
C18 C 0.4814(2) 0.9344(2) -0.0196(2)
C19 C 0.5206(3) 0.9455(3) -0.0508(3)
H11 H 0.55493 0.94699 -0.04104
C20 C 0.5080(3) 0.9539(3) -0.0957(3)
H12 H 0.53385 0.96100 -0.11747
C21 C 0.4578(3) 0.9522(3) -0.1092(3)
H13 H 0.44846 0.95890 -0.13997
C22 C 0.4213(3) 0.9403(3) -0.0766(2)
C23 C 0.3651(3) 0.9364(3) -0.0886(2)
C24 C 0.4016(3) 0.9007(2) 0.1245(2)
C25 C 0.2088(2) 0.5855(2) 0.0668(2)
C26 C 0.2492(3) 0.5558(3) 0.0798(3)
H14 H 0.28225 0.56987 0.08276
C27 C 0.2405(3) 0.5049(3) 0.0885(3)
H15 H 0.26776 0.48352 0.09761
C28 C 0.1920(3) 0.4851(3) 0.0840(3)
H16 H 0.18573 0.45012 0.08934
C29 C 0.1526(3) 0.5175(2) 0.0715(2)
C30 C 0.0988(3) 0.5008(3) 0.0658(3)
C31 C 0.0838(3) 0.4499(3) 0.0662(3)
H17 H 0.10808 0.42340 0.06939
C32 C 0.0324(3) 0.4391(3) 0.0617(4)
H18 H 0.02120 0.40478 0.06138
C33 C -0.0025(3) 0.4779(3) 0.0576(3)
H19 H -0.03784 0.47106 0.05527
C34 C 0.0156(3) 0.5270(3) 0.0570(3)
C35 C 0.2133(2) 0.6412(3) 0.0541(2)
C36 C -0.0197(3) 0.5733(3) 0.0544(3)
C37 C 0.0740(3) 0.7043(3) -0.0370(3)
C38 C 0.0701(3) 0.7453(3) -0.0663(3)
H20 H 0.07174 0.74081 -0.09853
C39 C 0.0638(3) 0.7933(3) -0.0472(3)
H21 H 0.06058 0.82218 -0.06650
C40 C 0.0622(3) 0.7989(3) -0.0001(3)
H22 H 0.05789 0.83138 0.01334
C41 C 0.0672(2) 0.7555(2) 0.0271(2)
C42 C 0.0678(2) 0.7571(2) 0.0783(2)
C43 C 0.0640(3) 0.8017(3) 0.1035(3)
H23 H 0.06159 0.83363 0.08853
C44 C 0.0637(3) 0.7989(3) 0.1507(3)
H24 H 0.06041 0.82897 0.16843
C45 C 0.0682(3) 0.7527(3) 0.1721(3)
H25 H 0.06773 0.75003 0.20454
C46 C 0.0736(2) 0.7097(2) 0.1445(2)
C47 C 0.0797(3) 0.6504(3) -0.0547(3)
C48 C 0.0798(3) 0.6569(3) 0.1643(3)
C49 C 0.2551(5) 0.7122(5) -0.0752(4)
H26 H 0.26025 0.71632 -0.10859
H27 H 0.26608 0.74413 -0.06028
C50 C 0.1976(4) 0.7044(5) -0.0659(4)
H28 H 0.17862 0.73360 -0.07774
H29 H 0.18607 0.67344 -0.08132
H30 H 0.19190 0.70129 -0.03292
O18 O 0.1102(4) 0.5772(4) -0.1578(4)
H31 H 0.10368 0.54594 -0.15331
H32 H 0.08377 0.59472 -0.15234
H33 H 0.11915 0.58151 -0.18547
O19 O 0.2757(3) 0.8462(4) -0.1022(3)
H34 H 0.29382 0.87154 -0.09467
H35 H 0.27997 0.83980 -0.13047
O20 O 0.4725(10) 0.7677(11) 0.0503(10)
H36 H 0.48165 0.78734 0.02871
H37 H 0.46344 0.78527 0.07325
K1B K 0.08480(4) 0.58623(4) 0.25942(3)
K1M K 0.33623(4) 1.16520(4) -0.00942(3)
K1N K 0.41520(4) 0.91377(4) 0.24058(3)
O4M O 0.3398(2) 0.58340(18) -0.0124(2)
O8K O 0.3598(2) 0.6537(2) 0.08370(17)
O16C O 0.4024(2) 0.6713(2) -0.04345(18)
#END
