
#######################################################################
#
#                 Cambridge Crystallographic Data Centre
#                                CCDC
#
#######################################################################
#
# If this CIF has been generated from an entry in the Cambridge
# Structural Database, then it will include bibliographic, chemical,
# crystal, experimental, refinement or atomic coordinate data resulting
# from the CCDC's data processing and validation procedures.
#
#######################################################################

data_CSD_CIF_IGECAB
_audit_creation_date 2020-03-03
_audit_creation_method CSD-ConQuest-V1
_database_code_CSD IGECAB
_database_code_depnum_ccdc_archive 'CCDC 1969998'
_chemical_formula_sum 'C50 H35 Eu2 K1 N8 O19'
_chemical_formula_moiety
;
(C50 H30 Eu2 K1 N8 O17 1-)n,H3 O1 1+,H2 O1
;
_journal_coden_Cambridge 1699
_journal_volume 8
_journal_year 2020
_journal_page_first 5587
_journal_name_full 'J.Mater.Chem.A '
loop_
_publ_author_name
"Tiancheng Sun"
"Ruiqing Fan"
"Rui Xiao"
"Tingfeng Xing"
"Mingyue Qin"
"Yaqi Liu"
"Sue Hao"
"Wei Chen"
"Yulin Yang"
_chemical_name_systematic
;
catena-[oxonium 
tetrakis(\m-[2,2'-bipyridine]-6,6'-dicarboxylato)-(ethanol)-di-europium-potass
ium monohydrate]
;
_cell_volume  20444.933
_exptl_crystal_colour 'colorless'
_exptl_crystal_density_diffrn 1.813
_exptl_crystal_description 'block'
_diffrn_ambient_temperature 303
#These two values have been output from a single CSD field.
_refine_ls_R_factor_gt 0.0503
_refine_ls_wR_factor_gt 0.0503
_symmetry_cell_setting tetragonal
_symmetry_space_group_name_H-M 'I 41/a'
_symmetry_Int_Tables_number 88
loop_
_symmetry_equiv_pos_site_id
_symmetry_equiv_pos_as_xyz
1 x,y,z
2 1/2-x,-y,1/2+z
3 3/4-y,1/4+x,1/4+z
4 3/4+y,3/4-x,3/4+z
5 1/2+x,1/2+y,1/2+z
6 -x,1/2-y,z
7 1/4-y,3/4+x,3/4+z
8 1/4+y,1/4-x,1/4+z
9 -x,-y,-z
10 -1/2+x,y,-1/2-z
11 -3/4+y,-1/4-x,-1/4-z
12 -3/4-y,-3/4+x,-3/4-z
13 -1/2-x,-1/2-y,-1/2-z
14 x,-1/2+y,-z
15 -1/4+y,-3/4-x,-3/4-z
16 -1/4-y,-1/4+x,-1/4-z
_cell_length_a 26.341(8)
_cell_length_b 26.341(8)
_cell_length_c 29.466(18)
_cell_angle_alpha 90
_cell_angle_beta 90
_cell_angle_gamma 90
_cell_formula_units_Z 16
loop_
_atom_type_symbol
_atom_type_radius_bond
C 0.68
H 0.23
Eu 1.98
K 2.03
N 0.68
O 0.68
loop_
_atom_site_label
_atom_site_type_symbol
_atom_site_fract_x
_atom_site_fract_y
_atom_site_fract_z
Eu1 Eu 0.85952(2) 0.41856(2) 0.02233(2)
Eu2 Eu 0.59047(2) 0.63082(2) -0.05544(2)
K1 K 0.83437(5) 0.66542(5) -0.00887(5)
O1 O 0.8371(2) 0.4249(2) -0.05385(17)
O2 O 0.8520(3) 0.4454(4) -0.1256(2)
O3 O 0.86400(19) 0.4047(2) 0.10197(16)
O4 O 0.9062(2) 0.3898(2) 0.16670(16)
O5 O 0.86956(19) 0.33065(17) 0.0131(2)
O6 O 0.84076(19) 0.25196(17) 0.01218(18)
O7 O 0.86881(18) 0.50715(18) 0.0271(2)
O8 O 0.8382(2) 0.58305(19) 0.0124(2)
O9 O 0.67302(19) 0.66664(18) -0.05468(19)
O10 O 0.75585(19) 0.6580(2) -0.0455(2)
O11 O 0.50386(18) 0.61538(19) -0.05106(19)
O12 O 0.4351(2) 0.5670(2) -0.0538(3)
O13 O 0.5911(2) 0.6184(2) 0.02360(17)
O14 O 0.5724(3) 0.6439(3) 0.0940(2)
O15 O 0.5871(2) 0.62224(19) -0.13644(17)
O16 O 0.5792(2) 0.6531(2) -0.20731(17)
O17 O 0.7857(2) 0.6731(2) 0.06040(17)
H1 H 0.80783 0.66807 0.07947
N1 N 0.9332(2) 0.4320(2) -0.03148(19)
N2 N 0.9488(2) 0.4174(2) 0.05496(18)
N3 N 0.7776(2) 0.3685(2) 0.02515(19)
N4 N 0.77707(19) 0.46735(19) 0.03084(19)
N5 N 0.6613(2) 0.5674(2) -0.0638(2)
N6 N 0.5658(2) 0.5385(2) -0.0610(2)
N7 N 0.5737(2) 0.7101(2) -0.00992(19)
N8 N 0.57381(19) 0.7120(2) -0.09948(19)
C1 C 0.9222(3) 0.4412(3) -0.0758(2)
C2 C 0.9582(3) 0.4527(3) -0.1074(3)
H2 H 0.94905 0.45990 -0.13724
C3 C 1.0076(3) 0.4536(3) -0.0947(3)
H3 H 1.03272 0.46023 -0.11611
C4 C 1.0207(3) 0.4449(3) -0.0505(3)
H4 H 1.05463 0.44563 -0.04168
C5 C 0.9819(3) 0.4345(3) -0.0179(2)
C6 C 0.9918(3) 0.4247(3) 0.0309(2)
C7 C 1.0386(3) 0.4243(3) 0.0504(3)
H5 H 1.06740 0.42988 0.03288
C8 C 1.0428(3) 0.4155(4) 0.0959(3)
H6 H 1.07468 0.41515 0.10960
C9 C 0.9992(3) 0.4071(3) 0.1221(3)
H7 H 1.00163 0.40065 0.15301
C10 C 0.9532(3) 0.4085(3) 0.1011(2)
C11 C 0.8665(3) 0.4376(4) -0.0872(3)
C12 C 0.9040(3) 0.4003(3) 0.1260(2)
C13 C 0.7816(3) 0.3183(2) 0.0201(2)
C14 C 0.7401(3) 0.2870(3) 0.0206(3)
H8 H 0.74376 0.25189 0.01995
C15 C 0.6926(3) 0.3093(3) 0.0223(3)
H9 H 0.66371 0.28911 0.02061
C16 C 0.6879(3) 0.3609(3) 0.0263(3)
H10 H 0.65614 0.37623 0.02733
C17 C 0.7319(3) 0.3895(3) 0.0287(2)
C18 C 0.7313(2) 0.4450(2) 0.0341(2)
C19 C 0.6875(3) 0.4741(3) 0.0411(3)
H11 H 0.65582 0.45871 0.04360
C20 C 0.6925(3) 0.5254(3) 0.0442(3)
H12 H 0.66374 0.54496 0.04977
C21 C 0.7390(3) 0.5494(3) 0.0395(3)
H13 H 0.74190 0.58458 0.04051
C22 C 0.7810(3) 0.5186(2) 0.0330(2)
C23 C 0.8350(3) 0.2979(2) 0.0151(2)
C24 C 0.8328(3) 0.5380(2) 0.0241(3)
C25 C 0.7087(2) 0.5852(3) -0.0672(2)
C26 C 0.7494(3) 0.5556(3) -0.0802(3)
H14 H 0.78174 0.56941 -0.08324
C27 C 0.7407(3) 0.5055(3) -0.0884(3)
H15 H 0.76745 0.48450 -0.09682
C28 C 0.6932(3) 0.4860(3) -0.0845(3)
H16 H 0.68740 0.45177 -0.09036
C29 C 0.6530(3) 0.5176(3) -0.0715(3)
C30 C 0.5993(3) 0.5013(3) -0.0653(3)
C31 C 0.5840(4) 0.4510(3) -0.0659(4)
H17 H 0.60778 0.42508 -0.06853
C32 C 0.5340(4) 0.4403(4) -0.0626(4)
H18 H 0.52315 0.40672 -0.06369
C33 C 0.4987(4) 0.4789(3) -0.0575(3)
H19 H 0.46421 0.47188 -0.05460
C34 C 0.5160(3) 0.5272(3) -0.0569(3)
C35 C 0.7133(3) 0.6414(3) -0.0546(2)
C36 C 0.4809(3) 0.5728(3) -0.0540(3)
C37 C 0.5740(3) 0.7051(3) 0.0358(2)
C38 C 0.5697(3) 0.7462(3) 0.0647(3)
H20 H 0.57045 0.74180 0.09602
C39 C 0.5642(3) 0.7939(3) 0.0461(3)
H21 H 0.56201 0.82232 0.06473
C40 C 0.5619(3) 0.7990(3) -0.0008(3)
H22 H 0.55684 0.83078 -0.01386
C41 C 0.5672(2) 0.7558(2) -0.0284(2)
C42 C 0.5680(2) 0.7578(2) -0.0787(2)
C43 C 0.5637(3) 0.8014(3) -0.1045(3)
H23 H 0.56083 0.83264 -0.09011
C44 C 0.5634(3) 0.7992(3) -0.1510(3)
H24 H 0.55980 0.82880 -0.16797
C45 C 0.5687(3) 0.7529(3) -0.1726(3)
H25 H 0.56905 0.75048 -0.20406
C46 C 0.5734(3) 0.7102(3) -0.1453(2)
C47 C 0.5793(3) 0.6513(3) 0.0537(3)
C48 C 0.5797(2) 0.6576(3) -0.1653(2)
C49 C 0.7550(4) 0.7113(5) 0.0746(4)
H26 H 0.76378 0.74234 0.05874
H27 H 0.75994 0.71689 0.10681
C50 C 0.6982(4) 0.6981(6) 0.0654(4)
H28 H 0.67711 0.72553 0.07563
H29 H 0.69320 0.69305 0.03343
H30 H 0.68936 0.66765 0.08142
O18 O 0.7752(4) 0.3471(4) -0.1002(4)
H31 H 0.76772 0.37010 -0.11930
H32 H 0.79424 0.32516 -0.11275
H33 H 0.74821 0.33288 -0.09088
O19 O 0.6101(4) 0.5763(4) 0.1552(4)
H34 H 0.60101 0.60145 0.13903
H35 H 0.61982 0.58689 0.18106
K1F K 0.58458(5) 0.58437(5) -0.25887(5)
K1G K 0.91542(5) 0.41563(5) 0.24113(5)
K1M K 0.83437(5) 0.16542(5) 0.00887(5)
O4F O 0.8602(2) 0.6562(2) -0.08330(16)
O6M O 0.84076(19) 0.75196(17) -0.01218(18)
O16G O 0.9031(2) 0.6708(2) 0.04269(17)
#END
