
#######################################################################
#
#                 Cambridge Crystallographic Data Centre
#                                CCDC
#
#######################################################################
#
# If this CIF has been generated from an entry in the Cambridge
# Structural Database, then it will include bibliographic, chemical,
# crystal, experimental, refinement or atomic coordinate data resulting
# from the CCDC's data processing and validation procedures.
#
#######################################################################

data_CSD_CIF_IGEPAL
_audit_creation_date 2002-09-05
_audit_creation_method CSD-ConQuest-V1
_database_code_CSD IGEPAL
_database_code_depnum_ccdc_archive 'CCDC 178162'
_chemical_formula_sum 'C8 H28 Mn2 N2 O16 P4'
_chemical_formula_moiety
;
(C4 H14 N2 2+)n,n(C4 H10 Mn2 O14 P4 2-),2n(H2 O1)
;
_journal_coden_Cambridge 186
_journal_year 2002
_journal_page_first 2752
_journal_name_full 'J.Chem.Soc.,Dalton Trans. '
loop_
_publ_author_name
"Hui-Hua Song"
"Ping Yin"
"Li-Min Zheng"
"J.D.Korp"
"A.J.Jacobson"
"Song Gao"
"Xin-Quan Xin"
_chemical_name_systematic
;
catena-(Butane-1,4-diammonium bis(\m~3~-hydrogen 
1-hydroxyethylidenediphosphonato)-di-manganese(ii) dihydrate)
;
_cell_volume   1115.744
_exptl_crystal_colour 'colorless'
_exptl_crystal_density_diffrn 1.911
_exptl_special_details
;
isostructural with the hexane-1,6-diammonium analogue, isomorphous with the 
pentane and hexane diammonium analogues
;
_exptl_crystal_description 'diamond-shaped column'
_diffrn_ambient_temperature 223
#These two values have been output from a single CSD field.
_refine_ls_R_factor_gt 0.0284
_refine_ls_wR_factor_gt 0.0284
_symmetry_cell_setting monoclinic
_symmetry_space_group_name_H-M 'P 21/n'
_symmetry_Int_Tables_number 14
loop_
_symmetry_equiv_pos_site_id
_symmetry_equiv_pos_as_xyz
1 x,y,z
2 1/2+x,1/2-y,1/2+z
3 -x,-y,-z
4 -1/2-x,-1/2+y,-1/2-z
_cell_length_a 5.6315(5)
_cell_length_b 12.2419(10)
_cell_length_c 16.4002(14)
_cell_angle_alpha 90
_cell_angle_beta 99.309(2)
_cell_angle_gamma 90
_cell_formula_units_Z 2
loop_
_atom_type_symbol
_atom_type_radius_bond
C 0.68
H 0.23
Mn 1.35
N 0.68
O 0.68
P 1.05
loop_
_atom_site_label
_atom_site_type_symbol
_atom_site_fract_x
_atom_site_fract_y
_atom_site_fract_z
Mn1 Mn 0.79270(7) 0.44645(3) 0.41811(3)
P1 P 0.27530(12) 0.58529(6) 0.38008(4)
P2 P 0.23663(12) 0.34108(6) 0.34823(4)
O1 O 0.5474(3) 0.57858(15) 0.40074(12)
O2 O -0.2621(4) 0.14914(17) 0.30980(15)
H1 H -0.35680 0.19840 0.33010
H2 H -0.13050 0.17960 0.29460
O3 O 0.1372(3) 0.56355(15) 0.45114(11)
O4 O 0.1948(3) 0.69832(15) 0.34304(12)
O5 O 0.5065(3) 0.33208(15) 0.37637(12)
O6 O 0.0788(3) 0.32797(15) 0.41439(11)
O7 O 0.1456(3) 0.25877(16) 0.27849(12)
H3 H 0.223(5) 0.235(2) 0.2239(12)
O8 O -0.0937(3) 0.48372(15) 0.29075(12)
H4 H -0.13970 0.54010 0.26480
C1 C 0.1691(5) 0.4786(2) 0.30343(16)
C2 C 0.2657(5) 0.4894(2) 0.22173(17)
H5 H 0.23180 0.56220 0.19940
H6 H 0.18830 0.43580 0.18270
H7 H 0.43810 0.47720 0.23130
N1 N 0.1733(4) 0.23097(18) 0.56861(15)
H8 H 0.31200 0.26120 0.59350
H9 H 0.05840 0.24140 0.60010
H10 H 0.12790 0.26250 0.51900
C3 C 0.2092(5) 0.1112(2) 0.5574(2)
H11 H 0.24790 0.07600 0.61160
H12 H 0.34460 0.09960 0.52770
C4 C -0.0173(5) 0.0600(2) 0.5091(2)
H13 H -0.14940 0.06750 0.54100
H14 H -0.06260 0.09950 0.45700
C4B C 0.0173(5) -0.0600(2) 0.4909(2)
C3B C -0.2092(5) -0.1112(2) 0.4426(2)
N1B N -0.1733(4) -0.23097(18) 0.43139(15)
H8B H -0.31200 -0.26120 0.40650
H9B H -0.05840 -0.24140 0.39990
H10B H -0.12790 -0.26250 0.48100
H11B H -0.24790 -0.07600 0.38840
H12B H -0.34460 -0.09960 0.47230
H13B H 0.14940 -0.06750 0.45900
H14B H 0.06260 -0.09950 0.54300
P1* P 1.27530(12) 0.58529(6) 0.38008(4)
P2* P 1.23663(12) 0.34108(6) 0.34823(4)
O1* O 1.5474(3) 0.57858(15) 0.40074(12)
O3* O 1.1372(3) 0.56355(15) 0.45114(11)
O4* O 1.1948(3) 0.69832(15) 0.34304(12)
O5* O 1.5065(3) 0.33208(15) 0.37637(12)
O6* O 1.0788(3) 0.32797(15) 0.41439(11)
O7* O 1.1456(3) 0.25877(16) 0.27849(12)
H3* H 1.223(5) 0.235(2) 0.2239(12)
O8* O 0.9063(3) 0.48372(15) 0.29075(12)
H4* H 0.86030 0.54010 0.26480
C1* C 1.1691(5) 0.4786(2) 0.30343(16)
C2* C 1.2657(5) 0.4894(2) 0.22173(17)
H5* H 1.23180 0.56220 0.19940
H6* H 1.18830 0.43580 0.18270
H7* H 1.43810 0.47720 0.23130
Mn1* Mn 1.79270(7) 0.44645(3) 0.41811(3)
O3B O 0.8628(3) 0.43645(15) 0.54886(11)
Mn1** Mn -0.20730(7) 0.44645(3) 0.41811(3)
Mn1B Mn 0.20730(7) 0.55355(3) 0.58189(3)
Mn1B* Mn 1.20730(7) 0.55355(3) 0.58189(3)
O3** O 2.1372(3) 0.56355(15) 0.45114(11)
O3B* O 1.8628(3) 0.43645(15) 0.54886(11)
O6** O 2.0788(3) 0.32797(15) 0.41439(11)
O8** O 1.9063(3) 0.48372(15) 0.29075(12)
H4** H 1.86030 0.54010 0.26480
#END
