
#######################################################################
#
#                 Cambridge Crystallographic Data Centre
#                                CCDC
#
#######################################################################
#
# If this CIF has been generated from an entry in the Cambridge
# Structural Database, then it will include bibliographic, chemical,
# crystal, experimental, refinement or atomic coordinate data resulting
# from the CCDC's data processing and validation procedures.
#
#######################################################################

data_CSD_CIF_IGONUP
_audit_creation_date 2015-05-05
_audit_creation_method CSD-ConQuest-V1
_database_code_CSD IGONUP
_database_code_depnum_ccdc_archive 'CCDC 1024916'
_chemical_formula_sum 'C10 H20 Co2 N2 O12'
_chemical_formula_moiety
;
(C6 H6 Co2 O12 2-)n,n(C4 H14 N2 2+)
;
_journal_coden_Cambridge 1856
_journal_volume 2
_journal_year 2014
_journal_page_first 124104
_journal_name_full 'APL Mater. '
loop_
_publ_author_name
"Ran Shang"
"Sa Chen"
"Ke-Li Hu"
"Ze-Chun Jiang"
"Bing-Wu Wang"
"M.Kurmoo"
"Zhe-Ming Wang"
"Song Gao"
_chemical_name_systematic
;
catena-[butane-1,4-diaminium hexakis(\m-formato)-di-cobalt]
;
_cell_volume    839.940
_exptl_crystal_colour 'red'
_exptl_crystal_density_diffrn 1.891
_exptl_special_details
;
Magnetic properties
HT polymorph
Moisture-sensitive

;
_exptl_crystal_description 'plate'
_diffrn_ambient_temperature 293
_refine_special_details
;
C3,N1 disordered by symmetry over three configurations with occupancy 0.33.

;
#These two values have been output from a single CSD field.
_refine_ls_R_factor_gt 0.0238
_refine_ls_wR_factor_gt 0.0238
_symmetry_cell_setting hexagonal
_symmetry_space_group_name_H-M 'P -3 1 c'
_symmetry_Int_Tables_number 163
loop_
_symmetry_equiv_pos_site_id
_symmetry_equiv_pos_as_xyz
1 x,y,z
2 -y,x-y,z
3 -x+y,-x,z
4 -y,-x,1/2-z
5 -x+y,y,1/2-z
6 x,x-y,1/2-z
7 -x,-y,-z
8 y,-x+y,-z
9 x-y,x,-z
10 y,x,-1/2+z
11 x-y,-y,-1/2+z
12 -x,-x+y,-1/2+z
_cell_length_a 8.5322(2)
_cell_length_b 8.5322(2)
_cell_length_c 13.3228(3)
_cell_angle_alpha 90
_cell_angle_beta 90
_cell_angle_gamma 120
_cell_formula_units_Z 2
loop_
_atom_type_symbol
_atom_type_radius_bond
C 0.68
H 0.23
Co 1.26
N 0.68
O 0.68
loop_
_atom_site_label
_atom_site_type_symbol
_atom_site_fract_x
_atom_site_fract_y
_atom_site_fract_z
Co1 Co 0.00000 0.00000 0.50000
Co2 Co 0.33330 0.66670 0.25000
O1 O 0.21324(19) 0.20309(18) 0.41667(10)
O2 O 0.33922(19) 0.47061(19) 0.34267(10)
C1 C 0.2082(3) 0.3261(3) 0.37035(14)
H1 H 0.09410 0.30810 0.35480
N1 N 0.5477(7) 0.1979(7) 0.4331(3)
C2 C 0.66670 0.33330 0.3958(4)
C3 C 0.7268(10) 0.3176(12) 0.2838(4)
O1A O -0.20309(19) 0.01015(18) 0.41667(10)
O2A O -0.47061(19) -0.13139(19) 0.34267(10)
C1A C -0.3261(3) -0.1179(3) 0.37035(14)
H1A H -0.30810 -0.21400 0.35480
O1B O -0.01015(19) -0.21324(18) 0.41667(10)
O2B O 0.13139(19) -0.33922(19) 0.34267(10)
C1B C 0.1179(3) -0.2082(3) 0.37035(14)
H1B H 0.21400 -0.09410 0.35480
O1D O -0.01015(19) 0.20309(18) 0.08333(10)
O2D O 0.13139(19) 0.47061(19) 0.15733(10)
C1D C 0.1179(3) 0.3261(3) 0.12965(14)
H1D H 0.21400 0.30810 0.14520
O1F O -0.21324(19) -0.20309(18) 0.58333(10)
O2F O -0.33922(19) -0.47061(19) 0.65733(10)
C1F C -0.2082(3) -0.3261(3) 0.62965(14)
H1F H -0.09410 -0.30810 0.64520
O1H O 0.01015(19) 0.21324(18) 0.58333(10)
O2H O -0.13139(19) 0.33922(19) 0.65733(10)
C1H C -0.1179(3) 0.2082(3) 0.62965(14)
H1H H -0.21400 0.09410 0.64520
Co1C Co 0.00000 0.00000 0.00000
Co2* Co -0.66670 -0.33330 0.25000
Co2** Co 0.33330 -0.33330 0.25000
Co2F Co -0.33330 -0.66670 0.75000
Co2F* Co -0.33330 0.33330 0.75000
O1G O 0.20309(19) -0.01015(18) 0.58333(10)
O2A* O 0.52939(19) 0.86861(19) 0.34267(10)
O2B* O 0.13139(19) 0.66078(19) 0.34267(10)
O2C O 0.52939(19) 0.66078(19) 0.15733(10)
O2E O 0.33922(19) 0.86861(19) 0.15733(10)
N1A N 0.8021(7) 0.3498(7) 0.4331(3)
C3A C 0.6824(10) 0.4092(12) 0.2838(4)
N1B N 0.6502(7) 0.4523(7) 0.4331(3)
C3B C 0.5908(10) 0.2732(12) 0.2838(4)
N1C N 0.8021(7) 0.4523(7) 0.0669(3)
C2C C 0.66670 0.33330 0.1042(4)
C3C C 0.6824(10) 0.2732(12) 0.2162(4)
N1D N 0.6502(7) 0.1979(7) 0.0669(3)
C3D C 0.5908(10) 0.3176(12) 0.2162(4)
N1E N 0.5477(7) 0.3498(7) 0.0669(3)
C3E C 0.7268(10) 0.4092(12) 0.2162(4)
#END
