
#######################################################################
#
#                 Cambridge Crystallographic Data Centre
#                                CCDC
#
#######################################################################
#
# If this CIF has been generated from an entry in the Cambridge
# Structural Database, then it will include bibliographic, chemical,
# crystal, experimental, refinement or atomic coordinate data resulting
# from the CCDC's data processing and validation procedures.
#
#######################################################################

data_CSD_CIF_IGONUP02
_audit_creation_date 2016-05-18
_audit_creation_method CSD-ConQuest-V1
_database_code_CSD IGONUP02
_database_code_depnum_ccdc_archive 'CCDC 1450843'
_chemical_formula_sum 'C120 H240 Co24 N24 O144'
_chemical_formula_moiety
;
(C72 H72 Co24 O144 24-)n,12(C4 H14 N2 2+)
;
_journal_coden_Cambridge 1220
_journal_volume 22
_journal_year 2016
_journal_page_first 6199
_journal_name_full 'Chem.-Eur.J. '
loop_
_publ_author_name
"Ran Shang"
"Sa Chen"
"Ke-Li Hu"
"Bing-Wu Wang"
"Zhe-Ming Wang"
"Song Gao"
_chemical_name_systematic
;
catena-[dodecakis(butane-1,4-diammonium) 
doheptacontakis(\m-formato)-tetracosa-cobalt]
;
_cell_volume  29980.281
_exptl_crystal_colour 'red'
_exptl_crystal_density_diffrn 1.907
_exptl_special_details
;
LT polymorph

;
_exptl_crystal_description 'hexagonal plate'
_diffrn_ambient_temperature 180
_refine_special_details
;
The structure is disordered.

;
#These two values have been output from a single CSD field.
_refine_ls_R_factor_gt 0.034
_refine_ls_wR_factor_gt 0.034
_symmetry_cell_setting rhombohedral
_symmetry_space_group_name_H-M 'R -3 c'
_symmetry_Int_Tables_number 167
loop_
_symmetry_equiv_pos_site_id
_symmetry_equiv_pos_as_xyz
1 x,y,z
2 -y,x-y,z
3 -x+y,-x,z
4 y,x,1/2-z
5 x-y,-y,1/2-z
6 -x,-x+y,1/2-z
7 2/3+x,1/3+y,1/3+z
8 2/3-y,1/3+x-y,1/3+z
9 2/3-x+y,1/3-x,1/3+z
10 2/3+y,1/3+x,5/6-z
11 2/3+x-y,1/3-y,5/6-z
12 2/3-x,1/3-x+y,5/6-z
13 1/3+x,2/3+y,2/3+z
14 1/3-y,2/3+x-y,2/3+z
15 1/3-x+y,2/3-x,2/3+z
16 1/3+y,2/3+x,1/6-z
17 1/3+x-y,2/3-y,1/6-z
18 1/3-x,2/3-x+y,1/6-z
19 -x,-y,-z
20 y,-x+y,-z
21 x-y,x,-z
22 -y,-x,-1/2+z
23 -x+y,y,-1/2+z
24 x,x-y,-1/2+z
25 -2/3-x,-1/3-y,-1/3-z
26 -2/3+y,-1/3-x+y,-1/3-z
27 -2/3+x-y,-1/3+x,-1/3-z
28 -2/3-y,-1/3-x,-5/6+z
29 -2/3-x+y,-1/3+y,-5/6+z
30 -2/3+x,-1/3+x-y,-5/6+z
31 -1/3-x,-2/3-y,-2/3-z
32 -1/3+y,-2/3-x+y,-2/3-z
33 -1/3+x-y,-2/3+x,-2/3-z
34 -1/3-y,-2/3-x,-1/6+z
35 -1/3-x+y,-2/3+y,-1/6+z
36 -1/3+x,-2/3+x-y,-1/6+z
_cell_length_a 29.5708(2)
_cell_length_b 29.5708(2)
_cell_length_c 39.5894(4)
_cell_angle_alpha 90
_cell_angle_beta 90
_cell_angle_gamma 120
_cell_formula_units_Z 6
loop_
_atom_type_symbol
_atom_type_radius_bond
C 0.68
H 0.23
Co 1.26
N 0.68
O 0.68
loop_
_atom_site_label
_atom_site_type_symbol
_atom_site_fract_x
_atom_site_fract_y
_atom_site_fract_z
Co1 Co 0.163580(15) 0.163580(15) 0.25000
Co2 Co 0.00000 0.00000 0.164277(13)
Co3 Co 0.168198(10) 0.331242(11) 0.166593(7)
Co4 Co 0.33330 0.16670 0.16670
Co5 Co -0.000135(11) 0.168552(13) 0.082316(7)
Co6 Co 0.336180(14) 0.33330 0.08330
Co7 Co 0.00000 0.00000 0.00000
O1 O 0.13309(7) 0.09625(7) 0.22052(5)
O2 O 0.06849(7) 0.03013(7) 0.19322(4)
O3 O 0.12907(7) 0.19474(7) 0.21799(4)
O4 O 0.12984(7) 0.26256(7) 0.19378(4)
O5 O 0.22855(7) 0.19653(7) 0.21825(4)
O6 O 0.29674(7) 0.20008(7) 0.19288(4)
O7 O 0.03544(7) 0.06951(7) 0.13728(4)
O8 O 0.03181(7) 0.13534(6) 0.11350(4)
O9 O 0.09867(6) 0.30250(6) 0.13854(4)
O10 O 0.03188(7) 0.23486(7) 0.11363(4)
O11 O 0.19858(6) 0.29413(7) 0.13679(4)
O12 O 0.26796(7) 0.29674(7) 0.11335(4)
O13 O 0.37231(7) 0.23730(7) 0.14067(4)
O14 O 0.37089(7) 0.30313(7) 0.11462(4)
O15 O -0.03587(6) 0.10201(6) 0.05003(4)
O16 O -0.03790(6) 0.03215(6) 0.02771(4)
O17 O 0.23887(7) 0.36184(7) 0.19341(4)
O18 O 0.30466(7) 0.43043(6) 0.21827(4)
O19 O 0.26676(7) 0.13704(6) 0.13545(4)
O20 O 0.20179(7) 0.06868(7) 0.11029(5)
O21 O 0.06516(6) 0.20010(6) 0.05051(4)
O22 O 0.13438(7) 0.26411(6) 0.02525(4)
O23 O 0.30141(7) 0.26653(7) 0.05197(4)
O24 O 0.29717(7) 0.19576(6) 0.02993(4)
C1 C 0.08814(10) 0.07254(10) 0.20915(6)
H1 H 0.06670 0.08760 0.21270
C2 C 0.15189(10) 0.24054(10) 0.20703(6)
H2 H 0.18890 0.26000 0.20900
C3 C 0.25887(10) 0.1792(1) 0.21218(6)
H3 H 0.25220 0.14790 0.22320
C4 C 0.01299(10) 0.08817(10) 0.12085(6)
H4 H -0.02140 0.06470 0.11320
C5 C 0.07624(9) 0.25708(9) 0.12621(6)
H5 H 0.09470 0.23850 0.12660
C6 C 0.24278(9) 0.31812(10) 0.12351(6)
H6 H 0.25840 0.35490 0.12090
C7 C 0.35027(10) 0.25715(10) 0.12466(6)
H7 H 0.31430 0.23510 0.11960
C8 C -0.01445(10) 0.07642(9) 0.04086(6)
H8 H 0.02210 0.09190 0.04420
C9 C 0.25782(10) 0.40380(9) 0.20915(6)
H9 H 0.23510 0.41670 0.21470
C10 C 0.24647(10) 0.09272(10) 0.12227(6)
H10 H 0.26690 0.07620 0.12140
C11 C 0.09793(9) 0.24735(10) 0.04599(6)
H11 H 0.09470 0.27220 0.05940
C12 C 0.32077(10) 0.23858(9) 0.04527(6)
H12 H 0.35570 0.25050 0.05220
N1 N 0.35201(8) 0.37441(9) 0.18973(6)
H13 H 0.34470 0.37560 0.16750
H14 H 0.38720 0.39000 0.19260
H15 H 0.33940 0.39150 0.20220
C13 C 0.32709(11) 0.31925(11) 0.20090(7)
H16 H 0.34050 0.30070 0.18700
H17 H 0.28890 0.30220 0.19720
C14 C 0.33740(11) 0.31431(11) 0.23800(7)
H18 H 0.32280 0.27690 0.24350
H19 H 0.37560 0.33200 0.24170
N2 N 0.20951(8) 0.19140(8) 0.14283(5)
H20 H 0.21110 0.20110 0.16480
H21 H 0.22630 0.22040 0.12970
H22 H 0.22520 0.17180 0.14060
N3 N 0.18473(8) 0.13999(8) 0.02273(5)
H23 H 0.17630 0.13020 0.00080
H24 H 0.17270 0.11100 0.03590
H25 H 0.22000 0.15960 0.02480
C15 C 0.15418(10) 0.16039(11) 0.13217(7)
H26 H 0.13710 0.18160 0.13520
H27 H 0.13600 0.12910 0.14680
C16 C 0.14886(11) 0.14318(10) 0.09540(7)
H28 H 0.11130 0.12060 0.09010
H29 H 0.16590 0.12190 0.09250
C17 C 0.17275(11) 0.18853(11) 0.07031(7)
H30 H 0.15950 0.21260 0.07540
H31 H 0.21110 0.20810 0.07340
C18 C 0.16054(11) 0.17120(11) 0.03363(7)
H32 H 0.12220 0.15000 0.03070
H33 H 0.17340 0.20240 0.01900
N4 N 0.12455(13) -0.02428(12) 0.18967(8)
H34 H 0.12420 -0.03280 0.16760
H35 H 0.10790 -0.00560 0.19210
H36 H 0.10790 -0.05400 0.20220
C19 C 0.1772(3) 0.0063(3) 0.20089(12)
H37 H 0.19470 0.03820 0.18690
H38 H 0.19530 -0.01380 0.19680
C20 C 0.18452(15) 0.02254(14) 0.23786(9)
H39 H 0.22230 0.04470 0.24250
H40 H 0.16790 0.04400 0.24190
N5? N 0.1819(7) 0.0460(6) 0.1901(4)
H41? H 0.19270 0.05390 0.16830
H42? H 0.20310 0.07330 0.20370
H43? H 0.14850 0.03950 0.19200
C21? C 0.1841(13) -0.0004(10) 0.2005(4)
H44? H 0.21980 0.00620 0.19580
H45? H 0.16000 -0.02970 0.18580
C22? C 0.1713(6) -0.0185(5) 0.2366(3)
H46? H 0.13270 -0.03900 0.23840
H47? H 0.18430 -0.04300 0.24080
N6? N 0.1816(7) 0.0366(6) 0.1857(5)
H48? H 0.18870 0.03300 0.16390
H49? H 0.21210 0.05630 0.19710
H50? H 0.16210 0.05250 0.18650
C23? C 0.1521(10) -0.0162(7) 0.2019(4)
H51? H 0.11980 -0.03770 0.18880
H52? H 0.17350 -0.03320 0.20060
C24? C 0.1381(6) -0.0152(5) 0.2366(2)
H53? H 0.10120 -0.02410 0.23450
H54? H 0.13630 -0.04730 0.24560
Co1A Co -0.163580(15) 0.000000(15) 0.25000
Co3A Co -0.331242(10) -0.163044(11) 0.166593(7)
Co4A Co -0.16670 0.16660 0.16670
Co5A Co -0.168552(11) -0.168687(13) 0.082316(7)
Co6A Co -0.333300(14) 0.00288 0.08330
O1A O -0.09625(7) 0.03684(7) 0.22052(5)
O2A O -0.03013(7) 0.03836(7) 0.19322(4)
O3A O -0.19474(7) -0.06567(7) 0.21799(4)
O4A O -0.26256(7) -0.13272(7) 0.19378(4)
O5A O -0.19653(7) 0.03202(7) 0.21825(4)
O6A O -0.20008(7) 0.09666(7) 0.19288(4)
O7A O -0.06951(7) -0.03407(7) 0.13728(4)
O8A O -0.13534(7) -0.10353(6) 0.11350(4)
O9A O -0.30250(6) -0.20383(6) 0.13854(4)
O10A O -0.23486(7) -0.20298(7) 0.11363(4)
O11A O -0.29413(6) -0.09555(7) 0.13679(4)
O12A O -0.29674(7) -0.02878(7) 0.11335(4)
O13A O -0.23730(7) 0.13501(7) 0.14067(4)
O14A O -0.30313(7) 0.06776(7) 0.11462(4)
O15A O -0.10201(6) -0.13788(6) 0.05003(4)
O16A O -0.03215(6) -0.07005(6) 0.02771(4)
O17A O -0.36184(7) -0.12297(7) 0.19341(4)
O18A O -0.43043(7) -0.12577(6) 0.21827(4)
O19A O -0.13704(7) 0.12972(6) 0.13545(4)
O20A O -0.06868(7) 0.13311(7) 0.11029(5)
O21A O -0.20010(6) -0.13494(6) 0.05051(4)
O22A O -0.26411(7) -0.12973(6) 0.02525(4)
O23A O -0.26653(7) 0.03488(7) 0.05197(4)
O24A O -0.19576(7) 0.10141(6) 0.02993(4)
C1A C -0.07254(10) 0.0156(1) 0.20915(6)
H1A H -0.08760 -0.02090 0.21270
C2A C -0.24054(10) -0.08865(10) 0.20703(6)
H2A H -0.26000 -0.07110 0.20900
C3A C -0.1792(1) 0.07967(10) 0.21218(6)
H3A H -0.14790 0.10430 0.22320
C4A C -0.08817(10) -0.07518(10) 0.12085(6)
H4A H -0.06470 -0.08610 0.11320
C5A C -0.25708(9) -0.18084(9) 0.12621(6)
H5A H -0.23850 -0.14380 0.12660
C6A C -0.31812(9) -0.07534(10) 0.12351(6)
H6A H -0.35490 -0.09650 0.12090
C7A C -0.25715(10) 0.09312(10) 0.12466(6)
H7A H -0.23510 0.07920 0.11960
C8A C -0.07642(10) -0.09087(9) 0.04086(6)
H8A H -0.09190 -0.06980 0.04420
C9A C -0.4038(1) -0.14598(9) 0.20915(6)
H9A H -0.41670 -0.18160 0.21470
C10A C -0.09272(10) 0.15375(10) 0.12227(6)
H10A H -0.07620 0.19070 0.12140
C11A C -0.24735(9) -0.14942(10) 0.04599(6)
H11A H -0.27220 -0.17750 0.05940
C12A C -0.23858(10) 0.08219(9) 0.04527(6)
H12A H -0.25050 0.10520 0.05220
Co1B Co 0.000000(15) -0.163580(15) 0.25000
Co3B Co 0.163044(10) -0.168198(11) 0.166593(7)
Co4B Co -0.16660 -0.33330 0.16670
Co5B Co 0.168687(11) 0.000135(13) 0.082316(7)
Co6B Co -0.002880(14) -0.33618 0.08330
O1B O -0.03684(7) -0.13309(7) 0.22052(5)
O2B O -0.03836(7) -0.06849(7) 0.19322(4)
O3B O 0.06567(7) -0.12907(7) 0.21799(4)
O4B O 0.13272(7) -0.12984(7) 0.19378(4)
O5B O -0.03202(7) -0.22855(7) 0.21825(4)
O6B O -0.09666(7) -0.29674(7) 0.19288(4)
O7B O 0.03407(7) -0.03544(7) 0.13728(4)
O8B O 0.10353(7) -0.03181(6) 0.11350(4)
O9B O 0.20383(6) -0.09867(6) 0.13854(4)
O10B O 0.20298(7) -0.03188(7) 0.11363(4)
O11B O 0.09555(6) -0.19858(7) 0.13679(4)
O12B O 0.02878(7) -0.26796(7) 0.11335(4)
O13B O -0.13501(7) -0.37231(7) 0.14067(4)
O14B O -0.06776(7) -0.37089(7) 0.11462(4)
O15B O 0.13788(6) 0.03587(6) 0.05003(4)
O16B O 0.07005(6) 0.03790(6) 0.02771(4)
O17B O 0.12297(7) -0.23887(7) 0.19341(4)
O18B O 0.12577(7) -0.30466(6) 0.21827(4)
O19B O -0.12972(7) -0.26676(6) 0.13545(4)
O20B O -0.13311(7) -0.20179(7) 0.11029(5)
O21B O 0.13494(6) -0.06516(6) 0.05051(4)
O22B O 0.12973(7) -0.13438(6) 0.02525(4)
O23B O -0.03488(7) -0.30141(7) 0.05197(4)
O24B O -0.10141(7) -0.29717(6) 0.02993(4)
C1B C -0.0156(1) -0.08814(10) 0.20915(6)
H1B H 0.02090 -0.06670 0.21270
C2B C 0.08865(10) -0.15189(10) 0.20703(6)
H2B H 0.07110 -0.18890 0.20900
C3B C -0.07967(10) -0.25887(10) 0.21218(6)
H3B H -0.10430 -0.25220 0.22320
C4B C 0.07518(10) -0.01299(10) 0.12085(6)
H4B H 0.08610 0.02140 0.11320
C5B C 0.18084(9) -0.07624(9) 0.12621(6)
H5B H 0.14380 -0.09470 0.12660
C6B C 0.07534(9) -0.24278(10) 0.12351(6)
H6B H 0.09650 -0.25840 0.12090
C7B C -0.09312(10) -0.35027(10) 0.12466(6)
H7B H -0.07920 -0.31430 0.11960
C8B C 0.09087(10) 0.01445(9) 0.04086(6)
H8B H 0.06980 -0.02210 0.04420
C9B C 0.14598(10) -0.25782(9) 0.20915(6)
H9B H 0.18160 -0.23510 0.21470
C10B C -0.15375(10) -0.24647(10) 0.12227(6)
H10B H -0.19070 -0.26690 0.12140
C11B C 0.14942(9) -0.09793(10) 0.04599(6)
H11B H 0.17750 -0.09470 0.05940
C12B C -0.08219(10) -0.32077(9) 0.04527(6)
H12B H -0.10520 -0.35570 0.05220
Co2C Co 0.00000 0.00000 0.335723(13)
Co3C Co 0.331242(10) 0.168198(11) 0.333407(7)
Co5C Co 0.168552(11) -0.000135(13) 0.417684(7)
O1C O 0.09625(7) 0.13309(7) 0.27948(5)
O2C O 0.03013(7) 0.06849(7) 0.30678(4)
O3C O 0.19474(7) 0.12907(7) 0.28201(4)
O4C O 0.26256(7) 0.12984(7) 0.30622(4)
O5C O 0.19653(7) 0.22855(7) 0.28175(4)
O6C O 0.20008(7) 0.29674(7) 0.30712(4)
O7C O 0.06951(7) 0.03544(7) 0.36272(4)
O8C O 0.13534(7) 0.03181(6) 0.38650(4)
O9C O 0.30250(6) 0.09867(6) 0.36146(4)
O10C O 0.23486(7) 0.03188(7) 0.38637(4)
O11C O 0.29413(6) 0.19858(7) 0.36321(4)
O12C O 0.29674(7) 0.26796(7) 0.38665(4)
O15C O 0.10201(6) -0.03587(6) 0.44997(4)
O16C O 0.03215(6) -0.03790(6) 0.47229(4)
O17C O 0.36184(7) 0.23887(7) 0.30659(4)
O18C O 0.43043(7) 0.30466(6) 0.28173(4)
O19C O 0.13704(7) 0.26676(6) 0.36455(4)
O20C O 0.06868(7) 0.20179(7) 0.38971(5)
O21C O 0.20010(6) 0.06516(6) 0.44949(4)
O22C O 0.26411(7) 0.13438(6) 0.47475(4)
C1C C 0.07254(10) 0.08814(10) 0.29085(6)
H1C H 0.08760 0.06670 0.28730
C2C C 0.24054(10) 0.15189(10) 0.29297(6)
H2C H 0.26000 0.18890 0.29100
C3C C 0.1792(1) 0.25887(10) 0.28782(6)
H3C H 0.14790 0.25220 0.27680
C4C C 0.08817(10) 0.01299(10) 0.37915(6)
H4C H 0.06470 -0.02140 0.38680
C5C C 0.25708(9) 0.07624(9) 0.37379(6)
H5C H 0.23850 0.09470 0.37340
C6C C 0.31812(9) 0.24278(10) 0.37649(6)
H6C H 0.35490 0.25840 0.37910
C8C C 0.07642(10) -0.01445(9) 0.45914(6)
H8C H 0.09190 0.02210 0.45580
C9C C 0.4038(1) 0.25782(9) 0.29085(6)
H9C H 0.41670 0.23510 0.28530
C10C C 0.09272(10) 0.24647(10) 0.37773(6)
H10C H 0.07620 0.26690 0.37860
C11C C 0.24735(9) 0.09793(10) 0.45401(6)
H11C H 0.27220 0.09470 0.44060
Co3D Co -0.163044(10) -0.331242(11) 0.333407(7)
Co5D Co -0.168687(11) -0.168552(13) 0.417684(7)
O1D O 0.03684(7) -0.09625(7) 0.27948(5)
O2D O 0.03836(7) -0.03013(7) 0.30678(4)
O3D O -0.06567(7) -0.19474(7) 0.28201(4)
O4D O -0.13272(7) -0.26256(7) 0.30622(4)
O5D O 0.03202(7) -0.19653(7) 0.28175(4)
O6D O 0.09666(7) -0.20008(7) 0.30712(4)
O7D O -0.03407(7) -0.06951(7) 0.36272(4)
O8D O -0.10353(7) -0.13534(6) 0.38650(4)
O9D O -0.20383(6) -0.30250(6) 0.36146(4)
O10D O -0.20298(7) -0.23486(7) 0.38637(4)
O11D O -0.09555(6) -0.29413(7) 0.36321(4)
O12D O -0.02878(7) -0.29674(7) 0.38665(4)
O15D O -0.13788(6) -0.10201(6) 0.44997(4)
O16D O -0.07005(6) -0.03215(6) 0.47229(4)
O17D O -0.12297(7) -0.36184(7) 0.30659(4)
O18D O -0.12577(7) -0.43043(6) 0.28173(4)
O19D O 0.12972(7) -0.13704(6) 0.36455(4)
O20D O 0.13311(7) -0.06868(7) 0.38971(5)
O21D O -0.13494(6) -0.20010(6) 0.44949(4)
O22D O -0.12973(7) -0.26411(6) 0.47475(4)
C1D C 0.0156(1) -0.07254(10) 0.29085(6)
H1D H -0.02090 -0.08760 0.28730
C2D C -0.08865(10) -0.24054(10) 0.29297(6)
H2D H -0.07110 -0.26000 0.29100
C3D C 0.07967(10) -0.1792(1) 0.28782(6)
H3D H 0.10430 -0.14790 0.27680
C4D C -0.07518(10) -0.08817(10) 0.37915(6)
H4D H -0.08610 -0.06470 0.38680
C5D C -0.18084(9) -0.25708(9) 0.37379(6)
H5D H -0.14380 -0.23850 0.37340
C6D C -0.07534(9) -0.31812(10) 0.37649(6)
H6D H -0.09650 -0.35490 0.37910
C8D C -0.09087(10) -0.07642(9) 0.45914(6)
H8D H -0.06980 -0.09190 0.45580
C9D C -0.14598(10) -0.40380(9) 0.29085(6)
H9D H -0.18160 -0.41670 0.28530
C10D C 0.15375(10) -0.09272(10) 0.37773(6)
H10D H 0.19070 -0.07620 0.37860
C11D C -0.14942(9) -0.24735(10) 0.45401(6)
H11D H -0.17750 -0.27220 0.44060
Co3E Co -0.168198(10) 0.163044(11) 0.333407(7)
Co5E Co 0.000135(11) 0.168687(13) 0.417684(7)
O1E O -0.13309(7) -0.03684(7) 0.27948(5)
O2E O -0.06849(7) -0.03836(7) 0.30678(4)
O3E O -0.12907(7) 0.06567(7) 0.28201(4)
O4E O -0.12984(7) 0.13272(7) 0.30622(4)
O5E O -0.22855(7) -0.03202(7) 0.28175(4)
O6E O -0.29674(7) -0.09666(7) 0.30712(4)
O7E O -0.03544(7) 0.03407(7) 0.36272(4)
O8E O -0.03181(7) 0.10353(6) 0.38650(4)
O9E O -0.09867(6) 0.20383(6) 0.36146(4)
O10E O -0.03188(7) 0.20298(7) 0.38637(4)
O11E O -0.19858(6) 0.09555(7) 0.36321(4)
O12E O -0.26796(7) 0.02878(7) 0.38665(4)
O15E O 0.03587(6) 0.13788(6) 0.44997(4)
O16E O 0.03790(6) 0.07005(6) 0.47229(4)
O17E O -0.23887(7) 0.12297(7) 0.30659(4)
O18E O -0.30466(7) 0.12577(6) 0.28173(4)
O19E O -0.26676(7) -0.12972(6) 0.36455(4)
O20E O -0.20179(7) -0.13311(7) 0.38971(5)
O21E O -0.06516(6) 0.13494(6) 0.44949(4)
O22E O -0.13438(7) 0.12973(6) 0.47475(4)
C1E C -0.08814(10) -0.0156(1) 0.29085(6)
H1E H -0.06670 0.02090 0.28730
C2E C -0.15189(10) 0.08865(10) 0.29297(6)
H2E H -0.18890 0.07110 0.29100
C3E C -0.25887(10) -0.07967(10) 0.28782(6)
H3E H -0.25220 -0.10430 0.27680
C4E C -0.01299(10) 0.07518(10) 0.37915(6)
H4E H 0.02140 0.08610 0.38680
C5E C -0.07624(9) 0.18084(9) 0.37379(6)
H5E H -0.09470 0.14380 0.37340
C6E C -0.24278(9) 0.07534(10) 0.37649(6)
H6E H -0.25840 0.09650 0.37910
C8E C 0.01445(10) 0.09087(9) 0.45914(6)
H8E H -0.02210 0.06980 0.45580
C9E C -0.25782(10) 0.14598(9) 0.29085(6)
H9E H -0.23510 0.18160 0.28530
C10E C -0.24647(10) -0.15375(10) 0.37773(6)
H10E H -0.26690 -0.19070 0.37860
C11E C -0.09793(9) 0.14942(10) 0.45401(6)
H11E H -0.09470 0.17750 0.44060
O13DA O 0.294357(70) 0.096033(70) 0.192663(40)
O14DA O 0.295777(70) 0.030203(70) 0.218713(40)
C7DA C 0.316397(100) 0.076183(100) 0.208673(60)
H7DA H 0.35237 0.09823 0.21373
O23AA O 0.066803(70) 0.365257(70) 0.218637(40)
O24AA O 0.137573(70) 0.369497(60) 0.196597(40)
C12AA C 0.094753(100) 0.345897(90) 0.211937(60)
H12AA H 0.08283 0.31097 0.21887
O13P O 0.468343(70) 0.429367(70) 0.025997(40)
O14P O 0.401093(70) 0.363537(70) 0.052047(40)
C7P C 0.426453(100) 0.409517(100) 0.042007(60)
H7P H 0.41253 0.43157 0.04707
O23P O 0.368213(70) 0.400137(70) 0.114697(40)
O24P O 0.434743(70) 0.470907(60) 0.136737(40)
C12P C 0.415523(100) 0.428087(90) 0.121397(60)
H12P H 0.43853 0.41617 0.11447
O13EA O -0.096033(70) 0.198323(70) 0.192663(40)
O14EA O -0.030203(70) 0.265573(70) 0.218713(40)
C7EA C -0.076183(100) 0.240213(100) 0.208673(60)
H7EA H -0.09823 0.25413 0.21373
O23CA O -0.365257(70) -0.298453(70) 0.218637(40)
O24CA O -0.369497(70) -0.231923(60) 0.196597(40)
C12CA C -0.345897(100) -0.251143(90) 0.211937(60)
H12CA H -0.31097 -0.22813 0.21887
Co3F Co -0.165135(10) -0.335425(11) 0.499926(7)
Co3G Co 0.335425(10) 0.170289(11) 0.499926(7)
Co3H Co -0.170289(10) 0.165135(11) 0.499926(7)
Co3O Co -0.335425(10) -0.165135(11) 0.000074(7)
Co3P Co 0.170289(10) 0.335425(11) 0.000074(7)
Co3Q Co 0.165135(10) -0.170289(11) 0.000074(7)
Co3FA Co 0.503623(10) 0.501531(11) 0.166740(7)
Co3GA Co 0.335425(10) 0.165135(11) -0.000074(7)
Co3HA Co -0.170289(10) -0.335425(11) -0.000074(7)
Co3IA Co -0.165135(10) 0.170289(11) -0.000074(7)
Co4C Co 0.16670 0.33330 0.33330
Co4D Co 0.16660 -0.16670 0.33330
Co4E Co -0.33330 -0.16660 0.33330
Co4P Co 0.49993 0.49997 -0.00003
Co5DA Co -0.333198(11) 0.164781(13) 0.251017(7)
Co5EA Co -0.164781(11) -0.497980(13) 0.251017(7)
Co5FA Co 0.497980(11) 0.333198(13) 0.251017(7)
Co5AA Co 0.164781(11) -0.333198(13) 0.248983(7)
Co5BA Co -0.497980(11) -0.164781(13) 0.248983(7)
Co5CA Co 0.333198(11) 0.497980(13) 0.248983(7)
Co6C Co 0.333300(14) 0.33618 0.41670
Co6D Co 0.002880(14) -0.33330 0.41670
Co6E Co -0.336180(14) -0.00288 0.41670
Co6DA Co 0.330487(14) 0.00003 0.25003
Co6EA Co -0.000033(14) 0.33045 0.25003
Co6FA Co -0.330453(14) -0.33049 0.25003
Co7C Co 0.00000 0.00000 0.50000
O6DA O 0.369927(70) 0.133253(70) 0.140453(40)
O6EA O -0.133253(70) 0.236673(70) 0.140453(40)
O6FA O -0.236673(70) -0.369927(70) 0.140453(40)
O12O O -0.369927(70) -0.065373(70) 0.053317(40)
O12P O 0.304553(70) 0.369927(70) 0.053317(40)
O12Q O 0.065373(70) -0.304553(70) 0.053317(40)
O13FA O -0.198323(70) -0.294357(70) 0.192663(40)
O14O O -0.363537(70) 0.037557(70) 0.052047(40)
O14Q O -0.037557(70) -0.401093(70) 0.052047(40)
O16R O 0.03790(6) -0.03215(6) -0.02771(4)
O16S O 0.03215(6) 0.07005(6) -0.02771(4)
O16T O -0.07005(6) -0.03790(6) -0.02771(4)
O18GA O 0.236237(70) 0.028673(60) 0.051603(40)
O18HA O -0.207563(70) -0.236237(60) 0.051603(40)
O18IA O -0.028673(70) 0.207563(60) 0.051603(40)
O18X O 0.028673(70) 0.236237(60) 0.448397(40)
O18Y O -0.236237(70) -0.207563(60) 0.448397(40)
O18Z O 0.207563(70) -0.028673(60) 0.448397(40)
O19DA O 0.399907(70) 0.196293(60) 0.197883(40)
O19EA O -0.196293(70) 0.203613(60) 0.197883(40)
O19FA O -0.203613(70) -0.399907(60) 0.197883(40)
O22F O -0.198953(70) -0.402557(60) 0.358583(40)
O22G O 0.402557(70) 0.203603(60) 0.358583(40)
O22H O -0.203603(70) 0.198953(60) 0.358583(40)
O22O O -0.402557(70) -0.198953(60) 0.141417(40)
O22P O 0.203603(70) 0.402557(60) 0.141417(40)
O22Q O 0.198953(70) -0.203603(60) 0.141417(40)
O23O O -0.400137(70) -0.031923(70) 0.114697(40)
O23Q O 0.031923(70) -0.368213(70) 0.114697(40)
O24DA O 0.369497(70) 0.137573(60) 0.303403(40)
O24EA O -0.137573(70) 0.231923(60) 0.303403(40)
O24FA O -0.231923(70) -0.369497(60) 0.303403(40)
O24BA O 0.231923(70) -0.137573(60) 0.196597(40)
N1C N 0.37441(8) 0.35201(9) 0.31027(6)
H13C H 0.37560 0.34470 0.33250
H14C H 0.39000 0.38720 0.30740
H15C H 0.39150 0.33940 0.29780
C13C C 0.31925(11) 0.32709(11) 0.29910(7)
H16C H 0.30070 0.34050 0.31300
H17C H 0.30220 0.28890 0.30280
C14C C 0.31431(11) 0.33740(11) 0.26200(7)
H18C H 0.27690 0.32280 0.25650
H19C H 0.33200 0.37560 0.25830
N4D N 0.14883(13) 0.02428(12) 0.31033(8)
H34D H 0.15700 0.03280 0.33240
H35D H 0.11350 0.00560 0.30790
H36D H 0.16190 0.05400 0.29780
C19D C 0.1709(3) -0.0063(3) 0.29911(12)
H37D H 0.15650 -0.03820 0.31310
H38D H 0.20910 0.01380 0.30320
C20D C 0.16198(15) -0.02254(14) 0.26214(9)
H39D H 0.17760 -0.04470 0.25750
H40D H 0.12390 -0.04400 0.25810
#END
