
#######################################################################
#
#                 Cambridge Crystallographic Data Centre
#                                CCDC
#
#######################################################################
#
# If this CIF has been generated from an entry in the Cambridge
# Structural Database, then it will include bibliographic, chemical,
# crystal, experimental, refinement or atomic coordinate data resulting
# from the CCDC's data processing and validation procedures.
#
#######################################################################

data_CSD_CIF_IGOPEB
_audit_creation_date 2015-05-05
_audit_creation_method CSD-ConQuest-V1
_database_code_CSD IGOPEB
_database_code_depnum_ccdc_archive 'CCDC 1024918'
_chemical_formula_sum 'C21 H40 Co4 N4 O24'
_chemical_formula_moiety
;
(C12 H12 Co4 O24 4-)n,n(C9 H28 N4 4+)
;
_journal_coden_Cambridge 1856
_journal_volume 2
_journal_year 2014
_journal_page_first 124104
_journal_name_full 'APL Mater. '
loop_
_publ_author_name
"Ran Shang"
"Sa Chen"
"Ke-Li Hu"
"Ze-Chun Jiang"
"Bing-Wu Wang"
"M.Kurmoo"
"Zhe-Ming Wang"
"Song Gao"
_chemical_name_systematic
;
catena-[N,N'-bis(3-ammoniopropyl)propane-1,3-diaminium 
dodecakis(\m-formato)-tetra-cobalt]
;
_cell_volume   1719.519
_exptl_crystal_colour 'purple red'
_exptl_crystal_density_diffrn 1.87
_exptl_special_details
;
Moisture-sensitive

;
_exptl_crystal_description 'hexagonal block'
_diffrn_ambient_temperature 290
_refine_special_details
;
The structure is disordered.

;
#These two values have been output from a single CSD field.
_refine_ls_R_factor_gt 0.026
_refine_ls_wR_factor_gt 0.026
_symmetry_cell_setting hexagonal
_symmetry_space_group_name_H-M 'P -3 1 c'
_symmetry_Int_Tables_number 163
loop_
_symmetry_equiv_pos_site_id
_symmetry_equiv_pos_as_xyz
1 x,y,z
2 -y,x-y,z
3 -x+y,-x,z
4 -y,-x,1/2-z
5 -x+y,y,1/2-z
6 x,x-y,1/2-z
7 -x,-y,-z
8 y,-x+y,-z
9 x-y,x,-z
10 y,x,-1/2+z
11 x-y,-y,-1/2+z
12 -x,-x+y,-1/2+z
_cell_length_a 8.36165(10)
_cell_length_b 8.36165(10)
_cell_length_c 28.3983(5)
_cell_angle_alpha 90
_cell_angle_beta 90
_cell_angle_gamma 120
_cell_formula_units_Z 2
loop_
_atom_type_symbol
_atom_type_radius_bond
C 0.68
H 0.23
Co 1.26
N 0.68
O 0.68
loop_
_atom_site_label
_atom_site_type_symbol
_atom_site_fract_x
_atom_site_fract_y
_atom_site_fract_z
Co1 Co 0.00000 0.00000 0.00000
Co2 Co 0.66670 0.33330 0.126331(14)
Co3 Co 0.00000 0.00000 0.25000
O1 O 0.21133(19) -0.00048(19) 0.03927(4)
O2 O 0.4682(2) 0.13280(19) 0.08083(5)
O3 O 0.4596(2) 0.3416(2) 0.16578(5)
O4 O 0.20323(19) 0.21095(19) 0.20773(5)
C1 C 0.3192(3) 0.1149(3) 0.06732(7)
H1 H 0.28570 0.19700 0.07970
C2 C 0.3378(3) 0.2135(3) 0.18925(6)
H2 H 0.34910 0.10930 0.19330
C3 C 0.3738(7) 0.6262(7) 0.25000
C4 C 0.33330 0.66670 0.2050(3)
N1 N 0.4343(11) 0.6843(12) 0.1701(2)
C5 C 0.4278(19) 0.729(2) 0.1225(3)
C6 C 0.290(5) 0.615(8) 0.0929(3)
C7 C 0.33330 0.66670 0.03952(18)
N2 N 0.1888(10) 0.6323(9) 0.0202(2)
O1A O 0.00048(19) 0.21181(19) 0.03927(4)
O2A O -0.1328(2) 0.33540(19) 0.08083(5)
O3A O -0.3416(2) 0.1180(2) 0.16578(5)
O4A O -0.21095(19) -0.00772(19) 0.20773(5)
C1A C -0.1149(3) 0.2043(3) 0.06732(7)
H1A H -0.19700 0.08870 0.07970
C2A C -0.2135(3) 0.1243(3) 0.18925(6)
H2A H -0.10930 0.23980 0.19330
O1B O -0.21181(19) -0.21133(19) 0.03927(4)
O2B O -0.3354(2) -0.46820(19) 0.08083(5)
O3B O -0.1180(2) -0.4596(2) 0.16578(5)
O4B O 0.00772(19) -0.20323(19) 0.20773(5)
C1B C -0.2043(3) -0.3192(3) 0.06732(7)
H1B H -0.08870 -0.28570 0.07970
C2B C -0.1243(3) -0.3378(3) 0.18925(6)
H2B H -0.23980 -0.34910 0.19330
O3C O -0.3416(2) -0.4596(2) 0.33422(5)
O4C O -0.21095(19) -0.20323(19) 0.29227(5)
C2C C -0.2135(3) -0.3378(3) 0.31075(6)
H2C H -0.10930 -0.34910 0.30670
O3D O -0.1180(2) 0.3416(2) 0.33422(5)
O4D O 0.00772(19) 0.21095(19) 0.29227(5)
C2D C -0.1243(3) 0.2135(3) 0.31075(6)
H2D H -0.23980 0.10930 0.30670
Co2C Co 0.66670 0.33330 0.373669(14)
O1E O 0.21133(19) 0.21181(19) 0.46073(4)
O2E O 0.4682(2) 0.33540(19) 0.41917(5)
O3E O 0.4596(2) 0.1180(2) 0.33422(5)
O4E O 0.20323(19) -0.00772(19) 0.29227(5)
C1E C 0.3192(3) 0.2043(3) 0.43268(7)
H1E H 0.28570 0.08870 0.42030
C2E C 0.3378(3) 0.1243(3) 0.31075(6)
H2E H 0.34910 0.23980 0.30670
O1F O -0.21133(19) 0.00048(19) -0.03927(4)
O2F O -0.4682(2) -0.13280(19) -0.08083(5)
C1F C -0.3192(3) -0.1149(3) -0.06732(7)
H1F H -0.28570 -0.19700 -0.07970
O1G O -0.00048(19) -0.21181(19) -0.03927(4)
O2G O 0.1328(2) -0.33540(19) -0.08083(5)
C1G C 0.1149(3) -0.2043(3) -0.06732(7)
H1G H 0.19700 -0.08870 -0.07970
Co1C Co 0.00000 0.00000 0.50000
Co2* Co -0.33330 -0.66670 0.126331(14)
Co2** Co -0.33330 0.33330 0.126331(14)
Co2C* Co -0.33330 -0.66670 0.373669(14)
Co2C** Co -0.33330 0.33330 0.373669(14)
Co2F Co -0.66670 -0.33330 -0.126331(14)
Co2F* Co 0.33330 -0.33330 -0.126331(14)
O1H O 0.21181(19) 0.21133(19) -0.03927(4)
O2A* O 0.8672(2) 0.33540(19) 0.08083(5)
O2B* O 0.6646(2) 0.53180(19) 0.08083(5)
O2C O 0.8672(2) 0.53180(19) 0.41917(5)
O2D O 0.6646(2) 0.13280(19) 0.41917(5)
O3A* O 0.6584(2) 0.1180(2) 0.16578(5)
O3B* O 0.8820(2) 0.5404(2) 0.16578(5)
O3C* O 0.6584(2) 0.5404(2) 0.33422(5)
O3D* O 0.8820(2) 0.3416(2) 0.33422(5)
C3A C 0.3738(7) 0.7476(7) 0.25000
N1A N 0.3157(11) 0.7500(12) 0.1701(2)
C5A C 0.2710(19) 0.6988(20) 0.1225(3)
C6A C 0.385(5) 0.675(8) 0.0929(3)
N2A N 0.3677(10) 0.5565(9) 0.0202(2)
C3B C 0.2524(7) 0.6262(7) 0.25000
N1B N 0.2500(11) 0.5657(12) 0.1701(2)
C5B C 0.3012(19) 0.5722(20) 0.1225(3)
C6B C 0.325(5) 0.710(8) 0.0929(3)
N2B N 0.4435(10) 0.8112(9) 0.0202(2)
C4C C 0.33330 0.66670 0.2950(3)
N1C N 0.3157(11) 0.5657(12) 0.3299(2)
C5C C 0.2710(19) 0.5722(20) 0.3775(3)
C6C C 0.385(5) 0.710(8) 0.4071(3)
C7C C 0.33330 0.66670 0.46048(18)
N2C N 0.3677(10) 0.8112(9) 0.4798(2)
N1D N 0.2500(11) 0.6843(12) 0.3299(2)
C5D C 0.3012(19) 0.729(2) 0.3775(3)
C6D C 0.325(5) 0.615(8) 0.4071(3)
N2D N 0.4435(10) 0.6323(9) 0.4798(2)
N1E N 0.4343(11) 0.7500(12) 0.3299(2)
C5E C 0.4278(19) 0.6988(20) 0.3775(3)
C6E C 0.290(5) 0.675(8) 0.4071(3)
N2E N 0.1888(10) 0.5565(9) 0.4798(2)
#END
