
#######################################################################
#
#                 Cambridge Crystallographic Data Centre
#                                CCDC
#
#######################################################################
#
# If this CIF has been generated from an entry in the Cambridge
# Structural Database, then it will include bibliographic, chemical,
# crystal, experimental, refinement or atomic coordinate data resulting
# from the CCDC's data processing and validation procedures.
#
#######################################################################

data_CSD_CIF_IGOYOV
_audit_creation_date 2020-03-04
_audit_creation_method CSD-ConQuest-V1
_database_code_CSD IGOYOV
_database_code_depnum_ccdc_archive 'CCDC 1976083'
_chemical_formula_sum 'C134 H202 N20 O124 Si2 Tm2 W24'
_chemical_formula_moiety
;
(C84 H48 N6 O30 Tm2)n,2n(O40 Si1 W12 4-),8n(C4 H12 N1 1+),6n(C3 H7 N1 
O1),8n(H2 O1)
;
_journal_coden_Cambridge 222
_journal_volume 49
_journal_year 2020
_journal_page_first 3408
_journal_name_full 'Dalton Trans. '
loop_
_publ_author_name
"Xiao-Yuan Wu"
"Hai-Long Zhang"
"Sa-Sa Wang"
"Weiming Wu"
"Lang Lin"
"Xiao-Yu Jiang"
"Can-Zhong Lu"
_chemical_name_systematic
;
catena-(octakis(tetramethylammonium) 
tris(\m-3,3'-(1,3,6,8-tetraoxo-1,3,6,8-tetrahydrobenzo[lmn][3,8]phenanthroline
-2,7-diyl)dibenzoato)-hexa-aqua-di-thulium(iii) 
bis(tetracosakis(\m-oxo)-(\m-silicato)-dodecaoxo-dodeca-tungsten) 
dimethylformamide solvate octahydrate)
;
_cell_volume   5081.872
_exptl_crystal_colour 'yellowish'
_exptl_crystal_density_diffrn 2.903
_exptl_crystal_description 'block'
_diffrn_ambient_temperature 100.0
_refine_special_details
;
O47 and O48 disordered over two sites with occupancies 0.739:0.261.

;
#These two values have been output from a single CSD field.
_refine_ls_R_factor_gt 0.0297
_refine_ls_wR_factor_gt 0.0297
_symmetry_cell_setting triclinic
_symmetry_space_group_name_H-M 'P -1'
_symmetry_Int_Tables_number 2
loop_
_symmetry_equiv_pos_site_id
_symmetry_equiv_pos_as_xyz
1 x,y,z
2 -x,-y,-z
_cell_length_a 13.4310(3)
_cell_length_b 20.3758(6)
_cell_length_c 20.9395(6)
_cell_angle_alpha 62.537(3)
_cell_angle_beta 88.452(2)
_cell_angle_gamma 88.299(2)
_cell_formula_units_Z 1
loop_
_atom_type_symbol
_atom_type_radius_bond
C 0.68
H 0.23
N 0.68
O 0.68
Si 1.20
Tm 1.90
W 1.62
loop_
_atom_site_label
_atom_site_type_symbol
_atom_site_fract_x
_atom_site_fract_y
_atom_site_fract_z
W1 W 0.10358(2) 0.71520(2) 0.22638(2)
O1 O 0.1050(3) 0.7870(2) 0.2861(2)
O2 O 0.2029(3) 0.7808(2) 0.1663(2)
O3 O 0.0834(3) 0.6634(3) 0.1828(3)
O4 O 0.0064(3) 0.7935(2) 0.1798(2)
O5 O 0.0104(3) 0.6705(2) 0.3056(2)
O6 O 0.2078(3) 0.6613(2) 0.2887(2)
Si1 Si 0.20523(11) 0.81470(9) 0.30736(9)
W2 W -0.02005(2) 0.86661(2) 0.21168(2)
W3 W -0.01535(2) 0.71192(2) 0.37035(2)
W4 W 0.33016(2) 0.82526(2) 0.15190(2)
W5 W 0.33898(2) 0.65514(2) 0.32622(2)
O7 O 0.2724(3) 0.7430(2) 0.3594(2)
O8 O 0.1756(3) 0.8621(2) 0.3492(2)
O9 O 0.2680(3) 0.8656(2) 0.2349(2)
O10 O 0.0871(3) 0.9228(2) 0.1539(2)
O11 O -0.0028(3) 0.9195(2) 0.2660(2)
O12 O -0.1199(3) 0.9118(3) 0.1608(3)
O13 O -0.0862(3) 0.7910(2) 0.2951(2)
O14 O 0.0967(3) 0.6564(2) 0.4247(2)
O15 O 0.0041(3) 0.7742(2) 0.4143(2)
O16 O -0.1124(3) 0.6586(3) 0.4201(3)
O17 O 0.3671(3) 0.7382(2) 0.2364(2)
O18 O 0.3812(3) 0.8086(3) 0.0848(3)
O19 O 0.2666(3) 0.9192(2) 0.0969(2)
O20 O 0.4366(3) 0.8756(2) 0.1688(2)
O21 O 0.2806(3) 0.6002(2) 0.4213(2)
O22 O 0.4447(3) 0.6801(2) 0.3698(2)
O23 O 0.3920(3) 0.5847(2) 0.3141(3)
W6 W 0.42509(2) 0.74950(2) 0.40735(2)
W7 W 0.22010(2) 0.64931(2) 0.47129(2)
W8 W 0.08632(2) 0.81665(2) 0.45770(2)
W9 W 0.07657(2) 0.97172(2) 0.30067(2)
W10 W 0.29055(2) 0.91792(2) 0.39074(2)
W11 W 0.20816(2) 0.97585(2) 0.14076(2)
W12 W 0.41950(2) 0.91892(2) 0.23237(2)
O24 O 0.4522(3) 0.8274(2) 0.3115(2)
O25 O 0.5372(3) 0.7414(3) 0.4475(3)
O26 O 0.3609(3) 0.8251(2) 0.4230(2)
O27 O 0.3517(3) 0.6762(2) 0.4855(2)
O28 O 0.1685(3) 0.7309(2) 0.4846(2)
O29 O 0.1983(3) 0.5762(3) 0.5538(3)
O30 O 0.0213(3) 0.7957(3) 0.5356(2)
O31 O 0.0264(3) 0.9117(2) 0.3957(2)
O32 O 0.1961(3) 0.8690(2) 0.4679(2)
O33 O 0.1563(3) 0.9962(2) 0.2155(2)
O34 O 0.1903(3) 0.9921(2) 0.3427(2)
O35 O 0.0086(3) 1.0512(2) 0.2774(3)
O36 O 0.3566(3) 0.9444(2) 0.3012(2)
O37 O 0.3596(3) 0.9621(3) 0.4254(3)
O38 O 0.3391(3) 0.9954(2) 0.1601(3)
O39 O 0.1810(3) 1.0564(3) 0.0659(3)
O40 O 0.5288(3) 0.9646(2) 0.2176(3)
Tm1 Tm 0.81222(2) 0.46678(2) 0.95275(2)
O41 O 0.8060(4) 0.5359(3) 1.0129(3)
H1 H 0.77250 0.52443 1.05154
H2 H 0.82417 0.58044 0.99693
O42 O 0.9249(4) 0.5571(3) 0.8940(3)
H3 H 0.92193 0.58571 0.84905
H4 H 0.97160 0.57118 0.91115
O43 O 0.9185(4) 0.4150(3) 0.8985(3)
H5 H 0.90242 0.38883 0.87849
H6 H 0.97806 0.42872 0.88580
O44 O 0.6658(4) 0.5382(3) 0.9093(3)
O45 O 0.7473(3) 0.5080(3) 0.8343(3)
O46 O 0.6385(3) 0.6195(3) 0.5890(3)
O47 O 0.3629(3) 0.4834(3) 0.6882(3)
O48 O 0.7065(3) 0.3995(3) 1.0550(3)
O49 O 0.7292(3) 0.3603(3) 0.9736(3)
O50 O 0.7064(3) 0.0497(3) 1.1175(3)
O51 O 0.4226(3) 0.1847(3) 1.0299(3)
O52 O 0.9244(3) 0.4032(3) 1.0423(3)
O53 O 0.9651(4) 0.2844(3) 1.0773(3)
O54 O 0.7698(3) 0.1181(3) 1.3586(3)
O55 O 1.0860(3) 0.2013(3) 1.3298(3)
N1 N 0.4972(4) 0.5554(3) 0.6365(3)
N2 N 0.5591(4) 0.1126(3) 1.0795(3)
N3 N 0.9258(4) 0.1617(3) 1.3485(3)
C1 C 0.6707(5) 0.5354(4) 0.8492(4)
C2 C 0.5851(5) 0.5624(4) 0.7999(4)
C3 C 0.5068(6) 0.6009(4) 0.8121(4)
H7 H 0.50795 0.61087 0.85113
C4 C 0.4272(6) 0.6244(5) 0.7665(5)
H8 H 0.37475 0.65028 0.77510
C5 C 0.4237(5) 0.6104(4) 0.7089(4)
H9 H 0.36969 0.62715 0.67816
C6 C 0.5008(5) 0.5712(4) 0.6964(4)
C7 C 0.5817(5) 0.5463(4) 0.7422(4)
H10 H 0.63310 0.51917 0.73432
C8 C 0.5744(5) 0.5807(4) 0.5851(4)
C9 C 0.4231(5) 0.5074(4) 0.6381(4)
C10 C 0.4227(5) 0.4863(4) 0.5798(4)
C11 C 0.4994(5) 0.5111(4) 0.5277(4)
C12 C 0.5746(5) 0.5576(4) 0.5282(4)
C13 C 0.6479(5) 0.5809(4) 0.4761(4)
H11 H 0.69665 0.61217 0.47648
C14 C 0.6507(5) 0.5583(4) 0.4223(4)
H12 H 0.70191 0.57346 0.38807
C15 C 0.6987(5) 0.3501(4) 1.0350(4)
C16 C 0.6581(5) 0.2768(4) 1.0863(4)
C17 C 0.6591(5) 0.2524(4) 1.1594(4)
H13 H 0.68219 0.28343 1.17700
C18 C 0.6265(5) 0.1827(4) 1.2072(4)
H14 H 0.62843 0.16693 1.25650
C19 C 0.5905(5) 0.1361(4) 1.1810(4)
H15 H 0.56794 0.08926 1.21257
C20 C 0.5891(5) 0.1610(4) 1.1069(4)
C21 C 0.6224(4) 0.2311(4) 1.0598(4)
H16 H 0.62069 0.24743 1.01035
C22 C 0.6285(5) 0.0565(4) 1.0865(4)
C23 C 0.4723(5) 0.1315(4) 1.0376(4)
C24 C 0.4474(5) 0.0822(4) 1.0061(4)
C25 C 0.5119(5) 0.0235(4) 1.0151(4)
C26 C 0.5997(4) 0.0080(4) 1.0558(4)
C27 C 0.6617(5) -0.0508(4) 1.0643(4)
H17 H 0.71926 -0.06089 1.09127
C28 C 0.6374(5) -0.0954(4) 1.0321(4)
H18 H 0.67988 -0.13426 1.03715
C29 C 0.9296(5) 0.3347(4) 1.0893(4)
C30 C 0.8988(5) 0.3174(4) 1.1644(4)
C31 C 0.8565(4) 0.3712(4) 1.1802(4)
H19 H 0.84426 0.41844 1.14300
C32 C 0.8320(5) 0.3560(4) 1.2504(4)
H20 H 0.80152 0.39213 1.26007
C33 C 0.8537(5) 0.2858(4) 1.3064(4)
H21 H 0.83954 0.27504 1.35389
C34 C 0.8965(5) 0.2325(4) 1.2901(4)
C35 C 0.9182(5) 0.2467(4) 1.2206(4)
H22 H 0.94537 0.20965 1.21089
C36 C 0.8535(5) 0.1085(4) 1.3817(4)
C37 C 1.0271(5) 0.1537(4) 1.3654(4)
C38 C 1.0577(5) 0.0838(4) 1.4286(4)
C39 C 0.9855(5) 0.0319(4) 1.4686(3)
C40 C 0.8846(5) 0.0418(4) 1.4485(4)
C41 C 0.8158(5) -0.0088(4) 1.4894(4)
H23 H 0.74933 -0.00094 1.47599
C42 C 0.8441(5) -0.0727(4) 1.5515(4)
H24 H 0.79683 -0.10736 1.57901
N4 N -0.0653(4) 1.1448(3) 0.0253(3)
C43 C -0.1565(5) 1.1929(4) 0.0035(4)
H25 H -0.14995 1.23251 0.01588
H26 H -0.16486 1.21314 -0.04748
H27 H -0.21348 1.16422 0.02821
C44 C -0.0524(5) 1.1140(4) 0.1050(4)
H28 H -0.04693 1.15398 0.11688
H29 H -0.10895 1.08484 0.12979
H30 H 0.00696 1.08362 0.11921
C45 C -0.0737(5) 1.0833(4) 0.0067(4)
H31 H -0.01442 1.05280 0.02106
H32 H -0.13036 1.05417 0.03143
H33 H -0.08175 1.10309 -0.04426
C46 C 0.0228(5) 1.1908(4) -0.0140(4)
H34 H 0.02836 1.23070 -0.00198
H35 H 0.08236 1.16056 -0.00008
H36 H 0.01409 1.21058 -0.06491
N5 N 0.2844(5) 1.2024(5) 0.1895(4)
C47 C 0.3194(9) 1.1873(8) 0.2637(7)
H37 H 0.30426 1.22962 0.27127
H38 H 0.28589 1.14500 0.29988
H39 H 0.38997 1.17789 0.26683
C48 C 0.3399(7) 1.2648(6) 0.1341(7)
H40 H 0.32425 1.30883 0.13841
H41 H 0.41009 1.25410 0.14041
H42 H 0.32161 1.27204 0.08720
C49 C 0.1745(7) 1.2138(7) 0.1868(7)
H43 H 0.15777 1.25730 0.19190
H44 H 0.15094 1.21989 0.14144
H45 H 0.14382 1.17163 0.22519
C50 C 0.3096(7) 1.1360(5) 0.1816(6)
H46 H 0.27398 1.09468 0.21736
H47 H 0.29147 1.14385 0.13451
H48 H 0.37995 1.12591 0.18772
N6 N -0.0579(4) 0.5417(3) 0.6322(3)
C51 C -0.0490(6) 0.5128(5) 0.5787(4)
H49 H -0.05583 0.46005 0.60292
H50 H -0.10045 0.53473 0.54371
H51 H 0.01497 0.52496 0.55511
C52 C -0.1569(5) 0.5215(4) 0.6708(5)
H52 H -0.16211 0.54035 0.70519
H53 H -0.20952 0.54254 0.63662
H54 H -0.16239 0.46863 0.69532
C53 C 0.0219(5) 0.5076(4) 0.6869(4)
H55 H 0.01598 0.52631 0.72133
H56 H 0.01491 0.45482 0.71109
H57 H 0.08595 0.51960 0.66339
C54 C -0.0476(6) 0.6236(4) 0.5959(4)
H58 H -0.05353 0.64143 0.63099
H59 H 0.01639 0.63614 0.57229
H60 H -0.09903 0.64591 0.56089
N7 N 0.7175(4) 0.8984(4) 0.3543(4)
C55 C 0.7834(7) 0.8559(6) 0.4168(6)
H61 H 0.75071 0.81177 0.45041
H62 H 0.84461 0.84289 0.40024
H63 H 0.79752 0.88574 0.43986
C56 C 0.7650(6) 0.9669(5) 0.3011(6)
H64 H 0.72093 0.99315 0.26157
H65 H 0.77897 0.99755 0.32340
H66 H 0.82605 0.95470 0.28378
C57 C 0.6966(5) 0.8511(5) 0.3193(5)
H67 H 0.66567 0.80641 0.35366
H68 H 0.65276 0.87739 0.27961
H69 H 0.75792 0.83907 0.30210
C58 C 0.6209(5) 0.9171(5) 0.3818(5)
H70 H 0.59039 0.87233 0.41639
H71 H 0.63434 0.94773 0.40417
H72 H 0.57668 0.94314 0.34230
N8 N 0.4867(4) 0.8324(3) 0.5816(4)
O56 O 0.6544(4) 0.8227(3) 0.5736(4)
C59 C 0.5696(5) 0.7978(4) 0.5777(4)
H73 H 0.56430 0.75218 0.57801
C60 C 0.4864(6) 0.9027(4) 0.5832(5)
H74 H 0.41890 0.91819 0.58607
H75 H 0.52210 0.89742 0.62444
H76 H 0.51785 0.93905 0.54019
C61 C 0.3901(5) 0.7977(4) 0.5903(4)
H77 H 0.33828 0.83034 0.59214
H78 H 0.37943 0.78797 0.55037
H79 H 0.38916 0.75209 0.63423
N9 N -0.2945(5) 0.7102(4) 0.1838(4)
O57 O -0.2026(4) 0.7020(3) 0.0966(4)
C62 C -0.2814(6) 0.7163(4) 0.1197(5)
H80 H -0.33535 0.73272 0.08892
C63 C -0.3880(6) 0.7244(5) 0.2092(5)
H81 H -0.38160 0.71671 0.25771
H82 H -0.40885 0.77469 0.17898
H83 H -0.43672 0.69152 0.20790
C64 C -0.2124(6) 0.6849(6) 0.2344(6)
H84 H -0.23435 0.68347 0.27907
H85 H -0.19083 0.63626 0.24285
H86 H -0.15801 0.71831 0.21471
N10 N 0.4413(5) 0.4143(4) -0.1031(4)
O58 O 0.2935(4) 0.4782(3) -0.1306(3)
C65 C 0.3633(5) 0.4453(4) -0.1442(4)
H87 H 0.36063 0.44212 -0.18698
C66 C 0.5182(5) 0.3745(5) -0.1245(5)
H88 H 0.56921 0.35548 -0.08892
H89 H 0.48825 0.33424 -0.12836
H90 H 0.54691 0.40782 -0.17019
C67 C 0.4544(6) 0.4145(6) -0.0341(5)
H91 H 0.51564 0.38921 -0.01304
H92 H 0.45647 0.46465 -0.04160
H93 H 0.39972 0.38989 -0.00231
O59 O 0.0930(4) 0.3578(3) 0.2469(3)
H94 H 0.14591 0.35861 0.26782
H95 H 0.07548 0.31298 0.26419
O60 O -0.1056(5) 0.5612(4) 0.1634(4)
H96 H -0.12090 0.60697 0.14554
H97 H -0.15505 0.53896 0.15850
O61 O -0.2546(4) 0.6839(3) 0.6651(3)
H98 H -0.28086 0.65827 0.64775
H99 H -0.27608 0.72823 0.64178
O62 O 0.1536(6) 0.3235(4) 0.0188(4)
H100 H 0.17585 0.28134 0.02557
H101 H 0.09393 0.32522 0.00545
O63? O 0.0886(15) 0.3726(14) -0.0435(13)
H102? H 0.09514 0.36399 -0.00010
H103? H 0.12877 0.34216 -0.04846
O44A O 0.3342(4) 0.4618(3) 0.0907(3)
O45A O 0.2527(3) 0.4920(3) 0.1657(3)
O46A O 0.3615(3) 0.3805(3) 0.4110(3)
O47A O 0.6371(3) 0.5166(3) 0.3118(3)
N1A N 0.5028(4) 0.4446(3) 0.3635(3)
C1A C 0.3293(5) 0.4646(4) 0.1508(4)
C2A C 0.4149(5) 0.4376(4) 0.2001(4)
C3A C 0.4932(6) 0.3991(4) 0.1879(4)
H7A H 0.49205 0.38913 0.14887
C4A C 0.5728(6) 0.3756(5) 0.2335(5)
H8A H 0.62525 0.34972 0.22490
C5A C 0.5763(5) 0.3896(4) 0.2911(4)
H9A H 0.63031 0.37285 0.32184
C6A C 0.4992(5) 0.4288(4) 0.3036(4)
C7A C 0.4183(5) 0.4537(4) 0.2578(4)
H10A H 0.36690 0.48083 0.26568
C8A C 0.4256(5) 0.4193(4) 0.4149(4)
C9A C 0.5769(5) 0.4926(4) 0.3619(4)
C10A C 0.5773(5) 0.5137(4) 0.4202(4)
C11A C 0.5006(5) 0.4889(4) 0.4723(4)
C12A C 0.4254(5) 0.4424(4) 0.4718(4)
C13A C 0.3521(5) 0.4191(4) 0.5239(4)
H11A H 0.30335 0.38783 0.52352
C14A C 0.3493(5) 0.4417(4) 0.5777(4)
H12A H 0.29809 0.42654 0.61193
O48A O 0.2935(3) -0.3995(3) 0.9450(3)
O49A O 0.2708(3) -0.3603(3) 1.0264(3)
O50A O 0.2936(3) -0.0497(3) 0.8825(3)
O51A O 0.5774(3) -0.1847(3) 0.9701(3)
N2A N 0.4409(4) -0.1126(3) 0.9205(3)
C15A C 0.3013(5) -0.3501(4) 0.9650(4)
C16A C 0.3419(5) -0.2768(4) 0.9137(4)
C17A C 0.3409(5) -0.2524(4) 0.8406(4)
H13A H 0.31781 -0.28343 0.82300
C18A C 0.3735(5) -0.1827(4) 0.7928(4)
H14A H 0.37157 -0.16693 0.74350
C19A C 0.4095(5) -0.1361(4) 0.8190(4)
H15A H 0.43206 -0.08926 0.78743
C20A C 0.4109(5) -0.1610(4) 0.8931(4)
C21A C 0.3776(4) -0.2311(4) 0.9402(4)
H16A H 0.37931 -0.24743 0.98965
C22A C 0.3715(5) -0.0565(4) 0.9135(4)
C23A C 0.5277(5) -0.1315(4) 0.9624(4)
C24A C 0.5526(5) -0.0822(4) 0.9939(4)
C25A C 0.4881(5) -0.0235(4) 0.9849(4)
C26A C 0.4003(4) -0.0080(4) 0.9442(4)
C27A C 0.3383(5) 0.0508(4) 0.9357(4)
H17A H 0.28074 0.06089 0.90873
C28A C 0.3626(5) 0.0954(4) 0.9679(4)
H18A H 0.32012 0.13426 0.96285
O52A O 1.0756(3) -0.4032(3) 1.9577(3)
O53A O 1.0349(4) -0.2844(3) 1.9227(3)
O54A O 1.2302(3) -0.1181(3) 1.6414(3)
O55A O 0.9140(3) -0.2013(3) 1.6702(3)
N3A N 1.0742(4) -0.1617(3) 1.6515(3)
C29A C 1.0704(5) -0.3347(4) 1.9107(4)
C30A C 1.1012(5) -0.3174(4) 1.8356(4)
C31A C 1.1435(4) -0.3712(4) 1.8198(4)
H19A H 1.15574 -0.41844 1.85700
C32A C 1.1680(5) -0.3560(4) 1.7496(4)
H20A H 1.19848 -0.39213 1.73993
C33A C 1.1463(5) -0.2858(4) 1.6936(4)
H21A H 1.16046 -0.27504 1.64611
C34A C 1.1035(5) -0.2325(4) 1.7099(4)
C35A C 1.0818(5) -0.2467(4) 1.7794(4)
H22A H 1.05463 -0.20965 1.78911
C36A C 1.1465(5) -0.1085(4) 1.6183(4)
C37A C 0.9729(5) -0.1537(4) 1.6346(4)
C38A C 0.9423(5) -0.0838(4) 1.5714(4)
C39A C 1.0145(5) -0.0319(4) 1.5314(3)
C40A C 1.1154(5) -0.0418(4) 1.5515(4)
C41A C 1.1842(5) 0.0088(4) 1.5106(4)
H23A H 1.25067 0.00094 1.52401
C42A C 1.1559(5) 0.0727(4) 1.4485(4)
H24A H 1.20317 0.10736 1.42099
Tm1A Tm 0.18778(2) -0.46678(2) 1.04725(2)
Tm1A* Tm 0.18778(2) 0.53322(2) 0.04725(2)
Tm1A** Tm 1.18778(2) -0.46678(2) 2.04725(2)
O49A* O 1.2708(3) -0.3603(3) 2.0264(3)
O48A* O 1.2935(3) -0.3995(3) 1.9450(3)
O42A O 1.0751(4) -0.5571(3) 2.1060(3)
H4A H 1.02840 -0.57118 2.08885
O41A O 1.1940(4) -0.5359(3) 1.9871(3)
O43A O 1.0815(4) -0.4150(3) 2.1015(3)
H1A H 1.22750 -0.52443 1.94846
O45A* O 1.2527(3) -0.5080(3) 2.1657(3)
H3A H 1.07807 -0.58571 2.15095
H5A H 1.09757 -0.38883 2.12151
H2A H 1.17583 -0.58044 2.00307
H6A H 1.02194 -0.42872 2.11420
O44A* O 1.3342(4) -0.5382(3) 2.0907(3)
#END
