
#######################################################################
#
#                 Cambridge Crystallographic Data Centre
#                                CCDC
#
#######################################################################
#
# If this CIF has been generated from an entry in the Cambridge
# Structural Database, then it will include bibliographic, chemical,
# crystal, experimental, refinement or atomic coordinate data resulting
# from the CCDC's data processing and validation procedures.
#
#######################################################################

data_CSD_CIF_IGOYIP
_audit_creation_date 2020-03-04
_audit_creation_method CSD-ConQuest-V1
_database_code_CSD IGOYIP
_database_code_depnum_ccdc_archive 'CCDC 1976082'
_chemical_formula_sum 'C134 H202 N20 O124 Si2 W24 Yb2'
_chemical_formula_moiety
;
(C84 H48 N6 O30 Yb2)n,2n(O40 Si1 W12 4-),8n(C4 H12 N1 1+),6n(C3 H7 N1 
O1),8n(H2 O1)
;
_journal_coden_Cambridge 222
_journal_volume 49
_journal_year 2020
_journal_page_first 3408
_journal_name_full 'Dalton Trans. '
loop_
_publ_author_name
"Xiao-Yuan Wu"
"Hai-Long Zhang"
"Sa-Sa Wang"
"Weiming Wu"
"Lang Lin"
"Xiao-Yu Jiang"
"Can-Zhong Lu"
_chemical_name_systematic
;
catena-(octakis(tetramethylammonium) 
tris(\m-3,3'-(1,3,6,8-tetraoxo-1,3,6,8-tetrahydrobenzo[lmn][3,8]phenanthroline
-2,7-diyl)dibenzoato)-hexa-aqua-di-ytterbium(iii) 
bis(tetracosakis(\m-oxo)-(\m-silicato)-dodecaoxo-dodeca-tungsten) 
dimethylformamide solvate octahydrate)
;
_cell_volume   5087.696
_exptl_crystal_colour 'yellowish'
_exptl_crystal_density_diffrn 2.902
_exptl_crystal_description 'block'
_diffrn_ambient_temperature 100
#These two values have been output from a single CSD field.
_refine_ls_R_factor_gt 0.0333
_refine_ls_wR_factor_gt 0.0333
_symmetry_cell_setting triclinic
_symmetry_space_group_name_H-M 'P -1'
_symmetry_Int_Tables_number 2
loop_
_symmetry_equiv_pos_site_id
_symmetry_equiv_pos_as_xyz
1 x,y,z
2 -x,-y,-z
_cell_length_a 13.4362(3)
_cell_length_b 20.3814(4)
_cell_length_c 20.9477(5)
_cell_angle_alpha 62.544(2)
_cell_angle_beta 88.5082(18)
_cell_angle_gamma 88.3316(17)
_cell_formula_units_Z 1
loop_
_atom_type_symbol
_atom_type_radius_bond
C 0.68
H 0.23
N 0.68
O 0.68
Si 1.20
W 1.62
Yb 1.87
loop_
_atom_site_label
_atom_site_type_symbol
_atom_site_fract_x
_atom_site_fract_y
_atom_site_fract_z
Si1 Si 0.29471(10) 0.18521(8) 0.19268(8)
W1 W 0.39646(2) 0.28469(2) 0.27357(2)
W2 W 0.17013(2) 0.17445(2) 0.34824(2)
W3 W 0.51508(2) 0.28795(2) 0.12964(2)
W4 W 0.16089(2) 0.34450(2) 0.17387(2)
W5 W 0.29215(2) 0.02385(2) 0.35938(2)
W6 W 0.52010(2) 0.13326(2) 0.28834(2)
W7 W 0.41322(2) 0.18318(2) 0.04240(2)
W8 W 0.08065(2) 0.08076(2) 0.26778(2)
W9 W 0.42345(2) 0.02810(2) 0.19941(2)
W10 W 0.27943(2) 0.35049(2) 0.02873(2)
W11 W 0.20927(2) 0.08175(2) 0.10941(2)
W12 W 0.07462(2) 0.25016(2) 0.09275(2)
O1 O 0.2264(3) 0.2569(2) 0.1404(2)
O2 O 0.3248(3) 0.1371(2) 0.1512(2)
O3 O 0.3952(3) 0.2129(2) 0.2138(2)
O4 O 0.2320(3) 0.1340(2) 0.2658(2)
O5 O 0.1320(3) 0.2615(2) 0.2632(2)
O6 O 0.4941(3) 0.2069(2) 0.3198(2)
O7 O 0.4031(3) 0.3437(2) 0.0752(2)
O8 O 0.4888(3) 0.3296(2) 0.1950(2)
O9 O 0.2184(3) 0.3993(2) 0.0788(2)
O10 O 0.3039(3) 0.1313(2) 0.0319(2)
O11 O 0.4781(3) 0.2044(2) -0.0357(2)
O12 O 0.0478(3) 0.1726(2) 0.1884(2)
O13 O 0.4167(3) 0.3370(2) 0.3168(2)
O14 O 0.2967(3) 0.2194(2) 0.3340(2)
O15 O 0.1403(3) 0.0369(2) 0.0752(2)
O16 O 0.5034(3) 0.0806(2) 0.2340(2)
O17 O 0.1387(3) 0.1745(2) 0.0773(2)
O18 O 0.4961(3) 0.2257(2) 0.0861(2)
O19 O 0.4126(3) 0.0774(2) 0.3464(2)
O20 O 0.2915(3) 0.3388(2) 0.2112(2)
O21 O 0.0637(3) 0.1241(2) 0.3312(2)
O22 O 0.1193(3) 0.1911(2) 0.4147(2)
O23 O 0.1436(3) 0.0553(2) 0.1993(2)
O24 O -0.0368(3) 0.2580(2) 0.0532(2)
O25 O 0.5863(3) 0.2087(2) 0.2051(2)
O26 O 0.2334(3) 0.0803(2) 0.4038(2)
O27 O 0.0555(3) 0.3197(2) 0.1307(2)
O28 O 0.3440(3) 0.0038(2) 0.2845(2)
O29 O 0.1610(3) 0.0044(2) 0.3402(2)
O30 O 0.4726(3) 0.0881(2) 0.1043(2)
O31 O 0.3099(3) 0.0079(2) 0.1579(2)
O32 O 0.3014(3) 0.4233(2) -0.0535(2)
O33 O 0.6205(3) 0.0881(2) 0.3394(2)
O34 O 0.4916(3) -0.0517(2) 0.2225(2)
O35 O 0.3195(3) -0.0568(2) 0.4343(2)
O36 O 0.3310(3) 0.2692(2) 0.0153(2)
O37 O 0.1079(3) 0.4153(2) 0.1858(2)
O38 O 0.6120(3) 0.3409(2) 0.0800(2)
O39 O 0.1481(3) 0.3236(2) 0.0145(2)
O40 O -0.0291(3) 0.0351(2) 0.2825(2)
Yb1 Yb -0.31290(2) 0.53400(2) -0.45324(2)
N1 N -0.0595(3) 0.8873(3) -0.5789(3)
N2 N 0.0028(4) 0.4459(3) -0.1370(3)
N3 N -0.4260(4) 0.8378(3) -0.8486(3)
O41 O -0.3064(3) 0.4640(2) -0.5123(2)
H1 H -0.32446 0.41944 -0.49606
H2 H -0.27298 0.47532 -0.55087
O42 O -0.4180(3) 0.5873(3) -0.4002(2)
H3 H -0.40208 0.61281 -0.37953
H4 H -0.47735 0.57304 -0.38743
O43 O -0.4248(3) 0.4443(3) -0.3940(2)
H5 H -0.42193 0.41542 -0.34913
H6 H -0.47127 0.43022 -0.41142
O44 O -0.2291(3) 0.6402(2) -0.4741(2)
O45 O -0.2075(3) 0.6005(2) -0.5555(2)
O46 O 0.0779(3) 0.8149(2) -0.5289(2)
O47 O -0.2061(3) 0.9498(2) -0.6170(2)
O48 O -0.2489(3) 0.4922(2) -0.3349(2)
O49 O -0.1655(3) 0.4641(3) -0.4101(3)
O50 O 0.1369(3) 0.5185(3) -0.1890(2)
O51 O -0.1376(3) 0.3803(2) -0.0896(2)
O52 O -0.4246(3) 0.5969(2) -0.5420(2)
O53 O -0.4651(4) 0.7151(2) -0.5775(2)
O54 O -0.2698(3) 0.8816(2) -0.8588(2)
O55 O -0.5853(3) 0.7985(2) -0.8303(2)
C1 C -0.1989(4) 0.6500(3) -0.5358(3)
C2 C -0.1571(4) 0.7238(3) -0.5863(3)
C3 C -0.1591(4) 0.7477(3) -0.6602(3)
H7 H -0.18232 0.71667 -0.67780
C4 C -0.1260(5) 0.8184(4) -0.7080(3)
H8 H -0.12792 0.83499 -0.75738
C5 C -0.0904(4) 0.8634(4) -0.6807(3)
H9 H -0.06715 0.91010 -0.71183
C6 C -0.0894(4) 0.8388(3) -0.6068(3)
C7 C -0.1231(4) 0.7696(3) -0.5599(3)
H10 H -0.12294 0.75378 -0.51055
C8 C 0.0273(4) 0.8686(3) -0.5374(3)
C9 C -0.1279(4) 0.9439(3) -0.5869(3)
C10 C -0.0998(4) 0.9924(3) -0.5550(3)
C11 C -0.0124(4) 0.9770(3) -0.5152(3)
C12 C 0.0522(4) 0.9173(3) -0.5057(3)
C13 C 0.1382(4) 0.9043(3) -0.4669(3)
H11 H 0.18041 0.86516 -0.46155
C14 C 0.1628(4) 0.9484(3) -0.4358(3)
H12 H 0.22055 0.93873 -0.40914
C15 C -0.1716(5) 0.4665(3) -0.3508(3)
C16 C -0.0860(5) 0.4400(3) -0.3010(3)
C17 C -0.0066(5) 0.4009(4) -0.3133(4)
H13 H -0.00825 0.39042 -0.35199
C18 C 0.0736(5) 0.3781(4) -0.2683(4)
H14 H 0.12669 0.35328 -0.27752
C19 C 0.0768(5) 0.3915(4) -0.2097(4)
H15 H 0.13067 0.37506 -0.17880
C20 C -0.0023(5) 0.4300(3) -0.1977(3)
C21 C -0.0822(4) 0.4544(3) -0.2423(3)
H16 H -0.13390 0.48063 -0.23347
C22 C 0.0770(5) 0.4939(3) -0.1396(3)
C23 C -0.0744(4) 0.4199(3) -0.0858(3)
C24 C -0.0733(4) 0.4425(3) -0.0283(3)
C25 C 0.0007(4) 0.4892(3) -0.0276(3)
C26 C 0.0771(4) 0.5142(3) -0.0796(3)
C27 C 0.1497(4) 0.5594(3) -0.0778(3)
H17 H 0.19982 0.57532 -0.11285
C28 C 0.1491(4) 0.5816(3) -0.0237(3)
H18 H 0.19847 0.61202 -0.02256
C29 C -0.4308(4) 0.6652(3) -0.5891(3)
C30 C -0.3994(4) 0.6826(3) -0.6652(3)
C31 C -0.3570(4) 0.6285(3) -0.6805(3)
H19 H -0.34478 0.58127 -0.64330
C32 C -0.3325(4) 0.6443(4) -0.7509(3)
H20 H -0.30190 0.60837 -0.76070
C33 C -0.3538(4) 0.7142(3) -0.8066(3)
H21 H -0.33965 0.72496 -0.85413
C34 C -0.3964(4) 0.7671(3) -0.7905(3)
C35 C -0.4178(4) 0.7531(3) -0.7201(3)
H22 H -0.44389 0.79019 -0.71015
C36 C -0.3531(4) 0.8912(3) -0.8822(3)
C37 C -0.5271(4) 0.8463(3) -0.8662(3)
C38 C -0.5573(4) 0.9157(3) -0.9287(3)
C39 C -0.4859(4) 0.9682(3) -0.9685(3)
C40 C -0.3845(4) 0.9577(3) -0.9481(3)
C41 C -0.3152(4) 1.0098(3) -0.9896(3)
H23 H -0.24878 1.00246 -0.97623
C42 C -0.3438(4) 1.0730(3) -1.0511(3)
H24 H -0.29664 1.10772 -1.07866
O56 O -0.4076(3) 0.3587(3) -0.2536(2)
H25 H -0.42523 0.31388 -0.23570
H26 H -0.35423 0.35968 -0.23312
O57 O -0.2439(4) 0.3164(3) -0.1666(3)
H27 H -0.22287 0.27206 -0.14287
H28 H -0.21779 0.34215 -0.14926
O58 O -0.6050(4) 0.5614(3) -0.3382(3)
H29 H -0.62014 0.60712 -0.35536
H30 H -0.65490 0.53952 -0.34317
O59 O -0.3466(4) 0.3239(3) -0.4811(3)
H31 H -0.40551 0.31107 -0.46534
H32 H -0.33610 0.31532 -0.51677
N4 N 0.4346(4) 0.1457(3) 0.5252(3)
C43 C 0.5223(4) 0.1913(3) 0.4859(3)
H33 H 0.58175 0.16105 0.49989
H34 H 0.51343 0.21080 0.43502
H35 H 0.52801 0.23141 0.49757
C44 C 0.4258(5) 0.0834(4) 0.5067(4)
H36 H 0.48496 0.05284 0.52103
H37 H 0.36910 0.05438 0.53140
H38 H 0.41764 0.10306 0.45570
C45 C 0.3433(4) 0.1932(4) 0.5031(4)
H39 H 0.28657 0.16436 0.52809
H40 H 0.34937 0.23327 0.51473
H41 H 0.33479 0.21266 0.45218
C46 C 0.4478(5) 0.1142(4) 0.6054(3)
H42 H 0.50689 0.08360 0.61942
H43 H 0.45367 0.15389 0.61762
H44 H 0.39108 0.08517 0.63006
N5 N -0.2171(4) 0.1007(3) 0.1459(3)
C47 C -0.2844(6) 0.1444(6) 0.0837(5)
H45 H -0.25149 0.18842 0.05000
H46 H -0.30007 0.11505 0.06046
H47 H -0.34467 0.15773 0.10093
C48 C -0.2639(5) 0.0314(5) 0.2005(5)
H48 H -0.27823 0.00038 0.17870
H49 H -0.21903 0.00567 0.23962
H50 H -0.32464 0.04342 0.21828
C49 C -0.1953(5) 0.1484(4) 0.1809(4)
H51 H -0.16514 0.19327 0.14622
H52 H -0.25624 0.16011 0.19874
H53 H -0.15063 0.12236 0.22008
C50 C -0.1217(5) 0.0815(4) 0.1186(4)
H54 H -0.09137 0.12598 0.08340
H55 H -0.07715 0.05588 0.15792
H56 H -0.13582 0.05031 0.09694
N6 N -0.7849(4) 0.7989(4) -0.6919(4)
C51 C -0.8189(8) 0.8159(8) -0.7655(6)
H57 H -0.88996 0.82255 -0.76778
H58 H -0.78827 0.86045 -0.80049
H59 H -0.80016 0.77578 -0.77559
C52 C -0.6773(6) 0.7889(6) -0.6889(6)
H60 H -0.64702 0.83208 -0.72623
H61 H -0.65471 0.78159 -0.64289
H62 H -0.65909 0.74651 -0.69543
C53 C -0.8396(7) 0.7353(5) -0.6364(6)
H63 H -0.90992 0.74579 -0.64169
H64 H -0.82444 0.69192 -0.64199
H65 H -0.82005 0.72701 -0.58945
C54 C -0.8105(6) 0.8645(5) -0.6811(5)
H66 H -0.88138 0.87213 -0.68295
H67 H -0.78712 0.85648 -0.63513
H68 H -0.77938 0.90734 -0.71840
N7 N 0.5581(4) 0.4585(3) -0.1323(3)
C55 C 0.6573(5) 0.4792(4) -0.1705(4)
H69 H 0.70963 0.45795 -0.13611
H70 H 0.66297 0.46078 -0.20517
H71 H 0.66258 0.53203 -0.19451
C56 C 0.5496(6) 0.4874(4) -0.0781(4)
H72 H 0.60154 0.46567 -0.04342
H73 H 0.55585 0.54018 -0.10210
H74 H 0.48598 0.47480 -0.05400
C57 C 0.5474(5) 0.3762(4) -0.0951(4)
H75 H 0.59875 0.35400 -0.06010
H76 H 0.48338 0.36394 -0.07155
H77 H 0.55305 0.35783 -0.12986
C58 C 0.4777(5) 0.4919(4) -0.1864(4)
H78 H 0.48384 0.54465 -0.21066
H79 H 0.48366 0.47314 -0.22089
H80 H 0.41399 0.47925 -0.16258
N8 N 0.7952(4) 0.2887(3) 0.3160(3)
O60 O 0.7010(4) 0.2991(3) 0.4019(3)
C59 C 0.7804(5) 0.2837(4) 0.3808(4)
H81 H 0.83346 0.26763 0.41243
C60 C 0.7139(6) 0.3152(5) 0.2634(5)
H82 H 0.73667 0.31546 0.21950
H83 H 0.65820 0.28302 0.28259
H84 H 0.69392 0.36444 0.25397
C61 C 0.8894(6) 0.2729(5) 0.2923(5)
H85 H 0.88395 0.27979 0.24397
H86 H 0.93830 0.30560 0.29361
H87 H 0.90909 0.22260 0.32337
N9 N 0.0144(4) 1.1683(3) -1.0820(3)
O61 O -0.1544(4) 1.1774(3) -1.0721(3)
C62 C -0.0705(5) 1.2015(4) -1.0768(4)
H88 H -0.06545 1.24688 -1.07684
C63 C 0.1100(5) 1.2036(4) -1.0904(4)
H89 H 0.16228 1.17184 -1.09314
H90 H 0.11011 1.24977 -1.13366
H91 H 0.12055 1.21236 -1.04982
C64 C 0.0138(5) 1.0974(4) -1.0815(4)
H92 H 0.08092 1.08217 -1.08568
H93 H -0.01566 1.06167 -1.03731
H94 H -0.02416 1.10124 -1.12133
N10 N -0.0588(4) 0.4130(3) -0.6020(3)
O62 O -0.2069(3) 0.4763(3) -0.6297(3)
C65 C -0.1366(5) 0.4443(4) -0.6438(4)
H95 H -0.13847 0.44203 -0.68708
C66 C -0.0456(6) 0.4134(5) -0.5330(4)
H96 H 0.01531 0.38782 -0.51175
H97 H -0.04306 0.46357 -0.54074
H98 H -0.10057 0.38919 -0.50142
C67 C 0.0189(5) 0.3747(4) -0.6238(4)
H99 H 0.06946 0.35531 -0.58783
H100 H -0.01006 0.33488 -0.62886
H101 H 0.04801 0.40894 -0.66890
N1A N 0.0595(3) 1.1127(3) -0.4211(3)
O44A O 0.2291(3) 1.3598(2) -0.5259(2)
O45A O 0.2075(3) 1.3995(2) -0.4445(2)
O46A O -0.0779(3) 1.1851(2) -0.4711(2)
O47A O 0.2061(3) 1.0502(2) -0.3830(2)
C1A C 0.1989(4) 1.3500(3) -0.4642(3)
C2A C 0.1571(4) 1.2762(3) -0.4137(3)
C3A C 0.1591(4) 1.2523(3) -0.3398(3)
H7A H 0.18232 1.28333 -0.32220
C4A C 0.1260(5) 1.1816(4) -0.2920(3)
H8A H 0.12792 1.16501 -0.24262
C5A C 0.0904(4) 1.1366(4) -0.3193(3)
H9A H 0.06715 1.08990 -0.28817
C6A C 0.0894(4) 1.1612(3) -0.3932(3)
C7A C 0.1231(4) 1.2304(3) -0.4401(3)
H10A H 0.12294 1.24622 -0.48945
C8A C -0.0273(4) 1.1314(3) -0.4626(3)
C9A C 0.1279(4) 1.0561(3) -0.4131(3)
C10A C 0.0998(4) 1.0076(3) -0.4450(3)
C11A C 0.0124(4) 1.0230(3) -0.4848(3)
C12A C -0.0522(4) 1.0827(3) -0.4943(3)
C13A C -0.1382(4) 1.0957(3) -0.5331(3)
H11A H -0.18041 1.13484 -0.53845
C14A C -0.1628(4) 1.0516(3) -0.5642(3)
H12A H -0.22055 1.06127 -0.59086
N2A N -0.0028(4) 0.5541(3) 0.1370(3)
O48A O 0.2489(3) 0.5078(2) 0.3349(2)
O49A O 0.1655(3) 0.5359(3) 0.4101(3)
O50A O -0.1369(3) 0.4815(3) 0.1890(2)
O51A O 0.1376(3) 0.6197(2) 0.0896(2)
C15A C 0.1716(5) 0.5335(3) 0.3508(3)
C16A C 0.0860(5) 0.5600(3) 0.3010(3)
C17A C 0.0066(5) 0.5991(4) 0.3133(4)
H13A H 0.00825 0.60958 0.35199
C18A C -0.0736(5) 0.6219(4) 0.2683(4)
H14A H -0.12669 0.64672 0.27752
C19A C -0.0768(5) 0.6085(4) 0.2097(4)
H15A H -0.13067 0.62494 0.17880
C20A C 0.0023(5) 0.5700(3) 0.1977(3)
C21A C 0.0822(4) 0.5456(3) 0.2423(3)
H16A H 0.13390 0.51937 0.23347
C22A C -0.0770(5) 0.5061(3) 0.1396(3)
C23A C 0.0744(4) 0.5801(3) 0.0858(3)
C24A C 0.0733(4) 0.5575(3) 0.0283(3)
C25A C -0.0007(4) 0.5108(3) 0.0276(3)
C26A C -0.0771(4) 0.4858(3) 0.0796(3)
C27A C -0.1497(4) 0.4406(3) 0.0778(3)
H17A H -0.19982 0.42468 0.11285
C28A C -0.1491(4) 0.4184(3) 0.0237(3)
H18A H -0.19847 0.38798 0.02256
N3A N -0.5740(4) 1.1622(3) -1.1514(3)
O52A O -0.5754(3) 1.4031(2) -1.4580(2)
O53A O -0.5349(4) 1.2849(2) -1.4225(2)
O54A O -0.7302(3) 1.1184(2) -1.1412(2)
O55A O -0.4147(3) 1.2015(2) -1.1697(2)
C29A C -0.5692(4) 1.3348(3) -1.4109(3)
C30A C -0.6006(4) 1.3174(3) -1.3348(3)
C31A C -0.6430(4) 1.3715(3) -1.3195(3)
H19A H -0.65522 1.41873 -1.35670
C32A C -0.6675(4) 1.3557(4) -1.2491(3)
H20A H -0.69810 1.39163 -1.23930
C33A C -0.6462(4) 1.2858(3) -1.1934(3)
H21A H -0.66034 1.27504 -1.14587
C34A C -0.6036(4) 1.2329(3) -1.2095(3)
C35A C -0.5822(4) 1.2469(3) -1.2799(3)
H22A H -0.55611 1.20981 -1.28985
C36A C -0.6469(4) 1.1088(3) -1.1178(3)
C37A C -0.4729(4) 1.1537(3) -1.1338(3)
C38A C -0.4427(4) 1.0843(3) -1.0713(3)
C39A C -0.5141(4) 1.0318(3) -1.0315(3)
C40A C -0.6155(4) 1.0423(3) -1.0519(3)
C41A C -0.6848(4) 0.9902(3) -1.0104(3)
H23A H -0.75122 0.99754 -1.02377
C42A C -0.6562(4) 0.9270(3) -0.9489(3)
H24A H -0.70336 0.89228 -0.92134
Yb1A Yb -0.68710(2) 1.46600(2) -1.54676(2)
O41A O -0.6936(3) 1.5360(2) -1.4877(2)
H1A H -0.67554 1.58056 -1.50394
H2A H -0.72702 1.52468 -1.44913
O42A O -0.5820(3) 1.4127(3) -1.5998(2)
H3A H -0.59792 1.38719 -1.62047
H4A H -0.52265 1.42696 -1.61257
O43A O -0.5752(3) 1.5557(3) -1.6060(2)
H5A H -0.57807 1.58458 -1.65087
H6A H -0.52873 1.56978 -1.58858
Yb1A* Yb 0.31290(2) 0.46600(2) 0.45324(2)
Yb1A** Yb 0.31290(2) 1.46600(2) -0.54676(2)
O44A* O -0.7709(3) 1.3598(2) -1.5259(2)
O45A* O -0.7925(3) 1.3995(2) -1.4445(2)
O48A* O -0.7511(3) 1.5078(2) -1.6651(2)
O49A* O -0.8345(3) 1.5359(3) -1.5899(3)
#END
