
#######################################################################
#
#                 Cambridge Crystallographic Data Centre
#                                CCDC
#
#######################################################################
#
# If this CIF has been generated from an entry in the Cambridge
# Structural Database, then it will include bibliographic, chemical,
# crystal, experimental, refinement or atomic coordinate data resulting
# from the CCDC's data processing and validation procedures.
#
#######################################################################

data_CSD_CIF_IGOYUB
_audit_creation_date 2020-03-04
_audit_creation_method CSD-ConQuest-V1
_database_code_CSD IGOYUB
_database_code_depnum_ccdc_archive 'CCDC 1976084'
_chemical_formula_sum 'C134 H202 Er2 N20 O124 Si2 W24'
_chemical_formula_moiety
;
(C84 H48 Er2 N6 O30)n,2n(O40 Si1 W12 4-),8n(C4 H12 N1 1+),6n(C3 H7 N1 
O1),8n(H2 O1)
;
_journal_coden_Cambridge 222
_journal_volume 49
_journal_year 2020
_journal_page_first 3408
_journal_name_full 'Dalton Trans. '
loop_
_publ_author_name
"Xiao-Yuan Wu"
"Hai-Long Zhang"
"Sa-Sa Wang"
"Weiming Wu"
"Lang Lin"
"Xiao-Yu Jiang"
"Can-Zhong Lu"
_chemical_name_systematic
;
catena-(octakis(tetramethylammonium) 
tris(\m-3,3'-(1,3,6,8-tetraoxo-1,3,6,8-tetrahydrobenzo[lmn][3,8]phenanthroline
-2,7-diyl)dibenzoato)-hexa-aqua-di-erbium(iii) 
bis(tetracosakis(\m-oxo)-(\m-silicato)-dodecaoxo-dodeca-tungsten) 
dimethylformamide solvate octahydrate)
;
_cell_volume   5090.602
_exptl_crystal_colour 'yellowish'
_exptl_crystal_density_diffrn 2.897
_exptl_crystal_description 'block'
_diffrn_ambient_temperature 100
_refine_special_details
;
O47A and O47B disordered over two sites with occupancies 0.746:0.254.

;
#These two values have been output from a single CSD field.
_refine_ls_R_factor_gt 0.0284
_refine_ls_wR_factor_gt 0.0284
_symmetry_cell_setting triclinic
_symmetry_space_group_name_H-M 'P -1'
_symmetry_Int_Tables_number 2
loop_
_symmetry_equiv_pos_site_id
_symmetry_equiv_pos_as_xyz
1 x,y,z
2 -x,-y,-z
_cell_length_a 13.4346(3)
_cell_length_b 20.3826(3)
_cell_length_c 20.9595(5)
_cell_angle_alpha 62.558(2)
_cell_angle_beta 88.4114(19)
_cell_angle_gamma 88.2525(16)
_cell_formula_units_Z 1
loop_
_atom_type_symbol
_atom_type_radius_bond
C 0.68
H 0.23
Er 1.89
N 0.68
O 0.68
Si 1.20
W 1.62
loop_
_atom_site_label
_atom_site_type_symbol
_atom_site_fract_x
_atom_site_fract_y
_atom_site_fract_z
W1 W 0.79189(2) -0.97590(2) 0.35919(2)
O1 O 0.7321(3) -0.86562(19) 0.2657(2)
O2 O 0.9126(3) -0.92223(19) 0.3460(2)
O3 O 0.8438(3) -0.9964(2) 0.2844(2)
O4 O 0.7328(3) -0.9194(2) 0.4033(2)
O5 O 0.6615(3) -0.9952(2) 0.3400(2)
O6 O 0.8193(3) -1.0568(2) 0.4339(2)
Si1 Si 0.79472(11) -0.81454(7) 0.19272(8)
W2 W 0.58052(2) -0.91889(2) 0.26767(2)
W3 W 0.66986(2) -0.82523(2) 0.34807(2)
W4 W 1.02000(2) -0.86673(2) 0.28827(2)
W5 W 0.92357(2) -0.97179(2) 0.19934(2)
O7 O 0.8250(3) -0.86301(19) 0.1511(2)
O8 O 0.7268(3) -0.74323(19) 0.1408(2)
O9 O 0.8955(3) -0.7865(2) 0.2136(2)
O10 O 0.5481(3) -0.8270(2) 0.1881(2)
O11 O 0.5634(3) -0.87512(19) 0.3308(2)
O12 O 0.6433(3) -0.9443(2) 0.1991(2)
O13 O 0.4709(3) -0.9647(2) 0.2826(2)
O14 O 0.7975(3) -0.7807(2) 0.3339(2)
O15 O 0.6190(3) -0.8086(2) 0.4145(2)
O16 O 0.6326(3) -0.7379(2) 0.2636(2)
O17 O 1.0039(3) -0.91949(19) 0.2341(2)
O18 O 0.9932(3) -0.7940(2) 0.3203(2)
O19 O 1.1208(3) -0.9118(2) 0.3392(2)
O20 O 1.0864(3) -0.7915(2) 0.2054(2)
O21 O 0.9737(3) -0.9118(2) 0.1045(2)
O22 O 0.9914(3) -1.0516(2) 0.2228(2)
O23 O 0.8099(3) -0.9917(2) 0.1577(2)
W6 W 0.70959(2) -0.91798(2) 0.10942(2)
W7 W 0.91372(2) -0.81673(2) 0.04241(2)
W8 W 0.66097(2) -0.65516(2) 0.17384(2)
W9 W 0.77991(2) -0.64936(2) 0.02886(2)
W10 W 0.57495(2) -0.74953(2) 0.09280(2)
W11 W 0.89636(2) -0.71526(2) 0.27351(2)
W12 W 1.01535(2) -0.71208(2) 0.12967(2)
O24 O 0.6390(3) -0.8251(2) 0.0769(2)
O25 O 0.8035(3) -0.8686(2) 0.0321(2)
O26 O 0.6399(3) -0.9623(2) 0.0745(2)
O27 O 0.9785(3) -0.7957(2) -0.0352(2)
O28 O 0.9967(3) -0.7739(2) 0.0858(2)
O29 O 0.8319(3) -0.73073(19) 0.0148(2)
O30 O 0.7190(3) -0.6005(2) 0.0790(2)
O31 O 0.7911(3) -0.66098(19) 0.2110(2)
O32 O 0.5551(3) -0.6806(2) 0.1308(2)
O33 O 0.6075(3) -0.5845(2) 0.1858(2)
O34 O 0.9029(3) -0.6563(2) 0.0751(2)
O35 O 0.8020(3) -0.5760(2) -0.0541(2)
O36 O 0.6491(3) -0.6760(2) 0.0148(2)
O37 O 0.4632(3) -0.7411(2) 0.0526(2)
O38 O 0.9162(3) -0.6634(2) 0.3166(2)
O39 O 0.9901(3) -0.67103(19) 0.1945(2)
O40 O 1.1125(3) -0.6590(2) 0.0802(2)
Er1 Er 0.81215(2) -0.53306(2) 0.45258(2)
O41 O 0.9189(4) -0.5856(3) 0.3983(3)
H1 H 0.90267 -0.61158 0.37828
H2 H 0.97841 -0.57174 0.38539
O42 O 0.9256(4) -0.4423(2) 0.3934(2)
H3 H 0.92267 -0.41367 0.34850
H4 H 0.97193 -0.42815 0.41065
O43 O 0.8058(3) -0.4637(2) 0.5133(2)
H5 H 0.82372 -0.41920 0.49740
H6 H 0.77240 -0.47545 0.55193
O44 O 0.9653(4) -0.7162(2) 0.5779(2)
O45 O 0.9246(3) -0.5978(2) 0.5421(2)
O46 O 0.7693(3) -0.8821(2) 0.8585(2)
O47 O 1.0851(3) -0.7986(2) 0.8295(2)
O48 O 0.7288(3) -0.6407(2) 0.4746(2)
O49 O 0.7056(3) -0.6007(2) 0.5551(2)
O50 O 0.7061(3) -0.9502(2) 0.6170(2)
O51 O 0.4226(3) -0.8151(2) 0.5297(2)
O52 O 0.6645(4) -0.4609(3) 0.4082(3)
O53 O 0.7468(4) -0.4919(2) 0.3340(2)
O54 O 0.3617(4) -0.5170(2) 0.1882(2)
O55 O 0.6381(3) -0.3798(2) 0.0885(2)
N1 N 0.9258(4) -0.8385(3) 0.8486(3)
N2 N 0.5588(4) -0.8875(2) 0.5789(3)
N3 N 0.4964(4) -0.4444(3) 0.1359(3)
C1 C 0.9302(5) -0.6663(3) 0.5896(3)
C2 C 0.8986(5) -0.6833(3) 0.6649(3)
C3 C 0.9175(5) -0.7537(3) 0.7208(3)
H7 H 0.94393 -0.79095 0.71117
C4 C 0.8966(5) -0.7675(3) 0.7903(3)
C5 C 0.8532(5) -0.7143(3) 0.8068(4)
H8 H 0.83843 -0.72507 0.85416
C6 C 0.8326(5) -0.6451(3) 0.7513(3)
H9 H 0.80261 -0.60896 0.76121
C7 C 0.8565(5) -0.6287(3) 0.6800(3)
H10 H 0.84413 -0.58153 0.64297
C8 C 0.8528(5) -0.8914(3) 0.8822(3)
C9 C 1.0277(5) -0.8467(3) 0.8652(3)
C10 C 1.0580(5) -0.9155(3) 0.9279(3)
C11 C 0.9858(5) -0.9682(3) 0.9689(3)
C12 C 0.8852(5) -0.9583(3) 0.9480(3)
C13 C 0.8154(5) -1.0095(3) 0.9900(3)
H11 H 0.74877 -1.00157 0.97703
C14 C 0.8435(5) -1.0726(3) 1.0512(3)
H12 H 0.79606 -1.10720 1.07835
C15 C 0.6985(5) -0.6502(3) 0.5355(3)
C16 C 0.6568(5) -0.7232(3) 0.5861(3)
C17 C 0.6589(5) -0.7481(3) 0.6601(3)
H13 H 0.68225 -0.71750 0.67812
C18 C 0.6263(5) -0.8183(4) 0.7068(4)
H14 H 0.62930 -0.83471 0.75612
C19 C 0.5896(5) -0.8640(3) 0.6815(3)
H15 H 0.56593 -0.91042 0.71306
C20 C 0.5888(5) -0.8387(3) 0.6067(3)
C21 C 0.6226(5) -0.7698(3) 0.5603(3)
H16 H 0.62243 -0.75415 0.51102
C22 C 0.6282(5) -0.9443(3) 0.5868(3)
C23 C 0.4729(5) -0.8681(3) 0.5375(3)
C24 C 0.4472(4) -0.9177(3) 0.5057(3)
C25 C 0.5128(5) -0.9773(3) 0.5155(3)
C26 C 0.5999(5) -0.9923(3) 0.5553(3)
C27 C 0.6630(5) -1.0511(3) 0.5638(3)
H17 H 0.72126 -1.06042 0.58979
C28 C 0.6381(5) -1.0960(3) 0.5328(3)
H18 H 0.67985 -1.13547 0.53847
C29 C 0.6698(5) -0.4649(3) 0.3495(3)
C30 C 0.5852(5) -0.4380(3) 0.2997(3)
C31 C 0.5062(6) -0.3987(4) 0.3115(4)
H19 H 0.50750 -0.38858 0.35050
C32 C 0.4264(6) -0.3747(4) 0.2661(4)
H20 H 0.37428 -0.34834 0.27438
C33 C 0.4232(5) -0.3895(4) 0.2082(4)
H21 H 0.36914 -0.37357 0.17755
C34 C 0.5015(5) -0.4281(3) 0.1964(3)
C35 C 0.5809(5) -0.4530(3) 0.2416(3)
H22 H 0.63214 -0.48006 0.23340
C36 C 0.4230(5) -0.4926(3) 0.1386(3)
C37 C 0.5743(5) -0.4193(3) 0.0851(3)
C38 C 0.5742(5) -0.4423(3) 0.0284(3)
C39 C 0.4997(4) -0.4886(3) 0.0273(3)
C40 C 0.4223(5) -0.5136(3) 0.0799(3)
C41 C 0.3505(5) -0.5589(3) 0.0779(3)
H23 H 0.30033 -0.57508 0.11289
C42 C 0.3517(5) -0.5811(3) 0.0240(3)
H24 H 0.30235 -0.61178 0.02342
O56 O 0.9077(4) -0.3578(2) 0.2528(2)
H25 H 0.85462 -0.35881 0.23212
H26 H 0.92502 -0.31298 0.23528
O57 O 0.7447(4) -0.3166(3) 0.1656(3)
H27 H 0.71849 -0.34202 0.14806
H28 H 0.72339 -0.27223 0.14240
O58 O 1.1065(5) -0.5608(3) 0.3358(3)
H29 H 1.15605 -0.53874 0.34096
H30 H 1.12165 -0.60652 0.35355
O59 O 0.8471(5) -0.3230(3) 0.4814(4)
H31 H 0.84039 -0.30118 0.50745
H32 H 0.90775 -0.31697 0.46764
O60 O 0.7062(4) -0.4779(3) 0.6310(3)
N4 N 0.5587(5) -0.4143(3) 0.6040(3)
C43 C 0.6354(5) -0.4452(4) 0.6448(4)
H33 H 0.63749 -0.44257 0.68788
C44 C 0.5457(7) -0.4163(5) 0.5347(4)
H34 H 0.48503 -0.39063 0.51293
H35 H 0.60098 -0.39277 0.50306
H36 H 0.54283 -0.46673 0.54335
C45 C 0.4799(6) -0.3747(4) 0.6246(4)
H37 H 0.42982 -0.35576 0.58830
H38 H 0.45017 -0.40822 0.66975
H39 H 0.50864 -0.33447 0.62902
O61 O 0.6544(4) -0.1772(3) 0.0732(3)
N5 N 0.4859(5) -0.1678(3) 0.0817(3)
C46 C 0.5699(6) -0.2020(4) 0.0783(4)
H40 H 0.56496 -0.24815 0.07977
C47 C 0.4881(6) -0.0969(3) 0.0827(4)
H41 H 0.42126 -0.08021 0.08526
H42 H 0.52420 -0.10240 0.12383
H43 H 0.52040 -0.06137 0.03965
C48 C 0.3902(5) -0.2021(4) 0.0892(4)
H44 H 0.33804 -0.16955 0.09078
H45 H 0.38057 -0.21146 0.04895
H46 H 0.38866 -0.24786 0.13285
O62 O 1.2017(4) -0.7020(3) 0.4030(3)
N6 N 1.2948(5) -0.7109(3) 0.3161(3)
C49 C 1.2813(6) -0.7161(3) 0.3811(4)
H47 H 1.33517 -0.73124 0.41193
C50 C 1.2113(7) -0.6852(5) 0.2648(5)
H48 H 1.23297 -0.68453 0.22040
H49 H 1.15667 -0.71827 0.28483
H50 H 1.19034 -0.63635 0.25582
C51 C 1.3891(7) -0.7254(5) 0.2916(5)
H51 H 1.38332 -0.71862 0.24338
H52 H 1.43722 -0.69198 0.29246
H53 H 1.41010 -0.77538 0.32251
N7 N 0.2854(5) -0.7978(4) 0.6896(4)
C52 C 0.3179(9) -0.8130(8) 0.7636(6)
H54 H 0.38883 -0.82035 0.76689
H55 H 0.29926 -0.77177 0.77200
H56 H 0.28613 -0.85670 0.79908
C53 C 0.1772(7) -0.7870(6) 0.6866(6)
H57 H 0.15983 -0.74374 0.69196
H58 H 0.15423 -0.78081 0.64119
H59 H 0.14658 -0.82939 0.72477
C54 C 0.3407(7) -0.7346(4) 0.6344(6)
H60 H 0.41086 -0.74556 0.63961
H61 H 0.32090 -0.72590 0.58742
H62 H 0.32612 -0.69124 0.64024
C55 C 0.3111(7) -0.8642(4) 0.6814(5)
H63 H 0.38207 -0.87163 0.68337
H64 H 0.28019 -0.90639 0.71960
H65 H 0.28784 -0.85781 0.63601
N8 N 0.9354(4) -0.8550(3) 0.5251(3)
C56 C 0.9263(5) -0.9173(3) 0.5070(4)
H66 H 0.86987 -0.94636 0.53214
H67 H 0.91765 -0.89785 0.45614
H68 H 0.98565 -0.94775 0.52106
C57 C 0.8437(5) -0.8071(3) 0.5030(4)
H69 H 0.78685 -0.83588 0.52767
H70 H 0.84983 -0.76730 0.51499
H71 H 0.83553 -0.78726 0.45202
C58 C 0.9463(5) -0.8863(3) 0.6047(3)
H72 H 0.88928 -0.91532 0.62870
H73 H 1.00540 -0.91687 0.61952
H74 H 0.95112 -0.84657 0.61706
C59 C 1.0223(5) -0.8099(3) 0.4865(3)
H75 H 1.02769 -0.76990 0.49839
H76 H 1.08178 -0.84013 0.50056
H77 H 1.01377 -0.79023 0.43564
N9 N 0.9415(4) -0.4586(3) 0.1331(3)
C60 C 0.9517(6) -0.3758(3) 0.0945(4)
H78 H 0.89984 -0.35424 0.05981
H79 H 0.94623 -0.35668 0.12870
H80 H 1.01537 -0.36359 0.07051
C61 C 0.9501(6) -0.4864(4) 0.0779(4)
H81 H 0.89810 -0.46433 0.04349
H82 H 1.01371 -0.47337 0.05382
H83 H 0.94413 -0.53918 0.10127
C62 C 1.0212(6) -0.4921(4) 0.1867(4)
H84 H 1.08499 -0.47945 0.16287
H85 H 1.01525 -0.47369 0.22138
H86 H 1.01508 -0.54489 0.21065
C63 C 0.8426(5) -0.4785(3) 0.1705(4)
H87 H 0.79067 -0.45695 0.13595
H88 H 0.83675 -0.53134 0.19448
H89 H 0.83692 -0.46014 0.20521
N10 N 0.2837(4) -0.8990(3) 0.1452(3)
C64 C 0.2179(7) -0.8557(5) 0.0828(5)
H90 H 0.25127 -0.81180 0.04924
H91 H 0.20297 -0.88516 0.05954
H92 H 0.15720 -0.84210 0.09933
C65 C 0.2365(6) -0.9679(4) 0.1994(5)
H93 H 0.22304 -0.99915 0.17773
H94 H 0.28067 -0.99343 0.23894
H95 H 0.17521 -0.95568 0.21649
C66 C 0.3790(5) -0.9177(4) 0.1179(4)
H96 H 0.40917 -0.87300 0.08292
H97 H 0.42353 -0.94326 0.15722
H98 H 0.36538 -0.94870 0.09606
C67 C 0.3039(5) -0.8514(4) 0.1798(4)
H99 H 0.33442 -0.80662 0.14530
H100 H 0.24239 -0.83954 0.19695
H101 H 0.34785 -0.87729 0.21941
O63? O 0.9129(16) -0.3729(10) 0.5443(10)
H102? H 0.93707 -0.35319 0.50181
H103? H 0.85874 -0.34893 0.54114
O44A O 1.0347(4) -1.2838(2) 1.4221(2)
O45A O 1.0754(3) -1.4022(2) 1.4579(2)
O46A O 1.2307(3) -1.1179(2) 1.1415(2)
O47A O 0.9149(3) -1.2014(2) 1.1705(2)
N1A N 1.0742(4) -1.1615(3) 1.1514(3)
C1A C 1.0698(5) -1.3337(3) 1.4104(3)
C2A C 1.1014(5) -1.3167(3) 1.3351(3)
C3A C 1.0825(5) -1.2463(3) 1.2792(3)
H7A H 1.05607 -1.20905 1.28883
C4A C 1.1034(5) -1.2325(3) 1.2097(3)
C5A C 1.1468(5) -1.2857(3) 1.1932(4)
H8A H 1.16157 -1.27493 1.14584
C6A C 1.1674(5) -1.3549(3) 1.2487(3)
H9A H 1.19739 -1.39104 1.23879
C7A C 1.1435(5) -1.3713(3) 1.3200(3)
H10A H 1.15587 -1.41847 1.35703
C8A C 1.1472(5) -1.1086(3) 1.1178(3)
C9A C 0.9723(5) -1.1533(3) 1.1348(3)
C10A C 0.9420(5) -1.0845(3) 1.0721(3)
C11A C 1.0142(5) -1.0318(3) 1.0311(3)
C12A C 1.1148(5) -1.0417(3) 1.0520(3)
C13A C 1.1846(5) -0.9905(3) 1.0100(3)
H11A H 1.25123 -0.99843 1.02297
C14A C 1.1565(5) -0.9274(3) 0.9488(3)
H12A H 1.20394 -0.89280 0.92165
O48A O 0.2712(3) -1.3593(2) 0.5254(2)
O49A O 0.2944(3) -1.3993(2) 0.4449(2)
O50A O 0.2939(3) -1.0498(2) 0.3830(2)
O51A O 0.5774(3) -1.1849(2) 0.4703(2)
N2A N 0.4412(4) -1.1125(2) 0.4211(3)
C15A C 0.3015(5) -1.3498(3) 0.4645(3)
C16A C 0.3432(5) -1.2768(3) 0.4139(3)
C17A C 0.3411(5) -1.2519(3) 0.3399(3)
H13A H 0.31775 -1.28250 0.32188
C18A C 0.3737(5) -1.1817(4) 0.2932(4)
H14A H 0.37070 -1.16529 0.24388
C19A C 0.4104(5) -1.1360(3) 0.3185(3)
H15A H 0.43407 -1.08958 0.28694
C20A C 0.4112(5) -1.1613(3) 0.3933(3)
C21A C 0.3774(5) -1.2302(3) 0.4397(3)
H16A H 0.37757 -1.24585 0.48898
C22A C 0.3718(5) -1.0557(3) 0.4132(3)
C23A C 0.5271(5) -1.1319(3) 0.4625(3)
C24A C 0.5528(4) -1.0823(3) 0.4943(3)
C25A C 0.4872(5) -1.0227(3) 0.4845(3)
C26A C 0.4001(5) -1.0077(3) 0.4447(3)
C27A C 0.3370(5) -0.9489(3) 0.4362(3)
H17A H 0.27874 -0.93958 0.41021
C28A C 0.3619(5) -0.9040(3) 0.4672(3)
H18A H 0.32015 -0.86453 0.46153
O52A O 0.3355(4) -0.5391(3) -0.4082(3)
O53A O 0.2532(4) -0.5081(2) -0.3340(2)
O54A O 0.6383(4) -0.4830(2) -0.1882(2)
O55A O 0.3619(3) -0.6202(2) -0.0885(2)
N3A N 0.5036(4) -0.5556(3) -0.1359(3)
C29A C 0.3302(5) -0.5351(3) -0.3495(3)
C30A C 0.4148(5) -0.5620(3) -0.2997(3)
C31A C 0.4938(6) -0.6013(4) -0.3115(4)
H19A H 0.49250 -0.61142 -0.35050
C32A C 0.5736(6) -0.6253(4) -0.2661(4)
H20A H 0.62572 -0.65166 -0.27438
C33A C 0.5768(5) -0.6105(4) -0.2082(4)
H21A H 0.63086 -0.62643 -0.17755
C34A C 0.4985(5) -0.5719(3) -0.1964(3)
C35A C 0.4191(5) -0.5470(3) -0.2416(3)
H22A H 0.36786 -0.51994 -0.23340
C36A C 0.5770(5) -0.5074(3) -0.1386(3)
C37A C 0.4257(5) -0.5807(3) -0.0851(3)
C38A C 0.4258(5) -0.5577(3) -0.0284(3)
C39A C 0.5003(4) -0.5114(3) -0.0273(3)
C40A C 0.5777(5) -0.4864(3) -0.0799(3)
C41A C 0.6495(5) -0.4411(3) -0.0779(3)
H23A H 0.69967 -0.42492 -0.11289
C42A C 0.6483(5) -0.4189(3) -0.0240(3)
H24A H 0.69765 -0.38822 -0.02342
Er1A Er 0.18785(2) -1.46694(2) 0.54742(2)
Er1A* Er 0.18785(2) -0.46694(2) -0.45258(2)
Er1A** Er 1.18785(2) -1.46694(2) 1.54742(2)
O48A* O 1.2712(3) -1.3593(2) 1.5254(2)
O49A* O 1.2944(3) -1.3993(2) 1.4449(2)
O41A O 1.0811(4) -1.4144(3) 1.6017(3)
H2A H 1.02159 -1.42826 1.61461
O42A O 1.0744(4) -1.5577(2) 1.6066(2)
H3A H 1.07733 -1.58633 1.65150
O52A* O 1.3355(4) -1.5391(3) 1.5918(3)
O53A* O 1.2532(4) -1.5081(2) 1.6660(2)
H1A H 1.09733 -1.38842 1.62172
O43A O 1.1942(3) -1.5363(2) 1.4867(2)
H6A H 1.22760 -1.52455 1.44807
H5A H 1.17628 -1.58080 1.50259
H4A H 1.02807 -1.57185 1.58935
#END
