
#######################################################################
#
#                 Cambridge Crystallographic Data Centre
#                                CCDC
#
#######################################################################
#
# If this CIF has been generated from an entry in the Cambridge
# Structural Database, then it will include bibliographic, chemical,
# crystal, experimental, refinement or atomic coordinate data resulting
# from the CCDC's data processing and validation procedures.
#
#######################################################################

data_CSD_CIF_IGOYEL
_audit_creation_date 2020-03-04
_audit_creation_method CSD-ConQuest-V1
_database_code_CSD IGOYEL
_database_code_depnum_ccdc_archive 'CCDC 1976081'
_chemical_formula_sum 'C134 H202 Lu2 N20 O124 Si2 W24'
_chemical_formula_moiety
;
(C84 H48 Lu2 N6 O30)n,2n(O40 Si1 W12 4-),8n(C4 H12 N1 1+),6n(C3 H7 N1 
O1),8n(H2 O1)
;
_journal_coden_Cambridge 222
_journal_volume 49
_journal_year 2020
_journal_page_first 3408
_journal_name_full 'Dalton Trans. '
loop_
_publ_author_name
"Xiao-Yuan Wu"
"Hai-Long Zhang"
"Sa-Sa Wang"
"Weiming Wu"
"Lang Lin"
"Xiao-Yu Jiang"
"Can-Zhong Lu"
_chemical_name_systematic
;
catena-(octakis(tetramethylammonium) 
tris(\m-3,3'-(1,3,6,8-tetraoxo-1,3,6,8-tetrahydrobenzo[lmn][3,8]phenanthroline
-2,7-diyl)dibenzoato)-hexa-aqua-di-lutetium(iii) 
bis(tetracosakis(\m-oxo)-(\m-silicato)-dodecaoxo-dodeca-tungsten) 
dimethylformamide solvate octahydrate)
;
_cell_volume   5076.226
_exptl_crystal_colour 'pale yellow'
_exptl_crystal_density_diffrn 2.91
_exptl_crystal_description 'block'
_diffrn_ambient_temperature 100.0
_refine_special_details
;
O47A and O47B disordered over two sites with occupancies 0.715:0.285.

;
#These two values have been output from a single CSD field.
_refine_ls_R_factor_gt 0.0322
_refine_ls_wR_factor_gt 0.0322
_symmetry_cell_setting triclinic
_symmetry_space_group_name_H-M 'P -1'
_symmetry_Int_Tables_number 2
loop_
_symmetry_equiv_pos_site_id
_symmetry_equiv_pos_as_xyz
1 x,y,z
2 -x,-y,-z
_cell_length_a 13.4303(3)
_cell_length_b 20.3729(5)
_cell_length_c 20.9305(5)
_cell_angle_alpha 62.477(3)
_cell_angle_beta 88.558(2)
_cell_angle_gamma 88.372(2)
_cell_formula_units_Z 1
loop_
_atom_type_symbol
_atom_type_radius_bond
C 0.68
H 0.23
Lu 1.87
N 0.68
O 0.68
Si 1.20
W 1.62
loop_
_atom_site_label
_atom_site_type_symbol
_atom_site_fract_x
_atom_site_fract_y
_atom_site_fract_z
Lu1 Lu 0.68775(3) -0.46621(2) 0.54658(2)
O1 O 0.5825(4) -0.4139(4) 0.6005(3)
H1 H 0.59822 -0.38796 0.62080
H2 H 0.52298 -0.42797 0.61311
O2 O 0.6943(4) -0.5362(3) 0.4872(3)
H3 H 0.67636 -0.58079 0.50335
H4 H 0.72782 -0.52468 0.44859
O3 O 0.5765(4) -0.5553(3) 0.6054(3)
H5 H 0.57939 -0.58403 0.65036
H6 H 0.52982 -0.56936 0.58811
O4 O 0.5347(4) -0.2854(3) 0.4224(3)
O5 O 0.5755(4) -0.4034(3) 0.4586(3)
O6 O 0.7307(4) -0.1184(3) 0.1409(3)
O7 O 0.4140(4) -0.2013(3) 0.1704(3)
O8 O 0.8346(4) -0.5354(4) 0.5894(3)
O9 O 0.7519(4) -0.5078(3) 0.6650(3)
O10 O 0.8611(4) -0.6198(3) 0.9107(3)
O11 O 1.1376(4) -0.4823(3) 0.8112(3)
O12 O 0.7705(4) -0.3601(3) 0.5259(3)
O13 O 0.7919(4) -0.3995(3) 0.4443(3)
O14 O 1.0775(4) -0.1850(3) 0.4707(3)
O15 O 0.7939(4) -0.0496(3) 0.3825(3)
N1 N 0.5744(4) -0.1626(3) 0.1518(3)
N2 N 1.0023(5) -0.5543(4) 0.8631(3)
N3 N 0.9405(4) -0.1123(3) 0.4210(3)
C1 C 0.5694(6) -0.3357(5) 0.4110(4)
C2 C 0.5999(5) -0.3180(4) 0.3354(4)
C3 C 0.6428(6) -0.3719(4) 0.3209(4)
H7 H 0.65570 -0.41895 0.35828
C4 C 0.6673(6) -0.3558(5) 0.2489(5)
H8 H 0.69709 -0.39187 0.23899
C5 C 0.6464(6) -0.2857(4) 0.1934(4)
H9 H 0.66135 -0.27459 0.14592
C6 C 0.6034(5) -0.2330(4) 0.2096(4)
C7 C 0.5820(5) -0.2475(4) 0.2798(4)
H10 H 0.55577 -0.21040 0.28968
C8 C 0.6466(6) -0.1084(4) 0.1172(4)
C9 C 0.4730(6) -0.1534(4) 0.1349(4)
C10 C 0.4429(6) -0.0841(4) 0.0717(4)
C11 C 0.5142(5) -0.0324(4) 0.0319(4)
C12 C 0.6159(6) -0.0425(4) 0.0520(4)
C13 C 0.6847(6) 0.0086(4) 0.0105(4)
H11 H 0.75142 0.00062 0.02338
C14 C 0.6562(6) 0.0726(4) -0.0510(4)
H12 H 0.70346 0.10757 -0.07810
C15 C 0.8287(6) -0.5336(5) 0.6492(5)
C16 C 0.9149(6) -0.5612(5) 0.6988(5)
C17 C 0.9929(7) -0.5993(5) 0.6863(5)
H13 H 0.99119 -0.60928 0.64723
C18 C 1.0735(6) -0.6225(6) 0.7315(5)
H14 H 1.12609 -0.64828 0.72304
C19 C 1.0762(6) -0.6077(5) 0.7891(5)
H15 H 1.13106 -0.62292 0.81915
C20 C 0.9978(6) -0.5704(4) 0.8027(4)
C21 C 0.9182(6) -0.5459(4) 0.7579(4)
H16 H 0.86647 -0.51937 0.76618
C22 C 0.9256(6) -0.5804(4) 0.9151(4)
C23 C 1.0764(6) -0.5063(5) 0.8609(4)
C24 C 1.0774(6) -0.4861(4) 0.9207(4)
C25 C 0.9998(5) -0.5109(4) 0.9723(4)
C26 C 0.9260(6) -0.5575(4) 0.9717(4)
C27 C 0.8516(6) -0.5810(4) 1.0233(4)
H17 H 0.80182 -0.61110 1.02195
C28 C 0.8507(5) -0.5594(4) 1.0783(4)
H18 H 0.80126 -0.57618 1.11384
C29 C 0.8004(5) -0.3494(4) 0.4642(4)
C30 C 0.8421(6) -0.2771(4) 0.4135(5)
C31 C 0.8406(5) -0.2520(4) 0.3396(4)
H19 H 0.81696 -0.28239 0.32145
C32 C 0.8739(6) -0.1821(5) 0.2927(4)
H20 H 0.87227 -0.16581 0.24325
C33 C 0.9094(6) -0.1365(4) 0.3186(4)
H21 H 0.93228 -0.08964 0.28714
C34 C 0.9106(5) -0.1618(4) 0.3934(4)
C35 C 0.8775(5) -0.2313(4) 0.4405(4)
H22 H 0.87882 -0.24761 0.48990
C36 C 1.0276(5) -0.1322(4) 0.4627(4)
C37 C 0.8718(6) -0.0561(4) 0.4129(4)
C38 C 0.9003(5) -0.0072(4) 0.4440(4)
C39 C 0.9877(6) -0.0223(4) 0.4845(4)
C40 C 1.0522(5) -0.0830(4) 0.4945(4)
C41 C 1.1371(6) -0.0958(4) 0.5333(4)
H23 H 1.17870 -0.13551 0.53951
C42 C 1.1631(5) -0.0508(4) 0.5636(4)
H24 H 1.22222 -0.05949 0.58869
Si1 Si 0.29513(13) 0.18549(10) 0.19241(10)
W1 W 0.39698(2) 0.28461(2) 0.27376(2)
W2 W 0.17045(2) 0.17442(2) 0.34819(2)
W3 W 0.16161(2) 0.34481(2) 0.17369(2)
W4 W 0.29210(2) 0.02375(2) 0.35926(2)
W5 W 0.52025(2) 0.13312(2) 0.28844(2)
W6 W 0.51569(2) 0.28810(2) 0.12966(2)
W7 W 0.08085(2) 0.08096(2) 0.26748(2)
W8 W 0.41379(2) 0.18358(2) 0.04207(2)
W9 W 0.42355(2) 0.02824(2) 0.19915(2)
W10 W 0.28028(2) 0.35100(2) 0.02848(2)
W11 W 0.20961(2) 0.08222(2) 0.10892(2)
W12 W 0.07538(2) 0.25069(2) 0.09229(2)
O16 O 0.2324(3) 0.1341(3) 0.2655(3)
O17 O 0.3246(3) 0.1373(3) 0.1508(3)
O18 O 0.2273(3) 0.2575(3) 0.1399(3)
O19 O 0.3953(3) 0.2130(3) 0.2137(3)
O20 O 0.1332(3) 0.2618(3) 0.2629(3)
O21 O 0.2976(3) 0.2186(3) 0.3342(3)
O22 O 0.2196(4) 0.3997(3) 0.0785(3)
O23 O 0.4033(3) 0.3431(3) 0.0750(3)
O24 O 0.2329(4) 0.0803(3) 0.4030(3)
O25 O 0.5858(3) 0.2084(3) 0.2056(3)
O26 O 0.4130(3) 0.0770(3) 0.3465(3)
O27 O 0.1389(4) 0.1753(3) 0.0764(3)
O28 O 0.2922(3) 0.3380(3) 0.2114(3)
O29 O 0.5033(4) 0.0809(3) 0.2342(3)
O30 O 0.1439(4) 0.0564(3) 0.1987(3)
O31 O 0.4175(4) 0.3362(3) 0.3177(3)
O32 O 0.1606(3) 0.0039(3) 0.3403(3)
O33 O -0.0364(4) 0.2591(3) 0.0520(3)
O34 O 0.4903(3) 0.3290(3) 0.1950(3)
O35 O 0.0486(3) 0.1735(3) 0.1874(3)
O36 O 0.0639(3) 0.1241(3) 0.3312(3)
O37 O 0.4936(3) 0.2061(3) 0.3199(3)
O38 O 0.4964(3) 0.2262(3) 0.0856(3)
O39 O 0.1196(4) 0.1910(3) 0.4148(3)
O40 O 0.4790(4) 0.2051(3) -0.0357(3)
O41 O 0.1399(4) 0.0380(3) 0.0737(3)
O42 O 0.3196(4) -0.0565(3) 0.4337(3)
O43 O 0.4735(4) 0.0883(3) 0.1038(3)
O44 O 0.3440(3) 0.0040(3) 0.2847(3)
O45 O 0.3320(3) 0.2697(3) 0.0143(3)
O46 O 0.6208(4) 0.0877(3) 0.3394(3)
O47 O 0.1485(3) 0.3244(3) 0.0142(3)
O48 O 0.6128(4) 0.3411(3) 0.0804(3)
O49 O 0.0559(3) 0.3195(3) 0.1305(3)
O50 O 0.4917(4) -0.0511(3) 0.2228(3)
O51 O 0.3024(4) 0.4245(3) -0.0540(3)
O52 O 0.3097(4) 0.0080(3) 0.1576(3)
O53 O 0.1093(4) 0.4151(3) 0.1860(3)
O54 O 0.3031(4) 0.1318(3) 0.0313(3)
O55 O -0.0287(4) 0.0347(3) 0.2824(3)
O56 O 0.4071(4) 0.6412(3) 0.2541(3)
H25 H 0.35378 0.64033 0.23352
H26 H 0.42478 0.68596 0.23658
O57 O 0.2444(5) 0.6834(4) 0.1672(4)
H27 H 0.21860 0.65784 0.14955
H28 H 0.22325 0.72785 0.14350
O58 O 0.6049(5) 0.4387(4) 0.3378(4)
H29 H 0.62018 0.39299 0.35533
H30 H 0.65465 0.46088 0.34263
O59 O 0.6541(6) -0.6763(5) 0.5199(4)
H31 H 0.70399 -0.69578 0.50882
H32 H 0.60774 -0.67653 0.49307
O60? O 0.5893(14) -0.6238(11) 0.4551(11)
H33? H 0.62511 -0.63528 0.42758
H34? H 0.58283 -0.66423 0.49361
O61 O 0.7019(5) 0.2983(4) 0.4036(4)
N4 N 0.7944(5) 0.2889(4) 0.3165(4)
C43 C 0.7804(7) 0.2841(5) 0.3811(5)
H35 H 0.83437 0.26868 0.41195
C44 C 0.8879(8) 0.2739(6) 0.2924(6)
H36 H 0.88203 0.28060 0.24416
H37 H 0.93651 0.30711 0.29327
H38 H 0.90844 0.22375 0.32358
C45 C 0.7118(8) 0.3152(7) 0.2652(7)
H39 H 0.73324 0.31565 0.22092
H40 H 0.65652 0.28266 0.28520
H41 H 0.69188 0.36431 0.25612
O62 O 0.7939(5) -0.5230(4) 0.3702(3)
N5 N 0.9413(6) -0.5871(5) 0.3973(4)
C46 C 0.8634(6) -0.5560(5) 0.3566(5)
H42 H 0.86033 -0.55902 0.31375
C47 C 0.9538(8) -0.5858(7) 0.4671(6)
H43 H 1.01475 -0.61116 0.48890
H44 H 0.95593 -0.53546 0.45892
H45 H 0.89870 -0.61004 0.49869
C48 C 1.0191(7) -0.6260(6) 0.3759(6)
H46 H 1.06980 -0.64509 0.41188
H47 H 0.98991 -0.66619 0.37150
H48 H 1.04802 -0.59215 0.33053
O63 O -0.1548(5) 0.1782(4) -0.0736(4)
N6 N 0.0130(5) 0.1688(4) -0.0826(4)
C49 C -0.0709(6) 0.2019(5) -0.0781(5)
H49 H -0.06572 0.24746 -0.07843
C50 C 0.1103(6) 0.2034(5) -0.0909(5)
H50 H 0.16198 0.17099 -0.09320
H51 H 0.11138 0.24951 -0.13449
H52 H 0.12120 0.21242 -0.05049
C51 C 0.0127(6) 0.0970(5) -0.0819(5)
H53 H 0.07987 0.08162 -0.08560
H54 H -0.01716 0.06132 -0.03765
H55 H -0.02493 0.10069 -0.12184
N7 N 0.4349(4) 0.1453(4) 0.5257(3)
C52 C 0.4476(6) 0.1140(5) 0.6059(4)
H56 H 0.45347 0.15377 0.61795
H57 H 0.39068 0.08503 0.63047
H58 H 0.50659 0.08320 0.62024
C53 C 0.4257(6) 0.0835(5) 0.5071(5)
H59 H 0.48475 0.05274 0.52157
H60 H 0.36884 0.05461 0.53174
H61 H 0.41770 0.10338 0.45605
C54 C 0.3430(5) 0.1931(4) 0.5032(4)
H62 H 0.34885 0.23300 0.51523
H63 H 0.33498 0.21298 0.45216
H64 H 0.28612 0.16420 0.52785
C55 C 0.5227(5) 0.1923(4) 0.4858(4)
H65 H 0.52819 0.23199 0.49808
H66 H 0.58260 0.16239 0.49915
H67 H 0.51324 0.21236 0.43487
N8 N 0.4421(5) 0.5416(4) 0.1329(4)
C56 C 0.4498(7) 0.5120(5) 0.0796(5)
H68 H 0.39830 0.53412 0.04457
H69 H 0.51371 0.52351 0.05590
H70 H 0.44219 0.45924 0.10415
C57 C 0.4512(7) 0.6238(4) 0.0959(5)
H71 H 0.39945 0.64554 0.06107
H72 H 0.44504 0.64194 0.13086
H73 H 0.51499 0.63685 0.07215
C58 C 0.3420(6) 0.5214(5) 0.1709(5)
H74 H 0.28997 0.54336 0.13625
H75 H 0.33576 0.46853 0.19459
H76 H 0.33663 0.53941 0.20588
C59 C 0.5213(6) 0.5074(5) 0.1867(5)
H77 H 0.51486 0.45460 0.21022
H78 H 0.58522 0.52019 0.16315
H79 H 0.51527 0.52528 0.22186
N9 N -0.2163(5) 0.1018(4) 0.1447(4)
C60 C -0.2827(8) 0.1449(7) 0.0825(6)
H80 H -0.29690 0.11562 0.05882
H81 H -0.34385 0.15737 0.09950
H82 H -0.25032 0.18940 0.04918
C61 C -0.2646(7) 0.0319(6) 0.1989(7)
H83 H -0.22017 0.00536 0.23822
H84 H -0.32523 0.04412 0.21664
H85 H -0.27933 0.00160 0.17641
C62 C -0.1213(6) 0.0821(5) 0.1185(5)
H86 H -0.07861 0.05433 0.15861
H87 H -0.13555 0.05277 0.09487
H88 H -0.08877 0.12653 0.08508
C63 C -0.1965(6) 0.1493(5) 0.1797(5)
H89 H -0.15367 0.12298 0.22007
H90 H -0.16475 0.19382 0.14553
H91 H -0.25826 0.16180 0.19586
N10 N 0.2158(6) -0.2032(6) 0.3101(5)
C64 C 0.1813(11) -0.1851(10) 0.2364(9)
H92 H 0.21889 -0.14459 0.20119
H93 H 0.19096 -0.22755 0.22836
H94 H 0.11186 -0.17140 0.23230
C65 C 0.1604(9) -0.2645(7) 0.3653(8)
H95 H 0.09034 -0.25329 0.35915
H96 H 0.17499 -0.30869 0.36094
H97 H 0.17954 -0.27188 0.41204
C66 C 0.3242(8) -0.2144(8) 0.3143(9)
H98 H 0.35547 -0.17198 0.27646
H99 H 0.34629 -0.22085 0.36012
H100 H 0.34174 -0.25765 0.30902
C67 C 0.1888(8) -0.1369(6) 0.3181(7)
H101 H 0.22404 -0.09515 0.28251
H102 H 0.11842 -0.12744 0.31182
H103 H 0.20652 -0.14478 0.36536
O4A O 0.4653(4) 0.2854(3) -0.4224(3)
O5A O 0.4245(4) 0.4034(3) -0.4586(3)
O6A O 0.2693(4) 0.1184(3) -0.1409(3)
O7A O 0.5860(4) 0.2013(3) -0.1704(3)
N1A N 0.4256(4) 0.1626(3) -0.1518(3)
C1A C 0.4306(6) 0.3357(5) -0.4110(4)
C2A C 0.4001(5) 0.3180(4) -0.3354(4)
C3A C 0.3572(6) 0.3719(4) -0.3209(4)
H7A H 0.34430 0.41895 -0.35828
C4A C 0.3327(6) 0.3558(5) -0.2489(5)
H8A H 0.30291 0.39187 -0.23899
C5A C 0.3536(6) 0.2857(4) -0.1934(4)
H9A H 0.33865 0.27459 -0.14592
C6A C 0.3966(5) 0.2330(4) -0.2096(4)
C7A C 0.4180(5) 0.2475(4) -0.2798(4)
H10A H 0.44423 0.21040 -0.28968
C8A C 0.3534(6) 0.1084(4) -0.1172(4)
C9A C 0.5270(6) 0.1534(4) -0.1349(4)
C10A C 0.5571(6) 0.0841(4) -0.0717(4)
C11A C 0.4858(5) 0.0324(4) -0.0319(4)
C12A C 0.3841(6) 0.0425(4) -0.0520(4)
C13A C 0.3153(6) -0.0086(4) -0.0105(4)
H11A H 0.24858 -0.00062 -0.02338
C14A C 0.3438(6) -0.0726(4) 0.0510(4)
H12A H 0.29654 -0.10757 0.07810
O8A O 1.1654(4) -0.4646(4) 1.4106(3)
O9A O 1.2481(4) -0.4922(3) 1.3350(3)
O10A O 1.1389(4) -0.3802(3) 1.0893(3)
O11A O 0.8624(4) -0.5177(3) 1.1888(3)
N2A N 0.9977(5) -0.4457(4) 1.1369(3)
C15A C 1.1713(6) -0.4664(5) 1.3508(5)
C16A C 1.0851(6) -0.4388(5) 1.3012(5)
C17A C 1.0071(7) -0.4007(5) 1.3137(5)
H13A H 1.00881 -0.39072 1.35277
C18A C 0.9265(6) -0.3775(6) 1.2685(5)
H14A H 0.87391 -0.35172 1.27696
C19A C 0.9238(6) -0.3923(5) 1.2109(5)
H15A H 0.86894 -0.37708 1.18085
C20A C 1.0022(6) -0.4296(4) 1.1973(4)
C21A C 1.0818(6) -0.4541(4) 1.2421(4)
H16A H 1.13353 -0.48063 1.23382
C22A C 1.0744(6) -0.4196(4) 1.0849(4)
C23A C 0.9236(6) -0.4937(5) 1.1391(4)
C24A C 0.9226(6) -0.5139(4) 1.0793(4)
C25A C 1.0002(5) -0.4891(4) 1.0277(4)
C26A C 1.0740(6) -0.4425(4) 1.0283(4)
C27A C 1.1484(6) -0.4190(4) 0.9767(4)
H17A H 1.19818 -0.38890 0.97805
C28A C 1.1493(5) -0.4406(4) 0.9217(4)
H18A H 1.19874 -0.42382 0.88616
O12A O 1.2295(4) 0.3601(3) 0.4741(3)
O13A O 1.2081(4) 0.3995(3) 0.5557(3)
O14A O 0.9225(4) 0.1850(3) 0.5293(3)
O15A O 1.2061(4) 0.0496(3) 0.6175(3)
N3A N 1.0595(4) 0.1123(3) 0.5790(3)
C29A C 1.1996(5) 0.3494(4) 0.5358(4)
C30A C 1.1579(6) 0.2771(4) 0.5865(5)
C31A C 1.1594(5) 0.2520(4) 0.6604(4)
H19A H 1.18304 0.28239 0.67855
C32A C 1.1261(6) 0.1821(5) 0.7073(4)
H20A H 1.12773 0.16581 0.75675
C33A C 1.0906(6) 0.1365(4) 0.6814(4)
H21A H 1.06772 0.08964 0.71286
C34A C 1.0894(5) 0.1618(4) 0.6066(4)
C35A C 1.1225(5) 0.2313(4) 0.5595(4)
H22A H 1.12118 0.24761 0.51010
C36A C 0.9724(5) 0.1322(4) 0.5373(4)
C37A C 1.1282(6) 0.0561(4) 0.5871(4)
C38A C 1.0997(5) 0.0072(4) 0.5560(4)
C39A C 1.0123(6) 0.0223(4) 0.5155(4)
C40A C 0.9478(5) 0.0830(4) 0.5055(4)
C41A C 0.8629(6) 0.0958(4) 0.4667(4)
H23A H 0.82130 0.13551 0.46049
C42A C 0.8369(5) 0.0508(4) 0.4364(4)
H24A H 0.77778 0.05949 0.41131
Lu1A Lu 0.31225(3) 0.46621(2) -0.54658(2)
O1A O 0.4175(4) 0.4139(4) -0.6005(3)
H1A H 0.40178 0.38796 -0.62080
H2A H 0.47702 0.42797 -0.61311
O2A O 0.3057(4) 0.5362(3) -0.4872(3)
H3A H 0.32364 0.58079 -0.50335
H4A H 0.27218 0.52468 -0.44859
O3A O 0.4235(4) 0.5553(3) -0.6054(3)
H5A H 0.42061 0.58403 -0.65036
H6A H 0.47018 0.56936 -0.58811
Lu1A* Lu 1.31225(3) -0.53379(2) 1.45342(2)
Lu1A** Lu 1.31225(3) 0.46621(2) 0.45342(2)
O8A* O 0.1654(4) 0.5354(4) -0.5894(3)
O9A* O 0.2481(4) 0.5078(3) -0.6650(3)
O12A* O 0.2295(4) 0.3601(3) -0.5259(3)
O13A* O 0.2081(4) 0.3995(3) -0.4443(3)
#END
