
#######################################################################
#
#                 Cambridge Crystallographic Data Centre
#                                CCDC
#
#######################################################################
#
# If this CIF has been generated from an entry in the Cambridge
# Structural Database, then it will include bibliographic, chemical,
# crystal, experimental, refinement or atomic coordinate data resulting
# from the CCDC's data processing and validation procedures.
#
#######################################################################

data_CSD_CIF_IGOZAI
_audit_creation_date 2020-03-04
_audit_creation_method CSD-ConQuest-V1
_database_code_CSD IGOZAI
_database_code_depnum_ccdc_archive 'CCDC 1976085'
_chemical_formula_sum 'C134 H202 Ho2 N20 O124 Si2 W24'
_chemical_formula_moiety
;
(C84 H48 Ho2 N6 O30)n,2n(O40 Si1 W12 4-),8n(C4 H12 N1 1+),6n(C3 H7 N1 
O1),8n(H2 O1)
;
_journal_coden_Cambridge 222
_journal_volume 49
_journal_year 2020
_journal_page_first 3408
_journal_name_full 'Dalton Trans. '
loop_
_publ_author_name
"Xiao-Yuan Wu"
"Hai-Long Zhang"
"Sa-Sa Wang"
"Weiming Wu"
"Lang Lin"
"Xiao-Yu Jiang"
"Can-Zhong Lu"
_chemical_name_systematic
;
catena-(octakis(tetramethylammonium) 
tris(\m-3,3'-(1,3,6,8-tetraoxo-1,3,6,8-tetrahydrobenzo[lmn][3,8]phenanthroline
-2,7-diyl)dibenzoato)-hexa-aqua-di-holmium(iii) 
bis(tetracosakis(\m-oxo)-(\m-silicato)-dodecaoxo-dodeca-tungsten) 
dimethylformamide solvate octahydrate)
;
_cell_volume   5094.019
_exptl_crystal_colour 'yellowish'
_exptl_crystal_density_diffrn 2.893
_exptl_crystal_description 'block'
_diffrn_ambient_temperature 100.0
_refine_special_details
;
O47 and O48 disordered over two sites with occupancies 0.721:0.279.

;
#These two values have been output from a single CSD field.
_refine_ls_R_factor_gt 0.0326
_refine_ls_wR_factor_gt 0.0326
_symmetry_cell_setting triclinic
_symmetry_space_group_name_H-M 'P -1'
_symmetry_Int_Tables_number 2
loop_
_symmetry_equiv_pos_site_id
_symmetry_equiv_pos_as_xyz
1 x,y,z
2 -x,-y,-z
_cell_length_a 13.4413(3)
_cell_length_b 20.3830(6)
_cell_length_c 20.9628(7)
_cell_angle_alpha 62.560(3)
_cell_angle_beta 88.382(2)
_cell_angle_gamma 88.218(2)
_cell_formula_units_Z 1
loop_
_atom_type_symbol
_atom_type_radius_bond
C 0.68
H 0.23
Ho 1.92
N 0.68
O 0.68
Si 1.20
W 1.62
loop_
_atom_site_label
_atom_site_type_symbol
_atom_site_fract_x
_atom_site_fract_y
_atom_site_fract_z
W1 W 0.60376(2) 0.71524(2) 0.22654(2)
O1 O 0.6047(3) 0.7867(2) 0.2864(2)
O2 O 0.5104(3) 0.6712(2) 0.3052(2)
O3 O 0.7079(3) 0.6613(2) 0.2886(2)
O4 O 0.5068(3) 0.7936(2) 0.1801(2)
O5 O 0.5833(3) 0.6632(2) 0.1833(2)
O6 O 0.7034(3) 0.7806(2) 0.1665(2)
Si1 Si 0.70510(11) 0.81450(9) 0.30758(9)
W2 W 0.48010(2) 0.86673(2) 0.21179(2)
W3 W 0.48460(2) 0.71207(2) 0.37035(2)
W4 W 0.83902(2) 0.65514(2) 0.32620(2)
W5 W 0.83029(2) 0.82521(2) 0.15198(2)
O7 O 0.7723(3) 0.7432(2) 0.3592(2)
O8 O 0.6752(3) 0.8627(2) 0.3490(2)
O9 O 0.7676(3) 0.8653(2) 0.2349(2)
O10 O 0.3795(3) 0.9118(2) 0.1610(2)
O11 O 0.4145(3) 0.7913(2) 0.2949(2)
O12 O 0.5879(3) 0.9225(2) 0.1541(2)
O13 O 0.4970(3) 0.9197(2) 0.2657(2)
O14 O 0.3877(3) 0.6592(2) 0.4195(2)
O15 O 0.5042(3) 0.7741(2) 0.4135(2)
O16 O 0.5966(3) 0.6567(2) 0.4246(2)
O17 O 0.8919(3) 0.5846(2) 0.3138(2)
O18 O 0.9446(3) 0.6802(2) 0.3693(2)
O19 O 0.8674(3) 0.7375(2) 0.2369(2)
O20 O 0.7807(3) 0.6006(2) 0.4211(2)
O21 O 0.9367(3) 0.8748(2) 0.1697(2)
O22 O 0.7673(3) 0.9194(2) 0.0966(2)
O23 O 0.8815(3) 0.8087(2) 0.0852(2)
W6 W 0.71981(2) 0.64928(2) 0.47112(2)
W7 W 0.92469(2) 0.74937(2) 0.40735(2)
W8 W 0.58606(2) 0.81664(2) 0.45770(2)
W9 W 0.57632(2) 0.97165(2) 0.30083(2)
W10 W 0.79014(2) 0.91786(2) 0.39069(2)
W11 W 0.70827(2) 0.97583(2) 0.14102(2)
W12 W 0.91943(2) 0.91873(2) 0.23251(2)
O24 O 0.8512(3) 0.6756(2) 0.4855(2)
O25 O 0.6975(3) 0.5762(2) 0.5535(2)
O26 O 0.6677(3) 0.7310(2) 0.4846(2)
O27 O 0.8608(3) 0.8253(2) 0.4223(2)
O28 O 0.9515(3) 0.8267(2) 0.3119(2)
O29 O 1.0364(3) 0.7410(2) 0.4477(2)
O30 O 0.6946(3) 0.8684(2) 0.4682(2)
O31 O 0.5211(3) 0.7956(3) 0.5357(2)
O32 O 0.5266(3) 0.9116(2) 0.3957(2)
O33 O 0.5078(3) 1.0512(2) 0.2775(2)
O34 O 0.6900(3) 0.9916(2) 0.3426(2)
O35 O 0.6551(3) 0.9960(2) 0.2152(2)
O36 O 0.8595(3) 0.9620(2) 0.4255(2)
O37 O 0.8559(3) 0.9441(2) 0.3011(2)
O38 O 0.6810(3) 1.0568(2) 0.0663(3)
O39 O 0.8389(3) 0.9953(2) 0.1596(2)
O40 O 1.0288(3) 0.9645(2) 0.2176(2)
O41 O 1.4074(3) 0.6425(3) 0.7528(3)
H1 H 1.35439 0.64144 0.73205
H2 H 1.42439 0.68731 0.73554
O42 O 1.2444(4) 0.6829(3) 0.6653(3)
H3 H 1.21804 0.65766 0.64764
H4 H 1.22344 0.72740 0.64207
O43 O 1.6061(5) 0.4403(4) 0.8354(4)
H5 H 1.65547 0.46256 0.84036
H6 H 1.62130 0.39452 0.85365
O44 O 1.3484(5) 0.6771(4) 0.9808(4)
H7 H 1.32604 0.71555 0.98284
H8 H 1.40601 0.66983 0.99891
Ho1 Ho 1.31142(2) 0.46745(2) 0.95238(2)
O45 O 1.3053(3) 0.5371(3) 1.0138(3)
H9 H 1.27197 0.52561 1.05242
H10 H 1.32368 0.58152 0.99787
O46 O 1.4254(4) 0.5588(3) 0.8932(3)
H11 H 1.42277 0.58727 0.84829
H12 H 1.47197 0.57295 0.91038
O47 O 1.4185(3) 0.4162(3) 0.8958(3)
H13 H 1.47358 0.40313 0.91759
H14 H 1.41334 0.39395 0.87033
O48 O 1.1639(4) 0.5408(3) 0.9074(3)
O49 O 1.2465(3) 0.5086(3) 0.8337(3)
O50 O 1.1381(3) 0.6199(2) 0.5887(3)
O51 O 0.8618(3) 0.4840(3) 0.6879(3)
O52 O 1.2039(3) 0.3994(3) 1.0549(3)
O53 O 1.2277(3) 0.3596(3) 0.9739(3)
O54 O 0.9220(3) 0.1847(3) 1.0302(3)
O55 O 1.2056(3) 0.0493(2) 1.1176(2)
O56 O 1.4240(3) 0.4019(2) 1.0418(2)
O57 O 1.4641(4) 0.2840(3) 1.0777(3)
O58 O 1.2697(3) 0.1174(3) 1.3592(3)
O59 O 1.5852(3) 0.2011(2) 1.3291(3)
N1 N 0.9973(4) 0.5555(3) 0.6362(3)
N2 N 1.4255(4) 0.1621(3) 1.3483(3)
C1 C 1.1698(5) 0.5364(4) 0.8491(4)
C2 C 1.0837(5) 0.5637(4) 0.7991(4)
C3 C 1.0057(6) 0.6022(5) 0.8107(4)
H15 H 1.00704 0.61262 0.84947
C4 C 0.9252(6) 0.6255(5) 0.7655(5)
H16 H 0.87241 0.65087 0.77447
C5 C 0.9226(5) 0.6117(4) 0.7075(4)
H17 H 0.86894 0.62825 0.67648
C6 C 1.0014(5) 0.5724(4) 0.6957(4)
C7 C 1.0810(5) 0.5478(4) 0.7412(4)
H18 H 1.13259 0.52068 0.73347
C8 C 1.0742(5) 0.5810(4) 0.5847(4)
C9 C 0.9225(5) 0.5073(4) 0.6383(4)
C10 C 0.9220(5) 0.4867(4) 0.5797(4)
C11 C 0.9992(5) 0.5112(4) 0.5271(4)
C12 C 1.0739(5) 0.5576(3) 0.5274(4)
C13 C 1.1491(4) 0.5807(4) 0.4760(4)
H19 H 1.19853 0.61123 0.47685
C14 C 1.1499(5) 0.5577(4) 0.4226(4)
H20 H 1.20065 0.57300 0.38802
C15 C 1.1970(5) 0.3493(4) 1.0354(4)
C16 C 1.1560(4) 0.2760(4) 1.0865(4)
C17 C 1.1585(5) 0.2524(4) 1.1602(4)
H21 H 1.18134 0.28334 1.17786
C18 C 1.1262(5) 0.1817(4) 1.2070(4)
H22 H 1.12958 0.16490 1.25635
C19 C 1.0892(5) 0.1361(4) 1.1809(4)
H23 H 1.06509 0.08974 1.21223
C20 C 1.0889(4) 0.1613(4) 1.1068(4)
C21 C 1.1215(4) 0.2306(4) 1.0596(4)
H24 H 1.12044 0.24666 1.01024
C22 C 0.9714(5) 0.1317(4) 1.0381(3)
N3 N 1.0586(4) 0.1123(3) 1.0794(3)
C23 C 1.1274(4) 0.0561(3) 1.0873(3)
C24 C 1.1008(4) 0.0079(4) 1.0555(3)
C25 C 1.0125(4) 0.0221(3) 1.0155(4)
C26 C 0.9479(5) 0.0819(4) 1.0060(4)
C27 C 0.8617(5) 0.0956(4) 0.9678(4)
H25 H 0.81919 0.13443 0.96305
C28 C 0.8383(5) 0.0511(4) 0.9363(4)
H26 H 0.78080 0.06129 0.90936
C29 C 1.4294(5) 0.3338(4) 1.0892(4)
C30 C 1.3977(4) 0.3162(4) 1.1650(4)
C31 C 1.3559(5) 0.3707(4) 1.1798(4)
H27 H 1.34344 0.41765 1.14245
C32 C 1.3320(5) 0.3555(4) 1.2516(4)
H28 H 1.30241 0.39167 1.26150
C33 C 1.3536(5) 0.2853(4) 1.3068(4)
H29 H 1.33972 0.27456 1.35430
C34 C 1.3955(5) 0.2320(3) 1.2911(4)
C35 C 1.4172(5) 0.2462(4) 1.2207(4)
H30 H 1.44446 0.20919 1.21101
C36 C 1.3529(5) 0.1084(4) 1.3827(4)
C37 C 1.5270(5) 0.1531(4) 1.3653(4)
C38 C 1.5570(5) 0.0840(3) 1.4281(4)
C39 C 1.4855(4) 0.0320(3) 1.4691(3)
C40 C 1.3841(5) 0.0423(3) 1.4482(4)
C41 C 1.3158(5) -0.0094(4) 1.4900(4)
H31 H 1.24922 -0.00191 1.47692
C42 C 1.3442(5) -0.0733(4) 1.5519(4)
H32 H 1.29712 -0.10809 1.57920
N4 N 0.4343(4) 1.1439(3) 0.0258(3)
C43 C 0.5222(4) 1.1900(4) -0.0141(4)
H33 H 0.51310 1.20929 -0.06493
H34 H 0.52774 1.23015 -0.00262
H35 H 0.58181 1.15984 -0.00033
C44 C 0.4464(5) 1.1133(4) 0.1047(4)
H36 H 0.45225 1.15306 0.11671
H37 H 0.38939 1.08453 0.12919
H38 H 0.50526 1.08236 0.11914
C45 C 0.3431(4) 1.1923(4) 0.0031(4)
H39 H 0.33542 1.21202 -0.04785
H40 H 0.28595 1.16374 0.02757
H41 H 0.34925 1.23208 0.01508
C46 C 0.4251(5) 1.0825(4) 0.0068(4)
H42 H 0.41737 1.10251 -0.04420
H43 H 0.48401 1.05156 0.02114
H44 H 0.36815 1.05373 0.03119
N5 N 0.4421(4) 0.5414(3) 0.6329(3)
C47 C 0.5218(5) 0.5073(4) 0.6866(4)
H45 H 0.51493 0.45457 0.71058
H46 H 0.58564 0.51939 0.66275
H47 H 0.51652 0.52579 0.72122
C48 C 0.4519(6) 0.6236(4) 0.5951(4)
H48 H 0.39999 0.64513 0.56046
H49 H 0.44638 0.64235 0.62946
H50 H 0.51550 0.63596 0.57100
C49 C 0.4513(6) 0.5131(4) 0.5786(4)
H51 H 0.39973 0.53519 0.54374
H52 H 0.51512 0.52567 0.55484
H53 H 0.44483 0.46038 0.60224
C50 C 0.3419(5) 0.5216(4) 0.6699(4)
H54 H 0.29047 0.54382 0.63499
H55 H 0.33547 0.46888 0.69334
H56 H 0.33582 0.53957 0.70491
N6 N 1.2165(4) 0.8982(3) 0.3550(3)
C51 C 1.1207(5) 0.9180(4) 0.3815(4)
H57 H 1.13456 0.94850 0.40383
H58 H 1.07723 0.94443 0.34170
H59 H 1.08921 0.87364 0.41588
C52 C 1.1963(5) 0.8507(4) 0.3201(4)
H60 H 1.16534 0.80605 0.35435
H61 H 1.15280 0.87685 0.28025
H62 H 1.25786 0.83859 0.30317
C53 C 1.2647(6) 0.9673(5) 0.3009(5)
H63 H 1.27801 0.99830 0.32282
H64 H 1.32599 0.95483 0.28409
H65 H 1.22093 0.99309 0.26117
C54 C 1.2828(7) 0.8553(6) 0.4178(5)
H66 H 1.29662 0.88504 0.44099
H67 H 1.25011 0.81113 0.45130
H68 H 1.34402 0.84236 0.40130
N7 N 1.7842(5) 0.2044(4) 1.1879(4)
C55 C 1.8093(7) 0.1360(5) 1.1824(6)
H69 H 1.77370 0.09549 1.21915
H70 H 1.79088 0.14225 1.13604
H71 H 1.87957 0.12596 1.18859
C56 C 1.8391(7) 0.2662(5) 1.1315(7)
H72 H 1.82308 0.31077 1.13475
H73 H 1.90930 0.25589 1.13772
H74 H 1.82061 0.27218 1.08516
C57 C 1.6742(7) 0.2162(7) 1.1831(7)
H75 H 1.64249 0.17437 1.22107
H76 H 1.65675 0.25995 1.18763
H77 H 1.65257 0.22207 1.13750
C58 C 1.8184(9) 0.1916(9) 1.2610(7)
H78 H 1.78262 0.15125 1.29780
H79 H 1.88842 0.17986 1.26527
H80 H 1.80589 0.23547 1.26623
N8 N 0.7943(4) 1.2890(4) -0.1828(4)
O60 O 0.7029(4) 1.2973(3) -0.0956(4)
C59 C 0.7812(6) 1.2835(4) -0.1186(5)
H81 H 0.83538 1.26800 -0.08804
C60 C 0.8873(7) 1.2740(6) -0.2086(6)
H82 H 0.88005 1.28146 -0.25695
H83 H 0.93652 1.30682 -0.20792
H84 H 0.90791 1.22377 -0.17839
C61 C 0.7110(6) 1.3145(6) -0.2343(6)
H85 H 0.73295 1.31535 -0.27868
H86 H 0.65642 1.28138 -0.21444
H87 H 0.68968 1.36335 -0.24324
N9 N 0.9865(4) -0.1672(3) 1.5818(3)
O61 O 1.1550(4) -0.1776(3) 1.5737(3)
C62 C 1.0691(6) -0.2014(4) 1.5781(4)
H88 H 1.06323 -0.24706 1.57889
C63 C 0.8899(5) -0.2018(4) 1.5896(4)
H89 H 0.83782 -0.16929 1.59137
H90 H 0.88000 -0.21103 1.54927
H91 H 0.88849 -0.24763 1.63313
C64 C 0.9874(6) -0.0964(4) 1.5825(4)
H92 H 0.92024 -0.08032 1.58535
H93 H 1.02355 -0.10131 1.62336
H94 H 1.01889 -0.06063 1.53922
N10 N 1.0576(5) 0.5853(4) 1.1042(4)
O62 O 1.2062(4) 0.5217(3) 1.1315(3)
C65 C 1.1353(5) 0.5542(4) 1.1456(4)
H95 H 1.13727 0.55674 1.18871
C66 C 0.9791(6) 0.6243(5) 1.1249(5)
H96 H 0.92896 0.64322 1.08875
H97 H 0.94963 0.59057 1.17008
H98 H 1.00769 0.66450 1.12948
C67 C 1.0460(7) 0.5838(6) 1.0350(5)
H99 H 0.98517 0.60913 1.01315
H100 H 1.10121 0.60781 1.00369
H101 H 1.04391 0.53342 1.04331
O63? O 1.4118(11) 0.6287(9) 1.0444(9)
H102? H 1.35823 0.65404 1.03800
H103? H 1.39526 0.59133 1.03952
O48A O 0.8361(4) 0.4592(3) 0.0926(3)
O49A O 0.7535(3) 0.4914(3) 0.1663(3)
O50A O 0.8619(3) 0.3801(2) 0.4113(3)
O51A O 1.1382(3) 0.5160(3) 0.3121(3)
N1A N 1.0027(4) 0.4445(3) 0.3638(3)
C1A C 0.8302(5) 0.4636(4) 0.1509(4)
C2A C 0.9163(5) 0.4363(4) 0.2009(4)
C3A C 0.9943(6) 0.3978(5) 0.1893(4)
H15A H 0.99296 0.38738 0.15053
C4A C 1.0748(6) 0.3745(5) 0.2345(5)
H16A H 1.12759 0.34913 0.22553
C5A C 1.0774(5) 0.3883(4) 0.2925(4)
H17A H 1.13106 0.37175 0.32352
C6A C 0.9986(5) 0.4276(4) 0.3043(4)
C7A C 0.9190(5) 0.4522(4) 0.2588(4)
H18A H 0.86741 0.47932 0.26653
C8A C 0.9258(5) 0.4190(4) 0.4153(4)
C9A C 1.0775(5) 0.4927(4) 0.3617(4)
C10A C 1.0780(5) 0.5133(4) 0.4203(4)
C11A C 1.0008(5) 0.4888(4) 0.4729(4)
C12A C 0.9261(5) 0.4424(3) 0.4726(4)
C13A C 0.8509(4) 0.4193(4) 0.5240(4)
H19A H 0.80147 0.38877 0.52314
C14A C 0.8501(5) 0.4423(4) 0.5774(4)
H20A H 0.79935 0.42700 0.61198
O52A O 0.7961(3) -0.3994(3) 0.9451(3)
O53A O 0.7723(3) -0.3596(3) 1.0261(3)
O54A O 1.0780(3) -0.1847(3) 0.9698(3)
O55A O 0.7944(3) -0.0493(2) 0.8824(2)
C15A C 0.8030(5) -0.3493(4) 0.9646(4)
C16A C 0.8440(4) -0.2760(4) 0.9135(4)
C17A C 0.8415(5) -0.2524(4) 0.8398(4)
H21A H 0.81866 -0.28334 0.82214
C18A C 0.8738(5) -0.1817(4) 0.7930(4)
H22A H 0.87042 -0.16490 0.74365
C19A C 0.9108(5) -0.1361(4) 0.8191(4)
H23A H 0.93491 -0.08974 0.78777
C20A C 0.9111(4) -0.1613(4) 0.8932(4)
C21A C 0.8785(4) -0.2306(4) 0.9404(4)
H24A H 0.87956 -0.24666 0.98976
C22A C 1.0286(5) -0.1317(4) 0.9619(3)
N3A N 0.9414(4) -0.1123(3) 0.9206(3)
C23A C 0.8726(4) -0.0561(3) 0.9127(3)
C24A C 0.8992(4) -0.0079(4) 0.9445(3)
C25A C 0.9875(4) -0.0221(3) 0.9845(4)
C26A C 1.0521(5) -0.0819(4) 0.9940(4)
C27A C 1.1383(5) -0.0956(4) 1.0322(4)
H25A H 1.18081 -0.13443 1.03695
C28A C 1.1617(5) -0.0511(4) 1.0637(4)
H26A H 1.21920 -0.06129 1.09064
O56A O 1.5760(3) -0.4019(2) 1.9582(2)
O57A O 1.5359(4) -0.2840(3) 1.9223(3)
O58A O 1.7303(3) -0.1174(3) 1.6408(3)
O59A O 1.4148(3) -0.2011(2) 1.6709(3)
N2A N 1.5745(4) -0.1621(3) 1.6517(3)
C29A C 1.5706(5) -0.3338(4) 1.9108(4)
C30A C 1.6023(4) -0.3162(4) 1.8350(4)
C31A C 1.6441(5) -0.3707(4) 1.8202(4)
H27A H 1.65656 -0.41765 1.85755
C32A C 1.6680(5) -0.3555(4) 1.7484(4)
H28A H 1.69759 -0.39167 1.73850
C33A C 1.6464(5) -0.2853(4) 1.6932(4)
H29A H 1.66028 -0.27456 1.64570
C34A C 1.6045(5) -0.2320(3) 1.7089(4)
C35A C 1.5828(5) -0.2462(4) 1.7793(4)
H30A H 1.55554 -0.20919 1.78899
C36A C 1.6471(5) -0.1084(4) 1.6173(4)
C37A C 1.4730(5) -0.1531(4) 1.6347(4)
C38A C 1.4430(5) -0.0840(3) 1.5719(4)
C39A C 1.5145(4) -0.0320(3) 1.5309(3)
C40A C 1.6159(5) -0.0423(3) 1.5518(4)
C41A C 1.6842(5) 0.0094(4) 1.5100(4)
H31A H 1.75078 0.00191 1.52308
C42A C 1.6558(5) 0.0733(4) 1.4481(4)
H32A H 1.70288 0.10809 1.42080
Ho1A Ho 0.68858(2) -0.46745(2) 1.04762(2)
Ho1A* Ho 0.68858(2) 0.53255(2) 0.04762(2)
Ho1A** Ho 1.68858(2) -0.46745(2) 2.04762(2)
O52A* O 1.7961(3) -0.3994(3) 1.9451(3)
O53A* O 1.7723(3) -0.3596(3) 2.0261(3)
O46A O 1.5746(4) -0.5588(3) 2.1068(3)
H11A H 1.57723 -0.58727 2.15171
O48A* O 1.8361(4) -0.5408(3) 2.0926(3)
O45A O 1.6947(3) -0.5371(3) 1.9862(3)
H10A H 1.67632 -0.58152 2.00212
O47A O 1.5815(3) -0.4162(3) 2.1042(3)
O49A* O 1.7535(3) -0.5086(3) 2.1663(3)
H14A H 1.58666 -0.39395 2.12967
H13A H 1.52642 -0.40313 2.08241
H9A H 1.72803 -0.52561 1.94758
H12A H 1.52803 -0.57295 2.08962
#END
