
#######################################################################
#
#                 Cambridge Crystallographic Data Centre
#                                CCDC
#
#######################################################################
#
# If this CIF has been generated from an entry in the Cambridge
# Structural Database, then it will include bibliographic, chemical,
# crystal, experimental, refinement or atomic coordinate data resulting
# from the CCDC's data processing and validation procedures.
#
#######################################################################

data_CSD_CIF_IGOZOW
_audit_creation_date 2020-03-04
_audit_creation_method CSD-ConQuest-V1
_database_code_CSD IGOZOW
_database_code_depnum_ccdc_archive 'CCDC 1976088'
_chemical_formula_sum 'C134 H202 Gd2 N20 O124 Si2 W24'
_chemical_formula_moiety
;
(C84 H48 Gd2 N6 O30)n,2n(O40 Si1 W12 4-),8n(C4 H12 N1 1+),6n(C3 H7 N1 
O1),8n(H2 O1)
;
_journal_coden_Cambridge 222
_journal_volume 49
_journal_year 2020
_journal_page_first 3408
_journal_name_full 'Dalton Trans. '
loop_
_publ_author_name
"Xiao-Yuan Wu"
"Hai-Long Zhang"
"Sa-Sa Wang"
"Weiming Wu"
"Lang Lin"
"Xiao-Yu Jiang"
"Can-Zhong Lu"
_chemical_name_systematic
;
catena-(octakis(tetramethylammonium) 
tris(\m-3,3'-(1,3,6,8-tetraoxo-1,3,6,8-tetrahydrobenzo[lmn][3,8]phenanthroline
-2,7-diyl)dibenzoato)-hexa-aqua-di-gadolinium(iii) 
bis(tetracosakis(\m-oxo)-(\m-silicato)-dodecaoxo-dodeca-tungsten) 
dimethylformamide solvate octahydrate)
;
_cell_volume   5110.214
_exptl_crystal_colour 'yellowish'
_exptl_crystal_density_diffrn 2.879
_exptl_crystal_description 'block'
_diffrn_ambient_temperature 100.0
_refine_special_details
;
O47 and O48 disordered over two sites with occupancies 0.809:0.191.

;
#These two values have been output from a single CSD field.
_refine_ls_R_factor_gt 0.0308
_refine_ls_wR_factor_gt 0.0308
_symmetry_cell_setting triclinic
_symmetry_space_group_name_H-M 'P -1'
_symmetry_Int_Tables_number 2
loop_
_symmetry_equiv_pos_site_id
_symmetry_equiv_pos_as_xyz
1 x,y,z
2 -x,-y,-z
_cell_length_a 13.4291(3)
_cell_length_b 20.4068(5)
_cell_length_c 21.0221(6)
_cell_angle_alpha 62.588(3)
_cell_angle_beta 88.1793(19)
_cell_angle_gamma 87.9916(18)
_cell_formula_units_Z 1
loop_
_atom_type_symbol
_atom_type_radius_bond
C 0.68
H 0.23
Gd 1.96
N 0.68
O 0.68
Si 1.20
W 1.62
loop_
_atom_site_label
_atom_site_type_symbol
_atom_site_fract_x
_atom_site_fract_y
_atom_site_fract_z
Si1 Si 0.70548(9) 0.81488(7) -0.19284(7)
W1 W 0.60443(2) 0.71541(2) -0.27307(2)
W2 W 0.83064(2) 0.82521(2) -0.34785(2)
W3 W 0.48489(2) 0.71265(2) -0.12977(2)
W4 W 0.70806(2) 0.97579(2) -0.35882(2)
W5 W 0.91939(2) 0.91877(2) -0.26786(2)
W6 W 0.48011(2) 0.86681(2) -0.28795(2)
W7 W 0.83999(2) 0.65556(2) -0.17409(2)
W8 W 0.58600(2) 0.81727(2) -0.04296(2)
W9 W 0.57566(2) 0.97191(2) -0.19946(2)
W10 W 0.78971(2) 0.91839(2) -0.11015(2)
W11 W 0.72039(2) 0.64995(2) -0.02955(2)
W12 W 0.92503(2) 0.74991(2) -0.09342(2)
O1 O 0.6750(2) 0.86313(19) -0.15159(18)
O2 O 0.7680(2) 0.86608(19) -0.26574(18)
O3 O 0.6057(2) 0.78712(19) -0.21358(18)
O4 O 0.7732(2) 0.74395(19) -0.14132(18)
O5 O 0.5254(2) 0.9125(2) -0.10475(19)
O6 O 0.4142(2) 0.7919(2) -0.20539(19)
O7 O 0.8563(2) 0.9442(2) -0.19912(18)
O8 O 0.6981(3) 0.5771(2) 0.0527(2)
O9 O 0.8518(3) 0.6771(2) -0.01588(19)
O10 O 0.9454(2) 0.6803(2) -0.13116(19)
O11 O 0.7678(2) 0.9196(2) -0.40315(18)
O12 O 0.3883(3) 0.6604(2) -0.0804(2)
O13 O 0.8390(3) 0.9954(2) -0.34017(19)
O14 O 0.7033(2) 0.7805(2) -0.33317(18)
O15 O 0.5072(3) 1.0512(2) -0.2225(2)
O16 O 0.5034(2) 0.77456(19) -0.08593(18)
O17 O 0.8943(3) 0.5850(2) -0.1862(2)
O18 O 0.5211(3) 0.7960(2) 0.03477(19)
O19 O 0.4959(2) 0.9195(2) -0.23357(19)
O20 O 1.0369(3) 0.7415(2) -0.0532(2)
O21 O 0.6894(3) 0.9922(2) -0.1581(2)
O22 O 0.5872(2) 0.9224(2) -0.34604(18)
O23 O 0.5119(2) 0.67118(19) -0.19451(18)
O24 O 0.5075(2) 0.7939(2) -0.31962(19)
O25 O 0.6678(2) 0.7319(2) -0.01621(19)
O26 O 0.6553(2) 0.99612(19) -0.28440(18)
O27 O 0.8602(3) 0.8259(2) -0.07820(19)
O28 O 0.7813(2) 0.6012(2) -0.07993(19)
O29 O 0.7094(2) 0.6614(2) -0.21116(19)
O30 O 0.5977(2) 0.6571(2) -0.07570(19)
O31 O 0.6957(2) 0.8694(2) -0.03334(18)
O32 O 0.9366(2) 0.87513(19) -0.33086(18)
O33 O 0.8679(2) 0.73824(19) -0.26337(18)
O34 O 0.9516(2) 0.8270(2) -0.18894(18)
O35 O 0.3794(3) 0.9117(2) -0.3383(2)
O36 O 0.5848(3) 0.6633(2) -0.3162(2)
O37 O 0.8580(3) 0.9628(2) -0.0759(2)
O38 O 0.8820(3) 0.8087(2) -0.41487(19)
O39 O 0.6808(3) 1.0563(2) -0.4335(2)
O40 O 1.0289(3) 0.9645(2) -0.2829(2)
Gd1 Gd 0.68819(2) 0.53216(2) 0.54842(2)
O41 O 0.5726(3) 0.4394(2) 0.6087(2)
H1 H 0.57560 0.41120 0.65355
H2 H 0.52631 0.42495 0.59188
O42 O 0.6940(3) 0.4618(2) 0.4857(2)
H3 H 0.72735 0.47350 0.44709
H4 H 0.67514 0.41767 0.50111
O43 O 0.5782(3) 0.5852(3) 0.6048(2)
H5 H 0.59469 0.61131 0.62450
H6 H 0.51880 0.57135 0.61817
O44 O 0.7559(3) 0.4906(2) 0.6686(2)
O45 O 0.8368(3) 0.4560(2) 0.5958(2)
O46 O 0.8629(3) 0.3793(2) 0.9119(2)
O47 O 1.1387(3) 0.5157(2) 0.8128(2)
O48 O 0.7976(3) 0.6008(2) 0.4454(2)
O49 O 0.7753(3) 0.6413(2) 0.5262(2)
O50 O 1.0789(3) 0.8150(2) 0.4702(2)
O51 O 0.7950(3) 0.9510(2) 0.3826(2)
O52 O 0.5386(3) 0.7182(2) 0.4216(2)
O53 O 0.5757(3) 0.6005(2) 0.4558(2)
O54 O 0.7298(3) 0.8835(2) 0.1408(2)
O55 O 0.4152(3) 0.7990(2) 0.1694(2)
N1 N 1.0043(3) 0.4439(3) 0.8648(2)
N2 N 0.9420(3) 0.8880(2) 0.4209(2)
N3 N 0.5753(3) 0.8385(2) 0.1508(2)
C1 C 0.8319(4) 0.4618(3) 0.6532(3)
C2 C 0.9178(4) 0.4354(3) 0.7029(3)
C3 C 0.9956(5) 0.3956(4) 0.6916(3)
H7 H 0.99340 0.38434 0.65358
C4 C 1.0764(5) 0.3725(4) 0.7362(4)
H8 H 1.12958 0.34726 0.72733
C5 C 1.0781(4) 0.3872(4) 0.7948(3)
H9 H 1.13094 0.37019 0.82637
C6 C 1.0005(4) 0.4272(3) 0.8052(3)
C7 C 0.9209(4) 0.4518(3) 0.7598(3)
H10 H 0.86945 0.47939 0.76733
C8 C 0.9270(4) 0.4189(3) 0.9159(3)
C9 C 1.0788(4) 0.4927(3) 0.8620(3)
C10 C 1.0771(4) 0.5128(3) 0.9210(3)
C11 C 1.0006(4) 0.4883(3) 0.9735(3)
C12 C 0.9257(4) 0.4427(3) 0.9722(3)
C13 C 0.8518(4) 0.4190(3) 1.0241(3)
H11 H 0.80311 0.38783 1.02376
C14 C 0.8499(4) 0.4420(3) 1.0780(3)
H12 H 0.79945 0.42662 1.11282
C15 C 0.8056(4) 0.6508(3) 0.4642(3)
C16 C 0.8455(4) 0.7242(3) 0.4136(3)
C17 C 0.8443(4) 0.7487(3) 0.3397(3)
H13 H 0.82216 0.71778 0.32191
C18 C 0.8757(4) 0.8185(3) 0.2931(3)
H14 H 0.87351 0.83474 0.24391
C19 C 0.9104(4) 0.8645(3) 0.3190(3)
H15 H 0.93207 0.91154 0.28765
C20 C 0.9123(4) 0.8391(3) 0.3930(3)
C21 C 0.8800(4) 0.7700(3) 0.4403(3)
H16 H 0.88117 0.75405 0.48942
C22 C 1.0288(4) 0.8681(3) 0.4622(3)
C23 C 0.8729(4) 0.9441(3) 0.4132(3)
C24 C 0.9003(4) 0.9924(3) 0.4451(3)
C25 C 0.9883(4) 0.9768(3) 0.4850(3)
C26 C 1.0517(4) 0.9178(3) 0.4940(3)
C27 C 1.1388(4) 0.9044(3) 0.5325(3)
H17 H 1.18153 0.86554 0.53750
C28 C 1.1622(4) 0.9489(3) 0.5637(3)
H18 H 1.21972 0.93911 0.59033
C29 C 0.5715(4) 0.6683(3) 0.4092(3)
C30 C 0.6024(4) 0.6851(3) 0.3340(3)
C31 C 0.6452(4) 0.6303(3) 0.3194(3)
H19 H 0.65881 0.58376 0.35685
C32 C 0.6678(4) 0.6447(3) 0.2491(3)
H20 H 0.69707 0.60798 0.23979
C33 C 0.6465(4) 0.7141(3) 0.1928(3)
H21 H 0.66034 0.72419 0.14555
C34 C 0.6040(4) 0.7680(3) 0.2091(3)
C35 C 0.5834(4) 0.7548(3) 0.2789(3)
H22 H 0.55726 0.79220 0.28855
C36 C 0.6470(4) 0.8924(3) 0.1167(3)
C37 C 0.4734(4) 0.8465(3) 0.1342(3)
C38 C 0.4428(4) 0.9161(3) 0.0712(3)
C39 C 0.5143(4) 0.9682(3) 0.0311(3)
C40 C 0.6154(4) 0.9582(3) 0.0522(3)
C41 C 0.6837(4) 1.0093(3) 0.0104(3)
H23 H 0.75035 1.00158 0.02321
C42 C 0.6557(4) 1.0727(3) -0.0508(3)
H24 H 0.70295 1.10727 -0.07794
O56 O 0.5920(3) 0.3568(2) 0.7488(2)
H25 H 0.64505 0.35781 0.76932
H26 H 0.57470 0.31211 0.76631
O57 O 0.2447(3) 0.6834(3) 0.1648(3)
H27 H 0.21833 0.65804 0.14744
H28 H 0.22350 0.72779 0.14161
O58 O 0.6083(4) 0.4406(3) 0.3331(3)
H29 H 0.65765 0.46235 0.33851
H30 H 0.62294 0.39471 0.35136
O59 O 0.6485(4) 0.3225(3) 0.5180(3)
H31 H 0.69714 0.30247 0.50601
H32 H 0.60097 0.32330 0.49184
O60? O 0.5895(17) 0.3712(12) 0.4589(12)
H33? H 0.57885 0.33310 0.49852
H34? H 0.62631 0.35558 0.43490
O61 O 1.1544(3) 0.8226(3) 0.0734(3)
N4 N 0.9856(4) 0.8334(3) 0.0807(3)
C43 C 1.0697(4) 0.7992(4) 0.0771(4)
H35 H 1.06445 0.75372 0.07738
C44 C 0.8899(4) 0.7992(4) 0.0882(3)
H36 H 0.83756 0.83169 0.08994
H37 H 0.88041 0.79001 0.04797
H38 H 0.88841 0.75343 0.13160
C45 C 0.9859(5) 0.9035(4) 0.0817(4)
H39 H 0.91857 0.91959 0.08448
H40 H 1.02168 0.89842 0.12266
H41 H 1.01769 0.93932 0.03876
O62 O 0.2067(3) 0.5212(3) 0.6327(2)
N5 N 0.0578(4) 0.5846(3) 0.6052(3)
C46 C 0.1356(4) 0.5539(3) 0.6461(3)
H42 H 0.13755 0.55698 0.68883
C47 C 0.0458(5) 0.5829(5) 0.5376(3)
H43 H -0.01527 0.60813 0.51612
H44 H 0.10082 0.60692 0.50599
H45 H 0.04393 0.53259 0.54597
C48 C -0.0196(5) 0.6245(4) 0.6259(4)
H46 H -0.07035 0.64319 0.59025
H47 H -0.04862 0.59151 0.67133
H48 H 0.00974 0.66492 0.62943
O63 O 0.7001(4) 0.2978(3) 0.4016(3)
N6 N 0.7947(4) 0.2889(3) 0.3155(3)
C49 C 0.7801(5) 0.2833(3) 0.3796(4)
H49 H 0.83350 0.26734 0.41074
C50 C 0.7130(5) 0.3141(5) 0.2637(4)
H50 H 0.73628 0.31497 0.21965
H51 H 0.65853 0.28080 0.28300
H52 H 0.69085 0.36275 0.25470
C51 C 0.8892(5) 0.2746(5) 0.2900(4)
H53 H 0.88288 0.28206 0.24176
H54 H 0.93746 0.30770 0.29102
H55 H 0.91039 0.22457 0.32017
N7 N 0.7843(3) 0.1012(3) 0.1448(3)
C52 C 0.7165(5) 0.1424(5) 0.0842(4)
H56 H 0.74769 0.18684 0.05003
H57 H 0.70231 0.11232 0.06165
H58 H 0.65552 0.15481 0.10173
C53 C 0.7370(5) 0.0317(4) 0.1988(5)
H59 H 0.78164 0.00554 0.23777
H60 H 0.67608 0.04372 0.21669
H61 H 0.72287 0.00123 0.17660
C54 C 0.8036(4) 0.1482(4) 0.1809(4)
H62 H 0.84757 0.12195 0.22026
H63 H 0.83390 0.19326 0.14703
H64 H 0.74179 0.15947 0.19828
C55 C 0.8806(4) 0.0814(4) 0.1190(4)
H65 H 0.92348 0.05481 0.15896
H66 H 0.86742 0.05115 0.09643
H67 H 0.91238 0.12571 0.08509
N8 N 0.4413(3) 0.5413(3) 0.1317(2)
C56 C 0.4504(5) 0.5131(4) 0.0776(3)
H68 H 0.39876 0.53525 0.04295
H69 H 0.51429 0.52552 0.05382
H70 H 0.44393 0.46044 0.10114
C57 C 0.5208(4) 0.5076(4) 0.1860(3)
H71 H 0.58494 0.51990 0.16264
H72 H 0.51414 0.52617 0.22044
H73 H 0.51453 0.45488 0.21001
C58 C 0.4512(5) 0.6233(3) 0.0940(3)
H74 H 0.39988 0.64494 0.05902
H75 H 0.44475 0.64224 0.12814
H76 H 0.51529 0.63548 0.07048
C59 C 0.3420(4) 0.5218(3) 0.1687(4)
H77 H 0.29031 0.54333 0.13401
H78 H 0.33604 0.46906 0.19270
H79 H 0.33566 0.54035 0.20313
N9 N 0.4330(3) 0.1440(3) 0.5250(2)
C60 C 0.4257(4) 0.0823(3) 0.5058(3)
H80 H 0.48491 0.05170 0.52042
H81 H 0.36871 0.05338 0.52975
H82 H 0.41873 0.10235 0.45491
C61 C 0.5205(4) 0.1900(3) 0.4857(3)
H83 H 0.58036 0.16002 0.49935
H84 H 0.51169 0.20967 0.43503
H85 H 0.52552 0.22989 0.49763
C62 C 0.3418(4) 0.1920(3) 0.5027(3)
H86 H 0.34731 0.23139 0.51525
H87 H 0.33460 0.21234 0.45178
H88 H 0.28458 0.16336 0.52662
C63 C 0.4453(4) 0.1125(3) 0.6042(3)
H89 H 0.50432 0.08152 0.61825
H90 H 0.45122 0.15191 0.61662
H91 H 0.38834 0.08376 0.62858
N10 N 0.2152(4) 0.7975(4) 0.3104(3)
C64 C 0.1824(6) 0.8102(7) 0.2379(5)
H92 H 0.11140 0.81788 0.23467
H93 H 0.21428 0.85304 0.20148
H94 H 0.20053 0.76793 0.23105
C65 C 0.3233(5) 0.7860(5) 0.3134(5)
H95 H 0.34035 0.74227 0.30893
H96 H 0.35418 0.82780 0.27495
H97 H 0.34637 0.78055 0.35843
C66 C 0.1615(6) 0.7349(4) 0.3659(5)
H98 H 0.09111 0.74546 0.36130
H99 H 0.17633 0.69139 0.36036
H100 H 0.18188 0.72678 0.41236
C67 C 0.1910(5) 0.8645(4) 0.3174(4)
H101 H 0.12010 0.87276 0.31552
H102 H 0.21463 0.85867 0.36238
H103 H 0.22244 0.90592 0.27890
O44A O 1.2441(3) 0.5094(2) 1.3314(2)
O45A O 1.1632(3) 0.5440(2) 1.4042(2)
O46A O 1.1371(3) 0.6207(2) 1.0881(2)
O47A O 0.8613(3) 0.4843(2) 1.1872(2)
N1A N 0.9957(3) 0.5561(3) 1.1352(2)
C1A C 1.1681(4) 0.5382(3) 1.3468(3)
C2A C 1.0822(4) 0.5646(3) 1.2971(3)
C3A C 1.0044(5) 0.6044(4) 1.3084(3)
H7A H 1.00660 0.61566 1.34642
C4A C 0.9236(5) 0.6275(4) 1.2638(4)
H8A H 0.87042 0.65274 1.27266
C5A C 0.9219(4) 0.6128(4) 1.2052(3)
H9A H 0.86906 0.62981 1.17363
C6A C 0.9995(4) 0.5728(3) 1.1948(3)
C7A C 1.0791(4) 0.5482(3) 1.2402(3)
H10A H 1.13055 0.52061 1.23267
C8A C 1.0730(4) 0.5811(3) 1.0841(3)
C9A C 0.9212(4) 0.5073(3) 1.1380(3)
C10A C 0.9229(4) 0.4872(3) 1.0790(3)
C11A C 0.9994(4) 0.5117(3) 1.0265(3)
C12A C 1.0743(4) 0.5573(3) 1.0278(3)
C13A C 1.1482(4) 0.5810(3) 0.9759(3)
H11A H 1.19689 0.61217 0.97624
C14A C 1.1501(4) 0.5580(3) 0.9220(3)
H12A H 1.20055 0.57338 0.88718
O48A O 1.2024(3) 1.3992(2) 0.5546(2)
O49A O 1.2247(3) 1.3587(2) 0.4738(2)
O50A O 0.9211(3) 1.1850(2) 0.5298(2)
O51A O 1.2050(3) 1.0490(2) 0.6174(2)
N2A N 1.0580(3) 1.1120(2) 0.5791(2)
C15A C 1.1944(4) 1.3492(3) 0.5358(3)
C16A C 1.1545(4) 1.2758(3) 0.5864(3)
C17A C 1.1557(4) 1.2513(3) 0.6603(3)
H13A H 1.17784 1.28222 0.67809
C18A C 1.1243(4) 1.1815(3) 0.7069(3)
H14A H 1.12649 1.16526 0.75609
C19A C 1.0896(4) 1.1355(3) 0.6810(3)
H15A H 1.06793 1.08846 0.71235
C20A C 1.0877(4) 1.1609(3) 0.6070(3)
C21A C 1.1200(4) 1.2300(3) 0.5597(3)
H16A H 1.11883 1.24595 0.51058
C22A C 0.9712(4) 1.1319(3) 0.5378(3)
C23A C 1.1271(4) 1.0559(3) 0.5868(3)
C24A C 1.0997(4) 1.0076(3) 0.5549(3)
C25A C 1.0117(4) 1.0232(3) 0.5150(3)
C26A C 0.9483(4) 1.0822(3) 0.5060(3)
C27A C 0.8612(4) 1.0956(3) 0.4675(3)
H17A H 0.81847 1.13446 0.46250
C28A C 0.8378(4) 1.0511(3) 0.4363(3)
H18A H 0.78028 1.06089 0.40967
O52A O 0.4614(3) 1.2818(2) -0.4216(2)
O53A O 0.4243(3) 1.3995(2) -0.4558(2)
O54A O 0.2702(3) 1.1165(2) -0.1408(2)
O55A O 0.5848(3) 1.2010(2) -0.1694(2)
N3A N 0.4247(3) 1.1615(2) -0.1508(2)
C29A C 0.4285(4) 1.3317(3) -0.4092(3)
C30A C 0.3976(4) 1.3149(3) -0.3340(3)
C31A C 0.3548(4) 1.3697(3) -0.3194(3)
H19A H 0.34119 1.41624 -0.35685
C32A C 0.3322(4) 1.3553(3) -0.2491(3)
H20A H 0.30293 1.39202 -0.23979
C33A C 0.3535(4) 1.2859(3) -0.1928(3)
H21A H 0.33966 1.27581 -0.14555
C34A C 0.3960(4) 1.2320(3) -0.2091(3)
C35A C 0.4166(4) 1.2452(3) -0.2789(3)
H22A H 0.44274 1.20780 -0.28855
C36A C 0.3530(4) 1.1076(3) -0.1167(3)
C37A C 0.5266(4) 1.1535(3) -0.1342(3)
C38A C 0.5572(4) 1.0839(3) -0.0712(3)
C39A C 0.4857(4) 1.0318(3) -0.0311(3)
C40A C 0.3846(4) 1.0418(3) -0.0522(3)
C41A C 0.3163(4) 0.9907(3) -0.0104(3)
H23A H 0.24965 0.99842 -0.02321
C42A C 0.3443(4) 0.9273(3) 0.0508(3)
H24A H 0.29705 0.89273 0.07794
Gd1A Gd 0.31181(2) 1.46784(2) -0.54842(2)
O41A O 0.4274(3) 1.5606(2) -0.6087(2)
H1A H 0.42440 1.58880 -0.65355
H2A H 0.47369 1.57505 -0.59188
O42A O 0.3060(3) 1.5382(2) -0.4857(2)
H3A H 0.27265 1.52650 -0.44709
H4A H 0.32486 1.58234 -0.50111
O43A O 0.4218(3) 1.4148(3) -0.6048(2)
H5A H 0.40531 1.38869 -0.62450
H6A H 0.48120 1.42865 -0.61817
Gd1A* Gd 1.31181(2) 0.46784(2) 1.45158(2)
Gd1A** Gd 1.31181(2) 1.46784(2) 0.45158(2)
O44A* O 0.2441(3) 1.5094(2) -0.6686(2)
O45A* O 0.1632(3) 1.5440(2) -0.5958(2)
O48A* O 0.2024(3) 1.3992(2) -0.4454(2)
O49A* O 0.2247(3) 1.3587(2) -0.5262(2)
#END
