
#######################################################################
#
#                 Cambridge Crystallographic Data Centre
#                                CCDC
#
#######################################################################
#
# If this CIF has been generated from an entry in the Cambridge
# Structural Database, then it will include bibliographic, chemical,
# crystal, experimental, refinement or atomic coordinate data resulting
# from the CCDC's data processing and validation procedures.
#
#######################################################################

data_CSD_CIF_IGOZOV
_audit_creation_date 2015-05-05
_audit_creation_method CSD-ConQuest-V1
_database_code_CSD IGOZOV
_database_code_depnum_ccdc_archive 'CCDC 1013812'
_chemical_formula_sum 'C24 H42 Cd3 O39 Yb2'
_chemical_formula_moiety
;
(H12 Cd1 O6 2+)n,2n(C12 H12 Cd1 O15 Yb1 1-),3n(H2 O1)
;
_journal_coden_Cambridge 9
_journal_volume 54
_journal_year 2015
_journal_page_first 4456
_journal_name_full 'Inorg.Chem. '
loop_
_publ_author_name
"Ying Wang"
"Xiu-Guang Wang"
"Bin Yuan"
"Cheng-Yuan Shao"
"Yuan-Yuan Chen"
"Bing-Bing Zhou"
"Ming-Shu Li"
"Xiao-Mai An"
"Peng Cheng"
"Xiao-Jun Zhao"
_chemical_name_systematic
;
catena-[Hexa-aqua-cadmium(ii) 
bis(tris(\m~3~-2,2'-oxydiacetato)-cadmium-ytterbium) trihydrate]
;
_cell_volume  17519.884
_exptl_crystal_colour 'colorless'
_exptl_crystal_density_diffrn 2.484
_exptl_crystal_description 'block'
_diffrn_ambient_temperature 293
#These two values have been output from a single CSD field.
_refine_ls_R_factor_gt 0.0641
_refine_ls_wR_factor_gt 0.0641
_symmetry_cell_setting cubic
_symmetry_space_group_name_H-M 'F d -3 c'
_symmetry_Int_Tables_number 228
loop_
_symmetry_equiv_pos_site_id
_symmetry_equiv_pos_as_xyz
1 x,y,z
2 1/4-x,3/4-y,1/2+z
3 3/4-x,1/2+y,1/4-z
4 1/2+x,1/4-y,3/4-z
5 z,x,y
6 1/2+z,1/4-x,3/4-y
7 1/4-z,3/4-x,1/2+y
8 3/4-z,1/2+x,1/4-y
9 y,z,x
10 3/4-y,1/2+z,1/4-x
11 1/2+y,1/4-z,3/4-x
12 1/4-y,3/4-z,1/2+x
13 3/4+y,1/4+x,-z
14 1/2-y,1/2-x,1/2-z
15 1/4+y,-x,3/4+z
16 -y,3/4+x,1/4+z
17 3/4+x,1/4+z,-y
18 -x,3/4+z,1/4+y
19 1/2-x,1/2-z,1/2-y
20 1/4+x,-z,3/4+y
21 3/4+z,1/4+y,-x
22 1/4+z,-y,3/4+x
23 -z,3/4+y,1/4+x
24 1/2-z,1/2-y,1/2-x
25 x,1/2+y,1/2+z
26 1/4-x,1/4-y,z
27 3/4-x,y,3/4-z
28 1/2+x,3/4-y,1/4-z
29 z,1/2+x,1/2+y
30 1/2+z,3/4-x,1/4-y
31 1/4-z,1/4-x,y
32 3/4-z,x,3/4-y
33 y,1/2+z,1/2+x
34 3/4-y,z,3/4-x
35 1/2+y,3/4-z,1/4-x
36 1/4-y,1/4-z,x
37 3/4+y,3/4+x,1/2-z
38 1/2-y,-x,-z
39 1/4+y,1/2-x,1/4+z
40 -y,1/4+x,3/4+z
41 3/4+x,3/4+z,1/2-y
42 -x,1/4+z,3/4+y
43 1/2-x,-z,-y
44 1/4+x,1/2-z,1/4+y
45 3/4+z,3/4+y,1/2-x
46 1/4+z,1/2-y,1/4+x
47 -z,1/4+y,3/4+x
48 1/2-z,-y,-x
49 1/2+x,y,1/2+z
50 3/4-x,3/4-y,z
51 1/4-x,1/2+y,3/4-z
52 x,1/4-y,1/4-z
53 1/2+z,x,1/2+y
54 z,1/4-x,1/4-y
55 3/4-z,3/4-x,y
56 1/4-z,1/2+x,3/4-y
57 1/2+y,z,1/2+x
58 1/4-y,1/2+z,3/4-x
59 y,1/4-z,1/4-x
60 3/4-y,3/4-z,x
61 1/4+y,1/4+x,1/2-z
62 -y,1/2-x,-z
63 3/4+y,-x,1/4+z
64 1/2-y,3/4+x,3/4+z
65 1/4+x,1/4+z,1/2-y
66 1/2-x,3/4+z,3/4+y
67 -x,1/2-z,-y
68 3/4+x,-z,1/4+y
69 1/4+z,1/4+y,1/2-x
70 3/4+z,-y,1/4+x
71 1/2-z,3/4+y,3/4+x
72 -z,1/2-y,-x
73 1/2+x,1/2+y,z
74 3/4-x,1/4-y,1/2+z
75 1/4-x,y,1/4-z
76 x,3/4-y,3/4-z
77 1/2+z,1/2+x,y
78 z,3/4-x,3/4-y
79 3/4-z,1/4-x,1/2+y
80 1/4-z,x,1/4-y
81 1/2+y,1/2+z,x
82 1/4-y,z,1/4-x
83 y,3/4-z,3/4-x
84 3/4-y,1/4-z,1/2+x
85 1/4+y,3/4+x,-z
86 -y,-x,1/2-z
87 3/4+y,1/2-x,3/4+z
88 1/2-y,1/4+x,1/4+z
89 1/4+x,3/4+z,-y
90 1/2-x,1/4+z,1/4+y
91 -x,-z,1/2-y
92 3/4+x,1/2-z,3/4+y
93 1/4+z,3/4+y,-x
94 3/4+z,1/2-y,3/4+x
95 1/2-z,1/4+y,1/4+x
96 -z,-y,1/2-x
97 -x,-y,-z
98 -1/4+x,-3/4+y,-1/2-z
99 -3/4+x,-1/2-y,-1/4+z
100 -1/2-x,-1/4+y,-3/4+z
101 -z,-x,-y
102 -1/2-z,-1/4+x,-3/4+y
103 -1/4+z,-3/4+x,-1/2-y
104 -3/4+z,-1/2-x,-1/4+y
105 -y,-z,-x
106 -3/4+y,-1/2-z,-1/4+x
107 -1/2-y,-1/4+z,-3/4+x
108 -1/4+y,-3/4+z,-1/2-x
109 -3/4-y,-1/4-x,z
110 -1/2+y,-1/2+x,-1/2+z
111 -1/4-y,x,-3/4-z
112 y,-3/4-x,-1/4-z
113 -3/4-x,-1/4-z,y
114 x,-3/4-z,-1/4-y
115 -1/2+x,-1/2+z,-1/2+y
116 -1/4-x,z,-3/4-y
117 -3/4-z,-1/4-y,x
118 -1/4-z,y,-3/4-x
119 z,-3/4-y,-1/4-x
120 -1/2+z,-1/2+y,-1/2+x
121 -x,-1/2-y,-1/2-z
122 -1/4+x,-1/4+y,-z
123 -3/4+x,-y,-3/4+z
124 -1/2-x,-3/4+y,-1/4+z
125 -z,-1/2-x,-1/2-y
126 -1/2-z,-3/4+x,-1/4+y
127 -1/4+z,-1/4+x,-y
128 -3/4+z,-x,-3/4+y
129 -y,-1/2-z,-1/2-x
130 -3/4+y,-z,-3/4+x
131 -1/2-y,-3/4+z,-1/4+x
132 -1/4+y,-1/4+z,-x
133 -3/4-y,-3/4-x,-1/2+z
134 -1/2+y,x,z
135 -1/4-y,-1/2+x,-1/4-z
136 y,-1/4-x,-3/4-z
137 -3/4-x,-3/4-z,-1/2+y
138 x,-1/4-z,-3/4-y
139 -1/2+x,z,y
140 -1/4-x,-1/2+z,-1/4-y
141 -3/4-z,-3/4-y,-1/2+x
142 -1/4-z,-1/2+y,-1/4-x
143 z,-1/4-y,-3/4-x
144 -1/2+z,y,x
145 -1/2-x,-y,-1/2-z
146 -3/4+x,-3/4+y,-z
147 -1/4+x,-1/2-y,-3/4+z
148 -x,-1/4+y,-1/4+z
149 -1/2-z,-x,-1/2-y
150 -z,-1/4+x,-1/4+y
151 -3/4+z,-3/4+x,-y
152 -1/4+z,-1/2-x,-3/4+y
153 -1/2-y,-z,-1/2-x
154 -1/4+y,-1/2-z,-3/4+x
155 -y,-1/4+z,-1/4+x
156 -3/4+y,-3/4+z,-x
157 -1/4-y,-1/4-x,-1/2+z
158 y,-1/2+x,z
159 -3/4-y,x,-1/4-z
160 -1/2+y,-3/4-x,-3/4-z
161 -1/4-x,-1/4-z,-1/2+y
162 -1/2+x,-3/4-z,-3/4-y
163 x,-1/2+z,y
164 -3/4-x,z,-1/4-y
165 -1/4-z,-1/4-y,-1/2+x
166 -3/4-z,y,-1/4-x
167 -1/2+z,-3/4-y,-3/4-x
168 z,-1/2+y,x
169 -1/2-x,-1/2-y,-z
170 -3/4+x,-1/4+y,-1/2-z
171 -1/4+x,-y,-1/4+z
172 -x,-3/4+y,-3/4+z
173 -1/2-z,-1/2-x,-y
174 -z,-3/4+x,-3/4+y
175 -3/4+z,-1/4+x,-1/2-y
176 -1/4+z,-x,-1/4+y
177 -1/2-y,-1/2-z,-x
178 -1/4+y,-z,-1/4+x
179 -y,-3/4+z,-3/4+x
180 -3/4+y,-1/4+z,-1/2-x
181 -1/4-y,-3/4-x,z
182 y,x,-1/2+z
183 -3/4-y,-1/2+x,-3/4-z
184 -1/2+y,-1/4-x,-1/4-z
185 -1/4-x,-3/4-z,y
186 -1/2+x,-1/4-z,-1/4-y
187 x,z,-1/2+y
188 -3/4-x,-1/2+z,-3/4-y
189 -1/4-z,-3/4-y,x
190 -3/4-z,-1/2+y,-3/4-x
191 -1/2+z,-1/4-y,-1/4-x
192 z,y,-1/2+x
_cell_length_a 25.9723(6)
_cell_length_b 25.9723(6)
_cell_length_c 25.9723(6)
_cell_angle_alpha 90
_cell_angle_beta 90
_cell_angle_gamma 90
_cell_formula_units_Z 16
loop_
_atom_type_symbol
_atom_type_radius_bond
C 0.68
H 0.23
Cd 1.44
O 0.68
Yb 1.87
loop_
_atom_site_label
_atom_site_type_symbol
_atom_site_fract_x
_atom_site_fract_y
_atom_site_fract_z
Yb1 Yb 0.00000 0.00000 0.75000
O1 O -0.0293(5) 0.0098(4) 0.8343(5)
O2 O 0.0652(4) 0.00000 0.8152(4)
C1 C -0.0032(8) 0.0091(8) 0.8739(7)
C2 C 0.0538(8) 0.0041(10) 0.8699(8)
O3 O -0.0239(5) 0.0140(5) 0.9169(5)
H1 H 0.07070 0.03390 0.88460
H2 H 0.06560 -0.02640 0.88800
Cd1 Cd 0.00000 0.00000 1.00000
Cd2 Cd 0.62500 0.62500 0.12500
O4 O 0.7101(9) 0.62500 0.12500
H3 H 0.73630 0.61410 0.10830
O5 O 0.62500 0.3287(17) 0.12500
O1U O 0.0843(5) -0.0098(4) 0.7207(5)
O1EA O -0.0843(5) -0.0293(4) 0.7402(5)
O2EA O -0.0652(4) 0.06520 0.7500(4)
O1OA O 0.0293(5) 0.0843(4) 0.7598(5)
O1DC O 0.0098(5) -0.0843(4) 0.7793(5)
O2DC O 0.0000(4) -0.06520 0.6848(4)
O1GC O -0.0098(5) 0.0293(4) 0.6657(5)
C2U C 0.1199(8) -0.0041(10) 0.8038(8)
C1U C 0.1239(8) -0.0091(8) 0.7468(7)
C1EA C -0.1239(8) -0.0032(8) 0.7409(7)
C2EA C -0.1199(8) 0.0538(10) 0.7459(8)
C2OA C -0.0538(8) 0.1199(10) 0.7541(8)
C1OA C 0.0032(8) 0.1239(8) 0.7591(7)
C1DC C 0.0091(8) -0.1239(8) 0.7532(7)
C2DC C 0.0041(8) -0.1199(10) 0.6962(8)
C2GC C -0.0041(8) -0.0538(10) 0.6301(8)
C1GC C -0.0091(8) 0.0032(8) 0.6261(7)
H1U H 0.13460 -0.03390 0.82070
H2U H 0.13800 0.02640 0.81560
O3U O 0.1669(5) -0.0140(5) 0.7261(5)
O3EA O -0.1669(5) -0.0239(5) 0.7360(5)
H1EA H -0.13460 0.07070 0.71610
H2EA H -0.13800 0.06560 0.77640
H1OA H -0.07070 0.13460 0.78390
H2OA H -0.06560 0.13800 0.72360
O3OA O 0.0239(5) 0.1669(5) 0.7640(5)
O3DC O 0.0140(5) -0.1669(5) 0.7739(5)
H1DC H 0.03390 -0.13460 0.67930
H2DC H -0.02640 -0.13800 0.68440
H1GC H -0.03390 -0.07070 0.61540
H2GC H 0.02640 -0.06560 0.61200
O3GC O -0.0140(5) 0.0239(5) 0.5831(5)
Cd1N Cd 0.25000 0.00000 0.75000
Cd1Z Cd -0.25000 0.00000 0.75000
Cd1MA Cd 0.00000 0.25000 0.75000
Cd1WB Cd 0.00000 -0.25000 0.75000
Cd1GC Cd 0.00000 0.00000 0.50000
O3D O -0.0831(5) -0.0239(5) 1.0140(5)
O3H O 0.0140(5) -0.0831(5) 0.9761(5)
O3RC O 0.0239(5) -0.0140(5) 1.0831(5)
O3VC O 0.0831(5) 0.0239(5) 0.9860(5)
O3ZC O -0.0140(5) 0.0831(5) 1.0239(5)
H3YA H 0.73630 0.63590 0.14170
O4E O 0.6250(9) 0.53990 0.12500
H3E H 0.60830 0.51370 0.13590
H3ZB H 0.64170 0.51370 0.11410
O4K O 0.6250(9) 0.62500 0.21010
H3K H 0.63590 0.64170 0.23630
H3FA H 0.61410 0.60830 0.23630
O4Y O 0.5399(9) 0.62500 0.12500
H3Y H 0.51370 0.63590 0.10830
H3VB H 0.51370 0.61410 0.14170
O4EA O 0.6250(9) 0.71010 0.12500
H3EA H 0.64170 0.73630 0.13590
H3ZA H 0.60830 0.73630 0.11410
O4EB O 0.6250(9) 0.62500 0.03990
H3EB H 0.63590 0.60830 0.01370
H3DC H 0.61410 0.64170 0.01370
#END
