
#######################################################################
#
#                 Cambridge Crystallographic Data Centre
#                                CCDC
#
#######################################################################
#
# If this CIF has been generated from an entry in the Cambridge
# Structural Database, then it will include bibliographic, chemical,
# crystal, experimental, refinement or atomic coordinate data resulting
# from the CCDC's data processing and validation procedures.
#
#######################################################################

data_CSD_CIF_IGOZIQ
_audit_creation_date 2020-03-04
_audit_creation_method CSD-ConQuest-V1
_database_code_CSD IGOZIQ
_database_code_depnum_ccdc_archive 'CCDC 1976087'
_chemical_formula_sum 'C134 H202 N20 O124 Si2 Tb2 W24'
_chemical_formula_moiety
;
(C84 H48 N6 O30 Tb2)n,2n(O40 Si1 W12 4-),8n(C4 H12 N1 1+),6n(C3 H7 N1 
O1),8n(H2 O1)
;
_journal_coden_Cambridge 222
_journal_volume 49
_journal_year 2020
_journal_page_first 3408
_journal_name_full 'Dalton Trans. '
loop_
_publ_author_name
"Xiao-Yuan Wu"
"Hai-Long Zhang"
"Sa-Sa Wang"
"Weiming Wu"
"Lang Lin"
"Xiao-Yu Jiang"
"Can-Zhong Lu"
_chemical_name_systematic
;
catena-(octakis(tetramethylammonium) 
tris(\m-3,3'-(1,3,6,8-tetraoxo-1,3,6,8-tetrahydrobenzo[lmn][3,8]phenanthroline
-2,7-diyl)dibenzoato)-hexa-aqua-di-terbium(iii) 
bis(tetracosakis(\m-oxo)-(\m-silicato)-dodecaoxo-dodeca-tungsten) 
dimethylformamide solvate octahydrate)
;
_cell_volume   5108.193
_exptl_crystal_colour 'yellowish'
_exptl_crystal_density_diffrn 2.881
_exptl_crystal_description 'block'
_diffrn_ambient_temperature 100.0
_refine_special_details
;
O47 and O48 disordered over two sites with occupancies 0.784:0.216.

;
#These two values have been output from a single CSD field.
_refine_ls_R_factor_gt 0.0359
_refine_ls_wR_factor_gt 0.0359
_symmetry_cell_setting triclinic
_symmetry_space_group_name_H-M 'P -1'
_symmetry_Int_Tables_number 2
loop_
_symmetry_equiv_pos_site_id
_symmetry_equiv_pos_as_xyz
1 x,y,z
2 -x,-y,-z
_cell_length_a 13.4318(3)
_cell_length_b 20.4071(7)
_cell_length_c 21.0138(7)
_cell_angle_alpha 62.561(3)
_cell_angle_beta 88.220(2)
_cell_angle_gamma 88.023(2)
_cell_formula_units_Z 1
loop_
_atom_type_symbol
_atom_type_radius_bond
C 0.68
H 0.23
N 0.68
O 0.68
Si 1.20
Tb 1.94
W 1.62
loop_
_atom_site_label
_atom_site_type_symbol
_atom_site_fract_x
_atom_site_fract_y
_atom_site_fract_z
Tb1 Tb 0.68809(2) 0.03233(2) 0.54825(2)
O1 O 0.6948(4) -0.0378(3) 0.4859(3)
H1 H 0.67586 -0.08190 0.50115
H2 H 0.72787 -0.02591 0.44710
O2 O 0.5741(4) -0.0603(3) 0.6085(3)
H3 H 0.57665 -0.08850 0.65343
H4 H 0.52763 -0.07457 0.59157
O3 O 0.5791(4) 0.0849(3) 0.6045(3)
H5 H 0.59533 0.11104 0.62426
H6 H 0.51969 0.07112 0.61754
O4 O 0.7739(3) 0.1407(3) 0.5263(3)
O5 O 0.7969(4) 0.1013(3) 0.4449(3)
O6 O 1.0789(3) 0.3156(3) 0.4698(3)
O7 O 0.7949(3) 0.4509(3) 0.3829(3)
O8 O 0.8360(4) -0.0429(3) 0.5949(3)
O9 O 0.7557(4) -0.0093(3) 0.6676(3)
O10 O 0.8624(3) -0.1203(3) 0.9121(3)
O11 O 1.1385(4) 0.0151(3) 0.8128(3)
O12 O 0.5371(4) 0.2180(3) 0.4217(3)
O13 O 0.5751(3) 0.0998(3) 0.4564(2)
O14 O 0.7298(3) 0.3833(3) 0.1407(3)
O15 O 0.4156(3) 0.2988(3) 0.1698(3)
N1 N 0.9419(4) 0.3879(3) 0.4207(3)
N2 N 1.0039(4) -0.0560(3) 0.8648(3)
N3 N 0.5740(4) 0.3386(3) 0.1510(3)
C1 C 0.8051(5) 0.1510(4) 0.4648(4)
C2 C 0.8450(5) 0.2235(4) 0.4130(4)
C3 C 0.8434(5) 0.2485(4) 0.3403(4)
H7 H 0.82061 0.21795 0.32223
C4 C 0.8748(5) 0.3178(4) 0.2937(4)
H8 H 0.87223 0.33371 0.24453
C5 C 0.9105(5) 0.3649(4) 0.3187(4)
H9 H 0.93234 0.41181 0.28717
C6 C 0.9123(4) 0.3389(4) 0.3930(4)
C7 C 0.8795(5) 0.2698(4) 0.4407(4)
H10 H 0.88009 0.25396 0.48986
C8 C 1.0289(5) 0.3684(4) 0.4621(4)
C9 C 0.8733(5) 0.4438(4) 0.4130(3)
C10 C 0.9005(5) 0.4933(4) 0.4447(4)
C11 C 0.9879(4) 0.4766(4) 0.4847(3)
C12 C 1.0522(4) 0.4180(4) 0.4937(3)
C13 C 1.1386(5) 0.4046(4) 0.5322(4)
H11 H 1.18134 0.36576 0.53710
C14 C 1.1621(5) 0.4491(4) 0.5640(4)
H12 H 1.21953 0.43957 0.59077
C15 C 0.8313(5) -0.0379(4) 0.6529(4)
C16 C 0.9168(5) -0.0653(4) 0.7026(4)
C17 C 0.9960(6) -0.1041(5) 0.6907(4)
H13 H 0.99507 -0.11443 0.65195
C18 C 1.0755(5) -0.1272(5) 0.7360(5)
H14 H 1.12840 -0.15290 0.72743
C19 C 1.0781(5) -0.1128(4) 0.7944(4)
H15 H 1.13134 -0.12977 0.82562
C20 C 0.9995(5) -0.0726(4) 0.8055(4)
C21 C 0.9205(5) -0.0481(4) 0.7598(4)
H16 H 0.86930 -0.02010 0.76683
C22 C 0.9262(5) -0.0816(4) 0.9154(4)
C23 C 1.0785(5) -0.0076(4) 0.8617(4)
C24 C 1.0772(5) 0.0137(4) 0.9200(4)
C25 C 1.0018(5) -0.0108(4) 0.9720(4)
C26 C 0.9260(4) -0.0577(4) 0.9726(4)
C27 C 0.8518(5) -0.0804(4) 1.0234(4)
H17 H 0.80180 -0.11002 1.02185
C28 C 0.8509(5) -0.0589(4) 1.0783(4)
H18 H 0.80122 -0.07545 1.11367
C29 C 0.5712(5) 0.1676(4) 0.4098(4)
C30 C 0.6021(4) 0.1839(4) 0.3354(4)
C31 C 0.6447(5) 0.1302(4) 0.3197(4)
H19 H 0.65819 0.08324 0.35667
C32 C 0.6678(5) 0.1456(4) 0.2485(4)
H20 H 0.69712 0.10914 0.23883
C33 C 0.6472(5) 0.2145(4) 0.1929(4)
H21 H 0.66145 0.22473 0.14566
C34 C 0.6042(5) 0.2690(4) 0.2088(4)
C35 C 0.5834(4) 0.2546(4) 0.2785(3)
H22 H 0.55675 0.29193 0.28808
C36 C 0.6468(5) 0.3921(4) 0.1169(4)
C37 C 0.4731(5) 0.3469(4) 0.1339(4)
C38 C 0.4427(5) 0.4161(4) 0.0715(3)
C39 C 0.5147(5) 0.4681(4) 0.0311(3)
C40 C 0.6149(5) 0.4586(4) 0.0518(3)
C41 C 0.6842(5) 0.5090(4) 0.0107(4)
H23 H 0.75065 0.50099 0.02393
C42 C 0.6559(4) 0.5727(4) -0.0510(3)
H24 H 0.70318 0.60734 -0.07820
Si1 Si 0.70517(11) 0.31473(9) 0.80727(9)
W1 W 0.60418(2) 0.21536(2) 0.72679(2)
W2 W 0.83047(2) 0.32520(2) 0.65208(2)
W3 W 0.83967(2) 0.15545(2) 0.82593(2)
W4 W 0.70799(2) 0.47580(2) 0.64108(2)
W5 W 0.47999(2) 0.36679(2) 0.71195(2)
W6 W 0.48474(2) 0.21244(2) 0.87025(2)
W7 W 0.58590(2) 0.31708(2) 0.95718(2)
W8 W 0.91931(2) 0.41877(2) 0.73220(2)
W9 W 0.57572(2) 0.47183(2) 0.80057(2)
W10 W 0.72016(2) 0.14978(2) 0.97058(2)
W11 W 0.78975(2) 0.41822(2) 0.89004(2)
W12 W 0.92486(2) 0.24976(2) 0.90677(2)
O16 O 0.6050(3) 0.2868(2) 0.7864(2)
O17 O 0.7726(3) 0.2435(2) 0.8593(2)
O18 O 0.6750(3) 0.3628(2) 0.8486(2)
O19 O 0.7679(3) 0.3645(2) 0.7350(2)
O20 O 0.5969(3) 0.1570(2) 0.9241(2)
O21 O 0.8677(3) 0.2382(2) 0.7364(2)
O22 O 0.7807(3) 0.1014(2) 0.9205(2)
O23 O 0.5213(3) 0.2961(3) 1.0348(3)
O24 O 0.6955(3) 0.3692(3) 0.9669(2)
O25 O 0.9513(3) 0.3267(2) 0.8116(2)
O26 O 0.5875(3) 0.4224(2) 0.6542(2)
O27 O 0.5110(3) 0.1713(2) 0.8056(2)
O28 O 0.7036(3) 0.2808(2) 0.6668(2)
O29 O 0.8605(3) 0.3259(3) 0.9219(2)
O30 O 0.8560(3) 0.4448(2) 0.8007(2)
O31 O 1.0367(3) 0.2414(3) 0.9465(3)
O32 O 0.5843(3) 0.1632(3) 0.6838(2)
O33 O 0.7676(3) 0.4195(2) 0.5970(2)
O34 O 0.5064(3) 0.2937(3) 0.6803(2)
O35 O 0.8584(3) 0.4625(3) 0.9248(3)
O36 O 0.6984(3) 0.0769(3) 1.0532(3)
O37 O 0.6548(3) 0.4966(2) 0.7154(2)
O38 O 0.4964(3) 0.4199(3) 0.7659(2)
O39 O 0.7090(3) 0.1613(2) 0.7885(2)
O40 O 0.5040(3) 0.2742(2) 0.9138(2)
O41 O 0.5261(3) 0.4122(2) 0.8952(2)
O42 O 0.5069(3) 0.5508(3) 0.7775(2)
O43 O 0.4139(3) 0.2918(2) 0.7946(2)
O44 O 0.8817(3) 0.3085(3) 0.5860(2)
O45 O 0.9452(3) 0.1800(3) 0.8690(2)
O46 O 0.3789(3) 0.4117(3) 0.6616(3)
O47 O 0.8936(3) 0.0845(3) 0.8140(3)
O48 O 0.6684(3) 0.2316(3) 0.9842(2)
O49 O 0.8388(3) 0.4951(3) 0.6599(2)
O50 O 0.3878(3) 0.1592(3) 0.9198(2)
O51 O 0.9372(3) 0.3757(2) 0.6684(2)
O52 O 0.8513(3) 0.1761(3) 0.9843(2)
O53 O 0.6891(3) 0.4920(3) 0.8421(3)
O54 O 0.6808(3) 0.5565(3) 0.5664(3)
O55 O 1.0289(3) 0.4646(3) 0.7173(3)
O56 O 0.5920(4) -0.1431(3) 0.7489(3)
H25 H 0.64521 -0.14210 0.76925
H26 H 0.57485 -0.18792 0.76642
O57 O 0.7560(4) -0.1834(3) 0.8350(3)
H27 H 0.78220 -0.15805 0.85257
H28 H 0.77702 -0.22779 0.85836
O58 O 0.3918(4) 0.0600(4) 0.6658(4)
H29 H 0.34233 0.03804 0.66069
H30 H 0.37686 0.10577 0.64776
O59 O 0.7933(4) -0.0213(3) 0.3679(3)
N4 N 0.9422(5) -0.0850(4) 0.3951(4)
C43 C 0.8632(5) -0.0529(5) 0.3534(4)
H31 H 0.86128 -0.05465 0.31006
C44 C 1.0196(6) -0.1240(5) 0.3743(5)
H32 H 1.06987 -0.14329 0.41032
H33 H 0.99057 -0.16395 0.36976
H34 H 1.04920 -0.09045 0.32926
C45 C 0.9534(7) -0.0834(6) 0.4638(5)
H35 H 1.01403 -0.10898 0.48584
H36 H 0.95571 -0.03305 0.45540
H37 H 0.89785 -0.10702 0.49490
O60 O 0.8454(4) 0.6770(3) -0.0733(4)
N5 N 1.0134(4) 0.6669(4) -0.0812(4)
C46 C 0.9298(6) 0.7006(5) -0.0767(5)
H38 H 0.93489 0.74558 -0.07608
C47 C 1.0145(6) 0.5962(4) -0.0820(5)
H39 H 1.08211 0.58110 -0.08552
H40 H 0.98411 0.55997 -0.03859
H41 H 0.97808 0.60063 -0.12246
C48 C 1.1105(5) 0.7008(5) -0.0881(5)
H42 H 1.16239 0.66847 -0.09066
H43 H 1.11216 0.74713 -0.13100
H44 H 1.12042 0.70887 -0.04727
O61 O 0.3000(4) 0.2013(3) 0.5985(3)
N6 N 0.2052(4) 0.2109(4) 0.6848(4)
C49 C 0.2191(6) 0.2160(4) 0.6209(5)
H45 H 0.16540 0.23149 0.59003
C50 C 0.2868(6) 0.1859(7) 0.7358(5)
H46 H 0.26423 0.18537 0.77981
H47 H 0.30830 0.13701 0.74500
H48 H 0.34144 0.21889 0.71602
C51 C 0.1113(6) 0.2266(6) 0.7087(5)
H49 H 0.11686 0.21961 0.75691
H50 H 0.09135 0.27678 0.67790
H51 H 0.06252 0.19390 0.70757
N7 N 0.5664(4) 0.3555(3) 0.4751(3)
C52 C 0.6572(5) 0.3079(4) 0.4967(4)
H52 H 0.65133 0.26851 0.48426
H53 H 0.71417 0.33667 0.47238
H54 H 0.66511 0.28763 0.54761
C53 C 0.5743(5) 0.4171(4) 0.4941(4)
H55 H 0.51497 0.44769 0.47988
H56 H 0.58195 0.39716 0.54500
H57 H 0.63102 0.44620 0.46977
C54 C 0.5541(5) 0.3870(4) 0.3953(4)
H58 H 0.49513 0.41796 0.38114
H59 H 0.61108 0.41566 0.37091
H60 H 0.54816 0.34743 0.38310
C55 C 0.4786(5) 0.3091(4) 0.5142(4)
H61 H 0.41876 0.33915 0.50079
H62 H 0.47351 0.26963 0.50170
H63 H 0.48742 0.28889 0.56495
N8 N 1.2148(4) 0.3982(4) 0.8551(4)
C56 C 1.2825(6) 0.3565(6) 0.9161(5)
H64 H 1.29536 0.38595 0.93964
H65 H 1.25170 0.31149 0.94958
H66 H 1.34408 0.34511 0.89858
C57 C 1.2632(6) 0.4679(5) 0.8011(6)
H67 H 1.27533 0.49899 0.82296
H68 H 1.32519 0.45569 0.78467
H69 H 1.21988 0.49351 0.76109
C58 C 1.1200(5) 0.4178(5) 0.8819(4)
H70 H 1.13422 0.44829 0.90412
H71 H 1.07615 0.44430 0.84247
H72 H 1.08877 0.37356 0.91636
C59 C 1.1967(5) 0.3511(5) 0.8202(4)
H73 H 1.15302 0.37689 0.78054
H74 H 1.25884 0.33974 0.80332
H75 H 1.16646 0.30613 0.85432
N9 N 0.4408(4) 0.0413(3) 1.1320(3)
C60 C 0.4500(6) 0.1229(4) 1.0949(4)
H76 H 0.39866 0.14447 1.05995
H77 H 0.44312 0.14145 1.12937
H78 H 0.51405 0.13549 1.07151
C61 C 0.4492(6) 0.0136(4) 1.0777(4)
H79 H 0.44333 -0.03917 1.10122
H80 H 0.39692 0.03548 1.04357
H81 H 0.51263 0.02646 1.05342
C62 C 0.3413(5) 0.0220(4) 1.1691(4)
H82 H 0.33509 -0.03074 1.19315
H83 H 0.33520 0.04055 1.20356
H84 H 0.28961 0.04366 1.13442
C63 C 0.5202(5) 0.0073(4) 1.1865(4)
H85 H 0.51384 -0.04543 1.21028
H86 H 0.58439 0.01965 1.16325
H87 H 0.51346 0.02562 1.22111
N10 N 0.2153(5) 0.2981(4) 0.3099(4)
C64 C 0.1821(8) 0.3114(9) 0.2383(7)
H88 H 0.19735 0.26856 0.23176
H89 H 0.11157 0.32120 0.23473
H90 H 0.21602 0.35313 0.20190
C65 C 0.3238(6) 0.2848(6) 0.3142(6)
H91 H 0.33989 0.24139 0.30890
H92 H 0.35617 0.32652 0.27666
H93 H 0.34606 0.27792 0.35990
C66 C 0.1601(6) 0.2352(5) 0.3654(6)
H94 H 0.17556 0.19151 0.36048
H95 H 0.17901 0.22750 0.41210
H96 H 0.08979 0.24594 0.35973
C67 C 0.1909(7) 0.3646(5) 0.3180(6)
H97 H 0.12012 0.37339 0.31524
H98 H 0.21329 0.35766 0.36373
H99 H 0.22340 0.40626 0.28049
O62 O 0.6505(5) -0.1767(4) 0.5177(4)
H100 H 0.66944 -0.18399 0.48240
H101 H 0.58820 -0.18343 0.52427
O63? O 0.5875(17) -0.1285(14) 0.4579(14)
H102? H 0.57850 -0.15720 0.50229
H103? H 0.64377 -0.14207 0.44777
O4A O 1.2261(3) 0.8593(3) 0.4737(3)
O5A O 1.2031(4) 0.8987(3) 0.5551(3)
O6A O 0.9211(3) 0.6844(3) 0.5302(3)
O7A O 1.2051(3) 0.5491(3) 0.6171(3)
N1A N 1.0581(4) 0.6121(3) 0.5793(3)
C1A C 1.1949(5) 0.8490(4) 0.5352(4)
C2A C 1.1550(5) 0.7765(4) 0.5870(4)
C3A C 1.1566(5) 0.7515(4) 0.6597(4)
H7A H 1.17939 0.78205 0.67777
C4A C 1.1252(5) 0.6822(4) 0.7063(4)
H8A H 1.12777 0.66629 0.75547
C5A C 1.0895(5) 0.6351(4) 0.6813(4)
H9A H 1.06766 0.58819 0.71283
C6A C 1.0877(4) 0.6611(4) 0.6070(4)
C7A C 1.1205(5) 0.7302(4) 0.5593(4)
H10A H 1.11991 0.74604 0.51014
C8A C 0.9711(5) 0.6316(4) 0.5379(4)
C9A C 1.1267(5) 0.5562(4) 0.5870(3)
C10A C 1.0995(5) 0.5067(4) 0.5553(4)
C11A C 1.0121(4) 0.5234(4) 0.5153(3)
C12A C 0.9478(4) 0.5820(4) 0.5063(3)
C13A C 0.8614(5) 0.5954(4) 0.4678(4)
H11A H 0.81866 0.63424 0.46290
C14A C 0.8379(5) 0.5509(4) 0.4360(4)
H12A H 0.78047 0.56043 0.40923
O8A O 1.1640(4) 0.0429(3) 1.4051(3)
O9A O 1.2443(4) 0.0093(3) 1.3324(3)
O10A O 1.1376(3) 0.1203(3) 1.0879(3)
O11A O 0.8615(4) -0.0151(3) 1.1872(3)
N2A N 0.9961(4) 0.0560(3) 1.1352(3)
C15A C 1.1687(5) 0.0379(4) 1.3471(4)
C16A C 1.0832(5) 0.0653(4) 1.2974(4)
C17A C 1.0040(6) 0.1041(5) 1.3093(4)
H13A H 1.00493 0.11443 1.34805
C18A C 0.9245(5) 0.1272(5) 1.2640(5)
H14A H 0.87160 0.15290 1.27257
C19A C 0.9219(5) 0.1128(4) 1.2056(4)
H15A H 0.86866 0.12977 1.17438
C20A C 1.0005(5) 0.0726(4) 1.1945(4)
C21A C 1.0795(5) 0.0481(4) 1.2402(4)
H16A H 1.13070 0.02010 1.23317
C22A C 1.0738(5) 0.0816(4) 1.0846(4)
C23A C 0.9215(5) 0.0076(4) 1.1383(4)
C24A C 0.9228(5) -0.0137(4) 1.0800(4)
C25A C 0.9982(5) 0.0108(4) 1.0280(4)
C26A C 1.0740(4) 0.0577(4) 1.0274(4)
C27A C 1.1482(5) 0.0804(4) 0.9766(4)
H17A H 1.19820 0.11002 0.97815
C28A C 1.1491(5) 0.0589(4) 0.9217(4)
H18A H 1.19878 0.07545 0.88633
O12A O 0.4629(4) 0.7820(3) -0.4217(3)
O13A O 0.4249(3) 0.9002(3) -0.4564(2)
O14A O 0.2702(3) 0.6167(3) -0.1407(3)
O15A O 0.5844(3) 0.7012(3) -0.1698(3)
N3A N 0.4260(4) 0.6614(3) -0.1510(3)
C29A C 0.4288(5) 0.8324(4) -0.4098(4)
C30A C 0.3979(4) 0.8161(4) -0.3354(4)
C31A C 0.3553(5) 0.8698(4) -0.3197(4)
H19A H 0.34181 0.91675 -0.35667
C32A C 0.3322(5) 0.8544(4) -0.2485(4)
H20A H 0.30288 0.89086 -0.23883
C33A C 0.3528(5) 0.7855(4) -0.1929(4)
H21A H 0.33855 0.77526 -0.14566
C34A C 0.3958(5) 0.7310(4) -0.2088(4)
C35A C 0.4166(4) 0.7454(4) -0.2785(3)
H22A H 0.44325 0.70807 -0.28808
C36A C 0.3532(5) 0.6079(4) -0.1169(4)
C37A C 0.5269(5) 0.6531(4) -0.1339(4)
C38A C 0.5573(5) 0.5839(4) -0.0715(3)
C39A C 0.4853(5) 0.5319(4) -0.0311(3)
C40A C 0.3851(5) 0.5414(4) -0.0518(3)
C41A C 0.3158(5) 0.4910(4) -0.0107(4)
H23A H 0.24935 0.49901 -0.02393
C42A C 0.3441(4) 0.4273(4) 0.0510(3)
H24A H 0.29682 0.39266 0.07820
Tb1A Tb 0.31191(2) 0.96767(2) -0.54825(2)
O1A O 0.3052(4) 1.0378(3) -0.4859(3)
H1A H 0.32414 1.08190 -0.50115
H2A H 0.27213 1.02591 -0.44710
O2A O 0.4259(4) 1.0603(3) -0.6085(3)
H3A H 0.42335 1.08850 -0.65343
H4A H 0.47237 1.07457 -0.59157
O3A O 0.4209(4) 0.9151(3) -0.6045(3)
H5A H 0.40467 0.88896 -0.62426
H6A H 0.48031 0.92888 -0.61754
Tb1A* Tb 1.31191(2) -0.03233(2) 1.45175(2)
Tb1A** Tb 1.31191(2) 0.96767(2) 0.45175(2)
O4A* O 0.2261(3) 0.8593(3) -0.5263(3)
O5A* O 0.2031(4) 0.8987(3) -0.4449(3)
O8A* O 0.1640(4) 1.0429(3) -0.5949(3)
O9A* O 0.2443(4) 1.0093(3) -0.6676(3)
#END
