
#######################################################################
#
#                 Cambridge Crystallographic Data Centre
#                                CCDC
#
#######################################################################
#
# If this CIF has been generated from an entry in the Cambridge
# Structural Database, then it will include bibliographic, chemical,
# crystal, experimental, refinement or atomic coordinate data resulting
# from the CCDC's data processing and validation procedures.
#
#######################################################################

data_CSD_CIF_IGOZIP
_audit_creation_date 2015-05-05
_audit_creation_method CSD-ConQuest-V1
_database_code_CSD IGOZIP
_database_code_depnum_ccdc_archive 'CCDC 1013793'
_chemical_formula_sum 'C24 H39 Cd2 Mn1 O37.5 Yb2'
_chemical_formula_moiety
;
(H12 Mn1 O6 2+)n,2n(C12 H12 Cd1 O15 Yb1 1-),1.5n(H2 O1)
;
_journal_coden_Cambridge 9
_journal_volume 54
_journal_year 2015
_journal_page_first 4456
_journal_name_full 'Inorg.Chem. '
loop_
_publ_author_name
"Ying Wang"
"Xiu-Guang Wang"
"Bin Yuan"
"Cheng-Yuan Shao"
"Yuan-Yuan Chen"
"Bing-Bing Zhou"
"Ming-Shu Li"
"Xiao-Mai An"
"Peng Cheng"
"Xiao-Jun Zhao"
_chemical_name_systematic
;
catena-[Hexa-aqua-manganese(ii) 
bis(tris(\m~3~-2,2'-oxydiacetato)-cadmium-ytterbium) sesquihydrate]
;
_cell_volume  17426.556
_exptl_crystal_density_diffrn 2.368
_diffrn_ambient_temperature 293
#These two values have been output from a single CSD field.
_refine_ls_R_factor_gt 0.0592
_refine_ls_wR_factor_gt 0.0592
_symmetry_cell_setting cubic
_symmetry_space_group_name_H-M 'F d -3 c'
_symmetry_Int_Tables_number 228
loop_
_symmetry_equiv_pos_site_id
_symmetry_equiv_pos_as_xyz
1 x,y,z
2 -y,1/4+x,3/4+z
3 1/4-x,1/4-y,z
4 1/4+y,-x,3/4+z
5 1/4+x,-z,3/4+y
6 x,1/4-y,1/4-z
7 1/4+x,3/4+z,-y
8 1/4+z,3/4+y,-x
9 1/4-x,y,1/4-z
10 -z,1/4+y,3/4+x
11 z,x,y
12 y,z,x
13 1/4-y,1/4-z,x
14 z,1/4-x,1/4-y
15 1/4-y,z,1/4-x
16 1/4-z,1/4-x,y
17 1/4-z,x,1/4-y
18 y,1/4-z,1/4-x
19 1/4+y,3/4+x,-z
20 -y,-x,1/2-z
21 -x,1/4+z,3/4+y
22 -x,-z,1/2-y
23 1/4+z,-y,3/4+x
24 -z,-y,1/2-x
25 x,1/2+y,1/2+z
26 -y,3/4+x,1/4+z
27 1/4-x,3/4-y,1/2+z
28 1/4+y,1/2-x,1/4+z
29 1/4+x,1/2-z,1/4+y
30 x,3/4-y,3/4-z
31 1/4+x,1/4+z,1/2-y
32 1/4+z,1/4+y,1/2-x
33 1/4-x,1/2+y,3/4-z
34 -z,3/4+y,1/4+x
35 z,1/2+x,1/2+y
36 y,1/2+z,1/2+x
37 1/4-y,3/4-z,1/2+x
38 z,3/4-x,3/4-y
39 1/4-y,1/2+z,3/4-x
40 1/4-z,3/4-x,1/2+y
41 1/4-z,1/2+x,3/4-y
42 y,3/4-z,3/4-x
43 1/4+y,1/4+x,1/2-z
44 -y,1/2-x,-z
45 -x,3/4+z,1/4+y
46 -x,1/2-z,-y
47 1/4+z,1/2-y,1/4+x
48 -z,1/2-y,-x
49 1/2+x,y,1/2+z
50 1/2-y,1/4+x,1/4+z
51 3/4-x,1/4-y,1/2+z
52 3/4+y,-x,1/4+z
53 3/4+x,-z,1/4+y
54 1/2+x,1/4-y,3/4-z
55 3/4+x,3/4+z,1/2-y
56 3/4+z,3/4+y,1/2-x
57 3/4-x,y,3/4-z
58 1/2-z,1/4+y,1/4+x
59 1/2+z,x,1/2+y
60 1/2+y,z,1/2+x
61 3/4-y,1/4-z,1/2+x
62 1/2+z,1/4-x,3/4-y
63 3/4-y,z,3/4-x
64 3/4-z,1/4-x,1/2+y
65 3/4-z,x,3/4-y
66 1/2+y,1/4-z,3/4-x
67 3/4+y,3/4+x,1/2-z
68 1/2-y,-x,-z
69 1/2-x,1/4+z,1/4+y
70 1/2-x,-z,-y
71 3/4+z,-y,1/4+x
72 1/2-z,-y,-x
73 1/2+x,1/2+y,z
74 1/2-y,3/4+x,3/4+z
75 3/4-x,3/4-y,z
76 3/4+y,1/2-x,3/4+z
77 3/4+x,1/2-z,3/4+y
78 1/2+x,3/4-y,1/4-z
79 3/4+x,1/4+z,-y
80 3/4+z,1/4+y,-x
81 3/4-x,1/2+y,1/4-z
82 1/2-z,3/4+y,3/4+x
83 1/2+z,1/2+x,y
84 1/2+y,1/2+z,x
85 3/4-y,3/4-z,x
86 1/2+z,3/4-x,1/4-y
87 3/4-y,1/2+z,1/4-x
88 3/4-z,3/4-x,y
89 3/4-z,1/2+x,1/4-y
90 1/2+y,3/4-z,1/4-x
91 3/4+y,1/4+x,-z
92 1/2-y,1/2-x,1/2-z
93 1/2-x,3/4+z,3/4+y
94 1/2-x,1/2-z,1/2-y
95 3/4+z,1/2-y,3/4+x
96 1/2-z,1/2-y,1/2-x
97 -x,-y,-z
98 y,-1/4-x,-3/4-z
99 -1/4+x,-1/4+y,-z
100 -1/4-y,x,-3/4-z
101 -1/4-x,z,-3/4-y
102 -x,-1/4+y,-1/4+z
103 -1/4-x,-3/4-z,y
104 -1/4-z,-3/4-y,x
105 -1/4+x,-y,-1/4+z
106 z,-1/4-y,-3/4-x
107 -z,-x,-y
108 -y,-z,-x
109 -1/4+y,-1/4+z,-x
110 -z,-1/4+x,-1/4+y
111 -1/4+y,-z,-1/4+x
112 -1/4+z,-1/4+x,-y
113 -1/4+z,-x,-1/4+y
114 -y,-1/4+z,-1/4+x
115 -1/4-y,-3/4-x,z
116 y,x,-1/2+z
117 x,-1/4-z,-3/4-y
118 x,z,-1/2+y
119 -1/4-z,y,-3/4-x
120 z,y,-1/2+x
121 -x,-1/2-y,-1/2-z
122 y,-3/4-x,-1/4-z
123 -1/4+x,-3/4+y,-1/2-z
124 -1/4-y,-1/2+x,-1/4-z
125 -1/4-x,-1/2+z,-1/4-y
126 -x,-3/4+y,-3/4+z
127 -1/4-x,-1/4-z,-1/2+y
128 -1/4-z,-1/4-y,-1/2+x
129 -1/4+x,-1/2-y,-3/4+z
130 z,-3/4-y,-1/4-x
131 -z,-1/2-x,-1/2-y
132 -y,-1/2-z,-1/2-x
133 -1/4+y,-3/4+z,-1/2-x
134 -z,-3/4+x,-3/4+y
135 -1/4+y,-1/2-z,-3/4+x
136 -1/4+z,-3/4+x,-1/2-y
137 -1/4+z,-1/2-x,-3/4+y
138 -y,-3/4+z,-3/4+x
139 -1/4-y,-1/4-x,-1/2+z
140 y,-1/2+x,z
141 x,-3/4-z,-1/4-y
142 x,-1/2+z,y
143 -1/4-z,-1/2+y,-1/4-x
144 z,-1/2+y,x
145 -1/2-x,-y,-1/2-z
146 -1/2+y,-1/4-x,-1/4-z
147 -3/4+x,-1/4+y,-1/2-z
148 -3/4-y,x,-1/4-z
149 -3/4-x,z,-1/4-y
150 -1/2-x,-1/4+y,-3/4+z
151 -3/4-x,-3/4-z,-1/2+y
152 -3/4-z,-3/4-y,-1/2+x
153 -3/4+x,-y,-3/4+z
154 -1/2+z,-1/4-y,-1/4-x
155 -1/2-z,-x,-1/2-y
156 -1/2-y,-z,-1/2-x
157 -3/4+y,-1/4+z,-1/2-x
158 -1/2-z,-1/4+x,-3/4+y
159 -3/4+y,-z,-3/4+x
160 -3/4+z,-1/4+x,-1/2-y
161 -3/4+z,-x,-3/4+y
162 -1/2-y,-1/4+z,-3/4+x
163 -3/4-y,-3/4-x,-1/2+z
164 -1/2+y,x,z
165 -1/2+x,-1/4-z,-1/4-y
166 -1/2+x,z,y
167 -3/4-z,y,-1/4-x
168 -1/2+z,y,x
169 -1/2-x,-1/2-y,-z
170 -1/2+y,-3/4-x,-3/4-z
171 -3/4+x,-3/4+y,-z
172 -3/4-y,-1/2+x,-3/4-z
173 -3/4-x,-1/2+z,-3/4-y
174 -1/2-x,-3/4+y,-1/4+z
175 -3/4-x,-1/4-z,y
176 -3/4-z,-1/4-y,x
177 -3/4+x,-1/2-y,-1/4+z
178 -1/2+z,-3/4-y,-3/4-x
179 -1/2-z,-1/2-x,-y
180 -1/2-y,-1/2-z,-x
181 -3/4+y,-3/4+z,-x
182 -1/2-z,-3/4+x,-1/4+y
183 -3/4+y,-1/2-z,-1/4+x
184 -3/4+z,-3/4+x,-y
185 -3/4+z,-1/2-x,-1/4+y
186 -1/2-y,-3/4+z,-1/4+x
187 -3/4-y,-1/4-x,z
188 -1/2+y,-1/2+x,-1/2+z
189 -1/2+x,-3/4-z,-3/4-y
190 -1/2+x,-1/2+z,-1/2+y
191 -3/4-z,-1/2+y,-3/4-x
192 -1/2+z,-1/2+y,-1/2+x
_cell_length_a 25.9261(11)
_cell_length_b 25.9261(11)
_cell_length_c 25.9261(11)
_cell_angle_alpha 90
_cell_angle_beta 90
_cell_angle_gamma 90
_cell_formula_units_Z 16
loop_
_atom_type_symbol
_atom_type_radius_bond
C 0.68
H 0.23
Cd 1.44
Mn 1.61
O 0.68
Yb 1.87
loop_
_atom_site_label
_atom_site_type_symbol
_atom_site_fract_x
_atom_site_fract_y
_atom_site_fract_z
Yb1 Yb 1.00000 0.50000 1.00000
Cd1 Cd 1.00000 0.75000 1.00000
O1 O 0.9861(4) 0.5821(6) 1.0223(6)
O2 O 0.9918(5) 0.6652(6) 1.0305(7)
C1 C 0.9896(14) 0.6258(9) 1.0029(13)
O3 O 1.00000 0.6835(6) 0.9335(6)
C2 C 0.9959(8) 0.6319(9) 0.9447(9)
H1 H 1.02650 0.61380 0.93310
H2 H 0.96630 0.61740 0.92700
Mn1 Mn 0.12500 0.62500 0.12500
O4 O 0.0418(7) 0.62500 0.12500
H3 H 0.02280 0.61590 0.09990
O5 O 0.9215(19) 0.62500 0.12500
H4 H 0.94040 0.59820 0.12250
O1RA O 1.0139(4) 0.7723(6) 0.8321(6)
O2RA O 1.0082(5) 0.7805(6) 0.9152(7)
C1RA C 1.0104(14) 0.7529(9) 0.8758(13)
C2RA C 1.0041(8) 0.6947(9) 0.8819(9)
H1RA H 0.97350 0.68310 0.86380
H2RA H 1.03370 0.67700 0.86740
O1R O 0.8321(4) 0.7361(6) 0.9777(6)
O2R O 0.9152(5) 0.7418(6) 0.9695(7)
C1R C 0.8758(14) 0.7396(9) 0.9971(13)
O3R O 0.93350 0.7500(6) 1.0665(6)
C2R C 0.8819(8) 0.7459(9) 1.0553(9)
H1R H 0.86380 0.77650 1.06690
H2R H 0.86740 0.71630 1.07300
O1KA O 1.0223(4) 0.7639(6) 1.1679(6)
O2KA O 1.0305(5) 0.7582(6) 1.0848(7)
C1KA C 1.0029(14) 0.7604(9) 1.1242(13)
C2KA C 0.9447(8) 0.7541(9) 1.1181(9)
H1KA H 0.93310 0.72350 1.13620
H2KA H 0.92700 0.78370 1.13260
O1UA O 0.9777(4) 0.9179(6) 1.0139(6)
O2UA O 0.9695(5) 0.8348(6) 1.0082(7)
C1UA C 0.9971(14) 0.8742(9) 1.0104(13)
O3UA O 1.06650 0.8165(6) 1.0000(6)
C2UA C 1.0553(8) 0.8681(9) 1.0041(9)
H1UA H 1.06690 0.88620 0.97350
H2UA H 1.07300 0.88260 1.03370
O1FC O 1.1679(4) 0.7277(6) 0.9861(6)
O2FC O 1.0848(5) 0.7195(6) 0.9918(7)
C1FC C 1.1242(14) 0.7471(9) 0.9896(13)
C2FC C 1.1181(8) 0.8053(9) 0.9959(9)
H1FC H 1.13620 0.81690 1.02650
H2FC H 1.13260 0.82300 0.96630
Yb1B Yb 1.25000 0.75000 1.00000
Yb1E Yb 1.00000 0.75000 1.25000
Yb1I Yb 1.00000 0.75000 0.75000
Yb1R Yb 0.75000 0.75000 1.00000
Yb1U Yb 1.00000 1.00000 1.00000
O1HA O 1.0223(4) 0.4861(6) 1.0821(6)
O1EC O 1.0821(4) 0.5223(6) 0.9861(6)
O1RC O 1.0139(4) 0.4179(6) 0.9777(6)
O1ZD O 0.9777(4) 0.5139(6) 0.9179(6)
O1WF O 0.9179(4) 0.4777(6) 1.0139(6)
H3E H 0.02280 0.63410 0.15010
O4B O 0.2082(7) 0.62500 0.12500
H3B H 0.22720 0.63410 0.09990
H3H H 0.22720 0.61590 0.15010
O4HA O 0.1250(7) 0.54180 0.12500
H3HA H 0.09990 0.52280 0.11590
H3NA H 0.15010 0.52280 0.13410
O4KA O 0.1250(7) 0.70820 0.12500
H3KA H 0.09990 0.72720 0.13410
H3MA H 0.15010 0.72720 0.11590
O4EC O 0.1250(7) 0.62500 0.04180
H3EC H 0.11590 0.59990 0.02280
H3FC H 0.13410 0.65010 0.02280
O4HC O 0.1250(7) 0.62500 0.20820
H3HC H 0.13410 0.59990 0.22720
H3KC H 0.11590 0.65010 0.22720
H4E H 0.94040 0.65180 0.12750
#END
