
#######################################################################
#
#                 Cambridge Crystallographic Data Centre
#                                CCDC
#
#######################################################################
#
# If this CIF has been generated from an entry in the Cambridge
# Structural Database, then it will include bibliographic, chemical,
# crystal, experimental, refinement or atomic coordinate data resulting
# from the CCDC's data processing and validation procedures.
#
#######################################################################

data_CSD_CIF_IGOZEM
_audit_creation_date 2020-03-04
_audit_creation_method CSD-ConQuest-V1
_database_code_CSD IGOZEM
_database_code_depnum_ccdc_archive 'CCDC 1976086'
_chemical_formula_sum 'C134 H202 Dy2 N20 O124 Si2 W24'
_chemical_formula_moiety
;
(C84 H48 Dy2 N6 O30)n,2n(O40 Si1 W12 4-),8n(C4 H12 N1 1+),6n(C3 H7 N1 
O1),8n(H2 O1)
;
_journal_coden_Cambridge 222
_journal_volume 49
_journal_year 2020
_journal_page_first 3408
_journal_name_full 'Dalton Trans. '
loop_
_publ_author_name
"Xiao-Yuan Wu"
"Hai-Long Zhang"
"Sa-Sa Wang"
"Weiming Wu"
"Lang Lin"
"Xiao-Yu Jiang"
"Can-Zhong Lu"
_chemical_name_systematic
;
catena-(octakis(tetramethylammonium) 
tris(\m-3,3'-(1,3,6,8-tetraoxo-1,3,6,8-tetrahydrobenzo[lmn][3,8]phenanthroline
-2,7-diyl)dibenzoato)-hexa-aqua-di-dysprosium(iii) 
bis(tetracosakis(\m-oxo)-(\m-silicato)-dodecaoxo-dodeca-tungsten) 
dimethylformamide solvate octahydrate)
;
_cell_volume   5105.075
_exptl_crystal_colour 'yellowish'
_exptl_crystal_density_diffrn 2.885
_exptl_crystal_description 'block'
_diffrn_ambient_temperature 100
_refine_special_details
;
O84 and O85 disordered over two sites with occupancies 0.778:0.222.

;
#These two values have been output from a single CSD field.
_refine_ls_R_factor_gt 0.0298
_refine_ls_wR_factor_gt 0.0298
_symmetry_cell_setting triclinic
_symmetry_space_group_name_H-M 'P -1'
_symmetry_Int_Tables_number 2
loop_
_symmetry_equiv_pos_site_id
_symmetry_equiv_pos_as_xyz
1 x,y,z
2 -x,-y,-z
_cell_length_a 13.4365(3)
_cell_length_b 20.3963(5)
_cell_length_c 20.9995(6)
_cell_angle_alpha 62.581(3)
_cell_angle_beta 88.293(2)
_cell_angle_gamma 88.125(2)
_cell_formula_units_Z 1
loop_
_atom_type_symbol
_atom_type_radius_bond
C 0.68
H 0.23
Dy 1.92
N 0.68
O 0.68
Si 1.20
W 1.62
loop_
_atom_site_label
_atom_site_type_symbol
_atom_site_fract_x
_atom_site_fract_y
_atom_site_fract_z
W1 W 0.39595(2) 0.28473(2) 0.77330(2)
O1 O 0.3949(3) 0.2129(3) 0.7135(2)
O2 O 0.4893(3) 0.3289(3) 0.6945(2)
O3 O 0.2912(3) 0.3387(3) 0.7110(2)
O4 O 0.4936(3) 0.2068(3) 0.8197(2)
O5 O 0.4162(3) 0.3364(3) 0.8167(2)
O6 O 0.2971(3) 0.2194(3) 0.8341(2)
Si1 Si 0.29477(12) 0.18543(11) 0.69253(9)
W2 W 0.51528(2) 0.28769(2) 0.62971(2)
W3 W 0.51999(2) 0.13323(2) 0.78818(2)
W4 W 0.16052(2) 0.34464(2) 0.67398(2)
W5 W 0.16967(2) 0.17482(2) 0.84798(2)
O7 O 0.3247(3) 0.1373(3) 0.6514(2)
O8 O 0.2272(3) 0.2568(3) 0.6410(2)
O9 O 0.2322(3) 0.1343(3) 0.7657(2)
O10 O 0.5866(3) 0.2079(3) 0.7055(2)
O11 O 0.6122(3) 0.3400(3) 0.5809(2)
O12 O 0.4964(3) 0.2254(3) 0.5861(2)
O13 O 0.4036(3) 0.3430(3) 0.5758(2)
O14 O 0.6206(3) 0.0880(3) 0.8392(3)
O15 O 0.4127(3) 0.0777(3) 0.8461(2)
O16 O 0.5036(3) 0.0806(3) 0.7340(2)
O17 O 0.1074(3) 0.4158(3) 0.6857(3)
O18 O 0.0548(3) 0.3202(3) 0.6309(2)
O19 O 0.1317(3) 0.2622(3) 0.7632(2)
O20 O 0.2188(3) 0.3993(3) 0.5792(2)
O21 O 0.0635(3) 0.1245(3) 0.8314(2)
O22 O 0.1183(3) 0.1916(3) 0.9142(2)
O23 O 0.2323(3) 0.0811(3) 0.9031(2)
W6 W 0.41389(2) 0.18306(2) 0.54265(2)
W7 W 0.20991(2) 0.08186(2) 0.60975(2)
W8 W 0.42401(2) 0.02822(2) 0.69941(2)
W9 W 0.27985(2) 0.35036(2) 0.52916(2)
W10 W 0.07503(2) 0.25030(2) 0.59305(2)
W11 W 0.29195(2) 0.02416(2) 0.85901(2)
W12 W 0.08059(2) 0.08122(2) 0.76771(2)
O24 O 0.3317(3) 0.2690(3) 0.5157(2)
O25 O 0.3046(3) 0.1306(3) 0.5328(2)
O26 O 0.4743(3) 0.0879(3) 0.6048(2)
O27 O 0.4788(3) 0.2039(3) 0.4650(2)
O28 O 0.3103(3) 0.0076(3) 0.6583(2)
O29 O 0.1401(3) 0.0378(3) 0.5756(3)
O30 O 0.1388(3) 0.1742(3) 0.5777(2)
O31 O 0.1437(3) 0.0557(3) 0.6992(2)
O32 O 0.4921(3) -0.0519(3) 0.7226(2)
O33 O 0.3443(3) 0.0043(3) 0.7841(2)
O34 O 0.1491(3) 0.3237(3) 0.5151(2)
O35 O 0.3018(3) 0.4233(3) 0.4473(2)
O36 O 0.0478(3) 0.1731(3) 0.6884(2)
O37 O -0.0367(3) 0.2585(3) 0.5532(3)
O38 O 0.1609(3) 0.0051(3) 0.8401(2)
O39 O 0.3190(3) -0.0567(3) 0.9334(2)
O40 O -0.0295(3) 0.0355(3) 0.7825(2)
Dy1 Dy 0.31196(2) 0.46733(2) -0.04788(2)
O41 O 0.4263(4) 0.5589(3) -0.1073(3)
H1 H 0.47253 0.57333 -0.09024
H2 H 0.42370 0.58711 -0.15221
O42 O 0.4205(4) 0.4148(3) -0.1034(3)
H3 H 0.40436 0.38863 -0.12319
H4 H 0.47988 0.42874 -0.11647
O43 O 0.3057(4) 0.5376(3) 0.0136(3)
H5 H 0.27234 0.52591 0.05221
H6 H 0.32428 0.58191 -0.00193
O44 O 0.1650(4) 0.5410(3) -0.0933(3)
O45 O 0.2461(4) 0.5085(3) -0.1675(3)
O46 O -0.1388(4) 0.4840(3) -0.3123(3)
O47 O 0.1374(4) 0.6205(3) -0.4115(3)
O48 O 0.2265(3) 0.3596(3) -0.0258(3)
O49 O 0.2047(4) 0.3988(3) 0.0554(3)
O50 O -0.0788(3) 0.1844(3) 0.0301(3)
O51 O 0.2052(3) 0.0493(3) 0.1176(3)
O52 O 0.4247(3) 0.4009(3) 0.0429(3)
O53 O 0.4630(4) 0.2829(3) 0.0781(3)
O54 O 0.2699(3) 0.1177(3) 0.3589(3)
O55 O 0.5850(3) 0.2011(3) 0.3298(3)
N1 N -0.0034(4) 0.5553(4) -0.3640(3)
N2 N 0.0580(4) 0.1124(3) 0.0791(3)
N3 N 0.4253(4) 0.1615(4) 0.3488(3)
C1 C 0.1701(5) 0.5369(5) -0.1518(4)
C2 C 0.0838(5) 0.5632(4) -0.2017(4)
C3 C 0.0053(6) 0.6026(5) -0.1897(4)
H7 H 0.00713 0.61292 -0.15097
C4 C -0.0755(6) 0.6268(5) -0.2350(5)
H8 H -0.12816 0.65257 -0.22652
C5 C -0.0768(6) 0.6121(5) -0.2927(4)
H9 H -0.13012 0.62896 -0.32391
C6 C 0.0001(5) 0.5727(4) -0.3044(4)
C7 C 0.0800(5) 0.5477(4) -0.2590(4)
H10 H 0.13121 0.52041 -0.26701
C8 C -0.0781(5) 0.5073(5) -0.3618(4)
C9 C 0.0744(5) 0.5813(4) -0.4156(4)
C10 C 0.0737(5) 0.5575(4) -0.4715(3)
C11 C -0.0008(5) 0.5113(4) -0.4733(4)
C12 C -0.0775(5) 0.4867(4) -0.4203(4)
C13 C -0.1497(5) 0.4418(4) -0.4223(4)
H11 H -0.20029 0.42616 -0.38758
C14 C -0.1482(5) 0.4192(4) -0.4763(4)
H12 H -0.19742 0.38855 -0.47690
C15 C 0.1960(5) 0.3491(5) 0.0357(4)
C16 C 0.1555(5) 0.2768(4) 0.0863(4)
C17 C 0.1584(5) 0.2519(4) 0.1602(4)
H13 H 0.18226 0.28219 0.17825
C18 C 0.1257(5) 0.1820(5) 0.2066(4)
H14 H 0.12811 0.16543 0.25586
C19 C 0.0893(5) 0.1365(5) 0.1805(4)
H15 H 0.06607 0.08991 0.21190
C20 C 0.0880(5) 0.1612(4) 0.1073(4)
C21 C 0.1209(5) 0.2305(4) 0.0601(4)
H16 H 0.11988 0.24620 0.01092
C22 C -0.0287(5) 0.1316(4) 0.0374(4)
C23 C 0.1271(5) 0.0552(4) 0.0869(3)
C24 C 0.0999(5) 0.0069(4) 0.0551(4)
C25 C 0.0115(5) 0.0229(4) 0.0153(4)
C26 C -0.0515(5) 0.0822(4) 0.0061(4)
C27 C -0.1384(5) 0.0957(4) -0.0325(4)
H17 H -0.18078 0.13480 -0.03782
C28 C -0.1623(5) 0.0505(4) -0.0635(4)
H18 H -0.22029 0.05962 -0.08968
C29 C 0.4301(5) 0.3330(5) 0.0896(4)
C30 C 0.3980(5) 0.3159(5) 0.1651(4)
C31 C 0.3555(5) 0.3707(5) 0.1803(4)
H19 H 0.34248 0.41763 0.14313
C32 C 0.3325(5) 0.3553(4) 0.2513(4)
H20 H 0.30296 0.39163 0.26105
C33 C 0.3538(5) 0.2857(5) 0.3069(4)
H21 H 0.33984 0.27533 0.35424
C34 C 0.3957(5) 0.2324(4) 0.2911(4)
C35 C 0.4172(5) 0.2456(4) 0.2210(4)
H22 H 0.44381 0.20820 0.21161
C36 C 0.3536(5) 0.1088(4) 0.3829(4)
C37 C 0.5277(5) 0.1534(4) 0.3656(4)
C38 C 0.5572(5) 0.0844(4) 0.4285(4)
C39 C 0.4853(5) 0.0322(4) 0.4688(3)
C40 C 0.3843(5) 0.0412(4) 0.4485(4)
C41 C 0.3160(5) -0.0097(5) 0.4894(4)
H23 H 0.24957 -0.00230 0.47624
C42 C 0.3450(5) -0.0732(4) 0.5513(4)
H24 H 0.29787 -0.10776 0.57879
N4 N 0.4343(4) 0.1444(3) 1.0250(3)
C43 C 0.5219(5) 0.1902(4) 0.9868(4)
H25 H 0.58139 0.15993 1.00048
H26 H 0.51351 0.21049 0.93592
H27 H 0.52700 0.22962 0.99936
C44 C 0.4461(5) 0.1128(4) 1.1045(4)
H28 H 0.50488 0.08176 1.11881
H29 H 0.45192 0.15222 1.11700
H30 H 0.38892 0.08412 1.12864
C45 C 0.3431(5) 0.1926(4) 1.0029(4)
H31 H 0.28594 0.16388 1.02705
H32 H 0.34896 0.23198 1.01539
H33 H 0.33546 0.21285 0.95195
C46 C 0.4267(6) 0.0823(5) 1.0065(4)
H34 H 0.48605 0.05189 1.02109
H35 H 0.37001 0.05326 1.03092
H36 H 0.41925 0.10192 0.95564
N5 N 0.5587(4) 0.4584(4) 0.3679(3)
C47 C 0.4785(5) 0.4923(5) 0.3132(4)
H37 H 0.48472 0.54505 0.28915
H38 H 0.48493 0.47374 0.27870
H39 H 0.41440 0.47992 0.33661
C48 C 0.6577(5) 0.4787(4) 0.3306(4)
H40 H 0.66340 0.53147 0.30720
H41 H 0.70962 0.45690 0.36512
H42 H 0.66380 0.46081 0.29564
C49 C 0.5491(6) 0.4871(5) 0.4219(4)
H43 H 0.55595 0.53982 0.39808
H44 H 0.48499 0.47502 0.44527
H45 H 0.60029 0.46502 0.45694
C50 C 0.5482(6) 0.3769(4) 0.4046(4)
H46 H 0.48427 0.36466 0.42829
H47 H 0.55386 0.35857 0.36990
H48 H 0.59968 0.35466 0.43939
N6 N -0.2160(4) 0.1019(4) 0.6449(4)
C51 C -0.2638(6) 0.0318(5) 0.6986(6)
H49 H -0.21940 0.00532 0.73772
H50 H -0.32478 0.04357 0.71644
H51 H -0.27772 0.00164 0.67593
C52 C -0.2835(6) 0.1436(6) 0.5840(5)
H52 H -0.29745 0.11386 0.56092
H53 H -0.34451 0.15580 0.60142
H54 H -0.25206 0.18818 0.55014
C53 C -0.1957(5) 0.1494(5) 0.6796(5)
H55 H -0.15204 0.12326 0.71924
H56 H -0.16473 0.19392 0.64526
H57 H -0.25717 0.16154 0.69653
C54 C -0.1207(5) 0.0819(5) 0.6184(4)
H58 H -0.07746 0.05490 0.65817
H59 H -0.13486 0.05183 0.59572
H60 H -0.08872 0.12610 0.58445
N7 N 0.7847(5) 0.2032(5) 0.1899(4)
C55 C 0.8197(9) 0.1869(8) 0.2626(6)
H61 H 0.78418 0.14572 0.29842
H62 H 0.88970 0.17522 0.26594
H63 H 0.80754 0.22942 0.27036
C56 C 0.6752(6) 0.2149(7) 0.1859(6)
H64 H 0.64379 0.17258 0.22335
H65 H 0.65780 0.25796 0.19159
H66 H 0.65311 0.22179 0.14012
C57 C 0.8377(7) 0.2662(6) 0.1339(6)
H67 H 0.82194 0.30985 0.13885
H68 H 0.90817 0.25630 0.13860
H69 H 0.81763 0.27353 0.08749
C58 C 0.8081(7) 0.1357(6) 0.1830(5)
H70 H 0.77310 0.09497 0.21985
H71 H 0.78793 0.14267 0.13679
H72 H 0.87847 0.12543 0.18790
N8 N 0.7935(5) 0.2887(4) 0.8157(4)
O56 O 0.7021(4) 0.2977(4) 0.9031(4)
C59 C 0.7809(6) 0.2839(4) 0.8796(5)
H73 H 0.83547 0.26893 0.90971
C60 C 0.8874(6) 0.2740(6) 0.7906(5)
H74 H 0.88085 0.28053 0.74262
H75 H 0.93576 0.30741 0.79093
H76 H 0.90862 0.22406 0.82142
C61 C 0.7133(6) 0.3145(7) 0.7645(5)
H77 H 0.73581 0.31438 0.72073
H78 H 0.65766 0.28241 0.78402
H79 H 0.69332 0.36378 0.75485
N9 N -0.0143(5) -0.1669(4) 0.5815(4)
O57 O 0.1544(4) -0.1769(4) 0.5729(3)
C62 C 0.0701(6) -0.2009(6) 0.5771(5)
H80 H 0.06495 -0.24626 0.57713
C63 C -0.1105(5) -0.2016(5) 0.5886(4)
H81 H -0.16293 -0.16963 0.59110
H82 H -0.12008 -0.20991 0.54783
H83 H -0.11166 -0.24787 0.63159
C64 C -0.0136(6) -0.0953(5) 0.5822(5)
H84 H -0.08074 -0.07949 0.58565
H85 H 0.02323 -0.10005 0.62267
H86 H 0.01724 -0.05945 0.53875
N10 N 0.0581(5) 0.5859(4) 0.1039(4)
O58 O 0.2066(4) 0.5216(3) 0.1315(3)
C65 C 0.1359(6) 0.5542(5) 0.1459(5)
H87 H 0.13783 0.55651 0.18906
C66 C -0.0193(6) 0.6254(5) 0.1246(5)
H88 H -0.06944 0.64470 0.08850
H89 H -0.04900 0.59198 0.16967
H90 H 0.01002 0.66535 0.12907
C67 C 0.0465(6) 0.5841(6) 0.0354(5)
H91 H -0.01392 0.60983 0.01323
H92 H 0.10217 0.60751 0.00418
H93 H 0.04384 0.53371 0.04388
O59 O 0.4076(4) 0.6424(3) -0.2480(3)
H94 H 0.42478 0.68715 -0.26522
H95 H 0.35445 0.64148 -0.26848
O60 O 0.2439(4) 0.6842(3) -0.3352(3)
H96 H 0.22271 0.72860 -0.35833
H97 H 0.21752 0.65886 -0.35267
O61 O 0.6063(4) 0.4404(4) -0.1650(3)
H98 H 0.62130 0.39463 -0.14728
H99 H 0.65585 0.46229 -0.15984
O62 O 0.3479(5) 0.6776(4) -0.0176(4)
H100 H 0.37308 0.69920 -0.05970
H101 H 0.39398 0.67703 0.00951
O63? O 0.4124(16) 0.6261(14) 0.0423(13)
H102? H 0.42232 0.66469 0.00285
H103? H 0.37601 0.64101 0.06703
O44A O -0.1650(4) 0.4590(3) -0.9067(3)
O45A O -0.2461(4) 0.4915(3) -0.8325(3)
O46A O 0.1388(4) 0.5160(3) -0.6877(3)
O47A O -0.1374(4) 0.3795(3) -0.5885(3)
N1A N 0.0034(4) 0.4447(4) -0.6360(3)
C1A C -0.1701(5) 0.4631(5) -0.8482(4)
C2A C -0.0838(5) 0.4368(4) -0.7983(4)
C3A C -0.0053(6) 0.3974(5) -0.8103(4)
H7A H -0.00713 0.38708 -0.84903
C4A C 0.0755(6) 0.3732(5) -0.7650(5)
H8A H 0.12816 0.34743 -0.77348
C5A C 0.0768(6) 0.3879(5) -0.7073(4)
H9A H 0.13012 0.37104 -0.67609
C6A C -0.0001(5) 0.4273(4) -0.6956(4)
C7A C -0.0800(5) 0.4523(4) -0.7410(4)
H10A H -0.13121 0.47959 -0.73299
C8A C 0.0781(5) 0.4927(5) -0.6382(4)
C9A C -0.0744(5) 0.4187(4) -0.5844(4)
C10A C -0.0737(5) 0.4425(4) -0.5285(3)
C11A C 0.0008(5) 0.4887(4) -0.5267(4)
C12A C 0.0775(5) 0.5133(4) -0.5797(4)
C13A C 0.1497(5) 0.5582(4) -0.5777(4)
H11A H 0.20029 0.57384 -0.61242
C14A C 0.1482(5) 0.5808(4) -0.5237(4)
H12A H 0.19742 0.61145 -0.52310
O48A O -0.2265(3) -0.3596(3) 0.0258(3)
O49A O -0.2047(4) -0.3988(3) -0.0554(3)
O50A O 0.0788(3) -0.1844(3) -0.0301(3)
O51A O -0.2052(3) -0.0493(3) -0.1176(3)
N2A N -0.0580(4) -0.1124(3) -0.0791(3)
C15A C -0.1960(5) -0.3491(5) -0.0357(4)
C16A C -0.1555(5) -0.2768(4) -0.0863(4)
C17A C -0.1584(5) -0.2519(4) -0.1602(4)
H13A H -0.18226 -0.28219 -0.17825
C18A C -0.1257(5) -0.1820(5) -0.2066(4)
H14A H -0.12811 -0.16543 -0.25586
C19A C -0.0893(5) -0.1365(5) -0.1805(4)
H15A H -0.06607 -0.08991 -0.21190
C20A C -0.0880(5) -0.1612(4) -0.1073(4)
C21A C -0.1209(5) -0.2305(4) -0.0601(4)
H16A H -0.11988 -0.24620 -0.01092
C22A C 0.0287(5) -0.1316(4) -0.0374(4)
C23A C -0.1271(5) -0.0552(4) -0.0869(3)
C24A C -0.0999(5) -0.0069(4) -0.0551(4)
C25A C -0.0115(5) -0.0229(4) -0.0153(4)
C26A C 0.0515(5) -0.0822(4) -0.0061(4)
C27A C 0.1384(5) -0.0957(4) 0.0325(4)
H17A H 0.18078 -0.13480 0.03782
C28A C 0.1623(5) -0.0505(4) 0.0635(4)
H18A H 0.22029 -0.05962 0.08968
O52A O 0.5753(3) -0.4009(3) 0.9571(3)
O53A O 0.5370(4) -0.2829(3) 0.9219(3)
O54A O 0.7301(3) -0.1177(3) 0.6411(3)
O55A O 0.4150(3) -0.2011(3) 0.6702(3)
N3A N 0.5747(4) -0.1615(4) 0.6512(3)
C29A C 0.5699(5) -0.3330(5) 0.9104(4)
C30A C 0.6020(5) -0.3159(5) 0.8349(4)
C31A C 0.6445(5) -0.3707(5) 0.8197(4)
H19A H 0.65752 -0.41763 0.85686
C32A C 0.6675(5) -0.3553(4) 0.7487(4)
H20A H 0.69704 -0.39163 0.73895
C33A C 0.6462(5) -0.2857(5) 0.6931(4)
H21A H 0.66016 -0.27533 0.64576
C34A C 0.6043(5) -0.2324(4) 0.7089(4)
C35A C 0.5828(5) -0.2456(4) 0.7790(4)
H22A H 0.55619 -0.20820 0.78839
C36A C 0.6464(5) -0.1088(4) 0.6171(4)
C37A C 0.4723(5) -0.1534(4) 0.6344(4)
C38A C 0.4428(5) -0.0844(4) 0.5715(4)
C39A C 0.5147(5) -0.0322(4) 0.5312(3)
C40A C 0.6157(5) -0.0412(4) 0.5515(4)
C41A C 0.6840(5) 0.0097(5) 0.5106(4)
H23A H 0.75043 0.00230 0.52376
C42A C 0.6550(5) 0.0732(4) 0.4487(4)
H24A H 0.70213 0.10776 0.42121
Dy1A Dy -0.31196(2) -0.46733(2) 0.04788(2)
Dy1A* Dy -0.31196(2) 0.53267(2) -0.95212(2)
Dy1A** Dy 0.68804(2) -0.46733(2) 1.04788(2)
O48A* O 0.7735(3) -0.3596(3) 1.0258(3)
O49A* O 0.7953(4) -0.3988(3) 0.9446(3)
O41A O 0.5737(4) -0.5589(3) 1.1073(3)
O42A O 0.5795(4) -0.4148(3) 1.1034(3)
H2A H 0.57630 -0.58711 1.15220
H1A H 0.52747 -0.57333 1.09024
O43A O 0.6943(4) -0.5376(3) 0.9864(3)
H5A H 0.72766 -0.52591 0.94779
H6A H 0.67572 -0.58191 1.00193
O45A* O 0.7539(4) -0.5085(3) 1.1675(3)
H3A H 0.59564 -0.38863 1.12319
O44A* O 0.8350(4) -0.5410(3) 1.0933(3)
H4A H 0.52012 -0.42874 1.11647
#END
