
#######################################################################
#
#                 Cambridge Crystallographic Data Centre
#                                CCDC
#
#######################################################################
#
# If this CIF has been generated from an entry in the Cambridge
# Structural Database, then it will include bibliographic, chemical,
# crystal, experimental, refinement or atomic coordinate data resulting
# from the CCDC's data processing and validation procedures.
#
#######################################################################

data_CSD_CIF_IGOZUC
_audit_creation_date 2020-03-04
_audit_creation_method CSD-ConQuest-V1
_database_code_CSD IGOZUC
_database_code_depnum_ccdc_archive 'CCDC 1976089'
_chemical_formula_sum 'C134 H202 Eu2 N20 O124 Si2 W24'
_chemical_formula_moiety
;
(C84 H48 Eu2 N6 O30)n,2n(O40 Si1 W12 4-),8n(C4 H12 N1 1+),6n(C3 H7 N1 
O1),8n(H2 O1)
;
_journal_coden_Cambridge 222
_journal_volume 49
_journal_year 2020
_journal_page_first 3408
_journal_name_full 'Dalton Trans. '
loop_
_publ_author_name
"Xiao-Yuan Wu"
"Hai-Long Zhang"
"Sa-Sa Wang"
"Weiming Wu"
"Lang Lin"
"Xiao-Yu Jiang"
"Can-Zhong Lu"
_chemical_name_systematic
;
catena-(octakis(tetramethylammonium) 
tris(\m-3,3'-(1,3,6,8-tetraoxo-1,3,6,8-tetrahydrobenzo[lmn][3,8]phenanthroline
-2,7-diyl)dibenzoato)-hexa-aqua-di-europium(iii) 
bis(tetracosakis(\m-oxo)-(\m-silicato)-dodecaoxo-dodeca-tungsten) 
dimethylformamide solvate octahydrate)
;
_cell_volume   5126.109
_exptl_crystal_colour 'yellowish'
_exptl_crystal_density_diffrn 2.867
_exptl_crystal_description 'block'
_diffrn_ambient_temperature 100.0
_refine_special_details
;
O74A and O74B disordered over two sites with occupancies 0.617:0.383.

;
#These two values have been output from a single CSD field.
_refine_ls_R_factor_gt 0.0471
_refine_ls_wR_factor_gt 0.0471
_symmetry_cell_setting triclinic
_symmetry_space_group_name_H-M 'P -1'
_symmetry_Int_Tables_number 2
loop_
_symmetry_equiv_pos_site_id
_symmetry_equiv_pos_as_xyz
1 x,y,z
2 -x,-y,-z
_cell_length_a 13.4518(3)
_cell_length_b 20.4208(6)
_cell_length_c 21.0413(5)
_cell_angle_alpha 62.578(3)
_cell_angle_beta 88.041(2)
_cell_angle_gamma 87.902(2)
_cell_formula_units_Z 1
loop_
_atom_type_symbol
_atom_type_radius_bond
C 0.68
H 0.23
Eu 1.98
N 0.68
O 0.68
Si 1.20
W 1.62
loop_
_atom_site_label
_atom_site_type_symbol
_atom_site_fract_x
_atom_site_fract_y
_atom_site_fract_z
Eu1 Eu 0.18973(5) 0.03093(3) 1.54903(3)
O1 O 0.2580(6) -0.0104(4) 1.6688(4)
O2 O 0.3363(6) -0.0469(4) 1.5970(4)
O3 O 0.3622(5) -0.1208(4) 1.9127(4)
O4 O 0.6406(6) 0.0129(4) 1.8141(4)
O5 O 0.3001(5) 0.1013(4) 1.4452(4)
O6 O 0.2755(6) 0.1410(4) 1.5262(4)
O7 O 0.5793(5) 0.3162(4) 1.4689(4)
O8 O 0.2942(5) 0.4516(3) 1.3825(3)
O9 O 0.0773(5) 0.0997(4) 1.4574(3)
O10 O 0.0377(6) 0.2182(4) 1.4218(4)
O11 O -0.0844(5) 0.2998(4) 1.1705(4)
O12 O 0.2302(6) 0.3838(4) 1.1398(4)
O13 O 0.0742(6) -0.0626(5) 1.6084(4)
H1 H 0.07645 -0.09061 1.65328
H2 H 0.02733 -0.07642 1.59158
O14 O 0.0783(6) 0.0829(5) 1.6068(4)
H3 H 0.09439 0.10968 1.62584
H4 H 0.01878 0.06950 1.61984
O15 O 0.1972(6) -0.0395(4) 1.4853(4)
H5 H 0.23035 -0.02713 1.44648
H6 H 0.17606 -0.08273 1.49900
N1 N 0.5045(6) -0.0568(4) 1.8658(4)
N2 N 0.4416(6) 0.3883(4) 1.4208(4)
N3 N 0.0745(6) 0.3388(4) 1.1516(4)
C1 C 0.3322(8) -0.0395(6) 1.6541(5)
C2 C 0.4194(8) -0.0671(5) 1.7039(5)
C3 C 0.4960(9) -0.1080(6) 1.6937(6)
H7 H 0.49516 -0.11932 1.65571
C4 C 0.5748(9) -0.1321(7) 1.7410(7)
H8 H 0.62637 -0.16008 1.73433
C5 C 0.5784(9) -0.1155(6) 1.7975(6)
H9 H 0.63223 -0.13097 1.82803
C6 C 0.5000(8) -0.0752(5) 1.8074(5)
C7 C 0.4219(8) -0.0502(5) 1.7612(5)
H10 H 0.37068 -0.02202 1.76795
C8 C 0.4252(7) -0.0818(5) 1.9160(5)
C9 C 0.4263(7) -0.0579(5) 1.9724(5)
C10 C 0.5005(8) -0.0107(5) 1.9720(5)
C11 C 0.5781(8) 0.0135(5) 1.9207(5)
C12 C 0.5776(8) -0.0099(5) 1.8623(5)
C13 C 0.3505(7) -0.0807(5) 2.0244(5)
H11 H 0.30118 -0.11130 2.02407
C14 C 0.6504(7) 0.0568(5) 1.9225(5)
H12 H 0.70149 0.07097 1.88822
C15 C 0.3065(8) 0.1502(5) 1.4648(5)
C16 C 0.3456(7) 0.2244(5) 1.4138(6)
C17 C 0.3426(8) 0.2481(5) 1.3404(5)
H13 H 0.31894 0.21740 1.32284
C18 C 0.3758(9) 0.3187(6) 1.2932(6)
H14 H 0.37406 0.33482 1.24410
C19 C 0.4110(8) 0.3650(5) 1.3186(5)
H15 H 0.43375 0.41159 1.28714
C20 C 0.4118(7) 0.3402(5) 1.3923(5)
C21 C 0.3794(7) 0.2707(5) 1.4394(5)
H16 H 0.38023 0.25506 1.48845
C22 C 0.5295(7) 0.3691(5) 1.4615(5)
C23 C 0.5522(7) 0.4177(5) 1.4937(5)
C24 C 0.4868(7) 0.4780(5) 1.4845(5)
C25 C 0.4002(7) 0.4929(5) 1.4451(4)
C26 C 0.3737(7) 0.4439(5) 1.4130(4)
C27 C 0.6390(7) 0.4042(5) 1.5321(5)
H17 H 0.68131 0.36515 1.53700
C28 C 0.3364(7) 0.5514(5) 1.4367(5)
H18 H 0.27842 0.56068 1.41069
C29 C 0.0720(8) 0.1690(5) 1.4096(5)
C30 C 0.1038(8) 0.1849(5) 1.3342(5)
C31 C 0.1458(7) 0.1305(6) 1.3194(5)
H19 H 0.15921 0.08382 1.35662
C32 C 0.1683(8) 0.1456(5) 1.2483(5)
H20 H 0.19712 0.10900 1.23863
C33 C 0.1475(7) 0.2147(5) 1.1929(5)
H21 H 0.16160 0.22485 1.14569
C34 C 0.1051(8) 0.2691(5) 1.2087(5)
C35 C 0.0836(8) 0.2551(5) 1.2790(5)
H22 H 0.05626 0.29200 1.28880
C36 C -0.0259(8) 0.3471(5) 1.1342(5)
C37 C -0.0562(7) 0.4161(5) 1.0717(5)
C38 C 0.0147(7) 0.4685(5) 1.0315(5)
C39 C 0.1155(8) 0.4593(5) 1.0505(5)
C40 C 0.1473(8) 0.3917(5) 1.1168(5)
C41 C -0.1556(8) 0.4268(5) 1.0521(5)
H23 H -0.20237 0.39213 1.07983
C42 C 0.1847(8) 0.5100(5) 1.0099(5)
H24 H 0.25098 0.50250 1.02328
Si1 Si 0.20464(17) 0.31426(11) 0.80718(11)
W1 W 0.10427(3) 0.21498(2) 0.72669(2)
W2 W -0.01577(3) 0.21212(2) 0.87016(2)
W3 W 0.33928(3) 0.15473(2) 0.82616(2)
W4 W -0.02002(3) 0.36649(2) 0.71187(2)
W5 W 0.08485(3) 0.31671(2) 0.95717(2)
W6 W 0.41919(3) 0.41822(2) 0.73239(2)
W7 W 0.33093(3) 0.32455(2) 0.65224(2)
W8 W 0.07539(3) 0.47147(2) 0.80046(2)
W9 W 0.20826(3) 0.47526(2) 0.64104(2)
W10 W 0.21916(3) 0.14936(2) 0.97064(2)
W11 W 0.42411(3) 0.24920(2) 0.90686(2)
W12 W 0.28898(3) 0.41766(2) 0.89014(2)
O16 O 0.2727(4) 0.2423(3) 0.8591(3)
O17 O 0.1042(4) 0.2866(3) 0.7864(3)
O18 O 0.2673(5) 0.3652(3) 0.7344(3)
O19 O 0.1743(4) 0.3633(3) 0.8479(3)
O20 O 0.1659(5) 0.2306(3) 0.9838(3)
O21 O 0.5288(5) 0.4639(3) 0.7174(3)
O22 O 0.4378(5) 0.3744(3) 0.6689(3)
O23 O 0.3500(5) 0.1755(3) 0.9848(3)
O24 O 0.1807(5) 0.5566(3) 0.5662(3)
O25 O 0.4452(5) 0.1791(3) 0.8695(3)
O26 O 0.1949(5) 0.3684(3) 0.9675(3)
O27 O -0.1126(5) 0.1594(3) 0.9198(3)
O28 O 0.0070(5) 0.5515(3) 0.7772(3)
O29 O -0.1203(5) 0.4118(4) 0.6609(4)
O30 O 0.0029(5) 0.2744(3) 0.9131(3)
O31 O 0.3596(5) 0.3255(3) 0.9223(3)
O32 O 0.1886(5) 0.4919(3) 0.8421(3)
O33 O -0.0042(5) 0.4191(3) 0.7660(3)
O34 O 0.0862(5) 0.4217(3) 0.6540(3)
O35 O 0.3582(5) 0.4614(4) 0.9257(4)
O36 O 0.3939(5) 0.0835(3) 0.8140(3)
O37 O 0.1557(5) 0.4956(3) 0.7154(3)
O38 O 0.5353(5) 0.2417(4) 0.9466(4)
O39 O 0.1965(5) 0.0758(3) 1.0533(3)
O40 O 0.0257(5) 0.4120(3) 0.8953(3)
O41 O 0.2697(4) 0.4184(3) 0.5969(3)
O42 O 0.3570(5) 0.4436(3) 0.8008(3)
O43 O -0.0867(5) 0.2915(3) 0.7943(3)
O44 O 0.3821(5) 0.3082(3) 0.5853(3)
O45 O 0.0110(5) 0.1709(3) 0.8052(3)
O46 O 0.0077(5) 0.2933(3) 0.6804(3)
O47 O 0.3391(5) 0.4948(3) 0.6600(3)
O48 O 0.0845(5) 0.1635(3) 0.6831(3)
O49 O 0.0193(5) 0.2957(4) 1.0356(3)
O50 O 0.4515(5) 0.3263(3) 0.8117(3)
O51 O 0.2034(5) 0.2798(3) 0.6664(3)
O52 O 0.2798(5) 0.1005(3) 0.9209(3)
O53 O 0.2079(5) 0.1605(3) 0.7898(3)
O54 O 0.0961(5) 0.1567(3) 0.9243(3)
O55 O 0.3680(5) 0.2376(3) 0.7363(3)
O56 O 0.2940(6) -0.0202(4) 0.3659(4)
N4 N 0.4435(7) -0.0836(5) 0.3932(5)
C43 C 0.3635(8) -0.0523(6) 0.3527(6)
H25 H 0.36076 -0.05556 0.31014
C44 C 0.5212(10) -0.1221(7) 0.3724(7)
H26 H 0.57181 -0.14048 0.40797
H27 H 0.49296 -0.16255 0.36850
H28 H 0.55000 -0.08856 0.32705
C45 C 0.4557(11) -0.0823(8) 0.4617(6)
H29 H 0.51695 -0.10719 0.48273
H30 H 0.45690 -0.03209 0.45363
H31 H 0.40107 -0.10682 0.49344
O57 O 0.3444(7) -0.3228(5) 0.9258(5)
N5 N 0.5144(7) -0.3341(5) 0.9187(5)
C46 C 0.4300(8) -0.2993(6) 0.9222(7)
H32 H 0.43530 -0.25388 0.92195
C47 C 0.6108(8) -0.3015(6) 0.9127(6)
H33 H 0.66233 -0.33443 0.91090
H34 H 0.61364 -0.25539 0.86981
H35 H 0.61992 -0.29330 0.95350
C48 C 0.513(1) -0.4050(6) 0.9176(7)
H36 H 0.57997 -0.42165 0.91496
H37 H 0.48068 -0.44053 0.96040
H38 H 0.47734 -0.39949 0.87655
O58 O 0.7965(8) 0.2031(5) 0.5959(6)
N6 N 0.7065(7) 0.2104(5) 0.6831(5)
C49 C 0.7171(9) 0.2168(6) 0.6186(7)
H39 H 0.66256 0.23237 0.58865
C50 C 0.6115(12) 0.2255(9) 0.7088(8)
H40 H 0.61776 0.21788 0.75702
H41 H 0.59088 0.27565 0.67869
H42 H 0.56274 0.19282 0.70767
C51 C 0.7857(11) 0.1862(10) 0.7347(9)
H43 H 0.76114 0.18558 0.77835
H44 H 0.80822 0.13741 0.74424
H45 H 0.83996 0.21944 0.71573
O59 O 0.2549(6) -0.1837(4) 0.8370(5)
H46 H 0.28142 -0.15863 0.85456
H47 H 0.27630 -0.22808 0.85973
O60 O 0.0922(6) -0.1440(4) 0.7489(4)
H48 H 0.07537 -0.18875 0.76587
H49 H 0.14466 -0.14305 0.76981
O61 O -0.1095(9) 0.0587(7) 0.6674(6)
H50 H -0.15885 0.03669 0.66238
H51 H -0.12407 0.10454 0.64849
N7 N -0.2831(8) 0.2962(7) 1.3131(6)
C52 C -0.3140(13) 0.3023(15) 1.2433(12)
H52 H -0.38474 0.31020 1.23899
H53 H -0.28130 0.34312 1.20495
H54 H -0.29575 0.25760 1.24090
C53 C -0.3104(10) 0.3643(7) 1.3170(8)
H55 H -0.38144 0.37121 1.31496
H56 H -0.28760 0.36109 1.36107
H57 H -0.28012 0.40537 1.27736
C54 C -0.1766(11) 0.2844(10) 1.316(1)
H58 H -0.16009 0.23957 1.31348
H59 H -0.14563 0.32512 1.27645
H60 H -0.15311 0.28083 1.36015
C55 C -0.3390(11) 0.2349(7) 1.3689(9)
H61 H -0.40896 0.24665 1.36349
H62 H -0.32535 0.19079 1.36421
H63 H -0.31919 0.22720 1.41523
N8 N 0.7153(6) 0.3973(5) 0.8559(5)
C56 C 0.6182(8) 0.4169(6) 0.8823(6)
H64 H 0.57615 0.44501 0.84233
H65 H 0.58556 0.37252 0.91493
H66 H 0.63142 0.44567 0.90642
C57 C 0.6966(8) 0.3508(6) 0.8199(6)
H67 H 0.65404 0.37751 0.77991
H68 H 0.75869 0.33878 0.80343
H69 H 0.66510 0.30617 0.85332
C58 C 0.7807(11) 0.3541(10) 0.9168(9)
H70 H 0.79409 0.38266 0.94106
H71 H 0.74851 0.30950 0.94938
H72 H 0.84210 0.34211 0.89949
C59 C 0.7628(10) 0.4670(7) 0.8020(8)
H73 H 0.71809 0.49357 0.76333
H74 H 0.77737 0.49712 0.82449
H75 H 0.82336 0.45504 0.78377
N9 N -0.0597(7) 0.0416(4) 1.1320(4)
C60 C 0.0219(8) 0.0083(6) 1.1855(5)
H76 H 0.01576 0.02667 1.22008
H77 H 0.01674 -0.04445 1.20943
H78 H 0.08534 0.02136 1.16124
C61 C -0.0531(10) 0.0146(6) 1.0772(6)
H79 H -0.06054 -0.03794 1.10017
H80 H -0.10496 0.03771 1.04313
H81 H 0.01046 0.02660 1.05296
C62 C -0.0478(9) 0.1238(5) 1.0942(5)
H82 H -0.05180 0.14247 1.12854
H83 H 0.01575 0.13511 1.06984
H84 H -0.09967 0.14622 1.06001
C63 C -0.1584(8) 0.0212(5) 1.1707(6)
H85 H -0.16303 0.03850 1.20609
H86 H -0.21095 0.04352 1.13706
H87 H -0.16430 -0.03147 1.19364
N10 N -0.0670(6) 0.6434(4) 0.5253(4)
C64 C -0.0544(8) 0.6118(5) 0.6051(5)
H88 H 0.00426 0.58060 0.61908
H89 H -0.04807 0.65123 0.61740
H90 H -0.11147 0.58336 0.62963
C65 C -0.1574(7) 0.6916(5) 0.5034(5)
H91 H -0.15143 0.73091 0.51596
H92 H -0.16481 0.71198 0.45256
H93 H -0.21465 0.66319 0.52749
C66 C 0.0215(8) 0.6896(5) 0.4866(5)
H94 H 0.08096 0.65925 0.50016
H95 H 0.01319 0.70994 0.43588
H96 H 0.02659 0.72889 0.49927
C67 C -0.0739(8) 0.5817(5) 0.5065(5)
H97 H -0.01465 0.55121 0.52113
H98 H -0.13068 0.55267 0.53061
H99 H -0.08084 0.60147 0.45569
O62 O 0.148(1) -0.1785(7) 1.5178(6)
H100 H 0.14991 -0.20144 1.49276
H101 H 0.08641 -0.17082 1.52275
O63? O 0.086(2) -0.1320(13) 1.4597(13)
H102? H 0.13443 -0.15161 1.44694
H103? H 0.07744 -0.16079 1.50406
O1A O 0.7420(6) 0.0104(4) 2.3312(4)
O2A O 0.6637(6) 0.0469(4) 2.4030(4)
O3A O 0.6378(5) 0.1208(4) 2.0873(4)
O4A O 0.3594(6) -0.0129(4) 2.1859(4)
N1A N 0.4955(6) 0.0568(4) 2.1342(4)
C1A C 0.6678(8) 0.0395(6) 2.3459(5)
C2A C 0.5806(8) 0.0671(5) 2.2961(5)
C3A C 0.5040(9) 0.1080(6) 2.3063(6)
H7A H 0.50484 0.11932 2.34429
C4A C 0.4252(9) 0.1321(7) 2.2590(7)
H8A H 0.37363 0.16008 2.26567
C5A C 0.4216(9) 0.1155(6) 2.2025(6)
H9A H 0.36777 0.13097 2.17197
C6A C 0.5000(8) 0.0752(5) 2.1926(5)
C7A C 0.5781(8) 0.0502(5) 2.2388(5)
H10A H 0.62932 0.02202 2.23205
C8A C 0.5748(7) 0.0818(5) 2.0840(5)
C9A C 0.5737(7) 0.0579(5) 2.0276(5)
C10A C 0.4995(8) 0.0107(5) 2.0280(5)
C11A C 0.4219(8) -0.0135(5) 2.0793(5)
C12A C 0.4224(8) 0.0099(5) 2.1377(5)
C13A C 0.6495(7) 0.0807(5) 1.9756(5)
H11A H 0.69882 0.11130 1.97593
C14A C 0.3496(7) -0.0568(5) 2.0775(5)
H12A H 0.29851 -0.07097 2.11178
O5A O 0.6999(5) 0.8987(4) 1.5548(4)
O6A O 0.7245(6) 0.8590(4) 1.4738(4)
O7A O 0.4207(5) 0.6838(4) 1.5311(4)
O8A O 0.7058(5) 0.5484(3) 1.6175(3)
N2A N 0.5584(6) 0.6117(4) 1.5792(4)
C15A C 0.6935(8) 0.8498(5) 1.5352(5)
C16A C 0.6544(7) 0.7756(5) 1.5862(6)
C17A C 0.6574(8) 0.7519(5) 1.6596(5)
H13A H 0.68105 0.78260 1.67716
C18A C 0.6242(9) 0.6813(6) 1.7068(6)
H14A H 0.62594 0.66518 1.75590
C19A C 0.5890(8) 0.6350(5) 1.6814(5)
H15A H 0.56625 0.58841 1.71286
C20A C 0.5882(7) 0.6598(5) 1.6077(5)
C21A C 0.6206(7) 0.7293(5) 1.5606(5)
H16A H 0.61977 0.74494 1.51155
C22A C 0.4705(7) 0.6309(5) 1.5385(5)
C23A C 0.4478(7) 0.5823(5) 1.5063(5)
C24A C 0.5132(7) 0.5220(5) 1.5155(5)
C25A C 0.5998(7) 0.5071(5) 1.5549(4)
C26A C 0.6263(7) 0.5561(5) 1.5870(4)
C27A C 0.3610(7) 0.5958(5) 1.4679(5)
H17A H 0.31869 0.63485 1.46300
C28A C 0.6636(7) 0.4486(5) 1.5633(5)
H18A H 0.72158 0.43932 1.58931
O9A O -0.0773(5) 0.9003(4) 0.5426(3)
O10A O -0.0377(6) 0.7818(4) 0.5782(4)
O11A O 0.0844(5) 0.7002(4) 0.8295(4)
O12A O -0.2302(6) 0.6162(4) 0.8602(4)
N3A N -0.0745(6) 0.6612(4) 0.8484(4)
C29A C -0.0720(8) 0.8310(5) 0.5904(5)
C30A C -0.1038(8) 0.8151(5) 0.6658(5)
C31A C -0.1458(7) 0.8695(6) 0.6806(5)
H19A H -0.15921 0.91618 0.64338
C32A C -0.1683(8) 0.8544(5) 0.7517(5)
H20A H -0.19712 0.89100 0.76137
C33A C -0.1475(7) 0.7853(5) 0.8071(5)
H21A H -0.16160 0.77515 0.85431
C34A C -0.1051(8) 0.7309(5) 0.7913(5)
C35A C -0.0836(8) 0.7449(5) 0.7210(5)
H22A H -0.05626 0.70800 0.71120
C36A C 0.0259(8) 0.6529(5) 0.8658(5)
C37A C 0.0562(7) 0.5839(5) 0.9283(5)
C38A C -0.0147(7) 0.5315(5) 0.9685(5)
C39A C -0.1155(8) 0.5407(5) 0.9495(5)
C40A C -0.1473(8) 0.6083(5) 0.8832(5)
C41A C 0.1556(8) 0.5732(5) 0.9479(5)
H23A H 0.20237 0.60787 0.92017
C42A C -0.1847(8) 0.4900(5) 0.9901(5)
H24A H -0.25098 0.49750 0.97672
Eu1A Eu -0.18973(5) 0.96907(3) 0.45097(3)
O13A O -0.0742(6) 1.0626(5) 0.3916(4)
H1A H -0.07645 1.09061 0.34672
H2A H -0.02733 1.07642 0.40842
O14A O -0.0783(6) 0.9171(5) 0.3932(4)
H3A H -0.09439 0.89031 0.37416
H4A H -0.01878 0.93049 0.38016
O15A O -0.1972(6) 1.0395(4) 0.5147(4)
H5A H -0.23035 1.02713 0.55352
H6A H -0.17606 1.08273 0.50100
Eu1A* Eu 0.81027(5) -0.03093(3) 2.45097(3)
Eu1A** Eu 0.81027(5) 0.96907(3) 1.45097(3)
O1A* O -0.2580(6) 1.0104(4) 0.3312(4)
O2A* O -0.3363(6) 1.0469(4) 0.4030(4)
O5A* O -0.3001(5) 0.8987(4) 0.5548(4)
O6A* O -0.2755(6) 0.8590(4) 0.4738(4)
#END
