
#######################################################################
#
#                 Cambridge Crystallographic Data Centre
#                                CCDC
#
#######################################################################
#
# If this CIF has been generated from an entry in the Cambridge
# Structural Database, then it will include bibliographic, chemical,
# crystal, experimental, refinement or atomic coordinate data resulting
# from the CCDC's data processing and validation procedures.
#
#######################################################################

data_CSD_CIF_IGOZEL
_audit_creation_date 2015-05-05
_audit_creation_method CSD-ConQuest-V1
_database_code_CSD IGOZEL
_database_code_depnum_ccdc_archive 'CCDC 1013792'
_chemical_formula_sum 'C24 H39 Cd2 O37.5 Yb2 Zn1'
_chemical_formula_moiety
;
(H12 O6 Zn1 2+)n,2n(C12 H12 Cd1 O15 Yb1 1-),1.5n(H2 O1)
;
_journal_coden_Cambridge 9
_journal_volume 54
_journal_year 2015
_journal_page_first 4456
_journal_name_full 'Inorg.Chem. '
loop_
_publ_author_name
"Ying Wang"
"Xiu-Guang Wang"
"Bin Yuan"
"Cheng-Yuan Shao"
"Yuan-Yuan Chen"
"Bing-Bing Zhou"
"Ming-Shu Li"
"Xiao-Mai An"
"Peng Cheng"
"Xiao-Jun Zhao"
_chemical_name_systematic
;
catena-[Hexa-aqua-zinc(ii) 
bis(tris(\m~3~-2,2'-oxydiacetato)-cadmium-ytterbium) sesquihydrate]
;
_cell_volume  17426.556
_exptl_crystal_density_diffrn 2.384
_diffrn_ambient_temperature 293
#These two values have been output from a single CSD field.
_refine_ls_R_factor_gt 0.0527
_refine_ls_wR_factor_gt 0.0527
_symmetry_cell_setting cubic
_symmetry_space_group_name_H-M 'F d -3 c'
_symmetry_Int_Tables_number 228
loop_
_symmetry_equiv_pos_site_id
_symmetry_equiv_pos_as_xyz
1 x,y,z
2 -y,1/4+x,3/4+z
3 1/4-x,1/4-y,z
4 1/4+y,-x,3/4+z
5 1/4+x,-z,3/4+y
6 x,1/4-y,1/4-z
7 1/4+x,3/4+z,-y
8 1/4+z,3/4+y,-x
9 1/4-x,y,1/4-z
10 -z,1/4+y,3/4+x
11 z,x,y
12 y,z,x
13 1/4-y,1/4-z,x
14 z,1/4-x,1/4-y
15 1/4-y,z,1/4-x
16 1/4-z,1/4-x,y
17 1/4-z,x,1/4-y
18 y,1/4-z,1/4-x
19 1/4+y,3/4+x,-z
20 -y,-x,1/2-z
21 -x,1/4+z,3/4+y
22 -x,-z,1/2-y
23 1/4+z,-y,3/4+x
24 -z,-y,1/2-x
25 x,1/2+y,1/2+z
26 -y,3/4+x,1/4+z
27 1/4-x,3/4-y,1/2+z
28 1/4+y,1/2-x,1/4+z
29 1/4+x,1/2-z,1/4+y
30 x,3/4-y,3/4-z
31 1/4+x,1/4+z,1/2-y
32 1/4+z,1/4+y,1/2-x
33 1/4-x,1/2+y,3/4-z
34 -z,3/4+y,1/4+x
35 z,1/2+x,1/2+y
36 y,1/2+z,1/2+x
37 1/4-y,3/4-z,1/2+x
38 z,3/4-x,3/4-y
39 1/4-y,1/2+z,3/4-x
40 1/4-z,3/4-x,1/2+y
41 1/4-z,1/2+x,3/4-y
42 y,3/4-z,3/4-x
43 1/4+y,1/4+x,1/2-z
44 -y,1/2-x,-z
45 -x,3/4+z,1/4+y
46 -x,1/2-z,-y
47 1/4+z,1/2-y,1/4+x
48 -z,1/2-y,-x
49 1/2+x,y,1/2+z
50 1/2-y,1/4+x,1/4+z
51 3/4-x,1/4-y,1/2+z
52 3/4+y,-x,1/4+z
53 3/4+x,-z,1/4+y
54 1/2+x,1/4-y,3/4-z
55 3/4+x,3/4+z,1/2-y
56 3/4+z,3/4+y,1/2-x
57 3/4-x,y,3/4-z
58 1/2-z,1/4+y,1/4+x
59 1/2+z,x,1/2+y
60 1/2+y,z,1/2+x
61 3/4-y,1/4-z,1/2+x
62 1/2+z,1/4-x,3/4-y
63 3/4-y,z,3/4-x
64 3/4-z,1/4-x,1/2+y
65 3/4-z,x,3/4-y
66 1/2+y,1/4-z,3/4-x
67 3/4+y,3/4+x,1/2-z
68 1/2-y,-x,-z
69 1/2-x,1/4+z,1/4+y
70 1/2-x,-z,-y
71 3/4+z,-y,1/4+x
72 1/2-z,-y,-x
73 1/2+x,1/2+y,z
74 1/2-y,3/4+x,3/4+z
75 3/4-x,3/4-y,z
76 3/4+y,1/2-x,3/4+z
77 3/4+x,1/2-z,3/4+y
78 1/2+x,3/4-y,1/4-z
79 3/4+x,1/4+z,-y
80 3/4+z,1/4+y,-x
81 3/4-x,1/2+y,1/4-z
82 1/2-z,3/4+y,3/4+x
83 1/2+z,1/2+x,y
84 1/2+y,1/2+z,x
85 3/4-y,3/4-z,x
86 1/2+z,3/4-x,1/4-y
87 3/4-y,1/2+z,1/4-x
88 3/4-z,3/4-x,y
89 3/4-z,1/2+x,1/4-y
90 1/2+y,3/4-z,1/4-x
91 3/4+y,1/4+x,-z
92 1/2-y,1/2-x,1/2-z
93 1/2-x,3/4+z,3/4+y
94 1/2-x,1/2-z,1/2-y
95 3/4+z,1/2-y,3/4+x
96 1/2-z,1/2-y,1/2-x
97 -x,-y,-z
98 y,-1/4-x,-3/4-z
99 -1/4+x,-1/4+y,-z
100 -1/4-y,x,-3/4-z
101 -1/4-x,z,-3/4-y
102 -x,-1/4+y,-1/4+z
103 -1/4-x,-3/4-z,y
104 -1/4-z,-3/4-y,x
105 -1/4+x,-y,-1/4+z
106 z,-1/4-y,-3/4-x
107 -z,-x,-y
108 -y,-z,-x
109 -1/4+y,-1/4+z,-x
110 -z,-1/4+x,-1/4+y
111 -1/4+y,-z,-1/4+x
112 -1/4+z,-1/4+x,-y
113 -1/4+z,-x,-1/4+y
114 -y,-1/4+z,-1/4+x
115 -1/4-y,-3/4-x,z
116 y,x,-1/2+z
117 x,-1/4-z,-3/4-y
118 x,z,-1/2+y
119 -1/4-z,y,-3/4-x
120 z,y,-1/2+x
121 -x,-1/2-y,-1/2-z
122 y,-3/4-x,-1/4-z
123 -1/4+x,-3/4+y,-1/2-z
124 -1/4-y,-1/2+x,-1/4-z
125 -1/4-x,-1/2+z,-1/4-y
126 -x,-3/4+y,-3/4+z
127 -1/4-x,-1/4-z,-1/2+y
128 -1/4-z,-1/4-y,-1/2+x
129 -1/4+x,-1/2-y,-3/4+z
130 z,-3/4-y,-1/4-x
131 -z,-1/2-x,-1/2-y
132 -y,-1/2-z,-1/2-x
133 -1/4+y,-3/4+z,-1/2-x
134 -z,-3/4+x,-3/4+y
135 -1/4+y,-1/2-z,-3/4+x
136 -1/4+z,-3/4+x,-1/2-y
137 -1/4+z,-1/2-x,-3/4+y
138 -y,-3/4+z,-3/4+x
139 -1/4-y,-1/4-x,-1/2+z
140 y,-1/2+x,z
141 x,-3/4-z,-1/4-y
142 x,-1/2+z,y
143 -1/4-z,-1/2+y,-1/4-x
144 z,-1/2+y,x
145 -1/2-x,-y,-1/2-z
146 -1/2+y,-1/4-x,-1/4-z
147 -3/4+x,-1/4+y,-1/2-z
148 -3/4-y,x,-1/4-z
149 -3/4-x,z,-1/4-y
150 -1/2-x,-1/4+y,-3/4+z
151 -3/4-x,-3/4-z,-1/2+y
152 -3/4-z,-3/4-y,-1/2+x
153 -3/4+x,-y,-3/4+z
154 -1/2+z,-1/4-y,-1/4-x
155 -1/2-z,-x,-1/2-y
156 -1/2-y,-z,-1/2-x
157 -3/4+y,-1/4+z,-1/2-x
158 -1/2-z,-1/4+x,-3/4+y
159 -3/4+y,-z,-3/4+x
160 -3/4+z,-1/4+x,-1/2-y
161 -3/4+z,-x,-3/4+y
162 -1/2-y,-1/4+z,-3/4+x
163 -3/4-y,-3/4-x,-1/2+z
164 -1/2+y,x,z
165 -1/2+x,-1/4-z,-1/4-y
166 -1/2+x,z,y
167 -3/4-z,y,-1/4-x
168 -1/2+z,y,x
169 -1/2-x,-1/2-y,-z
170 -1/2+y,-3/4-x,-3/4-z
171 -3/4+x,-3/4+y,-z
172 -3/4-y,-1/2+x,-3/4-z
173 -3/4-x,-1/2+z,-3/4-y
174 -1/2-x,-3/4+y,-1/4+z
175 -3/4-x,-1/4-z,y
176 -3/4-z,-1/4-y,x
177 -3/4+x,-1/2-y,-1/4+z
178 -1/2+z,-3/4-y,-3/4-x
179 -1/2-z,-1/2-x,-y
180 -1/2-y,-1/2-z,-x
181 -3/4+y,-3/4+z,-x
182 -1/2-z,-3/4+x,-1/4+y
183 -3/4+y,-1/2-z,-1/4+x
184 -3/4+z,-3/4+x,-y
185 -3/4+z,-1/2-x,-1/4+y
186 -1/2-y,-3/4+z,-1/4+x
187 -3/4-y,-1/4-x,z
188 -1/2+y,-1/2+x,-1/2+z
189 -1/2+x,-3/4-z,-3/4-y
190 -1/2+x,-1/2+z,-1/2+y
191 -3/4-z,-1/2+y,-3/4-x
192 -1/2+z,-1/2+y,-1/2+x
_cell_length_a 25.9261(11)
_cell_length_b 25.9261(11)
_cell_length_c 25.9261(11)
_cell_angle_alpha 90
_cell_angle_beta 90
_cell_angle_gamma 90
_cell_formula_units_Z 16
loop_
_atom_type_symbol
_atom_type_radius_bond
C 0.68
H 0.23
Cd 1.44
O 0.68
Yb 1.87
Zn 1.22
loop_
_atom_site_label
_atom_site_type_symbol
_atom_site_fract_x
_atom_site_fract_y
_atom_site_fract_z
Yb1 Yb 1.00000 0.50000 1.00000
Cd1 Cd 1.00000 0.75000 1.00000
O1 O 0.9858(3) 0.5816(3) 1.0222(3)
O2 O 0.9911(2) 0.6656(3) 1.0300(3)
C1 C 0.9905(6) 0.6248(6) 1.0030(4)
O3 O 1.00000 0.6847(2) 0.9347(2)
C2 C 0.9965(4) 0.6321(4) 0.9460(4)
H1 H 1.02740 0.61450 0.93430
H2 H 0.96710 0.61720 0.92830
Zn1 Zn 0.12500 0.62500 0.12500
O4 O 0.0408(5) 0.62500 0.12500
H3 H 0.02180 0.61590 0.09990
O5 O 0.9230(14) 0.62500 0.12500
H4 H 0.94200 0.59820 0.12250
O1RA O 1.0142(3) 0.7722(3) 0.8316(3)
O2RA O 1.0089(2) 0.7800(3) 0.9156(3)
C1RA C 1.0095(6) 0.7530(6) 0.8748(4)
C2RA C 1.0035(4) 0.6960(4) 0.8821(4)
H1RA H 0.97260 0.68430 0.86450
H2RA H 1.03290 0.67830 0.86720
O1R O 0.8316(3) 0.7358(3) 0.9778(3)
O2R O 0.9156(2) 0.7411(3) 0.9700(3)
C1R C 0.8748(6) 0.7405(6) 0.9970(4)
O3R O 0.93470 0.7500(2) 1.0653(2)
C2R C 0.8821(4) 0.7465(4) 1.0540(4)
H1R H 0.86450 0.77740 1.06570
H2R H 0.86720 0.71710 1.07170
O1KA O 1.0222(3) 0.7642(3) 1.1684(3)
O2KA O 1.0300(2) 0.7589(3) 1.0844(3)
C1KA C 1.0030(6) 0.7595(6) 1.1252(4)
C2KA C 0.9460(4) 0.7535(4) 1.1179(4)
H1KA H 0.93430 0.72260 1.13550
H2KA H 0.92830 0.78290 1.13280
O1UA O 0.9778(3) 0.9184(3) 1.0142(3)
O2UA O 0.9700(2) 0.8344(3) 1.0089(3)
C1UA C 0.9970(6) 0.8752(6) 1.0095(4)
O3UA O 1.06530 0.8153(2) 1.0000(2)
C2UA C 1.0540(4) 0.8679(4) 1.0035(4)
H1UA H 1.06570 0.88550 0.97260
H2UA H 1.07170 0.88280 1.03290
O1FC O 1.1684(3) 0.7278(3) 0.9858(3)
O2FC O 1.0844(2) 0.7200(3) 0.9911(3)
C1FC C 1.1252(6) 0.7470(6) 0.9905(4)
C2FC C 1.1179(4) 0.8040(4) 0.9965(4)
H1FC H 1.13550 0.81570 1.02740
H2FC H 1.13280 0.82170 0.96710
Yb1B Yb 1.25000 0.75000 1.00000
Yb1E Yb 1.00000 0.75000 1.25000
Yb1I Yb 1.00000 0.75000 0.75000
Yb1R Yb 0.75000 0.75000 1.00000
Yb1U Yb 1.00000 1.00000 1.00000
O1HA O 1.0222(3) 0.4858(3) 1.0816(3)
O1EC O 1.0816(3) 0.5222(3) 0.9858(3)
O1RC O 1.0142(3) 0.4184(3) 0.9778(3)
O1ZD O 0.9778(3) 0.5142(3) 0.9184(3)
O1WF O 0.9184(3) 0.4778(3) 1.0142(3)
H3E H 0.02180 0.63410 0.15010
O4B O 0.2092(5) 0.62500 0.12500
H3B H 0.22820 0.63410 0.09990
H3H H 0.22820 0.61590 0.15010
O4HA O 0.1250(5) 0.54080 0.12500
H3HA H 0.09990 0.52180 0.11590
H3NA H 0.15010 0.52180 0.13410
O4KA O 0.1250(5) 0.70920 0.12500
H3KA H 0.09990 0.72820 0.13410
H3MA H 0.15010 0.72820 0.11590
O4EC O 0.1250(5) 0.62500 0.04080
H3EC H 0.11590 0.59990 0.02180
H3FC H 0.13410 0.65010 0.02180
O4HC O 0.1250(5) 0.62500 0.20920
H3HC H 0.13410 0.59990 0.22820
H3KC H 0.11590 0.65010 0.22820
H4E H 0.94200 0.65180 0.12750
#END
