
#######################################################################
#
#                 Cambridge Crystallographic Data Centre
#                                CCDC
#
#######################################################################
#
# If this CIF has been generated from an entry in the Cambridge
# Structural Database, then it will include bibliographic, chemical,
# crystal, experimental, refinement or atomic coordinate data resulting
# from the CCDC's data processing and validation procedures.
#
#######################################################################

data_CSD_CIF_IGUQOS
_audit_creation_date 2015-05-06
_audit_creation_method CSD-ConQuest-V1
_database_code_CSD IGUQOS
_database_code_depnum_ccdc_archive 'CCDC 1032708'
_chemical_formula_sum 'C88 H100 F4 N16 O96 P2 W24 Zn3'
_chemical_formula_moiety
;
(C88 H96 F4 N16 O16 Zn3 2+)n,2(H2 O40 P1 W12 1-)
;
_journal_coden_Cambridge 9
_journal_volume 54
_journal_year 2015
_journal_page_first 4345
_journal_name_full 'Inorg.Chem. '
loop_
_publ_author_name
"Jian-Zhen Liao"
"Hai-Long Zhang"
"Sa-Sa Wang"
"Jian-Ping Yong"
"Xiao-Yuan Wu"
"Rongmin Yu"
"Can-Zhong Lu"
_chemical_name_systematic
;
catena-(bis(\m-2,7-di(pyridin-4-yl)benzo[lmn][3,8]phenanthroline-1,3,6,8(2H,7H
)-tetrone)-bis(\m-fluoro)-difluoro-octakis(1-methylpyrrolidin-2-one)-tri-zinc 
bis((\m-phosphato)-bis(\m-hydroxo)-docosakis(\m-oxo)-dodecaoxo-dodeca-tungsten
) unknown solvate)
;
_cell_volume   9673.785
_exptl_crystal_colour 'yellow'
_exptl_crystal_density_diffrn 2.631
_exptl_special_details
;
The anion H atoms have not been located and have been placed arbitrarily in 
the 2D diagram
;
_exptl_crystal_description 'Block'
_diffrn_ambient_temperature 173
_refine_special_details
;
The SQUEEZE/PLATON program has been used to model some disorder.

;
#These two values have been output from a single CSD field.
_refine_ls_R_factor_gt 0.0579
_refine_ls_wR_factor_gt 0.0579
_symmetry_cell_setting tetragonal
_symmetry_space_group_name_H-M 'P 4/n n c'
_symmetry_Int_Tables_number 126
loop_
_symmetry_equiv_pos_site_id
_symmetry_equiv_pos_as_xyz
1 x,y,z
2 1/2-y,x,z
3 1/2-x,1/2-y,z
4 y,1/2-x,z
5 x,1/2-y,1/2-z
6 1/2-x,y,1/2-z
7 y,x,1/2-z
8 1/2-y,1/2-x,1/2-z
9 -x,-y,-z
10 -1/2+y,-x,-z
11 -1/2+x,-1/2+y,-z
12 -y,-1/2+x,-z
13 -x,-1/2+y,-1/2+z
14 -1/2+x,-y,-1/2+z
15 -y,-x,-1/2+z
16 -1/2+y,-1/2+x,-1/2+z
_cell_length_a 19.4643(4)
_cell_length_b 19.4643(4)
_cell_length_c 25.5340(9)
_cell_angle_alpha 90
_cell_angle_beta 90
_cell_angle_gamma 90
_cell_formula_units_Z 2
loop_
_atom_type_symbol
_atom_type_radius_bond
C 0.68
H 0.23
F 0.64
N 0.68
O 0.68
P 1.05
W 1.62
Zn 1.22
loop_
_atom_site_label
_atom_site_type_symbol
_atom_site_fract_x
_atom_site_fract_y
_atom_site_fract_z
W1 W 0.360924(17) 0.683439(17) 0.596832(12)
W2 W 0.192869(17) 0.635585(16) 0.596953(12)
W3 W 0.301093(18) 0.575391(16) 0.503743(12)
P1 P 0.25000 0.75000 0.50000
O1 O 0.35536(9) 0.62612(9) 0.45447(7)
O2 O 0.32445(9) 0.49242(9) 0.49071(7)
O3 O 0.22839(9) 0.58939(9) 0.45479(7)
O4 O 0.14916(9) 0.59018(9) 0.64320(7)
O5 O 0.17119(9) 0.72807(9) 0.61468(7)
O6 O 0.42310(9) 0.66739(9) 0.64235(7)
O7 O 0.36428(9) 0.60114(9) 0.55653(7)
O8 O 0.27973(9) 0.64742(9) 0.62984(7)
O9 O 0.23426(9) 0.56419(9) 0.55772(7)
O10 O 0.26713(9) 0.68978(9) 0.53437(7)
Zn1 Zn 0.75000 0.75000 0.25000
Zn2 Zn 0.75000 0.75000 0.40378(11)
F1 F 0.75000 0.75000 0.3302(4)
F2 F 0.75000 0.75000 0.4848(8)
N1 N 0.75000 0.6432(4) 0.25000
N2 N 0.75000 0.4282(4) 0.25000
N3 N 0.5997(6) 0.5818(6) 0.4084(5)
C1 C 0.7819(5) 0.6080(4) 0.2871(4)
H1 H 0.80450 0.63260 0.31420
C2 C 0.7835(6) 0.5382(4) 0.2881(4)
H2 H 0.80770 0.51470 0.31510
C3 C 0.75000 0.5021(6) 0.25000
C4 C 0.6864(5) 0.3965(4) 0.2551(3)
C5 C 0.6849(6) 0.3208(4) 0.2517(3)
C6 C 0.75000 0.2866(5) 0.25000
C7 C 0.6252(5) 0.2854(4) 0.2515(4)
H3 H 0.58280 0.30940 0.25360
C8 C 0.6356(6) 0.6381(7) 0.4250(5)
C9 C 0.6008(8) 0.6653(10) 0.4680(8)
H4 H 0.57910 0.70950 0.45860
H5 H 0.63320 0.67340 0.49730
C10 C 0.5457(8) 0.6128(9) 0.4845(7)
H6 H 0.55980 0.58730 0.51620
H7 H 0.50100 0.63550 0.49110
C11 C 0.5418(7) 0.5654(9) 0.4369(7)
H8 H 0.54240 0.51660 0.44760
H9 H 0.49960 0.57430 0.41630
C12 C 0.6227(13) 0.5414(11) 0.3629(8)
H10 H 0.61850 0.49230 0.37080
H11 H 0.67070 0.55230 0.35520
H12 H 0.59410 0.55260 0.33250
O11 O 0.6348(4) 0.4297(3) 0.2626(3)
O12 O 0.6881(4) 0.6586(5) 0.4040(3)
O10B O 0.23287(9) 0.81022(9) 0.53437(7)
O10I O 0.18978(9) 0.73287(9) 0.46563(7)
O10K O 0.31022(9) 0.76713(9) 0.46563(7)
W1B W 0.139076(17) 0.816561(17) 0.596832(12)
W2B W 0.307131(17) 0.864415(16) 0.596953(12)
W3B W 0.198907(18) 0.924609(16) 0.503743(12)
O1B O 0.14464(9) 0.87388(9) 0.45447(7)
O2B O 0.17555(9) 1.00758(9) 0.49071(7)
O3B O 0.27161(9) 0.91061(9) 0.45479(7)
O4B O 0.35084(9) 0.90982(9) 0.64320(7)
O5B O 0.32881(9) 0.77193(9) 0.61468(7)
O6B O 0.07690(9) 0.83261(9) 0.64235(7)
O7B O 0.13572(9) 0.89886(9) 0.55653(7)
O8B O 0.22027(9) 0.85258(9) 0.62984(7)
O9B O 0.26574(9) 0.93581(9) 0.55772(7)
W1I W 0.183439(17) 0.639076(17) 0.403168(12)
W2I W 0.135585(17) 0.807131(16) 0.403047(12)
W3I W 0.075391(18) 0.698907(16) 0.496257(12)
O1I O 0.12612(9) 0.64464(9) 0.54553(7)
O2I O -0.00758(9) 0.67555(9) 0.50929(7)
O3I O 0.08939(9) 0.77161(9) 0.54521(7)
O4I O 0.09018(9) 0.85084(9) 0.35680(7)
O5I O 0.22807(9) 0.82881(9) 0.38532(7)
O6I O 0.16739(9) 0.57690(9) 0.35765(7)
O7I O 0.10114(9) 0.63572(9) 0.44347(7)
O8I O 0.14742(9) 0.72027(9) 0.37016(7)
O9I O 0.06419(9) 0.76574(9) 0.44228(7)
W1K W 0.316561(17) 0.860924(17) 0.403168(12)
W2K W 0.364415(17) 0.692869(16) 0.403047(12)
W3K W 0.424609(18) 0.801093(16) 0.496257(12)
O1K O 0.37388(9) 0.85536(9) 0.54553(7)
O2K O 0.50758(9) 0.82445(9) 0.50929(7)
O3K O 0.41061(9) 0.72839(9) 0.54521(7)
O4K O 0.40982(9) 0.64916(9) 0.35680(7)
O5K O 0.27193(9) 0.67119(9) 0.38532(7)
O6K O 0.33261(9) 0.92310(9) 0.35765(7)
O7K O 0.39886(9) 0.86428(9) 0.44347(7)
O8K O 0.35258(9) 0.77973(9) 0.37016(7)
O9K O 0.43581(9) 0.73426(9) 0.44228(7)
N1B N 0.75000 -0.1432(4) 0.25000
N2B N 0.75000 0.0718(4) 0.25000
C1B C 0.7181(5) -0.1080(4) 0.2871(4)
H1B H 0.69550 -0.13260 0.31420
C2B C 0.7165(6) -0.0382(4) 0.2881(4)
H2B H 0.69230 -0.01470 0.31510
C3B C 0.75000 -0.0021(6) 0.25000
C4B C 0.8136(5) 0.1035(4) 0.2551(3)
C5B C 0.8151(6) 0.1792(4) 0.2517(3)
C6B C 0.75000 0.2134(5) 0.25000
C7B C 0.8748(5) 0.2146(4) 0.2515(4)
H3B H 0.91720 0.19060 0.25360
O11B O 0.8652(4) 0.0703(3) 0.2626(3)
C1D C 0.7819(5) -0.1080(4) 0.2129(4)
H1D H 0.80450 -0.13260 0.18580
C2D C 0.7835(6) -0.0382(4) 0.2119(4)
H2D H 0.80770 -0.01470 0.18490
C4D C 0.6864(5) 0.1035(4) 0.2449(3)
C5D C 0.6849(6) 0.1792(4) 0.2483(3)
C7D C 0.6252(5) 0.2146(4) 0.2485(4)
H3D H 0.58280 0.19060 0.24640
O11D O 0.6348(4) 0.0703(3) 0.2374(3)
C1E C 0.7181(5) 0.6080(4) 0.2129(4)
H1E H 0.69550 0.63260 0.18580
C2E C 0.7165(6) 0.5382(4) 0.2119(4)
H2E H 0.69230 0.51470 0.18490
C4E C 0.8136(5) 0.3965(4) 0.2449(3)
C5E C 0.8151(6) 0.3208(4) 0.2483(3)
C7E C 0.8748(5) 0.2854(4) 0.2485(4)
H3E H 0.91720 0.30940 0.24640
O11E O 0.8652(4) 0.4297(3) 0.2374(3)
N1A N -0.14320 0.7500(4) 0.25000
N2A N 0.07180 0.7500(4) 0.25000
C1A C -0.1080(5) 0.7819(4) 0.2871(4)
H1A H -0.13260 0.80450 0.31420
C2A C -0.0382(6) 0.7835(4) 0.2881(4)
H2A H -0.01470 0.80770 0.31510
C3A C -0.00210 0.7500(6) 0.25000
C4A C 0.1035(5) 0.6864(4) 0.2551(3)
C5A C 0.1792(6) 0.6849(4) 0.2517(3)
C6A C 0.21340 0.7500(5) 0.25000
C7A C 0.2146(5) 0.6252(4) 0.2515(4)
H3A H 0.19060 0.58280 0.25360
O11A O 0.0703(4) 0.6348(3) 0.2626(3)
N1C N 0.64320 0.7500(4) 0.25000
N2C N 0.42820 0.7500(4) 0.25000
C1C C 0.6080(5) 0.7181(4) 0.2871(4)
H1C H 0.63260 0.69550 0.31420
C2C C 0.5382(6) 0.7165(4) 0.2881(4)
H2C H 0.51470 0.69230 0.31510
C3C C 0.50210 0.7500(6) 0.25000
C4C C 0.3965(5) 0.8136(4) 0.2551(3)
C5C C 0.3208(6) 0.8151(4) 0.2517(3)
C6C C 0.28660 0.7500(5) 0.25000
C7C C 0.2854(5) 0.8748(4) 0.2515(4)
H3C H 0.30940 0.91720 0.25360
O11C O 0.4297(4) 0.8652(3) 0.2626(3)
C1F C 0.6080(5) 0.7819(4) 0.2129(4)
H1F H 0.63260 0.80450 0.18580
C2F C 0.5382(6) 0.7835(4) 0.2119(4)
H2F H 0.51470 0.80770 0.18490
C4F C 0.3965(5) 0.6864(4) 0.2449(3)
C5F C 0.3208(6) 0.6849(4) 0.2483(3)
C7F C 0.2854(5) 0.6252(4) 0.2485(4)
H3F H 0.30940 0.58280 0.24640
O11F O 0.4297(4) 0.6348(3) 0.2374(3)
C1G C -0.1080(5) 0.7181(4) 0.2129(4)
H1G H -0.13260 0.69550 0.18580
C2G C -0.0382(6) 0.7165(4) 0.2119(4)
H2G H -0.01470 0.69230 0.18490
C4G C 0.1035(5) 0.8136(4) 0.2449(3)
C5G C 0.1792(6) 0.8151(4) 0.2483(3)
C7G C 0.2146(5) 0.8748(4) 0.2485(4)
H3G H 0.19060 0.91720 0.24640
O11G O 0.0703(4) 0.8652(3) 0.2374(3)
N3A N 0.9182(6) 0.5997(6) 0.4084(5)
C8A C 0.8619(6) 0.6356(7) 0.4250(5)
C9A C 0.8347(8) 0.6008(10) 0.4680(8)
H4A H 0.79050 0.57910 0.45860
H5A H 0.82660 0.63320 0.49730
C10A C 0.8872(8) 0.5457(9) 0.4845(7)
H6A H 0.91270 0.55980 0.51620
H7A H 0.86450 0.50100 0.49110
C11A C 0.9346(7) 0.5418(9) 0.4369(7)
H8A H 0.98340 0.54240 0.44760
H9A H 0.92570 0.49960 0.41630
C12A C 0.9586(13) 0.6227(11) 0.3629(8)
H10A H 1.00770 0.61850 0.37080
H11A H 0.94770 0.67070 0.35520
H12A H 0.94740 0.59410 0.33250
O12A O 0.8414(4) 0.6881(5) 0.4040(3)
N3B N 0.9003(6) 0.9182(6) 0.4084(5)
C8B C 0.8644(6) 0.8619(7) 0.4250(5)
C9B C 0.8992(8) 0.8347(10) 0.4680(8)
H4B H 0.92090 0.79050 0.45860
H5B H 0.86680 0.82660 0.49730
C10B C 0.9543(8) 0.8872(9) 0.4845(7)
H6B H 0.94020 0.91270 0.51620
H7B H 0.99900 0.86450 0.49110
C11B C 0.9582(7) 0.9346(9) 0.4369(7)
H8B H 0.95760 0.98340 0.44760
H9B H 1.00040 0.92570 0.41630
C12B C 0.8773(13) 0.9586(11) 0.3629(8)
H10B H 0.88150 1.00770 0.37080
H11B H 0.82930 0.94770 0.35520
H12B H 0.90590 0.94740 0.33250
O12B O 0.8119(4) 0.8414(5) 0.4040(3)
N3C N 0.5818(6) 0.9003(6) 0.4084(5)
C8C C 0.6381(6) 0.8644(7) 0.4250(5)
C9C C 0.6653(8) 0.8992(10) 0.4680(8)
H4C H 0.70950 0.92090 0.45860
H5C H 0.67340 0.86680 0.49730
C10C C 0.6128(8) 0.9543(9) 0.4845(7)
H6C H 0.58730 0.94020 0.51620
H7C H 0.63550 0.99900 0.49110
C11C C 0.5654(7) 0.9582(9) 0.4369(7)
H8C H 0.51660 0.95760 0.44760
H9C H 0.57430 1.00040 0.41630
C12C C 0.5414(13) 0.8773(11) 0.3629(8)
H10C H 0.49230 0.88150 0.37080
H11C H 0.55230 0.82930 0.35520
H12C H 0.55260 0.90590 0.33250
O12C O 0.6586(4) 0.8119(5) 0.4040(3)
Zn2D Zn 0.75000 0.75000 0.09622(11)
F1D F 0.75000 0.75000 0.1698(4)
F2D F 0.75000 0.75000 0.0152(8)
N3G N 0.9182(6) 0.9003(6) 0.0916(5)
C8G C 0.8619(6) 0.8644(7) 0.0750(5)
C9G C 0.8347(8) 0.8992(10) 0.0320(8)
H4G H 0.79050 0.92090 0.04140
H5G H 0.82660 0.86680 0.00270
C10G C 0.8872(8) 0.9543(9) 0.0155(7)
H6G H 0.91270 0.94020 -0.01620
H7G H 0.86450 0.99900 0.00890
C11G C 0.9346(7) 0.9582(9) 0.0631(7)
H8G H 0.98340 0.95760 0.05240
H9G H 0.92570 1.00040 0.08370
C12G C 0.9586(13) 0.8773(11) 0.1371(8)
H10G H 1.00770 0.88150 0.12920
H11G H 0.94770 0.82930 0.14480
H12G H 0.94740 0.90590 0.16750
O12G O 0.8414(4) 0.8119(5) 0.0960(3)
N3F N 0.5818(6) 0.5997(6) 0.0916(5)
C8F C 0.6381(6) 0.6356(7) 0.0750(5)
C9F C 0.6653(8) 0.6008(10) 0.0320(8)
H4F H 0.70950 0.57910 0.04140
H5F H 0.67340 0.63320 0.00270
C10F C 0.6128(8) 0.5457(9) 0.0155(7)
H6F H 0.58730 0.55980 -0.01620
H7F H 0.63550 0.50100 0.00890
C11F C 0.5654(7) 0.5418(9) 0.0631(7)
H8F H 0.51660 0.54240 0.05240
H9F H 0.57430 0.49960 0.08370
C12F C 0.5414(13) 0.6227(11) 0.1371(8)
H10F H 0.49230 0.61850 0.12920
H11F H 0.55230 0.67070 0.14480
H12F H 0.55260 0.59410 0.16750
O12F O 0.6586(4) 0.6881(5) 0.0960(3)
N3E N 0.9003(6) 0.5818(6) 0.0916(5)
C8E C 0.8644(6) 0.6381(7) 0.0750(5)
C9E C 0.8992(8) 0.6653(10) 0.0320(8)
H4E H 0.92090 0.70950 0.04140
H5E H 0.86680 0.67340 0.00270
C10E C 0.9543(8) 0.6128(9) 0.0155(7)
H6E H 0.94020 0.58730 -0.01620
H7E H 0.99900 0.63550 0.00890
C11E C 0.9582(7) 0.5654(9) 0.0631(7)
H8E H 0.95760 0.51660 0.05240
H9E H 1.00040 0.57430 0.08370
C12E C 0.8773(13) 0.5414(11) 0.1371(8)
H10E H 0.88150 0.49230 0.12920
H11E H 0.82930 0.55230 0.14480
H12E H 0.90590 0.55260 0.16750
O12E O 0.8119(4) 0.6586(5) 0.0960(3)
N3D N 0.5997(6) 0.9182(6) 0.0916(5)
C8D C 0.6356(6) 0.8619(7) 0.0750(5)
C9D C 0.6008(8) 0.8347(10) 0.0320(8)
H4D H 0.57910 0.79050 0.04140
H5D H 0.63320 0.82660 0.00270
C10D C 0.5457(8) 0.8872(9) 0.0155(7)
H6D H 0.55980 0.91270 -0.01620
H7D H 0.50100 0.86450 0.00890
C11D C 0.5418(7) 0.9346(9) 0.0631(7)
H8D H 0.54240 0.98340 0.05240
H9D H 0.49960 0.92570 0.08370
C12D C 0.6227(13) 0.9586(11) 0.1371(8)
H10D H 0.61850 1.00770 0.12920
H11D H 0.67070 0.94770 0.14480
H12D H 0.59410 0.94740 0.16750
O12D O 0.6881(4) 0.8414(5) 0.0960(3)
Zn1* Zn -0.25000 0.75000 0.25000
Zn1** Zn 0.75000 -0.25000 0.25000
N1A* N 0.85680 0.7500(4) 0.25000
N1B* N 0.75000 0.8568(4) 0.25000
#END
