
#######################################################################
#
#                 Cambridge Crystallographic Data Centre
#                                CCDC
#
#######################################################################
#
# If this CIF has been generated from an entry in the Cambridge
# Structural Database, then it will include bibliographic, chemical,
# crystal, experimental, refinement or atomic coordinate data resulting
# from the CCDC's data processing and validation procedures.
#
#######################################################################

data_CSD_CIF_IHABOL
_audit_creation_date 2020-03-04
_audit_creation_method CSD-ConQuest-V1
_database_code_CSD IHABOL
_database_code_depnum_ccdc_archive 'CCDC 1950985'
_chemical_formula_sum 'C56 H57 As3 Cu4 Mo8 N16 O40 V4'
_chemical_formula_moiety
;
(H1 As3 Mo8 O40 V4 4-)n,n(C28 H28 Cu2 N8 2+),n(C28 H28 Cu2 N8 2+)
;
_journal_coden_Cambridge 1147
_journal_volume 20
_journal_year 2020
_journal_page_first 2753
_journal_name_full 'Cryst.Growth Des. '
loop_
_publ_author_name
"Zhifeng Zhao"
"Bowen Cong"
"Zhanhua Su"
"Bairu Li"
_chemical_name_systematic
;
catena-(bis(\m-1,1'-[1,3-phenylenebis(methylene)]bis(1H-imidazole))-di-copper 
bis(\m-1,1'-[1,3-phenylenebis(methylene)]bis(1H-imidazole))-di-copper 
tris(\m-arsenato)-(\m-hydroxo)-pentadecakis(\m-oxo)-dodecaoxo-octa-molybdenum-
tetra-vanadium)
;
_cell_volume   2128.737
_exptl_crystal_density_diffrn 2.372
_exptl_crystal_description 'block'
_diffrn_ambient_temperature 296.1
_refine_special_details
;
O11,O13,O15,O18,O19,O2,O20,O3,O4,O5,O6,O7,O8,O9 and 
O11A,O13A,O15A,O18A,O19A,O20A,O3A,O4A,O5A,O6A,O7A,O8A,O9A disordered over two 
sites with occupancies 0.5:0.5; O16,O17 and O16A,O17A,O2A disordered over two 
sites with occupancies 0.5:0.5.
;
#These two values have been output from a single CSD field.
_refine_ls_R_factor_gt 0.0496
_refine_ls_wR_factor_gt 0.0496
_symmetry_cell_setting triclinic
_symmetry_space_group_name_H-M 'P -1'
_symmetry_Int_Tables_number 2
loop_
_symmetry_equiv_pos_site_id
_symmetry_equiv_pos_as_xyz
1 x,y,z
2 -x,-y,-z
_cell_length_a 13.0821(9)
_cell_length_b 13.6264(9)
_cell_length_c 14.229(1)
_cell_angle_alpha 65.418(1)
_cell_angle_beta 89.146(1)
_cell_angle_gamma 69.139(1)
_cell_formula_units_Z 1
loop_
_atom_type_symbol
_atom_type_radius_bond
C 0.68
H 0.23
As 1.21
Cu 1.32
Mo 1.54
N 0.68
O 0.68
V 1.53
loop_
_atom_site_label
_atom_site_type_symbol
_atom_site_fract_x
_atom_site_fract_y
_atom_site_fract_z
Mo1 Mo 0.13370(4) 0.25643(5) 0.44347(4)
Mo2 Mo 0.26601(5) 0.51988(6) 0.48621(7)
Mo3 Mo 0.12767(5) 0.48820(5) 0.72666(4)
Mo4 Mo 0.00390(5) 0.77257(5) 0.31581(5)
As1 As 0.00000 0.50000 0.50000
As2 As 0.10988(7) 0.72615(7) 0.53410(6)
V1 V 0.25310(6) 0.25609(8) 0.66182(7)
V2 V 0.13566(7) 0.52676(9) 0.27084(7)
O1 O 0.1865(5) 0.5032(5) 0.8201(4)
O2 O 0.0244(14) 0.6775(13) 0.6456(12)
O3 O 0.2316(7) 0.5562(8) 0.6286(7)
O4 O 0.2396(7) 0.3325(8) 0.7660(6)
O5 O 0.0037(10) 0.4735(11) 0.7887(8)
O6 O 0.1351(6) 0.6719(7) 0.4441(6)
O7 O 0.0010(18) 0.9118(16) 0.2417(19)
O8 O -0.1200(8) 0.7733(8) 0.2881(7)
O9 O 0.0479(6) 0.6731(7) 0.2723(6)
O10 O 0.1913(4) 0.5418(5) 0.1689(4)
O11 O 0.2316(6) 0.4966(7) 0.3906(6)
O12 O 0.3778(3) 0.5509(5) 0.4826(4)
O13 O 0.3364(7) 0.3569(8) 0.5951(7)
O14 O 0.3622(4) 0.1507(5) 0.7324(4)
O15 O 0.2174(9) 0.2473(9) 0.5431(8)
O16 O -0.0164(10) 0.7627(9) 0.4527(9)
O17 O 0.1760(18) 0.1292(15) 0.4388(10)
O18 O 0.1796(13) 0.3487(10) 0.3304(9)
O19 O 0.1232(6) 0.4551(6) 0.5796(5)
O20 O 0.0263(6) 0.4550(6) 0.4120(5)
Cu1 Cu 0.25410(7) 0.51421(8) 0.98655(7)
N1 N 0.7742(4) 0.3257(5) 1.0935(4)
N2 N 0.7910(4) 0.1641(5) 1.2301(4)
N3 N 0.3012(4) 0.3522(5) 1.0671(4)
N4 N 0.3671(4) 0.1813(5) 1.2038(4)
C1 C 0.7790(6) 0.2746(6) 1.1961(5)
H1 H 0.77460 0.31160 1.23910
C2 C 0.7835(5) 0.2407(6) 1.0617(6)
H2 H 0.78280 0.25050 0.99300
C3 C 0.7936(6) 0.1417(7) 1.1453(6)
H3 H 0.80090 0.07120 1.14520
C4 C 0.3327(5) 0.2970(6) 1.1700(5)
H4 H 0.33110 0.33370 1.21280
C5 C 0.3161(6) 0.2652(6) 1.0366(6)
H5 H 0.30010 0.27680 0.96840
C6 C 0.3571(6) 0.1612(7) 1.1203(6)
H6 H 0.37540 0.08860 1.12070
C7 C 0.4096(6) 0.0930(6) 1.3126(5)
H7 H 0.44170 0.01590 1.31460
H8 H 0.34880 0.09500 1.35270
C8 C 0.4961(5) 0.1145(5) 1.3616(5)
C9 C 0.4736(6) 0.1635(7) 1.4316(5)
H9 H 0.40320 0.18210 1.45030
C10 C 0.5522(7) 0.1854(7) 1.4745(6)
C11 C 0.6558(6) 0.1580(7) 1.4432(6)
H10 H 0.70970 0.17250 1.47090
C12 C 0.6828(5) 0.1103(5) 1.3731(5)
C13 C 0.6018(5) 0.0880(5) 1.3336(5)
H11 H 0.61820 0.05450 1.28720
C14 C 0.7928(6) 0.0828(6) 1.3393(6)
H12 H 0.81960 0.00380 1.34580
H13 H 0.84420 0.08580 1.38550
Cu2 Cu 0.50000 0.50000 0.00000
Cu3 Cu 0.00000 1.50000 0.00000
N5 N 0.4892(5) 0.5219(5) 0.1206(4)
N6 N 0.4600(4) 0.6199(4) 0.2151(4)
N7 N 0.0664(4) 1.1643(4) 0.0714(4)
N8 N 0.0365(4) 1.3392(5) 0.0573(5)
C15 C 0.4578(6) 0.6271(6) 0.1186(5)
H14 H 0.43700 0.69680 0.05770
C16 C 0.5129(6) 0.4443(6) 0.2252(6)
H15 H 0.53650 0.36360 0.25160
C17 C 0.4964(6) 0.5037(6) 0.2829(5)
H16 H 0.50760 0.47180 0.35560
C18 C 0.4323(6) 0.7174(6) 0.2444(5)
H17 H 0.49980 0.71710 0.27210
H18 H 0.38600 0.70700 0.29870
C19 C 0.3726(5) 0.8325(5) 0.1514(5)
C20 C 0.2594(5) 0.8937(5) 0.1398(5)
H19 H 0.22010 0.86380 0.19180
C21 C 0.2031(5) 0.9997(5) 0.0511(4)
C22 C 0.2625(6) 1.0412(6) -0.0281(5)
H20 H 0.22640 1.10940 -0.08880
C23 C 0.3756(6) 0.9804(6) -0.0157(5)
H21 H 0.41510 1.00850 -0.06830
C24 C 0.4304(6) 0.8783(6) 0.0737(5)
H22 H 0.50680 0.84010 0.08180
C25 C 0.0827(5) 1.0697(5) 0.0412(5)
H23 H 0.04760 1.10280 -0.03060
H24 H 0.04770 1.01890 0.08550
C26 C 0.0416(5) 1.2770(5) 0.0066(5)
H25 H 0.02950 1.30750 -0.06590
C27 C 0.0625(7) 1.2617(7) 0.1614(6)
H26 H 0.06690 1.28060 0.21660
C28 C 0.0806(6) 1.1532(6) 0.1711(5)
H27 H 0.09900 1.08490 0.23300
O21? O 0.0289(13) 0.6495(11) 0.6282(10)
O22? O 0.1840(7) 0.5690(8) 0.5849(7)
O23? O 0.1861(7) 0.3606(7) 0.7172(6)
O24? O 0.0163(9) 0.4511(11) 0.7609(8)
O25? O 0.1640(7) 0.7095(8) 0.3993(7)
O26? O 0.031(2) 0.8867(16) 0.253(2)
O27? O -0.1523(7) 0.8297(8) 0.2790(7)
O28? O 0.0811(7) 0.7073(7) 0.2214(6)
O29? O 0.2643(7) 0.5292(8) 0.3408(7)
O30? O 0.2842(7) 0.3818(8) 0.5503(7)
O31? O 0.2481(8) 0.1928(8) 0.5515(8)
O32? O -0.0388(8) 0.8160(8) 0.4513(8)
O33? O 0.1751(17) 0.1528(14) 0.3977(10)
O34? O 0.1670(12) 0.3715(10) 0.3537(9)
O35? O 0.0772(6) 0.5660(6) 0.4119(5)
O36? O 0.0700(6) 0.3583(6) 0.5447(5)
O19A O -0.1232(6) 0.5449(6) 0.4204(5)
O20A O -0.0263(6) 0.5450(6) 0.5880(5)
Mo1A Mo -0.13370(4) 0.74357(5) 0.55653(4)
Mo2A Mo -0.26601(5) 0.48012(6) 0.51379(7)
Mo3A Mo -0.12767(5) 0.51180(5) 0.27334(4)
Mo4A Mo -0.00390(5) 0.22743(5) 0.68419(5)
As2A As -0.10988(7) 0.27385(7) 0.46590(6)
V1A V -0.25310(6) 0.74391(8) 0.33818(7)
V2A V -0.13566(7) 0.47324(9) 0.72916(7)
O1A O -0.1865(5) 0.4968(5) 0.1799(4)
O2A O -0.0244(14) 0.3225(13) 0.3544(12)
O3A O -0.2316(7) 0.4438(8) 0.3714(7)
O4A O -0.2396(7) 0.6675(8) 0.2340(6)
O5A O -0.0037(10) 0.5265(11) 0.2113(8)
O6A O -0.1351(6) 0.3281(7) 0.5559(6)
O7A O -0.0010(18) 0.0882(16) 0.7583(19)
O8A O 0.1200(8) 0.2267(8) 0.7119(7)
O9A O -0.0479(6) 0.3269(7) 0.7277(6)
O10A O -0.1913(4) 0.4582(5) 0.8311(4)
O11A O -0.2316(6) 0.5034(7) 0.6094(6)
O12A O -0.3778(3) 0.4491(5) 0.5174(4)
O13A O -0.3364(7) 0.6431(8) 0.4049(7)
O14A O -0.3622(4) 0.8493(5) 0.2676(4)
O15A O -0.2174(9) 0.7527(9) 0.4569(8)
O16A O 0.0164(10) 0.2373(9) 0.5473(9)
O17A O -0.1760(18) 0.8708(15) 0.5612(10)
O18A O -0.1796(13) 0.6513(10) 0.6696(9)
Cu1A Cu 0.74590(7) 0.48579(8) 1.01345(7)
N1A N 0.2258(4) 0.6743(5) 0.9065(4)
N2A N 0.2090(4) 0.8359(5) 0.7699(4)
N3A N 0.6988(4) 0.6478(5) 0.9329(4)
N4A N 0.6329(4) 0.8187(5) 0.7962(4)
C1A C 0.2210(6) 0.7254(6) 0.8039(5)
H1A H 0.22540 0.68840 0.76090
C2A C 0.2165(5) 0.7593(6) 0.9383(6)
H2A H 0.21720 0.74950 1.00700
C3A C 0.2064(6) 0.8583(7) 0.8547(6)
H3A H 0.19910 0.92880 0.85480
C4A C 0.6673(5) 0.7030(6) 0.8300(5)
H4A H 0.66890 0.66630 0.78720
C5A C 0.6839(6) 0.7348(6) 0.9634(6)
H5A H 0.69990 0.72320 1.03160
C6A C 0.6429(6) 0.8388(7) 0.8797(6)
H6A H 0.62460 0.91140 0.87930
C7A C 0.5904(6) 0.9070(6) 0.6874(5)
H7A H 0.55830 0.98410 0.68540
H8A H 0.65120 0.90500 0.64730
C8A C 0.5039(5) 0.8855(5) 0.6384(5)
C9A C 0.5264(6) 0.8365(7) 0.5684(5)
H9A H 0.59680 0.81790 0.54970
C10A C 0.4478(7) 0.8146(7) 0.5255(6)
C11A C 0.3442(6) 0.8420(7) 0.5568(6)
H10A H 0.29030 0.82750 0.52910
C12A C 0.3172(5) 0.8897(5) 0.6269(5)
C13A C 0.3982(5) 0.9120(5) 0.6664(5)
H11A H 0.38180 0.94550 0.71280
C14A C 0.2072(6) 0.9172(6) 0.6607(6)
H12A H 0.18040 0.99620 0.65420
H13A H 0.15580 0.91420 0.61450
N5A N -0.4892(5) 2.4781(5) -0.1206(4)
N6A N -0.4600(4) 2.3801(4) -0.2151(4)
N7A N -0.0664(4) 1.8357(4) -0.0714(4)
N8A N -0.0365(4) 1.6608(5) -0.0573(5)
C15A C -0.4578(6) 2.3729(6) -0.1186(5)
H14A H -0.43700 2.30320 -0.05770
C16A C -0.5129(6) 2.5557(6) -0.2252(6)
H15A H -0.53650 2.63640 -0.25160
C17A C -0.4964(6) 2.4963(6) -0.2829(5)
H16A H -0.50760 2.52820 -0.35560
C18A C -0.4323(6) 2.2826(6) -0.2444(5)
H17A H -0.49980 2.28290 -0.27210
H18A H -0.38600 2.29300 -0.29870
C19A C -0.3726(5) 2.1675(5) -0.1514(5)
C20A C -0.2594(5) 2.1063(5) -0.1398(5)
H19A H -0.22010 2.13620 -0.19180
C21A C -0.2031(5) 2.0003(5) -0.0511(4)
C22A C -0.2625(6) 1.9588(6) 0.0281(5)
H20A H -0.22640 1.89060 0.08880
C23A C -0.3756(6) 2.0196(6) 0.0157(5)
H21A H -0.41510 1.99150 0.06830
C24A C -0.4304(6) 2.1217(6) -0.0737(5)
H22A H -0.50680 2.15990 -0.08180
C25A C -0.0827(5) 1.9303(5) -0.0412(5)
H23A H -0.04760 1.89720 0.03060
H24A H -0.04770 1.98110 -0.08550
C26A C -0.0416(5) 1.7230(5) -0.0066(5)
H25A H -0.02950 1.69250 0.06590
C27A C -0.0625(7) 1.7383(7) -0.1614(6)
H26A H -0.06690 1.71940 -0.21660
C28A C -0.0806(6) 1.8468(6) -0.1711(5)
H27A H -0.09900 1.91510 -0.23300
Cu2* Cu -0.50000 2.50000 0.00000
N5A* N 0.5108(5) 0.4781(5) -0.1206(4)
#END
