
#######################################################################
#
#                 Cambridge Crystallographic Data Centre
#                                CCDC
#
#######################################################################
#
# If this CIF has been generated from an entry in the Cambridge
# Structural Database, then it will include bibliographic, chemical,
# crystal, experimental, refinement or atomic coordinate data resulting
# from the CCDC's data processing and validation procedures.
#
#######################################################################

data_CSD_CIF_IHABEB
_audit_creation_date 2020-03-04
_audit_creation_method CSD-ConQuest-V1
_database_code_CSD IHABEB
_database_code_depnum_ccdc_archive 'CCDC 1950984'
_chemical_formula_sum 'C60 H64 As3 Cu5 Mo8 N24 O48 V4'
_chemical_formula_moiety
;
(As3 Mo8 O40 V4 5-)n,n(C30 H28 Cu3 N12 O2 3+),2n(C15 H14 Cu1 N6 O1 1+),4n(H2 
O1)
;
_journal_coden_Cambridge 1147
_journal_volume 20
_journal_year 2020
_journal_page_first 2753
_journal_name_full 'Cryst.Growth Des. '
loop_
_publ_author_name
"Zhifeng Zhao"
"Bowen Cong"
"Zhanhua Su"
"Bairu Li"
_chemical_name_systematic
;
catena-(bis(\m-1,1',1''-(benzene-1,3,5-triyl)tris(1H-imidazole))-diaqua-di-cop
per bis((\m-1,1',1''-(benzene-1,3,5-triyl)tris(1H-imidazole))-aqua-copper) 
tris(\m-arsenato)-hexadecakis(\m-oxo)-dodecaoxo-octa-molybdenum-tetra-vanadium
 tetrahydrate)
;
_cell_volume   2313.819
_exptl_crystal_colour 'blue'
_exptl_crystal_density_diffrn 2.442
_exptl_crystal_description 'block'
_diffrn_ambient_temperature 100
_refine_special_details
;
O10,O11,O12,O13,O14,O22,O3,O4,O5,O6,O7,O8 and 
O10A,O11A,O12A,O13A,O14A,O22A,O3A,O4A,O5A,O6A,O7A,O8A disordered over two 
sites with occupancies 0.5:0.5.
;
#These two values have been output from a single CSD field.
_refine_ls_R_factor_gt 0.0775
_refine_ls_wR_factor_gt 0.0775
_symmetry_cell_setting triclinic
_symmetry_space_group_name_H-M 'P -1'
_symmetry_Int_Tables_number 2
loop_
_symmetry_equiv_pos_site_id
_symmetry_equiv_pos_as_xyz
1 x,y,z
2 -x,-y,-z
_cell_length_a 12.8735(10)
_cell_length_b 14.5001(12)
_cell_length_c 15.3234(12)
_cell_angle_alpha 113.356(1)
_cell_angle_beta 100.382(1)
_cell_angle_gamma 109.265(1)
_cell_formula_units_Z 1
loop_
_atom_type_symbol
_atom_type_radius_bond
C 0.68
H 0.23
As 1.21
Cu 1.32
Mo 1.54
N 0.68
O 0.68
V 1.53
loop_
_atom_site_label
_atom_site_type_symbol
_atom_site_fract_x
_atom_site_fract_y
_atom_site_fract_z
Mo1 Mo 0.23494(9) 0.24128(9) 0.37731(7)
Mo2 Mo 0.45245(9) 0.45554(9) 0.24524(7)
Mo3 Mo 0.26362(9) 0.50798(9) 0.58967(8)
Mo4 Mo 0.4802(1) 0.72052(10) 0.45650(9)
As1 As 0.50000 0.50000 0.50000
As2 As 0.68674(10) 0.68057(10) 0.38750(8)
V1 V 0.22820(15) 0.46410(15) 0.34213(12)
O1 O 0.5634(11) 0.4731(11) 0.5869(9)
O2 O 0.4464(7) 0.4498(7) 0.1339(5)
O3 O 0.4893(8) 0.8255(7) 0.4320(7)
O4 O 0.5388(8) 0.8621(7) 0.7876(6)
O5 O 0.6703(15) 0.7913(15) 0.5134(12)
O6 O 0.1546(8) 0.4950(8) 0.6345(7)
O7 O 0.1149(8) 0.1222(7) 0.3320(6)
O8 O 0.7449(17) 0.6483(16) 0.4823(14)
O9 O 0.1088(8) 0.4451(9) 0.2722(7)
O10 O 0.1738(14) 0.4885(13) 0.4631(11)
O11 O 0.5095(16) 0.6348(15) 0.3219(13)
O12 O 0.4493(16) 0.3114(16) 0.2036(13)
O13 O 0.6424(15) 0.5191(15) 0.2964(13)
O14 O 0.4745(14) 0.7451(15) 0.5721(12)
O15 O 0.3692(13) 0.6409(13) 0.6383(12)
O16 O 0.2941(17) 0.4407(17) 0.2288(14)
O17 O 0.1549(15) 0.3029(15) 0.3139(13)
O18 O 0.3273(14) 0.2305(16) 0.3122(12)
O19 O 0.3104(15) 0.6261(14) 0.3751(13)
O20 O 0.5531(12) 0.6414(11) 0.5531(10)
O21 O 0.5342(11) 0.4461(12) 0.3969(9)
O22 O 0.3537(11) 0.4430(11) 0.4629(10)
V2 V 0.52476(16) 0.75167(16) 0.69961(13)
Cu1 Cu 0.14955(13) -0.14547(14) 0.02454(14)
Cu2 Cu 0.00000 0.50000 0.50000
N1 N -0.1438(8) -0.0965(8) 0.0285(7)
N2 N -0.5358(7) -0.1321(8) 0.0175(7)
N3 N -0.1945(8) 0.1713(8) 0.3113(7)
N4 N 0.0077(8) -0.1287(8) 0.0083(8)
N5 N -0.0900(9) 0.3416(8) 0.4352(8)
N6 N -0.7221(8) -0.1689(8) -0.0042(8)
C1 C -0.2426(9) 0.0721(9) 0.2118(8)
C2 C -0.4111(8) -0.0764(9) 0.0688(8)
C3 C -0.3630(9) 0.0191(9) 0.1624(8)
H1 H -0.41183 0.04769 0.19234
C4 C -0.0758(10) -0.1787(10) -0.0869(9)
H2 H -0.06986 -0.22104 -0.14986
C5 C -0.2172(9) -0.0570(9) 0.0754(8)
C6 C -0.1665(9) 0.0381(9) 0.1705(8)
H3 H -0.08353 0.07771 0.20546
C7 C -0.1006(10) 0.2694(9) 0.3458(9)
H4 H -0.04959 0.28392 0.31020
C8 C -0.2460(11) 0.1819(10) 0.3832(9)
H5 H -0.31465 0.12689 0.37964
C9 C -0.1774(11) 0.2884(10) 0.4607(10)
H6 H -0.18885 0.32069 0.52333
C10 C -0.169(1) -0.1564(9) -0.0745(8)
H7 H -0.23837 -0.17810 -0.12731
C11 C -0.616(1) -0.1110(11) 0.0604(11)
H8 H -0.59534 -0.05947 0.13006
C12 C -0.3391(9) -0.1151(9) 0.0221(9)
H9 H -0.37179 -0.17901 -0.04378
C13 C -0.7148(11) -0.2346(11) -0.0961(10)
H10 H -0.77959 -0.28690 -0.15830
C14 C -0.6015(9) -0.2123(11) -0.0825(9)
H11 H -0.57215 -0.24585 -0.13274
C15 C -0.0357(9) -0.0815(10) 0.0750(9)
H12 H 0.00416 -0.04190 0.14668
O23 O 0.2223(10) -0.0562(10) 0.2067(9)
H13 H 0.20775 -0.00209 0.23808
H14 H 0.28917 -0.02125 0.24535
Cu3 Cu 1.15972(13) 0.67097(14) 1.11434(13)
N7 N 0.4833(8) 0.6931(8) 1.1263(7)
N8 N 0.8380(8) 0.9890(8) 1.4144(7)
N9 N 0.2975(8) 0.6568(9) 1.0997(8)
N10 N 0.8648(7) 0.7096(8) 1.1218(6)
N11 N 1.0137(8) 0.6743(9) 1.0944(7)
N12 N 0.8626(10) 1.1123(9) 1.5693(8)
C16 C 0.7839(9) 0.8933(9) 1.3182(8)
C17 C 0.8505(9) 0.8499(10) 1.2688(8)
H15 H 0.93397 0.88667 1.30017
C18 C 0.9242(9) 0.6265(10) 1.0022(9)
H16 H 0.92825 0.58631 0.93766
C19 C 0.6095(9) 0.7443(9) 1.1788(8)
C20 C 0.3091(9) 0.6015(10) 1.0063(9)
H17 H 0.24701 0.55566 0.94175
C21 C 0.423(1) 0.6244(10) 1.0237(8)
H18 H 0.45594 0.59772 0.97387
C22 C 0.8294(9) 0.6444(10) 1.0158(9)
H19 H 0.75625 0.61871 0.96524
C23 C 0.6592(9) 0.8392(10) 1.2691(9)
H20 H 0.61184 0.86954 1.29970
C24 C 0.403(1) 0.7091(10) 1.1699(9)
H21 H 0.42082 0.75187 1.24095
C25 C 0.6756(10) 0.6994(10) 1.1308(8)
H22 H 0.63784 0.63124 1.06779
C26 C 0.9755(9) 0.7242(10) 1.1645(9)
H23 H 1.01929 0.76516 1.23557
C27 C 0.7978(10) 0.7543(10) 1.1752(8)
C28 C 0.7948(11) 1.0137(11) 1.4906(9)
H24 H 0.72216 0.96382 1.48692
C29 C 0.9446(10) 1.0821(10) 1.4514(9)
H25 H 0.99843 1.09166 1.41710
C30 C 0.9578(11) 1.1556(11) 1.5437(9)
H26 H 1.02311 1.22743 1.58596
O24 O 1.2366(13) 0.7686(17) 1.3020(9)
H27 H 1.27199 0.73606 1.32423
H28 H 1.17945 0.76799 1.32517
O25 O 0.5266(15) 1.0204(11) 0.6610(12)
H29 H 0.51053 0.97966 0.59418
H30 H 0.59933 1.07766 0.68973
O26 O 0.0629(15) 0.4637(16) 0.7818(12)
H31 H 0.02525 0.50277 0.78415
H32 H 0.08134 0.46510 0.72996
O27? O 0.3537(13) 0.6654(13) 0.6830(12)
O28? O 0.5003(16) 0.8077(16) 0.5973(14)
O29? O 0.2330(14) 0.5110(12) 0.4801(11)
O30? O 0.3460(17) 0.6207(16) 0.4136(14)
O31? O 0.3253(16) 0.4313(16) 0.2653(14)
O32? O 0.5295(16) 0.6206(15) 0.3542(13)
O33? O 0.6225(16) 0.5296(15) 0.3374(13)
O34? O 0.4333(16) 0.3328(17) 0.2453(14)
O35? O 0.3022(15) 0.1676(14) 0.2869(13)
O36? O 0.2178(16) 0.3255(14) 0.3311(12)
O37? O 0.6457(16) 0.7355(14) 0.4993(13)
O38? O 0.8004(16) 0.6746(15) 0.4888(14)
O1A O 0.4366(11) 0.5269(11) 0.4131(9)
O20A O 0.4469(12) 0.3586(11) 0.4469(10)
O21A O 0.4658(11) 0.5539(12) 0.6031(9)
O22A O 0.6463(11) 0.5570(11) 0.5371(10)
Mo1A Mo 0.76506(9) 0.75872(9) 0.62269(7)
Mo2A Mo 0.54755(9) 0.54446(9) 0.75476(7)
Mo3A Mo 0.73638(9) 0.49202(9) 0.41033(8)
Mo4A Mo 0.5198(1) 0.27948(10) 0.54350(9)
As2A As 0.31326(10) 0.31943(10) 0.61250(8)
V1A V 0.77180(15) 0.53590(15) 0.65787(12)
O2A O 0.5536(7) 0.5502(7) 0.8661(5)
O3A O 0.5107(8) 0.1745(7) 0.5680(7)
O4A O 0.4612(8) 0.1379(7) 0.2124(6)
O5A O 0.3297(15) 0.2087(15) 0.4866(12)
O6A O 0.8454(8) 0.5050(8) 0.3655(7)
O7A O 0.8851(8) 0.8778(7) 0.6680(6)
O8A O 0.2551(17) 0.3517(16) 0.5177(14)
O9A O 0.8912(8) 0.5549(9) 0.7278(7)
O10A O 0.8262(14) 0.5115(13) 0.5369(11)
O11A O 0.4905(16) 0.3652(15) 0.6781(13)
O12A O 0.5507(16) 0.6886(16) 0.7964(13)
O13A O 0.3576(15) 0.4809(15) 0.7036(13)
O14A O 0.5255(14) 0.2549(15) 0.4279(12)
O15A O 0.6308(13) 0.3591(13) 0.3617(12)
O16A O 0.7059(17) 0.5593(17) 0.7712(14)
O17A O 0.8451(15) 0.6971(15) 0.6861(13)
O18A O 0.6727(14) 0.7695(16) 0.6878(12)
O19A O 0.6896(15) 0.3739(14) 0.6249(13)
V2A V 0.47524(16) 0.24833(16) 0.30039(13)
Cu1A Cu -0.14955(13) 1.14547(14) 0.97546(14)
N1A N 0.1438(8) 1.0965(8) 0.9715(7)
N2A N 0.5358(7) 1.1321(8) 0.9825(7)
N3A N 0.1945(8) 0.8287(8) 0.6887(7)
N4A N -0.0077(8) 1.1287(8) 0.9917(8)
N5A N 0.0900(9) 0.6584(8) 0.5648(8)
N6A N 0.7221(8) 1.1689(8) 1.0042(8)
C1A C 0.2426(9) 0.9279(9) 0.7882(8)
C2A C 0.4111(8) 1.0764(9) 0.9312(8)
C3A C 0.3630(9) 0.9809(9) 0.8376(8)
H1A H 0.41183 0.95231 0.80766
C4A C 0.0758(10) 1.1787(10) 1.0869(9)
H2A H 0.06986 1.22104 1.14986
C5A C 0.2172(9) 1.0570(9) 0.9246(8)
C6A C 0.1665(9) 0.9619(9) 0.8295(8)
H3A H 0.08353 0.92229 0.79454
C7A C 0.1006(10) 0.7306(9) 0.6542(9)
H4A H 0.04959 0.71608 0.68980
C8A C 0.2460(11) 0.8181(10) 0.6168(9)
H5A H 0.31465 0.87311 0.62036
C9A C 0.1774(11) 0.7116(10) 0.5393(10)
H6A H 0.18885 0.67931 0.47667
C10A C 0.169(1) 1.1564(9) 1.0745(8)
H7A H 0.23837 1.17810 1.12731
C11A C 0.616(1) 1.1110(11) 0.9396(11)
H8A H 0.59534 1.05947 0.86994
C12A C 0.3391(9) 1.1151(9) 0.9779(9)
H9A H 0.37179 1.17901 1.04378
C13A C 0.7148(11) 1.2346(11) 1.0961(10)
H10A H 0.77959 1.28689 1.15830
C14A C 0.6015(9) 1.2123(11) 1.0825(9)
H11A H 0.57215 1.24585 1.13274
C15A C 0.0357(9) 1.0815(10) 0.9250(9)
H12A H -0.00416 1.04190 0.85332
O23A O -0.2223(10) 1.0562(10) 0.7933(9)
H13A H -0.20775 1.00209 0.76192
H14A H -0.28917 1.02125 0.75465
Cu1* Cu -0.85045(13) -0.14547(14) 0.02454(14)
Cu1A* Cu 0.85045(13) 1.14547(14) 0.97546(14)
N6* N 0.2779(8) -0.1689(8) -0.0042(8)
N6A* N -0.2779(8) 1.1689(8) 1.0042(8)
Cu3* Cu 0.15972(13) 0.67097(14) 1.11434(13)
N9* N 1.2975(8) 0.6568(9) 1.0997(8)
#END
