
#######################################################################
#
#                 Cambridge Crystallographic Data Centre
#                                CCDC
#
#######################################################################
#
# If this CIF has been generated from an entry in the Cambridge
# Structural Database, then it will include bibliographic, chemical,
# crystal, experimental, refinement or atomic coordinate data resulting
# from the CCDC's data processing and validation procedures.
#
#######################################################################

data_CSD_CIF_IHAGIJ
_audit_creation_date 2015-05-06
_audit_creation_method CSD-ConQuest-V1
_database_code_CSD IHAGIJ
_database_code_depnum_ccdc_archive 'CCDC 1039525'
_chemical_formula_sum 'C18 H24 Ce2 N2 O18 P6'
_chemical_formula_moiety
;
(C6 H5 Ce1 O9 P3 1-)2n,n(C6 H14 N2 2+)
;
_journal_coden_Cambridge 1220
_journal_volume 21
_journal_year 2015
_journal_page_first 6257
_journal_name_full 'Chem.-Eur.J. '
loop_
_publ_author_name
"T.Araki"
"A.Kondo"
"K.Maeda"
_chemical_name_systematic
;
catena-[1,4-diazoniabicyclo[2.2.2]octane 
(\m-(3,5-bis(hydroxyphosphinato)phenyl)phosphonato)-cerium]
;
_cell_volume   1638.609
_exptl_crystal_colour 'colorless'
_exptl_crystal_density_diffrn 2.072
_exptl_special_details
;
powder data

;
_diffrn_ambient_temperature 300
_diffrn_radiation_probe x-ray
_diffrn_source synchrotron
#These two values have been output from a single CSD field.
_refine_ls_R_factor_gt 0.0117
_refine_ls_wR_factor_gt 0.0117
_symmetry_cell_setting monoclinic
_symmetry_space_group_name_H-M 'P 21/m'
_symmetry_Int_Tables_number 11
loop_
_symmetry_equiv_pos_site_id
_symmetry_equiv_pos_as_xyz
1 x,y,z
2 -x,1/2+y,-z
3 -x,-y,-z
4 x,-1/2-y,z
_cell_length_a 9.086(1)
_cell_length_b 23.459(3)
_cell_length_c 8.7835(8)
_cell_angle_alpha 90
_cell_angle_beta 118.927(4)
_cell_angle_gamma 90
_cell_formula_units_Z 2
loop_
_atom_type_symbol
_atom_type_radius_bond
C 0.68
H 0.23
Ce 2.04
N 0.68
O 0.68
P 1.05
loop_
_atom_site_label
_atom_site_type_symbol
_atom_site_fract_x
_atom_site_fract_y
_atom_site_fract_z
P1 P 1.359(1) 0.4095(6) 0.320(1)
P2 P 0.943(1) 0.4112(4) -0.390(1)
P3 P 0.665(1) 0.4059(5) 0.052(2)
O1 O 1.442(3) 0.4590(5) 0.305(3)
O2 O 1.352(4) 0.4075(9) 0.492(3)
O3 O 1.462(2) 0.3581(6) 0.316(3)
O4 O 0.838(3) 0.4637(7) -0.474(3)
O5 O 1.115(2) 0.414(1) -0.369(2)
O6 O 0.862(2) 0.3559(7) -0.491(3)
O7 O 0.652(3) 0.4676(5) 0.096(2)
O8 O 0.508(2) 0.395(1) -0.127(2)
O9 O 0.677(3) 0.3654(7) 0.192(2)
C1 C 1.149(1) 0.404(3) 0.135(2)
C2 C 0.968(3) 0.405(2) -0.177(2)
C3 C 0.845(2) 0.402(1) 0.016(2)
C4 C 1.129(3) 0.406(3) -0.034(2)
C5 C 1.007(2) 0.403(3) 0.157(2)
C6 C 0.825(2) 0.404(2) -0.156(2)
H1 H 1.223(2) 0.411(7) -0.048(4)
H2 H 1.02(2) 0.40(2) 0.27(4)
H3 H 0.72(2) 0.41(1) -0.25(2)
Ce1 Ce 1.6481(4) 0.5228(1) 0.3109(5)
N1 N 0.661(2) -0.1930(6) 0.338(3)
C7 C 0.497(2) -0.2164(3) 0.314(3)
C8 C 0.804(3) -0.2163(3) 0.502(3)
C9 C 0.683(3) -0.2164(3) 0.192(3)
O2B O 1.648(4) 0.5925(9) 0.508(3)
O4* O 1.838(3) 0.4637(7) 0.526(3)
O5B O 1.885(2) 0.586(1) 0.369(2)
O7* O 1.652(3) 0.4676(5) 0.096(2)
O8B O 1.492(2) 0.605(1) 0.127(2)
Ce1* Ce 0.6481(4) 0.5228(1) -0.6891(5)
Ce1** Ce 0.6481(4) 0.5228(1) 0.3109(5)
Ce1B Ce 0.3519(4) 0.4772(1) -0.3109(5)
Ce1B* Ce 1.3519(4) 0.4772(1) -0.3109(5)
Ce1B** Ce 1.3519(4) 0.4772(1) 0.6891(5)
N1C N 0.661(2) -0.3070(6) 0.338(3)
C7C C 0.497(2) -0.2836(3) 0.314(3)
C8C C 0.804(3) -0.2837(3) 0.502(3)
C9C C 0.683(3) -0.2836(3) 0.192(3)
#END
