
#######################################################################
#
#                 Cambridge Crystallographic Data Centre
#                                CCDC
#
#######################################################################
#
# If this CIF has been generated from an entry in the Cambridge
# Structural Database, then it will include bibliographic, chemical,
# crystal, experimental, refinement or atomic coordinate data resulting
# from the CCDC's data processing and validation procedures.
#
#######################################################################

data_CSD_CIF_IHAGAB
_audit_creation_date 2015-05-06
_audit_creation_method CSD-ConQuest-V1
_database_code_CSD IHAGAB
_database_code_depnum_ccdc_archive 'CCDC 1039523'
_chemical_formula_sum 'C18 H33.26 Ce2 N2 O22.63 P6'
_chemical_formula_moiety
;
(C6 H5 Ce1 O9 P3 1-)2n,n(C6 H14 N2 2+),4.63n(H2 O1)
;
_journal_coden_Cambridge 1220
_journal_volume 21
_journal_year 2015
_journal_page_first 6257
_journal_name_full 'Chem.-Eur.J. '
loop_
_publ_author_name
"T.Araki"
"A.Kondo"
"K.Maeda"
_chemical_name_systematic
;
catena-[1,4-diazoniabicyclo[2.2.2]octane 
(\m-(3,5-bis(hydroxyphosphinato)phenyl)phosphonato)-cerium hydrate]
;
_cell_volume   1751.671
_exptl_crystal_colour 'colorless'
_exptl_crystal_density_diffrn 2.097
_exptl_special_details
;
powder data

;
_diffrn_ambient_temperature 300
_diffrn_radiation_probe x-ray
_diffrn_source synchrotron
#These two values have been output from a single CSD field.
_refine_ls_R_factor_gt 0.0133
_refine_ls_wR_factor_gt 0.0133
_symmetry_cell_setting hexagonal
_symmetry_space_group_name_H-M 'P 63/m'
_symmetry_Int_Tables_number 176
loop_
_symmetry_equiv_pos_site_id
_symmetry_equiv_pos_as_xyz
1 x,y,z
2 -y,x-y,z
3 -x+y,-x,z
4 -x,-y,1/2+z
5 y,-x+y,1/2+z
6 x-y,x,1/2+z
7 -x,-y,-z
8 y,-x+y,-z
9 x-y,x,-z
10 x,y,-1/2-z
11 -y,x-y,-1/2-z
12 -x+y,-x,-1/2-z
_cell_length_a 9.5413(2)
_cell_length_b 9.5413(2)
_cell_length_c 22.2181(5)
_cell_angle_alpha 90
_cell_angle_beta 90
_cell_angle_gamma 120
_cell_formula_units_Z 2
loop_
_atom_type_symbol
_atom_type_radius_bond
C 0.68
H 0.23
Ce 2.04
N 0.68
O 0.68
P 1.05
loop_
_atom_site_label
_atom_site_type_symbol
_atom_site_fract_x
_atom_site_fract_y
_atom_site_fract_z
Ce1 Ce 0.66666 0.33333 0.51206(4)
P1 P 0.6586(4) -0.0163(4) 0.5903(1)
O1 O 0.5991(5) -0.0762(8) 0.6558(2)
O2 O 0.5422(7) -0.1412(11) 0.5464(3)
O3 O 0.6769(8) 0.1495(11) 0.5825(3)
C1 C 0.9945(6) 0.1431(4) 0.5867(5)
C2 C 0.8508(5) -0.0051(4) 0.5830(4)
H1 H 0.9925(13) 0.2315(9) 0.605(1)
N1 N 0.66667 0.33333 0.6926(4)
C3 C 0.5101(6) 0.1912(7) 0.7139(2)
O4 O 0.087(1) -0.132(1) 0.75000
O5 O 0.33333 0.66667 0.6837(3)
P1A P 1.0163(4) -0.3251(4) 0.5903(1)
C1A C 0.8569(6) -0.1486(4) 0.5867(5)
C2A C 1.0051(5) -0.1441(4) 0.5830(4)
O1A O 1.0762(5) -0.3247(8) 0.6558(2)
O2A O 1.1412(7) -0.3166(11) 0.5464(3)
O3A O 0.8505(8) -0.4726(11) 0.5825(3)
H1A H 0.7685(13) -0.2390(9) 0.605(1)
P1B P 1.3251(4) 0.3414(4) 0.5903(1)
C1B C 1.1486(6) 0.0055(4) 0.5867(5)
C2B C 1.1441(5) 0.1492(4) 0.5830(4)
O1B O 1.3247(5) 0.4009(8) 0.6558(2)
O2B O 1.3166(7) 0.4578(11) 0.5464(3)
O3B O 1.4726(8) 0.3231(11) 0.5825(3)
H1B H 1.2390(13) 0.0075(9) 0.605(1)
Ce1* Ce 0.66666 -0.66667 0.51206(4)
Ce1** Ce 1.66666 0.33333 0.51206(4)
Ce1F Ce 0.33334 -0.33333 0.48794(4)
Ce1F* Ce 1.33334 -0.33333 0.48794(4)
Ce1F** Ce 1.33334 0.66667 0.48794(4)
O2F O 0.4578(7) 0.1412(11) 0.4536(3)
O2G O 0.8588(7) 0.3166(11) 0.4536(3)
O2H O 0.6834(7) 0.5422(11) 0.4536(3)
O3A* O 0.8505(8) 0.5274(11) 0.5825(3)
O3B* O 0.4726(8) 0.3231(11) 0.5825(3)
C3A C 0.8088(6) 0.3189(7) 0.7139(2)
C3B C 0.6811(6) 0.4899(7) 0.7139(2)
N1I N 0.66667 0.33333 0.8074(4)
C3I C 0.5101(6) 0.1912(7) 0.7861(2)
C3J C 0.8088(6) 0.3189(7) 0.7861(2)
C3K C 0.6811(6) 0.4899(7) 0.7861(2)
#END
