
#######################################################################
#
#                 Cambridge Crystallographic Data Centre
#                                CCDC
#
#######################################################################
#
# If this CIF has been generated from an entry in the Cambridge
# Structural Database, then it will include bibliographic, chemical,
# crystal, experimental, refinement or atomic coordinate data resulting
# from the CCDC's data processing and validation procedures.
#
#######################################################################

data_CSD_CIF_IHAGEF
_audit_creation_date 2015-05-06
_audit_creation_method CSD-ConQuest-V1
_database_code_CSD IHAGEF
_database_code_depnum_ccdc_archive 'CCDC 1039524'
_chemical_formula_sum 'C18 H32.84 N2 O22.42 P6 Pr2'
_chemical_formula_moiety
;
(C6 H5 O9 P3 Pr1 1-)2n,n(C6 H14 N2 2+),4.42n(H2 O1)
;
_journal_coden_Cambridge 1220
_journal_volume 21
_journal_year 2015
_journal_page_first 6257
_journal_name_full 'Chem.-Eur.J. '
loop_
_publ_author_name
"T.Araki"
"A.Kondo"
"K.Maeda"
_chemical_name_systematic
;
catena-[1,4-diazoniabicyclo[2.2.2]octane 
(\m-(3,5-bis(hydroxyphosphinato)phenyl)phosphonato)-praseodymium hydrate]
;
_cell_volume   1740.246
_exptl_crystal_colour 'colorless'
_exptl_crystal_density_diffrn 2.106
_exptl_special_details
;
powder data

;
_diffrn_ambient_temperature 300
_diffrn_radiation_probe x-ray
_diffrn_source synchrotron
#These two values have been output from a single CSD field.
_refine_ls_R_factor_gt 0.0124
_refine_ls_wR_factor_gt 0.0124
_symmetry_cell_setting hexagonal
_symmetry_space_group_name_H-M 'P 63/m'
_symmetry_Int_Tables_number 176
loop_
_symmetry_equiv_pos_site_id
_symmetry_equiv_pos_as_xyz
1 x,y,z
2 -y,x-y,z
3 -x+y,-x,z
4 -x,-y,1/2+z
5 y,-x+y,1/2+z
6 x-y,x,1/2+z
7 -x,-y,-z
8 y,-x+y,-z
9 x-y,x,-z
10 x,y,-1/2-z
11 -y,x-y,-1/2-z
12 -x+y,-x,-1/2-z
_cell_length_a 9.5233(3)
_cell_length_b 9.5233(3)
_cell_length_c 22.1567(6)
_cell_angle_alpha 90
_cell_angle_beta 90
_cell_angle_gamma 120
_cell_formula_units_Z 2
loop_
_atom_type_symbol
_atom_type_radius_bond
C 0.68
H 0.23
N 0.68
O 0.68
P 1.05
Pr 2.03
loop_
_atom_site_label
_atom_site_type_symbol
_atom_site_fract_x
_atom_site_fract_y
_atom_site_fract_z
Pr1 Pr 0.66666 0.33333 0.51203(5)
P1 P 0.6583(4) -0.0161(5) 0.5900(1)
O1 O 0.5999(6) -0.0751(10) 0.6559(2)
O2 O 0.5423(8) -0.1426(12) 0.5461(3)
O3 O 0.6764(9) 0.1512(12) 0.5811(3)
C1 C 0.995(1) 0.1435(9) 0.5862(7)
C2 C 0.849(1) -0.0055(9) 0.5823(6)
H1 H 0.991(2) 0.232(1) 0.603(2)
N1 N 0.66667 0.33333 0.6920(5)
C3 C 0.5098(7) 0.1915(8) 0.7136(2)
O4 O 0.085(1) 0.869(1) 0.75000
O5 O 0.33333 0.66666 0.6835(4)
P1A P 1.0161(4) -0.3256(5) 0.5900(1)
C1A C 0.8565(10) -0.1485(9) 0.5862(7)
C2A C 1.0055(10) -0.1455(9) 0.5823(6)
O1A O 1.0751(6) -0.325(1) 0.6559(2)
O2A O 1.1426(8) -0.3151(12) 0.5461(3)
O3A O 0.8488(9) -0.4748(12) 0.5811(3)
H1A H 0.768(2) -0.241(1) 0.603(2)
P1B P 1.3256(4) 0.3417(5) 0.5900(1)
C1B C 1.1485(10) 0.0050(9) 0.5862(7)
C2B C 1.1455(10) 0.1510(9) 0.5823(6)
O1B O 1.3250(6) 0.4001(10) 0.6559(2)
O2B O 1.3151(8) 0.4577(12) 0.5461(3)
O3B O 1.4748(9) 0.3236(12) 0.5811(3)
H1B H 1.241(2) 0.009(1) 0.603(2)
Pr1* Pr 0.66666 -0.66667 0.51203(5)
Pr1** Pr 1.66666 0.33333 0.51203(5)
Pr1F Pr 0.33334 -0.33333 0.48797(5)
Pr1F* Pr 1.33334 -0.33333 0.48797(5)
Pr1F** Pr 1.33334 0.66667 0.48797(5)
O2F O 0.4577(8) 0.1426(12) 0.4539(3)
O2G O 0.8574(8) 0.3151(12) 0.4539(3)
O2H O 0.6849(8) 0.5423(12) 0.4539(3)
O3A* O 0.8488(9) 0.5252(12) 0.5811(3)
O3B* O 0.4748(9) 0.3236(12) 0.5811(3)
C3A C 0.8085(7) 0.3183(8) 0.7136(2)
C3B C 0.6817(7) 0.4902(8) 0.7136(2)
N1I N 0.66667 0.33333 0.8080(5)
C3I C 0.5098(7) 0.1915(8) 0.7864(2)
C3J C 0.8085(7) 0.3183(8) 0.7864(2)
C3K C 0.6817(7) 0.4902(8) 0.7864(2)
#END
