
#######################################################################
#
#                 Cambridge Crystallographic Data Centre
#                                CCDC
#
#######################################################################
#
# If this CIF has been generated from an entry in the Cambridge
# Structural Database, then it will include bibliographic, chemical,
# crystal, experimental, refinement or atomic coordinate data resulting
# from the CCDC's data processing and validation procedures.
#
#######################################################################

data_CSD_CIF_IHEQET
_audit_creation_date 2015-05-06
_audit_creation_method CSD-ConQuest-V1
_database_code_CSD IHEQET
_database_code_depnum_ccdc_archive 'CCDC 979214'
_chemical_formula_sum 'C12 H28 Cu2 N2 Ni1 O20'
_chemical_formula_moiety
;
(C12 H12 Cu2 N2 O12 2-)n,H12 Ni1 O6 2+,2(H2 O1)
;
_journal_coden_Cambridge 910
_journal_volume 24
_journal_year 2014
_journal_page_first 819
_journal_name_full 'J.Inorg.Organomet.Polym.Mater. '
loop_
_publ_author_name
"Hai-Bin Lin"
"Qing-Hua Wang"
"Zhao-Hui Zhou"
_chemical_name_systematic
;
catena-[bis(\m-2,2',2''-nitrilotriacetato)-di-copper hexaaqua-nickel 
dihydrate]
;
_cell_volume   1161.291
_exptl_crystal_density_diffrn 2.02
_diffrn_ambient_temperature 298
#These two values have been output from a single CSD field.
_refine_ls_R_factor_gt 0.0796
_refine_ls_wR_factor_gt 0.0796
_symmetry_cell_setting monoclinic
_symmetry_space_group_name_H-M 'P 21'
_symmetry_Int_Tables_number 4
loop_
_symmetry_equiv_pos_site_id
_symmetry_equiv_pos_as_xyz
1 x,y,z
2 -x,1/2+y,-z
_cell_length_a 6.3535(15)
_cell_length_b 16.253(4)
_cell_length_c 11.271(3)
_cell_angle_alpha 90
_cell_angle_beta 93.824(4)
_cell_angle_gamma 90
_cell_formula_units_Z 2
loop_
_atom_type_symbol
_atom_type_radius_bond
C 0.68
H 0.23
Cu 1.32
N 0.68
Ni 1.24
O 0.68
loop_
_atom_site_label
_atom_site_type_symbol
_atom_site_fract_x
_atom_site_fract_y
_atom_site_fract_z
Cu1 Cu 1.00932(16) 1.34104(7) -0.24569(10)
Cu2 Cu 1.51090(16) 1.21165(7) -0.23793(10)
N1 N 0.8990(12) 1.4576(5) -0.2640(7)
N2 N 1.4036(13) 1.0946(5) -0.2424(7)
O1 O 1.0510(14) 1.4803(5) 0.0407(7)
O2 O 1.0515(13) 1.3727(5) -0.0769(6)
O3 O 0.9210(14) 1.4220(6) -0.5733(7)
O4 O 0.9670(11) 1.3386(6) -0.4192(6)
O5 O 0.3588(14) 1.3906(6) -0.2859(11)
O6 O 0.6449(11) 1.3183(4) -0.2311(7)
O7 O 0.8619(12) 1.1596(5) -0.2325(8)
O8 O 1.1500(11) 1.2364(4) -0.2311(7)
O9 O 1.5488(17) 1.1018(5) -0.5435(7)
O10 O 1.5086(12) 1.1981(5) -0.4120(6)
O11 O 1.5136(16) 1.0958(5) 0.0690(7)
O12 O 1.5251(11) 1.1936(5) -0.0644(6)
C1 C 1.0130(15) 1.5029(6) -0.1666(9)
H1 H 0.93580 1.55250 -0.14930
H2 H 1.15100 1.51890 -0.19050
C2 C 1.0374(16) 1.4507(7) -0.058(1)
C3 C 0.9545(18) 1.4805(6) -0.3824(10)
H3 H 1.09710 1.50210 -0.37820
H4 H 0.86020 1.52350 -0.41310
C4 C 0.9402(15) 1.4078(7) -0.4662(9)
C5 C 0.6715(17) 1.4628(7) -0.2553(11)
H5 H 0.61500 1.49830 -0.31890
H6 H 0.64670 1.49010 -0.18090
C6 C 0.5457(16) 1.3845(7) -0.2606(10)
C7 C 1.1764(17) 1.0912(7) -0.2542(12)
H7 H 1.13180 1.05080 -0.19770
H8 H 1.13590 1.07030 -0.33300
C8 C 1.0525(16) 1.1680(7) -0.2371(8)
C9 C 1.4933(15) 1.0593(6) -0.3501(9)
H9 H 1.40210 1.01560 -0.38170
H10 H 1.63050 1.03560 -0.32800
C10 C 1.5158(16) 1.1233(7) -0.4445(9)
C11 C 1.4906(17) 1.0570(7) -0.1323(9)
H11 H 1.62850 1.03420 -0.14450
H12 H 1.39960 1.01250 -0.11000
C12 C 1.5091(17) 1.1183(7) -0.0364(9)
Ni1 Ni 0.36364(19) 1.29938(10) -0.74659(11)
O13 O 0.1108(13) 1.2235(6) -0.7444(7)
H13 H -0.00030 1.23250 -0.76730
H14 H 0.16160 1.17800 -0.76600
O14 O 0.5525(14) 1.1979(5) -0.7383(6)
H15 H 0.59180 1.16960 -0.79620
H16 H 0.66470 1.20750 -0.69520
O15 O 0.1804(13) 1.4035(6) -0.7545(7)
H17 H 0.06340 1.38160 -0.77780
H18 H 0.17250 1.41170 -0.68040
O16 O 0.3927(13) 1.3152(5) -0.5656(6)
H19 H 0.27840 1.34040 -0.55460
H20 H 0.45370 1.28150 -0.51680
O17 O 0.3430(11) 1.2998(6) -0.9256(6)
H21 H 0.25000 1.32160 -0.97350
H22 H 0.40560 1.26450 -0.96640
O18 O 0.6319(12) 1.3676(5) -0.7558(7)
H23 H 0.72550 1.34880 -0.79890
H24 H 0.69830 1.38050 -0.69050
O19 O 0.9726(15) 1.1865(6) -0.5333(8)
H25 H 0.97910 1.18560 -0.45770
H26 H 0.98710 1.14710 -0.58170
O20 O 0.8344(12) 1.2780(6) -0.9248(7)
H27 H 0.94760 1.26630 -0.93020
H28 H 0.79600 1.28240 -0.99820
Cu1* Cu 0.00932(16) 1.34104(7) -0.24569(10)
Cu2* Cu 0.51090(16) 1.21165(7) -0.23793(10)
O5* O 1.3588(14) 1.3906(6) -0.2859(11)
O6* O 1.6449(11) 1.3183(4) -0.2311(7)
O7* O 1.8619(12) 1.1596(5) -0.2325(8)
#END
