
#######################################################################
#
#                 Cambridge Crystallographic Data Centre
#                                CCDC
#
#######################################################################
#
# If this CIF has been generated from an entry in the Cambridge
# Structural Database, then it will include bibliographic, chemical,
# crystal, experimental, refinement or atomic coordinate data resulting
# from the CCDC's data processing and validation procedures.
#
#######################################################################

data_CSD_CIF_IHINES
_audit_creation_date 2003-10-14
_audit_creation_method CSD-ConQuest-V1
_database_code_CSD IHINES
_database_code_depnum_ccdc_archive 'CCDC 203039'
_chemical_formula_sum 'C10 H16 Ag3 I3 N4'
_chemical_formula_moiety
;
(C10 H16 Ag1 N4 1+)n,n(Ag2 I3 1-)
;
_journal_coden_Cambridge 36
_journal_volume 673
_journal_year 2003
_journal_page_first 5
_journal_name_full 'J.Organomet.Chem. '
loop_
_publ_author_name
"Wanzhi Chen"
"Fenghui Liu"
_chemical_name_systematic
;
catena-(bis(1,3-Dimethylimidazol-2-ylidene)-silver 
bis(\m~3~-iodo)-(\m~2~-iodo)-di-silver)
;
_cell_volume    959.551
_exptl_crystal_colour 'colorless'
_exptl_crystal_density_diffrn 3.103
_exptl_crystal_description 'prism'
_exptl_crystal_preparation 'dimethylsulfoxide'
_diffrn_ambient_temperature 173
#These two values have been output from a single CSD field.
_refine_ls_R_factor_gt 0.0256
_refine_ls_wR_factor_gt 0.0256
_symmetry_cell_setting triclinic
_symmetry_space_group_name_H-M 'P -1'
_symmetry_Int_Tables_number 2
loop_
_symmetry_equiv_pos_site_id
_symmetry_equiv_pos_as_xyz
1 x,y,z
2 -x,-y,-z
_cell_length_a 8.515(2)
_cell_length_b 10.197(3)
_cell_length_c 11.823(3)
_cell_angle_alpha 106.341(3)
_cell_angle_beta 95.614(3)
_cell_angle_gamma 99.685(4)
_cell_formula_units_Z 2
loop_
_atom_type_symbol
_atom_type_radius_bond
C 0.68
H 0.23
Ag 1.37
I 1.50
N 0.68
loop_
_atom_site_label
_atom_site_type_symbol
_atom_site_fract_x
_atom_site_fract_y
_atom_site_fract_z
Ag1 Ag 0.17088(6) 0.41386(6) 0.42668(5)
Ag2 Ag 0.48331(6) 0.63579(6) 0.57526(5)
Ag3 Ag 0.29355(6) 0.80602(6) 0.15550(5)
C1 C 0.5319(8) 0.8796(7) 0.1385(6)
C2 C 0.7922(9) 0.9873(8) 0.1705(7)
H1 H 0.89560 1.03960 0.21070
C3 C 0.7473(8) 0.9354(8) 0.0531(7)
H2 H 0.81290 0.94220 -0.00640
C4 C 0.6563(10) 0.9835(9) 0.3515(6)
H3 H 0.55650 1.01510 0.36930
H4 H 0.74920 1.05730 0.39530
H5 H 0.66020 0.89960 0.37570
C5 C 0.4956(9) 0.7943(8) -0.0835(6)
H6 H 0.52740 0.70430 -0.11350
H7 H 0.51660 0.84900 -0.13850
H8 H 0.38050 0.77840 -0.07730
C6 C 0.0478(8) 0.7254(7) 0.1422(6)
C7 C -0.1998(9) 0.6475(8) 0.1787(7)
H9 H -0.28550 0.62660 0.22070
C8 C -0.2075(8) 0.6164(8) 0.0607(7)
H10 H -0.30000 0.56980 0.00270
C9 C 0.0190(9) 0.7691(8) 0.3556(6)
H11 H 0.05400 0.69450 0.38230
H12 H -0.06600 0.80120 0.39970
H13 H 0.11070 0.84710 0.37030
C10 C -0.0154(9) 0.6554(9) -0.0804(6)
H14 H 0.09690 0.70280 -0.07320
H15 H -0.08660 0.70030 -0.12050
H16 H -0.02910 0.55710 -0.12710
I1 I 0.17461(5) 0.62121(5) 0.64984(4)
I2 I 0.39790(5) 0.57714(5) 0.31956(4)
I3 I 0.24518(5) 0.14683(5) 0.34712(4)
N1 N 0.6609(7) 0.9512(6) 0.2231(5)
N2 N 0.5889(6) 0.8705(6) 0.0343(5)
N3 N -0.0431(7) 0.7161(6) 0.2284(5)
N4 N -0.0565(6) 0.6645(6) 0.0389(5)
Ag2A Ag 0.51669(6) 0.36421(6) 0.42474(5)
I1A I -0.17461(5) 0.37879(5) 0.35016(4)
Ag1A Ag 0.82912(6) 0.58614(6) 0.57332(5)
I2A I 0.60210(5) 0.42286(5) 0.68044(4)
I3A I 0.75482(5) 0.85317(5) 0.65288(4)
Ag1A* Ag -0.17088(6) 0.58614(6) 0.57332(5)
#END
