
#######################################################################
#
#                 Cambridge Crystallographic Data Centre
#                                CCDC
#
#######################################################################
#
# If this CIF has been generated from an entry in the Cambridge
# Structural Database, then it will include bibliographic, chemical,
# crystal, experimental, refinement or atomic coordinate data resulting
# from the CCDC's data processing and validation procedures.
#
#######################################################################

data_CSD_CIF_IHIPEW
_audit_creation_date 2015-05-07
_audit_creation_method CSD-ConQuest-V1
_database_code_CSD IHIPEW
_database_code_depnum_ccdc_archive 'CCDC 1050431'
_chemical_formula_sum 'C54 H69 Bi6 I20 N7 Na2 O12'
_chemical_formula_moiety
;
2(C24 H30 N2 Na1 O6 1+),n(Bi6 I20 2-),3(C2 H3 N1)
;
_journal_coden_Cambridge 222
_journal_volume 44
_journal_year 2015
_journal_page_first 10069
_journal_name_full 'Dalton Trans. '
loop_
_publ_author_name
"J.Heine"
_chemical_name_systematic
;
catena-[bis((dibenzo-18-crown-6)-bis(acetonitrile)-sodium) 
tetrakis(\m~3~-iodo)-octakis(\m~2~-iodo)-octakis(iodo)-hexa-bismuth 
acetonitrile solvate]
;
_cell_volume   5187.925
_exptl_crystal_colour 'red'
_exptl_crystal_density_diffrn 3.102
_exptl_crystal_description 'block'
_diffrn_ambient_temperature 100.0
_diffrn_special_details
;
twin

;
#These two values have been output from a single CSD field.
_refine_ls_R_factor_gt 0.0576
_refine_ls_wR_factor_gt 0.0576
_symmetry_cell_setting triclinic
_symmetry_space_group_name_H-M 'P -1'
_symmetry_Int_Tables_number 2
loop_
_symmetry_equiv_pos_site_id
_symmetry_equiv_pos_as_xyz
1 x,y,z
2 -x,-y,-z
_cell_length_a 14.372(3)
_cell_length_b 19.388(3)
_cell_length_c 19.648(4)
_cell_angle_alpha 96.034(5)
_cell_angle_beta 100.883(5)
_cell_angle_gamma 102.490(5)
_cell_formula_units_Z 2
loop_
_atom_type_symbol
_atom_type_radius_bond
C 0.68
H 0.23
Bi 1.48
I 1.40
N 0.68
Na 1.66
O 0.68
loop_
_atom_site_label
_atom_site_type_symbol
_atom_site_fract_x
_atom_site_fract_y
_atom_site_fract_z
Bi1 Bi 0.54598(6) 0.72964(4) 0.30131(4)
Bi2 Bi 1.05184(6) 0.80435(4) 0.23559(4)
Bi3 Bi 1.22510(6) 0.63641(4) 0.22176(4)
Bi4 Bi 0.72985(6) 0.72459(4) 0.13808(4)
Bi5 Bi 1.38023(6) 0.90297(4) 0.31597(4)
Bi6 Bi 0.86906(6) 0.80028(4) 0.40004(4)
I1 I 1.08011(10) 0.69294(7) 0.12059(7)
I2 I 1.2070(1) 0.76499(7) 0.34317(7)
I3 I 0.57278(10) 0.61764(7) 0.18686(7)
I4 I 0.89346(10) 0.68483(7) 0.26629(7)
I5 I 0.71024(10) 0.84339(7) 0.27015(7)
I6 I 0.40037(10) 0.77185(7) 0.19113(7)
I7 I 0.52520(11) 0.84206(8) 0.41430(7)
I8 I 1.0247(1) 0.91208(7) 0.35064(7)
I9 I 0.90519(11) 0.84289(7) 0.11894(8)
I10 I 0.69277(10) 0.68343(7) 0.41354(7)
I11 I 0.38991(10) 0.61160(7) 0.33678(8)
I12 I 1.21014(10) 0.92224(7) 0.20080(8)
I13 I 1.24633(12) 0.53234(8) 0.11336(8)
I14 I 0.74619(12) 0.61526(8) 0.03339(8)
I15 I 0.59281(12) 0.77512(8) 0.04649(8)
I16 I 0.84827(11) 0.90262(8) 0.50841(8)
I17 I 1.07852(12) 0.54066(9) 0.26614(9)
I18 I 1.00903(11) 0.74732(9) 0.48699(9)
I19 I 1.34162(12) 0.99103(8) 0.42662(9)
I20 I 1.53083(11) 1.01238(8) 0.28701(8)
Na1 Na 0.9315(6) 1.1570(4) 0.1373(4)
O1 O 1.1003(11) 1.2369(7) 0.1353(7)
O2 O 0.9281(11) 1.2559(8) 0.0582(8)
O3 O 0.7528(11) 1.0613(7) 0.1266(8)
O4 O 1.0944(11) 1.1493(8) 0.2217(7)
O5 O 0.7556(11) 1.1575(8) 0.0481(7)
O6 O 0.918(1) 1.0660(7) 0.2257(8)
N1 N 0.8929(14) 1.2396(10) 0.2238(10)
C1 C 1.2654(15) 1.2286(11) 0.1212(11)
H1 H 1.26830 1.26090 0.08810
C2 C 0.6947(15) 1.0931(10) 0.0161(11)
C3 C 0.6944(16) 1.0398(11) 0.0621(12)
C4 C 0.9885(16) 1.0963(12) 0.2881(12)
H2 H 0.98030 1.06560 0.32480
H3 H 0.98070 1.14410 0.30540
C5 C 1.3422(16) 1.1539(11) 0.1901(11)
H4 H 1.39690 1.13460 0.20430
C6 C 1.1773(18) 1.1638(12) 0.1975(12)
C7 C 0.7530(18) 1.0073(11) 0.1691(15)
H5 H 0.77540 0.96750 0.14690
H6 H 0.68660 0.98840 0.17660
C8 C 0.8817(15) 1.2798(11) 0.2653(11)
C9 C 0.8213(16) 1.0414(12) 0.2367(12)
H7 H 0.79930 1.08220 0.25740
H8 H 0.82150 1.00640 0.26990
C10 C 1.3417(18) 1.1997(11) 0.1412(11)
H9 H 1.39690 1.21140 0.12090
C11 C 0.7609(17) 1.2131(12) 0.0069(12)
H10 H 0.69760 1.22640 -0.00330
H11 H 0.77730 1.19770 -0.03810
C12 C 1.2586(15) 1.1369(11) 0.2182(11)
H12 H 1.25770 1.10590 0.25260
N2 N 0.9385(17) 1.0674(12) 0.0471(12)
C13 C 0.842(2) 0.9599(15) -0.0460(13)
H13 H 0.82270 0.97580 -0.09120
H14 H 0.78320 0.93590 -0.03130
H15 H 0.88340 0.92660 -0.05080
C14 C 0.6374(19) 1.0748(14) -0.0498(12)
H16 H 0.63670 1.11070 -0.07920
C15 C 1.1845(17) 1.2117(11) 0.1483(12)
C16 C 1.0870(19) 1.1024(11) 0.2721(12)
H17 H 1.13850 1.12180 0.31510
H18 H 1.09420 1.05500 0.25310
C17 C 0.5783(19) 0.9559(13) -0.0326(15)
H19 H 0.53750 0.90940 -0.04970
C18 C 1.0089(16) 1.3155(12) 0.0877(12)
H20 H 1.00520 1.33420 0.13570
H21 H 1.00790 1.35430 0.05880
C19 C 0.8403(15) 1.2761(11) 0.0490(11)
H22 H 0.84410 1.31790 0.02370
H23 H 0.82550 1.28960 0.09510
C20 C 0.635(2) 0.9714(14) 0.0354(13)
H24 H 0.63310 0.93500 0.06420
C21 C 0.5817(18) 1.0087(13) -0.0755(14)
H25 H 0.54500 0.99810 -0.12250
C22 C 0.894(2) 1.0201(14) 0.0051(14)
C23 C 1.1000(17) 1.2905(12) 0.0893(12)
H26 H 1.10210 1.26980 0.04160
H27 H 1.15780 1.33100 0.10690
C24 C 0.8651(18) 1.3324(13) 0.3166(14)
H28 H 0.87230 1.37840 0.29930
H29 H 0.91270 1.33760 0.36080
H30 H 0.79890 1.31680 0.32450
Na2 Na 0.5472(7) 0.3502(4) 0.3491(4)
O7 O 0.7249(10) 0.4386(7) 0.3514(7)
O8 O 0.3855(10) 0.3608(7) 0.2708(7)
O9 O 0.5453(10) 0.2515(8) 0.4307(7)
O10 O 0.5610(12) 0.4363(8) 0.2542(8)
O11 O 0.3765(10) 0.2707(8) 0.3542(8)
O12 O 0.7170(11) 0.3491(8) 0.4351(8)
N3 N 0.5868(15) 0.2648(10) 0.2657(10)
C25 C 0.2949(15) 0.2960(11) 0.3412(11)
C26 C 0.3006(16) 0.3458(11) 0.2946(11)
C27 C 0.7102(17) 0.2968(11) 0.4814(11)
H31 H 0.69160 0.31560 0.52440
H32 H 0.77390 0.28470 0.49520
C28 C 0.7269(16) 0.4869(12) 0.2983(12)
H33 H 0.71110 0.53200 0.31520
H34 H 0.79180 0.49830 0.28630
C29 C 0.4664(15) 0.1927(11) 0.3982(10)
H35 H 0.46740 0.15210 0.42480
H36 H 0.47210 0.17700 0.34980
C30 C 0.3729(16) 0.2155(11) 0.3966(11)
H37 H 0.31590 0.17500 0.37610
H38 H 0.36800 0.23360 0.44450
C31 C 0.8490(18) 0.5292(12) 0.4367(15)
H39 H 0.84990 0.56290 0.40490
C32 C 0.7831(18) 0.4138(15) 0.4635(13)
C33 C 0.1389(19) 0.3563(12) 0.3034(12)
H40 H 0.08390 0.37540 0.28960
C34 C 0.6532(16) 0.4471(12) 0.2387(12)
H41 H 0.65450 0.47360 0.19840
H42 H 0.66720 0.40030 0.22550
C35 C 0.3893(17) 0.4072(12) 0.2188(12)
H43 H 0.38880 0.45610 0.23880
H44 H 0.33280 0.38930 0.17870
C36 C 0.902(2) 0.4993(14) 0.5471(13)
H45 H 0.94070 0.51220 0.59350
C37 C 0.2123(15) 0.2768(11) 0.3681(10)
H46 H 0.20800 0.24170 0.39850
C38 C 0.2232(17) 0.3767(11) 0.2755(13)
H47 H 0.22640 0.41090 0.24420
C39 C 0.6644(18) 0.5387(14) 0.5444(14)
H48 H 0.71750 0.56910 0.52860
H49 H 0.69190 0.51550 0.58270
H50 H 0.62310 0.56790 0.56090
C40 C 0.7882(14) 0.4622(10) 0.4163(11)
C41 C 0.6094(14) 0.2255(11) 0.2305(11)
C42 C 0.4827(17) 0.4070(12) 0.1959(12)
H51 H 0.48410 0.35760 0.17840
H52 H 0.48830 0.43590 0.15750
C43 C 0.6348(14) 0.2324(11) 0.4435(10)
H53 H 0.65070 0.21570 0.39870
H54 H 0.63160 0.19330 0.47220
C44 C 0.8406(15) 0.4300(13) 0.5280(11)
H55 H 0.83990 0.39610 0.55960
N4 N 0.554(2) 0.4421(13) 0.4408(14)
C45 C 0.1372(18) 0.3085(11) 0.3507(12)
H56 H 0.08240 0.29760 0.37170
C46 C 0.609(2) 0.4871(16) 0.4892(17)
C47 C 0.9095(18) 0.5486(12) 0.5034(12)
H57 H 0.95370 0.59430 0.51740
C48 C 0.635(2) 0.1728(12) 0.1847(14)
H58 H 0.58740 0.16110 0.13980
H59 H 0.63460 0.12960 0.20650
H60 H 0.70020 0.19200 0.17680
N5 N 1.2162(15) 0.8318(11) 0.6394(11)
C49 C 1.2065(17) 0.8770(13) 0.6091(13)
C50 C 1.188(2) 0.9303(15) 0.5656(15)
H61 H 1.18650 0.91220 0.51680
H62 H 1.24040 0.97410 0.58150
H63 H 1.12540 0.94080 0.56900
C51 C 0.615(2) 0.3537(16) 0.0616(16)
N6 N 0.626(2) 0.3061(14) 0.0891(15)
C52 C 0.583(3) 0.4097(18) 0.0255(19)
H64 H 0.61490 0.41600 -0.01420
H65 H 0.60170 0.45470 0.05820
H66 H 0.51230 0.39590 0.00850
C53 C 0.875(3) 0.463(2) 0.122(2)
N7 N 0.842(3) 0.4361(19) 0.166(2)
C54 C 0.936(2) 0.4904(17) 0.0776(17)
H67 H 0.90920 0.46450 0.02980
H68 H 1.00140 0.48420 0.09450
H69 H 0.93820 0.54130 0.07750
Bi3* Bi 0.22510(6) 0.63641(4) 0.22176(4)
Bi5* Bi 0.38023(6) 0.90297(4) 0.31597(4)
I6* I 1.40037(10) 0.77185(7) 0.19113(7)
I7* I 1.52520(11) 0.84206(8) 0.41430(7)
I11* I 1.38991(10) 0.61160(7) 0.33678(8)
#END
