
#######################################################################
#
#                 Cambridge Crystallographic Data Centre
#                                CCDC
#
#######################################################################
#
# If this CIF has been generated from an entry in the Cambridge
# Structural Database, then it will include bibliographic, chemical,
# crystal, experimental, refinement or atomic coordinate data resulting
# from the CCDC's data processing and validation procedures.
#
#######################################################################

data_CSD_CIF_IHIRID
_audit_creation_date 2020-03-06
_audit_creation_method CSD-ConQuest-V1
_database_code_CSD IHIRID
_database_code_depnum_ccdc_archive 'CCDC 1988705'
_chemical_formula_sum 'C28.27 H29.39 Br6 N2.57 O12.71 Zn2'
_chemical_formula_moiety
;
(C18 Br6 O12 Zn2 2-)n,2n(C4 H12 N1 1+),0.57n(C3 H7 N1 O1),0.14n(C4 H10 O1)
;
_journal_coden_Cambridge 4
_journal_volume 142
_journal_year 2020
_journal_page_first 4705
_journal_name_full 'J.Am.Chem.Soc. '
loop_
_publ_author_name
"Lujia Liu"
"Liang Li"
"M.E.Ziebel"
"T.David Harris"
_chemical_name_systematic
;
catena-(bis(diethylammonium) 
tris(\m-2,5-dibromo-3,6-dioxy-1,4-benzoquinone)-di-zinc(ii) dimethylformamide 
diethyl ether solvate)
;
_cell_volume   1727.313
_exptl_crystal_colour 'red'
_exptl_crystal_description 'hexagonal'
_diffrn_ambient_temperature 100.0
_refine_special_details
;
The substituent represented as Br is a mixed Br/Cl site with occupancies 
0.5667:0.4333.  The atom represented as O1 is a mixed O/N site with 
occupancies 0.7167:0.2833. The MASK/OLEX2 program was used to model the 
disordered solvent molecules.
;
#These two values have been output from a single CSD field.
_refine_ls_R_factor_gt 0.0632
_refine_ls_wR_factor_gt 0.0632
_symmetry_cell_setting hexagonal
_symmetry_space_group_name_H-M 'P -3 1 m'
_symmetry_Int_Tables_number 162
loop_
_symmetry_equiv_pos_site_id
_symmetry_equiv_pos_as_xyz
1 x,y,z
2 -y,x-y,z
3 -x+y,-x,z
4 -y,-x,-z
5 -x+y,y,-z
6 x,x-y,-z
7 -x,-y,-z
8 y,-x+y,-z
9 x-y,x,-z
10 y,x,z
11 x-y,-y,z
12 -x,-x+y,z
_cell_length_a 13.9416(16)
_cell_length_b 13.9416(16)
_cell_length_c 10.2616(12)
_cell_angle_alpha 90
_cell_angle_beta 90
_cell_angle_gamma 120
_cell_formula_units_Z 1
loop_
_atom_type_symbol
_atom_type_radius_bond
C 0.68
H 0.23
Br 1.21
Cl 0.99
N 0.68
O 0.68
Zn 1.22
loop_
_atom_site_label
_atom_site_type_symbol
_atom_site_fract_x
_atom_site_fract_y
_atom_site_fract_z
Zn1 Zn 0.33333 0.66667 0.00000
O1 O 0.4530(5) 0.6494(5) 0.1059(6)
C1 C 0.4790(8) 0.5801(7) 0.0601(8)
C2 C 0.5543(10) 0.5543(10) 0.1170(14)
Br1 Br 0.63381(16) 0.63381(16) 0.2635(2)
N1? N 0.4530(5) 0.6494(5) 0.1059(6)
H1? H 0.48327 0.68752 0.17736
Cl1? Cl 0.63381(16) 0.63381(16) 0.2635(2)
N2 N 0.33333 0.66667 0.50000
C3 C 0.1763(19) 0.491(2) 0.602(3)
H2 H 0.13267 0.46028 0.68162
H3 H 0.12698 0.48279 0.52967
H4 H 0.21501 0.44993 0.58146
C4 C 0.421(2) 0.7904(13) 0.511(3)
H5 H 0.38445 0.83336 0.53148
H6 H 0.47249 0.80052 0.58332
C5 C 0.2615(19) 0.614(2) 0.6223(16)
H7 H 0.31022 0.62127 0.69654
H8 H 0.22216 0.65414 0.64474
C6 C 0.4887(18) 0.836(3) 0.385(3)
H9 H 0.54343 0.91421 0.39602
H10 H 0.52674 0.79436 0.36466
H11 H 0.43870 0.82720 0.31283
O1C O 0.3506(5) 0.5470(5) -0.1059(6)
C1C C 0.4199(8) 0.5210(7) -0.0601(8)
C2C C 0.4457(10) 0.4457(10) -0.1170(14)
Br1C Br 0.36619(16) 0.36619(16) -0.2635(2)
O1F O 0.5470(5) 0.3506(5) -0.1059(6)
C1F C 0.5210(8) 0.4199(7) -0.0601(8)
O1I O 0.6494(5) 0.4530(5) 0.1059(6)
C1I C 0.5801(8) 0.4790(7) 0.0601(8)
O1A O 0.3506(5) 0.8036(5) 0.1059(6)
C1A C 0.4199(8) 0.8989(7) 0.0601(8)
C2A C 0.4457(10) 1.000(1) 0.1170(14)
Br1A Br 0.36619(16) 1.00000(16) 0.2635(2)
O1E O 0.4530(5) 0.8036(5) -0.1059(6)
C1E C 0.4790(8) 0.8989(7) -0.0601(8)
C2E C 0.5543(10) 1.000(1) -0.1170(14)
Br1E Br 0.63381(16) 1.00000(16) -0.2635(2)
O1G O 0.6494(5) 1.1964(5) -0.1059(6)
C1G C 0.5801(8) 1.1011(7) -0.0601(8)
O1K O 0.5470(5) 1.1964(5) 0.1059(6)
C1K C 0.5210(8) 1.1011(7) 0.0601(8)
O1B O 0.1964(5) 0.5470(5) 0.1059(6)
C1B C 0.1011(8) 0.5210(7) 0.0601(8)
C2B C 0.000(1) 0.4457(10) 0.1170(14)
Br1B Br 0.00000(16) 0.36619(16) 0.2635(2)
O1D O 0.1964(5) 0.6494(5) -0.1059(6)
C1D C 0.1011(8) 0.5801(7) -0.0601(8)
C2D C 0.000(1) 0.5543(10) -0.1170(14)
Br1D Br 0.00000(16) 0.63381(16) -0.2635(2)
O1H O -0.1964(5) 0.4530(5) -0.1059(6)
C1H C -0.1011(8) 0.4790(7) -0.0601(8)
O1J O -0.1964(5) 0.3506(5) 0.1059(6)
C1J C -0.1011(8) 0.4199(7) 0.0601(8)
Zn1F Zn 0.66667 0.33333 0.00000
Zn1F* Zn -0.33333 0.33333 0.00000
Zn1F** Zn 0.66667 1.33333 0.00000
O1G* O 0.6494(5) 0.1964(5) -0.1059(6)
O1H* O 0.8036(5) 0.4530(5) -0.1059(6)
O1J* O 0.8036(5) 0.3506(5) 0.1059(6)
O1K* O 0.5470(5) 0.1964(5) 0.1059(6)
#END
