
#######################################################################
#
#                 Cambridge Crystallographic Data Centre
#                                CCDC
#
#######################################################################
#
# If this CIF has been generated from an entry in the Cambridge
# Structural Database, then it will include bibliographic, chemical,
# crystal, experimental, refinement or atomic coordinate data resulting
# from the CCDC's data processing and validation procedures.
#
#######################################################################

data_CSD_CIF_IHIZAD
_audit_creation_date 2020-03-06
_audit_creation_method CSD-ConQuest-V1
_database_code_CSD IHIZAD
_database_code_depnum_ccdc_archive 'CCDC 1943852'
_chemical_formula_sum 'C64 H80 Al2 Cu6 N16 O86 W24'
_chemical_formula_moiety
;
(C60 H48 Al2 Cu6 N12 O80 W24 4-)n,2(C2 H10 N2 2+),6(H2 O1)
;
_journal_coden_Cambridge 1699
_journal_volume 8
_journal_year 2020
_journal_page_first 5709
_journal_name_full 'J.Mater.Chem.A '
loop_
_publ_author_name
"Li-Ge Gong"
"Xian-Xian Qi"
"Kai Yu"
"Jia-Qian Gao"
"Bai-Bin Zhou"
"Guo-Yu Yang"
_chemical_name_systematic
;
catena-[bis(dimethylammonium) 
hexacontakis(\m-oxo)-hexakis(\m-4,4'-bipyridine)-icosaoxo-di-aluminium-hexa-co
pper(i)-tetracosa-tungsten hexahydrate]
;
_cell_volume   3100.380
_exptl_crystal_density_diffrn 3.902
_exptl_crystal_description 'block'
_diffrn_ambient_temperature 296.1
#These two values have been output from a single CSD field.
_refine_ls_R_factor_gt 0.0331
_refine_ls_wR_factor_gt 0.0331
_symmetry_cell_setting triclinic
_symmetry_space_group_name_H-M 'P -1'
_symmetry_Int_Tables_number 2
loop_
_symmetry_equiv_pos_site_id
_symmetry_equiv_pos_as_xyz
1 x,y,z
2 -x,-y,-z
_cell_length_a 12.6484(3)
_cell_length_b 13.7085(3)
_cell_length_c 18.5245(4)
_cell_angle_alpha 89.671(1)
_cell_angle_beta 85.908(1)
_cell_angle_gamma 75.421(1)
_cell_formula_units_Z 1
loop_
_atom_type_symbol
_atom_type_radius_bond
C 0.68
H 0.23
Al 1.21
Cu 1.32
N 0.68
O 0.68
W 1.62
loop_
_atom_site_label
_atom_site_type_symbol
_atom_site_fract_x
_atom_site_fract_y
_atom_site_fract_z
W1 W 0.49776(3) 0.35876(2) 0.67795(2)
W2 W 0.11346(3) 0.33007(2) 0.72806(2)
W3 W 0.28401(3) 0.41273(2) 0.58041(2)
W4 W 0.24911(3) 0.61278(2) 0.93226(2)
W5 W 0.40922(3) 0.58973(2) 0.61353(2)
W6 W 0.02531(3) 0.58734(3) 0.65610(2)
W7 W 0.10474(3) 0.41648(2) 0.89650(2)
W8 W 0.33249(3) 0.26528(2) 0.82255(2)
W9 W 0.40021(3) 0.68736(3) 0.80108(2)
W10 W 0.15336(3) 0.75852(2) 0.69596(2)
W11 W 0.47855(3) 0.45799(3) 0.86566(2)
Al1 Al 0.25468(18) 0.51211(15) 0.75750(12)
W12 W 0.00592(3) 0.67379(2) 0.82541(2)
O1 O 0.2132(5) 0.3379(4) 0.6472(3)
O2 O 0.1247(5) 0.6769(4) 0.8833(3)
O3 O 0.4406(5) 0.6338(4) 0.7060(3)
O4 O 0.3379(4) 0.4775(4) 0.6785(3)
O5 O 0.2219(5) 0.2956(4) 0.9018(3)
O6 O 0.2131(4) 0.4069(4) 0.7910(3)
O7 O 0.2698(5) 0.6825(4) 0.6302(3)
Cu1 Cu 0.00395(11) 0.11018(10) 0.64738(6)
Cu2 Cu 0.24929(11) 0.03765(10) 0.75470(7)
Cu3 Cu 0.50516(11) 0.03554(11) 0.13911(7)
O8 O 0.3507(5) 0.5172(4) 0.5442(3)
O9 O 0.1398(4) 0.6072(4) 0.7382(3)
O10 O 0.4219(4) 0.3269(4) 0.5961(3)
O11 O 0.0199(5) 0.5406(4) 0.8579(3)
O12 O 0.0431(5) 0.3462(4) 0.8243(3)
O13 O 0.0242(5) 0.3965(4) 0.9693(3)
O14 O 0.1488(5) 0.5182(4) 0.5979(3)
O15 O 0.5207(5) 0.4173(4) 0.7644(3)
O16 O 0.3908(5) 0.5217(4) 0.9480(3)
O17 O 0.4177(5) 0.2810(4) 0.7369(3)
O18 O 0.0402(5) 0.7873(4) 0.7720(3)
O19 O 0.2625(5) 0.3650(4) 0.4991(3)
O20 O 0.5295(5) 0.4695(4) 0.6226(3)
O21 O 0.5970(5) 0.4005(5) 0.9028(4)
O22 O 0.5138(5) 0.5851(4) 0.8406(3)
O23 O 0.6211(5) 0.2727(5) 0.6590(3)
O24 O 0.2633(5) 0.7520(4) 0.7610(3)
O25 O 0.4068(5) 0.3509(4) 0.8674(3)
O26 O 0.4044(5) 0.1481(4) 0.8481(3)
O27 O 0.0324(5) 0.4581(4) 0.7032(3)
O28 O 0.3266(5) 0.5551(4) 0.8210(3)
O29 O 0.1908(5) 0.4951(4) 0.9339(3)
O30 O -0.0809(5) 0.5909(5) 0.6025(4)
O31 O 0.0401(5) 0.2546(5) 0.6926(3)
O32 O -0.0679(5) 0.6468(4) 0.7429(3)
O33 O 0.0516(5) 0.7159(4) 0.6355(3)
O34 O 0.2290(5) 0.2230(4) 0.7663(3)
O35 O 0.4759(5) 0.6568(4) 0.5578(4)
O36 O 0.3243(5) 0.7103(4) 0.8959(3)
O37 O -0.1070(5) 0.7405(5) 0.8771(4)
O38 O 0.1375(5) 0.8782(4) 0.6637(4)
O39 O 0.2102(5) 0.6632(5) 1.0170(3)
O40 O 0.4613(6) 0.7860(5) 0.8006(4)
N1 N 0.3399(7) 0.0229(6) 0.6675(4)
N2 N 0.1623(7) 0.0282(6) 0.8405(4)
N3 N 0.4057(6) 0.0466(6) 0.2225(4)
N4 N -0.0929(7) 0.0962(6) 0.7279(4)
N5 N -0.4117(7) 0.0463(6) 1.0504(4)
N6 N 0.0883(7) 0.0982(6) 0.5571(4)
C1 C 0.0341(7) 0.0064(6) 0.9667(5)
C2 C 0.4156(8) 0.0965(6) 0.5650(5)
H1 H 0.42215 0.15507 0.54157
C3 C -0.2913(8) 0.0671(7) 0.9206(5)
C4 C 0.2649(8) 0.1471(7) 0.3031(5)
H2 H 0.21632 0.20931 0.31375
C5 C 0.3431(8) -0.0222(7) 0.3306(5)
H3 H 0.34884 -0.07776 0.36041
C6 C 0.4078(8) -0.0314(7) 0.2674(5)
H4 H 0.45491 -0.09379 0.25490
C7 C 0.2046(7) 0.0793(6) 0.4224(5)
C8 C 0.4662(7) 0.0040(7) 0.5344(4)
C9 C 0.2702(7) 0.0668(6) 0.3510(4)
C10 C 0.3551(9) 0.1026(7) 0.6306(5)
H5 H 0.32301 0.16625 0.65035
C11 C -0.2249(7) 0.0766(6) 0.8543(5)
C12 C -0.3617(8) 0.1478(7) 0.9550(5)
H6 H -0.37007 0.21176 0.93556
C13 C 0.1131(9) 0.1774(7) 0.5242(5)
H7 H 0.09023 0.24001 0.54733
C14 C 0.0938(9) 0.1095(7) 0.8754(5)
H8 H 0.08963 0.17346 0.85683
C15 C -0.3441(9) -0.0336(8) 1.0171(5)
H9 H -0.33754 -0.09664 1.03785
C16 C 0.3321(8) 0.1335(7) 0.2399(5)
H10 H 0.32607 0.18706 0.20802
C17 C -0.1471(9) -0.0037(6) 0.8221(5)
H11 H -0.13660 -0.06720 0.84257
C18 C 0.1704(8) 0.1710(7) 0.4581(5)
H12 H 0.18624 0.22812 0.43745
C19 C -0.0856(8) 0.0088(7) 0.7611(6)
H13 H -0.03500 -0.04777 0.74133
C20 C 0.1787(8) -0.0015(7) 0.4551(5)
H14 H 0.19989 -0.06443 0.43246
C21 C 0.1645(9) -0.0617(7) 0.8693(5)
H15 H 0.21012 -0.11826 0.84594
C22 C 0.4545(10) -0.0782(7) 0.5733(6)
H16 H 0.48999 -0.14238 0.55587
C23 C 0.3914(11) -0.0678(8) 0.6375(6)
H17 H 0.38377 -0.12572 0.66140
C24 C -0.2369(9) 0.1683(7) 0.8178(5)
H18 H -0.29038 0.22479 0.83486
C25 C 0.0298(8) 0.0999(6) 0.9379(5)
H19 H -0.01615 0.15703 0.96035
C26 C -0.1698(9) 0.1753(7) 0.7566(6)
H20 H -0.17833 0.23755 0.73437
C27 C -0.2834(8) -0.0271(7) 0.9535(5)
H21 H -0.23717 -0.08496 0.93216
C28 C -0.4216(9) 0.1352(8) 1.0194(5)
H22 H -0.47024 0.19138 1.04126
C29 C 0.1044(9) -0.0761(7) 0.9306(5)
H23 H 0.11044 -0.14077 0.94827
C30 C 0.1210(9) 0.0098(7) 0.5223(5)
H24 H 0.10434 -0.04652 0.54385
N7 N 0.7474(8) 0.5651(8) 0.7868(5)
H25 H 0.77356 0.50363 0.80393
H26 H 0.69069 0.59814 0.81581
H27 H 0.79949 0.59838 0.78484
C31 C 0.7712(9) 0.4600(8) 0.6768(5)
H28 H 0.74525 0.40489 0.69831
H29 H 0.84889 0.44757 0.68315
N8 N 0.7525(7) 0.4656(7) 0.5978(5)
H30 H 0.68464 0.46153 0.59161
H31 H 0.80015 0.41478 0.57430
H32 H 0.76177 0.52383 0.58046
C32 C 0.7112(9) 0.5570(9) 0.7131(6)
H33 H 0.72381 0.61283 0.68427
H34 H 0.63326 0.56156 0.71637
O41 O 0.8212(7) 0.3815(7) 0.8375(4)
O42 O 0.8335(12) 0.2799(8) 0.5236(6)
O43 O 0.6901(10) 0.6648(10) 0.9315(7)
N1A N 0.6601(7) -0.0229(6) 0.3325(4)
C2A C 0.5844(8) -0.0965(6) 0.4350(5)
H1A H 0.57785 -0.15507 0.45843
C8A C 0.5338(7) -0.0040(7) 0.4656(4)
C10A C 0.6449(9) -0.1026(7) 0.3694(5)
H5A H 0.67699 -0.16625 0.34965
C22A C 0.5455(10) 0.0782(7) 0.4267(6)
H16A H 0.51001 0.14238 0.44413
C23A C 0.6086(11) 0.0678(8) 0.3625(6)
H17A H 0.61623 0.12572 0.33860
N2A N -0.1623(7) -0.0282(6) 1.1595(4)
C1A C -0.0341(7) -0.0064(6) 1.0333(5)
C14A C -0.0938(9) -0.1095(7) 1.1246(5)
H8A H -0.08963 -0.17346 1.14317
C21A C -0.1645(9) 0.0617(7) 1.1307(5)
H15A H -0.21012 0.11826 1.15406
C25A C -0.0298(8) -0.0999(6) 1.0621(5)
H19A H 0.01615 -0.15703 1.03965
C29A C -0.1044(9) 0.0761(7) 1.0694(5)
H23A H -0.11044 0.14077 1.05173
W1A W -0.49776(3) -0.35876(2) 1.32205(2)
W2A W -0.11346(3) -0.33007(2) 1.27194(2)
W3A W -0.28401(3) -0.41273(2) 1.41959(2)
W4A W -0.24911(3) -0.61278(2) 1.06774(2)
W5A W -0.40922(3) -0.58973(2) 1.38647(2)
W6A W -0.02531(3) -0.58734(3) 1.34390(2)
W7A W -0.10474(3) -0.41648(2) 1.10350(2)
W8A W -0.33249(3) -0.26528(2) 1.17745(2)
W9A W -0.40021(3) -0.68736(3) 1.19892(2)
W10A W -0.15336(3) -0.75852(2) 1.30404(2)
W11A W -0.47855(3) -0.45799(3) 1.13434(2)
Al1A Al -0.25468(18) -0.51211(15) 1.24250(12)
W12A W -0.00592(3) -0.67379(2) 1.17459(2)
O1A O -0.2132(5) -0.3379(4) 1.3528(3)
O2A O -0.1247(5) -0.6769(4) 1.1167(3)
O3A O -0.4406(5) -0.6338(4) 1.2940(3)
O4A O -0.3379(4) -0.4775(4) 1.3215(3)
O5A O -0.2219(5) -0.2956(4) 1.0982(3)
O6A O -0.2131(4) -0.4069(4) 1.2090(3)
O7A O -0.2698(5) -0.6825(4) 1.3698(3)
Cu1A Cu -0.00395(11) -0.11018(10) 1.35262(6)
Cu2A Cu -0.24929(11) -0.03765(10) 1.24530(7)
Cu3A Cu -0.50516(11) -0.03554(11) 1.86089(7)
O8A O -0.3507(5) -0.5172(4) 1.4558(3)
O9A O -0.1398(4) -0.6072(4) 1.2618(3)
O10A O -0.4219(4) -0.3269(4) 1.4039(3)
O11A O -0.0199(5) -0.5406(4) 1.1421(3)
O12A O -0.0431(5) -0.3462(4) 1.1757(3)
O13A O -0.0242(5) -0.3965(4) 1.0307(3)
O14A O -0.1488(5) -0.5182(4) 1.4021(3)
O15A O -0.5207(5) -0.4173(4) 1.2356(3)
O16A O -0.3908(5) -0.5217(4) 1.0520(3)
O17A O -0.4177(5) -0.2810(4) 1.2631(3)
O18A O -0.0402(5) -0.7873(4) 1.2280(3)
O19A O -0.2625(5) -0.3650(4) 1.5009(3)
O20A O -0.5295(5) -0.4695(4) 1.3774(3)
O21A O -0.5970(5) -0.4005(5) 1.0972(4)
O22A O -0.5138(5) -0.5851(4) 1.1594(3)
O23A O -0.6211(5) -0.2727(5) 1.3410(3)
O24A O -0.2633(5) -0.7520(4) 1.2390(3)
O25A O -0.4068(5) -0.3509(4) 1.1326(3)
O26A O -0.4044(5) -0.1481(4) 1.1519(3)
O27A O -0.0324(5) -0.4581(4) 1.2968(3)
O28A O -0.3266(5) -0.5551(4) 1.1790(3)
O29A O -0.1908(5) -0.4951(4) 1.0661(3)
O30A O 0.0809(5) -0.5909(5) 1.3975(4)
O31A O -0.0401(5) -0.2546(5) 1.3074(3)
O32A O 0.0679(5) -0.6468(4) 1.2571(3)
O33A O -0.0516(5) -0.7159(4) 1.3645(3)
O34A O -0.2290(5) -0.2230(4) 1.2337(3)
O35A O -0.4759(5) -0.6568(4) 1.4422(4)
O36A O -0.3243(5) -0.7103(4) 1.1041(3)
O37A O 0.1070(5) -0.7405(5) 1.1229(4)
O38A O -0.1375(5) -0.8782(4) 1.3363(4)
O39A O -0.2102(5) -0.6632(5) 0.9830(3)
O40A O -0.4613(6) -0.7860(5) 1.1994(4)
N3A N -0.4057(6) -0.0466(6) 1.7775(4)
N4A N 0.0929(7) -0.0962(6) 1.2721(4)
N5A N 0.4117(7) -0.0463(6) 0.9496(4)
N6A N -0.0883(7) -0.0982(6) 1.4429(4)
C3A C 0.2913(8) -0.0671(7) 1.0794(5)
C4A C -0.2649(8) -0.1471(7) 1.6969(5)
H2A H -0.21632 -0.20931 1.68625
C5A C -0.3431(8) 0.0222(7) 1.6694(5)
H3A H -0.34884 0.07776 1.63959
C6A C -0.4078(8) 0.0314(7) 1.7326(5)
H4A H -0.45491 0.09379 1.74510
C7A C -0.2046(7) -0.0793(6) 1.5776(5)
C9A C -0.2702(7) -0.0668(6) 1.6490(4)
C11A C 0.2249(7) -0.0766(6) 1.1457(5)
C12A C 0.3617(8) -0.1478(7) 1.0450(5)
H6A H 0.37007 -0.21176 1.06444
C13A C -0.1131(9) -0.1774(7) 1.4758(5)
H7A H -0.09023 -0.24001 1.45267
C15A C 0.3441(9) 0.0336(8) 0.9829(5)
H9A H 0.33754 0.09664 0.96215
C16A C -0.3321(8) -0.1335(7) 1.7601(5)
H10A H -0.32607 -0.18706 1.79198
C17A C 0.1471(9) 0.0037(6) 1.1779(5)
H11A H 0.13660 0.06720 1.15743
C18A C -0.1704(8) -0.1710(7) 1.5419(5)
H12A H -0.18624 -0.22812 1.56255
C19A C 0.0856(8) -0.0088(7) 1.2389(6)
H13A H 0.03500 0.04777 1.25867
C20A C -0.1787(8) 0.0015(7) 1.5449(5)
H14A H -0.19989 0.06443 1.56754
C24A C 0.2369(9) -0.1683(7) 1.1822(5)
H18A H 0.29038 -0.22479 1.16514
C26A C 0.1698(9) -0.1753(7) 1.2434(6)
H20A H 0.17833 -0.23755 1.26563
C27A C 0.2834(8) 0.0271(7) 1.0465(5)
H21A H 0.23717 0.08496 1.06784
C28A C 0.4216(9) -0.1352(8) 0.9806(5)
H22A H 0.47024 -0.19138 0.95874
C30A C -0.1210(9) -0.0098(7) 1.4777(5)
H24A H -0.10434 0.04652 1.45615
Cu2A* Cu 0.75071(11) -0.03765(10) 0.24530(7)
Cu3* Cu -0.49484(11) 0.03554(11) 1.13911(7)
Cu3A* Cu 0.49484(11) -0.03554(11) 0.86089(7)
O26* O -0.5956(5) 0.1481(4) 1.8481(3)
O26A* O 0.5956(5) -0.1481(4) 0.1519(3)
N1A* N -0.3399(7) -0.0229(6) 1.3325(4)
N5* N 0.5883(7) 0.0463(6) 0.0504(4)
N5A* N -0.5883(7) -0.0463(6) 1.9496(4)
#END
