
#######################################################################
#
#                 Cambridge Crystallographic Data Centre
#                                CCDC
#
#######################################################################
#
# If this CIF has been generated from an entry in the Cambridge
# Structural Database, then it will include bibliographic, chemical,
# crystal, experimental, refinement or atomic coordinate data resulting
# from the CCDC's data processing and validation procedures.
#
#######################################################################

data_CSD_CIF_IHOGIX
_audit_creation_date 2015-05-07
_audit_creation_method CSD-ConQuest-V1
_database_code_CSD IHOGIX
_database_code_depnum_ccdc_archive 'CCDC 1047140'
_chemical_formula_sum 'C46 H76 N2 O19 U2'
_chemical_formula_moiety
;
(C42 H54 O16 U2 2-)n,2(C2 H8 N1 1+),3(H2 O1)
;
_journal_coden_Cambridge 1350
_journal_volume 17
_journal_year 2015
_journal_page_first 4006
_journal_name_full 'CrystEngComm '
loop_
_publ_author_name
"P.Thuery"
"J.Harrowfield"
_chemical_name_systematic
;
catena-[bis(diemthylammonium) 
tris(\m-2,2'-tricyclo[3.3.1.1^3,7^]decane-1,3-diyldiacetato)-tetraoxo-di-urani
um trihydrate]
;
_cell_volume   5380.439
_exptl_crystal_colour 'light yellow'
_exptl_crystal_density_diffrn 1.774
_exptl_crystal_description 'platelet'
_diffrn_ambient_temperature 150
#These two values have been output from a single CSD field.
_refine_ls_R_factor_gt 0.0384
_refine_ls_wR_factor_gt 0.0384
_symmetry_cell_setting monoclinic
_symmetry_space_group_name_H-M 'P 21/n'
_symmetry_Int_Tables_number 14
loop_
_symmetry_equiv_pos_site_id
_symmetry_equiv_pos_as_xyz
1 x,y,z
2 1/2-x,1/2+y,1/2-z
3 -x,-y,-z
4 -1/2+x,-1/2-y,-1/2+z
_cell_length_a 16.5765(4)
_cell_length_b 13.5501(4)
_cell_length_c 24.0775(8)
_cell_angle_alpha 90
_cell_angle_beta 95.800(2)
_cell_angle_gamma 90
_cell_formula_units_Z 4
loop_
_atom_type_symbol
_atom_type_radius_bond
C 0.68
H 0.23
N 0.68
O 0.68
U 1.96
loop_
_atom_site_label
_atom_site_type_symbol
_atom_site_fract_x
_atom_site_fract_y
_atom_site_fract_z
U1 U 0.36746(2) 0.32919(2) 0.49501(2)
U2 U 0.97171(2) 0.06414(2) 0.64571(2)
O1 O 0.38431(19) 0.2017(3) 0.48943(13)
O2 O 0.3497(2) 0.4575(3) 0.50020(15)
O3 O 0.87370(18) 0.0587(3) 0.66692(13)
O4 O 1.07118(17) 0.0699(3) 0.62585(13)
O5 O 0.49456(18) 0.3574(3) 0.45291(14)
O6 O 0.50509(19) 0.3416(3) 0.54332(13)
O7 O 0.91186(18) 0.1595(3) 0.56394(13)
O8 O 0.92087(18) -0.0001(3) 0.55416(12)
O9 O 0.36433(19) 0.3156(3) 0.59564(13)
O10 O 0.2468(2) 0.3070(4) 0.54699(14)
O11 O 0.52561(19) 0.3804(3) 0.86240(13)
O12 O 0.4850(2) 0.4430(3) 0.78017(13)
O13 O 1.01055(18) 0.1487(3) 0.73654(12)
O14 O 0.98594(17) 0.2438(3) 0.66367(12)
O15 O 0.74311(17) 0.2051(3) 0.93131(12)
O16 O 0.84806(18) 0.1534(3) 0.89220(12)
C1 C 0.6463(2) 0.2145(4) 0.48286(18)
C2 C 0.7391(2) 0.2014(4) 0.48787(17)
H1 H 0.76260 0.24950 0.46310
H2 H 0.76150 0.21570 0.52670
C3 C 0.7638(2) 0.0978(4) 0.47242(16)
C4 C 0.7296(2) 0.0766(4) 0.41267(17)
H3 H 0.74500 0.00900 0.40220
H4 H 0.75290 0.12360 0.38720
C5 C 0.6369(3) 0.0861(4) 0.40628(17)
H5 H 0.61560 0.07190 0.36670
C6 C 0.6130(3) 0.1902(4) 0.42171(18)
H6 H 0.55310 0.19610 0.41760
H7 H 0.63490 0.23810 0.39600
C7 C 0.6110(2) 0.1384(4) 0.52124(18)
H8 H 0.63140 0.15220 0.56050
H9 H 0.55110 0.14440 0.51770
C8 C 0.6346(2) 0.0327(4) 0.50593(18)
H10 H 0.61160 -0.01550 0.53150
C9 C 0.7272(2) 0.0238(4) 0.51135(17)
H11 H 0.74260 -0.04410 0.50170
H12 H 0.74900 0.03690 0.55050
C10 C 0.6009(3) 0.0114(4) 0.44536(18)
H13 H 0.54110 0.01700 0.44150
H14 H 0.61540 -0.05660 0.43510
C11 C 0.6280(2) 0.3202(4) 0.49848(19)
H15 H 0.65560 0.33410 0.53600
H16 H 0.65100 0.36520 0.47180
C12 C 0.5391(3) 0.3429(4) 0.4988(2)
C13 C 0.8567(2) 0.0884(4) 0.47493(17)
H17 H 0.87000 0.02840 0.45420
H18 H 0.87820 0.14590 0.45580
C14 C 0.8994(2) 0.0824(5) 0.53401(19)
C15 C 0.2842(3) 0.2523(4) 0.69644(19)
C16 C 0.3686(2) 0.2912(4) 0.71867(17)
H19 H 0.36390 0.36100 0.73010
H20 H 0.40480 0.28860 0.68840
C17 C 0.4063(3) 0.2305(4) 0.76890(18)
C18 C 0.3509(3) 0.2402(4) 0.81656(19)
H21 H 0.37380 0.20160 0.84940
H22 H 0.34770 0.31020 0.82790
C19 C 0.2655(3) 0.2015(5) 0.7961(2)
H23 H 0.22950 0.20810 0.82680
C20 C 0.2291(3) 0.2611(5) 0.7446(2)
H24 H 0.22400 0.33140 0.75500
H25 H 0.17430 0.23580 0.73200
C21 C 0.2892(3) 0.1431(5) 0.6813(2)
H26 H 0.32390 0.13490 0.65050
H27 H 0.23430 0.11820 0.66840
C22 C 0.3247(3) 0.0828(4) 0.7326(2)
H28 H 0.32860 0.01180 0.72180
C23 C 0.4090(3) 0.1216(4) 0.7517(2)
H29 H 0.44410 0.11440 0.72100
H30 H 0.43300 0.08200 0.78380
C24 C 0.2706(4) 0.0919(5) 0.7794(2)
H31 H 0.29320 0.05250 0.81190
H32 H 0.21580 0.06650 0.76690
C25 C 0.2457(3) 0.3130(4) 0.64665(19)
H33 H 0.18950 0.28920 0.63730
H34 H 0.24230 0.38250 0.65880
C26 C 0.2878(3) 0.3110(4) 0.5942(2)
C27 C 0.4924(3) 0.2646(4) 0.7874(2)
H35 H 0.51650 0.21860 0.81650
H36 H 0.52470 0.25950 0.75520
C28 C 0.5005(3) 0.3676(5) 0.8100(2)
C29 C 0.9230(2) 0.3615(4) 0.76781(17)
C30 C 0.8736(2) 0.2772(4) 0.79191(17)
H37 H 0.86330 0.22470 0.76350
H38 H 0.90560 0.24810 0.82480
C31 C 0.7922(3) 0.3156(4) 0.80908(18)
C32 C 0.7439(3) 0.3602(5) 0.75616(19)
H39 H 0.73350 0.30830 0.72740
H40 H 0.69090 0.38500 0.76580
C33 C 0.7910(3) 0.4441(4) 0.7330(2)
H41 H 0.75900 0.47220 0.69930
C34 C 0.8736(2) 0.4045(5) 0.71651(18)
H42 H 0.86380 0.35280 0.68750
H43 H 0.90420 0.45890 0.70090
C35 C 0.9363(3) 0.4409(4) 0.81253(19)
H44 H 0.96910 0.49490 0.79860
H45 H 0.96720 0.41240 0.84610
C36 C 0.8560(3) 0.4836(4) 0.8289(2)
H46 H 0.86680 0.53650 0.85760
C37 C 0.8079(3) 0.3975(4) 0.85258(18)
H47 H 0.83910 0.37060 0.88640
H48 H 0.75550 0.42260 0.86330
C38 C 0.8089(3) 0.5252(5) 0.7765(2)
H49 H 0.84080 0.57820 0.76080
H50 H 0.75730 0.55420 0.78620
C39 C 1.0062(2) 0.3228(4) 0.75422(19)
H51 H 1.03500 0.37650 0.73650
H52 H 1.03880 0.30520 0.78960
C40 C 1.0013(2) 0.2348(4) 0.71637(19)
C41 C 0.7429(3) 0.2319(4) 0.83223(18)
H53 H 0.68730 0.25590 0.83610
H54 H 0.73860 0.17660 0.80520
C42 C 0.7794(3) 0.1949(4) 0.88724(19)
O17 O 0.8912(3) 0.3759(5) 0.5327(2)
H55 H 0.90200 0.31440 0.54890
H56 H 0.93400 0.40700 0.55360
O18 O 0.1526(4) 0.5074(5) 0.5583(2)
H57 H 0.20140 0.46610 0.55610
H58 H 0.14970 0.53200 0.52280
O19 O 1.0163(3) 0.4402(4) 0.6113(2)
H59 H 1.02370 0.38870 0.63460
H60 H 1.05940 0.47930 0.62070
N1 N 0.5911(3) 0.2619(4) 0.95502(19)
H61 H 0.55960 0.28300 0.92000
H62 H 0.64100 0.24560 0.94390
C43 C 0.5518(4) 0.1610(7) 0.9400(3)
H63 H 0.57040 0.11260 0.96870
H64 H 0.56750 0.13920 0.90380
H65 H 0.49270 0.16710 0.93790
C44 C 0.5823(4) 0.2925(6) 1.0116(2)
H66 H 0.52450 0.29840 1.01670
H67 H 0.60880 0.35650 1.01880
H68 H 0.60750 0.24340 1.03780
N2 N 0.9931(3) 0.0586(4) 0.8431(2)
H69 H 0.98810 0.08620 0.80740
H70 H 0.97410 0.09940 0.87250
C45 C 0.9359(3) -0.0242(5) 0.8389(2)
H71 H 0.94750 -0.06730 0.80800
H72 H 0.88040 0.00110 0.83200
H73 H 0.94160 -0.06180 0.87380
C46 C 1.0773(3) 0.0355(5) 0.8534(2)
H74 H 1.08720 -0.00060 0.88860
H75 H 1.10900 0.09670 0.85560
H76 H 1.09370 -0.00530 0.82280
U1C U 0.86746(2) 0.17081(2) 0.99501(2)
U2A U 0.52829(2) 0.56414(2) 0.85429(2)
O11A O 0.97439(19) -0.1196(3) 0.63760(13)
O12A O 1.0150(2) -0.0570(3) 0.71983(13)
O15C O 0.24311(17) 0.2949(3) 0.43131(12)
O16C O 0.34806(18) 0.3466(3) 0.39220(12)
#END
