
#######################################################################
#
#                 Cambridge Crystallographic Data Centre
#                                CCDC
#
#######################################################################
#
# If this CIF has been generated from an entry in the Cambridge
# Structural Database, then it will include bibliographic, chemical,
# crystal, experimental, refinement or atomic coordinate data resulting
# from the CCDC's data processing and validation procedures.
#
#######################################################################

data_CSD_CIF_IHUROS
_audit_creation_date 2003-10-14
_audit_creation_method CSD-ConQuest-V1
_database_code_CSD IHUROS
_database_code_depnum_ccdc_archive 'CCDC 214360'
_chemical_formula_sum 'C8 H18 Fe3 N3 O20 P3'
_chemical_formula_moiety
;
(C4 H2 Fe3 O20 P3 3-)n,n(C4 H16 N3 3+)
;
_journal_coden_Cambridge 1096
_journal_volume 15
_journal_year 2003
_journal_page_first 1633
_journal_name_full 'Chem.Mater. '
loop_
_publ_author_name
"Yau-Chen Jiang"
"Sue-Lein Wang"
"Kwang-Hwa Lii"
"Ninh Nguyen"
"A.Ducouret"
_chemical_name_systematic
;
catena-(Diethylenetriammonium (\m~4~-phosphato)-(\m~4~-hydrogen 
phosphato)-(\m~3~-hydrogen 
phosphato)-(\m~2~-oxalato)-oxalato-tri-iron(iii,ii))
;
_cell_volume   1008.656
_exptl_crystal_colour 'dark brown'
_exptl_crystal_density_diffrn 2.426
_exptl_crystal_description 'tablet'
_exptl_crystal_preparation 'from the melt'
_diffrn_ambient_temperature 294
#These two values have been output from a single CSD field.
_refine_ls_R_factor_gt 0.0397
_refine_ls_wR_factor_gt 0.0397
_symmetry_cell_setting triclinic
_symmetry_space_group_name_H-M 'P -1'
_symmetry_Int_Tables_number 2
loop_
_symmetry_equiv_pos_site_id
_symmetry_equiv_pos_as_xyz
1 x,y,z
2 -x,-y,-z
_cell_length_a 9.6367(7)
_cell_length_b 10.1760(7)
_cell_length_c 12.6164(9)
_cell_angle_alpha 86.302(1)
_cell_angle_beta 68.880(1)
_cell_angle_gamma 61.800(1)
_cell_formula_units_Z 2
loop_
_atom_type_symbol
_atom_type_radius_bond
C 0.68
H 0.23
Fe 1.34
N 0.68
O 0.68
P 1.05
loop_
_atom_site_label
_atom_site_type_symbol
_atom_site_fract_x
_atom_site_fract_y
_atom_site_fract_z
Fe1 Fe 0.09655(6) 0.15034(5) 0.33713(4)
Fe2 Fe 0.86291(6) -0.07729(6) 0.16702(4)
Fe3 Fe 0.26192(6) 0.23158(6) 0.57679(5)
P1 P 0.47679(11) 0.02234(10) 0.32227(7)
P2 P -0.10860(11) -0.03665(10) 0.41685(7)
P3 P 0.00401(11) 0.16191(10) 0.11181(7)
O1 O 0.6158(3) 0.0256(3) 0.2148(2)
O2 O 0.3404(3) 0.0289(3) 0.2815(2)
O3 O 0.4088(3) 0.1565(3) 0.4089(2)
O4 O 0.5392(3) -0.1267(3) 0.3726(2)
O5 O 0.0419(3) -0.0137(3) 0.3509(2)
O6 O -0.0742(3) -0.1509(3) 0.5005(2)
O7 O -0.1629(3) -0.0931(3) 0.3366(2)
O8 O -0.2609(3) 0.1209(3) 0.4810(2)
H1 H -0.36420 0.13480 0.52560
O9 O 0.1143(3) 0.0789(3) -0.0078(2)
O10 O -0.1236(3) 0.1077(3) 0.1760(2)
O11 O 0.1187(3) 0.1498(3) 0.1738(2)
O12 O -0.1110(3) 0.3341(3) 0.1087(2)
H2 H -0.06480 0.40170 0.10530
O13 O 0.1335(3) 0.3376(3) 0.3269(2)
O14 O -0.0135(3) 0.5880(3) 0.3708(2)
O15 O -0.1508(3) 0.3245(3) 0.3868(2)
O16 O -0.3032(3) 0.5721(3) 0.4410(2)
O17 O 0.8731(3) -0.2851(3) 0.1666(2)
O18 O 1.0615(4) -0.5288(3) 0.1079(3)
O19 O 1.1164(3) -0.2181(3) 0.1291(2)
O20 O 1.3079(3) -0.4596(3) 0.1019(3)
N1 N -0.5608(4) -0.3433(4) 0.6649(3)
N2 N -0.3990(4) -0.7241(4) 0.7756(3)
N3 N -0.6021(5) -0.7727(4) 1.0824(3)
C1 C -0.0004(5) 0.4603(4) 0.3642(3)
C2 C -0.1678(4) 0.4531(4) 0.4020(3)
C3 C 1.0208(5) -0.3969(4) 0.1310(3)
C4 C 1.1633(5) -0.3573(4) 0.1184(3)
C5 C -0.4749(6) -0.4592(5) 0.7309(4)
H3 H -0.54290 -0.42920 0.81210
H4 H -0.36540 -0.46710 0.71740
C6 C -0.4500(7) -0.6114(5) 0.6951(4)
H5 H -0.55500 -0.59810 0.69220
H6 H -0.36320 -0.65050 0.61880
C7 C -0.5427(5) -0.7004(5) 0.8844(4)
H7 H -0.62590 -0.71490 0.86810
H8 H -0.59770 -0.59840 0.92140
C8 C -0.4762(6) -0.8112(6) 0.9631(4)
H9 H -0.44520 -0.91100 0.93340
H10 H -0.37440 -0.81370 0.96340
O6A O 0.0742(3) 0.1509(3) 0.4995(2)
O7* O 0.8371(3) -0.0931(3) 0.3366(2)
O9A O 0.8857(3) -0.0789(3) 0.0078(2)
O10* O 0.8764(3) 0.1077(3) 0.1760(2)
O4A O 0.4608(3) 0.1267(3) 0.6274(2)
O7A O 0.1629(3) 0.0931(3) 0.6634(2)
O14A O 0.0135(3) 0.4120(3) 0.6292(2)
O16A O 0.3032(3) 0.4279(3) 0.5590(2)
Fe3A Fe 0.73808(6) -0.23158(6) 0.42321(5)
Fe1A Fe -0.09655(6) -0.15034(5) 0.66287(4)
Fe2* Fe -0.13709(6) -0.07729(6) 0.16702(4)
Fe3A* Fe -0.26192(6) -0.23158(6) 0.42321(5)
Fe2A Fe 0.13709(6) 0.07729(6) -0.16702(4)
Fe3A** Fe -0.26192(6) 0.76842(6) 0.42321(5)
#END
