
#######################################################################
#
#                 Cambridge Crystallographic Data Centre
#                                CCDC
#
#######################################################################
#
# If this CIF has been generated from an entry in the Cambridge
# Structural Database, then it will include bibliographic, chemical,
# crystal, experimental, refinement or atomic coordinate data resulting
# from the CCDC's data processing and validation procedures.
#
#######################################################################

data_CSD_CIF_IJALEL
_audit_creation_date 2011-04-19
_audit_creation_method CSD-ConQuest-V1
_database_code_CSD IJALEL
_database_code_depnum_ccdc_archive 'CCDC 746934 (not 736934 as published)'
_chemical_formula_sum 'C22 H25 N3 O6 Zn1'
_chemical_formula_moiety
;
(C16 H9 N2 O6 Zn1 1-)n,n(C6 H16 N1 1+)
;
_journal_coden_Cambridge 211
_journal_volume 63
_journal_year 2010
_journal_page_first 3551
_journal_name_full 'J.Coord.Chem. '
loop_
_publ_author_name
"Hong Chang"
"Min Fu"
"Xiao-Jun Zhao"
"En-Cui Yang"
_chemical_name_systematic
;
catena-(triethylammonium 
(\m~3~-benzene-1,3,5-tricarboxylato)-(benzimidazole)-zinc(ii))
;
_cell_volume   4382.007
_exptl_crystal_colour 'blue'
_exptl_crystal_density_diffrn 1.494
_exptl_crystal_description 'block'
_diffrn_ambient_temperature 296
#These two values have been output from a single CSD field.
_refine_ls_R_factor_gt 0.0337
_refine_ls_wR_factor_gt 0.0337
_symmetry_cell_setting orthorhombic
_symmetry_space_group_name_H-M 'P b c a'
_symmetry_Int_Tables_number 61
loop_
_symmetry_equiv_pos_site_id
_symmetry_equiv_pos_as_xyz
1 x,y,z
2 1/2-x,-y,1/2+z
3 -x,1/2+y,1/2-z
4 1/2+x,1/2-y,-z
5 -x,-y,-z
6 -1/2+x,y,-1/2-z
7 x,-1/2-y,-1/2+z
8 -1/2-x,-1/2+y,z
_cell_length_a 13.9626(5)
_cell_length_b 16.2685(6)
_cell_length_c 19.2912(8)
_cell_angle_alpha 90
_cell_angle_beta 90
_cell_angle_gamma 90
_cell_formula_units_Z 8
loop_
_atom_type_symbol
_atom_type_radius_bond
C 0.68
H 0.23
N 0.68
O 0.68
Zn 1.22
loop_
_atom_site_label
_atom_site_type_symbol
_atom_site_fract_x
_atom_site_fract_y
_atom_site_fract_z
Zn1 Zn 0.72317(2) 0.13464(2) 0.573325(16)
O1 O 0.85695(14) 0.16806(15) 0.58324(11)
O2 O 0.87252(17) 0.08729(16) 0.67538(13)
O3 O 1.14764(15) 0.15019(13) 0.84079(10)
O4 O 1.2141(2) 0.27267(15) 0.82316(12)
O5 O 1.26173(15) 0.34482(14) 0.57316(11)
O6 O 1.15974(14) 0.29549(13) 0.49619(10)
N1 N 0.70860(17) 0.01340(15) 0.55470(13)
N2 N 0.72523(19) -0.11955(16) 0.57530(14)
H1 H 0.74410 -0.16410 0.59500
C1 C 0.6551(2) -0.02994(18) 0.50591(16)
C2 C 0.6662(2) -0.11393(18) 0.51842(16)
C3 C 0.6210(2) -0.1736(2) 0.47825(18)
H2 H 0.62960 -0.22940 0.48660
C4 C 0.5633(3) -0.1458(2) 0.4257(2)
H3 H 0.53190 -0.18370 0.39760
C5 C 0.5506(3) -0.0622(2) 0.4136(2)
H4 H 0.51000 -0.04580 0.37800
C6 C 0.5961(3) -0.0031(2) 0.4526(2)
H5 H 0.58760 0.05250 0.44350
C7 C 0.7480(2) -0.0427(2) 0.59444(17)
H6 H 0.78750 -0.03050 0.63190
C8 C 0.99701(19) 0.18211(18) 0.65138(14)
C9 C 1.0361(2) 0.17663(18) 0.71772(15)
H7 H 1.00410 0.14750 0.75210
C10 C 1.1229(2) 0.21466(18) 0.73258(14)
C11 C 1.1719(2) 0.25492(19) 0.68012(14)
H8 H 1.23010 0.28010 0.68990
C12 C 1.1357(2) 0.25829(18) 0.61334(14)
C13 C 1.0470(2) 0.22309(18) 0.59964(15)
H9 H 1.02090 0.22700 0.55540
C14 C 0.9013(2) 0.14199(19) 0.63690(15)
C15 C 1.1651(2) 0.2131(2) 0.80498(15)
C16 C 1.1906(2) 0.30258(18) 0.55756(15)
C17 C 0.4076(4) 0.3697(3) 0.7257(3)
H10 H 0.34960 0.35480 0.75040
H11 H 0.43750 0.31930 0.70980
N3 N 0.3810(3) 0.4203(2) 0.6641(2)
H12 H 0.34090 0.38890 0.63800
C18 C 0.4738(5) 0.4114(4) 0.7748(4)
H13 H 0.52890 0.43100 0.75010
H14 H 0.49370 0.37320 0.80990
H15 H 0.44140 0.45690 0.79620
C19 C 0.5005(5) 0.3912(5) 0.5734(4)
H16 H 0.52790 0.34800 0.60080
H17 H 0.54990 0.41770 0.54700
H18 H 0.45360 0.36850 0.54240
C20 C 0.3279(7) 0.4968(4) 0.6807(5)
H19 H 0.36390 0.52590 0.71600
H20 H 0.32830 0.53110 0.63950
C21 C 0.4559(6) 0.4496(5) 0.6176(5)
H21 H 0.42870 0.49240 0.58870
H22 H 0.50540 0.47490 0.64570
C22 C 0.2361(8) 0.4912(8) 0.7028(6)
H23 H 0.20220 0.45210 0.67470
H24 H 0.20580 0.54390 0.69920
H25 H 0.23520 0.47340 0.75030
Zn1C Zn 1.22317(2) 0.36536(2) 0.426675(16)
Zn1E Zn 1.22317(2) 0.13464(2) 0.926675(16)
O3E O 0.64764(15) 0.15019(13) 0.65921(10)
O6C O 0.65974(14) 0.20451(13) 0.50381(10)
#END
