
#######################################################################
#
#                 Cambridge Crystallographic Data Centre
#                                CCDC
#
#######################################################################
#
# If this CIF has been generated from an entry in the Cambridge
# Structural Database, then it will include bibliographic, chemical,
# crystal, experimental, refinement or atomic coordinate data resulting
# from the CCDC's data processing and validation procedures.
#
#######################################################################

data_CSD_CIF_IJEJEP
_audit_creation_date 2020-12-31
_audit_creation_method CSD-ConQuest-V1
_database_code_CSD IJEJEP
_database_code_depnum_ccdc_archive 'CCDC 1993868'
_chemical_formula_sum 'C157 H139 K2 Mn3 N17 O50 U4'
_chemical_formula_moiety
;
(C144 H92 K2 Mn3 N12 O42 U4 2-)n,2(C2 H8 N1 1+),3(C3 H7 N1 O1),5(H2 O1)
;
_journal_coden_Cambridge 1078
_journal_year 2020
_journal_name_full 'CSD Communication(Private Communication) '
loop_
_publ_author_name
"Zhi-wei Huang"
"Kong-qiu Hu"
"Lei Mei"
"Cong-Zhi Wang"
"Yan-mei Chen"
"Wangsuo Wu"
"Zhi-fang Chai"
"Wei-qun Shi"
_chemical_name_systematic
;
catena-[bis(dimethylammonium) 
tris[\m-5,10,15,20-tetrakis(4-(carboxylato)phenyl)porphyrinato]-deca-aqua-octa
oxo-di-potassium-tri-manganese(ii)-tetra-uranium(vi) N,N-dimethylformamide 
solvate pentahydrate]
;
_chemical_name_common
;
IHEP-9
;
_cell_volume  77845.800
_exptl_crystal_colour 'brown'
_exptl_crystal_description 'octahedral'
_diffrn_ambient_temperature 170
_refine_special_details
;
Disordered cations (dimethylammonium) and solvent molecules 
(N,N-dimethylformamide / water) were not modelled and the disordered density 
was taken into account using the SQUEEZE/PLATON procedure.
;
#These two values have been output from a single CSD field.
_refine_ls_R_factor_gt 0.0564
_refine_ls_wR_factor_gt 0.0564
_symmetry_cell_setting tetragonal
_symmetry_space_group_name_H-M 'I 41/a m d'
_symmetry_Int_Tables_number 141
loop_
_symmetry_equiv_pos_site_id
_symmetry_equiv_pos_as_xyz
1 x,y,z
2 1/2-x,-y,1/2+z
3 1/4-y,3/4+x,1/4+z
4 1/4+y,1/4-x,3/4+z
5 1/2-x,y,1/2-z
6 x,-y,-z
7 1/4+y,3/4+x,1/4-z
8 1/4-y,1/4-x,3/4-z
9 1/2+x,1/2+y,1/2+z
10 -x,1/2-y,z
11 3/4-y,1/4+x,3/4+z
12 3/4+y,3/4-x,1/4+z
13 -x,1/2+y,-z
14 1/2+x,1/2-y,1/2-z
15 3/4+y,1/4+x,3/4-z
16 3/4-y,3/4-x,1/4-z
17 -x,-y,-z
18 -1/2+x,y,-1/2-z
19 -1/4+y,-3/4-x,-1/4-z
20 -1/4-y,-1/4+x,-3/4-z
21 -1/2+x,-y,-1/2+z
22 -x,y,z
23 -1/4-y,-3/4-x,-1/4+z
24 -1/4+y,-1/4+x,-3/4+z
25 -1/2-x,-1/2-y,-1/2-z
26 x,-1/2+y,-z
27 -3/4+y,-1/4-x,-3/4-z
28 -3/4-y,-3/4+x,-1/4-z
29 x,-1/2-y,z
30 -1/2-x,-1/2+y,-1/2+z
31 -3/4-y,-1/4-x,-3/4+z
32 -3/4+y,-3/4+x,-1/4+z
_cell_length_a 34.2254(9)
_cell_length_b 34.2254(9)
_cell_length_c 66.4566(18)
_cell_angle_alpha 90
_cell_angle_beta 90
_cell_angle_gamma 90
_cell_formula_units_Z 8
loop_
_atom_type_symbol
_atom_type_radius_bond
C 0.68
H 0.23
K 2.03
Mn 1.61
N 0.68
O 0.68
U 1.96
loop_
_atom_site_label
_atom_site_type_symbol
_atom_site_fract_x
_atom_site_fract_y
_atom_site_fract_z
U1 U 0.25137(2) 0.50529(2) 0.80036(2)
K1 K 0.25000 0.58508(8) 0.75000
C1 C 0.3094(2) 0.5008(2) 0.76979(13)
N1 N 0.50000 0.4893(3) 0.70349(12)
Mn1 Mn 0.00000 0.75000 0.79902(4)
O1 O 0.21782(16) 0.48065(15) 0.78493(8)
O2 O 0.28425(15) 0.53000(17) 0.81601(8)
Mn2 Mn 0.50000 0.48461(5) 0.67349(2)
C2 C 0.3404(2) 0.4988(2) 0.75486(11)
N2 N 0.44152(14) 0.48553(17) 0.67344(7)
O3 O 0.22308(13) 0.56733(13) 0.78716(7)
C3 C 0.3810(2) 0.5286(2) 0.72995(11)
H1 H 0.38902 0.55139 0.72289
N3 N 0.00000 0.6906(2) 0.79869(13)
O4 O 0.19904(13) 0.54358(13) 0.81498(7)
C4 C 0.3522(2) 0.5312(2) 0.74431(10)
H2 H 0.34022 0.55575 0.74694
N4 N 0.50000 0.4823(2) 0.64329(10)
O5 O 0.28769(14) 0.53080(15) 0.77115(8)
C5 C 0.3592(2) 0.4626(3) 0.75122(12)
H3 H 0.35247 0.44018 0.75891
N5 N 0.0588(2) 0.75000 0.79923(14)
O6 O 0.30646(16) 0.52135(16) 0.56551(8)
C6 C 0.3985(2) 0.4933(2) 0.72574(11)
O7 O 0.30506(17) 0.47337(16) 0.78258(8)
C7 C 0.3874(2) 0.4601(3) 0.73645(12)
H4 H 0.39935 0.43564 0.73357
O8 O 0.27795(14) 0.47052(14) 0.57894(7)
C8 C 0.4295(2) 0.4904(2) 0.70983(10)
O9 O 0.00000 0.75000 0.7660(2)
C9 C 0.4680(2) 0.4911(3) 0.71617(10)
C10 C 0.4808(2) 0.4949(3) 0.73637(11)
H5 H 0.46453 0.49699 0.74789
O10 O 0.00000 0.75000 0.83337(19)
C11 C 0.41714(18) 0.4882(2) 0.68997(10)
O11 O 0.50000 0.5510(3) 0.66961(12)
C12 C 0.37724(19) 0.4885(2) 0.68365(11)
H6 H 0.35489 0.48938 0.69211
O12 O 0.50000 0.4191(3) 0.67561(12)
C13 C 0.41716(18) 0.4852(2) 0.65698(9)
C14 C 0.37741(19) 0.4872(2) 0.66367(11)
H7 H 0.35499 0.48762 0.65525
O13 O 0.3047(3) 0.6333(3) 0.76311(13)
C15 C 0.42936(18) 0.4828(2) 0.63682(9)
C16 C 0.4799(2) 0.4770(3) 0.61022(10)
H8 H 0.46340 0.47474 0.59877
C17 C 0.46743(19) 0.4811(2) 0.63090(9)
C18 C 0.37334(19) 0.4537(2) 0.6182(1)
H9 H 0.37669 0.43023 0.62564
C19 C 0.39852(19) 0.4844(2) 0.62112(9)
C20 C 0.3427(2) 0.4568(2) 0.60427(10)
H10 H 0.32450 0.43605 0.60279
C21 C 0.3391(2) 0.4899(2) 0.59279(10)
C22 C 0.3655(2) 0.5209(2) 0.59520(12)
H11 H 0.36344 0.54363 0.58708
C23 C 0.3942(2) 0.5177(3) 0.60942(12)
H12 H 0.41162 0.53900 0.61136
C24 C 0.3065(2) 0.4940(2) 0.57837(11)
C25 C 0.19703(19) 0.56864(18) 0.80072(10)
C26 C 0.16517(18) 0.59679(18) 0.80042(10)
C27 C 0.1614(2) 0.62336(18) 0.7846(1)
H13 H 0.18037 0.62380 0.77416
C28 C 0.1304(2) 0.64894(19) 0.78406(12)
H14 H 0.12793 0.66664 0.77312
C29 C 0.1375(2) 0.5965(2) 0.81577(11)
H15 H 0.14009 0.57907 0.82681
C30 C 0.1056(2) 0.6226(2) 0.81470(12)
H16 H 0.08600 0.62176 0.82480
C31 C 0.10246(18) 0.64921(19) 0.79935(12)
C32 C 0.07102(19) 0.67905(18) 0.79914(12)
C33 C 0.1220(2) 0.7303(2) 0.80369(14)
H17 H 0.14410 0.71395 0.80549
C34 C 0.08248(18) 0.71764(19) 0.80048(12)
C35 C 0.03218(19) 0.66671(18) 0.79778(12)
C36 C 0.0191(2) 0.62688(19) 0.79610(13)
H18 H 0.03543 0.60449 0.79515
C1U C 0.6906(2) 0.5008(2) 0.76979(13)
C2U C 0.6596(2) 0.4988(2) 0.75486(11)
N2U N 0.55848(14) 0.48553(17) 0.67344(7)
C3U C 0.6190(2) 0.5286(2) 0.72995(11)
H1U H 0.61098 0.55139 0.72289
C4U C 0.6478(2) 0.5312(2) 0.74431(10)
H2U H 0.65978 0.55575 0.74694
O5U O 0.71231(14) 0.53080(15) 0.77115(8)
C5U C 0.6408(2) 0.4626(3) 0.75122(12)
H3U H 0.64753 0.44018 0.75891
O6U O 0.69354(16) 0.52135(16) 0.56551(8)
C6U C 0.6015(2) 0.4933(2) 0.72574(11)
O7U O 0.69494(17) 0.47337(16) 0.78258(8)
C7U C 0.6126(2) 0.4601(3) 0.73645(12)
H4U H 0.60065 0.43564 0.73357
O8U O 0.72205(14) 0.47052(14) 0.57894(7)
C8U C 0.5705(2) 0.4904(2) 0.70983(10)
C9U C 0.5320(2) 0.4911(3) 0.71617(10)
C10U C 0.5192(2) 0.4949(3) 0.73637(11)
H5U H 0.53547 0.49699 0.74789
C11U C 0.58286(18) 0.4882(2) 0.68997(10)
C12U C 0.62276(19) 0.4885(2) 0.68365(11)
H6U H 0.64511 0.48938 0.69211
C13U C 0.58284(18) 0.4852(2) 0.65698(9)
C14U C 0.62259(19) 0.4872(2) 0.66367(11)
H7U H 0.64501 0.48762 0.65525
C15U C 0.57064(18) 0.4828(2) 0.63682(9)
C16U C 0.5201(2) 0.4770(3) 0.61022(10)
H8U H 0.53660 0.47474 0.59877
C17U C 0.53257(19) 0.4811(2) 0.63090(9)
C18U C 0.62666(19) 0.4537(2) 0.6182(1)
H9U H 0.62331 0.43023 0.62564
C19U C 0.60148(19) 0.4844(2) 0.62112(9)
C20U C 0.6573(2) 0.4568(2) 0.60427(10)
H10U H 0.67550 0.43605 0.60279
C21U C 0.6609(2) 0.4899(2) 0.59279(10)
C22U C 0.6345(2) 0.5209(2) 0.59520(12)
H11U H 0.63655 0.54363 0.58708
C23U C 0.6058(2) 0.5177(3) 0.60942(12)
H12U H 0.58838 0.53900 0.61136
C24U C 0.6935(2) 0.4940(2) 0.57837(11)
O3U O -0.22308(13) 0.56733(13) 0.78716(7)
O4U O -0.19904(13) 0.54358(13) 0.81498(7)
N5I N -0.0588(2) 0.75000 0.79923(14)
C25U C -0.19703(19) 0.56864(18) 0.80072(10)
C26U C -0.16517(18) 0.59679(18) 0.80042(10)
C27U C -0.1614(2) 0.62336(18) 0.7846(1)
H13U H -0.18037 0.62380 0.77416
C28U C -0.1304(2) 0.64894(19) 0.78406(12)
H14U H -0.12793 0.66664 0.77312
C29U C -0.1375(2) 0.5965(2) 0.81577(11)
H15U H -0.14009 0.57907 0.82681
C30U C -0.1056(2) 0.6226(2) 0.81470(12)
H16U H -0.08600 0.62176 0.82480
C31U C -0.10246(18) 0.64921(19) 0.79935(12)
C32U C -0.07102(19) 0.67905(18) 0.79914(12)
C33U C -0.1220(2) 0.7303(2) 0.80369(14)
H17U H -0.14410 0.71395 0.80549
C34U C -0.08248(18) 0.71764(19) 0.80048(12)
C35U C -0.03218(19) 0.66671(18) 0.79778(12)
C36U C -0.0191(2) 0.62688(19) 0.79610(13)
H18U H -0.03543 0.60449 0.79515
O3BA O 0.22308(13) 0.93267(13) 0.78716(7)
N3I N 0.00000 0.8094(2) 0.79869(13)
O4BA O 0.19904(13) 0.95642(13) 0.81498(7)
C25BA C 0.19703(19) 0.93136(18) 0.80072(10)
C26BA C 0.16517(18) 0.90321(18) 0.80042(10)
C27BA C 0.1614(2) 0.87664(18) 0.7846(1)
H13BA H 0.18037 0.87620 0.77416
C28BA C 0.1304(2) 0.85106(19) 0.78406(12)
H14BA H 0.12793 0.83336 0.77312
C29BA C 0.1375(2) 0.9035(2) 0.81577(11)
H15BA H 0.14009 0.92093 0.82681
C30BA C 0.1056(2) 0.8774(2) 0.81470(12)
H16BA H 0.08600 0.87824 0.82480
C31BA C 0.10246(18) 0.85079(19) 0.79935(12)
C32BA C 0.07102(19) 0.82095(18) 0.79914(12)
C33BA C 0.1220(2) 0.7697(2) 0.80369(14)
H17BA H 0.14410 0.78605 0.80549
C34BA C 0.08248(18) 0.78236(19) 0.80048(12)
C35BA C 0.03218(19) 0.83329(18) 0.79778(12)
C36BA C 0.0191(2) 0.87312(19) 0.79610(13)
H18BA H 0.03543 0.89551 0.79515
O3I O -0.22308(13) 0.93267(13) 0.78716(7)
O4I O -0.19904(13) 0.95642(13) 0.81498(7)
C25I C -0.19703(19) 0.93136(18) 0.80072(10)
C26I C -0.16517(18) 0.90321(18) 0.80042(10)
C27I C -0.1614(2) 0.87664(18) 0.7846(1)
H13I H -0.18037 0.87620 0.77416
C28I C -0.1304(2) 0.85106(19) 0.78406(12)
H14I H -0.12793 0.83336 0.77312
C29I C -0.1375(2) 0.9035(2) 0.81577(11)
H15I H -0.14009 0.92093 0.82681
C30I C -0.1056(2) 0.8774(2) 0.81470(12)
H16I H -0.08600 0.87824 0.82480
C31I C -0.10246(18) 0.85079(19) 0.79935(12)
C32I C -0.07102(19) 0.82095(18) 0.79914(12)
C33I C -0.1220(2) 0.7697(2) 0.80369(14)
H17I H -0.14410 0.78605 0.80549
C34I C -0.08248(18) 0.78236(19) 0.80048(12)
C35I C -0.03218(19) 0.83329(18) 0.79778(12)
C36I C -0.0191(2) 0.87312(19) 0.79610(13)
H18I H -0.03543 0.89551 0.79515
O13D O 0.1953(3) 0.6333(3) 0.73689(13)
K1X K 0.25000 0.91492(8) 0.75000
O13X O 0.1953(3) 0.8667(3) 0.73689(13)
U1BA U 0.25137(2) 0.99471(2) 0.80036(2)
C1BA C 0.3094(2) 0.9992(2) 0.76979(13)
N1I N 0.50000 1.0107(3) 0.70349(12)
O1BA O 0.21782(16) 1.01935(15) 0.78493(8)
O2BA O 0.28425(15) 0.97000(17) 0.81601(8)
Mn2I Mn 0.50000 1.01539(5) 0.67349(2)
C2BA C 0.3404(2) 1.0012(2) 0.75486(11)
N2BA N 0.44152(14) 1.01447(17) 0.67344(7)
C3BA C 0.3810(2) 0.9714(2) 0.72995(11)
H1BA H 0.38902 0.94861 0.72289
C4BA C 0.3522(2) 0.9688(2) 0.74431(10)
H2BA H 0.34022 0.94425 0.74694
N4I N 0.50000 1.0177(2) 0.64329(10)
O5BA O 0.28769(14) 0.96920(15) 0.77115(8)
C5BA C 0.3592(2) 1.0374(3) 0.75122(12)
H3BA H 0.35247 1.05982 0.75891
O6BA O 0.30646(16) 0.97865(16) 0.56551(8)
C6BA C 0.3985(2) 1.0067(2) 0.72574(11)
O7BA O 0.30506(17) 1.02663(16) 0.78258(8)
C7BA C 0.3874(2) 1.0399(3) 0.73645(12)
H4BA H 0.39935 1.06436 0.73357
O8BA O 0.27795(14) 1.02948(14) 0.57894(7)
C8BA C 0.4295(2) 1.0096(2) 0.70983(10)
C9BA C 0.4680(2) 1.0089(3) 0.71617(10)
C10BA C 0.4808(2) 1.0051(3) 0.73637(11)
H5BA H 0.46453 1.00301 0.74789
C11BA C 0.41714(18) 1.0118(2) 0.68997(10)
O11I O 0.50000 0.9490(3) 0.66961(12)
C12BA C 0.37724(19) 1.0115(2) 0.68365(11)
H6BA H 0.35489 1.01062 0.69211
O12I O 0.50000 1.0809(3) 0.67561(12)
C13BA C 0.41716(18) 1.0148(2) 0.65698(9)
C14BA C 0.37741(19) 1.0128(2) 0.66367(11)
H7BA H 0.35499 1.01238 0.65525
O13BA O 0.3047(3) 0.8667(3) 0.76311(13)
C15BA C 0.42936(18) 1.0172(2) 0.63682(9)
C16BA C 0.4799(2) 1.0230(3) 0.61022(10)
H8BA H 0.46340 1.02526 0.59877
C17BA C 0.46743(19) 1.0189(2) 0.63090(9)
C18BA C 0.37334(19) 1.0463(2) 0.6182(1)
H9BA H 0.37669 1.06977 0.62564
C19BA C 0.39852(19) 1.0156(2) 0.62112(9)
C20BA C 0.3427(2) 1.0432(2) 0.60427(10)
H10BA H 0.32450 1.06395 0.60279
C21BA C 0.3391(2) 1.0101(2) 0.59279(10)
C22BA C 0.3655(2) 0.9791(2) 0.59520(12)
H11BA H 0.36344 0.95637 0.58708
C23BA C 0.3942(2) 0.9823(3) 0.60942(12)
H12BA H 0.41162 0.96100 0.61136
C24BA C 0.3065(2) 1.0060(2) 0.57837(11)
C1I C 0.6906(2) 0.9992(2) 0.76979(13)
C2I C 0.6596(2) 1.0012(2) 0.75486(11)
N2I N 0.55848(14) 1.01447(17) 0.67344(7)
C3I C 0.6190(2) 0.9714(2) 0.72995(11)
H1I H 0.61098 0.94861 0.72289
C4I C 0.6478(2) 0.9688(2) 0.74431(10)
H2I H 0.65978 0.94425 0.74694
O5I O 0.71231(14) 0.96920(15) 0.77115(8)
C5I C 0.6408(2) 1.0374(3) 0.75122(12)
H3I H 0.64753 1.05982 0.75891
O6I O 0.69354(16) 0.97865(16) 0.56551(8)
C6I C 0.6015(2) 1.0067(2) 0.72574(11)
O7I O 0.69494(17) 1.02663(16) 0.78258(8)
C7I C 0.6126(2) 1.0399(3) 0.73645(12)
H4I H 0.60065 1.06436 0.73357
O8I O 0.72205(14) 1.02948(14) 0.57894(7)
C8I C 0.5705(2) 1.0096(2) 0.70983(10)
C9I C 0.5320(2) 1.0089(3) 0.71617(10)
C10I C 0.5192(2) 1.0051(3) 0.73637(11)
H5I H 0.53547 1.00301 0.74789
C11I C 0.58286(18) 1.0118(2) 0.68997(10)
C12I C 0.62276(19) 1.0115(2) 0.68365(11)
H6I H 0.64511 1.01062 0.69211
C13I C 0.58284(18) 1.0148(2) 0.65698(9)
C14I C 0.62259(19) 1.0128(2) 0.66367(11)
H7I H 0.64501 1.01238 0.65525
C15I C 0.57064(18) 1.0172(2) 0.63682(9)
C16I C 0.5201(2) 1.0230(3) 0.61022(10)
H8I H 0.53660 1.02526 0.59877
C17I C 0.53257(19) 1.0189(2) 0.63090(9)
C18I C 0.62666(19) 1.0463(2) 0.6182(1)
H9I H 0.62331 1.06977 0.62564
C19I C 0.60148(19) 1.0156(2) 0.62112(9)
C20I C 0.6573(2) 1.0432(2) 0.60427(10)
H10I H 0.67550 1.06395 0.60279
C21I C 0.6609(2) 1.0101(2) 0.59279(10)
C22I C 0.6345(2) 0.9791(2) 0.59520(12)
H11I H 0.63655 0.95637 0.58708
C23I C 0.6058(2) 0.9823(3) 0.60942(12)
H12I H 0.58838 0.96100 0.61136
C24I C 0.6935(2) 1.0060(2) 0.57837(11)
U1J U 0.24471(2) 0.50137(2) 0.55036(2)
O1J O 0.26935(16) 0.46782(15) 0.53493(8)
O2J O 0.22000(15) 0.53425(17) 0.56601(8)
U1U U 0.74863(2) 0.50529(2) 0.80036(2)
O1U O 0.78218(16) 0.48065(15) 0.78493(8)
O2U O 0.71575(15) 0.53000(17) 0.81601(8)
U1C U 0.75529(2) 0.99863(2) 0.55036(2)
U1I U -0.25137(2) 0.99471(2) 0.80036(2)
U1I* U 0.74863(2) 0.99471(2) 0.80036(2)
U1U* U -0.25137(2) 0.50529(2) 0.80036(2)
U1V U 0.24471(2) 0.99863(2) 0.55036(2)
U1EA U 0.75529(2) 0.50137(2) 0.55036(2)
K1I K -0.25000 0.91492(8) 0.75000
K1I* K 0.75000 0.91492(8) 0.75000
K1Q K -0.25000 0.58508(8) 0.75000
K1Q* K 0.75000 0.58508(8) 0.75000
O3D O 0.27692(13) 0.56733(13) 0.71284(7)
O3J O 0.18267(13) 0.47308(13) 0.53716(7)
O3U* O 0.77692(13) 0.56733(13) 0.78716(7)
O3X O 0.27692(13) 0.93267(13) 0.71284(7)
O4J O 0.20642(13) 0.44904(13) 0.56498(7)
O4U* O 0.80096(13) 0.54358(13) 0.81498(7)
O5D O 0.21231(14) 0.53080(15) 0.72885(8)
O5J O 0.21920(14) 0.53769(15) 0.52115(8)
O5X O 0.21231(14) 0.96920(15) 0.72885(8)
O6K O 0.27135(16) 0.44354(16) 0.81551(8)
O6W O 0.27135(16) 1.05646(16) 0.81551(8)
O6DA O 0.72865(16) 0.44354(16) 0.81551(8)
O7J O 0.27663(17) 0.55506(16) 0.53258(8)
O8K O 0.22052(14) 0.47205(14) 0.82894(7)
O8W O 0.22052(14) 1.02795(14) 0.82894(7)
O8DA O 0.77948(14) 0.47205(14) 0.82894(7)
#END
