
#######################################################################
#
#                 Cambridge Crystallographic Data Centre
#                                CCDC
#
#######################################################################
#
# If this CIF has been generated from an entry in the Cambridge
# Structural Database, then it will include bibliographic, chemical,
# crystal, experimental, refinement or atomic coordinate data resulting
# from the CCDC's data processing and validation procedures.
#
#######################################################################

data_CSD_CIF_IJEVIF
_audit_creation_date 2020-12-31
_audit_creation_method CSD-ConQuest-V1
_database_code_CSD IJEVIF
_database_code_depnum_ccdc_archive 'CCDC 2019479'
_chemical_formula_sum 'C10 H20 N6 O18 U2'
_chemical_formula_moiety
;
(C8 H4 O16 U2 2-)n,2n(C1 H6 N3 1+),2n(H2 O1)
;
_journal_coden_Cambridge 971
_journal_volume 112
_journal_year 2021
_journal_page_first 106531
_journal_name_full 'Solid State Sciences '
loop_
_publ_author_name
"V.N.Serezhkin"
"M.S.Grigoriev"
"E.F.Rogaleva"
"S.A.Novikov"
"L.B.Serezhkina"
_chemical_name_systematic
;
catena-(bis(guanidinium) bis(\m-oxalato)-(\m-succinato)-tetraoxo-di-uranium 
dihydrate)
;
_cell_volume   2315.024
_exptl_crystal_colour 'yellow'
_exptl_crystal_density_diffrn 2.836
_diffrn_ambient_temperature 100
_diffrn_special_details
;
twin

;
#These two values have been output from a single CSD field.
_refine_ls_R_factor_gt 0.0308
_refine_ls_wR_factor_gt 0.0308
_symmetry_cell_setting monoclinic
_symmetry_space_group_name_H-M 'C 2/c'
_symmetry_Int_Tables_number 15
loop_
_symmetry_equiv_pos_site_id
_symmetry_equiv_pos_as_xyz
1 x,y,z
2 -x,y,1/2-z
3 1/2+x,1/2+y,z
4 1/2-x,1/2+y,1/2-z
5 -x,-y,-z
6 x,-y,-1/2+z
7 -1/2-x,-1/2-y,-z
8 -1/2+x,-1/2-y,-1/2+z
_cell_length_a 22.6887(8)
_cell_length_b 11.6505(4)
_cell_length_c 9.1734(3)
_cell_angle_alpha 90
_cell_angle_beta 107.310(2)
_cell_angle_gamma 90
_cell_formula_units_Z 4
loop_
_atom_type_symbol
_atom_type_radius_bond
C 0.68
H 0.23
N 0.68
O 0.68
U 1.96
loop_
_atom_site_label
_atom_site_type_symbol
_atom_site_fract_x
_atom_site_fract_y
_atom_site_fract_z
U1 U 0.30457(2) 0.12851(2) 0.29338(2)
O1 O 0.3152(3) 0.1423(4) 0.1112(6)
O2 O 0.2925(3) 0.1169(4) 0.4760(6)
O3 O 0.4087(2) 0.1296(3) 0.4051(5)
O4 O 0.4997(2) 0.2053(4) 0.4231(6)
O5 O 0.2100(2) 0.2456(4) 0.2123(5)
O6 O 0.17051(19) 0.4235(3) 0.1924(5)
O7 O 0.3227(2) 0.3311(4) 0.3310(5)
O8 O 0.2841(2) 0.5086(3) 0.3124(5)
C1 C 0.4601(3) 0.1325(5) 0.3707(8)
C2 C 0.4689(3) 0.0370(5) 0.2658(8)
H1 H 0.43593 0.04338 0.16719
H2 H 0.46362 -0.03767 0.31179
C3 C 0.2143(3) 0.3531(5) 0.2283(7)
C4 C 0.2792(3) 0.4010(5) 0.2969(7)
O9 O 0.6014(2) 0.3409(4) 0.4657(6)
H3 H 0.578(3) 0.281(4) 0.445(10)
H4 H 0.6366(18) 0.313(6) 0.516(9)
N1 N 0.3932(3) 0.4592(5) 0.7065(7)
H5 H 0.39650 0.53147 0.68225
H6 H 0.37240 0.44099 0.77019
N2 N 0.4167(3) 0.2681(5) 0.6853(7)
H7 H 0.39699 0.24829 0.75077
H8 H 0.43462 0.21533 0.64444
N3 N 0.4511(3) 0.4059(5) 0.5511(6)
H9 H 0.45436 0.47818 0.52675
H10 H 0.46863 0.35166 0.51171
C5 C 0.4194(3) 0.3786(5) 0.6477(8)
O3A O 0.5913(2) 0.1296(3) 0.0949(5)
O4A O 0.5003(2) 0.2053(4) 0.0769(6)
C1A C 0.5399(3) 0.1325(5) 0.1293(8)
C2A C 0.5311(3) 0.0370(5) 0.2342(8)
H1A H 0.56407 0.04338 0.33281
H2A H 0.53638 -0.03767 0.18821
U1A U 0.69543(2) 0.12851(2) 0.20662(2)
O1A O 0.6848(3) 0.1423(4) 0.3888(6)
O2A O 0.7075(3) 0.1169(4) 0.0240(6)
O5A O 0.7900(2) 0.2456(4) 0.2877(5)
O6A O 0.82949(19) 0.4235(3) 0.3076(5)
O7A O 0.6773(2) 0.3311(4) 0.1690(5)
O8A O 0.7159(2) 0.5086(3) 0.1876(5)
C3A C 0.7857(3) 0.3531(5) 0.2717(7)
C4A C 0.7208(3) 0.4010(5) 0.2031(7)
U1B U 0.80457(2) 0.62851(2) 0.29338(2)
U1C U 0.19543(2) 0.62851(2) 0.20662(2)
O6B O 0.67051(19) -0.0765(3) 0.1924(5)
O6C O 0.32949(19) -0.0765(3) 0.3076(5)
O8B O 0.7841(2) 0.0086(3) 0.3124(5)
O8C O 0.2159(2) 0.0086(3) 0.1876(5)
#END
