
#######################################################################
#
#                 Cambridge Crystallographic Data Centre
#                                CCDC
#
#######################################################################
#
# If this CIF has been generated from an entry in the Cambridge
# Structural Database, then it will include bibliographic, chemical,
# crystal, experimental, refinement or atomic coordinate data resulting
# from the CCDC's data processing and validation procedures.
#
#######################################################################

data_CSD_CIF_IJEVIE
_audit_creation_date 2016-04-04
_audit_creation_method CSD-ConQuest-V1
_database_code_CSD IJEVIE
_database_code_depnum_ccdc_archive 'CCDC 1412784'
_chemical_formula_sum 'C112 H100 Cd11 N6 O64'
_chemical_formula_moiety
;
(C108 H76 Cd11 N4 O60 2-)n,4n(H2 O1),2n(C2 H8 N1 1+)
;
_journal_coden_Cambridge 1147
_journal_volume 16
_journal_year 2016
_journal_page_first 2309
_journal_name_full 'Cryst.Growth Des. '
loop_
_publ_author_name
"Ya-Pan Wu"
"Xue-Qian Wu"
"Jian-Fang Wang"
"Jun Zhao"
"Wen-Wen Dong"
"Dong-Sheng Li"
"Qi-Chun Zhang"
_chemical_name_systematic
;
catena-[bis(dimethylammonium) 
tetrakis(\m-1,1':2',1''-terphenyl-3,3'',4',5,5',5''-hexacarboxylato)-tetrakis(
N,N-dimethylformamido)-octaaqua-undeca-cadmium tetrahydrate]
;
_cell_volume   3591.435
_exptl_crystal_density_diffrn 1.699
_diffrn_ambient_temperature 296
_refine_special_details
;
Disordered dimethylammonium cations were not modelled and the disordered 
density was taken into account using the SQUEEZE/PLATON procedure.
;
#These two values have been output from a single CSD field.
_refine_ls_R_factor_gt 0.0812
_refine_ls_wR_factor_gt 0.0812
_symmetry_cell_setting triclinic
_symmetry_space_group_name_H-M 'P -1'
_symmetry_Int_Tables_number 2
loop_
_symmetry_equiv_pos_site_id
_symmetry_equiv_pos_as_xyz
1 x,y,z
2 -x,-y,-z
_cell_length_a 10.143(3)
_cell_length_b 16.127(5)
_cell_length_c 22.937(7)
_cell_angle_alpha 79.015(7)
_cell_angle_beta 84.963(9)
_cell_angle_gamma 77.484(9)
_cell_formula_units_Z 1
loop_
_atom_type_symbol
_atom_type_radius_bond
C 0.68
H 0.23
Cd 1.44
N 0.68
O 0.68
loop_
_atom_site_label
_atom_site_type_symbol
_atom_site_fract_x
_atom_site_fract_y
_atom_site_fract_z
Cd1 Cd 0.20449(8) 0.97191(5) 0.21140(3)
Cd2 Cd -0.86403(8) 1.44438(6) 0.19551(4)
Cd3 Cd 0.42404(8) 1.03628(5) 0.30690(3)
Cd4 Cd 0.49880(9) 0.68616(6) 0.23099(4)
Cd5 Cd 0.32378(8) 0.52314(5) 0.28797(3)
Cd6 Cd 0.50000 1.00000 0.50000
C1 C -0.0658(11) 1.0290(7) 0.1791(5)
C2 C -0.1977(10) 1.0644(7) 0.1504(4)
C3 C -0.2052(12) 1.1262(7) 0.0990(5)
H1 H -0.12960 1.14930 0.08510
C4 C -0.3227(11) 1.1544(7) 0.0678(5)
C5 C -0.4352(11) 1.1235(7) 0.0904(5)
H2 H -0.51410 1.14190 0.06970
C6 C -0.4348(10) 1.0647(7) 0.1440(5)
C7 C -0.3149(11) 1.0341(7) 0.1730(5)
H3 H -0.31210 0.99320 0.20770
C8 C -0.5595(12) 1.0320(8) 0.1672(5)
C9 C -0.5679(13) 1.4164(9) 0.1738(6)
C10 C -0.4377(11) 1.3980(7) 0.1385(5)
C11 C -0.4267(11) 1.3561(7) 0.0904(4)
H4 H -0.50160 1.33790 0.08060
C12 C -0.3059(11) 1.3406(7) 0.0564(4)
C13 C -0.1921(11) 1.3663(8) 0.0729(5)
H5 H -0.11030 1.35530 0.05120
C14 C -0.2017(11) 1.4083(7) 0.1220(5)
C15 C -0.3255(12) 1.4261(8) 0.1541(5)
H6 H -0.33360 1.45620 0.18540
C16 C -0.0799(12) 1.4276(8) 0.1425(5)
C17 C -0.2981(11) 1.2986(7) 0.0037(4)
C18 C -0.2775(11) 1.3456(7) -0.0533(5)
H7 H -0.26370 1.40150 -0.05650
C19 C -0.2766(11) 1.3135(6) -0.1045(4)
C20 C -0.2975(11) 1.2269(7) -0.0995(4)
C21 C -0.3143(12) 1.1798(7) -0.0416(5)
H8 H -0.32440 1.12300 -0.03770
C22 C -0.3164(11) 1.2140(7) 0.0089(4)
C23 C -0.2535(13) 1.3690(8) -0.1624(5)
C24 C -0.2866(12) 1.1786(7) -0.1509(5)
C25 C 0.2839(11) 0.8691(7) 0.3443(4)
C26 C 0.2443(11) 0.8121(7) 0.4005(4)
C27 C 0.2443(10) 0.7261(7) 0.4031(4)
C28 C 0.2084(12) 0.6776(7) 0.4562(4)
H9 H 0.20700 0.61980 0.45750
C29 C 0.1736(10) 0.7133(7) 0.5086(5)
C30 C 0.1691(10) 0.8010(7) 0.5043(4)
C31 C 0.2021(11) 0.8489(7) 0.4506(4)
H10 H 0.19580 0.90790 0.44790
C32 C 0.2941(11) 0.6798(7) 0.3502(5)
C33 C 0.1434(10) 0.8454(7) 0.5567(4)
C34 C 0.0195(10) 0.8544(7) 0.5905(5)
H11 H -0.04990 0.83050 0.58120
C35 C 0.0020(11) 0.8989(7) 0.6377(5)
C36 C 0.1057(11) 0.9320(7) 0.6541(5)
H12 H 0.09350 0.95970 0.68680
C37 C 0.2307(11) 0.9232(7) 0.6205(5)
C38 C 0.2488(11) 0.8819(7) 0.5734(5)
H13 H 0.33080 0.87710 0.55140
C39 C 0.3507(12) 0.9524(8) 0.6371(5)
C40 C -0.1348(11) 0.9134(7) 0.6693(5)
C41 C 0.1579(10) 0.6523(7) 0.5658(4)
C42 C 0.0333(11) 0.6363(7) 0.5894(4)
H14 H -0.04430 0.66600 0.56990
C43 C 0.0210(11) 0.5769(7) 0.6414(4)
C44 C 0.1353(12) 0.5340(8) 0.6703(5)
H15 H 0.12760 0.49610 0.70590
C45 C 0.2619(11) 0.5460(8) 0.6477(5)
C46 C 0.2725(12) 0.6069(8) 0.5953(4)
H16 H 0.35710 0.61660 0.58030
C47 C 0.3873(12) 0.4969(8) 0.6789(5)
C48 C -0.1147(11) 0.5578(7) 0.6635(5)
C49 C 0.7278(18) 0.6433(10) 0.1286(7)
H17 H 0.79150 0.64210 0.15570
C50 C 0.670(3) 0.6287(18) 0.0305(9)
H18 H 0.60560 0.59560 0.05030
H19 H 0.71760 0.60140 -0.00100
H20 H 0.62310 0.68580 0.01440
C51 C 0.911(2) 0.6255(15) 0.0551(10)
H21 H 0.96120 0.62990 0.08750
H22 H 0.92080 0.67070 0.02220
H23 H 0.94340 0.57050 0.04320
C52 C 0.5339(15) 1.2039(8) 0.2527(7)
H24 H 0.59480 1.19380 0.22090
C53 C 0.6952(18) 1.2760(11) 0.2831(8)
H25 H 0.67730 1.33720 0.28210
H26 H 0.74170 1.26320 0.24660
H27 H 0.75040 1.24720 0.31580
C54 C 0.468(2) 1.2764(15) 0.3362(10)
H28 H 0.41460 1.23390 0.35120
H29 H 0.41040 1.32950 0.31950
H30 H 0.51550 1.28570 0.36800
N1 N 0.7682(14) 0.6339(9) 0.0742(6)
N2 N 0.5657(13) 1.2459(7) 0.2903(6)
O1 O -0.0546(9) 0.9672(6) 0.2221(4)
O2 O 0.0335(8) 1.0625(6) 0.1595(4)
O3 O -0.5635(8) 0.9882(5) 0.2200(3)
O4 O -0.6591(10) 1.0482(9) 0.1357(5)
O5 O -0.6685(10) 1.4067(10) 0.1494(6)
O6 O -0.5701(10) 1.4342(7) 0.2242(4)
O7 O -0.0886(9) 1.4643(7) 0.1864(4)
O8 O 0.0338(9) 1.4029(7) 0.1162(4)
O9 O -0.1676(11) 1.4131(7) -0.1640(4)
O10 O -0.3187(9) 1.3689(5) -0.2061(3)
O11 O -0.3828(13) 1.1883(7) -0.1823(5)
O12 O -0.1827(12) 1.1282(9) -0.1566(6)
O13 O 0.2117(9) 0.8826(5) 0.3007(3)
O14 O 0.3806(10) 0.9038(6) 0.3472(4)
O15 O 0.3883(10) 0.7053(6) 0.3184(4)
O16 O 0.2341(10) 0.6217(6) 0.3447(4)
O17 O 0.4528(8) 0.9493(6) 0.6028(4)
O18 O 0.3440(9) 0.9784(7) 0.6860(4)
O19 O -0.1499(9) 0.9250(5) 0.7221(4)
O20 O -0.2379(9) 0.9145(7) 0.6391(4)
O21 O 0.4955(8) 0.5197(7) 0.6596(4)
O22 O 0.3765(10) 0.4377(7) 0.7224(4)
O23 O -0.1202(8) 0.5113(5) 0.7149(3)
O24 O -0.2112(8) 0.5797(6) 0.6311(4)
O25 O 0.6082(13) 0.6537(8) 0.1448(5)
O26 O 0.5067(13) 1.1194(8) 0.5392(5)
O27 O -0.8430(12) 1.3010(7) 0.2497(5)
O28 O 0.7159(11) 0.9358(9) 0.5212(5)
O29 O 0.4268(11) 1.1757(6) 0.2561(5)
O30 O 0.6135(13) 0.7949(9) 0.2538(7)
O31 O 0.9855(17) 0.2253(9) 0.2039(8)
O32 O 0.811(3) 0.8817(11) 0.0622(9)
Cd1A Cd -1.20449(8) 1.02809(5) 0.78860(3)
Cd2A Cd -0.13597(8) 0.55562(6) 0.80449(4)
Cd3A Cd -1.42404(8) 0.96372(5) 0.69310(3)
Cd4A Cd -1.49880(9) 1.31384(6) 0.76901(4)
Cd5A Cd -1.32378(8) 1.47686(5) 0.71203(3)
C1A C -0.9342(11) 0.9710(7) 0.8209(5)
C2A C -0.8023(10) 0.9356(7) 0.8496(4)
C3A C -0.7948(12) 0.8738(7) 0.9010(5)
H1A H -0.87040 0.85070 0.91490
C4A C -0.6773(11) 0.8456(7) 0.9322(5)
C5A C -0.5648(11) 0.8765(7) 0.9096(5)
H2A H -0.48590 0.85810 0.93030
C6A C -0.5652(10) 0.9353(7) 0.8560(5)
C7A C -0.6851(11) 0.9659(7) 0.8270(5)
H3A H -0.68790 1.00680 0.79230
C8A C -0.4405(12) 0.9680(8) 0.8328(5)
C9A C -0.4321(13) 0.5836(9) 0.8262(6)
C10A C -0.5623(11) 0.6020(7) 0.8615(5)
C11A C -0.5733(11) 0.6439(7) 0.9096(4)
H4A H -0.49840 0.66210 0.91940
C12A C -0.6941(11) 0.6594(7) 0.9436(4)
C13A C -0.8079(11) 0.6337(8) 0.9271(5)
H5A H -0.88970 0.64470 0.94880
C14A C -0.7983(11) 0.5917(7) 0.8780(5)
C15A C -0.6745(12) 0.5739(8) 0.8459(5)
H6A H -0.66640 0.54380 0.81460
C16A C -0.9201(12) 0.5724(8) 0.8575(5)
C17A C -0.7019(11) 0.7014(7) 0.9963(4)
C18A C -0.7225(11) 0.6544(7) 1.0533(5)
H7A H -0.73630 0.59850 1.05650
C19A C -0.7234(11) 0.6865(6) 1.1045(4)
C20A C -0.7025(11) 0.7731(7) 1.0995(4)
C21A C -0.6857(12) 0.8202(7) 1.0416(5)
H8A H -0.67560 0.87700 1.03770
C22A C -0.6836(11) 0.7860(7) 0.9911(4)
C23A C -0.7465(13) 0.6310(8) 1.1624(5)
C24A C -0.7134(12) 0.8214(7) 1.1509(5)
C25A C -1.2839(11) 1.1309(7) 0.6557(4)
C26A C -1.2443(11) 1.1879(7) 0.5995(4)
C27A C -1.2443(10) 1.2739(7) 0.5969(4)
C28A C -1.2084(12) 1.3224(7) 0.5438(4)
H9A H -1.20700 1.38020 0.54250
C29A C -1.1736(10) 1.2867(7) 0.4914(5)
C30A C -1.1691(10) 1.1990(7) 0.4957(4)
C31A C -1.2021(11) 1.1511(7) 0.5494(4)
H10A H -1.19580 1.09210 0.55210
C32A C -1.2941(11) 1.3202(7) 0.6498(5)
C33A C -1.1434(10) 1.1546(7) 0.4433(4)
C34A C -1.0195(10) 1.1456(7) 0.4095(5)
H11A H -0.95010 1.16950 0.41880
C35A C -1.0020(11) 1.1011(7) 0.3623(5)
C36A C -1.1057(11) 1.0680(7) 0.3459(5)
H12A H -1.09350 1.04030 0.31320
C37A C -1.2307(11) 1.0768(7) 0.3795(5)
C38A C -1.2488(11) 1.1181(7) 0.4266(5)
H13A H -1.33080 1.12290 0.44860
C39A C -1.3507(12) 1.0476(8) 0.3629(5)
C40A C -0.8652(11) 1.0866(7) 0.3307(5)
C41A C -1.1579(10) 1.3477(7) 0.4342(4)
C42A C -1.0333(11) 1.3637(7) 0.4106(4)
H14A H -0.95570 1.33400 0.43010
C43A C -1.0210(11) 1.4231(7) 0.3586(4)
C44A C -1.1353(12) 1.4660(8) 0.3297(5)
H15A H -1.12760 1.50390 0.29410
C45A C -1.2619(11) 1.4540(8) 0.3523(5)
C46A C -1.2725(12) 1.3931(8) 0.4047(4)
H16A H -1.35710 1.38340 0.41970
C47A C -1.3873(12) 1.5031(8) 0.3211(5)
C48A C -0.8853(11) 1.4422(7) 0.3365(5)
C49A C -1.7278(18) 1.3567(10) 0.8714(7)
H17A H -1.79150 1.35790 0.84430
C50A C -1.670(3) 1.3713(18) 0.9695(9)
H18A H -1.60560 1.40440 0.94970
H19A H -1.71760 1.39860 1.00100
H20A H -1.62310 1.31420 0.98560
C51A C -1.911(2) 1.3745(15) 0.9449(10)
H21A H -1.96120 1.37010 0.91250
H22A H -1.92080 1.32930 0.97780
H23A H -1.94340 1.42950 0.95680
C52A C -1.5339(15) 0.7961(8) 0.7473(7)
H24A H -1.59480 0.80620 0.77910
C53A C -1.6952(18) 0.7240(11) 0.7169(8)
H25A H -1.67730 0.66280 0.71790
H26A H -1.74170 0.73680 0.75340
H27A H -1.75040 0.75280 0.68420
C54A C -1.468(2) 0.7236(15) 0.6638(10)
H28A H -1.41460 0.76610 0.64880
H29A H -1.41040 0.67050 0.68050
H30A H -1.51550 0.71430 0.63200
N1A N -1.7682(14) 1.3661(9) 0.9258(6)
N2A N -1.5657(13) 0.7541(7) 0.7097(6)
O1A O -0.9454(9) 1.0328(6) 0.7779(4)
O2A O -1.0335(8) 0.9375(6) 0.8405(4)
O3A O -0.4365(8) 1.0118(5) 0.7800(3)
O4A O -0.3409(10) 0.9518(9) 0.8643(5)
O5A O -0.3315(10) 0.5933(10) 0.8506(6)
O6A O -0.4299(10) 0.5658(7) 0.7758(4)
O7A O -0.9114(9) 0.5357(7) 0.8136(4)
O8A O -1.0338(9) 0.5971(7) 0.8838(4)
O9A O -0.8324(11) 0.5869(7) 1.1640(4)
O10A O -0.6813(9) 0.6311(5) 1.2061(3)
O11A O -0.6172(13) 0.8117(7) 1.1823(5)
O12A O -0.8173(12) 0.8718(9) 1.1566(6)
O13A O -1.2117(9) 1.1174(5) 0.6993(3)
O14A O -1.3806(10) 1.0962(6) 0.6528(4)
O15A O -1.3883(10) 1.2947(6) 0.6816(4)
O16A O -1.2341(10) 1.3783(6) 0.6553(4)
O17A O -1.4528(8) 1.0507(6) 0.3972(4)
O18A O -1.3440(9) 1.0216(7) 0.3140(4)
O19A O -0.8501(9) 1.0750(5) 0.2779(4)
O20A O -0.7621(9) 1.0855(7) 0.3609(4)
O21A O -1.4955(8) 1.4803(7) 0.3404(4)
O22A O -1.3765(10) 1.5623(7) 0.2776(4)
O23A O -0.8798(8) 1.4887(5) 0.2851(3)
O24A O -0.7888(8) 1.4203(6) 0.3689(4)
O25A O -1.6082(13) 1.3463(8) 0.8552(5)
O27A O -0.1570(12) 0.6990(7) 0.7503(5)
O29A O -1.4268(11) 0.8243(6) 0.7439(5)
O30A O -1.6135(13) 1.2051(9) 0.7462(7)
O26A O 0.4933(13) 0.8806(8) 0.4608(5)
O28A O 0.2841(11) 1.0642(9) 0.4788(5)
Cd1* Cd -0.79551(8) 0.97191(5) 0.21140(3)
Cd1** Cd -0.79551(8) 0.97191(5) 1.21140(3)
Cd1A* Cd -0.20449(8) 1.02809(5) -0.21140(3)
Cd1A** Cd -0.20449(8) 1.02809(5) 0.78860(3)
Cd2* Cd -0.86403(8) 0.44438(6) 1.19551(4)
Cd2** Cd 0.13597(8) 1.44438(6) 0.19551(4)
Cd2A* Cd -1.13597(8) 0.55562(6) 0.80449(4)
Cd2A** Cd -0.13597(8) 1.55562(6) -0.19551(4)
Cd3* Cd -1.57596(8) 1.03628(5) 0.30690(3)
Cd3** Cd -0.57596(8) 1.03628(5) 0.30690(3)
Cd3A* Cd -0.42404(8) 0.96372(5) 0.69310(3)
Cd3A** Cd 0.57596(8) 0.96372(5) 0.69310(3)
Cd4* Cd -1.50120(9) 1.68616(6) 0.23099(4)
Cd4** Cd -0.50120(9) 0.68616(6) 1.23099(4)
Cd4A* Cd -0.49880(9) 1.31384(6) -0.23099(4)
Cd4A** Cd 0.50120(9) 0.31384(6) 0.76901(4)
Cd5* Cd -1.67622(8) 1.52314(5) 0.28797(3)
Cd5** Cd -0.67622(8) 0.52314(5) 1.28797(3)
Cd5*** Cd -0.67622(8) 1.52314(5) 0.28797(3)
Cd5A* Cd -0.32378(8) 0.47686(5) 0.71203(3)
Cd5A** Cd -0.32378(8) 1.47686(5) -0.28797(3)
Cd5A*** Cd 0.67622(8) 0.47686(5) 0.71203(3)
Cd6* Cd -1.50000 1.00000 0.50000
O3* O 0.4365(8) 0.9882(5) 0.2200(3)
O3A* O -1.4365(8) 1.0118(5) 0.7800(3)
O4* O 0.3409(10) 1.0482(9) 0.1357(5)
O4A* O -1.3409(10) 0.9518(9) 0.8643(5)
O6* O 0.4299(10) 0.4342(7) 0.2242(4)
O6A* O -1.4299(10) 1.5658(7) 0.7758(4)
O7* O -1.0886(9) 1.4643(7) 0.1864(4)
O7A* O 0.0886(9) 0.5357(7) 0.8136(4)
O8* O -0.9662(9) 1.4029(7) 0.1162(4)
O8A* O -0.0338(9) 0.5971(7) 0.8838(4)
O9* O -0.1676(11) 0.4131(7) 0.8360(4)
O9A* O -0.8324(11) 1.5869(7) 0.1640(4)
O10* O -1.3187(9) 1.3689(5) 0.7939(3)
O10A* O 0.3187(9) 0.6311(5) 0.2061(3)
O11* O -1.3828(13) 1.1883(7) 0.8177(5)
O11A* O 0.3828(13) 0.8117(7) 0.1823(5)
O12* O -1.1827(12) 1.1282(9) 0.8434(6)
O12A* O 0.1827(12) 0.8718(9) 0.1566(6)
O17* O -1.5472(8) 0.9493(6) 0.6028(4)
O17A* O 0.5472(8) 1.0507(6) 0.3972(4)
O18* O -1.6560(9) 0.9784(7) 0.6860(4)
O18A* O 0.6560(9) 1.0216(7) 0.3140(4)
O19* O -1.1499(9) 0.9250(5) 0.7221(4)
O19A* O 0.1499(9) 1.0750(5) 0.2779(4)
O20* O -1.2379(9) 0.9145(7) 0.6391(4)
O20A* O 0.2379(9) 1.0855(7) 0.3609(4)
O21* O -1.5045(8) 1.5197(7) 0.6596(4)
O21A* O 0.5045(8) 0.4803(7) 0.3404(4)
O22* O -1.6235(10) 1.4377(7) 0.7224(4)
O22A* O 0.6235(10) 0.5623(7) 0.2776(4)
O23* O -1.1202(8) 1.5113(5) 0.7149(3)
O23A* O 0.1202(8) 0.4887(5) 0.2851(3)
O24* O -1.2112(8) 1.5797(6) 0.6311(4)
O24A* O 0.2112(8) 0.4203(6) 0.3689(4)
#END
