
#######################################################################
#
#                 Cambridge Crystallographic Data Centre
#                                CCDC
#
#######################################################################
#
# If this CIF has been generated from an entry in the Cambridge
# Structural Database, then it will include bibliographic, chemical,
# crystal, experimental, refinement or atomic coordinate data resulting
# from the CCDC's data processing and validation procedures.
#
#######################################################################

data_CSD_CIF_IJEVEB
_audit_creation_date 2020-12-31
_audit_creation_method CSD-ConQuest-V1
_database_code_CSD IJEVEB
_database_code_depnum_ccdc_archive 'CCDC 2019478'
_chemical_formula_sum 'C24 H56 N12 O40 U4'
_chemical_formula_moiety
;
(C20 H16 O32 U4 4-)n,4(C1 H6 N3 1+),8(H2 O1)
;
_journal_coden_Cambridge 971
_journal_volume 112
_journal_year 2021
_journal_page_first 106531
_journal_name_full 'Solid State Sciences '
loop_
_publ_author_name
"V.N.Serezhkin"
"M.S.Grigoriev"
"E.F.Rogaleva"
"S.A.Novikov"
"L.B.Serezhkina"
_chemical_name_systematic
;
catena-(tetrakis(guanidinium) 
bis(\m-oxalato)-tetrakis(\m-succinato)-octaoxo-tetra-uranium octahydrate)
;
_cell_volume   5468.179
_exptl_crystal_colour 'yellow'
_exptl_crystal_density_diffrn 2.557
_diffrn_ambient_temperature 100
_refine_special_details
;
O5W disordered over one sites with occupancies 0.5.

;
#These two values have been output from a single CSD field.
_refine_ls_R_factor_gt 0.0242
_refine_ls_wR_factor_gt 0.0242
_symmetry_cell_setting monoclinic
_symmetry_space_group_name_H-M 'C 2/c'
_symmetry_Int_Tables_number 15
loop_
_symmetry_equiv_pos_site_id
_symmetry_equiv_pos_as_xyz
1 x,y,z
2 -x,y,1/2-z
3 1/2+x,1/2+y,z
4 1/2-x,1/2+y,1/2-z
5 -x,-y,-z
6 x,-y,-1/2+z
7 -1/2-x,-1/2-y,-z
8 -1/2+x,-1/2-y,-1/2+z
_cell_length_a 28.9556(10)
_cell_length_b 22.8106(8)
_cell_length_c 8.5853(3)
_cell_angle_alpha 90
_cell_angle_beta 105.353(1)
_cell_angle_gamma 90
_cell_formula_units_Z 4
loop_
_atom_type_symbol
_atom_type_radius_bond
C 0.68
H 0.23
N 0.68
O 0.68
U 1.96
loop_
_atom_site_label
_atom_site_type_symbol
_atom_site_fract_x
_atom_site_fract_y
_atom_site_fract_z
U1 U 0.26550(2) 0.60957(2) 0.52110(2)
U2 U 0.00000 0.41060(2) 0.75000
U3 U 0.50000 0.37232(2) 0.25000
O1 O 0.23055(9) 0.60889(11) 0.3182(3)
O2 O 0.29898(10) 0.61315(12) 0.7252(3)
O3 O -0.02541(9) 0.40873(11) 0.5390(3)
O4 O 0.53814(10) 0.37178(11) 0.4493(3)
O5 O 0.21656(9) 0.69574(11) 0.5610(3)
O6 O 0.20311(9) 0.79259(11) 0.5266(3)
O7 O 0.04334(9) 0.31904(11) 0.7239(3)
O8 O 0.04118(9) 0.22117(11) 0.7115(3)
O9 O 0.19324(9) 0.58579(11) 0.6205(3)
O10 O 0.22847(9) 0.51140(11) 0.5414(3)
O11 O 0.04507(9) 0.50192(11) 0.7508(3)
O12 O 0.08009(9) 0.42442(11) 0.6862(3)
O13 O 0.33585(9) 0.60960(11) 0.4119(3)
O14 O 0.31491(9) 0.52541(11) 0.4905(3)
O15 O 0.45923(9) 0.46199(11) 0.3054(3)
O16 O 0.43218(10) 0.37920(11) 0.3699(4)
C1 C 0.22703(13) 0.74638(16) 0.5260(5)
C2 C 0.02407(12) 0.27001(15) 0.7313(4)
C3 C 0.19488(13) 0.53105(15) 0.5948(4)
C4 C 0.15867(13) 0.48974(16) 0.6311(4)
H1 H 0.17472 0.46528 0.72514
H2 H 0.14707 0.46323 0.53761
C5 C 0.11602(13) 0.51957(16) 0.6670(4)
H3 H 0.12779 0.54590 0.76082
H4 H 0.10034 0.54436 0.57328
C6 C 0.07915(13) 0.47959(16) 0.7024(4)
C7 C 0.34202(12) 0.55446(16) 0.4256(4)
C8 C 0.37961(14) 0.52552(16) 0.3616(4)
H5 H 0.40810 0.55130 0.38263
H6 H 0.36729 0.52108 0.24313
C9 C 0.39471(14) 0.46574(15) 0.4356(5)
H7 H 0.40886 0.47066 0.55315
H8 H 0.36583 0.44091 0.42088
C10 C 0.43000(13) 0.43454(16) 0.3658(4)
O17 O 0.22334(11) 0.60947(12) 0.9612(3)
H9 H 0.2157(16) 0.6057(17) 0.859(2)
H10 H 0.2260(16) 0.5737(10) 0.993(4)
O18 O 0.06269(12) 0.61894(12) 0.8410(4)
H11 H 0.0710(17) 0.6196(18) 0.941(2)
H12 H 0.0546(17) 0.5839(11) 0.815(5)
O19 O 0.31396(12) 0.34011(13) 0.5903(3)
H13 H 0.3254(15) 0.3543(19) 0.681(3)
H14 H 0.2902(12) 0.3594(19) 0.542(5)
O20 O 0.50000 0.56810(19) 0.25000
H15 H 0.514(2) 0.5456(14) 0.198(6)
O21 O -0.0153(2) 0.8207(2) 0.6911(6)
N1 N 0.12188(12) 0.68247(14) 0.6543(4)
H16 H 0.11136 0.64914 0.68364
H17 H 0.15054 0.68427 0.63750
N2 N 0.10981(11) 0.77944(14) 0.5866(4)
H18 H 0.09128 0.81065 0.57081
H19 H 0.13847 0.78123 0.56980
N3 N 0.05164(12) 0.72697(14) 0.6610(5)
H20 H 0.03302 0.75809 0.64536
H21 H 0.04163 0.69391 0.69367
C11 C 0.09461(14) 0.72990(16) 0.6356(5)
N4 N 0.37081(12) 0.27808(14) 0.4111(4)
H22 H 0.36102 0.30890 0.45521
H23 H 0.39725 0.28001 0.37918
N5 N 0.30617(12) 0.22589(14) 0.4407(4)
H24 H 0.29617 0.25654 0.48488
H25 H 0.28970 0.19301 0.42823
N6 N 0.36039(12) 0.18251(14) 0.3248(4)
H26 H 0.38664 0.18437 0.29177
H27 H 0.34364 0.14985 0.31294
C12 C 0.34598(13) 0.22925(16) 0.3931(5)
O5F O 0.28344(9) 0.80426(11) 0.4390(3)
O6F O 0.29689(9) 0.70741(11) 0.4734(3)
C1F C 0.27297(13) 0.75362(16) 0.4740(5)
O7A O -0.04334(9) 0.31904(11) 0.7761(3)
O8A O -0.04118(9) 0.22117(11) 0.7885(3)
C2A C -0.02407(12) 0.27001(15) 0.7687(4)
U1A U -0.26550(2) 0.60957(2) 0.97890(2)
O1A O -0.23055(9) 0.60889(11) 1.1818(3)
O2A O -0.29898(10) 0.61315(12) 0.7748(3)
O3A O 0.02541(9) 0.40873(11) 0.9610(3)
O9A O -0.19324(9) 0.58579(11) 0.8795(3)
O10A O -0.22847(9) 0.51140(11) 0.9586(3)
O11A O -0.04507(9) 0.50192(11) 0.7492(3)
O12A O -0.08009(9) 0.42442(11) 0.8138(3)
O13A O -0.33585(9) 0.60960(11) 1.0881(3)
O14A O -0.31491(9) 0.52541(11) 1.0095(3)
O15A O -0.45923(9) 0.46199(11) 1.1946(3)
O16A O -0.43218(10) 0.37920(11) 1.1301(4)
C3A C -0.19488(13) 0.53105(15) 0.9052(4)
C4A C -0.15867(13) 0.48974(16) 0.8689(4)
H1A H -0.17472 0.46528 0.77486
H2A H -0.14707 0.46323 0.96239
C5A C -0.11602(13) 0.51957(16) 0.8330(4)
H3A H -0.12779 0.54590 0.73918
H4A H -0.10034 0.54436 0.92672
C6A C -0.07915(13) 0.47959(16) 0.7976(4)
C7A C -0.34202(12) 0.55446(16) 1.0744(4)
C8A C -0.37961(14) 0.52552(16) 1.1384(4)
H5A H -0.40810 0.55130 1.11737
H6A H -0.36729 0.52108 1.25687
C9A C -0.39471(14) 0.46574(15) 1.0644(5)
H7A H -0.40886 0.47066 0.94685
H8A H -0.36583 0.44091 1.07912
C10A C -0.43000(13) 0.43454(16) 1.1342(4)
O4A O 0.46186(10) 0.37178(11) 0.0507(3)
U1F U 0.23450(2) 0.89043(2) 0.47890(2)
U3* U -0.50000 0.37232(2) 1.25000
U3F U 0.00000 0.12768(2) 0.75000
O5A O -0.21656(9) 0.69574(11) 0.9390(3)
O6G O -0.29689(9) 0.70741(11) 1.0266(3)
O8F O 0.45882(9) 0.27883(11) 0.2885(3)
O8G O 0.54118(9) 0.27883(11) 0.2115(3)
O15A* O 0.54077(9) 0.46199(11) 0.1946(3)
O16A* O 0.56782(10) 0.37920(11) 0.1301(4)
H15A H 0.486(2) 0.5456(14) 0.302(6)
#END
