
#######################################################################
#
#                 Cambridge Crystallographic Data Centre
#                                CCDC
#
#######################################################################
#
# If this CIF has been generated from an entry in the Cambridge
# Structural Database, then it will include bibliographic, chemical,
# crystal, experimental, refinement or atomic coordinate data resulting
# from the CCDC's data processing and validation procedures.
#
#######################################################################

data_CSD_CIF_IJEXIF01
_audit_creation_date 2011-11-21
_audit_creation_method CSD-ConQuest-V1
_database_code_CSD IJEXIF01
_database_code_depnum_ccdc_archive 'CCDC 852090'
_chemical_formula_sum 'C34 H43.5 N1 O13.25 Zn3'
_chemical_formula_moiety
;
(C18 H7 O13 Zn3 1-)n,0.25n(H2 O1),n(C16 H36 N1 1+)
;
_journal_coeditor_code "IUCr ZS2153"
_journal_coden_Cambridge 1370
_journal_volume 67
_journal_year 2011
_journal_page_first m1641
_journal_name_full 'Acta Crystallogr.,Sect.E:Struct.Rep.Online '
loop_
_publ_author_name
"Xiao-Hong Zhu"
"Xiao-Chun Cheng"
_chemical_name_systematic
;
catena-[tetra-n-butylammonium 
(\m~5~-benzene-1,3,5-tricarboxylato)-(\m~4~-benzene-1,3,5-tricarboxylato)-(\m~
3~-hydroxo)-tri-zinc hydrate]
;
_cell_volume   7685.945
_exptl_crystal_colour 'colorless'
_exptl_crystal_density_diffrn 1.51
_exptl_crystal_description 'block'
_diffrn_ambient_temperature 293
#These two values have been output from a single CSD field.
_refine_ls_R_factor_gt 0.0372
_refine_ls_wR_factor_gt 0.0372
_symmetry_cell_setting orthorhombic
_symmetry_space_group_name_H-M 'P b c a'
_symmetry_Int_Tables_number 61
loop_
_symmetry_equiv_pos_site_id
_symmetry_equiv_pos_as_xyz
1 x,y,z
2 1/2-x,-y,1/2+z
3 1/2+x,1/2-y,-z
4 -x,1/2+y,1/2-z
5 -x,-y,-z
6 -1/2+x,y,-1/2-z
7 -1/2-x,-1/2+y,z
8 x,-1/2-y,-1/2+z
_cell_length_a 16.295(5)
_cell_length_b 16.295(5)
_cell_length_c 28.946(5)
_cell_angle_alpha 90
_cell_angle_beta 90
_cell_angle_gamma 90
_cell_formula_units_Z 8
loop_
_atom_type_symbol
_atom_type_radius_bond
C 0.68
H 0.23
N 0.68
O 0.74
Zn 1.22
loop_
_atom_site_label
_atom_site_type_symbol
_atom_site_fract_x
_atom_site_fract_y
_atom_site_fract_z
C1 C 0.76518(19) 0.3324(2) 0.57153(11)
C2 C 0.72626(19) 0.2998(2) 0.53324(11)
H1 H 0.74750 0.25340 0.51880
C3 C 0.65577(19) 0.3364(2) 0.51636(11)
C4 C 0.62623(19) 0.4065(2) 0.53724(11)
H2 H 0.57830 0.43050 0.52620
C5 C 0.6665(2) 0.4418(2) 0.57412(11)
C6 C 0.7354(2) 0.4038(2) 0.59158(11)
H3 H 0.76210 0.42620 0.61700
C7 C 0.8392(2) 0.2900(2) 0.59169(12)
C8 C 0.6116(2) 0.3057(2) 0.47464(11)
C9 C 0.6355(2) 0.5218(2) 0.59296(13)
C10 C 0.9004(2) 0.0957(2) 0.76805(11)
C11 C 0.92903(19) 0.0206(2) 0.78223(11)
H4 H 0.97370 -0.00290 0.76720
C12 C 0.89223(19) -0.0204(2) 0.81857(11)
C13 C 0.82612(19) 0.0157(2) 0.84119(11)
H5 H 0.80120 -0.01130 0.86580
C14 C 0.79740(19) 0.0912(2) 0.82739(11)
C15 C 0.83441(19) 0.1305(2) 0.79074(11)
H6 H 0.81460 0.18130 0.78110
C16 C 0.9409(2) 0.1396(2) 0.72901(12)
C17 C 0.9225(2) -0.1027(2) 0.83342(11)
C18 C 0.7268(2) 0.1304(2) 0.85213(12)
C19 C 0.8723(2) 0.3453(3) 0.82377(14)
H7 H 0.88560 0.30170 0.80220
H8 H 0.81610 0.33660 0.83370
C20 C 0.8758(3) 0.4257(3) 0.79796(15)
H9 H 0.85960 0.47010 0.81830
H10 H 0.93160 0.43600 0.78780
C21 C 0.81928(19) 0.4232(2) 0.75671(12)
H11 H 0.76340 0.41470 0.76720
H12 H 0.83420 0.37720 0.73710
C22 C 0.82376(19) 0.5032(2) 0.72833(12)
H13 H 0.82310 0.54940 0.74890
H14 H 0.77750 0.50620 0.70790
H15 H 0.87350 0.50380 0.71060
C23 C 1.0164(2) 0.3513(3) 0.85266(15)
H16 H 1.05040 0.34350 0.87980
H17 H 1.02200 0.40820 0.84320
C24 C 1.0494(3) 0.2962(4) 0.81374(18)
H18 H 1.03800 0.23930 0.82120
H19 H 1.02090 0.30920 0.78530
C25 C 1.1379(2) 0.3062(3) 0.80653(17)
H20 H 1.16620 0.29680 0.83560
H21 H 1.14890 0.36220 0.79700
C26 C 1.1714(2) 0.2487(3) 0.77085(17)
H22 H 1.15870 0.19320 0.77930
H23 H 1.22990 0.25520 0.76890
H24 H 1.14720 0.26090 0.74140
C27 C 0.9169(3) 0.2499(3) 0.88305(16)
H25 H 0.93380 0.21250 0.85880
H26 H 0.85890 0.24080 0.88860
C28 C 0.9637(3) 0.2281(3) 0.92683(17)
H27 H 1.02220 0.22790 0.92080
H28 H 0.95250 0.26830 0.95070
C29 C 0.9361(3) 0.1441(3) 0.94246(19)
H29 H 0.94780 0.10440 0.91840
H30 H 0.87720 0.14460 0.94750
C30 C 0.9790(3) 0.1180(3) 0.98675(19)
H31 H 1.03470 0.13710 0.98640
H32 H 0.97850 0.05920 0.98910
H33 H 0.95080 0.14110 1.01280
C31 C 0.9052(2) 0.3982(3) 0.90251(14)
H34 H 0.94610 0.39620 0.92680
H35 H 0.90720 0.45260 0.88890
C32 C 0.8221(2) 0.3864(3) 0.92395(14)
H36 H 0.81850 0.33180 0.93720
H37 H 0.78000 0.39130 0.90040
C33 C 0.8077(2) 0.4499(2) 0.96125(11)
H38 H 0.81590 0.50410 0.94820
H39 H 0.84810 0.44230 0.98550
C34 C 0.7220(2) 0.4457(2) 0.98250(11)
H40 H 0.68150 0.44910 0.95850
H41 H 0.71480 0.49060 1.00360
H42 H 0.71580 0.39480 0.99880
N1 N 0.92799(19) 0.3363(2) 0.86590(11)
O1 O 0.87184(14) 0.23552(16) 0.56768(8)
O2 O 0.86264(14) 0.31397(16) 0.63058(8)
O3 O 0.64976(14) 0.25944(15) 0.44788(8)
O4 O 0.53918(13) 0.32934(16) 0.46956(8)
O5 O 0.57056(17) 0.54736(18) 0.57447(10)
O6 O 0.67374(17) 0.55794(17) 0.62306(10)
O7 O 0.91524(14) 0.21258(14) 0.72211(8)
O8 O 0.99505(16) 0.10514(16) 0.70684(9)
O9 O 0.98565(14) -0.12995(15) 0.81338(8)
O10 O 0.88317(14) -0.13893(14) 0.86430(8)
O11 O 0.71941(14) 0.20737(15) 0.84644(8)
O12 O 0.68018(16) 0.09061(16) 0.87645(9)
O13 O 1.02002(12) 0.19730(13) 0.63449(7)
H43 H 1.02460 0.16070 0.65880
Zn1 Zn 0.95951(2) 0.15787(2) 0.580582(13)
Zn2 Zn 0.95001(2) 0.27515(2) 0.669671(12)
Zn3 Zn 0.62713(2) 0.25505(2) 0.381910(13)
O14 O 0.1549(8) 0.1219(9) 0.8850(4)
O4B O 1.03918(13) 0.17066(16) 0.53044(8)
O5F O 0.92944(17) 0.04736(18) 0.57447(10)
O9C O 1.01435(14) 0.37005(15) 0.68662(8)
O10A O 0.61683(14) 0.13893(14) 0.36430(8)
O11G O 0.71941(14) 0.29263(15) 0.34644(8)
O13B O 0.52002(12) 0.30270(13) 0.36551(7)
H43B H 0.52460 0.33930 0.34120
Zn1B Zn 0.45951(2) 0.34213(2) 0.419418(13)
Zn1F Zn 0.54049(2) 0.65787(2) 0.580582(13)
Zn2C Zn 1.04999(2) -0.22485(2) 0.830329(12)
Zn3A Zn 0.87287(2) -0.25505(2) 0.881910(13)
Zn3G Zn 0.62713(2) 0.24495(2) 0.881910(13)
Zn3B Zn 1.12713(2) 0.24495(2) 0.618090(13)
#END
