
#######################################################################
#
#                 Cambridge Crystallographic Data Centre
#                                CCDC
#
#######################################################################
#
# If this CIF has been generated from an entry in the Cambridge
# Structural Database, then it will include bibliographic, chemical,
# crystal, experimental, refinement or atomic coordinate data resulting
# from the CCDC's data processing and validation procedures.
#
#######################################################################

data_CSD_CIF_IJEXIF
_audit_creation_date 2011-04-19
_audit_creation_method CSD-ConQuest-V1
_database_code_CSD IJEXIF
_database_code_depnum_ccdc_archive 'CCDC 771706'
_chemical_formula_sum 'C34 H43.5 N1 O13.25 Zn3'
_chemical_formula_moiety
;
(H2 O1)0.25n,n(C18 H7 O13 Zn3 1-),n(C16 H36 N1 1+)
;
_journal_coden_Cambridge 1350
_journal_volume 13
_journal_year 2011
_journal_page_first 889
_journal_name_full 'CrystEngComm '
loop_
_publ_author_name
"Kui-Zhan Shao"
"Ya-Hui Zhao"
"Ya-Qian Lan"
"Xin-Long Wang"
"Zhong-Min Su"
"Zhong-Min Su"
"Rong-Shun Wang"
_chemical_name_systematic
;
catena-((\m~5~-benzene-1,3,5-tricarboxylato)-(\m~4~-benzene-1,3,5-tricarboxyla
to)-(\m~3~-hydroxo)-tri-zinc tetra-n-butylammonium hydrate)
;
_cell_volume   7771.060
_exptl_crystal_colour 'colorless'
_exptl_crystal_density_diffrn 1.495
_exptl_crystal_description 'block'
_diffrn_ambient_temperature 293
#These two values have been output from a single CSD field.
_refine_ls_R_factor_gt 0.0329
_refine_ls_wR_factor_gt 0.0329
_symmetry_cell_setting orthorhombic
_symmetry_space_group_name_H-M 'P b c a'
_symmetry_Int_Tables_number 61
loop_
_symmetry_equiv_pos_site_id
_symmetry_equiv_pos_as_xyz
1 x,y,z
2 1/2-x,-y,1/2+z
3 1/2+x,1/2-y,-z
4 -x,1/2+y,1/2-z
5 -x,-y,-z
6 -1/2+x,y,-1/2-z
7 -1/2-x,-1/2+y,z
8 x,-1/2-y,-1/2+z
_cell_length_a 16.3790(5)
_cell_length_b 16.3610(5)
_cell_length_c 28.9990(9)
_cell_angle_alpha 90
_cell_angle_beta 90
_cell_angle_gamma 90
_cell_formula_units_Z 8
loop_
_atom_type_symbol
_atom_type_radius_bond
C 0.68
H 0.23
N 0.68
O 0.68
Zn 1.22
loop_
_atom_site_label
_atom_site_type_symbol
_atom_site_fract_x
_atom_site_fract_y
_atom_site_fract_z
O1 O 0.8348(7) 0.1357(8) 0.8853(4)
N1 N 0.57116(15) 0.33902(17) 0.63586(10)
O2 O 0.41471(11) 0.71506(11) 0.72163(7)
C1 C 0.44061(17) 0.64204(18) 0.72849(10)
C2 C 0.39975(16) 0.59785(17) 0.76793(10)
C3 C 0.29652(16) 0.59312(17) 0.82711(10)
C4 C 0.42830(15) 0.52215(17) 0.7822(1)
H1 H 0.47250 0.49840 0.76710
C5 C 0.32515(16) 0.51764(17) 0.84116(10)
H2 H 0.30010 0.49080 0.86560
C6 C 0.39151(16) 0.48150(17) 0.8188(1)
C7 C 0.42168(17) 0.39983(17) 0.83397(10)
O3 O 0.48483(11) 0.37227(12) 0.81348(7)
O4 O 0.38343(12) 0.36317(11) 0.86509(7)
O5 O 0.17972(13) 0.59221(13) 0.87606(8)
Zn1 Zn 0.540268(18) 0.159908(19) 0.920011(11)
Zn2 Zn 0.549475(18) 0.277501(19) 0.830717(11)
Zn3 Zn 0.372893(18) 0.24667(2) 0.882339(11)
O6 O 0.35022(11) 0.24145(12) 0.94835(7)
O7 O 0.21953(11) 0.71053(12) 0.84632(7)
O8 O 0.48011(10) 0.19942(10) 0.86589(6)
O9 O 0.42905(12) -0.04939(12) 1.07404(8)
C8 C 0.23347(16) 0.16516(17) 1.07123(10)
O10 O 0.46100(11) 0.17183(12) 0.97040(7)
C9 C 0.26333(16) 0.09348(17) 1.09137(10)
H3 H 0.23630 0.07060 1.11640
C10 C 0.34413(15) 0.16251(17) 1.01659(9)
C11 C 0.27319(16) 0.19836(17) 1.03324(9)
H4 H 0.25220 0.24470 1.01890
C12 C 0.37360(16) 0.09270(17) 1.03740(9)
H5 H 0.42170 0.06940 1.02660
C13 C 0.38813(17) 0.19515(17) 0.97512(10)
C14 C 0.33329(16) 0.05636(17) 1.07406(10)
O11 O 0.49426(13) 0.60692(13) 0.70655(8)
C15 C 0.33400(16) 0.63245(17) 0.79061(10)
H6 H 0.31460 0.68320 0.78110
O12 O 0.32675(16) -0.05999(16) 1.12317(9)
C16 C 0.22637(17) 0.63272(19) 0.85205(10)
C17 C 0.36361(18) -0.02418(19) 1.09318(11)
C18 C 0.62644(19) 0.3483(2) 0.67783(11)
H7 H 0.61300 0.30510 0.69950
H8 H 0.68230 0.33950 0.66800
C19 C 0.4834(2) 0.3556(2) 0.64908(14)
H9 H 0.44950 0.34810 0.62200
H10 H 0.47880 0.41230 0.65840
C20 C 0.6227(2) 0.4286(2) 0.70311(13)
H11 H 0.56730 0.43860 0.71340
H12 H 0.63820 0.47250 0.68240
C21 C 0.6930(2) 0.4497(2) 0.53964(13)
H13 H 0.68610 0.50380 0.55280
H14 H 0.65240 0.44330 0.51560
C22 C 0.5569(4) 0.1425(3) 0.56148(19)
H15 H 0.61550 0.14040 0.55650
H16 H 0.54400 0.10520 0.58640
C23 C 0.5944(2) 0.3999(2) 0.59839(12)
H17 H 0.55350 0.39770 0.57430
H18 H 0.59300 0.45450 0.61150
C24 C 0.3269(3) 0.2551(3) 0.7286(2)
H19 H 0.26940 0.26470 0.73170
H20 H 0.35300 0.26230 0.75800
H21 H 0.33590 0.20030 0.71790
C25 C 0.6773(2) 0.3869(2) 0.57668(12)
H22 H 0.71920 0.39080 0.60020
H23 H 0.67980 0.33250 0.56340
C26 C 0.4499(2) 0.3018(3) 0.68789(15)
H24 H 0.46020 0.24480 0.68050
H25 H 0.47860 0.31430 0.71630
C27 C 0.5806(2) 0.2518(2) 0.61897(13)
H26 H 0.56400 0.21530 0.64360
H27 H 0.63810 0.24190 0.61310
C28 C 0.7769(2) 0.4443(3) 0.51823(15)
H28 H 0.78260 0.48610 0.49520
H29 H 0.78380 0.39160 0.50420
H30 H 0.81760 0.45190 0.54170
C29 C 0.6795(2) 0.4280(2) 0.74443(13)
H31 H 0.73520 0.42100 0.73370
H32 H 0.66620 0.38160 0.76380
C30 C 0.3616(3) 0.3136(3) 0.69511(18)
H33 H 0.33350 0.30740 0.66590
H34 H 0.35200 0.36880 0.70600
C31 C 0.6746(2) 0.5056(3) 0.77322(14)
H35 H 0.71150 0.50150 0.79880
H36 H 0.61990 0.51240 0.78440
H37 H 0.68930 0.55170 0.75450
C32 C 0.5330(3) 0.2295(2) 0.57590(14)
H38 H 0.54560 0.26760 0.55130
H39 H 0.47490 0.23210 0.58210
C33 C 0.5154(4) 0.1150(4) 0.5196(3)
H40 H 0.53230 0.06020 0.51240
H41 H 0.52930 0.15060 0.49450
H42 H 0.45740 0.11610 0.52440
C34 C 0.15954(16) 0.20638(18) 1.09106(11)
O13 O 0.12666(11) 0.26130(12) 1.06701(7)
O14 O 0.13613(12) 0.18309(12) 1.13019(7)
H43 H 0.48100 0.16530 0.84470
H44 H 0.86330 0.09710 0.87860
H45 H 0.81410 0.15640 0.86150
O2C O 0.58529(11) 0.21506(11) 0.77837(7)
Zn1D Zn 0.459732(18) -0.159908(19) 1.079989(11)
Zn1B Zn 0.040268(18) 0.340092(19) 1.079989(11)
Zn2C Zn 0.450525(18) 0.777501(19) 0.669283(11)
Zn2B Zn 0.049475(18) 0.222499(19) 1.169283(11)
Zn3F Zn 0.127107(18) 0.74667(2) 0.882339(11)
O7F O 0.28047(11) 0.21053(12) 0.84632(7)
O9D O 0.57095(12) 0.04939(12) 0.92596(8)
O13B O 0.62666(11) 0.23870(12) 0.93299(7)
O14B O 0.63613(12) 0.31691(12) 0.86981(7)
#END
