
#######################################################################
#
#                 Cambridge Crystallographic Data Centre
#                                CCDC
#
#######################################################################
#
# If this CIF has been generated from an entry in the Cambridge
# Structural Database, then it will include bibliographic, chemical,
# crystal, experimental, refinement or atomic coordinate data resulting
# from the CCDC's data processing and validation procedures.
#
#######################################################################

data_CSD_CIF_IJEXUS
_audit_creation_date 2016-04-05
_audit_creation_method CSD-ConQuest-V1
_database_code_CSD IJEXUS
_database_code_depnum_ccdc_archive 'CCDC 1414395'
_chemical_formula_sum 'C122 H174 Cu6 Mn5 N16 Na3 O79'
_chemical_formula_moiety
;
2(C39 H38 Cu3 Mn2 N6 O22 2-)n,3(Na1 1+),35(H2 O1),C44 H28 Mn1 N4 1+
;
_journal_coden_Cambridge 1220
_journal_volume 22
_journal_year 2016
_journal_page_first 539
_journal_name_full 'Chem.-Eur.J. '
loop_
_publ_author_name
"M.Mon"
"A.Pascual-Alvarez"
"T.Grancha"
"Joan Cano"
"J.Ferrando-Soria"
"F.Lloret"
"J.Gascon"
"J.Pasan"
"D.Armentano"
"E.Pardo"
_chemical_name_systematic
;
catena-[tri-sodium (5,10,15,20-tetraphenylporphryinato)-manganese(iii) 
bis(tris(\m-2,2'-((2,4,6-trimethyl-1,3-phenylene)diazanylylidene)bis(oxidoacet
ato))-tetra-aqua-tri-copper(ii)-di-manganese(ii)) unknown solvate 
pentatriacontahydrate]
;
_cell_volume  20637.650
_exptl_crystal_colour 'green/brown'
_exptl_crystal_density_diffrn 1.217
_exptl_special_details
;
Magnetic properties

;
_exptl_crystal_description 'prism'
_exptl_crystal_preparation 'water/methanol'
_diffrn_ambient_temperature 90
_refine_special_details
;
The structure is disordered. The SQUEEZE/PLATON program has been used to 
model some disorder.
;
#These two values have been output from a single CSD field.
_refine_ls_R_factor_gt 0.1588
_refine_ls_wR_factor_gt 0.1588
_symmetry_cell_setting tetragonal
_symmetry_space_group_name_H-M 'P 4/m m m'
_symmetry_Int_Tables_number 123
loop_
_symmetry_equiv_pos_site_id
_symmetry_equiv_pos_as_xyz
1 x,y,z
2 -x,-y,z
3 -y,x,z
4 y,-x,z
5 -x,y,-z
6 x,-y,-z
7 y,x,-z
8 -y,-x,-z
9 -x,-y,-z
10 x,y,-z
11 y,-x,-z
12 -y,x,-z
13 x,-y,z
14 -x,y,z
15 -y,-x,z
16 y,x,z
_cell_length_a 36.6089(19)
_cell_length_b 36.6089(19)
_cell_length_c 15.3988(8)
_cell_angle_alpha 90
_cell_angle_beta 90
_cell_angle_gamma 90
_cell_formula_units_Z 4
loop_
_atom_type_symbol
_atom_type_radius_bond
C 0.68
H 0.23
Cu 1.32
Mn 1.61
N 0.68
Na 1.66
O 0.68
loop_
_atom_site_label
_atom_site_type_symbol
_atom_site_fract_x
_atom_site_fract_y
_atom_site_fract_z
Cu1 Cu 0.24093(3) 1.24093(3) 0.23031(8)
Cu2 Cu 0.33201(4) 1.00000 0.27477(9)
Cu3 Cu 0.50000 1.15086(7) 0.26973(13)
Mn1 Mn 0.35204(3) 1.14686(5) 0.24885(8)
N1 N 0.26164(18) 1.19985(19) 0.1596(4)
N2 N 0.4564(2) 1.1359(3) 0.3395(5)
N3 N 0.31636(17) 1.0442(2) 0.3425(4)
O1 O 0.31188(16) 1.16210(18) 0.1624(3)
O2 O 0.33235(18) 1.1950(2) 0.3120(3)
O3 O 0.28404(19) 1.2314(2) 0.3055(4)
O4 O 0.39453(17) 1.1394(2) 0.3355(5)
O5 O 0.39976(18) 1.1719(3) 0.1799(5)
O6 O 0.46203(17) 1.1714(2) 0.1914(5)
O7 O 0.36296(18) 1.0971(2) 0.1855(4)
O8 O 0.31789(18) 1.1072(2) 0.3244(4)
O9 O 0.3581(2) 1.0347(3) 0.2017(4)
C1 C 0.2913(2) 1.1877(2) 0.1929(4)
C2 C 0.3024(3) 1.2052(3) 0.2777(5)
C3 C 0.2493(2) 1.1848(2) 0.0770(4)
C4 C 0.2257(4) 1.1552(3) 0.0784(6)
C5 C 0.2140(6) 1.1424(5) 0.00000
H1 H 0.19650 1.12330 0.00000
C6 C 0.2626(3) 1.1975(3) 0.00000
C7 C 0.2939(4) 1.2261(5) 0.00000
C8 C 0.2127(5) 1.1385(4) 0.1635(7)
H2 H 0.23220 1.14030 0.20700
H3 H 0.20650 1.11270 0.15420
H4 H 0.19110 1.15170 0.18410
C9 C 0.4258(3) 1.1452(3) 0.3043(7)
C10 C 0.4289(3) 1.1626(4) 0.2155(7)
C11 C 0.4549(2) 1.1147(3) 0.4216(5)
C12 C 0.4524(2) 1.0776(3) 0.4212(5)
C13 C 0.4517(3) 1.0609(4) 0.50000
H5 H 0.45060 1.03490 0.50000
C14 C 0.4544(4) 1.1342(5) 0.50000
C15 C 0.4540(5) 1.1766(4) 0.50000
C16 C 0.4499(3) 1.0576(3) 0.3342(7)
H6 H 0.42660 1.06330 0.30610
H7 H 0.45150 1.03120 0.34410
H8 H 0.47010 1.06530 0.29670
C17 C 0.3528(3) 1.0675(5) 0.2228(6)
C18 C 0.3257(2) 1.0742(4) 0.3039(5)
C19 C 0.2960(2) 1.0463(2) 0.4221(4)
C20 C 0.2581(2) 1.0477(3) 0.4205(5)
C21 C 0.2399(3) 1.0483(4) 0.50000
H9 H 0.21390 1.04900 0.50000
C22 C 0.3156(3) 1.0458(4) 0.50000
C23 C 0.3575(3) 1.0478(5) 0.50000
C24 C 0.2372(2) 1.0497(4) 0.3336(6)
H10 H 0.24260 1.07290 0.30470
H11 H 0.21090 1.04800 0.34470
H12 H 0.24480 1.02940 0.29620
O10 O 0.2067(2) 1.2067(2) 0.3421(6)
O11 O 0.2862(3) 1.00000 0.1572(7)
O12 O 0.50000 1.0987(4) 0.1522(7)
O13 O 0.50000 1.2251(5) 0.3077(12)
Na1 Na 0.3632(4) 1.1577(5) 0.50000
Na2 Na 0.2692(3) 1.2692(3) 0.4315(6)
O14 O 0.2930(6) 1.1486(5) 0.4654(13)
O15 O 0.3139(6) 1.3139(6) 0.50000
O16 O 0.3248(6) 1.3038(6) 0.3619(14)
O17 O 0.2987(6) 1.2143(6) 0.50000
O18 O 0.2451(6) 1.2129(6) 0.50000
Na3 Na 0.50000 0.7512(2) 0.00000
O19 O 0.4716(7) 0.7525(7) 0.1320(15)
O20 O 0.4653(6) 0.7973(6) -0.0432(13)
O21 O 0.4162(6) 1.00000 0.1055(14)
O22 O 0.4268(5) 1.0760(5) -0.0969(12)
O23 O 0.2538(4) 1.1391(4) 0.3833(8)
O24 O 0.2978(5) 0.7022(5) 0.1832(16)
O25 O 0.3220(5) 1.1288(5) 2.00000
O26 O 0.4223(4) 1.0437(4) 0.00000
O27 O 0.4467(13) 1.00000 0.00000
Mn2 Mn 0.50000 0.50000 0.29660
N4 N 0.47900 0.55340 0.23100
C25 C 0.46150 0.57280 0.31300
C26 C 0.45220 0.58930 0.11300
C27 C 0.44910 0.55090 0.15810
C28 C 0.42590 0.60110 0.22160
C29 C 0.43410 0.66380 0.25480
C30 C 0.39160 0.63120 0.24580
C31 C 0.44870 0.69530 0.30990
C32 C 0.45150 0.63190 0.23730
C33 C 0.47660 0.64480 0.17100
C34 C 0.42800 0.63910 0.15770
C35 C 0.42930 0.68480 0.39000
C36 C 0.38870 0.63440 0.10270
C37 C 0.50000 0.60050 0.20280
Mn3 Mn 0.00000 1.00000 0.22050
N5 N 0.03940 0.96060 0.21080
C38 C 0.07180 0.92820 0.23590
C39 C 0.11800 0.97700 0.27370
C40 C 0.07000 1.00000 0.18320
C41 C 0.07770 1.00000 0.28450
C42 C 0.16720 1.00000 0.22540
C43 C 0.20090 1.01550 0.14040
C44 C 0.20980 1.03830 0.07050
C45 C 0.17100 1.05370 0.13400
C46 C 0.12050 1.00000 0.16020
H13? H 0.30130 1.23130 -0.05990
H14? H 0.31490 1.21640 0.03230
H15? H 0.28540 1.24860 0.02760
H16? H 0.45370 1.18550 0.56000
H17? H 0.43220 1.18530 0.46950
H18? H 0.47590 1.18570 0.47050
H19? H 0.36640 1.04750 0.56000
H20? H 0.36540 1.07040 0.47140
H21? H 0.36740 1.02670 0.46860
N1I N 0.26164(18) 1.19985(19) -0.1596(4)
O1I O 0.31188(16) 1.16210(18) -0.1624(3)
O2I O 0.33235(18) 1.1950(2) -0.3120(3)
O3I O 0.28404(19) 1.2314(2) -0.3055(4)
C1I C 0.2913(2) 1.1877(2) -0.1929(4)
C2I C 0.3024(3) 1.2052(3) -0.2777(5)
C3I C 0.2493(2) 1.1848(2) -0.0770(4)
C4I C 0.2257(4) 1.1552(3) -0.0784(6)
C8I C 0.2127(5) 1.1385(4) -0.1635(7)
H2I H 0.23220 1.14030 -0.20700
H3I H 0.20650 1.11270 -0.15420
H4I H 0.19110 1.15170 -0.18410
N2I N 0.4564(2) 1.1359(3) 0.6605(5)
O4I O 0.39453(17) 1.1394(2) 0.6645(5)
O5I O 0.39976(18) 1.1719(3) 0.8201(5)
O6I O 0.46203(17) 1.1714(2) 0.8086(5)
C9I C 0.4258(3) 1.1452(3) 0.6957(7)
C10I C 0.4289(3) 1.1626(4) 0.7845(7)
C11I C 0.4549(2) 1.1147(3) 0.5784(5)
C12I C 0.4524(2) 1.0776(3) 0.5788(5)
C16I C 0.4499(3) 1.0576(3) 0.6658(7)
H6I H 0.42660 1.06330 0.69390
H7I H 0.45150 1.03120 0.65590
H8I H 0.47010 1.06530 0.70330
N3I N 0.31636(17) 1.0442(2) 0.6575(4)
O7I O 0.36296(18) 1.0971(2) 0.8145(4)
O8I O 0.31789(18) 1.1072(2) 0.6756(4)
O9I O 0.3581(2) 1.0347(3) 0.7983(4)
C17I C 0.3528(3) 1.0675(5) 0.7772(6)
C18I C 0.3257(2) 1.0742(4) 0.6961(5)
C19I C 0.2960(2) 1.0463(2) 0.5779(4)
C20I C 0.2581(2) 1.0477(3) 0.5795(5)
C24I C 0.2372(2) 1.0497(4) 0.6664(6)
H10I H 0.24260 1.07290 0.69530
H11I H 0.21090 1.04800 0.65530
H12I H 0.24480 1.02940 0.70380
Mn1I Mn 0.35204(3) 1.14686(5) -0.24885(8)
Cu1F Cu 0.24093(3) 1.24093(3) -0.23031(8)
Cu2E Cu 0.33201(4) 1.00000 0.72523(9)
Cu3D Cu 0.50000 1.15086(7) 0.73027(13)
Mn1I* Mn 0.35204(3) 1.14686(5) 0.75115(8)
N1O N 0.19985(18) 1.26164(19) 0.1596(4)
N2M N 0.5436(2) 1.1359(3) 0.3395(5)
N3L N 0.31636(17) 0.9558(2) 0.3425(4)
O3O O 0.23140(19) 1.28404(20) 0.3055(4)
O4I* O 0.39453(17) 1.1394(2) -0.3355(5)
O5I* O 0.39976(18) 1.1719(3) -0.1799(5)
O6M O 0.53797(17) 1.1714(2) 0.1914(5)
O7I* O 0.36296(18) 1.0971(2) -0.1855(4)
O8I* O 0.31789(18) 1.1072(2) -0.3244(4)
O9L O 0.3581(2) 0.9653(3) 0.2017(4)
N4M N 0.52100 0.55340 0.23100
C25M C 0.53850 0.57280 0.31300
C26M C 0.54780 0.58930 0.11300
C27C C 0.55090 0.55090 0.15810
N4N N 0.44660 0.52100 0.23100
C25N C 0.42720 0.53850 0.31300
C26N C 0.41070 0.54780 0.11300
N4B N 0.44660 0.47900 0.23100
C25B C 0.42720 0.46150 0.31300
C26B C 0.41070 0.45220 0.11300
C27B C 0.44910 0.44910 0.15810
N4C N 0.55340 0.52100 0.23100
C25C C 0.57280 0.53850 0.31300
C26C C 0.58930 0.54780 0.11300
N4O N 0.55340 0.47900 0.23100
C25O C 0.57280 0.46150 0.31300
C26O C 0.58930 0.45220 0.11300
C27A C 0.55090 0.44910 0.15810
N4A N 0.52100 0.44660 0.23100
C25A C 0.53850 0.42720 0.31300
C26A C 0.54780 0.41070 0.11300
N4L N 0.47900 0.44660 0.23100
C25L C 0.46150 0.42720 0.31300
C26L C 0.45220 0.41070 0.11300
C28M C 0.57410 0.60110 0.22160
C29M C 0.56590 0.66380 0.25480
C30M C 0.60840 0.63120 0.24580
C31M C 0.55130 0.69530 0.30990
C32M C 0.54850 0.63190 0.23730
C33M C 0.52340 0.64480 0.17100
C34M C 0.57200 0.63910 0.15770
C35M C 0.57070 0.68480 0.39000
C36M C 0.61130 0.63440 0.10270
C28N C 0.39890 0.57410 0.22160
C29N C 0.33620 0.56590 0.25480
C30N C 0.36880 0.60840 0.24580
C31N C 0.30470 0.55130 0.30990
C32N C 0.36810 0.54850 0.23730
C33N C 0.35520 0.52340 0.17100
C34N C 0.36090 0.57200 0.15770
C35N C 0.31520 0.57070 0.39000
C36N C 0.36560 0.61130 0.10270
C28B C 0.39890 0.42590 0.22160
C29B C 0.33620 0.43410 0.25480
C30B C 0.36880 0.39160 0.24580
C31B C 0.30470 0.44870 0.30990
C32B C 0.36810 0.45150 0.23730
C33B C 0.35520 0.47660 0.17100
C34B C 0.36090 0.42800 0.15770
C35B C 0.31520 0.42930 0.39000
C36B C 0.36560 0.38870 0.10270
C28C C 0.60110 0.57410 0.22160
C29C C 0.66380 0.56590 0.25480
C30C C 0.63120 0.60840 0.24580
C31C C 0.69530 0.55130 0.30990
C32C C 0.63190 0.54850 0.23730
C33C C 0.64480 0.52340 0.17100
C34C C 0.63910 0.57200 0.15770
C35C C 0.68480 0.57070 0.39000
C36C C 0.63440 0.61130 0.10270
C28O C 0.60110 0.42590 0.22160
C29O C 0.66380 0.43410 0.25480
C30O C 0.63120 0.39160 0.24580
C31O C 0.69530 0.44870 0.30990
C32O C 0.63190 0.45150 0.23730
C33O C 0.64480 0.47660 0.17100
C34O C 0.63910 0.42800 0.15770
C35O C 0.68480 0.42930 0.39000
C36O C 0.63440 0.38870 0.10270
C28A C 0.57410 0.39890 0.22160
C29A C 0.56590 0.33620 0.25480
C30A C 0.60840 0.36880 0.24580
C31A C 0.55130 0.30470 0.30990
C32A C 0.54850 0.36810 0.23730
C33A C 0.52340 0.35520 0.17100
C34A C 0.57200 0.36090 0.15770
C35A C 0.57070 0.31520 0.39000
C36A C 0.61130 0.36560 0.10270
C28L C 0.42590 0.39890 0.22160
C29L C 0.43410 0.33620 0.25480
C30L C 0.39160 0.36880 0.24580
C31L C 0.44870 0.30470 0.30990
C32L C 0.45150 0.36810 0.23730
C33L C 0.47660 0.35520 0.17100
C34L C 0.42800 0.36090 0.15770
C35L C 0.42930 0.31520 0.39000
C36L C 0.38870 0.36560 0.10270
N5A N -0.03940 1.03940 0.21080
C38A C -0.07180 1.07180 0.23590
N5B N 0.03940 1.03940 0.21080
C38B C 0.07180 1.07180 0.23590
N5C N -0.03940 0.96060 0.21080
C38C C -0.07180 0.92820 0.23590
C39L C 0.11800 1.02300 0.27370
C43L C 0.20090 0.98450 0.14040
C44L C 0.20980 0.96170 0.07050
C45L C 0.17100 0.94630 0.13400
#END
