
#######################################################################
#
#                 Cambridge Crystallographic Data Centre
#                                CCDC
#
#######################################################################
#
# If this CIF has been generated from an entry in the Cambridge
# Structural Database, then it will include bibliographic, chemical,
# crystal, experimental, refinement or atomic coordinate data resulting
# from the CCDC's data processing and validation procedures.
#
#######################################################################

data_CSD_CIF_IJICIQ
_audit_creation_date 2020-12-31
_audit_creation_method CSD-ConQuest-V1
_database_code_CSD IJICIQ
_database_code_depnum_ccdc_archive 'CCDC 2039784'
_chemical_formula_sum 'C70 H72 N7 O30 Tm3'
_chemical_formula_moiety
;
(C56 H32 N2 O24 Tm3 1-)n,2(H2 O1),C2 H8 N1 1+,4(C3 H7 N1 O1)
;
_journal_coden_Cambridge 9
_journal_volume 60
_journal_year 2020
_journal_page_first 1028
_journal_name_full 'Inorg.Chem. '
loop_
_publ_author_name
"Hongtai Chen"
"Tuoping Hu"
"Liming Fan"
"Xiutang Zhang"
_chemical_name_systematic
;
catena-[dimethylammonium 
bis[\m-4,4'-[4-(4-carboxyphenyl)pyridine-2,6-diyl]bis(benzene-1,3-dicarboxylat
o)]-tetra-aqua-tri-thulium(iii) N,N-dimethylformamide solvate dihydrate]
;
_chemical_name_common
;
NUC-25
;
_cell_volume   7489.472
_exptl_crystal_colour 'colorless'
_exptl_crystal_description 'block'
_diffrn_ambient_temperature 296
_refine_special_details
;
Disordered cation (dimethylammonium) and solvent molecules 
(N,N-dimethylformamide) were not modelled and the disordered density was 
taken into account using the MASK/OLEX2 procedure.
;
#These two values have been output from a single CSD field.
_refine_ls_R_factor_gt 0.034
_refine_ls_wR_factor_gt 0.034
_symmetry_cell_setting monoclinic
_symmetry_space_group_name_H-M 'C 2/c'
_symmetry_Int_Tables_number 15
loop_
_symmetry_equiv_pos_site_id
_symmetry_equiv_pos_as_xyz
1 x,y,z
2 -x,y,1/2-z
3 1/2+x,1/2+y,z
4 1/2-x,1/2+y,1/2-z
5 -x,-y,-z
6 x,-y,-1/2+z
7 -1/2-x,-1/2-y,-z
8 -1/2+x,-1/2-y,-1/2+z
_cell_length_a 29.602(10)
_cell_length_b 9.169(3)
_cell_length_c 28.381(8)
_cell_angle_alpha 90
_cell_angle_beta 103.528(10)
_cell_angle_gamma 90
_cell_formula_units_Z 4
loop_
_atom_type_symbol
_atom_type_radius_bond
C 0.68
H 0.23
N 0.68
O 0.68
Tm 1.90
loop_
_atom_site_label
_atom_site_type_symbol
_atom_site_fract_x
_atom_site_fract_y
_atom_site_fract_z
C1 C 0.4705(3) 0.1281(9) 0.3540(3)
C2 C 0.4273(2) 0.1830(9) 0.3661(2)
C3 C 0.3921(2) 0.2401(6) 0.32976(19)
H1 H 0.39609 0.24389 0.29823
C4 C 0.35144(17) 0.2915(5) 0.33923(16)
C5 C 0.34456(17) 0.2818(6) 0.38668(16)
C6 C 0.3796(2) 0.2230(8) 0.42270(19)
H2 H 0.37566 0.21610 0.45417
C7 C 0.4202(2) 0.1748(10) 0.4125(2)
H3 H 0.44341 0.13589 0.43719
C8 C 0.31593(17) 0.3614(5) 0.29887(17)
C9 C 0.19049(16) 0.3066(5) 0.27708(15)
C10 C 0.16694(17) 0.2068(5) 0.30618(16)
C11 C 0.13204(18) 0.1154(5) 0.28297(18)
H4 H 0.12428 0.11174 0.24929
C12 C 0.10784(18) 0.0272(6) 0.30935(19)
C13 C 0.1199(2) 0.0330(7) 0.3593(2)
H5 H 0.10396 -0.02390 0.37716
C14 C 0.1554(2) 0.1224(6) 0.38287(19)
H6 H 0.16311 0.12494 0.41656
C15 C 0.17973(17) 0.2084(5) 0.35741(16)
C16 C 0.0699(2) -0.0733(7) 0.2849(2)
C17 C 0.22105(16) 0.2875(5) 0.38502(15)
C18 C 0.21898(18) 0.3708(5) 0.42574(16)
H7 H 0.19055 0.38713 0.43344
C19 C 0.25918(16) 0.4288(5) 0.45457(15)
C20 C 0.30003(18) 0.4023(5) 0.44045(16)
H8 H 0.32784 0.43955 0.45880
C21 C 0.30017(17) 0.3208(5) 0.39929(16)
C22 C 0.25876(16) 0.5123(5) 0.49943(15)
C23 C 0.22451(18) 0.4858(5) 0.52471(16)
H9 H 0.20143 0.41726 0.51310
C24 C 0.22470(19) 0.5615(5) 0.56729(16)
H10 H 0.20136 0.54423 0.58357
C25 C 0.25906(18) 0.6617(5) 0.58563(15)
C26 C 0.29290(18) 0.6896(6) 0.56035(16)
H11 H 0.31583 0.75860 0.57202
C27 C 0.29281(18) 0.6153(5) 0.51769(16)
H12 H 0.31580 0.63471 0.50114
C28 C 0.25992(19) 0.7375(5) 0.63221(16)
N1 N 0.26119(13) 0.2640(4) 0.37163(12)
O1 O 0.4958(3) 0.0419(10) 0.3841(3)
O2 O 0.48011(17) 0.1618(6) 0.31678(19)
O3 O 0.29644(12) 0.4729(4) 0.30878(12)
O4 O 0.30871(12) 0.3024(4) 0.25763(11)
O5 O 0.19308(12) 0.4389(4) 0.28815(11)
O6 O 0.20475(13) 0.2549(4) 0.24293(12)
O7 O 0.0573(2) -0.1713(7) 0.3096(2)
O8 O 0.05056(15) -0.0631(5) 0.24231(15)
O9 O 0.22772(13) 0.7137(4) 0.65414(11)
O10 O 0.29187(14) 0.8236(4) 0.65070(13)
O11 O 0.22788(13) 0.5550(3) 0.20037(11)
O12 O 0.0537(3) -0.4643(9) 0.2714(3)
Tm1 Tm 0.23903(2) 0.62935(2) 0.28079(2)
Tm2 Tm 0.00000 -0.27498(4) 0.25000
O13 O 0.1207(2) 0.5604(10) 0.3559(3)
C1A C -0.4705(3) 0.1281(9) 0.1460(3)
C2A C -0.4273(2) 0.1830(9) 0.1339(2)
C3A C -0.3921(2) 0.2401(6) 0.17024(19)
H1A H -0.39609 0.24389 0.20177
C4A C -0.35144(17) 0.2915(5) 0.16077(16)
C5A C -0.34456(17) 0.2818(6) 0.11332(16)
C6A C -0.3796(2) 0.2230(8) 0.07730(19)
H2A H -0.37566 0.21610 0.04583
C7A C -0.4202(2) 0.1748(10) 0.0875(2)
H3A H -0.44341 0.13589 0.06281
C8A C -0.31593(17) 0.3614(5) 0.20113(17)
C9A C -0.19049(16) 0.3066(5) 0.22292(15)
C10A C -0.16694(17) 0.2068(5) 0.19382(16)
C11A C -0.13204(18) 0.1154(5) 0.21703(18)
H4A H -0.12428 0.11174 0.25071
C12A C -0.10784(18) 0.0272(6) 0.19065(19)
C13A C -0.1199(2) 0.0330(7) 0.1407(2)
H5A H -0.10396 -0.02390 0.12284
C14A C -0.1554(2) 0.1224(6) 0.11713(19)
H6A H -0.16311 0.12494 0.08344
C15A C -0.17973(17) 0.2084(5) 0.14259(16)
C16A C -0.0699(2) -0.0733(7) 0.2151(2)
C17A C -0.22105(16) 0.2875(5) 0.11498(15)
C18A C -0.21898(18) 0.3708(5) 0.07426(16)
H7A H -0.19055 0.38713 0.06656
C19A C -0.25918(16) 0.4288(5) 0.04543(15)
C20A C -0.30003(18) 0.4023(5) 0.05955(16)
H8A H -0.32784 0.43955 0.04120
C21A C -0.30017(17) 0.3208(5) 0.10071(16)
C22A C -0.25876(16) 0.5123(5) 0.00057(15)
C23A C -0.22451(18) 0.4858(5) -0.02471(16)
H9A H -0.20143 0.41726 -0.01310
C24A C -0.22470(19) 0.5615(5) -0.06729(16)
H10A H -0.20136 0.54423 -0.08357
C25A C -0.25906(18) 0.6617(5) -0.08563(15)
C26A C -0.29290(18) 0.6896(6) -0.06035(16)
H11A H -0.31583 0.75860 -0.07202
C27A C -0.29281(18) 0.6153(5) -0.01769(16)
H12A H -0.31580 0.63471 -0.00114
C28A C -0.25992(19) 0.7375(5) -0.13221(16)
N1A N -0.26119(13) 0.2640(4) 0.12837(12)
O1A O -0.4958(3) 0.0419(10) 0.1159(3)
O2A O -0.48011(17) 0.1618(6) 0.18322(19)
O3A O -0.29644(12) 0.4729(4) 0.19122(12)
O4A O -0.30871(12) 0.3024(4) 0.24237(11)
O5A O -0.19308(12) 0.4389(4) 0.21185(11)
O6A O -0.20475(13) 0.2549(4) 0.25707(12)
O7A O -0.0573(2) -0.1713(7) 0.1904(2)
O8A O -0.05056(15) -0.0631(5) 0.25769(15)
O9A O -0.22772(13) 0.7137(4) -0.15414(11)
O10A O -0.29187(14) 0.8236(4) -0.15070(13)
O11A O -0.22788(13) 0.5550(3) 0.29963(11)
O12A O -0.0537(3) -0.4643(9) 0.2286(3)
Tm1A Tm -0.23903(2) 0.62935(2) 0.21921(2)
O2B O -0.01989(17) -0.3382(6) 0.31678(19)
O2C O 0.01989(17) -0.3382(6) 0.18322(19)
O4B O -0.19129(12) 0.8024(4) 0.25763(11)
O4C O 0.19129(12) 0.8024(4) 0.24237(11)
O6B O -0.29525(13) 0.7549(4) 0.24293(12)
O6C O 0.29525(13) 0.7549(4) 0.25707(12)
O9F O 0.27228(13) 0.7863(4) 0.34586(11)
O9G O -0.27228(13) 0.7863(4) 0.15414(11)
O10F O 0.20813(14) 0.6764(4) 0.34930(13)
O10G O -0.20813(14) 0.6764(4) 0.15070(13)
Tm1B Tm -0.26097(2) 0.12935(2) 0.28079(2)
Tm1C Tm 0.26097(2) 0.12935(2) 0.21921(2)
Tm1F Tm 0.26097(2) 0.87065(2) 0.71921(2)
Tm1G Tm -0.26097(2) 0.87065(2) -0.21921(2)
Tm2B Tm -0.50000 0.22502(4) 0.25000
Tm2B* Tm 0.50000 0.22502(4) 0.25000
#END
