
#######################################################################
#
#                 Cambridge Crystallographic Data Centre
#                                CCDC
#
#######################################################################
#
# If this CIF has been generated from an entry in the Cambridge
# Structural Database, then it will include bibliographic, chemical,
# crystal, experimental, refinement or atomic coordinate data resulting
# from the CCDC's data processing and validation procedures.
#
#######################################################################

data_CSD_CIF_IJISAV
_audit_creation_date 2003-11-28
_audit_creation_method CSD-ConQuest-V1
_database_code_CSD IJISAV
_chemical_formula_sum 'C3 H10 K1 O11 P2 V2'
_chemical_formula_moiety
;
(C3 H8 O10 P2 V2 1-)n,n(K1 1+),n(H2 O1)
;
_journal_coden_Cambridge 971
_journal_volume 2
_journal_year 2000
_journal_page_first 127
_journal_name_full 'Solid State Sciences '
loop_
_publ_author_name
"D.Riou"
"P.Baltazar"
"G.Ferey"
_chemical_name_systematic
;
catena-(Potassium 
(\m~6~-propylenediphosphonato)-(\m~2~-oxo)-aqua-bis(oxo-vanadium(iv,v)) 
monohydrate)
;
_cell_volume   2702.161
_exptl_crystal_density_diffrn 2.09
_exptl_crystal_preparation 'from the melt'
_diffrn_ambient_temperature ?
_diffrn_special_details
;
The study was carried out at room temperature,in the range 283-303K

;
_refine_special_details
;
One vanadium atom is disordered over two sites.

;
#These two values have been output from a single CSD field.
_refine_ls_R_factor_gt 0.0806
_refine_ls_wR_factor_gt 0.0806
_symmetry_cell_setting monoclinic
_symmetry_space_group_name_H-M 'C 2/c'
_symmetry_Int_Tables_number 15
loop_
_symmetry_equiv_pos_site_id
_symmetry_equiv_pos_as_xyz
1 x,y,z
2 -x,y,1/2-z
3 1/2+x,1/2+y,z
4 1/2-x,1/2+y,1/2-z
5 -x,-y,-z
6 x,-y,-1/2+z
7 -1/2-x,-1/2-y,-z
8 -1/2+x,-1/2-y,-1/2+z
_cell_length_a 14.6228(1)
_cell_length_b 10.2783(2)
_cell_length_c 18.2716(3)
_cell_angle_alpha 90
_cell_angle_beta 100.272(1)
_cell_angle_gamma 90
_cell_formula_units_Z 8
loop_
_atom_type_symbol
_atom_type_radius_bond
C 0.68
K 1.33
O 0.68
P 1.05
V 1.31
loop_
_atom_site_label
_atom_site_type_symbol
_atom_site_fract_x
_atom_site_fract_y
_atom_site_fract_z
V1 V 0.1599(1) 0.6180(1) 0.0911(1)
V2 V -0.2382(3) 0.4403(2) -0.2790(1)
V3? V 0.3101(9) 1.0813(5) 0.2193(2)
K1 K 0.3455(4) 1.1928(4) 0.0412(2)
P1 P 0.2188(1) 0.6222(1) -0.0759(1)
P2 P -0.1634(1) 0.6658(1) -0.1677(1)
O1 O 0.2107(3) 0.5762(4) 0.0031(2)
O2 O -0.1670(3) 0.5952(4) -0.2412(2)
O3 O -0.1718(3) 0.5730(4) -0.1033(2)
O4 O 0.2191(3) 0.4996(4) -0.1220(2)
O5 O -0.2385(3) 0.7693(4) -0.1715(2)
O6 O 0.3081(3) 0.7001(4) -0.0741(3)
O7 O 0.0495(4) 0.6346(5) 0.0751(4)
O8 O 0.2005(6) 0.6343(5) 0.1872(3)
O9 O -0.3406(5) 0.4887(8) -0.2728(5)
O10 O -0.0863(8) 0.3608(9) -0.2836(7)
O11 O 0.3878(12) 1.4069(16) 0.1131(16)
C1 C 0.1217(4) 0.7230(6) -0.1118(3)
C2 C -0.0532(4) 0.7445(6) -0.1458(4)
C3 C 0.0294(4) 0.6501(6) -0.1272(4)
O3D O 0.1718(3) 0.4270(4) 0.1033(2)
O6F O 0.1919(3) 0.7999(4) 0.0741(3)
O4A O -0.2191(3) 0.4996(4) -0.3780(2)
O5C O -0.2615(3) 0.2693(4) -0.3285(2)
O8D O -0.2005(6) 0.3657(5) -0.1872(3)
V1D V -0.1599(1) 0.3820(1) -0.0911(1)
V2A V 0.2382(3) 0.4403(2) -0.2210(1)
V2C V -0.2618(3) 0.9403(2) -0.2210(1)
V1F V 0.3401(1) 0.8820(1) -0.0911(1)
V2D V 0.2382(3) 0.5597(2) 0.2790(1)
#END
