
#######################################################################
#
#                 Cambridge Crystallographic Data Centre
#                                CCDC
#
#######################################################################
#
# If this CIF has been generated from an entry in the Cambridge
# Structural Database, then it will include bibliographic, chemical,
# crystal, experimental, refinement or atomic coordinate data resulting
# from the CCDC's data processing and validation procedures.
#
#######################################################################

data_CSD_CIF_IJIYUY
_audit_creation_date 2021-01-03
_audit_creation_method CSD-ConQuest-V1
_database_code_CSD IJIYUY
_database_code_depnum_ccdc_archive 'CCDC 1981733'
_chemical_formula_sum 'C112 H84 Ba2 Ni4 O18 P4 S16'
_chemical_formula_moiety
;
(C16 H4 Ba2 Ni4 O18 S16 4-)n,4(C24 H20 P1 1+)
;
_journal_coden_Cambridge 241
_journal_volume 49
_journal_year 2020
_journal_page_first 1050
_journal_name_full 'Chem.Lett. '
loop_
_publ_author_name
"M.Nakayama"
"T.Kanetomo"
"M.Enomoto"
_chemical_name_systematic
;
catena-[tetrakis(tetraphenylphosphanium) 
octakis(\m-dithiooxalato)-diaqua-di-barium(ii)-tetra-nickel(ii)]
;
_chemical_melting_point 438
_cell_volume   2828.654
_exptl_crystal_colour 'black'
_exptl_crystal_density_diffrn 1.681
_exptl_special_details
;
Moisture-sensitive

;
_diffrn_ambient_temperature 93
#These two values have been output from a single CSD field.
_refine_ls_R_factor_gt 0.0453
_refine_ls_wR_factor_gt 0.0453
_symmetry_cell_setting triclinic
_symmetry_space_group_name_H-M 'P -1'
_symmetry_Int_Tables_number 2
loop_
_symmetry_equiv_pos_site_id
_symmetry_equiv_pos_as_xyz
1 x,y,z
2 -x,-y,-z
_cell_length_a 12.9028(2)
_cell_length_b 13.1509(2)
_cell_length_c 17.8132(3)
_cell_angle_alpha 98.157(2)
_cell_angle_beta 107.019(2)
_cell_angle_gamma 95.762(2)
_cell_formula_units_Z 1
loop_
_atom_type_symbol
_atom_type_radius_bond
C 0.68
H 0.23
Ba 2.15
Ni 1.24
O 0.68
P 1.05
S 1.02
loop_
_atom_site_label
_atom_site_type_symbol
_atom_site_fract_x
_atom_site_fract_y
_atom_site_fract_z
Ba1 Ba 0.34361(2) 0.91260(2) 1.30706(2)
Ni1 Ni 0.00000 1.00000 1.50000
Ni2 Ni 0.31706(3) 0.40491(3) 1.29918(2)
Ni3 Ni 0.50000 1.00000 1.00000
S1 S 0.17143(6) 0.98098(6) 1.54014(5)
S2 S -0.02469(6) 0.91226(6) 1.38116(5)
S3 S 0.22704(7) 0.49555(6) 1.21413(5)
S4 S 0.20736(7) 0.26323(6) 1.23232(5)
S5 S 0.58906(7) 1.00895(8) 1.12667(5)
S6 S 0.41988(7) 0.54301(6) 1.37609(5)
S7 S 0.42319(7) 0.31993(6) 1.37818(5)
S8 S 0.34246(7) 0.97449(8) 1.02143(5)
O1 O 0.29488(19) 0.94334(19) 1.44948(14)
O2 O 0.12680(19) 0.86649(19) 1.31649(14)
O3 O 0.4070(2) 0.12076(18) 1.37881(15)
O4 O 0.5371(2) 0.9237(2) 1.42707(15)
H1 H 0.52983 0.88078 1.45980
H2 H 0.55425 0.98532 1.45837
O5 O 0.4089(2) 0.73765(19) 1.36648(15)
O6 O 0.3028(2) 0.9119(2) 1.14463(14)
O7 O 0.2477(2) 0.69966(18) 1.22728(15)
O8 O 0.5088(2) 0.9763(2) 1.24239(14)
O9 O 0.2242(2) 0.07076(18) 1.25246(16)
C1 C 0.3677(3) 0.1919(3) 1.34753(19)
C2 C 0.2793(3) 0.6243(3) 1.25579(19)
C3 C 0.1052(3) 0.9030(2) 1.37685(19)
C4 C 0.3726(3) 0.6456(3) 1.3358(2)
C5 C 0.4911(3) 0.9781(3) 1.17098(19)
C6 C 0.2011(3) 0.9430(2) 1.45360(19)
C7 C 0.3715(3) 0.9496(3) 1.11682(19)
C8 C 0.2629(3) 0.1635(3) 1.2755(2)
P1 P 0.27803(7) 0.33790(7) 0.96052(5)
C9 C 0.4035(3) 0.3532(3) 1.1186(2)
H3 H 0.34700 0.38279 1.13143
C10 C 0.4947(3) 0.3400(3) 1.1783(2)
H4 H 0.49882 0.35952 1.23150
C11 C 0.1614(3) 0.2473(3) 0.9553(2)
C12 C 0.1600(3) 0.2024(3) 1.0215(2)
H5 H 0.22247 0.21267 1.06566
C13 C 0.3094(3) 0.3163(3) 0.86823(19)
C14 C 0.5732(3) 0.2657(3) 1.0800(2)
H6 H 0.63007 0.23633 1.06746
C15 C -0.0284(3) 0.1259(3) 0.9549(2)
H7 H -0.09217 0.08629 0.95509
C16 C 0.4819(3) 0.2776(3) 1.0200(2)
H8 H 0.47739 0.25610 0.96695
C17 C 0.2488(3) 0.4681(3) 0.9837(2)
C18 C 0.3876(3) 0.2748(3) 0.7400(2)
H9 H 0.41499 0.26082 0.69735
C19 C 0.3964(3) 0.3216(3) 1.03826(19)
C20 C 0.3312(3) 0.5455(3) 1.0341(2)
H10 H 0.40268 0.53172 1.05279
C21 C 0.3277(3) 0.1954(3) 0.7595(2)
H11 H 0.31363 0.12871 0.72958
C22 C 0.0648(3) 0.1424(3) 1.0210(2)
H12 H 0.06350 0.11302 1.06531
C23 C 0.2013(4) 0.6647(3) 1.0283(2)
H13 H 0.18515 0.73020 1.04406
C24 C 0.2887(3) 0.2158(3) 0.8242(2)
H14 H 0.24894 0.16265 0.83804
C25 C -0.0260(3) 0.1687(3) 0.8884(2)
H15 H -0.08794 0.15642 0.84361
C26 C 0.1422(3) 0.4896(3) 0.9549(2)
H16 H 0.08660 0.43824 0.92141
C27 C 0.3065(3) 0.6431(3) 1.0565(2)
H17 H 0.36141 0.69439 1.09086
C28 C 0.3676(3) 0.3970(3) 0.8473(2)
H18 H 0.37946 0.46430 0.87584
C29 C 0.4075(3) 0.3756(3) 0.7832(2)
H19 H 0.44755 0.42849 0.76922
C30 C 0.0681(3) 0.2296(3) 0.8882(2)
H20 H 0.06910 0.25854 0.84373
C31 C 0.1198(4) 0.5893(3) 0.9767(3)
H21 H 0.04943 0.60490 0.95632
C32 C 0.5799(3) 0.2979(3) 1.1596(2)
H22 H 0.64191 0.29094 1.20022
P2 P 0.04019(7) 0.67833(6) 0.63617(5)
C33 C 0.3153(3) 0.7522(3) 0.5317(2)
H23 H 0.37366 0.76218 0.51153
C34 C -0.3034(3) 0.6696(3) 0.4656(2)
H24 H -0.37448 0.67034 0.43335
C35 C -0.1738(3) 0.5844(3) 0.5511(2)
H25 H -0.15706 0.52772 0.57574
C36 C 0.1292(3) 0.6780(3) 0.5125(2)
H26 H 0.06248 0.64077 0.47935
C37 C 0.0571(3) 0.7719(2) 0.72412(19)
C38 C 0.2161(3) 0.6979(3) 0.4828(2)
H27 H 0.20709 0.67417 0.42917
C39 C -0.2782(3) 0.5837(3) 0.5007(2)
H28 H -0.33138 0.52591 0.49025
C40 C -0.0931(3) 0.6707(3) 0.56512(19)
C41 C 0.1435(3) 0.7148(3) 0.5929(2)
C42 C 0.0436(3) 0.9439(3) 0.7833(2)
H29 H 0.02000 1.00779 0.77817
C43 C 0.2430(3) 0.7740(3) 0.6414(2)
H30 H 0.25134 0.80127 0.69427
C44 C -0.2232(3) 0.7544(3) 0.4784(2)
H31 H -0.24043 0.81113 0.45395
C45 C 0.3289(3) 0.7921(3) 0.6110(2)
H32 H 0.39525 0.83083 0.64338
C46 C 0.0734(3) 0.3589(3) 0.7049(2)
H33 H 0.07764 0.29263 0.71703
C47 C 0.1110(3) 0.7520(3) 0.7994(2)
H34 H 0.13332 0.68764 0.80492
C48 C -0.1182(3) 0.7548(3) 0.5270(2)
H35 H -0.06414 0.81105 0.53440
C49 C 0.0570(3) 0.5545(2) 0.6648(2)
C50 C 0.0237(3) 0.8680(3) 0.7164(2)
H36 H -0.01223 0.88146 0.66619
C51 C -0.0093(3) 0.5145(3) 0.7069(2)
H37 H -0.05862 0.55351 0.72191
C52 C 0.1336(3) 0.4972(3) 0.6448(2)
H38 H 0.17876 0.52408 0.61782
C53 C 0.0987(3) 0.9245(3) 0.8581(2)
H39 H 0.11396 0.97604 0.90296
C54 C 0.1416(3) 0.3997(3) 0.6656(2)
H40 H 0.19304 0.36148 0.65302
C55 C -0.0009(3) 0.4168(3) 0.7261(2)
H41 H -0.04552 0.38973 0.75332
C56 C 0.1310(3) 0.8282(3) 0.8657(2)
H42 H 0.16646 0.81483 0.91601
Ba1A Ba -0.34361(2) 1.08740(2) 1.69294(2)
Ni2A Ni -0.31706(3) 1.59509(3) 1.70082(2)
S1A S -0.17143(6) 1.01902(6) 1.45986(5)
S2A S 0.02469(6) 1.08774(6) 1.61884(5)
S3A S -0.22704(7) 1.50445(6) 1.78587(5)
S4A S -0.20736(7) 1.73677(6) 1.76768(5)
S5A S -0.58906(7) 0.99105(8) 1.87333(5)
S6A S -0.41988(7) 1.45699(6) 1.62391(5)
S7A S -0.42319(7) 1.68007(6) 1.62182(5)
S8A S -0.34246(7) 1.02551(8) 1.97857(5)
O1A O -0.29488(19) 1.05666(19) 1.55052(14)
O2A O -0.12680(19) 1.13351(19) 1.68351(14)
O3A O -0.4070(2) 1.87924(18) 1.62119(15)
O4A O -0.5371(2) 1.0763(2) 1.57293(15)
H1A H -0.52983 1.11922 1.54020
H2A H -0.55425 1.01468 1.54163
O5A O -0.4089(2) 1.26235(19) 1.63352(15)
O6A O -0.3028(2) 1.0881(2) 1.85537(14)
O7A O -0.2477(2) 1.30034(18) 1.77272(15)
O8A O -0.5088(2) 1.0237(2) 1.75761(14)
O9A O -0.2242(2) 1.92924(18) 1.74754(16)
C1A C -0.3677(3) 1.8081(3) 1.65247(19)
C2A C -0.2793(3) 1.3757(3) 1.74421(19)
C3A C -0.1052(3) 1.0970(2) 1.62315(19)
C4A C -0.3726(3) 1.3544(3) 1.6642(2)
C5A C -0.4911(3) 1.0219(3) 1.82902(19)
C6A C -0.2011(3) 1.0570(2) 1.54640(19)
C7A C -0.3715(3) 1.0504(3) 1.88318(19)
C8A C -0.2629(3) 1.8365(3) 1.7245(2)
Ba1* Ba 0.34361(2) -0.08740(2) 1.30706(2)
Ba1A* Ba -0.34361(2) 2.08740(2) 1.69294(2)
Ni3* Ni -0.50000 1.00000 2.00000
S5A* S 0.41094(7) 0.99105(8) 0.87333(5)
S8A* S 0.65754(7) 1.02551(8) 0.97857(5)
O3* O 0.4070(2) 1.12076(18) 1.37881(15)
O3A* O -0.4070(2) 0.87924(18) 1.62119(15)
O9* O 0.2242(2) 1.07076(18) 1.25246(16)
O9A* O -0.2242(2) 0.92924(18) 1.74754(16)
#END
