
#######################################################################
#
#                 Cambridge Crystallographic Data Centre
#                                CCDC
#
#######################################################################
#
# If this CIF has been generated from an entry in the Cambridge
# Structural Database, then it will include bibliographic, chemical,
# crystal, experimental, refinement or atomic coordinate data resulting
# from the CCDC's data processing and validation procedures.
#
#######################################################################

data_CSD_CIF_IJIZAF
_audit_creation_date 2021-01-03
_audit_creation_method CSD-ConQuest-V1
_database_code_CSD IJIZAF
_database_code_depnum_ccdc_archive 'CCDC 1981734'
_chemical_formula_sum 'C40 H72 Ba1 N2 Ni2 O8 S8'
_chemical_formula_moiety
;
2(C16 H36 N1 1+),(C8 Ba1 Ni2 O8 S8 2-)n
;
_journal_coden_Cambridge 241
_journal_volume 49
_journal_year 2020
_journal_page_first 1050
_journal_name_full 'Chem.Lett. '
loop_
_publ_author_name
"M.Nakayama"
"T.Kanetomo"
"M.Enomoto"
_chemical_name_systematic
;
catena-[bis(tetra-n-butylammonium) 
octakis(\m-dithiooxalato)-barium(ii)-di-nickel(ii)]
;
_cell_volume   2714.743
_exptl_crystal_colour 'black'
_exptl_crystal_density_diffrn 1.493
_exptl_special_details
;
Moisture-sensitive

;
_exptl_crystal_description 'plate'
_diffrn_ambient_temperature 93
#These two values have been output from a single CSD field.
_refine_ls_R_factor_gt 0.0256
_refine_ls_wR_factor_gt 0.0256
_symmetry_cell_setting orthorhombic
_symmetry_space_group_name_H-M 'P n n 2'
_symmetry_Int_Tables_number 34
loop_
_symmetry_equiv_pos_site_id
_symmetry_equiv_pos_as_xyz
1 x,y,z
2 -x,-y,z
3 1/2+x,1/2-y,1/2+z
4 1/2-x,1/2+y,1/2+z
_cell_length_a 17.8107(3)
_cell_length_b 12.7457(2)
_cell_length_c 11.9587(3)
_cell_angle_alpha 90
_cell_angle_beta 90
_cell_angle_gamma 90
_cell_formula_units_Z 2
loop_
_atom_type_symbol
_atom_type_radius_bond
C 0.68
H 0.23
Ba 2.15
N 0.68
Ni 1.24
O 0.68
S 1.02
loop_
_atom_site_label
_atom_site_type_symbol
_atom_site_fract_x
_atom_site_fract_y
_atom_site_fract_z
Ba1 Ba 0.00000 1.00000 0.30293(3)
Ni1 Ni 0.29019(2) 0.82807(3) 0.56631(4)
S1 S 0.26857(4) 0.85406(6) 0.38959(7)
S2 S 0.30998(5) 0.80567(7) 0.74402(7)
S3 S 0.17447(5) 0.85908(7) 0.61183(7)
S4 S 0.40486(5) 0.78199(7) 0.52457(7)
O1 O 0.14409(12) 0.91553(18) 0.2943(2)
O2 O 0.06251(14) 0.9102(2) 0.4828(2)
O3 O 0.39735(14) 0.65968(19) 0.8237(2)
O4 O 0.48369(14) 0.6485(2) 0.6413(2)
C1 C 0.38070(17) 0.7153(3) 0.7446(3)
C2 C 0.42922(18) 0.7071(3) 0.6380(3)
C3 C 0.12917(19) 0.8891(3) 0.4894(3)
C4 C 0.17616(18) 0.8902(2) 0.3803(3)
N1 N 0.68502(15) 0.8086(2) 0.5378(2)
C5 C 0.76412(17) 0.8524(2) 0.5423(3)
H1 H 0.76117 0.92643 0.56069
H2 H 0.78612 0.84682 0.46835
C6 C 0.5396(2) 0.8525(3) 0.8470(3)
H3 H 0.50276 0.89059 0.80485
H4 H 0.52656 0.85396 0.92487
H5 H 0.54122 0.78108 0.82155
C7 C 0.6399(2) 0.9150(3) 0.7083(3)
H6 H 0.60237 0.95568 0.66868
H7 H 0.68721 0.95265 0.70421
C8 C 0.64848(19) 0.8081(3) 0.6527(3)
H8 H 0.67802 0.76353 0.70160
H9 H 0.59909 0.77664 0.64603
C9 C 0.61662(19) 0.9031(3) 0.8307(3)
H10 H 0.65396 0.86094 0.86902
H11 H 0.61627 0.97187 0.86538
C10 C 0.8165(2) 0.7996(3) 0.6255(3)
H12 H 0.79766 0.81018 0.70072
H13 H 0.81763 0.72467 0.61107
C11 C 0.8957(2) 0.8436(3) 0.6169(3)
H14 H 0.91358 0.83546 0.54079
H15 H 0.89462 0.91798 0.63386
C12 C 0.63753(19) 0.8753(3) 0.4595(3)
H16 H 0.58651 0.84875 0.46124
H17 H 0.63638 0.94635 0.48859
C13 C 0.6629(2) 0.8798(3) 0.3388(3)
H18 H 0.66742 0.80931 0.30907
H19 H 0.71159 0.91351 0.33405
C14 C 0.6176(2) 0.6450(3) 0.4574(3)
H20 H 0.60866 0.66486 0.38024
H21 H 0.57583 0.67017 0.50208
C15 C 0.6056(2) 0.9416(3) 0.2708(3)
H22 H 0.59729 1.00922 0.30589
H23 H 0.55822 0.90404 0.27035
C16 C 0.68983(19) 0.6944(2) 0.4982(3)
H24 H 0.72632 0.69077 0.43807
H25 H 0.70895 0.65229 0.55942
C17 C 0.9498(2) 0.7894(4) 0.6960(4)
H26 H 0.95098 0.71563 0.67973
H27 H 0.93360 0.79984 0.77170
H28 H 0.99918 0.81835 0.68652
C18 C 0.6228(2) 0.5254(3) 0.4665(4)
H29 H 0.62973 0.50678 0.54444
H30 H 0.57561 0.49529 0.44202
C19 C 0.6857(2) 0.4772(3) 0.3990(4)
H31 H 0.67959 0.49528 0.32159
H32 H 0.68435 0.40224 0.40704
H33 H 0.73301 0.50326 0.42542
C20 C 0.6320(4) 0.9582(4) 0.1507(4)
H34 H 0.59399 0.99515 0.10954
H35 H 0.64102 0.89136 0.11616
H36 H 0.67752 0.99847 0.15075
Ni1A Ni -0.29019(2) 1.17193(3) 0.56631(4)
S1A S -0.26857(4) 1.14594(6) 0.38959(7)
S2A S -0.30998(5) 1.19433(7) 0.74402(7)
S3A S -0.17447(5) 1.14092(7) 0.61183(7)
S4A S -0.40486(5) 1.21801(7) 0.52457(7)
O1A O -0.14409(12) 1.08447(18) 0.2943(2)
O2A O -0.06251(14) 1.0898(2) 0.4828(2)
O3A O -0.39735(14) 1.34032(19) 0.8237(2)
O4A O -0.48369(14) 1.3515(2) 0.6413(2)
C1A C -0.38070(17) 1.2847(3) 0.7446(3)
C2A C -0.42922(18) 1.2929(3) 0.6380(3)
C3A C -0.12917(19) 1.1109(3) 0.4894(3)
C4A C -0.17616(18) 1.1098(2) 0.3803(3)
Ba1B Ba -0.50000 1.50000 0.80293(3)
Ba1B* Ba 0.50000 0.50000 0.80293(3)
O3B O -0.10265(14) 0.84032(19) 0.3237(2)
O3C O 0.10265(14) 1.15968(19) 0.3237(2)
O4B O -0.01631(14) 0.8515(2) 0.1413(2)
O4C O 0.01631(14) 1.1485(2) 0.1413(2)
#END
