
#######################################################################
#
#                 Cambridge Crystallographic Data Centre
#                                CCDC
#
#######################################################################
#
# If this CIF has been generated from an entry in the Cambridge
# Structural Database, then it will include bibliographic, chemical,
# crystal, experimental, refinement or atomic coordinate data resulting
# from the CCDC's data processing and validation procedures.
#
#######################################################################

data_CSD_CIF_IJOVIO
_audit_creation_date 2016-04-05
_audit_creation_method CSD-ConQuest-V1
_database_code_CSD IJOVIO
_database_code_depnum_ccdc_archive 'CCDC 1028787'
_chemical_formula_sum 'C16 H34 N4 O16 Zn2'
_chemical_formula_moiety
;
(C6 O12 Zn2 2-)n,2n(C2 H8 N1 1+),2n(C3 H7 N1 O1),2n(H2 O1)
;
_journal_coden_Cambridge 367
_journal_volume 41
_journal_year 2015
_journal_page_first 288
_journal_name_full 'Koord.Khim.(Russ.)(Coord.Chem.) '
loop_
_publ_author_name
"J.Wang"
"X.R.Wu"
"W.P.Wu"
"J.Q.Liu"
"A.Kumar"
_chemical_name_systematic
;
catena-[bis(dimethylammonium) tris(\m-oxalato)-di-zinc N,N-dimethylformamide 
solvate dihydrate]
;
_cell_volume    625.899
_exptl_crystal_colour 'colorless'
_exptl_crystal_description 'block'
_diffrn_ambient_temperature 100
_refine_special_details
;
Disordered dimethylammonium cations and N,N-dimethylformamide and water 
solvent molecules were not modelled and the disordered density was taken into 
account using the SQUEEZE/PLATON procedure.
;
#These two values have been output from a single CSD field.
_refine_ls_R_factor_gt 0.044
_refine_ls_wR_factor_gt 0.044
_symmetry_cell_setting hexagonal
_symmetry_space_group_name_H-M 'P -3 1 m'
_symmetry_Int_Tables_number 162
loop_
_symmetry_equiv_pos_site_id
_symmetry_equiv_pos_as_xyz
1 x,y,z
2 -y,x-y,z
3 -x+y,-x,z
4 -y,-x,-z
5 x,x-y,-z
6 -x+y,y,-z
7 -x,-y,-z
8 y,-x+y,-z
9 x-y,x,-z
10 y,x,z
11 -x,-x+y,z
12 x-y,-y,z
_cell_length_a 9.379(2)
_cell_length_b 9.379(2)
_cell_length_c 8.216(2)
_cell_angle_alpha 90
_cell_angle_beta 90
_cell_angle_gamma 120
_cell_formula_units_Z 1
loop_
_atom_type_symbol
_atom_type_radius_bond
C 0.68
O 0.68
Zn 1.22
loop_
_atom_site_label
_atom_site_type_symbol
_atom_site_fract_x
_atom_site_fract_y
_atom_site_fract_z
Zn1 Zn 0.33330 0.66670 0.50000
C1 C 0.4579(4) 0.4579(4) 0.4191(5)
O1 O 0.3581(3) 0.4952(3) 0.3593(2)
C1C C 0.5421(4) 0.5421(4) 0.5809(5)
O1C O 0.5048(3) 0.6419(3) 0.6407(2)
O1F O 0.6419(3) 0.5048(3) 0.6407(2)
O1I O 0.4952(3) 0.3581(3) 0.3593(2)
C1A C 0.5421(4) 1.0000(4) 0.4191(5)
O1A O 0.5048(3) 0.8629(3) 0.3593(2)
C1D C 0.4579(4) 1.0000(4) 0.5809(5)
O1D O 0.3581(3) 0.8629(3) 0.6407(2)
O1G O 0.4952(3) 1.1371(3) 0.6407(2)
O1J O 0.6419(3) 1.1371(3) 0.3593(2)
C1B C 0.0000(4) 0.5421(4) 0.4191(5)
O1B O 0.1371(3) 0.6419(3) 0.3593(2)
C1E C 0.0000(4) 0.4579(4) 0.5809(5)
O1E O 0.1371(3) 0.4952(3) 0.6407(2)
O1H O -0.1371(3) 0.3581(3) 0.6407(2)
O1K O -0.1371(3) 0.5048(3) 0.3593(2)
Zn1F Zn 0.66670 0.33330 0.50000
Zn1F* Zn -0.33330 0.33330 0.50000
Zn1F** Zn 0.66670 1.33330 0.50000
O1G* O 0.4952(3) 0.1371(3) 0.6407(2)
O1H* O 0.8629(3) 0.3581(3) 0.6407(2)
O1J* O 0.6419(3) 0.1371(3) 0.3593(2)
O1K* O 0.8629(3) 0.5048(3) 0.3593(2)
#END
