
#######################################################################
#
#                 Cambridge Crystallographic Data Centre
#                                CCDC
#
#######################################################################
#
# If this CIF has been generated from an entry in the Cambridge
# Structural Database, then it will include bibliographic, chemical,
# crystal, experimental, refinement or atomic coordinate data resulting
# from the CCDC's data processing and validation procedures.
#
#######################################################################

data_CSD_CIF_IKABON
_audit_creation_date 2016-04-05
_audit_creation_method CSD-ConQuest-V1
_database_code_CSD IKABON
_database_code_depnum_ccdc_archive 'CCDC 920020'
_chemical_formula_sum 'C19 H36 N9 Np1 O15'
_chemical_formula_moiety
;
(C16 H8 Np1 O10 3-)n,3n(C1 H6 N3 1+),5n(H2 O1)
;
_journal_coden_Cambridge 513
_journal_volume 57
_journal_year 2015
_journal_page_first 206
_journal_name_full 'Radiokhimiya(Russ.)(Radiochem.) '
loop_
_publ_author_name
"I.A.Charushnikova"
"N.A.Budantseva"
"A.M.Fedoseev"
_chemical_name_systematic
;
catena-[tris(guanidinium) 
(\m-terephthalato)-dioxo-(terephthalato)-neptunium(v) pentahydrate]
;
_cell_volume   2895.676
_exptl_crystal_colour 'light green'
_exptl_crystal_density_diffrn 1.99
_exptl_crystal_description 'prism'
_diffrn_ambient_temperature 100
#These two values have been output from a single CSD field.
_refine_ls_R_factor_gt 0.035
_refine_ls_wR_factor_gt 0.035
_symmetry_cell_setting monoclinic
_symmetry_space_group_name_H-M 'P 21/n'
_symmetry_Int_Tables_number 14
loop_
_symmetry_equiv_pos_site_id
_symmetry_equiv_pos_as_xyz
1 x,y,z
2 1/2-x,1/2+y,1/2-z
3 -x,-y,-z
4 -1/2+x,-1/2-y,-1/2+z
_cell_length_a 10.5910(2)
_cell_length_b 19.5646(4)
_cell_length_c 14.7254(3)
_cell_angle_alpha 90
_cell_angle_beta 108.374(1)
_cell_angle_gamma 90
_cell_formula_units_Z 4
loop_
_atom_type_symbol
_atom_type_radius_bond
C 0.68
H 0.23
N 0.68
Np 1.90
O 0.68
loop_
_atom_site_label
_atom_site_type_symbol
_atom_site_fract_x
_atom_site_fract_y
_atom_site_fract_z
Np1 Np 0.236395(11) 0.112748(5) 0.488361(7)
O1 O 0.3952(2) 0.11462(13) 0.58659(17)
O2 O 0.0771(2) 0.11097(12) 0.38941(16)
O3 O 0.2933(3) -0.00214(12) 0.43708(16)
O4 O 0.1884(3) -0.00190(12) 0.54472(18)
O5 O 0.3523(2) 0.12164(11) 0.36540(17)
O6 O 0.2941(2) 0.22233(12) 0.40593(16)
O7 O 0.1696(2) 0.22266(11) 0.56489(15)
O8 O 0.1212(2) 0.12227(11) 0.61204(16)
C1 C 0.2436(3) -0.03435(16) 0.4933(2)
C2 C 0.3515(3) 0.18597(15) 0.35891(19)
C3 C 0.2531(3) -0.11045(15) 0.49917(19)
C4 C 0.4181(3) 0.21929(14) 0.29481(19)
C5 C 0.2044(4) -0.14560(17) 0.5624(2)
C6 C 0.3120(4) -0.14635(16) 0.4418(2)
C7 C 0.4628(3) 0.17893(15) 0.2328(2)
C8 C 0.4370(3) 0.28984(15) 0.2969(2)
H1 H 0.16450 -0.12140 0.60220
C9 C 0.2137(4) -0.21644(17) 0.5678(2)
C10 C 0.3225(4) -0.21645(17) 0.4480(2)
H2 H 0.34520 -0.12240 0.39800
H3 H 0.44940 0.13090 0.23070
C11 C 0.5270(3) 0.20958(15) 0.1743(2)
H4 H 0.40620 0.31730 0.33880
C12 C 0.5005(3) 0.32005(16) 0.2383(2)
H5 H 0.17950 -0.24020 0.61120
C13 C 0.2721(3) -0.25300(16) 0.5108(2)
H6 H 0.36460 -0.24030 0.40930
H7 H 0.55770 0.18230 0.13210
C14 C 0.5465(3) 0.28025(15) 0.17705(19)
H8 H 0.51280 0.36820 0.23990
C15 C 0.2830(4) -0.32882(18) 0.5156(3)
C16 C 0.6159(3) 0.31343(15) 0.11461(19)
O9 O 0.3663(3) -0.35832(13) 0.4839(2)
O10 O 0.2106(3) -0.36150(14) 0.5549(2)
C17 C 0.5454(3) -0.33440(17) 0.3377(2)
N1 N 0.4258(3) -0.36361(16) 0.3105(2)
H9 H 0.38220 -0.36900 0.35200
H10 H 0.39020 -0.37760 0.25110
N2 N 0.5991(4) -0.31344(17) 0.4262(2)
H11 H 0.55600 -0.31870 0.46800
H12 H 0.67820 -0.29420 0.44380
N3 N 0.6093(3) -0.32573(17) 0.2733(3)
H13 H 0.68780 -0.30590 0.29020
H14 H 0.57280 -0.33990 0.21410
C18 C -0.0054(4) -0.33240(18) 0.6830(3)
N4 N -0.0732(3) -0.31952(18) 0.7437(4)
H15 H -0.14890 -0.29700 0.72400
H16 H -0.04230 -0.33360 0.80340
N5 N -0.0490(6) -0.3120(3) 0.5934(3)
H17 H -0.00280 -0.32110 0.55450
H18 H -0.12450 -0.28940 0.57230
N6 N 0.1078(3) -0.36627(17) 0.7138(2)
H19 H 0.15340 -0.37510 0.67440
H20 H 0.13770 -0.38010 0.77360
C19 C 0.7069(8) -0.4686(3) 0.6457(4)
N7 N 0.6970(4) -0.4750(2) 0.7297(3)
H21 H 0.62040 -0.46710 0.73940
H22 H 0.76670 -0.48730 0.77780
N8 N 0.8361(5) -0.4796(3) 0.6380(4)
H23 H 0.90290 -0.49000 0.68930
H24 H 0.84910 -0.47590 0.58210
N9 N 0.6169(7) -0.4513(3) 0.5673(4)
H25 H 0.53560 -0.44200 0.56750
H26 H 0.63660 -0.44880 0.51370
O11 O 0.4489(3) -0.49223(14) 0.80184(18)
H27 H 0.483(4) -0.5255(17) 0.838(3)
H28 H 0.411(4) -0.468(2) 0.834(3)
O12 O 0.9975(3) -0.51242(16) 0.8253(2)
H29 H 0.949(5) -0.540(2) 0.848(3)
H30 H 1.034(4) -0.4892(18) 0.8820(13)
O13 O 0.8237(4) -0.4565(2) 0.2750(2)
H31 H 0.870(4) -0.459(3) 0.238(3)
H32 H 0.745(3) -0.469(3) 0.243(3)
O14 O 0.6332(6) -0.5153(3) 0.3993(4)
H33 H 0.68400 -0.55050 0.41560
H34 H 0.62680 -0.50700 0.34070
O15 O 0.9272(11) -0.4327(6) 0.4667(7)
H35 H 0.92460 -0.43680 0.40750
H36 H 0.90140 -0.39030 0.47020
O7C O 0.6696(2) 0.27734(11) 0.06489(15)
O8C O 0.6212(2) 0.37773(11) 0.11204(16)
Np1C Np 0.736395(11) 0.387252(5) -0.011639(7)
#END
