
#######################################################################
#
#                 Cambridge Crystallographic Data Centre
#                                CCDC
#
#######################################################################
#
# If this CIF has been generated from an entry in the Cambridge
# Structural Database, then it will include bibliographic, chemical,
# crystal, experimental, refinement or atomic coordinate data resulting
# from the CCDC's data processing and validation procedures.
#
#######################################################################

data_CSD_CIF_IKETIB
_audit_creation_date 2003-11-28
_audit_creation_method CSD-ConQuest-V1
_database_code_CSD IKETIB
_database_code_depnum_ccdc_archive 'CCDC 207788'
_chemical_formula_sum 'C20 H31.5 Cu3 Mo3 N0.5 O31.5 Si0.25'
_chemical_formula_moiety
;
(C18 H12 Cu3 O15)n,0.5n(C4 H12 N1 1+),0.25n(H2 Mo12 O40 Si1 2-),6.5n(H2 O1)
;
_journal_coden_Cambridge 1295
_journal_volume 6
_journal_year 2003
_journal_page_first 1020
_journal_name_full 'Inorg.Chem.Commun. '
loop_
_publ_author_name
"Lan Yang"
"H.Naruke"
"T.Yamase"
_chemical_name_systematic
;
catena-(tetrakis(bis(\m~6~-1,3,5-Benzenetricarboxylato)-triaqua-tri-copper) 
bis(tetramethylammonium) 
(\m~12~-silicato)-bis(\m~2~-hydroxo)-docosakis(\m~2~-oxo)-dodecaoxo-dodeca-mol
ybdenum hydrate)
;
_cell_volume  18208.468
_exptl_crystal_colour 'green'
_exptl_crystal_density_diffrn 1.851
_exptl_special_details
;
isomorphous with the tungsten phosphato-Keggin analogue and with the 
hexa-molybdenum-hexa-tungsten phosphato-Keggin analogue
;
_diffrn_ambient_temperature 296.2
_refine_special_details
;
The Keggin molecule is disordered, as are some of the water molecules.

;
#These two values have been output from a single CSD field.
_refine_ls_R_factor_gt 0.0568
_refine_ls_wR_factor_gt 0.0568
_symmetry_cell_setting cubic
_symmetry_space_group_name_H-M 'F m -3 m'
_symmetry_Int_Tables_number 225
loop_
_symmetry_equiv_pos_site_id
_symmetry_equiv_pos_as_xyz
1 x,y,z
2 z,x,y
3 y,z,x
4 x,z,y
5 y,x,z
6 z,y,x
7 -x,y,z
8 -z,x,y
9 -y,z,x
10 -x,z,y
11 -y,x,z
12 -z,y,x
13 x,-y,z
14 z,-x,y
15 y,-z,x
16 x,-z,y
17 y,-x,z
18 z,-y,x
19 x,y,-z
20 z,x,-y
21 y,z,-x
22 x,z,-y
23 y,x,-z
24 z,y,-x
25 x,1/2+y,1/2+z
26 z,1/2+x,1/2+y
27 y,1/2+z,1/2+x
28 x,1/2+z,1/2+y
29 y,1/2+x,1/2+z
30 z,1/2+y,1/2+x
31 -x,1/2+y,1/2+z
32 -z,1/2+x,1/2+y
33 -y,1/2+z,1/2+x
34 -x,1/2+z,1/2+y
35 -y,1/2+x,1/2+z
36 -z,1/2+y,1/2+x
37 x,1/2-y,1/2+z
38 z,1/2-x,1/2+y
39 y,1/2-z,1/2+x
40 x,1/2-z,1/2+y
41 y,1/2-x,1/2+z
42 z,1/2-y,1/2+x
43 x,1/2+y,1/2-z
44 z,1/2+x,1/2-y
45 y,1/2+z,1/2-x
46 x,1/2+z,1/2-y
47 y,1/2+x,1/2-z
48 z,1/2+y,1/2-x
49 1/2+x,y,1/2+z
50 1/2+z,x,1/2+y
51 1/2+y,z,1/2+x
52 1/2+x,z,1/2+y
53 1/2+y,x,1/2+z
54 1/2+z,y,1/2+x
55 1/2-x,y,1/2+z
56 1/2-z,x,1/2+y
57 1/2-y,z,1/2+x
58 1/2-x,z,1/2+y
59 1/2-y,x,1/2+z
60 1/2-z,y,1/2+x
61 1/2+x,-y,1/2+z
62 1/2+z,-x,1/2+y
63 1/2+y,-z,1/2+x
64 1/2+x,-z,1/2+y
65 1/2+y,-x,1/2+z
66 1/2+z,-y,1/2+x
67 1/2+x,y,1/2-z
68 1/2+z,x,1/2-y
69 1/2+y,z,1/2-x
70 1/2+x,z,1/2-y
71 1/2+y,x,1/2-z
72 1/2+z,y,1/2-x
73 1/2+x,1/2+y,z
74 1/2+z,1/2+x,y
75 1/2+y,1/2+z,x
76 1/2+x,1/2+z,y
77 1/2+y,1/2+x,z
78 1/2+z,1/2+y,x
79 1/2-x,1/2+y,z
80 1/2-z,1/2+x,y
81 1/2-y,1/2+z,x
82 1/2-x,1/2+z,y
83 1/2-y,1/2+x,z
84 1/2-z,1/2+y,x
85 1/2+x,1/2-y,z
86 1/2+z,1/2-x,y
87 1/2+y,1/2-z,x
88 1/2+x,1/2-z,y
89 1/2+y,1/2-x,z
90 1/2+z,1/2-y,x
91 1/2+x,1/2+y,-z
92 1/2+z,1/2+x,-y
93 1/2+y,1/2+z,-x
94 1/2+x,1/2+z,-y
95 1/2+y,1/2+x,-z
96 1/2+z,1/2+y,-x
97 -x,-y,-z
98 -z,-x,-y
99 -y,-z,-x
100 -x,-z,-y
101 -y,-x,-z
102 -z,-y,-x
103 x,-y,-z
104 z,-x,-y
105 y,-z,-x
106 x,-z,-y
107 y,-x,-z
108 z,-y,-x
109 -x,y,-z
110 -z,x,-y
111 -y,z,-x
112 -x,z,-y
113 -y,x,-z
114 -z,y,-x
115 -x,-y,z
116 -z,-x,y
117 -y,-z,x
118 -x,-z,y
119 -y,-x,z
120 -z,-y,x
121 -x,-1/2-y,-1/2-z
122 -z,-1/2-x,-1/2-y
123 -y,-1/2-z,-1/2-x
124 -x,-1/2-z,-1/2-y
125 -y,-1/2-x,-1/2-z
126 -z,-1/2-y,-1/2-x
127 x,-1/2-y,-1/2-z
128 z,-1/2-x,-1/2-y
129 y,-1/2-z,-1/2-x
130 x,-1/2-z,-1/2-y
131 y,-1/2-x,-1/2-z
132 z,-1/2-y,-1/2-x
133 -x,-1/2+y,-1/2-z
134 -z,-1/2+x,-1/2-y
135 -y,-1/2+z,-1/2-x
136 -x,-1/2+z,-1/2-y
137 -y,-1/2+x,-1/2-z
138 -z,-1/2+y,-1/2-x
139 -x,-1/2-y,-1/2+z
140 -z,-1/2-x,-1/2+y
141 -y,-1/2-z,-1/2+x
142 -x,-1/2-z,-1/2+y
143 -y,-1/2-x,-1/2+z
144 -z,-1/2-y,-1/2+x
145 -1/2-x,-y,-1/2-z
146 -1/2-z,-x,-1/2-y
147 -1/2-y,-z,-1/2-x
148 -1/2-x,-z,-1/2-y
149 -1/2-y,-x,-1/2-z
150 -1/2-z,-y,-1/2-x
151 -1/2+x,-y,-1/2-z
152 -1/2+z,-x,-1/2-y
153 -1/2+y,-z,-1/2-x
154 -1/2+x,-z,-1/2-y
155 -1/2+y,-x,-1/2-z
156 -1/2+z,-y,-1/2-x
157 -1/2-x,y,-1/2-z
158 -1/2-z,x,-1/2-y
159 -1/2-y,z,-1/2-x
160 -1/2-x,z,-1/2-y
161 -1/2-y,x,-1/2-z
162 -1/2-z,y,-1/2-x
163 -1/2-x,-y,-1/2+z
164 -1/2-z,-x,-1/2+y
165 -1/2-y,-z,-1/2+x
166 -1/2-x,-z,-1/2+y
167 -1/2-y,-x,-1/2+z
168 -1/2-z,-y,-1/2+x
169 -1/2-x,-1/2-y,-z
170 -1/2-z,-1/2-x,-y
171 -1/2-y,-1/2-z,-x
172 -1/2-x,-1/2-z,-y
173 -1/2-y,-1/2-x,-z
174 -1/2-z,-1/2-y,-x
175 -1/2+x,-1/2-y,-z
176 -1/2+z,-1/2-x,-y
177 -1/2+y,-1/2-z,-x
178 -1/2+x,-1/2-z,-y
179 -1/2+y,-1/2-x,-z
180 -1/2+z,-1/2-y,-x
181 -1/2-x,-1/2+y,-z
182 -1/2-z,-1/2+x,-y
183 -1/2-y,-1/2+z,-x
184 -1/2-x,-1/2+z,-y
185 -1/2-y,-1/2+x,-z
186 -1/2-z,-1/2+y,-x
187 -1/2-x,-1/2-y,z
188 -1/2-z,-1/2-x,y
189 -1/2-y,-1/2-z,x
190 -1/2-x,-1/2-z,y
191 -1/2-y,-1/2-x,z
192 -1/2-z,-1/2-y,x
_cell_length_a 26.3082(7)
_cell_length_b 26.3082(7)
_cell_length_c 26.3082(7)
_cell_angle_alpha 90
_cell_angle_beta 90
_cell_angle_gamma 90
_cell_formula_units_Z 16
loop_
_atom_type_symbol
_atom_type_radius_bond
C 0.68
Cu 1.51
Mo 1.35
N 0.68
O 0.68
Si 1.20
loop_
_atom_site_label
_atom_site_type_symbol
_atom_site_fract_x
_atom_site_fract_y
_atom_site_fract_z
Mo1 Mo 0.09456(5) 0.00000 0.09460
Cu1 Cu 0.28521(6) 0.00000 0.21480
Si1 Si 0.00000 0.00000 0.00000
O1 O 0.2438(2) 0.0519(2) 0.1837(2)
O2 O 0.3433(4) 0.00000 0.15670
O3 O 0.1385(4) 0.00000 0.13850
O4 O 0.1214(5) 0.0503(3) 0.05030
O5 O 0.0361(5) 0.03610 0.03610
O6 O 0.2432(7) 0.00000 0.0719(6)
O7 O 0.25000 0.25000 0.25000
N1 N 0.34300 0.15700 0.15700
C1 C 0.2038(3) 0.0680(5) 0.20380
C2 C 0.1768(3) 0.1109(5) 0.17680
C3 C 0.1986(5) 0.1338(3) 0.13380
C4 C 0.31070 0.18930 0.18930
C5 C 0.31080 0.12470 0.12470
O5F O -0.0361(5) 0.03610 0.03610
O5L O 0.0361(5) -0.03610 0.03610
O5R O 0.0361(5) 0.03610 -0.03610
O5RC O -0.0361(5) -0.03610 -0.03610
O5XC O 0.0361(5) -0.03610 -0.03610
O5DD O -0.0361(5) 0.03610 -0.03610
O5JD O -0.0361(5) -0.03610 0.03610
O1E O 0.1837(2) 0.0519(2) 0.2438(2)
C2A C 0.1768(3) 0.1768(5) 0.11090
C1A C 0.2038(3) 0.2038(5) 0.06800
O1A O 0.1837(2) 0.2438(2) 0.0519(2)
O1C O 0.2438(2) 0.1837(2) 0.0519(2)
C3A C 0.1338(5) 0.1986(3) 0.13380
C2B C 0.1109(3) 0.1768(5) 0.17680
C1B C 0.0680(3) 0.2038(5) 0.20380
O1B O 0.0519(2) 0.1837(2) 0.2438(2)
O1D O 0.0519(2) 0.2438(2) 0.1837(2)
C3B C 0.1338(5) 0.1338(3) 0.19860
C5BF C 0.37530 0.12470 0.18920
C5EG C 0.37530 0.18920 0.12470
O4B O 0.0503(5) 0.0503(3) 0.12140
O4L O 0.1214(5) -0.0503(3) 0.05030
O4N O 0.0503(5) -0.0503(3) 0.12140
Mo1B Mo 0.00000(5) 0.09460 0.09456
Mo1N Mo 0.00000(5) -0.09460 0.09456
Mo1A Mo 0.09460(5) 0.09456 0.00000
Mo1M Mo 0.09460(5) -0.09456 0.00000
Mo1F Mo -0.09456(5) 0.00000 0.09460
Mo1R Mo 0.09456(5) 0.00000 -0.09460
Mo1RC Mo -0.09456(5) 0.00000 -0.09460
Mo1T Mo 0.00000(5) 0.09460 -0.09456
Mo1TC Mo 0.00000(5) -0.09460 -0.09456
Mo1G Mo -0.09460(5) 0.09456 0.00000
Mo1SC Mo -0.09460(5) -0.09456 0.00000
O3B O 0.0000(4) 0.13850 0.13850
O4A O 0.0503(5) 0.1214(3) 0.05030
O4H O -0.0503(5) 0.0503(3) 0.12140
O4G O -0.0503(5) 0.1214(3) 0.05030
O3N O 0.0000(4) -0.13850 0.13850
O4M O 0.0503(5) -0.1214(3) 0.05030
O4LD O -0.0503(5) -0.0503(3) 0.12140
O4KD O -0.0503(5) -0.1214(3) 0.05030
O3A O 0.1385(4) 0.13850 0.00000
O4S O 0.0503(5) 0.1214(3) -0.05030
O4R O 0.1214(5) 0.0503(3) -0.05030
O3M O 0.1385(4) -0.13850 0.00000
O4YC O 0.0503(5) -0.1214(3) -0.05030
O4XC O 0.1214(5) -0.0503(3) -0.05030
O3F O -0.1385(4) 0.00000 0.13850
O4F O -0.1214(5) 0.0503(3) 0.05030
O4JD O -0.1214(5) -0.0503(3) 0.05030
O3R O 0.1385(4) 0.00000 -0.13850
O4T O 0.0503(5) 0.0503(3) -0.12140
O4ZC O 0.0503(5) -0.0503(3) -0.12140
O3RC O -0.1385(4) 0.00000 -0.13850
O4RC O -0.1214(5) -0.0503(3) -0.05030
O4TC O -0.0503(5) -0.0503(3) -0.12140
O4DD O -0.1214(5) 0.0503(3) -0.05030
O4FD O -0.0503(5) 0.0503(3) -0.12140
O3T O 0.0000(4) 0.13850 -0.13850
O4ED O -0.0503(5) 0.1214(3) -0.05030
O3TC O 0.0000(4) -0.13850 -0.13850
O4SC O -0.0503(5) -0.1214(3) -0.05030
O3G O -0.1385(4) 0.13850 0.00000
O3SC O -0.1385(4) -0.13850 0.00000
O1L O 0.2438(2) -0.0519(2) 0.1837(2)
C1L C 0.2038(3) -0.0680(5) 0.20380
C2L C 0.1768(3) -0.1109(5) 0.17680
C3L C 0.1986(5) -0.1338(3) 0.13380
O1Q O 0.1837(2) -0.0519(2) 0.2438(2)
C2M C 0.1768(3) -0.1768(5) 0.11090
C1M C 0.2038(3) -0.2038(5) 0.06800
O1M O 0.1837(2) -0.2438(2) 0.0519(2)
O1O O 0.2438(2) -0.1837(2) 0.0519(2)
C3M C 0.1338(5) -0.1986(3) 0.13380
C2N C 0.1109(3) -0.1768(5) 0.17680
C1N C 0.0680(3) -0.2038(5) 0.20380
O1N O 0.0519(2) -0.1837(2) 0.2438(2)
O1P O 0.0519(2) -0.2438(2) 0.1837(2)
C3N C 0.1338(5) -0.1338(3) 0.19860
O1SE O 0.3163(2) -0.0519(2) 0.2562(2)
O1NE O 0.2562(2) -0.0519(2) 0.3163(2)
O1EF O 0.3163(2) 0.0519(2) 0.2562(2)
O1ZE O 0.2562(2) 0.0519(2) 0.3163(2)
Cu1E Cu 0.21480(6) 0.00000 0.28521
Cu1A Cu 0.21480(6) 0.28521 0.00000
Cu1C Cu 0.28521(6) 0.21480 0.00000
Cu1B Cu 0.00000(6) 0.21480 0.28521
Cu1D Cu 0.00000(6) 0.28521 0.21480
Cu1M Cu 0.21480(6) -0.28521 0.00000
Cu1O Cu 0.28521(6) -0.21480 0.00000
Cu1N Cu 0.00000(6) -0.21480 0.28521
Cu1P Cu 0.00000(6) -0.28521 0.21480
O2E O 0.1567(4) 0.00000 0.34330
O2N O 0.0000(4) -0.15670 0.34330
O1TA O 0.0519(2) -0.2562(2) 0.3163(2)
O1LD O -0.0519(2) -0.1837(2) 0.2438(2)
O1FE O -0.0519(2) -0.2562(2) 0.3163(2)
#END
