
#######################################################################
#
#                 Cambridge Crystallographic Data Centre
#                                CCDC
#
#######################################################################
#
# If this CIF has been generated from an entry in the Cambridge
# Structural Database, then it will include bibliographic, chemical,
# crystal, experimental, refinement or atomic coordinate data resulting
# from the CCDC's data processing and validation procedures.
#
#######################################################################

data_CSD_CIF_IKEZED
_audit_creation_date 2003-11-28
_audit_creation_method CSD-ConQuest-V1
_database_code_CSD IKEZED
_database_code_depnum_ccdc_archive 'CCDC 222801'
_chemical_formula_sum 'C24 H10 N2 Na2 O18 Zn4'
_chemical_formula_moiety
;
(Na1 1+)2n,n(C20 H6 O18 Zn4 2-),n(C4 H4 N2)
;
_journal_coeditor_code "IUCr BT6318"
_journal_coden_Cambridge 1370
_journal_volume 59
_journal_year 2003
_journal_page_first m731
_journal_name_full 'Acta Crystallogr.,Sect.E:Struct.Rep.Online '
loop_
_publ_author_name
"Shi-Yao Yang"
"La-Sheng Long"
"Rong-Bin Huang"
"Lan-Sun Zheng"
"Seik Weng Ng"
_chemical_name_systematic
;
catena-(Di-sodium 
bis(\m~6~-1,2,4,5-benzenetetracarboxylato)-bis(\m~2~-hydroxo)-tetra-zinc(ii) 
pyrazine)
;
_cell_volume   1323.954
_exptl_crystal_colour 'colorless'
_exptl_crystal_density_diffrn 2.312
_exptl_crystal_description 'block'
_diffrn_ambient_temperature 298
#These two values have been output from a single CSD field.
_refine_ls_R_factor_gt 0.028
_refine_ls_wR_factor_gt 0.028
_symmetry_cell_setting monoclinic
_symmetry_space_group_name_H-M 'C 2/m'
_symmetry_Int_Tables_number 12
loop_
_symmetry_equiv_pos_site_id
_symmetry_equiv_pos_as_xyz
1 x,y,z
2 1/2+x,1/2+y,z
3 x,-y,z
4 1/2+x,1/2-y,z
5 -x,-y,-z
6 -1/2-x,-1/2-y,-z
7 -x,y,-z
8 -1/2-x,-1/2+y,-z
_cell_length_a 10.4073(5)
_cell_length_b 17.8174(8)
_cell_length_c 7.5278(4)
_cell_angle_alpha 90
_cell_angle_beta 108.474(1)
_cell_angle_gamma 90
_cell_formula_units_Z 2
loop_
_atom_type_symbol
_atom_type_radius_bond
C 0.68
H 0.23
N 0.68
Na 0.97
O 0.68
Zn 1.44
loop_
_atom_site_label
_atom_site_type_symbol
_atom_site_fract_x
_atom_site_fract_y
_atom_site_fract_z
Zn1 Zn 0.15965(3) 0.72269(1) 0.15033(4)
Na1 Na 0.00000 0.75322(8) 0.50000
O1 O 0.1900(2) 0.6345(1) 0.0101(2)
O2 O 0.1982(2) 0.7000(1) -0.2381(2)
O3 O 0.3397(2) 0.6532(1) -0.5297(3)
O4 O 0.1176(2) 0.6697(1) -0.6467(2)
O5 O 0.00000 0.7703(1) 0.00000
N1 N 0.00000 0.9230(2) 0.00000
C1 C 0.1707(3) 0.50000 -0.1793(5)
C2 C 0.1820(2) 0.5679(1) -0.2629(3)
C3 C 0.1987(2) 0.5678(1) -0.4399(3)
C4 C 0.2044(3) 0.50000 -0.5262(4)
C5 C 0.1892(2) 0.6391(1) -0.1562(3)
C6 C 0.2233(2) 0.6367(1) -0.5403(3)
C7 C -0.0164(3) 0.9616(2) 0.1415(5)
H1 H 0.00000 0.8176(6) 0.00000
H2 H 0.161(3) 0.50000 -0.061(2)
H3 H 0.216(4) 0.50000 -0.644(3)
H4 H -0.026(3) 0.933(2) 0.239(3)
C2B C 0.1820(2) 0.4321(1) -0.2629(3)
C3B C 0.1987(2) 0.4322(1) -0.4399(3)
C6B C 0.2233(2) 0.3633(1) -0.5403(3)
O3B O 0.3397(2) 0.3468(1) -0.5297(3)
O4B O 0.1176(2) 0.3303(1) -0.6467(2)
C5B C 0.1892(2) 0.3609(1) -0.1562(3)
O1B O 0.1900(2) 0.3655(1) 0.0101(2)
O2B O 0.1982(2) 0.3000(1) -0.2381(2)
C7B C -0.0164(3) 1.0384(2) 0.1415(5)
N1B N 0.00000 1.0770(2) 0.00000
C7D C 0.0164(3) 1.0384(2) -0.1415(5)
C7F C 0.0164(3) 0.9616(2) -0.1415(5)
H4F H 0.026(3) 0.933(2) -0.239(3)
H4D H 0.026(3) 1.067(2) -0.239(3)
H4B H -0.026(3) 1.067(2) 0.239(3)
O1E O 0.3100(2) 0.8655(1) -0.0101(2)
O2E O 0.3018(2) 0.8000(1) 0.2381(2)
O3E O 0.1603(2) 0.8468(1) 0.5297(3)
O4E O 0.3824(2) 0.8303(1) 0.6467(2)
C1E C 0.3293(3) 1.00000 0.1793(5)
C2E C 0.3180(2) 0.9321(1) 0.2629(3)
C3E C 0.3013(2) 0.9322(1) 0.4399(3)
C4E C 0.2956(3) 1.00000 0.5262(4)
C5E C 0.3108(2) 0.8609(1) 0.1562(3)
C6E C 0.2767(2) 0.8633(1) 0.5403(3)
H2E H 0.339(3) 1.00000 0.061(2)
H3E H 0.284(4) 1.00000 0.644(3)
C2G C 0.3180(2) 1.0679(1) 0.2629(3)
C3G C 0.3013(2) 1.0678(1) 0.4399(3)
C6G C 0.2767(2) 1.1367(1) 0.5403(3)
O3G O 0.1603(2) 1.1532(1) 0.5297(3)
O4G O 0.3824(2) 1.1697(1) 0.6467(2)
C5G C 0.3108(2) 1.1391(1) 0.1562(3)
O1G O 0.3100(2) 1.1345(1) -0.0101(2)
O2G O 0.3018(2) 1.2000(1) 0.2381(2)
Zn1B Zn 0.15965(3) 0.27731(1) 0.15033(4)
Zn1E Zn 0.34035(3) 0.77731(1) -0.15033(4)
Zn1G Zn 0.34035(3) 1.22269(1) -0.15033(4)
O5B O 0.00000 0.2297(1) 0.00000
H1B H 0.00000 0.1824(6) 0.00000
O4* O 0.1176(2) 0.6697(1) 0.3533(2)
Zn1* Zn 0.15965(3) 0.72269(1) -0.84967(4)
Zn1F Zn -0.15965(3) 0.72269(1) -0.15033(4)
Zn1B* Zn 0.15965(3) 0.27731(1) -0.84967(4)
Zn1G* Zn 0.34035(3) 0.22269(1) -0.15033(4)
Zn1E* Zn 0.34035(3) 0.77731(1) 0.84967(4)
Zn1G** Zn 0.34035(3) 1.22269(1) 0.84967(4)
Zn1B** Zn 0.15965(3) 1.27731(1) 0.15033(4)
O2G* O 0.3018(2) 0.2000(1) 0.2381(2)
O4B* O 0.1176(2) 0.3303(1) 0.3533(2)
O4E* O 0.3824(2) 0.8303(1) -0.3533(2)
O5C O 0.50000 0.7297(1) 0.00000
O2B* O 0.1982(2) 1.3000(1) -0.2381(2)
O4G* O 0.3824(2) 1.1697(1) -0.3533(2)
O5A O 0.50000 1.2703(1) 0.00000
Zn1D Zn -0.15965(3) 0.27731(1) -0.15033(4)
H1C H 0.50000 0.6824(6) 0.00000
H1A H 0.50000 1.3176(6) 0.00000
#END
