
#######################################################################
#
#                 Cambridge Crystallographic Data Centre
#                                CCDC
#
#######################################################################
#
# If this CIF has been generated from an entry in the Cambridge
# Structural Database, then it will include bibliographic, chemical,
# crystal, experimental, refinement or atomic coordinate data resulting
# from the CCDC's data processing and validation procedures.
#
#######################################################################

data_CSD_CIF_IKOPEF
_audit_creation_date 2016-04-06
_audit_creation_method CSD-ConQuest-V1
_database_code_CSD IKOPEF
_database_code_depnum_ccdc_archive 'CCDC 1057270'
_chemical_formula_sum 'C34 H25 Cu4 N1 O19'
_chemical_formula_moiety
;
(C32 H17 Cu4 O19 1-)n,n(C2 H8 N1 1+)
;
_journal_coden_Cambridge 155
_journal_volume 447
_journal_year 2016
_journal_page_first 6
_journal_name_full 'Inorg.Chim.Acta '
loop_
_publ_author_name
"Gui-Lin Wen"
"Feng-Wu Wang"
"Dao-Fu Liu"
"Xiao-Ling Wang"
"Ming Gu"
"Yao-Yu Wang"
_chemical_name_systematic
;
catena-[dimethylammonium 
bis(\m-biphenyl-2,3,3',5'-tetracarboxylato)-(\m-hydroxy)-diaqua-tetra-copper 
unknown solvate]
;
_cell_volume   2466.066
_exptl_crystal_colour 'blue'
_exptl_crystal_density_diffrn 1.292
_exptl_crystal_description 'block'
_exptl_crystal_preparation 'hydrothermal method'
_diffrn_ambient_temperature 296
_refine_special_details
;
Disordered cation and solvent molecules were not modelled and the disordered 
density was taken into account using the SQUEEZE/PLATON procedure.
;
#These two values have been output from a single CSD field.
_refine_ls_R_factor_gt 0.1017
_refine_ls_wR_factor_gt 0.1017
_symmetry_cell_setting triclinic
_symmetry_space_group_name_H-M 'P -1'
_symmetry_Int_Tables_number 2
loop_
_symmetry_equiv_pos_site_id
_symmetry_equiv_pos_as_xyz
1 x,y,z
2 -x,-y,-z
_cell_length_a 12.429(3)
_cell_length_b 12.712(3)
_cell_length_c 15.821(3)
_cell_angle_alpha 98.159(3)
_cell_angle_beta 92.873(3)
_cell_angle_gamma 93.267(3)
_cell_formula_units_Z 2
loop_
_atom_type_symbol
_atom_type_radius_bond
C 0.68
H 0.23
Cu 1.32
O 0.68
loop_
_atom_site_label
_atom_site_type_symbol
_atom_site_fract_x
_atom_site_fract_y
_atom_site_fract_z
Cu1 Cu 0.92623(7) 0.07248(7) 0.50629(5)
Cu2 Cu 0.84902(7) 0.35586(7) 0.07176(6)
Cu3 Cu 1.06662(7) 0.50910(7) 0.07950(6)
Cu4 Cu 0.46409(7) 0.41177(7) 0.06711(6)
O1 O 1.0165(5) 0.1238(5) 0.4208(4)
O2 O 1.1477(5) 0.0074(5) 0.4118(4)
O3 O 0.9602(5) 0.3144(5) 0.1582(4)
O4 O 1.1146(5) 0.4015(5) 0.1440(4)
O5 O 1.7426(5) 0.2873(5) 0.1360(4)
O6 O 1.6117(5) 0.3910(5) 0.1071(4)
O7 O 1.4371(7) 0.3579(7) 0.3089(5)
O8 O 1.4225(5) 0.4182(5) 0.1832(4)
O9 O 0.8056(5) 0.5237(5) 0.0946(4)
O10 O 0.9568(5) 0.5807(5) 0.1736(4)
O11 O 0.9667(5) 0.8670(5) 0.4018(4)
O12 O 0.8372(5) 0.9860(5) 0.4128(4)
O13 O 0.1951(5) 0.5996(5) 0.1325(4)
O14 O 0.2517(5) 0.6956(5) 0.0321(4)
O15 O 0.4879(4) 0.5951(4) 0.0508(3)
O16 O 0.5275(5) 0.7658(5) 0.0423(4)
O17 O 0.9647(4) 0.4008(4) 0.0068(3)
H1 H 1.00330 0.33950 -0.01740
O18 O 0.8385(9) 0.2134(8) 0.5263(7)
H2 H 0.87380 0.26820 0.49970
H3 H 0.83670 0.23690 0.58660
O19 O 0.3095(5) 0.4126(5) 0.0332(4)
H4 H 0.27100 0.35280 0.05130
H5 H 0.30070 0.40770 -0.02790
C1 C 1.0988(7) 0.0855(6) 0.3878(5)
C2 C 1.1431(7) 0.1327(7) 0.3170(5)
C3 C 1.2454(7) 0.1122(7) 0.2891(6)
H6 H 1.28480 0.06220 0.31260
C4 C 1.2907(6) 0.1664(7) 0.2253(6)
C5 C 1.2277(7) 0.2338(7) 0.1876(6)
H7 H 1.25570 0.26890 0.14500
C6 C 1.1213(6) 0.2517(6) 0.2116(5)
C7 C 1.0808(6) 0.2056(6) 0.2791(5)
H8 H 1.01390 0.22240 0.29910
C8 C 1.0576(7) 0.3285(7) 0.1666(5)
C9 C 1.3973(7) 0.1450(7) 0.1918(5)
C10 C 1.4692(7) 0.2324(7) 0.1844(5)
C11 C 1.5672(7) 0.2171(7) 0.1458(6)
C12 C 1.5903(7) 0.1125(8) 0.1133(6)
H9 H 1.65250 0.09920 0.08420
C13 C 1.5177(9) 0.0291(8) 0.1259(8)
H10 H 1.53460 -0.04060 0.10770
C14 C 1.4216(8) 0.0461(8) 0.1643(7)
H11 H 1.37440 -0.01120 0.17080
C15 C 1.4427(7) 0.3422(7) 0.2288(5)
C16 C 1.6417(7) 0.3028(7) 0.1260(5)
C17 C 0.8575(7) 0.5843(7) 0.1536(5)
C18 C 0.8017(6) 0.6748(7) 0.2025(5)
C19 C 0.6888(6) 0.6795(7) 0.1948(5)
H12 H 0.64730 0.62640 0.15900
C20 C 0.6387(6) 0.7629(7) 0.2403(5)
C21 C 0.7000(7) 0.8376(7) 0.2961(6)
H13 H 0.66670 0.89460 0.32510
C22 C 0.8122(6) 0.8310(7) 0.3109(6)
C23 C 0.8601(7) 0.7491(8) 0.2624(6)
H14 H 0.93410 0.74380 0.27030
C24 C 0.8769(6) 0.9033(7) 0.3806(5)
C25 C 0.5177(6) 0.7681(7) 0.2386(5)
C26 C 0.4472(6) 0.7271(6) 0.1668(5)
C27 C 0.3335(6) 0.7250(6) 0.1777(5)
C28 C 0.2922(7) 0.7712(8) 0.2496(6)
H15 H 0.21790 0.77410 0.25280
C29 C 0.3600(8) 0.8137(9) 0.3177(7)
H16 H 0.33160 0.84260 0.36850
C30 C 0.4710(8) 0.8141(8) 0.3121(6)
H17 H 0.51570 0.84600 0.35880
C31 C 0.2524(6) 0.6671(6) 0.1077(5)
C32 C 0.4908(6) 0.6952(6) 0.0810(5)
Cu1* Cu 0.92623(7) 1.07248(7) 0.50629(5)
Cu1A Cu 1.07377(7) -0.07248(7) 0.49371(5)
Cu1A* Cu 1.07377(7) 0.92752(7) 0.49371(5)
Cu2* Cu 1.84902(7) 0.35586(7) 0.07176(6)
Cu2A Cu 0.15098(7) 0.64414(7) -0.07176(6)
Cu3* Cu 0.06662(7) 0.50910(7) 0.07950(6)
Cu3A Cu 0.93338(7) 0.49090(7) -0.07950(6)
Cu4* Cu 1.46409(7) 0.41177(7) 0.06711(6)
Cu4A Cu 0.53591(7) 0.58823(7) -0.06711(6)
O2A O 0.8523(5) -0.0074(5) 0.5882(4)
O5* O 0.7426(5) 0.2873(5) 0.1360(4)
O6* O 0.6117(5) 0.3910(5) 0.1071(4)
O8* O 0.4225(5) 0.4182(5) 0.1832(4)
O11A O 1.0333(5) 0.1330(5) 0.5982(4)
O12* O 0.8372(5) -0.0140(5) 0.4128(4)
O13* O 1.1951(5) 0.5996(5) 0.1325(4)
O14A O 0.7483(5) 0.3044(5) -0.0321(4)
O15A O 0.5121(4) 0.4049(4) -0.0508(3)
O16A O 0.4725(5) 0.2342(5) -0.0423(4)
O17A O 1.0353(4) 0.5992(4) -0.0068(3)
#END
