
#######################################################################
#
#                 Cambridge Crystallographic Data Centre
#                                CCDC
#
#######################################################################
#
# If this CIF has been generated from an entry in the Cambridge
# Structural Database, then it will include bibliographic, chemical,
# crystal, experimental, refinement or atomic coordinate data resulting
# from the CCDC's data processing and validation procedures.
#
#######################################################################

data_CSD_CIF_IKUBUN
_audit_creation_date 2016-04-06
_audit_creation_method CSD-ConQuest-V1
_database_code_CSD IKUBUN
_database_code_depnum_ccdc_archive 'CCDC 1472324'
_chemical_formula_sum 'C19 H36 Cl2 N5 Na1 O18'
_chemical_formula_moiety
;
(C14 H12 Cl2 N4 Na1 O11 1-)n,n(C5 H12 N1 O1 1+),6n(H2 O1)
;
_journal_coden_Cambridge 1078
_journal_year 2016
_journal_name_full 'CSD Communication(Private Communication) '
loop_
_publ_author_name
"D.Kalaivani"
"J.Gomathi"
_chemical_name_systematic
;
catena-[4-methylmorpholin-4-ium 
(\m-5,5'-(4,6-dichloro-2,5-dihydroxy-1,3-phenylene)bis(2,6-dioxo-1,2,3,6-tetra
hydropyrimidin-4-olato))-triaqua-sodium hexahydrate]
;
_cell_volume   1500.691
_exptl_crystal_density_diffrn 1.585
_exptl_special_details
;
PG and Research Department of Chemistry, Seethalakshmi Ramaswami College, 
Tiruchirappalli 620 002, Tamil Nadu, India
;
_diffrn_ambient_temperature 293
_refine_special_details
;
C10,C11,C12,C13,C9,N3,O12 disordered by symmetry over two configurations with 
occupancy 0.5.
;
#These two values have been output from a single CSD field.
_refine_ls_R_factor_gt 0.0348
_refine_ls_wR_factor_gt 0.0348
_symmetry_cell_setting monoclinic
_symmetry_space_group_name_H-M 'P 21/m'
_symmetry_Int_Tables_number 11
loop_
_symmetry_equiv_pos_site_id
_symmetry_equiv_pos_as_xyz
1 x,y,z
2 -x,1/2+y,-z
3 -x,-y,-z
4 x,-1/2-y,z
_cell_length_a 9.6800(6)
_cell_length_b 16.0337(11)
_cell_length_c 10.5752(7)
_cell_angle_alpha 90
_cell_angle_beta 113.892(2)
_cell_angle_gamma 90
_cell_formula_units_Z 2
loop_
_atom_type_symbol
_atom_type_radius_bond
C 0.68
H 0.23
Cl 0.99
N 0.68
Na 1.66
O 0.68
loop_
_atom_site_label
_atom_site_type_symbol
_atom_site_fract_x
_atom_site_fract_y
_atom_site_fract_z
H1 H 0.38910 -0.04050 0.89930
H2 H 0.11660 -0.04700 0.52320
C1 C 0.6188(3) 0.25000 0.6181(3)
C2 C 0.5490(2) 0.17607(11) 0.62870(18)
C3 C 0.41675(19) 0.17400(11) 0.65148(17)
C4 C 0.3522(3) 0.25000 0.6614(3)
C5 C 0.3523(2) 0.09411(11) 0.67232(18)
C6 C 0.4142(2) 0.05709(12) 0.80209(19)
C7 C 0.2456(2) -0.06158(12) 0.7147(2)
C8 C 0.2368(2) 0.05462(12) 0.56149(19)
N1 N 0.3545(2) -0.01886(11) 0.81796(17)
N2 N 0.18841(17) -0.02237(10) 0.58994(16)
O1 O 0.7464(2) 0.25000 0.5938(3)
O2 O 0.2230(2) 0.25000 0.6844(2)
O3 O 0.52141(17) 0.08653(9) 0.90690(14)
O4 O 0.17557(17) 0.08227(9) 0.44094(14)
O5 O 0.20194(18) -0.13042(9) 0.73204(17)
Na1 Na 0.15281(13) -0.25000 0.81125(12)
Cl1 Cl 0.62899(6) 0.08314(3) 0.60932(6)
H3 H 0.433(4) -0.2934(16) 1.046(3)
O6 O 0.3871(3) -0.25000 0.9987(3)
H4 H -0.134(4) -0.2067(6) 0.618(3)
O7 O -0.1123(3) -0.25000 0.6698(2)
H5 H 0.116(3) -0.2065(6) 1.020(4)
O8 O 0.0566(3) -0.25000 0.9897(3)
H6 H 0.022(4) 0.1729(18) 0.707(3)
H7 H -0.007(4) 0.0959(18) 0.708(4)
O9 O -0.0130(2) 0.13721(12) 0.6506(2)
H8 H 0.858(4) 0.056(2) 0.901(3)
H9 H 0.739(2) 0.083(2) 0.937(4)
O10 O 0.8323(2) 0.08403(15) 0.9562(2)
H10 H 1.038(3) -0.029(2) 0.869(3)
H11 H 0.932(4) -0.033(2) 0.737(3)
O11 O 0.9747(2) 0.00023(11) 0.80523(17)
H12? H 0.81220 -0.26060 0.83550
H13? H 0.69480 -0.13040 0.72920
H14? H 0.51920 -0.12000 0.67690
H15? H 0.49940 -0.25530 0.75600
H16? H 0.57970 -0.26080 0.65330
H17? H 0.83580 -0.26530 1.05860
H18? H 0.65950 -0.25880 1.00910
H19? H 0.76570 -0.12520 1.07150
H20? H 0.84370 -0.13280 0.96780
H21? H 0.71900 -0.38880 0.76730
H22? H 0.62370 -0.38560 0.85680
H23? H 0.80040 -0.39010 0.92910
C9? C 0.6078(11) -0.1451(6) 0.7480(8)
C10? C 0.5895(7) -0.2400(12) 0.7427(6)
C11? C 0.7442(6) -0.2430(11) 0.9874(5)
C12? C 0.7546(8) -0.1480(5) 0.9830(9)
C13? C 0.7160(14) -0.3683(5) 0.8514(18)
N3? N 0.7238(5) -0.2766(2) 0.8530(5)
O12? O 0.6269(6) -0.1129(3) 0.8784(6)
H24? H 0.19470 0.29820 0.68490
H25? H 0.79190 0.20600 0.62100
H1C H 0.38910 0.54050 0.89930
H2C H 0.11660 0.54700 0.52320
C2C C 0.5490(2) 0.32393(11) 0.62870(18)
C3C C 0.41675(19) 0.32600(11) 0.65148(17)
C5C C 0.3523(2) 0.40589(11) 0.67232(18)
C6C C 0.4142(2) 0.44291(12) 0.80209(19)
C7C C 0.2456(2) 0.56158(12) 0.7147(2)
C8C C 0.2368(2) 0.44538(12) 0.56149(19)
N1C N 0.3545(2) 0.51886(11) 0.81796(17)
N2C N 0.18841(17) 0.52237(10) 0.58994(16)
O3C O 0.52141(17) 0.41347(9) 0.90690(14)
O4C O 0.17557(17) 0.41773(9) 0.44094(14)
O5C O 0.20194(18) 0.63042(9) 0.73204(17)
Cl1C Cl 0.62899(6) 0.41686(3) 0.60932(6)
H3C H 0.433(4) -0.2066(16) 1.046(3)
H4C H -0.134(4) -0.2933(6) 0.618(3)
H5C H 0.116(3) -0.2935(6) 1.020(4)
O5C* O 0.20194(18) -0.36958(9) 0.73204(17)
Na1* Na 0.15281(13) 0.75000 0.81125(12)
#END
