
#######################################################################
#
#                 Cambridge Crystallographic Data Centre
#                                CCDC
#
#######################################################################
#
# If this CIF has been generated from an entry in the Cambridge
# Structural Database, then it will include bibliographic, chemical,
# crystal, experimental, refinement or atomic coordinate data resulting
# from the CCDC's data processing and validation procedures.
#
#######################################################################

data_CSD_CIF_ILAKUC
_audit_creation_date 2011-05-12
_audit_creation_method CSD-ConQuest-V1
_database_code_CSD ILAKUC
_database_code_depnum_ccdc_archive 'CCDC 788801'
_chemical_formula_sum 'C12 H16 Cu1 Mo4 N10 O16'
_chemical_formula_moiety
;
(Mo4 O13 2-)n,n(C12 H16 Cu1 N10 O3 2+)
;
_journal_coden_Cambridge 155
_journal_volume 368
_journal_year 2011
_journal_page_first 132
_journal_name_full 'Inorg.Chim.Acta '
loop_
_publ_author_name
"B.K.Tripuramallu"
"R.Kishore"
"S.K.Das"
_chemical_name_systematic
;
catena-(triaqua-bis(5-(4-pyridinio)tetrazolato)-copper 
(\m~4~-oxo)-bis(\m~3~-oxo)-tetrakis(\m~2~-oxo)-hexaoxo-tetra-molybdenum)
;
_cell_volume   1222.110
_exptl_crystal_colour 'blue'
_exptl_crystal_density_diffrn 2.727
_exptl_crystal_description 'block'
_diffrn_ambient_temperature 100
_refine_special_details
;
Two water molecules are disordered.

;
#These two values have been output from a single CSD field.
_refine_ls_R_factor_gt 0.0264
_refine_ls_wR_factor_gt 0.0264
_symmetry_cell_setting triclinic
_symmetry_space_group_name_H-M 'P -1'
_symmetry_Int_Tables_number 2
loop_
_symmetry_equiv_pos_site_id
_symmetry_equiv_pos_as_xyz
1 x,y,z
2 -x,-y,-z
_cell_length_a 7.9321(6)
_cell_length_b 12.8279(10)
_cell_length_c 12.8668(10)
_cell_angle_alpha 100.111(1)
_cell_angle_beta 105.696(1)
_cell_angle_gamma 96.691(1)
_cell_formula_units_Z 2
loop_
_atom_type_symbol
_atom_type_radius_bond
C 0.68
H 0.23
Cu 1.32
Mo 1.41
N 0.68
O 0.68
loop_
_atom_site_label
_atom_site_type_symbol
_atom_site_fract_x
_atom_site_fract_y
_atom_site_fract_z
Mo1 Mo 1.07887(3) 0.08698(2) 0.31882(2)
Mo2 Mo 0.70981(3) -0.09804(2) 0.37072(2)
Mo3 Mo 1.31219(3) -0.09458(2) 0.43010(2)
Mo4 Mo 1.43623(3) 0.04869(2) 0.24834(2)
O1 O 0.8920(3) -0.02045(18) 0.34801(18)
O2 O 0.5398(3) -0.08755(18) 0.23886(18)
O3 O 1.3111(3) 0.0126(2) 0.11218(19)
O4 O 1.2192(3) -0.05740(18) 0.29210(18)
O5 O 0.4628(3) -0.17771(18) 0.40053(18)
O6 O 0.5550(3) 0.03003(18) 0.41703(18)
O7 O 0.7493(3) -0.22551(18) 0.34489(19)
O8 O 1.2192(3) 0.05369(18) 0.47353(18)
O9 O 1.1421(3) -0.18143(19) 0.43955(19)
O10 O 0.9635(3) 0.05835(19) 0.18160(19)
O11 O 1.0222(3) 0.20301(19) 0.37496(19)
O12 O 1.3069(3) 0.14721(18) 0.31138(18)
O13 O 1.6149(3) 0.1379(2) 0.2525(2)
Cu1 Cu 0.29161(6) 0.52565(4) 0.53069(3)
O14 O 0.1302(7) 0.3956(3) 0.5342(3)
O15 O 0.4306(17) 0.6571(7) 0.5301(6)
O16 O 0.1894(17) 0.6589(8) 0.5575(7)
N1 N 0.2177(4) 0.5710(2) 0.3082(2)
N2 N 0.0514(4) 0.4240(2) 0.3152(2)
N3 N 0.1809(5) 0.5055(3) 0.3722(2)
N4 N 0.5399(4) 0.6266(2) 0.7457(2)
N5 N 0.3734(4) 0.4790(2) 0.7515(2)
N6 N 0.4105(4) 0.5441(2) 0.6883(2)
N7 N 0.4795(4) 0.5181(2) 0.8533(2)
N8 N 0.9701(4) 0.8108(2) 1.1179(2)
N9 N 0.1079(4) 0.5324(2) 0.2068(2)
N10 N -0.3697(4) 0.2277(2) -0.0533(2)
C1 C 0.5796(4) 0.6081(3) 0.8479(3)
C2 C 0.7148(4) 0.6787(3) 0.9426(3)
C3 C 0.8167(4) 0.7685(3) 0.9280(3)
H1 H 0.79890 0.78340 0.85810
C4 C 0.7448(5) 0.6580(3) 1.0487(3)
H2 H 0.67720 0.59940 1.06050
C5 C 0.9431(5) 0.8346(3) 1.0174(3)
H3 H 1.00970 0.89520 1.00870
C6 C 0.8753(5) 0.7253(3) 1.1353(3)
H4 H 0.89800 0.71160 1.20600
C7 C -0.3299(5) 0.2032(3) 0.0467(3)
H5 H -0.38370 0.13840 0.05590
C8 C -0.2095(5) 0.2738(3) 0.1353(3)
H6 H -0.18180 0.25740 0.20490
C9 C -0.1770(4) 0.3942(3) 0.0156(3)
H7 H -0.12760 0.45900 0.00410
C10 C -0.2983(5) 0.3206(3) -0.0704(3)
H8 H -0.33080 0.33530 -0.14060
C11 C -0.1287(4) 0.3705(3) 0.1205(3)
C12 C 0.0082(5) 0.4423(3) 0.2132(3)
O17? O 0.7261(17) 0.6258(7) 0.4763(8)
O18? O 0.5339(10) 0.6319(6) 0.5157(6)
H9 H -0.441(6) 0.186(3) -0.112(4)
H10 H 1.047(6) 0.852(4) 1.175(4)
Mo2A Mo 1.29019(3) 0.09804(2) 0.62928(2)
Mo3* Mo 0.31219(3) -0.09458(2) 0.43010(2)
Mo3A Mo 0.68781(3) 0.09458(2) 0.56990(2)
Mo4* Mo 0.43623(3) 0.04869(2) 0.24834(2)
O2* O 1.5398(3) -0.08755(18) 0.23886(18)
O5* O 1.4628(3) -0.17771(18) 0.40053(18)
O6* O 1.5550(3) 0.03003(18) 0.41703(18)
O6A O 1.4450(3) -0.03003(18) 0.58297(18)
O8A O 0.7808(3) -0.05369(18) 0.52647(18)
#END
