
#######################################################################
#
#                 Cambridge Crystallographic Data Centre
#                                CCDC
#
#######################################################################
#
# If this CIF has been generated from an entry in the Cambridge
# Structural Database, then it will include bibliographic, chemical,
# crystal, experimental, refinement or atomic coordinate data resulting
# from the CCDC's data processing and validation procedures.
#
#######################################################################

data_CSD_CIF_ILAPIV
_audit_creation_date 2011-05-12
_audit_creation_method CSD-ConQuest-V1
_database_code_CSD ILAPIV
_database_code_depnum_ccdc_archive 'CCDC 789622'
_chemical_formula_sum 'C36 H46 Mo8 N18 O28 Zn2'
_chemical_formula_moiety
;
(C18 H23 N9 O1 Zn1 2+)2n,n(Mo8 O26 4-)
;
_journal_coden_Cambridge 222
_journal_volume 40
_journal_year 2011
_journal_page_first 602
_journal_name_full 'Dalton Trans. '
loop_
_publ_author_name
"Hai-Yan Liu"
"Hua Wu"
"Jian-Fang Ma"
"Ying-Ying Liu"
"Jin Yang"
"Ji-Cheng Ma"
_chemical_name_systematic
;
catena-(bis((\m~3~-1,3,5-tris(1,2,4-triazol-1-ylmethyl)-2,4,6-trimethylbenzene
)-aqua-zinc) 
hexakis(\m~3~-oxo)-hexakis(\m~2~-oxo)-tetradecaoxo-octa-molybdenum(vi))
;
_cell_volume   2954.653
_exptl_crystal_colour 'colorless'
_exptl_crystal_density_diffrn 2.335
_exptl_crystal_description 'block'
_diffrn_ambient_temperature 293
#These two values have been output from a single CSD field.
_refine_ls_R_factor_gt 0.0338
_refine_ls_wR_factor_gt 0.0338
_symmetry_cell_setting monoclinic
_symmetry_space_group_name_H-M 'P 21/n'
_symmetry_Int_Tables_number 14
loop_
_symmetry_equiv_pos_site_id
_symmetry_equiv_pos_as_xyz
1 x,y,z
2 1/2-x,1/2+y,1/2-z
3 -x,-y,-z
4 -1/2+x,-1/2-y,-1/2+z
_cell_length_a 11.5822(4)
_cell_length_b 13.0529(4)
_cell_length_c 19.6111(6)
_cell_angle_alpha 90
_cell_angle_beta 94.749(3)
_cell_angle_gamma 90
_cell_formula_units_Z 2
loop_
_atom_type_symbol
_atom_type_radius_bond
C 0.68
H 0.23
Mo 1.43
N 0.68
O 0.71
Zn 1.22
loop_
_atom_site_label
_atom_site_type_symbol
_atom_site_fract_x
_atom_site_fract_y
_atom_site_fract_z
C1 C 1.0982(4) 0.1455(4) 0.6679(2)
H1 H 1.11900 0.08000 0.65490
C2 C 1.0309(4) 0.2680(4) 0.7197(2)
H2 H 0.99390 0.30590 0.75160
C3 C 1.1799(4) 0.2402(3) 0.5726(2)
H3 H 1.20100 0.17290 0.55670
H4 H 1.25090 0.27890 0.58230
C4 C 1.1369(4) 0.3897(3) 0.4946(2)
C5 C 1.0745(4) 0.4352(3) 0.4381(2)
C6 C 0.9864(4) 0.3822(3) 0.4022(2)
C7 C 0.9496(4) 0.2888(3) 0.4277(2)
C8 C 1.0104(4) 0.2425(3) 0.4836(2)
C9 C 1.1066(4) 0.2932(3) 0.5163(2)
C10 C 1.2385(4) 0.4472(3) 0.5312(2)
H5 H 1.24520 0.42900 0.57880
H6 H 1.22570 0.51960 0.52670
H7 H 1.30860 0.42920 0.51120
C11 C 0.9763(5) 0.1374(3) 0.5088(3)
H8 H 0.93630 0.14500 0.54950
H9 H 1.04470 0.09670 0.51890
H10 H 0.92650 0.10420 0.47410
C12 C 0.9303(4) 0.4221(3) 0.3350(2)
H11 H 0.87780 0.47660 0.34370
H12 H 0.88840 0.36760 0.31120
H13 H 0.98900 0.44730 0.30760
C13 C 0.8432(4) 0.2376(3) 0.3932(2)
H14 H 0.80840 0.19440 0.42610
H15 H 0.78710 0.28970 0.37800
C14 C 0.9615(4) 0.1184(3) 0.3246(3)
H16 H 1.02870 0.11470 0.35400
C15 C 0.8359(4) 0.0945(4) 0.2418(3)
H17 H 0.79880 0.06910 0.20150
C16 C 1.1039(4) 0.5418(3) 0.4158(2)
H18 H 1.03390 0.57500 0.39620
H19 H 1.13310 0.58100 0.45550
C17 C 1.2571(4) 0.4685(3) 0.3462(2)
H20 H 1.25570 0.40110 0.36140
C18 C 1.2975(4) 0.6031(3) 0.2954(2)
H21 H 1.33360 0.64840 0.26740
N1 N 1.0393(3) 0.1656(3) 0.72177(18)
N2 N 1.0799(3) 0.3101(3) 0.66817(19)
N3 N 1.1231(3) 0.2287(3) 0.63559(19)
N4 N 0.8694(3) 0.1756(3) 0.3348(2)
N5 N 0.7888(4) 0.1622(4) 0.2820(2)
N6 N 0.9429(3) 0.0674(3) 0.2662(2)
N7 N 1.1902(3) 0.5422(2) 0.36547(18)
N8 N 1.3266(3) 0.5043(3) 0.30196(17)
N9 N 1.2135(3) 0.6299(2) 0.3323(2)
O1 O 1.1045(3) 0.1598(2) 0.98010(16)
O2 O 1.0016(3) 0.1701(2) 1.09875(16)
O3 O 0.8947(2) 0.26731(19) 0.98639(13)
O4 O 1.1682(2) 0.3205(2) 1.06971(14)
O5 O 0.9207(2) 0.2291(2) 0.84854(14)
O6 O 0.7211(2) 0.3098(2) 0.88620(16)
O7 O 1.0575(2) 0.37319(19) 0.94080(16)
O8 O 0.8892(2) 0.44037(19) 0.84128(13)
O9 O 0.8398(3) 0.4729(2) 0.96582(15)
O10 O 1.3164(3) 0.4478(2) 1.15059(16)
O11 O 0.9738(2) 0.4077(2) 1.08965(16)
O12 O 1.1379(3) 0.3605(2) 1.20835(15)
O13 O 1.2473(3) 0.4967(2) 0.90595(17)
Zn1 Zn 0.97067(5) 0.05659(4) 0.77388(3)
Mo1 Mo 1.04162(4) 0.24345(3) 1.03232(2)
Mo2 Mo 0.86719(3) 0.32502(3) 0.896517(19)
Mo3 Mo 1.12245(3) 0.49697(3) 0.946675(19)
Mo4 Mo 1.17013(4) 0.42575(3) 1.13833(2)
O14 O 1.0641(3) 0.0381(3) 0.86650(19)
H22 H 1.113(3) 0.087(3) 0.8728(16)
H23 H 1.016(4) -0.003(3) 0.877(3)
N6B N 1.0571(3) -0.0674(3) 0.7338(2)
N8C N 0.8266(3) -0.0043(3) 0.80196(17)
O1B O 0.8955(3) 0.8402(2) 1.01990(16)
O2B O 0.9984(3) 0.8299(2) 0.90125(16)
O3B O 1.1053(2) 0.73269(19) 1.01361(13)
O4B O 0.8318(2) 0.6795(2) 0.93029(14)
O5B O 1.0793(2) 0.7709(2) 1.15146(14)
O6B O 1.2789(2) 0.6902(2) 1.11380(16)
O7B O 0.9425(2) 0.62681(19) 1.05920(16)
O8B O 1.1108(2) 0.55963(19) 1.15872(13)
O9B O 1.1602(3) 0.5271(2) 1.03418(15)
O10B O 0.6836(3) 0.5522(2) 0.84941(16)
O11B O 1.0262(2) 0.5923(2) 0.91035(16)
O12B O 0.8621(3) 0.6395(2) 0.79165(15)
O13B O 0.7527(3) 0.5033(2) 1.09405(17)
Zn1B Zn 1.02933(5) -0.05659(4) 0.22612(3)
Zn1C Zn 1.47067(5) 0.44341(4) 0.27388(3)
Mo1B Mo 0.95838(4) 0.75655(3) 0.96768(2)
Mo2B Mo 1.13281(3) 0.67498(3) 1.103483(19)
Mo3B Mo 0.87755(3) 0.50303(3) 1.053325(19)
Mo4B Mo 0.82987(4) 0.57425(3) 0.86167(2)
#END
