
#######################################################################
#
#                 Cambridge Crystallographic Data Centre
#                                CCDC
#
#######################################################################
#
# If this CIF has been generated from an entry in the Cambridge
# Structural Database, then it will include bibliographic, chemical,
# crystal, experimental, refinement or atomic coordinate data resulting
# from the CCDC's data processing and validation procedures.
#
#######################################################################

data_CSD_CIF_ILECIN
_audit_creation_date 2016-05-06
_audit_creation_method CSD-ConQuest-V1
_database_code_CSD ILECIN
_database_code_depnum_ccdc_archive 'CCDC 1455552'
_chemical_formula_sum 'C12 H16 Mg2 N4 O12'
_chemical_formula_moiety
;
(C6 H6 Mg2 O12 2-)n,2n(C3 H5 N2 1+)
;
_journal_coden_Cambridge 1326
_journal_volume 18
_journal_year 2016
_journal_page_first 13993
_journal_name_full 'Phys.Chem.Chem.Phys.(PCCP) '
loop_
_publ_author_name
"M.Maczka"
"N.L.M.Costa"
"A.Gagor"
"W.Paraguassu"
"A.Sieradzki"
"J.Hanuza"
_chemical_name_systematic
;
catena-[bis(1H-imidazol-3-ium) hexakis(\m-formato)-di-magnesium]
;
_cell_volume   1849.639
_exptl_crystal_density_diffrn 1.641
_exptl_crystal_description 'prism'
_diffrn_ambient_temperature 296
#These two values have been output from a single CSD field.
_refine_ls_R_factor_gt 0.0458
_refine_ls_wR_factor_gt 0.0458
_symmetry_cell_setting monoclinic
_symmetry_space_group_name_H-M 'P 21/n'
_symmetry_Int_Tables_number 14
loop_
_symmetry_equiv_pos_site_id
_symmetry_equiv_pos_as_xyz
1 x,y,z
2 1/2-x,1/2+y,1/2-z
3 -x,-y,-z
4 -1/2+x,-1/2-y,-1/2+z
_cell_length_a 12.1246(4)
_cell_length_b 12.2087(5)
_cell_length_c 12.4991(4)
_cell_angle_alpha 90
_cell_angle_beta 91.394(3)
_cell_angle_gamma 90
_cell_formula_units_Z 4
loop_
_atom_type_symbol
_atom_type_radius_bond
C 0.68
H 0.23
Mg 1.41
N 0.68
O 0.68
loop_
_atom_site_label
_atom_site_type_symbol
_atom_site_fract_x
_atom_site_fract_y
_atom_site_fract_z
Mg1 Mg 0.25858(6) 0.24887(6) -0.00578(6)
Mg2 Mg -0.24143(6) 0.25082(6) -0.00482(6)
O1 O -0.08067(14) 0.19522(14) 0.02680(14)
O2 O 0.41881(14) 0.29986(15) -0.01399(16)
O3 O 0.20258(15) 0.40913(14) -0.01649(14)
O4 O 0.31446(15) 0.08904(14) 0.00123(14)
O5 O 0.28581(16) 0.26378(16) 0.15881(13)
O6 O 0.10070(15) 0.19345(15) 0.02080(15)
O7 O -0.26486(17) 0.24065(16) 0.15742(14)
O8 O 0.59906(15) 0.30154(15) -0.02849(17)
O9 O 0.28891(17) 0.25709(16) 0.33416(14)
O10 O 0.19079(15) 0.58928(14) -0.00930(14)
O11 O 0.29248(16) -0.08905(14) 0.01761(15)
O12 O -0.27120(17) 0.25011(16) 0.33198(14)
C1 C 0.0094(2) 0.2256(2) -0.0088(2)
H1 H 0.00710 0.27770 -0.06310
C2 C -0.2441(2) 0.2825(2) 0.2436(2)
H2 H -0.20280 0.34670 0.24250
C3 C 0.2732(2) -0.0008(2) -0.0239(2)
H3 H 0.22220 -0.00060 -0.08060
C4 C 0.2327(2) 0.5010(2) 0.0164(2)
H4 H 0.29230 0.50310 0.06470
C5 C 0.2562(2) 0.2270(2) 0.2454(2)
H5 H 0.20400 0.17120 0.24310
C6 C 0.5066(2) 0.2625(2) -0.0407(2)
H6 H 0.50320 0.19500 -0.07500
N1 N -0.5497(2) 0.0435(2) 0.17499(19)
H7 H -0.58250 0.05910 0.11520
C7 C -0.5777(3) -0.0384(3) 0.2401(3)
H8 H -0.63510 -0.08790 0.22900
C8 C -0.5077(3) -0.0354(3) 0.3238(3)
H9 H -0.50660 -0.08190 0.38270
N2 N -0.4387(2) 0.0491(2) 0.3056(2)
H10 H -0.38500 0.06880 0.34740
C9 C -0.4657(3) 0.0957(3) 0.2157(3)
H11 H -0.43090 0.15590 0.18570
N3 N 0.5480(2) 0.5783(2) -0.2181(2)
H12 H 0.59170 0.63030 -0.19790
C10 C 0.5544(3) 0.5228(3) -0.3078(3)
H13 H 0.60620 0.53280 -0.36060
N4 N 0.4735(2) 0.4499(2) -0.3090(2)
H14 H 0.45990 0.40320 -0.35910
C11 C 0.4168(3) 0.4611(3) -0.2195(3)
H15 H 0.35590 0.41970 -0.20040
C12 C 0.4619(3) 0.5406(3) -0.1632(2)
H16 H 0.43870 0.56630 -0.09740
Mg1C Mg -0.24142(6) 0.25113(6) 0.49422(6)
Mg2* Mg 0.75857(6) 0.25082(6) -0.00482(6)
Mg2B Mg 0.24143(6) -0.25082(6) 0.00482(6)
Mg2B* Mg 0.24143(6) 0.74918(6) 0.00482(6)
Mg2C Mg 0.25857(6) 0.24918(6) 0.49518(6)
O8* O -0.40094(15) 0.30154(15) -0.02849(17)
O9C O -0.21109(17) 0.24291(16) -0.16584(14)
O10B O -0.19079(15) 0.41072(14) 0.00930(14)
O11B O -0.29248(16) 0.08905(14) -0.01761(15)
O12C O 0.22880(17) 0.24989(16) -0.16802(14)
#END
