
#######################################################################
#
#                 Cambridge Crystallographic Data Centre
#                                CCDC
#
#######################################################################
#
# If this CIF has been generated from an entry in the Cambridge
# Structural Database, then it will include bibliographic, chemical,
# crystal, experimental, refinement or atomic coordinate data resulting
# from the CCDC's data processing and validation procedures.
#
#######################################################################

data_CSD_CIF_ILOSOS
_audit_creation_date 2011-05-12
_audit_creation_method CSD-ConQuest-V1
_database_code_CSD ILOSOS
_database_code_depnum_ccdc_archive 'CCDC 763406'
_chemical_formula_sum 'C36 H64 Cu4 N32 O40 S8 Si1 W12'
_chemical_formula_moiety
;
(C36 H64 Cu4 N32 S8 4+)n,n(O40 Si1 W12 4-)
;
_journal_coden_Cambridge 9
_journal_volume 49
_journal_year 2010
_journal_page_first 10299
_journal_name_full 'Inorg.Chem. '
loop_
_publ_author_name
"Xiuli Wang"
"Hailiang Hu"
"Aixiang Tian"
"Hongyan Lin"
"Jin Li"
_chemical_name_systematic
;
catena-(tetrakis(\m~4~-1-methyl-5-((5-[(2-methyl-2H-tetrazol-5-yl)sulfanyl]pen
tyl)sulfanyl)-1H-tetrazole)-tetra-copper(i) 
(\m~12~-silicato)-tetracosakis(\m~2~-oxo)-dodecaoxo-dodeca-tungsten)
;
_cell_volume   4412.344
_exptl_crystal_density_diffrn 3.259
_diffrn_ambient_temperature 296
_refine_special_details
;
O10,O7,O8,O9 disordered by symmetry over two sites with occupancy 0.50.

;
#These two values have been output from a single CSD field.
_refine_ls_R_factor_gt 0.0466
_refine_ls_wR_factor_gt 0.0466
_symmetry_cell_setting monoclinic
_symmetry_space_group_name_H-M 'P 21/c'
_symmetry_Int_Tables_number 14
loop_
_symmetry_equiv_pos_site_id
_symmetry_equiv_pos_as_xyz
1 x,y,z
2 -x,1/2+y,1/2-z
3 -x,-y,-z
4 x,-1/2-y,-1/2+z
_cell_length_a 13.294(2)
_cell_length_b 25.171(4)
_cell_length_c 13.626(2)
_cell_angle_alpha 90
_cell_angle_beta 104.600(2)
_cell_angle_gamma 90
_cell_formula_units_Z 2
loop_
_atom_type_symbol
_atom_type_radius_bond
C 0.68
H 0.23
Cu 1.32
N 0.68
O 0.68
S 1.02
Si 1.20
W 1.37
loop_
_atom_site_label
_atom_site_type_symbol
_atom_site_fract_x
_atom_site_fract_y
_atom_site_fract_z
Cu1 Cu -0.45825(15) 0.24566(8) -0.28299(12)
Cu2 Cu -0.43059(16) 0.20819(8) -0.02304(13)
Si1 Si -1.00000 0.00000 -0.50000
W1 W -0.82051(5) 0.09214(3) -0.55331(5)
W2 W -1.01848(5) 0.13585(2) -0.44074(4)
W3 W -1.18944(5) -0.05772(3) -0.70046(4)
W4 W -1.20146(5) 0.04387(3) -0.39367(5)
W5 W -1.20354(4) 0.07870(2) -0.64532(4)
W6 W -1.00583(5) 0.03144(3) -0.75388(4)
S1 S -0.5391(3) 0.38839(17) -0.2892(3)
S2 S -0.5383(4) 0.56345(18) -0.4685(3)
S3 S -0.1924(5) 0.2402(2) -0.1302(3)
S4 S 0.1347(4) 0.2360(3) -0.0575(6)
O1 O -0.7327(8) 0.1361(4) -0.5747(8)
O2 O -1.0269(10) 0.1992(4) -0.4100(8)
O3 O -1.2785(8) -0.0845(5) -0.7941(8)
O4 O -1.2965(8) 0.0655(5) -0.3414(7)
O5 O -1.3000(8) 0.1159(5) -0.7133(9)
O6 O -1.0087(9) 0.0464(5) -0.8726(7)
O7 O -1.0736(12) 0.0103(7) -0.6075(12)
O8 O -0.9336(13) 0.0531(8) -0.4590(12)
O9 O -1.0701(12) -0.0152(8) -0.4209(12)
O10 O -0.9197(14) -0.0476(7) -0.4995(12)
O11 O -0.7543(11) 0.0261(5) -0.5710(11)
O12 O -1.1123(10) 0.0763(5) -0.7302(11)
O13 O -0.7656(10) 0.0792(6) -0.4131(9)
O14 O -0.9118(9) 0.1128(6) -0.3302(8)
O15 O -1.1013(9) -0.0243(5) -0.7727(11)
O16 O -0.9102(10) 0.0828(5) -0.6832(11)
O17 O -1.2531(9) 0.0099(5) -0.6948(10)
O18 O -1.2542(10) 0.0622(6) -0.5306(8)
O19 O -1.1189(9) 0.1309(6) -0.5670(7)
O20 O -1.1046(11) 0.0174(5) -0.2785(11)
O21 O -0.916(1) 0.1378(7) -0.5160(9)
O22 O -1.1158(10) 0.1050(6) -0.3799(8)
N1 N -0.4767(10) 0.2993(5) -0.1769(8)
N2 N -0.4446(10) 0.2859(5) -0.0773(8)
N3 N -0.4505(10) 0.3275(5) -0.0204(9)
N4 N -0.4894(9) 0.3672(5) -0.0867(8)
N5 N -0.5448(9) 0.6555(5) -0.3635(8)
N6 N -0.5280(9) 0.6706(5) -0.2651(8)
N7 N -0.5046(9) 0.6299(5) -0.2064(8)
N8 N -0.5050(8) 0.5877(4) -0.2673(8)
N9 N -0.3251(10) 0.2653(5) -0.3149(8)
N10 N -0.3144(10) 0.2908(5) -0.3994(8)
N11 N -0.2213(10) 0.3069(5) -0.3915(9)
N12 N -0.1675(9) 0.2910(5) -0.2984(9)
N13 N 0.3357(10) 0.2110(6) -0.0507(10)
N14 N 0.4288(10) 0.2168(5) 0.0145(9)
N15 N 0.4189(9) 0.2437(5) 0.0942(8)
N16 N 0.3164(10) 0.2522(5) 0.0804(9)
C1 C -0.5022(11) 0.3495(6) -0.181(1)
C2 C -0.6787(13) 0.3860(8) -0.3130(13)
H1 H -0.69760 0.37340 -0.25280
H2 H -0.70640 0.36120 -0.36760
C3 C -0.7247(13) 0.4393(8) -0.3407(14)
H3 H -0.79980 0.43570 -0.36000
H4 H -0.70690 0.46180 -0.28090
C4 C -0.6907(14) 0.4681(7) -0.4279(13)
H5 H -0.61540 0.46850 -0.41240
H6 H -0.71580 0.44800 -0.49000
C5 C -0.7312(13) 0.5262(7) -0.4461(14)
H7 H -0.71820 0.54470 -0.38170
H8 H -0.80560 0.52580 -0.47540
C6 C -0.6792(17) 0.5554(7) -0.5155(12)
H9 H -0.69320 0.53660 -0.57960
H10 H -0.71050 0.59030 -0.52850
C7 C -0.5322(11) 0.6036(6) -0.3641(10)
C8 C -0.5044(12) 0.4188(7) -0.0470(11)
H11 H -0.56210 0.43620 -0.09230
H12 H -0.51830 0.41490 0.01840
H13 H -0.44270 0.43980 -0.04070
C9 C -0.4827(12) 0.5357(6) -0.2243(11)
H14 H -0.46290 0.51280 -0.27250
H15 H -0.42690 0.53790 -0.16400
H16 H -0.54350 0.52170 -0.20760
C10 C -0.2307(13) 0.2658(6) -0.2530(11)
C11 C -0.2087(18) 0.1685(9) -0.159(2)
H17 H -0.25020 0.15290 -0.11750
H18 H -0.24690 0.16430 -0.22960
C12 C -0.1214(17) 0.1423(10) -0.145(2)
H19 H -0.08900 0.15270 -0.19790
H20 H -0.13920 0.10500 -0.15520
C13 C -0.0388(16) 0.1462(9) -0.0455(14)
H21 H -0.05500 0.12180 0.00340
H22 H -0.03800 0.18190 -0.01860
C14 C 0.0764(19) 0.1319(11) -0.0630(19)
H23 H 0.12580 0.12850 0.00260
H24 H 0.07260 0.09780 -0.09720
C15 C 0.1130(19) 0.1710(11) -0.1213(18)
H25 H 0.06270 0.17500 -0.18620
H26 H 0.17770 0.15880 -0.13420
C16 C 0.2681(13) 0.2320(7) -0.0092(14)
C17 C -0.0532(11) 0.3018(7) -0.2646(12)
H27 H -0.02960 0.29640 -0.19280
H28 H -0.03980 0.33780 -0.28060
H29 H -0.01690 0.27810 -0.29900
C18 C 0.2771(14) 0.2815(8) 0.1543(12)
H30 H 0.21120 0.26710 0.15760
H31 H 0.32540 0.27870 0.21960
H32 H 0.26870 0.31820 0.13460
Cu1A Cu -0.54175(15) -0.25434(8) -0.21701(12)
Cu1A* Cu -0.54175(15) 0.74566(8) -0.21701(12)
Cu1C Cu 0.54175(15) 0.25434(8) 0.21701(12)
Cu1C* Cu -1.45825(15) 0.25434(8) -0.78299(12)
Cu2A Cu -0.56941(16) -0.29181(8) -0.47696(13)
Cu2A* Cu -0.56941(16) 0.70819(8) -0.47696(13)
Cu2C Cu -0.43059(16) 0.29181(8) -0.52304(13)
Cu2* Cu 0.56941(16) 0.20819(8) -0.02304(13)
Cu2** Cu -1.43059(16) 0.20819(8) -1.02304(13)
W1B W -1.17949(5) -0.09214(3) -0.44669(5)
W2B W -0.98152(5) -0.13585(2) -0.55926(4)
W3B W -0.81056(5) 0.05772(3) -0.29954(4)
W4B W -0.79854(5) -0.04387(3) -0.60633(5)
W5B W -0.79646(4) -0.07870(2) -0.35468(4)
W6B W -0.99417(5) -0.03144(3) -0.24612(4)
S1A S -0.4609(3) -0.11161(17) -0.2108(3)
S2A S -0.4617(4) 0.06345(18) -0.0315(3)
S3C S -1.1924(5) 0.2598(2) -0.6302(3)
S4C S -0.8653(4) 0.2640(3) -0.5575(6)
O1B O -1.2673(8) -0.1361(4) -0.4253(8)
O2B O -0.9731(10) -0.1992(4) -0.5900(8)
O3B O -0.7215(8) 0.0845(5) -0.2059(8)
O4B O -0.7035(8) -0.0655(5) -0.6586(7)
O5B O -0.7000(8) -0.1159(5) -0.2867(9)
O6B O -0.9913(9) -0.0464(5) -0.1274(7)
O7B O -0.9264(12) -0.0103(7) -0.3925(12)
O8B O -1.0664(13) -0.0531(8) -0.5410(12)
O9B O -0.9299(12) 0.0152(8) -0.5791(12)
O10B O -1.0803(14) 0.0476(7) -0.5005(12)
O11B O -1.2457(11) -0.0261(5) -0.4290(11)
O12B O -0.8877(10) -0.0763(5) -0.2698(11)
O13B O -1.2344(10) -0.0792(6) -0.5869(9)
O14B O -1.0882(9) -0.1128(6) -0.6698(8)
O15B O -0.8987(9) 0.0243(5) -0.2273(11)
O16B O -1.0898(10) -0.0828(5) -0.3168(11)
O17B O -0.7469(9) -0.0099(5) -0.3052(10)
O18B O -0.7458(10) -0.0622(6) -0.4694(8)
O19B O -0.8811(9) -0.1309(6) -0.4330(7)
O20B O -0.8954(11) -0.0174(5) -0.7215(11)
O21B O -1.084(1) -0.1378(7) -0.4840(9)
O22B O -0.8842(10) -0.1050(6) -0.6201(8)
N1A N -0.5233(10) -0.2007(5) -0.3231(8)
N2A N -0.5554(10) -0.2141(5) -0.4227(8)
N3A N -0.5495(10) -0.1725(5) -0.4796(9)
N4A N -0.5106(9) -0.1328(5) -0.4133(8)
N5A N -0.4552(9) 0.1555(5) -0.1365(8)
N5* N -0.5448(9) -0.3445(5) -0.3635(8)
N6A N -0.4720(9) 0.1706(5) -0.2349(8)
N6* N -0.5280(9) -0.3294(5) -0.2651(8)
N7A N -0.4954(9) 0.1299(5) -0.2936(8)
N8A N -0.4950(8) 0.0877(4) -0.2327(8)
N9C N -1.3251(10) 0.2347(5) -0.8149(8)
N9A N -0.6749(10) -0.2347(5) -0.1851(8)
N10C N -1.3144(10) 0.2092(5) -0.8994(8)
N10C* N -0.3144(10) 0.2092(5) 0.1006(8)
N10B N -0.6856(10) -0.2908(5) -0.6006(8)
N11C N -1.2213(10) 0.1931(5) -0.8915(9)
N12C N -1.1675(9) 0.2090(5) -0.7984(9)
N13C N -0.6643(10) 0.2890(6) -0.5507(10)
N14C N -0.5712(10) 0.2832(5) -0.4855(9)
N14* N -0.5712(10) 0.2168(5) 0.0145(9)
N14A N -0.4288(10) -0.2832(5) -0.5145(9)
N15C N -0.5811(9) 0.2563(5) -0.4058(8)
N15B N -0.4189(9) -0.2437(5) -0.0942(8)
N16C N -0.6836(10) 0.2478(5) -0.4196(9)
C1A C -0.4978(11) -0.1505(6) -0.319(1)
C2A C -0.3213(13) -0.1140(8) -0.1870(13)
H1A H -0.30240 -0.12660 -0.24720
H2A H -0.29360 -0.13880 -0.13240
C3A C -0.2753(13) -0.0607(8) -0.1593(14)
H3A H -0.20020 -0.06430 -0.14000
H4A H -0.29310 -0.03820 -0.21910
C4A C -0.3093(14) -0.0319(7) -0.0721(13)
H5A H -0.38460 -0.03150 -0.08760
H6A H -0.28420 -0.05200 -0.01000
C5A C -0.2688(13) 0.0262(7) -0.0539(14)
H7A H -0.28180 0.04470 -0.11830
H8A H -0.19440 0.02580 -0.02460
C6A C -0.3208(17) 0.0554(7) 0.0155(12)
H9A H -0.30680 0.03660 0.07960
H10A H -0.28950 0.09030 0.02850
C7A C -0.4678(11) 0.1036(6) -0.1359(10)
C8A C -0.4956(12) -0.0812(7) -0.4530(11)
H11A H -0.43790 -0.06380 -0.40770
H12A H -0.48170 -0.08510 -0.51840
H13A H -0.55730 -0.06020 -0.45930
C9A C -0.5173(12) 0.0357(6) -0.2757(11)
H14A H -0.53710 0.01280 -0.22750
H15A H -0.57310 0.03790 -0.33600
H16A H -0.45650 0.02170 -0.29240
C10C C -1.2307(13) 0.2342(6) -0.7530(11)
C11C C -1.2087(18) 0.3315(9) -0.659(2)
H17C H -1.25020 0.34710 -0.61750
H18C H -1.24690 0.33570 -0.72960
C12C C -1.1214(17) 0.3577(10) -0.645(2)
H19C H -1.08900 0.34730 -0.69790
H20C H -1.13920 0.39500 -0.65520
C13C C -1.0388(16) 0.3538(9) -0.5455(14)
H21C H -1.05500 0.37820 -0.49660
H22C H -1.03800 0.31810 -0.51860
C14C C -0.9236(19) 0.3681(11) -0.5630(19)
H23C H -0.87420 0.37150 -0.49740
H24C H -0.92740 0.40220 -0.59720
C15C C -0.8870(19) 0.3290(11) -0.6213(18)
H25C H -0.93730 0.32500 -0.68620
H26C H -0.82230 0.34120 -0.63420
C16C C -0.7319(13) 0.2680(7) -0.5092(14)
C17C C -1.0532(11) 0.1982(7) -0.7646(12)
H27C H -1.02960 0.20360 -0.69280
H28C H -1.03980 0.16220 -0.78060
H29C H -1.01690 0.22190 -0.79900
C18C C -0.7229(14) 0.2185(8) -0.3457(12)
H30C H -0.78880 0.23290 -0.34240
H31C H -0.67460 0.22130 -0.28040
H32C H -0.73130 0.18180 -0.36540
#END
