
#######################################################################
#
#                 Cambridge Crystallographic Data Centre
#                                CCDC
#
#######################################################################
#
# If this CIF has been generated from an entry in the Cambridge
# Structural Database, then it will include bibliographic, chemical,
# crystal, experimental, refinement or atomic coordinate data resulting
# from the CCDC's data processing and validation procedures.
#
#######################################################################

data_CSD_CIF_ILOTIN05
_audit_creation_date 2017-01-30
_audit_creation_method CSD-ConQuest-V1
_database_code_CSD ILOTIN05
_database_code_depnum_ccdc_archive 'CCDC 1530287'
_chemical_formula_sum 'C8 H14 Co1 Fe1 N1 O12'
_chemical_formula_moiety
;
C2 H8 N1 1+,n(C6 H6 Co1 Fe1 O12 1-)
;
_journal_coden_Cambridge 9
_journal_volume 56
_journal_year 2017
_journal_page_first 197
_journal_name_full 'Inorg.Chem. '
loop_
_publ_author_name
"L.Mazzuca"
"L.Canadillas-Delgado"
"J.Alberto Rodriguez-Velamazan"
"O.Fabelo"
"M.Scarrozza"
"A.Stroppa"
"SilviaPicozzi"
"Jiong-Peng Zhao"
"Xian-He Bu"
"J.Rodriguez-Carvajal"
_chemical_name_systematic
;
catena-[dimethylammonium hexakis(\m-formato)-cobalt(ii)-iron(iii)]
;
_cell_volume    799.013
_exptl_crystal_colour 'red'
_exptl_crystal_density_diffrn 1.791
_exptl_crystal_description 'prism'
_diffrn_ambient_temperature 75
_diffrn_radiation_probe x-ray
_diffrn_source synchrotron
_refine_special_details
;
N1 disordered by symmetry over three configurations with occupancy 0.334.

;
#These two values have been output from a single CSD field.
_refine_ls_R_factor_gt 0.0321
_refine_ls_wR_factor_gt 0.0321
_symmetry_cell_setting hexagonal
_symmetry_space_group_name_H-M 'P -3 1 c'
_symmetry_Int_Tables_number 163
loop_
_symmetry_equiv_pos_site_id
_symmetry_equiv_pos_as_xyz
1 x,y,z
2 -y,x-y,z
3 -x+y,-x,z
4 -y,-x,1/2-z
5 -x+y,y,1/2-z
6 x,x-y,1/2-z
7 -x,-y,-z
8 y,-x+y,-z
9 x-y,x,-z
10 y,x,-1/2+z
11 x-y,-y,-1/2+z
12 -x,-x+y,-1/2+z
_cell_length_a 8.2127(1)
_cell_length_b 8.2127(1)
_cell_length_c 13.6789(2)
_cell_angle_alpha 90
_cell_angle_beta 90
_cell_angle_gamma 120
_cell_formula_units_Z 2
loop_
_atom_type_symbol
_atom_type_radius_bond
C 0.68
H 0.23
Co 1.26
Fe 1.52
N 0.68
O 0.68
loop_
_atom_site_label
_atom_site_type_symbol
_atom_site_fract_x
_atom_site_fract_y
_atom_site_fract_z
Co1 Co 0.66670 0.33330 0.25000
Fe1 Fe 1.00000 0.00000 0.00000
O1 O 0.88329(13) 0.34337(12) 0.16805(8)
O2 O 1.01288(11) 0.20887(12) 0.08292(6)
C1 C 0.87328(16) 0.20974(16) 0.12048(9)
H1 H 0.75540 0.10380 0.11210
N1 N 1.2780(5) 0.556(1) 0.25000
C2 C 1.33330 0.66670 0.1533(15)
O1A O 0.65663(13) -0.46008(12) 0.16805(8)
O2A O 0.79113(11) -0.19599(12) 0.08292(6)
C1A C 0.79026(16) -0.33646(16) 0.12048(9)
H1A H 0.89620 -0.34840 0.11210
O1A* O 0.65663(13) 0.53992(12) 0.16805(8)
O2A* O 0.79113(11) 0.80401(12) 0.08292(6)
C1A* C 0.79026(16) 0.66354(16) 0.12048(9)
H1A* H 0.89620 0.65160 0.11210
O1B O 0.46008(13) 0.11671(12) 0.16805(8)
O2B O 0.19599(11) -0.01288(12) 0.08292(6)
C1B C 0.33646(16) 0.12672(16) 0.12048(9)
H1B H 0.34840 0.24460 0.11210
O1B* O 1.46008(13) 0.11671(12) 0.16805(8)
O2B* O 1.19599(11) -0.01288(12) 0.08292(6)
C1B* C 1.33646(16) 0.12672(16) 0.12048(9)
H1B* H 1.34840 0.24460 0.11210
O1C O 0.65663(13) 0.11671(12) 0.33195(8)
O2C O 0.79113(11) -0.01288(12) 0.41708(6)
C1C C 0.79026(16) 0.12672(16) 0.37952(9)
H1C H 0.89620 0.24460 0.38790
Co1* Co 0.66670 -0.66670 0.25000
Co1** Co 1.66670 0.33330 0.25000
Fe1* Fe 0.00000 0.00000 0.00000
Fe1** Fe 1.00000 1.00000 0.00000
Fe1C Fe 1.00000 0.00000 0.50000
O1D O 0.46008(13) 0.34337(12) 0.33195(8)
O1E O 0.88329(13) 0.53992(12) 0.33195(8)
O2F O 0.98712(11) -0.20887(12) -0.08292(6)
O2G O 1.20887(11) 0.19599(12) -0.08292(6)
O2H O 0.80401(11) 0.01288(12) -0.08292(6)
N1A N 1.4440(5) 0.722(1) 0.25000
N1B N 1.2780(5) 0.722(1) 0.25000
C2C C 1.33330 0.66670 0.3467(15)
#END
