
#######################################################################
#
#                 Cambridge Crystallographic Data Centre
#                                CCDC
#
#######################################################################
#
# If this CIF has been generated from an entry in the Cambridge
# Structural Database, then it will include bibliographic, chemical,
# crystal, experimental, refinement or atomic coordinate data resulting
# from the CCDC's data processing and validation procedures.
#
#######################################################################

data_CSD_CIF_IMARET
_audit_creation_date 2004-03-03
_audit_creation_method CSD-ConQuest-V1
_database_code_CSD IMARET
_database_code_depnum_ccdc_archive 'CCDC 224266'
_chemical_formula_sum 'C45 H48 Mo10 N3 O53 P10'
_chemical_formula_moiety
;
(C5 H6 N1 1+)3n,n(C30 H24 Mo10 O50 P10 3-),3n(H2 O1)
;
_journal_coden_Cambridge 9
_journal_volume 42
_journal_year 2003
_journal_page_first 7304
_journal_name_full 'Inorg.Chem. '
loop_
_publ_author_name
"N.Calin"
"S.C.Sevov"
_chemical_name_systematic
;
catena-(tripyridinium 
tetrakis(\m~5~-o-phenylenediphosphonato)-(\m~2~-dihydrogen 
o-phenylenephosphonato)-octakis(\m~2~-oxo)-dihydroxy-decaoxo-deca-molybdenum(v
,vi) trihydrate)
;
_cell_volume   8032.836
_exptl_crystal_colour 'purple'
_exptl_crystal_density_diffrn 2.252
_exptl_crystal_description 'octahedron'
_diffrn_ambient_temperature 100
#These two values have been output from a single CSD field.
_refine_ls_R_factor_gt 0.0511
_refine_ls_wR_factor_gt 0.0511
_symmetry_cell_setting orthorhombic
_symmetry_space_group_name_H-M 'P c a 21'
_symmetry_Int_Tables_number 29
loop_
_symmetry_equiv_pos_site_id
_symmetry_equiv_pos_as_xyz
1 x,y,z
2 -x,-y,1/2+z
3 1/2+x,-y,z
4 1/2-x,y,1/2+z
_cell_length_a 19.0574(15)
_cell_length_b 20.4023(16)
_cell_length_c 20.6598(16)
_cell_angle_alpha 90
_cell_angle_beta 90
_cell_angle_gamma 90
_cell_formula_units_Z 4
loop_
_atom_type_symbol
_atom_type_radius_bond
C 0.68
H 0.23
Mo 1.38
N 0.68
O 0.68
P 1.05
loop_
_atom_site_label
_atom_site_type_symbol
_atom_site_fract_x
_atom_site_fract_y
_atom_site_fract_z
Mo1 Mo 0.08643(4) 0.39085(3) 0.62142(4)
Mo2 Mo -0.07291(4) 0.14897(3) 0.61311(4)
Mo3 Mo 0.08888(4) 0.09234(3) 0.69494(4)
Mo4 Mo -0.06950(4) 0.30445(3) 0.56665(3)
Mo5 Mo 0.09970(4) 0.41123(3) 0.78433(3)
Mo6 Mo -0.06102(4) 0.20466(3) 0.91928(4)
Mo7 Mo -0.05991(4) 0.35947(3) 0.87353(3)
Mo8 Mo 0.09145(4) 0.11326(3) 0.85818(4)
Mo9 Mo -0.07969(4) 0.15514(4) 0.32136(4)
Mo10 Mo 0.05967(4) 0.67962(4) 0.65261(4)
P1 P 0.08793(11) 0.22982(9) 0.62139(11)
P2 P 0.01526(12) 0.5175(1) 0.69569(12)
P3 P 0.00897(12) -0.0095(1) 0.79195(12)
P4 P 0.09823(11) 0.27316(10) 0.86071(11)
P5 P -0.00045(13) 0.18996(10) 0.47425(11)
P6 P -0.06364(11) 0.36420(9) 0.71732(10)
P7 P 0.01693(13) 0.31439(11) 1.00866(11)
P8 P -0.06790(11) 0.14192(10) 0.77130(11)
P9 P -0.09816(13) 0.31335(11) 0.31806(12)
P10 P 0.05470(12) 0.25985(11) 0.26203(11)
O1 O -0.0160(3) 0.3663(3) 0.9641(3)
O2 O 0.1114(3) 0.1868(3) 0.6779(3)
O3 O 0.0571(3) 0.4960(3) 0.7568(3)
O4 O 0.0081(3) 0.2328(3) 0.6155(3)
O5 O 0.0061(3) 0.1016(3) 0.6415(3)
O6 O 0.1481(3) 0.0582(3) 0.6447(3)
O7 O 0.1206(3) 0.2965(3) 0.6310(3)
O8 O -0.0991(3) 0.3144(3) 0.2432(3)
O9 O 0.1405(3) 0.4060(3) 0.7029(3)
O10 O -0.0920(3) 0.1750(3) 0.7074(3)
O11 O -0.0123(4) 0.1710(3) 0.4041(3)
O12 O 0.1366(3) 0.0950(3) 0.7783(3)
O13 O -0.1364(3) 0.0936(3) 0.6070(3)
O14 O 0.0192(3) 0.2737(3) 0.8691(3)
O15 O 0.0371(3) 0.0284(3) 0.8508(3)
O16 O -0.1161(3) 0.1606(3) 0.9642(4)
O17 O 0.1400(3) 0.4186(3) 0.5632(3)
O18 O -0.1086(3) 0.2854(3) 0.9065(3)
O19 O 0.0062(3) 0.2045(3) 0.2780(3)
O20 O 0.0149(3) 0.3717(3) 0.7101(3)
O21 O 0.0065(3) 0.3613(3) 0.5730(3)
O22 O -0.1184(3) 0.2238(3) 0.5846(3)
O23 O -0.1291(3) 0.3464(3) 0.5231(3)
O24 O 0.0165(3) 0.1459(3) 0.9093(3)
O25 O 0.0137(3) -0.0815(3) 0.8059(3)
O26 O -0.1380(4) 0.1166(3) 0.3704(4)
O27 O -0.0940(3) 0.1823(3) 0.8280(3)
O28 O 0.1479(3) 0.0847(3) 0.9134(3)
O29 O 0.0377(3) 0.4791(3) 0.6352(3)
O30 O -0.0119(4) 0.2462(3) 0.9980(3)
O31 O 0.1222(3) 0.3166(3) 0.8029(3)
O32 O 0.0239(3) 0.4035(3) 0.8415(3)
O33 O 0.1265(3) 0.2052(3) 0.8468(3)
O34 O -0.0832(3) 0.3304(3) 0.7815(3)
O35 O 0.0454(3) 0.0070(3) 0.7280(3)
O36 O 0.0769(4) 0.7578(3) 0.6330(4)
O37 O -0.0969(3) 0.3271(3) 0.6601(3)
O38 O -0.0357(3) 0.1409(3) 0.5208(3)
O39 O 0.0072(4) 0.3347(3) 1.0800(3)
O40 O 0.0116(3) 0.1317(3) 0.7729(3)
O41 O -0.1181(3) 0.4196(3) 0.8812(3)
O42 O 0.1342(5) 0.6424(3) 0.6171(4)
H1 H 0.16990 0.65700 0.63390
O43 O 0.1637(3) 0.4421(3) 0.8302(3)
O44 O -0.0242(3) 0.2597(3) 0.4887(3)
O45 O 0.0404(3) 0.2913(3) 0.1969(3)
O46 O 0.0214(3) 0.5890(3) 0.6870(3)
O47 O -0.1259(5) 0.1481(4) 0.2465(4)
H2 H -0.10280 0.16510 0.21760
O48 O 0.1305(3) 0.2304(3) 0.2633(4)
H3 H 0.15900 0.25910 0.25430
O49 O -0.1546(4) 0.3577(3) 0.3459(4)
H4 H -0.19330 0.34500 0.33390
O50 O -0.1118(4) 0.2450(3) 0.3431(4)
C1 C 0.1102(5) 0.3153(4) 0.9949(5)
C2 C 0.1414(5) 0.3012(4) 0.9339(4)
C3 C 0.2551(5) 0.3236(5) 0.9821(5)
H5 H 0.30370 0.32580 0.97820
C4 C 0.2150(5) 0.3071(4) 0.9267(5)
H6 H 0.23640 0.30030 0.88680
C5 C 0.2248(5) 0.3366(5) 1.0422(5)
H7 H 0.25290 0.34810 1.07720
C6 C 0.1529(6) 0.3325(4) 1.0494(5)
H8 H 0.13230 0.34090 1.08930
C7 C -0.1068(4) 0.4420(4) 0.7209(4)
C8 C 0.1282(5) 0.1962(4) 0.5478(5)
C9 C -0.0770(5) 0.5034(4) 0.7107(4)
C10 C 0.0927(5) 0.1832(4) 0.4886(4)
C11 C -0.2005(5) -0.0429(5) 0.7801(5)
H9 H -0.22930 -0.07970 0.78050
C12 C -0.1153(4) 0.0670(4) 0.7757(4)
C13 C -0.1209(5) 0.5578(4) 0.7145(4)
H10 H -0.10170 0.59940 0.70950
C14 C -0.1281(5) -0.0500(4) 0.7854(4)
H11 H -0.10880 -0.09160 0.79010
C15 C -0.1869(5) 0.0719(5) 0.7710(5)
H12 H -0.20730 0.11300 0.76550
C16 C 0.1978(5) 0.1827(4) 0.5536(5)
H13 H 0.21960 0.18930 0.59340
C17 C 0.1324(6) 0.1597(5) 0.4357(5)
H14 H 0.11050 0.15240 0.39610
C18 C 0.0494(5) 0.3205(4) 0.3252(4)
C19 C -0.0153(5) 0.3433(5) 0.3456(4)
C20 C 0.1123(6) 0.3474(5) 0.3475(5)
H15 H 0.15550 0.33170 0.33350
C21 C 0.2378(6) 0.1592(5) 0.5017(5)
H16 H 0.28570 0.15150 0.50630
C22 C -0.1924(5) 0.5517(5) 0.7256(5)
H17 H -0.22060 0.58890 0.72550
C23 C 0.2037(6) 0.1475(6) 0.4423(6)
H18 H 0.22920 0.13160 0.40720
C24 C -0.0839(4) 0.0050(4) 0.7835(5)
C25 C -0.1786(5) 0.4360(4) 0.7334(4)
H19 H -0.19760 0.39450 0.73960
C26 C -0.0142(8) 0.3954(6) 0.3933(5)
H20 H -0.05620 0.41130 0.41000
C27 C -0.2224(5) 0.4905(5) 0.7369(5)
H21 H -0.26990 0.48630 0.74640
C28 C 0.0475(6) 0.4212(6) 0.4138(6)
H22 H 0.04730 0.45510 0.44380
C29 C 0.1075(8) 0.3988(6) 0.3916(6)
H23 H 0.14870 0.41820 0.40610
C30 C -0.2292(6) 0.0173(5) 0.7743(5)
H24 H -0.27770 0.02190 0.77260
C31 C 0.2229(7) -0.0467(6) 0.5390(6)
C32 C 0.2031(7) -0.1465(6) 0.5966(6)
C33 C 0.2349(5) -0.1782(5) 0.5474(5)
N1 N 0.2621(7) -0.1486(6) 0.4946(6)
C34 C 0.1963(7) -0.0775(6) 0.5940(6)
C35 C 0.2569(7) -0.0813(7) 0.4874(7)
C36 C 0.1513(2) 0.5077(3) 1.0162(3)
N2 N 0.1809(3) 0.5157(4) 0.9552(2)
C37 C 0.2506(4) 0.5351(4) 0.9494(3)
C38 C 0.2906(3) 0.5464(4) 1.0045(3)
C39 C 0.2610(3) 0.5384(3) 1.0655(3)
C40 C 0.1913(3) 0.5190(3) 1.0713(2)
C41 C 0.0159(6) 0.0505(6) 1.0443(6)
C42 C -0.006(1) 0.1039(9) 1.0819(9)
C43 C 0.0412(9) 0.1361(8) 1.1228(8)
C44 C 0.1074(8) 0.1146(7) 1.1324(7)
C45 C 0.1308(9) 0.0597(8) 1.0954(8)
N3 N 0.0832(8) 0.0296(7) 1.0531(7)
O51 O -0.2542(4) 0.7254(4) 0.7232(4)
O52 O 0.2751(5) -0.2520(5) 0.7138(5)
O53 O 0.2632(5) 0.7093(7) 0.8487(8)
O25A O -0.0137(3) 0.0815(3) 0.3059(3)
O8A O 0.0991(3) 0.6856(3) 0.7432(3)
O39A O -0.0072(4) 0.6653(3) 0.5800(3)
O45A O -0.0404(3) 0.7087(3) 0.6969(3)
Mo10A Mo -0.05967(4) 0.32038(4) 0.15261(4)
Mo9A Mo 0.07969(4) -0.15514(4) 0.82136(4)
Mo10A* Mo -0.05967(4) 0.32038(4) 1.15261(4)
#END
