
#######################################################################
#
#                 Cambridge Crystallographic Data Centre
#                                CCDC
#
#######################################################################
#
# If this CIF has been generated from an entry in the Cambridge
# Structural Database, then it will include bibliographic, chemical,
# crystal, experimental, refinement or atomic coordinate data resulting
# from the CCDC's data processing and validation procedures.
#
#######################################################################

data_CSD_CIF_IMIQOL
_audit_creation_date 2011-05-17
_audit_creation_method CSD-ConQuest-V1
_database_code_CSD IMIQOL
_database_code_depnum_ccdc_archive 'CCDC 708629'
_chemical_formula_sum 'C12 H16 Ag4 N6 O42 Si1 W12'
_chemical_formula_moiety
;
(O40 Si1 W12 4-)n,n(C4 H8 Ag2 N2 O2 2+),n(C8 H8 Ag2 N4 2+)
;
_journal_coden_Cambridge 208
_journal_volume 183
_journal_year 2010
_journal_page_first 2925
_journal_name_full 'J.Solid State Chem. '
loop_
_publ_author_name
"Feng-Yun Cui"
"Xiao-Yu Ma"
"Cong Li"
"Tao Dong"
"Yuan-Zhe Gao"
"Zhan-Gang Han"
"Ying-Nan Chi"
"Chang-Wen Hu"
_chemical_name_systematic
;
catena-(bis(\m~2~-Pyrazine)-di-silver (\m~2~-pyrazine)-diaqua-di-silver 
(\m~12~-silicato)-tetracosakis(\m~2~-oxo)-dodecaoxo-dodeca-tungsten)
;
_cell_volume   2321.087
_exptl_crystal_colour 'yellow'
_exptl_crystal_density_diffrn 5.125
_exptl_crystal_description 'block'
_diffrn_ambient_temperature 293
_refine_special_details
;
The silicate moiety of the anion is disordered by symmetry.

;
#These two values have been output from a single CSD field.
_refine_ls_R_factor_gt 0.0927
_refine_ls_wR_factor_gt 0.0927
_symmetry_cell_setting monoclinic
_symmetry_space_group_name_H-M 'P 21/n'
_symmetry_Int_Tables_number 14
loop_
_symmetry_equiv_pos_site_id
_symmetry_equiv_pos_as_xyz
1 x,y,z
2 1/2-x,1/2+y,1/2-z
3 -x,-y,-z
4 -1/2+x,-1/2-y,-1/2+z
_cell_length_a 12.7726(10)
_cell_length_b 14.4219(12)
_cell_length_c 12.8058(10)
_cell_angle_alpha 90
_cell_angle_beta 100.272(5)
_cell_angle_gamma 90
_cell_formula_units_Z 2
loop_
_atom_type_symbol
_atom_type_radius_bond
C 0.68
H 0.23
Ag 1.35
N 0.68
O 0.68
Si 1.20
W 1.36
loop_
_atom_site_label
_atom_site_type_symbol
_atom_site_fract_x
_atom_site_fract_y
_atom_site_fract_z
W1 W 0.21703(11) 0.00006(11) 0.21709(11)
W2 W 0.02451(10) 0.17691(9) 0.19281(9)
W3 W -0.17926(10) 0.01002(9) 0.17923(10)
W4 W 0.19285(9) -0.17690(9) 0.02468(10)
W5 W 0.01328(12) -0.16739(9) 0.20348(10)
W6 W 0.2035(1) 0.16739(9) 0.01336(12)
Ag1 Ag -0.3400(3) -0.1237(2) 0.3397(3)
Ag2 Ag -0.5086(2) -0.24975(17) 0.0087(2)
Si1 Si 0.00000 0.00000 0.00000
O1 O 0.081(4) -0.070(4) 0.084(4)
O2 O -0.066(4) 0.063(3) 0.068(4)
O3 O 0.083(4) 0.069(4) 0.081(4)
O4 O -0.074(4) -0.054(3) 0.073(4)
O5 O -0.269(2) 0.017(3) 0.268(2)
O6 O 0.139(3) 0.101(2) 0.267(3)
O7 O -0.084(3) 0.226(2) 0.088(3)
O8 O -0.240(3) 0.098(2) 0.075(3)
O9 O -0.104(3) -0.213(2) 0.102(3)
O10 O -0.073(3) 0.097(2) 0.237(3)
O11 O 0.299(2) 0.2481(17) 0.016(2)
O12 O 0.316(3) -0.0006(17) 0.319(2)
O13 O 0.013(2) -0.2493(17) 0.300(2)
O14 O 0.276(3) 0.098(2) 0.138(3)
O15 O 0.027(2) 0.2651(17) 0.283(2)
O16 O 0.265(3) -0.098(3) 0.136(3)
O17 O -0.078(3) -0.075(2) 0.248(3)
O18 O -0.247(3) -0.078(2) 0.081(3)
O19 O 0.137(3) -0.099(2) 0.275(3)
O20 O -0.260(2) -0.2387(16) 0.256(2)
C1 C -0.513(3) -0.045(2) 0.087(3)
H1 H -0.52370 -0.07450 0.14890
C2 C -0.507(3) 0.051(2) 0.083(3)
H2 H -0.51170 0.08490 0.14340
C3 C -0.589(3) -0.454(2) 0.012(3)
H3 H -0.65130 -0.42360 0.02110
C4 C -0.585(3) -0.553(2) 0.007(3)
H4 H -0.64590 -0.58720 0.01170
C5 C -0.436(3) 0.044(2) 0.436(3)
H5 H -0.39520 0.07720 0.39520
C6 C -0.500(3) 0.093(2) 0.501(3)
H6 H -0.49700 0.15740 0.50100
N1 N -0.505(2) -0.095(2) 0.002(2)
N2 N -0.501(2) -0.405(2) 0.005(2)
N3 N -0.436(3) -0.0513(19) 0.436(2)
O21 O 0.283(2) -0.2625(17) 0.029(2)
O22 O 0.123(3) 0.221(2) 0.108(3)
O23 O 0.111(3) -0.221(2) 0.122(3)
W1B W -0.21703(11) -0.00006(11) -0.21709(11)
W2B W -0.02451(10) -0.17691(9) -0.19281(9)
W3B W 0.17926(10) -0.01002(9) -0.17923(10)
W4B W -0.19285(9) 0.17690(9) -0.02468(10)
W5B W -0.01328(12) 0.16739(9) -0.20348(10)
W6B W -0.2035(1) -0.16739(9) -0.01336(12)
Ag1B Ag -0.6600(3) 0.1237(2) 0.6603(3)
Ag2B Ag -0.4914(2) 0.24975(17) -0.0087(2)
Ag2B* Ag -0.4914(2) -0.75025(17) -0.0087(2)
O1B O -0.081(4) 0.070(4) -0.084(4)
O2B O 0.066(4) -0.063(3) -0.068(4)
O3B O -0.083(4) -0.069(4) -0.081(4)
O4B O 0.074(4) 0.054(3) -0.073(4)
O5B O 0.269(2) -0.017(3) -0.268(2)
O6B O -0.139(3) -0.101(2) -0.267(3)
O7B O 0.084(3) -0.226(2) -0.088(3)
O8B O 0.240(3) -0.098(2) -0.075(3)
O9B O 0.104(3) 0.213(2) -0.102(3)
O10B O 0.073(3) -0.097(2) -0.237(3)
O11B O -0.299(2) -0.2481(17) -0.016(2)
O12B O -0.316(3) 0.0006(17) -0.319(2)
O13B O -0.013(2) 0.2493(17) -0.300(2)
O14B O -0.276(3) -0.098(2) -0.138(3)
O15B O -0.027(2) -0.2651(17) -0.283(2)
O16B O -0.265(3) 0.098(3) -0.136(3)
O17B O 0.078(3) 0.075(2) -0.248(3)
O18B O 0.247(3) 0.078(2) -0.081(3)
O19B O -0.137(3) 0.099(2) -0.275(3)
O20B O -0.740(2) 0.2387(16) 0.744(2)
C1B C -0.487(3) 0.045(2) -0.087(3)
H1B H -0.47630 0.07450 -0.14890
C2B C -0.493(3) -0.051(2) -0.083(3)
H2B H -0.48830 -0.08490 -0.14340
C3B C -0.411(3) -0.546(2) -0.012(3)
H3B H -0.34870 -0.57640 -0.02110
C4B C -0.415(3) -0.447(2) -0.007(3)
H4B H -0.35410 -0.41280 -0.01170
C5B C -0.564(3) -0.044(2) 0.564(3)
H5B H -0.60480 -0.07720 0.60480
C6B C -0.500(3) -0.093(2) 0.499(3)
H6B H -0.50300 -0.15740 0.49900
N1B N -0.495(2) 0.095(2) -0.002(2)
N2B N -0.499(2) -0.595(2) -0.005(2)
N2B* N -0.499(2) 0.405(2) -0.005(2)
N3B N -0.564(3) 0.0513(19) 0.564(2)
O21B O -0.283(2) 0.2625(17) -0.029(2)
O22B O -0.123(3) -0.221(2) -0.108(3)
O23B O -0.111(3) 0.221(2) -0.122(3)
#END
