
#######################################################################
#
#                 Cambridge Crystallographic Data Centre
#                                CCDC
#
#######################################################################
#
# If this CIF has been generated from an entry in the Cambridge
# Structural Database, then it will include bibliographic, chemical,
# crystal, experimental, refinement or atomic coordinate data resulting
# from the CCDC's data processing and validation procedures.
#
#######################################################################

data_CSD_CIF_IMIQIF
_audit_creation_date 2011-05-17
_audit_creation_method CSD-ConQuest-V1
_database_code_CSD IMIQIF
_database_code_depnum_ccdc_archive 'CCDC 708628'
_chemical_formula_sum 'C48 H48 Cl2 Cu10 N24 O80 Si2 W24'
_chemical_formula_moiety
;
(C48 H48 Cl2 Cu10 N24 8+)n,2n(O40 Si1 W12 4-)
;
_journal_coden_Cambridge 208
_journal_volume 183
_journal_year 2010
_journal_page_first 2925
_journal_name_full 'J.Solid State Chem. '
loop_
_publ_author_name
"Feng-Yun Cui"
"Xiao-Yu Ma"
"Cong Li"
"Tao Dong"
"Yuan-Zhe Gao"
"Zhan-Gang Han"
"Ying-Nan Chi"
"Chang-Wen Hu"
_chemical_name_systematic
;
catena-(bis(\m~3~-Chloro)-dodecakis(\m~2~-pyrazine-N,N')-deca-copper 
bis((\m~12~-silicato)-tetracosakis(\m~2~-oxo)-dodecaoxo-dodeca-tungsten))
;
_cell_volume   2939.481
_exptl_crystal_colour 'red'
_exptl_crystal_density_diffrn 4.189
_exptl_crystal_description 'sheet'
_diffrn_ambient_temperature 293
_refine_special_details
;
The silicate moieties of the anions are disordered by symmetry.

;
#These two values have been output from a single CSD field.
_refine_ls_R_factor_gt 0.1072
_refine_ls_wR_factor_gt 0.1072
_symmetry_cell_setting triclinic
_symmetry_space_group_name_H-M 'P -1'
_symmetry_Int_Tables_number 2
loop_
_symmetry_equiv_pos_site_id
_symmetry_equiv_pos_as_xyz
1 x,y,z
2 -x,-y,-z
_cell_length_a 11.7152(1)
_cell_length_b 13.5922(5)
_cell_length_c 20.6532(7)
_cell_angle_alpha 89.218(8)
_cell_angle_beta 76.358(8)
_cell_angle_gamma 67.393(4)
_cell_formula_units_Z 1
loop_
_atom_type_symbol
_atom_type_radius_bond
C 0.68
H 0.23
Cl 1.07
Cu 1.05
N 0.68
O 0.68
Si 1.20
W 1.38
loop_
_atom_site_label
_atom_site_type_symbol
_atom_site_fract_x
_atom_site_fract_y
_atom_site_fract_z
W1 W 0.79562(16) 0.96724(15) 0.91006(8)
W2 W 1.00212(18) 0.74245(13) 0.97159(9)
W3 W 0.73715(15) 0.94049(15) 1.08301(9)
W4 W 1.25645(15) 0.80819(13) 0.88267(8)
W5 W 0.78163(15) 1.22624(13) 0.94485(8)
W6 W 1.04830(16) 1.04132(13) 0.82793(8)
Si1 Si 1.00000 1.00000 1.00000
O1 O 0.913(5) 0.925(5) 0.993(3)
O2 O 0.935(5) 1.042(4) 0.945(3)
O3 O 1.098(5) 0.873(4) 0.983(3)
O4 O 0.900(5) 1.020(4) 1.072(3)
O5 O 0.855(3) 0.799(3) 1.0444(16)
O6 O 1.112(3) 0.710(2) 1.0261(14)
O7 O 0.683(3) 1.332(3) 0.9196(18)
O8 O 0.699(3) 0.948(2) 0.8675(14)
O9 O 0.701(3) 0.969(3) 0.9995(15)
O10 O 0.899(3) 0.822(3) 0.9148(15)
O11 O 0.724(3) 1.117(2) 0.9240(15)
O12 O 1.002(3) 0.624(2) 0.9558(14)
O13 O 0.918(3) 0.983(2) 0.8395(15)
O14 O 1.162(3) 0.898(2) 0.8270(15)
O15 O 1.149(3) 0.734(2) 0.8988(14)
O16 O 1.381(3) 0.717(2) 0.8285(15)
O17 O 0.619(3) 0.909(2) 1.1203(14)
O18 O 0.676(3) 1.086(2) 1.1079(14)
O19 O 0.703(3) 1.237(2) 1.0363(14)
O20 O 1.060(3) 1.064(2) 0.7481(14)
O21 O 0.837(3) 0.910(2) 1.1456(15)
O22 O 0.911(3) 1.179(2) 0.8634(14)
Cu1 Cu 0.6836(6) 0.9392(5) 0.7634(3)
Cu2 Cu 0.2929(5) 0.8511(5) 0.6089(3)
Cu3 Cu 0.5099(5) 1.3162(5) 0.7196(3)
Cu4 Cu 0.8705(5) 1.5206(5) 0.8451(3)
Cu5 Cu 0.5243(6) 1.1916(5) 0.8718(3)
Cl1 Cl 0.6161(10) 1.1418(9) 0.7686(5)
N1 N 0.541(4) 0.919(3) 0.7401(18)
N2 N 0.389(3) 0.880(3) 0.6715(17)
N3 N 0.373(3) 0.803(3) 0.5148(17)
N4 N 0.446(3) 0.736(3) 0.3803(19)
N5 N 0.619(3) 1.379(3) 0.7523(17)
N6 N 0.770(3) 1.458(3) 0.8074(18)
N7 N 0.251(4) 1.386(3) 1.0762(19)
N8 N 0.422(4) 1.269(3) 0.9528(19)
N9 N 0.864(4) 0.893(3) 0.716(2)
N10 N 1.121(3) 0.858(3) 0.6488(17)
N11 N 0.323(3) 1.377(3) 0.7688(17)
N12 N 0.060(3) 1.460(3) 0.8209(18)
C1 C 0.539(4) 0.823(4) 0.739(2)
H1 H 0.58410 0.77180 0.76400
C2 C 0.464(4) 0.794(4) 0.698(2)
H2 H 0.46860 0.72510 0.69150
C3 C 0.384(4) 0.973(4) 0.683(2)
H3 H 0.32360 1.03000 0.66890
C4 C 0.461(5) 0.997(4) 0.715(2)
H4 H 0.45710 1.06660 0.71930
C5 C 0.439(4) 0.699(4) 0.487(2)
H5 H 0.45600 0.64350 0.51490
C6 C 0.479(4) 0.675(4) 0.419(2)
H6 H 0.53530 0.60520 0.40340
C7 C 0.394(4) 0.837(4) 0.397(2)
H7 H 0.38310 0.88500 0.36410
C8 C 0.349(4) 0.880(4) 0.470(2)
H8 H 0.30920 0.95290 0.48390
C9 C 0.746(4) 1.327(4) 0.743(2)
H9 H 0.78800 1.26280 0.71620
C10 C 0.814(4) 1.366(4) 0.773(2)
H10 H 0.89940 1.32310 0.76850
C11 C 0.572(4) 1.478(4) 0.783(2)
H11 H 0.48860 1.52300 0.78330
C12 C 0.638(4) 1.514(4) 0.812(2)
H12 H 0.59580 1.57920 0.83770
C13 C 0.322(4) 1.290(4) 1.070(2)
H13 H 0.31320 1.25670 1.10990
C14 C 0.413(4) 1.222(4) 1.017(2)
H14 H 0.46450 1.15190 1.02110
C15 C 0.351(5) 1.376(4) 0.957(2)
H15 H 0.36220 1.41350 0.91940
C16 C 0.250(5) 1.436(4) 1.022(2)
H16 H 0.19070 1.50540 1.02270
C17 C 0.958(4) 0.833(4) 0.734(2)
H17 H 0.94380 0.79730 0.77220
C18 C 0.893(5) 0.938(4) 0.660(3)
H18 H 0.82630 0.98630 0.64410
C19 C 1.023(5) 0.916(4) 0.623(2)
H19 H 1.03870 0.94210 0.58110
C20 C 1.091(4) 0.813(4) 0.700(2)
H20 H 1.15620 0.76470 0.71610
C21 C 0.266(4) 1.321(4) 0.800(2)
H21 H 0.31570 1.25080 0.80460
C22 C 0.253(4) 1.479(4) 0.762(2)
H22 H 0.29360 1.51960 0.73840
C23 C 0.129(4) 1.523(4) 0.787(2)
H23 H 0.08500 1.59500 0.78230
C24 C 0.130(4) 1.360(4) 0.828(2)
H24 H 0.09260 1.31590 0.85070
W7 W 0.1082(2) 0.40015(17) 0.33000(9)
W8 W -0.30685(16) 0.52930(17) 0.59230(8)
W9 W -0.19911(16) 0.43026(16) 0.42281(9)
W10 W -0.13411(17) 0.65929(14) 0.37920(9)
W11 W 0.24147(17) 0.24186(14) 0.45129(9)
W12 W -0.06627(15) 0.27097(14) 0.54380(8)
Si2 Si 0.00000 0.50000 0.50000
O23 O -0.046(5) 0.508(5) 0.424(3)
O24 O -0.099(5) 0.440(5) 0.513(3)
O25 O 0.128(5) 0.414(5) 0.443(3)
O26 O -0.046(5) 0.618(5) 0.475(3)
O27 O -0.135(3) 0.318(3) 0.4649(15)
O28 O 0.149(3) 0.361(3) 0.2501(14)
O29 O -0.036(3) 0.368(3) 0.3580(15)
O30 O -0.218(3) 0.379(3) 0.5931(15)
O31 O 0.245(3) 0.441(3) 0.3347(14)
O32 O 0.005(3) 0.542(3) 0.3229(15)
O33 O -0.248(3) 0.742(2) 0.4601(14)
O34 O -0.290(3) 0.394(3) 0.3845(15)
O35 O -0.346(3) 0.674(3) 0.5722(14)
O36 O -0.320(3) 0.501(3) 0.5039(15)
O37 O -0.013(3) 0.715(3) 0.3889(15)
O38 O 0.348(3) 0.122(3) 0.4300(16)
O39 O -0.451(3) 0.546(2) 0.6397(13)
O40 O -0.199(3) 0.733(3) 0.3236(16)
O41 O 0.194(3) 0.273(2) 0.3714(14)
O42 O 0.098(3) 0.206(3) 0.4818(14)
O43 O -0.222(3) 0.568(3) 0.3948(16)
O44 O -0.091(3) 0.158(3) 0.5676(16)
W1A W 1.20438(16) 1.03276(15) 1.08994(8)
W2A W 0.99788(18) 1.25755(13) 1.02841(9)
W3A W 1.26285(15) 1.05951(15) 0.91699(9)
W4A W 0.74355(15) 1.19181(13) 1.11733(8)
W5A W 1.21837(15) 0.77376(13) 1.05515(8)
W6A W 0.95170(16) 0.95868(13) 1.17207(8)
O1A O 1.087(5) 1.075(5) 1.007(3)
O2A O 1.065(5) 0.958(4) 1.055(3)
O3A O 0.902(5) 1.127(4) 1.017(3)
O4A O 1.100(5) 0.980(4) 0.928(3)
O5A O 1.145(3) 1.201(3) 0.9556(16)
O6A O 0.888(3) 1.290(2) 0.9739(14)
O7A O 1.317(3) 0.668(3) 1.0804(18)
O8A O 1.301(3) 1.052(2) 1.1325(14)
O9A O 1.299(3) 1.031(3) 1.0005(15)
O10A O 1.101(3) 1.178(3) 1.0852(15)
O11A O 1.276(3) 0.883(2) 1.0760(15)
O12A O 0.998(3) 1.376(2) 1.0442(14)
O13A O 1.082(3) 1.017(2) 1.1605(15)
O14A O 0.838(3) 1.102(2) 1.1730(15)
O15A O 0.851(3) 1.266(2) 1.1012(14)
O16A O 0.619(3) 1.283(2) 1.1715(15)
O17A O 1.381(3) 1.091(2) 0.8797(14)
O18A O 1.324(3) 0.914(2) 0.8921(14)
O19A O 1.297(3) 0.763(2) 0.9637(14)
O20A O 0.940(3) 0.936(2) 1.2519(14)
O21A O 1.163(3) 1.090(2) 0.8544(15)
O22A O 1.089(3) 0.821(2) 1.1366(14)
Cu1* Cu 1.6836(6) 0.9392(5) 0.7634(3)
Cu1** Cu -0.3164(6) 0.9392(5) 0.7634(3)
Cu2* Cu 1.2929(5) 0.8511(5) 0.6089(3)
Cu2A Cu 0.7071(5) 1.1489(5) 0.3911(3)
Cu3A Cu 0.4901(5) 0.6838(5) 0.2804(3)
Cu3* Cu 1.5099(5) 1.3162(5) 0.7196(3)
Cu4A Cu 0.1295(5) 1.4794(5) 1.1549(3)
Cu4* Cu -0.1295(5) 1.5206(5) 0.8451(3)
Cu4A* Cu 0.1295(5) 0.4794(5) 0.1549(3)
Cu5* Cu 1.5243(6) 1.1916(5) 0.8718(3)
Cu5A Cu 0.4757(6) 1.8084(5) 1.1282(3)
Cl1* Cl 1.6161(10) 1.1418(9) 0.7686(5)
Cl1A Cl 0.3839(10) 0.8582(9) 0.2314(5)
N1* N 1.541(4) 0.919(3) 0.7401(18)
N2* N 1.389(3) 0.880(3) 0.6715(17)
N3A N 0.627(3) 1.197(3) 0.4852(17)
N3* N 1.373(3) 0.803(3) 0.5148(17)
N4A N 0.554(3) 1.264(3) 0.6197(19)
N5A N 0.381(3) 0.621(3) 0.2477(17)
N6A N 0.230(3) 0.542(3) 0.1926(18)
N6A* N 0.230(3) 1.542(3) 1.1926(18)
N7A N 0.749(4) 1.614(3) 0.9238(19)
N8A N 0.578(4) 1.731(3) 1.0472(19)
N8* N 1.422(4) 1.269(3) 0.9528(19)
N9* N -0.136(4) 0.893(3) 0.716(2)
N9** N 1.864(4) 0.893(3) 0.716(2)
N10* N 0.121(3) 0.858(3) 0.6488(17)
N11* N 1.323(3) 1.377(3) 0.7688(17)
N11A N 0.677(3) 0.623(3) 0.2312(17)
N12* N 1.060(3) 1.460(3) 0.8209(18)
N12A N -0.060(3) 1.540(3) 1.1791(18)
C1* C 1.539(4) 0.823(4) 0.739(2)
H1* H 1.58410 0.77180 0.76400
C2* C 1.464(4) 0.794(4) 0.698(2)
H2* H 1.46860 0.72510 0.69150
C3* C 1.384(4) 0.973(4) 0.683(2)
H3* H 1.32360 1.03000 0.66890
C4* C 1.461(5) 0.997(4) 0.715(2)
H4* H 1.45710 1.06660 0.71930
C5A C 0.561(4) 1.301(4) 0.513(2)
H5A H 0.54400 1.35650 0.48510
C6A C 0.521(4) 1.325(4) 0.581(2)
H6A H 0.46470 1.39480 0.59660
C7A C 0.606(4) 1.163(4) 0.603(2)
H7A H 0.61690 1.11500 0.63590
C8A C 0.651(4) 1.120(4) 0.530(2)
H8A H 0.69080 1.04710 0.51610
C9A C 0.254(4) 0.673(4) 0.257(2)
H9A H 0.21200 0.73720 0.28380
C10A C 0.186(4) 0.634(4) 0.227(2)
H10A H 0.10060 0.67690 0.23150
C11A C 0.428(4) 0.522(4) 0.217(2)
H11A H 0.51140 0.47700 0.21670
C12A C 0.362(4) 0.486(4) 0.188(2)
H12A H 0.40420 0.42080 0.16230
C13A C 0.678(4) 1.710(4) 0.930(2)
H13A H 0.68680 1.74330 0.89010
C14A C 0.587(4) 1.778(4) 0.983(2)
H14A H 0.53550 1.84810 0.97890
C15A C 0.649(5) 1.624(4) 1.043(2)
H15A H 0.63780 1.58650 1.08060
C16A C 0.750(5) 1.564(4) 0.978(2)
H16A H 0.80930 1.49460 0.97730
C17* C -0.042(4) 0.833(4) 0.734(2)
H17* H -0.05620 0.79730 0.77220
C18* C -0.107(5) 0.938(4) 0.660(3)
H18* H -0.17370 0.98630 0.64410
C19* C 0.023(5) 0.916(4) 0.623(2)
H19* H 0.03870 0.94210 0.58110
C20* C 0.091(4) 0.813(4) 0.700(2)
H20* H 0.15620 0.76470 0.71610
C21* C 1.266(4) 1.321(4) 0.800(2)
H21* H 1.31570 1.25080 0.80460
C22* C 1.253(4) 1.479(4) 0.762(2)
H22* H 1.29360 1.51960 0.73840
C23* C 1.129(4) 1.523(4) 0.787(2)
H23* H 1.08500 1.59500 0.78230
C24* C 1.130(4) 1.360(4) 0.828(2)
H24* H 1.09260 1.31590 0.85070
W7A W -0.1082(2) 0.59985(17) 0.67000(9)
W8A W 0.30685(16) 0.47070(17) 0.40770(8)
W9A W 0.19911(16) 0.56974(16) 0.57719(9)
W10A W 0.13411(17) 0.34071(14) 0.62080(9)
W11A W -0.24147(17) 0.75814(14) 0.54871(9)
W12A W 0.06627(15) 0.72903(14) 0.45620(8)
O23A O 0.046(5) 0.492(5) 0.576(3)
O24A O 0.099(5) 0.560(5) 0.487(3)
O25A O -0.128(5) 0.586(5) 0.557(3)
O26A O 0.046(5) 0.382(5) 0.525(3)
O27A O 0.135(3) 0.682(3) 0.5351(15)
O28A O -0.149(3) 0.639(3) 0.7499(14)
O29A O 0.036(3) 0.632(3) 0.6420(15)
O30A O 0.218(3) 0.621(3) 0.4069(15)
O31A O -0.245(3) 0.559(3) 0.6653(14)
O32A O -0.005(3) 0.458(3) 0.6771(15)
O33A O 0.248(3) 0.258(2) 0.5399(14)
O34A O 0.290(3) 0.606(3) 0.6155(15)
O35A O 0.346(3) 0.326(3) 0.4278(14)
O36A O 0.320(3) 0.499(3) 0.4961(15)
O37A O 0.013(3) 0.285(3) 0.6111(15)
O38A O -0.348(3) 0.878(3) 0.5700(16)
O39A O 0.451(3) 0.454(2) 0.3603(13)
O40A O 0.199(3) 0.267(3) 0.6764(16)
O41A O -0.194(3) 0.727(2) 0.6286(14)
O42A O -0.098(3) 0.794(3) 0.5182(14)
O43A O 0.222(3) 0.432(3) 0.6052(16)
O44A O 0.091(3) 0.842(3) 0.4324(16)
#END
