
#######################################################################
#
#                 Cambridge Crystallographic Data Centre
#                                CCDC
#
#######################################################################
#
# If this CIF has been generated from an entry in the Cambridge
# Structural Database, then it will include bibliographic, chemical,
# crystal, experimental, refinement or atomic coordinate data resulting
# from the CCDC's data processing and validation procedures.
#
#######################################################################

data_CSD_CIF_IMUTUG
_audit_creation_date 2011-06-16
_audit_creation_method CSD-ConQuest-V1
_database_code_CSD IMUTUG
_database_code_depnum_ccdc_archive 'CCDC 787017'
_chemical_formula_sum 'C95 H139 In9 N8 O86'
_chemical_formula_moiety
;
(C2 H8 N1 1+)n,n(C72 H36 In9 O56 1-),7n(C3 H7 N1 O1),23n(H2 O1)
;
_journal_coden_Cambridge 4
_journal_volume 132
_journal_year 2010
_journal_page_first 17062
_journal_name_full 'J.Am.Chem.Soc. '
loop_
_publ_author_name
"Shou-Tian Zheng"
"J.T.Bu"
"Yufei Li"
"Tao Wu"
"Fan Zuo"
"Pingyun Feng"
"Xianhui Bu"
_chemical_name_systematic
;
catena-[Dimethylammonium 
bis(\m~6~-benzene-1,3,5-tricarboxylato-O,O',O'',O''',O'''',O''''')-hexakis(\m~
4~-benzene-1,3,5-tricarboxylato-O,O',O'',O''',O'''',O''''')-bis(\m~3~-oxo)-hex
a-aqua-nona-indium(iii) dimethylformamide solvate tricosahydrate]
;
_chemical_name_common
;
CPM-5
;
_cell_volume  17002.349
_exptl_crystal_density_diffrn 1.485
_exptl_special_details
;
Isostructural with the methylammonium analogue CPM-6

;
_diffrn_ambient_temperature 296
_refine_special_details
;
One of the two independent dimethylammonium sites modelled is disordered by 
symmetry. Disordered solvent has not been modelled from the diffraction data, 
solvent stoichiometry is based on elemental analyses.
;
#These two values have been output from a single CSD field.
_refine_ls_R_factor_gt 0.0906
_refine_ls_wR_factor_gt 0.0906
_symmetry_cell_setting cubic
_symmetry_space_group_name_H-M 'I -4 3 m'
_symmetry_Int_Tables_number 217
loop_
_symmetry_equiv_pos_site_id
_symmetry_equiv_pos_as_xyz
1 x,y,z
2 -x,-y,z
3 -x,y,-z
4 x,-y,-z
5 z,x,y
6 z,-x,-y
7 -z,-x,y
8 -z,x,-y
9 y,z,x
10 -y,z,-x
11 y,-z,-x
12 -y,-z,x
13 y,x,z
14 -y,-x,z
15 y,-x,-z
16 -y,x,-z
17 x,z,y
18 -x,z,-y
19 -x,-z,y
20 x,-z,-y
21 z,y,x
22 z,-y,-x
23 -z,y,-x
24 -z,-y,x
25 1/2+x,1/2+y,1/2+z
26 1/2-x,1/2-y,1/2+z
27 1/2-x,1/2+y,1/2-z
28 1/2+x,1/2-y,1/2-z
29 1/2+z,1/2+x,1/2+y
30 1/2+z,1/2-x,1/2-y
31 1/2-z,1/2-x,1/2+y
32 1/2-z,1/2+x,1/2-y
33 1/2+y,1/2+z,1/2+x
34 1/2-y,1/2+z,1/2-x
35 1/2+y,1/2-z,1/2-x
36 1/2-y,1/2-z,1/2+x
37 1/2+y,1/2+x,1/2+z
38 1/2-y,1/2-x,1/2+z
39 1/2+y,1/2-x,1/2-z
40 1/2-y,1/2+x,1/2-z
41 1/2+x,1/2+z,1/2+y
42 1/2-x,1/2+z,1/2-y
43 1/2-x,1/2-z,1/2+y
44 1/2+x,1/2-z,1/2-y
45 1/2+z,1/2+y,1/2+x
46 1/2+z,1/2-y,1/2-x
47 1/2-z,1/2+y,1/2-x
48 1/2-z,1/2-y,1/2+x
_cell_length_a 25.7140(13)
_cell_length_b 25.7140(13)
_cell_length_c 25.7140(13)
_cell_angle_alpha 90
_cell_angle_beta 90
_cell_angle_gamma 90
_cell_formula_units_Z 4
loop_
_atom_type_symbol
_atom_type_radius_bond
C 0.68
H 0.23
In 1.42
N 0.68
O 0.68
loop_
_atom_site_label
_atom_site_type_symbol
_atom_site_fract_x
_atom_site_fract_y
_atom_site_fract_z
In1 In 0.10423(5) 0.89577(5) 0.79860(6)
In2 In 0.25000 1.00000 0.50000
In3? In 0.2911(5) 1.00000 0.50000
O1 O 0.0724(6) 0.9276(6) 0.7302(9)
O2 O 0.1343(6) 0.8657(6) 0.8657(6)
O3 O 0.2278(9) 0.9637(9) 0.5828(7)
O4 O 0.1790(5) 0.9090(6) 0.7612(6)
O5 O 0.1068(6) 0.9725(4) 0.8311(5)
O6 O 0.3044(7) 0.9752(7) 0.5617(7)
C1 C 0.1296(8) 1.0637(6) 0.9363(6)
H1 H 0.16260 1.05000 0.95000
C2 C 0.1070(5) 1.0426(7) 0.8930(5)
C3 C 0.2235(6) 0.9149(9) 0.7765(6)
C4 C 0.1309(5) 0.9921(9) 0.8691(5)
C5 C 0.3375(8) 0.9609(12) 0.6625(8)
H2 H 0.36310 0.97040 0.63690
C6 C 0.2724(12) 0.9637(9) 0.5960(9)
C7 C 0.245(1) 0.9362(7) 0.6844(7)
H3 H 0.21050 0.93040 0.67520
C8 C 0.2861(11) 0.9535(7) 0.6475(9)
C9 C 0.2650(7) 0.9297(10) 0.7350(7)
N1? N 0.00000 1.00000 1.00000
C10? C 0.0509(16) 1.0218(19) 1.0218(19)
C11 C 0.2027(14) 1.088(5) 0.722(4)
N2 N 0.258(3) 1.080(5) 0.742(3)
In1F In 0.20140(5) 0.89577(5) 0.89577(6)
In1C In 0.10423(5) 1.10423(5) 0.20140(6)
In1G In 0.20140(5) 1.10423(5) 0.10423(6)
In1FA In 0.39577(5) 1.29860(5) 0.60423(6)
In1CA In 0.29860(5) 1.39577(5) 0.60423(6)
In1HA In 0.39577(5) 0.70140(5) 0.39577(6)
In1BA In 0.29860(5) 0.60423(5) 0.39577(6)
In1I In 0.10423(5) 0.79860(5) 0.89577(6)
In1D In 0.79860(5) 1.10423(5) 0.89577(6)
In1A In 0.89577(5) 1.10423(5) 0.79860(6)
In1Z In 0.39577(5) 1.39577(5) 0.70140(6)
In1J In -0.10423(5) 1.20140(5) 0.89577(6)
In1A* In -0.10423(5) 1.10423(5) 0.79860(6)
In1G* In 0.20140(5) 1.10423(5) 1.10423(6)
In1K In 0.10423(5) 1.20140(5) 1.10423(6)
In1D* In -0.20140(5) 1.10423(5) 0.89577(6)
In1H In -0.10423(5) 0.79860(5) 1.10423(6)
In1E In -0.20140(5) 0.89577(5) 1.10423(6)
In1IA In 0.60423(5) 0.70140(5) 0.60423(6)
In1AA In 0.60423(5) 0.60423(5) 0.70140(6)
In1E* In 0.79860(5) 0.89577(5) 0.10423(6)
In1B In 0.89577(5) 0.89577(5) 0.20140(6)
In1Y In 0.39577(5) 0.60423(5) 0.29860(6)
In1GA In 0.60423(5) 1.29860(5) 0.39577(6)
In1X In 0.60423(5) 1.39577(5) 0.29860(6)
In1DA In -0.29860(5) 1.39577(5) 0.39577(6)
In1GA* In -0.39577(5) 1.29860(5) 0.39577(6)
In1C* In 0.10423(5) 1.10423(5) 1.20140(6)
In1B* In -0.10423(5) 0.89577(5) 1.20140(6)
In1K* In 0.10423(5) 1.20140(5) 0.10423(6)
In1H* In -0.10423(5) 0.79860(5) 0.10423(6)
In1B** In -0.10423(5) 0.89577(5) 0.20140(6)
In1F* In 0.20140(5) 0.89577(5) -0.10423(6)
In1I* In 0.10423(5) 0.79860(5) -0.10423(6)
In2U In 0.50000 1.00000 0.75000
In2T In 0.50000 1.00000 0.25000
In2L In 0.00000 1.25000 0.50000
In2M In 0.00000 0.75000 0.50000
In2I In 0.00000 0.50000 0.75000
In2A In 0.75000 1.00000 0.50000
In2D In 0.50000 1.25000 1.00000
In2E In 0.50000 0.75000 1.00000
In2E* In 0.50000 0.75000 0.00000
In2D* In 0.50000 1.25000 0.00000
In2A* In -0.25000 1.00000 0.50000
O1F O 0.2698(6) 0.9276(6) 0.9276(9)
O1C O 0.0724(6) 1.0724(6) 0.2698(9)
O1G O 0.2698(6) 1.0724(6) 0.0724(9)
O1FA O 0.4276(6) 1.2302(6) 0.5724(9)
O1CA O 0.2302(6) 1.4276(6) 0.5724(9)
O1HA O 0.4276(6) 0.7698(6) 0.4276(9)
O1BA O 0.2302(6) 0.5724(6) 0.4276(9)
O1I O 0.0724(6) 0.7302(6) 0.9276(9)
O1D O 0.7302(6) 1.0724(6) 0.9276(9)
O1A O 0.9276(6) 1.0724(6) 0.7302(9)
O1Z O 0.4276(6) 1.4276(6) 0.7698(9)
O2C O 0.1343(6) 1.1343(6) 0.1343(6)
O2Z O 0.3657(6) 1.3657(6) 0.6343(6)
O2Y O 0.3657(6) 0.6343(6) 0.3657(6)
O2A O 0.8657(6) 1.1343(6) 0.8657(6)
O3V O 0.4172(9) 0.9637(9) 0.7722(7)
O3C O 0.2278(9) 1.0363(9) 0.4172(7)
O3W O 0.4172(9) 1.0363(9) 0.2278(7)
O3OA O 0.2722(9) 1.0828(9) 0.5363(7)
O3CA O 0.0828(9) 1.2722(9) 0.5363(7)
O3PA O 0.2722(9) 0.9172(9) 0.4637(7)
O3BA O 0.0828(9) 0.7278(9) 0.4637(7)
O3M O 0.0363(9) 0.7722(9) 0.5828(7)
O3I O 0.0363(9) 0.5828(9) 0.7722(7)
O3U O 0.5828(9) 1.0363(9) 0.7722(7)
O3A O 0.7722(9) 1.0363(9) 0.5828(7)
O3FA O 0.4637(9) 1.0828(9) 0.7278(7)
O3LA O 0.4637(9) 1.2722(9) 0.9172(7)
O3IA O 0.5363(9) 0.9172(9) 0.7278(7)
O3MA O 0.5363(9) 0.7278(9) 0.9172(7)
O3T O 0.5828(9) 0.9637(9) 0.2278(7)
O3B O 0.7722(9) 0.9637(9) 0.4172(7)
O3HA O 0.4637(9) 0.9172(9) 0.2722(7)
O3JA O 0.4637(9) 0.7278(9) 0.0828(7)
O3GA O 0.5363(9) 1.0828(9) 0.2722(7)
O3KA O 0.5363(9) 1.2722(9) 0.0828(7)
O3DA O -0.0828(9) 1.2722(9) 0.4637(7)
O3NA O -0.2722(9) 1.0828(9) 0.4637(7)
O3O O 0.0363(9) 1.2278(9) 0.4172(7)
O3L O -0.0363(9) 1.2278(9) 0.5828(7)
O3EA O -0.0828(9) 0.7278(9) 0.5363(7)
O3N O -0.0363(9) 0.7722(9) 0.4172(7)
O3J O -0.0363(9) 0.4172(9) 0.7722(7)
O3UA O -0.0828(9) 0.5363(9) 0.7278(7)
O3RA O 0.0828(9) 0.4637(9) 0.7278(7)
O4V O 0.2388(5) 0.9090(6) 0.8210(6)
O4C O 0.1790(5) 1.0910(6) 0.2388(6)
O4W O 0.2388(5) 1.0910(6) 0.1790(6)
O4OA O 0.3210(5) 1.2612(6) 0.5910(6)
O4CA O 0.2612(5) 1.3210(6) 0.5910(6)
O4PA O 0.3210(5) 0.7388(6) 0.4090(6)
O4BA O 0.2612(5) 0.6790(6) 0.4090(6)
O4M O 0.0910(5) 0.8210(6) 0.7612(6)
O4I O 0.0910(5) 0.7612(6) 0.8210(6)
O4U O 0.7612(5) 1.0910(6) 0.8210(6)
O4A O 0.8210(5) 1.0910(6) 0.7612(6)
O4FA O 0.4090(5) 1.2612(6) 0.6790(6)
O4LA O 0.4090(5) 1.3210(6) 0.7388(6)
O4IA O 0.5910(5) 0.7388(6) 0.6790(6)
O4MA O 0.5910(5) 0.6790(6) 0.7388(6)
O4T O 0.7612(5) 0.9090(6) 0.1790(6)
O4B O 0.8210(5) 0.9090(6) 0.2388(6)
O4HA O 0.4090(5) 0.7388(6) 0.3210(6)
O4JA O 0.4090(5) 0.6790(6) 0.2612(6)
O4GA O 0.5910(5) 1.2612(6) 0.3210(6)
O4KA O 0.5910(5) 1.3210(6) 0.2612(6)
O4DA O -0.2612(5) 1.3210(6) 0.4090(6)
O4NA O -0.3210(5) 1.2612(6) 0.4090(6)
O4F O 0.2388(5) 0.8210(6) 0.9090(6)
O4O O 0.0910(5) 1.1790(6) 0.2388(6)
O4G O 0.2388(5) 1.1790(6) 0.0910(6)
O4RA O 0.2612(5) 1.4090(6) 0.6790(6)
O4SA O 0.2612(5) 0.5910(6) 0.3210(6)
O4P O 0.1790(5) 0.7612(6) 0.9090(6)
O4D O 0.7612(5) 1.1790(6) 0.9090(6)
O4L O 0.9090(5) 1.1790(6) 0.7612(6)
O4Z O 0.3210(5) 1.4090(6) 0.7388(6)
O5V O 0.1689(6) 0.9725(4) 0.8932(5)
O5J O -0.0275(6) 1.1689(4) 0.8932(5)
O5L O -0.0275(6) 1.1068(4) 0.8311(5)
O5G O 0.1689(6) 1.1068(4) 1.0275(5)
O5S O 0.1068(6) 1.1689(4) 1.0275(5)
O5M O 0.0275(6) 0.8932(4) 0.8311(5)
O5I O 0.0275(6) 0.8311(4) 0.8932(5)
O5U O -0.1689(6) 1.0275(4) 0.8932(5)
O5A O -0.1068(6) 1.0275(4) 0.8311(5)
O5Q O -0.1068(6) 0.8311(4) 1.0275(5)
O5E O -0.1689(6) 0.8932(4) 1.0275(5)
O5F O 0.1689(6) 0.8932(4) 0.9725(5)
O5P O 0.1068(6) 0.8311(4) 0.9725(5)
O5C O 0.1068(6) 1.0275(4) 1.1689(5)
O5W O 0.1689(6) 1.0275(4) 1.1068(5)
O5H O -0.0275(6) 0.8311(4) 1.1068(5)
O5N O -0.0275(6) 0.8932(4) 1.1689(5)
O5C* O 0.1068(6) 1.0275(4) 0.1689(5)
O5W* O 0.1689(6) 1.0275(4) 0.1068(5)
O5H* O -0.0275(6) 0.8311(4) 0.1068(5)
O5N* O -0.0275(6) 0.8932(4) 0.1689(5)
O5F* O 0.1689(6) 0.8932(4) -0.0275(5)
O5P* O 0.1068(6) 0.8311(4) -0.0275(5)
O5O O 0.0275(6) 1.1068(4) 0.1689(5)
O5G* O 0.1689(6) 1.1068(4) 0.0275(5)
O5OA O 0.3932(6) 1.3311(4) 0.5275(5)
O5FA O 0.4725(6) 1.3311(4) 0.6068(5)
O5CA O 0.3311(6) 1.3932(4) 0.5275(5)
O5RA O 0.3311(6) 1.4725(4) 0.6068(5)
O5PA O 0.3932(6) 0.6689(4) 0.4725(5)
O5HA O 0.4725(6) 0.6689(4) 0.3932(5)
O5BA O 0.3311(6) 0.6068(4) 0.4725(5)
O5SA O 0.3311(6) 0.5275(4) 0.3932(5)
O5U* O 0.8311(6) 1.0275(4) 0.8932(5)
O5D O 0.8311(6) 1.1068(4) 0.9725(5)
O5A* O 0.8932(6) 1.0275(4) 0.8311(5)
O5L* O 0.9725(6) 1.1068(4) 0.8311(5)
O5LA O 0.4725(6) 1.3932(4) 0.6689(5)
O5Z O 0.3932(6) 1.4725(4) 0.6689(5)
O6V O 0.4383(7) 0.9752(7) 0.6956(7)
O6C O 0.3044(7) 1.0248(7) 0.4383(7)
O6W O 0.4383(7) 1.0248(7) 0.3044(7)
O6OA O 0.1956(7) 1.0617(7) 0.5248(7)
O6CA O 0.0617(7) 1.1956(7) 0.5248(7)
O6PA O 0.1956(7) 0.9383(7) 0.4752(7)
O6BA O 0.0617(7) 0.8044(7) 0.4752(7)
O6M O 0.0248(7) 0.6956(7) 0.5617(7)
O6I O 0.0248(7) 0.5617(7) 0.6956(7)
O6U O 0.5617(7) 1.0248(7) 0.6956(7)
O6A O 0.6956(7) 1.0248(7) 0.5617(7)
O6FA O 0.4752(7) 1.0617(7) 0.8044(7)
O6LA O 0.4752(7) 1.1956(7) 0.9383(7)
O6IA O 0.5248(7) 0.9383(7) 0.8044(7)
O6MA O 0.5248(7) 0.8044(7) 0.9383(7)
O6T O 0.5617(7) 0.9752(7) 0.3044(7)
O6B O 0.6956(7) 0.9752(7) 0.4383(7)
O6HA O 0.4752(7) 0.9383(7) 0.1956(7)
O6JA O 0.4752(7) 0.8044(7) 0.0617(7)
O6GA O 0.5248(7) 1.0617(7) 0.1956(7)
O6KA O 0.5248(7) 1.1956(7) 0.0617(7)
O6DA O -0.0617(7) 1.1956(7) 0.4752(7)
O6NA O -0.1956(7) 1.0617(7) 0.4752(7)
O6O O 0.0248(7) 1.3044(7) 0.4383(7)
O6L O -0.0248(7) 1.3044(7) 0.5617(7)
O6EA O -0.0617(7) 0.8044(7) 0.5248(7)
O6N O -0.0248(7) 0.6956(7) 0.4383(7)
O6J O -0.0248(7) 0.4383(7) 0.6956(7)
O6UA O -0.0617(7) 0.5248(7) 0.8044(7)
O6RA O 0.0617(7) 0.4752(7) 0.8044(7)
C1G C 0.0637(8) 1.1296(6) 0.9363(6)
C1J C 0.0637(8) 1.0637(6) 0.8704(6)
C1E C -0.0637(8) 0.8704(6) 0.9363(6)
C1A C -0.1296(8) 0.9363(6) 0.9363(6)
C1I C -0.0637(8) 0.9363(6) 0.8704(6)
C1F C 0.0637(8) 0.8704(6) 1.0637(6)
C1H C 0.0637(8) 0.9363(6) 1.1296(6)
C1C C 0.1296(8) 0.9363(6) 1.0637(6)
C1C* C 0.1296(8) 0.9363(6) 0.0637(6)
C1F* C 0.0637(8) 0.8704(6) 0.0637(6)
C1H* C 0.0637(8) 0.9363(6) 0.1296(6)
H1G H 0.05000 1.16260 0.95000
H1J H 0.05000 1.05000 0.83740
H1E H -0.05000 0.83740 0.95000
H1A H -0.16260 0.95000 0.95000
H1I H -0.05000 0.95000 0.83740
H1F H 0.05000 0.83740 1.05000
H1H H 0.05000 0.95000 1.16260
H1C H 0.16260 0.95000 1.05000
H1C* H 0.16260 0.95000 0.05000
H1F* H 0.05000 0.83740 0.05000
H1H* H 0.05000 0.95000 0.16260
C2G C 0.1070(5) 1.1070(7) 0.9574(5)
C2J C 0.0426(5) 1.1070(7) 0.8930(5)
C2I C -0.0426(5) 0.8930(7) 0.8930(5)
C2E C -0.1070(5) 0.8930(7) 0.9574(5)
C2A C -0.1070(5) 0.9574(7) 0.8930(5)
C2F C 0.1070(5) 0.8930(7) 1.0426(5)
C2H C 0.0426(5) 0.8930(7) 1.1070(5)
C2C C 0.1070(5) 0.9574(7) 1.1070(5)
C2C* C 0.1070(5) 0.9574(7) 0.1070(5)
C2F* C 0.1070(5) 0.8930(7) 0.0426(5)
C2H* C 0.0426(5) 0.8930(7) 0.1070(5)
C3C C 0.2235(6) 1.0851(9) 0.2235(6)
C3CA C 0.2765(6) 1.2765(9) 0.5851(6)
C3BA C 0.2765(6) 0.7235(9) 0.4149(6)
C3I C 0.0851(6) 0.7765(9) 0.7765(6)
C3A C 0.7765(6) 1.0851(9) 0.7765(6)
C3FA C 0.4149(6) 1.2765(9) 0.7235(6)
C3IA C 0.5851(6) 0.7235(9) 0.7235(6)
C3B C 0.7765(6) 0.9149(9) 0.2235(6)
C3HA C 0.4149(6) 0.7235(9) 0.2765(6)
C3GA C 0.5851(6) 1.2765(9) 0.2765(6)
C3DA C -0.2765(6) 1.2765(9) 0.4149(6)
C4J C -0.0079(5) 1.1309(9) 0.8691(5)
C4G C 0.1309(5) 1.1309(9) 1.0079(5)
C4I C 0.0079(5) 0.8691(9) 0.8691(5)
C4A C -0.1309(5) 1.0079(9) 0.8691(5)
C4E C -0.1309(5) 0.8691(9) 1.0079(5)
C4F C 0.1309(5) 0.8691(9) 0.9921(5)
C4C C 0.1309(5) 1.0079(9) 1.1309(5)
C4H C -0.0079(5) 0.8691(9) 1.1309(5)
C4C* C 0.1309(5) 1.0079(9) 0.1309(5)
C4H* C -0.0079(5) 0.8691(9) 0.1309(5)
C4F* C 0.1309(5) 0.8691(9) -0.0079(5)
C5C C 0.3375(8) 1.0391(12) 0.3375(8)
C5CA C 0.1625(8) 1.1625(12) 0.5391(8)
C5BA C 0.1625(8) 0.8375(12) 0.4609(8)
C5I C 0.0391(8) 0.6625(12) 0.6625(8)
C5A C 0.6625(8) 1.0391(12) 0.6625(8)
C5FA C 0.4609(8) 1.1625(12) 0.8375(8)
C5IA C 0.5391(8) 0.8375(12) 0.8375(8)
C5B C 0.6625(8) 0.9609(12) 0.3375(8)
C5HA C 0.4609(8) 0.8375(12) 0.1625(8)
C5GA C 0.5391(8) 1.1625(12) 0.1625(8)
C5DA C -0.1625(8) 1.1625(12) 0.4609(8)
H2C H 0.36310 1.02960 0.36310
H2CA H 0.13690 1.13690 0.52960
H2BA H 0.13690 0.86310 0.47040
H2I H 0.02960 0.63690 0.63690
H2A H 0.63690 1.02960 0.63690
H2FA H 0.47040 1.13690 0.86310
H2IA H 0.52960 0.86310 0.86310
H2B H 0.63690 0.97040 0.36310
H2HA H 0.47040 0.86310 0.13690
H2GA H 0.52960 1.13690 0.13690
H2DA H -0.13690 1.13690 0.47040
C6V C 0.4040(12) 0.9637(9) 0.7276(9)
C6C C 0.2724(12) 1.0363(9) 0.4040(9)
C6W C 0.4040(12) 1.0363(9) 0.2724(9)
C6OA C 0.2276(12) 1.0960(9) 0.5363(9)
C6CA C 0.0960(12) 1.2276(9) 0.5363(9)
C6PA C 0.2276(12) 0.9040(9) 0.4637(9)
C6BA C 0.0960(12) 0.7724(9) 0.4637(9)
C6M C 0.0363(12) 0.7276(9) 0.5960(9)
C6I C 0.0363(12) 0.5960(9) 0.7276(9)
C6U C 0.5960(12) 1.0363(9) 0.7276(9)
C6A C 0.7276(12) 1.0363(9) 0.5960(9)
C6FA C 0.4637(12) 1.0960(9) 0.7724(9)
C6LA C 0.4637(12) 1.2276(9) 0.9040(9)
C6IA C 0.5363(12) 0.9040(9) 0.7724(9)
C6MA C 0.5363(12) 0.7724(9) 0.9040(9)
C6T C 0.5960(12) 0.9637(9) 0.2724(9)
C6B C 0.7276(12) 0.9637(9) 0.4040(9)
C6HA C 0.4637(12) 0.9040(9) 0.2276(9)
C6JA C 0.4637(12) 0.7724(9) 0.0960(9)
C6GA C 0.5363(12) 1.0960(9) 0.2276(9)
C6KA C 0.5363(12) 1.2276(9) 0.0960(9)
C6DA C -0.0960(12) 1.2276(9) 0.4637(9)
C6NA C -0.2276(12) 1.0960(9) 0.4637(9)
C7V C 0.3156(10) 0.9362(7) 0.7550(7)
C7C C 0.245(1) 1.0638(7) 0.3156(7)
C7W C 0.3156(10) 1.0638(7) 0.2450(7)
C7OA C 0.255(1) 1.1844(7) 0.5638(7)
C7CA C 0.1844(10) 1.2550(7) 0.5638(7)
C7PA C 0.255(1) 0.8156(7) 0.4362(7)
C7BA C 0.1844(10) 0.7450(7) 0.4362(7)
C7M C 0.0638(10) 0.7550(7) 0.6844(7)
C7I C 0.0638(10) 0.6844(7) 0.7550(7)
C7U C 0.6844(10) 1.0638(7) 0.7550(7)
C7A C 0.755(1) 1.0638(7) 0.6844(7)
C7FA C 0.4362(10) 1.1844(7) 0.7450(7)
C7LA C 0.4362(10) 1.2550(7) 0.8156(7)
C7IA C 0.5638(10) 0.8156(7) 0.7450(7)
C7MA C 0.5638(10) 0.7450(7) 0.8156(7)
C7T C 0.6844(10) 0.9362(7) 0.2450(7)
C7B C 0.755(1) 0.9362(7) 0.3156(7)
C7HA C 0.4362(10) 0.8156(7) 0.2550(7)
C7JA C 0.4362(10) 0.7450(7) 0.1844(7)
C7GA C 0.5638(10) 1.1844(7) 0.2550(7)
C7KA C 0.5638(10) 1.2550(7) 0.1844(7)
C7DA C -0.1844(10) 1.2550(7) 0.4362(7)
C7NA C -0.255(1) 1.1844(7) 0.4362(7)
H3V H 0.32480 0.93040 0.78950
H3C H 0.21050 1.06960 0.32480
H3W H 0.32480 1.06960 0.21050
H3OA H 0.28950 1.17520 0.56960
H3CA H 0.17520 1.28950 0.56960
H3PA H 0.28950 0.82480 0.43040
H3BA H 0.17520 0.71050 0.43040
H3M H 0.06960 0.78950 0.67520
H3I H 0.06960 0.67520 0.78950
H3U H 0.67520 1.06960 0.78950
H3A H 0.78950 1.06960 0.67520
H3FA H 0.43040 1.17520 0.71050
H3LA H 0.43040 1.28950 0.82480
H3IA H 0.56960 0.82480 0.71050
H3MA H 0.56960 0.71050 0.82480
H3T H 0.67520 0.93040 0.21050
H3B H 0.78950 0.93040 0.32480
H3HA H 0.43040 0.82480 0.28950
H3JA H 0.43040 0.71050 0.17520
H3GA H 0.56960 1.17520 0.28950
H3KA H 0.56960 1.28950 0.17520
H3DA H -0.17520 1.28950 0.43040
H3NA H -0.28950 1.17520 0.43040
C8V C 0.3525(11) 0.9535(7) 0.7139(9)
C8C C 0.2861(11) 1.0465(7) 0.3525(9)
C8W C 0.3525(11) 1.0465(7) 0.2861(9)
C8OA C 0.2139(11) 1.1475(7) 0.5465(9)
C8CA C 0.1475(11) 1.2139(7) 0.5465(9)
C8PA C 0.2139(11) 0.8525(7) 0.4535(9)
C8BA C 0.1475(11) 0.7861(7) 0.4535(9)
C8M C 0.0465(11) 0.7139(7) 0.6475(9)
C8I C 0.0465(11) 0.6475(7) 0.7139(9)
C8U C 0.6475(11) 1.0465(7) 0.7139(9)
C8A C 0.7139(11) 1.0465(7) 0.6475(9)
C8FA C 0.4535(11) 1.1475(7) 0.7861(9)
C8LA C 0.4535(11) 1.2139(7) 0.8525(9)
C8IA C 0.5465(11) 0.8525(7) 0.7861(9)
C8MA C 0.5465(11) 0.7861(7) 0.8525(9)
C8T C 0.6475(11) 0.9535(7) 0.2861(9)
C8B C 0.7139(11) 0.9535(7) 0.3525(9)
C8HA C 0.4535(11) 0.8525(7) 0.2139(9)
C8JA C 0.4535(11) 0.7861(7) 0.1475(9)
C8GA C 0.5465(11) 1.1475(7) 0.2139(9)
C8KA C 0.5465(11) 1.2139(7) 0.1475(9)
C8DA C -0.1475(11) 1.2139(7) 0.4535(9)
C8NA C -0.2139(11) 1.1475(7) 0.4535(9)
C9C C 0.2650(7) 1.0703(10) 0.2650(7)
C9CA C 0.2350(7) 1.235(1) 0.5703(7)
C9BA C 0.2350(7) 0.765(1) 0.4297(7)
C9I C 0.0703(7) 0.735(1) 0.7350(7)
C9A C 0.7350(7) 1.0703(10) 0.7350(7)
C9FA C 0.4297(7) 1.235(1) 0.7650(7)
C9IA C 0.5703(7) 0.765(1) 0.7650(7)
C9B C 0.7350(7) 0.9297(10) 0.2650(7)
C9HA C 0.4297(7) 0.765(1) 0.2350(7)
C9GA C 0.5703(7) 1.235(1) 0.2350(7)
C9DA C -0.2350(7) 1.235(1) 0.4297(7)
C11V C 0.2780(14) 1.088(5) 0.7973(40)
#END
