
#######################################################################
#
#                 Cambridge Crystallographic Data Centre
#                                CCDC
#
#######################################################################
#
# If this CIF has been generated from an entry in the Cambridge
# Structural Database, then it will include bibliographic, chemical,
# crystal, experimental, refinement or atomic coordinate data resulting
# from the CCDC's data processing and validation procedures.
#
#######################################################################

data_CSD_CIF_IMUVES
_audit_creation_date 2011-06-16
_audit_creation_method CSD-ConQuest-V1
_database_code_CSD IMUVES
_database_code_depnum_ccdc_archive 'CCDC 799215'
_chemical_formula_sum 'C73 H42 In9 N1 O56'
_chemical_formula_moiety
;
(C1 H6 N1 1+)n,n(C72 H36 In9 O56 1-)
;
_journal_coden_Cambridge 4
_journal_volume 132
_journal_year 2010
_journal_page_first 17062
_journal_name_full 'J.Am.Chem.Soc. '
loop_
_publ_author_name
"Shou-Tian Zheng"
"J.T.Bu"
"Yufei Li"
"Tao Wu"
"Fan Zuo"
"Pingyun Feng"
"Xianhui Bu"
_chemical_name_systematic
;
catena-[Methylammonium 
bis(\m~6~-benzene-1,3,5-tricarboxylato-O,O',O'',O''',O'''',O''''')-hexakis(\m~
4~-benzene-1,3,5-tricarboxylato-O,O',O'',O''',O'''',O''''')-bis(\m~3~-oxo)-hex
a-aqua-nona-indium(iii) unknown solvate]
;
_chemical_name_common
;
CPM-6
;
_cell_volume  17186.695
_exptl_crystal_density_diffrn 1.106
_exptl_special_details
;
Isostructural with the dimethylammonium analogue CPM-5

;
_diffrn_ambient_temperature 296
_refine_special_details
;
In1 is disordered by symmetry over two sites with occupancy 0.50. In2A and 
In2 disordered over two sites with occupancies 0.32:0.18, with both sites 
further disordered by two-fold symmetry. Disordered solvent (likely to 
include N-methylformamide and water) has not been modelled from the 
diffraction data.
;
#These two values have been output from a single CSD field.
_refine_ls_R_factor_gt 0.0982
_refine_ls_wR_factor_gt 0.0982
_symmetry_cell_setting cubic
_symmetry_space_group_name_H-M 'I -4 3 m'
_symmetry_Int_Tables_number 217
loop_
_symmetry_equiv_pos_site_id
_symmetry_equiv_pos_as_xyz
1 x,y,z
2 -x,-y,z
3 -x,y,-z
4 x,-y,-z
5 z,x,y
6 z,-x,-y
7 -z,-x,y
8 -z,x,-y
9 y,z,x
10 -y,z,-x
11 y,-z,-x
12 -y,-z,x
13 y,x,z
14 -y,-x,z
15 y,-x,-z
16 -y,x,-z
17 x,z,y
18 -x,z,-y
19 -x,-z,y
20 x,-z,-y
21 z,y,x
22 z,-y,-x
23 -z,y,-x
24 -z,-y,x
25 1/2+x,1/2+y,1/2+z
26 1/2-x,1/2-y,1/2+z
27 1/2-x,1/2+y,1/2-z
28 1/2+x,1/2-y,1/2-z
29 1/2+z,1/2+x,1/2+y
30 1/2+z,1/2-x,1/2-y
31 1/2-z,1/2-x,1/2+y
32 1/2-z,1/2+x,1/2-y
33 1/2+y,1/2+z,1/2+x
34 1/2-y,1/2+z,1/2-x
35 1/2+y,1/2-z,1/2-x
36 1/2-y,1/2-z,1/2+x
37 1/2+y,1/2+x,1/2+z
38 1/2-y,1/2-x,1/2+z
39 1/2+y,1/2-x,1/2-z
40 1/2-y,1/2+x,1/2-z
41 1/2+x,1/2+z,1/2+y
42 1/2-x,1/2+z,1/2-y
43 1/2-x,1/2-z,1/2+y
44 1/2+x,1/2-z,1/2-y
45 1/2+z,1/2+y,1/2+x
46 1/2+z,1/2-y,1/2-x
47 1/2-z,1/2+y,1/2-x
48 1/2-z,1/2-y,1/2+x
_cell_length_a 25.8066(11)
_cell_length_b 25.8066(11)
_cell_length_c 25.8066(11)
_cell_angle_alpha 90
_cell_angle_beta 90
_cell_angle_gamma 90
_cell_formula_units_Z 4
loop_
_atom_type_symbol
_atom_type_radius_bond
C 0.68
In 1.42
N 0.68
O 0.68
loop_
_atom_site_label
_atom_site_type_symbol
_atom_site_fract_x
_atom_site_fract_y
_atom_site_fract_z
In1 In 0.20020(9) 0.09634(12) 0.11055(12)
In2? In 0.2110(3) 0.00000 0.50000
O1 O 0.2373(6) 0.0910(7) 0.1763(6)
O2 O 0.2647(7) 0.0702(7) 0.0702(7)
O3 O 0.2287(11) 0.0261(10) 0.417(1)
O4 O 0.1669(5) 0.1061(7) 0.0264(5)
O5 O 0.1370(8) 0.1370(8) 0.1370(8)
C1 C 0.1087(5) 0.1087(5) -0.0419(8)
C2 C 0.1306(5) 0.1306(5) 0.0067(10)
C3 C 0.0633(7) 0.1317(8) -0.0633(7)
C4 C 0.2221(7) 0.0834(11) 0.2221(7)
C5 C 0.2453(8) 0.0575(8) 0.3163(8)
C6 C 0.2874(14) 0.0413(10) 0.3489(9)
C7 C 0.2627(9) 0.0703(14) 0.2627(9)
C8 C 0.3306(11) 0.0392(15) 0.3306(11)
C9 C 0.2706(14) 0.0317(13) 0.4017(12)
O6 O 0.3015(11) 0.0196(7) 0.4374(9)
N1 N 0.180(2) -0.060(6) 0.320(5)
C10 C 0.150(7) -0.040(7) 0.277(6)
In3 In 0.2595(9) 0.00000 0.50000
In1T In 0.11055(9) 0.09634(12) 0.20020(12)
In1PA In 0.29980(9) 0.38945(12) 0.59634(12)
In1DA In 0.38945(9) 0.29980(12) 0.59634(12)
In1C In 0.20020(9) -0.09634(12) 0.88945(12)
In1U In 0.11055(9) -0.09634(12) 0.79980(12)
In1OA In 0.29980(9) -0.38945(12) 0.40366(12)
In1EA In 0.38945(9) -0.29980(12) 0.40366(12)
In1P In 0.20020(9) 0.11055(12) 0.09634(12)
In1H In 0.09634(9) 0.11055(12) 0.20020(12)
In1Y In 0.29980(9) 0.40366(12) 0.61055(12)
In1KA In 0.40366(9) 0.29980(12) 0.61055(12)
In1S In 0.20020(9) -0.11055(12) 0.90366(12)
In1J In 0.09634(9) -0.11055(12) 0.79980(12)
In1Z In 0.29980(9) -0.40366(12) 0.38945(12)
In1MA In 0.40366(9) -0.29980(12) 0.38945(12)
In1D In 0.11055(9) 0.20020(12) 0.09634(12)
In1HA In 0.59634(9) 0.38945(12) 0.29980(12)
In1LA In 0.59634(9) 0.29980(12) 0.38945(12)
In1W In 0.88945(9) -0.09634(12) 0.20020(12)
In1A In 0.79980(9) -0.09634(12) 0.11055(12)
In1GA In 0.40366(9) -0.38945(12) 0.29980(12)
In1FA In 0.59634(9) -0.38945(12) 0.70020(12)
In1JA In 0.59634(9) -0.29980(12) 0.61055(12)
In1V In 0.88945(9) 0.09634(12) 0.79980(12)
In1B In 0.79980(9) 0.09634(12) 0.88945(12)
In1IA In 0.40366(9) 0.38945(12) 0.70020(12)
In1L In 0.09634(9) 0.20020(12) 0.11055(12)
In1E In 0.11055(9) -0.20020(12) 0.90366(12)
In1N In 0.09634(9) -0.20020(12) 0.88945(12)
In1G In -0.11055(9) 0.20020(12) -0.09634(12)
In1V* In -0.11055(9) 0.09634(12) -0.20020(12)
In1J* In 0.09634(9) -0.11055(12) -0.20020(12)
In1S* In 0.20020(9) -0.11055(12) -0.09634(12)
In1W* In -0.11055(9) -0.09634(12) 0.20020(12)
In1F In -0.11055(9) -0.20020(12) 0.09634(12)
In1N* In 0.09634(9) -0.20020(12) -0.11055(12)
In1C* In 0.20020(9) -0.09634(12) -0.11055(12)
In1O In -0.09634(9) 0.20020(12) -0.11055(12)
In1B* In -0.20020(9) 0.09634(12) -0.11055(12)
In1R In -0.20020(9) -0.11055(12) 0.09634(12)
In1K In -0.09634(9) -0.11055(12) 0.20020(12)
In1F* In -0.11055(9) -0.20020(12) 1.09634(12)
In1W** In -0.11055(9) -0.09634(12) 1.20020(12)
In1H* In 0.09634(9) 0.11055(12) 1.20020(12)
In1P* In 0.20020(9) 0.11055(12) 1.09634(12)
In1V** In -0.11055(9) 0.09634(12) 0.79980(12)
In1G* In -0.11055(9) 0.20020(12) 0.90366(12)
O1T O 0.1763(6) 0.0910(7) 0.2373(6)
O1PA O 0.2627(6) 0.3237(7) 0.5910(6)
O1DA O 0.3237(6) 0.2627(7) 0.5910(6)
O1C O 0.2373(6) -0.0910(7) 0.8237(6)
O1U O 0.1763(6) -0.0910(7) 0.7627(6)
O1OA O 0.2627(6) -0.3237(7) 0.4090(6)
O1EA O 0.3237(6) -0.2627(7) 0.4090(6)
O1P O 0.2373(6) 0.1763(7) 0.0910(6)
O1D O 0.1763(6) 0.2373(7) 0.0910(6)
O1HA O 0.5910(6) 0.3237(7) 0.2627(6)
O1LA O 0.5910(6) 0.2627(7) 0.3237(6)
O1W O 0.8237(6) -0.0910(7) 0.2373(6)
O1A O 0.7627(6) -0.0910(7) 0.1763(6)
O1GA O 0.4090(6) -0.3237(7) 0.2627(6)
O1MA O 0.4090(6) -0.2627(7) 0.3237(6)
O1FA O 0.5910(6) -0.3237(7) 0.7373(6)
O1JA O 0.5910(6) -0.2627(7) 0.6763(6)
O1V O 0.8237(6) 0.0910(7) 0.7627(6)
O1B O 0.7627(6) 0.0910(7) 0.8237(6)
O1IA O 0.4090(6) 0.3237(7) 0.7373(6)
O1KA O 0.4090(6) 0.2627(7) 0.6763(6)
O1H O 0.0910(6) 0.1763(7) 0.2373(6)
O1L O 0.0910(6) 0.2373(7) 0.1763(6)
O1S O 0.2373(6) -0.1763(7) 0.9090(6)
O1E O 0.1763(6) -0.2373(7) 0.9090(6)
O1J O 0.0910(6) -0.1763(7) 0.7627(6)
O1N O 0.0910(6) -0.2373(7) 0.8237(6)
O1NA O 0.7373(6) -0.3237(7) 0.5910(6)
O1BA O 0.6763(6) -0.2627(7) 0.5910(6)
O1QA O 0.7373(6) 0.3237(7) 0.4090(6)
O1CA O 0.6763(6) 0.2627(7) 0.4090(6)
O1K O 0.9090(6) -0.1763(7) 0.2373(6)
O1M O 0.9090(6) -0.2373(7) 0.1763(6)
O1R O 0.7627(6) -0.1763(7) 0.0910(6)
O1F O 0.8237(6) -0.2373(7) 0.0910(6)
O1I O 0.9090(6) 0.1763(7) 0.7627(6)
O1O O 0.9090(6) 0.2373(7) 0.8237(6)
O1Q O 0.7627(6) 0.1763(7) 0.9090(6)
O1G O 0.8237(6) 0.2373(7) 0.9090(6)
O2H O 0.0702(7) 0.0702(7) 0.2647(7)
O2C O 0.2647(7) -0.0702(7) 0.9298(7)
O2J O 0.0702(7) -0.0702(7) 0.7353(7)
O2K O 0.9298(7) -0.0702(7) 0.2647(7)
O2A O 0.7353(7) -0.0702(7) 0.0702(7)
O2I O 0.9298(7) 0.0702(7) 0.7353(7)
O2B O 0.7353(7) 0.0702(7) 0.9298(7)
O3T O 0.4170(11) 0.0261(10) 0.2287(10)
O3PA O 0.2713(11) 0.083(1) 0.5261(10)
O3DA O 0.0830(11) 0.2713(10) 0.5261(10)
O3C O 0.2287(11) -0.0261(10) 0.583(1)
O3U O 0.4170(11) -0.0261(10) 0.7713(10)
O3OA O 0.2713(11) -0.083(1) 0.4739(10)
O3EA O 0.0830(11) -0.2713(10) 0.4739(10)
O3P O 0.2287(11) 0.417(1) 0.0261(10)
O3D O 0.4170(11) 0.2287(10) 0.0261(10)
O3HA O 0.5261(11) 0.083(1) 0.2713(10)
O3LA O 0.5261(11) 0.2713(10) 0.083(1)
O3W O 0.5830(11) -0.0261(10) 0.2287(10)
O3A O 0.7713(11) -0.0261(10) 0.417(1)
O3GA O 0.4739(11) -0.083(1) 0.2713(10)
O3MA O 0.4739(11) -0.2713(10) 0.083(1)
O3FA O 0.5261(11) -0.083(1) 0.7287(10)
O3JA O 0.5261(11) -0.2713(10) 0.917(1)
O3V O 0.5830(11) 0.0261(10) 0.7713(10)
O3B O 0.7713(11) 0.0261(10) 0.583(1)
O3IA O 0.4739(11) 0.083(1) 0.7287(10)
O3KA O 0.4739(11) 0.2713(10) 0.917(1)
O3H O 0.0261(11) 0.417(1) 0.2287(10)
O3L O 0.0261(11) 0.2287(10) 0.417(1)
O3S O 0.2287(11) -0.417(1) 0.9739(10)
O3E O 0.4170(11) -0.2287(10) 0.9739(10)
O3J O 0.0261(11) -0.417(1) 0.7713(10)
O3N O 0.0261(11) -0.2287(10) 0.583(1)
O3NA O 0.7287(11) -0.083(1) 0.5261(10)
O3BA O 0.9170(11) -0.2713(10) 0.5261(10)
O3QA O 0.7287(11) 0.083(1) 0.4739(10)
O3CA O 0.9170(11) 0.2713(10) 0.4739(10)
O3K O 0.9739(11) -0.417(1) 0.2287(10)
O3M O 0.9739(11) -0.2287(10) 0.417(1)
O3R O 0.7713(11) -0.417(1) 0.0261(10)
O3F O 0.5830(11) -0.2287(10) 0.0261(10)
O3I O 0.9739(11) 0.417(1) 0.7713(10)
O3O O 0.9739(11) 0.2287(10) 0.583(1)
O3Q O 0.7713(11) 0.417(1) 0.9739(10)
O3G O 0.5830(11) 0.2287(10) 0.9739(10)
O4L O 0.1061(5) 0.1669(7) 0.0264(5)
O4G O -0.0264(5) 0.1669(7) -0.1061(5)
O4V O -0.0264(5) 0.1061(7) -0.1669(5)
O4J O 0.1061(5) -0.0264(7) -0.1669(5)
O4S O 0.1669(5) -0.0264(7) -0.1061(5)
O4P O 0.1669(5) 0.0264(7) 0.1061(5)
O4H O 0.1061(5) 0.0264(7) 0.1669(5)
O4W O -0.0264(5) -0.1061(7) 0.1669(5)
O4F O -0.0264(5) -0.1669(7) 0.1061(5)
O4N O 0.1061(5) -0.1669(7) -0.0264(5)
O4C O 0.1669(5) -0.1061(7) -0.0264(5)
O4T O 0.0264(5) 0.1061(7) 0.1669(5)
O4D O 0.0264(5) 0.1669(7) 0.1061(5)
O4O O -0.1061(5) 0.1669(7) -0.0264(5)
O4B O -0.1669(5) 0.1061(7) -0.0264(5)
O4R O -0.1669(5) -0.0264(7) 0.1061(5)
O4K O -0.1061(5) -0.0264(7) 0.1669(5)
O4C* O 0.1669(5) -0.1061(7) 0.9736(5)
O4N* O 0.1061(5) -0.1669(7) 0.9736(5)
O4F* O -0.0264(5) -0.1669(7) 1.1061(5)
O4W* O -0.0264(5) -0.1061(7) 1.1669(5)
O4H* O 0.1061(5) 0.0264(7) 1.1669(5)
O4P* O 0.1669(5) 0.0264(7) 1.1061(5)
O4S* O 0.1669(5) -0.0264(7) 0.8939(5)
O4J* O 0.1061(5) -0.0264(7) 0.8331(5)
O4V* O -0.0264(5) 0.1061(7) 0.8331(5)
O4G* O -0.0264(5) 0.1669(7) 0.8939(5)
O4L* O 0.1061(5) 0.1669(7) 1.0264(5)
O4* O 0.1669(5) 0.1061(7) 1.0264(5)
O4U O 0.0264(5) -0.1061(7) 0.8331(5)
O4E O 0.0264(5) -0.1669(7) 0.8939(5)
O4M O -0.1061(5) -0.1669(7) 1.0264(5)
O4A O -0.1669(5) -0.1061(7) 1.0264(5)
O4Q O -0.1669(5) 0.0264(7) 0.8939(5)
O4I O -0.1061(5) 0.0264(7) 0.8331(5)
O4W** O 0.9736(5) -0.1061(7) 0.1669(5)
O4F** O 0.9736(5) -0.1669(7) 0.1061(5)
O4N** O 1.1061(5) -0.1669(7) -0.0264(5)
O4C** O 1.1669(5) -0.1061(7) -0.0264(5)
O4P** O 1.1669(5) 0.0264(7) 0.1061(5)
O4H** O 1.1061(5) 0.0264(7) 0.1669(5)
O4K* O 0.8939(5) -0.0264(7) 0.1669(5)
O4R* O 0.8331(5) -0.0264(7) 0.1061(5)
O4B* O 0.8331(5) 0.1061(7) -0.0264(5)
O4O* O 0.8939(5) 0.1669(7) -0.0264(5)
O4D* O 1.0264(5) 0.1669(7) 0.1061(5)
O4T* O 1.0264(5) 0.1061(7) 0.1669(5)
O4A* O 0.8331(5) -0.1061(7) 0.0264(5)
O4M* O 0.8939(5) -0.1669(7) 0.0264(5)
O4E* O 1.0264(5) -0.1669(7) -0.1061(5)
O4U* O 1.0264(5) -0.1061(7) -0.1669(5)
O4I* O 0.8939(5) 0.0264(7) -0.1669(5)
O4Q* O 0.8331(5) 0.0264(7) -0.1061(5)
O4V** O 0.9736(5) 0.1061(7) 0.8331(5)
O4G** O 0.9736(5) 0.1669(7) 0.8939(5)
O4L** O 1.1061(5) 0.1669(7) 1.0264(5)
O4** O 1.1669(5) 0.1061(7) 1.0264(5)
O4S** O 1.1669(5) -0.0264(7) 0.8939(5)
O4J** O 1.1061(5) -0.0264(7) 0.8331(5)
O4I** O 0.8939(5) 0.0264(7) 0.8331(5)
O4Q** O 0.8331(5) 0.0264(7) 0.8939(5)
O4A** O 0.8331(5) -0.1061(7) 1.0264(5)
O4M** O 0.8939(5) -0.1669(7) 1.0264(5)
O4E** O 1.0264(5) -0.1669(7) 0.8939(5)
O4U** O 1.0264(5) -0.1061(7) 0.8331(5)
O4B** O 0.8331(5) 0.1061(7) 0.9736(5)
O4O** O 0.8939(5) 0.1669(7) 0.9736(5)
O4D** O 1.0264(5) 0.1669(7) 1.1061(5)
O4T** O 1.0264(5) 0.1061(7) 1.1669(5)
O4K** O 0.8939(5) -0.0264(7) 1.1669(5)
O4R** O 0.8331(5) -0.0264(7) 1.1061(5)
O5C O 0.1370(8) -0.1370(8) 0.8630(8)
O5A O 0.8630(8) -0.1370(8) 0.1370(8)
O5B O 0.8630(8) 0.1370(8) 0.8630(8)
C1G C 0.0419(5) 0.1087(5) -0.1087(8)
C1J C 0.1087(5) 0.0419(5) -0.1087(8)
C1H C 0.1087(5) -0.0419(5) 0.1087(8)
C1F C 0.0419(5) -0.1087(5) 0.1087(8)
C1C C 0.1087(5) -0.1087(5) 0.0419(8)
C1D C -0.0419(5) 0.1087(5) 0.1087(8)
C1B C -0.1087(5) 0.1087(5) 0.0419(8)
C1K C -0.1087(5) 0.0419(5) 0.1087(8)
C1C* C 0.1087(5) -0.1087(5) 1.0419(8)
C1F* C 0.0419(5) -0.1087(5) 1.1087(8)
C1H* C 0.1087(5) -0.0419(5) 1.1087(8)
C1J* C 0.1087(5) 0.0419(5) 0.8913(8)
C1G* C 0.0419(5) 0.1087(5) 0.8913(8)
C1* C 0.1087(5) 0.1087(5) 0.9581(8)
C1E C -0.0419(5) -0.1087(5) 0.8913(8)
C1A C -0.1087(5) -0.1087(5) 0.9581(8)
C1I C -0.1087(5) -0.0419(5) 0.8913(8)
C1F** C 1.0419(5) -0.1087(5) 0.1087(8)
C1C** C 1.1087(5) -0.1087(5) 0.0419(8)
C1H** C 1.1087(5) -0.0419(5) 0.1087(8)
C1K* C 0.8913(5) 0.0419(5) 0.1087(8)
C1B* C 0.8913(5) 0.1087(5) 0.0419(8)
C1D* C 0.9581(5) 0.1087(5) 0.1087(8)
C1A* C 0.8913(5) -0.1087(5) -0.0419(8)
C1E* C 0.9581(5) -0.1087(5) -0.1087(8)
C1I* C 0.8913(5) -0.0419(5) -0.1087(8)
C1G** C 1.0419(5) 0.1087(5) 0.8913(8)
C1** C 1.1087(5) 0.1087(5) 0.9581(8)
C1J** C 1.1087(5) 0.0419(5) 0.8913(8)
C1I** C 0.8913(5) -0.0419(5) 0.8913(8)
C1A** C 0.8913(5) -0.1087(5) 0.9581(8)
C1E** C 0.9581(5) -0.1087(5) 0.8913(8)
C1B** C 0.8913(5) 0.1087(5) 1.0419(8)
C1D** C 0.9581(5) 0.1087(5) 1.1087(8)
C1K** C 0.8913(5) 0.0419(5) 1.1087(8)
C2G C -0.0067(5) 0.1306(5) -0.1306(10)
C2J C 0.1306(5) -0.0067(5) -0.1306(10)
C2H C 0.1306(5) 0.0067(5) 0.1306(10)
C2F C -0.0067(5) -0.1306(5) 0.1306(10)
C2C C 0.1306(5) -0.1306(5) -0.0067(10)
C2D C 0.0067(5) 0.1306(5) 0.1306(10)
C2B C -0.1306(5) 0.1306(5) -0.0067(10)
C2K C -0.1306(5) -0.0067(5) 0.1306(10)
C2C* C 0.1306(5) -0.1306(5) 0.9933(10)
C2F* C -0.0067(5) -0.1306(5) 1.1306(10)
C2H* C 0.1306(5) 0.0067(5) 1.1306(10)
C2J* C 0.1306(5) -0.0067(5) 0.8694(10)
C2G* C -0.0067(5) 0.1306(5) 0.8694(10)
C2* C 0.1306(5) 0.1306(5) 1.0067(10)
C2E C 0.0067(5) -0.1306(5) 0.8694(10)
C2A C -0.1306(5) -0.1306(5) 1.0067(10)
C2I C -0.1306(5) 0.0067(5) 0.8694(10)
C2F** C 0.9933(5) -0.1306(5) 0.1306(10)
C2C** C 1.1306(5) -0.1306(5) -0.0067(10)
C2H** C 1.1306(5) 0.0067(5) 0.1306(10)
C2K* C 0.8694(5) -0.0067(5) 0.1306(10)
C2B* C 0.8694(5) 0.1306(5) -0.0067(10)
C2D* C 1.0067(5) 0.1306(5) 0.1306(10)
C2A* C 0.8694(5) -0.1306(5) 0.0067(10)
C2E* C 1.0067(5) -0.1306(5) -0.1306(10)
C2I* C 0.8694(5) 0.0067(5) -0.1306(10)
C2G** C 0.9933(5) 0.1306(5) 0.8694(10)
C2** C 1.1306(5) 0.1306(5) 1.0067(10)
C2J** C 1.1306(5) -0.0067(5) 0.8694(10)
C2I** C 0.8694(5) 0.0067(5) 0.8694(10)
C2A** C 0.8694(5) -0.1306(5) 1.0067(10)
C2E** C 1.0067(5) -0.1306(5) 0.8694(10)
C2B** C 0.8694(5) 0.1306(5) 0.9933(10)
C2D** C 1.0067(5) 0.1306(5) 1.1306(10)
C2K** C 0.8694(5) -0.0067(5) 1.1306(10)
C3G C 0.0633(7) 0.0633(8) -0.1317(7)
C3J C 0.1317(7) 0.0633(8) -0.0633(7)
C3F C 0.0633(7) -0.0633(8) 0.1317(7)
C3C C 0.0633(7) -0.1317(8) 0.0633(7)
C3H C 0.1317(7) -0.0633(8) 0.0633(7)
C3B C -0.0633(7) 0.1317(8) 0.0633(7)
C3K C -0.1317(7) 0.0633(8) 0.0633(7)
C3D C -0.0633(7) 0.0633(8) 0.1317(7)
C3C* C 0.0633(7) -0.1317(8) 1.0633(7)
C3F* C 0.0633(7) -0.0633(8) 1.1317(7)
C3H* C 0.1317(7) -0.0633(8) 1.0633(7)
C3G* C 0.0633(7) 0.0633(8) 0.8683(7)
C3* C 0.0633(7) 0.1317(8) 0.9367(7)
C3J* C 0.1317(7) 0.0633(8) 0.9367(7)
C3A C -0.0633(7) -0.1317(8) 0.9367(7)
C3I C -0.1317(7) -0.0633(8) 0.9367(7)
C3E C -0.0633(7) -0.0633(8) 0.8683(7)
C3C** C 1.0633(7) -0.1317(8) 0.0633(7)
C3H** C 1.1317(7) -0.0633(8) 0.0633(7)
C3F** C 1.0633(7) -0.0633(8) 0.1317(7)
C3K* C 0.8683(7) 0.0633(8) 0.0633(7)
C3B* C 0.9367(7) 0.1317(8) 0.0633(7)
C3D* C 0.9367(7) 0.0633(8) 0.1317(7)
C3A* C 0.9367(7) -0.1317(8) -0.0633(7)
C3E* C 0.9367(7) -0.0633(8) -0.1317(7)
C3I* C 0.8683(7) -0.0633(8) -0.0633(7)
C3** C 1.0633(7) 0.1317(8) 0.9367(7)
C3J** C 1.1317(7) 0.0633(8) 0.9367(7)
C3G** C 1.0633(7) 0.0633(8) 0.8683(7)
C3I** C 0.8683(7) -0.0633(8) 0.9367(7)
C3A** C 0.9367(7) -0.1317(8) 0.9367(7)
C3E** C 0.9367(7) -0.0633(8) 0.8683(7)
C3B** C 0.9367(7) 0.1317(8) 1.0633(7)
C3D** C 0.9367(7) 0.0633(8) 1.1317(7)
C3K** C 0.8683(7) 0.0633(8) 1.0633(7)
C4DA C 0.2779(7) 0.2779(11) 0.5834(7)
C4C C 0.2221(7) -0.0834(11) 0.7779(7)
C4EA C 0.2779(7) -0.2779(11) 0.4166(7)
C4D C 0.2221(7) 0.2221(11) 0.0834(7)
C4HA C 0.5834(7) 0.2779(11) 0.2779(7)
C4A C 0.7779(7) -0.0834(11) 0.2221(7)
C4GA C 0.4166(7) -0.2779(11) 0.2779(7)
C4FA C 0.5834(7) -0.2779(11) 0.7221(7)
C4B C 0.7779(7) 0.0834(11) 0.7779(7)
C4IA C 0.4166(7) 0.2779(11) 0.7221(7)
C4H C 0.0834(7) 0.2221(11) 0.2221(7)
C4E C 0.2221(7) -0.2221(11) 0.9166(7)
C4J C 0.0834(7) -0.2221(11) 0.7779(7)
C4BA C 0.7221(7) -0.2779(11) 0.5834(7)
C4CA C 0.7221(7) 0.2779(11) 0.4166(7)
C4K C 0.9166(7) -0.2221(11) 0.2221(7)
C4F C 0.7779(7) -0.2221(11) 0.0834(7)
C4I C 0.9166(7) 0.2221(11) 0.7779(7)
C4G C 0.7779(7) 0.2221(11) 0.9166(7)
C5T C 0.3163(8) 0.0575(8) 0.2453(8)
C5PA C 0.2547(8) 0.1837(8) 0.5575(8)
C5DA C 0.1837(8) 0.2547(8) 0.5575(8)
C5C C 0.2453(8) -0.0575(8) 0.6837(8)
C5U C 0.3163(8) -0.0575(8) 0.7547(8)
C5OA C 0.2547(8) -0.1837(8) 0.4425(8)
C5EA C 0.1837(8) -0.2547(8) 0.4425(8)
C5P C 0.2453(8) 0.3163(8) 0.0575(8)
C5D C 0.3163(8) 0.2453(8) 0.0575(8)
C5HA C 0.5575(8) 0.1837(8) 0.2547(8)
C5LA C 0.5575(8) 0.2547(8) 0.1837(8)
C5W C 0.6837(8) -0.0575(8) 0.2453(8)
C5A C 0.7547(8) -0.0575(8) 0.3163(8)
C5GA C 0.4425(8) -0.1837(8) 0.2547(8)
C5MA C 0.4425(8) -0.2547(8) 0.1837(8)
C5FA C 0.5575(8) -0.1837(8) 0.7453(8)
C5JA C 0.5575(8) -0.2547(8) 0.8163(8)
C5V C 0.6837(8) 0.0575(8) 0.7547(8)
C5B C 0.7547(8) 0.0575(8) 0.6837(8)
C5IA C 0.4425(8) 0.1837(8) 0.7453(8)
C5KA C 0.4425(8) 0.2547(8) 0.8163(8)
C5H C 0.0575(8) 0.3163(8) 0.2453(8)
C5L C 0.0575(8) 0.2453(8) 0.3163(8)
C5S C 0.2453(8) -0.3163(8) 0.9425(8)
C5E C 0.3163(8) -0.2453(8) 0.9425(8)
C5J C 0.0575(8) -0.3163(8) 0.7547(8)
C5N C 0.0575(8) -0.2453(8) 0.6837(8)
C5NA C 0.7453(8) -0.1837(8) 0.5575(8)
C5BA C 0.8163(8) -0.2547(8) 0.5575(8)
C5QA C 0.7453(8) 0.1837(8) 0.4425(8)
C5CA C 0.8163(8) 0.2547(8) 0.4425(8)
C5K C 0.9425(8) -0.3163(8) 0.2453(8)
C5M C 0.9425(8) -0.2453(8) 0.3163(8)
C5R C 0.7547(8) -0.3163(8) 0.0575(8)
C5F C 0.6837(8) -0.2453(8) 0.0575(8)
C5I C 0.9425(8) 0.3163(8) 0.7547(8)
C5O C 0.9425(8) 0.2453(8) 0.6837(8)
C5Q C 0.7547(8) 0.3163(8) 0.9425(8)
C5G C 0.6837(8) 0.2453(8) 0.9425(8)
C6T C 0.3489(14) 0.0413(10) 0.2874(9)
C6PA C 0.2126(14) 0.1511(10) 0.5413(9)
C6DA C 0.1511(14) 0.2126(10) 0.5413(9)
C6C C 0.2874(14) -0.0413(10) 0.6511(9)
C6U C 0.3489(14) -0.0413(10) 0.7126(9)
C6OA C 0.2126(14) -0.1511(10) 0.4587(9)
C6EA C 0.1511(14) -0.2126(10) 0.4587(9)
C6P C 0.2874(14) 0.3489(10) 0.0413(9)
C6D C 0.3489(14) 0.2874(10) 0.0413(9)
C6HA C 0.5413(14) 0.1511(10) 0.2126(9)
C6LA C 0.5413(14) 0.2126(10) 0.1511(9)
C6W C 0.6511(14) -0.0413(10) 0.2874(9)
C6A C 0.7126(14) -0.0413(10) 0.3489(9)
C6GA C 0.4587(14) -0.1511(10) 0.2126(9)
C6MA C 0.4587(14) -0.2126(10) 0.1511(9)
C6FA C 0.5413(14) -0.1511(10) 0.7874(9)
C6JA C 0.5413(14) -0.2126(10) 0.8489(9)
C6V C 0.6511(14) 0.0413(10) 0.7126(9)
C6B C 0.7126(14) 0.0413(10) 0.6511(9)
C6IA C 0.4587(14) 0.1511(10) 0.7874(9)
C6KA C 0.4587(14) 0.2126(10) 0.8489(9)
C6H C 0.0413(14) 0.3489(10) 0.2874(9)
C6L C 0.0413(14) 0.2874(10) 0.3489(9)
C6S C 0.2874(14) -0.3489(10) 0.9587(9)
C6E C 0.3489(14) -0.2874(10) 0.9587(9)
C6J C 0.0413(14) -0.3489(10) 0.7126(9)
C6N C 0.0413(14) -0.2874(10) 0.6511(9)
C6NA C 0.7874(14) -0.1511(10) 0.5413(9)
C6BA C 0.8489(14) -0.2126(10) 0.5413(9)
C6QA C 0.7874(14) 0.1511(10) 0.4587(9)
C6CA C 0.8489(14) 0.2126(10) 0.4587(9)
C6K C 0.9587(14) -0.3489(10) 0.2874(9)
C6M C 0.9587(14) -0.2874(10) 0.3489(9)
C6R C 0.7126(14) -0.3489(10) 0.0413(9)
C6F C 0.6511(14) -0.2874(10) 0.0413(9)
C6I C 0.9587(14) 0.3489(10) 0.7126(9)
C6O C 0.9587(14) 0.2874(10) 0.6511(9)
C6Q C 0.7126(14) 0.3489(10) 0.9587(9)
C6G C 0.6511(14) 0.2874(10) 0.9587(9)
C7DA C 0.2373(9) 0.2373(14) 0.5703(9)
C7C C 0.2627(9) -0.0703(14) 0.7373(9)
C7EA C 0.2373(9) -0.2373(14) 0.4297(9)
C7D C 0.2627(9) 0.2627(14) 0.0703(9)
C7HA C 0.5703(9) 0.2373(14) 0.2373(9)
C7A C 0.7373(9) -0.0703(14) 0.2627(9)
C7GA C 0.4297(9) -0.2373(14) 0.2373(9)
C7FA C 0.5703(9) -0.2373(14) 0.7627(9)
C7B C 0.7373(9) 0.0703(14) 0.7373(9)
C7IA C 0.4297(9) 0.2373(14) 0.7627(9)
C7H C 0.0703(9) 0.2627(14) 0.2627(9)
C7E C 0.2627(9) -0.2627(14) 0.9297(9)
C7J C 0.0703(9) -0.2627(14) 0.7373(9)
C7BA C 0.7627(9) -0.2373(14) 0.5703(9)
C7CA C 0.7627(9) 0.2373(14) 0.4297(9)
C7K C 0.9297(9) -0.2627(14) 0.2627(9)
C7F C 0.7373(9) -0.2627(14) 0.0703(9)
C7I C 0.9297(9) 0.2627(14) 0.7373(9)
C7G C 0.7373(9) 0.2627(14) 0.9297(9)
C8DA C 0.1694(11) 0.1694(15) 0.5392(11)
C8C C 0.3306(11) -0.0392(15) 0.6694(11)
C8EA C 0.1694(11) -0.1694(15) 0.4608(11)
C8D C 0.3306(11) 0.3306(15) 0.0392(11)
C8HA C 0.5392(11) 0.1694(15) 0.1694(11)
C8A C 0.6694(11) -0.0392(15) 0.3306(11)
C8GA C 0.4608(11) -0.1694(15) 0.1694(11)
C8FA C 0.5392(11) -0.1694(15) 0.8306(11)
C8B C 0.6694(11) 0.0392(15) 0.6694(11)
C8IA C 0.4608(11) 0.1694(15) 0.8306(11)
C8H C 0.0392(11) 0.3306(15) 0.3306(11)
C8E C 0.3306(11) -0.3306(15) 0.9608(11)
C8J C 0.0392(11) -0.3306(15) 0.6694(11)
C8BA C 0.8306(11) -0.1694(15) 0.5392(11)
C8CA C 0.8306(11) 0.1694(15) 0.4608(11)
C8K C 0.9608(11) -0.3306(15) 0.3306(11)
C8F C 0.6694(11) -0.3306(15) 0.0392(11)
C8I C 0.9608(11) 0.3306(15) 0.6694(11)
C8G C 0.6694(11) 0.3306(15) 0.9608(11)
C9T C 0.4017(14) 0.0317(13) 0.2706(12)
C9PA C 0.2294(14) 0.0983(13) 0.5317(12)
C9DA C 0.0983(14) 0.2294(13) 0.5317(12)
C9C C 0.2706(14) -0.0317(13) 0.5983(12)
C9U C 0.4017(14) -0.0317(13) 0.7294(12)
C9OA C 0.2294(14) -0.0983(13) 0.4683(12)
C9EA C 0.0983(14) -0.2294(13) 0.4683(12)
C9P C 0.2706(14) 0.4017(13) 0.0317(12)
C9D C 0.4017(14) 0.2706(13) 0.0317(12)
C9HA C 0.5317(14) 0.0983(13) 0.2294(12)
C9LA C 0.5317(14) 0.2294(13) 0.0983(12)
C9W C 0.5983(14) -0.0317(13) 0.2706(12)
C9A C 0.7294(14) -0.0317(13) 0.4017(12)
C9GA C 0.4683(14) -0.0983(13) 0.2294(12)
C9MA C 0.4683(14) -0.2294(13) 0.0983(12)
C9FA C 0.5317(14) -0.0983(13) 0.7706(12)
C9JA C 0.5317(14) -0.2294(13) 0.9017(12)
C9V C 0.5983(14) 0.0317(13) 0.7294(12)
C9B C 0.7294(14) 0.0317(13) 0.5983(12)
C9IA C 0.4683(14) 0.0983(13) 0.7706(12)
C9KA C 0.4683(14) 0.2294(13) 0.9017(12)
C9H C 0.0317(14) 0.4017(13) 0.2706(12)
C9L C 0.0317(14) 0.2706(13) 0.4017(12)
C9S C 0.2706(14) -0.4017(13) 0.9683(12)
C9E C 0.4017(14) -0.2706(13) 0.9683(12)
C9J C 0.0317(14) -0.4017(13) 0.7294(12)
C9N C 0.0317(14) -0.2706(13) 0.5983(12)
C9NA C 0.7706(14) -0.0983(13) 0.5317(12)
C9BA C 0.9017(14) -0.2294(13) 0.5317(12)
C9QA C 0.7706(14) 0.0983(13) 0.4683(12)
C9CA C 0.9017(14) 0.2294(13) 0.4683(12)
C9K C 0.9683(14) -0.4017(13) 0.2706(12)
C9M C 0.9683(14) -0.2706(13) 0.4017(12)
C9R C 0.7294(14) -0.4017(13) 0.0317(12)
C9F C 0.5983(14) -0.2706(13) 0.0317(12)
C9I C 0.9683(14) 0.4017(13) 0.7294(12)
C9O C 0.9683(14) 0.2706(13) 0.5983(12)
C9Q C 0.7294(14) 0.4017(13) 0.9683(12)
C9G C 0.5983(14) 0.2706(13) 0.9683(12)
O6T O 0.4374(11) 0.0196(7) 0.3015(9)
O6PA O 0.1985(11) 0.0626(7) 0.5196(9)
O6DA O 0.0626(11) 0.1985(7) 0.5196(9)
O6C O 0.3015(11) -0.0196(7) 0.5626(9)
O6U O 0.4374(11) -0.0196(7) 0.6985(9)
O6OA O 0.1985(11) -0.0626(7) 0.4804(9)
O6EA O 0.0626(11) -0.1985(7) 0.4804(9)
O6P O 0.3015(11) 0.4374(7) 0.0196(9)
O6D O 0.4374(11) 0.3015(7) 0.0196(9)
O6HA O 0.5196(11) 0.0626(7) 0.1985(9)
O6LA O 0.5196(11) 0.1985(7) 0.0626(9)
O6W O 0.5626(11) -0.0196(7) 0.3015(9)
O6A O 0.6985(11) -0.0196(7) 0.4374(9)
O6GA O 0.4804(11) -0.0626(7) 0.1985(9)
O6MA O 0.4804(11) -0.1985(7) 0.0626(9)
O6FA O 0.5196(11) -0.0626(7) 0.8015(9)
O6JA O 0.5196(11) -0.1985(7) 0.9374(9)
O6V O 0.5626(11) 0.0196(7) 0.6985(9)
O6B O 0.6985(11) 0.0196(7) 0.5626(9)
O6IA O 0.4804(11) 0.0626(7) 0.8015(9)
O6KA O 0.4804(11) 0.1985(7) 0.9374(9)
O6H O 0.0196(11) 0.4374(7) 0.3015(9)
O6L O 0.0196(11) 0.3015(7) 0.4374(9)
O6S O 0.3015(11) -0.4374(7) 0.9804(9)
O6E O 0.4374(11) -0.3015(7) 0.9804(9)
O6J O 0.0196(11) -0.4374(7) 0.6985(9)
O6N O 0.0196(11) -0.3015(7) 0.5626(9)
O6NA O 0.8015(11) -0.0626(7) 0.5196(9)
O6BA O 0.9374(11) -0.1985(7) 0.5196(9)
O6QA O 0.8015(11) 0.0626(7) 0.4804(9)
O6CA O 0.9374(11) 0.1985(7) 0.4804(9)
O6K O 0.9804(11) -0.4374(7) 0.3015(9)
O6M O 0.9804(11) -0.3015(7) 0.4374(9)
O6R O 0.6985(11) -0.4374(7) 0.0196(9)
O6F O 0.5626(11) -0.3015(7) 0.0196(9)
O6I O 0.9804(11) 0.4374(7) 0.6985(9)
O6O O 0.9804(11) 0.3015(7) 0.5626(9)
O6Q O 0.6985(11) 0.4374(7) 0.9804(9)
O6G O 0.5626(11) 0.3015(7) 0.9804(9)
In3T In 0.5000(9) 0.00000 0.25950
In3OA In 0.2405(9) 0.00000 0.50000
In3CA In 0.0000(9) 0.24050 0.50000
In3U In 0.5000(9) 0.00000 0.74050
In3BA In 0.0000(9) -0.24050 0.50000
In3GA In 0.5000(9) 0.00000 0.24050
In3L In 0.0000(9) 0.25950 0.50000
In3FA In 0.5000(9) 0.00000 0.75950
In3M In 0.0000(9) -0.25950 0.50000
In3P In 0.2595(9) 0.50000 0.00000
In3D In 0.5000(9) 0.25950 0.00000
In3KA In 0.5000(9) 0.24050 0.00000
In3A In 0.7405(9) 0.00000 0.50000
In3JA In 0.5000(9) -0.24050 0.00000
In3JA* In 0.5000(9) -0.24050 1.00000
In3KA* In 0.5000(9) 0.24050 1.00000
In3H In 0.0000(9) 0.50000 0.25950
In3P* In 0.2595(9) -0.50000 1.00000
In3E In 0.5000(9) -0.25950 1.00000
In3I In 0.0000(9) -0.50000 0.74050
In3Y In 0.2405(9) 0.50000 0.00000
In3NA In 0.7595(9) 0.00000 0.50000
In3E* In 0.5000(9) -0.25950 0.00000
In3D* In 0.5000(9) 0.25950 1.00000
In3SA In 0.0000(9) 0.50000 0.24050
In3Y* In 0.2405(9) -0.50000 1.00000
In3RA In 0.0000(9) -0.50000 0.75950
In3BA* In 1.0000(9) -0.24050 0.50000
In3CA* In 1.0000(9) 0.24050 0.50000
In3H* In 1.0000(9) -0.50000 0.25950
In3M* In 1.0000(9) -0.25950 0.50000
In3Q In 0.7405(9) -0.50000 0.00000
In3I* In 1.0000(9) 0.50000 0.74050
In3L* In 1.0000(9) 0.25950 0.50000
In3Q* In 0.7405(9) 0.50000 1.00000
In3SA* In 1.0000(9) -0.50000 0.24050
In3X In 0.7595(9) -0.50000 0.00000
In3RA* In 1.0000(9) 0.50000 0.75950
In3X* In 0.7595(9) 0.50000 1.00000
#END
