
#######################################################################
#
#                 Cambridge Crystallographic Data Centre
#                                CCDC
#
#######################################################################
#
# If this CIF has been generated from an entry in the Cambridge
# Structural Database, then it will include bibliographic, chemical,
# crystal, experimental, refinement or atomic coordinate data resulting
# from the CCDC's data processing and validation procedures.
#
#######################################################################

data_CSD_CIF_IMUVAO
_audit_creation_date 2011-06-16
_audit_creation_method CSD-ConQuest-V1
_database_code_CSD IMUVAO
_database_code_depnum_ccdc_archive 'CCDC 787018'
_chemical_formula_sum 'C74 H48 In9 N1 O58'
_chemical_formula_moiety
;
(C2 H8 N1 1+)n,n(C72 H40 In9 O58 1-)
;
_journal_coden_Cambridge 4
_journal_volume 132
_journal_year 2010
_journal_page_first 17062
_journal_name_full 'J.Am.Chem.Soc. '
loop_
_publ_author_name
"Shou-Tian Zheng"
"J.T.Bu"
"Yufei Li"
"Tao Wu"
"Fan Zuo"
"Pingyun Feng"
"Xianhui Bu"
_chemical_name_systematic
;
catena-[Dimethylammonium 
bis(\m~6~-benzene-1,3,5-tricarboxylato-O,O',O'',O''',O'''',O''''')-bis(\m~4~-b
enzene-1,3,5-tricarboxylato-O,O',O'',O''',O'''',O''''')-tetrakis(\m~4~-benzene
-1,3,5-tricarboxylato-O,O',O'',O''',O'''')-bis(\m~3~-oxo)-octa-aqua-nona-indiu
m(iii) unknown solvate]
;
_chemical_name_common
;
CPM-5'
;
_cell_volume  17086.083
_exptl_crystal_density_diffrn 1.131
_diffrn_ambient_temperature 296
_refine_special_details
;
Disordered solvent (likely to include 4,4'-bipyridine, dimethylformamide and 
water) has not been modelled from the diffraction data.
;
#These two values have been output from a single CSD field.
_refine_ls_R_factor_gt 0.1247
_refine_ls_wR_factor_gt 0.1247
_symmetry_cell_setting tetragonal
_symmetry_space_group_name_H-M 'I -4 2 m'
_symmetry_Int_Tables_number 121
loop_
_symmetry_equiv_pos_site_id
_symmetry_equiv_pos_as_xyz
1 x,y,z
2 y,-x,-z
3 -x,-y,z
4 -y,x,-z
5 x,-y,-z
6 -y,-x,z
7 -x,y,-z
8 y,x,z
9 1/2+x,1/2+y,1/2+z
10 1/2+y,1/2-x,1/2-z
11 1/2-x,1/2-y,1/2+z
12 1/2-y,1/2+x,1/2-z
13 1/2+x,1/2-y,1/2-z
14 1/2-y,1/2-x,1/2+z
15 1/2-x,1/2+y,1/2-z
16 1/2+y,1/2+x,1/2+z
_cell_length_a 25.182(5)
_cell_length_b 25.182(5)
_cell_length_c 26.944(10)
_cell_angle_alpha 90
_cell_angle_beta 90
_cell_angle_gamma 90
_cell_formula_units_Z 4
loop_
_atom_type_symbol
_atom_type_radius_bond
C 0.68
H 0.23
In 1.42
N 0.68
O 0.68
loop_
_atom_site_label
_atom_site_type_symbol
_atom_site_fract_x
_atom_site_fract_y
_atom_site_fract_z
In1 In 0.50000 0.23122(7) 1.00000
In2 In 0.50000 0.00000 0.75000
In3 In 0.39863(6) 0.39863(6) 0.69087(7)
In4 In 0.39586(5) 0.29522(5) 0.60334(5)
O1 O 0.4720(9) 0.2180(6) 0.9294(6)
O2 O 0.4450(6) 0.2980(6) 1.0181(6)
O3 O 0.4196(7) 0.2202(6) 1.0337(11)
O4 O 0.50000 0.1388(10) 1.00000
O5 O 0.3632(5) 0.3632(5) 0.6311(7)
O6 O 0.6774(5) 0.3861(6) 0.4735(6)
O7 O 0.4371(6) 0.4371(6) 0.7494(10)
O8 O 0.436(3) 0.2902(15) 0.9042(17)
O9 O 0.4085(7) 0.2527(9) 0.6735(5)
O10 O 0.4747(6) 0.3244(5) 0.6008(7)
O11 O 0.4738(6) 0.0824(6) 0.7299(6)
O12 O 0.4076(7) 0.3252(6) 0.7329(9)
O13 O 0.4837(5) 0.0646(5) 0.8119(5)
O14 O 0.4273(8) 0.2228(7) 0.5741(7)
O15 O 0.1797(6) 0.2453(6) 1.0983(6)
O16 O 0.4757(6) 0.3905(8) 0.6601(7)
N1 N 0.139(2) 0.0157(17) 0.637(2)
C1 C 0.4076(9) 0.2677(9) 1.0295(10)
C2 C 0.3406(9) 0.3406(9) 1.0344(12)
H1 H 0.36530 0.36530 1.02330
C3 C 0.3546(9) 0.2888(10) 1.0430(9)
C4 C 0.2278(7) 0.2278(7) 1.0910(9)
C5 C 0.4958(9) 0.3643(7) 0.6229(7)
C6 C 0.4564(14) 0.2445(9) 0.8950(9)
C7 C 0.4122(8) 0.2777(8) 0.7190(7)
C8 C 0.4498(10) 0.2233(9) 0.8438(11)
C9 C 0.4719(8) 0.0974(8) 0.7758(8)
C10 C 0.4304(10) 0.2396(8) 0.7581(7)
C11 C 0.5693(7) 0.4307(7) 0.6226(10)
H2 H 0.55330 0.44670 0.64990
C12 C 0.4340(9) 0.2593(9) 0.8058(8)
H3 H 0.42640 0.29470 0.81280
C13 C 0.5684(7) 0.3625(7) 0.5580(7)
H4 H 0.55240 0.33320 0.54320
C14 C 0.6358(7) 0.3642(7) 0.4902(9)
C15 C 0.2659(7) 0.2659(7) 1.0736(13)
C16 C 0.5477(7) 0.3863(7) 0.6032(7)
C17 C 0.4596(9) 0.1703(8) 0.8338(8)
H5 H 0.46760 0.14710 0.85960
C18 C 0.3197(8) 0.2502(9) 1.0611(9)
H6 H 0.33080 0.21530 1.06500
C19 C 0.4577(8) 0.1526(7) 0.7875(7)
C20 C 0.4417(7) 0.1880(8) 0.7482(7)
H7 H 0.43900 0.17540 0.71590
C21 C 0.6137(7) 0.3863(7) 0.5380(9)
C22 C 0.157(4) 0.013(4) 0.691(2)
H8 H 0.14570 -0.01950 0.70560
H9 H 0.14240 0.04250 0.70900
H10 H 0.19550 0.01520 0.69260
C23 C 0.141(3) 0.054(3) 0.593(2)
H11 H 0.12220 0.03810 0.56510
H12 H 0.17710 0.06010 0.58310
H13 H 0.12430 0.08660 0.60150
In1B In 0.50000 -0.23122(7) 1.00000
In1A In 0.23122 0.50000(7) 1.00000
In1I In 0.73122 0.00000(7) 0.50000
In1K In 0.26878 0.00000(7) 0.50000
In1C In 0.76878 0.50000(7) 1.00000
In3B In 0.60137(6) -0.39863(6) 0.69087(7)
In3B* In 0.60137(6) 0.60137(6) 0.69087(7)
In3I In 0.89863(6) 0.10137(6) 0.80913(7)
In3K In 0.10137(6) -0.10137(6) 0.80913(7)
In4B In 0.60414(5) -0.29522(5) 0.60334(5)
In4I In 0.79522(5) 0.10414(5) 0.89666(5)
In4K In 0.20478(5) -0.10414(5) 0.89666(5)
In4G In 0.29522(5) 0.39586(5) 0.60334(5)
In4C In 0.70478(5) 0.39586(5) 0.39666(5)
In4J In 0.10414(5) 0.20478(5) 1.10334(5)
In4M In 0.20478(5) 0.10414(5) 1.10334(5)
In4F In 0.60414(5) 0.29522(5) 0.39666(5)
In4E In 0.70478(5) 0.60414(5) 0.60334(5)
In4L In 0.89586(5) 0.20478(5) 0.89666(5)
In4D In 0.39586(5) 0.70478(5) 0.39666(5)
In4A In 0.29522(5) 0.60414(5) 0.39666(5)
In4B* In 0.60414(5) 0.70478(5) 0.60334(5)
In4E* In 0.70478(5) -0.39586(5) 0.60334(5)
O1B O 0.5280(9) -0.2180(6) 0.9294(6)
O1I O 0.7180(9) 0.0280(6) 0.5706(6)
O1K O 0.2820(9) -0.0280(6) 0.5706(6)
O1F O 0.5280(9) 0.2180(6) 1.0706(6)
O1D O 0.4720(9) -0.2180(6) 1.0706(6)
O2G O 0.2980(6) 0.4450(6) 1.0181(6)
O2F O 0.5550(6) 0.2980(6) 0.9819(6)
O2C O 0.7020(6) 0.4450(6) 0.9819(6)
O2B O 0.5550(6) -0.2980(6) 1.0181(6)
O2D O 0.4450(6) -0.2980(6) 0.9819(6)
O3G O 0.2202(7) 0.4196(6) 1.0337(11)
O3F O 0.5804(7) 0.2202(6) 0.9663(11)
O3C O 0.7798(7) 0.4196(6) 0.9663(11)
O3B O 0.5804(7) -0.2202(6) 1.0337(11)
O3D O 0.4196(7) -0.2202(6) 0.9663(11)
O4B O 0.50000 -0.1388(10) 1.00000
O5B O 0.6368(5) -0.3632(5) 0.6311(7)
O5I O 0.8632(5) 0.1368(5) 0.8689(7)
O5K O 0.1368(5) -0.1368(5) 0.8689(7)
O6E O 0.6139(5) 0.3226(6) 0.4735(6)
O6G O 0.3861(5) 0.6774(6) 0.4735(6)
O6B O 0.3226(5) 0.6139(6) 0.4735(6)
O6A O 0.3861(5) 0.3226(6) 0.5265(6)
O6C O 0.6139(5) -0.3226(6) 0.5265(6)
O6J O 0.8226(5) 0.1139(6) 0.9735(6)
O6H O 0.1774(5) -0.1139(6) 0.9735(6)
O7B O 0.5629(6) -0.4371(6) 0.7494(10)
O8B O 0.564(3) -0.2902(15) 0.9042(17)
O8I O 0.7902(30) 0.0640(15) 0.5958(17)
O8K O 0.2098(30) -0.0640(15) 0.5958(17)
O9B O 0.5915(7) -0.2527(9) 0.6735(5)
O9I O 0.7527(7) 0.0915(9) 0.8265(5)
O9K O 0.2473(7) -0.0915(9) 0.8265(5)
O10E O 0.6756(6) 0.5253(5) 0.6008(7)
O10G O 0.3244(6) 0.4747(5) 0.6008(7)
O10B O 0.5253(6) 0.6756(5) 0.6008(7)
O10B* O 0.5253(6) -0.3244(5) 0.6008(7)
O10I O 0.8244(6) 0.0253(5) 0.8992(7)
O10K O 0.1756(6) -0.0253(5) 0.8992(7)
O11B O 0.5262(6) -0.0824(6) 0.7299(6)
O11I O 0.5824(6) 0.0262(6) 0.7701(6)
O11K O 0.4176(6) -0.0262(6) 0.7701(6)
O12B O 0.5924(7) -0.3252(6) 0.7329(9)
O12I O 0.8252(7) 0.0924(6) 0.7671(9)
O12K O 0.1748(7) -0.0924(6) 0.7671(9)
O12G O 0.3252(7) 0.4076(6) 0.7329(9)
O12E O 0.6748(7) -0.4076(6) 0.7329(9)
O13B O 0.5163(5) -0.0646(5) 0.8119(5)
O13I O 0.5646(5) 0.0163(5) 0.6881(5)
O13K O 0.4354(5) -0.0163(5) 0.6881(5)
O14B O 0.5727(8) -0.2228(7) 0.5741(7)
O14I O 0.7228(8) 0.0727(7) 0.9259(7)
O14K O 0.2772(8) -0.0727(7) 0.9259(7)
O15G O 0.2453(6) 0.1797(6) 1.0983(6)
O15F O 0.8203(6) 0.2453(6) 0.9017(6)
O15C O 0.7547(6) 0.1797(6) 0.9017(6)
O15J O 0.3203(6) 0.2547(6) 0.5983(6)
O15H O 0.6797(6) -0.2547(6) 0.5983(6)
O15A O 0.2453(6) -0.1797(6) 0.9017(6)
O16E O 0.6095(6) 0.5243(8) 0.6601(7)
O16G O 0.3905(6) 0.4757(8) 0.6601(7)
O16B O 0.5243(6) 0.6095(8) 0.6601(7)
O16B* O 0.5243(6) -0.3905(8) 0.6601(7)
O16E* O 0.6095(6) -0.4757(8) 0.6601(7)
C1G C 0.2677(9) 0.4076(9) 1.0295(10)
C1F C 0.5924(9) 0.2677(9) 0.9705(10)
C1C C 0.7323(9) 0.4076(9) 0.9705(10)
C2C C 0.6594(9) 0.3406(9) 0.9656(12)
H1C H 0.63470 0.36530 0.97670
C3G C 0.2888(9) 0.3546(10) 1.0430(9)
C3F C 0.6454(9) 0.2888(10) 0.9570(9)
C3C C 0.7112(9) 0.3546(10) 0.9570(9)
C4C C 0.7722(7) 0.2278(7) 0.9090(9)
C5E C 0.6357(9) 0.5042(7) 0.6229(7)
C5G C 0.3643(9) 0.4958(7) 0.6229(7)
C5B C 0.5042(9) 0.6357(7) 0.6229(7)
C6B C 0.5436(14) -0.2445(9) 0.8950(9)
C6I C 0.7445(14) 0.0436(9) 0.6050(9)
C6K C 0.2555(14) -0.0436(9) 0.6050(9)
C7B C 0.5878(8) -0.2777(8) 0.7190(7)
C7I C 0.7777(8) 0.0878(8) 0.7810(7)
C7K C 0.2223(8) -0.0878(8) 0.7810(7)
C8B C 0.5502(10) -0.2233(9) 0.8438(11)
C8I C 0.7233(10) 0.0502(9) 0.6562(11)
C8K C 0.2767(10) -0.0502(9) 0.6562(11)
C9B C 0.5281(8) -0.0974(8) 0.7758(8)
C9I C 0.5974(8) 0.0281(8) 0.7242(8)
C9K C 0.4026(8) -0.0281(8) 0.7242(8)
C10B C 0.5696(10) -0.2396(8) 0.7581(7)
C10I C 0.7396(10) 0.0696(8) 0.7419(7)
C10K C 0.2604(10) -0.0696(8) 0.7419(7)
C11B C 0.4307(7) 0.5693(7) 0.6226(10)
H2B H 0.44670 0.55330 0.64990
C12B C 0.5660(9) -0.2593(9) 0.8058(8)
C12I C 0.7593(9) 0.0660(9) 0.6942(8)
C12K C 0.2407(9) -0.0660(9) 0.6942(8)
H3B H 0.57360 -0.29470 0.81280
H3I H 0.79470 0.07360 0.68720
H3K H 0.20530 -0.07360 0.68720
C13E C 0.6375(7) 0.4316(7) 0.5580(7)
C13G C 0.3625(7) 0.5684(7) 0.5580(7)
C13B C 0.4316(7) 0.6375(7) 0.5580(7)
H4E H 0.66680 0.44760 0.54320
H4G H 0.33320 0.55240 0.54320
H4B H 0.44760 0.66680 0.54320
C14B C 0.3642(7) 0.6358(7) 0.4902(9)
C15C C 0.7341(7) 0.2659(7) 0.9264(13)
C16E C 0.6137(7) 0.4523(7) 0.6032(7)
C16G C 0.3863(7) 0.5477(7) 0.6032(7)
C16B C 0.4523(7) 0.6137(7) 0.6032(7)
C17B C 0.5404(9) -0.1703(8) 0.8338(8)
C17I C 0.6703(9) 0.0404(8) 0.6662(8)
C17K C 0.3297(9) -0.0404(8) 0.6662(8)
H5B H 0.53240 -0.14710 0.85960
H5I H 0.64710 0.03240 0.64040
H5K H 0.35290 -0.03240 0.64040
C18G C 0.2502(8) 0.3197(9) 1.0611(9)
C18F C 0.6803(8) 0.2502(9) 0.9389(9)
C18C C 0.7498(8) 0.3197(9) 0.9389(9)
H6G H 0.21530 0.33080 1.06500
H6F H 0.66920 0.21530 0.93500
H6C H 0.78470 0.33080 0.93500
C19B C 0.5423(8) -0.1526(7) 0.7875(7)
C19I C 0.6526(8) 0.0423(7) 0.7125(7)
C19K C 0.3474(8) -0.0423(7) 0.7125(7)
C20B C 0.5583(7) -0.1880(8) 0.7482(7)
C20I C 0.6880(7) 0.0583(8) 0.7518(7)
C20K C 0.3120(7) -0.0583(8) 0.7518(7)
H7B H 0.56100 -0.17540 0.71590
H7I H 0.67540 0.06100 0.78410
H7K H 0.32460 -0.06100 0.78410
C21B C 0.3863(7) 0.6137(7) 0.5380(9)
#END
