
#######################################################################
#
#                 Cambridge Crystallographic Data Centre
#                                CCDC
#
#######################################################################
#
# If this CIF has been generated from an entry in the Cambridge
# Structural Database, then it will include bibliographic, chemical,
# crystal, experimental, refinement or atomic coordinate data resulting
# from the CCDC's data processing and validation procedures.
#
#######################################################################

data_CSD_CIF_INAGEK
_audit_creation_date 2011-06-15
_audit_creation_method CSD-ConQuest-V1
_database_code_CSD INAGEK
_database_code_depnum_ccdc_archive 'CCDC 694608'
_chemical_formula_sum 'C12 H27 Co1 Cr1 Mo6 N6 O28'
_chemical_formula_moiety
;
(C8 H18 Co1 Cr1 Mo6 N4 O26 1-)n,n(C4 H5 N2 1+),2n(H2 O1)
;
_journal_coden_Cambridge 1147
_journal_volume 10
_journal_year 2010
_journal_page_first 5105
_journal_name_full 'Cryst.Growth Des. '
loop_
_publ_author_name
"M.Singh"
"S.E.Lofland"
"K.V.Ramanujachary"
"A.Ramanan"
_chemical_name_systematic
;
catena-(pyrazinium 
tris(\m~3~-hydroxo)-tris(\m~3~-oxo)-tris(\m~2~-hydroxo)-pentakis(\m~2~-oxo)-di
aqua-decaoxo-bis(pyrazine)-chromium-cobalt-hexa-molybdenum dihydrate)
;
_cell_volume    888.788
_exptl_crystal_colour 'red'
_exptl_crystal_density_diffrn 2.569
_exptl_special_details
;
The H atoms on the molybdate were not located and have been placed 
arbitrarily on six bridging O atoms in the 2D diagram
;
_exptl_crystal_description 'block'
_diffrn_ambient_temperature 273
#These two values have been output from a single CSD field.
_refine_ls_R_factor_gt 0.0665
_refine_ls_wR_factor_gt 0.0665
_symmetry_cell_setting triclinic
_symmetry_space_group_name_H-M 'P -1'
_symmetry_Int_Tables_number 2
loop_
_symmetry_equiv_pos_site_id
_symmetry_equiv_pos_as_xyz
1 x,y,z
2 -x,-y,-z
_cell_length_a 8.1452(11)
_cell_length_b 10.5171(15)
_cell_length_c 11.6507(16)
_cell_angle_alpha 101.448(2)
_cell_angle_beta 98.692(3)
_cell_angle_gamma 110.586(2)
_cell_formula_units_Z 1
loop_
_atom_type_symbol
_atom_type_radius_bond
C 0.68
H 0.23
Co 1.26
Cr 1.39
Mo 1.39
N 0.68
O 0.68
loop_
_atom_site_label
_atom_site_type_symbol
_atom_site_fract_x
_atom_site_fract_y
_atom_site_fract_z
Cr1 Cr 0.00000 0.00000 0.00000
Mo1 Mo 0.20594(11) 0.14667(8) 0.29149(7)
Mo2 Mo 0.28863(11) -0.11857(10) 0.12947(9)
Mo3 Mo 0.07917(11) -0.26312(9) -0.15981(9)
Co1 Co 0.50000 0.50000 0.50000
O1 O 0.3592(8) 0.3185(7) 0.3593(6)
O2 O 0.1906(10) 0.0635(8) 0.4022(6)
O3 O -0.0193(8) 0.1662(7) 0.2760(6)
O4 O 0.0505(7) -0.0596(6) 0.1492(5)
O5 O 0.2782(9) -0.1916(8) 0.2458(7)
O6 O 0.3777(8) 0.0845(7) 0.2187(6)
O7 O 0.2784(9) -0.2547(8) -0.1930(7)
O8 O 0.1210(8) -0.2790(7) 0.0046(7)
O9 O -0.0696(10) -0.4319(7) -0.2287(8)
O10 O 0.2101(7) -0.0392(6) -0.0332(5)
O11 O 0.1373(7) 0.1917(6) 0.1083(5)
O12 O 0.2872(9) 0.5667(9) 0.4597(6)
O13 O 0.4926(8) -0.1042(7) 0.0971(6)
N1 N 0.3637(10) 0.3910(8) 0.6178(7)
N2 N 0.165(1) 0.2303(9) 0.7501(7)
C1 C 0.2344(18) 0.4174(12) 0.6607(11)
H1 H 0.20690 0.49160 0.64430
C2 C 0.1398(18) 0.3410(13) 0.7278(12)
H2 H 0.05460 0.36760 0.75890
C3 C 0.3886(15) 0.2802(15) 0.6417(11)
H3 H 0.47500 0.25380 0.61190
C4 C 0.2922(16) 0.2031(13) 0.7084(10)
H4 H 0.31840 0.12830 0.72470
N3 N 0.3856(11) 0.4017(8) 0.0470(7)
C5 C 0.5411(15) 0.4007(11) 0.0308(11)
H5 H 0.57610 0.33170 0.05190
C6 C 0.3451(16) 0.5030(13) 0.0160(12)
H6 H 0.23690 0.50950 0.02590
O14 O 0.2561(18) 0.8162(16) 0.5488(13)
Mo1A Mo -0.20594(11) -0.14667(8) -0.29149(7)
Mo2A Mo -0.28863(11) 0.11857(10) -0.12947(9)
Mo3A Mo -0.07917(11) 0.26312(9) 0.15981(9)
Co1* Co -0.50000 -0.50000 -0.50000
O1A O -0.3592(8) -0.3185(7) -0.3593(6)
O1A* O 0.6408(8) 0.6815(7) 0.6407(6)
O2A O -0.1906(10) -0.0635(8) -0.4022(6)
O3A O 0.0193(8) -0.1662(7) -0.2760(6)
O4A O -0.0505(7) 0.0596(6) -0.1492(5)
O5A O -0.2782(9) 0.1916(8) -0.2458(7)
O6A O -0.3777(8) -0.0845(7) -0.2187(6)
O7A O -0.2784(9) 0.2547(8) 0.1930(7)
O8A O -0.1210(8) 0.2790(7) -0.0046(7)
O9A O 0.0696(10) 0.4319(7) 0.2287(8)
O10A O -0.2101(7) 0.0392(6) 0.0332(5)
O11A O -0.1373(7) -0.1917(6) -0.1083(5)
O12A O 0.7128(9) 0.4333(9) 0.5403(6)
O13A O -0.4926(8) 0.1042(7) -0.0971(6)
N1A N 0.6363(10) 0.6090(8) 0.3822(7)
N2A N 0.835(1) 0.7697(9) 0.2499(7)
C1A C 0.7656(18) 0.5826(12) 0.3393(11)
H1A H 0.79310 0.50840 0.35570
C2A C 0.8602(18) 0.6590(13) 0.2722(12)
H2A H 0.94540 0.63240 0.24110
C3A C 0.6114(15) 0.7198(15) 0.3583(11)
H3A H 0.52500 0.74620 0.38810
C4A C 0.7078(16) 0.7969(13) 0.2916(10)
H4A H 0.68160 0.87170 0.27530
N3A N 0.6144(11) 0.5983(8) -0.0470(7)
C5A C 0.4589(15) 0.5993(11) -0.0308(11)
H5A H 0.42390 0.66830 -0.05190
C6A C 0.6549(16) 0.4970(13) -0.0160(12)
H6A H 0.76310 0.49050 -0.02590
#END
