
#######################################################################
#
#                 Cambridge Crystallographic Data Centre
#                                CCDC
#
#######################################################################
#
# If this CIF has been generated from an entry in the Cambridge
# Structural Database, then it will include bibliographic, chemical,
# crystal, experimental, refinement or atomic coordinate data resulting
# from the CCDC's data processing and validation procedures.
#
#######################################################################

data_CSD_CIF_INAGOU
_audit_creation_date 2011-06-15
_audit_creation_method CSD-ConQuest-V1
_database_code_CSD INAGOU
_database_code_depnum_ccdc_archive 'CCDC 784111'
_chemical_formula_sum 'C12 H27 Cr1 Mo6 N6 Ni1 O28'
_chemical_formula_moiety
;
(C8 H18 Cr1 Mo6 N4 Ni1 O26 1-)n,n(C4 H5 N2 1+),2n(H2 O1)
;
_journal_coden_Cambridge 1147
_journal_volume 10
_journal_year 2010
_journal_page_first 5105
_journal_name_full 'Cryst.Growth Des. '
loop_
_publ_author_name
"M.Singh"
"S.E.Lofland"
"K.V.Ramanujachary"
"A.Ramanan"
_chemical_name_systematic
;
catena-(pyrazinium 
tris(\m~3~-hydroxo)-tris(\m~3~-oxo)-tris(\m~2~-hydroxo)-pentakis(\m~2~-oxo)-di
aqua-decaoxo-bis(pyrazine)-chromium-hexa-molybdenum-nickel dihydrate)
;
_cell_volume    875.097
_exptl_crystal_colour 'blue'
_exptl_crystal_density_diffrn 2.608
_exptl_crystal_description 'block'
_diffrn_ambient_temperature 293
#These two values have been output from a single CSD field.
_refine_ls_R_factor_gt 0.0848
_refine_ls_wR_factor_gt 0.0848
_symmetry_cell_setting triclinic
_symmetry_space_group_name_H-M 'P -1'
_symmetry_Int_Tables_number 2
loop_
_symmetry_equiv_pos_site_id
_symmetry_equiv_pos_as_xyz
1 x,y,z
2 -x,-y,-z
_cell_length_a 8.119(3)
_cell_length_b 10.480(3)
_cell_length_c 11.544(4)
_cell_angle_alpha 101.758(5)
_cell_angle_beta 98.320(6)
_cell_angle_gamma 110.541(6)
_cell_formula_units_Z 1
loop_
_atom_type_symbol
_atom_type_radius_bond
C 0.68
H 0.23
Cr 1.39
Mo 1.39
N 0.68
Ni 1.24
O 0.68
loop_
_atom_site_label
_atom_site_type_symbol
_atom_site_fract_x
_atom_site_fract_y
_atom_site_fract_z
Cr1 Cr 0.00000 0.00000 0.00000
Mo1 Mo -0.07981(16) 0.26511(13) 0.16027(12)
Mo2 Mo 0.20379(15) 0.14882(12) 0.29335(10)
Mo3 Mo 0.28728(16) -0.11796(13) 0.13119(11)
Ni1 Ni 0.50000 0.50000 0.50000
O1 O 0.0696(14) 0.4324(11) 0.2283(10)
O2 O -0.2790(15) 0.2575(12) 0.1937(10)
O3 O -0.0202(12) 0.1692(10) 0.2773(8)
O4 O 0.1365(11) 0.1928(9) 0.1095(7)
O5 O 0.3581(12) 0.3208(10) 0.3617(8)
O6 O 0.1846(14) 0.0651(12) 0.4038(8)
O7 O 0.3783(11) 0.0858(9) 0.2204(8)
O8 O 0.0478(10) -0.0593(8) 0.1496(6)
O9 O 0.2759(14) -0.1890(12) 0.250(1)
O10 O 0.4901(12) -0.1038(11) 0.0993(9)
O11 O -0.1202(13) 0.2806(10) -0.0042(9)
O12 O 0.2114(11) -0.0388(9) -0.0338(8)
O13 O 0.2863(13) 0.5652(11) 0.4625(9)
N1 N 0.3662(15) 0.3922(13) 0.6165(10)
N2 N 0.1710(16) 0.2298(14) 0.7491(11)
C1 C 0.243(3) 0.417(2) 0.6611(18)
H1 H 0.21530 0.49200 0.64590
C2 C 0.151(3) 0.342(2) 0.7291(19)
H2 H 0.06850 0.37090 0.76340
C3 C 0.396(2) 0.283(2) 0.6404(15)
H3 H 0.48740 0.26020 0.61310
C4 C 0.296(2) 0.204(2) 0.7044(15)
H4 H 0.31930 0.12620 0.71660
N3 N 0.3865(17) 0.4024(12) 0.0465(11)
C5 C 0.347(2) 0.507(2) 0.0195(18)
H5 H 0.24010 0.51540 0.03290
C6 C 0.539(3) 0.3973(19) 0.0280(17)
H6 H 0.57210 0.32630 0.04760
O14 O 0.258(3) 0.8145(19) 0.550(2)
Mo1A Mo 0.07981(16) -0.26511(13) -0.16027(12)
Mo2A Mo -0.20379(15) -0.14882(12) -0.29335(10)
Mo3A Mo -0.28728(16) 0.11796(13) -0.13119(11)
Ni1* Ni -0.50000 -0.50000 -0.50000
O1A O -0.0696(14) -0.4324(11) -0.2283(10)
O2A O 0.2790(15) -0.2575(12) -0.1937(10)
O3A O 0.0202(12) -0.1692(10) -0.2773(8)
O4A O -0.1365(11) -0.1928(9) -0.1095(7)
O5A O -0.3581(12) -0.3208(10) -0.3617(8)
O5A* O 0.6419(12) 0.6792(10) 0.6383(8)
O6A O -0.1846(14) -0.0651(12) -0.4038(8)
O7A O -0.3783(11) -0.0858(9) -0.2204(8)
O8A O -0.0478(10) 0.0593(8) -0.1496(6)
O9A O -0.2759(14) 0.1890(12) -0.250(1)
O10A O -0.4901(12) 0.1038(11) -0.0993(9)
O11A O 0.1202(13) -0.2806(10) 0.0042(9)
O12A O -0.2114(11) 0.0388(9) 0.0338(8)
O13A O 0.7137(13) 0.4348(11) 0.5375(9)
N1A N 0.6338(15) 0.6078(13) 0.3835(10)
N2A N 0.8290(16) 0.7702(14) 0.2509(11)
C1A C 0.757(3) 0.583(2) 0.3389(18)
H1A H 0.78470 0.50800 0.35410
C2A C 0.849(3) 0.658(2) 0.2709(19)
H2A H 0.93150 0.62910 0.23660
C3A C 0.604(2) 0.717(2) 0.3596(15)
H3A H 0.51260 0.73980 0.38690
C4A C 0.704(2) 0.796(2) 0.2956(15)
H4A H 0.68070 0.87380 0.28340
N3A N 0.6135(17) 0.5976(12) -0.0465(11)
C5A C 0.653(2) 0.493(2) -0.0195(18)
H5A H 0.75990 0.48460 -0.03290
C6A C 0.461(3) 0.6027(19) -0.0280(17)
H6A H 0.42790 0.67370 -0.04760
#END
