
#######################################################################
#
#                 Cambridge Crystallographic Data Centre
#                                CCDC
#
#######################################################################
#
# If this CIF has been generated from an entry in the Cambridge
# Structural Database, then it will include bibliographic, chemical,
# crystal, experimental, refinement or atomic coordinate data resulting
# from the CCDC's data processing and validation procedures.
#
#######################################################################

data_CSD_CIF_INAGIO
_audit_creation_date 2011-06-15
_audit_creation_method CSD-ConQuest-V1
_database_code_CSD INAGIO
_database_code_depnum_ccdc_archive 'CCDC 695587'
_chemical_formula_sum 'C12 H48 Cr1 Mo6 N4 Ni2 O42'
_chemical_formula_moiety
;
(H6 Cr1 Mo6 O24 2-)n,2n(C4 H12 N2 Ni1 O4 2+),2n(C2 H3 O2 1-),6n(H2 O1)
;
_journal_coden_Cambridge 1147
_journal_volume 10
_journal_year 2010
_journal_page_first 5105
_journal_name_full 'Cryst.Growth Des. '
loop_
_publ_author_name
"M.Singh"
"S.E.Lofland"
"K.V.Ramanujachary"
"A.Ramanan"
_chemical_name_systematic
;
catena-(bis((\m~2~-pyrazine)-tetraaqua-nickel(ii)) 
tris(\m~3~-oxo)-tris(\m~3~-hydroxo)-tris(\m~2~-oxo)-tris(\m~2~-hydroxo)-dodeca
oxo-chromium-hexa-molybdenum diacetate hexahydrate)
;
_cell_volume   4476.768
_exptl_crystal_colour 'blue'
_exptl_crystal_description 'block'
_diffrn_ambient_temperature 273
#These two values have been output from a single CSD field.
_refine_ls_R_factor_gt 0.066
_refine_ls_wR_factor_gt 0.066
_symmetry_cell_setting orthorhombic
_symmetry_space_group_name_H-M 'C m c a'
_symmetry_Int_Tables_number 64
loop_
_symmetry_equiv_pos_site_id
_symmetry_equiv_pos_as_xyz
1 x,y,z
2 -x,1/2-y,1/2+z
3 -x,1/2+y,1/2-z
4 x,-y,-z
5 1/2+x,1/2+y,z
6 1/2-x,-y,1/2+z
7 1/2-x,y,1/2-z
8 1/2+x,1/2-y,-z
9 -x,-y,-z
10 x,-1/2+y,-1/2-z
11 x,-1/2-y,-1/2+z
12 -x,y,z
13 -1/2-x,-1/2-y,-z
14 -1/2+x,y,-1/2-z
15 -1/2+x,-y,-1/2+z
16 -1/2-x,-1/2+y,z
_cell_length_a 23.821(5)
_cell_length_b 14.004(3)
_cell_length_c 13.420(3)
_cell_angle_alpha 90
_cell_angle_beta 90
_cell_angle_gamma 90
_cell_formula_units_Z 4
loop_
_atom_type_symbol
_atom_type_radius_bond
C 0.68
H 0.23
Cr 1.39
Mo 1.24
N 0.68
Ni 1.24
O 0.68
loop_
_atom_site_label
_atom_site_type_symbol
_atom_site_fract_x
_atom_site_fract_y
_atom_site_fract_z
Cr1 Cr 0.50000 0.50000 0.00000
Mo1 Mo 0.56988(3) 0.56450(6) -0.20382(7)
Mo2 Mo 0.63917(4) 0.50000 0.00000
O1 O 0.6125(3) 0.6621(5) -0.2161(7)
O2 O 0.5724(3) 0.5085(6) -0.3157(6)
O3 O 0.50000 0.6328(6) -0.2114(8)
O4 O 0.50000 0.4694(6) -0.1430(7)
O5 O 0.5612(2) 0.4125(4) 0.0353(5)
O6 O 0.6819(3) 0.4038(6) 0.0140(6)
O7 O 0.6185(2) 0.4747(4) -0.1361(5)
Ni1 Ni 0.25000 0.67519(9) 0.25000
O8 O 0.2366(3) 0.6812(4) 0.0984(4)
O9 O 0.3349(3) 0.6738(4) 0.2287(5)
C1 C 0.2776(4) 0.8748(5) 0.1818(6)
H1 H 0.29770 0.84280 0.13250
C2 C 0.2772(4) 0.9741(6) 0.1825(7)
H2 H 0.29690 1.00650 0.13310
N1 N 0.25000 0.8246(6) 0.25000
N2 N 0.25000 1.0241(6) 0.25000
O10 O 0.5532(8) 0.2363(10) 0.969(2)
C3 C 0.50000 0.234(11) 0.97(3)
C4 C 0.50000 0.140(9) 0.999(3)
O11 O 0.3666(5) 0.1127(11) 0.0304(9)
O12 O 0.50000 0.3144(13) 0.751(3)
H3? H 0.49360 0.13540 1.06910
H4? H 0.53560 0.11150 0.98280
H5? H 0.47080 0.10630 0.96390
Mo1C Mo 0.56988(3) 0.43550(6) 0.20382(7)
Mo1K Mo 0.43012(3) 0.56450(6) -0.20382(7)
Mo1H Mo 0.43012(3) 0.43550(6) 0.20382(7)
Mo2H Mo 0.36083(4) 0.50000 0.00000
O1C O 0.6125(3) 0.3379(5) 0.2161(7)
O1K O 0.3875(3) 0.6621(5) -0.2161(7)
O1H O 0.3875(3) 0.3379(5) 0.2161(7)
O2C O 0.5724(3) 0.4915(6) 0.3157(6)
O2K O 0.4276(3) 0.5085(6) -0.3157(6)
O2H O 0.4276(3) 0.4915(6) 0.3157(6)
O3C O 0.50000 0.3672(6) 0.2114(8)
O4C O 0.50000 0.5306(6) 0.1430(7)
O5C O 0.5612(2) 0.5875(4) -0.0353(5)
O5H O 0.4388(2) 0.5875(4) -0.0353(5)
O5K O 0.4388(2) 0.4125(4) 0.0353(5)
O6C O 0.6819(3) 0.5962(6) -0.0140(6)
O6H O 0.3181(3) 0.5962(6) -0.0140(6)
O6K O 0.3181(3) 0.4038(6) 0.0140(6)
O7C O 0.6185(2) 0.5253(4) 0.1361(5)
O7K O 0.3815(2) 0.4747(4) -0.1361(5)
O7H O 0.3815(2) 0.5253(4) 0.1361(5)
Ni1I Ni 0.25000 1.17519(9) 0.25000
O8F O 0.2634(3) 0.6812(4) 0.4016(4)
O9F O 0.1651(3) 0.6738(4) 0.2713(5)
C1F C 0.2224(4) 0.8748(5) 0.3182(6)
H1F H 0.20230 0.84280 0.36750
C2F C 0.2228(4) 0.9741(6) 0.3175(7)
H2F H 0.20310 1.00650 0.36690
N2I N 0.25000 0.5241(6) 0.25000
O10K O 0.4468(8) 0.2363(10) 0.969(2)
#END
