
#######################################################################
#
#                 Cambridge Crystallographic Data Centre
#                                CCDC
#
#######################################################################
#
# If this CIF has been generated from an entry in the Cambridge
# Structural Database, then it will include bibliographic, chemical,
# crystal, experimental, refinement or atomic coordinate data resulting
# from the CCDC's data processing and validation procedures.
#
#######################################################################

data_CSD_CIF_INEXOQ
_audit_creation_date 2016-06-08
_audit_creation_method CSD-ConQuest-V1
_database_code_CSD INEXOQ
_database_code_depnum_ccdc_archive 'CCDC 1475327'
_chemical_formula_sum 'C28 H26 Mn2 N2 O12'
_chemical_formula_moiety
;
(C26 H18 Mn2 N1 O12 1-)n,n(C2 H8 N1 1+)
;
_journal_coden_Cambridge 1078
_journal_year 2016
_journal_name_full 'CSD Communication(Private Communication) '
loop_
_publ_author_name
"Yan Yang Tian"
_chemical_name_systematic
;
catena-[dimethylammonium 
(\m-[1^1^,2^1^:2^3^,3^1^-terphenyl]-1^3^,1^5^,2^4^,3^3^,3^5^-pentacarboxylato)
-aqua-(N,N-dimethylformamide)-di-manganese]
;
_cell_volume   2904.589
_exptl_crystal_colour 'colorless'
_exptl_crystal_density_diffrn 1.583
_exptl_crystal_description 'block'
_diffrn_ambient_temperature 296.1
#These two values have been output from a single CSD field.
_refine_ls_R_factor_gt 0.0441
_refine_ls_wR_factor_gt 0.0441
_symmetry_cell_setting monoclinic
_symmetry_space_group_name_H-M 'P 21/c'
_symmetry_Int_Tables_number 14
loop_
_symmetry_equiv_pos_site_id
_symmetry_equiv_pos_as_xyz
1 x,y,z
2 -x,1/2+y,1/2-z
3 -x,-y,-z
4 x,-1/2-y,-1/2+z
_cell_length_a 10.6150(16)
_cell_length_b 9.6419(14)
_cell_length_c 28.480(4)
_cell_angle_alpha 90
_cell_angle_beta 94.819(3)
_cell_angle_gamma 90
_cell_formula_units_Z 4
loop_
_atom_type_symbol
_atom_type_radius_bond
C 0.68
H 0.23
Mn 1.61
N 0.68
O 0.68
loop_
_atom_site_label
_atom_site_type_symbol
_atom_site_fract_x
_atom_site_fract_y
_atom_site_fract_z
Mn1 Mn 1.55212(4) 0.19468(5) 1.09425(2)
Mn2 Mn 0.76770(4) 0.26041(5) 0.69087(2)
O1 O 1.35143(19) 0.1487(2) 1.09054(7)
O2 O 1.5864(2) -0.0066(2) 1.06123(8)
H1 H 1.65660 0.00150 1.04230
H2 H 1.51240 -0.03380 1.04170
O3 O 1.3438(2) 0.0051(3) 1.02878(8)
O4 O 0.9044(2) 0.2153(3) 1.14198(8)
O5 O 0.7484(2) 0.2343(3) 1.08571(8)
O6 O 0.4728(2) 0.6201(2) 0.86720(9)
O7 O 0.2975(2) 0.5557(2) 0.82418(8)
O8 O 0.3877(2) -0.1042(2) 0.83569(7)
O9 O 0.2414(2) 0.0299(2) 0.80041(8)
O10 O 0.9107(2) 0.2099(3) 0.75057(8)
O11 O 0.7190(2) 0.2571(3) 0.76477(8)
O12 O 1.5167(3) 0.2961(3) 1.02548(10)
N1 N 1.3391(3) 0.3993(3) 0.99237(10)
C1 C 1.2951(3) 0.0922(3) 1.05434(10)
C2 C 1.1609(3) 0.1344(3) 1.04084(10)
C3 C 1.0792(3) 0.1648(3) 1.07546(10)
H3 H 1.10890 0.16360 1.10710
C4 C 0.9540(3) 0.1967(3) 1.06252(10)
C5 C 0.9118(3) 0.2053(3) 1.01461(10)
H4 H 0.82810 0.22930 1.00610
C6 C 0.9916(3) 0.1790(3) 0.97957(10)
C7 C 1.1164(3) 0.1396(3) 0.99386(10)
H5 H 1.17060 0.11640 0.97110
C8 C 0.8619(3) 0.2171(3) 1.09947(11)
C9 C 0.9487(3) 0.1879(3) 0.92823(10)
C10 C 0.8212(3) 0.2082(3) 0.91309(10)
H6 H 0.76320 0.21690 0.93560
C11 C 0.7773(3) 0.2159(3) 0.86545(10)
C12 C 0.8642(3) 0.2062(3) 0.83139(11)
C13 C 0.9914(3) 0.1830(4) 0.84621(11)
H7 H 1.04950 0.17350 0.82370
C14 C 1.0326(3) 0.1741(4) 0.89301(11)
H8 H 1.11790 0.15850 0.90160
C15 C 0.6379(3) 0.2343(3) 0.85398(10)
C16 C 0.5846(3) 0.3659(3) 0.85524(10)
H9 H 0.63610 0.44170 0.86340
C17 C 0.4548(3) 0.3865(3) 0.8444(1)
C18 C 0.3779(3) 0.2723(3) 0.83303(11)
H10 H 0.29190 0.28480 0.82510
C19 C 0.4296(3) 0.1397(3) 0.83356(10)
C20 C 0.5594(3) 0.1215(3) 0.84351(10)
H11 H 0.59370 0.03280 0.84310
C21 C 0.4038(3) 0.5314(3) 0.84537(11)
C22 C 0.3469(3) 0.0157(3) 0.82223(10)
C23 C 0.8287(3) 0.2247(3) 0.77952(11)
C24 C 1.4417(4) 0.3225(4) 0.99136(14)
H12 H 1.45880 0.28530 0.96240
C25 C 1.3069(5) 0.4647(5) 1.03562(16)
H13 H 1.22970 0.51600 1.02970
H14 H 1.29600 0.39480 1.05890
H15 H 1.37360 0.52650 1.04690
C26 C 1.2607(4) 0.4307(5) 0.94911(16)
H16 H 1.19050 0.48730 0.95640
H17 H 1.31020 0.47960 0.92770
H18 H 1.22980 0.34580 0.93470
N2 N 0.1667(5) 0.2066(5) 0.72487(15)
H19 H 0.09660 0.19200 0.73920
H20 H 0.23080 0.18050 0.74510
C27 C 0.1632(9) 0.1083(9) 0.6862(2)
H21 H 0.15560 0.01590 0.69830
H22 H 0.09200 0.12820 0.66420
H23 H 0.23970 0.11560 0.67070
C28 C 0.1777(8) 0.3556(7) 0.7203(3)
H24 H 0.17800 0.39790 0.75080
H25 H 0.25510 0.37750 0.70670
H26 H 0.10740 0.39010 0.70020
Mn1* Mn 0.55212(4) 0.19468(5) 1.09425(2)
Mn1B Mn 0.44788(4) -0.19468(5) 0.90575(2)
Mn1B* Mn 0.44788(4) 0.80532(5) 0.90575(2)
Mn2A Mn 0.23230(4) -0.23959(5) 0.80913(2)
Mn2A* Mn 0.23230(4) 0.76041(5) 0.80913(2)
Mn2C Mn 0.76770(4) 0.23959(5) 1.19087(2)
O4C O 0.9044(2) 0.2847(3) 0.64198(8)
O5* O 1.7484(2) 0.2343(3) 1.08571(8)
O6B O 1.5272(2) 0.3799(2) 1.13280(9)
O7A O 0.7025(2) 0.0557(2) 0.67582(8)
O8A O 0.6123(2) 0.3958(2) 0.66431(7)
O8B O 1.6123(2) 0.1042(2) 1.16431(7)
#END
