
#######################################################################
#
#                 Cambridge Crystallographic Data Centre
#                                CCDC
#
#######################################################################
#
# If this CIF has been generated from an entry in the Cambridge
# Structural Database, then it will include bibliographic, chemical,
# crystal, experimental, refinement or atomic coordinate data resulting
# from the CCDC's data processing and validation procedures.
#
#######################################################################

data_CSD_CIF_INEXIK
_audit_creation_date 2016-06-08
_audit_creation_method CSD-ConQuest-V1
_database_code_CSD INEXIK
_database_code_depnum_ccdc_archive 'CCDC 1475326'
_chemical_formula_sum 'C25 H19 Co2 N1 O11'
_chemical_formula_moiety
;
(C23 H11 Co2 O11 1-)n,n(C2 H8 N1 1+)
;
_journal_coden_Cambridge 1078
_journal_year 2016
_journal_name_full 'CSD Communication(Private Communication) '
loop_
_publ_author_name
"Yan Yang Tian"
_chemical_name_systematic
;
catena-[dimethylammonium 
(\m-[1^1^,2^1^:2^3^,3^1^-terphenyl]-1^3^,1^5^,2^4^,3^3^,3^5^-pentacarboxylato)
-aqua-di-cobalt]
;
_cell_volume   2685.879
_exptl_crystal_colour 'colorless'
_exptl_crystal_density_diffrn 1.551
_exptl_crystal_description 'block'
_diffrn_ambient_temperature 296.1
_diffrn_special_details
;
twin

;
#These two values have been output from a single CSD field.
_refine_ls_R_factor_gt 0.0941
_refine_ls_wR_factor_gt 0.0941
_symmetry_cell_setting monoclinic
_symmetry_space_group_name_H-M 'P 21/c'
_symmetry_Int_Tables_number 14
loop_
_symmetry_equiv_pos_site_id
_symmetry_equiv_pos_as_xyz
1 x,y,z
2 -x,1/2+y,1/2-z
3 -x,-y,-z
4 x,-1/2-y,-1/2+z
_cell_length_a 10.230(3)
_cell_length_b 9.468(3)
_cell_length_c 28.006(9)
_cell_angle_alpha 90
_cell_angle_beta 98.048(6)
_cell_angle_gamma 90
_cell_formula_units_Z 4
loop_
_atom_type_symbol
_atom_type_radius_bond
C 0.68
H 0.23
Co 1.26
N 0.68
O 0.68
loop_
_atom_site_label
_atom_site_type_symbol
_atom_site_fract_x
_atom_site_fract_y
_atom_site_fract_z
Co1 Co 0.77973(12) 1.38336(14) 0.69352(4)
Co2 Co 0.55644(12) 1.43970(15) 0.59720(4)
O1 O 0.5327(8) 1.2463(8) 0.6264(3)
O2 O 0.5785(9) 1.6409(10) 0.5642(3)
H1 H 0.50150 1.65140 0.56940
H2 H 0.58860 1.63370 0.53470
O3 O 0.7099(7) 1.1869(8) 0.6778(3)
O4 O 0.7825(7) 0.6527(8) 0.7059(3)
O5 O 0.6326(7) 0.5183(7) 0.6660(2)
O6 O 0.2877(8) 0.878(1) 0.7350(3)
O7 O 0.0812(7) 0.8486(9) 0.7452(2)
O8 O -0.4103(7) 0.6259(10) 0.4642(3)
O9 O -0.3479(6) 0.5388(8) 0.3992(2)
O10 O 0.1006(7) 0.6078(9) 0.3590(2)
O11 O 0.2626(7) 0.6108(10) 0.4219(3)
C1 C 0.603(1) 1.1590(11) 0.6520(4)
C2 C 0.5518(9) 1.0101(10) 0.6533(4)
C3 C 0.6357(10) 0.8988(11) 0.6678(4)
H3 H 0.72550 0.91440 0.67700
C4 C 0.5837(10) 0.7629(11) 0.6687(3)
C5 C 0.4491(10) 0.7417(11) 0.6579(3)
H4 H 0.41490 0.65130 0.66010
C6 C 0.3639(9) 0.8537(11) 0.6437(4)
C7 C 0.4157(10) 0.9846(12) 0.6403(4)
H5 H 0.36030 1.05910 0.62930
C8 C 0.6739(10) 0.6395(10) 0.6811(3)
C9 C 0.2190(9) 0.8246(11) 0.6314(4)
C10 C 0.1307(10) 0.8252(11) 0.6649(3)
C11 C -0.0018(10) 0.7915(14) 0.6487(3)
H6 H -0.06110 0.79260 0.67100
C12 C -0.0497(10) 0.7563(15) 0.6008(4)
H7 H -0.13800 0.73310 0.59160
C13 C 0.0392(9) 0.7572(11) 0.5674(3)
C14 C 0.1692(9) 0.7928(12) 0.5838(3)
H8 H 0.22780 0.79560 0.56120
C15 C 0.1712(10) 0.8528(11) 0.7180(3)
C16 C -0.0052(9) 0.7130(12) 0.5166(4)
C17 C -0.1377(10) 0.6819(12) 0.5005(4)
H9 H -0.20000 0.69650 0.52120
C18 C -0.1779(10) 0.6308(11) 0.4553(3)
C19 C -0.0875(9) 0.6087(11) 0.4232(3)
H10 H -0.11570 0.57260 0.39260
C20 C 0.0444(10) 0.6405(12) 0.4370(3)
C21 C 0.0849(9) 0.6890(11) 0.4844(4)
H11 H 0.17410 0.70550 0.49440
C22 C 0.1466(10) 0.6159(11) 0.4042(4)
C23 C -0.3209(10) 0.5951(11) 0.4379(4)
N1 N 0.8425(14) 0.8419(14) 0.7891(4)
H12 H 0.85850 0.80780 0.76090
H13 H 0.91510 0.83070 0.81030
C24 C 0.812(2) 0.989(2) 0.7841(7)
H14 H 0.78130 1.02280 0.81300
H15 H 0.74440 1.00300 0.75710
H16 H 0.88980 1.04040 0.77900
C25 C 0.737(3) 0.764(3) 0.8049(8)
H17 H 0.65600 0.78410 0.78400
H18 H 0.72730 0.79160 0.83730
H19 H 0.75520 0.66500 0.80410
Co1* Co 0.77973(12) 0.38336(14) 0.69352(4)
Co1A Co 0.22027(12) 0.88336(14) 0.80648(4)
Co1B Co 0.22027(12) 0.61664(14) 0.30648(4)
Co2* Co 0.55644(12) 0.43970(15) 0.59720(4)
Co2B Co -0.55644(12) 0.56030(15) 0.40280(4)
Co2B* Co 0.44356(12) 0.56030(15) 0.40280(4)
O5* O 0.6326(7) 1.5183(7) 0.6660(2)
O6A O 0.7123(8) 1.378(1) 0.7650(3)
O7A O 0.9188(7) 1.3486(9) 0.7548(2)
O8B O 0.4103(7) 1.3741(10) 0.5358(3)
O9B O 0.3479(6) 1.4612(8) 0.6008(2)
O10B O 0.8994(7) 1.3922(9) 0.6410(2)
O11B O 0.7374(7) 1.3892(10) 0.5781(3)
#END
