
#######################################################################
#
#                 Cambridge Crystallographic Data Centre
#                                CCDC
#
#######################################################################
#
# If this CIF has been generated from an entry in the Cambridge
# Structural Database, then it will include bibliographic, chemical,
# crystal, experimental, refinement or atomic coordinate data resulting
# from the CCDC's data processing and validation procedures.
#
#######################################################################

data_CSD_CIF_INIBOY
_audit_creation_date 2016-06-08
_audit_creation_method CSD-ConQuest-V1
_database_code_CSD INIBOY
_database_code_depnum_ccdc_archive 'CCDC 1007015'
_chemical_formula_sum 'C78 H96 N8 O29 Zn3'
_chemical_formula_moiety
;
2(C2 H8 N1 1+),n(C56 H32 O20 Zn3 2-),6(C3 H7 N1 O1),3(H2 O1)
;
_journal_coden_Cambridge 1078
_journal_year 2016
_journal_name_full 'CSD Communication(Private Communication) '
loop_
_publ_author_name
"M.Y.Masoomi"
_chemical_name_systematic
;
catena-[bis(Dimethylammonium) tetrakis(4,4'-oxydibenzoato)-tri-zinc 
N,N-dimethylformamide solvate trihydrate]
;
_cell_volume   8842.552
_exptl_crystal_colour 'colorless'
_exptl_crystal_density_diffrn 1.356
_exptl_crystal_description 'prism'
_diffrn_ambient_temperature 293
_refine_special_details
;
Disordered cation and solvent molecules were not modelled and the disordered 
density was taken into account using the SQUEEZE/PLATON procedure.
;
#These two values have been output from a single CSD field.
_refine_ls_R_factor_gt 0.0675
_refine_ls_wR_factor_gt 0.0675
_symmetry_cell_setting monoclinic
_symmetry_space_group_name_H-M 'C 2/c'
_symmetry_Int_Tables_number 15
loop_
_symmetry_equiv_pos_site_id
_symmetry_equiv_pos_as_xyz
1 x,y,z
2 -x,y,1/2-z
3 1/2+x,1/2+y,z
4 1/2-x,1/2+y,1/2-z
5 -x,-y,-z
6 x,-y,-1/2+z
7 -1/2-x,-1/2-y,-z
8 -1/2+x,-1/2-y,-1/2+z
_cell_length_a 26.239(13)
_cell_length_b 14.067(7)
_cell_length_c 26.500(14)
_cell_angle_alpha 90
_cell_angle_beta 115.307(10)
_cell_angle_gamma 90
_cell_formula_units_Z 4
loop_
_atom_type_symbol
_atom_type_radius_bond
C 0.68
H 0.23
O 0.68
Zn 1.22
loop_
_atom_site_label
_atom_site_type_symbol
_atom_site_fract_x
_atom_site_fract_y
_atom_site_fract_z
Zn1 Zn 0.32398(3) 0.45052(4) 0.00263(3)
Zn2 Zn 0.25000 0.25000 0.00000
O1 O 0.39727(18) 0.3599(3) 0.00321(19)
O2 O 0.33630(15) 0.3119(2) 0.03369(13)
O3 O 0.49844(15) -0.0473(3) 0.0865(2)
O4 O 0.4121(2) -0.4652(3) 0.0892(2)
O5 O 0.3566(2) -0.4241(3) 0.0017(2)
O6 O 0.27630(19) 0.4409(3) -0.07665(16)
O7 O 0.22713(17) 0.3123(3) -0.07751(14)
O8 O 0.12824(18) 0.3837(3) -0.33631(16)
O9 O 0.27342(18) 0.5099(3) -0.46193(17)
O10 O 0.22324(14) 0.6385(3) -0.47040(14)
C1 C 0.3811(2) 0.2988(4) 0.0248(2)
C2 C 0.4111(2) 0.2076(4) 0.0430(2)
C3 C 0.4565(2) 0.1867(4) 0.0307(3)
H1 H 0.46830 0.23200 0.01240
C4 C 0.4840(2) 0.1026(4) 0.0447(3)
H2 H 0.51440 0.09090 0.03630
C5 C 0.4671(2) 0.0359(4) 0.0708(3)
C6 C 0.4232(2) 0.0537(4) 0.0847(3)
H3 H 0.41250 0.00830 0.10370
C7 C 0.3958(2) 0.1382(4) 0.0705(2)
H4 H 0.36580 0.14960 0.07960
C8 C 0.4709(3) -0.1342(4) 0.0765(3)
C9 C 0.4952(3) -0.2046(5) 0.1145(3)
H5 H 0.52820 -0.19320 0.14650
C10 C 0.4704(3) -0.2925(4) 0.1050(3)
H6 H 0.48670 -0.34070 0.13100
C11 C 0.4232(3) -0.3108(4) 0.0590(3)
C12 C 0.4001(2) -0.2411(4) 0.0193(2)
H7 H 0.36860 -0.25430 -0.01380
C13 C 0.4240(3) -0.1507(4) 0.0289(3)
H8 H 0.40800 -0.10240 0.00290
C14 C 0.3965(3) -0.4082(4) 0.0507(4)
C15 C 0.2398(2) 0.3779(4) -0.1012(2)
C16 C 0.2107(2) 0.3825(4) -0.1628(2)
C17 C 0.1660(3) 0.3245(5) -0.1926(3)
H9 H 0.15300 0.28330 -0.17320
C18 C 0.1398(3) 0.3249(5) -0.2494(2)
H10 H 0.10980 0.28380 -0.26810
C19 C 0.1574(3) 0.3856(4) -0.2788(3)
C20 C 0.2020(3) 0.4448(4) -0.2503(2)
H11 H 0.21500 0.48560 -0.26980
C21 C 0.2275(3) 0.4439(4) -0.1928(2)
H12 H 0.25690 0.48590 -0.17390
C22 C 0.1543(3) 0.4254(5) -0.3664(2)
C23 C 0.1989(3) 0.3789(5) -0.3706(2)
H13 H 0.21140 0.32020 -0.35350
C24 C 0.2235(3) 0.4209(4) -0.4000(3)
H14 H 0.25370 0.39050 -0.40260
C25 C 0.2057(2) 0.5076(4) -0.42663(19)
C26 C 0.1608(2) 0.5489(4) -0.4230(2)
H15 H 0.14690 0.60630 -0.44110
C27 C 0.1354(2) 0.5060(5) -0.3922(2)
H16 H 0.10450 0.53490 -0.39000
C28 C 0.2363(2) 0.5558(4) -0.4555(2)
Zn1F Zn 0.17602(3) 0.04948(4) -0.00263(3)
O1F O 0.10273(18) 0.1401(3) -0.00321(19)
O2F O 0.16370(15) 0.1881(2) -0.03369(13)
O3F O 0.00156(15) 0.5473(3) -0.0865(2)
O4F O 0.0879(2) 0.9652(3) -0.0892(2)
O5F O 0.1434(2) 0.9241(3) -0.0017(2)
O6F O 0.22370(19) 0.0591(3) 0.07665(16)
O7F O 0.27287(17) 0.1877(3) 0.07751(14)
O8F O 0.37176(18) 0.1163(3) 0.33631(16)
O9F O 0.22658(18) -0.0099(3) 0.46193(17)
O10F O 0.27676(14) -0.1385(3) 0.47040(14)
C1F C 0.1189(2) 0.2012(4) -0.0248(2)
C2F C 0.0889(2) 0.2924(4) -0.0430(2)
C3F C 0.0435(2) 0.3133(4) -0.0307(3)
H1F H 0.03170 0.26800 -0.01240
C4F C 0.0160(2) 0.3974(4) -0.0447(3)
H2F H -0.01440 0.40910 -0.03630
C5F C 0.0329(2) 0.4641(4) -0.0708(3)
C6F C 0.0768(2) 0.4463(4) -0.0847(3)
H3F H 0.08750 0.49170 -0.10370
C7F C 0.1042(2) 0.3618(4) -0.0705(2)
H4F H 0.13420 0.35040 -0.07960
C8F C 0.0291(3) 0.6342(4) -0.0765(3)
C9F C 0.0048(3) 0.7046(5) -0.1145(3)
H5F H -0.02820 0.69320 -0.14650
C10F C 0.0296(3) 0.7925(4) -0.1050(3)
H6F H 0.01330 0.84070 -0.13100
C11F C 0.0768(3) 0.8108(4) -0.0590(3)
C12F C 0.0999(2) 0.7411(4) -0.0193(2)
H7F H 0.13140 0.75430 0.01380
C13F C 0.0760(3) 0.6507(4) -0.0289(3)
H8F H 0.09200 0.60240 -0.00290
C14F C 0.1035(3) 0.9082(4) -0.0507(4)
C15F C 0.2602(2) 0.1221(4) 0.1012(2)
C16F C 0.2893(2) 0.1175(4) 0.1628(2)
C17F C 0.3340(3) 0.1755(5) 0.1926(3)
H9F H 0.34700 0.21670 0.17320
C18F C 0.3602(3) 0.1751(5) 0.2494(2)
H10F H 0.39020 0.21620 0.26810
C19F C 0.3426(3) 0.1144(4) 0.2788(3)
C20F C 0.2980(3) 0.0552(4) 0.2503(2)
H11F H 0.28500 0.01440 0.26980
C21F C 0.2725(3) 0.0561(4) 0.1928(2)
H12F H 0.24310 0.01410 0.17390
C22F C 0.3457(3) 0.0746(5) 0.3664(2)
C23F C 0.3011(3) 0.1211(5) 0.3706(2)
H13F H 0.28860 0.17980 0.35350
C24F C 0.2765(3) 0.0791(4) 0.4000(3)
H14F H 0.24630 0.10950 0.40260
C25F C 0.2943(2) -0.0076(4) 0.42663(19)
C26F C 0.3392(2) -0.0489(4) 0.4230(2)
H15F H 0.35310 -0.10630 0.44110
C27F C 0.3646(2) -0.0060(5) 0.3922(2)
H16F H 0.39550 -0.03490 0.39000
C28F C 0.2637(2) -0.0558(4) 0.4555(2)
Zn1* Zn 0.32398(3) -0.54948(4) 0.00263(3)
Zn1C Zn 0.17602(3) -0.04948(4) 0.49737(3)
Zn1E Zn 0.32398(3) 0.54948(4) -0.49737(3)
Zn1F* Zn 0.17602(3) 1.04948(4) -0.00263(3)
Zn2C Zn 0.25000 -0.25000 0.50000
Zn2C* Zn 0.25000 0.75000 -0.50000
O5* O 0.3566(2) 0.5759(3) 0.0017(2)
O5F* O 0.1434(2) -0.0759(3) -0.0017(2)
O9C O 0.22658(18) 0.0099(3) -0.03807(17)
O9E O 0.27342(18) 0.4901(3) 0.03807(17)
O10C O 0.27676(14) 0.1385(3) -0.02960(14)
O10E O 0.22324(14) 0.3615(3) 0.02960(14)
#END
