
#######################################################################
#
#                 Cambridge Crystallographic Data Centre
#                                CCDC
#
#######################################################################
#
# If this CIF has been generated from an entry in the Cambridge
# Structural Database, then it will include bibliographic, chemical,
# crystal, experimental, refinement or atomic coordinate data resulting
# from the CCDC's data processing and validation procedures.
#
#######################################################################

data_CSD_CIF_INIRAA
_audit_creation_date 2016-06-08
_audit_creation_method CSD-ConQuest-V1
_database_code_CSD INIRAA
_database_code_depnum_ccdc_archive 'CCDC 1444647'
_chemical_formula_sum 'C24 H26 Co1 Mo2 N4 O11'
_chemical_formula_moiety
;
(C22 H14 Co1 Mo2 N3 O9 1-)n,n(C2 H8 N1 1+),2n(H2 O1)
;
_journal_coden_Cambridge 1295
_journal_volume 69
_journal_year 2016
_journal_page_first 52
_journal_name_full 'Inorg.Chem.Commun. '
loop_
_publ_author_name
"Xu Li"
"Xiao-Lin Chi"
"Yu-Ci Xu"
"Yu Chen"
"Qi Yang"
"Xiao-Shan Zeng"
"Hui-Ling Xu"
"Dong-Rong Xiao"
_chemical_name_systematic
;
catena-(dimethylammonium 
(\m-4-(4,2':6',4''-terpyridin-4'-yl)benzoato)-tris(\m-oxo)-tetraoxo-cobalt-di-
molybdenum dihydrate)
;
_cell_volume   2725.044
_exptl_crystal_density_diffrn 1.943
_diffrn_ambient_temperature ?
_diffrn_special_details
;
The study was carried out at room temperature,in the range 283-303K

;
#These two values have been output from a single CSD field.
_refine_ls_R_factor_gt 0.025
_refine_ls_wR_factor_gt 0.025
_symmetry_cell_setting monoclinic
_symmetry_space_group_name_H-M 'I 2/a'
_symmetry_Int_Tables_number 15
loop_
_symmetry_equiv_pos_site_id
_symmetry_equiv_pos_as_xyz
1 x,y,z
2 1/2-x,y,-z
3 1/2+x,1/2+y,1/2+z
4 -x,1/2+y,1/2-z
5 -x,-y,-z
6 -1/2+x,-y,z
7 -1/2-x,-1/2-y,-1/2-z
8 x,-1/2-y,-1/2+z
_cell_length_a 9.0008(3)
_cell_length_b 27.8944(11)
_cell_length_c 10.9798(4)
_cell_angle_alpha 90
_cell_angle_beta 98.694(3)
_cell_angle_gamma 90
_cell_formula_units_Z 4
loop_
_atom_type_symbol
_atom_type_radius_bond
C 0.68
H 0.23
Co 1.26
Mo 1.54
N 0.68
O 0.68
loop_
_atom_site_label
_atom_site_type_symbol
_atom_site_fract_x
_atom_site_fract_y
_atom_site_fract_z
Co1 Co 0.75000 0.383322(16) 0.50000
Mo1 Mo 0.41250(2) 0.351097(8) 0.626191(19)
C1 C 0.6583(3) 0.47334(10) 0.3374(3)
H1 H 0.7435(3) 0.48705(10) 0.3826(3)
C2 C 0.5724(3) 0.50131(10) 0.2491(3)
H2 H 0.5987(3) 0.53307(10) 0.2377(3)
C3 C 0.4463(3) 0.48144(9) 0.1776(2)
C4 C 0.4147(3) 0.43385(10) 0.2012(3)
H3 H 0.3325(3) 0.41876(10) 0.1554(3)
C5 C 0.5049(3) 0.40911(10) 0.2922(3)
H4 H 0.4802(3) 0.37744(10) 0.3066(3)
C6 C 0.3457(3) 0.50964(9) 0.0833(2)
C7 C 0.3495(3) 0.55956(9) 0.0852(2)
H5 H 0.4180(3) 0.57559(9) 0.1430(2)
C8 C 0.25000 0.58532(13) 0.00000
C9 C 0.25000 0.63855(13) 0.00000
C10 C 0.2790(3) 0.66388(9) 0.1109(2)
H6 H 0.2955(3) 0.64732(9) 0.1852(2)
C11 C 0.2832(3) 0.71342(9) 0.1106(2)
H7 H 0.3083(3) 0.72996(9) 0.1844(2)
C12 C 0.25000 0.73880(12) 0.00000
C13 C 0.25000 0.79274(13) 0.00000
N1 N 0.6264(2) 0.42797(8) 0.3616(2)
N2 N 0.25000 0.48461(11) 0.00000
O1 O 0.1679(2) 0.81507(6) -0.08499(18)
O2 O 0.5668(2) 0.38462(7) 0.59370(18)
O3 O 0.3668(2) 0.37087(8) 0.76381(19)
O4 O 0.4611(3) 0.29134(7) 0.6385(2)
O5 O 0.25000 0.36112(12) 0.50000
C14 C 0.1184(4) 0.31605(12) -0.0481(3)
H8 H 0.1405(10) 0.3347(7) -0.1167(15)
H9 H 0.0337(8) 0.29565(13) -0.075(2)
H10 H 0.0953(17) 0.3371(6) 0.0155(7)
N3 N 0.25000 0.28639(13) 0.00000
H11 H 0.222(4) 0.2681(13) 0.058(3)
O6 O 0.3832(2) 0.27138(8) 0.3302(2)
H12 H 0.396(3) 0.2514(11) 0.274(3)
H13 H 0.4667(18) 0.2844(12) 0.358(3)
C1A C -0.1583(3) 0.47334(10) -0.3374(3)
H1A H -0.2435(3) 0.48705(10) -0.3826(3)
C2A C -0.0724(3) 0.50131(10) -0.2491(3)
H2A H -0.0987(3) 0.53307(10) -0.2377(3)
C3A C 0.0537(3) 0.48144(9) -0.1776(2)
C4A C 0.0853(3) 0.43385(10) -0.2012(3)
H3A H 0.1675(3) 0.41876(10) -0.1554(3)
C5A C -0.0049(3) 0.40911(10) -0.2922(3)
H4A H 0.0198(3) 0.37744(10) -0.3066(3)
C6A C 0.1543(3) 0.50964(9) -0.0833(2)
C7A C 0.1505(3) 0.55956(9) -0.0852(2)
H5A H 0.0820(3) 0.57559(9) -0.1430(2)
C10A C 0.2210(3) 0.66388(9) -0.1109(2)
H6A H 0.2045(3) 0.64732(9) -0.1852(2)
C11A C 0.2168(3) 0.71342(9) -0.1106(2)
H7A H 0.1917(3) 0.72996(9) -0.1844(2)
N1A N -0.1264(2) 0.42797(8) -0.3616(2)
O1A O 0.3321(2) 0.81507(6) 0.08499(18)
Mo1A Mo 1.08750(2) 0.351097(8) 0.373809(19)
O2A O 0.9332(2) 0.38462(7) 0.40630(18)
O3A O 1.1332(2) 0.37087(8) 0.23619(19)
O4A O 1.0389(3) 0.29134(7) 0.3615(2)
Co1* Co -0.25000 0.383322(16) -0.50000
Co1B Co 0.25000 0.883322(16) 0.00000
Mo1A* Mo 0.08750(2) 0.351097(8) 0.373809(19)
N1A* N 0.8736(2) 0.42797(8) 0.6384(2)
O1B O 0.6679(2) 0.31507(6) 0.41501(18)
O1C O 0.8321(2) 0.31507(6) 0.58499(18)
O5* O 1.25000 0.36112(12) 0.50000
C14A C 0.3816(4) 0.31605(12) 0.0481(3)
H8A H 0.3595(10) 0.3347(7) 0.1167(15)
H9A H 0.4663(8) 0.29565(13) 0.075(2)
H10A H 0.4047(17) 0.3371(6) -0.0155(7)
H11A H 0.278(4) 0.2681(13) -0.058(3)
#END
