
#######################################################################
#
#                 Cambridge Crystallographic Data Centre
#                                CCDC
#
#######################################################################
#
# If this CIF has been generated from an entry in the Cambridge
# Structural Database, then it will include bibliographic, chemical,
# crystal, experimental, refinement or atomic coordinate data resulting
# from the CCDC's data processing and validation procedures.
#
#######################################################################

data_CSD_CIF_IPAVUQ
_audit_creation_date 2004-04-21
_audit_creation_method CSD-ConQuest-V1
_database_code_CSD IPAVUQ
_database_code_depnum_ccdc_archive 'CCDC 213961'
_chemical_formula_sum 'C72 H84 Mo2 N2 O8 Sn3'
_chemical_formula_moiety
;
(C16 H36 N1 1+)n,n(C54 H45 Mo2 O8 Sn3 1-),n(C2 H3 N1)
;
_journal_coden_Cambridge 29
_journal_volume 629
_journal_year 2003
_journal_page_first 2573
_journal_name_full 'Z.Anorg.Allg.Chem. '
loop_
_publ_author_name
"F.Rosenland"
"M.Kondracka"
"K.Merzweiler"
_chemical_name_systematic
;
catena-[Tetrabutylammonium 
hexakis(\m~2~-oxo)-dioxo-nonaphenyl-di-molybdenum-tri-tin acetonitrile 
solvate]
;
_cell_volume   7215.004
_exptl_crystal_density_diffrn 1.522
_diffrn_ambient_temperature 220
#These two values have been output from a single CSD field.
_refine_ls_R_factor_gt 0.0244
_refine_ls_wR_factor_gt 0.0244
_symmetry_cell_setting orthorhombic
_symmetry_space_group_name_H-M 'P 21 21 21'
_symmetry_Int_Tables_number 19
loop_
_symmetry_equiv_pos_site_id
_symmetry_equiv_pos_as_xyz
1 x,y,z
2 1/2-x,-y,1/2+z
3 1/2+x,1/2-y,-z
4 -x,1/2+y,1/2-z
_cell_length_a 18.2054(12)
_cell_length_b 18.4857(18)
_cell_length_c 21.4388(14)
_cell_angle_alpha 90
_cell_angle_beta 90
_cell_angle_gamma 90
_cell_formula_units_Z 4
loop_
_atom_type_symbol
_atom_type_radius_bond
C 0.68
H 0.23
Mo 1.38
N 0.68
O 0.68
Sn 1.46
loop_
_atom_site_label
_atom_site_type_symbol
_atom_site_fract_x
_atom_site_fract_y
_atom_site_fract_z
C1 C 0.3656(2) 0.3091(2) 0.10272(17)
C2 C 0.3488(3) 0.3195(2) 0.04017(19)
H1 H 0.33720 0.36560 0.02590
C3 C 0.3492(3) 0.2619(3) -0.0014(2)
H2 H 0.33720 0.26980 -0.04300
C4 C 0.3672(3) 0.1940(3) 0.0182(3)
H3 H 0.36790 0.15570 -0.01000
C5 C 0.3845(3) 0.1822(2) 0.0803(3)
H4 H 0.39720 0.13600 0.09380
C6 C 0.3828(3) 0.2392(2) 0.1227(2)
H5 H 0.39320 0.23070 0.16450
C7 C 0.4712(2) 0.4038(2) 0.22189(16)
C8 C 0.5338(2) 0.4368(2) 0.20068(17)
H6 H 0.53330 0.45890 0.16170
C9 C 0.5975(3) 0.4381(2) 0.2357(2)
H7 H 0.63910 0.46080 0.21980
C10 C 0.6004(3) 0.4069(3) 0.2929(2)
H8 H 0.64390 0.40670 0.31570
C11 C 0.5388(4) 0.3761(5) 0.3160(3)
H9 H 0.53950 0.35580 0.35570
C12 C 0.4743(3) 0.3744(4) 0.2811(2)
H10 H 0.43250 0.35310 0.29790
C13 C 0.2865(2) 0.47551(19) 0.17233(17)
C14 C 0.2513(2) 0.4908(2) 0.22866(19)
H11 H 0.26320 0.46450 0.26420
C15 C 0.1985(3) 0.5450(3) 0.2320(2)
H12 H 0.17700 0.55620 0.27010
C16 C 0.1777(3) 0.5824(3) 0.1791(3)
H13 H 0.14170 0.61800 0.18160
C17 C 0.2104(3) 0.5668(2) 0.1224(2)
H14 H 0.19650 0.59190 0.08670
C18 C 0.2639(2) 0.5140(2) 0.11898(19)
H15 H 0.28540 0.50360 0.08070
C19 C 0.3375(2) 0.73253(19) -0.02704(15)
C20 C 0.3344(2) 0.7313(2) 0.03826(16)
H16 H 0.33370 0.68720 0.05910
C21 C 0.3322(3) 0.7952(2) 0.07203(18)
H17 H 0.33080 0.79350 0.11540
C22 C 0.3321(3) 0.8612(2) 0.0420(2)
H18 H 0.33000 0.90370 0.06510
C23 C 0.3351(2) 0.8640(2) -0.02289(19)
H19 H 0.33560 0.90830 -0.04340
C24 C 0.3372(2) 0.7996(2) -0.05665(18)
H20 H 0.33860 0.80150 -0.10000
C25 C 0.4407(2) 0.61650(18) -0.13462(16)
C26 C 0.4353(3) 0.5937(3) -0.19610(19)
H21 H 0.38920 0.58730 -0.21390
C27 C 0.4983(4) 0.5804(4) -0.2316(2)
H22 H 0.49400 0.56550 -0.27290
C28 C 0.5665(3) 0.5892(3) -0.2055(3)
H23 H 0.60840 0.58040 -0.22920
C29 C 0.5733(3) 0.6111(3) -0.1444(2)
H24 H 0.61960 0.61640 -0.12670
C30 C 0.5111(2) 0.6254(2) -0.10923(18)
H25 H 0.51610 0.64100 -0.06820
C31 C 0.2613(2) 0.5537(2) -0.07578(17)
C32 C 0.2783(3) 0.4802(2) -0.0743(2)
H26 H 0.32720 0.46570 -0.07370
C33 C 0.2232(3) 0.4282(3) -0.0736(2)
H27 H 0.23560 0.37940 -0.07410
C34 C 0.1510(3) 0.4481(3) -0.0721(2)
H28 H 0.11440 0.41300 -0.07120
C35 C 0.1325(3) 0.5212(3) -0.0720(3)
H29 H 0.08350 0.53510 -0.07020
C36 C 0.1876(3) 0.5732(3) -0.0745(2)
H30 H 0.17490 0.62190 -0.07540
C37 C 0.5230(2) 0.6308(2) 0.18739(15)
C38 C 0.4491(2) 0.6345(2) 0.16868(18)
H31 H 0.43800 0.64390 0.12710
C39 C 0.3928(2) 0.6244(2) 0.2106(2)
H32 H 0.34420 0.62790 0.19750
C40 C 0.4089(3) 0.6088(3) 0.2726(2)
H33 H 0.37120 0.60070 0.30100
C41 C 0.4804(3) 0.6055(3) 0.2915(2)
H34 H 0.49100 0.59550 0.33300
C42 C 0.5374(3) 0.6169(2) 0.24968(17)
H35 H 0.58570 0.61520 0.26360
C43 C 0.6960(2) 0.55713(18) 0.12281(15)
C44 C 0.6970(2) 0.4978(2) 0.08224(18)
H36 H 0.66000 0.49230 0.05270
C45 C 0.7534(3) 0.4470(2) 0.0860(2)
H37 H 0.75300 0.40740 0.05930
C46 C 0.8095(3) 0.4542(2) 0.1284(2)
H38 H 0.84710 0.42020 0.13010
C47 C 0.8094(3) 0.5128(2) 0.1684(2)
H39 H 0.84720 0.51820 0.19720
C48 C 0.7533(2) 0.5637(2) 0.16582(18)
H40 H 0.75390 0.60270 0.19320
C49 C 0.5978(2) 0.71225(19) 0.04732(16)
C50 C 0.6460(2) 0.7159(2) -0.00241(17)
H41 H 0.68550 0.68400 -0.00450
C51 C 0.6357(3) 0.7668(2) -0.04934(19)
H42 H 0.66910 0.77000 -0.08200
C52 C 0.5764(3) 0.8125(3) -0.0475(2)
H43 H 0.56880 0.84510 -0.07990
C53 C 0.5287(3) 0.8107(3) 0.0010(2)
H44 H 0.48920 0.84260 0.00250
C54 C 0.5394(3) 0.7599(2) 0.0491(2)
H45 H 0.50680 0.75850 0.08240
C55 C 0.4350(2) 0.7969(2) -0.48337(17)
H46 H 0.47860 0.76750 -0.48900
H47 H 0.44930 0.84700 -0.48920
C56 C 0.3801(3) 0.7770(2) -0.53391(18)
H48 H 0.33760 0.80840 -0.53100
H49 H 0.36380 0.72750 -0.52790
C57 C 0.4147(3) 0.7846(3) -0.5981(2)
H50 H 0.43590 0.83250 -0.60190
H51 H 0.45420 0.74970 -0.60210
C58 C 0.3612(4) 0.7733(3) -0.6498(2)
H52 H 0.38600 0.77800 -0.68920
H53 H 0.32290 0.80890 -0.64710
H54 H 0.34020 0.72580 -0.64650
C59 C 0.3392(2) 0.8325(2) -0.40468(19)
H55 H 0.30050 0.81530 -0.43190
H56 H 0.32360 0.82410 -0.36210
C60 C 0.3480(3) 0.9139(2) -0.4143(2)
H57 H 0.36600 0.92290 -0.45620
H58 H 0.38420 0.93230 -0.38520
C61 C 0.2755(3) 0.9541(3) -0.4049(2)
H59 H 0.28240 1.00450 -0.41620
H60 H 0.23910 0.93400 -0.43300
C62 C 0.2462(4) 0.9505(4) -0.3397(3)
H61 H 0.20040 0.97610 -0.33740
H62 H 0.28090 0.97230 -0.31160
H63 H 0.23870 0.90090 -0.32810
C63 C 0.3877(2) 0.7090(2) -0.40382(19)
H64 H 0.37200 0.70530 -0.36070
H65 H 0.34600 0.69640 -0.42980
C64 C 0.4480(3) 0.6538(2) -0.4149(2)
H66 H 0.48840 0.66290 -0.38650
H67 H 0.46640 0.65880 -0.45720
C65 C 0.4197(3) 0.5771(2) -0.4052(2)
H68 H 0.37760 0.56890 -0.43190
H69 H 0.40400 0.57130 -0.36230
C66 C 0.4790(4) 0.5214(3) -0.4200(3)
H70 H 0.45940 0.47360 -0.41440
H71 H 0.52000 0.52820 -0.39240
H72 H 0.49480 0.52720 -0.46240
C67 C 0.4718(2) 0.8117(2) -0.37529(19)
H73 H 0.51530 0.78410 -0.38620
H74 H 0.48220 0.86230 -0.38360
C68 C 0.4568(3) 0.8025(4) -0.3058(2)
H75 H 0.40450 0.80690 -0.29840
H76 H 0.47170 0.75430 -0.29320
C69 C 0.4965(4) 0.8568(4) -0.2667(3)
H77 H 0.48250 0.90530 -0.27940
H78 H 0.54900 0.85170 -0.27270
C70 C 0.4774(5) 0.8455(5) -0.1978(3)
H79 H 0.50280 0.88070 -0.17300
H80 H 0.49210 0.79780 -0.18520
H81 H 0.42540 0.85090 -0.19200
C71 C 0.7218(5) 0.7255(5) -0.2345(3)
H82 H 0.69040 0.71960 -0.19890
H83 H 0.75110 0.76820 -0.22940
H84 H 0.75340 0.68410 -0.23840
C72 C 0.6779(4) 0.7323(4) -0.2896(3)
N1 N 0.40839(18) 0.78760(17) -0.41697(14)
N2 N 0.6404(4) 0.7324(4) -0.3335(3)
Sn1 Sn 0.373066(14) 0.398072(13) 0.166811(10)
Sn2 Sn 0.345617(14) 0.633845(13) -0.078822(10)
Sn3 Sn 0.608320(13) 0.634430(13) 0.11950(1)
Mo1 Mo 0.463168(16) 0.515340(15) 0.030864(12)
Mo2 Mo 0.268180(17) 0.271940(15) 0.285450(12)
O1 O 0.42209(15) 0.46376(13) 0.09127(11)
O2 O 0.40012(15) 0.58087(13) 0.00199(11)
O3 O 0.54387(15) 0.55799(13) 0.05952(11)
O4 O 0.31907(16) 0.33503(14) 0.24110(12)
O5 O 0.48703(16) 0.45772(14) -0.02839(12)
O6 O 0.28693(16) 0.68349(14) -0.15901(11)
O7 O 0.21269(18) 0.22304(17) 0.23679(13)
O8 O 0.67141(15) 0.71078(13) 0.17724(12)
O6A O 0.21307(16) 0.31651(14) 0.34099(11)
O8C O 0.32859(15) 0.21078(13) 0.32276(12)
Mo2A Mo 0.231820(17) 0.728060(15) -0.214550(12)
Mo2C Mo 0.731820(17) 0.771940(15) 0.214550(12)
#END
