
#######################################################################
#
#                 Cambridge Crystallographic Data Centre
#                                CCDC
#
#######################################################################
#
# If this CIF has been generated from an entry in the Cambridge
# Structural Database, then it will include bibliographic, chemical,
# crystal, experimental, refinement or atomic coordinate data resulting
# from the CCDC's data processing and validation procedures.
#
#######################################################################

data_CSD_CIF_IPAVOK
_audit_creation_date 2004-04-21
_audit_creation_method CSD-ConQuest-V1
_database_code_CSD IPAVOK
_database_code_depnum_ccdc_archive 'CCDC 213962'
_chemical_formula_sum 'C70 H81 Mo2 N1 O8 Sn3'
_chemical_formula_moiety
;
(C16 H36 N1 1+)n,n(C54 H45 Mo2 O8 Sn3 1-)
;
_journal_coden_Cambridge 29
_journal_volume 629
_journal_year 2003
_journal_page_first 2573
_journal_name_full 'Z.Anorg.Allg.Chem. '
loop_
_publ_author_name
"F.Rosenland"
"M.Kondracka"
"K.Merzweiler"
_chemical_name_systematic
;
catena-[Tetrabutylammonium 
hexakis(\m~2~-oxo)-dioxo-nonaphenyl-di-molybdenum-tri-tin]
;
_cell_volume   7096.029
_exptl_crystal_density_diffrn 1.509
_diffrn_ambient_temperature 220
_refine_special_details
;
One cation C atom is disordered equally over two sites.

;
#These two values have been output from a single CSD field.
_refine_ls_R_factor_gt 0.0465
_refine_ls_wR_factor_gt 0.0465
_symmetry_cell_setting monoclinic
_symmetry_space_group_name_H-M 'C c'
_symmetry_Int_Tables_number 9
loop_
_symmetry_equiv_pos_site_id
_symmetry_equiv_pos_as_xyz
1 x,y,z
2 x,-y,1/2+z
3 1/2+x,1/2+y,z
4 1/2+x,1/2-y,1/2+z
_cell_length_a 14.295(4)
_cell_length_b 22.922(3)
_cell_length_c 22.697(5)
_cell_angle_alpha 90
_cell_angle_beta 107.42(3)
_cell_angle_gamma 90
_cell_formula_units_Z 4
loop_
_atom_type_symbol
_atom_type_radius_bond
C 0.68
H 0.23
Mo 1.32
N 0.68
O 0.68
Sn 1.46
loop_
_atom_site_label
_atom_site_type_symbol
_atom_site_fract_x
_atom_site_fract_y
_atom_site_fract_z
C1 C -0.8705(7) -0.3848(5) -0.4276(4)
C2 C -0.9632(8) -0.4021(5) -0.4678(5)
H1 H -0.96820 -0.41610 -0.50710
C3 C -1.0444(9) -0.3981(6) -0.4487(5)
H2 H -1.10520 -0.40840 -0.47550
C4 C -1.0373(9) -0.3790(6) -0.3902(6)
H3 H -1.09310 -0.37790 -0.37720
C5 C -0.9488(10) -0.3614(6) -0.3505(6)
H4 H -0.94500 -0.34790 -0.31120
C6 C -0.8678(8) -0.3639(5) -0.3689(4)
H5 H -0.80830 -0.35140 -0.34200
C7 C -0.6590(8) -0.3171(5) -0.4691(5)
C8 C -0.5597(9) -0.3084(6) -0.4352(5)
H6 H -0.53060 -0.33550 -0.40470
C9 C -0.5045(10) -0.2640(6) -0.4438(7)
H7 H -0.43990 -0.25970 -0.41930
C10 C -0.5473(10) -0.2245(6) -0.4907(7)
H8 H -0.51000 -0.19380 -0.49840
C11 C -0.6448(10) -0.2301(5) -0.5262(6)
H9 H -0.67250 -0.20300 -0.55690
C12 C -0.6997(8) -0.2755(5) -0.5159(5)
H10 H -0.76480 -0.27910 -0.53990
C13 C -0.6967(8) -0.4778(5) -0.4750(4)
C14 C -0.7613(8) -0.5147(5) -0.5188(5)
H11 H -0.82240 -0.50080 -0.54190
C15 C -0.7339(9) -0.5720(5) -0.5276(5)
H12 H -0.77640 -0.59570 -0.55690
C16 C -0.6455(10) -0.5929(5) -0.4935(6)
H13 H -0.62880 -0.63140 -0.49850
C17 C -0.5796(9) -0.5573(6) -0.4512(6)
H14 H -0.51760 -0.57120 -0.42990
C18 C -0.6062(7) -0.5012(5) -0.4408(5)
H15 H -0.56320 -0.47860 -0.41060
C19 C -0.8078(9) -0.4318(5) -0.1924(5)
C20 C -0.9017(10) -0.4317(6) -0.1846(5)
H16 H -0.93590 -0.46670 -0.18780
C21 C -0.9449(10) -0.3804(7) -0.1720(6)
H17 H -1.00630 -0.38130 -0.16580
C22 C -0.8946(13) -0.3283(6) -0.1691(6)
H18 H -0.92390 -0.29390 -0.16190
C23 C -0.8046(13) -0.3259(6) -0.1765(6)
H19 H -0.77250 -0.29030 -0.17440
C24 C -0.7606(10) -0.3765(5) -0.1872(5)
H20 H -0.69780 -0.37450 -0.19120
C25 C -0.7880(8) -0.5579(5) -0.2914(5)
C26 C -0.8230(12) -0.5324(7) -0.3487(6)
H21 H -0.82770 -0.49200 -0.35160
C27 C -0.8517(16) -0.5658(9) -0.4024(7)
H22 H -0.87550 -0.54750 -0.44060
C28 C -0.8450(13) -0.6239(9) -0.3992(8)
H23 H -0.86300 -0.64550 -0.43560
C29 C -0.8124(10) -0.6523(7) -0.3440(7)
H24 H -0.80980 -0.69290 -0.34240
C30 C -0.7835(8) -0.6196(5) -0.2908(6)
H25 H -0.76000 -0.63870 -0.25310
C31 C -0.6194(8) -0.5435(5) -0.1356(5)
C32 C -0.6111(9) -0.6037(5) -0.1191(5)
H26 H -0.65850 -0.62980 -0.14120
C33 C -0.5340(9) -0.6238(6) -0.0711(6)
H27 H -0.53060 -0.66320 -0.06080
C34 C -0.4640(11) -0.5874(7) -0.0387(7)
H28 H -0.41210 -0.60160 -0.00660
C35 C -0.4690(11) -0.5296(7) -0.0533(7)
H29 H -0.42020 -0.50460 -0.03050
C36 C -0.5438(9) -0.5073(6) -0.1003(5)
H30 H -0.54480 -0.46770 -0.10920
C37 C -0.4647(7) -0.2894(4) -0.1132(5)
C38 C -0.4350(8) -0.3451(5) -0.0893(5)
H31 H -0.42230 -0.37350 -0.11530
C39 C -0.4241(9) -0.3588(5) -0.0291(5)
H32 H -0.40280 -0.39580 -0.01420
C40 C -0.4447(8) -0.3180(5) 0.0091(5)
H33 H -0.43700 -0.32770 0.05010
C41 C -0.4760(7) -0.2635(5) -0.0113(5)
H34 H -0.49090 -0.23670 0.01530
C42 C -0.4857(8) -0.2481(5) -0.0717(5)
H35 H -0.50600 -0.21060 -0.08540
C43 C -0.3355(8) -0.2873(4) -0.2285(5)
C44 C -0.3357(9) -0.3252(6) -0.2782(6)
H36 H -0.39430 -0.34260 -0.30080
C45 C -0.2529(10) -0.3367(7) -0.2936(7)
H37 H -0.25520 -0.36150 -0.32650
C46 C -0.1651(9) -0.3117(6) -0.2603(7)
H38 H -0.10850 -0.31980 -0.27100
C47 C -0.1603(10) -0.2755(6) -0.2122(7)
H39 H -0.10050 -0.25920 -0.18990
C48 C -0.2430(8) -0.2629(5) -0.1964(6)
H40 H -0.23860 -0.23750 -0.16360
C49 C -0.5748(8) -0.2231(4) -0.2755(5)
C50 C -0.6712(7) -0.2433(5) -0.2981(5)
H41 H -0.69210 -0.27330 -0.27740
C51 C -0.7363(9) -0.2196(5) -0.3509(6)
H42 H -0.80060 -0.23290 -0.36490
C52 C -0.7046(9) -0.1764(6) -0.3819(5)
H43 H -0.74730 -0.16210 -0.41850
C53 C -0.610(1) -0.1529(6) -0.3604(5)
H44 H -0.59030 -0.12220 -0.38090
C54 C -0.5475(8) -0.1770(5) -0.3079(5)
H45 H -0.48430 -0.16210 -0.29300
C55 C -1.4046(8) -0.4098(6) -0.7339(5)
H46 H -1.43670 -0.40380 -0.70230
H47 H -1.43380 -0.44400 -0.75740
C56 C -1.4261(8) -0.3569(6) -0.7775(6)
H48 H -1.39280 -0.32280 -0.75570
H49 H -1.40140 -0.36420 -0.81220
C57 C -1.5368(8) -0.3454(6) -0.8009(6)
H50 H -1.57040 -0.38060 -0.81970
H51 H -1.56040 -0.33510 -0.76640
C58 C -1.5593(10) -0.2968(7) -0.8475(7)
H52 H -1.52050 -0.26320 -0.83030
H53 H -1.62760 -0.28700 -0.85780
H54 H -1.54410 -0.30910 -0.88400
C59 C -1.2441(8) -0.3713(5) -0.6605(6)
H55 H -1.17650 -0.38230 -0.64040
H56 H -1.24310 -0.33810 -0.68680
C60 C -1.2892(10) -0.3523(6) -0.6116(7)
H57 H -1.29700 -0.38580 -0.58740
H58 H -1.35360 -0.33580 -0.63100
C61 C -1.2234(10) -0.3067(6) -0.5694(6)
H59 H -1.15920 -0.32360 -0.55060
H60 H -1.21530 -0.27380 -0.59430
C62 C -1.2643(12) -0.2847(8) -0.5182(7)
H61 H -1.33010 -0.27090 -0.53620
H62 H -1.22400 -0.25350 -0.49620
H63 H -1.26440 -0.31610 -0.49020
C63 C -1.2391(8) -0.4320(6) -0.7487(5)
H64 H -1.23960 -0.39560 -0.77060
H65 H -1.17140 -0.44040 -0.72590
C64 C -1.2757(10) -0.4801(7) -0.7963(7)
H66 H -1.27880 -0.51630 -0.77490
H67 H -1.34180 -0.47060 -0.82140
C65 C -1.2926(9) -0.4774(6) -0.6635(6)
H68 H -1.33120 -0.47050 -0.63550
H69 H -1.32410 -0.50880 -0.69110
C66 C -1.1930(12) -0.4978(7) -0.6262(8)
H70 H -1.15840 -0.46610 -0.60040
H71 H -1.15560 -0.50920 -0.65370
C67 C -1.2015(13) -0.5505(7) -0.585(1)
H72 H -1.25080 -0.54190 -0.56480
H73 H -1.22320 -0.58440 -0.61100
C68 C -1.1138(19) -0.5635(8) -0.5405(11)
H74 H -1.12310 -0.59620 -0.51640
H75 H -1.09250 -0.53040 -0.51400
H76 H -1.06490 -0.57300 -0.56020
O1 O -0.6493(5) -0.3983(3) -0.3579(3)
O2 O -0.6388(6) -0.4586(3) -0.2436(3)
O3 O -0.5318(5) -0.3516(3) -0.2395(3)
O4 O -0.4757(5) -0.4547(3) -0.2879(4)
O5 O -0.8332(6) -0.3851(3) -0.5545(3)
O6 O -0.8404(6) -0.5613(3) -0.1709(3)
O7 O -1.0124(5) -0.4104(4) -0.6424(3)
O8 O -0.3989(5) -0.1811(3) -0.1683(3)
Mo1 Mo -0.57456(5) -0.41593(4) -0.28293(4)
Mo2 Mo -0.89670(5) -0.38816(4) -0.63436(3)
Sn1 Sn -0.74048(5) -0.39178(3) -0.45695(3)
Sn2 Sn -0.73927(6) -0.50995(3) -0.20718(4)
Sn3 Sn -0.46406(4) -0.26663(3) -0.20495(3)
N1 N -1.2958(6) -0.4225(4) -0.7019(4)
C69 C -1.2126(12) -0.4895(7) -0.8386(7)
C70 C -1.1054(18) -0.4992(13) -0.8082(13)
C71? C -1.266(3) -0.5183(17) -0.8942(16)
Mo2A Mo -0.89670(5) -0.61184(4) -0.13436(3)
Mo2C Mo -0.39670(5) -0.11184(4) -0.13436(3)
O6A O -0.8404(6) -0.4387(3) -0.6709(3)
O8C O -0.8989(5) -0.3189(3) -0.6683(3)
#END
