
#######################################################################
#
#                 Cambridge Crystallographic Data Centre
#                                CCDC
#
#######################################################################
#
# If this CIF has been generated from an entry in the Cambridge
# Structural Database, then it will include bibliographic, chemical,
# crystal, experimental, refinement or atomic coordinate data resulting
# from the CCDC's data processing and validation procedures.
#
#######################################################################

data_CSD_CIF_IPEPUR
_audit_creation_date 2021-03-14
_audit_creation_method CSD-ConQuest-V1
_database_code_CSD IPEPUR
_database_code_depnum_ccdc_archive 'CCDC 2026862'
_chemical_formula_sum 'C8 H8.5 Cl1 Cu6 N12 O20 P0.5 W6'
_chemical_formula_moiety
;
(C8 H8 Cl1 Cu6 N12 1+)n,0.5(H1 O40 P1 W12 2-)
;
_journal_coden_Cambridge 9
_journal_volume 60
_journal_year 2021
_journal_page_first 4792
_journal_name_full 'Inorg.Chem. '
loop_
_publ_author_name
"Baijie Xu"
"Qian Xu"
"Quanzhong Wang"
"Zhen Liu"
"Ruikun Zhao"
"Dandan Li"
"Pengtao Ma"
"Jingping Wang"
"Jingyang Niu"
_chemical_name_systematic
;
catena-[(\m-chloro)-tetrakis(\m-1,2,4-triazolato)-hexa-copper(i) 
(\m-phosphato)-(\m-hydroxo)-tricosakis(\m-oxo)-dodecaoxo-dodeca-tungsten]
;
_chemical_name_common
;
HENU-7
;
_cell_volume   3206.373
_exptl_crystal_colour 'black'
_exptl_crystal_density_diffrn 4.407
_exptl_crystal_description 'block'
_diffrn_ambient_temperature 150.0
_refine_special_details
;
Cl1 and Cl2 disordered over two sites with occupancies 0.7:0.3.

;
#These two values have been output from a single CSD field.
_refine_ls_R_factor_gt 0.0399
_refine_ls_wR_factor_gt 0.0399
_symmetry_cell_setting monoclinic
_symmetry_space_group_name_H-M 'C 2/m'
_symmetry_Int_Tables_number 12
loop_
_symmetry_equiv_pos_site_id
_symmetry_equiv_pos_as_xyz
1 x,y,z
2 -x,y,-z
3 1/2+x,1/2+y,z
4 1/2-x,1/2+y,-z
5 -x,-y,-z
6 x,-y,z
7 -1/2-x,-1/2-y,-z
8 -1/2+x,-1/2-y,z
_cell_length_a 15.6770(8)
_cell_length_b 14.6152(6)
_cell_length_c 14.5764(7)
_cell_angle_alpha 90
_cell_angle_beta 106.249(2)
_cell_angle_gamma 90
_cell_formula_units_Z 4
loop_
_atom_type_symbol
_atom_type_radius_bond
C 0.68
H 0.23
Cl 0.99
Cu 1.32
N 0.68
O 0.68
P 1.05
W 1.62
loop_
_atom_site_label
_atom_site_type_symbol
_atom_site_fract_x
_atom_site_fract_y
_atom_site_fract_z
C1 C 0.6390(9) 0.5725(8) 0.2192(9)
H1 H 0.63856 0.63423 0.19867
C2 C 0.6396(9) 0.8148(8) 0.4619(9)
H2 H 0.65518 0.83460 0.40662
C3 C 0.6090(9) 0.8149(8) 0.5933(9)
H3 H 0.59798 0.83487 0.65096
C4 C 0.5903(8) 0.5723(8) 0.8294(8)
H4 H 0.59095 0.63414 0.84970
Cl1 Cl 0.6572(9) 0.50000 0.5409(6)
Cu1 Cu 0.6141(2) 0.50000 0.02400(19)
Cu2 Cu 0.63260(13) 0.62184(10) 0.40956(11)
Cu3 Cu 0.62987(17) 1.00000 0.53139(16)
Cu4 Cu 0.59414(12) 0.62247(10) 0.63734(11)
N1 N 0.6385(12) 0.50000 0.1640(11)
N2 N 0.6402(7) 0.5473(6) 0.3063(7)
N3 N 0.6257(7) 0.7283(7) 0.4801(7)
N4 N 0.6293(8) 0.8712(6) 0.5305(7)
N5 N 0.6060(7) 0.7290(6) 0.5669(7)
N6 N 0.5863(6) 0.5474(6) 0.7410(7)
N7 N 0.5933(10) 0.50000 0.8871(10)
O1 O 1.00000 0.8589(9) 0.00000
O2 O 0.9161(6) 0.7151(9) -0.1173(6)
O3 O 0.9097(6) 0.7176(8) 0.0604(6)
O4 O 0.9503(8) 0.5861(9) -0.0168(9)
O5 O 0.9199(8) 0.5903(7) -0.2438(9)
O6 O 0.7900(12) 0.50000 -0.1999(12)
O7 O 0.7911(6) 0.6250(8) -0.0698(6)
O8 O 0.7471(7) 0.6766(7) 0.0951(8)
O9 O 0.9074(9) 0.5899(7) 0.1853(8)
O10 O 0.7841(12) 0.50000 0.0569(11)
O11 O 0.9879(8) 0.50000 0.3552(8)
O12 O 0.7603(7) 0.6800(7) -0.2599(7)
O13 O 0.9364(12) 0.50000 -0.1069(13)
O14 O 0.9302(13) 0.50000 0.0638(14)
P1 P 1.00000 0.50000 0.00000
W1 W 1.00000 0.74363(4) 0.00000
W2 W 0.83635(3) 0.62156(3) -0.17664(4)
W3 W 0.82919(3) 0.62211(3) 0.06508(3)
W4 W 0.99230(7) 0.50000 0.24151(5)
Cl2? Cl 0.5486(18) 0.50000 0.5072(11)
C1E C 0.6390(9) 0.4275(8) 0.2192(9)
H1E H 0.63856 0.36577 0.19867
N2E N 0.6402(7) 0.4527(6) 0.3063(7)
C4E C 0.5903(8) 0.4277(8) 0.8294(8)
H4E H 0.59095 0.36586 0.84970
N6E N 0.5863(6) 0.4526(6) 0.7410(7)
C2E C 0.6396(9) 0.1852(8) 0.4619(9)
H2E H 0.65518 0.16540 0.40662
C3E C 0.6090(9) 0.1851(8) 0.5933(9)
H3E H 0.59798 0.16513 0.65096
Cu2E Cu 0.63260(13) 0.37816(10) 0.40956(11)
Cu4E Cu 0.59414(12) 0.37753(10) 0.63734(11)
N3E N 0.6257(7) 0.2717(7) 0.4801(7)
N4E N 0.6293(8) 0.1288(6) 0.5305(7)
N5E N 0.6060(7) 0.2710(6) 0.5669(7)
Cu1* Cu 0.6141(2) 0.50000 1.02400(19)
Cu3* Cu 0.62987(17) 0.00000 0.53139(16)
N4E* N 0.6293(8) 1.1288(6) 0.5305(7)
N7* N 0.5933(10) 0.50000 -0.1129(10)
O4A O 1.0497(8) 0.5861(9) 0.0168(9)
O13A O 1.0636(12) 0.50000 0.1069(13)
O14A O 1.0698(13) 0.50000 -0.0638(14)
O4D O 1.0497(8) 0.4139(9) 0.0168(9)
O4E O 0.9503(8) 0.4139(9) -0.0168(9)
O2A O 1.0839(6) 0.7151(9) 0.1173(6)
O3A O 1.0903(6) 0.7176(8) -0.0604(6)
O5A O 1.0801(8) 0.5903(7) 0.2438(9)
O6A O 1.2100(12) 0.50000 0.1999(12)
O7A O 1.2089(6) 0.6250(8) 0.0698(6)
O8A O 1.2529(7) 0.6766(7) -0.0951(8)
O9A O 1.0926(9) 0.5899(7) -0.1853(8)
O10A O 1.2159(12) 0.50000 -0.0569(11)
O11A O 1.0121(8) 0.50000 -0.3552(8)
O12A O 1.2397(7) 0.6800(7) 0.2599(7)
W2A W 1.16365(3) 0.62156(3) 0.17664(4)
W3A W 1.17081(3) 0.62211(3) -0.06508(3)
W4A W 1.00770(7) 0.50000 -0.24151(5)
O1D O 1.00000 0.1411(9) 0.00000
O2D O 1.0839(6) 0.2849(9) 0.1173(6)
O3D O 1.0903(6) 0.2824(8) -0.0604(6)
O5D O 1.0801(8) 0.4097(7) 0.2438(9)
O7D O 1.2089(6) 0.3750(8) 0.0698(6)
O8D O 1.2529(7) 0.3234(7) -0.0951(8)
O9D O 1.0926(9) 0.4101(7) -0.1853(8)
O12D O 1.2397(7) 0.3200(7) 0.2599(7)
W1D W 1.00000 0.25637(4) 0.00000
W2D W 1.16365(3) 0.37844(3) 0.17664(4)
W3D W 1.17081(3) 0.37789(3) -0.06508(3)
O2E O 0.9161(6) 0.2849(9) -0.1173(6)
O3E O 0.9097(6) 0.2824(8) 0.0604(6)
O5E O 0.9199(8) 0.4097(7) -0.2438(9)
O7E O 0.7911(6) 0.3750(8) -0.0698(6)
O8E O 0.7471(7) 0.3234(7) 0.0951(8)
O9E O 0.9074(9) 0.4101(7) 0.1853(8)
O12E O 0.7603(7) 0.3200(7) -0.2599(7)
W2E W 0.83635(3) 0.37844(3) -0.17664(4)
W3E W 0.82919(3) 0.37789(3) 0.06508(3)
#END
