
#######################################################################
#
#                 Cambridge Crystallographic Data Centre
#                                CCDC
#
#######################################################################
#
# If this CIF has been generated from an entry in the Cambridge
# Structural Database, then it will include bibliographic, chemical,
# crystal, experimental, refinement or atomic coordinate data resulting
# from the CCDC's data processing and validation procedures.
#
#######################################################################

data_CSD_CIF_IPIREG
_audit_creation_date 2016-06-10
_audit_creation_method CSD-ConQuest-V1
_database_code_CSD IPIREG
_database_code_depnum_ccdc_archive 'CCDC 1426306'
_chemical_formula_sum 'C27 H43 N5 O20 Zn2'
_chemical_formula_moiety
;
(C3 H12 N2 2+)n,n(C24 H15 N3 O12 Zn2 2-),8n(H2 O1)
;
_journal_coden_Cambridge 211
_journal_volume 69
_journal_year 2016
_journal_page_first 1499
_journal_name_full 'J.Coord.Chem. '
loop_
_publ_author_name
"Handan Gunay"
"A.T.Colak"
"E.Temel"
"O.S.Bayraktar"
"F.Colak"
"Orhan Buyukgungor"
_chemical_name_systematic
;
catena-[1,3-Diammoniopropane tris(\m-5-aminoisophthalato)-di-zinc octahydrate]
;
_cell_volume   3705.042
_exptl_crystal_colour 'light brown'
_exptl_crystal_density_diffrn 1.593
_exptl_crystal_description 'prismatic plane'
_diffrn_ambient_temperature 296
#These two values have been output from a single CSD field.
_refine_ls_R_factor_gt 0.0764
_refine_ls_wR_factor_gt 0.0764
_symmetry_cell_setting monoclinic
_symmetry_space_group_name_H-M 'P 21/c'
_symmetry_Int_Tables_number 14
loop_
_symmetry_equiv_pos_site_id
_symmetry_equiv_pos_as_xyz
1 x,y,z
2 -x,1/2+y,1/2-z
3 -x,-y,-z
4 x,-1/2-y,-1/2+z
_cell_length_a 28.759(1)
_cell_length_b 8.3448(4)
_cell_length_c 15.7035(5)
_cell_angle_alpha 90
_cell_angle_beta 100.542(3)
_cell_angle_gamma 90
_cell_formula_units_Z 4
loop_
_atom_type_symbol
_atom_type_radius_bond
C 0.68
H 0.23
N 0.68
O 0.68
Zn 1.22
loop_
_atom_site_label
_atom_site_type_symbol
_atom_site_fract_x
_atom_site_fract_y
_atom_site_fract_z
C1 C 0.4565(3) 0.1631(9) 1.1138(5)
C2 C 0.4520(3) 0.0053(8) 1.1389(5)
H1 H 0.45690 -0.02080 1.19740
C3 C 0.4402(3) -0.1141(9) 1.0770(6)
C4 C 0.4318(3) -0.0727(10) 0.9894(6)
H2 H 0.42350 -0.15150 0.94750
C5 C 0.4357(3) 0.0852(8) 0.9647(5)
C6 C 0.4494(3) 0.2020(9) 1.0262(5)
H3 H 0.45380 0.30680 1.00920
C7 C 0.4353(3) -0.2865(9) 1.1027(6)
C8 C 0.4309(3) 0.1268(9) 0.8704(6)
C9 C 0.2134(3) 0.277(1) 1.0145(6)
C10 C 0.2606(3) 0.3216(10) 1.0396(6)
H4 H 0.28260 0.28660 1.00700
C11 C 0.2756(3) 0.4157(9) 1.1109(6)
C12 C 0.2435(3) 0.4699(10) 1.1623(5)
H5 H 0.25310 0.53940 1.20850
C13 C 0.1966(3) 0.4161(10) 1.1419(6)
C14 C 0.1819(3) 0.3215(10) 1.0704(6)
H6 H 0.15070 0.28590 1.05840
C15 C 0.3267(3) 0.4662(13) 1.1366(6)
C16 C 0.1630(3) 0.4667(12) 1.2003(6)
C17 C 0.0389(3) 0.1655(8) 1.1376(5)
C18 C 0.0468(3) 0.2066(9) 1.0540(5)
H7 H 0.04300 0.31180 1.03450
C19 C 0.0605(3) 0.0878(8) 1.0009(5)
C20 C 0.0648(3) -0.0705(9) 1.0313(5)
H8 H 0.07330 -0.15070 0.99600
C21 C 0.0566(3) -0.1093(8) 1.1122(5)
C22 C 0.0444(3) 0.0102(8) 1.1663(5)
H9 H 0.04000 -0.01550 1.22190
C23 C 0.0681(3) 0.1278(10) 0.9111(6)
C24 C 0.0600(3) -0.2849(9) 1.1399(6)
N1 N 0.4701(2) 0.2871(7) 1.1761(4)
H10 H 0.47560 0.26470 1.23040
H11 H 0.47270 0.38420 1.15920
N2 N 0.1983(3) 0.1869(11) 0.9416(6)
H12 H 0.21820 0.15660 0.91010
H13 H 0.16900 0.16080 0.92740
N3 N 0.0231(2) 0.2894(7) 1.1891(4)
H14 H 0.01690 0.26700 1.23920
H15 H 0.01990 0.38590 1.16970
O1 O 0.4440(2) -0.3198(6) 1.1828(4)
O2 O 0.4254(2) -0.3919(7) 1.0466(4)
O3 O 0.4145(2) 0.0148(7) 0.8173(4)
O4 O 0.4420(3) 0.2599(7) 0.8475(4)
O5 O 0.3586(2) 0.3628(7) 1.1341(4)
O6 O 0.3353(2) 0.6069(8) 1.1600(5)
O7 O 0.1688(3) 0.5931(9) 1.2398(5)
O8 O 0.1299(2) 0.3641(7) 1.2067(4)
O9 O 0.0628(3) 0.2654(7) 0.8830(4)
O10 O 0.0788(2) 0.0102(6) 0.8661(4)
O11 O 0.0653(3) -0.3888(7) 1.0870(4)
O12 O 0.0577(2) -0.3142(6) 1.2190(4)
Zn1 Zn 0.41984(3) 0.45661(12) 1.19272(6)
Zn2 Zn 0.07371(3) 0.45576(12) 1.24137(6)
C25 C 0.1711(4) 0.7639(13) 1.4407(8)
H16 H 0.15930 0.66390 1.46000
H17 H 0.16790 0.84550 1.48320
C26 C 0.2224(4) 0.7446(14) 1.4363(9)
H18 H 0.23590 0.84810 1.42660
H19 H 0.22570 0.67510 1.38830
C27 C 0.2492(4) 0.6719(14) 1.5219(9)
H20 H 0.24780 0.74590 1.56900
H21 H 0.23380 0.57320 1.53390
N4 N 0.1421(3) 0.8088(9) 1.3575(6)
H22 H 0.14240 0.72970 1.31960
H23 H 0.15380 0.89740 1.33780
H24 H 0.11250 0.82660 1.36450
N5 N 0.2991(4) 0.6386(12) 1.5176(8)
H25 H 0.30040 0.57360 1.47320
H26 H 0.31310 0.59200 1.56660
H27 H 0.31380 0.73000 1.51040
O13 O -0.0603(2) 0.4259(6) 1.0857(4)
H28 H -0.063(3) 0.402(11) 1.0245(14)
H29 H -0.072(3) 0.534(4) 1.089(6)
O14 O 0.2788(4) 0.1563(14) 1.3187(8)
H30 H 0.303(5) 0.238(15) 1.323(10)
H31 H 0.272(6) 0.121(19) 1.259(3)
O15 O 0.3137(3) 0.4661(14) 1.3673(7)
H32 H 0.345(2) 0.421(15) 1.387(10)
H33 H 0.313(5) 0.567(10) 1.398(9)
O16 O 0.3338(3) 0.5753(13) 0.9360(6)
H34 H 0.332(3) 0.601(15) 0.875(2)
H35 H 0.360(3) 0.501(13) 0.951(6)
O17 O 0.6321(3) 0.3374(8) 1.2118(5)
H36 H 0.5989(10) 0.337(10) 1.185(6)
H37 H 0.640(3) 0.227(4) 1.227(8)
O18 O 0.3262(3) 0.0525(11) 1.1668(6)
H38 H 0.339(5) 0.156(7) 1.155(10)
H39 H 0.343(4) 0.018(16) 1.223(4)
O19 O 0.1743(4) 0.0708(11) 1.2700(7)
H40 H 0.1996(17) 0.023(13) 1.246(6)
H41 H 0.158(4) 0.143(15) 1.226(6)
O20 O 0.5468(2) 0.4342(7) 1.1128(4)
H42 H 0.566(3) 0.527(7) 1.133(5)
H43 H 0.547(3) 0.426(10) 1.0511(13)
O1* O 0.4440(2) 0.6802(6) 1.1828(4)
O3C O 0.4145(2) 0.4852(7) 1.3173(4)
O10C O 0.0788(2) 0.4898(6) 1.3661(4)
O12* O 0.0577(2) 0.6858(6) 1.2190(4)
Zn1* Zn 0.41984(3) -0.54339(12) 1.19272(6)
Zn1C Zn 0.41984(3) 0.04339(12) 0.69272(6)
Zn2* Zn 0.07371(3) -0.54424(12) 1.24137(6)
Zn2C Zn 0.07371(3) 0.04424(12) 0.74137(6)
#END
