
#######################################################################
#
#                 Cambridge Crystallographic Data Centre
#                                CCDC
#
#######################################################################
#
# If this CIF has been generated from an entry in the Cambridge
# Structural Database, then it will include bibliographic, chemical,
# crystal, experimental, refinement or atomic coordinate data resulting
# from the CCDC's data processing and validation procedures.
#
#######################################################################

data_CSD_CIF_IQOKEG
_audit_creation_date 2016-07-07
_audit_creation_method CSD-ConQuest-V1
_database_code_CSD IQOKEG
_database_code_depnum_ccdc_archive 'CCDC 1456977'
_chemical_formula_sum 'C74 H74 Mn4 N6 O22 Si2'
_chemical_formula_moiety
;
(C56 H32 Mn3 O16 Si2 2-)n,n(C18 H42 Mn1 N6 O6 2+)
;
_journal_coden_Cambridge 1290
_journal_year 2016
_journal_page_first 4368
_journal_name_full 'Eur.J.Inorg.Chem. '
loop_
_publ_author_name
"M.Bosch"
"Xing Sun"
"Shuai Yuan"
"Ying-Pin Chen"
"Qi Wang"
"Xuan Wang"
"Hong-Cai Zhou"
_chemical_name_systematic
;
catena-(hexakis(dimethylformamide)-manganese 
bis(\m-tetrakis(4-carboxylatophenyl)silane)-tri-manganese unknown solvate)
;
_chemical_name_common
;
PCN-48
;
_cell_volume   2095.407
_exptl_crystal_colour 'colorless'
_exptl_crystal_density_diffrn 1.328
_exptl_crystal_description 'Block'
_diffrn_ambient_temperature 110
_refine_special_details
;
The SQUEEZE/PLATON program was used to model some disordered solvent.

;
#These two values have been output from a single CSD field.
_refine_ls_R_factor_gt 0.1504
_refine_ls_wR_factor_gt 0.1504
_symmetry_cell_setting triclinic
_symmetry_space_group_name_H-M 'P -1'
_symmetry_Int_Tables_number 2
loop_
_symmetry_equiv_pos_site_id
_symmetry_equiv_pos_as_xyz
1 x,y,z
2 -x,-y,-z
_cell_length_a 13.73(2)
_cell_length_b 14.03(2)
_cell_length_c 14.10(2)
_cell_angle_alpha 115.655(13)
_cell_angle_beta 111.027(14)
_cell_angle_gamma 100.397(15)
_cell_formula_units_Z 1
loop_
_atom_type_symbol
_atom_type_radius_bond
C 0.68
H 0.23
Mn 1.61
N 0.68
O 0.68
Si 1.20
loop_
_atom_site_label
_atom_site_type_symbol
_atom_site_fract_x
_atom_site_fract_y
_atom_site_fract_z
Mn1 Mn 0.7948(4) 0.6181(4) 0.6212(4)
Mn2 Mn 0.50000 0.50000 0.50000
Si1 Si 0.5208(8) 0.8494(8) 1.1171(8)
O1 O 0.7833(16) 0.7744(16) 0.7693(17)
O2 O 0.6651(17) 0.5935(15) 0.6748(17)
O3 O -0.0210(16) 0.7050(18) 0.6949(17)
O4 O -0.0672(16) 0.6371(18) 0.797(2)
O5 O 0.5599(18) 0.6290(18) 1.4679(18)
O6 O 0.7335(18) 0.6598(18) 1.4897(18)
O7 O 0.5920(16) 1.4115(16) 1.4290(18)
O8 O 0.7731(17) 1.4484(19) 1.5195(18)
C1 C 0.704(2) 0.6997(17) 0.758(2)
C2 C 0.6643(17) 0.7379(18) 0.8499(16)
C3 C 0.7072(15) 0.8537(16) 0.9401(18)
H1 H 0.76320 0.90960 0.94530
C4 C 0.6682(17) 0.8877(13) 1.0228(16)
H2 H 0.69750 0.96690 1.08450
C5 C 0.5863(17) 0.8060(18) 1.0152(16)
C6 C 0.5434(15) 0.6902(16) 0.9249(18)
H3 H 0.48740 0.63430 0.91970
C7 C 0.5824(17) 0.6561(13) 0.8423(16)
H4 H 0.55310 0.57700 0.78060
C8 C 0.0051(13) 0.685(3) 0.779(2)
C9 C 0.1303(12) 0.7248(19) 0.8613(17)
C10 C 0.1650(14) 0.7139(18) 0.9603(19)
H5 H 0.11000 0.68300 0.97660
C11 C 0.2801(16) 0.7482(19) 1.0355(16)
H6 H 0.30370 0.74070 1.10310
C12 C 0.3605(12) 0.7934(19) 1.0116(17)
C13 C 0.3258(14) 0.8043(18) 0.9126(19)
H7 H 0.38080 0.83520 0.89640
C14 C 0.2108(16) 0.7700(19) 0.8375(16)
H8 H 0.18710 0.77740 0.76980
C15 C 0.640(3) 0.661(3) 1.448(2)
C16 C 0.6056(17) 0.7005(17) 1.3615(16)
C17 C 0.6505(16) 0.6840(17) 1.2843(17)
H9 H 0.69990 0.64450 1.28320
C18 C 0.6231(18) 0.7252(18) 1.2089(16)
H10 H 0.65380 0.71390 1.15610
C19 C 0.5508(18) 0.7829(18) 1.2106(17)
C20 C 0.5059(17) 0.7994(18) 1.2877(19)
H11 H 0.45640 0.83890 1.28890
C21 C 0.5333(17) 0.7582(18) 1.3632(17)
H12 H 0.50260 0.76950 1.41590
C22 C 0.6709(18) 1.3749(14) 1.447(2)
C23 C 0.6403(17) 1.2470(12) 1.3724(17)
C24 C 0.5254(15) 1.1769(16) 1.2922(18)
H13 H 0.47050 1.20980 1.28860
C25 C 0.4908(13) 1.0586(16) 1.2171(16)
H14 H 0.41220 1.01070 1.16230
C26 C 0.5711(17) 1.0105(12) 1.2223(17)
C27 C 0.6861(15) 1.0806(16) 1.3026(18)
H15 H 0.74100 1.04770 1.30610
C28 C 0.7207(13) 1.1988(15) 1.3776(16)
H16 H 0.79920 1.24680 1.43240
Mn3 Mn 1.00000 1.00000 0.50000
O9 O 0.928(2) 0.980(2) 0.329(2)
O10 O 0.844(2) 0.998(2) 0.506(2)
O11 O 0.952(2) 0.817(2) 0.406(2)
C29 C 0.965(3) 0.758(3) 0.452(3)
H17 H 0.98760 0.79020 0.53550
C30 C 0.952(3) 0.564(3) 0.420(4)
H18 H 0.97130 0.60700 0.50560
H19 H 1.01080 0.53600 0.41330
H20 H 0.87840 0.49800 0.37340
C31 C 0.903(3) 0.588(3) 0.247(2)
H21 H 0.90260 0.64860 0.22890
H22 H 0.82640 0.52840 0.19980
H23 H 0.95440 0.55430 0.22460
C32 C 0.928(4) 0.900(3) 0.239(3)
H24 H 0.90080 0.82240 0.21680
C33 C 0.987(4) 1.046(3) 0.193(4)
H25 H 1.01030 1.05470 0.13790
H26 H 1.04500 1.10610 0.27660
H27 H 0.91430 1.05490 0.17700
C34 C 0.974(4) 0.842(3) 0.072(3)
H28 H 1.00060 0.87370 0.03170
H29 H 0.89710 0.78130 0.01400
H30 H 1.02550 0.80840 0.10110
C35 C 0.807(4) 0.953(3) 0.553(4)
H31 H 0.81640 0.88630 0.55000
C36 C 0.703(4) 0.967(4) 0.673(4)
H32 H 0.65200 1.00390 0.69080
H33 H 0.76540 0.98560 0.74790
H34 H 0.66020 0.88360 0.61870
C37 C 0.720(4) 1.101(3) 0.601(4)
H35 H 0.75690 1.12280 0.56130
H36 H 0.74510 1.16780 0.68050
H37 H 0.63690 1.07140 0.55090
N1 N 0.944(3) 0.638(2) 0.375(2)
N2 N 0.973(3) 0.933(2) 0.173(3)
N3 N 0.749(3) 1.011(3) 0.614(3)
Mn1A Mn 0.2052(4) 0.3819(4) 0.3788(4)
Si1A Si 0.4792(8) 0.1506(8) -0.1171(8)
O1A O 0.2167(16) 0.2256(16) 0.2307(17)
O2A O 0.3349(17) 0.4065(15) 0.3252(17)
O3A O 1.0210(16) 0.2950(18) 0.3051(17)
O4A O 1.0672(16) 0.3629(18) 0.203(2)
O5A O 0.4401(18) 0.3710(18) -0.4679(18)
O6A O 0.2665(18) 0.3402(18) -0.4897(18)
O7A O 0.4080(16) -0.4115(16) -0.4290(18)
O8A O 0.2269(17) -0.4484(19) -0.5195(18)
C1A C 0.296(2) 0.3003(17) 0.242(2)
C2A C 0.3357(17) 0.2621(18) 0.1501(16)
C3A C 0.2928(15) 0.1463(16) 0.0599(18)
H1A H 0.23680 0.09040 0.05470
C4A C 0.3318(17) 0.1123(13) -0.0228(16)
H2A H 0.30250 0.03310 -0.08450
C5A C 0.4137(17) 0.1940(18) -0.0152(16)
C6A C 0.4566(15) 0.3098(16) 0.0751(18)
H3A H 0.51260 0.36570 0.08030
C7A C 0.4176(17) 0.3439(13) 0.1577(16)
H4A H 0.44690 0.42300 0.21940
C8A C 0.9949(13) 0.315(3) 0.221(2)
C9A C 0.8697(12) 0.2752(19) 0.1387(17)
C10A C 0.8350(14) 0.2861(18) 0.0397(19)
H5A H 0.89000 0.31700 0.02340
C11A C 0.7199(16) 0.2518(19) -0.0355(16)
H6A H 0.69630 0.25930 -0.10310
C12A C 0.6395(12) 0.2066(19) -0.0116(17)
C13A C 0.6742(14) 0.1957(18) 0.0874(19)
H7A H 0.61920 0.16480 0.10360
C14A C 0.7892(16) 0.2300(19) 0.1625(16)
H8A H 0.81290 0.22260 0.23020
C15A C 0.360(3) 0.339(3) -0.448(2)
C16A C 0.3944(17) 0.2995(17) -0.3615(16)
C17A C 0.3495(16) 0.3160(17) -0.2843(17)
H9A H 0.30010 0.35550 -0.28320
C18A C 0.3769(18) 0.2748(18) -0.2089(16)
H10A H 0.34620 0.28610 -0.15610
C19A C 0.4492(18) 0.2171(18) -0.2106(17)
C20A C 0.4941(17) 0.2006(18) -0.2877(19)
H11A H 0.54360 0.16110 -0.28890
C21A C 0.4667(17) 0.2418(18) -0.3632(17)
H12A H 0.49740 0.23050 -0.41590
C22A C 0.3291(18) -0.3749(14) -0.447(2)
C23A C 0.3597(17) -0.2470(12) -0.3724(17)
C24A C 0.4746(15) -0.1769(16) -0.2922(18)
H13A H 0.52950 -0.20980 -0.28860
C25A C 0.5092(13) -0.0586(16) -0.2171(16)
H14A H 0.58780 -0.01070 -0.16230
C26A C 0.4289(17) -0.0105(12) -0.2223(17)
C27A C 0.3139(15) -0.0806(16) -0.3026(18)
H15A H 0.25900 -0.04770 -0.30610
C28A C 0.2793(13) -0.1988(15) -0.3776(16)
H16A H 0.20080 -0.24680 -0.43240
Mn1* Mn -0.2052(4) 0.6181(4) 0.6212(4)
Mn1** Mn 0.7948(4) 0.6181(4) 1.6212(4)
Mn1*** Mn 0.7948(4) 1.6181(4) 1.6212(4)
Mn1A* Mn 0.2052(4) -0.6181(4) -0.6212(4)
Mn1A** Mn 0.2052(4) 0.3819(4) -0.6212(4)
Mn1A*** Mn 1.2052(4) 0.3819(4) 0.3788(4)
Mn2* Mn 0.50000 -0.50000 -0.50000
Mn2** Mn 0.50000 0.50000 -0.50000
Mn2*** Mn 0.50000 0.50000 1.50000
Mn2**** Mn 0.50000 1.50000 1.50000
O3* O 0.9790(16) 0.7050(18) 0.6949(17)
O3A* O 0.0210(16) 0.2950(18) 0.3051(17)
O4* O 0.9328(16) 0.6371(18) 0.797(2)
O4A* O 0.0672(16) 0.3629(18) 0.203(2)
O5* O 0.5599(18) 0.6290(18) 0.4679(18)
O5A* O 0.4401(18) 0.3710(18) 0.5321(18)
O6* O 0.7335(18) 0.6598(18) 0.4897(18)
O6A* O 0.2665(18) 0.3402(18) 0.5103(18)
O7* O 0.5920(16) 0.4115(16) 0.4290(18)
O7A* O 0.4080(16) 0.5885(16) 0.5710(18)
O8* O 0.7731(17) 0.4484(19) 0.5195(18)
O8A* O 0.2269(17) 0.5516(19) 0.4805(18)
O9A O 1.072(2) 1.020(2) 0.671(2)
O10A O 1.156(2) 1.002(2) 0.494(2)
O11A O 1.048(2) 1.183(2) 0.594(2)
C29A C 1.035(3) 1.242(3) 0.548(3)
H17A H 1.01240 1.20980 0.46450
C30A C 1.048(3) 1.436(3) 0.580(4)
H18A H 1.02870 1.39300 0.49440
H19A H 0.98920 1.46400 0.58670
H20A H 1.12160 1.50200 0.62660
C31A C 1.097(3) 1.412(3) 0.753(2)
H21A H 1.09740 1.35140 0.77110
H22A H 1.17360 1.47160 0.80020
H23A H 1.04560 1.44570 0.77540
C32A C 1.072(4) 1.100(3) 0.761(3)
H24A H 1.09920 1.17760 0.78320
C33A C 1.013(4) 0.954(3) 0.807(4)
H25A H 0.98970 0.94530 0.86210
H26A H 0.95500 0.89390 0.72340
H27A H 1.08570 0.94510 0.82300
C34A C 1.026(4) 1.158(3) 0.928(3)
H28A H 0.99940 1.12630 0.96830
H29A H 1.10290 1.21870 0.98600
H30A H 0.97450 1.19160 0.89890
C35A C 1.193(4) 1.047(3) 0.447(4)
H31A H 1.18360 1.11370 0.45000
C36A C 1.297(4) 1.033(4) 0.327(4)
H32A H 1.34800 0.99610 0.30920
H33A H 1.23460 1.01440 0.25210
H34A H 1.33980 1.11640 0.38130
C37A C 1.280(4) 0.899(3) 0.399(4)
H35A H 1.24310 0.87720 0.43870
H36A H 1.25490 0.83220 0.31950
H37A H 1.36310 0.92860 0.44910
N1A N 1.056(3) 1.362(2) 0.625(2)
N2A N 1.027(3) 1.067(2) 0.827(3)
N3A N 1.251(3) 0.989(3) 0.386(3)
#END
