
#######################################################################
#
#                 Cambridge Crystallographic Data Centre
#                                CCDC
#
#######################################################################
#
# If this CIF has been generated from an entry in the Cambridge
# Structural Database, then it will include bibliographic, chemical,
# crystal, experimental, refinement or atomic coordinate data resulting
# from the CCDC's data processing and validation procedures.
#
#######################################################################

data_CSD_CIF_IQUCIJ
_audit_creation_date 2021-04-12
_audit_creation_method CSD-ConQuest-V1
_database_code_CSD IQUCIJ
_database_code_depnum_ccdc_archive 'CCDC 2055245'
_chemical_formula_sum 'C42 H40 Co2 Mo8 N12 O36'
_chemical_formula_moiety
;
2(C21 H20 Co1 N6 O5 2+)n,Mo8 O26 4-
;
_journal_coden_Cambridge 1350
_journal_year 2021
_journal_name_full 'CrystEngComm '
loop_
_publ_author_name
"Xiuli Wang"
"Lei Li"
"Xiang Wang"
"Yuqing Zhang"
_chemical_name_systematic
;
catena-(bis((\m-N,N'-[carbonyldi(4,1-phenylene)]bis(1H-imidazole-4-carboxamide
))-diaqua-cobalt) dodecakis(\m-oxo)-tetradecaoxo-octa-molybdenum unknown 
solvate)
;
_cell_volume   4088.027
_exptl_crystal_density_diffrn 1.766
_exptl_crystal_description 'block'
_diffrn_ambient_temperature 296.1
_refine_special_details
;
The MASK/OLEX2 program was used to model some disorder.

;
#These two values have been output from a single CSD field.
_refine_ls_R_factor_gt 0.0316
_refine_ls_wR_factor_gt 0.0316
_symmetry_cell_setting monoclinic
_symmetry_space_group_name_H-M 'P 21/n'
_symmetry_Int_Tables_number 14
loop_
_symmetry_equiv_pos_site_id
_symmetry_equiv_pos_as_xyz
1 x,y,z
2 1/2-x,1/2+y,1/2-z
3 -x,-y,-z
4 -1/2+x,-1/2-y,-1/2+z
_cell_length_a 15.892(2)
_cell_length_b 16.610(2)
_cell_length_c 16.579(2)
_cell_angle_alpha 90
_cell_angle_beta 110.912(2)
_cell_angle_gamma 90
_cell_formula_units_Z 2
loop_
_atom_type_symbol
_atom_type_radius_bond
C 0.68
H 0.23
Co 1.26
Mo 1.54
N 0.68
O 0.68
loop_
_atom_site_label
_atom_site_type_symbol
_atom_site_fract_x
_atom_site_fract_y
_atom_site_fract_z
Mo1 Mo -0.11538(2) -0.03106(2) 0.45941(2)
Mo2 Mo 0.07343(2) 0.05169(2) 0.32059(2)
Mo3 Mo 0.01956(2) -0.12178(2) 0.38296(2)
Mo4 Mo -0.06810(2) 0.14016(2) 0.39791(2)
O1 O -0.01497(14) 0.01083(13) 0.41295(13)
O2 O -0.11886(15) 0.08553(15) 0.47830(14)
O3 O -0.04683(16) -0.12966(14) 0.46485(15)
O4 O 0.10106(16) -0.05954(15) 0.34819(15)
O5 O 0.03019(17) 0.14936(14) 0.35693(15)
O6 O -0.15852(15) -0.05894(15) 0.53900(15)
O7 O -0.20309(16) -0.04255(17) 0.36617(16)
O8 O 0.15995(18) 0.08312(18) 0.29162(16)
O9 O -0.01552(17) 0.03997(16) 0.22547(15)
O10 O -0.15640(18) 0.12270(18) 0.30561(16)
O11 O 0.0692(2) -0.21379(17) 0.39655(18)
O12 O -0.06994(19) -0.12844(18) 0.28885(17)
O13 O -0.0802(2) 0.23802(17) 0.42179(19)
Co1 Co 0.15454(4) 0.37538(3) 0.36377(3)
O14 O 0.62996(17) 1.05881(15) 0.74338(16)
O15 O 0.03712(17) 0.30786(16) 0.30951(16)
H1 H 0.04732 0.25874 0.32630
H2 H 0.02287 0.30517 0.25451
O16 O 0.50119(19) 0.77492(16) 0.35902(15)
O17 O 0.26622(19) 0.45260(17) 0.41946(17)
N1 N 0.38402(19) 0.48441(17) 0.54217(18)
H3 H 0.41437 0.46848 0.59375
N2 N 0.6635(2) 1.05699(18) 0.6206(2)
H4 H 0.68988 1.08459 0.59264
N3 N 0.2142(2) 0.32555(19) 0.4876(2)
N4 N 0.7225(2) 1.19526(19) 0.8022(2)
N5 N 0.2730(2) 0.2696(2) 0.6157(2)
H5 H 0.28058 0.23646 0.65763
C1 C 0.4762(2) 0.7008(2) 0.4677(2)
C2 C 0.6225(2) 0.9846(2) 0.5800(2)
O18 O 0.0769(2) 0.4569(2) 0.4011(2)
H6 H 0.09216 0.48435 0.44841
H7 H 0.02190 0.47100 0.37304
C3 C 0.2909(3) 0.3680(2) 0.5373(2)
C4 C 0.4133(2) 0.5562(2) 0.5144(2)
C5 C 0.5486(2) 0.8442(2) 0.4905(2)
N6 N 0.7966(2) 1.2747(2) 0.7454(2)
H8 H 0.82794 1.31492 0.73949
C6 C 0.5081(2) 0.7729(2) 0.4358(2)
C7 C 0.4163(2) 0.6502(2) 0.4062(2)
H9 H 0.39669 0.66519 0.34834
C8 C 0.5647(2) 0.9388(2) 0.6065(2)
H10 H 0.55024 0.95455 0.65377
C9 C 0.6053(2) 0.8927(2) 0.4642(2)
H11 H 0.61884 0.87822 0.41604
C10 C 0.5056(3) 0.6751(2) 0.5538(2)
H12 H 0.54708 0.70617 0.59619
C11 C 0.6672(2) 1.0888(2) 0.6960(2)
C12 C 0.6417(2) 0.9617(2) 0.5084(3)
H13 H 0.67958 0.99329 0.48990
C13 C 0.5282(2) 0.8687(2) 0.5613(2)
H14 H 0.48937 0.83760 0.57913
C14 C 0.4742(3) 0.6046(2) 0.5771(2)
H15 H 0.49384 0.58926 0.63484
C15 C 0.3857(3) 0.5799(2) 0.4278(2)
H16 H 0.34644 0.54761 0.38498
C16 C 0.3126(2) 0.4380(2) 0.4954(2)
C17 C 0.3259(3) 0.3336(2) 0.6166(2)
H17 H 0.37631 0.35073 0.66245
C18 C 0.7197(2) 1.1638(2) 0.7237(3)
C19 C 0.7693(3) 1.2621(2) 0.8120(3)
H18 H 0.78185 1.29631 0.85929
C20 C 0.2064(3) 0.2667(3) 0.5378(3)
H19 H 0.16088 0.22829 0.52156
C21 C 0.7659(3) 1.2123(2) 0.6885(3)
H20 H 0.77489 1.20480 0.63659
Mo1B Mo 0.11538(2) 0.03106(2) 0.54059(2)
Mo2B Mo -0.07343(2) -0.05169(2) 0.67941(2)
Mo3B Mo -0.01956(2) 0.12178(2) 0.61704(2)
Mo4B Mo 0.06810(2) -0.14016(2) 0.60209(2)
O1B O 0.01497(14) -0.01083(13) 0.58705(13)
O2B O 0.11886(15) -0.08553(15) 0.52170(14)
O3B O 0.04683(16) 0.12966(14) 0.53515(15)
O4B O -0.10106(16) 0.05954(15) 0.65181(15)
O5B O -0.03019(17) -0.14936(14) 0.64307(15)
O6B O 0.15852(15) 0.05894(15) 0.46100(15)
O7B O 0.20309(16) 0.04255(17) 0.63383(16)
O8B O -0.15995(18) -0.08312(18) 0.70838(16)
O9B O 0.01552(17) -0.03997(16) 0.77453(15)
O10B O 0.15640(18) -0.12270(18) 0.69439(16)
O11B O -0.0692(2) 0.21379(17) 0.60345(18)
O12B O 0.06994(19) 0.12844(18) 0.71115(17)
O13B O 0.0802(2) -0.23802(17) 0.57821(19)
Co1C Co 0.65454(4) 1.12462(3) 0.86377(3)
O14C O 0.12996(17) 0.44119(15) 0.24338(16)
N4C N 0.2225(2) 0.30474(19) 0.3022(2)
#END
