
#######################################################################
#
#                 Cambridge Crystallographic Data Centre
#                                CCDC
#
#######################################################################
#
# If this CIF has been generated from an entry in the Cambridge
# Structural Database, then it will include bibliographic, chemical,
# crystal, experimental, refinement or atomic coordinate data resulting
# from the CCDC's data processing and validation procedures.
#
#######################################################################

data_CSD_CIF_IREGES
_audit_creation_date 2011-07-22
_audit_creation_method CSD-ConQuest-V1
_database_code_CSD IREGES
_database_code_depnum_ccdc_archive 'CCDC 703813'
_chemical_formula_sum 'C72 H116 Cu6 Mo10 N48 O56 P4'
_chemical_formula_moiety
;
(C36 H48 Cu3 Mo10 N24 O46 P4 6-)n,2n(C12 H18 Cu1 N8 O1 2+),n(C12 H20 Cu1 N8 
O2 2+),6n(H2 O1)
;
_journal_coden_Cambridge 155
_journal_volume 372
_journal_year 2011
_journal_page_first 243
_journal_name_full 'Inorg.Chim.Acta '
loop_
_publ_author_name
"J.Thomas"
"A.Ramanan"
_chemical_name_systematic
;
catena-(bis(Aqua-tetrakis(pyrazole-N^2^)-copper) 
diaqua-tetrakis(pyrazole-N^2^)-copper 
tetrakis(\m~5~-phosphato)-hexadecakis(\m~2~-oxo)-dodecakis(pyrazole-N^2^)-tetr
adecaoxo-tri-copper-deca-molybdenum hexahydrate)
;
_cell_volume   3270.312
_exptl_crystal_colour 'blue'
_exptl_crystal_density_diffrn 2.027
_exptl_crystal_description 'block'
_diffrn_ambient_temperature 273
#These two values have been output from a single CSD field.
_refine_ls_R_factor_gt 0.0692
_refine_ls_wR_factor_gt 0.0692
_symmetry_cell_setting triclinic
_symmetry_space_group_name_H-M 'P -1'
_symmetry_Int_Tables_number 2
loop_
_symmetry_equiv_pos_site_id
_symmetry_equiv_pos_as_xyz
1 x,y,z
2 -x,-y,-z
_cell_length_a 12.302(3)
_cell_length_b 14.192(4)
_cell_length_c 19.351(5)
_cell_angle_alpha 97.761(5)
_cell_angle_beta 97.555(4)
_cell_angle_gamma 98.569(5)
_cell_formula_units_Z 1
loop_
_atom_type_symbol
_atom_type_radius_bond
C 0.68
H 0.23
Cu 1.69
Mo 1.40
N 0.68
O 0.68
P 1.05
loop_
_atom_site_label
_atom_site_type_symbol
_atom_site_fract_x
_atom_site_fract_y
_atom_site_fract_z
P1 P 0.43631(18) 0.78670(16) 0.21491(12)
P2 P 0.24365(19) 0.56827(16) 0.25430(12)
Mo1 Mo 0.54153(6) 0.62312(6) 0.30236(4)
Mo2 Mo 0.36966(6) 0.74337(5) 0.38655(4)
Mo3 Mo 0.18081(6) 0.80074(6) 0.26008(4)
Mo4 Mo 0.20358(7) 0.68071(6) 0.09903(4)
Mo5 Mo 0.39230(7) 0.53761(6) 0.12277(4)
O1 O 0.4996(5) 0.5605(4) 0.2093(3)
O2 O 0.5265(5) 0.5240(4) 0.3451(3)
O3 O 0.6836(5) 0.6519(4) 0.3081(3)
O4 O 0.5189(4) 0.7213(4) 0.3778(3)
O5 O 0.5426(4) 0.7554(4) 0.2482(3)
O6 O 0.3528(4) 0.6248(4) 0.3024(3)
O7 O 0.3387(5) 0.6804(4) 0.4523(3)
O8 O 0.4156(5) 0.8602(4) 0.4302(3)
O9 O 0.2222(5) 0.7536(4) 0.3493(3)
O10 O 0.3669(4) 0.8103(4) 0.2755(3)
O11 O 0.1967(5) 0.9219(4) 0.2866(3)
O12 O 0.0394(5) 0.7631(4) 0.2601(3)
O13 O 0.1935(5) 0.7969(4) 0.1649(3)
O14 O 0.1810(5) 0.6380(4) 0.2167(3)
O15 O 0.0641(5) 0.6402(5) 0.0758(3)
O16 O 0.2410(5) 0.7380(5) 0.0328(3)
O17 O 0.2537(5) 0.5605(4) 0.0770(3)
O18 O 0.2814(5) 0.4984(4) 0.2001(3)
O19 O 0.3698(5) 0.6994(4) 0.1616(3)
O20 O 0.3825(6) 0.4177(5) 0.0964(3)
O21 O 0.4824(6) 0.5863(5) 0.0721(3)
O22 O 0.4609(5) 0.8723(4) 0.1783(3)
O23 O 0.1724(5) 0.5173(4) 0.2998(3)
Cu1 Cu 0.85837(9) 0.70269(8) 0.27638(6)
Cu2 Cu 0.50000 1.00000 0.50000
Cu3 Cu 0.80876(11) 0.68517(13) 0.72584(7)
Cu4 Cu 0.50000 0.00000 0.00000
N1 N 0.8055(7) 0.7346(6) 0.1801(4)
N2 N 0.7095(8) 0.7016(8) 0.1418(6)
H1 H 0.65260 0.67470 0.15780
N3 N 0.8613(7) 0.5704(6) 0.2248(4)
N4 N 0.9387(7) 0.5555(6) 0.1857(5)
H2 H 1.00480 0.58870 0.19300
N5 N 0.9215(6) 0.6678(5) 0.3706(4)
N6 N 1.0298(7) 0.6739(6) 0.3940(4)
H3 H 1.08220 0.69570 0.37210
N7 N 0.8411(6) 0.8361(5) 0.3188(4)
N8 N 0.7418(6) 0.8670(6) 0.3102(4)
H4 H 0.67950 0.83200 0.29040
N9 N 0.3494(6) 1.0455(5) 0.4960(4)
N10 N 0.3333(6) 1.1311(5) 0.5295(4)
H5 H 0.38380 1.17190 0.55790
N11 N 0.5169(6) 1.0532(5) 0.4107(4)
N12 N 0.4681(6) 1.0134(5) 0.3467(4)
H6 H 0.43020 0.95600 0.33660
N13 N 0.6717(7) 0.7067(6) 0.7651(4)
N14 N 0.5715(7) 0.6521(6) 0.7460(4)
H7 H 0.55610 0.60280 0.71310
N15 N 0.7187(7) 0.6392(8) 0.6296(4)
N16 N 0.6580(9) 0.6882(9) 0.5882(6)
H8 H 0.64760 0.74660 0.59910
N17 N 0.9532(7) 0.6832(7) 0.6871(4)
N18 N 1.0006(7) 0.6058(6) 0.6829(5)
H9 H 0.97100 0.55080 0.69180
N19 N 0.8945(7) 0.7119(7) 0.8221(5)
N20 N 0.8720(7) 0.6547(6) 0.8706(4)
H10 H 0.82050 0.60470 0.86290
N21 N 0.3598(6) 0.0126(6) 0.0456(4)
N22 N 0.3199(6) -0.0324(6) 0.0956(4)
H11 H 0.35710 -0.06460 0.12190
N23 N 0.6058(7) 0.0689(5) 0.0870(4)
N24 N 0.6749(8) 0.1512(7) 0.0879(5)
H12 H 0.67830 0.18240 0.05290
C1 C 0.7094(14) 0.714(1) 0.0752(7)
H13 H 0.65020 0.69370 0.03840
C2 C 0.8089(12) 0.7607(12) 0.0707(7)
H14 H 0.83450 0.78150 0.03130
C3 C 0.8647(10) 0.7709(10) 0.1373(7)
H15 H 0.93840 0.80120 0.15050
C4 C 0.9014(12) 0.4833(9) 0.1340(7)
H16 H 0.94130 0.46080 0.09940
C5 C 0.7992(11) 0.4483(10) 0.1393(7)
H17 H 0.75290 0.39650 0.11000
C6 C 0.7741(9) 0.5032(9) 0.1965(6)
H18 H 0.70630 0.49480 0.21310
C7 C 1.0462(10) 0.6422(9) 0.4551(6)
H19 H 1.11500 0.63990 0.48070
C8 C 0.9446(9) 0.6135(8) 0.4741(6)
H20 H 0.92970 0.58780 0.51430
C9 C 0.8685(8) 0.6316(7) 0.4192(5)
H21 H 0.79160 0.62000 0.41710
C10 C 0.7560(8) 0.9599(8) 0.3371(6)
H22 H 0.70020 0.99740 0.33780
C11 C 0.8643(10) 0.9910(8) 0.3634(6)
H23 H 0.89690 1.05270 0.38600
C12 C 0.9176(8) 0.9115(8) 0.3496(6)
H24 H 0.99360 0.91150 0.36030
C13 C 0.2290(9) 1.1434(8) 0.5127(6)
H25 H 0.19800 1.19610 0.52970
C14 C 0.2535(9) 1.0079(7) 0.4578(6)
H26 H 0.24000 0.94870 0.42830
C15 C 0.4840(9) 1.0722(7) 0.2988(5)
H27 H 0.45720 1.05890 0.25070
C16 C 0.5466(10) 1.1545(7) 0.3347(5)
H28 H 0.57190 1.20960 0.31640
C17 C 0.5654(8) 1.1407(7) 0.4035(5)
H29 H 0.60660 1.18640 0.44020
C18 C 0.4977(9) 0.6838(8) 0.7846(6)
H30 H 0.42370 0.65570 0.78180
C19 C 0.5511(10) 0.7646(8) 0.8284(6)
H31 H 0.52130 0.80420 0.86060
C20 C 0.6607(9) 0.7759(8) 0.8146(6)
H32 H 0.71760 0.82530 0.83740
C21 C 0.6151(9) 0.6271(8) 0.5245(6)
H33 H 0.57220 0.64070 0.48500
C22 C 0.6503(9) 0.5448(8) 0.5338(6)
H34 H 0.63290 0.48830 0.50110
C23 C 0.7118(7) 0.5541(7) 0.5943(5)
H35 H 0.74680 0.50570 0.61040
C24 C 1.1014(9) 0.6238(9) 0.6629(6)
H36 H 1.15040 0.58040 0.65720
C25 C 1.1175(10) 0.7158(9) 0.6527(6)
H37 H 1.17940 0.74930 0.63840
C26 C 1.0229(10) 0.7506(8) 0.6679(6)
H38 H 1.01030 0.81300 0.66500
C27 C 0.9399(9) 0.6855(9) 0.9322(5)
H39 H 0.94010 0.65690 0.97270
C28 C 1.0083(9) 0.7666(9) 0.9242(7)
H40 H 1.06490 0.80440 0.95750
C29 C 0.9757(9) 0.7808(9) 0.8555(6)
H41 H 1.00700 0.83240 0.83560
C30 C 0.2155(9) -0.0211(8) 0.0997(6)
H42 H 0.17160 -0.04560 0.13100
C31 C 0.1841(9) 0.0332(7) 0.0495(6)
H43 H 0.11550 0.05250 0.03940
C32 C 0.2766(9) 0.0529(7) 0.0173(6)
H44 H 0.28050 0.08930 -0.01910
C33 C 0.628(1) 0.0438(9) 0.1501(5)
H45 H 0.59240 -0.01050 0.16520
C34 C 0.7142(12) 0.1127(12) 0.1900(8)
H46 H 0.74780 0.11180 0.23570
C35 C 0.7385(10) 0.1781(10) 0.1516(8)
H47 H 0.79090 0.23420 0.16550
C36 C 0.1757(9) 1.0651(9) 0.4661(6)
H48 H 0.10180 1.05320 0.44450
O24 O 0.5094(6) -0.1471(5) 0.0425(3)
H49 H 0.46580 -0.19060 0.01630
O25 O 0.4474(6) 0.6738(5) 0.9536(4)
O26 O 0.8342(10) 0.8786(7) 0.7135(6)
O27 O 0.6678(15) 0.3881(14) 0.3957(10)
O28 O 0.972(2) 0.9962(19) 0.2024(14)
P1A P 0.56369(18) 1.21330(16) 0.78509(12)
P2A P 0.75635(19) 1.43173(16) 0.74570(12)
Mo1A Mo 0.45847(6) 1.37688(6) 0.69764(4)
Mo2A Mo 0.63034(6) 1.25663(5) 0.61345(4)
Mo3A Mo 0.81919(6) 1.19926(6) 0.73992(4)
Mo4A Mo 0.79642(7) 1.31929(6) 0.90097(4)
Mo5A Mo 0.60770(7) 1.46239(6) 0.87723(4)
O1A O 0.5004(5) 1.4395(4) 0.7907(3)
O2A O 0.4735(5) 1.4760(4) 0.6549(3)
O3A O 0.3164(5) 1.3481(4) 0.6919(3)
O4A O 0.4811(4) 1.2787(4) 0.6222(3)
O5A O 0.4574(4) 1.2446(4) 0.7518(3)
O6A O 0.6472(4) 1.3752(4) 0.6976(3)
O7A O 0.6613(5) 1.3196(4) 0.5477(3)
O8A O 0.5844(5) 1.1398(4) 0.5698(3)
O9A O 0.7778(5) 1.2464(4) 0.6507(3)
O10A O 0.6331(4) 1.1897(4) 0.7245(3)
O11A O 0.8033(5) 1.0781(4) 0.7134(3)
O12A O 0.9606(5) 1.2369(4) 0.7399(3)
O12* O 1.0394(5) 0.7631(4) 0.2601(3)
O12A* O -0.0394(5) 1.2369(4) 0.7399(3)
O13A O 0.8065(5) 1.2031(4) 0.8351(3)
O14A O 0.8190(5) 1.3620(4) 0.7833(3)
O15A O 0.9359(5) 1.3598(5) 0.9242(3)
O16A O 0.7590(5) 1.2620(5) 0.9672(3)
O17A O 0.7463(5) 1.4395(4) 0.9230(3)
O18A O 0.7186(5) 1.5016(4) 0.7999(3)
O19A O 0.6302(5) 1.3006(4) 0.8384(3)
O20A O 0.6175(6) 1.5823(5) 0.9036(3)
O21A O 0.5176(6) 1.4137(5) 0.9279(3)
O22A O 0.5391(5) 1.1277(4) 0.8217(3)
O23A O 0.8276(5) 1.4827(4) 0.7002(3)
Cu1A Cu 0.14163(9) 1.29731(8) 0.72362(6)
Cu1* Cu -0.14163(9) 0.70269(8) 0.27638(6)
Cu1A* Cu 1.14163(9) 1.29731(8) 0.72362(6)
N1A N 0.1945(7) 1.2654(6) 0.8199(4)
N2A N 0.2905(8) 1.2984(8) 0.8582(6)
H1A H 0.34740 1.32530 0.84220
N3A N 0.1387(7) 1.4296(6) 0.7752(4)
N4A N 0.0613(7) 1.4445(6) 0.8143(5)
H2A H -0.00480 1.41130 0.80700
N5A N 0.0785(6) 1.3322(5) 0.6294(4)
N6A N -0.0298(7) 1.3261(6) 0.6060(4)
H3A H -0.08220 1.30430 0.62790
N7A N 0.1589(6) 1.1639(5) 0.6812(4)
N8A N 0.2582(6) 1.1330(6) 0.6898(4)
H4A H 0.32050 1.16800 0.70960
N9A N 0.6506(6) 0.9545(5) 0.5040(4)
N10A N 0.6667(6) 0.8689(5) 0.4705(4)
H5A H 0.61620 0.82810 0.44210
N11A N 0.4831(6) 0.9468(5) 0.5893(4)
N12A N 0.5319(6) 0.9866(5) 0.6533(4)
H6A H 0.56980 1.04400 0.66340
N21A N 0.6402(6) -0.0126(6) -0.0456(4)
N22A N 0.6801(6) 0.0324(6) -0.0956(4)
H11A H 0.64290 0.06460 -0.12190
N23A N 0.3942(7) -0.0689(5) -0.0870(4)
N24A N 0.3251(8) -0.1512(7) -0.0879(5)
H12A H 0.32170 -0.18240 -0.05290
C1A C 0.2906(14) 1.286(1) 0.9248(7)
H13A H 0.34980 1.30630 0.96160
C2A C 0.1911(12) 1.2393(12) 0.9293(7)
H14A H 0.16550 1.21850 0.96870
C3A C 0.1353(10) 1.2291(10) 0.8627(7)
H15A H 0.06160 1.19880 0.84950
C4A C 0.0986(12) 1.5167(9) 0.8660(7)
H16A H 0.05870 1.53920 0.90060
C5A C 0.2008(11) 1.5517(10) 0.8607(7)
H17A H 0.24710 1.60350 0.89000
C6A C 0.2259(9) 1.4968(9) 0.8035(6)
H18A H 0.29370 1.50520 0.78690
C7A C -0.0462(10) 1.3578(9) 0.5449(6)
H19A H -0.11500 1.36010 0.51930
C8A C 0.0554(9) 1.3865(8) 0.5259(6)
H20A H 0.07030 1.41220 0.48570
C9A C 0.1315(8) 1.3684(7) 0.5808(5)
H21A H 0.20840 1.38000 0.58290
C10A C 0.2440(8) 1.0401(8) 0.6629(6)
H22A H 0.29980 1.00260 0.66220
C11A C 0.1357(10) 1.0090(8) 0.6366(6)
H23A H 0.10310 0.94730 0.61400
C12A C 0.0824(8) 1.0885(8) 0.6504(6)
H24A H 0.00640 1.08850 0.63970
C13A C 0.7710(9) 0.8566(8) 0.4873(6)
H25A H 0.80200 0.80390 0.47030
C14A C 0.7465(9) 0.9921(7) 0.5422(6)
H26A H 0.76000 1.05130 0.57170
C15A C 0.5160(9) 0.9278(7) 0.7012(5)
H27A H 0.54280 0.94110 0.74930
C16A C 0.4534(10) 0.8455(7) 0.6653(5)
H28A H 0.42810 0.79040 0.68360
C17A C 0.4346(8) 0.8593(7) 0.5965(5)
H29A H 0.39340 0.81360 0.55980
C30A C 0.7845(9) 0.0211(8) -0.0997(6)
H42A H 0.82840 0.04560 -0.13100
C31A C 0.8159(9) -0.0332(7) -0.0495(6)
H43A H 0.88450 -0.05250 -0.03940
C32A C 0.7234(9) -0.0529(7) -0.0173(6)
H44A H 0.71950 -0.08930 0.01910
C33A C 0.372(1) -0.0438(9) -0.1501(5)
H45A H 0.40760 0.01050 -0.16520
C34A C 0.2858(12) -0.1127(12) -0.1900(8)
H46A H 0.25220 -0.11180 -0.23570
C35A C 0.2615(10) -0.1781(10) -0.1516(8)
H47A H 0.20910 -0.23420 -0.16550
C36A C 0.8243(9) 0.9349(9) 0.5339(6)
H48A H 0.89820 0.94680 0.55550
O24A O 0.4906(6) 0.1471(5) -0.0425(3)
H49A H 0.53420 0.19060 -0.01630
#END
