
#######################################################################
#
#                 Cambridge Crystallographic Data Centre
#                                CCDC
#
#######################################################################
#
# If this CIF has been generated from an entry in the Cambridge
# Structural Database, then it will include bibliographic, chemical,
# crystal, experimental, refinement or atomic coordinate data resulting
# from the CCDC's data processing and validation procedures.
#
#######################################################################

data_CSD_CIF_IREGAO
_audit_creation_date 2011-07-22
_audit_creation_method CSD-ConQuest-V1
_database_code_CSD IREGAO
_database_code_depnum_ccdc_archive 'CCDC 703812'
_chemical_formula_sum 'C78 H112 Mo10 N52 Ni6 O50 P4'
_chemical_formula_moiety
;
(C60 H80 Mo10 N40 Ni5 O46 P4 2-)n,n(C12 H20 N8 Ni1 O2 2+),2n(H2 O1),2n(C3 H4 
N2)
;
_journal_coden_Cambridge 155
_journal_volume 372
_journal_year 2011
_journal_page_first 243
_journal_name_full 'Inorg.Chim.Acta '
loop_
_publ_author_name
"J.Thomas"
"A.Ramanan"
_chemical_name_systematic
;
catena-(Diaqua-tetrakis(pyrazole-N^2^)-nickel 
tetrakis(\m~5~-phosphato)-icosakis(\m~2~-oxo)-icosakis(1H-pyrazole-N^2^)-decao
xo-deca-molybdenum-penta-nickel pyrazole solvate dihydrate)
;
_cell_volume   7226.630
_exptl_crystal_colour 'blue'
_exptl_crystal_density_diffrn 1.842
_exptl_crystal_description 'rod'
_diffrn_ambient_temperature 273
#These two values have been output from a single CSD field.
_refine_ls_R_factor_gt 0.079
_refine_ls_wR_factor_gt 0.079
_symmetry_cell_setting monoclinic
_symmetry_space_group_name_H-M 'P 21/c'
_symmetry_Int_Tables_number 14
loop_
_symmetry_equiv_pos_site_id
_symmetry_equiv_pos_as_xyz
1 x,y,z
2 -x,1/2+y,1/2-z
3 -x,-y,-z
4 x,-1/2-y,-1/2+z
_cell_length_a 24.674(3)
_cell_length_b 18.137(2)
_cell_length_c 16.223(2)
_cell_angle_alpha 90
_cell_angle_beta 95.495(2)
_cell_angle_gamma 90
_cell_formula_units_Z 2
loop_
_atom_type_symbol
_atom_type_radius_bond
C 0.68
H 0.23
Mo 1.39
N 0.68
Ni 1.24
O 0.68
P 1.05
loop_
_atom_site_label
_atom_site_type_symbol
_atom_site_fract_x
_atom_site_fract_y
_atom_site_fract_z
P1 P 0.20766(8) 0.48678(11) -0.00887(12)
P2 P 0.32527(8) 0.48939(10) 0.15901(12)
Mo1 Mo 0.21473(3) 0.58987(4) 0.17980(4)
Mo2 Mo 0.19726(3) 0.40784(4) 0.18064(4)
Mo3 Mo 0.28262(3) 0.33355(4) 0.05503(4)
Mo4 Mo 0.34815(3) 0.46672(4) -0.04078(4)
Mo5 Mo 0.29488(3) 0.62606(4) 0.00810(4)
O1 O 0.2294(2) 0.6485(3) 0.2625(3)
O2 O 0.2017(2) 0.5001(3) 0.2377(3)
O3 O 0.2037(2) 0.4934(3) 0.0867(3)
O4 O 0.2977(2) 0.5463(3) 0.2091(3)
O5 O 0.2507(2) 0.6386(3) 0.0969(3)
O6 O 0.1284(2) 0.3966(3) 0.1721(3)
O7 O 0.2197(2) 0.3535(3) 0.2641(3)
O8 O 0.2109(2) 0.3444(3) 0.0904(3)
O9 O 0.2902(2) 0.4180(3) 0.1577(3)
O10 O 0.2631(2) 0.2826(3) -0.0333(3)
O11 O 0.3475(2) 0.3794(3) 0.0275(3)
O12 O 0.2556(2) 0.4351(3) -0.0247(3)
O13 O 0.4161(2) 0.4846(3) -0.0182(4)
O14 O 0.3228(2) 0.5624(3) -0.0745(3)
O15 O 0.3220(2) 0.5208(3) 0.0691(3)
O16 O 0.3532(2) 0.6653(3) 0.0527(4)
O17 O 0.2202(2) 0.5631(3) -0.0389(3)
Ni1 Ni 0.25109(4) 0.72887(5) 0.34936(6)
Ni2 Ni 0.24167(4) 0.28429(5) 0.36500(6)
Ni3 Ni 0.50000 0.50000 0.00000
N1 N 0.1797(3) 0.7878(4) 0.3090(4)
N2 N 0.1677(3) 0.8545(4) 0.3351(5)
H1 H 0.18700 0.87800 0.37350
N3 N 0.3231(3) 0.6710(4) 0.3877(4)
N4 N 0.3413(3) 0.6124(4) 0.3505(4)
H2 H 0.32410 0.59170 0.30800
C1 C 0.3890(4) 0.5891(6) 0.3859(6)
H3 H 0.40930 0.54930 0.36970
C2 C 0.4021(4) 0.6357(6) 0.4510(7)
H4 H 0.43320 0.63420 0.48830
C3 C 0.3604(4) 0.6845(5) 0.4498(6)
H5 H 0.35830 0.72260 0.48780
O18 O 0.1494(2) 0.6136(3) 0.1469(3)
O19 O 0.3095(2) 0.2684(3) 0.1210(4)
O20 O 0.3427(2) 0.4268(3) -0.1354(4)
O21 O 0.2700(2) 0.6946(3) -0.0598(3)
O22 O 0.1550(2) 0.4567(3) -0.0494(3)
O23 O 0.3828(2) 0.4725(3) 0.1904(3)
Ni4 Ni 0.00000 0.50000 1.00000
N5 N 0.2950(3) 0.7883(4) 0.2688(4)
N6 N 0.3080(4) 0.8596(5) 0.2763(5)
H6 H 0.29680 0.88840 0.31330
N7 N 0.2081(3) 0.6719(4) 0.4351(5)
N8 N 0.1733(6) 0.6170(8) 0.4240(12)
H7 H 0.16220 0.59660 0.37750
N9 N 0.2586(3) 0.3779(4) 0.4381(5)
N10 N 0.2570(4) 0.4479(5) 0.4146(7)
H8 H 0.24420 0.46390 0.36680
N11 N 0.1614(3) 0.2794(4) 0.3958(5)
N12 N 0.1434(4) 0.2347(5) 0.4504(6)
H9 H 0.16410 0.20520 0.48070
N13 N 0.2238(3) 0.1942(4) 0.2864(4)
N14 N 0.2248(4) 0.1252(4) 0.3135(5)
H10 H 0.23390 0.11280 0.36410
N15 N 0.3243(3) 0.2878(4) 0.3466(5)
N16 N 0.3452(3) 0.3428(5) 0.3043(5)
H11 H 0.32660 0.36570 0.26460
N17 N 0.4916(3) 0.5772(4) 0.0925(4)
N18 N 0.4558(3) 0.5786(5) 0.1475(5)
H12 H 0.43360 0.54310 0.15430
N19 N 0.5046(3) 0.4121(4) 0.0843(5)
N20 N 0.4627(3) 0.3799(5) 0.1169(5)
H13 H 0.43070 0.39880 0.11620
N21 N 0.0117(3) 0.4576(5) 0.8790(5)
N22 N 0.0592(3) 0.4369(5) 0.8524(5)
H14 H 0.09010 0.44050 0.88150
N23 N -0.0275(3) 0.3958(5) 1.0339(5)
N24 N -0.0709(4) 0.3631(6) 0.9949(6)
H15 H -0.09220 0.38410 0.95680
C4 C 0.3400(6) 0.8805(7) 0.2202(7)
H16 H 0.35450 0.92730 0.21490
C5 C 0.3478(6) 0.8215(9) 0.1715(7)
H17 H 0.36810 0.81960 0.12610
C6 C 0.3186(4) 0.7637(7) 0.2046(6)
H18 H 0.31640 0.71570 0.18430
C7 C 0.1226(4) 0.8808(6) 0.2951(7)
H19 H 0.10660 0.92610 0.30410
C8 C 0.1039(4) 0.8290(6) 0.2384(7)
H20 H 0.07320 0.83140 0.20050
C9 C 0.1415(4) 0.7718(5) 0.2503(6)
H21 H 0.13960 0.72800 0.22040
C10 C 0.1572(8) 0.5974(10) 0.5034(13)
H22 H 0.13220 0.56130 0.51460
C11 C 0.1841(9) 0.6398(10) 0.5564(12)
H23 H 0.18280 0.63840 0.61350
C12 C 0.2141(7) 0.6859(8) 0.5159(8)
H24 H 0.23630 0.72270 0.54070
C13 C 0.2794(6) 0.4913(6) 0.4794(11)
H25 H 0.28290 0.54230 0.47900
C14 C 0.2948(6) 0.4465(8) 0.5425(9)
H26 H 0.31160 0.45990 0.59420
C15 C 0.2811(5) 0.3769(6) 0.5158(6)
H27 H 0.28680 0.33450 0.54770
C16 C 0.0904(5) 0.2394(10) 0.4543(11)
H28 H 0.06960 0.21220 0.48840
C17 C 0.0726(6) 0.2904(12) 0.4002(12)
H29 H 0.03700 0.30690 0.38860
C18 C 0.1178(5) 0.3138(9) 0.3650(9)
H30 H 0.11740 0.34980 0.32410
C19 C 0.2101(5) 0.0780(6) 0.2538(7)
H31 H 0.20940 0.02690 0.25830
C20 C 0.1961(5) 0.1183(6) 0.1844(7)
H32 H 0.18280 0.10120 0.13230
C21 C 0.2059(5) 0.1897(6) 0.2087(6)
H33 H 0.20040 0.23020 0.17370
C22 C 0.3963(4) 0.3590(6) 0.3280(7)
H34 H 0.41760 0.39490 0.30590
C23 C 0.4116(4) 0.3123(7) 0.3918(7)
H35 H 0.44540 0.31010 0.42250
C24 C 0.3663(4) 0.2685(6) 0.4016(7)
H36 H 0.36510 0.23110 0.44070
C25 C 0.4576(5) 0.6396(6) 0.1909(7)
H37 H 0.43620 0.65070 0.23340
C26 C 0.4955(5) 0.6828(7) 0.1631(8)
H38 H 0.50580 0.72980 0.18150
C27 C 0.5162(5) 0.6427(6) 0.1013(7)
H39 H 0.54350 0.65900 0.06990
C28 C 0.4768(5) 0.3151(6) 0.1505(8)
H40 H 0.45420 0.28330 0.17630
C29 C 0.5287(6) 0.3041(8) 0.1409(9)
H41 H 0.54970 0.26340 0.15830
C30 C 0.5452(5) 0.3655(6) 0.0995(8)
H42 H 0.58020 0.37280 0.08440
C31 C 0.0530(5) 0.4106(9) 0.7773(8)
H43 H 0.08050 0.39300 0.74710
C32 C -0.0009(5) 0.4135(10) 0.7513(8)
H44 H -0.01790 0.39910 0.70020
C33 C -0.0249(5) 0.4425(8) 0.8173(7)
H45 H -0.06210 0.45030 0.81810
C34 C -0.0777(6) 0.2960(7) 1.0206(9)
H46 H -0.10520 0.26380 1.00060
C35 C -0.0381(6) 0.2817(7) 1.0807(9)
H47 H -0.03210 0.23840 1.11100
C36 C -0.0080(5) 0.3465(7) 1.0874(7)
H48 H 0.02220 0.35390 1.12530
C37 C 0.5328(11) 0.5352(19) 0.4399(15)
H49 H 0.52590 0.54450 0.49430
C38 C 0.5140(7) 0.4769(11) 0.393(2)
H50 H 0.49200 0.43920 0.40980
C39 C 0.5330(11) 0.4833(17) 0.3176(14)
H51 H 0.52630 0.45070 0.27360
N25 N 0.5635(8) 0.5455(17) 0.318(2)
H52 H 0.58010 0.56170 0.27710
N26 N 0.5634(10) 0.5776(12) 0.393(2)
O24 O -0.0780(2) 0.5223(4) 0.9557(4)
H53 H -0.07820 0.55250 0.91810
O25 O 0.3623(11) 0.3475(15) 0.7117(13)
P1B P 0.79234(8) 0.51322(11) 0.00887(12)
P2B P 0.67473(8) 0.51061(10) -0.15901(12)
Mo1B Mo 0.78527(3) 0.41013(4) -0.17980(4)
Mo2B Mo 0.80274(3) 0.59216(4) -0.18064(4)
Mo3B Mo 0.71738(3) 0.66645(4) -0.05503(4)
Mo4B Mo 0.65185(3) 0.53328(4) 0.04078(4)
Mo5B Mo 0.70512(3) 0.37394(4) -0.00810(4)
O1B O 0.7706(2) 0.3515(3) -0.2625(3)
O2B O 0.7983(2) 0.4999(3) -0.2377(3)
O3B O 0.7963(2) 0.5066(3) -0.0867(3)
O4B O 0.7023(2) 0.4537(3) -0.2091(3)
O5B O 0.7493(2) 0.3614(3) -0.0969(3)
O6B O 0.8716(2) 0.6034(3) -0.1721(3)
O7B O 0.7803(2) 0.6465(3) -0.2641(3)
O8B O 0.7891(2) 0.6556(3) -0.0904(3)
O9B O 0.7098(2) 0.5820(3) -0.1577(3)
O10B O 0.7369(2) 0.7174(3) 0.0333(3)
O10C O 0.2631(2) 0.2174(3) 0.4667(3)
O10A O 0.7369(2) 0.7826(3) -0.4667(3)
O11B O 0.6525(2) 0.6206(3) -0.0275(3)
O12B O 0.7444(2) 0.5649(3) 0.0247(3)
O13B O 0.5839(2) 0.5154(3) 0.0182(4)
O14B O 0.6772(2) 0.4376(3) 0.0745(3)
O15B O 0.6780(2) 0.4792(3) -0.0691(3)
O16B O 0.6468(2) 0.3347(3) -0.0527(4)
O17B O 0.7798(2) 0.4369(3) 0.0389(3)
Ni1B Ni 0.74891(4) 0.27113(5) -0.34936(6)
Ni1C Ni 0.25109(4) 0.77113(5) -0.15064(6)
Ni1A Ni 0.74891(4) 0.22887(5) 0.15064(6)
Ni2B Ni 0.75833(4) 0.71571(5) -0.36500(6)
Ni2C Ni 0.24167(4) 0.21571(5) -0.13500(6)
Ni2A Ni 0.75833(4) 0.78429(5) 0.13500(6)
N1B N 0.8203(3) 0.2122(4) -0.3090(4)
N2B N 0.8323(3) 0.1455(4) -0.3351(5)
H1B H 0.81300 0.12200 -0.37350
N3B N 0.6769(3) 0.3290(4) -0.3877(4)
N4B N 0.6587(3) 0.3876(4) -0.3505(4)
H2B H 0.67590 0.40830 -0.30800
C1B C 0.6110(4) 0.4109(6) -0.3859(6)
H3B H 0.59070 0.45070 -0.36970
C2B C 0.5979(4) 0.3643(6) -0.4510(7)
H4B H 0.56680 0.36580 -0.48830
C3B C 0.6396(4) 0.3155(5) -0.4498(6)
H5B H 0.64170 0.27740 -0.48780
O18B O 0.8506(2) 0.3864(3) -0.1469(3)
O19B O 0.6905(2) 0.7316(3) -0.1210(4)
O20B O 0.6573(2) 0.5732(3) 0.1354(4)
O21B O 0.7300(2) 0.3054(3) 0.0598(3)
O21C O 0.2700(2) 0.8054(3) 0.4402(3)
O21A O 0.7300(2) 0.1946(3) -0.4402(3)
O22B O 0.8450(2) 0.5433(3) 0.0494(3)
O23B O 0.6172(2) 0.5275(3) -0.1904(3)
N5B N 0.7050(3) 0.2117(4) -0.2688(4)
N6B N 0.6920(4) 0.1404(5) -0.2763(5)
H6B H 0.70320 0.11160 -0.31330
N7B N 0.7919(3) 0.3281(4) -0.4351(5)
N8B N 0.8267(6) 0.3830(8) -0.4240(12)
H7B H 0.83780 0.40340 -0.37750
N9B N 0.7414(3) 0.6221(4) -0.4381(5)
N10B N 0.7430(4) 0.5521(5) -0.4146(7)
H8B H 0.75580 0.53610 -0.36680
N11B N 0.8386(3) 0.7206(4) -0.3958(5)
N12B N 0.8566(4) 0.7653(5) -0.4504(6)
H9B H 0.83590 0.79480 -0.48070
N13B N 0.7762(3) 0.8058(4) -0.2864(4)
N14B N 0.7752(4) 0.8748(4) -0.3135(5)
H10B H 0.76610 0.88720 -0.36410
N15B N 0.6757(3) 0.7122(4) -0.3466(5)
N16B N 0.6548(3) 0.6572(5) -0.3043(5)
H11B H 0.67340 0.63430 -0.26460
N17B N 0.5084(3) 0.4228(4) -0.0925(4)
N18B N 0.5442(3) 0.4214(5) -0.1475(5)
H12B H 0.56640 0.45690 -0.15430
N19B N 0.4954(3) 0.5879(4) -0.0843(5)
N20B N 0.5373(3) 0.6201(5) -0.1169(5)
H13B H 0.56930 0.60120 -0.11620
N21B N -0.0117(3) 0.5424(5) 1.1210(5)
N22B N -0.0592(3) 0.5631(5) 1.1476(5)
H14B H -0.09010 0.55950 1.11850
N23B N 0.0275(3) 0.6042(5) 0.9661(5)
N24B N 0.0709(4) 0.6369(6) 1.0051(6)
H15B H 0.09220 0.61590 1.04320
C4B C 0.6600(6) 0.1195(7) -0.2202(7)
H16B H 0.64550 0.07270 -0.21490
C5B C 0.6522(6) 0.1785(9) -0.1715(7)
H17B H 0.63190 0.18040 -0.12610
C6B C 0.6814(4) 0.2363(7) -0.2046(6)
H18B H 0.68360 0.28430 -0.18430
C7B C 0.8774(4) 0.1192(6) -0.2951(7)
H19B H 0.89340 0.07390 -0.30410
C8B C 0.8961(4) 0.1710(6) -0.2384(7)
H20B H 0.92680 0.16860 -0.20050
C9B C 0.8585(4) 0.2282(5) -0.2503(6)
H21B H 0.86040 0.27200 -0.22040
C10B C 0.8428(8) 0.4026(10) -0.5034(13)
H22B H 0.86780 0.43870 -0.51460
C11B C 0.8159(9) 0.3602(10) -0.5564(12)
H23B H 0.81720 0.36160 -0.61350
C12B C 0.7859(7) 0.3141(8) -0.5159(8)
H24B H 0.76370 0.27730 -0.54070
C13B C 0.7206(6) 0.5087(6) -0.4794(11)
H25B H 0.71710 0.45770 -0.47900
C14B C 0.7052(6) 0.5535(8) -0.5425(9)
H26B H 0.68840 0.54010 -0.59420
C15B C 0.7189(5) 0.6231(6) -0.5158(6)
H27B H 0.71320 0.66550 -0.54770
C16B C 0.9096(5) 0.7606(10) -0.4543(11)
H28B H 0.93040 0.78780 -0.48840
C17B C 0.9274(6) 0.7096(12) -0.4002(12)
H29B H 0.96300 0.69310 -0.38860
C18B C 0.8822(5) 0.6862(9) -0.3650(9)
H30B H 0.88260 0.65020 -0.32410
C19B C 0.7899(5) 0.9220(6) -0.2538(7)
H31B H 0.79060 0.97310 -0.25830
C20B C 0.8039(5) 0.8817(6) -0.1844(7)
H32B H 0.81720 0.89880 -0.13230
C21B C 0.7941(5) 0.8103(6) -0.2087(6)
H33B H 0.79960 0.76980 -0.17370
C22B C 0.6037(4) 0.6410(6) -0.3280(7)
H34B H 0.58240 0.60510 -0.30590
C23B C 0.5884(4) 0.6877(7) -0.3918(7)
H35B H 0.55460 0.68990 -0.42250
C24B C 0.6337(4) 0.7315(6) -0.4016(7)
H36B H 0.63490 0.76890 -0.44070
C25B C 0.5424(5) 0.3604(6) -0.1909(7)
H37B H 0.56380 0.34930 -0.23340
C26B C 0.5045(5) 0.3172(7) -0.1631(8)
H38B H 0.49420 0.27020 -0.18150
C27B C 0.4838(5) 0.3573(6) -0.1013(7)
H39B H 0.45650 0.34100 -0.06990
C28B C 0.5232(5) 0.6849(6) -0.1505(8)
H40B H 0.54580 0.71670 -0.17630
C29B C 0.4713(6) 0.6959(8) -0.1409(9)
H41B H 0.45030 0.73660 -0.15830
C30B C 0.4548(5) 0.6345(6) -0.0995(8)
H42B H 0.41980 0.62720 -0.08440
C31B C -0.0530(5) 0.5894(9) 1.2227(8)
H43B H -0.08050 0.60700 1.25290
C32B C 0.0009(5) 0.5865(10) 1.2487(8)
H44B H 0.01790 0.60090 1.29980
C33B C 0.0249(5) 0.5575(8) 1.1827(7)
H45B H 0.06210 0.54970 1.18190
C34B C 0.0777(6) 0.7040(7) 0.9794(9)
H46B H 0.10520 0.73620 0.99940
C35B C 0.0381(6) 0.7183(7) 0.9193(9)
H47B H 0.03210 0.76160 0.88900
C36B C 0.0080(5) 0.6535(7) 0.9126(7)
H48B H -0.02220 0.64610 0.87470
O24B O 0.0780(2) 0.4777(4) 1.0443(4)
H53B H 0.07820 0.44750 1.08190
#END
