
#######################################################################
#
#                 Cambridge Crystallographic Data Centre
#                                CCDC
#
#######################################################################
#
# If this CIF has been generated from an entry in the Cambridge
# Structural Database, then it will include bibliographic, chemical,
# crystal, experimental, refinement or atomic coordinate data resulting
# from the CCDC's data processing and validation procedures.
#
#######################################################################

data_CSD_CIF_IREGOD
_audit_creation_date 2016-07-11
_audit_creation_method CSD-ConQuest-V1
_database_code_CSD IREGOD
_database_code_depnum_ccdc_archive 'CCDC 1442091'
_chemical_formula_sum 'C44 H57 Mn5 N3 O35'
_chemical_formula_moiety
;
(C38 H23 Mn5 O30 3-)n,3(C2 H8 N1 1+),5(H2 O1)
;
_journal_coden_Cambridge 211
_journal_volume 69
_journal_year 2016
_journal_page_first 1792
_journal_name_full 'J.Coord.Chem. '
loop_
_publ_author_name
"Xin-Xiong Li"
"Kun-Yu Wei"
"Ting-Ting Zhuang"
"Wei Xia"
"Jing-Yu Chen"
"Rong-Tao Zhang"
"Shou-Tian Zheng"
_chemical_name_systematic
;
catena-[tris(dimethylammonium) 
tetrakis(\m-benzene-1,3,5-tricarboxylato)-(\m-acetato)-tetraaqua-penta-mangane
se(ii) pentahydrate]
;
_cell_volume   6534.870
_exptl_crystal_colour 'colorless'
_exptl_crystal_description 'Block'
_diffrn_ambient_temperature 296
_refine_special_details
;
Lattice water molecules and some isolated dimethylammonium cations were not 
modelled.
;
#These two values have been output from a single CSD field.
_refine_ls_R_factor_gt 0.0722
_refine_ls_wR_factor_gt 0.0722
_symmetry_cell_setting monoclinic
_symmetry_space_group_name_H-M 'C 2/c'
_symmetry_Int_Tables_number 15
loop_
_symmetry_equiv_pos_site_id
_symmetry_equiv_pos_as_xyz
1 x,y,z
2 -x,y,1/2-z
3 1/2+x,1/2+y,z
4 1/2-x,1/2+y,1/2-z
5 -x,-y,-z
6 x,-y,-1/2+z
7 -1/2-x,-1/2-y,-z
8 -1/2+x,-1/2-y,-1/2+z
_cell_length_a 24.544(5)
_cell_length_b 15.455(3)
_cell_length_c 19.431(7)
_cell_angle_alpha 90
_cell_angle_beta 117.551(3)
_cell_angle_gamma 90
_cell_formula_units_Z 4
loop_
_atom_type_symbol
_atom_type_radius_bond
C 0.68
H 0.23
Mn 1.61
N 0.68
O 0.68
loop_
_atom_site_label
_atom_site_type_symbol
_atom_site_fract_x
_atom_site_fract_y
_atom_site_fract_z
Mn1 Mn -0.13868(4) 0.83864(6) -0.07861(6)
O1 O -0.1823(2) 0.9032(3) -0.1848(3)
O2 O -0.0666(3) 0.9387(4) -0.0400(4)
O3 O -0.2930(3) 1.2394(3) -0.3925(3)
O4 O -0.1758(2) 1.1058(3) -0.5104(3)
O5 O 0.0712(2) 0.2459(3) 0.0967(3)
O6 O 0.0696(3) 0.2473(4) -0.0176(3)
C1 C -0.1691(3) 0.8988(4) -0.2402(4)
H1 H -0.06900 0.97950 -0.07050
H2 H -0.03640 0.93630 0.00540
Mn2 Mn -0.11968(4) 0.70501(6) -0.21459(6)
O7 O -0.1427(3) 0.8375(3) -0.2523(3)
C2 C -0.1879(3) 0.9731(4) -0.2957(4)
O8 O -0.2962(2) 1.1805(3) -0.2904(3)
O9 O -0.0996(2) 0.5738(3) -0.1732(3)
O10 O -0.0349(2) 0.6997(3) -0.2298(3)
O11 O -0.1650(2) 0.6659(4) -0.3367(3)
C3 C -0.1629(4) 0.9770(5) -0.3476(4)
C4 C -0.2246(3) 1.0403(4) -0.2931(4)
C5 C -0.0658(3) 0.5087(4) -0.1602(4)
Mn3 Mn 0.00000 0.56802(9) -0.25000
C6 C 0.00000 0.7402(6) -0.25000
H3 H -0.14400 0.65840 -0.36090
H4 H -0.20370 0.65850 -0.36010
H5 H -0.13680 0.93360 -0.34800
C7 C -0.1779(3) 1.0478(4) -0.3990(4)
C8 C -0.2394(3) 1.1101(4) -0.3456(4)
H6 H -0.23930 1.03930 -0.25680
O12 O -0.0389(2) 0.4866(3) -0.1980(3)
C9 C -0.0567(3) 0.4522(4) -0.0927(4)
O13 O -0.0836(2) 0.4238(3) 0.1349(3)
C10 C 0.00000 0.8364(8) -0.25000
C11 C -0.1513(4) 1.0503(5) -0.4553(5)
C12 C -0.2173(3) 1.1105(4) -0.3975(4)
C13 C -0.2790(3) 1.1827(4) -0.3426(4)
C14 C -0.0896(3) 0.4703(4) -0.0497(4)
C15 C -0.0147(3) 0.3884(4) -0.0681(4)
O14 O -0.1056(4) 1.0061(5) -0.4418(5)
H7 H -0.22920 1.15490 -0.43380
H8 H -0.11980 0.51290 -0.06690
C16 C -0.0768(3) 0.4248(4) 0.0166(4)
H9 H 0.00570 0.37540 -0.09700
C17 C -0.0006(3) 0.3406(4) -0.0007(4)
C18 C -0.0307(3) 0.3603(4) 0.0416(4)
C19 C -0.1072(3) 0.4463(5) 0.0640(4)
C20 C 0.0492(3) 0.2751(4) 0.0268(4)
H10 H -0.02060 0.33080 0.08770
O15 O -0.1590(3) 0.4834(5) 0.0294(3)
N1 N 0.3055(4) 0.1019(6) 0.0968(5)
H11 H 0.31220 0.05630 0.07290
H12 H 0.26680 0.12010 0.06640
C21 C 0.3092(7) 0.0700(9) 0.1738(9)
H13 H 0.27810 0.02700 0.16340
H14 H 0.30280 0.11780 0.20070
H15 H 0.34900 0.04520 0.20530
C22 C 0.3474(7) 0.1712(10) 0.1007(9)
H16 H 0.34060 0.18540 0.04920
H17 H 0.38910 0.15240 0.13110
H18 H 0.34010 0.22140 0.12440
H19? H 0.02900 0.85710 -0.26640
H20? H 0.01130 0.85710 -0.19860
H21? H -0.04030 0.85710 -0.28500
O10A O 0.0349(2) 0.6997(3) -0.2702(3)
Mn1A Mn 0.13868(4) 0.83864(6) -0.42139(6)
O1A O 0.1823(2) 0.9032(3) -0.3152(3)
O2A O 0.0666(3) 0.9387(4) -0.4600(4)
O3A O 0.2930(3) 1.2394(3) -0.1075(3)
O4A O 0.1758(2) 1.1058(3) 0.0104(3)
O5A O -0.0712(2) 0.2459(3) -0.5967(3)
O6A O -0.0696(3) 0.2473(4) -0.4824(3)
C1A C 0.1691(3) 0.8988(4) -0.2598(4)
H1A H 0.06900 0.97950 -0.42950
H2A H 0.03640 0.93630 -0.50540
Mn2A Mn 0.11968(4) 0.70501(6) -0.28541(6)
O7A O 0.1427(3) 0.8375(3) -0.2477(3)
C2A C 0.1879(3) 0.9731(4) -0.2043(4)
O8A O 0.2962(2) 1.1805(3) -0.2096(3)
O9A O 0.0996(2) 0.5738(3) -0.3268(3)
O11A O 0.1650(2) 0.6659(4) -0.1633(3)
C3A C 0.1629(4) 0.9770(5) -0.1524(4)
C4A C 0.2246(3) 1.0403(4) -0.2069(4)
C5A C 0.0658(3) 0.5087(4) -0.3398(4)
H3A H 0.14400 0.65840 -0.13910
H4A H 0.20370 0.65850 -0.13990
H5A H 0.13680 0.93360 -0.15200
C7A C 0.1779(3) 1.0478(4) -0.1010(4)
C8A C 0.2394(3) 1.1101(4) -0.1544(4)
H6A H 0.23930 1.03930 -0.24320
O12A O 0.0389(2) 0.4866(3) -0.3020(3)
C9A C 0.0567(3) 0.4522(4) -0.4073(4)
O13A O 0.0836(2) 0.4238(3) -0.6349(3)
C11A C 0.1513(4) 1.0503(5) -0.0447(5)
C12A C 0.2173(3) 1.1105(4) -0.1025(4)
C13A C 0.2790(3) 1.1827(4) -0.1574(4)
C14A C 0.0896(3) 0.4703(4) -0.4503(4)
C15A C 0.0147(3) 0.3884(4) -0.4319(4)
O14A O 0.1056(4) 1.0061(5) -0.0582(5)
H7A H 0.22920 1.15490 -0.06620
H8A H 0.11980 0.51290 -0.43310
C16A C 0.0768(3) 0.4248(4) -0.5166(4)
H9A H -0.00570 0.37540 -0.40300
C17A C 0.0006(3) 0.3406(4) -0.4993(4)
C18A C 0.0307(3) 0.3603(4) -0.5416(4)
C19A C 0.1072(3) 0.4463(5) -0.5640(4)
C20A C -0.0492(3) 0.2751(4) -0.5268(4)
H10A H 0.02060 0.33080 -0.58770
O15A O 0.1590(3) 0.4834(5) -0.5294(3)
Mn1B Mn 0.36132(4) 1.33864(6) -0.07861(6)
Mn1C Mn -0.36132(4) 1.33864(6) -0.42139(6)
Mn1D Mn 0.13868(4) 0.16136(6) 0.07861(6)
Mn1D* Mn 0.13868(4) 1.16136(6) 0.07861(6)
Mn1E Mn -0.13868(4) 0.16136(6) -0.57861(6)
Mn1E* Mn -0.13868(4) 1.16136(6) -0.57861(6)
O3B O 0.2070(3) 0.7394(3) -0.3925(3)
O3C O -0.2070(3) 0.7394(3) -0.1075(3)
O4D O 0.1758(2) 0.8942(3) -0.4896(3)
O4E O -0.1758(2) 0.8942(3) -0.0104(3)
O5D O -0.0712(2) 0.7541(3) -0.0967(3)
O5E O 0.0712(2) 0.7541(3) -0.4033(3)
O6D O -0.0696(3) 0.7527(4) 0.0176(3)
O6E O 0.0696(3) 0.7527(4) -0.5176(3)
Mn2B Mn 0.38032(4) 1.20501(6) -0.21459(6)
Mn2C Mn -0.38032(4) 1.20501(6) -0.28541(6)
Mn2D Mn 0.11968(4) 0.29499(6) 0.21459(6)
Mn2E Mn -0.11968(4) 0.29499(6) -0.71459(6)
O8B O 0.2038(2) 0.6805(3) -0.2904(3)
O8C O -0.2038(2) 0.6805(3) -0.2096(3)
Mn3D Mn 0.00000 0.43198(9) -0.75000
Mn3D* Mn 0.00000 0.43198(9) 0.25000
O13D O 0.0836(2) 0.5762(3) -0.1349(3)
O13E O -0.0836(2) 0.5762(3) -0.3651(3)
#END
