
#######################################################################
#
#                 Cambridge Crystallographic Data Centre
#                                CCDC
#
#######################################################################
#
# If this CIF has been generated from an entry in the Cambridge
# Structural Database, then it will include bibliographic, chemical,
# crystal, experimental, refinement or atomic coordinate data resulting
# from the CCDC's data processing and validation procedures.
#
#######################################################################

data_CSD_CIF_IRIQUW01
_audit_creation_date 2013-05-24
_audit_creation_method CSD-ConQuest-V1
_database_code_CSD IRIQUW01
_database_code_depnum_ccdc_archive 'CCDC 862011'
_chemical_formula_sum 'C18 H34 Cu2 N2 O10'
_chemical_formula_moiety
;
(C6 H16 N1 1+)n,n(C10 H15 Cu2 O10 1-),n(C2 H3 N1)
;
_journal_coden_Cambridge 580
_journal_volume 53
_journal_year 2013
_journal_page_first 157
_journal_name_full 'Polyhedron '
loop_
_publ_author_name
"L.Rigamonti"
"S.Carlino"
"Y.Halibi"
"F.Demartin"
"C.Castellano"
"A.Ponti"
"R.Pievo"
"A.Pasini"
_chemical_name_systematic
;
catena-[Triethylammonium pentakis(\m~2~-acetato)-di-copper(ii) acetonitrile 
solvate]
;
_cell_volume   2525.666
_exptl_crystal_colour 'green'
_exptl_crystal_density_diffrn 1.487
_exptl_crystal_description 'prism'
_diffrn_ambient_temperature 294
#These two values have been output from a single CSD field.
_refine_ls_R_factor_gt 0.0318
_refine_ls_wR_factor_gt 0.0318
_symmetry_cell_setting monoclinic
_symmetry_space_group_name_H-M 'P 21/n'
_symmetry_Int_Tables_number 14
loop_
_symmetry_equiv_pos_site_id
_symmetry_equiv_pos_as_xyz
1 x,y,z
2 1/2-x,1/2+y,1/2-z
3 -x,-y,-z
4 -1/2+x,-1/2-y,-1/2+z
_cell_length_a 12.2820(5)
_cell_length_b 11.7714(5)
_cell_length_c 17.7970(7)
_cell_angle_alpha 90
_cell_angle_beta 101.01(1)
_cell_angle_gamma 90
_cell_formula_units_Z 4
loop_
_atom_type_symbol
_atom_type_radius_bond
C 0.68
H 0.23
Cu 1.32
N 0.68
O 0.68
loop_
_atom_site_label
_atom_site_type_symbol
_atom_site_fract_x
_atom_site_fract_y
_atom_site_fract_z
Cu1 Cu 0.47991(3) 0.48712(3) 0.069961(19)
Cu2 Cu 0.48180(3) 0.49118(3) 0.424297(18)
O1 O 0.63529(18) 0.4360(2) 0.09439(12)
O2 O 0.66972(17) 0.45686(18) -0.02283(12)
O3 O 0.5324(2) 0.64551(19) 0.08244(12)
O4 O 0.56731(19) 0.66641(18) -0.03486(12)
O5 O 0.43996(17) 0.48192(18) 0.18068(11)
O6 O 0.43344(16) 0.48836(17) 0.30229(10)
O7 O 0.45062(19) 0.65907(17) 0.55458(12)
O8 O 0.42227(18) 0.64637(17) 0.42770(12)
O9 O 0.63196(18) 0.55508(19) 0.43227(12)
O10 O 0.66125(17) 0.57123(19) 0.55922(12)
C1 C 0.6977(3) 0.4319(3) 0.04678(19)
C2 C 0.8162(3) 0.3961(3) 0.07515(19)
H1 H 0.86390 0.46110 0.07740
H2 H 0.83700 0.34080 0.04080
H3 H 0.82330 0.36350 0.12530
C3 C 0.5666(3) 0.7006(3) 0.0311(2)
C4 C 0.6115(3) 0.8184(3) 0.0518(2)
H4 H 0.59310 0.84100 0.09970
H5 H 0.57940 0.87100 0.01260
H6 H 0.69070 0.81800 0.05640
C5 C 0.4766(2) 0.4535(2) 0.24755(16)
C6 C 0.5724(3) 0.3721(3) 0.26436(18)
H7 H 0.54570 0.29830 0.27490
H8 H 0.62470 0.39840 0.30810
H9 H 0.60790 0.36770 0.22090
C7 C 0.4171(2) 0.6974(2) 0.48841(19)
C8 C 0.3678(3) 0.8152(3) 0.48211(19)
H10 H 0.40440 0.86100 0.44980
H11 H 0.37760 0.84890 0.53210
H12 H 0.29010 0.81070 0.46040
C9 C 0.6912(3) 0.5788(2) 0.4962(2)
C10 C 0.8077(3) 0.6192(3) 0.4970(2)
H13 H 0.81780 0.69280 0.52050
H14 H 0.82000 0.62400 0.44540
H15 H 0.85950 0.56670 0.52550
C11 C 0.3299(3) 0.7276(3) 0.1919(2)
H16 H 0.27930 0.78790 0.17110
H17 H 0.35270 0.68870 0.14940
C12 C 0.4300(4) 0.7786(3) 0.2419(3)
H18 H 0.40740 0.82110 0.28230
H19 H 0.46670 0.82820 0.21190
H20 H 0.47980 0.71920 0.26340
C13 C 0.1971(3) 0.5665(3) 0.1798(2)
H21 H 0.24090 0.53050 0.14650
H22 H 0.17100 0.50730 0.20990
C14 C 0.1006(3) 0.6215(4) 0.1321(2)
H23 H 0.05330 0.65200 0.16430
H24 H 0.06010 0.56660 0.09780
H25 H 0.12530 0.68170 0.10300
C15 C 0.2124(3) 0.7066(3) 0.28783(19)
H26 H 0.26610 0.75120 0.32280
H27 H 0.15900 0.75880 0.25910
C16 C 0.1534(3) 0.6298(4) 0.3334(2)
H28 H 0.09620 0.58930 0.29960
H29 H 0.12080 0.67400 0.36870
H30 H 0.20510 0.57660 0.36120
N1 N 0.2711(2) 0.6464(2) 0.23332(14)
H31 H 0.32410 0.60260 0.26230
C17 C 0.7136(4) 0.6495(4) 0.2605(2)
H32 H 0.66170 0.63140 0.21450
H33 H 0.73580 0.72750 0.25880
H34 H 0.67920 0.63790 0.30400
C18 C 0.8086(4) 0.5780(5) 0.2666(3)
N2 N 0.8819(4) 0.5193(5) 0.2718(3)
Cu1B Cu 0.52009(3) 0.51288(3) -0.069961(19)
Cu2B Cu 0.51820(3) 0.50882(3) 0.575703(18)
O2B O 0.33028(17) 0.54314(18) 0.02283(12)
O4B O 0.43269(19) 0.33359(18) 0.03486(12)
O7B O 0.54938(19) 0.34093(17) 0.44542(12)
O10B O 0.33875(17) 0.42877(19) 0.44078(12)
#END
