
#######################################################################
#
#                 Cambridge Crystallographic Data Centre
#                                CCDC
#
#######################################################################
#
# If this CIF has been generated from an entry in the Cambridge
# Structural Database, then it will include bibliographic, chemical,
# crystal, experimental, refinement or atomic coordinate data resulting
# from the CCDC's data processing and validation procedures.
#
#######################################################################

data_CSD_CIF_IRISAD01
_audit_creation_date 2006-11-07
_audit_creation_method CSD-ConQuest-V1
_database_code_CSD IRISAD01
_database_code_depnum_ccdc_archive 'CCDC 621520'
_chemical_formula_sum 'C4 H11.44 Bi1 N1 O11.72'
_chemical_formula_moiety
;
(H4 N1 1+)n,n(C4 Bi1 O8 1-),3.72n(H2 O1)
;
_journal_coeditor_code "IUCr WM2042"
_journal_coden_Cambridge 1370
_journal_volume 62
_journal_year 2006
_journal_page_first m2310
_journal_name_full 'Acta Crystallogr.,Sect.E:Struct.Rep.Online '
loop_
_publ_author_name
"Jun-Ying Yang"
"Yun-Long Fu"
"Jia Chu"
"S.W.Ng"
_chemical_name_systematic
;
catena-(Ammonium bis(\m~2~-oxalato)-bismuth(iii) hydrate)
;
_cell_volume   1261.224
_exptl_crystal_colour 'colorless'
_exptl_crystal_density_diffrn 2.477
_exptl_crystal_description 'block'
_diffrn_ambient_temperature 295
#These two values have been output from a single CSD field.
_refine_ls_R_factor_gt 0.023
_refine_ls_wR_factor_gt 0.023
_symmetry_cell_setting tetragonal
_symmetry_space_group_name_H-M 'I 41/a m d'
_symmetry_Int_Tables_number 141
loop_
_symmetry_equiv_pos_site_id
_symmetry_equiv_pos_as_xyz
1 x,y,z
2 1/4+y,3/4+x,1/4-z
3 1/4+y,1/4-x,3/4+z
4 1/4-y,3/4+x,1/4+z
5 1/2+x,1/2+y,1/2+z
6 3/4+y,1/4+x,3/4-z
7 3/4+y,3/4-x,1/4+z
8 3/4-y,1/4+x,3/4+z
9 x,-y,-z
10 1/2-x,-y,1/2+z
11 1/2-x,y,1/2-z
12 1/4-y,1/4-x,3/4-z
13 1/2+x,1/2-y,1/2-z
14 -x,1/2-y,z
15 -x,1/2+y,-z
16 3/4-y,3/4-x,1/4-z
17 -x,-y,-z
18 -1/4-y,-3/4-x,-1/4+z
19 -1/4-y,-1/4+x,-3/4-z
20 -1/4+y,-3/4-x,-1/4-z
21 -1/2-x,-1/2-y,-1/2-z
22 -3/4-y,-1/4-x,-3/4+z
23 -3/4-y,-3/4+x,-1/4-z
24 -3/4+y,-1/4-x,-3/4-z
25 -x,y,z
26 -1/2+x,y,-1/2-z
27 -1/2+x,-y,-1/2+z
28 -1/4+y,-1/4+x,-3/4+z
29 -1/2-x,-1/2+y,-1/2+z
30 x,-1/2+y,-z
31 x,-1/2-y,z
32 -3/4+y,-3/4+x,-1/4+z
_cell_length_a 11.674(1)
_cell_length_b 11.674(1)
_cell_length_c 9.2545(8)
_cell_angle_alpha 90
_cell_angle_beta 90
_cell_angle_gamma 90
_cell_formula_units_Z 4
loop_
_atom_type_symbol
_atom_type_radius_bond
C 0.68
H 0.23
Bi 1.54
N 0.68
O 0.68
loop_
_atom_site_label
_atom_site_type_symbol
_atom_site_fract_x
_atom_site_fract_y
_atom_site_fract_z
Bi1 Bi 0.50000 0.25000 0.62500
O1 O 0.2966(5) 0.25000 0.5729(7)
O2 O 0.1202(5) 0.25000 0.6607(6)
C1 C 0.2260(7) 0.25000 0.6738(8)
O3 O 0.25000 0.25000 0.25000
O4 O 0.203(3) 0.047(3) 0.37500
N1 N 0.00000 0.25000 0.37500
H1 H 0.0596(4) 0.25000 0.427(2)
Bi1C Bi 0.00000 0.25000 0.87500
Bi1B Bi 0.50000 -0.25000 0.37500
O1T O 0.2034(5) 0.25000 0.9271(7)
O1A O 0.5000(5) 0.04660 0.6771(7)
O1B O 0.5000(5) -0.04660 0.3229(7)
O1X O 0.7034(5) 0.25000 0.5729(7)
O1W O 0.5000(5) 0.45340 0.6771(7)
O2T O 0.3798(5) 0.25000 0.8393(6)
O2A O 0.5000(5) -0.12980 0.5893(6)
O2B O 0.5000(5) 0.12980 0.4107(6)
O2G O 0.5000(5) 0.37020 0.4107(6)
O2Y O 0.6202(5) 0.25000 0.8393(6)
C1T C 0.2740(7) 0.25000 0.8262(8)
C1A C 0.5000(7) -0.02400 0.5762(8)
C1B C 0.5000(7) 0.02400 0.4238(8)
H1E H 0.0000(4) 0.30960 0.323(2)
H1X H -0.0596(4) 0.25000 0.427(2)
H1S H 0.0000(4) 0.19040 0.323(2)
#END
