
#######################################################################
#
#                 Cambridge Crystallographic Data Centre
#                                CCDC
#
#######################################################################
#
# If this CIF has been generated from an entry in the Cambridge
# Structural Database, then it will include bibliographic, chemical,
# crystal, experimental, refinement or atomic coordinate data resulting
# from the CCDC's data processing and validation procedures.
#
#######################################################################

data_CSD_CIF_IRISAD
_audit_creation_date 2004-05-25
_audit_creation_method CSD-ConQuest-V1
_database_code_CSD IRISAD
_database_code_depnum_ccdc_archive 'CCDC 231429'
_chemical_formula_sum 'C4 H11.42 Bi1 N1 O11.71'
_chemical_formula_moiety
;
(H4 N1 1+)n,n(C4 Bi1 O8 1-),3.71n(H2 O1)
;
_journal_coden_Cambridge 9
_journal_volume 43
_journal_year 2004
_journal_page_first 785
_journal_name_full 'Inorg.Chem. '
loop_
_publ_author_name
"G.Vanhoyland"
"A.Le Bail"
"J.Mullens"
"L.C.Van Poucke"
_chemical_name_systematic
;
catena-(Ammonium bis(\m~2~-oxalato)-bismuth(iii) hydrate)
;
_cell_volume   1262.028
_exptl_crystal_colour 'white'
_exptl_crystal_density_diffrn 2.47
_exptl_special_details
;
powder data

;
_diffrn_ambient_temperature 295
#These two values have been output from a single CSD field.
_refine_ls_R_factor_gt 0.08
_refine_ls_wR_factor_gt 0.08
_symmetry_cell_setting tetragonal
_symmetry_space_group_name_H-M 'I 41/a m d'
_symmetry_Int_Tables_number 141
loop_
_symmetry_equiv_pos_site_id
_symmetry_equiv_pos_as_xyz
1 x,y,z
2 1/4-y,3/4+x,1/4+z
3 x,-y,-z
4 1/2-x,-y,1/2+z
5 1/4+y,3/4+x,1/4-z
6 1/4+y,1/4-x,3/4+z
7 1/2-x,y,1/2-z
8 1/4-y,1/4-x,3/4-z
9 1/2+x,1/2+y,1/2+z
10 3/4-y,1/4+x,3/4+z
11 1/2+x,1/2-y,1/2-z
12 -x,1/2-y,z
13 3/4+y,1/4+x,3/4-z
14 3/4+y,3/4-x,1/4+z
15 -x,1/2+y,-z
16 3/4-y,3/4-x,1/4-z
17 -x,-y,-z
18 -1/4+y,-3/4-x,-1/4-z
19 -x,y,z
20 -1/2+x,y,-1/2-z
21 -1/4-y,-3/4-x,-1/4+z
22 -1/4-y,-1/4+x,-3/4-z
23 -1/2+x,-y,-1/2+z
24 -1/4+y,-1/4+x,-3/4+z
25 -1/2-x,-1/2-y,-1/2-z
26 -3/4+y,-1/4-x,-3/4-z
27 -1/2-x,-1/2+y,-1/2+z
28 x,-1/2+y,-z
29 -3/4-y,-1/4-x,-3/4+z
30 -3/4-y,-3/4+x,-1/4-z
31 x,-1/2-y,z
32 -3/4+y,-3/4+x,-1/4+z
_cell_length_a 11.6896(2)
_cell_length_b 11.6896(2)
_cell_length_c 9.2357(3)
_cell_angle_alpha 90
_cell_angle_beta 90
_cell_angle_gamma 90
_cell_formula_units_Z 4
loop_
_atom_type_symbol
_atom_type_radius_bond
C 0.68
Bi 1.54
N 0.68
O 0.68
loop_
_atom_site_label
_atom_site_type_symbol
_atom_site_fract_x
_atom_site_fract_y
_atom_site_fract_z
Bi1 Bi 0.00000 0.75000 0.12500
O1 O 0.00000 0.6262(6) -0.0910(9)
O2 O 0.0000(7) 0.45360 -0.180(1)
C1 C 0.000(1) 0.51900 -0.077(1)
N1 N 0.00000 0.25000 0.37500
O3 O 0.2889(8) 0.5389(8) 0.87500
O4 O 0.00000 0.00000 0.50000
C1B C 0.000(1) 0.48100 0.077(1)
O1B O 0.00000 0.3738(6) 0.0910(9)
O2B O 0.0000(7) 0.54640 0.180(1)
O1D O -0.12380 0.7500(6) 0.3410(9)
O2D O -0.2964(7) 0.75000 0.430(1)
C1D C -0.231(1) 0.75000 0.327(1)
C1A C -0.269(1) 0.75000 0.173(1)
O1A O -0.37620 0.7500(6) 0.1590(9)
O2A O -0.2036(7) 0.75000 0.070(1)
O1K O 0.00000 0.8738(6) -0.0910(9)
O1O O 0.12380 0.7500(6) 0.3410(9)
O2M O 0.2036(7) 0.75000 0.070(1)
O2N O 0.0000(7) 0.95360 0.180(1)
Bi1B Bi 0.00000 0.25000 -0.12500
Bi1A Bi -0.50000 0.75000 0.37500
#END
