
#######################################################################
#
#                 Cambridge Crystallographic Data Centre
#                                CCDC
#
#######################################################################
#
# If this CIF has been generated from an entry in the Cambridge
# Structural Database, then it will include bibliographic, chemical,
# crystal, experimental, refinement or atomic coordinate data resulting
# from the CCDC's data processing and validation procedures.
#
#######################################################################

data_CSD_CIF_IROHAZ
_audit_creation_date 2011-07-22
_audit_creation_method CSD-ConQuest-V1
_database_code_CSD IROHAZ
_database_code_depnum_ccdc_archive 'CCDC 767769'
_chemical_formula_sum 'C2 H29 Cs1.4 Na4.6 O54 Si1 W11 Y1'
_chemical_formula_moiety
;
(C2 H5 O42 Si1 W11 Y1 6-)n,12n(H2 O1),4.6n(Na1 1+),1.4n(Cs1 1+)
;
_journal_coden_Cambridge 155
_journal_volume 363
_journal_year 2010
_journal_page_first 4324
_journal_name_full 'Inorg.Chim.Acta '
loop_
_publ_author_name
"F.Hussain"
"A.Degonda"
"S.Sandriesser"
"T.Fox"
"S.S.Mal"
"U.Kortz"
"G.R.Patzke"
_chemical_name_systematic
;
catena-(cesium sodium 
(\m~11~-silicato)-(\m~2~-acetato)-tetracosa(\m~2~-oxo)-aqua-undecaoxo-undeca-t
ungstern-yttrium(iii) dodecahydrate)
;
_cell_volume   5040.894
_exptl_crystal_colour 'colorless'
_exptl_crystal_description 'diamond plate'
_diffrn_ambient_temperature 183
_refine_special_details
;
Cs4,Cs5,Cs5,Cs5,Cs5,Cs6,Cs6,Cs6,Cs6,Na1,Na1,Na1,Na1, 
Na2,Na2,Na3,Na3,O1,O1,O10,O10,O12,O12,O2,O2,O23,O23,O24,O24,O3,O3,O32, 
O32,O33,O33,O35,O35,O36,O36,O45,O45,O46,O46,O51,O51,O52,O52 disordered by 
symmetry over two sites with occupancy 0.50; O50 disordered by symmetry over 
two sites with occupancy 0.50; Cs3 disordered by symmetry over two sites with 
occupancy 0.50.
;
#These two values have been output from a single CSD field.
_refine_ls_R_factor_gt 0.0545
_refine_ls_wR_factor_gt 0.0545
_symmetry_cell_setting monoclinic
_symmetry_space_group_name_H-M 'P 21/c'
_symmetry_Int_Tables_number 14
loop_
_symmetry_equiv_pos_site_id
_symmetry_equiv_pos_as_xyz
1 x,y,z
2 -x,1/2+y,1/2-z
3 -x,-y,-z
4 x,-1/2-y,-1/2+z
_cell_length_a 20.1399(6)
_cell_length_b 12.6527(2)
_cell_length_c 21.1473(6)
_cell_angle_alpha 90
_cell_angle_beta 110.702(3)
_cell_angle_gamma 90
_cell_formula_units_Z 4
loop_
_atom_type_symbol
_atom_type_radius_bond
C 0.68
H 0.23
Cs 1.55
Na 0.97
O 0.68
Si 1.20
W 1.39
Y 1.74
loop_
_atom_site_label
_atom_site_type_symbol
_atom_site_fract_x
_atom_site_fract_y
_atom_site_fract_z
O1 O -0.0668(8) 0.6784(10) -0.2287(7)
O2 O -0.4210(9) 0.0760(12) -0.2214(8)
O3 O -0.4435(8) 0.6613(10) -0.2723(7)
O4 O -0.1175(8) 0.3445(10) -0.4073(7)
O5 O -0.0443(8) 0.2539(10) -0.1477(7)
O6 O -0.4924(9) 0.3730(12) -0.4323(8)
O7 O -0.2821(8) 0.1458(11) -0.1760(8)
O8 O -0.1424(8) 0.1115(10) -0.1454(7)
O9 O -0.1861(8) 0.6821(11) -0.0611(7)
O10 O -0.2001(8) 0.1023(10) -0.0442(7)
O11 O -0.1131(8) 0.2613(10) -0.0489(7)
O12 O -0.3791(9) 0.3697(12) -0.0633(8)
O13 O -0.1460(8) 0.4853(11) -0.0870(7)
O14 O -0.1854(8) 0.2999(10) -0.1847(7)
O15 O -0.2821(7) 0.4508(9) -0.1952(6)
O16 O -0.2145(8) 0.4424(10) -0.2811(7)
O17 O -0.3812(8) 0.2887(10) -0.1868(7)
O18 O -0.0753(8) 0.4815(10) -0.1750(7)
O19 O -0.3086(7) 0.6459(10) -0.1764(7)
O20 O -0.4403(8) 0.2488(10) -0.3162(7)
O21 O -0.3480(8) 0.0971(10) -0.3098(7)
O22 O -0.2025(7) 0.6328(10) -0.3216(7)
O23 O -0.3242(9) 0.6470(11) -0.4364(8)
O24 O -0.0637(8) 0.0794(11) -0.2270(7)
O25 O -0.2058(8) 0.1339(11) -0.2823(8)
O26 O -0.2896(8) 0.0670(11) -0.4089(7)
O27 O -0.1146(8) 0.2841(10) -0.2805(7)
O28 O -0.4008(8) 0.4951(10) -0.1784(7)
O29 O -0.2792(7) 0.5091(10) -0.0778(7)
O30 O -0.2604(7) 0.2993(9) -0.0901(7)
O31 O -0.3271(8) 0.6018(10) -0.3065(7)
O32 O -0.3754(8) 0.2387(10) -0.4070(7)
O33 O -0.3524(7) 0.4445(10) -0.3921(7)
O34 O -0.1027(8) 0.4893(10) -0.3081(7)
O35 O -0.2281(8) 0.4739(10) -0.4088(7)
O36 O -0.2383(8) 0.2709(10) -0.3809(7)
O37 O -0.4167(8) 0.4528(10) -0.3044(7)
O38 O -0.1836(7) 0.6189(10) -0.1905(7)
O39 O -0.5341(15) 0.214(2) -0.5567(14)
O40 O -0.4577(12) 0.0974(16) -0.0865(11)
O41 O -0.6332(10) 0.3026(13) -0.3872(9)
O42 O -0.0793(11) 0.6266(14) -0.4016(10)
O43 O 0.1737(9) 0.3955(12) -0.1825(8)
O44 O -0.5282(10) 0.0997(13) -0.4033(9)
O45 O -0.6083(9) 0.3851(12) -0.1797(9)
O46 O 0.0335(8) 0.5405(11) -0.0376(8)
O47 O 0.0405(8) 0.2816(11) 0.0032(8)
O48 O 0.2281(8) 0.3872(11) 0.5311(8)
O49 O -0.6879(9) 0.1224(12) -0.5193(8)
O50 O 0.0659(8) 0.4221(11) -0.0922(7)
O51 O -0.3070(8) 0.2943(10) -0.2839(7)
O52 O -0.2553(9) 0.6824(12) 0.2489(8)
O53 O 0.1646(11) 1.1016(14) 0.1313(10)
O54 O 0.0335(11) 0.3091(15) -0.382(1)
Na1 Na -0.4514(6) 0.0585(8) -0.4872(5)
Na2 Na -0.5946(6) 0.2465(8) -0.4790(5)
Na3 Na -0.0522(7) 0.4620(9) -0.4810(6)
Si1 Si -0.2468(3) 0.3703(4) -0.2352(3)
Y1 Y -0.04510(12) 0.39011(16) -0.07332(11)
Cs1 Cs 0.1891(4) 0.2384(5) 0.4309(3)
Cs2 Cs -0.3273(3) 0.1572(4) -0.0106(3)
Cs3 Cs -0.5278(3) 0.3685(4) -0.2611(3)
Cs4 Cs 0.0271(3) 0.3822(4) -0.2318(3)
W1 W -0.41287(5) 0.34890(7) -0.36880(5)
W2 W -0.37610(5) 0.57214(7) -0.24617(5)
W3 W -0.33718(5) 0.39250(7) -0.12129(5)
W4 W -0.19208(5) 0.19742(6) -0.09928(5)
W5 W -0.21484(5) 0.57701(7) -0.11726(4)
W6 W -0.36968(5) 0.17010(7) -0.23977(5)
W7 W -0.16146(5) 0.37361(7) -0.35371(5)
W8 W -0.11144(5) 0.18227(7) -0.20977(5)
W9 W -0.12483(5) 0.57169(7) -0.23851(5)
W10 W -0.28441(5) 0.56019(7) -0.36995(5)
W11 W -0.28743(5) 0.16357(7) -0.35242(5)
C1 C 0.0759(13) 0.5104(17) -0.0664(12)
C2 C 0.1310(13) 0.5818(17) -0.0711(12)
H1 H 0.11260 0.62280 -0.11180
H2 H 0.14560 0.62810 -0.03270
H3 H 0.17100 0.54120 -0.07180
O46B O -0.0335(8) 0.4595(11) 0.0376(8)
Y1B Y 0.04510(12) 0.60989(16) 0.07332(11)
#END
