
#######################################################################
#
#                 Cambridge Crystallographic Data Centre
#                                CCDC
#
#######################################################################
#
# If this CIF has been generated from an entry in the Cambridge
# Structural Database, then it will include bibliographic, chemical,
# crystal, experimental, refinement or atomic coordinate data resulting
# from the CCDC's data processing and validation procedures.
#
#######################################################################

data_CSD_CIF_IRUPAP
_audit_creation_date 2021-05-04
_audit_creation_method CSD-ConQuest-V1
_database_code_CSD IRUPAP
_database_code_depnum_ccdc_archive 'CCDC 1488986'
_chemical_formula_sum 'C9 H14 N4 O10 S3 U1'
_chemical_formula_moiety
;
(C9 H6 N3 O8 S3 U1 1-)n,n(H4 N1 1+),2n(H2 O1)
;
_journal_coden_Cambridge 208
_journal_volume 300
_journal_year 2021
_journal_name_full 'J.Solid State Chem. '
loop_
_publ_author_name
"Liang-Ting Chen"
"Hong-Hong Tian"
"Guang-Fa Hu"
"Jian-She Zhao"
"Chi-Yang Liu"
"Ng Seik Weng"
_chemical_name_systematic
;
catena-(ammonium 
(\m-2,2',2''-(1,3,5-triazine-2,4,6-triyltrisulfanediyl)triacetato)-dioxo-urani
um dihydrate)
;
_cell_volume   2286.622
_exptl_special_details
;
Luminescent

;
_diffrn_ambient_temperature 296
_refine_special_details
;
The SQUEEZE/PLATON program was used to model the disordered cation and water 
molecules.
;
#These two values have been output from a single CSD field.
_refine_ls_R_factor_gt 0.073
_refine_ls_wR_factor_gt 0.073
_symmetry_cell_setting monoclinic
_symmetry_space_group_name_H-M 'P 2/n'
_symmetry_Int_Tables_number 13
loop_
_symmetry_equiv_pos_site_id
_symmetry_equiv_pos_as_xyz
1 x,y,z
2 1/2-x,y,1/2-z
3 -x,-y,-z
4 -1/2+x,-y,-1/2+z
_cell_length_a 10.650(2)
_cell_length_b 9.5487(19)
_cell_length_c 22.873(5)
_cell_angle_alpha 90
_cell_angle_beta 100.563(4)
_cell_angle_gamma 90
_cell_formula_units_Z 4
loop_
_atom_type_symbol
_atom_type_radius_bond
C 0.68
H 0.23
N 0.68
O 0.68
S 1.02
U 1.96
loop_
_atom_site_label
_atom_site_type_symbol
_atom_site_fract_x
_atom_site_fract_y
_atom_site_fract_z
U1 U 0.53369(4) 0.26066(4) 0.11999(2)
S1 S 0.4220(4) 0.2086(5) 0.33260(17)
S2 S 0.6806(3) 0.4368(4) 0.53253(15)
S3 S 0.3346(3) 0.0573(4) 0.53947(16)
O1 O 0.6021(8) 0.3754(10) 0.2168(3)
O2 O 0.4782(9) 0.194(1) 0.2152(4)
O3 O 0.8179(8) 0.4558(9) 0.3858(4)
O4 O 0.8934(9) 0.3459(9) 0.4682(4)
O5 O 0.1030(9) 0.0510(9) 0.3908(4)
O6 O 0.0702(8) 0.1446(11) 0.4721(4)
O7 O 0.4022(8) 0.3757(10) 0.1080(4)
O8 O 0.6651(8) 0.1462(9) 0.1306(4)
N1 N 0.5526(9) 0.3177(11) 0.4328(5)
N2 N 0.5049(11) 0.2432(10) 0.5245(5)
N3 N 0.3836(10) 0.1571(11) 0.4383(5)
C1 C 0.5399(15) 0.2953(17) 0.2417(7)
C2 C 0.5311(12) 0.3288(15) 0.3091(6)
H1 H 0.50160 0.42410 0.31250
H2 H 0.61470 0.31960 0.33410
C3 C 0.4592(12) 0.2326(13) 0.4087(6)
C4 C 0.5649(12) 0.3194(13) 0.4926(6)
C5 C 0.4168(11) 0.1613(12) 0.4963(6)
C6 C 0.7380(12) 0.5220(13) 0.4726(5)
H3 H 0.66450 0.55720 0.44520
H4 H 0.78780 0.60270 0.48900
C7 C 0.8178(12) 0.4389(13) 0.4373(6)
C8 C 0.2257(11) -0.0283(13) 0.4808(6)
H5 H 0.27550 -0.07220 0.45440
H6 H 0.18290 -0.10260 0.49850
C9 C 0.1285(13) 0.0582(13) 0.4451(6)
U1A U -0.03369(4) 0.26066(4) 0.38001(2)
U1A* U 0.96631(4) 0.26066(4) 0.38001(2)
O3A O 0.6821(8) 0.4558(9) 0.1142(4)
O4A O 0.6066(9) 0.3459(9) 0.0318(4)
O5A O 0.3970(9) 0.0510(9) 0.1092(4)
O6A O 0.4298(8) 0.1446(11) 0.0279(4)
#END
