
#######################################################################
#
#                 Cambridge Crystallographic Data Centre
#                                CCDC
#
#######################################################################
#
# If this CIF has been generated from an entry in the Cambridge
# Structural Database, then it will include bibliographic, chemical,
# crystal, experimental, refinement or atomic coordinate data resulting
# from the CCDC's data processing and validation procedures.
#
#######################################################################

data_CSD_CIF_IRUVUO
_audit_creation_date 2016-08-12
_audit_creation_method CSD-ConQuest-V1
_database_code_CSD IRUVUO
_database_code_depnum_ccdc_archive 'CCDC 1458989'
_chemical_formula_sum 'C78 H78.5 N6 O23.25 Zn2'
_chemical_formula_moiety
;
2(C2 H8 N1 1+),n(C74 H60 N4 O22 Zn2 2-),1.25(H2 O1)
;
_journal_coden_Cambridge 1290
_journal_year 2016
_journal_page_first 4524
_journal_name_full 'Eur.J.Inorg.Chem. '
loop_
_publ_author_name
"G.Gholami"
"Kelong Zhu"
"J.S.Ward"
"P.E.Kruger"
"S.J.Loeb"
_chemical_name_systematic
;
catena-[bis(dimethylammonium) 
(\m-4-(2-(4-(4,7-bis(4-carboxyphenyl)-1H-benzimidazol-2-yl)phenyl)-4-(4-carbox
yphenyl)-1H-benzimidazol-7-yl)benzoato)-(\m-29-carboxylato-2,5,8,11,17,20,23,2
6-octaoxatricyclo[25.3.1.1^12,16^]dotriaconta-1(31),12(32),13,15,27,29-hexaene
-14-carboxylato)-diaqua-di-zinc(ii) hydrate]
;
_cell_volume  15269.122
_exptl_crystal_colour 'yellow'
_exptl_crystal_density_diffrn 1.394
_exptl_crystal_description 'block'
_diffrn_ambient_temperature 173.0
_refine_special_details
;
The structure is disordered.

;
#These two values have been output from a single CSD field.
_refine_ls_R_factor_gt 0.1515
_refine_ls_wR_factor_gt 0.1515
_symmetry_cell_setting orthorhombic
_symmetry_space_group_name_H-M 'P b c a'
_symmetry_Int_Tables_number 61
loop_
_symmetry_equiv_pos_site_id
_symmetry_equiv_pos_as_xyz
1 x,y,z
2 1/2-x,-y,1/2+z
3 -x,1/2+y,1/2-z
4 1/2+x,1/2-y,-z
5 -x,-y,-z
6 -1/2+x,y,-1/2-z
7 x,-1/2-y,-1/2+z
8 -1/2-x,-1/2+y,z
_cell_length_a 37.270(8)
_cell_length_b 10.733(3)
_cell_length_c 38.171(9)
_cell_angle_alpha 90
_cell_angle_beta 90
_cell_angle_gamma 90
_cell_formula_units_Z 8
loop_
_atom_type_symbol
_atom_type_radius_bond
C 0.68
H 0.23
N 0.68
O 0.68
Zn 1.22
loop_
_atom_site_label
_atom_site_type_symbol
_atom_site_fract_x
_atom_site_fract_y
_atom_site_fract_z
Zn1 Zn 0.26983(4) 0.41304(18) 0.18688(5)
Zn2 Zn 0.76594(6) 1.0310(3) 0.52370(8)
O1 O 0.3110(2) 0.3855(9) 0.2157(2)
O2 O 0.3056(5) 0.566(2) 0.2367(6)
O3 O 0.7226(3) 0.3581(13) 0.2811(4)
O4 O 0.7210(3) 0.5394(19) 0.3005(5)
O5 O 0.3036(3) 1.2384(15) 0.4912(4)
O6 O 0.3066(3) 1.4334(14) 0.5075(4)
O7 O 0.7174(3) 1.0707(11) 0.4737(4)
O8 O 0.7182(3) 1.0994(10) 0.5295(3)
O9 O 0.2797(2) 0.5265(9) 0.1463(3)
O10 O 0.2995(2) 0.7117(9) 0.1379(3)
O11 O 0.43167(18) 0.6572(7) 0.1611(2)
O12 O 0.5275(2) 0.6767(9) 0.1653(2)
O13 O 0.5953(5) 0.5506(18) 0.1693(4)
O14 O 0.6139(2) 0.3047(10) 0.1609(3)
O15 O 0.7213(6) 0.154(2) 0.0873(10)
O16 O 0.7025(3) -0.036(2) 0.0678(5)
O17 O 0.5745(2) -0.0536(9) 0.0944(2)
O18 O 0.4803(2) -0.0685(7) 0.1044(2)
O19 O 0.4075(5) 0.0232(19) 0.1226(5)
O20 O 0.3937(9) 0.283(3) 0.1146(9)
O21 O 0.26818(17) 0.2502(8) 0.1618(2)
H1 H 0.27920 0.19220 0.17420
H2 H 0.27860 0.25620 0.14090
N1 N 0.47792(19) 0.6275(7) 0.31257(18)
H3 H 0.45530 0.64980 0.31420
N2 N 0.53706(19) 0.6126(8) 0.3226(2)
N3 N 0.4756(2) 1.0946(7) 0.4548(2)
H4 H 0.45300 1.09020 0.44810
N4 N 0.5336(2) 1.0551(8) 0.4572(2)
C1 C 0.3219(11) 0.476(4) 0.2315(7)
C2 C 0.4349(3) 0.4667(14) 0.2588(4)
C3 C 0.4142(4) 0.5679(12) 0.2691(4)
H5 H 0.42520 0.63640 0.28080
C4 C 0.3776(4) 0.5688(12) 0.2625(4)
H6 H 0.36340 0.63800 0.26960
C5 C 0.3616(3) 0.4686(14) 0.2455(4)
C6 C 0.3823(4) 0.3674(12) 0.2352(4)
H7 H 0.37140 0.29890 0.22360
C7 C 0.4190(4) 0.3665(12) 0.2418(4)
H8 H 0.43310 0.29730 0.23470
C8 C 0.4753(2) 0.4711(9) 0.2632(3)
C9 C 0.4923(2) 0.5441(9) 0.2886(2)
C10 C 0.5289(2) 0.5355(10) 0.2945(3)
C11 C 0.5517(2) 0.4605(10) 0.2738(2)
C12 C 0.5348(3) 0.3908(10) 0.2488(3)
H9 H 0.54870 0.33820 0.23410
C13 C 0.4966(3) 0.3953(10) 0.2443(3)
H10 H 0.48590 0.34260 0.22720
C14 C 0.5914(3) 0.4563(12) 0.2785(3)
C15 C 0.6106(3) 0.5684(13) 0.2842(3)
H11 H 0.59840 0.64580 0.28580
C16 C 0.6480(3) 0.5629(15) 0.2875(3)
H12 H 0.66100 0.63750 0.29170
C17 C 0.6661(3) 0.4532(16) 0.2848(3)
C18 C 0.6484(3) 0.3439(14) 0.2800(3)
H13 H 0.66120 0.26730 0.27990
C19 C 0.6099(3) 0.3449(13) 0.2749(3)
H14 H 0.59750 0.27030 0.26930
C20 C 0.7090(4) 0.446(2) 0.2934(4)
C21 C 0.5044(3) 0.6667(9) 0.3324(2)
C22 C 0.5027(2) 0.7524(9) 0.3619(2)
C23 C 0.4758(3) 0.8399(10) 0.3634(3)
H15 H 0.45830 0.84090 0.34540
C24 C 0.4734(3) 0.9261(9) 0.3899(3)
H16 H 0.45390 0.98330 0.39060
C25 C 0.5000(3) 0.9279(9) 0.4156(3)
C26 C 0.5267(2) 0.8386(10) 0.4146(2)
H17 H 0.54450 0.83670 0.43240
C27 C 0.5277(2) 0.7514(9) 0.3877(2)
H18 H 0.54620 0.69050 0.38730
C28 C 0.5030(3) 1.0258(9) 0.4428(2)
C29 C 0.3220(5) 1.331(2) 0.5023(5)
C30 C 0.3603(3) 1.3204(14) 0.5049(3)
C31 C 0.3829(3) 1.4171(12) 0.5046(3)
H19 H 0.37320 1.49880 0.50570
C32 C 0.4189(3) 1.4047(11) 0.5028(3)
H20 H 0.43380 1.47640 0.50160
C33 C 0.4341(3) 1.2868(10) 0.5028(2)
C34 C 0.4109(3) 1.1866(11) 0.5040(2)
H21 H 0.42040 1.10450 0.50400
C35 C 0.3752(3) 1.2025(12) 0.5051(3)
H22 H 0.36000 1.13170 0.50610
C36 C 0.4739(3) 1.265(1) 0.5010(3)
C37 C 0.4979(3) 1.3341(10) 0.5217(3)
H23 H 0.48890 1.39980 0.53590
C38 C 0.5339(3) 1.3093(11) 0.5219(3)
H24 H 0.54880 1.35720 0.53700
C39 C 0.5498(3) 1.2189(10) 0.5016(3)
C40 C 0.5265(3) 1.1505(10) 0.4803(3)
C41 C 0.4898(3) 1.1748(10) 0.4801(3)
C42 C 0.5897(3) 1.1932(10) 0.5013(3)
C43 C 0.6088(3) 1.2007(12) 0.5327(4)
H25 H 0.59740 1.22050 0.55420
C44 C 0.6472(3) 1.1767(12) 0.5306(4)
H26 H 0.66150 1.18680 0.55110
C45 C 0.6635(3) 1.1399(13) 0.5000(4)
C46 C 0.6427(3) 1.1277(12) 0.4708(4)
H27 H 0.65340 1.09760 0.44980
C47 C 0.6066(3) 1.1576(10) 0.4707(3)
H28 H 0.59340 1.15360 0.44940
C48 C 0.7007(4) 1.1041(15) 0.5006(5)
C49 C 0.3049(3) 0.6020(15) 0.1414(4)
C50 C 0.3422(3) 0.5503(12) 0.1418(3)
C51 C 0.3706(3) 0.6279(11) 0.1505(3)
H29 H 0.36660 0.71290 0.15630
C52 C 0.4049(3) 0.5785(12) 0.1505(3)
C53 C 0.4101(3) 0.4522(13) 0.1435(4)
H30 H 0.43360 0.41830 0.14390
C54 C 0.3814(3) 0.3768(14) 0.1362(4)
C55 C 0.3470(3) 0.4236(12) 0.1349(3)
H31 H 0.32720 0.37140 0.12940
C56 C 0.4675(3) 0.6117(13) 0.1590(4)
H32 H 0.47320 0.59020 0.13440
H33 H 0.46980 0.53530 0.17340
C57 C 0.4926(3) 0.7070(14) 0.1717(4)
H34 H 0.48700 0.78740 0.16020
H35 H 0.48920 0.71810 0.19730
C58 C 0.5499(6) 0.676(2) 0.1897(5)
H36 H 0.53960 0.61830 0.20740
H37 H 0.54840 0.75990 0.20020
C59 C 0.5847(5) 0.650(2) 0.1896(5)
H38 H 0.59230 0.63320 0.21400
H39 H 0.59780 0.72450 0.18150
C60 C 0.6222(5) 0.5027(18) 0.1816(5)
H40 H 0.61630 0.47990 0.20610
H41 H 0.64060 0.56900 0.18290
C61 C 0.6377(4) 0.4061(17) 0.1678(5)
H42 H 0.65690 0.37710 0.18370
H43 H 0.64920 0.43150 0.14550
C62 C 0.6261(4) 0.2097(15) 0.1392(4)
C63 C 0.6556(4) 0.1899(18) 0.1234(4)
H44 H 0.67440 0.24850 0.12700
C64 C 0.6629(4) 0.0901(18) 0.1013(4)
C65 C 0.6345(3) 0.0047(17) 0.0911(4)
H45 H 0.63850 -0.06140 0.07490
C66 C 0.6023(4) 0.0251(15) 0.1058(3)
C67 C 0.5967(4) 0.1222(14) 0.1301(3)
H46 H 0.57380 0.13180 0.14070
C68 C 0.6984(7) 0.065(3) 0.0841(9)
C69 C 0.5404(3) -0.0202(12) 0.1068(3)
H47 H 0.53550 0.06840 0.10150
H48 H 0.53920 -0.03180 0.13250
C70 C 0.5134(3) -0.1005(11) 0.0894(3)
H49 H 0.51320 -0.08500 0.06380
H50 H 0.51890 -0.18960 0.09350
C71 C 0.4511(3) -0.1246(11) 0.0878(4)
H51 H 0.45550 -0.21500 0.08480
H52 H 0.44720 -0.08710 0.06440
C72 C 0.4176(4) -0.1022(12) 0.1117(4)
H53 H 0.39660 -0.13840 0.09950
H54 H 0.42120 -0.15190 0.13330
C73 C 0.3855(7) 0.082(2) 0.0983(7)
H55 H 0.36870 0.01980 0.08840
H56 H 0.40050 0.11360 0.07880
C74 C 0.3655(3) 0.1812(11) 0.1121(4)
H57 H 0.35560 0.16040 0.13540
H58 H 0.34580 0.20560 0.09620
O22 O 0.7570(3) 0.8539(12) 0.5125(3)
H59 H 0.77740 0.81620 0.50960
H60 H 0.74540 0.81930 0.52970
N5 N 0.74680 0.90750 0.42950
H61 H 0.74020 0.95020 0.44910
H62 H 0.73670 0.94700 0.41090
C75 C 0.73090 0.78060 0.43170
H63 H 0.74370 0.73200 0.44950
H64 H 0.73310 0.73910 0.40900
H65 H 0.70550 0.78710 0.43820
C76 C 0.78720 0.91780 0.42600
H66 H 0.79830 0.83760 0.43180
H67 H 0.79620 0.98210 0.44200
H68 H 0.79330 0.94030 0.40180
N6 N 0.2531(6) 0.675(2) 0.2788(6)
H69 H 0.25630 0.69240 0.25560
H70 H 0.26110 0.59580 0.28150
C77 C 0.2133(6) 0.661(3) 0.2818(8)
H71 H 0.20200 0.74350 0.28040
H72 H 0.20740 0.62230 0.30430
H73 H 0.20450 0.60880 0.26260
C78 C 0.2820(6) 0.751(3) 0.2959(7)
H74 H 0.30220 0.76020 0.27970
H75 H 0.29010 0.70840 0.31720
H76 H 0.27250 0.83320 0.30200
N7 N 0.3444(15) 1.181(4) 0.4054(15)
H77 H 0.36690 1.15830 0.39850
H78 H 0.34690 1.23380 0.42380
C79 C 0.3258(15) 1.066(5) 0.4185(15)
H79 H 0.32690 0.99880 0.40100
H80 H 0.33660 1.03610 0.44040
H81 H 0.29960 1.08140 0.42350
C80 C 0.327(2) 1.252(8) 0.3759(18)
H82 H 0.34400 1.32370 0.37060
H83 H 0.33190 1.19420 0.35350
H84 H 0.30440 1.27110 0.37750
Zn3? Zn 0.7525(2) 1.1818(13) 0.5429(2)
O23? O 0.2981(5) 0.485(3) 0.2613(7)
O24? O 0.5997(18) 0.593(5) 0.1580(17)
O25? O 0.718(3) 0.229(9) 0.085(4)
O26? O 0.7186(16) 0.012(10) 0.076(2)
O27? O 0.4091(5) 0.0204(18) 0.1026(5)
O28? O 0.3879(3) 0.2434(13) 0.1366(4)
H85? H 0.72730 1.33900 0.49620
H86? H 0.76300 1.37860 0.50290
C81? C 0.3212(11) 0.444(3) 0.2424(9)
C82? C 0.4351(3) 0.4717(16) 0.2583(3)
C83? C 0.4116(4) 0.5094(16) 0.2846(3)
H87? H 0.42080 0.54190 0.30600
C84? C 0.3748(4) 0.4995(18) 0.2797(4)
H88? H 0.35880 0.52530 0.29770
C85? C 0.3614(3) 0.4519(17) 0.2485(4)
C86? C 0.3848(4) 0.4142(16) 0.2222(3)
H89? H 0.37560 0.38170 0.20080
C87? C 0.4216(4) 0.4241(16) 0.2271(3)
H90? H 0.43760 0.39830 0.20910
C88? C 0.5549(17) 0.744(6) 0.170(2)
H91? H 0.55580 0.76050 0.19590
H92? H 0.54990 0.82460 0.15890
C89? C 0.5879(15) 0.712(6) 0.161(2)
H93? H 0.60410 0.75350 0.17810
H94? H 0.59230 0.75290 0.13820
H95? H 0.64110 0.55300 0.19310
H96? H 0.60610 0.47210 0.20040
C90? C 0.708(4) 0.118(9) 0.085(5)
H97? H 0.39780 -0.16030 0.10600
H98? H 0.42370 -0.10970 0.13690
C91? C 0.3752(6) 0.028(2) 0.1197(7)
H99? H 0.37710 0.00940 0.14500
H100? H 0.35730 -0.02840 0.10880
H101? H 0.37160 0.20530 0.08770
H102? H 0.33990 0.19930 0.11650
O29? O 0.4081(3) 1.1372(16) 0.4158(3)
H103? H 0.39900 1.15240 0.39430
H104? H 0.39710 1.08420 0.42610
O30? O 0.3292(8) 1.125(3) 0.4193(7)
H105? H 0.31710 1.12230 0.43920
H106? H 0.31500 1.12190 0.40200
Zn1E Zn 0.76983(4) 0.41304(18) 0.31312(5)
Zn2A Zn 0.73406(6) -0.0310(3) 0.02370(8)
Zn2C Zn 0.26594(6) 1.4690(3) 0.47630(8)
O3E O 0.2226(3) 0.3581(13) 0.2189(4)
O4E O 0.2210(3) 0.5394(19) 0.1995(5)
O6C O 0.8066(3) 1.0666(14) 0.4925(4)
O16A O 0.7975(3) 1.036(2) 0.5678(5)
#END
