
#######################################################################
#
#                 Cambridge Crystallographic Data Centre
#                                CCDC
#
#######################################################################
#
# If this CIF has been generated from an entry in the Cambridge
# Structural Database, then it will include bibliographic, chemical,
# crystal, experimental, refinement or atomic coordinate data resulting
# from the CCDC's data processing and validation procedures.
#
#######################################################################

data_CSD_CIF_ISECUH
_audit_creation_date 2021-05-05
_audit_creation_method CSD-ConQuest-V1
_database_code_CSD ISECUH
_database_code_depnum_ccdc_archive 'CCDC 2011190'
_chemical_formula_sum 'C52 H52 Co3 N6 O20'
_chemical_formula_moiety
;
(C42 H22 Co3 N2 O18 2-)n,2(C3 H7 N1 O1),2(C2 H8 N1 1+)
;
_journal_coden_Cambridge 1350
_journal_year 2021
_journal_name_full 'CrystEngComm '
loop_
_publ_author_name
"Yun-Long Wu"
"Rong-Rong Yang"
"Guo-Ping Yang"
"Yang-Tian Yan"
"Xiao-Lei Su"
"Xin-Hai He"
"Yan-Yan Song"
"Zheng-Sheng Ma"
"Yao-Yu Wang"
_chemical_name_systematic
;
catena-[bis(dimethylammonium) 
bis(\m-4,4'-(pyridine-3,5-diyl)bis(benzene-1,3-dicarboxylato))-bis(\m-aqua)-tr
i-cobalt(ii) N,N-dimethylformamide unknown solvate]
;
_cell_volume   2809.835
_exptl_crystal_colour 'colorless'
_exptl_crystal_density_diffrn 1.487
_exptl_crystal_description 'block'
_diffrn_ambient_temperature 100
_refine_special_details
;
Disordered solvent molecules were not modelled and the disordered density was 
taken into account using the SQUEEZE/PLATON procedure.
;
#These two values have been output from a single CSD field.
_refine_ls_R_factor_gt 0.0478
_refine_ls_wR_factor_gt 0.0478
_symmetry_cell_setting monoclinic
_symmetry_space_group_name_H-M 'P 21/n'
_symmetry_Int_Tables_number 14
loop_
_symmetry_equiv_pos_site_id
_symmetry_equiv_pos_as_xyz
1 x,y,z
2 1/2-x,1/2+y,1/2-z
3 -x,-y,-z
4 -1/2+x,-1/2-y,-1/2+z
_cell_length_a 13.979(2)
_cell_length_b 12.436(2)
_cell_length_c 16.164(3)
_cell_angle_alpha 90
_cell_angle_beta 90.613(3)
_cell_angle_gamma 90
_cell_formula_units_Z 2
loop_
_atom_type_symbol
_atom_type_radius_bond
C 0.68
H 0.23
Co 1.26
N 0.68
O 0.68
loop_
_atom_site_label
_atom_site_type_symbol
_atom_site_fract_x
_atom_site_fract_y
_atom_site_fract_z
Co1 Co 0.50000 1.00000 1.00000
Co2 Co 0.74688(3) 0.48768(3) 0.50503(3)
O1 O 0.54578(17) 0.9709(2) 0.88374(14)
O2 O 0.69666(17) 0.9101(2) 0.88672(15)
O3 O 0.68682(17) 0.59940(19) 0.58417(15)
O4 O 0.86934(16) 0.59057(19) 0.48658(15)
H1 H 0.861(3) 0.619(3) 0.4418(16)
H2 H 0.860(3) 0.634(3) 0.5245(19)
O5 O 0.68773(17) 0.5708(2) 0.39871(15)
O6 O 0.79803(18) 0.6849(2) 0.35465(17)
O7 O 0.71156(17) 0.8750(2) 0.08338(15)
O8 O 0.56112(16) 0.85730(19) 0.03850(14)
O9 O 0.79308(19) 0.7302(2) 0.5999(2)
N1 N 0.38403(19) 0.5941(2) 0.48643(17)
C1 C 0.6147(2) 0.9196(3) 0.8547(2)
C2 C 0.5929(2) 0.8637(3) 0.7739(2)
C3 C 0.6614(2) 0.8096(3) 0.7272(2)
H3 H 0.72630 0.81070 0.74520
C4 C 0.6373(2) 0.7540(3) 0.6552(2)
C5 C 0.7131(2) 0.6900(3) 0.6092(2)
C6 C 0.7144(2) 0.6479(3) 0.3556(2)
C7 C 0.6398(2) 0.6997(3) 0.2997(2)
C8 C 0.6685(2) 0.7447(3) 0.2246(2)
H4 H 0.73460 0.74900 0.21190
C9 C 0.6003(2) 0.7833(3) 0.1682(2)
C10 C 0.6271(2) 0.8421(3) 0.0902(2)
C11 C 0.5041(3) 0.7741(3) 0.1865(2)
H5 H 0.45730 0.79630 0.14710
C12 C 0.4760(2) 0.7331(3) 0.2615(2)
H6 H 0.40980 0.72860 0.27360
C13 C 0.5431(2) 0.6980(3) 0.3200(2)
C14 C 0.5071(2) 0.6718(3) 0.4039(2)
C15 C 0.4258(2) 0.6100(3) 0.41306(19)
H7 H 0.39830 0.57720 0.36530
C16 C 0.4246(2) 0.6390(3) 0.5534(2)
H8 H 0.39560 0.62730 0.60550
C17 C 0.5063(2) 0.7014(3) 0.5509(2)
C18 C 0.5412(2) 0.7555(3) 0.6276(2)
C19 C 0.4744(3) 0.8126(3) 0.6725(2)
H9 H 0.41000 0.81540 0.65320
C20 C 0.4991(3) 0.8662(3) 0.7454(2)
H10 H 0.45190 0.90430 0.77540
C21 C 0.5477(2) 0.7181(3) 0.4741(2)
H11 H 0.60360 0.76100 0.46960
O10 O 0.7843(13) 0.9859(10) 0.4731(9)
N2 N 0.7501(8) 1.0624(8) 0.5907(8)
C22 C 0.7871(12) 0.9754(12) 0.5522(11)
H12 H 0.81210 0.91410 0.58020
C23 C 0.7572(14) 1.0544(12) 0.6834(10)
H13 H 0.74330 0.98050 0.70060
H14 H 0.71090 1.10350 0.70840
H15 H 0.82200 1.07400 0.70160
C24 C 0.7408(12) 1.1629(10) 0.5585(11)
H16 H 0.78790 1.21080 0.58460
H17 H 0.67620 1.18990 0.56910
H18 H 0.75150 1.16040 0.49880
N3 N 0.8810(6) 0.8819(5) 0.3643(4)
H19 H 0.85080 0.82070 0.34750
H20 H 0.83880 0.92120 0.39420
C25 C 0.9072(9) 0.9394(7) 0.2963(6)
H21 H 0.85380 0.94170 0.25660
H22 H 0.96250 0.90510 0.27060
H23 H 0.92410 1.01280 0.31300
C26 C 0.9716(10) 0.8500(9) 0.4230(9)
H24 H 1.00820 0.79240 0.39670
H25 H 0.94850 0.82530 0.47680
H26 H 1.01270 0.91310 0.43090
Co2B Co 0.25312(3) 0.51232(3) 0.49497(3)
O1B O 0.45422(17) 0.0291(2) 0.11626(14)
O2B O 0.30334(17) 0.0899(2) 0.11328(15)
O3B O 0.31318(17) 0.40060(19) 0.41583(15)
O4B O 0.13066(16) 0.40943(19) 0.51342(15)
H1B H 0.139(3) 0.381(3) 0.5582(16)
H2B H 0.140(3) 0.366(3) 0.4755(19)
O5B O 0.31227(17) 0.4292(2) 0.60129(15)
O6B O 0.20197(18) 0.3151(2) 0.64535(17)
O7B O 0.28844(17) 0.1250(2) 0.91662(15)
O8B O 0.43888(16) 0.14270(19) 0.96150(14)
O9B O 0.20692(19) 0.2698(2) 0.4001(2)
N1B N 0.61597(19) 0.4059(2) 0.51357(17)
C1B C 0.3853(2) 0.0804(3) 0.1453(2)
C2B C 0.4071(2) 0.1363(3) 0.2261(2)
C3B C 0.3386(2) 0.1904(3) 0.2728(2)
H3B H 0.27370 0.18930 0.25480
C4B C 0.3627(2) 0.2460(3) 0.3448(2)
C5B C 0.2869(2) 0.3100(3) 0.3908(2)
C6B C 0.2856(2) 0.3521(3) 0.6444(2)
C7B C 0.3602(2) 0.3003(3) 0.7003(2)
C8B C 0.3315(2) 0.2553(3) 0.7754(2)
H4B H 0.26540 0.25100 0.78810
C9B C 0.3997(2) 0.2167(3) 0.8318(2)
C10B C 0.3729(2) 0.1579(3) 0.9098(2)
C11B C 0.4959(3) 0.2259(3) 0.8135(2)
H5B H 0.54270 0.20370 0.85290
C12B C 0.5240(2) 0.2669(3) 0.7385(2)
H6B H 0.59020 0.27140 0.72640
C13B C 0.4569(2) 0.3020(3) 0.6800(2)
C14B C 0.4929(2) 0.3282(3) 0.5961(2)
C15B C 0.5742(2) 0.3900(3) 0.58694(19)
H7B H 0.60170 0.42280 0.63470
C16B C 0.5754(2) 0.3610(3) 0.4466(2)
H8B H 0.60440 0.37270 0.39450
C17B C 0.4937(2) 0.2986(3) 0.4491(2)
C18B C 0.4588(2) 0.2445(3) 0.3724(2)
C19B C 0.5256(3) 0.1874(3) 0.3275(2)
H9B H 0.59000 0.18460 0.34680
C20B C 0.5009(3) 0.1338(3) 0.2546(2)
H10B H 0.54810 0.09570 0.22460
C21B C 0.4523(2) 0.2819(3) 0.5259(2)
H11B H 0.39640 0.23900 0.53040
Co1* Co 0.50000 0.00000 0.00000
Co1** Co 0.50000 0.00000 1.00000
Co1*** Co 0.50000 1.00000 0.00000
Co1A Co 0.00000 0.50000 0.50000
Co1A* Co 1.00000 0.50000 0.50000
Co2A Co 0.75312(3) 0.98768(3) -0.00503(3)
Co2A* Co 0.75312(3) 0.98768(3) 0.99497(3)
Co2C Co 0.24688(3) 0.01232(3) 0.00503(3)
Co2C* Co 0.24688(3) 0.01232(3) 1.00503(3)
O1B* O 0.45422(17) 1.0291(2) 1.11626(14)
O2A O 0.80334(17) 0.4101(2) 0.61328(15)
O2C O 0.19666(17) 0.5899(2) 0.38672(15)
O4A O 0.63066(16) 1.09057(19) 1.01342(15)
O4C O 0.36934(16) 0.90943(19) 0.98658(15)
O7A O 0.78844(17) 0.3750(2) 0.41662(15)
O7C O 0.21156(17) 0.6250(2) 0.58338(15)
O8* O 0.56112(16) 0.85730(19) 1.03850(14)
O8B* O 0.43888(16) 1.14270(19) 0.96150(14)
#END
