
#######################################################################
#
#                 Cambridge Crystallographic Data Centre
#                                CCDC
#
#######################################################################
#
# If this CIF has been generated from an entry in the Cambridge
# Structural Database, then it will include bibliographic, chemical,
# crystal, experimental, refinement or atomic coordinate data resulting
# from the CCDC's data processing and validation procedures.
#
#######################################################################

data_CSD_CIF_ISIWUD
_audit_creation_date 2011-08-15
_audit_creation_method CSD-ConQuest-V1
_database_code_CSD ISIWUD
_database_code_depnum_ccdc_archive 'CCDC 808504'
_chemical_formula_sum 'C66 H85 Dy2 Mo24 N9 O106 P2'
_chemical_formula_moiety
;
(C60 H68 Dy2 N6 O22 6+)n,2n(Mo12 O40 P1 3-),3n(C2 H3 N1),4n(H2 O1)
;
_journal_coden_Cambridge 222
_journal_volume 40
_journal_year 2011
_journal_page_first 5971
_journal_name_full 'Dalton Trans. '
loop_
_publ_author_name
"Xiu-Li Hao"
"Ming-Fa Luo"
"Wei Yao"
"Yang-Guang Li"
"Yong-Hui Wang"
"En-Bo Wang"
_chemical_name_systematic
;
catena-[tris(\m~2~-1,4-bis(4-Carboxylatopyridylmethyl)benzene)-decaaqua-di-dys
prosium 
(\m~12~-phosphato)-tetracosakis(\m~2~-oxo)-dodecaoxo-dodeca-molybdenum 
acetonitrile solvate tetrahydrate]
;
_cell_volume   3638.957
_exptl_crystal_colour 'yellow'
_exptl_crystal_density_diffrn 2.46
_exptl_special_details
;
isostructural with the Er and Tb analogues

;
_exptl_crystal_description 'block'
_diffrn_ambient_temperature 150
_refine_special_details
;
One water molecule is disordered over two sites with occupancies 0.52:0.48.

;
#These two values have been output from a single CSD field.
_refine_ls_R_factor_gt 0.0595
_refine_ls_wR_factor_gt 0.0595
_symmetry_cell_setting triclinic
_symmetry_space_group_name_H-M 'P -1'
_symmetry_Int_Tables_number 2
loop_
_symmetry_equiv_pos_site_id
_symmetry_equiv_pos_as_xyz
1 x,y,z
2 -x,-y,-z
_cell_length_a 11.900(2)
_cell_length_b 15.167(3)
_cell_length_c 21.059(4)
_cell_angle_alpha 100.61(3)
_cell_angle_beta 90.83(3)
_cell_angle_gamma 102.67(3)
_cell_formula_units_Z 1
loop_
_atom_type_symbol
_atom_type_radius_bond
C 0.68
H 0.23
Dy 1.93
Mo 1.38
N 0.68
O 0.68
P 1.05
loop_
_atom_site_label
_atom_site_type_symbol
_atom_site_fract_x
_atom_site_fract_y
_atom_site_fract_z
Dy1 Dy 0.26628(6) 0.86565(5) 0.40414(3)
Mo1 Mo 0.64888(10) 0.49357(7) 0.18545(6)
Mo2 Mo 0.81013(9) 0.34011(8) 0.36124(5)
Mo3 Mo 0.92040(9) 0.51512(7) 0.28069(5)
Mo4 Mo 0.87085(10) 0.09693(7) 0.19528(5)
Mo5 Mo 0.91109(9) 0.46438(7) 0.10247(5)
Mo6 Mo 0.48986(9) 0.27768(7) 0.11817(5)
Mo7 Mo 0.53163(9) 0.34148(8) 0.28270(5)
Mo8 Mo 0.61818(9) 0.07636(7) 0.10701(5)
Mo9 Mo 1.04237(9) 0.32843(8) 0.26829(5)
Mo10 Mo 0.73760(9) 0.26218(6) 0.01903(4)
Mo11 Mo 0.62553(9) 0.12330(7) 0.27243(5)
Mo12 Mo 0.99571(8) 0.26021(7) 0.09133(5)
P1 P 0.7666(2) 0.29797(19) 0.19065(13)
O1 O 0.5631(7) 0.0541(6) 0.1928(4)
O2 O 1.0543(7) 0.3166(6) 0.1808(4)
O3 O 0.5418(7) 0.2112(6) 0.2751(4)
O4 O 0.7792(8) 0.5254(6) 0.2522(4)
O5 O 0.7452(8) 0.0337(6) 0.1272(4)
O6 O 0.9427(9) 0.0132(6) 0.1941(5)
O7 O 0.7393(7) 0.2187(6) 0.3327(4)
O8 O 0.6176(9) 0.5958(6) 0.1870(5)
O9 O 0.9633(7) 0.1973(6) 0.2487(4)
O10 O 0.9662(8) 0.5560(6) 0.0693(4)
O11 O 0.5131(7) 0.1619(5) 0.1167(4)
O12 O 1.0509(7) 0.4542(6) 0.2863(4)
O13 O 0.8263(6) 0.3135(5) 0.1291(4)
O14 O 0.5625(9) 0.0589(7) 0.3224(5)
O15 O 0.9591(7) 0.3252(6) 0.3504(4)
O16 O 0.5360(8) -0.0188(6) 0.0621(4)
O17 O 0.8721(8) 0.4711(6) 0.3546(4)
O18 O 0.5309(7) 0.4150(6) 0.1314(4)
O19 O 0.7601(7) 0.4883(6) 0.1270(4)
O20 O 0.9882(8) 0.6242(6) 0.3110(4)
O21 O 0.6576(6) 0.3354(5) 0.1935(4)
O22 O 0.6073(7) 0.2891(5) 0.0543(4)
O23 O 0.8019(8) 0.3536(7) 0.4421(4)
O24 O 0.3693(7) 0.2574(7) 0.0714(4)
O25 O 0.4267(7) 0.3464(7) 0.3341(5)
O26 O 0.6896(7) 0.1429(5) 0.0487(4)
O27 O 0.8486(7) 0.3478(5) 0.2494(4)
O28 O 0.7627(7) 0.0693(6) 0.2552(4)
O29 O 0.9553(7) 0.5014(5) 0.1886(4)
O30 O 0.5578(7) 0.4571(6) 0.2583(4)
O31 O 1.0154(6) 0.3908(5) 0.0835(4)
O32 O 0.7342(6) 0.1952(5) 0.1907(3)
O33 O 0.6999(8) 0.2300(6) -0.0604(3)
O34 O 0.9372(7) 0.1574(5) 0.1240(3)
O35 O 1.1168(7) 0.2419(6) 0.0586(4)
O36 O 0.8906(6) 0.2308(5) 0.0205(4)
O37 O 0.4350(7) 0.2929(6) 0.2012(4)
O38 O 0.8137(7) 0.3840(5) 0.0258(4)
O39 O 1.1733(7) 0.3243(7) 0.2950(4)
O40 O 0.6634(7) 0.3689(6) 0.3359(4)
O41 O 0.3735(13) 0.9441(10) 0.5026(7)
H1 H 0.42710 0.92110 0.51480
H2 H 0.33740 0.96040 0.53570
O42 O 0.4626(9) 0.8839(8) 0.3798(6)
H3 H 0.49970 0.90370 0.34920
H4 H 0.50730 0.86170 0.40100
O43 O 0.0908(10) 0.8352(8) 0.3396(6)
H5 H 0.05790 0.78140 0.31970
H6 H 0.05220 0.87240 0.33000
O44 O 0.3351(10) 0.7571(8) 0.4543(5)
H7 H 0.29970 0.73160 0.48330
H8 H 0.34200 0.71470 0.42300
O45 O 0.1884(11) 0.9944(7) 0.4487(5)
H9 H 0.12600 1.00110 0.46600
H10 H 0.20880 1.03720 0.42740
O46 O 0.1269(10) 0.8113(9) 0.4663(7)
O47 O 0.0165(14) 0.9012(11) 0.5098(8)
O48 O 0.3046(10) 0.9670(8) 0.3360(5)
O49 O 0.2648(14) 1.1044(10) 0.3584(5)
O50 O 0.2619(8) 0.7398(6) 0.3199(4)
O51 O 0.3255(12) 0.6275(7) 0.3522(5)
C1 C 0.3931(9) 0.4845(8) 0.0259(6)
C2 C 0.2791(10) 0.6080(8) 0.2422(5)
C3 C 0.2834(13) 0.9674(9) 0.1408(7)
H11 H 0.29760 0.91690 0.11050
C4 C -0.391(1) 0.5070(8) 0.5276(6)
C5 C 0.4668(10) 0.5684(8) 0.0407(6)
H12 H 0.44380 0.61730 0.06870
C6 C 0.3032(12) 0.4773(10) 0.1676(7)
H13 H 0.32400 0.41950 0.15920
C7 C 0.2279(11) 1.1104(9) 0.1616(6)
H14 H 0.20630 1.16010 0.14680
C8 C 0.2388(11) 1.1089(9) 0.2265(6)
H15 H 0.22080 1.15830 0.25640
C9 C 0.2374(12) 0.6438(9) 0.1910(7)
H16 H 0.21420 0.70070 0.19900
C10 C 0.2321(11) 0.5921(9) 0.1286(6)
H17 H 0.20330 0.61290 0.09310
C11 C 0.1126(11) 1.0164(8) 0.0260(6)
C12 C 0.2738(11) 1.0414(9) 0.2510(7)
C13 C -0.2014(10) 0.6816(9) 0.5681(6)
H18 H -0.26260 0.68990 0.59540
C14 C 0.2734(11) 0.4652(9) 0.0500(6)
H19 H 0.22090 0.48540 0.02160
H20 H 0.24590 0.39800 0.04690
C15 C 0.3088(11) 0.526(1) 0.2296(6)
H21 H 0.33410 0.50160 0.26430
C16 C 0.2970(12) 0.9687(9) 0.2045(8)
H22 H 0.32270 0.91990 0.21850
C17 C 0.4260(11) 0.4159(9) -0.0161(6)
H23 H 0.37460 0.35730 -0.02820
C18 C -0.0338(12) 0.6555(9) 0.4870(6)
H24 H 0.02510 0.64480 0.45860
C19 C -0.0432(13) 0.7453(10) 0.5126(7)
C20 C 0.2896(11) 0.6638(9) 0.3114(6)
C21 C 0.2384(12) 1.0352(10) 0.0500(6)
H25 H 0.27450 0.98700 0.02630
H26 H 0.27990 1.09530 0.04090
C22 C -0.1080(11) 0.5859(9) 0.5030(6)
H27 H -0.10260 0.52490 0.48480
C23 C 0.0861(13) 1.0547(8) -0.0268(6)
H28 H 0.14600 1.09250 -0.04540
C24 C 0.0250(12) 0.9619(9) 0.0514(6)
H29 H 0.04140 0.93500 0.08680
C25 C 0.2831(14) 1.0374(12) 0.3212(7)
C26 C -0.4058(13) 0.5262(11) 0.4652(6)
H30 H -0.34060 0.54520 0.44140
C27 C -0.2718(12) 0.5166(9) 0.5602(7)
H31 H -0.27730 0.52470 0.60770
H32 H -0.24330 0.46020 0.54510
C28 C -0.1274(13) 0.7556(10) 0.5548(7)
H33 H -0.13370 0.81560 0.57480
C29 C -0.4864(11) 0.4827(10) 0.5604(7)
H34 H -0.47730 0.47150 0.60290
C30 C 0.038(2) 0.8260(15) 0.4954(11)
N1 N 0.2497(8) 1.0366(8) 0.1195(5)
N2 N -0.1901(9) 0.5980(7) 0.5438(5)
N3 N 0.2676(8) 0.5129(7) 0.1186(5)
N4 N 0.518(4) 0.821(3) 0.2416(14)
C31 C 0.546(3) 0.821(2) 0.1921(14)
C32 C 0.593(3) 0.817(2) 0.1316(13)
H35 H 0.67580 0.81780 0.13640
H36 H 0.58330 0.86930 0.11320
H37 H 0.55410 0.75930 0.10280
N5 N 0.048(2) 0.7818(18) 0.1945(12)
C33 C -0.0243(18) 0.7620(15) 0.1582(11)
C34 C -0.123(2) 0.7319(18) 0.1162(13)
H38 H -0.10260 0.74340 0.07310
H39 H -0.18140 0.76530 0.13230
H40 H -0.15260 0.66580 0.11390
N6 N 0.258(2) 1.015(2) 0.6085(13)
C35 C 0.172(3) 1.008(3) 0.628(2)
C36 C 0.065(3) 1.015(3) 0.6544(16)
O52 O 0.511(3) 0.775(2) 0.5631(15)
O53 O 0.781(4) 0.739(3) 0.3570(19)
O54 O 0.636(4) 0.820(3) 0.459(2)
O55? O 0.661(4) 0.696(3) 0.349(2)
Dy1A Dy -1.26628(6) 0.13435(5) 0.59586(3)
Dy1A* Dy -0.26628(6) 1.13435(5) -0.40414(3)
Dy1A** Dy 0.73372(6) 0.13435(5) -0.40414(3)
O41A O -1.3735(13) 0.0559(10) 0.4974(7)
H1A H -1.42710 0.07890 0.48520
H2A H -1.33740 0.03960 0.46430
O42A O -1.4626(9) 0.1161(8) 0.6202(6)
H3A H -1.49970 0.09630 0.65080
H4A H -1.50730 0.13830 0.59900
O43A O -1.0908(10) 0.1648(8) 0.6604(6)
H5A H -1.05790 0.21860 0.68030
H6A H -1.05220 0.12760 0.67000
O44A O -1.3351(10) 0.2429(8) 0.5457(5)
H7A H -1.29970 0.26840 0.51670
H8A H -1.34200 0.28530 0.57700
O45A O -1.1884(11) 0.0056(7) 0.5513(5)
H9A H -1.12600 -0.00110 0.53400
H10A H -1.20880 -0.03720 0.57260
O46A O -1.1269(10) 0.1887(9) 0.5337(7)
O47A O -1.0165(14) 0.0988(11) 0.4902(8)
O48A O -0.3046(10) 1.0330(8) -0.3360(5)
O48A* O -1.3046(10) 0.0330(8) 0.6640(5)
O49A O -0.2648(14) 0.8956(10) -0.3584(5)
O50A O 0.7381(8) 0.2602(6) -0.3199(4)
O50A* O -1.2619(8) 0.2602(6) 0.6801(4)
O51A O 0.6745(12) 0.3725(7) -0.3522(5)
C1A C 0.6069(9) 0.5155(8) -0.0259(6)
C2A C 0.7209(10) 0.3920(8) -0.2422(5)
C3A C -0.2834(13) 1.0326(9) -0.1408(7)
H11A H -0.29760 1.08310 -0.11050
C4A C -0.609(1) 0.4930(8) 0.4724(6)
C5A C 0.5332(10) 0.4316(8) -0.0407(6)
H12A H 0.55620 0.38270 -0.06870
C6A C 0.6968(12) 0.5227(10) -0.1676(7)
H13A H 0.67600 0.58050 -0.15920
C7A C -0.2279(11) 0.8896(9) -0.1616(6)
H14A H -0.20630 0.83990 -0.14680
C8A C -0.2388(11) 0.8911(9) -0.2265(6)
H15A H -0.22080 0.84170 -0.25640
C9A C 0.7626(12) 0.3562(9) -0.1910(7)
H16A H 0.78580 0.29930 -0.19900
C10A C 0.7679(11) 0.4079(9) -0.1286(6)
H17A H 0.79670 0.38710 -0.09310
C11A C -0.1126(11) 0.9836(8) -0.0260(6)
C12A C -0.2738(11) 0.9586(9) -0.2510(7)
C13A C -0.7986(10) 0.3184(9) 0.4319(6)
H18A H -0.73740 0.31010 0.40460
C14A C 0.7266(11) 0.5348(9) -0.0500(6)
H19A H 0.77910 0.51460 -0.02160
H20A H 0.75410 0.60200 -0.04690
C15A C 0.6912(11) 0.474(1) -0.2296(6)
H21A H 0.66590 0.49840 -0.26430
C16A C -0.2970(12) 1.0313(9) -0.2045(8)
H22A H -0.32270 1.08010 -0.21850
C17A C 0.5740(11) 0.5841(9) 0.0161(6)
H23A H 0.62540 0.64270 0.02820
C18A C -0.9662(12) 0.3445(9) 0.5130(6)
H24A H -1.02510 0.35520 0.54140
C19A C -0.9568(13) 0.2547(10) 0.4874(7)
C20A C 0.7104(11) 0.3362(9) -0.3114(6)
C21A C -0.2384(12) 0.9648(10) -0.0500(6)
H25A H -0.27450 1.01300 -0.02630
H26A H -0.27990 0.90470 -0.04090
C22A C -0.8920(11) 0.4141(9) 0.4970(6)
H27A H -0.89740 0.47510 0.51520
C23A C -0.0861(13) 0.9453(8) 0.0268(6)
H28A H -0.14600 0.90750 0.04540
C24A C -0.0250(12) 1.0381(9) -0.0514(6)
H29A H -0.04140 1.06500 -0.08680
C25A C -0.2831(14) 0.9626(12) -0.3212(7)
C26A C -0.5942(13) 0.4738(11) 0.5348(6)
H30A H -0.65940 0.45480 0.55860
C27A C -0.7282(12) 0.4834(9) 0.4398(7)
H31A H -0.72270 0.47530 0.39230
H32A H -0.75670 0.53980 0.45490
C28A C -0.8726(13) 0.2444(10) 0.4452(7)
H33A H -0.86630 0.18440 0.42520
C29A C -0.5136(11) 0.5173(10) 0.4396(7)
H34A H -0.52270 0.52850 0.39710
C30A C -1.038(2) 0.1740(15) 0.5046(11)
N1A N -0.2497(8) 0.9634(8) -0.1195(5)
N2A N -0.8099(9) 0.4020(7) 0.4562(5)
N3A N 0.7324(8) 0.4871(7) -0.1186(5)
#END
