
#######################################################################
#
#                 Cambridge Crystallographic Data Centre
#                                CCDC
#
#######################################################################
#
# If this CIF has been generated from an entry in the Cambridge
# Structural Database, then it will include bibliographic, chemical,
# crystal, experimental, refinement or atomic coordinate data resulting
# from the CCDC's data processing and validation procedures.
#
#######################################################################

data_CSD_CIF_ISIYUF01
_audit_creation_date 2011-08-14
_audit_creation_method CSD-ConQuest-V1
_database_code_CSD ISIYUF01
_database_code_depnum_ccdc_archive 'CCDC 812093'
_chemical_formula_sum 'C28 H52 Er4 N4 O32'
_chemical_formula_moiety
;
(C16 H16 Er4 O32 4-)n,2n(C6 H18 N2 2+)
;
_journal_coden_Cambridge 222
_journal_volume 40
_journal_year 2011
_journal_page_first 6038
_journal_name_full 'Dalton Trans. '
loop_
_publ_author_name
"Mengyuan Li"
"Bin Liu"
"Bingwu Wang"
"Zheming Wang"
"Song Gao"
"M.Kurmoo"
_chemical_name_systematic
;
catena-[bis(N,N,N',N'-Tetramethylethane-1,2-diammonium) 
dodecakis(\m~2~-formato)-tetrakis(formato)-tetra-erbium(iii)]
;
_cell_volume   4664.106
_exptl_crystal_colour 'pink'
_exptl_crystal_density_diffrn 2.315
_exptl_special_details
;
undergoes a phase-transition at -70 C

;
_exptl_crystal_description 'plate'
_diffrn_ambient_temperature 160
#These two values have been output from a single CSD field.
_refine_ls_R_factor_gt 0.0339
_refine_ls_wR_factor_gt 0.0339
_symmetry_cell_setting monoclinic
_symmetry_space_group_name_H-M 'P 21/c'
_symmetry_Int_Tables_number 14
loop_
_symmetry_equiv_pos_site_id
_symmetry_equiv_pos_as_xyz
1 x,y,z
2 -x,1/2+y,1/2-z
3 -x,-y,-z
4 x,-1/2-y,-1/2+z
_cell_length_a 14.6163(2)
_cell_length_b 26.0625(3)
_cell_length_c 12.6784(1)
_cell_angle_alpha 90
_cell_angle_beta 105.0459(5)
_cell_angle_gamma 90
_cell_formula_units_Z 4
loop_
_atom_type_symbol
_atom_type_radius_bond
C 0.68
H 0.23
Er 1.65
N 0.68
O 0.68
loop_
_atom_site_label
_atom_site_type_symbol
_atom_site_fract_x
_atom_site_fract_y
_atom_site_fract_z
Er1 Er 0.225334(19) 0.465375(12) 0.30476(2)
Er2 Er 0.248742(19) 0.215814(13) 0.181509(19)
Er3 Er 0.281690(19) 0.714370(12) 0.196050(19)
Er4 Er 0.243790(19) 0.534730(12) -0.19186(2)
O1 O 0.3756(3) 0.4707(2) 0.4341(4)
O2 O 0.3750(3) 0.48310(17) 0.2659(3)
O3 O 0.1036(3) 0.25512(18) 0.0685(3)
O4 O 0.1017(3) 0.22478(17) 0.2283(3)
O5 O 0.1311(3) 0.7203(2) 0.0719(4)
O6 O 0.1340(3) 0.73475(17) 0.2391(3)
O7 O 0.3886(3) 0.4996(2) -0.0761(4)
O8 O 0.3910(3) 0.52367(18) -0.2400(4)
O9 O 0.2637(3) 0.38480(16) 0.2519(3)
O10 O 0.2667(3) 0.30108(16) 0.2304(3)
O11 O 0.4005(3) 0.19241(18) 0.2122(4)
O12 O 0.5538(3) 0.20886(19) 0.2594(3)
O13 O 0.2967(3) 0.80205(16) 0.2308(3)
O14 O 0.2745(3) 0.88471(16) 0.2457(3)
O15 O 0.2154(3) 0.55303(16) 0.2663(3)
O16 O 0.2468(3) 0.63508(17) 0.2586(4)
O17 O 0.1870(3) 0.46793(17) 0.1125(3)
O18 O 0.1914(3) 0.49103(16) -0.0533(3)
O19 O 0.1841(3) 0.51278(16) 0.4448(3)
O20 O 0.1884(3) 0.53382(17) 0.6154(3)
O21 O 0.0631(3) 0.45692(17) 0.2467(3)
O22 O -0.0894(3) 0.44186(18) 0.2253(3)
O23 O 0.1922(3) 0.40598(17) 0.4273(3)
O24 O 0.2023(3) 0.33819(17) 0.5326(3)
O25 O 0.3026(3) 0.21706(17) 0.3761(3)
O26 O 0.3022(3) 0.24204(16) 0.5425(3)
O27 O 0.2285(3) 0.13384(17) 0.2441(4)
O28 O 0.2292(3) 0.05014(16) 0.2603(3)
O29 O 0.3023(3) 0.65262(17) 0.0726(4)
O30 O 0.2773(4) 0.58902(17) -0.0450(4)
O31 O 0.3224(3) 0.75930(16) 0.0536(3)
O32 O 0.3278(3) 0.78028(17) -0.1127(3)
C1 C 0.4174(4) 0.4838(3) 0.3637(5)
H1 H 0.48180 0.49420 0.38560
C2 C 0.0623(4) 0.2468(3) 0.1417(5)
H2 H -0.00150 0.25780 0.13060
C3 C 0.0915(5) 0.7341(3) 0.1422(5)
H3 H 0.02700 0.74440 0.12070
C4 C 0.4305(5) 0.5048(2) -0.1482(5)
H4 H 0.49470 0.49430 -0.13390
C5 C 0.2261(5) 0.3413(2) 0.2425(5)
H5 H 0.16180 0.33910 0.24470
C6 C 0.4857(5) 0.1811(3) 0.2270(5)
H6 H 0.49890 0.14660 0.21100
C7 C 0.2484(4) 0.8398(2) 0.2457(4)
H7 H 0.18790 0.83330 0.25770
C8 C 0.2680(5) 0.5891(2) 0.2575(5)
H8 H 0.32910 0.58090 0.24940
C9 C 0.2252(4) 0.4896(2) 0.0477(5)
H9 H 0.28410 0.50630 0.07710
C10 C 0.2163(4) 0.5094(2) 0.5465(5)
H10 H 0.26670 0.48580 0.57270
C11 C -0.0043(4) 0.4308(3) 0.2523(5)
H11 H 0.01050 0.39730 0.28130
C12 C 0.2370(5) 0.3751(3) 0.4951(5)
H12 H 0.30350 0.38010 0.52060
C13 C 0.2659(4) 0.2404(2) 0.4403(5)
H13 H 0.20780 0.25790 0.41130
C14 C 0.2656(5) 0.0918(3) 0.2489(5)
H14 H 0.32920 0.09090 0.24330
C15 C 0.2520(5) 0.6267(3) -0.0024(5)
H15 H 0.18780 0.63710 -0.02940
C16 C 0.2923(4) 0.7571(2) -0.0474(5)
H16 H 0.23830 0.73620 -0.07670
N1 N 0.5481(4) 0.3418(2) 0.3730(5)
H17 H 0.59350 0.31800 0.36580
N2 N 0.4357(4) 0.3420(2) 0.0661(5)
H18 H 0.39790 0.31590 0.02770
C17 C 0.5050(4) 0.3646(3) 0.2585(5)
H19 H 0.45260 0.38820 0.26120
H20 H 0.55390 0.38450 0.23480
C18 C 0.4689(5) 0.3227(3) 0.1794(6)
H21 H 0.51990 0.29720 0.18320
H22 H 0.41590 0.30510 0.19970
C19 C 0.5978(5) 0.3823(3) 0.4452(5)
H23 H 0.64220 0.39960 0.41080
H24 H 0.63280 0.36730 0.51480
H25 H 0.55170 0.40720 0.45820
C20 C 0.4800(5) 0.3143(3) 0.4199(6)
H26 H 0.44860 0.28740 0.36910
H27 H 0.43240 0.33840 0.43220
H28 H 0.51350 0.29860 0.48940
C21 C 0.5143(5) 0.3477(4) 0.0130(6)
H29 H 0.48930 0.36070 -0.06150
H30 H 0.54430 0.31430 0.01040
H31 H 0.56110 0.37190 0.05490
C22 C 0.3735(5) 0.3876(3) 0.0516(5)
H32 H 0.35590 0.39770 -0.02550
H33 H 0.40720 0.41590 0.09610
H34 H 0.31620 0.37940 0.07470
N3 N 0.0693(4) 0.6006(2) 0.3988(4)
H35 H 0.10650 0.57180 0.39740
N4 N -0.0520(4) 0.5840(2) 0.0985(4)
H36 H -0.09520 0.55800 0.07040
C23 C 0.0283(4) 0.6180(3) 0.2817(5)
H37 H -0.01520 0.64720 0.27990
H38 H 0.07990 0.62930 0.24970
C24 C -0.0238(4) 0.5747(3) 0.2175(5)
H39 H 0.01660 0.54370 0.23220
H40 H -0.08130 0.56770 0.24250
C25 C 0.1316(5) 0.6414(3) 0.4602(5)
H41 H 0.17980 0.65040 0.42200
H42 H 0.16280 0.62900 0.53380
H43 H 0.09360 0.67180 0.46550
C26 C -0.0052(5) 0.5861(3) 0.4544(6)
H44 H -0.04520 0.55900 0.41250
H45 H -0.04420 0.61610 0.45900
H46 H 0.02490 0.57350 0.52810
C27 C 0.0268(5) 0.5760(3) 0.0463(6)
H47 H 0.00440 0.58290 -0.03220
H48 H 0.04910 0.54050 0.05770
H49 H 0.07890 0.59940 0.07900
C28 C -0.1043(5) 0.6318(3) 0.0644(5)
H50 H -0.11900 0.63490 -0.01530
H51 H -0.06540 0.66100 0.09820
H52 H -0.16330 0.63140 0.08750
Er2C Er 0.248742(19) 0.284186(13) 0.681509(19)
Er3A Er 0.718310(19) 0.214370(12) 0.303950(19)
Er3C Er 0.281690(19) 0.785630(12) -0.303950(19)
Er4C Er 0.243790(19) 0.965270(12) 0.30814(2)
Er4* Er 0.243790(19) 0.534730(12) 0.80814(2)
Er4B Er -0.243790(19) 0.465270(12) 0.19186(2)
Er4C* Er 0.243790(19) -0.034730(12) 0.30814(2)
O12A O 0.4462(3) 0.70886(19) 0.2406(3)
O14C O 0.2745(3) 0.61529(16) -0.2543(3)
O20* O 0.1884(3) 0.53382(17) -0.3846(3)
O22B O 0.0894(3) 0.55814(18) -0.2253(3)
O24C O 0.2023(3) 0.16181(17) 0.0326(3)
O26C O 0.3022(3) 0.25796(16) 0.0425(3)
O28C O 0.2292(3) 0.44986(16) -0.2397(3)
O32C O 0.3278(3) 0.71972(17) 0.3873(3)
#END
