
#######################################################################
#
#                 Cambridge Crystallographic Data Centre
#                                CCDC
#
#######################################################################
#
# If this CIF has been generated from an entry in the Cambridge
# Structural Database, then it will include bibliographic, chemical,
# crystal, experimental, refinement or atomic coordinate data resulting
# from the CCDC's data processing and validation procedures.
#
#######################################################################

data_CSD_CIF_ITATEE
_audit_creation_date 2016-08-17
_audit_creation_method CSD-ConQuest-V1
_database_code_CSD ITATEE
_database_code_depnum_ccdc_archive 'CCDC 1415242'
_chemical_formula_sum 'C52 H88 Bi2 Br8 N6 O2'
_chemical_formula_moiety
;
(C20 H16 Bi2 Br8 N4 O2 2-)n,2n(C16 H36 N1 1+)
;
_journal_coden_Cambridge 179
_journal_volume 55
_journal_year 2016
_journal_page_first 7998
_journal_name_full 'Angew.Chem.,Int.Ed. '
loop_
_publ_author_name
"O.Toma"
"M.Allain"
"F.Meinardi"
"A.Forni"
"C.Botta"
"N.Mercier"
_chemical_name_systematic
;
catena-(bis(tetra-n-butylammonium) 
bis(\m-4-(4-pyridyl)pyridine-N-oxide)-octabromo-di-bismuth)
;
_cell_volume   1719.282
_exptl_crystal_colour 'yellow'
_exptl_crystal_density_diffrn 1.822
_exptl_special_details
;
Luminescent

;
_diffrn_ambient_temperature 293
#These two values have been output from a single CSD field.
_refine_ls_R_factor_gt 0.0366
_refine_ls_wR_factor_gt 0.0366
_symmetry_cell_setting triclinic
_symmetry_space_group_name_H-M 'P -1'
_symmetry_Int_Tables_number 2
loop_
_symmetry_equiv_pos_site_id
_symmetry_equiv_pos_as_xyz
1 x,y,z
2 -x,-y,-z
_cell_length_a 8.7494(4)
_cell_length_b 13.0571(6)
_cell_length_c 16.4423(10)
_cell_angle_alpha 76.809(4)
_cell_angle_beta 77.148(4)
_cell_angle_gamma 72.405(3)
_cell_formula_units_Z 1
loop_
_atom_type_symbol
_atom_type_radius_bond
C 0.68
H 0.23
Bi 1.48
Br 1.21
N 0.68
O 0.68
loop_
_atom_site_label
_atom_site_type_symbol
_atom_site_fract_x
_atom_site_fract_y
_atom_site_fract_z
C1 C 0.2216(8) 0.7545(5) 0.1719(4)
H1 H 0.12000 0.74140 0.17990
C2 C 0.3117(7) 0.7192(5) 0.2360(4)
H2 H 0.27100 0.68130 0.28730
C3 C 0.4622(7) 0.7389(4) 0.2260(3)
C4 C 0.5132(7) 0.7987(5) 0.1487(4)
H3 H 0.61250 0.81530 0.13940
C5 C 0.4199(8) 0.8335(5) 0.0859(4)
H4 H 0.45460 0.87530 0.03530
C6 C 0.5652(7) 0.6948(4) 0.2922(3)
C7 C 0.5457(7) 0.6060(4) 0.3541(3)
H5 H 0.45950 0.57650 0.35800
C8 C 0.6543(7) 0.5614(5) 0.4098(3)
H6 H 0.64050 0.50050 0.44990
C9 C 0.7958(8) 0.6903(5) 0.3521(4)
H7 H 0.87930 0.72090 0.35150
C10 C 0.6913(8) 0.7373(5) 0.2939(4)
H8 H 0.70600 0.79890 0.25500
N1 N 0.2807(6) 0.8081(4) 0.0971(3)
N2 N 0.7789(6) 0.6010(4) 0.4096(3)
O1 O 0.1981(5) 0.8319(3) 0.0330(2)
Br1 Br -0.18998(9) 0.88285(7) -0.03908(4)
Br2 Br 0.15599(10) 1.02715(6) -0.17171(4)
Br3 Br 1.21353(9) 0.44838(6) 0.34888(4)
Br4 Br 1.10260(9) 0.69149(5) 0.47521(4)
Bi1 Bi 0.00000 1.00000 0.00000
Bi2 Bi 1.00000 0.50000 0.50000
C11 C 0.8733(10) 0.3897(6) 0.2419(5)
H9 H 0.77300 0.44760 0.24330
H10 H 0.92110 0.38770 0.29030
C12 C 0.9864(12) 0.4181(7) 0.1634(6)
H11 H 0.95760 0.40010 0.11570
H12 H 1.09650 0.37530 0.16920
C13 C 0.9791(18) 0.5383(9) 0.1465(7)
H13 H 0.86540 0.57830 0.14940
H14 H 1.01700 0.55210 0.19310
C14 C 1.055(3) 0.5801(12) 0.0788(10)
H15 H 1.03710 0.65640 0.07860
H16 H 1.01670 0.57110 0.03120
H17 H 1.16920 0.54460 0.07520
C15 C 0.9840(9) 0.1872(5) 0.2513(5)
H18 H 1.05430 0.19790 0.19720
H19 H 0.95240 0.12090 0.25550
C16 C 1.0820(12) 0.1708(7) 0.3217(6)
H20 H 1.11780 0.23550 0.31740
H21 H 1.01380 0.15960 0.37640
C17 C 1.2272(18) 0.0739(11) 0.315(1)
H22 H 1.29460 0.08710 0.26040
H23 H 1.29040 0.06870 0.35810
C18 C 1.196(2) -0.0204(13) 0.3233(12)
H24 H 1.29620 -0.07660 0.31810
H25 H 1.13650 -0.01760 0.27990
H26 H 1.13230 -0.03600 0.37800
C19 C 0.7142(11) 0.2733(8) 0.3354(5)
H27 H 0.76970 0.27170 0.38080
H28 H 0.62420 0.33860 0.33350
C20 C 0.6458(17) 0.1753(12) 0.3573(7)
H29 H 0.73190 0.10790 0.35770
H30 H 0.57650 0.17870 0.31760
C21 C 0.7505(9) 0.2806(6) 0.1794(4)
H31 H 0.83110 0.27820 0.12820
H32 H 0.71710 0.21350 0.19170
C22 C 0.6046(11) 0.3747(7) 0.1612(6)
H33 H 0.63770 0.44200 0.14230
H34 H 0.52510 0.38180 0.21250
C23 C 0.5273(13) 0.3556(11) 0.0921(7)
H35 H 0.44820 0.42210 0.07310
H36 H 0.61100 0.33780 0.04390
C24 C 0.4491(14) 0.2689(13) 0.1227(9)
H37 H 0.40260 0.25930 0.07820
H38 H 0.36480 0.28690 0.16970
H39 H 0.52750 0.20260 0.14060
N3 N 0.8321(7) 0.2823(5) 0.2518(3)
C25 C 0.527(2) 0.1868(14) 0.4650(15)
H40 H 0.59450 0.18500 0.50510
H41 H 0.43670 0.25180 0.46500
C26 C 0.495(6) 0.128(2) 0.475(3)
H42 H 0.42950 0.12100 0.52980
H43 H 0.58780 0.06590 0.47220
H44 H 0.43180 0.13190 0.43260
C1A C -0.2216(8) 1.2455(5) -0.1719(4)
H1A H -0.12000 1.25860 -0.17990
C2A C -0.3117(7) 1.2808(5) -0.2360(4)
H2A H -0.27100 1.31870 -0.28730
C3A C -0.4622(7) 1.2611(4) -0.2260(3)
C4A C -0.5132(7) 1.2013(5) -0.1487(4)
H3A H -0.61250 1.18470 -0.13940
C5A C -0.4199(8) 1.1665(5) -0.0859(4)
H4A H -0.45460 1.12470 -0.03530
C6A C -0.5652(7) 1.3052(4) -0.2922(3)
C7A C -0.5457(7) 1.3940(4) -0.3541(3)
H5A H -0.45950 1.42350 -0.35800
C8A C -0.6543(7) 1.4386(5) -0.4098(3)
H6A H -0.64050 1.49950 -0.44990
C9A C -0.7958(8) 1.3097(5) -0.3521(4)
H7A H -0.87930 1.27910 -0.35150
C10A C -0.6913(8) 1.2627(5) -0.2939(4)
H8A H -0.70600 1.20110 -0.25500
N1A N -0.2807(6) 1.1919(4) -0.0971(3)
N2A N -0.7789(6) 1.3990(4) -0.4096(3)
O1A O -0.1981(5) 1.1681(3) -0.0330(2)
Br1A Br 0.18998(9) 1.11715(7) 0.03908(4)
Br2A Br -0.15599(10) 0.97285(6) 0.17171(4)
Br3A Br 0.78647(9) 0.55162(6) 0.65112(4)
Br4A Br 0.89740(9) 0.30851(5) 0.52479(4)
N2A* N 1.2211(6) 0.3990(4) 0.5904(3)
Bi2* Bi -1.00000 1.50000 -0.50000
#END
