
#######################################################################
#
#                 Cambridge Crystallographic Data Centre
#                                CCDC
#
#######################################################################
#
# If this CIF has been generated from an entry in the Cambridge
# Structural Database, then it will include bibliographic, chemical,
# crystal, experimental, refinement or atomic coordinate data resulting
# from the CCDC's data processing and validation procedures.
#
#######################################################################

data_CSD_CIF_ITIGUQ
_audit_creation_date 2021-05-10
_audit_creation_method CSD-ConQuest-V1
_database_code_CSD ITIGUQ
_database_code_depnum_ccdc_archive 'CCDC 2048920'
_chemical_formula_sum 'C44 H44 Br4 Co2 N8 O16'
_chemical_formula_moiety
;
C24 H16 Br4 Co1 N4 O10 2-,(C10 H16 Co1 N2 O4 2+)n,C10 H8 N2,2(H2 O1)
;
_journal_coden_Cambridge 1290
_journal_volume 2021
_journal_year 2021
_journal_page_first 1470
_journal_name_full 'Eur.J.Inorg.Chem. '
loop_
_publ_author_name
"Lucija Hok"
"E.L.Sanchez"
"R.Vianello"
"B.-M.Kukovec"
"Z.Popovic"
_chemical_name_systematic
;
catena-[(\m-4,4'-bipyridine)-tetra-aqua-cobalt(ii) 
tetrakis(5-bromopyridine-3-carboxylato)-diaqua-cobalt(ii) (4,4'-bipyridine) 
dihydrate]
;
_chemical_name_common
;
catena-[(mu-4,4'-bipyridine)-tetra-aqua-cobalt(ii) 
tetrakis(3bromonicotinato)-diaqua-cobalt(ii) (4,4'-bipyridine) dihydrate]
;
_cell_volume   1301.033
_exptl_crystal_colour 'orange'
_exptl_crystal_density_diffrn 1.759
_exptl_crystal_description 'block'
_diffrn_ambient_temperature 296
#These two values have been output from a single CSD field.
_refine_ls_R_factor_gt 0.0297
_refine_ls_wR_factor_gt 0.0297
_symmetry_cell_setting triclinic
_symmetry_space_group_name_H-M 'P -1'
_symmetry_Int_Tables_number 2
loop_
_symmetry_equiv_pos_site_id
_symmetry_equiv_pos_as_xyz
1 x,y,z
2 -x,-y,-z
_cell_length_a 8.6021(6)
_cell_length_b 11.4771(8)
_cell_length_c 14.7070(9)
_cell_angle_alpha 112.501(6)
_cell_angle_beta 102.893(6)
_cell_angle_gamma 90.282(5)
_cell_formula_units_Z 1
loop_
_atom_type_symbol
_atom_type_radius_bond
C 0.68
H 0.23
Br 1.21
Co 1.26
N 0.68
O 0.68
loop_
_atom_site_label
_atom_site_type_symbol
_atom_site_fract_x
_atom_site_fract_y
_atom_site_fract_z
Co1 Co 0.00000 0.50000 0.50000
Br1 Br 0.28642(6) -0.10584(4) 0.36238(3)
Br2 Br 0.47855(4) 0.57711(3) 0.29562(2)
N1 N 0.2248(4) 0.0300(3) 0.6510(2)
N2 N 0.2369(2) 0.5863(2) 0.50821(16)
O1 O 0.0999(2) 0.35767(17) 0.53422(14)
O2 O 0.0784(3) 0.3904(2) 0.69118(16)
O3 O 0.7681(2) 0.7540(2) 0.70028(14)
O4 O 0.5696(2) 0.8044(2) 0.77901(14)
O5 O 0.0307(2) 0.6128(2) 0.65698(15)
H1 H 0.043(6) 0.570(4) 0.691(3)
H2 H -0.046(3) 0.653(3) 0.668(3)
C1 C 0.1749(4) 0.1442(3) 0.6635(2)
H3 H 0.15420 0.19425 0.72545
C2 C 0.1526(3) 0.1913(3) 0.5880(2)
C3 C 0.1800(3) 0.1155(3) 0.4954(2)
H4 H 0.16215 0.14238 0.44213
C4 C 0.2344(4) -0.0011(3) 0.4837(3)
C5 C 0.2547(5) -0.0402(3) 0.5625(3)
H5 H 0.29093 -0.11912 0.55342
C6 C 0.1044(3) 0.3245(3) 0.6079(2)
C7 C 0.3472(3) 0.6450(2) 0.59628(19)
H6 H 0.31834 0.65843 0.65655
C8 C 0.5022(3) 0.6866(2) 0.60147(19)
C9 C 0.5461(3) 0.6646(2) 0.51140(19)
H7 H 0.65052 0.68616 0.51151
C10 C 0.4307(3) 0.6102(2) 0.42242(19)
C11 C 0.2786(3) 0.5729(2) 0.42232(19)
H8 H 0.20230 0.53723 0.36088
C12 C 0.6228(3) 0.7539(2) 0.7022(2)
Co2 Co 0.00000 0.00000 0.00000
N3 N 0.0145(3) 0.1890(2) -0.00273(17)
O6 O -0.2494(2) -0.0173(2) -0.04275(16)
H9 H -0.298(4) 0.043(2) -0.020(2)
H10 H -0.309(3) -0.071(2) -0.0930(16)
O7 O 0.0047(3) -0.0791(2) -0.15117(15)
H11 H -0.067(3) -0.130(3) -0.195(2)
H12 H 0.088(2) -0.091(3) -0.171(3)
C13 C 0.0908(4) 0.2899(3) 0.0766(2)
H13 H 0.14995 0.27790 0.13299
C14 C 0.0877(4) 0.4121(3) 0.0807(2)
H14 H 0.14233 0.47949 0.13913
C15 C 0.0043(3) 0.4345(2) -0.0014(2)
C16 C -0.0709(5) 0.3296(3) -0.0845(2)
H15 H -0.12726 0.33853 -0.14293
C17 C -0.0634(5) 0.2103(3) -0.0821(2)
H16 H -0.11640 0.14116 -0.13967
N4 N 0.5910(4) 0.2047(3) 0.0154(3)
C18 C 0.4762(7) 0.2128(4) -0.0573(5)
H17 H 0.41797 0.13805 -0.10597
C19 C 0.4366(6) 0.3257(4) -0.0657(4)
H18 H 0.35384 0.32509 -0.11879
C20 C 0.5193(4) 0.4383(3) 0.0042(3)
C21 C 0.6358(4) 0.4299(3) 0.0812(2)
H19 H 0.69441 0.50314 0.13191
C22 C 0.6666(5) 0.3134(3) 0.0836(3)
H20 H 0.74634 0.31142 0.13725
O8 O 0.2758(3) 0.9118(3) 0.7907(2)
H21 H 0.260(5) 0.941(4) 0.747(2)
H22 H 0.358(3) 0.876(4) 0.790(3)
Br1A Br -0.28642(6) 1.10584(4) 0.63762(3)
Br2A Br -0.47855(4) 0.42289(3) 0.70438(2)
N1A N -0.2248(4) 0.9700(3) 0.3490(2)
N2A N -0.2369(2) 0.4137(2) 0.49179(16)
O1A O -0.0999(2) 0.64233(17) 0.46578(14)
O2A O -0.0784(3) 0.6096(2) 0.30882(16)
O3A O -0.7681(2) 0.2460(2) 0.29972(14)
O4A O -0.5696(2) 0.1956(2) 0.22099(14)
O5A O -0.0307(2) 0.3872(2) 0.34302(15)
H1A H -0.043(6) 0.430(4) 0.309(3)
H2A H 0.046(3) 0.347(3) 0.332(3)
C1A C -0.1749(4) 0.8558(3) 0.3365(2)
H3A H -0.15420 0.80575 0.27455
C2A C -0.1526(3) 0.8087(3) 0.4120(2)
C3A C -0.1800(3) 0.8845(3) 0.5046(2)
H4A H -0.16215 0.85762 0.55787
C4A C -0.2344(4) 1.0011(3) 0.5163(3)
C5A C -0.2547(5) 1.0402(3) 0.4375(3)
H5A H -0.29093 1.11912 0.44658
C6A C -0.1044(3) 0.6755(3) 0.3921(2)
C7A C -0.3472(3) 0.3550(2) 0.40372(19)
H6A H -0.31834 0.34157 0.34345
C8A C -0.5022(3) 0.3134(2) 0.39853(19)
C9A C -0.5461(3) 0.3354(2) 0.48860(19)
H7A H -0.65052 0.31384 0.48849
C10A C -0.4307(3) 0.3898(2) 0.57758(19)
C11A C -0.2786(3) 0.4271(2) 0.57768(19)
H8A H -0.20230 0.46277 0.63912
C12A C -0.6228(3) 0.2461(2) 0.2978(2)
N3A N -0.0145(3) 0.8110(2) 0.00273(17)
C13A C -0.0908(4) 0.7101(3) -0.0766(2)
H13A H -0.14995 0.72210 -0.13299
C14A C -0.0877(4) 0.5879(3) -0.0807(2)
H14A H -0.14233 0.52051 -0.13913
C15A C -0.0043(3) 0.5655(2) 0.0014(2)
C16A C 0.0709(5) 0.6704(3) 0.0845(2)
H15A H 0.12726 0.66146 0.14293
C17A C 0.0634(5) 0.7897(3) 0.0821(2)
H16A H 0.11640 0.85884 0.13967
O6A O 0.2494(2) 0.0173(2) 0.04275(16)
H9A H 0.298(4) -0.043(2) 0.020(2)
H10A H 0.309(3) 0.071(2) 0.0930(16)
O7A O -0.0047(3) 0.0791(2) 0.15117(15)
H11A H 0.067(3) 0.130(3) 0.195(2)
H12A H -0.088(2) 0.091(3) 0.171(3)
Co2* Co 0.00000 1.00000 0.00000
N3A* N -0.0145(3) -0.1890(2) 0.00273(17)
N4A N 0.4090(4) 0.7953(3) -0.0154(3)
C18A C 0.5238(7) 0.7872(4) 0.0573(5)
H17A H 0.58203 0.86195 0.10597
C19A C 0.5634(6) 0.6743(4) 0.0657(4)
H18A H 0.64616 0.67491 0.11879
C20A C 0.4807(4) 0.5617(3) -0.0042(3)
C21A C 0.3642(4) 0.5701(3) -0.0812(2)
H19A H 0.30559 0.49686 -0.13191
C22A C 0.3334(5) 0.6866(3) -0.0836(3)
H20A H 0.25366 0.68858 -0.13725
#END
