
#######################################################################
#
#                 Cambridge Crystallographic Data Centre
#                                CCDC
#
#######################################################################
#
# If this CIF has been generated from an entry in the Cambridge
# Structural Database, then it will include bibliographic, chemical,
# crystal, experimental, refinement or atomic coordinate data resulting
# from the CCDC's data processing and validation procedures.
#
#######################################################################

data_CSD_CIF_ITOKOU
_audit_creation_date 2021-06-02
_audit_creation_method CSD-ConQuest-V1
_database_code_CSD ITOKOU
_database_code_depnum_ccdc_archive 'CCDC 2041707'
_chemical_formula_sum 'C32 H54 Cu2 N6 O47 W12 Zn1'
_chemical_formula_moiety
;
(C24 H20 Cu2 N4 O42 W12 Zn1 2-)n,2(C4 H12 N1 1+),5(H2 O1)
;
_journal_coden_Cambridge 9
_journal_volume 60
_journal_year 2021
_journal_page_first 9097
_journal_name_full 'Inorg.Chem. '
loop_
_publ_author_name
"Ke-Ke Guo"
"Ming Xu"
"Yue Zheng"
"Xin-Xin Wang"
"Feng-Yan Li"
"Wen-Juan Xu"
"Lin Xu"
_chemical_name_systematic
;
catena-[bis(tetramethylammonium) 
triacontakis(\m-oxo)-bis(1,10-phenanthroline)-decaoxo-diaqua-di-copper-dodeca-
tungsten-zinc pentahydrate]
;
_cell_volume   6297.139
_exptl_crystal_colour 'green'
_exptl_crystal_density_diffrn 3.873
_exptl_crystal_description 'plate'
_diffrn_ambient_temperature 173
#These two values have been output from a single CSD field.
_refine_ls_R_factor_gt 0.0465
_refine_ls_wR_factor_gt 0.0465
_symmetry_cell_setting monoclinic
_symmetry_space_group_name_H-M 'P 21/n'
_symmetry_Int_Tables_number 14
loop_
_symmetry_equiv_pos_site_id
_symmetry_equiv_pos_as_xyz
1 x,y,z
2 1/2-x,1/2+y,1/2-z
3 -x,-y,-z
4 -1/2+x,-1/2-y,-1/2+z
_cell_length_a 13.1300(4)
_cell_length_b 22.0259(7)
_cell_length_c 21.7744(7)
_cell_angle_alpha 90
_cell_angle_beta 90.140(2)
_cell_angle_gamma 90
_cell_formula_units_Z 4
loop_
_atom_type_symbol
_atom_type_radius_bond
C 0.68
H 0.23
Cu 1.32
N 0.68
O 0.68
W 1.62
Zn 1.22
loop_
_atom_site_label
_atom_site_type_symbol
_atom_site_fract_x
_atom_site_fract_y
_atom_site_fract_z
W1 W 0.29053(5) 0.35163(3) 0.67081(3)
W2 W 0.32192(5) 0.25840(3) 0.93119(3)
W3 W 0.27163(5) 0.43054(3) 0.80029(3)
W4 W 0.34822(5) 0.16326(3) 0.79237(3)
W5 W 0.46067(5) 0.21687(3) 0.66817(3)
W6 W 0.17122(5) 0.29548(3) 0.78953(3)
W7 W 0.59431(5) 0.17930(3) 0.78829(3)
W8 W 0.55071(5) 0.45543(3) 0.79573(3)
W9 W 0.57230(5) 0.37284(3) 0.67122(3)
W10 W 0.56943(5) 0.27037(3) 0.93153(3)
W11 W 0.69799(5) 0.33634(3) 0.79523(3)
W12 W 0.42902(5) 0.39191(3) 0.93680(3)
Zn1 Zn 0.43867(14) 0.31046(8) 0.79688(9)
Cu1 Cu 0.21176(16) 0.49530(9) 0.6522(1)
Cu2 Cu 0.16588(17) 0.57627(10) 0.85274(11)
O1 O 0.5441(7) 0.3610(4) 0.7678(5)
O2 O 0.4400(7) 0.3082(4) 0.8829(5)
O3 O 0.1487(7) 0.3788(4) 0.8104(5)
O4 O 0.4846(7) 0.1261(4) 0.8024(5)
O5 O 0.4224(7) 0.3828(4) 0.6635(5)
O6 O 0.6498(8) 0.3190(4) 0.8745(5)
O7 O 0.1679(7) 0.3120(4) 0.7043(5)
O8 O 0.3726(8) 0.1539(4) 0.7001(5)
O9 O 0.2445(8) 0.4285(4) 0.7081(5)
O10 O 0.2432(7) 0.2196(4) 0.7747(5)
O11 O 0.5370(8) 0.3494(4) 0.9716(5)
O12 O 0.5757(8) 0.1738(4) 0.7009(5)
O13 O 0.7002(8) 0.3552(4) 0.7048(5)
O14 O 0.6668(7) 0.2554(4) 0.7742(5)
O15 O 0.2279(7) 0.2849(4) 0.8716(5)
O16 O 0.4046(8) 0.4579(4) 0.7807(5)
O17 O 0.3467(8) 0.2725(4) 0.6613(5)
O18 O 0.3495(7) 0.1919(4) 0.8725(5)
O19 O 0.3287(8) 0.3352(4) 0.9709(5)
O20 O 0.2397(7) 0.3681(4) 0.6002(5)
O21 O 0.4528(8) 0.2361(4) 0.9692(5)
O22 O 0.5717(8) 0.4547(5) 0.7072(5)
O23 O 0.5101(8) 0.4310(4) 0.8765(5)
O24 O 0.5824(8) 0.2102(4) 0.8717(5)
O25 O 0.3160(8) 0.4137(4) 0.8778(5)
O26 O 0.6835(8) 0.4239(4) 0.8112(5)
O27 O 0.8275(8) 0.3336(5) 0.8030(5)
O28 O 0.5423(8) 0.2889(4) 0.6616(5)
O29 O 0.3594(9) 0.5104(5) 0.6448(6)
H1 H 0.38080 0.53390 0.67530
H2 H 0.37330 0.53220 0.61150
O30 O 0.4100(9) 0.4480(5) 0.9899(5)
O31 O 0.5760(8) 0.5307(5) 0.8061(5)
O32 O 0.0522(7) 0.2682(4) 0.8003(5)
O33 O 0.2463(8) 0.2223(4) 0.9836(5)
O34 O 0.3092(9) 0.5994(5) 0.8489(6)
H3 H 0.31920 0.63960 0.85850
H4 H 0.33510 0.59780 0.80960
O35 O 0.2057(8) 0.4986(4) 0.8075(5)
N1 N 0.0651(9) 0.4804(5) 0.6593(6)
O36 O 0.4559(7) 0.2312(4) 0.7664(4)
O37 O 0.4665(8) 0.1912(4) 0.5942(5)
N2 N 0.0207(10) 0.5563(6) 0.8618(6)
O38 O 0.6071(8) 0.3954(4) 0.5981(5)
C1 C 0.0088(11) 0.5126(6) 0.6185(7)
N3 N 0.1687(11) 0.5421(5) 0.5781(6)
N4 N 0.1613(10) 0.5780(6) 0.9471(6)
C2 C -0.1462(13) 0.5487(7) 0.5693(7)
H5 H -0.21850 0.55070 0.56840
C3 C 0.0648(10) 0.5462(6) 0.5746(7)
C4 C 0.0160(12) 0.5776(7) 0.5281(7)
C5 C 0.2235(13) 0.5701(7) 0.5351(8)
H6 H 0.29570 0.56900 0.53810
C6 C 0.0777(14) 0.6064(7) 0.4827(8)
H7 H 0.04760 0.62920 0.45040
C7 C -0.0927(12) 0.4406(7) 0.6988(8)
H8 H -0.12590 0.41330 0.72600
C8 C 0.0134(11) 0.4449(7) 0.6997(7)
H9 H 0.05060 0.42240 0.72940
C9 C -0.0963(12) 0.5124(7) 0.6163(7)
C10 C 0.0651(13) 0.5744(7) 0.9655(8)
C11 C 0.1798(14) 0.6004(7) 0.4870(8)
H10 H 0.22190 0.61750 0.45600
C12 C -0.0931(13) 0.5792(8) 0.5278(8)
H11 H -0.12780 0.60240 0.49750
C13 C -0.1488(13) 0.4749(7) 0.6595(8)
H12 H -0.22110 0.47400 0.66070
C14 C -0.0129(12) 0.5633(7) 0.9212(8)
C15 C -0.0485(15) 0.5449(8) 0.8197(10)
H13 H -0.02730 0.54050 0.77820
C16 C -0.1156(16) 0.5605(9) 0.9367(10)
C17 C -0.0709(16) 0.5809(9) 1.0426(11)
H14 H -0.09120 0.58680 1.08400
C18 C 0.0374(16) 0.5831(9) 1.0287(10)
C19 C -0.1529(14) 0.5390(9) 0.8334(12)
H15 H -0.19990 0.52960 0.80160
C20 C 0.2383(17) 0.5832(9) 0.9881(10)
H16 H 0.30660 0.58170 0.97400
C21 C -0.1869(18) 0.5467(10) 0.8923(11)
H17 H -0.25700 0.54260 0.90220
C22 C -0.1397(19) 0.5717(10) 1.0027(11)
H18 H -0.20890 0.57180 1.01530
C23 C 0.1216(18) 0.5912(10) 1.0688(12)
H19 H 0.10990 0.59740 1.11140
C24 C 0.2206(19) 0.5903(10) 1.0469(12)
H20 H 0.27600 0.59490 1.07460
O39 O 0.3143(7) 0.3446(4) 0.7687(5)
O40 O 0.2859(5) 0.0940(4) 0.7978(4)
O41 O 0.6946(5) 0.1300(3) 0.7965(4)
O42 O 0.6618(6) 0.2500(4) 0.9840(3)
N5 N -0.0487(10) 0.2003(6) 0.9440(7)
C25 C -0.0011(18) 0.2591(9) 0.9612(11)
H21 H 0.05550 0.25170 0.98960
H22 H -0.05190 0.28500 0.98100
H23 H 0.02450 0.27920 0.92420
C26 C 0.0324(15) 0.1622(9) 0.9166(10)
H24 H 0.09520 0.16680 0.94060
H25 H 0.04460 0.17520 0.87420
H26 H 0.01120 0.11960 0.91700
C27 C -0.1318(15) 0.2102(10) 0.8973(10)
H27 H -0.18980 0.23030 0.91690
H28 H -0.15360 0.17100 0.88060
H29 H -0.10600 0.23580 0.86400
C28 C -0.092(2) 0.1728(12) 0.9995(12)
H30 H -0.03930 0.17140 1.03170
H31 H -0.11460 0.13150 0.99030
H32 H -0.14940 0.19710 1.01370
N6 N -0.1215(10) 0.2136(5) 0.6490(6)
C29 C -0.0700(13) 0.1654(8) 0.6127(8)
H33 H 0.00310 0.17420 0.61030
H34 H -0.09890 0.16420 0.57120
H35 H -0.08020 0.12600 0.63270
C30 C -0.1189(16) 0.1969(9) 0.7158(10)
H36 H -0.14590 0.15570 0.72110
H37 H -0.16060 0.22560 0.73920
H38 H -0.04850 0.19840 0.73080
C31 C -0.2355(14) 0.2169(9) 0.6304(9)
H39 H -0.24180 0.23590 0.58990
H40 H -0.27280 0.24100 0.66070
H41 H -0.26380 0.17570 0.62880
C32 C -0.0724(18) 0.2734(8) 0.6382(12)
H42 H -0.00740 0.27510 0.66040
H43 H -0.11720 0.30580 0.65280
H44 H -0.06000 0.27870 0.59410
O43 O 0.6262(11) 0.5705(6) 0.6656(7)
H45 H 0.62610 0.55900 0.62740
H46 H 0.62200 0.53670 0.68630
O44 O 0.5983(12) 0.5113(7) 0.5554(5)
H47 H 0.56560 0.52540 0.52360
H48 H 0.56960 0.47630 0.56270
O45 O 0.4428(11) 0.5555(6) 0.9154(5)
H49 H 0.40330 0.52540 0.92820
H50 H 0.49400 0.54030 0.89380
O46 O 0.1725(9) 0.2084(5) 0.6073(5)
H51 H 0.22230 0.23110 0.62030
H52 H 0.16520 0.21830 0.56890
O47 O 0.4203(10) 0.6034(6) 0.7369(7)
Cu1A Cu 0.28824(16) -0.00470(9) 0.8478(1)
Cu2A Cu 0.33412(17) 0.07627(10) 0.64726(11)
O8A O 0.1274(8) 0.6539(4) 0.7999(5)
O40A O 0.2141(5) 0.5940(4) 0.7022(4)
#END
