
#######################################################################
#
#                 Cambridge Crystallographic Data Centre
#                                CCDC
#
#######################################################################
#
# If this CIF has been generated from an entry in the Cambridge
# Structural Database, then it will include bibliographic, chemical,
# crystal, experimental, refinement or atomic coordinate data resulting
# from the CCDC's data processing and validation procedures.
#
#######################################################################

data_CSD_CIF_ITOPOX
_audit_creation_date 2011-08-30
_audit_creation_method CSD-ConQuest-V1
_database_code_CSD ITOPOX
_database_code_depnum_ccdc_archive 'CCDC 819196'
_chemical_formula_sum 'C12 H21 Li2 O6 Tl1'
_chemical_formula_moiety
;
(C12 H21 Li2 O6 1-)n,n(Tl1 1+)
;
_journal_coden_Cambridge 1500
_journal_volume 1
_journal_year 2011
_journal_page_first 147
_journal_name_full 'RSC Advances '
loop_
_publ_author_name
"F.J.M.Casado"
"M.R.Riesco"
"I.da Silva"
"M.I.R.Yelamos"
"J.A.R.Cheda"
_chemical_name_systematic
;
catena-(Thallium bis(\m~3~-butyrato)-(\m~2~-butyrato)-di-lithium)
;
_cell_volume   1703.783
_exptl_crystal_density_diffrn 1.869
_exptl_special_details
;
powder data

;
_diffrn_ambient_temperature 298
_diffrn_radiation_probe x-ray
_diffrn_source synchrotron
#These two values have been output from a single CSD field.
_refine_ls_R_factor_gt 0.0286
_refine_ls_wR_factor_gt 0.0286
_symmetry_cell_setting monoclinic
_symmetry_space_group_name_H-M 'P 21/c'
_symmetry_Int_Tables_number 14
loop_
_symmetry_equiv_pos_site_id
_symmetry_equiv_pos_as_xyz
1 x,y,z
2 -x,1/2+y,1/2-z
3 -x,-y,-z
4 x,-1/2-y,-1/2+z
_cell_length_a 4.92534(11)
_cell_length_b 12.0749(2)
_cell_length_c 28.6547(5)
_cell_angle_alpha 90
_cell_angle_beta 91.237(2)
_cell_angle_gamma 90
_cell_formula_units_Z 4
loop_
_atom_type_symbol
_atom_type_radius_bond
C 0.68
H 0.23
Li 1.28
O 0.68
Tl 1.45
loop_
_atom_site_label
_atom_site_type_symbol
_atom_site_fract_x
_atom_site_fract_y
_atom_site_fract_z
C1 C 0.298(8) 0.223(10) 0.8205(14)
C2 C 0.463(10) 0.233(6) 0.8673(13)
H1 H 0.595(10) 0.304(6) 0.8640(13)
H2 H 0.585(10) 0.159(6) 0.8724(13)
C3 C 0.293(10) 0.252(7) 0.9092(13)
H3 H 0.158(10) 0.181(7) 0.9124(13)
H4 H 0.174(10) 0.326(7) 0.9046(13)
C4 C 0.454(12) 0.257(6) 0.9527(17)
H5 H 0.589(12) 0.328(6) 0.9502(17)
H6 H 0.321(12) 0.269(6) 0.9819(17)
H7 H 0.573(12) 0.183(6) 0.9579(17)
C5 C 0.213(13) 0.391(4) 0.6645(19)
C6 C 0.046(5) 0.419(3) 0.6213(7)
H8 H -0.061(5) 0.496(3) 0.6264(7)
H9 H -0.098(5) 0.354(3) 0.6122(7)
C7 C 0.245(5) 0.427(3) 0.5844(7)
H10 H 0.331(5) 0.347(3) 0.5777(7)
H11 H 0.403(5) 0.483(3) 0.5971(7)
C8 C 0.129(5) 0.474(3) 0.5392(7)
H12 H 0.290(5) 0.480(3) 0.5142(7)
H13 H 0.043(5) 0.555(3) 0.5451(7)
H14 H -0.028(5) 0.419(3) 0.5256(7)
C9 C 0.786(8) 0.084(11) 0.6869(14)
C10 C 0.897(10) 0.090(9) 0.6402(12)
H15 H 0.98(1) 0.173(9) 0.6368(12)
H16 H 1.06(1) 0.030(9) 0.6382(12)
C11 C 0.713(10) 0.070(8) 0.5992(13)
H17 H 0.655(10) -0.017(8) 0.5976(13)
H18 H 0.532(10) 0.120(8) 0.6023(13)
C12 C 0.860(12) 0.102(7) 0.5547(16)
H19 H 0.918(12) 0.189(7) 0.5564(16)
H20 H 1.041(12) 0.052(7) 0.5517(16)
H21 H 0.728(12) 0.089(7) 0.5246(16)
Li1 Li 0.285(9) 0.195(4) 0.7146(14)
Li2 Li 0.227(9) 0.622(3) 0.7115(16)
O1 O 0.418(8) 0.216(4) 0.7810(12)
O2 O 0.037(8) 0.230(5) 0.8220(19)
O3 O 0.330(12) 0.304(3) 0.6619(18)
O4 O 0.317(11) 0.464(3) 0.6897(18)
O5 O 0.546(7) 0.076(5) 0.6897(20)
O6 O 0.928(8) 0.113(5) 0.7225(12)
Tl1 Tl 0.2749(16) 0.9031(4) 0.7454(3)
Li1* Li 1.285(9) 0.195(4) 0.7146(14)
Li2A Li -0.227(9) 0.122(3) 0.7885(16)
Li2A* Li 0.773(9) 0.122(3) 0.7885(16)
O1A O 0.582(8) 0.716(4) 0.7190(12)
O2A O -0.037(8) 0.730(5) 0.6780(19)
O6* O -0.072(8) 0.113(5) 0.7225(12)
O6A O 0.072(8) 0.613(5) 0.7775(12)
#END
