
#######################################################################
#
#                 Cambridge Crystallographic Data Centre
#                                CCDC
#
#######################################################################
#
# If this CIF has been generated from an entry in the Cambridge
# Structural Database, then it will include bibliographic, chemical,
# crystal, experimental, refinement or atomic coordinate data resulting
# from the CCDC's data processing and validation procedures.
#
#######################################################################

data_CSD_CIF_IVASIJ02
_audit_creation_date 2016-09-13
_audit_creation_method CSD-ConQuest-V1
_database_code_CSD IVASIJ02
_database_code_depnum_ccdc_archive 'CCDC 1496002'
_chemical_formula_sum 'C17 H27 Co1 Cr1 N2 O14'
_chemical_formula_moiety
;
(C10 H21 N2 1+)n,n(C7 H6 Co1 Cr1 O14 1-)
;
_journal_coden_Cambridge 222
_journal_volume 45
_journal_year 2016
_journal_page_first 16182
_journal_name_full 'Dalton Trans. '
loop_
_publ_author_name
"T.Sakurai"
"R.Saiki"
"Rong Jia Wei"
"G.N.Newton"
"T.Shiga"
"H.Oshio"
_chemical_name_systematic
;
catena-[1-butyl-4-aza-1-azoniabicyclo[2.2.2]octane 
bis(\m-oxalato)-aqua-(methanol)-(oxalato)-chromium(iii)-cobalt(ii)]
;
_cell_volume   1162.761
_exptl_crystal_colour 'dark red'
_exptl_crystal_density_diffrn 1.697
_exptl_crystal_description 'plates'
_diffrn_ambient_temperature 100
#These two values have been output from a single CSD field.
_refine_ls_R_factor_gt 0.0812
_refine_ls_wR_factor_gt 0.0812
_symmetry_cell_setting monoclinic
_symmetry_space_group_name_H-M 'P 21'
_symmetry_Int_Tables_number 4
loop_
_symmetry_equiv_pos_site_id
_symmetry_equiv_pos_as_xyz
1 x,y,z
2 -x,1/2+y,-z
_cell_length_a 9.085(2)
_cell_length_b 13.921(4)
_cell_length_c 10.159(3)
_cell_angle_alpha 90
_cell_angle_beta 115.178(5)
_cell_angle_gamma 90
_cell_formula_units_Z 2
loop_
_atom_type_symbol
_atom_type_radius_bond
C 0.68
H 0.23
Co 1.26
Cr 1.39
N 0.68
O 0.68
loop_
_atom_site_label
_atom_site_type_symbol
_atom_site_fract_x
_atom_site_fract_y
_atom_site_fract_z
Cr1 Cr 0.07854(18) 0.29428(11) 0.72375(17)
Co1 Co 0.54765(15) 0.09805(9) 0.66253(14)
O1 O 0.2017(8) 0.3010(5) 0.6045(7)
O2 O 0.2254(8) 0.1849(5) 0.8168(7)
O3 O 0.3898(9) 0.2158(6) 0.5662(8)
O4 O 0.4129(8) 0.0962(6) 0.7857(7)
O5 O -0.0775(8) 0.2029(5) 0.5845(8)
O6 O -0.0585(8) 0.2739(6) 0.8308(7)
O7 O -0.2955(8) 0.1163(5) 0.5615(7)
O8 O -0.2892(9) 0.2021(5) 0.8024(8)
O9 O -0.0517(9) 0.4059(5) 0.6292(8)
O10 O 0.2126(9) 0.3882(5) 0.8678(8)
O11 O -0.0832(8) 0.5595(5) 0.6705(8)
O12 O 0.2022(9) 0.5407(5) 0.9301(8)
O13 O 0.6855(9) -0.0127(6) 0.7859(8)
H1 H 0.716(11) 0.000(9) 0.874(4)
H2 H 0.771(7) -0.014(9) 0.775(10)
O14 O 0.3950(9) 0.0128(6) 0.5017(8)
H3 H 0.28470 0.03270 0.45350
C1 C 0.3032(12) 0.2321(8) 0.6306(11)
C2 C 0.3177(12) 0.1648(8) 0.7564(11)
C3 C -0.1830(11) 0.1743(7) 0.6244(10)
C4 C -0.1788(12) 0.2211(7) 0.7649(11)
C5 C -0.0083(12) 0.4835(7) 0.7016(11)
C6 C 0.1494(11) 0.4734(7) 0.8445(10)
C7 C 0.4389(13) -0.0755(8) 0.4539(12)
H4 H 0.55740 -0.07870 0.48940
H5 H 0.38800 -0.07780 0.34740
H6 H 0.40120 -0.13000 0.49230
N1 N 0.766(1) 0.3250(6) 0.1580(9)
N2 N 1.0139(10) 0.4317(6) 0.2032(9)
C8 C 0.3388(14) 0.1736(10) 0.1828(13)
H7 H 0.36260 0.20270 0.27750
H8 H 0.24970 0.12730 0.15840
H9 H 0.30690 0.22390 0.10820
C9 C 0.4873(14) 0.1230(9) 0.1891(12)
H10 H 0.46570 0.09780 0.09150
H11 H 0.51250 0.06780 0.25680
C10 C 0.6345(13) 0.1914(8) 0.2406(12)
H12 H 0.64140 0.22760 0.32700
H13 H 0.73560 0.15350 0.26920
C11 C 0.6194(12) 0.2616(8) 0.1206(11)
H14 H 0.60100 0.22480 0.03160
H15 H 0.52290 0.30270 0.09850
C12 C 0.9134(12) 0.2652(8) 0.1751(12)
H16 H 0.94380 0.22170 0.25980
H17 H 0.88740 0.22550 0.08710
C13 C 1.0531(12) 0.3323(8) 0.1974(11)
H18 H 1.14720 0.31510 0.28920
H19 H 1.08580 0.32310 0.11680
C14 C 0.7317(12) 0.3922(8) 0.0324(11)
H20 H 0.63500 0.43180 0.01620
H21 H 0.70820 0.35460 -0.05700
C15 C 0.8800(12) 0.4583(8) 0.0643(12)
H22 H 0.91560 0.45230 -0.01490
H23 H 0.84880 0.52600 0.06820
C16 C 0.8097(14) 0.3830(9) 0.2911(13)
H24 H 0.83310 0.34000 0.37520
H25 H 0.71690 0.42470 0.28030
C17 C 0.9594(12) 0.4454(8) 0.3191(10)
H26 H 0.93210 0.51380 0.32330
H27 H 1.04840 0.42790 0.41410
Co1* Co -0.45235(15) 0.09805(9) 0.66253(14)
O7* O 0.7045(8) 0.1163(5) 0.5615(7)
O8* O 0.7108(9) 0.2021(5) 0.8024(8)
#END
