
#######################################################################
#
#                 Cambridge Crystallographic Data Centre
#                                CCDC
#
#######################################################################
#
# If this CIF has been generated from an entry in the Cambridge
# Structural Database, then it will include bibliographic, chemical,
# crystal, experimental, refinement or atomic coordinate data resulting
# from the CCDC's data processing and validation procedures.
#
#######################################################################

data_CSD_CIF_IVAXAG
_audit_creation_date 2016-09-13
_audit_creation_method CSD-ConQuest-V1
_database_code_CSD IVAXAG
_database_code_depnum_ccdc_archive 'CCDC 943318'
_chemical_formula_sum 'C36 H72 Cu4 I4 N6 Ni1 S6'
_chemical_formula_moiety
;
2(C16 H36 N1 1+),(C4 Cu4 I4 N4 Ni1 S6 2-)n
;
_journal_coden_Cambridge 1290
_journal_year 2016
_journal_page_first 4257
_journal_name_full 'Eur.J.Inorg.Chem. '
loop_
_publ_author_name
"V.Madhu"
"R.Bolligarla"
"I.K.Naik"
"R.Mekala"
"S.K.Das"
_chemical_name_systematic
;
catena-(bis(tetra-n-butylammonium) 
tetrakis(\m-iodo)-bis(\m-1,2,5-thiadiazole-3,4-dithiolato)-tetra-copper-nickel
)
;
_cell_volume   5554.171
_exptl_crystal_colour 'dark red'
_exptl_crystal_density_diffrn 1.916
_exptl_crystal_description 'needle'
_diffrn_ambient_temperature 100
#These two values have been output from a single CSD field.
_refine_ls_R_factor_gt 0.0416
_refine_ls_wR_factor_gt 0.0416
_symmetry_cell_setting monoclinic
_symmetry_space_group_name_H-M 'P 21/c'
_symmetry_Int_Tables_number 14
loop_
_symmetry_equiv_pos_site_id
_symmetry_equiv_pos_as_xyz
1 x,y,z
2 -x,1/2+y,1/2-z
3 -x,-y,-z
4 x,-1/2-y,-1/2+z
_cell_length_a 12.8054(13)
_cell_length_b 25.129(3)
_cell_length_c 17.3174(17)
_cell_angle_alpha 90
_cell_angle_beta 94.650(2)
_cell_angle_gamma 90
_cell_formula_units_Z 4
loop_
_atom_type_symbol
_atom_type_radius_bond
C 0.68
H 0.23
Cu 1.32
I 1.40
N 0.68
Ni 1.24
S 1.02
loop_
_atom_site_label
_atom_site_type_symbol
_atom_site_fract_x
_atom_site_fract_y
_atom_site_fract_z
C1 C 0.8697(5) 0.7962(3) 0.0566(3)
C2 C 0.7795(5) 0.7928(3) 0.0996(4)
C3 C 1.1433(5) 0.7909(3) 0.3457(4)
C4 C 1.0519(5) 0.7929(2) 0.3895(3)
Cu1 Cu 1.09196(9) 0.67957(4) 0.27457(6)
Cu2 Cu 0.93096(7) 0.68486(4) 0.38647(5)
Cu3 Cu 0.82846(9) 0.68211(4) 0.17262(6)
Cu4 Cu 0.98963(7) 0.68907(4) 0.05922(5)
I1 I 1.10693(4) 0.624471(19) 0.15287(3)
I2 I 1.11709(4) 0.64461(3) 0.41208(3)
I3 I 0.81274(4) 0.622369(19) 0.28952(3)
I4 I 0.79835(4) 0.65531(2) 0.03091(3)
N1 N 0.8479(4) 0.8125(2) -0.0155(3)
N2 N 0.6915(5) 0.8071(3) 0.0614(3)
N3 N 1.2286(5) 0.8083(3) 0.3834(3)
N4 N 1.0725(4) 0.8112(2) 0.4602(3)
Ni1 Ni 0.96197(6) 0.77028(3) 0.22246(4)
S1 S 0.99365(12) 0.77929(7) 0.09893(9)
S2 S 0.79117(13) 0.77119(8) 0.19605(9)
S3 S 1.13362(13) 0.76752(7) 0.25061(9)
S4 S 0.92993(12) 0.77436(7) 0.34670(9)
S5 S 0.71967(15) 0.82320(9) -0.02648(11)
S6 S 1.19956(15) 0.82532(9) 0.47088(11)
C5 C 0.3835(6) 0.7156(4) 0.1647(5)
H1 H 0.34000 0.73560 0.19770
H2 H 0.33820 0.69170 0.13350
C6 C 0.4344(8) 0.7542(5) 0.1112(6)
H3 H 0.48530 0.77570 0.14160
H4 H 0.47130 0.73410 0.07410
C7 C 0.3573(8) 0.7893(5) 0.0693(7)
H5 H 0.30730 0.76750 0.03820
H6 H 0.31900 0.80840 0.10660
C8 C 0.4032(11) 0.8277(6) 0.0188(8)
H7 H 0.46530 0.84260 0.04510
H8 H 0.35360 0.85560 0.00580
H9 H 0.42090 0.81030 -0.02770
C9 C 0.5354(6) 0.7178(4) 0.2642(5)
H10 H 0.57880 0.73700 0.23030
H11 H 0.58140 0.69500 0.29700
C10 C 0.4853(7) 0.7574(5) 0.3148(6)
H12 H 0.43660 0.77910 0.28270
H13 H 0.44560 0.73830 0.35130
C11 C 0.5627(8) 0.7932(5) 0.3591(7)
H14 H 0.61050 0.77150 0.39220
H15 H 0.60360 0.81170 0.32270
C12 C 0.5137(10) 0.8326(6) 0.4072(7)
H16 H 0.46350 0.85300 0.37540
H17 H 0.56650 0.85590 0.43070
H18 H 0.47890 0.81470 0.44680
C13 C 0.5265(7) 0.6479(4) 0.1649(5)
H19 H 0.56560 0.67090 0.13270
H20 H 0.57700 0.62840 0.19880
C14 C 0.4660(9) 0.6080(5) 0.1124(7)
H21 H 0.41440 0.59070 0.14180
H22 H 0.42840 0.62720 0.07030
C15 C 0.5309(12) 0.5664(6) 0.0789(9)
H23 H 0.49060 0.55050 0.03490
H24 H 0.59180 0.58320 0.05960
C16 C 0.5652(16) 0.5256(8) 0.1303(12)
H25 H 0.61800 0.53930 0.16760
H26 H 0.59410 0.49710 0.10180
H27 H 0.50710 0.51260 0.15650
C17 C 0.3982(6) 0.6485(3) 0.2673(5)
H28 H 0.35730 0.67170 0.29790
H29 H 0.34930 0.62730 0.23450
C18 C 0.4621(8) 0.6114(4) 0.3220(6)
H30 H 0.51600 0.59450 0.29430
H31 H 0.49640 0.63200 0.36410
C19 C 0.3976(10) 0.5704(5) 0.3541(7)
H32 H 0.36660 0.54860 0.31210
H33 H 0.34100 0.58740 0.37880
C20 C 0.4566(14) 0.5352(6) 0.4117(10)
H34 H 0.51020 0.51650 0.38700
H35 H 0.40940 0.51000 0.43190
H36 H 0.48830 0.55640 0.45340
N5 N 0.4613(4) 0.6830(3) 0.2153(4)
C21 C 0.9602(10) 0.9843(5) 0.1676(9)
H37 H 1.01600 1.00700 0.15190
H38 H 0.90350 1.00690 0.18190
C22 C 0.9199(16) 0.9474(7) 0.0978(9)
H39 H 0.97800 0.92700 0.08050
H40 H 0.86850 0.92250 0.11470
C23 C 0.8748(18) 0.9777(10) 0.0364(15)
H41 H 0.92160 0.97500 -0.00470
H42 H 0.87810 1.01440 0.05380
C24 C 0.7615(19) 0.9694(11) -0.0029(15)
H43 H 0.76200 0.97400 -0.05790
H44 H 0.71500 0.99500 0.01720
H45 H 0.73790 0.93410 0.00800
C25 C 0.9119(9) 0.9175(4) 0.2663(8)
H46 H 0.88680 0.89320 0.22540
H47 H 0.94010 0.89620 0.30990
C26 C 0.8190(11) 0.9489(6) 0.2914(11)
H48 H 0.84330 0.97070 0.33550
H49 H 0.79580 0.97290 0.24960
C27 C 0.7276(13) 0.9181(7) 0.3127(10)
H50 H 0.68700 0.93800 0.34780
H51 H 0.74880 0.88440 0.33640
C28 C 0.661(2) 0.9092(12) 0.2286(14)
H52 H 0.59450 0.92660 0.22870
H53 H 0.65070 0.87180 0.21970
H54 H 0.69970 0.92390 0.18830
C29 C 1.0848(10) 0.9135(4) 0.2193(8)
H55 H 1.05650 0.88860 0.18020
H56 H 1.10620 0.89320 0.26550
C30 C 1.1830(13) 0.9405(7) 0.1898(10)
H57 H 1.17150 0.94980 0.13540
H58 H 1.20180 0.97240 0.21940
C31 C 1.2660(18) 0.8987(10) 0.2024(14)
H59 H 1.25410 0.86980 0.16550
H60 H 1.26740 0.88420 0.25440
C32 C 1.3735(18) 0.9291(10) 0.1895(14)
H61 H 1.37060 0.96460 0.20960
H62 H 1.38320 0.93050 0.13520
H63 H 1.43110 0.91040 0.21610
C33 C 1.0407(9) 0.9898(4) 0.2995(9)
H64 H 1.09510 1.01160 0.27960
H65 H 0.98380 1.01320 0.31110
C34 C 1.0835(14) 0.9637(6) 0.3721(9)
H66 H 1.13440 0.93670 0.36120
H67 H 1.02780 0.94710 0.39830
C35 C 1.1349(15) 1.0078(8) 0.4215(10)
H68 H 1.18250 1.02730 0.39100
H69 H 1.08140 1.03230 0.43590
C36 C 1.1909(14) 0.9885(7) 0.4892(10)
H70 H 1.14550 0.96700 0.51770
H71 H 1.21620 1.01800 0.52070
H72 H 1.24910 0.96750 0.47530
N6 N 1.0008(7) 0.9506(3) 0.2375(6)
Cu2C Cu 0.93096(7) 0.81514(4) -0.11353(5)
Cu4C Cu 0.98963(7) 0.81093(4) 0.55922(5)
N1C N 0.8479(4) 0.6875(2) 0.4845(3)
N4C N 1.0725(4) 0.6888(2) -0.0398(3)
#END
