
#######################################################################
#
#                 Cambridge Crystallographic Data Centre
#                                CCDC
#
#######################################################################
#
# If this CIF has been generated from an entry in the Cambridge
# Structural Database, then it will include bibliographic, chemical,
# crystal, experimental, refinement or atomic coordinate data resulting
# from the CCDC's data processing and validation procedures.
#
#######################################################################

data_CSD_CIF_IVAXEK
_audit_creation_date 2016-09-13
_audit_creation_method CSD-ConQuest-V1
_database_code_CSD IVAXEK
_database_code_depnum_ccdc_archive 'CCDC 1472874'
_chemical_formula_sum 'C36 H72 Cu4 I4 N6 Pt1 S6'
_chemical_formula_moiety
;
2(C16 H36 N1 1+),(C4 Cu4 I4 N4 Pt1 S6 2-)n
;
_journal_coden_Cambridge 1290
_journal_year 2016
_journal_page_first 4257
_journal_name_full 'Eur.J.Inorg.Chem. '
loop_
_publ_author_name
"V.Madhu"
"R.Bolligarla"
"I.K.Naik"
"R.Mekala"
"S.K.Das"
_chemical_name_systematic
;
catena-(bis(tetra-n-butylammonium) 
bis(\m-1,2,5-thiadiazole-3,4-dithiolato)-tetrakis(\m-iodo)-tetra-copper-platin
um)
;
_cell_volume   5585.416
_exptl_crystal_colour 'deep orange'
_exptl_crystal_density_diffrn 2.067
_exptl_crystal_description 'plate'
_diffrn_ambient_temperature 100
#These two values have been output from a single CSD field.
_refine_ls_R_factor_gt 0.1081
_refine_ls_wR_factor_gt 0.1081
_symmetry_cell_setting monoclinic
_symmetry_space_group_name_H-M 'P 21/c'
_symmetry_Int_Tables_number 14
loop_
_symmetry_equiv_pos_site_id
_symmetry_equiv_pos_as_xyz
1 x,y,z
2 -x,1/2+y,1/2-z
3 -x,-y,-z
4 x,-1/2-y,-1/2+z
_cell_length_a 12.786(2)
_cell_length_b 24.984(5)
_cell_length_c 17.538(3)
_cell_angle_alpha 90
_cell_angle_beta 94.467(3)
_cell_angle_gamma 90
_cell_formula_units_Z 4
loop_
_atom_type_symbol
_atom_type_radius_bond
C 0.68
H 0.23
Cu 1.32
I 1.40
N 0.68
Pt 1.36
S 1.02
loop_
_atom_site_label
_atom_site_type_symbol
_atom_site_fract_x
_atom_site_fract_y
_atom_site_fract_z
C1 C 0.3582(15) 0.2020(7) 0.1536(10)
C2 C 0.4497(14) 0.2049(7) 0.1123(10)
C3 C 0.6384(12) 0.2014(6) 0.449(1)
C4 C 0.7273(14) 0.2069(7) 0.4058(10)
Cu1 Cu 0.5170(2) 0.31073(10) 0.44601(14)
Cu2 Cu 0.6764(3) 0.31562(11) 0.32954(15)
Cu3 Cu 0.5739(2) 0.31481(10) 0.11526(13)
Cu4 Cu 0.4128(3) 0.31832(11) 0.22991(15)
I1 I 0.39667(11) 0.37240(5) 0.35053(7)
I2 I 0.70876(12) 0.34339(6) 0.46850(8)
I3 I 0.69320(11) 0.37478(5) 0.21402(7)
I4 I 0.38775(12) 0.35446(7) 0.09500(8)
N1 N 0.2759(12) 0.1890(6) 0.1174(9)
N2 N 0.4311(12) 0.1869(6) 0.0415(8)
N3 N 0.6600(13) 0.1854(6) 0.5194(8)
N4 N 0.8143(13) 0.1883(7) 0.444(1)
Pt1 Pt 0.54383(5) 0.22690(2) 0.28091(4)
S1 S 0.3651(4) 0.2289(2) 0.2496(2)
S2 S 0.5752(4) 0.22430(19) 0.1525(2)
S3 S 0.5137(4) 0.21914(18) 0.4090(2)
S4 S 0.7225(4) 0.2240(2) 0.3109(3)
S5 S 0.7875(5) 0.1747(3) 0.5316(3)
S6 S 0.3057(4) 0.1727(2) 0.0309(3)
C5 C 0.1202(17) 0.2847(9) 0.3350(13)
H1 H 0.16550 0.30910 0.36530
H2 H 0.16400 0.26460 0.30250
C6 C 0.071(2) 0.2450(11) 0.3899(15)
H3 H 0.03340 0.26510 0.42640
H4 H 0.02060 0.22260 0.36060
C7 C 0.149(2) 0.2110(13) 0.4314(17)
H5 H 0.18600 0.19090 0.39460
H6 H 0.19960 0.23370 0.45990
C8 C 0.106(3) 0.1739(15) 0.484(2)
H7 H 0.06540 0.19320 0.51850
H8 H 0.16190 0.15520 0.51180
H9 H 0.06150 0.14870 0.45530
C9 C 0.037(2) 0.3909(12) 0.3868(19)
H10 H 0.08930 0.40880 0.35850
H11 H 0.07440 0.37060 0.42750
C10 C -0.028(3) 0.4328(15) 0.422(3)
H12 H -0.08720 0.41590 0.44370
H13 H 0.01420 0.45010 0.46370
C11 C -0.065(4) 0.4724(18) 0.367(3)
H14 H -0.00710 0.48590 0.34140
H15 H -0.09700 0.50120 0.39320
H16 H -0.11560 0.45650 0.33100
C12 C 0.1044(16) 0.351(1) 0.2337(14)
H17 H 0.14580 0.32750 0.20390
H18 H 0.15300 0.37290 0.26550
C13 C 0.041(2) 0.3874(12) 0.1794(16)
H19 H 0.00620 0.36590 0.13890
H20 H -0.01280 0.40460 0.20670
C14 C 0.104(2) 0.4287(12) 0.1450(17)
H21 H 0.16190 0.41160 0.12180
H22 H 0.13360 0.45220 0.18500
C15 C 0.043(3) 0.4617(14) 0.085(2)
H23 H 0.00930 0.43850 0.04730
H24 H 0.08940 0.48560 0.06180
H25 H -0.00950 0.48210 0.10910
C16 C -0.0303(16) 0.2815(10) 0.2381(13)
H26 H -0.07120 0.26160 0.27280
H27 H -0.07870 0.30370 0.20660
C17 C 0.019(2) 0.2426(11) 0.1875(14)
H28 H 0.05830 0.26240 0.15140
H29 H 0.06950 0.22110 0.21860
C18 C -0.054(2) 0.2063(12) 0.1441(17)
H30 H -0.09340 0.18710 0.18070
H31 H -0.10430 0.22830 0.11360
C19 C -0.013(2) 0.1674(15) 0.094(2)
H32 H 0.02380 0.18550 0.05560
H33 H -0.06880 0.14660 0.06980
H34 H 0.03530 0.14430 0.12310
C20 C -0.0219(18) 0.3522(10) 0.3339(15)
H35 H -0.07110 0.37240 0.30030
H36 H -0.06250 0.32880 0.36440
N5 N 0.0438(12) 0.3174(7) 0.2845(10)
C21 C 0.410(3) 0.0813(10) 0.280(2)
H37 H 0.43740 0.10680 0.31820
H38 H 0.38620 0.10140 0.23460
C22 C 0.319(3) 0.0545(16) 0.309(3)
H39 H 0.33620 0.04240 0.36110
H40 H 0.30000 0.02340 0.27780
C23 C 0.225(4) 0.093(2) 0.308(5)
H41 H 0.23950 0.11880 0.34810
H42 H 0.22200 0.11210 0.25970
C24 C 0.133(5) 0.074(2) 0.315(5)
H43 H 0.08560 0.08580 0.27370
H44 H 0.10870 0.08560 0.36280
H45 H 0.13600 0.03520 0.31480
C25 C 0.458(3) 0.0043(11) 0.197(3)
H46 H 0.51670 -0.01720 0.18280
H47 H 0.40710 -0.01950 0.21690
C26 C 0.409(3) 0.0310(15) 0.127(2)
H48 H 0.35780 0.05680 0.14190
H49 H 0.46280 0.05050 0.10230
C27 C 0.359(4) -0.0051(19) 0.074(3)
H50 H 0.41290 -0.02980 0.05910
H51 H 0.31040 -0.02590 0.10110
C28 C 0.306(5) 0.0119(18) 0.008(2)
H52 H 0.24800 0.03380 0.01960
H53 H 0.28080 -0.01850 -0.02170
H54 H 0.35240 0.03240 -0.02170
C29 C 0.585(2) 0.0791(9) 0.2331(18)
H55 H 0.60780 0.10400 0.27340
H56 H 0.55710 0.09980 0.18940
C30 C 0.680(3) 0.0479(12) 0.210(2)
H57 H 0.66230 0.03050 0.16170
H58 H 0.69660 0.02020 0.24820
C31 C 0.778(4) 0.0844(14) 0.204(3)
H59 H 0.76210 0.11400 0.16930
H60 H 0.80300 0.09860 0.25360
C32 C 0.848(6) 0.054(3) 0.178(4)
C33 C 0.537(2) 0.0137(12) 0.332(2)
H61 H 0.58780 -0.01240 0.31670
H62 H 0.47850 -0.00620 0.34940
C34 C 0.590(4) 0.0457(18) 0.403(2)
H63 H 0.63360 0.07350 0.38330
H64 H 0.53460 0.06340 0.42800
C35 C 0.654(8) 0.016(3) 0.461(4)
H65 H 0.60850 -0.00950 0.48280
H66 H 0.70500 -0.00380 0.43460
C36 C 0.696(9) 0.035(4) 0.507(5)
N6 N 0.4975(18) 0.0449(8) 0.2606(15)
Cu1C Cu 0.5170(2) 0.18927(10) -0.05399(14)
Cu3C Cu 0.5739(2) 0.18519(10) 0.61526(13)
N2C N 0.4311(12) 0.3131(6) 0.5415(8)
N3C N 0.6600(13) 0.3146(6) 0.0194(8)
#END
