
#######################################################################
#
#                 Cambridge Crystallographic Data Centre
#                                CCDC
#
#######################################################################
#
# If this CIF has been generated from an entry in the Cambridge
# Structural Database, then it will include bibliographic, chemical,
# crystal, experimental, refinement or atomic coordinate data resulting
# from the CCDC's data processing and validation procedures.
#
#######################################################################

data_CSD_CIF_IVEFOE
_audit_creation_date 2004-08-03
_audit_creation_method CSD-ConQuest-V1
_database_code_CSD IVEFOE
_database_code_depnum_ccdc_archive 'CCDC 235017'
_chemical_formula_sum 'C8 H28 Co2 N2 O16 P4'
_chemical_formula_moiety
;
(C4 H10 Co2 O14 P4 2-)n,n(C4 H14 N2 2+),2n(H2 O1)
;
_journal_coden_Cambridge 9
_journal_volume 43
_journal_year 2004
_journal_page_first 2151
_journal_name_full 'Inorg.Chem. '
loop_
_publ_author_name
"Li-Min Zheng"
"Song Gao"
"Ping Yin"
"Xin-Quan Xin"
_chemical_name_systematic
;
catena-(Butane-1,4-diammonium 
bis(\m~3~-1-hydroxyethylidene-diphosphonato)-di-cobalt(ii) dihydrate)
;
_cell_volume   1067.589
_exptl_crystal_colour 'purple-red'
_exptl_crystal_density_diffrn 2.022
_exptl_special_details
;
isostructural with the pentane analogue

;
_exptl_crystal_description 'needle'
_exptl_crystal_preparation 'from the melt'
_diffrn_ambient_temperature 293
#These two values have been output from a single CSD field.
_refine_ls_R_factor_gt 0.0352
_refine_ls_wR_factor_gt 0.0352
_symmetry_cell_setting monoclinic
_symmetry_space_group_name_H-M 'P 21/c'
_symmetry_Int_Tables_number 14
loop_
_symmetry_equiv_pos_site_id
_symmetry_equiv_pos_as_xyz
1 x,y,z
2 -x,1/2+y,1/2-z
3 -x,-y,-z
4 x,-1/2-y,-1/2+z
_cell_length_a 5.4868(8)
_cell_length_b 12.9116(18)
_cell_length_c 15.251(2)
_cell_angle_alpha 90
_cell_angle_beta 98.843(2)
_cell_angle_gamma 90
_cell_formula_units_Z 2
loop_
_atom_type_symbol
_atom_type_radius_bond
C 0.68
H 0.23
Co 1.33
N 0.68
O 0.68
P 1.05
loop_
_atom_site_label
_atom_site_type_symbol
_atom_site_fract_x
_atom_site_fract_y
_atom_site_fract_z
Co1 Co 1.10328(7) 0.46809(3) 0.40845(2)
P1 P 0.59522(13) 0.38220(6) 0.32365(5)
P2 P 0.60240(13) 0.60141(6) 0.38878(5)
O1 O 0.8212(3) 0.35888(15) 0.39142(13)
O2 O 0.3470(3) 0.36847(16) 0.35300(14)
O3 O 0.6195(4) 0.31924(19) 0.23983(15)
H1 H 0.528(6) 0.290(3) 0.205(2)
O4 O 0.8137(3) 0.56672(16) 0.45943(12)
O5 O 0.3440(3) 0.58914(16) 0.40936(13)
O6 O 0.6527(4) 0.71453(16) 0.36535(13)
O7 O 0.8940(4) 0.52337(17) 0.28239(14)
H2 H 0.899(6) 0.582(3) 0.258(2)
C1 C 0.6355(5) 0.5183(2) 0.29361(18)
C2 C 0.4658(5) 0.5475(3) 0.20846(18)
H3 H 0.49150 0.61880 0.19470
H4 H 0.29720 0.53750 0.21640
H5 H 0.50180 0.50460 0.16070
O8 O 0.0473(5) 0.19719(19) 0.2974(2)
H6 H 0.15970 0.24640 0.31540
H7 H -0.06520 0.23980 0.26830
N1 N -0.1090(5) 0.2321(2) 0.5397(2)
H8 H -0.223(6) 0.267(3) 0.566(2)
H9 H 0.049(6) 0.239(3) 0.574(2)
H10 H -0.114(6) 0.258(3) 0.489(2)
C3 C -0.1640(7) 0.1196(3) 0.5392(3)
H11 H -0.321(7) 0.107(3) 0.505(2)
H12 H -0.169(6) 0.098(3) 0.598(2)
C4 C 0.0261(6) 0.0580(2) 0.5002(2)
H13 H 0.033(6) 0.079(3) 0.441(2)
H14 H 0.187(6) 0.070(3) 0.538(2)
P1* P 1.59522(13) 0.38220(6) 0.32365(5)
P2* P 1.60240(13) 0.60141(6) 0.38878(5)
O1* O 1.8212(3) 0.35888(15) 0.39142(13)
O2* O 1.3470(3) 0.36847(16) 0.35300(14)
O3* O 1.6195(4) 0.31924(19) 0.23983(15)
H1* H 1.528(6) 0.290(3) 0.205(2)
O4* O 1.8137(3) 0.56672(16) 0.45943(12)
O5* O 1.3440(3) 0.58914(16) 0.40936(13)
O6* O 1.6527(4) 0.71453(16) 0.36535(13)
O7* O 1.8940(4) 0.52337(17) 0.28239(14)
H2* H 1.899(6) 0.582(3) 0.258(2)
C1* C 1.6355(5) 0.5183(2) 0.29361(18)
C2* C 1.4658(5) 0.5475(3) 0.20846(18)
H3* H 1.49150 0.61880 0.19470
H4* H 1.29720 0.53750 0.21640
H5* H 1.50180 0.50460 0.16070
Co1* Co 2.10328(7) 0.46809(3) 0.40845(2)
O4B O 1.1863(3) 0.43328(16) 0.54057(12)
Co1** Co 0.10328(7) 0.46809(3) 0.40845(2)
Co1B Co 0.89672(7) 0.53191(3) 0.59155(2)
Co1B* Co 1.89672(7) 0.53191(3) 0.59155(2)
O2** O 2.3470(3) 0.36847(16) 0.35300(14)
O4B* O 2.1863(3) 0.43328(16) 0.54057(12)
O5** O 2.3440(3) 0.58914(16) 0.40936(13)
C4B C -0.0261(6) -0.0580(2) 0.4998(2)
C3B C 0.1640(7) -0.1196(3) 0.4608(3)
N1B N 0.1090(5) -0.2321(2) 0.4603(2)
H8B H 0.223(6) -0.267(3) 0.434(2)
H9B H -0.049(6) -0.239(3) 0.426(2)
H10B H 0.114(6) -0.258(3) 0.511(2)
H11B H 0.321(7) -0.107(3) 0.495(2)
H12B H 0.169(6) -0.098(3) 0.402(2)
H13B H -0.033(6) -0.079(3) 0.559(2)
H14B H -0.187(6) -0.070(3) 0.462(2)
#END
