
#######################################################################
#
#                 Cambridge Crystallographic Data Centre
#                                CCDC
#
#######################################################################
#
# If this CIF has been generated from an entry in the Cambridge
# Structural Database, then it will include bibliographic, chemical,
# crystal, experimental, refinement or atomic coordinate data resulting
# from the CCDC's data processing and validation procedures.
#
#######################################################################

data_CSD_CIF_IVEGAR
_audit_creation_date 2004-08-03
_audit_creation_method CSD-ConQuest-V1
_database_code_CSD IVEGAR
_database_code_depnum_ccdc_archive 'CCDC 235018'
_chemical_formula_sum 'C9 H30 Co2 N2 O16 P4'
_chemical_formula_moiety
;
(C4 H10 Co2 O14 P4 2-)n,n(C5 H16 N2 2+),2n(H2 O1)
;
_journal_coden_Cambridge 9
_journal_volume 43
_journal_year 2004
_journal_page_first 2151
_journal_name_full 'Inorg.Chem. '
loop_
_publ_author_name
"Li-Min Zheng"
"Song Gao"
"Ping Yin"
"Xin-Quan Xin"
_chemical_name_systematic
;
catena-(Pentane-1,5-diammonium 
bis(\m~3~-1-hydroxyethylidene-diphosphonato)-di-cobalt(ii) dihydrate)
;
_cell_volume   1091.741
_exptl_crystal_colour 'purple-red'
_exptl_crystal_density_diffrn 2.02
_exptl_special_details
;
isotructural with the butane analogue

;
_exptl_crystal_description 'Needle'
_exptl_crystal_preparation 'from the melt'
_diffrn_ambient_temperature 293
_refine_special_details
;
The cation has imposed disorder.

;
#These two values have been output from a single CSD field.
_refine_ls_R_factor_gt 0.0427
_refine_ls_wR_factor_gt 0.0427
_symmetry_cell_setting monoclinic
_symmetry_space_group_name_H-M 'P 21/c'
_symmetry_Int_Tables_number 14
loop_
_symmetry_equiv_pos_site_id
_symmetry_equiv_pos_as_xyz
1 x,y,z
2 -x,1/2+y,1/2-z
3 -x,-y,-z
4 x,-1/2-y,-1/2+z
_cell_length_a 5.4757(7)
_cell_length_b 12.7740(16)
_cell_length_c 15.794(2)
_cell_angle_alpha 90
_cell_angle_beta 98.797(2)
_cell_angle_gamma 90
_cell_formula_units_Z 2
loop_
_atom_type_symbol
_atom_type_radius_bond
C 0.68
H 0.23
Co 1.33
N 0.68
O 0.68
P 1.05
loop_
_atom_site_label
_atom_site_type_symbol
_atom_site_fract_x
_atom_site_fract_y
_atom_site_fract_z
O1 O 0.0605(7) 0.1685(3) 0.3050(3)
H1 H 0.16760 0.22180 0.31350
H2 H -0.07700 0.20710 0.29450
N1 N 0.8829(7) 0.2431(3) 0.5654(3)
H3 H 0.80670 0.28920 0.50630
H4 H 0.81060 0.30510 0.56490
H5 H 1.00980 0.25960 0.58160
C1 C 0.747(2) 0.1500(9) 0.5603(9)
C2 C 0.854(3) 0.0503(9) 0.5412(10)
C3 C 0.962(3) 0.1339(11) 0.5645(10)
C4 C 0.806(2) 0.0669(7) 0.5000(7)
C5 C 0.903(3) -0.0447(9) 0.4945(9)
Co1 Co 1.10755(9) 0.45236(4) 0.41472(3)
P1 P 0.60267(18) 0.35752(8) 0.33972(6)
P2 P 0.60002(18) 0.58524(8) 0.38461(6)
O2 O 0.8297(5) 0.3422(2) 0.40627(18)
O3 O 0.3562(5) 0.3474(2) 0.3699(2)
O4 O 0.6262(5) 0.2836(2) 0.2647(2)
H6 H 0.508(6) 0.254(4) 0.226(2)
O5 O 0.8153(5) 0.5612(2) 0.45443(16)
O6 O 0.3449(5) 0.5734(2) 0.40701(18)
O7 O 0.6394(5) 0.6964(2) 0.35178(18)
O8 O 0.8926(5) 0.4965(2) 0.28754(18)
H7 H 0.879(9) 0.546(4) 0.262(3)
C6 C 0.6362(7) 0.4911(3) 0.3004(2)
C7 C 0.4615(7) 0.5117(4) 0.2169(2)
H8 H 0.47890 0.58290 0.19950
H9 H 0.29420 0.49950 0.22570
H10 H 0.50180 0.46550 0.17320
C2B C 1.146(3) -0.0503(9) 0.4588(10)
C1B C 1.253(2) -0.1500(9) 0.4397(9)
N1B N 1.1171(7) -0.2431(3) 0.4346(3)
H3B H 1.19330 -0.28920 0.49370
H4B H 1.18940 -0.30510 0.43510
H5B H 0.99020 -0.25960 0.41840
C3B C 1.038(3) -0.1339(11) 0.4355(10)
C4B C 1.194(2) -0.0669(7) 0.5000(7)
C5B C 1.097(3) 0.0447(9) 0.5055(9)
P1* P 1.60267(18) 0.35752(8) 0.33972(6)
P2* P 1.60002(18) 0.58524(8) 0.38461(6)
O2* O 1.8297(5) 0.3422(2) 0.40627(18)
O3* O 1.3562(5) 0.3474(2) 0.3699(2)
O4* O 1.6262(5) 0.2836(2) 0.2647(2)
H6* H 1.508(6) 0.254(4) 0.226(2)
O5* O 1.8153(5) 0.5612(2) 0.45443(16)
O6* O 1.3449(5) 0.5734(2) 0.40701(18)
O7* O 1.6394(5) 0.6964(2) 0.35178(18)
O8* O 1.8926(5) 0.4965(2) 0.28754(18)
H7* H 1.879(9) 0.546(4) 0.262(3)
C6* C 1.6362(7) 0.4911(3) 0.3004(2)
C7* C 1.4615(7) 0.5117(4) 0.2169(2)
H8* H 1.47890 0.58290 0.19950
H9* H 1.29420 0.49950 0.22570
H10* H 1.50180 0.46550 0.17320
Co1* Co 2.10755(9) 0.45236(4) 0.41472(3)
O5B O 1.1847(5) 0.4388(2) 0.54557(16)
Co1** Co 0.10755(9) 0.45236(4) 0.41472(3)
Co1B Co 0.89245(9) 0.54764(4) 0.58528(3)
Co1B* Co 1.89245(9) 0.54764(4) 0.58528(3)
O3** O 2.3562(5) 0.3474(2) 0.3699(2)
O5B* O 2.1847(5) 0.4388(2) 0.54557(16)
O6** O 2.3449(5) 0.5734(2) 0.40701(18)
#END
