
#######################################################################
#
#                 Cambridge Crystallographic Data Centre
#                                CCDC
#
#######################################################################
#
# If this CIF has been generated from an entry in the Cambridge
# Structural Database, then it will include bibliographic, chemical,
# crystal, experimental, refinement or atomic coordinate data resulting
# from the CCDC's data processing and validation procedures.
#
#######################################################################

data_CSD_CIF_IVERIM
_audit_creation_date 2016-09-13
_audit_creation_method CSD-ConQuest-V1
_database_code_CSD IVERIM
_database_code_depnum_ccdc_archive 'CCDC 1448154'
_chemical_formula_sum 'C34 H38 Cr2 Mn2 N6 O26'
_chemical_formula_moiety
;
(C16 H24 N4 2+)n,2n(C7 H4 Cr1 Mn1 O13 1-),2n(C2 H3 N1)
;
_journal_coden_Cambridge 1290
_journal_year 2016
_journal_page_first 4185
_journal_name_full 'Eur.J.Inorg.Chem. '
loop_
_publ_author_name
"C.Maxim"
"S.Saureu"
"C.de Graaf"
"S.Ferlay"
"M.W.Hosseini"
"V.Robert"
"C.Train"
_chemical_name_systematic
;
catena-(3-methyl-2-(4-(3-methyl-3,4,5,6-tetrahydropyrimidin-1-ium-2-yl)phenyl)
-3,4,5,6-tetrahydropyrimidin-1-ium 
bis(tris(\m-oxalato)-methanol-chromium-manganese) acetonitrile solvate)
;
_cell_volume   2304.639
_exptl_crystal_colour 'violet'
_exptl_crystal_density_diffrn 1.672
_exptl_crystal_description 'prism'
_diffrn_ambient_temperature 173
#These two values have been output from a single CSD field.
_refine_ls_R_factor_gt 0.0505
_refine_ls_wR_factor_gt 0.0505
_symmetry_cell_setting monoclinic
_symmetry_space_group_name_H-M 'P 21/n'
_symmetry_Int_Tables_number 14
loop_
_symmetry_equiv_pos_site_id
_symmetry_equiv_pos_as_xyz
1 x,y,z
2 1/2-x,1/2+y,1/2-z
3 -x,-y,-z
4 -1/2+x,-1/2-y,-1/2+z
_cell_length_a 9.2235(2)
_cell_length_b 15.3552(4)
_cell_length_c 16.5639(5)
_cell_angle_alpha 90
_cell_angle_beta 100.765(1)
_cell_angle_gamma 90
_cell_formula_units_Z 2
loop_
_atom_type_symbol
_atom_type_radius_bond
C 0.68
H 0.23
Cr 1.39
Mn 1.61
N 0.68
O 0.68
loop_
_atom_site_label
_atom_site_type_symbol
_atom_site_fract_x
_atom_site_fract_y
_atom_site_fract_z
C1 C 0.3679(5) 0.9736(3) -0.0478(3)
H1 H 0.27870 0.95580 -0.07940
C2 C 0.3975(5) 0.9567(3) 0.0357(3)
C3 C 0.5302(5) 0.9833(3) 0.0843(3)
H2 H 0.54970 0.97210 0.14040
C4 C 0.2819(5) 0.9164(3) 0.0758(3)
C5 C 0.1150(5) 0.9364(3) 0.1730(3)
H3 H 0.06340 0.98750 0.18730
H4 H 0.15230 0.90420 0.22300
C6 C 0.0109(5) 0.8798(4) 0.1136(3)
H5 H -0.06480 0.85600 0.14080
H6 H -0.03700 0.91450 0.06730
C7 C 0.0961(6) 0.8069(4) 0.0838(3)
H7 H 0.13070 0.76720 0.12880
H8 H 0.03170 0.77470 0.04110
C8 C 0.2887(5) 0.7801(3) 0.0001(3)
H9 H 0.22780 0.72920 -0.01090
H10 H 0.38530 0.76350 0.02840
H11 H 0.29650 0.80800 -0.05080
N1 N 0.2373(4) 0.9626(3) 0.1334(3)
H12 H 0.28230 1.01060 0.14860
N2 N 0.2227(4) 0.8403(2) 0.0512(2)
C9 C 0.0026(8) 0.4632(5) 0.1294(5)
H13 H 0.00080 0.41820 0.08900
H14 H -0.08490 0.49810 0.11580
H15 H 0.00660 0.43740 0.18250
C10 C 0.1350(8) 0.5191(5) 0.1308(5)
N3 N 0.2342(8) 0.5606(6) 0.1336(6)
C11 C 0.5735(10) 0.4900(5) 0.1228(7)
H16 H 0.49130 0.45800 0.09290
H17 H 0.60260 0.46520 0.17660
H18 H 0.65460 0.48710 0.09400
C12 C 0.4776(4) 0.6688(3) 0.3239(3)
C13 C 0.4034(5) 0.7367(3) 0.2609(3)
C14 C 0.6915(5) 0.7727(3) 0.0341(3)
C15 C 0.7747(5) 0.6894(3) 0.0211(3)
C16 C 0.9349(5) 0.7462(3) 0.3028(3)
C17 C 0.9729(5) 0.6518(3) 0.2830(2)
Cr1 Cr 0.72443(7) 0.77615(4) -0.12537(4)
Mn1 Mn 0.66918(7) 0.68013(4) 0.19224(4)
O1 O 0.4603(3) 0.7519(2) 0.2003(2)
O2 O 0.5320(4) 0.5785(2) 0.1301(3)
H19 H 0.44480 0.58090 0.13420
O3 O 0.5912(3) 0.6331(2) 0.31256(19)
O4 O 0.2891(3) 0.7729(2) 0.27758(18)
O5 O 0.4097(3) 0.65592(19) 0.38372(18)
O6 O 0.8122(3) 0.6831(2) -0.04974(19)
O7 O 0.6704(3) 0.8255(2) -0.02601(18)
O8 O 1.0364(3) 0.78853(19) 0.34845(19)
O9 O 1.1084(3) 0.63078(19) 0.30884(18)
O10 O 0.8093(3) 0.7740(2) 0.27352(19)
O11 O 0.8744(3) 0.60478(19) 0.24596(18)
O12 O 0.6524(4) 0.7845(2) 0.1009(2)
O13 O 0.8014(4) 0.6378(2) 0.0783(2)
C1B C 0.6321(5) 1.0264(3) 0.0478(3)
H1B H 0.72130 1.04420 0.07940
C2B C 0.6025(5) 1.0433(3) -0.0357(3)
C3B C 0.4698(5) 1.0167(3) -0.0843(3)
H2B H 0.45030 1.02790 -0.14040
C4B C 0.7181(5) 1.0836(3) -0.0758(3)
C5B C 0.8850(5) 1.0636(3) -0.1730(3)
H3B H 0.93660 1.01250 -0.18730
H4B H 0.84770 1.09580 -0.22300
C6B C 0.9891(5) 1.1202(4) -0.1136(3)
H5B H 1.06480 1.14400 -0.14080
H6B H 1.03700 1.08550 -0.06730
C7B C 0.9039(6) 1.1931(4) -0.0838(3)
H7B H 0.86930 1.23280 -0.12880
H8B H 0.96830 1.22530 -0.04110
C8B C 0.7113(5) 1.2199(3) -0.0001(3)
H9B H 0.77220 1.27080 0.01090
H10B H 0.61470 1.23650 -0.02840
H11B H 0.70350 1.19200 0.05080
N1B N 0.7627(4) 1.0374(3) -0.1334(3)
H12B H 0.71770 0.98940 -0.14860
N2B N 0.7773(4) 1.1597(2) -0.0512(2)
Cr1C Cr 0.22443(7) 0.72385(4) 0.37463(4)
Cr1C* Cr 1.22443(7) 0.72385(4) 0.37463(4)
O4C O 0.7891(3) 0.7271(2) -0.22242(18)
O5C O 0.9097(3) 0.84408(19) -0.11628(18)
O8C O 0.5364(3) 0.71147(19) -0.15155(19)
O9C O 0.6084(3) 0.86922(19) -0.19116(18)
#END
