
#######################################################################
#
#                 Cambridge Crystallographic Data Centre
#                                CCDC
#
#######################################################################
#
# If this CIF has been generated from an entry in the Cambridge
# Structural Database, then it will include bibliographic, chemical,
# crystal, experimental, refinement or atomic coordinate data resulting
# from the CCDC's data processing and validation procedures.
#
#######################################################################

data_CSD_CIF_IVOBUS
_audit_creation_date 2016-09-14
_audit_creation_method CSD-ConQuest-V1
_database_code_CSD IVOBUS
_database_code_depnum_ccdc_archive 'CCDC 1490174'
_chemical_formula_sum 'C70 H63 Ag3 N14 O96 P2 W24'
_chemical_formula_moiety
;
(C70 H63 Ag3 N14 O16 6+)n,2(O40 P1 W12 3-)
;
_journal_coden_Cambridge 1295
_journal_volume 72
_journal_year 2016
_journal_page_first 91
_journal_name_full 'Inorg.Chem.Commun. '
loop_
_publ_author_name
"Zhuanfang Zhang"
"Huiyuan Ma"
"Haijun Pang"
"Chunjing Zhang"
"Tingting Yu"
"Shaobin Li"
"Chunyan Zhao"
_chemical_name_systematic
;
catena-[tetrakis(\m-4,4'-bipyridine-1,1'-dioxido)-tris(\m-hydrogen 
4,4'-bipyridine-1,1'-dioxido)-diaqua-tri-silver(i) 
bis((\m-phosphato)-tetracosakis(\m-oxido)-dodecaoxo-dodeca-tungsten)]
;
_cell_volume   3206.255
_exptl_crystal_colour 'yellow'
_exptl_crystal_density_diffrn 3.847
_exptl_special_details
;
The hydroxy H atoms have not been located and have been placed arbitrarily in 
the 2D diagram
;
_exptl_crystal_description 'block'
_diffrn_ambient_temperature 293
#These two values have been output from a single CSD field.
_refine_ls_R_factor_gt 0.0797
_refine_ls_wR_factor_gt 0.0797
_symmetry_cell_setting triclinic
_symmetry_space_group_name_H-M 'P -1'
_symmetry_Int_Tables_number 2
loop_
_symmetry_equiv_pos_site_id
_symmetry_equiv_pos_as_xyz
1 x,y,z
2 -x,-y,-z
_cell_length_a 12.297(5)
_cell_length_b 15.990(5)
_cell_length_c 16.616(5)
_cell_angle_alpha 97.692(5)
_cell_angle_beta 90.507(5)
_cell_angle_gamma 97.846(5)
_cell_formula_units_Z 1
loop_
_atom_type_symbol
_atom_type_radius_bond
C 0.68
H 0.23
Ag 1.45
N 0.68
O 0.68
P 1.05
W 1.62
loop_
_atom_site_label
_atom_site_type_symbol
_atom_site_fract_x
_atom_site_fract_y
_atom_site_fract_z
W1 W 1.19053(8) 0.18881(7) 0.03834(6)
W2 W 1.08332(9) 0.08698(8) 0.20275(7)
W3 W 0.72245(9) 0.00556(8) 0.04875(7)
W4 W 1.11137(9) 0.09940(8) -0.16495(7)
W5 W 0.9136(1) 0.19409(7) 0.09002(7)
W6 W 0.83446(10) 0.10900(8) -0.11354(8)
P1 P 1.00000 0.00000 0.00000
O1 O 1.284(2) 0.1058(16) 0.0117(13)
O2 O 1.221(2) 0.0345(19) -0.1362(13)
O3 O 0.9797(18) 0.1570(15) 0.1800(14)
O4 O 1.059(2) 0.229(2) 0.0557(15)
O5 O 0.872(2) 0.1918(18) -0.0200(17)
O6 O 1.162(2) 0.1816(16) -0.0772(14)
O7 O 1.1811(18) 0.1511(17) 0.1430(13)
O8 O 0.871(2) 0.2840(16) 0.129(2)
O9 O 1.1248(18) 0.1281(18) 0.2969(12)
O10 O 0.5905(18) 0.0059(13) 0.0697(13)
O11 O 1.037(2) -0.0029(17) -0.2255(16)
O12 O 0.789(2) 0.1153(15) 0.1006(15)
O13 O 1.166(2) -0.0023(18) 0.1830(17)
O14 O 1.161(2) 0.1442(13) -0.2417(12)
O15 O 1.281(2) 0.2761(15) 0.0517(14)
O16 O 0.7547(16) 0.1561(14) -0.1682(15)
O17 O 0.732(2) 0.0509(15) -0.0500(14)
O18 O 0.977(2) 0.1394(16) -0.153(2)
O19 O 0.903(3) -0.0473(19) 0.0271(18)
O20 O 0.980(2) 0.021(2) -0.0863(19)
O21 O 1.038(3) 0.083(2) 0.0550(18)
O22 O 0.904(3) 0.056(2) 0.005(2)
W7 W 0.86752(9) 0.29282(7) 0.42217(7)
W8 W 0.75138(9) 0.58435(8) 0.48222(7)
W9 W 0.98906(10) 0.67250(7) 0.38789(7)
W10 W 0.85402(8) 0.46575(7) 0.31147(6)
W11 W 1.10418(10) 0.38192(8) 0.32832(7)
W12 W 1.23768(9) 0.58785(8) 0.40640(7)
P2 P 1.00000 0.50000 0.50000
O23 O 0.949(2) 0.269(2) 0.5110(14)
O24 O 0.926(2) 0.5764(15) 0.3132(14)
O25 O 0.998(2) 0.3003(16) 0.3636(16)
O26 O 1.1547(18) 0.3270(13) 0.2479(12)
O27 O 0.8145(19) 0.3612(18) 0.3515(17)
O28 O 0.7843(17) 0.4550(17) 0.2240(12)
O29 O 1.104(3) 0.482(2) 0.456(2)
O30 O 1.1268(19) 0.6393(18) 0.3619(12)
O31 O 0.8550(19) 0.6641(14) 0.4391(16)
O32 O 0.799(2) 0.6367(14) 0.5895(16)
O33 O 0.6316(19) 0.6208(14) 0.4692(14)
O34 O 0.992(2) 0.4290(16) 0.2838(16)
O35 O 1.3507(17) 0.6324(16) 0.3649(12)
O36 O 0.985(2) 0.7538(16) 0.3350(15)
O37 O 0.703(2) 0.4820(16) 0.5300(15)
O38 O 0.8000(19) 0.1948(13) 0.3884(15)
O39 O 1.1876(17) 0.4881(12) 0.3322(11)
O40 O 1.229(2) 0.6656(16) 0.5021(15)
O41 O 0.7540(16) 0.5145(13) 0.3835(12)
O42 O 0.929(2) 0.5403(18) 0.4472(17)
O43 O 1.061(3) 0.580(2) 0.4770(19)
O44 O 0.964(3) 0.438(2) 0.421(2)
Ag1 Ag 0.4205(2) 0.5994(2) 0.1259(2)
Ag2 Ag 0.50000 0.00000 0.50000
O45 O 0.3283(17) 0.6412(13) 0.0516(12)
O46 O 0.537(2) 1.0052(15) -0.3538(13)
O47 O 0.5085(16) 0.5184(13) 0.1629(12)
O48 O 0.2912(14) 0.5354(12) 0.1671(11)
O49 O 0.441(3) 0.6994(17) 0.2287(15)
O50 O -0.4536(16) 0.6426(13) 0.0704(12)
O51 O 0.6361(16) 0.0801(12) 0.4945(12)
O52 O 0.4252(17) 0.0990(14) 0.5239(13)
N1 N 0.517(2) 0.9518(15) -0.3016(14)
N2 N 0.4779(19) 0.4678(15) 0.2180(14)
N3 N 0.3707(19) 0.6913(14) -0.0030(13)
N4 N 0.1872(18) 0.5537(13) 0.1538(12)
N5 N -0.3498(17) 0.6261(15) 0.0878(14)
N6 N 0.735(2) 0.0512(16) 0.4953(15)
N7 N 0.432(2) 0.1589(16) 0.4785(15)
C1 C 0.445(2) 0.3481(17) 0.3247(18)
C2 C 0.520(2) 0.4890(17) 0.294(2)
H1 H 0.56010 0.54270 0.30870
C3 C 0.558(2) 0.9056(16) -0.1782(15)
H2 H 0.60340 0.91400 -0.13180
C4 C 0.506(2) 0.4333(18) 0.3483(18)
H3 H 0.53560 0.44900 0.40080
C5 C 0.521(2) 0.2823(16) 0.4345(15)
H4 H 0.58240 0.32400 0.44100
C6 C 0.399(2) 0.8477(18) -0.2498(18)
H5 H 0.33130 0.81260 -0.25370
C7 C 0.441(2) 0.2851(16) 0.3768(15)
C8 C 0.377(2) 0.711(2) -0.1417(15)
H6 H 0.35770 0.69000 -0.19570
C9 C 0.463(2) 0.8201(15) -0.0397(14)
H7 H 0.50510 0.87270 -0.02350
C10 C 0.425(2) 0.7669(19) 0.0172(17)
H8 H 0.43970 0.78650 0.07210
C11 C 0.419(2) 0.395(2) 0.1978(16)
H9 H 0.38760 0.38310 0.14570
C12 C 0.401(2) 0.3360(17) 0.2464(16)
H10 H 0.35700 0.28490 0.22750
C13 C 0.466(2) 0.8435(16) -0.1845(15)
C14 C 0.419(2) 0.8965(18) -0.3080(16)
H11 H 0.37030 0.89350 -0.35150
C15 C 0.879(3) -0.010(2) 0.433(2)
H12 H 0.90670 -0.03380 0.38510
C16 C 0.161(2) 0.6288(19) 0.1679(17)
H13 H 0.21430 0.67340 0.18910
C17 C 0.584(2) 0.9542(17) -0.2386(16)
H14 H 0.65040 0.99000 -0.23540
C18 C -0.312(2) 0.561(2) 0.0440(18)
H15 H -0.35740 0.52510 0.00490
C19 C 0.511(2) 0.221(2) 0.4803(18)
H16 H 0.56810 0.22180 0.51800
C20 C -0.295(2) 0.6696(19) 0.1517(18)
H17 H -0.32680 0.70740 0.18830
C21 C 0.945(3) 0.008(2) 0.497(2)
C22 C -0.186(2) 0.6568(18) 0.1621(18)
H18 H -0.14160 0.69280 0.20140
C23 C -0.144(2) 0.5931(16) 0.1164(16)
C24 C 0.767(3) 0.004(2) 0.432(2)
H19 H 0.71950 -0.01910 0.38820
C25 C 0.345(2) 0.6612(17) -0.0829(16)
H20 H 0.30660 0.60690 -0.09720
C26 C -0.207(2) 0.5464(18) 0.0569(15)
H21 H -0.17870 0.50340 0.02360
C27 C 0.354(2) 0.2162(18) 0.3734(16)
H22 H 0.29990 0.21240 0.33300
C28 C 0.059(2) 0.646(2) 0.1536(18)
H23 H 0.04610 0.70270 0.16000
C29 C 0.342(2) 0.1559(16) 0.4230(15)
H24 H 0.28040 0.11510 0.42110
C30 C 0.112(2) 0.4837(18) 0.1315(16)
H25 H 0.13260 0.42930 0.12620
C31 C -0.028(2) 0.5810(17) 0.1292(15)
C32 C 0.005(2) 0.4958(19) 0.1168(16)
H26 H -0.04720 0.44900 0.09890
C33 C 0.800(3) 0.081(2) 0.570(3)
H27 H 0.77570 0.11200 0.61650
C34 C 0.898(3) 0.056(2) 0.561(3)
H28 H 0.94460 0.07370 0.60610
C35 C 0.4361(19) 0.7919(15) -0.1226(14)
O19A O 1.097(3) 0.0473(19) -0.0271(18)
O20A O 1.020(2) -0.021(2) 0.0863(19)
O21A O 0.962(3) -0.083(2) -0.0550(18)
O22A O 1.096(3) -0.056(2) -0.005(2)
W1A W 0.80947(8) -0.18881(7) -0.03834(6)
W2A W 0.91668(9) -0.08698(8) -0.20275(7)
W3A W 1.27755(9) -0.00556(8) -0.04875(7)
W4A W 0.88863(9) -0.09940(8) 0.16495(7)
W5A W 1.0864(1) -0.19409(7) -0.09002(7)
W6A W 1.16554(10) -0.10900(8) 0.11354(8)
O1A O 0.716(2) -0.1058(16) -0.0117(13)
O2A O 0.779(2) -0.0345(19) 0.1362(13)
O3A O 1.0203(18) -0.1570(15) -0.1800(14)
O4A O 0.941(2) -0.229(2) -0.0557(15)
O5A O 1.128(2) -0.1918(18) 0.0200(17)
O6A O 0.838(2) -0.1816(16) 0.0772(14)
O7A O 0.8189(18) -0.1511(17) -0.1430(13)
O8A O 1.129(2) -0.2840(16) -0.129(2)
O9A O 0.8752(18) -0.1281(18) -0.2969(12)
O10A O 1.4095(18) -0.0059(13) -0.0697(13)
O11A O 0.963(2) 0.0029(17) 0.2255(16)
O12A O 1.211(2) -0.1153(15) -0.1006(15)
O13A O 0.834(2) 0.0023(18) -0.1830(17)
O14A O 0.839(2) -0.1442(13) 0.2417(12)
O15A O 0.719(2) -0.2761(15) -0.0517(14)
O16A O 1.2453(16) -0.1561(14) 0.1682(15)
O17A O 1.268(2) -0.0509(15) 0.0500(14)
O18A O 1.023(2) -0.1394(16) 0.153(2)
O29A O 0.896(3) 0.518(2) 0.544(2)
O42A O 1.071(2) 0.4597(18) 0.5528(17)
O43A O 0.939(3) 0.420(2) 0.5230(19)
O44A O 1.036(3) 0.562(2) 0.579(2)
W7A W 1.13248(9) 0.70718(7) 0.57783(7)
W8A W 1.24862(9) 0.41565(8) 0.51778(7)
W9A W 1.01094(10) 0.32750(7) 0.61211(7)
W10A W 1.14598(8) 0.53425(7) 0.68853(6)
W11A W 0.89582(10) 0.61808(8) 0.67168(7)
W12A W 0.76232(9) 0.41215(8) 0.59360(7)
O23A O 1.051(2) 0.731(2) 0.4890(14)
O24A O 1.074(2) 0.4236(15) 0.6868(14)
O25A O 1.002(2) 0.6997(16) 0.6364(16)
O26A O 0.8453(18) 0.6730(13) 0.7521(12)
O27A O 1.1855(19) 0.6388(18) 0.6485(17)
O28A O 1.2157(17) 0.5450(17) 0.7760(12)
O30A O 0.8732(19) 0.3607(18) 0.6381(12)
O31A O 1.1450(19) 0.3359(14) 0.5609(16)
O32A O 1.201(2) 0.3633(14) 0.4105(16)
O33A O 1.3684(19) 0.3792(14) 0.5308(14)
O34A O 1.008(2) 0.5710(16) 0.7162(16)
O35A O 0.6493(17) 0.3676(16) 0.6351(12)
O36A O 1.015(2) 0.2462(16) 0.6650(15)
O37A O 1.297(2) 0.5180(16) 0.4700(15)
O38A O 1.2000(19) 0.8052(13) 0.6116(15)
O39A O 0.8124(17) 0.5119(12) 0.6678(11)
O40A O 0.771(2) 0.3344(16) 0.4979(15)
O41A O 1.2460(16) 0.4855(13) 0.6165(12)
O51A O 1.3639(16) -0.0801(12) 0.5055(12)
N6A N 1.265(2) -0.0512(16) 0.5047(15)
C15A C 1.121(3) 0.010(2) 0.567(2)
H12A H 1.09330 0.03380 0.61490
C21A C 1.055(3) -0.008(2) 0.503(2)
C24A C 1.233(3) -0.004(2) 0.568(2)
H19A H 1.28050 0.01910 0.61180
C33A C 1.200(3) -0.081(2) 0.430(3)
H27A H 1.22430 -0.11200 0.38350
C34A C 1.102(3) -0.056(2) 0.439(3)
H28A H 1.05540 -0.07370 0.39390
Ag1A Ag 0.5795(2) -0.5994(2) 0.8741(2)
O45A O 0.6717(17) -0.6412(13) 0.9484(12)
O46A O 0.463(2) -1.0052(15) 1.3538(13)
O47A O 0.4915(16) -0.5184(13) 0.8371(12)
O48A O 0.7088(14) -0.5354(12) 0.8329(11)
O49A O 0.559(3) -0.6994(17) 0.7713(15)
O50A O 1.4536(16) -0.6426(13) 0.9296(12)
O52A O 0.5748(17) -0.0990(14) 0.4761(13)
N1A N 0.483(2) -0.9518(15) 1.3016(14)
N2A N 0.5221(19) -0.4678(15) 0.7820(14)
N3A N 0.6293(19) -0.6913(14) 1.0030(13)
N4A N 0.8128(18) -0.5537(13) 0.8462(12)
N5A N 1.3498(17) -0.6261(15) 0.9122(14)
N7A N 0.568(2) -0.1589(16) 0.5215(15)
C1A C 0.555(2) -0.3481(17) 0.6753(18)
C2A C 0.480(2) -0.4890(17) 0.706(2)
H1A H 0.43990 -0.54270 0.69130
C3A C 0.442(2) -0.9056(16) 1.1782(15)
H2A H 0.39660 -0.91400 1.13180
C4A C 0.494(2) -0.4333(18) 0.6517(18)
H3A H 0.46440 -0.44900 0.59920
C5A C 0.479(2) -0.2823(16) 0.5655(15)
H4A H 0.41760 -0.32400 0.55900
C6A C 0.601(2) -0.8477(18) 1.2498(18)
H5A H 0.66870 -0.81260 1.25370
C7A C 0.559(2) -0.2851(16) 0.6232(15)
C8A C 0.623(2) -0.711(2) 1.1417(15)
H6A H 0.64230 -0.69000 1.19570
C9A C 0.537(2) -0.8201(15) 1.0397(14)
H7A H 0.49490 -0.87270 1.02350
C10A C 0.575(2) -0.7669(19) 0.9828(17)
H8A H 0.56030 -0.78650 0.92790
C11A C 0.581(2) -0.395(2) 0.8022(16)
H9A H 0.61240 -0.38310 0.85430
C12A C 0.599(2) -0.3360(17) 0.7536(16)
H10A H 0.64300 -0.28490 0.77250
C13A C 0.534(2) -0.8435(16) 1.1845(15)
C14A C 0.581(2) -0.8965(18) 1.3080(16)
H11A H 0.62970 -0.89350 1.35150
C16A C 0.839(2) -0.6288(19) 0.8321(17)
H13A H 0.78570 -0.67340 0.81090
C17A C 0.416(2) -0.9542(17) 1.2386(16)
H14A H 0.34960 -0.99000 1.23540
C18A C 1.312(2) -0.561(2) 0.9560(18)
H15A H 1.35740 -0.52510 0.99510
C19A C 0.489(2) -0.221(2) 0.5197(18)
H16A H 0.43190 -0.22180 0.48200
C20A C 1.295(2) -0.6696(19) 0.8483(18)
H17A H 1.32680 -0.70740 0.81170
C22A C 1.186(2) -0.6568(18) 0.8379(18)
H18A H 1.14160 -0.69280 0.79860
C23A C 1.144(2) -0.5931(16) 0.8836(16)
C25A C 0.655(2) -0.6612(17) 1.0829(16)
H20A H 0.69340 -0.60690 1.09720
C26A C 1.207(2) -0.5464(18) 0.9431(15)
H21A H 1.17870 -0.50340 0.97640
C27A C 0.646(2) -0.2162(18) 0.6266(16)
H22A H 0.70010 -0.21240 0.66700
C28A C 0.941(2) -0.646(2) 0.8464(18)
H23A H 0.95390 -0.70270 0.84000
C29A C 0.658(2) -0.1559(16) 0.5770(15)
H24A H 0.71960 -0.11510 0.57890
C30A C 0.888(2) -0.4837(18) 0.8685(16)
H25A H 0.86740 -0.42930 0.87380
C31A C 1.028(2) -0.5810(17) 0.8708(15)
C32A C 0.995(2) -0.4958(19) 0.8832(16)
H26A H 1.04720 -0.44900 0.90110
C35A C 0.5639(19) -0.7919(15) 1.1226(14)
Ag1* Ag -0.5795(2) 0.5994(2) 0.1259(2)
Ag1A* Ag 1.5795(2) -0.5994(2) 0.8741(2)
Ag2* Ag 0.50000 -1.00000 1.50000
Ag2** Ag 0.50000 1.00000 -0.50000
Ag2*** Ag 1.50000 0.00000 0.50000
O46* O 0.537(2) 0.0052(15) 0.6462(13)
O46A* O 0.463(2) -0.0052(15) 0.3538(13)
O50* O 0.5464(16) 0.6426(13) 0.0704(12)
O50A* O 0.4536(16) -0.6426(13) 0.9296(12)
O51A* O 0.3639(16) -0.0801(12) 0.5055(12)
#END
