
#######################################################################
#
#                 Cambridge Crystallographic Data Centre
#                                CCDC
#
#######################################################################
#
# If this CIF has been generated from an entry in the Cambridge
# Structural Database, then it will include bibliographic, chemical,
# crystal, experimental, refinement or atomic coordinate data resulting
# from the CCDC's data processing and validation procedures.
#
#######################################################################

data_CSD_CIF_IVUVOM
_audit_creation_date 2016-09-14
_audit_creation_method CSD-ConQuest-V1
_database_code_CSD IVUVOM
_database_code_depnum_ccdc_archive 'CCDC 1448809'
_chemical_formula_sum 'C16 H14 N3 O9 Sm1'
_chemical_formula_moiety
;
0.5(C4 H12 N2 2+),n(C14 H8 N2 O9 Sm1 1-)
;
_journal_coden_Cambridge 208
_journal_volume 244
_journal_year 2016
_journal_page_first 61
_journal_name_full 'J.Solid State Chem. '
loop_
_publ_author_name
"B.Ay"
"E.Yildiz"
"A.C.Felts"
"K.A.Abboud"
_chemical_name_systematic
;
catena-[hemikis(piperazinediium) 
bis(\m-pyridine-2,6-dicarboxylato)-aqua-samarium(iii)]
;
_cell_volume    834.673
_exptl_crystal_colour 'colorless'
_exptl_crystal_density_diffrn 2.159
_exptl_crystal_description 'block'
_diffrn_ambient_temperature 100
#These two values have been output from a single CSD field.
_refine_ls_R_factor_gt 0.011
_refine_ls_wR_factor_gt 0.011
_symmetry_cell_setting triclinic
_symmetry_space_group_name_H-M 'P -1'
_symmetry_Int_Tables_number 2
loop_
_symmetry_equiv_pos_site_id
_symmetry_equiv_pos_as_xyz
1 x,y,z
2 -x,-y,-z
_cell_length_a 6.9138(4)
_cell_length_b 10.8451(6)
_cell_length_c 12.2155(6)
_cell_angle_alpha 112.5046(8)
_cell_angle_beta 95.6993(9)
_cell_angle_gamma 94.7594(8)
_cell_formula_units_Z 2
loop_
_atom_type_symbol
_atom_type_radius_bond
C 0.68
H 0.23
N 0.68
O 0.68
Sm 1.98
loop_
_atom_site_label
_atom_site_type_symbol
_atom_site_fract_x
_atom_site_fract_y
_atom_site_fract_z
Sm1 Sm 0.64745(2) 0.17815(2) 0.63861(2)
O1 O 0.78478(16) 0.20335(11) 0.83887(9)
O2 O 0.76440(17) 0.25453(12) 1.03318(10)
O3 O 0.30968(15) 0.21865(10) 0.57780(9)
O4 O -0.00092(15) 0.22978(11) 0.61333(10)
O5 O 0.57606(15) 0.04059(10) 0.41828(9)
O6 O 0.55351(19) 0.02547(11) 0.22878(10)
O7 O 0.71369(16) 0.41944(11) 0.73716(9)
O8 O 0.77993(17) 0.62662(11) 0.73919(10)
O9 O 0.84170(19) -0.01252(12) 0.62100(11)
H1 H 0.793(4) -0.083(3) 0.562(2)
H2 H 0.948(4) -0.005(3) 0.617(2)
N1 N 0.43052(18) 0.26345(12) 0.80164(11)
N2 N 0.67289(18) 0.30550(12) 0.50380(11)
C1 C 0.7009(2) 0.24681(14) 0.93074(13)
C2 C 0.5044(2) 0.29351(14) 0.91576(13)
C3 C 0.4072(2) 0.36252(15) 1.01065(13)
H3 H 0.46180 0.38150 1.09080
C4 C 0.2287(2) 0.40324(15) 0.98612(14)
H4 H 0.16140 0.45330 1.04950
C5 C 0.1495(2) 0.36992(15) 0.86767(14)
H5 H 0.02710 0.39590 0.84840
C6 C 0.2545(2) 0.29757(14) 0.77845(13)
C7 C 0.1792(2) 0.24617(14) 0.64667(13)
C8 C 0.5885(2) 0.09026(15) 0.33706(13)
C9 C 0.6509(2) 0.24037(15) 0.38468(13)
C10 C 0.6815(2) 0.30589(15) 0.30858(14)
H6 H 0.66390 0.25750 0.22420
C11 C 0.7387(2) 0.44426(16) 0.35936(14)
H7 H 0.76380 0.49170 0.31000
C12 C 0.7587(2) 0.51272(15) 0.48303(14)
H8 H 0.79510 0.60750 0.51930
C13 C 0.7243(2) 0.43935(15) 0.55226(13)
C14 C 0.7420(2) 0.50268(15) 0.68784(13)
N3 N 1.0766(2) 0.13948(13) 1.06121(12)
H9 H 0.972(3) 0.182(2) 1.0454(19)
H10 H 1.160(3) 0.208(2) 1.110(2)
C15 C 1.1463(2) 0.05476(16) 0.94816(15)
H11 H 1.26350 0.01590 0.96690
H12 H 1.18350 0.11090 0.90400
C16 C 1.0151(2) 0.05769(16) 1.12896(14)
H13 H 0.96710 0.11590 1.20280
H14 H 1.12880 0.01890 1.15240
Sm1* Sm -0.35255(2) 0.17815(2) 0.63861(2)
Sm1A Sm 0.35255(2) -0.17815(2) 0.36139(2)
O4* O 0.99908(15) 0.22978(11) 0.61333(10)
O5A O 0.42394(15) -0.04059(10) 0.58172(9)
N3A N 0.9234(2) -0.13948(13) 0.93879(12)
H9A H 1.028(3) -0.182(2) 0.9546(19)
H10A H 0.840(3) -0.208(2) 0.890(2)
C15A C 0.8537(2) -0.05476(16) 1.05184(15)
H11A H 0.73650 -0.01590 1.03310
H12A H 0.81650 -0.11090 1.09600
C16A C 0.9849(2) -0.05769(16) 0.87104(14)
H13A H 1.03290 -0.11590 0.79720
H14A H 0.87120 -0.01890 0.84760
#END
