
#######################################################################
#
#                 Cambridge Crystallographic Data Centre
#                                CCDC
#
#######################################################################
#
# If this CIF has been generated from an entry in the Cambridge
# Structural Database, then it will include bibliographic, chemical,
# crystal, experimental, refinement or atomic coordinate data resulting
# from the CCDC's data processing and validation procedures.
#
#######################################################################

data_CSD_CIF_IVUWUR
_audit_creation_date 2004-08-04
_audit_creation_method CSD-ConQuest-V1
_database_code_CSD IVUWUR
_database_code_depnum_ccdc_archive 'CCDC 219500'
_chemical_formula_sum 'C66 H108 In3 N3 S30'
_chemical_formula_moiety
;
(C16 H36 N1 1+)3n,n(C18 In3 S30 3-)
;
_journal_coden_Cambridge 155
_journal_volume 357
_journal_year 2004
_journal_page_first 1487
_journal_name_full 'Inorg.Chim.Acta '
loop_
_publ_author_name
"B.M.F.Avila"
"N.M.Comerlato"
"R.A.Howie"
"J.L.Wardell"
_chemical_name_systematic
;
catena-(tris(Tetra-n-butylammonium) 
hexakis(\m~2~-1,3-dithiole-2-thione-4,5-dithiolato)-tri-indium(iii))
;
_chemical_melting_point 413.15
_cell_volume   9704.706
_exptl_crystal_colour 'red'
_exptl_crystal_density_diffrn 1.54
_exptl_crystal_description 'plate'
_exptl_crystal_preparation 'methanol'
_diffrn_ambient_temperature 120
_diffrn_radiation_probe x-ray
_diffrn_source synchrotron
_refine_special_details
;
Methyl and methylene groups in the cation are disordered but only one methyl 
group is modelled over two positions with occupancy 0.374:0.626.
;
#These two values have been output from a single CSD field.
_refine_ls_R_factor_gt 0.0482
_refine_ls_wR_factor_gt 0.0482
_symmetry_cell_setting monoclinic
_symmetry_space_group_name_H-M 'C 2/c'
_symmetry_Int_Tables_number 15
loop_
_symmetry_equiv_pos_site_id
_symmetry_equiv_pos_as_xyz
1 x,y,z
2 1/2+x,1/2+y,z
3 x,-y,1/2+z
4 1/2+x,1/2-y,1/2+z
5 -x,-y,-z
6 -1/2-x,-1/2-y,-z
7 -x,y,-1/2-z
8 -1/2-x,-1/2+y,-1/2-z
_cell_length_a 37.348(7)
_cell_length_b 10.630(2)
_cell_length_c 25.202(5)
_cell_angle_alpha 90
_cell_angle_beta 104.083(4)
_cell_angle_gamma 90
_cell_formula_units_Z 4
loop_
_atom_type_symbol
_atom_type_radius_bond
C 0.68
H 0.23
In 1.63
N 0.68
S 1.02
loop_
_atom_site_label
_atom_site_type_symbol
_atom_site_fract_x
_atom_site_fract_y
_atom_site_fract_z
In1 In 0.730454(13) 0.40086(4) 0.526357(19)
In2 In 0.75000 0.75000 0.50000
S1 S 0.73569(5) 0.26911(14) 0.61162(7)
S2 S 0.79645(5) 0.31391(14) 0.52915(7)
C1 C 0.78361(18) 0.2606(5) 0.6304(3)
C2 C 0.80748(18) 0.2770(5) 0.5988(3)
S3 S 0.80302(5) 0.23107(15) 0.69942(7)
S4 S 0.85423(5) 0.26999(15) 0.63252(8)
C3 C 0.84877(18) 0.2426(6) 0.6978(3)
S5 S 0.88285(6) 0.2293(2) 0.75246(9)
S6 S 0.66600(5) 0.48148(15) 0.52358(7)
S7 S 0.72586(5) 0.53656(14) 0.43958(7)
C4 C 0.65511(19) 0.5212(5) 0.4544(3)
C5 C 0.67766(19) 0.5429(5) 0.4208(3)
S8 S 0.60797(5) 0.53543(16) 0.42241(8)
S9 S 0.65717(6) 0.57681(15) 0.35265(7)
C6 C 0.6124(2) 0.5735(6) 0.3573(3)
S10 S 0.57682(7) 0.6067(2) 0.30591(9)
S11 S 0.81437(5) 0.66925(15) 0.50426(7)
S12 S 0.75439(5) 0.61054(14) 0.58669(7)
C7 C 0.82585(18) 0.6269(5) 0.5730(3)
C8 C 0.80219(18) 0.6048(5) 0.6056(3)
S13 S 0.87262(5) 0.61922(15) 0.60547(7)
S14 S 0.82309(5) 0.57445(15) 0.67441(7)
C9 C 0.86830(19) 0.5840(6) 0.6708(3)
S15 S 0.90360(6) 0.56282(18) 0.72385(8)
N1 N 0.6356(2) 0.0419(7) 0.6134(3)
C10 C 0.6292(3) 0.0948(9) 0.5559(3)
H1 H 0.64790 0.16040 0.55550
H2 H 0.63270 0.02670 0.53090
C11 C 0.5913(3) 0.1511(10) 0.5345(4)
H3 H 0.57250 0.08360 0.53010
H4 H 0.58640 0.21230 0.56150
C12 C 0.5880(3) 0.2151(14) 0.4813(4)
H5 H 0.59140 0.15220 0.45400
H6 H 0.60810 0.27780 0.48530
C13 C 0.5516(4) 0.2803(12) 0.4602(5)
H7 H 0.55100 0.31830 0.42450
H8 H 0.54860 0.34600 0.48600
H9 H 0.53160 0.21900 0.45620
C14 C 0.6294(2) 0.1441(9) 0.6530(3)
H10 H 0.60280 0.16460 0.64440
H11 H 0.63620 0.10960 0.69060
C15 C 0.6507(3) 0.2634(8) 0.6519(4)
H12 H 0.67740 0.24330 0.66020
H13 H 0.64370 0.29920 0.61450
C16 C 0.6443(3) 0.3604(10) 0.6916(4)
H14 H 0.65200 0.32590 0.72920
H15 H 0.61760 0.37960 0.68400
C17 C 0.6654(3) 0.4806(10) 0.6885(5)
H16 H 0.66050 0.54130 0.71520
H17 H 0.65750 0.51610 0.65160
H18 H 0.69190 0.46220 0.69670
C18 C 0.6759(3) -0.0019(9) 0.6286(4)
H19 H 0.67890 -0.06560 0.60140
H20 H 0.69150 0.07090 0.62460
C19 C 0.6908(3) -0.0567(18) 0.6844(6)
H21 H 0.68280 -0.14570 0.68320
H22 H 0.67870 -0.01250 0.70990
C20 C 0.7324(4) -0.0534(13) 0.7093(7)
H23 H 0.74410 0.01890 0.69550
H24 H 0.73810 -0.05010 0.74970
C21 C 0.7433(5) -0.1673(16) 0.6908(8)
H25 H 0.77010 -0.17650 0.70380
H26 H 0.73640 -0.16880 0.65070
H27 H 0.73100 -0.23680 0.70490
C22 C 0.6097(3) -0.0647(9) 0.6170(4)
H28 H 0.61540 -0.09510 0.65530
H29 H 0.58420 -0.03120 0.60840
C23 C 0.6108(4) -0.1748(10) 0.5802(5)
H30 H 0.60750 -0.14460 0.54220
H31 H 0.63530 -0.21570 0.59140
C24 C 0.5814(4) -0.2697(11) 0.5822(4)
H32? H 0.59110 -0.35660 0.58360
H33? H 0.57080 -0.25540 0.61400
H34 H 0.58890 -0.31340 0.61780
H35 H 0.55850 -0.22270 0.58210
C25? C 0.5546(6) -0.246(3) 0.5315(8)
H36? H 0.53330 -0.30210 0.52890
H37? H 0.56570 -0.26260 0.50070
H38? H 0.54640 -0.15860 0.53040
C26 C 0.5720(4) -0.3657(14) 0.5400(6)
H39 H 0.55210 -0.41850 0.54670
H40 H 0.59380 -0.41800 0.54070
H41 H 0.56390 -0.32540 0.50410
N2 N 1.00000 0.2471(8) 0.75000
C27 C 0.9738(2) 0.1659(7) 0.7736(3)
H42 H 0.95780 0.22240 0.78900
H43 H 0.95770 0.11830 0.74330
C28 C 0.9918(2) 0.075(1) 0.8168(5)
H44 H 1.00760 0.01730 0.80170
H45 H 1.00790 0.12170 0.84750
C29 C 0.9649(2) 0.0001(8) 0.8380(4)
H46 H 0.94950 0.05930 0.85310
H47 H 0.94840 -0.04300 0.80650
C30 C 0.9794(4) -0.0953(15) 0.8801(8)
H48 H 0.95880 -0.13860 0.89000
H49 H 0.99470 -0.05420 0.91260
H50 H 0.99430 -0.15640 0.86590
C31 C 0.9769(2) 0.3290(8) 0.7050(4)
H51 H 0.96150 0.27340 0.67700
H52 H 0.96000 0.38040 0.72090
C32 C 0.9981(3) 0.4153(9) 0.6770(4)
H53 H 1.01330 0.36450 0.65770
H54 H 1.01510 0.46710 0.70480
C33 C 0.9730(3) 0.5015(12) 0.6361(5)
H55 H 0.95360 0.45010 0.61190
H56 H 0.96070 0.56080 0.65620
C34 C 0.9932(5) 0.5759(13) 0.6013(7)
H57 H 0.97550 0.62790 0.57530
H58 H 1.00550 0.51790 0.58110
H59 H 1.01170 0.63000 0.62480
C27F C 1.0262(2) 0.1659(7) 0.7264(3)
H42F H 1.04220 0.22240 0.71100
H43F H 1.04230 0.11830 0.75670
C28F C 1.0082(2) 0.075(1) 0.6832(5)
H44F H 0.99240 0.01730 0.69830
H45F H 0.99210 0.12170 0.65250
C29F C 1.0351(2) 0.0001(8) 0.6620(4)
H46F H 1.05050 0.05930 0.64690
H47F H 1.05160 -0.04300 0.69350
C30F C 1.0206(4) -0.0953(15) 0.6199(8)
H48F H 1.04120 -0.13860 0.61000
H49F H 1.00530 -0.05420 0.58740
H50F H 1.00570 -0.15640 0.63410
C31F C 1.0231(2) 0.3290(8) 0.7950(4)
H51F H 1.03850 0.27340 0.82300
H52F H 1.04000 0.38040 0.77910
C32F C 1.0019(3) 0.4153(9) 0.8230(4)
H53F H 0.98670 0.36450 0.84230
H54F H 0.98490 0.46710 0.79520
C33F C 1.0270(3) 0.5015(12) 0.8639(5)
H55F H 1.04640 0.45010 0.88810
H56F H 1.03930 0.56080 0.84380
C34F C 1.0068(5) 0.5759(13) 0.8987(7)
H57F H 1.02450 0.62790 0.92470
H58F H 0.99450 0.51790 0.91890
H59F H 0.98830 0.63000 0.87520
S6E S 0.83400(5) 1.01852(15) 0.47642(7)
S7E S 0.77414(5) 0.96344(14) 0.56042(7)
C4E C 0.84489(19) 0.9788(5) 0.5456(3)
C5E C 0.82234(19) 0.9571(5) 0.5792(3)
S8E S 0.89203(5) 0.96457(16) 0.57759(8)
S9E S 0.84283(6) 0.92319(15) 0.64735(7)
C6E C 0.8876(2) 0.9265(6) 0.6427(3)
S10E S 0.92318(7) 0.8933(2) 0.69409(9)
S11E S 0.68563(5) 0.83075(15) 0.49574(7)
S12E S 0.74561(5) 0.88946(14) 0.41331(7)
C7E C 0.67415(18) 0.8731(5) 0.4270(3)
C8E C 0.69781(18) 0.8952(5) 0.3944(3)
S13E S 0.62738(5) 0.88078(15) 0.39453(7)
S14E S 0.67691(5) 0.92555(15) 0.32559(7)
C9E C 0.63170(19) 0.9160(6) 0.3292(3)
S15E S 0.59640(6) 0.93718(18) 0.27615(8)
In1E In 0.769546(13) 1.09914(4) 0.473643(19)
S1E S 0.76431(5) 0.23089(14) 0.38838(7)
S2E S 0.70355(5) 0.18609(14) 0.47085(7)
C1E C 0.71639(18) 0.2394(5) 0.3696(3)
C2E C 0.69252(18) 0.2230(5) 0.4012(3)
S3E S 0.69698(5) 0.26893(15) 0.30058(7)
S4E S 0.64577(5) 0.23001(15) 0.36748(8)
C3E C 0.65123(18) 0.2574(6) 0.3022(3)
S5E S 0.61715(6) 0.2707(2) 0.24754(9)
In1E* In 0.769546(13) 0.09914(4) 0.473643(19)
S1E* S 0.76431(5) 1.23089(14) 0.38838(7)
S2* S 0.79645(5) 1.31391(14) 0.52915(7)
S2E* S 0.70355(5) 1.18609(14) 0.47085(7)
#END
