
#######################################################################
#
#                 Cambridge Crystallographic Data Centre
#                                CCDC
#
#######################################################################
#
# If this CIF has been generated from an entry in the Cambridge
# Structural Database, then it will include bibliographic, chemical,
# crystal, experimental, refinement or atomic coordinate data resulting
# from the CCDC's data processing and validation procedures.
#
#######################################################################

data_CSD_CIF_IWAJAR
_audit_creation_date 2004-08-04
_audit_creation_method CSD-ConQuest-V1
_database_code_CSD IWAJAR
_database_code_depnum_ccdc_archive 'CCDC 205764'
_chemical_formula_sum 'C38 H49 Ho2 N3 O16'
_chemical_formula_moiety
;
(C10 H10 N3 1+)n,n(C28 H35 Ho2 O14 1-),2n(H2 O1)
;
_journal_coden_Cambridge 155
_journal_volume 357
_journal_year 2004
_journal_page_first 1997
_journal_name_full 'Inorg.Chim.Acta '
loop_
_publ_author_name
"A.M.Atria"
"R.Baggio"
"M.T.Garland"
"J.C.Munoz"
"O.Pena"
_chemical_name_systematic
;
catena-[(2-Pyridyl)(2-pyridinium)amine 
tetrakis(\m~2~-crotonato-O,O,O')-(\m~2~-crotonato-O,O')-bis(crotonato-O,O')-di
-holmium(iii) dihydrate]
;
_cell_volume   4602.545
_exptl_crystal_colour 'colorless'
_exptl_crystal_density_diffrn 1.636
_exptl_crystal_description 'blocks'
_diffrn_ambient_temperature 293
_diffrn_special_details
;
crystal is racemically twinned with equally populated halves

;
#These two values have been output from a single CSD field.
_refine_ls_R_factor_gt 0.0313
_refine_ls_wR_factor_gt 0.0313
_symmetry_cell_setting monoclinic
_symmetry_space_group_name_H-M 'C c'
_symmetry_Int_Tables_number 9
loop_
_symmetry_equiv_pos_site_id
_symmetry_equiv_pos_as_xyz
1 x,y,z
2 x,-y,1/2+z
3 1/2+x,1/2+y,z
4 1/2+x,1/2-y,1/2+z
_cell_length_a 19.395(3)
_cell_length_b 17.142(2)
_cell_length_c 15.814(2)
_cell_angle_alpha 90
_cell_angle_beta 118.908(2)
_cell_angle_gamma 90
_cell_formula_units_Z 4
loop_
_atom_type_symbol
_atom_type_radius_bond
C 0.68
H 0.23
Ho 1.69
N 0.68
O 0.68
loop_
_atom_site_label
_atom_site_type_symbol
_atom_site_fract_x
_atom_site_fract_y
_atom_site_fract_z
Ho1 Ho 0.419601(15) 0.49866(3) 0.701592(17)
Ho2 Ho 0.372290(14) 0.50135(3) 0.923400(17)
O1 O 0.3901(9) 0.4245(4) 0.8113(10)
O2 O 0.3884(5) 0.3605(4) 0.6905(7)
C1 C 0.3794(7) 0.3579(6) 0.7608(9)
C2 C 0.3507(7) 0.2903(6) 0.7940(9)
H1 H 0.33520 0.29640 0.84080
C3 C 0.3478(9) 0.2207(6) 0.7548(11)
H2 H 0.36780 0.21490 0.71220
C4 C 0.3127(10) 0.1517(7) 0.7787(13)
H3 H 0.31490 0.10690 0.74360
H4 H 0.25890 0.16270 0.76090
H5 H 0.34190 0.14130 0.84670
O3 O 0.4039(5) 0.6374(4) 0.9329(7)
O4 O 0.4074(7) 0.5760(3) 0.8151(9)
C5 C 0.4164(7) 0.6358(6) 0.8596(8)
C6 C 0.4390(8) 0.7098(6) 0.8311(9)
H6 H 0.44840 0.70770 0.77880
C7 C 0.4470(9) 0.7785(5) 0.8729(10)
H7 H 0.43800 0.78030 0.92550
C8 C 0.4691(9) 0.8535(6) 0.8444(9)
H8 H 0.47010 0.89440 0.88650
H9 H 0.52020 0.84850 0.84950
H10 H 0.43110 0.86590 0.77900
O5 O 0.2736(6) 0.4959(4) 0.6259(9)
O6 O 0.3197(5) 0.4719(5) 0.5269(7)
C9 C 0.2632(5) 0.4724(7) 0.5505(8)
C10 C 0.1867(6) 0.4380(8) 0.4758(8)
H11 H 0.18620 0.40470 0.42910
C11 C 0.1203(7) 0.4542(10) 0.4753(10)
H12 H 0.12440 0.48770 0.52370
C12 C 0.0387(8) 0.4259(11) 0.4069(11)
H13 H 0.00210 0.44780 0.42500
H14 H 0.03730 0.37000 0.40980
H15 H 0.02460 0.44170 0.34240
O7 O 0.2425(7) 0.4433(7) 0.8298(9)
O8 O 0.2526(6) 0.5658(6) 0.8080(7)
C13 C 0.2118(5) 0.5037(5) 0.7912(10)
C14 C 0.1261(8) 0.5076(9) 0.7204(16)
H16 H 0.09810 0.46100 0.70490
C15 C 0.0870(7) 0.5709(8) 0.6782(10)
H17 H 0.11430 0.61690 0.68370
C16 C -0.0017(7) 0.5706(10) 0.6207(13)
H18 H -0.02000 0.62130 0.59320
H19 H -0.01850 0.53260 0.56990
H20 H -0.02310 0.55760 0.66240
O9 O 0.4728(6) 0.4686(5) 0.6019(7)
O10 O 0.5121(9) 0.4929(5) 0.496(1)
C17 C 0.5266(6) 0.4693(7) 0.5830(8)
C18 C 0.6062(6) 0.4379(8) 0.6529(8)
H21 H 0.61010 0.40600 0.70260
C19 C 0.6706(6) 0.4524(7) 0.6484(10)
H22 H 0.66800 0.48240 0.59790
C20 C 0.7488(6) 0.4210(9) 0.7239(10)
H23 H 0.78930 0.43720 0.70940
H24 H 0.74670 0.36510 0.72440
H25 H 0.76020 0.44070 0.78620
O11 O 0.5390(6) 0.4319(5) 0.8142(8)
O12 O 0.5493(6) 0.5579(6) 0.7939(8)
C21 C 0.5796(9) 0.4864(10) 0.8364(15)
C22 C 0.6670(8) 0.4889(8) 0.8990(13)
H26 H 0.69470 0.53500 0.90680
C23 C 0.7038(8) 0.4249(9) 0.9425(11)
H27 H 0.67300 0.38010 0.92590
C24 C 0.7889(8) 0.4139(9) 1.0156(13)
H28 H 0.79860 0.35970 1.03280
H29 H 0.80110 0.44420 1.07210
H30 H 0.82130 0.43060 0.98860
O13 O 0.3943(6) 0.6207(6) 0.4883(8)
O14 O 0.4002(6) 0.6216(5) 0.6320(6)
C25 C 0.3952(10) 0.6545(3) 0.5639(13)
C26 C 0.3961(11) 0.7416(3) 0.5520(12)
H31 H 0.41420 0.76080 0.51130
C27 C 0.3732(7) 0.7917(4) 0.5947(7)
H32 H 0.35490 0.77420 0.63590
C28 C 0.3760(9) 0.8776(4) 0.5785(10)
H33 H 0.35660 0.90580 0.61520
H34 H 0.34380 0.88910 0.51110
H35 H 0.42940 0.89290 0.59890
N1 N 0.6776(6) 0.7971(6) 0.8992(9)
H36 H 0.681(7) 0.817(7) 0.834(8)
N2 N 0.6163(7) 0.6958(7) 0.8080(7)
H37 H 0.587(7) 0.653(8) 0.803(7)
N3 N 0.6495(7) 0.7765(6) 0.7294(9)
C29 C 0.7077(8) 0.8446(8) 0.9856(10)
H38 H 0.73330 0.89160 0.99010
C30 C 0.6975(8) 0.8183(7) 1.0597(9)
H39 H 0.71060 0.85020 1.11290
C31 C 0.6676(9) 0.7439(7) 1.0568(11)
H40 H 0.66640 0.72370 1.11060
C32 C 0.6401(8) 0.7011(7) 0.974(1)
H41 H 0.61720 0.65260 0.96990
C33 C 0.6458(8) 0.7274(7) 0.902(1)
C34 C 0.6158(8) 0.7060(8) 0.7196(10)
C35 C 0.5890(8) 0.6608(8) 0.6493(10)
H42 H 0.56890 0.61290 0.65490
C36 C 0.5878(9) 0.6781(9) 0.5644(11)
H43 H 0.56380 0.64660 0.50980
C37 C 0.6257(9) 0.7472(9) 0.5675(13)
H44 H 0.63160 0.76080 0.51450
C38 C 0.6546(8) 0.7956(8) 0.6444(10)
H45 H 0.67820 0.84220 0.64210
O15 O 0.0687(7) 0.7695(5) 0.7901(9)
O16 O 0.8646(5) 0.7623(4) 0.5386(8)
O17 O 0.7221(12) 0.7595(9) 0.3065(14)
O6A O 0.3197(5) 0.5281(5) 1.0269(7)
O9A O 0.4728(6) 0.5314(5) 1.1019(7)
O10A O 0.5121(9) 0.5071(5) 0.996(1)
O13A O 0.3943(6) 0.3793(6) 0.9883(8)
Ho2A Ho 0.372290(14) 0.49865(3) 0.423400(17)
#END
