
#######################################################################
#
#                 Cambridge Crystallographic Data Centre
#                                CCDC
#
#######################################################################
#
# If this CIF has been generated from an entry in the Cambridge
# Structural Database, then it will include bibliographic, chemical,
# crystal, experimental, refinement or atomic coordinate data resulting
# from the CCDC's data processing and validation procedures.
#
#######################################################################

data_CSD_CIF_IWEXIS
_audit_creation_date 2011-10-18
_audit_creation_method CSD-ConQuest-V1
_database_code_CSD IWEXIS
_database_code_depnum_ccdc_archive 'CCDC 831388'
_chemical_formula_sum 'C22 H18 Cu1 N8 O8'
_chemical_formula_moiety
;
(C5 H7 N2 1+)2n,n(C12 H4 Cu1 N4 O8 2-)
;
_journal_coden_Cambridge 211
_journal_volume 64
_journal_year 2011
_journal_page_first 2859
_journal_name_full 'J.Coord.Chem. '
loop_
_publ_author_name
"Hui-Yan Liu"
"Hai-Ying Wang"
"Yan-Hui Shi"
_chemical_name_systematic
;
catena-(bis(2-Aminoanilinium) bis(\m~2~-pyrazine-2,3-dicarboxylato)-copper)
;
_cell_volume    577.454
_exptl_crystal_density_diffrn 1.685
_diffrn_ambient_temperature 298
#These two values have been output from a single CSD field.
_refine_ls_R_factor_gt 0.0542
_refine_ls_wR_factor_gt 0.0542
_symmetry_cell_setting triclinic
_symmetry_space_group_name_H-M 'P -1'
_symmetry_Int_Tables_number 2
loop_
_symmetry_equiv_pos_site_id
_symmetry_equiv_pos_as_xyz
1 x,y,z
2 -x,-y,-z
_cell_length_a 6.4690(7)
_cell_length_b 8.0071(8)
_cell_length_c 11.6101(12)
_cell_angle_alpha 74.802(1)
_cell_angle_beta 86.198(2)
_cell_angle_gamma 84.880(2)
_cell_formula_units_Z 1
loop_
_atom_type_symbol
_atom_type_radius_bond
C 0.68
H 0.23
Cu 1.52
N 0.68
O 0.68
loop_
_atom_site_label
_atom_site_type_symbol
_atom_site_fract_x
_atom_site_fract_y
_atom_site_fract_z
Cu1 Cu 0.50000 0.50000 0.50000
N1 N 0.7062(4) 0.6258(3) 0.5555(2)
N2 N 0.9966(5) 0.7528(4) 0.6671(3)
N3 N 0.6000(5) 0.7764(4) 0.9866(3)
H1 H 0.69190 0.72630 1.03710
N4 N 0.3595(5) 0.5994(5) 1.1015(3)
H2 H 0.43390 0.58020 1.16300
H3 H 0.23210 0.57830 1.12090
O1 O 0.6867(4) 0.2990(3) 0.5682(2)
O2 O 0.9668(4) 0.2195(3) 0.6775(3)
O3 O 1.1025(4) 0.4089(4) 0.8632(2)
O4 O 1.3427(4) 0.4569(4) 0.7121(2)
C1 C 0.8378(5) 0.3279(4) 0.6238(3)
C2 C 1.1627(5) 0.4706(4) 0.7557(3)
C3 C 0.8517(5) 0.5185(4) 0.6202(3)
C4 C 0.9973(5) 0.5828(4) 0.6754(3)
C5 C 0.8526(6) 0.8575(5) 0.6012(3)
H4 H 0.85090 0.97640 0.59250
C6 C 0.7056(6) 0.7951(4) 0.5453(3)
H5 H 0.60640 0.87160 0.50050
C7 C 0.4060(5) 0.7234(4) 1.0046(3)
C8 C 0.2612(6) 0.8004(5) 0.9156(3)
H6 H 0.12880 0.76100 0.92230
C9 C 0.3151(7) 0.9307(5) 0.8213(3)
H7 H 0.21810 0.98310 0.76460
C10 C 0.5174(7) 0.9879(5) 0.8081(4)
H8 H 0.55500 1.07880 0.74420
C11 C 0.6554(6) 0.9067(5) 0.8912(3)
H9 H 0.79060 0.94050 0.88300
Cu1* Cu 1.50000 0.50000 0.50000
Cu1** Cu -0.50000 0.50000 0.50000
N1A N 0.2938(4) 0.3742(3) 0.4445(2)
N2A N 0.0034(5) 0.2472(4) 0.3329(3)
O1A O 0.3133(4) 0.7010(3) 0.4318(2)
O2A O 0.0332(4) 0.7805(3) 0.3225(3)
O3A O -0.1025(4) 0.5911(4) 0.1368(2)
O4A O -0.3427(4) 0.5431(4) 0.2879(2)
O4* O 0.3427(4) 0.4569(4) 0.7121(2)
O4A* O 0.6573(4) 0.5431(4) 0.2879(2)
C1A C 0.1622(5) 0.6721(4) 0.3762(3)
C2A C -0.1627(5) 0.5294(4) 0.2443(3)
C3A C 0.1483(5) 0.4815(4) 0.3798(3)
C4A C 0.0027(5) 0.4172(4) 0.3246(3)
C5A C 0.1474(6) 0.1425(5) 0.3988(3)
H4A H 0.14910 0.02360 0.40750
C6A C 0.2944(6) 0.2049(4) 0.4547(3)
H5A H 0.39360 0.12840 0.49950
#END
