
#######################################################################
#
#                 Cambridge Crystallographic Data Centre
#                                CCDC
#
#######################################################################
#
# If this CIF has been generated from an entry in the Cambridge
# Structural Database, then it will include bibliographic, chemical,
# crystal, experimental, refinement or atomic coordinate data resulting
# from the CCDC's data processing and validation procedures.
#
#######################################################################

data_CSD_CIF_IWINOS
_audit_creation_date 2011-11-29
_audit_creation_method CSD-ConQuest-V1
_database_code_CSD IWINOS
_database_code_depnum_ccdc_archive 'CCDC 839015'
_chemical_formula_sum 'C35 H50 Cu4 N10 O40 Si1 W12'
_chemical_formula_moiety
;
(C35 H50 Cu4 N10 4+)n,n(O40 Si1 W12 4-)
;
_journal_coden_Cambridge 1147
_journal_volume 11
_journal_year 2011
_journal_page_first 1786
_journal_name_full 'Cryst.Growth Des. '
loop_
_publ_author_name
"Hai-Yan Liu"
"Hua Wu"
"Jin Yang"
"Ying-Ying Liu"
"Jian-Fang Ma"
"Hong-Ye Bai"
_chemical_name_systematic
;
catena-(pentakis(\m~2~-2-Ethyl-3-methylpyrazine)-tetra-copper(i) 
(\m~12~-silicato)-tetracosakis(\m~2~-oxo)-dodecaoxo-dodeca-tungsten)
;
_cell_volume   3425.534
_exptl_crystal_colour 'red'
_exptl_crystal_density_diffrn 3.623
_exptl_crystal_description 'block'
_diffrn_ambient_temperature 293
_refine_special_details
;
The silicate moiety of the anion is disordered by symmetry. One of the 
2-ethyl-3-methylpyrazine ligands is disordered by symmetry.
;
#These two values have been output from a single CSD field.
_refine_ls_R_factor_gt 0.0582
_refine_ls_wR_factor_gt 0.0582
_symmetry_cell_setting monoclinic
_symmetry_space_group_name_H-M 'P 21/n'
_symmetry_Int_Tables_number 14
loop_
_symmetry_equiv_pos_site_id
_symmetry_equiv_pos_as_xyz
1 x,y,z
2 1/2-x,1/2+y,1/2-z
3 -x,-y,-z
4 -1/2+x,-1/2-y,-1/2+z
_cell_length_a 12.9036(5)
_cell_length_b 11.9095(3)
_cell_length_c 22.3016(10)
_cell_angle_alpha 90
_cell_angle_beta 91.791(4)
_cell_angle_gamma 90
_cell_formula_units_Z 2
loop_
_atom_type_symbol
_atom_type_radius_bond
C 0.68
H 0.23
Cu 1.32
N 0.68
O 0.68
Si 1.20
W 1.39
loop_
_atom_site_label
_atom_site_type_symbol
_atom_site_fract_x
_atom_site_fract_y
_atom_site_fract_z
Cu1 Cu 0.7698(3) 0.5199(3) 1.05743(19)
Cu2 Cu 0.3561(2) 0.4959(2) 1.22546(13)
W1 W 0.56729(8) 0.09752(7) 0.85672(5)
W2 W 0.30518(9) 0.09253(7) 0.89699(5)
W3 W 0.43724(9) -0.16086(7) 0.87025(5)
W4 W 0.76254(9) 0.00145(8) 0.95824(6)
W5 W 0.63274(8) 0.25397(7) 0.98512(7)
W6 W 0.36918(10) 0.25292(7) 1.02523(6)
C1 C 0.560(2) 0.508(2) 1.0864(12)
H1 H 0.54910 0.49210 1.04590
C2 C 0.482(2) 0.5090(18) 1.1249(13)
H2 H 0.41630 0.49300 1.10840
C3 C 0.5779(18) 0.5579(17) 1.2043(10)
C4 C 0.583(2) 0.593(3) 1.2704(12)
H3 H 0.60160 0.67040 1.27350
H4 H 0.63420 0.54790 1.29160
H5 H 0.51660 0.58100 1.28760
C5 C 0.6652(18) 0.5529(18) 1.1697(14)
C6 C 0.773(2) 0.576(2) 1.1934(15)
H6 H 0.81210 0.61260 1.16260
H7 H 0.77020 0.62570 1.22760
C7 C 0.823(4) 0.475(4) 1.211(2)
H8 H 0.78110 0.43590 1.23880
H9 H 0.88920 0.49190 1.22900
H10 H 0.83180 0.42890 1.17590
C8 C 0.2845(18) 0.6822(17) 1.3006(10)
H11 H 0.32550 0.64920 1.33080
C9 C 0.2004(16) 0.6734(17) 1.2071(10)
C10 C 0.2444(18) 0.7842(16) 1.3108(12)
H12 H 0.26030 0.82090 1.34670
C11 C 0.1569(16) 0.7783(18) 1.2189(11)
C12 C 0.078(2) 0.831(2) 1.1731(14)
H13 H 0.09180 0.91020 1.16930
H14 H 0.00870 0.82100 1.18690
H15 H 0.08410 0.79570 1.13480
C13 C 0.180(2) 0.603(2) 1.1514(12)
H16 H 0.23750 0.55190 1.14530
H17 H 0.17190 0.65050 1.11630
C14 C 0.080(3) 0.535(3) 1.1603(16)
H18 H 0.08460 0.49690 1.19820
H19 H 0.07110 0.48130 1.12860
H20 H 0.02170 0.58540 1.15990
C15 C 0.9501(19) 0.407(2) 1.0205(11)
C16 C 1.0469(18) 0.399(2) 0.9937(10)
C17 C 0.901(4) 0.303(4) 1.049(2)
H21 H 0.84370 0.33280 1.07090
H22 H 0.87030 0.26240 1.01520
C18 C 0.947(6) 0.213(5) 1.089(3)
H23 H 1.01240 0.23870 1.10590
H24 H 0.95730 0.14640 1.06620
H25 H 0.90060 0.19810 1.12080
C19 C 1.092(5) 0.281(4) 0.974(3)
H26 H 1.12930 0.28950 0.93830
H27 H 1.13710 0.25280 1.00580
H28 H 1.03540 0.22940 0.96750
N1 N 0.6573(15) 0.5312(14) 1.1098(11)
N2 N 0.4858(13) 0.5296(11) 1.1827(9)
N3 N 0.2679(13) 0.6248(12) 1.2485(9)
N4 N 0.1800(16) 0.8351(14) 1.2685(9)
N5 N 0.9044(14) 0.5096(18) 1.0273(9)
O1 O 0.4757(18) 0.0078(17) 0.9357(10)
O2 O 0.5757(16) 0.0679(15) 0.9535(10)
O3 O 0.3794(17) 0.0664(16) 0.9838(10)
O4 O 0.479(2) -0.1265(17) 0.9652(12)
O5 O 0.6941(15) 0.0387(15) 0.8778(10)
O6 O 0.8852(14) -0.0006(14) 0.9384(8)
O7 O 0.5982(16) 0.1452(17) 0.7882(10)
O8 O 0.4294(11) 0.1389(10) 0.8594(6)
O9 O 0.3273(11) -0.0553(10) 0.8677(7)
O10 O 0.2109(15) 0.1380(14) 0.8473(12)
O11 O 0.5229(10) -0.0526(10) 0.8388(6)
O12 O 0.481(2) 0.276(2) 0.9780(13)
O13? O 0.5113(19) 0.333(2) 1.0088(12)
O14 O 0.3051(11) 0.3755(10) 1.0363(7)
O15 O 0.7440(13) 0.1541(13) 0.9790(12)
O16 O 0.5980(14) 0.2251(15) 0.8978(9)
O17 O 0.4052(15) -0.2400(16) 0.8087(10)
O18 O 0.6954(14) 0.3763(10) 0.9791(8)
O19 O 0.5601(16) -0.2318(17) 0.9011(10)
Si1 Si 0.50000 0.00000 1.00000
O20 O 0.377(2) -0.209(2) 0.9478(14)
O21 O 0.695(2) -0.1411(18) 0.9351(12)
O22 O 0.195(2) 0.040(2) 0.9457(13)
O23 O 0.286(2) 0.2303(17) 0.9363(11)
O24? O 0.654(2) 0.263(2) 1.0865(13)
O25? O 0.236(2) 0.1617(19) 1.0447(12)
O26? O 0.738(2) -0.0152(18) 1.0254(12)
O27? O 0.643(3) -0.207(2) 1.0462(15)
Cu1B Cu 1.2302(3) 0.4801(3) 0.94257(19)
Cu2B Cu 1.6439(2) 0.5041(2) 0.77454(13)
Cu2A Cu 0.1439(2) 0.9959(2) 1.27454(13)
Cu2A* Cu 0.1439(2) -0.0041(2) 1.27454(13)
W1B W 0.43271(8) -0.09752(7) 1.14328(5)
W2B W 0.69482(9) -0.09253(7) 1.10301(5)
W3B W 0.56276(9) 0.16086(7) 1.12975(5)
W4B W 0.23746(9) -0.00145(8) 1.04176(6)
W5B W 0.36726(8) -0.25397(7) 1.01488(7)
W6B W 0.63082(10) -0.25292(7) 0.97477(6)
C1B C 1.440(2) 0.492(2) 0.9136(12)
H1B H 1.45090 0.50790 0.95410
C2B C 1.518(2) 0.4910(18) 0.8751(13)
H2B H 1.58370 0.50700 0.89160
C3B C 1.4221(18) 0.4421(17) 0.7957(10)
C4B C 1.417(2) 0.407(3) 0.7296(12)
H3B H 1.39840 0.32960 0.72650
H4B H 1.36580 0.45210 0.70840
H5B H 1.48340 0.41900 0.71240
C5B C 1.3348(18) 0.4471(18) 0.8303(14)
C6B C 1.227(2) 0.424(2) 0.8066(15)
H6B H 1.18790 0.38740 0.83740
H7B H 1.22980 0.37430 0.77240
C7B C 1.177(4) 0.525(4) 0.789(2)
H8B H 1.21890 0.56410 0.76120
H9B H 1.11080 0.50810 0.77100
H10B H 1.16820 0.57110 0.82410
C8A C 0.2155(18) 0.1822(17) 1.1994(10)
H11A H 0.17450 0.14920 1.16920
C9A C 0.2996(16) 0.1734(17) 1.2929(10)
C10A C 0.2556(18) 0.2842(16) 1.1892(12)
H12A H 0.23970 0.32090 1.15330
C11A C 0.3431(16) 0.2783(18) 1.2811(11)
C12A C 0.422(2) 0.331(2) 1.3269(14)
H13A H 0.40820 0.41020 1.33070
H14A H 0.49130 0.32100 1.31310
H15A H 0.41590 0.29570 1.36520
C13A C 0.320(2) 0.103(2) 1.3486(12)
H16A H 0.26250 0.05190 1.35470
H17A H 0.32810 0.15050 1.38370
C14A C 0.420(3) 0.035(3) 1.3397(16)
H18A H 0.41540 -0.00310 1.30180
H19A H 0.42890 -0.01870 1.37140
H20A H 0.47830 0.08540 1.34010
C15B C 1.0499(19) 0.593(2) 0.9795(11)
C16B C 0.9531(18) 0.601(2) 1.0063(10)
C17B C 1.099(4) 0.697(4) 0.951(2)
H21B H 1.15630 0.66720 0.92910
H22B H 1.12970 0.73760 0.98480
C18B C 1.053(6) 0.787(5) 0.911(3)
H23B H 0.98760 0.76130 0.89410
H24B H 1.04270 0.85360 0.93380
H25B H 1.09940 0.80190 0.87920
C19B C 0.908(5) 0.719(4) 1.026(3)
H26B H 0.87070 0.71050 1.06170
H27B H 0.86290 0.74720 0.99420
H28B H 0.96460 0.77060 1.03250
N1B N 1.3427(15) 0.4688(14) 0.8902(11)
N2B N 1.5142(13) 0.4704(11) 0.8173(9)
N3A N 0.2321(13) 0.1248(12) 1.2515(9)
N3B N 1.7321(13) 0.3752(12) 0.7515(9)
N4A N 0.3200(16) 0.3351(14) 1.2315(9)
N4C N 1.6800(16) 0.6649(14) 0.7685(9)
N5B N 1.0956(14) 0.4904(18) 0.9727(9)
O1B O 0.5243(18) -0.0078(17) 1.0643(10)
O2B O 0.4243(16) -0.0679(15) 1.0465(10)
O3B O 0.6206(17) -0.0664(16) 1.0162(10)
O4B O 0.521(2) 0.1265(17) 1.0348(12)
O5B O 0.3059(15) -0.0387(15) 1.1222(10)
O6B O 0.1148(14) 0.0006(14) 1.0616(8)
O7B O 0.4018(16) -0.1452(17) 1.2118(10)
O8B O 0.5706(11) -0.1389(10) 1.1406(6)
O9B O 0.6727(11) 0.0553(10) 1.1323(7)
O10B O 0.7891(15) -0.1380(14) 1.1527(12)
O11B O 0.4771(10) 0.0526(10) 1.1612(6)
O12B O 0.519(2) -0.276(2) 1.0220(13)
O14B O 0.6949(11) -0.3755(10) 0.9637(7)
O15B O 0.2560(13) -0.1541(13) 1.0210(12)
O16B O 0.4020(14) -0.2251(15) 1.1022(9)
O17B O 0.5948(15) 0.2400(16) 1.1913(10)
O18B O 0.3046(14) -0.3763(10) 1.0209(8)
O19B O 0.4399(16) 0.2318(17) 1.0989(10)
O20B O 0.623(2) 0.209(2) 1.0522(14)
O21B O 0.305(2) 0.1411(18) 1.0649(12)
O22B O 0.805(2) -0.040(2) 1.0543(13)
O23B O 0.714(2) -0.2303(17) 1.0637(11)
#END
