
#######################################################################
#
#                 Cambridge Crystallographic Data Centre
#                                CCDC
#
#######################################################################
#
# If this CIF has been generated from an entry in the Cambridge
# Structural Database, then it will include bibliographic, chemical,
# crystal, experimental, refinement or atomic coordinate data resulting
# from the CCDC's data processing and validation procedures.
#
#######################################################################

data_CSD_CIF_IWUYIL
_audit_creation_date 2021-07-01
_audit_creation_method CSD-ConQuest-V1
_database_code_CSD IWUYIL
_database_code_depnum_ccdc_archive 'CCDC 2071821'
_chemical_formula_sum 'C100 H78 Cl12 Cu8 N22 O4'
_chemical_formula_moiety
;
2(C36 H27 Cl1 Cu1 N7 1+),n(C20 H4 Cl10 Cu6 N8 2-),2(C3 H6 O1),2(C1 H4 O1)
;
_journal_coden_Cambridge 1295
_journal_volume 130
_journal_year 2021
_journal_page_first 108705
_journal_name_full 'Inorg.Chem.Commun. '
loop_
_publ_author_name
"Shun Li"
"Guo-Ling Li"
"Wei Wang"
"Yang Liu"
"Zhong-Min Cao"
"Xue-li Cao"
"You-Gui Huang"
_chemical_name_systematic
;
catena-[bis(chloro-(N,N,N-tris((1H-naphtho[2,3-d]imidazol-2-yl)methyl)amine)-c
opper(ii)) 
bis(\m-benzene-1,2,4,5-tetracarbonitrile)-decakis(\m-chloro)-tetra-copper(i)-d
i-copper(ii) acetone methanol solvate]
;
_cell_volume   5086.030
_exptl_crystal_colour 'yellow'
_exptl_crystal_density_diffrn 1.688
_exptl_crystal_description 'block'
_diffrn_ambient_temperature 200
#These two values have been output from a single CSD field.
_refine_ls_R_factor_gt 0.051
_refine_ls_wR_factor_gt 0.051
_symmetry_cell_setting monoclinic
_symmetry_space_group_name_H-M 'P 21/c'
_symmetry_Int_Tables_number 14
loop_
_symmetry_equiv_pos_site_id
_symmetry_equiv_pos_as_xyz
1 x,y,z
2 -x,1/2+y,1/2-z
3 -x,-y,-z
4 x,-1/2-y,-1/2+z
_cell_length_a 17.2824(5)
_cell_length_b 17.0846(4)
_cell_length_c 22.4135(9)
_cell_angle_alpha 90
_cell_angle_beta 129.778(2)
_cell_angle_gamma 90
_cell_formula_units_Z 2
loop_
_atom_type_symbol
_atom_type_radius_bond
C 0.68
H 0.23
Cl 0.99
Cu 1.32
N 0.68
O 0.68
loop_
_atom_site_label
_atom_site_type_symbol
_atom_site_fract_x
_atom_site_fract_y
_atom_site_fract_z
Cu1 Cu 0.57215(3) 0.94381(2) 0.84136(2)
Cu2 Cu 0.39873(3) 1.10779(2) 0.77017(2)
Cu3 Cu 0.53187(2) 0.76844(2) 0.76124(2)
Cl1 Cl 0.48015(5) 1.01204(4) 0.86327(5)
Cl2 Cl 0.50532(6) 1.14155(4) 0.73553(5)
Cl3 Cl 0.44024(6) 1.23699(4) 0.82109(4)
Cl4 Cl 0.47775(5) 0.89088(4) 0.71618(4)
Cl5 Cl 0.58902(6) 0.79725(4) 0.88131(4)
N1 N 0.26068(19) 1.08920(15) 0.68053(16)
N2 N 0.2165(2) 0.86746(17) 0.67664(17)
N3 N 0.70941(18) 0.96816(14) 0.88913(16)
N4 N 0.8934(2) 0.98102(16) 1.11259(18)
C1 C 0.1841(2) 1.06710(17) 0.62744(18)
C2 C 0.08987(19) 1.03384(16) 0.56255(16)
C3 C 0.07573(19) 0.95265(15) 0.56123(16)
C4 C 0.1545(2) 0.90456(18) 0.62540(19)
C5 C 0.0143(2) 1.08098(16) 0.50152(16)
H1 H 0.02410 1.13470 0.50280
C6 C 0.7926(2) 0.97727(15) 0.91899(17)
C7 C 0.89771(18) 0.98852(14) 0.95954(17)
C8 C 0.96488(18) 0.99348(14) 1.04083(16)
C9 C 0.93277(19) 0.99559(15) 0.91861(16)
H2 H 0.88820 0.99300 0.86470
C10 C 0.9266(2) 0.98616(16) 1.08222(18)
Cu4 Cu 0.17839(2) 0.81513(2) 0.83637(2)
Cl6 Cl 0.03069(5) 0.75338(4) 0.76264(4)
N5 N 0.32281(15) 0.87015(11) 0.90843(12)
N6 N 0.39386(15) 0.70551(11) 0.84490(13)
H3 H 0.44710 0.71350 0.85010
N7 N 0.26502(15) 0.73055(12) 0.84199(13)
N8 N 0.31631(16) 0.84028(12) 1.06827(13)
H4 H 0.37410 0.84670 1.11340
N9 N 0.20149(15) 0.83044(12) 0.93949(13)
N10 N 0.18164(16) 1.04356(12) 0.78618(14)
H5 H 0.21610 1.08620 0.80410
N11 N 0.14478(15) 0.91710(12) 0.77794(13)
C11 C 0.37691(18) 0.84180(14) 0.88087(16)
H6 H 0.44910 0.84500 0.92240
H7 H 0.35910 0.87350 0.83770
C12 C 0.34574(18) 0.75856(14) 0.85576(15)
C13 C 0.34073(18) 0.63517(14) 0.82350(15)
C14 C 0.35675(18) 0.56198(14) 0.80819(16)
H8 H 0.41010 0.55220 0.80870
C15 C 0.28913(18) 0.50173(14) 0.79160(15)
C16 C 0.20576(18) 0.51904(14) 0.78935(15)
C17 C 0.14084(19) 0.45664(15) 0.77413(16)
H9 H 0.08550 0.46710 0.77090
C18 C 0.1581(2) 0.38169(15) 0.76413(17)
H10 H 0.11590 0.34150 0.75590
C19 C 0.2402(2) 0.36493(16) 0.76625(17)
H11 H 0.25160 0.31380 0.75940
C20 C 0.3025(2) 0.42356(15) 0.77836(16)
H12 H 0.35470 0.41200 0.77790
C21 C 0.19043(18) 0.59523(15) 0.80396(15)
H13 H 0.13620 0.60670 0.80200
C22 C 0.25860(17) 0.65222(13) 0.82126(15)
C23 C 0.37483(18) 0.84604(15) 0.98965(15)
H14 H 0.42550 0.88440 1.02540
H15 H 0.40780 0.79590 1.00020
C24 C 0.29738(18) 0.83991(14) 0.99961(15)
C25 C 0.22494(19) 0.82871(14) 1.05237(16)
C26 C 0.15216(19) 0.82326(14) 0.96991(15)
C27 C 0.05230(19) 0.81142(15) 0.93327(16)
H16 H 0.00490 0.80870 0.87940
C28 C 0.02313(19) 0.80351(14) 0.97883(16)
C29 C -0.0797(2) 0.79173(16) 0.94413(18)
H17 H -0.12820 0.78950 0.89030
C30 C -0.1085(2) 0.78355(16) 0.9883(2)
H18 H -0.17590 0.77580 0.96450
C31 C -0.0356(2) 0.78692(16) 1.0698(2)
H19 H -0.05530 0.78120 1.09970
C32 C 0.0642(2) 0.79858(16) 1.10576(19)
H20 H 0.11120 0.80050 1.15970
C33 C 0.0968(2) 0.80777(15) 1.06176(17)
C34 C 0.1993(2) 0.82099(15) 1.09847(17)
H21 H 0.24770 0.82430 1.15220
C35 C 0.30821(18) 0.95642(13) 0.89950(16)
H22 H 0.36390 0.98110 0.90620
H23 H 0.30540 0.97720 0.93840
C36 C 0.21178(18) 0.97279(13) 0.82009(15)
C37 C 0.08475(19) 1.03485(15) 0.71701(16)
C38 C 0.0164(2) 1.08849(15) 0.66202(17)
H24 H 0.03160 1.14160 0.66750
C39 C -0.0783(2) 1.05919(15) 0.59672(17)
C40 C -0.09983(19) 0.97674(15) 0.58832(17)
C41 C -0.02762(19) 0.92416(15) 0.64701(16)
H25 H -0.04070 0.87070 0.64250
C42 C 0.06237(19) 0.95413(14) 0.71087(16)
C43 C -0.1949(2) 0.95090(17) 0.52044(18)
H26 H -0.20990 0.89770 0.51390
C44 C -0.2655(2) 1.0024(2) 0.46414(19)
H27 H -0.32710 0.98380 0.42010
C45 C -0.2449(2) 1.08275(19) 0.4729(2)
H28 H -0.29340 1.11750 0.43490
C46 C -0.1546(2) 1.11020(18) 0.53657(19)
H29 H -0.14210 1.16370 0.54120
O1 O 0.54634(16) 0.77352(12) 0.53062(13)
C47 C 0.4648(3) 0.8877(2) 0.5259(2)
H30 H 0.42830 0.85120 0.53220
H31 H 0.41870 0.91500 0.47760
H32 H 0.49910 0.92460 0.56790
C48 C 0.5404(2) 0.84432(17) 0.52590(17)
C49 C 0.6080(3) 0.8910(2) 0.5192(2)
H33 H 0.64350 0.85630 0.51040
H34 H 0.65550 0.91970 0.56640
H35 H 0.56840 0.92690 0.47650
O2 O 0.7195(2) 0.67471(15) 0.62863(18)
H36 H 0.66540 0.69750 0.60490
C50 C 0.7670(3) 0.6967(2) 0.5984(2)
H37 H 0.82650 0.66560 0.62220
H38 H 0.78500 0.75100 0.60910
H39 H 0.72170 0.68830 0.54330
N1B N -0.26068(19) 0.91080(15) 0.31947(16)
N2B N -0.2165(2) 1.13254(17) 0.32336(17)
C1B C -0.1841(2) 0.93290(17) 0.37256(18)
C2B C -0.08987(19) 0.96616(16) 0.43745(16)
C3B C -0.07573(19) 1.04735(15) 0.43877(16)
C4B C -0.1545(2) 1.09544(18) 0.37460(19)
C5B C -0.0143(2) 0.91902(16) 0.49848(16)
H1B H -0.02410 0.86530 0.49720
N3B N 1.29059(18) 1.03184(14) 1.11087(16)
N4B N 1.1066(2) 1.01898(16) 0.88741(18)
C6B C 1.2074(2) 1.02273(15) 1.08101(17)
C7B C 1.10229(18) 1.01148(14) 1.04046(17)
C8B C 1.03512(18) 1.00652(14) 0.95917(16)
C9B C 1.06723(19) 1.00441(15) 1.08139(16)
H2B H 1.11180 1.00700 1.13530
C10B C 1.0734(2) 1.01384(16) 0.91778(18)
Cu1B Cu -0.57215(3) 1.05619(2) 0.15864(2)
Cu2B Cu -0.39873(3) 0.89221(2) 0.22983(2)
Cu3B Cu -0.53187(2) 1.23156(2) 0.23876(2)
Cl1B Cl -0.48015(5) 0.98796(4) 0.13673(5)
Cl2B Cl -0.50532(6) 0.85845(4) 0.26447(5)
Cl3B Cl -0.44024(6) 0.76301(4) 0.17891(4)
Cl4B Cl -0.47775(5) 1.10912(4) 0.28382(4)
Cl5B Cl -0.58902(6) 1.20275(4) 0.11869(4)
Cu1B* Cu 1.42785(3) 1.05619(2) 1.15864(2)
Cu3A Cu 0.46813(2) 1.26844(2) 0.73876(2)
Cu3C Cu -0.46813(2) 0.73156(2) 0.26124(2)
Cl2A Cl 0.49468(6) 0.64155(4) 0.76447(5)
Cl2C Cl -0.49468(6) 1.35845(4) 0.23553(5)
Cl3A Cl 0.55976(6) 0.73699(4) 0.67891(4)
Cl3C Cl -0.55976(6) 1.26301(4) 0.32109(4)
N3B* N -0.70941(18) 1.03184(14) 0.11087(16)
#END
