
#######################################################################
#
#                 Cambridge Crystallographic Data Centre
#                                CCDC
#
#######################################################################
#
# If this CIF has been generated from an entry in the Cambridge
# Structural Database, then it will include bibliographic, chemical,
# crystal, experimental, refinement or atomic coordinate data resulting
# from the CCDC's data processing and validation procedures.
#
#######################################################################

data_CSD_CIF_IXAZEO
_audit_creation_date 2016-10-12
_audit_creation_method CSD-ConQuest-V1
_database_code_CSD IXAZEO
_database_code_depnum_ccdc_archive 'CCDC 1495537'
_chemical_formula_sum 'C16 H34 Co1 K2 La2 N6 O25'
_chemical_formula_moiety
;
(C10 H8 K2 La2 O24 2-)n,C6 H24 Co1 N6 2+,H2 O1
;
_journal_coden_Cambridge 702
_journal_volume 32
_journal_year 2016
_journal_page_first 1559
_journal_name_full 'Wuji Huaxue Xuebao(Chin.)(Chin.J.Inorg.Chem.) '
loop_
_publ_author_name
"Ying Liu"
"Jun Hu"
"Jie Yan"
"Xia Zhi"
"Cai-Ling Zhang"
"Qinhe Pan"
_chemical_name_systematic
;
catena-[tris(ethane-1,2-diamine)-cobalt(ii) 
pentakis(\m-oxalato)-tetraaqua-di-lanthanum(iii)-di-potassium(i) monohydrate]
;
_cell_volume   3536.077
_exptl_crystal_colour 'red'
_exptl_special_details
;
The structure is represented from the deposited data

;
_exptl_crystal_description 'block'
_diffrn_ambient_temperature 296
#These two values have been output from a single CSD field.
_refine_ls_R_factor_gt 0.0528
_refine_ls_wR_factor_gt 0.0528
_symmetry_cell_setting monoclinic
_symmetry_space_group_name_H-M 'C 2/c'
_symmetry_Int_Tables_number 15
loop_
_symmetry_equiv_pos_site_id
_symmetry_equiv_pos_as_xyz
1 x,y,z
2 -x,y,1/2-z
3 1/2+x,1/2+y,z
4 1/2-x,1/2+y,1/2-z
5 -x,-y,-z
6 x,-y,-1/2+z
7 -1/2-x,-1/2-y,-z
8 -1/2+x,-1/2-y,-1/2+z
_cell_length_a 18.8168(16)
_cell_length_b 11.3511(10)
_cell_length_c 16.9284(15)
_cell_angle_alpha 90
_cell_angle_beta 102.051(1)
_cell_angle_gamma 90
_cell_formula_units_Z 4
loop_
_atom_type_symbol
_atom_type_radius_bond
C 0.68
H 0.23
Co 1.26
K 2.03
La 2.07
N 0.68
O 0.68
loop_
_atom_site_label
_atom_site_type_symbol
_atom_site_fract_x
_atom_site_fract_y
_atom_site_fract_z
La1 La 0.309997(15) 0.20992(2) 0.335975(17)
K1 K 0.65439(17) 0.0995(4) 0.52468(19)
O1 O 0.3929(2) 0.1476(4) 0.4686(3)
O2 O 0.5044(3) 0.1326(4) 0.5429(3)
O3 O 0.4426(2) 0.2167(4) 0.3428(3)
O4 O 0.5555(3) 0.1905(7) 0.4067(4)
O5 O 0.3384(2) 0.4188(3) 0.2975(3)
O6 O 0.2278(3) 0.1395(4) 0.4276(3)
O7 O 0.1707(2) 0.4887(3) 0.1804(3)
O8 O 0.2101(2) 0.1472(3) 0.5536(3)
O9 O 0.2022(2) 0.3343(3) 0.2594(3)
O10 O 0.2975(2) 0.5915(3) 0.2463(2)
O11 O 0.3310(3) 0.1963(5) 0.1896(3)
C1 C 0.4604(3) 0.1524(5) 0.4790(3)
C2 C 0.4902(3) 0.1888(6) 0.4035(4)
C3 C 0.2904(3) 0.4847(4) 0.2614(3)
C4 C 0.2323(3) 0.1875(5) 0.4950(4)
C5 C 0.2145(3) 0.4311(4) 0.2317(3)
O12 O 0.7678(4) 0.1126(7) 0.4424(4)
Co1 Co 0.50000 0.29444(8) 0.75000
N1 N 0.5620(3) 0.4130(4) 0.8154(3)
H1 H 0.60910 0.39490 0.81850
H2 H 0.55350 0.48430 0.79210
N2 N 0.4410(3) 0.3024(4) 0.8325(3)
H3 H 0.39390 0.31210 0.80860
H4 H 0.44520 0.23450 0.86060
N3 N 0.5606(3) 0.1671(5) 0.8081(4)
H5 H 0.60700 0.17650 0.80340
H6 H 0.55930 0.16960 0.86090
C6 C 0.5463(4) 0.4160(6) 0.8974(4)
H7 H 0.56260 0.49000 0.92370
H8 H 0.57140 0.35210 0.92980
C7 C 0.4656(4) 0.4031(6) 0.8885(4)
H9 H 0.45390 0.38790 0.94070
H10 H 0.44130 0.47500 0.86680
C8 C 0.5334(7) 0.0538(10) 0.7743(8)
H11 H 0.56750 0.02270 0.74390
H12 H 0.53280 -0.00010 0.81860
O13 O 0.50000 0.6285(5) 0.75000
H13 H 0.48120 0.66890 0.77460
O6F O 0.2722(3) 0.3605(4) 0.5724(3)
C4F C 0.2677(3) 0.3125(5) 0.5050(4)
O8F O 0.2899(2) 0.3528(3) 0.4464(3)
La1D La 0.690003(15) -0.20992(2) 0.664025(17)
K1D K 0.34561(17) -0.0995(4) 0.47532(19)
O1D O 0.6071(2) -0.1476(4) 0.5314(3)
O2D O 0.4956(3) -0.1326(4) 0.4571(3)
O3D O 0.5574(2) -0.2167(4) 0.6572(3)
O4D O 0.4445(3) -0.1905(7) 0.5933(4)
O5D O 0.6616(2) -0.4188(3) 0.7025(3)
O7D O 0.8293(2) -0.4887(3) 0.8196(3)
O9D O 0.7978(2) -0.3343(3) 0.7406(3)
O10D O 0.7025(2) -0.5915(3) 0.7537(2)
O11D O 0.6690(3) -0.1963(5) 0.8104(3)
C1D C 0.5396(3) -0.1524(5) 0.5210(3)
C2D C 0.5098(3) -0.1888(6) 0.5965(4)
C3D C 0.7096(3) -0.4847(4) 0.7386(3)
C5D C 0.7855(3) -0.4311(4) 0.7683(3)
O12D O 0.2322(4) -0.1126(7) 0.5576(4)
La1C La 0.190003(15) 0.70992(2) 0.164025(17)
La1F La 0.190003(15) 0.29008(2) 0.664025(17)
La1G La 0.809997(15) -0.70992(2) 0.835975(17)
K1C K 0.84561(17) -0.4005(4) 0.97532(19)
K1G K 0.15439(17) 0.4005(4) 0.02468(19)
O6D O 0.7722(3) -0.1395(4) 0.5724(3)
O7C O 0.3293(2) -0.0113(3) 0.3196(3)
O7G O 0.6707(2) 0.0113(3) 0.6804(3)
O8B O 0.7101(2) -0.3528(3) 0.5536(3)
O10C O 0.2025(2) 0.0915(3) 0.2537(2)
O10G O 0.7975(2) -0.0915(3) 0.7463(2)
N3A N 0.4394(3) 0.1671(5) 0.6919(4)
H5A H 0.39300 0.17650 0.69660
H6A H 0.44070 0.16960 0.63910
C8A C 0.4666(7) 0.0538(10) 0.7257(8)
H11A H 0.43250 0.02270 0.75610
H12A H 0.46720 -0.00010 0.68140
N1A N 0.4380(3) 0.4130(4) 0.6846(3)
H1A H 0.39090 0.39490 0.68150
H2A H 0.44650 0.48430 0.70790
N2A N 0.5590(3) 0.3024(4) 0.6675(3)
H3A H 0.60610 0.31210 0.69140
H4A H 0.55480 0.23450 0.63940
C6A C 0.4537(4) 0.4160(6) 0.6026(4)
H7A H 0.43740 0.49000 0.57630
H8A H 0.42860 0.35210 0.57020
C7A C 0.5344(4) 0.4031(6) 0.6115(4)
H9A H 0.54610 0.38790 0.55930
H10A H 0.55870 0.47500 0.63320
H13A H 0.51880 0.66890 0.72540
#END
