
#######################################################################
#
#                 Cambridge Crystallographic Data Centre
#                                CCDC
#
#######################################################################
#
# If this CIF has been generated from an entry in the Cambridge
# Structural Database, then it will include bibliographic, chemical,
# crystal, experimental, refinement or atomic coordinate data resulting
# from the CCDC's data processing and validation procedures.
#
#######################################################################

data_CSD_CIF_IXELEE
_audit_creation_date 2016-10-12
_audit_creation_method CSD-ConQuest-V1
_database_code_CSD IXELEE
_database_code_depnum_ccdc_archive 'CCDC 1435539'
_chemical_formula_sum 'C24 H22 Np2 O20'
_chemical_formula_moiety
;
(C24 H12 Np2 O16 2-)n,2(H2 O1),2(H3 O1 1+)
;
_journal_coden_Cambridge 513
_journal_volume 58
_journal_year 2016
_journal_page_first 349
_journal_name_full 'Radiokhimiya(Russ.)(Radiochem.) '
loop_
_publ_author_name
"M.S.Grigorev"
"I.A.Charushnikova"
"A.M.Fedoseev"
_chemical_name_systematic
;
catena-[bis(oxonium) tris(\m-isophthalato)-tetraoxo-di-neptunium(vi) 
dihydrate]
;
_cell_volume   3337.383
_exptl_crystal_colour 'brown'
_exptl_crystal_density_diffrn 2.198
_exptl_crystal_description 'prism'
_diffrn_ambient_temperature 100
#These two values have been output from a single CSD field.
_refine_ls_R_factor_gt 0.1589
_refine_ls_wR_factor_gt 0.1589
_symmetry_cell_setting orthorhombic
_symmetry_space_group_name_H-M 'C 2 2 21'
_symmetry_Int_Tables_number 20
loop_
_symmetry_equiv_pos_site_id
_symmetry_equiv_pos_as_xyz
1 x,y,z
2 -x,-y,1/2+z
3 -x,y,1/2-z
4 x,-y,-z
5 1/2+x,1/2+y,z
6 1/2-x,1/2-y,1/2+z
7 1/2-x,1/2+y,1/2-z
8 1/2+x,1/2-y,-z
_cell_length_a 8.6473(3)
_cell_length_b 17.7732(7)
_cell_length_c 21.7150(8)
_cell_angle_alpha 90
_cell_angle_beta 90
_cell_angle_gamma 90
_cell_formula_units_Z 4
loop_
_atom_type_symbol
_atom_type_radius_bond
C 0.68
H 0.23
Np 1.90
O 0.68
loop_
_atom_site_label
_atom_site_type_symbol
_atom_site_fract_x
_atom_site_fract_y
_atom_site_fract_z
Np1 Np 0.4906(2) 0.59223(10) 0.37077(9)
O1 O 0.403(3) 0.5793(17) 0.3016(13)
O2 O 0.591(4) 0.611(2) 0.4422(16)
O3 O 0.360(4) 0.716(2) 0.3816(15)
O4 O 0.227(4) 0.6150(18) 0.4133(14)
O5 O 0.116(6) 0.972(3) 0.371(3)
O6 O -0.126(5) 0.980(2) 0.4079(19)
C1 C 0.241(4) 0.678(2) 0.4025(16)
C2 C 0.100(6) 0.733(3) 0.419(2)
C3 C 0.111(13) 0.815(7) 0.409(5)
H1 H 0.20430 0.83580 0.39370
C4 C -0.00280 0.85760 0.42140
C5 C -0.14350 0.82540 0.43970
H2 H -0.23230 0.85630 0.44450
C6 C -0.15380 0.74810 0.45080
H3 H -0.24700 0.72560 0.46480
C7 C -0.02160 0.70570 0.44050
H4 H -0.02380 0.65370 0.45060
C8 C -0.02360 0.92980 0.38930
O7 O 0.64120 0.69840 0.32500
O8 O 0.75850 0.58610 0.32450
C9 C 0.76170 0.67400 0.31120
C10 C 0.91260 0.70510 0.28620
C11 C 1.00000 0.65680 0.25000
H5 H 1.00000 0.60330 0.25000
C12 C 1.00000 0.82460 0.25000
H6 H 1.00000 0.87800 0.25000
C13 C 0.92180 0.78310 0.29100
H7 H 0.87140 0.80760 0.32440
O9 O 0.78600 0.45290 0.24550
O10 O 0.99510 0.45960 0.37000
O7B O 1.35880 0.69840 0.17500
O8B O 1.24150 0.58610 0.17550
C9B C 1.23830 0.67400 0.18880
C10B C 1.08740 0.70510 0.21380
C13B C 1.07820 0.78310 0.20900
H7B H 1.12860 0.80760 0.17560
Np1B Np 1.5094(2) 0.59223(10) 0.12923(9)
O1B O 1.597(3) 0.5793(17) 0.1984(13)
O2B O 1.409(4) 0.611(2) 0.0578(16)
O3B O 1.640(4) 0.716(2) 0.1184(15)
O4B O 1.773(4) 0.6150(18) 0.0867(14)
O5B O 1.884(6) 0.972(3) 0.129(3)
O6B O 2.126(5) 0.980(2) 0.0921(19)
C1B C 1.759(4) 0.678(2) 0.0975(16)
C2B C 1.900(6) 0.733(3) 0.081(2)
C3B C 1.889(13) 0.815(7) 0.091(5)
H1B H 1.79570 0.83580 0.10630
C4B C 2.00280 0.85760 0.07860
C5B C 2.14350 0.82540 0.06030
H2B H 2.23230 0.85630 0.05550
C6B C 2.15380 0.74810 0.04920
H3B H 2.24700 0.72560 0.03520
C7B C 2.02160 0.70570 0.05950
H4B H 2.02380 0.65370 0.04940
C8B C 2.02360 0.92980 0.11070
Np1D Np -0.0094(2) 1.09223(10) 0.37077(9)
Np1F Np 2.0094(2) 1.09223(10) 0.12923(9)
O5D O 0.616(6) 0.472(3) 0.371(3)
O5F O 1.384(6) 0.472(3) 0.129(3)
O6D O 0.374(5) 0.480(2) 0.4079(19)
O6F O 1.626(5) 0.480(2) 0.0921(19)
#END
