
#######################################################################
#
#                 Cambridge Crystallographic Data Centre
#                                CCDC
#
#######################################################################
#
# If this CIF has been generated from an entry in the Cambridge
# Structural Database, then it will include bibliographic, chemical,
# crystal, experimental, refinement or atomic coordinate data resulting
# from the CCDC's data processing and validation procedures.
#
#######################################################################

data_CSD_CIF_IXELAA
_audit_creation_date 2016-10-12
_audit_creation_method CSD-ConQuest-V1
_database_code_CSD IXELAA
_database_code_depnum_ccdc_archive 'CCDC 1435538'
_chemical_formula_sum 'C24 H20 Cs2 Np2 O20'
_chemical_formula_moiety
;
(C24 H12 Np2 O16 2-)n,4(H2 O1),2(Cs1 1+)
;
_journal_coden_Cambridge 513
_journal_volume 58
_journal_year 2016
_journal_page_first 349
_journal_name_full 'Radiokhimiya(Russ.)(Radiochem.) '
loop_
_publ_author_name
"M.S.Grigorev"
"I.A.Charushnikova"
"A.M.Fedoseev"
_chemical_name_systematic
;
catena-[di-cesium tris(\m-isophthalato)-tetraoxo-di-neptunium(vi) 
tetrahydrate]
;
_cell_volume   3088.285
_exptl_crystal_colour 'brown'
_exptl_crystal_density_diffrn 2.943
_exptl_crystal_description 'prism'
_diffrn_ambient_temperature 100
#These two values have been output from a single CSD field.
_refine_ls_R_factor_gt 0.0496
_refine_ls_wR_factor_gt 0.0496
_symmetry_cell_setting monoclinic
_symmetry_space_group_name_H-M 'C 2/c'
_symmetry_Int_Tables_number 15
loop_
_symmetry_equiv_pos_site_id
_symmetry_equiv_pos_as_xyz
1 x,y,z
2 -x,y,1/2-z
3 1/2+x,1/2+y,z
4 1/2-x,1/2+y,1/2-z
5 -x,-y,-z
6 x,-y,-1/2+z
7 -1/2-x,-1/2-y,-z
8 -1/2+x,-1/2-y,-1/2+z
_cell_length_a 8.2846(3)
_cell_length_b 18.1175(7)
_cell_length_c 20.7615(8)
_cell_angle_alpha 90
_cell_angle_beta 97.678(2)
_cell_angle_gamma 90
_cell_formula_units_Z 4
loop_
_atom_type_symbol
_atom_type_radius_bond
C 0.68
H 0.23
Cs 2.44
Np 1.90
O 0.68
loop_
_atom_site_label
_atom_site_type_symbol
_atom_site_fract_x
_atom_site_fract_y
_atom_site_fract_z
Np1 Np 0.56850(3) 0.804354(15) 0.381620(13)
O1 O 0.4975(6) 0.8231(3) 0.4566(2)
O2 O 0.6374(7) 0.7853(3) 0.3071(3)
O3 O 0.4481(6) 0.6789(3) 0.3882(3)
O4 O 0.7086(6) 0.6917(3) 0.4222(3)
O5 O 0.2104(6) 0.4232(3) 0.3869(3)
O6 O 0.3614(6) 0.3291(3) 0.4234(3)
O7 O 0.2748(6) 0.8006(3) 0.3291(3)
O8 O 0.4110(6) 0.9044(3) 0.3283(3)
C1 C 0.5846(9) 0.6519(4) 0.4112(3)
C2 C 0.6028(9) 0.5707(4) 0.4244(3)
C3 C 0.4716(8) 0.5241(4) 0.4119(3)
H1 H 0.36790 0.54310 0.39480
C4 C 0.4908(8) 0.4485(4) 0.4244(3)
C5 C 0.6438(8) 0.4206(4) 0.4492(4)
H2 H 0.65750 0.36920 0.45730
C6 C 0.7756(9) 0.4680(4) 0.4618(4)
H3 H 0.88000 0.44940 0.47850
C7 C 0.7534(9) 0.5433(4) 0.4499(4)
H4 H 0.84290 0.57610 0.45930
C8 C 0.3490(9) 0.3972(4) 0.4109(3)
C9 C 0.2816(9) 0.8683(4) 0.3135(3)
C10 C 0.1350(8) 0.9059(4) 0.2790(3)
C11 C 0.00000 0.8666(6) 0.25000
H5 H 0.00000 0.81410 0.25000
C12 C 0.00000 1.0213(6) 0.25000
H6 H 0.00000 1.07380 0.25000
C13 C 0.1352(9) 0.9831(4) 0.2784(4)
H7 H 0.22880 1.00930 0.29750
Cs1 Cs 1.05635(6) 0.69496(3) 0.38883(3)
O9 O 1.1900(12) 0.6586(5) 0.2360(5)
H8 H 1.279(6) 0.677(5) 0.255(4)
H9 H 1.160(12) 0.628(6) 0.264(5)
O10 O 0.0822(8) 0.5461(4) 0.3182(4)
H10 H 0.131(7) 0.506(2) 0.330(5)
H11 H 0.006(7) 0.534(4) 0.289(3)
O7A O -0.2748(6) 0.8006(3) 0.1709(3)
O8A O -0.4110(6) 0.9044(3) 0.1717(3)
C9A C -0.2816(9) 0.8683(4) 0.1865(3)
C10A C -0.1350(8) 0.9059(4) 0.2210(3)
C13A C -0.1352(9) 0.9831(4) 0.2216(4)
H7A H -0.22880 1.00930 0.20250
Np1A Np -0.56850(3) 0.804354(15) 0.118380(13)
O1A O -0.4975(6) 0.8231(3) 0.0434(2)
O2A O -0.6374(7) 0.7853(3) 0.1929(3)
O3A O -0.4481(6) 0.6789(3) 0.1118(3)
O4A O -0.7086(6) 0.6917(3) 0.0778(3)
O5A O -0.2104(6) 0.4232(3) 0.1131(3)
O6A O -0.3614(6) 0.3291(3) 0.0766(3)
C1A C -0.5846(9) 0.6519(4) 0.0888(3)
C2A C -0.6028(9) 0.5707(4) 0.0756(3)
C3A C -0.4716(8) 0.5241(4) 0.0881(3)
H1A H -0.36790 0.54310 0.10520
C4A C -0.4908(8) 0.4485(4) 0.0756(3)
C5A C -0.6438(8) 0.4206(4) 0.0508(4)
H2A H -0.65750 0.36920 0.04270
C6A C -0.7756(9) 0.4680(4) 0.0382(4)
H3A H -0.88000 0.44940 0.02150
C7A C -0.7534(9) 0.5433(4) 0.0501(4)
H4A H -0.84290 0.57610 0.04070
C8A C -0.3490(9) 0.3972(4) 0.0891(3)
Np1B Np 0.06850(3) 0.304354(15) 0.381620(13)
Np1C Np -0.06850(3) 0.304354(15) 0.118380(13)
O5B O 0.7104(6) 0.9232(3) 0.3869(3)
O5C O -0.7104(6) 0.9232(3) 0.1131(3)
O6B O 0.8614(6) 0.8291(3) 0.4234(3)
O6C O -0.8614(6) 0.8291(3) 0.0766(3)
O9A O -1.1900(12) 0.6586(5) 0.2640(5)
H8A H -1.279(6) 0.677(5) 0.245(4)
H9A H -1.160(12) 0.628(6) 0.236(5)
#END
