
#######################################################################
#
#                 Cambridge Crystallographic Data Centre
#                                CCDC
#
#######################################################################
#
# If this CIF has been generated from an entry in the Cambridge
# Structural Database, then it will include bibliographic, chemical,
# crystal, experimental, refinement or atomic coordinate data resulting
# from the CCDC's data processing and validation procedures.
#
#######################################################################

data_CSD_CIF_IXINOS
_audit_creation_date 2004-09-28
_audit_creation_method CSD-ConQuest-V1
_database_code_CSD IXINOS
_database_code_depnum_ccdc_archive 'CCDC 223625'
_chemical_formula_sum 'C28 H90 N8 O62 P8 V6'
_chemical_formula_moiety
;
(C10 H28 N4 4+)2n,n(C8 H10 O50 P8 V6 8-),12n(H2 O1)
;
_journal_coden_Cambridge 208
_journal_volume 177
_journal_year 2004
_journal_page_first 1912
_journal_name_full 'J.Solid State Chem. '
loop_
_publ_author_name
"Ming-Feng Tang"
"Kwang-Hwa Lii"
_chemical_name_systematic
;
catena-(bis(1,4-(3-Ammoniopropyl)piperazine-diium) tetrakis(\m~3~-hydrogen 
phosphato)-bis(\m~3~-phosphato)-bis(\m~2~-hydrogen 
phosphato)-bis(\m~2~-oxalato)-bis(oxalato)-diaqua-hexa-vanadium(iii) 
dodecahydrate)
;
_cell_volume   1843.759
_exptl_crystal_colour 'green'
_exptl_crystal_density_diffrn 1.877
_exptl_special_details
;
isostructural with the iron analogue

;
_exptl_crystal_description 'tabular'
_diffrn_ambient_temperature 297
_refine_special_details
;
The water molecules are slightly disordered.

;
#These two values have been output from a single CSD field.
_refine_ls_R_factor_gt 0.0582
_refine_ls_wR_factor_gt 0.0582
_symmetry_cell_setting triclinic
_symmetry_space_group_name_H-M 'P -1'
_symmetry_Int_Tables_number 2
loop_
_symmetry_equiv_pos_site_id
_symmetry_equiv_pos_as_xyz
1 x,y,z
2 -x,-y,-z
_cell_length_a 11.6035(19)
_cell_length_b 12.391(2)
_cell_length_c 15.220(3)
_cell_angle_alpha 71.090(3)
_cell_angle_beta 82.630(3)
_cell_angle_gamma 62.979(3)
_cell_formula_units_Z 1
loop_
_atom_type_symbol
_atom_type_radius_bond
C 0.68
H 0.23
N 0.68
O 0.68
P 1.05
V 1.33
loop_
_atom_site_label
_atom_site_type_symbol
_atom_site_fract_x
_atom_site_fract_y
_atom_site_fract_z
V1 V 0.54231(5) 0.93310(6) 0.22933(4)
V2 V 0.37760(5) 1.35489(5) -0.00020(4)
V3 V 0.88274(5) 0.85326(5) -0.00388(4)
P1 P 0.66121(8) 1.08916(8) 0.07125(6)
P2 P 0.26017(8) 1.18108(9) 0.16819(6)
P3 P 0.75978(8) 0.68989(8) 0.16019(6)
P4 P 0.14517(8) 1.64969(9) -0.09462(6)
O1 O 0.7168(2) 0.9838(2) 0.02457(18)
O2 O 0.5410(2) 1.1985(3) 0.0180(2)
O3 O 0.7681(3) 1.1352(3) 0.0649(2)
O4 O 0.6308(3) 1.0404(3) 0.17294(18)
O5 O 0.3733(2) 1.0794(3) 0.23455(18)
O6 O 0.7816(2) 0.8763(3) -0.11132(18)
O7 O 0.1483(2) 1.2348(3) 0.23487(18)
O8 O 0.2884(3) 1.2900(3) 0.10789(19)
O9 O 0.8679(2) 0.7150(3) 0.10136(18)
O10 O 0.6997(2) 0.7760(3) 0.22217(18)
O11 O 0.3416(2) 1.2997(3) -0.09912(18)
O12 O 0.8248(3) 0.5515(3) 0.23001(18)
O13 O 0.2229(2) 1.5169(3) -0.02907(19)
O14 O 1.0441(2) 0.7294(3) -0.03765(19)
O15 O 0.2355(2) 1.7128(3) -0.13998(18)
O16 O 0.0821(2) 1.6406(3) -0.1741(2)
O17 O 0.4758(2) 0.9331(3) 0.1104(2)
O18 O 0.5976(3) 0.9170(3) 0.35664(18)
O19 O 0.4644(3) 0.8161(3) 0.31340(19)
O20 O 0.4339(2) 1.4202(3) 0.09088(17)
O21 O 0.4801(2) 1.4494(3) -0.08945(17)
O22 O 0.9188(2) 1.0036(3) -0.09044(17)
O23 O 0.9902(2) 0.8720(3) 0.08674(17)
O24 O 0.5811(4) 0.8286(4) 0.5095(2)
O25 O 0.4553(4) 0.7125(4) 0.4631(2)
C1 C 0.5620(4) 0.8484(4) 0.4255(3)
C2 C 0.4880(4) 0.7847(4) 0.4007(3)
C3 C 0.4872(3) 1.4911(3) 0.0526(2)
C4 C 0.9801(3) 1.0382(3) -0.0518(2)
C5 C 0.8637(4) 0.5103(5) -0.2689(3)
H1 H 0.88950 0.43840 -0.29200
H2 H 0.92760 0.54310 -0.28820
C6 C 0.7321(4) 0.6136(5) -0.3126(3)
H3 H 0.70170 0.68120 -0.28420
H4 H 0.74280 0.64930 -0.37820
C7 C 0.6314(4) 0.5663(4) -0.3019(3)
H5 H 0.62220 0.52900 -0.23620
H6 H 0.66140 0.49960 -0.33120
C8 C 0.4414(4) 0.7766(4) -0.3024(3)
H7 H 0.49660 0.81950 -0.31530
H8 H 0.43730 0.74380 -0.23550
C9 C 0.3073(4) 0.8705(4) -0.3419(3)
H9 H 0.27230 0.93880 -0.31380
H10 H 0.31180 0.90710 -0.40830
C10 C 0.2742(4) 0.7017(4) -0.3664(3)
H11 H 0.27650 0.73640 -0.43330
H12 H 0.21860 0.65920 -0.35360
C11 C 0.4086(4) 0.6068(4) -0.3294(3)
H13 H 0.44250 0.54170 -0.36050
H14 H 0.40480 0.56590 -0.26360
C12 C 0.0825(4) 0.8999(5) -0.3602(3)
H15 H 0.08600 0.95460 -0.42170
H16 H 0.03730 0.85300 -0.36570
C13 C 0.0084(4) 0.9801(5) -0.2983(3)
H17 H 0.04690 1.03530 -0.29870
H18 H 0.01310 0.92590 -0.23510
C14 C -0.1327(4) 1.0603(5) -0.3305(3)
H19 H -0.13650 1.11540 -0.39320
H20 H -0.16940 1.00450 -0.33220
N1 N 0.8628(3) 0.4660(4) -0.1652(3)
N2 N 0.4990(3) 0.6680(3) -0.3433(2)
N3 N 0.2194(3) 0.8070(3) -0.3238(2)
N4 N -0.2113(4) 1.1382(5) -0.2709(3)
O26 O 0.7343(3) 0.2974(4) -0.1417(3)
O27 O 0.2648(7) 0.0784(7) -0.5629(3)
O28 O 0.8229(11) 0.5156(12) 0.4299(5)
O29 O 0.0424(13) 0.242(2) -0.4945(10)
O30? O 0.7063(9) 0.3790(7) -0.4252(5)
O31? O 0.0794(11) 0.2058(11) -0.2858(6)
O32 O 0.108(2) 0.242(4) -0.350(5)
O33 O 0.8611(18) 0.329(2) -0.4111(16)
P2A P 0.73983(8) 0.81892(9) -0.16819(6)
O5A O 0.6267(2) 0.9206(3) -0.23455(18)
V1A V 0.45769(5) 1.06690(6) -0.22933(4)
O4A O 0.3692(3) 0.9596(3) -0.17294(18)
P1A P 0.33879(8) 0.91084(8) -0.07125(6)
O1A O 0.2832(2) 1.0162(2) -0.02457(18)
V3A V 0.11726(5) 1.14674(5) 0.00388(4)
O6A O 0.2184(2) 1.1237(3) 0.11132(18)
P4* P 1.14517(8) 0.64969(9) -0.09462(6)
O13* O 1.2229(2) 0.5169(3) -0.02907(19)
V2* V 1.37760(5) 0.35489(5) -0.00020(4)
O13A O 0.7771(2) 0.4831(3) 0.02907(19)
V2A V 0.62240(5) 0.64511(5) 0.00020(4)
O2A O 0.4590(2) 0.8015(3) -0.0180(2)
O3A O 0.2319(3) 0.8648(3) -0.0649(2)
O8A O 0.7116(3) 0.7100(3) -0.10789(19)
O7A O 0.8517(2) 0.7652(3) -0.23487(18)
O11A O 0.6584(2) 0.7003(3) 0.09912(18)
O20A O 0.5661(2) 0.5798(3) -0.09088(17)
O21A O 0.5199(2) 0.5506(3) 0.08945(17)
O15* O 1.2355(2) 0.7128(3) -0.13998(18)
O16* O 1.0821(2) 0.6406(3) -0.1741(2)
O9A O 0.1321(2) 1.2850(3) -0.10136(18)
O14A O -0.0441(2) 1.2706(3) 0.03765(19)
O22A O 0.0812(2) 0.9964(3) 0.09044(17)
O23A O 0.0098(2) 1.1280(3) -0.08674(17)
O10A O 0.3003(2) 1.2240(3) -0.22217(18)
O17A O 0.5242(2) 1.0669(3) -0.1104(2)
O18A O 0.4024(3) 1.0830(3) -0.35664(18)
O19A O 0.5356(3) 1.1839(3) -0.31340(19)
O14* O 0.0441(2) 1.7294(3) -0.03765(19)
P3A P 0.24022(8) 1.31011(8) -0.16019(6)
C3A C 0.5128(3) 1.5089(3) -0.0526(2)
C4A C 1.0199(3) 0.9618(3) 0.0518(2)
O21A* O 0.5199(2) 1.5506(3) 0.08945(17)
O23A* O 1.0098(2) 1.1280(3) -0.08674(17)
O12A O 0.1752(3) 1.4485(3) -0.23001(18)
C1A C 0.4380(4) 1.1516(4) -0.4255(3)
C2A C 0.5120(4) 1.2153(4) -0.4007(3)
V3* V -0.11726(5) 1.85326(5) -0.00388(4)
O20A* O 0.5661(2) 1.5798(3) -0.09088(17)
O22A* O 1.0812(2) 0.9964(3) 0.09044(17)
V2A* V 0.62240(5) 1.64511(5) 0.00020(4)
V3A* V 1.11726(5) 1.14674(5) 0.00388(4)
O24A O 0.4189(4) 1.1714(4) -0.5095(2)
O25A O 0.5447(4) 1.2875(4) -0.4631(2)
#END
