
#######################################################################
#
#                 Cambridge Crystallographic Data Centre
#                                CCDC
#
#######################################################################
#
# If this CIF has been generated from an entry in the Cambridge
# Structural Database, then it will include bibliographic, chemical,
# crystal, experimental, refinement or atomic coordinate data resulting
# from the CCDC's data processing and validation procedures.
#
#######################################################################

data_CSD_CIF_IXISOZ02
_audit_creation_date 2016-10-12
_audit_creation_method CSD-ConQuest-V1
_database_code_CSD IXISOZ02
_database_code_depnum_ccdc_archive 'CCDC 1455819'
_chemical_formula_sum 'C44 H40 Cl2 Eu2 N4 O16'
_chemical_formula_moiety
;
(C32 H18 Cl2 Eu2 O16 2-)n,2n(C6 H11 N2 1+)
;
_journal_coden_Cambridge 222
_journal_volume 45
_journal_year 2016
_journal_page_first 17392
_journal_name_full 'Dalton Trans. '
loop_
_publ_author_name
"Hui-Jun Feng"
"Ling Xu"
"Bing Liu"
"Huan Jiao"
_chemical_name_systematic
;
catena-[bis(3-ethyl-1-methyl-1H-imidazol-3-ium) 
tris(\m-terephthalato)-(\m-terephthalic acid)-dichloro-di-europium]
;
_cell_volume   2339.259
_exptl_crystal_colour 'colorless'
_exptl_crystal_density_diffrn 1.78
_exptl_crystal_description 'block'
_diffrn_ambient_temperature 293
#These two values have been output from a single CSD field.
_refine_ls_R_factor_gt 0.0436
_refine_ls_wR_factor_gt 0.0436
_symmetry_cell_setting monoclinic
_symmetry_space_group_name_H-M 'P 21/n'
_symmetry_Int_Tables_number 14
loop_
_symmetry_equiv_pos_site_id
_symmetry_equiv_pos_as_xyz
1 x,y,z
2 1/2-x,1/2+y,1/2-z
3 -x,-y,-z
4 -1/2+x,-1/2-y,-1/2+z
_cell_length_a 13.0533(4)
_cell_length_b 13.1471(3)
_cell_length_c 14.0537(4)
_cell_angle_alpha 90
_cell_angle_beta 104.088(3)
_cell_angle_gamma 90
_cell_formula_units_Z 2
loop_
_atom_type_symbol
_atom_type_radius_bond
C 0.68
H 0.23
Cl 0.99
Eu 1.98
N 0.68
O 0.68
loop_
_atom_site_label
_atom_site_type_symbol
_atom_site_fract_x
_atom_site_fract_y
_atom_site_fract_z
Eu1 Eu 0.59068(3) 0.05284(2) 0.91193(2)
Cl1 Cl 0.80191(13) 0.13799(12) 0.92281(13)
O1 O 0.4632(4) -0.0699(4) 0.8332(4)
O2 O 0.3499(4) -0.1124(4) 0.9245(4)
O3 O 0.2033(4) -0.4072(4) 0.4728(4)
O4 O 0.0688(4) -0.4140(4) 0.5418(4)
C1 C 0.3214(6) -0.1795(5) 0.7643(5)
C2 C 0.3443(6) -0.1785(6) 0.6728(5)
H1 H 0.3947(6) -0.1339(6) 0.6603(5)
C3 C 0.2922(6) -0.2436(6) 0.6008(5)
H2 H 0.3102(6) -0.2449(6) 0.5407(5)
C4 C 0.2131(6) -0.3076(5) 0.6162(5)
C5 C 0.1877(6) -0.3061(6) 0.7063(5)
H3 H 0.1338(6) -0.3475(6) 0.7171(5)
C6 C 0.2425(6) -0.2428(6) 0.7806(5)
H4 H 0.2262(6) -0.2429(6) 0.8414(5)
C7 C 0.3843(6) -0.1151(5) 0.8475(5)
C8 C 0.1598(6) -0.3797(5) 0.5394(5)
O5 O 0.5573(5) 0.2475(4) 0.9137(4)
O6 O 0.7098(5) 0.3293(5) 0.9756(5)
C9 C 0.5522(7) 0.4159(6) 0.9767(6)
C10 C 0.6091(8) 0.4918(7) 1.0379(7)
H5 H 0.6816(8) 0.4857(7) 1.0633(7)
C11 C 0.4442(7) 0.4249(7) 0.9407(7)
H6 H 0.4072(7) 0.3737(7) 0.9012(7)
C12 C 0.6068(7) 0.3214(6) 0.9518(6)
O7 O 0.6415(4) -0.0134(4) 0.7607(4)
O8 O 0.5272(4) 0.1113(4) 0.7444(4)
C13 C 0.5351(6) 0.0203(6) 0.5996(5)
C14 C 0.5795(7) -0.0557(6) 0.5583(6)
H7 H 0.6334(7) -0.0944(6) 0.5971(6)
C15 C 0.4549(7) 0.0766(7) 0.5421(6)
H8 H 0.4235(7) 0.1286(7) 0.5698(6)
C16 C 0.5704(6) 0.0417(6) 0.7081(5)
N1 N 0.9367(10) 0.0782(12) 0.7383(9)
N2 N 0.9576(10) -0.0620(9) 0.8211(11)
C17 C 0.8899(10) -0.0003(12) 0.7676(11)
H9 H 0.8171(10) -0.0103(12) 0.7519(11)
C18 C 1.0433(13) 0.0623(15) 0.7751(12)
H10 H 1.0976(13) 0.1043(15) 0.7664(12)
C19 C 1.0539(11) -0.0225(13) 0.8242(13)
H11 H 1.1179(11) -0.0515(13) 0.8566(13)
C20 C 0.873(2) 0.177(2) 0.6784(13)
H12 H 0.923(2) 0.225(2) 0.6647(13)
H13 H 0.827(2) 0.154(2) 0.6179(13)
H14 H 0.832(2) 0.209(2) 0.7179(13)
C21 C 0.939(2) -0.1541(16) 0.893(3)
H15 H 1.001(2) -0.1722(16) 0.944(3)
H16 H 0.878(2) -0.1439(16) 0.921(3)
C22 C 0.918(5) -0.220(4) 0.809(3)
H17 H 0.903(5) -0.287(4) 0.827(3)
H18 H 0.859(5) -0.194(4) 0.760(3)
H19 H 0.979(5) -0.222(4) 0.782(3)
O5B O 0.4427(5) 0.7525(4) 1.0863(4)
O6B O 0.2902(5) 0.6707(5) 1.0244(5)
C9B C 0.4478(7) 0.5841(6) 1.0233(6)
C10B C 0.3909(8) 0.5082(7) 0.9621(7)
H5B H 0.3184(8) 0.5143(7) 0.9367(7)
C11B C 0.5558(7) 0.5751(7) 1.0593(7)
H6B H 0.5928(7) 0.6263(7) 1.0988(7)
C12B C 0.3932(7) 0.6786(6) 1.0482(6)
O7B O 0.3585(4) 0.0134(4) 0.2393(4)
O8B O 0.4728(4) -0.1113(4) 0.2556(4)
C13B C 0.4649(6) -0.0203(6) 0.4004(5)
C14B C 0.4205(7) 0.0557(6) 0.4417(6)
H7B H 0.3666(7) 0.0944(6) 0.4029(6)
C15B C 0.5451(7) -0.0766(7) 0.4579(6)
H8B H 0.5765(7) -0.1286(7) 0.4302(6)
C16B C 0.4296(6) -0.0417(6) 0.2919(5)
Eu1B Eu 0.40932(3) -0.05284(2) 0.08807(2)
Cl1B Cl 0.19809(13) -0.13799(12) 0.07719(13)
O1B O 0.5368(4) 0.0699(4) 0.1668(4)
O2B O 0.6501(4) 0.1124(4) 0.0755(4)
O3B O 0.7967(4) 0.4072(4) 0.5272(4)
O4B O 0.9312(4) 0.4140(4) 0.4582(4)
C1B C 0.6786(6) 0.1795(5) 0.2357(5)
C2B C 0.6557(6) 0.1785(6) 0.3272(5)
H1B H 0.6053(6) 0.1339(6) 0.3397(5)
C3B C 0.7078(6) 0.2436(6) 0.3992(5)
H2B H 0.6898(6) 0.2449(6) 0.4593(5)
C4B C 0.7869(6) 0.3076(5) 0.3838(5)
C5B C 0.8123(6) 0.3061(6) 0.2937(5)
H3B H 0.8662(6) 0.3475(6) 0.2829(5)
C6B C 0.7575(6) 0.2428(6) 0.2194(5)
H4B H 0.7738(6) 0.2429(6) 0.1586(5)
C7B C 0.6157(6) 0.1151(5) 0.1525(5)
C8B C 0.8402(6) 0.3797(5) 0.4606(5)
Eu1* Eu 0.59068(3) 0.05284(2) -0.08807(2)
Eu1A Eu -0.09068(3) -0.44716(2) 0.58807(2)
Eu1A* Eu 0.90932(3) 0.55284(2) 0.58807(2)
Eu1B* Eu 0.40932(3) -0.05284(2) 1.08807(2)
Eu1B** Eu 0.40932(3) 0.94716(2) 1.08807(2)
Eu1C Eu 0.09068(3) -0.55284(2) 0.41193(2)
Eu1C* Eu 1.09068(3) 0.44716(2) 0.41193(2)
O2* O 0.3499(4) -0.1124(4) -0.0755(4)
O2B* O 0.6501(4) 0.1124(4) 1.0755(4)
O3A O 0.2967(4) 0.0928(4) 0.0272(4)
O3C O 0.7033(4) -0.0928(4) 0.9728(4)
O4A O 0.4312(4) 0.0860(4) -0.0418(4)
O4A* O 0.4312(4) 0.0860(4) 0.9582(4)
O4C O 0.5688(4) -0.0860(4) 0.0418(4)
O4C* O 0.5688(4) -0.0860(4) 1.0418(4)
O5B* O 0.4427(5) -0.2475(4) 0.0863(4)
#END
