
#######################################################################
#
#                 Cambridge Crystallographic Data Centre
#                                CCDC
#
#######################################################################
#
# If this CIF has been generated from an entry in the Cambridge
# Structural Database, then it will include bibliographic, chemical,
# crystal, experimental, refinement or atomic coordinate data resulting
# from the CCDC's data processing and validation procedures.
#
#######################################################################

data_CSD_CIF_IXITIU02
_audit_creation_date 2016-10-12
_audit_creation_method CSD-ConQuest-V1
_database_code_CSD IXITIU02
_database_code_depnum_ccdc_archive 'CCDC 1455824'
_chemical_formula_sum 'C64 H54 Cl2 Eu4 N4 O24'
_chemical_formula_moiety
;
(C48 H24 Cl2 Eu4 O24 2-)n,2n(C8 H15 N2 1+)
;
_journal_coden_Cambridge 222
_journal_volume 45
_journal_year 2016
_journal_page_first 17392
_journal_name_full 'Dalton Trans. '
loop_
_publ_author_name
"Hui-Jun Feng"
"Ling Xu"
"Bing Liu"
"Huan Jiao"
_chemical_name_systematic
;
catena-[bis(3-butyl-1-methyl-1H-imidazol-3-ium) 
bis(\m-chloro)-hexakis(\m-terephthalato)-tetra-europium]
;
_cell_volume   6850.854
_exptl_crystal_colour 'colorless'
_exptl_crystal_density_diffrn 1.883
_exptl_crystal_description 'platelet'
_diffrn_ambient_temperature 293
#These two values have been output from a single CSD field.
_refine_ls_R_factor_gt 0.0384
_refine_ls_wR_factor_gt 0.0384
_symmetry_cell_setting monoclinic
_symmetry_space_group_name_H-M 'C 2/c'
_symmetry_Int_Tables_number 15
loop_
_symmetry_equiv_pos_site_id
_symmetry_equiv_pos_as_xyz
1 x,y,z
2 -x,y,1/2-z
3 1/2+x,1/2+y,z
4 1/2-x,1/2+y,1/2-z
5 -x,-y,-z
6 x,-y,-1/2+z
7 -1/2-x,-1/2-y,-z
8 -1/2+x,-1/2-y,-1/2+z
_cell_length_a 19.1758(6)
_cell_length_b 10.9867(3)
_cell_length_c 33.4105(12)
_cell_angle_alpha 90
_cell_angle_beta 103.273(3)
_cell_angle_gamma 90
_cell_formula_units_Z 4
loop_
_atom_type_symbol
_atom_type_radius_bond
C 0.68
H 0.23
Cl 0.99
Eu 1.98
N 0.68
O 0.68
loop_
_atom_site_label
_atom_site_type_symbol
_atom_site_fract_x
_atom_site_fract_y
_atom_site_fract_z
Eu1 Eu 0.013013(17) 0.18479(3) 0.186682(9)
Eu2 Eu 0.003489(16) 0.05911(3) 0.055764(9)
Cl1 Cl -0.07806(8) 0.08659(17) 0.11528(5)
O1 O 0.0318(3) 0.3367(4) 0.13901(15)
O2 O 0.0563(3) 0.2376(4) 0.08591(15)
O3 O 0.0188(2) 0.8708(4) 0.01979(14)
O4 O 0.0722(3) 0.7683(4) -0.02134(14)
C1 C 0.0541(4) 0.4528(6) 0.08284(19)
C2 C 0.0333(5) 0.5609(7) 0.0970(2)
H1 H 0.01960 0.56350 0.12190
C3 C 0.0329(4) 0.6672(7) 0.0740(2)
H2 H 0.01590 0.73930 0.08290
C4 C 0.0570(3) 0.6661(6) 0.0387(2)
C5 C 0.0808(4) 0.5570(7) 0.0254(2)
H3 H 0.09840 0.55560 0.00170
C6 C 0.0783(4) 0.4511(6) 0.0471(2)
H4 H 0.09310 0.37810 0.03760
C7 C 0.0473(4) 0.3337(6) 0.1044(2)
C8 C 0.0511(3) 0.7751(6) 0.0111(2)
O5 O 0.0960(3) 0.0737(5) 0.16113(15)
O6 O 0.0791(3) -0.0522(5) 0.10800(14)
O7 O 0.3811(3) -0.2800(5) 0.26413(15)
O8 O 0.4014(3) -0.3230(5) 0.20280(16)
C9 C 0.1715(3) -0.0973(6) 0.16647(19)
C10 C 0.1983(4) -0.1912(7) 0.1463(2)
H5 H 0.17430 -0.21400 0.12000
C11 C 0.2603(4) -0.2503(6) 0.1654(2)
H6 H 0.27940 -0.31010 0.15140
C12 C 0.2940(4) -0.2215(6) 0.2051(2)
C13 C 0.2651(4) -0.1320(7) 0.2260(2)
H7 H 0.28680 -0.11410 0.25320
C14 C 0.2045(4) -0.0701(7) 0.2065(2)
H8 H 0.18570 -0.00960 0.22040
C15 C 0.1099(3) -0.0200(6) 0.14394(19)
C16 C 0.3639(3) -0.2797(6) 0.2257(2)
O9 O -0.0037(4) 0.3734(5) 0.21641(17)
O10 O 0.0180(3) 1.0002(4) 0.22042(18)
C17 C 0.00000 0.5611(9) 0.25000
C18 C 0.0283(4) 0.6235(6) 0.2217(2)
H9 H 0.04700 0.58100 0.20240
C19 C 0.0290(4) 0.7501(7) 0.2218(3)
H10 H 0.04890 0.79230 0.20310
C20 C 0.00000 0.8127(9) 0.25000
C21 C 0.00000 0.4246(9) 0.25000
C22 C 0.00000 0.9491(9) 0.25000
O11 O -0.1068(2) -0.0303(5) 0.02806(14)
O12 O -0.1161(2) -0.0789(5) -0.03776(14)
C23 C -0.1951(3) -0.1712(7) -0.0023(2)
C24 C -0.2247(4) -0.1689(7) 0.0320(2)
H11 H -0.20770 -0.11470 0.05340
C25 C -0.2204(3) -0.2514(7) -0.0338(2)
H12 H -0.20040 -0.25200 -0.05660
C26 C -0.1344(3) -0.0870(6) -0.0040(2)
N1 N -0.2949(4) 0.0828(7) -0.0801(2)
N2 N -0.3093(4) -0.0444(7) -0.1298(2)
C27 C -0.2644(5) -0.0051(8) -0.0969(3)
H13 H -0.21820 -0.03460 -0.08680
C28 C -0.3624(5) 0.1012(10) -0.1038(4)
H14 H -0.39540 0.15840 -0.09910
C29 C -0.3717(5) 0.0229(11) -0.1342(4)
H15 H -0.41290 0.01420 -0.15510
C30 C -0.2615(7) 0.1535(12) -0.0437(4)
H16 H -0.21430 0.12260 -0.03240
H17 H -0.28990 0.14710 -0.02360
H18 H -0.25840 0.23730 -0.05130
C31 C -0.2952(7) -0.1435(10) -0.1564(3)
H19 H -0.24420 -0.15990 -0.15010
H20 H -0.30920 -0.11740 -0.18480
C32 C -0.3345(6) -0.2595(10) -0.1515(3)
H21 H -0.38560 -0.24540 -0.16060
H22 H -0.32460 -0.28080 -0.12250
C33 C -0.3136(7) -0.3655(12) -0.1754(4)
H23 H -0.34610 -0.43280 -0.17470
H24 H -0.31930 -0.34140 -0.20390
C34 C -0.2379(8) -0.4085(14) -0.1591(5)
H25 H -0.22770 -0.47450 -0.17570
H26 H -0.23230 -0.43590 -0.13120
H27 H -0.20530 -0.34270 -0.15980
O9A O 0.0037(4) 0.3734(5) 0.28359(17)
O10A O -0.0180(3) 1.0002(4) 0.27958(18)
C18A C -0.0283(4) 0.6235(6) 0.2783(2)
H9A H -0.04700 0.58100 0.29760
C19A C -0.0290(4) 0.7501(7) 0.2782(3)
H10A H -0.04890 0.79230 0.29690
O11F O -0.3932(2) -0.4697(5) -0.02806(14)
O12F O -0.3839(2) -0.4211(5) 0.03776(14)
C23F C -0.3049(3) -0.3288(7) 0.0023(2)
C24F C -0.2753(4) -0.3311(7) -0.0320(2)
H11F H -0.29230 -0.38530 -0.05340
C25F C -0.2796(3) -0.2486(7) 0.0338(2)
H12F H -0.29960 -0.24800 0.05660
C26F C -0.3656(3) -0.4130(6) 0.0040(2)
Eu1A Eu -0.013013(17) 0.18479(3) 0.313318(9)
Eu2A Eu -0.003489(16) 0.05911(3) 0.444236(9)
Cl1A Cl 0.07806(8) 0.08659(17) 0.38472(5)
O1A O -0.0318(3) 0.3367(4) 0.36099(15)
O2A O -0.0563(3) 0.2376(4) 0.41409(15)
O3A O -0.0188(2) 0.8708(4) 0.48021(14)
O4A O -0.0722(3) 0.7683(4) 0.52134(14)
C1A C -0.0541(4) 0.4528(6) 0.41716(19)
C2A C -0.0333(5) 0.5609(7) 0.4030(2)
H1A H -0.01960 0.56350 0.37810
C3A C -0.0329(4) 0.6672(7) 0.4260(2)
H2A H -0.01590 0.73930 0.41710
C4A C -0.0570(3) 0.6661(6) 0.4613(2)
C5A C -0.0808(4) 0.5570(7) 0.4746(2)
H3A H -0.09840 0.55560 0.49830
C6A C -0.0783(4) 0.4511(6) 0.4529(2)
H4A H -0.09310 0.37810 0.46240
C7A C -0.0473(4) 0.3337(6) 0.3956(2)
C8A C -0.0511(3) 0.7751(6) 0.4889(2)
O5A O -0.0960(3) 0.0737(5) 0.33887(15)
O6A O -0.0791(3) -0.0522(5) 0.39200(14)
O7A O -0.3811(3) -0.2800(5) 0.23587(15)
O8A O -0.4014(3) -0.3230(5) 0.29720(16)
C9A C -0.1715(3) -0.0973(6) 0.33353(19)
C10A C -0.1983(4) -0.1912(7) 0.3537(2)
H5A H -0.17430 -0.21400 0.38000
C11A C -0.2603(4) -0.2503(6) 0.3346(2)
H6A H -0.27940 -0.31010 0.34860
C12A C -0.2940(4) -0.2215(6) 0.2949(2)
C13A C -0.2651(4) -0.1320(7) 0.2740(2)
H7A H -0.28680 -0.11410 0.24680
C14A C -0.2045(4) -0.0701(7) 0.2935(2)
H8A H -0.18570 -0.00960 0.27960
C15A C -0.1099(3) -0.0200(6) 0.35606(19)
C16A C -0.3639(3) -0.2797(6) 0.2743(2)
Eu1* Eu 0.013013(17) 1.18479(3) 0.186682(9)
Eu1A* Eu -0.013013(17) 1.18479(3) 0.313318(9)
Eu1B Eu -0.486987(17) -0.31521(3) 0.186682(9)
Eu1B* Eu 0.513013(17) -0.31521(3) 0.186682(9)
Eu1C Eu -0.513013(17) -0.31521(3) 0.313318(9)
Eu1C* Eu 0.486987(17) -0.31521(3) 0.313318(9)
Eu2* Eu 0.003489(16) 1.05911(3) 0.055764(9)
Eu2A* Eu -0.003489(16) 1.05911(3) 0.444236(9)
Eu2B Eu -0.496511(16) -0.44089(3) 0.055764(9)
Eu2D Eu -0.003489(16) -0.05911(3) -0.055764(9)
Eu2D* Eu -0.003489(16) 0.94089(3) -0.055764(9)
Eu2E Eu 0.003489(16) 0.94089(3) 0.555764(9)
Eu2F Eu -0.503489(16) -0.55911(3) -0.055764(9)
O3* O 0.0188(2) -0.1292(4) 0.01979(14)
O3A* O -0.0188(2) -0.1292(4) 0.48021(14)
O3D O -0.0188(2) 0.1292(4) -0.01979(14)
O3E O 0.0188(2) 0.1292(4) 0.51979(14)
O4D O -0.0722(3) 0.2317(4) 0.02134(14)
O4E O 0.0722(3) 0.2317(4) 0.47866(14)
O7B O -0.1189(3) 0.2200(5) 0.26413(15)
O7C O 0.1189(3) 0.2200(5) 0.23587(15)
O8B O -0.0986(3) 0.1770(5) 0.20280(16)
O8C O 0.0986(3) 0.1770(5) 0.29720(16)
O10* O 0.0180(3) 0.0002(4) 0.22042(18)
O10A* O -0.0180(3) 0.0002(4) 0.27958(18)
O11A O 0.1068(2) -0.0303(5) 0.47194(14)
O12D O 0.1161(2) 0.0789(5) 0.03776(14)
O12E O -0.1161(2) 0.0789(5) 0.46224(14)
#END
