
#######################################################################
#
#                 Cambridge Crystallographic Data Centre
#                                CCDC
#
#######################################################################
#
# If this CIF has been generated from an entry in the Cambridge
# Structural Database, then it will include bibliographic, chemical,
# crystal, experimental, refinement or atomic coordinate data resulting
# from the CCDC's data processing and validation procedures.
#
#######################################################################

data_CSD_CIF_IXITOA02
_audit_creation_date 2016-10-12
_audit_creation_method CSD-ConQuest-V1
_database_code_CSD IXITOA02
_database_code_depnum_ccdc_archive 'CCDC 1455821'
_chemical_formula_sum 'C62 H50 Cl2 Eu4 N4 O24'
_chemical_formula_moiety
;
(C48 H24 Cl2 Eu4 O24 2-)n,2n(C7 H13 N2 1+)
;
_journal_coden_Cambridge 222
_journal_volume 45
_journal_year 2016
_journal_page_first 17392
_journal_name_full 'Dalton Trans. '
loop_
_publ_author_name
"Hui-Jun Feng"
"Ling Xu"
"Bing Liu"
"Huan Jiao"
_chemical_name_systematic
;
catena-[bis(1-methyl-3-propyl-1H-imidizol-3-ium) 
bis(\m-chloro)-hexakis(\m-terephthalato)-tetra-europium]
;
_cell_volume   3428.961
_exptl_crystal_colour 'colorless'
_exptl_crystal_density_diffrn 1.854
_exptl_crystal_description 'platelet'
_diffrn_ambient_temperature 293
#These two values have been output from a single CSD field.
_refine_ls_R_factor_gt 0.0253
_refine_ls_wR_factor_gt 0.0253
_symmetry_cell_setting monoclinic
_symmetry_space_group_name_H-M 'P 21/c'
_symmetry_Int_Tables_number 14
loop_
_symmetry_equiv_pos_site_id
_symmetry_equiv_pos_as_xyz
1 x,y,z
2 -x,1/2+y,1/2-z
3 -x,-y,-z
4 x,-1/2-y,-1/2+z
_cell_length_a 12.0317(3)
_cell_length_b 19.5150(5)
_cell_length_c 17.2834(4)
_cell_angle_alpha 90
_cell_angle_beta 122.332(2)
_cell_angle_gamma 90
_cell_formula_units_Z 2
loop_
_atom_type_symbol
_atom_type_radius_bond
C 0.68
H 0.23
Cl 0.99
Eu 1.98
N 0.68
O 0.68
loop_
_atom_site_label
_atom_site_type_symbol
_atom_site_fract_x
_atom_site_fract_y
_atom_site_fract_z
Eu1 Eu -0.264560(19) -0.269856(10) 0.556537(13)
Eu2 Eu -0.314462(19) -0.232526(10) 0.765883(13)
Cl1 Cl -0.23555(11) -0.19151(5) 0.42863(6)
O1 O -0.5541(3) -0.68823(17) 0.5745(2)
O2 O -0.5429(3) -0.67292(17) 0.7051(2)
O3 O -0.2879(4) -0.34870(15) 0.7439(2)
O4 O -0.2512(3) -0.37153(15) 0.6338(2)
O5 O -1.0375(3) -0.2490(2) 0.1699(2)
O6 O -1.1376(3) -0.26419(16) 0.2434(2)
O7 O -0.5421(3) -0.2732(2) 0.6570(2)
O8 O -0.4321(3) -0.26067(16) 0.5903(2)
O9 O -0.1644(4) -0.34742(18) 0.5103(2)
O10 O -0.1757(3) -0.34556(17) 0.3783(2)
O11 O -0.3575(3) -0.13175(16) 0.6757(2)
O12 O -0.3001(3) -0.15433(16) 0.5753(2)
C1 C -0.4639(5) -0.5848(2) 0.6540(3)
C2 C -0.4658(6) -0.5366(3) 0.7122(4)
H1 H -0.50510 -0.54710 0.74460
C3 C -0.4098(6) -0.4729(3) 0.7217(4)
H2 H -0.41100 -0.44070 0.76100
C4 C -0.3514(5) -0.4566(2) 0.6735(3)
C5 C -0.3507(5) -0.5044(2) 0.6153(3)
H3 H -0.31210 -0.49360 0.58240
C6 C -0.4066(5) -0.5683(2) 0.6050(3)
H4 H -0.40570 -0.60020 0.56540
C7 C -0.5259(4) -0.6534(2) 0.6438(3)
C8 C -0.2924(5) -0.3870(2) 0.6842(3)
C9 C -0.9047(4) -0.2673(2) 0.3299(3)
C10 C -0.8932(5) -0.3017(3) 0.4035(3)
H5 H -0.96630 -0.32310 0.39780
C11 C -0.7736(5) -0.3045(3) 0.4856(3)
H6 H -0.76650 -0.32780 0.53500
C12 C -0.6646(4) -0.2726(2) 0.4946(3)
C13 C -0.6750(4) -0.2400(3) 0.4204(3)
H7 H -0.60130 -0.21960 0.42580
C14 C -0.7941(4) -0.2373(3) 0.3385(3)
H8 H -0.80040 -0.21540 0.28850
C15 C -1.0345(4) -0.2599(2) 0.2421(3)
C16 C -0.5391(4) -0.2698(2) 0.5864(3)
C17 C -0.0685(5) -0.4384(2) 0.4773(3)
C18 C -0.0502(6) -0.4714(3) 0.4152(4)
H9 H -0.08400 -0.45240 0.35740
C19 C -0.0177(6) -0.4673(3) 0.5630(4)
H10 H -0.02920 -0.44540 0.60610
C20 C -0.1423(4) -0.3721(2) 0.4535(3)
C21 C -0.4284(4) -0.0564(2) 0.5513(3)
C22 C -0.4708(5) -0.0524(2) 0.4600(3)
H11 H -0.45070 -0.08740 0.43300
C23 C -0.4564(5) -0.0037(2) 0.5919(3)
H12 H -0.42670 -0.00590 0.65380
C24 C -0.3542(5) -0.1190(2) 0.6061(3)
N1 N -0.8156(7) -0.1518(3) 0.5659(5)
N2 N -0.8818(5) -0.0997(3) 0.4406(4)
C25 C -0.9177(7) -0.1380(4) 0.4860(7)
H13 H -1.00300 -0.15290 0.46420
C26 C -0.7513(6) -0.0892(4) 0.4966(5)
H14 H -0.69890 -0.06350 0.48280
C27 C -0.7108(7) -0.1214(4) 0.5739(5)
H15 H -0.62520 -0.12270 0.62470
C28 C -0.8111(11) -0.1938(6) 0.6395(7)
H16 H -0.89750 -0.21070 0.61880
H17 H -0.78050 -0.16600 0.69310
H18 H -0.75220 -0.23170 0.65410
C29 C -0.9863(17) 0.0401(9) 0.3793(11)
H19 H -0.97940 0.08650 0.36380
H20 H -0.92250 0.03230 0.44300
H21 H -1.07300 0.03230 0.36710
C30 C -0.9631(14) -0.0042(8) 0.3273(10)
H22 H -0.87740 0.00620 0.33750
H23 H -1.02800 0.00440 0.26320
C31 C -0.9667(11) -0.0764(6) 0.3454(7)
H24 H -0.94340 -0.10220 0.30810
H25 H -1.05670 -0.08820 0.32480
O9B O 0.1644(4) -0.65258(18) 0.4897(2)
O10B O 0.1757(3) -0.65444(17) 0.6217(2)
C17B C 0.0685(5) -0.5616(2) 0.5227(3)
C18B C 0.0502(6) -0.5286(3) 0.5848(4)
H9B H 0.08400 -0.54760 0.64260
C19B C 0.0177(6) -0.5327(3) 0.4370(4)
H10B H 0.02920 -0.55460 0.39390
C20B C 0.1423(4) -0.6279(2) 0.5465(3)
O11B O -0.6425(3) 0.13175(16) 0.3243(2)
O12B O -0.6999(3) 0.15433(16) 0.4247(2)
C21B C -0.5716(4) 0.0564(2) 0.4487(3)
C22B C -0.5292(5) 0.0524(2) 0.5400(3)
H11B H -0.54930 0.08740 0.56700
C23B C -0.5436(5) 0.0037(2) 0.4081(3)
H12B H -0.57330 0.00590 0.34620
C24B C -0.6458(5) 0.1190(2) 0.3939(3)
Eu1B Eu -0.735440(19) -0.730144(10) 0.443463(13)
Eu2B Eu -0.685538(19) -0.767474(10) 0.234117(13)
Cl1B Cl -0.76445(11) -0.80849(5) 0.57137(6)
O1B O -0.4459(3) -0.31177(17) 0.4255(2)
O2B O -0.4571(3) -0.32708(17) 0.2949(2)
O3B O -0.7121(4) -0.65130(15) 0.2561(2)
O4B O -0.7488(3) -0.62847(15) 0.3662(2)
O5B O 0.0375(3) -0.7510(2) 0.8301(2)
O6B O 0.1376(3) -0.73581(16) 0.7566(2)
O7B O -0.4579(3) -0.7268(2) 0.3430(2)
O8B O -0.5679(3) -0.73933(16) 0.4097(2)
C1B C -0.5361(5) -0.4152(2) 0.3460(3)
C2B C -0.5342(6) -0.4634(3) 0.2878(4)
H1B H -0.49490 -0.45290 0.25540
C3B C -0.5902(6) -0.5271(3) 0.2783(4)
H2B H -0.58900 -0.55930 0.23900
C4B C -0.6486(5) -0.5434(2) 0.3265(3)
C5B C -0.6493(5) -0.4956(2) 0.3847(3)
H3B H -0.68790 -0.50640 0.41760
C6B C -0.5934(5) -0.4317(2) 0.3950(3)
H4B H -0.59430 -0.39980 0.43460
C7B C -0.4741(4) -0.3466(2) 0.3562(3)
C8B C -0.7076(5) -0.6130(2) 0.3158(3)
C9B C -0.0953(4) -0.7327(2) 0.6701(3)
C10B C -0.1068(5) -0.6983(3) 0.5965(3)
H5B H -0.03370 -0.67690 0.60220
C11B C -0.2264(5) -0.6955(3) 0.5144(3)
H6B H -0.23350 -0.67220 0.46500
C12B C -0.3354(4) -0.7274(2) 0.5054(3)
C13B C -0.3250(4) -0.7600(3) 0.5796(3)
H7B H -0.39870 -0.78040 0.57420
C14B C -0.2059(4) -0.7627(3) 0.6615(3)
H8B H -0.19960 -0.78460 0.71150
C15B C 0.0345(4) -0.7401(2) 0.7579(3)
C16B C -0.4609(4) -0.7302(2) 0.4136(3)
Eu1A Eu 0.264560(19) -0.769856(10) 0.943463(13)
Eu1B* Eu -0.735440(19) 0.269856(10) 0.443463(13)
Eu1B** Eu 0.264560(19) -0.730144(10) 0.443463(13)
Eu1C Eu -1.264560(19) -0.230144(10) 0.056537(13)
Eu2A Eu -0.685538(19) -0.732526(10) 0.734117(13)
Eu2A* Eu 0.314462(19) -0.732526(10) 0.734117(13)
Eu2B* Eu -0.685538(19) 0.232526(10) 0.234117(13)
Eu2C Eu -1.314462(19) -0.267474(10) 0.265883(13)
Eu2C* Eu -0.314462(19) -0.267474(10) 0.265883(13)
Cl1A Cl -0.76445(11) -0.69151(5) 0.07137(6)
Cl1C Cl -0.23555(11) -0.30849(5) 0.92863(6)
O2A O -0.4571(3) -0.17292(17) 0.7949(2)
O2C O -0.5429(3) -0.82708(17) 0.2051(2)
O5A O -0.9625(3) -0.7490(2) 0.3301(2)
O5C O -0.0375(3) -0.2510(2) 0.6699(2)
O6A O -0.8624(3) -0.76419(16) 0.2566(2)
O6C O -0.1376(3) -0.23581(16) 0.7434(2)
O9B* O -0.8356(4) -0.65258(18) 0.4897(2)
O10A O -0.8243(3) -0.84556(17) 0.1217(2)
O10C O -0.1757(3) -0.15444(17) 0.8783(2)
O11B* O -0.6425(3) -0.86825(16) 0.3243(2)
O12B* O -0.6999(3) -0.84567(16) 0.4247(2)
#END
