
#######################################################################
#
#                 Cambridge Crystallographic Data Centre
#                                CCDC
#
#######################################################################
#
# If this CIF has been generated from an entry in the Cambridge
# Structural Database, then it will include bibliographic, chemical,
# crystal, experimental, refinement or atomic coordinate data resulting
# from the CCDC's data processing and validation procedures.
#
#######################################################################

data_CSD_CIF_IXOGIN
_audit_creation_date 2016-10-12
_audit_creation_method CSD-ConQuest-V1
_database_code_CSD IXOGIN
_database_code_depnum_ccdc_archive 'CCDC 1053009'
_chemical_formula_sum 'C56 H50 Ag2 N8 O40 Si1 W12'
_chemical_formula_moiety
;
2(C14 H13 N2 1+),n(C28 H24 Ag2 N4 O40 Si1 W12 2-)
;
_journal_coden_Cambridge 702
_journal_volume 32
_journal_year 2016
_journal_page_first 1629
_journal_name_full 'Wuji Huaxue Xuebao(Chin.)(Chin.J.Inorg.Chem.) '
loop_
_publ_author_name
"Dan-Dan Ye"
"Lei Wang"
"Xiao-Min Gu"
"Liang Ni"
"Wen-Li Zhang"
_chemical_name_systematic
;
catena-[bis(2,9-dimethyl-1,10-phenanthrolinium) 
(\m-silicato)-octacosakis(\m-oxo)-octa-oxo-bis(2,9-dimethyl-1,10-phenanthrolin
e)-di-silver-dodeca-tungsten]
;
_cell_volume   3687.081
_exptl_crystal_colour 'colorless'
_exptl_crystal_density_diffrn 3.537
_exptl_crystal_description 'block'
_diffrn_ambient_temperature 293
_refine_special_details
;
The Keggin is disordered by symmetry.

;
#These two values have been output from a single CSD field.
_refine_ls_R_factor_gt 0.0589
_refine_ls_wR_factor_gt 0.0589
_symmetry_cell_setting monoclinic
_symmetry_space_group_name_H-M 'P 21/n'
_symmetry_Int_Tables_number 14
loop_
_symmetry_equiv_pos_site_id
_symmetry_equiv_pos_as_xyz
1 x,y,z
2 1/2-x,1/2+y,1/2-z
3 -x,-y,-z
4 -1/2+x,-1/2-y,-1/2+z
_cell_length_a 11.745(2)
_cell_length_b 15.230(3)
_cell_length_c 20.704(4)
_cell_angle_alpha 90
_cell_angle_beta 95.39(3)
_cell_angle_gamma 90
_cell_formula_units_Z 2
loop_
_atom_type_symbol
_atom_type_radius_bond
C 0.68
H 0.23
Ag 1.45
N 0.68
O 0.68
Si 1.20
W 1.62
loop_
_atom_site_label
_atom_site_type_symbol
_atom_site_fract_x
_atom_site_fract_y
_atom_site_fract_z
W1 W 0.10631(6) 0.16581(4) 0.60958(3)
W2 W 0.14795(6) -0.05821(5) 0.65140(3)
W3 W -0.12771(6) 0.03562(5) 0.64552(3)
W4 W 0.04601(6) -0.22306(4) 0.54051(4)
W5 W -0.22988(6) -0.13175(5) 0.53759(3)
W6 W -0.27694(6) 0.08971(5) 0.49397(4)
Si1 Si 0.00000 0.00000 0.50000
Ag1 Ag -0.49308(12) -0.27434(9) 0.51717(7)
O1 O -0.409(1) 0.1333(8) 0.4919(6)
N1 N -0.6014(11) -0.367(1) 0.5751(7)
N2 N -0.5523(12) -0.3838(9) 0.4470(7)
C1 C -0.4558(16) -0.3225(12) 0.3600(9)
H1 H -0.43440 -0.28050 0.39350
H2 H -0.49750 -0.29340 0.32410
H3 H -0.38830 -0.34910 0.34590
C2 C -0.6199(13) -0.4439(11) 0.4726(8)
C3 C -0.7337(15) -0.5821(12) 0.4674(9)
H4 H -0.76430 -0.62920 0.44300
C4 C -0.6451(13) -0.4362(11) 0.5404(8)
C5 C -0.5692(18) -0.2824(14) 0.6748(10)
H5 H -0.53160 -0.24430 0.64650
H6 H -0.51460 -0.30360 0.70860
H7 H -0.62830 -0.25040 0.69360
C6 C -0.6652(15) -0.5179(13) 0.439(1)
C7 C -0.7233(15) -0.4934(14) 0.6354(8)
H8 H -0.76250 -0.53600 0.65660
C8 C -0.6208(14) -0.3583(12) 0.6369(8)
C9 C -0.7528(14) -0.5736(12) 0.5291(9)
H9 H -0.79700 -0.61610 0.54720
C10 C -0.7103(14) -0.5039(12) 0.5690(8)
C11 C -0.5298(15) -0.3921(12) 0.3860(8)
C12 C -0.6397(14) -0.5213(11) 0.3721(8)
H10 H -0.67080 -0.56670 0.34610
C13 C -0.6802(15) -0.4224(12) 0.6695(9)
H11 H -0.68980 -0.41650 0.71330
O2 O -0.3397(11) -0.195(1) 0.5553(6)
O3 O 0.0686(12) -0.3272(8) 0.5584(6)
O4 O -0.1917(13) 0.0515(8) 0.7150(6)
O5 O -0.2196(14) -0.1646(11) 0.4507(8)
O6 O 0.0013(11) -0.0325(10) 0.6763(10)
O7 O -0.2350(17) 0.0929(13) 0.5877(10)
C14 C -0.5728(15) -0.4615(12) 0.3455(8)
H12 H -0.55590 -0.46580 0.30270
O8 O -0.3103(18) -0.0308(14) 0.506(1)
O9 O -0.1155(18) -0.0064(14) 0.5353(10)
O10 O 0.0195(17) 0.0312(13) 0.5754(10)
O11 O 0.2197(11) -0.0856(10) 0.7226(7)
O12 O 0.1575(12) 0.2439(10) 0.6602(8)
O13 O -0.0131(12) -0.2311(13) 0.4516(7)
O14 O 0.1756(12) 0.0636(10) 0.6483(8)
O15 O -0.2648(17) 0.0682(14) 0.4063(10)
O16 O -0.1887(18) 0.1948(14) 0.487(1)
O17 O 0.0920(17) -0.1687(14) 0.6198(10)
O18 O -0.0287(15) 0.1329(12) 0.6448(9)
O19 O -0.0888(17) 0.0744(14) 0.4614(10)
O20 O -0.0601(18) -0.0944(14) 0.4912(11)
O21 O -0.1053(14) -0.2066(12) 0.5626(7)
O22 O -0.1970(17) -0.0718(14) 0.6193(10)
N3 N -0.4511(12) -0.0114(9) 0.7073(7)
C15 C -0.2911(15) -0.2055(11) 0.8702(8)
H13 H -0.28330 -0.22680 0.91250
C16 C -0.2512(15) -0.2180(12) 0.7589(8)
C17 C -0.192(2) -0.2608(12) 0.7033(9)
H14 H -0.21470 -0.23060 0.66350
H15 H -0.21510 -0.32130 0.69920
H16 H -0.11090 -0.25740 0.71270
C18 C -0.5141(14) 0.0587(11) 0.6870(8)
N4 N -0.3154(13) -0.1481(10) 0.7442(7)
H17 H -0.32250 -0.12920 0.70490
C19 C -0.4140(16) -0.0822(11) 0.9019(8)
H18 H -0.40810 -0.09930 0.94520
C20 C -0.4409(14) -0.0310(12) 0.7712(9)
C21 C -0.5683(14) 0.1109(11) 0.7308(8)
H19 H -0.61360 0.15780 0.71520
C22 C -0.5558(15) 0.0939(12) 0.7957(9)
H20 H -0.58860 0.13010 0.82500
C23 C -0.3580(15) -0.1326(11) 0.8556(9)
C24 C -0.5234(15) 0.0747(12) 0.6150(8)
H21 H -0.47980 0.03120 0.59450
H22 H -0.49430 0.13200 0.60650
H23 H -0.60220 0.07100 0.59790
C25 C -0.4755(15) -0.0095(12) 0.8831(9)
H24 H -0.50920 0.02320 0.91410
C26 C -0.2351(14) -0.2479(11) 0.8228(9)
H25 H -0.18750 -0.29560 0.83350
C27 C -0.4893(16) 0.0175(11) 0.8175(9)
C28 C -0.3714(15) -0.1049(11) 0.7909(8)
H26? H -0.41790 -0.04300 0.68020
W1B W -0.10631(6) -0.16581(4) 0.39042(3)
W2B W -0.14795(6) 0.05821(5) 0.34860(3)
W3B W 0.12771(6) -0.03562(5) 0.35448(3)
W4B W -0.04601(6) 0.22306(4) 0.45949(4)
W5B W 0.22988(6) 0.13175(5) 0.46241(3)
W6B W 0.27694(6) -0.08971(5) 0.50603(4)
O1B O 0.409(1) -0.1333(8) 0.5081(6)
O2B O 0.3397(11) 0.195(1) 0.4447(6)
O3B O -0.0686(12) 0.3272(8) 0.4416(6)
O4B O 0.1917(13) -0.0515(8) 0.2850(6)
O5B O 0.2196(14) 0.1646(11) 0.5493(8)
O6B O -0.0013(11) 0.0325(10) 0.3237(10)
O7B O 0.2350(17) -0.0929(13) 0.4123(10)
O8B O 0.3103(18) 0.0308(14) 0.494(1)
O9B O 0.1155(18) 0.0064(14) 0.4647(10)
O10B O -0.0195(17) -0.0312(13) 0.4246(10)
O11B O -0.2197(11) 0.0856(10) 0.2774(7)
O12B O -0.1575(12) -0.2439(10) 0.3398(8)
O13B O 0.0131(12) 0.2311(13) 0.5484(7)
O14B O -0.1756(12) -0.0636(10) 0.3517(8)
O15B O 0.2648(17) -0.0682(14) 0.5937(10)
O16B O 0.1887(18) -0.1948(14) 0.513(1)
O17B O -0.0920(17) 0.1687(14) 0.3802(10)
O18B O 0.0287(15) -0.1329(12) 0.3552(9)
O19B O 0.0888(17) -0.0744(14) 0.5386(10)
O20B O 0.0601(18) 0.0944(14) 0.5088(11)
O21B O 0.1053(14) 0.2066(12) 0.4374(7)
O22B O 0.1970(17) 0.0718(14) 0.3807(10)
Ag1B Ag -0.50692(12) 0.27434(9) 0.48283(7)
N1B N -0.3986(11) 0.367(1) 0.4249(7)
N2B N -0.4477(12) 0.3838(9) 0.5530(7)
C1B C -0.5442(16) 0.3225(12) 0.6400(9)
H1B H -0.56560 0.28050 0.60650
H2B H -0.50250 0.29340 0.67590
H3B H -0.61170 0.34910 0.65410
C2B C -0.3801(13) 0.4439(11) 0.5274(8)
C3B C -0.2663(15) 0.5821(12) 0.5326(9)
H4B H -0.23570 0.62920 0.55700
C4B C -0.3549(13) 0.4362(11) 0.4596(8)
C5B C -0.4308(18) 0.2824(14) 0.3252(10)
H5B H -0.46840 0.24430 0.35350
H6B H -0.48540 0.30360 0.29140
H7B H -0.37170 0.25040 0.30640
C6B C -0.3348(15) 0.5179(13) 0.561(1)
C7B C -0.2767(15) 0.4934(14) 0.3646(8)
H8B H -0.23750 0.53600 0.34340
C8B C -0.3792(14) 0.3583(12) 0.3631(8)
C9B C -0.2472(14) 0.5736(12) 0.4709(9)
H9B H -0.20300 0.61610 0.45280
C10B C -0.2897(14) 0.5039(12) 0.4310(8)
C11B C -0.4702(15) 0.3921(12) 0.6140(8)
C12B C -0.3603(14) 0.5213(11) 0.6279(8)
H10B H -0.32920 0.56670 0.65390
C13B C -0.3198(15) 0.4224(12) 0.3305(9)
H11B H -0.31020 0.41650 0.28670
C14B C -0.4272(15) 0.4615(12) 0.6545(8)
H12B H -0.44410 0.46580 0.69730
Ag1* Ag 0.50692(12) -0.27434(9) 0.51717(7)
Ag1B* Ag 0.49308(12) 0.27434(9) 0.48283(7)
O1B* O -0.591(1) -0.1333(8) 0.5081(6)
O2B* O -0.6603(11) 0.195(1) 0.4447(6)
#END
