
#######################################################################
#
#                 Cambridge Crystallographic Data Centre
#                                CCDC
#
#######################################################################
#
# If this CIF has been generated from an entry in the Cambridge
# Structural Database, then it will include bibliographic, chemical,
# crystal, experimental, refinement or atomic coordinate data resulting
# from the CCDC's data processing and validation procedures.
#
#######################################################################

data_CSD_CIF_IYAJOJ
_audit_creation_date 2016-10-13
_audit_creation_method CSD-ConQuest-V1
_database_code_CSD IYAJOJ
_database_code_depnum_ccdc_archive 'CCDC 1476776'
_chemical_formula_sum 'C54 H54 Cd3 K1 N3 Na2 O27'
_chemical_formula_moiety
;
3(C2 H8 N1 1+),n(C48 H24 Cd3 K1 Na2 O24 3-),3(H2 O1)
;
_journal_coden_Cambridge 1350
_journal_volume 18
_journal_year 2016
_journal_page_first 8301
_journal_name_full 'CrystEngComm '
loop_
_publ_author_name
"Kangcai Wang"
"Tianlin Liu"
"Yuji Liu"
"Xin Tian"
"Jie Sun"
"Qinghua Zhang"
_chemical_name_systematic
;
catena-[tris(Dimethylammonium) 
hexakis(\m-terephthalato)-tri-cadmium-potassium-di-sodium unknown solvate 
hemihydrate]
;
_cell_volume   7951.446
_exptl_crystal_colour 'whiteish colorless'
_exptl_crystal_description 'block'
_diffrn_ambient_temperature 100.2
_refine_special_details
;
Disordered cation and solvent molecules were not modelled and the disordered 
density was taken into account using the SQUEEZE/PLATON procedure.
;
#These two values have been output from a single CSD field.
_refine_ls_R_factor_gt 0.0549
_refine_ls_wR_factor_gt 0.0549
_symmetry_cell_setting monoclinic
_symmetry_space_group_name_H-M 'C 2/c'
_symmetry_Int_Tables_number 15
loop_
_symmetry_equiv_pos_site_id
_symmetry_equiv_pos_as_xyz
1 x,y,z
2 -x,y,1/2-z
3 1/2+x,1/2+y,z
4 1/2-x,1/2+y,1/2-z
5 -x,-y,-z
6 x,-y,-1/2+z
7 -1/2-x,-1/2-y,-z
8 -1/2+x,-1/2-y,-1/2+z
_cell_length_a 18.9895(13)
_cell_length_b 28.481(2)
_cell_length_c 16.9587(18)
_cell_angle_alpha 90
_cell_angle_beta 119.896(2)
_cell_angle_gamma 90
_cell_formula_units_Z 4
loop_
_atom_type_symbol
_atom_type_radius_bond
C 0.68
H 0.23
Cd 1.44
K 2.03
Na 1.66
O 0.68
loop_
_atom_site_label
_atom_site_type_symbol
_atom_site_fract_x
_atom_site_fract_y
_atom_site_fract_z
Cd1 Cd 0.40033(2) 0.630520(15) 0.37225(3)
Cd2 Cd 0.00000 0.63247(2) 0.25000
K1 K 0.50000 0.66301(8) 0.25000
Na1 Na 0.20235(14) 0.60864(11) 0.28182(19)
O1 O 0.4384(3) 0.43126(19) -0.0260(4)
O2 O 0.4059(3) 0.59183(16) 0.2623(3)
O3 O 0.2883(4) 0.5626(2) 0.2320(4)
O4 O 0.2879(3) 0.67119(16) 0.2804(3)
O5 O 0.0340(3) 0.83807(17) -0.0770(3)
O6 O -0.0343(3) 0.81429(18) -0.0111(3)
O7 O 0.3156(3) 0.40475(17) -0.0704(3)
O8 O 0.3684(3) 0.70583(19) 0.2397(4)
O9 O -0.1306(3) 0.66346(16) 0.1764(3)
O10 O -0.0528(4) 0.5754(2) 0.1360(4)
O11 O -0.0500(3) 0.6957(2) 0.1345(4)
C1 C 0.3469(5) 0.5640(3) 0.2210(5)
C2 C -0.1728(4) 0.7575(3) 0.0162(5)
H1 H -0.11930 0.76280 0.02710
C3 C 0.3015(4) 0.6997(2) 0.2333(5)
C4 C 0.3523(4) 0.5301(2) 0.1546(5)
C5 C -0.1861(4) 0.7224(2) 0.0625(4)
C6 C 0.2352(4) 0.7565(3) 0.1023(5)
H2 H 0.28380 0.75660 0.09910
C7 C 0.3731(4) 0.4325(2) -0.0250(4)
C8 C 0.1580(4) 0.7281(3) 0.1680(5)
H3 H 0.15290 0.70840 0.21000
C9 C 0.0278(4) 0.8135(2) -0.0187(5)
C10 C 0.0988(4) 0.7835(2) 0.0450(4)
O12 O 0.0734(4) 0.5898(2) 0.1772(4)
C11 C 0.1699(4) 0.7835(3) 0.0425(5)
H4 H 0.17430 0.80240 -0.00100
C12 C 0.2946(5) 0.4962(3) 0.1115(5)
H5 H 0.25000 0.49400 0.12200
C13 C -0.2650(4) 0.7150(3) 0.0456(5)
H6 H -0.27550 0.69090 0.07690
C14 C 0.4204(5) 0.5023(3) 0.0762(5)
H7 H 0.46390 0.50500 0.06390
C15 C 0.4146(5) 0.5340(3) 0.1363(5)
H8 H 0.45390 0.55810 0.16420
C16 C 0.2301(4) 0.7292(2) 0.1667(5)
C17 C 0.3635(4) 0.4675(2) 0.0353(5)
C18 C -0.1181(4) 0.6919(2) 0.1291(5)
C19 C 0.0933(4) 0.7556(3) 0.1084(5)
H9 H 0.04450 0.75530 0.11090
C20 C 0.3006(5) 0.4651(3) 0.0530(6)
H10 H 0.26040 0.44140 0.02440
C21 C 0.0052(5) 0.5328(3) 0.0628(5)
C22 C -0.0661(5) 0.5071(3) 0.0113(5)
H11 H -0.11150 0.51200 0.01940
C23 C 0.0704(5) 0.5248(3) 0.0503(6)
H12 H 0.11930 0.54200 0.08540
C24 C 0.0096(5) 0.5686(3) 0.1304(6)
O13 O 0.00000 0.8562(6) 0.25000
O14 O -0.1089(18) 0.6595(10) -0.1286(15)
O15 O 0.173(2) 0.4960(12) 0.318(2)
O9F O -0.3694(3) 0.83654(16) -0.1764(3)
O11F O -0.4500(3) 0.8043(2) -0.1345(4)
C2F C -0.3272(4) 0.7425(3) -0.0162(5)
H1F H -0.38070 0.73720 -0.02710
C5F C -0.3139(4) 0.7776(2) -0.0625(4)
C13F C -0.2350(4) 0.7850(3) -0.0456(5)
H6F H -0.22450 0.80910 -0.07690
C18F C -0.3819(4) 0.8081(2) -0.1291(5)
O10D O 0.0528(4) 0.4246(2) -0.1360(4)
O12D O -0.0734(4) 0.4102(2) -0.1772(4)
C21D C -0.0052(5) 0.4672(3) -0.0628(5)
C22D C 0.0661(5) 0.4929(3) -0.0113(5)
H11D H 0.11150 0.48800 -0.01940
C23D C -0.0704(5) 0.4752(3) -0.0503(6)
H12D H -0.11930 0.45800 -0.08540
C24D C -0.0096(5) 0.4314(3) -0.1304(6)
Cd1A Cd -0.40033(2) 0.630520(15) 0.12775(3)
Na1A Na -0.20235(14) 0.60864(11) 0.21818(19)
O1A O -0.4384(3) 0.43126(19) 0.5260(4)
O2A O -0.4059(3) 0.59183(16) 0.2377(3)
O3A O -0.2883(4) 0.5626(2) 0.2680(4)
O4A O -0.2879(3) 0.67119(16) 0.2196(3)
O5A O -0.0340(3) 0.83807(17) 0.5770(3)
O6A O 0.0343(3) 0.81429(18) 0.5111(3)
O7A O -0.3156(3) 0.40475(17) 0.5704(3)
O8A O -0.3684(3) 0.70583(19) 0.2603(4)
C1A C -0.3469(5) 0.5640(3) 0.2790(5)
C3A C -0.3015(4) 0.6997(2) 0.2667(5)
C4A C -0.3523(4) 0.5301(2) 0.3454(5)
C6A C -0.2352(4) 0.7565(3) 0.3977(5)
H2A H -0.28380 0.75660 0.40090
C7A C -0.3731(4) 0.4325(2) 0.5250(4)
C8A C -0.1580(4) 0.7281(3) 0.3320(5)
H3A H -0.15290 0.70840 0.29000
C9A C -0.0278(4) 0.8135(2) 0.5187(5)
C10A C -0.0988(4) 0.7835(2) 0.4550(4)
C11A C -0.1699(4) 0.7835(3) 0.4575(5)
H4A H -0.17430 0.80240 0.50100
C12A C -0.2946(5) 0.4962(3) 0.3885(5)
H5A H -0.25000 0.49400 0.37800
C14A C -0.4204(5) 0.5023(3) 0.4238(5)
H7A H -0.46390 0.50500 0.43610
C15A C -0.4146(5) 0.5340(3) 0.3637(5)
H8A H -0.45390 0.55810 0.33580
C16A C -0.2301(4) 0.7292(2) 0.3333(5)
C17A C -0.3635(4) 0.4675(2) 0.4647(5)
C19A C -0.0933(4) 0.7556(3) 0.3916(5)
H9A H -0.04450 0.75530 0.38910
C20A C -0.3006(5) 0.4651(3) 0.4470(6)
H10A H -0.26040 0.44140 0.47560
Cd1D Cd -0.40033(2) 0.369480(15) 0.62775(3)
Cd1E Cd 0.40033(2) 0.369480(15) -0.12775(3)
Cd1F Cd 0.09967(2) 0.869480(15) 0.62775(3)
Cd1G Cd -0.09967(2) 0.869480(15) -0.12775(3)
Cd2D Cd 0.00000 0.36753(2) -0.25000
Cd2F Cd -0.50000 0.86753(2) -0.25000
K1* K -0.50000 0.66301(8) 0.25000
K1F K 0.00000 0.83699(8) -0.25000
K1F* K 0.00000 0.83699(8) 0.75000
Na1D Na -0.20235(14) 0.39136(11) -0.28182(19)
Na1D* Na -0.20235(14) 0.39136(11) 0.71818(19)
Na1E Na 0.20235(14) 0.39136(11) -0.21818(19)
Na1G Na -0.29765(14) 0.89136(11) -0.21818(19)
O1D O -0.4384(3) 0.56874(19) 0.0260(4)
O1E O 0.4384(3) 0.56874(19) 0.4740(4)
O2A* O 0.5941(3) 0.59183(16) 0.2377(3)
O5F O -0.5340(3) 0.66193(17) 0.0770(3)
O5F* O 0.4660(3) 0.66193(17) 0.0770(3)
O5G O 0.5340(3) 0.66193(17) 0.4230(3)
O6F O -0.4657(3) 0.68571(18) 0.0111(3)
O6G O 0.4657(3) 0.68571(18) 0.4889(3)
O7D O -0.3156(3) 0.59525(17) 0.0704(3)
O7E O 0.3156(3) 0.59525(17) 0.4296(3)
O8A* O 0.6316(3) 0.70583(19) 0.2603(4)
O9A O 0.1306(3) 0.66346(16) 0.3236(3)
O10A O 0.0528(4) 0.5754(2) 0.3640(4)
O11A O 0.0500(3) 0.6957(2) 0.3655(4)
O12A O -0.0734(4) 0.5898(2) 0.3228(4)
#END
