
#######################################################################
#
#                 Cambridge Crystallographic Data Centre
#                                CCDC
#
#######################################################################
#
# If this CIF has been generated from an entry in the Cambridge
# Structural Database, then it will include bibliographic, chemical,
# crystal, experimental, refinement or atomic coordinate data resulting
# from the CCDC's data processing and validation procedures.
#
#######################################################################

data_CSD_CIF_IYAJUP
_audit_creation_date 2016-10-13
_audit_creation_method CSD-ConQuest-V1
_database_code_CSD IYAJUP
_database_code_depnum_ccdc_archive 'CCDC 1476777'
_chemical_formula_sum 'C65 H78 Cd3 K3 N5 O29'
_chemical_formula_moiety
;
3(C2 H8 N1 1+),n(C48 H24 Cd3 K3 O24 3-),3(C1 H4 O1),2(C4 H9 N1 O1)
;
_journal_coden_Cambridge 1350
_journal_volume 18
_journal_year 2016
_journal_page_first 8301
_journal_name_full 'CrystEngComm '
loop_
_publ_author_name
"Kangcai Wang"
"Tianlin Liu"
"Yuji Liu"
"Xin Tian"
"Jie Sun"
"Qinghua Zhang"
_chemical_name_systematic
;
catena-[tris(Dimethylammonium) 
hexakis(\m-terephthalato)-tri-cadmium-tri-potassium methanol 
N,N-dimethylacetamide]
;
_cell_volume   7906.055
_exptl_crystal_colour 'whiteish colorless'
_exptl_crystal_description 'needle'
_diffrn_ambient_temperature 296.1
_refine_special_details
;
The structure is disordered.

;
#These two values have been output from a single CSD field.
_refine_ls_R_factor_gt 0.0697
_refine_ls_wR_factor_gt 0.0697
_symmetry_cell_setting monoclinic
_symmetry_space_group_name_H-M 'C 2/c'
_symmetry_Int_Tables_number 15
loop_
_symmetry_equiv_pos_site_id
_symmetry_equiv_pos_as_xyz
1 x,y,z
2 -x,y,1/2-z
3 1/2+x,1/2+y,z
4 1/2-x,1/2+y,1/2-z
5 -x,-y,-z
6 x,-y,-1/2+z
7 -1/2-x,-1/2-y,-z
8 -1/2+x,-1/2-y,-1/2+z
_cell_length_a 19.2145(17)
_cell_length_b 26.4088(17)
_cell_length_c 17.7174(12)
_cell_angle_alpha 90
_cell_angle_beta 118.431(2)
_cell_angle_gamma 90
_cell_formula_units_Z 4
loop_
_atom_type_symbol
_atom_type_radius_bond
C 0.68
H 0.23
Cd 1.44
K 2.03
N 0.68
O 0.68
loop_
_atom_site_label
_atom_site_type_symbol
_atom_site_fract_x
_atom_site_fract_y
_atom_site_fract_z
Cd1 Cd 0.89816(2) 0.63320(2) 0.86642(2)
Cd2 Cd 0.50000 0.36350(3) 0.25000
K1 K 0.50000 0.83051(8) 0.25000
K2 K 0.69525(10) 0.40755(8) 0.28858(12)
O1 O 0.9048(2) 0.59087(16) 0.7592(3)
O2 O 0.7842(3) 0.67092(17) 0.7759(3)
O3 O 0.8244(3) 0.40123(17) 0.4305(3)
O4 O 0.9424(3) 0.43331(19) 0.4679(3)
O5 O 0.5316(2) 0.83511(17) 0.4142(3)
O6 O 0.8637(3) 0.7102(2) 0.7359(3)
O7 O 0.6267(3) 0.33175(19) 0.3181(3)
O8 O 0.4613(2) 0.80777(19) 0.4740(3)
O9 O 0.5491(3) 0.2960(2) 0.3612(4)
O10 O 0.8022(3) 0.5480(2) 0.7481(4)
C1 C 0.8544(4) 0.5578(3) 0.7272(4)
C2 C 0.7968(3) 0.7019(3) 0.7281(4)
C3 C 0.8805(4) 0.4314(2) 0.4745(4)
C4 C 0.8253(4) 0.2615(3) 0.5147(4)
H1 H 0.87610 0.26940 0.52470
C5 C 0.6851(4) 0.2746(2) 0.4349(4)
C6 C 0.5872(4) 0.7503(3) 0.5946(4)
H2 H 0.53840 0.74740 0.59320
C7 C 0.9199(4) 0.5334(3) 0.6393(4)
H3 H 0.95830 0.55810 0.66650
C8 C 0.5949(3) 0.7798(2) 0.5348(4)
C9 C 0.6529(3) 0.7247(3) 0.6573(4)
H4 H 0.64780 0.70540 0.69820
C10 C 0.8613(4) 0.5292(3) 0.6632(4)
C11 C 0.6683(4) 0.7829(3) 0.5356(4)
H5 H 0.67340 0.80220 0.49450
C12 C 0.9259(4) 0.5037(2) 0.5780(4)
H6 H 0.96690 0.50910 0.56510
C13 C 0.7329(4) 0.7572(3) 0.5976(4)
H7 H 0.78150 0.75950 0.59830
C14 C 0.7261(3) 0.7279(2) 0.6591(4)
C15 C 0.8705(4) 0.4660(2) 0.5360(4)
C16 C 0.8082(4) 0.4596(3) 0.5539(4)
H8 H 0.77000 0.43510 0.52470
C17 C 0.5253(3) 0.8094(2) 0.4700(4)
O11 O 0.4542(4) 0.4089(3) 0.3268(4)
C18 C 0.6157(4) 0.3022(3) 0.3672(4)
C19 C 0.7608(4) 0.2859(3) 0.4496(4)
H9 H 0.76840 0.30980 0.41570
C20 C 0.8022(4) 0.4894(3) 0.6146(5)
H10 H 0.75990 0.48430 0.62550
C21 C 0.5606(6) 0.5309(4) 0.5526(6)
H11 H 0.60280 0.55160 0.58800
C22 C 0.5052(6) 0.4688(3) 0.4394(5)
C23 C 0.5152(7) 0.4346(3) 0.3744(6)
C24 C 0.5673(6) 0.4999(4) 0.4917(6)
H12 H 0.61340 0.50040 0.48670
O12 O 0.5761(6) 0.4314(4) 0.3741(6)
O13 O 1.00000 0.3558(4) 0.75000
C25 C 1.00000 0.4104(5) 0.75000
N1 N 0.3680(7) 0.6522(4) 0.3674(7)
H13 H 0.35360 0.66360 0.31670
C26 C 0.4318(11) 0.6833(7) 0.4337(13)
H14 H 0.43710 0.71420 0.40830
H15 H 0.48080 0.66490 0.45720
H16 H 0.41900 0.69110 0.47860
C27 C 0.3831(12) 0.6003(5) 0.3721(15)
H17 H 0.35680 0.58600 0.31540
H18 H 0.36400 0.58450 0.40730
H19 H 0.43910 0.59480 0.39660
O14 O 0.8051(9) 0.4389(5) 0.7864(7)
H20 H 0.81740 0.46140 0.76310
C28 C 0.8700(12) 0.4290(9) 0.8698(10)
H21 H 0.91020 0.41040 0.86420
H22 H 0.85170 0.40960 0.90270
H23 H 0.89150 0.46050 0.89850
C29 C 0.568(3) 0.6115(17) 0.371(3)
O15 O 0.638(2) 0.5322(13) 0.328(2)
C30 C 0.683(3) 0.6339(15) 0.496(3)
C31 C 0.745(3) 0.5880(18) 0.454(3)
N2 N 0.662(2) 0.6049(17) 0.417(3)
C32 C 0.610(3) 0.5680(16) 0.350(3)
H24? H 1.04680 0.42250 0.74920
H25? H 0.99920 0.42250 0.80070
H26? H 0.95400 0.42250 0.70010
O7F O 0.8733(3) 0.16825(19) 0.6819(3)
O9F O 0.9509(3) 0.2040(2) 0.6388(4)
C4F C 0.6747(4) 0.2385(3) 0.4853(4)
H1F H 0.62390 0.23060 0.47530
C5F C 0.8149(4) 0.2254(2) 0.5651(4)
C18F C 0.8843(4) 0.1978(3) 0.6328(4)
C19F C 0.7392(4) 0.2141(3) 0.5504(4)
H9F H 0.73160 0.19020 0.58430
O11D O 0.5458(4) 0.5911(3) 0.6732(4)
C21D C 0.4394(6) 0.4691(4) 0.4474(6)
H11D H 0.39720 0.44840 0.41200
C22D C 0.4948(6) 0.5312(3) 0.5606(5)
C23D C 0.4848(7) 0.5654(3) 0.6256(6)
C24D C 0.4327(6) 0.5001(4) 0.5083(6)
H12D H 0.38660 0.49960 0.51330
O12D O 0.4239(6) 0.5686(4) 0.6259(6)
Cd1A Cd 0.10184(2) 0.63320(2) -0.36642(2)
K2A K 0.30475(10) 0.40755(8) 0.21142(12)
O1A O 0.0952(2) 0.59087(16) -0.2592(3)
O2A O 0.2158(3) 0.67092(17) -0.2759(3)
O3A O 0.1756(3) 0.40123(17) 0.0695(3)
O4A O 0.0576(3) 0.43331(19) 0.0321(3)
O5A O 0.4684(2) 0.83511(17) 0.0858(3)
O6A O 0.1363(3) 0.7102(2) -0.2359(3)
O8A O 0.5387(2) 0.80777(19) 0.0260(3)
O10A O 0.1978(3) 0.5480(2) -0.2481(4)
C1A C 0.1456(4) 0.5578(3) -0.2272(4)
C2A C 0.2032(3) 0.7019(3) -0.2281(4)
C3A C 0.1195(4) 0.4314(2) 0.0255(4)
C6A C 0.4128(4) 0.7503(3) -0.0946(4)
H2A H 0.46160 0.74740 -0.09320
C7A C 0.0801(4) 0.5334(3) -0.1393(4)
H3A H 0.04170 0.55810 -0.16650
C8A C 0.4051(3) 0.7798(2) -0.0348(4)
C9A C 0.3471(3) 0.7247(3) -0.1573(4)
H4A H 0.35220 0.70540 -0.19820
C10A C 0.1387(4) 0.5292(3) -0.1632(4)
C11A C 0.3317(4) 0.7829(3) -0.0356(4)
H5A H 0.32660 0.80220 0.00550
C12A C 0.0741(4) 0.5037(2) -0.0780(4)
H6A H 0.03310 0.50910 -0.06510
C13A C 0.2671(4) 0.7572(3) -0.0976(4)
H7A H 0.21850 0.75950 -0.09830
C14A C 0.2739(3) 0.7279(2) -0.1591(4)
C15A C 0.1295(4) 0.4660(2) -0.0360(4)
C16A C 0.1918(4) 0.4596(3) -0.0539(4)
H8A H 0.23000 0.43510 -0.02470
C17A C 0.4747(3) 0.8094(2) 0.0300(4)
C20A C 0.1978(4) 0.4894(3) -0.1146(5)
H10A H 0.24010 0.48430 -0.12550
Cd1D Cd 0.10184(2) 0.36680(2) 0.13358(2)
Cd1E Cd 0.89816(2) 0.36680(2) 0.36642(2)
Cd1F Cd 0.60184(2) 0.86680(2) 0.13358(2)
Cd1G Cd 0.39816(2) 0.86680(2) 0.36642(2)
Cd2D Cd 0.50000 0.63650(3) 0.75000
Cd2F Cd 1.00000 0.13650(3) 0.75000
K1F K 0.00000 0.66949(8) -0.25000
K1F* K 1.00000 0.66949(8) 0.75000
K2D K 0.30475(10) 0.59245(8) -0.28858(12)
K2D* K 0.30475(10) 0.59245(8) 0.71142(12)
K2E K 0.69525(10) 0.59245(8) 0.78858(12)
K2F K 0.80475(10) 0.09245(8) 0.71142(12)
O1F O 0.5952(2) 0.90913(16) 0.2408(3)
O1G O 0.4048(2) 0.90913(16) 0.2592(3)
O2D O 0.2158(3) 0.32908(17) 0.2241(3)
O2E O 0.7842(3) 0.32908(17) 0.2759(3)
O3D O 0.1756(3) 0.59877(17) -0.4305(3)
O3E O 0.8244(3) 0.59877(17) 0.9305(3)
O4D O 0.0576(3) 0.56669(19) -0.4679(3)
O4E O 0.9424(3) 0.56669(19) 0.9679(3)
O5F O -0.0316(2) 0.66489(17) -0.4142(3)
O5G O 1.0316(2) 0.66489(17) 0.9142(3)
O6F O 0.6363(3) 0.7898(2) 0.2641(3)
O6G O 0.3637(3) 0.7898(2) 0.2359(3)
O7A O 0.3733(3) 0.33175(19) 0.1819(3)
O8F O 0.0387(2) 0.69223(19) -0.4740(3)
O8G O 0.9613(2) 0.69223(19) 0.9740(3)
O9A O 0.4509(3) 0.2960(2) 0.1388(4)
O10D O 0.1978(3) 0.4520(2) 0.2519(4)
O10E O 0.8022(3) 0.4520(2) 0.2481(4)
O11A O 0.5458(4) 0.4089(3) 0.1732(4)
O12A O 0.4239(6) 0.4314(4) 0.1259(6)
#END
