
#######################################################################
#
#                 Cambridge Crystallographic Data Centre
#                                CCDC
#
#######################################################################
#
# If this CIF has been generated from an entry in the Cambridge
# Structural Database, then it will include bibliographic, chemical,
# crystal, experimental, refinement or atomic coordinate data resulting
# from the CCDC's data processing and validation procedures.
#
#######################################################################

data_CSD_CIF_IYAJID
_audit_creation_date 2016-10-13
_audit_creation_method CSD-ConQuest-V1
_database_code_CSD IYAJID
_database_code_depnum_ccdc_archive 'CCDC 1476775'
_chemical_formula_sum 'C58 H58 Cd3 N4 Na3 O25.5'
_chemical_formula_moiety
;
3(C2 H8 N1 1+),n(C48 H24 Cd3 Na3 O24 3-),C4 H9 N1 O1,0.5(H2 O1)
;
_journal_coden_Cambridge 1350
_journal_volume 18
_journal_year 2016
_journal_page_first 8301
_journal_name_full 'CrystEngComm '
loop_
_publ_author_name
"Kangcai Wang"
"Tianlin Liu"
"Yuji Liu"
"Xin Tian"
"Jie Sun"
"Qinghua Zhang"
_chemical_name_systematic
;
catena-[tris(Dimethylammonium) 
hexakis(\m-terephthalato)-tri-cadmium-tri-sodium N,N-dimethylacetamide 
unknown solvate hemihydrate]
;
_cell_volume   7746.694
_exptl_crystal_colour 'whiteish colorless'
_exptl_crystal_description 'block'
_diffrn_ambient_temperature 296.1
_refine_special_details
;
Disordered cation and solvent molecules were not modelled and the disordered 
density was taken into account using the SQUEEZE/PLATON procedure.
;
#These two values have been output from a single CSD field.
_refine_ls_R_factor_gt 0.0406
_refine_ls_wR_factor_gt 0.0406
_symmetry_cell_setting monoclinic
_symmetry_space_group_name_H-M 'C 2/c'
_symmetry_Int_Tables_number 15
loop_
_symmetry_equiv_pos_site_id
_symmetry_equiv_pos_as_xyz
1 x,y,z
2 -x,y,1/2-z
3 1/2+x,1/2+y,z
4 1/2-x,1/2+y,1/2-z
5 -x,-y,-z
6 x,-y,-1/2+z
7 -1/2-x,-1/2-y,-z
8 -1/2+x,-1/2-y,-1/2+z
_cell_length_a 18.4148(9)
_cell_length_b 29.5574(15)
_cell_length_c 16.3155(8)
_cell_angle_alpha 90
_cell_angle_beta 119.269(1)
_cell_angle_gamma 90
_cell_formula_units_Z 4
loop_
_atom_type_symbol
_atom_type_radius_bond
C 0.68
H 0.23
Cd 1.44
N 0.68
Na 1.66
O 0.68
loop_
_atom_site_label
_atom_site_type_symbol
_atom_site_fract_x
_atom_site_fract_y
_atom_site_fract_z
Cd1 Cd 0.095611(17) 0.630631(10) 0.13057(2)
Cd2 Cd 0.50000 0.632537(14) 0.25000
O1 O 0.09089(19) 0.59639(10) 0.2496(2)
O2 O 0.0609(2) 0.43044(12) 0.5327(3)
O3 O -0.04112(19) 0.66197(11) 0.0841(2)
O4 O -0.29411(19) 0.82704(11) -0.2785(2)
O5 O 0.36700(18) 0.66394(11) 0.1769(2)
O6 O 0.5561(2) 0.57734(15) 0.3656(3)
O7 O 0.2137(2) 0.57013(13) 0.2782(3)
O8 O 0.1863(2) 0.40501(11) 0.5733(2)
O9 O -0.3799(2) 0.79523(12) -0.2361(3)
O10 O 0.4519(2) 0.69354(15) 0.1334(3)
O11 O 0.0259(2) 0.68179(13) 0.0095(2)
C1 C 0.2096(3) 0.5032(2) 0.3989(4)
H1 H 0.25550 0.50360 0.38950
O12 O 0.4272(2) 0.59182(13) 0.3274(3)
C2 C 0.3303(3) 0.75673(18) 0.0169(4)
H2 H 0.38440 0.76140 0.02840
C3 C -0.2484(3) 0.73994(17) -0.1047(3)
H3 H -0.29830 0.73920 -0.10330
C4 C 0.2040(3) 0.47028(19) 0.4566(4)
H4 H 0.24610 0.44890 0.48560
C5 C -0.1828(3) 0.71284(17) -0.0437(3)
H5 H -0.18890 0.69410 -0.00160
C6 C -0.3107(3) 0.79872(15) -0.2319(3)
C7 C -0.1083(3) 0.71338(16) -0.0449(3)
C8 C 0.0750(3) 0.50120(17) 0.4281(4)
H6 H 0.02920 0.50060 0.43760
C9 C 0.4309(3) 0.52751(19) 0.4571(4)
H7 H 0.38430 0.54610 0.42860
C10 C 0.1478(3) 0.53542(16) 0.3554(3)
C11 C 0.1364(3) 0.46928(16) 0.4708(3)
C12 C 0.1524(3) 0.56989(16) 0.2907(3)
C13 C 0.4959(3) 0.53374(18) 0.4387(4)
C14 C -0.1009(3) 0.74086(19) -0.1077(4)
H8 H -0.05110 0.74120 -0.10940
C15 C 0.2325(3) 0.71572(18) 0.0451(4)
H9 H 0.22080 0.69270 0.07570
C16 C 0.3140(3) 0.72205(17) 0.0626(3)
C17 C 0.5651(3) 0.5059(2) 0.4827(4)
H10 H 0.60940 0.50990 0.47120
C18 C -0.2406(3) 0.76793(16) -0.1672(3)
C19 C -0.1657(3) 0.76811(18) -0.1686(4)
H11 H -0.15930 0.78670 -0.21070
C20 C 0.3824(3) 0.69154(17) 0.1287(3)
C21 C 0.0803(3) 0.53405(17) 0.3715(4)
H12 H 0.03830 0.55550 0.34370
C22 C -0.0367(3) 0.68374(15) 0.0211(3)
C23 C 0.1281(3) 0.43241(16) 0.5305(3)
C24 C 0.4922(3) 0.57014(18) 0.3725(4)
Na1 Na 0.29578(10) 0.61398(6) 0.22518(13)
Na2 Na 0.00000 0.65814(9) 0.25000
O13 O 0.00000 0.6402(5) -0.25000
O14 O 0.3366(11) 0.5750(5) 0.6265(10)
N1 N 0.2296(14) 0.5608(5) 0.6456(10)
C25 C 0.3031(18) 0.5510(6) 0.6616(14)
C26 C 0.3244(16) 0.5067(6) 0.7052(13)
H13 H 0.29390 0.48400 0.65890
H14 H 0.30970 0.50550 0.75410
H15 H 0.38300 0.50130 0.73160
C27 C 0.1900(14) 0.5978(6) 0.5977(13)
H16 H 0.18210 0.61820 0.63840
H17 H 0.13680 0.58940 0.54620
H18 H 0.22250 0.61240 0.57400
C28 C 0.1934(13) 0.5325(7) 0.6836(14)
H19 H 0.16010 0.51010 0.63810
H20 H 0.15880 0.55010 0.70050
H21 H 0.23620 0.51790 0.73860
O5F O 0.13300(18) 0.83606(11) -0.1769(2)
O10F O 0.0481(2) 0.80646(15) -0.1334(3)
C2F C 0.1697(3) 0.74327(18) -0.0169(4)
H2F H 0.11560 0.73860 -0.02840
C15F C 0.2675(3) 0.78428(18) -0.0451(4)
H9F H 0.27920 0.80730 -0.07570
C16F C 0.1860(3) 0.77795(17) -0.0626(3)
C20F C 0.1176(3) 0.80846(17) -0.1287(3)
O6D O 0.4439(2) 0.42266(15) 0.6344(3)
O12D O 0.5728(2) 0.40818(13) 0.6726(3)
C9D C 0.5691(3) 0.47249(19) 0.5429(4)
H7D H 0.61570 0.45390 0.57140
C13D C 0.5041(3) 0.46626(18) 0.5613(4)
C17D C 0.4349(3) 0.4941(2) 0.5173(4)
H10D H 0.39060 0.49010 0.52880
C24D C 0.5078(3) 0.42986(18) 0.6275(4)
Cd1A Cd -0.095611(17) 0.630631(10) 0.36943(2)
O1A O -0.09089(19) 0.59639(10) 0.2504(2)
O2A O -0.0609(2) 0.43044(12) -0.0327(3)
O3A O 0.04112(19) 0.66197(11) 0.4159(2)
O4A O 0.29411(19) 0.82704(11) 0.7785(2)
O7A O -0.2137(2) 0.57013(13) 0.2218(3)
O8A O -0.1863(2) 0.40501(11) -0.0733(2)
O9A O 0.3799(2) 0.79523(12) 0.7361(3)
O11A O -0.0259(2) 0.68179(13) 0.4905(2)
C1A C -0.2096(3) 0.5032(2) 0.1011(4)
H1A H -0.25550 0.50360 0.11050
C3A C 0.2484(3) 0.73994(17) 0.6047(3)
H3A H 0.29830 0.73920 0.60330
C4A C -0.2040(3) 0.47028(19) 0.0434(4)
H4A H -0.24610 0.44890 0.01440
C5A C 0.1828(3) 0.71284(17) 0.5437(3)
H5A H 0.18890 0.69410 0.50160
C6A C 0.3107(3) 0.79872(15) 0.7319(3)
C7A C 0.1083(3) 0.71338(16) 0.5449(3)
C8A C -0.0750(3) 0.50120(17) 0.0719(4)
H6A H -0.02920 0.50060 0.06240
C10A C -0.1478(3) 0.53542(16) 0.1446(3)
C11A C -0.1364(3) 0.46928(16) 0.0292(3)
C12A C -0.1524(3) 0.56989(16) 0.2093(3)
C14A C 0.1009(3) 0.74086(19) 0.6077(4)
H8A H 0.05110 0.74120 0.60940
C18A C 0.2406(3) 0.76793(16) 0.6672(3)
C19A C 0.1657(3) 0.76811(18) 0.6686(4)
H11A H 0.15930 0.78670 0.71070
C21A C -0.0803(3) 0.53405(17) 0.1285(4)
H12A H -0.03830 0.55550 0.15630
C22A C 0.0367(3) 0.68374(15) 0.4789(3)
C23A C -0.1281(3) 0.43241(16) -0.0305(3)
Na1A Na -0.29578(10) 0.61398(6) 0.27482(13)
Cd1D Cd -0.095611(17) 0.369369(10) -0.13057(2)
Cd1E Cd 0.095611(17) 0.369369(10) 0.63057(2)
Cd1F Cd 0.404389(17) 0.869369(10) 0.86943(2)
Cd1G Cd -0.404389(17) 0.869369(10) -0.36943(2)
Cd2D Cd 0.50000 0.367463(14) 0.75000
Cd2F Cd 0.00000 0.867463(14) -0.25000
O2D O -0.0609(2) 0.56956(12) 0.4673(3)
O2E O 0.0609(2) 0.56956(12) 0.0327(3)
O4F O -0.20589(19) 0.67296(11) 0.2785(2)
O4G O 0.20589(19) 0.67296(11) 0.2215(2)
O5A O -0.36700(18) 0.66394(11) 0.3231(2)
O5A* O 0.63300(18) 0.66394(11) 0.3231(2)
O6A O 0.4439(2) 0.57734(15) 0.1344(3)
O8D O -0.1863(2) 0.59499(11) 0.4267(2)
O8E O 0.1863(2) 0.59499(11) 0.0733(2)
O9F O -0.1201(2) 0.70477(12) 0.2361(3)
O9G O 0.1201(2) 0.70477(12) 0.2639(3)
O10A O 0.5481(2) 0.69354(15) 0.3666(3)
O12A O -0.4272(2) 0.59182(13) 0.1726(3)
O12A* O 0.5728(2) 0.59182(13) 0.1726(3)
Na1D Na -0.29578(10) 0.38602(6) -0.22518(13)
Na1D* Na 0.70422(10) 0.38602(6) 0.77482(13)
Na1E Na 0.29578(10) 0.38602(6) 0.72518(13)
Na1F Na 0.20422(10) 0.88602(6) -0.22518(13)
Na1F* Na 0.20422(10) 0.88602(6) 0.77482(13)
Na1G Na -0.20422(10) 0.88602(6) -0.27482(13)
Na2F Na -0.50000 0.84186(9) -0.25000
Na2F* Na 0.50000 0.84186(9) 0.75000
#END
