
#######################################################################
#
#                 Cambridge Crystallographic Data Centre
#                                CCDC
#
#######################################################################
#
# If this CIF has been generated from an entry in the Cambridge
# Structural Database, then it will include bibliographic, chemical,
# crystal, experimental, refinement or atomic coordinate data resulting
# from the CCDC's data processing and validation procedures.
#
#######################################################################

data_CSD_CIF_IYAKIE
_audit_creation_date 2016-10-13
_audit_creation_method CSD-ConQuest-V1
_database_code_CSD IYAKIE
_database_code_depnum_ccdc_archive 'CCDC 1476779'
_chemical_formula_sum 'C76 H77 Ca2 Cd4 N5 O35'
_chemical_formula_moiety
;
4(C2 H8 N1 1+),n(C68 H41 Ca2 Cd4 N1 O33 4-),2(H2 O1)
;
_journal_coden_Cambridge 1350
_journal_volume 18
_journal_year 2016
_journal_page_first 8301
_journal_name_full 'CrystEngComm '
loop_
_publ_author_name
"Kangcai Wang"
"Tianlin Liu"
"Yuji Liu"
"Xin Tian"
"Jie Sun"
"Qinghua Zhang"
_chemical_name_systematic
;
catena-[tetrakis(Dimethylammonium) 
octakis(\m-terephthalato)-(N,N-dimethylacetamide)-tetra-cadmium-di-calcium 
unknown solvate dihydrate]
;
_cell_volume  13085.052
_exptl_crystal_colour 'colorless'
_exptl_crystal_density_diffrn 1.086
_exptl_crystal_description 'block'
_diffrn_ambient_temperature 296
_refine_special_details
;
The SQUEEZE/PLATON program has been used to model some disorder.

;
#These two values have been output from a single CSD field.
_refine_ls_R_factor_gt 0.0736
_refine_ls_wR_factor_gt 0.0736
_symmetry_cell_setting orthorhombic
_symmetry_space_group_name_H-M 'P n a 21'
_symmetry_Int_Tables_number 33
loop_
_symmetry_equiv_pos_site_id
_symmetry_equiv_pos_as_xyz
1 x,y,z
2 -x,-y,1/2+z
3 1/2+x,1/2-y,z
4 1/2-x,1/2+y,1/2+z
_cell_length_a 19.9990(11)
_cell_length_b 18.6284(11)
_cell_length_c 35.123(2)
_cell_angle_alpha 90
_cell_angle_beta 90
_cell_angle_gamma 90
_cell_formula_units_Z 4
loop_
_atom_type_symbol
_atom_type_radius_bond
C 0.68
H 0.23
Ca 1.76
Cd 1.44
N 0.68
O 0.68
loop_
_atom_site_label
_atom_site_type_symbol
_atom_site_fract_x
_atom_site_fract_y
_atom_site_fract_z
C1 C 0.7209(5) 0.3411(6) 0.6770(3)
C2 C 0.6830(5) 0.4112(6) 0.6780(3)
C3 C 0.9733(5) 0.2685(6) 0.6289(3)
C4 C 0.6790(5) 0.4492(6) 0.7116(3)
H1 H 0.69980 0.43100 0.73320
C5 C 0.6448(5) 0.5140(6) 0.7142(3)
H2 H 0.64230 0.53890 0.73710
C6 C 0.6137(5) 0.5410(6) 0.6808(3)
C7 C 0.6195(6) 0.5042(7) 0.6470(3)
H3 H 0.60070 0.52310 0.62500
C8 C 0.6527(6) 0.4398(7) 0.6456(3)
H4 H 0.65500 0.41490 0.62270
C9 C 0.5722(5) 0.6087(6) 0.6830(3)
C10 C 0.7354(5) 0.1090(5) 0.6667(3)
C11 C 0.6988(5) 0.0374(6) 0.6703(3)
C12 C 0.6915(6) -0.0088(7) 0.6395(3)
H5 H 0.71120 0.00240 0.61630
C13 C 0.6553(6) -0.0710(6) 0.6435(3)
H6 H 0.64860 -0.10080 0.62260
C14 C 0.6286(4) -0.0896(5) 0.6787(3)
C15 C 0.6355(4) -0.0446(5) 0.7097(3)
H7 H 0.61640 -0.05660 0.73300
C16 C 0.6707(5) 0.0175(6) 0.7057(3)
H8 H 0.67630 0.04750 0.72660
C17 C 0.5908(5) -0.1596(6) 0.6828(3)
C18 C 0.8334(5) 0.1402(6) 0.5271(3)
C19 C 0.8665(5) 0.0667(6) 0.5300(3)
C20 C 0.8882(6) 0.0330(6) 0.4970(3)
H9 H 0.87950 0.05290 0.47330
C21 C 0.9236(6) -0.0315(6) 0.5002(3)
H10 H 0.94120 -0.05300 0.47850
C22 C 0.9323(5) -0.0633(6) 0.5349(3)
C23 C 0.9087(6) -0.0332(6) 0.5660(3)
H11 H 0.91330 -0.05630 0.58940
C24 C 0.8758(6) 0.0352(7) 0.5641(3)
H12 H 0.86100 0.05760 0.58620
C25 C 0.9694(5) -0.1333(6) 0.5388(3)
C26 C 0.6853(6) 0.2562(7) 0.4364(4)
C27 C 0.6537(7) 0.2570(7) 0.3966(4)
C28 C 0.5965(6) 0.2190(8) 0.3917(3)
H13 H 0.57680 0.19440 0.41190
C29 C 0.5677(6) 0.2179(7) 0.3548(4)
H14 H 0.53240 0.18720 0.34920
C30 C 0.5936(5) 0.2645(5) 0.3263(3)
C31 C 0.6460(6) 0.3054(7) 0.3345(4)
H15 H 0.66140 0.33810 0.31650
C32 C 0.6781(6) 0.3002(7) 0.3691(4)
H16 H 0.71670 0.32670 0.37350
C33 C 0.5567(5) 0.2653(6) 0.2884(3)
C34 C 0.8258(6) 0.3685(6) 0.5487(3)
C35 C 0.8600(5) 0.4394(6) 0.5523(3)
C36 C 0.8740(8) 0.4721(7) 0.5891(4)
H17 H 0.86030 0.44930 0.61140
C37 C 0.9078(7) 0.5373(7) 0.5911(4)
H18 H 0.91770 0.55780 0.61460
C38 C 0.9255(5) 0.5695(6) 0.5594(3)
C39 C 0.9126(5) 0.5417(6) 0.5234(3)
H19 H 0.92530 0.56770 0.50190
C40 C 0.8814(6) 0.4767(6) 0.5190(4)
H20 H 0.87430 0.45740 0.49490
C41 C 0.9634(5) 0.6419(6) 0.5617(3)
C42 C 0.9177(5) 0.2731(6) 0.6571(3)
C43 C 1.0305(5) 0.3125(6) 0.6317(3)
H21 H 1.03190 0.34820 0.65020
C44 C 1.0834(5) 0.3039(5) 0.6079(3)
H22 H 1.11930 0.33560 0.60930
C45 C 1.0265(5) 0.2001(6) 0.5771(3)
H23 H 1.02600 0.16410 0.55880
C46 C 0.9718(5) 0.2097(6) 0.6011(3)
H24 H 0.93500 0.17940 0.59950
C47 C 1.0845(5) 0.2467(6) 0.5809(4)
C48 C 1.1431(5) 0.2357(7) 0.5553(3)
C49 C 1.1607(5) 0.7357(8) 0.5715(3)
C50 C 1.2189(5) 0.7493(6) 0.5973(3)
C51 C 1.2206(5) 0.7993(6) 0.6224(3)
H25 H 1.18350 0.82880 0.62550
C52 C 1.2783(5) 0.8107(6) 0.6457(3)
H26 H 1.28050 0.85050 0.66160
C53 C 1.3286(5) 0.7644(6) 0.6446(3)
C54 C 1.3288(5) 0.7068(6) 0.6182(3)
H27 H 1.36540 0.67620 0.61660
C55 C 1.2742(5) 0.6968(6) 0.5952(3)
H28 H 1.27210 0.65800 0.57860
C56 C 1.3878(5) 0.7707(7) 0.6712(4)
C57 C 1.1121(5) 0.7387(7) 0.4489(3)
C58 C 1.1359(5) 0.7412(7) 0.4071(3)
C59 C 1.1846(6) 0.7846(8) 0.3955(3)
H29 H 1.20780 0.81160 0.41340
C60 C 1.2019(5) 0.7907(6) 0.3565(3)
H30 H 1.23540 0.82170 0.34850
C61 C 1.1675(5) 0.7493(6) 0.3314(3)
C62 C 1.1173(6) 0.6992(6) 0.3446(3)
H31 H 1.09540 0.66880 0.32770
C63 C 1.1034(6) 0.6978(7) 0.3816(4)
H32 H 1.07080 0.66640 0.39050
C64 C 1.1807(6) 0.7583(6) 0.2894(4)
C65 C 0.8877(7) 0.0736(8) 0.7205(5)
C66 C 0.8436(9) 0.0381(12) 0.7560(6)
H33 H 0.81070 0.00590 0.74590
H34 H 0.82170 0.07570 0.77000
H35 H 0.87300 0.01230 0.77280
C67 C 0.8942(11) -0.0538(8) 0.6977(5)
H36 H 0.89570 -0.07250 0.72310
H37 H 0.92720 -0.07760 0.68230
H38 H 0.85060 -0.06180 0.68700
C68 C 0.9426(10) 0.0559(11) 0.6653(5)
H39 H 0.91030 0.07540 0.64800
H40 H 0.96630 0.01730 0.65310
H41 H 0.97370 0.09270 0.67260
Ca1 Ca 0.77774(9) 0.23396(11) 0.60644(5)
Cd1 Cd 0.81886(3) 0.22973(4) 0.71112(2)
O1 O 0.7520(4) 0.3239(4) 0.7058(2)
Ca2 Ca 1.01954(9) 0.77118(10) 0.61684(5)
Cd2 Cd 0.74735(3) 0.25795(4) 0.50412(2)
O2 O 0.7163(4) 0.3041(4) 0.6473(2)
Cd3 Cd 1.06044(3) 0.74530(4) 0.51810(2)
O3 O 0.5644(3) 0.6385(4) 0.7154(2)
Cd4 Cd 0.49941(3) 0.73430(4) 0.71908(2)
O4 O 0.5509(4) 0.6327(5) 0.6522(2)
N1 N 0.9092(6) 0.0292(6) 0.6985(4)
O5 O 0.7462(4) 0.1435(4) 0.6974(2)
O6 O 0.7513(4) 0.1262(4) 0.6336(2)
O7 O 0.5650(4) -0.1720(4) 0.7151(2)
O8 O 0.5837(4) -0.2016(5) 0.6538(2)
O9 O 0.8295(3) 0.1765(4) 0.5571(2)
O10 O 0.8106(4) 0.1583(4) 0.4963(2)
O11 O 0.9709(3) -0.1627(4) 0.5701(2)
O12 O 1.0008(4) -0.1561(4) 0.5086(2)
O13 O 0.7324(4) 0.3002(5) 0.4428(2)
O14 O 0.6695(4) 0.2082(5) 0.4596(2)
O15 O 0.5761(4) 0.3124(4) 0.2649(2)
O16 O 0.5116(4) 0.2226(5) 0.2807(2)
O17 O 0.8138(4) 0.3468(4) 0.5155(2)
O18 O 0.8078(4) 0.3379(5) 0.5788(2)
O19 O 0.9739(4) 0.6685(4) 0.5919(2)
O20 O 0.9860(4) 0.6640(5) 0.5302(2)
O21 O 0.8642(3) 0.2391(5) 0.6501(2)
O22 O 0.9262(4) 0.3078(6) 0.6852(3)
O23 O 1.1408(3) 0.1891(5) 0.5310(2)
O24 O 1.1930(3) 0.2753(4) 0.5593(2)
O25 O 1.1597(4) 0.6865(4) 0.5472(2)
O26 O 1.1116(3) 0.7824(4) 0.5743(2)
O27 O 1.4366(4) 0.7283(5) 0.6652(2)
O28 O 1.3843(4) 0.8116(4) 0.6992(3)
O29 O 1.0713(4) 0.6914(5) 0.4585(2)
O30 O 1.1370(4) 0.7834(5) 0.4711(2)
O31 O 1.1434(4) 0.7240(5) 0.2664(2)
O32 O 1.2266(4) 0.7984(5) 0.2776(2)
O33 O 0.8971(4) 0.1370(5) 0.7204(3)
C69 C 1.4671(8) 0.9957(10) 0.7210(6)
H42 H 1.47130 1.02960 0.70050
H43 H 1.47640 0.94830 0.71170
H44 H 1.49830 1.00770 0.74080
C70 C 1.3920(8) 1.0652(7) 0.7553(5)
H45 H 1.39030 1.10320 0.73690
H46 H 1.42970 1.07230 0.77180
H47 H 1.35160 1.06520 0.77010
N2 N 1.3985(5) 0.9983(6) 0.7362(3)
H48 H 1.36850 0.99500 0.71720
H49 H 1.39170 0.96180 0.75260
C71 C 1.0914(11) 0.3175(11) 0.7363(6)
H50 H 1.05360 0.33600 0.72260
H51 H 1.12750 0.30880 0.71880
H52 H 1.10540 0.35190 0.75500
C72 C 1.1348(11) 0.2233(14) 0.7753(7)
H53 H 1.15730 0.18890 0.75950
H54 H 1.12270 0.20120 0.79900
H55 H 1.16410 0.26320 0.78010
N3 N 1.0727(5) 0.2495(7) 0.7553(4)
H56 H 1.05880 0.21700 0.73810
H57 H 1.03960 0.25700 0.77220
C73 C 1.1966(16) 0.4591(18) 0.5195(10)
C74 C 1.1048(15) 0.5405(18) 0.4890(9)
N4 N 1.1213(11) 0.4829(12) 0.5185(7)
H58 H 1.09600 0.44400 0.51360
H59 H 1.10990 0.49930 0.54160
C75 C 0.7575(7) -0.1674(9) 0.7414(5)
H60 H 0.76840 -0.19740 0.72000
H61 H 0.79800 -0.15180 0.75350
H62 H 0.73270 -0.12640 0.73280
C76 C 0.6897(6) -0.1478(8) 0.7936(4)
H63 H 0.72030 -0.10840 0.79110
H64 H 0.68660 -0.16170 0.81990
H65 H 0.64640 -0.13360 0.78460
N5 N 0.7146(8) -0.2107(9) 0.7703(5)
H66 H 0.68110 -0.23470 0.75890
H67 H 0.73950 -0.24130 0.78420
O34 O 0.9130(8) 0.2623(9) 0.4306(5)
O35 O 1.3174(9) 0.918(1) 0.3065(5)
Ca1B Ca 1.27774(9) 0.26604(11) 0.60644(5)
Cd1A Cd 1.18114(3) 0.77027(4) 0.21112(2)
Ca2* Ca 1.01954(9) -0.22882(10) 0.61684(5)
Ca2B Ca 0.51954(9) -0.27118(10) 0.61684(5)
Ca2B* Ca 0.51954(9) 0.72882(10) 0.61684(5)
Ca2B** Ca 1.51954(9) 0.72882(10) 0.61684(5)
Cd2B Cd 1.24735(3) 0.24205(4) 0.50412(2)
Cd3* Cd 1.06044(3) -0.25470(4) 0.51810(2)
Cd4* Cd 0.49941(3) -0.26570(4) 0.71908(2)
Cd4** Cd 1.49941(3) 0.73430(4) 0.71908(2)
Cd4A Cd 0.50059(3) 0.26570(4) 0.21908(2)
O4B O 1.0509(4) 0.8673(5) 0.6522(2)
O7* O 0.5650(4) 0.8280(4) 0.7151(2)
O8B O 1.0837(4) 0.7016(5) 0.6538(2)
O11* O 0.9709(3) 0.8373(4) 0.5701(2)
O12* O 1.0008(4) 0.8439(4) 0.5086(2)
O15A O 0.4239(4) 0.6876(4) 0.7649(2)
O16A O 0.4884(4) 0.7774(5) 0.7807(2)
O23B O 0.6408(3) 0.3109(5) 0.5310(2)
O24B O 0.6930(3) 0.2247(4) 0.5593(2)
O27* O 0.4366(4) 0.7283(5) 0.6652(2)
O27B O 0.9366(4) 0.7717(5) 0.6652(2)
O28* O 0.3843(4) 0.8116(4) 0.6992(3)
O31A O 0.8566(4) 0.2760(5) 0.7664(2)
O32A O 0.7734(4) 0.2016(5) 0.7776(2)
#END
