
#######################################################################
#
#                 Cambridge Crystallographic Data Centre
#                                CCDC
#
#######################################################################
#
# If this CIF has been generated from an entry in the Cambridge
# Structural Database, then it will include bibliographic, chemical,
# crystal, experimental, refinement or atomic coordinate data resulting
# from the CCDC's data processing and validation procedures.
#
#######################################################################

data_CSD_CIF_IYATAE
_audit_creation_date 2011-10-10
_audit_creation_method CSD-ConQuest-V1
_database_code_CSD IYATAE
_database_code_depnum_ccdc_archive 'CCDC 824096'
_chemical_formula_sum 'C96 H97 Co9 N13 O48'
_chemical_formula_moiety
;
(C2 H8 N1 1+)5n,n(C86 H53 Co9 N8 O46 5-),2n(H2 O1)
;
_journal_coden_Cambridge 179
_journal_volume 50
_journal_year 2011
_journal_page_first 8034
_journal_name_full 'Angew.Chem.,Int.Ed. '
loop_
_publ_author_name
"Shou-Tian Zheng"
"Tao Wu"
"B.Irfanoglu"
"Fan Zuo"
"Pingyun Feng"
"Xianhui Bu"
_chemical_name_systematic
;
catena-[pentakis(Dimethylammonium) 
tetrakis(\m~6~-benzene-1,3,5-tricarboxylato)-bis(\m~3~-isonicotinato)-hexakis(
\m~2~-isonicotinato)-bis(\m~2~-hydroxo)-(acetato-O,O')-diaqua-nona-cobalt 
dihydrate)
;
_cell_volume 166809.162
_exptl_crystal_density_diffrn 1.305
_diffrn_ambient_temperature 296
_refine_special_details
;
C24 disordered by symmetry over two sites with occupancy 0.50.

;
#These two values have been output from a single CSD field.
_refine_ls_R_factor_gt 0.0678
_refine_ls_wR_factor_gt 0.0678
_symmetry_cell_setting cubic
_symmetry_space_group_name_H-M 'F -4 3 c'
_symmetry_Int_Tables_number 219
loop_
_symmetry_equiv_pos_site_id
_symmetry_equiv_pos_as_xyz
1 x,y,z
2 y,-x,1/2-z
3 x,-y,-z
4 z,x,y
5 -x,-y,z
6 -y,-x,1/2+z
7 x,-z,1/2-y
8 -y,x,1/2-z
9 -x,y,-z
10 -z,-x,y
11 y,x,1/2+z
12 -x,z,1/2-y
13 z,-x,-y
14 x,z,1/2+y
15 -z,x,-y
16 -x,-z,1/2+y
17 y,z,x
18 1/2+z,-y,-x
19 1/2-z,-y,x
20 y,-z,-x
21 1/2+z,y,x
22 -y,z,-x
23 -y,-z,x
24 1/2-z,y,-x
25 x,1/2+y,1/2+z
26 y,1/2-x,-z
27 x,1/2-y,1/2-z
28 z,1/2+x,1/2+y
29 -x,1/2-y,1/2+z
30 -y,1/2-x,z
31 x,1/2-z,-y
32 -y,1/2+x,-z
33 -x,1/2+y,1/2-z
34 -z,1/2-x,1/2+y
35 y,1/2+x,z
36 -x,1/2+z,-y
37 z,1/2-x,1/2-y
38 x,1/2+z,y
39 -z,1/2+x,1/2-y
40 -x,1/2-z,y
41 y,1/2+z,1/2+x
42 1/2+z,1/2-y,1/2-x
43 1/2-z,1/2-y,1/2+x
44 y,1/2-z,1/2-x
45 1/2+z,1/2+y,1/2+x
46 -y,1/2+z,1/2-x
47 -y,1/2-z,1/2+x
48 1/2-z,1/2+y,1/2-x
49 1/2+x,y,1/2+z
50 1/2+y,-x,-z
51 1/2+x,-y,1/2-z
52 1/2+z,x,1/2+y
53 1/2-x,-y,1/2+z
54 1/2-y,-x,z
55 1/2+x,-z,-y
56 1/2-y,x,-z
57 1/2-x,y,1/2-z
58 1/2-z,-x,1/2+y
59 1/2+y,x,z
60 1/2-x,z,-y
61 1/2+z,-x,1/2-y
62 1/2+x,z,y
63 1/2-z,x,1/2-y
64 1/2-x,-z,y
65 1/2+y,z,1/2+x
66 z,-y,1/2-x
67 -z,-y,1/2+x
68 1/2+y,-z,1/2-x
69 z,y,1/2+x
70 1/2-y,z,1/2-x
71 1/2-y,-z,1/2+x
72 -z,y,1/2-x
73 1/2+x,1/2+y,z
74 1/2+y,1/2-x,1/2-z
75 1/2+x,1/2-y,-z
76 1/2+z,1/2+x,y
77 1/2-x,1/2-y,z
78 1/2-y,1/2-x,1/2+z
79 1/2+x,1/2-z,1/2-y
80 1/2-y,1/2+x,1/2-z
81 1/2-x,1/2+y,-z
82 1/2-z,1/2-x,y
83 1/2+y,1/2+x,1/2+z
84 1/2-x,1/2+z,1/2-y
85 1/2+z,1/2-x,-y
86 1/2+x,1/2+z,1/2+y
87 1/2-z,1/2+x,-y
88 1/2-x,1/2-z,1/2+y
89 1/2+y,1/2+z,x
90 z,1/2-y,-x
91 -z,1/2-y,x
92 1/2+y,1/2-z,-x
93 z,1/2+y,x
94 1/2-y,1/2+z,-x
95 1/2-y,1/2-z,x
96 -z,1/2+y,-x
_cell_length_a 55.0478(8)
_cell_length_b 55.0478(8)
_cell_length_c 55.0478(8)
_cell_angle_alpha 90
_cell_angle_beta 90
_cell_angle_gamma 90
_cell_formula_units_Z 48
loop_
_atom_type_symbol
_atom_type_radius_bond
C 0.68
H 0.23
Co 1.18
N 0.68
O 0.66
loop_
_atom_site_label
_atom_site_type_symbol
_atom_site_fract_x
_atom_site_fract_y
_atom_site_fract_z
Co1 Co 0.359378(12) 1.00008(3) 0.134025(11)
Co2 Co 0.395759(12) 1.00008(3) 0.098949(12)
O1 O 0.34568(16) 1.02581(18) 0.11252(17)
N1 N 0.33026(8) 1.0004(2) 0.15724(8)
O2 O 0.15084(17) 1.02572(16) 0.12026(17)
O3 O 0.15493(15) 1.11135(14) 0.02561(16)
O4 O 0.34817(16) 1.12169(14) 0.02532(17)
O5 O 0.37402(16) 1.02611(16) 0.08398(15)
O6 O 0.42248(13) 0.9974(3) 0.07577(16)
O7 O 0.12226(17) 1.02505(18) 0.09225(16)
O8 O 0.12475(16) 1.08356(17) 0.02582(17)
O9 O 0.37714(16) 1.09257(16) 0.02587(16)
C1 C 0.3558(2) 1.0340(2) 0.0938(2)
C2 C 0.3213(2) 0.9790(2) 0.1652(2)
C3 C 0.3213(2) 1.02051(17) 0.1661(2)
C4 C 0.3422(2) 1.0551(2) 0.0804(2)
C5 C 0.3031(3) 0.9774(3) 0.1818(2)
H1 H 0.32790 0.96470 0.15910
C6 C 0.3027(2) 1.0203(3) 0.1842(2)
H2 H 0.32710 1.03530 0.16040
C7 C 0.3543(2) 1.0663(2) 0.0620(3)
C8 C 0.3203(2) 1.0621(2) 0.0890(3)
H3 H 0.29720 0.96230 0.18640
C9 C 0.29330(11) 0.9989(4) 0.19190(11)
H4 H 0.29710 1.03490 0.19060
H5 H 0.36860 1.06010 0.05550
C10 C 0.3438(3) 1.0879(2) 0.0533(2)
C11 C 0.3092(2) 1.0825(2) 0.0784(3)
H6 H 0.31280 1.05370 0.10150
C12 C 0.27394(16) 1.00639(14) 0.21324(17)
C13 C 0.3223(2) 1.0957(2) 0.0599(2)
C14 C 0.3579(2) 1.10147(17) 0.0326(2)
C15 C 0.2858(2) 1.0917(2) 0.0886(2)
O10 O 0.26872(18) 1.0213(3) 0.22022(18)
O11 O 0.26859(17) 0.9796(3) 0.21856(18)
H7 H 0.31560 1.10940 0.05280
O12 O 0.27805(14) 1.08117(14) 0.10655(15)
O13 O 0.27644(15) 1.11000(13) 0.07883(14)
Co3 Co 0.25000 1.029532(17) 0.25000
Co4 Co 0.25221(2) 1.08524(2) 0.13242(2)
Co5 Co 0.24768(2) 1.13229(2) 0.08535(2)
O14 O 0.26701(14) 1.06488(13) 0.25793(14)
O15 O 0.22313(16) 1.07797(15) 0.11049(14)
O16 O 0.25102(12) 1.12445(12) 0.12447(17)
N2 N 0.25330(13) 1.04548(14) 0.1391(2)
N3 N 0.27993(19) 1.09065(19) 0.15791(19)
O17 O 0.16094(14) 1.22790(13) 0.08765(15)
O18 O 0.22249(15) 1.10654(15) 0.08035(16)
N4 N 0.21948(19) 1.15989(17) 0.09194(16)
O19 O 0.25487(15) 0.95393(17) 0.13787(15)
O20 O 0.33988(13) 1.08774(13) 0.22729(14)
C16 C 0.25000 1.07627(14) 0.25000
C17 C 0.2136(2) 1.0888(2) 0.0928(2)
C18 C 0.26752(16) 1.02973(14) 0.13250(15)
C19 C 0.2328(3) 1.0359(2) 0.1509(5)
C20 C 0.2990(2) 1.1045(2) 0.1548(3)
C21 C 0.2783(2) 1.0824(2) 0.1815(2)
C22 C 0.1998(3) 1.1538(2) 0.1053(3)
C23 C 0.2210(2) 1.1818(2) 0.0821(2)
C24 C 0.2541(5) 1.09997(18) 0.2482(7)
C25 C 0.2385(2) 0.9669(4) 0.1447(2)
C26 C 0.3358(2) 1.1050(2) 0.2121(2)
C27 C 0.1893(2) 1.0793(2) 0.0839(2)
H8 H 0.28170 1.03560 0.12540
C28 C 0.26560(12) 0.9986(3) 0.13408(12)
C29 C 0.2263(2) 1.00974(15) 0.1495(2)
H9 H 0.22290 1.04630 0.15980
H10 H 0.30050 1.11140 0.13950
C30 C 0.3180(3) 1.1107(3) 0.1719(3)
H11 H 0.26400 1.07500 0.18650
C31 C 0.2974(2) 1.0848(2) 0.1982(2)
H12 H 0.19840 1.13820 0.11170
C32 C 0.1819(3) 1.1705(2) 0.1094(3)
H13 H 0.23390 1.18480 0.07160
C33 C 0.2046(2) 1.2005(2) 0.0862(2)
C34 C 0.24435(14) 0.9972(4) 0.14341(14)
O21 O 0.2223(3) 0.96063(16) 0.15470(17)
C35 C 0.3183(3) 1.1004(3) 0.1927(3)
O22 O 0.3452(2) 1.12489(19) 0.21320(17)
C36 C 0.1783(2) 1.0606(2) 0.0959(2)
C37 C 0.17889(17) 1.0893(2) 0.06390(18)
H14 H 0.27660 0.98660 0.12960
H15 H 0.21100 1.00350 0.15270
H16 H 0.32980 1.12200 0.16780
H17 H 0.29680 1.07640 0.21290
C38 C 0.18570(19) 1.1946(2) 0.0994(2)
H18 H 0.16800 1.16660 0.11820
H19 H 0.20680 1.21600 0.08000
C39 C 0.1553(2) 1.05100(18) 0.0875(2)
H20 H 0.18560 1.05390 0.10960
C40 C 0.1558(2) 1.0815(2) 0.0542(2)
H21 H 0.18710 1.10170 0.05600
C41 C 0.1648(3) 1.2143(2) 0.1033(2)
C42 C 0.14210(19) 1.0330(3) 0.1010(2)
C43 C 0.1449(2) 1.0621(2) 0.06760(18)
C44 C 0.14495(18) 1.0925(2) 0.0337(2)
O23 O 0.15338(19) 1.21266(17) 0.12424(17)
H22 H 0.12970 1.05670 0.06260
N5 N 0.4335(6) 1.0084(6) 0.2048(6)
C45 C 0.4418(7) 0.9969(9) 0.1822(6)
H23 H 0.44040 1.00830 0.16910
H24 H 0.43190 0.98300 0.17880
H25 H 0.45840 0.99200 0.18390
C46 C 0.4089(5) 1.0024(9) 0.2071(6)
H26 H 0.39910 1.01580 0.20190
H27 H 0.40530 0.99870 0.22370
H28 H 0.40540 0.98850 0.19710
N6 N 0.50000 1.00000 0.1367(4)
C47 C 0.5167(3) 1.0172(3) 0.1470(4)
N7 N 0.4513(6) 0.9730(7) 0.2197(7)
C48 C 0.4720(7) 0.9571(8) 0.2231(9)
H29 H 0.46670 0.94220 0.23050
H30 H 0.48360 0.96480 0.23350
H31 H 0.47930 0.95360 0.20770
C49 C 0.4281(5) 0.9753(6) 0.2329(6)
H32 H 0.42640 0.96200 0.24410
H33 H 0.41490 0.97500 0.22150
H34 H 0.42790 0.99040 0.24160
O24 O 0.36174(18) 1.13826(18) 0.13826(18)
O25 O 0.4007(7) 0.9007(7) 0.0993(7)
O26 O 0.3814(6) 0.8814(6) 0.1186(6)
O27 O 0.3988(3) 1.1012(3) 0.1012(3)
H35? H 0.23980 1.10680 0.24100
H36? H 0.25390 1.10270 0.26540
O14DB O 0.23299(14) 1.06488(13) 0.24207(14)
C24DB C 0.2459(5) 1.09997(18) 0.2518(7)
Co1C Co 0.134025(12) 1.359378(30) 0.000080(11)
Co2C Co 0.098949(12) 1.395759(30) 0.000080(12)
O1C O 0.11252(16) 1.34568(18) 0.02581(17)
N1C N 0.15724(8) 1.33026(20) 0.00040(8)
O2C O 0.12026(17) 1.15084(16) 0.02572(17)
O3C O 0.02561(15) 1.15493(14) 0.11135(16)
O4C O 0.02532(16) 1.34817(14) 0.12169(17)
O5C O 0.08398(16) 1.37402(16) 0.02611(15)
O6C O 0.07577(13) 1.42248(30) -0.00260(16)
O7C O 0.09225(17) 1.12226(18) 0.02505(16)
O8C O 0.02582(16) 1.12475(17) 0.08356(17)
O9C O 0.02587(16) 1.37714(16) 0.09257(16)
C1C C 0.0938(2) 1.3558(2) 0.0340(2)
C2C C 0.1652(2) 1.3213(2) -0.0210(2)
C3C C 0.1661(2) 1.32130(17) 0.02051(20)
C4C C 0.0804(2) 1.3422(2) 0.0551(2)
C5C C 0.1818(3) 1.3031(3) -0.0226(2)
H1C H 0.15910 1.32790 -0.03530
C6C C 0.1842(2) 1.3027(3) 0.0203(2)
H2C H 0.16040 1.32710 0.03530
C7C C 0.0620(2) 1.3543(2) 0.0663(3)
C8C C 0.0890(2) 1.3203(2) 0.0621(3)
H3C H 0.18640 1.29720 -0.03770
C9C C 0.19190(11) 1.2933(4) -0.00110(11)
H4C H 0.19060 1.29710 0.03490
H5C H 0.05550 1.36860 0.06010
C10C C 0.0533(3) 1.3438(2) 0.0879(2)
C11C C 0.0784(2) 1.3092(2) 0.0825(3)
H6C H 0.10150 1.31280 0.05370
C12C C 0.21324(16) 1.27394(14) 0.00639(17)
C13C C 0.0599(2) 1.3223(2) 0.0957(2)
C14C C 0.0326(2) 1.35790(17) 0.10147(20)
C15C C 0.0886(2) 1.2858(2) 0.0917(2)
O10C O 0.22022(18) 1.26872(30) 0.02130(18)
O11C O 0.21856(17) 1.26859(30) -0.02040(18)
H7C H 0.05280 1.31560 0.10940
O12C O 0.10655(14) 1.27805(14) 0.08117(15)
O13C O 0.07883(15) 1.27644(13) 0.11000(14)
Co4C Co 0.13242(2) 1.25221(2) 0.08524(2)
Co5C Co 0.08535(2) 1.24768(2) 0.13229(2)
O15C O 0.11049(16) 1.22313(15) 0.07797(14)
O16C O 0.12447(12) 1.25102(12) 0.12445(17)
N2C N 0.13910(13) 1.25330(14) 0.04548(20)
N3C N 0.15791(19) 1.27993(19) 0.09065(19)
O17C O 0.08765(14) 1.16094(13) 0.22790(15)
O18C O 0.08035(15) 1.22249(15) 0.10654(16)
N4C N 0.09194(19) 1.21948(17) 0.15989(16)
O19C O 0.13787(15) 1.25487(17) -0.04607(15)
O20C O 0.22729(13) 1.33988(13) 0.08774(14)
C17C C 0.0928(2) 1.2136(2) 0.0888(2)
C18C C 0.13250(16) 1.26752(14) 0.02973(15)
C19C C 0.1509(3) 1.2328(2) 0.0359(5)
C20C C 0.1548(2) 1.2990(2) 0.1045(3)
C21C C 0.1815(2) 1.2783(2) 0.0824(2)
C22C C 0.1053(3) 1.1998(2) 0.1538(3)
C23C C 0.0821(2) 1.2210(2) 0.1818(2)
C25C C 0.1447(2) 1.2385(4) -0.0331(2)
C26C C 0.2121(2) 1.3358(2) 0.1050(2)
C27C C 0.0839(2) 1.1893(2) 0.0793(2)
H8C H 0.12540 1.28170 0.03560
C28C C 0.13408(12) 1.2656(3) -0.00140(12)
C29C C 0.1495(2) 1.22630(15) 0.00974(20)
H9C H 0.15980 1.22290 0.04630
H10C H 0.13950 1.30050 0.11140
C30C C 0.1719(3) 1.3180(3) 0.1107(3)
H11C H 0.18650 1.26400 0.07500
C31C C 0.1982(2) 1.2974(2) 0.0848(2)
H12C H 0.11170 1.19840 0.13820
C32C C 0.1094(3) 1.1819(2) 0.1705(3)
H13C H 0.07160 1.23390 0.18480
C33C C 0.0862(2) 1.2046(2) 0.2005(2)
C34C C 0.14341(14) 1.24435(40) -0.00280(14)
O21C O 0.1547(3) 1.22230(16) -0.03937(17)
C35C C 0.1927(3) 1.3183(3) 0.1004(3)
O22C O 0.2132(2) 1.34520(19) 0.12489(17)
C36C C 0.0959(2) 1.1783(2) 0.0606(2)
C37C C 0.06390(17) 1.17889(20) 0.08930(18)
H14C H 0.12960 1.27660 -0.01340
H15C H 0.15270 1.21100 0.00350
H16C H 0.16780 1.32980 0.12200
H17C H 0.21290 1.29680 0.07640
C38C C 0.09940(19) 1.1857(2) 0.1946(2)
H18C H 0.11820 1.16800 0.16660
H19C H 0.08000 1.20680 0.21600
C39C C 0.0875(2) 1.15530(18) 0.0510(2)
H20C H 0.10960 1.18560 0.05390
C40C C 0.0542(2) 1.1558(2) 0.0815(2)
H21C H 0.05600 1.18710 0.10170
C41C C 0.1033(3) 1.1648(2) 0.2143(2)
C42C C 0.10100(19) 1.1421(3) 0.0330(2)
C43C C 0.0676(2) 1.1449(2) 0.06210(18)
C44C C 0.03370(18) 1.14495(20) 0.0925(2)
O23C O 0.12424(19) 1.15338(17) 0.21266(17)
H22C H 0.06260 1.12970 0.05670
Co1CA Co -0.000080(12) 1.140622(30) 0.134025(11)
Co1QA Co 0.000080(12) 1.365975(30) 0.140622(11)
Co1GB Co 0.140622(12) 1.134025(30) -0.000080(11)
Co1MB Co 0.134025(12) 0.99992(3) 0.140622(11)
Co1CC Co 0.365975(12) 1.140622(30) 0.000080(11)
Co2CA Co -0.000080(12) 1.104241(30) 0.098949(12)
Co2QA Co 0.000080(12) 1.401051(30) 0.104241(12)
Co2GB Co 0.104241(12) 1.098949(30) -0.000080(12)
Co2MB Co 0.098949(12) 0.99992(3) 0.104241(12)
Co2CC Co 0.401051(12) 1.104241(30) 0.000080(12)
O2R O 0.37974(17) 0.97428(16) 0.15084(17)
O2DA O 0.15084(17) 1.37974(16) -0.02572(17)
O3Y O 0.11135(15) 1.34507(14) -0.02561(16)
O3KB O 0.34507(15) 0.97439(14) 0.11135(16)
O4QB O 0.37831(16) 1.02532(14) 0.15183(17)
O4XB O 0.15183(16) 1.37831(14) 0.02532(17)
O7R O 0.40775(17) 0.97495(18) 0.12226(16)
O7DA O 0.12226(17) 1.40775(18) -0.02505(16)
O8Y O 0.08356(16) 1.37525(17) -0.02582(17)
O8KB O 0.37525(16) 0.97418(17) 0.08356(17)
O9QB O 0.40743(16) 1.02587(16) 0.12286(16)
O9XB O 0.12286(16) 1.40743(16) 0.02587(16)
O10DB O 0.23128(18) 1.0213(3) 0.27978(18)
O11R O 0.28144(17) 1.0204(3) 0.26859(18)
O11MB O 0.21856(17) 1.0204(3) 0.23141(18)
Co3C Co 0.25000 1.250000(17) 0.02953
Co3R Co 0.25000 0.970468(17) 0.25000
Co3DA Co 0.25000 1.250000(17) -0.02953
Co4P Co 0.08524(2) 1.13242(2) 0.25221(2)
Co5Y Co 0.13229(2) 1.25232(2) -0.08535(2)
Co5KB Co 0.25232(2) 0.91465(2) 0.13229(2)
Co5QB Co 0.36771(2) 1.08535(2) 0.25232(2)
Co5XB Co 0.25232(2) 1.36771(2) 0.08535(2)
O17P O 0.22790(14) 1.08765(13) 0.16094(15)
O19CA O 0.04607(15) 1.24513(17) 0.13787(15)
O19GB O 0.24513(15) 1.13787(17) 0.04607(15)
O20QA O 0.08774(13) 1.27271(13) 0.16012(14)
O20CC O 0.27271(13) 1.16012(13) 0.08774(14)
C47D C 0.4833(3) 0.9828(3) 0.1470(4)
#END
