
#######################################################################
#
#                 Cambridge Crystallographic Data Centre
#                                CCDC
#
#######################################################################
#
# If this CIF has been generated from an entry in the Cambridge
# Structural Database, then it will include bibliographic, chemical,
# crystal, experimental, refinement or atomic coordinate data resulting
# from the CCDC's data processing and validation procedures.
#
#######################################################################

data_CSD_CIF_IYOQIY
_audit_creation_date 2016-11-10
_audit_creation_method CSD-ConQuest-V1
_database_code_CSD IYOQIY
_database_code_depnum_ccdc_archive 'CCDC 1472530'
_chemical_formula_sum 'C11 H13 Cd1 N5 O5'
_chemical_formula_moiety
;
(C9 H3 Cd1 N4 O4 1-)n,n(C2 H8 N1 1+),n(H2 O1)
;
_journal_coden_Cambridge 580
_journal_volume 122
_journal_year 2017
_journal_page_first 55
_journal_name_full 'Polyhedron '
loop_
_publ_author_name
"Xiao-Fang Wang"
"Ying Pan"
"Zhan Li"
"Xiu Li"
"Shi-Lun Qiu"
"Ming Xue"
_chemical_name_systematic
;
catena(dimethylammonium (\m-5-(3,5-dicarboxylatophenyl)tetrazolato)-cadmium 
monohydrate)
;
_chemical_name_common
;
JUC-167
;
_cell_volume   1443.256
_exptl_crystal_description 'needle'
_diffrn_ambient_temperature 293
#These two values have been output from a single CSD field.
_refine_ls_R_factor_gt 0.0527
_refine_ls_wR_factor_gt 0.0527
_symmetry_cell_setting monoclinic
_symmetry_space_group_name_H-M 'P 21/c'
_symmetry_Int_Tables_number 14
loop_
_symmetry_equiv_pos_site_id
_symmetry_equiv_pos_as_xyz
1 x,y,z
2 -x,1/2+y,1/2-z
3 -x,-y,-z
4 x,-1/2-y,-1/2+z
_cell_length_a 10.1382(8)
_cell_length_b 12.9139(10)
_cell_length_c 11.7341(9)
_cell_angle_alpha 90
_cell_angle_beta 110.040(1)
_cell_angle_gamma 90
_cell_formula_units_Z 4
loop_
_atom_type_symbol
_atom_type_radius_bond
C 0.68
H 0.23
Cd 1.44
N 0.68
O 0.68
loop_
_atom_site_label
_atom_site_type_symbol
_atom_site_fract_x
_atom_site_fract_y
_atom_site_fract_z
Cd1 Cd 0.78741(5) 1.14601(4) 0.22755(5)
O1 O 0.5140(6) 1.1784(5) 0.1981(6)
O2 O 0.6163(6) 1.0287(5) 0.1942(6)
O3 O 0.0386(6) 1.1510(5) 0.2526(6)
O4 O -0.0882(6) 1.0118(4) 0.1873(6)
N1 N 0.2315(7) 0.7476(5) -0.0740(5)
N2 N 0.2126(8) 0.6441(5) -0.0878(6)
N3 N 0.1872(8) 0.6067(5) 0.0054(6)
N4 N 0.1883(7) 0.6840(5) 0.0823(6)
C1 C 0.1400(7) 1.0136(6) 0.1740(6)
C2 C 0.2649(7) 1.0680(6) 0.1926(6)
H1 H 0.27570 1.13360 0.22730
C3 C 0.3723(7) 1.0264(6) 0.1604(6)
C4 C 0.3567(7) 0.9281(6) 0.1081(6)
H2 H 0.42910 0.89900 0.08720
C5 C 0.2324(7) 0.8740(5) 0.0876(6)
C6 C 0.1252(7) 0.9166(6) 0.1210(6)
H3 H 0.04260 0.87950 0.10770
C7 C 0.0255(8) 1.0611(6) 0.2076(6)
C8 C 0.5091(8) 1.0836(6) 0.1846(7)
C9 C 0.2157(7) 0.7702(6) 0.0317(7)
O5 O 0.7572(11) 0.8157(7) 0.1427(9)
N5 N 0.3338(9) 0.3505(7) 0.1267(9)
H4 H 0.37570 0.33320 0.20120
C10 C 0.1818(11) 0.3419(9) 0.0672(11)
H5 H 0.14330 0.40890 0.03910
H6 H 0.14070 0.31570 0.12400
H7 H 0.16170 0.29540 -0.00040
C11 C 0.4084(12) 0.3905(9) 0.0510(11)
H8 H 0.39840 0.34330 -0.01470
H9 H 0.50610 0.39800 0.09830
H10 H 0.37030 0.45670 0.01890
Cd1* Cd -0.21259(5) 1.14601(4) 0.22755(5)
Cd1A Cd 0.21259(5) 0.64601(4) 0.27245(5)
Cd1B Cd 0.21259(5) 0.85399(4) -0.22755(5)
O3* O 1.0386(6) 1.1510(5) 0.2526(6)
O4* O 0.9118(6) 1.0118(4) 0.1873(6)
N1B N 0.7685(7) 1.2524(5) 0.0740(5)
N4A N 0.8117(7) 1.1840(5) 0.4177(6)
#END
