
#######################################################################
#
#                 Cambridge Crystallographic Data Centre
#                                CCDC
#
#######################################################################
#
# If this CIF has been generated from an entry in the Cambridge
# Structural Database, then it will include bibliographic, chemical,
# crystal, experimental, refinement or atomic coordinate data resulting
# from the CCDC's data processing and validation procedures.
#
#######################################################################

data_CSD_CIF_IYOVUO
_audit_creation_date 2011-11-07
_audit_creation_method CSD-ConQuest-V1
_database_code_CSD IYOVUO
_database_code_depnum_ccdc_archive 'CCDC 822463'
_chemical_formula_sum 'C18 H15 Eu1 N2 O8 S2'
_chemical_formula_moiety
;
(C12 H4 Eu1 O8 S2 1-)n,n(C6 H11 N2 1+)
;
_journal_coden_Cambridge 182
_journal_volume 47
_journal_year 2011
_journal_page_first 9834
_journal_name_full 'Chem.Commun. '
loop_
_publ_author_name
"Meng-Xi Wang"
"La-Sheng Long"
"Rong-Bin Huang"
"Lan-Sun Zheng"
_chemical_name_systematic
;
catena-(3-Ethyl-1-methylimidazolium 
(\m~4~-thiophene-2,5-dicarboxylato)-(\m~2~-thiophene-2,5-dicarboxylato)-europi
um)
;
_cell_volume   2048.337
_exptl_crystal_colour 'yellow'
_exptl_crystal_density_diffrn 1.957
_exptl_crystal_description 'hexagon'
_diffrn_ambient_temperature 173
#These two values have been output from a single CSD field.
_refine_ls_R_factor_gt 0.027
_refine_ls_wR_factor_gt 0.027
_symmetry_cell_setting monoclinic
_symmetry_space_group_name_H-M 'P 21/c'
_symmetry_Int_Tables_number 14
loop_
_symmetry_equiv_pos_site_id
_symmetry_equiv_pos_as_xyz
1 x,y,z
2 -x,1/2+y,1/2-z
3 -x,-y,-z
4 x,-1/2-y,-1/2+z
_cell_length_a 11.7636(3)
_cell_length_b 16.3609(3)
_cell_length_c 11.5890(3)
_cell_angle_alpha 90
_cell_angle_beta 113.314(3)
_cell_angle_gamma 90
_cell_formula_units_Z 4
loop_
_atom_type_symbol
_atom_type_radius_bond
C 0.68
H 0.23
Eu 1.66
N 0.68
O 0.68
S 1.02
loop_
_atom_site_label
_atom_site_type_symbol
_atom_site_fract_x
_atom_site_fract_y
_atom_site_fract_z
Eu1 Eu 0.190224(17) 0.534464(12) 0.575944(18)
S1 S 0.03995(9) 0.78435(6) 0.69768(10)
O1 O 0.0414(3) 0.63797(18) 0.5524(3)
C1 C 0.6763(4) 0.1726(3) 0.7959(4)
C2 C -0.0545(4) 0.8542(3) 0.7274(4)
C3 C -0.1771(4) 0.8315(3) 0.6732(4)
H1 H -0.24140 0.86110 0.68050
C4 C -0.1931(4) 0.7579(3) 0.6053(4)
H2 H -0.26990 0.73370 0.56220
C5 C -0.0840(4) 0.7256(3) 0.6092(4)
S2 S 0.52016(10) 0.30129(7) 0.78743(11)
O2 O -0.0685(3) 0.97599(18) 0.8291(3)
O3 O 0.1186(3) 0.92921(19) 0.8567(3)
O4 O 0.3505(3) 0.4472(2) 0.7317(3)
O5 O -0.1523(3) 0.59870(18) 0.5139(3)
O6 O 0.6886(3) 0.1592(2) 0.9065(3)
O7 O 0.7180(3) 0.12291(19) 0.7371(3)
N1 N -0.3092(5) 0.9684(3) 0.3244(4)
O8 O 0.3841(3) 0.4908(2) 0.5682(3)
C6 C -0.2343(5) 1.0333(3) 0.3537(5)
H3 H -0.19310 1.05390 0.30610
C7 C 0.0025(4) 0.9246(3) 0.8098(4)
C8 C -0.0649(4) 0.6482(3) 0.5536(4)
N2 N -0.2284(4) 1.0638(3) 0.4635(4)
C9 C 0.6137(4) 0.2474(3) 0.7321(4)
C10 C 0.6221(4) 0.2849(3) 0.6303(4)
H4 H 0.66770 0.26420 0.58720
C11 C 0.4047(4) 0.4414(3) 0.6578(4)
C12 C 0.4926(4) 0.3740(3) 0.6721(4)
C13 C 0.5549(4) 0.3580(3) 0.5980(4)
H5 H 0.55310 0.39180 0.53280
C14 C -0.1532(5) 1.1332(3) 0.5320(5)
H6 H -0.17950 1.14950 0.59810
H7 H -0.16680 1.17900 0.47510
C15 C -0.3030(6) 1.0165(4) 0.5023(6)
H8 H -0.31650 1.02400 0.57550
C16 C -0.3532(6) 0.9578(4) 0.4165(6)
H9 H -0.40770 0.91730 0.41910
C17 C -0.0156(5) 1.1129(4) 0.5899(5)
H10 H 0.03010 1.16000 0.63310
H11 H 0.01110 1.09740 0.52470
H12 H -0.00140 1.06860 0.64820
C18 C -0.3357(6) 0.9168(4) 0.2130(6)
H13 H -0.29330 0.93830 0.16380
H14 H -0.42320 0.91650 0.16350
H15 H -0.30790 0.86210 0.23890
Eu1A Eu -0.190224(17) 1.034464(12) 0.924056(18)
Eu1C Eu 0.190224(17) 0.965536(12) 1.075944(18)
Eu1B Eu -0.190224(17) 0.465536(12) 0.424056(18)
Eu1A* Eu 0.809776(17) 0.034464(12) 0.924056(18)
O2A O 0.0685(3) 0.47599(18) 0.6709(3)
O3C O 0.1186(3) 0.57079(19) 0.3567(3)
O5B O 0.1523(3) 0.40130(18) 0.4861(3)
O6A O 0.3114(3) 0.6592(2) 0.5935(3)
O7A O 0.2820(3) 0.62291(19) 0.7629(3)
#END
