
#######################################################################
#
#                 Cambridge Crystallographic Data Centre
#                                CCDC
#
#######################################################################
#
# If this CIF has been generated from an entry in the Cambridge
# Structural Database, then it will include bibliographic, chemical,
# crystal, experimental, refinement or atomic coordinate data resulting
# from the CCDC's data processing and validation procedures.
#
#######################################################################

data_CSD_CIF_IYOVEY
_audit_creation_date 2011-11-07
_audit_creation_method CSD-ConQuest-V1
_database_code_CSD IYOVEY
_database_code_depnum_ccdc_archive 'CCDC 822460'
_chemical_formula_sum 'C36 H30 Cl3 N4 Nd3 O16 S4'
_chemical_formula_moiety
;
(C24 H8 Cl3 Nd3 O16 S4 2-)n,2n(C6 H11 N2 1+)
;
_journal_coden_Cambridge 182
_journal_volume 47
_journal_year 2011
_journal_page_first 9834
_journal_name_full 'Chem.Commun. '
loop_
_publ_author_name
"Meng-Xi Wang"
"La-Sheng Long"
"Rong-Bin Huang"
"Lan-Sun Zheng"
_chemical_name_systematic
;
catena-(bis(3-Ethyl-1-methylimidazolium) 
bis(\m~4~-thiophene-2,5-dicarboxylato-O,O,O',O',O'',O''')-bis(\m~4~-thiophene-
2,5-dicarboxylato-O,O',O'',O''')-chloro-tri-neodymium)
;
_cell_volume   2420.625
_exptl_crystal_colour 'purple'
_exptl_crystal_description 'hexagon'
_diffrn_ambient_temperature 173
_refine_special_details
;
C20 disordered by symmetry over two sites with occupancy 0.50; C17 disordered 
by symmetry over two sites with occupancy 0.50. The atom represented as Cl1 
is a mixed chloro:bromo site with occupancies 0.50:0.50.
;
#These two values have been output from a single CSD field.
_refine_ls_R_factor_gt 0.0196
_refine_ls_wR_factor_gt 0.0196
_symmetry_cell_setting orthorhombic
_symmetry_space_group_name_H-M 'P 21 21 2'
_symmetry_Int_Tables_number 18
loop_
_symmetry_equiv_pos_site_id
_symmetry_equiv_pos_as_xyz
1 x,y,z
2 -x,-y,z
3 1/2-x,1/2+y,-z
4 1/2+x,1/2-y,-z
_cell_length_a 16.3890(3)
_cell_length_b 12.0113(2)
_cell_length_c 12.2966(2)
_cell_angle_alpha 90
_cell_angle_beta 90
_cell_angle_gamma 90
_cell_formula_units_Z 2
loop_
_atom_type_symbol
_atom_type_radius_bond
C 0.68
H 0.23
Br 1.21
Cl 0.99
N 0.68
Nd 1.79
O 0.68
S 1.02
loop_
_atom_site_label
_atom_site_type_symbol
_atom_site_fract_x
_atom_site_fract_y
_atom_site_fract_z
Nd1 Nd 0.00000 0.50000 0.195880(17)
Nd2 Nd -0.029847(9) 0.161725(11) 0.281049(12)
Br1? Br -0.02123(5) 0.20020(6) 0.50922(6)
Cl1 Cl -0.0198(3) 0.2004(3) 0.5076(3)
Cl2 Cl 0.00000 0.00000 0.11748(8)
S1 S -0.21042(5) 0.52046(6) 0.52027(7)
O1 O -0.08636(11) 0.35390(14) 0.30198(16)
O2 O -0.07628(11) 0.72878(15) 0.21078(19)
C1 C -0.34937(18) 0.5026(2) 0.6418(2)
O3 O -0.33047(12) 0.59859(15) 0.67836(17)
O4 O -0.41823(12) 0.46058(15) 0.66110(18)
O5 O -0.08468(14) 0.52686(15) 0.35943(19)
C2 C -0.12928(18) 0.6840(3) 0.1514(3)
O6 O -0.12727(15) 0.58251(16) 0.1266(2)
C3 C -0.29123(18) 0.4455(2) 0.5700(3)
C4 C -0.18051(19) 0.4103(2) 0.4409(3)
C5 C -0.11251(19) 0.4298(2) 0.3650(3)
C6 C -0.29370(19) 0.3408(3) 0.5280(3)
H1 H -0.33400 0.28720 0.54650
C7 C -0.19709(19) 0.7508(2) 0.1081(3)
S2 S -0.26761(5) 0.68505(6) 0.02505(7)
O7 O -0.44532(12) 0.88528(14) -0.05348(17)
O8 O -0.40519(13) 0.71960(15) -0.11775(18)
C8 C -0.39733(18) 0.8034(2) -0.0587(2)
C9 C -0.2883(2) 0.8917(2) 0.0671(3)
H2 H -0.31010 0.96500 0.06900
C10 C -0.32386(18) 0.8055(2) 0.0121(3)
C11 C -0.22954(19) 0.3206(2) 0.4539(3)
H3 H -0.22170 0.25180 0.41730
C12 C -0.2159(2) 0.8601(2) 0.1206(3)
H4 H -0.18340 0.91040 0.16140
N1 N 0.0192(2) 0.4173(2) -0.2375(3)
N2 N 0.0643(2) 0.9838(3) -0.2488(2)
C13 C 0.0137(3) 0.4499(3) -0.3445(3)
H5 H 0.02750 0.40660 -0.40650
C14 C 0.00000 1.00000 -0.3101(5)
H6 H 0.00000 1.00000 -0.38740
C15 C 0.0396(3) 0.9897(4) -0.1427(3)
H7 H 0.07330 0.98070 -0.08040
C16 C 0.0475(4) 0.3055(4) -0.1952(5)
H8 H 0.04480 0.30500 -0.11480
H9 H 0.01090 0.24630 -0.22280
H10 H 0.09060 0.29610 -0.20700
C17 C 0.1301(6) 0.2832(8) -0.2297(11)
H11 H 0.14690 0.20970 -0.20320
H12 H 0.16660 0.34020 -0.19990
H13 H 0.13280 0.28460 -0.30930
C18 C 0.00000 0.50000 -0.1759(4)
H14 H 0.00000 0.50000 -0.09860
C19 C 0.1492(3) 0.9650(4) -0.2861(5)
H15 H 0.15660 0.99890 -0.35880
H16 H 0.18750 1.00190 -0.23520
H17 H 0.16050 0.90350 -0.29350
C20 C 0.1680(9) 0.8481(13) -0.2917(11)
H18 H 0.22450 0.83840 -0.31590
H19 H 0.13110 0.81180 -0.34340
H20 H 0.16120 0.81450 -0.21960
Nd1B Nd -0.50000 1.00000 -0.195880(17)
Nd1B* Nd -0.50000 0.00000 -0.195880(17)
Nd2A Nd 0.029847(9) 0.838275(11) 0.281049(12)
Nd2A* Nd 0.029847(9) -0.161725(11) 0.281049(12)
Nd2B Nd -0.470153(9) 0.661725(11) 0.718951(12)
Nd2C Nd -0.529847(9) 0.338275(11) 0.718951(12)
Nd2B* Nd -0.470153(9) 0.661725(11) -0.281049(12)
Nd2C* Nd -0.529847(9) 0.338275(11) -0.281049(12)
Nd2C** Nd 0.470153(9) 0.338275(11) 0.718951(12)
Nd2B** Nd 0.529847(9) 0.661725(11) 0.718951(12)
Cl1A Cl 0.0198(3) 0.7996(3) 0.5076(3)
Cl2* Cl 0.00000 1.00000 0.11748(8)
S1A S 0.21042(5) 0.47954(6) 0.52027(7)
O1A O 0.08636(11) 0.64610(14) 0.30198(16)
O2B O -0.42372(11) 0.22878(15) -0.21078(19)
O2A O 0.07628(11) 0.27122(15) 0.21078(19)
C1A C 0.34937(18) 0.4974(2) 0.6418(2)
O3A O 0.33047(12) 0.40141(15) 0.67836(17)
O3B O -0.16953(12) 0.09859(15) 0.32164(17)
O3C O 0.16953(12) 0.90141(15) 0.32164(17)
O4A O 0.41823(12) 0.53942(15) 0.66110(18)
O4B O -0.08177(12) -0.03942(15) 0.33890(18)
O4C O 0.08177(12) 0.03942(15) 0.33890(18)
O4C* O 0.08177(12) 1.03942(15) 0.33890(18)
O4B* O -0.08177(12) 0.96058(15) 0.33890(18)
O5A O 0.08468(14) 0.47314(15) 0.35943(19)
C2B C -0.37072(18) 0.1840(3) -0.1514(3)
O6B O -0.37273(15) 0.08251(16) -0.1266(2)
O6A O 0.12727(15) 0.41749(16) 0.1266(2)
C3A C 0.29123(18) 0.5545(2) 0.5700(3)
C4A C 0.18051(19) 0.5897(2) 0.4409(3)
C5A C 0.11251(19) 0.5702(2) 0.3650(3)
C6A C 0.29370(19) 0.6592(3) 0.5280(3)
H1A H 0.33400 0.71280 0.54650
C7B C -0.30291(19) 0.2508(2) -0.1081(3)
S2B S -0.23239(5) 0.18505(6) -0.02505(7)
O7B O -0.05468(12) 0.38528(14) 0.05348(17)
O7C O 0.05468(12) 0.61472(14) 0.05348(17)
O8B O -0.09481(13) 0.21960(15) 0.11775(18)
O8C O 0.09481(13) 0.78040(15) 0.11775(18)
C8B C -0.10267(18) 0.3034(2) 0.0587(2)
C9B C -0.2117(2) 0.3917(2) -0.0671(3)
H2B H -0.18990 0.46500 -0.06900
C10B C -0.17614(18) 0.3055(2) -0.0121(3)
C11A C 0.22954(19) 0.6794(2) 0.4539(3)
H3A H 0.22170 0.74820 0.41730
C12B C -0.2841(2) 0.3601(2) -0.1206(3)
H4B H -0.31660 0.41040 -0.16140
N1A N -0.0192(2) 0.5827(2) -0.2375(3)
N2A N -0.0643(2) 1.0162(3) -0.2488(2)
C13A C -0.0137(3) 0.5501(3) -0.3445(3)
H5A H -0.02750 0.59340 -0.40650
C15A C -0.0396(3) 1.0103(4) -0.1427(3)
H7A H -0.07330 1.01930 -0.08040
C16A C -0.0475(4) 0.6945(4) -0.1952(5)
H8A H -0.04480 0.69500 -0.11480
H9A H -0.01090 0.75370 -0.22280
H10A H -0.09060 0.70390 -0.20700
C17A C -0.1301(6) 0.7168(8) -0.2297(11)
H11A H -0.14690 0.79030 -0.20320
H12A H -0.16660 0.65980 -0.19990
H13A H -0.13280 0.71540 -0.30930
C19A C -0.1492(3) 1.0350(4) -0.2861(5)
H15A H -0.15660 1.00110 -0.35880
H16A H -0.18750 0.99810 -0.23520
H17A H -0.16050 1.09650 -0.29350
C20A C -0.1680(9) 1.1519(13) -0.2917(11)
H18A H -0.22450 1.16160 -0.31590
H19A H -0.13110 1.18820 -0.34340
H20A H -0.16120 1.18550 -0.21960
#END
