
#######################################################################
#
#                 Cambridge Crystallographic Data Centre
#                                CCDC
#
#######################################################################
#
# If this CIF has been generated from an entry in the Cambridge
# Structural Database, then it will include bibliographic, chemical,
# crystal, experimental, refinement or atomic coordinate data resulting
# from the CCDC's data processing and validation procedures.
#
#######################################################################

data_CSD_CIF_IYOVOI
_audit_creation_date 2011-11-07
_audit_creation_method CSD-ConQuest-V1
_database_code_CSD IYOVOI
_database_code_depnum_ccdc_archive 'CCDC 822462'
_chemical_formula_sum 'C18 H15 N2 Nd1 O8 S2'
_chemical_formula_moiety
;
(C12 H4 Nd1 O8 S2 1-)n,n(C6 H11 N2 1+)
;
_journal_coden_Cambridge 182
_journal_volume 47
_journal_year 2011
_journal_page_first 9834
_journal_name_full 'Chem.Commun. '
loop_
_publ_author_name
"Meng-Xi Wang"
"La-Sheng Long"
"Rong-Bin Huang"
"Lan-Sun Zheng"
_chemical_name_systematic
;
catena-(3-Ethyl-1-methylimidazolium 
(\m~4~-thiophene-2,5-dicarboxylato)-(\m~2~-thiophene-2,5-dicarboxylato)-neodym
ium)
;
_cell_volume   2066.473
_exptl_crystal_colour 'purple'
_exptl_crystal_density_diffrn 1.915
_exptl_crystal_description 'hexagon'
_diffrn_ambient_temperature 173
#These two values have been output from a single CSD field.
_refine_ls_R_factor_gt 0.0335
_refine_ls_wR_factor_gt 0.0335
_symmetry_cell_setting monoclinic
_symmetry_space_group_name_H-M 'P 21/c'
_symmetry_Int_Tables_number 14
loop_
_symmetry_equiv_pos_site_id
_symmetry_equiv_pos_as_xyz
1 x,y,z
2 -x,1/2+y,1/2-z
3 -x,-y,-z
4 x,-1/2-y,-1/2+z
_cell_length_a 11.7380(4)
_cell_length_b 16.5818(4)
_cell_length_c 11.5785(4)
_cell_angle_alpha 90
_cell_angle_beta 113.514(4)
_cell_angle_gamma 90
_cell_formula_units_Z 4
loop_
_atom_type_symbol
_atom_type_radius_bond
C 0.68
H 0.23
N 0.68
Nd 1.70
O 0.68
S 1.02
loop_
_atom_site_label
_atom_site_type_symbol
_atom_site_fract_x
_atom_site_fract_y
_atom_site_fract_z
Nd1 Nd 0.30994(2) 0.534071(16) 0.42474(2)
S1 S -0.01950(13) 0.30060(8) 0.21143(13)
O1 O 0.4606(3) 0.6379(2) 0.4447(4)
O2 O 0.1477(4) 0.4457(2) 0.2647(4)
O3 O 0.1104(3) 0.4916(2) 0.4268(4)
C1 C 0.6778(5) 0.8314(3) 0.3280(5)
H1 H 0.74200 0.86100 0.32130
C2 C -0.1226(5) 0.2837(3) 0.3683(5)
H2 H -0.16770 0.26220 0.41130
C3 C -0.0566(5) 0.3583(3) 0.4003(5)
H3 H -0.05630 0.39240 0.46420
C4 C 0.0067(5) 0.3734(3) 0.3244(5)
C5 C 0.0929(5) 0.4420(3) 0.3396(5)
C6 C -0.1115(5) 0.2474(3) 0.2666(5)
C7 C 0.5531(5) 0.8535(3) 0.2732(5)
C8 C 0.6942(5) 0.7589(3) 0.3946(5)
H4 H 0.77170 0.73550 0.43780
C9 C 0.5869(5) 0.7259(3) 0.3905(5)
O4 O -0.1865(4) 0.1602(2) 0.0929(4)
O5 O 0.3781(3) 0.9274(2) 0.1477(3)
O6 O 0.6558(3) 0.5997(2) 0.4835(4)
O7 O -0.2124(4) 0.1224(2) 0.2667(4)
C10 C 0.5652(5) 0.6490(3) 0.4459(5)
C11 C -0.1742(5) 0.1720(3) 0.2056(5)
N1 N -0.1905(5) 0.5328(3) 0.1745(5)
C12 C 0.4943(5) 0.9229(3) 0.1913(5)
N2 N -0.2684(5) 0.4381(3) 0.0377(4)
C13 C -0.2635(6) 0.4690(3) 0.1464(6)
H5 H -0.30470 0.44880 0.19410
C14 C -0.3417(6) 0.3683(4) -0.0293(6)
H6 H -0.32870 0.32400 0.02930
H7 H -0.31390 0.35120 -0.09380
C15 C -0.1430(7) 0.5438(4) 0.0849(6)
H8 H -0.08820 0.58380 0.08300
C16 C -0.1933(6) 0.4839(4) -0.0008(6)
H9 H -0.17900 0.47560 -0.07330
C17 C -0.4796(7) 0.3886(4) -0.0899(7)
H10 H -0.52540 0.34190 -0.13270
H11 H -0.49290 0.43170 -0.14920
H12 H -0.50750 0.40490 -0.02600
C18 C -0.1610(7) 0.5848(5) 0.2865(7)
H13 H -0.20440 0.56540 0.33590
H14 H -0.18640 0.63910 0.26010
H15 H -0.07320 0.58360 0.33620
S2 S 0.46058(12) 0.78384(8) 0.30356(12)
O8 O 0.5632(4) 0.9741(2) 0.1679(4)
Nd1A Nd -0.30994(2) 0.034071(16) 0.07526(2)
Nd1C Nd 0.30994(2) 0.965929(16) -0.07526(2)
Nd1B Nd 0.69006(2) 0.465929(16) 0.57526(2)
Nd1A* Nd 0.69006(2) 1.034071(16) 0.07526(2)
O4A O 0.1865(4) 0.6602(2) 0.4071(4)
O5C O 0.3781(3) 0.5726(2) 0.6477(3)
O6B O 0.3442(3) 0.4003(2) 0.5165(4)
O7A O 0.2124(4) 0.6224(2) 0.2333(4)
O8A O 0.4368(4) 0.4741(2) 0.3321(4)
#END
