
#######################################################################
#
#                 Cambridge Crystallographic Data Centre
#                                CCDC
#
#######################################################################
#
# If this CIF has been generated from an entry in the Cambridge
# Structural Database, then it will include bibliographic, chemical,
# crystal, experimental, refinement or atomic coordinate data resulting
# from the CCDC's data processing and validation procedures.
#
#######################################################################

data_CSD_CIF_IYOVIC
_audit_creation_date 2011-11-07
_audit_creation_method CSD-ConQuest-V1
_database_code_CSD IYOVIC
_database_code_depnum_ccdc_archive 'CCDC 822461'
_chemical_formula_sum 'C36 H30 Cl3 Eu3 N4 O16 S4'
_chemical_formula_moiety
;
(C24 H8 Cl3 Eu3 O16 S4 2-)n,2n(C6 H11 N2 1+)
;
_journal_coden_Cambridge 182
_journal_volume 47
_journal_year 2011
_journal_page_first 9834
_journal_name_full 'Chem.Commun. '
loop_
_publ_author_name
"Meng-Xi Wang"
"La-Sheng Long"
"Rong-Bin Huang"
"Lan-Sun Zheng"
_chemical_name_systematic
;
catena-(bis(3-Ethyl-1-methylimidazolium) 
bis(\m~4~-thiophene-2,5-dicarboxylato-O,O,O',O',O'',O''')-bis(\m~4~-thiophene-
2,5-dicarboxylato-O,O',O'',O''')-chloro-tri-europium)
;
_cell_volume   2372.418
_exptl_crystal_colour 'yellow'
_exptl_crystal_density_diffrn 2.082
_exptl_crystal_description 'hexagon'
_diffrn_ambient_temperature 173
_refine_special_details
;
C20 disordered by symmetry over two sites with occupancy 0.50; C17 disordered 
by symmetry over two sites with occupancy 0.50. The atom represented as Cl1 
is a mixed chloro:bromo site, with occupancies 0.75:0.25.
;
#These two values have been output from a single CSD field.
_refine_ls_R_factor_gt 0.0469
_refine_ls_wR_factor_gt 0.0469
_symmetry_cell_setting orthorhombic
_symmetry_space_group_name_H-M 'P 21 21 2'
_symmetry_Int_Tables_number 18
loop_
_symmetry_equiv_pos_site_id
_symmetry_equiv_pos_as_xyz
1 x,y,z
2 -x,-y,z
3 1/2-x,1/2+y,-z
4 1/2+x,1/2-y,-z
_cell_length_a 16.2850(5)
_cell_length_b 11.9314(3)
_cell_length_c 12.2099(4)
_cell_angle_alpha 90
_cell_angle_beta 90
_cell_angle_gamma 90
_cell_formula_units_Z 2
loop_
_atom_type_symbol
_atom_type_radius_bond
C 0.68
H 0.23
Br 1.21
Cl 0.99
Eu 1.73
N 0.68
O 0.68
S 1.02
loop_
_atom_site_label
_atom_site_type_symbol
_atom_site_fract_x
_atom_site_fract_y
_atom_site_fract_z
Eu1 Eu 0.00000 0.50000 0.19727(6)
Eu2 Eu -0.02955(3) 0.16060(4) 0.28216(4)
Br1? Br -0.0301(14) 0.195(2) 0.515(2)
Cl1 Cl -0.0127(11) 0.2045(19) 0.5000(16)
Cl2 Cl 0.00000 0.00000 0.1197(3)
S1 S -0.20987(17) 0.5208(2) 0.5209(2)
O1 O -0.0835(4) 0.3530(5) 0.3020(5)
O2 O -0.0773(4) 0.7359(6) 0.2153(7)
C1 C -0.3491(7) 0.5030(9) 0.6417(8)
O3 O -0.3316(5) 0.5995(5) 0.6776(6)
O4 O -0.4194(4) 0.4619(6) 0.6587(6)
O5 O -0.0860(5) 0.5284(6) 0.3574(7)
C2 C -0.1276(7) 0.6887(9) 0.1534(9)
O6 O -0.1241(5) 0.5868(6) 0.1282(6)
C3 C -0.2910(6) 0.4448(9) 0.5716(8)
C4 C -0.1800(7) 0.4097(9) 0.4429(9)
C5 C -0.1118(7) 0.4296(8) 0.3653(9)
C6 C -0.2935(7) 0.3394(10) 0.5285(9)
H1 H -0.33420 0.28540 0.54650
C7 C -0.1979(7) 0.7530(9) 0.1085(10)
S2 S -0.26672(18) 0.6854(2) 0.0236(3)
O7 O -0.4444(4) 0.8852(5) -0.0589(6)
O8 O -0.4056(5) 0.7180(6) -0.1187(6)
C8 C -0.3967(7) 0.8041(8) -0.0635(9)
C9 C -0.2892(7) 0.8939(9) 0.0646(9)
H2 H -0.31160 0.96740 0.06600
C10 C -0.3238(7) 0.8052(8) 0.0085(10)
C11 C -0.2290(7) 0.3197(8) 0.4543(9)
H3 H -0.22090 0.25090 0.41670
C12 C -0.2165(8) 0.8622(9) 0.1198(11)
H4 H -0.18380 0.91310 0.16080
N1 N 0.0204(8) 0.4148(9) -0.2351(9)
N2 N 0.0653(8) 0.9819(12) -0.2478(8)
C13 C 0.0122(10) 0.4475(11) -0.3428(10)
H5 H 0.02230 0.40240 -0.40560
C14 C 0.00000 1.00000 -0.3095(16)
H6 H 0.00000 1.00000 -0.38730
C15 C 0.0416(9) 0.9930(16) -0.1424(9)
H7 H 0.07640 0.99150 -0.07990
C16 C 0.0527(16) 0.3063(14) -0.1917(18)
H8 H 0.05410 0.31000 -0.11070
H9 H 0.01470 0.24530 -0.21260
H10 H 0.09580 0.29690 -0.20350
C17 C 0.134(2) 0.280(3) -0.231(3)
H11 H 0.15000 0.20550 -0.20460
H12 H 0.17290 0.33600 -0.20500
H13 H 0.13360 0.27950 -0.31170
C18 C 0.00000 0.50000 -0.1753(14)
H14 H 0.00000 0.50000 -0.09750
C19 C 0.1492(11) 0.9615(15) -0.2858(15)
H15 H 0.18920 0.99670 -0.23530
H16 H 0.15710 0.99370 -0.35980
H17 H 0.16050 0.90000 -0.29320
C20 C 0.162(3) 0.835(4) -0.289(4)
H18 H 0.21720 0.81780 -0.31430
H19 H 0.12140 0.80090 -0.33830
H20 H 0.15410 0.80400 -0.21480
Eu1B Eu -0.50000 1.00000 -0.19727(6)
Eu1B* Eu 0.50000 0.00000 -0.19727(6)
Eu2A Eu 0.02955(3) 0.83940(4) 0.28216(4)
Eu2A* Eu 0.02955(3) -0.16060(4) 0.28216(4)
Eu2B Eu -0.47045(3) 0.66060(4) 0.71784(4)
Eu2C Eu -0.52955(3) 0.33940(4) 0.71784(4)
Eu2B* Eu -0.47045(3) 0.66060(4) -0.28216(4)
Eu2C* Eu 0.47045(3) 0.33940(4) 0.71784(4)
Eu2B** Eu 0.52955(3) 0.66060(4) 0.71784(4)
Eu2C** Eu 0.47045(3) 0.33940(4) -0.28216(4)
Cl1A Cl 0.0127(11) 0.7955(19) 0.5000(16)
Cl2* Cl 0.00000 1.00000 0.1197(3)
S1A S 0.20987(17) 0.4792(2) 0.5209(2)
O1A O 0.0835(4) 0.6470(5) 0.3020(5)
O2A O 0.0773(4) 0.2641(6) 0.2153(7)
C1A C 0.3491(7) 0.4970(9) 0.6417(8)
O3A O 0.3316(5) 0.4005(5) 0.6776(6)
O3B O -0.1684(5) 0.0995(5) 0.3224(6)
O3C O 0.1684(5) 0.9005(5) 0.3224(6)
O4A O 0.4194(4) 0.5381(6) 0.6587(6)
O4B O -0.0806(4) -0.0381(6) 0.3413(6)
O4C O 0.0806(4) 0.0381(6) 0.3413(6)
O4C* O 0.0806(4) 1.0381(6) 0.3413(6)
O4B* O -0.0806(4) 0.9619(6) 0.3413(6)
O5A O 0.0860(5) 0.4716(6) 0.3574(7)
C2A C 0.1276(7) 0.3113(9) 0.1534(9)
O6A O 0.1241(5) 0.4132(6) 0.1282(6)
C3A C 0.2910(6) 0.5552(9) 0.5716(8)
C4A C 0.1800(7) 0.5903(9) 0.4429(9)
C5A C 0.1118(7) 0.5704(8) 0.3653(9)
C6A C 0.2935(7) 0.6606(10) 0.5285(9)
H1A H 0.33420 0.71460 0.54650
C7A C 0.1979(7) 0.2470(9) 0.1085(10)
S2A S 0.26672(18) 0.3146(2) 0.0236(3)
O7A O 0.4444(4) 0.1148(5) -0.0589(6)
O7B O -0.0556(4) 0.3852(5) 0.0589(6)
O7C O 0.0556(4) 0.6148(5) 0.0589(6)
O8A O 0.4056(5) 0.2820(6) -0.1187(6)
O8B O -0.0944(5) 0.2180(6) 0.1187(6)
O8C O 0.0944(5) 0.7820(6) 0.1187(6)
C8A C 0.3967(7) 0.1959(8) -0.0635(9)
C9A C 0.2892(7) 0.1061(9) 0.0646(9)
H2A H 0.31160 0.03260 0.06600
C10A C 0.3238(7) 0.1948(8) 0.0085(10)
C11A C 0.2290(7) 0.6803(8) 0.4543(9)
H3A H 0.22090 0.74910 0.41670
C12A C 0.2165(8) 0.1378(9) 0.1198(11)
H4A H 0.18380 0.08690 0.16080
N1A N -0.0204(8) 0.5852(9) -0.2351(9)
N2A N -0.0653(8) 1.0181(12) -0.2478(8)
C13A C -0.0122(10) 0.5525(11) -0.3428(10)
H5A H -0.02230 0.59760 -0.40560
C15A C -0.0416(9) 1.0070(16) -0.1424(9)
H7A H -0.07640 1.00850 -0.07990
C16A C -0.0527(16) 0.6937(14) -0.1917(18)
H8A H -0.05410 0.69000 -0.11070
H9A H -0.01470 0.75470 -0.21260
H10A H -0.09580 0.70310 -0.20350
C17A C -0.134(2) 0.720(3) -0.231(3)
H11A H -0.15000 0.79450 -0.20460
H12A H -0.17290 0.66400 -0.20500
H13A H -0.13360 0.72050 -0.31170
C19A C -0.1492(11) 1.0385(15) -0.2858(15)
H15A H -0.18920 1.00330 -0.23530
H16A H -0.15710 1.00630 -0.35980
H17A H -0.16050 1.10000 -0.29320
C20A C -0.162(3) 1.165(4) -0.289(4)
H18A H -0.21720 1.18220 -0.31430
H19A H -0.12140 1.19910 -0.33830
H20A H -0.15410 1.19600 -0.21480
#END
