
#######################################################################
#
#                 Cambridge Crystallographic Data Centre
#                                CCDC
#
#######################################################################
#
# If this CIF has been generated from an entry in the Cambridge
# Structural Database, then it will include bibliographic, chemical,
# crystal, experimental, refinement or atomic coordinate data resulting
# from the CCDC's data processing and validation procedures.
#
#######################################################################

data_CSD_CIF_IYUHIU
_audit_creation_date 2011-10-17
_audit_creation_method CSD-ConQuest-V1
_database_code_CSD IYUHIU
_database_code_depnum_ccdc_archive 'CCDC 813741'
_chemical_formula_sum 'C72 H70.5 In6 N7.5 O48'
_chemical_formula_moiety
;
(C63 H24 In6 O45 6-)n,6n(C1 H6 N1 1+),1.5n(C2 H5 N1 O1),1.5n(H2 O1)
;
_journal_coden_Cambridge 179
_journal_volume 50
_journal_year 2011
_journal_page_first 8858
_journal_name_full 'Angew.Chem.,Int.Ed. '
loop_
_publ_author_name
"Shou-Tian Zheng"
"J.J.Bu"
"Tao Wu"
"Chengtsung Chou"
"Pingyan Feng"
"Xianhui Bu"
_chemical_name_systematic
;
catena-(hexakis(methylammonium) 
tris(\m~4~-benzene-1,3,5-tricarboxylato)-tetrakis(\m~3~-benzene-1,3,5-tricarbo
xylato)-tris(\m~2~-hydroxo)-hexa-indium N-methylformamide solvate 
sesquihydrate)
;
_chemical_name_common
;
CPM-11
;
_cell_volume  12856.294
_exptl_crystal_colour 'colorless'
_exptl_crystal_density_diffrn 1.289
_exptl_crystal_description 'block'
_diffrn_ambient_temperature 296
_refine_special_details
;
C48 and C48A disordered over two sites with occupancies 0.25:0.25; Short C=O 
bond at O25.
;
#These two values have been output from a single CSD field.
_refine_ls_R_factor_gt 0.0816
_refine_ls_wR_factor_gt 0.0816
_symmetry_cell_setting orthorhombic
_symmetry_space_group_name_H-M 'P n m a'
_symmetry_Int_Tables_number 62
loop_
_symmetry_equiv_pos_site_id
_symmetry_equiv_pos_as_xyz
1 x,y,z
2 1/2-x,-y,1/2+z
3 -x,1/2+y,-z
4 1/2+x,1/2-y,1/2-z
5 -x,-y,-z
6 -1/2+x,y,-1/2-z
7 x,-1/2-y,z
8 -1/2-x,-1/2+y,-1/2+z
_cell_length_a 29.7560(9)
_cell_length_b 14.5284(4)
_cell_length_c 29.7388(9)
_cell_angle_alpha 90
_cell_angle_beta 90
_cell_angle_gamma 90
_cell_formula_units_Z 4
loop_
_atom_type_symbol
_atom_type_radius_bond
C 0.58
H 0.23
In 1.44
N 0.68
O 0.68
loop_
_atom_site_label
_atom_site_type_symbol
_atom_site_fract_x
_atom_site_fract_y
_atom_site_fract_z
In1 In 0.867443(18) 0.11917(4) 0.687982(18)
In2 In 1.093790(18) 0.11802(4) 0.922200(19)
In3 In 0.675713(19) -0.11798(4) 0.847115(18)
O1 O 0.7128(3) 0.0059(4) 0.8332(3)
O2 O 1.1376(3) -0.0770(5) 0.9360(3)
O3 O 1.0941(3) -0.0688(5) 0.6545(3)
O4 O 1.0740(2) -0.0068(4) 0.9529(2)
O5 O 1.1375(2) -0.0821(5) 0.7129(3)
O6 O 1.0978(2) 0.0487(5) 0.8559(2)
O7 O 0.8389(2) -0.0095(4) 0.7085(2)
O8 O 0.9352(2) 0.0527(4) 0.67888(19)
O9 O 1.0958(3) 0.25000 0.8933(3)
O10 O 0.8397(2) 0.1046(5) 0.4220(2)
O11 O 0.8961(3) 0.25000 0.6768(3)
O12 O 1.0300(2) 0.0951(5) 0.8722(2)
O13 O 0.7717(2) 0.1403(5) 0.4015(2)
O14 O 0.6464(3) -0.25000 0.8505(3)
O15 O 0.7267(2) -0.1735(4) 0.8020(2)
O16 O 0.91648(19) 0.0998(4) 0.7469(2)
O17 O 0.8198(2) 0.1725(4) 0.7365(2)
O18 O 0.9552(2) -0.1721(4) 1.0311(2)
O19 O 0.64668(19) 0.1368(5) 0.5204(2)
O20 O 0.6605(4) 0.0805(7) 0.8676(4)
O21 O 0.6681(2) 0.1135(4) 0.5905(2)
O22 O 0.8197(2) 0.1301(4) 0.6364(2)
O23 O 0.8777(2) 0.1156(5) 0.5903(2)
O24 O 0.8574(3) -0.0747(5) 0.6439(2)
C1 C 1.0569(3) 0.0611(6) 0.8448(3)
C2 C 0.7261(3) 0.1257(6) 0.5354(3)
C3 C 0.8378(4) -0.25000 0.6812(5)
C4 C 0.7516(3) 0.1663(5) 0.8004(3)
H1 H 0.76320 0.11060 0.79030
C5 C 1.0155(4) -0.25000 0.9977(4)
C6 C 1.0989(3) -0.0782(6) 0.9500(3)
C7 C 0.7915(3) -0.1671(5) 0.7352(3)
H2 H 0.78090 -0.11180 0.74680
C8 C 0.7579(3) 0.1237(6) 0.5679(3)
H3 H 0.74840 0.12330 0.59770
C9 C 0.7402(3) 0.1282(6) 0.4916(3)
H4 H 0.71880 0.13350 0.46900
C10 C 0.8042(3) 0.1222(5) 0.5595(3)
C11 C 0.7758(4) -0.25000 0.7530(4)
C12 C 0.7996(3) 0.1232(6) 0.4317(3)
C13 C 0.8231(3) -0.1660(5) 0.7002(3)
C14 C 1.0003(3) 0.0541(6) 0.7825(3)
H5 H 0.97870 0.07820 0.80180
C15 C 0.8058(4) 0.25000 0.7498(4)
C16 C 0.6957(3) 0.0793(7) 0.8461(4)
C17 C 0.8408(3) -0.0774(5) 0.6824(3)
C18 C 0.7846(3) 0.1233(5) 0.4799(3)
C19 C 0.8165(3) 0.1217(5) 0.5149(3)
H6 H 0.84690 0.12010 0.50760
C20 C 0.7703(4) 0.25000 0.7848(4)
C21 C 0.7401(4) -0.25000 0.7882(4)
C22 C 0.8377(3) 0.1222(5) 0.5974(3)
C23 C 0.6780(3) 0.1251(5) 0.5492(3)
C24 C 0.9720(4) -0.25000 1.0216(4)
C25 C 0.9897(3) 0.0366(6) 0.7376(3)
C26 C 1.0773(3) -0.1668(6) 0.9641(3)
C27 C 0.9447(3) 0.0632(6) 0.7199(3)
C28 C 1.0436(3) 0.0353(6) 0.7985(3)
C29 C 0.6993(4) 0.25000 0.8462(5)
H7 H 0.67620 0.25000 0.86730
C30 C 1.1006(3) -0.0607(6) 0.6951(3)
C31 C 1.0356(3) -0.1677(6) 0.9861(3)
H8 H 1.02140 -0.11250 0.99300
C32 C 1.0642(3) -0.0215(6) 0.7248(3)
C33 C 1.0976(5) -0.25000 0.9537(5)
H9 H 1.12540 -0.25000 0.93940
C34 C 0.7165(3) 0.1665(6) 0.8305(3)
C35 C 1.0749(3) -0.0020(6) 0.7693(3)
H10 H 1.10380 -0.01420 0.77970
C36 C 1.0215(3) -0.0006(6) 0.7090(3)
H11 H 1.01420 -0.01170 0.67910
O25 O 0.8930(6) -0.25000 1.1992(6)
N1 N 0.8248(13) -0.25000 1.1737(12)
C37 C 0.7802(10) -0.25000 1.1763(10)
C38 C 0.8638(10) -0.25000 1.2028(10)
O26 O 1.0111(5) -0.25000 1.3140(5)
N2 N 0.9449(5) -0.25000 1.2733(5)
C39 C 0.9903(6) -0.25000 1.2778(6)
C40 C 0.9183(9) -0.25000 1.3148(9)
N3 N 0.8128(6) 0.0635(14) 1.1439(6)
C41 C 0.7960(12) 0.013(3) 1.1813(12)
N4 N 0.9359(5) -0.0440(11) 0.5893(5)
C42 C 0.9600(17) -0.121(4) 0.6020(17)
N5 N 0.5458(9) -0.25000 1.0912(9)
C43 C 0.5584(19) -0.25000 1.0441(10)
N6 N 0.8111(7) -0.0467(16) 0.8522(8)
C44 C 0.8460(12) -0.011(3) 0.8205(12)
N7 N 0.910(1) 0.25000 1.2122(18)
C45 C 0.8613(10) 0.25000 1.212(2)
N8 N 0.5071(7) 0.091(2) 0.9184(10)
C46 C 0.5546(8) 0.072(3) 0.9124(15)
N9 N 0.7921(12) 0.146(6) 0.995(2)
C47 C 0.7449(14) 0.127(6) 1.003(3)
N10 N 1.0463(8) 0.0327(17) 1.0868(10)
C48 C 1.0263(19) 0.109(3) 1.111(2)
O27 O 1.0248(10) -0.25000 1.1374(10)
O28 O 0.8105(6) -0.25000 0.8796(6)
O29 O 0.8800(7) -0.25000 0.9414(7)
C49? C 1.0836(10) 0.051(2) 1.0568(11)
In1F In 0.867443(18) -0.61917(4) 0.687982(18)
In1F* In 0.867443(18) 0.38083(4) 0.687982(18)
In1E In 1.367443(18) 0.11917(4) 0.812018(18)
In1E* In 0.367443(18) 0.11917(4) 0.812018(18)
In2E In 0.593790(18) 0.11802(4) 0.577800(19)
In2F In 1.093790(18) 0.38198(4) 0.922200(19)
In2D In 0.906210(18) -0.11802(4) 1.077800(19)
In2B In 0.906210(18) -0.38198(4) 1.077800(19)
In2F* In 1.093790(18) -0.61802(4) 0.922200(19)
In3F In 0.675713(19) 0.61798(4) 0.847115(18)
In3E In 1.175713(19) -0.11798(4) 0.652885(18)
In3A In 0.824287(19) 0.11798(4) 0.347115(18)
In3F* In 0.675713(19) -0.38202(4) 0.847115(18)
In3D In 1.324287(19) 0.11798(4) 1.152885(18)
O1F O 0.7128(3) 0.4941(4) 0.8332(3)
O2F O 1.1376(3) -0.4230(5) 0.9360(3)
O3E O 0.5941(3) -0.0688(5) 0.8455(3)
O4F O 1.0740(2) -0.4932(4) 0.9529(2)
O4E O 0.5740(2) -0.0068(4) 0.5471(2)
O5E O 0.6375(2) -0.0821(5) 0.7871(3)
O5C O 0.6375(2) 0.5821(5) 0.7871(3)
O6E O 0.5978(2) 0.0487(5) 0.6441(2)
O7F O 0.8389(2) -0.4905(4) 0.7085(2)
O8E O 0.4352(2) 0.0527(4) 0.82112(19)
O8F O 0.9352(2) -0.5527(4) 0.67888(19)
O9C O 0.5958(3) 0.25000 0.6067(3)
O10E O 1.3397(2) 0.1046(5) 1.0780(2)
O10A O 0.6603(2) -0.1046(5) 0.9220(2)
O10G O 0.6603(2) 0.6046(5) 0.9220(2)
O11* O 0.8961(3) -0.75000 0.6768(3)
O12E O 0.5300(2) 0.0951(5) 0.6278(2)
O13E O 1.2717(2) 0.1403(5) 1.0985(2)
O13A O 0.7283(2) -0.1403(5) 0.9015(2)
O13G O 0.7283(2) 0.6403(5) 0.9015(2)
O14* O 0.6464(3) 0.75000 0.8505(3)
O15F O 0.7267(2) -0.3265(4) 0.8020(2)
O15F* O 0.7267(2) 0.6735(4) 0.8020(2)
O16E O 0.41648(19) 0.0998(4) 0.7531(2)
O16F O 0.91648(19) -0.5998(4) 0.7469(2)
O17F O 0.8198(2) 0.3275(4) 0.7365(2)
O17F* O 0.8198(2) -0.6725(4) 0.7365(2)
O18F O 0.9552(2) -0.3279(4) 1.0311(2)
O18D O 1.0448(2) 0.1721(4) 0.9689(2)
O18A O 0.5448(2) 0.1721(4) 0.5311(2)
O19E O 1.14668(19) 0.1368(5) 0.9796(2)
O20F O 0.6605(4) 0.4195(7) 0.8676(4)
O21E O 1.1681(2) 0.1135(4) 0.9095(2)
O22E O 1.3197(2) 0.1301(4) 0.8636(2)
O22F O 0.8197(2) -0.6301(4) 0.6364(2)
O23E O 1.3777(2) 0.1156(5) 0.9097(2)
O24F O 0.8574(3) -0.4253(5) 0.6439(2)
C1E C 0.5569(3) 0.0611(6) 0.6552(3)
C2E C 1.2261(3) 0.1257(6) 0.9646(3)
C4F C 0.7516(3) 0.3337(5) 0.8004(3)
H1F H 0.76320 0.38940 0.79030
C6F C 1.0989(3) -0.4218(6) 0.9500(3)
C7F C 0.7915(3) -0.3329(5) 0.7352(3)
H2F H 0.78090 -0.38820 0.74680
C8E C 1.2579(3) 0.1237(6) 0.9321(3)
H3E H 1.24840 0.12330 0.90230
C9E C 1.2402(3) 0.1282(6) 1.0084(3)
H4E H 1.21880 0.13350 1.03100
C10E C 1.3042(3) 0.1222(5) 0.9405(3)
C12E C 1.2996(3) 0.1232(6) 1.0683(3)
C13F C 0.8231(3) -0.3340(5) 0.7002(3)
C14E C 0.5003(3) 0.0541(6) 0.7175(3)
H5E H 0.47870 0.07820 0.69820
C16F C 0.6957(3) 0.4207(7) 0.8461(4)
C17F C 0.8408(3) -0.4226(5) 0.6824(3)
C18E C 1.2846(3) 0.1233(5) 1.0201(3)
C19E C 1.3165(3) 0.1217(5) 0.9851(3)
H6E H 1.34690 0.12010 0.99240
C22E C 1.3377(3) 0.1222(5) 0.9026(3)
C23E C 1.1780(3) 0.1251(5) 0.9508(3)
C25E C 0.4897(3) 0.0366(6) 0.7624(3)
C26F C 1.0773(3) -0.3332(6) 0.9641(3)
C27E C 0.4447(3) 0.0632(6) 0.7801(3)
C28E C 0.5436(3) 0.0353(6) 0.7015(3)
C30E C 0.6006(3) -0.0607(6) 0.8049(3)
C31F C 1.0356(3) -0.3323(6) 0.9861(3)
H8F H 1.02140 -0.38750 0.99300
C32E C 0.5642(3) -0.0215(6) 0.7752(3)
C34F C 0.7165(3) 0.3335(6) 0.8305(3)
C35E C 0.5749(3) -0.0020(6) 0.7307(3)
H10E H 0.60380 -0.01420 0.72030
C36E C 0.5215(3) -0.0006(6) 0.7910(3)
H11E H 0.51420 -0.01170 0.82090
#END
