
#######################################################################
#
#                 Cambridge Crystallographic Data Centre
#                                CCDC
#
#######################################################################
#
# If this CIF has been generated from an entry in the Cambridge
# Structural Database, then it will include bibliographic, chemical,
# crystal, experimental, refinement or atomic coordinate data resulting
# from the CCDC's data processing and validation procedures.
#
#######################################################################

data_CSD_CIF_IYUHOA
_audit_creation_date 2011-10-18
_audit_creation_method CSD-ConQuest-V1
_database_code_CSD IYUHOA
_database_code_depnum_ccdc_archive 'CCDC 813742'
_chemical_formula_sum 'C123 H135 In6 N6 O52.5'
_chemical_formula_moiety
;
(C99 H48 In6 O45 6-)n,6n(C4 H12 N1 1+),7.5n(H2 O1)
;
_journal_coden_Cambridge 179
_journal_volume 50
_journal_year 2011
_journal_page_first 8858
_journal_name_full 'Angew.Chem.,Int.Ed. '
loop_
_publ_author_name
"Shou-Tian Zheng"
"J.J.Bu"
"Tao Wu"
"Chengtsung Chou"
"Pingyan Feng"
"Xianhui Bu"
_chemical_name_systematic
;
catena-(hexakis(diethylammonium) 
tris(\m~4~-benzene-1,3,5-tricarboxylato)-bis(\m~3~-1,3,5-tris(4-carboxyphenyl)
benzene)-bis(\m~3~-benzene-1,3,5-tricarboxylato)-tris(\m~2~-hydroxo)-hexa-indi
um hydrate)
;
_chemical_name_common
;
CPM-12
;
_cell_volume   7615.162
_exptl_crystal_colour 'colorless'
_exptl_crystal_density_diffrn 1.4
_exptl_crystal_description 'block'
_diffrn_ambient_temperature 296
_refine_special_details
;
C36,C37A and C36A,C37 disordered over two sites with occupancies 0.50:0.50.

;
#These two values have been output from a single CSD field.
_refine_ls_R_factor_gt 0.0818
_refine_ls_wR_factor_gt 0.0818
_symmetry_cell_setting hexagonal
_symmetry_space_group_name_H-M 'P -3'
_symmetry_Int_Tables_number 147
loop_
_symmetry_equiv_pos_site_id
_symmetry_equiv_pos_as_xyz
1 x,y,z
2 -y,x-y,z
3 -x+y,-x,z
4 -x,-y,-z
5 y,-x+y,-z
6 x-y,x,-z
_cell_length_a 24.7273(2)
_cell_length_b 24.7273(2)
_cell_length_c 14.3812(3)
_cell_angle_alpha 90
_cell_angle_beta 90
_cell_angle_gamma 120
_cell_formula_units_Z 2
loop_
_atom_type_symbol
_atom_type_radius_bond
C 0.68
H 0.23
In 1.42
N 0.70
O 0.68
loop_
_atom_site_label
_atom_site_type_symbol
_atom_site_fract_x
_atom_site_fract_y
_atom_site_fract_z
In1 In -0.32978(3) 0.56106(3) 0.38717(6)
In2 In -0.67026(3) 0.44072(3) -0.11459(7)
O1 O -0.6301(3) 0.4552(4) 0.0190(6)
O2 O -0.2945(3) 0.5709(3) 0.2515(6)
O3 O -0.4107(3) 0.5546(4) 0.3120(7)
O4 O -0.5975(3) 0.4622(3) 0.5066(6)
O5 O -0.4201(3) 0.5443(3) 0.1560(6)
O6 O -0.6197(3) 0.5480(3) -0.1289(7)
O7 O -0.2617(4) 0.5031(3) 0.3845(9)
O8 O -0.6857(3) 0.4485(3) 0.4512(6)
O9 O -0.6995(3) 0.3362(3) -0.1199(6)
O10 O -0.2933(3) 0.6625(3) 0.4075(5)
O11 O -0.7200(3) 0.4992(3) -0.0972(5)
O12 O -0.7686(4) 0.3623(4) -0.0784(7)
O13 O -0.3637(3) 0.4627(3) 0.3842(7)
O14 O -0.2211(3) 0.6352(3) 0.4038(6)
O15 O -0.7062(4) 0.4534(4) 0.1014(6)
C1 C -0.6011(4) 0.4802(4) 0.3437(9)
C2 C -0.0847(4) 0.8231(3) 0.3506(6)
H1 H -0.04670 0.83390 0.32230
C3 C -0.5482(4) 0.5023(4) 0.1684(9)
H2 H -0.53080 0.50860 0.10930
C4 C -0.1298(4) 0.7609(4) 0.3586(7)
H3 H -0.12170 0.73010 0.33710
C5 C -0.5363(4) 0.5053(4) 0.3329(8)
H4 H -0.51100 0.51400 0.38510
C6 C -0.4405(4) 0.5414(4) 0.2384(11)
C7 C -0.1981(4) 0.7899(4) 0.4329(6)
H5 H -0.23640 0.77910 0.46010
C8 C -0.8624(5) 0.2351(4) -0.0651(8)
H6 H -0.86910 0.26430 -0.03450
C9 C -0.5104(4) 0.5169(4) 0.2461(10)
C10 C -0.1530(4) 0.8517(4) 0.4272(6)
H7 H -0.16070 0.88190 0.45200
C11 C -0.6125(5) 0.4782(4) 0.1786(9)
C12 C -0.6551(5) 0.4611(5) 0.0926(9)
C13 C -0.6380(4) 0.4680(4) 0.2669(8)
H8 H -0.68060 0.45290 0.27400
C14 C -0.2373(5) 0.6759(4) 0.4045(8)
C15 C -0.7570(6) 0.3208(5) -0.1014(9)
C16 C -0.6304(5) 0.4633(4) 0.4388(9)
C17 C -0.8059(5) 0.2533(4) -0.1030(7)
C18 C -0.0467(3) 0.9365(3) 0.3781(6)
C19 C -0.0952(3) 0.8701(4) 0.3844(6)
C20 C -0.1879(4) 0.7439(4) 0.3993(7)
C21 C 0.0174(4) 0.9544(3) 0.3764(6)
H9 H 0.02880 0.92380 0.37410
C22 C -0.7961(4) 0.2106(4) -0.1534(7)
H10 H -0.75810 0.22310 -0.18260
C23 C -0.6693(5) 0.5489(5) -0.1134(8)
C24 C -0.9108(4) 0.1733(4) -0.0708(6)
H11 H -0.94920 0.16150 -0.04310
C25 C -0.3152(5) 0.4573(5) 0.3829(10)
C26 C -0.8442(4) 0.1494(4) -0.1588(7)
H12 H -0.83750 0.12070 -0.19120
C27 C -0.7237(4) 0.6113(4) -0.1170(7)
C28 C -0.6677(4) 0.6102(4) -0.1162(6)
C29 C -0.3243(4) 0.3935(4) 0.3821(6)
C30 C -0.3839(4) 0.3426(4) 0.3814(7)
C31 C -0.9019(4) 0.1291(4) -0.1179(6)
C32 C -0.9518(4) 0.0636(4) -0.1216(6)
C33 C -1.0154(4) 0.0468(4) -0.1232(7)
H13 H -1.02560 0.07820 -0.12530
N1 N 0.0454(5) 0.7481(5) 0.2881(8)
N2 N -0.1328(5) 0.5675(5) 0.4236(8)
C34 C -0.0532(3) 0.6710(4) 0.3315(6)
C35 C 0.0133(3) 0.7101(5) 0.3470(8)
C36 C 0.0133(11) 0.7211(11) 0.1182(17)
C37 C 0.0115(9) 0.7650(9) 0.1929(13)
C38 C -0.1739(14) 0.5365(14) 0.593(2)
C39 C -0.1317(13) 0.5933(13) 0.5341(18)
C40 C -0.1100(8) 0.5241(8) 0.3954(12)
C41 C -0.1144(8) 0.5141(8) 0.2919(12)
O16 O -0.3508(5) 0.7038(5) 0.2642(7)
O17 O -0.1847(9) 0.5367(9) -0.0413(13)
O18? O -0.1572(13) 0.5745(13) -0.1321(19)
O19 O -0.2164(14) 0.4343(14) -0.126(2)
O20 O -0.4770(13) 0.5946(14) -0.0496(19)
C42? C 0.1309(9) 0.8543(9) 0.3300(13)
C43? C 0.1119(9) 0.7864(9) 0.3107(13)
In1C In -0.67022(3) 0.43894(3) 0.61283(6)
In1A In 0.43894(3) 1.10916(3) 0.38717(6)
In1A* In -0.56106(3) 0.10916(3) 0.38717(6)
In1B In -0.10916(3) 0.32978(3) 0.38717(6)
In1B* In -0.10916(3) 1.32978(3) 0.38717(6)
In1C* In -0.67022(3) 0.43894(3) -0.38717(6)
In1* In -0.32978(3) 0.56106(3) -0.61283(6)
In2C In -0.32974(3) 0.55928(3) 1.11459(7)
In2C* In -0.32974(3) 0.55928(3) 0.11459(7)
In2B In -0.88902(3) 0.67026(3) -0.11459(7)
In2A In -0.44072(3) 0.88902(3) -0.11459(7)
In2A* In -1.44072(3) -0.11098(3) -0.11459(7)
In2B* In -0.88902(3) -0.32974(3) -0.11459(7)
In2* In -0.67026(3) 0.44072(3) 0.88541(7)
O1C O -0.3699(3) 0.5448(4) 0.9810(6)
O1C* O -0.3699(3) 0.5448(4) -0.0190(6)
O2C O -0.7055(3) 0.4291(3) -0.2515(6)
O2C* O -0.7055(3) 0.4291(3) 0.7485(6)
O2A O 0.4291(3) 1.1346(3) 0.2515(6)
O2* O -0.2945(3) 0.5709(3) 1.2515(6)
O3C O -0.5893(3) 0.4454(4) 0.6880(7)
O3C* O -0.5893(3) 0.4454(4) -0.3120(7)
O3A O 0.4454(3) 1.0347(4) 0.3120(7)
O4C O -0.4025(3) 0.5378(3) 0.4934(6)
O4C* O -0.4025(3) 0.5378(3) -0.5066(6)
O4D O 0.4622(3) 1.0597(3) 0.4934(6)
O5C O -0.5799(3) 0.4557(3) 0.8440(6)
O5C* O -0.5799(3) 0.4557(3) -0.1560(6)
O5* O -0.4201(3) 0.5443(3) 1.1560(6)
O6B O -0.8323(3) 0.6197(3) -0.1289(7)
O6A O -0.5480(3) 0.8323(3) -0.1289(7)
O6C O -0.3803(3) 0.4520(3) 1.1289(7)
O6C* O -0.3803(3) 0.4520(3) 0.1289(7)
O7A O -0.5031(4) 0.2352(3) 0.3845(9)
O7B O -0.2352(4) 0.2617(3) 0.3845(9)
O8C O -0.3143(3) 0.5515(3) 0.5488(6)
O8C* O -0.3143(3) 0.5515(3) -0.4512(6)
O8D O 0.4485(3) 1.1342(3) 0.5488(6)
O9A O -1.3362(3) -0.0357(3) -0.1199(6)
O9B O -0.9643(3) -0.3005(3) -0.1199(6)
O9C O -0.3005(3) 0.6638(3) 1.1199(6)
O9C* O -0.3005(3) 0.6638(3) 0.1199(6)
O10A O 0.3375(3) 1.0442(3) 0.4075(5)
O10B O -0.0442(3) 1.2933(3) 0.4075(5)
O10C O -0.7067(3) 0.3375(3) 0.5925(5)
O11B O -0.7808(3) 0.7200(3) -0.0972(5)
O11A O -0.4992(3) 0.7808(3) -0.0972(5)
O11C O -0.2800(3) 0.5008(3) 1.0972(5)
O11C* O -0.2800(3) 0.5008(3) 0.0972(5)
O12A O -1.3623(4) -0.1309(4) -0.0784(7)
O12B O -0.8691(4) -0.2314(4) -0.0784(7)
O12C O -0.2314(4) 0.6377(4) 1.0784(7)
O12C* O -0.2314(4) 0.6377(4) 0.0784(7)
O13A O -0.4627(3) 0.1736(3) 0.3842(7)
O13B O -0.1736(3) 0.3637(3) 0.3842(7)
O13C O -0.6363(3) 0.5373(3) 0.6158(7)
O13A* O 0.5373(3) 1.1736(3) 0.3842(7)
O14A O 0.3648(3) 1.1437(3) 0.4038(6)
O14B O -0.1437(3) 1.2211(3) 0.4038(6)
O14C O -0.7789(3) 0.3648(3) 0.5962(6)
O15C O -0.2938(4) 0.5466(4) 0.8986(6)
O15C* O -0.2938(4) 0.5466(4) -0.1014(6)
C1C C -0.3989(4) 0.5198(4) 0.6563(9)
C1C* C -0.3989(4) 0.5198(4) -0.3437(9)
C2A C 0.1769(4) 1.0922(3) 0.3506(6)
C2B C -0.0922(4) 1.0847(3) 0.3506(6)
H1A H 0.16610 1.11940 0.32230
H1B H -0.11940 1.04670 0.32230
C3C C -0.4518(4) 0.4977(4) 0.8316(9)
C3C* C -0.4518(4) 0.4977(4) -0.1684(9)
H2C H -0.46920 0.49140 0.89070
H2C* H -0.46920 0.49140 -0.10930
C4A C 0.2391(4) 1.1093(4) 0.3586(7)
C4B C -0.1093(4) 1.1298(4) 0.3586(7)
H3A H 0.26990 1.14820 0.33710
H3B H -0.14820 1.12170 0.33710
C5C C -0.4637(4) 0.4947(4) 0.6671(8)
C5C* C -0.4637(4) 0.4947(4) -0.3329(8)
H4C H -0.48900 0.48600 0.61490
H4C* H -0.48900 0.48600 -0.38510
C6C C -0.5595(4) 0.4586(4) 0.7616(11)
C6C* C -0.5595(4) 0.4586(4) -0.2384(11)
C7A C 0.2101(4) 1.0120(4) 0.4329(6)
C7B C -0.0120(4) 1.1981(4) 0.4329(6)
H5A H 0.22090 0.98450 0.46010
H5B H 0.01550 1.23640 0.46010
C8A C -1.2351(5) -0.0975(4) -0.0651(8)
C8B C -0.9025(5) -0.1376(4) -0.0651(8)
H6A H -1.26430 -0.13340 -0.03450
H6B H -0.86660 -0.13090 -0.03450
C9C C -0.4896(4) 0.4831(4) 0.7539(10)
C9C* C -0.4896(4) 0.4831(4) -0.2461(10)
C10A C 0.1483(4) 0.9953(4) 0.4272(6)
C10B C 0.0047(4) 1.1530(4) 0.4272(6)
H7A H 0.11810 0.95740 0.45200
H7B H 0.04260 1.16070 0.45200
C11C C -0.3875(5) 0.5218(4) 0.8214(9)
C11C* C -0.3875(5) 0.5218(4) -0.1786(9)
C12C C -0.3449(5) 0.5389(5) 0.9074(9)
C12C* C -0.3449(5) 0.5389(5) -0.0926(9)
C13C C -0.3620(4) 0.5320(4) 0.7331(8)
C13C* C -0.3620(4) 0.5320(4) -0.2669(8)
H8C H -0.31940 0.54710 0.72600
H8C* H -0.31940 0.54710 -0.27400
C14A C 0.3241(5) 1.0868(4) 0.4045(8)
C14B C -0.0868(5) 1.2373(4) 0.4045(8)
C15A C -1.3208(6) -0.0778(5) -0.1014(9)
C15B C -0.9222(6) -0.2430(5) -0.1014(9)
C16C C -0.3696(5) 0.5367(4) 0.5612(9)
C16C* C -0.3696(5) 0.5367(4) -0.4388(9)
C17A C -1.2533(5) -0.0592(4) -0.1030(7)
C17B C -0.9408(5) -0.1941(4) -0.1030(7)
C18A C 0.0635(3) 1.0168(3) 0.3781(6)
C18B C -0.0168(3) 1.0467(3) 0.3781(6)
C19A C 0.1299(3) 1.0347(4) 0.3844(6)
C19B C -0.0347(3) 1.0952(4) 0.3844(6)
C20A C 0.2561(4) 1.0682(4) 0.3993(7)
C20B C -0.0682(4) 1.1879(4) 0.3993(7)
C21A C 0.0456(4) 1.0630(3) 0.3764(6)
C21B C -0.0630(4) 0.9826(3) 0.3764(6)
H9B H -0.10500 0.97120 0.37410
H9A H 0.07620 1.10500 0.37410
C22A C -1.2106(4) -0.0067(4) -0.1534(7)
C22B C -0.9933(4) -0.2039(4) -0.1534(7)
H10A H -1.22310 0.01880 -0.18260
H10B H -1.01880 -0.24190 -0.18260
C23B C -0.7818(5) 0.6693(5) -0.1134(8)
C23A C -0.5489(5) 0.7818(5) -0.1134(8)
C24A C -1.1733(4) -0.0841(4) -0.0708(6)
C24B C -0.9159(4) -0.0892(4) -0.0708(6)
H11A H -1.16150 -0.11070 -0.04310
H11B H -0.88930 -0.05080 -0.04310
C25A C -0.4573(5) 0.2275(5) 0.3829(10)
C25B C -0.2275(5) 0.3152(5) 0.3829(10)
C26A C -1.1494(4) 0.0064(4) -0.1588(7)
C26B C -1.0064(4) -0.1558(4) -0.1588(7)
H12A H -1.12070 0.04180 -0.19120
H12B H -1.04180 -0.16250 -0.19120
C27B C -0.6650(4) 0.7237(4) -0.1170(7)
C27A C -0.6113(4) 0.6650(4) -0.1170(7)
C28B C -0.7221(4) 0.6677(4) -0.1162(6)
C28A C -0.6102(4) 0.7221(4) -0.1162(6)
C29A C -0.3935(4) 0.2822(4) 0.3821(6)
C29B C -0.2822(4) 0.3243(4) 0.3821(6)
C30A C -0.3426(4) 0.2735(4) 0.3814(7)
C30B C -0.2735(4) 0.3839(4) 0.3814(7)
C31A C -1.1291(4) -0.0310(4) -0.1179(6)
C31B C -0.9690(4) -0.0981(4) -0.1179(6)
C32A C -1.0636(4) -0.0154(4) -0.1216(6)
C32B C -0.9846(4) -0.0482(4) -0.1216(6)
C33A C -1.0468(4) -0.0622(4) -0.1232(7)
C33B C -0.9378(4) 0.0154(4) -0.1232(7)
H13B H -0.89620 0.02560 -0.12530
H13A H -1.07820 -0.10380 -0.12530
#END
