
#######################################################################
#
#                 Cambridge Crystallographic Data Centre
#                                CCDC
#
#######################################################################
#
# If this CIF has been generated from an entry in the Cambridge
# Structural Database, then it will include bibliographic, chemical,
# crystal, experimental, refinement or atomic coordinate data resulting
# from the CCDC's data processing and validation procedures.
#
#######################################################################

data_CSD_CIF_IZAKOL
_audit_creation_date 2016-11-11
_audit_creation_method CSD-ConQuest-V1
_database_code_CSD IZAKOL
_database_code_depnum_ccdc_archive 'CCDC 1499771'
_chemical_formula_sum 'C3 H7 N1 Ne0.99 Ni1 O6'
_chemical_formula_moiety
;
(C3 H3 Ni1 O6 1-)n,H4 N1 1+,0.99(Ne1)
;
_journal_coden_Cambridge 1353
_journal_volume 17
_journal_year 2016
_journal_page_first 3369
_journal_name_full 'ChemPhysChem '
loop_
_publ_author_name
"I.E.Collings"
"E.Bykova"
"M.Bykov"
"S.Petitgirard"
"M.Hanfland"
"D.Paliwoda"
"L.Dubrovinsky"
"N.Dubrovinskaia"
_chemical_name_systematic
;
catena-[ammonium tris(\m-formato)-nickel neon]
;
_cell_volume    360.331
_exptl_crystal_colour 'green'
_exptl_crystal_density_diffrn 2.138
_exptl_crystal_description 'hexagonal bipyramid'
_diffrn_ambient_temperature 293
_diffrn_ambient_pressure 1410000.0
_diffrn_radiation_probe x-ray
_diffrn_source synchrotron
_refine_special_details
;
H1 disordered by symmetry over three configurations with occupancy 0.6667.

;
#These two values have been output from a single CSD field.
_refine_ls_R_factor_gt 0.0354
_refine_ls_wR_factor_gt 0.0354
_symmetry_cell_setting hexagonal
_symmetry_space_group_name_H-M 'P 63 2 2'
_symmetry_Int_Tables_number 182
loop_
_symmetry_equiv_pos_site_id
_symmetry_equiv_pos_as_xyz
1 x,y,z
2 -y,x-y,z
3 -x+y,-x,z
4 -x,-y,1/2+z
5 y,-x+y,1/2+z
6 x-y,x,1/2+z
7 y,x,-z
8 x-y,-y,-z
9 -x,-x+y,-z
10 -y,-x,1/2-z
11 -x+y,y,1/2-z
12 x,x-y,1/2-z
_cell_length_a 7.1890(3)
_cell_length_b 7.1890(3)
_cell_length_c 8.0507(2)
_cell_angle_alpha 90
_cell_angle_beta 90
_cell_angle_gamma 120
_cell_formula_units_Z 2
loop_
_atom_type_symbol
_atom_type_radius_bond
C 0.68
H 0.23
N 0.68
Ne 0.68
Ni 1.24
O 0.68
loop_
_atom_site_label
_atom_site_type_symbol
_atom_site_fract_x
_atom_site_fract_y
_atom_site_fract_z
Ni1 Ni 0.33330 0.66670 0.75000
O1 O 0.3071(6) 0.8891(6) 0.8935(3)
C1 C 0.444(1) 1.00000 1.00000
H1 H 0.57340 1.00000 1.00000
Ne1 Ne 0.66670 0.33330 0.75000
N1 N 1.00000 1.00000 0.75000
H2? H 0.893(7) 0.97(2) 0.677(4)
O1G O 0.4180(6) 1.1109(6) 1.1065(3)
O1A O 0.1109(6) 0.4180(6) 0.8935(3)
C1A C 0.000(1) 0.44400 1.00000
H1A H 0.00000 0.57340 1.00000
O1F O -0.1109(6) 0.3071(6) 1.1065(3)
O1B O 0.5820(6) 0.6929(6) 0.8935(3)
C1B C 0.556(1) 0.55600 1.00000
H1B H 0.42660 0.42660 1.00000
O1H O 0.6929(6) 0.5820(6) 1.1065(3)
Ni1C Ni -0.33330 0.33330 1.25000
Ni1C* Ni 0.66670 0.33330 1.25000
Ni1C** Ni 0.66670 1.33330 1.25000
O1I O 0.1109(6) 0.6929(6) 0.6065(3)
O1J O 0.5820(6) 0.8891(6) 0.6065(3)
O1K O 0.3071(6) 0.4180(6) 0.6065(3)
#END
