
#######################################################################
#
#                 Cambridge Crystallographic Data Centre
#                                CCDC
#
#######################################################################
#
# If this CIF has been generated from an entry in the Cambridge
# Structural Database, then it will include bibliographic, chemical,
# crystal, experimental, refinement or atomic coordinate data resulting
# from the CCDC's data processing and validation procedures.
#
#######################################################################

data_CSD_CIF_IZAPIL
_audit_creation_date 2021-08-04
_audit_creation_method CSD-ConQuest-V1
_database_code_CSD IZAPIL
_database_code_depnum_ccdc_archive 'CCDC 2059684'
_chemical_formula_sum 'C96 H98 N20 O28 Zn4'
_chemical_formula_moiety
;
(C86 H74 N16 O24 Zn4 2-)n,n(C10 H16 N4 2+),4n(H2 O1)
;
_journal_coden_Cambridge 574
_journal_volume 195
_journal_year 2021
_journal_page_first 109695
_journal_name_full 'Dyes Pigm. '
loop_
_publ_author_name
"Guang-Li Wang"
"Jun Wang"
"Luyi Zhou"
"Mi Zhou"
"Xiaoxiong Wang"
"Shan-He Zhou"
"Lu Lu"
"M.Trivedi"
"A.Kumar"
_chemical_name_systematic
;
catena-(3,3',5,5'-tetramethyl-1H,1'H-4,4'-bi-(pyrazol-2-ium) 
bis(\m-3,5-bis(3,4-dicarboxylatophenoxy)benzoate)-tetrakis(\m-3,3',5,5'-tetram
ethyl-1H,1'H-4,4'-bipyrazole)-tetra-zinc tetrahydrate)
;
_cell_volume  10542.177
_exptl_crystal_description 'block'
_diffrn_ambient_temperature 273.1
_refine_special_details
;
The MASK/OLEX2 program was used to model the disordered water molecules.

;
#These two values have been output from a single CSD field.
_refine_ls_R_factor_gt 0.0826
_refine_ls_wR_factor_gt 0.0826
_symmetry_cell_setting monoclinic
_symmetry_space_group_name_H-M 'P 21/c'
_symmetry_Int_Tables_number 14
loop_
_symmetry_equiv_pos_site_id
_symmetry_equiv_pos_as_xyz
1 x,y,z
2 -x,1/2+y,1/2-z
3 -x,-y,-z
4 x,-1/2-y,-1/2+z
_cell_length_a 29.903(3)
_cell_length_b 10.3266(9)
_cell_length_c 34.323(3)
_cell_angle_alpha 90
_cell_angle_beta 95.926(3)
_cell_angle_gamma 90
_cell_formula_units_Z 4
loop_
_atom_type_symbol
_atom_type_radius_bond
C 0.68
H 0.23
N 0.68
O 0.68
Zn 1.22
loop_
_atom_site_label
_atom_site_type_symbol
_atom_site_fract_x
_atom_site_fract_y
_atom_site_fract_z
Zn1 Zn 0.00519(3) 0.96829(7) 0.29804(2)
Zn2 Zn 0.23289(2) 0.69857(8) 0.55953(2)
Zn3 Zn 0.26215(3) 0.29017(8) 0.44808(2)
Zn4 Zn 0.49874(3) 1.00796(7) 0.69890(2)
O1 O 0.01408(17) 0.8059(4) 0.32716(13)
O2 O -0.0452(2) 0.7452(5) 0.28768(15)
O3 O 0.0064(2) 0.5339(6) 0.25820(15)
O4 O -0.0448(4) 0.3886(7) 0.25673(17)
O5 O -0.0186(2) 0.2562(5) 0.40001(13)
O6 O -0.1363(2) 0.2114(8) 0.48731(19)
O7 O -0.1040(2) 0.2055(8) 0.5472(2)
O8 O 0.05792(18) 0.2862(7) 0.53209(17)
O9 O 0.26357(16) 0.1811(5) 0.49350(14)
O10 O 0.25148(16) 0.0943(5) 0.54941(14)
O11 O 0.25366(18) 0.4039(5) 0.54670(19)
O12 O 0.19849(17) 0.5433(5) 0.54844(16)
O13 O 0.22625(15) 0.8063(4) 0.51310(13)
O14 O 0.23943(17) 0.9004(5) 0.45795(15)
O15 O 0.23644(19) 0.5880(5) 0.46001(18)
O16 O 0.29325(19) 0.4504(5) 0.45807(18)
O17 O 0.4326(2) 0.7056(10) 0.4742(2)
O18 O 0.5883(3) 0.7991(9) 0.4508(3)
O19 O 0.6265(3) 0.7930(14) 0.5054(4)
O20 O 0.5203(3) 0.7259(5) 0.60316(15)
O21 O 0.55240(19) 0.5757(6) 0.74478(14)
O22 O 0.48944(16) 0.4629(4) 0.74459(12)
O23 O 0.53543(18) 0.2394(4) 0.71574(14)
O24 O 0.48434(16) 0.1688(4) 0.67062(13)
N1 N -0.19533(18) 1.1909(5) 0.40807(15)
N2 N -0.19696(18) 1.0609(5) 0.40875(16)
H1 H -0.21300 1.01730 0.42350
N3 N -0.0802(2) 1.1133(5) 0.28704(16)
H2 H -0.07330 1.13260 0.26400
N4 N -0.05343(19) 1.0430(5) 0.31281(15)
N5 N 0.05195(19) 1.0997(5) 0.31751(15)
N6 N 0.0621(2) 1.1982(5) 0.29403(17)
H3 H 0.05030 1.20740 0.27030
N7 N 0.17597(19) 1.4145(6) 0.42011(17)
H4 H 0.18370 1.48040 0.43460
N8 N 0.20176(19) 1.3090(6) 0.41784(16)
N9 N 0.29480(18) 0.6782(5) 0.58653(15)
N10 N 0.31847(18) 0.5701(6) 0.58425(16)
H5 H 0.30920 0.50410 0.57050
N11 N 0.45059(18) 0.8772(5) 0.68060(15)
N12 N 0.43946(19) 0.7840(5) 0.70530(15)
H6 H 0.45210 0.77520 0.72880
N13 N 0.55972(18) 0.9496(5) 0.68315(15)
N14 N 0.58969(19) 0.8862(5) 0.70830(16)
H7 H 0.58480 0.86430 0.73170
N15 N 0.70044(19) 0.9493(6) 0.58237(17)
H8 H 0.71630 0.99290 0.56750
N16 N 0.69840(19) 0.8191(5) 0.58260(17)
C1 C 0.5205(3) 0.5140(6) 0.72744(19)
C2 C 0.5177(2) 0.5026(6) 0.68317(18)
C3 C 0.5211(2) 0.6129(7) 0.66190(18)
H9 H 0.52580 0.69180 0.67470
C4 C 0.5174(3) 0.6084(6) 0.62125(19)
C5 C 0.5111(3) 0.4921(6) 0.60146(19)
H10 H 0.50960 0.48820 0.57430
C6 C 0.5069(2) 0.3824(6) 0.62354(18)
H11 H 0.50180 0.30380 0.61060
C7 C 0.5101(2) 0.3836(6) 0.66437(17)
C8 C 0.5098(2) 0.2569(6) 0.68557(18)
C9 C 0.5144(3) 0.7325(7) 0.5620(2)
C10 C 0.4727(3) 0.7146(9) 0.5404(3)
H12 H 0.44740 0.69690 0.55310
C11 C 0.4695(3) 0.7235(9) 0.4996(3)
C12 C 0.5078(3) 0.7528(8) 0.4818(2)
H13 H 0.50590 0.76260 0.45480
C13 C 0.5470(3) 0.7668(9) 0.5029(2)
C14 C 0.5512(3) 0.7561(7) 0.5427(2)
H14 H 0.57940 0.76490 0.55680
C15 C 0.5912(4) 0.7872(12) 0.4849(3)
C16 C 0.3887(3) 0.7235(12) 0.4860(3)
C17 C 0.3782(3) 0.8422(11) 0.4994(3)
H15 H 0.40070 0.90150 0.50730
C18 C 0.3328(3) 0.8741(9) 0.5012(2)
H16 H 0.32510 0.95550 0.50990
C19 C 0.2994(2) 0.7841(7) 0.48980(18)
C20 C 0.3111(3) 0.6613(8) 0.47839(19)
C21 C 0.3562(3) 0.6328(10) 0.4767(2)
H17 H 0.36440 0.55050 0.46900
C22 C 0.2516(2) 0.8314(6) 0.4865(2)
C23 C 0.2762(3) 0.5602(7) 0.4648(2)
C24 C 0.2142(2) 0.4338(7) 0.54214(19)
C25 C 0.1794(2) 0.3320(7) 0.5289(2)
C26 C 0.1910(2) 0.2098(7) 0.51713(19)
C27 C 0.1126(3) 0.1523(11) 0.5064(3)
H18 H 0.09030 0.09420 0.49700
C28 C 0.1014(3) 0.2655(10) 0.5215(3)
C29 C 0.1334(2) 0.3590(9) 0.5305(2)
H19 H 0.12470 0.44130 0.53770
C30 C 0.2391(2) 0.1606(6) 0.52054(19)
C31 C 0.1571(2) 0.1217(8) 0.5048(2)
H20 H 0.16480 0.04110 0.49550
C32 C 0.0208(3) 0.2642(9) 0.5052(2)
C33 C -0.0190(3) 0.2432(8) 0.5202(2)
H21 H -0.01960 0.23790 0.54720
C34 C -0.0572(3) 0.2299(7) 0.49659(19)
C35 C -0.0568(2) 0.2373(6) 0.4572(2)
H22 H -0.08400 0.23160 0.44150
C36 C -0.0182(3) 0.2526(6) 0.43965(19)
C37 C 0.0225(3) 0.2681(8) 0.4644(2)
H23 H 0.04960 0.28060 0.45380
C38 C -0.1019(2) 0.2139(7) 0.5144(2)
C39 C -0.0203(3) 0.3739(6) 0.38083(19)
C40 C -0.0210(3) 0.3668(7) 0.34093(19)
H24 H -0.02240 0.28650 0.32860
C41 C -0.0196(2) 0.4790(6) 0.31870(17)
C42 C -0.0160(2) 0.5992(6) 0.33728(17)
C43 C -0.0153(3) 0.6016(6) 0.37762(18)
H25 H -0.01260 0.68110 0.39040
C44 C -0.0185(2) 0.4920(6) 0.39963(18)
H26 H -0.01940 0.49720 0.42660
C45 C -0.0160(3) 0.7225(6) 0.31497(19)
C46 C -0.0187(3) 0.4659(8) 0.2751(2)
C47 C -0.0567(2) 0.9590(7) 0.37940(18)
H27 H -0.06620 0.87030 0.37730
H28 H -0.06700 0.99690 0.40240
H29 H -0.02450 0.96300 0.38130
C48 C -0.0759(2) 1.0320(6) 0.34402(18)
C49 C -0.1169(2) 1.0958(6) 0.33791(18)
C50 C -0.1180(3) 1.1500(7) 0.30055(19)
C51 C -0.1523(3) 1.2302(10) 0.2776(2)
H30 H -0.14080 1.31630 0.27500
H31 H -0.17900 1.23340 0.29080
H32 H -0.15920 1.19280 0.25210
C52 C -0.1558(3) 1.3576(7) 0.3735(2)
H33 H -0.17580 1.38900 0.35180
H34 H -0.12540 1.36280 0.36710
H35 H -0.15910 1.40940 0.39620
C53 C -0.1669(2) 1.2210(7) 0.38163(19)
C54 C -0.1505(2) 1.1075(6) 0.36621(18)
C55 C -0.1710(2) 1.0072(7) 0.3842(2)
C56 C -0.1682(3) 0.8632(7) 0.3796(2)
H36 H -0.14590 0.82920 0.39900
H37 H -0.16020 0.84300 0.35400
H38 H -0.19690 0.82530 0.38310
C57 C 0.0759(3) 1.0342(9) 0.3858(2)
H39 H 0.04910 1.05060 0.39810
H40 H 0.10170 1.04940 0.40430
H41 H 0.07600 0.94590 0.37710
C58 C 0.0774(2) 1.1221(7) 0.3518(2)
C59 C 0.1030(2) 1.2352(6) 0.3490(2)
C60 C 0.0924(3) 1.2796(6) 0.3115(2)
C61 C 0.1095(3) 1.3939(8) 0.2909(2)
H42 H 0.10380 1.38170 0.26310
H43 H 0.14120 1.40290 0.29800
H44 H 0.09430 1.47060 0.29840
C62 C 0.1032(3) 1.5103(9) 0.3947(3)
H45 H 0.10280 1.55120 0.41980
H46 H 0.07410 1.47430 0.38670
H47 H 0.11050 1.57330 0.37580
C63 C 0.1372(2) 1.4059(7) 0.3975(2)
C64 C 0.1374(2) 1.2884(7) 0.37901(19)
C65 C 0.1782(2) 1.2313(7) 0.3920(2)
C66 C 0.1955(3) 1.1022(8) 0.3801(3)
H48 H 0.22330 1.11410 0.36890
H49 H 0.17390 1.06290 0.36110
H50 H 0.20040 1.04730 0.40270
C67 C 0.3908(3) 0.4697(8) 0.6080(3)
H51 H 0.38150 0.40320 0.62500
H52 H 0.41980 0.50180 0.61820
H53 H 0.39260 0.43450 0.58230
C68 C 0.3583(2) 0.5753(6) 0.6058(2)
C69 C 0.3606(2) 0.6968(6) 0.62285(19)
C70 C 0.3201(2) 0.7573(7) 0.6103(2)
C71 C 0.3046(3) 0.8881(8) 0.6215(3)
H54 H 0.30100 0.94250 0.59870
H55 H 0.32640 0.92560 0.64070
H56 H 0.27630 0.88030 0.63230
C72 C 0.4261(3) 0.9418(8) 0.6123(2)
H57 H 0.43010 1.03020 0.62060
H58 H 0.39850 0.93390 0.59540
H59 H 0.45080 0.91580 0.59840
C73 C 0.4241(2) 0.8568(6) 0.64735(18)
C74 C 0.3966(2) 0.7498(6) 0.65146(18)
C75 C 0.4070(2) 0.7078(6) 0.68943(19)
C76 C 0.3878(3) 0.6010(8) 0.7114(2)
H60 H 0.40420 0.52260 0.70790
H61 H 0.35680 0.58870 0.70180
H62 H 0.39000 0.62250 0.73870
C77 C 0.6664(3) 0.7939(11) 0.7145(3)
H63 H 0.67530 0.83940 0.73840
H64 H 0.69110 0.79150 0.69870
H65 H 0.65780 0.70700 0.72040
C78 C 0.6278(3) 0.8614(7) 0.6928(2)
C79 C 0.6222(2) 0.9123(6) 0.65469(19)
C80 C 0.5798(2) 0.9665(6) 0.65041(19)
C81 C 0.5566(3) 1.0354(7) 0.6156(2)
H66 H 0.52460 1.02640 0.61560
H67 H 0.56580 0.99850 0.59210
H68 H 0.56440 1.12560 0.61690
C82 C 0.6570(3) 0.6531(7) 0.6169(2)
H69 H 0.66110 0.60070 0.59440
H70 H 0.62610 0.64980 0.62200
H71 H 0.67570 0.62080 0.63920
C83 C 0.6696(2) 0.7887(7) 0.6092(2)
C84 C 0.6551(2) 0.9036(7) 0.62564(19)
C85 C 0.6754(2) 1.0029(7) 0.6075(2)
C86 C 0.6742(3) 1.1467(8) 0.6136(3)
H72 H 0.69650 1.18720 0.59950
H73 H 0.68050 1.16560 0.64100
H74 H 0.64500 1.17920 0.60430
N17 N 0.3559(4) 0.5112(11) 0.2496(4)
H75 H 0.38400 0.49460 0.24890
N18 N 0.3218(5) 0.4627(12) 0.2226(3)
H76 H 0.32480 0.41070 0.20350
N19 N 0.2234(5) 0.8503(16) 0.3020(5)
H77 H 0.21300 0.92780 0.30270
N20 N 0.2129(4) 0.7413(17) 0.3259(4)
H78 H 0.19370 0.74350 0.34280
C87 C 0.3691(4) 0.6422(15) 0.3076(4)
H79 H 0.39760 0.59880 0.30940
H80 H 0.35610 0.63290 0.33190
H81 H 0.37330 0.73250 0.30230
C88 C 0.3397(4) 0.5864(13) 0.2766(4)
C89 C 0.2929(4) 0.5928(12) 0.2671(4)
C90 C 0.2829(4) 0.5145(15) 0.2328(4)
C91 C 0.2402(6) 0.473(2) 0.2127(5)
H82 H 0.23050 0.53430 0.19260
H83 H 0.21820 0.46780 0.23110
H84 H 0.24370 0.38940 0.20120
C92 C 0.2348(5) 0.5064(17) 0.3373(5)
H85 H 0.23900 0.43810 0.31900
H86 H 0.20570 0.49810 0.34650
H87 H 0.25760 0.50090 0.35910
C93 C 0.2380(4) 0.6314(17) 0.3179(4)
C94 C 0.2616(3) 0.6655(14) 0.2871(3)
C95 C 0.2526(4) 0.8053(16) 0.2791(4)
C96 C 0.2689(6) 0.8864(17) 0.2492(6)
H88 H 0.29550 0.93140 0.25990
H89 H 0.24610 0.94820 0.24020
H90 H 0.27590 0.83350 0.22760
Zn1A Zn -0.00519(3) 0.46829(7) 0.20196(2)
Zn2B Zn -0.23289(2) 1.30143(8) 0.44047(2)
Zn3* Zn 0.26215(3) 1.29017(8) 0.44808(2)
Zn3B Zn 0.73785(3) 0.70983(8) 0.55192(2)
Zn4* Zn 0.49874(3) 0.00796(7) 0.69890(2)
Zn4A Zn 0.50126(3) 0.50796(7) 0.80110(2)
O3A O -0.0064(2) 1.0339(6) 0.24180(15)
O4A O 0.0448(4) 0.8886(7) 0.24327(17)
O22A O 0.51056(16) 0.9629(4) 0.75541(12)
O24* O 0.48434(16) 1.1688(4) 0.67062(13)
N1B N 0.19533(18) 0.8091(5) 0.59193(15)
N8* N 0.20176(19) 0.3090(6) 0.41784(16)
N16B N 0.30160(19) 0.1809(5) 0.41740(17)
#END
