
#######################################################################
#
#                 Cambridge Crystallographic Data Centre
#                                CCDC
#
#######################################################################
#
# If this CIF has been generated from an entry in the Cambridge
# Structural Database, then it will include bibliographic, chemical,
# crystal, experimental, refinement or atomic coordinate data resulting
# from the CCDC's data processing and validation procedures.
#
#######################################################################

data_CSD_CIF_IZEDUP
_audit_creation_date 2021-08-04
_audit_creation_method CSD-ConQuest-V1
_database_code_CSD IZEDUP
_database_code_depnum_ccdc_archive 'CCDC 2086200'
_chemical_formula_sum 'C64 H62 Mn2 N8 O12'
_chemical_formula_moiety
;
(C48 H32 Mn2 N4 O12 2-)n,2(C8 H15 N2 1+)
;
_journal_coden_Cambridge 182
_journal_volume 57
_journal_year 2021
_journal_page_first 8468
_journal_name_full 'Chem.Commun. '
loop_
_publ_author_name
"Jian-Hua Qin"
"Peng Xu"
"Ya-Dan Huang"
"Lu-Yao Xiao"
"Weiwei Lu"
"Xiao-Gang Yang"
"Lu-Fang Ma"
"Shuang-Quan Zang"
_chemical_name_systematic
;
catena-[bis(1-butyl-3-methyl-1H-imidazol-3-ium) 
(\m-4,4',4'',4'''-(porphyrinato-5,10,15,20-tetrayl)tetrabenzoato)-tetraaqua-di
-manganese(ii)]
;
_cell_volume   3223.633
_exptl_crystal_colour 'violet'
_exptl_crystal_description 'block'
_diffrn_ambient_temperature 293.2
_refine_special_details
;
Disordered 1-butyl-3-methyl-1H-imidazol-3-ium cations were not modelled and 
the disordered density was taken into account using the SQUEEZE/PLATON 
procedure.
;
#These two values have been output from a single CSD field.
_refine_ls_R_factor_gt 0.0416
_refine_ls_wR_factor_gt 0.0416
_symmetry_cell_setting monoclinic
_symmetry_space_group_name_H-M 'C 2/m'
_symmetry_Int_Tables_number 12
loop_
_symmetry_equiv_pos_site_id
_symmetry_equiv_pos_as_xyz
1 x,y,z
2 -x,y,-z
3 1/2+x,1/2+y,z
4 1/2-x,1/2+y,-z
5 -x,-y,-z
6 x,-y,z
7 -1/2-x,-1/2-y,-z
8 -1/2+x,-1/2-y,z
_cell_length_a 14.0571(5)
_cell_length_b 17.3975(6)
_cell_length_c 13.7185(5)
_cell_angle_alpha 90
_cell_angle_beta 106.085(4)
_cell_angle_gamma 90
_cell_formula_units_Z 2
loop_
_atom_type_symbol
_atom_type_radius_bond
C 0.68
H 0.23
Mn 1.61
N 0.68
O 0.68
loop_
_atom_site_label
_atom_site_type_symbol
_atom_site_fract_x
_atom_site_fract_y
_atom_site_fract_z
Mn1 Mn 1.00000 1.00000 0.50000
Mn2 Mn 0.50000 0.50000 0.00000
O1 O 0.58318(11) 0.59006(9) 0.09823(11)
O2 O 0.49367(11) 0.60923(9) 0.20702(13)
O3 O 1.05692(17) 1.00000 0.36264(16)
H1 H 1.0440(19) 1.0410(11) 0.3285(18)
O4 O 0.38566(15) 0.50000 0.08568(16)
H2 H 0.4032(18) 0.5373(11) 0.1259(17)
N1 N 1.00000 0.88453(11) 0.50000
N2 N 0.86312(15) 1.00000 0.40313(16)
C1 C 0.71879(16) 0.96143(13) 0.28891(18)
H3 H 0.66930 0.92979 0.25013
C2 C 0.80902(14) 0.93677(11) 0.35962(15)
C3 C 0.83699(13) 0.8603(1) 0.37818(13)
C4 C 0.92653(12) 0.83685(10) 0.44446(13)
C5 C 0.95542(14) 0.75851(10) 0.46623(14)
H4 H 0.91880 0.71537 0.43841
C6 C 0.76739(14) 0.79929(11) 0.32400(15)
C7 C 0.7808(2) 0.76334(16) 0.2399(2)
H5 H 0.83384 0.77716 0.21541
C8 C 0.7158(2) 0.70651(16) 0.1911(2)
H6 H 0.72603 0.68257 0.13419
C9 C 0.63714(14) 0.68503(11) 0.22490(14)
C10 C 0.62352(18) 0.72113(14) 0.30795(18)
H7 H 0.57033 0.70729 0.33217
C11 C 0.68765(18) 0.77809(14) 0.35683(18)
H8 H 0.67647 0.80245 0.41298
C12 C 0.56527(15) 0.62324(11) 0.17214(14)
O1A O 1.41682(11) 0.59006(9) 0.90177(11)
O2A O 1.50633(11) 0.60923(9) 0.79298(13)
N2A N 1.13688(15) 1.00000 0.59687(16)
C1A C 1.28121(16) 0.96143(13) 0.71109(18)
H3A H 1.33070 0.92979 0.74987
C2A C 1.19098(14) 0.93677(11) 0.64038(15)
C3A C 1.16301(13) 0.8603(1) 0.62182(13)
C4A C 1.07347(12) 0.83685(10) 0.55554(13)
C5A C 1.04458(14) 0.75851(10) 0.53377(14)
H4A H 1.08120 0.71537 0.56159
C6A C 1.23261(14) 0.79929(11) 0.67600(15)
C7A C 1.2192(2) 0.76334(16) 0.7601(2)
H5A H 1.16616 0.77716 0.78458
C8A C 1.2842(2) 0.70651(16) 0.8089(2)
H6A H 1.27397 0.68257 0.86581
C9A C 1.36286(14) 0.68503(11) 0.77510(14)
C10A C 1.37648(18) 0.72113(14) 0.69205(18)
H7A H 1.42967 0.70729 0.66783
C11A C 1.31235(18) 0.77809(14) 0.64317(18)
H8A H 1.32353 0.80245 0.58702
C12A C 1.43473(15) 0.62324(11) 0.82786(14)
O1E O 0.58318(11) 1.40994(9) 0.09823(11)
O2E O 0.49367(11) 1.39077(9) 0.20702(13)
N1D N 1.00000 1.11547(11) 0.50000
C1E C 0.71879(16) 1.03857(13) 0.28891(18)
H3E H 0.66930 1.07021 0.25013
C2E C 0.80902(14) 1.06323(11) 0.35962(15)
C3E C 0.83699(13) 1.1397(1) 0.37818(13)
C4E C 0.92653(12) 1.16315(10) 0.44446(13)
C5E C 0.95542(14) 1.24149(10) 0.46623(14)
H4E H 0.91880 1.28463 0.43841
C6E C 0.76739(14) 1.20071(11) 0.32400(15)
C7E C 0.7808(2) 1.23666(16) 0.2399(2)
H5E H 0.83384 1.22283 0.21541
C8E C 0.7158(2) 1.29349(16) 0.1911(2)
H6E H 0.72603 1.31743 0.13419
C9E C 0.63714(14) 1.31497(11) 0.22490(14)
C10E C 0.62352(18) 1.27887(14) 0.30795(18)
H7E H 0.57033 1.29271 0.33217
C11E C 0.68765(18) 1.22191(14) 0.35683(18)
H8E H 0.67647 1.19755 0.41298
C12E C 0.56527(15) 1.37676(11) 0.17214(14)
O1D O 1.41682(11) 1.40994(9) 0.90177(11)
O2D O 1.50633(11) 1.39077(9) 0.79298(13)
C1D C 1.28121(16) 1.03857(13) 0.71109(18)
H3D H 1.33070 1.07021 0.74987
C2D C 1.19098(14) 1.06323(11) 0.64038(15)
C3D C 1.16301(13) 1.1397(1) 0.62182(13)
C4D C 1.07347(12) 1.16315(10) 0.55554(13)
C5D C 1.04458(14) 1.24149(10) 0.53377(14)
H4D H 1.08120 1.28463 0.56159
C6D C 1.23261(14) 1.20071(11) 0.67600(15)
C7D C 1.2192(2) 1.23666(16) 0.7601(2)
H5D H 1.16616 1.22283 0.78458
C8D C 1.2842(2) 1.29349(16) 0.8089(2)
H6D H 1.27397 1.31743 0.86581
C9D C 1.36286(14) 1.31497(11) 0.77510(14)
C10D C 1.37648(18) 1.27887(14) 0.69205(18)
H7D H 1.42967 1.29271 0.66783
C11D C 1.31235(18) 1.22191(14) 0.64317(18)
H8D H 1.32353 1.19755 0.58702
C12D C 1.43473(15) 1.37676(11) 0.82786(14)
H1E H 1.0440(19) 0.9590(11) 0.3285(18)
H2E H 0.4032(18) 0.4627(11) 0.1259(17)
O4A O 0.61434(15) 0.50000 -0.08568(16)
H2A H 0.5968(18) 0.5373(11) -0.1259(17)
H2D H 0.5968(18) 0.4627(11) -0.1259(17)
O3A O 0.94308(17) 1.00000 0.63736(16)
H1A H 0.9560(19) 1.0410(11) 0.6715(18)
H1D H 0.9560(19) 0.9590(11) 0.6715(18)
Mn2* Mn 0.50000 1.50000 0.00000
Mn2** Mn 1.50000 0.50000 1.00000
Mn2*** Mn 1.50000 1.50000 1.00000
O1A* O 0.41682(11) 0.59006(9) -0.09823(11)
O1D* O 0.41682(11) 0.40994(9) -0.09823(11)
O1E* O 0.58318(11) 0.40994(9) 0.09823(11)
#END
