
#######################################################################
#
#                 Cambridge Crystallographic Data Centre
#                                CCDC
#
#######################################################################
#
# If this CIF has been generated from an entry in the Cambridge
# Structural Database, then it will include bibliographic, chemical,
# crystal, experimental, refinement or atomic coordinate data resulting
# from the CCDC's data processing and validation procedures.
#
#######################################################################

data_CSD_CIF_IZEVAM
_audit_creation_date 2016-11-13
_audit_creation_method CSD-ConQuest-V1
_database_code_CSD IZEVAM
_database_code_depnum_ccdc_archive 'CCDC 1502576'
_chemical_formula_sum 'C12 H31 Cl6 Cu7 N8 O4'
_chemical_formula_moiety
;
(C6 H12 Cl6 Cu4 N4 2-)n,n(C6 H13 Cu3 N4 O1 2+),3n(H2 O1)
;
_journal_coden_Cambridge 1147
_journal_volume 16
_journal_year 2016
_journal_page_first 7139
_journal_name_full 'Cryst.Growth Des. '
loop_
_publ_author_name
"Lan-Xia Hu"
"Fei Wang"
"Yao Kang"
"Jian Zhang"
_chemical_name_systematic
;
catena-[(\m-hydroxo)-(\m-1,3,5,7-tetraazatricyclo[3.3.1.1^3,7^]decane)-tri-cop
per 
hexakis(\m-chloro)-(\m-1,3,5,7-tetraazatricyclo[3.3.1.1^3,7^]decane)-tetra-cop
per trihydrate]
;
_cell_volume   1203.730
_exptl_crystal_colour 'light yellow'
_exptl_crystal_density_diffrn 2.747
_exptl_crystal_description 'Prism'
_diffrn_ambient_temperature 293
_diffrn_special_details
;
twin

;
#These two values have been output from a single CSD field.
_refine_ls_R_factor_gt 0.0955
_refine_ls_wR_factor_gt 0.0955
_symmetry_cell_setting hexagonal
_symmetry_space_group_name_H-M 'P 63 m c'
_symmetry_Int_Tables_number 186
loop_
_symmetry_equiv_pos_site_id
_symmetry_equiv_pos_as_xyz
1 x,y,z
2 -y,x-y,z
3 -x+y,-x,z
4 -x,-y,1/2+z
5 y,-x+y,1/2+z
6 x-y,x,1/2+z
7 -y,-x,z
8 -x+y,y,z
9 x,x-y,z
10 y,x,1/2+z
11 x-y,-y,1/2+z
12 -x,-x+y,1/2+z
_cell_length_a 9.4218(3)
_cell_length_b 9.4218(3)
_cell_length_c 15.6578(10)
_cell_angle_alpha 90
_cell_angle_beta 90
_cell_angle_gamma 120
_cell_formula_units_Z 2
loop_
_atom_type_symbol
_atom_type_radius_bond
C 0.68
H 0.23
Cl 0.99
Cu 1.32
N 0.68
O 0.68
loop_
_atom_site_label
_atom_site_type_symbol
_atom_site_fract_x
_atom_site_fract_y
_atom_site_fract_z
Cu1 Cu 0.5488(2) 0.0976(4) 0.2005(2)
Cu2 Cu 0.66670 0.33330 0.3902(5)
Cl1 Cl 0.5255(3) 0.0510(7) 0.3496(4)
Cl2 Cl 0.3828(9) 0.1914(4) 0.1427(5)
N1 N 0.4217(10) -0.157(2) 0.1572(10)
C1 C 0.2509(13) -0.2509(13) 0.1874(12)
H1 H 0.19180 -0.19450 0.17370
H2 H 0.25740 -0.25550 0.24850
C2 C 0.4171(9) -0.1657(19) 0.0611(10)
H3 H 0.53600 -0.11760 0.05820
N2 N 0.33330 -0.33330 0.028(2)
O1 O 0.4058(19) 0.2029(9) 0.3103(13)
Cu3 Cu 0.2057(6) 0.7943(6) 0.4516(10)
O2 O 0.33330 0.66670 0.467(3)
C3 C -0.0837(12) 0.833(2) 0.453(2)
H4 H -0.08910 0.82090 0.51400
H5 H -0.13800 0.72300 0.42940
N3 N 0.0868(15) 0.9132(15) 0.4273(18)
C4 C 0.0850(11) 0.9150(11) 0.3288(15)
H6 H 0.02910 0.80540 0.30650
N4 N 0.00000 1.00000 0.309(3)
N1A N 0.157(1) -0.4213(20) 0.1572(10)
C1A C 0.2509(13) -0.4982(13) 0.1874(12)
H1A H 0.19450 -0.61370 0.17370
H2A H 0.25550 -0.48710 0.24850
C2A C 0.1657(9) -0.4172(19) 0.0611(10)
H3A H 0.11760 -0.34640 0.05820
N1B N 0.4213(10) -0.4217(20) 0.1572(10)
C1B C 0.4982(13) -0.2509(13) 0.1874(12)
H1B H 0.61370 -0.19180 0.17370
H2B H 0.48710 -0.25740 0.24850
C2B C 0.4172(9) -0.4171(19) 0.0611(10)
H3B H 0.34640 -0.53600 0.05820
H3F H 0.11760 -0.53600 0.05820
H3G H 0.34640 -0.11760 0.05820
H3H H 0.53600 -0.34640 0.05820
Cu1A Cu -0.0976(2) -0.5488(4) 0.2005(2)
Cl1A Cl -0.0510(3) -0.5255(7) 0.3496(4)
Cl2A Cl -0.1914(9) -0.8086(4) 0.1427(5)
Cu1B Cu -0.4512(2) -0.5488(4) 0.2005(2)
Cl1B Cl -0.4745(3) -0.5255(7) 0.3496(4)
Cl2B Cl -0.1914(9) -0.3828(4) 0.1427(5)
Cu1* Cu -0.4512(2) -0.9024(4) 0.2005(2)
Cu1B* Cu 0.5488(2) -0.5488(4) 0.2005(2)
Cu1B** Cu 0.5488(2) 0.4512(4) 0.2005(2)
Cu2* Cu -0.33330 -0.66670 0.3902(5)
Cu2C Cu 0.33330 -0.33330 -0.1098(5)
Cl1A* Cl 0.9490(3) 0.4745(7) 0.3496(4)
Cl1B* Cl 0.5255(3) 0.4745(7) 0.3496(4)
Cl2* Cl -0.6172(9) -0.8086(4) 0.1427(5)
Cl2A* Cl 0.8086(9) 0.1914(4) 0.1427(5)
N1B* N -0.5787(10) -0.4217(20) 0.1572(10)
N2C N 0.66670 0.33330 0.528(2)
C3A C 0.1670(12) 1.0833(20) 0.453(2)
H4A H 0.17910 1.09000 0.51400
H5A H 0.27700 1.13900 0.42940
N3A N 0.0868(15) 1.1736(15) 0.4273(18)
C4A C 0.0850(11) 1.1700(11) 0.3288(15)
H6A H 0.19460 1.22370 0.30650
C3B C -0.0833(12) 1.0837(20) 0.453(2)
H4B H -0.09000 1.08910 0.51400
H5B H -0.13900 1.13800 0.42940
N3B N -0.1736(15) 0.9132(15) 0.4273(18)
C4B C -0.1700(11) 0.9150(11) 0.3288(15)
H6B H -0.22370 0.97090 0.30650
H6F H 0.19460 0.97090 0.30650
H6G H -0.22370 0.80540 0.30650
H6H H 0.02910 1.22370 0.30650
Cu3A Cu 0.2057(6) 0.4114(6) 0.4516(10)
Cu3B Cu -0.4114(6) 0.7943(6) 0.4516(10)
Cu3A* Cu 0.2057(6) 1.4114(6) 0.4516(10)
Cu3B* Cu 0.5886(6) 0.7943(6) 0.4516(10)
O2* O -0.66670 0.66670 0.467(3)
N3A* N 0.0868(15) 0.1736(15) 0.4273(18)
#END
