
#######################################################################
#
#                 Cambridge Crystallographic Data Centre
#                                CCDC
#
#######################################################################
#
# If this CIF has been generated from an entry in the Cambridge
# Structural Database, then it will include bibliographic, chemical,
# crystal, experimental, refinement or atomic coordinate data resulting
# from the CCDC's data processing and validation procedures.
#
#######################################################################

data_CSD_CIF_IZIDOM
_audit_creation_date 2016-11-14
_audit_creation_method CSD-ConQuest-V1
_database_code_CSD IZIDOM
_database_code_depnum_ccdc_archive 'CCDC 1506140'
_chemical_formula_sum 'C3 H8 Fe1 N2 O6'
_chemical_formula_moiety
;
(C3 H3 Fe1 O6 1-)n,n(H5 N2 1+)
;
_journal_coden_Cambridge 1326
_journal_volume 18
_journal_year 2016
_journal_page_first 31653
_journal_name_full 'Phys.Chem.Chem.Phys.(PCCP) '
loop_
_publ_author_name
"M.Maczka"
"K.Pasinska"
"M.Ptak"
"W.Paraguassu"
"T.A.da Silva"
"A.Sieradzki"
"A.Pikul"
_chemical_name_systematic
;
catena-(hydrazinium tris(\m-formato)-iron)
;
_cell_volume    808.836
_exptl_crystal_colour 'light brown'
_exptl_crystal_density_diffrn 1.839
_exptl_special_details
;
Pnma polymorph

;
_exptl_crystal_description 'block'
_diffrn_ambient_temperature 360
_refine_special_details
;
N2 disordered by symmetry over two configurations with occupancy 0.5.

;
#These two values have been output from a single CSD field.
_refine_ls_R_factor_gt 0.0282
_refine_ls_wR_factor_gt 0.0282
_symmetry_cell_setting orthorhombic
_symmetry_space_group_name_H-M 'P n m a'
_symmetry_Int_Tables_number 62
loop_
_symmetry_equiv_pos_site_id
_symmetry_equiv_pos_as_xyz
1 x,y,z
2 1/2-x,-y,1/2+z
3 1/2+x,1/2-y,1/2-z
4 -x,1/2+y,-z
5 -x,-y,-z
6 -1/2+x,y,-1/2-z
7 -1/2-x,-1/2+y,-1/2+z
8 x,-1/2-y,z
_cell_length_a 8.736(3)
_cell_length_b 11.763(4)
_cell_length_c 7.871(3)
_cell_angle_alpha 90
_cell_angle_beta 90
_cell_angle_gamma 90
_cell_formula_units_Z 4
loop_
_atom_type_symbol
_atom_type_radius_bond
C 0.68
H 0.23
Fe 1.52
N 0.68
O 0.68
loop_
_atom_site_label
_atom_site_type_symbol
_atom_site_fract_x
_atom_site_fract_y
_atom_site_fract_z
Fe1 Fe 0.50000 0.00000 0.50000
O1 O 0.46464(18) 0.15617(13) 0.36613(19)
O2 O 0.40243(18) 0.06791(12) 0.72685(17)
O3 O 0.21747(17) 0.06654(13) 0.91839(17)
C1 C 0.4724(4) 0.25000 0.4378(4)
H1 H 0.48510 0.25000 0.55510
C2 C 0.2804(3) 0.0324(2) 0.7858(3)
H2 H 0.23110 -0.02510 0.72580
N1 N 0.4310(6) 0.25000 1.0119(4)
N2 N 0.5801(7) 0.2835(7) 0.9823(7)
H3 H 0.382(4) 0.190(2) 0.970(4)
H4 H 0.407(6) 0.25000 1.120(3)
H5 H 0.574(9) 0.306(5) 0.876(4)
H6 H 0.635(5) 0.25000 1.056(5)
O1G O 0.46464(18) 0.34383(13) 0.36613(19)
O2D O 0.59757(18) -0.06791(12) 0.27315(17)
O3D O 0.78253(17) -0.06654(13) 0.08161(17)
C2D C 0.7196(3) -0.0324(2) 0.2142(3)
H2D H 0.76890 0.02510 0.27420
Fe1A Fe 0.00000 0.00000 1.00000
Fe1A* Fe 1.00000 0.00000 0.00000
Fe1C Fe 0.50000 0.50000 0.50000
O1D O 0.53536(18) -0.15617(13) 0.63387(19)
O3A O 0.28253(17) -0.06654(13) 0.41839(17)
O3E O 0.71747(17) 0.06654(13) 0.58161(17)
N2G N 0.5801(7) 0.2165(7) 0.9823(7)
H3G H 0.382(4) 0.310(2) 0.970(4)
H5G H 0.574(9) 0.194(5) 0.876(4)
#END
