
#######################################################################
#
#                 Cambridge Crystallographic Data Centre
#                                CCDC
#
#######################################################################
#
# If this CIF has been generated from an entry in the Cambridge
# Structural Database, then it will include bibliographic, chemical,
# crystal, experimental, refinement or atomic coordinate data resulting
# from the CCDC's data processing and validation procedures.
#
#######################################################################

data_CSD_CIF_IZIDIG01
_audit_creation_date 2016-11-14
_audit_creation_method CSD-ConQuest-V1
_database_code_CSD IZIDIG01
_database_code_depnum_ccdc_archive 'CCDC 1506141'
_chemical_formula_sum 'C3 H8 Fe1 N2 O6'
_chemical_formula_moiety
;
(C3 H3 Fe1 O6 1-)n,n(H5 N2 1+)
;
_journal_coden_Cambridge 1326
_journal_volume 18
_journal_year 2016
_journal_page_first 31653
_journal_name_full 'Phys.Chem.Chem.Phys.(PCCP) '
loop_
_publ_author_name
"M.Maczka"
"K.Pasinska"
"M.Ptak"
"W.Paraguassu"
"T.A.da Silva"
"A.Sieradzki"
"A.Pikul"
_chemical_name_systematic
;
catena-(hydrazinium tris(\m-formato)-iron)
;
_cell_volume    416.552
_exptl_crystal_colour 'green'
_exptl_crystal_density_diffrn 1.786
_exptl_special_details
;
P63 polymorph

;
_exptl_crystal_description 'block'
_diffrn_ambient_temperature 360
_refine_special_details
;
N1,N2 disordered by symmetry over three configurations with occupancy 0.3333.

;
#These two values have been output from a single CSD field.
_refine_ls_R_factor_gt 0.0295
_refine_ls_wR_factor_gt 0.0295
_symmetry_cell_setting hexagonal
_symmetry_space_group_name_H-M 'P 63'
_symmetry_Int_Tables_number 173
loop_
_symmetry_equiv_pos_site_id
_symmetry_equiv_pos_as_xyz
1 x,y,z
2 x-y,x,1/2+z
3 -y,x-y,z
4 -x,-y,1/2+z
5 -x+y,-x,z
6 y,-x+y,1/2+z
_cell_length_a 7.946(3)
_cell_length_b 7.946(3)
_cell_length_c 7.618(3)
_cell_angle_alpha 90
_cell_angle_beta 90
_cell_angle_gamma 120
_cell_formula_units_Z 2
loop_
_atom_type_symbol
_atom_type_radius_bond
C 0.68
H 0.23
Fe 1.52
N 0.68
O 0.68
loop_
_atom_site_label
_atom_site_type_symbol
_atom_site_fract_x
_atom_site_fract_y
_atom_site_fract_z
Fe1 Fe -0.33330 -0.66670 -0.2682(4)
O1 O -0.3154(4) -0.4357(4) -0.4224(3)
O2 O -0.4356(4) -0.3158(4) -0.6145(3)
C1 C -0.4443(6) -0.4439(5) -0.5182(9)
H1 H -0.56170 -0.56050 -0.51740
N1 N -0.076(6) -0.026(8) -0.336(4)
H2 H -0.18540 -0.13130 -0.35050
H3 H -0.09570 0.06280 -0.29120
N2 N 0.047(4) -0.028(5) -0.214(3)
H4 H 0.14010 -0.04010 -0.26690
H5 H -0.01830 -0.12780 -0.14100
H6 H 0.10020 0.08240 -0.15280
O1B O -0.5643(4) -0.8797(4) -0.4224(3)
O2B O -0.6842(4) -1.1198(4) -0.6145(3)
C1B C -0.5561(6) -1.0004(5) -0.5182(9)
H1B H -0.43950 -1.00120 -0.51740
O1D O -0.1203(4) -0.6846(4) -0.4224(3)
O2D O 0.1198(4) -0.5644(4) -0.6145(3)
C1D C 0.0004(6) -0.5557(5) -0.5182(9)
H1D H 0.00120 -0.43830 -0.51740
Fe1A Fe -0.66660 -1.33330 -0.7682(4)
Fe1A* Fe -0.66660 -0.33330 -0.7682(4)
Fe1A** Fe 0.33340 -0.33330 -0.7682(4)
O2A O -0.1198(4) -0.4356(4) -0.1145(3)
O2C O -0.5644(4) -0.6842(4) -0.1145(3)
O2E O -0.3158(4) -0.8802(4) -0.1145(3)
N1B N 0.026(6) -0.050(8) -0.336(4)
H2B H 0.13130 -0.05410 -0.35050
H3B H -0.06280 -0.15850 -0.29120
N2B N 0.028(4) 0.075(5) -0.214(3)
H4B H 0.04010 0.18020 -0.26690
H5B H 0.12780 0.10950 -0.14100
H6B H -0.08240 0.01780 -0.15280
N1D N 0.050(6) 0.076(8) -0.336(4)
H2D H 0.05410 0.18540 -0.35050
H3D H 0.15850 0.09570 -0.29120
N2D N -0.075(4) -0.047(5) -0.214(3)
H4D H -0.18020 -0.14010 -0.26690
H5D H -0.10950 0.01830 -0.14100
H6D H -0.01780 -0.10020 -0.15280
#END
