
#######################################################################
#
#                 Cambridge Crystallographic Data Centre
#                                CCDC
#
#######################################################################
#
# If this CIF has been generated from an entry in the Cambridge
# Structural Database, then it will include bibliographic, chemical,
# crystal, experimental, refinement or atomic coordinate data resulting
# from the CCDC's data processing and validation procedures.
#
#######################################################################

data_CSD_CIF_IZIDIG
_audit_creation_date 2016-11-14
_audit_creation_method CSD-ConQuest-V1
_database_code_CSD IZIDIG
_database_code_depnum_ccdc_archive 'CCDC 1506139'
_chemical_formula_sum 'C3 H8 Fe1 N2 O6'
_chemical_formula_moiety
;
(C3 H3 Fe1 O6 1-)n,n(H5 N2 1+)
;
_journal_coden_Cambridge 1326
_journal_volume 18
_journal_year 2016
_journal_page_first 31653
_journal_name_full 'Phys.Chem.Chem.Phys.(PCCP) '
loop_
_publ_author_name
"M.Maczka"
"K.Pasinska"
"M.Ptak"
"W.Paraguassu"
"T.A.da Silva"
"A.Sieradzki"
"A.Pikul"
_chemical_name_systematic
;
catena-(hydrazinium tris(\m-formato)-iron)
;
_cell_volume    799.288
_exptl_crystal_colour 'light brown'
_exptl_crystal_density_diffrn 1.861
_exptl_special_details
;
Pna21 polymorph

;
_exptl_crystal_description 'block'
_diffrn_ambient_temperature 290
#These two values have been output from a single CSD field.
_refine_ls_R_factor_gt 0.02
_refine_ls_wR_factor_gt 0.02
_symmetry_cell_setting orthorhombic
_symmetry_space_group_name_H-M 'P n a 21'
_symmetry_Int_Tables_number 33
loop_
_symmetry_equiv_pos_site_id
_symmetry_equiv_pos_as_xyz
1 x,y,z
2 -x,-y,1/2+z
3 1/2-x,1/2+y,1/2+z
4 1/2+x,1/2-y,z
_cell_length_a 8.811(3)
_cell_length_b 7.782(3)
_cell_length_c 11.657(4)
_cell_angle_alpha 90
_cell_angle_beta 90
_cell_angle_gamma 90
_cell_formula_units_Z 4
loop_
_atom_type_symbol
_atom_type_radius_bond
C 0.68
H 0.23
Fe 1.52
N 0.68
O 0.68
loop_
_atom_site_label
_atom_site_type_symbol
_atom_site_fract_x
_atom_site_fract_y
_atom_site_fract_z
Fe1 Fe -0.52617(4) -0.49974(6) -0.11111(11)
O1 O -0.3112(2) -0.4188(3) -0.1774(2)
O2 O -0.1244(2) -0.2292(3) -0.1785(2)
O3 O -0.4261(3) -0.7264(3) -0.04228(19)
O4 O -0.2384(2) -0.9159(3) -0.0405(2)
O5 O -0.5547(3) -0.6402(3) -0.26797(18)
O6 O -0.5155(3) -0.6360(3) -0.4555(2)
C1 C -0.2543(4) -0.2786(4) -0.1510(3)
H1 H -0.31300 -0.20420 -0.10720
C2 C -0.3080(4) -0.7900(4) -0.0808(3)
H2 H -0.26720 -0.73920 -0.14610
C3 C -0.5315(4) -0.5645(4) -0.3617(4)
H3 H -0.52600 -0.44520 -0.36030
N1 N -0.0688(6) -0.5065(3) -0.3444(4)
H4 H -0.13450 -0.51320 -0.40230
H5 H -0.09050 -0.41530 -0.30150
H6 H -0.07520 -0.60120 -0.30190
N2 N 0.0816(7) -0.4905(4) -0.3888(5)
H7 H 0.10280 -0.57980 -0.42960
H8 H 0.08810 -0.39980 -0.43110
Fe1A Fe -0.47383(4) -0.50026(6) -0.61111(11)
Fe1C Fe -0.02617(4) -1.00026(6) -0.11111(11)
Fe1C* Fe -0.02617(4) -0.00026(6) -0.11111(11)
O2C O -0.6244(2) -0.2708(3) -0.1785(2)
O4C O -0.7384(2) -0.5841(3) -0.0405(2)
O6A O -0.4845(3) -0.3640(3) 0.0445(2)
#END
