
#######################################################################
#
#                 Cambridge Crystallographic Data Centre
#                                CCDC
#
#######################################################################
#
# If this CIF has been generated from an entry in the Cambridge
# Structural Database, then it will include bibliographic, chemical,
# crystal, experimental, refinement or atomic coordinate data resulting
# from the CCDC's data processing and validation procedures.
#
#######################################################################

data_CSD_CIF_IZOWEA
_audit_creation_date 2011-11-16
_audit_creation_method CSD-ConQuest-V1
_database_code_CSD IZOWEA
_database_code_depnum_ccdc_archive 'CCDC 847637'
_chemical_formula_sum 'C57 H114 Mo12 N3 O46 P1 Zn4'
_chemical_formula_moiety
;
(C16 H36 N1 1+)3n,n(C9 H6 Mo12 O42 Zn4 1-),n(O4 P1 2-)
;
_journal_coden_Cambridge 4
_journal_volume 133
_journal_year 2011
_journal_page_first 13363
_journal_name_full 'J.Am.Chem.Soc. '
loop_
_publ_author_name
"B.Nohra"
"H.E.Moll"
"L.M.R.Albelo"
"P.Mialane"
"J.Marrot"
"C.Mellot-Draznieks"
"M.O'Keeffe"
"R.N.Biboum"
"J.Lemaire"
"B.Keita"
"L.Nadjo"
"A.Dolbecq"
_chemical_name_systematic
;
catena-(tris(Tetra-n-butylammonium) 
(\m~3~-benzene-1,3,5-tricarboxylato)-tris(\m~3~-hydroxo)-decakis(\m~3~-oxo)-un
decakis(\m~2~-oxo)-hdodecaoxo-dodeca-molybdenum-tetra-zinc phosphate)
;
_cell_volume   9788.501
_exptl_crystal_colour 'red'
_exptl_crystal_density_diffrn 2.022
_exptl_crystal_description 'platelet'
_diffrn_ambient_temperature 293
_refine_special_details
;
The SQUEEZE/PLATON program has been used to model the disordered cations.

;
#These two values have been output from a single CSD field.
_refine_ls_R_factor_gt 0.0785
_refine_ls_wR_factor_gt 0.0785
_symmetry_cell_setting orthorhombic
_symmetry_space_group_name_H-M 'P n n m'
_symmetry_Int_Tables_number 58
loop_
_symmetry_equiv_pos_site_id
_symmetry_equiv_pos_as_xyz
1 x,y,z
2 -x,-y,z
3 1/2-x,1/2+y,1/2-z
4 1/2+x,1/2-y,1/2-z
5 -x,-y,-z
6 x,y,-z
7 -1/2+x,-1/2-y,-1/2+z
8 -1/2-x,-1/2+y,-1/2+z
_cell_length_a 24.156(9)
_cell_length_b 24.992(9)
_cell_length_c 16.214(6)
_cell_angle_alpha 90
_cell_angle_beta 90
_cell_angle_gamma 90
_cell_formula_units_Z 4
loop_
_atom_type_symbol
_atom_type_radius_bond
C 0.68
H 0.23
Mo 1.09
O 0.68
P 1.05
Zn 1.22
loop_
_atom_site_label
_atom_site_type_symbol
_atom_site_fract_x
_atom_site_fract_y
_atom_site_fract_z
Mo1 Mo 0.09158(5) 0.46201(4) -0.10803(7)
Mo2 Mo 0.20308(7) 0.41413(6) 0.00000
Mo3 Mo 0.09238(5) 0.55213(4) -0.19071(7)
Mo4 Mo -0.09399(5) 0.32402(4) -0.09852(8)
Mo5 Mo 0.21488(5) 0.63408(4) 0.18775(8)
Mo6 Mo 0.31202(7) 0.48589(7) 0.00000
Mo7 Mo 0.30337(5) 0.60309(5) 0.10919(9)
Zn1 Zn -0.02108(9) 0.42797(7) 0.00000
Zn2 Zn 0.28067(10) 0.20760(8) 0.50000
Zn3 Zn 0.22872(7) 0.48810(6) 0.17889(10)
P1 P 0.17736(19) 0.56308(16) 0.00000
O1 O 0.0599(5) 0.4384(4) 0.00000
O2 O -0.0556(5) 0.3577(4) 0.00000
O3 O 0.0529(3) 0.5303(2) -0.0922(5)
O4 O 0.2425(5) 0.5646(4) 0.00000
O5 O 0.2474(5) 0.4543(4) 0.2824(7)
O6 O 0.3635(6) 0.1977(4) 0.50000
O7 O 0.0535(3) 0.4252(3) -0.1716(5)
O8 O 0.1474(3) 0.4959(3) -0.1815(5)
O9 O 0.0540(4) 0.5359(3) -0.2706(5)
O10 O 0.2533(3) 0.4558(3) 0.0752(6)
O11 O 0.1546(4) 0.5050(4) 0.00000
O12 O 0.2507(3) 0.5641(3) 0.1819(6)
O13 O 0.1574(3) 0.5915(3) -0.0782(5)
O14 O 0.2511(4) 0.6645(3) 0.0915(6)
O15 O -0.0563(4) 0.2694(3) -0.1173(6)
O16 O 0.2322(6) 0.3536(4) 0.00000
O17 O 0.2437(4) 0.6647(4) 0.2648(6)
O18 O 0.3395(5) 0.6266(5) 0.00000
O19 O 0.1535(3) 0.4100(3) -0.0835(5)
O20 O 0.0640(4) 0.6241(3) -0.1650(6)
O21 O 0.3527(4) 0.6256(4) 0.1758(7)
O22 O 0.1559(3) 0.5916(3) -0.2572(6)
O23 O 0.1549(4) 0.6874(3) 0.1615(6)
O24 O 0.3322(3) 0.5299(3) -0.0854(6)
O25 O 0.2100(4) 0.5234(3) 0.3472(7)
O26 O 0.3609(6) 0.4384(5) 0.00000
O27 O 0.2683(5) 0.2807(4) 0.5635(7)
C1 C 0.2521(5) 0.3953(4) 0.4247(9)
H1 H 0.25870 0.37750 0.37540
C2 C 0.2405(5) 0.4487(4) 0.4238(8)
C3 C 0.2349(7) 0.4744(7) 0.50000
H2 H 0.22700 0.51080 0.50000
C4 C 0.2542(7) 0.3669(6) 0.50000
C5 C 0.2316(5) 0.4779(4) 0.3478(10)
C6 C 0.2660(7) 0.3063(6) 0.50000
Mo1E Mo 0.09158(5) 0.46201(4) 0.10803(7)
Mo3E Mo 0.09238(5) 0.55213(4) 0.19071(7)
Mo4F Mo 0.40601(5) 0.17598(4) 0.40148(8)
Mo4E Mo -0.09399(5) 0.32402(4) 0.09852(8)
Mo4C Mo 0.40601(5) 0.17598(4) 0.59852(8)
Mo4A Mo 0.09399(5) 0.67598(4) -0.09852(8)
Mo4D Mo 0.09399(5) 0.67598(4) 0.09852(8)
Mo5E Mo 0.21488(5) 0.63408(4) -0.18775(8)
Mo5B Mo 0.28512(5) 0.13408(4) 0.31225(8)
Mo7E Mo 0.30337(5) 0.60309(5) -0.10919(9)
Mo7B Mo 0.19663(5) 0.10309(5) 0.39081(9)
Zn1A Zn 0.02108(9) 0.57203(7) 0.00000
Zn2B Zn 0.21933(10) 0.70760(8) 0.00000
Zn3E Zn 0.22872(7) 0.48810(6) -0.17889(10)
Zn3E* Zn 0.22872(7) 0.48810(6) 0.82111(10)
O2C O 0.4444(5) 0.1423(4) 0.50000
O3E O 0.0529(3) 0.5303(2) 0.0922(5)
O3A O -0.0529(3) 0.4697(2) -0.0922(5)
O3D O -0.0529(3) 0.4697(2) 0.0922(5)
O5E O 0.2474(5) 0.4543(4) 0.7176(7)
O5E* O 0.2474(5) 0.4543(4) -0.2824(7)
O6C O -0.1365(6) 0.3023(4) 0.00000
O7E O 0.0535(3) 0.4252(3) 0.1716(5)
O8E O 0.1474(3) 0.4959(3) 0.1815(5)
O9E O 0.0540(4) 0.5359(3) 0.2706(5)
O10E O 0.2533(3) 0.4558(3) -0.0752(6)
O12E O 0.2507(3) 0.5641(3) -0.1819(6)
O13E O 0.1574(3) 0.5915(3) 0.0782(5)
O14B O 0.2489(4) 0.1645(3) 0.4085(6)
O14G O 0.2489(4) 0.1645(3) 0.5915(6)
O14E O 0.2511(4) 0.6645(3) -0.0915(6)
O15F O 0.4437(4) 0.2306(3) 0.3827(6)
O17E O 0.2437(4) 0.6647(4) -0.2648(6)
O19E O 0.1535(3) 0.4100(3) 0.0835(5)
O20E O 0.0640(4) 0.6241(3) 0.1650(6)
O20A O -0.0640(4) 0.3759(3) -0.1650(6)
O20G O 0.4360(4) 0.1241(3) 0.3350(6)
O21E O 0.3527(4) 0.6256(4) -0.1758(7)
O22E O 0.1559(3) 0.5916(3) 0.2572(6)
O23E O 0.1549(4) 0.6874(3) -0.1615(6)
O23D O -0.1549(4) 0.3126(3) -0.1615(6)
O23B O 0.3451(4) 0.1874(3) 0.3385(6)
O24E O 0.3322(3) 0.5299(3) 0.0854(6)
O25E O 0.2100(4) 0.5234(3) 0.6528(7)
O27E O 0.2683(5) 0.2807(4) 0.4365(7)
C1E C 0.2521(5) 0.3953(4) 0.5753(9)
H1E H 0.25870 0.37750 0.62460
C2E C 0.2405(5) 0.4487(4) 0.5762(8)
C5E C 0.2316(5) 0.4779(4) 0.6522(10)
#END
