
#######################################################################
#
#                 Cambridge Crystallographic Data Centre
#                                CCDC
#
#######################################################################
#
# If this CIF has been generated from an entry in the Cambridge
# Structural Database, then it will include bibliographic, chemical,
# crystal, experimental, refinement or atomic coordinate data resulting
# from the CCDC's data processing and validation procedures.
#
#######################################################################

data_CSD_CIF_IZUPEA
_audit_creation_date 2016-11-15
_audit_creation_method CSD-ConQuest-V1
_database_code_CSD IZUPEA
_database_code_depnum_ccdc_archive 'CCDC 1504202'
_chemical_formula_sum 'C4 H9 N1 Ni1 O6'
_chemical_formula_moiety
;
(C3 H3 Ni1 O6 1-)n,C1 H6 N1 1+
;
_journal_coden_Cambridge 1695
_journal_volume 4
_journal_year 2016
_journal_page_first 11164
_journal_name_full 'J.Mater.Chem.C '
loop_
_publ_author_name
"B.Pato-Doldan"
"L.C.Gomez-Aguirre"
"A.P.Hansen"
"J.Mira"
"S.Castro-Garcia"
"M.Sanchez-Andujar"
"M.A.Senaris-Rodriguez"
"V.S.Zapf"
"J.Singleton"
_chemical_name_systematic
;
catena-(methylammonium tris(\m-formato)-nickel(ii))
;
_cell_volume    761.916
_exptl_crystal_colour 'green'
_exptl_crystal_density_diffrn 1.969
_exptl_special_details
;
, Magnetic properties

;
_exptl_crystal_description 'block'
_diffrn_ambient_temperature 100
#These two values have been output from a single CSD field.
_refine_ls_R_factor_gt 0.0215
_refine_ls_wR_factor_gt 0.0215
_symmetry_cell_setting orthorhombic
_symmetry_space_group_name_H-M 'P n m a'
_symmetry_Int_Tables_number 62
loop_
_symmetry_equiv_pos_site_id
_symmetry_equiv_pos_as_xyz
1 x,y,z
2 1/2-x,-y,1/2+z
3 -x,1/2+y,-z
4 1/2+x,1/2-y,1/2-z
5 -x,-y,-z
6 -1/2+x,y,-1/2-z
7 x,-1/2-y,z
8 -1/2-x,-1/2+y,-1/2+z
_cell_length_a 8.1795(4)
_cell_length_b 11.5234(6)
_cell_length_c 8.0835(4)
_cell_angle_alpha 90
_cell_angle_beta 90
_cell_angle_gamma 90
_cell_formula_units_Z 4
loop_
_atom_type_symbol
_atom_type_radius_bond
C 0.68
H 0.23
N 0.68
Ni 1.24
O 0.68
loop_
_atom_site_label
_atom_site_type_symbol
_atom_site_fract_x
_atom_site_fract_y
_atom_site_fract_z
H1 H 1.016(4) 0.75000 1.076(5)
H2 H 1.282(3) 0.972(2) 0.779(3)
Ni1 Ni 1.00000 1.00000 1.00000
C1 C 0.9901(3) 0.75000 0.9469(4)
O1 O 1.09701(15) 1.06974(11) 0.78783(16)
O2 O 1.27496(14) 1.05784(13) 0.58217(16)
O3 O 0.97451(15) 0.84593(13) 0.87494(17)
C2 C 1.2222(3) 1.0288(2) 0.7219(3)
H3 H 0.364(4) 0.319(3) 0.019(3)
H4 H 0.641(4) 0.314(3) -0.010(3)
H5 H 0.415(4) 0.25000 -0.149(5)
H6 H 0.584(4) 0.25000 0.140(5)
N1 N 0.5868(3) 0.25000 0.0306(4)
C3 C 0.4130(4) 0.25000 -0.0238(4)
O3F O 0.97451(15) 0.65407(13) 0.87494(17)
H2D H 0.718(3) 1.028(2) 1.221(3)
O1D O 0.90299(15) 0.93026(11) 1.21217(16)
O2D O 0.72504(14) 0.94216(13) 1.41783(16)
C2D C 0.7778(3) 0.9712(2) 1.2781(3)
Ni1A Ni 0.50000 1.00000 1.50000
Ni1A* Ni 1.50000 1.00000 0.50000
Ni1B Ni 1.00000 0.50000 1.00000
O2A O 1.22504(14) 0.94216(13) 1.08217(16)
O2E O 0.77496(14) 1.05784(13) 0.91783(16)
O3D O 1.02549(15) 1.15407(13) 1.12506(17)
H3F H 0.364(4) 0.181(3) 0.019(3)
H4F H 0.641(4) 0.186(3) -0.010(3)
#END
