
#######################################################################
#
#                 Cambridge Crystallographic Data Centre
#                                CCDC
#
#######################################################################
#
# If this CIF has been generated from an entry in the Cambridge
# Structural Database, then it will include bibliographic, chemical,
# crystal, experimental, refinement or atomic coordinate data resulting
# from the CCDC's data processing and validation procedures.
#
#######################################################################

data_CSD_CIF_JABZUL01
_audit_creation_date 2020-10-01
_audit_creation_method CSD-ConQuest-V1
_database_code_CSD JABZUL01
_database_code_depnum_ccdc_archive 'CCDC 2027590'
_chemical_formula_sum 'C24 H18 Cd1 N2 O10'
_chemical_formula_moiety
;
(C12 H4 Cd1 O10 2-)n,C12 H14 N2 2+
;
_journal_coden_Cambridge 208
_journal_volume 293
_journal_year 2021
_journal_page_first 121755
_journal_name_full 'J.Solid State Chem. '
loop_
_publ_author_name
"Zhao-Hao Li"
"Li-Ping Xue"
"Qiu-Pei Qin"
_chemical_name_systematic
;
catena-[1,1'-dimethyl-4,4'-bipyridin-1-ium 
bis(\m-furan-2,5-dicarboxylato)-cadmium]
;
_cell_volume   2264.815
_exptl_crystal_colour 'green'
_exptl_crystal_density_diffrn 1.78
_exptl_crystal_description 'block'
_diffrn_ambient_temperature 293
#These two values have been output from a single CSD field.
_refine_ls_R_factor_gt 0.044
_refine_ls_wR_factor_gt 0.044
_symmetry_cell_setting orthorhombic
_symmetry_space_group_name_H-M 'P b c n'
_symmetry_Int_Tables_number 60
loop_
_symmetry_equiv_pos_site_id
_symmetry_equiv_pos_as_xyz
1 x,y,z
2 1/2-x,1/2-y,1/2+z
3 -x,y,1/2-z
4 1/2+x,1/2-y,-z
5 -x,-y,-z
6 -1/2+x,-1/2+y,-1/2-z
7 x,-y,-1/2+z
8 -1/2-x,-1/2+y,z
_cell_length_a 13.5194(4)
_cell_length_b 14.1352(5)
_cell_length_c 11.8515(4)
_cell_angle_alpha 90
_cell_angle_beta 90
_cell_angle_gamma 90
_cell_formula_units_Z 4
loop_
_atom_type_symbol
_atom_type_radius_bond
C 0.68
H 0.23
Cd 1.44
N 0.68
O 0.68
loop_
_atom_site_label
_atom_site_type_symbol
_atom_site_fract_x
_atom_site_fract_y
_atom_site_fract_z
Cd1 Cd 1.00000 0.72617(2) 0.75000
O1 O 0.72034(15) 0.63356(15) 0.53797(19)
O2 O 0.63330(17) 0.71847(16) 0.3574(2)
O3 O 0.89817(17) 0.65356(19) 0.6330(2)
O4 O 0.85819(19) 0.55828(19) 0.7753(2)
O5 O 0.49144(18) 0.64990(19) 0.3938(3)
C1 C 0.5811(2) 0.6644(2) 0.4137(3)
C2 C 0.8417(2) 0.5998(2) 0.6844(3)
C3 C 0.6222(2) 0.6192(2) 0.5164(3)
C4 C 0.7407(3) 0.5886(2) 0.6373(3)
C5 C 0.5816(3) 0.5670(3) 0.5991(3)
H1 H 0.51590 0.54790 0.60390
C6 C 0.6573(3) 0.5467(2) 0.6771(3)
H2 H 0.65130 0.51140 0.74300
N1 N 0.6969(2) 0.85991(19) 0.5614(3)
C7 C 0.5284(3) 0.8814(2) 0.5983(3)
H3 H 0.46550 0.89700 0.57260
C8 C 0.5417(3) 0.8560(2) 0.7096(3)
C9 C 0.6063(3) 0.8838(2) 0.5259(3)
H4 H 0.59660 0.90210 0.45130
C10 C 0.7126(3) 0.8340(2) 0.6681(3)
H5 H 0.77600 0.81710 0.69100
C11 C 0.6372(3) 0.8320(2) 0.7436(3)
H6 H 0.64920 0.81470 0.81810
C12 C 0.7805(3) 0.8620(3) 0.4817(3)
H7 H 0.75910 0.83880 0.40960
H8 H 0.83300 0.82290 0.50980
H9 H 0.80370 0.92590 0.47380
O1B O 1.27966(15) 0.63356(15) 0.96203(19)
O2B O 1.36670(17) 0.71847(16) 1.1426(2)
O3B O 1.10183(17) 0.65356(19) 0.8670(2)
O4B O 1.14181(19) 0.55828(19) 0.7247(2)
O5B O 1.50856(18) 0.64990(19) 1.1062(3)
C1B C 1.4189(2) 0.6644(2) 1.0863(3)
C2B C 1.1583(2) 0.5998(2) 0.8156(3)
C3B C 1.3778(2) 0.6192(2) 0.9836(3)
C4B C 1.2593(3) 0.5886(2) 0.8627(3)
C5B C 1.4184(3) 0.5670(3) 0.9009(3)
H1B H 1.48410 0.54790 0.89610
C6B C 1.3427(3) 0.5467(2) 0.8229(3)
H2B H 1.34870 0.51140 0.75700
Cd1A Cd 0.50000 0.77383(2) 0.25000
Cd1A* Cd 1.50000 0.77383(2) 1.25000
O2A O 0.86670(17) 0.78153(16) 0.8574(2)
O2C O 1.13330(17) 0.78153(16) 0.6426(2)
O5A O 1.00856(18) 0.85010(19) 0.8938(3)
O5C O 0.99144(18) 0.85010(19) 0.6062(3)
N1B N 0.3031(2) 0.85991(19) 0.9386(3)
C7B C 0.4716(3) 0.8814(2) 0.9017(3)
H3B H 0.53450 0.89700 0.92740
C8B C 0.4583(3) 0.8560(2) 0.7904(3)
C9B C 0.3937(3) 0.8838(2) 0.9741(3)
H4B H 0.40340 0.90210 1.04870
C10B C 0.2874(3) 0.8340(2) 0.8319(3)
H5B H 0.22400 0.81710 0.80900
C11B C 0.3628(3) 0.8320(2) 0.7564(3)
H6B H 0.35080 0.81470 0.68190
C12B C 0.2195(3) 0.8620(3) 1.0183(3)
H7B H 0.24090 0.83880 1.09040
H8B H 0.16700 0.82290 0.99020
H9B H 0.19630 0.92590 1.02620
#END
