
#######################################################################
#
#                 Cambridge Crystallographic Data Centre
#                                CCDC
#
#######################################################################
#
# If this CIF has been generated from an entry in the Cambridge
# Structural Database, then it will include bibliographic, chemical,
# crystal, experimental, refinement or atomic coordinate data resulting
# from the CCDC's data processing and validation procedures.
#
#######################################################################

data_CSD_CIF_JACBIC
_audit_creation_date 2020-10-01
_audit_creation_method CSD-ConQuest-V1
_database_code_CSD JACBIC
_database_code_depnum_ccdc_archive 'CCDC 1974424'
_chemical_formula_sum 'C32 H48 N24 O44 Si1 W12 Zn2'
_chemical_formula_moiety
;
(C16 H24 N12 O2 Zn1 2+)2n,O40 Si1 W12 4-
;
_journal_coden_Cambridge 1831
_journal_volume 404
_journal_year 2021
_journal_page_first 127117
_journal_name_full 'Chem.Eng.Journal '
loop_
_publ_author_name
"Zikai Wang"
"Rong Bi"
"Jiadi Liu"
"Kuaibing Wang"
"Feifei Mao"
"Hua Wu"
"Yuanqing Bu"
"Ninghui Song"
_chemical_name_systematic
;
catena-[bis(bis(\m-1,1'-[oxybis(ethane-2,1-diyl)]bis(1H-1,2,4-triazole))-zinc)
 (\m-silicato)-tetracosakis(\m-oxido)-dodecaoxo-dodeca-tungsten]
;
_cell_volume   3593.048
_exptl_crystal_density_diffrn 3.607
_diffrn_ambient_temperature 293
_refine_special_details
;
The structure is disordered.

;
#These two values have been output from a single CSD field.
_refine_ls_R_factor_gt 0.0677
_refine_ls_wR_factor_gt 0.0677
_symmetry_cell_setting monoclinic
_symmetry_space_group_name_H-M 'P 21/n'
_symmetry_Int_Tables_number 14
loop_
_symmetry_equiv_pos_site_id
_symmetry_equiv_pos_as_xyz
1 x,y,z
2 1/2-x,1/2+y,1/2-z
3 -x,-y,-z
4 -1/2+x,-1/2-y,-1/2+z
_cell_length_a 13.9150(8)
_cell_length_b 13.417
_cell_length_c 19.255
_cell_angle_alpha 90
_cell_angle_beta 91.82
_cell_angle_gamma 90
_cell_formula_units_Z 2
loop_
_atom_type_symbol
_atom_type_radius_bond
C 0.68
H 0.23
N 0.68
O 0.68
Si 1.20
W 1.62
Zn 1.22
loop_
_atom_site_label
_atom_site_type_symbol
_atom_site_fract_x
_atom_site_fract_y
_atom_site_fract_z
Si1 Si 0.50000 0.00000 0.50000
W1 W 0.32472(5) 0.10800(5) 0.38674(4)
W2 W 0.31915(5) -0.15093(6) 0.42212(4)
W3 W 0.50396(6) 0.25866(5) 0.46671(4)
W4 W 0.26039(5) 0.02259(5) 0.55260(5)
W5 W 0.56521(7) 0.08774(6) 0.33568(4)
W6 W 0.55851(7) -0.16971(6) 0.36848(4)
O1 O 0.2419(14) 0.1625(12) 0.3356(9)
O2 O 0.3869(11) 0.2213(12) 0.4280(9)
O3 O 0.4288(11) 0.0940(14) 0.3282(9)
O4 O 0.3010(13) -0.0280(9) 0.3731(8)
O5 O 0.2595(13) 0.100(1) 0.4717(8)
O6 O 0.3905(14) -0.0026(15) 0.4746(10)
O7 O 0.2304(12) -0.2211(11) 0.3877(8)
O8 O 0.2541(13) -0.0927(10) 0.4962(7)
O9 O 0.4240(13) -0.1735(15) 0.3633(9)
O10 O 0.3729(12) -0.2416(14) 0.4879(8)
O11 O 0.5047(10) 0.3806(9) 0.4501(9)
O12 O 0.4481(12) 0.2542(14) 0.5527(8)
O13 O 0.5652(12) 0.2052(13) 0.3880(9)
O14 O 0.4750(16) 0.0844(17) 0.4381(12)
O15 O 0.1464(10) 0.0338(11) 0.5741(10)
O16 O 0.3199(15) 0.1328(11) 0.5977(12)
O17 O 0.5957(11) 0.1299(12) 0.2579(7)
O18 O 0.6860(15) 0.0595(11) 0.3757(11)
O19 O 0.574(2) -0.0194(17) 0.4344(12)
O20 O 0.5509(15) -0.0508(11) 0.3169(11)
O21 O 0.5864(10) -0.251(1) 0.3069(7)
O22 O 0.4703(19) -0.1120(16) 0.4667(13)
Zn1 Zn -0.00218(18) -0.25230(18) 0.40950(12)
C1 C 0.1778(15) -0.6853(17) 0.5087(11)
H1 H 0.15242 -0.70988 0.46685
C2 C 0.1954(14) -0.6586(16) 0.6155(10)
H2 H 0.18807 -0.65702 0.66335
C3 C 0.3331(14) -0.5393(15) 0.6078(12)
H3 H 0.39478 -0.54763 0.58640
H4 H 0.34241 -0.54906 0.65742
C4 C 0.2962(13) -0.4349(16) 0.5939(13)
H5 H 0.33635 -0.38688 0.61884
H6 H 0.29804 -0.42019 0.54469
C5 C 0.1855(17) -0.3659(17) 0.6755(12)
H7 H 0.23391 -0.38123 0.71133
H8 H 0.12290 -0.37926 0.69418
C6 C 0.1921(15) -0.2588(17) 0.6567(10)
H9 H 0.18263 -0.21891 0.69791
H10 H 0.25624 -0.24522 0.64080
C7 C 0.1210(14) -0.2558(14) 0.5370(9)
H11 H 0.16615 -0.29662 0.51660
C8 C 0.0007(19) -0.1679(18) 0.5554(13)
H12 H -0.05656 -0.13324 0.54789
C9 C 0.0533(13) -0.0726(15) 0.3259(11)
H13 H 0.10745 -0.05625 0.35318
C10 C -0.0715(19) -0.139(2) 0.2869(15)
H14 H -0.12273 -0.18345 0.28126
C11 C 0.0557(17) 0.0730(16) 0.2410(12)
H15 H 0.00127 0.11453 0.22726
H16 H 0.09554 0.10998 0.27419
C12 C 0.1114(19) 0.049(2) 0.1798(13)
H17 H 0.07744 0.00076 0.15097
H18 H 0.12110 0.10900 0.15244
C13 C 0.236(2) -0.084(2) 0.1791(17)
H19 H 0.22610 -0.08814 0.12912
H20 H 0.20093 -0.13823 0.20018
C14 C 0.338(2) -0.0929(18) 0.1972(12)
H21 H 0.34820 -0.08141 0.24657
H22 H 0.35986 -0.15969 0.18673
C15 C 0.3917(15) 0.0777(14) 0.1593(10)
H23 H 0.35448 0.11771 0.18729
C16 C 0.493(2) 0.0251(17) 0.0877(14)
H24 H 0.54166 0.02492 0.05603
N1 N 0.1385(12) -0.7062(13) 0.5698(8)
N2 N 0.2511(12) -0.6304(16) 0.5116(9)
N3 N 0.2667(11) -0.6125(12) 0.5804(9)
N4 N 0.1232(11) -0.2291(11) 0.6037(8)
N5 N 0.0441(13) -0.1739(14) 0.6162(10)
N6 N 0.0459(11) -0.2164(12) 0.5039(8)
N7 N 0.0005(11) -0.1522(12) 0.3352(7)
N8 N 0.0207(11) -0.0195(12) 0.2740(8)
N9 N -0.0621(18) -0.0585(16) 0.2487(13)
N10 N 0.3906(10) -0.0225(11) 0.1592(8)
N11 N 0.4528(15) -0.0549(14) 0.1126(12)
N12 N 0.4520(12) 0.1105(12) 0.1150(8)
O23 O 0.1994(10) -0.4285(11) 0.6167(8)
O24 O 0.2034(12) 0.0093(14) 0.2041(9)
O6B O 0.6095(14) 0.0026(15) 0.5254(10)
O14B O 0.5250(16) -0.0844(17) 0.5619(12)
O19B O 0.426(2) 0.0194(17) 0.5656(12)
O22B O 0.5297(19) 0.1120(16) 0.5333(13)
W1B W 0.67528(5) -0.10800(5) 0.61326(4)
W2B W 0.68085(5) 0.15093(6) 0.57788(4)
W3B W 0.49604(6) -0.25866(5) 0.53329(4)
W4B W 0.73961(5) -0.02259(5) 0.44740(5)
W5B W 0.43479(7) -0.08774(6) 0.66432(4)
W6B W 0.44149(7) 0.16971(6) 0.63152(4)
O1B O 0.7581(14) -0.1625(12) 0.6644(9)
O2B O 0.6131(11) -0.2213(12) 0.5720(9)
O3B O 0.5712(11) -0.0940(14) 0.6718(9)
O4B O 0.6990(13) 0.0280(9) 0.6269(8)
O5B O 0.7405(13) -0.100(1) 0.5283(8)
O7B O 0.7696(12) 0.2211(11) 0.6123(8)
O8B O 0.7459(13) 0.0927(10) 0.5038(7)
O9B O 0.5760(13) 0.1735(15) 0.6367(9)
O10B O 0.6271(12) 0.2416(14) 0.5121(8)
O11B O 0.4953(10) -0.3806(9) 0.5499(9)
O12B O 0.5519(12) -0.2542(14) 0.4473(8)
O13B O 0.4348(12) -0.2052(13) 0.6120(9)
O15B O 0.8536(10) -0.0338(11) 0.4259(10)
O16B O 0.6801(15) -0.1328(11) 0.4023(12)
O17B O 0.4043(11) -0.1299(12) 0.7421(7)
O18B O 0.3140(15) -0.0595(11) 0.6243(11)
O20B O 0.4491(15) 0.0508(11) 0.6831(11)
O21B O 0.4136(10) 0.251(1) 0.6931(7)
Zn1A Zn 0.50218(18) 0.24770(18) 0.09050(12)
Zn1B Zn 0.00218(18) -0.74770(18) 0.59050(12)
N1B N -0.1385(12) -0.2938(13) 0.4302(8)
N12A N 0.0480(12) -0.3895(12) 0.3850(8)
#END
