
#######################################################################
#
#                 Cambridge Crystallographic Data Centre
#                                CCDC
#
#######################################################################
#
# If this CIF has been generated from an entry in the Cambridge
# Structural Database, then it will include bibliographic, chemical,
# crystal, experimental, refinement or atomic coordinate data resulting
# from the CCDC's data processing and validation procedures.
#
#######################################################################

data_CSD_CIF_JACHUU
_audit_creation_date 2020-10-01
_audit_creation_method CSD-ConQuest-V1
_database_code_CSD JACHUU
_database_code_depnum_ccdc_archive 'CCDC 2013389'
_chemical_formula_sum 'C50 H44 N2 O36 U5'
_chemical_formula_moiety
;
(C36 H12 O34 U5 2-)n,2(C7 H14 N1 1+),2(H2 O1)
;
_journal_coden_Cambridge 1147
_journal_volume 20
_journal_year 2020
_journal_page_first 7368
_journal_name_full 'Cryst.Growth Des. '
loop_
_publ_author_name
"P.Thuery"
"Y.Atoini"
"J.Harrowfield"
_chemical_name_systematic
;
catena-[bis(1-azabicyclo[2.2.2]octan-1-ium) 
tetrakis(\m-benzene-1,2,4-tricarboxylato)-decaaoxo-penta-uranium(vi) 
dihydrate]
;
_cell_volume   3388.024
_exptl_crystal_colour 'light yellow'
_exptl_crystal_density_diffrn 2.391
_exptl_special_details
;
We calculate void space in the structure

;
_exptl_crystal_description 'lath'
_diffrn_ambient_temperature 100
#These two values have been output from a single CSD field.
_refine_ls_R_factor_gt 0.0316
_refine_ls_wR_factor_gt 0.0316
_symmetry_cell_setting monoclinic
_symmetry_space_group_name_H-M 'C 2/m'
_symmetry_Int_Tables_number 12
loop_
_symmetry_equiv_pos_site_id
_symmetry_equiv_pos_as_xyz
1 x,y,z
2 -x,y,-z
3 1/2+x,1/2+y,z
4 1/2-x,1/2+y,-z
5 -x,-y,-z
6 x,-y,z
7 -1/2-x,-1/2-y,-z
8 -1/2+x,-1/2-y,z
_cell_length_a 21.4579(15)
_cell_length_b 15.3818(13)
_cell_length_c 11.6804(9)
_cell_angle_alpha 90
_cell_angle_beta 118.501(3)
_cell_angle_gamma 90
_cell_formula_units_Z 2
loop_
_atom_type_symbol
_atom_type_radius_bond
C 0.68
H 0.23
N 0.68
O 0.68
U 1.96
loop_
_atom_site_label
_atom_site_type_symbol
_atom_site_fract_x
_atom_site_fract_y
_atom_site_fract_z
U1 U 0.50000 0.50000 1.00000
U2 U 0.47286(2) 0.76319(2) 0.69864(2)
O1 O 0.4299(4) 0.50000 0.8380(7)
O2 O 0.4824(3) 0.6591(4) 0.6460(5)
O3 O 0.4632(3) 0.8682(4) 0.7491(5)
O4 O 0.4386(2) 0.5987(3) 1.0591(5)
O5 O 0.4238(3) 0.7368(4) 1.0985(5)
O6 O 0.4309(2) 0.7074(4) 0.8452(4)
O7 O 0.3501(2) 0.7274(4) 0.6423(5)
O8 O 0.0967(3) 0.6938(5) 0.5169(5)
O9 O 0.0637(3) 0.6820(5) 0.6659(5)
C1 C 0.3281(3) 0.6680(5) 0.9231(6)
C2 C 0.3103(3) 0.6891(5) 0.7945(6)
C3 C 0.2397(3) 0.6926(5) 0.7007(6)
H1 H 0.22767 0.70547 0.61301
C4 C 0.1862(3) 0.6775(5) 0.7329(6)
C5 C 0.2040(3) 0.6555(6) 0.8604(7)
H2 H 0.16772 0.64399 0.88298
C6 C 0.2745(4) 0.6505(6) 0.9543(7)
H3 H 0.28631 0.63492 1.04106
C7 C 0.4032(3) 0.6679(5) 1.0321(6)
C8 C 0.3666(3) 0.7085(5) 0.7582(7)
C9 C 0.1104(3) 0.6860(5) 0.6313(6)
O10 O 0.0674(16) 1.00000 0.677(3)
N1 N 0.1652(12) 1.00000 0.593(2)
H4 H 0.12087 1.00000 0.60150
C10 C 0.1488(12) 1.00000 0.464(2)
H5 H 0.11949 1.05187 0.42114
C11 C 0.2122(11) 1.00000 0.440(2)
H6 H 0.21188 0.94751 0.39093
C12 C 0.2715(14) 1.00000 0.569(2)
H7 H 0.31518 1.00000 0.55871
C13 C 0.2739(9) 0.9202(9) 0.6418(16)
H8 H 0.27256 0.86826 0.59065
H9 H 0.31853 0.91877 0.72550
C14 C 0.2125(9) 0.9195(11) 0.6665(19)
H10 H 0.22871 0.92362 0.76110
H11 H 0.18520 0.86497 0.63330
U2A U 0.52714(2) 0.76319(2) 1.30136(2)
O1A O 0.5701(4) 0.50000 1.1620(7)
O2A O 0.5176(3) 0.6591(4) 1.3540(5)
O3A O 0.5368(3) 0.8682(4) 1.2509(5)
O4A O 0.5614(2) 0.5987(3) 0.9409(5)
O5A O 0.5762(3) 0.7368(4) 0.9015(5)
O6A O 0.5691(2) 0.7074(4) 1.1548(4)
O7A O 0.6499(2) 0.7274(4) 1.3577(5)
O8A O 0.9033(3) 0.6938(5) 1.4831(5)
O9A O 0.9363(3) 0.6820(5) 1.3341(5)
C1A C 0.6719(3) 0.6680(5) 1.0769(6)
C2A C 0.6897(3) 0.6891(5) 1.2055(6)
C3A C 0.7603(3) 0.6926(5) 1.2993(6)
H1A H 0.77233 0.70547 1.38699
C4A C 0.8138(3) 0.6775(5) 1.2671(6)
C5A C 0.7960(3) 0.6555(6) 1.1396(7)
H2A H 0.83228 0.64399 1.11702
C6A C 0.7255(4) 0.6505(6) 1.0457(7)
H3A H 0.71369 0.63492 0.95894
C7A C 0.5968(3) 0.6679(5) 0.9679(6)
C8A C 0.6334(3) 0.7085(5) 1.2418(7)
C9A C 0.8896(3) 0.6860(5) 1.3687(6)
U2D U 0.52714(2) 0.23681(2) 1.30136(2)
O2D O 0.5176(3) 0.3409(4) 1.3540(5)
O3D O 0.5368(3) 0.1318(4) 1.2509(5)
O4D O 0.5614(2) 0.4013(3) 0.9409(5)
O5D O 0.5762(3) 0.2632(4) 0.9015(5)
O6D O 0.5691(2) 0.2926(4) 1.1548(4)
O7D O 0.6499(2) 0.2726(4) 1.3577(5)
O8D O 0.9033(3) 0.3062(5) 1.4831(5)
O9D O 0.9363(3) 0.3180(5) 1.3341(5)
C1D C 0.6719(3) 0.3320(5) 1.0769(6)
C2D C 0.6897(3) 0.3109(5) 1.2055(6)
C3D C 0.7603(3) 0.3074(5) 1.2993(6)
H1D H 0.77233 0.29453 1.38699
C4D C 0.8138(3) 0.3225(5) 1.2671(6)
C5D C 0.7960(3) 0.3445(6) 1.1396(7)
H2D H 0.83228 0.35601 1.11702
C6D C 0.7255(4) 0.3495(6) 1.0457(7)
H3D H 0.71369 0.36508 0.95894
C7D C 0.5968(3) 0.3321(5) 0.9679(6)
C8D C 0.6334(3) 0.2915(5) 1.2418(7)
C9D C 0.8896(3) 0.3140(5) 1.3687(6)
U2E U 0.47286(2) 0.23681(2) 0.69864(2)
O2E O 0.4824(3) 0.3409(4) 0.6460(5)
O3E O 0.4632(3) 0.1318(4) 0.7491(5)
O4E O 0.4386(2) 0.4013(3) 1.0591(5)
O5E O 0.4238(3) 0.2632(4) 1.0985(5)
O6E O 0.4309(2) 0.2926(4) 0.8452(4)
O7E O 0.3501(2) 0.2726(4) 0.6423(5)
O8E O 0.0967(3) 0.3062(5) 0.5169(5)
O9E O 0.0637(3) 0.3180(5) 0.6659(5)
C1E C 0.3281(3) 0.3320(5) 0.9231(6)
C2E C 0.3103(3) 0.3109(5) 0.7945(6)
C3E C 0.2397(3) 0.3074(5) 0.7007(6)
H1E H 0.22767 0.29453 0.61301
C4E C 0.1862(3) 0.3225(5) 0.7329(6)
C5E C 0.2040(3) 0.3445(6) 0.8604(7)
H2E H 0.16772 0.35601 0.88298
C6E C 0.2745(4) 0.3495(6) 0.9543(7)
H3E H 0.28631 0.36508 1.04106
C7E C 0.4032(3) 0.3321(5) 1.0321(6)
C8E C 0.3666(3) 0.2915(5) 0.7582(7)
C9E C 0.1104(3) 0.3140(5) 0.6313(6)
U2B U -0.02714(2) 0.26319(2) 0.69864(2)
U2B* U 0.97286(2) 0.26319(2) 1.69864(2)
U2C U 0.02714(2) 0.26319(2) 0.30136(2)
U2C* U 1.02714(2) 0.26319(2) 1.30136(2)
U2F U 0.02714(2) 0.73681(2) 0.30136(2)
U2F* U 1.02714(2) 0.73681(2) 1.30136(2)
U2G U -0.02714(2) 0.73681(2) 0.69864(2)
U2G* U 0.97286(2) 0.73681(2) 1.69864(2)
O8B O 0.5967(3) 0.1938(5) 1.5169(5)
O8C O 0.4033(3) 0.1938(5) 0.4831(5)
O8F O 0.4033(3) 0.8062(5) 0.4831(5)
O8G O 0.5967(3) 0.8062(5) 1.5169(5)
O9B O 0.5637(3) 0.1820(5) 0.6659(5)
O9C O 0.4363(3) 0.1820(5) 1.3341(5)
O9F O 0.4363(3) 0.8180(5) 1.3341(5)
O9G O 0.5637(3) 0.8180(5) 0.6659(5)
H5E H 0.11949 0.94813 0.42114
H6E H 0.21188 1.05249 0.39093
C13E C 0.2739(9) 1.0798(9) 0.6418(16)
H8E H 0.27256 1.13174 0.59065
H9E H 0.31853 1.08123 0.72550
C14E C 0.2125(9) 1.0805(11) 0.6665(19)
H10E H 0.22871 1.07638 0.76110
H11E H 0.18520 1.13503 0.63330
#END
