
#######################################################################
#
#                 Cambridge Crystallographic Data Centre
#                                CCDC
#
#######################################################################
#
# If this CIF has been generated from an entry in the Cambridge
# Structural Database, then it will include bibliographic, chemical,
# crystal, experimental, refinement or atomic coordinate data resulting
# from the CCDC's data processing and validation procedures.
#
#######################################################################

data_CSD_CIF_JACHEE
_audit_creation_date 2020-10-01
_audit_creation_method CSD-ConQuest-V1
_database_code_CSD JACHEE
_database_code_depnum_ccdc_archive 'CCDC 2013386'
_chemical_formula_sum 'C75 H54 O23 P2 U2'
_chemical_formula_moiety
;
(C27 H12 O22 U2 2-)n,2(C24 H20 P1 1+),H2 O1
;
_journal_coden_Cambridge 1147
_journal_volume 20
_journal_year 2020
_journal_page_first 7368
_journal_name_full 'Cryst.Growth Des. '
loop_
_publ_author_name
"P.Thuery"
"Y.Atoini"
"J.Harrowfield"
_chemical_name_systematic
;
catena-[bis(tetraphenylphosphonium) 
tris(\m-1-carboxybenzene-2,4-dicarboxylato)-tetraoxo-di-uranium(vi) 
monohydrate]
;
_cell_volume   3693.823
_exptl_crystal_colour 'light yellow'
_exptl_crystal_density_diffrn 1.673
_exptl_crystal_description 'parallelepiped'
_diffrn_ambient_temperature 100
_refine_special_details
;
Central benzene-1,2,4-tricarboxylato ligand is disordered by symmetry; 
C14,O11,O12 disordered by symmetry over two configurations with occupancy 
0.5; C9A,O7A,O8A and C9B,O7B,O8B disordered over two sites with occupancies 
0.853:0.147.
;
#These two values have been output from a single CSD field.
_refine_ls_R_factor_gt 0.053
_refine_ls_wR_factor_gt 0.053
_symmetry_cell_setting monoclinic
_symmetry_space_group_name_H-M 'P 21/n'
_symmetry_Int_Tables_number 14
loop_
_symmetry_equiv_pos_site_id
_symmetry_equiv_pos_as_xyz
1 x,y,z
2 1/2-x,1/2+y,1/2-z
3 -x,-y,-z
4 -1/2+x,-1/2-y,-1/2+z
_cell_length_a 9.9101(3)
_cell_length_b 19.2112(5)
_cell_length_c 19.5001(5)
_cell_angle_alpha 90
_cell_angle_beta 95.7535(14)
_cell_angle_gamma 90
_cell_formula_units_Z 2
loop_
_atom_type_symbol
_atom_type_radius_bond
C 0.68
H 0.23
O 0.68
P 1.05
U 1.96
loop_
_atom_site_label
_atom_site_type_symbol
_atom_site_fract_x
_atom_site_fract_y
_atom_site_fract_z
U1 U 0.44197(3) 0.21175(2) 0.79166(2)
O1 O 0.4253(6) 0.1443(3) 0.7294(3)
O2 O 0.4565(7) 0.2789(3) 0.8539(3)
O3 O 0.1920(6) 0.2198(3) 0.7882(3)
O4 O 0.2878(6) 0.2811(3) 0.7120(3)
O5 O -0.4351(6) 0.2836(3) 0.7147(3)
O6 O -0.3115(7) 0.2154(4) 0.7850(4)
O7 O 0.1842(9) 0.3162(4) 0.5639(4)
O8 O 0.2021(7) 0.4109(4) 0.6301(4)
O9 O 0.5704(7) 0.1320(4) 0.8726(4)
O10 O 0.3508(7) 0.1306(4) 0.8746(4)
O11 O 0.1245(19) 0.0049(9) 0.9304(9)
O12 O 0.184(2) 0.0990(8) 0.9948(9)
C1 C 0.0477(8) 0.2818(4) 0.7037(4)
C2 C -0.0680(8) 0.2601(4) 0.7327(4)
H1 H -0.05997 0.22893 0.77071
C3 C -0.1981(9) 0.2842(4) 0.7056(5)
C4 C -0.2076(9) 0.3299(5) 0.6512(5)
H2 H -0.29480 0.34850 0.63366
C5 C -0.0877(9) 0.3497(5) 0.6215(5)
H3 H -0.09442 0.37988 0.58273
C6 C 0.0354(8) 0.3262(4) 0.6475(4)
C7 C 0.1834(8) 0.2599(4) 0.7363(4)
C8 C -0.3201(8) 0.2594(5) 0.7367(5)
C9 C 0.1508(11) 0.3546(6) 0.6142(6)
C10 C 0.4823(14) 0.0527(6) 0.9510(6)
C11 C 0.6125(14) 0.0282(6) 0.9736(6)
H4 H 0.68923 0.04753 0.95495
C12 C 0.3699(13) 0.0232(6) 0.9777(6)
C13 C 0.4654(14) 0.1078(6) 0.8967(6)
C14 C 0.2186(15) 0.0392(10) 0.9643(12)
P1 P 0.7463(2) 0.50344(10) 0.89232(11)
C15 C 0.7153(8) 0.4469(4) 0.9619(4)
C16 C 0.7663(9) 0.4640(5) 1.0300(4)
H5 H 0.80741 0.50801 1.03975
C17 C 0.7561(9) 0.4166(5) 1.0820(4)
H6 H 0.78660 0.42902 1.12812
C18 C 0.7023(9) 0.3515(5) 1.0682(5)
H7 H 0.70202 0.31786 1.10389
C19 C 0.6483(10) 0.3352(5) 1.0014(5)
H8 H 0.60632 0.29128 0.99213
C20 C 0.6552(9) 0.3821(5) 0.9489(5)
H9 H 0.61878 0.37041 0.90343
C21 C 0.6067(8) 0.5056(4) 0.8267(4)
C22 C 0.5796(9) 0.4470(5) 0.7847(5)
H10 H 0.63470 0.40662 0.79143
C23 C 0.4727(9) 0.4481(5) 0.7335(5)
H11 H 0.45447 0.40913 0.70394
C24 C 0.3915(10) 0.5080(5) 0.7261(6)
H12 H 0.31457 0.50844 0.69281
C25 C 0.420(1) 0.5648(5) 0.7650(6)
H13 H 0.36631 0.60545 0.75681
C26 C 0.5258(10) 0.5651(5) 0.8165(5)
H14 H 0.54358 0.60507 0.84460
C27 C 0.8900(8) 0.4697(4) 0.8537(4)
C28 C 0.9729(8) 0.4186(4) 0.8869(4)
H15 H 0.95327 0.40018 0.93001
C29 C 1.0847(9) 0.3951(4) 0.8558(5)
H16 H 1.14046 0.35930 0.87684
C30 C 1.1149(9) 0.4239(4) 0.7941(5)
H17 H 1.19287 0.40848 0.77388
C31 C 1.0347(10) 0.4740(5) 0.7620(5)
H18 H 1.05699 0.49324 0.71964
C32 C 0.9194(9) 0.4974(4) 0.7911(4)
H19 H 0.86210 0.53167 0.76842
C33 C 0.7807(9) 0.5893(4) 0.9266(4)
C34 C 0.6904(10) 0.6187(5) 0.9691(5)
H20 H 0.61268 0.59351 0.97977
C35 C 0.7159(12) 0.6852(5) 0.9958(5)
H21 H 0.65534 0.70580 1.02466
C36 C 0.8292(12) 0.7208(5) 0.9800(5)
H22 H 0.84599 0.76622 0.99823
C37 C 0.9185(11) 0.6922(5) 0.9384(5)
H23 H 0.99701 0.71711 0.92833
C38 C 0.8920(9) 0.6256(4) 0.9110(4)
H24 H 0.95178 0.60562 0.88133
O13 O 0.0643(19) 0.1364(12) 0.9025(10)
O14? O -0.389(5) 0.350(3) 0.575(3)
O15? O -0.349(5) 0.428(3) 0.656(3)
C39? C -0.330(2) 0.368(3) 0.627(3)
H25? H 0.28014 0.03857 0.96147
H26? H 0.11426 0.34051 0.62652
O9B O 0.4296(7) -0.1320(4) 1.1274(4)
O10B O 0.6492(7) -0.1306(4) 1.1254(4)
O11B O 0.8755(19) -0.0049(9) 1.0696(9)
O12B O 0.816(2) -0.0990(8) 1.0052(9)
C10B C 0.5177(14) -0.0527(6) 1.0490(6)
C11B C 0.3875(14) -0.0282(6) 1.0264(6)
H4B H 0.31077 -0.04753 1.04505
C12B C 0.6301(13) -0.0232(6) 1.0223(6)
C13B C 0.5346(14) -0.1078(6) 1.1033(6)
C14B C 0.7814(15) -0.0392(10) 1.0357(12)
U1B U 0.55803(3) -0.21175(2) 1.20834(2)
O1B O 0.5747(6) -0.1443(3) 1.2706(3)
O2B O 0.5435(7) -0.2789(3) 1.1461(3)
O3B O 0.8080(6) -0.2198(3) 1.2118(3)
O4B O 0.7122(6) -0.2811(3) 1.2880(3)
O5B O 1.4351(6) -0.2836(3) 1.2853(3)
O6B O 1.3115(7) -0.2154(4) 1.2150(4)
O7B O 0.8158(9) -0.3162(4) 1.4361(4)
O8B O 0.7979(7) -0.4109(4) 1.3699(4)
C1B C 0.9523(8) -0.2818(4) 1.2963(4)
C2B C 1.0680(8) -0.2601(4) 1.2673(4)
H1B H 1.05997 -0.22893 1.22929
C3B C 1.1981(9) -0.2842(4) 1.2944(5)
C4B C 1.2076(9) -0.3299(5) 1.3488(5)
H2B H 1.29480 -0.34850 1.36634
C5B C 1.0877(9) -0.3497(5) 1.3785(5)
H3B H 1.09442 -0.37988 1.41727
C6B C 0.9646(8) -0.3262(4) 1.3525(4)
C7B C 0.8166(8) -0.2599(4) 1.2637(4)
C8B C 1.3201(8) -0.2594(5) 1.2633(5)
C9B C 0.8492(11) -0.3546(6) 1.3858(6)
U1* U -0.55803(3) 0.21175(2) 0.79166(2)
U1B* U 1.55803(3) -0.21175(2) 1.20834(2)
O5* O 0.5649(6) 0.2836(3) 0.7147(3)
O5B* O 0.4351(6) -0.2836(3) 1.2853(3)
O6* O 0.6885(7) 0.2154(4) 0.7850(4)
O6B* O 0.3115(7) -0.2154(4) 1.2150(4)
#END
