
#######################################################################
#
#                 Cambridge Crystallographic Data Centre
#                                CCDC
#
#######################################################################
#
# If this CIF has been generated from an entry in the Cambridge
# Structural Database, then it will include bibliographic, chemical,
# crystal, experimental, refinement or atomic coordinate data resulting
# from the CCDC's data processing and validation procedures.
#
#######################################################################

data_CSD_CIF_JACREN
_audit_creation_date 2015-12-11
_audit_creation_method CSD-ConQuest-V1
_database_code_CSD JACREN
_database_code_depnum_ccdc_archive 'CCDC 1001746'
_chemical_formula_sum 'C6 H22 Ce1 Co1 N6 O14'
_chemical_formula_moiety
;
(H18 Co1 N6 3+)n,n(C6 H2 Ce1 O13 3-),n(H2 O1)
;
_journal_coden_Cambridge 1185
_journal_volume 30
_journal_year 2014
_journal_page_first 889
_journal_name_full 'Chem.Res.Chin.Univ. '
loop_
_publ_author_name
"Ruijing Tian"
"Fuxiang Wang"
"Chunyu Du"
"Lijuan Feng"
"Ying Liu"
"Cailing Zhang"
"Qinhe Pan"
_chemical_name_systematic
;
catena-[Hexaammine-cobalt(iii) (\m~2~-oxalato)-aqua-bis(oxalato)-cerium(iii) 
monohydrate]
;
_chemical_name_common
;
HNU-3
;
_cell_volume   1722.227
_exptl_crystal_density_diffrn 2.319
_diffrn_ambient_temperature 296
_refine_special_details
;
O1W disordered by symmetry over two configurations with occupancy 0.50.

;
#These two values have been output from a single CSD field.
_refine_ls_R_factor_gt 0.0542
_refine_ls_wR_factor_gt 0.0542
_symmetry_cell_setting monoclinic
_symmetry_space_group_name_H-M 'C 2/c'
_symmetry_Int_Tables_number 15
loop_
_symmetry_equiv_pos_site_id
_symmetry_equiv_pos_as_xyz
1 x,y,z
2 -x,y,1/2-z
3 1/2+x,1/2+y,z
4 1/2-x,1/2+y,1/2-z
5 -x,-y,-z
6 x,-y,-1/2+z
7 -1/2-x,-1/2-y,-z
8 -1/2+x,-1/2-y,-1/2+z
_cell_length_a 18.034(20)
_cell_length_b 10.853(12)
_cell_length_c 8.979(10)
_cell_angle_alpha 90
_cell_angle_beta 101.482(19)
_cell_angle_gamma 90
_cell_formula_units_Z 4
loop_
_atom_type_symbol
_atom_type_radius_bond
C 0.68
H 0.23
Ce 2.04
Co 1.26
N 0.68
O 0.68
loop_
_atom_site_label
_atom_site_type_symbol
_atom_site_fract_x
_atom_site_fract_y
_atom_site_fract_z
Ce1 Ce 1.00000 1.21257(4) 0.25000
O1 O 1.0458(3) 1.2981(6) 0.5097(7)
O2 O 1.1230(2) 1.4323(6) 0.6483(5)
O3 O 1.1298(3) 1.2921(4) 0.3017(6)
O4 O 1.2174(2) 1.4042(5) 0.4481(5)
O5 O 1.0700(2) 1.0384(5) 0.4025(6)
O6 O 1.0691(2) 0.8949(4) 0.5772(5)
O7 O 1.00000 1.4574(7) 0.25000
C1 C 1.1037(3) 1.3622(7) 0.5361(7)
C2 C 1.1558(3) 1.3538(6) 0.4188(7)
C3 C 1.0401(3) 0.9812(6) 0.4946(8)
Co1 Co 0.75000 0.75000 0.00000
N1 N 0.7890(3) 0.8799(5) 0.1455(6)
H1 H 0.80340 0.94400 0.09620
H2 H 0.82850 0.85140 0.21220
H3 H 0.75300 0.90330 0.19420
N2 N 0.7304(3) 0.6463(5) 0.1640(5)
H4 H 0.71070 0.57500 0.12610
H5 H 0.69790 0.68400 0.21150
H6 H 0.77350 0.63230 0.22950
N3 N 0.8491(3) 0.6791(5) 0.0217(7)
H7 H 0.84690 0.61280 -0.03740
H8 H 0.86590 0.65750 0.11820
H9 H 0.88050 0.73410 -0.00560
O8? O 1.0310(8) 1.2092(10) 0.7676(16)
O5D O 0.9300(2) 0.9616(5) 0.5975(6)
O6D O 0.9309(2) 1.1051(4) 0.4228(5)
C3D C 0.9599(3) 1.0188(6) 0.5054(8)
O1A O 0.9542(3) 1.2981(6) -0.0097(7)
O2A O 0.8770(2) 1.4323(6) -0.1483(5)
O3A O 0.8702(3) 1.2921(4) 0.1983(6)
O4A O 0.7826(2) 1.4042(5) 0.0519(5)
C1A C 0.8963(3) 1.3622(7) -0.0361(7)
C2A C 0.8442(3) 1.3538(6) 0.0812(7)
Ce1D Ce 1.00000 0.78743(4) 0.75000
O5A O 0.9300(2) 1.0384(5) 0.0975(6)
O6E O 1.0691(2) 1.1051(4) 0.0772(5)
N1F N 0.7110(3) 0.6201(5) -0.1455(6)
H1F H 0.69660 0.55600 -0.09620
H2F H 0.67150 0.64860 -0.21220
H3F H 0.74700 0.59670 -0.19420
N2F N 0.7696(3) 0.8537(5) -0.1640(5)
H4F H 0.78930 0.92500 -0.12610
H5F H 0.80210 0.81600 -0.21150
H6F H 0.72650 0.86770 -0.22950
N3F N 0.6509(3) 0.8209(5) -0.0217(7)
H7F H 0.65310 0.88720 0.03740
H8F H 0.63410 0.84250 -0.11820
H9F H 0.61950 0.76590 0.00560
#END
