
#######################################################################
#
#                 Cambridge Crystallographic Data Centre
#                                CCDC
#
#######################################################################
#
# If this CIF has been generated from an entry in the Cambridge
# Structural Database, then it will include bibliographic, chemical,
# crystal, experimental, refinement or atomic coordinate data resulting
# from the CCDC's data processing and validation procedures.
#
#######################################################################

data_CSD_CIF_JACRIR
_audit_creation_date 2015-12-11
_audit_creation_method CSD-ConQuest-V1
_database_code_CSD JACRIR
_database_code_depnum_ccdc_archive 'CCDC 1001747'
_chemical_formula_sum 'C14 H27.5 Co1 Gd1 N6 O12.75'
_chemical_formula_moiety
;
(C8 H26 Co1 N6 3+)n,n(C6 Gd1 O12 3-),0.75n(H2 O1)
;
_journal_coden_Cambridge 1185
_journal_volume 30
_journal_year 2014
_journal_page_first 889
_journal_name_full 'Chem.Res.Chin.Univ. '
loop_
_publ_author_name
"Ruijing Tian"
"Fuxiang Wang"
"Chunyu Du"
"Lijuan Feng"
"Ying Liu"
"Cailing Zhang"
"Qinhe Pan"
_chemical_name_systematic
;
catena-[bis(bis(2-Aminoethyl)amine)-cobalt(iii) 
(\m~2~-oxalato)-bis(oxalato)-gadolinium(iii) hydrate]
;
_chemical_name_common
;
HNU-4
;
_cell_volume   2891.965
_exptl_crystal_density_diffrn 1.608
_diffrn_ambient_temperature 293
_refine_special_details
;
N1,N2,N3,N4,N5,N6 disordered by symmetry over two configurations with 
occupancy 0.50; O1W and O1W' disordered over two sites with occupancies 
0.25:0.25.
;
#These two values have been output from a single CSD field.
_refine_ls_R_factor_gt 0.0705
_refine_ls_wR_factor_gt 0.0705
_symmetry_cell_setting monoclinic
_symmetry_space_group_name_H-M 'C 2/m'
_symmetry_Int_Tables_number 12
loop_
_symmetry_equiv_pos_site_id
_symmetry_equiv_pos_as_xyz
1 x,y,z
2 -x,y,-z
3 1/2+x,1/2+y,z
4 1/2-x,1/2+y,-z
5 -x,-y,-z
6 x,-y,z
7 -1/2-x,-1/2-y,-z
8 -1/2+x,-1/2-y,z
_cell_length_a 24.4039(17)
_cell_length_b 11.6266(7)
_cell_length_c 10.7055(7)
_cell_angle_alpha 90
_cell_angle_beta 107.809(6)
_cell_angle_gamma 90
_cell_formula_units_Z 4
loop_
_atom_type_symbol
_atom_type_radius_bond
C 0.68
Co 1.26
Gd 1.96
N 0.68
O 0.68
loop_
_atom_site_label
_atom_site_type_symbol
_atom_site_fract_x
_atom_site_fract_y
_atom_site_fract_z
Gd1 Gd 0.26631(3) 0.00000 0.60900(5)
O1 O 0.2438(7) 0.00000 0.8104(14)
O2 O 0.1759(7) 0.00000 0.9059(14)
O3 O 0.1662(6) 0.00000 0.5786(16)
O4 O 0.0957(6) 0.00000 0.6626(17)
O5 O 0.3473(5) 0.00000 0.5293(10)
O6 O 0.4419(5) 0.00000 0.5758(10)
O7 O 0.3558(4) 0.00000 0.7805(8)
O8 O 0.4506(4) 0.00000 0.8362(10)
O9 O 0.2759(3) 0.2000(6) 0.6605(6)
O10 O 0.2655(4) 0.3797(6) 0.5822(6)
C1 C 0.1916(11) 0.00000 0.807(2)
C2 C 0.1462(9) 0.00000 0.675(3)
C3 C 0.3981(7) 0.00000 0.6073(15)
C4 C 0.4022(6) 0.00000 0.7552(12)
C5 C 0.2618(4) 0.2737(8) 0.5689(8)
Co1 Co 0.38605(8) 0.00000 0.17186(15)
N1 N 0.3201(10) 0.103(2) 0.107(2)
N2 N 0.4130(15) 0.106(2) 0.311(2)
N3 N 0.3538(11) 0.101(2) 0.021(2)
N4 N 0.4503(9) 0.120(2) 0.238(2)
N5 N 0.4316(10) 0.0849(19) 0.0793(18)
N6 N 0.3446(11) 0.086(2) 0.275(2)
C6 C 0.3198(13) 0.177(3) 0.224(3)
C7 C 0.3316(14) 0.177(3) 0.011(3)
C8 C 0.4435(14) 0.185(3) 0.328(3)
C9 C 0.3921(14) 0.204(3) 0.018(3)
C10 C 0.4528(14) 0.191(3) 0.134(3)
C11 C 0.3698(14) 0.202(3) 0.309(3)
O11 O 0.228(3) 0.00000 1.128(6)
O12 O 0.061(2) 0.00000 0.907(6)
O13? O 0.204(2) 0.00000 1.172(4)
O9F O 0.2241(3) 0.3000(6) 0.3395(6)
O10F O 0.2345(4) 0.1203(6) 0.4178(6)
C5F C 0.2382(4) 0.2263(8) 0.4311(8)
Gd1C Gd 0.23369(3) 0.50000 0.39100(5)
O9E O 0.2759(3) -0.2000(6) 0.6605(6)
O10C O 0.2345(4) -0.1203(6) 0.4178(6)
N1E N 0.3201(10) -0.103(2) 0.107(2)
N2E N 0.4130(15) -0.106(2) 0.311(2)
N3E N 0.3538(11) -0.101(2) 0.021(2)
N4E N 0.4503(9) -0.120(2) 0.238(2)
N5E N 0.4316(10) -0.0849(19) 0.0793(18)
N6E N 0.3446(11) -0.086(2) 0.275(2)
C6E C 0.3198(13) -0.177(3) 0.224(3)
C7E C 0.3316(14) -0.177(3) 0.011(3)
C8E C 0.4435(14) -0.185(3) 0.328(3)
C9E C 0.3921(14) -0.204(3) 0.018(3)
C10E C 0.4528(14) -0.191(3) 0.134(3)
C11E C 0.3698(14) -0.202(3) 0.309(3)
#END
