
#######################################################################
#
#                 Cambridge Crystallographic Data Centre
#                                CCDC
#
#######################################################################
#
# If this CIF has been generated from an entry in the Cambridge
# Structural Database, then it will include bibliographic, chemical,
# crystal, experimental, refinement or atomic coordinate data resulting
# from the CCDC's data processing and validation procedures.
#
#######################################################################

data_CSD_CIF_JACXEU
_audit_creation_date 2020-10-01
_audit_creation_method CSD-ConQuest-V1
_database_code_CSD JACXEU
_database_code_depnum_ccdc_archive 'CCDC 2004232'
_chemical_formula_sum 'C84 H88 Co2 N12 O20 Rb1'
_chemical_formula_moiety
;
(C68 H52 Co2 N8 O16 1-)n,4(C4 H9 N1 O1),Rb1 1+
;
_journal_coden_Cambridge 182
_journal_volume 56
_journal_year 2020
_journal_page_first 13109
_journal_name_full 'Chem.Commun. '
loop_
_publ_author_name
"S.Koyama"
"T.Tanabe"
"S.Takaishi"
"M.Yamashita"
"H.Iguchi"
_chemical_name_systematic
;
catena-[rubidium 
bis(\m-2,7-di(pyridin-4-yl)benzo[lmn][3,8]phenanthroline-1,3,6,8(2H,7H)-tetron
e radical)-tetrakis(acetylacetonato)-di-cobalt N,N-dimethylacetamide solvate]
;
_cell_volume   3260.341
_exptl_crystal_colour 'black'
_exptl_crystal_density_diffrn 1.367
_exptl_crystal_description 'rod'
_diffrn_ambient_temperature 120
_refine_special_details
;
The structure is disordered.

;
#These two values have been output from a single CSD field.
_refine_ls_R_factor_gt 0.0594
_refine_ls_wR_factor_gt 0.0594
_symmetry_cell_setting hexagonal
_symmetry_space_group_name_H-M 'P 64 2 2'
_symmetry_Int_Tables_number 181
loop_
_symmetry_equiv_pos_site_id
_symmetry_equiv_pos_as_xyz
1 x,y,z
2 -x,-y,z
3 -y,x-y,1/3+z
4 -x+y,-x,2/3+z
5 x-y,x,2/3+z
6 y,-x+y,1/3+z
7 x-y,-y,-z
8 -x,-x+y,2/3-z
9 y,x,1/3-z
10 -y,-x,1/3-z
11 x,x-y,2/3-z
12 -x+y,y,-z
_cell_length_a 19.8453(7)
_cell_length_b 19.8453(7)
_cell_length_c 9.5591(7)
_cell_angle_alpha 90
_cell_angle_beta 90
_cell_angle_gamma 120
_cell_formula_units_Z 1
loop_
_atom_type_symbol
_atom_type_radius_bond
C 0.68
H 0.23
Co 1.26
N 0.68
O 0.68
Rb 2.20
loop_
_atom_site_label
_atom_site_type_symbol
_atom_site_fract_x
_atom_site_fract_y
_atom_site_fract_z
Co1 Co 0.50000 0.00000 0.50000
O1 O 0.11178(12) -0.13235(12) 0.4848(3)
N1 N 0.17691(15) 0.00000 0.50000
C1 C 0.03468(14) -0.07180(14) 0.4990(3)
C2 C -0.03576(14) -0.14161(15) 0.4996(3)
H1 H -0.03598 -0.18959 0.49955
C3 C 0.03581(16) 0.00000 0.50000
C4 C 0.10810(15) -0.07300(16) 0.4945(4)
C5 C 0.25003(18) 0.00000 0.50000
N2 N 0.38960(18) 0.00000 0.50000
O2 O 0.5390(2) 0.0832(2) 0.6508(6)
C6 C 0.3017(2) 0.0345(2) 0.3910(5)
H2 H 0.29057 0.05852 0.31545
C7 C 0.3708(2) 0.0326(3) 0.3966(5)
H3 H 0.40685 0.05597 0.32207
C8 C 0.5736(5) 0.1547(4) 0.6317(13)
C9 C 0.5957(3) 0.1915(6) 0.50000
H4 H 0.62338 0.24676 0.50000
C10 C 0.5945(9) 0.2067(6) 0.7606(17)
H5 H 0.62376 0.26141 0.73186
H6 H 0.62637 0.19546 0.82411
H7 H 0.54671 0.19671 0.80857
O3 O 0.5573(9) -0.1042(11) 1.038(3)
C11 C 0.5632(9) -0.2034(13) 1.151(3)
H8 H 0.53129 -0.25870 1.12725
H9 H 0.53763 -0.19016 1.22462
H10 H 0.61445 -0.19265 1.18290
C12 C 0.5724(7) -0.1562(10) 1.025(3)
N3 N 0.5950(8) -0.1792(10) 0.901(2)
C13 C 0.6182(14) -0.133(2) 0.790(5)
H11 H 0.63828 -0.07926 0.81954
H12 H 0.57414 -0.14885 0.72647
H13 H 0.65936 -0.13784 0.74211
C14 C 0.598(4) -0.237(3) 0.941(7)
H14 H 0.57346 -0.25394 1.03238
H15 H 0.57169 -0.27928 0.87289
H16 H 0.65310 -0.22349 0.94786
Rb1 Rb 0.50000 0.00000 1.00000
Rb2? Rb 0.50000 0.00000 0.911(2)
O1A O -0.11178(12) 0.13235(12) 0.4848(3)
N1A N -0.17691(15) 0.00000 0.50000
C1A C -0.03468(14) 0.07180(14) 0.4990(3)
C2A C 0.03576(14) 0.14161(15) 0.4996(3)
H1A H 0.03598 0.18959 0.49955
C3A C -0.03581(16) 0.00000 0.50000
C4A C -0.10810(15) 0.07300(16) 0.4945(4)
C5A C -0.25003(18) 0.00000 0.50000
N2A N -0.38960(18) 0.00000 0.50000
C6A C -0.3017(2) -0.0345(2) 0.3910(5)
H2A H -0.29057 -0.05852 0.31545
C7A C -0.3708(2) -0.0326(3) 0.3966(5)
H3A H -0.40685 -0.05597 0.32207
O1F O 0.24413(12) 0.13235(12) 0.5152(3)
C1F C 0.10648(14) 0.07180(14) 0.5010(3)
C2F C 0.10585(14) 0.14161(15) 0.5004(3)
H1F H 0.15361 0.18959 0.50045
C4F C 0.18110(15) 0.07300(16) 0.5055(4)
C6F C 0.2672(2) -0.0345(2) 0.6090(5)
H2F H 0.23206 -0.05852 0.68455
C7F C 0.3382(2) -0.0326(3) 0.6034(5)
H3F H 0.35088 -0.05597 0.67793
O1K O -0.24413(12) -0.13235(12) 0.5152(3)
C1K C -0.10648(14) -0.07180(14) 0.5010(3)
C2K C -0.10585(14) -0.14161(15) 0.5004(3)
H1K H -0.15361 -0.18959 0.50045
C4K C -0.18110(15) -0.07300(16) 0.5055(4)
C6K C -0.2672(2) 0.0345(2) 0.6090(5)
H2K H -0.23206 0.05852 0.68455
C7K C -0.3382(2) 0.0326(3) 0.6034(5)
H3K H -0.35088 0.05597 0.67793
O2K O 0.5442(2) 0.0832(2) 0.3492(6)
C8K C 0.5811(5) 0.1547(4) 0.3683(13)
C10K C 0.6122(9) 0.2067(6) 0.2394(17)
H5K H 0.63765 0.26141 0.26814
H6K H 0.56909 0.19546 0.17589
H7K H 0.65000 0.19671 0.19143
O2F O 0.4558(2) -0.0832(2) 0.3492(6)
C8F C 0.4189(5) -0.1547(4) 0.3683(13)
C9A C 0.4043(3) -0.1915(6) 0.50000
H4A H 0.37662 -0.24676 0.50000
C10F C 0.3878(9) -0.2067(6) 0.2394(17)
H5F H 0.36235 -0.26141 0.26814
H6F H 0.43091 -0.19546 0.17589
H7F H 0.35000 -0.19671 0.19143
O2A O 0.4610(2) -0.0832(2) 0.6508(6)
C8A C 0.4264(5) -0.1547(4) 0.6317(13)
C10A C 0.4055(9) -0.2067(6) 0.7606(17)
H5A H 0.37624 -0.26141 0.73186
H6A H 0.37363 -0.19546 0.82411
H7A H 0.45329 -0.19671 0.80857
Co1* Co -0.50000 0.00000 0.50000
N2A* N 0.61040(18) 0.00000 0.50000
Co1** Co 1.50000 0.00000 0.50000
N2* N 1.38960(18) 0.00000 0.50000
O2F* O 1.4558(2) -0.0832(2) 0.3492(6)
O2A* O 1.4610(2) -0.0832(2) 0.6508(6)
O2* O 1.5390(2) 0.0832(2) 0.6508(6)
O2K* O 1.5442(2) 0.0832(2) 0.3492(6)
N2A** N 1.61040(18) 0.00000 0.50000
O1F* O 1.24413(12) 0.13235(12) 0.5152(3)
C4F* C 1.18110(15) 0.07300(16) 0.5055(4)
N1* N 1.17691(15) 0.00000 0.50000
C5* C 1.25003(18) 0.00000 0.50000
C4* C 1.10810(15) -0.07300(16) 0.4945(4)
C1F* C 1.10648(14) 0.07180(14) 0.5010(3)
C2F* C 1.10585(14) 0.14161(15) 0.5004(3)
C3* C 1.03581(16) 0.00000 0.50000
H1F* H 1.15361 0.18959 0.50045
C2A* C 1.03576(14) 0.14161(15) 0.4996(3)
C3A* C 0.96419(16) 0.00000 0.50000
C1* C 1.03468(14) -0.07180(14) 0.4990(3)
C6F* C 1.2672(2) -0.0345(2) 0.6090(5)
C6* C 1.3017(2) 0.0345(2) 0.3910(5)
C7F* C 1.3382(2) -0.0326(3) 0.6034(5)
C7* C 1.3708(2) 0.0326(3) 0.3966(5)
C8F* C 1.4189(5) -0.1547(4) 0.3683(13)
H2F* H 1.23205 -0.05852 0.68455
H3F* H 1.35088 -0.05597 0.67793
C9A* C 1.4043(3) -0.1915(6) 0.50000
C10F* C 1.3878(9) -0.2067(6) 0.2394(17)
H4A* H 1.37662 -0.24676 0.50000
C8A* C 1.4264(5) -0.1547(4) 0.6317(13)
H5F* H 1.36235 -0.26141 0.26814
H6F* H 1.43091 -0.19546 0.17589
H7F* H 1.35000 -0.19671 0.19143
O1K* O 0.75587(12) -0.13235(12) 0.5152(3)
C4K* C 0.81890(15) -0.07300(16) 0.5055(4)
N1A* N 0.82309(15) 0.00000 0.50000
C5A* C 0.74997(18) 0.00000 0.50000
C4A* C 0.89190(15) 0.07300(16) 0.4945(4)
C1K* C 0.89352(14) -0.07180(14) 0.5010(3)
C2K* C 0.89415(14) -0.14161(15) 0.5004(3)
H1K* H 0.84639 -0.18959 0.50045
C2* C 0.96424(14) -0.14161(15) 0.4996(3)
C1A* C 0.96532(14) 0.07180(14) 0.4990(3)
C6K* C 0.7328(2) 0.0345(2) 0.6090(5)
C6A* C 0.6983(2) -0.0345(2) 0.3910(5)
C7K* C 0.6618(2) 0.0326(3) 0.6034(5)
C7A* C 0.6292(2) -0.0326(3) 0.3966(5)
H2K* H 0.76794 0.05852 0.68455
H3K* H 0.64912 0.05597 0.67793
O1* O 1.11178(12) -0.13235(12) 0.4848(3)
H1* H 0.96403 -0.18959 0.49955
H2* H 1.29057 0.05852 0.31545
H3* H 1.40685 0.05597 0.32207
O1A* O 0.88822(12) 0.13235(12) 0.4848(3)
H1A* H 1.03598 0.18959 0.49955
H2A* H 0.70943 -0.05852 0.31545
H3A* H 0.59315 -0.05597 0.32207
C10A* C 1.4055(9) -0.2067(6) 0.7606(17)
H5A* H 1.37624 -0.26141 0.73186
H6A* H 1.37363 -0.19546 0.82411
H7A* H 1.45329 -0.19671 0.80857
C8* C 1.5736(5) 0.1547(4) 0.6317(13)
C9* C 1.5957(3) 0.1915(6) 0.50000
C10* C 1.5945(9) 0.2067(6) 0.7606(17)
H4* H 1.62338 0.24676 0.50000
C8K* C 1.5811(5) 0.1547(4) 0.3683(13)
H5* H 1.62376 0.26141 0.73186
H6* H 1.62637 0.19546 0.82411
H7* H 1.54671 0.19671 0.80857
C10K* C 1.6122(9) 0.2067(6) 0.2394(17)
H5K* H 1.63765 0.26141 0.26814
H6K* H 1.56909 0.19546 0.17589
H7K* H 1.65000 0.19671 0.19143
O3J O 0.5573(9) -0.3385(11) 0.628667(3000)
C11J C 0.5632(9) -0.2334(13) 0.515667(3000)
H8J H 0.53129 -0.21001 0.53942
H9J H 0.53763 -0.27221 0.44205
H10J H 0.61445 -0.19290 0.48377
C12J C 0.5724(7) -0.2714(10) 0.641667(3000)
N3J N 0.5950(8) -0.2258(10) 0.765667(2000)
C13J C 0.6182(14) -0.2488(20) 0.876667(5000)
H11J H 0.63828 -0.28246 0.84712
H12J H 0.57414 -0.27701 0.94019
H13J H 0.65936 -0.20279 0.92455
C14J C 0.598(4) -0.165(3) 0.725667(7000)
H14J H 0.57346 -0.17260 0.63428
H15J H 0.57169 -0.14903 0.79378
H16J H 0.65310 -0.12340 0.71881
#END
