
#######################################################################
#
#                 Cambridge Crystallographic Data Centre
#                                CCDC
#
#######################################################################
#
# If this CIF has been generated from an entry in the Cambridge
# Structural Database, then it will include bibliographic, chemical,
# crystal, experimental, refinement or atomic coordinate data resulting
# from the CCDC's data processing and validation procedures.
#
#######################################################################

data_CSD_CIF_JADLIM01
_audit_creation_date 2015-12-11
_audit_creation_method CSD-ConQuest-V1
_database_code_CSD JADLIM01
_database_code_depnum_ccdc_archive 'CCDC 1431176'
_chemical_formula_sum 'C55 H40 N2 O28 S3 U4'
_chemical_formula_moiety
;
(C42 H24 O28 S3 U4 2-)n,C13 H16 N2 2+
;
_journal_coden_Cambridge 182
_journal_volume 52
_journal_year 2016
_journal_page_first 1641
_journal_name_full 'Chem.Commun. '
loop_
_publ_author_name
"Shu-wen An"
"Lei Mei"
"Kong-qiu Hu"
"Chuan-qin Xia"
"Zhi-fang Chai"
"Wei-qun Shi"
_chemical_name_systematic
;
catena-[4,4'-(propane-1,3-diyl)dipyridin-1-ium 
tris(\m-4,4'-sulfonyldibenzoato)-bis(\m-oxido)-octaoxo-tetra-uranium unknown 
solvate]
;
_cell_volume   3647.771
_exptl_crystal_colour 'yellow'
_exptl_crystal_density_diffrn 2.016
_exptl_special_details
;
Luminescent
triclinic polymorph

;
_exptl_crystal_description 'block'
_diffrn_ambient_temperature 293
_refine_special_details
;
The structure is disordered. The SQUEEZE/PLATON program has been used to 
model some disorder.
;
#These two values have been output from a single CSD field.
_refine_ls_R_factor_gt 0.0513
_refine_ls_wR_factor_gt 0.0513
_symmetry_cell_setting triclinic
_symmetry_space_group_name_H-M 'P -1'
_symmetry_Int_Tables_number 2
loop_
_symmetry_equiv_pos_site_id
_symmetry_equiv_pos_as_xyz
1 x,y,z
2 -x,-y,-z
_cell_length_a 10.523(2)
_cell_length_b 11.866(2)
_cell_length_c 29.288(6)
_cell_angle_alpha 90.81(3)
_cell_angle_beta 92.91(3)
_cell_angle_gamma 92.71(3)
_cell_formula_units_Z 2
loop_
_atom_type_symbol
_atom_type_radius_bond
C 0.68
H 0.23
N 0.68
O 0.68
S 1.02
U 1.96
loop_
_atom_site_label
_atom_site_type_symbol
_atom_site_fract_x
_atom_site_fract_y
_atom_site_fract_z
U1 U 0.02965(6) 1.35519(4) 0.515905(17)
U2 U 0.02856(7) 0.64768(4) -0.014219(16)
U3 U 0.05506(6) 1.40533(4) 0.386744(16)
U4 U 0.05890(9) 0.59619(5) 0.115075(18)
O1 O -0.1312(9) 1.3095(8) 0.5021(3)
O2 O 0.2097(9) 1.4682(7) 0.3895(3)
O3 O 0.1906(9) 1.3883(7) 0.5314(3)
O4 O 0.1138(9) 1.2654(7) 0.4431(3)
O5 O 0.0234(9) 1.4767(7) 0.4561(3)
O6 O 0.0020(11) 1.2867(8) 0.5906(3)
O7 O 0.1916(11) 0.6283(8) -0.0258(3)
O8 O -0.1297(12) 0.6819(8) -0.0041(3)
O9 O -0.0983(10) 1.3388(9) 0.3813(3)
S1 S 0.4441(4) 1.2141(3) 0.14154(12)
S2 S 0.4414(4) 0.8228(3) 0.37526(12)
O10 O 0.5639(10) 1.1702(9) 0.1577(4)
O11 O 0.0665(11) 1.4013(8) 0.3025(3)
O12 O 0.0288(11) 1.4252(9) 0.6419(3)
O13 O 0.1459(12) 1.2582(8) 0.3394(3)
O14 O 0.1245(13) 0.7399(8) 0.0614(3)
O15 O 0.4435(9) 0.7241(8) 0.4034(3)
O16 O 0.0722(15) 0.6029(9) 0.1995(3)
O17 O 0.444(1) 1.3122(8) 0.1125(3)
O18 O 0.0316(14) 0.5793(9) 0.8600(3)
O19 O -0.0245(12) 0.4752(8) -0.0445(3)
O20 O 0.5606(10) 0.8784(10) 0.3623(4)
C1 C 0.1986(14) 1.082(1) 0.4382(4)
O21 O 0.2133(13) 0.5387(8) 0.1179(4)
C2 C 0.3533(12) 1.1047(11) 0.1130(4)
C3 C 0.3471(13) 0.9248(11) 0.4005(4)
C4 C 0.3513(14) 0.7848(11) 0.3237(4)
C5 C 0.3647(12) 1.0373(11) 0.3883(4)
H1 H 0.42520 1.05860 0.36760
C6 C 0.2911(13) 1.1158(11) 0.4073(4)
H2 H 0.30220 1.19150 0.39990
C7 C 0.2080(14) 0.931(1) 0.0687(4)
C8 C 0.3038(15) 0.9065(12) 0.1015(4)
H3 H 0.31800 0.83190 0.10860
C9 C 0.2723(14) 1.3318(10) 0.1878(4)
H4 H 0.26520 1.37570 0.16180
C10 C 0.1885(14) 1.0432(11) 0.0575(4)
H5 H 0.12910 1.05930 0.03430
C11 C 0.1846(13) 0.9693(12) 0.4505(5)
H6 H 0.12690 0.94820 0.47230
C12 C 0.1315(15) 1.1698(11) 0.4621(4)
C13 C 0.2566(13) 1.1301(10) 0.0807(4)
H7 H 0.23850 1.20470 0.07500
C14 C 0.1385(17) 0.8390(11) 0.0436(4)
O22 O 0.1554(17) 0.7474(9) 0.1652(3)
C15 C 0.2572(13) 0.8873(11) 0.4304(4)
H8 H 0.24530 0.81120 0.43680
C16 C 0.2093(15) 1.2886(11) 0.2627(4)
C17 C 0.3547(14) 1.2441(11) 0.1896(4)
C18 C 0.2699(15) 0.6896(11) 0.3226(4)
H9 H 0.26220 0.64600 0.34850
C19 C 0.1365(16) 1.3160(12) 0.3031(5)
C20 C 0.2121(18) 0.7250(12) 0.2443(4)
C21 C 0.3772(14) 0.9921(12) 0.1232(4)
H10 H 0.44190 0.97560 0.14450
C22 C 0.2020(16) 0.6606(11) 0.2837(4)
H11 H 0.14740 0.59650 0.28300
C23 C 0.2017(15) 1.3533(10) 0.2244(4)
H12 H 0.14740 1.41290 0.22340
C24 C 0.2953(18) 0.8222(13) 0.2463(5)
H13 H 0.30240 0.86620 0.22040
C25 C 0.0314(15) 0.6801(14) 0.8738(5)
C26 C 0.3631(17) 1.1767(13) 0.2286(5)
H14 H 0.41630 1.11630 0.22970
C27 C 0.0347(15) 1.3253(14) 0.6291(5)
C28 C 0.3644(15) 0.8526(12) 0.2848(5)
H15 H 0.41920 0.91650 0.28580
C29 C 0.143(2) 0.6914(12) 0.2005(5)
C30 C 0.2927(17) 1.2010(13) 0.2645(4)
H16 H 0.30020 1.15850 0.29090
O23 O -0.0880(19) 0.6563(11) 0.1142(4)
O24 O -0.0095(11) 0.7115(8) 0.9110(3)
O25 O 0.0906(11) 0.8527(7) 0.0031(3)
O26 O 0.0892(10) 1.1533(7) 0.5012(3)
C31 C 0.0849(11) 1.2399(9) 0.6634(4)
C32 C 0.1208(13) 1.2754(10) 0.7079(4)
H17 H 0.10520 1.34820 0.71750
C33 C 0.1802(13) 1.2022(15) 0.7378(4)
H18 H 0.20430 1.22590 0.76750
C34 C 0.2036(12) 1.0934(14) 0.7233(6)
C35 C 0.1677(14) 1.0578(10) 0.6789(6)
H19 H 0.18340 0.98500 0.66920
C36 C 0.1083(13) 1.1311(10) 0.6490(4)
H20 H 0.08430 1.10730 0.61930
C37 C 0.1970(17) 0.9104(18) 0.7887(7)
C38 C 0.168(2) 0.810(2) 0.7672(9)
H21 H 0.18440 0.79310 0.73700
C39 C 0.176(2) 0.963(2) 0.8311(9)
H22 H 0.20150 1.03660 0.83960
C40 C 0.1054(17) 0.8783(15) 0.8606(7)
H23 H 0.07730 0.89800 0.88910
C41 C 0.1085(18) 0.7338(18) 0.7970(7)
H24 H 0.08450 0.66050 0.78740
C42 C 0.0859(17) 0.7720(15) 0.8424(6)
S3 S 0.3203(12) 1.0085(9) 0.7562(4)
O27 O 0.342(2) 0.9286(16) 0.7194(7)
O28 O 0.3283(15) 1.0951(13) 0.7932(5)
C43 C -0.430(2) 1.585(2) 0.2978(8)
H25 H -0.44680 1.64300 0.31820
C44 C -0.449(2) 1.6011(18) 0.2510(9)
H26 H -0.47780 1.66910 0.24020
N1 N -0.424(2) 1.515(2) 0.2205(6)
H27 H -0.43530 1.52490 0.19150
C45 C -0.380(2) 1.414(2) 0.2367(9)
H28 H -0.36380 1.35620 0.21620
C46 C -0.362(2) 1.3980(18) 0.2834(10)
H29 H -0.33290 1.33010 0.29430
C47 C -0.387(2) 1.484(2) 0.3140(7)
C48 C -0.387(3) 1.485(2) 0.3740(12)
C49 C -0.4902(18) 1.2017(19) 0.4842(7)
C50 C -0.400(2) 1.2340(17) 0.4534(8)
C51 C -0.323(2) 1.154(3) 0.4351(8)
C52 C -0.338(3) 1.042(3) 0.4476(11)
N2 N -0.429(3) 1.0094(15) 0.4783(12)
C53 C -0.505(2) 1.089(2) 0.4967(8)
C54 C -0.393(4) 1.350(4) 0.4337(13)
C55 C -0.406(3) 1.360(3) 0.3878(15)
C56? C -0.463(3) 1.423(2) 0.4678(8)
U1A U -0.02965(6) 1.64481(4) 0.484095(17)
U2* U 0.02856(7) 0.64768(4) 0.985781(16)
U2A U -0.02856(7) 0.35232(4) 0.014219(16)
U3A U -0.05506(6) 1.59467(4) 0.613256(16)
U4A U -0.05890(9) 0.40381(5) -0.115075(18)
U4A* U -0.05890(9) 0.40381(5) 0.884925(18)
O5A O -0.0234(9) 1.5233(7) 0.5439(3)
O12A O -0.0288(11) 1.5748(9) 0.3581(3)
O18A O -0.0316(14) 0.4207(9) 0.1400(3)
O19A O 0.0245(12) 0.5248(8) 0.0445(3)
O24* O -0.0095(11) 0.7115(8) -0.0890(3)
C43A C -0.570(2) 0.415(2) 0.7022(8)
H25A H -0.55320 0.35700 0.68180
C44A C -0.551(2) 0.3989(18) 0.7490(9)
H26A H -0.52220 0.33090 0.75980
N1A N -0.576(2) 0.485(2) 0.7795(6)
H27A H -0.56470 0.47510 0.80850
C45A C -0.620(2) 0.586(2) 0.7633(9)
H28A H -0.63620 0.64380 0.78380
C46A C -0.638(2) 0.6020(18) 0.7166(10)
H29A H -0.66710 0.66990 0.70570
C47A C -0.613(2) 0.516(2) 0.6860(7)
C48A C -0.613(3) 0.515(2) 0.6260(12)
C49A C -0.5098(18) 0.7983(19) 0.5158(7)
C50A C -0.600(2) 0.7660(17) 0.5466(8)
C51A C -0.677(2) 0.846(3) 0.5649(8)
C52A C -0.662(3) 0.958(3) 0.5524(11)
N2A N -0.571(3) 0.9906(15) 0.5217(12)
C53A C -0.495(2) 0.911(2) 0.5033(8)
C54A C -0.607(4) 0.650(4) 0.5663(13)
C55A C -0.594(3) 0.640(3) 0.6122(15)
#END
