
#######################################################################
#
#                 Cambridge Crystallographic Data Centre
#                                CCDC
#
#######################################################################
#
# If this CIF has been generated from an entry in the Cambridge
# Structural Database, then it will include bibliographic, chemical,
# crystal, experimental, refinement or atomic coordinate data resulting
# from the CCDC's data processing and validation procedures.
#
#######################################################################

data_CSD_CIF_JADLIM
_audit_creation_date 2015-12-11
_audit_creation_method CSD-ConQuest-V1
_database_code_CSD JADLIM
_database_code_depnum_ccdc_archive 'CCDC 1431175'
_chemical_formula_sum 'C55 H40 N2 O28 S3 U4'
_chemical_formula_moiety
;
(C42 H24 O28 S3 U4 2-)n,C13 H16 N2 2+
;
_journal_coden_Cambridge 182
_journal_volume 52
_journal_year 2016
_journal_page_first 1641
_journal_name_full 'Chem.Commun. '
loop_
_publ_author_name
"Shu-wen An"
"Lei Mei"
"Kong-qiu Hu"
"Chuan-qin Xia"
"Zhi-fang Chai"
"Wei-qun Shi"
_chemical_name_systematic
;
catena-[4,4'-(propane-1,3-diyl)dipyridin-1-ium 
tris(\m-4,4'-sulfonyldibenzoato)-bis(\m-oxido)-octaoxo-tetra-uranium unknown 
solvate]
;
_cell_volume  14589.551
_exptl_crystal_colour 'dark red'
_exptl_crystal_density_diffrn 2.025
_exptl_special_details
;
Luminescent
monoclinic polymorph

;
_exptl_crystal_description 'block'
_diffrn_ambient_temperature 293
_refine_special_details
;
The SQUEEZE/PLATON program has been used to model some disorder.

;
#These two values have been output from a single CSD field.
_refine_ls_R_factor_gt 0.0814
_refine_ls_wR_factor_gt 0.0814
_symmetry_cell_setting monoclinic
_symmetry_space_group_name_H-M 'P 21/n'
_symmetry_Int_Tables_number 14
loop_
_symmetry_equiv_pos_site_id
_symmetry_equiv_pos_as_xyz
1 x,y,z
2 1/2-x,1/2+y,1/2-z
3 -x,-y,-z
4 -1/2+x,-1/2-y,-1/2+z
_cell_length_a 23.831(5)
_cell_length_b 20.716(4)
_cell_length_c 29.555(6)
_cell_angle_alpha 90
_cell_angle_beta 90.75(3)
_cell_angle_gamma 90
_cell_formula_units_Z 8
loop_
_atom_type_symbol
_atom_type_radius_bond
C 0.68
H 0.23
N 0.68
O 0.68
S 1.02
U 1.96
loop_
_atom_site_label
_atom_site_type_symbol
_atom_site_fract_x
_atom_site_fract_y
_atom_site_fract_z
U1 U 0.44851(2) 0.23622(3) 0.376728(18)
U2 U 0.54001(2) 0.29877(3) 0.605226(18)
U3 U 0.42208(2) 0.25365(3) 0.505290(19)
U4 U 0.56810(2) 0.27947(3) 0.476216(19)
O1 O 0.5860(4) 0.1979(6) 0.4883(3)
O2 O 0.5101(4) 0.3760(5) 0.6051(3)
O3 O 0.4364(4) 0.1701(5) 0.5197(3)
O4 O 0.8877(4) 0.2311(6) 0.0805(3)
O5 O 0.4004(4) 0.3318(5) 0.4937(3)
O6 O 0.4828(4) 0.2556(5) 0.4457(3)
O7 O 0.4804(4) 0.1595(5) 0.3783(3)
O8 O 0.6701(4) 0.3047(6) 0.4937(3)
O9 O 0.8776(4) 0.2964(5) 0.9314(3)
O10 O 0.8226(4) 0.2819(6) 0.9892(3)
O11 O 0.5343(5) 0.2825(6) 0.3510(3)
O12 O 0.5402(4) 0.3046(6) 0.6906(3)
O13 O 0.9470(4) 0.2726(5) 0.7921(3)
O14 O 0.9549(4) 0.2496(6) 0.1319(4)
O15 O 0.5058(4) 0.2811(5) 0.5354(3)
O16 O 0.6137(4) 0.3233(5) 0.5508(3)
O17 O 0.5596(4) 0.3605(5) 0.4638(4)
O18 O 0.4145(5) 0.3100(6) 0.3726(4)
O19 O 0.5712(5) 0.2215(6) 0.6086(4)
O20 O 0.8748(4) 0.3142(7) 0.8293(3)
O21 O 0.6132(4) 0.3460(8) 0.6550(3)
C1 C 0.7099(6) 0.3572(7) 0.5588(4)
C2 C 0.6630(5) 0.3243(7) 0.5339(5)
S1 S 0.65177(15) 0.47282(19) 0.86539(14)
C3 C 0.9040(6) 0.2513(7) 0.1182(5)
O22 O 0.6038(4) 0.4712(6) 0.8959(4)
O23 O 0.6777(5) 0.5340(5) 0.8529(4)
C4 C 0.7407(5) 0.4378(7) 0.6129(4)
H1 H 0.73340 0.46820 0.63520
C5 C 0.6973(6) 0.4033(7) 0.5921(4)
H2 H 0.66020 0.41070 0.60030
C6 C 0.8299(6) 0.3053(9) 0.9510(5)
C7 C 0.8073(5) 0.3818(7) 0.5673(5)
H3 H 0.84460 0.37520 0.55950
C8 C 0.5859(5) 0.3920(8) 0.8141(5)
H4 H 0.56610 0.38520 0.84050
C9 C 0.6256(7) 0.3011(8) 0.3277(5)
C10 C 0.9037(6) 0.3108(8) 0.7929(5)
C11 C 0.7654(5) 0.3475(7) 0.5462(5)
H5 H 0.77390 0.31780 0.52370
C12 C 0.6010(6) 0.3707(9) 0.7356(5)
C13 C 0.5702(6) 0.3619(8) 0.7748(5)
H6 H 0.53880 0.33530 0.77430
C14 C 0.6317(6) 0.4326(7) 0.8138(5)
C15 C 0.5841(6) 0.3369(10) 0.6915(5)
C16 C 0.6629(7) 0.4419(9) 0.7746(5)
H7 H 0.69360 0.46950 0.77510
C17 C 0.7940(5) 0.4254(7) 0.5995(5)
C18 C 0.6108(8) 0.3196(10) 0.2854(6)
H8 H 0.57340 0.31500 0.27660
C19 C 0.6484(6) 0.4106(9) 0.7359(5)
H9 H 0.66960 0.41560 0.71000
C20 C 0.6827(8) 0.3099(9) 0.3404(7)
H10 H 0.69570 0.29840 0.36910
S2 S 0.84920(15) 0.47093(19) 0.62711(13)
S3 S 0.7466(3) 0.4035(3) 0.2338(3)
O24 O 0.8975(4) 0.4703(5) 0.5983(4)
O25 O 0.8261(5) 0.5317(5) 0.6425(4)
O26 O 0.6024(4) 0.2613(6) 0.4000(4)
C21 C 0.5864(6) 0.2791(8) 0.3633(6)
C22 C 0.7035(10) 0.3591(9) 0.2684(8)
C23 C 0.6485(10) 0.3455(9) 0.2537(8)
H11 H 0.63720 0.35320 0.22390
C24 C 0.7189(8) 0.3366(10) 0.3082(10)
H12 H 0.75690 0.33840 0.31570
O27 O 0.7833(8) 0.4414(7) 0.2636(7)
O28 O 0.7098(8) 0.4334(9) 0.1982(7)
C25 C 0.7878(9) 0.3492(9) 0.2031(9)
C26 C 0.7720(8) 0.3278(10) 0.1589(8)
H13 H 0.73670 0.33760 0.14710
C27 C 0.8419(9) 0.3345(9) 0.2187(6)
H14 H 0.85310 0.34830 0.24740
C28 C 0.6893(5) 0.3765(7) 0.9221(5)
H15 H 0.65190 0.37140 0.93000
C29 C 0.9110(5) 0.3828(7) 0.6750(4)
H16 H 0.93230 0.37820 0.64900
C30 C 0.7043(5) 0.4228(8) 0.8900(5)
C31 C 0.7597(6) 0.4297(8) 0.8760(5)
H17 H 0.76910 0.46040 0.85450
C32 C 0.8653(5) 0.4250(8) 0.6765(5)
C33 C 0.8320(6) 0.4300(9) 0.7158(5)
H18 H 0.80310 0.46010 0.71700
C34 C 0.9230(6) 0.3483(7) 0.7139(5)
H19 H 0.95510 0.32270 0.71440
C35 C 0.7303(6) 0.3384(8) 0.9423(5)
H20 H 0.72120 0.30970 0.96520
C36 C 0.8001(6) 0.3900(8) 0.8950(5)
H21 H 0.83730 0.39400 0.88630
C37 C 0.8426(6) 0.3905(9) 0.7517(5)
H22 H 0.81860 0.39020 0.77630
C38 C 0.8789(7) 0.3002(8) 0.1930(6)
H23 H 0.91420 0.28940 0.20440
C39 C 0.8094(7) 0.2925(9) 0.1337(6)
H24 H 0.79820 0.27590 0.10580
C40 C 0.7853(5) 0.3437(8) 0.9276(5)
C41 C 0.8907(6) 0.3494(8) 0.7515(5)
C42 C 0.8628(7) 0.2816(7) 0.1493(5)
U5 U 0.94502(2) 0.20907(3) 0.381046(19)
U6 U 0.91965(2) 0.22913(4) 0.50988(2)
U7 U 1.04095(2) 0.26545(3) 0.60881(2)
U8 U 1.06529(2) 0.25419(4) 0.47960(2)
O29 O 0.6123(4) 0.2062(5) 0.0544(3)
O30 O 0.9814(4) 0.2255(6) 0.4504(3)
O31 O 0.5310(5) 0.2464(6) 0.8538(4)
O32 O 0.9426(4) 0.2024(5) 0.2967(3)
O33 O 0.5443(4) 0.2331(5) 0.1927(4)
O34 O 1.0177(4) 0.3466(5) 0.6104(3)
O35 O 0.8178(4) 0.1996(6) 0.4930(4)
O36 O 0.8699(4) 0.1636(6) 0.3325(3)
O37 O 0.9001(5) 0.3114(5) 0.4953(4)
O38 O 1.0835(5) 0.1748(6) 0.4905(4)
O39 O 0.8748(4) 0.1810(6) 0.4373(3)
O40 O 1.0038(4) 0.2551(6) 0.5394(3)
O41 O 0.6204(4) 0.1985(6) 0.1582(4)
O42 O 1.0527(4) 0.3374(6) 0.4661(3)
O43 O 0.9735(4) 0.1311(5) 0.3809(3)
O44 O 0.6670(4) 0.2121(6) -0.0054(3)
O45 O 0.9507(6) 0.2291(6) 0.6347(4)
O46 O 0.8843(5) 0.2492(8) 0.5844(4)
O47 O 0.9308(4) 0.1488(6) 0.5258(4)
S4 S 0.64081(14) 0.03481(18) 0.35748(12)
S5 S 0.83017(14) 0.02424(17) 0.12658(12)
O48 O 1.0661(5) 0.1849(6) 0.6089(4)
O49 O 0.9148(5) 0.2863(6) 0.3782(4)
C43 C 0.7800(5) 0.1434(7) 0.4302(5)
S6 S 0.7592(3) 0.0998(4) 0.7658(3)
O50 O 0.6630(4) -0.0268(5) 0.3431(3)
O51 O 0.5917(4) 0.0369(5) 0.3849(3)
O52 O 0.8785(4) 0.0210(5) 0.0977(3)
O53 O 0.8023(4) -0.0339(5) 0.1404(4)
C44 C 0.7021(5) 0.1532(7) 0.0593(5)
C45 C 0.5812(5) 0.1246(7) 0.3097(5)
H25 H 0.55860 0.12670 0.33510
C46 C 0.6861(6) 0.1112(7) 0.0922(5)
H26 H 0.64860 0.10920 0.10040
C47 C 0.6049(6) 0.1607(8) 0.2345(5)
C48 C 0.9116(6) 0.1406(7) 0.2143(5)
H27 H 0.94360 0.16630 0.21470
C49 C 0.6270(6) 0.0845(7) 0.3085(5)
C50 C 0.7972(6) 0.1182(7) 0.0659(5)
H28 H 0.83450 0.11980 0.05720
C51 C 0.8792(6) 0.1360(7) 0.2532(5)
C52 C 0.6812(5) 0.1263(7) 0.4166(5)
H29 H 0.64390 0.13670 0.42210
C53 C 0.7244(6) 0.1594(7) 0.4392(5)
H30 H 0.71620 0.19170 0.45990
C54 C 0.7925(5) 0.0950(7) 0.3990(4)
H31 H 0.82980 0.08510 0.39310
C55 C 0.7805(5) 0.0760(6) 0.0998(4)
C56 C 0.5700(6) 0.1623(7) 0.2713(5)
H32 H 0.53850 0.18880 0.27060
C57 C 0.8973(5) 0.1079(7) 0.1754(5)
H33 H 0.91800 0.11230 0.14910
C58 C 0.8495(5) 0.0673(7) 0.1770(5)
C59 C 0.7575(6) 0.1579(8) 0.0454(5)
H34 H 0.76770 0.18680 0.02290
C60 C 0.8330(6) 0.0953(8) 0.2540(5)
H35 H 0.81210 0.09120 0.28020
C61 C 0.6942(5) 0.0778(6) 0.3859(4)
C62 C 0.8983(6) 0.1705(8) 0.2969(5)
C63 C 0.7510(5) 0.0619(7) 0.3769(4)
H36 H 0.75970 0.02960 0.35630
C64 C 0.7243(5) 0.0719(7) 0.1133(4)
H37 H 0.71340 0.04330 0.13590
C65 C 0.6517(6) 0.1220(8) 0.2347(5)
H38 H 0.67570 0.12230 0.21010
C66 C 0.6632(6) 0.0821(9) 0.2720(5)
H39 H 0.69420 0.05480 0.27240
C67 C 0.8183(6) 0.0609(8) 0.2156(5)
H40 H 0.78740 0.03350 0.21590
C68 C 0.8259(7) 0.1791(9) 0.4555(5)
C69 C 0.6591(6) 0.1942(8) 0.0351(5)
C70 C 0.5899(6) 0.2000(8) 0.1934(5)
C71 C 0.9007(8) 0.2325(8) 0.6217(7)
C72 C 0.8599(6) 0.2079(6) 0.6580(5)
C73 C 0.8044(6) 0.1912(8) 0.6489(4)
H41 H 0.78880 0.19900 0.62050
C74 C 0.7723(5) 0.1627(8) 0.6824(6)
H42 H 0.73520 0.15150 0.67640
C75 C 0.7958(6) 0.1510(7) 0.7250(5)
C76 C 0.8513(7) 0.1678(8) 0.7340(4)
H43 H 0.86690 0.16000 0.76250
C77 C 0.8833(5) 0.1963(8) 0.7005(5)
H44 H 0.92050 0.20750 0.70660
O54 O 0.5971(5) 0.2616(8) 0.9042(4)
C78 C 0.5818(7) 0.2428(9) 0.8672(6)
O55 O 0.8004(10) 0.0745(13) 0.8040(9)
C79 C 0.7217(5) 0.1796(8) 0.8334(5)
H45 H 0.75750 0.17590 0.84610
C80 C 0.7099(6) 0.1525(7) 0.7913(5)
C81 C 0.6564(7) 0.1581(8) 0.7724(4)
H46 H 0.64860 0.14000 0.74420
C82 C 0.6147(5) 0.1907(8) 0.7956(5)
H47 H 0.57890 0.19440 0.78290
C83 C 0.6265(5) 0.2177(7) 0.8377(5)
C84 C 0.6799(6) 0.2122(7) 0.8566(4)
H48 H 0.68780 0.23030 0.88480
O56 O 0.7288(6) 0.0547(8) 0.7372(5)
N1 N 0.3353(6) 0.4855(8) 0.4815(5)
H49 H 0.30710 0.48940 0.49900
C85 C 0.3311(5) 0.4472(7) 0.4429(6)
H50 H 0.29770 0.42590 0.43610
C86 C 0.3768(7) 0.4409(7) 0.4145(5)
H51 H 0.37400 0.41530 0.38880
C87 C 0.4268(6) 0.4727(8) 0.4247(5)
C88 C 0.4310(6) 0.5110(8) 0.4632(6)
H52 H 0.46440 0.53230 0.47000
C89 C 0.3853(8) 0.5174(8) 0.4916(5)
H53 H 0.38810 0.54300 0.51740
C90 C 0.4759(10) 0.4621(11) 0.3952(7)
H54 H 0.49090 0.41940 0.40140
H55 H 0.50470 0.49320 0.40320
C91 C 0.4631(9) 0.4676(11) 0.3436(8)
H56 H 0.43540 0.43580 0.33440
H57 H 0.44880 0.51020 0.33630
C92 C 0.5140(9) 0.4567(13) 0.3216(9)
H58 H 0.52940 0.41560 0.33160
H59 H 0.54050 0.49020 0.33010
N2 N 0.4985(11) 0.4480(13) 0.1718(6)
H60 H 0.49610 0.44560 0.14270
C93 C 0.4626(10) 0.4117(13) 0.1984(10)
H61 H 0.43600 0.38480 0.18480
C94 C 0.4665(11) 0.4156(14) 0.2453(9)
H62 H 0.44250 0.39130 0.26310
C95 C 0.5062(11) 0.4557(13) 0.2655(6)
C96 C 0.5421(10) 0.4920(12) 0.2389(9)
H63 H 0.56860 0.51890 0.25250
C97 C 0.5382(10) 0.4882(12) 0.1920(9)
H64 H 0.56220 0.51250 0.17420
C98 C 0.936(3) 0.466(4) 0.378(3)
H65 H 0.91130 0.44130 0.35920
H66 H 0.93160 0.51230 0.37310
C99 C 0.980(3) 0.450(4) 0.378(3)
H67 H 0.98500 0.40600 0.38720
H68 H 1.00550 0.47880 0.39370
C100 C 1.0452(8) 0.4603(14) 0.2512(12)
H69 H 1.08180 0.46120 0.24060
N3 N 1.0004(12) 0.4563(13) 0.2207(7)
C101 C 0.9457(9) 0.4549(11) 0.2365(9)
H70 H 0.91570 0.45220 0.21610
C102 C 0.9358(10) 0.4575(12) 0.2827(10)
H71 H 0.89920 0.45660 0.29330
C103 C 0.9807(16) 0.4616(15) 0.3132(7)
C104 C 1.0353(12) 0.4629(15) 0.2974(11)
H72 H 1.06530 0.46560 0.31770
C105 C 0.8745(9) 0.4580(15) 0.4564(10)
C106 C 0.8310(14) 0.4217(12) 0.4378(9)
H73 H 0.83860 0.38940 0.41690
C107 C 0.7760(11) 0.4334(12) 0.4506(8)
H74 H 0.74680 0.40910 0.43820
N4 N 0.7646(7) 0.4816(11) 0.4819(8)
C108 C 0.8081(11) 0.5180(9) 0.5004(6)
H75 H 0.80050 0.55020 0.52140
C109 C 0.8631(9) 0.5062(13) 0.4877(9)
H76 H 0.89230 0.53050 0.50010
C110 C 0.9358(13) 0.4425(17) 0.4402(11)
H77 H 0.94410 0.39690 0.44370
H78 H 0.96330 0.46720 0.45740
U1C U 0.94851(2) 0.26378(3) 0.876728(18)
U2C U 1.04001(2) 0.20123(3) 0.105226(18)
U3C U 0.92208(2) 0.24635(3) 0.005290(19)
U3C* U 0.92208(2) 0.24635(3) 1.005290(19)
O4C O 0.3877(4) 0.2689(6) 0.5805(3)
O9C O 0.3776(4) 0.2036(5) 0.4314(3)
O10C O 0.3226(4) 0.2181(6) 0.4892(3)
O13C O 0.4470(4) 0.2274(5) 0.2921(3)
O14C O 0.4549(4) 0.2504(6) 0.6319(4)
O20C O 0.3748(4) 0.1858(7) 0.3293(3)
U5C U 0.44502(2) 0.29093(3) 0.881046(19)
U7C U 0.54095(2) 0.23455(3) 0.10881(2)
U8C U 0.56529(2) 0.24581(4) -0.02040(2)
U8C* U 0.56529(2) 0.24581(4) 0.97960(2)
O29C O 1.1123(4) 0.2938(5) 0.5544(3)
O31C O 1.0310(5) 0.2536(6) 0.3538(4)
O33C O 1.0443(4) 0.2669(5) 0.6927(4)
O41C O 1.1204(4) 0.3015(6) 0.6582(4)
O44C O 1.1670(4) 0.2879(6) 0.4946(3)
O54C O 1.0971(5) 0.2384(8) 0.4042(4)
#END
