
#######################################################################
#
#                 Cambridge Crystallographic Data Centre
#                                CCDC
#
#######################################################################
#
# If this CIF has been generated from an entry in the Cambridge
# Structural Database, then it will include bibliographic, chemical,
# crystal, experimental, refinement or atomic coordinate data resulting
# from the CCDC's data processing and validation procedures.
#
#######################################################################

data_CSD_CIF_JAGNAK
_audit_creation_date 2020-10-02
_audit_creation_method CSD-ConQuest-V1
_database_code_CSD JAGNAK
_database_code_depnum_ccdc_archive 'CCDC 2005994'
_chemical_formula_sum 'C100 H76 Cd7 N4 O43'
_chemical_formula_moiety
;
(C92 H44 Cd7 O43 4-)n,4(C2 H8 N1 1+)
;
_journal_coden_Cambridge 9
_journal_volume 59
_journal_year 2020
_journal_page_first 15088
_journal_name_full 'Inorg.Chem. '
loop_
_publ_author_name
"Xiang-Long Qu"
"Bing Yan"
_chemical_name_systematic
;
catena-[tetrakis(dimethylammonium) bis(\m-hydrogen 
[1^1^,2^1^:2^4^,3^1^-terphenyl]-1^3^,1^5^,2^2^,3^3^,3^5^-pentacarboxylato)-bis
(\m-[1^1^,2^1^:2^4^,3^1^-terphenyl]-1^3^,1^5^,2^2^,3^3^,3^5^-pentacarboxylato)
-triaqua-hepta-cadmium unknown solvate]
;
_cell_volume   7593.066
_exptl_crystal_density_diffrn 1.188
_diffrn_ambient_temperature 150
_refine_special_details
;
C17,O10,O9 and C17',O10',O9' disordered over two sites with occupancies 
0.706:0.294; C2,Cd4,O3,O4 and C2',Cd4',O3',O4' disordered over two sites with 
occupancies 0.784:0.216; C40,O19,O20 and C40',O19',O20' disordered over two 
sites with occupancies 0.706:0.294; O22,O22',O23,O23' disordered over one 
sites with occupancies 0.1960,0.0540,0.1960,0.0540; The SQUEEZE/PLATON 
program has been used to model some disorder.
;
#These two values have been output from a single CSD field.
_refine_ls_R_factor_gt 0.0823
_refine_ls_wR_factor_gt 0.0823
_symmetry_cell_setting monoclinic
_symmetry_space_group_name_H-M 'P 21/c'
_symmetry_Int_Tables_number 14
loop_
_symmetry_equiv_pos_site_id
_symmetry_equiv_pos_as_xyz
1 x,y,z
2 -x,1/2+y,1/2-z
3 -x,-y,-z
4 x,-1/2-y,-1/2+z
_cell_length_a 15.3265(8)
_cell_length_b 18.7241(11)
_cell_length_c 27.0618(17)
_cell_angle_alpha 90
_cell_angle_beta 102.116(2)
_cell_angle_gamma 90
_cell_formula_units_Z 2
loop_
_atom_type_symbol
_atom_type_radius_bond
C 0.68
H 0.23
Cd 1.44
N 0.68
O 0.68
loop_
_atom_site_label
_atom_site_type_symbol
_atom_site_fract_x
_atom_site_fract_y
_atom_site_fract_z
Cd1 Cd 0.50000 1.00000 0.00000
Cd2 Cd 0.66428(3) 1.05392(3) 0.10410(2)
Cd3 Cd 0.31210(13) 1.02640(14) 0.26476(8)
O1 O 0.3576(3) 0.9749(3) 0.0092(2)
O2 O 0.2489(3) 0.9281(3) -0.0492(2)
O3 O 0.3019(9) 1.0145(10) 0.1781(6)
O4 O 0.1697(11) 0.9796(11) 0.1972(6)
O5 O -0.5127(3) 0.9269(2) -0.06943(18)
O6 O -0.5949(3) 0.8305(3) -0.0921(2)
O7 O -0.4624(3) 0.5878(3) -0.0571(2)
O8 O -0.3179(4) 0.5765(3) -0.0300(3)
O9 O 0.0981(6) 0.7414(6) 0.0261(4)
O10 O 0.0467(6) 0.7561(6) -0.0557(4)
H1 H 0.00504 0.77816 -0.07474
O11 O 0.5445(3) 0.9083(3) 0.0518(2)
O12 O 0.6746(3) 0.9360(3) 0.1006(2)
O13 O 0.4453(3) 0.6554(3) 0.0494(3)
O14 O 0.5456(3) 0.5710(3) 0.0699(2)
O15 O 1.3535(3) 0.5520(3) 0.3109(2)
O16 O 1.2254(4) 0.5837(4) 0.3275(2)
O17 O 1.3817(4) 0.5379(3) 0.1309(2)
O18 O 1.2738(3) 0.5786(3) 0.0699(2)
O19 O 0.7569(8) 0.6400(8) 0.2189(5)
O20 O 0.7921(10) 0.5359(8) 0.1863(6)
O21 O 0.412(3) 1.005(3) 0.3381(13)
H2 H 0.44378 1.04329 0.34168
H3 H 0.38763 1.00069 0.36321
O22 O 0.433(3) 1.096(3) 0.2584(13)
H4 H 0.46756 1.10121 0.28703
H5 H 0.46163 1.07955 0.23738
C1 C 0.2813(4) 0.9488(4) -0.0054(3)
C2 C 0.2251(10) 0.9875(12) 0.1690(7)
C3 C 0.2215(5) 0.9423(4) 0.0315(3)
C4 C 0.2489(6) 0.9652(6) 0.0830(4)
H6 H 0.30661 0.98498 0.09464
C5 C 0.1932(7) 0.9588(8) 0.1144(4)
C6 C 0.1071(6) 0.9277(7) 0.0973(4)
H7 H 0.06973 0.92091 0.12085
C7 C 0.0774(5) 0.9077(4) 0.0493(3)
C8 C 0.1357(4) 0.9151(4) 0.0157(3)
H8 H 0.11586 0.90123 -0.01861
C9 C -0.5204(4) 0.8590(4) -0.0734(3)
C10 C -0.3868(5) 0.6148(4) -0.0436(3)
C11 C -0.4401(4) 0.8131(4) -0.0586(3)
C12 C -0.4507(5) 0.7386(4) -0.0584(3)
H9 H -0.50839 0.71785 -0.06798
C13 C -0.3757(5) 0.6955(4) -0.0439(3)
C14 C -0.2929(5) 0.7247(4) -0.0274(3)
H10 H -0.24295 0.69439 -0.01645
C15 C -0.2809(4) 0.7995(4) -0.0265(3)
C16 C -0.3542(4) 0.8430(3) -0.0410(3)
H11 H -0.34715 0.89336 -0.03919
C17 C 0.0445(6) 0.7690(6) -0.0095(4)
C18 C -0.0281(5) 0.8190(5) -0.0012(3)
C19 C -0.0144(4) 0.8793(4) 0.0296(3)
C20 C -0.0879(5) 0.9130(4) 0.0411(3)
H12 H -0.07911 0.95393 0.06229
C21 C -0.1744(4) 0.8886(4) 0.0226(3)
H13 H -0.22360 0.91260 0.03143
C22 C -0.1887(4) 0.8295(4) -0.0086(3)
C23 C -0.1157(5) 0.7943(5) -0.0211(3)
H14 H -0.12486 0.75390 -0.04282
C24 C 0.6176(4) 0.8937(4) 0.0795(3)
C25 C 0.5235(5) 0.6361(4) 0.0653(3)
C26 C 0.6403(5) 0.8143(4) 0.0870(3)
C27 C 0.5740(4) 0.7628(4) 0.0724(3)
H15 H 0.51471 0.77681 0.05751
C28 C 0.5953(4) 0.6911(3) 0.0799(3)
C29 C 0.6834(4) 0.6710(4) 0.0993(3)
H16 H 0.69856 0.62176 0.10269
C30 C 0.7489(5) 0.7220(4) 0.1135(3)
C31 C 0.7265(4) 0.7931(4) 0.1072(3)
H17 H 0.77140 0.82829 0.11696
C32 C 1.2751(5) 0.5740(5) 0.2968(3)
C33 C 1.3071(5) 0.5669(4) 0.1157(3)
C34 C 1.2396(5) 0.5866(4) 0.2416(3)
C35 C 1.2882(5) 0.5728(4) 0.2059(3)
H18 H 1.34685 0.55397 0.21580
C36 C 1.2519(5) 0.5862(4) 0.1546(3)
C37 C 1.1664(5) 0.6119(4) 0.1400(3)
H19 H 1.14198 0.61959 0.10517
C38 C 1.1152(5) 0.6268(5) 0.1750(3)
C39 C 1.1517(5) 0.6132(5) 0.2264(3)
H20 H 1.11698 0.62190 0.25097
C40 C 0.7998(9) 0.6060(11) 0.1917(7)
C41 C 0.8657(5) 0.6428(5) 0.1664(4)
C42 C 0.8445(4) 0.6994(4) 0.1306(3)
C43 C 0.9100(5) 0.7298(4) 0.1117(3)
H21 H 0.89533 0.76810 0.08840
C44 C 0.9993(5) 0.7071(4) 0.1251(3)
H22 H 1.04388 0.72968 0.11086
C45 C 1.0220(5) 0.6509(4) 0.1596(3)
C46 C 0.9541(6) 0.6207(5) 0.1803(4)
H23 H 0.96898 0.58377 0.20473
Cd4 Cd -0.40151(3) 0.47110(3) -0.04688(2)
O23 O -0.3693(6) 0.4490(6) 0.0368(3)
H24 H -0.37630 0.48820 0.05132
H25 H -0.41016 0.42113 0.04199
N1 N 0.2708(7) 0.7180(6) 0.0254(4)
H26 H 0.29641 0.67401 0.03025
H27 H 0.21049 0.71211 0.01861
C47 C 0.298(1) 0.7536(9) -0.0191(6)
H28 H 0.28542 0.80489 -0.01864
H29 H 0.26437 0.73273 -0.05061
H30 H 0.36205 0.74635 -0.01703
C48 C 0.3009(11) 0.7653(8) 0.0767(7)
H31 H 0.27736 0.74345 0.10405
H32 H 0.27737 0.81391 0.07058
H33 H 0.36622 0.76705 0.08617
Cd5? Cd 0.2703(5) 0.9609(5) 0.2802(3)
O24? O 0.299(2) 0.944(3) 0.1991(9)
O25? O 0.166(3) 0.925(4) 0.1937(11)
O26? O -0.1691(13) 0.7596(14) -0.1100(9)
O27? O -0.0631(15) 0.6968(13) -0.0594(10)
H34? H -0.03901 0.69670 -0.02848
O28? O 0.993(2) 0.4892(19) 0.1895(12)
O29? O 0.929(2) 0.5556(19) 0.2497(14)
C49? C 0.224(3) 0.9430(16) 0.1699(6)
C50? C -0.1166(14) 0.7508(12) -0.0691(10)
H35? H 0.02162 0.79434 -0.00880
C51? C 0.9593(16) 0.5507(14) 0.2080(15)
H36? H 0.82050 0.62080 0.18035
O30? O 0.710(7) 0.502(9) 0.139(3)
H37? H 0.75028 0.51183 0.12430
H38? H 0.66381 0.52738 0.12777
O31? O 0.408(7) 1.012(12) 0.296(3)
H39? H 0.41971 1.02756 0.32591
H40? H 0.45039 0.98521 0.29104
Cd2B Cd -0.66428(3) -0.05392(3) -0.10410(2)
Cd3B Cd -0.31210(13) -0.02640(14) -0.26476(8)
O1B O -0.3576(3) 0.0251(3) -0.0092(2)
O2B O -0.2489(3) 0.0719(3) 0.0492(2)
O3B O -0.3019(9) -0.0145(10) -0.1781(6)
O4B O -0.1697(11) 0.0204(11) -0.1972(6)
O5B O 0.5127(3) 0.0731(2) 0.06943(18)
O6B O 0.5949(3) 0.1695(3) 0.0921(2)
O7B O 0.4624(3) 0.4122(3) 0.0571(2)
O8B O 0.3179(4) 0.4235(3) 0.0300(3)
O9B O -0.0981(6) 0.2586(6) -0.0261(4)
O10B O -0.0467(6) 0.2439(6) 0.0557(4)
H1B H -0.00504 0.22184 0.07474
O11B O -0.5445(3) 0.0917(3) -0.0518(2)
O12B O -0.6746(3) 0.0640(3) -0.1006(2)
O13B O -0.4453(3) 0.3446(3) -0.0494(3)
O14B O -0.5456(3) 0.4290(3) -0.0699(2)
O15B O -1.3535(3) 0.4480(3) -0.3109(2)
O16B O -1.2254(4) 0.4163(4) -0.3275(2)
O17B O -1.3817(4) 0.4621(3) -0.1309(2)
O18B O -1.2738(3) 0.4214(3) -0.0699(2)
O19B O -0.7569(8) 0.3600(8) -0.2189(5)
O20B O -0.7921(10) 0.4641(8) -0.1863(6)
O21B O -0.412(3) -0.005(3) -0.3381(13)
H2B H -0.44378 -0.04329 -0.34168
H3B H -0.38763 -0.00069 -0.36321
O22B O -0.433(3) -0.096(3) -0.2584(13)
H4B H -0.46756 -0.10121 -0.28703
H5B H -0.46163 -0.07955 -0.23738
C1B C -0.2813(4) 0.0512(4) 0.0054(3)
C2B C -0.2251(10) 0.0125(12) -0.1690(7)
C3B C -0.2215(5) 0.0577(4) -0.0315(3)
C4B C -0.2489(6) 0.0348(6) -0.0830(4)
H6B H -0.30661 0.01502 -0.09464
C5B C -0.1932(7) 0.0412(8) -0.1144(4)
C6B C -0.1071(6) 0.0723(7) -0.0973(4)
H7B H -0.06973 0.07909 -0.12085
C7B C -0.0774(5) 0.0923(4) -0.0493(3)
C8B C -0.1357(4) 0.0849(4) -0.0157(3)
H8B H -0.11586 0.09877 0.01861
C9B C 0.5204(4) 0.1410(4) 0.0734(3)
C10B C 0.3868(5) 0.3852(4) 0.0436(3)
C11B C 0.4401(4) 0.1869(4) 0.0586(3)
C12B C 0.4507(5) 0.2614(4) 0.0584(3)
H9B H 0.50839 0.28215 0.06798
C13B C 0.3757(5) 0.3045(4) 0.0439(3)
C14B C 0.2929(5) 0.2753(4) 0.0274(3)
H10B H 0.24295 0.30561 0.01645
C15B C 0.2809(4) 0.2005(4) 0.0265(3)
C16B C 0.3542(4) 0.1570(3) 0.0410(3)
H11B H 0.34715 0.10664 0.03919
C17B C -0.0445(6) 0.2310(6) 0.0095(4)
C18B C 0.0281(5) 0.1810(5) 0.0012(3)
C19B C 0.0144(4) 0.1207(4) -0.0296(3)
C20B C 0.0879(5) 0.0870(4) -0.0411(3)
H12B H 0.07911 0.04607 -0.06229
C21B C 0.1744(4) 0.1114(4) -0.0226(3)
H13B H 0.22360 0.08740 -0.03143
C22B C 0.1887(4) 0.1705(4) 0.0086(3)
C23B C 0.1157(5) 0.2057(5) 0.0211(3)
H14B H 0.12486 0.24610 0.04282
C24B C -0.6176(4) 0.1063(4) -0.0795(3)
C25B C -0.5235(5) 0.3639(4) -0.0653(3)
C26B C -0.6403(5) 0.1857(4) -0.0870(3)
C27B C -0.5740(4) 0.2372(4) -0.0724(3)
H15B H -0.51471 0.22319 -0.05751
C28B C -0.5953(4) 0.3089(3) -0.0799(3)
C29B C -0.6834(4) 0.3290(4) -0.0993(3)
H16B H -0.69856 0.37824 -0.10269
C30B C -0.7489(5) 0.2780(4) -0.1135(3)
C31B C -0.7265(4) 0.2069(4) -0.1072(3)
H17B H -0.77140 0.17171 -0.11696
C32B C -1.2751(5) 0.4260(5) -0.2968(3)
C33B C -1.3071(5) 0.4331(4) -0.1157(3)
C34B C -1.2396(5) 0.4134(4) -0.2416(3)
C35B C -1.2882(5) 0.4272(4) -0.2059(3)
H18B H -1.34685 0.44603 -0.21580
C36B C -1.2519(5) 0.4138(4) -0.1546(3)
C37B C -1.1664(5) 0.3881(4) -0.1400(3)
H19B H -1.14198 0.38041 -0.10517
C38B C -1.1152(5) 0.3732(5) -0.1750(3)
C39B C -1.1517(5) 0.3868(5) -0.2264(3)
H20B H -1.11698 0.37810 -0.25097
C40B C -0.7998(9) 0.3940(11) -0.1917(7)
C41B C -0.8657(5) 0.3572(5) -0.1664(4)
C42B C -0.8445(4) 0.3006(4) -0.1306(3)
C43B C -0.9100(5) 0.2702(4) -0.1117(3)
H21B H -0.89533 0.23190 -0.08840
C44B C -0.9993(5) 0.2929(4) -0.1251(3)
H22B H -1.04388 0.27032 -0.11086
C45B C -1.0220(5) 0.3491(4) -0.1596(3)
C46B C -0.9541(6) 0.3793(5) -0.1803(4)
H23B H -0.96898 0.41623 -0.20473
Cd4B Cd 0.40151(3) 0.52890(3) 0.04688(2)
O23B O 0.3693(6) 0.5510(6) -0.0368(3)
H24B H 0.37630 0.51180 -0.05132
H25B H 0.41016 0.57887 -0.04199
Cd1* Cd -0.50000 0.00000 0.00000
Cd1** Cd -0.50000 1.00000 0.00000
Cd1*** Cd 0.50000 0.00000 0.00000
Cd2* Cd -0.33572(3) 0.05392(3) 0.10410(2)
Cd2** Cd 0.66428(3) 0.05392(3) 0.10410(2)
Cd2A Cd 1.33572(3) 0.55392(3) 0.39590(2)
Cd2B* Cd -0.66428(3) 0.94608(3) -0.10410(2)
Cd2B** Cd 0.33572(3) 0.94608(3) -0.10410(2)
Cd2C Cd -1.33572(3) 0.44608(3) -0.39590(2)
Cd3A Cd 0.68790(13) 0.52640(14) 0.23524(8)
Cd3C Cd -0.68790(13) 0.47360(14) -0.23524(8)
O1B* O 0.6424(3) 1.0251(3) -0.0092(2)
O2* O -0.7511(3) -0.0719(3) -0.0492(2)
O2B* O 0.7511(3) 1.0719(3) 0.0492(2)
O5* O -0.5127(3) -0.0731(2) -0.06943(18)
O5** O 0.4873(3) 0.9269(2) -0.06943(18)
O5B* O 0.5127(3) 1.0731(2) 0.06943(18)
O6* O -0.5949(3) -0.1695(3) -0.0921(2)
O6B* O 0.5949(3) 1.1695(3) 0.0921(2)
O11B* O 0.4555(3) 1.0917(3) -0.0518(2)
O15A O 0.6465(3) 1.0520(3) 0.1891(2)
O15C O -0.6465(3) -0.0520(3) -0.1891(2)
O16A O 0.7746(4) 1.0837(4) 0.1725(2)
O16C O -0.7746(4) -0.0837(4) -0.1725(2)
O17* O 0.3817(4) 0.5379(3) 0.1309(2)
O17B* O -0.3817(4) 0.4621(3) -0.1309(2)
O18* O 0.2738(3) 0.5786(3) 0.0699(2)
O18B* O -0.2738(3) 0.4214(3) -0.0699(2)
O19A O 0.2431(8) 1.1400(8) 0.2811(5)
O19C O -0.2431(8) -0.1400(8) -0.2811(5)
O20A O 0.2079(10) 1.0359(8) 0.3137(6)
O20C O -0.2079(10) -0.0359(8) -0.3137(6)
Cd4* Cd -1.40151(3) 0.47110(3) -0.04688(2)
Cd4B* Cd 1.40151(3) 0.52890(3) 0.04688(2)
#END
