
#######################################################################
#
#                 Cambridge Crystallographic Data Centre
#                                CCDC
#
#######################################################################
#
# If this CIF has been generated from an entry in the Cambridge
# Structural Database, then it will include bibliographic, chemical,
# crystal, experimental, refinement or atomic coordinate data resulting
# from the CCDC's data processing and validation procedures.
#
#######################################################################

data_CSD_CIF_JAKBOP
_audit_creation_date 2017-01-27
_audit_creation_method CSD-ConQuest-V1
_database_code_CSD JAKBOP
_database_code_depnum_ccdc_archive 'CCDC 1515782'
_chemical_formula_sum 'C14 H20 Mn1 N9 O1 P1'
_chemical_formula_moiety
;
C8 H20 O1 P1 1+,n(C6 Mn1 N9 1-)
;
_journal_coden_Cambridge 1695
_journal_volume 5
_journal_year 2017
_journal_page_first 1529
_journal_name_full 'J.Mater.Chem.C '
loop_
_publ_author_name
"Fu-Juan Geng"
"Lin Zhou"
"Ping-Ping Shi"
"Xiao-Li Wang"
"Xuan Zheng"
"Yi Zhang"
"Da-Wei Fu"
"Qiong Ye"
_chemical_name_systematic
;
catena-[triethyl(methoxymethyl)phosphonium tris(\m-dicyanamide)-manganese]
;
_cell_volume   2082.955
_exptl_crystal_colour 'colorless'
_exptl_crystal_density_diffrn 1.328
_exptl_special_details
;
reversible phase transition at 333 K with large thermal hysteresis

;
_exptl_crystal_description 'Prism'
_diffrn_ambient_temperature 293
_diffrn_special_details
;
twin

;
#These two values have been output from a single CSD field.
_refine_ls_R_factor_gt 0.0601
_refine_ls_wR_factor_gt 0.0601
_symmetry_cell_setting orthorhombic
_symmetry_space_group_name_H-M 'P 21 21 21'
_symmetry_Int_Tables_number 19
loop_
_symmetry_equiv_pos_site_id
_symmetry_equiv_pos_as_xyz
1 x,y,z
2 1/2-x,-y,1/2+z
3 -x,1/2+y,1/2-z
4 1/2+x,1/2-y,-z
_cell_length_a 10.694(2)
_cell_length_b 12.092(2)
_cell_length_c 16.108(3)
_cell_angle_alpha 90
_cell_angle_beta 90
_cell_angle_gamma 90
_cell_formula_units_Z 4
loop_
_atom_type_symbol
_atom_type_radius_bond
C 0.68
H 0.23
Mn 1.61
N 0.68
O 0.68
P 1.05
loop_
_atom_site_label
_atom_site_type_symbol
_atom_site_fract_x
_atom_site_fract_y
_atom_site_fract_z
C1 C 0.5287(10) 0.5149(8) 0.9347(7)
H1 H 0.52330 0.47680 0.88190
H2 H 0.47980 0.47350 0.97480
C2 C 0.8215(11) 0.5891(13) 1.1042(8)
H3 H 0.84850 0.51680 1.12090
H4 H 0.82000 0.63720 1.15160
H5 H 0.87820 0.61810 1.06340
C3 C 0.6952(10) 0.5820(8) 1.0683(6)
H6 H 0.66090 0.65590 1.06380
H7 H 0.64220 0.54030 1.10590
C4 C 0.7843(9) 0.5942(7) 0.8949(6)
H8 H 0.75460 0.66990 0.89310
H9 H 0.87020 0.59560 0.91430
C5 C 0.7492(14) 0.3784(7) 0.9737(7)
H10 H 0.73820 0.34170 0.92060
H11 H 0.83760 0.37860 0.98720
P1 P 0.69110(19) 0.51792(16) 0.96824(14)
C6 C 0.4731(10) 0.630(1) 0.9255(8)
H12 H 0.46230 0.66250 0.97940
H13 H 0.39350 0.62500 0.89830
H14 H 0.52840 0.67520 0.89310
C7 C 0.7819(10) 0.5475(7) 0.8085(6)
H15 H 0.80870 0.47180 0.80980
H16 H 0.83720 0.58940 0.77370
H17 H 0.69840 0.55160 0.78690
O1 O 0.6828(10) 0.3243(6) 1.0343(5)
C8 C 0.7038(16) 0.2128(8) 1.0361(8)
H18 H 0.63240 0.17480 1.01400
H19 H 0.71760 0.18970 1.09240
H20 H 0.77620 0.19570 1.00330
C9 C 0.1670(7) 0.6079(6) 0.0113(4)
C10 C 0.4171(7) 0.3400(6) 0.1610(4)
N1 N 0.1238(6) 0.4279(5) 0.1871(5)
N2 N 0.4027(6) 0.4268(5) 0.1349(4)
N3 N 0.2147(7) 0.6173(5) 0.0730(3)
Mn1 Mn 0.27545(9) 0.55427(7) 0.19451(5)
N4 N 0.4213(7) 0.2378(5) 0.1864(6)
N5 N 0.1014(7) 0.6073(8) -0.0565(4)
N6 N 0.0019(11) 0.2668(9) 0.1592(7)
C11 C 0.0641(10) 0.3548(8) 0.1796(6)
C12 C -0.0785(10) 0.2186(8) 0.2098(6)
N7 N -0.1484(7) 0.1706(6) 0.2434(4)
N8 N 0.1684(6) 0.5176(5) -0.1839(4)
C13 C 0.1424(7) 0.5575(7) -0.1232(4)
N9 N 0.5652(6) 0.1700(5) 0.2931(5)
C14 C 0.5013(8) 0.2067(5) 0.2421(6)
Mn1A Mn 0.22455(9) 0.44573(7) -0.30549(5)
Mn1B Mn -0.27545(9) 0.05427(7) 0.30549(5)
Mn1B* Mn 0.72455(9) 0.05427(7) 0.30549(5)
N7B N 0.1484(7) 0.6706(6) 0.2566(4)
N8A N 0.3316(6) 0.4824(5) 0.3161(4)
N9B N 0.4348(6) 0.6700(5) 0.2069(5)
#END
