
#######################################################################
#
#                 Cambridge Crystallographic Data Centre
#                                CCDC
#
#######################################################################
#
# If this CIF has been generated from an entry in the Cambridge
# Structural Database, then it will include bibliographic, chemical,
# crystal, experimental, refinement or atomic coordinate data resulting
# from the CCDC's data processing and validation procedures.
#
#######################################################################

data_CSD_CIF_JAKBOP01
_audit_creation_date 2017-01-27
_audit_creation_method CSD-ConQuest-V1
_database_code_CSD JAKBOP01
_database_code_depnum_ccdc_archive 'CCDC 1524209'
_chemical_formula_sum 'C14 H20 Mn1 N9 O1 P1'
_chemical_formula_moiety
;
C8 H20 O1 P1 1+,n(C6 Mn1 N9 1-)
;
_journal_coden_Cambridge 1695
_journal_volume 5
_journal_year 2017
_journal_page_first 1529
_journal_name_full 'J.Mater.Chem.C '
loop_
_publ_author_name
"Fu-Juan Geng"
"Lin Zhou"
"Ping-Ping Shi"
"Xiao-Li Wang"
"Xuan Zheng"
"Yi Zhang"
"Da-Wei Fu"
"Qiong Ye"
_chemical_name_systematic
;
catena-[triethyl(methoxymethyl)phosphonium tris(\m-dicyanamide)-manganese]
;
_cell_volume   2016.200
_exptl_crystal_colour 'colorless'
_exptl_crystal_density_diffrn 1.371
_exptl_special_details
;
reversible phase transition at 333 K with large thermal hysteresis

;
_exptl_crystal_description 'Prism'
_diffrn_ambient_temperature 173
#These two values have been output from a single CSD field.
_refine_ls_R_factor_gt 0.1343
_refine_ls_wR_factor_gt 0.1343
_symmetry_cell_setting monoclinic
_symmetry_space_group_name_H-M 'P 21/c'
_symmetry_Int_Tables_number 14
loop_
_symmetry_equiv_pos_site_id
_symmetry_equiv_pos_as_xyz
1 x,y,z
2 -x,1/2+y,1/2-z
3 -x,-y,-z
4 x,-1/2-y,-1/2+z
_cell_length_a 10.391(13)
_cell_length_b 15.81(2)
_cell_length_c 15.482(15)
_cell_angle_alpha 90
_cell_angle_beta 127.560(19)
_cell_angle_gamma 90
_cell_formula_units_Z 4
loop_
_atom_type_symbol
_atom_type_radius_bond
C 0.68
H 0.23
Mn 1.61
N 0.68
O 0.68
P 1.05
loop_
_atom_site_label
_atom_site_type_symbol
_atom_site_fract_x
_atom_site_fract_y
_atom_site_fract_z
Mn1 Mn 0.41640(13) 0.18386(8) 0.18495(8)
C1 C 0.4713(8) 0.3618(6) 0.3221(6)
N1 N 0.4446(9) 0.3030(5) 0.2721(6)
N2 N 0.4027(8) 0.3846(6) -0.1900(5)
N3 N 0.6098(8) 0.5618(5) 0.3966(5)
N4 N 0.5026(9) 0.4229(6) 0.3925(6)
N5 N 0.6880(8) 0.1633(6) 0.3084(6)
N6 N 0.4645(8) 0.2590(6) 0.0849(5)
C2 C 0.5600(8) 0.4961(5) 0.3907(5)
C3 C 0.4951(9) 0.3038(6) 0.0444(7)
N7 N 1.1492(8) 0.2970(5) 0.5753(6)
C4 C 0.7991(9) 0.1892(6) 0.3971(7)
N8 N 0.902(1) 0.2088(7) 0.4975(6)
C5 C 1.0337(9) 0.2553(6) 0.5357(7)
N9 N 0.5459(8) 0.3631(6) 0.0082(5)
C6 C 0.4645(9) 0.3712(6) -0.0991(6)
P1 P 1.0032(2) 0.01899(14) 0.76081(15)
O1 O 0.8995(7) -0.0205(5) 0.5662(4)
C7 C 1.0492(8) 0.1236(6) 0.7379(6)
H1 H 1.10120 0.11760 0.70190
H2 H 0.94620 0.15490 0.68760
C8 C 1.1633(10) 0.1767(6) 0.8445(7)
H3 H 1.10440 0.19270 0.87290
H4 H 1.19830 0.22780 0.82830
H5 H 1.25850 0.14280 0.89900
C9 C 0.8397(9) -0.0253(5) 0.6252(6)
H6 H 0.81640 -0.08460 0.63180
H7 H 0.73880 0.00830 0.58980
C10 C 0.9355(9) 0.0242(7) 0.8461(7)
H8 H 0.89760 -0.03260 0.84830
H9 H 1.02970 0.03900 0.92130
C11 C 1.1817(9) -0.0500(6) 0.8247(7)
H10 H 1.21310 -0.05410 0.77600
H11 H 1.27320 -0.02370 0.89370
C12 C 0.8031(9) 0.0864(7) 0.8084(6)
H12 H 0.84420 0.14380 0.81610
H13 H 0.76510 0.08050 0.85250
H14 H 0.71280 0.07560 0.73170
C13 C 1.1554(13) -0.1379(8) 0.8487(11)
H15 H 1.08210 -0.13550 0.86850
H16 H 1.25980 -0.16200 0.90930
H17 H 1.10720 -0.17350 0.78390
C14 C 0.7876(11) -0.0444(7) 0.4554(7)
H18 H 0.74180 -0.09990 0.45050
H19 H 0.84360 -0.04720 0.42250
H20 H 0.70020 -0.00250 0.41640
Mn1A Mn 0.58360(13) 0.68386(8) 0.31505(8)
Mn1C Mn 0.41640(13) 0.31614(8) -0.31505(8)
Mn1C* Mn 1.41640(13) 0.31614(8) 0.68495(8)
N2C N 0.4027(8) 0.1154(6) 0.3100(5)
N3A N 0.3902(8) 0.0618(5) 0.1034(5)
N7C N 0.1492(8) 0.2030(5) 0.0753(6)
#END
