
#######################################################################
#
#                 Cambridge Crystallographic Data Centre
#                                CCDC
#
#######################################################################
#
# If this CIF has been generated from an entry in the Cambridge
# Structural Database, then it will include bibliographic, chemical,
# crystal, experimental, refinement or atomic coordinate data resulting
# from the CCDC's data processing and validation procedures.
#
#######################################################################

data_CSD_CIF_JARSED
_audit_creation_date 2017-02-01
_audit_creation_method CSD-ConQuest-V1
_database_code_CSD JARSED
_database_code_depnum_ccdc_archive 'CCDC 885038'
_chemical_formula_sum 'C52 H40 N4 O22 Zn1'
_chemical_formula_moiety
;
C25 H28 N4 O4 4+,n(C18 H6 O12 Zn1 4-),C9 H6 O6
;
_journal_coden_Cambridge 1380
_journal_volume 29
_journal_year 2013
_journal_page_first 223
_journal_name_full 'Fenzi Kexue Xuebao(Chin.)(J.Mol.Sci.) '
loop_
_publ_author_name
"Li-li Liang"
"Hong-bao Xue"
_chemical_name_systematic
;
catena-(4,4',4'',4''-(methanetetrayl-tetrakis(methoxy))-tetrakis(pyridinium) 
bis(\m-benzene-1,3,5-tricarboxylato)-zinc benzene-1,3,5-tricarboxylic acid)
;
_cell_volume   5590.332
_exptl_crystal_colour 'colorless'
_exptl_crystal_density_diffrn 1.352
_exptl_crystal_description 'stick'
_diffrn_ambient_temperature 291
#These two values have been output from a single CSD field.
_refine_ls_R_factor_gt 0.0665
_refine_ls_wR_factor_gt 0.0665
_symmetry_cell_setting monoclinic
_symmetry_space_group_name_H-M 'P 21/n'
_symmetry_Int_Tables_number 14
loop_
_symmetry_equiv_pos_site_id
_symmetry_equiv_pos_as_xyz
1 x,y,z
2 1/2-x,1/2+y,1/2-z
3 -x,-y,-z
4 -1/2+x,-1/2-y,-1/2+z
_cell_length_a 14.7613(8)
_cell_length_b 14.3108(7)
_cell_length_c 26.8436(14)
_cell_angle_alpha 90
_cell_angle_beta 99.652(1)
_cell_angle_gamma 90
_cell_formula_units_Z 4
loop_
_atom_type_symbol
_atom_type_radius_bond
C 0.68
H 0.23
N 0.68
O 0.68
Zn 1.22
loop_
_atom_site_label
_atom_site_type_symbol
_atom_site_fract_x
_atom_site_fract_y
_atom_site_fract_z
C1 C 0.6418(3) 0.3583(3) 0.86021(19)
C2 C 0.7129(3) 0.4000(4) 0.90244(19)
H1 H 0.69710 0.46410 0.90890
H2 H 0.71470 0.36440 0.93330
C3 C 0.6460(4) 0.2516(3) 0.86269(19)
H3 H 0.60630 0.22440 0.83390
H4 H 0.70840 0.22990 0.86290
C4 C 0.5473(3) 0.3884(3) 0.8685(2)
H5 H 0.50020 0.35440 0.84610
H6 H 0.53970 0.37640 0.90320
C5 C 0.6604(3) 0.3928(4) 0.80911(19)
H7 H 0.66100 0.46050 0.80830
H8 H 0.71960 0.37030 0.80310
C6 C 0.4573(3) 0.5269(4) 0.8491(2)
C7 C 0.4533(4) 0.6161(4) 0.8289(2)
H9 H 0.50690 0.64600 0.82370
C8 C 0.3723(4) 0.6590(4) 0.8170(3)
H10 H 0.36950 0.71900 0.80340
C9 C 0.2972(4) 0.5319(4) 0.8456(2)
H11 H 0.24290 0.50460 0.85150
C10 C 0.3775(4) 0.4856(4) 0.8586(2)
H12 H 0.37890 0.42710 0.87370
C11 C 0.5907(4) 0.3795(4) 0.7224(2)
C12 C 0.5319(5) 0.3300(4) 0.6870(2)
H13 H 0.49180 0.28580 0.69650
C13 C 0.6479(4) 0.4449(5) 0.7069(2)
H14 H 0.68810 0.47870 0.73060
C14 C 0.6460(6) 0.4599(7) 0.6579(3)
H15 H 0.68420 0.50530 0.64790
C15 C 0.5344(7) 0.3484(6) 0.6368(3)
H16 H 0.49570 0.31550 0.61200
C16 C 0.9724(4) 0.3781(4) 0.9993(2)
H17 H 0.97840 0.36650 1.03380
C17 C 0.8868(4) 0.3834(4) 0.9712(2)
H18 H 0.83470 0.37820 0.98630
C18 C 0.8793(4) 0.3969(3) 0.91955(19)
C19 C 1.0410(4) 0.4076(4) 0.9299(2)
H19 H 1.09430 0.41820 0.91660
C20 C 0.9577(4) 0.4114(4) 0.8990(2)
H20 H 0.95380 0.42350 0.86470
C21 C 0.6005(4) 0.1235(4) 0.9727(2)
H21 H 0.58100 0.17300 0.99070
C22 C 0.6095(4) 0.0368(5) 0.9931(2)
H22 H 0.59680 0.02680 1.02540
C23 C 0.6531(4) -0.0225(4) 0.9210(2)
H23 H 0.67100 -0.07390 0.90380
C24 C 0.6453(3) 0.0630(4) 0.8975(2)
H24 H 0.65610 0.07020 0.86450
C25 C 0.6209(3) 0.1376(4) 0.92457(19)
N1 N 0.6361(3) -0.0336(3) 0.9672(2)
H25 H 0.64240 -0.08810 0.98090
N2 N 1.0468(3) 0.3889(3) 0.97894(18)
H26 H 1.10000 0.38390 0.99760
N3 N 0.5915(6) 0.4125(6) 0.6232(3)
H27 H 0.59260 0.42250 0.59170
N4 N 0.2950(3) 0.6159(3) 0.82442(18)
H28 H 0.24300 0.64320 0.81530
O1 O 0.5884(2) 0.3573(2) 0.77124(13)
O2 O 0.5404(2) 0.4875(2) 0.85785(15)
O3 O 0.6155(3) 0.2265(2) 0.90866(13)
O4 O 0.8006(2) 0.3963(3) 0.88621(13)
C26 C 0.7752(3) 0.7080(3) 0.14802(17)
H29 H 0.81560 0.67820 0.13010
C27 C 0.7816(3) 0.6922(3) 0.19925(17)
C28 C 0.7213(3) 0.7380(3) 0.22514(17)
H30 H 0.72320 0.72550 0.25930
C29 C 0.6579(3) 0.8025(3) 0.20129(17)
C30 C 0.6513(3) 0.8167(3) 0.14953(17)
H31 H 0.60850 0.85880 0.13300
C31 C 0.7084(3) 0.7683(3) 0.12278(17)
C32 C 0.1227(3) 0.6580(3) 0.27086(18)
C33 C 0.3575(3) 0.9077(3) 0.2695(2)
C34 C 0.2967(3) 0.8526(3) 0.29841(17)
C35 C 0.1860(3) 0.7452(3) 0.34980(17)
H32 H 0.14790 0.71040 0.36700
C36 C 0.1816(3) 0.7327(3) 0.29840(17)
C37 C 0.6041(3) 0.8619(3) 0.23223(19)
C38 C 0.7005(4) 0.7833(4) 0.06714(19)
C39 C 0.3028(3) 0.8625(3) 0.35013(17)
H33 H 0.34440 0.90480 0.36760
C40 C 0.2469(3) 0.8093(3) 0.37612(17)
C41 C 0.2360(3) 0.7883(3) 0.27303(17)
H34 H 0.23160 0.78210 0.23820
C42 C 0.8545(3) 0.6284(3) 0.22712(19)
C43 C 0.2566(3) 0.8166(4) 0.43186(19)
O5 O 0.0726(2) 0.6098(2) 0.29542(12)
O6 O 0.2220(3) 0.7503(3) 0.45397(13)
O7 O 0.2974(2) 0.8849(2) 0.45406(12)
O8 O 0.1275(2) 0.6414(2) 0.22571(12)
O9 O 0.9066(2) 0.5849(2) 0.20200(12)
O10 O 0.4304(2) 0.9424(2) 0.29574(12)
O11 O 0.3353(2) 0.9174(2) 0.22376(13)
O12 O 0.5479(2) 0.9202(2) 0.20849(12)
O13 O 0.6199(2) 0.8535(2) 0.27935(13)
O14 O 0.8612(2) 0.6226(2) 0.27442(12)
O15 O 0.7560(3) 0.7361(3) 0.04572(13)
O16 O 0.6440(3) 0.8373(3) 0.04473(13)
Zn1 Zn 0.49654(3) 1.01297(3) 0.24969(2)
C44 C 0.9590(4) 0.8781(4) 0.1393(2)
C45 C 0.8947(4) 0.9344(4) 0.1550(2)
H35 H 0.89120 0.93750 0.18920
C46 C 0.8347(3) 0.9868(4) 0.1212(2)
C47 C 0.8407(3) 0.9820(4) 0.07022(19)
H36 H 0.80130 1.01770 0.04710
C48 C 0.9048(3) 0.9246(4) 0.05362(19)
C49 C 0.9636(4) 0.8737(4) 0.0884(2)
H37 H 1.00740 0.83560 0.07750
C50 C 0.9080(4) 0.9167(5) -0.0023(2)
C51 C 0.7622(4) 1.0443(4) 0.1388(2)
C52 C 1.0182(4) 0.8196(4) 0.1784(2)
O17 O 0.7608(3) 1.0385(3) 0.18736(15)
H38 H 0.79750 0.99850 0.19990
O18 O 0.7068(3) 1.0909(4) 0.11154(17)
O19 O 1.0074(3) 0.8175(3) 0.22170(16)
O20 O 0.8585(3) 0.9698(3) -0.03266(14)
O21 O 0.9609(3) 0.8563(4) -0.01568(15)
H39 H 0.93990 0.83760 -0.04410
O22 O 1.0811(3) 0.7724(3) 0.16024(14)
H40 H 1.11120 0.74160 0.18290
O5A O 0.4274(2) 1.1098(2) 0.20458(12)
O9A O 0.5934(2) 1.0849(2) 0.29800(12)
Zn1A Zn 0.00346(3) 0.51297(3) 0.25031(2)
Zn1A* Zn 1.00346(3) 0.51297(3) 0.25031(2)
#END
