
#######################################################################
#
#                 Cambridge Crystallographic Data Centre
#                                CCDC
#
#######################################################################
#
# If this CIF has been generated from an entry in the Cambridge
# Structural Database, then it will include bibliographic, chemical,
# crystal, experimental, refinement or atomic coordinate data resulting
# from the CCDC's data processing and validation procedures.
#
#######################################################################

data_CSD_CIF_JATLIC
_audit_creation_date 2017-06-12
_audit_creation_method CSD-ConQuest-V1
_database_code_CSD JATLIC
_database_code_depnum_ccdc_archive 'CCDC 1533228'
_chemical_formula_sum 'C18 H24 Ag4 Au1 Br7 N8'
_chemical_formula_moiety
;
C18 H24 Au1 N8 3+,n(Ag4 Br7 3-)
;
_journal_coden_Cambridge 579
_journal_volume 36
_journal_year 2017
_journal_page_first 2285
_journal_name_full 'Organometallics '
loop_
_publ_author_name
"M.Baron"
"C.Tubaro"
"M.L.C.Cairoli"
"L.Orian"
"S.Bogialli"
"M.Basato"
"M.M.Natile"
"C.Graiff"
_chemical_name_systematic
;
catena-[bis(1,1'-methylenebis(3-methylimidazol-2-ylidene))-gold(iii) 
hexakis(\m-bromo)-bromo-tetra-silver(i)]
;
_cell_volume   1602.789
_exptl_crystal_density_diffrn 3.191
_exptl_crystal_description 'prism'
_diffrn_ambient_temperature 173
#These two values have been output from a single CSD field.
_refine_ls_R_factor_gt 0.0273
_refine_ls_wR_factor_gt 0.0273
_symmetry_cell_setting triclinic
_symmetry_space_group_name_H-M 'P -1'
_symmetry_Int_Tables_number 2
loop_
_symmetry_equiv_pos_site_id
_symmetry_equiv_pos_as_xyz
1 x,y,z
2 -x,-y,-z
_cell_length_a 10.892(2)
_cell_length_b 11.372(3)
_cell_length_c 14.087(5)
_cell_angle_alpha 77.017(4)
_cell_angle_beta 74.827(3)
_cell_angle_gamma 74.897(3)
_cell_formula_units_Z 2
loop_
_atom_type_symbol
_atom_type_radius_bond
C 0.68
H 0.23
Ag 1.45
Au 1.36
Br 1.21
N 0.68
loop_
_atom_site_label
_atom_site_type_symbol
_atom_site_fract_x
_atom_site_fract_y
_atom_site_fract_z
C1 C 0.4746(4) 0.6650(3) 0.4049(3)
C2 C 0.4812(4) 0.8238(4) 0.5008(3)
H1 H 0.47180 0.91370 0.48730
H2 H 0.41370 0.80110 0.55860
H3 H 0.56740 0.78420 0.51500
C3 C 0.4495(4) 0.8615(4) 0.3253(3)
H4 H 0.43940 0.94880 0.31290
C4 C 0.4493(4) 0.7904(4) 0.2607(3)
H5 H 0.43980 0.81800 0.19360
C5 C 0.4692(4) 0.5596(4) 0.2714(3)
H6 H 0.39150 0.52530 0.30640
H7 H 0.46940 0.58100 0.19930
C6 C 0.6834(4) 0.4125(4) 0.2169(3)
H8 H 0.68350 0.42240 0.14810
C7 C 0.7763(4) 0.3412(4) 0.2631(3)
H9 H 0.85550 0.29170 0.23310
C8 C 0.8138(4) 0.2891(4) 0.4376(3)
H10 H 0.89510 0.23890 0.40520
H11 H 0.83370 0.35000 0.46740
H12 H 0.76480 0.23540 0.48980
C9 C 0.6179(4) 0.4305(4) 0.3777(3)
Au1 Au 0.50000 0.50000 0.50000
N1 N 0.4674(3) 0.7826(3) 0.4133(3)
N2 N 0.4655(3) 0.6699(3) 0.3100(2)
N3 N 0.5875(3) 0.4686(3) 0.2878(2)
N4 N 0.7354(3) 0.3533(3) 0.3632(2)
C10 C -0.1495(4) 0.1516(3) -0.0066(3)
C11 C -0.3480(4) 0.0640(4) 0.0212(3)
H13 H -0.44100 0.09900 0.02470
H14 H -0.31340 0.01580 -0.03320
H15 H -0.33580 0.01020 0.08440
C12 C -0.3369(4) 0.2883(4) -0.0128(3)
H16 H -0.42710 0.32170 -0.00940
C13 C -0.2445(4) 0.3535(4) -0.0334(3)
H17 H -0.25570 0.44080 -0.04890
C14 C 0.0016(4) 0.2941(4) -0.0481(3)
H18 H -0.00280 0.38380 -0.07050
H19 H 0.03690 0.26810 0.01310
C15 C 0.1548(4) 0.2764(4) -0.2157(3)
H20 H 0.16250 0.36000 -0.23730
C16 C 0.2097(4) 0.1813(4) -0.2667(3)
H21 H 0.26330 0.18630 -0.33200
C17 C 0.2159(4) -0.0451(4) -0.2395(3)
H22 H 0.27170 -0.03820 -0.30670
H23 H 0.26450 -0.10410 -0.19290
H24 H 0.13890 -0.07400 -0.24020
C18 C 0.0976(4) 0.1038(4) -0.1201(3)
Au2 Au 0.00000 0.00000 0.00000
N5 N -0.2789(3) 0.1639(3) 0.0028(2)
N6 N -0.1294(3) 0.2681(3) -0.0274(2)
N7 N 0.0850(3) 0.2263(3) -0.1254(2)
N8 N 0.1747(3) 0.0768(3) -0.2077(2)
Br1 Br 0.44875(4) 0.21806(5) 0.25233(3)
Br2 Br 0.32774(4) 0.31542(5) -0.04151(3)
Br3 Br 0.15573(4) 0.06089(4) 0.48863(3)
Br4 Br -0.21557(4) -0.41256(4) 0.49691(3)
Br5 Br 0.14228(4) -0.25013(4) 0.29176(3)
Br6 Br 0.10103(5) 0.09782(4) 0.17995(3)
Br7 Br 0.06911(4) 0.43252(4) 0.24430(3)
Ag1 Ag 0.26494(4) 0.24677(4) 0.15174(3)
Ag2 Ag 0.08055(4) -0.04290(3) 0.36462(3)
Ag3 Ag 0.20763(4) 0.26876(3) 0.37106(3)
Ag4 Ag 0.03149(4) -0.43102(4) 0.39248(3)
C1A C 0.5254(4) 0.3350(3) 0.5951(3)
C2A C 0.5188(4) 0.1762(4) 0.4992(3)
H1A H 0.52820 0.08630 0.51270
H2A H 0.58630 0.19890 0.44140
H3A H 0.43260 0.21580 0.48500
C3A C 0.5505(4) 0.1385(4) 0.6747(3)
H4A H 0.56060 0.05120 0.68710
C4A C 0.5507(4) 0.2096(4) 0.7393(3)
H5A H 0.56020 0.18200 0.80640
C5A C 0.5308(4) 0.4404(4) 0.7286(3)
H6A H 0.60850 0.47470 0.69360
H7A H 0.53060 0.41900 0.80070
C6A C 0.3166(4) 0.5875(4) 0.7831(3)
H8A H 0.31650 0.57760 0.85190
C7A C 0.2237(4) 0.6588(4) 0.7369(3)
H9A H 0.14450 0.70830 0.76690
C8A C 0.1862(4) 0.7109(4) 0.5624(3)
H10A H 0.10490 0.76110 0.59480
H11A H 0.16630 0.65000 0.53260
H12A H 0.23520 0.76460 0.51020
C9A C 0.3821(4) 0.5695(4) 0.6223(3)
N1A N 0.5326(3) 0.2174(3) 0.5867(3)
N2A N 0.5345(3) 0.3301(3) 0.6900(2)
N3A N 0.4125(3) 0.5314(3) 0.7122(2)
N4A N 0.2646(3) 0.6467(3) 0.6368(2)
C10A C 0.1495(4) -0.1516(3) 0.0066(3)
C11A C 0.3480(4) -0.0640(4) -0.0212(3)
H13A H 0.44100 -0.09900 -0.02470
H14A H 0.31340 -0.01580 0.03320
H15A H 0.33580 -0.01020 -0.08440
C12A C 0.3369(4) -0.2883(4) 0.0128(3)
H16A H 0.42710 -0.32170 0.00940
C13A C 0.2445(4) -0.3535(4) 0.0334(3)
H17A H 0.25570 -0.44080 0.04890
C14A C -0.0016(4) -0.2941(4) 0.0481(3)
H18A H 0.00280 -0.38380 0.07050
H19A H -0.03690 -0.26810 -0.01310
C15A C -0.1548(4) -0.2764(4) 0.2157(3)
H20A H -0.16250 -0.36000 0.23730
C16A C -0.2097(4) -0.1813(4) 0.2667(3)
H21A H -0.26330 -0.18630 0.33200
C17A C -0.2159(4) 0.0451(4) 0.2395(3)
H22A H -0.27170 0.03820 0.30670
H23A H -0.26450 0.10410 0.19290
H24A H -0.13890 0.07400 0.24020
C18A C -0.0976(4) -0.1038(4) 0.1201(3)
N5A N 0.2789(3) -0.1639(3) -0.0028(2)
N6A N 0.1294(3) -0.2681(3) 0.0274(2)
N7A N -0.0850(3) -0.2263(3) 0.1254(2)
N8A N -0.1747(3) -0.0768(3) 0.2077(2)
Br3A Br -0.15573(4) -0.06089(4) 0.51137(3)
Br4A Br 0.21557(4) -0.58744(4) 0.50309(3)
Br4A* Br 0.21557(4) 0.41256(4) 0.50309(3)
Br7* Br 0.06911(4) -0.56748(4) 0.24430(3)
Ag2A Ag -0.08055(4) 0.04290(3) 0.63538(3)
Ag3A Ag -0.20763(4) -0.26876(3) 0.62894(3)
Ag4* Ag 0.03149(4) 0.56898(4) 0.39248(3)
Ag4A Ag -0.03149(4) -0.56898(4) 0.60752(3)
#END
