
#######################################################################
#
#                 Cambridge Crystallographic Data Centre
#                                CCDC
#
#######################################################################
#
# If this CIF has been generated from an entry in the Cambridge
# Structural Database, then it will include bibliographic, chemical,
# crystal, experimental, refinement or atomic coordinate data resulting
# from the CCDC's data processing and validation procedures.
#
#######################################################################

data_CSD_CIF_JAYHIB
_audit_creation_date 2006-01-09
_audit_creation_method CSD-ConQuest-V1
_database_code_CSD JAYHIB
_database_code_depnum_ccdc_archive 'CCDC 289820'
_chemical_formula_sum 'C12 H12 Cu1 N2 O7 S1'
_chemical_formula_moiety
;
(C7 H5 Cu1 O7 S1 1-)n,n(C5 H7 N2 1+)
;
_journal_coeditor_code "IUCr NG6210"
_journal_coden_Cambridge 1370
_journal_volume 61
_journal_year 2005
_journal_page_first m2187
_journal_name_full 'Acta Crystallogr.,Sect.E:Struct.Rep.Online '
loop_
_publ_author_name
"Sai-Rong Fan"
"Long-Guan Zhu"
_chemical_name_systematic
;
catena-(2-Aminopyridinium (\m~4~-5-sulfonatosalicylato)-aqua-copper(ii))
;
_cell_volume    693.622
_exptl_crystal_colour 'green'
_exptl_crystal_density_diffrn 1.876
_exptl_crystal_description 'block'
_diffrn_ambient_temperature 295
#These two values have been output from a single CSD field.
_refine_ls_R_factor_gt 0.034
_refine_ls_wR_factor_gt 0.034
_symmetry_cell_setting triclinic
_symmetry_space_group_name_H-M 'P -1'
_symmetry_Int_Tables_number 2
loop_
_symmetry_equiv_pos_site_id
_symmetry_equiv_pos_as_xyz
1 x,y,z
2 -x,-y,-z
_cell_length_a 7.7274(9)
_cell_length_b 8.0856(10)
_cell_length_c 12.1577(15)
_cell_angle_alpha 84.323(2)
_cell_angle_beta 77.986(2)
_cell_angle_gamma 69.051(1)
_cell_formula_units_Z 2
loop_
_atom_type_symbol
_atom_type_radius_bond
C 0.68
H 0.27
Cu 1.51
N 0.68
O 0.82
S 1.02
loop_
_atom_site_label
_atom_site_type_symbol
_atom_site_fract_x
_atom_site_fract_y
_atom_site_fract_z
Cu1 Cu 0.68114(5) -0.01567(4) 0.53365(3)
S1 S 0.37014(10) 0.86273(9) 0.75326(6)
N1 N 0.8377(5) 0.9201(5) 0.8250(3)
N2 N 0.9922(4) 0.7920(4) 0.9703(2)
O1 O 0.4375(3) 0.1623(2) 0.52290(16)
O2 O 0.1919(3) 0.4047(3) 0.5692(2)
O3 O 0.7722(3) 0.1435(3) 0.58471(18)
O4 O 0.5170(3) 0.9412(3) 0.72505(17)
O5 O 0.2143(3) 0.9439(3) 0.69380(19)
O6 O 0.3065(3) 0.8564(3) 0.87512(18)
O7 O 0.9193(3) -0.2037(3) 0.54179(19)
C1 C 0.3580(4) 0.3169(4) 0.5692(2)
C2 C 0.4745(4) 0.3874(4) 0.6220(2)
C3 C 0.6655(4) 0.2983(4) 0.6289(2)
C4 C 0.7546(4) 0.3803(4) 0.6844(3)
H1 H 0.87730 0.31880 0.69500
C5 C 0.6642(4) 0.5492(4) 0.7232(3)
H2 H 0.72690 0.60220 0.75780
C6 C 0.4788(4) 0.6410(4) 0.7107(2)
C7 C 0.3851(4) 0.5608(4) 0.6622(2)
H3 H 0.26020 0.62210 0.65580
C8 C 0.8390(4) 0.8352(4) 0.9245(3)
C9 C 0.6856(5) 0.7889(5) 0.9853(3)
H4 H 0.57580 0.81710 0.95640
C10 C 0.7003(5) 0.7030(5) 1.0859(3)
H5 H 0.59960 0.67170 1.12590
C11 C 0.8632(5) 0.6602(5) 1.1310(3)
H6 H 0.87270 0.60120 1.20040
C12 C 1.0056(5) 0.7070(5) 1.0711(3)
H7 H 1.11560 0.68050 1.09950
H8 H 1.010(4) -0.176(4) 0.503(3)
H9 H 0.910(5) -0.291(3) 0.514(3)
H10 H 1.083(4) 0.819(5) 0.938(3)
H11 H 0.928(4) 0.941(5) 0.786(3)
H12 H 0.746(4) 0.935(5) 0.797(3)
Cu1A Cu 0.31886(5) 0.01567(4) 0.46635(3)
Cu1* Cu 0.68114(5) 0.98433(4) 0.53365(3)
Cu1A* Cu 0.31886(5) 1.01567(4) 0.46635(3)
O1A O 0.5625(3) -0.1623(2) 0.47710(16)
O4* O 0.5170(3) -0.0588(3) 0.72505(17)
O5A O 0.7857(3) 0.0561(3) 0.30620(19)
#END
