
#######################################################################
#
#                 Cambridge Crystallographic Data Centre
#                                CCDC
#
#######################################################################
#
# If this CIF has been generated from an entry in the Cambridge
# Structural Database, then it will include bibliographic, chemical,
# crystal, experimental, refinement or atomic coordinate data resulting
# from the CCDC's data processing and validation procedures.
#
#######################################################################

data_CSD_CIF_JEBBOK
_audit_creation_date 2017-06-16
_audit_creation_method CSD-ConQuest-V1
_database_code_CSD JEBBOK
_database_code_depnum_ccdc_archive 'CCDC 1537668'
_chemical_formula_sum 'C24 H54 N6 O39 Zn6'
_chemical_formula_moiety
;
(C18 H18 O36 Zn6 6-)n,3n(C2 H10 N2 2+),3n(H2 O1)
;
_journal_coden_Cambridge 1326
_journal_volume 19
_journal_year 2017
_journal_page_first 16749
_journal_name_full 'Phys.Chem.Chem.Phys.(PCCP) '
loop_
_publ_author_name
"M.Trzebiatowska"
"B.Zarychta"
"A.Pikul"
"M.Maczka"
"P.Peksa"
"R.Poprawski"
_chemical_name_systematic
;
catena-(tris(ethane-1,2-diammonium) octadecakis(\m-formato)-hexa-zinc 
trihydrate)
;
_cell_volume   3790.319
_exptl_crystal_colour 'colorless'
_exptl_crystal_density_diffrn 1.896
_exptl_crystal_description 'block'
_diffrn_ambient_temperature 295
_refine_special_details
;
The structure is disordered.

;
#These two values have been output from a single CSD field.
_refine_ls_R_factor_gt 0.0511
_refine_ls_wR_factor_gt 0.0511
_symmetry_cell_setting rhombohedral
_symmetry_space_group_name_H-M 'R 3'
_symmetry_Int_Tables_number 146
loop_
_symmetry_equiv_pos_site_id
_symmetry_equiv_pos_as_xyz
1 x,y,z
2 -y,x-y,z
3 -x+y,-x,z
4 2/3+x,1/3+y,1/3+z
5 2/3-y,1/3+x-y,1/3+z
6 2/3-x+y,1/3-x,1/3+z
7 1/3+x,2/3+y,2/3+z
8 1/3-y,2/3+x-y,2/3+z
9 1/3-x+y,2/3-x,2/3+z
_cell_length_a 13.9580(2)
_cell_length_b 13.9580(2)
_cell_length_c 22.4646(4)
_cell_angle_alpha 90
_cell_angle_beta 90
_cell_angle_gamma 120
_cell_formula_units_Z 3
loop_
_atom_type_symbol
_atom_type_radius_bond
C 0.68
H 0.23
N 0.68
O 0.68
Zn 1.22
loop_
_atom_site_label
_atom_site_type_symbol
_atom_site_fract_x
_atom_site_fract_y
_atom_site_fract_z
Zn1 Zn -0.00883(12) 0.3324(2) -0.00038(7)
Zn2 Zn 0.33330 0.66670 0.15700(12)
Zn3 Zn 0.00000 0.00000 0.1654(2)
Zn4 Zn -0.33330 0.33330 0.17573(12)
O1 O 0.0603(7) 0.4818(7) 0.0466(4)
O2 O 0.1885(7) 0.6061(7) 0.1065(5)
O3 O 0.0693(8) 0.2688(8) 0.0544(5)
O4 O 0.0751(8) 0.1449(7) 0.1127(6)
O5 O -0.1500(8) 0.2590(8) 0.0552(5)
O6 O -0.2630(7) 0.2610(7) 0.1231(5)
O7 O -0.0894(7) 0.1844(7) -0.0481(4)
O8 O -0.0858(7) 0.0586(7) -0.1061(5)
O9 O -0.0820(9) 0.4046(9) -0.0532(5)
O10 O -0.1916(7) 0.4061(7) -0.1223(5)
O11 O 0.1267(8) 0.3955(8) -0.0587(5)
O12 O 0.2586(7) 0.5215(7) -0.1171(5)
C1 C 0.1445(10) 0.5184(11) 0.0778(7)
H1 H 0.17850 0.47570 0.07990
C2 C 0.026(1) 0.1793(11) 0.0791(6)
H2 H -0.04930 0.13240 0.07290
C3 C -0.1822(9) 0.3059(9) 0.0895(7)
H3 H -0.14160 0.38270 0.09010
C4 C -0.0436(10) 0.1447(10) -0.0774(7)
H4 H 0.03330 0.18520 -0.07780
C5 C -0.1538(9) 0.3608(9) -0.0916(6)
H5 H -0.18210 0.28560 -0.09790
C6 C 0.1778(11) 0.4878(11) -0.0808(7)
H6 H 0.15570 0.53820 -0.07000
N1 N -0.0714(16) 0.6005(16) -0.0185(10)
H7 H -0.05290 0.61740 0.01950
H8 H -0.08610 0.53160 -0.02540
H9 H -0.13090 0.60580 -0.02670
N2 N 0.0748(15) 0.7369(15) -0.1612(9)
H10 H 0.13940 0.74090 -0.15420
H11 H 0.08010 0.80180 -0.15290
C7 C 0.0223(19) 0.6786(19) -0.0572(11)
H12 H 0.08720 0.67240 -0.04880
H13 H 0.04030 0.75400 -0.04890
C8 C -0.0105(17) 0.6510(19) -0.1239(12)
H14 H -0.01820 0.57980 -0.13360
H15 H -0.08100 0.64700 -0.13100
O13 O 0.0637(13) 0.7008(13) 0.0803(8)
H16 H 0.111(13) 0.685(16) 0.092(8)
H17 H 0.057(17) 0.737(17) 0.108(6)
N3? N -0.063(2) 0.599(2) 0.0151(14)
H18? H -0.04060 0.62290 -0.02170
H19? H -0.13180 0.58620 0.02000
H20? H -0.06210 0.53630 0.02100
N4? N 0.076(3) 0.746(3) 0.1569(15)
H21? H 0.05950 0.72900 0.19510
H22? H 0.08090 0.81090 0.14930
H23? H 0.14030 0.75000 0.14870
C9? C 0.014(3) 0.686(3) 0.0599(17)
H24? H 0.08840 0.70080 0.05240
H25? H 0.01320 0.75410 0.05150
C10? C -0.008(3) 0.663(3) 0.1211(18)
H26? H -0.01420 0.59230 0.12990
H27? H -0.07840 0.65790 0.13070
O14? O 0.036(2) 0.732(2) -0.0816(12)
H28? H 0.01(3) 0.74(3) -0.112(9)
H29? H 0.104(7) 0.76(3) -0.074(18)
H30? H 0.05680 0.72060 -0.19940
Zn1A Zn -0.33240(12) -0.34123(20) -0.00038(7)
O1A O -0.4818(7) -0.4215(7) 0.0466(4)
O2A O -0.6061(7) -0.4176(7) 0.1065(5)
O3A O -0.2688(8) -0.1995(8) 0.0544(5)
O4A O -0.1449(8) -0.0698(7) 0.1127(6)
O5A O -0.2590(8) -0.4090(8) 0.0552(5)
O6A O -0.2610(7) -0.5240(7) 0.1231(5)
O7A O -0.1844(7) -0.2738(7) -0.0481(4)
O8A O -0.0586(7) -0.1444(7) -0.1061(5)
O9A O -0.4046(9) -0.4866(9) -0.0532(5)
O10A O -0.4061(7) -0.5977(7) -0.1223(5)
O11A O -0.3955(8) -0.2688(8) -0.0587(5)
O12A O -0.5215(7) -0.2629(7) -0.1171(5)
C1A C -0.5184(10) -0.3739(11) 0.0778(7)
H1A H -0.47570 -0.29720 0.07990
C2A C -0.1793(10) -0.1533(11) 0.0791(6)
H2A H -0.13240 -0.18170 0.07290
C3A C -0.3059(9) -0.4881(9) 0.0895(7)
H3A H -0.38270 -0.52430 0.09010
C4A C -0.1447(10) -0.1883(10) -0.0774(7)
H4A H -0.18520 -0.15190 -0.07780
C5A C -0.3608(9) -0.5146(9) -0.0916(6)
H5A H -0.28560 -0.46770 -0.09790
C6A C -0.4878(11) -0.3100(11) -0.0808(7)
H6A H -0.53820 -0.38250 -0.07000
Zn1B Zn -0.65877(12) 0.00883(20) -0.00038(7)
O1B O -0.5785(7) -0.0603(7) 0.0466(4)
O2B O -0.5824(7) -0.1885(7) 0.1065(5)
O3B O -0.8005(8) -0.0693(8) 0.0544(5)
O4B O -0.9302(8) -0.0751(7) 0.1127(6)
O5B O -0.5910(8) 0.1500(8) 0.0552(5)
O6B O -0.4760(7) 0.2630(7) 0.1231(5)
O7B O -0.7262(7) 0.0894(7) -0.0481(4)
O8B O -0.8556(7) 0.0858(7) -0.1061(5)
O9B O -0.5134(9) 0.0820(9) -0.0532(5)
O10B O -0.4023(7) 0.1916(7) -0.1223(5)
O11B O -0.7312(8) -0.1267(8) -0.0587(5)
O12B O -0.7371(7) -0.2586(7) -0.1171(5)
C1B C -0.6261(10) -0.1445(11) 0.0778(7)
H1B H -0.70280 -0.17850 0.07990
C2B C -0.8467(10) -0.0260(11) 0.0791(6)
H2B H -0.81830 0.04930 0.07290
C3B C -0.5119(9) 0.1822(9) 0.0895(7)
H3B H -0.47570 0.14160 0.09010
C4B C -0.8117(10) 0.0436(10) -0.0774(7)
H4B H -0.84810 -0.03330 -0.07780
C5B C -0.4854(9) 0.1538(9) -0.0916(6)
H5B H -0.53230 0.18210 -0.09790
C6B C -0.6900(11) -0.1778(11) -0.0808(7)
H6B H -0.61750 -0.15570 -0.07000
Zn2* Zn -0.66670 -0.33330 0.15700(12)
Zn2F Zn -0.33337 -0.66663 -0.176333(120)
Zn2F* Zn -0.33337 0.33337 -0.176333(120)
Zn3* Zn -1.00000 0.00000 0.1654(2)
Zn3F Zn -0.66667 -0.33333 -0.167933(200)
Zn3F* Zn 0.33333 0.66667 -0.167933(200)
Zn4* Zn -0.33330 -0.66670 0.17573(12)
Zn4F Zn -0.99997 -0.00003 -0.157603(120)
Zn4F* Zn 0.00003 -0.00003 -0.157603(120)
O2A* O 0.3939(7) 0.5824(7) 0.1065(5)
O2B* O 0.4176(7) 0.8115(7) 0.1065(5)
O4B* O 0.0698(8) -0.0751(7) 0.1127(6)
O6A* O -0.2610(7) 0.4760(7) 0.1231(5)
O8C O -0.419133(700) 0.391933(700) 0.227233(500)
O8D O -0.391933(700) 0.188933(700) 0.227233(500)
O8E O -0.188933(700) 0.419133(700) 0.227233(500)
O10C O 0.475067(700) 0.739433(700) 0.211033(500)
O10D O 0.260567(700) 0.735633(700) 0.211033(500)
O10E O 0.264367(700) 0.524933(700) 0.211033(500)
O12C O -0.074733(700) -0.145167(700) 0.216233(500)
O12D O 0.145167(700) 0.070433(700) 0.216233(500)
O12E O -0.070433(700) 0.074733(700) 0.216233(500)
#END
