
#######################################################################
#
#                 Cambridge Crystallographic Data Centre
#                                CCDC
#
#######################################################################
#
# If this CIF has been generated from an entry in the Cambridge
# Structural Database, then it will include bibliographic, chemical,
# crystal, experimental, refinement or atomic coordinate data resulting
# from the CCDC's data processing and validation procedures.
#
#######################################################################

data_CSD_CIF_JEBCEZ
_audit_creation_date 2006-04-11
_audit_creation_method CSD-ConQuest-V1
_database_code_CSD JEBCEZ
_database_code_depnum_ccdc_archive 'CCDC 254403'
_chemical_formula_sum 'C34 H39 As8 Cd2 N9 O43 V14'
_chemical_formula_moiety
;
(C30 H24 Cd1 N6 2+)n,n(C4 H13 As8 Cd1 N3 O42 V14 2-),n(H2 O1)
;
_journal_coden_Cambridge 208
_journal_volume 178
_journal_year 2005
_journal_page_first 3740
_journal_name_full 'J.Solid State Chem. '
loop_
_publ_author_name
"Shou-Tian Zheng"
"Jie Zhang"
"Ji-Qing Xu"
"Guo-Yu Yang"
_chemical_name_systematic
;
catena-(tris(2,2'-Bipyridine)-cadmium 
(\m~6~-pentaoxo-di-arsenato)-octakis(\m~3~-oxo)-bis(\m~2~-oxo)-(diethylenetria
mine)-dodecaoxo-cadmium-tetradeca-vanadium monohydrate)
;
_cell_volume   7482.802
_exptl_crystal_colour 'grey'
_exptl_crystal_density_diffrn 2.485
_exptl_crystal_description 'Prism'
_diffrn_ambient_temperature 293
_refine_special_details
;
A cadmium atom is disordered with occupancies 0.97:0.03.

;
#These two values have been output from a single CSD field.
_refine_ls_R_factor_gt 0.0314
_refine_ls_wR_factor_gt 0.0314
_symmetry_cell_setting monoclinic
_symmetry_space_group_name_H-M 'P 21/n'
_symmetry_Int_Tables_number 14
loop_
_symmetry_equiv_pos_site_id
_symmetry_equiv_pos_as_xyz
1 x,y,z
2 1/2-x,1/2+y,1/2-z
3 -x,-y,-z
4 -1/2+x,-1/2-y,-1/2+z
_cell_length_a 15.1728(5)
_cell_length_b 19.2863(5)
_cell_length_c 25.7122(9)
_cell_angle_alpha 90
_cell_angle_beta 96.005(2)
_cell_angle_gamma 90
_cell_formula_units_Z 4
loop_
_atom_type_symbol
_atom_type_radius_bond
C 0.68
H 0.23
As 1.21
Cd 1.69
N 0.68
O 0.68
V 1.29
loop_
_atom_site_label
_atom_site_type_symbol
_atom_site_fract_x
_atom_site_fract_y
_atom_site_fract_z
Cd1 Cd -0.360500(18) 0.199250(14) 0.60383(1)
Cd2 Cd -0.25530(2) 0.515030(18) 0.27114(1)
Cd3? Cd -0.2472(8) 0.5578(8) 0.2692(3)
As1 As -0.61060(2) 0.130340(16) 0.258130(13)
As2 As -0.49860(2) 0.100480(16) 0.370070(14)
As3 As -0.83508(2) 0.113370(18) 0.473830(14)
As4 As -0.94626(2) 0.142670(17) 0.361180(14)
As5 As -0.86221(2) 0.468950(16) 0.322420(12)
As6 As -0.68100(2) 0.462850(15) 0.266390(11)
As7 As -0.47502(2) 0.408220(15) 0.473980(12)
As8 As -0.65718(2) 0.414810(17) 0.529660(12)
V1 V -0.44718(3) 0.24980(3) 0.42929(2)
V2 V -0.55749(3) 0.25108(3) 0.51971(2)
V3 V -0.75577(4) 0.26152(3) 0.52632(2)
V4 V -0.92028(4) 0.28065(3) 0.45037(2)
V5 V -0.94640(3) 0.31312(3) 0.33379(2)
V6 V -0.82885(3) 0.32232(3) 0.244700(19)
V7 V -0.63429(3) 0.29912(3) 0.238680(19)
V8 V -0.47191(3) 0.26434(3) 0.31227(2)
V9 V -0.61710(4) 0.12665(3) 0.46944(2)
V10 V -0.72727(4) 0.08927(3) 0.36283(2)
V11 V -0.81486(4) 0.17909(3) 0.27059(2)
V12 V -0.83569(4) 0.41314(3) 0.44461(2)
V13 V -0.66308(4) 0.47183(3) 0.40176(2)
V14 V -0.51359(3) 0.40088(3) 0.345250(19)
O1 O -0.74116(18) 0.00803(12) 0.35261(11)
O2 O -0.43938(16) 0.45438(12) 0.33071(10)
O3 O -0.64992(17) 0.55295(12) 0.41121(10)
O4 O -1.04736(15) 0.33153(13) 0.31515(9)
O5 O -0.78082(18) 0.25264(14) 0.58457(9)
O6 O -0.51938(15) 0.19047(11) 0.46781(8)
O7 O -0.38183(16) 0.25881(13) 0.28546(9)
O8 O -0.89216(17) 0.47223(13) 0.46905(9)
O9 O -0.58220(19) 0.06211(14) 0.50525(11)
O10 O -1.00893(17) 0.28062(15) 0.47903(10)
O11 O -0.63271(15) 0.44672(11) 0.33145(8)
O12 O -0.69990(15) 0.13418(11) 0.29788(9)
O13 O -0.74149(16) 0.10812(12) 0.43702(10)
O14 O -0.91392(15) 0.35480(11) 0.40022(8)
O15 O -0.87957(15) 0.33431(12) 0.18603(8)
O16 O -0.74495(15) 0.24946(11) 0.24020(9)
O17 O -0.92138(16) 0.10006(13) 0.42257(10)
O18 O -0.78965(15) 0.45151(11) 0.37972(8)
O19 O -0.94425(15) 0.22981(12) 0.38183(9)
O20 O -0.78368(15) 0.49883(11) 0.28100(9)
O21 O -0.53319(16) 0.08477(11) 0.30273(9)
O22 O -0.34464(15) 0.23697(12) 0.44991(9)
O23 O -0.54799(15) 0.42440(11) 0.41662(8)
O24 O -0.47644(15) 0.19015(11) 0.36668(9)
O25 O -0.60424(16) 0.10393(12) 0.39434(9)
O26 O -0.82626(15) 0.33270(12) 0.48981(8)
O27 O -0.61403(17) 0.30458(13) 0.17899(9)
O28 O -0.71730(14) 0.37612(11) 0.25147(8)
O29 O -0.89023(15) 0.25692(11) 0.28379(8)
O30 O -0.54506(15) 0.43605(12) 0.52143(8)
O31 O -0.49400(15) 0.31705(11) 0.47821(8)
O32 O -0.83852(16) 0.13847(12) 0.33954(10)
O33 O -0.64824(15) 0.32285(11) 0.52825(8)
O34 O -0.54448(14) 0.34187(11) 0.28572(8)
O35 O -0.70488(15) 0.42914(12) 0.46465(8)
O36 O -0.56998(15) 0.21565(11) 0.26859(9)
O37 O -0.87621(15) 0.38321(11) 0.29809(8)
O38 O -0.84117(16) 0.20410(12) 0.47963(9)
O39 O -0.66254(15) 0.19580(12) 0.51402(9)
O40 O -0.45598(14) 0.31893(11) 0.37561(8)
O41 O -0.49603(16) 0.23629(13) 0.57464(9)
O42 O -0.86113(18) 0.13164(13) 0.22462(10)
N1 N -0.3763(3) 0.0876(2) 0.57128(17)
H1 H -0.43230 0.08030 0.55700
H2 H -0.36330 0.05640 0.59700
N2 N -0.2547(3) 0.1978(3) 0.54757(17)
H3 H -0.28000 0.21000 0.51520
N3 N -0.2898(3) 0.30219(19) 0.62337(15)
H4 H -0.26060 0.30080 0.65570
H5 H -0.32900 0.33730 0.62190
N4 N -0.21764(19) 0.45860(15) 0.34734(12)
N5 N -0.1343(2) 0.57530(16) 0.31879(11)
N6 N -0.1801(2) 0.44143(16) 0.21971(12)
N7 N -0.3585(2) 0.45775(16) 0.21080(11)
N8 N -0.3501(2) 0.60383(15) 0.28618(11)
N9 N -0.2540(2) 0.59843(16) 0.20200(12)
C1 C -0.3135(3) 0.0814(3) 0.5310(2)
H6 H -0.29980 0.03290 0.52610
H7 H -0.34120 0.09940 0.49810
C2 C -0.2277(4) 0.1211(3) 0.5467(2)
H8 H -0.20130 0.10640 0.58090
H9 H -0.18540 0.11340 0.52140
C3 C -0.1868(3) 0.2450(3) 0.56315(19)
H10 H -0.14690 0.22470 0.59100
H11 H -0.15320 0.25460 0.53390
C4 C -0.2245(3) 0.3118(3) 0.5821(3)
H12 H -0.17590 0.34090 0.59670
H13 H -0.25450 0.33610 0.55230
C5 C -0.2537(2) 0.3972(2) 0.35733(18)
H14 H -0.29830 0.37920 0.33360
C6 C -0.2262(3) 0.3599(2) 0.4022(2)
H15 H -0.25360 0.31830 0.40920
C7 C -0.1579(3) 0.3853(2) 0.43610(18)
H16 H -0.13850 0.36100 0.46640
C8 C -0.1182(3) 0.4473(2) 0.42483(15)
H17 H -0.07020 0.46420 0.44660
C9 C -0.1509(2) 0.48376(17) 0.38073(13)
C10 C -0.1148(2) 0.55318(18) 0.36811(12)
C11 C -0.0662(3) 0.5932(2) 0.40577(14)
H18 H -0.05360 0.57680 0.43980
C12 C -0.0368(3) 0.6576(2) 0.39197(16)
H19 H -0.00570 0.68570 0.41690
C13 C -0.0540(3) 0.6800(2) 0.34090(17)
H20 H -0.03260 0.72240 0.33030
C14 C -0.1039(3) 0.6375(2) 0.30602(15)
H21 H -0.11710 0.65290 0.27180
C15 C -0.0918(3) 0.4461(2) 0.22082(18)
H22 H -0.06020 0.46500 0.25040
C16 C -0.0452(3) 0.4244(2) 0.1805(2)
H23 H 0.01610 0.42920 0.18240
C17 C -0.0932(3) 0.3953(2) 0.1373(2)
H24 H -0.06450 0.38020 0.10910
C18 C -0.1840(3) 0.3888(2) 0.1361(2)
H25 H -0.21650 0.36810 0.10760
C19 C -0.2264(3) 0.41342(19) 0.17756(15)
C20 C -0.3252(3) 0.41618(19) 0.17550(14)
C21 C -0.3800(3) 0.3817(2) 0.13769(17)
H26 H -0.35620 0.35140 0.11470
C22 C -0.4701(3) 0.3925(3) 0.13428(18)
H27 H -0.50790 0.36950 0.10920
C23 C -0.5038(3) 0.4385(2) 0.16900(17)
H28 H -0.56410 0.44860 0.16640
C24 C -0.4460(3) 0.4683(2) 0.20709(15)
H29 H -0.46870 0.49720 0.23140
C25 C -0.3932(3) 0.6059(2) 0.32882(14)
H30 H -0.39240 0.56680 0.35010
C26 C -0.4389(3) 0.6641(2) 0.34253(14)
H31 H -0.47180 0.66320 0.37110
C27 C -0.4346(3) 0.7230(2) 0.31326(15)
H32 H -0.46280 0.76330 0.32260
C28 C -0.3882(3) 0.7223(2) 0.26970(15)
H33 H -0.38350 0.76220 0.24990
C29 C -0.3484(2) 0.66059(18) 0.25597(13)
C30 C -0.3087(2) 0.65228(17) 0.20578(13)
C31 C -0.3326(2) 0.69623(19) 0.16350(14)
H34 H -0.36800 0.73480 0.16740
C32 C -0.3024(3) 0.6813(2) 0.11566(15)
H35 H -0.31960 0.70870 0.08660
C33 C -0.2473(3) 0.6259(2) 0.11147(15)
H36 H -0.22610 0.61520 0.07980
C34 C -0.2236(2) 0.58597(18) 0.15576(13)
H37 H -0.18490 0.54900 0.15320
O43 O -0.6846(2) 0.27329(18) 0.38727(13)
Cd1C Cd -0.860500(18) 0.300750(14) 0.10383(1)
O15C O -0.37957(15) 0.16569(12) 0.68603(8)
#END
