
#######################################################################
#
#                 Cambridge Crystallographic Data Centre
#                                CCDC
#
#######################################################################
#
# If this CIF has been generated from an entry in the Cambridge
# Structural Database, then it will include bibliographic, chemical,
# crystal, experimental, refinement or atomic coordinate data resulting
# from the CCDC's data processing and validation procedures.
#
#######################################################################

data_CSD_CIF_JEBGOP
_audit_creation_date 2017-06-16
_audit_creation_method CSD-ConQuest-V1
_database_code_CSD JEBGOP
_database_code_depnum_ccdc_archive 'CCDC 1551124'
_chemical_formula_sum 'C24 H54 Mn6 N6 O39'
_chemical_formula_moiety
;
(C18 H18 Mn6 O36 6-)n,3n(C2 H10 N2 2+),3n(H2 O1)
;
_journal_coden_Cambridge 1326
_journal_volume 19
_journal_year 2017
_journal_page_first 16749
_journal_name_full 'Phys.Chem.Chem.Phys.(PCCP) '
loop_
_publ_author_name
"M.Trzebiatowska"
"B.Zarychta"
"A.Pikul"
"M.Maczka"
"P.Peksa"
"R.Poprawski"
_chemical_name_systematic
;
catena-(tris(ethane-1,2-diammonium) octadecakis(\m-formato)-hexa-manganese 
trihydrate)
;
_cell_volume   4036.704
_exptl_crystal_colour 'colorless'
_exptl_crystal_density_diffrn 1.707
_exptl_crystal_description 'block'
_diffrn_ambient_temperature 295
#These two values have been output from a single CSD field.
_refine_ls_R_factor_gt 0.0332
_refine_ls_wR_factor_gt 0.0332
_symmetry_cell_setting rhombohedral
_symmetry_space_group_name_H-M 'R 3'
_symmetry_Int_Tables_number 146
loop_
_symmetry_equiv_pos_site_id
_symmetry_equiv_pos_as_xyz
1 x,y,z
2 -y,x-y,z
3 -x+y,-x,z
4 2/3+x,1/3+y,1/3+z
5 2/3-y,1/3+x-y,1/3+z
6 2/3-x+y,1/3-x,1/3+z
7 1/3+x,2/3+y,2/3+z
8 1/3-y,2/3+x-y,2/3+z
9 1/3-x+y,2/3-x,2/3+z
_cell_length_a 14.2034(2)
_cell_length_b 14.2034(2)
_cell_length_c 23.1053(5)
_cell_angle_alpha 90
_cell_angle_beta 90
_cell_angle_gamma 120
_cell_formula_units_Z 3
loop_
_atom_type_symbol
_atom_type_radius_bond
C 0.68
H 0.23
Mn 1.61
N 0.68
O 0.68
loop_
_atom_site_label
_atom_site_type_symbol
_atom_site_fract_x
_atom_site_fract_y
_atom_site_fract_z
Mn1 Mn 0.65853(6) 0.66889(7) 0.39345(4)
Mn2 Mn 0.33330 0.66670 0.56970(5)
Mn3 Mn 1.00000 1.00000 0.55084(5)
Mn4 Mn 0.66670 0.33330 0.56467(7)
O1 O 0.5063(3) 0.5985(3) 0.44263(17)
O2 O 0.3998(3) 0.5917(3) 0.51389(19)
O3 O 0.7236(3) 0.8195(3) 0.44233(16)
O4 O 0.8533(3) 0.9448(3) 0.49859(18)
O5 O 0.7265(3) 0.6046(3) 0.45680(17)
O6 O 0.7318(3) 0.4814(3) 0.51347(17)
O7 O 0.8093(3) 0.7311(3) 0.34256(18)
O8 O 0.9343(3) 0.8527(3) 0.28397(19)
O9 O 0.5789(3) 0.5167(3) 0.34735(17)
O10 O 0.5798(3) 0.3930(3) 0.28914(18)
O11 O 0.5976(3) 0.7470(3) 0.33433(18)
O12 O 0.4819(3) 0.7403(3) 0.26779(17)
C1 C 0.4851(4) 0.6379(4) 0.4855(2)
H1 H 0.53740 0.70740 0.49710
C2 C 0.8122(4) 0.8601(4) 0.4698(3)
H2 H 0.85030 0.82260 0.46830
C3 C 0.6873(4) 0.5129(4) 0.4776(3)
H3 H 0.61770 0.46190 0.46550
C4 C 0.8526(4) 0.8187(4) 0.3151(2)
H4 H 0.82080 0.86210 0.31830
C5 C 0.6228(4) 0.4818(4) 0.3144(3)
H5 H 0.69670 0.52740 0.30770
C6 C 0.5128(4) 0.6997(4) 0.3055(2)
H6 H 0.46760 0.62610 0.31300
O13 O 0.3676(3) 0.3949(3) 0.6515(2)
H7 H 0.430(5) 0.433(5) 0.658(3)
H8 H 0.341(5) 0.450(5) 0.640(3)
N1 N 0.3403(3) 0.2652(4) 0.5569(2)
H9 H 0.33770 0.28460 0.59320
H10 H 0.40110 0.26280 0.55160
H11 H 0.28310 0.19990 0.55000
C7 C 0.3386(5) 0.3456(5) 0.5166(4)
H12 H 0.40070 0.41680 0.52440
H13 H 0.27320 0.34960 0.52320
N2 N 0.3271(4) 0.3910(4) 0.4153(2)
H14 H 0.32960 0.37300 0.37860
H15 H 0.38000 0.45900 0.42150
H16 H 0.26310 0.38580 0.42220
C8 C 0.3418(4) 0.3156(5) 0.4546(3)
H17 H 0.41100 0.32010 0.44670
H18 H 0.28450 0.24140 0.44780
Mn1A Mn 0.33111(6) -0.01036(7) 0.39345(4)
O1A O 0.4015(3) -0.0922(3) 0.44263(17)
O2A O 0.4083(3) -0.1919(3) 0.51389(19)
O3A O 0.1805(3) -0.0959(3) 0.44233(16)
O4A O 0.0552(3) -0.0915(3) 0.49859(18)
O5A O 0.3954(3) 0.1219(3) 0.45680(17)
O6A O 0.5186(3) 0.2504(3) 0.51347(17)
O7A O 0.2689(3) 0.0782(3) 0.34256(18)
O8A O 0.1473(3) 0.0816(3) 0.28397(19)
O9A O 0.4833(3) 0.0622(3) 0.34735(17)
O10A O 0.6070(3) 0.1868(3) 0.28914(18)
O11A O 0.2530(3) -0.1494(3) 0.33433(18)
O12A O 0.2597(3) -0.2584(3) 0.26779(17)
C1A C 0.3621(4) -0.1528(4) 0.4855(2)
H1A H 0.29260 -0.17000 0.49710
C2A C 0.1399(4) -0.0479(4) 0.4698(3)
H2A H 0.17740 0.02770 0.46830
C3A C 0.4871(4) 0.1744(4) 0.4776(3)
H3A H 0.53810 0.15580 0.46550
C4A C 0.1813(4) 0.0339(4) 0.3151(2)
H4A H 0.13790 -0.04130 0.31830
C5A C 0.5182(4) 0.1410(4) 0.3144(3)
H5A H 0.47260 0.16930 0.30770
C6A C 0.3003(4) -0.1869(4) 0.3055(2)
H6A H 0.37390 -0.15850 0.31300
Mn1B Mn 0.01036(6) 0.34147(7) 0.39345(4)
O1B O 0.0922(3) 0.4937(3) 0.44263(17)
O2B O 0.1919(3) 0.6002(3) 0.51389(19)
O3B O 0.0959(3) 0.2764(3) 0.44233(16)
O4B O 0.0915(3) 0.1467(3) 0.49859(18)
O5B O -0.1219(3) 0.2735(3) 0.45680(17)
O6B O -0.2504(3) 0.2682(3) 0.51347(17)
O7B O -0.0782(3) 0.1907(3) 0.34256(18)
O8B O -0.0816(3) 0.0657(3) 0.28397(19)
O9B O -0.0622(3) 0.4211(3) 0.34735(17)
O10B O -0.1868(3) 0.4202(3) 0.28914(18)
O11B O 0.1494(3) 0.4024(3) 0.33433(18)
O12B O 0.2584(3) 0.5181(3) 0.26779(17)
C1B C 0.1528(4) 0.5149(4) 0.4855(2)
H1B H 0.17000 0.46260 0.49710
C2B C 0.0479(4) 0.1878(4) 0.4698(3)
H2B H -0.02770 0.14970 0.46830
C3B C -0.1744(4) 0.3127(4) 0.4776(3)
H3B H -0.15580 0.38230 0.46550
C4B C -0.0339(4) 0.1474(4) 0.3151(2)
H4B H 0.04130 0.17920 0.31830
C5B C -0.1410(4) 0.3772(4) 0.3144(3)
H5B H -0.16930 0.30330 0.30770
C6B C 0.1869(4) 0.4872(4) 0.3055(2)
H6B H 0.15850 0.53240 0.31300
Mn2* Mn 0.33330 -0.33330 0.56970(5)
Mn2F Mn -0.33337 0.33337 0.236367(50)
Mn2F* Mn 0.66663 0.33337 0.236367(50)
Mn3* Mn 0.00000 0.00000 0.55084(5)
Mn3F Mn 0.33333 -0.33333 0.217507(50)
Mn3F* Mn 0.33333 0.66667 0.217507(50)
Mn4* Mn -0.33330 0.33330 0.56467(7)
Mn4F Mn 0.00003 -0.00003 0.231337(70)
Mn4F* Mn 1.00003 0.99997 0.231337(70)
O2A* O 0.4083(3) 0.8081(3) 0.51389(19)
O4A* O 1.0552(3) 0.9085(3) 0.49859(18)
O4B* O 1.0915(3) 1.1467(3) 0.49859(18)
O6B* O 0.7496(3) 0.2682(3) 0.51347(17)
O8C O 0.600967(300) 0.186033(300) 0.617303(190)
O8D O 0.813967(300) 0.414933(300) 0.617303(190)
O8E O 0.585067(300) 0.399033(300) 0.617303(190)
O10C O 0.246467(300) 0.726333(300) 0.622473(180)
O10D O 0.273667(300) 0.520133(300) 0.622473(180)
O10E O 0.479867(300) 0.753533(300) 0.622473(180)
O12C O 1.148567(300) 1.073633(300) 0.601123(170)
O12D O 0.926367(300) 1.074933(300) 0.601123(170)
O12E O 0.925067(300) 0.851433(300) 0.601123(170)
#END
