
#######################################################################
#
#                 Cambridge Crystallographic Data Centre
#                                CCDC
#
#######################################################################
#
# If this CIF has been generated from an entry in the Cambridge
# Structural Database, then it will include bibliographic, chemical,
# crystal, experimental, refinement or atomic coordinate data resulting
# from the CCDC's data processing and validation procedures.
#
#######################################################################

data_CSD_CIF_JEBGUV
_audit_creation_date 2017-06-16
_audit_creation_method CSD-ConQuest-V1
_database_code_CSD JEBGUV
_database_code_depnum_ccdc_archive 'CCDC 1551125'
_chemical_formula_sum 'C24 H54 Co6 N6 O39'
_chemical_formula_moiety
;
(C18 H18 Co6 O36 6-)n,3n(C2 H10 N2 2+),3n(H2 O1)
;
_journal_coden_Cambridge 1326
_journal_volume 19
_journal_year 2017
_journal_page_first 16749
_journal_name_full 'Phys.Chem.Chem.Phys.(PCCP) '
loop_
_publ_author_name
"M.Trzebiatowska"
"B.Zarychta"
"A.Pikul"
"M.Maczka"
"P.Peksa"
"R.Poprawski"
_chemical_name_systematic
;
catena-(tris(ethane-1,2-diammonium) octadecakis(\m-formato)-hexa-cobalt 
trihydrate)
;
_cell_volume   1263.432
_exptl_crystal_colour 'violet'
_exptl_crystal_density_diffrn 1.846
_exptl_crystal_description 'irregular'
_diffrn_ambient_temperature 295
_refine_special_details
;
C21A,C22A,N21A,N22A,OWA and C21B,C22B,N21B,N22B,OWB disordered over two sites 
with occupancies 0.7:0.3.
;
#These two values have been output from a single CSD field.
_refine_ls_R_factor_gt 0.0621
_refine_ls_wR_factor_gt 0.0621
_symmetry_cell_setting rhombohedral
_symmetry_space_group_name_H-M 'R 3'
_symmetry_Int_Tables_number 146
loop_
_symmetry_equiv_pos_site_id
_symmetry_equiv_pos_as_xyz
1 x,y,z
2 z,x,y
3 y,z,x
_cell_length_a 10.9975(2)
_cell_length_b 10.9975(2)
_cell_length_c 10.9975(2)
_cell_angle_alpha 78.85
_cell_angle_beta 78.85
_cell_angle_gamma 78.85
_cell_formula_units_Z 1
loop_
_atom_type_symbol
_atom_type_radius_bond
C 0.68
H 0.23
Co 1.26
N 0.68
O 0.68
loop_
_atom_site_label
_atom_site_type_symbol
_atom_site_fract_x
_atom_site_fract_y
_atom_site_fract_z
Co1 Co 0.2716(3) 0.9264(3) 0.6000(4)
Co2 Co 0.4258(3) 0.4258(3) 0.4258(3)
Co3 Co -0.2280(3) 0.7720(3) 0.7720(3)
Co4 Co 0.0984(4) 1.0984(4) 0.0984(4)
O1 O 0.3638(8) 0.8028(7) 0.4742(9)
O2 O 0.4088(9) 0.6209(8) 0.4049(8)
O3 O 0.1550(7) 0.7990(8) 0.6973(7)
O4 O -0.0322(7) 0.7407(8) 0.7635(8)
O5 O 0.1420(8) 1.0092(9) 0.4794(7)
O6 O 0.0787(8) 1.0740(9) 0.2940(8)
O7 O 0.1828(9) 1.0597(8) 0.7174(7)
O8 O 0.1139(9) 1.1221(8) 0.9001(8)
O9 O 0.4000(8) 1.0438(7) 0.5005(7)
O10 O 0.4587(7) 1.2307(7) 0.4364(7)
O11 O 0.3925(7) 0.8399(8) 0.7292(9)
O12 O 0.5767(7) 0.7868(9) 0.7930(8)
C1 C 0.3557(10) 0.6895(9) 0.4821(10)
H1 H 0.30510 0.65390 0.55260
C2 C 0.0387(10) 0.8158(11) 0.7082(12)
H2 H 0.00080 0.89340 0.67060
C3 C 0.1611(11) 1.0304(11) 0.3628(10)
H3 H 0.24360 1.01250 0.32280
C4 C 0.1659(10) 1.0414(10) 0.834(1)
H4 H 0.19430 0.96150 0.87460
C5 C 0.3838(10) 1.1595(9) 0.4945(11)
H5 H 0.30860 1.19660 0.53740
C6 C 0.5071(9) 0.8377(11) 0.7155(10)
H6 H 0.54470 0.87840 0.63930
N1 N 0.5851(15) 0.8418(16) 0.3141(16)
H7 H 0.62330 0.89560 0.33760
H8 H 0.63950 0.77230 0.30180
H9 H 0.52140 0.82250 0.37380
N2 N 0.4406(15) 0.8430(15) 0.0343(13)
H10 H 0.50850 0.85500 -0.02260
H11 H 0.38710 0.91490 0.03500
C7 C 0.5405(18) 0.8955(19) 0.2048(18)
H12 H 0.60920 0.92060 0.14080
H13 H 0.47950 0.97000 0.21850
C8 C 0.477(2) 0.799(2) 0.158(2)
H14 H 0.53510 0.72090 0.15650
H15 H 0.40300 0.78240 0.21880
O13 O 0.6506(14) 1.0797(14) 0.3136(13)
H16 H 0.585(11) 1.129(12) 0.337(17)
H17 H 0.644(18) 1.011(10) 0.362(17)
N3? N 0.608(3) 0.893(3) 0.352(3)
H18? H 0.57190 0.87340 0.29430
H19? H 0.54930 0.91250 0.41670
H20? H 0.66300 0.82710 0.37900
N4? N 0.769(3) 1.170(3) 0.353(3)
H21? H 0.80780 1.18360 0.41130
H22? H 0.70360 1.23070 0.34230
H23? H 0.82200 1.16880 0.28050
C9? C 0.721(4) 1.040(4) 0.395(4)
H24? H 0.79060 0.97660 0.42000
H25? H 0.65630 1.04540 0.46780
C10? C 0.672(4) 0.999(4) 0.299(4)
H26? H 0.61410 1.06780 0.26120
H27? H 0.74050 0.97560 0.23280
O14? O 0.551(2) 0.889(2) 0.126(2)
H28? H 0.527(17) 0.965(2) 0.097(9)
H29? H 0.543(11) 0.848(4) 0.072(5)
H30? H 0.40390 0.78560 0.01470
Co1A Co -0.4000(3) 1.2716(3) 0.9264(4)
O1A O -0.5258(8) 1.3638(7) 0.8028(9)
O2A O -0.5951(9) 1.4088(8) 0.6209(8)
O3A O -0.3027(7) 1.1550(8) 0.7990(7)
O4A O -0.2365(7) 0.9678(8) 0.7407(8)
O5A O -0.5206(8) 1.1420(9) 1.0092(7)
O6A O -0.7060(8) 1.0787(9) 1.0740(8)
O7A O -0.2826(9) 1.1828(8) 1.0597(7)
O8A O -0.0999(9) 1.1139(8) 1.1221(8)
O9A O -0.4995(8) 1.4000(7) 1.0438(7)
O10A O -0.5636(7) 1.4587(7) 1.2307(7)
O11A O -0.2708(7) 1.3925(8) 0.8399(9)
O12A O -0.2070(7) 1.5767(9) 0.7868(8)
C1A C -0.5179(10) 1.3557(9) 0.6895(10)
H1A H -0.44740 1.30510 0.65390
C2A C -0.2918(10) 1.0387(11) 0.8158(12)
H2A H -0.32940 1.00080 0.89340
C3A C -0.6372(11) 1.1611(11) 1.0304(10)
H3A H -0.67720 1.24360 1.01250
C4A C -0.166(1) 1.1659(10) 1.0414(10)
H4A H -0.12540 1.19430 0.96150
C5A C -0.5055(10) 1.3838(9) 1.1595(11)
H5A H -0.46260 1.30860 1.19660
C6A C -0.2845(9) 1.5071(11) 0.8377(10)
H6A H -0.36070 1.54470 0.87840
Co1B Co -0.0736(3) 0.6000(3) 1.2716(4)
O1B O -0.1972(8) 0.4742(7) 1.3638(9)
O2B O -0.3791(9) 0.4049(8) 1.4088(8)
O3B O -0.2010(7) 0.6973(8) 1.1550(7)
O4B O -0.2593(7) 0.7635(8) 0.9678(8)
O5B O 0.0092(8) 0.4794(9) 1.1420(7)
O6B O 0.0740(8) 0.2940(9) 1.0787(8)
O7B O 0.0597(9) 0.7174(8) 1.1828(7)
O8B O 0.1221(9) 0.9001(8) 1.1139(8)
O9B O 0.0438(8) 0.5005(7) 1.4000(7)
O10B O 0.2307(7) 0.4364(7) 1.4587(7)
O11B O -0.1601(7) 0.7292(8) 1.3925(9)
O12B O -0.2132(7) 0.7930(9) 1.5767(8)
C1B C -0.3105(10) 0.4821(9) 1.3557(10)
H1B H -0.34610 0.55260 1.30510
C2B C -0.1842(10) 0.7082(11) 1.0387(12)
H2B H -0.10660 0.67060 1.00080
C3B C 0.0304(11) 0.3628(11) 1.1611(10)
H3B H 0.01250 0.32280 1.24360
C4B C 0.0414(10) 0.834(1) 1.1659(10)
H4B H -0.03850 0.87460 1.19430
C5B C 0.1595(10) 0.4945(9) 1.3838(11)
H5B H 0.19660 0.53740 1.30860
C6B C -0.1623(9) 0.7155(11) 1.5071(10)
H6B H -0.12160 0.63930 1.54470
Co2* Co -0.5742(3) 0.4258(3) 1.4258(3)
Co2** Co -0.5742(3) 1.4258(3) 0.4258(3)
Co2*** Co -0.5742(3) 1.4258(3) 1.4258(3)
Co2**** Co 0.4258(3) 0.4258(3) 1.4258(3)
Co2***** Co 0.4258(3) 1.4258(3) 0.4258(3)
Co3* Co -0.2280(3) 0.7720(3) 1.7720(3)
Co3** Co -0.2280(3) 1.7720(3) 0.7720(3)
Co3*** Co 0.7720(3) 0.7720(3) 0.7720(3)
Co4* Co -0.9016(4) 1.0984(4) 1.0984(4)
Co4** Co 0.0984(4) 0.0984(4) 1.0984(4)
Co4*** Co 0.0984(4) 1.0984(4) 1.0984(4)
O2A* O 0.4049(9) 0.4088(8) 0.6209(8)
O2B* O 0.6209(9) 0.4049(8) 0.4088(8)
O6A* O 0.2940(8) 1.0787(9) 0.0740(8)
O6B* O 0.0740(8) 1.2940(9) 0.0787(8)
O8* O 0.1139(9) 1.1221(8) -0.0999(8)
O8A* O -0.0999(9) 1.1139(8) 0.1221(8)
O8B* O 0.1221(9) 0.9001(8) 0.1139(8)
O10* O 0.4587(7) 0.2307(7) 0.4364(7)
O10A* O 0.4364(7) 0.4587(7) 0.2307(7)
O10B* O 0.2307(7) 0.4364(7) 0.4587(7)
O12* O -0.4233(7) 0.7868(9) 0.7930(8)
O12A* O -0.2070(7) 0.5767(9) 0.7868(8)
O12B* O -0.2132(7) 0.7930(9) 0.5767(8)
#END
