
#######################################################################
#
#                 Cambridge Crystallographic Data Centre
#                                CCDC
#
#######################################################################
#
# If this CIF has been generated from an entry in the Cambridge
# Structural Database, then it will include bibliographic, chemical,
# crystal, experimental, refinement or atomic coordinate data resulting
# from the CCDC's data processing and validation procedures.
#
#######################################################################

data_CSD_CIF_JEBGIJ
_audit_creation_date 2017-06-16
_audit_creation_method CSD-ConQuest-V1
_database_code_CSD JEBGIJ
_database_code_depnum_ccdc_archive 'CCDC 1551123'
_chemical_formula_sum 'C24 H54 Mg6 N6 O39'
_chemical_formula_moiety
;
(C18 H18 Mg6 O36 6-)n,3n(C2 H10 N2 2+),3n(H2 O1)
;
_journal_coden_Cambridge 1326
_journal_volume 19
_journal_year 2017
_journal_page_first 16749
_journal_name_full 'Phys.Chem.Chem.Phys.(PCCP) '
loop_
_publ_author_name
"M.Trzebiatowska"
"B.Zarychta"
"A.Pikul"
"M.Maczka"
"P.Peksa"
"R.Poprawski"
_chemical_name_systematic
;
catena-(tris(ethane-1,2-diammonium) octadecakis(\m-formato)-hexa-magnesium 
trihydrate)
;
_cell_volume   3795.316
_exptl_crystal_colour 'colorless'
_exptl_crystal_density_diffrn 1.578
_exptl_crystal_description 'block'
_diffrn_ambient_temperature 295
#These two values have been output from a single CSD field.
_refine_ls_R_factor_gt 0.0311
_refine_ls_wR_factor_gt 0.0311
_symmetry_cell_setting rhombohedral
_symmetry_space_group_name_H-M 'R 3'
_symmetry_Int_Tables_number 146
loop_
_symmetry_equiv_pos_site_id
_symmetry_equiv_pos_as_xyz
1 x,y,z
2 -y,x-y,z
3 -x+y,-x,z
4 2/3+x,1/3+y,1/3+z
5 2/3-y,1/3+x-y,1/3+z
6 2/3-x+y,1/3-x,1/3+z
7 1/3+x,2/3+y,2/3+z
8 1/3-y,2/3+x-y,2/3+z
9 1/3-x+y,2/3-x,2/3+z
_cell_length_a 13.9212(2)
_cell_length_b 13.9212(2)
_cell_length_c 22.6133(5)
_cell_angle_alpha 90
_cell_angle_beta 90
_cell_angle_gamma 120
_cell_formula_units_Z 3
loop_
_atom_type_symbol
_atom_type_radius_bond
C 0.68
H 0.23
Mg 1.41
N 0.68
O 0.68
loop_
_atom_site_label
_atom_site_type_symbol
_atom_site_fract_x
_atom_site_fract_y
_atom_site_fract_z
Mg1 Mg 0.66901(8) 0.66023(7) 0.69600(6)
C1 C 0.6417(3) 0.4910(3) 0.60264(15)
H1 H 0.70970 0.54630 0.58840
Mg2 Mg 0.66670 0.33330 0.52106(8)
O1 O 0.60367(19) 0.51317(18) 0.64689(11)
Mg3 Mg 1.00000 1.00000 0.53702(8)
O2 O 0.59644(19) 0.40111(19) 0.57576(12)
C2 C 0.8566(3) 0.8159(3) 0.61951(16)
H2 H 0.81970 0.85590 0.62220
C3 C 0.8220(3) 0.8509(3) 0.77474(16)
H3 H 0.86670 0.81910 0.77080
Mg4 Mg 1.00000 1.00000 0.85914(9)
O3 O 0.81551(17) 0.72628(18) 0.64792(10)
C4 C 0.4862(3) 0.6287(3) 0.77736(19)
H4 H 0.53430 0.70310 0.78590
O4 O 0.94081(18) 0.85615(18) 0.58845(11)
O5 O 0.52101(18) 0.58456(19) 0.74263(11)
O6 O 0.85662(18) 0.93351(18) 0.80726(12)
O7 O 0.73192(18) 0.80642(18) 0.74663(11)
O8 O 0.39448(18) 0.58522(19) 0.80221(12)
O9 O 0.60258(19) 0.7253(2) 0.63578(12)
C5 C 0.6942(3) 0.5109(3) 0.78269(16)
H5 H 0.61860 0.46580 0.77590
C6 C 0.5092(3) 0.6850(3) 0.61471(16)
H6 H 0.45690 0.61470 0.62790
O10 O 0.47730(18) 0.72901(19) 0.57716(11)
O11 O 0.73658(18) 0.47731(18) 0.82021(12)
O12 O 0.7419(2) 0.59742(19) 0.75363(11)
N1 N 0.3955(2) 0.3267(2) 0.67582(16)
H7 H 0.38410 0.25810 0.67250
H8 H 0.38410 0.33900 0.71310
H9 H 0.46500 0.37510 0.66550
C7 C 0.3175(3) 0.3399(3) 0.6364(2)
H10 H 0.32080 0.40970 0.64500
H11 H 0.24250 0.28050 0.64390
N2 N 0.2622(2) 0.3392(2) 0.53311(16)
H12 H 0.28760 0.35290 0.49620
H13 H 0.24820 0.39200 0.54500
H14 H 0.20020 0.27370 0.53460
C8 C 0.3460(3) 0.3378(3) 0.5720(2)
H15 H 0.41800 0.40170 0.56360
H16 H 0.35030 0.27150 0.56430
O13 O 0.3980(2) 0.3691(2) 0.43828(14)
H17 H 0.440(4) 0.434(4) 0.428(2)
H18 H 0.443(4) 0.337(4) 0.445(2)
Mg1A Mg 0.33977(8) 0.00878(7) 0.69600(6)
C1A C 0.5090(3) 0.1507(3) 0.60264(15)
H1A H 0.45370 0.16340 0.58840
O1A O 0.48683(19) 0.09050(18) 0.64689(11)
O2A O 0.59889(19) 0.19533(19) 0.57576(12)
C2A C 0.1841(3) 0.0407(3) 0.61951(16)
H2A H 0.14410 -0.03620 0.62220
C3A C 0.1491(3) -0.0289(3) 0.77474(16)
H3A H 0.18090 0.04760 0.77080
O3A O 0.27372(17) 0.08923(18) 0.64792(10)
C4A C 0.3713(3) -0.1425(3) 0.77736(19)
H4A H 0.29690 -0.16880 0.78590
O4A O 0.14385(18) 0.08466(18) 0.58845(11)
O5A O 0.41544(18) -0.06355(19) 0.74263(11)
O6A O 0.06649(18) -0.07689(18) 0.80726(12)
O7A O 0.19358(18) -0.07450(18) 0.74663(11)
O8A O 0.41478(18) -0.19074(19) 0.80221(12)
O9A O 0.27470(19) -0.12272(20) 0.63578(12)
C5A C 0.4891(3) 0.1833(3) 0.78269(16)
H5A H 0.53420 0.15280 0.77590
C6A C 0.3150(3) -0.1758(3) 0.61471(16)
H6A H 0.38530 -0.15780 0.62790
O10A O 0.27099(18) -0.25171(19) 0.57716(11)
O11A O 0.52269(18) 0.25927(18) 0.82021(12)
O12A O 0.40258(20) 0.14448(19) 0.75363(11)
Mg1B Mg 0.99122(8) 0.33099(7) 0.69600(6)
C1B C 0.8493(3) 0.3583(3) 0.60264(15)
H1B H 0.83660 0.29030 0.58840
O1B O 0.90950(19) 0.39633(18) 0.64689(11)
O2B O 0.80467(19) 0.40356(19) 0.57576(12)
C2B C 0.9593(3) 0.1434(3) 0.61951(16)
H2B H 1.03620 0.18030 0.62220
C3B C 1.0289(3) 0.1780(3) 0.77474(16)
H3B H 0.95240 0.13330 0.77080
O3B O 0.91077(17) 0.18449(18) 0.64792(10)
C4B C 1.1425(3) 0.5138(3) 0.77736(19)
H4B H 1.16880 0.46570 0.78590
O4B O 0.91534(18) 0.05919(18) 0.58845(11)
O5B O 1.06355(18) 0.47899(19) 0.74263(11)
O6B O 1.07689(18) 0.14338(18) 0.80726(12)
O7B O 1.07450(18) 0.26808(18) 0.74663(11)
O8B O 1.19074(18) 0.60552(19) 0.80221(12)
O9B O 1.12272(19) 0.39742(20) 0.63578(12)
C5B C 0.8167(3) 0.3058(3) 0.78269(16)
H5B H 0.84720 0.38140 0.77590
C6B C 1.1758(3) 0.4908(3) 0.61471(16)
H6B H 1.15780 0.54310 0.62790
O10B O 1.25171(18) 0.52270(19) 0.57716(11)
O11B O 0.74073(18) 0.26342(18) 0.82021(12)
O12B O 0.85552(20) 0.25810(19) 0.75363(11)
Mg2C Mg 0.33337 -0.33337 0.854393(80)
Mg2C* Mg 0.33337 0.66663 0.854393(80)
Mg2C** Mg 1.33337 0.66663 0.854393(80)
Mg3* Mg 0.00000 0.00000 0.53702(8)
Mg3** Mg 1.00000 0.00000 0.53702(8)
Mg3C Mg 0.66667 0.33333 0.870353(80)
Mg4* Mg 0.00000 0.00000 0.85914(9)
Mg4** Mg 1.00000 0.00000 0.85914(9)
Mg4F Mg 0.33333 -0.33333 0.525807(90)
Mg4F* Mg 0.33333 0.66667 0.525807(90)
Mg4F** Mg 1.33333 0.66667 0.525807(90)
O4A* O 1.14385(18) 1.08466(18) 0.58845(11)
O4B* O 0.91534(18) 1.05919(18) 0.58845(11)
O6A* O 1.06649(18) 0.92311(18) 0.80726(12)
O6B* O 1.07689(18) 1.14338(18) 0.80726(12)
O8F O 0.727813(180) 0.251887(190) 0.468877(120)
O8G O 0.748113(180) 0.475927(190) 0.468877(120)
O8H O 0.524073(180) 0.272187(190) 0.468877(120)
O10C O 1.143967(180) 1.062343(190) 0.910493(110)
O10D O 0.937657(180) 1.081623(190) 0.910493(110)
O10E O 0.918377(180) 0.856033(190) 0.910493(110)
O11F O 1.069913(180) 1.143977(180) 0.486877(120)
O11G O 0.856023(180) 0.925937(180) 0.486877(120)
O11H O 1.074063(180) 0.930087(180) 0.486877(120)
#END
