
#######################################################################
#
#                 Cambridge Crystallographic Data Centre
#                                CCDC
#
#######################################################################
#
# If this CIF has been generated from an entry in the Cambridge
# Structural Database, then it will include bibliographic, chemical,
# crystal, experimental, refinement or atomic coordinate data resulting
# from the CCDC's data processing and validation procedures.
#
#######################################################################

data_CSD_CIF_JEBJOQ
_audit_creation_date 2006-04-11
_audit_creation_method CSD-ConQuest-V1
_database_code_CSD JEBJOQ
_database_code_depnum_ccdc_archive 'CCDC 272559'
_chemical_formula_sum 'C90 H171 Cu8 N18 Na3 O126 P2 W24'
_chemical_formula_moiety
;
(Na1 1+)3n,n(C10 H9 N2 1+),n(C80 H80 Cu8 N16 O8),n(H2 O40 P1 W12 2-),n(H4 O40 
P1 W12 2-),38n(H2 O1)
;
_journal_coden_Cambridge 222
_journal_year 2005
_journal_page_first 3913
_journal_name_full 'Dalton Trans. '
loop_
_publ_author_name
"L.Lisnard"
"A.Dolbecq"
"P.Mialane"
"J.Marrot"
"E.Codjovi"
"F.Secheresse"
_chemical_name_systematic
;
catena-(Trisodium (4,4'-bipyridinium) 
octakis(\m~2~-4,4'-bipyridine)-octaaqua-octa-copper 
(\m~12~-phosphato)-tetracosakis(\m~2~-oxo)-aqua-undecaoxo-dodeca-tungsten 
(\m~12~-phosphato)-tetracosakis(\m~2~-oxo)-diaqua-decaoxo-dodeca-tungsten 
hydrate)
;
_cell_volume   9018.242
_exptl_crystal_colour 'purple'
_exptl_crystal_description 'cube'
_diffrn_ambient_temperature 273
_refine_special_details
;
The sodium and bipyridinium cations could not be located. The central 
phosphate ligands are disordered as are several water molecules. The tungsten 
atoms are mixed with copper with occupancies 0.88:0.13.
;
#These two values have been output from a single CSD field.
_refine_ls_R_factor_gt 0.0968
_refine_ls_wR_factor_gt 0.0968
_symmetry_cell_setting orthorhombic
_symmetry_space_group_name_H-M 'P c c n'
_symmetry_Int_Tables_number 56
loop_
_symmetry_equiv_pos_site_id
_symmetry_equiv_pos_as_xyz
1 x,y,z
2 1/2-x,1/2-y,z
3 -x,1/2+y,1/2-z
4 1/2+x,-y,1/2-z
5 -x,-y,-z
6 -1/2+x,-1/2+y,-z
7 x,-1/2-y,-1/2+z
8 -1/2-x,y,-1/2+z
_cell_length_a 18.1584(2)
_cell_length_b 22.2622(4)
_cell_length_c 22.3088(3)
_cell_angle_alpha 90
_cell_angle_beta 90
_cell_angle_gamma 90
_cell_formula_units_Z 2
loop_
_atom_type_symbol
_atom_type_radius_bond
C 0.68
H 0.23
Cu 1.52
N 0.68
O 0.57
P 1.05
W 1.53
loop_
_atom_site_label
_atom_site_type_symbol
_atom_site_fract_x
_atom_site_fract_y
_atom_site_fract_z
W1 W 0.14936(7) 0.06974(4) 0.07684(4)
Cu1? Cu 0.14936(7) 0.06974(4) 0.07684(4)
W2 W -0.02340(7) 0.13227(5) -0.08788(6)
Cu2? Cu -0.02340(7) 0.13227(5) -0.08788(6)
W3 W -0.00091(8) 0.00826(6) 0.15852(5)
Cu3? Cu 0.00091(8) -0.00826(6) -0.15852(5)
W4 W -0.02631(7) 0.14115(5) 0.07250(6)
Cu4? Cu -0.02631(7) 0.14115(5) 0.07250(6)
W5 W 0.17491(7) -0.07238(6) 0.00608(5)
Cu5? Cu -0.17491(7) 0.07238(6) -0.00608(5)
W6 W 0.15075(8) 0.05951(5) -0.08214(5)
Cu6? Cu 0.15075(8) 0.05951(5) -0.08214(5)
P1 P 0.00000 0.00000 0.00000
Cu7 Cu 0.25000 0.25000 -0.24783(17)
Cu8 Cu 0.25000 0.75000 -0.26037(17)
O1 O 0.0788(12) 0.1306(8) 0.0764(10)
O2 O 0.0956(12) 0.0355(10) 0.1412(11)
O3 O 0.2579(11) -0.1066(9) 0.0106(10)
O4 O 0.2223(11) 0.1026(9) 0.1117(9)
O5 O -0.0941(11) -0.0165(9) 0.1424(10)
O6 O 0.0805(11) 0.1226(9) -0.0894(11)
O7 O 0.2240(11) 0.0866(10) -0.1210(8)
O8 O -0.0308(10) 0.0728(8) -0.1458(9)
O9 O 0.0166(14) 0.0300(11) -0.0559(11)
O10 O -0.1233(12) 0.1114(12) -0.0661(8)
O11 O -0.014(2) -0.0375(16) -0.0518(18)
O12 O 0.170(2) 0.0872(11) -0.0032(8)
O13 O 0.0868(18) 0.0112(12) -0.0001(11)
O14 O -0.0010(17) 0.0159(18) 0.2359(12)
O15 O -0.1242(12) 0.1216(13) 0.0523(10)
O16 O -0.0319(14) 0.0865(12) 0.1406(11)
O17 O -0.0375(16) 0.2075(10) 0.1084(14)
O18 O -0.0321(16) 0.1928(9) -0.1316(11)
O19 O -0.0309(14) 0.0644(11) -0.0026(11)
O20 O 0.1883(19) -0.0151(10) -0.0587(9)
O21 O 0.1857(18) -0.0089(9) 0.0626(8)
O22 O -0.0126(15) 0.1619(13) -0.0026(10)
N1 N 0.25000 0.25000 -0.3391(10)
N2 N 0.25000 0.25000 -0.6579(11)
N3 N 0.25000 0.75000 -0.1687(13)
N4 N 0.25000 0.75000 0.1465(12)
N5 N 0.2544(12) 0.6594(8) -0.2593(8)
N6 N 0.2542(17) 0.3410(8) -0.2506(8)
C1 C 0.188(2) 0.2562(16) -0.3701(10)
H1 H 0.14410 0.26070 -0.34870
C2 C 0.184(2) 0.2564(14) -0.4313(11)
H2 H 0.13930 0.26060 -0.45110
C3 C 0.25000 0.25000 -0.4630(12)
C4 C 0.305(2) 0.2251(14) -0.6248(12)
H3 H 0.34340 0.20590 -0.64530
C5 C 0.309(2) 0.2265(16) -0.5636(12)
H4 H 0.35020 0.21190 -0.54370
C6 C 0.25000 0.25000 -0.5318(13)
C7 C 0.2000(16) 0.7187(11) -0.1374(11)
H5 H 0.16380 0.69750 -0.15790
C8 C 0.2004(17) 0.7171(12) -0.0758(10)
H6 H 0.16660 0.69330 -0.05550
C9 C 0.25000 0.75000 -0.0448(15)
C10 C 0.3078(18) 0.7687(11) 0.1176(10)
H7 H 0.34780 0.78340 0.13910
C11 C 0.3111(16) 0.7674(15) 0.0571(11)
H8 H 0.35450 0.77810 0.03790
C12 C 0.25000 0.75000 0.0229(13)
C13 C 0.2083(15) 0.6271(8) -0.2956(11)
H9 H 0.17820 0.64820 -0.32200
C14 C 0.2037(16) 0.5651(10) -0.2956(11)
H10 H 0.17000 0.54470 -0.31940
C15 C 0.2524(15) 0.5346(8) -0.2577(10)
C16 C 0.3012(15) 0.5667(9) -0.2248(13)
H11 H 0.33630 0.54660 -0.20190
C17 C 0.2996(15) 0.6297(10) -0.2247(11)
H12 H 0.33120 0.65080 -0.19960
C18 C 0.3130(17) 0.3718(12) -0.2589(11)
H13 H 0.35710 0.35080 -0.26250
C19 C 0.3160(14) 0.4322(9) -0.2627(10)
H14 H 0.36040 0.45110 -0.27140
C20 C 0.2534(15) 0.4660(9) -0.2537(10)
C21 C 0.1884(16) 0.4328(9) -0.2446(10)
H15 H 0.14350 0.45260 -0.24110
C22 C 0.191(2) 0.3724(12) -0.2409(12)
H16 H 0.14830 0.35160 -0.23130
O23 O -0.0154(18) 0.3444(12) -0.2443(15)
O24 O 0.4077(15) 0.2507(10) -0.2426(10)
O25 O -0.016(3) 0.151(2) -0.261(2)
O26 O 0.3883(13) 0.7547(10) -0.2591(9)
W1D W -0.14936(7) -0.06974(4) -0.07684(4)
W2D W 0.02340(7) -0.13227(5) 0.08788(6)
W3D W 0.00091(8) -0.00826(6) -0.15852(5)
W4D W 0.02631(7) -0.14115(5) -0.07250(6)
W5D W -0.17491(7) 0.07238(6) -0.00608(5)
W6D W -0.15075(8) -0.05951(5) 0.08214(5)
Cu7F Cu 0.25000 0.25000 -0.74783(17)
Cu7F* Cu 0.25000 0.25000 0.25217(17)
Cu7* Cu 0.25000 1.25000 -0.24783(17)
Cu8F Cu 0.25000 0.75000 0.23963(17)
Cu8* Cu 0.25000 -0.25000 -0.26037(17)
Cu8F* Cu 0.25000 0.75000 -0.76037(17)
O1D O -0.0788(12) -0.1306(8) -0.0764(10)
O2D O -0.0956(12) -0.0355(10) -0.1412(11)
O3D O -0.2579(11) 0.1066(9) -0.0106(10)
O4D O -0.2223(11) -0.1026(9) -0.1117(9)
O5D O 0.0941(11) 0.0165(9) -0.1424(10)
O6D O -0.0805(11) -0.1226(9) 0.0894(11)
O7D O -0.2240(11) -0.0866(10) 0.1210(8)
O8D O 0.0308(10) -0.0728(8) 0.1458(9)
O9D O -0.0166(14) -0.0300(11) 0.0559(11)
O10D O 0.1233(12) -0.1114(12) 0.0661(8)
O11D O 0.014(2) 0.0375(16) 0.0518(18)
O12D O -0.170(2) -0.0872(11) 0.0032(8)
O13D O -0.0868(18) -0.0112(12) 0.0001(11)
O14D O 0.0010(17) -0.0159(18) -0.2359(12)
O15D O 0.1242(12) -0.1216(13) -0.0523(10)
O16D O 0.0319(14) -0.0865(12) -0.1406(11)
O17D O 0.0375(16) -0.2075(10) -0.1084(14)
O18D O 0.0321(16) -0.1928(9) 0.1316(11)
O19D O 0.0309(14) -0.0644(11) 0.0026(11)
O20D O -0.1883(19) 0.0151(10) 0.0587(9)
O21D O -0.1857(18) 0.0089(9) -0.0626(8)
O22D O 0.0126(15) -0.1619(13) 0.0026(10)
N1F N 0.25000 0.25000 0.1609(10)
N2F N 0.25000 0.25000 -0.1579(11)
N3F N 0.25000 0.75000 -0.6687(13)
N4F N 0.25000 0.75000 -0.3535(12)
N5A N 0.2456(12) -0.1594(8) -0.2593(8)
N5A* N 0.2456(12) 0.8406(8) -0.2593(8)
N6A N 0.2458(17) 0.1590(8) -0.2506(8)
N6A* N 0.2458(17) 1.1590(8) -0.2506(8)
C1A C 0.312(2) 0.2438(16) -0.3701(10)
C1F C 0.188(2) 0.2438(16) 0.1299(10)
C1G C 0.312(2) 0.2562(16) 0.1299(10)
H1A H 0.35590 0.23930 -0.34870
H1F H 0.14410 0.23930 0.15130
H1G H 0.35590 0.26070 0.15130
C2A C 0.316(2) 0.2436(14) -0.4313(11)
C2F C 0.184(2) 0.2436(14) 0.0687(11)
C2G C 0.316(2) 0.2564(14) 0.0687(11)
H2A H 0.36070 0.23940 -0.45110
H2F H 0.13930 0.23940 0.04890
H2G H 0.36070 0.26060 0.04890
C3F C 0.25000 0.25000 0.0370(12)
C4A C 0.195(2) 0.2749(14) -0.6248(12)
C4F C 0.305(2) 0.2749(14) -0.1248(12)
C4G C 0.195(2) 0.2251(14) -0.1248(12)
H3A H 0.15660 0.29410 -0.64530
H3F H 0.34340 0.29410 -0.14530
H3G H 0.15660 0.20590 -0.14530
C5A C 0.191(2) 0.2735(16) -0.5636(12)
C5F C 0.309(2) 0.2735(16) -0.0636(12)
C5G C 0.191(2) 0.2265(16) -0.0636(12)
H4A H 0.14980 0.28810 -0.54370
H4F H 0.35020 0.28810 -0.04370
H4G H 0.14980 0.21190 -0.04370
C6F C 0.25000 0.25000 -0.0318(13)
C7A C 0.3000(16) 0.7813(11) -0.1374(11)
C7F C 0.2000(16) 0.7813(11) -0.6374(11)
C7G C 0.3000(16) 0.7187(11) -0.6374(11)
H5A H 0.33620 0.80250 -0.15790
H5F H 0.16380 0.80250 -0.65790
H5G H 0.33620 0.69750 -0.65790
C8A C 0.2996(17) 0.7829(12) -0.0758(10)
C8F C 0.2004(17) 0.7829(12) -0.5758(10)
C8G C 0.2996(17) 0.7171(12) -0.5758(10)
H6A H 0.33340 0.80670 -0.05550
H6F H 0.16660 0.80670 -0.55550
H6G H 0.33340 0.69330 -0.55550
C9F C 0.25000 0.75000 -0.5448(15)
C10A C 0.1922(18) 0.7313(11) 0.1176(10)
C10F C 0.3078(18) 0.7313(11) -0.3824(10)
C10G C 0.1922(18) 0.7687(11) -0.3824(10)
H7A H 0.15220 0.71660 0.13910
H7F H 0.34780 0.71660 -0.36090
H7G H 0.15220 0.78340 -0.36090
C11A C 0.1889(16) 0.7326(15) 0.0571(11)
C11F C 0.3111(16) 0.7326(15) -0.4429(11)
C11G C 0.1889(16) 0.7674(15) -0.4429(11)
H8A H 0.14550 0.72190 0.03790
H8F H 0.35450 0.72190 -0.46210
H8G H 0.14550 0.77810 -0.46210
C12F C 0.25000 0.75000 -0.4771(13)
C13A C 0.2917(15) -0.1271(8) -0.2956(11)
C13A* C 0.2917(15) 0.8729(8) -0.2956(11)
H9A H 0.32180 -0.14820 -0.32200
H9A* H 0.32180 0.85180 -0.32200
C14A C 0.2963(16) -0.0651(10) -0.2956(11)
C14A* C 0.2963(16) 0.9349(10) -0.2956(11)
H10A H 0.33000 -0.04470 -0.31940
H10A* H 0.33000 0.95530 -0.31940
C15A C 0.2476(15) -0.0346(8) -0.2577(10)
C15A* C 0.2476(15) 0.9654(8) -0.2577(10)
C16A C 0.1988(15) -0.0667(9) -0.2248(13)
C16A* C 0.1988(15) 0.9333(9) -0.2248(13)
H11A H 0.16370 -0.04660 -0.20190
H11A* H 0.16370 0.95340 -0.20190
C17A C 0.2004(15) -0.1297(10) -0.2247(11)
C17A* C 0.2004(15) 0.8703(10) -0.2247(11)
H12A H 0.16880 -0.15080 -0.19960
H12A* H 0.16880 0.84920 -0.19960
C18A C 0.1870(17) 0.1282(12) -0.2589(11)
C18A* C 0.1870(17) 1.1282(12) -0.2589(11)
H13A H 0.14290 0.14920 -0.26250
H13A* H 0.14290 1.14920 -0.26250
C19A C 0.1840(14) 0.0678(9) -0.2627(10)
C19A* C 0.1840(14) 1.0678(9) -0.2627(10)
H14A H 0.13960 0.04890 -0.27140
H14A* H 0.13960 1.04890 -0.27140
C20A C 0.2466(15) 0.0340(9) -0.2537(10)
C20A* C 0.2466(15) 1.0340(9) -0.2537(10)
C21A C 0.3116(16) 0.0672(9) -0.2446(10)
C21A* C 0.3116(16) 1.0672(9) -0.2446(10)
H15A H 0.35650 0.04740 -0.24110
H15A* H 0.35650 1.04740 -0.24110
C22A C 0.309(2) 0.1276(12) -0.2409(12)
C22A* C 0.309(2) 1.1276(12) -0.2409(12)
H16A H 0.35170 0.14840 -0.23130
H16A* H 0.35170 1.14840 -0.23130
O26A O 0.1117(13) 0.7453(10) -0.2591(9)
#END
