
#######################################################################
#
#                 Cambridge Crystallographic Data Centre
#                                CCDC
#
#######################################################################
#
# If this CIF has been generated from an entry in the Cambridge
# Structural Database, then it will include bibliographic, chemical,
# crystal, experimental, refinement or atomic coordinate data resulting
# from the CCDC's data processing and validation procedures.
#
#######################################################################

data_CSD_CIF_JEBWEV
_audit_creation_date 2017-06-19
_audit_creation_method CSD-ConQuest-V1
_database_code_CSD JEBWEV
_database_code_depnum_ccdc_archive 'CCDC 1517225'
_chemical_formula_sum 'C78 H188 Cu6 N12 Na3 Ni4 O100 Pd2'
_chemical_formula_moiety
;
3(Na1 1+),0.5(Pd4 2+),2n(C39 H38 Cu3 N6 Ni2 O22 2-),56(H2 O1)
;
_journal_coden_Cambridge 771
_journal_volume 16
_journal_year 2017
_journal_page_first 760
_journal_name_full 'Nat.Mater '
loop_
_publ_author_name
"F.R.Fortea-Perez"
"M.Mon"
"J.Ferrando-Soria"
"M.Boronat"
"A.Leyva-Perez"
"A.Corma"
"J.M.Herrera"
"D.Osadchii"
"J.Gascon"
"D.Armentano"
"E.Pardo"
_chemical_name_systematic
;
catena-[tri-sodium hemikis(di-palladium(i)-di-palladium(0)) 
bis(tris(\m-2,2'-[(2,4,6-trimethyl-1,3-phenylene)diazanedi-idyl]bis(oxoacetato
))-tetra-aqua-tri-copper(ii)-di-nickel(ii)) unknown solvate 
hexapentacontahydrate]
;
_cell_volume  19298.873
_exptl_crystal_colour 'green/brown'
_exptl_crystal_description 'prism'
_diffrn_ambient_temperature 90
_refine_special_details
;
The structure is disordered. Additional disordered solvent water molecules 
were not modelled and the disordered density was taken into account using the 
SQUEEZE/PLATON procedure.
;
#These two values have been output from a single CSD field.
_refine_ls_R_factor_gt 0.1206
_refine_ls_wR_factor_gt 0.1206
_symmetry_cell_setting tetragonal
_symmetry_space_group_name_H-M 'P 4/m m m'
_symmetry_Int_Tables_number 123
loop_
_symmetry_equiv_pos_site_id
_symmetry_equiv_pos_as_xyz
1 x,y,z
2 -x,-y,z
3 -y,x,z
4 y,-x,z
5 -x,y,-z
6 x,-y,-z
7 y,x,-z
8 -y,-x,-z
9 -x,-y,-z
10 x,y,-z
11 y,-x,-z
12 -y,x,-z
13 x,-y,z
14 -x,y,z
15 -y,-x,z
16 y,x,z
_cell_length_a 35.794(13)
_cell_length_b 35.794(13)
_cell_length_c 15.063(5)
_cell_angle_alpha 90
_cell_angle_beta 90
_cell_angle_gamma 90
_cell_formula_units_Z 4
loop_
_atom_type_symbol
_atom_type_radius_bond
C 0.68
H 0.23
Cu 1.32
N 0.68
Na 1.66
Ni 1.24
O 0.68
Pd 1.39
loop_
_atom_site_label
_atom_site_type_symbol
_atom_site_fract_x
_atom_site_fract_y
_atom_site_fract_z
Pd1 Pd -0.1858(5) 0.6157(5) 0.50000
Pd2 Pd -0.1485(11) 0.5358(4) 0.50000
Cu1 Cu -0.16672(8) 0.50000 0.22759(16)
Cu2 Cu -0.26068(5) 0.73932(5) 0.26654(13)
Cu3 Cu 0.00000 0.65339(9) 0.23295(15)
Ni1 Ni -0.14758(5) 0.64622(6) 0.25326(11)
O1 O -0.1818(3) 0.6092(3) 0.1808(6)
O2 O -0.1350(3) 0.5974(3) 0.3191(6)
O3 O -0.1397(3) 0.5351(4) 0.3035(7)
O4 O -0.1888(3) 0.6601(3) 0.3372(5)
O5 O -0.1658(3) 0.6924(3) 0.1882(6)
O6 O -0.2159(2) 0.7305(2) 0.1929(5)
O7 O -0.1046(3) 0.6740(3) 0.3209(6)
O8 O -0.1063(3) 0.6377(3) 0.1652(6)
O9 O -0.0407(3) 0.6738(3) 0.3107(6)
N1 N -0.1832(3) 0.5450(4) 0.1614(7)
N2 N -0.2399(3) 0.6974(3) 0.3390(6)
N3 N -0.0429(3) 0.6361(4) 0.1628(7)
C1 C -0.1481(5) 0.5668(7) 0.2823(11)
C2 C -0.1745(4) 0.5781(6) 0.2004(9)
C3 C -0.1970(4) 0.7045(4) 0.2212(9)
C4 C -0.2103(5) 0.6863(4) 0.3074(10)
C5 C -0.0757(5) 0.6457(5) 0.1984(10)
C6 C -0.0729(5) 0.6665(5) 0.2823(10)
C7 C -0.2041(4) 0.5479(4) 0.0788(9)
C8 C -0.1822(6) 0.5484(6) 0.00000
C9 C -0.2425(4) 0.5491(4) 0.0821(7)
C10 C -0.2591(6) 0.5494(5) 0.00000
H1 H -0.28560 0.54990 0.00000
C11 C -0.2649(4) 0.5505(5) 0.1669(9)
H2 H -0.28060 0.52820 0.17120
H3 H -0.28070 0.57280 0.16680
H4 H -0.24790 0.55140 0.21780
C12 C -0.1414(6) 0.5469(8) 0.00000
C13 C -0.2527(3) 0.6831(3) 0.4217(7)
C14 C -0.2386(6) 0.6955(6) 0.50000
C15 C -0.2805(4) 0.6539(4) 0.4196(8)
C16 C -0.2915(6) 0.6402(6) 0.50000
H5 H -0.30810 0.61950 0.50000
C17 C -0.2917(5) 0.6342(4) 0.3305(8)
H6 H -0.30990 0.61440 0.34270
H7 H -0.26940 0.62320 0.30310
H8 H -0.30270 0.65260 0.29000
C18 C -0.2080(6) 0.7266(6) 0.50000
C19 C -0.0455(4) 0.6156(5) 0.0766(8)
C20 C -0.0476(4) 0.5768(4) 0.0832(9)
C21 C -0.0487(5) 0.5602(7) 0.00000
H9 H -0.05030 0.53370 0.00000
C22 C -0.0447(6) 0.6369(8) 0.00000
C23 C -0.0454(6) 0.6799(7) 0.00000
C24 C -0.0505(4) 0.5574(5) 0.1682(10)
H10 H -0.07420 0.56400 0.19670
H11 H -0.02970 0.56500 0.20660
H12 H -0.04950 0.53040 0.15840
O10 O -0.2946(3) 0.7054(3) 0.1503(9)
O11 O 0.00000 0.6022(5) 0.3526(9)
O12 O -0.2144(5) 0.50000 0.3511(10)
O13 O 0.00000 0.7268(6) 0.1893(12)
Na1 Na -0.2259(4) 0.7741(4) 0.0700(8)
Na2 Na -0.1397(4) 0.6578(4) 0.00000
O14 O -0.1821(5) 0.8179(5) 0.1399(16)
O15 O -0.1945(18) 0.7174(18) 0.00000
Pd3 Pd -0.1138(10) 0.6751(18) 0.50000
Pd4 Pd -0.0341(4) 0.6911(13) 0.50000
O16 O -0.0769(14) 0.50000 0.412(3)
O17 O -0.2436(7) 0.6425(6) 0.1075(15)
O18 O -0.0677(8) 0.5689(7) 0.4064(18)
O19 O -0.1225(10) 0.7431(10) 0.091(2)
O20 O -0.3229(7) 0.6294(7) 0.0956(15)
O21 O 0.2020(6) 0.7980(6) 0.3210(18)
O22 O 0.536(1) 0.7081(11) 0.399(2)
O23 O 0.00000 0.5313(13) 0.400(3)
H13? H -0.13220 0.54790 -0.06130
H14? H -0.13310 0.52370 0.02810
H15? H -0.13150 0.56830 0.03320
H16? H -0.21790 0.74910 0.47100
H17? H -0.18600 0.71770 0.46770
H18? H -0.20110 0.73260 0.56130
H19? H -0.02480 0.68940 -0.03640
H20? H -0.04270 0.68910 0.06100
H21? H -0.06920 0.68860 -0.02450
Pd1E Pd -0.1858(5) 0.3843(5) 0.50000
Pd2E Pd -0.1485(11) 0.4642(4) 0.50000
O1I O -0.1818(3) 0.6092(3) -0.1808(6)
O2I O -0.1350(3) 0.5974(3) -0.3191(6)
O3I O -0.1397(3) 0.5351(4) -0.3035(7)
N1I N -0.1832(3) 0.5450(4) -0.1614(7)
C1I C -0.1481(5) 0.5668(7) -0.2823(11)
C2I C -0.1745(4) 0.5781(6) -0.2004(9)
C7I C -0.2041(4) 0.5479(4) -0.0788(9)
C9I C -0.2425(4) 0.5491(4) -0.0821(7)
C11I C -0.2649(4) 0.5505(5) -0.1669(9)
H2I H -0.28060 0.52820 -0.17120
H3I H -0.28070 0.57280 -0.16680
H4I H -0.24790 0.55140 -0.21780
O4I O -0.1888(3) 0.6601(3) 0.6628(5)
O5I O -0.1658(3) 0.6924(3) 0.8118(6)
O6I O -0.2159(2) 0.7305(2) 0.8071(5)
N2I N -0.2399(3) 0.6974(3) 0.6610(6)
C3I C -0.1970(4) 0.7045(4) 0.7788(9)
C4I C -0.2103(5) 0.6863(4) 0.6926(10)
C13I C -0.2527(3) 0.6831(3) 0.5783(7)
C15I C -0.2805(4) 0.6539(4) 0.5804(8)
C17I C -0.2917(5) 0.6342(4) 0.6695(8)
H6I H -0.30990 0.61440 0.65730
H7I H -0.26940 0.62320 0.69690
H8I H -0.30270 0.65260 0.71000
O7I O -0.1046(3) 0.6740(3) -0.3209(6)
O8I O -0.1063(3) 0.6377(3) -0.1652(6)
O9I O -0.0407(3) 0.6738(3) -0.3107(6)
N3I N -0.0429(3) 0.6361(4) -0.1628(7)
C5I C -0.0757(5) 0.6457(5) -0.1984(10)
C6I C -0.0729(5) 0.6665(5) -0.2823(10)
C19I C -0.0455(4) 0.6156(5) -0.0766(8)
C20I C -0.0476(4) 0.5768(4) -0.0832(9)
C24I C -0.0505(4) 0.5574(5) -0.1682(10)
H10I H -0.07420 0.56400 -0.19670
H11I H -0.02970 0.56500 -0.20660
H12I H -0.04950 0.53040 -0.15840
Ni1I Ni -0.14758(5) 0.64622(6) -0.25326(11)
Cu1E Cu -0.16672(8) 0.50000 -0.22759(16)
Cu2F Cu -0.26068(5) 0.73932(5) 0.73346(13)
Cu3D Cu 0.00000 0.65339(9) -0.23295(15)
Ni1I* Ni -0.14758(5) 0.64622(6) 0.74674(11)
O3L O -0.1397(3) 0.4649(4) 0.3035(7)
O4I* O -0.1888(3) 0.6601(3) -0.3372(5)
O5I* O -0.1658(3) 0.6924(3) -0.1882(6)
O6O O -0.2695(2) 0.7841(2) 0.1929(5)
O9M O 0.0407(3) 0.6738(3) 0.3107(6)
N1L N -0.1832(3) 0.4550(4) 0.1614(7)
N2O N -0.3026(3) 0.7601(3) 0.3390(6)
N3M N 0.0429(3) 0.6361(4) 0.1628(7)
Pd3D Pd 0.1138(10) 0.6751(18) 0.50000
Pd4D Pd 0.0341(4) 0.6911(13) 0.50000
#END
