
#######################################################################
#
#                 Cambridge Crystallographic Data Centre
#                                CCDC
#
#######################################################################
#
# If this CIF has been generated from an entry in the Cambridge
# Structural Database, then it will include bibliographic, chemical,
# crystal, experimental, refinement or atomic coordinate data resulting
# from the CCDC's data processing and validation procedures.
#
#######################################################################

data_CSD_CIF_JECGEG
_audit_creation_date 2017-06-19
_audit_creation_method CSD-ConQuest-V1
_database_code_CSD JECGEG
_database_code_depnum_ccdc_archive 'CCDC 1547066'
_chemical_formula_sum 'C2 H58 Cu2 Na6 O67 W11'
_chemical_formula_moiety
;
6(Na1 1+),(C2 H12 Cu2 O44 W11 6-)n,23(H2 O1)
;
_journal_coden_Cambridge 182
_journal_volume 53
_journal_year 2017
_journal_page_first 7076
_journal_name_full 'Chem.Commun. '
loop_
_publ_author_name
"Caihong Zhan"
"C.Busche"
"De-Liang Long"
"P.I.Molina"
"R.S.Winter"
"L.Cronin"
_chemical_name_systematic
;
hexa-sodium 
pentacosakis(\m-oxo)-tris(\m-hydroxo)-(\m-acetato)-triaqua-undeca-oxo-di-coppe
r-undeca-tungsten tricosahydrate
;
_cell_volume  12842.839
_exptl_crystal_colour 'green'
_exptl_crystal_density_diffrn 3.56
_exptl_crystal_description 'block'
_diffrn_ambient_temperature 150
#These two values have been output from a single CSD field.
_refine_ls_R_factor_gt 0.0438
_refine_ls_wR_factor_gt 0.0438
_symmetry_cell_setting monoclinic
_symmetry_space_group_name_H-M 'P 21/n'
_symmetry_Int_Tables_number 14
loop_
_symmetry_equiv_pos_site_id
_symmetry_equiv_pos_as_xyz
1 x,y,z
2 1/2-x,1/2+y,1/2-z
3 -x,-y,-z
4 -1/2+x,-1/2-y,-1/2+z
_cell_length_a 25.2138(7)
_cell_length_b 21.9062(7)
_cell_length_c 26.2394(7)
_cell_angle_alpha 90
_cell_angle_beta 117.608(3)
_cell_angle_gamma 90
_cell_formula_units_Z 8
loop_
_atom_type_symbol
_atom_type_radius_bond
C 0.68
H 0.23
Cu 1.32
Na 1.66
O 0.68
W 1.62
loop_
_atom_site_label
_atom_site_type_symbol
_atom_site_fract_x
_atom_site_fract_y
_atom_site_fract_z
W1 W 0.29196(2) 0.86526(3) 0.71176(2)
W2 W 0.19412(2) 0.90503(2) 0.77550(2)
W3 W 0.12292(2) 1.03438(2) 0.71483(2)
W4 W 0.14625(2) 0.93793(2) 0.62968(2)
W5 W 0.32984(2) 0.99830(3) 0.88599(2)
W6 W 0.40753(2) 0.94011(3) 0.80869(2)
W7 W 0.35986(2) 0.97073(3) 0.67257(2)
W8 W 0.22982(2) 1.06516(3) 0.59167(2)
W9 W 0.19606(2) 1.15940(2) 0.67354(2)
W10 W 0.24734(2) 1.12339(2) 0.82994(2)
W11 W 0.33346(2) 1.06449(2) 0.75427(2)
Cu1 Cu 0.37986(7) 1.20794(8) 0.85496(7)
Cu2 Cu 0.33800(7) 1.23433(8) 0.72688(7)
O1 O 0.0899(4) 0.9797(4) 0.6451(4)
O2 O 0.2732(4) 1.0589(4) 0.8858(4)
O3 O 0.3003(4) 1.0512(4) 0.8037(4)
O4 O 0.3722(4) 1.0509(4) 0.7030(4)
O5 O 0.3153(4) 1.1650(4) 0.8608(4)
O6 O 0.1773(4) 1.1256(4) 0.5992(4)
O7 O 0.1432(4) 0.8753(4) 0.6902(4)
O8 O 0.3221(4) 0.9665(4) 0.7344(4)
O9 O 0.3612(4) 1.1378(4) 0.7725(4)
O10 O 0.1985(4) 0.9774(4) 0.7172(4)
O11 O 0.1397(4) 1.0908(4) 0.6743(4)
O12 O 0.3625(4) 0.9431(4) 0.8517(4)
O13 O 0.2612(4) 1.0787(4) 0.6880(4)
O14 O 0.2564(4) 1.2067(4) 0.6796(4)
O15 O 0.3316(4) 0.8883(4) 0.6652(4)
O16 O 0.1801(4) 0.8428(4) 0.8079(4)
O17 O 0.3986(4) 0.9708(5) 0.6324(4)
O18 O 0.2242(4) 1.1539(4) 0.7537(4)
O19 O 0.3711(4) 0.8632(4) 0.7784(4)
O20 O 0.2199(4) 0.8941(4) 0.6512(4)
O21 O 0.1686(4) 1.0008(4) 0.6020(4)
O22 O 0.2487(4) 0.9473(4) 0.8351(4)
O23 O 0.1770(4) 1.0652(4) 0.7842(4)
O24 O 0.4767(4) 0.9171(4) 0.8605(4)
O25 O 0.2813(4) 0.9954(4) 0.6155(4)
O26 O 0.1280(4) 0.9553(4) 0.7581(4)
O27 O 0.4280(4) 0.9452(4) 0.7458(4)
O28 O 0.2048(4) 1.1650(4) 0.8537(4)
O29 O 0.2831(4) 1.1175(4) 0.5953(4)
O30 O 0.2572(4) 0.8705(4) 0.7604(4)
O31 O 0.2867(4) 0.7887(4) 0.6969(4)
O32 O 0.1902(4) 1.0537(4) 0.5180(4)
O33 O 0.3357(4) 0.9544(4) 0.9436(4)
O34 O 0.4109(4) 1.0262(4) 0.8125(4)
O35 O 0.1396(4) 1.2123(4) 0.6523(4)
O36 O 0.0982(4) 0.8969(4) 0.5698(4)
O37 O 0.0539(4) 1.0594(4) 0.7074(4)
O38 O 0.3927(4) 1.0450(4) 0.9193(4)
O39 O 0.3268(4) 1.2590(4) 0.7928(4)
O40 O 0.3566(4) 1.2045(4) 0.6646(4)
O41 O 0.4374(4) 1.1512(4) 0.9122(4)
O42 O 0.3941(5) 1.2689(5) 0.9378(5)
O43 O 0.4505(4) 1.2496(5) 0.8566(4)
O44 O 0.4214(4) 1.2625(4) 0.7639(4)
C1 C 0.4579(7) 1.2693(7) 0.8156(7)
C2 C 0.5160(7) 1.3024(9) 0.8310(7)
H1 H 0.52670 1.29760 0.79980
H2 H 0.54770 1.28520 0.86650
H3 H 0.51120 1.34590 0.83670
W12 W 0.31292(3) 0.95581(3) 0.22656(3)
W13 W 0.34459(2) 0.88318(3) 0.36361(3)
W14 W 0.22993(3) 0.79385(3) 0.34479(3)
W15 W 0.19653(3) 0.92294(3) 0.26929(3)
W16 W 0.24176(3) 0.88249(3) 0.10407(3)
W17 W 0.37879(3) 0.84385(3) 0.19292(3)
W18 W 0.41528(3) 0.74988(3) 0.31806(3)
W19 W 0.30191(3) 0.66341(3) 0.30816(3)
W20 W 0.14288(3) 0.70765(3) 0.20848(3)
W21 W 0.11691(3) 0.83248(3) 0.12610(3)
W22 W 0.26841(2) 0.75727(3) 0.17764(3)
Cu3 Cu 0.29305(8) 0.58671(8) 0.18422(8)
Cu4 Cu 0.16110(8) 0.61466(8) 0.10555(8)
O45 O 0.2617(4) 0.8470(4) 0.2905(4)
O46 O 0.4119(4) 0.8180(4) 0.2715(4)
O47 O 0.2194(4) 0.6723(4) 0.2549(4)
O48 O 0.2814(4) 0.7332(4) 0.3493(4)
O49 O 0.3822(4) 0.6927(4) 0.3533(4)
O50 O 0.3535(4) 0.9248(4) 0.3029(4)
O51 O 0.3818(4) 0.9271(4) 0.2173(4)
O52 O 0.3964(4) 0.9247(4) 0.4221(4)
O53 O 0.2415(4) 0.9559(4) 0.2311(4)
O54 O 0.1731(4) 0.8861(5) 0.1182(4)
O55 O 0.3847(4) 0.8174(4) 0.3594(4)
O56 O 0.1474(4) 0.8827(5) 0.2062(4)
O57 O 0.2929(4) 0.8545(4) 0.1948(4)
O58 O 0.4433(4) 0.8415(4) 0.1843(4)
O59 O 0.3171(4) 0.6164(4) 0.2614(4)
O60 O 0.3007(4) 0.8445(5) 0.3967(4)
O61 O 0.3003(4) 0.6101(4) 0.3557(5)
O62 O 0.2674(4) 0.9584(4) 0.1433(4)
O63 O 0.2536(4) 0.6843(4) 0.1502(4)
O64 O 0.3342(4) 1.0312(4) 0.2389(4)
O65 O 0.1320(4) 0.6661(5) 0.1462(4)
O66 O 0.2770(4) 0.9489(4) 0.3412(4)
O67 O 0.2077(4) 0.7724(5) 0.3958(4)
O68 O 0.1869(4) 0.8754(5) 0.3244(4)
O69 O 0.1586(4) 0.9885(4) 0.2698(4)
O70 O 0.2337(4) 0.7979(4) 0.0996(4)
O71 O 0.3440(4) 0.7660(4) 0.1701(4)
O72 O 0.1982(4) 0.7768(4) 0.1808(4)
O73 O 0.4867(4) 0.7584(5) 0.3752(5)
O74 O 0.4279(4) 0.6947(4) 0.2766(4)
O75 O 0.1706(4) 0.7653(5) 0.2768(4)
O76 O 0.0953(5) 0.6690(5) 0.2277(5)
O77 O 0.0914(4) 0.7752(5) 0.1669(4)
O78 O 0.0538(5) 0.8788(5) 0.0971(5)
O79 O 0.1036(4) 0.7850(5) 0.0680(4)
O80 O 0.2099(5) 0.9071(5) 0.0331(4)
O81 O 0.3230(4) 0.8724(4) 0.1142(4)
O82 O 0.3150(4) 0.7437(4) 0.2561(4)
O83 O 0.0793(4) 0.5498(5) 0.0885(4)
O84 O 0.1256(5) 0.6737(5) 0.0398(4)
O85 O 0.3718(4) 0.6132(5) 0.1899(4)
O86 O 0.2136(4) 0.5659(4) 0.1729(4)
O87 O 0.2756(5) 0.5475(5) 0.1099(5)
O88 O 0.1775(6) 0.5617(5) 0.0560(5)
C3 C 0.2261(9) 0.5340(7) 0.0672(7)
C4 C 0.2244(9) 0.4851(8) 0.0284(8)
H4 H 0.25860 0.48940 0.02040
H5 H 0.18710 0.48780 -0.00780
H6 H 0.22650 0.44540 0.04640
Na1 Na 0.2836(3) 0.8600(3) 0.9265(3)
Na2 Na 0.4153(3) 0.9303(3) 1.0321(3)
Na3 Na 0.2034(10) 0.6867(10) 0.4512(10)
Na4 Na 0.3676(3) 0.7397(3) 0.5489(3)
Na5 Na 0.4766(3) 1.2056(3) 1.0038(3)
Na6 Na -0.0187(4) 0.5721(4) 0.0136(4)
Na7 Na 0.0442(8) 0.6587(8) -0.0660(8)
Na8 Na 0.0622(4) 1.0224(4) 0.2573(5)
Na9 Na -0.0134(7) 0.6552(7) 0.1562(7)
Na10 Na 0.0987(9) 0.6251(9) 0.3113(9)
Na11 Na 0.0432(7) 0.5085(7) -0.0948(8)
Na12 Na 0.0444(9) 0.9384(9) 0.4717(9)
Na13 Na 0.4531(5) 0.7392(5) 0.6924(5)
Na14 Na -0.0445(6) 1.0147(7) 0.1469(6)
Na15 Na 0.4498(14) 0.7698(14) 0.8032(14)
Na16 Na 0.1547(4) 0.7860(5) 0.9060(4)
Na17 Na 0.2911(6) 0.6131(6) 0.4867(6)
Na18 Na 0.4201(11) 0.5226(10) 0.5185(10)
Na19 Na 0.0289(9) 1.0437(9) 0.0704(9)
Na20 Na 0.6307(16) 1.2808(16) 0.9864(16)
Na21 Na 0.2144(7) 0.7583(8) 0.5658(8)
O89 O 0.4912(4) 0.9017(5) 1.1241(4)
O90 O 0.3428(5) 0.8268(4) 0.8842(4)
O91 O 0.3291(4) 0.8363(4) 0.5122(4)
O92 O 0.2373(5) 0.8731(5) 0.5410(5)
O93 O 0.0599(5) 0.8143(5) 0.8242(5)
O94 O -0.0119(5) 0.5785(6) -0.1504(5)
O95 O 0.4516(5) 0.8759(6) 0.9689(5)
O96 O 0.0406(5) 0.5533(5) 0.1712(5)
O97 O 0.0540(5) 0.5184(6) 0.3048(6)
O98 O 0.0577(5) 1.0623(6) 0.1693(5)
O99 O 0.2596(5) 0.7582(5) 0.9310(6)
O100 O 0.1934(6) 0.8865(6) 0.9252(5)
O101 O 0.3595(6) 0.8411(6) 1.0257(5)
O102 O 0.3590(7) 0.9798(6) 1.0772(6)
O103 O -0.0083(6) 0.6596(7) 0.2429(7)
O104 O 0.0909(6) 0.8007(7) 0.9536(6)
O105 O 0.0381(7) 0.5378(7) -0.0323(7)
O106 O 0.5433(6) 0.6806(7) 0.7400(6)
O107 O 0.1295(6) 1.0052(7) 0.1133(9)
O108 O -0.1508(7) 0.9970(7) 0.1228(7)
O109 O -0.0078(8) 0.6811(8) -0.0154(8)
O110 O 0.3537(8) 0.7734(8) 0.6287(7)
O111 O -0.0329(6) 1.0692(7) 0.2212(7)
O112 O 0.5443(8) 1.2471(9) 0.9682(8)
O113 O -0.0674(7) 1.0701(8) 0.0665(7)
O114 O 0.6296(10) 1.3866(10) 0.9143(8)
O115 O 0.2114(8) 0.5879(8) 0.3886(8)
O116 O 0.0304(8) 1.0445(8) 0.4153(8)
O117 O 0.5173(7) 1.2572(8) 1.0925(7)
O118 O -0.0627(8) 0.6053(8) 0.0699(8)
O119 O 0.1861(9) 0.6864(8) 0.9804(8)
O120 O 0.248(1) 0.540(1) 0.5204(10)
O121 O 0.0081(9) 0.9399(10) 0.2272(9)
O122 O 0.0388(9) 1.1398(9) 0.0273(9)
O123 O 0.3546(8) 0.6902(9) 0.4679(8)
O124 O 0.4682(16) 0.7485(17) 0.6110(17)
O125 O 0.3501(9) 0.5274(9) 0.4814(9)
O126 O -0.0436(8) 0.9346(8) 0.0953(8)
O127 O 0.2481(10) 0.7008(10) 0.4955(10)
O128 O 0.3604(10) 0.6413(10) 0.5826(10)
O129 O 0.4557(12) 1.0221(11) 1.0381(11)
O130 O 0.3908(12) 1.1452(11) 1.0069(12)
O131 O 0.0491(10) 0.9319(10) 0.3861(10)
O132 O 0.1246(12) 0.5867(12) -0.0581(12)
O133 O 0.4153(12) 0.7285(12) 0.7594(12)
O134 O 0.0961(16) 0.6948(16) 0.3755(16)
O135 O 0.6934(10) 1.273(1) 0.9507(8)
O136 O 0.5610(11) 1.3682(12) 1.0112(11)
O137 O 0.0461(4) 0.6333(4) -0.2089(5)
O138? O 0.1336(7) 0.9383(7) 0.4787(7)
O139? O 0.4019(12) 0.7412(12) 0.4718(12)
O140? O -0.0788(16) 0.5762(17) 0.0358(17)
O141? O 0.5230(14) 1.2947(15) 0.9758(14)
O142? O 0.3226(15) 0.5423(15) 0.5122(14)
O143? O 0.1285(10) 0.9664(10) 0.3633(10)
O144? O 0.0180(13) 0.8754(13) 0.3938(13)
O145? O 0.4756(13) 0.7682(14) 0.5896(14)
O146? O 0.1834(15) 0.5949(15) 0.4961(15)
O147? O 0.0253(17) 0.7000(17) 0.3500(17)
O148? O 0.2265(16) 0.7091(15) 1.0207(16)
O149? O -0.0471(16) 0.9112(17) 0.4752(16)
O150? O 0.6669(18) 1.3562(17) 0.9277(17)
O151? O 0.4817(12) 1.0105(12) 1.0279(12)
O152? O 0.3904(15) 0.7952(14) 0.6407(14)
O153? O 0.3946(16) 0.6601(15) 0.6168(16)
O154? O 0.4282(14) 1.1430(13) 1.0420(14)
O155? O 0.0112(14) 1.0132(14) 0.0149(13)
O156? O 0.0877(14) 0.8197(14) 0.3584(14)
Cu2A Cu 0.16200(7) 0.73433(8) 0.77312(7)
O16A O 0.3199(4) 1.3428(4) 0.6921(4)
Cu3A Cu 0.20695(8) 1.08671(8) 0.31578(8)
O69A O 0.3414(4) 0.4885(4) 0.2302(4)
#END
