
#######################################################################
#
#                 Cambridge Crystallographic Data Centre
#                                CCDC
#
#######################################################################
#
# If this CIF has been generated from an entry in the Cambridge
# Structural Database, then it will include bibliographic, chemical,
# crystal, experimental, refinement or atomic coordinate data resulting
# from the CCDC's data processing and validation procedures.
#
#######################################################################

data_CSD_CIF_JECHIL
_audit_creation_date 2017-06-19
_audit_creation_method CSD-ConQuest-V1
_database_code_CSD JECHIL
_database_code_depnum_ccdc_archive 'CCDC 1424463'
_chemical_formula_sum 'C130 H122 Ca4 N8 O27'
_chemical_formula_moiety
;
2(C2 H8 N1 1+),n(C108 H64 Ca4 O21 2-),6(C3 H7 N1 O1)
;
_journal_coden_Cambridge 222
_journal_volume 46
_journal_year 2017
_journal_page_first 8350
_journal_name_full 'Dalton Trans. '
loop_
_publ_author_name
"Huanzhi Li"
"Xueting Fang"
"Sha Ma"
"Yanfei Niu"
"Xiaoli Zhao"
"Jiaqiang Xu"
"Zhiming Duan"
_chemical_name_systematic
;
catena-[bis(Dimethylammonium) 
(\m-oxo)-tetrakis(\m-9,9'-spirobi[fluorene]-2,2'-dicarboxylato)-tetra-aqua-tet
ra-calcium(ii) N,N-dimethylformamide solvate]
;
_chemical_name_common
;
SHU-1
;
_cell_volume   6366.853
_exptl_crystal_colour 'colorless'
_exptl_crystal_description 'plate'
_diffrn_ambient_temperature 296
_refine_special_details
;
Disordered cation and solvent molecules were not modelled and the disordered 
density was taken into account using the SQUEEZE/PLATON procedure.
;
#These two values have been output from a single CSD field.
_refine_ls_R_factor_gt 0.0852
_refine_ls_wR_factor_gt 0.0852
_symmetry_cell_setting tetragonal
_symmetry_space_group_name_H-M 'I 4/m'
_symmetry_Int_Tables_number 87
loop_
_symmetry_equiv_pos_site_id
_symmetry_equiv_pos_as_xyz
1 x,y,z
2 -x,-y,z
3 -y,x,z
4 y,-x,z
5 1/2+x,1/2+y,1/2+z
6 1/2-x,1/2-y,1/2+z
7 1/2-y,1/2+x,1/2+z
8 1/2+y,1/2-x,1/2+z
9 -x,-y,-z
10 x,y,-z
11 y,-x,-z
12 -y,x,-z
13 -1/2-x,-1/2-y,-1/2-z
14 -1/2+x,-1/2+y,-1/2-z
15 -1/2+y,-1/2-x,-1/2-z
16 -1/2-y,-1/2+x,-1/2-z
_cell_length_a 13.3902(12)
_cell_length_b 13.3902(12)
_cell_length_c 35.510(7)
_cell_angle_alpha 90
_cell_angle_beta 90
_cell_angle_gamma 90
_cell_formula_units_Z 2
loop_
_atom_type_symbol
_atom_type_radius_bond
C 0.68
H 0.23
Ca 1.76
O 0.68
loop_
_atom_site_label
_atom_site_type_symbol
_atom_site_fract_x
_atom_site_fract_y
_atom_site_fract_z
Ca1 Ca 0.15766(14) 1.12615(15) 0.50000
O1 O 0.00000 1.00000 0.50000
O2 O 0.2717(3) 1.0963(3) 0.5499(1)
O3 O 0.1738(3) 0.9646(3) 0.54217(10)
O4 O 0.2073(7) 1.2935(10) 0.50000
C1 C 0.2423(4) 1.0112(5) 0.55965(15)
C2 C 0.2902(4) 0.9621(4) 0.59314(13)
C3 C 0.2622(4) 0.8667(4) 0.60411(16)
H1 H 0.21050 0.83480 0.59140
C4 C 0.3093(4) 0.8183(4) 0.63336(16)
H2 H 0.28930 0.75440 0.64040
C5 C 0.3861(4) 0.8653(4) 0.65200(14)
C6 C 0.4124(3) 0.9624(4) 0.64182(12)
C7 C 0.3650(4) 1.0104(4) 0.61271(13)
H3 H 0.38320 1.07510 0.60620
C8 C 0.50000 1.00000 0.66529(17)
C9 C 0.5225(3) 0.9071(4) 0.68863(12)
C10 C 0.4556(4) 0.8308(4) 0.68143(13)
C11 C 0.4626(4) 0.7401(4) 0.69942(16)
H4 H 0.41690 0.68950 0.69440
C12 C 0.5385(5) 0.7257(5) 0.72489(16)
H5 H 0.54400 0.66480 0.73730
C13 C 0.6072(5) 0.8010(5) 0.73243(15)
H6 H 0.65850 0.79000 0.74960
C14 C 0.5995(4) 0.8923(4) 0.71438(14)
H7 H 0.64500 0.94310 0.71940
H8 H 0.228(4) 1.348(3) 0.5184(14)
O2A O 0.7283(3) 0.9037(3) 0.5499(1)
O3A O 0.8262(3) 1.0354(3) 0.54217(10)
C1A C 0.7577(4) 0.9888(5) 0.55965(15)
C2A C 0.7098(4) 1.0379(4) 0.59314(13)
C3A C 0.7378(4) 1.1333(4) 0.60411(16)
H1A H 0.78950 1.16520 0.59140
C4A C 0.6907(4) 1.1817(4) 0.63336(16)
H2A H 0.71070 1.24560 0.64040
C5A C 0.6139(4) 1.1347(4) 0.65200(14)
C6A C 0.5876(3) 1.0376(4) 0.64182(12)
C7A C 0.6350(4) 0.9896(4) 0.61271(13)
H3A H 0.61680 0.92490 0.60620
C9A C 0.4775(3) 1.0929(4) 0.68863(12)
C10A C 0.5444(4) 1.1692(4) 0.68143(13)
C11A C 0.5374(4) 1.2599(4) 0.69942(16)
H4A H 0.58310 1.31050 0.69440
C12A C 0.4615(5) 1.2743(5) 0.72489(16)
H5A H 0.45600 1.33520 0.73730
C13A C 0.3928(5) 1.1990(5) 0.73243(15)
H6A H 0.34150 1.21000 0.74960
C14A C 0.4005(4) 1.1077(4) 0.71438(14)
H7A H 0.35500 1.05690 0.71940
H8I H 0.228(4) 1.348(3) 0.4816(14)
Ca1A Ca -0.15766(14) 0.87385(15) 0.50000
O4A O -0.2073(7) 0.7065(10) 0.50000
H8A H -0.228(4) 0.652(3) 0.5184(14)
H8H H -0.228(4) 0.652(3) 0.4816(14)
Ca1B Ca -0.12615(14) 0.15766(15) 0.50000
O2B O -0.0963(3) 0.2717(3) 0.5499(1)
O3B O 0.0354(3) 0.1738(3) 0.54217(10)
O4B O -0.2935(7) 0.2073(10) 0.50000
C1B C -0.0112(4) 0.2423(5) 0.55965(15)
C2B C 0.0379(4) 0.2902(4) 0.59314(13)
C3B C 0.1333(4) 0.2622(4) 0.60411(16)
H1B H 0.16520 0.21050 0.59140
C4B C 0.1817(4) 0.3093(4) 0.63336(16)
H2B H 0.24560 0.28930 0.64040
C5B C 0.1347(4) 0.3861(4) 0.65200(14)
C6B C 0.0376(3) 0.4124(4) 0.64182(12)
C7B C -0.0104(4) 0.3650(4) 0.61271(13)
H3B H -0.07510 0.38320 0.60620
C8B C 0.00000 0.50000 0.66529(17)
C9B C 0.0929(3) 0.5225(4) 0.68863(12)
C10B C 0.1692(4) 0.4556(4) 0.68143(13)
C11B C 0.2599(4) 0.4626(4) 0.69942(16)
H4B H 0.31050 0.41690 0.69440
C12B C 0.2743(5) 0.5385(5) 0.72489(16)
H5B H 0.33520 0.54400 0.73730
C13B C 0.1990(5) 0.6072(5) 0.73243(15)
H6B H 0.21000 0.65850 0.74960
C14B C 0.1077(4) 0.5995(4) 0.71438(14)
H7B H 0.05690 0.64500 0.71940
H8B H -0.348(4) 0.228(3) 0.5184(14)
O2C O 0.0963(3) 0.7283(3) 0.5499(1)
O3C O -0.0354(3) 0.8262(3) 0.54217(10)
C1C C 0.0112(4) 0.7577(5) 0.55965(15)
C2C C -0.0379(4) 0.7098(4) 0.59314(13)
C3C C -0.1333(4) 0.7378(4) 0.60411(16)
H1C H -0.16520 0.78950 0.59140
C4C C -0.1817(4) 0.6907(4) 0.63336(16)
H2C H -0.24560 0.71070 0.64040
C5C C -0.1347(4) 0.6139(4) 0.65200(14)
C6C C -0.0376(3) 0.5876(4) 0.64182(12)
C7C C 0.0104(4) 0.6350(4) 0.61271(13)
H3C H 0.07510 0.61680 0.60620
C9C C -0.0929(3) 0.4775(4) 0.68863(12)
C10C C -0.1692(4) 0.5444(4) 0.68143(13)
C11C C -0.2599(4) 0.5374(4) 0.69942(16)
H4C H -0.31050 0.58310 0.69440
C12C C -0.2743(5) 0.4615(5) 0.72489(16)
H5C H -0.33520 0.45600 0.73730
C13C C -0.1990(5) 0.3928(5) 0.73243(15)
H6C H -0.21000 0.34150 0.74960
C14C C -0.1077(4) 0.4005(4) 0.71438(14)
H7C H -0.05690 0.35500 0.71940
H8K H -0.348(4) 0.228(3) 0.4816(14)
Ca1C Ca 0.12615(14) 0.84234(15) 0.50000
O4C O 0.2935(7) 0.7927(10) 0.50000
H8C H 0.348(4) 0.772(3) 0.5184(14)
H8J H 0.348(4) 0.772(3) 0.4816(14)
O2I O 0.2717(3) 1.0963(3) 0.4501(1)
O3I O 0.1738(3) 0.9646(3) 0.45783(10)
C1I C 0.2423(4) 1.0112(5) 0.44035(15)
C2I C 0.2902(4) 0.9621(4) 0.40686(13)
C3I C 0.2622(4) 0.8667(4) 0.39589(16)
H1I H 0.21050 0.83480 0.40860
C4I C 0.3093(4) 0.8183(4) 0.36664(16)
H2I H 0.28930 0.75440 0.35960
C5I C 0.3861(4) 0.8653(4) 0.34800(14)
C6I C 0.4124(3) 0.9624(4) 0.35818(12)
C7I C 0.3650(4) 1.0104(4) 0.38729(13)
H3I H 0.38320 1.07510 0.39380
C8H C 0.50000 1.00000 0.33471(17)
C9I C 0.5225(3) 0.9071(4) 0.31137(12)
C10I C 0.4556(4) 0.8308(4) 0.31857(13)
C11I C 0.4626(4) 0.7401(4) 0.30058(16)
H4I H 0.41690 0.68950 0.30560
C12I C 0.5385(5) 0.7257(5) 0.27511(16)
H5I H 0.54400 0.66480 0.26270
C13I C 0.6072(5) 0.8010(5) 0.26757(15)
H6I H 0.65850 0.79000 0.25040
C14I C 0.5995(4) 0.8923(4) 0.28562(14)
H7I H 0.64500 0.94310 0.28060
O2H O 0.7283(3) 0.9037(3) 0.4501(1)
O3H O 0.8262(3) 1.0354(3) 0.45783(10)
C1H C 0.7577(4) 0.9888(5) 0.44035(15)
C2H C 0.7098(4) 1.0379(4) 0.40686(13)
C3H C 0.7378(4) 1.1333(4) 0.39589(16)
H1H H 0.78950 1.16520 0.40860
C4H C 0.6907(4) 1.1817(4) 0.36664(16)
H2H H 0.71070 1.24560 0.35960
C5H C 0.6139(4) 1.1347(4) 0.34800(14)
C6H C 0.5876(3) 1.0376(4) 0.35818(12)
C7H C 0.6350(4) 0.9896(4) 0.38729(13)
H3H H 0.61680 0.92490 0.39380
C9H C 0.4775(3) 1.0929(4) 0.31137(12)
C10H C 0.5444(4) 1.1692(4) 0.31857(13)
C11H C 0.5374(4) 1.2599(4) 0.30058(16)
H4H H 0.58310 1.31050 0.30560
C12H C 0.4615(5) 1.2743(5) 0.27511(16)
H5H H 0.45600 1.33520 0.26270
C13H C 0.3928(5) 1.1990(5) 0.26757(15)
H6H H 0.34150 1.21000 0.25040
C14H C 0.4005(4) 1.1077(4) 0.28562(14)
H7H H 0.35500 1.05690 0.28060
O2J O 0.0963(3) 0.7283(3) 0.4501(1)
O3J O -0.0354(3) 0.8262(3) 0.45783(10)
C1J C 0.0112(4) 0.7577(5) 0.44035(15)
C2J C -0.0379(4) 0.7098(4) 0.40686(13)
C3J C -0.1333(4) 0.7378(4) 0.39589(16)
H1J H -0.16520 0.78950 0.40860
C4J C -0.1817(4) 0.6907(4) 0.36664(16)
H2J H -0.24560 0.71070 0.35960
C5J C -0.1347(4) 0.6139(4) 0.34800(14)
C6J C -0.0376(3) 0.5876(4) 0.35818(12)
C7J C 0.0104(4) 0.6350(4) 0.38729(13)
H3J H 0.07510 0.61680 0.39380
C8J C 0.00000 0.50000 0.33471(17)
C9J C -0.0929(3) 0.4775(4) 0.31137(12)
C10J C -0.1692(4) 0.5444(4) 0.31857(13)
C11J C -0.2599(4) 0.5374(4) 0.30058(16)
H4J H -0.31050 0.58310 0.30560
C12J C -0.2743(5) 0.4615(5) 0.27511(16)
H5J H -0.33520 0.45600 0.26270
C13J C -0.1990(5) 0.3928(5) 0.26757(15)
H6J H -0.21000 0.34150 0.25040
C14J C -0.1077(4) 0.4005(4) 0.28562(14)
H7J H -0.05690 0.35500 0.28060
O2K O -0.0963(3) 0.2717(3) 0.4501(1)
O3K O 0.0354(3) 0.1738(3) 0.45783(10)
C1K C -0.0112(4) 0.2423(5) 0.44035(15)
C2K C 0.0379(4) 0.2902(4) 0.40686(13)
C3K C 0.1333(4) 0.2622(4) 0.39589(16)
H1K H 0.16520 0.21050 0.40860
C4K C 0.1817(4) 0.3093(4) 0.36664(16)
H2K H 0.24560 0.28930 0.35960
C5K C 0.1347(4) 0.3861(4) 0.34800(14)
C6K C 0.0376(3) 0.4124(4) 0.35818(12)
C7K C -0.0104(4) 0.3650(4) 0.38729(13)
H3K H -0.07510 0.38320 0.39380
C9K C 0.0929(3) 0.5225(4) 0.31137(12)
C10K C 0.1692(4) 0.4556(4) 0.31857(13)
C11K C 0.2599(4) 0.4626(4) 0.30058(16)
H4K H 0.31050 0.41690 0.30560
C12K C 0.2743(5) 0.5385(5) 0.27511(16)
H5K H 0.33520 0.54400 0.26270
C13K C 0.1990(5) 0.6072(5) 0.26757(15)
H6K H 0.21000 0.65850 0.25040
C14K C 0.1077(4) 0.5995(4) 0.28562(14)
H7K H 0.05690 0.64500 0.28060
Ca1* Ca 0.15766(14) 0.12615(15) 0.50000
Ca1A* Ca 0.84234(14) 0.87385(15) 0.50000
Ca1B* Ca -0.12615(14) 1.15766(15) 0.50000
Ca1B** Ca 0.87385(14) 1.15766(15) 0.50000
O1* O 0.00000 0.00000 0.50000
O2A* O -0.2717(3) 0.9037(3) 0.5499(1)
O2H* O -0.2717(3) 0.9037(3) 0.4501(1)
O3A* O -0.1738(3) 0.0354(3) 0.54217(10)
O3A** O -0.1738(3) 1.0354(3) 0.54217(10)
O3B* O 0.0354(3) 1.1738(3) 0.54217(10)
O3H* O -0.1738(3) 0.0354(3) 0.45783(10)
O3H** O -0.1738(3) 1.0354(3) 0.45783(10)
O3K* O 0.0354(3) 1.1738(3) 0.45783(10)
#END
