
#######################################################################
#
#                 Cambridge Crystallographic Data Centre
#                                CCDC
#
#######################################################################
#
# If this CIF has been generated from an entry in the Cambridge
# Structural Database, then it will include bibliographic, chemical,
# crystal, experimental, refinement or atomic coordinate data resulting
# from the CCDC's data processing and validation procedures.
#
#######################################################################

data_CSD_CIF_JEDCEB
_audit_creation_date 2006-04-11
_audit_creation_method CSD-ConQuest-V1
_database_code_CSD JEDCEB
_database_code_depnum_ccdc_archive 'CCDC 280273'
_chemical_formula_sum 'C60 H44 Cd7 N18 Na4 O31'
_chemical_formula_moiety
;
(C30 H6 Cd7 N12 O24 4-)n,4n(Na1 1+),3n(C10 H8 N2),7n(H2 O1)
;
_journal_coden_Cambridge 4
_journal_volume 128
_journal_year 2006
_journal_page_first 34
_journal_name_full 'J.Am.Chem.Soc. '
loop_
_publ_author_name
"Wen-Guan Lu"
"Cheng-Yong Su"
"Tong-Bu Lu"
"Long Jiang"
"Jia-Mei Chen"
_chemical_name_systematic
;
catena-[Tetra-sodium 
tris(\m~4~-imidazole-4,5-dicarboxylato)-tris(\m~3~-imidazole-4,5-dicarboxylato
)-hepta-cadmium(ii) tris(4,4'-bipyridyl) clathrate heptahydrate]
;
_cell_volume   3806.583
_exptl_crystal_colour 'colorless'
_exptl_crystal_density_diffrn 2.086
_exptl_special_details
;
luminescent

;
_exptl_crystal_description 'plate'
_diffrn_ambient_temperature 293
_refine_special_details
;
Guest molecules and one cation are disordered.

;
#These two values have been output from a single CSD field.
_refine_ls_R_factor_gt 0.0467
_refine_ls_wR_factor_gt 0.0467
_symmetry_cell_setting hexagonal
_symmetry_space_group_name_H-M 'P -6 2 c'
_symmetry_Int_Tables_number 190
loop_
_symmetry_equiv_pos_site_id
_symmetry_equiv_pos_as_xyz
1 x,y,z
2 -x+y,-x,1/2-z
3 y,x,1/2+z
4 -y,x-y,z
5 x-y,-y,-z
6 x,y,1/2-z
7 -x,-x+y,1/2+z
8 -x+y,-x,z
9 y,x,-z
10 -y,x-y,1/2-z
11 x-y,-y,1/2+z
12 -x,-x+y,-z
_cell_length_a 14.2165(8)
_cell_length_b 14.2165(8)
_cell_length_c 21.748(2)
_cell_angle_alpha 90
_cell_angle_beta 90
_cell_angle_gamma 120
_cell_formula_units_Z 2
loop_
_atom_type_symbol
_atom_type_radius_bond
C 0.68
H 0.23
Cd 1.63
N 0.68
Na 0.71
O 0.67
loop_
_atom_site_label
_atom_site_type_symbol
_atom_site_fract_x
_atom_site_fract_y
_atom_site_fract_z
Cd1 Cd 1.25710(5) 0.80102(5) 0.90013(2)
Cd2 Cd 1.00000 1.00000 0.75000
N1 N 1.3499(6) 0.9305(6) 0.9675(3)
N2 N 1.2500(6) 0.8265(7) 0.8015(4)
C1 C 1.4927(8) 0.8858(7) 0.9527(4)
C2 C 1.4556(7) 0.9570(7) 0.9801(4)
C3 C 1.33420 1.0000(9) 1.00000
H1 H 1.26880 1.00000 1.00000
C4 C 1.1254(9) 0.8924(9) 0.8303(4)
C5 C 1.1835(8) 0.8626(8) 0.7806(4)
C6 C 1.2846(11) 0.8025(11) 0.75000
H2 H 1.32890 0.77180 0.75000
O1 O 1.4308(6) 0.8173(5) 0.9124(3)
O2 O 1.5801(6) 0.8923(6) 0.9695(4)
O3 O 1.0680(12) 0.9309(13) 0.8170(4)
O4 O 1.1417(8) 0.8726(9) 0.8838(3)
Na1 Na 1.00000 1.00000 0.8912(4)
O5 O 0.932(2) 0.881(4) 0.9382(12)
O6 O 1.00000 1.00000 1.00000
Na2? Na 0.9841(17) 0.7390(15) 0.9652(9)
O7 O 1.040(3) 0.808(5) 1.0500(14)
N3 N 0.837(5) 0.648(3) 0.886(2)
C7 C 0.852(5) 0.668(3) 0.828(2)
C8 C 0.779(3) 0.641(3) 0.778(2)
C9 C 0.678(3) 0.532(3) 0.793(3)
C10 C 0.675(5) 0.498(5) 0.860(3)
C11 C 0.751(6) 0.559(4) 0.8939(18)
N4 N 0.432(3) 0.352(4) 0.644(2)
C12 C 0.413(4) 0.370(5) 0.6994(19)
C13 C 0.481(3) 0.424(3) 0.75000
C14 C 0.599(3) 0.483(3) 0.730(4)
C15 C 0.615(5) 0.453(5) 0.835(3)
C16 C 0.532(7) 0.392(7) 0.636(3)
H3 H 0.72830 0.51810 0.93270
H4? H 0.59290 0.42390 0.86180
H5? H 0.78350 0.66480 0.73110
H6 H 0.90760 0.74320 0.81320
H7 H 0.55830 0.39370 0.58800
H8? H 0.69520 0.49640 0.65510
H9? H 0.45930 0.42660 0.79080
H10 H 0.33650 0.32680 0.71240
Cd1E Cd 1.25710(5) 0.80102(5) 0.59987(2)
Cd1A Cd 0.54392(5) 0.74290(5) 0.59987(2)
Cd1G Cd 0.54392(5) 0.74290(5) 0.90013(2)
Cd1C Cd 1.19898(5) 1.45608(5) 0.90013(2)
Cd1I Cd 1.19898(5) 1.45608(5) 0.59987(2)
Cd1G* Cd 1.54392(5) 0.74290(5) 0.90013(2)
Cd1D Cd 1.45608(5) 1.19898(5) 1.09987(2)
Cd1H Cd 1.80102(5) 1.25710(5) 1.09987(2)
Cd1C* Cd 1.19898(5) 0.45608(5) 0.90013(2)
Cd1H* Cd 0.80102(5) 0.25710(5) 1.09987(2)
Cd1K Cd 0.74290(5) 0.54392(5) 1.09987(2)
Cd1A* Cd 1.54392(5) 0.74290(5) 0.59987(2)
Cd1J Cd 1.45608(5) 1.19898(5) 0.40013(2)
Cd1B Cd 1.80102(5) 1.25710(5) 0.40013(2)
N1D N 1.4194(6) 1.0695(6) 1.0325(3)
N1C N 1.0695(6) 0.4194(6) 0.9675(3)
N1H N 0.9305(6) 0.3499(6) 1.0325(3)
N1E N 1.3499(6) 0.9305(6) 0.5325(3)
N1J N 1.4194(6) 1.0695(6) 0.4675(3)
N1A N 0.5806(6) 0.6501(6) 0.5325(3)
N1G N 0.5806(6) 0.6501(6) 0.9675(3)
N1C* N 1.0695(6) 1.4194(6) 0.9675(3)
N1I N 1.0695(6) 1.4194(6) 0.5325(3)
N2E N 1.2500(6) 0.8265(7) 0.6985(4)
N2A N 0.5765(6) 0.7500(7) 0.6985(4)
N2G N 0.5765(6) 0.7500(7) 0.8015(4)
N2C N 1.1735(6) 1.4235(7) 0.8015(4)
N2I N 1.1735(6) 1.4235(7) 0.6985(4)
C1D C 1.6069(8) 1.1142(7) 1.0473(4)
C1C C 1.1142(8) 0.6069(7) 0.9527(4)
C1H C 0.8858(8) 0.4927(7) 1.0473(4)
C1E C 1.4927(8) 0.8858(7) 0.5473(4)
C1J C 1.6069(8) 1.1142(7) 0.4527(4)
C2D C 1.4986(7) 1.0430(7) 1.0199(4)
C2C C 1.0430(7) 0.4986(7) 0.9801(4)
C2H C 0.9570(7) 0.4556(7) 1.0199(4)
C2E C 1.4556(7) 0.9570(7) 0.5199(4)
C2J C 1.4986(7) 1.0430(7) 0.4801(4)
C3C C 1.00000 0.3342(9) 1.00000
C3E C 1.33420 1.0000(9) 0.50000
H1C H 1.00000 0.26880 1.00000
H1E H 1.26880 1.00000 0.50000
C4E C 1.1254(9) 0.8924(9) 0.6697(4)
C4A C 0.7670(9) 0.8746(9) 0.6697(4)
C4G C 0.7670(9) 0.8746(9) 0.8303(4)
C4C C 1.1076(9) 1.2330(9) 0.8303(4)
C4I C 1.1076(9) 1.2330(9) 0.6697(4)
C5E C 1.1835(8) 0.8626(8) 0.7194(4)
C5A C 0.6791(8) 0.8165(8) 0.7194(4)
C5G C 0.6791(8) 0.8165(8) 0.7806(4)
C5C C 1.1374(8) 1.3209(8) 0.7806(4)
C5I C 1.1374(8) 1.3209(8) 0.7194(4)
C6A C 0.5179(11) 0.7154(11) 0.75000
C6C C 1.1975(11) 1.4821(11) 0.75000
H2A H 0.44290 0.67110 0.75000
H2C H 1.22820 1.55710 0.75000
O1D O 1.6135(6) 1.1827(5) 1.0876(3)
O1C O 1.1827(6) 0.6135(5) 0.9124(3)
O1H O 0.8173(6) 0.4308(5) 1.0876(3)
O1E O 1.4308(6) 0.8173(5) 0.5876(3)
O1J O 1.6135(6) 1.1827(5) 0.4124(3)
O1I O 1.1827(6) 0.6135(5) 0.5876(3)
O1A O 0.3865(6) 0.5692(5) 0.5876(3)
O1E* O 0.4308(6) 0.8173(5) 0.5876(3)
O1* O 0.4308(6) 0.8173(5) 0.9124(3)
O1G O 0.3865(6) 0.5692(5) 0.9124(3)
O1C* O 1.1827(6) 1.6135(5) 0.9124(3)
O1G* O 1.3865(6) 1.5692(5) 0.9124(3)
O1A* O 1.3865(6) 1.5692(5) 0.5876(3)
O1I* O 1.1827(6) 1.6135(5) 0.5876(3)
O2D O 1.6878(6) 1.1077(6) 1.0305(4)
O2C O 1.1077(6) 0.6878(6) 0.9695(4)
O2H O 0.8923(6) 0.5801(6) 1.0305(4)
O2E O 1.5801(6) 0.8923(6) 0.5305(4)
O2J O 1.6878(6) 1.1077(6) 0.4695(4)
O2I O 1.1077(6) 0.6878(6) 0.5305(4)
O2E* O 0.5801(6) 0.8923(6) 0.5305(4)
O2* O 0.5801(6) 0.8923(6) 0.9695(4)
O2G O 1.3122(6) 1.4199(6) 0.9695(4)
O2A O 1.3122(6) 1.4199(6) 0.5305(4)
O3E O 1.0680(12) 0.9309(13) 0.6830(4)
O3A O 0.8629(12) 0.9320(13) 0.6830(4)
O3G O 0.8629(12) 0.9320(13) 0.8170(4)
O3C O 1.0691(12) 1.1371(13) 0.8170(4)
O3I O 1.0691(12) 1.1371(13) 0.6830(4)
O4E O 1.1417(8) 0.8726(9) 0.6162(3)
O4A O 0.7309(8) 0.8583(9) 0.6162(3)
O4G O 0.7309(8) 0.8583(9) 0.8838(3)
O4C O 1.1274(8) 1.2691(9) 0.8838(3)
O4I O 1.1274(8) 1.2691(9) 0.6162(3)
N3E N 0.837(5) 0.648(3) 0.614(2)
C7E C 0.852(5) 0.668(3) 0.672(2)
C8E C 0.779(3) 0.641(3) 0.722(2)
C9E C 0.678(3) 0.532(3) 0.707(3)
C10E C 0.675(5) 0.498(5) 0.640(3)
C11E C 0.751(6) 0.559(4) 0.6061(18)
N4E N 0.432(3) 0.352(4) 0.856(2)
C12E C 0.413(4) 0.370(5) 0.8006(19)
C14E C 0.599(3) 0.483(3) 0.770(4)
C15E C 0.615(5) 0.453(5) 0.665(3)
C16E C 0.532(7) 0.392(7) 0.864(3)
H3E H 0.72830 0.51810 0.56730
H6E H 0.90760 0.74320 0.68680
H7E H 0.55830 0.39370 0.91200
H10E H 0.33650 0.32680 0.78760
#END
