
#######################################################################
#
#                 Cambridge Crystallographic Data Centre
#                                CCDC
#
#######################################################################
#
# If this CIF has been generated from an entry in the Cambridge
# Structural Database, then it will include bibliographic, chemical,
# crystal, experimental, refinement or atomic coordinate data resulting
# from the CCDC's data processing and validation procedures.
#
#######################################################################

data_CSD_CIF_JEDCIF
_audit_creation_date 2006-04-11
_audit_creation_method CSD-ConQuest-V1
_database_code_CSD JEDCIF
_database_code_depnum_ccdc_archive 'CCDC 295920'
_chemical_formula_sum 'C46 H54 Cd7 K3 N13 O30'
_chemical_formula_moiety
;
(C16 H36 N1 1+)n,3n(K1 1+),n(C30 H6 Cd7 N12 O24 4-),6n(H2 O1)
;
_journal_coden_Cambridge 4
_journal_volume 128
_journal_year 2006
_journal_page_first 34
_journal_name_full 'J.Am.Chem.Soc. '
loop_
_publ_author_name
"Wen-Guan Lu"
"Cheng-Yong Su"
"Tong-Bu Lu"
"Long Jiang"
"Jia-Mei Chen"
_chemical_name_systematic
;
catena-[Tri-potassium 
tris(\m~4~-imidazole-4,5-dicarboxylato)-tris(\m~3~-imidazole-4,5-dicarboxylato
)-hepta-cadmium(ii) tetrabutylammonium clathrate hexahydrate]
;
_cell_volume   3807.709
_exptl_crystal_colour 'colorless'
_exptl_crystal_density_diffrn 1.895
_exptl_crystal_description 'hexangular bipyramid'
_diffrn_ambient_temperature 293
_refine_special_details
;
The organic cation and some water molecules are disordered.

;
#These two values have been output from a single CSD field.
_refine_ls_R_factor_gt 0.0551
_refine_ls_wR_factor_gt 0.0551
_symmetry_cell_setting hexagonal
_symmetry_space_group_name_H-M 'P -6 2 c'
_symmetry_Int_Tables_number 190
loop_
_symmetry_equiv_pos_site_id
_symmetry_equiv_pos_as_xyz
1 x,y,z
2 -y,x-y,z
3 -x+y,-x,z
4 x,y,1/2-z
5 -y,x-y,1/2-z
6 -x+y,-x,1/2-z
7 y,x,-z
8 x-y,-y,-z
9 -x,-x+y,-z
10 y,x,1/2+z
11 x-y,-y,1/2+z
12 -x,-x+y,1/2+z
_cell_length_a 14.3027(10)
_cell_length_b 14.3027(10)
_cell_length_c 21.493(3)
_cell_angle_alpha 90
_cell_angle_beta 90
_cell_angle_gamma 120
_cell_formula_units_Z 2
loop_
_atom_type_symbol
_atom_type_radius_bond
C 0.68
H 0.23
Cd 1.62
K 1.26
N 0.68
O 0.68
loop_
_atom_site_label
_atom_site_type_symbol
_atom_site_fract_x
_atom_site_fract_y
_atom_site_fract_z
C1 C 1.1269(3) 0.2331(3) 0.33106(16)
C2 C 1.1553(3) 0.3182(3) 0.28254(15)
C3 C 1.2036(7) 0.4766(5) 0.25000
H1 H 1.22430 0.54940 0.25000
C4 C 1.1131(2) 0.5966(3) 0.4521(2)
C5 C 1.0443(3) 0.4890(3) 0.48092(18)
C6 C 1.00000 0.3239(4) 0.50000
H2 H 1.00000 0.25890 0.50000
Cd1 Cd 1.206030(18) 0.452444(19) 0.402436(9)
Cd2 Cd 1.00000 0.00000 0.25000
K1 K 1.22345(11) 0.22345(11) 0.50000
N1 N 1.1874(3) 0.4196(2) 0.30212(14)
N2 N 1.0723(2) 0.4117(2) 0.46792(14)
O1 O 1.1403(3) 0.2662(2) 0.38588(12)
O2 O 1.0968(3) 0.1377(2) 0.31750(13)
O3 O 1.1830(2) 0.6051(2) 0.41179(12)
O4 O 1.1067(2) 0.6768(2) 0.47010(17)
O5 O 1.0460(6) 0.1241(7) 0.5675(4)
O6 O 1.1356(10) 0.2529(13) 0.6010(5)
O7? O 1.0755(7) 0.1901(10) 0.5823(5)
N3 N 1.33330 0.66670 0.75000
C7 C 1.1835(8) 0.3582(5) 0.75000
C8 C 1.1415(10) 0.4394(7) 0.75000
C9 C 1.2317(7) 0.5597(5) 0.75000
C10 C 1.1743(6) 0.5325(6) 0.6983(12)
C11 C 1.3739(6) 0.6652(11) 0.6860(3)
C12 C 1.0802(8) 0.2451(13) 0.75000
C13 C 0.9906(8) 0.5278(6) 0.6966(10)
C14 C 1.0617(12) 0.4888(8) 0.7291(9)
C1C C 1.1269(3) 0.2331(3) 0.16894(16)
C1A C 0.7669(3) -0.1062(3) 0.33106(16)
C1D C 0.7669(3) -0.1062(3) 0.16894(16)
C1B C 1.1062(3) -0.1269(3) 0.33106(16)
C1E C 1.1062(3) -0.1269(3) 0.16894(16)
C2C C 1.1553(3) 0.3182(3) 0.21746(15)
C2A C 0.6818(3) -0.1629(3) 0.28254(15)
C2D C 0.6818(3) -0.1629(3) 0.21746(15)
C2B C 1.1629(3) -0.1553(3) 0.28254(15)
C2E C 1.1629(3) -0.1553(3) 0.21746(15)
C3A C 0.5234(7) -0.2730(5) 0.25000
C3B C 1.2730(7) -0.2036(5) 0.25000
H1A H 0.45060 -0.32510 0.25000
H1B H 1.32510 -0.22430 0.25000
C4H C 0.8869(2) 0.4835(3) 0.5479(2)
C4A C 1.4034(2) 0.5165(3) 0.4521(2)
C4G C 1.5165(2) 0.4034(3) 0.5479(2)
C4C C 1.1131(2) 0.5966(3) 0.0479(2)
C4K C 0.8869(2) 0.4835(3) -0.0479(2)
C5H C 0.9557(3) 0.4447(3) 0.51908(18)
C5A C 1.5110(3) 0.5553(3) 0.48092(18)
C5G C 1.5553(3) 0.5110(3) 0.51908(18)
C5C C 1.0443(3) 0.4890(3) 0.01908(18)
C5K C 0.9557(3) 0.4447(3) -0.01908(18)
C6A C 1.67610 0.6761(4) 0.50000
C6C C 1.00000 0.3239(4) 0.00000
H2A H 1.74110 0.74110 0.50000
H2C H 1.00000 0.25890 0.00000
Cd1C Cd 1.206030(18) 0.452444(19) 0.097564(9)
Cd1A Cd 0.547556(18) -0.246414(19) 0.402436(9)
Cd1D Cd 0.547556(18) -0.246414(19) 0.097564(9)
Cd1B Cd 1.246414(18) -0.206030(19) 0.402436(9)
Cd1E Cd 1.246414(18) -0.206030(19) 0.097564(9)
Cd1B* Cd 1.246414(18) 0.793970(19) 0.402436(9)
Cd1G Cd 0.753586(18) 0.547556(19) 0.597564(9)
Cd1H Cd 0.793970(18) 0.246414(19) 0.597564(9)
Cd1A* Cd 1.547556(18) 0.753586(19) 0.402436(9)
Cd1F Cd 1.452444(18) 0.206030(19) 0.597564(9)
Cd1G* Cd 1.753586(18) 0.547556(19) 0.597564(9)
Cd1E* Cd 1.246414(18) 0.793970(19) 0.097564(9)
Cd1J Cd 0.753586(18) 0.547556(19) -0.097564(9)
Cd1K Cd 0.793970(18) 0.246414(19) -0.097564(9)
N1C N 1.1874(3) 0.4196(2) 0.19788(14)
N1A N 0.5804(3) -0.2322(2) 0.30212(14)
N1D N 0.5804(3) -0.2322(2) 0.19788(14)
N1B N 1.2322(3) -0.1874(2) 0.30212(14)
N1E N 1.2322(3) -0.1874(2) 0.19788(14)
N2H N 0.9277(2) 0.3394(2) 0.53208(14)
N2A N 1.5883(2) 0.6606(2) 0.46792(14)
N2G N 1.6606(2) 0.5883(2) 0.53208(14)
N2C N 1.0723(2) 0.4117(2) 0.03208(14)
N2K N 0.9277(2) 0.3394(2) -0.03208(14)
N2A* N 0.5883(2) -0.3394(2) 0.46792(14)
N2D N 0.5883(2) -0.3394(2) 0.03208(14)
N2B N 1.3394(2) -0.0723(2) 0.46792(14)
N2E N 1.3394(2) -0.0723(2) 0.03208(14)
O1C O 1.1403(3) 0.2662(2) 0.11412(12)
O1A O 0.7338(3) -0.1259(2) 0.38588(12)
O1D O 0.7338(3) -0.1259(2) 0.11412(12)
O1B O 1.1259(3) -0.1403(2) 0.38588(12)
O1E O 1.1259(3) -0.1403(2) 0.11412(12)
O2C O 1.0968(3) 0.1377(2) 0.18250(13)
O2A O 0.8623(3) -0.0409(2) 0.31750(13)
O2D O 0.8623(3) -0.0409(2) 0.18250(13)
O2B O 1.0409(3) -0.0968(2) 0.31750(13)
O2E O 1.0409(3) -0.0968(2) 0.18250(13)
O3H O 0.8170(2) 0.4221(2) 0.58821(12)
O3A O 1.3949(2) 0.5779(2) 0.41179(12)
O3G O 1.5779(2) 0.3949(2) 0.58821(12)
O3C O 1.1830(2) 0.6051(2) 0.08821(12)
O3K O 0.8170(2) 0.4221(2) -0.08821(12)
O3D O 1.3949(2) 0.5779(2) 0.08821(12)
O3A* O 0.3949(2) -0.4221(2) 0.41179(12)
O3B O 0.4221(2) -0.1830(2) 0.41179(12)
O3D* O 0.3949(2) -0.4221(2) 0.08821(12)
O3E O 0.4221(2) -0.1830(2) 0.08821(12)
O3* O 1.1830(2) -0.3949(2) 0.41179(12)
O3B* O 1.4221(2) -0.1830(2) 0.41179(12)
O3C* O 1.1830(2) -0.3949(2) 0.08821(12)
O3E* O 1.4221(2) -0.1830(2) 0.08821(12)
O4H O 0.8933(2) 0.5701(2) 0.52990(17)
O4A O 1.3232(2) 0.4299(2) 0.47010(17)
O4G O 1.4299(2) 0.3232(2) 0.52990(17)
O4C O 1.1067(2) 0.6768(2) 0.02990(17)
O4K O 0.8933(2) 0.5701(2) -0.02990(17)
O4D O 1.3232(2) 0.4299(2) 0.02990(17)
O4B O 0.5701(2) -0.1067(2) 0.47010(17)
O4E O 0.5701(2) -0.1067(2) 0.02990(17)
O4* O 1.1067(2) -0.3232(2) 0.47010(17)
O4C* O 1.1067(2) -0.3232(2) 0.02990(17)
C7A C 1.6418(8) 0.8253(5) 0.75000
C7B C 1.1747(8) 0.8165(5) 0.75000
C8A C 1.5606(10) 0.7021(7) 0.75000
C8B C 1.2979(10) 0.8585(7) 0.75000
C9A C 1.4403(7) 0.6720(5) 0.75000
C9B C 1.3280(7) 0.7683(5) 0.75000
C10C C 1.1743(6) 0.5325(6) 0.8017(12)
C10A C 1.4675(6) 0.6418(6) 0.6983(12)
C10D C 1.4675(6) 0.6418(6) 0.8017(12)
C10B C 1.3582(6) 0.8257(6) 0.6983(12)
C10E C 1.3582(6) 0.8257(6) 0.8017(12)
C11B C 1.2913(6) 0.6261(11) 0.6860(3)
C11A C 1.3348(6) 0.7087(11) 0.6860(3)
C11C C 1.3739(6) 0.6652(11) 0.8140(3)
C11D C 1.3348(6) 0.7087(11) 0.8140(3)
C11E C 1.2913(6) 0.6261(11) 0.8140(3)
C12A C 1.7549(8) 0.8351(13) 0.75000
C12B C 1.1649(8) 0.9198(13) 0.75000
C13C C 0.9906(8) 0.5278(6) 0.8034(10)
C13E C 1.5372(8) 1.0094(6) 0.8034(10)
C13D C 1.4722(8) 0.4628(6) 0.8034(10)
C13B C 1.5372(8) 1.0094(6) 0.6966(10)
C13A C 1.4722(8) 0.4628(6) 0.6966(10)
C14A C 1.5112(12) 0.5729(8) 0.7291(9)
C14B C 1.4271(12) 0.9383(8) 0.7291(9)
C14C C 1.0617(12) 0.4888(8) 0.7709(9)
C14E C 1.4271(12) 0.9383(8) 0.7709(9)
C14D C 1.5112(12) 0.5729(8) 0.7709(9)
#END
