
#######################################################################
#
#                 Cambridge Crystallographic Data Centre
#                                CCDC
#
#######################################################################
#
# If this CIF has been generated from an entry in the Cambridge
# Structural Database, then it will include bibliographic, chemical,
# crystal, experimental, refinement or atomic coordinate data resulting
# from the CCDC's data processing and validation procedures.
#
#######################################################################

data_CSD_CIF_JEGWUQ
_audit_creation_date 2017-10-19
_audit_creation_method CSD-ConQuest-V1
_database_code_CSD JEGWUQ
_database_code_depnum_ccdc_archive 'CCDC 1580886'
_chemical_formula_sum 'C26 H49 Cl3 Cu2 N11 O10.5'
_chemical_formula_moiety
;
(C12 H4 Cl3 Cu2 N6 O2 1-)n,C2 H8 N1 1+,4(C3 H7 N1 O1),4.5(H2 O1)
;
_journal_coden_Cambridge 4
_journal_volume 139
_journal_year 2017
_journal_page_first 13260
_journal_name_full 'J.Am.Chem.Soc. '
loop_
_publ_author_name
"S.S.Park"
"Y.Tulchinsky"
"M.Dinca"
_chemical_name_systematic
;
catena-[dimethylammonium 
(\m-oxanthreno[2,3-d:7,8-d']bis[1,2,3]triazolyl)-(\m-chloro)-dichloro-di-coppe
r(ii) N,N-dimethylformamide solvate hydrate]
;
_chemical_name_common
;
MIT-20
;
_cell_volume  19033.883
_exptl_crystal_colour 'green'
_exptl_crystal_density_diffrn 0.854
_exptl_crystal_description 'needle'
_diffrn_ambient_temperature 100
_refine_special_details
;
C1K,C2K,N1K disordered by symmetry over two configurations with occupancy 
0.5. Disordered solvent molecules were not modelled and the disordered 
density was taken into account using the SQUEEZE/PLATON procedure.
;
#These two values have been output from a single CSD field.
_refine_ls_R_factor_gt 0.0636
_refine_ls_wR_factor_gt 0.0636
_symmetry_cell_setting rhombohedral
_symmetry_space_group_name_H-M 'R -3 m'
_symmetry_Int_Tables_number 166
loop_
_symmetry_equiv_pos_site_id
_symmetry_equiv_pos_as_xyz
1 x,y,z
2 -y,x-y,z
3 -x+y,-x,z
4 y,x,-z
5 x-y,-y,-z
6 -x,-x+y,-z
7 2/3+x,1/3+y,1/3+z
8 2/3-y,1/3+x-y,1/3+z
9 2/3-x+y,1/3-x,1/3+z
10 2/3+y,1/3+x,1/3-z
11 2/3+x-y,1/3-y,1/3-z
12 2/3-x,1/3-x+y,1/3-z
13 1/3+x,2/3+y,2/3+z
14 1/3-y,2/3+x-y,2/3+z
15 1/3-x+y,2/3-x,2/3+z
16 1/3+y,2/3+x,2/3-z
17 1/3+x-y,2/3-y,2/3-z
18 1/3-x,2/3-x+y,2/3-z
19 -x,-y,-z
20 y,-x+y,-z
21 x-y,x,-z
22 -y,-x,z
23 -x+y,y,z
24 x,x-y,z
25 -2/3-x,-1/3-y,-1/3-z
26 -2/3+y,-1/3-x+y,-1/3-z
27 -2/3+x-y,-1/3+x,-1/3-z
28 -2/3-y,-1/3-x,-1/3+z
29 -2/3-x+y,-1/3+y,-1/3+z
30 -2/3+x,-1/3+x-y,-1/3+z
31 -1/3-x,-2/3-y,-2/3-z
32 -1/3+y,-2/3-x+y,-2/3-z
33 -1/3+x-y,-2/3+x,-2/3-z
34 -1/3-y,-2/3-x,-2/3+z
35 -1/3-x+y,-2/3+y,-2/3+z
36 -1/3+x,-2/3+x-y,-2/3+z
_cell_length_a 37.171(6)
_cell_length_b 37.171(6)
_cell_length_c 15.907(2)
_cell_angle_alpha 90
_cell_angle_beta 90
_cell_angle_gamma 120
_cell_formula_units_Z 18
loop_
_atom_type_symbol
_atom_type_radius_bond
C 0.68
H 0.23
Cl 0.99
Cu 1.32
N 0.68
O 0.68
loop_
_atom_site_label
_atom_site_type_symbol
_atom_site_fract_x
_atom_site_fract_y
_atom_site_fract_z
Cu1 Cu 0.29668(3) 0.30000(3) 0.25070(5)
Cl1 Cl 0.26414(8) 0.33333 0.33333
Cl2 Cl 0.24923(9) 0.23299(8) 0.22935(15)
N1 N 0.35273(19) 0.35464(19) 0.2496(3)
N2 N 0.3667(2) 0.3798(2) 0.3165(3)
N3 N 0.3820(2) 0.3649(2) 0.1929(3)
O1 O 0.50730(15) 0.49270(15) 0.3643(4)
O2 O 0.52602(14) 0.47398(14) 0.2085(4)
C1 C 0.4756(3) 0.4604(3) 0.3177(5)
C2 C 0.4369(3) 0.4393(3) 0.3506(4)
H1 H 0.43031 0.44645 0.40348
C3 C 0.4077(3) 0.4071(3) 0.3030(4)
C4 C 0.4177(3) 0.3977(3) 0.2235(4)
C5 C 0.4578(2) 0.4204(2) 0.1902(4)
H2 H 0.46453 0.41425 0.13653
C6 C 0.4857(3) 0.4508(3) 0.2372(4)
N4 N 0.3946(13) 0.4918(16) 0.173(3)
H3 H 0.39565 0.51611 0.18557
H4 H 0.40055 0.48310 0.22151
C7 C 0.3505(13) 0.4631(14) 0.162(5)
H5 H 0.33548 0.46338 0.21205
H6 H 0.34037 0.47152 0.11282
H7 H 0.34579 0.43497 0.15262
C8 C 0.4314(12) 0.5048(16) 0.123(3)
H8 H 0.45564 0.52535 0.15515
H9 H 0.43457 0.48077 0.11070
H10 H 0.42915 0.51732 0.07090
N1U N 0.64536(19) 0.64727(19) 0.2496(3)
N2U N 0.6202(2) 0.6333(2) 0.3165(3)
N3U N 0.6351(2) 0.6180(2) 0.1929(3)
C1U C 0.5396(3) 0.5244(3) 0.3177(5)
C2U C 0.5607(3) 0.5631(3) 0.3506(4)
H1U H 0.55355 0.56969 0.40348
C3U C 0.5929(3) 0.5923(3) 0.3030(4)
C4U C 0.6023(3) 0.5823(3) 0.2235(4)
C5U C 0.5796(2) 0.5422(2) 0.1902(4)
H2U H 0.58575 0.53547 0.13653
C6U C 0.5492(3) 0.5143(3) 0.2372(4)
Cu1K Cu 0.369987(30) 0.336653(30) 0.082633(50)
Cl2K Cl 0.417437(90) 0.317093(80) 0.103983(150)
Cu1P Cu 0.330013(30) 0.366667(30) 0.415967(50)
Cu1U Cu 0.70000(3) 0.70332(3) 0.25070(5)
Cu1FA Cu 0.663347(30) 0.630013(30) 0.082633(50)
Cu1Y Cu 0.633333(30) 0.669987(30) 0.415967(50)
Cl1K Cl 0.402527(80) 0.40253 0.00000
N1K N 0.313937(190) 0.335243(190) 0.083733(300)
N2N N 0.346433(200) 0.299967(200) -0.016833(300)
N2P N 0.320233(200) 0.286867(200) 0.350167(300)
N3K N 0.284667(200) 0.316233(200) 0.140433(300)
N4K N 0.272067(1300) 0.430533(1600) 0.160333(3000)
H3K H 0.27101 0.45379 0.14777
H4K H 0.26611 0.41588 0.11182
C7K C 0.316167(1300) 0.445933(1400) 0.171333(5000)
H5K H 0.33119 0.46124 0.12128
H6K H 0.32629 0.46448 0.22051
H7K H 0.32087 0.42251 0.18071
C8K C 0.235267(1200) 0.406733(1600) 0.210333(3000)
H8K H 0.21103 0.40304 0.17818
H9K H 0.23210 0.37954 0.22263
H10K H 0.23752 0.42151 0.26243
#END
