
#######################################################################
#
#                 Cambridge Crystallographic Data Centre
#                                CCDC
#
#######################################################################
#
# If this CIF has been generated from an entry in the Cambridge
# Structural Database, then it will include bibliographic, chemical,
# crystal, experimental, refinement or atomic coordinate data resulting
# from the CCDC's data processing and validation procedures.
#
#######################################################################

data_CSD_CIF_JEHBAC
_audit_creation_date 2017-10-19
_audit_creation_method CSD-ConQuest-V1
_database_code_CSD JEHBAC
_database_code_depnum_ccdc_archive 'CCDC 1580910'
_chemical_formula_sum 'C60 H75 Mn2 N4 O19 P1'
_chemical_formula_moiety
;
(C46 H36 Mn2 O14 P1 1-)n,C2 H8 N1 1+,3(C4 H9 N1 O1),2(H2 O1)
;
_journal_coden_Cambridge 4
_journal_volume 139
_journal_year 2017
_journal_page_first 13476
_journal_name_full 'J.Am.Chem.Soc. '
loop_
_publ_author_name
"Xu Chen"
"Hong Jiang"
"Bang Hou"
"Wei Gong"
"Yan Liu"
"Yong Cui"
_chemical_name_systematic
;
catena-[dimethylammonium 
(\m-5,5'-[4,8-bis(3,5-dimethylphenyl)-1,11-dimethyl-6,6-dioxidodibenzo[d,f][1,
3,2]dioxaphosphepine-2,10-diyl]dibenzene-1,3-dicarboxylato)-diaqua-di-manganes
e N,N-dimethylacetamide solvate dihydrate]
;
_cell_volume  14690.597
_exptl_crystal_colour 'white'
_exptl_crystal_density_diffrn 0.647
_exptl_crystal_description 'needle'
_diffrn_ambient_temperature 173.2
_diffrn_special_details
;
twin

;
_refine_special_details
;
Disordered cation and solvent molecules were not modelled and the disordered 
density was taken into account using the SQUEEZE/PLATON procedure.
;
#These two values have been output from a single CSD field.
_refine_ls_R_factor_gt 0.042
_refine_ls_wR_factor_gt 0.042
_symmetry_cell_setting hexagonal
_symmetry_space_group_name_H-M 'P 61 2 2'
_symmetry_Int_Tables_number 178
loop_
_symmetry_equiv_pos_site_id
_symmetry_equiv_pos_as_xyz
1 x,y,z
2 x-y,x,1/6+z
3 -y,x-y,1/3+z
4 -x,-y,1/2+z
5 -x+y,-x,2/3+z
6 y,-x+y,5/6+z
7 x-y,-y,-z
8 -x,-x+y,2/3-z
9 y,x,1/3-z
10 -y,-x,5/6-z
11 -x+y,y,1/2-z
12 x,x-y,1/6-z
_cell_length_a 27.1819(9)
_cell_length_b 27.1819(9)
_cell_length_c 22.9588(9)
_cell_angle_alpha 90
_cell_angle_beta 90
_cell_angle_gamma 120
_cell_formula_units_Z 6
loop_
_atom_type_symbol
_atom_type_radius_bond
C 0.68
H 0.23
Mn 1.61
O 0.68
P 1.05
loop_
_atom_site_label
_atom_site_type_symbol
_atom_site_fract_x
_atom_site_fract_y
_atom_site_fract_z
Mn1 Mn -0.41811(4) 0.16640(3) -0.15938(3)
P1 P -0.47283(3) 0.05435(7) -0.25000
O1 O -0.5286(2) -0.13930(19) 0.07877(15)
O2 O -0.4985(2) 0.1394(2) -0.10859(18)
H1 H -0.50190 0.15520 -0.07140
H2 H -0.53660 0.10960 -0.11980
O3 O -0.45234(14) 0.08581(12) -0.19342(11)
O4 O -0.44743(14) 0.01249(12) -0.25989(12)
O5 O -0.5893(2) -0.22973(18) 0.09018(15)
O6 O -0.5425(2) -0.34867(18) -0.05229(14)
O7 O -0.5649(2) -0.33694(19) -0.14243(16)
C1 C -0.6027(2) -0.1694(2) -0.1830(2)
H3 H -0.62420 -0.16120 -0.21190
H4 H -0.61810 -0.17050 -0.14410
H5 H -0.60600 -0.20620 -0.19170
C2 C -0.5191(3) -0.1686(2) -0.10097(19)
C3 C -0.2810(4) 0.1037(4) -0.1688(4)
C4 C -0.5431(3) -0.2015(2) -0.00049(18)
C5 C -0.5515(3) -0.3206(3) -0.0908(2)
C6 C -0.5399(3) -0.2633(2) -0.0736(2)
C7 C -0.2463(4) 0.0780(5) -0.1835(5)
H6 H -0.20640 0.10060 -0.17870
C8 C -0.5268(3) -0.1590(2) -0.04355(19)
H7 H -0.52090 -0.12270 -0.03260
C9 C -0.3282(4) -0.0108(4) -0.2048(6)
H8 H -0.34330 -0.04820 -0.22000
C10 C -0.5399(2) -0.1227(2) -0.18497(18)
C11 C -0.5190(2) -0.0773(2) -0.22663(17)
C12 C -0.3434(3) 0.0635(3) -0.1692(3)
H9 H -0.36880 0.07650 -0.15830
C13 C -0.5541(3) -0.1908(3) 0.0603(2)
C14 C -0.5289(3) -0.2212(2) -0.1170(2)
H10 H -0.52830 -0.22980 -0.15700
C15 C -0.2610(4) 0.1618(4) -0.1441(5)
H11 H -0.27080 0.15860 -0.10260
H12 H -0.27930 0.17980 -0.16480
H13 H -0.21970 0.18500 -0.14860
C16 C -0.5004(3) -0.1221(2) -0.14613(18)
C17 C -0.5487(3) -0.2513(2) -0.01525(19)
H14 H -0.55890 -0.27970 0.01380
C18 C -0.4647(2) -0.0333(2) -0.22150(18)
C19 C -0.4252(3) -0.0340(2) -0.1849(2)
C20 C -0.4453(3) -0.0809(3) -0.14704(19)
H15 H -0.41940 -0.08350 -0.12130
C21 C -0.3643(3) 0.0086(3) -0.1848(3)
C22 C -0.2659(5) 0.0283(5) -0.2019(9)
C23 C -0.2265(4) 0.0032(6) -0.2133(9)
H16 H -0.22650 -0.00450 -0.25500
H17 H -0.24050 -0.03230 -0.19140
H18 H -0.18780 0.03050 -0.20070
O1J O -0.6107(2) -0.13930(19) -0.57877(15)
O3J O -0.46185(14) 0.08581(12) -0.30658(11)
O4J O -0.54008(14) 0.01249(12) -0.24011(12)
O5J O -0.64043(20) -0.22973(18) -0.59018(15)
O6J O -0.80617(20) -0.34867(18) -0.44771(14)
O7J O -0.77204(20) -0.33694(19) -0.35757(16)
C1J C -0.5667(2) -0.1694(2) -0.3170(2)
H3J H -0.53700 -0.16120 -0.28810
H4J H -0.55240 -0.17050 -0.35590
H5J H -0.60020 -0.20620 -0.30830
C2J C -0.6495(3) -0.1686(2) -0.39903(19)
C3J C -0.6153(4) 0.1037(4) -0.3312(4)
C4J C -0.6584(3) -0.2015(2) -0.49951(18)
C5J C -0.7691(3) -0.3206(3) -0.4092(2)
C6J C -0.7234(3) -0.2633(2) -0.4264(2)
C7J C -0.6757(4) 0.0780(5) -0.3165(5)
H6J H -0.69300 0.10060 -0.32130
C8J C -0.6322(3) -0.1590(2) -0.45645(19)
H7J H -0.60180 -0.12270 -0.46740
C9J C -0.6826(4) -0.0108(4) -0.2952(6)
H8J H -0.70490 -0.04820 -0.28000
C10J C -0.5828(2) -0.1227(2) -0.31503(18)
C11J C -0.5583(2) -0.0773(2) -0.27337(17)
C12J C -0.5931(3) 0.0635(3) -0.3308(3)
H9J H -0.55470 0.07650 -0.34170
C13J C -0.6367(3) -0.1908(3) -0.5603(2)
C14J C -0.6923(3) -0.2212(2) -0.3830(2)
H10J H -0.70150 -0.22980 -0.34300
C15J C -0.5772(4) 0.1618(4) -0.3559(5)
H11J H -0.57060 0.15860 -0.39740
H12J H -0.54090 0.17980 -0.33520
H13J H -0.59530 0.18500 -0.35140
C16J C -0.6217(3) -0.1221(2) -0.35387(18)
C17J C -0.7026(3) -0.2513(2) -0.48475(19)
H14J H -0.72080 -0.27970 -0.51380
C18J C -0.5686(2) -0.0333(2) -0.27850(18)
C19J C -0.6088(3) -0.0340(2) -0.3151(2)
C20J C -0.6356(3) -0.0809(3) -0.35296(19)
H15J H -0.66410 -0.08350 -0.37870
C21J C -0.6271(3) 0.0086(3) -0.3152(3)
C22J C -0.7058(5) 0.0283(5) -0.2981(9)
C23J C -0.7703(4) 0.0032(6) -0.2867(9)
H16J H -0.77800 -0.00450 -0.24500
H17J H -0.79180 -0.03230 -0.30860
H18J H -0.78170 0.03050 -0.29930
Mn1F Mn -0.58451(4) -0.16640(3) 0.15938(3)
O2F O -0.6379(2) -0.1394(2) 0.10859(18)
H1F H -0.65710 -0.15520 0.07140
H2F H -0.64620 -0.10960 0.11980
Mn1A Mn -0.58451(4) -0.41811(3) 0.007287(30)
Mn1C Mn -0.58189(4) -0.16640(3) -0.65938(3)
Mn1E Mn -0.83360(4) -0.41549(3) -0.326047(30)
Mn1G Mn -0.58189(4) -0.41549(3) -0.173953(30)
Mn1H Mn -0.83360(4) -0.41811(3) -0.507287(30)
Mn1J Mn -0.41549(4) 0.16640(3) -0.34062(3)
O1F O -0.3893(2) 0.13930(19) -0.07877(15)
O3F O -0.53815(14) -0.08581(12) 0.19342(11)
O5F O -0.35957(20) 0.22973(18) -0.09018(15)
O6E O -0.34867(20) 0.19383(18) -0.218957(140)
O6K O -0.5425(2) -0.19383(18) 0.218957(140)
O7B O -0.66306(20) -0.22796(19) 0.190903(160)
O7G O -0.4351(2) 0.22796(19) -0.190903(160)
#END
