
#######################################################################
#
#                 Cambridge Crystallographic Data Centre
#                                CCDC
#
#######################################################################
#
# If this CIF has been generated from an entry in the Cambridge
# Structural Database, then it will include bibliographic, chemical,
# crystal, experimental, refinement or atomic coordinate data resulting
# from the CCDC's data processing and validation procedures.
#
#######################################################################

data_CSD_CIF_JELPAS
_audit_creation_date 2006-08-21
_audit_creation_method CSD-ConQuest-V1
_database_code_CSD JELPAS
_database_code_depnum_ccdc_archive 'CCDC 285881'
_chemical_formula_sum 'C15 H42 As8 Fe6 N6 O44'
_chemical_formula_moiety
;
(C3 H12 N2 2+)3n,n(C6 H6 As8 Fe6 O44 6-)
;
_journal_coden_Cambridge 971
_journal_volume 8
_journal_year 2006
_journal_page_first 692
_journal_name_full 'Solid State Sciences '
loop_
_publ_author_name
"V.K.Rao"
"K.C.Kam"
"A.K.Cheetham"
"S.Natarajan"
_chemical_name_systematic
;
catena-(tris(Propane-1,2-diammonium) 
bis(\m~3~-arsenato-O,O',O'')-hexakis(\m~3~-hydrogen 
arsenato-O,O',O'')-tris(\m~2~-oxalato-O,O',O'',O''')-hexa-iron)
;
_chemical_name_common
;
catena-(tris(propane-1,2-diammonium) hexakis(mu!3$-hydrogen 
arsenato)-bis(mu!3$-arsenato)-tris(mu!2$-oxalato)-hexa-iron)
;
_cell_volume   2531.595
_exptl_crystal_colour 'colorless'
_exptl_crystal_density_diffrn 2.548
_exptl_special_details
;
antiferromagnetic

;
_exptl_crystal_description 'plate-like'
_diffrn_ambient_temperature 293
_refine_special_details
;
The cation is disordered by symmetry.

;
#These two values have been output from a single CSD field.
_refine_ls_R_factor_gt 0.0323
_refine_ls_wR_factor_gt 0.0323
_symmetry_cell_setting hexagonal
_symmetry_space_group_name_H-M 'P -3 c 1'
_symmetry_Int_Tables_number 165
loop_
_symmetry_equiv_pos_site_id
_symmetry_equiv_pos_as_xyz
1 x,y,z
2 -y,x-y,z
3 -x+y,-x,z
4 y,x,1/2-z
5 x-y,-y,1/2-z
6 -x,-x+y,1/2-z
7 -x,-y,-z
8 y,-x+y,-z
9 x-y,x,-z
10 -y,-x,-1/2+z
11 -x+y,y,-1/2+z
12 x,x-y,-1/2+z
_cell_length_a 13.9899(12)
_cell_length_b 13.9899(12)
_cell_length_c 14.936(3)
_cell_angle_alpha 90
_cell_angle_beta 90
_cell_angle_gamma 120
_cell_formula_units_Z 2
loop_
_atom_type_symbol
_atom_type_radius_bond
C 0.68
H 0.23
As 1.21
Fe 1.34
N 0.68
O 0.68
loop_
_atom_site_label
_atom_site_type_symbol
_atom_site_fract_x
_atom_site_fract_y
_atom_site_fract_z
N1 N 0.3618(5) 1.0664(5) 0.6613(4)
H1 H 0.35690 1.06170 0.60190
H2 H 0.40650 1.04250 0.68030
H3 H 0.38870 1.13640 0.67780
C1 C 0.2534(7) 0.9992(6) 0.7000(5)
H4 H 0.22810 0.92280 0.68200
C2 C 0.1898(18) 1.0389(16) 0.6434(17)
H5 H 0.19940 1.02870 0.58120
H6 H 0.21700 1.11580 0.65490
H7 H 0.11280 0.99730 0.65840
As1 As 0.32532(3) 0.86313(3) 0.48033(2)
As2 As 0.33330 0.66670 0.70826(4)
Fe1 Fe 0.53674(4) 0.87024(4) 0.59595(3)
O1 O 0.4095(2) 0.8210(2) 0.51955(18)
O2 O 0.3767(2) 0.9994(2) 0.48302(18)
O3 O 0.2028(2) 0.8072(2) 0.53243(19)
O4 O 0.2987(3) 0.8232(2) 0.37021(18)
H8 H 0.31240 0.77360 0.36090
O5 O 0.4657(2) 0.7465(2) 0.67909(17)
O6 O 0.33330 0.66670 0.8231(3)
O7 O 0.4868(2) 0.9574(2) 0.68377(17)
O8 O 0.6713(2) 0.9455(2) 0.68899(19)
C3 C 0.5494(4) 1.00000 0.75000
C4 C 0.6592(4) 1.00000 0.75000
N1D N 0.2954(5) 0.9336(5) 0.8387(4)
H1D H 0.29520 0.93830 0.89810
H2D H 0.36400 0.95750 0.81970
H3D H 0.25230 0.86360 0.82220
C1D C 0.2542(7) 1.0008(6) 0.8000(5)
H4D H 0.30530 1.07720 0.81800
C2D C 0.1509(18) 0.9611(16) 0.8566(17)
H5D H 0.17070 0.97130 0.91880
H6D H 0.10120 0.88420 0.84510
H7D H 0.11550 1.00270 0.84160
As1F As 0.67468(3) 1.13687(3) 0.51967(2)
As1B As 0.53781(3) 0.67468(3) 0.48033(2)
As1H As 0.46219(3) 1.32532(3) 0.51967(2)
As1H* As 0.46219(3) 0.32532(3) 0.51967(2)
As1A As 0.13687(3) 0.46219(3) 0.48033(2)
As2F As 0.66670 1.33330 0.29174(4)
Fe1F Fe 0.46326(4) 1.12976(4) 0.40405(3)
Fe1B Fe 0.33350(4) 0.46326(4) 0.59595(3)
Fe1H Fe 0.66650(4) 0.53674(4) 0.40405(3)
Fe1A Fe 0.12976(4) 0.66650(4) 0.59595(3)
Fe1G Fe 0.87024(4) 1.33350(4) 0.40405(3)
Fe1D Fe 0.66650(4) 1.12976(4) 0.90405(3)
Fe1H* Fe 0.66650(4) 1.53674(4) 0.40405(3)
Fe1B* Fe 0.33350(4) 1.46326(4) 0.59595(3)
Fe1J Fe 0.33350(4) 0.87024(4) 0.09595(3)
Fe1F* Fe 0.46326(4) 0.12976(4) 0.40405(3)
Fe1G* Fe -0.12976(4) 0.33350(4) 0.40405(3)
Fe1E Fe 0.46326(4) 0.33350(4) 0.90405(3)
O1F O 0.5905(2) 1.1790(2) 0.48045(18)
O1B O 0.4115(2) 0.5905(2) 0.51955(18)
O1H O 0.5885(2) 1.4095(2) 0.48045(18)
O1H* O 0.5885(2) 0.4095(2) 0.48045(18)
O1A O 0.1790(2) 0.5885(2) 0.51955(18)
O1G O 0.8210(2) 1.4115(2) 0.48045(18)
O2F O 0.6233(2) 1.0006(2) 0.51698(18)
O2B O 0.6227(2) 0.6233(2) 0.48302(18)
O2H O 0.3773(2) 1.3767(2) 0.51698(18)
O2H* O 0.3773(2) 0.3767(2) 0.51698(18)
O2A O 0.0006(2) 0.3773(2) 0.48302(18)
O2G O -0.0006(2) 0.6227(2) 0.51698(18)
O2A* O 1.0006(2) 1.3773(2) 0.48302(18)
O3F O 0.7972(2) 1.1928(2) 0.46757(19)
O3B O 0.6044(2) 0.7972(2) 0.53243(19)
O3H O 0.3956(2) 1.2028(2) 0.46757(19)
O3H* O 0.3956(2) 0.2028(2) 0.46757(19)
O3A O 0.1928(2) 0.3956(2) 0.53243(19)
O3G O 0.8072(2) 0.6044(2) 0.46757(19)
O4F O 0.7013(3) 1.1768(2) 0.62979(18)
O4B O 0.5245(3) 0.7013(2) 0.37021(18)
O4H O 0.4755(3) 1.2987(2) 0.62979(18)
O4H* O 0.4755(3) 0.2987(2) 0.62979(18)
O4A O 0.1768(3) 0.4755(2) 0.37021(18)
H8F H 0.68760 1.22640 0.63910
H8B H 0.46120 0.68760 0.36090
H8H H 0.53880 1.31240 0.63910
H8H* H 0.53880 0.31240 0.63910
H8A H 0.22640 0.53880 0.36090
O5A O 0.2535(2) 0.7192(2) 0.67909(17)
O5B O 0.2808(2) 0.5343(2) 0.67909(17)
O5F O 0.5343(2) 1.2535(2) 0.32091(17)
O5G O 0.7465(2) 1.2808(2) 0.32091(17)
O5H O 0.7192(2) 1.4657(2) 0.32091(17)
O5H* O 0.7192(2) 0.4657(2) 0.32091(17)
O6F O 0.66670 1.33330 0.1769(3)
O7D O 0.5294(2) 1.0426(2) 0.81623(17)
O7F O 0.5132(2) 1.0426(2) 0.31623(17)
O7J O 0.4706(2) 0.9574(2) 0.18377(17)
O7B O 0.4706(2) 0.5132(2) 0.68377(17)
O7E O 0.5132(2) 0.4706(2) 0.81623(17)
O7H O 0.5294(2) 0.4868(2) 0.31623(17)
O7A O 0.0426(2) 0.5294(2) 0.68377(17)
O7G O 0.9574(2) 1.4706(2) 0.31623(17)
O8D O 0.7258(2) 1.0545(2) 0.81101(19)
O8F O 0.3287(2) 1.0545(2) 0.31101(19)
O8J O 0.2742(2) 0.9455(2) 0.18899(19)
O8B O 0.2742(2) 0.3287(2) 0.68899(19)
O8E O 0.3287(2) 0.2742(2) 0.81101(19)
O8H O 0.7258(2) 0.6713(2) 0.31101(19)
O8A O 0.0545(2) 0.7258(2) 0.68899(19)
O8G O 0.9455(2) 1.2742(2) 0.31101(19)
C3F C 0.4506(4) 1.00000 0.25000
C3B C 0.4506(4) 0.45060 0.75000
C4F C 0.3408(4) 1.00000 0.25000
C4B C 0.3408(4) 0.34080 0.75000
#END
