
#######################################################################
#
#                 Cambridge Crystallographic Data Centre
#                                CCDC
#
#######################################################################
#
# If this CIF has been generated from an entry in the Cambridge
# Structural Database, then it will include bibliographic, chemical,
# crystal, experimental, refinement or atomic coordinate data resulting
# from the CCDC's data processing and validation procedures.
#
#######################################################################

data_CSD_CIF_JEMPEZ
_audit_creation_date 2017-10-22
_audit_creation_method CSD-ConQuest-V1
_database_code_CSD JEMPEZ
_database_code_depnum_ccdc_archive 'CCDC 1581316'
_chemical_formula_sum 'C35 H34 In1 N4 O10'
_chemical_formula_moiety
;
C2 H7 N1 1+,n(C27 H13 In1 N1 O8 1-),2(C3 H7 N1 O1)
;
_journal_coden_Cambridge 1078
_journal_year 2017
_journal_name_full 'CSD Communication(Private Communication) '
loop_
_publ_author_name
"shengli hou"
_chemical_name_systematic
;
catena-[dimethylammonium 
(\m-5-[2,6-bis(4-carboxylatophenyl)pyridin-4-yl]benzene-1,3-dicarboxylato)-ind
ium(iii) N,N-dimethylformamide solvate]
;
_chemical_name_common
;
V101
;
_cell_volume   1664.907
_exptl_crystal_density_diffrn 1.569
_exptl_crystal_description 'block'
_diffrn_ambient_temperature 293
_refine_special_details
;
N1AA disordered by symmetry over two configurations with occupancy 0.5; N4AA 
disordered by symmetry over two configurations with occupancy 0.5.
;
#These two values have been output from a single CSD field.
_refine_ls_R_factor_gt 0.1081
_refine_ls_wR_factor_gt 0.1081
_symmetry_cell_setting triclinic
_symmetry_space_group_name_H-M 'P -1'
_symmetry_Int_Tables_number 2
loop_
_symmetry_equiv_pos_site_id
_symmetry_equiv_pos_as_xyz
1 x,y,z
2 -x,-y,-z
_cell_length_a 9.8441(11)
_cell_length_b 13.3787(18)
_cell_length_c 13.8506(17)
_cell_angle_alpha 112.559(13)
_cell_angle_beta 97.112(10)
_cell_angle_gamma 91.975(10)
_cell_formula_units_Z 2
loop_
_atom_type_symbol
_atom_type_radius_bond
C 0.68
H 0.23
In 1.42
N 0.68
O 0.68
loop_
_atom_site_label
_atom_site_type_symbol
_atom_site_fract_x
_atom_site_fract_y
_atom_site_fract_z
In1 In 0.27854(8) 0.19710(6) 0.30073(6)
O1 O 0.3685(10) 0.3596(7) -0.5586(7)
O2 O 1.0413(9) 0.1978(8) 0.3247(7)
O3 O 0.3133(8) 0.2141(7) -0.5317(6)
O4 O 1.1607(10) 1.0606(7) 0.1393(7)
O5 O 1.1350(8) 0.2981(7) 0.2552(7)
O6 O 0.5214(8) 0.1827(7) 0.3109(7)
O7 O 1.2595(9) 1.0240(7) 0.2706(7)
O8 O 0.4047(8) 0.2440(6) 0.2034(6)
C1 C 0.3646(13) 0.3122(10) -0.4962(10)
C2 C 1.1837(15) 0.9934(10) 0.1808(11)
C3 C 0.8943(12) 0.2857(9) 0.2424(9)
N1 N 0.7583(11) 0.5590(8) -0.0504(8)
C4 C 0.7733(12) 0.2456(10) 0.2614(10)
H1 H 0.77700 0.20350 0.30150
C5 C 0.5160(13) 0.228(1) 0.248(1)
C6 C 0.4282(14) 0.3646(10) -0.3838(10)
C7 C 1.1094(14) 0.8835(10) 0.1351(10)
C8 C 0.5298(14) 0.4507(10) -0.3518(10)
H2 H 0.54660 0.48400 -0.39760
C9 C 0.7592(11) 0.3724(9) 0.1402(9)
C10 C 0.8503(13) 0.5278(10) 0.1029(10)
H3 H 0.91360 0.54920 0.16450
C11 C 0.6464(12) 0.2674(9) 0.2214(9)
C12 C 1.0066(15) 0.853(1) 0.0488(10)
H4 H 0.99370 0.89830 0.01230
C13 C 0.8862(12) 0.3502(9) 0.1825(9)
H5 H 0.96690 0.37880 0.17050
C14 C 0.5775(12) 0.4396(10) -0.1813(10)
C15 C 0.6408(12) 0.3293(9) 0.1614(9)
H6 H 0.55540 0.34280 0.13420
C16 C 0.7559(12) 0.4378(9) 0.0747(9)
C17 C 0.8486(14) 0.5851(10) 0.0375(9)
C18 C 0.6044(15) 0.4862(10) -0.253(1)
H7 H 0.67420 0.54210 -0.23290
C19 C 0.3967(14) 0.3200(11) -0.3129(10)
H8 H 0.32800 0.26330 -0.33360
C20 C 0.4679(14) 0.3603(11) -0.2120(11)
H9 H 0.44220 0.33390 -0.16320
C21 C 0.6631(12) 0.4106(9) -0.0159(9)
H10 H 0.59920 0.35070 -0.03670
C22 C 0.9462(13) 0.687(1) 0.0685(10)
C23 C 0.6647(14) 0.4724(10) -0.0761(9)
C24 C 0.9223(15) 0.7572(10) 0.0149(10)
H11 H 0.85170 0.73950 -0.04180
C25 C 1.0299(13) 0.2574(11) 0.2768(10)
C26 C 1.0537(14) 0.7144(10) 0.1490(11)
H12 H 1.07390 0.66630 0.18140
C27 C 1.1329(14) 0.8122(10) 0.1833(11)
H13 H 1.20340 0.82990 0.24000
N2 N 0.8524(18) 0.3470(13) 0.5462(12)
O9 O 0.7829(18) 0.1853(12) 0.5593(13)
C28 C 0.819(2) 0.4330(15) 0.5136(16)
H14 H 0.73610 0.41070 0.46310
H15 H 0.89250 0.45040 0.48200
H16 H 0.80450 0.49580 0.57390
C29 C 0.761(3) 0.2653(19) 0.5350(16)
H17 H 0.67160 0.26800 0.50590
C30 C 0.995(2) 0.348(2) 0.5880(17)
H18 H 1.00420 0.29100 0.61370
H19 H 1.02410 0.41690 0.64480
H20 H 1.05040 0.33670 0.53310
N3 N 0.6812(18) -0.0554(12) 0.1439(12)
O10 O 0.766(2) -0.0887(14) 0.2854(12)
C31 C 0.777(3) -0.0444(16) 0.2243(15)
H21 H 0.85720 -0.00060 0.23460
C32 C 0.707(2) -0.0076(18) 0.0696(16)
H22 H 0.79430 0.03420 0.09270
H23 H 0.63580 0.03890 0.06560
H24 H 0.70640 -0.06410 0.00100
C33 C 0.548(3) -0.114(3) 0.121(3)
H25 H 0.54280 -0.17710 0.05640
H26 H 0.47850 -0.06800 0.11360
H27 H 0.53500 -0.13600 0.17770
N4? N 0.431(5) 0.011(5) 0.492(4)
C34? C 0.0736(17) 0.0444(14) 0.4606(13)
H28? H -0.02010 -0.00070 0.42130
H29? H 0.13250 0.00970 0.42260
H30? H 0.16000 0.06490 0.51200
N5? N -0.003(2) -0.0438(16) 0.4594(17)
H31? H 0.01560 -0.11170 0.43050
C35? C 0.510(4) -0.028(3) 0.411(2)
H32? H 0.53080 0.01910 0.37520
H33? H 0.50160 -0.10510 0.36560
H34? H 0.59530 -0.04030 0.38050
H35? H 0.38640 -0.07660 0.47880
In1* In 0.27854(8) 0.19710(6) -0.69927(6)
In1** In 1.27854(8) 0.19710(6) 0.30073(6)
In1*** In 1.27854(8) 1.19710(6) 0.30073(6)
O1* O 0.3685(10) 0.3596(7) 0.4414(7)
O2* O 0.0413(9) 0.1978(8) 0.3247(7)
O3* O 0.3133(8) 0.2141(7) 0.4683(6)
O4* O 0.1607(10) 0.0606(7) 0.1393(7)
O5* O 0.1350(8) 0.2981(7) 0.2552(7)
O7* O 0.2595(9) 0.0240(7) 0.2706(7)
#END
