
#######################################################################
#
#                 Cambridge Crystallographic Data Centre
#                                CCDC
#
#######################################################################
#
# If this CIF has been generated from an entry in the Cambridge
# Structural Database, then it will include bibliographic, chemical,
# crystal, experimental, refinement or atomic coordinate data resulting
# from the CCDC's data processing and validation procedures.
#
#######################################################################

data_CSD_CIF_JESDUG04
_audit_creation_date 2011-08-21
_audit_creation_method CSD-ConQuest-V1
_database_code_CSD JESDUG04
_database_code_depnum_ccdc_archive 'CCDC 784974; not CCDC 748974 as published'
_chemical_formula_sum 'C22 H16 Br1 Cu1 N3 S16'
_chemical_formula_moiety
;
(C10 H8 S8 1+)n,n(C10 H8 S8),n(C2 Br1 Cu1 N3 1-)
;
_journal_coden_Cambridge 1290
_journal_year 2011
_journal_page_first 1205
_journal_name_full 'Eur.J.Inorg.Chem. '
loop_
_publ_author_name
"F.Schodel"
"U.Tutsch"
"F.Isselbacher"
"D.Schweitzer"
"I.Sanger"
"M.Bolte"
"J.W.Bats"
"J.Muller"
"M.Lang"
"M.Wagner"
"H.-W.Lerner"
_chemical_name_systematic
;
catena-((\m~2~-dicyanamido)-bromo-copper 
bis(bis(ethylenedithio)tetrathiafulvalene))
;
_cell_volume   3288.358
_exptl_crystal_colour 'black'
_exptl_crystal_density_diffrn 1.977
_exptl_crystal_description 'block'
_diffrn_ambient_temperature 173
#These two values have been output from a single CSD field.
_refine_ls_R_factor_gt 0.0299
_refine_ls_wR_factor_gt 0.0299
_symmetry_cell_setting orthorhombic
_symmetry_space_group_name_H-M 'P n m a'
_symmetry_Int_Tables_number 62
loop_
_symmetry_equiv_pos_site_id
_symmetry_equiv_pos_as_xyz
1 x,y,z
2 1/2-x,-y,1/2+z
3 1/2+x,1/2-y,1/2-z
4 -x,1/2+y,-z
5 -x,-y,-z
6 -1/2+x,y,-1/2-z
7 -1/2-x,-1/2+y,-1/2+z
8 x,-1/2-y,z
_cell_length_a 12.9332(5)
_cell_length_b 29.8053(15)
_cell_length_c 8.5306(3)
_cell_angle_alpha 90
_cell_angle_beta 90
_cell_angle_gamma 90
_cell_formula_units_Z 4
loop_
_atom_type_symbol
_atom_type_radius_bond
C 0.68
H 0.23
Br 1.21
Cu 1.32
N 0.68
S 1.02
loop_
_atom_site_label
_atom_site_type_symbol
_atom_site_fract_x
_atom_site_fract_y
_atom_site_fract_z
S1 S -0.02765(6) 0.52211(2) 0.26728(8)
S2 S 0.09782(5) 0.56539(2) 0.02136(8)
S3 S 0.11694(5) 0.43729(2) 0.26808(8)
S4 S 0.24672(5) 0.47467(2) 0.01605(8)
S5 S -0.15429(6) 0.60085(3) 0.33899(9)
S6 S -0.00516(7) 0.65334(2) 0.04272(9)
S7 S 0.23611(6) 0.35374(2) 0.30643(8)
S8 S 0.38965(6) 0.39821(3) -0.00002(10)
C1 C 0.0786(2) 0.51889(9) 0.1411(3)
C2 C 0.1407(2) 0.48168(9) 0.1400(3)
C3 C -0.0557(2) 0.57829(9) 0.2239(3)
C4 C 0.0016(2) 0.59812(9) 0.1112(3)
C5 C 0.2221(2) 0.40484(9) 0.2071(3)
C6 C 0.2816(2) 0.42187(9) 0.0907(3)
C7 C -0.1799(3) 0.65276(12) 0.2437(5)
H1 H -0.22180 0.64680 0.14880
H2 H -0.22190 0.67170 0.31460
C8 C -0.0870(3) 0.67811(12) 0.1973(5)
H3 H -0.04370 0.68250 0.29180
H4 H -0.10930 0.70820 0.16160
C9 C 0.3198(3) 0.3240(1) 0.1718(3)
H5 H 0.34230 0.29560 0.22160
H6 H 0.27970 0.31610 0.07680
C10 C 0.4150(2) 0.35036(11) 0.1227(4)
H7 H 0.46240 0.32990 0.06620
H8 H 0.45120 0.36070 0.21830
Br1 Br 0.35999(4) 0.25000 0.83432(5)
Cu1 Cu 0.37249(4) 0.25000 0.56097(6)
N1 N 0.0592(3) 0.25000 0.3557(5)
N2 N 0.2357(3) 0.25000 0.4576(4)
N3 N -0.0143(3) 0.25000 0.0922(4)
C11 C 0.1546(3) 0.25000 0.4006(5)
C12 C 0.0273(3) 0.25000 0.2109(5)
Cu1B Cu -0.12751(4) 0.25000 -0.06097(6)
N3B N 0.4857(3) 0.25000 0.4078(4)
#END
