
#######################################################################
#
#                 Cambridge Crystallographic Data Centre
#                                CCDC
#
#######################################################################
#
# If this CIF has been generated from an entry in the Cambridge
# Structural Database, then it will include bibliographic, chemical,
# crystal, experimental, refinement or atomic coordinate data resulting
# from the CCDC's data processing and validation procedures.
#
#######################################################################

data_CSD_CIF_JESDUG
_audit_creation_date 1991-06-09
_audit_creation_method CSD-ConQuest-V1
_database_code_CSD JESDUG
_chemical_formula_sum 'C22 H16 Br1 Cu1 N3 S16'
_chemical_formula_moiety
;
(C10 H8 S8 1+)n,n(C10 H8 S8),n(C2 Br1 Cu1 N3 1-)
;
_journal_coden_Cambridge 9
_journal_volume 29
_journal_year 1990
_journal_page_first 2555
_journal_name_full 'Inorg.Chem. '
loop_
_publ_author_name
"A.M.Kini"
"U.Geiser"
"H.H.Wang"
"K.D.Carlson"
"J.M.Williams"
"W.K.Kwok"
"K.G.Vandervoort"
"J.E.Thompson"
"D.L.Stupka"
"D.Jung"
"Myung-Hwan Whangbo"
_chemical_name_systematic
;
catena(bis(bis(Ethylenedithio)tetrathiafulvalene) 
bromo-(\m~2~-dicyanamido)-copper)
;
_cell_volume   3317.120
_exptl_crystal_colour 'black'
_exptl_crystal_density_diffrn 1.98
_exptl_special_details
;
kappa polymorph

;
_diffrn_ambient_temperature ?
_diffrn_special_details
;
The study was carried out at room temperature,in the range 283-303K

;
#These two values have been output from a single CSD field.
_refine_ls_R_factor_gt 0.054
_refine_ls_wR_factor_gt 0.054
_symmetry_cell_setting orthorhombic
_symmetry_space_group_name_H-M 'P n m a'
_symmetry_Int_Tables_number 62
loop_
_symmetry_equiv_pos_site_id
_symmetry_equiv_pos_as_xyz
1 x,y,z
2 1/2-x,-y,1/2+z
3 1/2+x,1/2-y,1/2-z
4 -x,1/2+y,-z
5 -x,-y,-z
6 -1/2+x,y,-1/2-z
7 -1/2-x,-1/2+y,-1/2+z
8 x,-1/2-y,z
_cell_length_a 12.942(3)
_cell_length_b 30.016(4)
_cell_length_c 8.539(3)
_cell_angle_alpha 90
_cell_angle_beta 90
_cell_angle_gamma 90
_cell_formula_units_Z 4
loop_
_atom_type_symbol
_atom_type_radius_bond
C 0.68
Br 1.18
Cu 1.52
N 0.68
S 1.02
loop_
_atom_site_label
_atom_site_type_symbol
_atom_site_fract_x
_atom_site_fract_y
_atom_site_fract_z
S1 S -0.0265(2) 0.52272(9) 0.2676(3)
S2 S 0.0998(2) 0.56472(8) 0.0233(3)
S3 S 0.1161(2) 0.43775(8) 0.2682(3)
S4 S 0.2455(2) 0.47437(9) 0.0174(3)
S5 S -0.1511(2) 0.60154(10) 0.3367(4)
S6 S 0.0009(3) 0.65259(9) 0.0454(4)
S7 S 0.2321(2) 0.35444(9) 0.3028(4)
S8 S 0.3847(2) 0.39789(10) -0.0017(4)
C1 C 0.0788(7) 0.5185(3) 0.1437(11)
C2 C 0.1397(7) 0.4819(3) 0.141(1)
C3 C -0.0531(7) 0.5780(3) 0.2244(11)
C4 C 0.0042(7) 0.5979(3) 0.1158(12)
C5 C 0.2197(7) 0.4054(3) 0.2063(12)
C6 C 0.2781(7) 0.4217(3) 0.0922(12)
C7 C -0.1696(12) 0.6555(4) 0.251(2)
C8 C -0.0861(10) 0.6774(4) 0.196(2)
C9 C 0.3168(9) 0.3254(4) 0.1732(14)
C10 C 0.4103(9) 0.3515(4) 0.1252(13)
Cu1 Cu 0.3647(2) 0.25000 0.5586(2)
Br1 Br 0.3556(2) 0.25000 0.8303(2)
N1 N 0.0566(12) 0.25000 0.354(2)
N2 N 0.2296(12) 0.25000 0.455(2)
N3 N -0.0219(11) 0.25000 0.091(2)
C11 C 0.1512(14) 0.25000 0.397(2)
C12 C 0.0215(12) 0.25000 0.207(2)
N3B N 0.4781(11) 0.25000 0.409(2)
Cu1B Cu -0.1353(2) 0.25000 -0.0586(2)
#END
