
#######################################################################
#
#                 Cambridge Crystallographic Data Centre
#                                CCDC
#
#######################################################################
#
# If this CIF has been generated from an entry in the Cambridge
# Structural Database, then it will include bibliographic, chemical,
# crystal, experimental, refinement or atomic coordinate data resulting
# from the CCDC's data processing and validation procedures.
#
#######################################################################

data_CSD_CIF_JESDUG06
_audit_creation_date 2014-12-23
_audit_creation_method CSD-ConQuest-V1
_database_code_CSD JESDUG06
_database_code_depnum_ccdc_archive 'CCDC 1016181'
_chemical_formula_sum 'C22 H16 Br1 Cu1 N3 S16'
_chemical_formula_moiety
;
C10 H8 S8 1+,C10 H8 S8,n(C2 Br1 Cu1 N3 1-)
;
_journal_coden_Cambridge 1695
_journal_volume 3
_journal_year 2015
_journal_page_first 1378
_journal_name_full 'J.Mater.Chem.C '
loop_
_publ_author_name
"T.Hiramatsu"
"Y.Yoshida"
"G.Saito"
"A.Otsuka"
"H.Yamochi"
"M.Maesato"
"Y.Shimizu"
"H.Ito"
"H.Kishida"
_chemical_name_systematic
;
catena(bis(bis(Ethylenedithio)tetrathiafulvalene) 
bromo-(\m~2~-dicyanamido)-copper)
;
_cell_volume   3263.258
_exptl_crystal_colour 'black'
_exptl_crystal_density_diffrn 1.992
_exptl_special_details
;
Magnetic properties, electronic property
kappa polymorph

;
_exptl_crystal_description 'rhombic plate'
_exptl_crystal_preparation 'electrocrystallization'
_diffrn_ambient_temperature 150
_refine_special_details
;
C10A,C9A and C10B,C9B disordered over two sites with occupancies 0.825:0.175.

;
#These two values have been output from a single CSD field.
_refine_ls_R_factor_gt 0.0427
_refine_ls_wR_factor_gt 0.0427
_symmetry_cell_setting orthorhombic
_symmetry_space_group_name_H-M 'P n m a'
_symmetry_Int_Tables_number 62
loop_
_symmetry_equiv_pos_site_id
_symmetry_equiv_pos_as_xyz
1 x,y,z
2 1/2-x,-y,1/2+z
3 1/2+x,1/2-y,1/2-z
4 -x,1/2+y,-z
5 -x,-y,-z
6 -1/2+x,y,-1/2-z
7 -1/2-x,-1/2+y,-1/2+z
8 x,-1/2-y,z
_cell_length_a 12.8991(12)
_cell_length_b 29.754(3)
_cell_length_c 8.5025(8)
_cell_angle_alpha 90
_cell_angle_beta 90
_cell_angle_gamma 90
_cell_formula_units_Z 4
loop_
_atom_type_symbol
_atom_type_radius_bond
C 0.68
H 0.23
Br 1.21
Cu 1.32
N 0.68
S 1.02
loop_
_atom_site_label
_atom_site_type_symbol
_atom_site_fract_x
_atom_site_fract_y
_atom_site_fract_z
C1 C 0.6414(3) -0.01828(12) 0.3604(5)
C2 C 0.5784(3) 0.01887(12) 0.3592(5)
C3 C 0.7817(3) -0.07818(13) 0.4092(5)
C4 C 0.7224(3) -0.09506(12) 0.2927(4)
C5 C 0.5013(3) 0.09810(13) 0.3880(5)
C6 C 0.4443(3) 0.07831(13) 0.2762(5)
C7 C 0.9153(3) -0.14954(15) 0.3761(5)
H1 H 0.95150 -0.13880 0.27900
H2 H 0.96370 -0.17020 0.43250
C8 C 0.8205(4) -0.17589(14) 0.3275(5)
H3 H 0.78010 -0.18390 0.42390
H4 H 0.84330 -0.20460 0.27680
C9 C 0.4140(5) 0.17860(17) 0.2992(7)
H5 H 0.39270 0.20950 0.33290
H6 H 0.45770 0.18190 0.20270
C10 C 0.3183(5) 0.15251(17) 0.2571(7)
H7 H 0.27390 0.17140 0.18680
H8 H 0.27800 0.14630 0.35520
S1 S 0.74697(7) -0.02528(3) 0.48426(12)
S2 S 0.61681(8) -0.06275(3) 0.23194(12)
S3 S 0.59773(8) 0.06547(3) 0.47895(12)
S4 S 0.47211(8) 0.02202(3) 0.23292(12)
S5 S 0.89005(9) -0.10185(4) 0.50013(14)
S6 S 0.73651(8) -0.14625(3) 0.19340(12)
S7 S 0.4945(1) 0.15339(3) 0.45716(13)
S8 S 0.34513(9) 0.10076(4) 0.16114(13)
C11? C 0.3857(18) 0.1727(8) 0.392(3)
H9? H 0.32750 0.15770 0.44890
H10? H 0.38180 0.20560 0.41450
C12? C 0.3723(18) 0.1654(7) 0.218(3)
H11? H 0.43640 0.17570 0.16250
H12? H 0.31320 0.18420 0.18000
C13 C 0.8445(5) 0.25000 0.5997(7)
C14 C 0.9724(4) 0.25000 0.7903(8)
N1 N 0.7635(4) 0.25000 0.5427(6)
N2 N 0.9404(4) 0.25000 0.6439(7)
N3 N 1.0140(4) 0.25000 0.9085(6)
Cu1 Cu 0.62733(6) 0.25000 0.43860(9)
Br1 Br 0.64027(6) 0.25000 0.16490(7)
N3B N 0.5140(4) 0.25000 0.5915(6)
Cu1B Cu 1.12733(6) 0.25000 1.06140(9)
#END
