
#######################################################################
#
#                 Cambridge Crystallographic Data Centre
#                                CCDC
#
#######################################################################
#
# If this CIF has been generated from an entry in the Cambridge
# Structural Database, then it will include bibliographic, chemical,
# crystal, experimental, refinement or atomic coordinate data resulting
# from the CCDC's data processing and validation procedures.
#
#######################################################################

data_CSD_CIF_JESDUG09
_audit_creation_date 2014-12-23
_audit_creation_method CSD-ConQuest-V1
_database_code_CSD JESDUG09
_database_code_depnum_ccdc_archive 'CCDC 1016184'
_chemical_formula_sum 'C22 H16 Br1 Cu1 N3 S16'
_chemical_formula_moiety
;
C10 H8 S8 1+,C10 H8 S8,n(C2 Br1 Cu1 N3 1-)
;
_journal_coden_Cambridge 1695
_journal_volume 3
_journal_year 2015
_journal_page_first 1378
_journal_name_full 'J.Mater.Chem.C '
loop_
_publ_author_name
"T.Hiramatsu"
"Y.Yoshida"
"G.Saito"
"A.Otsuka"
"H.Yamochi"
"M.Maesato"
"Y.Shimizu"
"H.Ito"
"H.Kishida"
_chemical_name_systematic
;
catena(bis(bis(Ethylenedithio)tetrathiafulvalene) 
bromo-(\m~2~-dicyanamido)-copper)
;
_cell_volume   3326.523
_exptl_crystal_colour 'black'
_exptl_crystal_density_diffrn 1.954
_exptl_special_details
;
Magnetic properties, electronic property
kappa polymorph

;
_exptl_crystal_description 'rhombic plate'
_exptl_crystal_preparation 'electrocrystallization'
_diffrn_ambient_temperature 298
_refine_special_details
;
C10A,C9A and C10B,C9B disordered over two sites with occupancies 0.71:0.29.

;
#These two values have been output from a single CSD field.
_refine_ls_R_factor_gt 0.0463
_refine_ls_wR_factor_gt 0.0463
_symmetry_cell_setting orthorhombic
_symmetry_space_group_name_H-M 'P n m a'
_symmetry_Int_Tables_number 62
loop_
_symmetry_equiv_pos_site_id
_symmetry_equiv_pos_as_xyz
1 x,y,z
2 1/2-x,-y,1/2+z
3 1/2+x,1/2-y,1/2-z
4 -x,1/2+y,-z
5 -x,-y,-z
6 -1/2+x,y,-1/2-z
7 -1/2-x,-1/2+y,-1/2+z
8 x,-1/2-y,z
_cell_length_a 12.9653(13)
_cell_length_b 30.028(3)
_cell_length_c 8.5444(9)
_cell_angle_alpha 90
_cell_angle_beta 90
_cell_angle_gamma 90
_cell_formula_units_Z 4
loop_
_atom_type_symbol
_atom_type_radius_bond
C 0.68
H 0.23
Br 1.21
Cu 1.32
N 0.68
S 1.02
loop_
_atom_site_label
_atom_site_type_symbol
_atom_site_fract_x
_atom_site_fract_y
_atom_site_fract_z
C1 C 0.6402(3) -0.01821(13) 0.3589(5)
C2 C 0.5791(3) 0.01874(13) 0.3578(5)
C3 C 0.7778(3) -0.07824(13) 0.4102(5)
C4 C 0.7194(3) -0.09464(13) 0.2939(5)
C5 C 0.5051(3) 0.09771(13) 0.3867(5)
C6 C 0.4478(3) 0.07850(13) 0.2764(5)
C7 C 0.9103(4) -0.14882(18) 0.3756(6)
H1 H 0.94620 -0.13780 0.27950
H2 H 0.95870 -0.16940 0.43100
C8 C 0.8176(4) -0.17478(15) 0.3264(6)
H3 H 0.77830 -0.18360 0.42220
H4 H 0.84120 -0.20270 0.27360
C9 C 0.4199(7) 0.1779(2) 0.2995(15)
H5 H 0.39950 0.20840 0.33420
H6 H 0.46300 0.18130 0.20320
C10 C 0.3239(9) 0.1529(3) 0.2563(12)
H7 H 0.28130 0.17170 0.18480
H8 H 0.28260 0.14730 0.35310
S1 S 0.74511(8) -0.02553(3) 0.48248(13)
S2 S 0.61564(9) -0.06223(3) 0.23158(13)
S3 S 0.60036(8) 0.06483(3) 0.47649(13)
S4 S 0.47345(9) 0.02283(3) 0.23259(13)
S5 S 0.8848(1) -0.10215(5) 0.50074(17)
S6 S 0.73198(10) -0.14564(4) 0.19675(14)
S7 S 0.50148(13) 0.15255(4) 0.45533(16)
S8 S 0.34933(11) 0.10158(4) 0.16377(16)
C11? C 0.3930(15) 0.1725(7) 0.388(3)
H9? H 0.33460 0.15870 0.44700
H10? H 0.39110 0.20530 0.40790
C12? C 0.377(2) 0.1644(8) 0.217(3)
H11? H 0.44050 0.17430 0.15920
H12? H 0.31830 0.18310 0.17980
C13 C 0.8501(5) 0.25000 0.6047(8)
C14 C 0.9785(5) 0.25000 0.7938(9)
N1 N 0.7715(5) 0.25000 0.5473(7)
N2 N 0.9451(5) 0.25000 0.6491(8)
N3 N 1.0228(4) 0.25000 0.9076(7)
Cu1 Cu 0.63661(7) 0.25000 0.44106(10)
Br1 Br 0.64566(7) 0.25000 0.16935(8)
N3B N 0.5228(4) 0.25000 0.5924(7)
Cu1B Cu 1.13661(7) 0.25000 1.05894(10)
#END
