
#######################################################################
#
#                 Cambridge Crystallographic Data Centre
#                                CCDC
#
#######################################################################
#
# If this CIF has been generated from an entry in the Cambridge
# Structural Database, then it will include bibliographic, chemical,
# crystal, experimental, refinement or atomic coordinate data resulting
# from the CCDC's data processing and validation procedures.
#
#######################################################################

data_CSD_CIF_JESDUG08
_audit_creation_date 2014-12-23
_audit_creation_method CSD-ConQuest-V1
_database_code_CSD JESDUG08
_database_code_depnum_ccdc_archive 'CCDC 1016183'
_chemical_formula_sum 'C22 H16 Br1 Cu1 N3 S16'
_chemical_formula_moiety
;
C10 H8 S8 1+,C10 H8 S8,n(C2 Br1 Cu1 N3 1-)
;
_journal_coden_Cambridge 1695
_journal_volume 3
_journal_year 2015
_journal_page_first 1378
_journal_name_full 'J.Mater.Chem.C '
loop_
_publ_author_name
"T.Hiramatsu"
"Y.Yoshida"
"G.Saito"
"A.Otsuka"
"H.Yamochi"
"M.Maesato"
"Y.Shimizu"
"H.Ito"
"H.Kishida"
_chemical_name_systematic
;
catena(bis(bis(Ethylenedithio)tetrathiafulvalene) 
bromo-(\m~2~-dicyanamido)-copper)
;
_cell_volume   3303.879
_exptl_crystal_colour 'black'
_exptl_crystal_density_diffrn 1.968
_exptl_special_details
;
Magnetic properties, electronic property
kappa polymorph

;
_exptl_crystal_description 'rhombic plate'
_exptl_crystal_preparation 'electrocrystallization'
_diffrn_ambient_temperature 250
_refine_special_details
;
C10A,C9A and C10B,C9B disordered over two sites with occupancies 0.744:0.256.

;
#These two values have been output from a single CSD field.
_refine_ls_R_factor_gt 0.0446
_refine_ls_wR_factor_gt 0.0446
_symmetry_cell_setting orthorhombic
_symmetry_space_group_name_H-M 'P n m a'
_symmetry_Int_Tables_number 62
loop_
_symmetry_equiv_pos_site_id
_symmetry_equiv_pos_as_xyz
1 x,y,z
2 1/2-x,-y,1/2+z
3 1/2+x,1/2-y,1/2-z
4 -x,1/2+y,-z
5 -x,-y,-z
6 -1/2+x,y,-1/2-z
7 -1/2-x,-1/2+y,-1/2+z
8 x,-1/2-y,z
_cell_length_a 12.9342(13)
_cell_length_b 29.937(3)
_cell_length_c 8.5325(8)
_cell_angle_alpha 90
_cell_angle_beta 90
_cell_angle_gamma 90
_cell_formula_units_Z 4
loop_
_atom_type_symbol
_atom_type_radius_bond
C 0.68
H 0.23
Br 1.21
Cu 1.32
N 0.68
S 1.02
loop_
_atom_site_label
_atom_site_type_symbol
_atom_site_fract_x
_atom_site_fract_y
_atom_site_fract_z
C1 C 0.6409(3) -0.01823(12) 0.3597(5)
C2 C 0.5789(3) 0.01877(12) 0.3582(5)
C3 C 0.7793(3) -0.07834(13) 0.4101(5)
C4 C 0.7204(3) -0.09488(12) 0.2936(5)
C5 C 0.5041(3) 0.09791(12) 0.3875(5)
C6 C 0.4466(3) 0.07845(13) 0.2766(5)
C7 C 0.9122(4) -0.14909(17) 0.3758(6)
H1 H 0.94810 -0.13800 0.27950
H2 H 0.96090 -0.16970 0.43130
C8 C 0.8188(4) -0.17527(14) 0.3267(5)
H3 H 0.77920 -0.18400 0.42260
H4 H 0.84230 -0.20340 0.27430
C9 C 0.4184(6) 0.1780(2) 0.2994(12)
H5 H 0.39800 0.20880 0.33320
H6 H 0.46190 0.18120 0.20310
C10 C 0.3216(8) 0.1528(2) 0.2562(10)
H7 H 0.27860 0.17170 0.18490
H8 H 0.28040 0.14700 0.35340
S1 S 0.74590(8) -0.02552(3) 0.48333(12)
S2 S 0.61617(8) -0.06236(3) 0.23154(12)
S3 S 0.59964(8) 0.06501(3) 0.47765(12)
S4 S 0.47310(8) 0.02261(3) 0.23274(13)
S5 S 0.88641(10) -0.10225(4) 0.50104(16)
S6 S 0.73344(9) -0.14589(4) 0.19571(13)
S7 S 0.49923(12) 0.15283(4) 0.45629(15)
S8 S 0.34787(10) 0.10136(4) 0.16314(15)
C11? C 0.3902(15) 0.1728(7) 0.390(3)
H9? H 0.33180 0.15890 0.44860
H10? H 0.38820 0.20570 0.40950
C12? C 0.375(2) 0.1646(7) 0.217(2)
H11? H 0.43790 0.17480 0.15990
H12? H 0.31530 0.18320 0.18030
C13 C 0.8479(5) 0.25000 0.6028(8)
C14 C 0.9764(5) 0.25000 0.7927(8)
N1 N 0.7686(4) 0.25000 0.5456(7)
N2 N 0.9434(5) 0.25000 0.6474(8)
N3 N 1.0197(4) 0.25000 0.9081(7)
Cu1 Cu 0.63309(7) 0.25000 0.44002(9)
Br1 Br 0.64360(7) 0.25000 0.16764(8)
N3B N 0.5197(4) 0.25000 0.5919(7)
Cu1B Cu 1.13309(7) 0.25000 1.05998(9)
#END
