
#######################################################################
#
#                 Cambridge Crystallographic Data Centre
#                                CCDC
#
#######################################################################
#
# If this CIF has been generated from an entry in the Cambridge
# Structural Database, then it will include bibliographic, chemical,
# crystal, experimental, refinement or atomic coordinate data resulting
# from the CCDC's data processing and validation procedures.
#
#######################################################################

data_CSD_CIF_JETTUY
_audit_creation_date 2007-04-27
_audit_creation_method CSD-ConQuest-V1
_database_code_CSD JETTUY
_database_code_depnum_ccdc_archive 'CCDC 284101'
_chemical_formula_sum 'C18 H26 Cu2 Mo8 N12 O27'
_chemical_formula_moiety
;
(C12 H16 Cu2 Mo8 N8 O27 2-)n,2n(C3 H5 N2 1+)
;
_journal_coden_Cambridge 1290
_journal_year 2007
_journal_page_first 568
_journal_name_full 'Eur.J.Inorg.Chem. '
loop_
_publ_author_name
"K.Pavani"
"S.E.Lofland"
"K.V.Ramanujachary"
"A.Ramanan"
_chemical_name_systematic
;
catena-(bis(imidazolium) 
(\m~5~-heptaoxaoctamolybdate)-tetrakis(imidazole)-di-copper(ii))
;
_cell_volume   1057.804
_exptl_crystal_colour 'green'
_exptl_crystal_density_diffrn 2.727
_exptl_crystal_description 'Blocks'
_diffrn_ambient_temperature 300
#These two values have been output from a single CSD field.
_refine_ls_R_factor_gt 0.0578
_refine_ls_wR_factor_gt 0.0578
_symmetry_cell_setting triclinic
_symmetry_space_group_name_H-M 'P -1'
_symmetry_Int_Tables_number 2
loop_
_symmetry_equiv_pos_site_id
_symmetry_equiv_pos_as_xyz
1 x,y,z
2 -x,-y,-z
_cell_length_a 9.429(3)
_cell_length_b 9.875(4)
_cell_length_c 12.591(4)
_cell_angle_alpha 71.427(7)
_cell_angle_beta 81.358(7)
_cell_angle_gamma 72.474(7)
_cell_formula_units_Z 1
loop_
_atom_type_symbol
_atom_type_radius_bond
C 0.68
H 0.23
Cu 1.52
Mo 1.37
N 0.68
O 0.68
loop_
_atom_site_label
_atom_site_type_symbol
_atom_site_fract_x
_atom_site_fract_y
_atom_site_fract_z
Cu1 Cu -0.28306(14) -0.19696(13) 0.29321(10)
Mo1 Mo -0.10805(9) -0.11481(8) 0.01774(7)
Mo2 Mo -0.21484(9) 0.14024(8) 0.14241(7)
Mo3 Mo -0.09027(9) 0.07246(9) -0.26342(7)
Mo4 Mo -0.41260(9) 0.13455(9) -0.11331(7)
O1 O -0.4886(7) 0.1283(8) -0.2265(6)
O2 O -0.5117(7) 0.2970(7) -0.0896(6)
O3 O -0.50000 0.00000 0.00000
O4 O -0.2150(7) -0.0681(6) -0.1075(5)
O5 O -0.2583(7) 0.1000(6) 0.0185(5)
O6 O 0.0497(7) -0.2481(6) -0.0114(5)
O7 O -0.2014(7) -0.2091(7) 0.1343(5)
O8 O 0.0159(7) 0.0338(6) -0.1052(5)
O9 O -0.3022(7) 0.0195(7) 0.2429(5)
O10 O -0.3262(7) 0.3128(7) 0.1388(5)
O11 O -0.0644(7) 0.1216(6) 0.2363(5)
O12 O -0.1780(7) 0.0427(7) -0.3599(6)
O13 O 0.0136(7) 0.1894(7) -0.3387(5)
O14 O -0.2479(7) 0.2088(7) -0.2074(5)
C1 C -0.3041(12) -0.1103(11) 0.4975(9)
H1 H -0.23630 -0.05470 0.46580
C2 C -0.4577(13) -0.2142(13) 0.6179(10)
H2 H -0.51650 -0.24430 0.68240
C3 C -0.4411(12) -0.2541(11) 0.5229(9)
H3 H -0.48780 -0.31780 0.51030
C4 C -0.1693(12) -0.5087(13) 0.4349(9)
H4 H -0.14740 -0.47980 0.49270
C5 C -0.1382(15) -0.6496(12) 0.4334(10)
H5 H -0.09540 -0.73450 0.48920
C6 C -0.2430(12) -0.5007(11) 0.2811(9)
H6 H -0.28430 -0.46710 0.21170
C7 C -0.8723(14) -0.5235(12) 0.2148(11)
H7 H -0.95350 -0.49020 0.26080
C8 C -0.7184(12) -0.6444(12) 0.1098(9)
H8 H -0.67400 -0.71180 0.06920
C9 C -0.6681(14) -0.5441(14) 0.1137(10)
H9 H -0.57920 -0.52660 0.07720
N1 N -0.3458(9) -0.1869(9) 0.4487(7)
N2 N -0.3711(11) -0.1213(10) 0.5997(8)
H10 H -0.36090 -0.07720 0.64580
N3 N -0.2379(9) -0.4119(8) 0.3397(7)
N4 N -0.1825(10) -0.6429(9) 0.3325(8)
H11 H -0.17290 -0.71680 0.30730
N5 N -0.8469(16) -0.6414(13) 0.1732(11)
H12 H -0.90160 -0.70110 0.18500
N6 N -0.7568(10) -0.4662(9) 0.1761(8)
H13 H -0.74310 -0.39120 0.18970
Cu1A Cu -0.71694(14) 0.19696(13) -0.29321(10)
Cu1A* Cu 0.28306(14) 0.19696(13) -0.29321(10)
Cu1* Cu 0.71694(14) -0.19696(13) 0.29321(10)
Mo1A Mo 0.10805(9) 0.11481(8) -0.01774(7)
Mo2A Mo 0.21484(9) -0.14024(8) -0.14241(7)
Mo3A Mo 0.09027(9) -0.07246(9) 0.26342(7)
Mo4A Mo -0.58740(9) -0.13455(9) 0.11331(7)
Mo4A* Mo 0.41260(9) -0.13455(9) 0.11331(7)
O1A O -0.5114(7) -0.1283(8) 0.2265(6)
O1A* O 0.4886(7) -0.1283(8) 0.2265(6)
O1* O 0.5114(7) 0.1283(8) -0.2265(6)
O2A O 0.5117(7) -0.2970(7) 0.0896(6)
O3* O 0.50000 0.00000 0.00000
O4A O 0.2150(7) 0.0681(6) 0.1075(5)
O5A O 0.2583(7) -0.1000(6) -0.0185(5)
O6A O -0.0497(7) 0.2481(6) 0.0114(5)
O7A O 0.2014(7) 0.2091(7) -0.1343(5)
O8A O -0.0159(7) -0.0338(6) 0.1052(5)
O9A O 0.3022(7) -0.0195(7) -0.2429(5)
O10A O 0.3262(7) -0.3128(7) -0.1388(5)
O11A O 0.0644(7) -0.1216(6) -0.2363(5)
O12A O 0.1780(7) -0.0427(7) 0.3599(6)
O13A O -0.0136(7) -0.1894(7) 0.3387(5)
O14A O 0.2479(7) -0.2088(7) 0.2074(5)
C1A C 0.3041(12) 0.1103(11) -0.4975(9)
H1A H 0.23630 0.05470 -0.46580
C2A C 0.4577(13) 0.2142(13) -0.6179(10)
H2A H 0.51650 0.24430 -0.68240
C3A C 0.4411(12) 0.2541(11) -0.5229(9)
H3A H 0.48780 0.31780 -0.51030
C4A C 0.1693(12) 0.5087(13) -0.4349(9)
H4A H 0.14740 0.47980 -0.49270
C5A C 0.1382(15) 0.6496(12) -0.4334(10)
H5A H 0.09540 0.73450 -0.48920
C6A C 0.2430(12) 0.5007(11) -0.2811(9)
H6A H 0.28430 0.46710 -0.21170
N1A N 0.3458(9) 0.1869(9) -0.4487(7)
N2A N 0.3711(11) 0.1213(10) -0.5997(8)
H10A H 0.36090 0.07720 -0.64580
N3A N 0.2379(9) 0.4119(8) -0.3397(7)
N4A N 0.1825(10) 0.6429(9) -0.3325(8)
H11A H 0.17290 0.71680 -0.30730
#END
