
#######################################################################
#
#                 Cambridge Crystallographic Data Centre
#                                CCDC
#
#######################################################################
#
# If this CIF has been generated from an entry in the Cambridge
# Structural Database, then it will include bibliographic, chemical,
# crystal, experimental, refinement or atomic coordinate data resulting
# from the CCDC's data processing and validation procedures.
#
#######################################################################

data_CSD_CIF_JEWDOE
_audit_creation_date 1991-06-18
_audit_creation_method CSD-ConQuest-V1
_database_code_CSD JEWDOE
_database_code_depnum_ccdc_fiz 'CSD 54593'
_chemical_formula_sum 'C18 H16 Cu2 N2 O6 S4'
_chemical_formula_moiety
;
(C8 Cu2 O4 S4 2-)n,2n(C5 H6 N1 1+),2n(H2 O1)
;
_journal_coden_Cambridge 644
_journal_volume 45
_journal_year 1990
_journal_page_first 1457
_journal_name_full 'Z.Naturforsch.,B:Chem.Sci. '
loop_
_publ_author_name
"R.Krause"
"R.Mattes"
_chemical_name_systematic
;
catena-(bis(Pyridinium) bis(\m~2~-1,2-dithiosquarato)-di-copper(i) dihydrate)
;
_cell_volume   1099.229
_exptl_crystal_colour 'red'
_exptl_crystal_density_diffrn 1.85
_diffrn_ambient_temperature ?
_diffrn_special_details
;
The study was carried out at room temperature,in the range 283-303K

;
_refine_special_details
;
The cation is disordered with all atoms refined as C.

;
#These two values have been output from a single CSD field.
_refine_ls_R_factor_gt 0.0969
_refine_ls_wR_factor_gt 0.0969
_symmetry_cell_setting triclinic
_symmetry_space_group_name_H-M 'P -1'
_symmetry_Int_Tables_number 2
loop_
_symmetry_equiv_pos_site_id
_symmetry_equiv_pos_as_xyz
1 x,y,z
2 -x,-y,-z
_cell_length_a 7.92(2)
_cell_length_b 10.52(2)
_cell_length_c 14.39(2)
_cell_angle_alpha 102.5(2)
_cell_angle_beta 104.1(2)
_cell_angle_gamma 100.6(2)
_cell_formula_units_Z 2
loop_
_atom_type_symbol
_atom_type_radius_bond
C 0.68
Cu 1.48
O 0.68
S 1.02
loop_
_atom_site_label
_atom_site_type_symbol
_atom_site_fract_x
_atom_site_fract_y
_atom_site_fract_z
Cu1 Cu 0.0072(2) 0.3857(1) 0.0210(1)
Cu2 Cu 0.3311(2) 0.4847(2) -0.0098(1)
S1 S -0.1109(3) 0.2355(2) -0.1301(2)
S2 S 0.1692(3) 0.5728(3) -0.1223(2)
S3 S 0.5626(3) 0.6932(3) 0.1062(2)
S4 S 0.2954(3) 0.3849(3) 0.1165(2)
O1 O 0.0711(13) 0.4405(8) -0.3817(6)
O2 O -0.1812(11) 0.1538(8) -0.3885(5)
O3 O 0.3920(13) 0.5386(9) 0.3808(6)
O4 O 0.6543(13) 0.8114(9) 0.3728(6)
C1 C -0.0569(10) 0.3038(9) -0.2164(6)
C2 C 0.0469(11) 0.4300(9) -0.2149(6)
C3 C 0.0219(14) 0.3906(10) -0.3216(7)
C4 C -0.0949(13) 0.2557(10) -0.3247(7)
C5 C 0.5200(11) 0.6474(10) 0.2052(7)
C6 C 0.4114(11) 0.5281(9) 0.2089(7)
C7 C 0.4413(14) 0.5781(11) 0.3158(8)
C8 C 0.5616(13) 0.7062(11) 0.3124(7)
C9 C 0.4408(15) 0.0669(12) 0.3302(10)
C10 C 0.5940(22) 0.2850(16) 0.4196(12)
C11 C -0.0932(16) 0.0355(14) 0.3315(13)
C12 C 0.5812(20) 0.2141(22) 0.2592(15)
C13 C 0.0646(23) 0.2531(19) 0.4103(13)
C14 C 0.5005(20) 0.1684(22) 0.4187(10)
C15 C 0.4837(20) 0.0934(18) 0.2521(10)
C16 C 0.0280(23) 0.1576(26) 0.2438(13)
C17 C 0.0970(18) 0.2615(16) 0.3209(16)
C18 C -0.0669(28) 0.0465(19) 0.2501(13)
C19 C 0.6379(19) 0.3045(15) 0.3380(16)
C20 C -0.0303(23) 0.1342(26) 0.4124(12)
O5 O 0.1502(51) 0.0413(21) 0.0037(17)
O6 O 0.6220(48) 0.0825(25) 0.0060(17)
O7? O 0.04(12) 0.03(12) 0.01(12)
O8? O 0.3404(88) 0.091(13) 0.0050(71)
Cu1A Cu -0.0072(2) 0.6143(1) -0.0210(1)
Cu2A Cu -0.3311(2) 0.5153(2) 0.0098(1)
S2A S -0.1692(3) 0.4272(3) 0.1223(2)
Cu2A* Cu 0.6689(2) 0.5153(2) 0.0098(1)
S3A S 0.4374(3) 0.3068(3) -0.1062(2)
#END
