
#######################################################################
#
#                 Cambridge Crystallographic Data Centre
#                                CCDC
#
#######################################################################
#
# If this CIF has been generated from an entry in the Cambridge
# Structural Database, then it will include bibliographic, chemical,
# crystal, experimental, refinement or atomic coordinate data resulting
# from the CCDC's data processing and validation procedures.
#
#######################################################################

data_CSD_CIF_JEWYAM
_audit_creation_date 2007-04-27
_audit_creation_method CSD-ConQuest-V1
_database_code_CSD JEWYAM
_database_code_depnum_ccdc_archive 'CCDC 604558'
_chemical_formula_sum 'C380 H708 Cl6 Mn27 N270 O115'
_chemical_formula_moiety
;
(C72 H48 Cl3 Mn12 N96 O12 3-)2n,3n(C30 H72 Mn1 N12 O6 2+),42n(C3 H7 N1 
O1),20n(C1 H4 O1),11n(H2 O1)
;
_journal_coden_Cambridge 4
_journal_volume 128
_journal_year 2006
_journal_page_first 16876
_journal_name_full 'J.Am.Chem.Soc. '
loop_
_publ_author_name
"M.Dinca"
"A.Dailly"
"Yun Liu"
"C.M.Brown"
"D.A.Neumann"
"J.R.Long"
_chemical_name_systematic
;
catena-[tris(hexakis(Dimethylformamide)-manganese(ii)) 
bis(octakis(\m~6~-1,3,5-benzenetris(tetrazolato))-tris(\m~4~-chloro)-dodecakis
(aqua)-dodeca-manganese(ii)) dimethylformamide methanol solvate 
undecahydrate]
;
_cell_volume   6985.177
_exptl_crystal_colour 'colorless'
_exptl_special_details
;
Cations are not shown due to program restrictions

;
_exptl_crystal_description 'cube'
_diffrn_ambient_temperature 166
_refine_special_details
;
Ligated dmf molecules are disordered and only the O atoms have been loctated.

;
#These two values have been output from a single CSD field.
_refine_ls_R_factor_gt 0.0771
_refine_ls_wR_factor_gt 0.0771
_symmetry_cell_setting cubic
_symmetry_space_group_name_H-M 'P m -3 m'
_symmetry_Int_Tables_number 221
loop_
_symmetry_equiv_pos_site_id
_symmetry_equiv_pos_as_xyz
1 x,y,z
2 -y,x,z
3 x,-y,-z
4 z,x,y
5 -x,-y,z
6 y,x,-z
7 -x,z,y
8 y,-x,z
9 -x,y,-z
10 -z,-x,y
11 -y,-x,-z
12 x,-z,y
13 z,-x,-y
14 -x,-z,-y
15 -z,x,-y
16 x,z,-y
17 y,z,x
18 z,-y,x
19 -z,y,x
20 z,y,-x
21 y,-z,-x
22 -z,-y,-x
23 -y,z,-x
24 -y,-z,x
25 -x,-y,-z
26 y,-x,-z
27 -x,y,z
28 -z,-x,-y
29 x,y,-z
30 -y,-x,z
31 x,-z,-y
32 -y,x,-z
33 x,-y,z
34 z,x,-y
35 y,x,z
36 -x,z,-y
37 -z,x,y
38 x,z,y
39 z,-x,y
40 -x,-z,y
41 -y,-z,-x
42 -z,y,-x
43 z,-y,-x
44 -z,-y,x
45 -y,z,x
46 z,y,x
47 y,-z,x
48 y,z,-x
_cell_length_a 19.1158(11)
_cell_length_b 19.1158(11)
_cell_length_c 19.1158(11)
_cell_angle_alpha 90
_cell_angle_beta 90
_cell_angle_gamma 90
_cell_formula_units_Z 1
loop_
_atom_type_symbol
_atom_type_radius_bond
C 0.68
H 0.23
Cl 0.99
Mn 1.35
N 0.68
O 0.68
loop_
_atom_site_label
_atom_site_type_symbol
_atom_site_fract_x
_atom_site_fract_y
_atom_site_fract_z
Mn1 Mn 0.14310(4) 0.50000 0.00000
Mn2? Mn 0.00000 0.00000 0.00000
Mn3? Mn 0.50000 0.50000 -0.50000
Cl1 Cl 0.00000 0.50000 0.00000
O1 O 0.2540(3) 0.50000 0.00000
O2? O 0.00000 0.1023(12) 0.00000
O3 O 0.3144(6) 0.3876(7) -0.0469(6)
O4? O 0.50000 0.50000 -0.409(5)
O5? O 0.538(2) 0.538(2) -0.462(2)
O6? O 0.227(3) 0.50000 -0.227(3)
O7? O 0.280(5) 0.50000 -0.157(4)
O8 O 0.50000 0.50000 -0.269(11)
O9? O 0.201(3) 0.520(3) -0.250(3)
N1 N 0.13224(13) 0.41933(13) -0.08336(13)
N2 N 0.17516(14) 0.36509(14) -0.09274(14)
N3? N 0.00000 0.2233(9) 0.00000
C1 C 0.1498(2) 0.3329(3) -0.1498(2)
C2 C 0.18073(19) 0.2697(3) -0.18073(19)
C3 C 0.2399(2) 0.2399(2) -0.1505(3)
H1 H 0.25930 0.25930 -0.11030
C4? C -0.0222(13) 0.1619(10) 0.00000
C5? C -0.0286(17) 0.2930(12) 0.00000
C6? C 0.0789(10) 0.232(3) 0.00000
Mn1D Mn -0.14310(4) 0.50000 0.00000
Mn1Q Mn 0.00000(4) 0.50000 0.14310
Mn1S Mn 0.00000(4) 0.50000 -0.14310
Mn1T Mn 0.50000(4) 0.00000 -0.14310
Mn1A Mn 0.50000(4) 0.14310 0.00000
Mn1C Mn 0.00000(4) 0.14310 -0.50000
Mn1K Mn 0.14310(4) 0.00000 -0.50000
Mn1P Mn 0.50000(4) 1.00000 0.14310
Mn1G Mn 0.50000(4) 0.85690 0.00000
Mn1I Mn 0.00000(4) 0.85690 0.50000
Mn1K* Mn 0.14310(4) 1.00000 0.50000
Mn1P* Mn 0.50000(4) 0.00000 0.14310
Mn1C* Mn 0.00000(4) 0.14310 0.50000
Mn1K** Mn 0.14310(4) 0.00000 0.50000
Mn1T* Mn 0.50000(4) 1.00000 -0.14310
Mn1I* Mn 0.00000(4) 0.85690 -0.50000
Mn1K*** Mn 0.14310(4) 1.00000 -0.50000
Mn1I** Mn 0.00000(4) -0.14310 -0.50000
Mn1C** Mn 0.00000(4) 1.14310 0.50000
Mn1I*** Mn 0.00000(4) -0.14310 0.50000
Mn1G* Mn 0.50000(4) -0.14310 0.00000
Mn1F Mn -0.14310(4) 0.00000 -0.50000
Mn1A* Mn 0.50000(4) 1.14310 0.00000
Mn1T** Mn -0.50000(4) 1.00000 -0.14310
Mn1G** Mn -0.50000(4) 0.85690 0.00000
Mn1F* Mn -0.14310(4) 1.00000 -0.50000
Mn1P** Mn -0.50000(4) 0.00000 0.14310
Mn1A** Mn -0.50000(4) 0.14310 0.00000
Mn1F** Mn -0.14310(4) 0.00000 0.50000
Mn1P*** Mn -0.50000(4) 1.00000 0.14310
Mn1F*** Mn -0.14310(4) 1.00000 0.50000
Mn1T*** Mn -0.50000(4) 0.00000 -0.14310
Mn1I**** Mn 1.00000(4) -0.14310 -0.50000
Mn1F**** Mn 0.85690(4) 0.00000 -0.50000
Mn1D* Mn 0.85690(4) -0.50000 0.00000
Mn1S* Mn 1.00000(4) -0.50000 -0.14310
Mn1* Mn 0.14310(4) -0.50000 0.00000
Mn1S** Mn 0.00000(4) -0.50000 -0.14310
Mn1C*** Mn 1.00000(4) 0.14310 -0.50000
Mn1D** Mn 0.85690(4) 0.50000 0.00000
Mn1S*** Mn 1.00000(4) 0.50000 -0.14310
Mn1Q* Mn 1.00000(4) 0.50000 0.14310
Mn1F***** Mn 0.85690(4) 0.00000 0.50000
Mn1C**** Mn 1.00000(4) 0.14310 0.50000
Mn1D*** Mn -0.14310(4) 0.50000 -1.00000
Mn1Q** Mn 0.00000(4) 0.50000 -0.85690
Mn1P**** Mn -0.50000(4) 0.00000 -0.85690
Mn1A*** Mn -0.50000(4) 0.14310 -1.00000
Mn1** Mn 0.14310(4) 0.50000 -1.00000
Mn1P***** Mn 0.50000(4) 0.00000 -0.85690
Mn1A**** Mn 0.50000(4) 0.14310 -1.00000
Mn1G*** Mn 0.50000(4) -0.14310 -1.00000
Mn1Q*** Mn 0.00000(4) -0.50000 -0.85690
Mn1*** Mn 0.14310(4) -0.50000 -1.00000
Mn1C***** Mn 1.00000(4) 1.14310 0.50000
Mn1F****** Mn 0.85690(4) 1.00000 0.50000
Mn1D**** Mn 0.85690(4) 1.50000 0.00000
Mn1Q**** Mn 1.00000(4) 1.50000 0.14310
Cl1A Cl 0.50000 0.00000 0.00000
Cl1C Cl 0.00000 0.00000 -0.50000
Cl1A* Cl 0.50000 1.00000 0.00000
Cl1C* Cl 0.00000 1.00000 0.50000
Cl1C** Cl 0.00000 0.00000 0.50000
Cl1C*** Cl 0.00000 1.00000 -0.50000
O1D O -0.2540(3) 0.50000 0.00000
O1Q O 0.0000(3) 0.50000 0.25400
O1S O 0.0000(3) 0.50000 -0.25400
O1T O 0.5000(3) 0.00000 -0.25400
O1A O 0.5000(3) 0.25400 0.00000
O1C O 0.0000(3) 0.25400 -0.50000
O1K O 0.2540(3) 0.00000 -0.50000
O1P O 0.5000(3) 1.00000 0.25400
O1G O 0.5000(3) 0.74600 0.00000
O1I O 0.0000(3) 0.74600 0.50000
O1K* O 0.2540(3) 1.00000 0.50000
O1P* O 0.5000(3) 0.00000 0.25400
O1C* O 0.0000(3) 0.25400 0.50000
O1K** O 0.2540(3) 0.00000 0.50000
O1T* O 0.5000(3) 1.00000 -0.25400
O1I* O 0.0000(3) 0.74600 -0.50000
O1K*** O 0.2540(3) 1.00000 -0.50000
O1I** O 0.0000(3) -0.25400 -0.50000
O1C** O 0.0000(3) 1.25400 0.50000
O1I*** O 0.0000(3) -0.25400 0.50000
O1G* O 0.5000(3) -0.25400 0.00000
O1F O -0.2540(3) 0.00000 -0.50000
O1A* O 0.5000(3) 1.25400 0.00000
N1OA N 0.08336(13) 0.41933(13) -0.13224(13)
N1T N 0.41933(13) 0.08336(13) -0.13224(13)
N1HA N 0.41933(13) 0.13224(13) -0.08336(13)
N1N N 0.08336(13) 0.13224(13) -0.41933(13)
N1DA N 0.13224(13) 0.08336(13) -0.41933(13)
N1B N 0.13224(13) 0.58067(13) 0.08336(13)
N1QA N 0.08336(13) 0.58067(13) 0.13224(13)
N1P N 0.41933(13) 0.91664(13) 0.13224(13)
N1Y N 0.41933(13) 0.86776(13) 0.08336(13)
N1I N 0.08336(13) 0.86776(13) 0.41933(13)
N1KA N 0.13224(13) 0.91664(13) 0.41933(13)
N1BA N 0.13224(13) 0.41933(13) 0.08336(13)
N1R N 0.08336(13) 0.41933(13) 0.13224(13)
N1TA N 0.41933(13) 0.08336(13) 0.13224(13)
N1E N 0.41933(13) 0.13224(13) 0.08336(13)
N1JA N 0.08336(13) 0.13224(13) 0.41933(13)
N1K N 0.13224(13) 0.08336(13) 0.41933(13)
N1FA N 0.13224(13) 0.58067(13) -0.08336(13)
N1U N 0.08336(13) 0.58067(13) -0.13224(13)
N1UA N 0.41933(13) 0.91664(13) -0.13224(13)
N1G N 0.41933(13) 0.86776(13) -0.08336(13)
N1AA N 0.08336(13) 0.86776(13) -0.41933(13)
N1O N 0.13224(13) 0.91664(13) -0.41933(13)
N1D N -0.13224(13) 0.58067(13) -0.08336(13)
N1PA N -0.08336(13) 0.58067(13) -0.13224(13)
N1V N -0.41933(13) 0.91664(13) -0.13224(13)
N1CA N -0.41933(13) 0.86776(13) -0.08336(13)
N1L N -0.08336(13) 0.86776(13) -0.41933(13)
N1IA N -0.13224(13) 0.91664(13) -0.41933(13)
N1H N -0.13224(13) 0.41933(13) 0.08336(13)
N1SA N -0.08336(13) 0.41933(13) 0.13224(13)
N1W N -0.41933(13) 0.08336(13) 0.13224(13)
N1EA N -0.41933(13) 0.13224(13) 0.08336(13)
N1C N -0.08336(13) 0.13224(13) 0.41933(13)
N1MA N -0.13224(13) 0.08336(13) 0.41933(13)
N1X N -0.13224(13) 0.58067(13) 0.08336(13)
N1Q N -0.08336(13) 0.58067(13) 0.13224(13)
N1RA N -0.41933(13) 0.91664(13) 0.13224(13)
N1J N -0.41933(13) 0.86776(13) 0.08336(13)
N1LA N -0.08336(13) 0.86776(13) 0.41933(13)
N1F N -0.13224(13) 0.91664(13) 0.41933(13)
N1Z N -0.13224(13) 0.41933(13) -0.08336(13)
N1S N -0.08336(13) 0.41933(13) -0.13224(13)
N1NA N -0.41933(13) 0.08336(13) -0.13224(13)
N1A N -0.41933(13) 0.13224(13) -0.08336(13)
N1GA N -0.08336(13) 0.13224(13) -0.41933(13)
N1M N -0.13224(13) 0.08336(13) -0.41933(13)
N1V* N 0.58067(13) -0.08336(13) -0.13224(13)
N1CA* N 0.58067(13) -0.13224(13) -0.08336(13)
N1L* N 0.91664(13) -0.13224(13) -0.41933(13)
N1IA* N 0.86776(13) -0.08336(13) -0.41933(13)
N1D* N 0.86776(13) -0.41933(13) -0.08336(13)
N1PA* N 0.91664(13) -0.41933(13) -0.13224(13)
N1UA* N 0.41933(13) -0.08336(13) -0.13224(13)
N1G* N 0.41933(13) -0.13224(13) -0.08336(13)
N1AA* N 0.08336(13) -0.13224(13) -0.41933(13)
N1O* N 0.13224(13) -0.08336(13) -0.41933(13)
N1FA* N 0.13224(13) -0.41933(13) -0.08336(13)
N1U* N 0.08336(13) -0.41933(13) -0.13224(13)
N1NA* N 0.58067(13) 0.08336(13) -0.13224(13)
N1A* N 0.58067(13) 0.13224(13) -0.08336(13)
N1GA* N 0.91664(13) 0.13224(13) -0.41933(13)
N1M* N 0.86776(13) 0.08336(13) -0.41933(13)
N1Z* N 0.86776(13) 0.41933(13) -0.08336(13)
N1S* N 0.91664(13) 0.41933(13) -0.13224(13)
N1EA* N 0.58067(13) 0.13224(13) 0.08336(13)
N1W* N 0.58067(13) 0.08336(13) 0.13224(13)
N1SA* N 0.91664(13) 0.41933(13) 0.13224(13)
N1H* N 0.86776(13) 0.41933(13) 0.08336(13)
N1MA* N 0.86776(13) 0.08336(13) 0.41933(13)
N1C* N 0.91664(13) 0.13224(13) 0.41933(13)
N1C** N -0.08336(13) 0.13224(13) -0.58067(13)
N1MA** N -0.13224(13) 0.08336(13) -0.58067(13)
N1H** N -0.13224(13) 0.41933(13) -0.91664(13)
N1SA** N -0.08336(13) 0.41933(13) -0.86776(13)
N1W** N -0.41933(13) 0.08336(13) -0.86776(13)
N1EA** N -0.41933(13) 0.13224(13) -0.91664(13)
N1JA* N 0.08336(13) 0.13224(13) -0.58067(13)
N1K* N 0.13224(13) 0.08336(13) -0.58067(13)
N1BA* N 0.13224(13) 0.41933(13) -0.91664(13)
N1R* N 0.08336(13) 0.41933(13) -0.86776(13)
N1TA* N 0.41933(13) 0.08336(13) -0.86776(13)
N1E* N 0.41933(13) 0.13224(13) -0.91664(13)
N1KA* N 0.13224(13) -0.08336(13) -0.58067(13)
N1I* N 0.08336(13) -0.13224(13) -0.58067(13)
N1Y* N 0.41933(13) -0.13224(13) -0.91664(13)
N1P* N 0.41933(13) -0.08336(13) -0.86776(13)
N1QA* N 0.08336(13) -0.41933(13) -0.86776(13)
N1B* N 0.13224(13) -0.41933(13) -0.91664(13)
N1W*** N 0.58067(13) 1.08336(13) 0.13224(13)
N1EA*** N 0.58067(13) 1.13224(13) 0.08336(13)
N1C*** N 0.91664(13) 1.13224(13) 0.41933(13)
N1MA*** N 0.86776(13) 1.08336(13) 0.41933(13)
N1H*** N 0.86776(13) 1.41933(13) 0.08336(13)
N1SA*** N 0.91664(13) 1.41933(13) 0.13224(13)
N1RA* N 0.58067(13) 0.91664(13) 0.13224(13)
N1TA** N 0.41933(13) 1.08336(13) 0.13224(13)
N1J* N 0.58067(13) 0.86776(13) 0.08336(13)
N1CA** N 0.58067(13) 0.86776(13) -0.08336(13)
N1L** N -0.08336(13) 0.86776(13) 0.58067(13)
N1AA** N 0.08336(13) 0.86776(13) 0.58067(13)
N1K** N 0.13224(13) 1.08336(13) 0.41933(13)
N1O** N 0.13224(13) 0.91664(13) 0.58067(13)
N1DA* N 0.13224(13) 1.08336(13) 0.58067(13)
N1P** N 0.41933(13) -0.08336(13) 0.13224(13)
N1RA** N 0.58067(13) -0.08336(13) 0.13224(13)
N1N* N 0.08336(13) 0.13224(13) 0.58067(13)
N1GA** N -0.08336(13) 0.13224(13) 0.58067(13)
N1O*** N 0.13224(13) -0.08336(13) 0.58067(13)
N1DA** N 0.13224(13) 0.08336(13) 0.58067(13)
N1KA** N 0.13224(13) -0.08336(13) 0.41933(13)
N1T* N 0.41933(13) 1.08336(13) -0.13224(13)
N1V** N 0.58067(13) 0.91664(13) -0.13224(13)
N1NA** N 0.58067(13) 1.08336(13) -0.13224(13)
N1I** N 0.08336(13) 0.86776(13) -0.58067(13)
N1LA* N -0.08336(13) 0.86776(13) -0.58067(13)
N1K*** N 0.13224(13) 1.08336(13) -0.58067(13)
N1DA*** N 0.13224(13) 1.08336(13) -0.41933(13)
N1KA*** N 0.13224(13) 0.91664(13) -0.58067(13)
N1L*** N -0.08336(13) -0.13224(13) -0.41933(13)
N1LA** N -0.08336(13) -0.13224(13) -0.58067(13)
N1C**** N -0.08336(13) 1.13224(13) 0.41933(13)
N1N** N 0.08336(13) 1.13224(13) 0.58067(13)
N1GA*** N -0.08336(13) 1.13224(13) 0.58067(13)
N1JA** N 0.08336(13) 1.13224(13) 0.41933(13)
N1I*** N 0.08336(13) -0.13224(13) 0.41933(13)
N1L**** N -0.08336(13) -0.13224(13) 0.58067(13)
N1AA*** N 0.08336(13) -0.13224(13) 0.58067(13)
N1LA*** N -0.08336(13) -0.13224(13) 0.41933(13)
N1J** N 0.58067(13) -0.13224(13) 0.08336(13)
N1Y** N 0.41933(13) -0.13224(13) 0.08336(13)
N1F* N -0.13224(13) -0.08336(13) -0.58067(13)
N1IA** N -0.13224(13) -0.08336(13) -0.41933(13)
N1A** N 0.58067(13) 1.13224(13) -0.08336(13)
N1E** N 0.41933(13) 1.13224(13) 0.08336(13)
N1HA* N 0.41933(13) 1.13224(13) -0.08336(13)
N2OA N 0.09274(14) 0.36509(14) -0.17516(14)
N2T N 0.36509(14) 0.09274(14) -0.17516(14)
N2HA N 0.36509(14) 0.17516(14) -0.09274(14)
N2N N 0.09274(14) 0.17516(14) -0.36509(14)
N2DA N 0.17516(14) 0.09274(14) -0.36509(14)
N2B N 0.17516(14) 0.63491(14) 0.09274(14)
N2QA N 0.09274(14) 0.63491(14) 0.17516(14)
N2P N 0.36509(14) 0.90726(14) 0.17516(14)
N2Y N 0.36509(14) 0.82484(14) 0.09274(14)
N2I N 0.09274(14) 0.82484(14) 0.36509(14)
N2KA N 0.17516(14) 0.90726(14) 0.36509(14)
N2BA N 0.17516(14) 0.36509(14) 0.09274(14)
N2R N 0.09274(14) 0.36509(14) 0.17516(14)
N2TA N 0.36509(14) 0.09274(14) 0.17516(14)
N2E N 0.36509(14) 0.17516(14) 0.09274(14)
N2JA N 0.09274(14) 0.17516(14) 0.36509(14)
N2K N 0.17516(14) 0.09274(14) 0.36509(14)
N2FA N 0.17516(14) 0.63491(14) -0.09274(14)
N2U N 0.09274(14) 0.63491(14) -0.17516(14)
N2UA N 0.36509(14) 0.90726(14) -0.17516(14)
N2G N 0.36509(14) 0.82484(14) -0.09274(14)
N2AA N 0.09274(14) 0.82484(14) -0.36509(14)
N2O N 0.17516(14) 0.90726(14) -0.36509(14)
N2D N -0.17516(14) 0.63491(14) -0.09274(14)
N2PA N -0.09274(14) 0.63491(14) -0.17516(14)
N2V N -0.36509(14) 0.90726(14) -0.17516(14)
N2CA N -0.36509(14) 0.82484(14) -0.09274(14)
N2L N -0.09274(14) 0.82484(14) -0.36509(14)
N2IA N -0.17516(14) 0.90726(14) -0.36509(14)
N2H N -0.17516(14) 0.36509(14) 0.09274(14)
N2SA N -0.09274(14) 0.36509(14) 0.17516(14)
N2W N -0.36509(14) 0.09274(14) 0.17516(14)
N2EA N -0.36509(14) 0.17516(14) 0.09274(14)
N2C N -0.09274(14) 0.17516(14) 0.36509(14)
N2MA N -0.17516(14) 0.09274(14) 0.36509(14)
N2X N -0.17516(14) 0.63491(14) 0.09274(14)
N2Q N -0.09274(14) 0.63491(14) 0.17516(14)
N2RA N -0.36509(14) 0.90726(14) 0.17516(14)
N2J N -0.36509(14) 0.82484(14) 0.09274(14)
N2LA N -0.09274(14) 0.82484(14) 0.36509(14)
N2F N -0.17516(14) 0.90726(14) 0.36509(14)
N2Z N -0.17516(14) 0.36509(14) -0.09274(14)
N2S N -0.09274(14) 0.36509(14) -0.17516(14)
N2NA N -0.36509(14) 0.09274(14) -0.17516(14)
N2A N -0.36509(14) 0.17516(14) -0.09274(14)
N2GA N -0.09274(14) 0.17516(14) -0.36509(14)
N2M N -0.17516(14) 0.09274(14) -0.36509(14)
N2V* N 0.63491(14) -0.09274(14) -0.17516(14)
N2CA* N 0.63491(14) -0.17516(14) -0.09274(14)
N2L* N 0.90726(14) -0.17516(14) -0.36509(14)
N2IA* N 0.82484(14) -0.09274(14) -0.36509(14)
N2D* N 0.82484(14) -0.36509(14) -0.09274(14)
N2PA* N 0.90726(14) -0.36509(14) -0.17516(14)
N2UA* N 0.36509(14) -0.09274(14) -0.17516(14)
N2G* N 0.36509(14) -0.17516(14) -0.09274(14)
N2AA* N 0.09274(14) -0.17516(14) -0.36509(14)
N2O* N 0.17516(14) -0.09274(14) -0.36509(14)
N2FA* N 0.17516(14) -0.36509(14) -0.09274(14)
N2U* N 0.09274(14) -0.36509(14) -0.17516(14)
N2NA* N 0.63491(14) 0.09274(14) -0.17516(14)
N2A* N 0.63491(14) 0.17516(14) -0.09274(14)
N2GA* N 0.90726(14) 0.17516(14) -0.36509(14)
N2M* N 0.82484(14) 0.09274(14) -0.36509(14)
N2Z* N 0.82484(14) 0.36509(14) -0.09274(14)
N2S* N 0.90726(14) 0.36509(14) -0.17516(14)
N2EA* N 0.63491(14) 0.17516(14) 0.09274(14)
N2W* N 0.63491(14) 0.09274(14) 0.17516(14)
N2SA* N 0.90726(14) 0.36509(14) 0.17516(14)
N2H* N 0.82484(14) 0.36509(14) 0.09274(14)
N2MA* N 0.82484(14) 0.09274(14) 0.36509(14)
N2C* N 0.90726(14) 0.17516(14) 0.36509(14)
N2C** N -0.09274(14) 0.17516(14) -0.63491(14)
N2MA** N -0.17516(14) 0.09274(14) -0.63491(14)
N2H** N -0.17516(14) 0.36509(14) -0.90726(14)
N2SA** N -0.09274(14) 0.36509(14) -0.82484(14)
N2W** N -0.36509(14) 0.09274(14) -0.82484(14)
N2EA** N -0.36509(14) 0.17516(14) -0.90726(14)
N2JA* N 0.09274(14) 0.17516(14) -0.63491(14)
N2K* N 0.17516(14) 0.09274(14) -0.63491(14)
N2BA* N 0.17516(14) 0.36509(14) -0.90726(14)
N2R* N 0.09274(14) 0.36509(14) -0.82484(14)
N2TA* N 0.36509(14) 0.09274(14) -0.82484(14)
N2E* N 0.36509(14) 0.17516(14) -0.90726(14)
N2KA* N 0.17516(14) -0.09274(14) -0.63491(14)
N2I* N 0.09274(14) -0.17516(14) -0.63491(14)
N2Y* N 0.36509(14) -0.17516(14) -0.90726(14)
N2P* N 0.36509(14) -0.09274(14) -0.82484(14)
N2QA* N 0.09274(14) -0.36509(14) -0.82484(14)
N2B* N 0.17516(14) -0.36509(14) -0.90726(14)
N2W*** N 0.63491(14) 1.09274(14) 0.17516(14)
N2EA*** N 0.63491(14) 1.17516(14) 0.09274(14)
N2C*** N 0.90726(14) 1.17516(14) 0.36509(14)
N2MA*** N 0.82484(14) 1.09274(14) 0.36509(14)
N2H*** N 0.82484(14) 1.36509(14) 0.09274(14)
N2SA*** N 0.90726(14) 1.36509(14) 0.17516(14)
C1T C 0.3329(2) 0.1498(3) -0.1498(2)
C1N C 0.1498(2) 0.1498(3) -0.3329(2)
C1B C 0.1498(2) 0.6671(3) 0.1498(2)
C1P C 0.3329(2) 0.8502(3) 0.1498(2)
C1I C 0.1498(2) 0.8502(3) 0.3329(2)
C1R C 0.1498(2) 0.3329(3) 0.1498(2)
C1E C 0.3329(2) 0.1498(3) 0.1498(2)
C1K C 0.1498(2) 0.1498(3) 0.3329(2)
C1U C 0.1498(2) 0.6671(3) -0.1498(2)
C1G C 0.3329(2) 0.8502(3) -0.1498(2)
C1O C 0.1498(2) 0.8502(3) -0.3329(2)
C1D C -0.1498(2) 0.6671(3) -0.1498(2)
C1V C -0.3329(2) 0.8502(3) -0.1498(2)
C1L C -0.1498(2) 0.8502(3) -0.3329(2)
C1H C -0.1498(2) 0.3329(3) 0.1498(2)
C1W C -0.3329(2) 0.1498(3) 0.1498(2)
C1C C -0.1498(2) 0.1498(3) 0.3329(2)
C1Q C -0.1498(2) 0.6671(3) 0.1498(2)
C1J C -0.3329(2) 0.8502(3) 0.1498(2)
C1F C -0.1498(2) 0.8502(3) 0.3329(2)
C1S C -0.1498(2) 0.3329(3) -0.1498(2)
C1A C -0.3329(2) 0.1498(3) -0.1498(2)
C1M C -0.1498(2) 0.1498(3) -0.3329(2)
C1V* C 0.6671(2) -0.1498(3) -0.1498(2)
C1L* C 0.8502(2) -0.1498(3) -0.3329(2)
C1D* C 0.8502(2) -0.3329(3) -0.1498(2)
C1G* C 0.3329(2) -0.1498(3) -0.1498(2)
C1O* C 0.1498(2) -0.1498(3) -0.3329(2)
C1U* C 0.1498(2) -0.3329(3) -0.1498(2)
C1A* C 0.6671(2) 0.1498(3) -0.1498(2)
C1M* C 0.8502(2) 0.1498(3) -0.3329(2)
C1S* C 0.8502(2) 0.3329(3) -0.1498(2)
C1W* C 0.6671(2) 0.1498(3) 0.1498(2)
C1H* C 0.8502(2) 0.3329(3) 0.1498(2)
C1C* C 0.8502(2) 0.1498(3) 0.3329(2)
C1C** C -0.1498(2) 0.1498(3) -0.6671(2)
C1H** C -0.1498(2) 0.3329(3) -0.8502(2)
C1W** C -0.3329(2) 0.1498(3) -0.8502(2)
C1K* C 0.1498(2) 0.1498(3) -0.6671(2)
C1R* C 0.1498(2) 0.3329(3) -0.8502(2)
C1E* C 0.3329(2) 0.1498(3) -0.8502(2)
C1I* C 0.1498(2) -0.1498(3) -0.6671(2)
C1P* C 0.3329(2) -0.1498(3) -0.8502(2)
C1B* C 0.1498(2) -0.3329(3) -0.8502(2)
C1W*** C 0.6671(2) 1.1498(3) 0.1498(2)
C1C*** C 0.8502(2) 1.1498(3) 0.3329(2)
C1H*** C 0.8502(2) 1.3329(3) 0.1498(2)
C2T C 0.26970(19) 0.18073(30) -0.18073(19)
C2N C 0.18073(19) 0.18073(30) -0.26970(19)
C2B C 0.18073(19) 0.7303(3) 0.18073(19)
C2P C 0.26970(19) 0.81927(30) 0.18073(19)
C2I C 0.18073(19) 0.81927(30) 0.26970(19)
C2R C 0.18073(19) 0.2697(3) 0.18073(19)
C2E C 0.26970(19) 0.18073(30) 0.18073(19)
C2K C 0.18073(19) 0.18073(30) 0.26970(19)
C2U C 0.18073(19) 0.7303(3) -0.18073(19)
C2G C 0.26970(19) 0.81927(30) -0.18073(19)
C2O C 0.18073(19) 0.81927(30) -0.26970(19)
C2D C -0.18073(19) 0.7303(3) -0.18073(19)
C2V C -0.26970(19) 0.81927(30) -0.18073(19)
C2L C -0.18073(19) 0.81927(30) -0.26970(19)
C2H C -0.18073(19) 0.2697(3) 0.18073(19)
C2W C -0.26970(19) 0.18073(30) 0.18073(19)
C2C C -0.18073(19) 0.18073(30) 0.26970(19)
C2Q C -0.18073(19) 0.7303(3) 0.18073(19)
C2J C -0.26970(19) 0.81927(30) 0.18073(19)
C2F C -0.18073(19) 0.81927(30) 0.26970(19)
C2S C -0.18073(19) 0.2697(3) -0.18073(19)
C2A C -0.26970(19) 0.18073(30) -0.18073(19)
C2M C -0.18073(19) 0.18073(30) -0.26970(19)
C2V* C 0.73030(19) -0.18073(30) -0.18073(19)
C2L* C 0.81927(19) -0.18073(30) -0.26970(19)
C2D* C 0.81927(19) -0.2697(3) -0.18073(19)
C2G* C 0.26970(19) -0.18073(30) -0.18073(19)
C2O* C 0.18073(19) -0.18073(30) -0.26970(19)
C2U* C 0.18073(19) -0.2697(3) -0.18073(19)
C2A* C 0.73030(19) 0.18073(30) -0.18073(19)
C2M* C 0.81927(19) 0.18073(30) -0.26970(19)
C2S* C 0.81927(19) 0.2697(3) -0.18073(19)
C2W* C 0.73030(19) 0.18073(30) 0.18073(19)
C2H* C 0.81927(19) 0.2697(3) 0.18073(19)
C2C* C 0.81927(19) 0.18073(30) 0.26970(19)
C2C** C -0.18073(19) 0.18073(30) -0.73030(19)
C2H** C -0.18073(19) 0.2697(3) -0.81927(19)
C2W** C -0.26970(19) 0.18073(30) -0.81927(19)
C2K* C 0.18073(19) 0.18073(30) -0.73030(19)
C2R* C 0.18073(19) 0.2697(3) -0.81927(19)
C2E* C 0.26970(19) 0.18073(30) -0.81927(19)
C2I* C 0.18073(19) -0.18073(30) -0.73030(19)
C2P* C 0.26970(19) -0.18073(30) -0.81927(19)
C2B* C 0.18073(19) -0.2697(3) -0.81927(19)
C2W*** C 0.73030(19) 1.18073(30) 0.18073(19)
C2C*** C 0.81927(19) 1.18073(30) 0.26970(19)
C2H*** C 0.81927(19) 1.2697(3) 0.18073(19)
C3T C 0.2399(2) 0.1505(2) -0.2399(3)
C3N C 0.1505(2) 0.2399(2) -0.2399(3)
C3B C 0.2399(2) 0.7601(2) 0.1505(3)
C3P C 0.2399(2) 0.8495(2) 0.2399(3)
C3I C 0.1505(2) 0.7601(2) 0.2399(3)
C3E C 0.2399(2) 0.2399(2) 0.1505(3)
C3K C 0.2399(2) 0.1505(2) 0.2399(3)
C3R C 0.1505(2) 0.2399(2) 0.2399(3)
C3G C 0.2399(2) 0.7601(2) -0.1505(3)
C3O C 0.2399(2) 0.8495(2) -0.2399(3)
C3U C 0.1505(2) 0.7601(2) -0.2399(3)
C3D C -0.2399(2) 0.7601(2) -0.1505(3)
C3V C -0.2399(2) 0.8495(2) -0.2399(3)
C3L C -0.1505(2) 0.7601(2) -0.2399(3)
C3H C -0.2399(2) 0.2399(2) 0.1505(3)
C3W C -0.2399(2) 0.1505(2) 0.2399(3)
C3C C -0.1505(2) 0.2399(2) 0.2399(3)
C3J C -0.2399(2) 0.7601(2) 0.1505(3)
C3F C -0.2399(2) 0.8495(2) 0.2399(3)
C3Q C -0.1505(2) 0.7601(2) 0.2399(3)
C3A C -0.2399(2) 0.2399(2) -0.1505(3)
C3M C -0.2399(2) 0.1505(2) -0.2399(3)
C3S C -0.1505(2) 0.2399(2) -0.2399(3)
C3V* C 0.7601(2) -0.1505(2) -0.2399(3)
C3L* C 0.8495(2) -0.2399(2) -0.2399(3)
C3D* C 0.7601(2) -0.2399(2) -0.1505(3)
C3O* C 0.2399(2) -0.1505(2) -0.2399(3)
C3U* C 0.1505(2) -0.2399(2) -0.2399(3)
C3G* C 0.2399(2) -0.2399(2) -0.1505(3)
C3M* C 0.7601(2) 0.1505(2) -0.2399(3)
C3S* C 0.8495(2) 0.2399(2) -0.2399(3)
C3A* C 0.7601(2) 0.2399(2) -0.1505(3)
C3H* C 0.7601(2) 0.2399(2) 0.1505(3)
C3C* C 0.8495(2) 0.2399(2) 0.2399(3)
C3W* C 0.7601(2) 0.1505(2) 0.2399(3)
C3C** C -0.1505(2) 0.2399(2) -0.7601(3)
C3H** C -0.2399(2) 0.2399(2) -0.8495(3)
C3W** C -0.2399(2) 0.1505(2) -0.7601(3)
C3R* C 0.1505(2) 0.2399(2) -0.7601(3)
C3E* C 0.2399(2) 0.2399(2) -0.8495(3)
C3K* C 0.2399(2) 0.1505(2) -0.7601(3)
C3P* C 0.2399(2) -0.1505(2) -0.7601(3)
C3B* C 0.2399(2) -0.2399(2) -0.8495(3)
C3I* C 0.1505(2) -0.2399(2) -0.7601(3)
C3W*** C 0.7601(2) 1.1505(2) 0.2399(3)
C3C*** C 0.8495(2) 1.2399(2) 0.2399(3)
C3H*** C 0.7601(2) 1.2399(2) 0.1505(3)
H1N H 0.11030 0.25930 -0.25930
H1T H 0.25930 0.11030 -0.25930
H1B H 0.25930 0.74070 0.11030
H1I H 0.11030 0.74070 0.25930
H1P H 0.25930 0.88970 0.25930
H1E H 0.25930 0.25930 0.11030
H1R H 0.11030 0.25930 0.25930
H1K H 0.25930 0.11030 0.25930
H1G H 0.25930 0.74070 -0.11030
H1U H 0.11030 0.74070 -0.25930
H1O H 0.25930 0.88970 -0.25930
H1D H -0.25930 0.74070 -0.11030
H1L H -0.11030 0.74070 -0.25930
H1V H -0.25930 0.88970 -0.25930
H1H H -0.25930 0.25930 0.11030
H1C H -0.11030 0.25930 0.25930
H1W H -0.25930 0.11030 0.25930
H1J H -0.25930 0.74070 0.11030
H1Q H -0.11030 0.74070 0.25930
H1F H -0.25930 0.88970 0.25930
H1A H -0.25930 0.25930 -0.11030
H1S H -0.11030 0.25930 -0.25930
H1M H -0.25930 0.11030 -0.25930
H1V* H 0.74070 -0.11030 -0.25930
H1D* H 0.74070 -0.25930 -0.11030
H1L* H 0.88970 -0.25930 -0.25930
H1O* H 0.25930 -0.11030 -0.25930
H1G* H 0.25930 -0.25930 -0.11030
H1U* H 0.11030 -0.25930 -0.25930
H1M* H 0.74070 0.11030 -0.25930
H1A* H 0.74070 0.25930 -0.11030
H1S* H 0.88970 0.25930 -0.25930
H1H* H 0.74070 0.25930 0.11030
H1W* H 0.74070 0.11030 0.25930
H1C* H 0.88970 0.25930 0.25930
H1C** H -0.11030 0.25930 -0.74070
H1W** H -0.25930 0.11030 -0.74070
H1H** H -0.25930 0.25930 -0.88970
H1R* H 0.11030 0.25930 -0.74070
H1K* H 0.25930 0.11030 -0.74070
H1E* H 0.25930 0.25930 -0.88970
H1P* H 0.25930 -0.11030 -0.74070
H1I* H 0.11030 -0.25930 -0.74070
H1B* H 0.25930 -0.25930 -0.88970
H1W*** H 0.74070 1.11030 0.25930
H1H*** H 0.74070 1.25930 0.11030
H1C*** H 0.88970 1.25930 0.25930
#END
