
#######################################################################
#
#                 Cambridge Crystallographic Data Centre
#                                CCDC
#
#######################################################################
#
# If this CIF has been generated from an entry in the Cambridge
# Structural Database, then it will include bibliographic, chemical,
# crystal, experimental, refinement or atomic coordinate data resulting
# from the CCDC's data processing and validation procedures.
#
#######################################################################

data_CSD_CIF_JEXWOZ10
_audit_creation_date 2019-12-20
_audit_creation_method CSD-ConQuest-V1
_database_code_CSD JEXWOZ10
_database_code_depnum_ccdc_archive 'CCDC 1861333'
_chemical_formula_sum 'C3 H7 Mn1 N1 O6'
_chemical_formula_moiety
;
(C3 H3 Mn1 O6 1-)n,H4 N1 1+
;
_journal_coden_Cambridge 1326
_journal_volume 20
_journal_year 2018
_journal_page_first 24465
_journal_name_full 'Phys.Chem.Chem.Phys.(PCCP) '
loop_
_publ_author_name
"I.E.Collings"
"R.S.Manna"
"A.A.Tsirlin"
"M.Bykov"
"E.Bykova"
"M.Hanfland"
"P.Gegenwart"
"S.v.Smaalen"
"L.Dubrovinsky"
"N.Dubrovinskaia"
_chemical_name_systematic
;
catena-(ammonium tris(\m~2~-formato)-manganese(ii))
;
_cell_volume    379.649
_exptl_crystal_colour 'colorless'
_exptl_crystal_density_diffrn 1.82
_exptl_crystal_description 'block'
_diffrn_ambient_temperature 293
_diffrn_ambient_pressure 450000.0
_diffrn_radiation_probe x-ray
_diffrn_source synchrotron
#These two values have been output from a single CSD field.
_refine_ls_R_factor_gt 0.066
_refine_ls_wR_factor_gt 0.066
_symmetry_cell_setting monoclinic
_symmetry_space_group_name_H-M 'P 21'
_symmetry_Int_Tables_number 4
loop_
_symmetry_equiv_pos_site_id
_symmetry_equiv_pos_as_xyz
1 x,y,z
2 -x,1/2+y,-z
_cell_length_a 6.741(3)
_cell_length_b 8.486(3)
_cell_length_c 7.440(3)
_cell_angle_alpha 90
_cell_angle_beta 116.87(5)
_cell_angle_gamma 90
_cell_formula_units_Z 2
loop_
_atom_type_symbol
_atom_type_radius_bond
C 0.68
H 0.23
Mn 1.61
N 0.68
O 0.68
loop_
_atom_site_label
_atom_site_type_symbol
_atom_site_fract_x
_atom_site_fract_y
_atom_site_fract_z
Mn1 Mn 0.6622(2) 0.25000 0.32421(13)
O1 O 0.8806(10) 0.1018(8) 0.5720(7)
O2 O 0.6244(10) 0.6108(8) 0.7078(8)
O3 O 0.2977(10) 0.6013(8) -0.1037(7)
O4 O 1.0828(10) -0.1133(8) 0.7056(8)
O5 O 0.6903(10) 0.3975(8) 0.5720(7)
O6 O 0.4013(9) 0.3966(8) 0.1028(7)
C1 C 0.9435(16) -0.0330(11) 0.5666(13)
C2 C 0.6176(15) 0.5326(11) 0.5625(12)
C3 C 0.4317(16) 0.4984(12) -0.0016(14)
H1 H 0.87550 -0.08321 0.43700
H2 H 0.54983 0.58171 0.43222
H3 H 0.57314 0.49752 -0.00353
N1 N -0.0222(10) 0.2517(13) -0.0476(8)
Mn1A Mn 0.3378(2) 0.75000 -0.32421(13)
Mn1A* Mn 0.3378(2) 0.75000 0.67579(13)
Mn1A** Mn 1.3378(2) -0.25000 0.67579(13)
O2A O 0.3756(10) 0.1108(8) 0.2922(8)
O3A O 0.7023(10) 0.1013(8) 0.1037(7)
O4A O 0.9172(10) 0.3867(8) 0.2944(8)
#END
