
#######################################################################
#
#                 Cambridge Crystallographic Data Centre
#                                CCDC
#
#######################################################################
#
# If this CIF has been generated from an entry in the Cambridge
# Structural Database, then it will include bibliographic, chemical,
# crystal, experimental, refinement or atomic coordinate data resulting
# from the CCDC's data processing and validation procedures.
#
#######################################################################

data_CSD_CIF_JEXWOZ14
_audit_creation_date 2019-12-20
_audit_creation_method CSD-ConQuest-V1
_database_code_CSD JEXWOZ14
_database_code_depnum_ccdc_archive 'CCDC 1861337'
_chemical_formula_sum 'C6 H14 Mn2 N2 O12'
_chemical_formula_moiety
;
(C6 H6 Mn2 O12 2-)n,2(H4 N1 1+)
;
_journal_coden_Cambridge 1326
_journal_volume 20
_journal_year 2018
_journal_page_first 24465
_journal_name_full 'Phys.Chem.Chem.Phys.(PCCP) '
loop_
_publ_author_name
"I.E.Collings"
"R.S.Manna"
"A.A.Tsirlin"
"M.Bykov"
"E.Bykova"
"M.Hanfland"
"P.Gegenwart"
"S.v.Smaalen"
"L.Dubrovinsky"
"N.Dubrovinskaia"
_chemical_name_systematic
;
catena-(bis(ammonium) hexakis(\m~2~-formato)-di-manganese(ii))
;
_cell_volume    670.639
_exptl_crystal_colour 'colorless'
_exptl_crystal_density_diffrn 2.06
_exptl_crystal_description 'hexagonal bipyramid'
_diffrn_ambient_temperature 293
_diffrn_ambient_pressure 1380000.0
_diffrn_radiation_probe x-ray
_diffrn_source synchrotron
#These two values have been output from a single CSD field.
_refine_ls_R_factor_gt 0.1402
_refine_ls_wR_factor_gt 0.1402
_symmetry_cell_setting monoclinic
_symmetry_space_group_name_H-M 'P 21'
_symmetry_Int_Tables_number 4
loop_
_symmetry_equiv_pos_site_id
_symmetry_equiv_pos_as_xyz
1 x,y,z
2 -x,1/2+y,-z
_cell_length_a 6.714(5)
_cell_length_b 7.119(4)
_cell_length_c 14.031(5)
_cell_angle_alpha 90
_cell_angle_beta 89.99(4)
_cell_angle_gamma 90
_cell_formula_units_Z 2
loop_
_atom_type_symbol
_atom_type_radius_bond
C 0.68
H 0.23
Mn 1.61
N 0.68
O 0.68
loop_
_atom_site_label
_atom_site_type_symbol
_atom_site_fract_x
_atom_site_fract_y
_atom_site_fract_z
Mn1 Mn 0.6340(7) 0.7078(8) 0.8501(3)
O1 O 0.362(3) 0.576(4) 0.8644(14)
O2 O 0.729(3) 0.596(3) 0.9835(13)
O3 O 0.776(3) 0.474(3) 0.7700(13)
O4 O 0.912(3) 0.854(3) 0.8574(13)
O5 O 0.570(4) 0.861(4) 0.7182(16)
O6 O 0.488(3) 0.948(3) 0.9280(13)
C1 C 0.253(5) 0.473(5) 0.816(2)
C2 C 0.616(5) 0.583(5) 1.040(2)
C3 C 0.762(5) 0.423(4) 0.6920(18)
C4 C 1.019(5) 0.913(5) 0.801(2)
C5 C 0.523(6) 1.014(6) 0.705(3)
O7 O 0.276(3) 0.452(3) 0.7297(13)
H1 H 0.14615 0.40681 0.84724
H2 H 0.59009 0.69933 1.07271
O8 O 0.842(3) 0.333(3) 0.6328(13)
H3 H 0.63890 0.46957 0.66622
O9 O 1.069(3) 1.075(3) 0.7819(13)
H4 H 1.08037 0.81858 0.76112
O10 O 0.419(4) 1.087(4) 0.6337(16)
H5 H 0.56506 1.10200 0.75307
Mn2 Mn 0.1336(7) 0.2202(8) 0.6501(3)
O11 O -0.014(4) 0.018(4) 0.5663(16)
O12 O 0.235(4) 0.352(4) 0.5122(15)
C6 C -0.094(5) -0.138(6) 0.551(2)
H6 H -0.05177 -0.24811 0.58585
N1 N 0.637(3) 0.213(5) 0.4741(15)
N2 N 0.117(3) 0.708(5) 1.0230(15)
O6A O 0.512(3) 0.448(3) 1.0720(13)
Mn1A Mn 0.3660(7) 0.2078(8) 1.1499(3)
Mn2* Mn 1.1336(7) 0.2202(8) 0.6501(3)
Mn2** Mn 1.1336(7) 1.2202(8) 0.6501(3)
Mn2*** Mn 0.1336(7) 1.2202(8) 0.6501(3)
O9* O 0.069(3) 0.075(3) 0.7819(13)
O10* O 0.419(4) 0.087(4) 0.6337(16)
O8* O -0.158(3) 0.333(3) 0.6328(13)
O12A O -0.235(4) -0.148(4) 0.4878(15)
Mn2A Mn -0.1336(7) -0.2798(8) 0.3499(3)
#END
