
#######################################################################
#
#                 Cambridge Crystallographic Data Centre
#                                CCDC
#
#######################################################################
#
# If this CIF has been generated from an entry in the Cambridge
# Structural Database, then it will include bibliographic, chemical,
# crystal, experimental, refinement or atomic coordinate data resulting
# from the CCDC's data processing and validation procedures.
#
#######################################################################

data_CSD_CIF_JEXWOZ02
_audit_creation_date 2012-01-16
_audit_creation_method CSD-ConQuest-V1
_database_code_CSD JEXWOZ02
_database_code_depnum_ccdc_archive 'CCDC 840002'
_chemical_formula_sum 'C3 H7 Mn1 N1 O6'
_chemical_formula_moiety
;
(C3 H3 Mn1 O6 1-)n,n(H4 N1 1+)
;
_journal_coden_Cambridge 4
_journal_volume 133
_journal_year 2011
_journal_page_first 14948
_journal_name_full 'J.Am.Chem.Soc. '
loop_
_publ_author_name
"Guan-Cheng Xu"
"Wen Zhang"
"Xiao-Ming Ma"
"Yi-Hong Chen"
"Li Zhang"
"Hong-Ling Cai"
"Zhe-Ming Wang"
"Ren-Gen Xiong"
"Song Gao"
_chemical_name_systematic
;
catena-[Ammonium tris(\m~2~-formato)-manganese]
;
_cell_volume   1186.606
_exptl_crystal_colour 'pale pink'
_exptl_crystal_density_diffrn 1.747
_exptl_crystal_description 'hexagonal block'
_diffrn_ambient_temperature 110
#These two values have been output from a single CSD field.
_refine_ls_R_factor_gt 0.0317
_refine_ls_wR_factor_gt 0.0317
_symmetry_cell_setting hexagonal
_symmetry_space_group_name_H-M 'P 63'
_symmetry_Int_Tables_number 173
loop_
_symmetry_equiv_pos_site_id
_symmetry_equiv_pos_as_xyz
1 x,y,z
2 -y,x-y,z
3 -x+y,-x,z
4 -x,-y,1/2+z
5 y,-x+y,1/2+z
6 x-y,x,1/2+z
_cell_length_a 12.6685(3)
_cell_length_b 12.6685(3)
_cell_length_c 8.5374(2)
_cell_angle_alpha 90
_cell_angle_beta 90
_cell_angle_gamma 120
_cell_formula_units_Z 6
loop_
_atom_type_symbol
_atom_type_radius_bond
C 0.68
H 0.23
Mn 1.61
N 0.68
O 0.68
loop_
_atom_site_label
_atom_site_type_symbol
_atom_site_fract_x
_atom_site_fract_y
_atom_site_fract_z
Mn1 Mn 0.33587(2) 0.33076(2) 0.58630(9)
O1 O 0.42796(12) 0.26279(12) 0.43845(15)
O2 O 0.43230(12) 0.15887(12) 0.23053(15)
O3 O 0.39854(12) 0.49097(11) 0.43642(14)
O4 O 0.49982(11) 0.60142(12) 0.22902(14)
O5 O 0.16950(11) 0.22984(12) 0.44798(14)
O6 O 0.06993(12) 0.24280(12) 0.24042(14)
C1 C 0.37963(19) 0.1917(2) 0.3243(2)
H1 H 0.29490 0.16030 0.30850
C2 C 0.46808(18) 0.51497(19) 0.3204(2)
H2 H 0.49920 0.46170 0.30120
C3 C 0.13444(18) 0.28660(18) 0.3598(2)
H3 H 0.15890 0.36850 0.38630
N1 N 0.66670 0.33330 0.5388(4)
H4 H 0.5926(13) 0.3052(19) 0.501(2)
H5 H 0.66670 0.33330 0.647(2)
N2 N 0.33330 0.66670 0.5346(4)
H6 H 0.3592(19) 0.6160(18) 0.494(2)
H7 H 0.33330 0.66670 0.646(2)
N3 N 0.00000 0.00000 0.1427(5)
H8 H 0.0246(18) 0.0759(12) 0.1808(18)
H9 H 0.00000 0.00000 0.035(2)
Mn1C Mn 0.66413(2) 0.66924(2) 0.08630(9)
Mn1D Mn 0.33076(2) -0.00511(2) 0.08630(9)
Mn1E Mn 0.00511(2) 0.33587(2) 0.08630(9)
O2E O 0.27343(12) 0.43230(12) 0.73053(15)
O4C O 0.50018(11) 0.39858(12) 0.72902(14)
O6D O 0.24280(12) 0.17287(12) 0.74042(14)
H4A H 0.6948(13) 0.2874(19) 0.501(2)
H4B H 0.7126(13) 0.4074(19) 0.501(2)
H6A H 0.3840(19) 0.7432(18) 0.494(2)
H6B H 0.2568(19) 0.6408(18) 0.494(2)
H8A H -0.0759(18) -0.0513(12) 0.1808(18)
H8B H 0.0513(18) -0.0246(12) 0.1808(18)
#END
