
#######################################################################
#
#                 Cambridge Crystallographic Data Centre
#                                CCDC
#
#######################################################################
#
# If this CIF has been generated from an entry in the Cambridge
# Structural Database, then it will include bibliographic, chemical,
# crystal, experimental, refinement or atomic coordinate data resulting
# from the CCDC's data processing and validation procedures.
#
#######################################################################

data_CSD_CIF_JEXWOZ07
_audit_creation_date 2019-12-20
_audit_creation_method CSD-ConQuest-V1
_database_code_CSD JEXWOZ07
_database_code_depnum_ccdc_archive 'CCDC 1861331'
_chemical_formula_sum 'C3 H7 Mn1 N1 O6'
_chemical_formula_moiety
;
(C3 H3 Mn1 O6 1-)n,H4 N1 1+
;
_journal_coden_Cambridge 1326
_journal_volume 20
_journal_year 2018
_journal_page_first 24465
_journal_name_full 'Phys.Chem.Chem.Phys.(PCCP) '
loop_
_publ_author_name
"I.E.Collings"
"R.S.Manna"
"A.A.Tsirlin"
"M.Bykov"
"E.Bykova"
"M.Hanfland"
"P.Gegenwart"
"S.v.Smaalen"
"L.Dubrovinsky"
"N.Dubrovinskaia"
_chemical_name_systematic
;
catena-(ammonium tris(\m~2~-formato)-manganese(ii))
;
_cell_volume    395.131
_exptl_crystal_colour 'colorless'
_exptl_crystal_density_diffrn 1.749
_exptl_crystal_description 'block'
_diffrn_ambient_temperature 293
_diffrn_ambient_pressure 250000.0
_diffrn_radiation_probe x-ray
_diffrn_source synchrotron
#These two values have been output from a single CSD field.
_refine_ls_R_factor_gt 0.0301
_refine_ls_wR_factor_gt 0.0301
_symmetry_cell_setting hexagonal
_symmetry_space_group_name_H-M 'P 63 2 2'
_symmetry_Int_Tables_number 182
loop_
_symmetry_equiv_pos_site_id
_symmetry_equiv_pos_as_xyz
1 x,y,z
2 -y,x-y,z
3 -x+y,-x,z
4 -x,-y,1/2+z
5 y,-x+y,1/2+z
6 x-y,x,1/2+z
7 y,x,-z
8 x-y,-y,-z
9 -x,-x+y,-z
10 -y,-x,1/2-z
11 -x+y,y,1/2-z
12 x,x-y,1/2-z
_cell_length_a 7.32804(14)
_cell_length_b 7.32804(14)
_cell_length_c 8.49640(19)
_cell_angle_alpha 90
_cell_angle_beta 90
_cell_angle_gamma 120
_cell_formula_units_Z 2
loop_
_atom_type_symbol
_atom_type_radius_bond
C 0.68
H 0.23
Mn 1.61
N 0.68
O 0.68
loop_
_atom_site_label
_atom_site_type_symbol
_atom_site_fract_x
_atom_site_fract_y
_atom_site_fract_z
Mn1 Mn 0.33333 0.66667 0.25000
O1 O 0.5922(3) 0.8945(3) 0.1039(3)
C1 C 0.5703(6) 1.00000 0.00000
H1 H 0.44343 1.00000 0.00000
N1 N 1.00000 1.00000 0.25000
H2? H 1.085(13) 1.111(8) 0.175(6)
O1G O 0.6977(3) 1.1055(3) -0.1039(3)
O1A O 0.1055(3) 0.6977(3) 0.1039(3)
C1A C 0.0000(6) 0.57030 0.00000
H1A H 0.00000 0.44344 0.00000
O1F O -0.1055(3) 0.5922(3) -0.1039(3)
O1B O 0.3023(3) 0.4078(3) 0.1039(3)
C1B C 0.4297(6) 0.42970 0.00000
H1B H 0.55656 0.55656 0.00000
O1H O 0.4078(3) 0.3023(3) -0.1039(3)
Mn1C Mn -0.33333 0.33333 -0.25000
Mn1C* Mn 0.66667 0.33333 -0.25000
Mn1C** Mn 0.66667 1.33333 -0.25000
O1I O 0.1055(3) 0.4078(3) 0.3961(3)
O1J O 0.3023(3) 0.8945(3) 0.3961(3)
O1K O 0.5922(3) 0.6977(3) 0.3961(3)
#END
