
#######################################################################
#
#                 Cambridge Crystallographic Data Centre
#                                CCDC
#
#######################################################################
#
# If this CIF has been generated from an entry in the Cambridge
# Structural Database, then it will include bibliographic, chemical,
# crystal, experimental, refinement or atomic coordinate data resulting
# from the CCDC's data processing and validation procedures.
#
#######################################################################

data_CSD_CIF_JEXWOZ04
_audit_creation_date 2015-06-04
_audit_creation_method CSD-ConQuest-V1
_database_code_CSD JEXWOZ04
_database_code_depnum_ccdc_archive 'CCDC 1048677'
_chemical_formula_sum 'C3 H7 Mn1 N1 O6'
_chemical_formula_moiety
;
(H4 N1 1+)n,n(C3 H3 Mn1 O6 1-)
;
_journal_coden_Cambridge 222
_journal_volume 44
_journal_year 2015
_journal_page_first 11613
_journal_name_full 'Dalton Trans. '
loop_
_publ_author_name
"J.M.M.Lawler"
"P.Manuel"
"A.L.Thompson"
"P.J.Saines"
_chemical_name_systematic
;
catena-[Ammonium tris(\m~2~-formato)-manganese(ii)]
;
_cell_volume    690.944
_exptl_crystal_colour 'colorless'
_exptl_crystal_density_diffrn 2.0
_exptl_special_details
;
Pna21 polymorph

;
_exptl_crystal_description 'block'
_diffrn_ambient_temperature 150
#These two values have been output from a single CSD field.
_refine_ls_R_factor_gt 0.0275
_refine_ls_wR_factor_gt 0.0275
_symmetry_cell_setting orthorhombic
_symmetry_space_group_name_H-M 'P n a 21'
_symmetry_Int_Tables_number 33
loop_
_symmetry_equiv_pos_site_id
_symmetry_equiv_pos_as_xyz
1 x,y,z
2 1/2-x,1/2+y,1/2+z
3 1/2+x,1/2-y,z
4 -x,-y,1/2+z
_cell_length_a 6.8568(2)
_cell_length_b 9.3906(2)
_cell_length_c 10.7307(3)
_cell_angle_alpha 90
_cell_angle_beta 90
_cell_angle_gamma 90
_cell_formula_units_Z 4
loop_
_atom_type_symbol
_atom_type_radius_bond
C 0.68
H 0.23
Mn 1.61
N 0.68
O 0.68
loop_
_atom_site_label
_atom_site_type_symbol
_atom_site_fract_x
_atom_site_fract_y
_atom_site_fract_z
Mn1 Mn 0.39466(5) 0.49733(4) 0.47030(13)
O1 O 0.6509(3) 0.5981(2) 0.3920(2)
C1 C 0.7497(4) 0.7092(3) 0.4048(3)
O2 O 0.7311(3) 0.80214(19) 0.4877(2)
O3 O 0.5102(3) 0.5361(2) 0.6571(2)
C2 C 0.6840(4) 0.5317(3) 0.6858(3)
O4 O 0.7530(3) 0.5431(2) 0.7937(2)
O5 O 0.1492(3) 0.4017(2) 0.5681(2)
C3 C 0.0517(4) 0.2900(3) 0.5543(3)
O6 O 0.0627(3) 0.20356(17) 0.4651(2)
H1 H 0.85110 0.72510 0.34490
H2 H 0.77670 0.51860 0.61820
H3 H -0.03990 0.26710 0.61920
N1 N -0.1486(3) 0.3720(3) 0.2611(2)
H4 H -0.23130 0.44600 0.26860
H5 H -0.15450 0.33810 0.18390
H6 H -0.18470 0.30380 0.31540
H7 H -0.02730 0.40160 0.27780
Mn1B Mn -0.10534(5) 0.00267(4) 0.47030(13)
Mn1B* Mn 0.89466(5) 1.00267(4) 0.47030(13)
Mn1C Mn 0.60534(5) 0.50267(4) 0.97030(13)
O2B O 0.2311(3) 0.69786(19) 0.4877(2)
O4C O 0.2470(3) 0.4569(2) 0.2937(2)
O6B O 0.5627(3) 0.29644(17) 0.4651(2)
#END
