
#######################################################################
#
#                 Cambridge Crystallographic Data Centre
#                                CCDC
#
#######################################################################
#
# If this CIF has been generated from an entry in the Cambridge
# Structural Database, then it will include bibliographic, chemical,
# crystal, experimental, refinement or atomic coordinate data resulting
# from the CCDC's data processing and validation procedures.
#
#######################################################################

data_CSD_CIF_JEXWOZ13
_audit_creation_date 2019-12-20
_audit_creation_method CSD-ConQuest-V1
_database_code_CSD JEXWOZ13
_database_code_depnum_ccdc_archive 'CCDC 1861336'
_chemical_formula_sum 'C3 H7 Mn1 N1 O6'
_chemical_formula_moiety
;
(C3 H3 Mn1 O6 1-)n,H4 N1 1+
;
_journal_coden_Cambridge 1326
_journal_volume 20
_journal_year 2018
_journal_page_first 24465
_journal_name_full 'Phys.Chem.Chem.Phys.(PCCP) '
loop_
_publ_author_name
"I.E.Collings"
"R.S.Manna"
"A.A.Tsirlin"
"M.Bykov"
"E.Bykova"
"M.Hanfland"
"P.Gegenwart"
"S.v.Smaalen"
"L.Dubrovinsky"
"N.Dubrovinskaia"
_chemical_name_systematic
;
catena-(ammonium tris(\m~2~-formato)-manganese(ii))
;
_cell_volume    363.805
_exptl_crystal_colour 'colorless'
_exptl_crystal_density_diffrn 1.899
_exptl_crystal_description 'block'
_diffrn_ambient_temperature 293
_diffrn_ambient_pressure 1090000.0
_diffrn_radiation_probe x-ray
_diffrn_source synchrotron
#These two values have been output from a single CSD field.
_refine_ls_R_factor_gt 0.0964
_refine_ls_wR_factor_gt 0.0964
_symmetry_cell_setting monoclinic
_symmetry_space_group_name_H-M 'P 21'
_symmetry_Int_Tables_number 4
loop_
_symmetry_equiv_pos_site_id
_symmetry_equiv_pos_as_xyz
1 x,y,z
2 -x,1/2+y,-z
_cell_length_a 6.443(3)
_cell_length_b 8.496(2)
_cell_length_c 7.372(5)
_cell_angle_alpha 90
_cell_angle_beta 115.64(8)
_cell_angle_gamma 90
_cell_formula_units_Z 2
loop_
_atom_type_symbol
_atom_type_radius_bond
C 0.68
H 0.23
Mn 1.61
N 0.68
O 0.68
loop_
_atom_site_label
_atom_site_type_symbol
_atom_site_fract_x
_atom_site_fract_y
_atom_site_fract_z
Mn1 Mn 0.6626(3) 0.25000 0.32476(18)
O1 O 0.8754(14) 0.0991(11) 0.5689(10)
O2 O 0.3593(14) 0.1199(10) 0.2923(11)
O3 O 0.7010(14) 0.0988(12) 0.1026(10)
O4 O 1.0685(13) -0.1212(10) 0.7088(12)
O5 O 0.3133(15) -0.0998(11) 0.4307(11)
O6 O 0.5962(13) -0.0981(11) -0.1049(10)
C1 C 0.928(2) -0.0383(17) 0.568(2)
C2 C 0.3583(19) 0.0443(15) 0.4287(16)
C3 C 0.560(2) 0.0045(18) -0.001(2)
H1 H 0.85116 -0.09110 0.44086
H2 H 0.39649 0.10042 0.55207
H3 H 0.41002 0.00852 -0.00352
N1 N -0.0257(14) 0.2495(17) -0.0546(10)
Mn1A Mn 0.3374(3) -0.25000 -0.32476(18)
Mn1A* Mn 0.3374(3) -0.25000 0.67524(18)
Mn1A** Mn 1.3374(3) -0.25000 0.67524(18)
O4A O 0.9315(13) 0.3788(10) 0.2912(12)
O5A O 0.6867(15) 0.4002(11) 0.5693(11)
O6A O 0.4038(13) 0.4019(11) 0.1049(10)
#END
