
#######################################################################
#
#                 Cambridge Crystallographic Data Centre
#                                CCDC
#
#######################################################################
#
# If this CIF has been generated from an entry in the Cambridge
# Structural Database, then it will include bibliographic, chemical,
# crystal, experimental, refinement or atomic coordinate data resulting
# from the CCDC's data processing and validation procedures.
#
#######################################################################

data_CSD_CIF_JEXWOZ11
_audit_creation_date 2019-12-20
_audit_creation_method CSD-ConQuest-V1
_database_code_CSD JEXWOZ11
_database_code_depnum_ccdc_archive 'CCDC 1861334'
_chemical_formula_sum 'C3 H7 Mn1 N1 O6'
_chemical_formula_moiety
;
(C3 H3 Mn1 O6 1-)n,H4 N1 1+
;
_journal_coden_Cambridge 1326
_journal_volume 20
_journal_year 2018
_journal_page_first 24465
_journal_name_full 'Phys.Chem.Chem.Phys.(PCCP) '
loop_
_publ_author_name
"I.E.Collings"
"R.S.Manna"
"A.A.Tsirlin"
"M.Bykov"
"E.Bykova"
"M.Hanfland"
"P.Gegenwart"
"S.v.Smaalen"
"L.Dubrovinsky"
"N.Dubrovinskaia"
_chemical_name_systematic
;
catena-(ammonium tris(\m~2~-formato)-manganese(ii))
;
_cell_volume    374.559
_exptl_crystal_colour 'colorless'
_exptl_crystal_density_diffrn 1.845
_exptl_crystal_description 'block'
_diffrn_ambient_temperature 293
_diffrn_ambient_pressure 620000.0
_diffrn_radiation_probe x-ray
_diffrn_source synchrotron
#These two values have been output from a single CSD field.
_refine_ls_R_factor_gt 0.0687
_refine_ls_wR_factor_gt 0.0687
_symmetry_cell_setting monoclinic
_symmetry_space_group_name_H-M 'P 21'
_symmetry_Int_Tables_number 4
loop_
_symmetry_equiv_pos_site_id
_symmetry_equiv_pos_as_xyz
1 x,y,z
2 -x,1/2+y,-z
_cell_length_a 6.6400(19)
_cell_length_b 8.4889(18)
_cell_length_c 7.422(2)
_cell_angle_alpha 90
_cell_angle_beta 116.45(4)
_cell_angle_gamma 90
_cell_formula_units_Z 2
loop_
_atom_type_symbol
_atom_type_radius_bond
C 0.68
H 0.23
Mn 1.61
N 0.68
O 0.68
loop_
_atom_site_label
_atom_site_type_symbol
_atom_site_fract_x
_atom_site_fract_y
_atom_site_fract_z
Mn1 Mn 0.6620(2) 0.25000 0.32432(15)
O1 O 0.8774(10) 0.1013(8) 0.5715(7)
O2 O 0.6323(11) 0.6133(8) 0.7097(9)
O3 O 0.2967(11) 0.5996(9) -0.1028(8)
O4 O 1.0766(10) -0.1172(8) 0.7061(8)
O5 O 0.6904(11) 0.3968(9) 0.5710(8)
O6 O 0.4017(10) 0.3976(8) 0.1036(8)
C1 C 0.9406(16) -0.0336(13) 0.5700(14)
C2 C 0.6241(16) 0.5336(14) 0.5640(14)
C3 C 0.4350(17) 0.4995(15) 0.0001(17)
H1 H 0.87271 -0.08343 0.44034
H2 H 0.56015 0.58395 0.43467
H3 H 0.57958 0.50063 0.00004
N1 N -0.022(1) 0.2514(14) -0.0482(8)
Mn1A Mn 0.3380(2) 0.75000 -0.32432(15)
Mn1A* Mn 0.3380(2) 0.75000 0.67568(15)
Mn1A** Mn 1.3380(2) -0.25000 0.67568(15)
O2A O 0.3677(11) 0.1133(8) 0.2903(9)
O3A O 0.7033(11) 0.0996(9) 0.1028(8)
O4A O 0.9234(10) 0.3828(8) 0.2939(8)
#END
