
#######################################################################
#
#                 Cambridge Crystallographic Data Centre
#                                CCDC
#
#######################################################################
#
# If this CIF has been generated from an entry in the Cambridge
# Structural Database, then it will include bibliographic, chemical,
# crystal, experimental, refinement or atomic coordinate data resulting
# from the CCDC's data processing and validation procedures.
#
#######################################################################

data_CSD_CIF_JEXWOZ01
_audit_creation_date 2012-01-16
_audit_creation_method CSD-ConQuest-V1
_database_code_CSD JEXWOZ01
_database_code_depnum_ccdc_archive 'CCDC 840001'
_chemical_formula_sum 'C3 H7 Mn1 N1 O6'
_chemical_formula_moiety
;
(C3 H3 Mn1 O6 1-)n,n(H4 N1 1+)
;
_journal_coden_Cambridge 4
_journal_volume 133
_journal_year 2011
_journal_page_first 14948
_journal_name_full 'J.Am.Chem.Soc. '
loop_
_publ_author_name
"Guan-Cheng Xu"
"Wen Zhang"
"Xiao-Ming Ma"
"Yi-Hong Chen"
"Li Zhang"
"Hong-Ling Cai"
"Zhe-Ming Wang"
"Ren-Gen Xiong"
"Song Gao"
_chemical_name_systematic
;
catena-[Ammonium tris(\m~2~-formato)-manganese]
;
_cell_volume    398.453
_exptl_crystal_colour 'pale pink'
_exptl_crystal_density_diffrn 1.734
_exptl_crystal_description 'hexagonal block'
_diffrn_ambient_temperature 290
_refine_special_details
;
The NH proton is disordered by symmetry over three sites with occupancy 0.33.

;
#These two values have been output from a single CSD field.
_refine_ls_R_factor_gt 0.0202
_refine_ls_wR_factor_gt 0.0202
_symmetry_cell_setting hexagonal
_symmetry_space_group_name_H-M 'P 63 2 2'
_symmetry_Int_Tables_number 182
loop_
_symmetry_equiv_pos_site_id
_symmetry_equiv_pos_as_xyz
1 x,y,z
2 -y,x-y,z
3 -x+y,-x,z
4 -x,-y,1/2+z
5 y,-x+y,1/2+z
6 x-y,x,1/2+z
7 y,x,-z
8 x-y,-y,-z
9 -x,-x+y,-z
10 -y,-x,1/2-z
11 -x+y,y,1/2-z
12 x,x-y,1/2-z
_cell_length_a 7.3622(2)
_cell_length_b 7.3622(2)
_cell_length_c 8.4885(3)
_cell_angle_alpha 90
_cell_angle_beta 90
_cell_angle_gamma 120
_cell_formula_units_Z 2
loop_
_atom_type_symbol
_atom_type_radius_bond
C 0.68
H 0.23
Mn 1.61
N 0.68
O 0.68
loop_
_atom_site_label
_atom_site_type_symbol
_atom_site_fract_x
_atom_site_fract_y
_atom_site_fract_z
Mn1 Mn -0.33330 0.33330 0.75000
O1 O -0.10630(26) 0.30235(21) 0.60348(10)
C1 C 0.00000 0.4297(3) 0.50000
H1 H 0.00000 0.579(5) 0.50000
N1 N 0.00000 1.00000 0.25000
H2? H 0.020(5) 0.909(4) 0.1821(19)
Mn1D Mn 0.33330 0.66660 0.25000
Mn1E Mn -0.66660 0.66670 0.25000
Mn1C Mn -0.66670 -0.33330 0.25000
O1H O 0.10630(26) 0.40865(21) 0.39652(10)
O1A O -0.30235(26) 0.59135(21) 0.60348(10)
O1G O -0.40865(26) 0.69765(21) 0.39652(10)
O1B O -0.59135(26) 0.10630(21) 0.60348(10)
O1F O -0.69765(26) -0.10630(21) 0.39652(10)
O1I O -0.30235(26) 0.10630(21) 0.89652(10)
O1J O -0.59135(26) 0.30235(21) 0.89652(10)
O1K O -0.10630(26) 0.59135(21) 0.89652(10)
C1A C -0.42970 0.5703(3) 0.50000
C1B C -0.57030 0.0000(3) 0.50000
H1A H -0.57900 0.421(5) 0.50000
H1B H -0.42100 0.000(5) 0.50000
#END
