
#######################################################################
#
#                 Cambridge Crystallographic Data Centre
#                                CCDC
#
#######################################################################
#
# If this CIF has been generated from an entry in the Cambridge
# Structural Database, then it will include bibliographic, chemical,
# crystal, experimental, refinement or atomic coordinate data resulting
# from the CCDC's data processing and validation procedures.
#
#######################################################################

data_CSD_CIF_JEXWOZ12
_audit_creation_date 2019-12-20
_audit_creation_method CSD-ConQuest-V1
_database_code_CSD JEXWOZ12
_database_code_depnum_ccdc_archive 'CCDC 1861335'
_chemical_formula_sum 'C3 H7 Mn1 N1 O6'
_chemical_formula_moiety
;
(C3 H3 Mn1 O6 1-)n,H4 N1 1+
;
_journal_coden_Cambridge 1326
_journal_volume 20
_journal_year 2018
_journal_page_first 24465
_journal_name_full 'Phys.Chem.Chem.Phys.(PCCP) '
loop_
_publ_author_name
"I.E.Collings"
"R.S.Manna"
"A.A.Tsirlin"
"M.Bykov"
"E.Bykova"
"M.Hanfland"
"P.Gegenwart"
"S.v.Smaalen"
"L.Dubrovinsky"
"N.Dubrovinskaia"
_chemical_name_systematic
;
catena-(ammonium tris(\m~2~-formato)-manganese(ii))
;
_cell_volume    368.943
_exptl_crystal_colour 'colorless'
_exptl_crystal_density_diffrn 1.873
_exptl_crystal_description 'block'
_diffrn_ambient_temperature 293
_diffrn_ambient_pressure 850000.0
_diffrn_radiation_probe x-ray
_diffrn_source synchrotron
#These two values have been output from a single CSD field.
_refine_ls_R_factor_gt 0.0754
_refine_ls_wR_factor_gt 0.0754
_symmetry_cell_setting monoclinic
_symmetry_space_group_name_H-M 'P 21'
_symmetry_Int_Tables_number 4
loop_
_symmetry_equiv_pos_site_id
_symmetry_equiv_pos_as_xyz
1 x,y,z
2 -x,1/2+y,-z
_cell_length_a 6.537(2)
_cell_length_b 8.4865(16)
_cell_length_c 7.405(3)
_cell_angle_alpha 90
_cell_angle_beta 116.09(4)
_cell_angle_gamma 90
_cell_formula_units_Z 2
loop_
_atom_type_symbol
_atom_type_radius_bond
C 0.68
H 0.23
Mn 1.61
N 0.68
O 0.68
loop_
_atom_site_label
_atom_site_type_symbol
_atom_site_fract_x
_atom_site_fract_y
_atom_site_fract_z
Mn1 Mn 0.66261(17) 0.25000 0.32416(12)
O1 O 0.8754(9) 0.0990(7) 0.5688(7)
O2 O 0.3658(9) 0.1170(7) 0.2940(7)
O3 O 0.2992(10) 0.6003(8) -0.1035(7)
O4 O 1.0710(9) -0.1181(7) 0.7070(7)
O5 O 0.3109(9) -0.1018(7) 0.4294(7)
O6 O 0.4061(8) 0.3994(7) 0.1049(7)
C1 C 0.9291(13) -0.0402(10) 0.5648(11)
C2 C 0.3658(14) 0.0378(11) 0.4360(12)
C3 C 0.4405(14) 0.5003(11) 0.0021(13)
H1 H 0.85323 -0.09393 0.43836
H2 H 0.41324 0.09070 0.56268
H3 H 0.58797 0.50204 0.00348
N1 N -0.0250(9) 0.2519(12) -0.0553(7)
Mn1A Mn 0.33739(17) -0.25000 0.67584(12)
Mn1A* Mn 0.33739(17) 0.75000 -0.32416(12)
Mn1A** Mn 1.33739(17) -0.25000 0.67584(12)
O3A O 0.7008(10) 0.1003(8) 0.1035(7)
O4A O 0.9290(9) 0.3819(7) 0.2930(7)
O5A O 0.6891(9) 0.3982(7) 0.5706(7)
#END
