
#######################################################################
#
#                 Cambridge Crystallographic Data Centre
#                                CCDC
#
#######################################################################
#
# If this CIF has been generated from an entry in the Cambridge
# Structural Database, then it will include bibliographic, chemical,
# crystal, experimental, refinement or atomic coordinate data resulting
# from the CCDC's data processing and validation procedures.
#
#######################################################################

data_CSD_CIF_JEXWOZ08
_audit_creation_date 2019-12-20
_audit_creation_method CSD-ConQuest-V1
_database_code_CSD JEXWOZ08
_database_code_depnum_ccdc_archive 'CCDC 1861329'
_chemical_formula_sum 'C3 H7 Mn1 N1 O6'
_chemical_formula_moiety
;
(C3 H3 Mn1 O6 1-)n,H4 N1 1+
;
_journal_coden_Cambridge 1326
_journal_volume 20
_journal_year 2018
_journal_page_first 24465
_journal_name_full 'Phys.Chem.Chem.Phys.(PCCP) '
loop_
_publ_author_name
"I.E.Collings"
"R.S.Manna"
"A.A.Tsirlin"
"M.Bykov"
"E.Bykova"
"M.Hanfland"
"P.Gegenwart"
"S.v.Smaalen"
"L.Dubrovinsky"
"N.Dubrovinskaia"
_chemical_name_systematic
;
catena-(ammonium tris(\m~2~-formato)-manganese(ii))
;
_cell_volume    399.186
_exptl_crystal_colour 'colorless'
_exptl_crystal_density_diffrn 1.731
_exptl_crystal_description 'block'
_diffrn_ambient_temperature 293
_diffrn_radiation_probe x-ray
_diffrn_source synchrotron
#These two values have been output from a single CSD field.
_refine_ls_R_factor_gt 0.0413
_refine_ls_wR_factor_gt 0.0413
_symmetry_cell_setting hexagonal
_symmetry_space_group_name_H-M 'P 63 2 2'
_symmetry_Int_Tables_number 182
loop_
_symmetry_equiv_pos_site_id
_symmetry_equiv_pos_as_xyz
1 x,y,z
2 -y,x-y,z
3 -x+y,-x,z
4 -x,-y,1/2+z
5 y,-x+y,1/2+z
6 x-y,x,1/2+z
7 y,x,-z
8 x-y,-y,-z
9 -x,-x+y,-z
10 -y,-x,1/2-z
11 -x+y,y,1/2-z
12 x,x-y,1/2-z
_cell_length_a 7.3678(7)
_cell_length_b 7.3678(7)
_cell_length_c 8.4912(9)
_cell_angle_alpha 90
_cell_angle_beta 90
_cell_angle_gamma 120
_cell_formula_units_Z 2
loop_
_atom_type_symbol
_atom_type_radius_bond
C 0.68
H 0.23
Mn 1.61
N 0.68
O 0.68
loop_
_atom_site_label
_atom_site_type_symbol
_atom_site_fract_x
_atom_site_fract_y
_atom_site_fract_z
Mn1 Mn 0.33333 0.66667 0.25000
O1 O 0.5912(5) 0.8947(6) 0.1032(4)
C1 C 0.5710(11) 1.00000 0.00000
H1 H 0.44477 1.00000 0.00000
N1 N 1.00000 1.00000 0.25000
H2? H 1.07(3) 1.110(16) 0.175(9)
O1G O 0.6965(5) 1.1053(6) -0.1032(4)
O1A O 0.1053(5) 0.6965(6) 0.1032(4)
C1A C 0.0000(11) 0.57100 0.00000
H1A H 0.00000 0.44477 0.00000
O1F O -0.1053(5) 0.5912(6) -0.1032(4)
O1B O 0.3035(5) 0.4088(6) 0.1032(4)
C1B C 0.4290(11) 0.42900 0.00000
H1B H 0.55523 0.55523 0.00000
O1H O 0.4088(5) 0.3035(6) -0.1032(4)
Mn1C Mn -0.33333 0.33333 -0.25000
Mn1C* Mn 0.66667 0.33333 -0.25000
Mn1C** Mn 0.66667 1.33333 -0.25000
O1I O 0.1053(5) 0.4088(6) 0.3968(4)
O1J O 0.3035(5) 0.8947(6) 0.3968(4)
O1K O 0.5912(5) 0.6965(6) 0.3968(4)
#END
