
#######################################################################
#
#                 Cambridge Crystallographic Data Centre
#                                CCDC
#
#######################################################################
#
# If this CIF has been generated from an entry in the Cambridge
# Structural Database, then it will include bibliographic, chemical,
# crystal, experimental, refinement or atomic coordinate data resulting
# from the CCDC's data processing and validation procedures.
#
#######################################################################

data_CSD_CIF_JEXWOZ
_audit_creation_date 2007-04-27
_audit_creation_method CSD-ConQuest-V1
_database_code_CSD JEXWOZ
_database_code_depnum_ccdc_archive 'CCDC 639566'
_chemical_formula_sum 'C3 H7 Mn1 N1 O6'
_chemical_formula_moiety
;
(H4 N1 1+)n,n(C3 H3 Mn1 O6 1-)
;
_journal_coden_Cambridge 9
_journal_volume 46
_journal_year 2007
_journal_page_first 437
_journal_name_full 'Inorg.Chem. '
loop_
_publ_author_name
"Zheming Wang"
"Bin Zhang"
"K.Inoue"
"H.Fujiwara"
"T.Otsuka"
"H.Kobayashi"
"M.Kurmoo"
_chemical_name_systematic
;
catena-(ammonium tris(\m~2~-formato)-manganese(ii))
;
_cell_volume    397.253
_exptl_crystal_colour 'colorless'
_exptl_crystal_density_diffrn 1.739
_exptl_special_details
;
magnetic properties
P6322 polymorph
Isomorphous with the Co and Ni analogues

;
_exptl_crystal_description 'block'
_diffrn_ambient_temperature 293
#These two values have been output from a single CSD field.
_refine_ls_R_factor_gt 0.0195
_refine_ls_wR_factor_gt 0.0195
_symmetry_cell_setting hexagonal
_symmetry_space_group_name_H-M 'P 63 2 2'
_symmetry_Int_Tables_number 182
loop_
_symmetry_equiv_pos_site_id
_symmetry_equiv_pos_as_xyz
1 x,y,z
2 -y,x-y,z
3 -x+y,-x,z
4 -x,-y,1/2+z
5 y,-x+y,1/2+z
6 x-y,x,1/2+z
7 y,x,-z
8 x-y,-y,-z
9 -x,-x+y,-z
10 -y,-x,1/2-z
11 -x+y,y,1/2-z
12 x,x-y,1/2-z
_cell_length_a 7.3557(15)
_cell_length_b 7.3557(15)
_cell_length_c 8.4779(17)
_cell_angle_alpha 90
_cell_angle_beta 90
_cell_angle_gamma 120
_cell_formula_units_Z 2
loop_
_atom_type_symbol
_atom_type_radius_bond
C 0.68
H 0.23
Mn 1.35
N 0.68
O 0.68
loop_
_atom_site_label
_atom_site_type_symbol
_atom_site_fract_x
_atom_site_fract_y
_atom_site_fract_z
Mn1 Mn 0.33330 0.66670 0.25000
O1 O 0.10587(19) 0.69757(19) 0.10338(12)
C1 C 0.00000 0.5700(4) 0.00000
H1 H 0.00000 0.418(6) 0.00000
N1 N 0.00000 1.00000 0.25000
H2? H 0.023(6) 0.906(5) 0.183(2)
Mn1C Mn -0.33330 0.33330 -0.25000
Mn1C* Mn 0.66670 0.33330 -0.25000
Mn1C** Mn 0.66670 1.33330 -0.25000
O1H O -0.10587(19) 0.59170(19) -0.10338(12)
O1A O 0.30243(19) 0.40830(19) 0.10338(12)
O1G O 0.40830(19) 0.30243(19) -0.10338(12)
O1B O 0.59170(19) 0.89413(19) 0.10338(12)
O1F O 0.69757(19) 1.10587(19) -0.10338(12)
O1I O 0.30243(19) 0.89413(19) 0.39662(12)
O1J O 0.59170(19) 0.69757(19) 0.39662(12)
O1K O 0.10587(19) 0.40830(19) 0.39662(12)
C1A C 0.43000 0.4300(4) 0.00000
C1B C 0.57000 1.0000(4) 0.00000
H1A H 0.58200 0.582(6) 0.00000
H1B H 0.41800 1.000(6) 0.00000
#END
