
#######################################################################
#
#                 Cambridge Crystallographic Data Centre
#                                CCDC
#
#######################################################################
#
# If this CIF has been generated from an entry in the Cambridge
# Structural Database, then it will include bibliographic, chemical,
# crystal, experimental, refinement or atomic coordinate data resulting
# from the CCDC's data processing and validation procedures.
#
#######################################################################

data_CSD_CIF_JEXXAM06
_audit_creation_date 2016-11-10
_audit_creation_method CSD-ConQuest-V1
_database_code_CSD JEXXAM06
_database_code_depnum_ccdc_archive 'CCDC 1501453'
_chemical_formula_sum 'C3 H7 N1 Ni1 O6'
_chemical_formula_moiety
;
(C3 H3 Ni1 O6 1-)n,H4 N1 1+
;
_journal_coden_Cambridge 1350
_journal_volume 18
_journal_year 2016
_journal_page_first 8849
_journal_name_full 'CrystEngComm '
loop_
_publ_author_name
"I.E.Collings"
"M.Bykov"
"E.Bykova"
"M.G.Tucker"
"S.Petitgirard"
"M.Hanfland"
"K.Glazyrin"
"S.van Smaalen"
"A.L.Goodwin"
"L.Dubrovinsky"
"N.Dubrovinskaia"
_chemical_name_systematic
;
catena-[ammonium tris(\m-formato)-nickel]
;
_cell_volume    368.969
_exptl_crystal_colour 'green'
_exptl_crystal_density_diffrn 1.906
_exptl_crystal_description 'hexagonal block'
_diffrn_ambient_temperature 100
_refine_special_details
;
N1 disordered by symmetry over two configurations with occupancy 0.5.

;
#These two values have been output from a single CSD field.
_refine_ls_R_factor_gt 0.0179
_refine_ls_wR_factor_gt 0.0179
_symmetry_cell_setting hexagonal
_symmetry_space_group_name_H-M 'P 63 2 2'
_symmetry_Int_Tables_number 182
loop_
_symmetry_equiv_pos_site_id
_symmetry_equiv_pos_as_xyz
1 x,y,z
2 -y,x-y,z
3 -x+y,-x,z
4 -x,-y,1/2+z
5 y,-x+y,1/2+z
6 x-y,x,1/2+z
7 y,x,-z
8 x-y,-y,-z
9 -x,-x+y,-z
10 -y,-x,1/2-z
11 -x+y,y,1/2-z
12 x,x-y,1/2-z
_cell_length_a 7.26097(16)
_cell_length_b 7.26097(16)
_cell_length_c 8.0811(2)
_cell_angle_alpha 90
_cell_angle_beta 90
_cell_angle_gamma 120
_cell_formula_units_Z 2
loop_
_atom_type_symbol
_atom_type_radius_bond
C 0.68
H 0.23
N 0.68
Ni 1.24
O 0.68
loop_
_atom_site_label
_atom_site_type_symbol
_atom_site_fract_x
_atom_site_fract_y
_atom_site_fract_z
Ni1 Ni 0.66670 0.33330 0.25000
O1 O 0.6915(2) 0.1114(2) 0.10668(14)
C1 C 0.5564(4) 0.00000 0.00000
H1 H 0.42830 0.00000 0.00000
N1 N 0.00000 0.00000 0.2077(6)
H2? H 0.00000 0.00000 0.341(16)
H3? H -0.11(1) 0.033(11) 0.163(7)
O1G O 0.5801(2) -0.1114(2) -0.10668(14)
O1A O 0.8886(2) 0.5801(2) 0.10668(14)
C1A C 1.0000(4) 0.55640 0.00000
H1A H 1.00000 0.42830 0.00000
O1F O 1.1114(2) 0.6915(2) -0.10668(14)
O1B O 0.4199(2) 0.3085(2) 0.10668(14)
C1B C 0.4436(4) 0.44360 0.00000
H1B H 0.57170 0.57170 0.00000
O1H O 0.3085(2) 0.4199(2) -0.10668(14)
Ni1C Ni 0.33330 -0.33330 -0.25000
Ni1C* Ni 0.33330 0.66670 -0.25000
Ni1C** Ni 1.33330 0.66670 -0.25000
O1I O 0.8886(2) 0.3085(2) 0.39332(14)
O1J O 0.4199(2) 0.1114(2) 0.39332(14)
O1K O 0.6915(2) 0.5801(2) 0.39332(14)
#END
