
#######################################################################
#
#                 Cambridge Crystallographic Data Centre
#                                CCDC
#
#######################################################################
#
# If this CIF has been generated from an entry in the Cambridge
# Structural Database, then it will include bibliographic, chemical,
# crystal, experimental, refinement or atomic coordinate data resulting
# from the CCDC's data processing and validation procedures.
#
#######################################################################

data_CSD_CIF_JEXXAM04
_audit_creation_date 2016-11-10
_audit_creation_method CSD-ConQuest-V1
_database_code_CSD JEXXAM04
_database_code_depnum_ccdc_archive 'CCDC 1501451'
_chemical_formula_sum 'C3 H7 N1 Ni1 O6'
_chemical_formula_moiety
;
(C3 H3 Ni1 O6 1-)n,H4 N1 1+
;
_journal_coden_Cambridge 1350
_journal_volume 18
_journal_year 2016
_journal_page_first 8849
_journal_name_full 'CrystEngComm '
loop_
_publ_author_name
"I.E.Collings"
"M.Bykov"
"E.Bykova"
"M.G.Tucker"
"S.Petitgirard"
"M.Hanfland"
"K.Glazyrin"
"S.van Smaalen"
"A.L.Goodwin"
"L.Dubrovinsky"
"N.Dubrovinskaia"
_chemical_name_systematic
;
catena-[ammonium tris(\m-formato)-nickel]
;
_cell_volume    332.313
_exptl_crystal_colour 'green'
_exptl_crystal_density_diffrn 2.081
_exptl_special_details
;
monoclinic polymorph

;
_exptl_crystal_description 'hexagonal bipyramid'
_diffrn_ambient_temperature 293
_diffrn_radiation_probe x-ray
_diffrn_source synchrotron
#These two values have been output from a single CSD field.
_refine_ls_R_factor_gt 0.1111
_refine_ls_wR_factor_gt 0.1111
_symmetry_cell_setting monoclinic
_symmetry_space_group_name_H-M 'P 21'
_symmetry_Int_Tables_number 4
loop_
_symmetry_equiv_pos_site_id
_symmetry_equiv_pos_as_xyz
1 x,y,z
2 -x,1/2+y,-z
_cell_length_a 6.306(13)
_cell_length_b 8.0599(14)
_cell_length_c 7.250(13)
_cell_angle_alpha 90
_cell_angle_beta 115.6(2)
_cell_angle_gamma 90
_cell_formula_units_Z 2
loop_
_atom_type_symbol
_atom_type_radius_bond
C 0.68
H 0.23
N 0.68
Ni 1.24
O 0.68
loop_
_atom_site_label
_atom_site_type_symbol
_atom_site_fract_x
_atom_site_fract_y
_atom_site_fract_z
Ni1 Ni 0.6598(5) 0.75000 0.3190(4)
O1 O 0.921(2) 0.6169(16) 0.294(2)
O2 O 0.679(2) 0.6117(16) 0.555(2)
O3 O 0.409(2) 0.6080(16) 0.109(2)
O4 O 1.116(2) 0.3873(16) 0.442(2)
O5 O 0.619(2) 0.3843(16) 0.708(2)
O6 O 0.304(2) 0.3967(15) -0.108(2)
C1 C 1.064(3) 0.5375(19) 0.439(3)
C2 C 0.613(3) 0.4648(19) 0.544(3)
C3 C 0.449(4) 0.510(3) 0.002(4)
H1 H 1.14615 0.59770 0.56437
H2 H 0.55601 0.40813 0.41487
H3 H 0.59952 0.51636 -0.00187
N1 N 0.030(2) 0.249(3) 0.055(2)
Ni1A Ni 0.3402(5) 0.25000 -0.3190(4)
Ni1A* Ni 0.3402(5) 0.25000 0.6810(4)
Ni1A** Ni 1.3402(5) 0.25000 0.6810(4)
O4A O 0.884(2) 0.8873(16) 0.558(2)
O5A O 0.381(2) 0.8843(16) 0.292(2)
O6A O 0.696(2) 0.8967(15) 0.108(2)
#END
