
#######################################################################
#
#                 Cambridge Crystallographic Data Centre
#                                CCDC
#
#######################################################################
#
# If this CIF has been generated from an entry in the Cambridge
# Structural Database, then it will include bibliographic, chemical,
# crystal, experimental, refinement or atomic coordinate data resulting
# from the CCDC's data processing and validation procedures.
#
#######################################################################

data_CSD_CIF_JEXXAM18
_audit_creation_date 2019-12-20
_audit_creation_method CSD-ConQuest-V1
_database_code_CSD JEXXAM18
_database_code_depnum_ccdc_archive 'CCDC 1861359'
_chemical_formula_sum 'C3 H7 N1 Ni1 O6'
_chemical_formula_moiety
;
(C3 H3 Ni1 O6 1-)n,H4 N1 1+
;
_journal_coden_Cambridge 1326
_journal_volume 20
_journal_year 2018
_journal_page_first 24465
_journal_name_full 'Phys.Chem.Chem.Phys.(PCCP) '
loop_
_publ_author_name
"I.E.Collings"
"R.S.Manna"
"A.A.Tsirlin"
"M.Bykov"
"E.Bykova"
"M.Hanfland"
"P.Gegenwart"
"S.v.Smaalen"
"L.Dubrovinsky"
"N.Dubrovinskaia"
_chemical_name_systematic
;
catena-[ammonium tris(\m~2~-formato)-nickel]
;
_cell_volume    334.063
_exptl_crystal_colour 'green'
_exptl_crystal_density_diffrn 2.105
_exptl_crystal_description 'hexagonal bipyramid'
_diffrn_ambient_temperature 293
_diffrn_ambient_pressure 2190000.0
_diffrn_radiation_probe x-ray
_diffrn_source synchrotron
#These two values have been output from a single CSD field.
_refine_ls_R_factor_gt 0.1037
_refine_ls_wR_factor_gt 0.1037
_symmetry_cell_setting monoclinic
_symmetry_space_group_name_H-M 'P 21'
_symmetry_Int_Tables_number 4
loop_
_symmetry_equiv_pos_site_id
_symmetry_equiv_pos_as_xyz
1 x,y,z
2 -x,1/2+y,-z
_cell_length_a 6.373(5)
_cell_length_b 8.036(2)
_cell_length_c 7.247(5)
_cell_angle_alpha 90
_cell_angle_beta 115.83(9)
_cell_angle_gamma 90
_cell_formula_units_Z 2
loop_
_atom_type_symbol
_atom_type_radius_bond
C 0.68
H 0.23
N 0.68
Ni 1.24
O 0.68
loop_
_atom_site_label
_atom_site_type_symbol
_atom_site_fract_x
_atom_site_fract_y
_atom_site_fract_z
Ni1 Ni 0.6609(3) 0.2535(3) 0.3177(2)
O1 O 0.4051(16) 0.4004(13) 0.1103(12)
O2 O 0.6731(18) 0.3949(12) 0.5562(13)
C1 C 0.944(3) -0.0289(17) 0.547(2)
O3 O 0.3026(18) 0.6082(12) -0.1090(13)
O4 O 0.6177(18) 0.6131(12) 0.7049(14)
C2 C 0.608(2) 0.5378(18) 0.549(2)
O5 O 0.8807(18) 0.1113(12) 0.5531(14)
O6 O 1.0827(17) -0.1084(13) 0.7086(15)
C3 C 0.444(3) 0.501(2) -0.001(3)
H1 H 0.59321 0.49639 -0.00448
H2 H 0.54616 0.59517 0.41985
H3 H 0.88768 -0.08385 0.41682
N1 N 0.9812(18) 0.253(2) 0.9403(13)
Ni1A Ni 0.3391(3) 0.7535(3) -0.3177(2)
Ni1A* Ni 0.3391(3) 0.7535(3) 0.6823(2)
Ni1A** Ni 1.3391(3) -0.2465(3) 0.6823(2)
O3A O 0.6974(18) 0.1082(12) 0.1090(13)
O4A O 0.3823(18) 0.1131(12) 0.2951(14)
O6A O 0.9173(17) 0.3916(13) 0.2914(15)
#END
