
#######################################################################
#
#                 Cambridge Crystallographic Data Centre
#                                CCDC
#
#######################################################################
#
# If this CIF has been generated from an entry in the Cambridge
# Structural Database, then it will include bibliographic, chemical,
# crystal, experimental, refinement or atomic coordinate data resulting
# from the CCDC's data processing and validation procedures.
#
#######################################################################

data_CSD_CIF_JEXXAM
_audit_creation_date 2007-04-27
_audit_creation_method CSD-ConQuest-V1
_database_code_CSD JEXXAM
_database_code_depnum_ccdc_archive 'CCDC 639568'
_chemical_formula_sum 'C3 H7 N1 Ni1 O6'
_chemical_formula_moiety
;
(H4 N1 1+)n,n(C3 H3 Ni1 O6 1-)
;
_journal_coden_Cambridge 9
_journal_volume 46
_journal_year 2007
_journal_page_first 437
_journal_name_full 'Inorg.Chem. '
loop_
_publ_author_name
"Zheming Wang"
"Bin Zhang"
"K.Inoue"
"H.Fujiwara"
"T.Otsuka"
"H.Kobayashi"
"M.Kurmoo"
_chemical_name_systematic
;
catena-(ammonium tris(\m~2~-formato)-nickel(ii))
;
_cell_volume    368.751
_exptl_crystal_colour 'green'
_exptl_crystal_density_diffrn 1.908
_exptl_special_details
;
magnetic properties
Isomorphous with the Co and Mn analogues

;
_exptl_crystal_description 'block'
_diffrn_ambient_temperature 293
_refine_special_details
;
The NH proton is disordered by symmetry over three sites with occupancy 0.33.

;
#These two values have been output from a single CSD field.
_refine_ls_R_factor_gt 0.0168
_refine_ls_wR_factor_gt 0.0168
_symmetry_cell_setting hexagonal
_symmetry_space_group_name_H-M 'P 63 2 2'
_symmetry_Int_Tables_number 182
loop_
_symmetry_equiv_pos_site_id
_symmetry_equiv_pos_as_xyz
1 x,y,z
2 -y,x-y,z
3 -x+y,-x,z
4 -x,-y,1/2+z
5 y,-x+y,1/2+z
6 x-y,x,1/2+z
7 y,x,-z
8 x-y,-y,-z
9 -x,-x+y,-z
10 -y,-x,1/2-z
11 -x+y,y,1/2-z
12 x,x-y,1/2-z
_cell_length_a 7.2861(13)
_cell_length_b 7.2861(13)
_cell_length_c 8.0207(16)
_cell_angle_alpha 90
_cell_angle_beta 90
_cell_angle_gamma 120
_cell_formula_units_Z 2
loop_
_atom_type_symbol
_atom_type_radius_bond
C 0.68
N 0.68
Ni 1.50
O 0.68
loop_
_atom_site_label
_atom_site_type_symbol
_atom_site_fract_x
_atom_site_fract_y
_atom_site_fract_z
Ni1 Ni 0.66670 0.33330 0.75000
O1 O 0.8886(2) 0.3096(2) 0.89411(14)
C1 C 1.00000 0.4426(4) 1.00000
N1 N 1.00000 0.00000 0.75000
O1A O 0.6904(2) 0.5790(2) 0.89411(14)
O1B O 0.4210(2) 0.1114(2) 0.89411(14)
O1I O 0.6904(2) 0.1114(2) 0.60589(14)
O1J O 0.4210(2) 0.3096(2) 0.60589(14)
O1K O 0.8886(2) 0.5790(2) 0.60589(14)
C1A C 0.55740 0.5574(4) 1.00000
C1B C 0.44260 0.0000(4) 1.00000
O1H O 1.1114(2) 0.4210(2) 1.10589(14)
O1G O 0.5790(2) 0.6904(2) 1.10589(14)
O1F O 0.3096(2) -0.1114(2) 1.10589(14)
Ni1C Ni 1.33330 0.66670 1.25000
Ni1C* Ni 0.33330 0.66670 1.25000
Ni1C** Ni 0.33330 -0.33330 1.25000
#END
