
#######################################################################
#
#                 Cambridge Crystallographic Data Centre
#                                CCDC
#
#######################################################################
#
# If this CIF has been generated from an entry in the Cambridge
# Structural Database, then it will include bibliographic, chemical,
# crystal, experimental, refinement or atomic coordinate data resulting
# from the CCDC's data processing and validation procedures.
#
#######################################################################

data_CSD_CIF_JEXXAM16
_audit_creation_date 2019-12-20
_audit_creation_method CSD-ConQuest-V1
_database_code_CSD JEXXAM16
_database_code_depnum_ccdc_archive 'CCDC 1861357'
_chemical_formula_sum 'C3 H7 N1 Ni1 O6'
_chemical_formula_moiety
;
(C3 H3 Ni1 O6 1-)n,H4 N1 1+
;
_journal_coden_Cambridge 1326
_journal_volume 20
_journal_year 2018
_journal_page_first 24465
_journal_name_full 'Phys.Chem.Chem.Phys.(PCCP) '
loop_
_publ_author_name
"I.E.Collings"
"R.S.Manna"
"A.A.Tsirlin"
"M.Bykov"
"E.Bykova"
"M.Hanfland"
"P.Gegenwart"
"S.v.Smaalen"
"L.Dubrovinsky"
"N.Dubrovinskaia"
_chemical_name_systematic
;
catena-[ammonium tris(\m~2~-formato)-nickel]
;
_cell_volume    339.261
_exptl_crystal_colour 'green'
_exptl_crystal_density_diffrn 2.073
_exptl_crystal_description 'hexagonal bipyramid'
_diffrn_ambient_temperature 293
_diffrn_ambient_pressure 1900000.0
_diffrn_radiation_probe x-ray
_diffrn_source synchrotron
#These two values have been output from a single CSD field.
_refine_ls_R_factor_gt 0.0896
_refine_ls_wR_factor_gt 0.0896
_symmetry_cell_setting monoclinic
_symmetry_space_group_name_H-M 'P 21'
_symmetry_Int_Tables_number 4
loop_
_symmetry_equiv_pos_site_id
_symmetry_equiv_pos_as_xyz
1 x,y,z
2 -x,1/2+y,-z
_cell_length_a 6.470(2)
_cell_length_b 8.0553(8)
_cell_length_c 7.263(2)
_cell_angle_alpha 90
_cell_angle_beta 116.33(4)
_cell_angle_gamma 90
_cell_formula_units_Z 2
loop_
_atom_type_symbol
_atom_type_radius_bond
C 0.68
H 0.23
N 0.68
Ni 1.24
O 0.68
loop_
_atom_site_label
_atom_site_type_symbol
_atom_site_fract_x
_atom_site_fract_y
_atom_site_fract_z
Ni1 Ni 0.6608(2) 0.2535(2) 0.31932(17)
O1 O 0.4063(13) 0.3982(10) 0.1081(10)
O2 O 0.6778(14) 0.3945(9) 0.5568(11)
C1 C 0.953(2) -0.0274(13) 0.5524(18)
O3 O 0.3024(13) 0.6104(10) -0.1064(10)
O4 O 0.6141(14) 0.6137(10) 0.7056(11)
C2 C 0.596(2) 0.5350(14) 0.5481(18)
O5 O 0.8817(14) 0.1125(9) 0.5575(11)
O6 O 1.0902(14) -0.1069(10) 0.7111(12)
C3 C 0.451(2) 0.5016(18) -0.006(2)
H1 H 0.59437 0.49568 -0.01502
H2 H 0.51539 0.58664 0.41602
H3 H 0.90265 -0.08017 0.42095
N1 N 0.9793(13) 0.2508(19) 0.9511(12)
Ni1A Ni 0.3392(2) 0.7535(2) -0.31932(17)
Ni1A* Ni 0.3392(2) 0.7535(2) 0.68068(17)
Ni1A** Ni 1.3392(2) -0.2465(2) 0.68068(17)
O3A O 0.6976(13) 0.1104(10) 0.1064(10)
O4A O 0.3859(14) 0.1137(10) 0.2944(11)
O6A O 0.9098(14) 0.3931(10) 0.2889(12)
#END
