
#######################################################################
#
#                 Cambridge Crystallographic Data Centre
#                                CCDC
#
#######################################################################
#
# If this CIF has been generated from an entry in the Cambridge
# Structural Database, then it will include bibliographic, chemical,
# crystal, experimental, refinement or atomic coordinate data resulting
# from the CCDC's data processing and validation procedures.
#
#######################################################################

data_CSD_CIF_JEXXAM07
_audit_creation_date 2016-11-11
_audit_creation_method CSD-ConQuest-V1
_database_code_CSD JEXXAM07
_database_code_depnum_ccdc_archive 'CCDC 1499770'
_chemical_formula_sum 'C3 H7 N1 Ni1 O6'
_chemical_formula_moiety
;
(C3 H3 Ni1 O6 1-)n,H4 N1 1+
;
_journal_coden_Cambridge 1353
_journal_volume 17
_journal_year 2016
_journal_page_first 3369
_journal_name_full 'ChemPhysChem '
loop_
_publ_author_name
"I.E.Collings"
"E.Bykova"
"M.Bykov"
"S.Petitgirard"
"M.Hanfland"
"D.Paliwoda"
"L.Dubrovinsky"
"N.Dubrovinskaia"
_chemical_name_systematic
;
catena-[ammonium tris(\m-formato)-nickel]
;
_cell_volume    370.263
_exptl_crystal_colour 'green'
_exptl_crystal_density_diffrn 1.9
_exptl_special_details
;
hexagonal polymorph
Moisture-sensitive

;
_exptl_crystal_description 'hexagonal bipyramid'
_exptl_crystal_preparation 'slow-diffusion reaction'
_diffrn_ambient_temperature 293
_diffrn_radiation_probe x-ray
_diffrn_source synchrotron
_refine_special_details
;
H1 disordered by symmetry over three configurations with occupancy 0.6667.

;
#These two values have been output from a single CSD field.
_refine_ls_R_factor_gt 0.0409
_refine_ls_wR_factor_gt 0.0409
_symmetry_cell_setting hexagonal
_symmetry_space_group_name_H-M 'P 63 2 2'
_symmetry_Int_Tables_number 182
loop_
_symmetry_equiv_pos_site_id
_symmetry_equiv_pos_as_xyz
1 x,y,z
2 -y,x-y,z
3 -x+y,-x,z
4 -x,-y,1/2+z
5 y,-x+y,1/2+z
6 x-y,x,1/2+z
7 y,x,-z
8 x-y,-y,-z
9 -x,-x+y,-z
10 -y,-x,1/2-z
11 -x+y,y,1/2-z
12 x,x-y,1/2-z
_cell_length_a 7.2891(2)
_cell_length_b 7.2891(2)
_cell_length_c 8.04697(19)
_cell_angle_alpha 90
_cell_angle_beta 90
_cell_angle_gamma 120
_cell_formula_units_Z 2
loop_
_atom_type_symbol
_atom_type_radius_bond
C 0.68
H 0.23
N 0.68
Ni 1.24
O 0.68
loop_
_atom_site_label
_atom_site_type_symbol
_atom_site_fract_x
_atom_site_fract_y
_atom_site_fract_z
Ni1 Ni 0.66670 0.33330 0.25000
O1 O 0.6903(6) 0.1107(6) 0.1061(4)
C1 C 0.5586(10) 0.00000 0.00000
H1 H 0.43100 0.00000 0.00000
N1 N 0.00000 0.00000 0.25000
H2? H 0.112(6) 0.04(2) 0.316(5)
O1G O 0.5796(6) -0.1107(6) -0.1061(4)
O1A O 0.8893(6) 0.5796(6) 0.1061(4)
C1A C 1.000(1) 0.55860 0.00000
H1A H 1.00000 0.43100 0.00000
O1F O 1.1107(6) 0.6903(6) -0.1061(4)
O1B O 0.4204(6) 0.3097(6) 0.1061(4)
C1B C 0.4414(10) 0.44140 0.00000
H1B H 0.56900 0.56900 0.00000
O1H O 0.3097(6) 0.4204(6) -0.1061(4)
Ni1C Ni 0.33330 -0.33330 -0.25000
Ni1C* Ni 0.33330 0.66670 -0.25000
Ni1C** Ni 1.33330 0.66670 -0.25000
O1I O 0.8893(6) 0.3097(6) 0.3939(4)
O1J O 0.4204(6) 0.1107(6) 0.3939(4)
O1K O 0.6903(6) 0.5796(6) 0.3939(4)
#END
