
#######################################################################
#
#                 Cambridge Crystallographic Data Centre
#                                CCDC
#
#######################################################################
#
# If this CIF has been generated from an entry in the Cambridge
# Structural Database, then it will include bibliographic, chemical,
# crystal, experimental, refinement or atomic coordinate data resulting
# from the CCDC's data processing and validation procedures.
#
#######################################################################

data_CSD_CIF_JEXXAM08
_audit_creation_date 2019-12-20
_audit_creation_method CSD-ConQuest-V1
_database_code_CSD JEXXAM08
_database_code_depnum_ccdc_archive 'CCDC 1861349'
_chemical_formula_sum 'C3 H7 N1 Ni1 O6'
_chemical_formula_moiety
;
(C3 H3 Ni1 O6 1-)n,H4 N1 1+
;
_journal_coden_Cambridge 1326
_journal_volume 20
_journal_year 2018
_journal_page_first 24465
_journal_name_full 'Phys.Chem.Chem.Phys.(PCCP) '
loop_
_publ_author_name
"I.E.Collings"
"R.S.Manna"
"A.A.Tsirlin"
"M.Bykov"
"E.Bykova"
"M.Hanfland"
"P.Gegenwart"
"S.v.Smaalen"
"L.Dubrovinsky"
"N.Dubrovinskaia"
_chemical_name_systematic
;
catena-[ammonium tris(\m~2~-formato)-nickel]
;
_cell_volume    369.776
_exptl_crystal_colour 'green'
_exptl_crystal_density_diffrn 1.902
_exptl_crystal_description 'hexagonal bipyramid'
_diffrn_ambient_temperature 293
_diffrn_radiation_probe x-ray
_diffrn_source synchrotron
#These two values have been output from a single CSD field.
_refine_ls_R_factor_gt 0.0285
_refine_ls_wR_factor_gt 0.0285
_symmetry_cell_setting hexagonal
_symmetry_space_group_name_H-M 'P 63 2 2'
_symmetry_Int_Tables_number 182
loop_
_symmetry_equiv_pos_site_id
_symmetry_equiv_pos_as_xyz
1 x,y,z
2 -y,x-y,z
3 -x+y,-x,z
4 -x,-y,1/2+z
5 y,-x+y,1/2+z
6 x-y,x,1/2+z
7 y,x,-z
8 x-y,-y,-z
9 -x,-x+y,-z
10 -y,-x,1/2-z
11 -x+y,y,1/2-z
12 x,x-y,1/2-z
_cell_length_a 7.28362(13)
_cell_length_b 7.28362(13)
_cell_length_c 8.04848(18)
_cell_angle_alpha 90
_cell_angle_beta 90
_cell_angle_gamma 120
_cell_formula_units_Z 2
loop_
_atom_type_symbol
_atom_type_radius_bond
C 0.68
N 0.68
Ni 1.24
O 0.68
loop_
_atom_site_label
_atom_site_type_symbol
_atom_site_fract_x
_atom_site_fract_y
_atom_site_fract_z
Ni1 Ni 0.33333 0.66667 0.25000
O1 O 0.3090(4) 0.8882(3) 0.1055(3)
C1 C 0.4418(6) 1.00000 0.00000
N1 N 0.00000 1.00000 0.25000
O1A O 0.1118(4) 0.4208(3) 0.1055(3)
O1B O 0.5792(4) 0.6910(3) 0.1055(3)
O1I O 0.1118(4) 0.6910(3) 0.3945(3)
O1J O 0.5792(4) 0.8882(3) 0.3945(3)
O1K O 0.3090(4) 0.4208(3) 0.3945(3)
C1A C 0.0000(6) 0.44180 0.00000
C1B C 0.5582(6) 0.55820 0.00000
O1G O 0.4208(4) 1.1118(3) -0.1055(3)
O1F O -0.1118(4) 0.3090(3) -0.1055(3)
O1H O 0.6910(4) 0.5792(3) -0.1055(3)
Ni1C Ni 0.66667 1.33333 -0.25000
Ni1C* Ni -0.33333 0.33333 -0.25000
Ni1C** Ni 0.66667 0.33333 -0.25000
#END
