
#######################################################################
#
#                 Cambridge Crystallographic Data Centre
#                                CCDC
#
#######################################################################
#
# If this CIF has been generated from an entry in the Cambridge
# Structural Database, then it will include bibliographic, chemical,
# crystal, experimental, refinement or atomic coordinate data resulting
# from the CCDC's data processing and validation procedures.
#
#######################################################################

data_CSD_CIF_JEYXOB
_audit_creation_date 2007-04-27
_audit_creation_method CSD-ConQuest-V1
_database_code_CSD JEYXOB
_database_code_depnum_ccdc_archive 'CCDC 297880'
_chemical_formula_sum 'C11 H16 Fe4 N2 O18 P2'
_chemical_formula_moiety
;
(C6 H2 Fe4 O18 P2 2-)n,n(C5 H14 N2 2+)
;
_journal_coden_Cambridge 597
_journal_volume 118
_journal_year 2006
_journal_page_first 525
_journal_name_full 'J.Chem.Sci.(Bangalore,India) '
loop_
_publ_author_name
"S.Natarajan"
"S.Mandal"
"P.Mahata"
"V.K.Rao"
"P.Ramaswamy"
"A.Banerjee"
"A.K.Paul"
"K.V.Ramya"
_chemical_name_systematic
;
catena-(homopiperazinium 
bis(\m~4~-phosphito)-tris(\m~2~-oxalato)-tetra-iron(ii))
;
_cell_volume   1070.776
_exptl_crystal_colour 'brown'
_exptl_crystal_density_diffrn 2.306
_exptl_crystal_description 'cubic-like'
_diffrn_ambient_temperature 293
_refine_special_details
;
The cation is disordered by symmetry.

;
#These two values have been output from a single CSD field.
_refine_ls_R_factor_gt 0.0376
_refine_ls_wR_factor_gt 0.0376
_symmetry_cell_setting monoclinic
_symmetry_space_group_name_H-M 'P 21/c'
_symmetry_Int_Tables_number 14
loop_
_symmetry_equiv_pos_site_id
_symmetry_equiv_pos_as_xyz
1 x,y,z
2 -x,1/2+y,1/2-z
3 -x,-y,-z
4 x,-1/2-y,-1/2+z
_cell_length_a 7.6827(12)
_cell_length_b 7.7269(12)
_cell_length_c 18.092(3)
_cell_angle_alpha 90
_cell_angle_beta 94.443(2)
_cell_angle_gamma 90
_cell_formula_units_Z 2
loop_
_atom_type_symbol
_atom_type_radius_bond
C 0.68
H 0.23
Fe 1.34
O 0.68
P 1.05
loop_
_atom_site_label
_atom_site_type_symbol
_atom_site_fract_x
_atom_site_fract_y
_atom_site_fract_z
C1 C 0.3456(7) 1.0039(7) 0.4329(3)
C2 C 0.3011(8) 1.0504(8) 0.5029(4)
C3 C 0.4416(14) 1.1559(9) 0.5454(4)
C4 C 0.455(2) 0.9333(17) 0.4091(5)
Fe1 Fe 0.11372(5) 0.58491(6) 0.36100(2)
Fe2 Fe -0.22343(5) 0.33346(6) 0.31126(2)
P1 P -0.05923(9) 0.9472(1) 0.30810(4)
H1 H -0.16880 0.88320 0.29850
O1 O 0.0599(3) 0.8374(3) 0.36021(12)
O2 O 0.2780(3) 0.3704(3) 0.37566(14)
O3 O -0.0978(3) 0.4714(3) 0.41036(11)
O4 O 0.0197(3) 0.9707(3) 0.23357(11)
O5 O -0.1835(3) 0.3785(3) 0.51862(12)
O6 O 0.3391(3) 0.6504(3) 0.29279(14)
O7 O -0.1032(3) 1.1166(3) 0.34358(13)
O8 O 0.5472(3) 0.2792(3) 0.36289(14)
O9 O 0.6057(3) 0.5429(3) 0.27504(14)
C5 C 0.4254(4) 0.3831(4) 0.35093(17)
C6 C -0.0830(4) 0.4547(4) 0.48000(16)
C7 C 0.4599(4) 0.5403(4) 0.30099(16)
C4B C 0.545(2) 1.0667(17) 0.5909(5)
C1B C 0.6544(7) 0.9961(7) 0.5671(3)
C2B C 0.6989(8) 0.9496(8) 0.4971(4)
C3B C 0.5584(14) 0.8441(9) 0.4546(4)
C6B C 0.0830(4) 0.5453(4) 0.52000(16)
O3B O 0.0978(3) 0.5286(3) 0.58964(11)
O5B O 0.1835(3) 0.6215(3) 0.48138(12)
P1A P 0.05923(9) 0.4472(1) 0.19190(4)
H1A H 0.16880 0.38320 0.20150
O1A O -0.0599(3) 0.3374(3) 0.13979(12)
O4A O -0.0197(3) 0.4707(3) 0.26643(11)
O7A O 0.1032(3) 0.6166(3) 0.15642(13)
Fe1A Fe -0.11372(5) 0.08491(6) 0.13900(2)
Fe2B Fe 0.22343(5) 0.66654(6) 0.68874(2)
O2* O -0.7220(3) 0.3704(3) 0.37566(14)
O6* O -0.6609(3) 0.6504(3) 0.29279(14)
O8* O -0.4528(3) 0.2792(3) 0.36289(14)
O9* O -0.3943(3) 0.5429(3) 0.27504(14)
C5* C -0.5746(4) 0.3831(4) 0.35093(17)
C7* C -0.5401(4) 0.5403(4) 0.30099(16)
O7* O -0.1032(3) 0.1166(3) 0.34358(13)
Fe1A* Fe -0.11372(5) 1.08491(6) 0.13900(2)
Fe2A Fe 0.22343(5) 0.83346(6) 0.18874(2)
Fe1B Fe -0.11372(5) 0.41509(6) 0.63900(2)
Fe2* Fe -0.22343(5) 1.33346(6) 0.31126(2)
Fe2** Fe 0.77657(5) 0.33346(6) 0.31126(2)
O2A O -0.2780(3) -0.1296(3) 0.12434(14)
O3A O 0.0978(3) -0.0286(3) 0.08964(11)
O4* O 0.0197(3) -0.0293(3) 0.23357(11)
O5C O -0.1835(3) 0.1215(3) 0.01862(12)
O6A O -0.3391(3) 0.1504(3) 0.20721(14)
O4C O 0.0197(3) 0.5293(3) 0.73357(11)
O7B O 0.1032(3) 0.8834(3) 0.65642(13)
O8B O 0.4528(3) 0.7208(3) 0.63711(14)
O9B O 0.3943(3) 0.4571(3) 0.72496(14)
Fe1* Fe -0.88628(5) 0.58491(6) 0.36100(2)
#END
