
#######################################################################
#
#                 Cambridge Crystallographic Data Centre
#                                CCDC
#
#######################################################################
#
# If this CIF has been generated from an entry in the Cambridge
# Structural Database, then it will include bibliographic, chemical,
# crystal, experimental, refinement or atomic coordinate data resulting
# from the CCDC's data processing and validation procedures.
#
#######################################################################

data_CSD_CIF_JIDBEG
_audit_creation_date 2018-07-16
_audit_creation_method CSD-ConQuest-V1
_database_code_CSD JIDBEG
_database_code_depnum_ccdc_archive 'CCDC 1577234'
_chemical_formula_sum 'C86 H127 Dy8 N7 O49'
_chemical_formula_moiety
;
(C79 H85 Dy8 O49 7-)n,7n(C1 H6 N1 1+)
;
_journal_coden_Cambridge 1487
_journal_volume 61
_journal_year 2018
_journal_page_first 664
_journal_name_full 'Sci.China.Chem. '
loop_
_publ_author_name
"Kongzhao Su"
"Mingyan Wu"
"Wenjing Wang"
"Mi Zhou"
"Daqiang Yuan"
"Maochun Hong"
_chemical_name_systematic
;
catena-(heptakis(methylammonium) 
bis(\m-C-ethylpyrogallol[4]arene)-(\m-aqua)-heptakis(\m-formato)-deca-aqua-oct
a-dysprosium unknown solvate)
;
_chemical_name_common
;
FJI-Y5
;
_cell_volume  13381.946
_exptl_crystal_colour 'colorless'
_exptl_crystal_description 'block'
_diffrn_ambient_temperature 100
_refine_special_details
;
The cations and solvent molecules were taken into account using 
PLATON/SQUEEZE.
;
#These two values have been output from a single CSD field.
_refine_ls_R_factor_gt 0.0776
_refine_ls_wR_factor_gt 0.0776
_symmetry_cell_setting monoclinic
_symmetry_space_group_name_H-M 'P 21/c'
_symmetry_Int_Tables_number 14
loop_
_symmetry_equiv_pos_site_id
_symmetry_equiv_pos_as_xyz
1 x,y,z
2 -x,1/2+y,1/2-z
3 -x,-y,-z
4 x,-1/2-y,-1/2+z
_cell_length_a 21.0223(3)
_cell_length_b 21.9168(4)
_cell_length_c 29.2091(3)
_cell_angle_alpha 90
_cell_angle_beta 96.088(1)
_cell_angle_gamma 90
_cell_formula_units_Z 4
loop_
_atom_type_symbol
_atom_type_radius_bond
C 0.68
H 0.23
Dy 1.92
O 0.68
loop_
_atom_site_label
_atom_site_type_symbol
_atom_site_fract_x
_atom_site_fract_y
_atom_site_fract_z
Dy1 Dy 0.24998(5) 0.78609(3) 0.66841(2)
Dy2 Dy 0.35416(3) 0.92596(3) 0.61698(2)
Dy3 Dy 0.40831(3) 0.97324(4) 0.47912(2)
Dy4 Dy 0.36949(3) 0.88845(4) 0.34258(2)
Dy5 Dy 0.26841(4) 0.73088(5) 0.29496(2)
Dy6 Dy 0.15906(4) 0.58723(4) 0.35147(3)
Dy7 Dy 0.11081(4) 0.54675(3) 0.48223(2)
Dy8 Dy 0.14296(5) 0.62136(4) 0.61373(3)
O1 O 0.0719(5) 0.6795(4) 0.5678(3)
O2 O 0.1669(5) 0.7304(4) 0.6243(3)
O3 O 0.1849(4) 0.8523(4) 0.6269(3)
O4 O 0.2459(4) 0.9324(4) 0.5947(3)
O5 O 0.3354(3) 0.9492(4) 0.5365(2)
O6 O 0.3032(3) 0.9780(4) 0.4476(2)
O7 O 0.2818(4) 0.9353(4) 0.3706(3)
O8 O 0.2790(4) 0.8254(5) 0.3314(3)
O9 O 0.1703(4) 0.7619(5) 0.3139(3)
O10 O 0.1102(4) 0.6834(4) 0.3463(3)
O11 O 0.1174(4) 0.6122(4) 0.4196(3)
O12 O 0.0539(4) 0.6353(4) 0.4919(3)
O13 O 0.3117(5) 0.7069(4) 0.6480(3)
O14 O 0.3281(4) 0.8237(4) 0.6252(2)
O15 O 0.4300(4) 0.8635(4) 0.5874(2)
O16 O 0.4595(4) 0.8888(4) 0.5115(3)
O17 O 0.4088(4) 0.8930(4) 0.4231(3)
O18 O 0.4199(4) 0.7984(5) 0.3663(3)
O19 O 0.3621(4) 0.7087(5) 0.3377(3)
O20 O 0.2518(4) 0.6485(4) 0.3442(3)
O21 O 0.2470(5) 0.5521(4) 0.4008(4)
O22 O 0.2182(5) 0.5270(4) 0.4742(4)
O23 O 0.1776(5) 0.5846(4) 0.5455(3)
O24 O 0.2538(5) 0.6178(4) 0.6201(3)
O25 O 0.2929(7) 0.8926(5) 0.6894(3)
O26 O 0.4284(6) 0.9078(5) 0.6843(3)
O27 O 0.3291(6) 1.0179(5) 0.6524(4)
O28 O 0.3703(7) 1.0737(7) 0.5055(5)
O29 O 0.5179(3) 0.9877(4) 0.4582(2)
O30 O 0.5661(4) 1.0050(4) 0.3950(3)
O31 O 0.4037(6) 1.0409(7) 0.4158(4)
O32 O 0.3949(8) 0.9955(8) 0.3484(5)
O33 O 0.4688(5) 0.9015(6) 0.3156(4)
O34 O 0.3253(7) 0.9352(6) 0.2725(5)
O35 O 0.3681(6) 0.8048(5) 0.2761(3)
O36 O 0.3369(7) 0.7207(6) 0.2334(4)
O37 O 0.2283(5) 0.7885(4) 0.2252(3)
O38 O 0.1805(7) 0.8710(6) 0.1921(4)
O39 O 0.0481(7) 0.6204(6) 0.6530(4)
O40 O 0.2025(5) 0.6792(5) 0.2339(3)
O41 O 0.1480(6) 0.6125(7) 0.2726(4)
O42 O 0.1847(7) 0.5015(7) 0.3104(5)
O43 O 0.0544(6) 0.5599(6) 0.3210(4)
O44 O 0.1281(5) 0.4978(4) 0.4054(3)
O45 O 0.1208(14) 0.4011(12) 0.4217(9)
O46 O 0.1091(8) 0.4446(5) 0.5066(4)
O47 O 0.0080(5) 0.5202(4) 0.4518(3)
O48 O -0.0660(5) 0.4493(4) 0.4404(3)
O49 O 0.1567(7) 0.5190(5) 0.6385(4)
C1 C 0.0772(7) 0.7430(5) 0.5670(4)
C2 C 0.1266(7) 0.7669(6) 0.5959(5)
C3 C 0.1367(7) 0.8303(5) 0.5977(5)
C4 C 0.0975(6) 0.8676(6) 0.5686(5)
C5 C 0.0471(6) 0.8402(5) 0.5391(5)
H1 H 0.01989 0.86555 0.51926
C6 C 0.0367(6) 0.7787(6) 0.5384(5)
C7 C 0.1104(6) 0.9365(6) 0.5685(5)
H2 H 0.13046 0.94779 0.59989
C8 C 0.0487(7) 0.9751(6) 0.5585(7)
H3 H 0.02997 0.96739 0.52646
H4 H 0.01717 0.96186 0.57932
C9 C 0.0607(10) 1.0434(9) 0.5648(8)
H5 H 0.09154 1.05015 0.59189
H6 H 0.02037 1.06394 0.56912
H7 H 0.07783 1.05985 0.53743
C10 C 0.1602(5) 0.9501(5) 0.5339(4)
C11 C 0.2250(6) 0.9462(5) 0.5501(4)
C12 C 0.2724(5) 0.9552(5) 0.5205(4)
C13 C 0.2537(5) 0.9702(5) 0.4745(4)
C14 C 0.1901(5) 0.9767(5) 0.4579(4)
C15 C 0.1450(5) 0.9660(5) 0.4888(5)
H8 H 0.10108 0.96996 0.47779
C16 C 0.1730(6) 0.9899(6) 0.4070(5)
H9 H 0.20906 1.01415 0.39651
C17 C 0.1128(7) 1.0286(7) 0.3976(6)
H10 H 0.07679 1.00791 0.41045
H11 H 0.10170 1.03246 0.36389
C18 C 0.1219(11) 1.0932(8) 0.4191(9)
H12 H 0.11898 1.09081 0.45231
H13 H 0.08856 1.12054 0.40492
H14 H 0.16406 1.10911 0.41365
C19 C 0.1693(5) 0.9312(6) 0.3799(4)
C20 C 0.2247(6) 0.9065(6) 0.3660(4)
C21 C 0.2235(5) 0.8494(6) 0.3445(4)
C22 C 0.1667(5) 0.8159(7) 0.3358(4)
C23 C 0.1091(5) 0.8402(6) 0.3495(4)
C24 C 0.1120(5) 0.8968(6) 0.3717(4)
H15 H 0.07386 0.91295 0.38170
C25 C 0.0477(5) 0.8017(6) 0.3423(4)
H16 H 0.05060 0.77592 0.31433
C26 C -0.0131(7) 0.8421(8) 0.3329(6)
H17 H -0.01860 0.86715 0.36044
H18 H -0.00825 0.87002 0.30687
C27 C -0.0727(10) 0.8013(10) 0.3214(8)
H19 H -0.06412 0.77163 0.29767
H20 H -0.10927 0.82676 0.30993
H21 H -0.08233 0.77966 0.34915
C28 C 0.0453(5) 0.7593(6) 0.3825(4)
C29 C 0.0785(5) 0.7042(6) 0.3824(4)
C30 C 0.0827(5) 0.6640(5) 0.4193(4)
C31 C 0.0493(6) 0.6780(6) 0.4581(4)
C32 C 0.0155(5) 0.7337(5) 0.4592(4)
C33 C 0.0156(5) 0.7722(6) 0.4211(5)
H22 H -0.00635 0.80998 0.42187
C34 C -0.0156(6) 0.7494(6) 0.5026(5)
H23 H -0.02758 0.70968 0.51617
C35 C -0.0746(6) 0.7853(7) 0.4953(7)
H24 H -0.06482 0.82508 0.48159
H25 H -0.09020 0.79350 0.52552
C36 C -0.1285(12) 0.7538(12) 0.4637(9)
H26 H -0.11690 0.75273 0.43210
H27 H -0.16843 0.77673 0.46447
H28 H -0.13438 0.71209 0.47453
C37 C 0.4087(8) 0.6771(7) 0.6127(5)
C38 C 0.3646(7) 0.7198(7) 0.6247(4)
C39 C 0.3726(6) 0.7816(6) 0.6153(4)
C40 C 0.4265(6) 0.8012(7) 0.5936(4)
C41 C 0.4689(6) 0.7599(7) 0.5803(5)
C42 C 0.4601(7) 0.6979(7) 0.5902(5)
H29 H 0.49022 0.66908 0.58123
C43 C 0.5238(7) 0.7812(8) 0.5542(6)
H30 H 0.53337 0.82415 0.56437
C44 C 0.5858(8) 0.7462(9) 0.5643(7)
H31 H 0.61802 0.76068 0.54447
H32 H 0.57859 0.70203 0.55884
C45 C 0.6086(18) 0.7583(16) 0.6156(12)
H33 H 0.59161 0.79756 0.62481
H34 H 0.65541 0.75936 0.61990
H35 H 0.59309 0.72567 0.63448
C46 C 0.4983(6) 0.7848(7) 0.5030(5)
C47 C 0.4682(6) 0.8377(7) 0.4855(4)
C48 C 0.4419(5) 0.8413(7) 0.4398(4)
C49 C 0.4483(6) 0.7904(8) 0.4115(4)
C50 C 0.4788(5) 0.7388(8) 0.4269(6)
C51 C 0.5032(6) 0.7363(8) 0.4721(5)
H36 H 0.52450 0.70008 0.48314
C52 C 0.4805(6) 0.6823(9) 0.3953(6)
H37 H 0.47895 0.69887 0.36334
C53 C 0.5424(12) 0.6515(11) 0.4038(9)
H38 H 0.55415 0.64705 0.43734
H39 H 0.57575 0.67624 0.39108
C54 C 0.5388(17) 0.5903(13) 0.3817(12)
H40 H 0.57495 0.58515 0.36342
H41 H 0.49862 0.58663 0.36160
H42 H 0.54058 0.55864 0.40553
C55 C 0.4189(7) 0.6451(8) 0.3962(6)
C56 C 0.3630(6) 0.6612(8) 0.3682(6)
C57 C 0.3070(6) 0.6310(6) 0.3703(4)
C58 C 0.3046(6) 0.5811(7) 0.4006(6)
C59 C 0.3588(7) 0.5625(7) 0.4295(6)
C60 C 0.4158(7) 0.5973(8) 0.4260(7)
H43 H 0.45336 0.58657 0.44536
C61 C 0.3531(9) 0.5116(8) 0.4654(6)
H44 H 0.31958 0.48276 0.45160
C62 C 0.4106(12) 0.4733(11) 0.4823(7)
H45 H 0.44545 0.50009 0.49600
H46 H 0.39900 0.44505 0.50659
C63 C 0.4328(10) 0.4382(10) 0.4446(7)
H47 H 0.47154 0.41565 0.45586
H48 H 0.44232 0.46608 0.41997
H49 H 0.39939 0.40947 0.43263
C64 C 0.3294(8) 0.5368(6) 0.5076(6)
C65 C 0.2640(8) 0.5463(6) 0.5082(6)
C66 C 0.2383(9) 0.5745(7) 0.5461(5)
C67 C 0.2839(9) 0.5916(6) 0.5846(6)
C68 C 0.3486(9) 0.5850(7) 0.5838(6)
C69 C 0.3732(9) 0.5573(7) 0.5452(7)
H50 H 0.41797 0.55258 0.54448
C70 C 0.3929(9) 0.6099(8) 0.6227(6)
H51 H 0.36861 0.61019 0.65036
C71 C 0.4519(16) 0.5717(15) 0.6352(11)
H52 H 0.48118 0.57494 0.61094
H53 H 0.43992 0.52833 0.63830
C72 C 0.4852(15) 0.5960(14) 0.6817(10)
H54 H 0.52441 0.57278 0.69058
H55 H 0.45569 0.59093 0.70527
H56 H 0.49573 0.63930 0.67895
C73 C -0.0187(8) 0.4782(7) 0.4300(5)
H57 H -0.00168 0.46653 0.40239
C74 C 0.1360(11) 0.4441(10) 0.3965(7)
H58 H 0.15458 0.43430 0.36918
C75 C 0.1594(10) 0.6392(8) 0.2371(5)
H59 H 0.13346 0.62890 0.20954
C76 C 0.2033(9) 0.8400(8) 0.2255(6)
H60 H 0.20146 0.85788 0.25492
C77 C 0.3949(8) 1.0402(9) 0.3714(6)
H61 H 0.38805 1.07818 0.35601
C78 C 0.5292(5) 0.9776(6) 0.4169(4)
H62 H 0.50616 0.94505 0.40142
C79 C 0.3811(9) 0.7768(9) 0.2451(5)
H63 H 0.41581 0.78702 0.22817
Dy1C Dy 0.24998(5) 0.71391(3) 0.16841(2)
Dy2B Dy 0.64584(3) 1.07404(3) 0.38302(2)
Dy3B Dy 0.59169(3) 1.02676(4) 0.52088(2)
Dy7B Dy -0.11081(4) 0.45325(3) 0.51777(2)
Dy8B Dy -0.14296(5) 0.37864(4) 0.38627(3)
Dy8C Dy 0.14296(5) 0.87864(4) 0.11373(3)
O29B O 0.4821(3) 1.0123(4) 0.5418(2)
O30B O 0.4339(4) 0.9950(4) 0.6050(3)
O36C O 0.3369(7) 0.7793(6) 0.7334(4)
O37C O 0.2283(5) 0.7115(4) 0.7252(3)
O38C O 0.1805(7) 0.6290(6) 0.6921(4)
O40C O 0.2025(5) 0.8208(5) 0.7339(3)
O48B O 0.0660(5) 0.5507(4) 0.5596(3)
#END
