
#######################################################################
#
#                 Cambridge Crystallographic Data Centre
#                                CCDC
#
#######################################################################
#
# If this CIF has been generated from an entry in the Cambridge
# Structural Database, then it will include bibliographic, chemical,
# crystal, experimental, refinement or atomic coordinate data resulting
# from the CCDC's data processing and validation procedures.
#
#######################################################################

data_CSD_CIF_JIDBAC
_audit_creation_date 2018-07-16
_audit_creation_method CSD-ConQuest-V1
_database_code_CSD JIDBAC
_database_code_depnum_ccdc_archive 'CCDC 1577233'
_chemical_formula_sum 'C86 H129 Gd8 N7 O50'
_chemical_formula_moiety
;
(C79 H87 Gd8 O50 7-)n,7n(C1 H6 N1 1+)
;
_journal_coden_Cambridge 1487
_journal_volume 61
_journal_year 2018
_journal_page_first 664
_journal_name_full 'Sci.China.Chem. '
loop_
_publ_author_name
"Kongzhao Su"
"Mingyan Wu"
"Wenjing Wang"
"Mi Zhou"
"Daqiang Yuan"
"Maochun Hong"
_chemical_name_systematic
;
catena-(heptakis(methylammonium) 
bis(\m-C-ethylpyrogallol[4]arene)-(\m-aqua)-heptakis(\m-formato)-undeca-aqua-o
cta-gadolinium unknown solvate)
;
_chemical_name_common
;
FJI-Y4
;
_cell_volume  13456.350
_exptl_crystal_colour 'colorless'
_exptl_crystal_description 'block'
_diffrn_ambient_temperature 100
_refine_special_details
;
The cations and solvent molecules were taken into account using 
PLATON/SQUEEZE.
;
#These two values have been output from a single CSD field.
_refine_ls_R_factor_gt 0.0764
_refine_ls_wR_factor_gt 0.0764
_symmetry_cell_setting monoclinic
_symmetry_space_group_name_H-M 'P 21/c'
_symmetry_Int_Tables_number 14
loop_
_symmetry_equiv_pos_site_id
_symmetry_equiv_pos_as_xyz
1 x,y,z
2 -x,1/2+y,1/2-z
3 -x,-y,-z
4 x,-1/2-y,-1/2+z
_cell_length_a 21.1898(3)
_cell_length_b 21.7439(3)
_cell_length_c 29.3712(4)
_cell_angle_alpha 90
_cell_angle_beta 96.091(1)
_cell_angle_gamma 90
_cell_formula_units_Z 4
loop_
_atom_type_symbol
_atom_type_radius_bond
C 0.68
H 0.23
Gd 1.96
O 0.68
loop_
_atom_site_label
_atom_site_type_symbol
_atom_site_fract_x
_atom_site_fract_y
_atom_site_fract_z
Gd1 Gd 0.24688(4) 0.79009(3) 0.67127(2)
Gd2 Gd 0.35183(3) 0.92928(3) 0.61830(2)
Gd3 Gd 0.40693(3) 0.97353(4) 0.47984(2)
Gd4 Gd 0.36884(3) 0.88176(4) 0.34419(2)
Gd5 Gd 0.26869(3) 0.72086(4) 0.29880(2)
Gd6 Gd 0.15842(4) 0.57938(3) 0.35741(2)
Gd7 Gd 0.10922(4) 0.54202(3) 0.48792(2)
Gd8 Gd 0.13971(4) 0.62201(3) 0.61987(2)
O1 O 0.0714(4) 0.6803(3) 0.5710(3)
O2 O 0.1638(4) 0.7328(3) 0.6277(3)
O3 O 0.1817(4) 0.8557(3) 0.6280(3)
O4 O 0.2430(4) 0.9344(3) 0.5957(3)
O5 O 0.3328(4) 0.9500(4) 0.5372(2)
O6 O 0.3013(3) 0.9761(4) 0.4482(2)
O7 O 0.2804(4) 0.9300(4) 0.3726(3)
O8 O 0.2766(4) 0.8184(4) 0.3356(2)
O9 O 0.1698(4) 0.7548(4) 0.3177(2)
O10 O 0.1079(4) 0.6770(4) 0.3504(3)
O11 O 0.1160(4) 0.6080(4) 0.4249(2)
O12 O 0.0515(4) 0.6328(4) 0.4959(3)
O13 O 0.3070(4) 0.7089(4) 0.6498(3)
O14 O 0.3256(4) 0.8251(4) 0.6270(2)
O15 O 0.4275(4) 0.8639(4) 0.5893(2)
O16 O 0.4571(4) 0.8875(4) 0.5139(3)
O17 O 0.4094(3) 0.8890(4) 0.4250(2)
O18 O 0.4195(4) 0.7911(4) 0.3703(3)
O19 O 0.3622(4) 0.7000(4) 0.3444(3)
O20 O 0.2515(4) 0.6405(3) 0.3512(3)
O21 O 0.2458(4) 0.5454(4) 0.4078(3)
O22 O 0.2173(5) 0.5203(4) 0.4824(3)
O23 O 0.1762(4) 0.5808(4) 0.5521(3)
O24 O 0.2521(5) 0.6164(4) 0.6258(3)
O25 O 0.2893(5) 0.8962(4) 0.6905(3)
O26 O 0.4280(6) 0.9125(5) 0.6852(3)
O27 O 0.3271(5) 1.0235(4) 0.6532(3)
O28 O 0.3696(6) 1.0748(6) 0.5059(4)
O29 O 0.5179(3) 0.9861(4) 0.4589(2)
O30 O 0.5671(4) 1.0031(4) 0.3966(3)
O31 O 0.4029(6) 1.0387(6) 0.4141(4)
O32 O 0.3943(6) 0.9891(6) 0.3466(5)
O33 O 0.4679(5) 0.8954(5) 0.3156(4)
O34 O 0.3254(6) 0.9279(6) 0.2735(4)
O35 O 0.3656(4) 0.7978(4) 0.2820(3)
O36 O 0.3358(6) 0.7208(5) 0.2340(4)
O37 O 0.2278(4) 0.7851(4) 0.2291(3)
O38 O 0.1785(6) 0.8675(5) 0.1980(3)
O39 O 0.3065(6) 0.6110(6) 0.2673(4)
O40 O 0.1970(5) 0.6748(4) 0.2358(3)
O41 O 0.1496(6) 0.6058(5) 0.2777(3)
O42 O 0.1893(7) 0.4920(5) 0.3169(4)
O43 O 0.0548(6) 0.5485(7) 0.3241(4)
O44 O 0.1288(5) 0.4906(4) 0.4101(3)
O45 O 0.1251(9) 0.3915(7) 0.4292(6)
O46 O 0.1000(6) 0.4353(5) 0.5089(4)
O47 O 0.0088(5) 0.5172(4) 0.4523(3)
O48 O -0.0661(5) 0.4492(4) 0.4352(3)
O49 O 0.1551(5) 0.5179(4) 0.6471(3)
O50 O 0.0476(7) 0.6207(6) 0.6573(4)
C1 C 0.0761(5) 0.7440(5) 0.5691(4)
C2 C 0.1241(6) 0.7692(5) 0.5982(4)
C3 C 0.1333(6) 0.8338(5) 0.5980(4)
C4 C 0.0950(5) 0.8704(5) 0.5684(4)
C5 C 0.0462(5) 0.8423(5) 0.5394(4)
H1 H 0.01976 0.86745 0.51897
C6 C 0.0352(5) 0.7790(5) 0.5396(4)
C7 C 0.1079(6) 0.9396(5) 0.5668(4)
H2 H 0.12715 0.95117 0.59817
C8 C 0.0483(7) 0.9773(6) 0.5580(6)
H3 H 0.01827 0.96500 0.57993
H4 H 0.02802 0.96836 0.52673
C9 C 0.0605(8) 1.0470(6) 0.5624(7)
H5 H 0.08922 1.05519 0.59013
H6 H 0.02019 1.06845 0.56434
H7 H 0.07985 1.06169 0.53556
C10 C 0.1593(5) 0.9521(5) 0.5346(4)
C11 C 0.2229(5) 0.9486(5) 0.5501(4)
C12 C 0.2710(5) 0.9564(5) 0.5216(4)
C13 C 0.2525(5) 0.9700(5) 0.4754(4)
C14 C 0.1892(5) 0.9756(5) 0.4584(4)
C15 C 0.1429(6) 0.9663(5) 0.4883(5)
H8 H 0.09932 0.96961 0.47696
C16 C 0.1713(5) 0.9880(6) 0.4074(4)
H9 H 0.20717 1.01183 0.39655
C17 C 0.1111(7) 1.0266(7) 0.3959(6)
H10 H 0.10258 1.03119 0.36222
H11 H 0.07438 1.00543 0.40703
C18 C 0.1189(9) 1.0894(8) 0.4177(8)
H12 H 0.12616 1.08484 0.45108
H13 H 0.08045 1.11369 0.40968
H14 H 0.15533 1.11030 0.40667
C19 C 0.1676(5) 0.9266(5) 0.3808(4)
C20 C 0.2235(5) 0.9023(6) 0.3680(4)
C21 C 0.2229(5) 0.8434(6) 0.3473(4)
C22 C 0.1667(5) 0.8112(6) 0.3398(3)
C23 C 0.1092(5) 0.8357(6) 0.3527(4)
C24 C 0.1115(5) 0.8925(6) 0.3733(4)
H15 H 0.07364 0.90916 0.38289
C25 C 0.0479(6) 0.7982(6) 0.3460(4)
H16 H 0.05118 0.77209 0.31836
C26 C -0.0124(6) 0.8367(7) 0.3354(6)
H17 H -0.01705 0.86433 0.36167
H18 H -0.00774 0.86277 0.30836
C27 C -0.0726(9) 0.7979(9) 0.3261(9)
H19 H -0.06758 0.76899 0.30115
H20 H -0.10892 0.82486 0.31743
H21 H -0.07982 0.77492 0.35380
C28 C 0.0447(5) 0.7537(6) 0.3859(4)
C29 C 0.0772(5) 0.6976(5) 0.3867(3)
C30 C 0.0801(6) 0.6605(6) 0.4238(4)
C31 C 0.0475(5) 0.6751(5) 0.4610(4)
C32 C 0.0141(5) 0.7307(5) 0.4618(4)
C33 C 0.0151(5) 0.7681(5) 0.4246(4)
H22 H -0.00600 0.80664 0.42510
C34 C -0.0151(5) 0.7486(5) 0.5064(4)
H23 H -0.02678 0.70924 0.52108
C35 C -0.0744(6) 0.7853(6) 0.4983(5)
H24 H -0.06507 0.82382 0.48225
H25 H -0.08863 0.79678 0.52816
C36 C -0.1300(9) 0.7506(9) 0.4691(8)
H26 H -0.12035 0.74742 0.43727
H27 H -0.16965 0.77349 0.47018
H28 H -0.13458 0.70930 0.48166
C37 C 0.4040(7) 0.6771(6) 0.6172(4)
C38 C 0.3600(7) 0.7204(6) 0.6285(4)
C39 C 0.3686(6) 0.7835(5) 0.6171(4)
C40 C 0.4227(6) 0.8021(6) 0.5970(4)
C41 C 0.4662(6) 0.7586(6) 0.5846(4)
C42 C 0.4555(7) 0.6968(7) 0.5962(4)
H29 H 0.48564 0.66686 0.58909
C43 C 0.5191(6) 0.7808(8) 0.5584(4)
H30 H 0.52783 0.82417 0.56850
C44 C 0.5814(8) 0.7459(9) 0.5699(6)
H31 H 0.57407 0.70142 0.56433
H32 H 0.61286 0.76013 0.54965
C45 C 0.6074(8) 0.7558(12) 0.6194(6)
H33 H 0.59956 0.79833 0.62821
H34 H 0.65317 0.74775 0.62295
H35 H 0.58634 0.72763 0.63900
C46 C 0.4950(6) 0.7844(7) 0.5065(4)
C47 C 0.4658(6) 0.8360(7) 0.4889(4)
C48 C 0.4410(6) 0.8377(6) 0.4426(4)
C49 C 0.4470(5) 0.7850(7) 0.4149(4)
C50 C 0.4775(6) 0.7324(7) 0.4333(5)
C51 C 0.5009(6) 0.7319(7) 0.4784(4)
H36 H 0.52126 0.69596 0.49122
C52 C 0.4777(7) 0.6762(8) 0.4031(5)
H37 H 0.47778 0.69186 0.37103
C53 C 0.5408(10) 0.6426(9) 0.4144(7)
H38 H 0.57588 0.67177 0.41105
H39 H 0.54416 0.62938 0.44679
C54 C 0.5489(14) 0.5885(11) 0.3855(9)
H40 H 0.58505 0.56410 0.39904
H41 H 0.55676 0.60195 0.35478
H42 H 0.51034 0.56332 0.38351
C55 C 0.4176(6) 0.6388(6) 0.4037(4)
C56 C 0.3634(6) 0.6531(6) 0.3759(4)
C57 C 0.3054(6) 0.6231(6) 0.3775(4)
C58 C 0.3037(6) 0.5738(6) 0.4087(4)
C59 C 0.3577(7) 0.5566(6) 0.4383(4)
C60 C 0.4123(6) 0.5892(6) 0.4357(4)
H43 H 0.44861 0.57871 0.45596
C61 C 0.3499(7) 0.5058(6) 0.4719(5)
H44 H 0.31661 0.47723 0.45742
C62 C 0.4095(8) 0.4675(8) 0.4853(6)
H45 H 0.44349 0.49452 0.49978
H46 H 0.40017 0.43604 0.50803
C63 C 0.4316(14) 0.4370(14) 0.4453(10)
H47 H 0.39662 0.41363 0.42907
H48 H 0.46658 0.40905 0.45537
H49 H 0.44642 0.46809 0.42469
C64 C 0.3255(6) 0.5317(6) 0.5157(4)
C65 C 0.2622(8) 0.5413(6) 0.5168(4)
C66 C 0.2378(7) 0.5701(6) 0.5534(4)
C67 C 0.2798(7) 0.5905(7) 0.5907(5)
C68 C 0.3452(7) 0.5830(6) 0.5903(4)
C69 C 0.3673(7) 0.5562(7) 0.5532(5)
H50 H 0.41188 0.55367 0.55199
C70 C 0.3896(7) 0.6101(7) 0.6296(5)
H51 H 0.36488 0.61196 0.65676
C71 C 0.4473(9) 0.5720(9) 0.6436(7)
H52 H 0.47569 0.57323 0.61901
H53 H 0.43417 0.52875 0.64738
C72 C 0.4839(13) 0.5942(12) 0.6884(7)
H54 H 0.50336 0.55883 0.70518
H55 H 0.45469 0.61481 0.70714
H56 H 0.51711 0.62302 0.68147
C73 C -0.0176(7) 0.4791(6) 0.4250(5)
H57 H -0.00163 0.47218 0.39644
C74 C 0.1355(10) 0.4352(7) 0.4030(6)
H58 H 0.15025 0.42431 0.37467
C75 C 0.1562(8) 0.6313(7) 0.2427(5)
H59 H 0.12873 0.61872 0.21675
C76 C 0.2008(8) 0.8364(7) 0.2298(4)
H60 H 0.19736 0.85300 0.25936
C77 C 0.3966(8) 1.0370(9) 0.3712(5)
H61 H 0.39329 1.07534 0.35564
C78 C 0.5284(5) 0.9747(6) 0.4170(4)
H62 H 0.50497 0.94262 0.40119
C79 C 0.3749(8) 0.7723(7) 0.2466(5)
H63 H 0.40656 0.78599 0.22837
Gd1C Gd 0.24688(4) 0.70991(3) 0.17127(2)
Gd2B Gd 0.64817(3) 1.07072(3) 0.38170(2)
Gd3B Gd 0.59307(3) 1.02647(4) 0.52016(2)
Gd7B Gd -0.10922(4) 0.45798(3) 0.51208(2)
Gd8B Gd -0.13971(4) 0.37799(3) 0.38013(2)
Gd8C Gd 0.13971(4) 0.87799(3) 0.11987(2)
O29B O 0.4821(3) 1.0139(4) 0.5411(2)
O30B O 0.4329(4) 0.9969(4) 0.6034(3)
O36C O 0.3358(6) 0.7792(5) 0.7340(4)
O37C O 0.2278(4) 0.7149(4) 0.7291(3)
O38C O 0.1785(6) 0.6325(5) 0.6980(3)
O40C O 0.1970(5) 0.8252(4) 0.7358(3)
O48B O 0.0661(5) 0.5508(4) 0.5648(3)
#END
