
#######################################################################
#
#                 Cambridge Crystallographic Data Centre
#                                CCDC
#
#######################################################################
#
# If this CIF has been generated from an entry in the Cambridge
# Structural Database, then it will include bibliographic, chemical,
# crystal, experimental, refinement or atomic coordinate data resulting
# from the CCDC's data processing and validation procedures.
#
#######################################################################

data_CSD_CIF_JIDPAQ
_audit_creation_date 2018-07-16
_audit_creation_method CSD-ConQuest-V1
_database_code_CSD JIDPAQ
_database_code_depnum_ccdc_archive 'CCDC 1853121'
_chemical_formula_sum 'C104 H108 N4 O76 Y12'
_chemical_formula_moiety
;
(C96 H76 O76 Y12 4-)n,4(C2 H8 N1 1+)
;
_journal_coden_Cambridge 1078
_journal_year 2018
_journal_name_full 'CSD Communication(Private Communication) '
loop_
_publ_author_name
"Hao Wang"
_chemical_name_systematic
;
catena-[tetrakis(dimethylammonium) 
hexakis(\m-biphenyl-3,3',5,5'-tetracarboxylato)-hexadecakis(\m-hydroxo)-dodeca
-aqua-dodeca-yttrium unknown solvate]
;
_cell_volume  15791.148
_diffrn_ambient_temperature 284
_diffrn_special_details
;
twin

;
_refine_special_details
;
Disordered cation and solvent molecules were not modelled and the disordered 
density was taken into account using the SQUEEZE/PLATON procedure. The unit 
cell was found to contain a total void space of 6357 A$3! holding 1774 
;
#These two values have been output from a single CSD field.
_refine_ls_R_factor_gt 0.0823
_refine_ls_wR_factor_gt 0.0823
_symmetry_cell_setting cubic
_symmetry_space_group_name_H-M 'I m -3'
_symmetry_Int_Tables_number 204
loop_
_symmetry_equiv_pos_site_id
_symmetry_equiv_pos_as_xyz
1 x,y,z
2 -x,-y,z
3 -x,y,-z
4 x,-y,-z
5 z,x,y
6 z,-x,-y
7 -z,-x,y
8 -z,x,-y
9 y,z,x
10 -y,z,-x
11 y,-z,-x
12 -y,-z,x
13 1/2+x,1/2+y,1/2+z
14 1/2-x,1/2-y,1/2+z
15 1/2-x,1/2+y,1/2-z
16 1/2+x,1/2-y,1/2-z
17 1/2+z,1/2+x,1/2+y
18 1/2+z,1/2-x,1/2-y
19 1/2-z,1/2-x,1/2+y
20 1/2-z,1/2+x,1/2-y
21 1/2+y,1/2+z,1/2+x
22 1/2-y,1/2+z,1/2-x
23 1/2+y,1/2-z,1/2-x
24 1/2-y,1/2-z,1/2+x
25 -x,-y,-z
26 x,y,-z
27 x,-y,z
28 -x,y,z
29 -z,-x,-y
30 -z,x,y
31 z,x,-y
32 z,-x,y
33 -y,-z,-x
34 y,-z,x
35 -y,z,x
36 y,z,-x
37 -1/2-x,-1/2-y,-1/2-z
38 -1/2+x,-1/2+y,-1/2-z
39 -1/2+x,-1/2-y,-1/2+z
40 -1/2-x,-1/2+y,-1/2+z
41 -1/2-z,-1/2-x,-1/2-y
42 -1/2-z,-1/2+x,-1/2+y
43 -1/2+z,-1/2+x,-1/2-y
44 -1/2+z,-1/2-x,-1/2+y
45 -1/2-y,-1/2-z,-1/2-x
46 -1/2+y,-1/2-z,-1/2+x
47 -1/2-y,-1/2+z,-1/2+x
48 -1/2+y,-1/2+z,-1/2-x
_cell_length_a 25.0883(6)
_cell_length_b 25.0883(6)
_cell_length_c 25.0883(6)
_cell_angle_alpha 90
_cell_angle_beta 90
_cell_angle_gamma 90
_cell_formula_units_Z 4
loop_
_atom_type_symbol
_atom_type_radius_bond
C 0.68
H 0.23
O 0.68
Y 1.90
loop_
_atom_site_label
_atom_site_type_symbol
_atom_site_fract_x
_atom_site_fract_y
_atom_site_fract_z
Y1 Y 0.26838(4) 0.14502(4) 0.22963(4)
O1 O 0.2015(3) 0.2015(3) 0.2015(3)
H1 H 0.17896 0.17894 0.17894
O2 O 0.2971(3) 0.2179(3) 0.1853(3)
H2 H 0.31811 0.20386 0.15547
O3 O 0.2607(4) 0.1198(4) 0.1417(3)
O4 O 0.2338(4) 0.1933(4) 0.0949(3)
O5 O 0.2862(4) 0.0946(4) 0.3045(4)
O6 O 0.2870(4) 0.1432(4) 0.3802(4)
C1 C 0.2489(6) 0.1447(5) 0.0998(6)
C2 C 0.2478(7) 0.1140(6) 0.0472(6)
C3 C 0.2509(7) 0.0581(5) 0.0470(5)
H3 H 0.25318 0.03977 0.07911
C4 C 0.2504(10) 0.0300(8) 0.00000
C5 C 0.2466(8) 0.1417(8) 0.00000
H4 H 0.24502 0.17871 0.00000
C6 C 0.2861(6) 0.1007(6) 0.3542(5)
C7 C 0.2850(7) 0.0483(6) 0.3851(6)
C8 C 0.2832(7) 0.0488(6) 0.4416(7)
H5 H 0.28240 0.08119 0.45958
C9 C 0.2827(10) 0.00000 0.4712(9)
C10 C 0.2857(10) 0.00000 0.3559(9)
H6 H 0.28660 -0.00000 0.31881
O7 O 0.2745(10) 0.0375(9) 0.1933(10)
O3C O 0.2607(4) -0.1198(4) -0.1417(3)
O4C O 0.2338(4) -0.1933(4) -0.0949(3)
C1C C 0.2489(6) -0.1447(5) -0.0998(6)
C2C C 0.2478(7) -0.1140(6) -0.0472(6)
C3C C 0.2509(7) -0.0581(5) -0.0470(5)
H3C H 0.25318 -0.03977 -0.07911
C4C C 0.2504(10) -0.0300(8) 0.00000
C5C C 0.2466(8) -0.1417(8) 0.00000
H4C H 0.24502 -0.17871 -0.00000
O3Y O 0.2607(4) 0.1198(4) -0.1417(3)
O4Y O 0.2338(4) 0.1933(4) -0.0949(3)
C1Y C 0.2489(6) 0.1447(5) -0.0998(6)
C2Y C 0.2478(7) 0.1140(6) -0.0472(6)
C3Y C 0.2509(7) 0.0581(5) -0.0470(5)
H3Y H 0.25318 0.03977 -0.07911
O3Z O 0.2607(4) -0.1198(4) 0.1417(3)
O4Z O 0.2338(4) -0.1933(4) 0.0949(3)
C1Z C 0.2489(6) -0.1447(5) 0.0998(6)
C2Z C 0.2478(7) -0.1140(6) 0.0472(6)
C3Z C 0.2509(7) -0.0581(5) 0.0470(5)
H3Z H 0.25318 -0.03977 0.07911
O5C O 0.2862(4) -0.0946(4) 0.6955(4)
O6C O 0.2870(4) -0.1432(4) 0.6198(4)
C6C C 0.2861(6) -0.1007(6) 0.6458(5)
C7C C 0.2850(7) -0.0483(6) 0.6149(6)
C8C C 0.2832(7) -0.0488(6) 0.5584(7)
H5C H 0.28240 -0.08119 0.54042
C9C C 0.2827(10) 0.00000 0.5288(9)
C10C C 0.2857(10) 0.00000 0.6441(9)
H6C H 0.28660 0.00000 0.68119
O5Y O 0.2862(4) 0.0946(4) 0.6955(4)
O6Y O 0.2870(4) 0.1432(4) 0.6198(4)
C6Y C 0.2861(6) 0.1007(6) 0.6458(5)
C7Y C 0.2850(7) 0.0483(6) 0.6149(6)
C8Y C 0.2832(7) 0.0488(6) 0.5584(7)
H5Y H 0.28240 0.08119 0.54042
O5Z O 0.2862(4) -0.0946(4) 0.3045(4)
O6Z O 0.2870(4) -0.1432(4) 0.3802(4)
C6Z C 0.2861(6) -0.1007(6) 0.3542(5)
C7Z C 0.2850(7) -0.0483(6) 0.3851(6)
C8Z C 0.2832(7) -0.0488(6) 0.4416(7)
H5Z H 0.28240 -0.08119 0.45958
Y1C Y 0.26838(4) -0.14502(4) -0.22963(4)
O1C O 0.2015(3) -0.2015(3) -0.2015(3)
H1C H 0.17896 -0.17894 -0.17894
O2C O 0.2971(3) -0.2179(3) -0.1853(3)
H2C H 0.31811 -0.20386 -0.15547
O5C* O 0.2862(4) -0.0946(4) -0.3045(4)
O6C* O 0.2870(4) -0.1432(4) -0.3802(4)
C6C* C 0.2861(6) -0.1007(6) -0.3542(5)
C7C* C 0.2850(7) -0.0483(6) -0.3851(6)
C8C* C 0.2832(7) -0.0488(6) -0.4416(7)
H5C* H 0.28240 -0.08119 -0.45958
C9C* C 0.2827(10) 0.00000 -0.4712(9)
C10C* C 0.2857(10) 0.00000 -0.3559(9)
H6C* H 0.28660 0.00000 -0.31881
O7C O 0.2745(10) -0.0375(9) -0.1933(10)
O5* O 0.2862(4) 0.0946(4) -0.6955(4)
O6* O 0.2870(4) 0.1432(4) -0.6198(4)
C6* C 0.2861(6) 0.1007(6) -0.6458(5)
C7* C 0.2850(7) 0.0483(6) -0.6149(6)
C8* C 0.2832(7) 0.0488(6) -0.5584(7)
H5* H 0.28240 0.08119 -0.54042
C9* C 0.2827(10) 0.00000 -0.5288(9)
C10* C 0.2857(10) 0.00000 -0.6441(9)
H6* H 0.28660 -0.00000 -0.68119
O5Z* O 0.2862(4) -0.0946(4) -0.6955(4)
O6Z* O 0.2870(4) -0.1432(4) -0.6198(4)
C6Z* C 0.2861(6) -0.1007(6) -0.6458(5)
C7Z* C 0.2850(7) -0.0483(6) -0.6149(6)
C8Z* C 0.2832(7) -0.0488(6) -0.5584(7)
H5Z* H 0.28240 -0.08119 -0.54042
O5Y* O 0.2862(4) 0.0946(4) -0.3045(4)
O6Y* O 0.2870(4) 0.1432(4) -0.3802(4)
C6Y* C 0.2861(6) 0.1007(6) -0.3542(5)
C7Y* C 0.2850(7) 0.0483(6) -0.3851(6)
C8Y* C 0.2832(7) 0.0488(6) -0.4416(7)
H5Y* H 0.28240 0.08119 -0.45958
Y1D Y 0.22963(4) 0.26838(4) 0.14502(4)
O2D O 0.1853(3) 0.2971(3) 0.2179(3)
H2D H 0.15547 0.31811 0.20386
O3D O 0.1417(4) 0.2607(4) 0.1198(3)
O4D O 0.0949(4) 0.2338(4) 0.1933(3)
C1D C 0.0998(6) 0.2489(5) 0.1447(6)
C2D C 0.0472(7) 0.2478(6) 0.1140(6)
C3D C 0.0470(7) 0.2509(5) 0.0581(5)
H3D H 0.07911 0.25318 0.03977
C4D C 0.000(1) 0.2504(8) 0.03000
C5D C 0.0000(8) 0.2466(8) 0.14170
H4D H 0.00000 0.24502 0.17871
O7D O 0.1933(10) 0.2745(9) 0.0375(10)
O3G O -0.1417(4) 0.2607(4) -0.1198(3)
O4G O -0.0949(4) 0.2338(4) -0.1933(3)
C1G C -0.0998(6) 0.2489(5) -0.1447(6)
C2G C -0.0472(7) 0.2478(6) -0.1140(6)
C3G C -0.0470(7) 0.2509(5) -0.0581(5)
H3G H -0.07911 0.25318 -0.03977
C4G C 0.000(1) 0.2504(8) -0.03000
C5G C 0.0000(8) 0.2466(8) -0.14170
H4G H -0.00000 0.24502 -0.17871
O3CA O -0.1417(4) 0.2607(4) 0.1198(3)
O4CA O -0.0949(4) 0.2338(4) 0.1933(3)
C1CA C -0.0998(6) 0.2489(5) 0.1447(6)
C2CA C -0.0472(7) 0.2478(6) 0.1140(6)
C3CA C -0.0470(7) 0.2509(5) 0.0581(5)
H3CA H -0.07911 0.25318 0.03977
O3DA O 0.1417(4) 0.2607(4) -0.1198(3)
O4DA O 0.0949(4) 0.2338(4) -0.1933(3)
C1DA C 0.0998(6) 0.2489(5) -0.1447(6)
C2DA C 0.0472(7) 0.2478(6) -0.1140(6)
C3DA C 0.0470(7) 0.2509(5) -0.0581(5)
H3DA H 0.07911 0.25318 -0.03977
Y1E Y 0.22963(4) -0.26838(4) -0.14502(4)
O2E O 0.1853(3) -0.2971(3) -0.2179(3)
H2E H 0.15547 -0.31811 -0.20386
O3E O 0.1417(4) -0.2607(4) -0.1198(3)
O4E O 0.0949(4) -0.2338(4) -0.1933(3)
C1E C 0.0998(6) -0.2489(5) -0.1447(6)
C2E C 0.0472(7) -0.2478(6) -0.1140(6)
C3E C 0.0470(7) -0.2509(5) -0.0581(5)
H3E H 0.07911 -0.25318 -0.03977
C4E C 0.000(1) -0.2504(8) -0.03000
C5E C 0.0000(8) -0.2466(8) -0.14170
H4E H 0.00000 -0.24502 -0.17871
O7E O 0.1933(10) -0.2745(9) -0.0375(10)
O3F O -0.1417(4) -0.2607(4) 0.1198(3)
O4F O -0.0949(4) -0.2338(4) 0.1933(3)
C1F C -0.0998(6) -0.2489(5) 0.1447(6)
C2F C -0.0472(7) -0.2478(6) 0.1140(6)
C3F C -0.0470(7) -0.2509(5) 0.0581(5)
H3F H -0.07911 -0.25318 0.03977
C4F C 0.000(1) -0.2504(8) 0.03000
C5F C 0.0000(8) -0.2466(8) 0.14170
H4F H -0.00000 -0.24502 0.17871
O3BA O -0.1417(4) -0.2607(4) -0.1198(3)
O4BA O -0.0949(4) -0.2338(4) -0.1933(3)
C1BA C -0.0998(6) -0.2489(5) -0.1447(6)
C2BA C -0.0472(7) -0.2478(6) -0.1140(6)
C3BA C -0.0470(7) -0.2509(5) -0.0581(5)
H3BA H -0.07911 -0.25318 -0.03977
O3EA O 0.1417(4) -0.2607(4) 0.1198(3)
O4EA O 0.0949(4) -0.2338(4) 0.1933(3)
C1EA C 0.0998(6) -0.2489(5) 0.1447(6)
C2EA C 0.0472(7) -0.2478(6) 0.1140(6)
C3EA C 0.0470(7) -0.2509(5) 0.0581(5)
H3EA H 0.07911 -0.25318 0.03977
Y1F Y -0.22963(4) -0.26838(4) 0.14502(4)
O1A O -0.2015(3) -0.2015(3) 0.2015(3)
H1A H -0.17896 -0.17894 0.17894
O2F O -0.1853(3) -0.2971(3) 0.2179(3)
H2F H -0.15547 -0.31811 0.20386
O7F O -0.1933(10) -0.2745(9) 0.0375(10)
Y1G Y -0.22963(4) 0.26838(4) -0.14502(4)
O1B O -0.2015(3) 0.2015(3) -0.2015(3)
H1B H -0.17896 0.17894 -0.17894
O2G O -0.1853(3) 0.2971(3) -0.2179(3)
H2G H -0.15547 0.31811 -0.20386
O7G O -0.1933(10) 0.2745(9) -0.0375(10)
Y1H Y 0.14502(4) 0.22963(4) 0.26838(4)
O2H O 0.2179(3) 0.1853(3) 0.2971(3)
H2H H 0.20386 0.15547 0.31811
O7H O 0.0375(10) 0.1933(9) 0.2745(10)
Y1I Y -0.14502(4) 0.22963(4) -0.26838(4)
O2I O -0.2179(3) 0.1853(3) -0.2971(3)
H2I H -0.20386 0.15547 -0.31811
O7I O -0.0375(10) 0.1933(9) -0.2745(10)
Y1J Y 0.14502(4) -0.22963(4) -0.26838(4)
O2J O 0.2179(3) -0.1853(3) -0.2971(3)
H2J H 0.20386 -0.15547 -0.31811
O7J O 0.0375(10) -0.1933(9) -0.2745(10)
Y1K Y -0.14502(4) -0.22963(4) 0.26838(4)
O2K O -0.2179(3) -0.1853(3) 0.2971(3)
H2K H -0.20386 -0.15547 0.31811
O7K O -0.0375(10) -0.1933(9) 0.2745(10)
Y1Y Y 0.26838(4) 0.14502(4) -0.22963(4)
O2Y O 0.2971(3) 0.2179(3) -0.1853(3)
H2Y H 0.31811 0.20386 -0.15547
O7Y O 0.2745(10) 0.0375(9) -0.1933(10)
Y1Z Y 0.26838(4) -0.14502(4) 0.22963(4)
O2Z O 0.2971(3) -0.2179(3) 0.1853(3)
H2Z H 0.31811 -0.20386 0.15547
O7Z O 0.2745(10) -0.0375(9) 0.1933(10)
O5RA O 0.4054(4) 0.1955(4) 0.2138(4)
O6RA O 0.3568(4) 0.1198(4) 0.2130(4)
C6RA C 0.3993(6) 0.1458(6) 0.2139(5)
C7RA C 0.4517(7) 0.1149(6) 0.2150(6)
C8RA C 0.4512(7) 0.0584(6) 0.2168(7)
H5RA H 0.41881 0.04042 0.21760
C9V C 0.500(1) 0.02880 0.2173(9)
C10V C 0.500(1) 0.14410 0.2143(9)
H6V H 0.50000 0.18119 0.21340
O5UA O 0.5946(4) -0.1955(4) 0.2138(4)
O6UA O 0.6432(4) -0.1198(4) 0.2130(4)
C6UA C 0.6007(6) -0.1458(6) 0.2139(5)
C7UA C 0.5483(7) -0.1149(6) 0.2150(6)
C8UA C 0.5488(7) -0.0584(6) 0.2168(7)
H5UA H 0.58119 -0.04042 0.21760
C9U C 0.500(1) -0.02880 0.2173(9)
C10U C 0.500(1) -0.14410 0.2143(9)
H6U H 0.50000 -0.18119 0.21340
O5U O 0.4054(4) -0.1955(4) 0.2138(4)
O6U O 0.3568(4) -0.1198(4) 0.2130(4)
C6U C 0.3993(6) -0.1458(6) 0.2139(5)
C7U C 0.4517(7) -0.1149(6) 0.2150(6)
C8U C 0.4512(7) -0.0584(6) 0.2168(7)
H5U H 0.41881 -0.04042 0.21760
O5V O 0.5946(4) 0.1955(4) 0.2138(4)
O6V O 0.6432(4) 0.1198(4) 0.2130(4)
C6V C 0.6007(6) 0.1458(6) 0.2139(5)
C7V C 0.5483(7) 0.1149(6) 0.2150(6)
C8V C 0.5488(7) 0.0584(6) 0.2168(7)
H5V H 0.58119 0.04042 0.21760
Y1* Y 0.26838(4) 0.14502(4) -0.77037(4)
Y1A Y -0.26838(4) -0.14502(4) 0.22963(4)
Y1A* Y 0.73162(4) -0.14502(4) 0.22963(4)
Y1B Y -0.26838(4) 0.14502(4) -0.22963(4)
Y1C* Y 0.26838(4) -0.14502(4) 0.77037(4)
Y1R Y 0.27037(4) 0.23162(4) -0.35498(4)
Y1R* Y 0.27037(4) 0.23162(4) 0.64502(4)
Y1S Y 0.27037(4) -0.23162(4) -0.64502(4)
Y1S* Y 0.27037(4) -0.23162(4) 0.35498(4)
Y1U Y 0.35498(4) -0.27037(4) 0.23162(4)
Y1V Y 0.64502(4) 0.27037(4) 0.23162(4)
Y1W Y 0.35498(4) 0.27037(4) -0.23162(4)
Y1Y* Y 0.26838(4) 0.14502(4) 0.77037(4)
Y1Z* Y 0.26838(4) -0.14502(4) -0.77037(4)
Y1AA Y 0.73162(4) 0.14502(4) 0.22963(4)
Y1BA Y -0.22963(4) -0.26838(4) -0.14502(4)
Y1CA Y -0.22963(4) 0.26838(4) 0.14502(4)
Y1DA Y 0.22963(4) 0.26838(4) -0.14502(4)
Y1EA Y 0.22963(4) -0.26838(4) 0.14502(4)
Y1FA Y -0.14502(4) -0.22963(4) -0.26838(4)
Y1GA Y 0.14502(4) -0.22963(4) 0.26838(4)
Y1HA Y -0.14502(4) 0.22963(4) 0.26838(4)
Y1IA Y 0.14502(4) 0.22963(4) -0.26838(4)
Y1JA Y 0.23162(4) 0.35498(4) 0.27037(4)
Y1KA Y -0.23162(4) -0.35498(4) 0.27037(4)
Y1LA Y -0.23162(4) 0.35498(4) -0.27037(4)
Y1MA Y 0.23162(4) -0.35498(4) -0.27037(4)
Y1NA Y 0.27037(4) 0.23162(4) -0.64502(4)
Y1NA* Y 0.27037(4) 0.23162(4) 0.35498(4)
Y1OA Y 0.27037(4) -0.23162(4) -0.35498(4)
Y1OA* Y 0.27037(4) -0.23162(4) 0.64502(4)
Y1PA Y -0.27037(4) -0.23162(4) 0.35498(4)
Y1QA Y -0.27037(4) 0.23162(4) -0.35498(4)
Y1RA Y 0.35498(4) 0.27037(4) 0.23162(4)
Y1TA Y 0.35498(4) -0.27037(4) -0.23162(4)
Y1UA Y 0.64502(4) -0.27037(4) 0.23162(4)
O1Y O 0.2015(3) 0.2015(3) -0.2015(3)
O1Z O 0.2015(3) -0.2015(3) 0.2015(3)
O2A O -0.2971(3) -0.2179(3) 0.1853(3)
O2B O -0.2971(3) 0.2179(3) -0.1853(3)
O2R O 0.3147(3) 0.2029(3) -0.2821(3)
O2S O 0.3147(3) -0.2029(3) 0.2821(3)
O2GA O 0.2179(3) -0.1853(3) 0.2971(3)
O2IA O 0.2179(3) 0.1853(3) -0.2971(3)
O2JA O 0.2029(3) 0.2821(3) 0.3147(3)
O2KA O -0.2029(3) -0.2821(3) 0.3147(3)
O2LA O -0.2029(3) 0.2821(3) -0.3147(3)
O2MA O 0.2029(3) -0.2821(3) -0.3147(3)
O2NA O 0.3147(3) 0.2029(3) 0.2821(3)
O2OA O 0.3147(3) -0.2029(3) -0.2821(3)
O2RA O 0.2821(3) 0.3147(3) 0.2029(3)
O2SA O -0.2821(3) 0.3147(3) -0.2029(3)
O2TA O 0.2821(3) -0.3147(3) -0.2029(3)
O2UA O -0.2821(3) -0.3147(3) 0.2029(3)
O3H O 0.1198(4) 0.1417(4) 0.2607(3)
O3I O -0.1198(4) 0.1417(4) -0.2607(3)
O3J O 0.1198(4) -0.1417(4) -0.2607(3)
O3K O -0.1198(4) -0.1417(4) 0.2607(3)
O4A O -0.2338(4) -0.1933(4) 0.0949(3)
O4B O -0.2338(4) 0.1933(4) -0.0949(3)
O4H O 0.1933(4) 0.0949(4) 0.2338(3)
O4J O 0.1933(4) -0.0949(4) -0.2338(3)
O4GA O 0.1933(4) -0.0949(4) 0.2338(3)
O4IA O 0.1933(4) 0.0949(4) -0.2338(3)
O5D O 0.3045(4) 0.2862(4) 0.0946(4)
O5E O 0.3045(4) -0.2862(4) -0.0946(4)
O5F O -0.3045(4) -0.2862(4) 0.0946(4)
O5G O -0.3045(4) 0.2862(4) -0.0946(4)
O5H O 0.0946(4) 0.3045(4) 0.2862(4)
O5I O -0.0946(4) 0.3045(4) -0.2862(4)
O5J O 0.0946(4) -0.3045(4) -0.2862(4)
O5K O -0.0946(4) -0.3045(4) 0.2862(4)
O6W O 0.3568(4) 0.1198(4) -0.2130(4)
O6JA O 0.2130(4) 0.3568(4) 0.1198(4)
O6KA O -0.2130(4) -0.3568(4) 0.1198(4)
O6LA O -0.2130(4) 0.3568(4) -0.1198(4)
O6MA O 0.2130(4) -0.3568(4) -0.1198(4)
O6NA O 0.1198(4) 0.2130(4) 0.3568(4)
O6OA O 0.1198(4) -0.2130(4) -0.3568(4)
O6PA O -0.1198(4) -0.2130(4) 0.3568(4)
O6QA O -0.1198(4) 0.2130(4) -0.3568(4)
O6TA O 0.3568(4) -0.1198(4) -0.2130(4)
#END
