
#######################################################################
#
#                 Cambridge Crystallographic Data Centre
#                                CCDC
#
#######################################################################
#
# If this CIF has been generated from an entry in the Cambridge
# Structural Database, then it will include bibliographic, chemical,
# crystal, experimental, refinement or atomic coordinate data resulting
# from the CCDC's data processing and validation procedures.
#
#######################################################################

data_CSD_CIF_JIDRUM
_audit_creation_date 2018-07-16
_audit_creation_method CSD-ConQuest-V1
_database_code_CSD JIDRUM
_database_code_depnum_ccdc_archive 'CCDC 1838243'
_chemical_formula_sum 'C94 H104 Eu5 N5 O50'
_chemical_formula_moiety
;
(C84 H78 Eu5 N2 O48 1-)n,n(C2 H8 N1 1+),2n(C4 H9 N1 O1)
;
_journal_coden_Cambridge 1147
_journal_volume 18
_journal_year 2018
_journal_page_first 4602
_journal_name_full 'Cryst.Growth Des. '
loop_
_publ_author_name
"Sheng-Quan Lu"
"Yong-Yao Liu"
"Zhi-Ming Duan"
"Zhao-Xi Wang"
"Ming-Xing Li"
"Xiang He"
_chemical_name_systematic
;
catena-(dimethylammonium 
tetrakis(\m-5,5'-[propane-1,3-diylbis(oxy)]bis(benzene-1,3-dicarboxylato))-hex
a-aqua-bis(dimethylacetamide)-penta-europium(iii) dimethylacetamide solvate)
;
_cell_volume   2879.230
_exptl_crystal_colour 'colorless'
_exptl_crystal_density_diffrn 1.517
_exptl_crystal_description 'block'
_diffrn_ambient_temperature 293
_refine_special_details
;
The cation and dimethylacetamide molecules were taken into account using 
PLATON/SQUEEZE.
;
#These two values have been output from a single CSD field.
_refine_ls_R_factor_gt 0.0401
_refine_ls_wR_factor_gt 0.0401
_symmetry_cell_setting triclinic
_symmetry_space_group_name_H-M 'P -1'
_symmetry_Int_Tables_number 2
loop_
_symmetry_equiv_pos_site_id
_symmetry_equiv_pos_as_xyz
1 x,y,z
2 -x,-y,-z
_cell_length_a 12.4545(9)
_cell_length_b 15.1760(11)
_cell_length_c 17.4374(12)
_cell_angle_alpha 98.299(1)
_cell_angle_beta 109.509(1)
_cell_angle_gamma 106.176(1)
_cell_formula_units_Z 1
loop_
_atom_type_symbol
_atom_type_radius_bond
C 0.68
H 0.23
Eu 1.98
N 0.68
O 0.68
loop_
_atom_site_label
_atom_site_type_symbol
_atom_site_fract_x
_atom_site_fract_y
_atom_site_fract_z
C1 C 0.6311(5) 0.3151(3) 0.1647(3)
C2 C 0.6079(5) 0.2253(4) 0.1931(3)
C3 C 0.5743(5) 0.2201(4) 0.2607(3)
H1 H 0.56370 0.27200 0.28860
C4 C 0.5564(5) 0.1360(4) 0.2870(3)
C5 C 0.5728(5) 0.0599(4) 0.2448(3)
H2 H 0.56580 0.00540 0.26420
C6 C 0.5994(5) 0.0635(4) 0.1746(3)
C7 C 0.6195(5) 0.1469(4) 0.1491(3)
H3 H 0.64050 0.15040 0.10290
C8 C 0.5184(5) 0.1269(4) 0.3598(3)
C9 C 0.6613(6) -0.0157(4) 0.0746(4)
H4 H 0.74470 0.02820 0.10070
H5 H 0.61700 0.00450 0.02740
C10 C 0.6574(5) -0.1151(4) 0.0455(3)
H6 H 0.57320 -0.15570 0.01340
H7 H 0.69960 -0.11500 0.00770
C11 C 0.7125(5) -0.1574(4) 0.1145(3)
H8 H 0.66980 -0.16040 0.15210
H9 H 0.70610 -0.22140 0.09070
C12 C 0.9098(5) -0.1336(4) 0.2165(4)
C13 C 1.0250(5) -0.0713(4) 0.2679(4)
H10 H 1.04940 -0.00860 0.26490
C14 C 1.1042(5) -0.1027(4) 0.3243(4)
C15 C 1.0715(6) -0.1961(5) 0.3263(4)
H11 H 1.12640 -0.21640 0.36360
C16 C 0.9584(6) -0.2599(5) 0.2739(4)
C17 C 0.8747(5) -0.2284(4) 0.2190(4)
H12 H 0.79670 -0.27040 0.18470
C18 C 0.9195(7) -0.3626(5) 0.2740(5)
C19 C 1.2289(6) -0.0357(5) 0.3848(4)
C20 C 0.5067(5) 0.6252(3) 0.1220(3)
C21 C 0.4755(5) 0.6967(3) 0.1701(3)
C22 C 0.5228(5) 0.7195(4) 0.2581(3)
H13 H 0.57630 0.69180 0.28680
C23 C 0.4906(5) 0.7832(4) 0.3028(3)
C24 C 0.4115(5) 0.8259(4) 0.2606(3)
H14 H 0.38610 0.86570 0.29070
C25 C 0.3703(5) 0.8085(4) 0.1726(3)
C26 C 0.4015(5) 0.7427(4) 0.1285(3)
H15 H 0.37210 0.72930 0.07000
C27 C 0.5422(5) 0.8064(4) 0.3969(3)
C28 C 0.2687(5) 0.9222(4) 0.1705(3)
H16 H 0.33490 0.95890 0.22400
H17 H 0.19890 0.88910 0.18150
C29 C 0.2373(5) 0.9870(4) 0.1161(4)
H18 H 0.30920 1.02170 0.10820
H19 H 0.21410 1.03300 0.14550
C30 C 0.1351(4) 0.9360(4) 0.0302(3)
H20 H 0.11300 0.98150 0.00010
H21 H 0.15970 0.89510 -0.00330
C31 C -0.0666(4) 0.8224(4) -0.0199(3)
C32 C -0.1435(4) 0.7540(4) 0.0017(3)
H22 H -0.12010 0.74940 0.05710
C33 C -0.2554(4) 0.6923(3) -0.0591(3)
C34 C -0.2878(5) 0.6964(4) -0.1432(3)
H23 H -0.36210 0.65540 -0.18420
C35 C -0.2082(4) 0.7622(4) -0.1649(3)
C36 C -0.0976(4) 0.8266(4) -0.1034(3)
H24 H -0.04570 0.87160 -0.11820
C37 C -0.3403(4) 0.6232(3) -0.0339(3)
C38 C -0.2422(5) 0.7662(4) -0.2546(3)
C39 C 0.9204(14) 0.4487(11) 0.0960(12)
C40 C 0.9116(13) 0.3421(9) 0.0924(12)
H25 H 0.83580 0.30010 0.04880
H26 H 0.91620 0.32980 0.14560
H27 H 0.97770 0.33160 0.08050
C41 C 1.0438(17) 0.6207(11) 0.1055(12)
H28 H 0.96650 0.62060 0.06900
H29 H 1.10270 0.64120 0.08170
H30 H 1.06960 0.66340 0.15970
C42 C 1.1540(12) 0.5078(13) 0.1214(15)
H31 H 1.18500 0.54150 0.08630
H32 H 1.14030 0.44150 0.10290
H33 H 1.21190 0.53260 0.17880
Eu1 Eu 0.65158(2) 0.480442(15) 0.098886(13)
Eu2 Eu 0.67647(3) 0.78474(2) 0.580382(16)
Eu3 Eu 0.50000 1.00000 0.50000
N1 N 1.032(1) 0.5207(13) 0.1153(9)
O1 O 0.6260(4) 0.3102(3) 0.0914(2)
O2 O 0.4758(4) 0.1857(3) 0.3836(3)
O3 O 0.5315(5) 0.0595(3) 0.3917(3)
O4 O 0.6059(5) -0.0184(3) 0.1344(3)
O5 O 0.8381(4) -0.0984(3) 0.1602(3)
O6 O 0.8237(4) -0.4202(3) 0.2214(3)
O7 O 0.9929(7) -0.3851(5) 0.3309(6)
O8 O 1.2594(7) 0.0495(4) 0.3904(4)
O9 O 1.2961(5) -0.0691(4) 0.4282(4)
O10 O 0.4475(4) 0.5945(3) 0.0440(2)
O11 O 0.5926(4) 0.5999(3) 0.1625(2)
O12 O 0.6165(5) 0.7715(4) 0.4331(2)
O13 O 0.5084(5) 0.8616(3) 0.4367(3)
O14 O 0.3044(4) 0.8546(3) 0.1268(2)
O15 O 0.0364(3) 0.8817(3) 0.0458(2)
O16 O -0.2951(3) 0.6047(2) 0.0351(2)
O17 O -0.4495(3) 0.5905(3) -0.0831(3)
O18 O -0.1874(4) 0.8385(4) -0.2707(3)
O19 O -0.3267(4) 0.6979(3) -0.3116(3)
O20 O 0.8256(5) 0.4624(4) 0.0771(5)
O21 O 0.4923(8) 0.6452(5) 0.5077(4)
O22 O 0.7314(14) 0.6513(11) 0.5380(9)
O23 O 0.8697(8) 0.8348(11) 0.5714(5)
O24 O 0.6561(4) 0.3934(3) 0.2155(2)
C1A C -0.6311(5) 0.6849(3) -0.1647(3)
C2A C -0.6079(5) 0.7747(4) -0.1931(3)
C3A C -0.5743(5) 0.7799(4) -0.2607(3)
H1A H -0.56370 0.72800 -0.28860
C4A C -0.5564(5) 0.8640(4) -0.2870(3)
C5A C -0.5728(5) 0.9401(4) -0.2448(3)
H2A H -0.56580 0.99460 -0.26420
C6A C -0.5994(5) 0.9365(4) -0.1746(3)
C7A C -0.6195(5) 0.8531(4) -0.1491(3)
H3A H -0.64050 0.84960 -0.10290
C8A C -0.5184(5) 0.8731(4) -0.3598(3)
C9A C -0.6613(6) 1.0157(4) -0.0746(4)
H4A H -0.74470 0.97180 -0.10070
H5A H -0.61700 0.99550 -0.02740
C10A C -0.6574(5) 1.1151(4) -0.0455(3)
H6A H -0.57320 1.15570 -0.01340
H7A H -0.69960 1.11500 -0.00770
C11A C -0.7125(5) 1.1574(4) -0.1145(3)
H8A H -0.66980 1.16040 -0.15210
H9A H -0.70610 1.22140 -0.09070
C12A C -0.9098(5) 1.1336(4) -0.2165(4)
C13A C -1.0250(5) 1.0713(4) -0.2679(4)
H10A H -1.04940 1.00860 -0.26490
C14A C -1.1042(5) 1.1027(4) -0.3243(4)
C15A C -1.0715(6) 1.1961(5) -0.3263(4)
H11A H -1.12640 1.21640 -0.36360
C16A C -0.9584(6) 1.2599(5) -0.2739(4)
C17A C -0.8747(5) 1.2284(4) -0.2190(4)
H12A H -0.79670 1.27040 -0.18470
C18A C -0.9195(7) 1.3626(5) -0.2740(5)
C19A C -1.2289(6) 1.0357(5) -0.3848(4)
C20A C -0.5067(5) 0.3748(3) -0.1220(3)
C21A C -0.4755(5) 0.3033(3) -0.1701(3)
C22A C -0.5228(5) 0.2805(4) -0.2581(3)
H13A H -0.57630 0.30820 -0.28680
C23A C -0.4906(5) 0.2168(4) -0.3028(3)
C24A C -0.4115(5) 0.1741(4) -0.2606(3)
H14A H -0.38610 0.13430 -0.29070
C25A C -0.3703(5) 0.1915(4) -0.1726(3)
C26A C -0.4015(5) 0.2573(4) -0.1285(3)
H15A H -0.37210 0.27070 -0.07000
C27A C -0.5422(5) 0.1936(4) -0.3969(3)
C28A C -0.2687(5) 0.0778(4) -0.1705(3)
H16A H -0.33490 0.04110 -0.22400
H17A H -0.19890 0.11090 -0.18150
C29A C -0.2373(5) 0.0130(4) -0.1161(4)
H18A H -0.30920 -0.02170 -0.10820
H19A H -0.21410 -0.03300 -0.14550
C30A C -0.1351(4) 0.0640(4) -0.0302(3)
H20A H -0.11300 0.01850 -0.00010
H21A H -0.15970 0.10490 0.00330
C31A C 0.0666(4) 0.1776(4) 0.0199(3)
C32A C 0.1435(4) 0.2460(4) -0.0017(3)
H22A H 0.12010 0.25060 -0.05710
C33A C 0.2554(4) 0.3077(3) 0.0591(3)
C34A C 0.2878(5) 0.3036(4) 0.1432(3)
H23A H 0.36210 0.34460 0.18420
C35A C 0.2082(4) 0.2378(4) 0.1649(3)
C36A C 0.0976(4) 0.1734(4) 0.1034(3)
H24A H 0.04570 0.12840 0.11820
C37A C 0.3403(4) 0.3768(3) 0.0339(3)
C38A C 0.2422(5) 0.2338(4) 0.2546(3)
C39A C -0.9204(14) 0.5513(11) -0.0960(12)
C40A C -0.9116(13) 0.6579(9) -0.0924(12)
H25A H -0.83580 0.69990 -0.04880
H26A H -0.91620 0.67020 -0.14560
H27A H -0.97770 0.66840 -0.08050
C41A C -1.0438(17) 0.3793(11) -0.1055(12)
H28A H -0.96650 0.37940 -0.06900
H29A H -1.10270 0.35880 -0.08170
H30A H -1.06960 0.33660 -0.15970
C42A C -1.1540(12) 0.4922(13) -0.1214(15)
H31A H -1.18500 0.45850 -0.08630
H32A H -1.14030 0.55850 -0.10290
H33A H -1.21190 0.46740 -0.17880
Eu1A Eu -0.65158(2) 0.519558(15) -0.098886(13)
Eu2A Eu -0.67647(3) 0.21526(2) -0.580382(16)
N1A N -1.032(1) 0.4793(13) -0.1153(9)
O1A O -0.6260(4) 0.6898(3) -0.0914(2)
O2A O -0.4758(4) 0.8143(3) -0.3836(3)
O3A O -0.5315(5) 0.9405(3) -0.3917(3)
O4A O -0.6059(5) 1.0184(3) -0.1344(3)
O5A O -0.8381(4) 1.0984(3) -0.1602(3)
O6A O -0.8237(4) 1.4202(3) -0.2214(3)
O7A O -0.9929(7) 1.3851(5) -0.3309(6)
O8A O -1.2594(7) 0.9505(4) -0.3904(4)
O9A O -1.2961(5) 1.0691(4) -0.4282(4)
O10A O -0.4475(4) 0.4055(3) -0.0440(2)
O11A O -0.5926(4) 0.4001(3) -0.1625(2)
O12A O -0.6165(5) 0.2285(4) -0.4331(2)
O13A O -0.5084(5) 0.1384(3) -0.4367(3)
O14A O -0.3044(4) 0.1454(3) -0.1268(2)
O15A O -0.0364(3) 0.1183(3) -0.0458(2)
O16A O 0.2951(3) 0.3953(2) -0.0351(2)
O17A O 0.4495(3) 0.4095(3) 0.0831(3)
O18A O 0.1874(4) 0.1615(4) 0.2707(3)
O19A O 0.3267(4) 0.3021(3) 0.3116(3)
O20A O -0.8256(5) 0.5376(4) -0.0771(5)
O21A O -0.4923(8) 0.3548(5) -0.5077(4)
O22A O -0.7314(14) 0.3487(11) -0.5380(9)
O23A O -0.8697(8) 0.1652(11) -0.5714(5)
O24A O -0.6561(4) 0.6066(3) -0.2155(2)
Eu1* Eu -0.34842(2) 0.480442(15) 0.098886(13)
Eu1** Eu 0.65158(2) -0.519558(15) 0.098886(13)
Eu1A* Eu -0.65158(2) 1.519558(15) -0.098886(13)
Eu1A** Eu 0.34842(2) 0.519558(15) -0.098886(13)
Eu2* Eu -1.32353(3) 0.78474(2) -0.419618(16)
Eu2** Eu -0.32353(3) 0.78474(2) -0.419618(16)
Eu2A* Eu 0.32353(3) 0.21526(2) 0.419618(16)
Eu2A** Eu 1.32353(3) 0.21526(2) 0.419618(16)
Eu3* Eu -1.50000 1.00000 -0.50000
Eu3** Eu -0.50000 0.00000 -0.50000
Eu3*** Eu -0.50000 1.00000 -0.50000
Eu3**** Eu 0.50000 0.00000 0.50000
Eu3***** Eu 1.50000 0.00000 0.50000
O2* O -0.5242(4) 0.1857(3) -0.6164(3)
O2A* O 0.5242(4) 0.8143(3) 0.6164(3)
O3* O 0.5315(5) 1.0595(3) 0.3917(3)
O3A* O 0.4685(5) 0.9405(3) 0.6083(3)
O6* O 0.8237(4) 0.5798(3) 0.2214(3)
O6A* O -0.8237(4) 0.4202(3) -0.2214(3)
O8* O -0.7406(7) 0.0495(4) -0.6096(4)
O8A* O 0.7406(7) 0.9505(4) 0.6096(4)
O9* O 0.2961(5) 0.9309(4) 0.4282(4)
O9A* O 0.7039(5) 1.0691(4) 0.5718(4)
O10* O -0.5525(4) 0.5945(3) 0.0440(2)
O10A* O 0.5525(4) 0.4055(3) -0.0440(2)
O13A* O 0.4916(5) 1.1384(3) 0.5633(3)
O16* O 0.7049(3) 0.6047(2) 0.0351(2)
O16A* O -0.7049(3) 0.3953(2) -0.0351(2)
O18* O 0.8126(4) 0.8385(4) 0.7293(3)
O18A* O -0.8126(4) 0.1615(4) -0.7293(3)
O19* O 0.6733(4) 0.6979(3) 0.6884(3)
O19A* O -0.6733(4) 0.3021(3) -0.6884(3)
#END
