
#######################################################################
#
#                 Cambridge Crystallographic Data Centre
#                                CCDC
#
#######################################################################
#
# If this CIF has been generated from an entry in the Cambridge
# Structural Database, then it will include bibliographic, chemical,
# crystal, experimental, refinement or atomic coordinate data resulting
# from the CCDC's data processing and validation procedures.
#
#######################################################################

data_CSD_CIF_JINKUP
_audit_creation_date 2018-12-10
_audit_creation_method CSD-ConQuest-V1
_database_code_CSD JINKUP
_database_code_depnum_ccdc_archive 'CCDC 1583784'
_chemical_formula_sum 'C24 H40 N36 O52 V1 W12 Zn12'
_chemical_formula_moiety
;
(C24 H28 N36 O4 Zn12 8+)n,4n(H2 O1),4n(H1 O1 1-),n(O40 V1 W12 4-)
;
_journal_coden_Cambridge 182
_journal_volume 55
_journal_year 2018
_journal_page_first 1201
_journal_name_full 'Chem.Commun. '
loop_
_publ_author_name
"Xiya Yang"
"Peipei Zhu"
"Jing Ren"
"Yuhao Chen"
"Xiao Li"
"Jingquan Sha"
"Jianzhuang Jiang"
_chemical_name_systematic
;
catena-(tetrakis(\m-hydroxo)-dodecakis(\m-1,2,4-triazolato)-dodeca-zinc(ii) 
tetrahydroxide octacosakis(\m-oxo)-dodecaoxo-dodeca-tungsten-vanadium 
tetrahydrate)
;
_cell_volume   4524.452
_exptl_crystal_colour 'yellow'
_exptl_crystal_description 'block'
_diffrn_ambient_temperature 293
_refine_special_details
;
The centre of the Keggin is disordered by symmetry.

;
#These two values have been output from a single CSD field.
_refine_ls_R_factor_gt 0.0583
_refine_ls_wR_factor_gt 0.0583
_symmetry_cell_setting tetragonal
_symmetry_space_group_name_H-M 'I 4/m'
_symmetry_Int_Tables_number 87
loop_
_symmetry_equiv_pos_site_id
_symmetry_equiv_pos_as_xyz
1 x,y,z
2 -x,-y,z
3 -y,x,z
4 y,-x,z
5 1/2+x,1/2+y,1/2+z
6 1/2-x,1/2-y,1/2+z
7 1/2-y,1/2+x,1/2+z
8 1/2+y,1/2-x,1/2+z
9 -x,-y,-z
10 x,y,-z
11 y,-x,-z
12 -y,x,-z
13 -1/2-x,-1/2-y,-1/2-z
14 -1/2+x,-1/2+y,-1/2-z
15 -1/2+y,-1/2-x,-1/2-z
16 -1/2-y,-1/2+x,-1/2-z
_cell_length_a 18.7950(19)
_cell_length_b 18.7950(19)
_cell_length_c 12.808(3)
_cell_angle_alpha 90
_cell_angle_beta 90
_cell_angle_gamma 90
_cell_formula_units_Z 2
loop_
_atom_type_symbol
_atom_type_radius_bond
C 0.68
H 0.23
N 0.68
O 0.68
V 1.53
W 1.62
Zn 1.22
loop_
_atom_site_label
_atom_site_type_symbol
_atom_site_fract_x
_atom_site_fract_y
_atom_site_fract_z
W1 W 0.86805(4) 0.99524(4) 0.30642(6)
W2 W 0.87256(6) 0.86447(6) 0.50000
V1 V 1.00000 1.00000 0.50000
O1 O 0.9335(9) 0.9288(9) 0.2518(15)
O2 O 0.9506(10) 0.9487(10) 0.4249(14)
O3 O 0.8314(10) 1.0637(9) 0.3983(14)
O4 O 0.8019(6) 0.9958(8) 0.2167(9)
O5 O 0.8342(11) 0.9259(10) 0.3983(14)
O6 O 0.8152(11) 0.7972(11) 0.50000
Zn1 Zn 0.71146(13) 0.86042(13) 0.00000
Zn2 Zn 0.70325(10) 1.01725(9) 0.12838(14)
N1 N 0.8065(10) 1.2002(11) 0.00000
O7 O 0.7415(8) 0.9607(7) 0.00000
N2 N 0.6560(8) 0.8630(7) 0.1300(12)
N3 N 0.6514(7) 0.9260(7) 0.1823(11)
N4 N 0.5832(7) 0.8482(7) 0.2641(11)
N5 N 0.7515(7) 1.1041(7) 0.0521(11)
C1 C 0.6141(10) 0.8182(9) 0.1787(15)
H1 H 0.60650 0.77150 0.15750
C2 C 0.7849(9) 1.1605(9) 0.0801(14)
H2 H 0.79320 1.17250 0.14950
C3 C 0.6084(9) 0.9140(8) 0.2609(13)
H3 H 0.59670 0.94860 0.31000
O8 O 0.6148(8) 1.0368(10) 0.00000
O9 O 0.8944(14) 0.9618(14) 0.00000
H4 H 0.90230 0.93730 0.03610
W1A W 1.13195(4) 1.00476(4) 0.30642(6)
W2A W 1.12744(6) 1.13553(6) 0.50000
O1A O 1.0665(9) 1.0712(9) 0.2518(15)
O2A O 1.0494(10) 1.0513(10) 0.4249(14)
O3A O 1.1686(10) 0.9363(9) 0.3983(14)
O4A O 1.1981(6) 1.0042(8) 0.2167(9)
O6A O 1.1848(11) 1.2028(11) 0.50000
W1B W 1.00476(4) 0.86805(4) 0.30642(6)
W2B W 1.13553(6) 0.87256(6) 0.50000
O1B O 1.0712(9) 0.9335(9) 0.2518(15)
O2B O 1.0513(10) 0.9506(10) 0.4249(14)
O3B O 0.9363(10) 0.8314(9) 0.3983(14)
O4B O 1.0042(6) 0.8019(8) 0.2167(9)
O6B O 1.2028(11) 0.8152(11) 0.50000
W1C W 0.99524(4) 1.13195(4) 0.30642(6)
W2C W 0.86447(6) 1.12744(6) 0.50000
O1C O 0.9288(9) 1.0665(9) 0.2518(15)
O2C O 0.9487(10) 1.0494(10) 0.4249(14)
O3C O 1.0637(10) 1.1686(9) 0.3983(14)
O4C O 0.9958(6) 1.1981(8) 0.2167(9)
O6C O 0.7972(11) 1.1848(11) 0.50000
W1H W 1.13195(4) 1.00476(4) 0.69358(6)
O1H O 1.0665(9) 1.0712(9) 0.7482(15)
O2H O 1.0494(10) 1.0513(10) 0.5751(14)
O3H O 1.1686(10) 0.9363(9) 0.6017(14)
O4H O 1.1981(6) 1.0042(8) 0.7833(9)
W1I W 0.86805(4) 0.99524(4) 0.69358(6)
O1I O 0.9335(9) 0.9288(9) 0.7482(15)
O2I O 0.9506(10) 0.9487(10) 0.5751(14)
O3I O 0.8314(10) 1.0637(9) 0.6017(14)
O4I O 0.8019(6) 0.9958(8) 0.7833(9)
W1J W 0.99524(4) 1.13195(4) 0.69358(6)
O1J O 0.9288(9) 1.0665(9) 0.7482(15)
O2J O 0.9487(10) 1.0494(10) 0.5751(14)
O3J O 1.0637(10) 1.1686(9) 0.6017(14)
O4J O 0.9958(6) 1.1981(8) 0.7833(9)
W1K W 1.00476(4) 0.86805(4) 0.69358(6)
O1K O 1.0712(9) 0.9335(9) 0.7482(15)
O2K O 1.0513(10) 0.9506(10) 0.5751(14)
O3K O 0.9363(10) 0.8314(9) 0.6017(14)
O4K O 1.0042(6) 0.8019(8) 0.7833(9)
O5A O 1.1658(11) 1.0741(10) 0.3983(14)
O5B O 1.0741(11) 0.8342(10) 0.3983(14)
O5C O 0.9259(11) 1.1658(10) 0.3983(14)
O5H O 1.1658(11) 1.0741(10) 0.6017(14)
O5I O 0.8342(11) 0.9259(10) 0.6017(14)
O5J O 0.9259(11) 1.1658(10) 0.6017(14)
O5K O 1.0741(11) 0.8342(10) 0.6017(14)
Zn1B Zn 1.13958(13) 0.71146(13) 0.00000
Zn2B Zn 0.98275(10) 0.70325(9) 0.12838(14)
N1B N 0.7998(10) 0.8065(11) 0.00000
O7B O 1.0393(8) 0.7415(7) 0.00000
N2B N 1.1370(8) 0.6560(7) 0.1300(12)
N3B N 1.0740(7) 0.6514(7) 0.1823(11)
N4B N 1.1518(7) 0.5832(7) 0.2641(11)
N5B N 0.8959(7) 0.7515(7) 0.0521(11)
C1B C 1.1818(10) 0.6141(9) 0.1787(15)
H1B H 1.22850 0.60650 0.15750
C2B C 0.8395(9) 0.7849(9) 0.0801(14)
H2B H 0.82750 0.79320 0.14950
C3B C 1.0860(9) 0.6084(8) 0.2609(13)
H3B H 1.05140 0.59670 0.31000
Zn1C Zn 0.86042(13) 1.28854(13) 0.00000
Zn2C Zn 1.01725(10) 1.29675(9) 0.12838(14)
N1C N 1.2002(10) 1.1935(11) 0.00000
O7C O 0.9607(8) 1.2585(7) 0.00000
N2C N 0.8630(8) 1.3440(7) 0.1300(12)
N3C N 0.9260(7) 1.3486(7) 0.1823(11)
N4C N 0.8482(7) 1.4168(7) 0.2641(11)
N5C N 1.1041(7) 1.2485(7) 0.0521(11)
C1C C 0.8182(10) 1.3859(9) 0.1787(15)
H1C H 0.77150 1.39350 0.15750
C2C C 1.1605(9) 1.2151(9) 0.0801(14)
H2C H 1.17250 1.20680 0.14950
C3C C 0.9140(9) 1.3916(8) 0.2609(13)
H3C H 0.94860 1.40330 0.31000
Zn2I Zn 0.70325(10) 1.01725(9) -0.12838(14)
N2I N 0.6560(8) 0.8630(7) -0.1300(12)
N3I N 0.6514(7) 0.9260(7) -0.1823(11)
N4I N 0.5832(7) 0.8482(7) -0.2641(11)
N5I N 0.7515(7) 1.1041(7) -0.0521(11)
C1I C 0.6141(10) 0.8182(9) -0.1787(15)
H1I H 0.60650 0.77150 -0.15750
C2I C 0.7849(9) 1.1605(9) -0.0801(14)
H2I H 0.79320 1.17250 -0.14950
C3I C 0.6084(9) 0.9140(8) -0.2609(13)
H3I H 0.59670 0.94860 -0.31000
Zn2J Zn 1.01725(10) 1.29675(9) -0.12838(14)
N2J N 0.8630(8) 1.3440(7) -0.1300(12)
N3J N 0.9260(7) 1.3486(7) -0.1823(11)
N4J N 0.8482(7) 1.4168(7) -0.2641(11)
N5J N 1.1041(7) 1.2485(7) -0.0521(11)
C1J C 0.8182(10) 1.3859(9) -0.1787(15)
H1J H 0.77150 1.39350 -0.15750
C2J C 1.1605(9) 1.2151(9) -0.0801(14)
H2J H 1.17250 1.20680 -0.14950
C3J C 0.9140(9) 1.3916(8) -0.2609(13)
H3J H 0.94860 1.40330 -0.31000
Zn2K Zn 0.98275(10) 0.70325(9) -0.12838(14)
N2K N 1.1370(8) 0.6560(7) -0.1300(12)
N3K N 1.0740(7) 0.6514(7) -0.1823(11)
N4K N 1.1518(7) 0.5832(7) -0.2641(11)
N5K N 0.8959(7) 0.7515(7) -0.0521(11)
C1K C 1.1818(10) 0.6141(9) -0.1787(15)
H1K H 1.22850 0.60650 -0.15750
C2K C 0.8395(9) 0.7849(9) -0.0801(14)
H2K H 0.82750 0.79320 -0.14950
C3K C 1.0860(9) 0.6084(8) -0.2609(13)
H3K H 1.05140 0.59670 -0.31000
Zn1A Zn 1.28854(13) 1.13958(13) 0.00000
Zn2A Zn 1.29675(10) 0.98275(9) 0.12838(14)
N1A N 1.1935(10) 0.7998(11) 0.00000
O7A O 1.2585(8) 1.0393(7) 0.00000
N2A N 1.3440(8) 1.1370(7) 0.1300(12)
N3A N 1.3486(7) 1.0740(7) 0.1823(11)
N4A N 1.4168(7) 1.1518(7) 0.2641(11)
N5A N 1.2485(7) 0.8959(7) 0.0521(11)
C1A C 1.3859(10) 1.1818(9) 0.1787(15)
H1A H 1.39350 1.22850 0.15750
C2A C 1.2151(9) 0.8395(9) 0.0801(14)
H2A H 1.20680 0.82750 0.14950
C3A C 1.3916(9) 1.0860(8) 0.2609(13)
H3A H 1.40330 1.05140 0.31000
Zn2H Zn 1.29675(10) 0.98275(9) -0.12838(14)
N2H N 1.3440(8) 1.1370(7) -0.1300(12)
N3H N 1.3486(7) 1.0740(7) -0.1823(11)
N4H N 1.4168(7) 1.1518(7) -0.2641(11)
N5H N 1.2485(7) 0.8959(7) -0.0521(11)
C1H C 1.3859(10) 1.1818(9) -0.1787(15)
H1H H 1.39350 1.22850 -0.15750
C2H C 1.2151(9) 0.8395(9) -0.0801(14)
H2H H 1.20680 0.82750 -0.14950
C3H C 1.3916(9) 1.0860(8) -0.2609(13)
H3H H 1.40330 1.05140 -0.31000
Zn2D Zn 1.20325(10) 0.51725(9) -0.37162(14)
Zn2E Zn 0.79675(10) 1.48275(9) -0.37162(14)
Zn2F Zn 1.48275(10) 1.20325(9) -0.37162(14)
Zn2G Zn 0.51725(10) 0.79675(9) -0.37162(14)
Zn2L Zn 0.79675(10) 1.48275(9) 0.37162(14)
Zn2M Zn 1.20325(10) 0.51725(9) 0.37162(14)
Zn2N Zn 0.51725(10) 0.79675(9) 0.37162(14)
Zn2O Zn 1.48275(10) 1.20325(9) 0.37162(14)
N4D N 1.0832(7) 1.3482(7) -0.2359(11)
N4E N 0.9168(7) 0.6518(7) -0.2359(11)
N4F N 0.6518(7) 1.0832(7) -0.2359(11)
N4G N 1.3482(7) 0.9168(7) -0.2359(11)
N4L N 0.9168(7) 0.6518(7) 0.2359(11)
N4M N 1.0832(7) 1.3482(7) 0.2359(11)
N4N N 1.3482(7) 0.9168(7) 0.2359(11)
N4O N 0.6518(7) 1.0832(7) 0.2359(11)
H4I H 0.90230 0.93730 -0.03610
#END
