
#######################################################################
#
#                 Cambridge Crystallographic Data Centre
#                                CCDC
#
#######################################################################
#
# If this CIF has been generated from an entry in the Cambridge
# Structural Database, then it will include bibliographic, chemical,
# crystal, experimental, refinement or atomic coordinate data resulting
# from the CCDC's data processing and validation procedures.
#
#######################################################################

data_CSD_CIF_JIRLOO
_audit_creation_date 2018-12-11
_audit_creation_method CSD-ConQuest-V1
_database_code_CSD JIRLOO
_database_code_depnum_ccdc_archive 'CCDC 1870344'
_chemical_formula_sum 'C78 H58 F24 Gd6 N6 O44'
_chemical_formula_moiety
;
(C24 H10 F12 Gd3 O19 1-)2n,3(C10 H8 N2),4(H2 O1),2(H3 O1 1+)
;
_journal_coden_Cambridge 1147
_journal_volume 19
_journal_year 2019
_journal_page_first 55
_journal_name_full 'Cryst.Growth Des. '
loop_
_publ_author_name
"Wei Wei"
"Xue Wang"
"Kai Zhang"
"Chong-Bin Tian"
"Shao-Wu Du"
_chemical_name_systematic
;
catena-[bis(oxonium) 
bis(tetrakis(\m-hydroxo)-tris(\m-2,4,5,6-tetrafluorobenzene-1,3-dicarboxylato)
-triaqua-tri-gadolinium(iii)) tris(4,4'-bipyridine) tetrahydrate]
;
_cell_volume   6953.360
_exptl_crystal_colour 'golden'
_exptl_crystal_density_diffrn 2.28
_exptl_special_details
;
The free hydrogen atoms given in the formula have not been modelled; we have 
represented two of the water molecules as oxonium ions to account for these
;
_exptl_crystal_description 'block'
_diffrn_ambient_temperature 293
#These two values have been output from a single CSD field.
_refine_ls_R_factor_gt 0.0266
_refine_ls_wR_factor_gt 0.0266
_symmetry_cell_setting rhombohedral
_symmetry_space_group_name_H-M 'R -3'
_symmetry_Int_Tables_number 148
loop_
_symmetry_equiv_pos_site_id
_symmetry_equiv_pos_as_xyz
1 x,y,z
2 -y,x-y,z
3 -x+y,-x,z
4 2/3+x,1/3+y,1/3+z
5 2/3-y,1/3+x-y,1/3+z
6 2/3-x+y,1/3-x,1/3+z
7 1/3+x,2/3+y,2/3+z
8 1/3-y,2/3+x-y,2/3+z
9 1/3-x+y,2/3-x,2/3+z
10 -x,-y,-z
11 y,-x+y,-z
12 x-y,x,-z
13 -2/3-x,-1/3-y,-1/3-z
14 -2/3+y,-1/3-x+y,-1/3-z
15 -2/3+x-y,-1/3+x,-1/3-z
16 -1/3-x,-2/3-y,-2/3-z
17 -1/3+y,-2/3-x+y,-2/3-z
18 -1/3+x-y,-2/3+x,-2/3-z
_cell_length_a 19.1654(4)
_cell_length_b 19.1654(4)
_cell_length_c 21.8589(7)
_cell_angle_alpha 90
_cell_angle_beta 90
_cell_angle_gamma 120
_cell_formula_units_Z 3
loop_
_atom_type_symbol
_atom_type_radius_bond
C 0.68
H 0.23
F 0.64
Gd 1.96
N 0.68
O 0.68
loop_
_atom_site_label
_atom_site_type_symbol
_atom_site_fract_x
_atom_site_fract_y
_atom_site_fract_z
Gd1 Gd -0.56271(2) 0.63937(2) 0.24094(2)
O1 O -0.66667 0.66667 0.26787(16)
O2 O -0.54723(12) 0.76176(12) 0.2007(1)
O3 O -0.42679(14) 0.71291(16) 0.20677(12)
O4 O -0.40635(15) 0.79083(16) 0.12500(12)
O5 O -0.15962(16) 0.93394(17) 0.34222(12)
O6 O -0.11308(17) 0.84755(17) 0.33917(13)
O7 O -0.4623(2) 0.6219(2) 0.3134(2)
H1 H -0.45114 0.62112 0.35092
H2 H -0.43639 0.61228 0.28628
C1 C -0.3838(2) 0.7664(2) 0.16954(16)
C2 C -0.2931(2) 0.8056(2) 0.18040(16)
C3 C -0.2385(2) 0.8224(3) 0.13337(17)
C4 C -0.1573(2) 0.8539(3) 0.14430(19)
C5 C -0.1291(2) 0.8705(2) 0.20306(19)
C6 C -0.1795(2) 0.8587(2) 0.25200(17)
C7 C -0.2601(2) 0.8258(2) 0.23844(16)
C8 C -0.1477(2) 0.8822(2) 0.31715(18)
F1 F -0.26371(17) 0.8054(2) 0.07528(12)
F2 F -0.10558(17) 0.8676(3) 0.09662(14)
F3 F -0.05010(14) 0.89930(18) 0.21246(13)
F4 F -0.31000(14) 0.81204(18) 0.28592(11)
N1 N -0.3405(5) 0.6177(6) 0.2526(6)
C9 C -0.3437(5) 0.6052(5) 0.1905(7)
H3 H -0.39294 0.58400 0.17037
C10 C -0.2778(4) 0.6228(4) 0.1587(5)
H4 H -0.28221 0.61318 0.11682
C11 C -0.2031(4) 0.6551(4) 0.1859(4)
C12 C -0.1976(6) 0.6719(7) 0.2489(5)
H5 H -0.14776 0.69516 0.26828
C13 C -0.2658(7) 0.6541(8) 0.2822(6)
H6 H -0.26214 0.66626 0.32370
O8 O -0.4286(10) 0.6161(8) 0.0775(6)
Gd1A Gd -0.63937(2) 0.79792(2) 0.24094(2)
O2A O -0.76176(12) 0.69101(12) 0.2007(1)
O3A O -0.71291(14) 0.86030(16) 0.20677(12)
O4A O -0.79083(15) 0.80282(16) 0.12500(12)
O5A O -0.93394(16) 0.90644(17) 0.34222(12)
O6A O -0.84755(17) 1.03937(17) 0.33917(13)
O7A O -0.6219(2) 0.9158(2) 0.3134(2)
H1A H -0.62112 0.92774 0.35092
H2A H -0.61228 0.95133 0.28628
C1A C -0.7664(2) 0.8498(2) 0.16954(16)
C2A C -0.8056(2) 0.9013(2) 0.18040(16)
C3A C -0.8224(2) 0.9391(3) 0.13337(17)
C4A C -0.8539(2) 0.9888(3) 0.14430(19)
C5A C -0.8705(2) 1.0004(2) 0.20306(19)
C6A C -0.8587(2) 0.9618(2) 0.25200(17)
C7A C -0.8258(2) 0.9141(2) 0.23844(16)
C8A C -0.8822(2) 0.9701(2) 0.31715(18)
F1A F -0.80540(17) 0.93089(20) 0.07528(12)
F2A F -0.86760(17) 1.02682(30) 0.09662(14)
F3A F -0.89930(14) 1.05060(18) 0.21246(13)
F4A F -0.81204(14) 0.87796(18) 0.28592(11)
Gd1B Gd -0.79792(2) 0.56271(2) 0.24094(2)
O2B O -0.69101(12) 0.54723(12) 0.2007(1)
O3B O -0.86030(14) 0.42679(16) 0.20677(12)
O4B O -0.80282(15) 0.40635(16) 0.12500(12)
O5B O -0.90644(16) 0.15962(17) 0.34222(12)
O6B O -1.03937(17) 0.11308(17) 0.33917(13)
O7B O -0.9158(2) 0.4623(2) 0.3134(2)
H1B H -0.92774 0.45114 0.35092
H2B H -0.95133 0.43639 0.28628
C1B C -0.8498(2) 0.3838(2) 0.16954(16)
C2B C -0.9013(2) 0.2931(2) 0.18040(16)
C3B C -0.9391(2) 0.2385(3) 0.13337(17)
C4B C -0.9888(2) 0.1573(3) 0.14430(19)
C5B C -1.0004(2) 0.1291(2) 0.20306(19)
C6B C -0.9618(2) 0.1795(2) 0.25200(17)
C7B C -0.9141(2) 0.2601(2) 0.23844(16)
C8B C -0.9701(2) 0.1477(2) 0.31715(18)
F1B F -0.93089(17) 0.26371(20) 0.07528(12)
F2B F -1.02682(17) 0.10558(30) 0.09662(14)
F3B F -1.05060(14) 0.05010(18) 0.21246(13)
F4B F -0.87796(14) 0.31000(18) 0.28592(11)
Gd1O Gd -0.770623(20) 0.693963(20) 0.092393(20)
Gd1P Gd -0.693963(20) 0.535413(20) 0.092393(20)
Gd1Q Gd -0.535413(20) 0.770623(20) 0.092393(20)
Gd1L Gd -1.103957(20) 0.027297(20) 0.425727(20)
Gd1L* Gd -0.103957(20) 1.027297(20) 0.425727(20)
Gd1M Gd -1.027297(20) 0.868747(20) 0.425727(20)
Gd1M* Gd -0.027297(20) 0.868747(20) 0.425727(20)
Gd1N Gd -0.868747(20) 0.103957(20) 0.425727(20)
Gd1N* Gd -0.868747(20) 1.103957(20) 0.425727(20)
O2O O -0.786103(120) 0.571573(120) 0.132633(100)
O2P O -0.571573(120) 0.642323(120) 0.132633(100)
O2Q O -0.642323(120) 0.786103(120) 0.132633(100)
O4O O -0.926983(150) 0.542503(160) 0.208333(120)
O4P O -0.542503(150) 0.530513(160) 0.208333(120)
O4Q O -0.530513(150) 0.926983(160) 0.208333(120)
O5L O -0.507047(160) 0.732727(170) 0.324447(120)
O5M O -0.732727(160) 0.760227(170) 0.324447(120)
O5N O -0.760227(160) 0.507047(170) 0.324447(120)
O6L O -0.553587(170) 0.819117(170) 0.327497(130)
O6M O -0.819117(170) 0.627297(170) 0.327497(130)
O6N O -0.627297(170) 0.553587(170) 0.327497(130)
N1O N 0.007167(500) 0.715633(600) 0.080733(600)
C9O C 0.010367(500) 0.728133(500) 0.142833(700)
H3O H 0.05960 0.74934 0.16296
C10O C -0.055533(400) 0.710533(400) 0.174633(500)
H4O H -0.05113 0.72016 0.21652
C11O C -0.130233(400) 0.678233(400) 0.147433(400)
C12O C -0.135733(600) 0.661433(700) 0.084433(500)
H5O H -0.18558 0.63817 0.06505
C13O C -0.067533(700) 0.679233(800) 0.051133(600)
H6O H -0.07120 0.66707 0.00964
#END
