
#######################################################################
#
#                 Cambridge Crystallographic Data Centre
#                                CCDC
#
#######################################################################
#
# If this CIF has been generated from an entry in the Cambridge
# Structural Database, then it will include bibliographic, chemical,
# crystal, experimental, refinement or atomic coordinate data resulting
# from the CCDC's data processing and validation procedures.
#
#######################################################################

data_CSD_CIF_JIRYUE
_audit_creation_date 1992-01-06
_audit_creation_method CSD-ConQuest-V1
_database_code_CSD JIRYUE
_database_code_depnum_ccdc_fiz 'CSD 54652'
_chemical_formula_sum 'C12 H20 Bi2 K2 O20'
_chemical_formula_moiety
;
(C12 H10 Bi2 O15 2-)n,2n(K1 1+),5n(H2 O1)
;
_journal_coden_Cambridge 9
_journal_volume 30
_journal_year 1991
_journal_page_first 2579
_journal_name_full 'Inorg.Chem. '
loop_
_publ_author_name
"W.A.Herrmann"
"E.Herdtweck"
"L.Pajdla"
_chemical_name_systematic
;
catena(Di-potassium aqua-(\m~3~-citrato)-(\m~2~-ctrato)-di-bismuth 
pentahydrate)
;
_cell_volume   2407.644
_exptl_crystal_colour 'colorless'
_exptl_special_details
;
agent used in treatment of Helicobacter pylori
CSD 54652 contains no further data; supplementary data from fiche has been 
used
;
_diffrn_ambient_temperature ?
_diffrn_special_details
;
The study was carried out at room temperature,in the range 283-303K

;
_refine_special_details
;
Disordered water molecules.

;
#These two values have been output from a single CSD field.
_refine_ls_R_factor_gt 0.049
_refine_ls_wR_factor_gt 0.049
_symmetry_cell_setting monoclinic
_symmetry_space_group_name_H-M 'P 21/n'
_symmetry_Int_Tables_number 14
loop_
_symmetry_equiv_pos_site_id
_symmetry_equiv_pos_as_xyz
1 x,y,z
2 1/2-x,1/2+y,1/2-z
3 -x,-y,-z
4 -1/2+x,-1/2-y,-1/2+z
_cell_length_a 10.924(2)
_cell_length_b 15.280(1)
_cell_length_c 14.967(3)
_cell_angle_alpha 90
_cell_angle_beta 105.48(1)
_cell_angle_gamma 90
_cell_formula_units_Z 4
loop_
_atom_type_symbol
_atom_type_radius_bond
C 0.68
H 0.23
Bi 1.54
K 1.55
O 0.68
loop_
_atom_site_label
_atom_site_type_symbol
_atom_site_fract_x
_atom_site_fract_y
_atom_site_fract_z
Bi1 Bi 0.54182(6) 0.03458(4) 0.65516(4)
O1 O 0.567(1) 0.1574(8) 0.7609(8)
O2 O 0.538(1) 0.2450(8) 0.8672(8)
O3 O 0.3970(9) 0.0088(7) 0.7230(7)
O4 O 0.225(1) 0.1987(9) 0.6259(9)
O5 O 0.374(1) 0.1209(8) 0.5851(7)
O6 O 0.117(1) -0.0013(7) 0.5789(7)
O7 O 0.107(1) -0.0945(8) 0.6875(7)
C1 C 0.503(2) 0.183(1) 0.813(1)
C2 C 0.382(1) 0.136(1) 0.813(1)
C3 C 0.324(2) 0.081(1) 0.730(1)
C4 C 0.194(2) 0.047(1) 0.737(1)
C5 C 0.140(1) -0.019(1) 0.668(1)
C6 C 0.302(1) 0.138(1) 0.639(1)
Bi2 Bi 0.46926(6) 0.34956(4) 0.96738(4)
O8 O 0.532(1) -0.1256(8) 0.6574(9)
O9 O 0.421(1) -0.0635(8) 0.5330(8)
O10 O 0.220(1) -0.1979(7) 0.5797(7)
O11 O 0.126(1) -0.1162(7) 0.4176(7)
O12 O 0.261(1) -0.1804(9) 0.3504(8)
O13 O 0.017(1) -0.2862(8) 0.448(1)
O14 O 0.072(1) -0.4200(8) 0.422(1)
C7 C 0.455(1) -0.133(1) 0.580(1)
C8 C 0.414(2) -0.219(1) 0.540(1)
C9 C 0.273(2) -0.226(1) 0.507(1)
C10 C 0.240(2) -0.321(1) 0.482(1)
C11 C 0.100(2) -0.342(1) 0.447(1)
C12 C 0.220(2) -0.170(1) 0.420(1)
K1 K 0.7194(5) 0.3094(4) 0.7754(4)
K2 K 0.3858(6) -0.1649(4) 0.7747(4)
O15 O 0.698(1) -0.0192(9) 0.8018(8)
O16 O 0.712(1) 0.4400(9) 0.9067(8)
O17 O 0.679(2) 0.067(1) 0.042(1)
O18 O 0.308(2) 0.297(1) 0.484(2)
O19 O 0.505(2) 0.377(2) 0.658(1)
O20 O 0.399(3) 0.409(2) 0.344(2)
O21 O 0.452(4) 0.316(3) 0.260(4)
H1 H 0.32130 0.17860 0.81830
H2 H 0.39960 0.09880 0.86610
H3 H 0.13650 0.09510 0.72840
H4 H 0.20330 0.02230 0.79650
H5 H 0.44890 -0.22840 0.48870
H6 H 0.44520 -0.26270 0.58540
H7 H 0.27950 -0.33670 0.43510
H8 H 0.27430 -0.35500 0.53580
Bi2A Bi 0.03074(6) -0.15044(4) 0.53262(4)
O6A O 0.383(1) 0.4987(7) 0.9211(7)
O7A O 0.393(1) 0.4055(8) 0.8125(7)
O10A O 0.280(1) 0.3021(7) 0.9203(7)
O11A O 0.374(1) 0.3838(7) 1.0824(7)
O13A O 0.483(1) 0.2138(8) 1.052(1)
#END
