
#######################################################################
#
#                 Cambridge Crystallographic Data Centre
#                                CCDC
#
#######################################################################
#
# If this CIF has been generated from an entry in the Cambridge
# Structural Database, then it will include bibliographic, chemical,
# crystal, experimental, refinement or atomic coordinate data resulting
# from the CCDC's data processing and validation procedures.
#
#######################################################################

data_CSD_CIF_JISMAC
_audit_creation_date 2018-12-11
_audit_creation_method CSD-ConQuest-V1
_database_code_CSD JISMAC
_database_code_depnum_ccdc_archive 'CCDC 1544278'
_chemical_formula_sum 'C12 H16 Cu4 Mo8 N24 O28'
_chemical_formula_moiety
;
(C12 H12 Cu4 N24 4+)n,Mo8 O26 4-,2(H2 O1)
;
_journal_coden_Cambridge 702
_journal_volume 34
_journal_year 2018
_journal_page_first 2280
_journal_name_full 'Wuji Huaxue Xuebao(Chin.)(Chin.J.Inorg.Chem.) '
loop_
_publ_author_name
"Yuan-Yuan Liu"
"Xin Shu Li"
"Hui-Min Zhang"
"Bin Ding"
_chemical_name_systematic
;
catena-[tris(\m-4,4'-(diazene-1,2-diyl)bis(4H-1,2,4-triazole))-tetra-copper(i)
 dodecakis(\m-oxido)-tetradecakis(oxido)-octa-molybdenum(vi) dihydrate]
;
_cell_volume   2095.234
_exptl_crystal_colour 'red'
_exptl_crystal_density_diffrn 3.117
_exptl_crystal_description 'block'
_diffrn_ambient_temperature 296
#These two values have been output from a single CSD field.
_refine_ls_R_factor_gt 0.0444
_refine_ls_wR_factor_gt 0.0444
_symmetry_cell_setting monoclinic
_symmetry_space_group_name_H-M 'P 21/c'
_symmetry_Int_Tables_number 14
loop_
_symmetry_equiv_pos_site_id
_symmetry_equiv_pos_as_xyz
1 x,y,z
2 -x,1/2+y,1/2-z
3 -x,-y,-z
4 x,-1/2-y,-1/2+z
_cell_length_a 10.7647(11)
_cell_length_b 10.7840(11)
_cell_length_c 18.0702(19)
_cell_angle_alpha 90
_cell_angle_beta 92.782(2)
_cell_angle_gamma 90
_cell_formula_units_Z 2
loop_
_atom_type_symbol
_atom_type_radius_bond
C 0.68
H 0.23
Cu 1.32
Mo 1.54
N 0.68
O 0.68
loop_
_atom_site_label
_atom_site_type_symbol
_atom_site_fract_x
_atom_site_fract_y
_atom_site_fract_z
Cu1 Cu 0.24471(11) 0.42189(10) 0.26221(6)
Cu2 Cu 0.02238(9) 0.44736(10) 0.09956(6)
N1 N 0.0845(6) 0.5943(6) 0.1780(4)
N2 N 0.1915(6) 0.5823(6) 0.2253(4)
N3 N 0.1525(6) 0.7789(6) 0.2087(4)
N4 N 0.1701(7) 0.9054(6) 0.2158(4)
N5 N 0.1009(6) 0.9601(6) 0.1691(4)
N6 N 0.1180(6) 1.0879(6) 0.1765(4)
N7 N 0.1752(6) 1.2746(6) 0.2070(4)
N8 N 0.0749(6) 1.2823(6) 0.1531(4)
N9 N 0.1601(6) 0.4837(6) 0.0259(4)
N10 N 0.1458(6) 0.5219(6) -0.0484(4)
N11 N 0.4706(6) 0.5168(6) -0.0285(4)
N12 N 0.3424(6) 0.5122(6) -0.0178(4)
C1 C 0.0637(8) 0.7125(8) 0.1687(5)
H1 H -0.00120 0.74660 0.13960
C2 C 0.2285(8) 0.6926(8) 0.2422(5)
H2 H 0.29760 0.71090 0.27320
C3 C 0.2557(7) 0.5365(7) -0.0732(4)
H3 H 0.27270 0.55990 -0.12120
C4 C 0.2789(7) 0.4778(8) 0.0422(5)
H4 H 0.31500 0.45380 0.08770
C5 C 0.1972(8) 1.1585(8) 0.2181(5)
H5 H 0.25950 1.12760 0.25060
C6 C 0.0448(7) 1.1697(7) 0.1364(5)
H6 H -0.01810 1.14730 0.10190
Mo1 Mo 0.45830(6) 0.40032(6) 0.57402(4)
Mo2 Mo 0.27553(6) 0.64224(6) 0.49481(4)
Mo3 Mo 0.20364(6) 0.35820(7) 0.45468(4)
Mo4 Mo 0.47516(6) 0.31290(7) 0.38789(4)
O1 O 0.3940(5) 0.4792(5) 0.4557(3)
O2 O 0.5569(5) 0.1865(5) 0.3637(3)
O3 O 0.1626(5) 0.4069(5) 0.3657(3)
O4 O 0.4120(5) 0.3709(5) 0.3052(3)
O5 O 0.3309(5) 0.2434(5) 0.4246(3)
O6 O 0.0866(5) 0.2632(5) 0.4767(3)
O7 O 0.5484(5) 0.2953(5) 0.5064(3)
O8 O 0.3136(5) 0.3238(5) 0.5609(3)
O9 O 0.5160(5) 0.3511(5) 0.6572(3)
O10 O 0.3893(5) 0.5612(5) 0.5987(3)
O11 O 0.1678(5) 0.5051(5) 0.5083(3)
O12 O 0.2167(5) 0.7484(5) 0.5520(3)
O13 O 0.2306(5) 0.6898(5) 0.4079(3)
O14 O 0.5810(7) 0.4874(8) 0.2054(4)
H7 H 0.54870 0.55690 0.19330
H8 H 0.53130 0.45100 0.23340
N9B N 0.8399(6) 0.5163(6) -0.0259(4)
N10B N 0.8542(6) 0.4781(6) 0.0484(4)
N11B N 0.5294(6) 0.4832(6) 0.0285(4)
N12B N 0.6576(6) 0.4878(6) 0.0178(4)
C3B C 0.7443(7) 0.4635(7) 0.0732(4)
H3B H 0.72730 0.44010 0.12120
C4B C 0.7211(7) 0.5222(8) -0.0422(5)
H4B H 0.68500 0.54620 -0.08770
Cu1B Cu -0.24471(11) 0.57811(10) -0.26221(6)
Cu2B Cu -0.02238(9) 0.55264(10) -0.09956(6)
N1B N -0.0845(6) 0.4057(6) -0.1780(4)
N2B N -0.1915(6) 0.4177(6) -0.2253(4)
N3B N -0.1525(6) 0.2211(6) -0.2087(4)
N4B N -0.1701(7) 0.0946(6) -0.2158(4)
N5B N -0.1009(6) 0.0399(6) -0.1691(4)
N6B N -0.1180(6) -0.0879(6) -0.1765(4)
N7B N -0.1752(6) -0.2746(6) -0.2070(4)
N8B N -0.0749(6) -0.2823(6) -0.1531(4)
C1B C -0.0637(8) 0.2875(8) -0.1687(5)
H1B H 0.00120 0.25340 -0.13960
C2B C -0.2285(8) 0.3074(8) -0.2422(5)
H2B H -0.29760 0.28910 -0.27320
C5B C -0.1972(8) -0.1585(8) -0.2181(5)
H5B H -0.25950 -0.12760 -0.25060
C6B C -0.0448(7) -0.1697(7) -0.1364(5)
H6B H 0.01810 -0.14730 -0.10190
Cu1* Cu 0.24471(11) 1.42189(10) 0.26221(6)
Cu1B* Cu -0.24471(11) -0.42189(10) -0.26221(6)
Cu2* Cu 0.02238(9) 1.44736(10) 0.09956(6)
Cu2** Cu 1.02238(9) 0.44736(10) 0.09956(6)
Cu2B* Cu -0.02238(9) -0.44736(10) -0.09956(6)
Cu2B** Cu 0.97762(9) 0.55264(10) -0.09956(6)
N7* N 0.1752(6) 0.2746(6) 0.2070(4)
N7B* N -0.1752(6) 0.7254(6) -0.2070(4)
N8* N 0.0749(6) 0.2823(6) 0.1531(4)
N8B* N -0.0749(6) 0.7177(6) -0.1531(4)
N9B* N -0.1601(6) 0.5163(6) -0.0259(4)
N10B* N -0.1458(6) 0.4781(6) 0.0484(4)
Mo1B Mo 0.54170(6) 0.59968(6) 0.42598(4)
Mo2B Mo 0.72447(6) 0.35776(6) 0.50519(4)
Mo3B Mo 0.79636(6) 0.64180(7) 0.54532(4)
Mo4B Mo 0.52484(6) 0.68710(7) 0.61211(4)
O1B O 0.6060(5) 0.5208(5) 0.5443(3)
O2B O 0.4431(5) 0.8135(5) 0.6363(3)
O3B O 0.8374(5) 0.5931(5) 0.6343(3)
O4B O 0.5880(5) 0.6291(5) 0.6948(3)
O5B O 0.6691(5) 0.7566(5) 0.5754(3)
O6B O 0.9134(5) 0.7368(5) 0.5233(3)
O7B O 0.4516(5) 0.7047(5) 0.4936(3)
O8B O 0.6864(5) 0.6762(5) 0.4391(3)
O9B O 0.4840(5) 0.6489(5) 0.3428(3)
O10B O 0.6107(5) 0.4388(5) 0.4013(3)
O11B O 0.8322(5) 0.4949(5) 0.4917(3)
O12B O 0.7833(5) 0.2516(5) 0.4480(3)
O13B O 0.7694(5) 0.3102(5) 0.5921(3)
#END
