
#######################################################################
#
#                 Cambridge Crystallographic Data Centre
#                                CCDC
#
#######################################################################
#
# If this CIF has been generated from an entry in the Cambridge
# Structural Database, then it will include bibliographic, chemical,
# crystal, experimental, refinement or atomic coordinate data resulting
# from the CCDC's data processing and validation procedures.
#
#######################################################################

data_CSD_CIF_JISZAP
_audit_creation_date 2018-12-11
_audit_creation_method CSD-ConQuest-V1
_database_code_CSD JISZAP
_database_code_depnum_ccdc_archive 'CCDC 1820588'
_chemical_formula_sum 'C24 H92 Fe4 La2 N4 Na4 O112 Sb2 W18'
_chemical_formula_moiety
;
4(Na1 1+),2(La1 3+),C24 H20 Fe4 N4 O76 Sb2 W18 10-,36(H2 O1)
;
_journal_coden_Cambridge 9
_journal_volume 57
_journal_year 2018
_journal_page_first 15079
_journal_name_full 'Inorg.Chem. '
loop_
_publ_author_name
"Yanhong Chen"
"Longhui Sun"
"Shenzhen Chang"
"Lijuan Chen"
"Junwei Zhao"
_chemical_name_systematic
;
catena-[tetra-sodium di-lanthanum(iii) 
pentacontakis(\m-oxido)-tetrakis(pyridine-2-carboxylato)-bis(aqua)-hexadecakis
(oxido)-di-antimony-octadeca-tungsten-tetra-iron hexatriacontahydrate]
;
_cell_volume   6213.386
_exptl_crystal_colour 'yellow green'
_exptl_crystal_density_diffrn 3.407
_exptl_crystal_description 'block'
_diffrn_ambient_temperature 296
_refine_special_details
;
The structure is disordered.

;
#These two values have been output from a single CSD field.
_refine_ls_R_factor_gt 0.0367
_refine_ls_wR_factor_gt 0.0367
_symmetry_cell_setting monoclinic
_symmetry_space_group_name_H-M 'P 21/n'
_symmetry_Int_Tables_number 14
loop_
_symmetry_equiv_pos_site_id
_symmetry_equiv_pos_as_xyz
1 x,y,z
2 1/2-x,1/2+y,1/2-z
3 -x,-y,-z
4 -1/2+x,-1/2-y,-1/2+z
_cell_length_a 14.6466(10)
_cell_length_b 22.7621(15)
_cell_length_c 18.6474(13)
_cell_angle_alpha 90
_cell_angle_beta 91.901(1)
_cell_angle_gamma 90
_cell_formula_units_Z 2
loop_
_atom_type_symbol
_atom_type_radius_bond
C 0.68
H 0.23
Fe 1.52
La 2.07
N 0.68
Na 1.66
O 0.68
Sb 1.39
W 1.62
loop_
_atom_site_label
_atom_site_type_symbol
_atom_site_fract_x
_atom_site_fract_y
_atom_site_fract_z
Sb1 Sb 0.95797(4) -0.01785(3) -0.35388(3)
W1 W 0.93979(3) -0.189040(19) -0.36556(2)
W2 W 1.14477(3) -0.11062(2) -0.29805(2)
W3 W 0.74296(3) -0.11635(2) -0.39498(3)
W4 W 0.97682(3) -0.12611(2) -0.18587(2)
W5 W 0.91471(3) -0.100454(17) -0.50877(2)
W6 W 0.87458(3) 0.08019(2) -0.22092(3)
W7 W 0.73137(3) 0.04269(2) -0.35639(2)
W8 W 0.75668(3) -0.04626(2) -0.21787(3)
W9 W 1.09304(3) 0.00105(2) -0.19230(2)
Fe1 Fe 1.07754(11) 0.12970(7) -0.29571(8)
Fe2 Fe 1.15779(9) -0.05648(6) -0.47668(8)
O1 O 1.0421(7) 0.2182(4) -0.3191(5)
O2 O 0.6811(6) -0.0724(4) -0.1569(5)
O3 O 1.0881(6) 0.1576(4) -0.1907(4)
O4 O 0.7198(5) -0.0354(3) -0.4009(4)
O5 O 0.8181(5) 0.0594(3) -0.4199(4)
O6 O 0.8773(5) -0.0257(3) -0.5160(4)
O7 O 1.0600(5) -0.1619(3) -0.3528(4)
O8 O 1.1423(5) -0.0601(3) -0.3728(4)
O9 O 0.9385(5) -0.1809(3) -0.4657(4)
O10 O 0.7838(5) -0.1229(3) -0.4888(4)
O11 O 0.9098(5) -0.1242(3) -0.6001(4)
O12 O 0.9262(5) -0.1681(3) -0.2654(4)
O13 O 0.8988(5) -0.0923(3) -0.3914(4)
O14 O 0.8516(5) 0.0014(3) -0.2940(4)
O15 O 1.0937(5) -0.1522(3) -0.2160(4)
O16 O 0.6755(5) 0.0003(4) -0.2762(4)
O17 O 1.0343(5) -0.0853(3) -0.4948(4)
O18 O 0.6352(5) 0.0782(4) -0.3911(5)
O19 O 1.2189(5) -0.1384(3) -0.4732(4)
O20 O 0.8079(5) -0.1887(3) -0.3703(4)
O21 O 0.8667(6) -0.0822(4) -0.1793(4)
O22 O 0.9750(6) 0.0378(4) -0.1788(4)
O23 O 1.2465(5) -0.1484(4) -0.3046(5)
O24 O 1.0423(6) -0.0636(4) -0.1358(4)
O25 O 1.1566(7) 0.0329(5) -0.1236(5)
O26 O 0.6346(5) -0.1454(4) -0.4050(5)
O27 O 0.9519(6) -0.2634(4) -0.3589(4)
O28 O 0.7693(5) 0.0999(3) -0.2849(4)
O29 O 1.1831(5) -0.0535(4) -0.2265(4)
O30 O 1.0163(5) -0.0599(3) -0.2701(4)
O31 O 0.7498(5) -0.1033(3) -0.2904(4)
O32 O 0.8649(7) 0.1388(4) -0.1631(5)
O33 O 0.7933(6) 0.0256(4) -0.1708(4)
O34 O 0.9495(5) 0.1094(4) -0.2900(4)
O35 O 0.9607(6) -0.1747(4) -0.1145(5)
O36 O 1.3493(7) -0.1872(4) -0.4584(6)
O37 O 1.1090(5) 0.0502(3) -0.2685(4)
O38 O 1.1791(8) 0.1963(5) -0.1048(5)
N1 N 1.2171(7) 0.1580(5) -0.2855(5)
N2 N 1.2990(6) -0.0361(4) -0.4480(5)
C1 C 1.1637(10) 0.1770(6) -0.1677(7)
C2 C 1.2398(9) 0.1812(6) -0.2211(7)
C3 C 1.3238(11) 0.2063(8) -0.2052(8)
H1 H 1.33710 0.22160 -0.15980
C4 C 1.3896(10) 0.2084(8) -0.2596(9)
H2 H 1.44670 0.22540 -0.25160
C5 C 1.3639(10) 0.1834(8) -0.3253(8)
H3 H 1.40500 0.18310 -0.36220
C6 C 1.2784(9) 0.1592(7) -0.3366(7)
H4 H 1.26300 0.14320 -0.38120
C7 C 1.3021(8) -0.1416(5) -0.4575(6)
C8 C 1.3515(7) -0.0846(5) -0.4383(6)
C9 C 1.4412(10) -0.0814(7) -0.4182(10)
H5 H 1.47650 -0.11540 -0.41620
C10 C 1.480(1) -0.0281(8) -0.4008(12)
H6 H 1.54020 -0.02510 -0.38370
C11 C 1.4247(11) 0.0210(7) -0.4101(10)
H7 H 1.44860 0.05830 -0.40110
C12 C 1.3340(8) 0.0150(5) -0.4327(7)
H8 H 1.29740 0.04830 -0.43690
Na1 Na 1.0069(6) 0.2529(3) -0.4394(4)
O39 O 0.8658(14) 0.1923(9) -0.3871(11)
Na2 Na 1.0795(6) 0.3058(4) -0.2235(5)
O40 O 0.9891(11) 0.2545(7) -0.1135(8)
La1 La 0.91695(10) -0.22314(5) -0.00200(6)
O41 O 0.9802(8) -0.1307(5) 0.0457(6)
O42 O 0.8987(9) -0.2988(6) -0.1056(7)
O43 O 0.7771(9) -0.1842(6) -0.0541(7)
O44 O 1.0812(10) -0.2396(7) -0.0176(8)
O45 O 0.2295(14) -0.2103(9) 0.0719(11)
O46 O -0.0882(14) -0.0175(9) -0.0336(11)
O47 O -0.1465(17) 0.0942(10) 0.0112(13)
O48 O 0.1549(15) 0.3068(9) 0.2448(11)
La2? La 0.8662(2) -0.21786(13) -0.01770(16)
O49? O 0.879(2) 0.2521(12) -0.5224(15)
O50? O -0.212(2) 0.1859(14) 0.1076(17)
O51? O 0.271(2) 0.2183(14) 0.2161(16)
Sb1B Sb 1.04203(4) 0.01785(3) -0.64612(3)
W1B W 1.06021(3) 0.189040(19) -0.63444(2)
W2B W 0.85523(3) 0.11062(2) -0.70195(2)
W3B W 1.25704(3) 0.11635(2) -0.60502(3)
W4B W 1.02318(3) 0.12611(2) -0.81413(2)
W5B W 1.08529(3) 0.100454(17) -0.49123(2)
W6B W 1.12542(3) -0.08019(2) -0.77908(3)
W7B W 1.26863(3) -0.04269(2) -0.64361(2)
W8B W 1.24332(3) 0.04626(2) -0.78213(3)
W9B W 0.90696(3) -0.00105(2) -0.80770(2)
Fe1B Fe 0.92246(11) -0.12970(7) -0.70429(8)
Fe2B Fe 0.84221(9) 0.05648(6) -0.52332(8)
O1B O 0.9579(7) -0.2182(4) -0.6809(5)
O2B O 1.3189(6) 0.0724(4) -0.8431(5)
O3B O 0.9119(6) -0.1576(4) -0.8093(4)
O4B O 1.2802(5) 0.0354(3) -0.5991(4)
O5B O 1.1819(5) -0.0594(3) -0.5801(4)
O6B O 1.1227(5) 0.0257(3) -0.4840(4)
O7B O 0.9400(5) 0.1619(3) -0.6472(4)
O8B O 0.8577(5) 0.0601(3) -0.6272(4)
O9B O 1.0615(5) 0.1809(3) -0.5343(4)
O10B O 1.2162(5) 0.1229(3) -0.5112(4)
O11B O 1.0902(5) 0.1242(3) -0.3999(4)
O12B O 1.0738(5) 0.1681(3) -0.7346(4)
O13B O 1.1012(5) 0.0923(3) -0.6086(4)
O14B O 1.1484(5) -0.0014(3) -0.7060(4)
O15B O 0.9063(5) 0.1522(3) -0.7840(4)
O16B O 1.3245(5) -0.0003(4) -0.7238(4)
O17B O 0.9657(5) 0.0853(3) -0.5052(4)
O18B O 1.3648(5) -0.0782(4) -0.6089(5)
O19B O 0.7811(5) 0.1384(3) -0.5268(4)
O20B O 1.1921(5) 0.1887(3) -0.6297(4)
O21B O 1.1333(6) 0.0822(4) -0.8207(4)
O22B O 1.0250(6) -0.0378(4) -0.8212(4)
O23B O 0.7535(5) 0.1484(4) -0.6954(5)
O24B O 0.9577(6) 0.0636(4) -0.8642(4)
O25B O 0.8434(7) -0.0329(5) -0.8764(5)
O26B O 1.3654(5) 0.1454(4) -0.5950(5)
O27B O 1.0481(6) 0.2634(4) -0.6411(4)
O28B O 1.2307(5) -0.0999(3) -0.7151(4)
O29B O 0.8169(5) 0.0535(4) -0.7735(4)
O30B O 0.9837(5) 0.0599(3) -0.7299(4)
O31B O 1.2502(5) 0.1033(3) -0.7096(4)
O32B O 1.1351(7) -0.1388(4) -0.8369(5)
O33B O 1.2067(6) -0.0256(4) -0.8292(4)
O34B O 1.0505(5) -0.1094(4) -0.7100(4)
O35B O 1.0393(6) 0.1747(4) -0.8855(5)
O36B O 0.6507(7) 0.1872(4) -0.5416(6)
O37B O 0.8910(5) -0.0502(3) -0.7315(4)
O38B O 0.8209(8) -0.1963(5) -0.8952(5)
N1B N 0.7829(7) -0.1580(5) -0.7145(5)
N2B N 0.7010(6) 0.0361(4) -0.5520(5)
C1B C 0.8363(10) -0.1770(6) -0.8323(7)
C2B C 0.7602(9) -0.1812(6) -0.7789(7)
C3B C 0.6762(11) -0.2063(8) -0.7948(8)
H1B H 0.66290 -0.22160 -0.84020
C4B C 0.6104(10) -0.2084(8) -0.7404(9)
H2B H 0.55330 -0.22540 -0.74840
C5B C 0.6361(10) -0.1834(8) -0.6747(8)
H3B H 0.59500 -0.18310 -0.63780
C6B C 0.7216(9) -0.1592(7) -0.6634(7)
H4B H 0.73700 -0.14320 -0.61880
C7B C 0.6979(8) 0.1416(5) -0.5425(6)
C8B C 0.6485(7) 0.0846(5) -0.5617(6)
C9B C 0.5588(10) 0.0814(7) -0.5818(10)
H5B H 0.52350 0.11540 -0.58380
C10B C 0.520(1) 0.0281(8) -0.5992(12)
H6B H 0.45980 0.02510 -0.61630
C11B C 0.5753(11) -0.0210(7) -0.5899(10)
H7B H 0.55140 -0.05830 -0.59890
C12B C 0.6660(8) -0.0150(5) -0.5673(7)
H8B H 0.70260 -0.04830 -0.56310
#END
