
#######################################################################
#
#                 Cambridge Crystallographic Data Centre
#                                CCDC
#
#######################################################################
#
# If this CIF has been generated from an entry in the Cambridge
# Structural Database, then it will include bibliographic, chemical,
# crystal, experimental, refinement or atomic coordinate data resulting
# from the CCDC's data processing and validation procedures.
#
#######################################################################

data_CSD_CIF_JITBIA
_audit_creation_date 2018-12-11
_audit_creation_method CSD-ConQuest-V1
_database_code_CSD JITBIA
_database_code_depnum_ccdc_archive 'CCDC 1868327'
_chemical_formula_sum 'C24 H91 Fe4 Ho2 N4 Na1 O110 Sb2 W18'
_chemical_formula_moiety
;
(C24 H46 Fe4 Ho2 N4 O88 Sb2 W18 2-)n,Na1 1+,21(H2 O1),H3 O1 1+
;
_journal_coden_Cambridge 9
_journal_volume 57
_journal_year 2018
_journal_page_first 15079
_journal_name_full 'Inorg.Chem. '
loop_
_publ_author_name
"Yanhong Chen"
"Longhui Sun"
"Shenzhen Chang"
"Lijuan Chen"
"Junwei Zhao"
_chemical_name_systematic
;
catena-[sodium oxonium 
dopentacontakis(\m-oxo)-bis(\m-pyridine-2-carboxylato)-tetradecaaqua-tetradeca
oxo-bis(pyridine-2-carboxylic 
acid)-di-antimony-di-holmium-tetra-iron-octadeca-tungsten henicosahydrate]
;
_cell_volume   5928.106
_exptl_crystal_colour 'yellow green'
_exptl_crystal_density_diffrn 3.543
_exptl_special_details
;
One of the 22 solvent water molecules has been represented as an oxonium ion 
to account for the hydrogen included in the formula in the paper
;
_exptl_crystal_description 'block'
_diffrn_ambient_temperature 296
_refine_special_details
;
O15W and O16W disordered over two sites with occupancies 0.50:0.50.

;
#These two values have been output from a single CSD field.
_refine_ls_R_factor_gt 0.0504
_refine_ls_wR_factor_gt 0.0504
_symmetry_cell_setting triclinic
_symmetry_space_group_name_H-M 'P -1'
_symmetry_Int_Tables_number 2
loop_
_symmetry_equiv_pos_site_id
_symmetry_equiv_pos_as_xyz
1 x,y,z
2 -x,-y,-z
_cell_length_a 13.0402(6)
_cell_length_b 18.3917(9)
_cell_length_c 26.6030(13)
_cell_angle_alpha 80.015(1)
_cell_angle_beta 89.160(1)
_cell_angle_gamma 70.805(1)
_cell_formula_units_Z 2
loop_
_atom_type_symbol
_atom_type_radius_bond
C 0.68
H 0.23
Fe 1.52
Ho 1.92
N 0.68
Na 1.66
O 0.68
Sb 1.39
W 1.62
loop_
_atom_site_label
_atom_site_type_symbol
_atom_site_fract_x
_atom_site_fract_y
_atom_site_fract_z
W1 W 0.11690(5) 0.95643(4) -0.41339(2)
W2 W 0.26150(5) 0.74723(4) -0.52286(2)
W3 W 0.04778(5) 0.82828(4) -0.32468(2)
W4 W -0.21739(5) 0.86579(4) -0.39033(2)
W5 W 0.27370(5) 0.76729(4) -0.38809(2)
W6 W -0.19943(5) 0.74813(4) -0.47423(3)
W7 W 0.19109(5) 0.61966(4) -0.43887(2)
W8 W -0.05509(5) 0.68251(4) -0.36385(2)
W9 W 0.04996(5) 0.69755(4) -0.55078(2)
Ho1 Ho 0.31391(7) 0.39330(5) -0.36745(3)
Sb1 Sb 0.00382(8) 0.84310(6) -0.47273(4)
Fe1 Fe 0.18066(16) 0.95410(13) -0.55142(7)
Fe2 Fe -0.17314(18) 0.86329(15) -0.59797(8)
O1 O -0.3341(9) 0.9242(8) -0.6222(4)
O2 O 0.1515(12) 0.4573(10) -0.3284(6)
O3 O 0.4746(14) 0.4189(12) -0.3908(7)
O4 O 0.3538(17) 0.4561(14) -0.3029(9)
O5 O 0.4392(12) 0.2993(10) -0.3080(6)
O6 O 0.184(1) 0.4002(8) -0.4311(4)
O7 O 0.4033(11) 0.3021(11) -0.4177(6)
O8 O 0.3477(8) 0.9137(7) -0.5382(4)
O9 O -0.0988(9) 0.8707(7) -0.3488(4)
O10 O 0.2979(7) 0.7726(6) -0.4598(3)
O11 O 0.2293(8) 0.6752(6) -0.3936(4)
O12 O 0.2615(8) 0.5228(7) -0.4120(4)
O13 O 0.1206(8) 0.6074(7) -0.4991(4)
O14 O -0.2885(7) 0.8242(7) -0.4352(4)
O15 O -0.1568(8) 0.6713(7) -0.4151(4)
O16 O -0.0540(8) 0.6060(7) -0.3182(4)
O17 O 0.0915(7) 0.8414(6) -0.4119(3)
O18 O -0.1946(8) 0.9408(6) -0.4385(4)
O19 O 0.0591(8) 0.6290(6) -0.4042(4)
O20 O 0.2602(8) 0.8713(6) -0.3908(3)
O21 O 0.1070(8) 0.7401(6) -0.4844(3)
O22 O 0.1772(8) 0.8477(6) -0.5440(4)
O23 O -0.2358(8) 0.7016(7) -0.6695(4)
O24 O 0.0811(8) 0.9180(7) -0.3388(4)
O25 O 0.2990(8) 0.6389(7) -0.4820(4)
O26 O -0.0818(8) 0.7856(6) -0.4308(4)
O27 O 0.4037(8) 0.7213(7) -0.3625(4)
O28 O 0.2015(8) 0.7662(6) -0.3260(3)
O29 O -0.0251(8) 0.8004(7) -0.5762(4)
O30 O -0.1781(8) 0.7597(7) -0.3463(4)
O31 O 0.1870(8) 0.7073(6) -0.5692(4)
O32 O -0.3282(8) 0.9135(7) -0.3595(4)
O33 O 0.0315(8) 0.7270(7) -0.3352(4)
O34 O 0.1541(8) 0.9560(6) -0.4783(3)
O35 O -0.2130(8) 0.8459(7) -0.5256(4)
O36 O -0.2138(9) 0.7688(7) -0.6103(4)
O37 O -0.3008(8) 0.7237(7) -0.4999(4)
O38 O 0.0386(8) 0.8184(7) -0.2596(4)
O39 O -0.0279(8) 1.0009(7) -0.4265(4)
O40 O -0.0793(8) 0.7004(7) -0.5101(4)
O41 O 0.1548(8) 1.0353(7) -0.3979(4)
O42 O 0.3783(8) 0.7376(6) -0.5541(4)
O43 O 0.0288(9) 0.6498(7) -0.5975(4)
O44 O 0.5081(9) 0.8772(8) -0.5722(5)
H1 H 0.53120 0.90480 -0.59380
N1 N -0.1399(10) 0.8598(8) -0.6764(5)
N2 N 0.2411(10) 0.9364(9) -0.6253(5)
C1 C -0.1030(16) 0.9077(13) -0.7086(7)
H2 H -0.08710 0.94770 -0.69680
C2 C -0.0871(16) 0.9004(14) -0.7596(8)
H3 H -0.05910 0.93450 -0.78080
C3 C -0.112(2) 0.8438(14) -0.7788(8)
H4 H -0.10120 0.83780 -0.81270
C4 C -0.1539(15) 0.7966(14) -0.7455(8)
H5 H -0.17550 0.75890 -0.75730
C5 C -0.1648(13) 0.8036(11) -0.6946(6)
C6 C -0.2078(12) 0.7564(9) -0.6555(6)
C7 C 0.1833(16) 0.9456(13) -0.6675(7)
H6 H 0.10800 0.96300 -0.66600
C8 C 0.2265(15) 0.9313(13) -0.7132(7)
H7 H 0.18230 0.94300 -0.74270
C9 C 0.3397(16) 0.8983(13) -0.7144(8)
H8 H 0.37230 0.88380 -0.74410
C10 C 0.4018(14) 0.8878(11) -0.6703(7)
H9 H 0.47720 0.86710 -0.66970
C11 C 0.3481(14) 0.9092(11) -0.6273(6)
C12 C 0.4093(14) 0.8992(10) -0.5764(7)
Na1 Na 0.5679(4) 0.6202(4) -0.3271(2)
O45 O 0.630(3) 0.718(2) -0.3474(13)
W10 W 0.35626(5) 0.05160(4) -0.07730(2)
W11 W 0.69761(6) 0.12897(4) -0.12669(2)
W12 W 0.49907(6) 0.29334(4) 0.04818(3)
W13 W 0.21183(6) 0.24359(5) -0.09676(3)
W14 W 0.27244(5) 0.25384(4) 0.03577(3)
W15 W 0.41321(6) 0.17581(4) -0.17337(2)
W16 W 0.71964(6) 0.24155(5) -0.04495(3)
W17 W 0.32895(6) 0.38133(4) -0.05458(3)
W18 W 0.54324(7) 0.31464(5) -0.14515(3)
Ho2 Ho 0.16772(7) 0.60628(5) -0.12052(3)
Sb2 Sb 0.50488(8) 0.15473(7) -0.03021(4)
Fe3 Fe 0.34211(17) 0.04667(13) 0.06391(8)
Fe4 Fe 0.72333(18) 0.12209(15) 0.08275(8)
O46 O 0.8857(9) 0.0602(8) 0.0958(5)
O47 O 0.1003(18) 0.5153(15) -0.1523(9)
O48 O 0.0772(10) 0.2938(8) -0.1127(5)
O49 O 0.5342(11) 0.3906(8) -0.1927(5)
O50 O 0.8299(9) 0.2638(8) -0.0285(5)
O51 O 0.7932(9) 0.0772(7) -0.1633(4)
O52 O 0.0355(9) 0.1232(8) 0.1174(5)
H10 H 0.00870 0.09370 0.10700
O53 O 0.0351(17) 0.7194(15) -0.1041(9)
O54 O 0.0780(16) 0.6632(14) -0.2018(8)
O55 O 0.0383(17) 0.5789(15) -0.0687(9)
O56 O 0.307(2) 0.5474(18) -0.1730(11)
O57 O 0.2523(11) 0.6241(9) -0.0494(5)
O58 O 0.4152(8) 0.2575(6) -0.0130(4)
O59 O 0.5636(9) 0.1279(7) -0.1599(4)
O60 O 0.7656(9) 0.2146(7) 0.0970(4)
O61 O 0.2110(8) 0.2370(6) -0.0239(4)
O62 O 0.2680(9) 0.3315(7) -0.0952(4)
O63 O 0.6633(10) 0.3203(7) -0.1017(4)
O64 O 0.6759(8) 0.0553(7) -0.0757(4)
O65 O 0.1765(8) 0.0891(7) 0.0673(4)
O66 O 0.5705(9) 0.1901(7) 0.0689(4)
O67 O 0.4427(9) 0.2751(6) -0.1669(4)
O68 O 0.4217(10) 0.3890(7) -0.0008(4)
O69 O 0.1667(9) 0.2660(8) 0.0758(4)
O70 O 0.2321(9) 0.3640(7) -0.0028(4)
O71 O 0.2654(9) 0.2417(7) -0.1634(4)
O72 O 0.5824(9) 0.2113(7) -0.0794(4)
O73 O 0.7432(8) 0.1418(7) 0.0076(4)
O74 O 0.3667(8) 0.2893(6) 0.0764(4)
O75 O 0.4468(10) 0.3695(8) -0.0981(4)
O76 O 0.6543(9) 0.2346(7) -0.1697(4)
O77 O 0.3403(8) 0.0511(7) -0.0104(4)
O78 O 0.3540(8) 0.1504(7) 0.0527(4)
O79 O 0.2610(11) 0.4791(8) -0.0756(5)
O80 O 0.5397(10) 0.3379(8) 0.0916(4)
O81 O 0.3035(8) -0.0234(7) -0.0874(4)
O82 O 0.7901(8) 0.1640(7) -0.0880(4)
O83 O 0.6187(9) 0.2877(7) -0.0009(4)
O84 O 0.2134(8) 0.1411(7) -0.0920(4)
O85 O 0.3931(8) 0.1608(7) -0.0836(4)
O86 O 0.4996(8) 0.0034(6) -0.0736(4)
O87 O 0.7714(9) 0.2890(7) 0.1543(4)
O88 O 0.4071(9) 0.1853(8) -0.2384(4)
O89 O 0.3706(8) 0.0890(7) -0.1534(4)
N3 N 0.7046(10) 0.1151(9) 0.1634(5)
N4 N 0.3189(10) 0.0628(8) 0.1421(5)
C13 C 0.6764(14) 0.0671(11) 0.1973(7)
H11 H 0.66120 0.02690 0.18540
C14 C 0.6663(15) 0.0674(11) 0.2466(7)
H12 H 0.64650 0.02870 0.26750
C15 C 0.6854(15) 0.1254(14) 0.2662(7)
H13 H 0.68350 0.12640 0.30100
C16 C 0.7085(14) 0.1847(13) 0.2305(7)
H14 H 0.71520 0.22820 0.24180
C17 C 0.7209(14) 0.1791(10) 0.1808(6)
C18 C 0.7539(12) 0.2329(10) 0.1409(6)
C19 C 0.3912(14) 0.0557(12) 0.1780(6)
H15 H 0.46440 0.03600 0.17140
C20 C 0.3649(18) 0.0752(15) 0.2230(7)
H16 H 0.41870 0.06530 0.24830
C21 C 0.260(2) 0.1097(15) 0.2322(8)
H17 H 0.24110 0.12740 0.26280
C22 C 0.1820(15) 0.1185(12) 0.1972(7)
H18 H 0.10880 0.14020 0.20350
C23 C 0.2134(16) 0.0948(13) 0.1522(7)
C24 C 0.1341(14) 0.1026(12) 0.1096(7)
O90 O 0.8901(10) 0.0077(9) -0.0104(5)
O91 O 1.3865(11) 1.0223(10) 0.5160(6)
O92 O 0.9868(13) 0.5132(11) 0.5508(6)
O93 O 1.0242(12) 0.0946(10) -0.1007(6)
O94 O 0.5490(12) 1.0776(10) 0.3665(6)
O95 O 1.2147(14) 0.5971(12) 0.7131(7)
O96 O 0.2598(17) 0.4118(14) -0.2083(9)
O97 O 0.4948(13) 0.8302(11) 0.5538(7)
O98 O 0.965(2) 0.4247(19) 0.6791(11)
O99 O -0.138(2) 0.684(2) -0.2253(12)
O100 O 1.264(3) 0.463(2) 0.4661(14)
O101 O 1.636(2) 0.2917(19) 0.7218(11)
O102 O 0.027(3) 0.649(2) 0.0189(13)
O103 O 0.402(2) 0.536(2) 0.0233(12)
O104? O 0.424(4) 0.616(3) -0.2574(18)
Ho1A Ho -0.31391(7) 0.60670(5) -0.63255(3)
Fe1A Fe -0.18066(16) 1.04590(13) -0.44858(7)
Fe2A Fe 0.17314(18) 1.13671(15) -0.40203(8)
O18A O 0.1946(8) 1.0592(6) -0.5615(4)
O23A O 0.2358(8) 0.2984(7) -0.3305(4)
O39A O 0.0279(8) 0.9991(7) -0.5735(4)
O41A O -0.1548(8) 0.9647(7) -0.6021(4)
W1A W -0.11690(5) 1.04357(4) -0.58661(2)
O17A O -0.0915(7) 1.1586(6) -0.5881(3)
O20A O -0.2602(8) 1.1287(6) -0.6092(3)
O24A O -0.0811(8) 1.0820(7) -0.6612(4)
O34A O -0.1541(8) 1.0440(6) -0.5217(3)
W2A W -0.26150(5) 1.25277(4) -0.47714(2)
O10A O -0.2979(7) 1.2274(6) -0.5402(3)
O21A O -0.1070(8) 1.2599(6) -0.5156(3)
O22A O -0.1772(8) 1.1523(6) -0.4560(4)
O25A O -0.2990(8) 1.3611(7) -0.5180(4)
O31A O -0.1870(8) 1.2927(6) -0.4308(4)
O42A O -0.3783(8) 1.2624(6) -0.4459(4)
W3A W -0.04778(5) 1.17172(4) -0.67532(2)
O9A O 0.0988(9) 1.1293(7) -0.6512(4)
O28A O -0.2015(8) 1.2338(6) -0.6740(3)
O33A O -0.0315(8) 1.2730(7) -0.6648(4)
O38A O -0.0386(8) 1.1816(7) -0.7404(4)
W4A W 0.21739(5) 1.13421(4) -0.60967(2)
O14A O 0.2885(7) 1.1758(7) -0.5648(4)
O26A O 0.0818(8) 1.2144(6) -0.5692(4)
O30A O 0.1781(8) 1.2403(7) -0.6537(4)
O32A O 0.3282(8) 1.0865(7) -0.6405(4)
W5A W -0.27370(5) 1.23271(4) -0.61191(2)
O11A O -0.2293(8) 1.3248(6) -0.6064(4)
O27A O -0.4037(8) 1.2787(7) -0.6375(4)
W6A W 0.19943(5) 1.25187(4) -0.52577(3)
O15A O 0.1568(8) 1.3287(7) -0.5849(4)
O35A O 0.2130(8) 1.1541(7) -0.4744(4)
O37A O 0.3008(8) 1.2763(7) -0.5001(4)
O40A O 0.0793(8) 1.2996(7) -0.4899(4)
W7A W -0.19109(5) 1.38034(4) -0.56113(2)
O12A O -0.2615(8) 1.4772(7) -0.5880(4)
O13A O -0.1206(8) 1.3926(7) -0.5009(4)
O19A O -0.0591(8) 1.3710(6) -0.5958(4)
W8A W 0.05509(5) 1.31749(4) -0.63615(2)
O16A O 0.0540(8) 1.3940(7) -0.6818(4)
W9A W -0.04996(5) 1.30245(4) -0.44922(2)
O29A O 0.0251(8) 1.1996(7) -0.4238(4)
O43A O -0.0288(9) 1.3502(7) -0.4025(4)
Ho1A* Ho -0.31391(7) 1.60670(5) -0.63255(3)
O2A O -0.1515(12) 1.5427(10) -0.6716(6)
O3A O -0.4746(14) 1.5811(12) -0.6092(7)
O4A O -0.3538(17) 1.5439(14) -0.6971(9)
O5A O -0.4392(12) 1.7007(10) -0.6920(6)
O6A O -0.184(1) 1.5998(8) -0.5689(4)
O7A O -0.4033(11) 1.6979(11) -0.5823(6)
O23* O -0.2358(8) 1.7016(7) -0.6695(4)
Sb1A Sb -0.00382(8) 1.15690(6) -0.52727(4)
O8A O -0.3477(8) 1.0863(7) -0.4618(4)
N2A N -0.2411(10) 1.0636(9) -0.3747(5)
O1A O 0.3341(9) 1.0758(8) -0.3778(4)
O36A O 0.2138(9) 1.2312(7) -0.3897(4)
N1A N 0.1399(10) 1.1402(8) -0.3236(5)
C12A C -0.4093(14) 1.1008(10) -0.4236(7)
O23A* O 0.2358(8) 1.2984(7) -0.3305(4)
C6A C 0.2078(12) 1.2436(9) -0.3445(6)
Ho1* Ho 0.31391(7) 1.39330(5) -0.36745(3)
O44A O -0.5081(9) 1.1228(8) -0.4278(5)
H1A H -0.53120 1.09520 -0.40620
C1A C 0.1030(16) 1.0923(13) -0.2914(7)
C5A C 0.1648(13) 1.1964(11) -0.3054(6)
C7A C -0.1833(16) 1.0544(13) -0.3325(7)
C11A C -0.3481(14) 1.0908(11) -0.3727(6)
H2A H 0.08710 1.05230 -0.30320
C2A C 0.0871(16) 1.0996(14) -0.2404(8)
H3A H 0.05910 1.06550 -0.21920
C3A C 0.112(2) 1.1562(14) -0.2212(8)
H4A H 0.10120 1.16220 -0.18730
C4A C 0.1539(15) 1.2034(14) -0.2545(8)
H5A H 0.17550 1.24110 -0.24270
H6A H -0.10800 1.03700 -0.33400
C8A C -0.2265(15) 1.0687(13) -0.2868(7)
H7A H -0.18230 1.05700 -0.25730
C9A C -0.3397(16) 1.1017(13) -0.2856(8)
H8A H -0.37230 1.11620 -0.25590
C10A C -0.4018(14) 1.1122(11) -0.3297(7)
H9A H -0.47720 1.13290 -0.33030
Ho2A Ho 0.83228(7) 0.39372(5) 0.12052(3)
Fe3A Fe 0.65789(17) -0.04667(13) -0.06391(8)
Fe4A Fe 0.27667(18) -0.12209(15) -0.08275(8)
O64A O 0.3241(8) -0.0553(7) 0.0757(4)
O81A O 0.6965(8) 0.0234(7) 0.0874(4)
O86A O 0.5004(8) -0.0034(6) 0.0736(4)
O87A O 0.2286(9) 0.7110(7) -0.1543(4)
W10A W 0.64374(5) -0.05160(4) 0.07730(2)
O77A O 0.6597(8) -0.0511(7) 0.0104(4)
O84A O 0.7866(8) -0.1411(7) 0.0920(4)
O85A O 0.6069(8) -0.1608(7) 0.0836(4)
O89A O 0.6294(8) -0.0890(7) 0.1534(4)
W11A W 0.30239(6) -0.12897(4) 0.12669(2)
O51A O 0.2068(9) -0.0772(7) 0.1633(4)
O59A O 0.4364(9) -0.1279(7) 0.1599(4)
O72A O 0.4176(9) -0.2113(7) 0.0794(4)
O76A O 0.3457(9) -0.2346(7) 0.1697(4)
O82A O 0.2099(8) -0.1640(7) 0.0880(4)
W12A W 0.50093(6) -0.29334(4) -0.04818(3)
O58A O 0.5848(8) -0.2575(6) 0.0130(4)
O66A O 0.4295(9) -0.1901(7) -0.0689(4)
O68A O 0.5783(10) -0.3890(7) 0.0008(4)
O74A O 0.6333(8) -0.2893(6) -0.0764(4)
O80A O 0.4603(10) -0.3379(8) -0.0916(4)
O83A O 0.3813(9) -0.2877(7) 0.0009(4)
W13A W 0.78817(6) -0.24359(5) 0.09676(3)
O48A O 0.9228(10) -0.2938(8) 0.1127(5)
O61A O 0.7890(8) -0.2370(6) 0.0239(4)
O62A O 0.7320(9) -0.3315(7) 0.0952(4)
O71A O 0.7346(9) -0.2417(7) 0.1634(4)
W14A W 0.72756(5) -0.25384(4) -0.03577(3)
O69A O 0.8333(9) -0.2660(8) -0.0758(4)
O70A O 0.7679(9) -0.3640(7) 0.0028(4)
O78A O 0.6460(8) -0.1504(7) -0.0527(4)
W15A W 0.58679(6) -0.17581(4) 0.17337(2)
O67A O 0.5573(9) -0.2751(6) 0.1669(4)
O88A O 0.5929(9) -0.1853(8) 0.2384(4)
W16A W 0.28036(6) -0.24155(5) 0.04495(3)
O50A O 0.1701(9) -0.2638(8) 0.0285(5)
O63A O 0.3367(10) -0.3203(7) 0.1017(4)
O73A O 0.2568(8) -0.1418(7) -0.0076(4)
W17A W 0.67105(6) -0.38133(4) 0.05458(3)
O75A O 0.5532(10) -0.3695(8) 0.0981(4)
O79A O 0.7390(11) -0.4791(8) 0.0756(5)
W18A W 0.45676(7) -0.31464(5) 0.14515(3)
O49A O 0.4658(11) -0.3906(8) 0.1927(5)
Ho2A* Ho 0.83228(7) -0.60628(5) 0.12052(3)
O47A O 0.8997(18) -0.5153(15) 0.1523(9)
O53A O 0.9649(17) -0.7194(15) 0.1041(9)
O54A O 0.9220(16) -0.6632(14) 0.2018(8)
O55A O 0.9617(17) -0.5789(15) 0.0687(9)
O56A O 0.693(2) -0.5474(18) 0.1730(11)
O57A O 0.7477(11) -0.6241(9) 0.0494(5)
O87* O 0.7714(9) -0.7110(7) 0.1543(4)
Sb2A Sb 0.49512(8) -0.15473(7) 0.03021(4)
O65A O 0.8235(8) -0.0891(7) -0.0673(4)
N4A N 0.6811(10) -0.0628(8) -0.1421(5)
O46A O 0.1143(9) -0.0602(8) -0.0958(5)
O60A O 0.2344(9) -0.2146(7) -0.0970(4)
N3A N 0.2954(10) -0.1151(9) -0.1634(5)
O52A O 0.9645(9) -0.1232(8) -0.1174(5)
H10A H 0.99130 -0.09370 -0.10700
C24A C 0.8659(14) -0.1026(12) -0.1096(7)
C18A C 0.2461(12) -0.2329(10) -0.1409(6)
O87A* O 0.2286(9) -0.2890(7) -0.1543(4)
Ho2* Ho 0.16772(7) -0.39372(5) -0.12052(3)
C13A C 0.3236(14) -0.0671(11) -0.1973(7)
C17A C 0.2791(14) -0.1791(10) -0.1808(6)
C19A C 0.6088(14) -0.0557(12) -0.1780(6)
C23A C 0.7866(16) -0.0948(13) -0.1522(7)
H11A H 0.33880 -0.02690 -0.18540
C14A C 0.3337(15) -0.0674(11) -0.2466(7)
H12A H 0.35350 -0.02870 -0.26750
C15A C 0.3146(15) -0.1254(14) -0.2662(7)
H13A H 0.31650 -0.12640 -0.30100
C16A C 0.2915(14) -0.1847(13) -0.2305(7)
H14A H 0.28480 -0.22820 -0.24180
H15A H 0.53560 -0.03600 -0.17140
C20A C 0.6351(18) -0.0752(15) -0.2230(7)
H16A H 0.58130 -0.06530 -0.24830
C21A C 0.740(2) -0.1097(15) -0.2322(8)
H17A H 0.75890 -0.12740 -0.26280
C22A C 0.8180(15) -0.1185(12) -0.1972(7)
H18A H 0.89120 -0.14020 -0.20350
#END
