
#######################################################################
#
#                 Cambridge Crystallographic Data Centre
#                                CCDC
#
#######################################################################
#
# If this CIF has been generated from an entry in the Cambridge
# Structural Database, then it will include bibliographic, chemical,
# crystal, experimental, refinement or atomic coordinate data resulting
# from the CCDC's data processing and validation procedures.
#
#######################################################################

data_CSD_CIF_JITVAM
_audit_creation_date 2018-12-12
_audit_creation_method CSD-ConQuest-V1
_database_code_CSD JITVAM
_database_code_depnum_ccdc_archive 'CCDC 1831937'
_chemical_formula_sum 'C68 H98 Cu6 N20 O24'
_chemical_formula_moiety
;
(C48 H46 Cu6 N14 O16 2-)n,2(C4 H10 N1 O1 1+),4(C3 H7 N1 O1),2(H2 O1)
;
_journal_coden_Cambridge 9
_journal_volume 58
_journal_year 2019
_journal_page_first 199
_journal_name_full 'Inorg.Chem. '
loop_
_publ_author_name
"Nian Zhao"
"Lun Yang"
"Qiyun Pan"
"Juanjuan Han"
"Xiang Li"
"Meifeng Liu"
"Yu Wang"
"Xiuzhang Wang"
"Qinhe Pan"
"Guangshan Zhu"
_chemical_name_systematic
;
catena-[bis([1-(dimethylamino)ethylidene]oxidanium) 
bis(\m-hydroxo)-hexakis(pyrazolato)-tris(benzene-1,4-dicarboxylato)-bis(N,N-di
methylformamide)-hexa-copper(ii) N,N-dimethylformamide solvate]
;
_chemical_name_common
;
HBNU-1
;
_cell_volume   2181.392
_exptl_crystal_colour 'blue'
_exptl_crystal_density_diffrn 1.493
_exptl_crystal_description 'Block'
_diffrn_ambient_temperature 296
_refine_special_details
;
C25A,C26A,C27A,C28A,N8A and C25B,C26B,C27B,C28B,N8B disordered over two sites 
with occupancies 0.850:0.150; C29A,C30A,C31A and C29B,C30B,C31B disordered 
over two sites with occupancies 0.855:0.145; C32A,C33A,C34A and 
C32B,C33B,C34B disordered over two sites with occupancies 0.654:0.346.
;
#These two values have been output from a single CSD field.
_refine_ls_R_factor_gt 0.0339
_refine_ls_wR_factor_gt 0.0339
_symmetry_cell_setting triclinic
_symmetry_space_group_name_H-M 'P -1'
_symmetry_Int_Tables_number 2
loop_
_symmetry_equiv_pos_site_id
_symmetry_equiv_pos_as_xyz
1 x,y,z
2 -x,-y,-z
_cell_length_a 10.6498(4)
_cell_length_b 12.5501(4)
_cell_length_c 16.9471(5)
_cell_angle_alpha 99.125(1)
_cell_angle_beta 97.698(1)
_cell_angle_gamma 98.722(1)
_cell_formula_units_Z 1
loop_
_atom_type_symbol
_atom_type_radius_bond
C 0.68
H 0.23
Cu 1.32
N 0.68
O 0.68
loop_
_atom_site_label
_atom_site_type_symbol
_atom_site_fract_x
_atom_site_fract_y
_atom_site_fract_z
C1 C 0.5047(4) 0.0189(3) 0.8961(2)
H1 H 0.44470 -0.03550 0.90830
C2 C 0.6335(4) 0.0422(3) 0.9284(2)
H2 H 0.67680 0.00770 0.96560
C3 C 0.6844(3) 0.1275(3) 0.8939(2)
H3 H 0.77020 0.16180 0.90420
C4 C 0.6947(3) 0.4260(3) 0.6749(2)
H4 H 0.77950 0.44030 0.70130
C5 C 0.6475(3) 0.4779(3) 0.6149(2)
H5 H 0.69210 0.53270 0.59300
C6 C 0.5196(3) 0.4308(3) 0.5944(2)
H6 H 0.46120 0.44910 0.55510
C7 C 0.0642(4) 0.1337(4) 0.5908(3)
H7 H 0.04490 0.16430 0.54510
C8 C -0.0200(4) 0.0601(4) 0.6186(3)
H8 H -0.10540 0.03140 0.59640
C9 C 0.0493(3) 0.0384(3) 0.6861(3)
H9 H 0.01780 -0.00920 0.71850
C10 C 0.1586(3) 0.0941(3) 0.89235(18)
C11 C 0.0758(3) 0.0450(2) 0.94785(17)
C12 C 0.0225(3) 0.1111(2) 1.00211(19)
H10 H 0.03730 0.18660 1.00420
C13 C 0.0525(3) -0.0673(2) 0.94658(19)
H11 H 0.08800 -0.11350 0.91070
C14 C 0.7597(3) 0.4057(2) 0.89273(17)
C15 C 0.8846(3) 0.4544(2) 0.94775(16)
C16 C 0.9929(3) 0.4060(2) 0.94290(17)
H12 H 0.98870 0.34300 0.90480
C17 C 1.1072(3) 0.4514(2) 0.99478(18)
H13 H 1.17930 0.41840 0.99110
C18 C 0.2923(4) -0.1135(3) 0.6248(2)
H14 H 0.25330 -0.06290 0.60030
C19 C 0.2477(5) -0.2294(4) 0.4926(3)
H15 H 0.20580 -0.17070 0.47900
H16 H 0.18680 -0.29690 0.47980
H17 H 0.31680 -0.23580 0.46200
C20 C 0.3594(5) -0.2886(3) 0.6112(3)
H18 H 0.29520 -0.35060 0.61250
H19 H 0.40350 -0.25840 0.66510
H20 H 0.42010 -0.31150 0.57780
C21 C 0.1729(3) 0.4051(3) 0.6048(2)
C22 C 0.0830(3) 0.4536(2) 0.54977(18)
C23 C 0.0201(3) 0.5346(3) 0.58237(19)
H21 H 0.03310 0.55810 0.63820
C24 C 0.0617(3) 0.4189(3) 0.46690(19)
H22 H 0.10260 0.36400 0.44410
Cu1 Cu 0.59753(3) 0.25984(3) 0.77175(2)
Cu2 Cu 0.33103(3) 0.26032(3) 0.64186(2)
Cu3 Cu 0.31930(3) 0.08906(3) 0.77502(2)
N1 N 0.4789(2) 0.08567(19) 0.84472(14)
N2 N 0.5906(2) 0.1537(2) 0.84305(14)
N3 N 0.6015(2) 0.35198(19) 0.68996(14)
N4 N 0.4917(2) 0.35492(19) 0.63939(14)
N5 N 0.1774(2) 0.1546(2) 0.63886(16)
N6 N 0.1682(2) 0.0950(2) 0.69862(16)
N7 N 0.2988(3) -0.2068(2) 0.57830(18)
O1 O 0.42813(18) 0.17794(16) 0.71165(12)
H23 H 0.451(3) 0.129(2) 0.6805(16)
O2 O 0.2132(2) 0.02802(17) 0.84981(13)
O3 O 0.1699(2) 0.19382(18) 0.89276(14)
O4 O 0.76615(19) 0.33602(17) 0.83047(12)
O5 O 0.6581(2) 0.43304(19) 0.90958(13)
O6 O 0.2346(2) 0.33781(19) 0.56970(15)
O7 O 0.1821(3) 0.4324(2) 0.67836(15)
O8 O 0.3336(3) -0.0882(2) 0.69745(16)
C25 C 0.5055(4) 0.3681(3) 0.0726(2)
C26 C 0.3551(6) 0.2725(5) 0.1446(4)
H24 H 0.29910 0.25290 0.09320
H25 H 0.30780 0.29860 0.18580
H26 H 0.38840 0.20930 0.15740
C27 C 0.5090(9) 0.4398(7) 0.2139(3)
H27 H 0.59970 0.44240 0.22940
H28 H 0.46460 0.42000 0.25660
H29 H 0.49390 0.51050 0.20440
C28 C 0.4584(7) 0.2827(5) -0.0016(3)
H30 H 0.36790 0.27970 -0.01800
H31 H 0.47330 0.21270 0.00970
H32 H 0.50380 0.30070 -0.04440
N8 N 0.4618(3) 0.3587(3) 0.1404(2)
O9 O 0.5981(3) 0.4507(2) 0.07067(17)
H33 H 0.64880 0.51580 0.11800
C29? C 0.5233(11) 0.4046(11) 0.1144(10)
C30? C 0.3527(14) 0.2512(15) 0.1128(17)
H34? H 0.32460 0.17900 0.08090
H35? H 0.27990 0.28720 0.11710
H36? H 0.39250 0.24570 0.16600
C31? C 0.447(3) 0.275(2) -0.0106(11)
H37? H 0.42820 0.33080 -0.04060
H38? H 0.38400 0.20940 -0.03070
H39? H 0.53100 0.25950 -0.01670
C32? C 0.528(5) 0.442(4) 0.2015(12)
H40? H 0.44370 0.45150 0.21200
H41? H 0.58610 0.51110 0.21860
H42? H 0.55780 0.38910 0.23090
N9? N 0.4428(14) 0.3125(13) 0.0754(10)
H43? H 0.63190 0.45330 0.01650
C33 C 0.7726(5) 0.2666(5) 0.1770(4)
H44 H 0.74200 0.20220 0.19760
H45 H 0.75320 0.25150 0.11890
H46 H 0.73110 0.32540 0.19780
C34 C 0.9769(7) 0.3887(5) 0.1765(4)
H47 H 1.06820 0.39520 0.19210
H48 H 0.94960 0.45400 0.20060
H49 H 0.95660 0.37910 0.11860
C35 C 0.9698(6) 0.2390(5) 0.2489(4)
H50 H 0.92140 0.18070 0.26530
N10 N 0.9137(4) 0.2985(3) 0.2027(2)
O10 O 1.0888(5) 0.2615(5) 0.2706(3)
C36? C 0.866(2) 0.360(3) 0.1481(19)
H51? H 0.79070 0.31690 0.11320
H52? H 0.93020 0.38080 0.11620
H53? H 0.84310 0.42450 0.17720
C37? C 0.852(2) 0.241(3) 0.2516(18)
H54? H 0.78780 0.27960 0.27140
H55? H 0.91290 0.23320 0.29660
H56? H 0.81160 0.17000 0.22170
C38? C 1.0556(15) 0.316(3) 0.2190(18)
H57? H 1.11080 0.36030 0.19460
C39 C 0.7050(7) 0.8159(5) 0.5908(5)
H58 H 0.75080 0.78810 0.63350
H59 H 0.63430 0.76060 0.56210
H60 H 0.76220 0.83550 0.55410
C40 C 0.6902(7) 0.9477(6) 0.7129(3)
H61 H 0.73860 0.89810 0.73570
H62 H 0.74090 1.02000 0.72470
H63 H 0.61270 0.94860 0.73600
C41 C 0.5905(6) 0.9669(5) 0.5807(4)
H64 H 0.57390 0.94420 0.52470
N11 N 0.6570(3) 0.9112(3) 0.6247(2)
O11 O 0.5485(4) 1.0493(3) 0.6110(2)
C42? C 0.7222(15) 0.8428(11) 0.6685(8)
H65? H 0.75090 0.78920 0.63140
H66? H 0.79510 0.88660 0.70500
H67? H 0.66470 0.80640 0.69880
C43? C 0.6376(12) 0.877(1) 0.5328(6)
H68? H 0.68070 0.81650 0.51900
H69? H 0.54730 0.85550 0.51210
H70? H 0.67260 0.93760 0.50950
C44? C 0.6057(13) 0.9921(9) 0.6553(7)
H71? H 0.61060 1.00910 0.71120
O12 O 0.7170(3) 0.64730(19) 0.18734(15)
H72 H 0.77450 0.63410 0.20980
H73 H 0.75790 0.69310 0.17490
C10A C -0.1586(3) -0.0941(3) 1.10765(18)
C11A C -0.0758(3) -0.0450(2) 1.05215(17)
C12A C -0.0225(3) -0.1111(2) 0.99789(19)
H10A H -0.03730 -0.18660 0.99580
C13A C -0.0525(3) 0.0673(2) 1.05342(19)
H11A H -0.08800 0.11350 1.08930
O2A O -0.2132(2) -0.02802(17) 1.15019(13)
O3A O -0.1699(2) -0.19382(18) 1.10724(14)
C14A C 1.2403(3) 0.5943(2) 1.10727(17)
C15A C 1.1154(3) 0.5456(2) 1.05225(16)
C16A C 1.0071(3) 0.5940(2) 1.05710(17)
H12A H 1.01130 0.65700 1.09520
C17A C 0.8928(3) 0.5486(2) 1.00522(18)
H13A H 0.82070 0.58160 1.00890
O4A O 1.23385(19) 0.66398(17) 1.16953(12)
O5A O 1.3419(2) 0.56696(19) 1.09042(13)
C21A C -0.1729(3) 0.5949(3) 0.3952(2)
C22A C -0.0830(3) 0.5464(2) 0.45023(18)
C23A C -0.0201(3) 0.4654(3) 0.41763(19)
H21A H -0.03310 0.44190 0.36180
C24A C -0.0617(3) 0.5811(3) 0.53310(19)
H22A H -0.10260 0.63600 0.55590
O6A O -0.2346(2) 0.66219(19) 0.43030(15)
O7A O -0.1821(3) 0.5676(2) 0.32164(15)
C1A C -0.5047(4) -0.0189(3) 1.1039(2)
H1A H -0.44470 0.03550 1.09170
C2A C -0.6335(4) -0.0422(3) 1.0716(2)
H2A H -0.67680 -0.00770 1.03440
C3A C -0.6844(3) -0.1275(3) 1.1061(2)
H3A H -0.77020 -0.16180 1.09580
C4A C -0.6947(3) -0.4260(3) 1.3251(2)
H4A H -0.77950 -0.44030 1.29870
C5A C -0.6475(3) -0.4779(3) 1.3851(2)
H5A H -0.69210 -0.53270 1.40700
C6A C -0.5196(3) -0.4308(3) 1.4056(2)
H6A H -0.46120 -0.44910 1.44490
C7A C -0.0642(4) -0.1337(4) 1.4092(3)
H7A H -0.04490 -0.16430 1.45490
C8A C 0.0200(4) -0.0601(4) 1.3814(3)
H8A H 0.10540 -0.03140 1.40360
C9A C -0.0493(3) -0.0384(3) 1.3139(3)
H9A H -0.01780 0.00920 1.28150
C18A C -0.2923(4) 0.1135(3) 1.3752(2)
H14A H -0.25330 0.06290 1.39970
C19A C -0.2477(5) 0.2294(4) 1.5074(3)
H15A H -0.20580 0.17070 1.52100
H16A H -0.18680 0.29690 1.52020
H17A H -0.31680 0.23580 1.53800
C20A C -0.3594(5) 0.2886(3) 1.3888(3)
H18A H -0.29520 0.35060 1.38750
H19A H -0.40350 0.25840 1.33490
H20A H -0.42010 0.31150 1.42220
Cu1A Cu -0.59753(3) -0.25984(3) 1.22825(2)
Cu2A Cu -0.33103(3) -0.26032(3) 1.35814(2)
Cu3A Cu -0.31930(3) -0.08906(3) 1.22498(2)
N1A N -0.4789(2) -0.08567(19) 1.15528(14)
N2A N -0.5906(2) -0.1537(2) 1.15695(14)
N3A N -0.6015(2) -0.35198(19) 1.31004(14)
N4A N -0.4917(2) -0.35492(19) 1.36061(14)
N5A N -0.1774(2) -0.1546(2) 1.36114(16)
N6A N -0.1682(2) -0.0950(2) 1.30138(16)
N7A N -0.2988(3) 0.2068(2) 1.42170(18)
O1A O -0.42813(18) -0.17794(16) 1.28835(12)
H23A H -0.451(3) -0.129(2) 1.3195(16)
O8A O -0.3336(3) 0.0882(2) 1.30255(16)
Cu1A* Cu 1.40247(3) 0.74016(3) 1.22825(2)
Cu2A* Cu -0.33103(3) 0.73968(3) 0.35814(2)
O4A* O -0.76615(19) -0.33602(17) 1.16953(12)
O6A* O -0.2346(2) -0.33781(19) 1.43030(15)
#END
