
#######################################################################
#
#                 Cambridge Crystallographic Data Centre
#                                CCDC
#
#######################################################################
#
# If this CIF has been generated from an entry in the Cambridge
# Structural Database, then it will include bibliographic, chemical,
# crystal, experimental, refinement or atomic coordinate data resulting
# from the CCDC's data processing and validation procedures.
#
#######################################################################

data_CSD_CIF_JIVBAU
_audit_creation_date 2018-12-12
_audit_creation_method CSD-ConQuest-V1
_database_code_CSD JIVBAU
_database_code_depnum_ccdc_archive 'CCDC 1874637'
_chemical_formula_sum 'C28 H52 N4 Ni1 O10 U1'
_chemical_formula_moiety
;
C16 H36 N4 Ni1 2+,n(C12 H16 O10 U1 2-)
;
_journal_coden_Cambridge 9
_journal_volume 58
_journal_year 2019
_journal_page_first 870
_journal_name_full 'Inorg.Chem. '
loop_
_publ_author_name
"P.Thuery"
"Y.Atoini"
"J.Harrowfield"
_chemical_name_systematic
;
catena-[(5,5,7,12,12,14-hexamethyl-1,4,8,11-tetraazacyclotetradecane)-nickel 
(\m-1,2,2-trimethylcyclopentane-1,3-dicarboxylato)-bis(formato)-dioxo-uranium]

;
_cell_volume   3302.894
_exptl_crystal_colour 'orange'
_exptl_crystal_density_diffrn 1.813
_exptl_special_details
;
Absolute configuration

;
_exptl_crystal_description 'platelet'
_diffrn_ambient_temperature 100
#These two values have been output from a single CSD field.
_refine_ls_R_factor_gt 0.0258
_refine_ls_wR_factor_gt 0.0258
_symmetry_cell_setting orthorhombic
_symmetry_space_group_name_H-M 'P 21 21 21'
_symmetry_Int_Tables_number 19
loop_
_symmetry_equiv_pos_site_id
_symmetry_equiv_pos_as_xyz
1 x,y,z
2 1/2-x,-y,1/2+z
3 -x,1/2+y,1/2-z
4 1/2+x,1/2-y,-z
_cell_length_a 9.1167(3)
_cell_length_b 18.4978(7)
_cell_length_c 19.5856(5)
_cell_angle_alpha 90
_cell_angle_beta 90
_cell_angle_gamma 90
_cell_formula_units_Z 4
loop_
_atom_type_symbol
_atom_type_radius_bond
C 0.68
H 0.23
N 0.68
Ni 1.24
O 0.68
U 1.96
loop_
_atom_site_label
_atom_site_type_symbol
_atom_site_fract_x
_atom_site_fract_y
_atom_site_fract_z
U1 U 0.71119(2) 0.50320(2) 0.33835(2)
O1 O 0.8750(4) 0.4993(3) 0.3874(2)
O2 O 0.5459(5) 0.5065(3) 0.2900(2)
O3 O 0.6041(6) 0.5688(3) 0.4370(3)
O4 O 0.5540(6) 0.4551(3) 0.4341(3)
O5 O 0.6805(7) 0.5633(3) 0.7406(3)
O6 O 0.6282(7) 0.4486(3) 0.7443(3)
O7 O 0.6950(6) 0.3735(2) 0.3454(3)
O8 O 0.7926(7) 0.2670(2) 0.3752(3)
O9 O 0.7057(6) 0.6328(2) 0.3284(2)
O10 O 0.7768(7) 0.7384(3) 0.3736(3)
C1 C 0.4688(8) 0.5198(4) 0.5337(3)
C2 C 0.5657(8) 0.4814(4) 0.5902(3)
C3 C 0.5120(8) 0.5199(4) 0.6557(3)
H1 H 0.41190 0.50160 0.66760
C4 C 0.5005(11) 0.6008(5) 0.6346(4)
H2 H 0.42600 0.62620 0.66250
H3 H 0.59610 0.62550 0.64040
C5 C 0.4555(10) 0.5994(4) 0.5596(4)
H4 H 0.52020 0.63150 0.53260
H5 H 0.35320 0.61660 0.55460
C6 C 0.5466(7) 0.5144(4) 0.4643(3)
C7 C 0.6123(8) 0.5101(5) 0.7170(3)
C8 C 0.3159(8) 0.4872(5) 0.5279(4)
H6 H 0.25660 0.51640 0.49660
H7 H 0.26950 0.48650 0.57300
H8 H 0.32330 0.43770 0.51040
C9 C 0.7301(6) 0.4990(5) 0.5781(3)
H9 H 0.78840 0.48060 0.61630
H10 H 0.74280 0.55150 0.57460
H11 H 0.76280 0.47610 0.53560
C10 C 0.5433(10) 0.4010(4) 0.5941(5)
H12 H 0.61750 0.37970 0.62420
H13 H 0.55250 0.38000 0.54830
H14 H 0.44530 0.39070 0.61220
C11 C 0.7987(11) 0.3323(4) 0.3640(4)
H15 H 0.89180 0.35440 0.37010
C12 C 0.7903(11) 0.6727(4) 0.3638(4)
H16 H 0.87190 0.64970 0.38470
Ni1 Ni 0.51107(12) 0.24688(5) 0.25300(6)
N1 N 0.4993(7) 0.2933(3) 0.1636(4)
H17 H 0.40160 0.27520 0.15230
N2 N 0.4109(7) 0.3307(3) 0.2897(3)
H18 H 0.46780 0.36340 0.30610
N3 N 0.5252(7) 0.2023(3) 0.3431(3)
H19 H 0.61570 0.22270 0.34920
N4 N 0.6159(7) 0.1628(3) 0.2191(3)
H20 H 0.53690 0.14020 0.19850
C13 C 0.4793(9) 0.3706(4) 0.1768(4)
H21 H 0.44930 0.39570 0.13450
H22 H 0.57220 0.39220 0.19320
C14 C 0.3635(9) 0.3779(4) 0.2298(4)
H23 H 0.26770 0.36140 0.21180
H24 H 0.35400 0.42890 0.24440
C15 C 0.2891(10) 0.3203(4) 0.3399(5)
C16 C 0.3621(10) 0.2892(4) 0.4040(4)
H25 H 0.44680 0.32030 0.41570
H26 H 0.29110 0.29260 0.44210
C17 C 0.4154(9) 0.2122(4) 0.4001(4)
H27 H 0.32940 0.17990 0.39140
C18 C 0.2214(10) 0.3929(4) 0.3605(4)
H28 H 0.15050 0.38530 0.39740
H29 H 0.17140 0.41430 0.32110
H30 H 0.29890 0.42560 0.37620
C19 C 0.1710(9) 0.2694(4) 0.3109(4)
H31 H 0.21680 0.22410 0.29620
H32 H 0.12300 0.29260 0.27190
H33 H 0.09790 0.25920 0.34630
C20 C 0.4843(13) 0.1911(6) 0.4680(4)
H34 H 0.50740 0.13940 0.46760
H35 H 0.41530 0.20140 0.50510
H36 H 0.57450 0.21890 0.47490
C21 C 0.5526(10) 0.1239(4) 0.3317(4)
H37 H 0.46140 0.09940 0.31690
H38 H 0.58770 0.10070 0.37420
C22 C 0.6685(10) 0.1191(4) 0.2765(4)
H39 H 0.76330 0.13800 0.29350
H40 H 0.68250 0.06820 0.26220
C23 C 0.7303(9) 0.1725(4) 0.1629(5)
C24 C 0.6518(10) 0.2038(4) 0.1011(4)
H41 H 0.71750 0.19930 0.06100
H42 H 0.56390 0.17390 0.09190
C25 C 0.6040(11) 0.2819(5) 0.1066(4)
H43 H 0.69290 0.31220 0.11520
C26 C 0.8516(10) 0.2219(4) 0.1896(5)
H44 H 0.80760 0.26410 0.21190
H45 H 0.91300 0.23790 0.15140
H46 H 0.91200 0.19540 0.22260
C27 C 0.7961(12) 0.0987(4) 0.1438(5)
H47 H 0.85570 0.08080 0.18190
H48 H 0.85780 0.10400 0.10310
H49 H 0.71680 0.06440 0.13440
C28 C 0.5360(13) 0.3052(5) 0.0373(4)
H50 H 0.60210 0.29140 0.00000
H51 H 0.52210 0.35780 0.03690
H52 H 0.44110 0.28130 0.03110
U1A U 0.78881(2) 0.49680(2) 0.83835(2)
O5A O 0.8195(7) 0.4367(3) 0.2406(3)
O6A O 0.8718(7) 0.5514(3) 0.2443(3)
#END
