
#######################################################################
#
#                 Cambridge Crystallographic Data Centre
#                                CCDC
#
#######################################################################
#
# If this CIF has been generated from an entry in the Cambridge
# Structural Database, then it will include bibliographic, chemical,
# crystal, experimental, refinement or atomic coordinate data resulting
# from the CCDC's data processing and validation procedures.
#
#######################################################################

data_CSD_CIF_JIVBEY
_audit_creation_date 2018-12-12
_audit_creation_method CSD-ConQuest-V1
_database_code_CSD JIVBEY
_database_code_depnum_ccdc_archive 'CCDC 1874638'
_chemical_formula_sum 'C24 H49 Co1 N6 O28 U4'
_chemical_formula_moiety
;
(C18 H19 O25 U4 2-)n,C6 H24 Co1 N6 2+,3(H2 O1)
;
_journal_coden_Cambridge 9
_journal_volume 58
_journal_year 2019
_journal_page_first 870
_journal_name_full 'Inorg.Chem. '
loop_
_publ_author_name
"P.Thuery"
"Y.Atoini"
"J.Harrowfield"
_chemical_name_systematic
;
catena-[tris(ethane-1,2-diamine)-cobalt 
bis(\m-(R,R)-tartrato)-(\m-1,2,2-trimethylcyclopentane-1,3-dicarboxylato)-hydr
oxy-octaoxo-tetra-uranium unknown solvate trihydrate]
;
_cell_volume   5159.467
_exptl_crystal_colour 'orange'
_exptl_crystal_density_diffrn 2.421
_exptl_crystal_description 'platelet'
_diffrn_ambient_temperature 100
_refine_special_details
;
Disordered solvent molecules were not modelled and the disordered density was 
taken into account using the SQUEEZE/PLATON procedure.
;
#These two values have been output from a single CSD field.
_refine_ls_R_factor_gt 0.0473
_refine_ls_wR_factor_gt 0.0473
_symmetry_cell_setting orthorhombic
_symmetry_space_group_name_H-M 'P 21 21 2'
_symmetry_Int_Tables_number 18
loop_
_symmetry_equiv_pos_site_id
_symmetry_equiv_pos_as_xyz
1 x,y,z
2 -x,-y,z
3 1/2-x,1/2+y,-z
4 1/2+x,1/2-y,-z
_cell_length_a 17.3555(8)
_cell_length_b 21.4656(13)
_cell_length_c 13.8492(6)
_cell_angle_alpha 90
_cell_angle_beta 90
_cell_angle_gamma 90
_cell_formula_units_Z 4
loop_
_atom_type_symbol
_atom_type_radius_bond
C 0.68
H 0.23
Co 1.26
N 0.68
O 0.68
U 1.96
loop_
_atom_site_label
_atom_site_type_symbol
_atom_site_fract_x
_atom_site_fract_y
_atom_site_fract_z
U1 U 0.89985(4) 0.25582(4) 0.07601(5)
U2 U 0.88268(4) 0.29218(4) 0.35020(5)
U3 U 1.07863(4) 0.14237(4) -0.02508(5)
U4 U 0.66470(4) 0.32726(5) 0.47297(6)
O1 O 0.9602(8) 0.3108(8) 0.0173(10)
O2 O 0.8360(8) 0.1998(7) 0.1291(9)
O3 O 0.9084(10) 0.3713(8) 0.3725(11)
O4 O 0.8525(9) 0.2129(8) 0.3347(10)
O5 O 1.1203(8) 0.2170(7) -0.0398(10)
O6 O 1.0358(9) 0.0677(8) -0.0180(11)
O7 O 0.7303(7) 0.3771(8) 0.5315(11)
O8 O 0.6045(9) 0.2761(8) 0.4109(11)
O9 O 0.963(1) 0.1856(9) -0.0873(13)
O10 O 0.8419(14) 0.2083(9) -0.0658(12)
O11 O 0.8540(7) 0.2798(7) -0.4860(9)
O12 O 0.7356(8) 0.2386(8) -0.4794(10)
O13 O 1.1287(7) 0.1201(7) 0.1302(9)
O14 O 1.0941(9) 0.0894(7) 0.2782(10)
O15 O 1.0051(8) 0.2570(8) 0.4052(10)
O16 O 1.1167(9) 0.2082(8) 0.3756(9)
O17 O 0.9979(8) 0.1787(8) 0.1039(9)
O18 O 0.9727(8) 0.2734(8) 0.2219(9)
O19 O 0.7966(8) 0.3231(7) 0.0192(9)
O20 O 0.7075(7) 0.3943(7) 0.0466(9)
O21 O 0.6343(9) 0.3965(9) 0.341(1)
O22 O 0.5995(10) 0.3842(12) 0.1887(12)
O23 O 0.8464(7) 0.3221(8) 0.1929(10)
O24 O 0.7494(7) 0.3223(8) 0.3381(10)
O25 O 0.5618(8) 0.3966(8) 0.5277(12)
H1 H 0.58230 0.41280 0.58550
C1 C 0.8776(12) 0.1708(8) -0.2202(11)
H2 H 0.92540 0.15100 -0.24660
C2 C 0.8625(11) 0.2251(7) -0.2895(12)
C3 C 0.8362(11) 0.1902(8) -0.3831(10)
C4 C 0.7845(12) 0.1382(11) -0.3433(14)
H3 H 0.78730 0.10090 -0.38520
H4 H 0.73030 0.15230 -0.34030
C5 C 0.8148(16) 0.1230(11) -0.2412(15)
H5 H 0.77280 0.12630 -0.19310
H6 H 0.83610 0.08030 -0.23910
C6 C 0.8990(14) 0.1866(13) -0.1176(13)
C7 C 0.8090(14) 0.2379(10) -0.4562(13)
C8 C 0.7979(17) 0.2639(14) -0.251(2)
H7 H 0.75360 0.23720 -0.23610
H8 H 0.78300 0.29510 -0.29870
H9 H 0.81480 0.28490 -0.19140
C9 C 0.9329(16) 0.2666(13) -0.289(2)
H10 H 0.93490 0.29070 -0.34890
H11 H 0.97940 0.24090 -0.28330
H12 H 0.93010 0.29520 -0.23370
C10 C 0.9108(12) 0.1583(11) -0.4168(16)
H13 H 0.91280 0.15810 -0.48750
H14 H 0.91120 0.11530 -0.39290
H15 H 0.95560 0.18070 -0.39130
C11 C 1.0846(12) 0.1235(12) 0.2074(15)
C12 C 1.021(1) 0.1711(11) 0.1961(13)
H16 H 0.97560 0.15410 0.23180
C13 C 1.0386(11) 0.2341(13) 0.2415(15)
H17 H 1.08400 0.25220 0.20720
C14 C 1.0553(11) 0.2353(10) 0.3481(14)
C15 C 0.7574(11) 0.3582(9) 0.0764(15)
C16 C 0.7812(12) 0.3617(11) 0.1801(13)
H18 H 0.79360 0.40560 0.19910
C17 C 0.7181(12) 0.3334(12) 0.2475(13)
H19 H 0.70230 0.29240 0.21960
C18 C 0.6458(15) 0.3733(14) 0.2579(15)
Co1 Co 0.77809(19) 0.54180(16) 0.8241(3)
N1 N 0.8181(15) 0.4983(11) 0.7086(17)
H20 H 0.78810 0.50680 0.65640
H21 H 0.86700 0.51100 0.69560
N2 N 0.7937(16) 0.4632(13) 0.8962(19)
H22 H 0.81740 0.47080 0.95360
H23 H 0.74770 0.44430 0.90810
N3 N 0.6725(13) 0.5205(15) 0.791(2)
H24 H 0.66190 0.53470 0.73030
H25 H 0.66710 0.47830 0.79060
N4 N 0.7326(11) 0.5778(9) 0.9434(12)
H26 H 0.76450 0.57080 0.99430
H27 H 0.72700 0.61970 0.93630
N5 N 0.7734(15) 0.6209(10) 0.7472(19)
H28 H 0.78010 0.61220 0.68340
H29 H 0.72630 0.63890 0.75460
N6 N 0.8756(11) 0.5741(11) 0.8637(17)
H30 H 0.87140 0.58920 0.92490
H31 H 0.91070 0.54260 0.86460
C19 C 0.817(2) 0.4280(14) 0.7306(17)
H32 H 0.76430 0.41100 0.72290
H33 H 0.85220 0.40530 0.68680
C20 C 0.8434(18) 0.4224(13) 0.8338(15)
H34 H 0.83940 0.37860 0.85530
H35 H 0.89790 0.43550 0.83920
C21 C 0.6163(13) 0.5482(14) 0.861(2)
H36 H 0.56860 0.52290 0.86280
H37 H 0.60270 0.59110 0.84090
C22 C 0.6562(12) 0.5487(13) 0.9619(17)
H38 H 0.62610 0.57350 1.00890
H39 H 0.66230 0.50580 0.98720
C23 C 0.8318(18) 0.6628(16) 0.779(3)
H40 H 0.81510 0.68440 0.83830
H41 H 0.84170 0.69460 0.72830
C24 C 0.9045(15) 0.6254(14) 0.798(3)
H42 H 0.92610 0.60820 0.73740
H43 H 0.94420 0.65110 0.83040
O26 O 1.1423(13) 0.3476(11) 0.0316(18)
O27 O 0.50000 0.50000 0.439(2)
O28 O 0.50000 0.50000 0.246(2)
O29 O 1.00000 0.50000 0.7041(17)
O30 O 0.840(2) 0.5103(18) 1.094(3)
U2* U 0.88268(4) 0.29218(4) -0.64980(5)
U3C U 0.57863(4) 0.35763(4) 0.02508(5)
U4* U 0.66470(4) 0.32726(5) -0.52703(6)
U4C U 1.16470(4) 0.17274(5) 0.52703(6)
O11* O 0.8540(7) 0.2798(7) 0.5140(9)
O12* O 0.7356(8) 0.2386(8) 0.5206(10)
O16C O 0.6167(9) 0.2918(8) 0.6244(9)
O20C O 1.2075(7) 0.1057(7) -0.0466(9)
O22C O 1.0995(10) 0.1158(12) -0.1887(12)
#END
