
#######################################################################
#
#                 Cambridge Crystallographic Data Centre
#                                CCDC
#
#######################################################################
#
# If this CIF has been generated from an entry in the Cambridge
# Structural Database, then it will include bibliographic, chemical,
# crystal, experimental, refinement or atomic coordinate data resulting
# from the CCDC's data processing and validation procedures.
#
#######################################################################

data_CSD_CIF_JIVBIC
_audit_creation_date 2018-12-12
_audit_creation_method CSD-ConQuest-V1
_database_code_CSD JIVBIC
_database_code_depnum_ccdc_archive 'CCDC 1874639'
_chemical_formula_sum 'C34 H34 N1 O9 P1 U1'
_chemical_formula_moiety
;
C24 H20 P1 1+,(C10 H14 N1 O9 U1 1-)n
;
_journal_coden_Cambridge 9
_journal_volume 58
_journal_year 2019
_journal_page_first 870
_journal_name_full 'Inorg.Chem. '
loop_
_publ_author_name
"P.Thuery"
"Y.Atoini"
"J.Harrowfield"
_chemical_name_systematic
;
catena-[tetraphenylphosphonium 
(\m-1,2,2-trimethylcyclopentane-1,3-dicarboxylato)-(nitrato)-dioxo-uranium]
;
_cell_volume   1662.958
_exptl_crystal_colour 'light yellow'
_exptl_crystal_density_diffrn 1.737
_exptl_crystal_description 'parallelepiped'
_diffrn_ambient_temperature 100
#These two values have been output from a single CSD field.
_refine_ls_R_factor_gt 0.0341
_refine_ls_wR_factor_gt 0.0341
_symmetry_cell_setting monoclinic
_symmetry_space_group_name_H-M 'P 21'
_symmetry_Int_Tables_number 4
loop_
_symmetry_equiv_pos_site_id
_symmetry_equiv_pos_as_xyz
1 x,y,z
2 -x,1/2+y,-z
_cell_length_a 8.0460(3)
_cell_length_b 16.2439(10)
_cell_length_c 12.9430(8)
_cell_angle_alpha 90
_cell_angle_beta 100.564(4)
_cell_angle_gamma 90
_cell_formula_units_Z 2
loop_
_atom_type_symbol
_atom_type_radius_bond
C 0.68
H 0.23
N 0.68
O 0.68
P 1.05
U 1.96
loop_
_atom_site_label
_atom_site_type_symbol
_atom_site_fract_x
_atom_site_fract_y
_atom_site_fract_z
U1 U 0.70174(3) 0.77932(4) 0.37643(2)
O1 O 0.5858(10) 0.7140(5) 0.4450(6)
O2 O 0.8128(9) 0.8460(5) 0.3049(5)
O3 O 0.7915(9) 0.6577(5) 0.2897(6)
O4 O 0.9624(10) 0.7023(5) 0.4312(6)
O5 O 1.1534(9) 0.3345(4) 0.4547(5)
O6 O 1.3814(9) 0.3998(5) 0.5318(5)
O7 O 0.4379(10) 0.8457(5) 0.2805(7)
O8 O 0.5187(10) 0.7411(5) 0.2036(5)
O9 O 0.3104(12) 0.8129(7) 0.1226(8)
N1 N 0.4187(12) 0.8001(5) 0.1999(7)
C1 C 1.0640(12) 0.5917(6) 0.3336(8)
C2 C 1.1363(16) 0.5377(8) 0.4360(9)
C3 C 1.2157(13) 0.4669(7) 0.3822(7)
H1 H 1.32620 0.48700 0.36710
C4 C 1.1063(19) 0.4432(9) 0.2783(10)
H2 H 1.03380 0.39520 0.28590
H3 H 1.17520 0.43130 0.22410
C5 C 0.996(2) 0.5262(10) 0.2516(11)
H4 H 1.00440 0.54600 0.18040
H5 H 0.87550 0.51480 0.25320
C6 C 0.9310(13) 0.6538(7) 0.3531(8)
C7 C 1.2531(13) 0.3950(6) 0.4597(7)
C8 C 1.2056(16) 0.6425(9) 0.3013(11)
H6 H 1.15960 0.67600 0.23970
H7 H 1.29280 0.60560 0.28400
H8 H 1.25530 0.67860 0.35950
C9 C 1.2669(17) 0.5826(8) 0.5196(10)
H9 H 1.21400 0.63090 0.54530
H10 H 1.36310 0.60010 0.48820
H11 H 1.30640 0.54520 0.57840
C10 C 0.9874(17) 0.5067(7) 0.485(1)
H12 H 0.90090 0.48270 0.43000
H13 H 0.93860 0.55280 0.51810
H14 H 1.02780 0.46470 0.53810
P1 P 0.1331(3) 0.66809(17) 0.8534(2)
C11 C 0.025(2) 0.7269(10) 0.9371(11)
C12 C -0.0845(19) 0.6856(9) 0.9938(10)
H15 H -0.09030 0.62720 0.99170
C13 C -0.1822(18) 0.7280(11) 1.0514(11)
H16 H -0.25630 0.69940 1.08820
C14 C -0.172(2) 0.8144(11) 1.0556(11)
H17 H -0.23560 0.84420 1.09830
C15 C -0.070(2) 0.8561(11) 0.9978(13)
H18 H -0.06910 0.91460 0.99760
C16 C 0.0297(19) 0.8124(9) 0.9401(12)
H19 H 0.10200 0.84140 0.90240
C17 C 0.2949(13) 0.6025(7) 0.9251(8)
C18 C 0.3351(14) 0.6041(7) 1.0344(8)
H20 H 0.27050 0.63690 1.07320
C19 C 0.468(2) 0.5583(11) 1.0860(12)
H21 H 0.49670 0.56030 1.16050
C20 C 0.5600(15) 0.5086(8) 1.0293(10)
H22 H 0.65090 0.47650 1.06560
C21 C 0.5212(17) 0.5057(9) 0.9209(12)
H23 H 0.58270 0.47040 0.88300
C22 C 0.3921(13) 0.5543(7) 0.8679(9)
H24 H 0.36910 0.55520 0.79320
C23 C -0.0284(13) 0.6067(6) 0.7743(8)
C24 C -0.0207(15) 0.5217(8) 0.7709(10)
H25 H 0.07710 0.49400 0.80650
C25 C -0.1535(13) 0.4769(7) 0.7164(9)
H26 H -0.14860 0.41850 0.71550
C26 C -0.2994(13) 0.5193(7) 0.6610(8)
H27 H -0.39160 0.48930 0.62230
C27 C -0.3040(13) 0.6040(6) 0.6648(8)
H28 H -0.40020 0.63230 0.62790
C28 C -0.1719(14) 0.6486(7) 0.7211(9)
H29 H -0.17780 0.70700 0.72390
C29 C 0.2372(12) 0.7353(7) 0.7764(8)
C30 C 0.1753(13) 0.7504(7) 0.6707(8)
H30 H 0.07450 0.72410 0.63670
C31 C 0.2596(16) 0.8033(7) 0.6147(9)
H31 H 0.21780 0.81250 0.54210
C32 C 0.4019(19) 0.8423(10) 0.6630(12)
H32 H 0.45680 0.88010 0.62440
C33 C 0.4689(18) 0.8274(11) 0.7691(12)
H33 H 0.57120 0.85320 0.80160
C34 C 0.3847(13) 0.7747(17) 0.8264(9)
H34 H 0.42690 0.76550 0.89890
U1A U 1.29826(3) 0.27932(4) 0.62357(2)
O5A O 0.8466(9) 0.8345(4) 0.5453(5)
O6A O 0.6186(9) 0.8998(5) 0.4682(5)
#END
