
#######################################################################
#
#                 Cambridge Crystallographic Data Centre
#                                CCDC
#
#######################################################################
#
# If this CIF has been generated from an entry in the Cambridge
# Structural Database, then it will include bibliographic, chemical,
# crystal, experimental, refinement or atomic coordinate data resulting
# from the CCDC's data processing and validation procedures.
#
#######################################################################

data_CSD_CIF_JIVFUP
_audit_creation_date 1992-02-25
_audit_creation_method CSD-ConQuest-V1
_database_code_CSD JIVFUP
_chemical_formula_sum 'C31 H55 N1 O5 S1 Sn1'
_chemical_formula_moiety
;
(C19 H31 O5 S1 Sn1 1-)n,n(C12 H24 N1 1+)
;
_journal_coden_Cambridge 36
_journal_volume 411
_journal_year 1991
_journal_page_first 121
_journal_name_full 'J.Organomet.Chem. '
loop_
_publ_author_name
"S.W.Ng"
"V.G.K.Das"
"E.R.T.Tiekink"
_chemical_name_systematic
;
catena-(Dicyclohexylammonium tri-n-butyl-(\m~2~-sulfobenzoato)-tin)
;
_cell_volume   3533.035
_exptl_crystal_density_diffrn 1.264
_diffrn_ambient_temperature 180
_refine_special_details
;
Methyl carbon C(34) is disordered.

;
#These two values have been output from a single CSD field.
_refine_ls_R_factor_gt 0.057
_refine_ls_wR_factor_gt 0.057
_symmetry_cell_setting monoclinic
_symmetry_space_group_name_H-M 'P 21/n'
_symmetry_Int_Tables_number 14
loop_
_symmetry_equiv_pos_site_id
_symmetry_equiv_pos_as_xyz
1 x,y,z
2 1/2-x,1/2+y,1/2-z
3 -x,-y,-z
4 -1/2+x,-1/2-y,-1/2+z
_cell_length_a 14.445(9)
_cell_length_b 14.904(5)
_cell_length_c 16.723(13)
_cell_angle_alpha 90
_cell_angle_beta 101.09(5)
_cell_angle_gamma 90
_cell_formula_units_Z 4
loop_
_atom_type_symbol
_atom_type_radius_bond
C 0.68
H 0.23
N 0.68
O 0.68
S 1.02
Sn 1.50
loop_
_atom_site_label
_atom_site_type_symbol
_atom_site_fract_x
_atom_site_fract_y
_atom_site_fract_z
Sn1 Sn 0.27229(5) 0.64342(4) 0.35551(4)
S1 S 0.1230(2) 0.3709(2) 0.1453(2)
O1 O 0.1885(5) 0.5219(4) 0.3485(4)
O2 O 0.1071(5) 0.5686(5) 0.2278(4)
O3 O 0.2148(4) 0.3976(4) 0.1877(4)
O4 O 0.0797(5) 0.4342(4) 0.0823(4)
O5 O 0.1167(5) 0.2793(4) 0.1125(4)
C1 C 0.1241(7) 0.5135(6) 0.2835(7)
C2 C 0.0607(7) 0.4335(7) 0.2827(6)
C3 C 0.0509(7) 0.3685(6) 0.2193(6)
C4 C -0.0176(7) 0.3018(7) 0.2157(6)
C5 C -0.0737(8) 0.2994(7) 0.2734(7)
C6 C -0.0630(9) 0.3603(8) 0.3365(7)
C7 C 0.0047(9) 0.4259(8) 0.3398(7)
C8 C 0.3647(7) 0.5886(6) 0.4607(6)
C9 C 0.3110(7) 0.5558(7) 0.5261(6)
C10 C 0.3767(8) 0.5105(8) 0.5967(6)
C11 C 0.3207(9) 0.4746(10) 0.6597(8)
C12 C 0.3237(7) 0.6329(6) 0.2427(6)
C13 C 0.4026(9) 0.5662(9) 0.2465(7)
C14 C 0.444(1) 0.5615(11) 0.1710(7)
C15 C 0.3801(11) 0.5336(12) 0.0967(9)
C16 C 0.1648(7) 0.7345(7) 0.3762(6)
C17 C 0.0762(8) 0.6938(8) 0.3971(9)
C18 C 0.0053(11) 0.7667(12) 0.4120(14)
C19 C -0.0814(16) 0.7264(19) 0.4247(19)
N1 N 0.5041(6) 0.1204(5) 0.4213(5)
C20 C 0.5851(7) 0.1280(6) 0.3775(6)
C21 C 0.6318(7) 0.0367(7) 0.3798(6)
C22 C 0.7155(8) 0.0382(8) 0.3387(7)
C23 C 0.7872(8) 0.1070(8) 0.3793(8)
C24 C 0.7397(8) 0.2002(8) 0.3773(8)
C25 C 0.6563(7) 0.1994(7) 0.4166(7)
C26 C 0.4521(7) 0.2042(6) 0.4387(6)
C27 C 0.3755(7) 0.1767(7) 0.4810(7)
C28 C 0.3190(8) 0.2569(7) 0.5039(6)
C29 C 0.2801(8) 0.3118(7) 0.4266(7)
C30 C 0.358(1) 0.3383(7) 0.3833(7)
C31 C 0.4144(8) 0.2580(6) 0.3608(6)
H1 H -0.0260(8) 0.2573(7) 0.1726(6)
H2 H -0.1225(8) 0.2539(7) 0.2696(7)
H3 H -0.1020(9) 0.3572(8) 0.3773(7)
H4 H 0.0137(9) 0.4686(8) 0.3843(7)
H5 H 0.4085(7) 0.6349(6) 0.4844(6)
H6 H 0.3985(7) 0.5386(6) 0.4435(6)
H7 H 0.2638(7) 0.5132(7) 0.5015(6)
H8 H 0.2814(7) 0.6069(7) 0.5466(6)
H9 H 0.4088(8) 0.4610(8) 0.5761(6)
H10 H 0.4228(8) 0.5539(8) 0.6229(6)
H11 H 0.3642(9) 0.4462(10) 0.7039(8)
H12 H 0.2752(9) 0.4311(10) 0.6335(8)
H13 H 0.2892(9) 0.5239(10) 0.6803(8)
H14 H 0.3465(7) 0.6912(6) 0.2303(6)
H15 H 0.2718(7) 0.6147(6) 0.2003(6)
H16 H 0.3779(9) 0.5074(8) 0.2559(7)
H17 H 0.4522(9) 0.5824(8) 0.2916(7)
H18 H 0.4957(10) 0.5192(11) 0.1813(7)
H19 H 0.4671(10) 0.6206(11) 0.1617(7)
H20 H 0.4142(11) 0.5329(12) 0.0521(9)
H21 H 0.3280(11) 0.5753(12) 0.0848(9)
H22 H 0.3566(11) 0.4739(12) 0.1044(9)
H23 H 0.1457(7) 0.7692(7) 0.3270(6)
H24 H 0.1925(7) 0.7734(7) 0.4207(6)
H25 H 0.0475(8) 0.6541(8) 0.3536(9)
H26 H 0.0934(8) 0.6603(8) 0.4474(9)
H27 H -0.0111(11) 0.8017(12) 0.3616(14)
H28 H 0.0325(11) 0.8057(12) 0.4560(14)
H29 H -0.1266(16) 0.7721(18) 0.4330(18)
H30 H -0.0644(16) 0.6915(18) 0.4753(18)
H31 H -0.1080(16) 0.6875(18) 0.3809(18)
H32 H 0.4580(6) 0.0814(5) 0.3889(4)
H33 H 0.5287(6) 0.0926(5) 0.4733(4)
H34 H 0.5622(7) 0.1468(6) 0.3218(6)
H35 H 0.5864(7) -0.0062(7) 0.3521(6)
H36 H 0.6525(7) 0.0192(7) 0.4360(6)
H37 H 0.7447(8) -0.0204(8) 0.3432(7)
H38 H 0.6948(8) 0.0539(8) 0.2819(7)
H39 H 0.8106(8) 0.0895(8) 0.4351(8)
H40 H 0.7201(8) 0.2186(8) 0.3209(8)
H41 H 0.7853(8) 0.2425(8) 0.4057(8)
H42 H 0.6759(8) 0.1859(7) 0.4738(7)
H43 H 0.6259(8) 0.2580(7) 0.4103(7)
H44 H 0.4952(7) 0.2442(6) 0.4732(6)
H45 H 0.3327(7) 0.1375(7) 0.4454(7)
H46 H 0.4030(7) 0.1452(7) 0.5304(7)
H47 H 0.2671(7) 0.2351(7) 0.5275(6)
H48 H 0.3600(7) 0.2942(7) 0.5425(6)
H49 H 0.2502(8) 0.3656(7) 0.4422(7)
H50 H 0.2341(8) 0.2760(7) 0.3904(7)
H51 H 0.3306(10) 0.3696(7) 0.3337(7)
H52 H 0.4011(10) 0.3776(7) 0.4185(7)
H53 H 0.3735(8) 0.2205(6) 0.3220(6)
H54 H 0.4665(8) 0.2794(6) 0.3375(6)
O5A O 0.3833(5) 0.7793(4) 0.3875(4)
Sn1A Sn 0.22771(5) 0.14342(4) 0.14449(4)
#END
