
#######################################################################
#
#                 Cambridge Crystallographic Data Centre
#                                CCDC
#
#######################################################################
#
# If this CIF has been generated from an entry in the Cambridge
# Structural Database, then it will include bibliographic, chemical,
# crystal, experimental, refinement or atomic coordinate data resulting
# from the CCDC's data processing and validation procedures.
#
#######################################################################

data_CSD_CIF_JIXBUQ
_audit_creation_date 2018-12-13
_audit_creation_method CSD-ConQuest-V1
_database_code_CSD JIXBUQ
_database_code_depnum_ccdc_archive 'CCDC 1839753'
_chemical_formula_sum 'C66 H72 Cd3 N8 O20'
_chemical_formula_moiety
;
(C50 H28 Cd3 N2 O16 2-)n,2(C2 H8 N1 1+),4(C3 H7 N1 O1)
;
_journal_coden_Cambridge 440
_journal_volume 43
_journal_year 2019
_journal_page_first 963
_journal_name_full 'New J.Chem. '
loop_
_publ_author_name
"Qi Wang"
"Da Jun Liu"
"Li Li Cui"
"Xiao-Li Hu"
"Xin-Long Wang"
"Zhong-Min Su"
_chemical_name_systematic
;
catena-[bis(dimethylammonium) 
bis(\m-4,4',4''-nitrilotribenzoato)-(\m-benzene-1,4-dicarboxylato)-tri-cadmium
(ii) N,N-dimethylformamide unknown solvate]
;
_cell_volume  23033.593
_exptl_crystal_colour 'yellow'
_exptl_crystal_description 'block'
_diffrn_ambient_temperature 293
_refine_special_details
;
Disordered dimethylammonium cations and N,N-dimethylformamide solvent 
molecules were not modelled and the disordered density was taken into account 
using the SQUEEZE/PLATON procedure.
;
#These two values have been output from a single CSD field.
_refine_ls_R_factor_gt 0.0389
_refine_ls_wR_factor_gt 0.0389
_symmetry_cell_setting orthorhombic
_symmetry_space_group_name_H-M 'C m c a'
_symmetry_Int_Tables_number 64
loop_
_symmetry_equiv_pos_site_id
_symmetry_equiv_pos_as_xyz
1 x,y,z
2 -x,1/2-y,1/2+z
3 x,-y,-z
4 1/2-x,y,1/2-z
5 1/2+x,1/2+y,z
6 1/2-x,-y,1/2+z
7 1/2+x,1/2-y,-z
8 -x,1/2+y,1/2-z
9 -x,-y,-z
10 x,-1/2+y,-1/2-z
11 -x,y,z
12 -1/2+x,-y,-1/2+z
13 -1/2-x,-1/2-y,-z
14 -1/2+x,y,-1/2-z
15 -1/2-x,-1/2+y,z
16 x,-1/2-y,-1/2+z
_cell_length_a 35.4231(18)
_cell_length_b 27.2363(18)
_cell_length_c 23.8741(13)
_cell_angle_alpha 90
_cell_angle_beta 90
_cell_angle_gamma 90
_cell_formula_units_Z 8
loop_
_atom_type_symbol
_atom_type_radius_bond
C 0.68
H 0.23
Cd 1.44
N 0.68
O 0.68
loop_
_atom_site_label
_atom_site_type_symbol
_atom_site_fract_x
_atom_site_fract_y
_atom_site_fract_z
Cd1 Cd 0.15763(2) 0.11298(2) 0.20645(2)
Cd2 Cd 0.25000 0.13449(2) 0.25000
O1 O 0.18957(7) 0.13379(10) 0.28568(9)
C1 C 0.20202(12) 0.29588(14) 0.66404(16)
O2 O 0.15680(8) 0.06701(13) 0.30040(11)
N1 N 0.21431(13) 0.11245(12) 0.54883(13)
C2 C 0.20495(11) 0.24773(14) 0.63363(15)
O3 O 0.31892(9) -0.05708(11) 0.64889(13)
O4 O 0.17208(9) 0.31944(10) 0.65965(12)
C3 C 0.18813(11) 0.10316(14) 0.37887(14)
C4 C 0.26631(11) -0.00613(13) 0.63064(14)
C5 C 0.23571(12) 0.01677(15) 0.65362(16)
H1 H 0.22648 0.00588 0.68790
C6 C 0.20551(14) 0.10915(14) 0.49231(16)
C7 C 0.21139(14) 0.15796(14) 0.57766(15)
C8 C 0.17670(11) 0.10029(17) 0.31806(15)
C9 C 0.21482(13) 0.14712(16) 0.45460(17)
H2 H 0.22712 0.17504 0.46763
C10 C 0.21817(13) 0.05556(16) 0.62732(17)
H3 H 0.19738 0.07066 0.64374
C11 C 0.20597(12) 0.14326(14) 0.39936(15)
H4 H 0.21231 0.16871 0.37515
C12 C 0.23574(12) 0.21683(16) 0.64187(18)
H5 H 0.25465 0.22637 0.66661
C13 C 0.17761(13) 0.23232(16) 0.59679(18)
H6 H 0.15669 0.25217 0.59037
C14 C 0.23176(14) 0.07190(14) 0.57620(16)
C15 C 0.27934(13) 0.00964(15) 0.57991(16)
H7 H 0.30006 -0.00568 0.56360
C16 C 0.17862(12) 0.06520(14) 0.41476(15)
H8 H 0.16638 0.03743 0.40119
C17 C 0.18758(14) 0.06900(14) 0.47133(16)
H9 H 0.18114 0.04348 0.49538
C18 C 0.18053(14) 0.18816(16) 0.56921(17)
H10 H 0.16156 0.17850 0.54463
C19 C 0.26156(14) 0.04902(16) 0.55212(17)
H11 H 0.27028 0.05926 0.51729
C20 C 0.23899(14) 0.17316(16) 0.61482(19)
H12 H 0.25991 0.15334 0.62133
O5 O 0.23004(9) 0.30843(11) 0.69232(12)
O6 O 0.26717(10) -0.07068(11) 0.69591(14)
C21 C 0.28588(13) -0.04819(14) 0.65971(17)
C22 C 0.08201(15) 0.1175(2) 0.2070(3)
O7 O 0.0987(1) 0.14684(19) 0.2365(2)
C23 C 0.04060(13) 0.1187(2) 0.2068(2)
O8 O 0.09857(10) 0.0878(2) 0.1807(2)
C24 C 0.02023(17) 0.1482(3) 0.2373(4)
H13 H 0.03262 0.17046 0.26037
C25 C 0.02031(17) 0.0860(4) 0.1792(4)
H14 H 0.03284 0.06185 0.15885
C22J C -0.08201(15) 0.1175(2) 0.2070(3)
O7J O -0.0987(1) 0.14684(19) 0.2365(2)
C23J C -0.04060(13) 0.1187(2) 0.2068(2)
O8J O -0.09857(10) 0.0878(2) 0.1807(2)
C24J C -0.02023(17) 0.1482(3) 0.2373(4)
H13J H -0.03262 0.17046 0.26037
C25J C -0.02031(17) 0.0860(4) 0.1792(4)
H14J H -0.03284 0.06185 0.15885
Cd1B Cd 0.15763(2) -0.11298(2) 0.79355(2)
O1B O 0.18957(7) -0.13379(10) 0.71432(9)
C1B C 0.20202(12) -0.29588(14) 0.33596(16)
O2B O 0.15680(8) -0.06701(13) 0.69960(11)
N1B N 0.21431(13) -0.11245(12) 0.45117(13)
C2B C 0.20495(11) -0.24773(14) 0.36637(15)
O3B O 0.31892(9) 0.05708(11) 0.35111(13)
O4B O 0.17208(9) -0.31944(10) 0.34035(12)
C3B C 0.18813(11) -0.10316(14) 0.62113(14)
C4B C 0.26631(11) 0.00613(13) 0.36936(14)
C5B C 0.23571(12) -0.01677(15) 0.34638(16)
H1B H 0.22648 -0.00588 0.31210
C6B C 0.20551(14) -0.10915(14) 0.50769(16)
C7B C 0.21139(14) -0.15796(14) 0.42234(15)
C8B C 0.17670(11) -0.10029(17) 0.68194(15)
C9B C 0.21482(13) -0.14712(16) 0.54540(17)
H2B H 0.22712 -0.17504 0.53237
C10B C 0.21817(13) -0.05556(16) 0.37268(17)
H3B H 0.19738 -0.07066 0.35626
C11B C 0.20597(12) -0.14326(14) 0.60064(15)
H4B H 0.21231 -0.16871 0.62485
C12B C 0.23574(12) -0.21683(16) 0.35813(18)
H5B H 0.25465 -0.22637 0.33339
C13B C 0.17761(13) -0.23232(16) 0.40321(18)
H6B H 0.15669 -0.25217 0.40963
C14B C 0.23176(14) -0.07190(14) 0.42380(16)
C15B C 0.27934(13) -0.00964(15) 0.42009(16)
H7B H 0.30006 0.00568 0.43640
C16B C 0.17862(12) -0.06520(14) 0.58524(15)
H8B H 0.16638 -0.03743 0.59881
C17B C 0.18758(14) -0.06900(14) 0.52867(16)
H9B H 0.18114 -0.04348 0.50462
C18B C 0.18053(14) -0.18816(16) 0.43079(17)
H10B H 0.16156 -0.17850 0.45537
C19B C 0.26156(14) -0.04902(16) 0.44788(17)
H11B H 0.27028 -0.05926 0.48271
C20B C 0.23899(14) -0.17316(16) 0.38518(19)
H12B H 0.25991 -0.15334 0.37867
O5B O 0.23004(9) -0.30843(11) 0.30768(12)
O6B O 0.26717(10) 0.07068(11) 0.30409(14)
C21B C 0.28588(13) 0.04819(14) 0.34029(17)
Cd1C Cd 0.34237(2) 0.11298(2) 0.29355(2)
Cd1E Cd 0.34237(2) -0.11298(2) 0.70645(2)
Cd1I Cd 0.15763(2) -0.38702(2) 0.29355(2)
Cd1J Cd -0.15763(2) 0.11298(2) 0.20645(2)
Cd1O Cd 0.15763(2) 0.38702(2) 0.70645(2)
Cd2B Cd 0.25000 -0.13449(2) 0.75000
Cd2I Cd 0.25000 -0.36551(2) 0.25000
Cd2L Cd 0.25000 0.36551(2) 0.75000
O1C O 0.31043(7) 0.13379(10) 0.21432(9)
O3C O 0.18108(9) -0.05708(11) 0.85111(13)
O3E O 0.18108(9) 0.05708(11) 0.14889(13)
O4I O 0.17208(9) -0.18056(10) 0.84035(12)
O4O O 0.17208(9) 0.18056(10) 0.15965(12)
O5L O 0.26996(9) 0.19157(11) 0.30768(12)
O5O O 0.23004(9) 0.19157(11) 0.19232(12)
O6E O 0.23283(10) 0.07068(11) 0.19591(14)
O7B O 0.0987(1) -0.14684(19) 0.7635(2)
O8B O 0.09857(10) -0.0878(2) 0.8193(2)
#END
