
#######################################################################
#
#                 Cambridge Crystallographic Data Centre
#                                CCDC
#
#######################################################################
#
# If this CIF has been generated from an entry in the Cambridge
# Structural Database, then it will include bibliographic, chemical,
# crystal, experimental, refinement or atomic coordinate data resulting
# from the CCDC's data processing and validation procedures.
#
#######################################################################

data_CSD_CIF_JIZBUP
_audit_creation_date 1992-04-15
_audit_creation_method CSD-ConQuest-V1
_database_code_CSD JIZBUP
_chemical_formula_sum 'C14 H26 Cl8 Cu4 N2 O5'
_chemical_formula_moiety
;
(C14 H26 Cu1 N2 O5 2+)n,n(Cl8 Cu3 2-)
;
_journal_coden_Cambridge 155
_journal_volume 183
_journal_year 1991
_journal_page_first 189
_journal_name_full 'Inorg.Chim.Acta '
loop_
_publ_author_name
"V.K.Belsky"
"N.R.Streltsova"
"O.K.Kireeva"
"B.M.Bulychev"
"T.A.Sokolova"
_chemical_name_systematic
;
catena(Diacetonitrile-(15-crown-5)-copper octakis(\m~2~-chloro)-tri-copper)
;
_cell_volume    721.817
_exptl_crystal_colour 'brown'
_diffrn_ambient_temperature ?
_diffrn_special_details
;
The study was carried out at room temperature,in the range 283-303K

;
_refine_special_details
;
The crown ether cation complex is disordered.

;
#These two values have been output from a single CSD field.
_refine_ls_R_factor_gt 0.062
_refine_ls_wR_factor_gt 0.062
_symmetry_cell_setting triclinic
_symmetry_space_group_name_H-M 'P -1'
_symmetry_Int_Tables_number 2
loop_
_symmetry_equiv_pos_site_id
_symmetry_equiv_pos_as_xyz
1 x,y,z
2 -x,-y,-z
_cell_length_a 9.762(2)
_cell_length_b 9.644(2)
_cell_length_c 9.353(2)
_cell_angle_alpha 95.02(2)
_cell_angle_beta 97.80(2)
_cell_angle_gamma 122.53(2)
_cell_formula_units_Z 1
loop_
_atom_type_symbol
_atom_type_radius_bond
C 0.68
Cl 1.06
Cu 1.34
N 0.68
O 0.68
loop_
_atom_site_label
_atom_site_type_symbol
_atom_site_fract_x
_atom_site_fract_y
_atom_site_fract_z
Cu1 Cu 0.8568(1) 0.2975(1) 0.5050(1)
Cu2 Cu 0.50000 0.50000 0.00000
Cu3 Cu 0.50000 0.00000 0.50000
Cl1 Cl 0.5762(3) 0.2671(3) 0.5080(3)
Cl2 Cl 0.9501(4) 0.4607(4) 0.3323(3)
Cl3 Cl 0.7080(5) 0.0575(4) 0.3346(4)
Cl4 Cl 0.8116(6) 0.1427(4) 0.6837(4)
N1 N 0.3776(12) 0.3918(12) -0.2019(10)
C1 C 0.3055(14) 0.3322(14) -0.3194(14)
C2 C 0.2060(22) 0.2513(23) -0.4666(16)
O1 O 0.6704(21) 0.4189(18) -0.0113(16)
O2 O 0.3823(24) 0.2406(21) 0.0470(17)
O3 O 0.7216(21) 0.5537(20) -0.0898(18)
O4 O 0.5299(26) 0.2981(22) 0.0310(19)
O5 O 0.7286(28) 0.7012(23) -0.0853(22)
C3 C 0.6248(21) 0.2693(20) -0.0189(18)
C4 C 0.4524(30) 0.177(2) 0.0823(16)
C5 C 0.2718(27) 0.1903(26) 0.1205(26)
C6 C 0.8420(23) 0.7018(30) -0.0877(25)
C7 C 0.7980(18) 0.4863(23) -0.0550(19)
O2A O 0.6177(24) 0.7594(21) -0.0470(17)
O4A O 0.4701(26) 0.7019(22) -0.0310(19)
O1A O 0.3296(21) 0.5811(18) 0.0113(16)
O3A O 0.2784(21) 0.4463(20) 0.0898(18)
O5A O 0.2714(28) 0.2988(23) 0.0853(22)
C6A C 0.1580(23) 0.2982(30) 0.0877(25)
C7A C 0.2020(18) 0.5137(23) 0.0550(19)
C3A C 0.3752(21) 0.7307(20) 0.0189(18)
C4A C 0.5476(30) 0.823(2) -0.0823(16)
C5A C 0.7282(27) 0.8097(26) -0.1205(26)
N1A N 0.6224(12) 0.6082(12) 0.2019(10)
C1A C 0.6945(14) 0.6678(14) 0.3194(14)
C2A C 0.7940(22) 0.7487(23) 0.4666(16)
Cl1A Cl 0.4238(3) -0.2671(3) 0.4920(3)
Cl3A Cl 0.2920(5) -0.0575(4) 0.6654(4)
Cl4A Cl 0.1884(6) -0.1427(4) 0.3163(4)
Cu1A Cu 0.1432(1) -0.2975(1) 0.4950(1)
Cl2A Cl 1.0499(4) 0.5393(4) 0.6677(3)
Cu1A* Cu 1.1432(1) 0.7025(1) 0.4950(1)
Cl2* Cl -0.0499(4) -0.5393(4) 0.3323(3)
Cl2A* Cl 0.0499(4) -0.4607(4) 0.6677(3)
#END
