
#######################################################################
#
#                 Cambridge Crystallographic Data Centre
#                                CCDC
#
#######################################################################
#
# If this CIF has been generated from an entry in the Cambridge
# Structural Database, then it will include bibliographic, chemical,
# crystal, experimental, refinement or atomic coordinate data resulting
# from the CCDC's data processing and validation procedures.
#
#######################################################################

data_CSD_CIF_JOCFOZ
_audit_creation_date 2019-04-24
_audit_creation_method CSD-ConQuest-V1
_database_code_CSD JOCFOZ
_database_code_depnum_ccdc_archive 'CCDC 1879971'
_chemical_formula_sum 'C60 H51 Eu1.33 N20 O9.5 Re4 Te4'
_chemical_formula_moiety
;
(C36 H20 Eu1 N16 O2 Re4 Te4 1-)n,0.33(Eu1 3+),2(C12 H8 N2),7.5(H2 O1)
;
_journal_coden_Cambridge 1133
_journal_volume 30
_journal_year 2019
_journal_page_first 1195
_journal_name_full 'J.Cluster Sci. '
loop_
_publ_author_name
"Y.M.Litvinova"
"Y.M.Gayfulin"
"D.G.Samsonenko"
"D.A.Piryazev"
"Y.V.Mironov"
_chemical_name_systematic
;
catena-[tetrakis(\m-tellurido)-bis(\m-cyano)-diaqua-decacyano-bis(1,10-phenant
hroline)-europium-tetra-rhenium europium bis(1,10-phenanthroline) hydrate]
;
_cell_volume   7255.497
_exptl_crystal_colour 'black'
_exptl_crystal_density_diffrn 2.437
_exptl_crystal_description 'block'
_diffrn_ambient_temperature 130
_refine_special_details
;
Disordered cations and solvent molecules were not modelled and the disordered 
density was taken into account using the SQUEEZE/PLATON procedure. The 
authors state a highly disordered [Ln(H2O)n]3+ cation with 1/3 occupancy is 
present in the structure.
;
#These two values have been output from a single CSD field.
_refine_ls_R_factor_gt 0.0237
_refine_ls_wR_factor_gt 0.0237
_symmetry_cell_setting monoclinic
_symmetry_space_group_name_H-M 'C 2/c'
_symmetry_Int_Tables_number 15
loop_
_symmetry_equiv_pos_site_id
_symmetry_equiv_pos_as_xyz
1 x,y,z
2 -x,y,1/2-z
3 1/2+x,1/2+y,z
4 1/2-x,1/2+y,1/2-z
5 -x,-y,-z
6 x,-y,-1/2+z
7 -1/2-x,-1/2-y,-z
8 -1/2+x,-1/2-y,-1/2+z
_cell_length_a 18.3549(4)
_cell_length_b 29.9646(5)
_cell_length_c 13.3847(2)
_cell_angle_alpha 90
_cell_angle_beta 99.7372(16)
_cell_angle_gamma 90
_cell_formula_units_Z 4
loop_
_atom_type_symbol
_atom_type_radius_bond
C 0.68
H 0.23
Eu 1.98
N 0.68
O 0.68
Re 1.51
Te 1.47
loop_
_atom_site_label
_atom_site_type_symbol
_atom_site_fract_x
_atom_site_fract_y
_atom_site_fract_z
Re1 Re -0.06501(2) 0.06699(2) 0.29693(2)
Re2 Re 0.04465(2) 0.13419(2) 0.34892(2)
Eu1 Eu 0.00000 0.17535(2) 0.75000
Te1 Te 0.06807(2) 0.04928(2) 0.39696(2)
Te2 Te -0.09839(2) 0.15161(2) 0.31657(2)
O1 O -0.08348(16) 0.11440(9) 0.7077(2)
N1 N -0.1035(2) 0.06339(12) 0.5249(3)
N2 N -0.2435(3) 0.06015(15) 0.2435(4)
N3 N -0.0886(2) -0.03937(12) 0.3227(3)
N4 N 0.0212(2) 0.15077(11) 0.5807(3)
N5 N 0.2162(3) 0.13925(15) 0.4618(4)
N6 N 0.0685(3) 0.24140(13) 0.3749(3)
N7 N 0.1253(2) 0.21060(11) 0.7321(3)
N8 N 0.0366(2) 0.24557(12) 0.8572(3)
C1 C -0.0912(3) 0.06438(13) 0.4439(3)
C2 C -0.1814(3) 0.06248(14) 0.2606(4)
C3 C -0.0788(3) -0.00237(14) 0.3108(3)
C4 C 0.0291(3) 0.14246(13) 0.4990(3)
C5 C 0.1561(3) 0.13777(15) 0.4203(4)
C6 C 0.0574(3) 0.20386(15) 0.3648(4)
C7 C 0.1714(3) 0.19349(16) 0.6773(4)
H1 H 0.16687 0.16263 0.66120
C8 C 0.2260(3) 0.21747(18) 0.6417(4)
H2 H 0.25807 0.20324 0.60287
C9 C 0.2329(3) 0.26147(19) 0.6630(4)
H3 H 0.26938 0.27859 0.63774
C10 C 0.1865(3) 0.28189(16) 0.7221(4)
C11 C 0.1889(3) 0.32824(19) 0.7472(5)
H4 H 0.22270 0.34717 0.72092
C12 C 0.1444(4) 0.34558(17) 0.8071(4)
H5 H 0.14773 0.37649 0.82303
C13 C 0.0921(3) 0.31846(15) 0.8475(4)
C14 C 0.0470(4) 0.33478(17) 0.9116(4)
H6 H 0.04930 0.36544 0.92997
C15 C -0.0009(3) 0.30709(16) 0.9488(4)
H7 H -0.03146 0.31825 0.99372
C16 C -0.0047(3) 0.26215(14) 0.9204(3)
H8 H -0.03789 0.24298 0.94714
C17 C 0.0864(3) 0.27318(14) 0.8223(3)
C18 C 0.1340(3) 0.25482(15) 0.7574(3)
Re1A Re 0.06501(2) 0.06699(2) 0.20307(2)
Re2A Re -0.04465(2) 0.13419(2) 0.15108(2)
Te1A Te -0.06807(2) 0.04928(2) 0.10304(2)
Te2A Te 0.09839(2) 0.15161(2) 0.18343(2)
N1A N 0.1035(2) 0.06339(12) -0.0249(3)
N2A N 0.2435(3) 0.06015(15) 0.2565(4)
N3A N 0.0886(2) -0.03937(12) 0.1773(3)
N4A N -0.0212(2) 0.15077(11) -0.0807(3)
N5A N -0.2162(3) 0.13925(15) 0.0382(4)
N6A N -0.0685(3) 0.24140(13) 0.1251(3)
C1A C 0.0912(3) 0.06438(13) 0.0561(3)
C2A C 0.1814(3) 0.06248(14) 0.2394(4)
C3A C 0.0788(3) -0.00237(14) 0.1892(3)
C4A C -0.0291(3) 0.14246(13) 0.0010(3)
C5A C -0.1561(3) 0.13777(15) 0.0797(4)
C6A C -0.0574(3) 0.20386(15) 0.1352(4)
N7A N -0.1253(2) 0.21060(11) 0.7679(3)
N8A N -0.0366(2) 0.24557(12) 0.6428(3)
C7A C -0.1714(3) 0.19349(16) 0.8227(4)
H1A H -0.16687 0.16263 0.83880
C8A C -0.2260(3) 0.21747(18) 0.8583(4)
H2A H -0.25807 0.20324 0.89713
C9A C -0.2329(3) 0.26147(19) 0.8370(4)
H3A H -0.26938 0.27859 0.86226
C10A C -0.1865(3) 0.28189(16) 0.7779(4)
C11A C -0.1889(3) 0.32824(19) 0.7528(5)
H4A H -0.22270 0.34717 0.77908
C12A C -0.1444(4) 0.34558(17) 0.6929(4)
H5A H -0.14773 0.37649 0.67697
C13A C -0.0921(3) 0.31846(15) 0.6525(4)
C14A C -0.0470(4) 0.33478(17) 0.5884(4)
H6A H -0.04930 0.36544 0.57003
C15A C 0.0009(3) 0.30709(16) 0.5512(4)
H7A H 0.03146 0.31825 0.50628
C16A C 0.0047(3) 0.26215(14) 0.5796(3)
H8A H 0.03789 0.24298 0.55286
C17A C -0.0864(3) 0.27318(14) 0.6777(3)
C18A C -0.1340(3) 0.25482(15) 0.7426(3)
O1A O 0.08348(16) 0.11440(9) 0.7923(2)
Eu1* Eu 0.00000 0.17535(2) -0.25000
N4A* N -0.0212(2) 0.15077(11) 0.9193(3)
#END
