
#######################################################################
#
#                 Cambridge Crystallographic Data Centre
#                                CCDC
#
#######################################################################
#
# If this CIF has been generated from an entry in the Cambridge
# Structural Database, then it will include bibliographic, chemical,
# crystal, experimental, refinement or atomic coordinate data resulting
# from the CCDC's data processing and validation procedures.
#
#######################################################################

data_CSD_CIF_JOCLIZ
_audit_creation_date 2019-04-24
_audit_creation_method CSD-ConQuest-V1
_database_code_CSD JOCLIZ
_database_code_depnum_ccdc_archive 'CCDC 1879970'
_chemical_formula_sum 'C60 H54 N20 O11 Re4 Sm1.33 Te4'
_chemical_formula_moiety
;
(C36 H20 N16 O2 Re4 Sm1 Te4 1-)n,0.33n(Sm1 3+),2n(C12 H8 N2),9n(H2 O1)
;
_journal_coden_Cambridge 1133
_journal_volume 30
_journal_year 2019
_journal_page_first 1195
_journal_name_full 'J.Cluster Sci. '
loop_
_publ_author_name
"Y.M.Litvinova"
"Y.M.Gayfulin"
"D.G.Samsonenko"
"D.A.Piryazev"
"Y.V.Mironov"
_chemical_name_systematic
;
catena-(samarium 
tetrakis(\m-tellurido)-bis(\m-cyano)-diaqua-decacyano-bis(1,10-phenanthroline)
;
_cell_volume   7265.601
_exptl_crystal_colour 'black'
_exptl_crystal_density_diffrn 2.456
_exptl_crystal_description 'plate'
_diffrn_ambient_temperature 130
_refine_special_details
;
The SQUEEZE/PLATON program was used to model the samarium cation which has 
occupancy 1/3, the phenanthroline molecules and the water molecules.
;
#These two values have been output from a single CSD field.
_refine_ls_R_factor_gt 0.0291
_refine_ls_wR_factor_gt 0.0291
_symmetry_cell_setting monoclinic
_symmetry_space_group_name_H-M 'C 2/c'
_symmetry_Int_Tables_number 15
loop_
_symmetry_equiv_pos_site_id
_symmetry_equiv_pos_as_xyz
1 x,y,z
2 -x,y,1/2-z
3 1/2+x,1/2+y,z
4 1/2-x,1/2+y,1/2-z
5 -x,-y,-z
6 x,-y,-1/2+z
7 -1/2-x,-1/2-y,-z
8 -1/2+x,-1/2-y,-1/2+z
_cell_length_a 18.2450(5)
_cell_length_b 30.1301(4)
_cell_length_c 13.3934(2)
_cell_angle_alpha 90
_cell_angle_beta 99.314(2)
_cell_angle_gamma 90
_cell_formula_units_Z 4
loop_
_atom_type_symbol
_atom_type_radius_bond
C 0.68
H 0.23
N 0.68
O 0.68
Re 1.51
Sm 1.98
Te 1.47
loop_
_atom_site_label
_atom_site_type_symbol
_atom_site_fract_x
_atom_site_fract_y
_atom_site_fract_z
Re1 Re 0.04475(2) 0.13347(2) 0.84854(2)
Re2 Re 0.06550(2) 0.06657(2) 0.70249(2)
Te1 Te 0.06830(2) 0.04895(2) 0.89626(3)
Te2 Te 0.09905(2) 0.15084(2) 0.68290(3)
C1 C 0.0288(3) 0.14185(18) 0.9987(4)
N1 N 0.0210(3) 0.14976(15) 1.0807(4)
C2 C 0.0574(4) 0.2027(2) 0.8640(5)
N2 N 0.0683(4) 0.24024(19) 0.8753(4)
C3 C 0.1556(4) 0.13665(19) 0.9185(5)
N3 N 0.2164(4) 0.13911(19) 0.9604(5)
C4 C 0.1815(4) 0.06259(19) 0.7390(5)
N4 N 0.2439(4) 0.0607(2) 0.7539(6)
C5 C 0.0926(4) 0.06386(18) 0.5554(4)
N5 N 0.1050(3) 0.06327(17) 0.4736(4)
C6 C 0.0798(4) -0.00211(19) 0.6886(4)
N6 N 0.0888(3) -0.03948(16) 0.6767(4)
Sm1 Sm 0.00000 0.17486(2) 1.25000
O1 O 0.0855(2) 0.11416(12) 1.2918(3)
N7 N 0.0377(3) 0.24513(16) 1.3568(3)
N8 N 0.1261(3) 0.21059(16) 1.2302(4)
C7 C -0.0041(4) 0.2618(2) 1.4207(4)
H1 H -0.03780 0.24260 1.44700
C8 C -0.0004(5) 0.3057(2) 1.4500(5)
H2 H -0.03130 0.31630 1.49550
C9 C 0.0471(5) 0.3340(2) 1.4143(5)
H3 H 0.04950 0.36430 1.43460
C10 C 0.0930(4) 0.3182(2) 1.3470(5)
C11 C 0.1460(5) 0.3451(2) 1.3062(5)
H4 H 0.14950 0.37580 1.32280
C12 C 0.1903(4) 0.3285(2) 1.2461(5)
H5 H 0.22430 0.34740 1.22010
C13 C 0.1875(4) 0.2819(2) 1.2197(5)
C14 C 0.2345(4) 0.2622(2) 1.1589(5)
H6 H 0.27120 0.27930 1.13350
C15 C 0.2266(4) 0.2186(3) 1.1372(5)
H7 H 0.25850 0.20460 1.09730
C16 C 0.1714(4) 0.1939(2) 1.1736(5)
H8 H 0.16660 0.16340 1.15620
C17 C 0.1346(4) 0.2546(2) 1.2562(4)
C18 C 0.0874(4) 0.2729(2) 1.3206(4)
Re1A Re -0.04475(2) 0.13347(2) 0.65146(2)
Re2A Re -0.06550(2) 0.06657(2) 0.79751(2)
Te1A Te -0.06830(2) 0.04895(2) 0.60374(3)
Te2A Te -0.09905(2) 0.15084(2) 0.81710(3)
C1A C -0.0288(3) 0.14185(18) 0.5013(4)
N1A N -0.0210(3) 0.14976(15) 0.4193(4)
C2A C -0.0574(4) 0.2027(2) 0.6360(5)
N2A N -0.0683(4) 0.24024(19) 0.6247(4)
C3A C -0.1556(4) 0.13665(19) 0.5815(5)
N3A N -0.2164(4) 0.13911(19) 0.5396(5)
C4A C -0.1815(4) 0.06259(19) 0.7610(5)
N4A N -0.2439(4) 0.0607(2) 0.7461(6)
C5A C -0.0926(4) 0.06386(18) 0.9446(4)
N5A N -0.1050(3) 0.06327(17) 1.0264(4)
C6A C -0.0798(4) -0.00211(19) 0.8114(4)
N6A N -0.0888(3) -0.03948(16) 0.8233(4)
N7A N -0.0377(3) 0.24513(16) 1.1432(3)
N8A N -0.1261(3) 0.21059(16) 1.2698(4)
C7A C 0.0041(4) 0.2618(2) 1.0793(4)
H1A H 0.03780 0.24260 1.05300
C8A C 0.0004(5) 0.3057(2) 1.0500(5)
H2A H 0.03130 0.31630 1.00450
C9A C -0.0471(5) 0.3340(2) 1.0857(5)
H3A H -0.04950 0.36430 1.06540
C10A C -0.0930(4) 0.3182(2) 1.1530(5)
C11A C -0.1460(5) 0.3451(2) 1.1938(5)
H4A H -0.14950 0.37580 1.17720
C12A C -0.1903(4) 0.3285(2) 1.2539(5)
H5A H -0.22430 0.34740 1.27990
C13A C -0.1875(4) 0.2819(2) 1.2803(5)
C14A C -0.2345(4) 0.2622(2) 1.3411(5)
H6A H -0.27120 0.27930 1.36650
C15A C -0.2266(4) 0.2186(3) 1.3628(5)
H7A H -0.25850 0.20460 1.40270
C16A C -0.1714(4) 0.1939(2) 1.3264(5)
H8A H -0.16660 0.16340 1.34380
C17A C -0.1346(4) 0.2546(2) 1.2438(4)
C18A C -0.0874(4) 0.2729(2) 1.1794(4)
O1A O -0.0855(2) 0.11416(12) 1.2082(3)
N1A* N -0.0210(3) 0.14976(15) 1.4193(4)
Sm1* Sm 0.00000 0.17486(2) 0.25000
#END
