
#######################################################################
#
#                 Cambridge Crystallographic Data Centre
#                                CCDC
#
#######################################################################
#
# If this CIF has been generated from an entry in the Cambridge
# Structural Database, then it will include bibliographic, chemical,
# crystal, experimental, refinement or atomic coordinate data resulting
# from the CCDC's data processing and validation procedures.
#
#######################################################################

data_CSD_CIF_JOCLAR
_audit_creation_date 2019-04-24
_audit_creation_method CSD-ConQuest-V1
_database_code_CSD JOCLAR
_database_code_depnum_ccdc_archive 'CCDC 1879943'
_chemical_formula_sum 'C36 H36.76 N16 O9.88 Re4 Te4 Yb1'
_chemical_formula_moiety
;
(C24 H16 N14 O4 Re4 Te4 Yb1 1-)n,n(C12 H9 N2 1+),5.88n(H2 O1)
;
_journal_coden_Cambridge 1133
_journal_volume 30
_journal_year 2019
_journal_page_first 1195
_journal_name_full 'J.Cluster Sci. '
loop_
_publ_author_name
"Y.M.Litvinova"
"Y.M.Gayfulin"
"D.G.Samsonenko"
"D.A.Piryazev"
"Y.V.Mironov"
_chemical_name_systematic
;
catena-(1,10-phenanthrolinium 
bis(\m-cyano)-tetrakis(\m-tellurido)-tetra-aqua-decacyano-(1,10-phenanthroline
)-tetra-rhenium-ytterbium hydrate)
;
_cell_volume   2689.533
_exptl_crystal_colour 'brown'
_exptl_crystal_density_diffrn 2.814
_exptl_crystal_description 'block'
_diffrn_ambient_temperature 150
_refine_special_details
;
Some of the water molecules are disordered.

;
#These two values have been output from a single CSD field.
_refine_ls_R_factor_gt 0.0312
_refine_ls_wR_factor_gt 0.0312
_symmetry_cell_setting triclinic
_symmetry_space_group_name_H-M 'P -1'
_symmetry_Int_Tables_number 2
loop_
_symmetry_equiv_pos_site_id
_symmetry_equiv_pos_as_xyz
1 x,y,z
2 -x,-y,-z
_cell_length_a 13.0788(6)
_cell_length_b 13.8259(7)
_cell_length_c 16.1336(8)
_cell_angle_alpha 73.5436(19)
_cell_angle_beta 77.3377(19)
_cell_angle_gamma 77.158(2)
_cell_formula_units_Z 2
loop_
_atom_type_symbol
_atom_type_radius_bond
C 0.68
H 0.23
N 0.68
O 0.68
Re 1.51
Te 1.47
Yb 1.87
loop_
_atom_site_label
_atom_site_type_symbol
_atom_site_fract_x
_atom_site_fract_y
_atom_site_fract_z
Re1 Re 1.202255(11) 0.686298(11) 0.127477(10)
Re2 Re 1.357117(11) 0.809926(11) 0.024748(10)
Re3 Re 1.175640(11) 0.894027(11) 0.135329(10)
Re4 Re 1.341690(11) 0.744880(11) 0.212302(10)
Te1 Te 1.138529(19) 0.744572(19) 0.275273(17)
Te2 Te 1.408314(19) 0.617135(18) 0.108856(18)
Te3 Te 1.160913(19) 0.842733(19) -0.006723(17)
C1 C 1.0399(3) 0.6849(3) 0.1435(3)
C2 C 1.2094(3) 0.6019(3) 0.0356(3)
C3 C 1.1896(3) 0.5422(3) 0.2136(3)
Te4 Te 1.369805(19) 0.931204(18) 0.119639(17)
C4 C 1.5235(3) 0.7982(3) -0.0048(3)
C5 C 1.3925(3) 0.7483(3) -0.0857(3)
C6 C 1.3729(3) 0.9453(3) -0.0735(3)
C7 C 1.1467(3) 1.0430(3) 0.0567(3)
C8 C 1.0089(3) 0.9231(3) 0.1500(3)
C9 C 1.1415(3) 0.9774(3) 0.2304(3)
C10 C 1.3534(3) 0.6099(3) 0.3135(3)
C11 C 1.3356(3) 0.8139(3) 0.3146(3)
C12 C 1.5023(3) 0.7219(3) 0.2204(3)
N1 N 0.9515(3) 0.6780(3) 0.1571(3)
N2 N 1.2124(3) 0.5534(3) -0.0127(3)
N3 N 1.1744(4) 0.4646(3) 0.2619(3)
N4 N 1.6152(3) 0.7909(3) -0.0231(3)
N5 N 1.4155(3) 0.7189(3) -0.1478(3)
N6 N 1.3874(3) 1.0201(3) -0.1250(3)
N7 N 1.1230(3) 1.1267(3) 0.0177(3)
N8 N 0.9172(3) 0.9400(3) 0.1596(3)
N9 N 1.1223(3) 1.0232(3) 0.2833(3)
N10 N 1.3595(3) 0.5361(3) 0.3705(3)
N11 N 1.3356(4) 0.8560(3) 0.3674(3)
N12 N 1.5905(3) 0.7031(3) 0.2304(2)
Yb1 Yb 0.776031(12) 0.635954(12) 0.200969(11)
O1 O 0.7962(2) 0.6978(2) 0.0525(2)
O2 O 0.8073(3) 0.6507(3) 0.3302(2)
O3 O 0.7595(2) 0.8110(2) 0.1874(2)
O4 O 0.6868(2) 0.5495(2) 0.1414(2)
N13 N 0.7245(3) 0.4892(3) 0.3192(2)
N14 N 0.8973(3) 0.4752(3) 0.1904(3)
H1 H 0.83800 0.74380 0.03460
H2 H 0.73470 0.72660 0.03610
H3 H 0.82260 0.59020 0.36500
H4 H 0.75130 0.68460 0.35680
H5 H 0.70630 0.84500 0.16060
H6 H 0.81730 0.83350 0.15730
H7 H 0.64830 0.50740 0.18320
H8 H 0.73230 0.51090 0.10810
C13 C 0.6398(4) 0.4955(4) 0.3812(3)
C14 C 0.7833(3) 0.3947(3) 0.3190(3)
C15 C 0.9790(3) 0.4666(3) 0.1267(3)
C16 C 0.8747(4) 0.3875(3) 0.2508(3)
C17 C 0.6070(4) 0.4100(4) 0.4456(3)
H9 H 0.59890 0.56130 0.38250
C18 C 0.7582(4) 0.3047(4) 0.3816(4)
H10 H 0.99480 0.52730 0.08460
C19 C 1.0443(4) 0.3733(4) 0.1174(4)
C20 C 0.9357(4) 0.2904(4) 0.2463(4)
C21 C 0.6673(4) 0.3143(4) 0.4449(4)
H11 H 0.54510 0.41800 0.48830
C22 C 0.8229(5) 0.2085(4) 0.3761(6)
C23 C 1.0226(4) 0.2855(4) 0.1777(5)
H12 H 1.10210 0.37150 0.07010
C24 C 0.9070(5) 0.2013(4) 0.3120(6)
H13 H 0.64690 0.25540 0.48730
H14 H 0.80620 0.14830 0.41860
H15 H 1.06590 0.22150 0.17330
H16 H 0.94860 0.13600 0.31000
O5 O 0.9540(5) 0.6043(4) 0.5681(4)
O6 O 0.8759(4) 0.8137(3) 0.3431(3)
O7 O 0.8812(8) 0.8173(9) 0.5012(6)
O8 O 0.9028(9) 0.9846(7) 0.5383(6)
O9 O 1.015(2) 0.869(2) 0.4361(15)
O10 O 0.4531(3) 0.5724(3) 0.7575(3)
O11 O 0.8358(4) 0.5161(4) 0.4900(3)
N15 N 0.6366(4) 1.0461(3) 0.4504(3)
N16 N 0.6604(4) 0.9433(3) 0.6189(3)
C25 C 0.6298(4) 0.9451(4) 0.4763(3)
C26 C 0.6432(4) 0.8911(4) 0.5649(3)
C27 C 0.6681(6) 0.7946(5) 0.7370(4)
H17 H 0.67740 0.76250 0.79590
C28 C 0.6717(5) 0.8983(5) 0.7025(4)
H18 H 0.68220 0.93780 0.73860
C29 C 0.6173(5) 0.7339(4) 0.5383(4)
H19 H 0.61470 0.66280 0.55810
C30 C 0.5956(5) 0.9446(5) 0.3360(4)
H20 H 0.58130 0.91120 0.29680
C31 C 0.6367(4) 0.7864(4) 0.5973(4)
C32 C 0.6088(4) 0.8900(4) 0.4225(4)
C33 C 0.6508(5) 0.7400(4) 0.6842(4)
H21 H 0.64840 0.66900 0.70700
C34 C 0.6035(5) 1.0449(5) 0.3097(4)
H22 H 0.59540 1.08260 0.25170
C35 C 0.6237(5) 1.0932(4) 0.3693(4)
H23 H 0.62830 1.16390 0.34950
C36 C 0.6028(5) 0.7829(4) 0.4561(4)
H24 H 0.58840 0.74640 0.41950
O12? O 0.883(3) 0.870(2) 0.5717(19)
O13? O 0.872(2) 0.658(2) 0.5900(16)
O14? O 0.959(3) 0.811(2) 0.4839(16)
Yb1* Yb 1.776031(12) 0.635954(12) 0.200969(11)
N12* N 0.5905(3) 0.7031(3) 0.2304(2)
#END
