
#######################################################################
#
#                 Cambridge Crystallographic Data Centre
#                                CCDC
#
#######################################################################
#
# If this CIF has been generated from an entry in the Cambridge
# Structural Database, then it will include bibliographic, chemical,
# crystal, experimental, refinement or atomic coordinate data resulting
# from the CCDC's data processing and validation procedures.
#
#######################################################################

data_CSD_CIF_JOCXUU
_audit_creation_date 1992-09-08
_audit_creation_method CSD-ConQuest-V1
_database_code_CSD JOCXUU
_chemical_formula_sum 'C32 H44 Mn2 N2 O18'
_chemical_formula_moiety
;
(C30 H24 Mn2 O14 2-)n,2n(H4 N1 1+),2n(C1 H4 O1),2n(H2 O1)
;
_journal_coden_Cambridge 9
_journal_volume 30
_journal_year 1991
_journal_page_first 3900
_journal_name_full 'Inorg.Chem. '
loop_
_publ_author_name
"M.L.Kirk"
"Myoung Soo Lah"
"C.Raptopoulou"
"D.P.Kessissoglou"
"W.E.Hatfield"
"V.L.Pecoraro"
_chemical_name_systematic
;
catena(Di-ammonium tetrakis(\m~2~-salicylato)-dimethanol-di-manganese(iii) 
methanol solvate dihydrate)
;
_cell_volume    977.520
_exptl_crystal_colour 'pale green'
_exptl_crystal_density_diffrn 1.452
_exptl_special_details
;
Isostructural with the sodium and potassium analogues

;
_diffrn_ambient_temperature ?
_diffrn_special_details
;
The study was carried out at room temperature,in the range 283-303K

;
#These two values have been output from a single CSD field.
_refine_ls_R_factor_gt 0.03
_refine_ls_wR_factor_gt 0.03
_symmetry_cell_setting triclinic
_symmetry_space_group_name_H-M 'P -1'
_symmetry_Int_Tables_number 2
loop_
_symmetry_equiv_pos_site_id
_symmetry_equiv_pos_as_xyz
1 x,y,z
2 -x,-y,-z
_cell_length_a 8.246(3)
_cell_length_b 10.805(3)
_cell_length_c 13.080(4)
_cell_angle_alpha 68.42(2)
_cell_angle_beta 96.80(3)
_cell_angle_gamma 69.97(3)
_cell_formula_units_Z 1
loop_
_atom_type_symbol
_atom_type_radius_bond
C 0.68
H 0.23
Mn 1.35
N 0.68
O 0.68
loop_
_atom_site_label
_atom_site_type_symbol
_atom_site_fract_x
_atom_site_fract_y
_atom_site_fract_z
Mn1 Mn 0.50000 0.00000 0.50000
Mn2 Mn 0.00000 0.50000 0.50000
N1 N 0.4820(4) 0.3783(3) 0.4514(3)
O1 O 0.4755(2) -0.1506(2) 0.6177(2)
O2 O 0.3544(2) 0.1476(2) 0.5399(2)
O3 O 0.1206(2) 0.2474(2) 0.5952(2)
O4 O 0.0940(2) 0.5111(2) 0.3753(1)
O5 O -0.2185(2) 0.5087(2) 0.4218(2)
O6 O -0.4460(3) 0.5788(2) 0.2770(2)
C1 C 0.2943(3) -0.0080(3) 0.7020(2)
C2 C 0.4004(3) -0.1416(3) 0.7019(2)
C3 C 0.4261(4) -0.2740(3) 0.7921(2)
C4 C 0.3524(4) -0.2726(3) 0.8813(2)
C5 C 0.2531(4) -0.1419(4) 0.8839(3)
C6 C 0.2255(4) -0.0121(3) 0.7952(2)
C7 C 0.2530(3) 0.1372(3) 0.6072(2)
C8 C 0.0026(3) 0.5576(3) 0.2673(2)
C9 C -0.1767(4) 0.5804(3) 0.2333(2)
C10 C -0.2559(4) 0.6255(4) 0.1171(4)
C11 C -0.1635(5) 0.6472(4) 0.0376(3)
C12 C 0.0117(5) 0.6266(4) 0.0710(3)
C13 C 0.0948(4) 0.5824(3) 0.1836(3)
C14 C -0.2869(4) 0.5560(3) 0.3133(2)
O7 O 0.2447(3) 0.0391(2) 0.3838(2)
C15 C 0.0994(7) 0.1756(5) 0.3155(5)
O8 O 0.2632(4) -0.1515(3) 0.1596(2)
C16 C 0.3173(11) -0.0375(6) 0.1202(5)
O9 O 0.1972(3) -0.1952(2) 0.3670(2)
H1 H 0.4943(46) -0.3640(38) 0.7925(28)
H2 H 0.3639(44) -0.3610(38) 0.9438(29)
H3 H 0.2144(46) -0.1448(38) 0.9415(29)
H4 H 0.1628(46) 0.0740(38) 0.7952(29)
H5 H -0.3664(48) 0.6362(39) 0.1013(30)
H6 H -0.2226(46) 0.6718(37) -0.0371(29)
H7 H 0.0781(46) 0.6411(36) 0.0179(29)
H8 H 0.2143(48) 0.5630(38) 0.2093(28)
H9 H 0.2266(52) -0.0181(42) 0.3813(33)
H10 H 0.0415(51) 0.1799(39) 0.2508(31)
H11 H 0.0173(49) 0.1547(40) 0.3697(30)
H12 H 0.1205(48) 0.2480(42) 0.3089(30)
H13 H 0.3564(47) -0.2442(41) 0.1898(29)
H14 H 0.3512(46) -0.0288(38) 0.0489(29)
H15 H 0.3684(50) -0.0440(41) 0.190(3)
H16 H 0.2340(48) 0.0472(41) 0.1059(31)
H17 H 0.1057(50) -0.2110(39) 0.3760(29)
H18 H 0.2108(46) -0.1882(37) 0.2951(31)
H19 H 0.4736(47) 0.3244(40) 0.4205(30)
H20 H 0.4954(47) 0.4501(41) 0.397(3)
H21 H 0.5904(49) 0.3229(37) 0.5277(30)
H22 H 0.3950(52) 0.4076(42) 0.4634(32)
O1A O 0.5245(2) 0.1506(2) 0.3823(2)
O2A O 0.6456(2) -0.1476(2) 0.4601(2)
O7A O 0.7553(3) -0.0391(2) 0.6162(2)
O3A O -0.1206(2) 0.7526(2) 0.4048(2)
O4A O -0.0940(2) 0.4889(2) 0.6247(1)
O5A O 0.2185(2) 0.4913(2) 0.5782(2)
C15A C 0.9006(7) -0.1756(5) 0.6845(5)
H9A H 0.7734(52) 0.0181(42) 0.6187(33)
C7A C -0.2530(3) 0.8628(3) 0.3928(2)
C8A C -0.0026(3) 0.4424(3) 0.7327(2)
C14A C 0.2869(4) 0.4440(3) 0.6867(2)
H10A H 0.9585(51) -0.1799(39) 0.7492(31)
H11A H 0.9827(49) -0.1547(40) 0.6303(30)
H12A H 0.8795(48) -0.2480(42) 0.6911(30)
C9A C 0.1767(4) 0.4196(3) 0.7667(2)
C13A C -0.0948(4) 0.4176(3) 0.8164(3)
O6A O 0.4460(3) 0.4212(2) 0.7230(2)
C10A C 0.2559(4) 0.3745(4) 0.8829(4)
C12A C -0.0117(5) 0.3734(4) 0.9290(3)
H8A H -0.2143(48) 0.4370(38) 0.7907(28)
C11A C 0.1635(5) 0.3528(4) 0.9624(3)
H5A H 0.3664(48) 0.3638(39) 0.8987(30)
H7A H -0.0781(46) 0.3589(36) 0.9821(29)
H6A H 0.2226(46) 0.3282(37) 1.0371(29)
O2A* O -0.3544(2) 0.8524(2) 0.4601(2)
C1A C -0.2943(3) 1.0080(3) 0.2980(2)
Mn1* Mn -0.50000 1.00000 0.50000
C2A C -0.4004(3) 1.1416(3) 0.2981(2)
C6A C -0.2255(4) 1.0121(3) 0.2048(2)
O1A* O -0.4755(2) 1.1506(2) 0.3823(2)
C3A C -0.4261(4) 1.2740(3) 0.2079(2)
C5A C -0.2531(4) 1.1419(4) 0.1161(3)
H4A H -0.1628(46) 0.9260(38) 0.2048(29)
C4A C -0.3524(4) 1.2726(3) 0.1187(2)
H1A H -0.4943(46) 1.3640(38) 0.2075(28)
H3A H -0.2144(46) 1.1448(38) 0.0585(29)
H2A H -0.3639(44) 1.3610(38) 0.0562(29)
#END
