
#######################################################################
#
#                 Cambridge Crystallographic Data Centre
#                                CCDC
#
#######################################################################
#
# If this CIF has been generated from an entry in the Cambridge
# Structural Database, then it will include bibliographic, chemical,
# crystal, experimental, refinement or atomic coordinate data resulting
# from the CCDC's data processing and validation procedures.
#
#######################################################################

data_CSD_CIF_JOCXII
_audit_creation_date 1992-09-08
_audit_creation_method CSD-ConQuest-V1
_database_code_CSD JOCXII
_chemical_formula_sum 'C32 H36 Mn2 Na2 O18'
_chemical_formula_moiety
;
(C30 H24 Mn2 O14 2-)n,2n(Na1 1+),2n(C1 H4 O1),2n(H2 O1)
;
_journal_coden_Cambridge 9
_journal_volume 30
_journal_year 1991
_journal_page_first 3900
_journal_name_full 'Inorg.Chem. '
loop_
_publ_author_name
"M.L.Kirk"
"Myoung Soo Lah"
"C.Raptopoulou"
"D.P.Kessissoglou"
"W.E.Hatfield"
"V.L.Pecoraro"
_chemical_name_systematic
;
catena(Di-sodium tetrakis(\m~2~-salicylato)-dimethanol-di-manganese(iii) 
methanol solvate dihydrate)
;
_cell_volume    898.215
_exptl_crystal_colour 'pale green'
_exptl_crystal_density_diffrn 1.598
_exptl_special_details
;
Isostructural with the potassium and ammonium analogues

;
_diffrn_ambient_temperature ?
_diffrn_special_details
;
The study was carried out at room temperature,in the range 283-303K

;
#These two values have been output from a single CSD field.
_refine_ls_R_factor_gt 0.056
_refine_ls_wR_factor_gt 0.056
_symmetry_cell_setting triclinic
_symmetry_space_group_name_H-M 'P -1'
_symmetry_Int_Tables_number 2
loop_
_symmetry_equiv_pos_site_id
_symmetry_equiv_pos_as_xyz
1 x,y,z
2 -x,-y,-z
_cell_length_a 7.725(2)
_cell_length_b 10.596(3)
_cell_length_c 12.892(3)
_cell_angle_alpha 102.75(2)
_cell_angle_beta 104.64(2)
_cell_angle_gamma 110.59(2)
_cell_formula_units_Z 1
loop_
_atom_type_symbol
_atom_type_radius_bond
C 0.68
H 0.23
Mn 1.35
Na 0.97
O 0.68
loop_
_atom_site_label
_atom_site_type_symbol
_atom_site_fract_x
_atom_site_fract_y
_atom_site_fract_z
Mn1 Mn 0.00000 0.00000 1.00000
Mn2 Mn 0.50000 0.50000 1.00000
Na1 Na 0.0132(4) 0.3075(3) 0.9460(2)
O1 O 0.1569(6) -0.0400(5) 1.1129(4)
O2 O 0.1954(6) 0.1937(5) 1.0411(4)
O3 O 0.5078(6) 0.3482(5) 1.0964(4)
O4 O 0.2784(6) 0.3642(5) 0.8716(4)
O5 O 0.6834(6) 0.4583(5) 0.9372(4)
O6 O 0.7841(7) 0.3497(6) 0.8164(4)
C1 C 0.4336(9) 0.1960(7) 1.2026(6)
C2 C 0.3226(9) 0.0588(7) 1.2015(5)
C3 C 0.3875(10) 0.0201(8) 1.2957(8)
C4 C 0.5541(11) 0.1126(9) 1.3889(6)
C5 C 0.6632(11) 0.2490(9) 1.3891(6)
C6 C 0.6034(10) 0.2878(8) 1.2955(6)
C7 C 0.3784(9) 0.2475(7) 1.1082(6)
C8 C 0.2808(10) 0.3156(7) 0.7680(6)
C9 C 0.4504(10) 0.3136(8) 0.7468(6)
C10 C 0.4305(12) 0.2483(11) 0.6347(7)
C11 C 0.2541(13) 0.1919(13) 0.5454(7)
C12 C 0.0882(12) 0.1978(12) 0.5686(7)
C13 C 0.1006(10) 0.2563(9) 0.6744(6)
C14 C 0.6492(10) 0.3765(8) 0.8375(6)
O7 O 0.1336(11) -0.0774(7) 0.8835(6)
C15 C 0.2130(22) -0.0165(14) 0.8112(12)
O8 O -0.0961(22) 0.5215(17) 0.6799(12)
C16 C -0.2203(33) 0.5829(22) 0.6299(22)
O9 O -0.1217(8) 0.3290(6) 1.1011(5)
H1 H 0.30350 -0.08670 1.29410
H2 H 0.60030 0.07990 1.46090
H3 H 0.79210 0.32540 1.46230
H4 H 0.69170 0.39270 1.29510
H5 H 0.55840 0.24250 0.61830
H6 H 0.24340 0.14540 0.45900
H7 H -0.05330 0.15340 0.49930
H8 H -0.02940 0.25880 0.68910
H9 H 0.26320 -0.08610 0.76550
H10 H 0.33020 0.08700 0.85810
H11 H 0.09430 -0.00860 0.74860
H12 H -0.20620 0.67690 0.68850
H13 H -0.37510 0.50510 0.58910
H14 H -0.17580 0.61410 0.55880
O1A O -0.1569(6) 0.0400(5) 0.8871(4)
O2A O -0.1954(6) -0.1937(5) 0.9589(4)
O7A O -0.1336(11) 0.0774(7) 1.1165(6)
C15A C -0.2130(22) 0.0165(14) 1.1888(12)
H9A H -0.26320 0.08610 1.23450
H10A H -0.33020 -0.08700 1.14190
H11A H -0.09430 0.00860 1.25140
O3A O 0.4922(6) 0.6518(5) 0.9036(4)
O4A O 0.7216(6) 0.6358(5) 1.1284(4)
O5A O 0.3166(6) 0.5417(5) 1.0628(4)
C7A C 0.6216(9) 0.7525(7) 0.8918(6)
C8A C 0.7192(10) 0.6844(7) 1.2320(6)
C14A C 0.3508(10) 0.6235(8) 1.1625(6)
O2A* O 0.8046(6) 0.8063(5) 0.9589(4)
C1A C 0.5664(9) 0.8040(7) 0.7974(6)
C9A C 0.5496(10) 0.6864(8) 1.2532(6)
C13A C 0.8994(10) 0.7437(9) 1.3256(6)
O6A O 0.2159(7) 0.6503(6) 1.1836(4)
Mn1* Mn 1.00000 1.00000 1.00000
C2A C 0.6774(9) 0.9412(7) 0.7985(5)
C6A C 0.3966(10) 0.7122(8) 0.7045(6)
C10A C 0.5695(12) 0.7517(11) 1.3653(7)
C12A C 0.9118(12) 0.8022(12) 1.4314(7)
H8A H 1.02940 0.74120 1.31090
O1A* O 0.8431(6) 1.0400(5) 0.8871(4)
C3A C 0.6125(10) 0.9799(8) 0.7043(8)
C5A C 0.3368(11) 0.7510(9) 0.6109(6)
H4A H 0.30830 0.60730 0.70490
C11A C 0.7459(13) 0.8081(13) 1.4546(7)
H5A H 0.44160 0.75750 1.38170
H7A H 1.05330 0.84660 1.50070
C4A C 0.4459(11) 0.8874(9) 0.6111(6)
H1A H 0.69650 1.08670 0.70590
H3A H 0.20790 0.67460 0.53770
H6A H 0.75660 0.85460 1.54100
H2A H 0.39970 0.92010 0.53910
#END
