
#######################################################################
#
#                 Cambridge Crystallographic Data Centre
#                                CCDC
#
#######################################################################
#
# If this CIF has been generated from an entry in the Cambridge
# Structural Database, then it will include bibliographic, chemical,
# crystal, experimental, refinement or atomic coordinate data resulting
# from the CCDC's data processing and validation procedures.
#
#######################################################################

data_CSD_CIF_JOCXOO
_audit_creation_date 1992-09-08
_audit_creation_method CSD-ConQuest-V1
_database_code_CSD JOCXOO
_chemical_formula_sum 'C32 H36 K2 Mn2 O18'
_chemical_formula_moiety
;
(C30 H24 Mn2 O14 2-)n,2n(K1 1+),2n(C1 H4 O1),2n(H2 O1)
;
_journal_coden_Cambridge 9
_journal_volume 30
_journal_year 1991
_journal_page_first 3900
_journal_name_full 'Inorg.Chem. '
loop_
_publ_author_name
"M.L.Kirk"
"Myoung Soo Lah"
"C.Raptopoulou"
"D.P.Kessissoglou"
"W.E.Hatfield"
"V.L.Pecoraro"
_chemical_name_systematic
;
catena(Di-potassium tetrakis(\m~2~-salicylato)-dimethanol-di-manganese(iii) 
methanol solvate dihydrate)
;
_cell_volume    949.801
_exptl_crystal_colour 'pale green'
_exptl_crystal_density_diffrn 1.572
_exptl_special_details
;
Isostructural with the sodium and ammonium analogues

;
_diffrn_ambient_temperature ?
_diffrn_special_details
;
The study was carried out at room temperature,in the range 283-303K

;
#These two values have been output from a single CSD field.
_refine_ls_R_factor_gt 0.034
_refine_ls_wR_factor_gt 0.034
_symmetry_cell_setting triclinic
_symmetry_space_group_name_H-M 'P -1'
_symmetry_Int_Tables_number 2
loop_
_symmetry_equiv_pos_site_id
_symmetry_equiv_pos_as_xyz
1 x,y,z
2 -x,-y,-z
_cell_length_a 8.060(3)
_cell_length_b 10.784(3)
_cell_length_c 12.778(3)
_cell_angle_alpha 103.40(2)
_cell_angle_beta 104.15(2)
_cell_angle_gamma 109.96(2)
_cell_formula_units_Z 1
loop_
_atom_type_symbol
_atom_type_radius_bond
C 0.68
H 0.23
K 1.33
Mn 1.35
O 0.68
loop_
_atom_site_label
_atom_site_type_symbol
_atom_site_fract_x
_atom_site_fract_y
_atom_site_fract_z
Mn1 Mn 0.00000 0.00000 1.00000
Mn2 Mn 0.50000 0.50000 1.00000
K1 K -0.0066(1) 0.3238(1) 0.9533(1)
O1 O 0.1511(4) -0.0356(3) 1.1150(2)
O2 O 0.1869(4) 0.1885(3) 1.0412(2)
O3 O 0.4815(4) 0.3437(3) 1.0970(3)
O4 O 0.2825(3) 0.3803(3) 0.8717(2)
O5 O 0.6558(4) 0.4389(3) 0.9287(2)
O6 O 0.7521(4) 0.3621(3) 0.7921(3)
C1 C 0.4178(5) 0.1925(4) 1.2028(3)
C2 C 0.3108(5) 0.0574(4) 1.2014(3)
C3 C 0.3779(6) 0.0157(4) 1.2926(4)
C4 C 0.5421(6) 0.1050(5) 1.3833(4)
C5 C 0.6462(6) 0.2406(5) 1.3873(4)
C6 C 0.5833(6) 0.2817(4) 1.2962(4)
C7 C 0.3606(6) 0.2440(4) 1.1086(4)
C8 C 0.2737(6) 0.3214(4) 0.7655(4)
C9 C 0.4284(6) 0.3145(4) 0.7365(4)
C10 C 0.4010(6) 0.2458(5) 0.6228(4)
C11 C 0.2250(7) 0.1840(6) 0.5365(4)
C12 C 0.0737(7) 0.1934(5) 0.5659(4)
C13 C 0.0966(6) 0.2610(5) 0.6767(4)
C14 C 0.6217(6) 0.3747(4) 0.8227(4)
O7 O 0.1353(5) -0.0756(4) 0.8818(3)
C15 C 0.2102(10) -0.0085(7) 0.8121(6)
O8 O -0.1002(6) 0.5109(4) 0.6658(4)
C16 C -0.2045(11) 0.5787(8) 0.6213(6)
O9 O -0.1632(5) 0.3187(4) 1.1213(4)
H1 H 0.29940 -0.08840 1.29180
H2 H 0.59140 0.07000 1.45240
H3 H 0.77300 0.31180 1.46000
H4 H 0.66440 0.38550 1.29750
H5 H 0.52050 0.24050 0.60120
H6 H 0.20600 0.13010 0.44900
H7 H -0.06470 0.14640 0.50010
H8 H -0.02340 0.26810 0.69640
H9 H 0.26580 -0.07050 0.76470
H10 H 0.32210 0.09400 0.86510
H11 H 0.10070 0.00340 0.75260
H12 H -0.18630 0.66800 0.68980
H13 H -0.35200 0.50650 0.58230
H14 H -0.15590 0.61400 0.55730
H15 H -0.0814(63) 0.3874(47) 1.1943(38)
H16 H -0.2379(68) 0.3405(55) 1.1205(45)
O1A O -0.1511(4) 0.0356(3) 0.8850(2)
O2A O -0.1869(4) -0.1885(3) 0.9588(2)
O7A O -0.1353(5) 0.0756(4) 1.1182(3)
C15A C -0.2102(10) 0.0085(7) 1.1879(6)
H9A H -0.26580 0.07050 1.23530
H10A H -0.32210 -0.09400 1.13490
H11A H -0.10070 -0.00340 1.24740
O3A O 0.5185(4) 0.6563(3) 0.9030(3)
O4A O 0.7175(3) 0.6197(3) 1.1283(2)
O5A O 0.3442(4) 0.5611(3) 1.0713(2)
C7A C 0.6394(6) 0.7560(4) 0.8914(4)
C8A C 0.7263(6) 0.6786(4) 1.2345(4)
C14A C 0.3783(6) 0.6253(4) 1.1773(4)
O2A* O 0.8131(4) 0.8115(3) 0.9588(2)
C1A C 0.5822(5) 0.8075(4) 0.7972(3)
C9A C 0.5716(6) 0.6855(4) 1.2635(4)
C13A C 0.9034(6) 0.7390(5) 1.3233(4)
O6A O 0.2479(4) 0.6379(3) 1.2079(3)
Mn1* Mn 1.00000 1.00000 1.00000
C2A C 0.6892(5) 0.9426(4) 0.7986(3)
C6A C 0.4167(6) 0.7183(4) 0.7038(4)
C10A C 0.5990(6) 0.7542(5) 1.3772(4)
C12A C 0.9263(7) 0.8066(5) 1.4341(4)
H8A H 1.02340 0.73190 1.30360
O1A* O 0.8489(4) 1.0356(3) 0.8850(2)
C3A C 0.6221(6) 0.9843(4) 0.7074(4)
C5A C 0.3538(6) 0.7594(5) 0.6127(4)
H4A H 0.33560 0.61450 0.70250
C11A C 0.7750(7) 0.8160(6) 1.4635(4)
H5A H 0.47950 0.75950 1.39880
H7A H 1.06470 0.85360 1.49990
C4A C 0.4579(6) 0.8950(5) 0.6167(4)
H1A H 0.70060 1.08840 0.70820
H3A H 0.22700 0.68820 0.54000
H6A H 0.79400 0.86990 1.55100
H2A H 0.40860 0.93000 0.54760
#END
