
#######################################################################
#
#                 Cambridge Crystallographic Data Centre
#                                CCDC
#
#######################################################################
#
# If this CIF has been generated from an entry in the Cambridge
# Structural Database, then it will include bibliographic, chemical,
# crystal, experimental, refinement or atomic coordinate data resulting
# from the CCDC's data processing and validation procedures.
#
#######################################################################

data_CSD_CIF_JOCZIN
_audit_creation_date 2019-04-24
_audit_creation_method CSD-ConQuest-V1
_database_code_CSD JOCZIN
_database_code_depnum_ccdc_archive 'CCDC 1904166'
_chemical_formula_sum 'C52 H48 Cu1 N5 O16 U2'
_chemical_formula_moiety
;
(C30 H24 O16 U2 2-)n,n(C20 H16 Cu1 N4 1+),n(C2 H8 N1 1+)
;
_journal_coden_Cambridge 9
_journal_volume 58
_journal_year 2019
_journal_page_first 6550
_journal_name_full 'Inorg.Chem. '
loop_
_publ_author_name
"P.Thuery"
"Y.Atoini"
"J.Harrowfield"
_chemical_name_systematic
;
catena-(bis(2,2'-bipyridine)-copper(i) dimethylammonium 
tris(\m-2,2'-(1,4-phenylene)diacetato)-tetraoxo-di-uranium)
;
_cell_volume   2667.374
_exptl_crystal_colour 'orange'
_exptl_crystal_density_diffrn 1.916
_exptl_crystal_description 'platelet'
_diffrn_ambient_temperature 100
#These two values have been output from a single CSD field.
_refine_ls_R_factor_gt 0.0292
_refine_ls_wR_factor_gt 0.0292
_symmetry_cell_setting monoclinic
_symmetry_space_group_name_H-M 'P 2/n'
_symmetry_Int_Tables_number 13
loop_
_symmetry_equiv_pos_site_id
_symmetry_equiv_pos_as_xyz
1 x,y,z
2 1/2-x,y,1/2-z
3 -x,-y,-z
4 -1/2+x,-y,-1/2+z
_cell_length_a 17.1560(7)
_cell_length_b 7.9076(4)
_cell_length_c 20.6059(7)
_cell_angle_alpha 90
_cell_angle_beta 107.411(3)
_cell_angle_gamma 90
_cell_formula_units_Z 2
loop_
_atom_type_symbol
_atom_type_radius_bond
C 0.68
H 0.23
Cu 1.32
N 0.68
O 0.68
U 1.96
loop_
_atom_site_label
_atom_site_type_symbol
_atom_site_fract_x
_atom_site_fract_y
_atom_site_fract_z
U1 U 0.62565(2) 0.14079(2) 0.31598(2)
O1 O 0.63842(19) 0.2358(5) 0.24223(16)
O2 O 0.6112(2) 0.0440(5) 0.38909(16)
O3 O 0.75992(18) 0.2374(4) 0.38505(17)
O4 O 0.75666(18) -0.0117(5) 0.33767(16)
O5 O 1.10935(19) 0.1430(4) 0.76169(17)
O6 O 0.99777(19) -0.0039(5) 0.74549(17)
O7 O 0.5058(2) 0.3193(5) 0.30698(17)
O8 O 0.62501(19) 0.4252(5) 0.36409(17)
C1 C 0.9124(3) 0.1422(6) 0.4828(2)
C2 C 0.8760(3) 0.0661(7) 0.5275(2)
H1 H 0.83520 -0.01770 0.51090
C3 C 0.8983(3) 0.1104(7) 0.5955(2)
H2 H 0.87260 0.05710 0.62500
C4 C 0.9579(3) 0.2320(7) 0.6210(2)
C5 C 0.9933(3) 0.3105(7) 0.5769(3)
H3 H 1.03370 0.39510 0.59360
C6 C 0.9706(3) 0.2670(7) 0.5081(2)
H4 H 0.99510 0.32310 0.47840
C7 C 0.8877(3) 0.0906(7) 0.4089(2)
H5 H 0.90450 -0.02800 0.40550
H6 H 0.91680 0.16260 0.38440
C8 C 0.7959(3) 0.1066(7) 0.3752(2)
C9 C 0.9846(3) 0.2738(7) 0.6966(2)
H7 H 1.01860 0.37740 0.70480
H8 H 0.93590 0.29560 0.71170
C10 C 1.0327(3) 0.1298(7) 0.7367(2)
C11 C 0.5021(3) 0.5463(6) 0.4349(2)
C12 C 0.4393(3) 0.4441(7) 0.4434(2)
H9 H 0.39810 0.40430 0.40450
C13 C 0.4365(3) 0.4004(7) 0.5076(3)
H10 H 0.39260 0.33380 0.51260
C14 C 0.5073(3) 0.5862(8) 0.3645(3)
H11 H 0.45200 0.60360 0.33250
H12 H 0.53970 0.69020 0.36550
C15 C 0.5480(3) 0.4371(7) 0.3426(2)
Cu1 Cu 0.25000 0.65572(13) 0.25000
N1 N 0.2892(3) 0.5357(6) 0.1791(3)
N2 N 0.1863(2) 0.7900(6) 0.1676(2)
C16 C 0.3409(4) 0.4032(9) 0.1878(4)
H13 H 0.36230 0.35690 0.23210
C17 C 0.3639(4) 0.3320(9) 0.1353(5)
H14 H 0.40180 0.24100 0.14380
C18 C 0.3317(4) 0.3938(9) 0.0705(5)
H15 H 0.34630 0.34410 0.03370
C19 C 0.2774(3) 0.5297(8) 0.0588(4)
H16 H 0.25420 0.57400 0.01430
C20 C 0.2581(3) 0.5988(8) 0.1148(4)
C21 C 0.2014(3) 0.7457(7) 0.1088(3)
C22 C 0.1654(3) 0.8275(7) 0.0481(3)
H17 H 0.17710 0.79390 0.00770
C23 C 0.1122(3) 0.9587(7) 0.0470(3)
H18 H 0.08700 1.01660 0.00560
C24 C 0.0956(3) 1.0057(7) 0.1056(3)
H19 H 0.05840 1.09480 0.10540
C25 C 0.1345(3) 0.9198(7) 0.1651(3)
H20 H 0.12410 0.95390 0.20590
N3 N 1.25000 0.3087(8) 0.75000
H21 H 1.20600 0.24570 0.75470
C26 C 1.2155(4) 0.4102(9) 0.6875(3)
H22 H 1.25910 0.47630 0.67790
H23 H 1.17360 0.48680 0.69400
H24 H 1.19100 0.33440 0.64910
O7B O 0.4942(2) 0.6807(5) 0.69302(17)
O8B O 0.37499(19) 0.5748(5) 0.63591(17)
C11B C 0.4979(3) 0.4537(6) 0.5651(2)
C12B C 0.5607(3) 0.5559(7) 0.5566(2)
H9B H 0.60190 0.59570 0.59550
C13B C 0.5635(3) 0.5996(7) 0.4924(3)
H10B H 0.60740 0.66620 0.48740
C14B C 0.4927(3) 0.4138(8) 0.6355(3)
H11B H 0.54800 0.39640 0.66750
H12B H 0.46030 0.30980 0.63450
C15B C 0.4520(3) 0.5629(7) 0.6574(2)
U1B U 0.37435(2) 0.85921(2) 0.68402(2)
O1B O 0.36158(19) 0.7642(5) 0.75777(16)
O2B O 0.3888(2) 0.9560(5) 0.61091(16)
O3B O 0.24008(18) 0.7626(4) 0.61495(17)
O4B O 0.24334(18) 1.0117(5) 0.66233(16)
O5B O -0.10935(19) 0.8570(4) 0.23831(17)
O6B O 0.00223(19) 1.0039(5) 0.25451(17)
C1B C 0.0876(3) 0.8578(6) 0.5172(2)
C2B C 0.1240(3) 0.9339(7) 0.4725(2)
H1B H 0.16480 1.01770 0.48910
C3B C 0.1017(3) 0.8896(7) 0.4045(2)
H2B H 0.12740 0.94290 0.37500
C4B C 0.0421(3) 0.7680(7) 0.3790(2)
C5B C 0.0067(3) 0.6895(7) 0.4231(3)
H3B H -0.03370 0.60490 0.40640
C6B C 0.0294(3) 0.7330(7) 0.4919(2)
H4B H 0.00490 0.67690 0.52160
C7B C 0.1123(3) 0.9094(7) 0.5911(2)
H5B H 0.09550 1.02800 0.59450
H6B H 0.08320 0.83740 0.61560
C8B C 0.2041(3) 0.8934(7) 0.6248(2)
C9B C 0.0154(3) 0.7262(7) 0.3034(2)
H7B H -0.01860 0.62260 0.29520
H8B H 0.06410 0.70440 0.28830
C10B C -0.0327(3) 0.8702(7) 0.2633(2)
U1A U -0.12565(2) 1.14079(2) 0.18402(2)
U1C U 1.12565(2) -0.14079(2) 0.81598(2)
O5A O 0.39065(19) 1.1430(4) 0.73831(17)
O5C O 0.60935(19) -0.1430(4) 0.26169(17)
O6A O 0.50223(19) 0.9961(5) 0.75451(17)
O6C O 0.49777(19) 0.0039(5) 0.24549(17)
N1A N 0.2108(3) 0.5357(6) 0.3209(3)
N2A N 0.3137(2) 0.7900(6) 0.3324(2)
C16A C 0.1591(4) 0.4032(9) 0.3122(4)
H13A H 0.13770 0.35690 0.26790
C17A C 0.1361(4) 0.3320(9) 0.3647(5)
H14A H 0.09820 0.24100 0.35620
C18A C 0.1683(4) 0.3938(9) 0.4295(5)
H15A H 0.15370 0.34410 0.46630
C19A C 0.2226(3) 0.5297(8) 0.4412(4)
H16A H 0.24580 0.57400 0.48570
C20A C 0.2419(3) 0.5988(8) 0.3852(4)
C21A C 0.2986(3) 0.7457(7) 0.3912(3)
C22A C 0.3346(3) 0.8275(7) 0.4519(3)
H17A H 0.32290 0.79390 0.49230
C23A C 0.3878(3) 0.9587(7) 0.4530(3)
H18A H 0.41300 1.01660 0.49440
C24A C 0.4044(3) 1.0057(7) 0.3944(3)
H19A H 0.44160 1.09480 0.39460
C25A C 0.3655(3) 0.9198(7) 0.3349(3)
H20A H 0.37590 0.95390 0.29410
H21A H 1.29400 0.24570 0.74530
C26A C 1.2845(4) 0.4102(9) 0.8125(3)
H22A H 1.24090 0.47630 0.82210
H23A H 1.32640 0.48680 0.80600
H24A H 1.30900 0.33440 0.85090
#END
