
#######################################################################
#
#                 Cambridge Crystallographic Data Centre
#                                CCDC
#
#######################################################################
#
# If this CIF has been generated from an entry in the Cambridge
# Structural Database, then it will include bibliographic, chemical,
# crystal, experimental, refinement or atomic coordinate data resulting
# from the CCDC's data processing and validation procedures.
#
#######################################################################

data_CSD_CIF_JOCZUZ
_audit_creation_date 2019-04-24
_audit_creation_method CSD-ConQuest-V1
_database_code_CSD JOCZUZ
_database_code_depnum_ccdc_archive 'CCDC 1904168'
_chemical_formula_sum 'C60 H48 N6 O16 U2 Zn1'
_chemical_formula_moiety
;
(C30 H24 O16 U2 2-)n,n(C30 H24 N6 Zn1 2+)
;
_journal_coden_Cambridge 9
_journal_volume 58
_journal_year 2019
_journal_page_first 6550
_journal_name_full 'Inorg.Chem. '
loop_
_publ_author_name
"P.Thuery"
"Y.Atoini"
"J.Harrowfield"
_chemical_name_systematic
;
catena-(tris(2,2'-bipyridine)-zinc(ii) 
tris(\m-2,2'-(1,3-phenylene)diacetato)-tetraoxo-di-uranium)
;
_cell_volume   5604.637
_exptl_crystal_colour 'light yellow'
_exptl_crystal_density_diffrn 1.956
_exptl_crystal_description 'lath'
_diffrn_ambient_temperature 100
_diffrn_special_details
;
twin

;
#These two values have been output from a single CSD field.
_refine_ls_R_factor_gt 0.0335
_refine_ls_wR_factor_gt 0.0335
_symmetry_cell_setting orthorhombic
_symmetry_space_group_name_H-M 'P n a 21'
_symmetry_Int_Tables_number 33
loop_
_symmetry_equiv_pos_site_id
_symmetry_equiv_pos_as_xyz
1 x,y,z
2 -x,-y,1/2+z
3 1/2+x,1/2-y,z
4 1/2-x,1/2+y,1/2+z
_cell_length_a 18.1452(8)
_cell_length_b 22.1979(9)
_cell_length_c 13.9147(3)
_cell_angle_alpha 90
_cell_angle_beta 90
_cell_angle_gamma 90
_cell_formula_units_Z 4
loop_
_atom_type_symbol
_atom_type_radius_bond
C 0.68
H 0.23
N 0.68
O 0.68
U 1.96
Zn 1.22
loop_
_atom_site_label
_atom_site_type_symbol
_atom_site_fract_x
_atom_site_fract_y
_atom_site_fract_z
U1 U 0.19803(2) 0.65327(2) 0.12059(3)
U2 U 0.29329(2) 0.29619(2) 0.13076(3)
O1 O 0.2367(4) 0.5802(3) 0.1185(7)
O2 O 0.1606(3) 0.7266(3) 0.1247(8)
O3 O 0.3291(4) 0.3700(3) 0.1399(6)
O4 O 0.2562(3) 0.2228(3) 0.1178(7)
O5 O 0.0849(6) 0.6085(5) 0.0438(6)
O6 O 0.0909(6) 0.6124(5) 0.2023(6)
O7 O 0.1731(5) 0.3156(4) 0.2127(6)
O8 O 0.1832(5) 0.3406(4) 0.0595(6)
O9 O 0.2096(7) 0.6555(5) 0.3007(9)
O10 O 0.3044(5) 0.6860(5) 0.2172(6)
O11 O 0.6949(6) 0.6963(5) 0.4553(9)
O12 O 0.5997(6) 0.7346(4) 0.5306(5)
O13 O 0.3979(5) 0.2589(4) 0.2241(5)
O14 O 0.3034(7) 0.2916(5) 0.3096(9)
O15 O 0.6971(5) 0.3174(5) 0.5205(5)
O16 O 0.7979(5) 0.3420(4) 0.444(1)
C1 C 0.0029(6) 0.5005(5) 0.1890(7)
C2 C 0.0260(5) 0.4499(4) 0.1396(10)
H1 H 0.03322 0.45263 0.07210
C3 C 0.0390(6) 0.3959(5) 0.1846(7)
C4 C 0.0280(6) 0.3927(6) 0.2841(8)
H2 H 0.03555 0.35564 0.31690
C5 C 0.0063(6) 0.4431(5) 0.3347(8)
H3 H -0.00098 0.44060 0.40223
C6 C -0.0050(6) 0.4969(5) 0.2881(8)
H4 H -0.01815 0.53176 0.32381
C7 C -0.0113(5) 0.5591(4) 0.1345(12)
H5 H -0.02980 0.54986 0.06921
H6 H -0.04950 0.58290 0.16840
C8 C 0.0584(5) 0.5953(4) 0.1274(11)
C9 C 0.0610(5) 0.3393(4) 0.1311(11)
H7 H 0.04406 0.34195 0.06357
H8 H 0.03697 0.30389 0.16104
C10 C 0.1440(5) 0.3313(4) 0.1335(11)
C11 C 0.3806(6) 0.7280(5) 0.3787(8)
C12 C 0.4527(8) 0.7079(7) 0.3761(8)
H9 H 0.46224 0.66611 0.38418
C13 C 0.5120(6) 0.7469(6) 0.3621(7)
C14 C 0.4981(7) 0.8075(6) 0.3538(8)
H10 H 0.53740 0.83507 0.34376
C15 C 0.4256(6) 0.8283(6) 0.3601(9)
H11 H 0.41637 0.87029 0.35528
C16 C 0.3676(6) 0.7898(5) 0.3730(8)
H12 H 0.31881 0.80510 0.37808
C17 C 0.3157(8) 0.6846(6) 0.3881(9)
H13 H 0.33437 0.64518 0.41078
H14 H 0.28157 0.70028 0.43769
C18 C 0.2745(8) 0.6753(7) 0.2990(8)
C19 C 0.5913(8) 0.7237(8) 0.3576(8)
H15 H 0.62017 0.75098 0.31573
H16 H 0.59099 0.68350 0.32689
C20 C 0.6313(9) 0.7185(7) 0.4555(8)
C21 C 0.4784(6) 0.3193(5) 0.3830(7)
C22 C 0.5499(7) 0.3023(6) 0.3685(7)
H17 H 0.56117 0.26065 0.36362
C23 C 0.6076(6) 0.3448(5) 0.3607(7)
C24 C 0.5893(6) 0.4063(5) 0.3672(8)
H18 H 0.62687 0.43599 0.36233
C25 C 0.5180(7) 0.4233(5) 0.3803(9)
H19 H 0.50588 0.46479 0.38523
C26 C 0.4634(6) 0.3806(5) 0.3866(7)
H20 H 0.41374 0.39340 0.39361
C27 C 0.4181(7) 0.2733(7) 0.3932(8)
H21 H 0.43993 0.23264 0.40057
H22 H 0.38847 0.28208 0.45121
C28 C 0.3704(8) 0.2747(7) 0.3071(8)
C29 C 0.6873(7) 0.3247(7) 0.3487(8)
H23 H 0.71124 0.35000 0.29921
H24 H 0.68800 0.28247 0.32565
C30 C 0.7322(9) 0.3290(7) 0.4439(8)
Zn1 Zn 0.80113(6) 0.03023(5) 0.61373(10)
N1 N 0.7348(5) 0.1070(4) 0.5846(6)
N2 N 0.8010(5) 0.0331(5) 0.4579(7)
N3 N 0.9047(4) 0.0741(3) 0.6317(8)
N4 N 0.8782(4) -0.0439(3) 0.6182(8)
N5 N 0.7708(5) 0.0234(4) 0.7611(7)
N6 N 0.7082(4) -0.0300(4) 0.6110(7)
C31 C 0.7043(6) 0.1442(5) 0.6493(8)
H25 H 0.71765 0.13994 0.71498
C32 C 0.6541(5) 0.1886(4) 0.6242(10)
H26 H 0.63261 0.21361 0.67193
C33 C 0.6358(6) 0.1957(5) 0.5277(8)
H27 H 0.60126 0.22563 0.50879
C34 C 0.6680(6) 0.1593(5) 0.4600(7)
H28 H 0.65711 0.16413 0.39369
C35 C 0.7171(6) 0.1150(5) 0.4907(7)
C36 C 0.7510(7) 0.0708(5) 0.4214(7)
C37 C 0.7305(7) 0.0672(6) 0.3243(8)
H29 H 0.69491 0.09429 0.29891
C38 C 0.7619(8) 0.0245(5) 0.2666(9)
H30 H 0.74775 0.02100 0.20111
C39 C 0.8152(7) -0.0138(5) 0.3054(8)
H31 H 0.83844 -0.04339 0.26655
C40 C 0.8333(6) -0.0081(5) 0.4007(8)
H32 H 0.86976 -0.03390 0.42717
C41 C 0.9141(5) 0.1340(4) 0.6334(9)
H33 H 0.87190 0.15929 0.63622
C42 C 0.9838(5) 0.1603(4) 0.6311(10)
H34 H 0.98872 0.20286 0.63267
C43 C 1.0455(5) 0.1243(4) 0.6265(12)
H35 H 1.09335 0.14149 0.62367
C44 C 1.0361(5) 0.0618(4) 0.6262(11)
H36 H 1.07780 0.03600 0.62536
C45 C 0.9652(5) 0.0375(4) 0.6272(12)
C46 C 0.9500(5) -0.0285(4) 0.6255(10)
C47 C 1.0051(5) -0.0718(4) 0.6320(12)
H37 H 1.05519 -0.06011 0.63866
C48 C 0.9862(5) -0.1319(4) 0.6285(12)
H38 H 1.02334 -0.16198 0.63212
C49 C 0.9136(5) -0.1483(4) 0.6197(10)
H39 H 0.89959 -0.18945 0.61586
C50 C 0.8613(5) -0.1029(4) 0.6167(10)
H40 H 0.81084 -0.11398 0.61344
C51 C 0.7969(8) 0.0576(6) 0.8329(9)
H41 H 0.83574 0.08516 0.82006
C52 C 0.7682(7) 0.0538(5) 0.9269(8)
H42 H 0.78569 0.08006 0.97572
C53 C 0.7157(7) 0.0124(5) 0.9471(8)
H43 H 0.69722 0.00847 1.01065
C54 C 0.6887(6) -0.0245(5) 0.8736(8)
H44 H 0.65207 -0.05407 0.88626
C55 C 0.7170(6) -0.0168(5) 0.7812(8)
C56 C 0.6890(7) -0.0514(6) 0.6965(8)
C57 C 0.6473(8) -0.1037(6) 0.7060(9)
H45 H 0.63540 -0.11878 0.76799
C58 C 0.6232(5) -0.1337(4) 0.6238(11)
H46 H 0.59546 -0.16977 0.62977
C59 C 0.6392(8) -0.1117(6) 0.5355(8)
H47 H 0.62197 -0.13085 0.47870
C60 C 0.6816(8) -0.0602(7) 0.5319(8)
H48 H 0.69327 -0.04436 0.47034
U1A U 0.80197(2) 0.34673(2) 0.62059(3)
U2A U 0.70671(2) 0.70381(2) 0.63076(3)
O11A O 0.3051(6) 0.3037(5) -0.0447(9)
O12A O 0.4003(6) 0.2654(4) 0.0306(5)
O15A O 0.3029(5) 0.6826(5) 0.0205(5)
O16A O 0.2021(5) 0.6580(4) -0.056(1)
#END
