
#######################################################################
#
#                 Cambridge Crystallographic Data Centre
#                                CCDC
#
#######################################################################
#
# If this CIF has been generated from an entry in the Cambridge
# Structural Database, then it will include bibliographic, chemical,
# crystal, experimental, refinement or atomic coordinate data resulting
# from the CCDC's data processing and validation procedures.
#
#######################################################################

data_CSD_CIF_JOCZAF
_audit_creation_date 2019-04-24
_audit_creation_method CSD-ConQuest-V1
_database_code_CSD JOCZAF
_database_code_depnum_ccdc_archive 'CCDC 1904164'
_chemical_formula_sum 'C66 H48 N6 O16 U2 Zn1'
_chemical_formula_moiety
;
(C30 H24 O16 U2 2-)n,n(C36 H24 N6 Zn1 2+)
;
_journal_coden_Cambridge 9
_journal_volume 58
_journal_year 2019
_journal_page_first 6550
_journal_name_full 'Inorg.Chem. '
loop_
_publ_author_name
"P.Thuery"
"Y.Atoini"
"J.Harrowfield"
_chemical_name_systematic
;
catena-(tris(1,10-phenanthroline)-zinc(ii) 
tris(\m-2,2'-(1,3-phenylene)diacetato)-tetraoxo-di-uranium)
;
_cell_volume   5932.199
_exptl_crystal_colour 'light yellow'
_exptl_crystal_density_diffrn 1.929
_exptl_crystal_description 'parallelepiped'
_diffrn_ambient_temperature 100
#These two values have been output from a single CSD field.
_refine_ls_R_factor_gt 0.0329
_refine_ls_wR_factor_gt 0.0329
_symmetry_cell_setting monoclinic
_symmetry_space_group_name_H-M 'P 21/c'
_symmetry_Int_Tables_number 14
loop_
_symmetry_equiv_pos_site_id
_symmetry_equiv_pos_as_xyz
1 x,y,z
2 -x,1/2+y,1/2-z
3 -x,-y,-z
4 x,-1/2-y,-1/2+z
_cell_length_a 14.8585(4)
_cell_length_b 14.8241(3)
_cell_length_c 27.4020(8)
_cell_angle_alpha 90
_cell_angle_beta 100.6245(17)
_cell_angle_gamma 90
_cell_formula_units_Z 4
loop_
_atom_type_symbol
_atom_type_radius_bond
C 0.68
H 0.23
N 0.68
O 0.68
U 1.96
Zn 1.22
loop_
_atom_site_label
_atom_site_type_symbol
_atom_site_fract_x
_atom_site_fract_y
_atom_site_fract_z
U1 U 0.58390(2) 0.79277(2) 0.44942(2)
U2 U 1.05257(2) 0.33031(2) 0.70960(2)
O1 O 0.4735(2) 0.8105(3) 0.46363(13)
O2 O 0.6942(2) 0.7732(3) 0.43510(13)
O3 O 0.9872(2) 0.3603(3) 0.75486(11)
O4 O 1.1180(2) 0.3009(3) 0.66406(11)
O5 O 0.6213(2) 0.6797(3) 0.51580(12)
O6 O 0.5553(2) 0.6289(3) 0.44308(11)
O7 O 0.9329(2) 0.3954(3) 0.64546(11)
O8 O 1.0454(2) 0.4848(2) 0.67877(11)
O9 O 0.5188(3) 0.7490(3) 0.36225(12)
O10 O 0.5480(3) 0.8934(3) 0.37681(14)
O11 O 0.1836(2) 1.0749(3) 0.25112(11)
O12 O 0.1829(2) 1.2171(3) 0.27349(12)
O13 O 1.0429(2) 0.1733(3) 0.73586(12)
O14 O 0.9415(2) 0.2168(3) 0.67183(12)
O15 O 0.6239(3) -0.0465(3) 0.46679(13)
O16 O 0.6586(2) -0.1402(3) 0.52916(12)
C1 C 0.7195(3) 0.5036(4) 0.51533(17)
C2 C 0.7745(3) 0.5308(3) 0.55956(17)
H1 H 0.74650 0.55700 0.58460
C3 C 0.8683(3) 0.5209(4) 0.56822(17)
C4 C 0.9100(3) 0.4817(4) 0.53200(18)
H2 H 0.97440 0.47270 0.53780
C5 C 0.8561(3) 0.4556(4) 0.48707(18)
H3 H 0.88410 0.43070 0.46160
C6 C 0.7627(3) 0.4658(4) 0.47938(18)
H4 H 0.72680 0.44660 0.44880
C7 C 0.6169(3) 0.5186(4) 0.50470(18)
H5 H 0.58760 0.47560 0.47890
H6 H 0.59170 0.50760 0.53520
C8 C 0.5961(3) 0.6142(4) 0.48702(17)
C9 C 0.9277(3) 0.5491(4) 0.61641(17)
H7 H 0.97720 0.58860 0.60900
H8 H 0.89030 0.58500 0.63570
C10 C 0.9702(3) 0.4718(4) 0.64798(17)
C11 C 0.4773(4) 0.9565(5) 0.2826(2)
C12 C 0.4042(4) 0.9968(5) 0.2986(2)
H9 H 0.36540 0.96170 0.31510
C13 C 0.3859(4) 1.0926(5) 0.2904(2)
C14 C 0.4379(4) 1.1411(6) 0.2658(2)
H10 H 0.42480 1.20310 0.25930
C15 C 0.5148(4) 1.0992(6) 0.2488(2)
H11 H 0.55340 1.13410 0.23210
C16 C 0.5312(4) 1.0109(6) 0.2568(2)
H12 H 0.58080 0.98400 0.24480
C17 C 0.4983(5) 0.8499(6) 0.2923(2)
H13 H 0.44360 0.81430 0.27770
H14 H 0.54940 0.83150 0.27580
C18 C 0.5232(4) 0.8307(5) 0.3473(2)
C19 C 0.3101(3) 1.1288(4) 0.31216(17)
H15 H 0.32880 1.18820 0.32720
H16 H 0.30010 1.08810 0.33930
C20 C 0.2202(3) 1.1402(4) 0.27664(17)
C21 C 0.9085(3) 0.0341(4) 0.64095(18)
C22 C 0.8161(3) 0.0348(4) 0.61959(18)
H17 H 0.77230 0.05030 0.63950
C23 C 0.7859(3) 0.0134(4) 0.56950(18)
C24 C 0.8520(3) -0.0098(4) 0.54138(18)
H18 H 0.83330 -0.02470 0.50730
C25 C 0.9432(4) -0.0112(4) 0.56210(19)
H19 H 0.98710 -0.02710 0.54240
C26 C 0.9716(4) 0.0104(4) 0.61182(19)
H20 H 1.03500 0.00900 0.62600
C27 C 0.9420(4) 0.0591(4) 0.69499(18)
H21 H 0.89110 0.05190 0.71350
H22 H 0.99160 0.01730 0.70970
C28 C 0.9769(4) 0.1546(4) 0.70071(18)
C29 C 0.6852(4) 0.0182(4) 0.5467(2)
H23 H 0.67310 0.07520 0.52780
H24 H 0.64880 0.01910 0.57350
C30 C 0.6541(3) -0.0606(4) 0.51228(19)
Zn1 Zn 0.22604(3) 0.77712(4) 0.63211(2)
N1 N 0.2163(3) 0.9204(3) 0.64220(14)
N2 N 0.2330(3) 0.7908(3) 0.71267(14)
N3 N 0.3693(3) 0.7913(3) 0.62780(14)
N4 N 0.2731(2) 0.6399(3) 0.64211(13)
N5 N 0.1996(3) 0.7699(3) 0.54955(14)
N6 N 0.0795(3) 0.7665(3) 0.61273(14)
C31 C 0.2108(3) 0.9835(5) 0.6080(2)
H25 H 0.20740 0.96540 0.57440
C32 C 0.2096(4) 1.0765(5) 0.6186(2)
H26 H 0.20560 1.11990 0.59280
C33 C 0.2143(3) 1.1029(4) 0.6669(2)
H27 H 0.21410 1.16520 0.67500
C34 C 0.2195(3) 1.0378(4) 0.7044(2)
C35 C 0.2214(3) 0.9472(4) 0.69053(17)
C36 C 0.2304(3) 0.8774(4) 0.72719(17)
C37 C 0.2374(3) 0.9020(4) 0.77810(18)
C38 C 0.2335(3) 0.9947(5) 0.7906(2)
H28 H 0.23680 1.01110 0.82440
C39 C 0.2251(3) 1.0598(5) 0.7561(2)
H29 H 0.22290 1.12110 0.76580
C40 C 0.2460(4) 0.8325(5) 0.8129(2)
H30 H 0.24990 0.84590 0.84710
C41 C 0.2487(4) 0.7451(5) 0.79758(19)
H31 H 0.25500 0.69730 0.82110
C42 C 0.2420(3) 0.7267(4) 0.74717(18)
H32 H 0.24410 0.66560 0.73700
C43 C 0.4106(3) 0.8650(4) 0.61515(17)
H33 H 0.38210 0.92180 0.61730
C44 C 0.4939(3) 0.8623(4) 0.59891(17)
H34 H 0.51940 0.91550 0.58780
C45 C 0.5381(3) 0.7817(4) 0.59928(17)
H35 H 0.59540 0.77880 0.58870
C46 C 0.4999(3) 0.7029(4) 0.61520(17)
C47 C 0.4110(3) 0.7109(4) 0.62745(16)
C48 C 0.3634(3) 0.6306(4) 0.63737(15)
C49 C 0.4069(3) 0.5455(4) 0.63924(16)
C50 C 0.4994(3) 0.5419(4) 0.63063(17)
H36 H 0.53100 0.48580 0.63350
C51 C 0.5418(3) 0.6157(4) 0.61866(17)
H37 H 0.60220 0.61020 0.61220
C52 C 0.3559(3) 0.4690(4) 0.64733(17)
H38 H 0.38290 0.41070 0.64880
C53 C 0.2666(4) 0.4794(4) 0.65303(17)
H39 H 0.23120 0.42850 0.65900
C54 C 0.2287(3) 0.5653(4) 0.64997(17)
H40 H 0.16670 0.57110 0.65380
C55 C 0.2583(3) 0.7665(4) 0.51833(17)
H41 H 0.32190 0.76940 0.53190
C56 C 0.2322(4) 0.7587(4) 0.46705(17)
H42 H 0.27720 0.75610 0.44660
C57 C 0.1415(4) 0.7549(4) 0.44651(17)
H43 H 0.12240 0.75000 0.41160
C58 C 0.0765(3) 0.7582(4) 0.47791(17)
C59 C 0.1092(3) 0.7639(4) 0.52927(17)
C60 C 0.0452(3) 0.7642(4) 0.56284(17)
C61 C -0.0501(3) 0.7615(4) 0.54401(18)
C62 C -0.0809(4) 0.7555(4) 0.4909(2)
H44 H -0.14470 0.75300 0.47790
C63 C -0.0214(4) 0.7535(4) 0.45951(19)
H45 H -0.04370 0.74890 0.42480
C64 C -0.1092(3) 0.7673(4) 0.5778(2)
H46 H -0.17350 0.76780 0.56630
C65 C -0.0744(3) 0.7724(4) 0.6277(2)
H47 H -0.11410 0.77700 0.65110
C66 C 0.0213(3) 0.7705(4) 0.64359(18)
H48 H 0.04500 0.77230 0.67820
U1* U 0.58390(2) -0.20723(2) 0.44942(2)
U2C U 0.05257(2) 1.16969(2) 0.20960(2)
O11C O 1.1836(2) 0.4251(3) 0.75112(11)
O12C O 1.1829(2) 0.2829(3) 0.77349(12)
O15* O 0.6239(3) 0.9535(3) 0.46679(13)
O16* O 0.6586(2) 0.8598(3) 0.52916(12)
#END
