
#######################################################################
#
#                 Cambridge Crystallographic Data Centre
#                                CCDC
#
#######################################################################
#
# If this CIF has been generated from an entry in the Cambridge
# Structural Database, then it will include bibliographic, chemical,
# crystal, experimental, refinement or atomic coordinate data resulting
# from the CCDC's data processing and validation procedures.
#
#######################################################################

data_CSD_CIF_JOCZOT
_audit_creation_date 2019-04-24
_audit_creation_method CSD-ConQuest-V1
_database_code_CSD JOCZOT
_database_code_depnum_ccdc_archive 'CCDC 1904167'
_chemical_formula_sum 'C66 H62 N6 O23 U2 Zn1'
_chemical_formula_moiety
;
(C30 H24 O16 U2 2-)n,n(C36 H24 N6 Zn1 2+),7n(H2 O1)
;
_journal_coden_Cambridge 9
_journal_volume 58
_journal_year 2019
_journal_page_first 6550
_journal_name_full 'Inorg.Chem. '
loop_
_publ_author_name
"P.Thuery"
"Y.Atoini"
"J.Harrowfield"
_chemical_name_systematic
;
catena-(tris(1,10-phenanthroline)-zinc(ii) 
tris(\m-2,2'-(1,2-phenylene)diacetato)-tetraoxo-di-uranium heptahydrate)
;
_cell_volume   3303.415
_exptl_crystal_colour 'light yellow'
_exptl_crystal_density_diffrn 1.859
_exptl_crystal_description 'irregular'
_diffrn_ambient_temperature 100
#These two values have been output from a single CSD field.
_refine_ls_R_factor_gt 0.0309
_refine_ls_wR_factor_gt 0.0309
_symmetry_cell_setting triclinic
_symmetry_space_group_name_H-M 'P -1'
_symmetry_Int_Tables_number 2
loop_
_symmetry_equiv_pos_site_id
_symmetry_equiv_pos_as_xyz
1 x,y,z
2 -x,-y,-z
_cell_length_a 14.1948(9)
_cell_length_b 14.6335(5)
_cell_length_c 18.5407(10)
_cell_angle_alpha 66.900(3)
_cell_angle_beta 73.680(3)
_cell_angle_gamma 71.404(3)
_cell_formula_units_Z 2
loop_
_atom_type_symbol
_atom_type_radius_bond
C 0.68
H 0.23
N 0.68
O 0.68
U 1.96
Zn 1.22
loop_
_atom_site_label
_atom_site_type_symbol
_atom_site_fract_x
_atom_site_fract_y
_atom_site_fract_z
U1 U 0.38479(2) 0.38543(2) 0.19184(2)
U2 U 0.80229(2) 0.64631(2) 0.31746(2)
O1 O 0.3228(2) 0.4558(2) 0.25847(17)
O2 O 0.4436(2) 0.3172(2) 0.12445(16)
O3 O 0.7456(2) 0.7760(2) 0.26833(17)
O4 O 0.8595(2) 0.5176(2) 0.36680(17)
O5 O 0.5427(2) 0.4189(2) 0.18959(17)
O6 O 0.4567(2) 0.5293(2) 0.09647(17)
O7 O 0.6384(2) 0.6054(2) 0.34974(17)
O8 O 0.7343(2) 0.5939(3) 0.23751(17)
O9 O 0.2694(2) 0.5052(2) 0.10134(17)
O10 O 0.2206(2) 0.3672(2) 0.18214(17)
O11 O -0.0827(2) 0.6394(2) 0.19108(17)
O12 O -0.0310(2) 0.6894(2) 0.26666(17)
O13 O 0.8545(2) 0.6992(2) 0.40642(16)
O14 O 0.7066(2) 0.6614(2) 0.44785(16)
O15 O 0.6647(2) 0.7641(2) 0.70168(16)
O16 O 0.5167(2) 0.7453(2) 0.70336(17)
C1 C 0.5736(3) 0.6651(3) 0.1017(2)
C2 C 0.5485(3) 0.6816(4) 0.1745(2)
C3 C 0.5132(4) 0.7819(4) 0.1761(3)
H1 H 0.49690 0.79320 0.22570
C4 C 0.5019(4) 0.8629(4) 0.1085(3)
H2 H 0.47790 0.93020 0.11100
C5 C 0.5249(4) 0.8482(4) 0.0358(3)
H3 H 0.51660 0.90500 -0.01180
C6 C 0.5599(3) 0.7501(4) 0.0332(3)
H4 H 0.57530 0.74000 -0.01690
C7 C 0.6145(3) 0.5593(3) 0.0950(3)
H5 H 0.64040 0.56520 0.03830
H6 H 0.67160 0.52240 0.12420
C8 C 0.5344(3) 0.4989(3) 0.1283(3)
C9 C 0.5610(4) 0.5944(4) 0.2535(3)
H7 H 0.49840 0.60220 0.29330
H8 H 0.57340 0.52800 0.24580
C10 C 0.6488(4) 0.5967(4) 0.2830(3)
C11 C 0.0916(3) 0.6030(4) 0.0423(2)
C12 C 0.0808(3) 0.6906(4) 0.0605(2)
C13 C 0.0761(3) 0.7845(4) -0.0009(3)
H9 H 0.06830 0.84400 0.01140
C14 C 0.0822(4) 0.7936(4) -0.0785(3)
H10 H 0.07810 0.85860 -0.11910
C15 C 0.0945(4) 0.7074(4) -0.0970(3)
H11 H 0.09990 0.71260 -0.15060
C16 C 0.0988(3) 0.6132(4) -0.0370(3)
H12 H 0.10690 0.55430 -0.05010
C17 C 0.1003(3) 0.4992(3) 0.1048(3)
H13 H 0.08760 0.45220 0.08400
H14 H 0.04740 0.50390 0.15200
C18 C 0.2032(3) 0.4539(4) 0.1308(2)
C19 C 0.0788(3) 0.6857(4) 0.1436(3)
H15 H 0.13510 0.62910 0.16490
H16 H 0.09210 0.75000 0.14000
C20 C -0.0170(3) 0.6707(3) 0.2026(3)
C21 C 0.7793(3) 0.8084(3) 0.5245(2)
C22 C 0.6951(4) 0.8833(3) 0.5422(2)
C23 C 0.7086(4) 0.9798(3) 0.5281(2)
H17 H 0.65180 1.03140 0.53920
C24 C 0.8023(4) 1.0018(4) 0.4985(2)
H18 H 0.80970 1.06800 0.48910
C25 C 0.8856(4) 0.9273(4) 0.4823(2)
H19 H 0.95070 0.94140 0.46330
C26 C 0.8731(4) 0.8311(3) 0.4942(2)
H20 H 0.92980 0.78050 0.48130
C27 C 0.7694(4) 0.7023(3) 0.5373(2)
H21 H 0.82310 0.65020 0.56570
H22 H 0.70340 0.69220 0.57130
C28 C 0.7772(3) 0.6869(3) 0.4596(2)
C29 C 0.5930(3) 0.8598(4) 0.5817(2)
H23 H 0.57390 0.82940 0.55030
H24 H 0.54200 0.92440 0.58150
C30 C 0.5914(4) 0.7866(3) 0.6672(2)
Zn1 Zn 0.82539(4) 0.98895(4) 0.75488(3)
N1 N 0.9103(3) 0.8697(3) 0.70776(19)
N2 N 0.9802(3) 1.0012(3) 0.73420(18)
N3 N 0.6759(3) 0.9767(3) 0.75604(19)
N4 N 0.7839(3) 1.1107(3) 0.64892(19)
N5 N 0.8219(3) 0.8848(3) 0.8778(2)
N6 N 0.7691(3) 1.0921(3) 0.82364(19)
C31 C 0.8752(3) 0.8043(3) 0.6938(2)
H25 H 0.80460 0.81730 0.69620
C32 C 0.9389(4) 0.7174(3) 0.6757(2)
H26 H 0.91140 0.67220 0.66680
C33 C 1.0400(4) 0.6989(4) 0.6711(2)
H27 H 1.08340 0.63980 0.65950
C34 C 1.0813(3) 0.7661(3) 0.6832(2)
C35 C 1.0119(3) 0.8511(3) 0.7018(2)
C36 C 1.0497(3) 0.9229(3) 0.7145(2)
C37 C 1.1549(3) 0.9089(4) 0.7065(2)
C38 C 1.2221(3) 0.8225(3) 0.6880(2)
H28 H 1.29280 0.81280 0.68280
C39 C 1.1866(3) 0.7531(4) 0.6776(2)
H29 H 1.23290 0.69510 0.66640
C40 C 1.1875(4) 0.9836(4) 0.7173(2)
H30 H 1.25740 0.97770 0.71270
C41 C 1.1165(4) 1.0650(4) 0.7345(3)
H31 H 1.13720 1.11680 0.74070
C42 C 1.0146(4) 1.0715(3) 0.7428(2)
H32 H 0.96690 1.12810 0.75510
C43 C 0.6222(3) 0.9107(3) 0.8093(2)
H33 H 0.65420 0.85450 0.84920
C44 C 0.5213(3) 0.9207(3) 0.8090(3)
H34 H 0.48550 0.87310 0.84890
C45 C 0.4746(3) 0.9982(4) 0.7518(3)
H35 H 0.40590 1.00510 0.75120
C46 C 0.5281(3) 1.0686(3) 0.6931(2)
C47 C 0.6291(3) 1.0549(3) 0.6982(2)
C48 C 0.6860(3) 1.1254(3) 0.6410(2)
C49 C 0.6423(3) 1.2077(3) 0.5791(2)
C50 C 0.5400(4) 1.2176(3) 0.5752(2)
H36 H 0.50990 1.27170 0.53330
C51 C 0.4862(4) 1.1525(4) 0.6292(3)
H37 H 0.41820 1.16200 0.62520
C52 C 0.7024(4) 1.2737(3) 0.5243(2)
H38 H 0.67600 1.32870 0.48100
C53 C 0.7986(4) 1.2587(3) 0.5333(2)
H39 H 0.83950 1.30390 0.49690
C54 C 0.8372(4) 1.1757(4) 0.5968(3)
H40 H 0.90460 1.16600 0.60230
C55 C 0.8423(3) 0.7840(4) 0.9049(3)
H41 H 0.86570 0.74920 0.86710
C56 C 0.8316(3) 0.7251(4) 0.9858(3)
H42 H 0.84440 0.65280 1.00200
C57 C 0.8024(3) 0.7732(4) 1.0413(3)
H43 H 0.79570 0.73490 1.09660
C58 C 0.7824(3) 0.8807(4) 1.0150(2)
C59 C 0.7912(3) 0.9343(3) 0.9324(2)
C60 C 0.7651(3) 1.0434(3) 0.9039(2)
C61 C 0.7333(3) 1.0974(3) 0.9583(3)
C62 C 0.7297(3) 1.0400(4) 1.0422(3)
H44 H 0.71130 1.07570 1.07910
C63 C 0.7518(4) 0.9374(4) 1.0693(3)
H45 H 0.74710 0.90180 1.12500
C64 C 0.7042(3) 1.2043(4) 0.9279(3)
H46 H 0.68310 1.24340 0.96260
C65 C 0.7065(3) 1.2517(4) 0.8478(3)
H47 H 0.68530 1.32400 0.82630
C66 C 0.7403(3) 1.1929(3) 0.7984(3)
H48 H 0.74300 1.22730 0.74270
O17 O 0.3003(3) 0.5829(2) 0.35348(19)
H49 H 0.30850 0.52330 0.34860
H50 H 0.24000 0.60820 0.33810
O18 O 0.3474(2) 0.6458(2) -0.03698(16)
H51 H 0.41150 0.62960 -0.02230
H52 H 0.30140 0.60930 0.00760
O19 O 0.3395(2) 0.8183(2) -0.17535(18)
H53 H 0.37790 0.79820 -0.21700
H54 H 0.32230 0.76850 -0.12790
O20 O 0.0929(3) 0.6680(3) 0.3739(3)
H55 H 0.04990 0.67430 0.34380
H56 H 0.08620 0.61310 0.41590
O21 O 0.5689(3) 0.5201(2) 0.53321(18)
H57 H 0.59740 0.56570 0.48620
H58 H 0.60060 0.48070 0.56970
O22 O 0.4291(2) 0.6501(3) 0.62393(18)
H59 H 0.45100 0.65360 0.66690
H60 H 0.48370 0.61240 0.60210
O23 O 0.0091(4) 0.5693(4) 0.5232(3)
U1A U 0.61521(2) 0.61457(2) 0.80816(2)
U2* U -0.19771(2) 0.64631(2) 0.31746(2)
O11* O 0.9173(2) 0.6394(2) 0.19108(17)
O12* O 0.9690(2) 0.6894(2) 0.26666(17)
O15A O 0.3353(2) 0.2359(2) 0.29832(16)
O16A O 0.4833(2) 0.2547(2) 0.29664(17)
#END
