
#######################################################################
#
#                 Cambridge Crystallographic Data Centre
#                                CCDC
#
#######################################################################
#
# If this CIF has been generated from an entry in the Cambridge
# Structural Database, then it will include bibliographic, chemical,
# crystal, experimental, refinement or atomic coordinate data resulting
# from the CCDC's data processing and validation procedures.
#
#######################################################################

data_CSD_CIF_JODBEM
_audit_creation_date 2019-04-24
_audit_creation_method CSD-ConQuest-V1
_database_code_CSD JODBEM
_database_code_depnum_ccdc_archive 'CCDC 1904170'
_chemical_formula_sum 'C60 H48 N6 Ni1 O16 U2'
_chemical_formula_moiety
;
(C30 H24 O16 U2 2-)n,n(C30 H24 N6 Ni1 2+)
;
_journal_coden_Cambridge 9
_journal_volume 58
_journal_year 2019
_journal_page_first 6550
_journal_name_full 'Inorg.Chem. '
loop_
_publ_author_name
"P.Thuery"
"Y.Atoini"
"J.Harrowfield"
_chemical_name_systematic
;
catena-(tris(2,2'-bipyridine)-nickel(ii) 
tris(\m-2,2'-(1,4-phenylene)diacetato)-tetraoxo-di-uranium)
;
_cell_volume   5791.560
_exptl_crystal_colour 'light orange'
_exptl_crystal_density_diffrn 1.885
_exptl_crystal_description 'lath'
_diffrn_ambient_temperature 100
_refine_special_details
;
The cation is disordered by symmetry.

;
#These two values have been output from a single CSD field.
_refine_ls_R_factor_gt 0.024
_refine_ls_wR_factor_gt 0.024
_symmetry_cell_setting orthorhombic
_symmetry_space_group_name_H-M 'C m c m'
_symmetry_Int_Tables_number 63
loop_
_symmetry_equiv_pos_site_id
_symmetry_equiv_pos_as_xyz
1 x,y,z
2 -x,-y,1/2+z
3 -x,y,1/2-z
4 x,-y,-z
5 1/2+x,1/2+y,z
6 1/2-x,1/2-y,1/2+z
7 1/2-x,1/2+y,1/2-z
8 1/2+x,1/2-y,-z
9 -x,-y,-z
10 x,y,-1/2-z
11 x,-y,-1/2+z
12 -x,y,z
13 -1/2-x,-1/2-y,-z
14 -1/2+x,-1/2+y,-1/2-z
15 -1/2+x,-1/2-y,-1/2+z
16 -1/2-x,-1/2+y,z
_cell_length_a 21.4844(9)
_cell_length_b 19.4449(8)
_cell_length_c 13.8633(3)
_cell_angle_alpha 90
_cell_angle_beta 90
_cell_angle_gamma 90
_cell_formula_units_Z 4
loop_
_atom_type_symbol
_atom_type_radius_bond
C 0.68
H 0.23
N 0.68
Ni 1.24
O 0.68
U 1.96
loop_
_atom_site_label
_atom_site_type_symbol
_atom_site_fract_x
_atom_site_fract_y
_atom_site_fract_z
U1 U 0.32250(2) 0.24049(2) 0.25000
O1 O 0.40252(17) 0.26241(18) 0.25000
O2 O 0.24243(15) 0.21760(18) 0.25000
O3 O 0.32155(11) 0.24968(12) 0.0720(2)
O4 O 0.30098(12) 0.34342(11) 0.15313(16)
O5 O 0.34514(13) 0.13011(13) 0.32934(19)
C1 C 0.2989(2) 0.42795(19) -0.0103(2)
C2 C 0.2439(2) 0.4644(2) -0.0060(3)
H1 H 0.20540 0.44060 -0.01120
C3 C 0.3534(2) 0.4649(2) -0.0043(3)
H2 H 0.39200 0.44110 -0.00610
C4 C 0.2992(2) 0.35069(19) -0.0204(3)
H3 H 0.33300 0.33740 -0.06530
H4 H 0.25930 0.33600 -0.04960
C5 C 0.30812(16) 0.31277(18) 0.0738(2)
C6 C 0.4351(3) 0.0135(3) 0.25000
C7 C 0.4673(2) 0.0146(4) 0.3353(4)
H5 H 0.44530 0.01530 0.39470
C8 C 0.3643(3) 0.0220(3) 0.25000
H6 H 0.34610 0.00010 0.19210
C9 C 0.3501(2) 0.0983(3) 0.25000
Ni1 Ni 0.50000 0.31313(4) -0.25000
N1 N 0.56143(19) 0.3962(2) -0.25000
C10 C 0.5347(3) 0.4592(2) -0.25000
C11 C 0.5706(3) 0.5186(3) -0.25000
H7 H 0.55110 0.56250 -0.25000
C12 C 0.6353(3) 0.5136(3) -0.25000
H8 H 0.66050 0.55380 -0.25000
C13 C 0.6619(3) 0.4494(3) -0.25000
H9 H 0.70580 0.44430 -0.25000
C14 C 0.6236(2) 0.3922(3) -0.25000
H10 H 0.64240 0.34800 -0.25000
N2 N 0.5687(2) 0.23667(19) -0.25000
C15 C 0.5974(11) 0.2117(12) -0.3181(12)
H11 H 0.58510 0.22310 -0.38270
C16 C 0.6481(5) 0.1626(6) -0.3101(11)
H12 H 0.67030 0.14400 -0.36420
C17 C 0.6656(5) 0.1441(6) -0.2167(10)
H13 H 0.69940 0.11260 -0.20600
C18 C 0.6329(6) 0.1713(6) -0.1409(9)
H14 H 0.64380 0.15790 -0.07640
C19 C 0.5872(9) 0.2145(11) -0.1529(11)
N3 N 0.5115(4) 0.3009(3) -0.1042(4)
C20 C 0.5466(3) 0.2465(3) -0.0778(6)
C21 C 0.5456(3) 0.2211(4) 0.0158(5)
H15 H 0.56990 0.18160 0.03350
C22 C 0.508(2) 0.2531(4) 0.0836(6)
H16 H 0.50680 0.23630 0.14870
C23 C 0.4745(3) 0.3103(5) 0.0579(5)
H17 H 0.44920 0.33300 0.10530
C24 C 0.4793(3) 0.3309(4) -0.0381(5)
H18 H 0.45510 0.37040 -0.05580
O3C O 0.32155(11) 0.75032(12) -0.0720(2)
O4C O 0.30098(12) 0.65658(11) -0.15313(16)
C1C C 0.2989(2) 0.57205(19) 0.0103(2)
C2C C 0.2439(2) 0.5356(2) 0.0060(3)
H1C H 0.20540 0.55940 0.01120
C3C C 0.3534(2) 0.5351(2) 0.0043(3)
H2C H 0.39200 0.55890 0.00610
C4C C 0.2992(2) 0.64931(19) 0.0204(3)
H3C H 0.33300 0.66260 0.06530
H4C H 0.25930 0.66400 0.04960
C5C C 0.30812(16) 0.68723(18) -0.0738(2)
O5I O 0.34514(13) 0.13011(13) 0.17066(19)
C7I C 0.4673(2) 0.0146(4) 0.1647(4)
H5I H 0.44530 0.01530 0.10530
H6I H 0.34610 0.00010 0.30790
O5K O 0.65486(13) 0.13011(13) 0.32934(19)
C6B C 0.5649(3) 0.0135(3) 0.25000
C7K C 0.5327(2) 0.0146(4) 0.3353(4)
H5K H 0.55470 0.01530 0.39470
C8B C 0.6357(3) 0.0220(3) 0.25000
H6K H 0.65390 0.00010 0.19210
C9B C 0.6499(2) 0.0983(3) 0.25000
O5B O 0.65486(13) 0.13011(13) 0.17066(19)
C7B C 0.5327(2) 0.0146(4) 0.1647(4)
H5B H 0.55470 0.01530 0.10530
H6B H 0.65390 0.00010 0.30790
U1B U 0.67750(2) 0.24049(2) 0.25000
O1B O 0.59748(17) 0.26241(18) 0.25000
O2B O 0.75757(15) 0.21760(18) 0.25000
O3K O 0.67845(11) 0.24968(12) 0.0720(2)
O4K O 0.69902(12) 0.34342(11) 0.15313(16)
C1K C 0.7011(2) 0.42795(19) -0.0103(2)
C2K C 0.7561(2) 0.4644(2) -0.0060(3)
H1K H 0.79460 0.44060 -0.01120
C3K C 0.6466(2) 0.4649(2) -0.0043(3)
H2K H 0.60800 0.44110 -0.00610
C4K C 0.7008(2) 0.35069(19) -0.0204(3)
H3K H 0.66700 0.33740 -0.06530
H4K H 0.74070 0.33600 -0.04960
C5K C 0.69188(16) 0.31277(18) 0.0738(2)
O3H O 0.67845(11) 0.75032(12) -0.0720(2)
O4H O 0.69902(12) 0.65658(11) -0.15313(16)
C1H C 0.7011(2) 0.57205(19) 0.0103(2)
C2H C 0.7561(2) 0.5356(2) 0.0060(3)
H1H H 0.79460 0.55940 0.01120
C3H C 0.6466(2) 0.5351(2) 0.0043(3)
H2H H 0.60800 0.55890 0.00610
C4H C 0.7008(2) 0.64931(19) 0.0204(3)
H3H H 0.66700 0.66260 0.06530
H4H H 0.74070 0.66400 0.04960
C5H C 0.69188(16) 0.68723(18) -0.0738(2)
U1A U 0.67750(2) 0.75951(2) -0.25000
U1C U 0.32250(2) 0.75951(2) -0.25000
O3B O 0.67845(11) 0.24968(12) 0.4280(2)
O3I O 0.32155(11) 0.24968(12) 0.4280(2)
O4B O 0.69902(12) 0.34342(11) 0.34687(16)
O4I O 0.30098(12) 0.34342(11) 0.34687(16)
N1B N 0.43857(19) 0.3962(2) -0.25000
C10B C 0.4653(3) 0.4592(2) -0.25000
C11B C 0.4294(3) 0.5186(3) -0.25000
H7B H 0.44890 0.56250 -0.25000
C12B C 0.3647(3) 0.5136(3) -0.25000
H8B H 0.33950 0.55380 -0.25000
C13B C 0.3381(3) 0.4494(3) -0.25000
H9B H 0.29420 0.44430 -0.25000
C14B C 0.3764(2) 0.3922(3) -0.25000
H10B H 0.35760 0.34800 -0.25000
C15I C 0.5974(11) 0.2117(12) -0.1819(12)
H11I H 0.58510 0.22310 -0.11730
C16I C 0.6481(5) 0.1626(6) -0.1899(11)
H12I H 0.67030 0.14400 -0.13580
C17I C 0.6656(5) 0.1441(6) -0.2833(10)
H13I H 0.69940 0.11260 -0.29400
C18I C 0.6329(6) 0.1713(6) -0.3591(9)
H14I H 0.64380 0.15790 -0.42360
C19I C 0.5872(9) 0.2145(11) -0.3471(11)
N3I N 0.5115(4) 0.3009(3) -0.3958(4)
C20I C 0.5466(3) 0.2465(3) -0.4222(6)
C21I C 0.5456(3) 0.2211(4) -0.5158(5)
H15I H 0.56990 0.18160 -0.53350
C22I C 0.508(2) 0.2531(4) -0.5836(6)
H16I H 0.50680 0.23630 -0.64870
C23I C 0.4745(3) 0.3103(5) -0.5579(5)
H17I H 0.44920 0.33300 -0.60530
C24I C 0.4793(3) 0.3309(4) -0.4619(5)
H18I H 0.45510 0.37040 -0.44420
N2B N 0.4313(2) 0.23667(19) -0.25000
C15K C 0.4026(11) 0.2117(12) -0.3181(12)
H11K H 0.41490 0.22310 -0.38270
C16K C 0.3519(5) 0.1626(6) -0.3101(11)
H12K H 0.32970 0.14400 -0.36420
C17K C 0.3344(5) 0.1441(6) -0.2167(10)
H13K H 0.30060 0.11260 -0.20600
C18K C 0.3671(6) 0.1713(6) -0.1409(9)
H14K H 0.35620 0.15790 -0.07640
C19K C 0.4128(9) 0.2145(11) -0.1529(11)
N3K N 0.4885(4) 0.3009(3) -0.1042(4)
C20K C 0.4534(3) 0.2465(3) -0.0778(6)
C21K C 0.4544(3) 0.2211(4) 0.0158(5)
H15K H 0.43010 0.18160 0.03350
C22K C 0.492(2) 0.2531(4) 0.0836(6)
H16K H 0.49320 0.23630 0.14870
C23K C 0.5255(3) 0.3103(5) 0.0579(5)
H17K H 0.55080 0.33300 0.10530
C24K C 0.5207(3) 0.3309(4) -0.0381(5)
H18K H 0.54490 0.37040 -0.05580
C15B C 0.4026(11) 0.2117(12) -0.1819(12)
H11B H 0.41490 0.22310 -0.11730
C16B C 0.3519(5) 0.1626(6) -0.1899(11)
H12B H 0.32970 0.14400 -0.13580
C17B C 0.3344(5) 0.1441(6) -0.2833(10)
H13B H 0.30060 0.11260 -0.29400
C18B C 0.3671(6) 0.1713(6) -0.3591(9)
H14B H 0.35620 0.15790 -0.42360
C19B C 0.4128(9) 0.2145(11) -0.3471(11)
N3B N 0.4885(4) 0.3009(3) -0.3958(4)
C20B C 0.4534(3) 0.2465(3) -0.4222(6)
C21B C 0.4544(3) 0.2211(4) -0.5158(5)
H15B H 0.43010 0.18160 -0.53350
C22B C 0.492(2) 0.2531(4) -0.5836(6)
H16B H 0.49320 0.23630 -0.64870
C23B C 0.5255(3) 0.3103(5) -0.5579(5)
H17B H 0.55080 0.33300 -0.60530
C24B C 0.5207(3) 0.3309(4) -0.4619(5)
H18B H 0.54490 0.37040 -0.44420
#END
