
#######################################################################
#
#                 Cambridge Crystallographic Data Centre
#                                CCDC
#
#######################################################################
#
# If this CIF has been generated from an entry in the Cambridge
# Structural Database, then it will include bibliographic, chemical,
# crystal, experimental, refinement or atomic coordinate data resulting
# from the CCDC's data processing and validation procedures.
#
#######################################################################

data_CSD_CIF_JODBAI
_audit_creation_date 2019-04-24
_audit_creation_method CSD-ConQuest-V1
_database_code_CSD JODBAI
_database_code_depnum_ccdc_archive 'CCDC 1904169'
_chemical_formula_sum 'C60 H48 Co1 N6 O16 U2'
_chemical_formula_moiety
;
(C30 H24 O16 U2 2-)n,n(C30 H24 Co1 N6 2+)
;
_journal_coden_Cambridge 9
_journal_volume 58
_journal_year 2019
_journal_page_first 6550
_journal_name_full 'Inorg.Chem. '
loop_
_publ_author_name
"P.Thuery"
"Y.Atoini"
"J.Harrowfield"
_chemical_name_systematic
;
catena-(tris(2,2'-bipyridine)-cobalt(ii) 
tris(\m-2,2'-(1,4-phenylene)diacetato)-tetraoxo-di-uranium)
;
_cell_volume   5789.638
_exptl_crystal_colour 'light orange'
_exptl_crystal_density_diffrn 1.886
_exptl_crystal_description 'lath'
_diffrn_ambient_temperature 100
_refine_special_details
;
The cation is disordered by symmetry.

;
#These two values have been output from a single CSD field.
_refine_ls_R_factor_gt 0.0321
_refine_ls_wR_factor_gt 0.0321
_symmetry_cell_setting orthorhombic
_symmetry_space_group_name_H-M 'C m c m'
_symmetry_Int_Tables_number 63
loop_
_symmetry_equiv_pos_site_id
_symmetry_equiv_pos_as_xyz
1 x,y,z
2 -x,-y,1/2+z
3 -x,y,1/2-z
4 x,-y,-z
5 1/2+x,1/2+y,z
6 1/2-x,1/2-y,1/2+z
7 1/2-x,1/2+y,1/2-z
8 1/2+x,1/2-y,-z
9 -x,-y,-z
10 x,y,-1/2-z
11 x,-y,-1/2+z
12 -x,y,z
13 -1/2-x,-1/2-y,-z
14 -1/2+x,-1/2+y,-1/2-z
15 -1/2+x,-1/2-y,-1/2+z
16 -1/2-x,-1/2+y,z
_cell_length_a 21.4452(11)
_cell_length_b 19.5031(10)
_cell_length_c 13.8426(4)
_cell_angle_alpha 90
_cell_angle_beta 90
_cell_angle_gamma 90
_cell_formula_units_Z 4
loop_
_atom_type_symbol
_atom_type_radius_bond
C 0.68
H 0.23
Co 1.26
N 0.68
O 0.68
U 1.96
loop_
_atom_site_label
_atom_site_type_symbol
_atom_site_fract_x
_atom_site_fract_y
_atom_site_fract_z
U1 U 0.32188(2) 0.24087(2) 0.25000
O1 O 0.4019(2) 0.2626(2) 0.25000
O2 O 0.2417(2) 0.2188(2) 0.25000
O3 O 0.32131(16) 0.24993(14) 0.0718(3)
O4 O 0.30077(15) 0.34373(15) 0.1528(2)
O5 O 0.34414(18) 0.13076(16) 0.3292(2)
C1 C 0.3003(3) 0.4282(3) -0.0106(3)
C2 C 0.2450(3) 0.4642(3) -0.0061(3)
H1 H 0.20650 0.44040 -0.01120
C3 C 0.3553(3) 0.4644(3) -0.0046(4)
H2 H 0.39390 0.44050 -0.00680
C4 C 0.3005(3) 0.3510(2) -0.0206(3)
H3 H 0.26090 0.33650 -0.05130
H4 H 0.33500 0.33770 -0.06440
C5 C 0.3079(2) 0.3131(2) 0.0735(3)
C6 C 0.4350(4) 0.0144(4) 0.25000
C7 C 0.4673(3) 0.0153(4) 0.3354(5)
H5 H 0.44530 0.01590 0.39490
C8 C 0.3645(4) 0.0231(3) 0.25000
H6 H 0.34630 0.00120 0.19210
C9 C 0.3497(4) 0.0987(4) 0.25000
Co1 Co 0.50000 0.31333(6) -0.25000
N1 N 0.5621(3) 0.3984(3) -0.25000
C10 C 0.5344(3) 0.4611(4) -0.25000
C11 C 0.5716(4) 0.5209(4) -0.25000
H7 H 0.55250 0.56480 -0.25000
C12 C 0.6354(4) 0.5155(4) -0.25000
H8 H 0.66060 0.55550 -0.25000
C13 C 0.6624(4) 0.4518(4) -0.25000
H9 H 0.70650 0.44700 -0.25000
C14 C 0.6240(4) 0.3946(4) -0.25000
H10 H 0.64280 0.35050 -0.25000
N2 N 0.5698(3) 0.2352(3) -0.25000
C15 C 0.6018(8) 0.2058(11) -0.3231(15)
H11 H 0.58950 0.21710 -0.38770
C16 C 0.6491(8) 0.1588(9) -0.3127(11)
H12 H 0.67120 0.14020 -0.36680
C17 C 0.6650(9) 0.1445(10) -0.2243(10)
H13 H 0.69870 0.11290 -0.21360
C18 C 0.6365(7) 0.1689(8) -0.1398(10)
H14 H 0.64740 0.15550 -0.07530
C19 C 0.5846(9) 0.2156(12) -0.1579(16)
N3 N 0.5140(5) 0.2996(4) -0.1014(5)
C20 C 0.5483(5) 0.2432(5) -0.0780(8)
C21 C 0.5460(4) 0.2172(6) 0.0177(7)
H15 H 0.57020 0.17770 0.03540
C22 C 0.5081(13) 0.2469(5) 0.0839(7)
H16 H 0.50710 0.23020 0.14900
C23 C 0.4766(4) 0.3053(7) 0.0612(7)
H17 H 0.45140 0.32800 0.10860
C24 C 0.4807(4) 0.3309(5) -0.0332(7)
H18 H 0.45640 0.37040 -0.05090
O3C O 0.32131(16) 0.75007(14) -0.0718(3)
O4C O 0.30077(15) 0.65627(15) -0.1528(2)
C1C C 0.3003(3) 0.5718(3) 0.0106(3)
C2C C 0.2450(3) 0.5358(3) 0.0061(3)
H1C H 0.20650 0.55960 0.01120
C3C C 0.3553(3) 0.5356(3) 0.0046(4)
H2C H 0.39390 0.55950 0.00680
C4C C 0.3005(3) 0.6490(2) 0.0206(3)
H3C H 0.26090 0.66350 0.05130
H4C H 0.33500 0.66230 0.06440
C5C C 0.3079(2) 0.6869(2) -0.0735(3)
O5I O 0.34414(18) 0.13076(16) 0.1708(2)
C7I C 0.4673(3) 0.0153(4) 0.1646(5)
H5I H 0.44530 0.01590 0.10510
H6I H 0.34630 0.00120 0.30790
O5K O 0.65586(18) 0.13076(16) 0.3292(2)
C6B C 0.5650(4) 0.0144(4) 0.25000
C7K C 0.5327(3) 0.0153(4) 0.3354(5)
H5K H 0.55470 0.01590 0.39490
C8B C 0.6355(4) 0.0231(3) 0.25000
H6K H 0.65370 0.00120 0.19210
C9B C 0.6503(4) 0.0987(4) 0.25000
O5B O 0.65586(18) 0.13076(16) 0.1708(2)
C7B C 0.5327(3) 0.0153(4) 0.1646(5)
H5B H 0.55470 0.01590 0.10510
H6B H 0.65370 0.00120 0.30790
U1B U 0.67812(2) 0.24087(2) 0.25000
O1B O 0.5981(2) 0.2626(2) 0.25000
O2B O 0.7583(2) 0.2188(2) 0.25000
O3K O 0.67869(16) 0.24993(14) 0.0718(3)
O4K O 0.69923(15) 0.34373(15) 0.1528(2)
C1K C 0.6997(3) 0.4282(3) -0.0106(3)
C2K C 0.7550(3) 0.4642(3) -0.0061(3)
H1K H 0.79350 0.44040 -0.01120
C3K C 0.6447(3) 0.4644(3) -0.0046(4)
H2K H 0.60610 0.44050 -0.00680
C4K C 0.6995(3) 0.3510(2) -0.0206(3)
H3K H 0.73910 0.33650 -0.05130
H4K H 0.66500 0.33770 -0.06440
C5K C 0.6921(2) 0.3131(2) 0.0735(3)
O3H O 0.67869(16) 0.75007(14) -0.0718(3)
O4H O 0.69923(15) 0.65627(15) -0.1528(2)
C1H C 0.6997(3) 0.5718(3) 0.0106(3)
C2H C 0.7550(3) 0.5358(3) 0.0061(3)
H1H H 0.79350 0.55960 0.01120
C3H C 0.6447(3) 0.5356(3) 0.0046(4)
H2H H 0.60610 0.55950 0.00680
C4H C 0.6995(3) 0.6490(2) 0.0206(3)
H3H H 0.73910 0.66350 0.05130
H4H H 0.66500 0.66230 0.06440
C5H C 0.6921(2) 0.6869(2) -0.0735(3)
U1A U 0.67812(2) 0.75913(2) -0.25000
U1C U 0.32188(2) 0.75913(2) -0.25000
O3B O 0.67869(16) 0.24993(14) 0.4282(3)
O3I O 0.32131(16) 0.24993(14) 0.4282(3)
O4B O 0.69923(15) 0.34373(15) 0.3472(2)
O4I O 0.30077(15) 0.34373(15) 0.3472(2)
N1B N 0.4379(3) 0.3984(3) -0.25000
C10B C 0.4656(3) 0.4611(4) -0.25000
C11B C 0.4284(4) 0.5209(4) -0.25000
H7B H 0.44750 0.56480 -0.25000
C12B C 0.3646(4) 0.5155(4) -0.25000
H8B H 0.33940 0.55550 -0.25000
C13B C 0.3376(4) 0.4518(4) -0.25000
H9B H 0.29350 0.44700 -0.25000
C14B C 0.3760(4) 0.3946(4) -0.25000
H10B H 0.35720 0.35050 -0.25000
C15I C 0.6018(8) 0.2058(11) -0.1769(15)
H11I H 0.58950 0.21710 -0.11230
C16I C 0.6491(8) 0.1588(9) -0.1873(11)
H12I H 0.67120 0.14020 -0.13320
C17I C 0.6650(9) 0.1445(10) -0.2757(10)
H13I H 0.69870 0.11290 -0.28640
C18I C 0.6365(7) 0.1689(8) -0.3602(10)
H14I H 0.64740 0.15550 -0.42470
C19I C 0.5846(9) 0.2156(12) -0.3421(16)
N3I N 0.5140(5) 0.2996(4) -0.3986(5)
C20I C 0.5483(5) 0.2432(5) -0.4220(8)
C21I C 0.5460(4) 0.2172(6) -0.5177(7)
H15I H 0.57020 0.17770 -0.53540
C22I C 0.5081(13) 0.2469(5) -0.5839(7)
H16I H 0.50710 0.23020 -0.64900
C23I C 0.4766(4) 0.3053(7) -0.5612(7)
H17I H 0.45140 0.32800 -0.60860
C24I C 0.4807(4) 0.3309(5) -0.4668(7)
H18I H 0.45640 0.37040 -0.44910
N2B N 0.4302(3) 0.2352(3) -0.25000
C15K C 0.3982(8) 0.2058(11) -0.3231(15)
H11K H 0.41050 0.21710 -0.38770
C16K C 0.3509(8) 0.1588(9) -0.3127(11)
H12K H 0.32880 0.14020 -0.36680
C17K C 0.3350(9) 0.1445(10) -0.2243(10)
H13K H 0.30130 0.11290 -0.21360
C18K C 0.3635(7) 0.1689(8) -0.1398(10)
H14K H 0.35260 0.15550 -0.07530
C19K C 0.4154(9) 0.2156(12) -0.1579(16)
N3K N 0.4860(5) 0.2996(4) -0.1014(5)
C20K C 0.4517(5) 0.2432(5) -0.0780(8)
C21K C 0.4540(4) 0.2172(6) 0.0177(7)
H15K H 0.42980 0.17770 0.03540
C22K C 0.4919(13) 0.2469(5) 0.0839(7)
H16K H 0.49290 0.23020 0.14900
C23K C 0.5234(4) 0.3053(7) 0.0612(7)
H17K H 0.54860 0.32800 0.10860
C24K C 0.5193(4) 0.3309(5) -0.0332(7)
H18K H 0.54360 0.37040 -0.05090
C15B C 0.3982(8) 0.2058(11) -0.1769(15)
H11B H 0.41050 0.21710 -0.11230
C16B C 0.3509(8) 0.1588(9) -0.1873(11)
H12B H 0.32880 0.14020 -0.13320
C17B C 0.3350(9) 0.1445(10) -0.2757(10)
H13B H 0.30130 0.11290 -0.28640
C18B C 0.3635(7) 0.1689(8) -0.3602(10)
H14B H 0.35260 0.15550 -0.42470
C19B C 0.4154(9) 0.2156(12) -0.3421(16)
N3B N 0.4860(5) 0.2996(4) -0.3986(5)
C20B C 0.4517(5) 0.2432(5) -0.4220(8)
C21B C 0.4540(4) 0.2172(6) -0.5177(7)
H15B H 0.42980 0.17770 -0.53540
C22B C 0.4919(13) 0.2469(5) -0.5839(7)
H16B H 0.49290 0.23020 -0.64900
C23B C 0.5234(4) 0.3053(7) -0.5612(7)
H17B H 0.54860 0.32800 -0.60860
C24B C 0.5193(4) 0.3309(5) -0.4668(7)
H18B H 0.54360 0.37040 -0.44910
#END
