
#######################################################################
#
#                 Cambridge Crystallographic Data Centre
#                                CCDC
#
#######################################################################
#
# If this CIF has been generated from an entry in the Cambridge
# Structural Database, then it will include bibliographic, chemical,
# crystal, experimental, refinement or atomic coordinate data resulting
# from the CCDC's data processing and validation procedures.
#
#######################################################################

data_CSD_CIF_JODBIQ
_audit_creation_date 2019-04-24
_audit_creation_method CSD-ConQuest-V1
_database_code_CSD JODBIQ
_database_code_depnum_ccdc_archive 'CCDC 1904171'
_chemical_formula_sum 'C60 H48 N6 O16 Ru1 U2'
_chemical_formula_moiety
;
(C30 H24 O16 U2 2-)n,n(C30 H24 N6 Ru1 2+)
;
_journal_coden_Cambridge 9
_journal_volume 58
_journal_year 2019
_journal_page_first 6550
_journal_name_full 'Inorg.Chem. '
loop_
_publ_author_name
"P.Thuery"
"Y.Atoini"
"J.Harrowfield"
_chemical_name_systematic
;
catena-(tris(2,2'-bipyridine)-ruthenium(ii) 
tris(\m-2,2'-(1,4-phenylene)diacetato)-tetraoxo-di-uranium)
;
_cell_volume   5839.540
_exptl_crystal_colour 'dark orange'
_exptl_crystal_density_diffrn 1.918
_exptl_special_details
;
Absolute configuration

;
_exptl_crystal_description 'lath'
_diffrn_ambient_temperature 100
#These two values have been output from a single CSD field.
_refine_ls_R_factor_gt 0.0343
_refine_ls_wR_factor_gt 0.0343
_symmetry_cell_setting orthorhombic
_symmetry_space_group_name_H-M 'C 2 2 21'
_symmetry_Int_Tables_number 20
loop_
_symmetry_equiv_pos_site_id
_symmetry_equiv_pos_as_xyz
1 x,y,z
2 -x,-y,1/2+z
3 -x,y,1/2-z
4 x,-y,-z
5 1/2+x,1/2+y,z
6 1/2-x,1/2-y,1/2+z
7 1/2-x,1/2+y,1/2-z
8 1/2+x,1/2-y,-z
_cell_length_a 19.5684(10)
_cell_length_b 21.4080(11)
_cell_length_c 13.9395(4)
_cell_angle_alpha 90
_cell_angle_beta 90
_cell_angle_gamma 90
_cell_formula_units_Z 4
loop_
_atom_type_symbol
_atom_type_radius_bond
C 0.68
H 0.23
N 0.68
O 0.68
Ru 1.46
U 1.96
loop_
_atom_site_label
_atom_site_type_symbol
_atom_site_fract_x
_atom_site_fract_y
_atom_site_fract_z
U1 U 0.75769(2) 0.67938(2) 0.49188(3)
O1 O 0.7360(4) 0.5991(3) 0.4902(5)
O2 O 0.7797(3) 0.7597(3) 0.4930(5)
O3 O 0.8667(4) 0.6546(4) 0.5719(6)
O4 O 0.8692(5) 0.6598(4) 0.4139(6)
O5 O 0.7493(5) 0.6827(3) 0.3136(5)
O6 O 0.6549(4) 0.6996(4) 0.3971(5)
O7 O 0.6550(4) 0.7005(4) 0.5901(5)
O8 O 0.7483(4) 0.6780(3) 0.6681(4)
C1 C 0.9823(6) 0.5654(5) 0.5002(17)
C2 C 0.9791(11) 0.5349(9) 0.5838(15)
H1 H 0.97448 0.55758 0.64197
C3 C 0.9828(12) 0.4671(10) 0.5859(16)
H2 H 0.98535 0.44545 0.64526
C4 C 0.9750(6) 0.6368(5) 0.4976(17)
H3 H 0.99534 0.65570 0.55575
H4 H 0.99840 0.65414 0.44048
C5 C 0.8996(5) 0.6502(5) 0.4932(11)
C6 C 0.5717(7) 0.7121(6) 0.2377(7)
C7 C 0.5338(8) 0.7666(8) 0.2413(11)
H5 H 0.55623 0.80539 0.23101
C8 C 0.5346(8) 0.6577(6) 0.2451(10)
H6 H 0.55799 0.61890 0.24320
C9 C 0.6483(7) 0.7098(6) 0.2252(7)
H7 H 0.65963 0.67724 0.17738
H8 H 0.66405 0.75041 0.19936
C10 C 0.6866(6) 0.6963(5) 0.3160(7)
C11 C 0.5724(6) 0.6925(5) 0.7569(7)
C12 C 0.5359(8) 0.7466(5) 0.7541(7)
H9 H 0.55938 0.78536 0.75773
C13 C 0.5353(6) 0.6371(5) 0.7530(7)
H10 H 0.55906 0.59835 0.75439
C14 C 0.6478(6) 0.6924(6) 0.7635(8)
H11 H 0.66220 0.65598 0.80237
H12 H 0.66252 0.73056 0.79788
C15 C 0.6845(6) 0.6898(5) 0.6667(7)
Ru1 Ru 0.68770(4) 0.50000 1.00000
N1 N 0.7635(4) 0.5661(4) 0.9904(7)
N2 N 0.6979(4) 0.5086(4) 0.8555(6)
N3 N 0.6065(4) 0.4383(3) 1.0005(6)
C16 C 0.7917(7) 0.5986(5) 1.0643(11)
H13 H 0.77856 0.58841 1.12801
C17 C 0.8388(8) 0.6458(6) 1.0500(13)
H14 H 0.85799 0.66718 1.10335
C18 C 0.8579(7) 0.6619(7) 0.9571(14)
H15 H 0.88928 0.69501 0.94627
C19 C 0.8307(7) 0.6292(6) 0.8808(12)
H16 H 0.84343 0.63873 0.81666
C20 C 0.7829(6) 0.5808(5) 0.9008(10)
C21 C 0.7500(7) 0.5454(5) 0.8244(8)
C22 C 0.7696(9) 0.5454(6) 0.7281(10)
H17 H 0.80543 0.57210 0.70731
C23 C 0.7376(9) 0.5076(6) 0.6641(9)
H18 H 0.75289 0.50521 0.59947
C24 C 0.6827(9) 0.4730(6) 0.6948(8)
H19 H 0.65797 0.44792 0.65058
C25 C 0.6637(7) 0.4745(5) 0.7899(8)
H20 H 0.62513 0.45089 0.80987
C26 C 0.6100(5) 0.3763(4) 1.0023(7)
H21 H 0.65385 0.35726 1.00166
C27 C 0.5530(5) 0.3379(5) 1.0051(7)
H22 H 0.55790 0.29383 1.00910
C28 C 0.4897(5) 0.3645(5) 1.0022(11)
H23 H 0.44990 0.33915 1.00041
C29 C 0.4843(5) 0.4292(5) 1.0017(11)
H24 H 0.44056 0.44858 1.00190
C30 C 0.5427(4) 0.4652(5) 1.0010(8)
O3C O 0.8667(4) 0.3454(4) 0.4281(6)
O4C O 0.8692(5) 0.3402(4) 0.5861(6)
C1C C 0.9823(6) 0.4346(5) 0.4998(17)
C2C C 0.9791(11) 0.4651(9) 0.4162(15)
H1C H 0.97448 0.44242 0.35803
C3C C 0.9828(12) 0.5329(10) 0.4141(16)
H2C H 0.98535 0.55455 0.35474
C4C C 0.9750(6) 0.3632(5) 0.5024(17)
H3C H 0.99534 0.34430 0.44425
H4C H 0.99840 0.34586 0.55953
C5C C 0.8996(5) 0.3498(5) 0.5068(11)
O5B O 0.2507(5) 0.6827(3) 0.1864(5)
O6B O 0.3451(4) 0.6996(4) 0.1029(5)
C6B C 0.4283(7) 0.7121(6) 0.2623(7)
C7B C 0.4662(8) 0.7666(8) 0.2587(11)
H5B H 0.44377 0.80539 0.26899
C8B C 0.4654(8) 0.6577(6) 0.2549(10)
H6B H 0.44201 0.61890 0.25680
C9B C 0.3517(7) 0.7098(6) 0.2748(7)
H7B H 0.34037 0.67724 0.32262
H8B H 0.33595 0.75041 0.30064
C10B C 0.3134(6) 0.6963(5) 0.1840(7)
O7B O 0.3450(4) 0.7005(4) 0.9099(5)
O8B O 0.2517(4) 0.6780(3) 0.8319(4)
C11B C 0.4276(6) 0.6925(5) 0.7431(7)
C12B C 0.4641(8) 0.7466(5) 0.7459(7)
H9B H 0.44062 0.78536 0.74227
C13B C 0.4647(6) 0.6371(5) 0.7470(7)
H10B H 0.44094 0.59835 0.74561
C14B C 0.3522(6) 0.6924(6) 0.7365(8)
H11B H 0.33780 0.65598 0.69763
H12B H 0.33748 0.73056 0.70212
C15B C 0.3155(6) 0.6898(5) 0.8333(7)
U1B U 0.24231(2) 0.67938(2) 0.00812(3)
O1B O 0.2640(4) 0.5991(3) 0.0098(5)
O2B O 0.2203(3) 0.7597(3) 0.0070(5)
U1B* U 0.24231(2) 0.67938(2) 1.00812(3)
U1C U 0.75769(2) 0.32062(2) 0.50812(3)
O3B O 0.1333(4) 0.6546(4) -0.0719(6)
O4B O 0.1308(5) 0.6598(4) 0.0861(6)
O7B* O 0.3450(4) 0.7005(4) -0.0901(5)
O8B* O 0.2517(4) 0.6780(3) -0.1681(4)
N3C N 0.6065(4) 0.5617(3) 0.9995(6)
C26C C 0.6100(5) 0.6237(4) 0.9977(7)
H21C H 0.65385 0.64274 0.99834
C27C C 0.5530(5) 0.6621(5) 0.9949(7)
H22C H 0.55790 0.70617 0.99090
C28C C 0.4897(5) 0.6355(5) 0.9978(11)
H23C H 0.44990 0.66085 0.99959
C29C C 0.4843(5) 0.5708(5) 0.9983(11)
H24C H 0.44056 0.55142 0.99810
C30C C 0.5427(4) 0.5348(5) 0.9990(8)
N1C N 0.7635(4) 0.4339(4) 1.0096(7)
N2C N 0.6979(4) 0.4914(4) 1.1445(6)
C16C C 0.7917(7) 0.4014(5) 0.9357(11)
H13C H 0.77856 0.41159 0.87199
C17C C 0.8388(8) 0.3542(6) 0.9500(13)
H14C H 0.85799 0.33282 0.89665
C18C C 0.8579(7) 0.3381(7) 1.0429(14)
H15C H 0.88928 0.30499 1.05373
C19C C 0.8307(7) 0.3708(6) 1.1192(12)
H16C H 0.84343 0.36127 1.18334
C20C C 0.7829(6) 0.4192(5) 1.0992(10)
C21C C 0.7500(7) 0.4546(5) 1.1756(8)
C22C C 0.7696(9) 0.4546(6) 1.2719(10)
H17C H 0.80543 0.42790 1.29269
C23C C 0.7376(9) 0.4924(6) 1.3359(9)
H18C H 0.75289 0.49479 1.40054
C24C C 0.6827(9) 0.5270(6) 1.3052(8)
H19C H 0.65797 0.55208 1.34942
C25C C 0.6637(7) 0.5255(5) 1.2101(8)
H20C H 0.62513 0.54911 1.19013
#END
