
#######################################################################
#
#                 Cambridge Crystallographic Data Centre
#                                CCDC
#
#######################################################################
#
# If this CIF has been generated from an entry in the Cambridge
# Structural Database, then it will include bibliographic, chemical,
# crystal, experimental, refinement or atomic coordinate data resulting
# from the CCDC's data processing and validation procedures.
#
#######################################################################

data_CSD_CIF_JODLUM
_audit_creation_date 2019-04-25
_audit_creation_method CSD-ConQuest-V1
_database_code_CSD JODLUM
_database_code_depnum_ccdc_archive 'CCDC 1876058'
_chemical_formula_sum 'C42 H48 Cu1 N12 O42 P1 W12'
_chemical_formula_moiety
;
(C14 H14 Cu1 N4 1+)n,2(C14 H15 N4 1+),O40 P1 W12 3-,2(H2 O1)
;
_journal_coden_Cambridge 1133
_journal_volume 30
_journal_year 2019
_journal_page_first 553
_journal_name_full 'J.Cluster Sci. '
loop_
_publ_author_name
"Fanmei Kong"
"Shuxian Li"
"Cuijuan Liu"
"Si Li"
"Ye Yang"
"Zenglong Tan"
_chemical_name_systematic
;
catena-[(\m-1,4-bis(imidazol-1-ylmethyl)benzene)-copper(i) bis(hydrogen 
1,4-bis(imidazol-1-ylmethyl)benzene) 
((\m-phosphato)-tetracosakis(\m-oxo)-dodeca-oxo-dodeca-tungsten) dihydrate]
;
_cell_volume   1715.685
_exptl_crystal_colour 'green'
_exptl_crystal_description 'block'
_diffrn_ambient_temperature 296.1
_refine_special_details
;
The Keggin anion is disordered by symmetry.

;
#These two values have been output from a single CSD field.
_refine_ls_R_factor_gt 0.0597
_refine_ls_wR_factor_gt 0.0597
_symmetry_cell_setting triclinic
_symmetry_space_group_name_H-M 'P -1'
_symmetry_Int_Tables_number 2
loop_
_symmetry_equiv_pos_site_id
_symmetry_equiv_pos_as_xyz
1 x,y,z
2 -x,-y,-z
_cell_length_a 12.314(3)
_cell_length_b 12.481(3)
_cell_length_c 12.932(3)
_cell_angle_alpha 93.653(4)
_cell_angle_beta 116.460(4)
_cell_angle_gamma 101.651(4)
_cell_formula_units_Z 1
loop_
_atom_type_symbol
_atom_type_radius_bond
C 0.68
H 0.23
Cu 1.32
N 0.68
O 0.68
P 1.05
W 1.62
loop_
_atom_site_label
_atom_site_type_symbol
_atom_site_fract_x
_atom_site_fract_y
_atom_site_fract_z
C1 C 0.4430(17) 0.5251(16) 0.6110(15)
C2 C 0.2762(17) 0.3572(16) 0.5339(16)
H1 H 0.19280 0.32110 0.48270
C3 C 0.3516(15) 0.3002(16) 0.6090(13)
C4 C 0.4756(17) 0.3585(16) 0.6857(17)
H2 H 0.52900 0.32120 0.73710
C5 C 0.3211(18) 0.4676(16) 0.5326(17)
H3 H 0.26880 0.50360 0.47830
C6 C 0.5203(19) 0.4665(19) 0.6877(18)
H4 H 0.60320 0.50260 0.74050
C7 C 0.348(2) 0.740(2) 0.4743(19)
H5 H 0.35720 0.71970 0.40870
C8 C 0.3678(17) 0.7547(15) 0.6473(16)
H6 H 0.39530 0.74760 0.72550
C9 C 0.4610(17) 0.0801(15) 0.7013(18)
H7 H 0.47430 0.06340 0.63740
C10 C 0.3936(19) 0.1488(19) 0.8117(17)
H8 H 0.35230 0.18770 0.83960
C11 C 0.480(2) 0.096(2) 0.8727(19)
H9 H 0.50720 0.08970 0.95120
C12 C 0.4972(17) 0.6434(17) 0.6114(19)
H10 H 0.56600 0.67590 0.68910
H11 H 0.53140 0.64580 0.55670
C13 C 0.2974(17) 0.1799(16) 0.6032(14)
H12 H 0.21710 0.17120 0.60280
H13 H 0.28240 0.13800 0.53020
C14 C 0.275(2) 0.801(2) 0.481(2)
H14 H 0.22410 0.83360 0.42170
N1 N 0.2892(17) 0.8074(15) 0.593(2)
N2 N 0.3785(13) 0.1340(12) 0.7006(12)
N3 N 0.5207(14) 0.0540(13) 0.8037(14)
N4 N 0.4055(14) 0.7114(12) 0.5795(13)
C15 C 0.844(7) 0.468(4) 0.085(6)
C16 C 0.761(3) 0.538(3) 0.173(3)
C17 C 0.9933(17) 0.5292(18) 0.3954(18)
C18 C 1.0161(18) 0.6083(15) 0.487(2)
H15 H 1.02590 0.68230 0.47750
C19 C 0.9752(19) 0.4179(15) 0.4110(17)
H16 H 0.95700 0.36190 0.35030
C20 C 0.991(2) 0.559(2) 0.2827(18)
H17 H 1.01890 0.63900 0.29210
H18 H 1.04880 0.52670 0.26790
N5 N 0.663(3) 0.494(3) 0.064(2)
N6 N 0.8669(19) 0.5204(17) 0.1825(16)
C21 C 0.716(9) 0.451(5) 0.012(8)
Cu1 Cu 0.50000 0.50000 0.00000
O1 O 0.8957(14) 0.0128(12) 0.2234(13)
O2 O 0.7374(11) 0.1499(11) 0.1701(10)
O3 O 0.9127(19) -0.0404(19) 0.0487(19)
O4 O 0.7699(15) -0.2668(11) -0.1104(12)
O5 O 0.7055(14) -0.0267(11) 0.0108(12)
O6 O 1.0365(13) -0.2112(11) 0.1858(15)
O7 O 1.2537(13) -0.0878(11) 0.2266(15)
O8 O 1.2055(15) 0.1862(11) 0.2802(12)
O9 O 0.8105(14) -0.1868(12) 0.0968(13)
O10 O 1.3763(12) 0.0812(15) 0.4145(10)
O11 O 1.1703(15) 0.3975(11) 0.2502(12)
O12 O 0.9444(13) -0.1650(11) 0.3358(10)
O13 O 0.5673(11) -0.2458(12) -0.0807(13)
O14 O 1.1260(12) -0.0146(11) 0.3149(16)
O15 O 0.8829(19) -0.0807(19) -0.0872(17)
O16 O 0.9656(18) 0.1087(18) 0.0313(16)
O17 O 1.0609(18) -0.0402(16) 0.1120(17)
O18 O 0.7863(17) 0.1716(14) -0.0153(15)
O19 O 1.3370(13) 0.1111(11) 0.1946(11)
P1 P 1.00000 0.00000 0.00000
W1 W 1.25611(6) 0.05560(6) 0.28467(5)
W2 W 0.82166(7) 0.10334(7) 0.11537(6)
W3 W 0.70663(7) -0.16823(6) -0.05407(6)
W4 W 1.11539(7) 0.27004(7) 0.16908(6)
W5 W 0.85819(7) 0.21512(7) -0.11503(7)
W6 W 0.96351(7) -0.11231(7) 0.22848(6)
O20 O 0.9774(19) 0.2133(16) 0.1949(17)
O21 O 0.7892(11) 0.3132(10) -0.1729(11)
O22 O 1.0053(18) 0.2941(15) 0.0206(16)
O23 O 0.125(2) 0.928(2) 0.5785(14)
H19 H 0.15360 0.95710 0.64980
H20 H 0.05230 0.93890 0.54390
C15A C 1.156(7) 0.532(4) 0.915(6)
C16A C 1.239(3) 0.462(3) 0.827(3)
C17A C 1.0067(17) 0.4708(18) 0.6046(18)
C18A C 0.9839(18) 0.3917(15) 0.513(2)
H15A H 0.97410 0.31770 0.52250
C19A C 1.0248(19) 0.5821(15) 0.5890(17)
H16A H 1.04300 0.63810 0.64970
C20A C 1.009(2) 0.441(2) 0.7173(18)
H17A H 0.98110 0.36100 0.70790
H18A H 0.95120 0.47330 0.73210
N5A N 1.337(3) 0.506(3) 0.936(2)
N6A N 1.1331(19) 0.4796(17) 0.8175(16)
C21A C 1.284(9) 0.549(5) 0.988(8)
N5A* N 0.337(3) 0.506(3) -0.064(2)
Cu1* Cu 1.50000 0.50000 1.00000
O3A O 1.0873(19) 0.0404(19) -0.0487(19)
O15A O 1.1171(19) 0.0807(19) 0.0872(17)
O16A O 1.0344(18) -0.1087(18) -0.0313(16)
O17A O 0.9391(18) 0.0402(16) -0.1120(17)
O1A O 1.1043(14) -0.0128(12) -0.2234(13)
O2A O 1.2626(11) -0.1499(11) -0.1701(10)
O4A O 1.2301(15) 0.2668(11) 0.1104(12)
O5A O 1.2945(14) 0.0267(11) -0.0108(12)
O6A O 0.9635(13) 0.2112(11) -0.1858(15)
O7A O 0.7463(13) 0.0878(11) -0.2266(15)
O8A O 0.7945(15) -0.1862(11) -0.2802(12)
O9A O 1.1895(14) 0.1868(12) -0.0968(13)
O10A O 0.6237(12) -0.0812(15) -0.4145(10)
O11A O 0.8297(15) -0.3975(11) -0.2502(12)
O12A O 1.0556(13) 0.1650(11) -0.3358(10)
O13A O 1.4327(11) 0.2458(12) 0.0807(13)
O14A O 0.8740(12) 0.0146(11) -0.3149(16)
O18A O 1.2137(17) -0.1716(14) 0.0153(15)
O19A O 0.6630(13) -0.1111(11) -0.1946(11)
W1A W 0.74389(6) -0.05560(6) -0.28467(5)
W2A W 1.17834(7) -0.10334(7) -0.11537(6)
W3A W 1.29337(7) 0.16823(6) 0.05407(6)
W4A W 0.88461(7) -0.27004(7) -0.16908(6)
W5A W 1.14181(7) -0.21512(7) 0.11503(7)
W6A W 1.03649(7) 0.11231(7) -0.22848(6)
O20A O 1.0226(19) -0.2133(16) -0.1949(17)
O21A O 1.2108(11) -0.3132(10) 0.1729(11)
O22A O 0.9947(18) -0.2941(15) -0.0206(16)
#END
