
#######################################################################
#
#                 Cambridge Crystallographic Data Centre
#                                CCDC
#
#######################################################################
#
# If this CIF has been generated from an entry in the Cambridge
# Structural Database, then it will include bibliographic, chemical,
# crystal, experimental, refinement or atomic coordinate data resulting
# from the CCDC's data processing and validation procedures.
#
#######################################################################

data_CSD_CIF_JODYOR
_audit_creation_date 2009-02-06
_audit_creation_method CSD-ConQuest-V1
_database_code_CSD JODYOR
_database_code_depnum_ccdc_archive 'CCDC 674064'
_chemical_formula_sum 'C22 H35 Co6 N12 Na1 O18'
_chemical_formula_moiety
;
(Na1 1+)n,n(C22 H35 Co6 N12 O18 1-)
;
_journal_coden_Cambridge 1295
_journal_volume 11
_journal_year 2008
_journal_page_first 572
_journal_name_full 'Inorg.Chem.Commun. '
loop_
_publ_author_name
"Yang Chen"
"You Song"
"Yong Zhang"
"Jian-Ping Lang"
_chemical_name_systematic
;
catena-(Sodium 
tris(\m~4~-5-methyltetrazaolato)-bis(\m~3~-hydroxo)-octakis(\m~2~-acetato)-hex
a-cobalt(ii))
;
_cell_volume   5293.326
_exptl_crystal_colour 'purple-red'
_exptl_crystal_density_diffrn 2.132
_exptl_special_details
;
magnetic properties

;
_exptl_crystal_description 'Platelet'
_diffrn_ambient_temperature 173
_refine_special_details
;
The oxygens of two acetato groups are disordered by symmetry. The hydroxy 
groups are disordered over two sites with occupancies 0.66:0.34.
;
#These two values have been output from a single CSD field.
_refine_ls_R_factor_gt 0.0446
_refine_ls_wR_factor_gt 0.0446
_symmetry_cell_setting rhombohedral
_symmetry_space_group_name_H-M 'R -3 c'
_symmetry_Int_Tables_number 167
loop_
_symmetry_equiv_pos_site_id
_symmetry_equiv_pos_as_xyz
1 x,y,z
2 -y,x-y,z
3 -x+y,-x,z
4 y,x,1/2-z
5 2/3+x,1/3+y,1/3+z
6 2/3-y,1/3+x-y,1/3+z
7 2/3-x+y,1/3-x,1/3+z
8 2/3+y,1/3+x,5/6-z
9 1/3+x,2/3+y,2/3+z
10 1/3+y,2/3+x,1/6-z
11 x-y,-y,1/2-z
12 -x,-x+y,1/2-z
13 1/3-y,2/3+x-y,2/3+z
14 1/3-x+y,2/3-x,2/3+z
15 1/3+x-y,2/3-y,1/6-z
16 1/3-x,2/3-x+y,1/6-z
17 2/3+x-y,1/3-y,5/6-z
18 2/3-x,1/3-x+y,5/6-z
19 -x,-y,-z
20 y,-x+y,-z
21 x-y,x,-z
22 -y,-x,-1/2+z
23 -2/3-x,-1/3-y,-1/3-z
24 -2/3+y,-1/3-x+y,-1/3-z
25 -2/3+x-y,-1/3+x,-1/3-z
26 -2/3-y,-1/3-x,-5/6+z
27 -1/3-x,-2/3-y,-2/3-z
28 -1/3-y,-2/3-x,-1/6+z
29 -x+y,y,-1/2+z
30 x,x-y,-1/2+z
31 -1/3+y,-2/3-x+y,-2/3-z
32 -1/3+x-y,-2/3+x,-2/3-z
33 -1/3-x+y,-2/3+y,-1/6+z
34 -1/3+x,-2/3+x-y,-1/6+z
35 -2/3-x+y,-1/3+y,-5/6+z
36 -2/3+x,-1/3+x-y,-5/6+z
_cell_length_a 11.9571(17)
_cell_length_b 11.9571(17)
_cell_length_c 42.751(9)
_cell_angle_alpha 90
_cell_angle_beta 90
_cell_angle_gamma 120
_cell_formula_units_Z 6
loop_
_atom_type_symbol
_atom_type_radius_bond
C 0.68
H 0.23
Co 1.28
N 0.68
Na 0.97
O 0.61
loop_
_atom_site_label
_atom_site_type_symbol
_atom_site_fract_x
_atom_site_fract_y
_atom_site_fract_z
Co1 Co 0.81971(5) 0.84424(5) 0.915051(14)
Na1 Na 1.00000 1.00000 1.00000
C1 C 0.6232(5) 0.9566(5) 0.91670
C2 C 0.5009(5) 0.8342(5) 0.91670
H1 H 0.46860 0.81180 0.93810
H2? H 0.51440 0.76600 0.90800
H3? H 0.43760 0.84280 0.90390
C3 C 0.6888(7) 0.6876(12) 0.96966(15)
C4 C 0.6649(6) 0.6770(5) 1.00262(14)
H4 H 0.62180 0.72550 1.00830
H5 H 0.74700 0.71220 1.01390
H6 H 0.60950 0.58590 1.00820
C5 C 1.00000 1.00000 0.8539(4)
C6 C 1.00000 1.00000 0.8226(3)
H7 H 1.07010 1.08290 0.81500
H8? H 0.91710 0.98720 0.81500
H9? H 1.01280 0.92990 0.81500
N1 N 0.7391(3) 0.9669(3) 0.91539(8)
N2 N 0.8229(3) 1.0936(3) 0.91592(9)
O1 O 1.00000 1.00000 0.92916(18)
H10 H 1.00000 1.00000 0.9516(5)
O2? O 1.00000 1.00000 0.9055(4)
O3 O 0.7326(7) 0.7700(7) 0.95545(17)
O4? O 0.8129(10) 0.8407(9) 0.96652(19)
O5 O 0.6355(6) 0.5560(5) 0.95905(13)
O6? O 0.6585(7) 0.6725(8) 0.94334(16)
O7 O 0.8889(7) 0.9050(7) 0.86861(18)
Co1G Co 0.510907(50) 1.153043(50) 0.918282(14)
Co1A Co 1.15576(5) 0.97547(5) 0.915051(14)
Co1Q Co 0.846957(50) 0.357863(50) 0.918282(14)
Co1B Co 1.02453(5) 1.18029(5) 0.915051(14)
Co1Q* Co 0.846957(50) 1.357863(50) 0.918282(14)
Co1P Co 0.642137(50) 0.489093(50) 0.918282(14)
Co1P* Co 0.642137(50) 1.489093(50) 0.918282(14)
Co1A* Co 0.15576(5) 0.97547(5) 0.915051(14)
Co1B* Co 0.02453(5) 1.18029(5) 0.915051(14)
Co1G* Co 1.510907(50) 1.153043(50) 0.918282(14)
C1A C 1.0434(5) 0.6666(5) 0.91670
C1P C 0.333267(500) 1.376733(500) 0.91663
C2A C 1.1658(5) 0.6667(5) 0.91670
C2P C 0.333367(500) 1.499133(500) 0.91663
H1G H 0.47847 0.80193 0.89523
H1A H 1.18820 0.65680 0.93810
H1Q H 1.19807 0.67653 0.89523
H1P H 0.32347 1.52153 0.89523
H1B H 0.34320 1.53140 0.93810
C3P C 0.667867(700) 0.645733(1200) 0.863673(150)
C3G C 0.354267(700) 1.022133(1200) 0.863673(150)
C3A C 0.3124(7) 1.0012(12) 0.96966(15)
C3A* C 1.3124(7) 1.0012(12) 0.96966(15)
C3G* C 1.354267(700) 1.022133(1200) 0.863673(150)
C4P C 0.654567(600) 0.656333(500) 0.830713(140)
C4G C 0.343667(600) 0.998233(500) 0.830713(140)
C4A C 0.3230(6) 0.9879(5) 1.00262(14)
C4A* C 1.3230(6) 0.9879(5) 1.00262(14)
C4G* C 1.343667(600) 0.998233(500) 0.830713(140)
H4P H 0.56297 0.60783 0.82503
H4G H 0.39217 0.95513 0.82503
H4A H 0.27450 0.89630 1.00830
H4A* H 1.27450 0.89630 1.00830
H4G* H 1.39217 0.95513 0.82503
H5P H 0.70147 0.62113 0.81943
H5G H 0.37887 1.08033 0.81943
H5A H 0.28780 1.03480 1.01390
H5A* H 1.28780 1.03480 1.01390
H5G* H 1.37887 1.08033 0.81943
H6P H 0.69027 0.74743 0.82513
H6G H 0.25257 0.94283 0.82513
H6A H 0.41410 1.02360 1.00820
H6A* H 1.41410 1.02360 1.00820
H6G* H 1.25257 0.94283 0.82513
C5G C 0.66667 1.33333 0.979433(400)
C6G C 0.66667 1.33333 1.010733(300)
H7A H 0.91710 0.98720 0.81500
H7B H 1.01280 0.92990 0.81500
H7G H 0.74957 1.40343 1.01833
H7P H 0.65387 1.25043 1.01833
H7Q H 0.59657 1.34613 1.01833
N1G N 0.633567(300) 1.072433(300) 0.917943(80)
N1A N 1.0331(3) 0.7722(3) 0.91539(8)
N1Q N 0.927567(300) 0.561133(300) 0.917943(80)
N1P N 0.438867(300) 1.366433(300) 0.917943(80)
N1B N 0.2278(3) 1.2609(3) 0.91539(8)
N1B* N 1.2278(3) 1.2609(3) 0.91539(8)
N1Q* N 0.927567(300) 1.561133(300) 0.917943(80)
N2G N 0.760267(300) 1.156233(300) 0.917413(90)
N2A N 0.9064(3) 0.7293(3) 0.91592(9)
N2Q N 0.843767(300) 0.604033(300) 0.917413(90)
N2P N 0.395967(300) 1.239733(300) 0.917413(90)
N2B N 0.2707(3) 1.1771(3) 0.91592(9)
N2B* N 1.2707(3) 1.1771(3) 0.91592(9)
N2G* N 0.760267(300) 0.156233(300) 0.917413(90)
O1G O 0.66667 1.33333 0.904173(180)
O1G* O 0.66667 0.33333 0.904173(180)
H10G H 0.66667 1.33333 0.881733(500)
H10G* H 0.66667 0.33333 0.881733(500)
O3P O 0.629267(700) 0.563333(700) 0.877883(170)
O3G O 0.436667(700) 1.065933(700) 0.877883(170)
O3A O 0.2300(7) 0.9626(7) 0.95545(17)
O3A* O 1.2300(7) 0.9626(7) 0.95545(17)
O3G* O 1.436667(700) 1.065933(700) 0.877883(170)
O3Q O 0.934067(700) 0.370733(700) 0.877883(170)
O3B O 1.0374(7) 1.2674(7) 0.95545(17)
O3Q* O 0.934067(700) 1.370733(700) 0.877883(170)
O5P O 0.746167(600) 0.777333(500) 0.874283(130)
O5G O 0.222667(600) 0.968833(500) 0.874283(130)
O5A O 0.4440(6) 1.0795(5) 0.95905(13)
O5A* O 1.4440(6) 1.0795(5) 0.95905(13)
O5G* O 1.222667(600) 0.968833(500) 0.874283(130)
O5B O 0.9205(6) 0.3645(5) 0.95905(13)
O5Q O 1.031167(600) 1.253833(500) 0.874283(130)
O5B* O 0.9205(6) 1.3645(5) 0.95905(13)
O7A O 1.0950(7) 0.9839(7) 0.86861(18)
O7B O 1.0161(7) 1.1111(7) 0.86861(18)
O7G O 0.571667(700) 1.222233(700) 0.964723(180)
O7P O 0.650567(700) 1.428333(700) 0.964723(180)
O7Q O 0.777767(700) 1.349433(700) 0.964723(180)
O7Q* O 0.777767(700) 0.349433(700) 0.964723(180)
#END
