
#######################################################################
#
#                 Cambridge Crystallographic Data Centre
#                                CCDC
#
#######################################################################
#
# If this CIF has been generated from an entry in the Cambridge
# Structural Database, then it will include bibliographic, chemical,
# crystal, experimental, refinement or atomic coordinate data resulting
# from the CCDC's data processing and validation procedures.
#
#######################################################################

data_CSD_CIF_JOFKUM
_audit_creation_date 2014-05-19
_audit_creation_method CSD-ConQuest-V1
_database_code_CSD JOFKUM
_database_code_depnum_ccdc_archive 'CCDC 920361'
_chemical_formula_sum 'C13 H32 Ag3 N16 O46 P1 S4 W12'
_chemical_formula_moiety
;
(C13 H24 Ag3 N16 O2 S4 3+)n,n(O40 P1 W12 3-),4n(H2 O1)
;
_journal_coden_Cambridge 1350
_journal_volume 16
_journal_year 2014
_journal_page_first 5642
_journal_name_full 'CrystEngComm '
loop_
_publ_author_name
"Hailiang Hu"
"Weisong Zhang"
"Jingjing Gong"
"Huan Dong"
"Fangfang Zhao"
"Hui Huang"
"Yang Liu"
"Guangju Zhang"
"Zhenhui Kang"
_chemical_name_systematic
;
catena-[(\m~7~-1-methyl-5-((3-((1-methyltetrazol-5-yl)sulfanyl)-2,2-bis(((1-me
thyltetrazol-5-yl)sulfanyl)methyl)propyl)sulfanyl)tetrazole)-diaqua-tri-silver
 
(\m~12~-phosphato)-tetracosakis(\m~2~-oxido)-dodecakis(oxido)-dodeca-tungsten 
tetrahydrate]
;
_cell_volume   6032.235
_exptl_crystal_colour 'yellow'
_exptl_crystal_density_diffrn 4.212
_exptl_crystal_description 'block'
_diffrn_ambient_temperature 150
_refine_special_details
;
The structure is disordered.

;
#These two values have been output from a single CSD field.
_refine_ls_R_factor_gt 0.0312
_refine_ls_wR_factor_gt 0.0312
_symmetry_cell_setting monoclinic
_symmetry_space_group_name_H-M 'P 21/c'
_symmetry_Int_Tables_number 14
loop_
_symmetry_equiv_pos_site_id
_symmetry_equiv_pos_as_xyz
1 x,y,z
2 -x,1/2+y,1/2-z
3 -x,-y,-z
4 x,-1/2-y,-1/2+z
_cell_length_a 18.274(3)
_cell_length_b 16.737(3)
_cell_length_c 26.438(3)
_cell_angle_alpha 90
_cell_angle_beta 131.755(7)
_cell_angle_gamma 90
_cell_formula_units_Z 4
loop_
_atom_type_symbol
_atom_type_radius_bond
C 0.68
H 0.23
Ag 1.45
N 0.68
O 0.68
P 1.05
S 1.02
W 1.62
loop_
_atom_site_label
_atom_site_type_symbol
_atom_site_fract_x
_atom_site_fract_y
_atom_site_fract_z
W1 W 0.64899(3) 1.24017(3) 0.79353(2)
W2 W 0.56330(3) 1.11400(3) 0.66092(2)
W3 W 0.76817(3) 1.06361(3) 0.82390(2)
W4 W 0.88258(3) 1.34749(3) 0.88350(2)
W5 W 0.66424(3) 1.40650(3) 0.70896(2)
W6 W 0.57389(3) 1.28192(3) 0.57565(2)
W7 W 0.70136(3) 1.09233(3) 0.60513(2)
W8 W 0.90431(3) 1.03717(3) 0.76646(2)
W9 W 1.00044(3) 1.17215(3) 0.90981(2)
W10 W 1.00902(3) 1.32983(3) 0.83068(2)
W11 W 0.78921(4) 1.38302(3) 0.65464(2)
W12 W 0.91871(3) 1.19336(3) 0.68950(2)
P1 P 0.78484(17) 1.22188(17) 0.74178(12)
O1 O 0.7201(5) 1.1796(4) 0.7507(3)
O2 O 0.8768(4) 1.2533(4) 0.8106(3)
O3 O 0.7277(5) 1.2917(4) 0.6924(3)
O4 O 0.8140(5) 1.1639(5) 0.7135(3)
O5 O 0.4531(5) 1.0692(5) 0.6088(4)
O6 O 0.7827(6) 0.9851(5) 0.8697(4)
O7 O 0.5485(5) 1.1799(5) 0.7143(4)
O8 O 0.6385(5) 1.0431(5) 0.7370(4)
O9 O 0.7066(5) 1.1394(5) 0.8397(4)
O10 O 0.7751(5) 1.2865(5) 0.8587(3)
O11 O 0.6233(5) 1.3260(5) 0.7379(3)
O12 O 0.5400(5) 1.2086(5) 0.6126(4)
O13 O 0.6276(5) 1.0759(5) 0.6327(4)
O14 O 0.8207(5) 1.0275(5) 0.7852(4)
O15 O 0.8881(5) 1.1199(4) 0.8865(3)
O16 O 0.9065(5) 1.4093(5) 0.9428(4)
O17 O 0.7860(5) 1.4026(5) 0.7996(3)
O18 O 0.6127(6) 1.4913(5) 0.7072(4)
O19 O 0.5633(5) 1.3681(5) 0.6182(4)
O20 O 0.4670(6) 1.2916(6) 0.4947(4)
O21 O 0.6357(5) 1.1924(5) 0.5719(3)
O22 O 0.6405(6) 1.0367(6) 0.5340(4)
O23 O 0.7943(5) 1.0160(5) 0.6738(4)
O24 O 0.9652(6) 0.9495(5) 0.7942(4)
O25 O 0.9841(5) 1.1011(5) 0.8471(3)
O26 O 1.0964(5) 1.1312(5) 0.9849(4)
O27 O 0.9695(5) 1.2623(5) 0.9383(3)
O28 O 0.9775(5) 1.3823(5) 0.8781(4)
O29 O 0.7276(5) 1.4459(5) 0.6790(4)
O30 O 0.6587(6) 1.3493(5) 0.5759(4)
O31 O 0.8061(6) 1.1365(5) 0.6133(4)
O32 O 0.9614(5) 1.0937(5) 0.7368(4)
O33 O 1.0668(5) 1.2466(5) 0.8979(3)
O34 O 0.9042(5) 1.3823(5) 0.7491(4)
O35 O 0.8398(5) 1.2882(5) 0.6490(4)
O36 O 0.9938(5) 1.2500(5) 0.7727(4)
O37 O 1.1087(6) 1.3821(6) 0.8585(4)
O38 O 0.8123(6) 1.4541(5) 0.6217(4)
O39 O 0.9896(6) 1.1974(6) 0.6694(4)
O40 O 0.5903(5) 1.2671(5) 0.8211(4)
Ag1 Ag 0.53360(7) 0.91178(7) 0.72971(5)
Ag2 Ag 1.35861(7) 0.68658(7) 1.05055(6)
Ag3 Ag 1.40037(12) 0.92240(12) 1.10791(10)
S1 S 0.6536(2) 0.7463(2) 0.83279(17)
S2 S 0.97454(19) 0.83000(19) 0.92012(15)
S3 S 0.7790(2) 0.8419(2) 0.76643(15)
S4 S 0.8459(2) 0.5968(2) 0.93795(16)
N1 N 0.6037(6) 0.8962(7) 0.8396(5)
N2 N 0.6126(8) 0.9394(8) 0.8874(6)
N3 N 0.6464(8) 0.8948(9) 0.9394(5)
N4 N 0.6614(7) 0.8240(8) 0.9277(5)
N5 N 1.1472(6) 0.7486(6) 0.9799(4)
N6 N 1.2403(6) 0.7736(6) 1.0122(5)
N7 N 1.2482(6) 0.8503(6) 1.0156(5)
N8 N 1.1579(6) 0.8783(6) 0.9850(4)
N9 N 0.5771(7) 0.8590(6) 0.6704(5)
N10 N 0.5083(7) 0.8611(7) 0.6026(5)
N11 N 0.5468(7) 0.8548(7) 0.5759(4)
N12 N 0.6437(6) 0.8471(6) 0.6282(4)
N13 N 0.6717(7) 0.5138(6) 0.8492(5)
N14 N 0.6308(7) 0.4516(6) 0.8568(5)
N15 N 0.6865(7) 0.4298(6) 0.9192(5)
N16 N 0.7668(7) 0.4768(6) 0.9546(5)
C1 C 0.8241(7) 0.7181(7) 0.8567(5)
C2 C 0.7824(7) 0.7690(7) 0.8797(6)
H1 H 0.78860 0.82500 0.87350
H2 H 0.82020 0.76010 0.92770
C3 C 0.9360(7) 0.7261(7) 0.9063(5)
H3 H 0.96080 0.69720 0.88860
H4 H 0.96400 0.70210 0.94930
C4 C 0.7777(8) 0.7356(7) 0.7831(5)
H5 H 0.71040 0.71690 0.75220
H6 H 0.81290 0.70560 0.77370
C5 C 0.8038(8) 0.6272(7) 0.8567(5)
H7 H 0.83700 0.59580 0.84630
H8 H 0.73400 0.61700 0.82170
C6 C 0.6377(8) 0.8250(9) 0.8679(6)
C7 C 0.7004(9) 0.758(1) 0.9766(7)
H9 H 0.67630 0.76280 0.99940
H10 H 0.77080 0.76030 1.00920
H11 H 0.67950 0.70790 0.95290
C8 C 1.0980(8) 0.8158(7) 0.9628(6)
C9 C 1.1370(9) 0.9634(7) 0.9776(7)
H12 H 1.13440 0.98020 1.01110
H13 H 1.07500 0.97380 0.93310
H14 H 1.18770 0.99230 0.98370
C10 C 0.6621(8) 0.8495(7) 0.6857(6)
C11 C 0.7085(10) 0.8388(9) 0.6155(7)
H15 H 0.72030 0.78320 0.61460
H16 H 0.76950 0.86510 0.65080
H17 H 0.67900 0.86270 0.57260
C12 C 0.7579(8) 0.5261(7) 0.9117(6)
C13 C 0.8468(9) 0.4672(9) 1.0281(5)
H18 H 0.84570 0.51090 1.05110
H19 H 0.90850 0.46650 1.03910
H20 H 0.83830 0.41780 1.04220
O41 O 1.5118(16) 0.9275(10) 1.2322(10)
O42 O 1.516(3) 0.826(2) 1.1231(17)
O43 O 1.429(2) 1.0126(18) 1.0033(16)
O44 O 0.6626(12) 0.6261(10) 0.6431(7)
O45 O 0.8010(13) 0.6355(12) 0.623(1)
O46 O 0.900(2) 0.5548(16) 0.7946(14)
Ag4? Ag 1.3795(5) 0.9191(5) 1.0401(5)
O47? O 1.520(4) 0.888(3) 1.220(3)
O48? O 1.4657(18) 0.8457(18) 1.0777(14)
O49? O 1.455(6) 0.951(4) 1.039(4)
Ag1A Ag 0.46640(7) 0.41178(7) 0.77029(5)
Ag2B Ag 0.64139(7) 0.31342(7) 0.94945(6)
Ag2C Ag 0.35861(7) 0.81342(7) 0.55055(6)
Ag3B Ag 0.59963(12) 1.07760(12) 0.89209(10)
N2B N 1.3874(8) 1.0606(8) 1.1126(6)
N10C N 1.5083(7) 0.6389(7) 1.1026(5)
N14A N 0.3692(7) 0.9516(6) 0.6432(5)
N15B N 1.3135(7) 0.5702(6) 1.0808(5)
#END
