
#######################################################################
#
#                 Cambridge Crystallographic Data Centre
#                                CCDC
#
#######################################################################
#
# If this CIF has been generated from an entry in the Cambridge
# Structural Database, then it will include bibliographic, chemical,
# crystal, experimental, refinement or atomic coordinate data resulting
# from the CCDC's data processing and validation procedures.
#
#######################################################################

data_CSD_CIF_JOFTEF
_audit_creation_date 2014-05-19
_audit_creation_method CSD-ConQuest-V1
_database_code_CSD JOFTEF
_database_code_depnum_ccdc_archive 'CCDC 897890'
_chemical_formula_sum 'C38 H24 N6 O14 Zn1'
_chemical_formula_moiety
;
C22 H18 N4 O2 2+,(C16 H6 N2 O12 Zn1 2-)n
;
_journal_coden_Cambridge 1350
_journal_volume 16
_journal_year 2014
_journal_page_first 5608
_journal_name_full 'CrystEngComm '
loop_
_publ_author_name
"Shu-Yun Huang"
"Jian-Qiang Li"
"Shu-Juan Liu"
"Yang Ning"
"Li-Na Meng"
"Jin-Yuan Li"
"Ming-Biao Luo"
"Feng Luo"
_chemical_name_systematic
;
catena-[N^1^,N^4^-di(pyridinium-4-yl)naphthalene-1,4-dicarboxamide 
bis(\m~2~-3-carboxylato-5-nitrobenzoato)-zinc]
;
_cell_volume   3601.026
_exptl_crystal_density_diffrn 1.575
_diffrn_ambient_temperature 296
#These two values have been output from a single CSD field.
_refine_ls_R_factor_gt 0.0425
_refine_ls_wR_factor_gt 0.0425
_symmetry_cell_setting monoclinic
_symmetry_space_group_name_H-M 'P 21/c'
_symmetry_Int_Tables_number 14
loop_
_symmetry_equiv_pos_site_id
_symmetry_equiv_pos_as_xyz
1 x,y,z
2 -x,1/2+y,1/2-z
3 -x,-y,-z
4 x,-1/2-y,-1/2+z
_cell_length_a 15.0919(5)
_cell_length_b 14.1967(5)
_cell_length_c 18.1636(6)
_cell_angle_alpha 90
_cell_angle_beta 112.283(2)
_cell_angle_gamma 90
_cell_formula_units_Z 4
loop_
_atom_type_symbol
_atom_type_radius_bond
C 0.68
H 0.23
N 0.68
O 0.68
Zn 1.22
loop_
_atom_site_label
_atom_site_type_symbol
_atom_site_fract_x
_atom_site_fract_y
_atom_site_fract_z
C1 C 0.0843(2) 0.8069(2) -0.04824(16)
H1 H 0.13910 0.82920 -0.05420
C2 C 0.07961(19) 0.7149(2) -0.02469(16)
C3 C 0.5400(2) 0.4953(2) 0.27977(17)
H2 H 0.49850 0.48920 0.30650
C4 C -0.0799(2) 0.7445(2) -0.02808(16)
C5 C 0.7012(2) 0.5130(2) 0.28454(17)
H3 H 0.76640 0.51910 0.31440
C6 C 0.3993(2) 0.4803(2) 0.15128(18)
C7 C -0.1700(2) 0.7097(3) -0.01921(18)
C8 C 0.0063(2) 0.8645(2) -0.06260(16)
C9 C 0.1641(2) 0.6502(3) -0.01130(17)
C10 C -0.0753(2) 0.8356(2) -0.05233(16)
H4 H -0.12640 0.87680 -0.06160
C11 C 0.6670(2) 0.5092(2) 0.20237(17)
C12 C -0.00256(19) 0.6838(2) -0.01477(16)
H5 H -0.00600 0.62200 0.00090
C13 C 0.5694(2) 0.5002(2) 0.15937(17)
H6 H 0.54620 0.49980 0.10410
C14 C 0.5058(2) 0.4919(2) 0.19772(17)
C15 C 0.7364(2) 0.5114(2) 0.16029(19)
C16 C 0.6364(2) 0.5077(2) 0.32115(16)
N1 N 0.01050(19) 0.9609(2) -0.09016(14)
N2 N 0.6719(2) 0.5140(2) 0.40884(15)
O1 O 0.34673(16) 0.4738(2) 0.18846(15)
O2 O 0.37339(15) 0.47851(18) 0.07713(13)
O3 O 0.69780(15) 0.52603(19) 0.08656(13)
O4 O 0.82189(16) 0.4997(2) 0.19861(14)
O5 O 0.75614(17) 0.50246(19) 0.44652(13)
O6 O 0.6147(2) 0.5301(3) 0.43901(15)
O7 O -0.24122(17) 0.7616(2) -0.04295(18)
O8 O -0.16548(16) 0.63020(19) 0.01013(16)
O9 O 0.14992(15) 0.56396(18) -0.00215(15)
O10 O 0.23984(15) 0.68356(18) -0.01049(14)
O11 O 0.07782(19) 0.98413(18) -0.10773(16)
O12 O -0.05435(18) 1.01490(18) -0.09429(16)
Zn1 Zn 0.24643(2) 0.47690(3) -0.007343(19)
C17 C 1.0289(2) 0.3700(3) 0.22488(16)
C18 C 1.0294(2) 0.4602(2) 0.19556(19)
H7 H 0.97890 0.50110 0.18880
C19 C 0.6627(2) 0.2447(2) 0.29586(18)
C20 C 0.7391(2) 0.2924(2) 0.34827(19)
H8 H 0.73340 0.32100 0.39230
C21 C 0.4662(3) 0.2027(3) 0.5276(2)
H9 H 0.48030 0.17760 0.57810
C22 C 0.5120(2) 0.2345(2) 0.4182(2)
C23 C 1.1046(3) 0.4882(3) 0.1767(2)
H10 H 1.10490 0.54840 0.15650
C24 C 0.5324(3) 0.1970(3) 0.4931(2)
H11 H 0.59110 0.16800 0.52000
C25 C 0.5703(2) 0.2450(2) 0.3080(2)
C26 C 1.1062(2) 0.3104(3) 0.23477(19)
H12 H 1.10800 0.24960 0.25430
C27 C 0.7628(2) 0.1966(2) 0.22344(17)
C28 C 0.5968(2) 0.1469(3) 0.17216(19)
H13 H 0.53590 0.14910 0.17340
C29 C 0.3618(3) 0.2821(4) 0.4190(3)
H14 H 0.30310 0.31200 0.39420
C30 C 0.6721(2) 0.1968(2) 0.22960(17)
C31 C 0.8381(2) 0.2526(2) 0.27707(18)
C32 C 0.8257(2) 0.2993(2) 0.3373(2)
H15 H 0.87500 0.33620 0.37170
C33 C 0.9325(2) 0.2579(3) 0.2672(2)
C34 C 1.1793(2) 0.3439(3) 0.2149(2)
H16 H 1.23140 0.30510 0.22120
C35 C 0.7763(3) 0.1395(3) 0.1652(2)
H17 H 0.83670 0.13570 0.16290
C36 C 0.6119(3) 0.0953(3) 0.1149(2)
H18 H 0.56110 0.06340 0.07710
C37 C 0.4244(3) 0.2791(3) 0.3812(2)
H19 H 0.40860 0.30650 0.33130
C38 C 0.7027(3) 0.0901(3) 0.1125(2)
H20 H 0.71300 0.05250 0.07450
H21 H 0.904(2) 0.387(2) 0.2312(18)
H22 H 0.631(3) 0.212(3) 0.417(2)
H23 H 0.333(4) 0.246(4) 0.515(3)
H24 H 1.226(3) 0.451(3) 0.175(2)
N3 N 0.95038(19) 0.3439(2) 0.24204(15)
N4 N 0.5812(2) 0.2298(2) 0.38600(19)
N5 N 0.3820(2) 0.2437(2) 0.4897(2)
N6 N 1.1777(2) 0.4301(3) 0.18692(17)
O13 O 0.9862(2) 0.1910(2) 0.2800(2)
O14 O 0.49300(16) 0.2587(2) 0.25545(14)
O3B O 0.30220(15) 0.47397(19) -0.08656(13)
O8B O 0.16548(16) 0.36980(19) -0.01013(16)
Zn1B Zn -0.24643(2) 0.52310(3) 0.007343(19)
Zn1B* Zn 0.75357(2) 0.52310(3) 0.007343(19)
#END
