
#######################################################################
#
#                 Cambridge Crystallographic Data Centre
#                                CCDC
#
#######################################################################
#
# If this CIF has been generated from an entry in the Cambridge
# Structural Database, then it will include bibliographic, chemical,
# crystal, experimental, refinement or atomic coordinate data resulting
# from the CCDC's data processing and validation procedures.
#
#######################################################################

data_CSD_CIF_JOGDEP
_audit_creation_date 2009-02-06
_audit_creation_method CSD-ConQuest-V1
_database_code_CSD JOGDEP
_database_code_depnum_ccdc_archive 'CCDC 703064'
_chemical_formula_sum 'C72 H84 Ga20 N12 S32'
_chemical_formula_moiety
;
(C48 H52 Ga20 N8 S32 4-)n,4n(C6 H8 N1 1+)
;
_journal_coden_Cambridge 4
_journal_volume 130
_journal_year 2008
_journal_page_first 9630
_journal_name_full 'J.Am.Chem.Soc. '
loop_
_publ_author_name
"P.Vaqueiro"
"M.L.Romero"
_chemical_name_systematic
;
catena-(tetrakis(4-Methylpyridinium) 
octakis(\m~3~-sulfido)-bis(\m~2~-1,2-bis(4-pyridyl)ethane)-tetracosakis(\m~2~-
sulfido)-tetrakis(4-methylpyridine)-icosa-gallium)
;
_cell_volume  13741.235
_exptl_crystal_colour 'colorless'
_exptl_crystal_description 'plate'
_diffrn_ambient_temperature 100
_refine_special_details
;
Disordered cations have been removed using SQUEEZE/PLATON.

;
#These two values have been output from a single CSD field.
_refine_ls_R_factor_gt 0.0424
_refine_ls_wR_factor_gt 0.0424
_symmetry_cell_setting orthorhombic
_symmetry_space_group_name_H-M 'P c c a'
_symmetry_Int_Tables_number 54
loop_
_symmetry_equiv_pos_site_id
_symmetry_equiv_pos_as_xyz
1 x,y,z
2 1/2+x,-y,1/2-z
3 -x,y,1/2-z
4 1/2-x,-y,z
5 -x,-y,-z
6 -1/2-x,y,-1/2+z
7 x,-y,-1/2+z
8 -1/2+x,y,-z
_cell_length_a 37.4329(14)
_cell_length_b 19.7762(8)
_cell_length_c 18.5622(7)
_cell_angle_alpha 90
_cell_angle_beta 90
_cell_angle_gamma 90
_cell_formula_units_Z 4
loop_
_atom_type_symbol
_atom_type_radius_bond
C 0.68
H 0.23
Ga 1.22
N 0.68
S 1.02
loop_
_atom_site_label
_atom_site_type_symbol
_atom_site_fract_x
_atom_site_fract_y
_atom_site_fract_z
Ga1 Ga 0.04982(2) 0.37119(5) -0.58439(5)
Ga2 Ga 0.05799(2) 0.21813(4) -0.49569(5)
Ga3 Ga 0.12870(2) 0.35352(4) -0.49067(5)
Ga4 Ga 0.10940(2) 0.26220(4) -0.66690(5)
Ga5 Ga 0.07951(2) 0.06393(5) -0.41609(5)
Ga6 Ga 0.12526(2) 0.09352(4) -0.57437(5)
Ga7 Ga 0.14535(2) 0.18529(4) -0.39868(5)
Ga8 Ga 0.17204(2) 0.14541(5) -0.72592(5)
Ga9 Ga 0.19626(2) 0.23006(4) -0.56926(5)
Ga10 Ga 0.20818(3) 0.31276(5) -0.40629(6)
S1 S 0.01660(5) 0.29573(11) -0.52289(12)
S2 S 0.06760(6) 0.33802(11) -0.69453(12)
S3 S 0.08842(6) 0.43277(11) -0.51908(13)
S4 S 0.03233(5) 0.13238(11) -0.43581(11)
S5 S 0.08291(5) 0.17522(9) -0.6013(1)
S6 S 0.13293(6) 0.22134(12) -0.76831(12)
S7 S 0.10229(5) 0.26649(10) -0.42484(11)
S8 S 0.15391(5) 0.31183(10) -0.59671(11)
S9 S 0.17093(6) 0.40048(11) -0.42178(15)
S10 S 0.10057(6) 0.00904(10) -0.51286(12)
S11 S 0.14844(6) 0.05145(11) -0.67627(12)
S12 S 0.11998(6) 0.10082(11) -0.33568(12)
S13 S 0.16992(5) 0.14258(9) -0.50422(12)
S14 S 0.22061(6) 0.18762(12) -0.66984(13)
S15 S 0.18871(6) 0.23155(11) -0.33094(13)
S16 S 0.23926(6) 0.27693(13) -0.50291(15)
N1 N 0.01212(18) 0.4407(4) -0.6133(4)
C1 C 0.0132(3) 0.5062(5) -0.5892(6)
C2 C -0.0126(3) 0.5531(6) -0.6119(6)
C3 C -0.0393(3) 0.5346(5) -0.6587(5)
C4 C -0.0395(3) 0.4672(6) -0.6817(6)
C5 C -0.0132(3) 0.4235(5) -0.6596(6)
C6 C -0.0671(3) 0.5832(6) -0.6850(7)
N2 N 0.2494(2) 0.3573(5) -0.3538(5)
C7 C 0.2658(3) 0.3312(6) -0.2988(6)
C8 C 0.2974(3) 0.3563(6) -0.2708(7)
C9 C 0.3120(3) 0.4123(7) -0.2986(7)
C10 C 0.2970(4) 0.4349(7) -0.3602(7)
C11 C 0.2660(3) 0.4065(7) -0.3898(7)
C12 C 0.3471(4) 0.4395(7) -0.2703(7)
N3 N 0.05543(17) -0.0163(3) -0.3676(4)
C13 C 0.0272(3) -0.0442(5) -0.4015(5)
C14 C 0.0106(2) -0.1011(5) -0.3771(5)
C15 C 0.0227(2) -0.1338(4) -0.3164(4)
C16 C 0.0520(2) -0.1057(4) -0.2814(4)
C17 C 0.0678(2) -0.0464(4) -0.3088(4)
C18 C 0.0047(2) -0.1982(4) -0.2911(4)
N4 N -0.19292(19) 0.1088(4) 0.3187(4)
C19 C -0.2231(3) 0.1349(6) 0.3466(6)
C20 C -0.2389(3) 0.1104(6) 0.4092(7)
C21 C -0.2235(3) 0.0572(5) 0.4457(5)
C22 C -0.1922(3) 0.0321(6) 0.4175(7)
C23 C -0.1782(3) 0.0570(6) 0.3549(6)
C24 C -0.2415(3) 0.0332(6) 0.5125(7)
H1 H 0.03250 0.52080 -0.55530
H2 H -0.01160 0.60060 -0.59350
H3 H -0.05890 0.45080 -0.71440
H4 H -0.01320 0.37640 -0.67920
H5 H -0.08380 0.55940 -0.71860
H6 H -0.08080 0.60140 -0.64310
H7 H -0.05530 0.62140 -0.71110
H8 H 0.25490 0.29070 -0.27500
H9 H 0.30940 0.33270 -0.22980
H10 H 0.30880 0.47320 -0.38630
H11 H 0.25640 0.42290 -0.43700
H12 H 0.35370 0.48130 -0.29750
H13 H 0.34450 0.45070 -0.21790
H14 H 0.36620 0.40470 -0.27650
H15 H 0.01800 -0.02240 -0.44640
H16 H -0.01060 -0.11920 -0.40340
H17 H 0.06170 -0.12740 -0.23690
H18 H 0.08890 -0.02660 -0.28340
H19 H 0.02110 -0.23710 -0.30090
H20 H -0.01790 -0.20420 -0.31900
H21 H -0.26530 -0.17380 0.32140
H22 H -0.23850 -0.13120 0.42760
H23 H -0.17950 -0.00510 0.44330
H24 H -0.15600 0.03570 0.33520
H25 H -0.23970 -0.06720 0.52460
H26 H -0.27710 -0.03260 0.55130
Ga1B Ga -0.04982(2) 0.37119(5) 0.08439(5)
Ga2B Ga -0.05799(2) 0.21813(4) -0.00431(5)
Ga3B Ga -0.12870(2) 0.35352(4) -0.00933(5)
Ga4B Ga -0.10940(2) 0.26220(4) 0.16690(5)
Ga5B Ga -0.07951(2) 0.06393(5) -0.08391(5)
Ga6B Ga -0.12526(2) 0.09352(4) 0.07437(5)
Ga7B Ga -0.14535(2) 0.18529(4) -0.10132(5)
Ga8B Ga -0.17204(2) 0.14541(5) 0.22592(5)
Ga8A Ga -0.32796(2) -0.14541(5) 0.22592(5)
Ga9B Ga -0.19626(2) 0.23006(4) 0.06926(5)
Ga10B Ga -0.20818(3) 0.31276(5) -0.09371(6)
S1B S -0.01660(5) 0.29573(11) 0.02289(12)
S2B S -0.06760(6) 0.33802(11) 0.19453(12)
S3B S -0.08842(6) 0.43277(11) 0.01908(13)
S4B S -0.03233(5) 0.13238(11) -0.06419(11)
S5B S -0.08291(5) 0.17522(9) 0.1013(1)
S6B S -0.13293(6) 0.22134(12) 0.26831(12)
S7B S -0.10229(5) 0.26649(10) -0.07516(11)
S8B S -0.15391(5) 0.31183(10) 0.09671(11)
S9B S -0.17093(6) 0.40048(11) -0.07822(15)
S10B S -0.10057(6) 0.00904(10) 0.01286(12)
S11B S -0.14844(6) 0.05145(11) 0.17627(12)
S12B S -0.11998(6) 0.10082(11) -0.16432(12)
S13B S -0.16992(5) 0.14258(9) 0.00422(12)
S14B S -0.22061(6) 0.18762(12) 0.16984(13)
S15B S -0.18871(6) 0.23155(11) -0.16906(13)
S16B S -0.23926(6) 0.27693(13) 0.00291(15)
N1B N -0.01212(18) 0.4407(4) 0.1133(4)
C1B C -0.0132(3) 0.5062(5) 0.0892(6)
C2B C 0.0126(3) 0.5531(6) 0.1119(6)
C3B C 0.0393(3) 0.5346(5) 0.1587(5)
C4B C 0.0395(3) 0.4672(6) 0.1817(6)
C5B C 0.0132(3) 0.4235(5) 0.1596(6)
C6B C 0.0671(3) 0.5832(6) 0.1850(7)
N2B N -0.2494(2) 0.3573(5) -0.1462(5)
C7B C -0.2658(3) 0.3312(6) -0.2012(6)
C8B C -0.2974(3) 0.3563(6) -0.2292(7)
C9B C -0.3120(3) 0.4123(7) -0.2014(7)
C10B C -0.2970(4) 0.4349(7) -0.1398(7)
C11B C -0.2660(3) 0.4065(7) -0.1102(7)
C12B C -0.3471(4) 0.4395(7) -0.2297(7)
N3B N -0.05543(17) -0.0163(3) -0.1324(4)
C13B C -0.0272(3) -0.0442(5) -0.0985(5)
C14B C -0.0106(2) -0.1011(5) -0.1229(5)
C15B C -0.0227(2) -0.1338(4) -0.1836(4)
C16B C -0.0520(2) -0.1057(4) -0.2186(4)
C17B C -0.0678(2) -0.0464(4) -0.1912(4)
C18B C -0.0047(2) -0.1982(4) -0.2089(4)
N4B N 0.19292(19) 0.1088(4) -0.8187(4)
N4C N -0.30708(19) -0.1088(4) 0.3187(4)
C19C C -0.2769(3) -0.1349(6) 0.3466(6)
C20C C -0.2611(3) -0.1104(6) 0.4092(7)
C21C C -0.2765(3) -0.0572(5) 0.4457(5)
C22C C -0.3078(3) -0.0321(6) 0.4175(7)
C23C C -0.3218(3) -0.0570(6) 0.3549(6)
C24C C -0.2585(3) -0.0332(6) 0.5125(7)
H1B H -0.03250 0.52080 0.05530
H2B H 0.01160 0.60060 0.09350
H3B H 0.05890 0.45080 0.21440
H4B H 0.01320 0.37640 0.17920
H5B H 0.08380 0.55940 0.21860
H6B H 0.08080 0.60140 0.14310
H7B H 0.05530 0.62140 0.21110
H8B H -0.25490 0.29070 -0.22500
H9B H -0.30940 0.33270 -0.27020
H10B H -0.30880 0.47320 -0.11370
H11B H -0.25640 0.42290 -0.06300
H12B H -0.35370 0.48130 -0.20250
H13B H -0.34450 0.45070 -0.28210
H14B H -0.36620 0.40470 -0.22350
H15B H -0.01800 -0.02240 -0.05360
H16B H 0.01060 -0.11920 -0.09660
H17B H -0.06170 -0.12740 -0.26310
H18B H -0.08890 -0.02660 -0.21660
H19B H -0.02110 -0.23710 -0.19910
H20B H 0.01790 -0.20420 -0.18100
H21C H -0.23470 0.17380 0.32140
H22C H -0.26150 0.13120 0.42760
H23C H -0.32050 0.00510 0.44330
H24C H -0.34400 -0.03570 0.33520
H25C H -0.26030 0.06720 0.52460
H26C H -0.22290 0.03260 0.55130
#END
