
#######################################################################
#
#                 Cambridge Crystallographic Data Centre
#                                CCDC
#
#######################################################################
#
# If this CIF has been generated from an entry in the Cambridge
# Structural Database, then it will include bibliographic, chemical,
# crystal, experimental, refinement or atomic coordinate data resulting
# from the CCDC's data processing and validation procedures.
#
#######################################################################

data_CSD_CIF_JOGHEV
_audit_creation_date 2019-04-25
_audit_creation_method CSD-ConQuest-V1
_database_code_CSD JOGHEV
_database_code_depnum_ccdc_archive 'CCDC 1896910'
_chemical_formula_sum 'C30 H16 Cl4 Er1 N1 O8'
_chemical_formula_moiety
;
(C12 Cl4 Er1 O8 1-)n,C18 H16 N1 1+
;
_journal_coden_Cambridge 1147
_journal_volume 19
_journal_year 2019
_journal_page_first 3338
_journal_name_full 'Cryst.Growth Des. '
loop_
_publ_author_name
"K.Bondaruk"
"Carol Hua"
_chemical_name_systematic
;
catena-[1-(diphenylmethyl)-pyridinium 
bis(\m-2,5-dichloro-3,6-dioxocyclohexa-1,4-diene-1,4-bis(olato))-erbium(iii) 
unknown solvate]
;
_cell_volume   3239.205
_exptl_crystal_colour 'purple'
_exptl_crystal_description 'Prism'
_diffrn_ambient_temperature 100
_refine_special_details
;
Disordered 1-(diphenylmethyl)-pyridinium cation and solvent molecules were 
not modelled and the disordered density was taken into account using the 
MASK/OLEX2 program.
;
#These two values have been output from a single CSD field.
_refine_ls_R_factor_gt 0.023
_refine_ls_wR_factor_gt 0.023
_symmetry_cell_setting monoclinic
_symmetry_space_group_name_H-M 'C 2/c'
_symmetry_Int_Tables_number 15
loop_
_symmetry_equiv_pos_site_id
_symmetry_equiv_pos_as_xyz
1 x,y,z
2 -x,y,1/2-z
3 1/2+x,1/2+y,z
4 1/2-x,1/2+y,1/2-z
5 -x,-y,-z
6 x,-y,-1/2+z
7 -1/2-x,-1/2-y,-z
8 -1/2+x,-1/2-y,-1/2+z
_cell_length_a 14.7203(2)
_cell_length_b 23.7156(2)
_cell_length_c 10.3295(1)
_cell_angle_alpha 90
_cell_angle_beta 116.068(1)
_cell_angle_gamma 90
_cell_formula_units_Z 4
loop_
_atom_type_symbol
_atom_type_radius_bond
C 0.68
Cl 0.99
Er 1.89
O 0.68
loop_
_atom_site_label
_atom_site_type_symbol
_atom_site_fract_x
_atom_site_fract_y
_atom_site_fract_z
Er1 Er 0.50000 0.64212(2) 0.25000
Cl1 Cl 0.68625(3) 0.55156(2) -0.03908(5)
Cl2 Cl 0.74220(3) 0.70781(2) 0.78727(3)
O1 O 0.56734(6) 0.60369(3) 0.10491(9)
O2 O 0.88966(7) 0.78903(4) 0.75572(9)
O3 O 0.59133(6) 0.43732(4) -0.12431(10)
O4 O 0.60673(7) 0.67673(4) 0.48081(9)
C1 C 0.53964(8) 0.55523(4) 0.05171(12)
C2 C 0.82183(8) 0.76858(5) 0.64056(11)
C3 C 0.74786(9) 0.73044(5) 0.63244(12)
C4 C 0.67573(8) 0.71095(5) 0.49822(11)
C5 C 0.55190(8) 0.46926(4) -0.06647(12)
C6 C 0.58519(9) 0.52373(5) -0.01755(14)
Cl1D Cl 0.31375(3) 0.44844(2) 0.03908(5)
O1D O 0.43266(6) 0.39631(3) -0.10491(9)
O3D O 0.40867(6) 0.56268(4) 0.12431(10)
C1D C 0.46036(8) 0.44477(4) -0.05171(12)
C5D C 0.44810(8) 0.53074(4) 0.06647(12)
C6D C 0.41481(9) 0.47627(5) 0.01755(14)
Cl2F Cl 0.75780(3) 0.79219(2) 0.21273(3)
O2F O 0.61034(7) 0.71097(4) 0.24428(9)
O4F O 0.89327(7) 0.82327(4) 0.51919(9)
C2F C 0.67817(8) 0.73142(5) 0.35944(11)
C3F C 0.75214(9) 0.76956(5) 0.36756(12)
C4F C 0.82427(8) 0.78905(5) 0.50178(11)
Er1D Er 0.50000 0.35788(2) -0.25000
Er1F Er 1.00000 0.85788(2) 0.75000
O1A O 0.43266(6) 0.60369(3) 0.39509(9)
O2G O 0.38966(7) 0.71097(4) 0.25572(9)
O3E O 0.59133(6) 0.56268(4) 0.37569(10)
O4A O 0.39327(7) 0.67673(4) 0.01919(9)
#END
