
#######################################################################
#
#                 Cambridge Crystallographic Data Centre
#                                CCDC
#
#######################################################################
#
# If this CIF has been generated from an entry in the Cambridge
# Structural Database, then it will include bibliographic, chemical,
# crystal, experimental, refinement or atomic coordinate data resulting
# from the CCDC's data processing and validation procedures.
#
#######################################################################

data_CSD_CIF_JOGHIZ
_audit_creation_date 2019-04-25
_audit_creation_method CSD-ConQuest-V1
_database_code_CSD JOGHIZ
_database_code_depnum_ccdc_archive 'CCDC 1896911'
_chemical_formula_sum 'C66 H52 Ce2 Cl8 N2 O22'
_chemical_formula_moiety
;
(C24 H4 Ce2 Cl8 O18 2-)n,2(C18 H16 N1 1+),2(C3 H6 O1),2(H2 O1)
;
_journal_coden_Cambridge 1147
_journal_volume 19
_journal_year 2019
_journal_page_first 3338
_journal_name_full 'Cryst.Growth Des. '
loop_
_publ_author_name
"K.Bondaruk"
"Carol Hua"
_chemical_name_systematic
;
catena-[bis(1-(diphenylmethyl)-pyridinium) 
tetrakis(\m-2,5-dichloro-3,6-dioxocyclohexa-1,4-diene-1,4-bis(olato))-diaqua-d
i-cerium(iii) acetone solvate dihydrate]
;
_cell_volume   1758.198
_exptl_crystal_colour 'purple'
_exptl_crystal_density_diffrn 1.69
_exptl_crystal_description 'block'
_diffrn_ambient_temperature 100
#These two values have been output from a single CSD field.
_refine_ls_R_factor_gt 0.0298
_refine_ls_wR_factor_gt 0.0298
_symmetry_cell_setting triclinic
_symmetry_space_group_name_H-M 'P -1'
_symmetry_Int_Tables_number 2
loop_
_symmetry_equiv_pos_site_id
_symmetry_equiv_pos_as_xyz
1 x,y,z
2 -x,-y,-z
_cell_length_a 10.9811(1)
_cell_length_b 12.4783(1)
_cell_length_c 14.0253(1)
_cell_angle_alpha 102.349(1)
_cell_angle_beta 107.044(1)
_cell_angle_gamma 97.194(1)
_cell_formula_units_Z 1
loop_
_atom_type_symbol
_atom_type_radius_bond
C 0.68
H 0.23
Ce 2.04
Cl 0.99
N 0.68
O 0.68
loop_
_atom_site_label
_atom_site_type_symbol
_atom_site_fract_x
_atom_site_fract_y
_atom_site_fract_z
Ce1 Ce 0.71469(2) 0.67552(2) 0.33332(2)
Cl1 Cl 0.94229(8) 0.60250(6) 0.70658(6)
Cl2 Cl 0.76252(7) 0.54907(7) -0.05018(6)
Cl3 Cl 0.36970(8) 0.70998(6) 0.54770(7)
Cl4 Cl 0.79300(7) 1.08655(7) 0.59833(7)
O1 O 0.8538(2) 0.65763(18) 0.50348(16)
O2 O 1.1210(2) 0.44339(17) 0.67312(15)
O3 O 0.3615(2) 0.50726(18) 0.62930(17)
O4 O 0.5457(2) 0.67430(17) 0.41981(17)
O5 O 0.4992(2) 0.42055(19) -0.19409(17)
O6 O 0.7170(2) 0.6217(2) 0.15260(17)
O7 O 1.0696(2) 1.20253(18) 0.63759(18)
O8 O 0.7698(2) 0.8649(2) 0.4578(2)
O9 O 0.6149(3) 0.8251(3) 0.2514(3)
H1 H 0.58871 0.80384 0.18071
H2 H 0.67522 0.88903 0.26632
C1 C 0.9199(3) 0.5824(2) 0.5067(2)
C2 C 1.0302(3) 1.1089(3) 0.5737(3)
C3 C 0.5183(3) 0.5952(2) 0.4586(2)
C4 C 0.5068(3) 0.4605(3) -0.1017(2)
C5 C 1.0589(3) 0.4716(2) 0.5946(2)
C6 C 0.4231(3) 0.5081(2) 0.5674(2)
C7 C 0.4414(3) 0.5959(2) 0.5215(2)
C8 C 0.9076(3) 1.0392(3) 0.5469(3)
C9 C 0.9747(3) 0.5465(3) 0.5943(2)
C10 C 0.6188(3) 0.5233(3) -0.0233(2)
C11 C 0.6199(3) 0.5648(3) 0.0776(2)
C12 C 0.8746(3) 0.9331(3) 0.4797(3)
O10 O 0.4998(3) 0.9043(2) 0.4197(3)
H3 H 0.50309 0.84707 0.44329
H4 H 0.53894 0.95933 0.47215
O11 O 0.8046(3) 0.9608(2) 0.2167(2)
C13 C 0.8626(4) 1.0570(3) 0.2585(3)
C14 C 0.9918(5) 1.0975(4) 0.2505(4)
H5 H 1.02402 1.03480 0.22135
H6 H 1.05157 1.13600 0.31808
H7 H 0.98306 1.14775 0.20687
C15 C 0.8091(5) 1.1395(4) 0.3199(4)
H8 H 0.79655 1.20040 0.28872
H9 H 0.86900 1.16763 0.38922
H10 H 0.72736 1.10366 0.32146
N1 N 0.7716(3) 0.2003(2) 0.8343(2)
C16 C 0.7283(3) 0.2762(3) 0.7847(3)
H11 H 0.64093 0.28058 0.76677
C17 C 0.9451(4) 0.3424(3) 0.7915(3)
H12 H 1.00494 0.39182 0.77829
C18 C 0.6621(3) 0.1878(3) 0.9643(3)
C19 C 0.8147(4) 0.3482(3) 0.7601(3)
H13 H 0.78553 0.39916 0.72348
C20 C 0.7075(3) 0.0112(3) 0.8577(3)
C21 C 0.8988(3) 0.1946(3) 0.8629(3)
H14 H 0.92711 0.14195 0.89771
C22 C 0.6745(3) 0.1273(3) 0.8621(3)
H15 H 0.58988 0.11694 0.80874
C23 C 0.6687(4) -0.0673(3) 0.7617(3)
H16 H 0.62418 -0.04840 0.70216
C24 C 0.6229(4) 0.2929(3) 1.1456(3)
H17 H 0.60978 0.32835 1.20617
C25 C 0.5566(4) 0.1442(3) 0.9881(3)
H18 H 0.49882 0.07970 0.94363
C26 C 0.7472(4) 0.2830(3) 1.0314(3)
H19 H 0.81880 0.31285 1.01601
C27 C 0.9857(4) 0.2648(3) 0.8415(3)
H20 H 1.07289 0.25984 0.86101
C28 C 0.7728(4) -0.0190(3) 0.9464(3)
H21 H 0.79841 0.03208 1.01095
C29 C 0.7270(4) 0.3345(3) 1.1213(3)
H22 H 0.78547 0.39858 1.16587
C30 C 0.5362(4) 0.1965(4) 1.0786(4)
H23 H 0.46465 0.16717 1.09431
C31 C 0.6963(4) -0.1723(4) 0.7552(4)
H24 H 0.67112 -0.22384 0.69087
C32 C 0.7993(4) -0.1270(4) 0.9371(4)
H25 H 0.84347 -0.14780 0.99560
C33 C 0.7596(4) -0.2022(4) 0.8410(4)
H26 H 0.77645 -0.27412 0.83499
Cl1A Cl 1.05771(8) 0.39750(6) 0.29342(6)
O1A O 1.1462(2) 0.34237(18) 0.49652(16)
O2A O 0.8790(2) 0.55661(17) 0.32688(15)
C1A C 1.0801(3) 0.4176(2) 0.4933(2)
C5A C 0.9411(3) 0.5284(2) 0.4054(2)
C9A C 1.0253(3) 0.4535(3) 0.4057(2)
Cl2A Cl 0.23748(7) 0.45093(7) 0.05018(6)
O5A O 0.5008(2) 0.57945(19) 0.19409(17)
O6A O 0.2830(2) 0.3783(2) -0.15260(17)
C4A C 0.4932(3) 0.5395(3) 0.1017(2)
C10A C 0.3812(3) 0.4767(3) 0.0233(2)
C11A C 0.3801(3) 0.4352(3) -0.0776(2)
Cl3A Cl 0.63030(8) 0.29002(6) 0.45230(7)
O3A O 0.6385(2) 0.49274(18) 0.37070(17)
O4A O 0.4543(2) 0.32570(17) 0.58019(17)
C3A C 0.4817(3) 0.4048(2) 0.5414(2)
C6A C 0.5769(3) 0.4919(2) 0.4326(2)
C7A C 0.5586(3) 0.4041(2) 0.4785(2)
Cl4A Cl 1.20700(7) 0.91345(7) 0.40167(7)
O7A O 0.9304(2) 0.79747(18) 0.36241(18)
O8A O 1.2302(2) 1.1351(2) 0.5422(2)
C2A C 0.9698(3) 0.8911(3) 0.4263(3)
C8A C 1.0924(3) 0.9608(3) 0.4531(3)
C12A C 1.1254(3) 1.0669(3) 0.5203(3)
Ce1A Ce 0.28531(2) 0.32448(2) -0.33332(2)
O9A O 0.3851(3) 0.1749(3) -0.2514(3)
H1A H 0.41129 0.19616 -0.18071
H2A H 0.32478 0.11097 -0.26632
Ce1A* Ce 0.28531(2) 0.32448(2) 0.66668(2)
Ce1A** Ce 1.28531(2) 0.32448(2) 0.66668(2)
Ce1A*** Ce 1.28531(2) 1.32448(2) 0.66668(2)
O1A* O 0.1462(2) 0.34237(18) -0.50348(16)
O2* O 0.1210(2) 0.44339(17) -0.32688(15)
O3* O 0.3615(2) 0.50726(18) -0.37070(17)
O4A* O 0.4543(2) 0.32570(17) -0.41981(17)
O7* O 0.0696(2) 0.20253(18) -0.36241(18)
O8A* O 0.2302(2) 0.1351(2) -0.4578(2)
#END
