
#######################################################################
#
#                 Cambridge Crystallographic Data Centre
#                                CCDC
#
#######################################################################
#
# If this CIF has been generated from an entry in the Cambridge
# Structural Database, then it will include bibliographic, chemical,
# crystal, experimental, refinement or atomic coordinate data resulting
# from the CCDC's data processing and validation procedures.
#
#######################################################################

data_CSD_CIF_JOGHUL
_audit_creation_date 2019-04-25
_audit_creation_method CSD-ConQuest-V1
_database_code_CSD JOGHUL
_database_code_depnum_ccdc_archive 'CCDC 1896913'
_chemical_formula_sum 'C93 H60 Ce3 Cl12 O27 P3'
_chemical_formula_moiety
;
(C36 H6 Ce3 Cl12 O27 3-)n,3(C19 H18 P1 1+)
;
_journal_coden_Cambridge 1147
_journal_volume 19
_journal_year 2019
_journal_page_first 3338
_journal_name_full 'Cryst.Growth Des. '
loop_
_publ_author_name
"K.Bondaruk"
"Carol Hua"
_chemical_name_systematic
;
catena-[tris(methyl(triphenyl)phosphanium) 
hexakis(\m-2,5-dichloro-3,6-dioxocyclohexa-1,4-diene-1,4-bis(olato))-triaqua-t
ri-cerium(iii) unknown solvate]
;
_cell_volume  11606.333
_exptl_crystal_colour 'purple'
_exptl_crystal_description 'prism'
_diffrn_ambient_temperature 100
_refine_special_details
;
C026,C02Q,C033,C034,C038,C039,C03G,C03I,C03T,C03X,C12,C19 and 
C03Y,C0AA,C1,C10,C12A,C19A,C2,C3,C3AA,C4AA,C5,C5AA disordered over two sites 
with occupancies 
0.66,0.66,0.66,0.569,0.569,0.66,0.66,0.66,0.569,0.569,0.569,0.569:0.431,0.431,
0.34,0.431,0.431,0.431,0.34,0.34,0.34,0.34,0.431,0.34; 
C02N,C032,C03D,C03J,C03Q,C7 and C0,C03E,C03R,C1AA,C2AA,C7A disordered over 
two sites with occupancies 0.64:0.36; C02Z,C03C,C03K,C03L,C03N,C03U and 
C02{,C03M,C6AA,C7AA,C8AA,C9AA disordered over two sites with occupancies 
0.634:0.366; Disordered solvent molecules were not modelled and the 
disordered density was taken into account using the MASK/OLEX2 program.
;
#These two values have been output from a single CSD field.
_refine_ls_R_factor_gt 0.0668
_refine_ls_wR_factor_gt 0.0668
_symmetry_cell_setting monoclinic
_symmetry_space_group_name_H-M 'P 21/n'
_symmetry_Int_Tables_number 14
loop_
_symmetry_equiv_pos_site_id
_symmetry_equiv_pos_as_xyz
1 x,y,z
2 1/2-x,1/2+y,1/2-z
3 -x,-y,-z
4 -1/2+x,-1/2-y,-1/2+z
_cell_length_a 17.3160(1)
_cell_length_b 36.7219(2)
_cell_length_c 18.5359(1)
_cell_angle_alpha 90
_cell_angle_beta 100.032(1)
_cell_angle_gamma 90
_cell_formula_units_Z 4
loop_
_atom_type_symbol
_atom_type_radius_bond
C 0.68
H 0.23
Ce 2.04
Cl 0.99
O 0.68
P 1.05
loop_
_atom_site_label
_atom_site_type_symbol
_atom_site_fract_x
_atom_site_fract_y
_atom_site_fract_z
Ce1 Ce 0.47125(2) 0.51006(2) 0.16561(2)
Ce2 Ce 0.25728(2) 0.63648(2) 0.49392(2)
Ce3 Ce 0.88117(2) 0.62968(2) 0.09539(2)
Cl1 Cl 0.53478(8) 0.61962(3) 0.68880(7)
Cl2 Cl 0.24138(8) 0.51328(3) 0.65792(7)
Cl3 Cl 0.43418(8) 0.39182(3) -0.01636(7)
Cl4 Cl 0.04363(8) 0.71842(3) 0.31499(7)
Cl5 Cl 0.74121(8) 0.49794(4) 0.05128(7)
Cl6 Cl 0.19034(8) 0.75630(4) 0.64547(7)
Cl7 Cl 0.45952(8) 0.53104(3) 0.45467(7)
Cl8 Cl 0.44619(9) 0.75101(4) 0.43750(8)
Cl9 Cl 0.65255(9) 0.62842(3) 0.24701(9)
Cl10 Cl 0.27056(11) 0.62736(4) 0.19838(7)
Cl11 Cl 0.17152(10) 0.45770(6) 0.14648(9)
Cl12 Cl 0.08883(14) 0.54791(4) 0.28619(11)
O1 O 0.3716(2) 0.63032(9) 0.59979(19)
O2 O 0.5899(2) 0.51157(10) 0.1026(2)
O3 O 0.4440(2) 0.4574(1) 0.07941(19)
O4 O 0.8357(2) 0.56445(10) 0.1039(2)
O5 O 0.5217(2) 0.54855(10) 0.7630(2)
O6 O 0.3354(2) 0.48438(11) 0.1484(2)
O7 O 0.4371(2) 0.53543(10) 0.0307(2)
H1 H 0.40879 0.55486 0.02969
H2 H 0.40710 0.52023 0.00349
O8 O 0.4594(2) 0.52437(10) 0.2925(2)
O9 O 0.3788(2) 0.56306(10) 0.1856(2)
O10 O 0.2377(2) 0.69296(10) 0.5627(2)
O11 O -0.0377(2) 0.66754(10) 0.1956(2)
O12 O 0.1521(2) 0.66985(10) 0.4101(2)
O13 O 0.3999(2) 0.50485(10) 0.7513(2)
O14 O 0.5540(2) 0.56533(9) 0.1857(2)
O15 O 0.2581(2) 0.58135(10) 0.5729(2)
O16 O 0.3043(2) 0.81456(10) 0.6191(2)
O17 O 0.3603(3) 0.59533(11) 0.4648(2)
O18 O 0.2876(3) 0.63735(10) 0.3600(2)
O19 O 0.2637(3) 0.37141(10) -0.0346(2)
O20 O 0.8048(2) 0.61535(10) 0.1943(2)
O21 O -0.0195(3) 0.59677(11) 0.1879(2)
O22 O 0.3456(3) 0.69038(10) 0.4778(2)
O23 O 0.4006(2) 0.81445(10) 0.5235(2)
O24 O 0.1563(3) 0.39708(13) 0.0348(2)
O25 O 0.1658(3) 0.59811(11) 0.4049(3)
O26 O 1.0047(3) 0.61764(15) 0.0465(3)
O27 O 0.1352(3) 0.63260(14) 0.5522(3)
H3 H 0.10673 0.65170 0.56789
H4 H 0.10881 0.61148 0.56234
C1 C 0.1103(3) 0.65419(14) 0.3580(3)
C2 C 0.0118(3) 0.65348(14) 0.2461(3)
C3 C 0.6446(3) 0.53375(13) 0.1257(3)
C4 C 0.0548(3) 0.67198(14) 0.3054(3)
C5 C 0.3850(3) 0.59996(13) 0.6312(3)
C6 C 0.3178(3) 0.57269(14) 0.6191(3)
C7 C 0.4623(3) 0.55773(14) 0.7173(3)
C8 C 0.3626(3) 0.40914(14) 0.0287(3)
C9 C 0.6789(4) 0.59155(14) 0.1977(3)
C10 C 0.3232(3) 0.54098(13) 0.6616(3)
C11 C 0.2218(3) 0.41103(17) 0.0517(3)
C12 C 0.7193(3) 0.53235(14) 0.1086(3)
C13 C 0.6232(3) 0.56528(14) 0.1736(3)
C14 C 0.4206(3) 0.55040(13) 0.3116(3)
C15 C 0.4550(3) 0.59003(13) 0.6758(3)
C16 C 0.0224(3) 0.61197(14) 0.2406(3)
C17 C 0.7525(3) 0.59173(14) 0.1772(3)
C18 C 0.7729(4) 0.56069(14) 0.1268(3)
C19 C 0.2862(4) 0.39542(14) 0.0125(3)
C20 C 0.4147(4) 0.55874(14) 0.3844(3)
C21 C 0.1192(4) 0.61279(15) 0.3538(3)
C22 C 0.3743(3) 0.57321(14) 0.2495(3)
C23 C 0.3923(3) 0.53222(13) 0.7107(3)
C24 C 0.2736(3) 0.72206(14) 0.5561(3)
C25 C 0.0770(4) 0.59431(15) 0.2942(4)
C26 C 0.3685(4) 0.58734(14) 0.4008(3)
C27 C 0.2616(3) 0.75480(14) 0.5910(3)
C28 C 0.3815(3) 0.44012(14) 0.0720(3)
C29 C 0.2433(4) 0.43935(17) 0.1026(3)
C30 C 0.3253(4) 0.61133(15) 0.3397(3)
C31 C 0.3165(3) 0.45586(16) 0.1107(3)
C32 C 0.3078(3) 0.78548(14) 0.5844(3)
C33 C 0.3370(3) 0.72059(14) 0.5073(3)
C34 C 0.3785(3) 0.75218(14) 0.4969(3)
C35 C 0.3669(3) 0.78497(15) 0.5317(3)
C36 C 0.3278(4) 0.60221(15) 0.2668(3)
P1 P -0.0940(1) 0.80152(4) 0.28918(8)
C37 C -0.1518(4) 0.73086(16) 0.2790(4)
H5 H -0.11556 0.72661 0.24835
C38 C -0.1019(5) 0.87251(16) 0.3393(3)
H6 H -0.05204 0.86868 0.36617
C39 C -0.1581(4) 0.76562(16) 0.3086(3)
C40 C -0.0746(4) 0.79547(17) 0.1982(3)
H7 H -0.04807 0.77271 0.19513
H8 H -0.04208 0.81503 0.18648
H9 H -0.12315 0.79544 0.16408
C41 C -0.2503(5) 0.8842(2) 0.2576(5)
H10 H -0.29939 0.88885 0.22978
C42 C -0.2117(6) 0.91175(18) 0.3030(5)
H11 H -0.23615 0.93412 0.30591
C43 C -0.0113(13) 0.8000(5) 0.3585(8)
C44 C -0.1408(4) 0.84498(15) 0.2950(3)
C45 C -0.1400(6) 0.90598(18) 0.3420(4)
H12 H -0.11514 0.92453 0.37145
C46 C -0.2161(4) 0.85050(19) 0.2538(4)
H13 H -0.24204 0.83200 0.22500
C47 C -0.1990(4) 0.70303(16) 0.2954(3)
H14 H -0.19527 0.68005 0.27512
C48 C 0.1131(18) 0.8038(5) 0.4639(9)
H15 H 0.15684 0.80537 0.50084
C49 C -0.2112(9) 0.7721(2) 0.3540(6)
H16 H -0.21557 0.79519 0.37376
C50 C 0.0589(10) 0.8132(4) 0.3441(10)
H17 H 0.06289 0.82111 0.29720
C51 C 0.1242(8) 0.8149(4) 0.4004(12)
H18 H 0.17259 0.82338 0.39257
C52 C -0.2511(7) 0.7091(2) 0.3411(5)
H19 H -0.28200 0.69009 0.35311
C53 C -0.0126(13) 0.7883(6) 0.4295(9)
H20 H -0.05901 0.77845 0.43962
C54 C -0.2582(10) 0.7439(3) 0.3700(8)
H21 H -0.29481 0.74799 0.40025
C55 C 0.0493(13) 0.7905(5) 0.4849(10)
H22 H 0.04732 0.78339 0.53274
C56? C 0.006(2) 0.8032(10) 0.343(2)
C57? C 0.012(2) 0.7983(7) 0.4146(16)
H23? H -0.03501 0.79498 0.43113
C58? C 0.088(3) 0.7975(11) 0.476(3)
H24? H 0.09239 0.79153 0.52497
C59? C 0.1499(15) 0.8082(5) 0.4362(16)
H25? H 0.19856 0.81258 0.46492
C60? C 0.1460(14) 0.8128(5) 0.360(2)
H26? H 0.19111 0.81796 0.34053
C61? C 0.0728(14) 0.8095(6) 0.3126(16)
H27? H 0.06901 0.81161 0.26213
P2 P -0.31002(9) 0.57686(5) 0.46272(8)
C62 C -0.3046(4) 0.54735(16) 0.5410(3)
C63 C -0.3319(4) 0.55836(16) 0.6039(3)
H28 H -0.35867 0.58028 0.60446
C64 C -0.4359(8) 0.6195(4) 0.4926(7)
H29 H -0.46215 0.59728 0.48971
C65 C -0.3189(4) 0.53655(16) 0.6655(3)
H30 H -0.33814 0.54333 0.70734
C66 C -0.2664(5) 0.5139(2) 0.5392(4)
H31 H -0.25006 0.50610 0.49659
C67 C -0.3578(8) 0.6212(4) 0.4819(9)
C68 C -0.3682(4) 0.55676(18) 0.3836(3)
H32 H -0.34520 0.53405 0.37292
H33 H -0.37038 0.57291 0.34261
H34 H -0.42032 0.55253 0.39290
C69 C -0.2766(4) 0.50419(17) 0.6645(4)
H35 H -0.26424 0.49041 0.70705
C70 C -0.2532(5) 0.49255(19) 0.6014(4)
H36 H -0.22827 0.47016 0.60053
C71 C -0.4733(8) 0.6507(4) 0.5073(8)
H37 H -0.52528 0.64989 0.51393
C72 C -0.1893(13) 0.5795(5) 0.3779(12)
H38 H -0.22847 0.58171 0.33693
C73 C -0.2102(9) 0.5769(5) 0.4478(9)
C74 C -0.3207(11) 0.6543(4) 0.4865(6)
H39 H -0.26922 0.65530 0.47850
C75 C -0.4325(14) 0.6839(3) 0.5124(6)
H40 H -0.45759 0.70513 0.52299
C76 C -0.3556(15) 0.6854(4) 0.5019(7)
H41 H -0.32854 0.70739 0.50546
C77 C -0.113(1) 0.5787(5) 0.3692(8)
H42 H -0.10072 0.58049 0.32247
C78 C -0.1494(9) 0.5743(4) 0.5084(7)
H43 H -0.16069 0.57326 0.55559
C79 C -0.0558(10) 0.5755(5) 0.4267(9)
H44 H -0.00387 0.57471 0.41980
C80 C -0.0728(10) 0.5732(5) 0.4974(9)
H45 H -0.03224 0.57089 0.53722
C81? C -0.1575(8) 0.6038(4) 0.5103(7)
H46? H -0.17141 0.60679 0.55615
C82? C -0.0849(15) 0.6091(5) 0.5006(11)
H47? H -0.04595 0.61131 0.54178
C83? C -0.0630(11) 0.6117(6) 0.4311(12)
H48? H -0.01183 0.61769 0.42677
C84? C -0.1161(10) 0.6055(8) 0.3721(10)
H49? H -0.10394 0.60816 0.32549
C85? C -0.1962(14) 0.5941(7) 0.3824(14)
H50? H -0.23369 0.58737 0.34231
C86? C -0.2132(12) 0.5936(6) 0.4497(10)
C87? C -0.342(2) 0.6161(9) 0.4781(19)
C88? C -0.4238(18) 0.6230(7) 0.4759(15)
H51? H -0.46054 0.60466 0.46249
C89? C -0.4482(15) 0.6584(6) 0.4944(11)
H52? H -0.49978 0.66288 0.49975
C90? C -0.392(2) 0.6857(6) 0.5041(13)
H53? H -0.41049 0.70917 0.51023
C91? C -0.3157(17) 0.6821(5) 0.5055(10)
H54? H -0.28089 0.70149 0.51527
C92? C -0.2912(14) 0.6467(6) 0.4911(12)
H55? H -0.23819 0.64314 0.49014
P3 P -0.21375(9) 0.75734(4) 0.74033(9)
C93 C -0.2196(4) 0.70870(18) 0.7422(4)
C94 C -0.2457(4) 0.77523(18) 0.8193(3)
H56 H -0.29868 0.76760 0.81972
H57 H -0.24352 0.80134 0.81829
H58 H -0.21226 0.76641 0.86256
C95 C -0.2680(5) 0.6893(2) 0.6887(4)
H59 H -0.29683 0.70188 0.64954
C96 C -0.2753(4) 0.77383(17) 0.6596(4)
C97 C -0.2752(5) 0.6525(2) 0.6910(5)
H60 H -0.30859 0.64036 0.65413
C98 C -0.1127(15) 0.7695(7) 0.7432(13)
C99 C -0.2461(5) 0.7824(2) 0.5966(4)
H61 H -0.19297 0.77958 0.59516
C100 C -0.3749(6) 0.7991(2) 0.5358(5)
H62 H -0.40783 0.80690 0.49355
C101 C -0.4049(6) 0.7916(3) 0.5975(4)
H63 H -0.45795 0.79505 0.59828
C102 C -0.2966(7) 0.7952(3) 0.5363(5)
H64 H -0.27663 0.80129 0.49443
C103 C -0.3549(5) 0.7787(3) 0.6594(4)
H65 H -0.37524 0.77331 0.70142
C104 C -0.0853(13) 0.8005(5) 0.7803(12)
H66 H -0.113(9) 0.817(4) 0.812(8)
C105 C -0.1761(6) 0.6894(2) 0.8019(6)
H67 H -0.14324 0.70190 0.83862
C106 C -0.2320(7) 0.6331(2) 0.7493(7)
H68 H -0.23600 0.60789 0.75057
C107 C 0.0427(8) 0.7881(3) 0.7528(10)
H69 H 0.09478 0.79470 0.75381
C108 C -0.0617(10) 0.7457(4) 0.7179(11)
H70 H -0.07842 0.72263 0.70148
C109 C -0.0051(8) 0.8096(3) 0.7861(10)
H71 H 0.01488 0.83014 0.81238
C110 C -0.1824(8) 0.6515(3) 0.8059(7)
H72 H -0.15435 0.63866 0.84525
C111 C 0.0135(8) 0.7565(3) 0.7174(10)
H73 H 0.04555 0.74243 0.69310
C112? C -0.115(3) 0.7710(12) 0.738(2)
C113? C -0.084(2) 0.8042(9) 0.768(2)
H74? H -0.11061 0.81765 0.79811
C114? C -0.0151(13) 0.8168(6) 0.7515(16)
H75? H 0.00018 0.84062 0.76363
C115? C 0.0327(14) 0.7949(6) 0.7173(16)
H76? H 0.08490 0.80110 0.71821
C116? C 0.0021(13) 0.7639(6) 0.6822(16)
H77? H 0.03037 0.75082 0.65261
C117? C -0.0735(14) 0.7520(6) 0.6919(12)
H78? H -0.10623 0.75141 0.64373
H79? H -0.06823 0.72708 0.70921
Ce1B Ce 0.52875(2) 0.48994(2) 0.83439(2)
Ce3* Ce -0.11883(2) 0.62968(2) 0.09539(2)
Ce3B Ce 0.11883(2) 0.37032(2) -0.09539(2)
Ce3C Ce 0.38117(2) 0.87032(2) 0.59539(2)
O5B O 0.4783(2) 0.45145(10) 0.2370(2)
O11* O 0.9623(2) 0.66754(10) 0.1956(2)
O13B O 0.6001(2) 0.49515(10) 0.2487(2)
O16C O 0.8043(2) 0.68544(10) 0.1191(2)
O19B O 0.7363(3) 0.62859(10) 0.0346(2)
O21* O 0.9805(3) 0.59677(11) 0.1879(2)
O23C O 0.9006(2) 0.68555(10) 0.0235(2)
O24B O 0.8437(3) 0.60292(13) -0.0348(2)
#END
