
#######################################################################
#
#                 Cambridge Crystallographic Data Centre
#                                CCDC
#
#######################################################################
#
# If this CIF has been generated from an entry in the Cambridge
# Structural Database, then it will include bibliographic, chemical,
# crystal, experimental, refinement or atomic coordinate data resulting
# from the CCDC's data processing and validation procedures.
#
#######################################################################

data_CSD_CIF_JOGHOF
_audit_creation_date 2019-04-25
_audit_creation_method CSD-ConQuest-V1
_database_code_CSD JOGHOF
_database_code_depnum_ccdc_archive 'CCDC 1896912'
_chemical_formula_sum 'C72 H44 Ce2 Cl8 O18 P2'
_chemical_formula_moiety
;
(C24 H4 Ce2 Cl8 O18 2-)n,2(C24 H20 P1 1+)
;
_journal_coden_Cambridge 1147
_journal_volume 19
_journal_year 2019
_journal_page_first 3338
_journal_name_full 'Cryst.Growth Des. '
loop_
_publ_author_name
"K.Bondaruk"
"Carol Hua"
_chemical_name_systematic
;
catena-[bis(tetraphenylphosphanium) 
tetrakis(\m-2,5-dichloro-3,6-dioxocyclohexa-1,4-diene-1,4-bis(olato))-diaqua-d
i-cerium(iii) unknown solvate]
;
_cell_volume   8156.954
_exptl_crystal_colour 'purple'
_exptl_crystal_density_diffrn 1.484
_exptl_crystal_description 'prism'
_diffrn_ambient_temperature 100
_refine_special_details
;
Disordered solvent molecules were not modelled and the disordered density was 
taken into account using the MASK/OLEX2 program.
;
#These two values have been output from a single CSD field.
_refine_ls_R_factor_gt 0.036
_refine_ls_wR_factor_gt 0.036
_symmetry_cell_setting monoclinic
_symmetry_space_group_name_H-M 'C 2/c'
_symmetry_Int_Tables_number 15
loop_
_symmetry_equiv_pos_site_id
_symmetry_equiv_pos_as_xyz
1 x,y,z
2 -x,y,1/2-z
3 1/2+x,1/2+y,z
4 1/2-x,1/2+y,1/2-z
5 -x,-y,-z
6 x,-y,-1/2+z
7 -1/2-x,-1/2-y,-z
8 -1/2+x,-1/2-y,-1/2+z
_cell_length_a 25.8876(2)
_cell_length_b 15.6809(1)
_cell_length_c 20.2420(2)
_cell_angle_alpha 90
_cell_angle_beta 96.934(1)
_cell_angle_gamma 90
_cell_formula_units_Z 4
loop_
_atom_type_symbol
_atom_type_radius_bond
C 0.68
H 0.23
Ce 2.04
Cl 0.99
O 0.68
P 1.05
loop_
_atom_site_label
_atom_site_type_symbol
_atom_site_fract_x
_atom_site_fract_y
_atom_site_fract_z
Ce1 Ce 0.57527(2) 0.74997(2) 0.46311(2)
Cl1 Cl 0.75069(3) 0.93428(4) 0.43531(3)
Cl2 Cl 0.56623(3) 1.09000(4) 0.39717(3)
Cl3 Cl 0.48196(3) 0.56529(5) 0.64417(3)
Cl4 Cl 0.61114(3) 0.73815(5) 0.19876(4)
O1 O 0.65961(7) 0.82190(12) 0.44953(10)
O2 O 0.54002(8) 0.65153(12) 0.54324(10)
O3 O 0.84173(7) 0.83222(12) 0.49995(10)
O4 O 0.58608(8) 0.74443(12) 0.34070(11)
O5 O 0.44410(8) 0.40302(13) 0.57495(10)
O6 O 0.50701(9) 0.74271(12) 0.11877(11)
O7 O 0.56005(8) 0.90379(13) 0.42932(10)
O8 O 0.49529(9) 1.17039(13) 0.48613(11)
O9 O 0.60884(11) 0.81382(16) 0.57573(12)
H1 H 0.58905 0.83013 0.61013
H2 H 0.64379 0.82657 0.59237
C1 C 0.75047(11) 0.83408(17) 0.47173(13)
C2 C 0.52059(10) 0.58005(18) 0.52677(14)
C3 C 0.49290(11) 0.52874(18) 0.56632(13)
C4 C 0.50626(12) 0.74016(17) 0.18016(15)
C5 C 0.47099(11) 0.45111(18) 0.54349(14)
C6 C 0.79767(11) 0.79804(17) 0.49786(13)
C7 C 0.70292(11) 0.79246(17) 0.47219(13)
C8 C 0.53294(11) 0.95265(19) 0.46015(14)
C9 C 0.54790(12) 0.74051(16) 0.29558(16)
C10 C 0.55072(12) 0.73794(19) 0.22751(16)
C11 C 0.52994(11) 1.04065(18) 0.45311(14)
C12 C 0.49924(11) 1.09132(18) 0.48998(14)
P1 P 0.79925(3) 0.15495(5) 0.63251(3)
C13 C 0.86960(11) 0.06296(19) 0.47868(14)
H3 H 0.87232 0.01113 0.45704
C14 C 0.89595(12) 0.1340(2) 0.45886(15)
H4 H 0.91667 0.12911 0.42458
C15 C 0.83501(11) 0.14777(19) 0.56205(14)
C16 C 0.65671(13) 0.0620(2) 0.65367(17)
H5 H 0.63691 0.05412 0.68858
C17 C 0.83385(12) 0.0999(2) 0.70277(15)
C18 C 0.83472(13) 0.3074(2) 0.69028(15)
H6 H 0.86605 0.27915 0.70211
C19 C 0.86503(12) 0.0306(2) 0.69278(15)
H7 H 0.86835 0.01187 0.64992
C20 C 0.73545(11) 0.10960(19) 0.61316(15)
C21 C 0.83923(11) 0.06886(19) 0.53059(14)
H8 H 0.82197 0.02119 0.54426
C22 C 0.86094(13) 0.2194(2) 0.54122(15)
H9 H 0.85766 0.27189 0.56175
C23 C 0.70595(13) 0.0969(2) 0.66571(15)
H10 H 0.71944 0.11201 0.70880
C24 C 0.74532(13) 0.3065(2) 0.63801(15)
H11 H 0.71737 0.27796 0.61464
C25 C 0.79225(13) 0.26465(19) 0.65545(15)
C26 C 0.89151(13) 0.2118(2) 0.48986(15)
H12 H 0.90909 0.25914 0.47619
C27 C 0.71488(13) 0.0886(2) 0.54857(16)
H13 H 0.73383 0.09901 0.51320
C28 C 0.63691(13) 0.0387(2) 0.58977(18)
H14 H 0.60406 0.01411 0.58187
C29 C 0.74050(14) 0.3918(2) 0.65588(16)
H15 H 0.70917 0.42032 0.64479
C30 C 0.85508(15) 0.0860(2) 0.82126(16)
H16 H 0.85180 0.10439 0.86424
C31 C 0.82827(13) 0.1282(2) 0.76703(15)
H17 H 0.80698 0.17449 0.77345
C32 C 0.78247(15) 0.4337(2) 0.69016(16)
H18 H 0.77918 0.49054 0.70220
C33 C 0.82932(15) 0.3919(2) 0.70669(16)
H19 H 0.85742 0.42112 0.72908
C34 C 0.66590(13) 0.0520(3) 0.53737(17)
H20 H 0.65238 0.03623 0.49446
C35 C 0.89153(13) -0.0108(2) 0.74800(17)
H21 H 0.91267 -0.05739 0.74187
C36 C 0.88643(13) 0.0172(2) 0.81157(17)
H22 H 0.90425 -0.01049 0.84806
Cl1F Cl 0.74931(3) 0.56572(4) 0.56469(3)
O1F O 0.84039(7) 0.67810(12) 0.55047(10)
O3F O 0.65827(7) 0.66778(12) 0.50005(10)
C1F C 0.74953(11) 0.66592(17) 0.52827(13)
C6F C 0.70233(11) 0.70196(17) 0.50214(13)
C7F C 0.79708(11) 0.70754(17) 0.52781(13)
Cl2D Cl 0.43377(3) 0.91000(4) 0.60283(3)
O7D O 0.43995(8) 1.09621(13) 0.57068(10)
O8D O 0.50471(9) 0.82961(13) 0.51387(11)
C8D C 0.46706(11) 1.04735(19) 0.53985(14)
C11D C 0.47006(11) 0.95935(18) 0.54689(14)
C12D C 0.50076(11) 0.90868(18) 0.51002(14)
Cl3D Cl 0.51804(3) 0.43471(5) 0.35583(3)
O2D O 0.45998(8) 0.34847(12) 0.45676(10)
O5D O 0.55590(8) 0.59698(13) 0.42505(10)
C2D C 0.47941(10) 0.41995(18) 0.47323(14)
C3D C 0.50710(11) 0.47126(18) 0.43368(13)
C5D C 0.52901(11) 0.54889(18) 0.45651(14)
Cl4A Cl 0.38886(3) 0.73815(5) 0.30124(4)
O4A O 0.41392(8) 0.74443(12) 0.15930(11)
O6A O 0.49299(9) 0.74271(12) 0.38123(11)
C4A C 0.49374(12) 0.74016(17) 0.31984(15)
C9A C 0.45210(12) 0.74051(16) 0.20442(16)
C10A C 0.44928(12) 0.73794(19) 0.27249(16)
Ce1A Ce 0.42473(2) 0.74997(2) 0.03689(2)
O9A O 0.39116(11) 0.81382(16) -0.07573(12)
H1A H 0.41095 0.83013 -0.11013
H2A H 0.35621 0.82657 -0.09237
Ce1D Ce 0.42473(2) 0.25003(2) 0.53689(2)
Ce1D* Ce 0.42473(2) 1.25003(2) 0.53689(2)
Ce1F Ce 0.92473(2) 0.75003(2) 0.53689(2)
O1A O 0.34039(7) 0.82190(12) 0.05047(10)
O2A O 0.45998(8) 0.65153(12) -0.04324(10)
O3G O 0.34173(7) 0.66778(12) -0.00005(10)
O5E O 0.44410(8) 0.59698(13) 0.07495(10)
O7A O 0.43995(8) 0.90379(13) 0.07068(10)
O8E O 0.49529(9) 0.82961(13) -0.01387(11)
#END
