
#######################################################################
#
#                 Cambridge Crystallographic Data Centre
#                                CCDC
#
#######################################################################
#
# If this CIF has been generated from an entry in the Cambridge
# Structural Database, then it will include bibliographic, chemical,
# crystal, experimental, refinement or atomic coordinate data resulting
# from the CCDC's data processing and validation procedures.
#
#######################################################################

data_CSD_CIF_JOGJEX
_audit_creation_date 2019-04-25
_audit_creation_method CSD-ConQuest-V1
_database_code_CSD JOGJEX
_database_code_depnum_ccdc_archive 'CCDC 1896915'
_chemical_formula_sum 'C124 H80 Cl16 Er4 O36 P4'
_chemical_formula_moiety
;
(C48 H4 Cl16 Er4 O34 4-)n,4(C19 H18 P1 1+),2(H2 O1)
;
_journal_coden_Cambridge 1147
_journal_volume 19
_journal_year 2019
_journal_page_first 3338
_journal_name_full 'Cryst.Growth Des. '
loop_
_publ_author_name
"K.Bondaruk"
"Carol Hua"
_chemical_name_systematic
;
catena-[tetrakis(methyl(triphenyl)phosphanium) 
octakis(\m-2,5-dichloro-3,6-dioxocyclohexa-1,4-diene-1,4-bis(olato))-diaqua-te
tra-erbium(iii) unknown solvate dihydrate]
;
_cell_volume   8227.191
_exptl_crystal_colour 'purple'
_exptl_crystal_description 'blade'
_diffrn_ambient_temperature 100
_refine_special_details
;
Disordered solvent molecules were not modelled and the disordered density was 
taken into account using the MASK/OLEX2 program.
;
#These two values have been output from a single CSD field.
_refine_ls_R_factor_gt 0.0379
_refine_ls_wR_factor_gt 0.0379
_symmetry_cell_setting monoclinic
_symmetry_space_group_name_H-M 'P 21/c'
_symmetry_Int_Tables_number 14
loop_
_symmetry_equiv_pos_site_id
_symmetry_equiv_pos_as_xyz
1 x,y,z
2 -x,1/2+y,1/2-z
3 -x,-y,-z
4 x,-1/2-y,-1/2+z
_cell_length_a 16.5838(1)
_cell_length_b 19.6723(1)
_cell_length_c 26.0073(1)
_cell_angle_alpha 90
_cell_angle_beta 104.151(1)
_cell_angle_gamma 90
_cell_formula_units_Z 2
loop_
_atom_type_symbol
_atom_type_radius_bond
C 0.68
H 0.23
Cl 0.99
Er 1.89
O 0.68
P 1.05
loop_
_atom_site_label
_atom_site_type_symbol
_atom_site_fract_x
_atom_site_fract_y
_atom_site_fract_z
Er1 Er 0.75453(2) 0.98027(2) 0.89824(2)
Er2 Er 0.57519(2) 0.81574(2) 0.58512(2)
Cl1 Cl 0.53087(4) 0.72132(3) 0.38509(2)
Cl2 Cl 0.52974(4) 1.01937(3) 0.71718(3)
Cl3 Cl 0.49373(4) 0.57133(3) 0.51883(3)
Cl4 Cl 0.95891(4) 1.14991(4) 1.03145(3)
Cl5 Cl 0.79722(5) 0.78099(4) 0.76560(3)
Cl6 Cl 0.82399(5) 0.65289(4) 0.58686(3)
Cl7 Cl 0.31069(5) 0.95396(4) 0.47787(3)
Cl8 Cl 0.33455(7) 0.73251(4) 0.68104(3)
O1 O 0.65768(12) 0.61017(10) 0.39871(7)
O2 O 0.34891(12) 0.52814(9) 0.56487(7)
O3 O 0.28044(12) 0.59937(10) 0.62695(8)
O4 O 1.11287(12) 1.06891(11) 1.07273(8)
O5 O 0.69620(14) 0.76363(10) 0.57420(8)
O6 O 0.46406(14) 0.87906(10) 0.53701(8)
O7 O 0.47268(15) 0.77677(10) 0.62842(8)
O8 O 0.65256(12) 0.98756(10) 0.81833(7)
O9 O 0.37939(15) 1.08365(10) 0.44679(8)
O10 O 0.84674(12) 1.05049(11) 0.95799(8)
O11 O 0.66487(15) 0.80603(10) 0.66602(8)
O12 O 0.77256(12) 0.57777(10) 0.48212(7)
O13 O 0.54182(12) 0.70339(9) 0.56901(8)
O14 O 0.76992(12) 0.89514(11) 0.83672(8)
O15 O 0.55785(14) 0.90509(9) 0.64420(8)
O16 O 0.57192(15) 0.78939(10) 0.49360(8)
O17 O 0.83300(14) 1.03000(14) 0.84085(9)
C1 C 0.72135(18) 0.84355(15) 0.75323(11)
C2 C 0.59952(16) 0.95233(14) 0.73005(10)
C3 C 0.38146(16) 0.58505(14) 0.57863(10)
C4 C 0.73056(17) 0.62863(14) 0.48732(10)
C5 C 0.65332(16) 0.94810(14) 0.78068(10)
C6 C 0.44805(17) 0.61338(13) 0.56230(11)
C7 C 0.66106(16) 0.64745(13) 0.43823(10)
C8 C 0.69010(18) 0.72457(14) 0.53499(11)
C9 C 0.34262(17) 0.62571(14) 0.61666(10)
C10 C 0.72016(16) 0.89216(14) 0.79217(10)
C11 C 0.91989(17) 1.03102(16) 0.97829(11)
C12 C 0.60287(18) 0.90490(13) 0.69057(10)
C13 C 0.44139(19) 0.71830(14) 0.61778(10)
C14 C 0.48025(17) 0.67650(13) 0.58101(10)
C15 C 0.60992(18) 0.70241(14) 0.44078(10)
C16 C 0.98037(17) 1.06854(15) 1.01374(11)
C17 C 0.61786(19) 0.74087(13) 0.48710(11)
C18 C 0.74170(18) 0.66947(15) 0.53249(11)
C19 C 0.4333(2) 1.04174(14) 0.47118(10)
C20 C 0.66675(18) 0.84725(14) 0.70344(11)
C21 C 0.3778(2) 0.68930(14) 0.63653(11)
C22 C 0.4137(2) 0.97853(14) 0.48955(12)
C23 C 0.4764(2) 0.93575(14) 0.51825(10)
C24 C 1.05820(17) 1.04021(16) 1.03761(11)
P1 P 0.73621(4) 0.41722(3) 0.60510(3)
C25 C 0.75097(17) 0.33689(15) 0.52205(11)
H1 H 0.78652 0.37061 0.51556
C26 C 0.68100(17) 0.41430(14) 0.65636(11)
C27 C 0.71073(17) 0.34434(14) 0.56300(11)
C28 C 0.73732(18) 0.27865(15) 0.49122(11)
H2 H 0.76516 0.27246 0.46457
C29 C 0.84625(17) 0.41502(15) 0.63253(11)
C30 C 0.59656(18) 0.43090(17) 0.64434(13)
H3 H 0.56989 0.44558 0.61046
C31 C 0.7206(2) 0.39288(16) 0.70726(12)
H4 H 0.77705 0.38246 0.71562
C32 C 0.6551(2) 0.29561(16) 0.57180(12)
H5 H 0.62821 0.30114 0.59901
C33 C 0.8835(2) 0.35433(17) 0.65458(12)
H6 H 0.85126 0.31590 0.65567
C34 C 0.6822(2) 0.22949(15) 0.50002(12)
H7 H 0.67349 0.19033 0.47936
C35 C 0.70855(18) 0.49281(14) 0.56698(11)
H8 H 0.64980 0.49284 0.55126
H9 H 0.73813 0.49451 0.53956
H10 H 0.72284 0.53177 0.58961
C36 C 0.8949(2) 0.47210(17) 0.62994(13)
H11 H 0.87045 0.51245 0.61528
C37 C 0.5918(2) 0.40293(18) 0.73357(14)
H12 H 0.56188 0.39846 0.75932
C38 C 0.6399(2) 0.23838(16) 0.53940(13)
H13 H 0.60147 0.20608 0.54418
C39 C 0.5528(2) 0.42538(19) 0.68319(15)
H14 H 0.49669 0.43686 0.67536
C40 C 0.6755(2) 0.38719(17) 0.74538(13)
H15 H 0.70193 0.37260 0.77934
C41 C 0.9689(2) 0.3523(2) 0.67478(14)
H16 H 0.99402 0.31263 0.69047
C42 C 0.9805(2) 0.4678(2) 0.64955(16)
H17 H 1.01342 0.50556 0.64764
C43 C 1.0170(2) 0.4088(2) 0.67171(16)
H18 H 1.07443 0.40671 0.68472
P2 P 0.67501(5) 0.90733(4) 0.37824(3)
C44 C 0.6536(2) 0.88760(15) 0.30875(12)
C45 C 0.7775(2) 0.79382(16) 0.39120(13)
H19 H 0.75735 0.78669 0.35498
C46 C 0.5832(2) 0.90109(16) 0.40189(12)
H20 H 0.54449 0.93566 0.38553
H21 H 0.59706 0.90711 0.43966
H22 H 0.55843 0.85713 0.39322
C47 C 0.6034(2) 0.83185(17) 0.28870(13)
H23 H 0.57842 0.80656 0.31077
C48 C 0.8651(2) 0.76002(18) 0.47521(15)
H24 H 0.90373 0.73015 0.49530
C49 C 0.8350(2) 0.74844(17) 0.42149(15)
H25 H 0.85281 0.71082 0.40562
C50 C 0.6591(2) 1.04671(15) 0.38301(12)
H26 H 0.60223 1.03884 0.37649
C51 C 0.6901(3) 1.11274(16) 0.38794(12)
H27 H 0.65379 1.14934 0.38488
C52 C 0.7149(2) 0.99235(15) 0.38803(12)
C53 C 0.7508(2) 0.84911(15) 0.41514(12)
C54 C 0.5910(2) 0.81451(17) 0.23544(14)
H28 H 0.55793 0.77741 0.22178
C55 C 0.6278(2) 0.85219(18) 0.20326(13)
H29 H 0.62040 0.83991 0.16788
C56 C 0.8387(2) 0.81526(19) 0.49949(15)
H30 H 0.85987 0.82255 0.53560
C57 C 0.7999(3) 1.00364(18) 0.39714(15)
H31 H 0.83657 0.96724 0.40022
C58 C 0.7801(3) 0.86028(18) 0.46983(14)
H32 H 0.76093 0.89694 0.48605
C59 C 0.6889(3) 0.92611(17) 0.27574(13)
H33 H 0.72133 0.96378 0.28886
C60 C 0.7739(3) 1.12406(17) 0.39727(14)
H34 H 0.79388 1.16842 0.40076
C61 C 0.6756(3) 0.90810(19) 0.22262(14)
H35 H 0.69903 0.93393 0.20007
C62 C 0.8296(3) 1.0702(2) 0.40161(17)
H36 H 0.88633 1.07855 0.40746
Cl4B Cl 1.04109(4) 0.85009(4) 0.96855(3)
O4B O 0.88713(12) 0.93109(11) 0.92727(8)
O10B O 1.15326(12) 0.94951(11) 1.04201(8)
C11B C 1.08011(17) 0.96898(16) 1.02171(11)
C16B C 1.01963(17) 0.93146(15) 0.98626(11)
C24B C 0.94180(17) 0.95979(16) 0.96239(11)
Cl7B Cl 0.68931(5) 1.04604(4) 0.52213(3)
O6B O 0.53594(14) 1.12094(10) 0.46299(8)
O9B O 0.62061(15) 0.91635(10) 0.55321(8)
C19B C 0.5667(2) 0.95826(14) 0.52882(10)
C22B C 0.5863(2) 1.02147(14) 0.51045(12)
C23B C 0.5236(2) 1.06425(14) 0.48175(10)
Er1B Er 0.24547(2) 1.01973(2) 0.10176(2)
Er2B Er 0.42481(2) 1.18426(2) 0.41488(2)
Cl1B Cl 0.46913(4) 1.27868(3) 0.61491(2)
Cl2B Cl 0.47026(4) 0.98063(3) 0.28282(3)
Cl3B Cl 0.50627(4) 1.42867(3) 0.48117(3)
Cl5B Cl 0.20278(5) 1.21901(4) 0.23440(3)
Cl6B Cl 0.17601(5) 1.34711(4) 0.41314(3)
Cl8B Cl 0.66545(7) 1.26749(4) 0.31896(3)
O1B O 0.34232(12) 1.38983(10) 0.60129(7)
O2B O 0.65109(12) 1.47186(9) 0.43513(7)
O3B O 0.71956(12) 1.40063(10) 0.37305(8)
O5B O 0.30380(14) 1.23637(10) 0.42580(8)
O7B O 0.52732(15) 1.22323(10) 0.37158(8)
O8B O 0.34744(12) 1.01244(10) 0.18167(7)
O11B O 0.33513(15) 1.19397(10) 0.33398(8)
O12B O 0.22744(12) 1.42223(10) 0.51788(7)
O13B O 0.45818(12) 1.29661(9) 0.43099(8)
O14B O 0.23008(12) 1.10486(11) 0.16328(8)
O15B O 0.44215(14) 1.09491(9) 0.35580(8)
O16B O 0.42808(15) 1.21061(10) 0.50640(8)
O17B O 0.16700(14) 0.97000(14) 0.15915(9)
C1B C 0.27865(18) 1.15645(15) 0.24677(11)
C2B C 0.40048(16) 1.04767(14) 0.26995(10)
C3B C 0.61854(16) 1.41495(14) 0.42137(10)
C4B C 0.26944(17) 1.37137(14) 0.51268(10)
C5B C 0.34668(16) 1.05190(14) 0.21932(10)
C6B C 0.55195(17) 1.38662(13) 0.43770(11)
C7B C 0.33894(16) 1.35255(13) 0.56177(10)
C8B C 0.30990(18) 1.27543(14) 0.46501(11)
C9B C 0.65738(17) 1.37429(14) 0.38334(10)
C10B C 0.27984(16) 1.10784(14) 0.20783(10)
C12B C 0.39713(18) 1.09510(13) 0.30943(10)
C13B C 0.55861(19) 1.28170(14) 0.38222(10)
C14B C 0.51975(17) 1.32350(13) 0.41899(10)
C15B C 0.39008(18) 1.29759(14) 0.55922(10)
C17B C 0.38214(19) 1.25913(13) 0.51290(11)
C18B C 0.25830(18) 1.33053(15) 0.46751(11)
C20B C 0.33325(18) 1.15275(14) 0.29656(11)
C21B C 0.6222(2) 1.31070(14) 0.36347(11)
Er1A Er 0.24547(2) 0.48027(2) 0.60176(2)
Er1A* Er 0.24547(2) 1.48027(2) 0.60176(2)
Er1B* Er 1.24547(2) 1.01973(2) 1.10176(2)
Er1C Er 0.75453(2) 0.51973(2) 0.39824(2)
Er1C* Er 0.75453(2) 1.51973(2) 0.39824(2)
O1A O 0.34232(12) 1.11017(10) 0.10129(7)
O1C O 0.65768(12) 0.88983(10) 0.89871(7)
O2A O 0.65109(12) 1.02814(9) 0.93513(7)
O2C O 0.34891(12) 0.97186(9) 0.06487(7)
O3A O 0.71956(12) 1.09937(10) 0.87305(8)
O3C O 0.28044(12) 0.90063(10) 0.12695(8)
O4* O 0.11287(12) 1.06891(11) 0.07273(8)
O10B* O 0.15326(12) 0.94951(11) 0.04201(8)
O12A O 0.22744(12) 1.07777(10) 0.01788(7)
O12C O 0.77256(12) 0.92223(10) 0.98212(7)
#END
