
#######################################################################
#
#                 Cambridge Crystallographic Data Centre
#                                CCDC
#
#######################################################################
#
# If this CIF has been generated from an entry in the Cambridge
# Structural Database, then it will include bibliographic, chemical,
# crystal, experimental, refinement or atomic coordinate data resulting
# from the CCDC's data processing and validation procedures.
#
#######################################################################

data_CSD_CIF_JOGRUT
_audit_creation_date 2009-02-06
_audit_creation_method CSD-ConQuest-V1
_database_code_CSD JOGRUT
_database_code_depnum_ccdc_archive 'CCDC 646051'
_chemical_formula_sum 'C52 H54 Co2 N10 O71 P2 W18'
_chemical_formula_moiety
;
(C32 H28 Co2 N6 O6 2+)n,n(O62 P2 W18 6-),2n(C10 H10 N2 2+),3n(H2 O1)
;
_journal_coden_Cambridge 9
_journal_volume 47
_journal_year 2008
_journal_page_first 7133
_journal_name_full 'Inorg.Chem. '
loop_
_publ_author_name
"Xinyu Zhao"
"Dadong Liang"
"Shuxia Liu"
"Chunyan Sun"
"Ruige Cao"
"Chaoying Gao"
"Yuanhang Ren"
"Zhonming Su"
_chemical_name_systematic
;
catena-(tris(\m~2~-4,4'-Bipyridine)-(\m~2~-oxalato)-diaqua-di-cobalt(ii) 
bis(\m~9~-phosphato)-hexatriacontakis(\m~2~-oxo)-octadecaoxo-octadeca-tungsten
 bis(4,4'-bipyridinium) clathrate trihydrate)
;
_cell_volume   5366.130
_exptl_crystal_colour 'orange'
_exptl_crystal_density_diffrn 3.369
_exptl_special_details
;
magnetic properties
isomorphous with the Ni(ii) analogue

;
_exptl_crystal_description 'rectangle'
_diffrn_ambient_temperature 293
_refine_special_details
;
The uncoordinated bipyridinium molecules are slightly disordered although the 
disorder was not modelled.
;
#These two values have been output from a single CSD field.
_refine_ls_R_factor_gt 0.042
_refine_ls_wR_factor_gt 0.042
_symmetry_cell_setting monoclinic
_symmetry_space_group_name_H-M 'P 21/m'
_symmetry_Int_Tables_number 11
loop_
_symmetry_equiv_pos_site_id
_symmetry_equiv_pos_as_xyz
1 x,y,z
2 -x,1/2+y,-z
3 -x,-y,-z
4 x,-1/2-y,z
_cell_length_a 15.1832(7)
_cell_length_b 24.7499(11)
_cell_length_c 15.3308(7)
_cell_angle_alpha 90
_cell_angle_beta 111.338(1)
_cell_angle_gamma 90
_cell_formula_units_Z 2
loop_
_atom_type_symbol
_atom_type_radius_bond
C 0.68
H 0.23
Co 1.33
N 0.68
O 0.68
P 1.05
W 1.37
loop_
_atom_site_label
_atom_site_type_symbol
_atom_site_fract_x
_atom_site_fract_y
_atom_site_fract_z
Co1 Co 0.60237(9) 0.52056(6) 0.39029(10)
P1 P 0.7270(2) 0.25000 0.1332(3)
P2 P 1.0043(2) 0.25000 0.1977(3)
W1 W 0.50200(5) 0.25000 -0.04934(6)
W2 W 0.52979(3) 0.31817(2) 0.15088(4)
W3 W 0.70504(4) 0.32445(2) -0.07053(4)
W4 W 0.73203(3) 0.392339(19) 0.12714(4)
W5 W 0.76401(3) 0.317955(19) 0.34372(4)
W6 W 0.96894(4) 0.32434(2) -0.00845(4)
W7 W 0.99521(3) 0.392470(18) 0.18850(4)
W8 W 1.02653(3) 0.317848(18) 0.40577(4)
W9 W 1.19248(5) 0.25000 0.11186(6)
W10 W 1.21808(3) 0.318339(19) 0.31026(5)
C1 C 0.6784(10) 0.6356(5) 0.4130(13)
H1 H 0.73580 0.61740 0.42950
C2 C 0.6812(9) 0.6920(6) 0.4165(14)
H2 H 0.73840 0.71000 0.44360
C3 C 0.5986(7) 0.7201(4) 0.3794(8)
C4 C 0.5190(9) 0.6898(5) 0.3474(14)
H3 H 0.46050 0.70650 0.32020
C5 C 0.5243(9) 0.6338(5) 0.3549(13)
H4 H 0.46800 0.61440 0.33440
C6 C 0.5877(9) 0.5551(5) 0.1905(9)
H5 H 0.62580 0.58420 0.21960
C7 C 0.5654(10) 0.5484(5) 0.0977(9)
H6 H 0.58860 0.57290 0.06540
C8 C 0.5089(7) 0.5060(4) 0.0487(8)
C9 C 0.4762(9) 0.4730(5) 0.1034(9)
H7 H 0.43660 0.44430 0.07490
C10 C 0.4997(9) 0.4809(6) 0.1977(9)
H8 H 0.47520 0.45770 0.23090
C11 C 0.8096(8) 0.5273(5) 0.5139(9)
H9 H 0.78330 0.54000 0.55610
C12 C 0.9067(7) 0.5228(5) 0.5440(9)
H10 H 0.94410 0.53370 0.60420
C13 C 0.9478(7) 0.5024(4) 0.4850(9)
C14 C 0.8890(8) 0.4869(5) 0.3964(10)
H11 H 0.91350 0.47170 0.35460
C15 C 0.7908(8) 0.4947(6) 0.3710(9)
H12 H 0.75140 0.48550 0.31060
C16 C 0.1825(17) 0.5455(7) 0.1361(13)
H13 H 0.15900 0.58060 0.12760
C17 C 0.1740(14) 0.5150(7) 0.0579(11)
H14 H 0.14710 0.53040 -0.00120
C18 C 0.2058(12) 0.4605(6) 0.0662(10)
C19 C 0.249(1) 0.4410(5) 0.1582(10)
H15 H 0.27360 0.40610 0.16710
H16 H 0.28310 0.45510 0.29610
C20 C 0.2562(13) 0.4715(6) 0.2349(10)
C21 C 0.1956(11) 0.4301(6) -0.0092(10)
C22 C 0.1350(14) 0.4459(8) -0.0959(12)
H17 H 0.10050 0.47770 -0.10210
C23 C 0.1248(12) 0.4159(7) -0.1719(11)
H18 H 0.08190 0.42720 -0.22960
C24 C 0.2368(12) 0.3550(6) -0.0816(11)
H19 H 0.27450 0.32460 -0.07600
C25 C 0.2444(11) 0.3832(6) -0.0055(10)
H20 H 0.28440 0.37050 0.05250
C26 C 0.5467(7) 0.5018(4) 0.5445(7)
N1 N 0.6034(6) 0.6069(3) 0.3890(7)
N2 N 0.5573(6) 0.5215(4) 0.2437(6)
N3 N 0.7520(6) 0.5144(4) 0.4285(7)
N4 N 0.2251(11) 0.5256(6) 0.2281(10)
N5 N 0.1743(14) 0.3699(7) -0.1683(11)
O1 O 0.4064(8) 0.25000 -0.1522(10)
O2 O 0.4642(5) 0.3038(3) 0.0222(6)
O3 O 0.4866(7) 0.25000 0.1791(9)
O4 O 0.4516(5) 0.3599(3) 0.1744(7)
O5 O 0.5823(5) 0.3023(3) -0.0711(7)
O6 O 0.6161(6) 0.25000 0.1056(8)
O7 O 0.6099(5) 0.3665(3) 0.1176(6)
O8 O 0.6319(5) 0.3139(3) 0.2679(6)
O9 O 0.6712(6) 0.3491(4) -0.1807(6)
O10 O 0.7259(8) 0.25000 -0.0882(8)
O11 O 0.6975(6) 0.3887(3) -0.0041(6)
O12 O 0.7509(5) 0.3011(3) 0.0898(6)
O13 O 0.7162(6) 0.4584(3) 0.1426(6)
O14 O 0.7745(5) 0.3661(3) 0.2523(5)
O15 O 0.7720(6) 0.25000 0.2381(7)
O16 O 0.7559(5) 0.3608(3) 0.4278(6)
O17 O 0.7550(7) 0.25000 0.4000(8)
O18 O 0.8378(5) 0.3357(3) -0.0346(6)
O19 O 0.8626(5) 0.3965(3) 0.1390(6)
O20 O 0.8978(5) 0.3104(3) 0.3903(6)
O21 O 0.9406(8) 0.25000 -0.0347(9)
O22 O 0.9750(6) 0.3484(3) -0.1101(6)
O23 O 0.9965(5) 0.3887(3) 0.0654(6)
O24 O 0.9656(5) 0.3013(3) 0.1398(6)
O25 O 1.0197(6) 0.4595(3) 0.2132(6)
O26 O 0.9898(5) 0.3670(3) 0.3040(6)
O27 O 0.9875(7) 0.25000 0.2907(8)
O28 O 1.0620(6) 0.3599(3) 0.5004(6)
O29 O 1.0546(7) 0.25000 0.4713(8)
O30 O 1.0979(6) 0.3019(3) 0.0503(7)
O31 O 1.1143(6) 0.25000 0.2214(8)
O32 O 1.1247(5) 0.3654(3) 0.2344(6)
O33 O 1.1460(5) 0.3139(3) 0.3871(6)
O34 O 1.2602(9) 0.25000 0.0451(11)
O35 O 1.2543(5) 0.3041(3) 0.2052(6)
O36 O 1.3058(5) 0.3629(3) 0.3701(8)
O37 O 1.2764(7) 0.25000 0.3613(10)
O38 O 0.5387(5) 0.4887(3) 0.6205(5)
O39 O 0.6199(5) 0.5162(3) 0.5327(5)
O40 O 0.6066(6) 0.4343(3) 0.3908(7)
H21 H 0.56590 0.40930 0.38150
H22 H 0.65240 0.42570 0.37430
O41 O 0.4983(11) 0.3614(6) 0.4335(12)
O42 O 0.4711(15) 0.25000 0.3598(17)
Co1B Co 0.39763(9) 0.47944(6) 0.60971(10)
Co1C Co 0.60237(9) 0.97944(6) 0.39029(10)
Co1B* Co 0.39763(9) 0.47944(6) -0.39029(10)
Co1B** Co 1.39763(9) 0.47944(6) 0.60971(10)
W2C W 0.52979(3) 0.18183(2) 0.15088(4)
W3C W 0.70504(4) 0.17555(2) -0.07053(4)
W4C W 0.73203(3) 0.107661(19) 0.12714(4)
W5C W 0.76401(3) 0.182045(19) 0.34372(4)
W6C W 0.96894(4) 0.17566(2) -0.00845(4)
W7C W 0.99521(3) 0.107530(18) 0.18850(4)
W8C W 1.02653(3) 0.182152(18) 0.40577(4)
W10C W 1.21808(3) 0.181661(19) 0.31026(5)
C1C C 0.6784(10) 0.8644(5) 0.4130(13)
H1C H 0.73580 0.88260 0.42950
C2C C 0.6812(9) 0.8080(6) 0.4165(14)
H2C H 0.73840 0.79000 0.44360
C3C C 0.5986(7) 0.7799(4) 0.3794(8)
C4C C 0.5190(9) 0.8102(5) 0.3474(14)
H3C H 0.46050 0.79350 0.32020
C5C C 0.5243(9) 0.8662(5) 0.3549(13)
H4C H 0.46800 0.88560 0.33440
C6B C 0.4123(9) 0.4449(5) -0.1905(9)
H5B H 0.37420 0.41580 -0.21960
C7B C 0.4346(10) 0.4516(5) -0.0977(9)
H6B H 0.41140 0.42710 -0.06540
C8B C 0.4911(7) 0.4940(4) -0.0487(8)
C9B C 0.5238(9) 0.5270(5) -0.1034(9)
H7B H 0.56340 0.55570 -0.07490
C10B C 0.5003(9) 0.5191(6) -0.1977(9)
H8B H 0.52480 0.54230 -0.23090
C11B C 1.1904(8) 0.4727(5) 0.4861(9)
H9B H 1.21670 0.46000 0.44390
C12B C 1.0933(7) 0.4772(5) 0.4560(9)
H10B H 1.05590 0.46630 0.39580
C13B C 1.0522(7) 0.4976(4) 0.5150(9)
C14B C 1.1110(8) 0.5131(5) 0.6036(10)
H11B H 1.08650 0.52830 0.64540
C15B C 1.2092(8) 0.5053(6) 0.6290(9)
H12B H 1.24860 0.51450 0.68940
C26B C 0.4533(7) 0.4982(4) 0.4555(7)
N1C N 0.6034(6) 0.8931(3) 0.3890(7)
N1B N 0.3966(6) 0.3931(3) 0.6110(7)
N2B N 0.4427(6) 0.4785(4) -0.2437(6)
N2B* N 0.4427(6) 0.4785(4) 0.7563(6)
N3B N 1.2480(6) 0.4856(4) 0.5715(7)
N3B* N 0.2480(6) 0.4856(4) 0.5715(7)
O2C O 0.4642(5) 0.1962(3) 0.0222(6)
O4C O 0.4516(5) 0.1401(3) 0.1744(7)
O5C O 0.5823(5) 0.1977(3) -0.0711(7)
O7C O 0.6099(5) 0.1335(3) 0.1176(6)
O8C O 0.6319(5) 0.1861(3) 0.2679(6)
O9C O 0.6712(6) 0.1509(4) -0.1807(6)
O11C O 0.6975(6) 0.1113(3) -0.0041(6)
O12C O 0.7509(5) 0.1989(3) 0.0898(6)
O13C O 0.7162(6) 0.0416(3) 0.1426(6)
O14C O 0.7745(5) 0.1339(3) 0.2523(5)
O16C O 0.7559(5) 0.1392(3) 0.4278(6)
O18C O 0.8378(5) 0.1643(3) -0.0346(6)
O19C O 0.8626(5) 0.1035(3) 0.1390(6)
O20C O 0.8978(5) 0.1896(3) 0.3903(6)
O22C O 0.9750(6) 0.1516(3) -0.1101(6)
O23C O 0.9965(5) 0.1113(3) 0.0654(6)
O24C O 0.9656(5) 0.1987(3) 0.1398(6)
O25C O 1.0197(6) 0.0405(3) 0.2132(6)
O26C O 0.9898(5) 0.1330(3) 0.3040(6)
O28C O 1.0620(6) 0.1401(3) 0.5004(6)
O30C O 1.0979(6) 0.1981(3) 0.0503(7)
O32C O 1.1247(5) 0.1346(3) 0.2344(6)
O33C O 1.1460(5) 0.1861(3) 0.3871(6)
O35C O 1.2543(5) 0.1959(3) 0.2052(6)
O36C O 1.3058(5) 0.1371(3) 0.3701(8)
O38B O 0.4613(5) 0.5113(3) 0.3795(5)
O39B O 0.3801(5) 0.4838(3) 0.4673(5)
O40B O 0.3934(6) 0.5657(3) 0.6092(7)
H21B H 0.43410 0.59070 0.61850
H22B H 0.34760 0.57430 0.62570
#END
