
#######################################################################
#
#                 Cambridge Crystallographic Data Centre
#                                CCDC
#
#######################################################################
#
# If this CIF has been generated from an entry in the Cambridge
# Structural Database, then it will include bibliographic, chemical,
# crystal, experimental, refinement or atomic coordinate data resulting
# from the CCDC's data processing and validation procedures.
#
#######################################################################

data_CSD_CIF_JOGSAA
_audit_creation_date 2009-02-06
_audit_creation_method CSD-ConQuest-V1
_database_code_CSD JOGSAA
_database_code_depnum_ccdc_archive 'CCDC 646241'
_chemical_formula_sum 'C52 H52 N10 Ni2 O70 P2 W18'
_chemical_formula_moiety
;
(C32 H28 N6 Ni2 O6 2+)n,n(O62 P2 W18 6-),2n(C10 H10 N2 2+),2n(H2 O1)
;
_journal_coden_Cambridge 9
_journal_volume 47
_journal_year 2008
_journal_page_first 7133
_journal_name_full 'Inorg.Chem. '
loop_
_publ_author_name
"Xinyu Zhao"
"Dadong Liang"
"Shuxia Liu"
"Chunyan Sun"
"Ruige Cao"
"Chaoying Gao"
"Yuanhang Ren"
"Zhonming Su"
_chemical_name_systematic
;
catena-(tris(\m~2~-4,4'-Bipyridine)-(\m~2~-oxalato)-diaqua-di-nickel(ii) 
bis(\m~9~-phosphato)-hexatriacontakis(\m~2~-oxo)-octadecaoxo-octadeca-tungsten
 bis(4,4'-bipyridinium) clathrate dihydrate)
;
_cell_volume   5303.544
_exptl_crystal_colour 'cyan'
_exptl_crystal_density_diffrn 3.398
_exptl_special_details
;
magnetic properties
isomorphous with the Co(ii) analogue

;
_exptl_crystal_description 'rectangle'
_diffrn_ambient_temperature 293
_refine_special_details
;
The uncoordinated bipyridinium molecules are slightly disordered although the 
disorder was not modelled.
;
#These two values have been output from a single CSD field.
_refine_ls_R_factor_gt 0.0453
_refine_ls_wR_factor_gt 0.0453
_symmetry_cell_setting monoclinic
_symmetry_space_group_name_H-M 'P 21/m'
_symmetry_Int_Tables_number 11
loop_
_symmetry_equiv_pos_site_id
_symmetry_equiv_pos_as_xyz
1 x,y,z
2 -x,1/2+y,-z
3 -x,-y,-z
4 x,-1/2-y,z
_cell_length_a 15.0721(9)
_cell_length_b 24.7694(14)
_cell_length_c 15.1707(9)
_cell_angle_alpha 90
_cell_angle_beta 110.541(1)
_cell_angle_gamma 90
_cell_formula_units_Z 2
loop_
_atom_type_symbol
_atom_type_radius_bond
C 0.68
H 0.23
N 0.68
Ni 1.50
O 0.68
P 1.05
W 1.37
loop_
_atom_site_label
_atom_site_type_symbol
_atom_site_fract_x
_atom_site_fract_y
_atom_site_fract_z
Ni1 Ni 0.39621(10) 0.52227(6) 0.10812(11)
P1 P -0.0063(3) 0.25000 0.3050(4)
P2 P 0.2726(3) 0.25000 0.3658(3)
W1 W 0.00316(3) 0.39247(2) 0.31425(4)
W2 W 0.26698(3) 0.39229(2) 0.37189(4)
W3 W 0.23487(4) 0.31799(2) 0.15398(4)
W4 W -0.02839(4) 0.31780(2) 0.09569(4)
W5 W 0.03013(4) 0.32422(2) 0.51272(5)
W6 W 0.46971(3) 0.31818(2) 0.34490(5)
W7 W 0.29438(4) 0.32442(2) 0.57069(4)
W8 W -0.22024(4) 0.31830(2) 0.19557(5)
W9 W 0.49788(5) 0.25000 0.54668(6)
W10 W -0.19387(5) 0.25000 0.39535(8)
C1 C 0.2095(9) 0.4959(6) 0.1301(11)
H1 H 0.24830 0.48430 0.18940
C2 C 0.1107(9) 0.4904(6) 0.1040(11)
H2 H 0.08480 0.47780 0.14740
C3 C 0.0527(8) 0.5035(5) 0.0144(9)
C4 C 0.0945(8) 0.5225(6) -0.044(1)
H3 H 0.05710 0.53170 -0.10520
C5 C 0.1927(8) 0.5289(5) -0.0158(10)
H4 H 0.21960 0.54130 -0.05860
C6 C 0.3227(11) 0.6363(6) 0.0807(15)
C7 C 0.3223(10) 0.6918(6) 0.0819(14)
H5 H 0.26520 0.71010 0.05620
C8 C 0.4040(8) 0.7202(4) 0.1198(9)
C9 C 0.4797(10) 0.6917(7) 0.1505(15)
H6 H 0.53810 0.70910 0.17280
C10 C 0.4768(11) 0.6332(5) 0.1515(14)
H7 H 0.53230 0.61410 0.18210
C11 C 0.5465(8) 0.4983(5) 0.0440(9)
C12 C 0.4953(10) 0.4796(5) 0.2983(10)
H8 H 0.51720 0.45560 0.26340
C13 C 0.5207(9) 0.4728(5) 0.3942(10)
H9 H 0.56160 0.44470 0.42260
C14 C 0.4890(8) 0.5054(4) 0.4499(8)
C15 C 0.4334(10) 0.5487(5) 0.4019(10)
H10 H 0.41050 0.57350 0.43480
C16 C 0.4123(9) 0.5550(5) 0.307(1)
H11 H 0.37740 0.58520 0.27820
C17 C 0.7471(11) 0.4424(6) 0.3411(10)
H12 H 0.72250 0.40760 0.33480
C18 C 0.7363(13) 0.4722(7) 0.2606(11)
H13 H 0.70460 0.45750 0.20160
C19 C 0.8182(17) 0.5457(7) 0.3578(13)
H14 H 0.84300 0.58050 0.36400
C20 C 0.8273(13) 0.5165(7) 0.4376(11)
H15 H 0.85600 0.53220 0.49650
C21 C 0.8659(14) 0.4461(8) 0.5972(13)
H16 H 0.90080 0.47770 0.60350
C22 C 0.8774(13) 0.4148(8) 0.6721(12)
H17 H 0.92340 0.42450 0.72910
C23 C 0.7620(12) 0.3552(6) 0.5836(12)
H18 H 0.72400 0.32490 0.57830
C24 C 0.7542(12) 0.3847(7) 0.5065(11)
H19 H 0.71420 0.37250 0.44810
C25 C 0.7935(13) 0.4629(6) 0.4308(11)
C26 C 0.8022(11) 0.4314(6) 0.5107(11)
N1 N 0.4380(7) 0.5213(4) 0.2547(7)
N2 N 0.2485(6) 0.5172(4) 0.0730(8)
N3 N 0.3985(7) 0.6066(4) 0.1107(7)
N4 N 0.8256(14) 0.3697(8) 0.6695(12)
N5 N 0.7733(11) 0.5248(6) 0.2686(11)
O1 O 0.0021(6) 0.3888(3) 0.4384(7)
O2 O 0.1008(5) 0.3106(3) 0.1101(6)
O3 O 0.1371(5) 0.3963(3) 0.3608(7)
O4 O 0.3886(5) 0.3664(3) 0.3795(6)
O5 O 0.2260(7) 0.25000 0.2613(8)
O6 O 0.0111(7) 0.25000 0.2121(9)
O7 O 0.1613(6) 0.3352(3) 0.5371(6)
O8 O 0.0327(5) 0.3009(3) 0.3625(6)
O9 O -0.0226(6) 0.4595(3) 0.2900(7)
O10 O 0.2426(8) 0.25000 0.0967(9)
O11 O 0.3025(6) 0.3887(3) 0.5032(7)
O12 O 0.0082(5) 0.3666(3) 0.1978(6)
O13 O 0.2739(8) 0.25000 0.5874(9)
O14 O 0.4165(6) 0.3016(4) 0.5697(6)
O15 O 0.3668(5) 0.3139(3) 0.2270(7)
O16 O 0.0598(8) 0.25000 0.5419(10)
O17 O -0.1161(7) 0.25000 0.2826(10)
O18 O 0.2831(6) 0.4592(3) 0.3567(7)
O19 O -0.1262(6) 0.3658(3) 0.2699(7)
O20 O -0.0995(6) 0.3019(3) 0.4555(8)
O21 O 0.0239(7) 0.3481(4) 0.6150(8)
O22 O 0.5351(5) 0.3048(3) 0.4739(7)
O23 O 0.2427(6) 0.3612(4) 0.0699(6)
O24 O -0.1478(6) 0.3134(3) 0.1161(7)
O25 O 0.3288(7) 0.3493(4) 0.6821(7)
O26 O -0.3069(6) 0.3626(4) 0.1375(9)
O27 O 0.5927(9) 0.25000 0.6487(12)
O28 O 0.5122(7) 0.25000 0.3150(9)
O29 O -0.0647(7) 0.3595(4) -0.0005(7)
O30 O -0.2778(8) 0.25000 0.1475(10)
O31 O -0.2548(6) 0.3041(3) 0.3039(8)
O32 O -0.2607(10) 0.25000 0.4646(12)
O33 O 0.2250(5) 0.3656(3) 0.2469(6)
O34 O 0.3832(7) 0.25000 0.3920(8)
O35 O -0.0565(8) 0.25000 0.0312(9)
O36 O 0.2481(5) 0.3013(3) 0.4094(6)
O37 O 0.6204(6) 0.4827(4) 0.0348(6)
O38 O 0.5366(5) 0.5126(3) 0.1201(6)
O39 O 0.5476(6) 0.3592(4) 0.3208(7)
O40 O 0.3889(6) 0.4370(4) 0.1052(8)
H20 H 0.36930 0.42060 0.14390
H21 H 0.42570 0.41260 0.09850
O41 O 0.4961(11) 0.3644(6) 0.0611(12)
O42 O 0.5194(16) 0.25000 0.1302(18)
O43 O 0.763(3) 0.5777(19) 0.153(4)
Ni1B Ni 0.60379(10) 0.47773(6) -0.10812(11)
Ni1B* Ni -0.39621(10) 0.47773(6) -0.10812(11)
Ni1C Ni 0.39621(10) 0.97773(6) 0.10812(11)
Ni1B** Ni 0.60379(10) 0.47773(6) 0.89188(11)
W1C W 0.00316(3) 0.10753(2) 0.31425(4)
W2C W 0.26698(3) 0.10771(2) 0.37189(4)
W3C W 0.23487(4) 0.18201(2) 0.15398(4)
W4C W -0.02839(4) 0.18220(2) 0.09569(4)
W5C W 0.03013(4) 0.17578(2) 0.51272(5)
W6C W 0.46971(3) 0.18182(2) 0.34490(5)
W7C W 0.29438(4) 0.17558(2) 0.57069(4)
W8C W -0.22024(4) 0.18170(2) 0.19557(5)
C1B C -0.2095(9) 0.5041(6) -0.1301(11)
H1B H -0.24830 0.51570 -0.18940
C2B C -0.1107(9) 0.5096(6) -0.1040(11)
H2B H -0.08480 0.52220 -0.14740
C3B C -0.0527(8) 0.4965(5) -0.0144(9)
C4B C -0.0945(8) 0.4775(6) 0.044(1)
H3B H -0.05710 0.46830 0.10520
C5B C -0.1927(8) 0.4711(5) 0.0158(10)
H4B H -0.21960 0.45870 0.05860
C6C C 0.3227(11) 0.8637(6) 0.0807(15)
C7C C 0.3223(10) 0.8082(6) 0.0819(14)
H5C H 0.26520 0.78990 0.05620
C8C C 0.4040(8) 0.7798(4) 0.1198(9)
C9C C 0.4797(10) 0.8083(7) 0.1505(15)
H6C H 0.53810 0.79090 0.17280
C10C C 0.4768(11) 0.8668(5) 0.1515(14)
H7C H 0.53230 0.88590 0.18210
C11B C 0.4535(8) 0.5017(5) -0.0440(9)
C12B C 0.5047(10) 0.5204(5) 0.7017(10)
H8B H 0.48280 0.54440 0.73660
C13B C 0.4793(9) 0.5272(5) 0.6058(10)
H9B H 0.43840 0.55530 0.57740
C14B C 0.5110(8) 0.4946(4) 0.5501(8)
C15B C 0.5666(10) 0.4513(5) 0.5981(10)
H10B H 0.58950 0.42650 0.56520
C16B C 0.5877(9) 0.4450(5) 0.693(1)
H11B H 0.62260 0.41480 0.72180
N1B N 0.5620(7) 0.4787(4) 0.7453(7)
N1B* N 0.5620(7) 0.4787(4) -0.2547(7)
N2B N -0.2485(6) 0.4828(4) -0.0730(8)
N2B* N 0.7515(6) 0.4828(4) -0.0730(8)
N3C N 0.3985(7) 0.8934(4) 0.1107(7)
N3B N 0.6015(7) 0.3934(4) -0.1107(7)
O1C O 0.0021(6) 0.1112(3) 0.4384(7)
O2C O 0.1008(5) 0.1894(3) 0.1101(6)
O3C O 0.1371(5) 0.1037(3) 0.3608(7)
O4C O 0.3886(5) 0.1336(3) 0.3795(6)
O7C O 0.1613(6) 0.1648(3) 0.5371(6)
O8C O 0.0327(5) 0.1991(3) 0.3625(6)
O9C O -0.0226(6) 0.0405(3) 0.2900(7)
O11C O 0.3025(6) 0.1113(3) 0.5032(7)
O12C O 0.0082(5) 0.1334(3) 0.1978(6)
O14C O 0.4165(6) 0.1984(4) 0.5697(6)
O15C O 0.3668(5) 0.1861(3) 0.2270(7)
O18C O 0.2831(6) 0.0408(3) 0.3567(7)
O19C O -0.1262(6) 0.1342(3) 0.2699(7)
O20C O -0.0995(6) 0.1981(3) 0.4555(8)
O21C O 0.0239(7) 0.1519(4) 0.6150(8)
O22C O 0.5351(5) 0.1952(3) 0.4739(7)
O23C O 0.2427(6) 0.1388(4) 0.0699(6)
O24C O -0.1478(6) 0.1866(3) 0.1161(7)
O25C O 0.3288(7) 0.1507(4) 0.6821(7)
O26C O -0.3069(6) 0.1374(4) 0.1375(9)
O29C O -0.0647(7) 0.1405(4) -0.0005(7)
O31C O -0.2548(6) 0.1959(3) 0.3039(8)
O33C O 0.2250(5) 0.1344(3) 0.2469(6)
O36C O 0.2481(5) 0.1987(3) 0.4094(6)
O37B O 0.3796(6) 0.5173(4) -0.0348(6)
O38B O 0.4634(5) 0.4874(3) -0.1201(6)
O39C O 0.5476(6) 0.1408(4) 0.3208(7)
O40B O 0.6111(6) 0.5630(4) -0.1052(8)
H20B H 0.63070 0.57940 -0.14390
H21B H 0.57430 0.58740 -0.09850
#END
