
#######################################################################
#
#                 Cambridge Crystallographic Data Centre
#                                CCDC
#
#######################################################################
#
# If this CIF has been generated from an entry in the Cambridge
# Structural Database, then it will include bibliographic, chemical,
# crystal, experimental, refinement or atomic coordinate data resulting
# from the CCDC's data processing and validation procedures.
#
#######################################################################

data_CSD_CIF_JOMYAN
_audit_creation_date 2014-10-17
_audit_creation_method CSD-ConQuest-V1
_database_code_CSD JOMYAN
_database_code_depnum_ccdc_archive 'CCDC 895831'
_chemical_formula_sum 'C160 H132 Cd4 O40 P4'
_chemical_formula_moiety
;
(C64 H40 Cd4 O34 4-)n,6(H2 O1),4(C24 H20 P1 1+)
;
_journal_coden_Cambridge 1295
_journal_volume 48
_journal_year 2014
_journal_page_first 161
_journal_name_full 'Inorg.Chem.Commun. '
loop_
_publ_author_name
"Xiao-Li Wang"
"Guo-Dong Yang"
"Li Liu"
"Ai-Dong Tan"
"Jing-Cao Dai"
_chemical_name_systematic
;
catena-[tetrakis(tetraphenylphosphonium) 
(\m~4~-terephthalato)-tris(\m~2~-terephthalato)-tetrakis(hydrogen 
terephthalate)-diaqua-tetra-cadmium hexahydrate]
;
_cell_volume   3575.200
_exptl_crystal_colour 'orange'
_exptl_crystal_density_diffrn 1.518
_exptl_crystal_description 'Prism'
_diffrn_ambient_temperature 293
#These two values have been output from a single CSD field.
_refine_ls_R_factor_gt 0.0576
_refine_ls_wR_factor_gt 0.0576
_symmetry_cell_setting triclinic
_symmetry_space_group_name_H-M 'P -1'
_symmetry_Int_Tables_number 2
loop_
_symmetry_equiv_pos_site_id
_symmetry_equiv_pos_as_xyz
1 x,y,z
2 -x,-y,-z
_cell_length_a 10.101(3)
_cell_length_b 15.191(4)
_cell_length_c 23.331(6)
_cell_angle_alpha 87.722(4)
_cell_angle_beta 88.484(4)
_cell_angle_gamma 88.785(5)
_cell_formula_units_Z 1
loop_
_atom_type_symbol
_atom_type_radius_bond
C 0.68
H 0.23
Cd 1.44
O 0.68
P 1.05
loop_
_atom_site_label
_atom_site_type_symbol
_atom_site_fract_x
_atom_site_fract_y
_atom_site_fract_z
Cd1 Cd 0.02686(3) 0.61665(2) 0.019214(15)
Cd2 Cd 0.10387(4) 1.11562(3) -0.347087(17)
O1 O 0.2238(4) 0.6746(2) 0.06314(15)
O2 O 0.0427(4) 0.6502(3) 0.11516(16)
O3 O 0.5406(4) 0.8069(3) 0.30445(19)
H1 H 0.57050 0.84060 0.32900
O4 O 0.3466(4) 0.8399(3) 0.34503(18)
O5 O 0.1011(4) 0.6515(3) -0.07593(16)
O6 O -0.0031(4) 0.7548(3) -0.02835(16)
O7 O 0.1467(6) 0.9512(3) -0.3131(2)
O8 O 0.0657(6) 1.0536(3) -0.2604(2)
O9 O 0.0903(6) 1.2600(4) -0.3176(3)
O10 O 0.1109(6) 1.2465(4) -0.4092(3)
O11 O -0.0143(7) 1.7110(4) -0.3699(3)
O12 O 0.0690(7) 1.6972(4) -0.4603(3)
H2 H 0.04830 1.74970 -0.46260
O13 O -0.1388(3) 0.5174(2) -0.02665(13)
O14 O -0.1971(4) 0.6051(3) 0.04233(18)
O15 O 0.1784(4) 1.0514(3) -0.43227(16)
O16 O 0.3293(4) 1.1001(3) -0.37674(16)
C1 C 0.2276(5) 0.7024(3) 0.1627(2)
C2 C 0.1544(5) 0.7241(4) 0.2109(2)
H3 H 0.06330 0.71600 0.21210
C3 C 0.2151(6) 0.7577(4) 0.2572(2)
H4 H 0.16430 0.77330 0.28920
C4 C 0.3508(5) 0.7685(3) 0.2567(2)
C5 C 0.4270(5) 0.7430(3) 0.2089(2)
H5 H 0.51870 0.74770 0.20850
C6 C 0.3647(5) 0.7107(3) 0.1623(2)
H6 H 0.41490 0.69430 0.13030
C7 C 0.1604(5) 0.6731(3) 0.1094(2)
C8 C 0.4109(6) 0.8084(4) 0.3059(2)
C9 C 0.0714(5) 0.7920(4) -0.1227(2)
C10 C 0.1357(7) 0.7684(4) -0.1731(3)
H7 H 0.17220 0.71190 -0.17570
C11 C 0.1467(7) 0.8273(4) -0.2197(3)
H8 H 0.18940 0.81000 -0.25340
C12 C 0.0944(5) 0.9118(4) -0.2162(2)
C13 C 0.0348(6) 0.9357(4) -0.1661(3)
H9 H 0.00160 0.99290 -0.16300
C14 C 0.0228(6) 0.8778(4) -0.1204(3)
H10 H -0.01890 0.89620 -0.08680
C15 C 0.0547(5) 0.7283(4) -0.0722(2)
C16 C 0.1047(9) 0.9756(5) -0.2668(3)
C17 C 0.0880(12) 1.3905(7) -0.3757(5)
C18 C 0.1155(11) 1.4267(6) -0.4309(5)
H11 H 0.14140 1.39050 -0.46060
C19 C 0.1036(11) 1.5173(6) -0.4407(5)
H12 H 0.12870 1.54270 -0.47610
C20 C 0.0546(12) 1.5692(7) -0.3978(5)
C21 C 0.0291(11) 1.5336(6) -0.3439(5)
H13 H 0.00010 1.56970 -0.31470
C22 C 0.0463(11) 1.4442(6) -0.3328(5)
H14 H 0.02950 1.42030 -0.29600
C23 C 0.0969(10) 1.2920(6) -0.3661(4)
C24 C 0.0274(12) 1.6643(7) -0.4134(5)
C25 C -0.3677(4) 0.5242(3) 0.0028(2)
C26 C -0.4565(5) 0.5386(3) 0.0485(2)
H15 H -0.42730 0.56450 0.08120
C27 C -0.4129(5) 0.4852(3) -0.0456(2)
H16 H -0.35480 0.47510 -0.07630
C28 C -0.2259(5) 0.5499(3) 0.0068(2)
C29 C 0.4023(5) 1.0323(3) -0.4628(2)
C30 C 0.3680(6) 0.9913(4) -0.5117(2)
H17 H 0.27910 0.98530 -0.51980
C31 C 0.5351(5) 1.0410(4) -0.4509(2)
H18 H 0.55930 1.06850 -0.41790
C32 C 0.2972(6) 1.0637(4) -0.4215(2)
O17 O -0.1033(4) 1.0949(4) -0.3824(2)
H19 H -0.13320 1.06110 -0.40700
H20 H -0.17460 1.10940 -0.36470
P1 P 0.53406(16) 1.55187(10) -0.31067(6)
C33 C 0.4795(13) 1.6449(6) -0.3514(4)
C34 C 0.3517(13) 1.6843(5) -0.3411(4)
H21 H 0.29820 1.66120 -0.31140
C35 C 0.3049(13) 1.7559(5) -0.3738(4)
H22 H 0.22170 1.78170 -0.36770
C36 C 0.3942(13) 1.7861(6) -0.4171(4)
H23 H 0.36560 1.83370 -0.44020
C37 C 0.5150(13) 1.7541(5) -0.4286(4)
H24 H 0.56830 1.77870 -0.45790
C38 C 0.5585(13) 1.6816(5) -0.3947(4)
H25 H 0.64270 1.65770 -0.40150
C39 C 0.5804(6) 1.4716(4) -0.3620(2)
C40 C 0.4898(9) 1.4529(6) -0.4032(3)
H26 H 0.40780 1.48190 -0.40370
C41 C 0.5213(11) 1.3913(7) -0.4436(4)
H27 H 0.45950 1.37800 -0.47060
C42 C 0.6402(11) 1.3505(7) -0.4440(4)
H28 H 0.66040 1.30990 -0.47190
C43 C 0.7322(8) 1.3676(6) -0.4043(4)
H29 H 0.81470 1.33930 -0.40540
C44 C 0.7010(7) 1.4282(5) -0.3620(3)
H30 H 0.76190 1.43890 -0.33400
C45 C 0.4070(6) 1.5090(4) -0.2626(2)
C46 C 0.3662(7) 1.5578(5) -0.2159(3)
H31 H 0.40270 1.61250 -0.21060
C47 C 0.2715(7) 1.5254(6) -0.1775(3)
H32 H 0.24200 1.55870 -0.14700
C48 C 0.2218(7) 1.4446(6) -0.1846(3)
H33 H 0.15830 1.42250 -0.15860
C49 C 0.2635(8) 1.3952(5) -0.2292(4)
H34 H 0.22950 1.33940 -0.23300
C50 C 0.3557(7) 1.4272(4) -0.2689(3)
H35 H 0.38290 1.39360 -0.29970
C51 C 0.6695(6) 1.5795(4) -0.2675(2)
C52 C 0.7212(7) 1.6638(4) -0.2686(3)
H36 H 0.68990 1.70720 -0.29430
C53 C 0.8186(7) 1.6818(4) -0.2315(3)
H37 H 0.85350 1.73800 -0.23230
C54 C 0.8662(8) 1.6189(5) -0.1930(3)
H38 H 0.93210 1.63250 -0.16790
C55 C 0.8155(8) 1.5360(5) -0.1919(3)
H39 H 0.84760 1.49300 -0.16620
C56 C 0.7176(7) 1.5158(4) -0.2287(3)
H40 H 0.68340 1.45940 -0.22750
P2 P 0.54603(13) 0.97865(8) -0.14135(6)
C57 C 0.4243(5) 1.0654(3) -0.1308(2)
C58 C 0.3196(7) 1.0799(5) -0.1673(4)
H41 H 0.31040 1.04440 -0.19840
C59 C 0.2286(7) 1.1473(5) -0.1574(4)
H42 H 0.15710 1.15540 -0.18150
C60 C 0.2413(6) 1.2014(4) -0.1137(3)
H43 H 0.18000 1.24690 -0.10800
C61 C 0.3452(7) 1.1887(4) -0.0776(3)
H44 H 0.35360 1.22550 -0.04710
C62 C 0.4373(6) 1.1220(4) -0.0860(2)
H45 H 0.50830 1.11480 -0.06160
C63 C 0.6881(5) 1.0073(3) -0.1028(2)
C64 C 0.7128(6) 0.9639(4) -0.0500(2)
H46 H 0.66410 0.91510 -0.03790
C65 C 0.8103(7) 0.9947(5) -0.0164(3)
H47 H 0.82840 0.96610 0.01860
C66 C 0.8812(7) 1.0676(5) -0.0343(3)
H48 H 0.94480 1.08880 -0.01060
C67 C 0.8595(6) 1.1095(4) -0.0866(3)
H49 H 0.91060 1.15720 -0.09880
C68 C 0.7615(6) 1.0802(3) -0.1209(3)
H50 H 0.74460 1.10910 -0.15590
C69 C 0.4889(5) 0.8750(3) -0.1117(2)
C70 C 0.5540(8) 0.7981(4) -0.1281(3)
H51 H 0.61850 0.80010 -0.15720
C71 C 0.5220(9) 0.7186(4) -0.1007(4)
H52 H 0.56520 0.66700 -0.11160
C72 C 0.4272(7) 0.7155(4) -0.0575(3)
H53 H 0.40760 0.66200 -0.03870
C73 C 0.3611(6) 0.7913(4) -0.0421(3)
H54 H 0.29610 0.78880 -0.01320
C74 C 0.3907(6) 0.8712(4) -0.0694(2)
H55 H 0.34460 0.92220 -0.05940
C75 C 0.5877(5) 0.9623(3) -0.2153(2)
C76 C 0.7167(7) 0.9625(5) -0.2351(3)
H56 H 0.78360 0.97790 -0.21100
C77 C 0.7478(8) 0.9397(6) -0.2910(3)
H57 H 0.83570 0.93840 -0.30380
C78 C 0.6515(8) 0.9193(5) -0.3266(3)
H58 H 0.67290 0.90450 -0.36400
C79 C 0.5259(9) 0.9203(7) -0.3084(3)
H59 H 0.45990 0.90850 -0.33380
C80 C 0.4912(7) 0.9387(6) -0.2521(3)
H60 H 0.40350 0.93500 -0.23930
O18 O 0.0365(10) 1.8734(8) -0.5035(3)
H61 H 0.11230 1.85970 -0.51380
H62 H -0.03180 1.90700 -0.50280
O19 O -0.0153(10) 1.8781(5) -0.3909(4)
H63 H 0.03900 1.88220 -0.41930
H64 H 0.06400 1.88410 -0.38060
O20 O 0.778(6) 1.757(3) -0.479(3)
H65 H 0.74680 1.73760 -0.50930
H66 H 0.80920 1.80850 -0.47690
O13A O -0.8612(3) 0.4826(2) 0.02665(13)
O14A O -0.8029(4) 0.3949(3) -0.04233(18)
C25A C -0.6323(4) 0.4758(3) -0.0028(2)
C26A C -0.5435(5) 0.4614(3) -0.0485(2)
H15A H -0.57270 0.43550 -0.08120
C27A C -0.5871(5) 0.5148(3) 0.0456(2)
H16A H -0.64520 0.52490 0.07630
C28A C -0.7741(5) 0.4501(3) -0.0068(2)
O15A O 0.8216(4) 0.9486(3) -0.56773(16)
O16A O 0.6707(4) 0.8999(3) -0.62326(16)
C29A C 0.5977(5) 0.9677(3) -0.5372(2)
C30A C 0.6320(6) 1.0087(4) -0.4883(2)
H17A H 0.72090 1.01470 -0.48020
C31A C 0.4649(5) 0.9590(4) -0.5491(2)
H18A H 0.44070 0.93150 -0.58210
C32A C 0.7028(6) 0.9363(4) -0.5785(2)
Cd1A Cd -1.02686(3) 0.38335(2) -0.019214(15)
Cd2A Cd -1.10387(4) -0.11562(3) 0.347087(17)
O1A O -1.2238(4) 0.3254(2) -0.06314(15)
O2A O -1.0427(4) 0.3498(3) -0.11516(16)
O3A O -1.5406(4) 0.1931(3) -0.30445(19)
H1A H -1.57050 0.15940 -0.32900
O4A O -1.3466(4) 0.1601(3) -0.34503(18)
O5A O -1.1011(4) 0.3485(3) 0.07593(16)
O6A O -0.9969(4) 0.2452(3) 0.02835(16)
O7A O -1.1467(6) 0.0488(3) 0.3131(2)
O8A O -1.0657(6) -0.0536(3) 0.2604(2)
O9A O -1.0903(6) -0.2600(4) 0.3176(3)
O10A O -1.1109(6) -0.2465(4) 0.4092(3)
O11A O -0.9857(7) -0.7110(4) 0.3699(3)
O12A O -1.0690(7) -0.6972(4) 0.4603(3)
H2A H -1.04830 -0.74970 0.46260
C1A C -1.2276(5) 0.2976(3) -0.1627(2)
C2A C -1.1544(5) 0.2759(4) -0.2109(2)
H3A H -1.06330 0.28400 -0.21210
C3A C -1.2151(6) 0.2423(4) -0.2572(2)
H4A H -1.16430 0.22670 -0.28920
C4A C -1.3508(5) 0.2315(3) -0.2567(2)
C5A C -1.4270(5) 0.2570(3) -0.2089(2)
H5A H -1.51870 0.25230 -0.20850
C6A C -1.3647(5) 0.2893(3) -0.1623(2)
H6A H -1.41490 0.30570 -0.13030
C7A C -1.1604(5) 0.3269(3) -0.1094(2)
C8A C -1.4109(6) 0.1916(4) -0.3059(2)
C9A C -1.0714(5) 0.2080(4) 0.1227(2)
C10A C -1.1357(7) 0.2316(4) 0.1731(3)
H7A H -1.17220 0.28810 0.17570
C11A C -1.1467(7) 0.1727(4) 0.2197(3)
H8A H -1.18940 0.19000 0.25340
C12A C -1.0944(5) 0.0882(4) 0.2162(2)
C13A C -1.0348(6) 0.0643(4) 0.1661(3)
H9A H -1.00160 0.00710 0.16300
C14A C -1.0228(6) 0.1222(4) 0.1204(3)
H10A H -0.98110 0.10380 0.08680
C15A C -1.0547(5) 0.2717(4) 0.0722(2)
C16A C -1.1047(9) 0.0244(5) 0.2668(3)
C17A C -1.0880(12) -0.3905(7) 0.3757(5)
C18A C -1.1155(11) -0.4267(6) 0.4309(5)
H11A H -1.14140 -0.39050 0.46060
C19A C -1.1036(11) -0.5173(6) 0.4407(5)
H12A H -1.12870 -0.54270 0.47610
C20A C -1.0546(12) -0.5692(7) 0.3978(5)
C21A C -1.0291(11) -0.5336(6) 0.3439(5)
H13A H -1.00010 -0.56970 0.31470
C22A C -1.0463(11) -0.4442(6) 0.3328(5)
H14A H -1.02950 -0.42030 0.29600
C23A C -1.0969(10) -0.2920(6) 0.3661(4)
C24A C -1.0274(12) -0.6643(7) 0.4134(5)
O17A O -0.8967(4) -0.0949(4) 0.3824(2)
H19A H -0.86680 -0.06110 0.40700
H20A H -0.82540 -0.10940 0.36470
Cd1* Cd -0.97314(3) 0.61665(2) 0.019214(15)
Cd1A* Cd -0.02686(3) 0.38335(2) -0.019214(15)
Cd2A* Cd 0.89613(4) 0.88438(3) -0.652913(17)
O13* O -1.1388(3) 0.5174(2) -0.02665(13)
O13A* O 0.1388(3) 0.4826(2) 0.02665(13)
O15A* O -1.1784(4) -0.0514(3) 0.43227(16)
O16A* O -1.3293(4) -0.1001(3) 0.37674(16)
#END
