
#######################################################################
#
#                 Cambridge Crystallographic Data Centre
#                                CCDC
#
#######################################################################
#
# If this CIF has been generated from an entry in the Cambridge
# Structural Database, then it will include bibliographic, chemical,
# crystal, experimental, refinement or atomic coordinate data resulting
# from the CCDC's data processing and validation procedures.
#
#######################################################################

data_CSD_CIF_JOPGOM
_audit_creation_date 2014-10-20
_audit_creation_method CSD-ConQuest-V1
_database_code_CSD JOPGOM
_database_code_depnum_ccdc_archive 'CCDC 1029959'
_chemical_formula_sum 'C54 H65 Co4 N3 O26'
_chemical_formula_moiety
;
(C36 H15 Co4 O25 3-)n,3(C6 H16 N1 1+),H2 O1
;
_journal_coden_Cambridge 9
_journal_volume 53
_journal_year 2014
_journal_page_first 8529
_journal_name_full 'Inorg.Chem. '
loop_
_publ_author_name
"Hai-Sheng Lu"
"Linlu Bai"
"Wei-Wei Xiong"
"Peizhou Li"
"Junfeng Ding"
"Guodong Zhang"
"Tom Wu"
"Yanli Zhao"
"Jong-Min Lee"
"Yanhui Yang"
"Baoyou Geng"
"Qichun Zhang"
_chemical_name_systematic
;
catena-[tris(triethylammonium) 
(\m-hydroxo)-bis(\m-1,3,5-benzenetricarboxylato)-bis(\m-5-carboxybenzene-1,3-d
icarboxylato)-tetra-cobalt monohydrate]
;
_chemical_name_common
;
NTU-Z30
;
_cell_volume   6034.540
_exptl_crystal_colour 'purple black'
_exptl_crystal_description 'bar'
_diffrn_ambient_temperature 293
#These two values have been output from a single CSD field.
_refine_ls_R_factor_gt 0.0683
_refine_ls_wR_factor_gt 0.0683
_symmetry_cell_setting monoclinic
_symmetry_space_group_name_H-M 'P 21/c'
_symmetry_Int_Tables_number 14
loop_
_symmetry_equiv_pos_site_id
_symmetry_equiv_pos_as_xyz
1 x,y,z
2 -x,1/2+y,1/2-z
3 -x,-y,-z
4 x,-1/2-y,-1/2+z
_cell_length_a 11.2534(1)
_cell_length_b 16.2117(2)
_cell_length_c 33.8757(4)
_cell_angle_alpha 90
_cell_angle_beta 102.463(1)
_cell_angle_gamma 90
_cell_formula_units_Z 4
loop_
_atom_type_symbol
_atom_type_radius_bond
C 0.68
H 0.23
Co 1.26
N 0.68
O 0.68
loop_
_atom_site_label
_atom_site_type_symbol
_atom_site_fract_x
_atom_site_fract_y
_atom_site_fract_z
Co1 Co 0.14712(6) 0.57950(4) 0.19503(2)
Co2 Co -0.38682(7) 0.95925(4) 0.03594(2)
Co3 Co -0.01862(6) 0.43410(4) 0.14658(2)
Co4 Co 0.23566(6) 0.50714(4) 0.11403(2)
O1 O 0.0932(3) 0.53142(19) 0.13788(9)
O2 O 0.3291(3) 0.5985(2) 0.19969(11)
O3 O 0.1163(3) 0.7006(2) 0.19901(11)
O4 O 0.9610(3) 0.5747(3) 0.20272(12)
O5 O -0.1778(3) 0.9844(3) 0.26756(11)
O6 O -0.3846(3) 1.0816(2) 0.0378(1)
O7 O -0.2609(3) 0.9209(2) 0.08125(10)
O8 O -0.3022(4) 0.9384(2) -0.00888(11)
O9 O -0.0228(3) 0.8992(2) 0.29339(9)
O10 O 0.8351(3) 0.5000(2) 0.15576(11)
O11 O 0.3890(3) 0.5163(2) 0.15474(11)
O12 O -0.2383(4) 1.4446(2) -0.06123(11)
O13 O -0.2226(3) 0.6092(2) -0.09468(11)
O14 O -0.1245(3) 0.6498(2) -0.14160(9)
O15 O -0.4588(3) 1.1020(2) -0.02812(10)
O16 O 0.0067(5) 0.6934(3) 0.13565(12)
O17 O -0.3771(4) 0.9714(3) 0.12074(13)
O18 O -0.3261(4) 0.8050(3) 0.00358(13)
O19 O 0.1127(4) 0.9139(3) -0.11075(15)
O20 O 0.0637(5) 1.0003(3) -0.06592(16)
O21 O 0.8213(3) 0.7466(3) 0.29593(13)
O22 O 0.6272(4) 0.7658(5) 0.2953(2)
O23 O -0.3059(7) 1.3359(4) -0.09711(13)
O24 O -0.0916(3) 1.4180(2) 0.08512(11)
O25 O -0.1557(3) 1.3192(2) 0.11971(10)
C1 C -0.2738(4) 1.2378(3) 0.04555(13)
H1 H -0.27040 1.20760 0.06910
C2 C -0.3980(4) 1.1238(3) 0.00591(14)
C3 C -0.1677(4) 0.6622(3) -0.11067(13)
C4 C 0.7526(4) 0.5855(3) 0.20053(15)
C5 C 0.6328(4) 0.5602(3) 0.18459(14)
H2 H 0.61690 0.52230 0.16350
C6 C -0.1018(4) 0.9272(3) 0.26493(14)
C7 C 0.0322(5) 0.7247(3) 0.16954(16)
C8 C -0.1511(4) 1.3525(3) 0.08655(14)
C9 C -0.0413(4) 0.7989(3) 0.17735(14)
C10 C -0.2859(5) 0.9340(3) 0.11622(14)
C11 C 0.7749(4) 0.6417(3) 0.23149(15)
H3 H 0.85440 0.65910 0.24170
C12 C -0.1528(5) 0.7453(3) -0.09121(14)
C13 C -0.2177(4) 1.3147(3) 0.04714(13)
C14 C -0.1941(4) 0.9268(3) 0.19044(14)
H4 H -0.24770 0.96790 0.19460
C15 C -0.1192(5) 0.8354(3) 0.14539(14)
H5 H -0.12040 0.81760 0.11920
C16 C 0.4072(4) 0.5665(3) 0.18330(14)
C17 C -0.1961(4) 0.8987(3) 0.15164(14)
C18 C -0.0359(4) 0.8282(3) 0.21653(14)
H6 H 0.01800 0.80450 0.23820
C19 C -0.2191(4) 1.3587(3) 0.01157(14)
H7 H -0.18100 1.40980 0.01260
C20 C -0.1115(4) 0.8932(3) 0.22323(14)
C21 C -0.2844(5) 0.8617(3) -0.01393(15)
C22 C -0.3351(4) 1.2062(3) 0.00841(14)
C23 C -0.1187(5) 0.8964(3) -0.05125(17)
H8 H -0.10770 0.94710 -0.03810
C24 C -0.0660(5) 0.8006(3) -0.09905(15)
H9 H -0.02010 0.78730 -0.11790
C25 C 0.5368(4) 0.5918(3) 0.20038(15)
C26 C 0.6817(4) 0.6732(3) 0.24791(15)
C27 C 0.8584(4) 0.5511(3) 0.18493(14)
C28 C -0.2777(5) 1.3257(3) -0.02526(14)
C29 C -0.3370(5) 1.2498(3) -0.02697(14)
H10 H -0.37770 1.22860 -0.05170
C30 C 0.5617(4) 0.6481(3) 0.23185(15)
H11 H 0.49840 0.66950 0.24240
C31 C -0.2056(5) 0.8416(3) -0.04359(16)
C32 C 0.0506(5) 0.9312(3) -0.08714(18)
C33 C -0.2758(6) 1.3716(3) -0.06446(16)
C34 C -0.2214(5) 0.7658(3) -0.06325(15)
H12 H -0.27840 0.72860 -0.05760
C35 C 0.7051(5) 0.7333(4) 0.28209(17)
C36 C -0.0479(5) 0.8752(3) -0.07876(16)
N1 N 0.7031(4) 0.2399(4) 0.16381(16)
C37 C 0.5557(16) 0.1281(10) 0.1713(6)
H13 H 0.50960 0.08330 0.15710
H14 H 0.50120 0.16800 0.17870
H15 H 0.60900 0.10750 0.19530
C38 C 0.5360(9) 0.3344(11) 0.1290(4)
H16 H 0.48500 0.37960 0.13320
H17 H 0.48610 0.28770 0.11890
H18 H 0.58330 0.35010 0.10980
C39 C 0.7849(10) 0.2294(8) 0.2016(3)
H19 H 0.73920 0.21310 0.22150
H20 H 0.82350 0.28190 0.21000
C40 C 0.6191(10) 0.3120(7) 0.1681(3)
H21 H 0.57080 0.29750 0.18760
H22 H 0.66820 0.35970 0.17850
C41 C 0.6307(11) 0.1686(7) 0.1443(3)
H23 H 0.68540 0.12790 0.13700
H24 H 0.57650 0.18710 0.11960
C42 C 0.8847(7) 0.1643(6) 0.2007(2)
H25 H 0.93730 0.16030 0.22700
H26 H 0.93130 0.18040 0.18140
H27 H 0.84730 0.11170 0.19320
N2 N 0.7199(5) 0.6433(4) 0.03337(18)
C43 C 0.8455(11) 0.6210(12) 0.0441(8)
H28 H 0.86950 0.62680 0.07320
H29 H 0.84900 0.56250 0.03850
C44 C 0.667(3) 0.6361(11) 0.0691(6)
H30 H 0.58740 0.61140 0.05950
H31 H 0.71550 0.59490 0.08610
C45 C 0.6615(17) 0.5862(7) 0.0026(5)
H32 H 0.72170 0.57110 -0.01280
H33 H 0.64450 0.53670 0.01650
C46 C 0.6494(10) 0.6974(8) 0.0947(3)
H34 H 0.61780 0.67440 0.11640
H35 H 0.59250 0.73680 0.08020
H36 H 0.72550 0.72430 0.10540
C47 C 0.9358(8) 0.6570(11) 0.0288(4)
H37 H 1.01250 0.63230 0.04090
H38 H 0.93870 0.71500 0.03480
H39 H 0.91970 0.64910 0.00010
C48 C 0.5554(8) 0.6056(7) -0.0254(3)
H40 H 0.53160 0.55960 -0.04320
H41 H 0.56960 0.65280 -0.04090
H42 H 0.49180 0.61790 -0.01140
N3 N 0.3142(11) 0.9049(9) 0.1549(4)
C49 C 0.4809(17) 0.8039(14) 0.1552(7)
H43 H 0.50450 0.74730 0.16010
H44 H 0.53980 0.83900 0.17190
H45 H 0.47660 0.81680 0.12730
C50 C 0.219(2) 0.9292(12) 0.1778(8)
H46 H 0.14410 0.90030 0.16640
H47 H 0.24560 0.91190 0.20570
C51 C 0.1950(19) 1.0194(12) 0.1766(7)
H48 H 0.13570 1.03160 0.19230
H49 H 0.16470 1.03650 0.14920
H50 H 0.26910 1.04840 0.18770
C52 C 0.174(2) 0.853(2) 0.0919(6)
H51 H 0.14700 0.86350 0.06350
H52 H 0.10690 0.85680 0.10490
H53 H 0.20880 0.79860 0.09570
C53 C 0.270(3) 0.9155(16) 0.1099(5)
H54 H 0.23580 0.97040 0.10450
H55 H 0.33810 0.91060 0.09690
C54 C 0.3584(17) 0.8174(10) 0.1650(6)
H56 H 0.36370 0.80700 0.19350
H57 H 0.30030 0.77880 0.14970
O26 O 0.3800(7) 0.0032(7) 0.0958(3)
Co1* Co 1.14712(6) 0.57950(4) 0.19503(2)
Co1A Co -0.14712(6) 1.07950(4) 0.30497(2)
Co2B Co -0.61318(7) 1.04075(4) -0.03594(2)
Co3* Co -0.01862(6) 1.43410(4) 0.14658(2)
Co3** Co 0.98138(6) 0.43410(4) 0.14658(2)
Co3A Co 0.01862(6) 0.93410(4) 0.35342(2)
Co3B Co 0.01862(6) 0.56590(4) -0.14658(2)
Co4B Co -0.23566(6) 0.49286(4) -0.11403(2)
Co4B* Co -0.23566(6) 1.49286(4) -0.11403(2)
O4* O -0.0390(3) 0.5747(3) 0.20272(12)
O5A O 0.1778(3) 0.4844(3) 0.23244(11)
O9A O 0.0228(3) 0.3992(2) 0.20661(9)
O10* O -0.1649(3) 0.5000(2) 0.15576(11)
O12B O 0.2383(4) 0.5554(2) 0.06123(11)
O13B O 0.2226(3) 0.3908(2) 0.09468(11)
O14B O 0.1245(3) 0.3502(2) 0.14160(9)
O15B O -0.5412(3) 0.8980(2) 0.02812(10)
O24* O -0.0916(3) 0.4180(2) 0.08512(11)
#END
