
#######################################################################
#
#                 Cambridge Crystallographic Data Centre
#                                CCDC
#
#######################################################################
#
# If this CIF has been generated from an entry in the Cambridge
# Structural Database, then it will include bibliographic, chemical,
# crystal, experimental, refinement or atomic coordinate data resulting
# from the CCDC's data processing and validation procedures.
#
#######################################################################

data_CSD_CIF_JOPGIG
_audit_creation_date 2014-10-20
_audit_creation_method CSD-ConQuest-V1
_database_code_CSD JOPGIG
_database_code_depnum_ccdc_archive 'CCDC 1029958'
_chemical_formula_sum 'C60 H76 Co3 N4 O24'
_chemical_formula_moiety
;
(C36 H12 Co3 O24 4-)n,4(C6 H16 N1 1+)
;
_journal_coden_Cambridge 9
_journal_volume 53
_journal_year 2014
_journal_page_first 8529
_journal_name_full 'Inorg.Chem. '
loop_
_publ_author_name
"Hai-Sheng Lu"
"Linlu Bai"
"Wei-Wei Xiong"
"Peizhou Li"
"Junfeng Ding"
"Guodong Zhang"
"Tom Wu"
"Yanli Zhao"
"Jong-Min Lee"
"Yanhui Yang"
"Baoyou Geng"
"Qichun Zhang"
_chemical_name_systematic
;
catena-[tetrakis(triethylammonium) 
tetrakis(\m-1,3,5-benzenetricarboxylato)-tri-cobalt]
;
_chemical_name_common
;
NTU-Z32
;
_cell_volume   6433.736
_exptl_crystal_colour 'purple'
_exptl_crystal_density_diffrn 1.46
_exptl_crystal_description 'prism'
_diffrn_ambient_temperature 293
#These two values have been output from a single CSD field.
_refine_ls_R_factor_gt 0.1009
_refine_ls_wR_factor_gt 0.1009
_symmetry_cell_setting monoclinic
_symmetry_space_group_name_H-M 'C 2/c'
_symmetry_Int_Tables_number 15
loop_
_symmetry_equiv_pos_site_id
_symmetry_equiv_pos_as_xyz
1 x,y,z
2 -x,y,1/2-z
3 1/2+x,1/2+y,z
4 1/2-x,1/2+y,1/2-z
5 -x,-y,-z
6 x,-y,-1/2+z
7 -1/2-x,-1/2-y,-z
8 -1/2+x,-1/2-y,-1/2+z
_cell_length_a 25.9825(7)
_cell_length_b 16.3719(4)
_cell_length_c 16.9580(4)
_cell_angle_alpha 90
_cell_angle_beta 116.889(2)
_cell_angle_gamma 90
_cell_formula_units_Z 4
loop_
_atom_type_symbol
_atom_type_radius_bond
C 0.68
H 0.23
Co 1.26
N 0.68
O 0.68
loop_
_atom_site_label
_atom_site_type_symbol
_atom_site_fract_x
_atom_site_fract_y
_atom_site_fract_z
Co1 Co 0.00000 0.65699(8) 0.25000
O1 O 0.02137(18) 0.6534(3) 0.3832(3)
Co2 Co 0.13734(4) 0.59556(6) 0.38258(7)
O2 O 0.06348(18) 0.4380(3) 0.7736(3)
O3 O 0.1084(2) 0.6011(3) 0.4733(3)
O4 O 0.14696(18) 0.7132(3) 0.3641(3)
O5 O 0.28138(17) 0.9231(3) 0.5393(3)
O6 O -0.12508(19) 0.5672(3) 0.5843(3)
O7 O 0.1000(2) 1.1230(3) 0.2093(3)
O8 O 0.05753(19) 0.7490(3) 0.2625(3)
O9 O 0.26587(19) 1.0554(3) 0.5010(3)
O10 O 0.14008(19) 0.4728(3) 0.7600(3)
O11 O -0.1358(2) 0.6384(3) 0.4654(4)
C1 C 0.2517(3) 0.9824(4) 0.4908(4)
C2 C 0.0359(3) 0.5987(4) 0.5205(4)
O12 O 0.0295(2) 1.0313(3) 0.1478(4)
C3 C -0.0071(3) 0.5440(4) 0.6354(4)
H1 H -0.02160 0.52590 0.67350
C4 C 0.1957(3) 0.9573(4) 0.4141(4)
C5 C 0.0921(3) 0.9116(4) 0.2689(5)
H2 H 0.05670 0.89740 0.22260
C6 C 0.0579(3) 0.6196(3) 0.4553(4)
C7 C -0.1060(3) 0.5998(4) 0.5306(5)
C8 C -0.0427(3) 0.5861(4) 0.5590(4)
C9 C 0.1079(3) 0.7646(4) 0.3171(4)
C10 C -0.0207(3) 0.6121(4) 0.5024(5)
H3 H -0.04490 0.63940 0.45070
C11 C 0.1782(3) 0.8750(4) 0.4034(4)
H4 H 0.20090 0.83610 0.44440
C12 C 0.1270(3) 0.8515(4) 0.3313(4)
C13 C 0.0780(3) 1.0544(4) 0.2070(5)
C14 C 0.0869(3) 0.4763(4) 0.7321(4)
C15 C 0.0724(3) 0.5563(4) 0.5987(4)
H5 H 0.11080 0.54680 0.61250
C16 C 0.1627(3) 1.0153(4) 0.3516(4)
H6 H 0.17450 1.06960 0.35860
C17 C 0.1121(3) 0.9919(4) 0.2784(5)
C18 C 0.0502(3) 0.5288(3) 0.6550(4)
N1 N 0.2055(3) 1.1780(4) 0.2387(5)
H7 H 0.17500 1.15210 0.24010
C19 C 0.2469(4) 1.1118(6) 0.2413(7)
H8 H 0.27700 1.13600 0.23010
H9 H 0.26500 1.08790 0.30000
C20 C 0.2175(4) 1.0455(7) 0.1745(7)
H10 H 0.24530 1.00510 0.17860
H11 H 0.20010 1.06870 0.11620
H12 H 0.18810 1.02060 0.18610
C21 C 0.2334(4) 1.2276(6) 0.3219(7)
H13 H 0.26750 1.25390 0.32450
H14 H 0.24560 1.19120 0.37230
C22 C 0.1810(4) 1.2303(7) 0.1557(7)
H15 H 0.16310 1.19470 0.10460
H16 H 0.15110 1.26500 0.15660
C23 C 0.2251(4) 1.2836(9) 0.1447(8)
H17 H 0.20640 1.31420 0.09080
H18 H 0.25470 1.24980 0.14260
H19 H 0.24210 1.32060 0.19380
C24 C 0.1943(5) 1.2920(8) 0.3292(9)
H20 H 0.21450 1.32140 0.38370
H21 H 0.16080 1.26640 0.32830
H22 H 0.18270 1.32920 0.28040
N2 N 0.0254(3) 0.8571(5) -0.0277(5)
H23 H 0.00430 0.89730 -0.06550
C25 C 0.0381(4) 0.7956(6) -0.0816(6)
H24 H 0.00220 0.77210 -0.12520
H25 H 0.06130 0.75190 -0.04350
C26 C -0.0491(5) 0.8731(6) 0.0270(7)
H26 H -0.07220 0.84410 0.04860
H27 H -0.07370 0.90230 -0.02570
H28 H -0.02440 0.91090 0.07110
C27 C -0.0145(5) 0.8161(6) 0.0074(7)
H29 H -0.03980 0.77760 -0.03650
H30 H 0.00920 0.78550 0.06050
C28 C 0.0760(4) 0.8967(6) 0.0431(8)
H31 H 0.06330 0.93060 0.07780
H32 H 0.09380 0.93220 0.01660
C29 C 0.1213(6) 0.8364(9) 0.1048(10)
H33 H 0.15320 0.86600 0.14920
H34 H 0.13490 0.80330 0.07130
H35 H 0.10440 0.80200 0.13270
C30 C 0.0693(7) 0.8329(11) -0.1274(11)
H36 H 0.07710 0.79190 -0.16090
H37 H 0.10510 0.85580 -0.08440
H38 H 0.04600 0.87520 -0.16640
O1A O -0.02137(18) 0.6534(3) 0.1168(3)
Co2A Co -0.13734(4) 0.59556(6) 0.11742(7)
O2A O -0.06348(18) 0.4380(3) -0.2736(3)
O3A O -0.1084(2) 0.6011(3) 0.0267(3)
O4A O -0.14696(18) 0.7132(3) 0.1359(3)
O5A O -0.28138(17) 0.9231(3) -0.0393(3)
O6A O 0.12508(19) 0.5672(3) -0.0843(3)
O7A O -0.1000(2) 1.1230(3) 0.2907(3)
O8A O -0.05753(19) 0.7490(3) 0.2375(3)
O9A O -0.26587(19) 1.0554(3) -0.0010(3)
O10A O -0.14008(19) 0.4728(3) -0.2600(3)
O11A O 0.1358(2) 0.6384(3) 0.0346(4)
C1A C -0.2517(3) 0.9824(4) 0.0092(4)
C2A C -0.0359(3) 0.5987(4) -0.0205(4)
O12A O -0.0295(2) 1.0313(3) 0.3522(4)
C3A C 0.0071(3) 0.5440(4) -0.1354(4)
H1A H 0.02160 0.52590 -0.17350
C4A C -0.1957(3) 0.9573(4) 0.0859(4)
C5A C -0.0921(3) 0.9116(4) 0.2311(5)
H2A H -0.05670 0.89740 0.27740
C6A C -0.0579(3) 0.6196(3) 0.0447(4)
C7A C 0.1060(3) 0.5998(4) -0.0306(5)
C8A C 0.0427(3) 0.5861(4) -0.0590(4)
C9A C -0.1079(3) 0.7646(4) 0.1829(4)
C10A C 0.0207(3) 0.6121(4) -0.0024(5)
H3A H 0.04490 0.63940 0.04930
C11A C -0.1782(3) 0.8750(4) 0.0966(4)
H4A H -0.20090 0.83610 0.05560
C12A C -0.1270(3) 0.8515(4) 0.1687(4)
C13A C -0.0780(3) 1.0544(4) 0.2930(5)
C14A C -0.0869(3) 0.4763(4) -0.2321(4)
C15A C -0.0724(3) 0.5563(4) -0.0987(4)
H5A H -0.11080 0.54680 -0.11250
C16A C -0.1627(3) 1.0153(4) 0.1484(4)
H6A H -0.17450 1.06960 0.14140
C17A C -0.1121(3) 0.9919(4) 0.2216(5)
C18A C -0.0502(3) 0.5288(3) -0.1550(4)
Co1D Co 0.00000 0.34301(8) -0.25000
Co1D* Co 0.00000 0.34301(8) 0.75000
Co2D Co -0.13734(4) 0.40444(6) -0.38258(7)
Co2E Co 0.13734(4) 0.40444(6) 0.88258(7)
Co2F Co 0.36266(4) 0.90444(6) 0.61742(7)
Co2G Co -0.36266(4) 0.90444(6) -0.11742(7)
O2D O -0.06348(18) 0.5620(3) 0.2264(3)
O2E O 0.06348(18) 0.5620(3) 0.2736(3)
O5F O 0.21862(17) 0.5769(3) 0.4607(3)
O5G O -0.21862(17) 0.5769(3) 0.0393(3)
O10D O -0.14008(19) 0.5272(3) 0.2400(3)
O10E O 0.14008(19) 0.5272(3) 0.2600(3)
#END
