
#######################################################################
#
#                 Cambridge Crystallographic Data Centre
#                                CCDC
#
#######################################################################
#
# If this CIF has been generated from an entry in the Cambridge
# Structural Database, then it will include bibliographic, chemical,
# crystal, experimental, refinement or atomic coordinate data resulting
# from the CCDC's data processing and validation procedures.
#
#######################################################################

data_CSD_CIF_JOPGUS
_audit_creation_date 2014-10-20
_audit_creation_method CSD-ConQuest-V1
_database_code_CSD JOPGUS
_database_code_depnum_ccdc_archive 'CCDC 1029960'
_chemical_formula_sum 'C15 H21 Co1 N1 O7'
_chemical_formula_moiety
;
(C9 H3 Co1 O6 1-)n,C6 H16 N1 1+,H2 O1
;
_journal_coden_Cambridge 9
_journal_volume 53
_journal_year 2014
_journal_page_first 8529
_journal_name_full 'Inorg.Chem. '
loop_
_publ_author_name
"Hai-Sheng Lu"
"Linlu Bai"
"Wei-Wei Xiong"
"Peizhou Li"
"Junfeng Ding"
"Guodong Zhang"
"Tom Wu"
"Yanli Zhao"
"Jong-Min Lee"
"Yanhui Yang"
"Baoyou Geng"
"Qichun Zhang"
_chemical_name_systematic
;
catena-[triethylammonium (\m-1,3,5-benzenetricarboxylato)-cobalt(ii) 
monohydrate]
;
_cell_volume   1738.463
_exptl_crystal_colour 'red'
_exptl_crystal_density_diffrn 1.476
_exptl_crystal_description 'bar'
_diffrn_ambient_temperature 293
#These two values have been output from a single CSD field.
_refine_ls_R_factor_gt 0.106
_refine_ls_wR_factor_gt 0.106
_symmetry_cell_setting monoclinic
_symmetry_space_group_name_H-M 'P 21/n'
_symmetry_Int_Tables_number 14
loop_
_symmetry_equiv_pos_site_id
_symmetry_equiv_pos_as_xyz
1 x,y,z
2 1/2-x,1/2+y,1/2-z
3 -x,-y,-z
4 -1/2+x,-1/2-y,-1/2+z
_cell_length_a 9.3727(3)
_cell_length_b 16.4276(6)
_cell_length_c 11.9865(5)
_cell_angle_alpha 90
_cell_angle_beta 109.616(4)
_cell_angle_gamma 90
_cell_formula_units_Z 4
loop_
_atom_type_symbol
_atom_type_radius_bond
C 0.68
H 0.23
Co 1.26
N 0.68
O 0.68
loop_
_atom_site_label
_atom_site_type_symbol
_atom_site_fract_x
_atom_site_fract_y
_atom_site_fract_z
Co1 Co 0.37611(16) 0.08761(9) 0.02069(14)
O1 O 0.5804(7) 0.0852(5) 0.1358(5)
O2 O 1.2391(8) 0.0921(4) 0.1162(6)
O3 O 0.7324(7) 0.0052(4) 0.0751(6)
O4 O 1.3321(8) 0.2093(5) 0.2032(7)
O5 O 0.8271(8) 0.3103(5) 0.4236(7)
C1 C 0.8359(10) 0.1225(6) 0.1829(8)
C2 C 0.9732(9) 0.1114(5) 0.1636(7)
H1 H 0.98520 0.06640 0.12050
C3 C 1.092(1) 0.1656(6) 0.2068(9)
C4 C 0.7072(10) 0.0661(6) 0.1279(8)
C5 C 1.2342(10) 0.1560(6) 0.1747(9)
O6 O 1.0086(9) 0.3747(5) 0.3819(7)
C6 C 1.0748(11) 0.2314(6) 0.2744(9)
H2 H 1.15440 0.26780 0.30490
C7 C 0.9386(10) 0.2434(6) 0.2970(8)
C8 C 0.8209(10) 0.1884(6) 0.2511(8)
H3 H 0.73070 0.19570 0.26620
C9 C 0.9254(12) 0.3141(6) 0.3712(9)
N1 N 0.3494(14) 0.3680(7) 0.1431(9)
H4 H 0.34640 0.31420 0.16010
C10 C 0.3099(17) 0.4171(9) 0.2334(12)
H5 H 0.20260 0.41060 0.22020
H6 H 0.32750 0.47410 0.22140
C11 C 0.3956(16) 0.3955(8) 0.3582(10)
H7 H 0.36430 0.43010 0.41030
H8 H 0.50200 0.40270 0.37290
H9 H 0.37590 0.33980 0.37220
C12 C 0.249(2) 0.3831(12) 0.0210(13)
H10 H 0.29390 0.35920 -0.03330
H11 H 0.24200 0.44140 0.00700
C13 C 0.092(2) 0.3496(13) -0.0062(16)
H12 H 0.03300 0.36170 -0.08690
H13 H 0.04530 0.37400 0.04570
H14 H 0.09720 0.29170 0.00530
C14 C 0.518(2) 0.3929(19) 0.1593(19)
H15 H 0.52070 0.45090 0.14570
H16 H 0.58000 0.38250 0.24080
C15 C 0.586(3) 0.3499(19) 0.080(2)
H17 H 0.68790 0.36800 0.09680
H18 H 0.52760 0.36160 -0.00080
H19 H 0.58490 0.29230 0.09370
O7 O 0.443(2) 0.0230(13) -0.3234(18)
Co1* Co 1.37611(16) 0.08761(9) 0.02069(14)
Co1B Co 0.62389(16) -0.08761(9) -0.02069(14)
Co1C Co 0.87611(16) 0.41239(9) 0.52069(14)
O2* O 0.2391(8) 0.0921(4) 0.1162(6)
O3B O 0.2676(7) -0.0052(4) -0.0751(6)
O5C O 0.3271(8) 0.1897(5) -0.0764(7)
#END
