
#######################################################################
#
#                 Cambridge Crystallographic Data Centre
#                                CCDC
#
#######################################################################
#
# If this CIF has been generated from an entry in the Cambridge
# Structural Database, then it will include bibliographic, chemical,
# crystal, experimental, refinement or atomic coordinate data resulting
# from the CCDC's data processing and validation procedures.
#
#######################################################################

data_CSD_CIF_JOQPUC
_audit_creation_date 2014-10-20
_audit_creation_method CSD-ConQuest-V1
_database_code_CSD JOQPUC
_database_code_depnum_ccdc_archive 'CCDC 1006453'
_chemical_formula_sum 'C40 H42 Br2 Co3 N4 O12'
_chemical_formula_moiety
;
(C24 H12 Br2 Co3 O12 2-)n,2n(C8 H15 N2 1+)
;
_journal_coden_Cambridge 1350
_journal_volume 16
_journal_year 2014
_journal_page_first 10649
_journal_name_full 'CrystEngComm '
loop_
_publ_author_name
"Ling Xu"
"Bing Liu"
"Sheng-Xian Liu"
"Huan Jiao"
"B.de Castro"
"L.Cunha-Silva"
_chemical_name_systematic
;
catena-(bis(1-n-Butyl-3-methylimidazolium) 
bis(\m~4~-terephthalato-O,O',O'',O'''')-(\m~4~-terephthalato-O,O,O',O')-dibrom
o-tri-cobalt)
;
_cell_volume   2172.605
_exptl_crystal_colour 'violet'
_exptl_crystal_density_diffrn 1.693
_exptl_crystal_description 'prism'
_diffrn_ambient_temperature 150
#These two values have been output from a single CSD field.
_refine_ls_R_factor_gt 0.0474
_refine_ls_wR_factor_gt 0.0474
_symmetry_cell_setting monoclinic
_symmetry_space_group_name_H-M 'P 21/n'
_symmetry_Int_Tables_number 14
loop_
_symmetry_equiv_pos_site_id
_symmetry_equiv_pos_as_xyz
1 x,y,z
2 1/2-x,1/2+y,1/2-z
3 -x,-y,-z
4 -1/2+x,-1/2-y,-1/2+z
_cell_length_a 13.0822(12)
_cell_length_b 9.7472(8)
_cell_length_c 18.0158(16)
_cell_angle_alpha 90
_cell_angle_beta 108.963(3)
_cell_angle_gamma 90
_cell_formula_units_Z 2
loop_
_atom_type_symbol
_atom_type_radius_bond
C 0.68
H 0.23
Br 1.21
Co 1.26
N 0.68
O 0.68
loop_
_atom_site_label
_atom_site_type_symbol
_atom_site_fract_x
_atom_site_fract_y
_atom_site_fract_z
Co1 Co 0.30850(2) -0.04388(3) 1.073137(16)
Co2 Co 0.50000 0.00000 1.00000
Br1 Br 0.157520(19) -0.14621(3) 1.100893(15)
C1 C 0.20229(17) 0.2086(3) 0.86997(12)
C2 C 0.24155(18) 0.2648(3) 0.81321(13)
H1 H 0.31630 0.25890 0.81930
C3 C 0.17147(18) 0.3289(3) 0.74820(14)
H2 H 0.19810 0.36570 0.70920
C4 C 0.06129(17) 0.3401(2) 0.73918(12)
C5 C 0.02305(18) 0.2852(3) 0.79597(13)
H3 H -0.05140 0.29300 0.79050
C6 C 0.09282(17) 0.2188(3) 0.86093(13)
H4 H 0.06580 0.18020 0.89930
C7 C 0.27679(17) 0.1354(2) 0.93916(13)
C8 C -0.01296(18) 0.4070(2) 0.66740(12)
O1 O 0.37441(12) 0.12361(17) 0.94273(9)
O2 O 0.23727(12) 0.08922(18) 0.98899(8)
O3 O -0.10503(12) 0.44661(17) 0.66888(9)
O4 O 0.01876(13) 0.41953(18) 0.60935(8)
C9 C 0.46745(17) -0.3846(2) 1.03232(13)
C10 C 0.50888(19) -0.4984(3) 1.07877(14)
H5 H 0.51490 -0.49730 1.13270
C11 C 0.45861(18) -0.3872(3) 0.95248(13)
H6 H 0.43030 -0.31000 0.92010
C12 C 0.42918(17) -0.2626(3) 1.06669(13)
O5 O 0.39241(11) -0.15718(15) 1.02041(8)
O6 O 0.42828(14) -0.26376(18) 1.13465(9)
N1 N -0.1936(2) 0.6086(3) 0.83553(14)
N2 N -0.07448(19) 0.7663(3) 0.84255(13)
C13 C -0.2650(3) 0.4928(4) 0.8060(2)
H7 H -0.30330 0.47050 0.84310
H8 H -0.22250 0.41340 0.80000
H9 H -0.31760 0.51650 0.75500
C14 C 0.1474(3) 0.5768(4) 0.9267(2)
H10 H 0.17150 0.48500 0.91760
H11 H 0.07240 0.57220 0.92630
H12 H 0.19360 0.61100 0.97770
C15 C 0.1546(3) 0.6752(4) 0.8609(2)
H13 H 0.23030 0.67660 0.86090
H14 H 0.10940 0.63780 0.80970
C16 C 0.1193(3) 0.8220(3) 0.8679(2)
H15 H 0.13150 0.84250 0.92400
H16 H 0.16510 0.88510 0.84940
C17 C 0.0057(2) 0.8491(4) 0.82339(17)
H17 H -0.00940 0.94670 0.83090
H18 H -0.00420 0.83620 0.76700
C18 C -0.1274(3) 0.6684(3) 0.79890(17)
H19 H -0.12170 0.64180 0.74970
C19 C -0.1729(3) 0.6749(4) 0.90538(18)
H20 H -0.20330 0.65280 0.94510
C20 C -0.1005(2) 0.7794(3) 0.90893(15)
H21 H -0.07470 0.84610 0.94920
C9B C 0.53255(17) -0.6154(2) 0.96768(13)
C10B C 0.49112(19) -0.5016(3) 0.92123(14)
H5B H 0.48510 -0.50270 0.86730
C11B C 0.54139(18) -0.6128(3) 1.04752(13)
H6B H 0.56970 -0.69000 1.07990
C12B C 0.57082(17) -0.7374(3) 0.93331(13)
O5B O 0.60759(11) -0.84282(15) 0.97959(8)
O6B O 0.57172(14) -0.73624(18) 0.86535(9)
Co1B Co 0.69150(2) -0.95612(3) 0.926863(16)
Br1B Br 0.842480(19) -0.85379(3) 0.899107(15)
C1B C 0.79771(17) -1.2086(3) 1.13003(12)
C2B C 0.75845(18) -1.2648(3) 1.18679(13)
H1B H 0.68370 -1.25890 1.18070
C3B C 0.82853(18) -1.3289(3) 1.25180(14)
H2B H 0.80190 -1.36570 1.29080
C4B C 0.93871(17) -1.3401(2) 1.26082(12)
C5B C 0.97695(18) -1.2852(3) 1.20403(13)
H3B H 1.05140 -1.29300 1.20950
C6B C 0.90718(17) -1.2188(3) 1.13907(13)
H4B H 0.93420 -1.18020 1.10070
C7B C 0.72321(17) -1.1354(2) 1.06084(13)
C8B C 1.01296(18) -1.4070(2) 1.33260(12)
O1B O 0.62559(12) -1.12361(17) 1.05727(9)
O2B O 0.76273(12) -1.08922(18) 1.01101(8)
O3B O 1.10503(12) -1.44661(17) 1.33112(9)
O4B O 0.98124(13) -1.41953(18) 1.39065(8)
Co1A Co 1.19150(2) -1.54388(3) 1.426863(16)
Co1C Co -0.19150(2) 0.54388(3) 0.573137(16)
Co2* Co 0.50000 -1.00000 1.00000
Co2A Co 0.00000 0.50000 0.50000
Co2A* Co 1.00000 -1.50000 1.50000
O1B* O 0.62559(12) -0.12361(17) 1.05727(9)
O3A O 0.60503(12) -1.05339(17) 0.83112(9)
O3C O 0.39497(12) 0.05339(17) 1.16888(9)
O4A O 0.48124(13) -0.08047(18) 0.89065(8)
O4C O 0.51876(13) 0.08047(18) 1.10935(8)
O5B* O 0.60759(11) 0.15718(15) 0.97959(8)
#END
