
#######################################################################
#
#                 Cambridge Crystallographic Data Centre
#                                CCDC
#
#######################################################################
#
# If this CIF has been generated from an entry in the Cambridge
# Structural Database, then it will include bibliographic, chemical,
# crystal, experimental, refinement or atomic coordinate data resulting
# from the CCDC's data processing and validation procedures.
#
#######################################################################

data_CSD_CIF_JOQQAJ
_audit_creation_date 2014-10-20
_audit_creation_method CSD-ConQuest-V1
_database_code_CSD JOQQAJ
_database_code_depnum_ccdc_archive 'CCDC 1006454'
_chemical_formula_sum 'C50 H50 Co3 N4 O16'
_chemical_formula_moiety
;
(C32 H16 Co3 O16 2-)n,2n(C9 H17 N2 1+)
;
_journal_coden_Cambridge 1350
_journal_volume 16
_journal_year 2014
_journal_page_first 10649
_journal_name_full 'CrystEngComm '
loop_
_publ_author_name
"Ling Xu"
"Bing Liu"
"Sheng-Xian Liu"
"Huan Jiao"
"B.de Castro"
"L.Cunha-Silva"
_chemical_name_systematic
;
catena-(bis(1-n-Butyl-3-methylimidazolium) 
bis(\m~4~-terephthalato-O,O',O'',O'''')-(\m~4~-terephthalato-O,O,O',O')-(\m~2~
-terephthalato-O,O')-tri-cobalt)
;
_cell_volume   5898.289
_exptl_crystal_colour 'violet'
_exptl_crystal_density_diffrn 1.283
_exptl_crystal_description 'prism'
_diffrn_ambient_temperature 150
#These two values have been output from a single CSD field.
_refine_ls_R_factor_gt 0.068
_refine_ls_wR_factor_gt 0.068
_symmetry_cell_setting monoclinic
_symmetry_space_group_name_H-M 'C 2/c'
_symmetry_Int_Tables_number 15
loop_
_symmetry_equiv_pos_site_id
_symmetry_equiv_pos_as_xyz
1 x,y,z
2 -x,y,1/2-z
3 1/2+x,1/2+y,z
4 1/2-x,1/2+y,1/2-z
5 -x,-y,-z
6 x,-y,-1/2+z
7 -1/2-x,-1/2-y,-z
8 -1/2+x,-1/2-y,-1/2+z
_cell_length_a 33.093(3)
_cell_length_b 9.6403(9)
_cell_length_c 18.5130(19)
_cell_angle_alpha 90
_cell_angle_beta 92.954(5)
_cell_angle_gamma 90
_cell_formula_units_Z 4
loop_
_atom_type_symbol
_atom_type_radius_bond
C 0.68
H 0.23
Co 1.26
N 0.68
O 0.68
loop_
_atom_site_label
_atom_site_type_symbol
_atom_site_fract_x
_atom_site_fract_y
_atom_site_fract_z
Co1 Co 0.15206(1) 0.29562(3) 0.485805(18)
Co2 Co 0.25000 0.25000 0.50000
O1 O 0.22613(5) 0.18137(17) 0.40192(9)
O2 O 0.20335(5) 0.40590(17) 0.50405(9)
O3 O 0.15867(5) 0.17542(19) 0.40142(9)
O4 O 0.21623(5) -0.11685(17) 0.05945(9)
O5 O 0.15388(5) -0.1900(2) 0.07809(10)
C1 C 0.22751(8) 0.6327(2) 0.48001(14)
C2 C 0.18609(8) -0.1271(3) 0.09666(14)
C3 C 0.24738(8) 0.6409(3) 0.54838(13)
H1 H 0.24560 0.56570 0.58120
O6 O 0.10718(8) 0.4359(3) 0.49823(16)
C4 C 0.19248(8) 0.1514(3) 0.37459(13)
C5 C 0.20187(8) 0.5097(3) 0.45949(15)
C6 C 0.18774(8) -0.0577(3) 0.16957(14)
C7 C 0.19147(8) 0.0774(3) 0.30308(14)
C8 C 0.23039(9) 0.7426(3) 0.43132(15)
H2 H 0.21720 0.73740 0.38460
C9 C 0.22474(8) 0.0632(3) 0.26541(15)
H3 H 0.24960 0.10030 0.28490
C10 C 0.22432(8) -0.0040(3) 0.19871(14)
H4 H 0.24850 -0.01310 0.17350
C11 C 0.15443(9) 0.0230(4) 0.27428(16)
H5 H 0.13050 0.03160 0.30020
C12 C 0.15345(9) -0.0427(4) 0.20815(17)
H6 H 0.12850 -0.07850 0.18860
O7 O 0.17895(6) 0.51083(19) 0.40386(11)
O8 O 0.07901(9) 0.2387(3) 0.47331(19)
C13 C 0.07818(10) 0.3636(4) 0.4886(2)
C14 C 0.0375(1) 0.4331(4) 0.4951(2)
C15 C 0.00338(13) 0.3641(6) 0.4749(3)
H7 H 0.00440 0.27140 0.45770
C16 C 0.03499(13) 0.5645(5) 0.5198(3)
H8 H 0.05920 0.61190 0.53440
N1 N 0.0813(3) -0.2627(8) 0.3609(5)
C17 C 0.0642(4) -0.4101(14) 0.3213(8)
H9 H 0.08340 -0.48550 0.33280
H10 H 0.06170 -0.39710 0.26880
H11 H 0.03770 -0.43360 0.33920
C18 C 0.1081(2) -0.2770(8) 0.4070(4)
H12 H 0.12450 -0.35740 0.41350
C19 C 0.0830(2) -0.0744(8) 0.4194(4)
H13 H 0.07530 0.01220 0.43880
C20 C 0.0690(3) -0.1284(10) 0.3624(5)
H14 H 0.05240 -0.08340 0.32620
N2 N 0.11122(17) -0.1607(6) 0.4482(3)
C21 C 0.1369(2) -0.1361(7) 0.4999(4)
H15 H 0.12770 -0.05040 0.52350
H16 H 0.16250 -0.11230 0.47740
C22 C 0.1477(3) -0.2337(11) 0.5584(5)
H17 H 0.17590 -0.20000 0.56560
H18 H 0.15030 -0.31430 0.52590
C23 C 0.1491(4) -0.3291(12) 0.6345(6)
H19 H 0.12740 -0.39380 0.61760
H20 H 0.13470 -0.26020 0.66330
C24 C 0.1661(3) -0.4324(9) 0.7104(5)
H21 H 0.17030 -0.37510 0.75450
H22 H 0.19150 -0.48170 0.70090
C25 C 0.1211(7) -0.563(2) 0.7197(14)
H23 H 0.12680 -0.62350 0.76150
H24 H 0.11790 -0.61950 0.67580
H25 H 0.09610 -0.51120 0.72640
O2F O 0.29665(5) 1.09410(17) 0.49595(9)
C1F C 0.27249(8) 0.8673(2) 0.51999(14)
C3F C 0.25262(8) 0.8591(3) 0.45162(13)
H1F H 0.25440 0.93430 0.41880
C5F C 0.29813(8) 0.9903(3) 0.54051(15)
C8F C 0.26961(9) 0.7574(3) 0.56868(15)
H2F H 0.28280 0.76260 0.61540
O7F O 0.32105(6) 0.98917(19) 0.59614(11)
O6D O -0.10718(8) 0.5641(3) 0.50177(16)
O8D O -0.07901(9) 0.7613(3) 0.52669(19)
C13D C -0.07818(10) 0.6364(4) 0.5114(2)
C14D C -0.0375(1) 0.5669(4) 0.5049(2)
C15D C -0.00338(13) 0.6359(6) 0.5251(3)
H7D H -0.00440 0.72860 0.54230
C16D C -0.03499(13) 0.4355(5) 0.4802(3)
H8D H -0.05920 0.38810 0.46560
Co1D Co -0.15206(1) 0.70438(3) 0.514195(18)
O1D O -0.22613(5) 0.81863(17) 0.59808(9)
O3D O -0.15867(5) 0.82458(19) 0.59858(9)
O4D O -0.21623(5) 1.11685(17) 0.94055(9)
O5D O -0.15388(5) 1.1900(2) 0.92191(10)
C2D C -0.18609(8) 1.1271(3) 0.90334(14)
C4D C -0.19248(8) 0.8486(3) 0.62541(13)
C6D C -0.18774(8) 1.0577(3) 0.83043(14)
C7D C -0.19147(8) 0.9226(3) 0.69692(14)
C9D C -0.22474(8) 0.9368(3) 0.73459(15)
H3D H -0.24960 0.89970 0.71510
C10D C -0.22432(8) 1.0040(3) 0.80129(14)
H4D H -0.24850 1.01310 0.82650
C11D C -0.15443(9) 0.9770(4) 0.72572(16)
H5D H -0.13050 0.96840 0.69980
C12D C -0.15345(9) 1.0427(4) 0.79185(17)
H6D H -0.12850 1.07850 0.81140
Co1A Co -0.15206(1) 1.29562(3) 1.014195(18)
Co1E Co 0.15206(1) -0.29562(3) -0.014195(18)
Co1F Co 0.34794(1) 1.20438(3) 0.514195(18)
Co2* Co 0.25000 1.25000 0.50000
Co2A Co -0.25000 1.25000 1.00000
Co2B Co -0.25000 0.75000 0.50000
Co2C Co 0.25000 -0.25000 0.00000
O1F O 0.27387(5) 0.31863(17) 0.59808(9)
O2D O -0.20335(5) 0.59410(17) 0.49595(9)
O2F* O 0.29665(5) 0.09410(17) 0.49595(9)
O4C O 0.28377(5) 0.38315(17) 0.44055(9)
O4E O 0.21623(5) 0.11685(17) 0.55945(9)
O5A O -0.15388(5) 0.8100(2) 0.42191(10)
O5E O 0.15388(5) 0.1900(2) 0.57809(10)
#END
