
#######################################################################
#
#                 Cambridge Crystallographic Data Centre
#                                CCDC
#
#######################################################################
#
# If this CIF has been generated from an entry in the Cambridge
# Structural Database, then it will include bibliographic, chemical,
# crystal, experimental, refinement or atomic coordinate data resulting
# from the CCDC's data processing and validation procedures.
#
#######################################################################

data_CSD_CIF_JOTDII
_audit_creation_date 2019-08-30
_audit_creation_method CSD-ConQuest-V1
_database_code_CSD JOTDII
_database_code_depnum_ccdc_archive 'CCDC 1918595'
_chemical_formula_sum 'C46 H58 Co1 N6 Na2 O18'
_chemical_formula_moiety
;
(C32 H12 Co1 Na2 O16 4-)n,2n(C3 H7 N1 O1),4n(C2 H8 N1 1+)
;
_journal_coden_Cambridge 222
_journal_volume 48
_journal_year 2019
_journal_page_first 13541
_journal_name_full 'Dalton Trans. '
loop_
_publ_author_name
"Hui-Yan Ma"
"Yong-Zheng Zhang"
"Hui Yan"
"Wen-Jie Zhang"
"Yun-Wu Li"
"Su-Na Wang"
"Da-Cheng Li"
"Jian-Min Dou"
"Jian-Rong Li"
_chemical_name_systematic
;
catena-(tetrakis(dimethylammonium) 
bis(\m-1,1'-biphenyl-3,3',5,5'-tetracarboxylato)-cobalt-di-sodium 
dimethylformamide solvate)
;
_cell_volume   5217.340
_exptl_crystal_colour 'purple'
_exptl_crystal_description 'block'
_diffrn_ambient_temperature 100
#These two values have been output from a single CSD field.
_refine_ls_R_factor_gt 0.1128
_refine_ls_wR_factor_gt 0.1128
_symmetry_cell_setting monoclinic
_symmetry_space_group_name_H-M 'C 2/c'
_symmetry_Int_Tables_number 15
loop_
_symmetry_equiv_pos_site_id
_symmetry_equiv_pos_as_xyz
1 x,y,z
2 -x,y,1/2-z
3 1/2+x,1/2+y,z
4 1/2-x,1/2+y,1/2-z
5 -x,-y,-z
6 x,-y,-1/2+z
7 -1/2-x,-1/2-y,-z
8 -1/2+x,-1/2-y,-1/2+z
_cell_length_a 17.6254(16)
_cell_length_b 19.9755(15)
_cell_length_c 15.3066(11)
_cell_angle_alpha 90
_cell_angle_beta 104.504(8)
_cell_angle_gamma 90
_cell_formula_units_Z 4
loop_
_atom_type_symbol
_atom_type_radius_bond
C 0.68
H 0.23
Co 1.26
N 0.68
Na 1.66
O 0.68
loop_
_atom_site_label
_atom_site_type_symbol
_atom_site_fract_x
_atom_site_fract_y
_atom_site_fract_z
C1 C 0.7712(9) 0.8421(10) 0.1560(12)
C2 C 0.8350(13) 0.9277(5) 0.0955(7)
O1 O 0.9065(15) 0.7931(10) 0.2560(11)
N1 N 0.8485(7) 0.8703(3) 0.1575(3)
C3 C 0.9253(10) 0.8468(10) 0.210(1)
C4 C 0.9600(6) 0.8957(5) 0.5730(6)
H1 H 0.91890 0.92120 0.59100
H2 H 1.00310 0.92580 0.56960
H3 H 0.97960 0.86050 0.61760
N2 N 0.9276(5) 0.8652(4) 0.4844(6)
H4 H 0.96640 0.84320 0.46650
H5 H 0.90870 0.89780 0.44330
C5 C 0.8579(7) 0.8129(5) 0.4877(7)
H6 H 0.87620 0.78140 0.53750
H7 H 0.84280 0.78830 0.43060
H8 H 0.81250 0.83760 0.49710
Co1 Co 0.50000 0.23684(5) -0.25000
O2 O 0.5369(2) 0.18692(18) -0.1356(2)
O3 O 0.9188(2) 0.19674(18) 0.2561(3)
O4 O 0.8126(2) 0.2541(2) 0.1800(3)
O5 O 0.4162(2) 0.1454(2) -0.1715(3)
O6 O 0.4140(2) -0.0386(2) 0.1629(3)
O7 O 0.3254(2) 0.0088(2) 0.0510(3)
O8 O 0.8826(3) -0.0287(3) 0.3735(5)
O9 O 0.7617(3) -0.0627(2) 0.3694(3)
C6 C 0.4977(3) 0.1173(3) -0.0282(3)
C7 C 0.4809(3) 0.1517(2) -0.1188(3)
C8 C 0.8452(3) 0.2030(3) 0.2181(3)
C9 C 0.6722(3) 0.0847(3) 0.1690(4)
C10 C 0.4393(3) 0.0801(3) -0.0053(3)
H9 H 0.38810 0.07870 -0.04440
C11 C 0.5728(3) 0.1189(2) 0.0289(4)
H10 H 0.61240 0.14460 0.01260
C12 C 0.7198(3) 0.1406(2) 0.1702(3)
H11 H 0.69900 0.17860 0.13500
C13 C 0.3971(3) 0.0011(3) 0.1011(4)
C14 C 0.5907(3) 0.0831(2) 0.1102(4)
C15 C 0.7961(3) 0.1421(3) 0.2212(4)
C16 C 0.4566(3) 0.0448(3) 0.0761(4)
C17 C 0.5322(3) 0.0455(3) 0.1329(3)
H12 H 0.54370 0.02020 0.18710
C18 C 0.7790(4) 0.0329(3) 0.2798(5)
C19 C 0.8266(3) 0.0869(3) 0.2753(4)
H13 H 0.87990 0.08660 0.30860
C20 C 0.7025(3) 0.0309(3) 0.2259(4)
H14 H 0.67070 -0.00720 0.22770
C21 C 0.8105(4) -0.0237(3) 0.3468(5)
Na1 Na 0.84548(14) 0.36348(10) 0.18253(15)
N3 N 0.9468(18) 0.7636(17) 0.086(3)
C22 C 0.9006(17) 0.7151(12) 0.1238(19)
C23 C 0.895(3) 0.8214(15) 0.057(3)
O2A O 0.4631(2) 0.18692(18) -0.3644(2)
O3A O 0.0812(2) 0.19674(18) -0.7561(3)
O4A O 0.1874(2) 0.2541(2) -0.6800(3)
O5A O 0.5838(2) 0.1454(2) -0.3285(3)
O6A O 0.5860(2) -0.0386(2) -0.6629(3)
O7A O 0.6746(2) 0.0088(2) -0.5510(3)
O8A O 0.1174(3) -0.0287(3) -0.8735(5)
O9A O 0.2383(3) -0.0627(2) -0.8694(3)
C6A C 0.5023(3) 0.1173(3) -0.4718(3)
C7A C 0.5191(3) 0.1517(2) -0.3812(3)
C8A C 0.1548(3) 0.2030(3) -0.7181(3)
C9A C 0.3278(3) 0.0847(3) -0.6690(4)
C10A C 0.5607(3) 0.0801(3) -0.4947(3)
H9A H 0.61190 0.07870 -0.45560
C11A C 0.4272(3) 0.1189(2) -0.5289(4)
H10A H 0.38760 0.14460 -0.51260
C12A C 0.2802(3) 0.1406(2) -0.6702(3)
H11A H 0.30100 0.17860 -0.63500
C13A C 0.6029(3) 0.0011(3) -0.6011(4)
C14A C 0.4093(3) 0.0831(2) -0.6102(4)
C15A C 0.2039(3) 0.1421(3) -0.7212(4)
C16A C 0.5434(3) 0.0448(3) -0.5761(4)
C17A C 0.4678(3) 0.0455(3) -0.6329(3)
H12A H 0.45630 0.02020 -0.68710
C18A C 0.2210(4) 0.0329(3) -0.7798(5)
C19A C 0.1734(3) 0.0869(3) -0.7753(4)
H13A H 0.12010 0.08660 -0.80860
C20A C 0.2975(3) 0.0309(3) -0.7259(4)
H14A H 0.32930 -0.00720 -0.72770
C21A C 0.1895(4) -0.0237(3) -0.8468(5)
Na1A Na 0.15452(14) 0.36348(10) -0.68253(15)
Co1F Co 0.00000 0.26316(5) -0.75000
Co1F* Co 1.00000 0.26316(5) 0.25000
O2F O 0.9631(2) 0.31308(18) 0.1356(2)
O2G O 0.0369(2) 0.31308(18) -0.6356(2)
O3F O 0.5812(2) 0.30326(18) -0.2561(3)
O3G O 0.4188(2) 0.30326(18) -0.2439(3)
O5F O 0.0838(2) 0.3546(2) -0.8285(3)
O5G O 0.9162(2) 0.3546(2) 0.3285(3)
O6B O 0.9140(2) 0.4614(2) 0.1629(3)
O6C O 0.0860(2) 0.4614(2) -0.6629(3)
O9B O 0.2617(3) 0.4373(2) -0.6306(3)
O9C O 0.7383(3) 0.4373(2) 0.1306(3)
Na1B Na 0.34548(14) -0.13652(10) -0.81747(15)
Na1B* Na 0.34548(14) -0.13652(10) 0.18253(15)
Na1C Na 0.65452(14) -0.13652(10) -0.68253(15)
Na1C* Na 0.65452(14) -0.13652(10) 0.31747(15)
Na1F Na 0.65452(14) 0.13652(10) -0.18253(15)
Na1G Na 0.34548(14) 0.13652(10) -0.31747(15)
#END
