
#######################################################################
#
#                 Cambridge Crystallographic Data Centre
#                                CCDC
#
#######################################################################
#
# If this CIF has been generated from an entry in the Cambridge
# Structural Database, then it will include bibliographic, chemical,
# crystal, experimental, refinement or atomic coordinate data resulting
# from the CCDC's data processing and validation procedures.
#
#######################################################################

data_CSD_CIF_JOTDEE
_audit_creation_date 2019-08-30
_audit_creation_method CSD-ConQuest-V1
_database_code_CSD JOTDEE
_database_code_depnum_ccdc_archive 'CCDC 1918594'
_chemical_formula_sum 'C72 H136 Co2 N12 O34'
_chemical_formula_moiety
;
(C32 H12 Co2 O16 4-)n,8n(C4 H9 N1 O1),4n(C2 H8 N1 1+),10n(H2 O1)
;
_journal_coden_Cambridge 222
_journal_volume 48
_journal_year 2019
_journal_page_first 13541
_journal_name_full 'Dalton Trans. '
loop_
_publ_author_name
"Hui-Yan Ma"
"Yong-Zheng Zhang"
"Hui Yan"
"Wen-Jie Zhang"
"Yun-Wu Li"
"Su-Na Wang"
"Da-Cheng Li"
"Jian-Min Dou"
"Jian-Rong Li"
_chemical_name_systematic
;
catena-(tetrakis(dimethylammonium) 
bis(\m-1,1'-biphenyl-3,3',5,5'-tetracarboxylato)-di-cobalt dimethylacetamide 
solvate decahydrate)
;
_chemical_name_common
;
LCU-105
;
_cell_volume   3408.277
_exptl_crystal_colour 'purple'
_exptl_crystal_description 'block'
_diffrn_ambient_temperature 100
_refine_special_details
;
The SQUEEZE/PLATON program was used to model some of the disordered solvent.

;
#These two values have been output from a single CSD field.
_refine_ls_R_factor_gt 0.1492
_refine_ls_wR_factor_gt 0.1492
_symmetry_cell_setting monoclinic
_symmetry_space_group_name_H-M 'P 2/c'
_symmetry_Int_Tables_number 13
loop_
_symmetry_equiv_pos_site_id
_symmetry_equiv_pos_as_xyz
1 x,y,z
2 -x,y,1/2-z
3 -x,-y,-z
4 x,-y,-1/2+z
_cell_length_a 19.601(4)
_cell_length_b 9.3797(19)
_cell_length_c 18.630(4)
_cell_angle_alpha 90
_cell_angle_beta 95.69(3)
_cell_angle_gamma 90
_cell_formula_units_Z 2
loop_
_atom_type_symbol
_atom_type_radius_bond
C 0.68
H 0.23
Co 1.26
N 0.68
O 0.68
loop_
_atom_site_label
_atom_site_type_symbol
_atom_site_fract_x
_atom_site_fract_y
_atom_site_fract_z
C1 C 0.0310(11) -0.0792(16) 0.3710(7)
O1 O -0.0284(6) 0.1434(15) 0.3613(5)
C2 C 0.0746(9) 0.3087(13) 0.3175(4)
C3 C 0.1482(8) 0.106(2) 0.3214(4)
C4 C 0.0291(5) 0.0702(15) 0.3551(3)
N1 N 0.0815(6) 0.1597(12) 0.33215(17)
C5 C 0.6421(13) 0.683(4) 0.572(2)
N2 N 0.5777(17) 0.754(4) 0.5378(18)
C6 C 0.5233(14) 0.696(5) 0.582(2)
O2 O 0.1815(4) 0.7980(8) 0.5013(4)
C7 C 0.2042(6) 0.6688(12) 0.5014(7)
Co1 Co 0.24933(7) -0.05386(15) 0.50094(9)
O3 O 0.2883(4) -0.0468(9) 0.4102(5)
O4 O 0.3202(4) 0.0672(8) 0.0822(4)
O5 O 0.2365(4) 0.0427(10) 0.1500(5)
O6 O 0.1112(4) 0.0773(9) 0.5402(6)
O7 O 0.2098(4) 0.1345(8) 0.4983(5)
C8 C 0.1545(5) 0.5535(12) 0.4982(7)
C9 C 0.1763(6) 0.4155(12) 0.5046(7)
H1 H 0.22360 0.39240 0.50590
C10 C 0.0863(5) 0.5876(12) 0.4976(6)
H2 H 0.07310 0.68500 0.49460
C11 C 0.3233(6) -0.0162(12) 0.2697(6)
H3 H 0.27560 -0.01370 0.27470
C12 C 0.4616(5) -0.0258(14) 0.2519(7)
C13 C 0.1284(6) 0.3121(11) 0.5091(7)
C14 C 0.3695(5) -0.0477(13) 0.3270(7)
C15 C 0.4410(6) -0.0577(15) 0.3214(8)
H4 H 0.47270 -0.08390 0.36100
C16 C 0.0359(5) 0.4837(12) 0.5011(7)
C17 C 0.0599(5) 0.3428(10) 0.5088(7)
H5 H 0.02830 0.26760 0.51390
C18 C 0.3470(7) 0.0110(14) 0.2061(8)
C19 C 0.4162(6) 0.0073(11) 0.1974(7)
H6 H 0.43120 0.02890 0.15170
C20 C 0.1501(6) 0.1609(13) 0.5164(8)
C21 C 0.3471(6) -0.0811(14) 0.4004(8)
O8 O 0.3858(4) -0.1466(10) 0.4430(5)
C22 C 0.2959(5) 0.0447(12) 0.1422(7)
O9 O 0.2655(4) 0.6449(10) 0.4988(6)
C23 C 0.1606(10) 0.6487(19) 0.6727(9)
N3 N 0.2028(13) 0.518(3) 0.693(2)
C24 C 0.148(2) 0.410(2) 0.706(2)
O10 O 0.3733(3) 0.7197(6) 0.5430(3)
O11 O 0.8693(3) 0.1282(6) 0.3917(3)
O2B O -0.1815(4) 0.2020(8) 0.4987(4)
C7B C -0.2042(6) 0.3312(12) 0.4986(7)
O6B O -0.1112(4) 0.9227(9) 0.4598(6)
O7B O -0.2098(4) 0.8655(8) 0.5017(5)
C8B C -0.1545(5) 0.4465(12) 0.5018(7)
C9B C -0.1763(6) 0.5845(12) 0.4954(7)
H1B H -0.22360 0.60760 0.49410
C10B C -0.0863(5) 0.4124(12) 0.5024(6)
H2B H -0.07310 0.31500 0.50540
C13B C -0.1284(6) 0.6879(11) 0.4909(7)
C16B C -0.0359(5) 0.5163(12) 0.4989(7)
C17B C -0.0599(5) 0.6572(10) 0.4912(7)
H5B H -0.02830 0.73240 0.48610
C20B C -0.1501(6) 0.8391(13) 0.4836(8)
O9B O -0.2655(4) 0.3551(10) 0.5012(6)
O3A O 0.7117(4) -0.0468(9) 0.0898(5)
O4A O 0.6798(4) 0.0672(8) 0.4178(4)
O5A O 0.7635(4) 0.0427(10) 0.3500(5)
C11A C 0.6767(6) -0.0162(12) 0.2303(6)
H3A H 0.72440 -0.01370 0.22530
C12A C 0.5384(5) -0.0258(14) 0.2481(7)
C14A C 0.6305(5) -0.0477(13) 0.1730(7)
C15A C 0.5590(6) -0.0577(15) 0.1786(8)
H4A H 0.52730 -0.08390 0.13900
C18A C 0.6530(7) 0.0110(14) 0.2939(8)
C19A C 0.5838(6) 0.0073(11) 0.3026(7)
H6A H 0.56880 0.02890 0.34830
C21A C 0.6529(6) -0.0811(14) 0.0996(8)
O8A O 0.6142(4) -0.1466(10) 0.0570(5)
C22A C 0.7041(5) 0.0447(12) 0.3578(7)
Co1A Co 0.75067(7) -0.05386(15) -0.00094(9)
O2* O 0.1815(4) -0.2020(8) 0.5013(4)
O2A O 0.8185(4) -0.2020(8) -0.0013(4)
Co1* Co 0.24933(7) 0.94614(15) 0.50094(9)
Co1B Co -0.24933(7) 0.05386(15) 0.49906(9)
Co1B* Co -0.24933(7) 1.05386(15) 0.49906(9)
Co1B** Co 0.75067(7) 0.05386(15) 0.49906(9)
Co1C Co 0.24933(7) 0.05386(15) 0.00094(9)
O4B O 0.6798(4) -0.0672(8) -0.0822(4)
O4C O 0.3202(4) -0.0672(8) 0.5822(4)
O7A O 0.7902(4) 0.1345(8) 0.0017(5)
#END
