
#######################################################################
#
#                 Cambridge Crystallographic Data Centre
#                                CCDC
#
#######################################################################
#
# If this CIF has been generated from an entry in the Cambridge
# Structural Database, then it will include bibliographic, chemical,
# crystal, experimental, refinement or atomic coordinate data resulting
# from the CCDC's data processing and validation procedures.
#
#######################################################################

data_CSD_CIF_JOVYAW
_audit_creation_date 2014-10-22
_audit_creation_method CSD-ConQuest-V1
_database_code_CSD JOVYAW
_database_code_depnum_ccdc_archive 'CCDC 809422'
_chemical_formula_sum 'C41 H37 N2 O19.5 S0.5 Zn3'
_chemical_formula_moiety
;
(C2 H8 N1 1+)2n,n(C36 H12 O16 Zn3 2-),0.5n(C2 H6 O1 S1),3n(H2 O1)
;
_journal_coden_Cambridge 1295
_journal_volume 47
_journal_year 2014
_journal_page_first 102
_journal_name_full 'Inorg.Chem.Commun. '
loop_
_publ_author_name
"Yun-Xia Hu"
"Yan-Tao Qian"
"Wen-Wei Zhang"
"Yi-Zhi Li"
"Jun-Feng Bai"
_chemical_name_systematic
;
catena-[bis(Dimethylammonium) 
bis(\m~7~-5,5'-ethyne-1,2-diyldiisophthalato)-tri-zinc dimethyl sulfoxide 
solvate trihydrate]
;
_cell_volume   1127.374
_exptl_crystal_colour 'colorless'
_exptl_crystal_description 'block'
_diffrn_ambient_temperature 291
_refine_special_details
;
Disordered solvent molecules were not modelled and the disordered density was 
taken into account using the SQUEEZE/PLATON procedure.
;
#These two values have been output from a single CSD field.
_refine_ls_R_factor_gt 0.0502
_refine_ls_wR_factor_gt 0.0502
_symmetry_cell_setting triclinic
_symmetry_space_group_name_H-M 'P -1'
_symmetry_Int_Tables_number 2
loop_
_symmetry_equiv_pos_site_id
_symmetry_equiv_pos_as_xyz
1 x,y,z
2 -x,-y,-z
_cell_length_a 9.530(3)
_cell_length_b 10.168(3)
_cell_length_c 13.026(4)
_cell_angle_alpha 111.005(4)
_cell_angle_beta 105.569(5)
_cell_angle_gamma 90.497(4)
_cell_formula_units_Z 1
loop_
_atom_type_symbol
_atom_type_radius_bond
C 0.68
H 0.23
N 0.68
O 0.68
Zn 1.22
loop_
_atom_site_label
_atom_site_type_symbol
_atom_site_fract_x
_atom_site_fract_y
_atom_site_fract_z
C1 C 0.5937(4) 0.2250(4) -0.1523(3)
C2 C 0.5718(4) 0.3087(4) -0.2182(3)
H1 H 0.53750 0.26650 -0.29790
C3 C 0.6015(4) 0.4567(4) -0.1644(3)
C4 C 0.6608(4) 0.5153(4) -0.0459(3)
H2 H 0.68340 0.61320 -0.01020
C5 C 0.6485(4) 0.2874(4) -0.0346(3)
H3 H 0.65920 0.22990 0.00800
C6 C 0.6885(4) 0.4324(4) 0.0232(3)
C7 C 0.7516(4) 0.4970(4) 0.1422(3)
C8 C 0.8102(5) 0.5460(4) 0.2440(3)
C9 C 0.8782(4) 0.6062(4) 0.3627(3)
C10 C 0.7955(4) 0.6569(4) 0.4416(3)
H4 H 0.69450 0.65470 0.41410
C11 C 0.8617(4) 0.7090(4) 0.5578(3)
C12 C 1.0135(4) 0.7174(4) 0.6011(3)
H5 H 1.05840 0.75430 0.68000
C13 C 1.0979(4) 0.6697(4) 0.5245(3)
C14 C 1.0284(4) 0.6107(4) 0.4091(3)
H6 H 1.08430 0.57170 0.35940
C15 C 0.5613(5) 0.0661(4) -0.2112(4)
C16 C 0.5723(4) 0.5449(4) -0.2337(3)
C17 C 0.7688(4) 0.7562(4) 0.6388(3)
C18 C 1.2607(4) 0.6753(4) 0.5686(3)
O1 O 0.5756(3) -0.0082(3) -0.1500(2)
O2 O 0.5275(3) 0.0103(3) -0.3171(3)
O3 O 0.5996(3) 0.6800(3) -0.1814(2)
O4 O 0.5244(3) 0.4843(3) -0.3402(2)
O5 O 0.8257(3) 0.8413(3) 0.7371(2)
O6 O 0.6335(2) 0.7123(2) 0.5993(2)
O7 O 1.3239(3) 0.7564(3) 0.6697(2)
O8 O 1.3216(3) 0.5960(3) 0.4990(2)
Zn1 Zn 0.50000 0.50000 -0.50000
Zn2 Zn 0.54071(5) -0.20255(5) -0.27383(3)
C19 C 0.0222(5) 0.1212(5) 0.6903(4)
H7 H -0.07690 0.07960 0.64800
H8 H 0.08860 0.06330 0.65540
H9 H 0.03580 0.21450 0.68950
C20 C 0.2032(5) 0.1148(5) 0.8746(4)
H10 H 0.20940 0.13200 0.95320
H11 H 0.27250 0.18160 0.87190
H12 H 0.22490 0.02020 0.83820
N1 N 0.0526(4) 0.1311(4) 0.8133(3)
H13 H 0.03030 0.21600 0.85440
H14 H -0.00970 0.06440 0.81380
C1A C 0.4063(4) 0.7750(4) -0.8477(3)
C2A C 0.4282(4) 0.6913(4) -0.7818(3)
H1A H 0.46250 0.73350 -0.70210
C3A C 0.3985(4) 0.5433(4) -0.8356(3)
C4A C 0.3392(4) 0.4847(4) -0.9541(3)
H2A H 0.31660 0.38680 -0.98980
C5A C 0.3515(4) 0.7126(4) -0.9654(3)
H3A H 0.34080 0.77010 -1.00800
C6A C 0.3115(4) 0.5676(4) -1.0232(3)
C7A C 0.2484(4) 0.5030(4) -1.1422(3)
C8A C 0.1898(5) 0.4540(4) -1.2440(3)
C9A C 0.1218(4) 0.3938(4) -1.3627(3)
C10A C 0.2045(4) 0.3431(4) -1.4416(3)
H4A H 0.30550 0.34530 -1.41410
C11A C 0.1383(4) 0.2910(4) -1.5578(3)
C12A C -0.0135(4) 0.2826(4) -1.6011(3)
H5A H -0.05840 0.24570 -1.68000
C13A C -0.0979(4) 0.3303(4) -1.5245(3)
C14A C -0.0284(4) 0.3893(4) -1.4091(3)
H6A H -0.08430 0.42830 -1.35940
C15A C 0.4387(5) 0.9339(4) -0.7888(4)
C16A C 0.4277(4) 0.4551(4) -0.7663(3)
C17A C 0.2312(4) 0.2438(4) -1.6388(3)
C18A C -0.2607(4) 0.3247(4) -1.5686(3)
O1A O 0.4244(3) 1.0082(3) -0.8500(2)
O2A O 0.4725(3) 0.9897(3) -0.6829(3)
O3A O 0.4004(3) 0.3200(3) -0.8186(2)
O4A O 0.4756(3) 0.5157(3) -0.6598(2)
O5A O 0.1743(3) 0.1587(3) -1.7371(2)
O6A O 0.3665(2) 0.2877(2) -1.5993(2)
O7A O -0.3239(3) 0.2436(3) -1.6697(2)
O8A O -0.3216(3) 0.4040(3) -1.4990(2)
Zn2A Zn 0.45929(5) 1.20255(5) -0.72617(3)
O3* O 0.5996(3) -0.3200(3) -0.1814(2)
O3A* O 0.4004(3) 1.3200(3) -0.8186(2)
O6* O 0.6335(2) -0.2877(2) -0.4007(2)
O6** O 0.6335(2) 0.7123(2) -0.4007(2)
O6A* O 0.3665(2) 0.2877(2) -0.5993(2)
O6A** O 0.3665(2) 1.2877(2) -0.5993(2)
O7* O 0.3239(3) -0.2436(3) -0.3303(2)
O7A* O 0.6761(3) 1.2436(3) -0.6697(2)
O8* O 0.3216(3) 0.5960(3) -0.5010(2)
O8A* O 0.6784(3) 0.4040(3) -0.4990(2)
Zn1* Zn -0.50000 0.50000 -1.50000
Zn1** Zn 0.50000 0.50000 -1.50000
Zn1*** Zn 0.50000 0.50000 0.50000
Zn1**** Zn 1.50000 0.50000 0.50000
Zn2* Zn 0.54071(5) 0.79745(5) -0.27383(3)
Zn2** Zn 0.54071(5) 0.79745(5) 0.72617(3)
Zn2*** Zn 1.54071(5) 0.79745(5) 0.72617(3)
Zn2A* Zn -0.54071(5) 0.20255(5) -1.72617(3)
Zn2A** Zn 0.45929(5) 0.20255(5) -1.72617(3)
Zn2A*** Zn 0.45929(5) 0.20255(5) -0.72617(3)
#END
