
#######################################################################
#
#                 Cambridge Crystallographic Data Centre
#                                CCDC
#
#######################################################################
#
# If this CIF has been generated from an entry in the Cambridge
# Structural Database, then it will include bibliographic, chemical,
# crystal, experimental, refinement or atomic coordinate data resulting
# from the CCDC's data processing and validation procedures.
#
#######################################################################

data_CSD_CIF_JOYRAT
_audit_creation_date 2020-01-03
_audit_creation_method CSD-ConQuest-V1
_database_code_CSD JOYRAT
_database_code_depnum_ccdc_archive 'CCDC 1947498'
_chemical_formula_sum 'C28 H27.5 Eu1 N2.5 O8.5'
_chemical_formula_moiety
;
(C24 H15 Eu1 N1 O8 1-)n,C2 H8 N1 1+,0.5(C4 H9 N1 O1)
;
_journal_coden_Cambridge 119
_journal_volume 1203
_journal_year 2020
_journal_page_first 127439
_journal_name_full 'J.Mol.Struct. '
loop_
_publ_author_name
"Qing Chang"
"Kai Du"
"Li-Qiang Chen"
"Na-Na Xu"
"Xu-Chang liu"
"Fa-Chen Wang"
"Wei Zhang"
"Xiao-Dong Ding"
_chemical_name_systematic
;
catena-[dimethylammonium 
(\m-5-{bis[(4-carboxylatophenyl)methyl]amino}benzene-1,3-dicarboxylato)-europi
um(iii) N,N-dimethylacetamide solvate]
;
_cell_volume   2981.146
_exptl_crystal_colour 'colorless'
_exptl_crystal_description 'block'
_diffrn_ambient_temperature 150
_refine_special_details
;
Disordered dimethylammonium and N,N-dimethylacetamide solvent molecules were 
not modelled and the disordered density was taken into account using the 
SQUEEZE/PLATON procedure.
;
#These two values have been output from a single CSD field.
_refine_ls_R_factor_gt 0.0171
_refine_ls_wR_factor_gt 0.0171
_symmetry_cell_setting monoclinic
_symmetry_space_group_name_H-M 'P 2/c'
_symmetry_Int_Tables_number 13
loop_
_symmetry_equiv_pos_site_id
_symmetry_equiv_pos_as_xyz
1 x,y,z
2 -x,y,1/2-z
3 -x,-y,-z
4 x,-y,-1/2+z
_cell_length_a 15.536(2)
_cell_length_b 9.5528(5)
_cell_length_c 21.137(6)
_cell_angle_alpha 90
_cell_angle_beta 108.136(3)
_cell_angle_gamma 90
_cell_formula_units_Z 4
loop_
_atom_type_symbol
_atom_type_radius_bond
C 0.68
H 0.23
Eu 1.98
N 0.68
O 0.68
loop_
_atom_site_label
_atom_site_type_symbol
_atom_site_fract_x
_atom_site_fract_y
_atom_site_fract_z
Eu1 Eu 0.39557(2) 0.04475(2) 0.53370(2)
O1 O 0.39094(7) 0.16708(12) 0.43614(6)
O2 O 0.49121(8) 0.07975(14) 0.39157(6)
O3 O 0.37487(8) -0.05834(11) 0.14568(6)
O4 O 0.31881(8) 0.12181(13) 0.08439(6)
O5 O -0.24178(8) 0.03427(12) 0.03987(7)
O6 O -0.28243(7) 0.21791(13) -0.02312(6)
O7 O 0.42871(8) 0.88305(12) 0.46689(6)
O8 O 0.50896(7) 0.77734(12) 0.41213(6)
N1 N 0.15658(8) 0.36555(14) 0.23126(7)
C1 C 0.41681(10) 0.13271(17) 0.38728(9)
C2 C 0.3550(1) 0.15628(16) 0.31729(8)
C3 C 0.37289(10) 0.09347(17) 0.26320(9)
H1 H 0.42302 0.03180 0.27052
C4 C 0.31783(10) 0.12041(16) 0.19845(8)
C5 C 0.33818(10) 0.05712(16) 0.13980(9)
C6 C 0.24568(10) 0.21062(16) 0.18770(8)
H2 H 0.20864 0.23019 0.14355
C7 C 0.22672(10) 0.27358(16) 0.24161(8)
C8 C 0.28216(10) 0.24350(16) 0.30709(9)
H3 H 0.26880 0.28390 0.34402
C9 C 0.11054(11) 0.41835(17) 0.16472(9)
H4 H 0.15226 0.41070 0.13777
H5 H 0.09728 0.51894 0.16809
C10 C 0.02405(10) 0.34484(16) 0.12873(9)
C11 C 0.00011(10) 0.22175(17) 0.15142(9)
H6 H 0.03884 0.17966 0.19072
C12 C -0.08054(10) 0.15917(17) 0.11695(9)
H7 H -0.09703 0.07318 0.13259
C13 C -0.1380(1) 0.21921(17) 0.05994(9)
C14 C -0.22546(10) 0.15291(18) 0.02361(9)
C15 C -0.11383(11) 0.3421(2) 0.03712(9)
H8 H -0.15249 0.38414 -0.00223
C16 C -0.03360(11) 0.40423(19) 0.07135(10)
H9 H -0.01702 0.48989 0.05546
C17 C 0.14353(11) 0.44022(16) 0.28716(10)
H10 H 0.14021 0.37127 0.32129
H11 H 0.08465 0.48965 0.27192
C18 C 0.21584(11) 0.54405(15) 0.31872(10)
C19 C 0.21577(12) 0.6100(2) 0.37702(10)
H12 H 0.16718 0.59421 0.39449
C20 C 0.28509(12) 0.6981(2) 0.40988(10)
H13 H 0.28378 0.74577 0.44901
C21 C 0.35634(10) 0.71615(16) 0.38527(9)
C22 C 0.43579(10) 0.79753(17) 0.42343(9)
C23 C 0.35455(11) 0.65663(17) 0.32513(9)
H14 H 0.40244 0.67443 0.30716
C24 C 0.28389(12) 0.57218(18) 0.2915(1)
H15 H 0.28180 0.53324 0.24969
Eu1* Eu 0.39557(2) 1.04475(2) 0.53370(2)
Eu1A Eu -0.39557(2) 0.04475(2) -0.03370(2)
Eu1B Eu 0.60443(2) -0.04475(2) 0.46630(2)
Eu1B* Eu 0.60443(2) 0.95525(2) 0.46630(2)
Eu1C Eu 0.39557(2) -0.04475(2) 0.03370(2)
O2B O 0.50879(8) -0.07975(14) 0.60843(6)
O3C O 0.37487(8) 0.05834(11) 0.64568(6)
O4C O 0.31881(8) -0.12181(13) 0.58439(6)
O5A O 0.24178(8) 0.03427(12) 0.46013(7)
O6A O 0.28243(7) 0.21791(13) 0.52312(6)
O7* O 0.42871(8) -0.11695(12) 0.46689(6)
O7B O 0.57129(8) 0.11695(12) 0.53311(6)
O8B O 0.49104(7) 0.22266(12) 0.58787(6)
#END
