
#######################################################################
#
#                 Cambridge Crystallographic Data Centre
#                                CCDC
#
#######################################################################
#
# If this CIF has been generated from an entry in the Cambridge
# Structural Database, then it will include bibliographic, chemical,
# crystal, experimental, refinement or atomic coordinate data resulting
# from the CCDC's data processing and validation procedures.
#
#######################################################################

data_CSD_CIF_JOYYED
_audit_creation_date 2015-03-16
_audit_creation_method CSD-ConQuest-V1
_database_code_CSD JOYYED
_database_code_depnum_ccdc_archive 'CCDC 1054117'
_chemical_formula_sum 'C28 H29 La1 N4 O14 S2'
_chemical_formula_moiety
;
(C16 H7 La1 O14 S2 2-)n,2n(C6 H11 N2 1+)
;
_journal_coden_Cambridge 1295
_journal_volume 60
_journal_year 2015
_journal_page_first 4
_journal_name_full 'Inorg.Chem.Commun. '
loop_
_publ_author_name
"Wen-xian Chen"
"Jia-qi Bai"
"Zao-hong Yu"
"Qiu-ping Liu"
"Gan-ning Zeng"
"Gui-lin Zhuang"
_chemical_name_systematic
;
catena-(bis(1-Ethyl-3-methylimidazolium) (\m~4~-hydrogen 
5-sulfonatoisophthalato)-(\m~3~-5-sulfonatoisophthalato)-lanthanum)
;
_cell_volume   1264.406
_exptl_crystal_colour 'colorless'
_exptl_crystal_density_diffrn 2.229
_exptl_crystal_description 'block'
_diffrn_ambient_temperature 173
_refine_special_details
;
The disordered cations were taken into account using SQUEEZE/PLATON.

;
#These two values have been output from a single CSD field.
_refine_ls_R_factor_gt 0.025
_refine_ls_wR_factor_gt 0.025
_symmetry_cell_setting triclinic
_symmetry_space_group_name_H-M 'P -1'
_symmetry_Int_Tables_number 2
loop_
_symmetry_equiv_pos_site_id
_symmetry_equiv_pos_as_xyz
1 x,y,z
2 -x,-y,-z
_cell_length_a 8.9149(3)
_cell_length_b 11.7008(4)
_cell_length_c 13.2010(4)
_cell_angle_alpha 97.532(3)
_cell_angle_beta 107.085(3)
_cell_angle_gamma 101.286(3)
_cell_formula_units_Z 2
loop_
_atom_type_symbol
_atom_type_radius_bond
C 0.68
H 0.23
La 2.07
O 0.68
S 1.02
loop_
_atom_site_label
_atom_site_type_symbol
_atom_site_fract_x
_atom_site_fract_y
_atom_site_fract_z
La1 La 0.54096(2) 0.953930(18) 0.652931(14)
S1 S -0.20680(9) 1.22213(7) 0.59639(6)
S2 S 0.55101(10) 0.70854(8) 0.81791(6)
C1 C 0.0700(4) 1.1888(3) 0.5524(2)
H1 H 0.00190 1.14620 0.48240
O1 O 0.7038(3) 1.0255(2) 1.28365(18)
O2 O 0.4669(3) 0.9170(2) 1.17707(18)
C2 C 0.8391(4) 0.8245(3) 0.9755(3)
H2 H 0.88920 0.79130 0.92850
O3 O 1.1943(3) 1.0061(2) 1.18895(17)
C3 C 0.9334(4) 0.8975(3) 1.0746(2)
O4 O 0.3010(3) 1.4314(2) 0.92682(17)
O5 O 0.5251(3) 1.4067(2) 0.89345(19)
O6 O 0.4172(2) 1.0895(2) 0.54171(17)
C4 C 0.0056(4) 1.2406(3) 0.6251(2)
C5 C 0.3080(4) 1.1435(3) 0.5064(2)
C6 C 0.6727(4) 0.8004(3) 0.9454(2)
O7 O 0.5074(3) 0.7915(2) 0.74699(18)
C7 C 0.3372(4) 1.2645(3) 0.6854(2)
H3 H 0.45060 1.27150 0.70650
C8 C 0.5989(4) 0.8448(3) 1.0157(3)
H4 H 0.48410 0.82700 0.99510
O8 O 0.4124(3) 0.6402(2) 0.83498(19)
O9 O -0.2822(3) 1.1801(2) 0.48008(18)
C9 C 0.8606(4) 0.9435(3) 1.1453(2)
H5 H 0.92540 0.99380 1.21290
O10 O 0.6524(3) 0.6409(3) 0.7850(2)
O11 O -0.2487(3) 1.1308(2) 0.65562(19)
C10 C 0.2372(4) 1.2004(3) 0.5843(2)
C11 C 0.6184(4) 0.9569(3) 1.1974(3)
O12 O 0.2627(3) 1.1528(3) 0.41060(19)
C12 C 0.6933(4) 0.9155(3) 1.1164(2)
O13 O 1.1745(3) 0.8617(3) 1.0528(2)
O14 O -0.2313(3) 1.3343(2) 0.6352(2)
C13 C 0.2706(4) 1.3188(3) 0.7564(2)
C14 C 0.1042(4) 1.3056(3) 0.7257(2)
H6 H 0.05820 1.34150 0.77410
C15 C 0.3740(4) 1.3904(3) 0.8653(3)
C16 C 1.1129(4) 0.9270(3) 1.1112(3)
La1* La -0.45904(2) 0.953930(18) 0.652931(14)
La1A La -0.54096(2) 1.046070(18) 0.347069(14)
La1A* La 0.45904(2) 1.046070(18) 0.347069(14)
La1A** La 0.45904(2) 1.046070(18) 1.347069(14)
La1A*** La 1.45904(2) 1.046070(18) 1.347069(14)
O1A O 0.2962(3) 0.9745(2) 0.71635(18)
O2A O 0.5331(3) 1.0830(2) 0.82293(18)
O3A O 0.8057(3) 0.9939(2) 0.81105(17)
O6A O 0.5828(2) 0.9105(2) 0.45829(17)
O9A O 0.2822(3) 0.8199(2) 0.51992(18)
O11* O 0.7513(3) 1.1308(2) 0.65562(19)
O12A O 0.7373(3) 0.8472(3) 0.58940(19)
#END
