
#######################################################################
#
#                 Cambridge Crystallographic Data Centre
#                                CCDC
#
#######################################################################
#
# If this CIF has been generated from an entry in the Cambridge
# Structural Database, then it will include bibliographic, chemical,
# crystal, experimental, refinement or atomic coordinate data resulting
# from the CCDC's data processing and validation procedures.
#
#######################################################################

data_CSD_CIF_JOZTIE
_audit_creation_date 2020-01-03
_audit_creation_method CSD-ConQuest-V1
_database_code_CSD JOZTIE
_database_code_depnum_ccdc_archive 'CCDC 1540912'
_chemical_formula_sum 'C69 H44 Bi3 N4 O25.5 S18'
_chemical_formula_moiety
;
(C60 H12 Bi3 O24 S18 3-)n,C3 H7 N1 O1,0.5(H2 O1),3(C2 H8 N1 1+)
;
_journal_coden_Cambridge 4
_journal_volume 142
_journal_year 2019
_journal_page_first 318
_journal_name_full 'J.Am.Chem.Soc. '
loop_
_publ_author_name
"A.Garcia-Sanchez"
"M.Gomez-Mendoza"
"M.Barawi"
"I.J.Villar-Garcia"
"M.Liras"
"F.Gandara"
"V.A.de la P.OShea"
_chemical_name_systematic
;
catena-[tris(dimethylammonium) 
hexakis(\m-bisthieno[3,2-b:2',3'-d]thiophene-2,6-dicarboxyato)-tri-bismuth 
N,N-dimethylformamide solvate hemihydrate]
;
_cell_volume   9830.081
_exptl_crystal_colour 'yellowish'
_exptl_crystal_density_diffrn 1.618
_exptl_special_details
;
The counterions have not been determined from the crystallographic data. We 
have represented the formula given in the paper
;
_exptl_crystal_description 'prism'
_diffrn_ambient_temperature 273.1
#These two values have been output from a single CSD field.
_refine_ls_R_factor_gt 0.0637
_refine_ls_wR_factor_gt 0.0637
_symmetry_cell_setting monoclinic
_symmetry_space_group_name_H-M 'C 2'
_symmetry_Int_Tables_number 5
loop_
_symmetry_equiv_pos_site_id
_symmetry_equiv_pos_as_xyz
1 x,y,z
2 -x,y,-z
3 1/2+x,1/2+y,z
4 1/2-x,1/2+y,-z
_cell_length_a 25.5961(19)
_cell_length_b 22.5938(19)
_cell_length_c 17.288(2)
_cell_angle_alpha 90
_cell_angle_beta 100.512(8)
_cell_angle_gamma 90
_cell_formula_units_Z 4
loop_
_atom_type_symbol
_atom_type_radius_bond
C 0.68
H 0.23
Bi 1.48
N 0.68
O 0.68
S 1.02
loop_
_atom_site_label
_atom_site_type_symbol
_atom_site_fract_x
_atom_site_fract_y
_atom_site_fract_z
Bi1 Bi 0.43606(3) 0.74782(3) 0.71169(4)
Bi2 Bi 0.69778(3) 0.25491(3) -0.03567(4)
Bi3 Bi 0.31973(3) 0.75103(8) -0.15288(5)
S1 S 0.4544(2) -0.0451(3) -0.1149(3)
S2 S 0.6788(3) 0.4491(3) 0.7756(4)
S3 S 0.5569(2) 0.0824(3) -0.0637(4)
S4 S 0.5781(2) 0.5777(3) 0.7534(4)
S5 S 0.2972(2) 0.6347(3) 0.2797(3)
S6 S 0.38062(18) 0.7630(2) 0.1761(3)
S7 S 0.6152(2) -0.0911(2) -0.0532(3)
S8 S 0.6568(2) 0.5357(3) 0.9806(3)
S9 S 0.41155(19) 0.7481(3) 0.4042(2)
S10 S 0.7155(2) 0.2654(3) 0.2696(4)
S11 S 0.5812(3) 0.9176(3) 0.7312(4)
S12 S 0.7465(2) 0.2531(4) 0.4986(3)
S13 S 0.5497(3) 0.4174(3) -0.0717(4)
S14 S 0.5245(3) 1.0917(3) 0.7203(5)
S15 S 0.4767(3) 0.4647(3) -0.2993(4)
S16 S 0.4532(2) 0.5520(2) -0.0953(3)
S17 S 0.8242(3) 0.3841(4) 0.3931(4)
S18 S 0.6847(3) 1.0463(3) 0.7775(4)
O1 O 0.5096(6) 0.8105(7) 0.7157(10)
O2 O 0.6251(7) 0.1904(7) -0.0430(12)
O3 O 0.4989(7) 0.6736(7) 0.7133(10)
O4 O 0.6936(6) 0.2521(10) 0.0960(8)
O5 O 0.2993(6) 0.7177(7) -0.0308(8)
O6 O 0.4175(6) -0.2137(6) -0.1456(8)
O7 O 0.4381(5) 0.7537(10) 0.5788(7)
O8 O 0.3718(6) 0.6737(7) -0.2266(8)
O9 O 0.4955(6) 0.7027(7) 0.8330(9)
O10 O 0.3658(7) -0.1347(8) -0.1504(12)
O11 O 0.7637(6) 0.3266(6) 0.8981(10)
O12 O 0.7670(8) 0.2316(9) 0.6742(12)
O13 O 0.3749(7) 0.7690(7) -0.0023(9)
O14 O 0.3870(7) 0.6619(7) -0.0978(10)
O15 O 0.6330(7) 0.2954(8) -0.1552(10)
O16 O 0.4342(6) 0.8590(7) 0.6887(9)
C1 C 0.6195(9) 0.5447(10) 0.8305(14)
O17 O 0.7024(6) 0.1446(7) -0.0119(10)
O18 O 0.7431(7) 0.3258(8) 0.0702(9)
C2 C 0.652(1) 0.1441(11) -0.0296(14)
O19 O 0.6314(7) 0.3234(8) -0.0336(12)
C3 C 0.5471(8) -0.0951(9) -0.0822(11)
O20 O 0.8342(7) 0.2874(8) 0.7027(10)
C4 C 0.3586(7) 0.7212(9) 0.2458(11)
O21 O 0.7235(7) 1.2129(8) 0.8272(9)
C5 C 0.6184(9) 1.0382(11) 0.7511(13)
O22 O 0.3872(7) 0.6809(8) 0.6047(9)
O23 O 0.7543(8) 0.3455(8) 0.7723(11)
C6 C 0.5157(8) 0.6686(9) 0.7896(12)
C7 C 0.6153(8) 0.5699(9) 0.9038(13)
C8 C 0.4110(9) -0.1577(11) -0.1391(12)
C9 C 0.4756(8) 0.5015(9) -0.1553(12)
C10 C 0.6256(8) 0.0845(10) -0.0387(14)
C11 C 0.7244(9) 0.2961(11) 0.1173(15)
C12 C 0.3370(8) 0.7398(9) 0.0171(12)
C13 C 0.3712(7) 0.7136(10) 0.3273(10)
C14 C 0.5541(8) 0.6244(9) 0.8195(13)
C15 C 0.5521(9) 0.3821(11) -0.2096(15)
H1 H 0.56080 0.36100 -0.25160
O24 O 0.7718(8) 1.1361(10) 0.8106(14)
C16 C 0.6101(8) -0.0140(9) -0.0508(11)
C17 C 0.3899(9) 0.6446(9) -0.1648(14)
C18 C 0.5610(7) 0.0069(11) -0.0687(10)
C19 C 0.4178(7) 0.5890(9) -0.1755(12)
C20 C 0.5236(8) -0.0408(9) -0.0876(11)
C21 C 0.4566(9) 0.5148(11) -0.2366(13)
C22 C 0.6566(8) 0.4979(9) 0.8368(14)
C23 C 0.6492(9) 0.0326(10) -0.0318(13)
H2 H 0.68560 0.02660 -0.01700
C24 C 0.3194(9) 0.6799(9) 0.2110(13)
C25 C 0.5728(9) 0.3712(10) -0.1365(14)
C26 C 0.5110(8) 0.4531(9) -0.1475(14)
C27 C 0.4887(9) 0.9704(10) 0.6975(12)
H3 H 0.45250 0.97770 0.68260
C28 C 0.5775(7) 0.6158(9) 0.8946(13)
H4 H 0.56960 0.63790 0.93640
C29 C 0.3060(8) 0.6838(9) 0.1259(11)
H5 H 0.28060 0.66110 0.09370
C30 C 0.5119(9) -0.1418(10) -0.0991(12)
H6 H 0.52200 -0.18140 -0.09840
C31 C 0.7550(11) 0.3042(12) 0.3455(14)
C32 C 0.6779(10) 1.1220(12) 0.7884(14)
C33 C 0.3370(8) 0.7269(8) 0.1009(11)
C34 C 0.7390(9) 0.3084(11) 0.2019(13)
C35 C 0.5121(9) 0.9145(10) 0.7072(11)
C36 C 0.4843(10) 0.8599(10) 0.7026(12)
C37 C 0.7761(9) 0.3492(11) 0.2360(13)
H7 H 0.79410 0.37520 0.20840
C38 C 0.729(1) 1.1589(11) 0.8091(16)
C39 C 0.3498(9) 0.6639(11) 0.4357(13)
H8 H 0.33380 0.63530 0.46220
C40 C 0.6149(9) 0.3263(10) -0.107(2)
C41 C 0.4587(8) -0.1219(9) -0.1178(11)
C42 C 0.3400(8) 0.671(1) 0.3544(12)
C43 C 0.4050(9) 0.7120(12) 0.5567(11)
C44 C 0.6783(8) 0.4879(10) 0.9151(13)
C45 C 0.7665(9) 0.2991(13) 0.4292(14)
C46 C 0.5155(10) 0.4287(10) -0.2190(15)
C47 C 0.7461(10) 0.3567(12) 0.8408(18)
C48 C 0.594(1) 1.0950(12) 0.7508(15)
C49 C 0.4233(7) 0.5656(9) -0.2475(12)
H9 H 0.40740 0.58090 -0.29610
C50 C 0.6303(10) 1.1421(11) 0.7721(14)
H10 H 0.62090 1.18170 0.77410
C51 C 0.7929(10) 0.2896(13) 0.5734(16)
C52 C 0.5803(8) 0.9934(9) 0.7314(12)
C53 C 0.7978(10) 0.2681(12) 0.6550(15)
C54 C 0.385(1) 0.7031(11) 0.4706(12)
C55 C 0.5289(10) 1.0146(11) 0.7140(14)
C56 C 0.7829(10) 0.3461(12) 0.3165(17)
C57 C 0.7165(9) 0.4120(9) 0.8555(14)
C58 C 0.7127(11) 0.4372(11) 0.9272(15)
H11 H 0.72990 0.42340 0.97590
C59 C 0.8031(11) 0.3360(12) 0.4619(16)
C60 C 0.8183(11) 0.3316(12) 0.5429(14)
H12 H 0.84380 0.35580 0.57260
O25 O 0.50000 0.7212(13) 1.00000
O26 O 0.3320(8) 0.4340(9) -0.353(1)
C61 C 0.3324(7) 0.4411(7) -0.2832(10)
N1 N 0.3593(6) 0.4073(7) -0.2236(9)
C62 C 0.3913(12) 0.3574(11) -0.2405(13)
C63 C 0.3572(11) 0.4195(13) -0.1419(9)
Bi1* Bi 0.43606(3) -0.25218(3) -0.28831(4)
Bi1** Bi 0.43606(3) 0.74782(3) -0.28831(4)
Bi1B Bi 0.93606(3) 0.24782(3) 0.71169(4)
Bi2* Bi 0.69778(3) 0.25491(3) 0.96433(4)
Bi2** Bi 0.69778(3) 1.25491(3) 0.96433(4)
Bi2B Bi 0.19778(3) 0.75491(3) -0.03567(4)
Bi3* Bi 0.31973(3) -0.24897(8) -0.15288(5)
Bi3B Bi 0.81973(3) 0.25103(8) 0.84712(5)
Bi3B* Bi 0.81973(3) 1.25103(8) 0.84712(5)
O5B O 0.7993(6) 0.2177(7) -0.0308(8)
O6* O 0.4175(6) 0.7863(6) -0.1456(8)
O6** O 0.4175(6) 0.7863(6) 0.8544(8)
O8* O 0.3718(6) 0.6737(7) 0.7734(8)
O10* O 0.3658(7) 0.8653(8) -0.1504(12)
O11* O 0.7637(6) 0.3266(6) -0.1019(10)
O11B O 0.2637(6) 0.8266(6) -0.1019(10)
O20B O 0.3342(7) 0.7874(8) -0.2973(10)
O20B* O 0.3342(7) 0.7874(8) 0.7027(10)
O21* O 0.7235(7) 0.2129(8) -0.1728(9)
O21B O 0.2235(7) 0.7129(8) -0.1728(9)
O23B O 0.2543(8) 0.8455(8) -0.2277(11)
O24B O 0.2718(8) 0.6361(10) -0.1894(14)
#END
