
#######################################################################
#
#                 Cambridge Crystallographic Data Centre
#                                CCDC
#
#######################################################################
#
# If this CIF has been generated from an entry in the Cambridge
# Structural Database, then it will include bibliographic, chemical,
# crystal, experimental, refinement or atomic coordinate data resulting
# from the CCDC's data processing and validation procedures.
#
#######################################################################

data_CSD_CIF_JUCJUM
_audit_creation_date 1993-03-04
_audit_creation_method CSD-ConQuest-V1
_database_code_CSD JUCJUM
_database_code_depnum_ccdc_archive 'CCDC 1190022'
_database_code_depnum_ccdc_fiz 'CSD 55459'
_chemical_formula_sum 'C64 H128 Cu8 Na4 O32 Se24'
_chemical_formula_moiety
;
(C16 H32 Na1 O8 1+)4n,n(Cu8 Se24 4-)
;
_journal_coden_Cambridge 505
_journal_volume 115
_journal_year 1991
_journal_page_first 249
_journal_name_full 'Chem.Zeit. '
loop_
_publ_author_name
"D.Fenske"
"A.Ahle"
"K.Dehnicke"
_chemical_name_systematic
;
catena-[tetrakis(bis(12-crown-4)-sodium) tris(\m-tetraselenido)-octa-copper]
;
_cell_volume  11443.102
_exptl_crystal_colour 'black'
_exptl_crystal_density_diffrn 2.27
_diffrn_ambient_temperature 200
#These two values have been output from a single CSD field.
_refine_ls_R_factor_gt 0.076
_refine_ls_wR_factor_gt 0.076
_symmetry_cell_setting monoclinic
_symmetry_space_group_name_H-M 'P 21/c'
_symmetry_Int_Tables_number 14
loop_
_symmetry_equiv_pos_site_id
_symmetry_equiv_pos_as_xyz
1 x,y,z
2 -x,1/2+y,1/2-z
3 -x,-y,-z
4 x,-1/2-y,-1/2+z
_cell_length_a 16.741(10)
_cell_length_b 28.199(16)
_cell_length_c 24.249(14)
_cell_angle_alpha 90
_cell_angle_beta 91.58(4)
_cell_angle_gamma 90
_cell_formula_units_Z 4
loop_
_atom_type_symbol
_atom_type_radius_bond
C 0.68
Cu 1.48
Na 1.53
O 0.68
Se 1.22
loop_
_atom_site_label
_atom_site_type_symbol
_atom_site_fract_x
_atom_site_fract_y
_atom_site_fract_z
Se1 Se 0.4076(1) 0.36030(8) 0.1710(1)
Se2 Se 0.3925(2) 0.4455(1) 0.1781(1)
Se3 Se 0.5064(2) 0.4736(1) 0.1373(1)
Se4 Se 0.6119(2) 0.42727(8) 0.1788(1)
Se5 Se 0.4471(2) 0.2896(1) 0.3295(1)
Se6 Se 0.4401(2) 0.3282(2) 0.4165(1)
Se7 Se 0.5112(2) 0.4003(1) 0.4031(1)
Se8 Se 0.4548(2) 0.4331(1) 0.3140(1)
Se9 Se 0.5914(1) 0.27468(8) 0.2012(1)
Se10 Se 0.7322(2) 0.2739(1) 0.2186(1)
Se11 Se 0.7588(2) 0.3520(1) 0.2436(1)
Se12 Se 0.6687(2) 0.3634(1) 0.3172(1)
Se13 Se -0.0443(2) 0.3358(1) 0.1762(1)
Se14 Se 0.0044(2) 0.25636(8) 0.1848(1)
Se15 Se -0.0726(2) 0.22499(8) 0.2541(1)
Se16 Se -0.0504(2) 0.28098(8) 0.3260(1)
Se17 Se -0.0855(2) 0.4305(1) 0.3043(1)
Se18 Se -0.1012(2) 0.4536(1) 0.2043(2)
Se19 Se 0.0191(3) 0.4978(1) 0.1885(1)
Se20 Se 0.1207(2) 0.44672(8) 0.2277(1)
Se21 Se 0.1046(1) 0.37384(8) 0.3828(1)
Se22 Se 0.2455(1) 0.36563(8) 0.3762(1)
Se23 Se 0.2621(1) 0.37167(8) 0.2816(1)
Se24 Se 0.1730(2) 0.31179(8) 0.2463(1)
Cu1 Cu 0.4135(2) 0.3557(1) 0.2712(1)
Cu2 Cu 0.5695(2) 0.4106(1) 0.2698(1)
Cu3 Cu 0.5472(2) 0.3523(1) 0.1837(1)
Cu4 Cu 0.5615(2) 0.3139(1) 0.2859(1)
Cu5 Cu 0.9168(2) 0.3505(1) 0.2734(1)
Cu6 Cu 0.0697(2) 0.3189(1) 0.3115(1)
Cu7 Cu 0.0534(2) 0.4169(1) 0.3058(1)
Cu8 Cu 0.0737(2) 0.3680(1) 0.2129(1)
Na1 Na 0.6875(5) 0.1352(3) 0.4452(3)
O1 O 0.621(1) 0.1941(5) 0.3879(6)
O2 O 0.622(1) 0.0981(5) 0.3610(6)
O3 O 0.786(1) 0.0967(6) 0.3869(6)
O4 O 0.786(1) 0.1929(5) 0.4139(6)
O5 O 0.7851(9) 0.1305(5) 0.5244(6)
O6 O 0.695(1) 0.0544(5) 0.4860(6)
O7 O 0.5571(9) 0.1126(6) 0.4819(6)
O8 O 0.6505(8) 0.1893(5) 0.5209(5)
C1 C 0.595(2) 0.1795(8) 0.333(1)
C2 C 0.561(1) 0.1292(9) 0.3381(9)
C3 C 0.677(2) 0.082(1) 0.3208(9)
C4 C 0.746(1) 0.0602(9) 0.3536(9)
C5 C 0.835(2) 0.1288(9) 0.3569(9)
C6 C 0.855(1) 0.1681(9) 0.396(1)
C7 C 0.753(2) 0.2280(9) 0.376(1)
C8 C 0.667(2) 0.2370(9) 0.391(1)
C9 C 0.783(2) 0.0869(8) 0.558(1)
C10 C 0.769(1) 0.0493(8) 0.5175(9)
C11 C 0.623(2) 0.0418(9) 0.515(1)
C12 C 0.551(1) 0.0606(8) 0.4851(9)
C13 C 0.538(1) 0.136(1) 0.532(1)
C14 C 0.557(1) 0.1843(9) 0.528(1)
C15 C 0.694(2) 0.1831(8) 0.5719(9)
C16 C 0.779(2) 0.1751(9) 0.558(1)
Na2 Na 0.1698(5) 0.1305(3) 0.4635(3)
O9 O 0.304(1) 0.1644(9) 0.4478(7)
O10 O 0.257(1) 0.0714(7) 0.4190(7)
O11 O 0.121(1) 0.1074(6) 0.3694(7)
O12 O 0.159(1) 0.1973(6) 0.3984(7)
O13 O 0.223(1) 0.1067(6) 0.5533(6)
O14 O 0.159(1) 0.1974(6) 0.5326(6)
O15 O 0.0291(9) 0.1474(6) 0.4817(6)
O16 O 0.096(1) 0.0575(5) 0.5031(6)
C17 C 0.360(2) 0.125(1) 0.444(1)
C18 C 0.331(2) 0.088(1) 0.402(1)
C19 C 0.218(2) 0.047(1) 0.3753(9)
C20 C 0.172(2) 0.0833(9) 0.338(1)
C21 C 0.082(2) 0.148(1) 0.343(1)
C22 C 0.135(2) 0.187(1) 0.342(1)
C23 C 0.231(3) 0.226(1) 0.405(2)
C24 C 0.302(3) 0.199(1) 0.405(1)
C25 C 0.203(2) 0.1353(8) 0.598(1)
C26 C 0.214(2) 0.1843(8) 0.577(1)
C27 C 0.083(2) 0.2051(8) 0.550(1)
C28 C 0.022(2) 0.1953(9) 0.502(1)
C29 C -0.013(2) 0.1151(9) 0.514(1)
C30 C 0.008(2) 0.0670(9) 0.495(1)
C31 C 0.114(2) 0.0459(9) 0.558(1)
C32 C 0.209(2) 0.0550(8) 0.562(1)
Na3 Na 0.3395(5) 0.1156(3) 0.1369(3)
O17 O 0.405(1) 0.1926(6) 0.1515(7)
O18 O 0.334(2) 0.1635(6) 0.0540(7)
O19 O 0.199(1) 0.1326(6) 0.1084(7)
O20 O 0.273(1) 0.1629(5) 0.2097(6)
O21 O 0.283(1) 0.0451(6) 0.1803(8)
O22 O 0.433(2) 0.0874(8) 0.2119(8)
O23 O 0.476(1) 0.0930(7) 0.1056(9)
O24 O 0.333(1) 0.0481(7) 0.0698(8)
C33 C 0.414(2) 0.217(2) 0.104(2)
C34 C 0.366(4) 0.208(1) 0.058(1)
C35 C 0.258(4) 0.165(2) 0.027(1)
C36 C 0.201(3) 0.158(1) 0.060(2)
C37 C 0.158(2) 0.148(1) 0.160(2)
C38 C 0.194(2) 0.176(1) 0.196(1)
C39 C 0.317(3) 0.202(1) 0.226(1)
C40 C 0.369(3) 0.221(1) 0.192(2)
C41 C 0.329(3) 0.024(2) 0.224(2)
C42 C 0.382(4) 0.058(1) 0.247(1)
C43 C 0.504(4) 0.067(2) 0.195(2)
C44 C 0.522(3) 0.092(2) 0.165(2)
C45 C 0.487(2) 0.055(1) 0.079(2)
C46 C 0.415(2) 0.053(1) 0.039(1)
C47 C 0.319(3) 0.005(1) 0.091(1)
C48 C 0.257(2) 0.0110(9) 0.134(2)
Cu5* Cu -0.0832(2) 0.3505(1) 0.2734(1)
Se13* Se 0.9557(2) 0.3358(1) 0.1762(1)
Se16* Se 0.9496(2) 0.28098(8) 0.3260(1)
Se17* Se 0.9145(2) 0.4305(1) 0.3043(1)
#END
