
#######################################################################
#
#                 Cambridge Crystallographic Data Centre
#                                CCDC
#
#######################################################################
#
# If this CIF has been generated from an entry in the Cambridge
# Structural Database, then it will include bibliographic, chemical,
# crystal, experimental, refinement or atomic coordinate data resulting
# from the CCDC's data processing and validation procedures.
#
#######################################################################

data_CSD_CIF_JUCYUE
_audit_creation_date 2020-01-06
_audit_creation_method CSD-ConQuest-V1
_database_code_CSD JUCYUE
_database_code_depnum_ccdc_archive 'CCDC 1833815'
_chemical_formula_sum 'C24 H29 Cr1 Cu1 Mo6 N6 O32'
_chemical_formula_moiety
;
(C24 H19 Cu1 N6 O6 3+)n,H6 Cr1 Mo6 O24 3-,2(H2 O1)
;
_journal_coden_Cambridge 222
_journal_volume 49
_journal_year 2020
_journal_page_first 1265
_journal_name_full 'Dalton Trans. '
loop_
_publ_author_name
"Jia-Hui Li"
"Xiu-Li Wang"
"Ge Song"
"Hong-Yan Lin"
"Xiang Wang"
"Guo-Cheng Liu"
_chemical_name_systematic
;
catena-[(\m-3-[(pyridinium-3-yl)carbamoyl]pyridine-2-carboxylato)-(\m-3-[(pyri
din-3-yl)carbamoyl]pyridine-2-carboxylato)-copper 
hexakis(\m-hydroxo)-hexakis(\m-oxido)-dodecaoxo-chromium-hexa-molybdenum 
dihydrate]
;
_cell_volume   1021.412
_exptl_crystal_colour 'blue'
_exptl_crystal_density_diffrn 2.604
_exptl_special_details
;
The cation H atoms have not been located and have been placed arbitrarily in 
the 2D diagram
;
_exptl_crystal_description 'BLOCK'
_diffrn_ambient_temperature 293
#These two values have been output from a single CSD field.
_refine_ls_R_factor_gt 0.1
_refine_ls_wR_factor_gt 0.1
_symmetry_cell_setting triclinic
_symmetry_space_group_name_H-M 'P -1'
_symmetry_Int_Tables_number 2
loop_
_symmetry_equiv_pos_site_id
_symmetry_equiv_pos_as_xyz
1 x,y,z
2 -x,-y,-z
_cell_length_a 5.873(2)
_cell_length_b 10.453(3)
_cell_length_c 17.204(5)
_cell_angle_alpha 92.808(7)
_cell_angle_beta 95.027(7)
_cell_angle_gamma 103.268(7)
_cell_formula_units_Z 1
loop_
_atom_type_symbol
_atom_type_radius_bond
C 0.68
H 0.23
Cr 1.39
Cu 1.32
Mo 1.54
N 0.68
O 0.68
loop_
_atom_site_label
_atom_site_type_symbol
_atom_site_fract_x
_atom_site_fract_y
_atom_site_fract_z
Mo1 Mo 0.1241(3) 0.35481(17) 0.35119(10)
Cr1 Cr 0.50000 0.50000 0.50000
Mo2 Mo 0.7573(3) 0.32834(17) 0.62235(10)
Mo3 Mo 0.3620(3) 0.17056(16) 0.47659(10)
O1 O 0.075(2) 0.2267(14) 0.4360(8)
O2 O 0.393(3) 0.0736(14) 0.3985(9)
O3 O -0.170(2) 0.3436(14) 0.3324(8)
O4 O 0.697(2) 0.2200(13) 0.5204(8)
O5 O 0.610(2) 0.2146(14) 0.6780(8)
O6 O 0.820(2) 0.4970(13) 0.5476(8)
O7 O 1.048(2) 0.3232(15) 0.6411(8)
O8 O 0.203(2) 0.2609(16) 0.2795(8)
O9 O 0.747(3) 0.4791(14) 0.6861(9)
O10 O 0.412(2) 0.3479(12) 0.5626(7)
O11 O 0.241(2) 0.0690(13) 0.5419(10)
O12 O 0.475(2) 0.3608(13) 0.4154(8)
Cu1 Cu 1.00000 0.50000 1.00000
O13 O 0.181(4) 0.703(2) 0.9150(14)
N1 N 0.734(4) 0.4838(19) 0.9203(11)
C1 C 0.749(5) 0.691(3) 0.9893(15)
N2 N 0.402(3) 0.806(2) 0.8241(11)
H1 H 0.52700 0.81040 0.80110
O14 O 0.695(4) 0.7956(18) 0.9917(12)
C2 C 0.645(4) 0.588(2) 0.9231(14)
O15 O 0.896(3) 0.6530(17) 1.0389(10)
N3 N 0.145(5) 1.034(3) 0.7119(16)
C3 C 0.651(5) 0.386(3) 0.8664(15)
H2 H 0.72400 0.31560 0.86530
C4 C 0.456(4) 0.381(3) 0.8097(15)
H3 H 0.39510 0.30930 0.77360
C5 C 0.362(4) 0.496(2) 0.8134(13)
H4 H 0.23580 0.50070 0.77800
C6 C 0.455(4) 0.599(2) 0.8678(14)
C7 C 0.344(5) 0.709(2) 0.8744(14)
C8 C 0.271(4) 0.899(2) 0.8075(14)
C9 C 0.286(5) 0.953(2) 0.7360(14)
H5 H 0.39430 0.93320 0.70350
C10 C -0.008(6) 1.073(3) 0.765(2)
H6 H -0.10500 1.12850 0.75060
C11 C -0.007(5) 1.027(3) 0.836(2)
H7 H -0.10230 1.05180 0.87130
C12 C 0.130(6) 0.943(3) 0.8584(19)
H8 H 0.12980 0.91560 0.90890
O16 O -0.324(6) 1.087(4) 0.9446(19)
Mo1A Mo 0.8759(3) 0.64519(17) 0.64881(10)
Mo2A Mo 0.2427(3) 0.67166(17) 0.37765(10)
Mo3A Mo 0.6380(3) 0.82944(16) 0.52341(10)
O1A O 0.925(2) 0.7733(14) 0.5640(8)
O2A O 0.607(3) 0.9264(14) 0.6015(9)
O3A O 1.170(2) 0.6564(14) 0.6676(8)
O4A O 0.303(2) 0.7800(13) 0.4796(8)
O5A O 0.390(2) 0.7854(14) 0.3220(8)
O6A O 0.180(2) 0.5030(13) 0.4524(8)
O7A O -0.048(2) 0.6768(15) 0.3589(8)
O8A O 0.797(2) 0.7391(16) 0.7205(8)
O9A O 0.253(3) 0.5209(14) 0.3139(9)
O10A O 0.588(2) 0.6521(12) 0.4374(7)
O11A O 0.759(2) 0.9310(13) 0.4581(10)
O12A O 0.525(2) 0.6392(13) 0.5846(8)
O13A O 0.819(4) 0.297(2) 1.0850(14)
N1A N 0.266(4) 0.5162(19) 1.0797(11)
C1A C 0.251(5) 0.309(3) 1.0107(15)
N2A N 0.598(3) 0.194(2) 1.1759(11)
H1A H 0.47300 0.18960 1.19890
O14A O 0.305(4) 0.2044(18) 1.0083(12)
C2A C 0.355(4) 0.412(2) 1.0769(14)
O15A O 0.104(3) 0.3470(17) 0.9611(10)
N3A N 0.855(5) -0.034(3) 1.2881(16)
C3A C 0.349(5) 0.614(3) 1.1336(15)
H2A H 0.27600 0.68440 1.13470
C4A C 0.544(4) 0.619(3) 1.1903(15)
H3A H 0.60490 0.69070 1.22640
C5A C 0.638(4) 0.504(2) 1.1866(13)
H4A H 0.76420 0.49930 1.22200
C6A C 0.545(4) 0.401(2) 1.1322(14)
C7A C 0.656(5) 0.291(2) 1.1256(14)
C8A C 0.729(4) 0.101(2) 1.1925(14)
C9A C 0.714(5) 0.047(2) 1.2640(14)
H5A H 0.60570 0.06680 1.29650
C10A C 1.008(6) -0.073(3) 1.235(2)
H6A H 1.10500 -0.12850 1.24940
C11A C 1.007(5) -0.027(3) 1.164(2)
H7A H 1.10230 -0.05180 1.12870
C12A C 0.870(6) 0.057(3) 1.1416(19)
H8A H 0.87020 0.08440 1.09110
Cu1* Cu 0.00000 0.50000 1.00000
O13* O 1.181(4) 0.703(2) 0.9150(14)
N1A* N 1.266(4) 0.5162(19) 1.0797(11)
O15A* O 1.104(3) 0.3470(17) 0.9611(10)
#END
