
#######################################################################
#
#                 Cambridge Crystallographic Data Centre
#                                CCDC
#
#######################################################################
#
# If this CIF has been generated from an entry in the Cambridge
# Structural Database, then it will include bibliographic, chemical,
# crystal, experimental, refinement or atomic coordinate data resulting
# from the CCDC's data processing and validation procedures.
#
#######################################################################

data_CSD_CIF_JUCYEO
_audit_creation_date 2020-01-06
_audit_creation_method CSD-ConQuest-V1
_database_code_CSD JUCYEO
_database_code_depnum_ccdc_archive 'CCDC 1833812'
_chemical_formula_sum 'C24 H62 Al2 Co3 Mo12 N6 O70'
_chemical_formula_moiety
;
C24 H30 Co2 N6 O12 4+,n(H14 Al1 Co1 Mo6 O28 1-),H6 Al1 Mo6 O24 3-,6(H2 O1)
;
_journal_coden_Cambridge 222
_journal_volume 49
_journal_year 2020
_journal_page_first 1265
_journal_name_full 'Dalton Trans. '
loop_
_publ_author_name
"Jia-Hui Li"
"Xiu-Li Wang"
"Ge Song"
"Hong-Yan Lin"
"Xiang Wang"
"Guo-Cheng Liu"
_chemical_name_systematic
;
catena-[bis(\m-3-[(pyridin-1-ium-3-yl)carbamoyl]pyridine-2-carboxylato)-hexa-a
qua-di-cobalt 
hexakis(\m-hydroxo)-octakis(\m-oxido)-tetra-aqua-decaoxo-aluminium-cobalt-hexa
-molybdenum hexa-aqua-di-cobalt 
hexakis(\m-hydroxo)-hexakis(\m-oxido)-dodecaoxo-aluminium-hexa-molybdenum 
hexahydrate]
;
_cell_volume   1993.315
_exptl_crystal_colour 'pink'
_exptl_crystal_density_diffrn 2.447
_exptl_crystal_description 'BLOCK'
_diffrn_ambient_temperature 293
_refine_special_details
;
The SQUEEZE/PLATON program has been used to model some disorder.

;
#These two values have been output from a single CSD field.
_refine_ls_R_factor_gt 0.0472
_refine_ls_wR_factor_gt 0.0472
_symmetry_cell_setting triclinic
_symmetry_space_group_name_H-M 'P -1'
_symmetry_Int_Tables_number 2
loop_
_symmetry_equiv_pos_site_id
_symmetry_equiv_pos_as_xyz
1 x,y,z
2 -x,-y,-z
_cell_length_a 12.343(2)
_cell_length_b 13.014(2)
_cell_length_c 14.456(3)
_cell_angle_alpha 106.140(3)
_cell_angle_beta 97.910(3)
_cell_angle_gamma 111.844(3)
_cell_formula_units_Z 1
loop_
_atom_type_symbol
_atom_type_radius_bond
C 0.68
H 0.23
Al 1.21
Co 1.26
Mo 1.54
N 0.68
O 0.68
loop_
_atom_site_label
_atom_site_type_symbol
_atom_site_fract_x
_atom_site_fract_y
_atom_site_fract_z
Mo1 Mo -0.17260(5) 0.40841(5) 1.14574(5)
O1 O 0.1780(6) 0.0648(6) 1.0907(5)
Al1 Al 0.00000 0.50000 1.00000
Mo2 Mo -0.20404(5) 0.60038(5) 1.04941(5)
Co1 Co 0.00000 0.00000 1.00000
Mo3 Mo 0.03699(6) 0.31463(5) 1.10259(5)
O2 O 0.0153(5) 0.1729(4) 1.0414(5)
O3 O -0.0726(5) -0.0224(5) 1.1156(4)
O4 O 0.0804(5) 0.3398(6) 1.2257(4)
O5 O 0.0047(4) 0.3514(4) 0.9545(3)
O6 O -0.1749(5) 0.7460(4) 1.1053(4)
O7 O -0.1931(4) 0.5986(4) 0.9157(4)
O8 O -0.3557(5) 0.5242(5) 1.0180(4)
O9 O -0.1692(4) 0.4347(4) 0.9932(3)
O10 O -0.1299(4) 0.4261(4) 1.2687(4)
O11 O -0.1565(4) 0.5657(4) 1.1636(3)
O12 O -0.1317(4) 0.2821(4) 1.0850(4)
O13 O 0.0232(4) 0.4880(4) 1.1282(3)
O14 O -0.3244(4) 0.3303(4) 1.1087(4)
Co2 Co -0.02523(8) 0.24405(8) 0.46929(7)
N1 N -0.0086(5) 0.0888(4) 0.3881(4)
O15 O -0.1689(4) 0.1084(4) 0.4850(4)
C1 C 0.0783(6) 0.0862(6) 0.3442(5)
H1 H 0.13080 0.15520 0.33780
C2 C 0.0926(6) -0.0177(7) 0.3073(6)
H2 H 0.15590 -0.01730 0.27900
O16 O 0.0976(4) 0.3554(4) 0.4215(4)
O17 O -0.2492(4) -0.0840(4) 0.4638(4)
N2 N -0.2784(5) -0.2844(5) 0.2963(4)
H3 H -0.29340 -0.24450 0.26200
O18 O -0.1689(4) 0.2494(4) 0.3609(4)
C3 C 0.0124(6) -0.1200(6) 0.3133(5)
H4 H 0.01980 -0.19040 0.28830
O19 O -0.1333(4) -0.2801(4) 0.4154(4)
N3 N -0.4579(7) -0.5845(7) 0.2930(7)
H5 H -0.45090 -0.63720 0.31510
C4 C -0.0808(6) -0.1176(6) 0.3575(5)
O20 O -0.0397(5) 0.3708(5) 0.5788(4)
C5 C -0.0871(5) -0.0121(6) 0.3937(5)
C6 C -0.1774(6) 0.0034(6) 0.4513(5)
C7 C -0.1675(6) -0.2340(6) 0.3608(5)
C8 C -0.3721(6) -0.3955(6) 0.2796(5)
C9 C -0.3592(6) -0.4809(6) 0.3130(6)
H6 H -0.28380 -0.46770 0.34890
C10 C -0.5689(7) -0.6053(7) 0.2373(6)
H7 H -0.63630 -0.67650 0.22290
C11 C -0.5786(5) -0.5237(5) 0.2049(5)
H8 H -0.65380 -0.53850 0.16720
C12 C -0.4856(6) -0.4214(6) 0.2238(5)
H9 H -0.49650 -0.36600 0.19920
Al2 Al 0.50000 1.00000 1.50000
Mo4 Mo 0.39649(5) 0.71790(5) 1.46950(5)
Mo5 Mo 0.54711(6) 0.91997(6) 1.69491(5)
O21 O 0.1838(4) 0.7001(4) 1.2547(4)
Mo6 Mo 0.33359(5) 0.79430(5) 1.27768(5)
O22 O 0.3664(5) 0.7521(5) 1.1660(4)
O23 O 0.4838(4) 1.0403(4) 1.6347(4)
O24 O 0.3488(4) 0.8654(4) 1.4449(4)
O25 O 0.5597(4) 0.8971(4) 1.5337(3)
O26 O 0.6865(4) 1.0691(4) 1.7244(4)
O27 O 0.4994(5) 0.9518(5) 1.7995(4)
O28 O 0.6284(5) 0.8440(5) 1.7128(5)
O29 O 0.3955(4) 0.7943(4) 1.6057(4)
O30 O 0.2497(4) 0.6142(4) 1.4343(4)
O31 O 0.4813(5) 0.6438(4) 1.4885(5)
O32 O 0.4170(4) 0.7235(4) 1.3419(4)
Mo1A Mo 0.17260(5) 0.59159(5) 0.85426(5)
Mo2A Mo 0.20404(5) 0.39962(5) 0.95059(5)
Mo3A Mo -0.03699(6) 0.68537(5) 0.89741(5)
O2A O -0.0153(5) 0.8271(4) 0.9586(5)
O4A O -0.0804(5) 0.6602(6) 0.7743(4)
O5A O -0.0047(4) 0.6486(4) 1.0455(3)
O6A O 0.1749(5) 0.2540(4) 0.8947(4)
O7A O 0.1931(4) 0.4014(4) 1.0843(4)
O8A O 0.3557(5) 0.4758(5) 0.9820(4)
O9A O 0.1692(4) 0.5653(4) 1.0068(3)
O10A O 0.1299(4) 0.5739(4) 0.7313(4)
O11A O 0.1565(4) 0.4343(4) 0.8364(3)
O12A O 0.1317(4) 0.7179(4) 0.9150(4)
O13A O -0.0232(4) 0.5120(4) 0.8718(3)
O14A O 0.3244(4) 0.6697(4) 0.8913(4)
O1A O -0.1780(6) -0.0648(6) 0.9093(5)
O3A O 0.0726(5) 0.0224(5) 0.8844(4)
Co1* Co 0.00000 1.00000 1.00000
O2A* O -0.0153(5) -0.1729(4) 0.9586(5)
Co2A Co 0.02523(8) -0.24405(8) 0.53071(7)
N1A N 0.0086(5) -0.0888(4) 0.6119(4)
O15A O 0.1689(4) -0.1084(4) 0.5150(4)
C1A C -0.0783(6) -0.0862(6) 0.6558(5)
H1A H -0.13080 -0.15520 0.66220
C2A C -0.0926(6) 0.0177(7) 0.6927(6)
H2A H -0.15590 0.01730 0.72100
O16A O -0.0976(4) -0.3554(4) 0.5785(4)
O17A O 0.2492(4) 0.0840(4) 0.5362(4)
N2A N 0.2784(5) 0.2844(5) 0.7037(4)
H3A H 0.29340 0.24450 0.73800
O18A O 0.1689(4) -0.2494(4) 0.6391(4)
C3A C -0.0124(6) 0.1200(6) 0.6867(5)
H4A H -0.01980 0.19040 0.71170
O19A O 0.1333(4) 0.2801(4) 0.5846(4)
N3A N 0.4579(7) 0.5845(7) 0.7070(7)
H5A H 0.45090 0.63720 0.68490
C4A C 0.0808(6) 0.1176(6) 0.6425(5)
O20A O 0.0397(5) -0.3708(5) 0.4212(4)
C5A C 0.0871(5) 0.0121(6) 0.6063(5)
C6A C 0.1774(6) -0.0034(6) 0.5487(5)
C7A C 0.1675(6) 0.2340(6) 0.6392(5)
C8A C 0.3721(6) 0.3955(6) 0.7204(5)
C9A C 0.3592(6) 0.4809(6) 0.6870(6)
H6A H 0.28380 0.46770 0.65110
C10A C 0.5689(7) 0.6053(7) 0.7627(6)
H7A H 0.63630 0.67650 0.77710
C11A C 0.5786(5) 0.5237(5) 0.7951(5)
H8A H 0.65380 0.53850 0.83280
C12A C 0.4856(6) 0.4214(6) 0.7762(5)
H9A H 0.49650 0.36600 0.80080
Mo4A Mo 0.60351(5) 1.28210(5) 1.53050(5)
Mo5A Mo 0.45289(6) 1.08003(6) 1.30509(5)
O21A O 0.8162(4) 1.2999(4) 1.7453(4)
Mo6A Mo 0.66641(5) 1.20570(5) 1.72232(5)
O22A O 0.6336(5) 1.2479(5) 1.8340(4)
O23A O 0.5162(4) 0.9597(4) 1.3653(4)
O24A O 0.6512(4) 1.1346(4) 1.5551(4)
O25A O 0.4403(4) 1.1029(4) 1.4663(3)
O26A O 0.3135(4) 0.9309(4) 1.2756(4)
O27A O 0.5006(5) 1.0482(5) 1.2005(4)
O28A O 0.3716(5) 1.1560(5) 1.2872(5)
O29A O 0.6045(4) 1.2057(4) 1.3943(4)
O30A O 0.7503(4) 1.3858(4) 1.5657(4)
O31A O 0.5187(5) 1.3562(4) 1.5115(5)
O32A O 0.5830(4) 1.2765(4) 1.6581(4)
#END
