
#######################################################################
#
#                 Cambridge Crystallographic Data Centre
#                                CCDC
#
#######################################################################
#
# If this CIF has been generated from an entry in the Cambridge
# Structural Database, then it will include bibliographic, chemical,
# crystal, experimental, refinement or atomic coordinate data resulting
# from the CCDC's data processing and validation procedures.
#
#######################################################################

data_CSD_CIF_JUDGIA
_audit_creation_date 2015-03-18
_audit_creation_method CSD-ConQuest-V1
_database_code_CSD JUDGIA
_database_code_depnum_ccdc_archive 'CCDC 1054862'
_chemical_formula_sum 'C14 H30 Fe1 N1 O22 Th1'
_chemical_formula_moiety
;
(C12 H14 Fe1 O17 Th1 1-)n,0.5n(C4 H12 N2 2+),5n(H2 O1)
;
_journal_coden_Cambridge 9
_journal_volume 54
_journal_year 2015
_journal_page_first 1395
_journal_name_full 'Inorg.Chem. '
loop_
_publ_author_name
"D.K.Unruh"
"Joshua de Groot"
"M.Fairley"
"Anna Libo"
"S.Miller"
"T.Z.Forbes"
_chemical_name_systematic
;
catena-(hemikis(Piperazinedi-ium) 
(\m~3~-citrato)-(\m~3~-hydroxo)-(\m~2~-hydrogen citrato)-diaqua-iron-thorium 
pentahydrate)
;
_cell_volume   1276.562
_exptl_crystal_colour 'yellow'
_exptl_crystal_density_diffrn 2.188
_exptl_crystal_description 'prism'
_diffrn_ambient_temperature 100
#These two values have been output from a single CSD field.
_refine_ls_R_factor_gt 0.0214
_refine_ls_wR_factor_gt 0.0214
_symmetry_cell_setting triclinic
_symmetry_space_group_name_H-M 'P -1'
_symmetry_Int_Tables_number 2
loop_
_symmetry_equiv_pos_site_id
_symmetry_equiv_pos_as_xyz
1 x,y,z
2 -x,-y,-z
_cell_length_a 9.8450(6)
_cell_length_b 11.0807(7)
_cell_length_c 12.7574(8)
_cell_angle_alpha 67.288(2)
_cell_angle_beta 89.853(2)
_cell_angle_gamma 84.338(2)
_cell_formula_units_Z 2
loop_
_atom_type_symbol
_atom_type_radius_bond
C 0.68
H 0.23
Fe 1.52
N 0.68
O 0.68
Th 2.06
loop_
_atom_site_label
_atom_site_type_symbol
_atom_site_fract_x
_atom_site_fract_y
_atom_site_fract_z
Th1 Th 0.71789(2) 0.13441(2) 0.33970(2)
Fe1 Fe 0.92639(4) -0.12589(4) 0.57092(4)
O1 O 0.8027(2) -0.0937(2) 0.44108(18)
O2 O 1.0411(2) -0.1367(2) 0.70294(18)
O3 O 1.1085(2) -0.0809(2) 0.49522(17)
O4 O 0.7241(3) -0.0022(2) 0.22875(19)
O5 O 0.3972(2) -0.1533(2) 0.5016(2)
O6 O 0.7808(2) -0.1506(2) 0.6843(2)
O7 O 1.2583(3) -0.2814(2) 0.8546(2)
O8 O 0.5274(2) -0.0079(2) 0.3888(2)
O9 O 0.9527(2) -0.3154(2) 0.6016(2)
O10 O 0.8893(3) -0.4977(2) 0.5958(2)
O11 O 0.4934(3) 0.2437(3) 0.2507(3)
H1 H 0.473(5) 0.331(2) 0.197(3)
H2 H 0.419(3) 0.198(4) 0.283(4)
O12 O 0.7333(3) 0.3549(3) 0.3371(3)
H3 H 0.721(6) 0.378(5) 0.401(3)
H4 H 0.749(5) 0.431(3) 0.275(3)
O13 O 0.6623(3) -0.1917(3) 0.2336(2)
O14 O 0.7417(3) -0.1809(3) 0.8632(3)
O15 O 0.8846(3) 0.1054(3) 0.7246(2)
O16 O 1.0113(4) 0.1237(3) 0.8631(2)
H5 H 0.97690 0.20240 0.83450
O17 O 1.1983(3) -0.4056(4) 1.0263(2)
C1 C 0.9751(3) -0.1749(3) 0.8076(3)
C2 C 0.7493(3) -0.1884(3) 0.4080(3)
C3 C 0.7092(3) -0.1235(3) 0.2794(3)
C4 C 0.5082(3) -0.1227(3) 0.4536(3)
C5 C 0.9015(3) -0.3786(3) 0.5489(3)
C6 C 0.8201(3) -0.1671(4) 0.7850(3)
C7 C 0.8569(3) -0.3052(3) 0.4253(3)
H6 H 0.81870 -0.36640 0.39650
H7 H 0.93750 -0.27280 0.38050
C8 C 0.6214(3) -0.2338(3) 0.4756(3)
H8 H 0.58680 -0.30300 0.45490
H9 H 0.64700 -0.27310 0.55780
C9 C 1.0228(4) -0.3193(3) 0.8819(3)
H10 H 0.96360 -0.35000 0.94790
H11 H 1.01320 -0.37400 0.83720
C10 C 1.0015(4) -0.0881(3) 0.8718(3)
H12 H 0.95330 -0.11980 0.94420
H13 H 1.10050 -0.10000 0.89130
C11 C 1.1704(4) -0.3371(3) 0.9242(3)
C12 C 0.9585(4) 0.0566(4) 0.8105(3)
N1 N 0.6198(5) -0.0842(7) 1.0050(4)
H14 H 0.64530 -0.11320 1.07990
H15 H 0.68090 -0.12390 0.97150
C13 C 0.6240(5) 0.0556(6) 0.9532(4)
H16 H 0.60310 0.08700 0.87050
H17 H 0.71670 0.07730 0.96400
C14 C 0.4788(5) -0.1238(6) 0.9943(4)
H18 H 0.45310 -0.09890 0.91310
H19 H 0.47940 -0.22040 1.03340
O18 O 0.9668(4) 0.3718(3) 0.8136(2)
O19 O 0.7603(6) 0.5859(4) 0.1540(6)
O20 O 0.5536(5) 0.5042(5) -0.1162(7)
O21 O 0.6873(9) 0.3969(9) 0.5314(7)
O22 O 0.4803(9) -0.3862(10) 0.2878(10)
Th1A Th 0.28211(2) -0.13441(2) 0.66030(2)
Th1A* Th 1.28211(2) -0.13441(2) 0.66030(2)
Fe1A Fe 1.07361(4) 0.12589(4) 0.42908(4)
O2A O 0.9589(2) 0.1367(2) 0.29706(18)
O3A O 0.8915(2) 0.0809(2) 0.50478(17)
O5A O 0.6028(2) 0.1533(2) 0.4984(2)
O7A O 0.7417(3) 0.2814(2) 0.1454(2)
N1A N 0.3802(5) 0.0842(7) 0.9950(4)
H14A H 0.35470 0.11320 0.92010
H15A H 0.31910 0.12390 1.02850
C13A C 0.3760(5) -0.0556(6) 1.0468(4)
H16A H 0.39690 -0.08700 1.12950
H17A H 0.28330 -0.07730 1.03600
C14A C 0.5212(5) 0.1238(6) 1.0057(4)
H18A H 0.54690 0.09890 1.08690
H19A H 0.52060 0.22040 0.96660
#END
