
#######################################################################
#
#                 Cambridge Crystallographic Data Centre
#                                CCDC
#
#######################################################################
#
# If this CIF has been generated from an entry in the Cambridge
# Structural Database, then it will include bibliographic, chemical,
# crystal, experimental, refinement or atomic coordinate data resulting
# from the CCDC's data processing and validation procedures.
#
#######################################################################

data_CSD_CIF_JUFYIU
_audit_creation_date 2015-03-19
_audit_creation_method CSD-ConQuest-V1
_database_code_CSD JUFYIU
_database_code_depnum_ccdc_archive 'CCDC 1044123'
_chemical_formula_sum 'C20 H46 Cu3 N12 O18'
_chemical_formula_moiety
;
(C20 H38 Cu3 N10 O18 2-)n,2(H4 N1 1+)
;
_journal_coden_Cambridge 1350
_journal_volume 17
_journal_year 2015
_journal_page_first 2857
_journal_name_full 'CrystEngComm '
loop_
_publ_author_name
"W.Clegg"
"J.M.Holcroft"
"N.C.Martin"
_chemical_name_systematic
;
catena-[diammonium 
bis(\m-benzene-1,2,4,5-tetracarboxylate)-bis(\m-aqua)-nonakis(ammine)-tri-copp
er]
;
_cell_volume   1733.892
_exptl_crystal_colour 'blue'
_exptl_crystal_density_diffrn 1.788
_exptl_crystal_description 'Block'
_diffrn_ambient_temperature 160
#These two values have been output from a single CSD field.
_refine_ls_R_factor_gt 0.0451
_refine_ls_wR_factor_gt 0.0451
_symmetry_cell_setting monoclinic
_symmetry_space_group_name_H-M 'P 21/c'
_symmetry_Int_Tables_number 14
loop_
_symmetry_equiv_pos_site_id
_symmetry_equiv_pos_as_xyz
1 x,y,z
2 -x,1/2+y,1/2-z
3 -x,-y,-z
4 x,-1/2-y,-1/2+z
_cell_length_a 8.2343(7)
_cell_length_b 19.5788(16)
_cell_length_c 10.9336(9)
_cell_angle_alpha 90
_cell_angle_beta 100.371(2)
_cell_angle_gamma 90
_cell_formula_units_Z 2
loop_
_atom_type_symbol
_atom_type_radius_bond
C 0.68
H 0.23
Cu 1.32
N 0.68
O 0.68
loop_
_atom_site_label
_atom_site_type_symbol
_atom_site_fract_x
_atom_site_fract_y
_atom_site_fract_z
Cu1 Cu 0.83314(5) 0.45250(2) 0.89782(4)
Cu2 Cu 0.50000 0.50000 0.50000
C1 C 0.8395(4) 0.66351(16) 1.0096(3)
C2 C 0.7750(4) 0.68894(16) 1.1110(3)
C3 C 0.8240(4) 0.75331(17) 1.1570(3)
H1 H 0.77580 0.77200 1.22230
C4 C 0.9423(4) 0.79108(16) 1.1097(3)
C5 C 1.0156(4) 0.76329(16) 1.0157(3)
C6 C 0.9604(4) 0.70035(16) 0.9644(3)
H2 H 1.00620 0.68240 0.89740
C7 C 0.7812(4) 0.59822(17) 0.9446(3)
C8 C 0.6659(4) 0.64542(17) 1.1778(3)
C9 C 0.9959(4) 0.86051(16) 1.1651(3)
C10 C 1.1592(4) 0.79754(17) 0.9718(3)
O1 O 0.6383(3) 0.59621(12) 0.8820(2)
O2 O 0.8864(3) 0.55000(11) 0.9523(2)
O3 O 0.5903(3) 0.67395(12) 1.2537(2)
O4 O 0.6609(3) 0.58208(12) 1.1559(2)
O5 O 0.8844(3) 0.90389(12) 1.1621(2)
O6 O 1.1460(3) 0.86896(12) 1.2108(2)
O7 O 1.1364(3) 0.85293(13) 0.9162(2)
O8 O 1.2942(3) 0.76500(14) 0.9959(3)
N1 N 0.7057(4) 0.44458(17) 1.0385(3)
H3 H 0.761(5) 0.422(2) 1.101(4)
H4 H 0.687(5) 0.485(2) 1.068(4)
H5 H 0.620(6) 0.427(2) 1.020(4)
N2 N 0.7626(4) 0.35864(16) 0.8355(3)
H6 H 0.669(6) 0.361(2) 0.796(4)
H7 H 0.753(5) 0.325(2) 0.897(4)
H8 H 0.814(5) 0.342(2) 0.783(4)
N3 N 0.9735(4) 0.46379(15) 0.7697(3)
H9 H 0.944(5) 0.434(2) 0.711(4)
H10 H 0.959(5) 0.506(2) 0.747(4)
H11 H 1.070(6) 0.454(2) 0.803(4)
N4 N 0.7369(4) 0.48656(18) 0.4760(3)
H12 H 0.769(6) 0.447(3) 0.499(4)
H13 H 0.803(6) 0.519(2) 0.513(4)
H14 H 0.749(6) 0.489(2) 0.405(5)
N5 N 0.5438(4) 0.60261(17) 0.5061(3)
H15 H 0.460(6) 0.621(2) 0.523(4)
H16 H 0.621(6) 0.611(2) 0.560(4)
H17 H 0.572(5) 0.617(2) 0.436(4)
O9 O 0.5715(3) 0.48664(14) 0.7313(2)
H18 H 0.507(6) 0.464(2) 0.754(4)
H19 H 0.584(6) 0.524(2) 0.763(4)
N6 N 0.4291(4) 0.79176(17) 1.3051(3)
H20 H 0.503(6) 0.824(2) 1.331(4)
H21 H 0.397(5) 0.772(2) 1.375(4)
H22 H 0.471(6) 0.761(2) 1.277(4)
H23 H 0.346(6) 0.807(2) 1.261(4)
Cu1B Cu 0.16686(5) 0.54750(2) 0.10218(4)
C1B C 0.1605(4) 0.33649(16) -0.0096(3)
C2B C 0.2250(4) 0.31106(16) -0.1110(3)
C3B C 0.1760(4) 0.24669(17) -0.1570(3)
H1B H 0.22420 0.22800 -0.22230
C4B C 0.0577(4) 0.20892(16) -0.1097(3)
C5B C -0.0156(4) 0.23671(16) -0.0157(3)
C6B C 0.0396(4) 0.29965(16) 0.0356(3)
H2B H -0.00620 0.31760 0.10260
C7B C 0.2188(4) 0.40178(17) 0.0554(3)
C8B C 0.3341(4) 0.35458(17) -0.1778(3)
C9B C 0.0041(4) 0.13949(16) -0.1651(3)
C10B C -0.1592(4) 0.20246(17) 0.0282(3)
O1B O 0.3617(3) 0.40379(12) 0.1180(2)
O2B O 0.1136(3) 0.45000(11) 0.0477(2)
O3B O 0.4097(3) 0.32605(12) -0.2537(2)
O4B O 0.3391(3) 0.41792(12) -0.1559(2)
O5B O 0.1156(3) 0.09611(12) -0.1621(2)
O6B O -0.1460(3) 0.13104(12) -0.2108(2)
O7B O -0.1364(3) 0.14707(13) 0.0838(2)
O8B O -0.2942(3) 0.23500(14) 0.0041(3)
N1B N 0.2943(4) 0.55542(17) -0.0385(3)
H3B H 0.239(5) 0.578(2) -0.101(4)
H4B H 0.313(5) 0.515(2) -0.068(4)
H5B H 0.380(6) 0.573(2) -0.020(4)
N2B N 0.2374(4) 0.64136(16) 0.1645(3)
H6B H 0.331(6) 0.639(2) 0.204(4)
H7B H 0.247(5) 0.675(2) 0.103(4)
H8B H 0.186(5) 0.658(2) 0.217(4)
N3B N 0.0265(4) 0.53621(15) 0.2303(3)
H9B H 0.056(5) 0.566(2) 0.289(4)
H10B H 0.041(5) 0.494(2) 0.253(4)
H11B H -0.070(6) 0.546(2) 0.197(4)
N4B N 0.2631(4) 0.51344(18) 0.5240(3)
H12B H 0.231(6) 0.553(3) 0.501(4)
H13B H 0.197(6) 0.481(2) 0.487(4)
H14B H 0.251(6) 0.511(2) 0.595(5)
N5B N 0.4562(4) 0.39739(17) 0.4939(3)
H15B H 0.540(6) 0.379(2) 0.477(4)
H16B H 0.379(6) 0.389(2) 0.440(4)
H17B H 0.428(5) 0.383(2) 0.564(4)
O9B O 0.4285(3) 0.51336(14) 0.2687(2)
H18B H 0.493(6) 0.536(2) 0.246(4)
H19B H 0.416(6) 0.476(2) 0.237(4)
Cu1* Cu -0.16686(5) 0.45250(2) -0.10218(4)
Cu1B* Cu 1.16686(5) 0.54750(2) 1.10218(4)
O2* O -0.1136(3) 0.55000(11) -0.0477(2)
O2B* O 1.1136(3) 0.45000(11) 1.0477(2)
#END
