
#######################################################################
#
#                 Cambridge Crystallographic Data Centre
#                                CCDC
#
#######################################################################
#
# If this CIF has been generated from an entry in the Cambridge
# Structural Database, then it will include bibliographic, chemical,
# crystal, experimental, refinement or atomic coordinate data resulting
# from the CCDC's data processing and validation procedures.
#
#######################################################################

data_CSD_CIF_JUGVEP
_audit_creation_date 2020-01-08
_audit_creation_method CSD-ConQuest-V1
_database_code_CSD JUGVEP
_database_code_depnum_ccdc_archive 'CCDC 1913163'
_chemical_formula_sum 'C8 H10 La2 N4 O16'
_chemical_formula_moiety
;
(C8 La2 O16 2-)n,2(H5 N2 1+)
;
_journal_coden_Cambridge 9
_journal_volume 59
_journal_year 2020
_journal_page_first 491
_journal_name_full 'Inorg.Chem. '
loop_
_publ_author_name
"M.Ellart"
"F.Blanchard"
"M.Rivenet"
"F.Abraham"
_chemical_name_systematic
;
catena-(bis(hydrazinium) tetrakis(\m-oxalato)-di-lanthanum)
;
_cell_volume    841.691
_exptl_crystal_colour 'colorless'
_exptl_crystal_density_diffrn 2.746
_exptl_crystal_description 'block'
_diffrn_ambient_temperature 293
#These two values have been output from a single CSD field.
_refine_ls_R_factor_gt 0.015
_refine_ls_wR_factor_gt 0.015
_symmetry_cell_setting monoclinic
_symmetry_space_group_name_H-M 'P 21/c'
_symmetry_Int_Tables_number 14
loop_
_symmetry_equiv_pos_site_id
_symmetry_equiv_pos_as_xyz
1 x,y,z
2 -x,1/2+y,1/2-z
3 -x,-y,-z
4 x,-1/2-y,-1/2+z
_cell_length_a 6.0553(1)
_cell_length_b 15.6165(3)
_cell_length_c 8.9388(2)
_cell_angle_alpha 90
_cell_angle_beta 95.279(1)
_cell_angle_gamma 90
_cell_formula_units_Z 2
loop_
_atom_type_symbol
_atom_type_radius_bond
C 0.68
H 0.23
La 2.07
N 0.68
O 0.68
loop_
_atom_site_label
_atom_site_type_symbol
_atom_site_fract_x
_atom_site_fract_y
_atom_site_fract_z
La1 La 0.06350(2) 0.40327(2) 0.32693(2)
O1 O 0.48256(18) 0.42859(7) 0.34997(12)
O2 O 0.78186(16) 0.47856(7) 0.48620(11)
O3 O 0.20906(19) 0.43120(8) 0.07247(12)
O4 O 0.15907(19) 0.49228(7) -0.15319(12)
O5 O -0.15950(18) 0.31633(7) 0.12111(12)
O6 O -0.15092(18) 0.21306(7) -0.05015(12)
O7 O 0.22988(19) 0.26118(7) 0.25459(12)
O8 O 0.2449(2) 0.16222(7) 0.07540(12)
C1 C 0.5741(2) 0.47297(9) 0.45176(15)
C2 C 0.1056(2) 0.47796(9) -0.02311(16)
C3 C -0.0712(2) 0.25348(9) 0.06239(15)
C4 C 0.1552(2) 0.22286(9) 0.13667(16)
N1 N 0.5183(3) 0.36538(12) 0.88493(19)
H1 H 0.422(4) 0.3166(16) 0.871(3)
H2 H 0.581(4) 0.3532(15) 0.978(3)
H3 H 0.440(4) 0.4170(15) 0.875(3)
N2 N 0.6774(3) 0.36561(13) 0.7764(2)
H4 H 0.586(5) 0.3579(17) 0.680(3)
H5 H 0.755(4) 0.3142(17) 0.805(3)
O1B O 0.51744(18) 0.57141(7) 0.65003(12)
C1B C 0.4259(2) 0.52703(9) 0.54824(15)
O2B O 0.21814(16) 0.52144(7) 0.51380(11)
O3B O -0.20906(19) 0.56880(8) -0.07247(12)
C2B C -0.1056(2) 0.52204(9) 0.02311(16)
O4B O -0.15907(19) 0.50772(7) 0.15319(12)
La1B La -0.06350(2) 0.59673(2) -0.32693(2)
O5B O 0.15950(18) 0.68367(7) -0.12111(12)
O6B O 0.15092(18) 0.78694(7) 0.05015(12)
O7B O -0.22988(19) 0.73882(7) -0.25459(12)
O8B O -0.2449(2) 0.83778(7) -0.07540(12)
C3B C 0.0712(2) 0.74652(9) -0.06239(15)
C4B C -0.1552(2) 0.77714(9) -0.13667(16)
La1* La 1.06350(2) 0.40327(2) 0.32693(2)
La1A La -0.06350(2) 0.90327(2) 0.17307(2)
La1B* La -0.06350(2) 0.59673(2) 0.67307(2)
La1B** La 0.93650(2) 0.59673(2) 0.67307(2)
La1C La 0.06350(2) 0.09673(2) -0.17307(2)
O1B* O -0.48256(18) 0.57141(7) -0.34997(12)
O2* O -0.21814(16) 0.47856(7) -0.51380(11)
O2** O -0.21814(16) 0.47856(7) 0.48620(11)
O2B* O 0.21814(16) 0.52144(7) -0.48620(11)
O6A O 0.15092(18) 0.71306(7) -0.44985(12)
O6C O -0.15092(18) 0.28694(7) 0.44985(12)
O8A O -0.2449(2) 0.66222(7) -0.57540(12)
O8C O 0.2449(2) 0.33778(7) 0.57540(12)
#END
