
#######################################################################
#
#                 Cambridge Crystallographic Data Centre
#                                CCDC
#
#######################################################################
#
# If this CIF has been generated from an entry in the Cambridge
# Structural Database, then it will include bibliographic, chemical,
# crystal, experimental, refinement or atomic coordinate data resulting
# from the CCDC's data processing and validation procedures.
#
#######################################################################

data_CSD_CIF_JUGWAM
_audit_creation_date 2020-01-08
_audit_creation_method CSD-ConQuest-V1
_database_code_CSD JUGWAM
_database_code_depnum_ccdc_archive 'CCDC 1913168'
_chemical_formula_sum 'C4 H9 Lu1 N2 O10'
_chemical_formula_moiety
;
(C4 Lu1 O8 1-)n,2n(H2 O1),n(H5 N2 1+)
;
_journal_coden_Cambridge 9
_journal_volume 59
_journal_year 2020
_journal_page_first 491
_journal_name_full 'Inorg.Chem. '
loop_
_publ_author_name
"M.Ellart"
"F.Blanchard"
"M.Rivenet"
"F.Abraham"
_chemical_name_systematic
;
catena-(hydrazinium bis(\m-oxalato)-lutetium dihydrate)
;
_cell_volume   4599.294
_exptl_crystal_colour 'colorless'
_exptl_crystal_description 'block'
_diffrn_ambient_temperature 293
_refine_special_details
;
The cation was taken into account using PLATON/SQUEEZE.

;
#These two values have been output from a single CSD field.
_refine_ls_R_factor_gt 0.0351
_refine_ls_wR_factor_gt 0.0351
_symmetry_cell_setting orthorhombic
_symmetry_space_group_name_H-M 'F d d d'
_symmetry_Int_Tables_number 70
loop_
_symmetry_equiv_pos_site_id
_symmetry_equiv_pos_as_xyz
1 x,y,z
2 3/4-x,3/4-y,z
3 3/4-x,y,3/4-z
4 x,3/4-y,3/4-z
5 x,1/2+y,1/2+z
6 3/4-x,1/4-y,1/2+z
7 3/4-x,1/2+y,1/4-z
8 x,1/4-y,1/4-z
9 1/2+x,y,1/2+z
10 1/4-x,3/4-y,1/2+z
11 1/4-x,y,1/4-z
12 1/2+x,3/4-y,1/4-z
13 1/2+x,1/2+y,z
14 1/4-x,1/4-y,z
15 1/4-x,1/2+y,3/4-z
16 1/2+x,1/4-y,3/4-z
17 -x,-y,-z
18 -3/4+x,-3/4+y,-z
19 -3/4+x,-y,-3/4+z
20 -x,-3/4+y,-3/4+z
21 -x,-1/2-y,-1/2-z
22 -3/4+x,-1/4+y,-1/2-z
23 -3/4+x,-1/2-y,-1/4+z
24 -x,-1/4+y,-1/4+z
25 -1/2-x,-y,-1/2-z
26 -1/4+x,-3/4+y,-1/2-z
27 -1/4+x,-y,-1/4+z
28 -1/2-x,-3/4+y,-1/4+z
29 -1/2-x,-1/2-y,-z
30 -1/4+x,-1/4+y,-z
31 -1/4+x,-1/2-y,-3/4+z
32 -1/2-x,-1/4+y,-3/4+z
_cell_length_a 9.1768(4)
_cell_length_b 15.5835(6)
_cell_length_c 32.1614(14)
_cell_angle_alpha 90
_cell_angle_beta 90
_cell_angle_gamma 90
_cell_formula_units_Z 16
loop_
_atom_type_symbol
_atom_type_radius_bond
C 0.68
Lu 1.87
O 0.68
loop_
_atom_site_label
_atom_site_type_symbol
_atom_site_fract_x
_atom_site_fract_y
_atom_site_fract_z
Lu1 Lu 0.12500 0.62500 0.43695(2)
O1 O 0.2832(6) 0.7156(4) 0.39754(17)
O2 O 0.2860(6) 0.5455(3) 0.39868(17)
O3 O -0.0560(7) 0.6023(4) 0.48503(18)
O4 O -0.1538(6) 0.5083(4) 0.53086(16)
C1 C 0.37500 0.6808(7) 0.37500
C2 C 0.37500 0.5829(7) 0.37500
C3 C -0.0620(8) 0.5322(5) 0.5050(2)
O5 O 0.87500 0.37500 0.4342(14)
O6 O 0.62500 0.62500 0.5652(8)
O7 O 0.62500 0.62500 0.4366(8)
O8 O 0.637(3) 0.37500 0.37500
O1B O 0.4668(6) 0.7156(4) 0.35246(17)
O2B O 0.4640(6) 0.5455(3) 0.35132(17)
O3P O 0.0560(7) 0.3977(4) 0.51497(18)
C3P C 0.0620(8) 0.4678(5) 0.4950(2)
O4P O 0.1538(6) 0.4917(4) 0.46914(16)
Lu1B Lu 0.62500 0.62500 0.31305(2)
Lu1P Lu -0.12500 0.37500 0.56305(2)
O1M O -0.0332(6) 0.5344(4) 0.39754(17)
O2M O -0.0360(6) 0.7045(3) 0.39868(17)
O3M O 0.3060(7) 0.6477(4) 0.48503(18)
O4Q O 0.0962(6) 0.7583(4) 0.46914(16)
#END
