
#######################################################################
#
#                 Cambridge Crystallographic Data Centre
#                                CCDC
#
#######################################################################
#
# If this CIF has been generated from an entry in the Cambridge
# Structural Database, then it will include bibliographic, chemical,
# crystal, experimental, refinement or atomic coordinate data resulting
# from the CCDC's data processing and validation procedures.
#
#######################################################################

data_CSD_CIF_JUGYUI
_audit_creation_date 2020-01-08
_audit_creation_method CSD-ConQuest-V1
_database_code_CSD JUGYUI
_database_code_depnum_ccdc_archive 'CCDC 1913165'
_chemical_formula_sum 'C8 H14 Ho2 N4 O18'
_chemical_formula_moiety
;
(C8 H4 Ho2 O18 2-)n,2(H5 N2 1+)
;
_journal_coden_Cambridge 9
_journal_volume 59
_journal_year 2020
_journal_page_first 491
_journal_name_full 'Inorg.Chem. '
loop_
_publ_author_name
"M.Ellart"
"F.Blanchard"
"M.Rivenet"
"F.Abraham"
_chemical_name_systematic
;
catena-[bis(hydrazin-1-ium) tetrakis(\m-oxalato)-diaqua-di-holmium(iii)]
;
_cell_volume   1878.317
_exptl_crystal_density_diffrn 2.773
_exptl_crystal_description 'block'
_diffrn_ambient_temperature 293
#These two values have been output from a single CSD field.
_refine_ls_R_factor_gt 0.0232
_refine_ls_wR_factor_gt 0.0232
_symmetry_cell_setting orthorhombic
_symmetry_space_group_name_H-M 'P b c a'
_symmetry_Int_Tables_number 61
loop_
_symmetry_equiv_pos_site_id
_symmetry_equiv_pos_as_xyz
1 x,y,z
2 1/2-x,-y,1/2+z
3 -x,1/2+y,1/2-z
4 1/2+x,1/2-y,-z
5 -x,-y,-z
6 -1/2+x,y,-1/2-z
7 x,-1/2-y,-1/2+z
8 -1/2-x,-1/2+y,z
_cell_length_a 12.5556(5)
_cell_length_b 11.8848(6)
_cell_length_c 12.5875(5)
_cell_angle_alpha 90
_cell_angle_beta 90
_cell_angle_gamma 90
_cell_formula_units_Z 4
loop_
_atom_type_symbol
_atom_type_radius_bond
C 0.68
H 0.23
Ho 1.92
N 0.68
O 0.68
loop_
_atom_site_label
_atom_site_type_symbol
_atom_site_fract_x
_atom_site_fract_y
_atom_site_fract_z
Ho1 Ho 0.43596(2) 0.24869(2) 0.51194(2)
C1 C 0.4439(3) -0.0147(3) 0.4775(3)
C2 C 0.4010(3) 0.2941(3) 0.2626(3)
C3 C 0.4939(3) 0.2104(3) 0.2608(3)
C4 C 0.4457(3) 0.5171(3) 0.5245(3)
O1 O 0.4308(2) -0.1140(2) 0.44452(18)
O2 O 0.3758(2) 0.0615(2) 0.47922(19)
O3 O 0.3659(2) 0.3254(2) 0.17338(18)
O4 O 0.3697(2) 0.3295(2) 0.35088(19)
O5 O 0.5297(2) 0.1833(2) 0.17214(19)
O6 O 0.5268(2) 0.1784(2) 0.35047(18)
O7 O 0.4287(2) 0.6200(2) 0.53775(18)
O8 O 0.3837(2) 0.4380(2) 0.54795(19)
O9 O 0.2472(2) 0.2577(3) 0.51283(19)
H1 H 0.216(3) 0.301(3) 0.474(3)
H2 H 0.203(3) 0.210(3) 0.528(3)
N1 N 0.7103(3) 0.0454(3) 0.3145(2)
N2 N 0.7594(3) 0.0844(3) 0.2170(2)
H3 H 0.656(3) 0.090(3) 0.329(3)
H4 H 0.763(3) 0.048(4) 0.361(3)
H5 H 0.686(4) -0.024(2) 0.307(4)
H6 H 0.709(3) 0.109(4) 0.176(3)
H7 H 0.781(4) 0.025(3) 0.182(4)
C1D C 0.5561(3) 0.0147(3) 0.5225(3)
O2D O 0.6242(2) -0.0615(2) 0.52078(19)
O1D O 0.5692(2) 0.1140(2) 0.55548(18)
C4D C 0.5543(3) 0.4829(3) 0.4755(3)
O8D O 0.6163(2) 0.5620(2) 0.45205(19)
O7D O 0.5713(2) 0.3800(2) 0.46225(18)
Ho1D Ho 0.56404(2) -0.24869(2) 0.48806(2)
C2D C 0.5990(3) -0.2941(3) 0.7374(3)
C3D C 0.5061(3) -0.2104(3) 0.7392(3)
O3D O 0.6341(2) -0.3254(2) 0.82662(18)
O4D O 0.6303(2) -0.3295(2) 0.64912(19)
O5D O 0.4703(2) -0.1833(2) 0.82786(19)
O6D O 0.4732(2) -0.1784(2) 0.64953(18)
O9D O 0.7528(2) -0.2577(3) 0.48717(19)
H1D H 0.784(3) -0.301(3) 0.526(3)
H2D H 0.797(3) -0.210(3) 0.472(3)
Ho1B Ho 0.56404(2) -0.25131(2) 0.98806(2)
Ho1D* Ho 0.56404(2) 0.75131(2) 0.48806(2)
Ho1F Ho 0.43596(2) 0.25131(2) 0.01194(2)
O3B O 0.6341(2) -0.1746(2) 0.32662(18)
O3F O 0.3659(2) 0.1746(2) 0.67338(18)
O5B O 0.4703(2) -0.3167(2) 0.32786(19)
O5F O 0.5297(2) 0.3167(2) 0.67214(19)
O7* O 0.4287(2) -0.3800(2) 0.53775(18)
O8D* O 0.6163(2) -0.4380(2) 0.45205(19)
#END
