
#######################################################################
#
#                 Cambridge Crystallographic Data Centre
#                                CCDC
#
#######################################################################
#
# If this CIF has been generated from an entry in the Cambridge
# Structural Database, then it will include bibliographic, chemical,
# crystal, experimental, refinement or atomic coordinate data resulting
# from the CCDC's data processing and validation procedures.
#
#######################################################################

data_CSD_CIF_JUGZAP
_audit_creation_date 2020-01-08
_audit_creation_method CSD-ConQuest-V1
_database_code_CSD JUGZAP
_database_code_depnum_ccdc_archive 'CCDC 1913167'
_chemical_formula_sum 'C4 H11 N2 O11 Yb1'
_chemical_formula_moiety
;
(C4 O8 Yb1 1-)n,3(H2 O1),H5 N2 1+
;
_journal_coden_Cambridge 9
_journal_volume 59
_journal_year 2020
_journal_page_first 491
_journal_name_full 'Inorg.Chem. '
loop_
_publ_author_name
"M.Ellart"
"F.Blanchard"
"M.Rivenet"
"F.Abraham"
_chemical_name_systematic
;
catena-[hydrazin-1-ium bis(\m-oxalato)-ytterbium(iii) trihydrate]
;
_cell_volume   4596.796
_exptl_crystal_colour 'colorless'
_exptl_special_details
;
The hydrazin-1-ium cation is not located

;
_exptl_crystal_description 'block'
_diffrn_ambient_temperature 293
#These two values have been output from a single CSD field.
_refine_ls_R_factor_gt 0.0377
_refine_ls_wR_factor_gt 0.0377
_symmetry_cell_setting orthorhombic
_symmetry_space_group_name_H-M 'F d d d'
_symmetry_Int_Tables_number 70
loop_
_symmetry_equiv_pos_site_id
_symmetry_equiv_pos_as_xyz
1 x,y,z
2 3/4-x,3/4-y,z
3 3/4-x,y,3/4-z
4 x,3/4-y,3/4-z
5 x,1/2+y,1/2+z
6 3/4-x,1/4-y,1/2+z
7 3/4-x,1/2+y,1/4-z
8 x,1/4-y,1/4-z
9 1/2+x,y,1/2+z
10 1/4-x,3/4-y,1/2+z
11 1/4-x,y,1/4-z
12 1/2+x,3/4-y,1/4-z
13 1/2+x,1/2+y,z
14 1/4-x,1/4-y,z
15 1/4-x,1/2+y,3/4-z
16 1/2+x,1/4-y,3/4-z
17 -x,-y,-z
18 -3/4+x,-3/4+y,-z
19 -3/4+x,-y,-3/4+z
20 -x,-3/4+y,-3/4+z
21 -x,-1/2-y,-1/2-z
22 -3/4+x,-1/4+y,-1/2-z
23 -3/4+x,-1/2-y,-1/4+z
24 -x,-1/4+y,-1/4+z
25 -1/2-x,-y,-1/2-z
26 -1/4+x,-3/4+y,-1/2-z
27 -1/4+x,-y,-1/4+z
28 -1/2-x,-3/4+y,-1/4+z
29 -1/2-x,-1/2-y,-z
30 -1/4+x,-1/4+y,-z
31 -1/4+x,-1/2-y,-3/4+z
32 -1/2-x,-1/4+y,-3/4+z
_cell_length_a 9.1317(3)
_cell_length_b 15.5888(6)
_cell_length_c 32.2917(11)
_cell_angle_alpha 90
_cell_angle_beta 90
_cell_angle_gamma 90
_cell_formula_units_Z 16
loop_
_atom_type_symbol
_atom_type_radius_bond
C 0.68
O 0.68
Yb 1.87
loop_
_atom_site_label
_atom_site_type_symbol
_atom_site_fract_x
_atom_site_fract_y
_atom_site_fract_z
Yb1 Yb 0.87500 0.37500 0.56300(2)
C1 C 1.12500 0.4309(8) 0.62500
C2 C 1.12500 0.3307(8) 0.62500
C3 C 0.6859(10) 0.2806(6) 0.4958(3)
O1 O 1.0331(8) 0.4662(4) 0.6022(2)
O2 O 1.0375(8) 0.2956(4) 0.6012(2)
O3 O 0.6911(8) 0.3511(4) 0.5153(2)
O4 O 0.5939(7) 0.2586(5) 0.4696(2)
O5 O 0.87500 0.37500 0.4360(4)
O6 O 0.37500 0.37500 0.4359(4)
O7 O 0.62500 0.62500 0.4357(8)
O8 O 0.629(3) 0.37500 0.37500
O1J O 1.2169(8) 0.4662(4) 0.6478(2)
O2J O 1.2125(8) 0.2956(4) 0.6488(2)
C3BA C 0.8141(10) 0.2194(6) 0.5042(3)
O3BA O 0.8089(8) 0.1489(4) 0.4847(2)
O4BA O 0.9061(7) 0.2414(5) 0.5304(2)
Yb1J Yb 1.37500 0.37500 0.68700(2)
Yb1BA Yb 0.62500 0.12500 0.43700(2)
O1A O 0.7169(8) 0.2838(4) 0.6022(2)
O2A O 0.7125(8) 0.4544(4) 0.6012(2)
O3A O 1.0589(8) 0.3989(4) 0.5153(2)
O4Q O 0.8439(7) 0.5086(5) 0.5304(2)
#END
