
#######################################################################
#
#                 Cambridge Crystallographic Data Centre
#                                CCDC
#
#######################################################################
#
# If this CIF has been generated from an entry in the Cambridge
# Structural Database, then it will include bibliographic, chemical,
# crystal, experimental, refinement or atomic coordinate data resulting
# from the CCDC's data processing and validation procedures.
#
#######################################################################

data_CSD_CIF_JUKJEG
_audit_creation_date 2015-08-12
_audit_creation_method CSD-ConQuest-V1
_database_code_CSD JUKJEG
_database_code_depnum_ccdc_archive 'CCDC 1015329'
_chemical_formula_sum 'C6 H4 K2 O14 Zr1'
_chemical_formula_moiety
;
(C6 O12 Zr1 2-)n,2(H2 O1),2(K1 1+)
;
_journal_coden_Cambridge 1295
_journal_volume 60
_journal_year 2015
_journal_page_first 97
_journal_name_full 'Inorg.Chem.Commun. '
loop_
_publ_author_name
"M.Hamdouni"
"S.Walha"
"A.Van Der Lee"
"A.Kabadou"
_chemical_name_systematic
;
catena-[di-potassium (\m~2~-oxalato)-bis(oxalato)-zirconium dihydrate]
;
_cell_volume   1428.260
_exptl_crystal_colour 'colorless'
_exptl_crystal_density_diffrn 2.183
_exptl_crystal_description 'prism'
_diffrn_ambient_temperature 293
#These two values have been output from a single CSD field.
_refine_ls_R_factor_gt 0.0213
_refine_ls_wR_factor_gt 0.0213
_symmetry_cell_setting monoclinic
_symmetry_space_group_name_H-M 'C 2/c'
_symmetry_Int_Tables_number 15
loop_
_symmetry_equiv_pos_site_id
_symmetry_equiv_pos_as_xyz
1 x,y,z
2 -x,y,1/2-z
3 1/2+x,1/2+y,z
4 1/2-x,1/2+y,1/2-z
5 -x,-y,-z
6 x,-y,-1/2+z
7 -1/2-x,-1/2-y,-z
8 -1/2+x,-1/2-y,-1/2+z
_cell_length_a 14.9335(3)
_cell_length_b 10.5664(2)
_cell_length_c 9.2262(2)
_cell_angle_alpha 90
_cell_angle_beta 101.1690(2)
_cell_angle_gamma 90
_cell_formula_units_Z 4
loop_
_atom_type_symbol
_atom_type_radius_bond
C 0.68
H 0.23
K 2.03
O 0.68
Zr 1.75
loop_
_atom_site_label
_atom_site_type_symbol
_atom_site_fract_x
_atom_site_fract_y
_atom_site_fract_z
Zr1 Zr 0.50000 0.32595(2) 0.25000
O1 O 0.59152(7) 0.42517(11) 0.10894(12)
O2 O 0.58168(8) 0.52961(11) -0.10574(13)
O3 O 0.47868(8) 0.22772(12) 0.03818(13)
O4 O 0.37803(8) 0.22014(12) 0.22957(13)
O5 O 0.27304(10) 0.10006(14) 0.08996(16)
O6 O 0.39053(11) 0.09277(14) -0.11318(15)
C1 C 0.55039(10) 0.48663(14) 0.00191(17)
C2 C 0.34535(12) 0.15582(16) 0.11243(19)
C3 C 0.40856(13) 0.15557(16) -0.00116(19)
K1 K 0.24617(3) 0.08619(4) 0.37854(5)
O7 O 0.86693(10) 0.29342(16) 0.10618(17)
H1 H 0.9204(10) 0.292(2) 0.067(2)
H2 H 0.8823(15) 0.335(2) 0.1972(15)
O1D O 0.40848(7) 0.57483(11) -0.10894(12)
O2D O 0.41832(8) 0.47039(11) 0.10574(13)
C1D C 0.44961(10) 0.51337(14) -0.00191(17)
O3A O 0.52132(8) 0.22772(12) 0.46182(13)
O4A O 0.62197(8) 0.22014(12) 0.27043(13)
O5A O 0.72696(10) 0.10006(14) 0.41004(16)
O6A O 0.60947(11) 0.09277(14) 0.61318(15)
C2A C 0.65465(12) 0.15582(16) 0.38757(19)
C3A C 0.59144(13) 0.15557(16) 0.50116(19)
Zr1D Zr 0.50000 0.67405(2) -0.25000
O1A O 0.40848(7) 0.42517(11) 0.39106(12)
O2E O 0.58168(8) 0.47039(11) 0.39426(13)
#END
