
#######################################################################
#
#                 Cambridge Crystallographic Data Centre
#                                CCDC
#
#######################################################################
#
# If this CIF has been generated from an entry in the Cambridge
# Structural Database, then it will include bibliographic, chemical,
# crystal, experimental, refinement or atomic coordinate data resulting
# from the CCDC's data processing and validation procedures.
#
#######################################################################

data_CSD_CIF_JUKPAI
_audit_creation_date 2015-08-12
_audit_creation_method CSD-ConQuest-V1
_database_code_CSD JUKPAI
_database_code_depnum_ccdc_archive 'CCDC 1061875'
_chemical_formula_sum 'C54 H126 Cu10 K1 N42 O155 P5 W30'
_chemical_formula_moiety
;
H2 O110 P5 W30 13-,2(C27 H31 Cu5 N21 O7 6+)n,31(H2 O1),K1 1+
;
_journal_coden_Cambridge 9
_journal_volume 54
_journal_year 2015
_journal_page_first 7415
_journal_name_full 'Inorg.Chem. '
loop_
_publ_author_name
"Tuo-Ping Hu"
"Ya-Qin Zhao"
"Z.Jaglicic"
"Kai Yu"
"Xing-Po Wang"
"Di Sun"
_chemical_name_systematic
;
catena-[potassium 
bis(bis(\m-5-[4-(1H-1,2,4-triazol-1-yl)phenyl]-2H-tetrazole)-(\m-5-[4-(1H-1,2,
4-triazol-1-yl)phenyl]-tetrazol-2-yl)-tris(\m-hydroxo)-tetra-aqua-penta-copper
(ii)) 
pentakis(\m-phosphato)-bis(\m-hydroxo)-octapentacontakis(\m-oxido)-triaconta-t
ungsten hentriacontahydrate]
;
_cell_volume  10636.016
_exptl_crystal_colour 'pale blue'
_exptl_crystal_density_diffrn 3.006
_exptl_crystal_description 'rod'
_diffrn_ambient_temperature 298
_refine_special_details
;
The structure is disordered.  The SQUEEZE/PLATON program has been used to 
model some disorder.
;
#These two values have been output from a single CSD field.
_refine_ls_R_factor_gt 0.0997
_refine_ls_wR_factor_gt 0.0997
_symmetry_cell_setting monoclinic
_symmetry_space_group_name_H-M 'P 21/n'
_symmetry_Int_Tables_number 14
loop_
_symmetry_equiv_pos_site_id
_symmetry_equiv_pos_as_xyz
1 x,y,z
2 1/2-x,1/2+y,1/2-z
3 -x,-y,-z
4 -1/2+x,-1/2-y,-1/2+z
_cell_length_a 21.5819(17)
_cell_length_b 19.2279(16)
_cell_length_c 25.740(2)
_cell_angle_alpha 90
_cell_angle_beta 95.2863(15)
_cell_angle_gamma 90
_cell_formula_units_Z 2
loop_
_atom_type_symbol
_atom_type_radius_bond
C 0.68
H 0.23
Cu 1.32
K 2.03
N 0.68
O 0.68
P 1.05
W 1.62
loop_
_atom_site_label
_atom_site_type_symbol
_atom_site_fract_x
_atom_site_fract_y
_atom_site_fract_z
W1 W 0.76237(5) 0.64948(7) 0.52995(6)
W2 W 0.69997(6) 0.64716(7) 0.66311(6)
W3 W 0.57954(6) 0.55951(7) 0.73885(5)
W4 W 0.44658(6) 0.42999(8) 0.73244(5)
W5 W 0.35850(6) 0.30117(7) 0.64116(5)
W6 W 0.25588(5) 0.42381(6) 0.60690(5)
W7 W 0.34737(6) 0.55417(7) 0.69251(5)
W8 W 0.47831(7) 0.68367(6) 0.70340(5)
W9 W 0.59672(6) 0.76918(6) 0.62449(5)
W10 W 0.66310(6) 0.77546(6) 0.49364(6)
O1 O 0.8391(11) 0.6517(14) 0.544(1)
O2 O 0.7508(8) 0.5529(11) 0.5401(9)
O3 O 0.7413(10) 0.6727(12) 0.6012(8)
O4 O 0.7698(11) 0.6510(11) 0.7070(9)
O5 O 0.6439(9) 0.6145(12) 0.7126(7)
O6 O 0.6095(8) 0.4863(9) 0.7001(7)
O7 O 0.6181(8) 0.5431(11) 0.7989(8)
O8 O 0.5063(8) 0.5032(11) 0.7452(7)
O9 O 0.5111(9) 0.3888(9) 0.6957(7)
O10 O 0.4593(13) 0.3911(12) 0.7936(8)
O11 O 0.3895(10) 0.3657(11) 0.7041(11)
O12 O 0.4388(9) 0.2917(11) 0.6304(9)
O13 O 0.3491(11) 0.2337(10) 0.6826(9)
O14 O 0.2787(9) 0.3427(8) 0.6458(6)
O15 O 0.3794(8) 0.4899(9) 0.7449(7)
O16 O 0.5328(9) 0.6410(11) 0.7567(8)
O17 O 0.6147(11) 0.6563(12) 0.6075(11)
O18 O 0.6688(9) 0.7443(10) 0.6625(7)
O19 O 0.6576(9) 0.6597(10) 0.5101(8)
O20 O 0.7467(9) 0.7470(9) 0.5118(8)
O21 O 0.6698(9) 0.7442(9) 0.4236(8)
O22 O 0.6757(10) 0.8631(14) 0.4822(7)
O23 O 0.6508(12) 0.7838(10) 0.5623(8)
O24 O 0.6004(10) 0.8577(13) 0.6460(13)
O25 O 0.5449(11) 0.7349(12) 0.6765(10)
O26 O 0.4508(11) 0.7532(11) 0.7379(7)
O27 O 0.4162(10) 0.6176(11) 0.7126(7)
O28 O 0.2936(10) 0.5967(13) 0.7268(8)
O29 O 0.2906(10) 0.4780(8) 0.6610(6)
O30 O 0.2362(8) 0.3726(9) 0.5475(7)
O31 O 0.1783(7) 0.433(1) 0.6185(7)
O32 O 0.5762(7) 0.7704(8) 0.4746(7)
O33 O 0.5267(11) 0.7636(9) 0.5776(10)
O34 O 0.4389(9) 0.6991(9) 0.6334(7)
O35 O 0.3359(9) 0.5997(10) 0.6297(7)
O36 O 0.2664(8) 0.5015(10) 0.5630(7)
O37 O 0.5216(8) 0.5916(9) 0.6665(9)
O38 O 0.3577(9) 0.399(1) 0.5901(11)
O39 O 0.4222(14) 0.4908(10) 0.6576(10)
O40 O 0.7025(9) 0.553(1) 0.6437(7)
W11 W 0.58255(10) 0.40486(12) 0.6564(1)
W12 W 0.70278(10) 0.49027(12) 0.58141(9)
O41 O 0.6345(14) 0.3405(15) 0.6948(12)
O42 O 0.766(3) 0.446(3) 0.608(3)
O43 O 0.3768(18) 0.646(2) 0.5479(18)
O44 O 0.4674(19) 0.713(2) 0.4997(15)
O45 O 0.6452(18) 0.437(2) 0.6135(18)
P1 P 0.6085(7) 0.6300(9) 0.5461(6)
P2 P 0.4783(7) 0.5350(7) 0.6321(5)
O46 O 0.5247(16) 0.4795(15) 0.6139(11)
O47 O 0.4491(14) 0.5775(18) 0.5809(11)
O48 O 0.6236(17) 0.5534(19) 0.5523(12)
O49 O 0.5467(17) 0.6440(16) 0.513(2)
O50 O 0.3223(17) 0.722(2) 0.5615(17)
W13 W 0.38002(10) 0.66064(11) 0.57765(10)
O51 O 0.460(2) 0.816(2) 0.4876(18)
W14 W 0.49775(11) 0.74433(11) 0.50024(9)
O52 O 0.5395(17) 0.339(2) 0.5970(17)
O53 O 0.688(2) 0.443(2) 0.5173(17)
Cu1 Cu 0.11548(14) 0.41587(15) 0.68376(12)
Cu2 Cu 0.23671(14) 0.33875(15) 0.75853(12)
Cu3 Cu 0.27992(14) 0.17093(15) 0.72772(12)
Cu4 Cu 0.18002(14) 0.09010(15) 0.63911(11)
Cu5 Cu -0.16429(15) 0.25356(16) 0.34229(12)
N1 N -0.1413(11) 0.3614(11) 0.3190(8)
N2 N -0.1585(11) 0.3846(10) 0.2715(8)
N3 N -0.1438(11) 0.4476(10) 0.2649(8)
H1 H -0.15120 0.47020 0.23610
N4 N -0.1133(11) 0.4754(11) 0.3113(8)
N5 N -0.0107(10) 0.4195(11) 0.5553(9)
N6 N -0.0167(11) 0.4186(13) 0.6333(10)
N7 N 0.0457(10) 0.4152(12) 0.6284(9)
N8 N 0.1366(10) 0.3014(11) 0.6776(9)
N9 N 0.1885(9) 0.2823(10) 0.7076(8)
N10 N 0.2054(9) 0.2187(11) 0.6968(9)
N11 N 0.1644(9) 0.1961(11) 0.6565(9)
N12 N -0.0741(10) 0.2487(11) 0.4890(8)
N13 N -0.1347(10) 0.2516(12) 0.5045(9)
N14 N -0.1381(9) 0.2515(11) 0.4176(8)
N15 N -0.0924(10) -0.0795(12) 0.3863(8)
N16 N 0.0108(11) -0.0655(12) 0.3923(9)
N17 N -0.0068(10) -0.0753(11) 0.4392(8)
N18 N 0.1764(9) -0.1269(10) 0.6523(8)
N19 N 0.2177(9) -0.1025(10) 0.6925(8)
N20 N 0.2229(9) -0.0397(10) 0.6857(7)
H2 H 0.24730 -0.01400 0.70590
N21 N 0.1889(9) -0.0147(10) 0.6457(8)
C1 C -0.1125(13) 0.4197(13) 0.3445(9)
C2 C -0.0808(13) 0.4235(12) 0.3982(9)
C3 C -0.1184(13) 0.4286(13) 0.4322(10)
H3 H -0.16050 0.43260 0.42110
C4 C -0.1004(13) 0.4285(13) 0.4876(10)
H4 H -0.12760 0.43480 0.51320
C5 C -0.0352(12) 0.4176(13) 0.4975(10)
C6 C 0.0017(12) 0.4107(13) 0.4616(9)
H5 H 0.04420 0.40540 0.47020
C7 C -0.0235(13) 0.4113(13) 0.4085(10)
H6 H 0.00180 0.40300 0.38180
C8 C -0.0527(14) 0.4276(15) 0.5941(11)
H7 H -0.09520 0.43700 0.59080
C9 C 0.0462(12) 0.4129(14) 0.5782(11)
H8 H 0.08170 0.40740 0.56070
C10 C 0.1245(12) 0.2465(14) 0.6487(11)
C11 C 0.0697(12) 0.2458(14) 0.6037(11)
C12 C 0.0149(12) 0.2455(14) 0.6183(11)
H9 H 0.00890 0.24430 0.65360
C13 C -0.0388(12) 0.2469(14) 0.5787(10)
H10 H -0.07960 0.24770 0.58750
C14 C -0.0246(12) 0.2470(13) 0.5279(10)
C15 C 0.0329(13) 0.2489(13) 0.5131(10)
H11 H 0.03930 0.24880 0.47780
C16 C 0.0854(14) 0.2511(14) 0.5527(10)
H12 H 0.12630 0.25560 0.54450
C17 C -0.0727(12) 0.2530(13) 0.4379(9)
H13 H -0.03800 0.25620 0.41920
C18 C -0.1724(13) 0.2534(15) 0.4582(10)
H14 H -0.21560 0.25570 0.45550
C19 C -0.0397(13) -0.0705(15) 0.3595(11)
H15 H -0.04020 -0.06830 0.32340
C20 C -0.0679(12) -0.0861(13) 0.4379(10)
H16 H -0.09010 -0.09610 0.46630
C21 C 0.0311(13) -0.0740(14) 0.4863(10)
C22 C 0.0099(13) -0.0930(14) 0.533(1)
H17 H -0.03120 -0.10520 0.53650
C23 C 0.0557(12) -0.0921(14) 0.5743(11)
H18 H 0.04340 -0.10800 0.60590
C24 C 0.1164(13) -0.0714(14) 0.5755(10)
C25 C 0.1390(14) -0.0558(15) 0.5292(11)
H19 H 0.18080 -0.04440 0.52860
C26 C 0.0988(14) -0.0565(14) 0.4811(11)
H20 H 0.11350 -0.04690 0.44900
C27 C 0.1588(11) -0.0726(13) 0.6235(10)
O54 O 0.2640(8) 0.1017(8) 0.6765(6)
H21 H 0.29610 0.07230 0.66860
O55 O 0.2097(10) 0.1096(18) 0.5615(7)
O56 O 0.1839(8) 0.4098(11) 0.7321(7)
H22 H 0.19470 0.45270 0.74700
O57 O -0.2533(12) 0.2804(15) 0.3567(12)
O58 O -0.2022(8) 0.2402(8) 0.2706(7)
H23 H -0.16670 0.22160 0.25400
O59 O -0.0739(9) 0.2355(13) 0.3227(9)
O60 O 0.0399(10) 0.3971(12) 0.7440(8)
K1 K 0.4508(8) 0.5599(9) 0.4821(6)
O61? O 0.475(2) 0.531(3) 0.480(2)
P3? P 0.5535(7) 0.5996(7) 0.6095(6)
P4? P 0.6220(7) 0.6051(6) 0.4667(5)
O62? O 0.5747(16) 0.5250(15) 0.5962(11)
O63? O 0.6240(17) 0.5284(18) 0.4896(12)
O64? O 0.6085(17) 0.4883(18) 0.4358(12)
P5? P 0.5891(7) 0.5447(8) 0.3974(6)
O65? O 0.5528(17) 0.6242(16) 0.462(2)
O66? O 0.2265(17) 0.5838(19) 0.4755(14)
O67? O 0.2861(19) 0.597(2) 0.3304(16)
O68? O 0.439(2) 0.735(2) 0.3335(19)
W15? W 0.28655(10) 0.53376(12) 0.49338(9)
O69? O 0.3311(17) 0.5956(19) 0.5214(17)
O70? O 0.3208(18) 0.550(2) 0.4275(15)
W16? W 0.3456(1) 0.53659(13) 0.36114(9)
W17? W 0.47483(10) 0.66619(11) 0.36664(8)
O71? O 0.4124(18) 0.616(2) 0.3701(18)
O72? O 0.473(2) 0.697(2) 0.4327(16)
O73? O 0.4323(17) 0.6982(19) 0.5294(17)
O74? O 0.5222(15) 0.5818(16) 0.4078(11)
O75? O 0.5041(14) 0.6202(18) 0.5732(11)
W18? W 0.31699(10) 0.58352(11) 0.55287(9)
W19? W 0.44441(10) 0.71542(11) 0.56417(9)
W20? W 0.50625(11) 0.72081(11) 0.43349(9)
O76? O 0.2532(18) 0.644(2) 0.5517(16)
O77? O 0.406(2) 0.786(3) 0.558(2)
O78? O 0.4718(14) 0.7991(15) 0.4108(6)
W1B W 0.23763(5) 0.35052(7) 0.47005(6)
W2B W 0.30003(6) 0.35284(7) 0.33689(6)
W3B W 0.42046(6) 0.44049(7) 0.26115(5)
W4B W 0.55342(6) 0.57001(8) 0.26756(5)
W5B W 0.64150(6) 0.69883(7) 0.35884(5)
W6B W 0.74412(5) 0.57619(6) 0.39310(5)
W7B W 0.65263(6) 0.44583(7) 0.30749(5)
W8B W 0.52169(7) 0.31633(6) 0.29660(5)
W9B W 0.40328(6) 0.23082(6) 0.37551(5)
W10B W 0.33690(6) 0.22454(6) 0.50636(6)
O1B O 0.1609(11) 0.3483(14) 0.456(1)
O2B O 0.2492(8) 0.4471(11) 0.4599(9)
O3B O 0.2587(10) 0.3273(12) 0.3988(8)
O4B O 0.2302(11) 0.3490(11) 0.2930(9)
O5B O 0.3561(9) 0.3855(12) 0.2874(7)
O6B O 0.3905(8) 0.5137(9) 0.2999(7)
O7B O 0.3819(8) 0.4569(11) 0.2011(8)
O8B O 0.4937(8) 0.4968(11) 0.2548(7)
O9B O 0.4889(9) 0.6112(9) 0.3043(7)
O10B O 0.5407(13) 0.6089(12) 0.2064(8)
O11B O 0.6105(10) 0.6343(11) 0.2959(11)
O12B O 0.5612(9) 0.7083(11) 0.3696(9)
O13B O 0.6509(11) 0.7663(10) 0.3174(9)
O14B O 0.7213(9) 0.6573(8) 0.3542(6)
O15B O 0.6206(8) 0.5101(9) 0.2551(7)
O16B O 0.4672(9) 0.3590(11) 0.2433(8)
O17B O 0.3853(11) 0.3437(12) 0.3925(11)
O18B O 0.3312(9) 0.2557(10) 0.3375(7)
O19B O 0.3424(9) 0.3403(10) 0.4899(8)
O20B O 0.2533(9) 0.2530(9) 0.4882(8)
O21B O 0.3302(9) 0.2558(9) 0.5764(8)
O22B O 0.3243(10) 0.1369(14) 0.5178(7)
O23B O 0.3492(12) 0.2162(10) 0.4377(8)
O24B O 0.3996(10) 0.1423(13) 0.3540(13)
O25B O 0.4551(11) 0.2651(12) 0.3235(10)
O26B O 0.5492(11) 0.2468(11) 0.2621(7)
O27B O 0.5838(10) 0.3824(11) 0.2874(7)
O28B O 0.7064(10) 0.4033(13) 0.2732(8)
O29B O 0.7094(10) 0.5220(8) 0.3390(6)
O30B O 0.7638(8) 0.6274(9) 0.4525(7)
O31B O 0.8217(7) 0.567(1) 0.3815(7)
O32B O 0.4238(7) 0.2296(8) 0.5254(7)
O33B O 0.4733(11) 0.2364(9) 0.4224(10)
O34B O 0.5611(9) 0.3009(9) 0.3666(7)
O35B O 0.6641(9) 0.4003(10) 0.3703(7)
O36B O 0.7336(8) 0.4985(10) 0.4370(7)
O37B O 0.4784(8) 0.4084(9) 0.3335(9)
O38B O 0.6423(9) 0.601(1) 0.4099(11)
O39B O 0.5778(14) 0.5092(10) 0.3424(10)
O40B O 0.2975(9) 0.447(1) 0.3563(7)
W11B W 0.41745(10) 0.59514(12) 0.3436(1)
W12B W 0.29722(10) 0.50973(12) 0.41859(9)
O41B O 0.3655(14) 0.6595(15) 0.3052(12)
O42B O 0.234(3) 0.554(3) 0.392(3)
O43B O 0.6232(18) 0.354(2) 0.4521(18)
O44B O 0.5326(19) 0.287(2) 0.5003(15)
O45B O 0.3548(18) 0.563(2) 0.3865(18)
P1B P 0.3915(7) 0.3700(9) 0.4539(6)
P2B P 0.5217(7) 0.4650(7) 0.3679(5)
O46B O 0.4753(16) 0.5205(15) 0.3861(11)
O47B O 0.5509(14) 0.4225(18) 0.4191(11)
O48B O 0.3764(17) 0.4466(19) 0.4477(12)
O49B O 0.4533(17) 0.3560(16) 0.487(2)
O50B O 0.6777(17) 0.278(2) 0.4385(17)
W13B W 0.61998(10) 0.33936(11) 0.42235(10)
O51B O 0.540(2) 0.184(2) 0.5124(18)
W14B W 0.50225(11) 0.25567(11) 0.49976(9)
O52B O 0.4605(17) 0.661(2) 0.4030(17)
O53B O 0.312(2) 0.557(2) 0.4827(17)
Cu1B Cu -0.11548(14) 0.58413(15) 0.31624(12)
Cu2A Cu 0.26329(14) -0.16125(15) 0.74147(12)
Cu2C Cu -0.26329(14) 0.16125(15) 0.25853(12)
Cu3C Cu -0.22008(14) 0.32907(15) 0.22772(12)
Cu4B Cu -0.18002(14) -0.09010(15) 0.36089(11)
Cu5B Cu 0.16429(15) -0.25356(16) 0.65771(12)
N2C N 0.3415(11) 0.1154(10) 0.7715(8)
N4B N 0.1133(11) 0.5246(11) 0.6887(8)
N15B N 0.0924(10) 0.0795(12) 0.6137(8)
N18B N -0.1764(9) 0.1269(10) 0.3477(8)
N19A N 0.2823(9) 0.3975(10) 0.8075(8)
O58C O 0.2978(8) 0.2598(8) 0.7706(7)
#END
