
#######################################################################
#
#                 Cambridge Crystallographic Data Centre
#                                CCDC
#
#######################################################################
#
# If this CIF has been generated from an entry in the Cambridge
# Structural Database, then it will include bibliographic, chemical,
# crystal, experimental, refinement or atomic coordinate data resulting
# from the CCDC's data processing and validation procedures.
#
#######################################################################

data_CSD_CIF_JUNBOL
_audit_creation_date 2015-08-13
_audit_creation_method CSD-ConQuest-V1
_database_code_CSD JUNBOL
_database_code_depnum_ccdc_archive 'CCDC 1037216'
_chemical_formula_sum 'C36 H26 Cd2 N2 O14.5'
_chemical_formula_moiety
;
(C12 H20 N4 2+)0.5n,n(C30 H15 Cd2 O14 1-),0.5n(H2 O1)
;
_journal_coden_Cambridge 1147
_journal_volume 15
_journal_year 2015
_journal_page_first 4543
_journal_name_full 'Cryst.Growth Des. '
loop_
_publ_author_name
"Xiaoju Li"
"Xiaofei Sun"
"Xinxiong Li"
"Zhihua Fu"
"Yanqing Su"
"Gang Xu"
_chemical_name_systematic
;
catena-[hemikis(3,3'-Butane-1,4-diylbis(2-methyl-1H-imidazol-3-ium)) 
(\m~6~-5-(4-carboxylatophenoxy)isophthalato)-(\m~4~-5-(4-carboxyphenoxy)isopht
halato)-di-cadmium hemihydrate]
;
_cell_volume   3506.233
_exptl_crystal_colour 'colorless'
_exptl_crystal_density_diffrn 1.787
_exptl_crystal_description 'Prism'
_diffrn_ambient_temperature 293
#These two values have been output from a single CSD field.
_refine_ls_R_factor_gt 0.0407
_refine_ls_wR_factor_gt 0.0407
_symmetry_cell_setting monoclinic
_symmetry_space_group_name_H-M 'P 21/c'
_symmetry_Int_Tables_number 14
loop_
_symmetry_equiv_pos_site_id
_symmetry_equiv_pos_as_xyz
1 x,y,z
2 -x,1/2+y,1/2-z
3 -x,-y,-z
4 x,-1/2-y,-1/2+z
_cell_length_a 13.926(6)
_cell_length_b 16.590(7)
_cell_length_c 16.181(7)
_cell_angle_alpha 90
_cell_angle_beta 110.296(7)
_cell_angle_gamma 90
_cell_formula_units_Z 4
loop_
_atom_type_symbol
_atom_type_radius_bond
C 0.68
H 0.23
Cd 1.44
N 0.68
O 0.68
loop_
_atom_site_label
_atom_site_type_symbol
_atom_site_fract_x
_atom_site_fract_y
_atom_site_fract_z
Cd1 Cd 0.291522(18) 0.499074(14) 0.142024(15)
Cd2 Cd 0.418914(18) 0.504161(13) 0.373505(14)
O1 O 1.26894(16) 0.57761(14) 0.31720(15)
O2 O 1.16677(17) 0.55185(16) 0.17982(15)
O3 O 0.83909(18) 0.62677(17) 0.36021(15)
O4 O 0.69717(18) 0.90443(14) 0.23198(16)
O5 O 0.54441(18) 0.87243(14) 0.13729(15)
O6 O 0.4761(2) 0.51847(14) 0.25054(17)
O7 O 0.38976(19) 0.61400(16) 0.16068(16)
O8 O 0.34638(18) 0.39060(15) 0.08587(16)
O9 O 0.17953(18) 0.39858(15) 0.05386(17)
O10 O 0.49016(17) 0.11780(14) 0.08315(15)
O11 O 0.3929(2) 0.01991(14) 0.00380(15)
O12 O 0.03597(17) 0.14084(16) -0.10090(15)
O13 O -0.0658(2) 0.0920(3) -0.50861(18)
H1 H -0.09550 0.08210 -0.56090
O14 O -0.22023(19) 0.06690(18) -0.50173(16)
C1 C 1.1810(3) 0.57138(19) 0.2587(2)
C2 C 1.0985(3) 0.5962(2) 0.3709(2)
H2 H 1.16260 0.59120 0.41450
C3 C 1.0144(3) 0.6098(2) 0.3950(2)
H3 H 1.02140 0.61280 0.45420
C4 C 0.9200(3) 0.6187(2) 0.3305(2)
C5 C 0.9093(3) 0.6148(2) 0.2426(2)
H4 H 0.84540 0.62240 0.19930
C6 C 0.9936(3) 0.5997(2) 0.2191(2)
H5 H 0.98630 0.59590 0.15980
C7 C 1.0900(2) 0.5899(2) 0.2836(2)
C8 C 0.7454(3) 0.6568(2) 0.3037(2)
C9 C 0.7370(2) 0.7369(2) 0.2779(2)
H6 H 0.79440 0.77010 0.29450
C10 C 0.6418(2) 0.7669(2) 0.2271(2)
C11 C 0.5571(2) 0.7170(2) 0.2054(2)
H7 H 0.49350 0.73680 0.17050
C12 C 0.5657(2) 0.6375(2) 0.2350(2)
C13 C 0.6613(3) 0.6069(2) 0.2840(2)
H8 H 0.66850 0.55360 0.30310
C14 C 0.6280(3) 0.8536(2) 0.1980(2)
C15 C 0.4710(3) 0.5872(2) 0.2149(2)
C16 C 0.2575(3) 0.3621(2) 0.0527(2)
C17 C 0.2444(2) 0.2791(2) 0.0135(2)
C18 C 0.1468(2) 0.2493(2) -0.0324(2)
H9 H 0.08980 0.28230 -0.04350
C19 C 0.1355(3) 0.1704(2) -0.0613(2)
C20 C 0.2191(3) 0.1192(2) -0.0439(2)
H10 H 0.21030 0.06610 -0.06350
C21 C 0.3162(2) 0.14870(19) 0.00342(19)
C22 C 0.3287(2) 0.2287(2) 0.0307(2)
H11 H 0.39400 0.24860 0.06060
C23 C 0.4054(3) 0.0923(2) 0.0307(2)
C24 C -0.0002(3) 0.1286(2) -0.1912(2)
C25 C -0.1025(3) 0.1078(3) -0.2283(2)
H12 H -0.14280 0.10290 -0.19310
C26 C -0.1438(3) 0.0947(3) -0.3172(2)
H13 H -0.21240 0.08030 -0.34220
C27 C -0.0851(3) 0.1025(2) -0.3706(2)
C28 C 0.0174(3) 0.1217(3) -0.3321(2)
H14 H 0.05830 0.12540 -0.36670
C29 C 0.0593(3) 0.1356(3) -0.2427(2)
H15 H 0.12800 0.14970 -0.21730
C30 C -0.1306(3) 0.0857(2) -0.4659(2)
N1 N 0.6692(3) 0.2402(2) 0.1761(2)
N2 N 0.5873(2) 0.33868(17) 0.09813(19)
C31 C 0.5888(3) 0.3513(3) 0.1834(2)
H16 H 0.55970 0.39420 0.20340
C32 C 0.6407(3) 0.2894(3) 0.2307(3)
H17 H 0.65490 0.28130 0.29070
C33 C 0.6499(4) 0.2339(3) 0.0165(3)
H18 H 0.58590 0.21200 -0.02120
H19 H 0.69980 0.19150 0.03490
H20 H 0.67300 0.27410 -0.01490
C34 C 0.5318(3) 0.3884(2) 0.0193(2)
H21 H 0.46130 0.37020 -0.00500
H22 H 0.56290 0.38030 -0.02510
C35 C 0.5331(3) 0.4767(2) 0.0402(2)
H23 H 0.60290 0.49670 0.05850
H24 H 0.50780 0.48480 0.08830
C36 C 0.6360(3) 0.2708(2) 0.0949(3)
H25 H 0.704(3) 0.192(3) 0.190(3)
O15 O 0.3016(8) -0.0829(6) 0.1017(6)
Cd1* Cd 1.291522(18) 0.499074(14) 0.142024(15)
Cd1A Cd -0.291522(18) -0.000926(14) -0.642024(15)
Cd1A* Cd 0.708478(18) 0.999074(14) 0.357976(15)
Cd2* Cd 1.418914(18) 0.504161(13) 0.373505(14)
Cd2A Cd 0.581086(18) 0.004161(13) 0.126495(14)
Cd2A* Cd 0.581086(18) 1.004161(13) 0.126495(14)
Cd2C Cd 0.418914(18) -0.004161(13) -0.126495(14)
O1* O 0.26894(16) 0.57761(14) 0.31720(15)
O2* O 0.16677(17) 0.55185(16) 0.17982(15)
O4A O 0.30283(18) 0.40443(14) 0.26802(16)
O5A O 0.45559(18) 0.37243(14) 0.36271(15)
O10A O 0.50984(17) 0.61780(14) 0.41685(15)
O11A O 0.6071(2) 0.51991(14) 0.49620(15)
O11C O 0.3929(2) 0.48009(14) 0.50380(15)
O14A O 0.22023(19) 0.56690(18) 0.00173(16)
N1B N 0.3308(3) 0.7598(2) -0.1761(2)
N2B N 0.4127(2) 0.66132(17) -0.09813(19)
C31B C 0.4112(3) 0.6487(3) -0.1834(2)
H16B H 0.44030 0.60580 -0.20340
C32B C 0.3593(3) 0.7106(3) -0.2307(3)
H17B H 0.34510 0.71870 -0.29070
C33B C 0.3501(4) 0.7661(3) -0.0165(3)
H18B H 0.41410 0.78800 0.02120
H19B H 0.30020 0.80850 -0.03490
H20B H 0.32700 0.72590 0.01490
C34B C 0.4682(3) 0.6116(2) -0.0193(2)
H21B H 0.53870 0.62980 0.00500
H22B H 0.43710 0.61970 0.02510
C35B C 0.4669(3) 0.5233(2) -0.0402(2)
H23B H 0.39710 0.50330 -0.05850
H24B H 0.49220 0.51520 -0.08830
C36B C 0.3640(3) 0.7292(2) -0.0949(3)
H25B H 0.296(3) 0.808(3) -0.190(3)
#END
