
#######################################################################
#
#                 Cambridge Crystallographic Data Centre
#                                CCDC
#
#######################################################################
#
# If this CIF has been generated from an entry in the Cambridge
# Structural Database, then it will include bibliographic, chemical,
# crystal, experimental, refinement or atomic coordinate data resulting
# from the CCDC's data processing and validation procedures.
#
#######################################################################

data_CSD_CIF_JUNBUR
_audit_creation_date 2015-08-13
_audit_creation_method CSD-ConQuest-V1
_database_code_CSD JUNBUR
_database_code_depnum_ccdc_archive 'CCDC 1037217'
_chemical_formula_sum 'C15 H21 Cd1 N2 O10'
_chemical_formula_moiety
;
(C12 H20 N4 2+)0.5n,n(C9 H5 Cd1 O7 1-),3n(H2 O1)
;
_journal_coden_Cambridge 1147
_journal_volume 15
_journal_year 2015
_journal_page_first 4543
_journal_name_full 'Cryst.Growth Des. '
loop_
_publ_author_name
"Xiaoju Li"
"Xiaofei Sun"
"Xinxiong Li"
"Zhihua Fu"
"Yanqing Su"
"Gang Xu"
_chemical_name_systematic
;
catena-[hemikis(1,1'-Butane-1,4-diylbis(2-methyl-1H-imidazol-3-ium)) 
(\m~4~-benzene-1,3,5-tricarboxylato)-aqua-cadmium(ii) trihydrate]
;
_cell_volume   1879.746
_exptl_crystal_colour 'colorless'
_exptl_crystal_density_diffrn 1.769
_exptl_crystal_description 'prism'
_diffrn_ambient_temperature 293
#These two values have been output from a single CSD field.
_refine_ls_R_factor_gt 0.098
_refine_ls_wR_factor_gt 0.098
_symmetry_cell_setting monoclinic
_symmetry_space_group_name_H-M 'P 21/c'
_symmetry_Int_Tables_number 14
loop_
_symmetry_equiv_pos_site_id
_symmetry_equiv_pos_as_xyz
1 x,y,z
2 -x,1/2+y,1/2-z
3 -x,-y,-z
4 x,-1/2-y,-1/2+z
_cell_length_a 10.240(5)
_cell_length_b 13.772(6)
_cell_length_c 16.700(6)
_cell_angle_alpha 90
_cell_angle_beta 127.046(19)
_cell_angle_gamma 90
_cell_formula_units_Z 4
loop_
_atom_type_symbol
_atom_type_radius_bond
C 0.68
H 0.23
Cd 1.44
N 0.68
O 0.68
loop_
_atom_site_label
_atom_site_type_symbol
_atom_site_fract_x
_atom_site_fract_y
_atom_site_fract_z
Cd1 Cd -0.41780(8) -0.57587(4) -0.06186(5)
O1 O -0.3195(8) -0.4542(5) 0.0533(5)
O2 O -0.5597(9) -0.4477(5) -0.1749(5)
H1 H -0.48630 -0.41240 -0.17070
H2 H -0.62300 -0.42090 -0.18020
O3 O -0.3334(8) -0.3520(5) 0.1484(5)
O4 O 0.2008(8) -0.4529(4) 0.0773(5)
O5 O 0.3876(8) -0.3431(4) 0.1743(5)
O6 O 0.3660(9) -0.1668(5) 0.4273(5)
O7 O 0.1711(9) -0.2059(6) 0.4408(5)
C1 C -0.260(1) -0.3904(6) 0.1179(7)
C2 C -0.0872(10) -0.3560(6) 0.1661(6)
C3 C -0.0015(10) -0.3848(6) 0.1305(6)
H3 H -0.05150 -0.42470 0.07440
C4 C 0.1582(10) -0.3546(6) 0.1780(6)
C5 C 0.2535(11) -0.3855(6) 0.1402(6)
C6 C 0.2331(11) -0.2961(6) 0.2609(6)
H4 H 0.33910 -0.27410 0.29140
C7 C 0.1484(10) -0.2695(6) 0.2999(6)
C8 C 0.2347(11) -0.2097(6) 0.3957(6)
C9 C -0.009(1) -0.2989(6) 0.2534(7)
H5 H -0.06450 -0.28120 0.27930
N1 N -0.2250(11) -0.1001(6) 0.0739(6)
N2 N -0.0064(11) -0.0891(6) 0.0832(7)
H6 H 0.06030 -0.09330 0.06810
C10 C -0.2388(18) -0.1697(12) -0.0697(10)
H7 H -0.29430 -0.12180 -0.12190
H8 H -0.31700 -0.21530 -0.07800
H9 H -0.16020 -0.20320 -0.07330
C11 C -0.1544(15) -0.1217(8) 0.0286(9)
C12 C 0.0306(14) -0.0468(8) 0.1685(8)
H10 H 0.12990 -0.01940 0.22020
C13 C -0.1061(14) -0.0531(8) 0.1628(8)
H11 H -0.11870 -0.02990 0.21010
C14 C -0.3882(14) -0.1261(7) 0.0411(9)
H12 H -0.38630 -0.13580 0.09930
H13 H -0.42090 -0.18680 0.00420
C15 C -0.5125(15) -0.0478(8) -0.0253(10)
H14 H -0.50970 -0.03690 -0.08170
H15 H -0.62070 -0.07170 -0.05200
O8 O -0.4658(10) -0.1628(5) 0.2277(6)
H16 H -0.49560 -0.23140 0.22000
H17 H -0.38920 -0.15970 0.21940
O9 O -0.1384(9) -0.1195(5) 0.3528(6)
H18 H -0.04530 -0.14870 0.38090
H19 H -0.12090 -0.05960 0.38050
O10 O -0.7835(10) -0.1184(6) 0.0437(6)
H20 H -0.72800 -0.15140 0.10120
Cd1A Cd 0.41780(8) -0.07587(4) 0.56186(5)
Cd1B Cd -0.58220(8) -0.42413(4) 0.06186(5)
Cd1B* Cd 0.41780(8) -0.42413(4) 0.06186(5)
O1B O -0.6805(8) -0.5458(5) -0.0533(5)
O3B O -0.6666(8) -0.6480(5) -0.1484(5)
O4B O -0.2008(8) -0.5471(4) -0.0773(5)
O5B O -0.3876(8) -0.6569(4) -0.1743(5)
O6A O -0.3660(9) -0.6668(5) 0.0727(5)
O7A O -0.1711(9) -0.7059(6) 0.0592(5)
N1B N -0.7750(11) 0.1001(6) -0.0739(6)
N2B N -0.9936(11) 0.0891(6) -0.0832(7)
H6B H -1.06030 0.09330 -0.06810
C10B C -0.7612(18) 0.1697(12) 0.0697(10)
H7B H -0.70570 0.12180 0.12190
H8B H -0.68300 0.21530 0.07800
H9B H -0.83980 0.20320 0.07330
C11B C -0.8456(15) 0.1217(8) -0.0286(9)
C12B C -1.0306(14) 0.0468(8) -0.1685(8)
H10B H -1.12990 0.01940 -0.22020
C13B C -0.8939(14) 0.0531(8) -0.1628(8)
H11B H -0.88130 0.02990 -0.21010
C14B C -0.6118(14) 0.1261(7) -0.0411(9)
H12B H -0.61370 0.13580 -0.09930
H13B H -0.57910 0.18680 -0.00420
C15B C -0.4875(15) 0.0478(8) 0.0253(10)
H14B H -0.49030 0.03690 0.08170
H15B H -0.37930 0.07170 0.05200
#END
