
#######################################################################
#
#                 Cambridge Crystallographic Data Centre
#                                CCDC
#
#######################################################################
#
# If this CIF has been generated from an entry in the Cambridge
# Structural Database, then it will include bibliographic, chemical,
# crystal, experimental, refinement or atomic coordinate data resulting
# from the CCDC's data processing and validation procedures.
#
#######################################################################

data_CSD_CIF_JUNLAI
_audit_creation_date 2020-06-04
_audit_creation_method CSD-ConQuest-V1
_database_code_CSD JUNLAI
_database_code_depnum_ccdc_archive 'CCDC 1971745'
_chemical_formula_sum 'C90 H126 Cu12 I12 N30 O10 P4'
_chemical_formula_moiety
;
(C30 H30 Cu6 I7 N12 O2 P2 1-)n,n(C30 H30 Cu6 I5 N12 O2 P2 1+),6n(C5 H11 N1 O1)
;
_journal_coden_Cambridge 182
_journal_volume 56
_journal_year 2020
_journal_page_first 7233
_journal_name_full 'Chem.Commun. '
loop_
_publ_author_name
"Muxin Yu"
"Caiping Liu"
"Shengchang Li"
"Yunfang Zhao"
"Jiangquan Lv"
"Zhu Zhuo"
"Feilong Jiang"
"Lian Chen"
"Yunlong Yu"
"Maochun Hong"
_chemical_name_systematic
;
catena-(heptakis(\m-iodo)-bis(\m-N,N',N''-tris(pyridin-3-yl)phosphoric 
triamide)-hexa-copper 
pentakis(\m-iodo)-bis(\m-N,N',N''-tris(pyridin-3-yl)phosphoric 
triamide)-hexa-copper diethylformamide solvate)
;
_chemical_name_common
;
MCOF-2
;
_cell_volume   7501.011
_exptl_crystal_colour 'yellowish colorless'
_exptl_crystal_description 'block'
_diffrn_ambient_temperature 100
_refine_special_details
;
The MASK/OLEX2 program was used to model the disordered solvent.

;
#These two values have been output from a single CSD field.
_refine_ls_R_factor_gt 0.085
_refine_ls_wR_factor_gt 0.085
_symmetry_cell_setting hexagonal
_symmetry_space_group_name_H-M 'P 63/m'
_symmetry_Int_Tables_number 176
loop_
_symmetry_equiv_pos_site_id
_symmetry_equiv_pos_as_xyz
1 x,y,z
2 x-y,x,1/2+z
3 -y,x-y,z
4 -x,-y,1/2+z
5 -x+y,-x,z
6 y,-x+y,1/2+z
7 -x,-y,-z
8 -x+y,-x,-1/2-z
9 y,-x+y,-z
10 x,y,-1/2-z
11 x-y,x,-z
12 -y,x-y,-1/2-z
_cell_length_a 14.3503(2)
_cell_length_b 14.3503(2)
_cell_length_c 42.0598(13)
_cell_angle_alpha 90
_cell_angle_beta 90
_cell_angle_gamma 120
_cell_formula_units_Z 2
loop_
_atom_type_symbol
_atom_type_radius_bond
C 0.68
H 0.23
Cu 1.32
I 1.40
N 0.68
O 0.68
P 1.05
loop_
_atom_site_label
_atom_site_type_symbol
_atom_site_fract_x
_atom_site_fract_y
_atom_site_fract_z
I1 I 0.00000 0.00000 0.50000
I2 I -0.15628(7) 0.04290(6) 0.58479(2)
Cu1 Cu 0.02784(14) 0.12528(14) 0.55469(6)
P1 P 0.33333 0.66667 0.51693(12)
O1 O 0.33333 0.66667 0.4814(3)
N1 N 0.2795(6) 0.5470(6) 0.5332(2)
N2 N 0.0612(7) 0.2663(7) 0.5349(3)
C1 C 0.1136(8) 0.4553(8) 0.5013(3)
H1 H 0.12961 0.51973 0.49046
C2 C 0.1806(8) 0.4555(8) 0.5234(3)
C3 C 0.0197(10) 0.3589(9) 0.4944(4)
H2 H -0.02585 0.35625 0.47765
C4 C 0.1483(8) 0.3583(8) 0.5413(3)
H3 H 0.19218 0.36095 0.55855
C5 C -0.0067(10) 0.2694(9) 0.5116(4)
H4 H -0.07375 0.20632 0.50763
H5 H 0.336(10) 0.567(10) 0.551(3)
I3 I -0.18457(8) 0.28497(8) 0.75000
I4 I -0.33333 0.33333 0.66402(4)
Cu2 Cu -0.21362(16) 0.42197(18) 0.71492(6)
P2 P 0.33333 0.66667 0.68256(12)
N3 N -0.0677(8) 0.5367(9) 0.6979(3)
N4 N 0.2123(8) 0.5992(8) 0.6988(3)
H6 H 0.20330 0.55511 0.71457
C6 C 0.0225(11) 0.5358(10) 0.7054(4)
H7 H 0.02011 0.48781 0.72135
C7 C 0.1249(11) 0.6073(9) 0.6895(3)
C8 C 0.1266(14) 0.6852(16) 0.6686(5)
H8 H 0.19396 0.74339 0.66191
C9 C -0.0640(13) 0.6081(13) 0.6763(5)
H9 H -0.12695 0.61286 0.67285
C10 C 0.0336(13) 0.6790(16) 0.6577(5)
H10 H 0.03208 0.71755 0.63951
O2 O 0.33333 0.66667 0.6481(3)
N1B N 0.4530(6) 0.7325(6) 0.5332(2)
N2B N 0.7337(7) 0.7949(7) 0.5349(3)
C1B C 0.5447(8) 0.6583(8) 0.5013(3)
H1B H 0.48027 0.60988 0.49046
C2B C 0.5445(8) 0.7251(8) 0.5234(3)
C3B C 0.6411(10) 0.6608(9) 0.4944(4)
H2B H 0.64375 0.61790 0.47765
C4B C 0.6417(8) 0.7900(8) 0.5413(3)
H3B H 0.63905 0.83122 0.55855
C5B C 0.7306(10) 0.7239(9) 0.5116(4)
H4B H 0.79368 0.71993 0.50763
H5B H 0.433(10) 0.769(10) 0.551(3)
N1D N 0.2675(6) 0.7205(6) 0.5332(2)
N2D N 0.2051(7) 0.9388(7) 0.5349(3)
C1D C 0.3417(8) 0.8864(8) 0.5013(3)
H1D H 0.39012 0.87039 0.49046
C2D C 0.2749(8) 0.8194(8) 0.5234(3)
C3D C 0.3392(10) 0.9803(9) 0.4944(4)
H2D H 0.38210 1.02585 0.47765
C4D C 0.2100(8) 0.8517(8) 0.5413(3)
H3D H 0.16878 0.80782 0.55855
C5D C 0.2761(10) 1.0067(9) 0.5116(4)
H4D H 0.28007 1.07375 0.50763
H5D H 0.231(10) 0.664(10) 0.551(3)
I2B I -0.04290(7) -0.19918(6) 0.58479(2)
Cu1B Cu -0.12528(14) -0.09744(14) 0.55469(6)
I2F I 0.15628(7) -0.04290(6) 0.41521(2)
Cu1F Cu -0.02784(14) -0.12528(14) 0.44531(6)
P1F P -0.33333 -0.66667 0.48307(12)
O1F O -0.33333 -0.66667 0.5186(3)
N1F N -0.2795(6) -0.5470(6) 0.4668(2)
N2F N -0.0612(7) -0.2663(7) 0.4651(3)
C1F C -0.1136(8) -0.4553(8) 0.4987(3)
H1F H -0.12961 -0.51973 0.50954
C2F C -0.1806(8) -0.4555(8) 0.4766(3)
C3F C -0.0197(10) -0.3589(9) 0.5056(4)
H2F H 0.02585 -0.35625 0.52235
C4F C -0.1483(8) -0.3583(8) 0.4587(3)
H3F H -0.19218 -0.36095 0.44145
C5F C 0.0067(10) -0.2694(9) 0.4884(4)
H4F H 0.07375 -0.20632 0.49237
H5F H -0.336(10) -0.567(10) 0.449(3)
N1H N -0.4530(6) -0.7325(6) 0.4668(2)
N2H N -0.7337(7) -0.7949(7) 0.4651(3)
C1H C -0.5447(8) -0.6583(8) 0.4987(3)
H1H H -0.48027 -0.60988 0.50954
C2H C -0.5445(8) -0.7251(8) 0.4766(3)
C3H C -0.6411(10) -0.6608(9) 0.5056(4)
H2H H -0.64375 -0.61790 0.52235
C4H C -0.6417(8) -0.7900(8) 0.4587(3)
H3H H -0.63905 -0.83122 0.44145
C5H C -0.7306(10) -0.7239(9) 0.4884(4)
H4H H -0.79368 -0.71993 0.49237
H5H H -0.433(10) -0.769(10) 0.449(3)
N1J N -0.2675(6) -0.7205(6) 0.4668(2)
N2J N -0.2051(7) -0.9388(7) 0.4651(3)
C1J C -0.3417(8) -0.8864(8) 0.4987(3)
H1J H -0.39012 -0.87039 0.50954
C2J C -0.2749(8) -0.8194(8) 0.4766(3)
C3J C -0.3392(10) -0.9803(9) 0.5056(4)
H2J H -0.38210 -1.02585 0.52235
C4J C -0.2100(8) -0.8517(8) 0.4587(3)
H3J H -0.16878 -0.80782 0.44145
C5J C -0.2761(10) -1.0067(9) 0.4884(4)
H4J H -0.28007 -1.07375 0.49237
H5J H -0.231(10) -0.664(10) 0.449(3)
I2H I -0.95710(7) -0.80082(6) 0.41521(2)
Cu1H Cu -0.87472(14) -0.90256(14) 0.44531(6)
I2J I -0.19918(7) -1.15628(6) 0.41521(2)
Cu1J Cu -0.09744(14) -0.97216(14) 0.44531(6)
I2D I 0.19918(7) 0.15628(6) 0.58479(2)
Cu1D Cu 0.09744(14) -0.02784(14) 0.55469(6)
I1* I -1.00000 -1.00000 0.50000
I1** I 0.00000 -1.00000 0.50000
I2F* I -0.84372(7) -1.04290(6) 0.41521(2)
I2H* I 0.04290(7) -0.80082(6) 0.41521(2)
I2J* I -0.19918(7) -0.15628(6) 0.41521(2)
Cu1B* Cu 0.87472(14) 0.90256(14) 0.55469(6)
Cu1D* Cu 0.09744(14) 0.97216(14) 0.55469(6)
Cu1F* Cu -0.02784(14) -1.12528(14) 0.44531(6)
Cu1H* Cu 0.12528(14) 0.09744(14) 0.44531(6)
Cu1J* Cu -1.09744(14) -0.97216(14) 0.44531(6)
Cu1J** Cu -0.09744(14) 0.02784(14) 0.44531(6)
N2B* N -0.2663(7) -0.2051(7) 0.5349(3)
N2D* N 0.2051(7) -0.0612(7) 0.5349(3)
N3B N 0.4633(8) 0.3956(9) 0.6979(3)
N4B N 0.4008(8) 0.6131(8) 0.6988(3)
H6B H 0.44489 0.64819 0.71457
C6B C 0.4642(11) 0.4867(10) 0.7054(4)
H7B H 0.51219 0.53230 0.72135
C7B C 0.3927(11) 0.5176(9) 0.6895(3)
C8B C 0.3148(14) 0.4414(16) 0.6686(5)
H8B H 0.25661 0.45058 0.66191
C9B C 0.3919(13) 0.3279(13) 0.6763(5)
H9B H 0.38714 0.26019 0.67285
C10B C 0.3210(13) 0.3546(16) 0.6577(5)
H10B H 0.28245 0.31453 0.63951
N3D N 0.6044(8) 1.0677(9) 0.6979(3)
N4D N 0.3869(8) 0.7877(8) 0.6988(3)
H6D H 0.35181 0.79670 0.71457
C6D C 0.5133(11) 0.9775(10) 0.7054(4)
H7D H 0.46770 0.97989 0.72135
C7D C 0.4824(11) 0.8751(9) 0.6895(3)
C8D C 0.5586(14) 0.8734(16) 0.6686(5)
H8D H 0.54942 0.80604 0.66191
C9D C 0.6721(13) 1.0640(13) 0.6763(5)
H9D H 0.73981 1.12695 0.67285
C10D C 0.6454(13) 0.9664(16) 0.6577(5)
H10D H 0.68547 0.96792 0.63951
I3B I -0.28497(8) 0.53046(8) 0.75000
Cu2B Cu -0.42197(16) 0.36441(18) 0.71492(6)
I3D I -0.53046(8) 0.18457(8) 0.75000
Cu2D Cu -0.36441(16) 0.21362(18) 0.71492(6)
I4G I -0.33333 0.33333 0.83598(4)
Cu2G Cu -0.36441(16) 0.21362(18) 0.78508(6)
Cu2I Cu -0.21362(16) 0.42197(18) 0.78508(6)
P2G P 0.33333 0.66667 0.81744(12)
N3I N -0.0677(8) 0.5367(9) 0.8021(3)
N4I N 0.2123(8) 0.5992(8) 0.8012(3)
H6I H 0.20330 0.55511 0.78543
C6I C 0.0225(11) 0.5358(10) 0.7946(4)
H7I H 0.02011 0.48781 0.77865
C7I C 0.1249(11) 0.6073(9) 0.8105(3)
C8I C 0.1266(14) 0.6852(16) 0.8314(5)
H8I H 0.19396 0.74339 0.83809
C9I C -0.0640(13) 0.6081(13) 0.8237(5)
H9I H -0.12695 0.61286 0.82715
C10I C 0.0336(13) 0.6790(16) 0.8423(5)
H10I H 0.03208 0.71755 0.86049
O2G O 0.33333 0.66667 0.8519(3)
N3K N 0.4633(8) 0.3956(9) 0.8021(3)
N4K N 0.4008(8) 0.6131(8) 0.8012(3)
H6K H 0.44489 0.64819 0.78543
C6K C 0.4642(11) 0.4867(10) 0.7946(4)
H7K H 0.51219 0.53230 0.77865
C7K C 0.3927(11) 0.5176(9) 0.8105(3)
C8K C 0.3148(14) 0.4414(16) 0.8314(5)
H8K H 0.25661 0.45058 0.83809
C9K C 0.3919(13) 0.3279(13) 0.8237(5)
H9K H 0.38714 0.26019 0.82715
C10K C 0.3210(13) 0.3546(16) 0.8423(5)
H10K H 0.28245 0.31453 0.86049
N3G N 0.6044(8) 1.0677(9) 0.8021(3)
N4G N 0.3869(8) 0.7877(8) 0.8012(3)
H6G H 0.35181 0.79670 0.78543
C6G C 0.5133(11) 0.9775(10) 0.7946(4)
H7G H 0.46770 0.97989 0.77865
C7G C 0.4824(11) 0.8751(9) 0.8105(3)
C8G C 0.5586(14) 0.8734(16) 0.8314(5)
H8G H 0.54942 0.80604 0.83809
C9G C 0.6721(13) 1.0640(13) 0.8237(5)
H9G H 0.73981 1.12695 0.82715
C10G C 0.6454(13) 0.9664(16) 0.8423(5)
H10G H 0.68547 0.96792 0.86049
Cu2K Cu -0.42197(16) 0.36441(18) 0.78508(6)
Cu2B* Cu 0.57803(16) 0.36441(18) 0.71492(6)
Cu2D* Cu 0.63559(16) 1.21362(18) 0.71492(6)
Cu2G* Cu 0.63559(16) 1.21362(18) 0.78508(6)
Cu2K* Cu 0.57803(16) 0.36441(18) 0.78508(6)
N3B* N -0.5367(8) 0.3956(9) 0.6979(3)
N3D* N -0.3956(8) 0.0677(9) 0.6979(3)
N3G* N -0.3956(8) 0.0677(9) 0.8021(3)
N3K* N -0.5367(8) 0.3956(9) 0.8021(3)
#END
