
#######################################################################
#
#                 Cambridge Crystallographic Data Centre
#                                CCDC
#
#######################################################################
#
# If this CIF has been generated from an entry in the Cambridge
# Structural Database, then it will include bibliographic, chemical,
# crystal, experimental, refinement or atomic coordinate data resulting
# from the CCDC's data processing and validation procedures.
#
#######################################################################

data_CSD_CIF_JUNXOI
_audit_creation_date 2020-06-04
_audit_creation_method CSD-ConQuest-V1
_database_code_CSD JUNXOI
_database_code_depnum_ccdc_archive 'CCDC 1478473'
_chemical_formula_sum 'C127 H89 Co3 N7 O26 S4'
_chemical_formula_moiety
;
(C102 H68 Co3 N4 O26 S4 2-)n,n(C23 H18 N2 2+),n(C2 H3 N1)
;
_journal_coden_Cambridge 580
_journal_volume 186
_journal_year 2020
_journal_page_first 114611
_journal_name_full 'Polyhedron '
loop_
_publ_author_name
"Xiao-Qiang Yao"
"Xiao-Hui Wang"
"Pen-Ji Yan"
"Ming-Dao Zhang"
_chemical_name_systematic
;
catena-(4-(7-(pyridinium-4-yl)-9H-fluoren-2-yl)pyridinium 
tetrakis(\m-4-((4-carboxylatophenyl)sulfonyl)benzoate)-bis(\m-hydroxo)-bis(4-(
7-(pyridinium-4-yl)-9H-fluoren-2-yl)pyridine)-tri-cobalt(ii) acetonitrile 
unknown solvate)
;
_cell_volume   5462.623
_exptl_crystal_density_diffrn 1.479
_diffrn_ambient_temperature 291
_refine_special_details
;
The SQUEEZE/PLATON program was used to model some disorder.

;
#These two values have been output from a single CSD field.
_refine_ls_R_factor_gt 0.0611
_refine_ls_wR_factor_gt 0.0611
_symmetry_cell_setting triclinic
_symmetry_space_group_name_H-M 'P -1'
_symmetry_Int_Tables_number 2
loop_
_symmetry_equiv_pos_site_id
_symmetry_equiv_pos_as_xyz
1 x,y,z
2 -x,-y,-z
_cell_length_a 13.8581(3)
_cell_length_b 14.0925(2)
_cell_length_c 29.3805(2)
_cell_angle_alpha 76.420(3)
_cell_angle_beta 83.317(3)
_cell_angle_gamma 79.183(2)
_cell_formula_units_Z 2
loop_
_atom_type_symbol
_atom_type_radius_bond
C 0.68
H 0.23
Co 1.26
N 0.68
O 0.68
S 1.02
loop_
_atom_site_label
_atom_site_type_symbol
_atom_site_fract_x
_atom_site_fract_y
_atom_site_fract_z
C1 C 1.0169(3) 0.1236(3) 0.06141(15)
H1 H 1.04420 0.07340 0.08530
C2 C 1.0333(3) 0.1131(3) 0.01509(15)
H2 H 1.07550 0.05810 0.00790
C3 C 0.9872(3) 0.1840(3) -0.02031(14)
C4 C 0.9337(3) 0.2699(3) -0.00996(15)
H3 H 0.90010 0.32560 -0.02910
C5 C 0.9199(3) 0.2804(3) 0.03701(15)
H4 H 0.88240 0.33780 0.04410
C6 C 0.9963(3) 0.1712(3) -0.07058(14)
C7 C 0.9304(3) 0.2322(3) -0.10145(13)
H5 H 0.88020 0.28490 -0.09840
C8 C 0.9352(3) 0.2172(2) -0.14675(14)
C9 C 1.0061(3) 0.1432(3) -0.16167(14)
C10 C 1.0706(3) 0.0833(3) -0.12967(14)
H6 H 1.11650 0.03270 -0.13880
C11 C 1.0676(3) 0.0974(3) -0.08491(15)
H7 H 1.11270 0.05820 -0.06420
C12 C 0.8687(3) 0.2692(3) -0.18513(13)
H8 H 0.87280 0.33910 -0.19460
H9 H 0.80070 0.26140 -0.17560
C13 C 0.9108(3) 0.2155(3) -0.22384(13)
C14 C 0.8770(3) 0.2274(3) -0.26741(14)
H10 H 0.82340 0.27850 -0.27230
C15 C 0.9226(3) 0.1656(3) -0.29833(14)
C16 C 1.0014(3) 0.0942(3) -0.28355(14)
H11 H 1.03110 0.05250 -0.30330
C17 C 1.0384(3) 0.0818(3) -0.23990(14)
H12 H 1.09290 0.03400 -0.23100
C18 C 0.9915(3) 0.1430(3) -0.20980(14)
C19 C 0.7795(4) 0.2717(3) -0.40609(16)
H13 H 0.73010 0.32440 -0.41640
C20 C 0.8155(3) 0.2585(3) -0.36188(15)
H14 H 0.78360 0.30850 -0.34700
C21 C 0.8866(3) 0.1786(3) -0.34522(14)
C22 C 0.9235(3) 0.1131(3) -0.37325(15)
H15 H 0.97050 0.05840 -0.36250
C23 C 0.8905(3) 0.1286(3) -0.41796(16)
H16 H 0.91820 0.08550 -0.43730
H17 H 0.94710 0.47300 0.64630
C24 C 1.0003(3) 0.3706(3) 0.44579(16)
H18 H 0.96160 0.41570 0.42390
C25 C 0.9945(3) 0.3841(3) 0.49152(15)
H19 H 0.94990 0.44100 0.49430
C26 C 1.0491(3) 0.3173(3) 0.52412(14)
C27 C 1.1146(3) 0.2471(4) 0.51123(16)
H20 H 1.15710 0.19560 0.52840
C28 C 1.1214(3) 0.2266(3) 0.46531(15)
H21 H 1.16370 0.17190 0.45790
C29 C 1.0566(3) 0.3335(3) 0.57223(13)
C30 C 0.9863(3) 0.4096(3) 0.58707(14)
H22 H 0.93640 0.45470 0.57150
C31 C 0.9865(3) 0.4249(3) 0.63151(16)
C32 C 1.0557(3) 0.3675(3) 0.66238(14)
C33 C 1.1253(3) 0.2920(2) 0.64735(14)
C34 C 1.1249(3) 0.2760(3) 0.60217(14)
H23 H 1.17080 0.22620 0.59230
C35 C 1.1959(3) 0.2424(3) 0.68439(14)
H24 H 1.26260 0.25270 0.67340
H25 H 1.19460 0.17190 0.69370
C36 C 1.1572(3) 0.2932(3) 0.72445(14)
C37 C 1.0754(3) 0.3683(3) 0.70982(15)
C38 C 1.0301(3) 0.4270(3) 0.74142(14)
H26 H 0.97590 0.47560 0.73300
C39 C 1.0654(3) 0.4131(3) 0.78462(14)
H27 H 1.03520 0.45360 0.80480
C40 C 1.1458(3) 0.3393(3) 0.79927(15)
C41 C 1.1907(3) 0.2806(3) 0.76754(14)
H28 H 1.24430 0.22940 0.77180
C42 C 1.1890(3) 0.3797(3) 0.91675(16)
H29 H 1.16660 0.42500 0.93560
C43 C 1.1505(3) 0.3946(3) 0.87344(15)
H30 H 1.10380 0.45010 0.86330
C44 C 1.1824(3) 0.3257(3) 0.84549(15)
C45 C 1.2534(3) 0.2458(3) 0.86168(15)
H31 H 1.27900 0.19610 0.84550
C46 C 1.2933(3) 0.2349(3) 0.90520(14)
H32 H 1.34340 0.18240 0.91500
C47 C 0.7696(3) 0.4108(2) 0.14097(12)
C48 C 0.6759(3) 0.4695(3) 0.12100(13)
C49 C 0.6170(2) 0.5396(2) 0.14256(12)
H33 H 0.63810 0.55400 0.16870
C50 C 0.5287(2) 0.5881(3) 0.12629(12)
H34 H 0.49010 0.63500 0.14120
C51 C 0.4967(3) 0.5663(2) 0.08666(12)
C52 C 0.5560(3) 0.4980(3) 0.06429(13)
H35 H 0.53510 0.48360 0.03810
C53 C 0.6469(3) 0.4506(3) 0.08069(13)
H36 H 0.68790 0.40680 0.06480
C54 C 0.0799(2) 0.3632(2) 0.15240(13)
C55 C 0.1560(2) 0.4283(2) 0.13180(13)
C56 C 0.1668(3) 0.4602(2) 0.08323(13)
H37 H 0.12750 0.44180 0.06430
C57 C 0.2372(3) 0.5205(3) 0.06292(13)
H38 H 0.24260 0.54500 0.03060
C58 C 0.2994(2) 0.5433(2) 0.09178(12)
C59 C 0.2899(2) 0.5090(2) 0.13971(12)
H39 H 0.33180 0.52390 0.15860
C60 C 0.2182(3) 0.4525(3) 0.15967(13)
H40 H 0.21130 0.43040 0.19210
C61 C 0.7775(3) 0.1018(2) 0.18702(13)
C62 C 0.7054(3) 0.0393(3) 0.18142(13)
C63 C 0.6702(3) -0.0277(2) 0.22040(13)
H41 H 0.69020 -0.03200 0.25010
C64 C 0.6056(2) -0.0876(3) 0.21455(13)
H42 H 0.58260 -0.13270 0.24010
C65 C 0.5759(2) -0.0795(2) 0.17061(13)
C66 C 0.6079(3) -0.0119(2) 0.13169(13)
H43 H 0.58600 -0.00620 0.10230
C67 C 0.6733(3) 0.0467(3) 0.13797(13)
H44 H 0.69580 0.09180 0.11230
C68 C 0.1058(2) 0.0965(2) 0.19117(13)
C69 C 0.1961(2) 0.0210(2) 0.18605(13)
C70 C 0.2571(3) -0.0147(2) 0.22279(13)
H45 H 0.23720 0.00020 0.25200
C71 C 0.3474(2) -0.0723(2) 0.21563(13)
H46 H 0.38830 -0.09630 0.24020
C72 C 0.3779(2) -0.0949(2) 0.17206(13)
C73 C 0.3152(3) -0.0619(3) 0.13600(14)
H47 H 0.33370 -0.07900 0.10710
C74 C 0.2253(3) -0.0034(3) 0.14309(14)
H48 H 0.18390 0.01970 0.11870
C75 C 0.9093(3) 0.3937(3) 0.31314(14)
C76 C 0.8165(2) 0.4671(2) 0.31875(13)
C77 C 0.7900(3) 0.4963(3) 0.36124(14)
H49 H 0.83360 0.47770 0.38480
C78 C 0.6981(3) 0.5535(3) 0.36851(14)
H50 H 0.67830 0.56970 0.39750
C79 C 0.6360(2) 0.5862(2) 0.33118(13)
C80 C 0.6640(3) 0.5593(3) 0.28902(13)
H51 H 0.62190 0.58140 0.26490
C81 C 0.7544(3) 0.4996(3) 0.28145(14)
H52 H 0.77290 0.48190 0.25270
C82 C 0.2347(2) 0.3920(2) 0.31650(12)
C83 C 0.3055(2) 0.4567(2) 0.32161(13)
C84 C 0.3354(3) 0.4523(3) 0.36626(13)
H53 H 0.31120 0.40950 0.39240
C85 C 0.4008(3) 0.5116(3) 0.37150(13)
H54 H 0.42080 0.50820 0.40110
C86 C 0.4368(2) 0.5769(3) 0.33211(13)
C87 C 0.4066(3) 0.5814(3) 0.28835(13)
H55 H 0.42970 0.62540 0.26240
C88 C 0.3421(3) 0.5211(2) 0.28261(13)
H56 H 0.32350 0.52370 0.25290
C89 C 1.2452(3) 0.0778(3) 0.36381(13)
C90 C 1.3354(3) 0.0146(2) 0.38541(12)
C91 C 1.3985(3) -0.0470(3) 0.36069(13)
H57 H 1.37980 -0.05720 0.33310
C92 C 1.4896(2) -0.0939(2) 0.37667(12)
H58 H 1.53200 -0.13450 0.35960
C93 C 1.5170(2) -0.0801(3) 0.41795(12)
C94 C 1.4535(2) -0.0160(3) 0.44071(7)
H59 H 1.47290 -0.00370 0.46780
C95 C 1.3633(3) 0.0303(3) 0.42612(13)
H60 H 1.32170 0.07130 0.44330
C96 C 1.9366(3) 0.1261(3) 0.35076(13)
C97 C 1.8601(3) 0.0618(2) 0.37292(13)
C98 C 1.7981(2) 0.0401(2) 0.34434(12)
H61 H 1.80550 0.06330 0.31200
C99 C 1.7248(3) -0.0163(3) 0.36385(13)
H62 H 1.68260 -0.02970 0.34460
C100 C 1.7152(3) -0.0525(2) 0.41229(13)
C101 C 1.7773(3) -0.0265(3) 0.44133(14)
H63 H 1.76750 -0.04460 0.47390
C102 C 1.8499(3) 0.0246(3) 0.42090(13)
H64 H 1.89470 0.03520 0.43970
Co1 Co 0.93317(3) 0.23434(3) 0.14106(2)
Co2 Co 1.00784(4) 0.24586(3) 0.25207(2)
Co3 Co 1.08254(3) 0.25707(3) 0.36360(2)
N1 N 0.9603(2) 0.2081(2) 0.07187(10)
N2 N 0.8179(3) 0.2060(2) -0.43378(12)
N3 N 1.0624(2) 0.2916(2) 0.43231(11)
N4 N 1.2590(2) 0.2999(2) 0.93206(12)
O1 O 0.89373(17) 0.24978(17) 0.21231(8)
H65 H 0.82850 0.25780 0.22450
O2 O 1.12220(17) 0.24168(17) 0.29255(9)
H66 H 1.15860 0.29420 0.27690
O3 O 0.82266(17) 0.35416(17) 0.11718(9)
O4 O 0.78462(18) 0.41937(17) 0.18094(9)
O5 O 0.38991(17) 0.63473(17) 0.01595(8)
O6 O 0.35171(17) 0.71334(17) 0.08486(8)
O7 O 0.03545(17) 0.33410(17) 0.12664(9)
O8 O 0.06881(18) 0.34644(18) 0.19785(9)
O9 O 0.82373(17) 0.14255(18) 0.15022(9)
O10 O 0.78756(17) 0.10856(18) 0.22840(9)
O11 O 0.51072(17) -0.16237(17) 0.11298(9)
O12 O 0.51338(16) -0.24892(17) 0.19663(9)
O13 O 0.04537(17) 0.11773(17) 0.15918(9)
O14 O 0.09402(17) 0.13004(17) 0.22792(9)
O15 O 0.92027(16) 0.36097(17) 0.27711(9)
O16 O 0.96642(17) 0.37071(17) 0.34614(9)
O17 O 0.50378(17) 0.74213(18) 0.30472(9)
O18 O 0.50355(18) 0.65920(17) 0.38904(9)
O19 O 0.22325(19) 0.38489(17) 0.27542(9)
O20 O 0.19111(17) 0.34950(17) 0.35337(9)
O21 O 1.19086(18) 0.13520(18) 0.38796(9)
O22 O 1.22836(19) 0.07163(18) 0.32364(9)
O23 O 1.62850(17) -0.14620(17) 0.48724(9)
O24 O 1.66366(17) -0.22149(17) 0.41819(9)
O25 O 1.98157(17) 0.15540(17) 0.37775(9)
O26 O 1.94862(17) 0.14379(17) 0.30693(9)
S1 S 0.38254(6) 0.62493(6) 0.06574(3)
S2 S 0.49703(6) -0.15783(6) 0.16130(3)
S3 S 0.51757(6) 0.65285(6) 0.34061(3)
S4 S 1.63346(6) -0.13559(6) 0.43710(3)
C103 C 0.4338(3) 0.2831(3) 0.02368(17)
H67 H 0.47910 0.30110 -0.00140
C104 C 0.4592(4) 0.2717(3) 0.06822(16)
H68 H 0.52150 0.28110 0.07320
C105 C 0.3942(3) 0.2467(3) 0.10546(15)
C106 C 0.3015(3) 0.2303(3) 0.09887(16)
H69 H 0.24950 0.21260 0.12030
C107 C 0.2770(3) 0.2406(3) 0.05193(16)
H70 H 0.21630 0.22820 0.04640
C108 C 0.4184(3) 0.2389(3) 0.15560(14)
C109 C 0.3527(3) 0.2029(3) 0.19212(15)
H71 H 0.29520 0.17910 0.19060
C110 C 0.3698(3) 0.1998(3) 0.23797(15)
H72 H 0.32690 0.17380 0.26250
C111 C 0.4491(3) 0.2347(3) 0.24780(15)
C112 C 0.5178(3) 0.2722(3) 0.21115(15)
C113 C 0.4979(3) 0.2734(3) 0.16560(16)
H73 H 0.54060 0.29870 0.14080
C114 C 0.5947(3) 0.3049(3) 0.23094(14)
H74 H 0.59370 0.37550 0.21970
H75 H 0.65930 0.27000 0.22280
C115 C 0.5696(3) 0.2798(3) 0.28334(15)
C116 C 0.4842(3) 0.2431(3) 0.29286(15)
C117 C 0.4423(3) 0.2180(3) 0.33822(15)
H76 H 0.38240 0.19520 0.34370
C118 C 0.4896(3) 0.2269(3) 0.37522(15)
H77 H 0.46240 0.20960 0.40590
C119 C 0.5793(3) 0.2623(3) 0.36606(15)
C120 C 0.6177(3) 0.2873(3) 0.32051(14)
H78 H 0.67780 0.30990 0.31460
C121 C 0.7849(3) 0.2494(3) 0.44058(15)
H79 H 0.85300 0.24590 0.43700
C122 C 0.7360(3) 0.2594(3) 0.40254(16)
H80 H 0.77000 0.26410 0.37310
C123 C 0.6330(3) 0.2627(3) 0.40709(15)
C124 C 0.5825(3) 0.2628(3) 0.45114(15)
H81 H 0.51430 0.26840 0.45450
C125 C 0.6347(4) 0.2545(3) 0.48986(16)
H82 H 0.60100 0.25590 0.51900
N5 N 0.3432(3) 0.2688(2) 0.01479(13)
H83 H 0.32800 0.27740 -0.01360
N6 N 0.7369(3) 0.2441(2) 0.48532(12)
H84 H 0.76980 0.23460 0.50950
C126 C 0.4351(3) 0.8984(3) 1.00069(16)
H85 H 0.43270 0.85810 0.97880
H86 H 0.43350 0.85860 1.03210
H87 H 0.49490 0.92590 0.99400
C127 C 0.3507(3) 0.9783(3) 0.99641(16)
N7 N 0.2852(2) 1.0430(2) 0.99199(14)
Co1* Co -0.06683(3) 0.23434(3) 0.14106(2)
Co2* Co 0.00784(4) 0.24586(3) 0.25207(2)
Co2** Co 2.00784(4) 0.24586(3) 0.25207(2)
Co3* Co 0.08254(3) 0.25707(3) 0.36360(2)
Co3** Co 2.08254(3) 0.25707(3) 0.36360(2)
O7* O 1.03545(17) 0.33410(17) 0.12664(9)
O8* O 1.06881(18) 0.34644(18) 0.19785(9)
O13* O 1.04537(17) 0.11773(17) 0.15918(9)
O14* O 1.09402(17) 0.13004(17) 0.22792(9)
O20* O 1.19111(17) 0.34950(17) 0.35337(9)
O25* O 0.98157(17) 0.15540(17) 0.37775(9)
O26* O 0.94862(17) 0.14379(17) 0.30693(9)
#END
