
#######################################################################
#
#                 Cambridge Crystallographic Data Centre
#                                CCDC
#
#######################################################################
#
# If this CIF has been generated from an entry in the Cambridge
# Structural Database, then it will include bibliographic, chemical,
# crystal, experimental, refinement or atomic coordinate data resulting
# from the CCDC's data processing and validation procedures.
#
#######################################################################

data_CSD_CIF_JUPXID
_audit_creation_date 2015-08-17
_audit_creation_method CSD-ConQuest-V1
_database_code_CSD JUPXID
_database_code_depnum_ccdc_archive 'CCDC 1418987'
_chemical_formula_sum 'C24 H51 Cd2 Mo18 N24 O86 P6 Sr1'
_chemical_formula_moiety
;
2(C8 H8 N8 2+),n(C8 H17 Cd2 Mo18 N8 O77 P6 Sr1 4-),9(H2 O1)
;
_journal_coden_Cambridge 1078
_journal_year 2015
_journal_name_full 'CSD Communication(Private Communication) '
loop_
_publ_author_name
"Zhaoyi Chen"
"Kai Yu"
"Baibin Zhou"
_chemical_name_systematic
;
catena-[bis(2-((1H,1'H-[3,3'-bi-1,2,4-triazole])-5-yl)pyrazine-1,4-diium) 
hexakis(\m-phosphato)-triacontakis(\m-oxo)-tetra-aqua-nonadeca-oxo-(2-(3-(1H-1
,2,4-triazol-2-ium-3-yl)-1H-1,2,4-triazol-5-yl)pyrazine-1,4-diium)-di-cadmium-
penta-molybdenum(v)-trideca-molybdenum(vi)-strontium nonahydrate]
;
_cell_volume  10396.148
_exptl_crystal_colour 'black'
_exptl_crystal_density_diffrn 2.725
_exptl_crystal_description 'block'
_diffrn_ambient_temperature 293
#These two values have been output from a single CSD field.
_refine_ls_R_factor_gt 0.0659
_refine_ls_wR_factor_gt 0.0659
_symmetry_cell_setting monoclinic
_symmetry_space_group_name_H-M 'P 21/n'
_symmetry_Int_Tables_number 14
loop_
_symmetry_equiv_pos_site_id
_symmetry_equiv_pos_as_xyz
1 x,y,z
2 1/2-x,1/2+y,1/2-z
3 -x,-y,-z
4 -1/2+x,-1/2-y,-1/2+z
_cell_length_a 18.271(6)
_cell_length_b 14.132(5)
_cell_length_c 40.470(13)
_cell_angle_alpha 90
_cell_angle_beta 95.797(7)
_cell_angle_gamma 90
_cell_formula_units_Z 4
loop_
_atom_type_symbol
_atom_type_radius_bond
C 0.68
H 0.23
Cd 1.44
Mo 1.54
N 0.68
O 0.68
P 1.05
Sr 1.95
loop_
_atom_site_label
_atom_site_type_symbol
_atom_site_fract_x
_atom_site_fract_y
_atom_site_fract_z
Mo1 Mo 0.78385(4) 0.32259(6) 0.617295(19)
Mo2 Mo 0.64183(4) 0.31750(6) 0.743606(19)
Mo3 Mo 0.21366(4) 0.17827(6) 0.64614(2)
Mo4 Mo 0.80393(4) 0.25854(6) 0.697776(19)
Mo5 Mo 0.57692(4) 0.27587(6) 0.526267(19)
Mo6 Mo 0.37655(4) 0.02799(6) 0.638386(19)
Mo7 Mo 0.57897(4) -0.00728(5) 0.638973(19)
Mo8 Mo 0.23238(4) 0.41707(6) 0.62506(2)
Mo9 Mo 0.55962(4) 0.04365(6) 0.54898(2)
Mo10 Mo 0.37440(4) 0.31495(6) 0.528138(19)
Mo11 Mo 0.76598(4) 0.08496(6) 0.641146(19)
Mo12 Mo 0.35686(4) 0.08635(6) 0.54823(2)
Mo13 Mo 0.74280(4) 0.14777(6) 0.559784(19)
Mo14 Mo 0.24490(4) 0.34534(6) 0.70579(2)
Cd1 Cd 0.68888(4) 0.57477(5) 0.738266(18)
Mo15 Mo 0.43849(4) 0.34726(6) 0.74647(2)
Mo16 Mo 0.20643(4) 0.24680(6) 0.56474(2)
Mo17 Mo 0.61113(4) 0.45149(6) 0.593935(19)
Sr1 Sr 0.51317(5) 0.27920(6) 0.66993(2)
Mo18 Mo 0.41001(4) 0.48683(6) 0.59699(2)
Cd2 Cd 0.40516(5) 0.01520(7) 0.77162(2)
P1 P 0.37702(12) 0.25520(17) 0.61123(6)
P2 P 0.60542(12) 0.21418(16) 0.60897(5)
P3 P 0.38381(13) 0.48044(17) 0.67749(6)
P4 P 0.65835(12) 0.10975(16) 0.70478(6)
P5 P 0.36091(13) 0.15307(17) 0.70700(6)
P6 P 0.67994(12) 0.43098(17) 0.67305(6)
O1 O 0.4565(4) 0.0646(5) 0.54579(16)
O2 O 0.4758(3) 0.0051(5) 0.64276(16)
O3 O 0.5371(4) 0.3290(5) 0.73821(17)
O4 O 0.2009(3) 0.3174(5) 0.65828(16)
O5 O 0.4185(3) 0.3463(5) 0.62075(16)
O6 O 0.8146(3) 0.2158(5) 0.65027(15)
O7 O 0.5127(4) 0.4792(5) 0.59794(16)
O8 O 0.5755(3) 0.1486(5) 0.63459(16)
O9 O 0.3955(3) 0.4184(5) 0.55684(16)
O10 O 0.5618(3) -0.0051(5) 0.59235(16)
O11 O 0.4058(3) 0.1783(5) 0.63567(16)
O12 O 0.6867(3) 0.0096(5) 0.63515(16)
O13 O 0.7392(4) 0.2930(5) 0.72724(16)
O14 O 0.6904(3) 0.2004(5) 0.60900(15)
O15 O 0.2962(4) 0.2082(5) 0.68682(16)
O16 O 0.7151(3) 0.3982(5) 0.59646(16)
O17 O 0.2730(3) 0.0824(5) 0.63767(16)
O18 O 0.7953(3) 0.0798(5) 0.59972(16)
O19 O 0.6079(4) 0.0328(5) 0.68717(16)
O20 O 0.6413(4) 0.4820(5) 0.64253(16)
O21 O 0.6223(4) 0.3832(5) 0.69243(16)
O22 O 0.7157(3) 0.1456(5) 0.68070(16)
O23 O 0.4404(4) 0.4149(5) 0.69561(17)
O24 O 0.6642(4) 0.4277(5) 0.75968(17)
O25 O 0.4153(4) 0.5212(5) 0.64634(17)
O26 O 0.3370(4) 0.1175(5) 0.73963(16)
O27 O 0.1806(4) 0.5092(5) 0.63575(19)
O28 O 0.3012(4) 0.4699(5) 0.60297(17)
O29 O 0.3125(4) 0.4199(5) 0.66707(16)
O30 O 0.7265(4) 0.5007(5) 0.69429(18)
O31 O 0.3983(4) 0.5981(5) 0.58353(19)
O32 O 0.5612(4) -0.0575(5) 0.52734(18)
O33 O 0.6715(4) 0.0596(5) 0.55549(16)
O34 O 0.1614(3) 0.1898(5) 0.60646(17)
O35 O 0.1747(4) 0.3658(5) 0.59023(17)
O36 O 0.3879(4) 0.2254(5) 0.57539(16)
O37 O 0.6853(4) 0.2396(5) 0.53866(16)
O38 O 0.3176(4) -0.0047(6) 0.52593(18)
O39 O 0.4264(3) 0.2198(5) 0.71257(16)
O40 O 0.3819(4) 0.0674(5) 0.68693(16)
O41 O 0.8084(3) 0.2556(5) 0.58224(16)
O42 O 0.4746(4) 0.2922(5) 0.52395(16)
O43 O 0.8672(4) 0.3471(5) 0.70007(18)
O44 O 0.3640(4) 0.5630(5) 0.69888(19)
O45 O 0.5651(4) 0.1417(5) 0.51357(16)
O46 O 0.6984(4) 0.0702(5) 0.73599(17)
O47 O 0.6106(3) 0.1954(5) 0.71150(16)
O48 O 0.4359(4) 0.2767(6) 0.78028(19)
O49 O 0.3445(4) -0.0833(5) 0.64374(18)
O50 O 0.6376(4) 0.5556(5) 0.57903(18)
O51 O 0.8512(4) 0.1668(5) 0.71850(16)
O52 O 0.5887(3) 0.3165(5) 0.61817(15)
O53 O 0.2676(4) 0.3169(5) 0.54301(17)
O54 O 0.2922(3) 0.2705(5) 0.61306(16)
O55 O 0.7317(3) 0.3506(5) 0.66106(16)
O56 O 0.8563(4) 0.3961(5) 0.62571(18)
O57 O 0.3658(3) 0.0331(5) 0.59225(16)
O58 O 0.5950(4) 0.3229(6) 0.48938(17)
O59 O 0.1284(4) 0.2398(5) 0.53822(17)
O60 O 0.5910(3) 0.3814(5) 0.55478(16)
O61 O 0.2530(4) 0.1367(5) 0.56004(16)
O62 O 0.8024(4) 0.1162(5) 0.53213(17)
O63 O 0.6539(4) 0.2474(5) 0.77777(18)
O64 O 0.5702(3) 0.1897(5) 0.57383(16)
O65 O 0.5843(4) -0.1240(5) 0.64687(18)
O66 O 0.4453(4) 0.4576(6) 0.7634(2)
O67 O 0.3486(4) 0.1850(5) 0.51616(16)
O68 O 0.3303(4) 0.3542(5) 0.73320(17)
O69 O 0.2040(4) 0.4536(6) 0.71085(19)
O70 O 0.1519(4) 0.1299(5) 0.66940(18)
O71 O 0.3485(4) 0.3710(6) 0.49191(17)
O72 O 0.8297(4) 0.0184(5) 0.66294(17)
O73 O 0.1920(4) 0.2713(5) 0.72600(18)
N1 N 0.4602(6) -0.1015(8) 0.8094(3)
O74 O 0.6780(6) 0.7076(7) 0.7064(2)
H1 H 0.63620 0.72410 0.69700
H2 H 0.71580 0.74080 0.70390
O75 O 0.5152(5) 0.0765(7) 0.7581(3)
H3 H 0.55560 0.05360 0.76680
H4 H 0.51540 0.12210 0.74440
N2 N 0.4305(7) -0.1200(9) 0.7413(3)
N3 N 0.4885(6) -0.2514(9) 0.8174(3)
N4 N 0.4737(6) -0.1168(9) 0.8430(3)
C1 C 0.4703(8) -0.1854(11) 0.7945(3)
C2 C 0.4589(8) -0.194(1) 0.7594(3)
O76 O 0.3998(6) 0.1151(8) 0.8125(3)
H5 H 0.41560 0.09920 0.83210
H6 H 0.38180 0.17000 0.80870
N5 N 0.4719(7) -0.2687(9) 0.7419(3)
H7 H 0.48730 -0.32360 0.74850
C3 C 0.4894(8) -0.2065(12) 0.8471(4)
C4 C 0.5071(7) -0.2538(9) 0.8799(3)
N6 N 0.4549(8) -0.2369(10) 0.7106(3)
H8 H 0.46150 -0.26820 0.69290
O77 O 0.5612(4) 0.5675(6) 0.7227(2)
H9 H 0.53680 0.51920 0.72760
H10 H 0.53950 0.61330 0.71220
N7 N 0.5111(7) -0.2034(11) 0.9075(3)
H11 H 0.50230 -0.14480 0.90300
C5 C 0.4275(9) -0.1530(12) 0.7110(4)
H12 H 0.40810 -0.12010 0.69220
C6 C 0.5236(7) -0.3464(10) 0.8863(3)
H13 H 0.52440 -0.39250 0.87000
N8 N 0.5397(7) -0.3652(11) 0.9217(3)
H14 H 0.54990 -0.42230 0.92790
C7 C 0.5395(10) -0.3026(9) 0.9435(4)
H15 H 0.55210 -0.32300 0.96520
C8 C 0.5247(10) -0.2160(11) 0.9403(4)
H16 H 0.52350 -0.17080 0.95690
N9 N 0.0404(6) 0.7570(9) 0.5189(3)
N10 N -0.1710(6) 0.6637(9) 0.5373(3)
C9 C -0.2212(6) 0.6216(8) 0.5544(3)
H17 H -0.27090 0.61530 0.54700
C10 C -0.0398(6) 0.6904(9) 0.5493(3)
N11 N -0.0321(6) 0.7337(9) 0.5201(3)
C11 C -0.1112(6) 0.6538(9) 0.5576(3)
N12 N 0.0245(6) 0.6833(9) 0.5673(3)
N13 N -0.1186(6) 0.6084(9) 0.5864(3)
C12 C 0.1501(6) 0.7362(9) 0.5577(3)
C13 C 0.1944(6) 0.7819(10) 0.5364(3)
H18 H 0.17470 0.80460 0.51580
C14 C 0.0709(6) 0.7263(9) 0.5474(3)
C15 C 0.2965(6) 0.7637(9) 0.5759(3)
H19 H 0.34610 0.77410 0.58250
N14 N 0.1827(7) 0.7049(10) 0.5878(3)
H20 H 0.15700 0.67570 0.60130
C16 C 0.2566(7) 0.7204(10) 0.5965(4)
H21 H 0.27840 0.69990 0.61700
N15 N -0.1901(6) 0.5901(9) 0.5834(3)
H22 H -0.21310 0.56190 0.59810
N16 N 0.2693(8) 0.7924(10) 0.5469(4)
H23 H 0.29770 0.81840 0.53390
O78 O 0.4404(9) 0.8174(12) 0.5902(4)
H24 H 0.40320 0.81770 0.60130
H25 H 0.44660 0.86210 0.57670
O79 O 0.3116(5) 0.5635(7) 0.7605(2)
H26 H 0.31570 0.61390 0.77200
H27 H 0.27220 0.53120 0.75960
O80 O 0.5228(6) 0.5621(8) 0.8107(3)
H28 H 0.47660 0.57070 0.80830
H29 H 0.54730 0.57360 0.82930
O81 O 0.6226(8) 0.8700(8) 0.7272(3)
H30 H 0.57690 0.87930 0.72820
H31 H 0.65390 0.90940 0.73590
O82 O 0.8687(6) 0.5596(8) 0.6889(3)
H32 H 0.83840 0.59640 0.69710
H33 H 0.91470 0.56680 0.69400
O83 O 0.9779(8) 0.5673(10) 0.6423(4)
H34 H 0.99860 0.57340 0.66190
H35 H 0.99030 0.60310 0.62690
O84 O 0.2489(7) 0.6858(9) 0.6818(3)
H36 H 0.23480 0.67930 0.70110
H37 H 0.22360 0.71900 0.66730
C17 C 0.7894(9) 0.856(1) 0.5790(5)
H38 H 0.82360 0.88600 0.56710
C18 C 0.8100(9) 0.8249(12) 0.6112(5)
N17 N 0.7589(12) 0.7801(12) 0.6291(5)
H39 H 0.77170 0.76080 0.64900
C19 C 0.6873(11) 0.7664(12) 0.6148(6)
H40 H 0.65310 0.73640 0.62680
C20 C 0.6667(8) 0.7976(13) 0.5827(6)
H41 H 0.61880 0.78840 0.57310
N18 N 0.7178(9) 0.8424(11) 0.5648(5)
H42 H 0.70500 0.86160 0.54490
C21 C 0.9981(6) 0.8578(7) 0.6301(3)
N19 N 0.9743(8) 0.8085(10) 0.6577(4)
N20 N 0.8976(8) 0.7915(10) 0.6511(5)
C22 C 0.8740(6) 0.8303(11) 0.6194(5)
N21 N 0.9361(7) 0.8713(10) 0.6065(4)
C23 C 1.1880(7) 0.9221(12) 0.6270(5)
H43 H 1.23580 0.92220 0.63750
N22 N 1.1247(6) 0.887(1) 0.6406(4)
C24 C 1.0632(7) 0.9003(7) 0.6167(3)
N23 N 1.0885(9) 0.9437(11) 0.5883(4)
N24 N 1.1657(9) 0.9572(12) 0.5947(5)
H44 H 1.19390 0.98220 0.58130
O85 O 0.5396(9) 0.7275(12) 0.5576(4)
H45 H 0.50460 0.74440 0.56860
H46 H 0.54680 0.75650 0.53980
O86 O 0.8676(17) 0.464(2) 0.4991(8)
H47 H 0.84120 0.50630 0.48870
H48 H 0.90600 0.44390 0.49130
Cd1A Cd 0.81112(4) 0.07477(5) 0.761734(18)
Cd2A Cd 0.09484(5) 0.51520(7) 0.72838(2)
O46A O 0.8016(4) 0.5702(5) 0.76401(17)
O51A O 0.6488(4) 0.6668(5) 0.78150(16)
O69A O 0.2960(4) -0.0464(6) 0.78915(19)
#END
