
#######################################################################
#
#                 Cambridge Crystallographic Data Centre
#                                CCDC
#
#######################################################################
#
# If this CIF has been generated from an entry in the Cambridge
# Structural Database, then it will include bibliographic, chemical,
# crystal, experimental, refinement or atomic coordinate data resulting
# from the CCDC's data processing and validation procedures.
#
#######################################################################

data_CSD_CIF_JUQPIW
_audit_creation_date 2015-08-17
_audit_creation_method CSD-ConQuest-V1
_database_code_CSD JUQPIW
_database_code_depnum_ccdc_archive 'CCDC 1056921'
_chemical_formula_sum 'C152 H120 Cd8 N4 O54'
_chemical_formula_moiety
;
(C140 H80 Cd8 O50 4-)n,4(C3 H10 N1 O1 1+)
;
_journal_coden_Cambridge 182
_journal_volume 51
_journal_year 2015
_journal_page_first 14481
_journal_name_full 'Chem.Commun. '
loop_
_publ_author_name
"Yun-Hu Han"
"Yue-Cheng Liu"
"Xiu-Shuang Xing"
"Chong-Bin Tian"
"Ping Lin"
"Shao-Wu Du"
_chemical_name_systematic
;
catena-[tetrakis(1-hydroxypropan-2-aminium) 
decakis(\m~4~-4,4'-oxydibenzoato)-octa-cadmium]
;
_cell_volume   7533.224
_exptl_crystal_colour 'colorless'
_exptl_crystal_density_diffrn 1.66
_exptl_crystal_description 'Prism'
_diffrn_ambient_temperature 293
#These two values have been output from a single CSD field.
_refine_ls_R_factor_gt 0.0859
_refine_ls_wR_factor_gt 0.0859
_symmetry_cell_setting monoclinic
_symmetry_space_group_name_H-M 'P 21'
_symmetry_Int_Tables_number 4
loop_
_symmetry_equiv_pos_site_id
_symmetry_equiv_pos_as_xyz
1 x,y,z
2 -x,1/2+y,-z
_cell_length_a 17.6560(11)
_cell_length_b 16.2741(18)
_cell_length_c 26.219(3)
_cell_angle_alpha 90
_cell_angle_beta 90.609(7)
_cell_angle_gamma 90
_cell_formula_units_Z 2
loop_
_atom_type_symbol
_atom_type_radius_bond
C 0.68
H 0.23
Cd 1.44
N 0.68
O 0.68
loop_
_atom_site_label
_atom_site_type_symbol
_atom_site_fract_x
_atom_site_fract_y
_atom_site_fract_z
Cd1 Cd 0.12704(4) 0.97646(5) 0.14757(3)
Cd2 Cd 0.86518(4) 0.43401(5) 0.14298(3)
Cd3 Cd 0.37085(4) 0.97196(6) 0.64326(3)
Cd4 Cd 0.36844(4) 0.93533(5) 0.35525(3)
Cd5 Cd 0.39837(4) 0.95303(5) 0.49935(3)
Cd6 Cd 0.10231(4) 0.93674(6) 0.00474(3)
Cd7 Cd 0.25446(4) 0.95261(7) 0.74985(3)
Cd8 Cd 0.24650(4) 0.95546(7) 0.25115(3)
O1 O 0.1843(5) 1.0604(5) 0.2080(3)
O2 O 0.8558(5) 1.3072(6) 0.0047(4)
O3 O 1.3158(5) 0.8979(5) 0.4310(3)
O4 O 0.3513(6) 1.0812(5) 0.5033(4)
O5 O 0.3168(5) 1.0537(6) 0.7045(4)
O6 O 0.1829(5) 0.9999(6) 0.0715(4)
O7 O 1.3497(5) 0.8238(5) 0.4986(4)
O8 O 0.3159(5) 1.0082(6) 0.5674(3)
O9 O 0.1640(6) 1.0592(6) -0.0016(4)
O10 O -0.0508(4) 1.4239(6) 0.7949(3)
O11 O 0.3091(5) 0.8523(5) 0.2944(4)
O12 O 0.5221(5) 1.4895(11) 0.4069(4)
O13 O -0.0278(4) 0.4246(6) 0.0940(4)
O14 O 0.3526(4) 1.0217(7) 0.2392(4)
O15 O 0.4414(5) 0.9996(5) 0.3011(3)
O16 O -0.0188(4) 1.4999(5) 0.9008(3)
O17 O 0.6408(4) 1.3773(6) 0.2470(4)
O18 O -0.1390(5) 1.3885(7) 0.7375(4)
O19 O 0.9061(6) 1.2870(7) 0.1715(4)
O20 O 0.5494(5) 1.4175(7) 0.3010(3)
O21 O 0.2546(6) 0.9137(6) 0.1680(3)
O22 O 0.4106(7) 1.1175(6) 0.6701(5)
O23 O 0.7998(6) 0.5505(7) 0.1206(4)
O24 O 0.1737(5) 0.8402(8) 0.1214(4)
O25 O 0.9428(5) 0.4952(6) 0.1986(4)
O26 O -0.2398(7) 0.4930(8) 0.6651(4)
C1 C 0.0189(5) 1.4360(8) 0.9159(4)
C2 C 0.4798(6) 1.4326(9) 0.4261(6)
C3 C 0.5965(6) 0.9821(8) 0.4032(4)
C4 C 0.2575(7) 1.3995(10) 0.3626(6)
O27 O 0.2302(8) 0.9153(7) 0.6680(4)
C5 C 0.0961(6) 0.4846(7) 0.0936(5)
O28 O 0.3119(6) 0.8484(7) 0.6203(4)
C6 C 0.1099(7) 0.4593(9) 0.1437(5)
H1 H 0.07210 0.43250 0.16160
O29 O 0.1862(5) 1.3865(7) 0.3409(5)
O30 O 0.3114(5) 1.3791(6) 0.8387(4)
C7 C 0.1172(6) 1.4612(8) 0.8521(4)
H2 H 0.08300 1.49440 0.83450
O31 O 1.1434(6) 0.5582(7) 0.3944(4)
C8 C 0.8400(7) 1.2209(8) 0.2386(5)
O32 O -0.0089(5) 1.3832(7) 0.9444(4)
O33 O 0.1550(6) 1.3559(5) 0.6056(4)
C9 C 1.1762(8) 0.7021(8) 0.3812(6)
H3 H 1.14330 0.70730 0.35340
C10 C 0.3873(7) 1.3118(9) 0.7793(5)
H4 H 0.42500 1.35060 0.78530
O34 O 0.8080(6) 1.0290(8) 0.3413(5)
C11 C 1.2697(7) 0.7621(8) 0.4386(5)
C12 C 1.3142(6) 0.8317(8) 0.4566(5)
C13 C 0.8819(6) 1.0953(8) 0.2797(5)
H5 H 0.91830 1.05460 0.28450
O35 O 0.0804(6) 1.1167(7) 0.1797(4)
C14 C 0.2341(7) 1.1384(11) 0.0608(5)
C15 C 0.2222(7) 1.1411(8) 0.6005(5)
H6 H 0.21450 1.08970 0.61510
C16 C 0.6173(7) 0.9502(14) 0.3550(5)
H7 H 0.58370 0.91680 0.33690
C17 C 0.3407(6) 0.7237(8) 0.2591(5)
C18 C 0.2635(7) 1.2566(10) 0.7968(6)
H8 H 0.21770 1.25990 0.81380
C19 C 0.2471(10) 1.292(1) 0.5587(7)
H9 H 0.25530 1.34330 0.54400
C20 C 0.1505(7) 1.1914(7) 0.2421(5)
C21 C 0.3106(7) 1.4428(11) 0.3349(5)
H10 H 0.29840 1.46540 0.30330
C22 C 0.3208(9) 1.2003(12) 0.1205(5)
H11 H 0.35390 1.19630 0.14820
C23 C 0.9200(6) 0.5171(7) 0.2413(5)
C24 C 0.1363(6) 1.1201(8) 0.2070(5)
C25 C 0.3176(7) 1.3162(8) 0.8052(6)
C26 C 0.7372(8) 0.5397(9) 0.1375(5)
O36 O 0.3477(8) 1.3467(7) 0.1052(5)
C27 C 0.5727(7) 1.3883(10) 0.2580(5)
O37 O 0.6531(8) 1.0453(8) 0.1123(5)
C28 C 0.7188(6) 1.2634(10) 0.1026(5)
H12 H 0.70930 1.31470 0.11670
O38 O 0.4978(6) 1.0108(8) 0.4588(5)
C29 C 0.2792(6) 1.1348(11) 0.1045(6)
H13 H 0.28080 1.08630 0.12330
C30 C 0.1799(7) 1.3218(8) 0.3069(5)
C31 C 0.4817(6) 1.0346(8) 0.2190(5)
C32 C 0.3150(7) 1.0764(8) 0.5451(5)
C33 C 0.5130(6) 1.3718(8) 0.2181(5)
C34 C 0.3982(8) 1.2486(9) 0.7447(6)
H14 H 0.44310 1.24680 0.72640
C35 C 0.8953(7) 1.1597(9) 0.2454(5)
H15 H 0.94030 1.16180 0.22730
C36 C -0.0124(7) 1.3775(8) 0.7132(5)
C37 C 1.0530(7) 0.5465(8) 0.2686(5)
H16 H 1.06730 0.54430 0.23460
C38 C 0.3439(7) 1.1877(8) 0.7365(5)
C39 C 0.1102(7) 1.3199(8) 0.2799(6)
H17 H 0.07450 1.36150 0.28330
C40 C 0.1802(7) 1.2080(9) 0.6168(5)
H18 H 0.14370 1.20160 0.64180
C41 C 0.1892(7) 1.0603(10) 0.0424(5)
C42 C 0.2385(7) 1.3916(8) 0.8594(5)
C43 C 0.9760(7) 0.5378(8) 0.2815(5)
C44 C 0.7484(9) 1.1037(10) 0.0625(5)
H19 H 0.75980 1.05110 0.05110
C45 C 0.4374(7) 1.3676(8) 0.2305(5)
H20 H 0.42280 1.37360 0.26420
C46 C 1.2187(7) 0.7691(8) 0.3971(5)
H21 H 1.21360 0.81920 0.38020
C47 C 0.0618(7) 1.3683(9) 0.7292(5)
H22 H 0.07330 1.36870 0.76390
C48 C 0.5562(6) 1.0453(8) 0.2344(5)
H23 H 0.56780 1.04620 0.26910
C49 C 0.2201(7) 1.1973(8) 0.2686(6)
H24 H 0.25670 1.15710 0.26370
C50 C 0.2727(8) 1.1498(8) 0.5647(5)
C51 C 0.3596(8) 1.1154(10) 0.7019(6)
C52 C 0.4203(6) 1.0178(8) 0.2562(5)
C53 C 0.1899(7) 1.4468(11) 0.8327(5)
H25 H 0.20580 1.47270 0.80310
C54 C 0.3953(8) 0.6614(8) 0.2520(7)
H26 H 0.44020 0.66300 0.27090
C55 C 0.7714(7) 1.2149(9) 0.2645(5)
H27 H 0.73390 1.25420 0.25900
C56 C 0.7738(6) 1.2522(9) 0.0646(4)
O39 O -0.0033(7) 0.7012(11) 0.5419(5)
C57 C 1.0084(9) 0.5531(11) 0.3698(6)
H28 H 0.99310 0.55750 0.40350
C58 C 0.1196(8) 1.3583(10) 0.6943(6)
H29 H 0.16990 1.35410 0.70470
C59 C 1.0868(8) 0.5591(9) 0.3564(5)
O40 O 0.4924(7) 0.7053(11) 0.0444(4)
C60 C 1.1075(8) 0.5584(9) 0.3064(7)
H30 H 1.15800 0.56590 0.29770
C61 C 0.6143(7) 1.0546(8) 0.1994(6)
H31 H 0.66430 1.06360 0.20960
C62 C -0.0720(7) 1.3983(8) 0.7518(5)
C63 C 0.1931(8) 1.2835(8) 0.5958(5)
C64 C 0.3599(7) 0.7252(8) 0.0496(5)
H32 H 0.35390 0.69290 0.02060
C65 C 0.2972(8) 0.7618(10) 0.0722(6)
H33 H 0.24930 0.75400 0.05790
C66 C 0.8523(6) 1.2882(7) 0.2029(5)
C67 C 0.6197(9) 0.6773(13) 0.0494(6)
H34 H 0.62700 0.70980 0.02070
C68 C 0.3118(7) 1.2744(11) 0.0934(5)
C69 C 0.2576(7) 0.6494(8) 0.2021(6)
H35 H 0.21020 0.64320 0.18680
O41 O 0.5002(7) 1.3934(7) 0.4631(6)
C70 C -0.1366(12) 0.6821(12) 0.5466(6)
H36 H -0.14380 0.71380 0.51750
C71 C 0.2756(7) 1.1921(8) 0.7636(5)
H37 H 0.23880 1.15170 0.75920
C72 C 0.1510(8) 1.3775(10) 0.9240(6)
H38 H 0.13930 1.35750 0.95620
C73 C 0.2398(9) 0.8571(9) 0.1359(5)
C74 C 0.6864(8) 0.9681(10) 0.3351(5)
H39 H 0.69830 0.95020 0.30240
C75 C 0.2351(6) 1.2611(9) 0.3017(6)
H40 H 0.28040 1.26360 0.32000
C76 C 0.2269(7) 1.2098(10) 0.0355(5)
H41 H 0.19600 1.21150 0.00660
C77 C 0.3827(7) 1.3543(9) 0.1927(6)
H42 H 0.33180 1.35210 0.20130
C78 C 0.1810(9) 0.8157(9) 0.6164(5)
C79 C 0.2711(6) 0.7151(9) 0.2345(5)
H43 H 0.23320 0.75380 0.23980
C80 C 0.0991(8) 1.3550(9) 0.6444(5)
C81 C -0.1967(10) 0.6427(10) 0.5695(6)
H44 H -0.24500 0.64910 0.55560
C82 C 0.2636(9) 1.2806(10) 0.0507(5)
H45 H 0.25680 1.33000 0.03340
C83 C 0.9578(9) 0.5409(11) 0.3315(7)
H46 H 0.90720 0.53410 0.34010
C84 C 0.3469(9) 1.3832(9) 0.4331(6)
H47 H 0.35730 1.36350 0.46570
C85 C 0.5335(7) 1.3624(12) 0.1681(6)
H48 H 0.58400 1.36360 0.15860
C86 C 0.4023(9) 1.3448(11) 0.1457(7)
C87 C 0.0973(7) 1.2524(8) 0.2477(6)
H49 H 0.05170 1.24880 0.22970
C88 C -0.1878(9) 0.595(1) 0.6117(5)
C89 C 0.2891(10) 1.2255(10) 0.5430(6)
H50 H 0.32700 1.23100 0.51890
C90 C 0.7859(8) 1.1681(9) 0.0451(5)
H51 H 0.82130 1.16010 0.01960
C91 C 0.2216(7) 0.5356(10) 0.0859(6)
H52 H 0.25890 0.56060 0.06650
C92 C 0.6789(8) 0.6334(11) 0.0712(5)
H53 H 0.72570 0.63370 0.05520
C93 C -0.0556(9) 0.6247(13) 0.6130(6)
H54 H -0.00800 0.61850 0.62800
C94 C 0.3778(7) 0.8256(11) 0.1366(6)
H55 H 0.38390 0.86000 0.16470
C95 C 0.7211(7) 1.0414(8) 0.4089(6)
H56 H 0.75780 1.07040 0.42720
C96 C 0.2215(8) 1.3590(12) 0.9034(8)
H57 H 0.25540 1.32450 0.92040
O42 O 0.8127(4) 1.3907(6) 0.0678(3)
C97 C 0.4631(8) 1.0330(11) 0.1672(6)
H58 H 0.41290 1.02610 0.15700
C98 C 0.4313(7) 0.7376(10) 0.0709(6)
C99 C 0.4422(10) 0.7876(12) 0.1138(7)
H59 H 0.49050 0.79610 0.12730
O43 O 0.8095(5) 1.3532(5) 0.2050(4)
C100 C 0.1095(15) 0.8177(16) 0.6371(7)
H60 H 0.10460 0.84150 0.66910
C101 C -0.1148(11) 0.5882(10) 0.6334(6)
H61 H -0.10800 0.55720 0.66290
C102 C -0.0302(8) 1.3702(10) 0.6634(5)
H62 H -0.08070 1.36990 0.65300
C103 C 0.2748(8) 1.3721(9) 0.4092(7)
H63 H 0.23770 1.34400 0.42710
C104 C 0.1909(9) 0.7670(9) 0.5711(7)
H64 H 0.23870 0.75910 0.55740
C105 C 0.0575(9) 0.7359(13) 0.5700(6)
C106 C 0.0459(10) 0.7877(13) 0.6144(6)
H65 H -0.00220 0.79940 0.62660
C107 C 0.6011(7) 0.5862(12) 0.1366(6)
H66 H 0.59350 0.55520 0.16590
C108 C -0.0637(14) 0.6727(14) 0.5690(7)
O44 O 0.8500(5) 0.5271(6) 0.2528(5)
O45 O 0.4766(5) 0.9163(7) 0.4032(4)
C109 C 0.4017(7) 1.4258(9) 0.4045(4)
C110 C 0.0252(11) 1.3632(10) 0.6282(6)
H67 H 0.01340 1.36390 0.59360
C111 C 0.0975(5) 1.4251(7) 0.8978(4)
C112 C 0.6716(8) 0.5905(10) 0.1147(5)
C113 C 0.0178(6) 0.4654(7) 0.0701(4)
C114 C 0.5421(8) 0.6292(15) 0.1140(6)
H68 H 0.49500 0.62840 0.12960
C115 C 0.5498(8) 0.6709(13) 0.0717(6)
O46 O 0.7185(7) 0.4840(9) 0.1691(4)
O47 O -0.3186(6) 0.5613(6) 0.6157(4)
C116 C 0.6915(8) 1.1162(10) 0.0983(6)
C117 C 0.6782(10) 1.1913(10) 0.1186(6)
H69 H 0.64150 1.19640 0.14360
O48 O 0.3069(5) 0.5284(7) 0.1594(5)
C118 C 0.8151(6) 1.0919(8) 0.3064(5)
C119 C 0.6516(7) 1.0295(9) 0.4293(6)
H70 H 0.64010 1.05270 0.46070
O49 O 0.4132(9) 0.7958(9) 0.3230(8)
C120 C 0.3144(7) 0.5925(9) 0.1922(6)
C121 C 0.7586(6) 1.1497(9) 0.2988(5)
H71 H 0.71290 1.14560 0.31590
C122 C 0.1808(7) 0.4737(11) 0.1673(6)
H72 H 0.19030 0.45830 0.20090
C123 C 0.5208(7) 0.9704(9) 0.4231(6)
C124 C 0.1528(7) 0.5202(10) 0.0664(6)
H73 H 0.14310 0.53450 0.03260
C125 C 0.7371(7) 1.0113(9) 0.3622(6)
C126 C 0.2454(11) 0.8642(10) 0.6358(6)
C127 C 0.3839(6) 0.5992(8) 0.2180(5)
H74 H 0.42220 0.56130 0.21200
C128 C 0.5930(9) 1.0496(9) 0.1475(6)
C129 C 0.8164(6) 1.3202(9) 0.0442(4)
C130 C 0.3836(7) 1.4517(13) 0.3563(5)
H75 H 0.42110 1.47610 0.33680
C131 C 0.3053(8) 0.8102(9) 0.1162(5)
C132 C 1.1823(9) 0.6273(10) 0.4063(6)
C133 C 0.4740(9) 1.3506(15) 0.1311(6)
H76 H 0.48570 1.34690 0.09660
C134 C 1.2744(10) 0.6856(10) 0.4638(7)
H77 H 1.30530 0.67980 0.49250
C135 C 0.1266(10) 0.7320(13) 0.5483(7)
H78 H 0.13150 0.70510 0.51720
C136 C 0.2360(6) 0.5121(9) 0.1383(6)
C137 C 0.3567(8) 0.7938(8) 0.2932(5)
C138 C -0.2526(10) 0.5497(9) 0.6331(5)
C139 C 0.5214(8) 1.0420(12) 0.1291(6)
H79 H 0.51040 1.04240 0.09440
C140 C 1.2323(10) 0.6183(11) 0.4455(7)
H80 H 1.23890 0.56700 0.46050
O50 O 0.0058(6) 0.4945(9) 0.0264(4)
O51 O 0.0410(5) 0.6429(6) -0.0048(4)
H81 H 0.02670 0.59730 0.00440
N1 N 0.0349(6) 0.6709(7) -0.1111(4)
C141 C -0.0701(9) 0.7639(9) -0.1020(6)
H82 H -0.05540 0.79280 -0.13220
H83 H -0.09560 0.80090 -0.07940
H84 H -0.10360 0.71970 -0.11110
C142 C -0.0215(10) 0.6867(13) -0.0279(6)
H85 H -0.04020 0.72660 -0.00370
H86 H -0.06210 0.64810 -0.03500
C143 C -0.0020(8) 0.7303(9) -0.0762(5)
H87 H 0.03320 0.77530 -0.06850
N2 N 0.0539(5) 0.7280(7) 0.0895(4)
C144 C -0.0657(8) 0.6857(16) 0.1275(7)
H88 H -0.09070 0.65690 0.15500
H89 H -0.08360 0.74210 0.12710
O52 O -0.0828(9) 0.6479(11) 0.0810(5)
H90 H -0.11780 0.61540 0.08480
C145 C 0.0441(9) 0.7258(12) 0.1840(6)
H91 H 0.09820 0.72280 0.18710
H92 H 0.02140 0.69900 0.21270
H93 H 0.02860 0.78230 0.18310
C146 C 0.0191(9) 0.6840(9) 0.1360(5)
H94 H 0.03650 0.62680 0.13670
C147 C 0.5705(16) 0.1413(17) -0.3877(10)
H95 H 0.58730 0.15990 -0.35470
H96 H 0.61310 0.12120 -0.40650
H97 H 0.53410 0.09800 -0.38370
N3 N 0.4655(19) 0.2506(16) -0.3877(7)
O53 O 0.4653(9) 0.2430(13) -0.4912(7)
H98 H 0.49120 0.28090 -0.50200
C148 C 0.5132(17) 0.1815(19) -0.4700(7)
H99 H 0.55810 0.17470 -0.49050
H100 H 0.48680 0.12920 -0.46840
C149 C 0.5349(13) 0.2110(14) -0.4160(7)
H101 H 0.57350 0.25380 -0.41960
C150 C 0.5663(14) 0.7045(15) -0.3238(9)
H102 H 0.53850 0.70770 -0.29260
H103 H 0.58470 0.75810 -0.33270
H104 H 0.60830 0.66760 -0.31950
O54 O 0.4153(13) 0.7189(11) -0.4150(7)
H105 H 0.37820 0.74900 -0.41720
C151 C 0.5168(16) 0.6743(11) -0.3644(7)
H106 H 0.49760 0.61960 -0.35580
N4 N 0.5715(14) 0.6684(15) -0.4108(7)
C152 C 0.4516(17) 0.7336(12) -0.3715(9)
H107 H 0.41680 0.72800 -0.34330
H108 H 0.47070 0.78950 -0.37150
Cd1A Cd -0.12704(4) 1.47646(5) 0.85243(3)
Cd2* Cd -0.13482(4) 0.43401(5) 0.14298(3)
Cd2** Cd 0.86518(4) 1.43401(5) 0.14298(3)
Cd3A Cd 0.62915(4) 1.47196(6) 0.35674(3)
Cd4* Cd 1.36844(4) 0.93533(5) 0.35525(3)
Cd4A Cd -0.36844(4) 0.43533(5) 0.64475(3)
Cd5* Cd 1.39837(4) 0.95303(5) 0.49935(3)
Cd5A Cd 0.60163(4) 1.45303(5) 0.50065(3)
Cd6A Cd -0.10231(4) 0.43674(6) -0.00474(3)
Cd6A* Cd -0.10231(4) 1.43674(6) 0.99526(3)
Cd6A** Cd 0.89769(4) 1.43674(6) -0.00474(3)
Cd7A Cd 0.74554(4) 0.45261(7) 0.25015(3)
Cd7A* Cd 0.74554(4) 1.45261(7) 0.25015(3)
Cd8A Cd -0.24650(4) 0.45546(7) 0.74885(3)
Cd8A* Cd -0.24650(4) 1.45546(7) 0.74885(3)
O2A O 0.1442(5) 0.8072(6) -0.0047(4)
O3* O 0.3158(5) 0.8979(5) 0.4310(3)
O7* O 0.3497(5) 0.8238(5) 0.4986(4)
O10A O 0.0508(4) 0.9239(6) 0.2051(3)
O12A O 0.4779(5) 0.9895(11) 0.5931(4)
O13* O 0.9722(4) 0.4246(6) 0.0940(4)
O16A O 0.0188(4) 0.9999(5) 0.0992(3)
O17A O 0.3592(4) 0.8773(6) 0.7530(4)
O18A O 0.1390(5) 0.8885(7) 0.2625(4)
O19* O 0.9061(6) 0.2870(7) 0.1715(4)
O20A O 0.4506(5) 0.9175(7) 0.6990(3)
O26A O 0.2398(7) 0.9930(8) 0.3349(4)
O32A O 0.0089(5) 0.8832(7) 0.0556(4)
O41A O 0.4998(7) 0.8934(7) 0.5369(6)
O42* O 0.8127(4) 0.3907(6) 0.0678(3)
O42A O 0.1873(4) 0.8907(6) -0.0678(3)
O43* O 0.8095(5) 0.3532(5) 0.2050(4)
O43A O 0.1905(5) 0.8532(5) 0.7950(4)
O44A O 0.1500(5) 1.0271(6) 0.7472(5)
O46A O 0.2815(7) 0.9840(9) 0.8309(4)
O47A O 0.3186(6) 1.0613(6) 0.3843(4)
O50A O -0.0058(6) 0.9945(9) -0.0264(4)
#END
