
#######################################################################
#
#                 Cambridge Crystallographic Data Centre
#                                CCDC
#
#######################################################################
#
# If this CIF has been generated from an entry in the Cambridge
# Structural Database, then it will include bibliographic, chemical,
# crystal, experimental, refinement or atomic coordinate data resulting
# from the CCDC's data processing and validation procedures.
#
#######################################################################

data_CSD_CIF_JUQSIZ
_audit_creation_date 2015-08-17
_audit_creation_method CSD-ConQuest-V1
_database_code_CSD JUQSIZ
_database_code_depnum_ccdc_archive 'CCDC 1056922'
_chemical_formula_sum 'C152 H120 Cd8 N4 O54'
_chemical_formula_moiety
;
(C140 H80 Cd8 O50 4-)n,4(C3 H10 N1 O1 1+)
;
_journal_coden_Cambridge 182
_journal_volume 51
_journal_year 2015
_journal_page_first 14481
_journal_name_full 'Chem.Commun. '
loop_
_publ_author_name
"Yun-Hu Han"
"Yue-Cheng Liu"
"Xiu-Shuang Xing"
"Chong-Bin Tian"
"Ping Lin"
"Shao-Wu Du"
_chemical_name_systematic
;
catena-[tetrakis(1-hydroxypropan-2-aminium) 
decakis(\m~2~-4,4'-oxydibenzoato)-octa-cadmium]
;
_cell_volume   7574.714
_exptl_crystal_colour 'colorless'
_exptl_crystal_density_diffrn 1.651
_exptl_crystal_description 'Prism'
_diffrn_ambient_temperature 293
#These two values have been output from a single CSD field.
_refine_ls_R_factor_gt 0.0712
_refine_ls_wR_factor_gt 0.0712
_symmetry_cell_setting monoclinic
_symmetry_space_group_name_H-M 'P 21'
_symmetry_Int_Tables_number 4
loop_
_symmetry_equiv_pos_site_id
_symmetry_equiv_pos_as_xyz
1 x,y,z
2 -x,1/2+y,-z
_cell_length_a 17.745(5)
_cell_length_b 16.263(4)
_cell_length_c 26.250(7)
_cell_angle_alpha 90
_cell_angle_beta 90.775(4)
_cell_angle_gamma 90
_cell_formula_units_Z 2
loop_
_atom_type_symbol
_atom_type_radius_bond
C 0.68
H 0.23
Cd 1.44
N 0.68
O 0.68
loop_
_atom_site_label
_atom_site_type_symbol
_atom_site_fract_x
_atom_site_fract_y
_atom_site_fract_z
Cd1 Cd 0.86439(4) 1.06462(7) 0.14287(2)
Cd2 Cd 1.36911(4) 0.56343(7) 0.35536(2)
Cd3 Cd 1.10244(5) 0.56181(7) 0.00486(3)
Cd4 Cd 1.12669(4) 0.52211(7) 0.14756(2)
Cd5 Cd 1.37099(4) 0.52784(7) 0.64341(2)
Cd6 Cd 1.25452(5) 0.54646(8) 0.75001(3)
Cd7 Cd 1.24668(5) 0.54269(8) 0.25109(3)
Cd8 Cd 1.39925(4) 0.54539(7) 0.49951(3)
O1 O 1.1827(4) 0.4991(5) 0.0714(2)
O2 O 1.1829(4) 0.4386(5) 0.2071(3)
C1 C 1.1822(6) 0.6771(8) -0.0440(3)
O3 O 1.3529(5) 0.4175(5) 0.5025(3)
O4 O 0.6817(5) 0.9467(5) 0.2962(3)
O5 O 1.3173(5) 0.6015(5) 0.4320(3)
O6 O 1.3152(4) 0.4910(5) 0.5680(3)
C2 C 0.9824(6) 0.5632(7) 0.0835(4)
O7 O 1.0179(4) 0.5012(5) 0.0993(3)
O8 O 0.8597(5) 0.1061(7) 0.7365(3)
O9 O 1.6463(5) 0.9775(6) -0.2389(4)
O10 O 0.9723(5) 1.0762(6) 0.0933(3)
O11 O 1.6422(5) 0.1242(6) 0.2478(3)
O12 O 0.9488(4) 0.0742(5) 0.7944(3)
O13 O 0.8521(5) 0.9729(6) 0.2542(4)
O14 O 1.1635(5) 0.4392(6) -0.0011(3)
O15 O 1.5247(5) 0.0194(8) 0.4078(3)
O16 O 1.8088(4) 0.1478(5) 0.2051(3)
O17 O 0.9415(5) 1.0029(5) 0.1983(3)
O18 O 0.7587(6) 1.0066(6) 0.6656(3)
C3 C 0.8835(7) 0.5338(8) 0.1490(3)
H1 H 0.91660 0.49890 0.16620
O19 O 1.2535(5) 0.5848(5) 0.1680(3)
O20 O 1.7206(6) 1.0142(7) 0.1696(3)
O21 O 0.6906(5) 0.6191(6) 0.1622(3)
O22 O 1.8096(6) 0.4721(7) 0.3419(4)
O23 O 1.9050(5) 0.2120(6) 0.1704(3)
C4 C 1.0958(6) 1.0187(7) 0.0936(4)
O24 O 1.1874(5) 0.1101(6) 0.3405(4)
O25 O 1.3118(7) 0.6498(6) 0.6208(3)
C5 C 1.8386(7) 0.2804(7) 0.2388(4)
O26 O 1.0080(4) 0.6162(5) 0.0560(3)
O27 O 0.5886(6) 0.8813(6) 0.3286(4)
O28 O 1.2294(6) 0.5832(6) 0.6690(3)
O29 O 0.6797(5) 0.9374(5) 0.6157(3)
O30 O 1.3065(5) 0.9736(6) 0.1592(4)
C6 C 1.6173(7) 0.5474(10) 0.3531(4)
H2 H 1.58340 0.57890 0.33410
C7 C 0.8096(7) 0.5517(9) 0.1669(4)
H3 H 0.79370 0.52650 0.19670
C8 C 1.5972(6) 0.5175(8) 0.4020(4)
O31 O 1.1439(7) 0.9413(6) 0.3942(4)
O32 O 1.1574(6) 0.1449(5) 0.6067(3)
O33 O 1.1733(5) 0.6585(7) 0.1215(3)
C9 C 1.3164(7) 0.4203(8) 0.5462(4)
C10 C 1.2693(7) 0.7404(7) 0.4378(4)
C11 C 1.4810(7) 0.0682(9) 0.4265(4)
O34 O 1.0769(6) 0.3830(6) 0.1808(3)
C12 C 1.2322(7) 0.3641(9) 0.0605(4)
C13 C 0.9021(7) 0.5732(7) 0.1034(4)
C14 C 0.9877(6) 0.1202(6) 0.7132(4)
O35 O 1.4993(6) 0.4866(7) 0.4600(4)
O36 O 1.8003(5) 0.9480(5) 0.1204(3)
C15 C 1.1099(7) 1.0376(8) 0.1440(4)
H4 H 1.07160 1.06050 0.16330
O37 O 1.5003(7) 0.1072(7) 0.4614(5)
C16 C 1.3152(6) 0.6661(7) 0.4574(4)
C17 C 1.2581(7) 0.0977(8) 0.3611(5)
O38 O 1.0075(5) 1.0050(6) 0.0257(3)
C18 C 1.0604(6) 0.1302(7) 0.7292(4)
H5 H 1.07180 0.13030 0.76390
C19 C 1.1877(8) 0.4346(8) 0.0424(4)
C20 C 1.1719(7) 0.7954(8) 0.3821(4)
H6 H 1.13340 0.78730 0.35820
C21 C 1.0530(6) 0.9530(7) 0.2678(4)
H7 H 1.06740 0.95450 0.23390
C22 C 1.4395(7) 0.1331(8) 0.2299(4)
H8 H 1.42600 0.12700 0.26380
C23 C 1.3174(8) 0.2992(9) 0.1196(5)
H9 H 1.34710 0.30090 0.14910
C24 C 1.2234(8) 0.3561(7) 0.6005(4)
H10 H 1.21460 0.40750 0.61470
C25 C 1.2797(6) 0.7365(8) -0.1028(4)
H11 H 1.28670 0.68490 -0.11730
C26 C 1.1354(7) 0.3810(8) 0.2067(4)
C27 C 0.6831(6) 0.6836(8) 0.1960(4)
C28 C 1.7353(8) 0.9564(7) 0.1357(4)
C29 C 1.1511(7) 0.3069(7) 0.2414(4)
C30 C 1.3057(7) 0.6877(8) 0.1171(4)
C31 C 1.2225(7) 0.7280(8) 0.3981(5)
H12 H 1.22200 0.67800 0.38090
C32 C 1.3581(7) 0.7741(8) 0.0496(4)
H13 H 1.35130 0.80520 0.02020
C33 C 1.1111(7) 0.1805(8) 0.2817(4)
H14 H 1.07370 0.14140 0.28690
C34 C 1.6528(7) 0.4698(8) 0.4301(4)
H15 H 1.64220 0.44770 0.46190
C35 C 0.7381(7) 0.7438(8) 0.2031(5)
H16 H 0.78280 0.74160 0.18500
C36 C 1.2763(6) 0.3493(8) 0.5638(4)
C37 C 1.6724(8) 0.9069(8) 0.1154(4)
C38 C 0.6032(8) 0.7491(8) 0.2550(5)
H17 H 0.55850 0.75000 0.27310
C39 C 1.5152(6) 0.1294(8) 0.2182(4)
C40 C 1.0893(9) 0.9396(7) 0.3551(5)
C41 C 1.1794(7) 0.1737(7) 0.3087(5)
C42 C 0.9275(7) 0.0987(6) 0.7506(4)
C43 C 1.1515(7) 0.9789(10) 0.0662(5)
H18 H 1.14100 0.96200 0.03310
C44 C 1.2490(9) 0.2022(9) 0.5595(5)
H19 H 1.25910 0.14990 0.54700
C45 C 1.5712(7) 0.1087(8) 0.2572(4)
C46 C 1.3112(7) 0.9074(7) 0.1925(4)
C47 C 1.1793(8) 0.6831(8) 0.6154(4)
C48 C 1.7580(6) 0.3483(8) 0.2987(4)
H20 H 1.71200 0.35210 0.31510
O39 O 1.5580(5) 0.9975(5) -0.3011(3)
C49 C 0.8634(9) 0.8158(9) 0.5469(5)
H21 H 0.85700 0.78150 0.51890
C50 C 1.2548(7) 0.8930(8) -0.0623(4)
H22 H 1.24640 0.94560 -0.04970
C51 C 1.2392(7) 0.6414(7) 0.1356(4)
C52 C 1.2435(10) 0.6346(8) 0.6373(4)
C53 C 1.2199(7) 0.2992(7) 0.2679(4)
H23 H 1.25720 0.33850 0.26320
C54 C 1.2801(8) 0.3637(8) 0.1059(4)
H24 H 1.28400 0.41120 0.12550
C55 C 1.2335(9) 0.8798(8) 0.4455(5)
H25 H 1.23860 0.92970 0.46250
O40 O 1.1859(5) 0.6083(5) -0.0669(3)
C56 C 1.3758(7) 0.6750(9) 0.1372(4)
H26 H 1.38040 0.64500 0.16730
C57 C 1.8523(5) 0.2086(6) 0.2024(4)
C58 C 0.6364(10) 0.8803(8) 0.2978(5)
C59 C 1.3465(8) 0.1127(7) 0.4318(5)
H27 H 1.35610 0.12840 0.46530
C60 C 0.7257(8) 0.8065(7) 0.2371(4)
H28 H 0.76300 0.84560 0.24290
C61 C 0.7613(7) 0.6041(8) 0.1422(5)
C62 C 1.3126(8) 0.0563(11) 0.3350(5)
H29 H 1.30220 0.03530 0.30280
C63 C 1.7721(7) 0.2841(7) 0.2664(4)
H30 H 1.73670 0.24230 0.26280
O41 O 1.4900(6) 0.7921(8) 0.0450(3)
O42 O 0.9951(6) 0.7990(9) 0.5420(3)
C64 C 1.3968(7) 0.8356(7) 0.2523(5)
H31 H 1.44240 0.83160 0.27010
C65 C 1.1194(7) 0.1407(8) 0.6934(5)
H32 H 1.16960 0.14540 0.70350
C66 C 1.1954(8) 0.2134(8) 0.5965(4)
C67 C 1.1848(8) 0.8739(8) 0.4051(4)
C68 C 1.3849(8) 0.9458(9) -0.2009(5)
H33 H 1.33590 0.93630 -0.21250
C69 C 1.2765(8) 0.1252(9) 0.4087(6)
H34 H 1.24010 0.15380 0.42680
C70 C 1.2953(8) 0.7391(8) 0.0746(5)
H35 H 1.24680 0.75040 0.06270
C71 C 1.5376(9) 0.9675(10) -0.1678(5)
H36 H 1.58700 0.97800 -0.15730
C72 C 1.2885(8) 0.2716(7) 0.5408(4)
H37 H 1.32180 0.26620 0.51400
C73 C 1.3140(8) 0.2280(9) 0.0917(5)
C74 C 1.3229(9) 0.8056(8) -0.1188(5)
H38 H 1.35960 0.79940 -0.14350
C75 C 1.0976(7) 0.1436(8) 0.6436(4)
C76 C 0.9570(8) 0.9625(10) 0.3329(5)
H39 H 0.90780 0.97420 0.34230
C77 C 1.3098(7) 0.8830(8) -0.0972(5)
C78 C 1.5358(9) 0.1405(9) 0.1690(4)
H40 H 1.58630 0.14170 0.16010
C79 C 1.1889(8) 0.7329(8) 0.5699(4)
H41 H 1.23650 0.73820 0.55590
O43 O 1.5488(5) 0.0815(6) 0.3003(3)
C80 C 0.6140(8) 0.6894(8) 0.2226(5)
H42 H 0.57640 0.65050 0.21690
C81 C 0.9703(8) 0.1285(9) 0.6626(5)
H43 H 0.92000 0.13130 0.65240
C82 C 1.2195(7) 0.9645(8) 0.0862(5)
H44 H 1.25690 0.94040 0.06680
C83 C 0.7806(8) 0.6402(9) 0.0953(6)
H45 H 0.74750 0.67500 0.07800
C84 C 1.1815(8) 0.2890(8) 0.6177(5)
H46 H 1.14530 0.29540 0.64270
C85 C 1.4024(9) 0.9510(8) -0.1472(5)
C86 C 1.2331(7) 0.2352(8) 0.3004(5)
H47 H 1.27920 0.23240 0.31760
C87 C 1.1065(7) 0.9422(8) 0.3076(5)
H48 H 1.15690 0.93670 0.29900
C88 C 1.8810(6) 0.4046(8) 0.2799(4)
H49 H 1.91740 0.44520 0.28420
C89 C 1.0134(7) 0.9452(9) 0.3704(5)
H50 H 1.00060 0.93770 0.40430
C90 C 1.3827(8) 0.1455(9) 0.1940(5)
H51 H 1.33220 0.14760 0.20290
C91 C 1.4776(9) 0.1502(13) 0.1316(5)
H52 H 1.49030 0.15370 0.09740
C92 C 1.7216(7) 0.4584(8) 0.4079(5)
H53 H 1.75860 0.43000 0.42610
C93 C 0.8000(9) 0.8567(8) 0.5684(4)
H54 H 0.75260 0.85210 0.55320
C94 C 1.474(1) 0.9534(11) -0.1304(5)
H55 H 1.48480 0.94640 -0.09590
C95 C 1.6776(7) 0.8648(9) 0.0720(5)
H56 H 1.72410 0.86240 0.05610
C96 C 0.9350(9) 0.8276(10) 0.5685(5)
C97 C 1.1301(8) 0.7711(10) 0.5479(5)
H57 H 1.13720 0.80210 0.51860
C98 C 1.2553(7) 0.8521(7) 0.2025(5)
H58 H 1.20750 0.85910 0.18820
C99 C 1.2259(7) 0.2887(8) 0.0344(4)
H59 H 1.19420 0.28450 0.00600
C100 C 1.0977(8) 0.2434(7) 0.2477(5)
H60 H 1.05300 0.24410 0.22880
C101 C 1.2121(8) 0.8316(8) -0.0450(4)
H61 H 1.17440 0.84110 -0.02140
C102 C 1.0237(8) 0.1327(8) 0.6277(4)
H62 H 1.01160 0.12850 0.59320
C103 C 1.2754(8) 0.8131(9) 0.4615(5)
H63 H 1.30840 0.81870 0.48910
O44 O 1.3508(5) 0.6749(5) 0.4991(3)
C104 C 1.6166(7) 0.8243(10) 0.0492(5)
H64 H 1.62250 0.79470 0.01920
C105 C 1.5997(9) 0.9163(10) 0.1361(5)
H65 H 1.59160 0.95180 0.16330
C106 C 1.0467(10) 0.7149(10) 0.6132(5)
H66 H 0.99930 0.70400 0.62620
C107 C 1.1106(10) 0.6837(12) 0.6353(5)
H67 H 1.10570 0.66050 0.66750
C108 C 0.9400(9) 0.8725(9) 0.6131(4)
H68 H 0.98660 0.87530 0.62960
C109 C 1.5516(7) 0.8289(10) 0.0706(5)
O45 O 1.3086(5) 0.6468(5) 0.2953(3)
C110 C 1.0561(8) 0.7649(13) 0.5693(5)
O46 O 1.3490(7) 0.1531(6) 0.1048(4)
C111 C 1.4445(8) 0.7066(10) 0.1137(6)
H69 H 1.49290 0.69370 0.12520
C112 C 1.5379(9) 0.8692(12) 0.1141(5)
H70 H 1.49100 0.86720 0.12940
C113 C 1.3415(7) 0.7762(7) 0.2591(4)
C114 C 0.6560(7) 0.8122(7) 0.2637(5)
O47 O 1.1435(5) 0.6904(5) -0.0053(3)
C115 C 0.9774(6) 0.9613(7) 0.2813(4)
C116 C 1.4000(6) 0.0767(8) 0.4032(4)
C117 C 1.0178(7) 1.0346(7) 0.0698(4)
O48 O 1.3463(7) 0.9555(7) -0.1111(4)
C118 C 1.8934(7) 0.3377(7) 0.2456(4)
H71 H 1.93850 0.33350 0.22810
O49 O 1.4770(5) 0.5861(6) 0.4028(3)
O50 O 1.4123(6) 0.7034(7) 0.3239(5)
C119 C 1.1803(7) 1.0230(9) 0.1670(4)
H72 H 1.19000 1.03770 0.20070
C120 C 1.2705(6) 0.7838(7) 0.2348(4)
H73 H 1.23360 0.74410 0.24000
C121 C 0.9182(6) 0.9796(7) 0.2402(5)
C122 C 1.3841(7) 0.0458(10) 0.3574(4)
H74 H 1.42100 0.01690 0.34000
C123 C 0.8835(9) 0.9113(9) 0.6336(5)
H75 H 0.89100 0.94400 0.66230
C124 C 1.4411(7) 0.9550(7) -0.2332(4)
H76 H 1.42960 0.95580 -0.26780
C125 C 0.7475(10) 0.9484(8) 0.6324(4)
C126 C 1.4052(8) 0.1544(9) 0.1446(5)
C127 C 1.2339(7) 0.9867(8) 0.1384(4)
C128 C 1.3564(8) 0.7075(7) 0.2928(5)
C129 C 1.5195(8) 0.5308(8) 0.4227(5)
C130 C 1.5786(9) 0.9799(7) -0.2559(4)
C131 C 0.8517(7) 0.6214(8) 0.0757(4)
H77 H 0.86520 0.64130 0.04390
C132 C 1.8136(8) 0.4083(8) 0.3069(4)
C133 C 1.2268(7) 0.7486(8) -0.0647(4)
C134 C 0.8098(7) 0.9026(8) 0.6112(4)
C135 C 1.2664(7) 0.221(1) 0.0507(4)
H78 H 1.26120 0.17090 0.03390
C136 C 1.4289(8) 0.7615(10) 0.0695(5)
C137 C 1.5161(7) 0.9635(8) -0.2183(4)
C138 C 1.3844(7) 0.9009(8) 0.2192(5)
H79 H 1.42180 0.94000 0.21390
C139 C 1.7376(7) 0.4857(8) 0.3624(4)
C140 C 1.6867(8) 0.5294(9) 0.3344(4)
H80 H 1.69940 0.54740 0.30200
O51 O 1.0387(4) 0.8552(5) 0.9947(3)
H81 H 1.02580 0.90140 1.00350
N1 N 1.0370(6) 0.8274(6) 0.8893(4)
C141 C 0.9782(9) 0.8153(9) 0.9724(5)
H82 H 0.93890 0.85500 0.96470
H83 H 0.95810 0.77570 0.99630
C142 C 0.9284(7) 0.7348(7) 0.8960(4)
H84 H 0.94350 0.70830 0.86510
H85 H 0.89370 0.77830 0.88810
H86 H 0.90450 0.69550 0.91780
C143 C 0.9994(7) 0.7713(7) 0.9239(4)
H87 H 1.03390 0.72620 0.93250
O52 O 0.4679(10) 1.2594(11) 0.5051(7)
H88 H 0.49140 1.22130 0.49240
N2 N 0.4676(12) 1.2478(11) 0.6133(6)
C144 C 0.5404(18) 1.346(2) 0.6153(10)
H89 H 0.54900 1.31740 0.64680
H90 H 0.49470 1.37740 0.61740
H91 H 0.58180 1.38240 0.60900
C145 C 0.5187(10) 1.3183(11) 0.5239(8)
H92 H 0.49680 1.37290 0.52200
H93 H 0.56480 1.31780 0.50450
C146 C 0.534(2) 1.294(2) 0.5790(9)
H94 H 0.57940 1.25940 0.57980
N3 N 0.9447(6) 1.2706(6) 0.9099(4)
C147 C 1.0639(9) 1.3171(9) 0.8710(4)
H95 H 1.08340 1.26180 0.86670
H96 H 1.08560 1.35170 0.84500
C148 C 0.9792(8) 1.3159(7) 0.8646(4)
H97 H 0.96010 1.37250 0.86340
C149 C 0.9601(10) 1.2742(11) 0.8172(5)
H98 H 0.90640 1.27430 0.81220
H99 H 0.97790 1.21850 0.81870
H100 H 0.98340 1.30210 0.78930
O53 O 1.0849(7) 1.3463(9) 0.9188(3)
H101 H 1.11950 1.37930 0.91590
O54 O 0.5837(10) 1.281(1) 0.4109(6)
H102 H 0.62060 1.25120 0.41490
N4 N 0.4320(11) 1.3278(13) 0.4140(5)
C150 C 0.5515(18) 1.2668(14) 0.3627(9)
H103 H 0.53670 1.20980 0.35820
H104 H 0.58490 1.28300 0.33550
C151 C 0.4845(13) 1.3228(8) 0.3663(5)
H105 H 0.50100 1.37870 0.35820
C152 C 0.4335(13) 1.2964(15) 0.3268(8)
H106 H 0.46000 1.29230 0.29530
H107 H 0.39330 1.33550 0.32320
H108 H 0.41310 1.24360 0.33550
Cd1* Cd 1.86439(4) 0.06462(7) 0.14287(2)
Cd1** Cd 1.86439(4) 1.06462(7) 0.14287(2)
Cd1A Cd 1.13561(4) 0.56462(7) -0.14287(2)
Cd2A Cd 0.63089(4) 1.06343(7) 0.64464(2)
Cd2A* Cd 1.63089(4) 1.06343(7) -0.35536(2)
Cd3A Cd 0.89756(5) 1.06181(7) -0.00486(3)
Cd4A Cd 0.87331(4) 0.02211(7) 0.85244(2)
Cd5A Cd 0.62901(4) 1.02784(7) 0.35659(2)
Cd5A* Cd 1.62901(4) 0.02784(7) 0.35659(2)
Cd6A Cd 0.74548(5) 1.04646(8) 0.24999(3)
Cd6A* Cd 1.74548(5) 0.04646(8) 0.24999(3)
Cd6A** Cd 1.74548(5) 1.04646(8) 0.24999(3)
Cd7A Cd 0.75332(5) 0.04269(8) 0.74891(3)
Cd7A* Cd 0.75332(5) 1.04269(8) 0.74891(3)
Cd7A** Cd 1.75332(5) 1.04269(8) -0.25109(3)
Cd8A Cd 1.60075(4) 0.04539(7) 0.50049(3)
O4A O 1.3183(5) 0.4467(5) 0.7038(3)
O8A O 1.1403(5) 0.6061(7) 0.2635(3)
O9A O 1.3537(5) 0.4775(6) 0.2389(4)
O11A O 1.3578(5) 0.6242(6) 0.7522(3)
O12A O 1.0512(4) 0.5742(5) 0.2056(3)
O13A O 1.1479(5) 0.4729(6) 0.7458(4)
O15A O 1.4753(5) 0.5194(8) 0.5922(3)
O16* O 0.8088(4) 1.1478(5) 0.2051(3)
O16A O 1.1912(4) 0.6478(5) 0.7949(3)
O18A O 1.2413(6) 0.5066(6) 0.3344(3)
O20* O 0.7206(6) 1.0142(7) 0.1696(3)
O20A O 1.2794(6) 0.5142(7) 0.8304(3)
O23* O 0.9050(5) 1.2120(6) 0.1704(3)
O27A O 1.4114(6) 0.3813(6) 0.6714(4)
O29A O 1.3203(5) 0.4374(5) 0.3843(3)
O36* O 0.8003(5) 0.9480(5) 0.1204(3)
O37A O 1.4997(7) 0.6072(7) 0.5386(5)
O38A O 0.9925(5) 0.5050(6) -0.0257(3)
O39A O 1.4420(5) 0.4975(5) 0.3011(3)
O40A O 0.8141(5) 1.1083(5) 0.0669(3)
O43A O 1.4512(5) 0.5815(6) 0.6997(3)
#END
