
#######################################################################
#
#                 Cambridge Crystallographic Data Centre
#                                CCDC
#
#######################################################################
#
# If this CIF has been generated from an entry in the Cambridge
# Structural Database, then it will include bibliographic, chemical,
# crystal, experimental, refinement or atomic coordinate data resulting
# from the CCDC's data processing and validation procedures.
#
#######################################################################

data_CSD_CIF_JUSPAQ
_audit_creation_date 2015-08-18
_audit_creation_method CSD-ConQuest-V1
_database_code_CSD JUSPAQ
_database_code_depnum_ccdc_archive 'CCDC 675767'
_chemical_formula_sum 'C13 H10 N2 O11 U1'
_chemical_formula_moiety
;
(C10 H3 O10 U1 1-)n,C3 H5 N2 1+,H2 O1
;
_journal_coden_Cambridge 29
_journal_volume 641
_journal_year 2015
_journal_page_first 1744
_journal_name_full 'Z.Anorg.Allg.Chem. '
loop_
_publ_author_name
"Lingling Liang"
"Yige Cai"
"Xiang Li"
"Ronglan Zhang"
"Jianshe Zhao"
"Chiyang Liu"
"Ng Seik Weng"
_chemical_name_systematic
;
catena-[1H-imidazol-3-ium 
(\m~4~-5-carboxybenzene-1,2,4-tricarboxylato)-dioxo-uranium monohydrate]
;
_cell_volume    882.489
_exptl_crystal_colour 'yellow'
_exptl_crystal_density_diffrn 2.289
_exptl_crystal_description 'Plate'
_diffrn_ambient_temperature 296
#These two values have been output from a single CSD field.
_refine_ls_R_factor_gt 0.02
_refine_ls_wR_factor_gt 0.02
_symmetry_cell_setting monoclinic
_symmetry_space_group_name_H-M 'P 21/m'
_symmetry_Int_Tables_number 11
loop_
_symmetry_equiv_pos_site_id
_symmetry_equiv_pos_as_xyz
1 x,y,z
2 -x,1/2+y,-z
3 -x,-y,-z
4 x,-1/2-y,z
_cell_length_a 11.4070(4)
_cell_length_b 6.7700(2)
_cell_length_c 11.6330(4)
_cell_angle_alpha 90
_cell_angle_beta 100.787(2)
_cell_angle_gamma 90
_cell_formula_units_Z 2
loop_
_atom_type_symbol
_atom_type_radius_bond
C 0.68
H 0.23
N 0.68
O 0.68
U 1.96
loop_
_atom_site_label
_atom_site_type_symbol
_atom_site_fract_x
_atom_site_fract_y
_atom_site_fract_z
U1 U 0.330115(13) 0.25000 0.704991(13)
O1 O 0.3392(3) 0.25000 0.5095(3)
O2 O 0.5316(4) 0.25000 0.4999(3)
O3 O 0.6694(2) 0.0897(4) 0.3274(2)
O4 O 0.3107(2) 0.4115(3) -0.10563(19)
O5 O 0.0857(3) 0.25000 -0.0174(3)
O6 O 0.0423(3) 0.25000 0.1595(4)
H1 H -0.0328(12) 0.25000 0.138(6)
O7 O 0.1738(3) 0.25000 0.6631(3)
O8 O 0.4855(3) 0.25000 0.7537(3)
C1 C 0.4272(4) 0.25000 0.4549(4)
C2 C 0.3945(4) 0.25000 0.3241(4)
C3 C 0.4847(4) 0.25000 0.2562(4)
C4 C 0.4533(4) 0.25000 0.1350(4)
H2 H 0.51310 0.25000 0.09050
C5 C 0.3350(4) 0.25000 0.0787(4)
C6 C 0.2443(4) 0.25000 0.1461(4)
C7 C 0.2764(4) 0.25000 0.2670(4)
H3 H 0.21660 0.25000 0.31140
C8 C 0.6160(4) 0.25000 0.3103(4)
C9 C 0.3134(4) 0.25000 -0.0512(4)
C10 C 0.1170(4) 0.25000 0.0869(4)
O9 O -0.1830(4) 0.25000 0.0581(4)
H4 H -0.218(4) 0.145(4) 0.073(4)
N1 N 0.7221(5) 0.25000 0.6677(5)
H5 H 0.654(3) 0.25000 0.623(5)
N2 N 0.8766(6) 0.25000 0.7999(6)
H6 H 0.918(6) 0.25000 0.869(3)
C11 C 0.9130(7) 0.25000 0.6961(9)
H7 H 0.99150 0.25000 0.68460
C12 C 0.8136(8) 0.25000 0.6118(8)
H8 H 0.81010 0.25000 0.53130
C13 C 0.7609(6) 0.25000 0.7804(6)
H9 H 0.71350 0.25000 0.83730
O3C O 0.6694(2) 0.4103(4) 0.3274(2)
O4C O 0.3107(2) 0.0885(3) -0.10563(19)
U1* U 0.330115(13) 0.25000 -0.295009(13)
U1A U 0.669885(13) -0.25000 0.295009(13)
U1A* U 0.669885(13) 0.75000 0.295009(13)
O3A O 0.3306(2) 0.5897(4) 0.6726(2)
O3B O 0.3306(2) -0.0897(4) 0.6726(2)
O4* O 0.3107(2) 0.4115(3) 0.89437(19)
O4C* O 0.3107(2) 0.0885(3) 0.89437(19)
H4C H -0.218(4) 0.355(4) 0.073(4)
#END
