
#######################################################################
#
#                 Cambridge Crystallographic Data Centre
#                                CCDC
#
#######################################################################
#
# If this CIF has been generated from an entry in the Cambridge
# Structural Database, then it will include bibliographic, chemical,
# crystal, experimental, refinement or atomic coordinate data resulting
# from the CCDC's data processing and validation procedures.
#
#######################################################################

data_CSD_CIF_JUTWED
_audit_creation_date 2020-06-09
_audit_creation_method CSD-ConQuest-V1
_database_code_CSD JUTWED
_database_code_depnum_ccdc_archive 'CCDC 996027'
_chemical_formula_sum 'C43 H63 Cd4 Cl1 N36 O12'
_chemical_formula_moiety
;
C2 H8 N1 1+,n(C32 H24 Cd4 Cl1 N32 O4 1-),3(C3 H7 N1 O1),5(H2 O1)
;
_journal_coden_Cambridge 1295
_journal_volume 56
_journal_year 2015
_journal_page_first 83
_journal_name_full 'Inorg.Chem.Commun. '
loop_
_publ_author_name
"Ye-Yan Qin"
"Qing-Rong Ding"
"E Yang"
"Yao Kang"
"Lei Zhang"
"Yuan-Gen Yao"
_chemical_name_systematic
;
catena-[dimethylammonium 
(\m-chloro)-tetrakis(\m-5,5'-(1,4-phenylene)bis(tetrazol-1-yl))-tetra-aqua-tet
ra-cadmium(ii) N,N-dimethylformamide solvate pentahydrate]
;
_cell_volume   6119.513
_exptl_crystal_colour 'colorless'
_exptl_crystal_description 'block'
_diffrn_ambient_temperature 293
_refine_special_details
;
Disordered cation and solvent molecules were not modelled and the disordered 
density was taken into account using the SQUEEZE/PLATON procedure.
;
#These two values have been output from a single CSD field.
_refine_ls_R_factor_gt 0.0929
_refine_ls_wR_factor_gt 0.0929
_symmetry_cell_setting tetragonal
_symmetry_space_group_name_H-M 'I 4/m m m'
_symmetry_Int_Tables_number 139
loop_
_symmetry_equiv_pos_site_id
_symmetry_equiv_pos_as_xyz
1 x,y,z
2 -y,x,z
3 -x,-y,z
4 y,-x,z
5 x,-y,-z
6 y,x,-z
7 -x,y,-z
8 -y,-x,-z
9 1/2+x,1/2+y,1/2+z
10 1/2-y,1/2+x,1/2+z
11 1/2-x,1/2-y,1/2+z
12 1/2+y,1/2-x,1/2+z
13 1/2+x,1/2-y,1/2-z
14 1/2+y,1/2+x,1/2-z
15 1/2-x,1/2+y,1/2-z
16 1/2-y,1/2-x,1/2-z
17 -x,-y,-z
18 y,-x,-z
19 x,y,-z
20 -y,x,-z
21 -x,y,z
22 -y,-x,z
23 x,-y,z
24 y,x,z
25 -1/2-x,-1/2-y,-1/2-z
26 -1/2+y,-1/2-x,-1/2-z
27 -1/2+x,-1/2+y,-1/2-z
28 -1/2-y,-1/2+x,-1/2-z
29 -1/2-x,-1/2+y,-1/2+z
30 -1/2-y,-1/2-x,-1/2+z
31 -1/2+x,-1/2-y,-1/2+z
32 -1/2+y,-1/2+x,-1/2+z
_cell_length_a 16.5611(14)
_cell_length_b 16.5611(14)
_cell_length_c 22.312(2)
_cell_angle_alpha 90
_cell_angle_beta 90
_cell_angle_gamma 90
_cell_formula_units_Z 2
loop_
_atom_type_symbol
_atom_type_radius_bond
C 0.68
H 0.23
Cd 1.44
Cl 0.99
N 0.68
O 0.68
loop_
_atom_site_label
_atom_site_type_symbol
_atom_site_fract_x
_atom_site_fract_y
_atom_site_fract_z
Cd1 Cd 0.00000 -0.17109(8) 0.00000
Cl1 Cl 0.00000 0.00000 0.00000
O1 O 0.00000 -0.3068(12) 0.00000
C1 C 0.2155(10) -0.2155(10) -0.2018(7)
N1 N 0.1022(4) -0.1581(5) -0.0723(3)
C2 C 0.1839(11) -0.2807(11) -0.2244(6)
H1 H 0.13830 -0.30370 -0.20700
N2 N 0.1104(7) -0.2048(7) -0.1177(4)
C3 C 0.1781(7) -0.1781(7) -0.1461(6)
C1M C 0.2845(10) -0.2845(10) -0.2982(7)
N1M N 0.3419(4) -0.3978(5) -0.4277(3)
C2M C 0.2193(11) -0.3161(11) -0.2756(6)
H1M H 0.19630 -0.36170 -0.29300
N2M N 0.2952(7) -0.3896(7) -0.3823(4)
C3M C 0.3219(7) -0.3219(7) -0.3539(6)
N1U N 0.1581(4) -0.1022(5) -0.0723(3)
C2U C 0.2807(11) -0.1839(11) -0.2244(6)
H1U H 0.30370 -0.13830 -0.20700
N2U N 0.2048(7) -0.1104(7) -0.1177(4)
N1X N 0.3978(4) -0.3419(5) -0.4277(3)
C2X C 0.3161(11) -0.2193(11) -0.2756(6)
H1X H 0.36170 -0.19630 -0.29300
N2X N 0.3896(7) -0.2952(7) -0.3823(4)
Cd1A Cd 0.17109 0.00000(8) 0.00000
O1A O 0.30680 0.0000(12) 0.00000
C1A C 0.2155(10) 0.2155(10) -0.2018(7)
N1A N 0.1581(4) 0.1022(5) -0.0723(3)
C2A C 0.2807(11) 0.1839(11) -0.2244(6)
H1A H 0.30370 0.13830 -0.20700
N2A N 0.2048(7) 0.1104(7) -0.1177(4)
C3A C 0.1781(7) 0.1781(7) -0.1461(6)
C1N C 0.2845(10) 0.2845(10) -0.2982(7)
N1N N 0.3978(4) 0.3419(5) -0.4277(3)
C2N C 0.3161(11) 0.2193(11) -0.2756(6)
H1N H 0.36170 0.19630 -0.29300
N2N N 0.3896(7) 0.2952(7) -0.3823(4)
C3N C 0.3219(7) 0.3219(7) -0.3539(6)
N1V N 0.1022(4) 0.1581(5) -0.0723(3)
C2V C 0.1839(11) 0.2807(11) -0.2244(6)
H1V H 0.13830 0.30370 -0.20700
N2V N 0.1104(7) 0.2048(7) -0.1177(4)
N1Y N 0.3419(4) 0.3978(5) -0.4277(3)
C2Y C 0.2193(11) 0.3161(11) -0.2756(6)
H1Y H 0.19630 0.36170 -0.29300
N2Y N 0.2952(7) 0.3896(7) -0.3823(4)
Cd1B Cd 0.00000 0.17109(8) 0.00000
O1B O 0.00000 0.3068(12) 0.00000
C1B C -0.2155(10) 0.2155(10) -0.2018(7)
N1B N -0.1022(4) 0.1581(5) -0.0723(3)
C2B C -0.1839(11) 0.2807(11) -0.2244(6)
H1B H -0.13830 0.30370 -0.20700
N2B N -0.1104(7) 0.2048(7) -0.1177(4)
C3B C -0.1781(7) 0.1781(7) -0.1461(6)
C1O C -0.2845(10) 0.2845(10) -0.2982(7)
N1O N -0.3419(4) 0.3978(5) -0.4277(3)
C2O C -0.2193(11) 0.3161(11) -0.2756(6)
H1O H -0.19630 0.36170 -0.29300
N2O N -0.2952(7) 0.3896(7) -0.3823(4)
C3O C -0.3219(7) 0.3219(7) -0.3539(6)
N1W N -0.1581(4) 0.1022(5) -0.0723(3)
C2W C -0.2807(11) 0.1839(11) -0.2244(6)
H1W H -0.30370 0.13830 -0.20700
N2W N -0.2048(7) 0.1104(7) -0.1177(4)
N1Z N -0.3978(4) 0.3419(5) -0.4277(3)
C2Z C -0.3161(11) 0.2193(11) -0.2756(6)
H1Z H -0.36170 0.19630 -0.29300
N2Z N -0.3896(7) 0.2952(7) -0.3823(4)
Cd1C Cd -0.17109 0.00000(8) 0.00000
O1C O -0.30680 0.0000(12) 0.00000
C1C C -0.2155(10) -0.2155(10) -0.2018(7)
N1C N -0.1581(4) -0.1022(5) -0.0723(3)
C2C C -0.2807(11) -0.1839(11) -0.2244(6)
H1C H -0.30370 -0.13830 -0.20700
N2C N -0.2048(7) -0.1104(7) -0.1177(4)
C3C C -0.1781(7) -0.1781(7) -0.1461(6)
C1L C -0.2845(10) -0.2845(10) -0.2982(7)
N1L N -0.3978(4) -0.3419(5) -0.4277(3)
C2L C -0.3161(11) -0.2193(11) -0.2756(6)
H1L H -0.36170 -0.19630 -0.29300
N2L N -0.3896(7) -0.2952(7) -0.3823(4)
C3L C -0.3219(7) -0.3219(7) -0.3539(6)
N1T N -0.1022(4) -0.1581(5) -0.0723(3)
C2T C -0.1839(11) -0.2807(11) -0.2244(6)
H1T H -0.13830 -0.30370 -0.20700
N2T N -0.1104(7) -0.2048(7) -0.1177(4)
N1AA N -0.3419(4) -0.3978(5) -0.4277(3)
C2AA C -0.2193(11) -0.3161(11) -0.2756(6)
H1AA H -0.19630 -0.36170 -0.29300
N2AA N -0.2952(7) -0.3896(7) -0.3823(4)
Cd1H Cd -0.50000 0.32891(8) -0.50000
Cd1H* Cd 0.50000 0.32891(8) -0.50000
Cd1I Cd -0.32891 -0.50000(8) -0.50000
Cd1I* Cd -0.32891 0.50000(8) -0.50000
Cd1J Cd -0.50000 -0.32891(8) -0.50000
Cd1J* Cd 0.50000 -0.32891(8) -0.50000
Cd1K Cd 0.32891 -0.50000(8) -0.50000
Cd1K* Cd 0.32891 0.50000(8) -0.50000
N1D N 0.1022(4) 0.1581(5) 0.0723(3)
N1E N -0.1581(4) 0.1022(5) 0.0723(3)
N1F N -0.1022(4) -0.1581(5) 0.0723(3)
N1G N 0.1581(4) -0.1022(5) 0.0723(3)
N1P N -0.1022(4) 0.1581(5) 0.0723(3)
N1Q N -0.1581(4) -0.1022(5) 0.0723(3)
N1R N 0.1022(4) -0.1581(5) 0.0723(3)
N1S N 0.1581(4) 0.1022(5) 0.0723(3)
#END
