
#######################################################################
#
#                 Cambridge Crystallographic Data Centre
#                                CCDC
#
#######################################################################
#
# If this CIF has been generated from an entry in the Cambridge
# Structural Database, then it will include bibliographic, chemical,
# crystal, experimental, refinement or atomic coordinate data resulting
# from the CCDC's data processing and validation procedures.
#
#######################################################################

data_CSD_CIF_JUTWAZ
_audit_creation_date 2020-06-09
_audit_creation_method CSD-ConQuest-V1
_database_code_CSD JUTWAZ
_database_code_depnum_ccdc_archive 'CCDC 996026'
_chemical_formula_sum 'C54 H72 Cd3 Cl3 K3 N36 O6'
_chemical_formula_moiety
;
3(K1 1+),(C24 H12 Cd3 Cl3 N24 3-)n,6(C5 H10 N2 O1)
;
_journal_coden_Cambridge 1295
_journal_volume 56
_journal_year 2015
_journal_page_first 83
_journal_name_full 'Inorg.Chem.Commun. '
loop_
_publ_author_name
"Ye-Yan Qin"
"Qing-Rong Ding"
"E Yang"
"Yao Kang"
"Lei Zhang"
"Yuan-Gen Yao"
_chemical_name_systematic
;
catena-[tris(potassium) 
tris(\m-chloro)-tris(\m-5,5'-(1,4-phenylene)bis(tetrazol-1-yl))-tri-cadmium(ii
) 1,3-dimethylimidazolidin-2-one solvate]
;
_cell_volume  10822.831
_exptl_crystal_colour 'colorless'
_exptl_crystal_description 'polyhedral'
_diffrn_ambient_temperature 293
#These two values have been output from a single CSD field.
_refine_ls_R_factor_gt 0.0368
_refine_ls_wR_factor_gt 0.0368
_symmetry_cell_setting rhombohedral
_symmetry_space_group_name_H-M 'R -3 c'
_symmetry_Int_Tables_number 167
loop_
_symmetry_equiv_pos_site_id
_symmetry_equiv_pos_as_xyz
1 x,y,z
2 -y,x-y,z
3 -x+y,-x,z
4 y,x,1/2-z
5 x-y,-y,1/2-z
6 -x,-x+y,1/2-z
7 2/3+x,1/3+y,1/3+z
8 2/3-y,1/3+x-y,1/3+z
9 2/3-x+y,1/3-x,1/3+z
10 2/3+y,1/3+x,5/6-z
11 2/3+x-y,1/3-y,5/6-z
12 2/3-x,1/3-x+y,5/6-z
13 1/3+x,2/3+y,2/3+z
14 1/3-y,2/3+x-y,2/3+z
15 1/3-x+y,2/3-x,2/3+z
16 1/3+y,2/3+x,1/6-z
17 1/3+x-y,2/3-y,1/6-z
18 1/3-x,2/3-x+y,1/6-z
19 -x,-y,-z
20 y,-x+y,-z
21 x-y,x,-z
22 -y,-x,-1/2+z
23 -x+y,y,-1/2+z
24 x,x-y,-1/2+z
25 -2/3-x,-1/3-y,-1/3-z
26 -2/3+y,-1/3-x+y,-1/3-z
27 -2/3+x-y,-1/3+x,-1/3-z
28 -2/3-y,-1/3-x,-5/6+z
29 -2/3-x+y,-1/3+y,-5/6+z
30 -2/3+x,-1/3+x-y,-5/6+z
31 -1/3-x,-2/3-y,-2/3-z
32 -1/3+y,-2/3-x+y,-2/3-z
33 -1/3+x-y,-2/3+x,-2/3-z
34 -1/3-y,-2/3-x,-1/6+z
35 -1/3-x+y,-2/3+y,-1/6+z
36 -1/3+x,-2/3+x-y,-1/6+z
_cell_length_a 22.967
_cell_length_b 22.967
_cell_length_c 23.692
_cell_angle_alpha 90
_cell_angle_beta 90
_cell_angle_gamma 120
_cell_formula_units_Z 6
loop_
_atom_type_symbol
_atom_type_radius_bond
C 0.68
H 0.23
Cd 1.44
Cl 0.99
K 2.03
N 0.68
O 0.68
loop_
_atom_site_label
_atom_site_type_symbol
_atom_site_fract_x
_atom_site_fract_y
_atom_site_fract_z
Cd1 Cd 1.00000 1.00000 0.00000
Cd2 Cd 1.00000 1.00000 0.173985(18)
Cl1 Cl 0.91303(6) 0.91303(6) 0.25000
N1 N 1.04104(16) 0.88798(15) 0.13438(12)
N2 N 1.01974(16) 0.92941(15) 0.11620(13)
N3 N 1.02308(16) 0.93276(15) 0.06074(12)
N4 N 1.04646(16) 0.89400(16) 0.04111(13)
C1 C 1.05716(18) 0.86749(18) 0.08743(15)
C2 C 1.0876(2) 0.8246(2) 0.08575(16)
C3 C 1.1028(5) 0.8059(5) 0.0372(2)
H1 H 1.08880 0.81600 0.00360
C4 C 1.1058(5) 0.8049(5) 0.1320(2)
H2 H 1.09550 0.81550 0.16710
K1 K 1.00000 0.83778(5) 0.25000
O1 O 0.9143(3) 0.7134(2) 0.2214(2)
C5 C 0.8840(4) 0.6550(3) 0.2194(3)
N5 N 0.8259(4) 0.6100(4) 0.2331(3)
C6 C 0.8048(5) 0.5415(4) 0.2199(4)
H3 H 0.78590 0.51290 0.25270
H4 H 0.77180 0.52490 0.18970
N6 N 0.9103(5) 0.6160(4) 0.1977(5)
C7 C 0.8655(7) 0.5443(4) 0.2025(8)
H5 H 0.86000 0.52190 0.16660
H6 H 0.88130 0.52460 0.23050
C8 C 0.9808(9) 0.6462(12) 0.1787(9)
H7 H 0.98920 0.61140 0.16600
H8 H 1.01040 0.67000 0.20960
H9 H 0.98870 0.67700 0.14830
C9 C 0.7771(7) 0.6275(10) 0.2529(6)
H10 H 0.79680 0.67550 0.25310
H11 H 0.76320 0.61050 0.29050
H12 H 0.73870 0.60810 0.22830
N1O N 1.221313(160) 0.707707(150) 0.032287(120)
N2O N 1.262743(160) 0.686407(150) 0.050467(130)
N3O N 1.266093(160) 0.689747(150) 0.105927(120)
N4O N 1.227333(160) 0.713127(160) 0.125557(130)
C1O C 1.200823(180) 0.723827(180) 0.079237(150)
C2O C 1.157933(200) 0.754267(200) 0.080917(160)
C3O C 1.139233(500) 0.769467(500) 0.129467(200)
H1O H 1.14933 0.75547 0.16307
C4O C 1.138233(500) 0.772467(500) 0.034667(200)
H2O H 1.14883 0.76217 -0.00043
Cl1A Cl 1.08697(6) 1.00000(6) 0.25000
N1A N 1.11202(16) 1.15306(15) 0.13438(12)
N2A N 1.07059(16) 1.09033(15) 0.11620(13)
N3A N 1.06724(16) 1.09032(15) 0.06074(12)
N4A N 1.10600(16) 1.15246(16) 0.04111(13)
C1A C 1.13251(18) 1.18967(18) 0.08743(15)
C2A C 1.1754(2) 1.2630(2) 0.08575(16)
C3A C 1.1941(5) 1.2969(5) 0.0372(2)
H1A H 1.18400 1.27280 0.00360
C4A C 1.1951(5) 1.3009(5) 0.1320(2)
H2A H 1.18450 1.28000 0.16710
N1Q N 1.292293(160) 1.513607(150) 0.032287(120)
N2Q N 1.313593(160) 1.576337(150) 0.050467(130)
N3Q N 1.310253(160) 1.576347(150) 0.105927(120)
N4Q N 1.286873(160) 1.514207(160) 0.125557(130)
C1Q C 1.276173(180) 1.476997(180) 0.079237(150)
C2Q C 1.245733(200) 1.403667(200) 0.080917(160)
C3Q C 1.230533(500) 1.369767(500) 0.129467(200)
H1Q H 1.24453 1.39387 0.16307
C4Q C 1.227533(500) 1.365767(500) 0.034667(200)
H2Q H 1.23783 1.38667 -0.00043
Cl1B Cl 1.00000(6) 1.08697(6) 0.25000
N1B N 0.84694(16) 0.95896(15) 0.13438(12)
N2B N 0.90967(16) 0.98026(15) 0.11620(13)
N3B N 0.90968(16) 0.97692(15) 0.06074(12)
N4B N 0.84754(16) 0.95354(16) 0.04111(13)
C1B C 0.81033(18) 0.94284(18) 0.08743(15)
C2B C 0.7370(2) 0.9124(2) 0.08575(16)
C3B C 0.7031(5) 0.8972(5) 0.0372(2)
H1B H 0.72720 0.91120 0.00360
C4B C 0.6991(5) 0.8942(5) 0.1320(2)
H2B H 0.72000 0.90450 0.16710
N1P N 0.486393(160) 0.778687(150) 0.032287(120)
N2P N 0.423663(160) 0.737257(150) 0.050467(130)
N3P N 0.423653(160) 0.733907(150) 0.105927(120)
N4P N 0.485793(160) 0.772667(160) 0.125557(130)
C1P C 0.523003(180) 0.799177(180) 0.079237(150)
C2P C 0.596333(200) 0.842067(200) 0.080917(160)
C3P C 0.630233(500) 0.860767(500) 0.129467(200)
H1P H 0.60613 0.85067 0.16307
C4P C 0.634233(500) 0.861767(500) 0.034667(200)
H2P H 0.61333 0.85117 -0.00043
Cd2C Cd 1.00000 1.00000 0.326015(18)
Cd1O Cd 0.33333 0.66667 0.16667
Cd1O* Cd 1.33333 0.66667 0.16667
Cd1O** Cd 1.33333 1.66667 0.16667
Cd2O Cd 0.33333 0.66667 -0.007318(18)
Cd2O* Cd 1.33333 0.66667 -0.007318(18)
Cd2O** Cd 1.33333 1.66667 -0.007318(18)
N2C N 0.92941(16) 1.01974(15) 0.38380(13)
N2D N 1.09033(16) 1.07059(15) 0.38380(13)
N2E N 0.98026(16) 0.90967(15) 0.38380(13)
N3R N 0.97692(16) 1.06724(15) -0.06074(12)
N3S N 0.93276(16) 0.90968(15) -0.06074(12)
N3T N 1.09032(16) 1.02308(15) -0.06074(12)
#END
