
#######################################################################
#
#                 Cambridge Crystallographic Data Centre
#                                CCDC
#
#######################################################################
#
# If this CIF has been generated from an entry in the Cambridge
# Structural Database, then it will include bibliographic, chemical,
# crystal, experimental, refinement or atomic coordinate data resulting
# from the CCDC's data processing and validation procedures.
#
#######################################################################

data_CSD_CIF_JUTZEG
_audit_creation_date 2020-06-09
_audit_creation_method CSD-ConQuest-V1
_database_code_CSD JUTZEG
_database_code_depnum_ccdc_archive 'CCDC 1512433'
_chemical_formula_sum 'C126 H196 Cu5 N16 O53'
_chemical_formula_moiety
;
7(C2 H8 N1 1+),n(C100 H60 Cu5 N4 O20 6-),N1 O3 1-,4(C3 H7 N1 O1),26(H2 O1)
;
_journal_coden_Cambridge 1453
_journal_volume 9
_journal_year 2017
_journal_page_first 1192
_journal_name_full 'ChemCatChem '
loop_
_publ_author_name
"Min Zhao"
"Chuan-De Wu"
_chemical_name_systematic
;
catena-[heptakis(dimethylammonium) 
(5,10,15,20-tetrakis(3,5-bis(4-carboxylatophenyl)phenyl)porphyrinato)-tetra-aq
ua-penta-copper nitrate N,N-dimethylformamide solvate hexacosahydrate]
;
_chemical_name_common
;
CZJ-6
;
_cell_volume  14120.244
_exptl_crystal_colour 'brown'
_exptl_crystal_description 'block'
_diffrn_ambient_temperature 293
_refine_special_details
;
Disordered cation, anion and solvent molecules were not modelled and the 
disordered density was taken into account using the SQUEEZE/PLATON procedure.
;
#These two values have been output from a single CSD field.
_refine_ls_R_factor_gt 0.05
_refine_ls_wR_factor_gt 0.05
_symmetry_cell_setting tetragonal
_symmetry_space_group_name_H-M 'P 42/m m c'
_symmetry_Int_Tables_number 131
loop_
_symmetry_equiv_pos_site_id
_symmetry_equiv_pos_as_xyz
1 x,y,z
2 -x,-y,z
3 -y,x,1/2+z
4 y,-x,1/2+z
5 -x,y,-z
6 x,-y,-z
7 y,x,1/2-z
8 -y,-x,1/2-z
9 -x,-y,-z
10 x,y,-z
11 y,-x,-1/2-z
12 -y,x,-1/2-z
13 x,-y,z
14 -x,y,z
15 -y,-x,-1/2+z
16 y,x,-1/2+z
_cell_length_a 22.5476(1)
_cell_length_b 22.5476(1)
_cell_length_c 27.7742(4)
_cell_angle_alpha 90
_cell_angle_beta 90
_cell_angle_gamma 90
_cell_formula_units_Z 2
loop_
_atom_type_symbol
_atom_type_radius_bond
C 0.68
H 0.23
Cu 1.32
N 0.68
O 0.68
loop_
_atom_site_label
_atom_site_type_symbol
_atom_site_fract_x
_atom_site_fract_y
_atom_site_fract_z
Cu1 Cu 0.25840(3) 0.50000 0.00000
Cu2 Cu 0.14114(3) 0.50000 0.00000
Cu3 Cu 0.00000 0.00000 0.25000
O1 O 0.24988(8) 0.43906(8) 0.04967(6)
O2 O 0.15063(7) 0.43893(7) 0.04974(6)
O3 O 0.35401(17) 0.50000 0.00000
O4 O 0.0420(2) 0.50000 0.00000
N1 N 0.08857(12) 0.00000 0.24921(10)
C1 C 0.18569(12) 0.02989(12) 0.23977(11)
H1 H 0.21860 0.05440 0.23610
C2 C 0.12557(11) 0.04870(11) 0.24649(9)
C3 C 0.10761(11) 0.10761(11) 0.25000
C4 C 0.15519(10) 0.15519(10) 0.25000
C5 C 0.15645(11) 0.19754(11) 0.21421(10)
H2 H 0.12790 0.19670 0.19000
C6 C 0.19985(11) 0.24153(11) 0.21379(10)
C7 C 0.24183(11) 0.24183(11) 0.25000
H3 H 0.27100 0.27100 0.25000
C8 C 0.20045(12) 0.28749(12) 0.17497(9)
C9 C 0.25268(12) 0.31055(13) 0.15711(11)
H4 H 0.28860 0.29720 0.16940
C10 C 0.25264(12) 0.35263(13) 0.12161(10)
H5 H 0.28860 0.36680 0.10990
C11 C 0.20038(11) 0.37448(11) 0.10293(9)
C12 C 0.14802(12) 0.35215(12) 0.12069(9)
H6 H 0.11220 0.36630 0.10880
C13 C 0.14784(12) 0.30912(12) 0.1559(1)
H7 H 0.11190 0.29430 0.16710
C14 C 0.19999(12) 0.42073(11) 0.06450(8)
O1F O 0.43906(8) 0.24988(8) 0.45033(6)
O2F O 0.43893(7) 0.15063(7) 0.45026(6)
N1F N 0.00000(12) 0.08857 0.25079(10)
C1F C 0.02989(12) 0.18569(12) 0.26023(11)
H1F H 0.05440 0.21860 0.26390
C2F C 0.04870(11) 0.12557(11) 0.25351(9)
C5F C 0.19754(11) 0.15645(11) 0.28579(10)
H2F H 0.19670 0.12790 0.31000
C6F C 0.24153(11) 0.19985(11) 0.28621(10)
C8F C 0.28749(12) 0.20045(12) 0.32503(9)
C9F C 0.31055(12) 0.25268(13) 0.34289(11)
H4F H 0.29720 0.28860 0.33060
C10F C 0.35263(12) 0.25264(13) 0.37839(10)
H5F H 0.36680 0.28860 0.39010
C11F C 0.37448(11) 0.20038(11) 0.39707(9)
C12F C 0.35215(12) 0.14802(12) 0.37931(9)
H6F H 0.36630 0.11220 0.39120
C13F C 0.30912(12) 0.14784(12) 0.3441(1)
H7F H 0.29430 0.11190 0.33290
C14F C 0.42073(12) 0.19999(11) 0.43550(8)
O1L O 0.24988(8) -0.43906(8) 0.04967(6)
O2L O 0.15063(7) -0.43893(7) 0.04974(6)
C1L C 0.18569(12) -0.02989(12) 0.23977(11)
H1L H 0.21860 -0.05440 0.23610
C2L C 0.12557(11) -0.04870(11) 0.24649(9)
C3J C 0.10761(11) -0.10761(11) 0.25000
C4J C 0.15519(10) -0.15519(10) 0.25000
C5L C 0.15645(11) -0.19754(11) 0.21421(10)
H2L H 0.12790 -0.19670 0.19000
C6L C 0.19985(11) -0.24153(11) 0.21379(10)
C7J C 0.24183(11) -0.24183(11) 0.25000
H3J H 0.27100 -0.27100 0.25000
C8L C 0.20045(12) -0.28749(12) 0.17497(9)
C9L C 0.25268(12) -0.31055(13) 0.15711(11)
H4L H 0.28860 -0.29720 0.16940
C10L C 0.25264(12) -0.35263(13) 0.12161(10)
H5L H 0.28860 -0.36680 0.10990
C11L C 0.20038(11) -0.37448(11) 0.10293(9)
C12L C 0.14802(12) -0.35215(12) 0.12069(9)
H6L H 0.11220 -0.36630 0.10880
C13L C 0.14784(12) -0.30912(12) 0.1559(1)
H7L H 0.11190 -0.29430 0.16710
C14L C 0.19999(12) -0.42073(11) 0.06450(8)
O1J O 0.43906(8) -0.24988(8) 0.45033(6)
O2J O 0.43893(7) -0.15063(7) 0.45026(6)
N1G N 0.00000(12) -0.08857 0.25079(10)
C1J C 0.02989(12) -0.18569(12) 0.26023(11)
H1J H 0.05440 -0.21860 0.26390
C2J C 0.04870(11) -0.12557(11) 0.25351(9)
C5J C 0.19754(11) -0.15645(11) 0.28579(10)
H2J H 0.19670 -0.12790 0.31000
C6J C 0.24153(11) -0.19985(11) 0.28621(10)
C8J C 0.28749(12) -0.20045(12) 0.32503(9)
C9J C 0.31055(12) -0.25268(13) 0.34289(11)
H4J H 0.29720 -0.28860 0.33060
C10J C 0.35263(12) -0.25264(13) 0.37839(10)
H5J H 0.36680 -0.28860 0.39010
C11J C 0.37448(11) -0.20038(11) 0.39707(9)
C12J C 0.35215(12) -0.14802(12) 0.37931(9)
H6J H 0.36630 -0.11220 0.39120
C13J C 0.30912(12) -0.14784(12) 0.3441(1)
H7J H 0.29430 -0.11190 0.33290
C14J C 0.42073(12) -0.19999(11) 0.43550(8)
O1K O -0.43906(8) 0.24988(8) 0.45033(6)
O2K O -0.43893(7) 0.15063(7) 0.45026(6)
C1K C -0.02989(12) 0.18569(12) 0.26023(11)
H1K H -0.05440 0.21860 0.26390
C2K C -0.04870(11) 0.12557(11) 0.25351(9)
C3K C -0.10761(11) 0.10761(11) 0.25000
C4K C -0.15519(10) 0.15519(10) 0.25000
C5K C -0.19754(11) 0.15645(11) 0.28579(10)
H2K H -0.19670 0.12790 0.31000
C6K C -0.24153(11) 0.19985(11) 0.28621(10)
C7K C -0.24183(11) 0.24183(11) 0.25000
H3K H -0.27100 0.27100 0.25000
C8K C -0.28749(12) 0.20045(12) 0.32503(9)
C9K C -0.31055(12) 0.25268(13) 0.34289(11)
H4K H -0.29720 0.28860 0.33060
C10K C -0.35263(12) 0.25264(13) 0.37839(10)
H5K H -0.36680 0.28860 0.39010
C11K C -0.37448(11) 0.20038(11) 0.39707(9)
C12K C -0.35215(12) 0.14802(12) 0.37931(9)
H6K H -0.36630 0.11220 0.39120
C13K C -0.30912(12) 0.14784(12) 0.3441(1)
H7K H -0.29430 0.11190 0.33290
C14K C -0.42073(12) 0.19999(11) 0.43550(8)
O1G O -0.43906(8) -0.24988(8) 0.45033(6)
O2G O -0.43893(7) -0.15063(7) 0.45026(6)
C1G C -0.02989(12) -0.18569(12) 0.26023(11)
H1G H -0.05440 -0.21860 0.26390
C2G C -0.04870(11) -0.12557(11) 0.25351(9)
C3A C -0.10761(11) -0.10761(11) 0.25000
C4A C -0.15519(10) -0.15519(10) 0.25000
C5G C -0.19754(11) -0.15645(11) 0.28579(10)
H2G H -0.19670 -0.12790 0.31000
C6G C -0.24153(11) -0.19985(11) 0.28621(10)
C7A C -0.24183(11) -0.24183(11) 0.25000
H3A H -0.27100 -0.27100 0.25000
C8G C -0.28749(12) -0.20045(12) 0.32503(9)
C9G C -0.31055(12) -0.25268(13) 0.34289(11)
H4G H -0.29720 -0.28860 0.33060
C10G C -0.35263(12) -0.25264(13) 0.37839(10)
H5G H -0.36680 -0.28860 0.39010
C11G C -0.37448(11) -0.20038(11) 0.39707(9)
C12G C -0.35215(12) -0.14802(12) 0.37931(9)
H6G H -0.36630 -0.11220 0.39120
C13G C -0.30912(12) -0.14784(12) 0.3441(1)
H7G H -0.29430 -0.11190 0.33290
C14G C -0.42073(12) -0.19999(11) 0.43550(8)
O1M O -0.24988(8) 0.43906(8) 0.04967(6)
O2M O -0.15063(7) 0.43893(7) 0.04974(6)
N1A N -0.08857(12) 0.00000 0.24921(10)
C1M C -0.18569(12) 0.02989(12) 0.23977(11)
H1M H -0.21860 0.05440 0.23610
C2M C -0.12557(11) 0.04870(11) 0.24649(9)
C5M C -0.15645(11) 0.19754(11) 0.21421(10)
H2M H -0.12790 0.19670 0.19000
C6M C -0.19985(11) 0.24153(11) 0.21379(10)
C8M C -0.20045(12) 0.28749(12) 0.17497(9)
C9M C -0.25268(12) 0.31055(13) 0.15711(11)
H4M H -0.28860 0.29720 0.16940
C10M C -0.25264(12) 0.35263(13) 0.12161(10)
H5M H -0.28860 0.36680 0.10990
C11M C -0.20038(11) 0.37448(11) 0.10293(9)
C12M C -0.14802(12) 0.35215(12) 0.12069(9)
H6M H -0.11220 0.36630 0.10880
C13M C -0.14784(12) 0.30912(12) 0.1559(1)
H7M H -0.11190 0.29430 0.16710
C14M C -0.19999(12) 0.42073(11) 0.06450(8)
O1A O -0.24988(8) -0.43906(8) 0.04967(6)
O2A O -0.15063(7) -0.43893(7) 0.04974(6)
C1A C -0.18569(12) -0.02989(12) 0.23977(11)
H1A H -0.21860 -0.05440 0.23610
C2A C -0.12557(11) -0.04870(11) 0.24649(9)
C5A C -0.15645(11) -0.19754(11) 0.21421(10)
H2A H -0.12790 -0.19670 0.19000
C6A C -0.19985(11) -0.24153(11) 0.21379(10)
C8A C -0.20045(12) -0.28749(12) 0.17497(9)
C9A C -0.25268(12) -0.31055(13) 0.15711(11)
H4A H -0.28860 -0.29720 0.16940
C10A C -0.25264(12) -0.35263(13) 0.12161(10)
H5A H -0.28860 -0.36680 0.10990
C11A C -0.20038(11) -0.37448(11) 0.10293(9)
C12A C -0.14802(12) -0.35215(12) 0.12069(9)
H6A H -0.11220 -0.36630 0.10880
C13A C -0.14784(12) -0.30912(12) 0.1559(1)
H7A H -0.11190 -0.29430 0.16710
C14A C -0.19999(12) -0.42073(11) 0.06450(8)
Cu1A Cu -0.25840(3) 0.50000 0.00000
Cu2A Cu -0.14114(3) 0.50000 0.00000
O3A O -0.35401(17) 0.50000 0.00000
O4A O -0.0420(2) 0.50000 0.00000
Cu1* Cu 0.25840(3) -0.50000 0.00000
Cu1A* Cu -0.25840(3) -0.50000 0.00000
Cu1B Cu -0.50000(3) 0.25840 0.50000
Cu1B* Cu 0.50000(3) 0.25840 0.50000
Cu1C Cu -0.50000(3) -0.25840 0.50000
Cu1C* Cu 0.50000(3) -0.25840 0.50000
Cu2* Cu 0.14114(3) -0.50000 0.00000
Cu2A* Cu -0.14114(3) -0.50000 0.00000
Cu2B Cu -0.50000(3) 0.14114 0.50000
Cu2B* Cu 0.50000(3) 0.14114 0.50000
Cu2C Cu -0.50000(3) -0.14114 0.50000
Cu2C* Cu 0.50000(3) -0.14114 0.50000
O1A* O -0.24988(8) 0.56094(8) 0.04967(6)
O1D O -0.24988(8) 0.43906(8) -0.04967(6)
O1E O 0.24988(8) 0.56094(8) -0.04967(6)
O1H O -0.24988(8) 0.56094(8) -0.04967(6)
O1I O 0.24988(8) 0.43906(8) -0.04967(6)
O1L* O 0.24988(8) 0.56094(8) 0.04967(6)
O2A* O -0.15063(7) 0.56107(7) 0.04974(6)
O2D O -0.15063(7) 0.43893(7) -0.04974(6)
O2E O 0.15063(7) 0.56107(7) -0.04974(6)
O2H O -0.15063(7) 0.56107(7) -0.04974(6)
O2I O 0.15063(7) 0.43893(7) -0.04974(6)
O2L* O 0.15063(7) 0.56107(7) 0.04974(6)
#END
