
#######################################################################
#
#                 Cambridge Crystallographic Data Centre
#                                CCDC
#
#######################################################################
#
# If this CIF has been generated from an entry in the Cambridge
# Structural Database, then it will include bibliographic, chemical,
# crystal, experimental, refinement or atomic coordinate data resulting
# from the CCDC's data processing and validation procedures.
#
#######################################################################

data_CSD_CIF_JUVLUK
_audit_creation_date 2020-09-28
_audit_creation_method CSD-ConQuest-V1
_database_code_CSD JUVLUK
_database_code_depnum_ccdc_archive 'CCDC 1947500'
_chemical_formula_sum 'C49.5 H47.5 Eu1 N2.5 O19 P2 Zn1'
_chemical_formula_moiety
;
(C42 H24 Eu1 O14 P2 Zn1 1-)n,H3 O1 1+,2.5(C3 H7 N1 O1),1.5(H2 O1)
;
_journal_coden_Cambridge 1220
_journal_volume 26
_journal_year 2020
_journal_page_first 11767
_journal_name_full 'Chem.-Eur.J. '
loop_
_publ_author_name
"Jeong Hwa Song"
"Giseong Lee"
"Jung Heum Yoon"
"Junyeon Jang"
"Doosan Choi"
"Heejun Yun"
"Kangin Kwon"
"Hojin Kim"
"Chang Seop Hong"
"Youngki Kim"
"Hogyu Han"
"Kwang Soo Lim"
"Woo Ram Lee"
_chemical_name_systematic
;
catena-[oxonium bis(\m-4,4',4''-phosphoryltribenzoato)-europium(iii)-zinc(ii) 
N,N-dimethylformamide solvate sesquihydrate]
;
_chemical_name_common
;
catena-[oxonium [mu-tris(4-carboxylatophenyl)phosphine 
oxide]-europium(iii)-zinc(ii) N,N-dimethylformamide solvate sesquihydrate]
;
_cell_volume   3521.448
_exptl_crystal_colour 'colorless'
_exptl_special_details
;
Isostructural with the terbium analogue.
Amount of squeezed solvents based on TGA analysis
;
_exptl_crystal_description 'triclinic'
_diffrn_ambient_temperature 130
_refine_special_details
;
Disordered solvent/cation molecules were not modelled and the disordered 
density was taken into account using the SQUEEZE/PLATON procedure.
;
#These two values have been output from a single CSD field.
_refine_ls_R_factor_gt 0.0612
_refine_ls_wR_factor_gt 0.0612
_symmetry_cell_setting triclinic
_symmetry_space_group_name_H-M 'P -1'
_symmetry_Int_Tables_number 2
loop_
_symmetry_equiv_pos_site_id
_symmetry_equiv_pos_as_xyz
1 x,y,z
2 -x,-y,-z
_cell_length_a 14.0792(5)
_cell_length_b 14.1460(5)
_cell_length_c 18.4366(7)
_cell_angle_alpha 106.128(1)
_cell_angle_beta 90.991(1)
_cell_angle_gamma 92.777(1)
_cell_formula_units_Z 2
loop_
_atom_type_symbol
_atom_type_radius_bond
C 0.68
H 0.23
Eu 1.98
O 0.68
P 1.05
Zn 1.22
loop_
_atom_site_label
_atom_site_type_symbol
_atom_site_fract_x
_atom_site_fract_y
_atom_site_fract_z
Eu1 Eu 0.25837(2) 0.44893(2) 0.29464(2)
O1 O 0.2139(3) 0.5644(3) 0.4044(2)
O2 O 1.1881(3) 0.5514(4) 0.2227(3)
O3 O 1.0889(3) 0.4521(3) 0.2608(3)
O4 O 0.7574(3) 0.6961(3) -0.1962(2)
O5 O 0.7463(4) 0.8575(3) -0.1566(2)
O6 O 0.1272(7) 0.9603(6) 0.2408(6)
O7 O 0.2773(3) 1.0212(4) 0.2793(3)
O8 O 0.6110(3) 0.7889(4) 0.6934(3)
O9 O 0.6182(3) 0.6258(4) 0.6569(3)
O10 O -0.1424(3) 0.8140(4) 0.6864(4)
O11 O -0.1805(3) 0.6546(3) 0.6428(3)
O12 O 0.3854(3) 0.4685(3) 0.2099(3)
O13 O 0.3831(3) 0.5818(3) 0.3206(3)
O14 O 0.7867(3) 0.8619(3) 0.2335(2)
P1 P 0.22537(10) 0.66615(11) 0.45854(8)
P2 P 0.77385(10) 0.76092(11) 0.18155(8)
C1 C 0.1260(4) 0.6889(5) 0.5194(4)
C2 C 0.1028(9) 0.7716(7) 0.5574(11)
H1 H 0.14949 0.82473 0.56703
C3 C 0.0735(11) 0.6141(8) 0.5303(9)
H2 H 0.09017 0.54854 0.50706
C4 C 0.0111(10) 0.7915(8) 0.5874(11)
H3 H -0.01572 0.85360 0.59431
C5 C 0.3293(4) 0.6796(4) 0.5178(3)
C6 C 0.3579(7) 0.7658(6) 0.5682(7)
H4 H 0.32145 0.82201 0.57395
C7 C 0.3821(8) 0.6038(7) 0.5143(7)
H5 H 0.36324 0.54115 0.48099
C8 C 0.2290(6) 0.7603(6) 0.4142(4)
C9 C 0.1381(10) 0.7682(12) 0.3801(12)
H6 H 0.08283 0.73263 0.38928
C10 C 0.2928(10) 0.7908(8) 0.3838(9)
H7 H 0.35134 0.76024 0.38435
C11 C 0.7697(4) 0.7612(4) 0.0850(3)
C12 C 0.7553(6) 0.8491(5) 0.0680(4)
H8 H 0.74684 0.90677 0.10805
C13 C 0.7528(6) 0.8554(5) -0.0053(4)
H9 H 0.74627 0.91727 -0.01514
C14 C 0.7598(5) 0.7708(4) -0.0649(4)
C15 C 0.7721(6) 0.6810(5) -0.0484(4)
H10 H 0.77515 0.62249 -0.08871
C16 C 0.7796(5) 0.6762(5) 0.0231(4)
H11 H 0.79166 0.61508 0.03253
C17 C 0.7557(4) 0.7736(5) -0.1446(4)
C18 C 0.1339(11) 0.8336(13) 0.3305(10)
H12 H 0.07638 0.84208 0.30593
C19 C 0.2198(9) 0.8823(7) 0.3217(5)
C20 C 0.2934(9) 0.8655(11) 0.3475(10)
H13 H 0.35067 0.90183 0.34352
C21 C 0.2108(10) 0.9593(8) 0.2775(6)
C22 C 0.4383(7) 0.7718(7) 0.6104(8)
H14 H 0.45831 0.83444 0.64328
C23 C 0.4923(4) 0.6955(5) 0.6092(3)
C24 C 0.4653(7) 0.6145(7) 0.5588(6)
H15 H 0.50391 0.55968 0.55178
C25 C 0.5822(4) 0.7046(5) 0.6576(4)
C26 C -0.0063(9) 0.6301(7) 0.5756(8)
H16 H -0.03992 0.57446 0.58409
C27 C -0.0356(4) 0.7138(5) 0.6055(4)
C28 C -0.1248(4) 0.7283(5) 0.6483(4)
C29 C 0.6663(4) 0.6980(4) 0.1990(4)
C30 C 0.6214(5) 0.7350(5) 0.2652(4)
H17 H 0.64645 0.79470 0.29944
C31 C 0.5404(5) 0.6882(5) 0.2843(4)
H18 H 0.51113 0.71521 0.33096
C32 C 0.5029(4) 0.6018(5) 0.2345(4)
C33 C 0.5448(5) 0.5665(7) 0.1690(5)
H19 H 0.51982 0.50643 0.13516
C34 C 0.6255(6) 0.6158(7) 0.1481(5)
H20 H 0.65088 0.59209 0.09938
C35 C 0.4186(4) 0.5467(5) 0.2559(4)
C36 C 0.8678(4) 0.6823(5) 0.1915(4)
C37 C 0.8561(5) 0.5980(7) 0.2087(7)
H21 H 0.79309 0.57200 0.21108
C38 C 0.9317(6) 0.5453(8) 0.2236(8)
H22 H 0.92028 0.48756 0.23956
C39 C 1.0238(4) 0.5785(5) 0.2147(4)
C40 C 1.0352(6) 0.6559(8) 0.1902(7)
H23 H 1.09742 0.67648 0.17964
C41 C 0.9580(5) 0.7100(8) 0.1789(6)
H24 H 0.96926 0.76705 0.16201
C42 C 1.1067(5) 0.5233(5) 0.2329(4)
Zn1 Zn 0.73655(4) 0.84721(5) -0.26553(4)
Eu1* Eu 1.25837(2) 0.44893(2) 0.29464(2)
Eu1A Eu -0.25837(2) 0.55107(2) 0.70536(2)
Eu1A* Eu 0.74163(2) 0.55107(2) -0.29464(2)
Eu1A** Eu 0.74163(2) 0.55107(2) 0.70536(2)
O2* O 0.1881(3) 0.5514(4) 0.2227(3)
O3* O 0.0889(3) 0.4521(3) 0.2608(3)
O4A O 0.2426(3) 0.3039(3) 0.1962(2)
O7A O 0.7227(3) 0.9788(4) -0.2793(3)
O8* O 0.6110(3) 0.7889(4) -0.3066(3)
O9A O 0.3818(3) 0.3742(4) 0.3431(3)
O10* O 0.8576(3) 0.8140(4) -0.3136(4)
O11A O 0.1805(3) 0.3454(3) 0.3572(3)
Zn1* Zn -0.26345(4) 0.84721(5) 0.73447(4)
Zn1** Zn 0.73655(4) 0.84721(5) 0.73447(4)
Zn1A Zn 0.26345(4) 1.15279(5) 0.26553(4)
#END
