
#######################################################################
#
#                 Cambridge Crystallographic Data Centre
#                                CCDC
#
#######################################################################
#
# If this CIF has been generated from an entry in the Cambridge
# Structural Database, then it will include bibliographic, chemical,
# crystal, experimental, refinement or atomic coordinate data resulting
# from the CCDC's data processing and validation procedures.
#
#######################################################################

data_CSD_CIF_JUVZIL
_audit_creation_date 2015-12-09
_audit_creation_method CSD-ConQuest-V1
_database_code_CSD JUVZIL
_database_code_depnum_ccdc_archive 'CCDC 600518'
_chemical_formula_sum 'C80 H116 K4 N12 O26 S12 Sn2'
_chemical_formula_moiety
;
(C60 H72 K3 N12 O18 S12 Sn2 1-)n,C12 H24 K1 O6 1+,2(C4 H10 O1)
;
_journal_coden_Cambridge 923
_journal_volume 46
_journal_year 2016
_journal_page_first 617
_journal_name_full 'Synth.React.Inorg.,Met.-Org.,Nano-Met.Chem. '
loop_
_publ_author_name
"Lingqian Kong"
"Jianzhong Xu"
"Shengli Li"
"Dacheng Li"
"Jianmin Dou"
_chemical_name_systematic
;
catena-[(18-crown-6)-potassium 
hexakis(\m-dicyanoethene-1,1-dithiolato)-tris(18-crown-6)-tri-potassium-di-tin
 diethyl ether solvate]
;
_cell_volume   2948.361
_exptl_crystal_colour 'colorless'
_exptl_crystal_density_diffrn 1.375
_exptl_crystal_description 'block'
_diffrn_ambient_temperature 298
#These two values have been output from a single CSD field.
_refine_ls_R_factor_gt 0.0483
_refine_ls_wR_factor_gt 0.0483
_symmetry_cell_setting triclinic
_symmetry_space_group_name_H-M 'P -1'
_symmetry_Int_Tables_number 2
loop_
_symmetry_equiv_pos_site_id
_symmetry_equiv_pos_as_xyz
1 x,y,z
2 -x,-y,-z
_cell_length_a 8.558(10)
_cell_length_b 16.535(18)
_cell_length_c 21.16(2)
_cell_angle_alpha 87.95(2)
_cell_angle_beta 88.09(2)
_cell_angle_gamma 80.290(19)
_cell_formula_units_Z 1
loop_
_atom_type_symbol
_atom_type_radius_bond
C 0.68
H 0.23
K 2.03
N 0.68
O 0.68
S 1.02
Sn 1.39
loop_
_atom_site_label
_atom_site_type_symbol
_atom_site_fract_x
_atom_site_fract_y
_atom_site_fract_z
Sn1 Sn 0.84614(4) 0.31897(2) 0.764536(18)
K1 K 0.71572(14) 0.77026(7) 0.54784(6)
K2 K 0.50000 0.00000 1.00000
N1 N 0.6444(7) 0.6559(3) 0.6417(3)
N2 N 0.2420(6) 0.5361(3) 0.6846(3)
N3 N 0.7412(7) 0.0985(3) 0.9919(3)
N4 N 0.8280(6) 0.3363(3) 1.0472(3)
N5 N 1.1879(7) 0.1206(3) 0.5543(2)
N6 N 1.5242(6) 0.1687(3) 0.6955(3)
O1 O 0.8603(5) 0.6252(2) 0.4878(2)
O2 O 0.5630(5) 0.7082(3) 0.45099(17)
O3 O 0.3946(5) 0.8320(3) 0.5254(2)
O4 O 0.5812(7) 0.9206(2) 0.5971(2)
O5 O 0.8749(7) 0.8421(4) 0.6379(2)
O6 O 1.0374(5) 0.7118(3) 0.5622(2)
O7 O 0.6923(4) -0.15275(19) 1.0262(2)
O8 O 0.6650(4) -0.0894(2) 0.90086(18)
O9 O 0.4224(5) 0.0432(2) 0.87740(17)
S1 S 0.84400(17) 0.45812(8) 0.71147(6)
S2 S 0.56498(16) 0.37668(8) 0.73779(7)
S3 S 0.78084(17) 0.20386(8) 0.83598(7)
S4 S 0.84470(16) 0.36292(8) 0.87816(6)
S5 S 0.91874(17) 0.22937(8) 0.67101(6)
S6 S 1.14331(16) 0.27997(8) 0.75884(7)
C1 C 0.7985(8) 0.6149(3) 0.4285(3)
H1 H 0.83960 0.56030 0.41380
H2 H 0.83010 0.65460 0.39800
C2 C 0.6220(8) 0.6265(4) 0.4347(3)
H3 H 0.57820 0.61480 0.39500
H4 H 0.59060 0.58900 0.46710
C3 C 0.3972(8) 0.7238(4) 0.4554(3)
H5 H 0.36080 0.69120 0.49020
H6 H 0.35390 0.70840 0.41670
C4 C 0.3407(7) 0.8125(5) 0.4661(3)
H7 H 0.38150 0.84540 0.43260
H8 H 0.22580 0.82410 0.46590
C5 C 0.3526(9) 0.9167(5) 0.5388(4)
H9 H 0.23820 0.93250 0.53940
H10 H 0.39690 0.94960 0.50610
C6 C 0.4147(11) 0.9316(4) 0.6012(4)
H11 H 0.37270 0.98710 0.61370
H12 H 0.38140 0.89370 0.63290
C7 C 0.6516(12) 0.9410(5) 0.6525(4)
H13 H 0.62150 0.90790 0.68820
H14 H 0.61490 0.99830 0.66150
C8 C 0.8245(11) 0.9262(6) 0.6434(5)
H15 H 0.85440 0.95520 0.60550
H16 H 0.87370 0.94580 0.67920
C9 C 1.0396(11) 0.8208(5) 0.6308(4)
H17 H 1.08930 0.83610 0.66810
H18 H 1.07620 0.85090 0.59460
C10 C 1.0873(8) 0.7317(5) 0.6216(4)
H19 H 1.20160 0.71690 0.62380
H20 H 1.03960 0.70120 0.65480
C11 C 1.0788(7) 0.6270(4) 0.5509(3)
H21 H 1.02660 0.59530 0.58200
H22 H 1.19250 0.60970 0.55360
C12 C 1.0267(8) 0.6138(3) 0.4864(3)
H23 H 1.06390 0.65250 0.45640
H24 H 1.07010 0.55870 0.47350
C13 C 0.8009(7) -0.1790(3) 0.9771(3)
H25 H 0.85060 -0.23530 0.98560
H26 H 0.88320 -0.14510 0.97450
C14 C 0.7187(7) -0.1732(3) 0.9161(3)
H27 H 0.79090 -0.19770 0.88310
H28 H 0.62950 -0.20250 0.91970
C15 C 0.5879(7) -0.0762(3) 0.8438(3)
H29 H 0.49540 -0.10300 0.84540
H30 H 0.65830 -0.09950 0.80980
C16 C 0.5390(7) 0.0127(4) 0.8314(3)
H31 H 0.62980 0.04040 0.83360
H32 H 0.49630 0.02250 0.78940
C17 C 0.3589(7) 0.1260(4) 0.8660(3)
H33 H 0.31340 0.13310 0.82440
H34 H 0.44240 0.15900 0.86710
C18 C 0.2345(7) 0.1536(3) 0.9150(3)
H35 H 0.18080 0.20850 0.90430
H36 H 0.15660 0.11710 0.91710
C19 C 0.6416(6) 0.4623(3) 0.7092(2)
C20 C 0.5429(7) 0.5288(3) 0.6856(3)
C21 C 0.6017(8) 0.5975(4) 0.6615(3)
C22 C 0.3750(9) 0.5321(3) 0.6849(3)
C23 C 0.8044(5) 0.2672(3) 0.8973(2)
C24 C 0.7906(6) 0.2412(3) 0.9586(3)
C25 C 0.7610(6) 0.1614(4) 0.9764(3)
C26 C 0.8100(6) 0.2939(3) 1.0085(3)
C27 C 1.1113(6) 0.2274(3) 0.6935(2)
C28 C 1.2353(7) 0.1846(3) 0.6593(3)
C29 C 1.2092(8) 0.1478(3) 0.6015(3)
C30 C 1.3964(9) 0.1768(4) 0.6791(3)
K3 K 1.00000 0.50000 1.00000
O10 O 0.9569(5) 0.4851(2) 1.12968(17)
O11 O 1.2312(5) 0.3967(2) 1.0725(2)
O12 O 1.2948(4) 0.4427(2) 0.9477(2)
C31 C 0.7950(8) 0.4999(4) 1.1500(3)
H37 H 0.78760 0.50910 1.19520
H38 H 0.74670 0.45230 1.14220
C32 C 1.0418(8) 0.4152(4) 1.1580(3)
H39 H 1.00090 0.36720 1.14530
H40 H 1.03020 0.41840 1.20370
C33 C 1.2109(8) 0.4080(3) 1.1388(3)
H41 H 1.25000 0.45730 1.14980
H42 H 1.27180 0.36180 1.16150
C34 C 1.3856(8) 0.4003(3) 1.0502(3)
H43 H 1.46130 0.36170 1.07400
H44 H 1.40950 0.45510 1.05490
C35 C 1.3954(7) 0.3794(4) 0.9825(3)
H45 H 1.50400 0.37520 0.96660
H46 H 1.36140 0.32700 0.97750
C36 C 1.2901(7) 0.4275(4) 0.8843(3)
H47 H 1.23700 0.38090 0.87890
H48 H 1.39730 0.41400 0.86700
O13 O 0.2056(8) 0.8694(5) 0.7851(3)
C37 C 0.1992(17) 0.8022(7) 0.8193(6)
H49 H 0.09650 0.78510 0.81720
H50 H 0.22320 0.80850 0.86310
C38 C 0.3376(14) 0.7387(6) 0.7838(5)
H51 H 0.34960 0.68610 0.80550
H52 H 0.43590 0.75940 0.78430
H53 H 0.30920 0.73320 0.74090
C39 C 0.0807(11) 0.9382(7) 0.8181(5)
H54 H -0.02610 0.92570 0.81940
H55 H 0.11100 0.95020 0.86010
C40 C 0.1036(10) 1.0070(4) 0.7679(4)
H56 H 0.03770 1.05750 0.77940
H57 H 0.07460 0.99160 0.72710
H58 H 0.21260 1.01420 0.76630
O7A O 0.3077(4) 0.15275(19) 0.9738(2)
O8A O 0.3350(4) 0.0894(2) 1.09914(18)
O9A O 0.5776(5) -0.0432(2) 1.12260(17)
C13A C 0.1991(7) 0.1790(3) 1.0229(3)
H25A H 0.14940 0.23530 1.01440
H26A H 0.11680 0.14510 1.02550
C14A C 0.2813(7) 0.1732(3) 1.0839(3)
H27A H 0.20910 0.19770 1.11690
H28A H 0.37050 0.20250 1.08030
C15A C 0.4121(7) 0.0762(3) 1.1562(3)
H29A H 0.50460 0.10300 1.15460
H30A H 0.34170 0.09950 1.19020
C16A C 0.4610(7) -0.0127(4) 1.1686(3)
H31A H 0.37020 -0.04040 1.16640
H32A H 0.50370 -0.02250 1.21060
C17A C 0.6411(7) -0.1260(4) 1.1340(3)
H33A H 0.68660 -0.13310 1.17560
H34A H 0.55760 -0.15900 1.13290
C18A C 0.7655(7) -0.1536(3) 1.0850(3)
H35A H 0.81920 -0.20850 1.09570
H36A H 0.84340 -0.11710 1.08290
Sn1A Sn 0.15386(4) -0.31897(2) 1.235464(18)
K1A K 0.28428(14) -0.77026(7) 1.45216(6)
N1A N 0.3556(7) -0.6559(3) 1.3583(3)
N2A N 0.7580(6) -0.5361(3) 1.3154(3)
N3A N 0.2588(7) -0.0985(3) 1.0081(3)
N4A N 0.1720(6) -0.3363(3) 0.9528(3)
N5A N -0.1879(7) -0.1206(3) 1.4457(2)
N6A N -0.5242(6) -0.1687(3) 1.3045(3)
O1A O 0.1397(5) -0.6252(2) 1.5122(2)
O2A O 0.4370(5) -0.7082(3) 1.54901(17)
O3A O 0.6054(5) -0.8320(3) 1.4746(2)
O4A O 0.4188(7) -0.9206(2) 1.4029(2)
O5A O 0.1251(7) -0.8421(4) 1.3621(2)
O6A O -0.0374(5) -0.7118(3) 1.4378(2)
S1A S 0.15600(17) -0.45812(8) 1.28853(6)
S2A S 0.43502(16) -0.37668(8) 1.26221(7)
S3A S 0.21916(17) -0.20386(8) 1.16402(7)
S4A S 0.15530(16) -0.36292(8) 1.12184(6)
S5A S 0.08126(17) -0.22937(8) 1.32899(6)
S6A S -0.14331(16) -0.27997(8) 1.24116(7)
C1A C 0.2015(8) -0.6149(3) 1.5715(3)
H1A H 0.16040 -0.56030 1.58620
H2A H 0.16990 -0.65460 1.60200
C2A C 0.3780(8) -0.6265(4) 1.5653(3)
H3A H 0.42180 -0.61480 1.60500
H4A H 0.40940 -0.58900 1.53290
C3A C 0.6028(8) -0.7238(4) 1.5446(3)
H5A H 0.63920 -0.69120 1.50980
H6A H 0.64610 -0.70840 1.58330
C4A C 0.6593(7) -0.8125(5) 1.5339(3)
H7A H 0.61850 -0.84540 1.56740
H8A H 0.77420 -0.82410 1.53410
C5A C 0.6474(9) -0.9167(5) 1.4612(4)
H9A H 0.76180 -0.93250 1.46060
H10A H 0.60310 -0.94960 1.49390
C6A C 0.5853(11) -0.9316(4) 1.3988(4)
H11A H 0.62730 -0.98710 1.38630
H12A H 0.61860 -0.89370 1.36710
C7A C 0.3484(12) -0.9410(5) 1.3475(4)
H13A H 0.37850 -0.90790 1.31180
H14A H 0.38510 -0.99830 1.33850
C8A C 0.1755(11) -0.9262(6) 1.3566(5)
H15A H 0.14560 -0.95520 1.39450
H16A H 0.12630 -0.94580 1.32080
C9A C -0.0396(11) -0.8208(5) 1.3692(4)
H17A H -0.08930 -0.83610 1.33190
H18A H -0.07620 -0.85090 1.40540
C10A C -0.0873(8) -0.7317(5) 1.3784(4)
H19A H -0.20160 -0.71690 1.37620
H20A H -0.03960 -0.70120 1.34520
C11A C -0.0788(7) -0.6270(4) 1.4491(3)
H21A H -0.02660 -0.59530 1.41800
H22A H -0.19250 -0.60970 1.44640
C12A C -0.0267(8) -0.6138(3) 1.5136(3)
H23A H -0.06390 -0.65250 1.54360
H24A H -0.07010 -0.55870 1.52650
C19A C 0.3584(6) -0.4623(3) 1.2908(2)
C20A C 0.4571(7) -0.5288(3) 1.3144(3)
C21A C 0.3983(8) -0.5975(4) 1.3385(3)
C22A C 0.6250(9) -0.5321(3) 1.3151(3)
C23A C 0.1956(5) -0.2672(3) 1.1027(2)
C24A C 0.2094(6) -0.2412(3) 1.0414(3)
C25A C 0.2390(6) -0.1614(4) 1.0236(3)
C26A C 0.1900(6) -0.2939(3) 0.9915(3)
C27A C -0.1113(6) -0.2274(3) 1.3065(2)
C28A C -0.2353(7) -0.1846(3) 1.3407(3)
C29A C -0.2092(8) -0.1478(3) 1.3985(3)
C30A C -0.3964(9) -0.1768(4) 1.3209(3)
K1* K -0.28428(14) -0.22974(7) 1.54784(6)
K1A* K 1.28428(14) 0.22974(7) 0.45216(6)
N5* N 0.1879(7) -0.8794(3) 1.5543(2)
N5A* N 0.8121(7) 0.8794(3) 0.4457(2)
O10A O 1.0431(5) 0.5149(2) 0.87032(17)
O11A O 0.7688(5) 0.6033(2) 0.9275(2)
O12A O 0.7052(4) 0.5573(2) 1.0523(2)
C31A C 1.2050(8) 0.5001(4) 0.8500(3)
H37A H 1.21240 0.49090 0.80480
H38A H 1.25330 0.54770 0.85780
C32A C 0.9582(8) 0.5848(4) 0.8420(3)
H39A H 0.99910 0.63280 0.85470
H40A H 0.96980 0.58160 0.79630
C33A C 0.7891(8) 0.5920(3) 0.8612(3)
H41A H 0.75000 0.54270 0.85020
H42A H 0.72820 0.63820 0.83850
C34A C 0.6144(8) 0.5997(3) 0.9498(3)
H43A H 0.53870 0.63830 0.92600
H44A H 0.59050 0.54490 0.94510
C35A C 0.6046(7) 0.6206(4) 1.0175(3)
H45A H 0.49600 0.62480 1.03340
H46A H 0.63860 0.67300 1.02250
C36A C 0.7099(7) 0.5725(4) 1.1157(3)
H47A H 0.76300 0.61910 1.12110
H48A H 0.60270 0.58600 1.13300
#END
