
#######################################################################
#
#                 Cambridge Crystallographic Data Centre
#                                CCDC
#
#######################################################################
#
# If this CIF has been generated from an entry in the Cambridge
# Structural Database, then it will include bibliographic, chemical,
# crystal, experimental, refinement or atomic coordinate data resulting
# from the CCDC's data processing and validation procedures.
#
#######################################################################

data_CSD_CIF_JUXQIE
_audit_creation_date 2015-12-09
_audit_creation_method CSD-ConQuest-V1
_database_code_CSD JUXQIE
_database_code_depnum_ccdc_archive 'CCDC 1417211'
_chemical_formula_sum 'C150 H101 Cu4 I3 La6 N12 O39'
_chemical_formula_moiety
;
(C150 H98 Cu4 I3 La6 N12 O38 1-)n,n(H3 O1 1+)
;
_journal_coden_Cambridge 182
_journal_volume 52
_journal_year 2016
_journal_page_first 1455
_journal_name_full 'Chem.Commun. '
loop_
_publ_author_name
"Wei-Hui Fang"
"Lei Zhang"
"Jian Zhang"
"Guo-Yu Yang"
_chemical_name_systematic
;
catena-(Oxonium 
tris(\m~4~-oxalato)-hexakis(\m~3~-4-(3-pyridyl)benzoato-N,O,O')-hexakis(\m~3~-
4-(3-pyridyl)benzoato-N,O,O,O')-bis(\m~3~-hydroxo)-(\m~2~-iodo)-bis(iodo)-tetr
a-copper-hexa-lanthanum)
;
_chemical_name_common
;
FJ-27
;
_cell_volume   7528.009
_exptl_crystal_colour 'yellow'
_exptl_crystal_density_diffrn 1.837
_exptl_crystal_description 'hexagonal'
_diffrn_ambient_temperature 293
_refine_special_details
;
The lanthanum atom is disordered over two sites with occupancies 0.90:0.10.

;
#These two values have been output from a single CSD field.
_refine_ls_R_factor_gt 0.0955
_refine_ls_wR_factor_gt 0.0955
_symmetry_cell_setting hexagonal
_symmetry_space_group_name_H-M 'P -3 c 1'
_symmetry_Int_Tables_number 165
loop_
_symmetry_equiv_pos_site_id
_symmetry_equiv_pos_as_xyz
1 x,y,z
2 -y,x-y,z
3 -x+y,-x,z
4 y,x,1/2-z
5 -x,-x+y,1/2-z
6 x-y,-y,1/2-z
7 -x,-y,-z
8 y,-x+y,-z
9 x-y,x,-z
10 -y,-x,-1/2+z
11 x,x-y,-1/2+z
12 -x+y,y,-1/2+z
_cell_length_a 13.0142(3)
_cell_length_b 13.0142(3)
_cell_length_c 51.3233(11)
_cell_angle_alpha 90
_cell_angle_beta 90
_cell_angle_gamma 120
_cell_formula_units_Z 2
loop_
_atom_type_symbol
_atom_type_radius_bond
C 0.68
H 0.23
Cu 1.32
I 1.40
La 2.07
N 0.68
O 0.68
loop_
_atom_site_label
_atom_site_type_symbol
_atom_site_fract_x
_atom_site_fract_y
_atom_site_fract_z
La1 La 0.46567(9) 0.17974(9) 0.235630(18)
Cu1 Cu 0.66670 0.33330 0.01721(8)
Cu2 Cu 0.00000 0.00000 0.44711(6)
I1 I 0.66670 0.33330 -0.03229(3)
I2 I 0.00000 0.00000 0.50000
C1 C 0.6484(13) 0.1402(12) 0.1868(2)
C2 C 0.5631(15) 0.1292(14) 0.1161(3)
H1 H 0.52030 0.15430 0.10610
C3 C 0.5660(14) 0.1421(13) 0.1426(3)
H2 H 0.52460 0.17530 0.15030
C4 C 0.6292(12) 0.1068(12) 0.1583(2)
C5 C 0.6855(14) 0.0515(14) 0.1463(3)
H3 H 0.72630 0.02430 0.15640
C6 C 0.6809(14) 0.0371(14) 0.1197(3)
H4 H 0.71710 -0.00160 0.11210
C7 C 0.6235(14) 0.0790(14) 0.1042(3)
C8 C 0.628(2) 0.163(2) 0.0606(3)
H5 H 0.61360 0.21770 0.06940
C9 C 0.6314(15) 0.0764(14) 0.0752(3)
C10 C 0.641(3) -0.008(3) 0.0615(4)
H6 H 0.63980 -0.07110 0.07010
C11 C 0.652(4) 0.003(3) 0.0345(4)
H7 H 0.65680 -0.05520 0.02480
C12 C 0.656(3) 0.098(2) 0.0222(3)
H8 H 0.66940 0.10710 0.00440
C13 C 0.4149(10) 0.1154(10) 0.2932(2)
C14 C 0.4424(14) 0.1660(15) 0.3653(3)
H9 H 0.49850 0.21900 0.37700
C15 C 0.4677(14) 0.1774(15) 0.3392(3)
H10 H 0.54030 0.23920 0.33350
C16 C 0.3881(12) 0.0993(12) 0.3211(2)
C17 C 0.2790(14) 0.0091(13) 0.3303(3)
H11 H 0.22350 -0.04470 0.31860
C18 C 0.2526(15) -0.0012(14) 0.3564(3)
H12 H 0.17900 -0.06100 0.36210
C19 C 0.3351(14) 0.0773(13) 0.3745(2)
C20 C 0.2387(18) 0.023(2) 0.4536(3)
H13 H 0.21650 0.00820 0.47100
C21 C 0.3531(18) 0.053(2) 0.4471(3)
H14 H 0.40670 0.05960 0.45990
C22 C 0.3866(18) 0.0728(18) 0.4214(3)
H15 H 0.46360 0.09380 0.41660
C23 C 0.3052(15) 0.0614(14) 0.4026(2)
C24 C 0.1915(14) 0.0324(14) 0.4111(3)
H16 H 0.13640 0.02570 0.39870
C25 C 0.3966(13) 0.3966(13) 0.25000
C26 C 0.2747(11) 0.2747(11) 0.25000
N1 N 0.6425(18) 0.1757(16) 0.0347(3)
N2 N 0.1576(13) 0.0136(13) 0.4363(2)
O1 O 0.5767(10) 0.1658(9) 0.19731(17)
O2 O 0.7346(8) 0.1424(9) 0.19779(16)
O3 O 0.4942(8) 0.2117(8) 0.28499(17)
O4 O 0.3579(9) 0.0290(8) 0.27703(16)
O5 O 0.2809(7) 0.1803(7) 0.2482(2)
O6 O 0.4880(7) 0.3904(7) 0.24813(16)
O7 O 0.66670 0.33330 0.2458(3)
O8 O 0.00000 0.00000 0.3536(9)
La2? La 0.467(3) 0.185(3) 0.2354(7)
O5C O 0.1803(7) 0.2809(7) 0.2518(2)
O6C O 0.3904(7) 0.4880(7) 0.25187(16)
La1A La -0.17974(9) 0.28593(9) 0.235630(18)
Cu1* Cu -0.33330 0.33330 0.01721(8)
I1* I -0.33330 0.33330 -0.03229(3)
C1A C -0.1402(13) 0.5082(12) 0.1868(2)
C2A C -0.1292(15) 0.4339(14) 0.1161(3)
H1A H -0.15430 0.36600 0.10610
C3A C -0.1421(14) 0.4239(13) 0.1426(3)
H2A H -0.17530 0.34930 0.15030
C4A C -0.1068(12) 0.5224(12) 0.1583(2)
C5A C -0.0515(14) 0.6340(14) 0.1463(3)
H3A H -0.02430 0.70200 0.15640
C6A C -0.0371(14) 0.6438(14) 0.1197(3)
H4A H 0.00160 0.71870 0.11210
C7A C -0.0790(14) 0.5445(14) 0.1042(3)
C8A C -0.163(2) 0.465(2) 0.0606(3)
H5A H -0.21770 0.39590 0.06940
C9A C -0.0764(15) 0.5550(14) 0.0752(3)
C10A C 0.008(3) 0.649(3) 0.0615(4)
H6A H 0.07110 0.71090 0.07010
C11A C -0.003(4) 0.649(3) 0.0345(4)
H7A H 0.05520 0.71200 0.02480
C12A C -0.098(3) 0.558(2) 0.0222(3)
H8A H -0.10710 0.56230 0.00440
C13A C -0.1154(10) 0.2995(10) 0.2932(2)
C14A C -0.1660(14) 0.2764(15) 0.3653(3)
H9A H -0.21900 0.27950 0.37700
C15A C -0.1774(14) 0.2903(15) 0.3392(3)
H10A H -0.23920 0.30110 0.33350
C16A C -0.0993(12) 0.2888(12) 0.3211(2)
C17A C -0.0091(14) 0.2699(13) 0.3303(3)
H11A H 0.04470 0.26820 0.31860
C18A C 0.0012(15) 0.2538(14) 0.3564(3)
H12A H 0.06100 0.24000 0.36210
C19A C -0.0773(14) 0.2578(13) 0.3745(2)
C20A C -0.0230(18) 0.2157(20) 0.4536(3)
H13A H -0.00820 0.20830 0.47100
C21A C -0.0530(18) 0.3001(20) 0.4471(3)
H14A H -0.05960 0.34710 0.45990
C22A C -0.0728(18) 0.3138(18) 0.4214(3)
H15A H -0.09380 0.36980 0.41660
C23A C -0.0614(15) 0.2438(14) 0.4026(2)
C24A C -0.0324(14) 0.1591(14) 0.4111(3)
H16A H -0.02570 0.11070 0.39870
C25A C -0.3966(13) 0.0000(13) 0.25000
C26A C -0.2747(11) 0.0000(11) 0.25000
N1A N -0.1757(18) 0.4668(16) 0.0347(3)
N2A N -0.0136(13) 0.1440(13) 0.4363(2)
O1A O -0.1658(10) 0.4109(9) 0.19731(17)
O2A O -0.1424(8) 0.5922(9) 0.19779(16)
O3A O -0.2117(8) 0.2825(8) 0.28499(17)
O4A O -0.0290(9) 0.3289(8) 0.27703(16)
O5A O -0.1803(7) 0.1006(7) 0.2482(2)
O6A O -0.3904(7) 0.0976(7) 0.24813(16)
O7* O -0.33330 0.33330 0.2458(3)
O5D O -0.2809(7) -0.1006(7) 0.2518(2)
O6D O -0.4880(7) -0.0976(7) 0.25187(16)
La1B La -0.28593(9) -0.46567(9) 0.235630(18)
C1B C -0.5082(13) -0.6484(12) 0.1868(2)
C2B C -0.4339(15) -0.5631(14) 0.1161(3)
H1B H -0.36600 -0.52030 0.10610
C3B C -0.4239(14) -0.5660(13) 0.1426(3)
H2B H -0.34930 -0.52460 0.15030
C4B C -0.5224(12) -0.6292(12) 0.1583(2)
C5B C -0.6340(14) -0.6855(14) 0.1463(3)
H3B H -0.70200 -0.72630 0.15640
C6B C -0.6438(14) -0.6809(14) 0.1197(3)
H4B H -0.71870 -0.71710 0.11210
C7B C -0.5445(14) -0.6235(14) 0.1042(3)
C8B C -0.465(2) -0.628(2) 0.0606(3)
H5B H -0.39590 -0.61360 0.06940
C9B C -0.5550(15) -0.6314(14) 0.0752(3)
C10B C -0.649(3) -0.641(3) 0.0615(4)
H6B H -0.71090 -0.63980 0.07010
C11B C -0.649(4) -0.652(3) 0.0345(4)
H7B H -0.71200 -0.65680 0.02480
C12B C -0.558(3) -0.656(2) 0.0222(3)
H8B H -0.56230 -0.66940 0.00440
C13B C -0.2995(10) -0.4149(10) 0.2932(2)
C14B C -0.2764(14) -0.4424(15) 0.3653(3)
H9B H -0.27950 -0.49850 0.37700
C15B C -0.2903(14) -0.4677(15) 0.3392(3)
H10B H -0.30110 -0.54030 0.33350
C16B C -0.2888(12) -0.3881(12) 0.3211(2)
C17B C -0.2699(14) -0.2790(13) 0.3303(3)
H11B H -0.26820 -0.22350 0.31860
C18B C -0.2538(15) -0.2526(14) 0.3564(3)
H12B H -0.24000 -0.17900 0.36210
C19B C -0.2578(14) -0.3351(13) 0.3745(2)
C20B C -0.2157(18) -0.2387(20) 0.4536(3)
H13B H -0.20830 -0.21650 0.47100
C21B C -0.3001(18) -0.3531(20) 0.4471(3)
H14B H -0.34710 -0.40670 0.45990
C22B C -0.3138(18) -0.3866(18) 0.4214(3)
H15B H -0.36980 -0.46360 0.41660
C23B C -0.2438(15) -0.3052(14) 0.4026(2)
C24B C -0.1591(14) -0.1915(14) 0.4111(3)
H16B H -0.11070 -0.13640 0.39870
C25B C 0.0000(13) -0.3966(13) 0.25000
C26B C 0.0000(11) -0.2747(11) 0.25000
N1B N -0.4668(18) -0.6425(16) 0.0347(3)
N2B N -0.1440(13) -0.1576(13) 0.4363(2)
O1B O -0.4109(10) -0.5767(9) 0.19731(17)
O2B O -0.5922(8) -0.7346(9) 0.19779(16)
O3B O -0.2825(8) -0.4942(8) 0.28499(17)
O4B O -0.3289(9) -0.3579(8) 0.27703(16)
O5B O -0.1006(7) -0.2809(7) 0.2482(2)
O6B O -0.0976(7) -0.4880(7) 0.24813(16)
O5E O 0.1006(7) -0.1803(7) 0.2518(2)
O6E O 0.0976(7) -0.3904(7) 0.25187(16)
La1C La 0.17974(9) 0.46567(9) 0.264370(18)
Cu2C Cu 0.00000 0.00000 0.05289(6)
C1C C 0.1402(13) 0.6484(12) 0.3132(2)
C2C C 0.1292(15) 0.5631(14) 0.3839(3)
H1C H 0.15430 0.52030 0.39390
C3C C 0.1421(14) 0.5660(13) 0.3574(3)
H2C H 0.17530 0.52460 0.34970
C4C C 0.1068(12) 0.6292(12) 0.3417(2)
C5C C 0.0515(14) 0.6855(14) 0.3537(3)
H3C H 0.02430 0.72630 0.34360
C6C C 0.0371(14) 0.6809(14) 0.3803(3)
H4C H -0.00160 0.71710 0.38790
C7C C 0.0790(14) 0.6235(14) 0.3958(3)
C8C C 0.163(2) 0.628(2) 0.4394(3)
H5C H 0.21770 0.61360 0.43060
C9C C 0.0764(15) 0.6314(14) 0.4248(3)
C10C C -0.008(3) 0.641(3) 0.4385(4)
H6C H -0.07110 0.63980 0.42990
C11C C 0.003(4) 0.652(3) 0.4655(4)
H7C H -0.05520 0.65680 0.47520
C12C C 0.098(3) 0.656(2) 0.4778(3)
H8C H 0.10710 0.66940 0.49560
C13C C 0.1154(10) 0.4149(10) 0.2068(2)
C14C C 0.1660(14) 0.4424(15) 0.1347(3)
H9C H 0.21900 0.49850 0.12300
C15C C 0.1774(14) 0.4677(15) 0.1608(3)
H10C H 0.23920 0.54030 0.16650
C16C C 0.0993(12) 0.3881(12) 0.1789(2)
C17C C 0.0091(14) 0.2790(13) 0.1697(3)
H11C H -0.04470 0.22350 0.18140
C18C C -0.0012(15) 0.2526(14) 0.1436(3)
H12C H -0.06100 0.17900 0.13790
C19C C 0.0773(14) 0.3351(13) 0.1255(2)
C20C C 0.0230(18) 0.2387(20) 0.0464(3)
H13C H 0.00820 0.21650 0.02900
C21C C 0.0530(18) 0.3531(20) 0.0529(3)
H14C H 0.05960 0.40670 0.04010
C22C C 0.0728(18) 0.3866(18) 0.0786(3)
H15C H 0.09380 0.46360 0.08340
C23C C 0.0614(15) 0.3052(14) 0.0974(2)
C24C C 0.0324(14) 0.1915(14) 0.0889(3)
H16C H 0.02570 0.13640 0.10130
N1C N 0.1757(18) 0.6425(16) 0.4653(3)
N2C N 0.0136(13) 0.1576(13) 0.0637(2)
O1C O 0.1658(10) 0.5767(9) 0.30269(17)
O2C O 0.1424(8) 0.7346(9) 0.30221(16)
O3C O 0.2117(8) 0.4942(8) 0.21501(17)
O4C O 0.0290(9) 0.3579(8) 0.22297(16)
La1D La -0.46567(9) -0.28593(9) 0.264370(18)
C1D C -0.6484(13) -0.5082(12) 0.3132(2)
C2D C -0.5631(15) -0.4339(14) 0.3839(3)
H1D H -0.52030 -0.36600 0.39390
C3D C -0.5660(14) -0.4239(13) 0.3574(3)
H2D H -0.52460 -0.34930 0.34970
C4D C -0.6292(12) -0.5224(12) 0.3417(2)
C5D C -0.6855(14) -0.6340(14) 0.3537(3)
H3D H -0.72630 -0.70200 0.34360
C6D C -0.6809(14) -0.6438(14) 0.3803(3)
H4D H -0.71710 -0.71870 0.38790
C7D C -0.6235(14) -0.5445(14) 0.3958(3)
C8D C -0.628(2) -0.465(2) 0.4394(3)
H5D H -0.61360 -0.39590 0.43060
C9D C -0.6314(15) -0.5550(14) 0.4248(3)
C10D C -0.641(3) -0.649(3) 0.4385(4)
H6D H -0.63980 -0.71090 0.42990
C11D C -0.652(4) -0.649(3) 0.4655(4)
H7D H -0.65680 -0.71200 0.47520
C12D C -0.656(3) -0.558(2) 0.4778(3)
H8D H -0.66940 -0.56230 0.49560
C13D C -0.4149(10) -0.2995(10) 0.2068(2)
C14D C -0.4424(14) -0.2764(15) 0.1347(3)
H9D H -0.49850 -0.27950 0.12300
C15D C -0.4677(14) -0.2903(15) 0.1608(3)
H10D H -0.54030 -0.30110 0.16650
C16D C -0.3881(12) -0.2888(12) 0.1789(2)
C17D C -0.2790(14) -0.2699(13) 0.1697(3)
H11D H -0.22350 -0.26820 0.18140
C18D C -0.2526(15) -0.2538(14) 0.1436(3)
H12D H -0.17900 -0.24000 0.13790
C19D C -0.3351(14) -0.2578(13) 0.1255(2)
C20D C -0.2387(18) -0.2157(20) 0.0464(3)
H13D H -0.21650 -0.20830 0.02900
C21D C -0.3531(18) -0.3001(20) 0.0529(3)
H14D H -0.40670 -0.34710 0.04010
C22D C -0.3866(18) -0.3138(18) 0.0786(3)
H15D H -0.46360 -0.36980 0.08340
C23D C -0.3052(15) -0.2438(14) 0.0974(2)
C24D C -0.1915(14) -0.1591(14) 0.0889(3)
H16D H -0.13640 -0.11070 0.10130
N1D N -0.6425(18) -0.4668(16) 0.4653(3)
N2D N -0.1576(13) -0.1440(13) 0.0637(2)
O1D O -0.5767(10) -0.4109(9) 0.30269(17)
O2D O -0.7346(8) -0.5922(9) 0.30221(16)
O3D O -0.4942(8) -0.2825(8) 0.21501(17)
O4D O -0.3579(9) -0.3289(8) 0.22297(16)
La1E La 0.28593(9) -0.17974(9) 0.264370(18)
C1E C 0.5082(13) -0.1402(12) 0.3132(2)
C2E C 0.4339(15) -0.1292(14) 0.3839(3)
H1E H 0.36600 -0.15430 0.39390
C3E C 0.4239(14) -0.1421(13) 0.3574(3)
H2E H 0.34930 -0.17530 0.34970
C4E C 0.5224(12) -0.1068(12) 0.3417(2)
C5E C 0.6340(14) -0.0515(14) 0.3537(3)
H3E H 0.70200 -0.02430 0.34360
C6E C 0.6438(14) -0.0371(14) 0.3803(3)
H4E H 0.71870 0.00160 0.38790
C7E C 0.5445(14) -0.0790(14) 0.3958(3)
C8E C 0.465(2) -0.163(2) 0.4394(3)
H5E H 0.39590 -0.21770 0.43060
C9E C 0.5550(15) -0.0764(14) 0.4248(3)
C10E C 0.649(3) 0.008(3) 0.4385(4)
H6E H 0.71090 0.07110 0.42990
C11E C 0.649(4) -0.003(3) 0.4655(4)
H7E H 0.71200 0.05520 0.47520
C12E C 0.558(3) -0.098(2) 0.4778(3)
H8E H 0.56230 -0.10710 0.49560
C13E C 0.2995(10) -0.1154(10) 0.2068(2)
C14E C 0.2764(14) -0.1660(15) 0.1347(3)
H9E H 0.27950 -0.21900 0.12300
C15E C 0.2903(14) -0.1774(15) 0.1608(3)
H10E H 0.30110 -0.23920 0.16650
C16E C 0.2888(12) -0.0993(12) 0.1789(2)
C17E C 0.2699(14) -0.0091(13) 0.1697(3)
H11E H 0.26820 0.04470 0.18140
C18E C 0.2538(15) 0.0012(14) 0.1436(3)
H12E H 0.24000 0.06100 0.13790
C19E C 0.2578(14) -0.0773(13) 0.1255(2)
C20E C 0.2157(18) -0.023(2) 0.0464(3)
H13E H 0.20830 -0.00820 0.02900
C21E C 0.3001(18) -0.053(2) 0.0529(3)
H14E H 0.34710 -0.05960 0.04010
C22E C 0.3138(18) -0.0728(18) 0.0786(3)
H15E H 0.36980 -0.09380 0.08340
C23E C 0.2438(15) -0.0614(14) 0.0974(2)
C24E C 0.1591(14) -0.0324(14) 0.0889(3)
H16E H 0.11070 -0.02570 0.10130
N1E N 0.4668(18) -0.1757(16) 0.4653(3)
N2E N 0.1440(13) -0.0136(13) 0.0637(2)
O1E O 0.4109(10) -0.1658(9) 0.30269(17)
O2E O 0.5922(8) -0.1424(9) 0.30221(16)
O3E O 0.2825(8) -0.2117(8) 0.21501(17)
O4E O 0.3289(9) -0.0290(8) 0.22297(16)
La1* La -0.53433(9) -0.82026(9) 0.235630(18)
La1** La -0.53433(9) 0.17974(9) 0.235630(18)
La1A* La -0.17974(9) -0.71407(9) 0.235630(18)
La1A** La 0.82026(9) 0.28593(9) 0.235630(18)
La1B* La -0.28593(9) 0.53433(9) 0.235630(18)
La1B** La 0.71407(9) 0.53433(9) 0.235630(18)
La1C* La -0.82026(9) -0.53433(9) 0.264370(18)
La1C** La 0.17974(9) -0.53433(9) 0.264370(18)
La1D* La 0.53433(9) -0.28593(9) 0.264370(18)
La1D** La 0.53433(9) 0.71407(9) 0.264370(18)
La1E* La -0.71407(9) -0.17974(9) 0.264370(18)
La1E** La 0.28593(9) 0.82026(9) 0.264370(18)
Cu1** Cu -0.33330 -0.66670 0.01721(8)
Cu1C Cu -0.66670 -0.33330 0.48279(8)
Cu1C* Cu 0.33330 -0.33330 0.48279(8)
Cu1C** Cu 0.33330 0.66670 0.48279(8)
Cu2F Cu 0.00000 0.00000 0.55289(6)
I2C I 0.00000 0.00000 0.00000
N1* N -0.3575(18) 0.1757(16) 0.0347(3)
N1A* N 0.8243(18) 0.4668(16) 0.0347(3)
N1B* N -0.4668(18) 0.3575(16) 0.0347(3)
N1B** N 0.5332(18) 0.3575(16) 0.0347(3)
O2* O -0.2654(8) 0.1424(9) 0.19779(16)
O2A* O -0.1424(8) -0.4078(9) 0.19779(16)
O2B* O 0.4078(8) 0.2654(9) 0.19779(16)
O2C* O 0.1424(8) -0.2654(9) 0.30221(16)
O2D* O 0.2654(8) 0.4078(9) 0.30221(16)
O2E* O -0.4078(8) -0.1424(9) 0.30221(16)
O6* O -0.5120(7) -0.6096(7) 0.24813(16)
O6A* O 0.6096(7) 0.0976(7) 0.24813(16)
O6B* O -0.0976(7) 0.5120(7) 0.24813(16)
O6C* O -0.6096(7) -0.5120(7) 0.25187(16)
O6D* O 0.5120(7) -0.0976(7) 0.25187(16)
O6E* O 0.0976(7) 0.6096(7) 0.25187(16)
O7** O -0.33330 -0.66670 0.2458(3)
O7C O -0.66670 -0.33330 0.2542(3)
O7C* O 0.33330 -0.33330 0.2542(3)
O7C** O 0.33330 0.66670 0.2542(3)
#END
