
#######################################################################
#
#                 Cambridge Crystallographic Data Centre
#                                CCDC
#
#######################################################################
#
# If this CIF has been generated from an entry in the Cambridge
# Structural Database, then it will include bibliographic, chemical,
# crystal, experimental, refinement or atomic coordinate data resulting
# from the CCDC's data processing and validation procedures.
#
#######################################################################

data_CSD_CIF_JUXSEC
_audit_creation_date 2015-12-09
_audit_creation_method CSD-ConQuest-V1
_database_code_CSD JUXSEC
_database_code_depnum_ccdc_archive 'CCDC 1410772'
_chemical_formula_sum 'C18 H14 N1 O8 Tb1'
_chemical_formula_moiety
;
(C16 H6 O8 Tb1 1-)n,n(C2 H8 N1 1+)
;
_journal_coden_Cambridge 222
_journal_volume 45
_journal_year 2016
_journal_page_first 1040
_journal_name_full 'Dalton Trans. '
loop_
_publ_author_name
"Xiao-Lin Zhao"
"Dan Tian"
"Qiang Gao"
"Hong-Wei Sun"
"Jian Xu"
"Xian-He Bu"
_chemical_name_systematic
;
catena-[dimethylammonium D-(\m-biphenyl-3,3',5,5'-tetracarboxylato)-terbium 
unknown solvate]
;
_cell_volume   3758.267
_exptl_crystal_colour 'colorless'
_exptl_crystal_density_diffrn 1.408
_exptl_crystal_description 'block'
_diffrn_ambient_temperature 293
_refine_special_details
;
Disordered solvent molecules were not modelled and the disordered density was 
taken into account using the SQUEEZE/PLATON procedure; Dimethylammonium 
counterions described in the paper appear to not have been modelled.
;
#These two values have been output from a single CSD field.
_refine_ls_R_factor_gt 0.0418
_refine_ls_wR_factor_gt 0.0418
loop_
_citation_database_id_CSD
_citation_special_details
JUXSIG "is a stereoisomer of this entry"
_symmetry_cell_setting hexagonal
_symmetry_space_group_name_H-M 'P 31 2 1'
_symmetry_Int_Tables_number 152
loop_
_symmetry_equiv_pos_site_id
_symmetry_equiv_pos_as_xyz
1 x,y,z
2 -y,x-y,1/3+z
3 -x+y,-x,2/3+z
4 y,x,-z
5 -x,-x+y,1/3-z
6 x-y,-y,2/3-z
_cell_length_a 13.7685(19)
_cell_length_b 13.7685(19)
_cell_length_c 22.892(5)
_cell_angle_alpha 90
_cell_angle_beta 90
_cell_angle_gamma 120
_cell_formula_units_Z 6
loop_
_atom_type_symbol
_atom_type_radius_bond
C 0.68
H 0.23
O 0.68
Tb 1.94
loop_
_atom_site_label
_atom_site_type_symbol
_atom_site_fract_x
_atom_site_fract_y
_atom_site_fract_z
Tb1 Tb 0.66567(4) 0.97093(3) 0.74371(2)
O1 O 0.5802(6) 0.8144(4) 0.6749(2)
O2 O 0.5092(6) 0.9237(6) 0.6768(3)
O3 O 0.1211(6) 0.7229(6) 0.3262(3)
O4 O 0.0299(5) 0.8149(6) 0.3345(3)
O5 O 0.2687(5) 1.1218(4) 0.5528(2)
O6 O 0.3972(4) 0.4785(4) 0.5482(2)
O7 O 0.3232(5) 0.4893(5) 0.4632(3)
O8 O 0.2768(6) 1.1780(5) 0.4615(2)
C1 C 0.1710(8) 0.8466(7) 0.4064(4)
C2 C 0.1009(8) 0.7933(8) 0.3520(4)
C3 C 0.5161(8) 0.8457(7) 0.6536(4)
C4 C 0.2182(7) 0.7947(9) 0.4369(4)
H1 H 0.20820 0.72650 0.42340
C5 C 0.2811(8) 0.8414(7) 0.4877(4)
C6 C 0.1831(8) 0.9497(7) 0.4264(4)
H2 H 0.15160 0.98550 0.40590
C7 C 0.2432(7) 0.9956(7) 0.4775(4)
C8 C 0.4482(8) 0.7853(8) 0.6009(4)
C9 C 0.3964(7) 0.8352(8) 0.5703(4)
H3 H 0.40380 0.90220 0.58390
C10 C 0.4351(8) 0.6860(7) 0.5822(4)
H4 H 0.46790 0.65180 0.60300
C11 C 0.3629(8) 0.5256(7) 0.5129(4)
C12 C 0.3740(7) 0.6355(7) 0.5330(4)
C13 C 0.3243(7) 0.6849(7) 0.5020(4)
H5 H 0.28340 0.65020 0.46850
C14 C 0.3345(8) 0.7869(8) 0.5203(4)
C15 C 0.2869(9) 0.9397(8) 0.5080(4)
H6 H 0.32190 0.96890 0.54360
C16 C 0.2637(7) 1.1068(7) 0.4992(4)
Tb1B Tb 0.30526(4) 0.33433(3) 0.410377(20)
Tb1B* Tb 0.30526(4) 1.33433(3) 0.410377(20)
Tb1C Tb -0.02907(4) 0.66567(3) 0.25629(2)
Tb1D Tb 0.33433(4) 0.30526(3) 0.589623(20)
Tb1D* Tb 0.33433(4) 1.30526(3) 0.589623(20)
O3C O 0.7229(6) 1.1211(6) 0.6738(3)
O4C O 0.8149(5) 1.0299(6) 0.6655(3)
O5D O 0.7313(5) 0.8531(4) 0.780533(200)
O6D O 0.6028(4) 1.0813(4) 0.785133(200)
O7A O 0.5107(5) 0.8339(5) 0.796533(300)
O8A O 0.8220(6) 1.0988(5) 0.794833(200)
#END
