
#######################################################################
#
#                 Cambridge Crystallographic Data Centre
#                                CCDC
#
#######################################################################
#
# If this CIF has been generated from an entry in the Cambridge
# Structural Database, then it will include bibliographic, chemical,
# crystal, experimental, refinement or atomic coordinate data resulting
# from the CCDC's data processing and validation procedures.
#
#######################################################################

data_CSD_CIF_JUXSIG
_audit_creation_date 2015-12-09
_audit_creation_method CSD-ConQuest-V1
_database_code_CSD JUXSIG
_database_code_depnum_ccdc_archive 'CCDC 1432103'
_chemical_formula_sum 'C18 H14 N1 O8 Tb1'
_chemical_formula_moiety
;
(C16 H6 O8 Tb1 1-)n,n(C2 H8 N1 1+)
;
_journal_coden_Cambridge 222
_journal_volume 45
_journal_year 2016
_journal_page_first 1040
_journal_name_full 'Dalton Trans. '
loop_
_publ_author_name
"Xiao-Lin Zhao"
"Dan Tian"
"Qiang Gao"
"Hong-Wei Sun"
"Jian Xu"
"Xian-He Bu"
_chemical_name_systematic
;
catena-[dimethylammonium L-(\m-biphenyl-3,3',5,5'-tetracarboxylato)-terbium 
unknown solvate]
;
_cell_volume   3781.425
_exptl_crystal_colour 'colorless'
_exptl_crystal_density_diffrn 1.4
_exptl_crystal_description 'block'
_diffrn_ambient_temperature 293
_refine_special_details
;
Disordered solvent molecules were not modelled and the disordered density was 
taken into account using the SQUEEZE/PLATON procedure; Dimethylammonium 
counterions described in the paper appear to not have been modelled.
;
#These two values have been output from a single CSD field.
_refine_ls_R_factor_gt 0.038
_refine_ls_wR_factor_gt 0.038
loop_
_citation_database_id_CSD
_citation_special_details
JUXSEC "is a stereoisomer of this entry"
_symmetry_cell_setting hexagonal
_symmetry_space_group_name_H-M 'P 32 2 1'
_symmetry_Int_Tables_number 154
loop_
_symmetry_equiv_pos_site_id
_symmetry_equiv_pos_as_xyz
1 x,y,z
2 -y,x-y,2/3+z
3 -x+y,-x,1/3+z
4 y,x,-z
5 -x,-x+y,2/3-z
6 x-y,-y,1/3-z
_cell_length_a 13.797(2)
_cell_length_b 13.797(2)
_cell_length_c 22.938(5)
_cell_angle_alpha 90
_cell_angle_beta 90
_cell_angle_gamma 120
_cell_formula_units_Z 6
loop_
_atom_type_symbol
_atom_type_radius_bond
C 0.68
H 0.23
O 0.68
Tb 1.94
loop_
_atom_site_label
_atom_site_type_symbol
_atom_site_fract_x
_atom_site_fract_y
_atom_site_fract_z
Tb1 Tb 0.69477(3) 0.66564(3) 0.58961(2)
O1 O 0.6017(5) 0.7220(6) 0.6602(3)
O2 O 0.7848(5) 0.8146(5) 0.6678(2)
O3 O 0.2340(5) 0.8149(4) 1.0083(2)
O4 O 0.4139(6) 0.9228(6) 1.0101(3)
O5 O 0.9010(5) 1.1777(4) 0.7947(2)
O6 O 0.0814(6) 0.4785(4) 0.8816(2)
O7 O 0.1663(6) 0.4896(4) 0.7967(2)
O8 O 0.8538(4) 1.1226(4) 0.8866(2)
C1 C 0.6918(7) 0.7934(7) 0.6858(4)
C2 C 0.3291(7) 0.8460(7) 0.9874(3)
C3 C 0.6758(7) 0.8468(7) 0.7398(3)
C4 C 0.5757(8) 0.7940(8) 0.7702(3)
H1 H 0.51740 0.72630 0.75660
C5 C 0.5612(6) 0.8414(6) 0.8212(3)
C6 C 0.6530(7) 0.9397(7) 0.8410(3)
H2 H 0.64660 0.96940 0.87620
C7 C 0.7661(7) 0.9511(7) 0.7605(3)
H3 H 0.83280 0.98790 0.73980
C8 C 0.2501(7) 0.6862(6) 0.9160(3)
H4 H 0.18300 0.65280 0.93660
C9 C 0.3387(8) 0.7854(7) 0.9349(4)
C10 C 0.4382(7) 0.8347(7) 0.9041(3)
H5 H 0.49760 0.90200 0.91750
C11 C 0.4521(7) 0.7865(7) 0.8537(4)
C12 C 0.7531(7) 0.9958(6) 0.8111(3)
C13 C 0.8426(6) 1.1067(6) 0.8320(4)
C14 C 0.2613(6) 0.6359(6) 0.8661(3)
C15 C 0.3608(6) 0.6850(6) 0.8349(3)
H6 H 0.36710 0.65050 0.80140
C16 C 0.1617(9) 0.5248(6) 0.8459(3)
Tb1B Tb -0.02913(3) 0.30523(3) 0.922943(20)
Tb1B* Tb 0.97087(3) 1.30523(3) 0.922943(20)
Tb1D Tb 0.30523(3) 0.97087(3) 1.077057(20)
Tb1E Tb 0.02913(3) 0.33436(3) 0.743723(20)
Tb1E* Tb 1.02913(3) 1.33436(3) 0.743723(20)
O3D O 0.7660(5) 0.5809(4) 0.658367(200)
O4D O 0.5861(6) 0.5089(6) 0.656567(300)
O5E O 0.7233(5) 0.8223(4) 0.538633(200)
O6A O 0.5215(6) 0.6029(4) 0.548267(200)
O7E O 0.6767(6) 0.5104(4) 0.536633(200)
O8A O 0.8774(4) 0.7312(4) 0.553267(200)
#END
