
#######################################################################
#
#                 Cambridge Crystallographic Data Centre
#                                CCDC
#
#######################################################################
#
# If this CIF has been generated from an entry in the Cambridge
# Structural Database, then it will include bibliographic, chemical,
# crystal, experimental, refinement or atomic coordinate data resulting
# from the CCDC's data processing and validation procedures.
#
#######################################################################

data_CSD_CIF_JUXZOT
_audit_creation_date 2015-12-10
_audit_creation_method CSD-ConQuest-V1
_database_code_CSD JUXZOT
_database_code_depnum_ccdc_archive 'CCDC 1029314'
_chemical_formula_sum 'C32 H40 Cd1 N4 O10'
_chemical_formula_moiety
;
(C22 H10 Cd1 O8 2-)n,2n(C3 H7 N1 O1),2n(C2 H8 N1 1+)
;
_journal_coden_Cambridge 208
_journal_volume 234
_journal_year 2016
_journal_page_first 93
_journal_name_full 'J.Solid State Chem. '
loop_
_publ_author_name
"Lei Lu"
"Bao Mu"
"Chang-Xia Li"
"Ru-Dan Huang"
_chemical_name_systematic
;
catena-[bis(dimethylammonium) 
(\m-1,1':4',1''-terphenyl-2',4,4'',5'-tetracarboxylato)-di-cadmium 
N,N-dimethylformamide solvate]
;
_cell_volume   3539.117
_exptl_crystal_colour 'colorless'
_exptl_crystal_density_diffrn 1.413
_exptl_crystal_description 'block'
_diffrn_ambient_temperature 298
#These two values have been output from a single CSD field.
_refine_ls_R_factor_gt 0.0247
_refine_ls_wR_factor_gt 0.0247
_symmetry_cell_setting monoclinic
_symmetry_space_group_name_H-M 'C 2/c'
_symmetry_Int_Tables_number 15
loop_
_symmetry_equiv_pos_site_id
_symmetry_equiv_pos_as_xyz
1 x,y,z
2 -x,y,1/2-z
3 1/2+x,1/2+y,z
4 1/2-x,1/2+y,1/2-z
5 -x,-y,-z
6 x,-y,-1/2+z
7 -1/2-x,-1/2-y,-z
8 -1/2+x,-1/2-y,-1/2+z
_cell_length_a 24.308(2)
_cell_length_b 9.3640(7)
_cell_length_c 19.1309(18)
_cell_angle_alpha 90
_cell_angle_beta 125.636(2)
_cell_angle_gamma 90
_cell_formula_units_Z 4
loop_
_atom_type_symbol
_atom_type_radius_bond
C 0.68
H 0.23
Cd 1.44
N 0.68
O 0.68
loop_
_atom_site_label
_atom_site_type_symbol
_atom_site_fract_x
_atom_site_fract_y
_atom_site_fract_z
Cd1 Cd 0.50000 0.49656(3) 0.25000
O1 O 0.62315(10) 0.4652(2) 0.37229(13)
O2 O 0.57286(9) 0.6758(2) 0.34033(12)
O3 O 0.53089(12) 0.5405(3) 0.66387(14)
O4 O 0.54353(11) 0.7682(3) 0.70250(13)
C1 C 0.62379(12) 0.5969(3) 0.38313(15)
C2 C 0.55090(13) 0.6661(3) 0.66683(16)
C3 C 0.73495(12) 0.6856(3) 0.42668(15)
H1 H 0.72460 0.64090 0.37690
C4 C 0.69011(12) 0.6713(3) 0.44869(14)
C5 C 0.70520(12) 0.7363(3) 0.52448(14)
C6 C 0.66134(12) 0.7213(3) 0.55521(15)
C7 C 0.62844(14) 0.5932(3) 0.54605(17)
H2 H 0.63120 0.51750 0.51680
C8 C 0.59180(14) 0.5776(3) 0.57998(17)
H3 H 0.56960 0.49190 0.57240
C9 C 0.58755(13) 0.6879(3) 0.62525(15)
C10 C 0.61882(14) 0.8167(3) 0.63275(17)
H4 H 0.61510 0.89280 0.66100
C11 C 0.65549(13) 0.8334(3) 0.59862(17)
H5 H 0.67640 0.92020 0.60470
N1 N 0.60115(17) 0.2015(3) 0.61512(18)
O5 O 0.64070(15) 0.2083(3) 0.53280(16)
C12 C 0.5947(2) 0.1938(4) 0.5415(2)
H6 H 0.55160 0.17590 0.49210
C13 C 0.5423(3) 0.1853(5) 0.6173(3)
H7 H 0.50240 0.17150 0.55990
H8 H 0.53710 0.26970 0.64150
H9 H 0.54870 0.10410 0.65200
C14 C 0.6654(3) 0.2329(6) 0.6935(3)
H10 H 0.70010 0.22620 0.68430
H11 H 0.67450 0.16580 0.73700
H12 H 0.66470 0.32790 0.71190
N2 N 0.62259(15) 0.8459(3) 0.87438(17)
H13 H 0.62460 0.79960 0.91710
H14 H 0.59540 0.79520 0.82580
C15 C 0.5921(2) 0.9872(4) 0.8633(3)
H15 H 0.61920 1.04020 0.91590
H16 H 0.54720 0.97570 0.84860
H17 H 0.58980 1.03780 0.81810
C16 C 0.6908(2) 0.8499(5) 0.8943(3)
H18 H 0.69000 0.90500 0.85130
H19 H 0.70540 0.75440 0.89480
H20 H 0.72160 0.89290 0.94970
O1F O 0.87685(10) 1.0348(2) 0.62771(13)
O2F O 0.92714(9) 0.8242(2) 0.65967(12)
O3F O 0.96911(12) 0.9595(3) 0.33613(14)
O4F O 0.95647(11) 0.7318(3) 0.29750(13)
C1F C 0.87621(12) 0.9031(3) 0.61687(15)
C2F C 0.94910(13) 0.8339(3) 0.33317(16)
C3F C 0.76505(12) 0.8144(3) 0.57332(15)
H1F H 0.77540 0.85910 0.62310
C4F C 0.80989(12) 0.8287(3) 0.55131(14)
C5F C 0.79480(12) 0.7637(3) 0.47552(14)
C6F C 0.83866(12) 0.7787(3) 0.44479(15)
C7F C 0.87156(14) 0.9068(3) 0.45395(17)
H2F H 0.86880 0.98250 0.48320
C8F C 0.90820(14) 0.9224(3) 0.42002(17)
H3F H 0.93040 1.00810 0.42760
C9F C 0.91245(13) 0.8121(3) 0.37475(15)
C10F C 0.88118(14) 0.6833(3) 0.36725(17)
H4F H 0.88490 0.60720 0.33900
C11F C 0.84451(13) 0.6666(3) 0.40138(17)
H5F H 0.82360 0.57980 0.39530
Cd1B Cd 1.00000 0.99656(3) 0.25000
Cd1D Cd 0.50000 0.50344(3) 0.75000
Cd1F Cd 1.00000 1.00344(3) 0.75000
O1A O 0.37685(10) 0.4652(2) 0.12771(13)
O2A O 0.42714(9) 0.6758(2) 0.15967(12)
O3D O 0.46911(12) 0.4595(3) 0.33613(14)
O3E O 0.53089(12) 0.4595(3) 0.16387(14)
#END
