
#######################################################################
#
#                 Cambridge Crystallographic Data Centre
#                                CCDC
#
#######################################################################
#
# If this CIF has been generated from an entry in the Cambridge
# Structural Database, then it will include bibliographic, chemical,
# crystal, experimental, refinement or atomic coordinate data resulting
# from the CCDC's data processing and validation procedures.
#
#######################################################################

data_CSD_CIF_JUYMAU
_audit_creation_date 2020-09-29
_audit_creation_method CSD-ConQuest-V1
_database_code_CSD JUYMAU
_database_code_depnum_ccdc_archive 'CCDC 1974558'
_chemical_formula_sum 'C48 H36 Cd3 N2 O16'
_chemical_formula_moiety
;
(C44 H20 Cd3 O16 2-)n,2n(C2 H8 N1 1+)
;
_journal_coden_Cambridge 315
_journal_volume 246
_journal_year 2021
_journal_page_first 118962
_journal_name_full 'Spectrochim.Acta,Part A '
loop_
_publ_author_name
"Ping Ju"
"Hua Yang"
"Long Jiang"
"Mengting Li"
"Yang Yu"
"Ensheng Zhang"
_chemical_name_systematic
;
catena-(bis(dimethylammonium) 
bis(\m-[1^1^,2^1^:2^4^,3^1^-terphenyl]-1^3^,1^5^,3^3^,3^5^-tetracarboxylato)-t
ri-cadmium)
;
_cell_volume   5479.938
_exptl_crystal_colour 'colorless'
_exptl_crystal_description 'block'
_diffrn_ambient_temperature 293.1
_refine_special_details
;
The SQUEEZE/PLATON program was used to model the disordered cations.

;
#These two values have been output from a single CSD field.
_refine_ls_R_factor_gt 0.0825
_refine_ls_wR_factor_gt 0.0825
_symmetry_cell_setting monoclinic
_symmetry_space_group_name_H-M 'C 2/c'
_symmetry_Int_Tables_number 15
loop_
_symmetry_equiv_pos_site_id
_symmetry_equiv_pos_as_xyz
1 x,y,z
2 -x,y,1/2-z
3 1/2+x,1/2+y,z
4 1/2-x,1/2+y,1/2-z
5 -x,-y,-z
6 x,-y,-1/2+z
7 -1/2-x,-1/2-y,-z
8 -1/2+x,-1/2-y,-1/2+z
_cell_length_a 28.160(4)
_cell_length_b 9.8749(11)
_cell_length_c 20.631(3)
_cell_angle_alpha 90
_cell_angle_beta 107.217(13)
_cell_angle_gamma 90
_cell_formula_units_Z 4
loop_
_atom_type_symbol
_atom_type_radius_bond
C 0.68
H 0.23
Cd 1.44
O 0.68
loop_
_atom_site_label
_atom_site_type_symbol
_atom_site_fract_x
_atom_site_fract_y
_atom_site_fract_z
Cd1 Cd 1.00000 0.56962(12) 0.75000
Cd2 Cd 0.90026(3) 0.56710(8) 0.60280(4)
O1 O 0.9266(3) 0.5693(11) 0.7685(4)
O2 O 0.8589(3) 0.5754(8) 0.6777(4)
O3 O 0.8327(3) 0.4451(9) 1.0044(4)
O4 O 0.9076(3) 0.4532(9) 0.9922(4)
O5 O 0.4681(3) 0.2108(7) 0.6574(4)
O6 O 0.4031(3) 0.3126(8) 0.5954(4)
O7 O 0.4719(3) 0.9267(8) 0.6602(4)
O8 O 0.4040(3) 0.8253(8) 0.6041(4)
C1 C 0.8809(5) 0.5705(11) 0.7406(6)
C2 C 0.8479(5) 0.5473(11) 0.7863(6)
C3 C 0.8687(4) 0.5147(11) 0.8534(5)
H1 H 0.90302 0.50791 0.87094
C4 C 0.8391(4) 0.4919(11) 0.8950(6)
C5 C 0.8614(5) 0.4592(12) 0.9684(6)
C6 C 0.7874(4) 0.5000(12) 0.8687(6)
H2 H 0.76743 0.48373 0.89652
C7 C 0.7658(4) 0.5325(12) 0.8005(6)
C8 C 0.7961(4) 0.5566(10) 0.7598(5)
H3 H 0.78198 0.57927 0.71444
C9 C 0.7112(4) 0.5413(11) 0.7709(6)
C10 C 0.6818(5) 0.4477(13) 0.7895(6)
H4 H 0.69655 0.38025 0.82038
C11 C 0.6297(5) 0.4521(12) 0.7629(6)
H5 H 0.61051 0.38339 0.77310
C12 C 0.6064(4) 0.5606(13) 0.7205(6)
C13 C 0.5516(4) 0.5651(12) 0.6925(5)
C14 C 0.5250(4) 0.4423(11) 0.6776(6)
H6 H 0.54140 0.35947 0.68614
C15 C 0.4730(5) 0.4486(13) 0.6494(5)
C16 C 0.4467(4) 0.3154(10) 0.6336(6)
C17 C 0.4485(5) 0.5731(12) 0.6361(5)
H7 H 0.41421 0.57568 0.61687
C18 C 0.4748(5) 0.6909(11) 0.6513(5)
C19 C 0.4490(5) 0.8202(14) 0.6387(6)
C20 C 0.5259(5) 0.6875(12) 0.6795(5)
H8 H 0.54333 0.76848 0.69005
C21 C 0.6376(5) 0.6540(12) 0.7038(7)
H9 H 0.62389 0.72553 0.67502
C22 C 0.6869(5) 0.6431(13) 0.7284(7)
H10 H 0.70613 0.70892 0.71592
Cd2A Cd 1.09974(3) 0.56710(8) 0.89720(4)
O1A O 1.0734(3) 0.5693(11) 0.7315(4)
O2A O 1.1411(3) 0.5754(8) 0.8223(4)
O3A O 1.1673(3) 0.4451(9) 0.4956(4)
O4A O 1.0924(3) 0.4532(9) 0.5078(4)
O5A O 1.5319(3) 0.2108(7) 0.8426(4)
O6A O 1.5969(3) 0.3126(8) 0.9046(4)
O7A O 1.5281(3) 0.9267(8) 0.8398(4)
O8A O 1.5960(3) 0.8253(8) 0.8959(4)
C1A C 1.1191(5) 0.5705(11) 0.7594(6)
C2A C 1.1521(5) 0.5473(11) 0.7137(6)
C3A C 1.1313(4) 0.5147(11) 0.6466(5)
H1A H 1.09698 0.50791 0.62906
C4A C 1.1609(4) 0.4919(11) 0.6050(6)
C5A C 1.1386(5) 0.4592(12) 0.5316(6)
C6A C 1.2126(4) 0.5000(12) 0.6313(6)
H2A H 1.23257 0.48373 0.60348
C7A C 1.2342(4) 0.5325(12) 0.6995(6)
C8A C 1.2039(4) 0.5566(10) 0.7402(5)
H3A H 1.21802 0.57927 0.78556
C9A C 1.2888(4) 0.5413(11) 0.7291(6)
C10A C 1.3182(5) 0.4477(13) 0.7105(6)
H4A H 1.30345 0.38025 0.67962
C11A C 1.3703(5) 0.4521(12) 0.7371(6)
H5A H 1.38949 0.38339 0.72690
C12A C 1.3936(4) 0.5606(13) 0.7795(6)
C13A C 1.4484(4) 0.5651(12) 0.8075(5)
C14A C 1.4750(4) 0.4423(11) 0.8224(6)
H6A H 1.45860 0.35947 0.81386
C15A C 1.5270(5) 0.4486(13) 0.8506(5)
C16A C 1.5533(4) 0.3154(10) 0.8664(6)
C17A C 1.5515(5) 0.5731(12) 0.8639(5)
H7A H 1.58579 0.57568 0.88313
C18A C 1.5252(5) 0.6909(11) 0.8487(5)
C19A C 1.5510(5) 0.8202(14) 0.8613(6)
C20A C 1.4741(5) 0.6875(12) 0.8205(5)
H8A H 1.45667 0.76848 0.80995
C21A C 1.3624(5) 0.6540(12) 0.7962(7)
H9A H 1.37611 0.72553 0.82498
C22A C 1.3131(5) 0.6431(13) 0.7716(7)
H10A H 1.29387 0.70892 0.78408
Cd1B Cd 0.50000 0.06962(12) 0.75000
Cd1B* Cd 0.50000 1.06962(12) 0.75000
Cd1B** Cd 1.50000 0.06962(12) 0.75000
Cd1B*** Cd 1.50000 1.06962(12) 0.75000
Cd2B Cd 0.40026(3) 0.06710(8) 0.60280(4)
Cd2B* Cd 0.40026(3) 1.06710(8) 0.60280(4)
Cd2C Cd 1.59974(3) 0.06710(8) 0.89720(4)
Cd2C* Cd 1.59974(3) 1.06710(8) 0.89720(4)
Cd2D Cd 1.09974(3) 0.43290(8) 0.39720(4)
Cd2E Cd 0.90026(3) 0.43290(8) 1.10280(4)
O3D O 1.1673(3) 0.5549(9) 0.9956(4)
O3E O 0.8327(3) 0.5549(9) 0.5044(4)
O4D O 1.0924(3) 0.5468(9) 1.0078(4)
O4E O 0.9076(3) 0.5468(9) 0.4922(4)
O5B O 0.9681(3) 0.7108(7) 0.6574(4)
O5C O 1.0319(3) 0.7108(7) 0.8426(4)
O6B O 0.9031(3) 0.8126(8) 0.5954(4)
O6C O 1.0969(3) 0.8126(8) 0.9046(4)
O7B O 0.9719(3) 0.4267(8) 0.6602(4)
O7C O 1.0281(3) 0.4267(8) 0.8398(4)
O8B O 0.9040(3) 0.3253(8) 0.6041(4)
O8C O 1.0960(3) 0.3253(8) 0.8959(4)
#END
