
#######################################################################
#
#                 Cambridge Crystallographic Data Centre
#                                CCDC
#
#######################################################################
#
# If this CIF has been generated from an entry in the Cambridge
# Structural Database, then it will include bibliographic, chemical,
# crystal, experimental, refinement or atomic coordinate data resulting
# from the CCDC's data processing and validation procedures.
#
#######################################################################

data_CSD_CIF_KABGAZ
_audit_creation_date 2020-11-04
_audit_creation_method CSD-ConQuest-V1
_database_code_CSD KABGAZ
_database_code_depnum_ccdc_archive 'CCDC 1964763'
_chemical_formula_sum 'C22 H30 Br2 Cd2 N2 O9'
_chemical_formula_moiety
;
(C16 H8 Br2 Cd2 O8 2-)n,2(C2 H8 N1 1+),C2 H6 O1
;
_journal_coden_Cambridge 1220
_journal_volume 26
_journal_year 2020
_journal_page_first 7458
_journal_name_full 'Chem.-Eur.J. '
loop_
_publ_author_name
"Zheng Wang"
"Cheng-Yi Zhu"
"Peng-Yan Fu"
"Jun-Ting Mo"
"Jia Ruan"
"Mei Pan"
"Cheng-Yong Su"
_chemical_name_systematic
;
catena-[bis(dimethylammonium) 
bis(\m-bromo)-bis(\m-benzene-1,4-dicarboxylato)-di-cadmium(ii) ethanol 
solvate]
;
_chemical_name_common
;
LIFMWZ12
;
_cell_volume   2875.880
_exptl_crystal_density_diffrn 1.966
_exptl_crystal_description 'block'
_diffrn_ambient_temperature 150
_refine_special_details
;
ethanol (C11,O5) disordered by symmetry over two configurations with 
occupancy 0.5.
;
#These two values have been output from a single CSD field.
_refine_ls_R_factor_gt 0.0479
_refine_ls_wR_factor_gt 0.0479
_symmetry_cell_setting monoclinic
_symmetry_space_group_name_H-M 'C 2/c'
_symmetry_Int_Tables_number 15
loop_
_symmetry_equiv_pos_site_id
_symmetry_equiv_pos_as_xyz
1 x,y,z
2 -x,y,1/2-z
3 1/2+x,1/2+y,z
4 1/2-x,1/2+y,1/2-z
5 -x,-y,-z
6 x,-y,-1/2+z
7 -1/2-x,-1/2-y,-z
8 -1/2+x,-1/2-y,-1/2+z
_cell_length_a 13.0306(3)
_cell_length_b 15.5816(3)
_cell_length_c 15.3792(4)
_cell_angle_alpha 90
_cell_angle_beta 112.927(3)
_cell_angle_gamma 90
_cell_formula_units_Z 4
loop_
_atom_type_symbol
_atom_type_radius_bond
C 0.68
H 0.23
Br 1.21
Cd 1.44
N 0.68
O 0.68
loop_
_atom_site_label
_atom_site_type_symbol
_atom_site_fract_x
_atom_site_fract_y
_atom_site_fract_z
Cd1 Cd 0.50000 0.49903(3) 0.25000
Cd2 Cd 0.50000 0.25873(3) 0.25000
Br1 Br 0.35460(6) 0.37882(4) 0.24814(7)
O1 O 0.5711(4) 0.5649(3) 0.3938(3)
O2 O 0.6402(4) 0.6093(3) 0.2916(3)
O3 O 0.5833(4) 0.1859(3) 0.3939(3)
O4 O 0.4113(4) 0.1515(3) 0.3021(3)
C1 C 0.6319(5) 0.6148(4) 0.3705(5)
C2 C 0.6790(5) 0.6967(4) 0.5220(4)
H1 H 0.63020 0.66000 0.53730
C3 C 0.6944(5) 0.6840(4) 0.4384(4)
C4 C 0.7665(5) 0.7384(4) 0.4171(5)
H2 H 0.77800 0.73050 0.36030
C5 C 0.4979(5) 0.1402(4) 0.3759(4)
C6 C 0.5936(5) 0.0515(4) 0.5219(4)
H3 H 0.65760 0.08670 0.53660
C7 C 0.4979(5) 0.0686(4) 0.4414(4)
C8 C 0.4047(5) 0.0163(4) 0.4201(4)
H4 H 0.33960 0.02740 0.36530
N1 N 0.7091(6) 0.3721(4) 0.6375(5)
H5 H 0.78320 0.36560 0.65120
H6 H 0.70130 0.38350 0.69270
C9 C 0.6694(11) 0.4454(8) 0.5759(10)
H7 H 0.67100 0.43130 0.51580
H8 H 0.71580 0.49530 0.60140
H9 H 0.59380 0.45810 0.56850
C10 C 0.6544(10) 0.2925(7) 0.6010(9)
H10 H 0.68690 0.24690 0.64760
H11 H 0.57480 0.29780 0.58780
H12 H 0.66410 0.27830 0.54260
O5? O 0.1003(15) 0.4924(11) 0.2991(11)
H13? H 0.11430 0.49530 0.24250
C11? C 0.0854(19) 0.4115(13) 0.3220(16)
H14? H 0.06740 0.41310 0.37880
H15? H 0.15680 0.38020 0.33910
C12? C 0.00000 0.3635(16) 0.25000
H16? H -0.07000 0.39070 0.24180
H17? H 0.00950 0.36370 0.19130
H18? H 0.00000 0.30470 0.27070
O1F O 0.9289(4) 0.9351(3) 0.6062(3)
O2F O 0.8598(4) 0.8907(3) 0.7084(3)
C1F C 0.8681(5) 0.8852(4) 0.6295(5)
C2F C 0.8210(5) 0.8033(4) 0.4780(4)
H1F H 0.86980 0.84000 0.46270
C3F C 0.8056(5) 0.8160(4) 0.5616(4)
C4F C 0.7335(5) 0.7616(4) 0.5829(5)
H2F H 0.72200 0.76950 0.63970
O3D O 0.4167(4) -0.1859(3) 0.6061(3)
O4D O 0.5887(4) -0.1515(3) 0.6979(3)
C5D C 0.5021(5) -0.1402(4) 0.6241(4)
C6D C 0.4064(5) -0.0515(4) 0.4781(4)
H3D H 0.34240 -0.08670 0.46340
C7D C 0.5021(5) -0.0686(4) 0.5586(4)
C8D C 0.5953(5) -0.0163(4) 0.5799(4)
H4D H 0.66040 -0.02740 0.63470
Br1A Br 0.64540(6) 0.37882(4) 0.25186(7)
Cd1F Cd 1.00000 1.00097(3) 0.75000
Cd2D Cd 0.50000 -0.25873(3) 0.75000
O1A O 0.4289(4) 0.5649(3) 0.1062(3)
O2A O 0.3598(4) 0.6093(3) 0.2084(3)
O3A O 0.4167(4) 0.1859(3) 0.1061(3)
O4A O 0.5887(4) 0.1515(3) 0.1979(3)
#END
