
#######################################################################
#
#                 Cambridge Crystallographic Data Centre
#                                CCDC
#
#######################################################################
#
# If this CIF has been generated from an entry in the Cambridge
# Structural Database, then it will include bibliographic, chemical,
# crystal, experimental, refinement or atomic coordinate data resulting
# from the CCDC's data processing and validation procedures.
#
#######################################################################

data_CSD_CIF_KABGON
_audit_creation_date 2020-11-04
_audit_creation_method CSD-ConQuest-V1
_database_code_CSD KABGON
_database_code_depnum_ccdc_archive 'CCDC 1964765'
_chemical_formula_sum 'C20 H24 Cd1 N2 O8'
_chemical_formula_moiety
;
(C16 H8 Cd1 O8 2-)n,2(C2 H8 N1 1+)
;
_journal_coden_Cambridge 1078
_journal_year 2020
_journal_name_full 'CSD Communication(Private Communication) '
loop_
_publ_author_name
"Zheng Wang"
"Cheng-Yi Zhu"
"Peng-Yan Fu"
"Jun-Ting Mo"
"Jia Ruan"
"Mei Pan"
"Cheng-Yong Su"
_chemical_name_systematic
;
catena-[bis(dimethylammonium) bis(\m-benzene-1,4-dicarboxylato)-cadmium(ii) 
unknown solvate]
;
_chemical_name_common
;
LIFM-WZ-14
;
_cell_volume   2234.188
_exptl_crystal_description 'block'
_diffrn_ambient_temperature 150
_refine_special_details
;
Disordered cation (dimethylammonium) and solvent molecules were not modelled 
and the disordered density was taken into account using the SQUEEZE/PLATON 
procedure.
;
#These two values have been output from a single CSD field.
_refine_ls_R_factor_gt 0.0396
_refine_ls_wR_factor_gt 0.0396
_symmetry_cell_setting hexagonal
_symmetry_space_group_name_H-M 'P 62 2 2'
_symmetry_Int_Tables_number 180
loop_
_symmetry_equiv_pos_site_id
_symmetry_equiv_pos_as_xyz
1 x,y,z
2 -y,x-y,2/3+z
3 -x+y,-x,1/3+z
4 -x,-y,z
5 y,-x+y,2/3+z
6 x-y,x,1/3+z
7 y,x,2/3-z
8 x-y,-y,-z
9 -x,-x+y,1/3-z
10 -y,-x,2/3-z
11 -x+y,y,-z
12 x,x-y,1/3-z
_cell_length_a 13.9227(2)
_cell_length_b 13.9227(2)
_cell_length_c 13.3089(2)
_cell_angle_alpha 90
_cell_angle_beta 90
_cell_angle_gamma 120
_cell_formula_units_Z 3
loop_
_atom_type_symbol
_atom_type_radius_bond
C 0.68
H 0.23
Cd 1.44
O 0.68
loop_
_atom_site_label
_atom_site_type_symbol
_atom_site_fract_x
_atom_site_fract_y
_atom_site_fract_z
Cd1 Cd 0.50000 1.00000 0.50000
O1 O 0.4190(7) 0.8621(5) 0.3754(4)
O2 O 0.5982(7) 0.9316(6) 0.3926(5)
C1 C 0.5059(10) 0.8695(7) 0.3486(6)
C2 C 0.5091(9) 0.8086(6) 0.2551(6)
C3 C 0.4100(7) 0.7329(7) 0.2102(6)
H1 H 0.34310 0.71920 0.23820
C4 C 0.6092(8) 0.8296(7) 0.2108(8)
H2 H 0.67620 0.87800 0.24190
O1K O 0.4190(7) 0.5569(5) -0.042067(400)
O2K O 0.5982(7) 0.6666(6) -0.059267(500)
C1K C 0.5059(10) 0.6364(7) -0.015267(600)
C2K C 0.5091(9) 0.7005(6) 0.078233(600)
C3K C 0.4100(7) 0.6771(7) 0.123133(600)
H1K H 0.34310 0.62390 0.09513
C4K C 0.6092(8) 0.7796(7) 0.122533(800)
H2K H 0.67620 0.79820 0.09143
O1C O 0.5810(7) 1.1379(5) 0.3754(4)
O2C O 0.4018(7) 1.0684(6) 0.3926(5)
C1C C 0.4941(10) 1.1305(7) 0.3486(6)
C2C C 0.4909(9) 1.1914(6) 0.2551(6)
C3C C 0.5900(7) 1.2671(7) 0.2102(6)
H1C H 0.65690 1.28080 0.23820
C4C C 0.3908(8) 1.1704(7) 0.2108(8)
H2C H 0.32380 1.12200 0.24190
O1H O 0.5810(7) 1.4431(5) -0.042067(400)
O2H O 0.4018(7) 1.3334(6) -0.059267(500)
C1H C 0.4941(10) 1.3636(7) -0.015267(600)
C2H C 0.4909(9) 1.2995(6) 0.078233(600)
C3H C 0.5900(7) 1.3229(7) 0.123133(600)
H1H H 0.65690 1.37610 0.09513
C4H C 0.3908(8) 1.2204(7) 0.122533(800)
H2H H 0.32380 1.20180 0.09143
Cd1B Cd 0.50000 0.50000 -0.16667
Cd1B* Cd 0.50000 1.50000 -0.16667
O1G O 0.5569(7) 1.1379(5) 0.6246(4)
O1J O 0.4431(7) 0.8621(5) 0.6246(4)
O2G O 0.6666(7) 1.0684(6) 0.6074(5)
O2J O 0.3334(7) 0.9316(6) 0.6074(5)
#END
