
#######################################################################
#
#                 Cambridge Crystallographic Data Centre
#                                CCDC
#
#######################################################################
#
# If this CIF has been generated from an entry in the Cambridge
# Structural Database, then it will include bibliographic, chemical,
# crystal, experimental, refinement or atomic coordinate data resulting
# from the CCDC's data processing and validation procedures.
#
#######################################################################

data_CSD_CIF_KABJEG
_audit_creation_date 2020-11-04
_audit_creation_method CSD-ConQuest-V1
_database_code_CSD KABJEG
_database_code_depnum_ccdc_archive 'CCDC 2003105'
_chemical_formula_sum 'C116 H100 Ca5 N18 O28'
_chemical_formula_moiety
;
(C112 H84 Ca5 N16 O28 2-)n,2(C2 H8 N1 1+)
;
_journal_coden_Cambridge 1147
_journal_volume 20
_journal_year 2020
_journal_page_first 8021
_journal_name_full 'Cryst.Growth Des. '
loop_
_publ_author_name
"Jing Sun"
"Tao Huang"
"Qi Yin"
"Lan Li"
"Tian-Fu Liu"
"Xin-Song Huang"
"Rong Cao"
_chemical_name_systematic
;
catena-[bis(dimethylammonium) 
tetrakis(\m-4,4',4''-(1,3,5-triazine-2,4,6-triyl)tribenzoato)-tetrakis(\m-N,N-
dimethylacetamide)-penta-calcium(ii) unknown solvate]
;
_chemical_name_common
;
PFC-37
;
_cell_volume   3964.447
_exptl_crystal_colour 'colorless'
_exptl_crystal_density_diffrn 1.003
_exptl_crystal_description 'block'
_diffrn_ambient_temperature 150
_refine_special_details
;
Disordered solvent molecules were not modelled and the disordered density was 
taken into account using the MASK/OLEX2 procedure.
;
#These two values have been output from a single CSD field.
_refine_ls_R_factor_gt 0.0594
_refine_ls_wR_factor_gt 0.0594
_symmetry_cell_setting triclinic
_symmetry_space_group_name_H-M 'P -1'
_symmetry_Int_Tables_number 2
loop_
_symmetry_equiv_pos_site_id
_symmetry_equiv_pos_as_xyz
1 x,y,z
2 -x,-y,-z
_cell_length_a 17.0339(5)
_cell_length_b 17.1196(4)
_cell_length_c 17.9227(6)
_cell_angle_alpha 90.805(2)
_cell_angle_beta 116.455(3)
_cell_angle_gamma 117.979(3)
_cell_formula_units_Z 1
loop_
_atom_type_symbol
_atom_type_radius_bond
C 0.68
H 0.23
Ca 1.76
N 0.68
O 0.68
loop_
_atom_site_label
_atom_site_type_symbol
_atom_site_fract_x
_atom_site_fract_y
_atom_site_fract_z
Ca1 Ca 0.50000 0.50000 1.00000
Ca2 Ca 0.77881(3) 0.61973(3) 0.12899(3)
Ca3 Ca -0.04952(4) -0.15081(3) 0.28418(3)
O1 O 0.36685(13) 1.35556(11) 0.90531(12)
O2 O 1.04996(12) 1.23200(12) 0.82342(11)
O3 O 0.62288(13) 0.52186(12) 0.96697(11)
O4 O 0.21836(13) 1.22307(12) 0.84706(14)
O5 O 0.40460(16) 0.54034(13) 0.88975(13)
O6 O 0.76636(15) 0.64687(13) 0.99188(12)
O7 O 1.06034(15) 1.36329(13) 0.85127(16)
O8 O 0.83910(18) 0.67479(17) 0.27374(14)
O9 O 0.26071(17) 0.53126(14) 0.86356(18)
O10 O 0.00278(19) -0.02203(16) 0.23900(17)
N1 N 0.60607(18) 0.99237(15) 0.85390(19)
N2 N 0.47000(19) 0.99194(16) 0.8613(2)
O11 O 0.12494(18) -0.10058(18) 0.36860(16)
C1 C 0.68250(19) 0.57419(16) 0.94177(16)
N3 N 0.59980(19) 1.12807(15) 0.8579(2)
C2 C 0.36677(19) 1.22064(17) 0.87315(18)
N4 N 0.4763(2) 0.37966(19) 0.53499(16)
C3 C 0.31385(18) 1.26899(16) 0.87522(17)
N5 N 0.5188(2) 0.39705(19) 0.42453(16)
O12 O 0.0319(2) 0.01931(18) 0.13352(17)
C4 C 1.01540(19) 1.27838(18) 0.83757(18)
N6 N 0.6386(2) 0.50511(18) 0.56429(16)
C5 C 0.4697(2) 1.27045(17) 0.89489(19)
H1 H 0.50749 1.33592 0.91287
C6 C 0.4632(2) 1.12929(18) 0.8658(2)
C7 C 0.6516(2) 0.54437(18) 0.84901(17)
C8 C 0.4760(2) 0.85441(18) 0.8612(2)
C9 C 0.5172(2) 1.22492(18) 0.8904(2)
H2 H 0.58721 1.25934 0.90428
C10 C 0.3930(2) 0.67205(18) 0.8683(2)
C11 C 0.7717(2) 1.08318(18) 0.8215(2)
H3 H 0.73439 1.01774 0.80651
C12 C 0.4855(2) 0.71885(19) 0.8689(2)
H4 H 0.52136 0.68876 0.87259
C13 C 0.3501(2) 0.57477(18) 0.87490(19)
C14 C 0.8605(2) 1.13079(18) 0.8167(2)
H5 H 0.88317 1.09769 0.79778
C15 C 0.5199(2) 0.95169(18) 0.8583(2)
O13 O 0.9478(3) 0.7742(2) 0.40107(19)
C16 C 0.3120(2) 1.12467(18) 0.8480(2)
H6 H 0.24171 1.09043 0.83318
C17 C 0.5526(2) 0.4725(2) 0.78911(18)
H7 H 0.50296 0.44282 0.80637
C18 C 0.9161(2) 1.22587(18) 0.8391(2)
C19 C 0.5261(2) 0.80870(19) 0.8643(2)
H8 H 0.58861 0.83939 0.86326
C20 C 0.6419(2) 1.08052(19) 0.8532(2)
C21 C 0.5976(2) 0.4873(2) 0.67798(18)
C22 C 0.1608(2) 0.11524(19) 0.2755(2)
C23 C 0.7373(2) 1.13054(19) 0.8482(2)
C24 C 0.5134(2) 1.08017(18) 0.8610(2)
C25 C 0.7230(2) 0.5876(2) 0.82236(19)
H9 H 0.79100 0.63722 0.86311
C26 C 0.6088(3) 0.4736(2) 0.48161(19)
C27 C 0.5697(3) 0.4555(2) 0.58740(19)
C28 C 0.3536(3) 0.2704(2) 0.39267(19)
C29 C 0.3595(2) 1.07914(19) 0.8444(3)
H10 H 0.32196 1.01366 0.82748
C30 C 0.5255(2) 0.4438(2) 0.70421(19)
H11 H 0.45750 0.39424 0.66347
C31 C 0.6966(2) 0.5596(2) 0.7380(2)
H12 H 0.74625 0.58982 0.72087
C32 C 0.4559(3) 0.3534(2) 0.4543(2)
C33 C 0.1871(3) 0.1442(2) 0.3598(2)
H13 H 0.13930 0.11090 0.37812
C34 C 0.6538(3) 0.4982(2) 0.3657(2)
H14 H 0.59381 0.43960 0.32936
C35 C 0.0563(3) 0.0313(2) 0.2114(2)
C36 C 0.6792(3) 0.5287(2) 0.4501(2)
C37 C 0.2320(3) 0.1632(2) 0.2509(2)
H15 H 0.21496 0.14307 0.19317
C38 C 0.3825(3) 0.8071(2) 0.8591(3)
H16 H 0.34645 0.83693 0.85546
C39 C 0.7152(3) 0.5526(2) 0.3343(2)
H17 H 0.69643 0.53176 0.27612
C40 C 0.8680(3) 0.6991(3) 0.3514(2)
C41 C 0.2826(3) 0.2215(2) 0.4181(2)
H18 H 0.29958 0.24121 0.47591
C42 C 0.7929(3) 1.2259(2) 0.8699(3)
H19 H 0.76958 1.25911 0.88771
C43 C 0.8825(3) 1.2735(2) 0.8661(3)
H20 H 0.92066 1.33896 0.88205
C44 C 0.3414(3) 0.7158(2) 0.8623(3)
H21 H 0.27707 0.68367 0.86025
O14 O -0.1067(4) -0.0890(3) 0.3452(3)
C45 C 0.3273(3) 0.2398(3) 0.3083(2)
H22 H 0.37533 0.27189 0.29000
C46 C 0.8035(3) 0.6369(2) 0.3868(2)
C47 C 0.7680(3) 0.6129(3) 0.5028(2)
H23 H 0.78679 0.63431 0.56082
C48 C 0.8294(4) 0.6658(3) 0.4711(2)
H24 H 0.89087 0.72345 0.50802
C49 C 0.1910(5) -0.1225(5) 0.3871(3)
N7 N -0.1944(7) -0.0709(7) 0.3937(4)
C50 C 0.1498(6) -0.2313(5) 0.3847(4)
H25 H 0.08192 -0.26115 0.37995
H26 H 0.19902 -0.23492 0.43820
H27 H 0.14373 -0.26272 0.33453
N8 N 0.2801(5) -0.0797(7) 0.4094(4)
C51 C 0.3155(4) 0.0137(5) 0.4123(5)
H28 H 0.33801 0.02893 0.36995
H29 H 0.37383 0.05277 0.47066
H30 H 0.25934 0.02425 0.39814
C52 C -0.2741(8) -0.1837(5) 0.3580(6)
H31 H -0.34359 -0.19898 0.31439
H32 H -0.27628 -0.20821 0.40663
H33 H -0.24981 -0.21112 0.33183
C53 C -0.1318(8) -0.0489(8) 0.3774(4)
C54 C -0.0634(6) 0.0636(5) 0.4049(6)
H34 H -0.00463 0.08419 0.39621
H35 H -0.03776 0.08804 0.46622
H36 H -0.10669 0.08619 0.36889
C55 C -0.2293(8) -0.0301(7) 0.4344(8)
H37 H -0.29484 -0.07850 0.42791
H38 H -0.23939 0.01575 0.40623
H39 H -0.17711 -0.00021 0.49622
C56 C 0.3407(8) -0.1266(9) 0.4187(6)
H40 H 0.29421 -0.19356 0.40252
H41 H 0.39721 -0.10498 0.47908
H42 H 0.36942 -0.11106 0.38048
N9 N -0.1227(2) -0.14812(17) 0.03404(17)
H43 H -0.13523 -0.19314 0.06134
H44 H -0.07432 -0.09305 0.07567
C57 C -0.0810(3) -0.1622(3) -0.0171(3)
H45 H -0.13343 -0.22049 -0.06336
H46 H -0.01954 -0.16440 0.02063
H47 H -0.06196 -0.11125 -0.04296
C58 C -0.2180(3) -0.1491(3) -0.0179(3)
H48 H -0.26998 -0.20747 -0.06397
H49 H -0.20400 -0.09774 -0.04386
H50 H -0.24400 -0.14267 0.01937
Ca2A Ca -0.77881(3) 0.38027(3) 0.87101(3)
Ca3A Ca 0.04952(4) 1.15081(3) 0.71582(3)
O1A O -0.36685(13) -0.35556(11) 0.09469(12)
O2A O -1.04996(12) -0.23200(12) 0.17658(11)
O3A O -0.62288(13) 0.47814(12) 0.03303(11)
O4A O -0.21836(13) -0.22307(12) 0.15294(14)
O5A O -0.40460(16) 0.45966(13) 0.11025(13)
O6A O -0.76636(15) 0.35313(13) 0.00812(12)
O7A O -1.06034(15) -0.36329(13) 0.14873(16)
O8A O -0.83910(18) 0.32521(17) 0.72626(14)
O9A O -0.26071(17) 0.46874(14) 0.13644(18)
O10A O -0.00278(19) 1.02203(16) 0.76100(17)
N1A N -0.60607(18) 0.00763(15) 0.14610(19)
N2A N -0.47000(19) 0.00806(16) 0.1387(2)
O11A O -0.12494(18) 1.10058(18) 0.63140(16)
C1A C -0.68250(19) 0.42581(16) 0.05823(16)
N3A N -0.59980(19) -0.12807(15) 0.1421(2)
C2A C -0.36677(19) -0.22064(17) 0.12685(18)
N4A N -0.4763(2) 0.62034(19) 0.46501(16)
C3A C -0.31385(18) -0.26899(16) 0.12478(17)
N5A N -0.5188(2) 0.60295(19) 0.57547(16)
O12A O -0.0319(2) 0.98069(18) 0.86648(17)
C4A C -1.01540(19) -0.27838(18) 0.16243(18)
N6A N -0.6386(2) 0.49489(18) 0.43571(16)
C5A C -0.4697(2) -0.27045(17) 0.10511(19)
H1A H -0.50749 -0.33592 0.08713
C6A C -0.4632(2) -0.12929(18) 0.1342(2)
C7A C -0.6516(2) 0.45563(18) 0.15099(17)
C8A C -0.4760(2) 0.14559(18) 0.1388(2)
C9A C -0.5172(2) -0.22492(18) 0.1096(2)
H2A H -0.58721 -0.25934 0.09572
C10A C -0.3930(2) 0.32795(18) 0.1317(2)
C11A C -0.7717(2) -0.08318(18) 0.1785(2)
H3A H -0.73439 -0.01774 0.19349
C12A C -0.4855(2) 0.28115(19) 0.1311(2)
H4A H -0.52136 0.31124 0.12741
C13A C -0.3501(2) 0.42523(18) 0.12510(19)
C14A C -0.8605(2) -0.13079(18) 0.1833(2)
H5A H -0.88317 -0.09769 0.20222
C15A C -0.5199(2) 0.04831(18) 0.1417(2)
O13A O -0.9478(3) 0.2258(2) 0.59893(19)
C16A C -0.3120(2) -0.12467(18) 0.1520(2)
H6A H -0.24171 -0.09043 0.16682
C17A C -0.5526(2) 0.5275(2) 0.21089(18)
H7A H -0.50296 0.55717 0.19363
C18A C -0.9161(2) -0.22587(18) 0.1609(2)
C19A C -0.5261(2) 0.19130(19) 0.1357(2)
H8A H -0.58861 0.16061 0.13674
C20A C -0.6419(2) -0.08052(19) 0.1468(2)
C21A C -0.5976(2) 0.5127(2) 0.32202(18)
C22A C -0.1608(2) 0.88476(19) 0.7245(2)
C23A C -0.7373(2) -0.13054(19) 0.1518(2)
C24A C -0.5134(2) -0.08017(18) 0.1390(2)
C25A C -0.7230(2) 0.4124(2) 0.17764(19)
H9A H -0.79100 0.36278 0.13689
C26A C -0.6088(3) 0.5264(2) 0.51839(19)
C27A C -0.5697(3) 0.5445(2) 0.41260(19)
C28A C -0.3536(3) 0.7296(2) 0.60733(19)
C29A C -0.3595(2) -0.07914(19) 0.1556(3)
H10A H -0.32196 -0.01366 0.17252
C30A C -0.5255(2) 0.5562(2) 0.29579(19)
H11A H -0.45750 0.60576 0.33653
C31A C -0.6966(2) 0.4404(2) 0.2620(2)
H12A H -0.74625 0.41018 0.27913
C32A C -0.4559(3) 0.6466(2) 0.5457(2)
C33A C -0.1871(3) 0.8558(2) 0.6402(2)
H13A H -0.13930 0.88910 0.62188
C34A C -0.6538(3) 0.5018(2) 0.6343(2)
H14A H -0.59381 0.56040 0.67064
C35A C -0.0563(3) 0.9687(2) 0.7886(2)
C36A C -0.6792(3) 0.4713(2) 0.5499(2)
C37A C -0.2320(3) 0.8368(2) 0.7491(2)
H15A H -0.21496 0.85693 0.80683
C38A C -0.3825(3) 0.1929(2) 0.1409(3)
H16A H -0.34645 0.16307 0.14454
C39A C -0.7152(3) 0.4474(2) 0.6657(2)
H17A H -0.69643 0.46824 0.72388
C40A C -0.8680(3) 0.3009(3) 0.6486(2)
C41A C -0.2826(3) 0.7785(2) 0.5819(2)
H18A H -0.29958 0.75879 0.52409
C42A C -0.7929(3) -0.2259(2) 0.1301(3)
H19A H -0.76958 -0.25911 0.11229
C43A C -0.8825(3) -0.2735(2) 0.1339(3)
H20A H -0.92066 -0.33896 0.11795
C44A C -0.3414(3) 0.2842(2) 0.1377(3)
H21A H -0.27707 0.31633 0.13975
O14A O 0.1067(4) 1.0890(3) 0.6548(3)
C45A C -0.3273(3) 0.7602(3) 0.6917(2)
H22A H -0.37533 0.72811 0.71000
C46A C -0.8035(3) 0.3631(2) 0.6132(2)
C47A C -0.7680(3) 0.3871(3) 0.4972(2)
H23A H -0.78679 0.36569 0.43918
C48A C -0.8294(4) 0.3342(3) 0.5289(2)
H24A H -0.89087 0.27655 0.49198
C49A C -0.1910(5) 1.1225(5) 0.6129(3)
N7A N 0.1944(7) 1.0709(7) 0.6063(4)
C50A C -0.1498(6) 1.2313(5) 0.6153(4)
H25A H -0.08192 1.26115 0.62005
H26A H -0.19902 1.23492 0.56180
H27A H -0.14373 1.26272 0.66547
N8A N -0.2801(5) 1.0797(7) 0.5906(4)
C51A C -0.3155(4) 0.9863(5) 0.5877(5)
H28A H -0.33801 0.97107 0.63005
H29A H -0.37383 0.94723 0.52934
H30A H -0.25934 0.97575 0.60186
C52A C 0.2741(8) 1.1837(5) 0.6420(6)
H31A H 0.34359 1.19898 0.68561
H32A H 0.27628 1.20821 0.59337
H33A H 0.24981 1.21112 0.66817
C53A C 0.1318(8) 1.0489(8) 0.6226(4)
C54A C 0.0634(6) 0.9364(5) 0.5951(6)
H34A H 0.00463 0.91580 0.60379
H35A H 0.03776 0.91195 0.53378
H36A H 0.10669 0.91381 0.63111
C55A C 0.2293(8) 1.0301(7) 0.5656(8)
H37A H 0.29484 1.07850 0.57209
H38A H 0.23939 0.98425 0.59377
H39A H 0.17711 1.00021 0.50378
C56A C -0.3407(8) 1.1266(9) 0.5813(6)
H40A H -0.29421 1.19356 0.59748
H41A H -0.39721 1.10498 0.52092
H42A H -0.36942 1.11106 0.61952
Ca1* Ca -0.50000 -0.50000 0.00000
Ca1** Ca -0.50000 0.50000 0.00000
Ca1*** Ca 0.50000 1.50000 1.00000
Ca2* Ca -1.22119(3) -0.38027(3) 0.12899(3)
Ca2** Ca -0.22119(3) -0.38027(3) 0.12899(3)
Ca2*** Ca -0.22119(3) 0.61973(3) 0.12899(3)
Ca2**** Ca 0.77881(3) 0.61973(3) 1.12899(3)
Ca2A* Ca -0.77881(3) 0.38027(3) -0.12899(3)
Ca2A** Ca 0.22119(3) 0.38027(3) 0.87101(3)
Ca2A*** Ca 0.22119(3) 1.38027(3) 0.87101(3)
Ca2A**** Ca 1.22119(3) 1.38027(3) 0.87101(3)
Ca3* Ca -1.04952(4) -0.15081(3) 0.28418(3)
Ca3** Ca 0.95048(4) 0.84919(3) 0.28418(3)
Ca3A* Ca -0.95048(4) 0.15081(3) 0.71582(3)
Ca3A** Ca 1.04952(4) 1.15081(3) 0.71582(3)
O1* O -0.63315(13) 0.35556(11) 0.90531(12)
O1** O 0.36685(13) 0.35556(11) 0.90531(12)
O1A* O 0.63315(13) 0.64444(11) 0.09469(12)
O1A** O 0.63315(13) 0.64444(11) 1.09469(12)
O2* O -0.95004(12) 0.23200(12) 0.82342(11)
O2** O 0.04996(12) 1.23200(12) 0.82342(11)
O2A* O -0.04996(12) -0.23200(12) 0.17658(11)
O2A** O 0.95004(12) 0.76800(12) 0.17658(11)
O3* O 0.62288(13) 0.52186(12) -0.03303(11)
O3A* O -0.62288(13) 0.47814(12) 1.03303(11)
O3A** O 0.37712(13) 0.47814(12) 1.03303(11)
O4* O -0.78164(13) 0.22307(12) 0.84706(14)
O4A* O 0.78164(13) 0.77693(12) 0.15294(14)
O5A* O 0.59540(16) 0.45966(13) 1.11025(13)
O6* O 0.76636(15) 0.64687(13) -0.00812(12)
O6A* O -0.76636(15) 0.35313(13) 1.00812(12)
O7* O -0.93966(15) 0.36329(13) 0.85127(16)
O7A* O 0.93966(15) 0.63671(13) 0.14873(16)
O8* O -0.16090(18) -0.32521(17) 0.27374(14)
O8A* O 0.16090(18) 1.32521(17) 0.72626(14)
O9* O -0.73929(17) 0.53126(14) 0.86356(18)
O9A* O 0.73929(17) 0.46874(14) 0.13644(18)
O13* O -0.0522(3) -0.2258(2) 0.40107(19)
O13A* O 0.0522(3) 1.2258(2) 0.59893(19)
#END
