
#######################################################################
#
#                 Cambridge Crystallographic Data Centre
#                                CCDC
#
#######################################################################
#
# If this CIF has been generated from an entry in the Cambridge
# Structural Database, then it will include bibliographic, chemical,
# crystal, experimental, refinement or atomic coordinate data resulting
# from the CCDC's data processing and validation procedures.
#
#######################################################################

data_CSD_CIF_KABPUC
_audit_creation_date 2020-11-04
_audit_creation_method CSD-ConQuest-V1
_database_code_CSD KABPUC
_database_code_depnum_ccdc_archive 'CCDC 1869971'
_chemical_formula_sum 'C256.8 H185.7 In6 N16.5 O48 Ru1.05'
_chemical_formula_moiety
;
(C216 H120 In6 O48 6-)n,1.05(C24 H18 N12 Ru1 2+),3.9(C4 H12 N1 1+)
;
_journal_coden_Cambridge 1220
_journal_volume 26
_journal_year 2020
_journal_page_first 14580
_journal_name_full 'Chem.-Eur.J. '
loop_
_publ_author_name
"In-Hwan Choi"
"Sukbin Yoon"
"Seong Huh"
"Sung-Jin Kim"
"Youngmee Kim"
_chemical_name_systematic
;
catena-[(diethylammonium) tris(2,2'-bipyrazine)-ruthenium(ii) 
octakis(\m-4,4',4''-(benzene-1,3,5-triyl)tribenzoato)-hexa-indium(iii)]
;
_cell_volume  73694.251
_exptl_crystal_colour 'red'
_exptl_crystal_description 'block'
_diffrn_ambient_temperature 296
_refine_special_details
;
C30,C31,C32,C33,C34,C35,C54,C55,C56,O8 and 
C30*,C31*,C32*,C33*,C34*,C35*,C54*,C55*,C56*,O8* disordered over two sites 
with occupancies 0.583:0.417; C43,C44,C61,C62,C63 and 
C43*,C44*,C61*,C62*,C63* disordered over two sites with occupancies 
0.619:0.381; C58 and C58* disordered over two sites with occupancies 0.5:0.5; 
Disordered cations molecules (diethylammonium) were not modelled and the 
;
#These two values have been output from a single CSD field.
_refine_ls_R_factor_gt 0.1153
_refine_ls_wR_factor_gt 0.1153
_symmetry_cell_setting rhombohedral
_symmetry_space_group_name_H-M 'R -3'
_symmetry_Int_Tables_number 148
loop_
_symmetry_equiv_pos_site_id
_symmetry_equiv_pos_as_xyz
1 x,y,z
2 -y,x-y,z
3 -x+y,-x,z
4 2/3+x,1/3+y,1/3+z
5 2/3-y,1/3+x-y,1/3+z
6 2/3-x+y,1/3-x,1/3+z
7 1/3+x,2/3+y,2/3+z
8 1/3-y,2/3+x-y,2/3+z
9 1/3-x+y,2/3-x,2/3+z
10 -x,-y,-z
11 y,-x+y,-z
12 x-y,x,-z
13 -2/3-x,-1/3-y,-1/3-z
14 -2/3+y,-1/3-x+y,-1/3-z
15 -2/3+x-y,-1/3+x,-1/3-z
16 -1/3-x,-2/3-y,-2/3-z
17 -1/3+y,-2/3-x+y,-2/3-z
18 -1/3+x-y,-2/3+x,-2/3-z
_cell_length_a 45.1932(4)
_cell_length_b 45.1932(4)
_cell_length_c 41.6636(5)
_cell_angle_alpha 90
_cell_angle_beta 90
_cell_angle_gamma 120
_cell_formula_units_Z 6
loop_
_atom_type_symbol
_atom_type_radius_bond
C 0.68
H 0.23
In 1.42
N 0.68
O 0.68
Ru 1.46
loop_
_atom_site_label
_atom_site_type_symbol
_atom_site_fract_x
_atom_site_fract_y
_atom_site_fract_z
In1 In 0.49026(2) 0.09262(2) 0.52959(2)
O1 O 0.50729(15) 0.14861(13) 0.53760(14)
O2 O 0.46104(16) 0.10052(16) 0.48432(16)
O3 O 0.47667(15) 0.06266(15) 0.48542(14)
O4 O 0.53871(15) 0.13607(16) 0.50825(15)
O5 O 0.52311(29) 0.10190(17) 0.57502(16)
O6 O 0.5318(5) 0.0744(3) 0.53412(18)
O7 O 0.44018(31) 0.0768(2) 0.5567(2)
O8 O 0.45660(26) 0.03852(12) 0.5500(3)
C1 C 0.53511(19) 0.1582(2) 0.5210(2)
C2 C 0.4630(2) 0.0765(2) 0.4711(2)
C3 C 0.56048(15) 0.19460(13) 0.52096(18)
C4 C 0.45045(15) 0.06632(16) 0.43749(10)
C5 C 0.59105(18) 0.20551(16) 0.50466(18)
C6 C 0.55674(17) 0.21692(19) 0.5413(2)
C7 C 0.45146(17) 0.03851(16) 0.42450(13)
C8 C 0.43845(16) 0.08384(14) 0.41917(14)
H1 H 0.59360 0.19060 0.49110
C9 C 0.61788(16) 0.23874(18) 0.5087(2)
C10 C 0.5836(2) 0.25015(19) 0.5453(3)
H2 H 0.53630 0.20960 0.55220
H3 H 0.45950 0.02680 0.43670
C11 C 0.44048(17) 0.02822(15) 0.39320(14)
C12 C 0.42747(17) 0.07355(17) 0.38788(13)
H4 H 0.43780 0.10250 0.42790
H5 H 0.63830 0.24600 0.49780
C13 C 0.61414(19) 0.26106(14) 0.5290(3)
H6 H 0.58110 0.26510 0.55880
H7 H 0.44120 0.00960 0.38450
C14 C 0.42848(16) 0.04574(17) 0.37489(10)
H8 H 0.41940 0.08530 0.37560
C15 C 0.6401(2) 0.29784(16) 0.5271(4)
C16 C 0.41687(15) 0.03372(17) 0.34086(10)
C17 C 0.6744(3) 0.3072(4) 0.5270(4)
C18 C 0.43128(13) 0.01709(17) 0.32468(13)
C19 C 0.39167(15) 0.03802(18) 0.32616(14)
H9 H 0.67990 0.28990 0.52690
H10 H 0.44810 0.01420 0.33450
C20 C 0.42048(15) 0.00477(16) 0.29380(13)
C21 C 0.38087(15) 0.0257(2) 0.29527(15)
H11 H 0.38200 0.04910 0.33700
C22 C 0.39527(16) 0.00907(19) 0.27910(11)
C23 C 0.43505(15) -0.01556(18) 0.27800(15)
C24 C 0.35459(18) 0.0328(3) 0.27867(18)
H12 H 0.38800 0.00080 0.25840
C25 C 0.44665(18) -0.03367(19) 0.29593(11)
C26 C 0.43901(16) -0.01349(18) 0.24484(15)
C27 C 0.3573(2) 0.0647(2) 0.2818(2)
C28 C 0.3288(2) 0.0078(2) 0.2599(2)
H13 H 0.44400 -0.03510 0.31810
C29 C 0.46221(17) -0.04971(16) 0.28072(16)
C30 C 0.45458(17) -0.02953(18) 0.22963(11)
H14 H 0.43130 -0.00140 0.23280
H15 H 0.37450 0.08140 0.29440
C31 C 0.3341(3) 0.0715(2) 0.2662(3)
C32 C 0.30570(19) 0.0146(3) 0.2443(2)
H16 H 0.32700 -0.01360 0.25780
H17 H 0.47000 -0.06180 0.29270
C33 C 0.46618(15) -0.04764(16) 0.24757(17)
H18 H 0.45720 -0.02810 0.20740
H19 H 0.33590 0.09280 0.26830
C34 C 0.3084(2) 0.0464(3) 0.2474(2)
H20 H 0.28840 -0.00220 0.23170
C35 C 0.4845(3) -0.0665(3) 0.2350(2)
C36 C 0.2853(2) 0.05560(26) 0.2275(2)
O9 O 0.49177(18) -0.05971(18) 0.20404(18)
O10 O 0.4919(2) -0.0843(2) 0.2487(2)
In2 In 0.51671(2) -0.09272(2) 0.20395(2)
O11 O 0.52865(17) -0.07139(16) 0.15430(15)
O12 O 0.54414(18) -0.10799(17) 0.16512(16)
O13 O 0.49226(16) -0.14673(14) 0.21850(16)
O14 O 0.46206(17) -0.13665(15) 0.18466(16)
O15 O 0.56870(18) -0.04374(31) 0.21836(16)
O16 O 0.55468(18) -0.09277(31) 0.23942(17)
C37 C 0.5428(2) -0.0878(2) 0.14551(19)
C38 C 0.4655(3) -0.1574(2) 0.2026(3)
C39 C 0.5553(2) -0.08437(17) 0.11165(12)
C40 C 0.43699(11) -0.19383(9) 0.20308(14)
C41 C 0.56843(19) -0.10469(15) 0.10107(14)
C42 C 0.5549(3) -0.0603(2) 0.09119(17)
C43 C 0.40589(13) -0.20521(10) 0.18760(13)
C44 C 0.44246(10) -0.21642(12) 0.22130(14)
C45 C 0.58108(18) -0.10095(14) 0.07003(15)
H21 H 0.56870 -0.12080 0.11480
H22 H 0.54610 -0.04670 0.09830
C46 C 0.5675(3) -0.0566(2) 0.06014(15)
H23 H 0.40220 -0.19010 0.17540
C47 C 0.38028(10) -0.23917(11) 0.19035(14)
C48 C 0.41684(12) -0.25038(11) 0.22405(13)
H24 H 0.46330 -0.20880 0.23170
C49 C 0.5806(2) -0.07689(16) 0.04956(12)
H25 H 0.58980 -0.11450 0.06290
H26 H 0.56720 -0.04050 0.04640
H27 H 0.35950 -0.24680 0.18000
C50 C 0.38575(10) -0.26175(9) 0.20857(14)
H28 H 0.42050 -0.26550 0.23620
C51 C 0.59601(15) -0.07180(13) 0.01599(9)
C52 C 0.35911(16) -0.29887(17) 0.20957(18)
C53 C 0.61450(17) -0.03985(10) 0.00169(12)
C54 C 0.58951(14) -0.10096(10) -0.00092(13)
C55 C 0.3244(2) -0.3091(2) 0.2094(2)
H29 H 0.61880 -0.02030 0.01300
C56 C 0.62648(16) -0.03705(11) -0.02953(13)
C57 C 0.60150(16) -0.09817(12) -0.03213(12)
H30 H 0.57710 -0.12230 0.00870
H31 H 0.31850 -0.29220 0.20920
C58 C 0.61998(16) -0.06621(15) -0.04643(9)
C59 C 0.6490(3) -0.00280(15) -0.0435(3)
C60 C 0.5947(2) -0.1295(2) -0.0500(2)
H32 H 0.62800 -0.06430 -0.06730
C61 C 0.6764(3) 0.0061(4) -0.0640(3)
C62 C 0.6445(4) 0.0251(3) -0.0384(3)
C63 C 0.5991(5) -0.1273(5) -0.0832(2)
C64 C 0.5786(3) -0.1617(2) -0.0360(2)
H33 H 0.68400 -0.00960 -0.06560
C65 C 0.6941(4) 0.0359(3) -0.0827(3)
H34 H 0.62840 0.02250 -0.02300
C66 C 0.6611(5) 0.0560(4) -0.0537(3)
C67 C 0.6024(3) -0.1553(4) -0.0993(3)
H35 H 0.60000 -0.10930 -0.09480
C68 C 0.5716(3) -0.1904(4) -0.0548(2)
H36 H 0.57250 -0.16430 -0.01440
C69 C 0.6865(4) 0.0614(3) -0.0756(3)
H37 H 0.70970 0.03830 -0.09850
H38 H 0.65570 0.07300 -0.04950
C70 C 0.5866(3) -0.1872(4) -0.0847(2)
H39 H 0.61460 -0.15140 -0.11830
H40 H 0.55650 -0.21210 -0.04700
C71 C 0.69620(25) 0.09111(19) -0.0968(2)
C72 C 0.5821(2) -0.2165(3) -0.10417(18)
Ru1 Ru 0.52374(4) 0.03182(4) 0.11235(4)
N1 N 0.4959(2) -0.02141(19) 0.1139(2)
C73 C 0.4777(3) -0.0421(3) 0.1397(2)
H41 H 0.47620 -0.03220 0.15880
C74 C 0.4618(3) -0.0774(2) 0.1369(3)
H42 H 0.44970 -0.09120 0.15420
N2 N 0.4641(3) -0.09207(19) 0.1084(3)
C75 C 0.4823(3) -0.0714(3) 0.0826(2)
H43 H 0.48380 -0.08120 0.06360
C76 C 0.4982(3) -0.0361(3) 0.0854(2)
N3 N 0.5320(3) 0.0204(3) 0.0661(3)
C77 C 0.5155(3) -0.0145(3) 0.0599(3)
C78 C 0.5177(4) -0.0262(3) 0.0296(4)
H44 H 0.50670 -0.04950 0.02550
N4 N 0.5363(4) -0.0030(4) 0.0055(3)
C79 C 0.5528(4) 0.0319(4) 0.0117(3)
H45 H 0.56520 0.04740 -0.00440
C80 C 0.5506(4) 0.0436(3) 0.0420(4)
H46 H 0.56160 0.06690 0.04610
N5 N 0.5679(2) 0.0342(3) 0.1314(2)
C81 C 0.5688(2) 0.0078(2) 0.1476(2)
H47 H 0.54940 -0.01370 0.14840
C82 C 0.5988(3) 0.0137(2) 0.1626(2)
H48 H 0.59940 -0.00400 0.17340
N6 N 0.6277(2) 0.0459(3) 0.1613(3)
C83 C 0.6268(2) 0.0723(2) 0.1451(3)
H49 H 0.64620 0.09390 0.14430
C84 C 0.5968(3) 0.0664(2) 0.1302(3)
N7 N 0.5574(3) 0.0840(3) 0.1088(4)
C85 C 0.5910(4) 0.0926(4) 0.1148(4)
C86 C 0.6175(3) 0.1254(4) 0.1082(4)
H50 H 0.64000 0.13120 0.11230
N8 N 0.6103(4) 0.1496(3) 0.0955(4)
C87 C 0.5767(5) 0.1410(4) 0.0894(4)
H51 H 0.57190 0.15720 0.08090
C88 C 0.5502(3) 0.1082(4) 0.0961(4)
H52 H 0.52780 0.10240 0.09200
N9 N 0.5114(4) 0.0443(4) 0.1567(4)
C89 C 0.5276(4) 0.0481(5) 0.1860(5)
H53 H 0.54660 0.04530 0.18720
C90 C 0.5155(6) 0.0561(6) 0.2134(4)
H54 H 0.52640 0.05870 0.23300
N10 N 0.4871(6) 0.0603(6) 0.2115(4)
C91 C 0.4708(5) 0.0565(5) 0.1822(5)
H55 H 0.45190 0.05930 0.18100
C92 C 0.4830(4) 0.0485(4) 0.1548(4)
N11 N 0.4807(3) 0.0361(3) 0.1001(3)
C93 C 0.4649(4) 0.0423(4) 0.1258(3)
C94 C 0.4365(4) 0.0458(5) 0.1206(4)
H56 H 0.42590 0.05000 0.13780
N12 N 0.4238(4) 0.0432(5) 0.0897(5)
C95 C 0.4395(5) 0.0370(5) 0.0640(4)
H57 H 0.43100 0.03530 0.04330
C96 C 0.4680(4) 0.0335(4) 0.0692(3)
H58 H 0.47850 0.02940 0.05200
O17? O 0.6016(3) -0.2166(5) -0.1254(3)
C97? C 0.6129(5) 0.23846(18) 0.4936(4)
H59? H 0.62690 0.24310 0.47580
C98? C 0.6121(2) 0.2639(2) 0.5117(3)
C99? C 0.5826(3) 0.2546(3) 0.5293(4)
H60? H 0.58140 0.27040 0.54260
C100? C 0.5548(4) 0.2216(2) 0.5271(6)
H61? H 0.53270 0.21760 0.52960
C101? C 0.6407(2) 0.2994(2) 0.5086(4)
C102? C 0.6748(3) 0.3082(4) 0.5104(5)
H62? H 0.68030 0.29100 0.51300
C103? C 0.5708(8) -0.0533(3) 0.0955(5)
H63? H 0.57200 -0.03460 0.10610
C104? C 0.5847(5) -0.0478(3) 0.0648(4)
H64? H 0.59580 -0.02630 0.05530
C105? C 0.6357(6) -0.0061(4) -0.0487(5)
C106? C 0.6612(5) -0.0016(5) -0.0702(4)
H65? H 0.66800 -0.01770 -0.07340
C107? C 0.6231(5) 0.0158(4) -0.0428(5)
H66? H 0.60520 0.01250 -0.02940
C108? C 0.6138(5) -0.1291(6) -0.0764(4)
H67? H 0.63560 -0.11030 -0.07900
C109? C 0.6725(6) 0.0578(3) -0.0817(4)
C110? C 0.6439(8) 0.0441(6) -0.0620(5)
H68? H 0.63540 0.05910 -0.06150
C111? C 0.6749(7) 0.0286(5) -0.0860(6)
H69? H 0.68890 0.03020 -0.10310
C17B C 0.6328(3) 0.3256(4) 0.5270(4)
C15A C 0.70216(20) 0.34226(16) 0.5271(4)
C15B C 0.65774(20) 0.35990(16) 0.5271(4)
H9B H 0.61000 0.32010 0.52690
C13A C 0.73894(19) 0.35308(14) 0.5290(3)
C17A C 0.6928(3) 0.3672(4) 0.5270(4)
C13B C 0.64692(19) 0.38586(14) 0.5290(3)
C9A C 0.76126(16) 0.37914(18) 0.5087(2)
C10A C 0.74985(20) 0.33345(19) 0.5453(3)
H9A H 0.71010 0.39000 0.52690
C9B C 0.62086(16) 0.38212(18) 0.5087(2)
C10B C 0.66655(20) 0.41640(19) 0.5453(3)
C5A C 0.79449(18) 0.38554(16) 0.50466(18)
H5A H 0.75400 0.39230 0.49780
H6A H 0.73490 0.31600 0.55880
C6A C 0.78308(17) 0.33982(19) 0.5413(2)
C5B C 0.61446(18) 0.40895(16) 0.50466(18)
H5B H 0.60770 0.36170 0.49780
H6B H 0.68400 0.41890 0.55880
C6B C 0.66018(17) 0.44326(19) 0.5413(2)
C3A C 0.80540(15) 0.36588(13) 0.52096(18)
H1A H 0.80940 0.40300 0.49110
H2A H 0.79040 0.32670 0.55220
C3B C 0.63412(15) 0.43952(13) 0.52096(18)
H1B H 0.59700 0.40640 0.49110
H2B H 0.67330 0.46370 0.55220
C1A C 0.84180(19) 0.37691(20) 0.5210(2)
C1B C 0.62309(19) 0.46489(20) 0.5210(2)
O1A O 0.85139(15) 0.35868(13) 0.53760(14)
O4A O 0.86393(15) 0.40264(16) 0.50825(15)
O1B O 0.64132(15) 0.49271(13) 0.53760(14)
O4B O 0.59736(15) 0.46129(16) 0.50825(15)
O7G O 0.256533(310) 0.030047(200) 0.223367(200)
O8G O 0.294813(260) 0.084747(120) 0.216667(300)
In1A In 0.90738(2) 0.39764(2) 0.52959(2)
In1B In 0.60236(2) 0.50974(2) 0.52959(2)
In1G In 0.240713(20) 0.064307(20) 0.196257(20)
C55B C 0.3665(2) -0.3244(2) 0.2094(2)
C52A C 0.29887(16) -0.34202(17) 0.20957(18)
C52B C 0.34202(16) -0.35911(17) 0.20957(18)
H31B H 0.38930 -0.31850 0.20920
C50A C 0.26175(10) -0.35250(9) 0.20857(14)
C55A C 0.3091(2) -0.3665(2) 0.2094(2)
C50B C 0.3525(1) -0.38575(9) 0.20857(14)
C47A C 0.23917(10) -0.38055(11) 0.19035(14)
C48A C 0.25038(12) -0.33278(11) 0.22405(13)
H31A H 0.29220 -0.38930 0.20920
C47B C 0.38055(10) -0.38028(11) 0.19035(14)
C48B C 0.33278(12) -0.41684(11) 0.22405(13)
C43A C 0.20521(13) -0.3889(1) 0.18760(13)
H27A H 0.24680 -0.39370 0.18000
H28A H 0.26550 -0.31400 0.23620
C44A C 0.21642(10) -0.34112(12) 0.22130(14)
C43B C 0.38890(13) -0.40589(10) 0.18760(13)
H27B H 0.39370 -0.35950 0.18000
H28B H 0.31400 -0.42050 0.23620
C44B C 0.34112(10) -0.44246(12) 0.22130(14)
C40A C 0.19383(11) -0.36918(9) 0.20308(14)
H23A H 0.19010 -0.40770 0.17540
H24A H 0.20880 -0.32790 0.23170
C40B C 0.36918(11) -0.43699(9) 0.20308(14)
H23B H 0.40770 -0.40220 0.17540
H24B H 0.32790 -0.46330 0.23170
C38A C 0.1574(3) -0.3771(2) 0.2026(3)
C38B C 0.3771(3) -0.4655(2) 0.2026(3)
O15H O 0.720893(180) 0.097967(310) -0.114973(160)
O16H O 0.685883(180) 0.111987(310) -0.093913(170)
O5D O 0.564767(290) -0.245457(170) -0.091647(160)
O6D O 0.592267(500) -0.209267(300) -0.132547(180)
O13A O 0.14673(16) -0.36101(14) 0.21850(16)
O14A O 0.13665(17) -0.40129(15) 0.18466(16)
O13B O 0.36101(16) -0.49226(14) 0.21850(16)
O14B O 0.40129(17) -0.46206(15) 0.18466(16)
In2H In 0.723903(20) 0.149957(20) -0.129383(20)
In1D In 0.574047(20) -0.269027(20) -0.137077(20)
In2A In 0.09272(2) -0.39057(2) 0.20395(2)
In2B In 0.39057(2) -0.51671(2) 0.20395(2)
O11A O 0.07139(17) -0.39996(16) 0.15430(15)
O12A O 0.10799(18) -0.34787(17) 0.16512(16)
O9A O 0.05971(18) -0.44852(18) 0.20404(18)
O10A O 0.0843(2) -0.4238(2) 0.2487(2)
O15A O 0.04374(18) -0.38756(31) 0.21836(16)
O16A O 0.09277(18) -0.35255(31) 0.23942(17)
O11B O 0.39996(17) -0.52865(16) 0.15430(15)
O12B O 0.34787(18) -0.54414(17) 0.16512(16)
O9B O 0.44852(18) -0.49177(18) 0.20404(18)
O10B O 0.4238(2) -0.4919(2) 0.2487(2)
O15B O 0.38756(18) -0.56870(31) 0.21836(16)
O16B O 0.35255(18) -0.55468(31) 0.23942(17)
C37A C 0.0878(2) -0.3694(2) 0.14551(19)
C35A C 0.0665(3) -0.4490(3) 0.2350(2)
C37B C 0.3694(2) -0.5428(2) 0.14551(19)
C35B C 0.4490(3) -0.4845(3) 0.2350(2)
C39A C 0.08437(20) -0.36033(17) 0.11165(12)
C33A C 0.04764(15) -0.48618(16) 0.24757(17)
C39B C 0.36033(20) -0.55530(17) 0.11165(12)
C33B C 0.48618(15) -0.46618(16) 0.24757(17)
C41A C 0.10469(19) -0.32688(15) 0.10107(14)
C42A C 0.0603(3) -0.3848(2) 0.09119(17)
C29A C 0.04971(17) -0.48808(16) 0.28072(16)
C30A C 0.02953(17) -0.51589(18) 0.22963(11)
C41B C 0.32688(19) -0.56843(15) 0.10107(14)
C42B C 0.3848(3) -0.5549(2) 0.09119(17)
C29B C 0.48808(17) -0.46221(16) 0.28072(16)
C30B C 0.51589(17) -0.45458(18) 0.22963(11)
C45A C 0.10095(18) -0.31797(14) 0.07003(15)
H21A H 0.12080 -0.31050 0.11480
H22A H 0.04670 -0.40720 0.09830
C46A C 0.0566(3) -0.3759(2) 0.06014(15)
C25A C 0.03367(18) -0.51968(19) 0.29593(11)
H17A H 0.06180 -0.46820 0.29270
H18A H 0.02810 -0.51470 0.20740
C26A C 0.01349(16) -0.54750(18) 0.24484(15)
C45B C 0.31797(18) -0.58108(14) 0.07003(15)
H21B H 0.31050 -0.56870 0.11480
H22B H 0.40720 -0.54610 0.09830
C46B C 0.3759(3) -0.5675(2) 0.06014(15)
C25B C 0.51968(18) -0.44665(19) 0.29593(11)
H17B H 0.46820 -0.47000 0.29270
H18B H 0.51470 -0.45720 0.20740
C26B C 0.54750(16) -0.43901(18) 0.24484(15)
C49A C 0.07689(20) -0.34251(16) 0.04956(12)
H25A H 0.11450 -0.29570 0.06290
H26A H 0.04050 -0.39230 0.04640
C23A C 0.01556(15) -0.54939(18) 0.27800(15)
H13A H 0.03510 -0.52090 0.31810
H14A H 0.00140 -0.56730 0.23280
C49B C 0.34251(20) -0.58060(16) 0.04956(12)
H25B H 0.29570 -0.58980 0.06290
H26B H 0.39230 -0.56720 0.04640
C23B C 0.54939(15) -0.43505(18) 0.27800(15)
H13B H 0.52090 -0.44400 0.31810
H14B H 0.56730 -0.43130 0.23280
C51A C 0.07180(15) -0.33219(13) 0.01599(9)
C20A C -0.00477(15) -0.58429(16) 0.29380(13)
C51B C 0.33219(15) -0.59601(13) 0.01599(9)
C20B C 0.58429(15) -0.42048(16) 0.29380(13)
C53A C 0.03985(17) -0.34565(10) 0.00169(12)
C54A C 0.10096(14) -0.30953(10) -0.00092(13)
C18A C -0.01709(13) -0.58581(17) 0.32468(13)
C22A C -0.00907(16) -0.61380(19) 0.27910(11)
C53B C 0.34565(17) -0.6145(1) 0.00169(12)
C54B C 0.30953(14) -0.58951(10) -0.00092(13)
C18B C 0.58581(13) -0.43128(17) 0.32468(13)
C22B C 0.61380(16) -0.39527(19) 0.27910(11)
H29A H 0.02030 -0.36090 0.01300
C56A C 0.03705(16) -0.33647(11) -0.02953(13)
C57A C 0.09817(16) -0.30033(12) -0.03213(12)
H30A H 0.12230 -0.30060 0.00870
C16A C -0.03372(15) -0.61685(17) 0.34086(10)
H10A H -0.01420 -0.56610 0.33450
H12A H -0.00080 -0.61280 0.25840
C21A C -0.02570(15) -0.64483(20) 0.29527(15)
H29B H 0.36090 -0.61880 0.01300
C56B C 0.33647(16) -0.62648(11) -0.02953(13)
C57B C 0.30033(16) -0.60150(12) -0.03213(12)
H30B H 0.30060 -0.57710 0.00870
C16B C 0.61685(15) -0.41687(17) 0.34086(10)
H10B H 0.56610 -0.44810 0.33450
H12B H 0.61280 -0.38800 0.25840
C21B C 0.64483(15) -0.38087(20) 0.29527(15)
C58A C 0.06621(16) -0.31381(15) -0.04643(9)
C59A C 0.0028(3) -0.34820(15) -0.0435(3)
C60A C 0.1295(2) -0.2758(2) -0.0500(2)
C14A C -0.04574(16) -0.61726(17) 0.37489(10)
C19A C -0.03802(15) -0.64635(18) 0.32616(14)
C24A C -0.03280(18) -0.67821(30) 0.27867(18)
C58B C 0.31381(16) -0.61998(15) -0.04643(9)
C59B C 0.3482(3) -0.64900(15) -0.0435(3)
C60B C 0.2758(2) -0.5947(2) -0.0500(2)
C14B C 0.61726(16) -0.42848(17) 0.37489(10)
C19B C 0.64635(15) -0.39167(18) 0.32616(14)
C24B C 0.67821(18) -0.35459(30) 0.27867(18)
H32A H 0.06430 -0.30770 -0.06730
C61A C -0.0061(3) -0.3297(4) -0.0640(3)
C62A C -0.0251(4) -0.3806(3) -0.0384(3)
C63A C 0.1273(5) -0.2736(5) -0.0832(2)
C64A C 0.1617(3) -0.2597(2) -0.0360(2)
C11A C -0.02822(17) -0.58774(15) 0.39320(14)
C12A C -0.07355(17) -0.64608(17) 0.38788(13)
H11A H -0.04910 -0.66710 0.33700
C27A C -0.0647(2) -0.7074(2) 0.2818(2)
C28A C -0.0078(2) -0.6790(2) 0.2599(2)
H32B H 0.30770 -0.62800 -0.06730
C61B C 0.3297(3) -0.6764(4) -0.0640(3)
C62B C 0.3806(4) -0.6445(3) -0.0384(3)
C63B C 0.2736(5) -0.5991(5) -0.0832(2)
C64B C 0.2597(3) -0.5786(2) -0.0360(2)
C11B C 0.58774(17) -0.44048(15) 0.39320(14)
C12B C 0.64608(17) -0.42747(17) 0.38788(13)
H11B H 0.66710 -0.38200 0.33700
C27B C 0.7074(2) -0.3573(2) 0.2818(2)
C28B C 0.6790(2) -0.3288(2) 0.2599(2)
H33A H 0.00960 -0.30640 -0.06560
C65A C -0.0359(4) -0.3418(3) -0.0827(3)
H34A H -0.02250 -0.39410 -0.02300
C66A C -0.0560(5) -0.3949(4) -0.0537(3)
C67A C 0.1553(3) -0.2423(4) -0.0993(3)
H35A H 0.10930 -0.29070 -0.09480
C68A C 0.1904(3) -0.2380(4) -0.0548(2)
H36A H 0.16430 -0.26320 -0.01440
C7A C -0.03851(17) -0.58705(16) 0.42450(13)
H7A H -0.00960 -0.56840 0.38450
H8A H -0.08530 -0.66590 0.37560
C8A C -0.08384(16) -0.64539(14) 0.41917(14)
H15A H -0.08140 -0.70690 0.29440
C31A C -0.0715(3) -0.7374(2) 0.2662(3)
C32A C -0.01460(19) -0.7089(3) 0.2443(2)
H16A H 0.01360 -0.65940 0.25780
H33B H 0.30640 -0.68400 -0.06560
C65B C 0.3418(4) -0.6941(3) -0.0827(3)
H34B H 0.39410 -0.62840 -0.02300
C66B C 0.3949(5) -0.6611(4) -0.0537(3)
C67B C 0.2423(3) -0.6024(4) -0.0993(3)
H35B H 0.29070 -0.60000 -0.09480
C68B C 0.2380(3) -0.5716(4) -0.0548(2)
H36B H 0.26320 -0.57250 -0.01440
C7B C 0.58705(17) -0.45146(16) 0.42450(13)
H7B H 0.56840 -0.44120 0.38450
H8B H 0.66590 -0.41940 0.37560
C8B C 0.64539(16) -0.43845(14) 0.41917(14)
H15B H 0.70690 -0.37450 0.29440
C31B C 0.7374(3) -0.3341(2) 0.2662(3)
C32B C 0.70890(19) -0.3057(3) 0.2443(2)
H16B H 0.65940 -0.32700 0.25780
C69A C -0.0614(4) -0.3749(3) -0.0756(3)
H37A H -0.03830 -0.32860 -0.09850
H38A H -0.07300 -0.41730 -0.04950
C70A C 0.1872(3) -0.2262(4) -0.0847(2)
H39A H 0.15140 -0.23400 -0.11830
H40A H 0.21210 -0.23140 -0.04700
C4A C -0.06632(15) -0.61587(16) 0.43749(10)
H3A H -0.02680 -0.56730 0.43670
H4A H -0.10250 -0.66470 0.42790
H19A H -0.09280 -0.75690 0.26830
C34A C -0.0464(2) -0.7380(3) 0.2474(2)
H20A H 0.00220 -0.70940 0.23170
C69B C 0.3749(4) -0.6865(3) -0.0756(3)
H37B H 0.32860 -0.70970 -0.09850
H38B H 0.41730 -0.65570 -0.04950
C70B C 0.2262(3) -0.5866(4) -0.0847(2)
H39B H 0.23400 -0.61460 -0.11830
H40B H 0.23140 -0.55650 -0.04700
C4B C 0.61587(15) -0.45045(16) 0.43749(10)
H3B H 0.56730 -0.45950 0.43670
H4B H 0.66470 -0.43780 0.42790
H19B H 0.75690 -0.33590 0.26830
C34B C 0.7380(2) -0.3084(3) 0.2474(2)
H20B H 0.70940 -0.28840 0.23170
C71A C -0.09111(25) -0.39491(19) -0.0968(2)
C72A C 0.2165(2) -0.2014(3) -0.10417(18)
C2A C -0.0765(2) -0.6135(2) 0.4711(2)
C36A C -0.0556(2) -0.77030(26) 0.2275(2)
C71B C 0.39491(25) -0.69620(19) -0.0968(2)
C72B C 0.2014(2) -0.5821(3) -0.10417(18)
C2B C 0.6135(2) -0.4630(2) 0.4711(2)
C36B C 0.7703(2) -0.28530(26) 0.2275(2)
O15F O -0.097967(180) -0.377073(310) -0.114973(160)
O16F O -0.111987(180) -0.426103(310) -0.093913(170)
O5E O 0.245457(290) -0.189777(170) -0.091647(160)
O6E O 0.209267(500) -0.198467(300) -0.132547(180)
O2A O -0.10052(16) -0.63948(16) 0.48432(16)
O3A O -0.06266(15) -0.58599(15) 0.48542(14)
O7H O -0.030047(310) -0.773513(200) 0.223367(200)
O8H O -0.084747(260) -0.789933(120) 0.216667(300)
O15G O 0.377073(180) -0.720893(310) -0.114973(160)
O16G O 0.426103(180) -0.685883(310) -0.093913(170)
O5C O 0.189777(290) -0.564767(170) -0.091647(160)
O6C O 0.198467(500) -0.592267(300) -0.132547(180)
O2B O 0.63948(16) -0.46104(16) 0.48432(16)
O3B O 0.58599(15) -0.47667(15) 0.48542(14)
O7F O 0.773513(310) -0.256533(200) 0.223367(200)
O8F O 0.789933(260) -0.294813(120) 0.216667(300)
In2F In -0.149957(20) -0.426053(20) -0.129383(20)
In1E In 0.269027(20) -0.156927(20) -0.137077(20)
In1A* In -0.09262(2) -0.60236(2) 0.52959(2)
In1H In -0.064307(20) -0.823593(20) 0.196257(20)
In2G In 0.426053(20) -0.723903(20) -0.129383(20)
In1C In 0.156927(20) -0.574047(20) -0.137077(20)
In1B* In 0.60236(2) -0.49026(2) 0.52959(2)
In1F In 0.823593(20) -0.240713(20) 0.196257(20)
O1A* O -0.14861(15) -0.64132(13) 0.53760(14)
O5A O -0.10190(29) -0.57879(17) 0.57502(16)
O6A O -0.0744(5) -0.5426(3) 0.53412(18)
O7A O -0.07680(31) -0.63662(20) 0.5567(2)
O8A O -0.03852(26) -0.58192(12) 0.5500(3)
O4A* O -0.13607(15) -0.59736(16) 0.50825(15)
O1B* O 0.64132(15) -0.50729(13) 0.53760(14)
O5B O 0.57879(29) -0.52311(17) 0.57502(16)
O6B O 0.5426(5) -0.5318(3) 0.53412(18)
O7B O 0.63662(31) -0.44018(20) 0.5567(2)
O8B O 0.58192(26) -0.45660(12) 0.5500(3)
O4B* O 0.59736(15) -0.53871(16) 0.50825(15)
#END
