
#######################################################################
#
#                 Cambridge Crystallographic Data Centre
#                                CCDC
#
#######################################################################
#
# If this CIF has been generated from an entry in the Cambridge
# Structural Database, then it will include bibliographic, chemical,
# crystal, experimental, refinement or atomic coordinate data resulting
# from the CCDC's data processing and validation procedures.
#
#######################################################################

data_CSD_CIF_KABPIQ
_audit_creation_date 2020-11-04
_audit_creation_method CSD-ConQuest-V1
_database_code_CSD KABPIQ
_database_code_depnum_ccdc_archive 'CCDC 1869861'
_chemical_formula_sum 'C513 H414 In12 N18 O111 Ru1.5'
_chemical_formula_moiety
;
2(C216 H120 In6 O48 6-)n,1.5(C30 H24 N6 Ru1 2+),15(H2 O1),9(C4 H12 N1 1+)
;
_journal_coden_Cambridge 1220
_journal_volume 26
_journal_year 2020
_journal_page_first 14580
_journal_name_full 'Chem.-Eur.J. '
loop_
_publ_author_name
"In-Hwan Choi"
"Sukbin Yoon"
"Seong Huh"
"Sung-Jin Kim"
"Youngmee Kim"
_chemical_name_systematic
;
catena-[nonakis(diethylammonium) 
sesquikis[tris(2,2'-bipyridine)-ruthenium(ii)] 
bis[octakis(\m-4,4',4''-(benzene-1,3,5-triyl)tribenzoato)-hexa-indium(iii)] 
pentadecahydrate]
;
_cell_volume  72987.107
_exptl_crystal_colour 'red'
_exptl_crystal_description 'block'
_diffrn_ambient_temperature 296
_refine_special_details
;
C43 and C43* disordered over two sites with occupancies 0.5:0.5; C69 and C69* 
disordered over two sites with occupancies 0.7:0.3; O15 and O15* disordered 
over two sites with occupancies 0.7:0.3; Disordered cations (diethylammonium) 
molecules were not modelled and the disordered density was taken into account 
using the SQUEEZE/PLATON procedure.
;
#These two values have been output from a single CSD field.
_refine_ls_R_factor_gt 0.1464
_refine_ls_wR_factor_gt 0.1464
_symmetry_cell_setting rhombohedral
_symmetry_space_group_name_H-M 'R -3'
_symmetry_Int_Tables_number 148
loop_
_symmetry_equiv_pos_site_id
_symmetry_equiv_pos_as_xyz
1 x,y,z
2 -y,x-y,z
3 -x+y,-x,z
4 2/3+x,1/3+y,1/3+z
5 2/3-y,1/3+x-y,1/3+z
6 2/3-x+y,1/3-x,1/3+z
7 1/3+x,2/3+y,2/3+z
8 1/3-y,2/3+x-y,2/3+z
9 1/3-x+y,2/3-x,2/3+z
10 -x,-y,-z
11 y,-x+y,-z
12 x-y,x,-z
13 -2/3-x,-1/3-y,-1/3-z
14 -2/3+y,-1/3-x+y,-1/3-z
15 -2/3+x-y,-1/3+x,-1/3-z
16 -1/3-x,-2/3-y,-2/3-z
17 -1/3+y,-2/3-x+y,-2/3-z
18 -1/3+x-y,-2/3+x,-2/3-z
_cell_length_a 44.7175(10)
_cell_length_b 44.7175(10)
_cell_length_c 42.1464(11)
_cell_angle_alpha 90
_cell_angle_beta 90
_cell_angle_gamma 120
_cell_formula_units_Z 3
loop_
_atom_type_symbol
_atom_type_radius_bond
C 0.68
H 0.23
In 1.42
N 0.68
O 0.68
Ru 1.46
loop_
_atom_site_label
_atom_site_type_symbol
_atom_site_fract_x
_atom_site_fract_y
_atom_site_fract_z
In1 In 0.42751(2) 0.14046(2) 0.37158(2)
In2 In 0.61381(2) 0.09466(2) 0.02581(2)
O1 O 0.4421(2) 0.11497(18) 0.33221(17)
O2 O 0.40843(19) 0.1328(2) 0.32186(15)
O3 O 0.5932(2) 0.1057(3) 0.0742(2)
O4 O 0.5591(2) 0.0767(3) 0.0354(3)
O5 O 0.3919(2) 0.1629(2) 0.37179(19)
O6 O 0.4159(2) 0.1634(2) 0.4165(2)
O7 O 0.24536(19) -0.04306(26) 0.04929(18)
O8 O 0.23205(16) -0.00847(25) 0.07251(17)
O9 O 0.48180(17) 0.16634(17) 0.38744(17)
O10 O 0.46796(19) 0.19446(17) 0.35436(19)
O11 O 0.2698(2) 0.1982(3) 0.64963(19)
O12 O 0.2329(2) 0.2158(3) 0.6448(2)
O13 O 0.6090(3) 0.1379(2) 0.0027(2)
O14 O 0.6542(3) 0.1505(2) 0.0305(2)
O15 O 0.3173(4) 0.4125(4) 0.3825(3)
O16 O 0.2634(4) 0.3750(3) 0.3829(3)
C1 C 0.4234(3) 0.1179(3) 0.3118(3)
C2 C 0.4226(3) 0.1071(3) 0.2789(2)
C3 C 0.4431(3) 0.0948(3) 0.2689(2)
H1 H 0.45840 0.09400 0.28330
C4 C 0.4425(3) 0.0834(3) 0.2379(2)
H2 H 0.45700 0.07520 0.23170
C5 C 0.4194(2) 0.0848(3) 0.2166(2)
C6 C 0.3980(3) 0.0973(3) 0.2263(2)
H3 H 0.38270 0.09880 0.21230
C7 C 0.4005(3) 0.1083(3) 0.2599(3)
H4 H 0.38610 0.11600 0.26730
C8 C 0.4165(2) 0.0729(3) 0.1828(2)
C9 C 0.4468(3) 0.0785(3) 0.1661(2)
H5 H 0.46820 0.08940 0.17610
C10 C 0.4438(3) 0.0675(3) 0.1350(2)
C11 C 0.4123(3) 0.0514(3) 0.1211(2)
H6 H 0.41050 0.04360 0.10030
C12 C 0.3825(3) 0.0458(3) 0.1367(2)
C13 C 0.3842(3) 0.0557(3) 0.1669(2)
H7 H 0.36410 0.05130 0.17750
C14 C 0.3493(2) 0.0282(2) 0.1204(2)
C15 C 0.3395(3) 0.0016(2) 0.0986(2)
H8 H 0.35510 -0.00610 0.09480
C16 C 0.3249(3) 0.0382(3) 0.1260(3)
H9 H 0.32890 0.05440 0.14170
C17 C 0.47671(17) 0.0739(2) 0.11712(17)
C18 C 0.47275(17) 0.0589(2) 0.08739(18)
H10 H 0.45080 0.04570 0.07870
C19 C 0.5016(2) 0.0637(2) 0.07059(15)
H11 H 0.49890 0.05370 0.05070
C20 C 0.53436(18) 0.0835(2) 0.08352(19)
C21 C 0.53832(16) 0.0985(2) 0.11324(19)
H12 H 0.56030 0.11170 0.12190
C22 C 0.5095(2) 0.0937(2) 0.13005(15)
H13 H 0.51220 0.10370 0.14990
C23 C 0.5644(3) 0.0891(3) 0.0642(3)
C24 C 0.3960(3) 0.1709(3) 0.4003(3)
C25 C 0.3807(2) 0.1886(2) 0.4156(2)
C26 C 0.3824(3) 0.1950(2) 0.4480(2)
H14 H 0.39490 0.18830 0.46090
C27 C 0.3664(3) 0.2109(3) 0.4613(2)
H15 H 0.36860 0.21530 0.48300
C28 C 0.3470(3) 0.2207(3) 0.4434(3)
C29 C 0.3456(3) 0.2152(3) 0.4120(2)
H16 H 0.33410 0.22300 0.39900
C30 C 0.3617(3) 0.1974(3) 0.3985(3)
H17 H 0.35870 0.19190 0.37700
C31 C 0.30122(19) 0.24718(18) 0.50316(12)
C32 C 0.29919(19) 0.27317(18) 0.48695(15)
H18 H 0.28910 0.28470 0.49660
C33 C 0.31216(19) 0.28194(16) 0.45630(15)
C34 C 0.32717(19) 0.26470(18) 0.44186(12)
H19 H 0.33590 0.27060 0.42130
C35 C 0.32920(18) 0.23871(18) 0.45807(14)
C36 C 0.31623(19) 0.22994(16) 0.48872(14)
H20 H 0.31760 0.21260 0.49960
C37 C 0.3097(3) 0.3094(2) 0.4382(2)
C38 C 0.3356(2) 0.3337(3) 0.4188(2)
H21 H 0.35630 0.33360 0.41660
C39 C 0.3308(3) 0.3580(2) 0.4028(2)
H22 H 0.34820 0.37430 0.38980
C40 C 0.2999(3) 0.3582(3) 0.4060(3)
C41 C 0.2739(3) 0.3339(3) 0.4254(3)
H23 H 0.25330 0.33400 0.42760
C42 C 0.2788(2) 0.3096(3) 0.4415(2)
H24 H 0.26140 0.29340 0.45440
C43 C 0.2875(3) 0.2365(3) 0.5371(3)
C44 C 0.3026(3) 0.2249(3) 0.5580(3)
H25 H 0.32130 0.22290 0.55120
C45 C 0.2666(6) 0.2498(7) 0.5462(7)
H26 H 0.26250 0.26520 0.53490
C46 C 0.4900(3) 0.1918(3) 0.3722(3)
C47 C 0.5527(3) 0.2183(3) 0.3877(3)
H27 H 0.54730 0.19690 0.39610
C48 C 0.5274(2) 0.2227(3) 0.3723(2)
C49 C 0.5375(3) 0.2535(3) 0.3567(3)
H28 H 0.52160 0.25620 0.34460
C50 C 0.5711(3) 0.2803(2) 0.3591(3)
H29 H 0.57730 0.30120 0.34930
C51 C 0.5957(2) 0.2767(2) 0.3757(2)
C52 C 0.5865(2) 0.2467(3) 0.3903(3)
H30 H 0.60270 0.24460 0.40230
C53 C 0.2553(3) 0.2102(4) 0.6329(2)
C54 C 0.2669(4) 0.2206(6) 0.5998(2)
C55 C 0.2919(4) 0.2167(6) 0.5866(3)
H31 H 0.30240 0.20750 0.59910
C56 C 0.2515(4) 0.2337(6) 0.5788(4)
H32 H 0.23100 0.23250 0.58500
C57 C 0.6351(4) 0.1595(3) 0.0160(3)
C58 C 0.6232(2) 0.2036(3) -0.0057(2)
H33 H 0.60550 0.18640 -0.01770
C59 C 0.6294(3) 0.2373(3) -0.0069(3)
H34 H 0.61580 0.24270 -0.01970
C60 C 0.6560(3) 0.2629(2) 0.0110(3)
C61 C 0.6763(3) 0.2549(3) 0.0301(3)
H35 H 0.69410 0.27210 0.04210
C62 C 0.6701(3) 0.2212(3) 0.0313(2)
H36 H 0.68370 0.21590 0.04410
C63 C 0.6436(3) 0.1956(2) 0.0134(3)
C64 C 0.6624(3) 0.2988(2) 0.0095(4)
C65 C 0.6944(3) 0.3285(3) 0.0128(4)
H37 H 0.71310 0.32570 0.01770
C66 C 0.65881(19) 0.29935(19) 0.3766(2)
H38 H 0.65420 0.27660 0.37690
C67 C 0.2933(4) 0.3843(5) 0.3896(3)
C68 C 0.6338(2) 0.3061(2) 0.3763(2)
C69 C 0.2520(3) -0.0191(4) 0.0687(2)
C70 C 0.2854(2) -0.0027(3) 0.0870(2)
C71 C 0.3088(2) -0.0143(3) 0.0826(2)
H39 H 0.30370 -0.03250 0.06880
C72 C 0.2921(3) 0.0231(4) 0.1072(3)
H40 H 0.27680 0.03130 0.10940
O17? O 0.3065(9) 0.4142(9) 0.4009(9)
C73? C 0.2581(4) 0.2368(6) 0.5474(5)
H41? H 0.24360 0.23920 0.53310
C74? C 0.6919(7) 0.3251(9) -0.0049(10)
H42? H 0.70470 0.32170 -0.02040
Ru1 Ru 0.42004(7) 0.12355(9) 0.01962(6)
N1 N 0.4236(6) 0.1258(7) 0.06696(9)
C75 C 0.3968(5) 0.1204(7) 0.0873(4)
H43 H 0.37460 0.11140 0.07940
C76 C 0.4034(5) 0.1284(7) 0.1193(3)
H44 H 0.38550 0.12480 0.13290
C77 C 0.4368(6) 0.1417(7) 0.1310(2)
H45 H 0.44120 0.14700 0.15250
C78 C 0.4635(5) 0.1471(6) 0.1107(4)
H46 H 0.48580 0.15600 0.11860
C79 C 0.4569(5) 0.1391(6) 0.0787(4)
N2 N 0.4717(5) 0.1386(5) 0.0260(5)
C80 C 0.4831(6) 0.1453(6) 0.0573(4)
C81 C 0.5165(6) 0.1530(7) 0.0647(5)
H47 H 0.52410 0.15750 0.08560
C82 C 0.5385(5) 0.1541(8) 0.0409(7)
H48 H 0.56090 0.15920 0.04590
C83 C 0.5271(7) 0.1474(9) 0.0097(6)
H49 H 0.54180 0.14810 -0.00630
C84 C 0.4937(7) 0.1396(8) 0.0022(4)
H50 H 0.48610 0.13510 -0.01870
N3 N 0.4221(9) 0.1347(7) -0.0295(6)
C85 C 0.4168(10) 0.1110(6) -0.0532(9)
H51 H 0.41310 0.08920 -0.04800
C86 C 0.4171(9) 0.1199(9) -0.0849(8)
H52 H 0.41350 0.10400 -0.10080
C87 C 0.4227(10) 0.1525(10) -0.0928(5)
H53 H 0.42290 0.15840 -0.11390
C88 C 0.4280(9) 0.1762(7) -0.0690(6)
H54 H 0.43180 0.19800 -0.07430
C89 C 0.4278(6) 0.1673(6) -0.0374(5)
N4 N 0.4290(7) 0.1721(3) 0.0175(7)
C90 C 0.4320(8) 0.1865(6) -0.0124(6)
C91 C 0.4373(8) 0.2197(6) -0.0153(6)
H55 H 0.43930 0.22940 -0.03530
C92 C 0.4395(8) 0.2386(3) 0.0117(8)
H56 H 0.44300 0.26080 0.00980
C93 C 0.4364(9) 0.2241(6) 0.0416(6)
H57 H 0.43790 0.23680 0.05970
C94 C 0.4312(8) 0.1909(6) 0.0445(6)
H58 H 0.42910 0.18130 0.06450
N5 N 0.3668(3) 0.1014(4) 0.0206(4)
C95 C 0.3488(5) 0.1193(4) 0.0214(5)
H59 H 0.36060 0.14300 0.02490
C96 C 0.3133(5) 0.1018(5) 0.0169(5)
H60 H 0.30120 0.11370 0.01740
C97 C 0.2957(3) 0.0663(5) 0.0116(5)
H61 H 0.27190 0.05460 0.00860
C98 C 0.3137(5) 0.0484(4) 0.0108(5)
H62 H 0.30190 0.02470 0.00730
C99 C 0.3492(5) 0.0660(4) 0.0153(5)
N6 N 0.4024(5) 0.0710(4) 0.0183(5)
C100 C 0.3670(5) 0.0486(5) 0.0157(5)
C101 C 0.3542(4) 0.0133(5) 0.0124(6)
H63 H 0.33060 -0.00170 0.01060
C102 C 0.3768(7) 0.0004(4) 0.0118(6)
H64 H 0.36820 -0.02320 0.00970
C103 C 0.4121(6) 0.0228(6) 0.0145(6)
H65 H 0.42730 0.01420 0.01410
C104 C 0.4249(4) 0.0581(6) 0.0178(6)
H66 H 0.44860 0.07310 0.01950
O18 O 0.5324(3) 0.2138(3) 0.1722(2)
O19 O 0.4231(2) 0.2323(2) 0.8341(3)
O20 O 0.4576(4) 0.2621(4) 0.3245(4)
O21 O 0.6878(4) 0.1317(4) 0.0145(3)
O22 O 0.3234(5) 0.1451(4) 0.5408(5)
O9A O 0.83366(17) 0.31546(17) 0.38744(17)
O10A O 0.80554(19) 0.27350(17) 0.35436(19)
C46A C 0.8082(3) 0.2982(3) 0.3722(3)
C47A C 0.7817(3) 0.3344(3) 0.3877(3)
H27A H 0.80310 0.35040 0.39610
C48A C 0.7773(2) 0.3047(3) 0.3723(2)
C49A C 0.7465(3) 0.2840(3) 0.3567(3)
H28A H 0.74380 0.26540 0.34460
C50A C 0.7197(3) 0.2908(2) 0.3591(3)
H29A H 0.69880 0.27610 0.34930
C51A C 0.7233(2) 0.3190(2) 0.3757(2)
C52A C 0.7533(2) 0.3398(3) 0.3903(3)
H30A H 0.75540 0.35810 0.40230
C66A C 0.70065(19) 0.35946(19) 0.3766(2)
H38A H 0.72340 0.37760 0.37690
C68A C 0.6939(2) 0.3277(2) 0.3763(2)
O9B O 0.68454(17) 0.51820(17) 0.38744(17)
O10B O 0.72650(19) 0.53204(17) 0.35436(19)
C46B C 0.7018(3) 0.5100(3) 0.3722(3)
C47B C 0.6656(3) 0.4473(3) 0.3877(3)
H27B H 0.64960 0.45270 0.39610
C48B C 0.6953(2) 0.4726(3) 0.3723(2)
C49B C 0.7160(3) 0.4625(3) 0.3567(3)
H28B H 0.73460 0.47840 0.34460
C50B C 0.7092(3) 0.4289(2) 0.3591(3)
H29B H 0.72390 0.42270 0.34930
C51B C 0.6810(2) 0.4043(2) 0.3757(2)
C52B C 0.6602(2) 0.4135(3) 0.3903(3)
H30B H 0.64190 0.39730 0.40230
C66B C 0.64054(19) 0.34119(19) 0.3766(2)
H38B H 0.62240 0.34580 0.37690
C68B C 0.6723(2) 0.3662(2) 0.3763(2)
O13A O 0.8621(3) 0.4711(2) 0.0027(2)
O14A O 0.8495(3) 0.5037(2) 0.0305(2)
C57A C 0.8405(4) 0.4756(3) 0.0160(3)
C58A C 0.7964(2) 0.4196(3) -0.0057(2)
H33A H 0.81360 0.41910 -0.01770
C59A C 0.7627(3) 0.3921(3) -0.0069(3)
H34A H 0.75730 0.37310 -0.01970
C60A C 0.7371(3) 0.3931(2) 0.0110(3)
C61A C 0.7451(3) 0.4214(3) 0.0301(3)
H35A H 0.72790 0.42200 0.04210
C62A C 0.7788(3) 0.4489(3) 0.0313(2)
H36A H 0.78410 0.46780 0.04410
C63A C 0.8044(3) 0.4480(2) 0.0134(3)
C64A C 0.7012(3) 0.3636(2) 0.0095(4)
C65A C 0.6715(3) 0.3659(3) 0.0128(4)
H37A H 0.67430 0.38740 0.01770
O13B O 0.5289(3) 0.3910(2) 0.0027(2)
O14B O 0.4963(3) 0.3458(2) 0.0305(2)
C57B C 0.5244(4) 0.3649(3) 0.0160(3)
C58B C 0.5804(2) 0.3768(3) -0.0057(2)
H33B H 0.58090 0.39450 -0.01770
C59B C 0.6079(3) 0.3706(3) -0.0069(3)
H34B H 0.62690 0.38420 -0.01970
C60B C 0.6069(3) 0.3440(2) 0.0110(3)
C61B C 0.5786(3) 0.3237(3) 0.0301(3)
H35B H 0.57800 0.30590 0.04210
C62B C 0.5511(3) 0.3299(3) 0.0313(2)
H36B H 0.53220 0.31630 0.04410
C63B C 0.5520(3) 0.3564(2) 0.0134(3)
C64B C 0.6364(3) 0.3376(2) 0.0095(4)
C65B C 0.6341(3) 0.3056(3) 0.0128(4)
H37B H 0.61260 0.28690 0.01770
In1A In 0.85954(2) 0.28705(2) 0.37158(2)
In2A In 0.90534(2) 0.51915(2) 0.02581(2)
O1A O 0.88503(20) 0.32713(18) 0.33221(17)
O2A O 0.86720(19) 0.27563(20) 0.32186(15)
O3A O 0.8943(2) 0.4875(3) 0.0742(2)
O4A O 0.9233(2) 0.4824(3) 0.0354(3)
O5A O 0.8371(2) 0.2290(2) 0.37179(19)
O6A O 0.8366(2) 0.2525(2) 0.4165(2)
O7A O 1.04306(19) 0.28842(26) 0.04929(18)
O8A O 1.00847(16) 0.24052(25) 0.07251(17)
O11A O 0.8018(2) 0.0716(3) 0.64963(19)
O12A O 0.7842(2) 0.0171(3) 0.6448(2)
O15A O 0.5875(4) -0.0952(4) 0.3825(3)
O16A O 0.6250(4) -0.1116(3) 0.3829(3)
C1A C 0.8821(3) 0.3055(3) 0.3118(3)
C2A C 0.8929(3) 0.3155(3) 0.2789(2)
C3A C 0.9052(3) 0.3483(3) 0.2689(2)
H1A H 0.90600 0.36440 0.28330
C4A C 0.9166(3) 0.3591(3) 0.2379(2)
H2A H 0.92480 0.38180 0.23170
C5A C 0.9152(2) 0.3346(3) 0.2166(2)
C6A C 0.9027(3) 0.3007(3) 0.2263(2)
H3A H 0.90120 0.28390 0.21230
C7A C 0.8917(3) 0.2922(3) 0.2599(3)
H4A H 0.88400 0.27010 0.26730
C8A C 0.9271(2) 0.3436(3) 0.1828(2)
C9A C 0.9215(3) 0.3683(3) 0.1661(2)
H5A H 0.91060 0.37880 0.17610
C10A C 0.9325(3) 0.3763(3) 0.1350(2)
C11A C 0.9486(3) 0.3609(3) 0.1211(2)
H6A H 0.95640 0.36690 0.10030
C12A C 0.9542(3) 0.3367(3) 0.1367(2)
C13A C 0.9443(3) 0.3285(3) 0.1669(2)
H7A H 0.94870 0.31280 0.17750
C14A C 0.9718(2) 0.3211(2) 0.1204(2)
C15A C 0.9984(3) 0.3379(2) 0.0986(2)
H8A H 1.00610 0.36120 0.09480
C16A C 0.9618(3) 0.2867(3) 0.1260(3)
H9A H 0.94560 0.27450 0.14170
C17A C 0.92610(17) 0.40281(20) 0.11712(17)
C18A C 0.94110(17) 0.41385(20) 0.08739(18)
H10A H 0.95430 0.40510 0.07870
C19A C 0.9363(2) 0.4379(2) 0.07059(15)
H11A H 0.94630 0.44520 0.05070
C20A C 0.91650(18) 0.45086(20) 0.08352(19)
C21A C 0.90150(16) 0.43982(20) 0.11324(19)
H12A H 0.88830 0.44860 0.12190
C22A C 0.9063(2) 0.4158(2) 0.13005(15)
H13A H 0.89630 0.40850 0.14990
C23A C 0.9109(3) 0.4753(3) 0.0642(3)
C24A C 0.8291(3) 0.2251(3) 0.4003(3)
C25A C 0.8114(2) 0.1921(2) 0.4156(2)
C26A C 0.8050(3) 0.1874(2) 0.4480(2)
H14A H 0.81170 0.20660 0.46090
C27A C 0.7891(3) 0.1555(3) 0.4613(2)
H15A H 0.78470 0.15330 0.48300
C28A C 0.7793(3) 0.1263(3) 0.4434(3)
C29A C 0.7848(3) 0.1304(3) 0.4120(2)
H16A H 0.77700 0.11110 0.39900
C30A C 0.8026(3) 0.1643(3) 0.3985(3)
H17A H 0.80810 0.16680 0.37700
C31A C 0.75282(19) 0.05404(18) 0.50316(12)
C32A C 0.72683(19) 0.02602(18) 0.48695(15)
H18A H 0.71530 0.00440 0.49660
C33A C 0.71806(19) 0.03022(16) 0.45630(15)
C34A C 0.73530(19) 0.06247(18) 0.44186(12)
H19A H 0.72940 0.06530 0.42130
C35A C 0.76129(18) 0.09049(18) 0.45807(14)
C36A C 0.77006(19) 0.08629(16) 0.48872(14)
H20A H 0.78740 0.10500 0.49960
C37A C 0.6906(3) 0.0003(2) 0.4382(2)
C38A C 0.6663(2) 0.0019(3) 0.4188(2)
H21A H 0.66640 0.02270 0.41660
C39A C 0.6420(3) -0.0272(2) 0.4028(2)
H22A H 0.62570 -0.02610 0.38980
C40A C 0.6418(3) -0.0583(3) 0.4060(3)
C41A C 0.6661(3) -0.0600(3) 0.4254(3)
H23A H 0.66600 -0.08070 0.42760
C42A C 0.6904(2) -0.0308(3) 0.4415(2)
H24A H 0.70660 -0.03200 0.45440
C43A C 0.7635(3) 0.0510(3) 0.5371(3)
C44A C 0.7751(3) 0.0777(3) 0.5580(3)
H25A H 0.77710 0.09840 0.55120
C45A C 0.7502(6) 0.0168(7) 0.5462(7)
H26A H 0.73480 -0.00270 0.53490
C53A C 0.7898(3) 0.0451(4) 0.6329(2)
C54A C 0.7794(4) 0.0463(6) 0.5998(2)
C55A C 0.7833(4) 0.0752(6) 0.5866(3)
H31A H 0.79250 0.09490 0.59910
C56A C 0.7663(4) 0.0178(6) 0.5788(4)
H32A H 0.76750 -0.00150 0.58500
C67A C 0.6157(4) -0.0910(5) 0.3896(3)
C69A C 1.0191(3) 0.2711(4) 0.0687(2)
C70A C 1.0027(2) 0.2881(3) 0.0870(2)
C71A C 1.0143(2) 0.3231(3) 0.0826(2)
H39A H 1.03250 0.33620 0.06880
C72A C 0.9769(3) 0.2690(4) 0.1072(3)
H40A H 0.96870 0.24550 0.10940
In1B In 0.71295(2) 0.57249(2) 0.37158(2)
In2B In 0.48085(2) 0.38619(2) 0.02581(2)
O1B O 0.67287(20) 0.55790(18) 0.33221(17)
O2B O 0.72437(19) 0.59157(20) 0.32186(15)
O3B O 0.5125(2) 0.4068(3) 0.0742(2)
O4B O 0.5176(2) 0.4409(3) 0.0354(3)
O5B O 0.7710(2) 0.6081(2) 0.37179(19)
O6B O 0.7475(2) 0.5841(2) 0.4165(2)
O7B O 0.71158(19) 0.75464(26) 0.04929(18)
O8B O 0.75948(16) 0.76795(25) 0.07251(17)
O11B O 0.9284(2) 0.7302(3) 0.64963(19)
O12B O 0.9829(2) 0.7671(3) 0.6448(2)
O15B O 1.0952(4) 0.6827(4) 0.3825(3)
O16B O 1.1116(4) 0.7366(3) 0.3829(3)
C1B C 0.6945(3) 0.5766(3) 0.3118(3)
C2B C 0.6845(3) 0.5774(3) 0.2789(2)
C3B C 0.6517(3) 0.5569(3) 0.2689(2)
H1B H 0.63560 0.54160 0.28330
C4B C 0.6409(3) 0.5575(3) 0.2379(2)
H2B H 0.61820 0.54300 0.23170
C5B C 0.6654(2) 0.5806(3) 0.2166(2)
C6B C 0.6993(3) 0.6020(3) 0.2263(2)
H3B H 0.71610 0.61730 0.21230
C7B C 0.7078(3) 0.5995(3) 0.2599(3)
H4B H 0.72990 0.61390 0.26730
C8B C 0.6564(2) 0.5835(3) 0.1828(2)
C9B C 0.6317(3) 0.5532(3) 0.1661(2)
H5B H 0.62120 0.53180 0.17610
C10B C 0.6237(3) 0.5562(3) 0.1350(2)
C11B C 0.6391(3) 0.5877(3) 0.1211(2)
H6B H 0.63310 0.58950 0.10030
C12B C 0.6633(3) 0.6175(3) 0.1367(2)
C13B C 0.6715(3) 0.6158(3) 0.1669(2)
H7B H 0.68720 0.63590 0.17750
C14B C 0.6789(2) 0.6507(2) 0.1204(2)
C15B C 0.6621(3) 0.6605(2) 0.0986(2)
H8B H 0.63880 0.64490 0.09480
C16B C 0.7133(3) 0.6751(3) 0.1260(3)
H9B H 0.72550 0.67110 0.14170
C17B C 0.59719(17) 0.52329(20) 0.11712(17)
C18B C 0.58615(17) 0.52725(20) 0.08739(18)
H10B H 0.59490 0.54920 0.07870
C19B C 0.5621(2) 0.4984(2) 0.07059(15)
H11B H 0.55480 0.50110 0.05070
C20B C 0.54914(18) 0.46564(20) 0.08352(19)
C21B C 0.56018(16) 0.46168(20) 0.11324(19)
H12B H 0.55140 0.43970 0.12190
C22B C 0.5842(2) 0.4905(2) 0.13005(15)
H13B H 0.59150 0.48780 0.14990
C23B C 0.5247(3) 0.4356(3) 0.0642(3)
C24B C 0.7749(3) 0.6040(3) 0.4003(3)
C25B C 0.8079(2) 0.6193(2) 0.4156(2)
C26B C 0.8126(3) 0.6176(2) 0.4480(2)
H14B H 0.79340 0.60510 0.46090
C27B C 0.8445(3) 0.6336(3) 0.4613(2)
H15B H 0.84670 0.63140 0.48300
C28B C 0.8737(3) 0.6530(3) 0.4434(3)
C29B C 0.8696(3) 0.6544(3) 0.4120(2)
H16B H 0.88890 0.66590 0.39900
C30B C 0.8357(3) 0.6383(3) 0.3985(3)
H17B H 0.83320 0.64130 0.37700
C31B C 0.94596(19) 0.69878(18) 0.50316(12)
C32B C 0.97398(19) 0.70081(18) 0.48695(15)
H18B H 0.99560 0.71090 0.49660
C33B C 0.96978(19) 0.68784(16) 0.45630(15)
C34B C 0.93753(19) 0.67283(18) 0.44186(12)
H19B H 0.93470 0.66410 0.42130
C35B C 0.90951(18) 0.67080(18) 0.45807(14)
C36B C 0.91371(19) 0.68377(16) 0.48872(14)
H20B H 0.89500 0.68240 0.49960
C37B C 0.9997(3) 0.6903(2) 0.4382(2)
C38B C 0.9981(2) 0.6644(3) 0.4188(2)
H21B H 0.97730 0.64370 0.41660
C39B C 1.0272(3) 0.6692(2) 0.4028(2)
H22B H 1.02610 0.65180 0.38980
C40B C 1.0583(3) 0.7001(3) 0.4060(3)
C41B C 1.0600(3) 0.7261(3) 0.4254(3)
H23B H 1.08070 0.74670 0.42760
C42B C 1.0308(2) 0.7212(3) 0.4415(2)
H24B H 1.03200 0.73860 0.45440
C43B C 0.9490(3) 0.7125(3) 0.5371(3)
C44B C 0.9223(3) 0.6974(3) 0.5580(3)
H25B H 0.90160 0.67870 0.55120
C45B C 0.9832(6) 0.7334(7) 0.5462(7)
H26B H 1.00270 0.73750 0.53490
C53B C 0.9549(3) 0.7447(4) 0.6329(2)
C54B C 0.9537(4) 0.7331(6) 0.5998(2)
C55B C 0.9248(4) 0.7081(6) 0.5866(3)
H31B H 0.90510 0.69760 0.59910
C56B C 0.9822(4) 0.7485(6) 0.5788(4)
H32B H 1.00150 0.76900 0.58500
C67B C 1.0910(4) 0.7067(5) 0.3896(3)
C69B C 0.7289(3) 0.7480(4) 0.0687(2)
C70B C 0.7119(2) 0.7146(3) 0.0870(2)
C71B C 0.6769(2) 0.6912(3) 0.0826(2)
H39B H 0.66380 0.69630 0.06880
C72B C 0.7310(3) 0.7079(4) 0.1072(3)
H40B H 0.75450 0.72320 0.10940
In1F In 0.760843(20) 0.807127(20) 0.038247(20)
In1G In 0.192873(20) -0.046283(20) 0.038247(20)
In1H In 1.046283(20) 0.239157(20) 0.038247(20)
In2C In 0.280477(20) 0.427993(20) 0.359143(20)
In2D In 0.572007(20) -0.147517(20) 0.359143(20)
In2E In 1.147517(20) 0.719523(20) 0.359143(20)
In2F In 0.947143(20) 0.761327(20) 0.692477(20)
In2G In 0.238673(20) 0.185817(20) 0.692477(20)
In2H In 0.814183(20) 0.052857(20) 0.692477(20)
O7C O 0.912027(190) 0.290273(260) 0.382623(180)
O7D O 0.709727(190) 0.621753(260) 0.382623(180)
O7E O 0.378247(190) 0.087973(260) 0.382623(180)
O8C O 0.898717(160) 0.324863(250) 0.405843(170)
O8D O 0.675137(160) 0.573853(250) 0.405843(170)
O8E O 0.426147(160) 0.101283(250) 0.405843(170)
O11C O 0.936467(200) 0.531533(300) -0.017037(190)
O11D O 0.468467(200) 0.404933(300) -0.017037(190)
O11E O 0.595067(200) 0.063533(300) -0.017037(190)
O12C O 0.899567(200) 0.549133(300) -0.021867(200)
O12D O 0.450867(200) 0.350433(300) -0.021867(200)
O12E O 0.649567(200) 0.100433(300) -0.021867(200)
O15F O 0.650633(400) 0.079167(400) 0.049167(300)
O15G O 0.920833(400) 0.571467(400) 0.049167(300)
O15H O 0.428533(400) 0.349367(400) 0.049167(300)
O16F O 0.596733(400) 0.041667(300) 0.049567(300)
O16G O 0.958333(400) 0.555067(300) 0.049567(300)
O16H O 0.444933(400) 0.403267(300) 0.049567(300)
#END
