
#######################################################################
#
#                 Cambridge Crystallographic Data Centre
#                                CCDC
#
#######################################################################
#
# If this CIF has been generated from an entry in the Cambridge
# Structural Database, then it will include bibliographic, chemical,
# crystal, experimental, refinement or atomic coordinate data resulting
# from the CCDC's data processing and validation procedures.
#
#######################################################################

data_CSD_CIF_KABPOW
_audit_creation_date 2020-11-04
_audit_creation_method CSD-ConQuest-V1
_database_code_CSD KABPOW
_database_code_depnum_ccdc_archive 'CCDC 1869865'
_chemical_formula_sum 'C256.8 H192 In6 N8.4 O48 Ru0.6'
_chemical_formula_moiety
;
(C216 H120 In6 O48 6-)n,0.6(C36 H24 N6 Ru1 2+),4.8(C4 H12 N1 1+)
;
_journal_coden_Cambridge 1220
_journal_volume 26
_journal_year 2020
_journal_page_first 14580
_journal_name_full 'Chem.-Eur.J. '
loop_
_publ_author_name
"In-Hwan Choi"
"Sukbin Yoon"
"Seong Huh"
"Sung-Jin Kim"
"Youngmee Kim"
_chemical_name_systematic
;
catena-[(diethylammonium) tris(1,10-phenanthroline)-ruthenium(ii) 
octakis(\m-4,4',4''-(benzene-1,3,5-triyl)tribenzoato)-hexa-indium(iii)]
;
_cell_volume  73000.370
_exptl_crystal_colour 'orange'
_exptl_special_details
;
The geometries of some aromatic rings (benzene and 1,10-phenanthroline) are 
not ideal
;
_exptl_crystal_description 'block'
_diffrn_ambient_temperature 296
_refine_special_details
;
C15 and C15* disordered over two sites with occupancies 0.5:0.5; 
C23,C24,C25,C26 and C23*,C24*,C25*,C26* disordered over two sites with 
occupancies 0.61:0.39; C33 and C33* disordered over two sites with 
occupancies 0.5:0.5; C41 and C41* disordered over two sites with occupancies 
0.5:0.5; C62,C66,C67 and C62*,C66*,C67* disordered over two sites with 
occupancies 0.5:0.5; C65 and C65* disordered over two sites with occupancies 
0.5:0.5; C70*,C71* and C70,C71 disordered over two sites with occupancies 
0.55:0.45; Disordered cations molecules (diethylammonium) were not modelled 
and the disordered density was taken into account using the SQUEEZE/PLATON 
procedure.
;
#These two values have been output from a single CSD field.
_refine_ls_R_factor_gt 0.1286
_refine_ls_wR_factor_gt 0.1286
_symmetry_cell_setting rhombohedral
_symmetry_space_group_name_H-M 'R -3'
_symmetry_Int_Tables_number 148
loop_
_symmetry_equiv_pos_site_id
_symmetry_equiv_pos_as_xyz
1 x,y,z
2 -y,x-y,z
3 -x+y,-x,z
4 2/3+x,1/3+y,1/3+z
5 2/3-y,1/3+x-y,1/3+z
6 2/3-x+y,1/3-x,1/3+z
7 1/3+x,2/3+y,2/3+z
8 1/3-y,2/3+x-y,2/3+z
9 1/3-x+y,2/3-x,2/3+z
10 -x,-y,-z
11 y,-x+y,-z
12 x-y,x,-z
13 -2/3-x,-1/3-y,-1/3-z
14 -2/3+y,-1/3-x+y,-1/3-z
15 -2/3+x-y,-1/3+x,-1/3-z
16 -1/3-x,-2/3-y,-2/3-z
17 -1/3+y,-2/3-x+y,-2/3-z
18 -1/3+x-y,-2/3+x,-2/3-z
_cell_length_a 44.8647(7)
_cell_length_b 44.8647(7)
_cell_length_c 41.8779(8)
_cell_angle_alpha 90
_cell_angle_beta 90
_cell_angle_gamma 120
_cell_formula_units_Z 6
loop_
_atom_type_symbol
_atom_type_radius_bond
C 0.68
H 0.23
In 1.42
N 0.68
O 0.68
Ru 1.46
loop_
_atom_site_label
_atom_site_type_symbol
_atom_site_fract_x
_atom_site_fract_y
_atom_site_fract_z
In1 In 0.42765(2) 0.14176(2) 0.37162(2)
O1 O 0.41616(15) 0.16499(15) 0.41771(15)
O2 O 0.39380(16) 0.16526(15) 0.37144(14)
O3 O 0.37851(16) 0.09069(14) 0.38373(15)
O4 O 0.42781(16) 0.10233(14) 0.40519(14)
O5 O 0.48217(15) 0.16726(14) 0.38760(15)
O6 O 0.46969(15) 0.19647(14) 0.35455(16)
O7 O 0.44423(16) 0.11690(27) 0.33235(14)
O8 O 0.40754(18) 0.13409(30) 0.32094(13)
C1 C 0.3976(2) 0.17218(18) 0.4010(2)
C2 C 0.3977(3) 0.0830(2) 0.4015(2)
C3 C 0.4916(2) 0.1945(2) 0.3719(2)
C4 C 0.3798(2) 0.1897(2) 0.4155(2)
C5 C 0.37847(13) 0.04877(11) 0.41979(14)
C6 C 0.52840(18) 0.22383(18) 0.3729(2)
C7 C 0.3808(2) 0.1962(2) 0.4487(2)
C8 C 0.3602(2) 0.1988(2) 0.3969(2)
C9 C 0.34386(13) 0.02520(13) 0.41471(12)
C10 C 0.39752(11) 0.04102(14) 0.44092(18)
C11 C 0.5522(2) 0.2200(2) 0.3886(2)
C12 C 0.53765(18) 0.2538(2) 0.3559(2)
H1 H 0.39280 0.18910 0.46180
C13 C 0.3657(2) 0.2115(2) 0.46159(18)
C14 C 0.3447(2) 0.2148(2) 0.40990(18)
H2 H 0.35770 0.19380 0.37520
H3 H 0.33110 0.03040 0.40060
C15 C 0.32831(11) -0.00611(12) 0.43076(14)
C16 C 0.38197(14) 0.00970(15) 0.45697(16)
H4 H 0.42070 0.05680 0.44430
H5 H 0.54630 0.19910 0.39810
C17 C 0.5856(2) 0.2474(2) 0.3908(2)
C18 C 0.57194(18) 0.28150(17) 0.3574(2)
H6 H 0.52140 0.25560 0.34350
H7 H 0.36760 0.21590 0.48340
C19 C 0.3469(2) 0.2211(2) 0.4427(2)
H8 H 0.33240 0.22180 0.39700
H9 H 0.30520 -0.02190 0.42740
C20 C 0.34736(14) -0.01386(11) 0.45189(13)
H10 H 0.39470 0.00450 0.47110
H11 H 0.60140 0.24480 0.40310
C21 C 0.59635(17) 0.27807(17) 0.37549(19)
H12 H 0.57820 0.30190 0.34650
C22 C 0.32803(16) 0.23908(14) 0.45732(11)
C23 C 0.3300(2) -0.04810(19) 0.46864(19)
C24 C 0.63354(17) 0.30723(17) 0.3759(2)
C25 C 0.32623(15) 0.26529(14) 0.44135(9)
C26 C 0.31523(16) 0.23019(13) 0.48820(11)
C27 C 0.3063(2) -0.0774(2) 0.4529(2)
C28 C 0.3395(2) -0.05139(19) 0.49970(19)
C29 C 0.65937(19) 0.30025(17) 0.37694(18)
H13 H 0.33480 0.27120 0.42070
C30 C 0.31164(16) 0.28263(13) 0.45625(12)
C31 C 0.30064(17) 0.24753(15) 0.50311(9)
H14 H 0.31640 0.21270 0.49890
H15 H 0.30060 -0.07550 0.43200
C32 C 0.2903(2) -0.11049(19) 0.46754(18)
C33 C 0.3243(2) -0.0820(2) 0.5160(2)
H16 H 0.35680 -0.03190 0.50970
H17 H 0.65450 0.27760 0.37830
C34 C 0.29884(17) 0.27374(15) 0.48713(12)
C35 C 0.3087(2) 0.31011(15) 0.43935(17)
C36 C 0.28804(17) 0.23865(17) 0.5374(1)
C37 C 0.29936(19) -0.11107(19) 0.49868(19)
C38 C 0.2652(2) -0.14125(18) 0.44979(15)
C39 C 0.3333(2) -0.08466(18) 0.54936(19)
H18 H 0.28910 0.28530 0.49710
C40 C 0.33696(18) 0.33571(18) 0.42308(18)
C41 C 0.2787(2) 0.3117(3) 0.4418(3)
C42 C 0.30492(14) 0.22765(17) 0.55797(14)
C43 C 0.25972(18) 0.24059(19) 0.54809(13)
H19 H 0.28840 -0.13210 0.50930
C44 C 0.2510(3) -0.1373(3) 0.4217(2)
C45 C 0.2500(2) -0.1732(2) 0.4632(2)
C46 C 0.3091(2) -0.10669(19) 0.57066(19)
C47 C 0.3662(3) -0.0656(2) 0.5591(2)
H20 H 0.35710 0.33460 0.42140
C48 C 0.3351(3) 0.3629(2) 0.4092(3)
C49 C 0.2768(3) 0.3389(4) 0.4280(4)
H21 H 0.25980 0.29460 0.45270
C50 C 0.29347(18) 0.21858(17) 0.58921(13)
H22 H 0.32390 0.22640 0.55080
C51 C 0.24828(17) 0.23152(18) 0.57933(15)
H23 H 0.24840 0.24790 0.53430
H24 H 0.25860 -0.11530 0.41380
C52 C 0.2235(6) -0.1678(8) 0.4038(4)
H25 H 0.25880 -0.17750 0.48160
C53 C 0.2300(4) -0.2037(6) 0.4443(3)
H26 H 0.28620 -0.11940 0.56430
C54 C 0.3180(3) -0.1106(2) 0.6019(2)
H27 H 0.38300 -0.05110 0.54470
C55 C 0.3755(4) -0.0675(2) 0.59142(19)
H28 H 0.35400 0.38000 0.39840
C56 C 0.3050(4) 0.3645(3) 0.4117(4)
H29 H 0.25670 0.34000 0.42960
C57 C 0.26516(19) 0.22051(16) 0.59989(10)
H30 H 0.30480 0.21120 0.60300
H31 H 0.22930 0.23280 0.58650
C58 C 0.21677(19) -0.19959(28) 0.41569(16)
H32 H 0.21200 -0.16570 0.38630
H33 H 0.22620 -0.22510 0.45090
C59 C 0.3507(3) -0.0902(2) 0.61255(14)
H34 H 0.30150 -0.12720 0.61540
H35 H 0.39810 -0.05360 0.59820
C60 C 0.2915(4) 0.3836(2) 0.3908(3)
C61 C 0.2547(2) 0.2105(3) 0.63350(12)
C62 C 0.1930(2) -0.2293(4) 0.3960(2)
C63 C 0.3620(3) -0.0916(2) 0.64554(14)
O9 O 0.26193(28) 0.3760(2) 0.3820(2)
O10 O 0.31655(26) 0.41270(19) 0.38499(16)
O11 O 0.23144(19) 0.21473(17) 0.64525(16)
O12 O 0.26812(17) 0.19662(18) 0.64928(17)
O13 O 0.18566(14) -0.22516(22) 0.36834(15)
O14 O 0.18025(17) -0.25935(24) 0.40775(16)
In2 In 0.28091(3) 0.42910(2) 0.35970(2)
O15 O 0.19540(17) 0.13829(16) 0.66852(18)
O16 O 0.18165(17) 0.16720(17) 0.69949(16)
C64 C 0.1734(3) 0.1416(2) 0.6825(3)
C65 C 0.1367(2) 0.1145(2) 0.6805(2)
C66 C 0.1103(2) 0.1155(2) 0.6968(3)
C67 C 0.1279(2) 0.0855(3) 0.6619(3)
H36 H 0.11510 0.13200 0.71250
C68 C 0.0764(3) 0.0914(3) 0.6894(6)
C69 C 0.09377(19) 0.0594(3) 0.6603(3)
H37 H 0.14480 0.08370 0.65070
H38 H 0.05930 0.09720 0.69220
C70 C 0.06733(19) 0.0588(2) 0.6781(3)
H39 H 0.08830 0.04120 0.64650
C71 C 0.0335(3) 0.0293(3) 0.6872(5)
C72 C 0.0272(6) -0.0044(4) 0.6877(6)
H40 H 0.04630 -0.00730 0.68850
Ru1 Ru 0.37379(10) 0.90854(7) 0.35161(9)
N1 N 0.3712(6) 0.9079(5) 0.4007(3)
C73 C 0.3921(5) 0.9342(3) 0.4216(5)
H41 H 0.40620 0.95640 0.41390
C74 C 0.3920(5) 0.9273(4) 0.4540(4)
H42 H 0.40600 0.94490 0.46800
C75 C 0.3710(6) 0.8942(5) 0.4654(4)
H43 H 0.37090 0.88950 0.48710
C76 C 0.3500(5) 0.8679(4) 0.4445(5)
C77 C 0.3502(5) 0.8748(4) 0.4122(5)
C78 C 0.3179(11) 0.8138(12) 0.4320(6)
H44 H 0.31370 0.79210 0.43810
N2 N 0.3439(5) 0.8537(5) 0.3591(5)
C79 C 0.3333(6) 0.8463(5) 0.3907(4)
C80 C 0.3084(7) 0.8131(6) 0.3994(5)
C81 C 0.2941(8) 0.7873(4) 0.3764(8)
H45 H 0.27740 0.76520 0.38220
C82 C 0.3047(10) 0.7947(7) 0.3448(7)
H46 H 0.29510 0.77750 0.32940
C83 C 0.3296(9) 0.8279(8) 0.3361(4)
H47 H 0.33670 0.83280 0.31500
C84 C 0.3291(7) 0.8324(4) 0.4531(8)
H48 H 0.32480 0.82510 0.47420
N3 N 0.3341(5) 0.9249(6) 0.3479(8)
C85 C 0.2986(6) 0.9040(4) 0.3495(8)
H49 H 0.28890 0.88040 0.35270
C86 C 0.2774(3) 0.9183(6) 0.3465(7)
H50 H 0.25370 0.90430 0.34760
C87 C 0.2919(4) 0.9535(6) 0.3418(7)
H51 H 0.27770 0.96300 0.33980
C88 C 0.3274(5) 0.9744(4) 0.3401(7)
C89 C 0.3485(3) 0.9601(6) 0.3432(7)
C90 C 0.3784(5) 1.0257(6) 0.3342(6)
H52 H 0.38990 1.04820 0.32660
N4 N 0.4058(4) 0.9620(3) 0.3509(5)
C91 C 0.3852(3) 0.9765(4) 0.3455(5)
C92 C 0.4002(4) 1.0120(5) 0.3424(6)
C93 C 0.4357(4) 1.0329(3) 0.3447(5)
H53 H 0.44570 1.05670 0.34270
C94 C 0.4562(3) 1.0183(4) 0.3501(5)
H54 H 0.48000 1.03230 0.35170
C95 C 0.4413(4) 0.9829(4) 0.3532(6)
H55 H 0.45500 0.97310 0.35680
C96 C 0.3429(4) 1.0108(4) 0.3358(9)
H56 H 0.33090 1.02270 0.33420
N5 N 0.3961(6) 0.9109(9) 0.2998(2)
C97 C 0.3736(5) 0.9112(6) 0.2771(5)
H57 H 0.35560 0.91440 0.28340
C98 C 0.3781(6) 0.9065(7) 0.2450(4)
H58 H 0.36300 0.90660 0.22990
C99 C 0.4050(7) 0.9015(9) 0.2356(3)
H59 H 0.40800 0.89840 0.21420
C100 C 0.4275(7) 0.9013(9) 0.2583(5)
C101 C 0.4231(7) 0.906(1) 0.2904(3)
C102 C 0.4723(13) 0.8974(14) 0.2839(5)
H60 H 0.49010 0.89280 0.28060
N6 N 0.4212(5) 0.8990(6) 0.3506(5)
C103 C 0.4334(7) 0.8985(8) 0.3202(4)
C104 C 0.4615(8) 0.8937(9) 0.3166(5)
C105 C 0.4775(7) 0.8896(9) 0.3433(8)
H61 H 0.49630 0.88640 0.34080
C106 C 0.4653(8) 0.8901(9) 0.3736(6)
H62 H 0.47600 0.88740 0.39150
C107 C 0.4371(7) 0.8949(8) 0.3773(4)
H63 H 0.42900 0.89520 0.39760
C108 C 0.4615(7) 0.9063(16) 0.2562(11)
H64 H 0.47520 0.91470 0.23810
C109? C 0.2679(6) 0.2496(5) 0.5530(5)
H65? H 0.26750 0.26900 0.54580
C110? C 0.3251(5) 0.3548(5) 0.4069(5)
H66? H 0.34180 0.37170 0.39380
C111? C 0.2940(4) 0.3545(4) 0.4058(4)
C112? C 0.2656(5) 0.3249(5) 0.4177(5)
H67? H 0.24410 0.32320 0.41850
C113? C 0.2701(7) 0.2980(7) 0.4281(8)
H68? H 0.25250 0.27520 0.42850
C114? C 0.39806(12) 0.0385(4) 0.4374(5)
H69? H 0.42200 0.05090 0.43610
C115? C 0.2648(4) -0.1413(4) 0.41660(16)
H70? H 0.28240 -0.12310 0.40540
C116? C 0.0791(3) 0.0851(3) 0.7006(3)
H71? H 0.06580 0.08230 0.71850
C117? C 0.1241(5) 0.0905(4) 0.6559(4)
H72? H 0.13590 0.09520 0.63660
C118? C 0.0325(2) 0.0290(2) 0.6726(4)
C119? C 0.0262(5) -0.0046(3) 0.6736(5)
H73? H 0.04530 -0.00740 0.67520
C120? C 0.2213(6) -0.1987(9) 0.44857(18)
H74? H 0.20430 -0.21610 0.46100
C121? C 0.2380(4) -0.1687(6) 0.4000(4)
H75? H 0.23440 -0.16640 0.37850
C29B C 0.64088(19) 0.34063(17) 0.37694(18)
C24A C 0.69277(17) 0.32631(17) 0.3759(2)
C24B C 0.67369(17) 0.36646(17) 0.3759(2)
H17B H 0.62310 0.34550 0.37830
C21A C 0.72193(17) 0.31828(17) 0.37549(19)
C29A C 0.69975(19) 0.35912(17) 0.37694(18)
C21B C 0.68172(17) 0.40365(17) 0.37549(19)
C17A C 0.7526(2) 0.3382(2) 0.3908(2)
C18A C 0.71850(18) 0.29044(17) 0.3574(2)
H17A H 0.72240 0.37690 0.37830
C17B C 0.6618(2) 0.4144(2) 0.3908(2)
C18B C 0.70956(18) 0.42806(17) 0.3574(2)
C11A C 0.7800(2) 0.3322(2) 0.3886(2)
H11A H 0.75520 0.35660 0.40310
H12A H 0.69810 0.27630 0.34650
C12A C 0.74620(18) 0.28385(20) 0.3559(2)
C11B C 0.6678(2) 0.4478(2) 0.3886(2)
H11B H 0.64340 0.39860 0.40310
H12B H 0.72370 0.42180 0.34650
C12B C 0.71615(18) 0.46235(20) 0.3559(2)
C6A C 0.77617(18) 0.30457(18) 0.3729(2)
H5A H 0.80090 0.34720 0.39810
H6A H 0.74440 0.26580 0.34350
C6B C 0.69543(18) 0.47160(18) 0.3729(2)
H5B H 0.65280 0.45370 0.39810
H6B H 0.73420 0.47860 0.34350
C3A C 0.8055(2) 0.2971(2) 0.3719(2)
C3B C 0.7029(2) 0.5084(2) 0.3719(2)
O7E O 0.339337(160) -0.110897(270) 0.665683(140)
O8E O 0.393217(180) -0.074207(300) 0.654273(130)
O5A O 0.83274(15) 0.31491(14) 0.38760(15)
O6A O 0.80353(15) 0.27322(14) 0.35455(16)
O5B O 0.68509(15) 0.51783(14) 0.38760(15)
O6B O 0.72678(15) 0.53031(14) 0.35455(16)
In2D In 0.237567(30) 0.185143(20) 0.693033(20)
In2B In 0.14819(3) -0.28091(2) 0.35970(2)
In1E In 0.380777(20) -0.094317(20) 0.704953(20)
In1A In 0.85824(2) 0.28589(2) 0.37162(2)
In1B In 0.71411(2) 0.57235(2) 0.37162(2)
O13A O 0.22516(14) 0.41082(22) 0.36834(15)
O14A O 0.25935(17) 0.43960(24) 0.40775(16)
O13E O 0.255847(140) 0.147673(220) 0.701673(150)
O14E O 0.227067(170) 0.153083(240) 0.741083(160)
O9D O 0.290667(280) 0.219263(200) 0.715333(200)
O10D O 0.253967(260) 0.237183(190) 0.718323(160)
O9B O 0.11407(28) -0.26193(20) 0.3820(2)
O10B O 0.09615(26) -0.31655(19) 0.38499(16)
C62A C 0.2293(2) 0.4223(4) 0.3960(2)
C60B C 0.0921(4) -0.2915(2) 0.3908(3)
C58A C 0.19959(19) 0.41636(28) 0.41569(16)
C56B C 0.0595(4) -0.3050(3) 0.4117(4)
C53A C 0.2037(4) 0.4337(6) 0.4443(3)
C52A C 0.1678(6) 0.3913(8) 0.4038(4)
C48B C 0.0278(3) -0.3351(2) 0.4092(3)
C49B C 0.0621(3) -0.2768(4) 0.4280(4)
C45A C 0.1732(2) 0.4232(2) 0.4632(2)
H33A H 0.22510 0.45130 0.45090
C44A C 0.1373(3) 0.3883(3) 0.4217(2)
H32A H 0.16570 0.37770 0.38630
C40B C -0.00125(18) -0.33696(18) 0.42308(18)
H28B H 0.02600 -0.35400 0.39840
H29B H 0.08330 -0.25670 0.42960
C41B C 0.0330(2) -0.2787(3) 0.4418(3)
C38A C 0.14125(20) 0.40645(18) 0.44979(15)
H25A H 0.17750 0.43630 0.48160
H24A H 0.11530 0.37390 0.41380
C35B C 0.00141(20) -0.30870(15) 0.43935(17)
H20B H -0.02250 -0.35710 0.42140
H21B H 0.03480 -0.25980 0.45270
C32A C 0.11049(20) 0.40079(19) 0.46754(18)
C30B C -0.02901(16) -0.31164(13) 0.45625(12)
C27A C 0.0774(2) 0.3837(2) 0.4529(2)
C37A C 0.11107(19) 0.41043(19) 0.49868(19)
C72A C 0.0044(6) 0.0316(4) 0.6877(6)
C25B C -0.06094(15) -0.32623(14) 0.44135(9)
C34B C -0.02510(17) -0.29884(15) 0.48713(12)
C23A C 0.0481(2) 0.37810(19) 0.46864(19)
H15A H 0.07550 0.37610 0.43200
H19A H 0.13210 0.42050 0.50930
C33A C 0.0820(2) 0.4063(2) 0.5160(2)
C71B C -0.0042(3) -0.0335(3) 0.6872(5)
C71A C -0.0293(3) 0.0042(3) 0.6872(5)
H40A H 0.00730 0.05360 0.68850
C22B C -0.08895(16) -0.32803(14) 0.45732(11)
H13B H -0.06360 -0.33480 0.42070
H18B H -0.00380 -0.28910 0.49710
C31B C -0.05311(17) -0.30064(15) 0.50311(9)
C20A C 0.01386(14) 0.36122(11) 0.45189(13)
C28A C 0.05139(20) 0.39089(19) 0.49970(19)
C39A C 0.08466(20) 0.41796(18) 0.54936(19)
C70B C -0.00853(19) -0.06733(20) 0.6781(3)
C72B C -0.0316(6) -0.0272(4) 0.6877(6)
C70A C -0.05880(19) 0.00853(20) 0.6781(3)
C19B C -0.1258(2) -0.3469(2) 0.4427(2)
C26B C -0.08504(16) -0.31523(13) 0.48820(11)
C36B C -0.04939(17) -0.28804(17) 0.5374(1)
C15A C 0.00611(11) 0.33442(12) 0.43076(14)
C16A C -0.00970(14) 0.37227(15) 0.45697(16)
H16A H 0.03190 0.38870 0.50970
C46A C 0.10669(20) 0.41579(19) 0.57066(19)
C47A C 0.0656(3) 0.4318(2) 0.5591(2)
C68B C 0.0150(3) -0.0764(3) 0.6894(6)
C69B C -0.03437(19) -0.09377(30) 0.6603(3)
H40B H -0.05360 -0.04630 0.68850
C68A C -0.0914(3) -0.0150(3) 0.6894(6)
C69A C -0.05940(19) 0.03437(30) 0.6603(3)
C13B C -0.1542(2) -0.3657(2) 0.46159(18)
C14B C -0.1299(2) -0.3447(2) 0.40990(18)
H14B H -0.10370 -0.31640 0.49890
C42B C -0.07727(14) -0.30492(17) 0.55797(14)
C43B C -0.01913(18) -0.25972(19) 0.54809(13)
C9A C -0.02520(13) 0.31866(13) 0.41471(12)
H9A H 0.02190 0.32710 0.42740
H10A H -0.00450 0.39020 0.47110
C10A C -0.04102(11) 0.35650(14) 0.44092(18)
H26A H 0.11940 0.40560 0.56430
C54A C 0.1106(3) 0.4286(2) 0.6019(2)
H27A H 0.05110 0.43410 0.54470
C55A C 0.0675(4) 0.4430(2) 0.59142(19)
C66B C 0.0052(2) -0.1103(2) 0.6968(3)
H38B H 0.03790 -0.05930 0.69220
H39B H -0.04710 -0.08830 0.64650
C67B C -0.0424(2) -0.1279(3) 0.6619(3)
C66A C -0.1155(2) -0.0052(2) 0.6968(3)
H38A H -0.09720 -0.03790 0.69220
H39A H -0.04120 0.04710 0.64650
C67A C -0.0855(2) 0.0424(3) 0.6619(3)
C7B C -0.1846(2) -0.3808(2) 0.4487(2)
H7B H -0.15170 -0.36760 0.48340
H8B H -0.11060 -0.33240 0.39700
C8B C -0.1614(2) -0.3602(2) 0.3969(2)
C50B C -0.07489(18) -0.29347(17) 0.58921(13)
H22B H -0.09750 -0.32390 0.55080
C51B C -0.01676(17) -0.24828(18) 0.57933(15)
H23B H -0.00050 -0.24840 0.53430
C5A C -0.04877(13) 0.32970(11) 0.41979(14)
H3A H -0.03040 0.30070 0.40060
H4A H -0.05680 0.36390 0.44430
C59A C 0.0902(3) 0.4409(2) 0.61255(14)
H34A H 0.12720 0.42870 0.61540
H35A H 0.05360 0.45170 0.59820
C65B C -0.0222(2) -0.1367(2) 0.6805(2)
H36B H 0.01690 -0.11510 0.71250
H37B H -0.06110 -0.14480 0.65070
C65A C -0.1145(2) 0.0222(2) 0.6805(2)
H36A H -0.13200 -0.01690 0.71250
H37A H -0.08370 0.06110 0.65070
C4B C -0.1901(2) -0.3798(2) 0.4155(2)
H1B H -0.20370 -0.39280 0.46180
H2B H -0.16390 -0.35770 0.37520
C57B C -0.04465(19) -0.26516(16) 0.59989(10)
H30B H -0.09360 -0.30480 0.60300
H31B H 0.00350 -0.22930 0.58650
C2A C -0.0830(3) 0.3147(2) 0.4015(2)
C63A C 0.0916(3) 0.4536(2) 0.64554(14)
C64B C -0.0318(3) -0.1734(2) 0.6825(3)
C64A C -0.1416(3) 0.0318(2) 0.6825(3)
C1B C -0.22542(20) -0.39760(18) 0.4010(2)
C61B C -0.0442(2) -0.2547(3) 0.63350(12)
O3A O -0.09069(16) 0.28782(14) 0.38373(15)
O4A O -0.10233(16) 0.32548(14) 0.40519(14)
O7C O 0.110897(160) 0.450233(270) 0.665683(140)
O8C O 0.074207(180) 0.467423(300) 0.654273(130)
O15B O -0.05711(17) -0.19540(16) 0.66852(18)
O16B O -0.01445(17) -0.18165(17) 0.69949(16)
O15A O -0.13829(17) 0.05711(16) 0.66852(18)
O16A O -0.16720(17) 0.01445(17) 0.69949(16)
O1B O -0.25117(15) -0.41616(15) 0.41771(15)
O2B O -0.22854(16) -0.39380(15) 0.37144(14)
O11B O -0.01671(19) -0.23144(17) 0.64525(16)
O12B O -0.07150(17) -0.26812(18) 0.64928(17)
In1A* In -0.14176(2) 0.28589(2) 0.37162(2)
In1C In 0.094317(20) 0.475093(20) 0.704953(20)
In2C In -0.052423(30) -0.237567(20) 0.693033(20)
In2E In -0.185143(30) 0.052423(20) 0.693033(20)
In1B* In -0.28589(2) -0.42765(2) 0.37162(2)
O1A O -0.16499(15) 0.25117(15) 0.41771(15)
O2A O -0.16526(16) 0.22854(15) 0.37144(14)
O5A* O -0.16726(15) 0.31491(14) 0.38760(15)
O6A* O -0.19647(15) 0.27322(14) 0.35455(16)
O7A O -0.11690(16) 0.32733(27) 0.33235(14)
O8A O -0.13409(18) 0.27345(30) 0.32094(13)
O13D O -0.108173(140) -0.255847(220) 0.701673(150)
O14D O -0.073983(170) -0.227067(240) 0.741083(160)
O9C O -0.071403(280) -0.290667(200) 0.715333(200)
O10C O -0.016783(260) -0.253967(190) 0.718323(160)
O11A O -0.21473(19) 0.01671(17) 0.64525(16)
O12A O -0.19662(17) 0.07150(18) 0.64928(17)
O13C O -0.147673(140) 0.108173(220) 0.701673(150)
O14C O -0.153083(170) 0.073983(240) 0.741083(160)
O9E O -0.219263(280) 0.071403(200) 0.715333(200)
O10E O -0.237183(260) 0.016783(190) 0.718323(160)
O3B O -0.28782(16) -0.37851(14) 0.38373(15)
O4B O -0.32548(16) -0.42781(14) 0.40519(14)
O5B* O -0.31491(15) -0.48217(14) 0.38760(15)
O6B* O -0.27322(15) -0.46969(14) 0.35455(16)
O7B O -0.32733(16) -0.44423(27) 0.33235(14)
O8B O -0.27345(18) -0.40754(30) 0.32094(13)
C1A C -0.17218(20) 0.22542(18) 0.4010(2)
C61A C -0.2105(2) 0.0442(3) 0.63350(12)
C2B C -0.3147(3) -0.3977(2) 0.4015(2)
C4A C -0.1897(2) 0.1901(2) 0.4155(2)
C57A C -0.22051(19) 0.04465(16) 0.59989(10)
C5B C -0.32970(13) -0.37847(11) 0.41979(14)
C7A C -0.1962(2) 0.1846(2) 0.4487(2)
C8A C -0.1988(2) 0.1614(2) 0.3969(2)
C51A C -0.23152(17) 0.01676(18) 0.57933(15)
C50A C -0.21858(18) 0.07489(17) 0.58921(13)
C9B C -0.31866(13) -0.34386(13) 0.41471(12)
C10B C -0.35650(11) -0.39752(14) 0.44092(18)
H1A H -0.18910 0.20370 0.46180
C13A C -0.2115(2) 0.1542(2) 0.46159(18)
C14A C -0.2148(2) 0.1299(2) 0.40990(18)
H2A H -0.19380 0.16390 0.37520
H31A H -0.23280 -0.00350 0.58650
C43A C -0.24059(18) 0.01913(19) 0.54809(13)
H30A H -0.21120 0.09360 0.60300
C42A C -0.22765(14) 0.07727(17) 0.55797(14)
H3B H -0.30070 -0.33110 0.40060
C15B C -0.33442(11) -0.32831(12) 0.43076(14)
C16B C -0.37227(14) -0.38197(15) 0.45697(16)
H4B H -0.36390 -0.42070 0.44430
H7A H -0.21590 0.15170 0.48340
C19A C -0.2211(2) 0.1258(2) 0.4427(2)
H8A H -0.22180 0.11060 0.39700
C36A C -0.23865(17) 0.04939(17) 0.5374(1)
H23A H -0.24790 0.00050 0.53430
H22A H -0.22640 0.09750 0.55080
H9B H -0.32710 -0.30520 0.42740
C20B C -0.36122(14) -0.34736(11) 0.45189(13)
H10B H -0.39020 -0.39470 0.47110
C22A C -0.23908(16) 0.08895(14) 0.45732(11)
C31A C -0.24753(17) 0.05311(15) 0.50311(9)
C23B C -0.3781(2) -0.33000(19) 0.46864(19)
C25A C -0.26529(15) 0.06094(14) 0.44135(9)
C26A C -0.23019(16) 0.08504(13) 0.48820(11)
C34A C -0.27374(17) 0.02510(15) 0.48713(12)
C27B C -0.3837(2) -0.3063(2) 0.4529(2)
C28B C -0.39089(20) -0.33950(19) 0.49970(19)
H13A H -0.27120 0.06360 0.42070
C30A C -0.28263(16) 0.02901(13) 0.45625(12)
H14A H -0.21270 0.10370 0.49890
H18A H -0.28530 0.00380 0.49710
H15B H -0.37610 -0.30060 0.43200
C32B C -0.40079(20) -0.29030(19) 0.46754(18)
C33B C -0.4063(2) -0.3243(2) 0.5160(2)
H16B H -0.38870 -0.35680 0.50970
C35A C -0.31011(20) -0.00141(15) 0.43935(17)
C37B C -0.41043(19) -0.29936(19) 0.49868(19)
C38B C -0.40645(20) -0.26520(18) 0.44979(15)
C39B C -0.41796(20) -0.33330(18) 0.54936(19)
C40A C -0.33571(18) 0.00125(18) 0.42308(18)
C41A C -0.3117(2) -0.0330(3) 0.4418(3)
H19B H -0.42050 -0.28840 0.50930
C44B C -0.3883(3) -0.2510(3) 0.4217(2)
C45B C -0.4232(2) -0.2500(2) 0.4632(2)
C46B C -0.41579(20) -0.30910(19) 0.57066(19)
C47B C -0.4318(3) -0.3662(2) 0.5591(2)
H20A H -0.33460 0.02250 0.42140
C48A C -0.3629(3) -0.0278(2) 0.4092(3)
C49A C -0.3389(3) -0.0621(4) 0.4280(4)
H21A H -0.29460 -0.03480 0.45270
H24B H -0.37390 -0.25860 0.41380
C52B C -0.3913(6) -0.2235(8) 0.4038(4)
H25B H -0.43630 -0.25880 0.48160
C53B C -0.4337(4) -0.2300(6) 0.4443(3)
H26B H -0.40560 -0.28620 0.56430
C54B C -0.4286(3) -0.3180(2) 0.6019(2)
H27B H -0.43410 -0.38300 0.54470
C55B C -0.4430(4) -0.3755(2) 0.59142(19)
H28A H -0.38000 -0.02600 0.39840
C56A C -0.3645(4) -0.0595(3) 0.4117(4)
H29A H -0.34000 -0.08330 0.42960
C58B C -0.41636(19) -0.21677(28) 0.41569(16)
H32B H -0.37770 -0.21200 0.38630
H33B H -0.45130 -0.22620 0.45090
C59B C -0.4409(3) -0.3507(2) 0.61255(14)
H34B H -0.42870 -0.30150 0.61540
H35B H -0.45170 -0.39810 0.59820
C60A C -0.3836(4) -0.0921(2) 0.3908(3)
C62B C -0.4223(2) -0.1930(4) 0.3960(2)
C63B C -0.4536(3) -0.3620(2) 0.64554(14)
O9A O -0.37600(28) -0.11407(20) 0.3820(2)
O10A O -0.41270(26) -0.09615(19) 0.38499(16)
O13B O -0.41082(14) -0.18566(22) 0.36834(15)
O14B O -0.43960(17) -0.18025(24) 0.40775(16)
O7D O -0.450233(160) -0.339337(270) 0.665683(140)
O8D O -0.467423(180) -0.393217(300) 0.654273(130)
In2A In -0.42910(3) -0.14819(2) 0.35970(2)
In1D In -0.475093(20) -0.380777(20) 0.704953(20)
#END
