
#######################################################################
#
#                 Cambridge Crystallographic Data Centre
#                                CCDC
#
#######################################################################
#
# If this CIF has been generated from an entry in the Cambridge
# Structural Database, then it will include bibliographic, chemical,
# crystal, experimental, refinement or atomic coordinate data resulting
# from the CCDC's data processing and validation procedures.
#
#######################################################################

data_CSD_CIF_KABSEN
_audit_creation_date 2011-02-21
_audit_creation_method CSD-ConQuest-V1
_database_code_CSD KABSEN
_database_code_depnum_ccdc_archive 'CCDC 754883'
_chemical_formula_sum 'C30 H25 Cu2 N9 O38.5 P1 W9'
_chemical_formula_moiety
;
(C30 H24 Cu2 N9 O7 3+)n,0.5n(H2 O1),0.5n(O62 P2 W18 6-)
;
_journal_coden_Cambridge 1295
_journal_volume 13
_journal_year 2010
_journal_page_first 745
_journal_name_full 'Inorg.Chem.Commun. '
loop_
_publ_author_name
"Xiuli Wang"
"Hailiang Hu"
"Aixiang Tian"
"Hongyan Lin"
"Jin Li"
"Limin Shi"
_chemical_name_systematic
;
catena-(bis(\m~2~-2,5-bis(4-pyridyl)-1,3,4-oxadiazole)-(\m~2~-pyridine-4-carbo
xylato)-(\m~2~-oxo)-diaqua-di-copper 
hemikis(bis(\m~9~-phosphato)-hexatriacontakis(\m~2~-oxo)-octadecaoxo-octadeca-
tungsten) hemihydrate)
;
_cell_volume  11040.814
_exptl_crystal_colour 'blue'
_exptl_crystal_density_diffrn 3.538
_exptl_crystal_description 'block'
_diffrn_ambient_temperature 296
#These two values have been output from a single CSD field.
_refine_ls_R_factor_gt 0.057
_refine_ls_wR_factor_gt 0.057
_symmetry_cell_setting orthorhombic
_symmetry_space_group_name_H-M 'C m c 21'
_symmetry_Int_Tables_number 36
loop_
_symmetry_equiv_pos_site_id
_symmetry_equiv_pos_as_xyz
1 x,y,z
2 -x,-y,1/2+z
3 x,-y,1/2+z
4 -x,y,z
5 1/2+x,1/2+y,z
6 1/2-x,1/2-y,1/2+z
7 1/2+x,1/2-y,1/2+z
8 1/2-x,1/2+y,z
_cell_length_a 15.1523(8)
_cell_length_b 26.4180(13)
_cell_length_c 27.5818(15)
_cell_angle_alpha 90
_cell_angle_beta 90
_cell_angle_gamma 90
_cell_formula_units_Z 8
loop_
_atom_type_symbol
_atom_type_radius_bond
C 0.68
H 0.23
Cu 1.32
N 0.68
O 0.68
P 1.05
W 1.33
loop_
_atom_site_label
_atom_site_type_symbol
_atom_site_fract_x
_atom_site_fract_y
_atom_site_fract_z
W1 W 1.12092(5) 0.35970(3) 0.14057(3)
W2 W 1.11086(5) 0.13131(3) 0.12100(3)
W3 W 1.23165(5) 0.23908(3) 0.26682(3)
W4 W 1.12078(5) 0.34885(3) 0.27576(3)
W5 W 1.11168(5) 0.22013(3) 0.01808(2)
W6 W 1.10982(5) 0.11988(3) 0.25604(3)
W7 W 1.23183(4) 0.25092(3) 0.13151(3)
W8 W 1.00000 0.33075(4) 0.02743(3)
W9 W 1.00000 0.29844(4) 0.38179(4)
W10 W 1.11115(6) 0.18808(3) 0.37287(3)
P1 P 1.00000 0.2357(2) 0.2699(2)
P2 P 1.00000 0.2475(2) 0.1272(2)
O1 O 1.2378(9) 0.2537(5) 0.1985(5)
O2 O 1.2265(10) 0.3223(5) 0.1272(5)
O3 O 1.3432(11) 0.2257(6) 0.2754(5)
O4 O 1.00000 0.2520(7) 0.0712(6)
O5 O 1.1397(10) 0.3518(5) 0.2068(5)
O6 O 1.00000 0.3402(8) 0.4284(6)
O7 O 1.00000 0.1005(7) 0.1101(6)
O8 O 1.0976(9) 0.1173(5) 0.1872(5)
O9 O 1.087(1) 0.3278(5) 0.3388(4)
O10 O 1.00000 0.2285(7) 0.3266(6)
O11 O 1.1008(9) 0.1398(5) 0.3232(5)
O12 O 1.1878(9) 0.1746(5) 0.2481(4)
O13 O 1.1932(9) 0.1825(5) 0.1370(5)
O14 O 1.0838(10) 0.2733(5) 0.1446(4)
O15 O 1.0897(9) 0.2892(5) -0.0030(4)
O16 O 1.00000 0.2022(7) -0.0107(7)
O17 O 1.1783(10) 0.0824(5) 0.1060(5)
O18 O 1.00000 0.3715(7) 0.1531(6)
O19 O 1.00000 0.1681(7) 0.3741(6)
O20 O 1.2272(10) 0.3092(6) 0.2800(5)
O21 O 1.0864(10) 0.3496(5) 0.0735(4)
O22 O 1.3410(11) 0.2392(5) 0.1198(5)
O23 O 1.1816(11) 0.0713(5) 0.2628(5)
O24 O 1.00000 0.0872(7) 0.2601(6)
O25 O 1.1015(10) 0.1611(5) 0.0584(5)
O26 O 1.00000 0.1905(7) 0.1369(6)
O27 O 1.1898(10) 0.2234(5) 0.3294(5)
O28 O 1.0825(10) 0.2644(5) 0.2559(4)
O29 O 1.1901(11) 0.2459(5) 0.0646(4)
O30 O 1.1621(11) 0.4076(6) 0.2918(5)
O31 O 1.1788(10) 0.1596(6) 0.4117(5)
O32 O 1.00000 0.1805(7) 0.2484(6)
O33 O 1.00000 0.3816(7) -0.0120(6)
O34 O 1.184(1) 0.2010(5) -0.0280(5)
O35 O 1.0831(10) 0.2505(5) 0.4042(4)
O36 O 1.00000 0.3631(7) 0.2657(6)
O37 O 1.1622(10) 0.4205(5) 0.1329(5)
Cu1 Cu 0.3882(2) 0.46855(12) 0.06311(10)
O38 O 0.4235(12) 0.3947(6) 0.0342(5)
O39 O 0.3721(12) 0.4476(6) 0.3183(6)
O40 O 0.50000 0.4987(9) 0.0748(8)
N1 N 0.3862(11) 0.4475(5) 0.1337(3)
C1 C 0.3700(11) 0.3980(5) 0.1483(4)
H1 H 0.36130 0.37280 0.12520
C2 C 0.3669(11) 0.3861(4) 0.1973(5)
H2 H 0.35600 0.35300 0.20710
C3 C 0.3799(12) 0.4238(5) 0.2318(3)
C4 C 0.3961(12) 0.4733(5) 0.2173(4)
H3 H 0.40480 0.49840 0.24030
C5 C 0.3992(11) 0.4851(4) 0.1682(5)
H4 H 0.41000 0.51820 0.15840
C6 C 0.3772(17) 0.4138(9) 0.2847(8)
C7 C 0.3850(15) 0.4247(9) 0.3598(8)
C8 C 0.3809(18) 0.4505(9) 0.4077(8)
C9 C 0.3703(19) 0.4209(10) 0.4493(8)
H5 H 0.36030 0.38630 0.44710
C10 C 0.3756(18) 0.4466(9) 0.4970(9)
H6 H 0.37800 0.42810 0.52560
C11 C 0.3931(18) 0.5229(10) 0.4574(8)
H7 H 0.40810 0.55700 0.45990
C12 C 0.3881(18) 0.5004(10) 0.4118(9)
H8 H 0.38990 0.52040 0.38410
C13 C 0.50000 0.3756(13) 0.0327(11)
C14 C 0.50000 0.3168(12) 0.0252(11)
C15 C 0.4259(18) 0.2902(9) 0.0232(8)
H9 H 0.37240 0.30730 0.02570
C16 C 0.4247(13) 0.2399(8) 0.0178(8)
H10 H 0.37080 0.22320 0.01570
N2 N 0.50000 0.213(1) 0.0154(10)
N3 N 0.3985(13) 0.3775(8) 0.3520(7)
N4 N 0.3917(13) 0.3707(8) 0.3029(7)
N5 N 0.3769(14) 0.4967(8) 0.4976(7)
O41 O 0.2624(13) 0.4457(7) 0.0518(6)
H11 H 0.26200 0.41950 0.03390
H12 H 0.23820 0.43910 0.07890
Cu2 Cu -0.1134(2) 0.47146(13) 0.83727(10)
O42 O -0.0731(14) 0.3989(6) 0.8624(5)
O43 O -0.1200(13) 0.5504(7) 1.0826(5)
O44 O 0.00000 0.5186(9) 0.8212(7)
C17 C -0.1132(18) 0.4806(10) 0.9412(8)
H13 H -0.10520 0.44600 0.93730
C18 C -0.1136(18) 0.4998(10) 0.9898(8)
H14 H -0.10570 0.47920 1.01680
C19 C -0.1267(19) 0.5515(9) 0.9933(7)
C20 C -0.138(2) 0.579(1) 0.9499(7)
H15 H -0.14620 0.61390 0.95080
C21 C -0.137(2) 0.555(1) 0.9085(8)
H16 H -0.14820 0.57450 0.88110
C22 C -0.1222(19) 0.5753(9) 1.0409(7)
C23 C -0.1215(18) 0.5833(9) 1.1150(7)
C24 C -0.122(2) 0.5753(10) 1.1678(8)
C25 C -0.115(2) 0.5257(10) 1.1813(8)
H17 H -0.10670 0.49980 1.15890
C26 C -0.122(2) 0.5161(10) 1.2339(8)
H18 H -0.13270 0.48310 1.24420
C27 C -0.1205(19) 0.5985(10) 1.2517(8)
H19 H -0.12290 0.62370 1.27530
C28 C -0.1242(19) 0.6116(10) 1.2046(8)
H20 H -0.12850 0.64570 1.19630
C29 C 0.00000 0.3808(14) 0.8663(11)
C30 C 0.00000 0.3222(14) 0.8746(11)
C31 C -0.080(2) 0.2956(9) 0.8770(8)
H21 H -0.13210 0.31370 0.87540
C32 C -0.0839(10) 0.2379(9) 0.8824(8)
H22 H -0.13480 0.21840 0.88480
N6 N -0.1232(16) 0.5080(8) 0.9013(6)
N7 N -0.1281(16) 0.6240(8) 1.0449(6)
N8 N -0.1256(16) 0.6278(8) 1.0957(7)
N9 N -0.1135(16) 0.5499(8) 1.2655(7)
N10 N 0.00000 0.2208(11) 0.8828(10)
O45 O -0.2282(15) 0.4729(8) 0.8345(6)
H23 H -0.24430 0.50360 0.83170
H24 H -0.24550 0.45610 0.81000
O46 O 0.50000 0.2911(8) 0.2581(8)
H25? H 0.50000 0.32000 0.27150
H26? H 0.54820 0.27770 0.26730
W1C W 0.87908(5) 0.35970(3) 0.14057(3)
W2C W 0.88914(5) 0.13131(3) 0.12100(3)
W3C W 0.76835(5) 0.23908(3) 0.26682(3)
W4C W 0.87922(5) 0.34885(3) 0.27576(3)
W5C W 0.88832(5) 0.22013(3) 0.01808(2)
W6C W 0.89018(5) 0.11988(3) 0.25604(3)
W7C W 0.76817(4) 0.25092(3) 0.13151(3)
W10C W 0.88885(6) 0.18808(3) 0.37287(3)
O1C O 0.7622(9) 0.2537(5) 0.1985(5)
O2C O 0.7735(10) 0.3223(5) 0.1272(5)
O3C O 0.6568(11) 0.2257(6) 0.2754(5)
O5C O 0.8603(10) 0.3518(5) 0.2068(5)
O8C O 0.9024(9) 0.1173(5) 0.1872(5)
O9C O 0.913(1) 0.3278(5) 0.3388(4)
O11C O 0.8992(9) 0.1398(5) 0.3232(5)
O12C O 0.8122(9) 0.1746(5) 0.2481(4)
O13C O 0.8068(9) 0.1825(5) 0.1370(5)
O14C O 0.9162(10) 0.2733(5) 0.1446(4)
O15C O 0.9103(9) 0.2892(5) -0.0030(4)
O17C O 0.8217(10) 0.0824(5) 0.1060(5)
O20C O 0.7728(10) 0.3092(6) 0.2800(5)
O21C O 0.9136(10) 0.3496(5) 0.0735(4)
O22C O 0.6590(11) 0.2392(5) 0.1198(5)
O23C O 0.8184(11) 0.0713(5) 0.2628(5)
O25C O 0.8985(10) 0.1611(5) 0.0584(5)
O27C O 0.8102(10) 0.2234(5) 0.3294(5)
O28C O 0.9175(10) 0.2644(5) 0.2559(4)
O29C O 0.8099(11) 0.2459(5) 0.0646(4)
O30C O 0.8379(11) 0.4076(6) 0.2918(5)
O31C O 0.8212(10) 0.1596(6) 0.4117(5)
O34C O 0.816(1) 0.2010(5) -0.0280(5)
O35C O 0.9169(10) 0.2505(5) 0.4042(4)
O37C O 0.8378(10) 0.4205(5) 0.1329(5)
Cu1C Cu 0.6118(2) 0.46855(12) 0.06311(10)
Cu1B Cu 0.3882(2) 0.53145(12) 0.56311(10)
Cu1B* Cu 0.3882(2) 0.53145(12) -0.43689(10)
O38C O 0.5765(12) 0.3947(6) 0.0342(5)
O39B O 0.3721(12) 0.5524(6) -0.1817(6)
N1B N 0.3862(11) 0.5525(5) -0.3663(3)
N1C N 0.6138(11) 0.4475(5) 0.1337(3)
C1B C 0.3700(11) 0.6020(5) -0.3517(4)
H1B H 0.36130 0.62720 -0.37480
C2B C 0.3669(11) 0.6139(4) -0.3027(5)
H2B H 0.35600 0.64700 -0.29290
C3B C 0.3799(12) 0.5762(5) -0.2682(3)
C4B C 0.3961(12) 0.5267(5) -0.2827(4)
H3B H 0.40480 0.50160 -0.25970
C5B C 0.3992(11) 0.5149(4) -0.3318(5)
H4B H 0.41000 0.48180 -0.34160
C6B C 0.3772(17) 0.5862(9) -0.2153(8)
C7B C 0.3850(15) 0.5753(9) -0.1402(8)
C8B C 0.3809(18) 0.5495(9) -0.0923(8)
C9B C 0.3703(19) 0.5791(10) -0.0507(8)
H5B H 0.36030 0.61370 -0.05290
C10B C 0.3756(18) 0.5534(9) -0.0030(9)
H6B H 0.37800 0.57190 0.02560
C11B C 0.3931(18) 0.4771(10) -0.0426(8)
H7B H 0.40810 0.44300 -0.04010
C12B C 0.3881(18) 0.4996(10) -0.0882(9)
H8B H 0.38990 0.47960 -0.11590
C15C C 0.5741(18) 0.2902(9) 0.0232(8)
H9C H 0.62760 0.30730 0.02570
C16C C 0.5753(13) 0.2399(8) 0.0178(8)
H10C H 0.62920 0.22320 0.01570
N3B N 0.3985(13) 0.6225(8) -0.1480(7)
N4B N 0.3917(13) 0.6293(8) -0.1971(7)
N5B N 0.3769(14) 0.5033(8) -0.0024(7)
N5A N 0.6231(14) 0.5033(8) -0.0024(7)
O41C O 0.7376(13) 0.4457(7) 0.0518(6)
H11C H 0.73800 0.41950 0.03390
H12C H 0.76180 0.43910 0.07890
Cu2C Cu 0.1134(2) 0.47146(13) 0.83727(10)
Cu2B Cu -0.1134(2) 0.52854(13) 1.33727(10)
Cu2B* Cu -0.1134(2) 0.52854(13) 0.33727(10)
O42C O 0.0731(14) 0.3989(6) 0.8624(5)
O43B O -0.1200(13) 0.4496(7) 0.5826(5)
C17B C -0.1132(18) 0.5194(10) 0.4412(8)
H13B H -0.10520 0.55400 0.43730
C18B C -0.1136(18) 0.5002(10) 0.4898(8)
H14B H -0.10570 0.52080 0.51680
C19B C -0.1267(19) 0.4485(9) 0.4933(7)
C20B C -0.138(2) 0.421(1) 0.4499(7)
H15B H -0.14620 0.38610 0.45080
C21B C -0.137(2) 0.445(1) 0.4085(8)
H16B H -0.14820 0.42550 0.38110
C22B C -0.1222(19) 0.4247(9) 0.5409(7)
C23B C -0.1215(18) 0.4167(9) 0.6150(7)
C24B C -0.122(2) 0.4247(10) 0.6678(8)
C25B C -0.115(2) 0.4743(10) 0.6813(8)
H17B H -0.10670 0.50020 0.65890
C26B C -0.122(2) 0.4839(10) 0.7339(8)
H18B H -0.13270 0.51690 0.74420
C27B C -0.1205(19) 0.4015(10) 0.7517(8)
H19B H -0.12290 0.37630 0.77530
C28B C -0.1242(19) 0.3884(10) 0.7046(8)
H20B H -0.12850 0.35430 0.69630
C31C C 0.080(2) 0.2956(9) 0.8770(8)
H21C H 0.13210 0.31370 0.87540
C32C C 0.0839(10) 0.2379(9) 0.8824(8)
H22C H 0.13480 0.21840 0.88480
N6B N -0.1232(16) 0.4920(8) 0.4013(6)
N6C N 0.1232(16) 0.5080(8) 0.9013(6)
N7B N -0.1281(16) 0.3760(8) 0.5449(6)
N8B N -0.1256(16) 0.3722(8) 0.5957(7)
N9B N -0.1135(16) 0.4501(8) 0.7655(7)
N9A N 0.1135(16) 0.4501(8) 0.7655(7)
O45C O 0.2282(15) 0.4729(8) 0.8345(6)
H23C H 0.24430 0.50360 0.83170
H24C H 0.24550 0.45610 0.81000
#END
