
#######################################################################
#
#                 Cambridge Crystallographic Data Centre
#                                CCDC
#
#######################################################################
#
# If this CIF has been generated from an entry in the Cambridge
# Structural Database, then it will include bibliographic, chemical,
# crystal, experimental, refinement or atomic coordinate data resulting
# from the CCDC's data processing and validation procedures.
#
#######################################################################

data_CSD_CIF_KACCEA
_audit_creation_date 2020-11-04
_audit_creation_method CSD-ConQuest-V1
_database_code_CSD KACCEA
_database_code_depnum_ccdc_archive 'CCDC 2017484'
_chemical_formula_sum 'C19 H23 Cu1 N3 O9'
_chemical_formula_moiety
;
(C14 H6 Cu1 N1 O7 1-)n,C2 H8 N1 1+,C3 H7 N1 O1,H2 O1
;
_journal_coden_Cambridge 222
_journal_volume 49
_journal_year 2020
_journal_page_first 15672
_journal_name_full 'Dalton Trans. '
loop_
_publ_author_name
"Zhenzhen Jiang"
"Lihui Fan"
"Ping Zhou"
"Tingting Xu"
"Jingxian Chen"
"Simin Hu"
"De-Li Chen"
"Yabing He"
_chemical_name_systematic
;
catena-[dimethylammonium 
(\m-5-(5-carboxylato-N-oxide-pyridin-2-yl)benzene-1,3-dicarboxylato)-copper(ii
) N,N-dimethylformamide solvate monohydrate]
;
_chemical_name_common
;
ZJNU-14
;
_cell_volume  10267.742
_exptl_crystal_colour 'blue'
_exptl_crystal_density_diffrn 1.458
_exptl_crystal_description 'block'
_diffrn_ambient_temperature 150
_diffrn_special_details
;
twin

;
_refine_special_details
;
Disordered cation (dimethylammonium) and solvent molecules 
(N,N-dimethylformamide / water) were not modelled and the disordered density 
was taken into account using the SQUEEZE/PLATON procedure.
;
#These two values have been output from a single CSD field.
_refine_ls_R_factor_gt 0.0241
_refine_ls_wR_factor_gt 0.0241
_symmetry_cell_setting rhombohedral
_symmetry_space_group_name_H-M 'R 3 2'
_symmetry_Int_Tables_number 155
loop_
_symmetry_equiv_pos_site_id
_symmetry_equiv_pos_as_xyz
1 x,y,z
2 -y,x-y,z
3 -x+y,-x,z
4 y,x,-z
5 x-y,-y,-z
6 -x,-x+y,-z
7 2/3+x,1/3+y,1/3+z
8 2/3-y,1/3+x-y,1/3+z
9 2/3-x+y,1/3-x,1/3+z
10 2/3+y,1/3+x,1/3-z
11 2/3+x-y,1/3-y,1/3-z
12 2/3-x,1/3-x+y,1/3-z
13 1/3+x,2/3+y,2/3+z
14 1/3-y,2/3+x-y,2/3+z
15 1/3-x+y,2/3-x,2/3+z
16 1/3+y,2/3+x,2/3-z
17 1/3+x-y,2/3-y,2/3-z
18 1/3-x,2/3-x+y,2/3-z
_cell_length_a 18.0487(5)
_cell_length_b 18.0487(5)
_cell_length_c 36.3959(11)
_cell_angle_alpha 90
_cell_angle_beta 90
_cell_angle_gamma 120
_cell_formula_units_Z 18
loop_
_atom_type_symbol
_atom_type_radius_bond
C 0.68
H 0.23
Cu 1.32
N 0.68
O 0.68
loop_
_atom_site_label
_atom_site_type_symbol
_atom_site_fract_x
_atom_site_fract_y
_atom_site_fract_z
Cu1 Cu 0.83246(2) 1.11213(2) 0.69476(2)
O1 O 0.75103(12) 1.05369(11) 0.61666(5)
O2 O 0.78170(13) 1.00508(11) 0.66824(4)
O3 O 0.84421(12) 0.77798(12) 0.66165(5)
O4 O 0.78523(12) 0.67856(11) 0.61755(5)
O5 O 0.5681(2) 0.6619(2) 0.54701(9)
O6 O 0.46352(15) 0.65321(14) 0.42148(7)
O7 O 0.52518(10) 0.79030(12) 0.40523(5)
N1 N 0.59266(19) 0.71916(16) 0.52136(7)
C1 C 0.74712(16) 0.92019(16) 0.61550(7)
C2 C 0.77687(17) 0.87079(16) 0.63216(7)
H1 H 0.80310 0.88620 0.65570
C3 C 0.76813(17) 0.79888(16) 0.61440(7)
C4 C 0.72882(18) 0.77533(17) 0.58044(7)
H2 H 0.72200 0.72520 0.56880
C5 C 0.69931(19) 0.82392(17) 0.56318(7)
C6 C 0.70994(18) 0.89864(17) 0.58053(7)
H3 H 0.69210 0.93390 0.56860
C7 C 0.75938(15) 0.99889(16) 0.63499(7)
C8 C 0.80275(16) 0.74829(16) 0.63273(7)
C9 C 0.65682(19) 0.80038(18) 0.52696(7)
C10 C 0.5485(2) 0.6965(2) 0.48859(8)
H4 H 0.50340 0.63930 0.48510
C11 C 0.56862(19) 0.75503(16) 0.46097(7)
C12 C 0.63602(17) 0.83827(17) 0.46606(7)
H5 H 0.65210 0.87950 0.44700
C13 C 0.67904(18) 0.85989(17) 0.49916(7)
H6 H 0.72470 0.91660 0.50290
C14 C 0.51424(17) 0.73028(17) 0.42670(7)
Cu1A Cu 0.88787(2) 0.72033(2) 0.69476(2)
Cu1I Cu 0.778797(20) 1.165793(20) 0.638573(20)
Cu1K Cu 0.834207(20) 0.613003(20) 0.638573(20)
Cu1N Cu 0.613003(20) 0.834207(20) 0.361427(20)
O1I O 0.720357(120) 1.084363(110) 0.716673(50)
O3B O 0.93377(12) 1.15579(12) 0.66165(5)
O4K O 0.881437(120) 1.226663(110) 0.715783(50)
O7G O 0.876367(100) 1.068213(120) 0.738563(50)
#END
