
#######################################################################
#
#                 Cambridge Crystallographic Data Centre
#                                CCDC
#
#######################################################################
#
# If this CIF has been generated from an entry in the Cambridge
# Structural Database, then it will include bibliographic, chemical,
# crystal, experimental, refinement or atomic coordinate data resulting
# from the CCDC's data processing and validation procedures.
#
#######################################################################

data_CSD_CIF_KACNAC10
_audit_creation_date 1977-10-06
_audit_creation_method CSD-ConQuest-V1
_database_code_CSD KACNAC10
_chemical_formula_sum 'C12 H24 Cu2 K2 N2 O18'
_chemical_formula_moiety
;
(C12 H16 Cu2 N2 O14 2-)n,2n(K1 1+),4n(H2 O1)
;
_journal_coden_Cambridge 82
_journal_volume 16
_journal_year 1975
_journal_page_first 645
_journal_name_full 'Zh.Strukt.Khim.(Russ.)(J.Struct.Chem.) '
loop_
_publ_author_name
"V.V.Fomenko"
"T.N.Polynova"
"M.A.Porai-Koshits"
_chemical_name_systematic
;
catena(Di-potassium diaqua-bis(\m~2~-nitrilotriacetato)-di-copper(ii) 
tetrahydrate)
;
_cell_volume   1130.089
_exptl_crystal_density_diffrn 2.02
_diffrn_ambient_temperature ?
_diffrn_special_details
;
The study was carried out at room temperature,in the range 283-303K

;
#These two values have been output from a single CSD field.
_refine_ls_R_factor_gt 0.12
_refine_ls_wR_factor_gt 0.12
_symmetry_cell_setting monoclinic
_symmetry_space_group_name_H-M 'P 1 1 21/b'
_symmetry_Int_Tables_number 14
loop_
_symmetry_equiv_pos_site_id
_symmetry_equiv_pos_as_xyz
1 x,y,z
2 -x,1/2-y,1/2+z
3 -x,-y,-z
4 x,-1/2+y,-1/2-z
_cell_length_a 6.95(2)
_cell_length_b 17.60(3)
_cell_length_c 10.00(2)
_cell_angle_alpha 90
_cell_angle_beta 90
_cell_angle_gamma 112.5(5)
_cell_formula_units_Z 2
loop_
_atom_type_symbol
_atom_type_radius_bond
C 0.68
Cu 1.52
K 1.33
N 0.68
O 0.68
loop_
_atom_site_label
_atom_site_type_symbol
_atom_site_fract_x
_atom_site_fract_y
_atom_site_fract_z
Cu1 Cu 0.14800 0.28850 0.15580
K1 K 0.26180 0.39440 0.53850
O1 O 0.18600 0.18300 0.17300
O2 O 0.37000 0.11400 0.10600
O3 O 0.12600 0.26500 -0.27000
O4 O 0.01600 0.24300 -0.05700
O5 O 0.42000 0.36100 0.30200
O6 O 0.69800 0.47700 0.28400
O7 O 0.12000 0.39800 0.13000
O8 O -0.01000 0.42300 0.88600
O9 O 0.07300 0.46300 0.35600
N1 N 0.41800 0.32400 0.04000
C1 C 0.33400 0.18100 0.11600
C2 C 0.50100 0.25600 0.05400
C3 C 0.15800 0.27400 -0.14500
C4 C 0.37200 0.33500 -0.10100
C5 C 0.56300 0.41700 0.23400
C6 C 0.56900 0.40700 0.08400
O3A O -0.12600 0.23500 0.23000
Cu1A Cu -0.14800 0.21150 -0.34420
O1A O -0.18600 0.31700 -0.32700
O4A O -0.01600 0.25700 -0.55700
O5A O -0.42000 0.13900 -0.19800
O7A O -0.12000 0.10200 -0.37000
N1A N -0.41800 0.17600 -0.46000
C1A C -0.33400 0.31900 -0.38400
C3A C -0.15800 0.22600 -0.64500
C5A C -0.56300 0.08300 -0.26600
C2A C -0.50100 0.24400 -0.44600
C4A C -0.37200 0.16500 -0.60100
C6A C -0.56900 0.09300 -0.41600
O2A O -0.37000 0.38600 -0.39400
O3A* O -0.12600 0.23500 -0.77000
O6A O -0.69800 0.02300 -0.21600
Cu1* Cu 0.14800 0.28850 -0.84420
#END
