
#######################################################################
#
#                 Cambridge Crystallographic Data Centre
#                                CCDC
#
#######################################################################
#
# If this CIF has been generated from an entry in the Cambridge
# Structural Database, then it will include bibliographic, chemical,
# crystal, experimental, refinement or atomic coordinate data resulting
# from the CCDC's data processing and validation procedures.
#
#######################################################################

data_CSD_CIF_KACPUC
_audit_creation_date 2016-01-19
_audit_creation_method CSD-ConQuest-V1
_database_code_CSD KACPUC
_database_code_depnum_ccdc_archive 'CCDC 935788'
_chemical_formula_sum 'C32 H33 Ca1 N6 Nd1 O22'
_chemical_formula_moiety
;
(C28 H18 Ca1 N4 Nd1 O18 1-)n,C4 H7 N2 1+,4(H2 O1)
;
_journal_coden_Cambridge 214
_journal_volume 146
_journal_year 2015
_journal_page_first 1257
_journal_name_full 'Monatsh.Chem. '
loop_
_publ_author_name
"M.Ghadermazi"
"Z.Derikvand"
"A.Zahedi"
"A.Shokrollahi"
"S.Nasiri"
"H.A.Rudbari"
_chemical_name_systematic
;
catena-[3-Methyl-1H-imidazol-3-ium 
bis(\m-pyridine-2,6-dicarboxylato)-(pyridine-2,6-dicarboxylato)-(pyridine-2,6-
dicarboxylic acid)-diaqua-calcium-neodymium tetrahydrate]
;
_cell_volume   3908.676
_exptl_crystal_colour 'colorless'
_exptl_crystal_density_diffrn 1.764
_exptl_crystal_description 'irregular'
_diffrn_ambient_temperature 293
_refine_special_details
;
O19' and O19 disordered over two sites with occupancies 0.60:0.40.

;
#These two values have been output from a single CSD field.
_refine_ls_R_factor_gt 0.0248
_refine_ls_wR_factor_gt 0.0248
_symmetry_cell_setting monoclinic
_symmetry_space_group_name_H-M 'P 21/n'
_symmetry_Int_Tables_number 14
loop_
_symmetry_equiv_pos_site_id
_symmetry_equiv_pos_as_xyz
1 x,y,z
2 1/2-x,1/2+y,1/2-z
3 -x,-y,-z
4 -1/2+x,-1/2-y,-1/2+z
_cell_length_a 16.5947(8)
_cell_length_b 13.5350(6)
_cell_length_c 17.4057(8)
_cell_angle_alpha 90
_cell_angle_beta 91.163(3)
_cell_angle_gamma 90
_cell_formula_units_Z 4
loop_
_atom_type_symbol
_atom_type_radius_bond
C 0.68
H 0.23
Ca 1.76
N 0.68
Nd 2.01
O 0.68
loop_
_atom_site_label
_atom_site_type_symbol
_atom_site_fract_x
_atom_site_fract_y
_atom_site_fract_z
Nd1 Nd 0.257241(8) 0.608228(10) 0.038243(8)
O1 O 0.38036(15) 0.56262(16) 0.27204(12)
O2 O 0.30487(17) 0.1478(2) 0.13740(16)
O3 O 0.15435(13) 0.62935(18) -0.20721(11)
O4 O 0.25985(13) 0.10728(18) -0.12446(13)
O5 O -0.01650(15) 0.1155(2) 0.09424(14)
N1 N 0.11662(13) 0.12002(16) -0.05961(13)
O6 O 0.33519(12) 0.54939(14) 0.15257(11)
O7 O 0.23079(11) 0.60671(16) -0.10339(11)
N2 N 0.10921(13) 0.61355(16) -0.01070(13)
O8 O 0.11758(13) 0.10912(16) 0.08991(12)
O9 O 0.22793(12) 0.43101(14) 0.03714(12)
O10 O 0.25042(13) 0.27521(15) 0.00402(14)
O11 O 0.37815(12) 0.68623(14) -0.01884(12)
O12 O 0.21906(12) 0.78411(14) 0.01308(11)
O13 O 0.23040(15) 0.94387(15) 0.03733(13)
N3 N 0.29608(13) 0.73671(16) 0.14213(12)
C1 C 0.26867(17) 0.3642(2) 0.00706(17)
C2 C 0.16437(16) 0.6182(2) -0.13565(15)
C3 C 0.27484(16) 0.8312(2) 0.13307(16)
C4 C 0.09140(16) 0.6210(2) -0.08589(15)
C5 C 0.0499(2) 0.1367(2) -0.18220(18)
H1 H 0.05380 0.14180 -0.23530
O14 O 0.15224(12) 0.60062(16) 0.13523(11)
C6 C 0.47115(19) 0.4738(2) -0.1098(2)
H2 H 0.51290 0.50170 -0.13720
C7 C -0.02972(17) 0.6262(2) 0.01620(18)
H3 H -0.07040 0.62800 0.05220
C8 C 0.05010(16) 0.6164(2) 0.03980(16)
C9 C 0.04474(16) 0.1223(2) -0.02723(16)
C10 C 0.34497(16) 0.39665(19) -0.03220(16)
C11 C -0.02688(18) 0.1306(2) -0.06903(19)
H4 H -0.07600 0.13130 -0.04430
C12 C -0.0242(2) 0.1379(3) -0.1476(2)
H5 H -0.07140 0.14350 -0.17700
C13 C 0.32805(16) 0.7075(2) 0.20954(15)
C14 C 0.34928(17) 0.5987(2) 0.21264(15)
C15 C 0.3390(2) 0.7721(2) 0.27009(17)
H6 H 0.36140 0.75030 0.31650
C16 C 0.3164(2) 0.8697(2) 0.2610(2)
H7 H 0.32290 0.91440 0.30120
C17 C 0.2839(2) 0.8999(2) 0.19143(18)
H8 H 0.26840 0.96530 0.18380
C18 C 0.04470(18) 0.1152(2) 0.05911(17)
C19 C 0.01334(18) 0.6309(2) -0.11354(18)
H9 H 0.00240 0.63590 -0.16600
C20 C 0.42481(17) 0.6435(2) -0.06495(19)
C21 C 0.07731(18) 0.6073(2) 0.12325(17)
C22 C 0.3949(2) 0.3334(2) -0.0709(2)
H10 H 0.38540 0.26570 -0.07110
C23 C -0.04836(18) 0.6333(2) -0.06121(19)
H11 H -0.10170 0.63960 -0.07800
N4 N 0.35801(13) 0.49382(16) -0.02953(13)
C24 C 0.4595(2) 0.3728(3) -0.1094(2)
H12 H 0.49490 0.33150 -0.13490
O15 O 0.47266(15) 0.68644(18) -0.10770(17)
C25 C 0.41916(16) 0.5323(2) -0.06852(16)
C26 C 0.11860(18) 0.1278(2) -0.13592(16)
C27 C 0.23930(16) 0.8558(2) 0.05531(16)
O16 O 0.02421(14) 0.6071(2) 0.17175(13)
Ca1 Ca 0.24880(3) 0.10812(4) 0.01547(3)
O17 O 0.20630(15) 0.1431(2) -0.23935(13)
C28 C 0.20263(19) 0.1252(2) -0.16685(17)
O18 O 0.38625(16) 0.0629(2) -0.01185(19)
H13 H 0.310(3) 0.210(4) 0.148(3)
H14 H 0.340(2) 0.119(4) 0.159(3)
H15 H 0.118(3) 0.097(3) 0.140(3)
H16 H 0.2527(17) 0.143(4) -0.257(3)
O19 O 0.37090(18) 0.3342(2) 0.16791(19)
H17 H 0.357(3) 0.390(4) 0.169(3)
H18 H 0.412(3) 0.333(3) 0.150(3)
O20 O 0.4572(3) 0.1145(3) 0.8353(2)
O21 O 0.0502(2) 0.5605(4) 0.31761(19)
C29 C 0.2887(3) 0.4043(3) 0.7536(3)
H19 H 0.30070 0.43040 0.80190
C30 C 0.3411(3) 0.3890(3) 0.6981(3)
H20 H 0.39630 0.40050 0.70080
C31 C 0.1405(3) 0.3771(4) 0.7638(4)
H21 H 0.10050 0.35070 0.72890
H22 H 0.12650 0.44380 0.77700
H23 H 0.14290 0.33750 0.80960
N5 N 0.2999(4) 0.3546(3) 0.6390(2)
H24 H 0.32010 0.34090 0.59520
N6 N 0.2168(2) 0.3762(3) 0.7284(3)
C32 C 0.2218(4) 0.3437(3) 0.6560(3)
H25 H 0.18050 0.31900 0.62460
O22? O 0.5537(5) 0.1300(5) -0.0215(7)
O23 O 0.5325(4) 0.1164(3) 0.0598(4)
O13* O 0.23040(15) -0.05613(15) 0.03733(13)
Ca1* Ca 0.24880(3) 1.10812(4) 0.01547(3)
#END
