
#######################################################################
#
#                 Cambridge Crystallographic Data Centre
#                                CCDC
#
#######################################################################
#
# If this CIF has been generated from an entry in the Cambridge
# Structural Database, then it will include bibliographic, chemical,
# crystal, experimental, refinement or atomic coordinate data resulting
# from the CCDC's data processing and validation procedures.
#
#######################################################################

data_CSD_CIF_KACSAK
_audit_creation_date 2011-02-21
_audit_creation_method CSD-ConQuest-V1
_database_code_CSD KACSAK
_database_code_depnum_ccdc_archive 'CCDC 751741'
_chemical_formula_sum 'C12 H4 K2 Mn2 O14'
_chemical_formula_moiety
;
(C12 H4 Mn2 O14 2-)n,2n(K1 1+)
;
_journal_coden_Cambridge 9
_journal_volume 49
_journal_year 2010
_journal_page_first 3441
_journal_name_full 'Inorg.Chem. '
loop_
_publ_author_name
"S.M.Humphrey"
"R.A.Mole"
"R.I.Thompson"
"P.T.Wood"
_chemical_name_systematic
;
catena-[Di-potassium (\m~8~-mellitato)-diaqua-di-manganese(ii)]
;
_cell_volume    767.184
_exptl_crystal_colour 'colorless'
_exptl_crystal_density_diffrn 2.425
_exptl_special_details
;
isostructural with the NH4/Co, K/Co, K/Ni, Rb/Mn, Rb/Co and Rb/Ni analogues

;
_exptl_crystal_description 'square plate'
_diffrn_ambient_temperature 180
#These two values have been output from a single CSD field.
_refine_ls_R_factor_gt 0.0332
_refine_ls_wR_factor_gt 0.0332
_symmetry_cell_setting monoclinic
_symmetry_space_group_name_H-M 'P 21/n'
_symmetry_Int_Tables_number 14
loop_
_symmetry_equiv_pos_site_id
_symmetry_equiv_pos_as_xyz
1 x,y,z
2 1/2-x,1/2+y,1/2-z
3 -x,-y,-z
4 -1/2+x,-1/2-y,-1/2+z
_cell_length_a 8.4840(2)
_cell_length_b 11.0614(3)
_cell_length_c 9.1046(2)
_cell_angle_alpha 90
_cell_angle_beta 116.1167(17)
_cell_angle_gamma 90
_cell_formula_units_Z 2
loop_
_atom_type_symbol
_atom_type_radius_bond
C 0.68
H 0.23
K 1.60
Mn 1.61
O 0.68
loop_
_atom_site_label
_atom_site_type_symbol
_atom_site_fract_x
_atom_site_fract_y
_atom_site_fract_z
Mn1 Mn -0.22844(5) 0.40188(4) 0.18544(5)
K1 K -0.01499(9) 0.33137(6) 0.87654(8)
O1 O 0.0435(2) 0.43869(19) 0.2731(2)
O2 O 0.1791(3) 0.29278(19) 0.1986(2)
O3 O 0.2578(3) 0.26694(17) 0.5756(2)
O4 O 0.2276(3) 0.41969(18) 0.7201(2)
O5 O 0.2665(2) 0.52282(18) 0.0530(2)
O6 O 0.4925(2) 0.39729(17) 0.1125(2)
O7 O -0.1618(3) 0.3206(3) 0.4363(3)
H1 H -0.104(6) 0.376(4) 0.496(6)
H2 H -0.113(5) 0.256(4) 0.458(5)
C1 C 0.3492(3) 0.4386(2) 0.3975(3)
C2 C 0.3930(3) 0.4481(2) 0.5639(3)
C3 C 0.4573(3) 0.4886(2) 0.3334(3)
C4 C 0.1774(4) 0.3809(3) 0.2802(3)
C5 C 0.2844(3) 0.3742(3) 0.6260(3)
C6 C 0.4024(3) 0.4700(2) 0.1512(3)
Mn1B Mn 1.22844(5) 0.59812(4) 0.81456(5)
Mn1C Mn 0.27156(5) 0.09812(4) 0.68544(5)
Mn1B* Mn 0.22844(5) 0.59812(4) 0.81456(5)
Mn1B** Mn 0.22844(5) 0.59812(4) -0.18544(5)
Mn1* Mn 0.77156(5) 0.40188(4) 0.18544(5)
Mn1A Mn 0.72844(5) 0.90188(4) 0.31456(5)
Mn1** Mn 0.77156(5) 0.40188(4) 1.18544(5)
O1B O 0.9565(2) 0.56131(19) 0.7269(2)
O2B O 0.8209(3) 0.70722(19) 0.8014(2)
O3B O 0.7422(3) 0.73306(17) 0.4244(2)
O3C O -0.2422(3) 0.23306(17) 0.0756(2)
O3A O 1.2422(3) 0.76694(17) 0.9244(2)
O4B O 0.7724(3) 0.58031(18) 0.2799(2)
O4B* O -0.2276(3) 0.58031(18) 0.2799(2)
O4* O 1.2276(3) 0.41969(18) 0.7201(2)
O5B O 0.7335(2) 0.47718(18) 0.9470(2)
O5B* O -0.2665(2) 0.47718(18) -0.0530(2)
O5* O 1.2665(2) 0.52282(18) 1.0530(2)
O6B O 0.5075(2) 0.60271(17) 0.8875(2)
O6* O -0.5075(2) 0.39729(17) 0.1125(2)
O6B* O 1.5075(2) 0.60271(17) 0.8875(2)
O7B O 1.1618(3) 0.6794(3) 0.5637(3)
H1B H 1.104(6) 0.624(4) 0.504(6)
H2B H 1.113(5) 0.744(4) 0.542(5)
C1B C 0.6508(3) 0.5614(2) 0.6025(3)
C2B C 0.6070(3) 0.5519(2) 0.4361(3)
C3B C 0.5427(3) 0.5114(2) 0.6666(3)
C4B C 0.8226(4) 0.6191(3) 0.7198(3)
C5B C 0.7156(3) 0.6258(3) 0.3740(3)
C6B C 0.5976(3) 0.5300(2) 0.8488(3)
#END
