
#######################################################################
#
#                 Cambridge Crystallographic Data Centre
#                                CCDC
#
#######################################################################
#
# If this CIF has been generated from an entry in the Cambridge
# Structural Database, then it will include bibliographic, chemical,
# crystal, experimental, refinement or atomic coordinate data resulting
# from the CCDC's data processing and validation procedures.
#
#######################################################################

data_CSD_CIF_KACSIS
_audit_creation_date 2011-02-21
_audit_creation_method CSD-ConQuest-V1
_database_code_CSD KACSIS
_database_code_depnum_ccdc_archive 'CCDC 751743'
_chemical_formula_sum 'C12 H12 Co2 N2 O14'
_chemical_formula_moiety
;
(C12 H4 Co2 O14 2-)n,2n(H4 N1 1+)
;
_journal_coden_Cambridge 9
_journal_volume 49
_journal_year 2010
_journal_page_first 3441
_journal_name_full 'Inorg.Chem. '
loop_
_publ_author_name
"S.M.Humphrey"
"R.A.Mole"
"R.I.Thompson"
"P.T.Wood"
_chemical_name_systematic
;
catena-[Di-ammonium (\m~8~-mellitato)-diaqua-di-cobalt(ii)]
;
_cell_volume    746.636
_exptl_crystal_colour 'pink'
_exptl_crystal_density_diffrn 2.34
_exptl_special_details
;
isostructural with the K/Mn, K/Co, K/Ni, Rb/Mn, Rb/Co and Rb/Ni analogues

;
_exptl_crystal_description 'square plate'
_diffrn_ambient_temperature 180
#These two values have been output from a single CSD field.
_refine_ls_R_factor_gt 0.032
_refine_ls_wR_factor_gt 0.032
_symmetry_cell_setting monoclinic
_symmetry_space_group_name_H-M 'P 21/n'
_symmetry_Int_Tables_number 14
loop_
_symmetry_equiv_pos_site_id
_symmetry_equiv_pos_as_xyz
1 x,y,z
2 1/2-x,1/2+y,1/2-z
3 -x,-y,-z
4 -1/2+x,-1/2-y,-1/2+z
_cell_length_a 8.4267(2)
_cell_length_b 10.9735(4)
_cell_length_c 9.0131(3)
_cell_angle_alpha 90
_cell_angle_beta 116.383(2)
_cell_angle_gamma 90
_cell_formula_units_Z 2
loop_
_atom_type_symbol
_atom_type_radius_bond
C 0.68
H 0.23
Co 1.26
N 0.68
O 0.68
loop_
_atom_site_label
_atom_site_type_symbol
_atom_site_fract_x
_atom_site_fract_y
_atom_site_fract_z
Co1 Co 1.23254(5) 0.90064(4) 0.81303(5)
N1 N 0.0167(4) 0.8240(3) 0.1434(4)
H1 H -0.04160 0.80500 0.02910
H2 H 0.13230 0.79180 0.20080
H3 H 0.01900 0.91080 0.14700
H4 H -0.06250 0.78820 0.18060
O1 O 0.9631(3) 0.9336(2) 0.7195(3)
O2 O 0.8303(3) 0.7937(2) 0.8071(3)
O3 O 0.7269(3) 1.0297(2) 0.9528(3)
O4 O 0.5055(3) 0.8960(2) 0.8903(3)
O5 O 0.2297(3) 1.0768(2) 0.7256(3)
O6 O 0.2615(3) 1.2336(2) 0.5844(3)
O7 O 1.1674(3) 0.8221(2) 0.5716(3)
H5 H 1.12490 0.74130 0.54260
H6 H 1.09970 0.88290 0.49480
C1 C 0.6538(4) 0.9386(3) 0.6040(4)
C2 C 0.5444(4) 0.9882(3) 0.6697(4)
C3 C 0.3923(4) 1.0507(3) 0.5645(4)
C4 C 0.8287(4) 0.8809(3) 0.7191(4)
C5 C 0.5958(4) 0.9713(3) 0.8530(4)
C6 C 0.2854(4) 1.1244(3) 0.6310(4)
Co1B Co -0.23254(5) 1.09936(4) 0.18697(5)
Co1* Co 0.23254(5) 0.90064(4) -0.18697(5)
Co1** Co 0.23254(5) 0.90064(4) 0.81303(5)
Co1A Co 0.26746(5) 1.40064(4) 0.68697(5)
Co1B* Co 0.76746(5) 1.09936(4) 0.18697(5)
Co1B** Co 0.76746(5) 1.09936(4) 1.18697(5)
Co1C Co 0.73254(5) 0.59936(4) 0.31303(5)
O1B O 0.0369(3) 1.0664(2) 0.2805(3)
O2B O 0.1697(3) 1.2063(2) 0.1929(3)
O3B O 0.2731(3) 0.9703(2) 0.0472(3)
O3* O -0.2731(3) 1.0297(2) -0.0472(3)
O3B* O 1.2731(3) 0.9703(2) 1.0472(3)
O4B O 0.4945(3) 1.1040(2) 0.1097(3)
O4* O 1.5055(3) 0.8960(2) 0.8903(3)
O4B* O -0.5055(3) 1.1040(2) 0.1097(3)
O5B O 0.7703(3) 0.9232(2) 0.2744(3)
O5* O 1.2297(3) 1.0768(2) 0.7256(3)
O5B* O -0.2297(3) 0.9232(2) 0.2744(3)
O6B O 0.7385(3) 0.7664(2) 0.4156(3)
O6A O 1.2385(3) 0.7336(2) 0.9156(3)
O6C O -0.2385(3) 1.2664(2) 0.0844(3)
O7B O -0.1674(3) 1.1779(2) 0.4284(3)
H5B H -0.12490 1.25870 0.45740
H6B H -0.09970 1.11710 0.50520
C1B C 0.3462(4) 1.0614(3) 0.3960(4)
C2B C 0.4556(4) 1.0118(3) 0.3303(4)
C3B C 0.6077(4) 0.9493(3) 0.4355(4)
C4B C 0.1713(4) 1.1191(3) 0.2809(4)
C5B C 0.4042(4) 1.0287(3) 0.1470(4)
C6B C 0.7146(4) 0.8756(3) 0.3690(4)
#END
