
#######################################################################
#
#                 Cambridge Crystallographic Data Centre
#                                CCDC
#
#######################################################################
#
# If this CIF has been generated from an entry in the Cambridge
# Structural Database, then it will include bibliographic, chemical,
# crystal, experimental, refinement or atomic coordinate data resulting
# from the CCDC's data processing and validation procedures.
#
#######################################################################

data_CSD_CIF_KACVAP
_audit_creation_date 2020-11-04
_audit_creation_method CSD-ConQuest-V1
_database_code_CSD KACVAP
_database_code_depnum_ccdc_archive 'CCDC 2019200'
_chemical_formula_sum 'C56 H46 Ag4 N8 O16 S4'
_chemical_formula_moiety
;
(C36 H22 Ag2 N4 O12 S4 2-)n,2(C10 H8 Ag1 N2 1+)n,4(H2 O1)
;
_journal_coden_Cambridge 9
_journal_volume 59
_journal_year 2020
_journal_page_first 16127
_journal_name_full 'Inorg.Chem. '
loop_
_publ_author_name
"Jiajia Wang"
"Yuanyuan Liu"
"Longfei Lei"
"Liren Zheng"
"Zeyan Wang"
"Peng Wang"
"Zhaoke Zheng"
"Hefeng Cheng"
"Ying Dai"
"Baibiao Huang"
_chemical_name_systematic
;
catena-[bis((\m-4,4'-bipyridine)-silver(i)) 
(\m-pyrene-1,3,6,8-tetrasulfonato)-bis(\m-4,4'-bipyridine)-di-silver(i) 
tetrahydrate]
;
_cell_volume   2807.190
_exptl_crystal_density_diffrn 1.948
_exptl_crystal_description 'block'
_diffrn_ambient_temperature 193.2
#These two values have been output from a single CSD field.
_refine_ls_R_factor_gt 0.026
_refine_ls_wR_factor_gt 0.026
_symmetry_cell_setting monoclinic
_symmetry_space_group_name_H-M 'P 21/c'
_symmetry_Int_Tables_number 14
loop_
_symmetry_equiv_pos_site_id
_symmetry_equiv_pos_as_xyz
1 x,y,z
2 -x,1/2+y,1/2-z
3 -x,-y,-z
4 x,-1/2-y,-1/2+z
_cell_length_a 10.3220(3)
_cell_length_b 17.3434(5)
_cell_length_c 16.3035(5)
_cell_angle_alpha 90
_cell_angle_beta 105.884(1)
_cell_angle_gamma 90
_cell_formula_units_Z 2
loop_
_atom_type_symbol
_atom_type_radius_bond
C 0.68
H 0.23
Ag 1.45
N 0.68
O 0.68
S 1.02
loop_
_atom_site_label
_atom_site_type_symbol
_atom_site_fract_x
_atom_site_fract_y
_atom_site_fract_z
Ag1 Ag 0.36981(2) 0.31023(2) 0.19966(2)
C1 C 0.1350(2) 0.49847(11) 0.35304(13)
C2 C 0.1304(2) 0.49229(11) 0.43840(12)
C3 C 0.0042(2) 0.50341(10) 0.45690(12)
C4 C -0.1142(2) 0.52193(11) 0.39025(12)
C5 C -0.1019(2) 0.53020(11) 0.30663(12)
C6 C 0.0196(2) 0.51727(11) 0.28918(12)
H1 H 0.02464 0.52133 0.23202
C7 C -0.2393(2) 0.53064(11) 0.41140(13)
H2 H -0.31870 0.54151 0.36727
C8 C 0.2473(2) 0.47616(12) 0.50788(13)
H3 H 0.33229 0.47015 0.49653
C9 C 1.1262(2) 0.27456(13) 0.58785(15)
H4 H 1.17091 0.31523 0.62355
C10 C 1.0065(2) 0.29050(12) 0.52793(14)
H5 H 0.97113 0.34139 0.52263
C11 C 0.9371(2) 0.23211(11) 0.47502(13)
C12 C 0.9961(2) 0.15940(12) 0.48612(14)
H6 H 0.95337 0.11754 0.45162
C13 C 1.1169(2) 0.14804(12) 0.54727(14)
H7 H 1.15523 0.09786 0.55355
C14 C 0.6566(2) 0.33532(13) 0.31664(14)
H8 H 0.63918 0.38564 0.29319
C15 C 0.7786(2) 0.32143(12) 0.37503(14)
H9 H 0.84328 0.36159 0.39062
C16 C 0.8073(2) 0.24847(11) 0.41130(13)
C17 C 0.7084(2) 0.19212(12) 0.38472(14)
H10 H 0.72331 0.14134 0.40719
C18 C 0.5884(2) 0.21052(12) 0.32542(14)
H11 H 0.52234 0.17130 0.30806
N1 N 0.56074(18) 0.28118(11) 0.29115(11)
N2 N 1.18249(18) 0.20432(11) 0.59814(11)
O1 O -0.29436(17) 0.62845(9) 0.24638(10)
O2 O -0.18278(16) 0.57276(9) 0.14866(9)
O3 O -0.33301(17) 0.49415(9) 0.20448(10)
O4 O 0.39516(18) 0.51555(12) 0.37924(12)
O5 O 0.29210(17) 0.39722(9) 0.31570(11)
O6 O 0.2527(2) 0.51579(11) 0.23470(12)
S1 S -0.24043(5) 0.55887(3) 0.21951(3)
S2 S 0.28284(5) 0.48054(3) 0.31878(3)
Ag2 Ag 0.21725(2) 0.24954(2) 0.35580(2)
C19 C 0.9802(2) 0.17718(12) 0.72038(14)
H12 H 1.03843 0.13382 0.72686
C20 C 0.8563(2) 0.17340(12) 0.66136(13)
H13 H 0.82941 0.12797 0.62855
C21 C 0.7704(2) 0.23705(11) 0.65021(12)
C22 C 0.8136(2) 0.30125(12) 0.70159(13)
H14 H 0.75741 0.34538 0.69660
C23 C 0.9386(2) 0.30012(12) 0.75975(13)
H15 H 0.96672 0.34418 0.79473
C24 C 0.4440(2) 0.17615(13) 0.49651(14)
H16 H 0.39218 0.13059 0.48044
C25 C 0.5644(2) 0.17129(12) 0.55981(14)
H17 H 0.59512 0.12323 0.58590
C26 C 0.6397(2) 0.23817(12) 0.58460(12)
C27 C 0.5896(2) 0.30694(12) 0.54398(15)
H18 H 0.63761 0.35378 0.55991
C28 C 0.4705(2) 0.30644(13) 0.48085(15)
H19 H 0.43843 0.35356 0.45290
N3 N 1.02259(18) 0.23968(10) 0.76934(11)
N4 N 0.39720(19) 0.24237(11) 0.45681(12)
O7 O 0.39982(17) 0.45715(11) 0.13542(11)
H20 H 0.36375 0.47742 0.17058
H21 H 0.48375 0.47312 0.15788
O8 O 0.2343(2) 0.53089(10) -0.01025(12)
H22 H 0.22652 0.50043 -0.05632
H23 H 0.28082 0.50443 0.03098
C1B C -0.1350(2) 0.50153(11) 0.64696(13)
C2B C -0.1304(2) 0.50771(11) 0.56160(12)
C3B C -0.0042(2) 0.49659(10) 0.54310(12)
C4B C 0.1142(2) 0.47807(11) 0.60975(12)
C5B C 0.1019(2) 0.46980(11) 0.69337(12)
C6B C -0.0196(2) 0.48273(11) 0.71082(12)
H1B H -0.02464 0.47867 0.76798
C7B C 0.2393(2) 0.46936(11) 0.58860(13)
H2B H 0.31870 0.45849 0.63274
C8B C -0.2473(2) 0.52384(12) 0.49212(13)
H3B H -0.33229 0.52985 0.50347
O1B O 0.29436(17) 0.37155(9) 0.75362(10)
O2B O 0.18278(16) 0.42724(9) 0.85134(9)
O3B O 0.33301(17) 0.50585(9) 0.79552(10)
O4B O -0.39516(18) 0.48445(12) 0.62076(12)
O5B O -0.29210(17) 0.60278(9) 0.68430(11)
O6B O -0.2527(2) 0.48421(11) 0.76530(12)
S1B S 0.24043(5) 0.44113(3) 0.78049(3)
S2B S -0.28284(5) 0.51946(3) 0.68122(3)
Ag1B Ag -0.36981(2) 0.68977(2) 0.80034(2)
C9B C -1.1262(2) 0.72544(13) 0.41215(15)
H4B H -1.17091 0.68477 0.37645
C10B C -1.0065(2) 0.70950(12) 0.47207(14)
H5B H -0.97113 0.65861 0.47737
C11B C -0.9371(2) 0.76789(11) 0.52498(13)
C12B C -0.9961(2) 0.84060(12) 0.51388(14)
H6B H -0.95337 0.88246 0.54838
C13B C -1.1169(2) 0.85196(12) 0.45273(14)
H7B H -1.15523 0.90214 0.44645
C14B C -0.6566(2) 0.66468(13) 0.68336(14)
H8B H -0.63918 0.61435 0.70681
C15B C -0.7786(2) 0.67857(12) 0.62497(14)
H9B H -0.84328 0.63841 0.60938
C16B C -0.8073(2) 0.75153(11) 0.58870(13)
C17B C -0.7084(2) 0.80788(12) 0.61528(14)
H10B H -0.72331 0.85866 0.59281
C18B C -0.5884(2) 0.78948(12) 0.67458(14)
H11B H -0.52234 0.82870 0.69193
N1B N -0.56074(18) 0.71882(11) 0.70885(11)
N2B N -1.18249(18) 0.79568(11) 0.40186(11)
Ag1A Ag -1.36981(2) 0.81023(2) 0.30034(2)
Ag1C Ag 1.36981(2) 0.18977(2) 0.69966(2)
N2A N -0.18249(18) 0.70432(11) 0.90186(11)
N2C N 0.18249(18) 0.29568(11) 0.09814(11)
Ag2C Ag 1.21725(2) 0.25046(2) 0.85580(2)
N3C N 0.02259(18) 0.26032(10) 0.26934(11)
#END
