
#######################################################################
#
#                 Cambridge Crystallographic Data Centre
#                                CCDC
#
#######################################################################
#
# If this CIF has been generated from an entry in the Cambridge
# Structural Database, then it will include bibliographic, chemical,
# crystal, experimental, refinement or atomic coordinate data resulting
# from the CCDC's data processing and validation procedures.
#
#######################################################################

data_CSD_CIF_KADVAM
_audit_creation_date 1989-07-31
_audit_creation_method CSD-ConQuest-V1
_database_code_CSD KADVAM
_database_code_depnum_ccdc_archive 'CCDC 1192083'
_chemical_formula_sum 'C10 H21 Cl4 N1 O8 Re2'
_chemical_formula_moiety
;
(C3 H3 Cl4 O6 Re2 1-)n,n(C6 H16 N1 1+),n(C1 H2 O2)
;
_journal_coden_Cambridge 233
_journal_volume 33
_journal_year 1988
_journal_page_first 810
_journal_name_full 'Zh.Neorg.Khim.(Russ.)(Russ.J.Inorg.Chem.) '
loop_
_publ_author_name
"N.S.Osmanov"
"A.S.Kotel'nikova"
"P.A.Koz'min"
"T.A.Abbasova"
"M.D.Surazhskaya"
"T.B.Larina"
_chemical_name_systematic
;
catena-(Triethylammonium tris(\m~2~-formato-O,O')-bis(dichloro-rhenium(iii)) 
formic acid solvate)
;
_cell_volume   2094.868
_exptl_special_details
;
Volume reported as 2098

;
_diffrn_ambient_temperature ?
_diffrn_special_details
;
The study was carried out at room temperature,in the range 283-303K

;
#These two values have been output from a single CSD field.
_refine_ls_R_factor_gt 0.05
_refine_ls_wR_factor_gt 0.05
_symmetry_cell_setting monoclinic
_symmetry_space_group_name_H-M 'P 21/c'
_symmetry_Int_Tables_number 14
loop_
_symmetry_equiv_pos_site_id
_symmetry_equiv_pos_as_xyz
1 x,y,z
2 -x,1/2+y,1/2-z
3 -x,-y,-z
4 x,-1/2-y,-1/2+z
_cell_length_a 8.836(4)
_cell_length_b 14.712(6)
_cell_length_c 16.186(7)
_cell_angle_alpha 90
_cell_angle_beta 95.37(4)
_cell_angle_gamma 90
_cell_formula_units_Z 4
loop_
_atom_type_symbol
_atom_type_radius_bond
C 0.68
Cl 0.99
N 0.68
O 0.68
Re 1.31
loop_
_atom_site_label
_atom_site_type_symbol
_atom_site_fract_x
_atom_site_fract_y
_atom_site_fract_z
Re1 Re 0.14104(7) 0.23172(7) 0.05553(4)
Re2 Re -0.11393(7) 0.22919(6) 0.04730(4)
Cl1 Cl 0.1885(6) 0.1870(4) -0.0756(3)
Cl2 Cl 0.2001(6) 0.3811(4) 0.0253(4)
Cl3 Cl -0.1785(6) 0.1809(4) -0.0871(3)
Cl4 Cl -0.1832(6) 0.3758(3) 0.0090(3)
O1 O 0.143(1) 0.0984(9) 0.0920(8)
O2 O 0.151(1) 0.268(1) 0.1778(8)
O3 O -0.105(1) 0.266(1) 0.1721(8)
O4 O -0.107(1) 0.0946(9) 0.0822(8)
O5 O 0.399(1) 0.2050(9) 0.0992(8)
O6 O 0.640(1) 0.205(1) 0.0839(8)
C1 C 0.028(2) 0.277(2) 0.213(1)
C2 C 0.025(2) 0.058(1) 0.097(1)
C3 C 0.514(2) 0.232(1) 0.058(1)
O7 O 0.005(4) 0.111(2) 0.330(2)
O8 O -0.018(3) -0.017(2) 0.272(1)
C4 C -0.008(3) 0.028(2) 0.337(2)
N1 N 0.497(2) 0.076(1) 0.222(1)
C5 C 0.607(3) 0.012(2) 0.182(2)
C6 C 0.357(3) 0.026(3) 0.253(2)
C7 C 0.586(4) 0.133(3) 0.286(2)
C8 C 0.528(4) -0.025(2) 0.099(3)
C9 C 0.417(4) -0.036(4) 0.334(3)
C10 C 0.459(4) 0.201(3) 0.320(2)
O6* O -0.360(1) 0.205(1) 0.0839(8)
Re2* Re 0.88607(7) 0.22919(6) 0.04730(4)
#END
