
#######################################################################
#
#                 Cambridge Crystallographic Data Centre
#                                CCDC
#
#######################################################################
#
# If this CIF has been generated from an entry in the Cambridge
# Structural Database, then it will include bibliographic, chemical,
# crystal, experimental, refinement or atomic coordinate data resulting
# from the CCDC's data processing and validation procedures.
#
#######################################################################

data_CSD_CIF_KAGCAY
_audit_creation_date 2010-11-24
_audit_creation_method CSD-ConQuest-V1
_database_code_CSD KAGCAY
_database_code_depnum_ccdc_archive 'CCDC 767852'
_chemical_formula_sum 'C12 H27 Cu3 N7 O15'
_chemical_formula_moiety
;
(C12 H7 Cu3 N6 O7 1-)n,n(H4 N1 1+),8n(H2 O1)
;
_journal_coden_Cambridge 179
_journal_volume 49
_journal_year 2010
_journal_page_first 7308
_journal_name_full 'Angew.Chem.,Int.Ed. '
loop_
_publ_author_name
"E.Q.Procopio"
"F.Linares"
"C.Montoro"
"V.Colombo"
"A.Maspero"
"E.Barea"
"J.A.R.Navarro"
_chemical_name_systematic
;
catena-(Ammonium 
(\m~3~-hydroxo)-tris(\m~3~-pyrazole-4-carboxylato)-tri-copper octahydrate)
;
_cell_volume  27531.297
_exptl_crystal_colour 'blue'
_exptl_crystal_density_diffrn 1.351
_exptl_crystal_description 'prism'
_diffrn_ambient_temperature 298
_refine_special_details
;
A lattice water molecule is equally disordered over two sites by symmetry.

;
#These two values have been output from a single CSD field.
_refine_ls_R_factor_gt 0.0841
_refine_ls_wR_factor_gt 0.0841
_symmetry_cell_setting cubic
_symmetry_space_group_name_H-M 'F d -3 c'
_symmetry_Int_Tables_number 228
loop_
_symmetry_equiv_pos_site_id
_symmetry_equiv_pos_as_xyz
1 x,y,z
2 1/4-x,3/4-y,1/2+z
3 3/4-x,1/2+y,1/4-z
4 1/2+x,1/4-y,3/4-z
5 z,x,y
6 1/2+z,1/4-x,3/4-y
7 1/4-z,3/4-x,1/2+y
8 3/4-z,1/2+x,1/4-y
9 y,z,x
10 3/4-y,1/2+z,1/4-x
11 1/2+y,1/4-z,3/4-x
12 1/4-y,3/4-z,1/2+x
13 3/4+y,1/4+x,-z
14 1/2-y,1/2-x,1/2-z
15 1/4+y,-x,3/4+z
16 -y,3/4+x,1/4+z
17 3/4+x,1/4+z,-y
18 -x,3/4+z,1/4+y
19 1/2-x,1/2-z,1/2-y
20 1/4+x,-z,3/4+y
21 3/4+z,1/4+y,-x
22 1/4+z,-y,3/4+x
23 -z,3/4+y,1/4+x
24 1/2-z,1/2-y,1/2-x
25 x,1/2+y,1/2+z
26 1/4-x,1/4-y,z
27 3/4-x,y,3/4-z
28 1/2+x,3/4-y,1/4-z
29 z,1/2+x,1/2+y
30 1/2+z,3/4-x,1/4-y
31 1/4-z,1/4-x,y
32 3/4-z,x,3/4-y
33 y,1/2+z,1/2+x
34 3/4-y,z,3/4-x
35 1/2+y,3/4-z,1/4-x
36 1/4-y,1/4-z,x
37 3/4+y,3/4+x,1/2-z
38 1/2-y,-x,-z
39 1/4+y,1/2-x,1/4+z
40 -y,1/4+x,3/4+z
41 3/4+x,3/4+z,1/2-y
42 -x,1/4+z,3/4+y
43 1/2-x,-z,-y
44 1/4+x,1/2-z,1/4+y
45 3/4+z,3/4+y,1/2-x
46 1/4+z,1/2-y,1/4+x
47 -z,1/4+y,3/4+x
48 1/2-z,-y,-x
49 1/2+x,y,1/2+z
50 3/4-x,3/4-y,z
51 1/4-x,1/2+y,3/4-z
52 x,1/4-y,1/4-z
53 1/2+z,x,1/2+y
54 z,1/4-x,1/4-y
55 3/4-z,3/4-x,y
56 1/4-z,1/2+x,3/4-y
57 1/2+y,z,1/2+x
58 1/4-y,1/2+z,3/4-x
59 y,1/4-z,1/4-x
60 3/4-y,3/4-z,x
61 1/4+y,1/4+x,1/2-z
62 -y,1/2-x,-z
63 3/4+y,-x,1/4+z
64 1/2-y,3/4+x,3/4+z
65 1/4+x,1/4+z,1/2-y
66 1/2-x,3/4+z,3/4+y
67 -x,1/2-z,-y
68 3/4+x,-z,1/4+y
69 1/4+z,1/4+y,1/2-x
70 3/4+z,-y,1/4+x
71 1/2-z,3/4+y,3/4+x
72 -z,1/2-y,-x
73 1/2+x,1/2+y,z
74 3/4-x,1/4-y,1/2+z
75 1/4-x,y,1/4-z
76 x,3/4-y,3/4-z
77 1/2+z,1/2+x,y
78 z,3/4-x,3/4-y
79 3/4-z,1/4-x,1/2+y
80 1/4-z,x,1/4-y
81 1/2+y,1/2+z,x
82 1/4-y,z,1/4-x
83 y,3/4-z,3/4-x
84 3/4-y,1/4-z,1/2+x
85 1/4+y,3/4+x,-z
86 -y,-x,1/2-z
87 3/4+y,1/2-x,3/4+z
88 1/2-y,1/4+x,1/4+z
89 1/4+x,3/4+z,-y
90 1/2-x,1/4+z,1/4+y
91 -x,-z,1/2-y
92 3/4+x,1/2-z,3/4+y
93 1/4+z,3/4+y,-x
94 3/4+z,1/2-y,3/4+x
95 1/2-z,1/4+y,1/4+x
96 -z,-y,1/2-x
97 -x,-y,-z
98 -1/4+x,-3/4+y,-1/2-z
99 -3/4+x,-1/2-y,-1/4+z
100 -1/2-x,-1/4+y,-3/4+z
101 -z,-x,-y
102 -1/2-z,-1/4+x,-3/4+y
103 -1/4+z,-3/4+x,-1/2-y
104 -3/4+z,-1/2-x,-1/4+y
105 -y,-z,-x
106 -3/4+y,-1/2-z,-1/4+x
107 -1/2-y,-1/4+z,-3/4+x
108 -1/4+y,-3/4+z,-1/2-x
109 -3/4-y,-1/4-x,z
110 -1/2+y,-1/2+x,-1/2+z
111 -1/4-y,x,-3/4-z
112 y,-3/4-x,-1/4-z
113 -3/4-x,-1/4-z,y
114 x,-3/4-z,-1/4-y
115 -1/2+x,-1/2+z,-1/2+y
116 -1/4-x,z,-3/4-y
117 -3/4-z,-1/4-y,x
118 -1/4-z,y,-3/4-x
119 z,-3/4-y,-1/4-x
120 -1/2+z,-1/2+y,-1/2+x
121 -x,-1/2-y,-1/2-z
122 -1/4+x,-1/4+y,-z
123 -3/4+x,-y,-3/4+z
124 -1/2-x,-3/4+y,-1/4+z
125 -z,-1/2-x,-1/2-y
126 -1/2-z,-3/4+x,-1/4+y
127 -1/4+z,-1/4+x,-y
128 -3/4+z,-x,-3/4+y
129 -y,-1/2-z,-1/2-x
130 -3/4+y,-z,-3/4+x
131 -1/2-y,-3/4+z,-1/4+x
132 -1/4+y,-1/4+z,-x
133 -3/4-y,-3/4-x,-1/2+z
134 -1/2+y,x,z
135 -1/4-y,-1/2+x,-1/4-z
136 y,-1/4-x,-3/4-z
137 -3/4-x,-3/4-z,-1/2+y
138 x,-1/4-z,-3/4-y
139 -1/2+x,z,y
140 -1/4-x,-1/2+z,-1/4-y
141 -3/4-z,-3/4-y,-1/2+x
142 -1/4-z,-1/2+y,-1/4-x
143 z,-1/4-y,-3/4-x
144 -1/2+z,y,x
145 -1/2-x,-y,-1/2-z
146 -3/4+x,-3/4+y,-z
147 -1/4+x,-1/2-y,-3/4+z
148 -x,-1/4+y,-1/4+z
149 -1/2-z,-x,-1/2-y
150 -z,-1/4+x,-1/4+y
151 -3/4+z,-3/4+x,-y
152 -1/4+z,-1/2-x,-3/4+y
153 -1/2-y,-z,-1/2-x
154 -1/4+y,-1/2-z,-3/4+x
155 -y,-1/4+z,-1/4+x
156 -3/4+y,-3/4+z,-x
157 -1/4-y,-1/4-x,-1/2+z
158 y,-1/2+x,z
159 -3/4-y,x,-1/4-z
160 -1/2+y,-3/4-x,-3/4-z
161 -1/4-x,-1/4-z,-1/2+y
162 -1/2+x,-3/4-z,-3/4-y
163 x,-1/2+z,y
164 -3/4-x,z,-1/4-y
165 -1/4-z,-1/4-y,-1/2+x
166 -3/4-z,y,-1/4-x
167 -1/2+z,-3/4-y,-3/4-x
168 z,-1/2+y,x
169 -1/2-x,-1/2-y,-z
170 -3/4+x,-1/4+y,-1/2-z
171 -1/4+x,-y,-1/4+z
172 -x,-3/4+y,-3/4+z
173 -1/2-z,-1/2-x,-y
174 -z,-3/4+x,-3/4+y
175 -3/4+z,-1/4+x,-1/2-y
176 -1/4+z,-x,-1/4+y
177 -1/2-y,-1/2-z,-x
178 -1/4+y,-z,-1/4+x
179 -y,-3/4+z,-3/4+x
180 -3/4+y,-1/4+z,-1/2-x
181 -1/4-y,-3/4-x,z
182 y,x,-1/2+z
183 -3/4-y,-1/2+x,-3/4-z
184 -1/2+y,-1/4-x,-1/4-z
185 -1/4-x,-3/4-z,y
186 -1/2+x,-1/4-z,-1/4-y
187 x,z,-1/2+y
188 -3/4-x,-1/2+z,-3/4-y
189 -1/4-z,-3/4-y,x
190 -3/4-z,-1/2+y,-3/4-x
191 -1/2+z,-1/4-y,-1/4-x
192 z,y,-1/2+x
_cell_length_a 30.1955(9)
_cell_length_b 30.1955(9)
_cell_length_c 30.1955(9)
_cell_angle_alpha 90
_cell_angle_beta 90
_cell_angle_gamma 90
_cell_formula_units_Z 32
loop_
_atom_type_symbol
_atom_type_radius_bond
C 0.68
H 0.23
Cu 1.37
N 0.68
O 0.68
loop_
_atom_site_label
_atom_site_type_symbol
_atom_site_fract_x
_atom_site_fract_y
_atom_site_fract_z
Cu1 Cu 0.205063(17) 1.00000 0.455063(17)
O1 O 0.25000 1.00000 0.50000
N1 N 0.1792(3) 0.9483(2) 0.4830(3)
C1 C 0.1439(5) 0.9241(4) 0.4721(3)
H1 H 0.12490 0.93010 0.44860
C2 C 0.1398(2) 0.88980 0.5000(2)
C3 C 0.10470 0.8547(2) 0.5000(2)
O2 O 0.0709(4) 0.8618(3) 0.4750(3)
O3 O 0.2652(14) 0.9513(7) 0.4205(9)
N2 N -0.044(4) 0.938(3) 0.0295(16)
O4? O -0.071(3) 0.898(2) 0.426(8)
O5 O -0.010(2) 0.980(3) 0.3917(18)
O6 O -0.12500 0.87500 0.060(4)
Cu1EB Cu 0.250000(17) 0.95506 0.544937(17)
Cu1R Cu 0.294937(17) 1.04494 0.500000(17)
Cu1FE Cu 0.044937(17) 0.79494 0.500000(17)
Cu1BF Cu 0.250000(17) 1.20506 0.294937(17)
Cu1GD Cu 0.000000(17) 1.04494 0.294937(17)
Cu1WC Cu 0.044937(17) 0.95506 0.250000(17)
N1FC N 0.1983(3) 0.9292(2) 0.5170(3)
N1QB N 0.2330(3) 1.0517(2) 0.4292(3)
N1ZB N 0.2670(3) 1.0708(2) 0.4483(3)
N1XD N 0.0517(3) 1.0170(2) 0.3208(3)
N1EG N 0.0708(3) 0.9830(2) 0.3017(3)
N1EB N 0.3017(3) 0.9830(2) 0.5708(3)
N1R N 0.3208(3) 1.0170(2) 0.5517(3)
C1FC C 0.1741(5) 0.8939(4) 0.5279(3)
C1QB C 0.2221(5) 1.0759(4) 0.3939(3)
C1ZB C 0.2779(5) 1.1061(4) 0.4241(3)
C1XD C 0.0759(5) 1.0279(4) 0.3561(3)
C1EG C 0.1061(5) 0.9721(4) 0.3259(3)
H1FC H 0.18010 0.87490 0.55140
H1QB H 0.19860 1.06990 0.37490
H1ZB H 0.30140 1.12510 0.43010
H1XD H 0.06990 1.05140 0.37510
H1EG H 0.12510 0.94860 0.31990
C2QB C 0.2500(2) 1.11020 0.3898(2)
C2XD C 0.1102(2) 1.00000 0.3602(2)
C3QB C 0.25000 1.1453(2) 0.3547(2)
C3XD C 0.14530 1.0000(2) 0.3953(2)
O2FC O 0.1118(4) 0.8209(3) 0.5250(3)
O2QB O 0.2250(4) 1.1382(3) 0.3209(3)
O2ZB O 0.2750(4) 1.1791(3) 0.3618(3)
O2XD O 0.1382(4) 1.0250(3) 0.4291(3)
O2EG O 0.1791(4) 0.9750(3) 0.3882(3)
O2HF O 0.2750(4) 0.8882(3) 0.5709(3)
O2SF O 0.2250(4) 0.9291(3) 0.6118(3)
O2OE O 0.3209(4) 1.1118(3) 0.5250(3)
O2CE O 0.3618(4) 1.0709(3) 0.4750(3)
#END
