
#######################################################################
#
#                 Cambridge Crystallographic Data Centre
#                                CCDC
#
#######################################################################
#
# If this CIF has been generated from an entry in the Cambridge
# Structural Database, then it will include bibliographic, chemical,
# crystal, experimental, refinement or atomic coordinate data resulting
# from the CCDC's data processing and validation procedures.
#
#######################################################################

data_CSD_CIF_KAHYOJ
_audit_creation_date 2011-02-21
_audit_creation_method CSD-ConQuest-V1
_database_code_CSD KAHYOJ
_database_code_depnum_ccdc_archive 'CCDC 752239'
_chemical_formula_sum 'C28 H40 N4 O70 Si1 Tb4 W12'
_chemical_formula_moiety
;
(O40 Si1 W12 4-)n,n(C28 H36 N4 O28 Tb4 4+),2n(H2 O1)
;
_journal_coden_Cambridge 1290
_journal_year 2010
_journal_page_first 4027
_journal_name_full 'Eur.J.Inorg.Chem. '
loop_
_publ_author_name
"Xiaoyu Liu"
"Yanyan Jia"
"Yongfeng Zhang"
"Rudan Huang"
_chemical_name_systematic
;
catena-(tetrakis(\m~3~-Pyridine-2,6-dicarboxylato)-dodeca-aqua-tetra-terbium 
(\m~12~-silicato)-tetracosakis(\m~2~-oxo)-dodecaoxo-dodeca-tungsten 
dihydrate)
;
_cell_volume   7695.663
_diffrn_ambient_temperature 273
#These two values have been output from a single CSD field.
_refine_ls_R_factor_gt 0.0763
_refine_ls_wR_factor_gt 0.0763
_symmetry_cell_setting monoclinic
_symmetry_space_group_name_H-M 'C 2/c'
_symmetry_Int_Tables_number 15
loop_
_symmetry_equiv_pos_site_id
_symmetry_equiv_pos_as_xyz
1 x,y,z
2 -x,y,1/2-z
3 1/2+x,1/2+y,z
4 1/2-x,1/2+y,1/2-z
5 -x,-y,-z
6 x,-y,-1/2+z
7 -1/2-x,-1/2-y,-z
8 -1/2+x,-1/2-y,-1/2+z
_cell_length_a 30.342(6)
_cell_length_b 16.219(3)
_cell_length_c 21.787(4)
_cell_angle_alpha 90
_cell_angle_beta 134.13
_cell_angle_gamma 90
_cell_formula_units_Z 4
loop_
_atom_type_symbol
_atom_type_radius_bond
C 0.68
H 0.23
N 0.68
O 0.68
Si 1.20
Tb 1.94
W 1.39
loop_
_atom_site_label
_atom_site_type_symbol
_atom_site_fract_x
_atom_site_fract_y
_atom_site_fract_z
W1 W 0.06769(3) 0.62048(3) 0.46160(3)
W2 W -0.10716(2) 0.78239(3) 0.11253(3)
W3 W -0.04494(2) 0.78190(3) 0.31369(3)
W4 W 0.10579(2) 0.47417(3) 0.39770(3)
W5 W -0.03342(2) 0.47532(3) 0.32607(3)
W6 W -0.14502(2) 0.63645(3) 0.17700(4)
Tb1 Tb 0.17220(3) 0.12932(4) 0.54317(4)
Tb2 Tb 0.11072(3) 0.12213(4) 0.20103(4)
Si1 Si 0.00000 0.6287(3) 0.25000
O1 O 0.1515(13) 0.1247(7) 0.3446(13)
O2 O 0.1423(4) 0.5600(5) 0.3866(6)
O3 O 0.0121(4) 0.5375(6) 0.4312(6)
O4 O -0.0932(4) 0.5598(6) 0.2685(6)
O5 O 0.0263(4) 0.5707(5) 0.3305(5)
O6 O 0.0408(4) 0.4197(6) 0.3773(6)
O7 O -0.0549(4) 0.6859(6) 0.2232(5)
O8 O 0.0015(4) 0.6983(6) 0.3964(6)
O9 O 0.1075(4) 0.6959(6) 0.4472(6)
O10 O 0.0647(4) 0.4469(6) 0.2826(6)
O11 O -0.1529(5) 0.8538(6) 0.0333(7)
O12 O -0.0309(4) 0.8112(6) 0.1552(6)
O13 O -0.1182(5) 0.7209(6) 0.2579(6)
O14 O -0.0878(4) 0.8361(5) 0.2066(6)
O15 O -0.0664(5) 0.4030(6) 0.3408(7)
O16 O 0.0981(6) 0.6444(7) 0.5612(6)
O17 O -0.1667(5) 0.7201(6) 0.0996(6)
O18 O 0.1213(4) 0.5354(6) 0.4856(6)
O19 O -0.0480(5) 0.8553(6) 0.3678(7)
O20 O 0.1367(6) 0.0190(7) 0.1472(7)
O21 O 0.2482(5) 0.2726(6) 0.3542(7)
O22 O 0.1607(5) 0.4004(6) 0.4544(7)
O23 O 0.2172(5) 0.1525(6) 0.2862(6)
N1 N 0.1677(5) -0.0023(6) 0.2912(7)
N2 N 0.3612(5) 0.2434(7) 0.4385(7)
O24 O -0.2145(5) 0.6114(7) 0.1410(8)
O25 O 0.1256(5) 0.2604(7) 0.2486(7)
O26 O 0.1772(7) 0.0586(7) 0.4529(8)
O27 O 0.2665(6) 0.0616(8) 0.6325(8)
C1 C 0.1881(6) -0.0091(8) 0.3696(7)
O28 O 0.1341(7) -0.0074(7) 0.5209(9)
O29 O 0.1064(6) 0.1818(7) 0.0976(8)
C2 C 0.3405(7) 0.1139(9) 0.3717(10)
H1 H 0.31200 0.07340 0.33380
O30 O 0.4343(5) 0.3610(7) 0.5433(8)
O31 O 0.1571(9) 0.2273(8) 0.4481(10)
C3 C 0.2237(7) -0.0734(9) 0.4237(9)
H2 H 0.23770 -0.07460 0.47760
C4 C 0.3225(6) 0.1844(8) 0.3846(8)
C5 C 0.2186(8) -0.1305(9) 0.3173(9)
H3 H 0.22830 -0.17110 0.29820
C6 C 0.2573(6) 0.2046(8) 0.3376(9)
C7 C 0.1839(6) -0.0625(8) 0.2679(8)
C8 C 0.4224(6) 0.2326(9) 0.4849(9)
C9 C 0.4440(6) 0.1628(10) 0.4764(9)
H4 H 0.48580 0.15510 0.51020
C10 C 0.4620(7) 0.3015(10) 0.5469(9)
C11 C 0.2389(7) -0.1353(9) 0.3994(9)
H5 H 0.26190 -0.18000 0.43530
C12 C 0.1727(10) 0.0641(10) 0.3922(11)
O32 O 0.0303(6) 0.0269(9) 0.123(2)
C13 C 0.4015(6) 0.1045(11) 0.4160(9)
H6 H 0.41420 0.05920 0.40540
O33 O 0.3137(12) 0.0694(14) 0.7866(11)
O34 O 0.2893(8) 0.3007(12) 0.8555(13)
O35 O 0.5178(5) 0.2971(7) 0.5932(8)
O36 O 0.1771(5) -0.1012(7) 0.1556(6)
C14 C 0.1630(6) -0.0467(8) 0.1813(8)
O5A O -0.0263(4) 0.5707(5) 0.1695(5)
O7A O 0.0549(4) 0.6859(6) 0.2768(5)
W1A W -0.06769(3) 0.62048(3) 0.03840(3)
W2A W 0.10716(2) 0.78239(3) 0.38747(3)
W3A W 0.04494(2) 0.78190(3) 0.18631(3)
W4A W -0.10579(2) 0.47417(3) 0.10230(3)
W5A W 0.03342(2) 0.47532(3) 0.17393(3)
W6A W 0.14502(2) 0.63645(3) 0.32300(4)
O9A O -0.1075(4) 0.6959(6) 0.0528(6)
O12A O 0.0309(4) 0.8112(6) 0.3448(6)
O10A O -0.0647(4) 0.4469(6) 0.2174(6)
O2A O -0.1423(4) 0.5600(5) 0.1134(6)
O3A O -0.0121(4) 0.5375(6) 0.0688(6)
O8A O -0.0015(4) 0.6983(6) 0.1036(6)
O16A O -0.0981(6) 0.6444(7) -0.0612(6)
O18A O -0.1213(4) 0.5354(6) 0.0144(6)
O11A O 0.1529(5) 0.8538(6) 0.4667(7)
O14A O 0.0878(4) 0.8361(5) 0.2934(6)
O17A O 0.1667(5) 0.7201(6) 0.4004(6)
O13A O 0.1182(5) 0.7209(6) 0.2421(6)
O19A O 0.0480(5) 0.8553(6) 0.1322(7)
O6A O -0.0408(4) 0.4197(6) 0.1227(6)
O22A O -0.1607(5) 0.4004(6) 0.0456(7)
O4A O 0.0932(4) 0.5598(6) 0.2315(6)
O15A O 0.0664(5) 0.4030(6) 0.1592(7)
O24A O 0.2145(5) 0.6114(7) 0.3590(8)
O1E O 0.1515(13) -0.1247(7) 0.8446(13)
O20E O 0.1367(6) -0.0190(7) 0.6472(7)
N1E N 0.1677(5) 0.0023(6) 0.7912(7)
O26E O 0.1772(7) -0.0586(7) 0.9529(8)
C1E C 0.1881(6) 0.0091(8) 0.8696(7)
C3E C 0.2237(7) 0.0734(9) 0.9237(9)
H2E H 0.23770 0.07460 0.97760
C5E C 0.2186(8) 0.1305(9) 0.8173(9)
H3E H 0.22830 0.17110 0.79820
C7E C 0.1839(6) 0.0625(8) 0.7679(8)
C11E C 0.2389(7) 0.1353(9) 0.8994(9)
H5E H 0.26190 0.18000 0.93530
C12E C 0.1727(10) -0.0641(10) 0.8922(11)
O36E O 0.1771(5) 0.1012(7) 0.6556(6)
C14E C 0.1630(6) 0.0467(8) 0.6813(8)
Tb1E Tb 0.17220(3) -0.12932(4) 1.04317(4)
Tb2E Tb 0.11072(3) -0.12213(4) 0.70103(4)
O21F O 0.2518(5) 0.2274(6) 0.6458(7)
N2F N 0.1388(5) 0.2566(7) 0.5615(7)
O30F O 0.0657(5) 0.1390(7) 0.4567(8)
O35G O 0.0178(5) 0.2029(7) 0.0932(8)
Tb1E* Tb 0.17220(3) -0.12932(4) 0.04317(4)
Tb1F Tb 0.32780(3) 0.37068(4) 0.45683(4)
Tb2G Tb 0.61072(3) 0.37787(4) 0.70103(4)
C10G C -0.0380(7) 0.1985(10) 0.0469(9)
O21C O 0.2518(5) -0.2274(6) 0.1458(7)
N2C N 0.1388(5) -0.2566(7) 0.0615(7)
O26E* O 0.1772(7) -0.0586(7) -0.0471(8)
O27E O 0.2665(6) -0.0616(8) 0.1325(8)
O28E O 0.1341(7) 0.0074(7) 0.0209(9)
O30C O 0.0657(5) -0.1390(7) -0.0433(8)
O31E O 0.1571(9) -0.2273(8) -0.0519(10)
O1G O 0.6515(13) 0.3753(7) 0.8446(13)
O20G O 0.6367(6) 0.4810(7) 0.6472(7)
O23G O 0.7172(5) 0.3475(6) 0.7862(6)
N1G N 0.6677(5) 0.5023(6) 0.7912(7)
O25G O 0.6256(5) 0.2396(7) 0.7486(7)
O29G O 0.6064(6) 0.3182(7) 0.5976(8)
O32G O 0.5303(6) 0.4731(9) 0.623(2)
O30G O -0.0657(5) 0.1390(7) 0.0433(8)
C8G C -0.0776(6) 0.2674(9) -0.0151(9)
Tb1A Tb -0.17220(3) 0.12932(4) -0.04317(4)
N2G N -0.1388(5) 0.2566(7) -0.0615(7)
C9G C -0.0560(6) 0.3372(10) -0.0236(9)
O21G O -0.2518(5) 0.2274(6) -0.1458(7)
C4G C -0.1775(6) 0.3156(8) -0.1154(8)
H4G H -0.01420 0.34490 0.01020
C13G C -0.0985(6) 0.3955(11) -0.0840(9)
C6G C -0.2427(6) 0.2954(8) -0.1624(9)
C2G C -0.1595(7) 0.3861(9) -0.1283(10)
H6G H -0.08580 0.44080 -0.09460
O23G* O -0.2828(5) 0.3475(6) -0.2138(6)
H1G H -0.18800 0.42660 -0.16620
Tb2G* Tb -0.38928(3) 0.37787(4) -0.29897(4)
#END
