
#######################################################################
#
#                 Cambridge Crystallographic Data Centre
#                                CCDC
#
#######################################################################
#
# If this CIF has been generated from an entry in the Cambridge
# Structural Database, then it will include bibliographic, chemical,
# crystal, experimental, refinement or atomic coordinate data resulting
# from the CCDC's data processing and validation procedures.
#
#######################################################################

data_CSD_CIF_KAHYUP
_audit_creation_date 2011-02-21
_audit_creation_method CSD-ConQuest-V1
_database_code_CSD KAHYUP
_database_code_depnum_ccdc_archive 'CCDC 752240'
_chemical_formula_sum 'C28 H48 Dy4 N4 O74 Si1 W12'
_chemical_formula_moiety
;
(O40 Si1 W12 4-)n,n(C28 H40 Dy4 N4 O30 4+),4n(H2 O1)
;
_journal_coden_Cambridge 1290
_journal_year 2010
_journal_page_first 4027
_journal_name_full 'Eur.J.Inorg.Chem. '
loop_
_publ_author_name
"Xiaoyu Liu"
"Yanyan Jia"
"Yongfeng Zhang"
"Rudan Huang"
_chemical_name_systematic
;
catena-(tetrakis(\m~3~-Pyridine-2,6-dicarboxylato)-tetradeca-aqua-tetra-dyspro
sium (\m~12~-silicato)-tetracosakis(\m~2~-oxo)-dodecaoxo-dodeca-tungsten 
tetrahydrate)
;
_cell_volume   7791.719
_diffrn_ambient_temperature 273
#These two values have been output from a single CSD field.
_refine_ls_R_factor_gt 0.0897
_refine_ls_wR_factor_gt 0.0897
_symmetry_cell_setting monoclinic
_symmetry_space_group_name_H-M 'C 2/c'
_symmetry_Int_Tables_number 15
loop_
_symmetry_equiv_pos_site_id
_symmetry_equiv_pos_as_xyz
1 x,y,z
2 -x,y,1/2-z
3 1/2+x,1/2+y,z
4 1/2-x,1/2+y,1/2-z
5 -x,-y,-z
6 x,-y,-1/2+z
7 -1/2-x,-1/2-y,-z
8 -1/2+x,-1/2-y,-1/2+z
_cell_length_a 30.418(10)
_cell_length_b 16.302(5)
_cell_length_c 21.780(12)
_cell_angle_alpha 90
_cell_angle_beta 133.826(3)
_cell_angle_gamma 90
_cell_formula_units_Z 4
loop_
_atom_type_symbol
_atom_type_radius_bond
C 0.68
H 0.23
Dy 1.46
N 0.68
O 0.68
Si 1.20
W 1.39
loop_
_atom_site_label
_atom_site_type_symbol
_atom_site_fract_x
_atom_site_fract_y
_atom_site_fract_z
O1 O 0.1761(11) 0.4538(12) -0.0900(12)
O2 O 0.2281(8) 0.3507(11) 0.1571(11)
C1 C 0.1653(13) 0.4490(17) -0.0444(15)
W1 W 0.14364(4) 0.87092(5) 0.96184(6)
W2 W 0.02996(4) 1.03255(5) 0.88711(6)
W3 W 0.10889(4) 1.03181(5) 0.81424(6)
W4 W 0.04143(4) 0.72487(5) 0.89714(6)
W5 W -0.07247(5) 0.88693(5) 0.82247(6)
W6 W 0.10968(4) 0.72622(5) 0.82636(6)
Dy1 Dy 0.12092(5) 0.38037(6) 0.04512(7)
Dy2 Dy 0.16001(6) 0.37130(7) -0.19876(8)
Si1 Si 0.00000 0.8793(4) 0.75000
O3 O 0.4444(10) 0.1216(14) 0.3481(19)
O4 O 0.0642(7) 1.0609(10) 0.8437(10)
O5 O 0.0866(8) 0.6716(10) 0.8784(11)
O6 O 0.1275(8) 0.9722(10) 0.7608(10)
O7 O 0.1834(9) 0.5988(11) 0.2180(11)
O8 O -0.0442(7) 1.0862(9) 0.7932(11)
O9 O 0.1650(9) 1.1054(12) 0.8673(12)
O10 O 0.0698(19) 0.367(3) -0.218(3)
O11 O 0.0439(9) 0.6523(11) 0.9563(11)
O12 O 0.0900(8) 0.9468(10) 0.9483(10)
O13 O 0.1137(7) 0.786(1) 0.9844(10)
O14 O 0.0621(9) 1.1053(11) 0.9649(13)
O15 O 0.1447(8) 0.9464(10) 0.8962(11)
C2 C 0.1703(11) 0.5449(13) 0.1637(14)
O16 O -0.0312(6) 0.6964(9) 0.7833(9)
O17 O 0.1271(10) 0.5116(12) -0.2475(13)
O18 O -0.0058(8) 0.8097(10) 0.8862(10)
O19 O 0.1379(10) 0.3907(10) -0.0444(11)
O20 O 0.2598(8) 0.2337(10) 0.1458(10)
O21 O 0.1688(8) 0.7863(10) 0.9313(10)
O22 O 0.1184(13) 0.3114(16) 0.1386(16)
O23 O -0.0271(7) 0.9361(10) 0.7772(10)
O24 O -0.1111(7) 0.8127(10) 0.7314(10)
O25 O 0.0537(7) 0.8214(9) 0.8300(9)
O26 O 0.1432(9) 0.4776(11) 0.1476(12)
O27 O 0.2126(8) 0.8945(13) 1.0615(12)
O28 O -0.1071(10) 0.8630(12) 0.8575(14)
N1 N 0.1743(10) 0.5083(11) 0.0635(12)
O29 O 0.1570(9) 0.6539(11) 0.8397(11)
N2 N 0.3731(10) 0.2529(11) 0.2920(13)
C3 C 0.2194(12) 0.6359(14) 0.1304(16)
H1 H 0.23010 0.67480 0.17010
O30 O 0.040(1) 0.4780(11) -0.0503(16)
C4 C 0.1881(11) 0.5646(16) 0.1170(14)
O31 O -0.0164(8) 0.9708(10) 0.9018(10)
O32 O 0.5260(8) 0.1931(12) 0.4541(13)
C5 C 0.4509(11) 0.3230(15) 0.4240(13)
H2 H 0.49080 0.32500 0.47680
C6 C 0.3501(12) 0.3801(16) 0.3175(15)
H3 H 0.32240 0.42190 0.29880
C7 C 0.1883(12) 0.5195(15) 0.0185(15)
O33 O 0.1347(10) 0.2430(11) 0.0194(15)
C8 C 0.3331(9) 0.3139(12) 0.2673(13)
C9 C 0.2680(11) 0.2990(13) 0.1819(13)
C10 C 0.2342(11) 0.6477(14) 0.0834(15)
H4 H 0.25320 0.69570 0.08910
C11 C 0.410(1) 0.3845(14) 0.3981(15)
H5 H 0.42200 0.42870 0.43380
C12 C 0.2202(13) 0.5868(16) 0.0282(16)
H6 H 0.23180 0.59090 -0.00140
C13 C 0.4305(11) 0.2584(15) 0.3687(15)
O34 O 0.2596(11) 0.4321(16) -0.0952(15)
C14 C 0.4715(11) 0.1862(15) 0.3946(18)
O35 O 0.2258(18) 0.3178(18) 0.2877(19)
O36 O 0.3189(14) 0.549(2) 0.361(2)
O37 O 0.167(3) 0.277(2) -0.107(4)
O38 O 0.00000 0.490(4) 0.25000
O39 O 0.00000 0.767(3) 0.25000
O1E O 0.1761(11) 0.5462(12) -0.5900(12)
O1F O 0.3239(11) 0.0462(12) 0.0900(12)
O2G O -0.2719(8) 0.1493(11) -0.3429(11)
C1E C 0.1653(13) 0.5510(17) -0.5444(15)
W1A W -0.14364(4) 0.87092(5) 0.53816(6)
W2A W -0.02996(4) 1.03255(5) 0.61289(6)
W3A W -0.10889(4) 1.03181(5) 0.68576(6)
W4A W -0.04143(4) 0.72487(5) 0.60286(6)
W5A W 0.07247(5) 0.88693(5) 0.67753(6)
W6A W -0.10968(4) 0.72622(5) 0.67364(6)
Dy1G Dy -0.37908(5) 0.11963(6) -0.45488(7)
Dy1G* Dy 0.62092(5) 0.11963(6) 0.54512(7)
Dy1E Dy 0.12092(5) 0.61963(6) -0.45488(7)
Dy2F Dy 0.33999(6) 0.12870(7) 0.19876(8)
Dy2E Dy 0.16001(6) 0.62870(7) 0.30124(8)
Dy2A Dy -0.16001(6) 0.37130(7) -0.30124(8)
Dy2E* Dy 0.16001(6) 0.62870(7) -0.69876(8)
O3G O -0.0556(10) 0.3784(14) -0.1519(19)
O3F O 0.0556(10) 0.3784(14) -0.3481(19)
O4A O -0.0642(7) 1.0609(10) 0.6563(10)
O5A O -0.0866(8) 0.6716(10) 0.6216(11)
O6A O -0.1275(8) 0.9722(10) 0.7392(10)
O7E O 0.1834(9) 0.4012(11) -0.2820(11)
O7C O 0.3166(9) 0.0988(11) 0.2820(11)
O8A O 0.0442(7) 1.0862(9) 0.7068(11)
O9A O -0.1650(9) 1.1054(12) 0.6327(12)
O10F O 0.4302(19) 0.133(3) 0.218(3)
O11A O -0.0439(9) 0.6523(11) 0.5437(11)
O12A O -0.0900(8) 0.9468(10) 0.5517(10)
O13A O -0.1137(7) 0.786(1) 0.5156(10)
O14A O -0.0621(9) 1.1053(11) 0.5351(13)
O15A O -0.1447(8) 0.9464(10) 0.6038(11)
C2E C 0.1703(11) 0.4551(13) -0.3363(14)
O16A O 0.0312(6) 0.6964(9) 0.7167(9)
O17F O 0.3729(10) -0.0116(12) 0.2475(13)
O18A O 0.0058(8) 0.8097(10) 0.6138(10)
O19E O 0.1379(10) 0.6093(10) -0.5444(11)
O19G O -0.3621(10) 0.1093(10) -0.5444(11)
O20G O -0.2402(8) 0.2663(10) -0.3542(10)
O20F O 0.2402(8) 0.2663(10) -0.1458(10)
O21A O -0.1688(8) 0.7863(10) 0.5687(10)
O22G O -0.3816(13) 0.1886(16) -0.3614(16)
O23A O 0.0271(7) 0.9361(10) 0.7228(10)
O24A O 0.1111(7) 0.8127(10) 0.7686(10)
O25A O -0.0537(7) 0.8214(9) 0.6700(9)
O26E O 0.1432(9) 0.5224(11) -0.3524(12)
O26G O -0.3568(9) 0.0224(11) -0.3524(12)
O27A O -0.2126(8) 0.8945(13) 0.4385(12)
O28A O 0.1071(10) 0.8630(12) 0.6425(14)
N1E N 0.1743(10) 0.4917(11) -0.4365(12)
N1G N -0.3257(10) -0.0083(11) -0.4365(12)
O29A O -0.1570(9) 0.6539(11) 0.6603(11)
N2G N -0.1269(10) 0.2471(11) -0.2080(13)
N2F N 0.1269(10) 0.2471(11) -0.2920(13)
C3E C 0.2194(12) 0.3641(14) -0.3696(16)
H1E H 0.23010 0.32520 -0.32990
O30G O -0.460(1) 0.0220(11) -0.5503(16)
C4E C 0.1881(11) 0.4354(16) -0.3830(14)
O31A O 0.0164(8) 0.9708(10) 0.5982(10)
O32G O 0.0260(8) 0.3069(12) -0.0459(13)
O32* O -0.4740(8) 0.1931(12) -0.5459(13)
C5G C -0.0491(11) 0.1770(15) -0.0760(13)
H2G H -0.00920 0.17500 -0.02320
C6G C -0.1499(12) 0.1199(16) -0.1825(15)
H3G H -0.17760 0.07810 -0.20120
C7E C 0.1883(12) 0.4805(15) -0.4815(15)
O33G O -0.3653(10) 0.2570(11) -0.4806(15)
C8G C -0.1669(9) 0.1861(12) -0.2327(13)
C9G C -0.2320(11) 0.2010(13) -0.3181(13)
C10E C 0.2342(11) 0.3523(14) -0.4166(15)
H4E H 0.25320 0.30430 -0.41090
C11G C -0.090(1) 0.1155(14) -0.1019(15)
H5G H -0.07800 0.07130 -0.06620
C12E C 0.2202(13) 0.4132(16) -0.4718(16)
H6E H 0.23180 0.40910 -0.50140
C13G C -0.0695(11) 0.2416(15) -0.1313(15)
O34F O 0.2404(11) 0.0679(16) 0.0952(15)
C14G C -0.0285(11) 0.3138(15) -0.1054(18)
O37F O 0.333(3) 0.223(2) 0.107(4)
#END
