
#######################################################################
#
#                 Cambridge Crystallographic Data Centre
#                                CCDC
#
#######################################################################
#
# If this CIF has been generated from an entry in the Cambridge
# Structural Database, then it will include bibliographic, chemical,
# crystal, experimental, refinement or atomic coordinate data resulting
# from the CCDC's data processing and validation procedures.
#
#######################################################################

data_CSD_CIF_KAHYID
_audit_creation_date 2011-02-21
_audit_creation_method CSD-ConQuest-V1
_database_code_CSD KAHYID
_database_code_depnum_ccdc_archive 'CCDC 725110'
_chemical_formula_sum 'C28 H38 Gd4 N4 O69 Si1 W12'
_chemical_formula_moiety
;
(O40 Si1 W12 4-)n,n(C28 H36 Gd4 N4 O28 4+),n(H2 O1)
;
_journal_coden_Cambridge 1290
_journal_year 2010
_journal_page_first 4027
_journal_name_full 'Eur.J.Inorg.Chem. '
loop_
_publ_author_name
"Xiaoyu Liu"
"Yanyan Jia"
"Yongfeng Zhang"
"Rudan Huang"
_chemical_name_systematic
;
catena-(tetrakis(\m~3~-Pyridine-2,6-dicarboxylato)-dodeca-aqua-tetra-gadoliniu
m (\m~12~-silicato)-tetracosakis(\m~2~-oxo)-dodecaoxo-dodeca-tungsten 
monohydrate)
;
_cell_volume   7703.792
_exptl_crystal_density_diffrn 3.792
_exptl_special_details
;
It appears from the reported formula that the crystal contains an additional 
water molecule, which was not located
;
_diffrn_ambient_temperature 150
#These two values have been output from a single CSD field.
_refine_ls_R_factor_gt 0.1247
_refine_ls_wR_factor_gt 0.1247
_symmetry_cell_setting monoclinic
_symmetry_space_group_name_H-M 'C 2/c'
_symmetry_Int_Tables_number 15
loop_
_symmetry_equiv_pos_site_id
_symmetry_equiv_pos_as_xyz
1 x,y,z
2 -x,y,1/2-z
3 1/2+x,1/2+y,z
4 1/2-x,1/2+y,1/2-z
5 -x,-y,-z
6 x,-y,-1/2+z
7 -1/2-x,-1/2-y,-z
8 -1/2+x,-1/2-y,-1/2+z
_cell_length_a 30.554(5)
_cell_length_b 16.306(3)
_cell_length_c 21.656(4)
_cell_angle_alpha 90
_cell_angle_beta 134.437(2)
_cell_angle_gamma 90
_cell_formula_units_Z 4
loop_
_atom_type_symbol
_atom_type_radius_bond
C 0.68
H 0.23
Gd 1.96
N 0.68
O 0.68
Si 1.20
W 1.31
loop_
_atom_site_label
_atom_site_type_symbol
_atom_site_fract_x
_atom_site_fract_y
_atom_site_fract_z
W1 W 0.85672(6) 0.36447(8) 0.68296(9)
W2 W 0.97125(6) 0.52548(9) 0.83245(9)
W3 W 0.95950(7) 0.21975(8) 0.81993(9)
W4 W 0.89081(7) 0.21916(8) 0.61301(9)
W5 W 1.10817(6) 0.52692(8) 0.89776(9)
W6 W 1.07532(7) 0.38116(8) 0.96896(9)
Si1 Si 1.00000 0.3742(9) 0.75000
O1 O 0.9592(13) 0.1496(18) 0.8772(17)
O2 O 0.8886(10) 0.2779(15) 0.7697(14)
O3 O 0.8878(11) 0.3038(16) 0.5509(16)
O4 O 0.7886(11) 0.3910(16) 0.6525(16)
O5 O 0.9472(10) 0.3161(14) 0.7261(14)
O6 O 1.0295(10) 0.4312(13) 0.8341(13)
O7 O 0.9373(10) 0.5937(15) 0.8482(15)
O8 O 1.0198(9) 0.4661(13) 0.9382(13)
O9 O 0.8576(11) 0.4410(15) 0.6170(15)
O10 O 0.8432(10) 0.1490(15) 0.5346(15)
O11 O 0.9122(10) 0.4388(14) 0.7755(14)
O12 O 1.1655(10) 0.5994(13) 0.9559(14)
O13 O 1.0091(11) 0.3022(15) 0.9036(15)
O14 O 0.9375(10) 0.5542(14) 0.7229(14)
O15 O 0.8315(11) 0.2819(15) 0.6011(15)
O16 O 0.9157(11) 0.1655(15) 0.7148(15)
O17 O 1.1273(11) 0.4655(15) 0.9869(15)
O18 O 1.1102(11) 0.3609(15) 1.0705(14)
O19 O 1.0316(10) 0.1889(14) 0.8453(14)
O20 O 1.0475(11) 0.5820(14) 0.8850(14)
Gd1 Gd 0.82557(9) 0.13065(11) 0.95500(13)
Gd2 Gd 0.60982(8) 0.38048(11) 0.69690(12)
O21 O 0.8620(13) -0.0094(18) 0.9804(19)
O22 O 0.8388(17) 0.227(2) 1.051(2)
O23 O 0.7233(19) 0.063(3) 0.847(3)
O24 O 0.6205(14) 0.244(2) 0.736(2)
O25 O 0.6061(15) 0.316(2) 0.590(2)
O26 O 0.526(3) 0.478(4) 0.613(4)
O27 O 0.7466(10) 0.2299(15) 0.8519(15)
O28 O 0.7176(10) 0.3498(14) 0.7864(14)
O29 O 0.9323(11) 0.1421(15) 1.0406(15)
O30 O 1.0167(13) 0.199(2) 1.0876(19)
O31 O 0.8669(12) -0.0129(16) 0.8598(16)
O32 O 0.8205(12) 0.1001(16) 0.8443(18)
O33 O 0.8534(17) -0.126(2) 0.663(2)
O34 O 0.8138(14) -0.061(2) 0.538(2)
N1 N 0.8617(9) 0.2585(12) 0.9373(13)
C1 C 0.8212(9) 0.3185(12) 0.8821(13)
C2 C 0.8409(9) 0.3869(12) 0.8718(14)
H1 H 0.81260 0.42880 0.83310
C3 C 0.9012(9) 0.3953(13) 0.9167(14)
H2 H 0.91500 0.44310 0.90950
C4 C 0.9417(9) 0.3353(13) 0.9720(14)
H3 H 0.98380 0.34110 1.00340
C5 C 0.9219(9) 0.2669(12) 0.9823(13)
C6 C 0.7580(14) 0.2981(19) 0.8376(19)
C7 C 0.9603(18) 0.199(2) 1.041(2)
N2 N 0.8311(10) 0.0057(12) 0.7088(12)
C8 C 0.8164(10) 0.0654(13) 0.7353(12)
C9 C 0.7819(10) 0.1305(13) 0.6830(14)
H4 H 0.77160 0.17230 0.70160
C10 C 0.7623(10) 0.1358(14) 0.6042(14)
H5 H 0.73820 0.18130 0.56760
C11 C 0.7770(11) 0.0761(14) 0.5776(14)
H6 H 0.76330 0.07980 0.52250
C12 C 0.8115(10) 0.0110(13) 0.6299(13)
C13 C 0.8360(16) 0.050(2) 0.818(2)
C14 C 0.828(2) -0.061(4) 0.610(3)
W1A W 1.14328(6) 0.36447(8) 0.81704(9)
W2A W 1.02875(6) 0.52548(9) 0.66755(9)
W3A W 1.04050(7) 0.21975(8) 0.68007(9)
W4A W 1.10919(7) 0.21916(8) 0.88699(9)
W5A W 0.89183(6) 0.52692(8) 0.60224(9)
W6A W 0.92468(7) 0.38116(8) 0.53104(9)
O1A O 1.0408(13) 0.1496(18) 0.6228(17)
O2A O 1.1114(10) 0.2779(15) 0.7303(14)
O3A O 1.1122(11) 0.3038(16) 0.9491(16)
O4A O 1.2114(11) 0.3910(16) 0.8475(16)
O5A O 1.0528(10) 0.3161(14) 0.7739(14)
O6A O 0.9705(10) 0.4312(13) 0.6659(13)
O7A O 1.0627(10) 0.5937(15) 0.6518(15)
O8A O 0.9802(9) 0.4661(13) 0.5618(13)
O9A O 1.1424(11) 0.4410(15) 0.8830(15)
O10A O 1.1568(10) 0.1490(15) 0.9654(15)
O11A O 1.0878(10) 0.4388(14) 0.7245(14)
O12A O 0.8345(10) 0.5994(13) 0.5441(14)
O13A O 0.9909(11) 0.3022(15) 0.5964(15)
O14A O 1.0625(10) 0.5542(14) 0.7771(14)
O15A O 1.1685(11) 0.2819(15) 0.8989(15)
O16A O 1.0843(11) 0.1655(15) 0.7852(15)
O17A O 0.8727(11) 0.4655(15) 0.5131(15)
O18A O 0.8898(11) 0.3609(15) 0.4295(14)
O19A O 0.9684(10) 0.1889(14) 0.6547(14)
O20A O 0.9525(11) 0.5820(14) 0.6150(14)
Gd1E Gd 0.82557(9) -0.13065(11) 1.45500(13)
Gd1E* Gd 0.82557(9) -0.13065(11) 0.45500(13)
Gd1G Gd 0.32557(9) 0.36935(11) 0.45500(13)
Gd2G Gd 1.10982(8) 0.11952(11) 1.19690(12)
Gd2C Gd 0.89018(8) -0.11952(11) 0.80310(12)
Gd2F Gd 0.89018(8) 0.11952(11) 1.30310(12)
Gd2G* Gd 0.10982(8) 0.11952(11) 0.19690(12)
O21E O 0.8620(13) 0.0094(18) 1.4804(19)
O22E O 0.8388(17) -0.227(2) 1.551(2)
O23E O 0.7233(19) -0.063(3) 1.347(3)
O24G O 1.1205(14) 0.256(2) 1.236(2)
O25G O 1.1061(15) 0.184(2) 1.090(2)
O26G O 1.026(3) 0.022(4) 1.113(4)
O27G O 0.2466(10) 0.2701(15) 0.3519(15)
O27E O 0.7466(10) -0.2299(15) 1.3519(15)
O28G O 0.2176(10) 0.1502(14) 0.2864(14)
O28G* O 1.2176(10) 0.1502(14) 1.2864(14)
O29G O 0.4323(11) 0.3579(15) 0.5406(15)
O29E O 0.9323(11) -0.1421(15) 1.5406(15)
O30G O 0.5167(13) 0.301(2) 0.5876(19)
O31E O 0.8669(12) 0.0129(16) 1.3598(16)
O31C O 0.6331(12) 0.4871(16) 0.6402(16)
O31D O 1.1331(12) 0.0129(16) 1.1402(16)
O32E O 0.8205(12) -0.1001(16) 1.3443(18)
O33E O 0.8534(17) 0.126(2) 1.163(2)
O33C O 0.6466(17) 0.374(2) 0.837(2)
O33D O 1.1466(17) 0.126(2) 1.337(2)
O34E O 0.8138(14) 0.061(2) 1.038(2)
O34* O 0.8138(14) -0.061(2) 1.538(2)
N1G N 0.3617(9) 0.2415(12) 0.4373(13)
N1E N 0.8617(9) -0.2585(12) 1.4373(13)
C1G C 0.3212(9) 0.1815(12) 0.3821(13)
C2G C 0.3409(9) 0.1131(12) 0.3718(14)
H1G H 0.31260 0.07120 0.33310
C3G C 0.4012(9) 0.1047(13) 0.4167(14)
H2G H 0.41500 0.05690 0.40950
C4G C 0.4417(9) 0.1647(13) 0.4720(14)
H3G H 0.48380 0.15890 0.50340
C5G C 0.4219(9) 0.2331(12) 0.4823(13)
C6G C 0.2580(14) 0.2019(19) 0.3376(19)
C7G C 0.4603(18) 0.301(2) 0.541(2)
N2E N 0.8311(10) -0.0057(12) 1.2088(12)
N2C N 0.6689(10) 0.5057(12) 0.7912(12)
N2D N 1.1689(10) -0.0057(12) 1.2912(12)
C8E C 0.8164(10) -0.0654(13) 1.2353(12)
C9E C 0.7819(10) -0.1305(13) 1.1830(14)
H4E H 0.77160 -0.17230 1.20160
C10E C 0.7623(10) -0.1358(14) 1.1042(14)
H5E H 0.73820 -0.18130 1.06760
C11E C 0.7770(11) -0.0761(14) 1.0776(14)
H6E H 0.76330 -0.07980 1.02250
C12E C 0.8115(10) -0.0110(13) 1.1299(13)
C13E C 0.8360(16) -0.050(2) 1.318(2)
C14E C 0.828(2) 0.061(4) 1.110(3)
#END
