
#######################################################################
#
#                 Cambridge Crystallographic Data Centre
#                                CCDC
#
#######################################################################
#
# If this CIF has been generated from an entry in the Cambridge
# Structural Database, then it will include bibliographic, chemical,
# crystal, experimental, refinement or atomic coordinate data resulting
# from the CCDC's data processing and validation procedures.
#
#######################################################################

data_CSD_CIF_KAJGEL
_audit_creation_date 2020-11-09
_audit_creation_method CSD-ConQuest-V1
_database_code_CSD KAJGEL
_database_code_depnum_ccdc_archive 'CCDC 2022285'
_chemical_formula_sum 'C230 H265 In8 K3 N26 O95'
_chemical_formula_moiety
;
(C168 H72 In8 N8 O64 8-)n,3(K1 1+),18(H2 O1),5(C2 H8 N1 1+),13(C4 H9 N1 O1)
;
_journal_coden_Cambridge 208
_journal_volume 292
_journal_year 2020
_journal_page_first 121726
_journal_name_full 'J.Solid State Chem. '
loop_
_publ_author_name
"Tiantian Jiang"
"Bin Zhang"
"Huifang Zhou"
"Weize Wang"
"Bo Liu"
_chemical_name_systematic
;
catena-[pentakis(dimethylammonium) tri-potassium 
octakis(\m-2,2'-(pyridine-2,5-diyl)bis(benzene-1,4-dicarboxylato))-octa-indium
(iii) N,N-dimethylacetamide solvate octadecahydrate]
;
_cell_volume  14412.145
_exptl_crystal_colour 'colorless'
_exptl_special_details
;
Absolute configuration

;
_exptl_crystal_description 'block'
_diffrn_ambient_temperature 293
_refine_special_details
;
N1 and C86 disordered over two sites with occupancies 0.5:0.5; N5 and C10 
disordered over two sites with occupancies 0.5:0.5; Disordered cation and 
solvent molecules were not modelled and the disordered density was taken into 
account using the SQUEEZE/PLATON procedure.
;
#These two values have been output from a single CSD field.
_refine_ls_R_factor_gt 0.0558
_refine_ls_wR_factor_gt 0.0558
_symmetry_cell_setting monoclinic
_symmetry_space_group_name_H-M 'C 2'
_symmetry_Int_Tables_number 5
loop_
_symmetry_equiv_pos_site_id
_symmetry_equiv_pos_as_xyz
1 x,y,z
2 -x,y,-z
3 1/2+x,1/2+y,z
4 1/2-x,1/2+y,-z
_cell_length_a 34.6918(11)
_cell_length_b 15.1244(3)
_cell_length_c 30.5358(10)
_cell_angle_alpha 90
_cell_angle_beta 115.904(4)
_cell_angle_gamma 90
_cell_formula_units_Z 2
loop_
_atom_type_symbol
_atom_type_radius_bond
C 0.68
H 0.23
In 1.42
K 2.03
N 0.68
O 0.68
loop_
_atom_site_label
_atom_site_type_symbol
_atom_site_fract_x
_atom_site_fract_y
_atom_site_fract_z
C1 C 0.3513(3) -0.1793(7) 0.8091(4)
C2 C 0.3853(3) -0.1087(7) 0.8306(4)
C3 C 0.3909(4) -0.0564(8) 0.7976(4)
H1 H 0.37400 -0.06300 0.76430
C4 C 0.4235(4) 0.0084(10) 0.8159(5)
H2 H 0.42680 0.04790 0.79440
C5 C 0.4508(3) 0.0141(8) 0.8654(4)
C6 C 0.4445(3) -0.0404(7) 0.8987(4)
C7 C 0.4108(3) -0.1030(6) 0.8795(4)
H3 H 0.40600 -0.14090 0.90060
C8 C 0.4857(4) 0.0814(9) 0.8802(5)
C9 C 0.4732(3) -0.0381(7) 0.9512(3)
C10 C 0.5423(3) -0.0371(7) 1.0128(4)
H4 H 0.57170 -0.03750 1.02260
C11 C 0.6035(3) 0.2433(8) 0.8638(3)
C12 C 0.6384(2) 0.2452(7) 0.8463(3)
C13 C 0.6479(3) 0.1693(8) 0.8280(4)
H5 H 0.63170 0.11860 0.82500
C14 C 0.6808(3) 0.1667(7) 0.8140(5)
H6 H 0.68620 0.11560 0.80070
C15 C 0.7052(3) 0.2406(8) 0.8200(3)
C16 C 0.6969(3) 0.3203(6) 0.8399(3)
C17 C 0.6626(3) 0.3194(7) 0.8525(3)
H7 H 0.65630 0.37010 0.86530
C18 C 0.7396(3) 0.2348(8) 0.8038(4)
C19 C 0.7262(3) 0.3996(6) 0.8502(3)
C20 C 0.7105(3) 0.4840(8) 0.8411(3)
H8 H 0.68110 0.49300 0.82590
C21 C 0.7370(3) 0.5543(8) 0.8537(4)
H9 H 0.72610 0.61140 0.84710
C22 C 0.7814(3) 0.5397(6) 0.8770(3)
C23 C 0.7950(3) 0.4532(6) 0.8872(3)
H10 H 0.82410 0.44310 0.90570
C24 C 0.8110(3) 0.6150(7) 0.8951(3)
C25 C 0.8432(3) 0.6134(6) 0.9427(3)
H11 H 0.84670 0.56250 0.96110
C26 C 0.8700(3) 0.6842(7) 0.9636(3)
C27 C 0.8653(3) 0.7614(8) 0.9363(4)
H12 H 0.88400 0.80870 0.94920
C28 C 0.8320(4) 0.7655(8) 0.8896(4)
H13 H 0.82700 0.81800 0.87210
C29 C 0.8058(3) 0.6918(9) 0.8684(3)
C30 C 0.7727(3) 0.7073(9) 0.8180(4)
C31 C 0.9023(2) 0.6842(6) 1.0144(3)
C32 C 0.4800(3) 0.3094(7) 0.8292(4)
C33 C 0.4453(3) 0.3723(7) 0.8087(4)
C34 C 0.4130(3) 0.3670(8) 0.8242(4)
H14 H 0.41370 0.32080 0.84460
C35 C 0.3808(3) 0.4264(8) 0.8107(4)
H15 H 0.35950 0.41990 0.82120
C36 C 0.3797(3) 0.4975(7) 0.7812(3)
C37 C 0.4105(3) 0.5027(6) 0.7639(3)
H16 H 0.40940 0.54820 0.74290
C38 C 0.4433(3) 0.4400(7) 0.7781(3)
C39 C 0.3485(3) 0.5717(7) 0.7710(3)
C40 C 0.4766(3) 0.4514(5) 0.7602(3)
C41 C 0.5207(3) 0.4459(6) 0.7909(3)
H17 H 0.53040 0.43480 0.82400
C42 C 0.5493(3) 0.4570(7) 0.7714(3)
H18 H 0.57850 0.45280 0.79150
C43 C 0.5352(2) 0.4743(6) 0.7224(3)
C44 C 0.4646(3) 0.4731(6) 0.7120(3)
H19 H 0.43570 0.48370 0.69200
C45 C 0.5639(3) 0.4854(6) 0.6986(3)
C46 C 0.5985(3) 0.5455(5) 0.7171(3)
H20 H 0.60420 0.57690 0.74540
C47 C 0.6244(3) 0.5580(6) 0.6924(4)
C48 C 0.6163(3) 0.5115(6) 0.6506(3)
H21 H 0.63400 0.51860 0.63510
C49 C 0.5819(3) 0.4543(7) 0.6314(3)
H22 H 0.57520 0.42600 0.60200
C50 C 0.5571(3) 0.4391(6) 0.6563(3)
C51 C 0.5223(3) 0.3711(6) 0.6353(4)
C52 C 0.6599(3) 0.6272(6) 0.7104(3)
C53 C 0.6661(3) 0.8746(6) 0.6803(3)
C54 C 0.6342(3) 0.9461(6) 0.6597(3)
C55 C 0.6019(3) 0.9392(5) 0.6122(3)
H23 H 0.60220 0.89350 0.59200
C56 C 0.5694(2) 1.0013(6) 0.5957(3)
C57 C 0.5698(3) 1.0716(6) 0.6250(3)
C58 C 0.6026(3) 1.0802(6) 0.6710(3)
H24 H 0.60310 1.12760 0.69060
C59 C 0.6348(3) 1.0178(6) 0.6878(3)
H25 H 0.65730 1.02430 0.71870
C60 C 0.5331(3) 1.1383(7) 0.6068(3)
C61 C 0.5339(3) 0.9942(6) 0.5456(4)
C62 C 0.5405(3) 0.9919(6) 0.5036(4)
H26 H 0.56830 0.98880 0.50670
C63 C 0.4142(3) 0.2694(6) 0.6370(3)
C64 C 0.3822(3) 0.2755(6) 0.6567(3)
C65 C 0.3834(3) 0.2156(7) 0.6915(4)
H27 H 0.40530 0.17400 0.70420
C66 C 0.3511(3) 0.2190(9) 0.7071(5)
H28 H 0.35110 0.17870 0.73010
C67 C 0.3194(3) 0.2817(7) 0.6885(4)
C68 C 0.3182(3) 0.3445(6) 0.6553(3)
C69 C 0.3511(3) 0.3423(5) 0.6397(3)
H29 H 0.35200 0.38490 0.61820
C70 C 0.2833(4) 0.279(1) 0.7041(5)
C71 C 0.2837(3) 0.4109(5) 0.6366(3)
C72 C 0.2424(3) 0.3881(5) 0.6147(3)
H30 H 0.23510 0.32860 0.60910
C73 C 0.2107(3) 0.4494(5) 0.6003(3)
H31 H 0.18200 0.43250 0.58600
C74 C 0.2220(3) 0.5382(6) 0.6076(3)
C75 C 0.2629(2) 0.5616(5) 0.6273(3)
H32 H 0.27000 0.62130 0.63120
C76 C 0.1879(2) 0.6074(6) 0.5964(3)
C77 C 0.1542(3) 0.6125(5) 0.5509(3)
H33 H 0.15150 0.57090 0.52730
C78 C 0.1237(3) 0.6802(5) 0.5399(3)
C79 C 0.1266(3) 0.7380(7) 0.5757(3)
H34 H 0.10600 0.78180 0.56890
C80 C 0.1602(3) 0.7314(7) 0.6220(4)
H35 H 0.16180 0.76960 0.64670
C81 C 0.1911(3) 0.6673(6) 0.6310(4)
C82 C 0.2292(3) 0.6684(8) 0.6817(3)
C83 C 0.0899(3) 0.6921(7) 0.4885(3)
In1 In 0.54470(2) 0.20153(4) 0.89381(2)
In2 In 0.29447(2) 0.69761(4) 0.76679(2)
In3 In 0.71897(2) 0.74573(4) 0.72691(2)
In4 In 0.46706(2) 1.24300(4) 0.59808(2)
N1 N 0.5081(3) 0.9939(6) 0.4598(3)
N2 N 0.4922(2) 0.4795(6) 0.6931(3)
N3 N 0.2952(3) 0.4994(6) 0.6424(3)
N4 N 0.7697(3) 0.3843(6) 0.8725(3)
N5 N 0.5166(3) -0.0356(6) 0.9662(3)
O1 O 0.3501(2) -0.2415(4) 0.8360(2)
O2 O 0.32708(19) -0.1773(4) 0.7649(2)
O3 O 0.5106(2) 0.0801(5) 0.8594(3)
O4 O 0.4898(2) 0.1384(6) 0.9093(3)
O5 O 0.5821(2) 0.1736(5) 0.8561(3)
O6 O 0.5975(2) 0.3052(6) 0.8837(3)
O7 O 0.7632(2) 0.1646(5) 0.8148(3)
O8 O 0.7437(2) 0.2896(5) 0.7768(3)
O9 O 0.90596(19) 0.6214(4) 1.0416(2)
O10 O 0.92579(19) 0.7511(5) 1.0322(2)
O11 O 0.7680(2) 0.6474(5) 0.7863(3)
O12 O 0.7502(2) 0.7748(6) 0.8053(3)
O13 O 0.68508(17) 0.6258(4) 0.6914(2)
O14 O 0.66326(18) 0.6824(4) 0.7414(2)
O15 O 0.49779(17) 0.3693(4) 0.5902(2)
O16 O 0.51848(17) 0.3135(4) 0.6630(2)
O17 O 0.4839(3) 0.2474(7) 0.8043(3)
O18 O 0.5034(2) 0.3115(5) 0.8737(3)
O19 O 0.3229(2) 0.5683(4) 0.7925(2)
O20 O 0.34549(19) 0.6319(5) 0.7432(2)
O21 O 0.2336(2) 0.6134(5) 0.7113(2)
O22 O 0.25589(19) 0.7343(5) 0.6908(2)
O23 O 0.06398(16) 0.7580(4) 0.48085(19)
O24 O 0.08784(17) 0.6452(4) 0.4546(2)
O25 O 0.2785(3) 0.3332(6) 0.7294(4)
O26 O 0.2580(2) 0.2157(5) 0.6894(3)
O27 O 0.41447(17) 0.3211(4) 0.6049(2)
O28 O 0.44026(16) 0.2049(4) 0.6500(2)
O29 O 0.69129(18) 0.8757(4) 0.7251(2)
O30 O 0.66799(18) 0.8114(4) 0.6549(2)
O31 O 0.5300(2) 1.1988(6) 0.5784(2)
O32 O 0.5079(2) 1.1299(5) 0.6259(3)
K1 K 0.75758(12) 0.9700(2) 0.79446(15)
K2 K 0.50000 1.3280(2) 0.50000
O33 O 0.8202(5) 0.9946(10) 0.8903(5)
O34 O 0.6899(6) 0.9328(12) 0.8286(6)
O35 O -0.0615(4) 0.9607(8) 0.4826(4)
C84? C 0.5081(3) 0.9939(6) 0.4598(3)
C85? C 0.5166(3) -0.0356(6) 0.9662(3)
C1A C 0.6487(3) -0.1793(7) 1.1909(4)
C2A C 0.6147(3) -0.1087(7) 1.1694(4)
C3A C 0.6091(4) -0.0564(8) 1.2024(4)
H1A H 0.62600 -0.06300 1.23570
C4A C 0.5765(4) 0.0084(10) 1.1841(5)
H2A H 0.57320 0.04790 1.20560
C5A C 0.5492(3) 0.0141(8) 1.1346(4)
C6A C 0.5555(3) -0.0404(7) 1.1013(4)
C7A C 0.5892(3) -0.1030(6) 1.1205(4)
H3A H 0.59400 -0.14090 1.09940
C8A C 0.5143(4) 0.0814(9) 1.1198(5)
C9A C 0.5268(3) -0.0381(7) 1.0488(3)
C10A C 0.4577(3) -0.0371(7) 0.9872(4)
H4A H 0.42830 -0.03750 0.97740
N5A N 0.4834(3) -0.0356(6) 1.0338(3)
O1A O 0.6499(2) -0.2415(4) 1.1640(2)
O2A O 0.67292(19) -0.1773(4) 1.2351(2)
O3A O 0.4894(2) 0.0801(5) 1.1406(3)
O4A O 0.5102(2) 0.1384(6) 1.0907(3)
C53A C 0.3339(3) 0.8746(6) 0.3197(3)
C54A C 0.3658(3) 0.9461(6) 0.3403(3)
C55A C 0.3981(3) 0.9392(5) 0.3878(3)
H23A H 0.39780 0.89350 0.40800
C56A C 0.4306(2) 1.0013(6) 0.4043(3)
C57A C 0.4302(3) 1.0716(6) 0.3750(3)
C58A C 0.3974(3) 1.0802(6) 0.3290(3)
H24A H 0.39690 1.12760 0.30940
C59A C 0.3652(3) 1.0178(6) 0.3122(3)
H25A H 0.34270 1.02430 0.28130
C60A C 0.4669(3) 1.1383(7) 0.3932(3)
C61A C 0.4661(3) 0.9942(6) 0.4544(4)
C62A C 0.4595(3) 0.9919(6) 0.4964(4)
H26A H 0.43170 0.98880 0.49330
N1A N 0.4919(3) 0.9939(6) 0.5402(3)
O29A O 0.30871(18) 0.8757(4) 0.2749(2)
O30A O 0.33201(18) 0.8114(4) 0.3451(2)
O31A O 0.4700(2) 1.1988(6) 0.4216(2)
O32A O 0.4921(2) 1.1299(5) 0.3741(3)
C11A C 0.3965(3) 0.2433(8) 0.1362(3)
C12A C 0.3616(2) 0.2452(7) 0.1537(3)
C13A C 0.3521(3) 0.1693(8) 0.1720(4)
H5A H 0.36830 0.11860 0.17500
C14A C 0.3192(3) 0.1667(7) 0.1860(5)
H6A H 0.31380 0.11560 0.19930
C15A C 0.2948(3) 0.2406(8) 0.1800(3)
C16A C 0.3031(3) 0.3203(6) 0.1601(3)
C17A C 0.3374(3) 0.3194(7) 0.1475(3)
H7A H 0.34370 0.37010 0.13470
C18A C 0.2604(3) 0.2348(8) 0.1962(4)
C19A C 0.2738(3) 0.3996(6) 0.1498(3)
C20A C 0.2895(3) 0.4840(8) 0.1589(3)
H8A H 0.31890 0.49300 0.17410
C21A C 0.2630(3) 0.5543(8) 0.1463(4)
H9A H 0.27390 0.61140 0.15290
C22A C 0.2186(3) 0.5397(6) 0.1230(3)
C23A C 0.2050(3) 0.4532(6) 0.1128(3)
H10A H 0.17590 0.44310 0.09430
C24A C 0.1890(3) 0.6150(7) 0.1049(3)
C25A C 0.1568(3) 0.6134(6) 0.0573(3)
H11A H 0.15330 0.56250 0.03890
C26A C 0.1300(3) 0.6842(7) 0.0364(3)
C27A C 0.1347(3) 0.7614(8) 0.0637(4)
H12A H 0.11600 0.80870 0.05080
C28A C 0.1680(4) 0.7655(8) 0.1104(4)
H13A H 0.17300 0.81800 0.12790
C29A C 0.1942(3) 0.6918(9) 0.1316(3)
C30A C 0.2273(3) 0.7073(9) 0.1820(4)
C31A C 0.0977(2) 0.6842(6) -0.0144(3)
C32A C 0.5200(3) 0.3094(7) 0.1708(4)
C33A C 0.5547(3) 0.3723(7) 0.1913(4)
C34A C 0.5870(3) 0.3670(8) 0.1758(4)
H14A H 0.58630 0.32080 0.15540
C35A C 0.6192(3) 0.4264(8) 0.1893(4)
H15A H 0.64050 0.41990 0.17880
C36A C 0.6203(3) 0.4975(7) 0.2188(3)
C37A C 0.5895(3) 0.5027(6) 0.2361(3)
H16A H 0.59060 0.54820 0.25710
C38A C 0.5567(3) 0.4400(7) 0.2219(3)
C39A C 0.6515(3) 0.5717(7) 0.2290(3)
C40A C 0.5234(3) 0.4514(5) 0.2398(3)
C41A C 0.4793(3) 0.4459(6) 0.2091(3)
H17A H 0.46960 0.43480 0.17600
C42A C 0.4507(3) 0.4570(7) 0.2286(3)
H18A H 0.42150 0.45280 0.20850
C43A C 0.4648(2) 0.4743(6) 0.2776(3)
C44A C 0.5354(3) 0.4731(6) 0.2880(3)
H19A H 0.56430 0.48370 0.30800
C45A C 0.4361(3) 0.4854(6) 0.3014(3)
C46A C 0.4015(3) 0.5455(5) 0.2829(3)
H20A H 0.39580 0.57690 0.25460
C47A C 0.3756(3) 0.5580(6) 0.3076(4)
C48A C 0.3837(3) 0.5115(6) 0.3494(3)
H21A H 0.36600 0.51860 0.36490
C49A C 0.4181(3) 0.4543(7) 0.3686(3)
H22A H 0.42480 0.42600 0.39800
C50A C 0.4429(3) 0.4391(6) 0.3437(3)
C51A C 0.4777(3) 0.3711(6) 0.3647(4)
C52A C 0.3401(3) 0.6272(6) 0.2896(3)
C63A C 0.5858(3) 0.2694(6) 0.3630(3)
C64A C 0.6178(3) 0.2755(6) 0.3433(3)
C65A C 0.6166(3) 0.2156(7) 0.3085(4)
H27A H 0.59470 0.17400 0.29580
C66A C 0.6489(3) 0.2190(9) 0.2929(5)
H28A H 0.64890 0.17870 0.26990
C67A C 0.6806(3) 0.2817(7) 0.3115(4)
C68A C 0.6818(3) 0.3445(6) 0.3447(3)
C69A C 0.6489(3) 0.3423(5) 0.3603(3)
H29A H 0.64800 0.38490 0.38180
C70A C 0.7167(4) 0.279(1) 0.2959(5)
C71A C 0.7163(3) 0.4109(5) 0.3634(3)
C72A C 0.7576(3) 0.3881(5) 0.3853(3)
H30A H 0.76490 0.32860 0.39090
C73A C 0.7893(3) 0.4494(5) 0.3997(3)
H31A H 0.81800 0.43250 0.41400
C74A C 0.7780(3) 0.5382(6) 0.3924(3)
C75A C 0.7371(2) 0.5616(5) 0.3727(3)
H32A H 0.73000 0.62130 0.36880
C76A C 0.8121(2) 0.6074(6) 0.4036(3)
C77A C 0.8458(3) 0.6125(5) 0.4491(3)
H33A H 0.84850 0.57090 0.47270
C78A C 0.8763(3) 0.6802(5) 0.4601(3)
C79A C 0.8734(3) 0.7380(7) 0.4243(3)
H34A H 0.89400 0.78180 0.43110
C80A C 0.8398(3) 0.7314(7) 0.3780(4)
H35A H 0.83820 0.76960 0.35330
C81A C 0.8089(3) 0.6673(6) 0.3690(4)
C82A C 0.7708(3) 0.6684(8) 0.3183(3)
C83A C 0.9101(3) 0.6921(7) 0.5115(3)
In1A In 0.45530(2) 0.20153(4) 0.10619(2)
In2A In 0.70553(2) 0.69761(4) 0.23321(2)
In3A In 0.28103(2) 0.74573(4) 0.27309(2)
In4A In 0.53294(2) 1.24300(4) 0.40192(2)
N2A N 0.5078(2) 0.4795(6) 0.3069(3)
N3A N 0.7048(3) 0.4994(6) 0.3576(3)
N4A N 0.2303(3) 0.3843(6) 0.1275(3)
O5A O 0.4179(2) 0.1736(5) 0.1439(3)
O6A O 0.4025(2) 0.3052(6) 0.1163(3)
O7A O 0.2368(2) 0.1646(5) 0.1852(3)
O8A O 0.2563(2) 0.2896(5) 0.2232(3)
O9A O 0.09404(19) 0.6214(4) -0.0416(2)
O10A O 0.07421(19) 0.7511(5) -0.0322(2)
O11A O 0.2320(2) 0.6474(5) 0.2137(3)
O12A O 0.2498(2) 0.7748(6) 0.1947(3)
O13A O 0.31492(17) 0.6258(4) 0.3086(2)
O14A O 0.33674(18) 0.6824(4) 0.2586(2)
O15A O 0.50221(17) 0.3693(4) 0.4098(2)
O16A O 0.48152(17) 0.3135(4) 0.3370(2)
O17A O 0.5161(3) 0.2474(7) 0.1957(3)
O18A O 0.4966(2) 0.3115(5) 0.1263(3)
O19A O 0.6771(2) 0.5683(4) 0.2075(2)
O20A O 0.65451(19) 0.6319(5) 0.2568(2)
O21A O 0.7664(2) 0.6134(5) 0.2887(2)
O22A O 0.74411(19) 0.7343(5) 0.3092(2)
O23A O 0.93602(16) 0.7580(4) 0.51915(19)
O24A O 0.91216(17) 0.6452(4) 0.5454(2)
O25A O 0.7215(3) 0.3332(6) 0.2706(4)
O26A O 0.7420(2) 0.2157(5) 0.3106(3)
O27A O 0.58553(17) 0.3211(4) 0.3951(2)
O28A O 0.55974(16) 0.2049(4) 0.3500(2)
In1A* In 0.45530(2) 0.20153(4) 1.10619(2)
In1B In 0.04470(2) 0.70153(4) -0.10619(2)
In1C In 0.95530(2) 0.70153(4) 1.10619(2)
In2* In 0.29447(2) -0.30239(4) 0.76679(2)
In2A* In 0.70553(2) -0.30239(4) 1.23321(2)
In2B In 0.79447(2) 0.19761(4) 0.76679(2)
In2C In 0.20553(2) 0.19761(4) 0.23321(2)
In3B In 0.21897(2) 0.24573(4) 0.72691(2)
In3C In 0.78103(2) 0.24573(4) 0.27309(2)
In4* In 0.46706(2) 0.24300(4) 0.59808(2)
In4A* In 0.53294(2) 0.24300(4) 0.40192(2)
In4B In 0.96706(2) 0.74300(4) 0.59808(2)
In4C In 0.03294(2) 0.74300(4) 0.40192(2)
O1* O 0.3501(2) 0.7585(4) 0.8360(2)
O1A* O 0.6499(2) 0.7585(4) 0.1640(2)
O2* O 0.32708(19) 0.8227(4) 0.7649(2)
O2A* O 0.67292(19) 0.8227(4) 0.2351(2)
O3A* O 0.4894(2) 0.0801(5) 0.1406(3)
O4A* O 0.5102(2) 0.1384(6) 0.0907(3)
O7B O 0.2632(2) 0.6646(5) 0.8148(3)
O7C O 0.7368(2) 0.6646(5) 0.1852(3)
O8B O 0.2437(2) 0.7896(5) 0.7768(3)
O8C O 0.7563(2) 0.7896(5) 0.2232(3)
O9B O 0.40596(19) 0.1214(4) 0.0416(2)
O9C O 0.59404(19) 0.1214(4) 0.9584(2)
O10B O 0.42579(19) 0.2511(5) 0.0322(2)
O10C O 0.57421(19) 0.2511(5) 0.9678(2)
O15* O 0.49779(17) 1.3693(4) 0.5902(2)
O15A* O 0.50221(17) 1.3693(4) 0.4098(2)
O16* O 0.51848(17) 1.3135(4) 0.6630(2)
O16A* O 0.48152(17) 1.3135(4) 0.3370(2)
O23B O 0.56398(16) 1.2580(4) 0.48085(19)
O23C O 0.43602(16) 1.2580(4) 0.51915(19)
O24B O 0.58784(17) 1.1452(4) 0.4546(2)
O24C O 0.41216(17) 1.1452(4) 0.5454(2)
O25B O 0.7785(3) 0.8332(6) 0.7294(4)
O25C O 0.2215(3) 0.8332(6) 0.2706(4)
O26B O 0.7580(2) 0.7157(5) 0.6894(3)
O26C O 0.2420(2) 0.7157(5) 0.3106(3)
O27* O 0.41447(17) 1.3211(4) 0.6049(2)
O27A* O 0.58553(17) 1.3211(4) 0.3951(2)
O28* O 0.44026(16) 1.2049(4) 0.6500(2)
O28A* O 0.55974(16) 1.2049(4) 0.3500(2)
#END
