
#######################################################################
#
#                 Cambridge Crystallographic Data Centre
#                                CCDC
#
#######################################################################
#
# If this CIF has been generated from an entry in the Cambridge
# Structural Database, then it will include bibliographic, chemical,
# crystal, experimental, refinement or atomic coordinate data resulting
# from the CCDC's data processing and validation procedures.
#
#######################################################################

data_CSD_CIF_KAJGUB
_audit_creation_date 2020-11-09
_audit_creation_method CSD-ConQuest-V1
_database_code_CSD KAJGUB
_database_code_depnum_ccdc_archive 'CCDC 1983554'
_chemical_formula_sum 'C28 H19 Cd3 Cl1 N2 O17'
_chemical_formula_moiety
;
(C28 H16 Cd3 Cl1 N2 O16 1-)n,H3 O1 1+
;
_journal_coden_Cambridge 208
_journal_volume 292
_journal_year 2020
_journal_page_first 121742
_journal_name_full 'J.Solid State Chem. '
loop_
_publ_author_name
"Li-Na Zheng"
"Tao Ding"
"Yang-Tian Yan"
"Ning Xue"
_chemical_name_systematic
;
catena-[oxonium 
bis(\m-4-[(5-carboxylatopyridin-3-yl)oxy]benzene-1,2-dicarboxylato)-(\m-chloro
)-diaqua-tri-cadmium(ii)]
;
_cell_volume   1519.614
_exptl_crystal_colour 'colorless'
_exptl_crystal_density_diffrn 2.247
_exptl_crystal_description 'block'
_diffrn_ambient_temperature 296.1
#These two values have been output from a single CSD field.
_refine_ls_R_factor_gt 0.0452
_refine_ls_wR_factor_gt 0.0452
_symmetry_cell_setting triclinic
_symmetry_space_group_name_H-M 'P -1'
_symmetry_Int_Tables_number 2
loop_
_symmetry_equiv_pos_site_id
_symmetry_equiv_pos_as_xyz
1 x,y,z
2 -x,-y,-z
_cell_length_a 7.802(6)
_cell_length_b 13.978(10)
_cell_length_c 14.298(10)
_cell_angle_alpha 83.186(10)
_cell_angle_beta 81.655(11)
_cell_angle_gamma 81.877(11)
_cell_formula_units_Z 2
loop_
_atom_type_symbol
_atom_type_radius_bond
C 0.68
H 0.23
Cd 1.44
Cl 0.99
N 0.68
O 0.68
loop_
_atom_site_label
_atom_site_type_symbol
_atom_site_fract_x
_atom_site_fract_y
_atom_site_fract_z
Cd1 Cd 0.58893(4) 0.56423(2) 0.58935(2)
Cd2 Cd -0.36228(4) 0.16554(2) 1.38495(2)
Cd3 Cd 0.49564(4) -0.03642(2) 0.82387(2)
Cl1 Cl 0.72113(15) 0.44373(9) 0.46582(9)
O1 O 0.5726(5) 0.7096(3) 0.4993(3)
O2 O 0.5852(4) 0.8665(2) 0.4991(2)
O3 O 0.6390(4) 1.0128(2) 0.3156(2)
O4 O 0.8406(4) 1.0089(2) 0.4086(2)
O5 O 1.1656(4) 0.7641(2) 0.1482(2)
O6 O 0.6569(4) 0.8902(3) -0.0480(3)
O7 O 0.7951(4) 0.9558(3) -0.1801(2)
O8 O 0.8680(5) 0.5754(3) 0.6133(3)
H1 H 0.93900 0.54755 0.57625
H2 H 0.88241 0.62773 0.62096
O9 O 0.3056(5) 0.4556(2) 0.9533(2)
O10 O 0.4646(4) 0.3209(2) 1.2953(2)
O11 O 0.4274(4) 0.1746(2) 1.2681(2)
O12 O -0.1474(4) 0.2189(3) 1.2797(2)
O13 O -0.1944(5) 0.1857(3) 1.5036(3)
H3 H -0.17313 0.12922 1.52669
H4 H -0.10350 0.21248 1.47835
O14 O 0.0622(4) 0.2448(3) 1.3620(2)
O15 O 0.4485(5) 0.1223(2) 0.8293(2)
O16 O 0.6184(5) 0.1518(2) 0.6905(2)
N1 N 1.2702(5) 0.8975(3) -0.0812(3)
N2 N 0.5137(5) 0.4490(3) 0.7130(3)
C1 C 0.6384(6) 0.7855(3) 0.4665(3)
C2 C 0.7813(5) 0.7819(3) 0.3837(3)
C3 C 0.8372(5) 0.8667(3) 0.3326(3)
C4 C 0.7639(6) 0.9687(3) 0.3558(3)
C5 C 0.9676(6) 0.8603(3) 0.2551(3)
H5 H 1.00830 0.91624 0.22310
C6 C 1.0362(5) 0.7705(3) 0.2260(3)
C7 C 1.1359(6) 0.8214(3) 0.0651(3)
C8 C 1.2817(6) 0.8517(3) 0.0070(3)
H6 H 1.38959 0.84011 0.02939
C9 C 1.1143(6) 0.9129(3) -0.1123(3)
H7 H 1.10763 0.94006 -0.17447
C10 C 0.9628(5) 0.8903(3) -0.0566(3)
C11 C 0.7930(6) 0.9136(3) -0.0975(3)
C12 C 0.9716(6) 0.8443(3) 0.0346(3)
H8 H 0.87129 0.82927 0.07402
C13 C 0.9853(6) 0.6852(3) 0.2758(3)
H9 H 1.03482 0.62495 0.25680
C14 C 0.8592(7) 0.6921(3) 0.3544(4)
H10 H 0.82534 0.63550 0.38860
C15 C 0.4326(6) 0.4789(3) 0.7957(3)
H11 H 0.41167 0.54515 0.80214
C16 C 0.3790(6) 0.4141(3) 0.8720(3)
C17 C 0.2362(6) 0.3966(3) 1.0315(3)
C18 C 0.3391(6) 0.3598(3) 1.1016(3)
H12 H 0.45611 0.36936 1.09396
C19 C 0.2670(6) 0.3084(3) 1.1832(3)
C20 C 0.3912(5) 0.2656(3) 1.2559(3)
C21 C 0.0882(6) 0.2948(3) 1.1961(3)
C22 C -0.0052(6) 0.2485(3) 1.2870(3)
C23 C -0.0098(6) 0.3315(3) 1.1220(3)
H13 H -0.12673 0.32202 1.12824
C24 C 0.0628(7) 0.3814(3) 1.0399(4)
H14 H -0.00371 0.40432 0.99104
C25 C 0.4037(6) 0.3148(3) 0.8628(3)
H15 H 0.36618 0.27023 0.91249
C26 C 0.4868(6) 0.2851(3) 0.7765(3)
C27 C 0.5219(6) 0.1778(3) 0.7628(3)
C28 C 0.5422(6) 0.3532(3) 0.7035(3)
H16 H 0.60029 0.33199 0.64670
O17 O 0.7895(5) -0.0219(3) 0.6104(3)
H17 H 0.77134 -0.01748 0.55280
H18 H 0.71568 0.02180 0.63501
H19 H 0.72826 -0.06912 0.62537
Cd1A Cd 0.41107(4) 0.43577(2) 0.41065(2)
Cd1A* Cd 0.41107(4) 0.43577(2) 1.41065(2)
Cd2* Cd 0.63772(4) 0.16554(2) 1.38495(2)
Cd2** Cd 0.63772(4) 1.16554(2) 0.38495(2)
Cd2A Cd 0.36228(4) 0.83446(2) 0.61505(2)
Cd3* Cd 0.49564(4) 0.96358(2) -0.17613(2)
Cd3** Cd 1.49564(4) 0.96358(2) -0.17613(2)
Cd3A Cd 0.50436(4) 0.03642(2) 1.17613(2)
Cd3A* Cd 0.50436(4) 1.03642(2) 0.17613(2)
Cl1A Cl 0.27887(15) 0.55627(9) 0.53418(9)
O1A O -0.5726(5) 0.2904(3) 1.5007(3)
O2A O -0.5852(4) 0.1335(2) 1.5009(2)
O3* O -0.3610(4) 0.0128(2) 1.3156(2)
O3A O 0.3610(4) -0.0128(2) 0.6844(2)
O4* O -0.1594(4) 0.0089(2) 1.4086(2)
O6* O 0.6569(4) -0.1098(3) 0.9520(3)
O7* O 0.7951(4) -0.0442(3) 0.8199(2)
O10* O -0.5354(4) 0.3209(2) 1.2953(2)
O10A O 0.5354(4) 0.6791(2) 0.7047(2)
O11* O -0.5726(4) 0.1746(2) 1.2681(2)
O11A O 0.5726(4) -0.1746(2) 0.7319(2)
N1* N 0.2702(5) -0.1025(3) 0.9188(3)
#END
