
#######################################################################
#
#                 Cambridge Crystallographic Data Centre
#                                CCDC
#
#######################################################################
#
# If this CIF has been generated from an entry in the Cambridge
# Structural Database, then it will include bibliographic, chemical,
# crystal, experimental, refinement or atomic coordinate data resulting
# from the CCDC's data processing and validation procedures.
#
#######################################################################

data_CSD_CIF_KAKBUW
_audit_creation_date 2016-01-21
_audit_creation_method CSD-ConQuest-V1
_database_code_CSD KAKBUW
_database_code_depnum_ccdc_archive 'CCDC 1055172'
_chemical_formula_sum 'C149 H135 Ca7 N5 O46'
_chemical_formula_moiety
;
(C147 H115 Ca7 N4 O40 1-)n,6(H2 O1),C2 H8 N1 1+
;
_journal_coden_Cambridge 1350
_journal_volume 18
_journal_year 2016
_journal_page_first 1046
_journal_name_full 'CrystEngComm '
loop_
_publ_author_name
"K.S.Asha"
"M.Makkitaya"
"Anshu Sirohi"
"L.Yadav"
"G.Sheet"
"S.Mandal"
_chemical_name_systematic
;
catena-[dimethylammonium 
pentakis(\m-1,3,5-benzenetribenzoato)-bis(N,N-dimethylformamide)-bis(N,N-dimet
hylformamide)-hexa-aqua-hepta-calcium hexahydrate]
;
_cell_volume  18098.345
_exptl_crystal_colour 'colorless'
_exptl_crystal_density_diffrn 1.078
_exptl_crystal_description 'platelike'
_diffrn_ambient_temperature 298
_refine_special_details
;
The structure is disordered.

;
#These two values have been output from a single CSD field.
_refine_ls_R_factor_gt 0.125
_refine_ls_wR_factor_gt 0.125
_symmetry_cell_setting monoclinic
_symmetry_space_group_name_H-M 'C 2/c'
_symmetry_Int_Tables_number 15
loop_
_symmetry_equiv_pos_site_id
_symmetry_equiv_pos_as_xyz
1 x,y,z
2 -x,y,1/2-z
3 1/2+x,1/2+y,z
4 1/2-x,1/2+y,1/2-z
5 -x,-y,-z
6 x,-y,-1/2+z
7 -1/2-x,-1/2-y,-z
8 -1/2+x,-1/2-y,-1/2+z
_cell_length_a 28.281(4)
_cell_length_b 20.849(3)
_cell_length_c 30.699(4)
_cell_angle_alpha 90
_cell_angle_beta 90.994(9)
_cell_angle_gamma 90
_cell_formula_units_Z 4
loop_
_atom_type_symbol
_atom_type_radius_bond
C 0.68
H 0.23
Ca 1.76
N 0.68
O 0.68
loop_
_atom_site_label
_atom_site_type_symbol
_atom_site_fract_x
_atom_site_fract_y
_atom_site_fract_z
Ca1 Ca 0.50980 0.73800 0.31280
O1 O 0.44430 0.81400 0.30910
O2 O 0.44560 0.76120 0.24750
O3 O 0.47140 0.71350 0.38020
O4 O 0.49380 0.63770 0.28580
O5 O 0.53930 0.81920 0.36190
O6 O 0.57040 0.68640 0.35360
C1 C 0.42530 0.79580 0.27410
Ca2 Ca 0.54060 0.70880 0.43080
C2 C 0.45180 0.66510 0.39600
C3 C 0.50000 0.60970 0.25000
C4 C 0.37490 0.81440 0.26410
O7 O 0.49030 0.78120 0.46950
O8 O 0.46990 0.63490 0.42720
O9 O 0.58910 0.62200 0.40800
O10 O 0.58750 0.80480 0.41860
O11 O 0.59420 0.72420 0.49480
O12 O 0.54320 0.64600 0.50160
C5 C 0.40490 0.64450 0.37750
C6 C 0.50000 0.53850 0.25000
C7 C 0.34890 0.78680 0.23080
C8 C 0.35360 0.86190 0.28900
H1 H 0.46800 0.79920 0.45180
H2 H 0.50690 0.81400 0.48170
Ca3 Ca 0.47100 0.58440 0.49670
C9 C 0.37870 0.68680 0.35140
C10 C 0.38770 0.58330 0.38500
C11 C 0.50420 0.50400 0.28840
H3 H 0.36290 0.75540 0.21370
C12 C 0.30300 0.80420 0.22200
C13 C 0.30740 0.88060 0.27960
H4 H 0.37030 0.88110 0.31180
O13 O 0.43520 0.68630 0.52060
O14 O 0.39850 0.52740 0.48980
O15 O 0.50770 0.50380 0.45410
N1 N 0.45720 0.56970 0.58050
H5 H 0.38980 0.72820 0.34670
C14 C 0.33610 0.66740 0.33250
H6 H 0.40440 0.55520 0.40300
C15 C 0.34530 0.56390 0.36540
C16 C 0.50430 0.43900 0.28830
H7 H 0.50700 0.52580 0.31470
H8 H 0.28590 0.78260 0.20040
C17 C 0.28090 0.85440 0.24530
H9 H 0.29360 0.91180 0.29690
C18 C 0.37890 0.48580 0.50800
C19 C 0.52130 0.49250 0.41510
C20 C 0.31930 0.60510 0.33830
H10 H 0.31860 0.69630 0.31570
H11 H 0.33400 0.52270 0.37050
C21 C 0.50000 0.40310 0.25000
H12 H 0.50730 0.41750 0.31470
C22 C 0.23310 0.87920 0.23410
N2 N 0.33340 0.46520 0.50110
H13 H 0.39620 0.46450 0.52960
C23 C 0.27620 0.58300 0.31460
C24 C 0.50000 0.33240 0.25000
C25 C 0.21040 0.92170 0.26080
C26 C 0.20960 0.86310 0.19430
C27 C 0.31740 0.41450 0.52730
C28 C 0.30610 0.50220 0.46960
C29 C 0.24480 0.53840 0.33250
C30 C 0.26710 0.60420 0.27200
C31 C 0.49050 0.29850 0.28730
C32 C 0.16660 0.94890 0.25020
H14 H 0.22490 0.93300 0.28710
C33 C 0.16620 0.88880 0.18250
H15 H 0.22390 0.83430 0.17550
H16 H 0.28350 0.41510 0.52800
H17 H 0.33000 0.41940 0.55630
H18 H 0.32780 0.37440 0.51540
H19 H 0.28520 0.53050 0.48470
H20 H 0.28800 0.47370 0.45140
H21 H 0.32720 0.52690 0.45210
H22 H 0.25020 0.52320 0.36060
C34 C 0.20550 0.51650 0.30860
C35 C 0.22830 0.58400 0.24800
H23 H 0.28810 0.63300 0.25940
C36 C 0.49090 0.23030 0.28840
H24 H 0.48350 0.32090 0.31260
C37 C 0.14520 0.93250 0.21050
C38 C 0.14520 0.99720 0.27960
C39 C 0.14350 0.87230 0.13950
C40 C 0.19800 0.53950 0.26710
C41 C 0.17200 0.47010 0.32830
C42 C 0.22140 0.60690 0.20240
C43 C 0.48160 0.19650 0.33030
C44 C 0.50000 0.19890 0.25000
H25 H 0.11640 0.95110 0.20260
C45 C 0.12490 1.05270 0.26430
C46 C 0.14720 0.98720 0.32420
C47 C 0.10050 0.89740 0.12660
C48 C 0.16530 0.83140 0.11030
H26 H 0.17190 0.52490 0.25120
C49 C 0.18850 0.42420 0.35920
C50 C 0.12470 0.46720 0.31550
C51 C 0.17610 0.61310 0.18320
C52 C 0.25970 0.62420 0.17780
C53 C 0.49660 0.13790 0.33680
C54 C 0.46060 0.22310 0.36330
H27 H 0.50000 0.15430 0.25000
H28 H 0.12290 1.05980 0.23440
C55 C 0.10730 1.09840 0.29250
H29 H 0.16100 0.94990 0.33520
C56 C 0.12890 1.03210 0.35270
C57 C 0.07940 0.88320 0.08640
H30 H 0.08500 0.92490 0.14540
H31 H 0.19470 0.81400 0.11750
C58 C 0.14390 0.81600 0.07070
H32 H 0.22030 0.42370 0.36760
C59 C 0.15770 0.38040 0.37660
C60 C 0.09450 0.42230 0.33310
H33 H 0.11310 0.49590 0.29470
C61 C 0.17020 0.63310 0.14120
H34 H 0.14960 0.60340 0.19960
H35 H 0.29000 0.62160 0.18990
C62 C 0.25370 0.64530 0.13490
C63 C 0.48870 0.10600 0.37820
H36 H 0.51260 0.11660 0.31490
C64 C 0.45480 0.19430 0.40310
H37 H 0.44870 0.26440 0.35960
H38 H 0.09440 1.13630 0.28160
C65 C 0.10880 1.08780 0.33690
H39 H 0.13020 1.02450 0.38250
H40 H 0.05090 0.90230 0.07830
C66 C 0.10110 0.84060 0.05870
H41 H 0.15920 0.78830 0.05180
H42 H 0.16880 0.35150 0.39750
C67 C 0.11070 0.37850 0.36370
H43 H 0.06280 0.42170 0.32430
C68 C 0.20840 0.64840 0.11600
H44 H 0.13980 0.63640 0.12930
H45 H 0.27980 0.65740 0.11890
C69 C 0.46770 0.13450 0.41030
H46 H 0.49890 0.06390 0.38180
H47 H 0.44130 0.21760 0.42550
C70 C 0.08850 1.13470 0.36810
C71 C 0.07820 0.82320 0.01560
C72 C 0.07670 0.33060 0.38210
C73 C 0.20180 0.66770 0.06910
C74 C 0.45980 0.10330 0.45360
O16 O 0.16230 0.65760 0.05210
O17 O 0.23560 0.69230 0.05010
O18 O 0.44800 0.13650 0.48540
O19 O 0.46660 0.04480 0.45660
Ca4 Ca 0.12390 0.67150 -0.01370
O20 O 0.29990 0.20820 0.53160
O21 O 0.36190 0.06400 0.52870
H48 H 0.30010 0.25010 0.53850
H49 H 0.27930 0.20320 0.50930
H50 H 0.38760 0.02550 0.52710
H51 H 0.32930 0.04150 0.53900
O22 O 0.50110 0.92700 0.43330
O23 O 0.45950 0.84030 0.39170
C75 C 0.59640 1.10640 0.46910
N3 N 0.62060 1.04200 0.45830
C76 C 0.66400 1.05880 0.43130
H52? H 0.43340 0.78870 0.50270
H53? H 0.43070 0.75360 0.57880
H54? H 0.40370 0.71080 0.56980
H55? H 0.38910 0.73820 0.49900
O2A O 0.55440 0.76120 0.25250
Ca1A Ca 0.49020 0.73800 0.18720
C1A C 0.57470 0.79580 0.22590
O4A O 0.50620 0.63770 0.21420
O1A O 0.55570 0.81400 0.19090
O3A O 0.52860 0.71350 0.11980
O5A O 0.46070 0.81920 0.13810
O6A O 0.42960 0.68640 0.14640
C4A C 0.62510 0.81440 0.23590
Ca2A Ca 0.45940 0.70880 0.06920
C2A C 0.54820 0.66510 0.10400
C11A C 0.49580 0.50400 0.21160
C7A C 0.65110 0.78680 0.26920
C8A C 0.64640 0.86190 0.21100
O7A O 0.50970 0.78120 0.03050
O8A O 0.53010 0.63490 0.07280
O9A O 0.41090 0.62200 0.09200
O10A O 0.41250 0.80480 0.08140
O11A O 0.40580 0.72420 0.00520
O12A O 0.45680 0.64600 -0.00160
C5A C 0.59510 0.64450 0.12250
O15D O 0.49230 0.49620 0.54590
C16A C 0.49570 0.43900 0.21170
H7A H 0.49300 0.52580 0.18530
H3A H 0.63710 0.75540 0.28630
C12A C 0.69700 0.80420 0.27800
C13A C 0.69260 0.88060 0.22040
H4A H 0.62970 0.88110 0.18820
H1A H 0.53200 0.79920 0.04820
H2A H 0.49310 0.81400 0.01830
Ca3A Ca 0.52900 0.58440 0.00330
C9A C 0.62130 0.68680 0.14860
C10A C 0.61230 0.58330 0.11500
Ca3D Ca 0.52900 0.41560 0.50330
H12A H 0.49270 0.41750 0.18530
H8A H 0.71410 0.78260 0.29960
C17A C 0.71910 0.85440 0.25470
H9A H 0.70640 0.91180 0.20310
O13A O 0.56480 0.68630 -0.02060
O14A O 0.60150 0.52740 0.01020
O15A O 0.49230 0.50380 0.04590
O15E O 0.50770 0.49620 -0.04590
N1A N 0.54280 0.56970 -0.08050
H5A H 0.61020 0.72820 0.15330
C14A C 0.66390 0.66740 0.16750
H6A H 0.59560 0.55520 0.09700
C15A C 0.65470 0.56390 0.13460
N1D N 0.54280 0.43030 0.41950
C22A C 0.76690 0.87920 0.26590
C18A C 0.62110 0.48580 -0.00800
C19A C 0.47870 0.49250 0.08490
Ca3E Ca 0.47100 0.41560 -0.00330
C20A C 0.68070 0.60510 0.16170
H10A H 0.68140 0.69630 0.18430
H11A H 0.66600 0.52270 0.12950
C31A C 0.50950 0.29850 0.21270
C25A C 0.78960 0.92170 0.23920
C26A C 0.79040 0.86310 0.30570
N2A N 0.66660 0.46520 -0.00110
H13A H 0.60380 0.46450 -0.02960
N1E N 0.45720 0.43030 0.08050
C23A C 0.72380 0.58300 0.18540
C36A C 0.50910 0.23030 0.21160
H24A H 0.51650 0.32090 0.18740
C32A C 0.83340 0.94890 0.24980
H14A H 0.77510 0.93300 0.21290
C33A C 0.83380 0.88880 0.31750
H15A H 0.77610 0.83430 0.32450
C27A C 0.68260 0.41450 -0.02730
C28A C 0.69390 0.50220 0.03040
C29A C 0.75520 0.53840 0.16750
C30A C 0.73290 0.60420 0.22800
C43A C 0.51840 0.19650 0.16970
C37A C 0.85480 0.93250 0.28950
C38A C 0.85480 0.99720 0.22040
C39A C 0.85650 0.87230 0.36050
H16A H 0.71650 0.41510 -0.02800
H17A H 0.67000 0.41940 -0.05630
H18A H 0.67220 0.37440 -0.01540
H19A H 0.71480 0.53050 0.01530
H20A H 0.71200 0.47370 0.04860
H21A H 0.67280 0.52690 0.04790
H22A H 0.74980 0.52320 0.13940
C34A C 0.79450 0.51650 0.19140
C35A C 0.77170 0.58400 0.25200
H23A H 0.71190 0.63300 0.24060
C53A C 0.50340 0.13790 0.16320
C54A C 0.53940 0.22310 0.13670
H25A H 0.88360 0.95110 0.29740
C45A C 0.87510 1.05270 0.23570
C46A C 0.85280 0.98720 0.17580
C47A C 0.89950 0.89740 0.37340
C48A C 0.83470 0.83140 0.38970
C40A C 0.80200 0.53950 0.23290
C41A C 0.82800 0.47010 0.17170
C42A C 0.77860 0.60690 0.29760
C63A C 0.51130 0.10600 0.12180
H36A H 0.48740 0.11660 0.18510
C64A C 0.54520 0.19430 0.09690
H37A H 0.55130 0.26440 0.14040
H28A H 0.87710 1.05980 0.26560
C55A C 0.89270 1.09840 0.20750
H29A H 0.83900 0.94990 0.16480
C56A C 0.87110 1.03210 0.14730
C57A C 0.92060 0.88320 0.41360
H30A H 0.91500 0.92490 0.35460
H31A H 0.80530 0.81400 0.38250
C58A C 0.85610 0.81600 0.42930
H26A H 0.82810 0.52490 0.24880
C49A C 0.81150 0.42420 0.14080
C50A C 0.87530 0.46720 0.18450
C51A C 0.82390 0.61310 0.31680
C52A C 0.74030 0.62420 0.32220
C69A C 0.53230 0.13450 0.08970
H46A H 0.50110 0.06390 0.11820
H47A H 0.55870 0.21760 0.07450
H38A H 0.90560 1.13630 0.21840
C65A C 0.89120 1.08780 0.16310
H39A H 0.86980 1.02450 0.11750
H40A H 0.94910 0.90230 0.42170
C66A C 0.89890 0.84060 0.44130
H41A H 0.84080 0.78830 0.44820
H32A H 0.77970 0.42370 0.13240
C59A C 0.84230 0.38040 0.12340
C60A C 0.90550 0.42230 0.16690
H33A H 0.88690 0.49590 0.20530
C61A C 0.82980 0.63310 0.35880
H34A H 0.85040 0.60340 0.30040
H35A H 0.71000 0.62160 0.31010
C62A C 0.74630 0.64530 0.36510
C74A C 0.54020 0.10330 0.04640
C70A C 0.91150 1.13470 0.13190
C71A C 0.92180 0.82320 0.48440
O6B O 0.07040 1.18640 0.35360
O9B O 0.08910 1.12200 0.40800
O11G O 0.09420 0.77580 -0.00520
O12G O 0.04320 0.85400 0.00160
H42A H 0.83120 0.35150 0.10250
C67A C 0.88930 0.37850 0.13630
H43A H 0.93720 0.42170 0.17570
C68A C 0.79160 0.64840 0.38400
H44A H 0.86020 0.63640 0.37070
H45A H 0.72020 0.65740 0.38110
O5B O 0.03930 0.31920 0.36190
O10B O 0.08750 0.30480 0.41860
O18A O 0.55200 0.13650 0.01460
O19A O 0.53340 0.04480 0.04340
O6C O 0.92960 1.18640 0.14640
O9C O 0.91090 1.12200 0.09200
O11F O 0.90580 0.77580 0.50520
O12F O 0.95680 0.85400 0.49840
Ca1B Ca 0.00980 1.23800 0.31280
Ca2B Ca 0.04060 1.20880 0.43080
Ca2G Ca 0.04060 0.79120 -0.06920
Ca3G Ca -0.02900 0.91560 -0.00330
C72A C 0.92330 0.33060 0.11790
C73A C 0.79820 0.66770 0.43090
Ca1B* Ca 0.00980 0.23800 0.31280
Ca2B* Ca 0.04060 0.20880 0.43080
Ca4E Ca 0.12390 0.32850 0.48630
Ca4C Ca 0.37610 0.17150 0.51370
Ca4B Ca 0.62390 0.17150 -0.01370
Ca1C Ca 0.99020 1.23800 0.18720
Ca2C Ca 0.95940 1.20880 0.06920
Ca2F Ca 0.95940 0.79120 0.56920
Ca4A Ca 0.87610 0.67150 0.51370
Ca3F Ca 1.02900 0.91560 0.50330
O5C O 0.96070 0.31920 0.13810
O10C O 0.91250 0.30480 0.08140
O16A O 0.83770 0.65760 0.44790
O17A O 0.76440 0.69230 0.44990
O10D O 0.41250 0.19520 0.58140
O11D O 0.40580 0.27580 0.50520
O16C O 0.33770 0.15760 0.44790
O11E O 0.59420 0.27580 -0.00520
O20A O 0.70010 0.20820 -0.03160
O21A O 0.63810 0.06400 -0.02870
O10E O 0.58750 0.19520 -0.08140
O16B O 0.66230 0.15760 0.05210
Ca1C* Ca 0.99020 0.23800 0.18720
Ca2C* Ca 0.95940 0.20880 0.06920
Ca4D Ca 0.87610 0.32850 0.01370
H48A H 0.69990 0.25010 -0.03850
H49A H 0.72070 0.20320 -0.00930
H50A H 0.61240 0.02550 -0.02710
H51A H 0.67070 0.04150 -0.03900
#END
