
#######################################################################
#
#                 Cambridge Crystallographic Data Centre
#                                CCDC
#
#######################################################################
#
# If this CIF has been generated from an entry in the Cambridge
# Structural Database, then it will include bibliographic, chemical,
# crystal, experimental, refinement or atomic coordinate data resulting
# from the CCDC's data processing and validation procedures.
#
#######################################################################

data_CSD_CIF_KAKCAD
_audit_creation_date 2016-01-21
_audit_creation_method CSD-ConQuest-V1
_database_code_CSD KAKCAD
_database_code_depnum_ccdc_archive 'CCDC 1055173'
_chemical_formula_sum 'C112 H88 N2 O30 Sr5'
_chemical_formula_moiety
;
(C108 H72 O30 Sr5 2-)n,2(C2 H8 N1 1+)
;
_journal_coden_Cambridge 1350
_journal_volume 18
_journal_year 2016
_journal_page_first 1046
_journal_name_full 'CrystEngComm '
loop_
_publ_author_name
"K.S.Asha"
"M.Makkitaya"
"Anshu Sirohi"
"L.Yadav"
"G.Sheet"
"S.Mandal"
_chemical_name_systematic
;
catena-[bis(diemthylammonium) 
tetrakis(\m-1,3,5-benzenetribenzoato)-hexa-aqua-penta-strontium]
;
_cell_volume  16857.714
_exptl_crystal_colour 'colorless'
_exptl_crystal_density_diffrn 0.931
_exptl_special_details
;
We calculate 45.77% void space in the structure

;
_exptl_crystal_description 'platelike'
_diffrn_ambient_temperature 298
#These two values have been output from a single CSD field.
_refine_ls_R_factor_gt 0.0809
_refine_ls_wR_factor_gt 0.0809
_symmetry_cell_setting monoclinic
_symmetry_space_group_name_H-M 'C 2/c'
_symmetry_Int_Tables_number 15
loop_
_symmetry_equiv_pos_site_id
_symmetry_equiv_pos_as_xyz
1 x,y,z
2 -x,y,1/2-z
3 1/2+x,1/2+y,z
4 1/2-x,1/2+y,1/2-z
5 -x,-y,-z
6 x,-y,-1/2+z
7 -1/2-x,-1/2-y,-z
8 -1/2+x,-1/2-y,-1/2+z
_cell_length_a 18.2197(11)
_cell_length_b 31.5978(17)
_cell_length_c 29.862(2)
_cell_angle_alpha 90
_cell_angle_beta 101.311(3)
_cell_angle_gamma 90
_cell_formula_units_Z 4
loop_
_atom_type_symbol
_atom_type_radius_bond
C 0.68
H 0.23
N 0.68
O 0.68
Sr 1.95
loop_
_atom_site_label
_atom_site_type_symbol
_atom_site_fract_x
_atom_site_fract_y
_atom_site_fract_z
Sr1 Sr 0.30382(3) 0.35018(2) 0.57790(2)
Sr2 Sr 0.25000 0.25000 0.50000
Sr3 Sr 0.35143(3) 0.46056(2) 0.53012(2)
O1 O 0.2743(3) 0.39228(12) 0.49875(13)
O2 O 0.2912(3) 0.32404(12) 0.48971(13)
O3 O 1.1617(3) 0.35192(16) 0.5762(3)
O4 O 1.1910(3) 0.29001(15) 0.55255(18)
O5 O -0.1431(3) 0.2465(2) 0.0643(2)
O6 O -0.1235(4) 0.2058(2) 0.1244(2)
O7 O 0.2721(3) 0.56952(12) 0.08522(16)
O8 O 0.2926(4) 0.60430(15) 0.14991(16)
O9 O 0.4204(2) 0.38761(13) 0.57019(17)
O10 O 0.4857(3) 0.43124(16) 0.5356(2)
O11 O 0.4065(4) 0.49491(19) 0.60794(15)
H1 H 0.42440 0.50530 0.63410
H2 H 0.35970 0.49110 0.60540
O12 O 0.4306(3) 0.53006(15) 0.52333(17)
H3 H 0.46160 0.52030 0.50810
H4 H 0.43300 0.51570 0.54770
O13 O 0.3576(6) 0.4718(3) 0.44757(16)
H5 H 0.32260 0.45360 0.44260
H6 H 0.36040 0.48430 0.42270
O14 O 0.7314(3) -0.00074(14) 0.50826(17)
O15 O 0.6143(4) 0.01745(16) 0.4825(3)
C1 C 0.2729(4) 0.36056(17) 0.4727(2)
C2 C 0.2470(4) 0.36542(19) 0.4239(2)
C3 C 0.2426(5) 0.3314(2) 0.3942(2)
H7 H 0.25690 0.30460 0.40560
C4 C 0.2169(5) 0.3367(2) 0.3473(2)
H8 H 0.21490 0.31360 0.32780
C5 C 0.1945(5) 0.3762(2) 0.3297(2)
C6 C 0.1971(5) 0.4099(2) 0.3592(2)
H9 H 0.18190 0.43650 0.34770
C7 C 0.2223(5) 0.4049(2) 0.4059(2)
H10 H 0.22260 0.42790 0.42540
C8 C 0.1692(5) 0.3823(2) 0.2799(2)
C9 C 0.1222(5) 0.3534(2) 0.2535(2)
H11 H 0.10820 0.32900 0.26710
C10 C 0.0952(5) 0.3601(2) 0.2068(2)
C11 C 0.1211(5) 0.3950(2) 0.1871(2)
H12 H 0.10660 0.39890 0.15570
C12 C 0.1682(5) 0.4246(2) 0.2127(2)
C13 C 0.1919(5) 0.4175(2) 0.2582(2)
H13 H 0.22430 0.43690 0.27530
C14 C 0.1932(5) 0.4632(2) 0.1906(2)
C15 C 0.2028(5) 0.4620(2) 0.1462(2)
H14 H 0.19250 0.43710 0.12950
C16 C 0.2074(7) 0.5004(3) 0.2139(3)
H15 H 0.19790 0.50230 0.24330
C17 C 0.2361(6) 0.5359(3) 0.1945(3)
H16 H 0.24920 0.56030 0.21160
C18 C 0.0446(5) 0.3277(2) 0.1791(2)
C19 C 0.0361(5) 0.2885(2) 0.1945(2)
H17 H 0.06480 0.28020 0.22240
C20 C 0.0009(8) 0.3379(3) 0.1377(3)
H18 H 0.00520 0.36470 0.12550
C21 C -0.0499(6) 0.3092(3) 0.1135(3)
H19 H -0.07980 0.31720 0.08580
C22 C 1.1444(4) 0.3151(2) 0.5638(3)
C23 C 1.0674(4) 0.2992(2) 0.5641(3)
C24 C 1.0366(4) 0.2657(2) 0.5363(3)
H20 H 1.06350 0.25310 0.51640
C25 C 1.0234(4) 0.3189(2) 0.5910(3)
H21 H 1.04220 0.34190 0.60910
C26 C -0.1127(4) 0.2387(3) 0.1034(3)
C27 C -0.0560(4) 0.2704(2) 0.1297(2)
C28 C -0.0144(5) 0.2597(2) 0.1701(2)
H22 H -0.01920 0.23290 0.18200
C29 C 0.2724(4) 0.57187(19) 0.1271(2)
C30 C 0.2444(5) 0.5336(2) 0.1496(2)
C31 C 0.2275(5) 0.49719(19) 0.1257(2)
H23 H 0.23250 0.49580 0.09540
C32 C 0.4787(4) 0.3970(2) 0.5553(3)
C33 C 0.5417(4) 0.36482(19) 0.5613(2)
C34 C 0.6053(4) 0.3740(2) 0.5443(3)
H24 H 0.61000 0.40000 0.53070
C35 C 0.6616(4) 0.3443(2) 0.5477(3)
H25 H 0.70430 0.35080 0.53640
C36 C 0.6562(4) 0.30547(19) 0.5674(3)
C37 C 0.5925(4) 0.2969(2) 0.5845(3)
H26 H 0.58740 0.27090 0.59810
C38 C 0.5363(4) 0.3269(2) 0.5817(3)
H27 H 0.49420 0.32090 0.59390
C39 C 0.7157(4) 0.27275(19) 0.5672(3)
C40 C 0.7898(4) 0.2847(2) 0.5700(3)
H28 H 0.80290 0.31290 0.57560
C41 C 0.8455(4) 0.2557(2) 0.5647(3)
C42 C 0.8244(4) 0.2132(2) 0.5568(3)
H29 H 0.86020 0.19340 0.55250
C43 C 0.7512(4) 0.20023(19) 0.5551(3)
C44 C 0.6965(4) 0.2302(2) 0.5602(3)
H30 H 0.64730 0.22160 0.55880
C45 C 0.9221(4) 0.27009(19) 0.5654(3)
C46 C 0.9660(4) 0.2512(2) 0.5387(3)
H31 H 0.94730 0.22760 0.52140
C47 C 0.9525(4) 0.3046(2) 0.5911(3)
H32 H 0.92380 0.31850 0.60900
C48 C 0.6789(5) 0.0260(2) 0.5006(3)
C49 C 0.6975(4) 0.07119(18) 0.5163(3)
C50 C 0.7645(4) 0.08115(19) 0.5425(3)
H33 H 0.79990 0.06000 0.55140
C51 C 0.7807(4) 0.1225(2) 0.5563(3)
H34 H 0.82720 0.12860 0.57430
C52 C 0.7297(4) 0.15510(19) 0.5442(3)
C53 C 0.6608(4) 0.1439(2) 0.5181(3)
H35 H 0.62440 0.16460 0.50980
C54 C 0.6451(4) 0.1029(2) 0.5043(3)
H36 H 0.59850 0.09630 0.48660
N1 N 0.1147(4) 0.4324(2) 0.5179(3)
H37 H 0.15520 0.41870 0.53230
H38 H 0.13020 0.45620 0.50680
C55 C 0.0776(7) 0.4063(4) 0.4794(4)
H39 H 0.11120 0.40170 0.45880
H40 H 0.03360 0.42060 0.46350
H41 H 0.06370 0.37960 0.49050
C56 C 0.0721(6) 0.4431(4) 0.5496(4)
H42 H 0.02240 0.45040 0.53420
H43 H 0.09440 0.46680 0.56730
H44 H 0.06980 0.41940 0.56950
Sr1A Sr -0.30382(3) 0.35018(2) -0.07790(2)
Sr3A Sr -0.35143(3) 0.46056(2) -0.03012(2)
O1A O -0.2743(3) 0.39228(12) 0.00125(13)
O2A O -0.2912(3) 0.32404(12) 0.01029(13)
O3A O -1.1617(3) 0.35192(16) -0.0762(3)
O4A O -1.1910(3) 0.29001(15) -0.05255(18)
O5A O 0.1431(3) 0.2465(2) 0.4357(2)
O6A O 0.1235(4) 0.2058(2) 0.3756(2)
O7A O -0.2721(3) 0.56952(12) 0.41478(16)
O8A O -0.2926(4) 0.60430(15) 0.35009(16)
O9A O -0.4204(2) 0.38761(13) -0.07019(17)
O10A O -0.4857(3) 0.43124(16) -0.0356(2)
O11A O -0.4065(4) 0.49491(19) -0.10794(15)
H1A H -0.42440 0.50530 -0.13410
H2A H -0.35970 0.49110 -0.10540
O12A O -0.4306(3) 0.53006(15) -0.02333(17)
H3A H -0.46160 0.52030 -0.00810
H4A H -0.43300 0.51570 -0.04770
O13A O -0.3576(6) 0.4718(3) 0.05243(16)
H5A H -0.32260 0.45360 0.05740
H6A H -0.36040 0.48430 0.07730
O14A O -0.7314(3) -0.00074(14) -0.00826(17)
O15A O -0.6143(4) 0.01745(16) 0.0175(3)
C1A C -0.2729(4) 0.36056(17) 0.0273(2)
C2A C -0.2470(4) 0.36542(19) 0.0761(2)
C3A C -0.2426(5) 0.3314(2) 0.1058(2)
H7A H -0.25690 0.30460 0.09440
C4A C -0.2169(5) 0.3367(2) 0.1527(2)
H8A H -0.21490 0.31360 0.17220
C5A C -0.1945(5) 0.3762(2) 0.1703(2)
C6A C -0.1971(5) 0.4099(2) 0.1408(2)
H9A H -0.18190 0.43650 0.15230
C7A C -0.2223(5) 0.4049(2) 0.0941(2)
H10A H -0.22260 0.42790 0.07460
C8A C -0.1692(5) 0.3823(2) 0.2201(2)
C9A C -0.1222(5) 0.3534(2) 0.2465(2)
H11A H -0.10820 0.32900 0.23290
C10A C -0.0952(5) 0.3601(2) 0.2932(2)
C11A C -0.1211(5) 0.3950(2) 0.3129(2)
H12A H -0.10660 0.39890 0.34430
C12A C -0.1682(5) 0.4246(2) 0.2873(2)
C13A C -0.1919(5) 0.4175(2) 0.2418(2)
H13A H -0.22430 0.43690 0.22470
C14A C -0.1932(5) 0.4632(2) 0.3094(2)
C15A C -0.2028(5) 0.4620(2) 0.3538(2)
H14A H -0.19250 0.43710 0.37050
C16A C -0.2074(7) 0.5004(3) 0.2861(3)
H15A H -0.19790 0.50230 0.25670
C17A C -0.2361(6) 0.5359(3) 0.3055(3)
H16A H -0.24920 0.56030 0.28840
C18A C -0.0446(5) 0.3277(2) 0.3209(2)
C19A C -0.0361(5) 0.2885(2) 0.3055(2)
H17A H -0.06480 0.28020 0.27760
C20A C -0.0009(8) 0.3379(3) 0.3623(3)
H18A H -0.00520 0.36470 0.37450
C21A C 0.0499(6) 0.3092(3) 0.3865(3)
H19A H 0.07980 0.31720 0.41420
C22A C -1.1444(4) 0.3151(2) -0.0638(3)
C23A C -1.0674(4) 0.2992(2) -0.0641(3)
C24A C -1.0366(4) 0.2657(2) -0.0363(3)
H20A H -1.06350 0.25310 -0.01640
C25A C -1.0234(4) 0.3189(2) -0.0910(3)
H21A H -1.04220 0.34190 -0.10910
C26A C 0.1127(4) 0.2387(3) 0.3966(3)
C27A C 0.0560(4) 0.2704(2) 0.3703(2)
C28A C 0.0144(5) 0.2597(2) 0.3299(2)
H22A H 0.01920 0.23290 0.31800
C29A C -0.2724(4) 0.57187(19) 0.3729(2)
C30A C -0.2444(5) 0.5336(2) 0.3504(2)
C31A C -0.2275(5) 0.49719(19) 0.3743(2)
H23A H -0.23250 0.49580 0.40460
C32A C -0.4787(4) 0.3970(2) -0.0553(3)
C33A C -0.5417(4) 0.36482(19) -0.0613(2)
C34A C -0.6053(4) 0.3740(2) -0.0443(3)
H24A H -0.61000 0.40000 -0.03070
C35A C -0.6616(4) 0.3443(2) -0.0477(3)
H25A H -0.70430 0.35080 -0.03640
C36A C -0.6562(4) 0.30547(19) -0.0674(3)
C37A C -0.5925(4) 0.2969(2) -0.0845(3)
H26A H -0.58740 0.27090 -0.09810
C38A C -0.5363(4) 0.3269(2) -0.0817(3)
H27A H -0.49420 0.32090 -0.09390
C39A C -0.7157(4) 0.27275(19) -0.0672(3)
C40A C -0.7898(4) 0.2847(2) -0.0700(3)
H28A H -0.80290 0.31290 -0.07560
C41A C -0.8455(4) 0.2557(2) -0.0647(3)
C42A C -0.8244(4) 0.2132(2) -0.0568(3)
H29A H -0.86020 0.19340 -0.05250
C43A C -0.7512(4) 0.20023(19) -0.0551(3)
C44A C -0.6965(4) 0.2302(2) -0.0602(3)
H30A H -0.64730 0.22160 -0.05880
C45A C -0.9221(4) 0.27009(19) -0.0654(3)
C46A C -0.9660(4) 0.2512(2) -0.0387(3)
H31A H -0.94730 0.22760 -0.02140
C47A C -0.9525(4) 0.3046(2) -0.0911(3)
H32A H -0.92380 0.31850 -0.10900
C48A C -0.6789(5) 0.0260(2) -0.0006(3)
C49A C -0.6975(4) 0.07119(18) -0.0163(3)
C50A C -0.7645(4) 0.08115(19) -0.0425(3)
H33A H -0.79990 0.06000 -0.05140
C51A C -0.7807(4) 0.1225(2) -0.0563(3)
H34A H -0.82720 0.12860 -0.07430
C52A C -0.7297(4) 0.15510(19) -0.0442(3)
C53A C -0.6608(4) 0.1439(2) -0.0181(3)
H35A H -0.62440 0.16460 -0.00980
C54A C -0.6451(4) 0.1029(2) -0.0043(3)
H36A H -0.59850 0.09630 0.01340
Sr1* Sr 1.30382(3) 0.35018(2) 0.57790(2)
Sr1A* Sr -1.30382(3) 0.35018(2) -0.07790(2)
Sr1D Sr -0.30382(3) 0.64982(2) 0.42210(2)
Sr1E Sr 0.30382(3) 0.64982(2) 0.07790(2)
Sr1F Sr 0.19618(3) 0.14982(2) 0.42210(2)
Sr1G Sr -0.19618(3) 0.14982(2) 0.07790(2)
Sr2* Sr 1.25000 0.25000 0.50000
Sr2A Sr -1.25000 0.25000 0.00000
Sr2A* Sr -0.25000 0.25000 0.00000
Sr3B Sr 0.85143(3) -0.03944(2) 0.53012(2)
Sr3C Sr -0.85143(3) -0.03944(2) -0.03012(2)
Sr3D Sr -0.35143(3) 0.53944(2) 0.46988(2)
Sr3E Sr 0.35143(3) 0.53944(2) 0.03012(2)
O2F O 0.2088(3) 0.17596(12) 0.51029(13)
O3* O 0.1617(3) 0.35192(16) 0.5762(3)
O3A* O -0.1617(3) 0.35192(16) -0.0762(3)
O4* O 0.1910(3) 0.29001(15) 0.55255(18)
O4A* O -0.1910(3) 0.29001(15) -0.05255(18)
O4F O 0.3090(3) 0.20999(15) 0.44745(18)
O5G O 0.3569(3) 0.2535(2) 0.5643(2)
O6F O -0.3765(4) 0.2942(2) -0.1244(2)
O6G O 0.3765(4) 0.2942(2) 0.6244(2)
O7D O -0.2721(3) 0.43048(12) -0.08522(16)
O7E O 0.2721(3) 0.43048(12) 0.58522(16)
O8D O -0.2926(4) 0.39570(15) -0.14991(16)
O8E O 0.2926(4) 0.39570(15) 0.64991(16)
O14B O 0.2314(3) 0.49926(14) 0.50826(17)
O14C O -0.2314(3) 0.49926(14) -0.00826(17)
#END
