
#######################################################################
#
#                 Cambridge Crystallographic Data Centre
#                                CCDC
#
#######################################################################
#
# If this CIF has been generated from an entry in the Cambridge
# Structural Database, then it will include bibliographic, chemical,
# crystal, experimental, refinement or atomic coordinate data resulting
# from the CCDC's data processing and validation procedures.
#
#######################################################################

data_CSD_CIF_KAKCEH01
_audit_creation_date 2016-12-13
_audit_creation_method CSD-ConQuest-V1
_database_code_CSD KAKCEH01
_database_code_depnum_ccdc_archive 'CCDC 1449939'
_chemical_formula_sum 'C29 H25 Ba1 N1 O7'
_chemical_formula_moiety
;
C2 H8 N1 1+,n(C27 H17 Ba1 O7 1-)
;
_journal_coden_Cambridge 179
_journal_volume 55
_journal_year 2016
_journal_page_first 11528
_journal_name_full 'Angew.Chem.,Int.Ed. '
loop_
_publ_author_name
"K S Asha"
"R.Bhattacharjee"
"S.Mandal"
_chemical_name_systematic
;
catena-[Dimethylammonium 
(\m-1,3,5-tris(4-carboxylatophenyl)benzene)-aqua-barium]
;
_cell_volume   3594.828
_exptl_crystal_density_diffrn 1.158
_exptl_crystal_description 'block'
_diffrn_ambient_temperature 296
_refine_special_details
;
We calculate 30% void space in the structure.

;
#These two values have been output from a single CSD field.
_refine_ls_R_factor_gt 0.0788
_refine_ls_wR_factor_gt 0.0788
_symmetry_cell_setting orthorhombic
_symmetry_space_group_name_H-M 'P n a 21'
_symmetry_Int_Tables_number 33
loop_
_symmetry_equiv_pos_site_id
_symmetry_equiv_pos_as_xyz
1 x,y,z
2 -x,-y,1/2+z
3 1/2-x,1/2+y,1/2+z
4 1/2+x,1/2-y,z
_cell_length_a 7.2459(6)
_cell_length_b 19.2242(16)
_cell_length_c 25.807(2)
_cell_angle_alpha 90
_cell_angle_beta 90
_cell_angle_gamma 90
_cell_formula_units_Z 4
loop_
_atom_type_symbol
_atom_type_radius_bond
C 0.68
H 0.23
Ba 2.15
N 0.68
O 0.68
loop_
_atom_site_label
_atom_site_type_symbol
_atom_site_fract_x
_atom_site_fract_y
_atom_site_fract_z
Ba1 Ba 0.18198(8) 0.31140(3) 0.89257(4)
O1 O -0.3791(14) -0.2288(5) 0.4608(3)
O2 O -0.4862(14) -0.1245(4) 0.4742(3)
O3 O 0.1096(13) -0.5484(5) 0.8761(3)
O4 O -0.0289(15) -0.4962(5) 0.9401(4)
O5 O 0.0584(10) 0.1771(3) 0.8798(2)
O6 O 0.3257(13) 0.1859(5) 0.8416(4)
C1 C 0.1888(16) 0.1542(6) 0.8552(5)
C2 C 0.1590(15) 0.0807(6) 0.8316(5)
C3 C 0.2232(17) 0.0632(7) 0.7858(5)
H1 H 0.29690 0.09430 0.76760
C4 C 0.182(2) -0.0021(6) 0.7639(5)
H2 H 0.22160 -0.01320 0.73070
C5 C 0.0824(16) -0.0486(5) 0.7923(4)
C6 C 0.0269(17) -0.0334(7) 0.8420(5)
H3 H -0.03110 -0.06660 0.86250
C7 C 0.0597(17) 0.0327(6) 0.8604(4)
H4 H 0.01430 0.04530 0.89270
C8 C 0.0279(16) -0.1186(6) 0.7704(5)
C9 C -0.3946(19) -0.1764(6) 0.4890(5)
C10 C -0.3168(17) -0.1787(6) 0.5426(5)
C11 C -0.3313(19) -0.1220(6) 0.5764(5)
H5 H -0.39090 -0.08190 0.56520
C12 C -0.2620(19) -0.1239(6) 0.6242(5)
H6 H -0.27580 -0.08510 0.64540
C13 C -0.2264(18) -0.2374(6) 0.5608(5)
H7 H -0.21170 -0.27580 0.53930
C14 C -0.1586(16) -0.2390(6) 0.6103(4)
H8 H -0.10290 -0.27940 0.62250
C15 C 0.0365(14) -0.4957(5) 0.8951(7)
C16 C 0.0241(17) -0.4301(6) 0.8669(5)
C17 C 0.0616(19) -0.4278(6) 0.8133(6)
H9 H 0.09760 -0.46850 0.79660
C18 C 0.0470(17) -0.3684(6) 0.7849(5)
H10 H 0.07230 -0.36920 0.74960
C19 C -0.0046(14) -0.3077(6) 0.8082(5)
C20 C -0.039(2) -0.3094(7) 0.8612(5)
H11 H -0.07080 -0.26820 0.87790
C21 C -0.0289(18) -0.3687(5) 0.8892(7)
H12 H -0.05830 -0.36780 0.92430
C22 C -0.0240(15) -0.2416(5) 0.7770(4)
C23 C -0.0861(15) -0.2423(5) 0.7257(4)
H13 H -0.12260 -0.28430 0.71110
C24 C -0.0948(16) -0.1832(6) 0.6966(4)
C25 C -0.0323(17) -0.1212(6) 0.7175(5)
H14 H -0.02950 -0.08130 0.69730
C26 C 0.0281(17) -0.1787(5) 0.7988(5)
H15 H 0.06390 -0.17730 0.83340
O7 O 0.217(3) 0.3373(11) 0.7852(8)
C27 C -0.1717(17) -0.1805(6) 0.6434(5)
C28 C 0.520(13) 0.533(4) 0.518(3)
N1 N 0.664(10) 0.517(4) 0.568(3)
C29 C 0.633(16) 0.449(6) 0.602(5)
Ba1* Ba 0.18198(8) -0.68860(3) 0.89257(4)
Ba1A Ba -0.18198(8) -0.31140(3) 0.39257(4)
Ba1B Ba -0.68198(8) -0.18860(3) 0.39257(4)
Ba1C Ba -0.31802(8) 0.18860(3) 0.89257(4)
Ba1C* Ba 0.68198(8) 0.18860(3) 0.89257(4)
O1A O 0.3791(14) 0.2288(5) 0.9608(3)
O1B O -0.1209(14) 0.2712(5) 0.9608(3)
O2B O -0.0138(14) 0.3755(4) 0.9742(3)
O3* O 0.1096(13) 0.4516(5) 0.8761(3)
O5C O 0.5584(10) 0.3229(3) 0.8798(2)
O6C O -0.1743(13) 0.3141(5) 0.8416(4)
#END
