
#######################################################################
#
#                 Cambridge Crystallographic Data Centre
#                                CCDC
#
#######################################################################
#
# If this CIF has been generated from an entry in the Cambridge
# Structural Database, then it will include bibliographic, chemical,
# crystal, experimental, refinement or atomic coordinate data resulting
# from the CCDC's data processing and validation procedures.
#
#######################################################################

data_CSD_CIF_KAKCEH
_audit_creation_date 2016-01-21
_audit_creation_method CSD-ConQuest-V1
_database_code_CSD KAKCEH
_database_code_depnum_ccdc_archive 'CCDC 1055174'
_chemical_formula_sum 'C29 H25 Ba1 N1 O7'
_chemical_formula_moiety
;
(C27 H17 Ba1 O7 1-)n,C2 H8 N1 1+
;
_journal_coden_Cambridge 1350
_journal_volume 18
_journal_year 2016
_journal_page_first 1046
_journal_name_full 'CrystEngComm '
loop_
_publ_author_name
"K.S.Asha"
"M.Makkitaya"
"Anshu Sirohi"
"L.Yadav"
"G.Sheet"
"S.Mandal"
_chemical_name_systematic
;
catena-[dimethylammonium (\m-1,3,5-benzenetribenzoato)-aqua-barium]
;
_cell_volume   3688.367
_exptl_crystal_colour 'colorless'
_exptl_crystal_density_diffrn 1.132
_exptl_special_details
;
We calculate 29.02% void space in the structure

;
_exptl_crystal_description 'platelike'
_diffrn_ambient_temperature 298
#These two values have been output from a single CSD field.
_refine_ls_R_factor_gt 0.0451
_refine_ls_wR_factor_gt 0.0451
_symmetry_cell_setting orthorhombic
_symmetry_space_group_name_H-M 'P n a 21'
_symmetry_Int_Tables_number 33
loop_
_symmetry_equiv_pos_site_id
_symmetry_equiv_pos_as_xyz
1 x,y,z
2 -x,-y,1/2+z
3 1/2-x,1/2+y,1/2+z
4 1/2+x,1/2-y,z
_cell_length_a 7.2993(2)
_cell_length_b 19.3615(6)
_cell_length_c 26.0984(9)
_cell_angle_alpha 90
_cell_angle_beta 90
_cell_angle_gamma 90
_cell_formula_units_Z 4
loop_
_atom_type_symbol
_atom_type_radius_bond
C 0.68
H 0.23
Ba 2.15
N 0.68
O 0.68
loop_
_atom_site_label
_atom_site_type_symbol
_atom_site_fract_x
_atom_site_fract_y
_atom_site_fract_z
Ba1 Ba 0.12795(7) 0.69239(2) 0.98982(5)
O1 O -0.4487(13) 0.1289(4) 1.4057(3)
O2 O -0.3298(10) 0.2320(4) 1.4189(3)
O3 O 0.0038(9) -0.1737(3) 0.9968(5)
O4 O 0.2767(10) -0.1838(3) 1.0327(3)
O5 O 0.176(2) 0.6653(11) 1.0942(6)
H1 H 0.12790 0.69580 1.12350
H2 H 0.24570 0.62390 1.10940
O6 O 0.0736(12) 0.5507(4) 1.0036(3)
O7 O -0.0735(13) 0.5010(4) 0.9393(4)
C1 C -0.3540(14) 0.1808(5) 1.3913(4)
C2 C -0.2857(14) 0.1819(5) 1.3375(4)
C3 C -0.2017(14) 0.2391(6) 1.3182(4)
H3 H -0.18440 0.27720 1.33930
C4 C -0.1409(13) 0.2417(5) 1.2675(4)
H4 H -0.08120 0.28100 1.25560
C5 C -0.1684(14) 0.1863(5) 1.2346(4)
C6 C -0.2602(16) 0.1279(5) 1.2538(4)
H5 H -0.27820 0.08990 1.23250
C7 C -0.3236(18) 0.1255(6) 1.3032(5)
H6 H -0.39090 0.08770 1.31440
C8 C 0.0035(14) 0.4996(5) 0.9848(6)
C9 C -0.0104(15) 0.4331(5) 1.0130(4)
C10 C -0.0699(14) 0.3720(5) 0.9900(7)
H7 H -0.10610 0.37240 0.95580
C11 C -0.0756(18) 0.3116(5) 1.0170(5)
H8 H -0.11040 0.27110 1.00060
C12 C -0.0292(13) 0.3098(4) 1.0699(4)
C13 C 0.0279(15) 0.3714(5) 1.0924(4)
H9 H 0.05920 0.37170 1.12700
C14 C 0.0393(14) 0.4322(5) 1.0645(4)
H10 H 0.08010 0.47240 1.08020
C15 C -0.0457(14) 0.2456(5) 1.1004(4)
C16 C 0.0019(12) 0.1830(4) 1.0778(4)
H11 H 0.02960 0.18140 1.04300
C17 C 0.0083(13) 0.1222(5) 1.1071(4)
C18 C -0.0456(14) 0.1256(5) 1.1580(4)
H12 H -0.04640 0.08530 1.17740
C19 C -0.0981(13) 0.1871(5) 1.1809(4)
C20 C -0.0962(11) 0.2470(5) 1.1511(4)
H13 H -0.12990 0.28880 1.16590
C21 C 0.0543(14) 0.0548(5) 1.0829(4)
C22 C 0.1580(14) 0.0055(6) 1.1105(5)
H14 H 0.20540 0.01700 1.14250
C23 C 0.1895(15) -0.0594(5) 1.0904(4)
H15 H 0.26070 -0.09100 1.10840
C24 C 0.0199(14) -0.0288(5) 1.0161(4)
H16 H -0.02740 -0.04040 0.98410
C25 C -0.0077(14) 0.0371(5) 1.0348(4)
H17 H -0.06850 0.06970 1.01490
C26 C 0.1150(12) -0.0776(5) 1.0432(4)
C27 C 0.1339(14) -0.1498(6) 1.0239(5)
C28 C 0.392(16) 0.473(4) 0.851(3)
C29 C 0.294(9) 0.547(3) 0.779(3)
N1 N 0.397(5) 0.538(3) 0.841(3)
Ba1* Ba 0.12795(7) -0.30761(2) 0.98982(5)
Ba1A Ba -0.12795(7) 0.30761(2) 1.48982(5)
Ba1B Ba -0.62795(7) 0.19239(2) 1.48982(5)
Ba1C Ba -0.37205(7) -0.19239(2) 0.98982(5)
Ba1C* Ba 0.62795(7) -0.19239(2) 0.98982(5)
O1B O -0.0513(13) 0.6289(4) 0.9057(3)
O2A O 0.3298(10) 0.7680(4) 0.9189(3)
O2B O -0.1702(10) 0.7320(4) 0.9189(3)
O3* O 0.0038(9) 0.8263(3) 0.9968(5)
O3C O 0.5038(9) 0.6737(3) 0.9968(5)
O4* O 0.2767(10) 0.8162(3) 1.0327(3)
O4C O -0.2233(10) 0.6838(3) 1.0327(3)
#END
