
#######################################################################
#
#                 Cambridge Crystallographic Data Centre
#                                CCDC
#
#######################################################################
#
# If this CIF has been generated from an entry in the Cambridge
# Structural Database, then it will include bibliographic, chemical,
# crystal, experimental, refinement or atomic coordinate data resulting
# from the CCDC's data processing and validation procedures.
#
#######################################################################

data_CSD_CIF_KAKCEH02
_audit_creation_date 2016-12-13
_audit_creation_method CSD-ConQuest-V1
_database_code_CSD KAKCEH02
_database_code_depnum_ccdc_archive 'CCDC 1450180'
_chemical_formula_sum 'C29 H25 Ba1 N1 O7'
_chemical_formula_moiety
;
C2 H8 N1 1+,n(C27 H17 Ba1 O7 1-)
;
_journal_coden_Cambridge 179
_journal_volume 55
_journal_year 2016
_journal_page_first 11528
_journal_name_full 'Angew.Chem.,Int.Ed. '
loop_
_publ_author_name
"K S Asha"
"R.Bhattacharjee"
"S.Mandal"
_chemical_name_systematic
;
catena-[Dimethylammonium 
(\m-1,3,5-tris(4-carboxylatophenyl)benzene)-aqua-barium]
;
_cell_volume   3658.694
_exptl_crystal_density_diffrn 1.138
_exptl_crystal_description 'block'
_diffrn_ambient_temperature 150
_refine_special_details
;
We calculate 22% void space in the structure.

;
#These two values have been output from a single CSD field.
_refine_ls_R_factor_gt 0.0762
_refine_ls_wR_factor_gt 0.0762
_symmetry_cell_setting orthorhombic
_symmetry_space_group_name_H-M 'P n a 21'
_symmetry_Int_Tables_number 33
loop_
_symmetry_equiv_pos_site_id
_symmetry_equiv_pos_as_xyz
1 x,y,z
2 -x,-y,1/2+z
3 1/2-x,1/2+y,1/2+z
4 1/2+x,1/2-y,z
_cell_length_a 7.2652(3)
_cell_length_b 19.3152(9)
_cell_length_c 26.0723(12)
_cell_angle_alpha 90
_cell_angle_beta 90
_cell_angle_gamma 90
_cell_formula_units_Z 4
loop_
_atom_type_symbol
_atom_type_radius_bond
C 0.68
H 0.23
Ba 2.15
N 0.68
O 0.68
loop_
_atom_site_label
_atom_site_type_symbol
_atom_site_fract_x
_atom_site_fract_y
_atom_site_fract_z
Ba1 Ba 0.36744(8) 0.30820(3) 0.41167(5)
O1 O 0.6693(12) 0.2687(5) 0.3414(3)
O2 O 0.5497(13) 0.3723(4) 0.3287(4)
O3 O 0.313(2) 0.3293(9) 0.5176(6)
O4 O -0.0097(8) 0.3265(3) 0.4213(3)
O5 O 0.7141(13) 0.3153(4) 0.4557(4)
O6 O 0.4212(13) 0.4507(4) 0.4257(4)
C1 C 0.3616(16) 0.1519(6) 0.4454(5)
C2 C 0.3758(16) 0.0772(7) 0.4669(6)
C3 C 0.3019(18) 0.0610(7) 0.5122(5)
C4 C 0.4697(17) 0.0293(6) 0.4382(5)
C5 C 0.3366(18) -0.0033(7) 0.5335(5)
H1 H 0.22590 0.09330 0.52960
C6 C 0.5010(17) -0.0358(6) 0.4584(5)
H2 H 0.51280 0.04080 0.40480
C7 C 0.4374(16) -0.0536(6) 0.5065(5)
H3 H 0.29190 -0.01350 0.56690
H4 H 0.56750 -0.06890 0.43880
C8 C 0.4865(17) -0.1223(5) 0.5298(5)
C9 C 0.5402(16) -0.1250(6) 0.5812(5)
C10 C 0.4901(16) -0.1819(5) 0.5018(5)
C11 C 0.5942(15) -0.1867(6) 0.6048(5)
H5 H 0.53990 -0.08350 0.60090
H6 H 0.45980 -0.18020 0.46640
C12 C 0.5369(15) -0.2450(6) 0.5239(5)
C13 C 0.6637(16) -0.1860(6) 0.6571(5)
C14 C 0.5937(16) -0.2458(6) 0.5747(5)
C15 C 0.5217(16) -0.3092(5) 0.4931(5)
C16 C 0.6412(16) -0.2409(6) 0.6900(5)
C17 C 0.756(2) -0.1290(7) 0.6770(6)
H7 H 0.63340 -0.28830 0.58940
C18 C 0.566(2) -0.3097(7) 0.4412(5)
C19 C 0.4660(17) -0.3702(5) 0.5150(5)
C20 C 0.7023(16) -0.2394(6) 0.7399(5)
H8 H 0.58140 -0.28150 0.67780
C21 C 0.817(2) -0.1251(6) 0.7265(6)
H9 H 0.77720 -0.09070 0.65500
C22 C 0.5580(16) -0.3712(5) 0.4140(8)
H10 H 0.60150 -0.26810 0.42450
C23 C 0.4500(17) -0.4312(6) 0.4863(5)
H11 H 0.43750 -0.37110 0.55060
C24 C 0.7859(19) -0.1817(6) 0.7599(5)
H12 H 0.68630 -0.27910 0.76100
H13 H 0.87980 -0.08490 0.73830
H14 H 0.59430 -0.37080 0.37900
C25 C 0.4997(19) -0.4335(6) 0.4353(5)
H15 H 0.40400 -0.47180 0.50240
C26 C 0.8556(18) -0.1796(7) 0.8136(5)
C27 C 0.4915(16) -0.4988(5) 0.4060(8)
O7 O 0.5639(15) -0.4978(4) 0.3605(4)
C28 C 0.123(7) 0.440(3) 0.294(2)
C29 C 0.200(8) 0.463(3) 0.199(2)
N1 N 0.135(7) 0.481(3) 0.253(2)
N2 N 0.142(7) 0.342(3) 0.5860(18)
C30 C 0.254(9) 0.389(3) 0.595(2)
C31 C -0.011(9) 0.321(3) 0.623(2)
O4C O 0.4903(8) 0.1735(3) 0.4213(3)
O1C O 0.1693(12) 0.2313(5) 0.3414(3)
O5C O 0.2141(13) 0.1847(4) 0.4557(4)
Ba1C Ba 0.86744(8) 0.19180(3) 0.41167(5)
Ba1C* Ba -0.13256(8) 0.19180(3) 0.41167(5)
O2B O 0.9503(13) -0.1277(4) 0.8287(4)
O1B O 0.8307(12) -0.2313(5) 0.8414(3)
O6* O 0.4212(13) -0.5493(4) 0.4257(4)
Ba1B Ba 1.13256(8) -0.19180(3) 0.91167(5)
Ba1A Ba 0.63256(8) -0.30820(3) 0.91167(5)
Ba1* Ba 0.36744(8) -0.69180(3) 0.41167(5)
#END
