
#######################################################################
#
#                 Cambridge Crystallographic Data Centre
#                                CCDC
#
#######################################################################
#
# If this CIF has been generated from an entry in the Cambridge
# Structural Database, then it will include bibliographic, chemical,
# crystal, experimental, refinement or atomic coordinate data resulting
# from the CCDC's data processing and validation procedures.
#
#######################################################################

data_CSD_CIF_KAKGEJ
_audit_creation_date 2005-07-22
_audit_creation_method CSD-ConQuest-V1
_database_code_CSD KAKGEJ
_database_code_depnum_ccdc_archive 'CCDC 257607'
_chemical_formula_sum 'C80 H72 Au4 Cl16 F24 N2 Tl2'
_chemical_formula_moiety
;
(C16 H36 N1 1+)2n,n(C48 Au4 Cl16 F24 Tl2 2-)
;
_journal_coden_Cambridge 579
_journal_volume 24
_journal_year 2005
_journal_page_first 1631
_journal_name_full 'Organometallics '
loop_
_publ_author_name
"E.J.Fernandez"
"A.Laguna"
"J.M.Lopez-de-Luzuriaga"
"M.Montiel"
"M.E.Olmos"
"J.Perez"
_chemical_name_systematic
;
catena-(bis(Tetra-n-butylammonium) 
octakis(3,5-dichloro-2,4,6-trifluorophenyl)-tetra-gold-di-thallium)
;
_cell_volume   4940.196
_exptl_crystal_colour 'green'
_exptl_crystal_density_diffrn 2.206
_exptl_crystal_description 'prismatic block'
_diffrn_ambient_temperature 223
#These two values have been output from a single CSD field.
_refine_ls_R_factor_gt 0.048
_refine_ls_wR_factor_gt 0.048
_symmetry_cell_setting monoclinic
_symmetry_space_group_name_H-M 'P 21/n'
_symmetry_Int_Tables_number 14
loop_
_symmetry_equiv_pos_site_id
_symmetry_equiv_pos_as_xyz
1 x,y,z
2 1/2-x,1/2+y,1/2-z
3 -x,-y,-z
4 -1/2+x,-1/2-y,-1/2+z
_cell_length_a 12.2466(1)
_cell_length_b 28.2173(4)
_cell_length_c 15.1129(2)
_cell_angle_alpha 90
_cell_angle_beta 108.925(1)
_cell_angle_gamma 90
_cell_formula_units_Z 2
loop_
_atom_type_symbol
_atom_type_radius_bond
C 0.68
H 0.23
Au 1.50
Cl 0.99
F 0.64
N 0.68
Tl 1.55
loop_
_atom_site_label
_atom_site_type_symbol
_atom_site_fract_x
_atom_site_fract_y
_atom_site_fract_z
Tl1 Tl 0.25012(4) 0.00953(2) 0.00919(4)
Au1 Au 0.50000 0.00000 0.00000
Au2 Au 0.00000 0.00000 0.00000
Au3 Au 0.21811(5) 0.063718(18) 0.16749(4)
C1 C 0.4507(10) 0.0549(5) -0.0944(9)
C2 C 0.5128(11) 0.0960(5) -0.0814(9)
C3 C 0.4844(14) 0.1348(5) -0.1415(11)
C4 C 0.3877(14) 0.1306(6) -0.2184(11)
C5 C 0.3230(16) 0.0905(7) -0.2351(11)
C6 C 0.3540(13) 0.0533(6) -0.1719(10)
F1 F 0.6159(8) 0.1013(3) -0.0010(6)
Cl1 Cl 0.5660(6) 0.18669(16) -0.1198(4)
F2 F 0.3550(12) 0.1708(5) -0.2792(8)
Cl2 Cl 0.1999(5) 0.0876(3) -0.3309(4)
F3 F 0.2848(9) 0.0128(4) -0.1943(7)
C7 C -0.0383(10) 0.0704(5) -0.0378(9)
C8 C -0.0831(9) 0.1008(5) 0.0137(10)
C9 C -0.1037(11) 0.1481(5) -0.0078(12)
C10 C -0.0807(15) 0.1655(7) -0.0844(11)
C11 C -0.0366(14) 0.1367(6) -0.1380(12)
C12 C -0.0124(14) 0.0896(6) -0.1132(11)
F4 F -0.1063(8) 0.0837(3) 0.0924(6)
Cl3 Cl -0.1510(6) 0.1854(2) 0.0597(5)
F5 F -0.1018(11) 0.2129(4) -0.1075(10)
Cl4 Cl -0.0053(6) 0.1583(3) -0.2334(5)
F6 F 0.0408(12) 0.0611(4) -0.1648(8)
C13 C 0.2101(9) 0.1304(4) 0.1106(8)
C14 C 0.1702(9) 0.1660(4) 0.1561(8)
C15 C 0.1606(11) 0.2129(4) 0.1317(10)
C16 C 0.1927(12) 0.2257(5) 0.0549(9)
C17 C 0.2341(12) 0.1926(5) 0.0049(9)
C18 C 0.2404(11) 0.1467(4) 0.0347(9)
F7 F 0.1356(8) 0.1537(3) 0.2293(6)
Cl5 Cl 0.1119(6) 0.25424(15) 0.1929(4)
F8 F 0.1894(10) 0.2714(3) 0.0295(7)
Cl6 Cl 0.2715(5) 0.20970(17) -0.0898(3)
F9 F 0.2795(9) 0.1142(3) -0.0147(7)
C19 C 0.2188(11) 0.0035(5) 0.2453(9)
C20 C 0.2752(10) -0.0395(4) 0.2430(8)
C21 C 0.2733(12) -0.0774(5) 0.2992(9)
C22 C 0.2117(14) -0.0731(5) 0.3602(10)
C23 C 0.1558(18) -0.0321(6) 0.3681(11)
C24 C 0.1597(16) 0.0050(5) 0.3099(11)
F10 F 0.3336(9) -0.0447(3) 0.1831(6)
Cl7 Cl 0.3446(5) -0.12837(16) 0.2949(3)
F11 F 0.2090(11) -0.1090(4) 0.4186(7)
Cl8 Cl 0.0787(6) -0.0276(2) 0.4450(4)
F12 F 0.1022(11) 0.0452(4) 0.3161(8)
N1 N 0.4078(10) -0.1286(5) 0.6873(9)
C25 C 0.2761(12) -0.1329(6) 0.6524(11)
H1 H 0.25720 -0.16670 0.63820
H2 H 0.24750 -0.11550 0.59240
C26 C 0.2056(14) -0.1157(7) 0.7143(13)
H3 H 0.21140 -0.08080 0.72030
H4 H 0.23850 -0.12950 0.77760
C27 C 0.0752(15) -0.1303(8) 0.6721(16)
H5 H 0.03090 -0.11610 0.70980
H6 H 0.04310 -0.11800 0.60740
C28 C 0.064(2) -0.1811(10) 0.672(3)
H7 H 0.09810 -0.19470 0.62710
H8 H -0.01820 -0.18950 0.65290
H9 H 0.10360 -0.19350 0.73430
C29 C 0.4462(13) -0.1517(7) 0.6115(10)
H10 H 0.40530 -0.13600 0.55130
H11 H 0.42140 -0.18530 0.60590
C30 C 0.5763(14) -0.1502(8) 0.6264(12)
H12 H 0.60440 -0.11710 0.63530
H13 H 0.61890 -0.16860 0.68280
C31 C 0.5952(14) -0.1710(7) 0.5421(12)
H14 H 0.56430 -0.20370 0.53310
H15 H 0.55190 -0.15220 0.48650
C32 C 0.7168(16) -0.1720(11) 0.5493(16)
H16 H 0.74610 -0.13950 0.55280
H17 H 0.72530 -0.18790 0.49420
H18 H 0.76070 -0.18940 0.60580
C33 C 0.4380(15) -0.0758(7) 0.6965(13)
H19 H 0.40930 -0.06240 0.74540
H20 H 0.52320 -0.07300 0.71960
C34 C 0.394(2) -0.0461(7) 0.6130(14)
H21 H 0.30910 -0.04410 0.59450
H22 H 0.41430 -0.06070 0.56080
C35 C 0.445(2) 0.0029(8) 0.6308(18)
H23 H 0.42680 0.01670 0.68470
H24 H 0.52970 0.00050 0.64810
C36 C 0.403(3) 0.0341(9) 0.553(2)
H25 H 0.42640 0.02210 0.50100
H26 H 0.43650 0.06570 0.57090
H27 H 0.31910 0.03590 0.53420
C37 C 0.4592(15) -0.1528(8) 0.7813(11)
H28 H 0.43910 -0.13400 0.82910
H29 H 0.54440 -0.15240 0.79790
C38 C 0.421(2) -0.2041(9) 0.7870(13)
H30 H 0.33570 -0.20570 0.76350
H31 H 0.45080 -0.22430 0.74640
C39 C 0.464(2) -0.2224(11) 0.8846(14)
H32 H 0.44140 -0.19960 0.92530
H33 H 0.54930 -0.22300 0.90490
C40 C 0.423(3) -0.2701(11) 0.9008(18)
H34 H 0.34030 -0.27300 0.86670
H35 H 0.43670 -0.27450 0.96790
H36 H 0.46530 -0.29440 0.87870
Tl1B Tl 0.74988(4) -0.00953(2) -0.00919(4)
Tl1B* Tl -0.25012(4) -0.00953(2) -0.00919(4)
Au2* Au 1.00000 0.00000 0.00000
Au3B Au 0.78189(5) -0.063718(18) -0.16749(4)
C1B C 0.5493(10) -0.0549(5) 0.0944(9)
C2B C 0.4872(11) -0.0960(5) 0.0814(9)
C3B C 0.5156(14) -0.1348(5) 0.1415(11)
C4B C 0.6123(14) -0.1306(6) 0.2184(11)
C5B C 0.6770(16) -0.0905(7) 0.2351(11)
C6B C 0.6460(13) -0.0533(6) 0.1719(10)
F1B F 0.3841(8) -0.1013(3) 0.0010(6)
Cl1B Cl 0.4340(6) -0.18669(16) 0.1198(4)
F2B F 0.6450(12) -0.1708(5) 0.2792(8)
Cl2B Cl 0.8001(5) -0.0876(3) 0.3309(4)
F3B F 0.7152(9) -0.0128(4) 0.1943(7)
C7B C 0.0383(10) -0.0704(5) 0.0378(9)
C8B C 0.0831(9) -0.1008(5) -0.0137(10)
C9B C 0.1037(11) -0.1481(5) 0.0078(12)
C10B C 0.0807(15) -0.1655(7) 0.0844(11)
C11B C 0.0366(14) -0.1367(6) 0.1380(12)
C12B C 0.0124(14) -0.0896(6) 0.1132(11)
F4B F 0.1063(8) -0.0837(3) -0.0924(6)
Cl3B Cl 0.1510(6) -0.1854(2) -0.0597(5)
F5B F 0.1018(11) -0.2129(4) 0.1075(10)
Cl4B Cl 0.0053(6) -0.1583(3) 0.2334(5)
F6B F -0.0408(12) -0.0611(4) 0.1648(8)
C13B C 0.7899(9) -0.1304(4) -0.1106(8)
C14B C 0.8298(9) -0.1660(4) -0.1561(8)
C15B C 0.8394(11) -0.2129(4) -0.1317(10)
C16B C 0.8073(12) -0.2257(5) -0.0549(9)
C17B C 0.7659(12) -0.1926(5) -0.0049(9)
C18B C 0.7596(11) -0.1467(4) -0.0347(9)
F7B F 0.8644(8) -0.1537(3) -0.2293(6)
Cl5B Cl 0.8881(6) -0.25424(15) -0.1929(4)
F8B F 0.8106(10) -0.2714(3) -0.0295(7)
Cl6B Cl 0.7285(5) -0.20970(17) 0.0898(3)
F9B F 0.7205(9) -0.1142(3) 0.0147(7)
C19B C 0.7812(11) -0.0035(5) -0.2453(9)
C20B C 0.7248(10) 0.0395(4) -0.2430(8)
C21B C 0.7267(12) 0.0774(5) -0.2992(9)
C22B C 0.7883(14) 0.0731(5) -0.3602(10)
C23B C 0.8442(18) 0.0321(6) -0.3681(11)
C24B C 0.8403(16) -0.0050(5) -0.3099(11)
F10B F 0.6664(9) 0.0447(3) -0.1831(6)
Cl7B Cl 0.6554(5) 0.12837(16) -0.2949(3)
F11B F 0.7910(11) 0.1090(4) -0.4186(7)
Cl8B Cl 0.9213(6) 0.0276(2) -0.4450(4)
F12B F 0.8978(11) -0.0452(4) -0.3161(8)
#END
