
#######################################################################
#
#                 Cambridge Crystallographic Data Centre
#                                CCDC
#
#######################################################################
#
# If this CIF has been generated from an entry in the Cambridge
# Structural Database, then it will include bibliographic, chemical,
# crystal, experimental, refinement or atomic coordinate data resulting
# from the CCDC's data processing and validation procedures.
#
#######################################################################

data_CSD_CIF_KAKGAF
_audit_creation_date 2005-07-22
_audit_creation_method CSD-ConQuest-V1
_database_code_CSD KAKGAF
_database_code_depnum_ccdc_archive 'CCDC 257606'
_chemical_formula_sum 'C104 H72 Au6 Cl60 N2 Tl4'
_chemical_formula_moiety
;
(C16 H36 N1 1+)2n,n(C72 Au6 Cl60 Tl4 2-)
;
_journal_coden_Cambridge 579
_journal_volume 24
_journal_year 2005
_journal_page_first 1631
_journal_name_full 'Organometallics '
loop_
_publ_author_name
"E.J.Fernandez"
"A.Laguna"
"J.M.Lopez-de-Luzuriaga"
"M.Montiel"
"M.E.Olmos"
"J.Perez"
_chemical_name_systematic
;
catena-(bis(Tetra-n-butylammonium) 
dodecakis(pentachlorophenyl)-hexa-gold-tetra-thallium)
;
_cell_volume   3679.543
_exptl_crystal_colour 'pale yellow'
_exptl_crystal_density_diffrn 2.471
_exptl_crystal_description 'prism'
_diffrn_ambient_temperature 173
#These two values have been output from a single CSD field.
_refine_ls_R_factor_gt 0.0422
_refine_ls_wR_factor_gt 0.0422
_symmetry_cell_setting triclinic
_symmetry_space_group_name_H-M 'P -1'
_symmetry_Int_Tables_number 2
loop_
_symmetry_equiv_pos_site_id
_symmetry_equiv_pos_as_xyz
1 x,y,z
2 -x,-y,-z
_cell_length_a 15.0212(2)
_cell_length_b 15.1626(2)
_cell_length_c 17.7726(3)
_cell_angle_alpha 73.664(1)
_cell_angle_beta 72.235(1)
_cell_angle_gamma 79.629(1)
_cell_formula_units_Z 1
loop_
_atom_type_symbol
_atom_type_radius_bond
C 0.68
H 0.23
Au 1.50
Cl 0.99
N 0.68
Tl 1.55
loop_
_atom_site_label
_atom_site_type_symbol
_atom_site_fract_x
_atom_site_fract_y
_atom_site_fract_z
Au1 Au 1.00000 0.00000 -0.50000
Au2 Au 0.592586(19) -0.07594(2) -0.332138(18)
Au3 Au 0.50000 0.00000 0.00000
Au4 Au 0.807296(19) -0.06798(2) -0.207844(18)
Tl1 Tl 0.80513(2) -0.04992(2) -0.384531(19)
Tl2 Tl 0.59593(2) -0.01196(2) -0.178091(19)
C1 C 0.9515(4) 0.1377(6) -0.5076(4)
C2 C 0.8736(5) 0.1790(5) -0.5349(4)
C3 C 0.8444(5) 0.2731(5) -0.5466(4)
C4 C 0.8968(5) 0.3304(6) -0.5328(5)
C5 C 0.9759(5) 0.2919(5) -0.5052(5)
C6 C 0.9978(5) 0.1973(5) -0.4891(5)
Cl1 Cl 0.81205(15) 0.11125(16) -0.56235(16)
Cl2 Cl 0.73997(16) 0.31834(18) -0.57248(16)
Cl3 Cl 0.86545(18) 0.44831(17) -0.55155(16)
Cl4 Cl 1.04259(17) 0.36404(19) -0.49017(17)
Cl5 Cl 1.09314(14) 0.15014(17) -0.44887(14)
C7 C 0.5764(4) 0.0434(5) -0.4191(4)
C8 C 0.5312(4) 0.1293(5) -0.4075(4)
C9 C 0.5176(5) 0.2042(5) -0.4704(5)
C10 C 0.5482(5) 0.1945(5) -0.5503(5)
C11 C 0.5926(5) 0.1103(5) -0.5660(4)
C12 C 0.6058(5) 0.0383(5) -0.5009(5)
Cl6 Cl 0.48492(14) 0.14200(15) -0.30812(13)
Cl7 Cl 0.4673(2) 0.31026(16) -0.45297(16)
Cl8 Cl 0.53032(17) 0.28592(16) -0.62933(14)
Cl9 Cl 0.63350(15) 0.09868(17) -0.66476(13)
Cl10 Cl 0.66389(14) -0.06608(15) -0.52261(13)
C13 C 0.5928(4) -0.2074(5) -0.2589(4)
C14 C 0.5186(4) -0.2332(5) -0.1903(4)
C15 C 0.5048(5) -0.3242(5) -0.1488(4)
C16 C 0.5677(5) -0.3947(5) -0.1770(4)
C17 C 0.6442(5) -0.3737(5) -0.2441(4)
C18 C 0.6556(5) -0.2814(5) -0.2829(4)
Cl11 Cl 0.43587(13) -0.14750(14) -0.15497(12)
Cl12 Cl 0.41322(15) -0.35107(16) -0.06261(13)
Cl13 Cl 0.54989(16) -0.50850(15) -0.12866(15)
Cl14 Cl 0.72223(15) -0.46116(14) -0.27797(14)
Cl15 Cl 0.75084(13) -0.25834(14) -0.36858(13)
C19 C 0.3820(5) -0.0601(5) 0.0139(4)
C20 C 0.3188(5) -0.0207(5) -0.0314(4)
C21 C 0.2448(6) -0.0670(6) -0.0300(5)
C22 C 0.2355(6) -0.1556(6) 0.0174(5)
C23 C 0.2953(6) -0.1969(6) 0.0647(5)
C24 C 0.3669(5) -0.1481(5) 0.0626(5)
Cl16 Cl 0.33456(16) 0.08802(16) -0.09834(14)
Cl17 Cl 0.1687(2) -0.0148(2) -0.0889(2)
Cl18 Cl 0.1495(2) -0.2165(3) 0.0160(2)
Cl19 Cl 0.28489(17) -0.30841(17) 0.12304(16)
Cl20 Cl 0.44038(16) -0.20273(15) 0.12526(14)
C25 C 0.8426(5) 0.0647(5) -0.2341(4)
C26 C 0.8060(4) 0.1459(5) -0.2784(4)
C27 C 0.8352(5) 0.2327(5) -0.2909(4)
C28 C 0.9054(5) 0.2395(5) -0.2582(5)
C29 C 0.9460(5) 0.1604(5) -0.2155(6)
C30 C 0.9128(6) 0.0753(5) -0.2022(6)
Cl21 Cl 0.72019(14) 0.14315(14) -0.32517(13)
Cl22 Cl 0.78181(16) 0.33187(14) -0.34147(14)
Cl23 Cl 0.94025(16) 0.34620(15) -0.26889(17)
Cl24 Cl 1.0376(2) 0.16652(19) -0.1771(2)
Cl25 Cl 0.9624(2) -0.02106(17) -0.1437(2)
C31 C 0.7978(4) -0.2091(5) -0.1768(4)
C32 C 0.7327(5) -0.2578(5) -0.1118(4)
C33 C 0.7376(5) -0.3537(5) -0.0885(4)
C34 C 0.8118(5) -0.4052(5) -0.1307(4)
C35 C 0.8782(5) -0.3602(5) -0.1968(4)
C36 C 0.8698(5) -0.2640(5) -0.2185(4)
Cl26 Cl 0.64210(14) -0.19762(14) -0.05215(12)
Cl27 Cl 0.65119(14) -0.40932(14) -0.00951(13)
Cl28 Cl 0.82246(16) -0.52429(14) -0.10000(15)
Cl29 Cl 0.96866(15) -0.42389(15) -0.25248(15)
Cl30 Cl 0.95584(13) -0.21133(14) -0.30144(13)
N1 N 0.7430(5) 0.5610(5) 0.2090(4)
C37 C 0.7688(7) 0.4568(6) 0.2186(6)
H1 H 0.83640 0.44290 0.21630
H2 H 0.73330 0.42500 0.27350
C38 C 0.7507(8) 0.4156(7) 0.1569(7)
H3 H 0.79630 0.43570 0.10340
H4 H 0.68680 0.43880 0.15060
C39 C 0.7595(8) 0.3105(8) 0.1830(8)
H5 H 0.71180 0.29120 0.23530
H6 H 0.74500 0.28670 0.14200
C40 C 0.8530(8) 0.2669(9) 0.1927(9)
H7 H 0.90080 0.28410 0.14090
H8 H 0.85270 0.19960 0.20930
H9 H 0.86740 0.28820 0.23450
C41 C 0.7911(6) 0.6147(6) 0.1249(6)
H10 H 0.76950 0.68110 0.12050
H11 H 0.77060 0.59550 0.08440
C42 C 0.8986(6) 0.6029(7) 0.1022(6)
H12 H 0.92060 0.63020 0.13700
H13 H 0.92140 0.53630 0.11210
C43 C 0.9391(7) 0.6500(7) 0.0127(6)
H14 H 1.00840 0.63670 -0.00140
H15 H 0.91580 0.62300 -0.02140
C44 C 0.9142(8) 0.7546(8) -0.0081(7)
H16 H 0.84580 0.76860 0.00630
H17 H 0.94020 0.77960 -0.06660
H18 H 0.94080 0.78260 0.02250
C45 C 0.7755(6) 0.5846(7) 0.2733(6)
H19 H 0.74660 0.54480 0.32700
H20 H 0.84450 0.56900 0.26200
C46 C 0.7530(7) 0.6836(9) 0.2789(7)
H21 H 0.68490 0.70230 0.28610
H22 H 0.78780 0.72430 0.22830
C47 C 0.7812(8) 0.6922(12) 0.3507(10)
H23 H 0.75000 0.64730 0.40000
H24 H 0.85000 0.67610 0.34130
C48 C 0.7566(10) 0.7853(13) 0.3652(13)
H25 H 0.78400 0.83060 0.31540
H26 H 0.78140 0.78850 0.40930
H27 H 0.68810 0.79900 0.38050
C49 C 0.6378(6) 0.5862(6) 0.2212(6)
H28 H 0.61970 0.57070 0.17770
H29 H 0.62420 0.65390 0.21460
C50 C 0.5765(6) 0.5389(7) 0.3031(6)
H30 H 0.58000 0.47220 0.30590
H31 H 0.60100 0.54470 0.34710
C51 C 0.4755(6) 0.5796(7) 0.3168(6)
H32 H 0.45140 0.57500 0.27220
H33 H 0.47180 0.64600 0.31530
C52 C 0.4139(6) 0.5310(8) 0.3978(6)
H34 H 0.41180 0.46700 0.39740
H35 H 0.35010 0.56300 0.40650
H36 H 0.43990 0.53180 0.44190
Au2A Au 1.407414(19) 0.07594(2) -0.667862(18)
Au3* Au 1.50000 0.00000 -1.00000
Au4A Au 1.192704(19) 0.06798(2) -0.792156(18)
Tl1A Tl 1.19487(2) 0.04992(2) -0.615469(19)
Tl2A Tl 1.40407(2) 0.01196(2) -0.821909(19)
Tl2A* Tl 0.40407(2) 0.01196(2) 0.178091(19)
C1A C 1.0485(4) -0.1377(6) -0.4924(4)
C2A C 1.1264(5) -0.1790(5) -0.4651(4)
C3A C 1.1556(5) -0.2731(5) -0.4534(4)
C4A C 1.1032(5) -0.3304(6) -0.4672(5)
C5A C 1.0241(5) -0.2919(5) -0.4948(5)
C6A C 1.0022(5) -0.1973(5) -0.5109(5)
Cl1A Cl 1.18795(15) -0.11125(16) -0.43765(16)
Cl2A Cl 1.26003(16) -0.31834(18) -0.42752(16)
Cl3A Cl 1.13455(18) -0.44831(17) -0.44845(16)
Cl4A Cl 0.95741(17) -0.36404(19) -0.50983(17)
Cl5A Cl 0.90686(14) -0.15014(17) -0.55113(14)
C7A C 1.4236(4) -0.0434(5) -0.5809(4)
C8A C 1.4688(4) -0.1293(5) -0.5925(4)
C9A C 1.4824(5) -0.2042(5) -0.5296(5)
C10A C 1.4518(5) -0.1945(5) -0.4497(5)
C11A C 1.4074(5) -0.1103(5) -0.4340(4)
C12A C 1.3942(5) -0.0383(5) -0.4991(5)
Cl6A Cl 1.51508(14) -0.14200(15) -0.69188(13)
Cl7A Cl 1.5327(2) -0.31026(16) -0.54703(16)
Cl8A Cl 1.46968(17) -0.28592(16) -0.37067(14)
Cl9A Cl 1.36650(15) -0.09868(17) -0.33524(13)
Cl10A Cl 1.33611(14) 0.06608(15) -0.47739(13)
C13A C 1.4072(4) 0.2074(5) -0.7411(4)
C14A C 1.4814(4) 0.2332(5) -0.8097(4)
C15A C 1.4952(5) 0.3242(5) -0.8512(4)
C16A C 1.4323(5) 0.3947(5) -0.8230(4)
C17A C 1.3558(5) 0.3737(5) -0.7559(4)
C18A C 1.3444(5) 0.2814(5) -0.7171(4)
Cl11A Cl 1.56413(13) 0.14750(14) -0.84503(12)
Cl12A Cl 1.58678(15) 0.35107(16) -0.93739(13)
Cl13A Cl 1.45011(16) 0.50850(15) -0.87134(15)
Cl14A Cl 1.27777(15) 0.46116(14) -0.72203(14)
Cl15A Cl 1.24916(13) 0.25834(14) -0.63142(13)
C19A C 0.6180(5) 0.0601(5) -0.0139(4)
C20A C 0.6812(5) 0.0207(5) 0.0314(4)
C21A C 0.7552(6) 0.0670(6) 0.0300(5)
C22A C 0.7645(6) 0.1556(6) -0.0174(5)
C23A C 0.7047(6) 0.1969(6) -0.0647(5)
C24A C 0.6331(5) 0.1481(5) -0.0626(5)
Cl16A Cl 0.66544(16) -0.08802(16) 0.09834(14)
Cl17A Cl 0.8313(2) 0.0148(2) 0.0889(2)
Cl18A Cl 0.8505(2) 0.2165(3) -0.0160(2)
Cl19A Cl 0.71511(17) 0.30841(17) -0.12304(16)
Cl20A Cl 0.55962(16) 0.20273(15) -0.12526(14)
C25A C 1.1574(5) -0.0647(5) -0.7659(4)
C26A C 1.1940(4) -0.1459(5) -0.7216(4)
C27A C 1.1648(5) -0.2327(5) -0.7091(4)
C28A C 1.0946(5) -0.2395(5) -0.7418(5)
C29A C 1.0540(5) -0.1604(5) -0.7845(6)
C30A C 1.0872(6) -0.0753(5) -0.7978(6)
Cl21A Cl 1.27981(14) -0.14315(14) -0.67483(13)
Cl22A Cl 1.21819(16) -0.33187(14) -0.65853(14)
Cl23A Cl 1.05975(16) -0.34620(15) -0.73111(17)
Cl24A Cl 0.9624(2) -0.16652(19) -0.8229(2)
Cl25A Cl 1.0376(2) 0.02106(17) -0.8563(2)
C31A C 1.2022(4) 0.2091(5) -0.8232(4)
C32A C 1.2673(5) 0.2578(5) -0.8882(4)
C33A C 1.2624(5) 0.3537(5) -0.9115(4)
C34A C 1.1882(5) 0.4052(5) -0.8693(4)
C35A C 1.1218(5) 0.3602(5) -0.8032(4)
C36A C 1.1302(5) 0.2640(5) -0.7815(4)
Cl26A Cl 1.35790(14) 0.19762(14) -0.94785(12)
Cl27A Cl 1.34881(14) 0.40932(14) -0.99049(13)
Cl28A Cl 1.17754(16) 0.52429(14) -0.90000(15)
Cl29A Cl 1.03134(15) 0.42389(15) -0.74752(15)
Cl30A Cl 1.04416(13) 0.21133(14) -0.69856(13)
#END
