
#######################################################################
#
#                 Cambridge Crystallographic Data Centre
#                                CCDC
#
#######################################################################
#
# If this CIF has been generated from an entry in the Cambridge
# Structural Database, then it will include bibliographic, chemical,
# crystal, experimental, refinement or atomic coordinate data resulting
# from the CCDC's data processing and validation procedures.
#
#######################################################################

data_CSD_CIF_KAKGIN
_audit_creation_date 2005-07-22
_audit_creation_method CSD-ConQuest-V1
_database_code_CSD KAKGIN
_database_code_depnum_ccdc_archive 'CCDC 257608'
_chemical_formula_sum 'C80 H72 Au4 Cl28 F12 N2 Tl2'
_chemical_formula_moiety
;
(C16 H36 N1 1+)2n,n(C48 Au4 Cl28 F12 Tl2 2-)
;
_journal_coden_Cambridge 579
_journal_volume 24
_journal_year 2005
_journal_page_first 1631
_journal_name_full 'Organometallics '
loop_
_publ_author_name
"E.J.Fernandez"
"A.Laguna"
"J.M.Lopez-de-Luzuriaga"
"M.Montiel"
"M.E.Olmos"
"J.Perez"
_chemical_name_systematic
;
catena-(bis(Tetra-n-butylammonium) 
tetrakis(pentachlorophenyl)-tetrakis(3,5-dichloro-2,4,6-trifluorophenyl)-tetra
-gold-di-thallium)
;
_cell_volume   5085.661
_exptl_crystal_colour 'yellow'
_exptl_crystal_density_diffrn 2.272
_exptl_crystal_description 'prismatic block'
_diffrn_ambient_temperature 173
#These two values have been output from a single CSD field.
_refine_ls_R_factor_gt 0.04
_refine_ls_wR_factor_gt 0.04
_symmetry_cell_setting monoclinic
_symmetry_space_group_name_H-M 'P 21/n'
_symmetry_Int_Tables_number 14
loop_
_symmetry_equiv_pos_site_id
_symmetry_equiv_pos_as_xyz
1 x,y,z
2 1/2-x,1/2+y,1/2-z
3 -x,-y,-z
4 -1/2+x,-1/2-y,-1/2+z
_cell_length_a 12.0920(1)
_cell_length_b 28.5736(3)
_cell_length_c 15.4221(2)
_cell_angle_alpha 90
_cell_angle_beta 107.365(1)
_cell_angle_gamma 90
_cell_formula_units_Z 2
loop_
_atom_type_symbol
_atom_type_radius_bond
C 0.68
H 0.23
Au 1.50
Cl 0.99
F 0.64
N 0.68
Tl 1.55
loop_
_atom_site_label
_atom_site_type_symbol
_atom_site_fract_x
_atom_site_fract_y
_atom_site_fract_z
Tl1 Tl 0.24588(2) 0.010313(9) 0.480333(16)
Au1 Au 0.00000 0.00000 0.50000
Au2 Au 0.50000 0.00000 0.50000
Au3 Au 0.27818(2) 0.064080(8) 0.320155(16)
C1 C 0.0467(5) 0.05453(19) 0.5895(4)
C2 C 0.1388(5) 0.0540(2) 0.6693(4)
C3 C 0.1709(5) 0.0913(2) 0.7288(4)
C4 C 0.1068(5) 0.1326(2) 0.7090(4)
C5 C 0.0142(5) 0.1357(2) 0.6309(4)
C6 C -0.0109(5) 0.0975(2) 0.5736(4)
Cl1 Cl 0.21780(16) 0.00185(6) 0.69792(12)
Cl2 Cl 0.28753(17) 0.08784(8) 0.82576(12)
Cl3 Cl 0.14230(19) 0.17971(7) 0.78129(13)
Cl4 Cl -0.06590(17) 0.18630(6) 0.60682(13)
Cl5 Cl -0.12814(16) 0.10218(6) 0.47495(13)
C7 C 0.5312(5) 0.0694(2) 0.5293(4)
C8 C 0.5742(4) 0.1001(2) 0.4759(4)
C9 C 0.5991(5) 0.1468(2) 0.4965(5)
C10 C 0.5832(6) 0.1649(2) 0.5754(5)
C11 C 0.5393(6) 0.1364(2) 0.6305(5)
C12 C 0.5127(5) 0.0902(2) 0.6056(4)
Cl6 Cl 0.59055(17) 0.07820(7) 0.37557(13)
Cl7 Cl 0.64363(17) 0.18337(7) 0.42496(16)
Cl8 Cl 0.6171(2) 0.22180(8) 0.6050(2)
Cl9 Cl 0.5190(2) 0.15882(8) 0.72876(17)
Cl10 Cl 0.44862(18) 0.05695(7) 0.67092(13)
C13 C 0.2764(5) 0.0046(2) 0.2464(4)
C14 C 0.2201(5) -0.0374(2) 0.2504(4)
C15 C 0.2225(6) -0.0769(2) 0.1987(4)
C16 C 0.2850(7) -0.0748(2) 0.1374(5)
C17 C 0.3447(6) -0.0341(2) 0.1295(4)
C18 C 0.3382(6) 0.0040(2) 0.1832(4)
F1 F 0.1539(4) -0.04143(13) 0.3111(2)
Cl11 Cl 0.1482(2) -0.12687(7) 0.20702(15)
F2 F 0.2897(5) -0.11275(18) 0.0847(3)
Cl12 Cl 0.4253(2) -0.03240(9) 0.05375(14)
F3 F 0.3984(4) 0.04396(15) 0.1720(3)
C19 C 0.2897(5) 0.1295(2) 0.3773(4)
C20 C 0.3298(5) 0.1653(2) 0.3341(4)
C21 C 0.3417(5) 0.2114(2) 0.3615(4)
C22 C 0.3130(6) 0.2231(2) 0.4387(4)
C23 C 0.2735(6) 0.1894(2) 0.4863(4)
C24 C 0.2623(5) 0.1443(2) 0.4540(4)
F4 F 0.3626(3) 0.15470(13) 0.2583(3)
Cl13 Cl 0.39168(19) 0.25373(6) 0.30237(15)
F5 F 0.3214(4) 0.26813(15) 0.4672(3)
Cl14 Cl 0.2379(2) 0.20487(7) 0.58325(14)
F6 F 0.2188(4) 0.11201(13) 0.5019(3)
N1 N 0.9133(5) 0.1331(2) 0.1734(4)
C25 C 0.7834(6) 0.1417(3) 0.1387(5)
H1 H 0.75320 0.12680 0.07830
H2 H 0.77040 0.17590 0.13010
C26 C 0.7128(6) 0.1241(3) 0.1988(6)
H3 H 0.74500 0.13690 0.26080
H4 H 0.71760 0.08950 0.20280
C27 C 0.5855(6) 0.1391(3) 0.1595(6)
H5 H 0.55600 0.12840 0.09560
H6 H 0.53890 0.12360 0.19420
C28 C 0.5696(7) 0.1913(3) 0.1626(7)
H7 H 0.60160 0.20230 0.22530
H8 H 0.48690 0.19890 0.14050
H9 H 0.61010 0.20670 0.12410
C29 C 0.9401(7) 0.0812(3) 0.1859(5)
H10 H 1.02530 0.07720 0.20670
H11 H 0.90980 0.06940 0.23480
C30 C 0.8911(7) 0.0512(3) 0.1023(5)
H12 H 0.91350 0.06440 0.05060
H13 H 0.80550 0.05080 0.08580
C31 C 0.9377(9) 0.0012(3) 0.1214(7)
H14 H 1.02280 0.00170 0.13370
H15 H 0.92120 -0.01050 0.17670
C32 C 0.8851(10) -0.0322(3) 0.0433(8)
H16 H 0.80060 -0.03220 0.02950
H17 H 0.91470 -0.06390 0.06040
H18 H 0.90620 -0.02210 -0.01050
C33 C 0.9608(6) 0.1544(3) 0.1010(5)
H19 H 0.91900 0.14010 0.04180
H20 H 0.94200 0.18820 0.09660
C34 C 1.0898(6) 0.1493(3) 0.1147(5)
H21 H 1.11370 0.11640 0.13030
H22 H 1.13360 0.16950 0.16540
C35 C 1.1167(6) 0.1632(3) 0.0274(5)
H23 H 1.07860 0.14090 -0.02150
H24 H 1.08430 0.19470 0.00840
C36 C 1.2458(7) 0.1638(5) 0.0396(6)
H25 H 1.28380 0.18610 0.08750
H26 H 1.25940 0.17310 -0.01750
H27 H 1.27780 0.13240 0.05670
C37 C 0.9665(7) 0.1559(3) 0.2653(5)
H28 H 0.94030 0.13830 0.31090
H29 H 1.05170 0.15230 0.28150
C38 C 0.9399(9) 0.2071(3) 0.2737(6)
H30 H 0.97900 0.22600 0.23750
H31 H 0.85540 0.21220 0.24840
C39 C 0.9786(10) 0.2232(4) 0.3692(6)
H32 H 0.95060 0.20010 0.40550
H33 H 1.06430 0.22160 0.38980
C40 C 0.9463(12) 0.2690(4) 0.3930(7)
H34 H 0.91290 0.28730 0.33760
H35 H 1.01510 0.28510 0.43150
H36 H 0.88900 0.26570 0.42610
Tl1B Tl -0.24588(2) -0.010313(9) 0.519667(16)
Tl1B* Tl 0.75412(2) -0.010313(9) 0.519667(16)
Au2* Au -0.50000 0.00000 0.50000
Au3B Au -0.27818(2) -0.064080(8) 0.679845(16)
C1B C -0.0467(5) -0.05453(19) 0.4105(4)
C2B C -0.1388(5) -0.0540(2) 0.3307(4)
C3B C -0.1709(5) -0.0913(2) 0.2712(4)
C4B C -0.1068(5) -0.1326(2) 0.2910(4)
C5B C -0.0142(5) -0.1357(2) 0.3691(4)
C6B C 0.0109(5) -0.0975(2) 0.4264(4)
Cl1B Cl -0.21780(16) -0.00185(6) 0.30208(12)
Cl2B Cl -0.28753(17) -0.08784(8) 0.17424(12)
Cl3B Cl -0.14230(19) -0.17971(7) 0.21871(13)
Cl4B Cl 0.06590(17) -0.18630(6) 0.39318(13)
Cl5B Cl 0.12814(16) -0.10218(6) 0.52505(13)
C7B C 0.4688(5) -0.0694(2) 0.4707(4)
C8B C 0.4258(4) -0.1001(2) 0.5241(4)
C9B C 0.4009(5) -0.1468(2) 0.5035(5)
C10B C 0.4168(6) -0.1649(2) 0.4246(5)
C11B C 0.4607(6) -0.1364(2) 0.3695(5)
C12B C 0.4873(5) -0.0902(2) 0.3944(4)
Cl6B Cl 0.40945(17) -0.07820(7) 0.62443(13)
Cl7B Cl 0.35637(17) -0.18337(7) 0.57504(16)
Cl8B Cl 0.3829(2) -0.22180(8) 0.3950(2)
Cl9B Cl 0.4810(2) -0.15882(8) 0.27124(17)
Cl10B Cl 0.55138(18) -0.05695(7) 0.32908(13)
C13B C -0.2764(5) -0.0046(2) 0.7536(4)
C14B C -0.2201(5) 0.0374(2) 0.7496(4)
C15B C -0.2225(6) 0.0769(2) 0.8013(4)
C16B C -0.2850(7) 0.0748(2) 0.8626(5)
C17B C -0.3447(6) 0.0341(2) 0.8705(4)
C18B C -0.3382(6) -0.0040(2) 0.8168(4)
F1B F -0.1539(4) 0.04143(13) 0.6889(2)
Cl11B Cl -0.1482(2) 0.12687(7) 0.79298(15)
F2B F -0.2897(5) 0.11275(18) 0.9153(3)
Cl12B Cl -0.4253(2) 0.03240(9) 0.94625(14)
F3B F -0.3984(4) -0.04396(15) 0.8280(3)
C19B C -0.2897(5) -0.1295(2) 0.6227(4)
C20B C -0.3298(5) -0.1653(2) 0.6659(4)
C21B C -0.3417(5) -0.2114(2) 0.6385(4)
C22B C -0.3130(6) -0.2231(2) 0.5613(4)
C23B C -0.2735(6) -0.1894(2) 0.5137(4)
C24B C -0.2623(5) -0.1443(2) 0.5460(4)
F4B F -0.3626(3) -0.15470(13) 0.7417(3)
Cl13B Cl -0.39168(19) -0.25373(6) 0.69763(15)
F5B F -0.3214(4) -0.26813(15) 0.5328(3)
Cl14B Cl -0.2379(2) -0.20487(7) 0.41675(14)
F6B F -0.2188(4) -0.11201(13) 0.4981(3)
#END
