
#######################################################################
#
#                 Cambridge Crystallographic Data Centre
#                                CCDC
#
#######################################################################
#
# If this CIF has been generated from an entry in the Cambridge
# Structural Database, then it will include bibliographic, chemical,
# crystal, experimental, refinement or atomic coordinate data resulting
# from the CCDC's data processing and validation procedures.
#
#######################################################################

data_CSD_CIF_KALBUV
_audit_creation_date 2005-07-22
_audit_creation_method CSD-ConQuest-V1
_database_code_CSD KALBUV
_database_code_depnum_ccdc_archive 'CCDC 240123'
_chemical_formula_sum 'C12 H18 Cd2 N2 O14'
_chemical_formula_moiety
;
(H4 N1 1+)2n,n(C12 H10 Cd2 O14 2-)
;
_journal_coden_Cambridge 119
_journal_volume 740
_journal_year 2005
_journal_page_first 223
_journal_name_full 'J.Mol.Struct. '
loop_
_publ_author_name
"Yu-Mei Dai"
"Jian-Kai Cheng"
"Jian Zhang"
"En Tang"
"Zhao-Ji Li"
"Yi-HangWen"
"Yuan-Gen Yao"
_chemical_name_systematic
;
catena-(bis(Ammonium) bis(\m~5~-citrato)-di-cadmium(ii))
;
_cell_volume   1849.292
_exptl_crystal_colour 'white'
_exptl_crystal_density_diffrn 2.288
_exptl_crystal_description 'Prism'
_diffrn_ambient_temperature 293
#These two values have been output from a single CSD field.
_refine_ls_R_factor_gt 0.0248
_refine_ls_wR_factor_gt 0.0248
_symmetry_cell_setting monoclinic
_symmetry_space_group_name_H-M 'C 2/c'
_symmetry_Int_Tables_number 15
loop_
_symmetry_equiv_pos_site_id
_symmetry_equiv_pos_as_xyz
1 x,y,z
2 1/2+x,1/2+y,z
3 -x,y,1/2-z
4 1/2-x,1/2+y,1/2-z
5 -x,-y,-z
6 -1/2-x,-1/2-y,-z
7 x,-y,-1/2+z
8 -1/2+x,-1/2-y,-1/2+z
_cell_length_a 18.378(4)
_cell_length_b 6.4540(13)
_cell_length_c 16.011(3)
_cell_angle_alpha 90
_cell_angle_beta 103.15(3)
_cell_angle_gamma 90
_cell_formula_units_Z 4
loop_
_atom_type_symbol
_atom_type_radius_bond
C 0.68
H 0.23
Cd 1.41
N 0.68
O 0.78
loop_
_atom_site_label
_atom_site_type_symbol
_atom_site_fract_x
_atom_site_fract_y
_atom_site_fract_z
Cd1 Cd 0.50000 -0.99091(4) 0.25000
Cd2 Cd 0.51384(2) -0.74554(6) 0.01507(2)
O1 O 0.42286(11) -0.4702(3) 0.46687(12)
O2 O 0.45818(11) -0.7759(3) 0.34785(12)
C1 C 0.39976(16) -0.7084(4) 0.29520(17)
O3 O 0.38792(13) -0.7554(3) 0.21737(13)
C2 C 0.38187(14) -0.3948(4) 0.38750(16)
C3 C 0.34471(15) -0.5733(4) 0.32867(17)
H1 H 0.31710 -0.65970 0.36020
H2 H 0.30910 -0.51480 0.28020
N1 N 0.34818(14) -0.5653(4) 0.59634(16)
O4 O 0.40345(11) -0.2087(3) 0.26513(12)
C4 C 0.43275(15) -0.2758(4) 0.33856(17)
O5 O 0.5010(1) -0.2459(3) 0.37457(12)
O6 O 0.30414(12) 0.0720(3) 0.47330(15)
O7 O 0.57885(11) -0.0313(3) 0.01207(13)
C5 C 0.35039(15) -0.0550(4) 0.45943(17)
C6 C 0.32185(15) -0.2433(4) 0.40325(17)
H3 H 0.29370 -0.19390 0.34810
H4 H 0.28750 -0.31920 0.42970
H5 H 0.371(2) -0.538(6) 0.549(3)
H6 H 0.369(2) -0.675(7) 0.623(3)
H7 H 0.292(3) -0.575(7) 0.568(3)
H8 H 0.359(3) -0.457(8) 0.634(3)
Cd1* Cd 0.50000 0.00909(4) 0.25000
Cd2F Cd 0.51384(2) -0.25446(6) 0.51507(2)
Cd2B Cd 0.48616(2) -0.74554(6) 0.48493(2)
Cd2D Cd 0.48616(2) -0.25446(6) -0.01507(2)
Cd2* Cd 0.51384(2) 0.25446(6) 0.01507(2)
Cd2B* Cd 0.48616(2) 0.25446(6) 0.48493(2)
O1D O 0.57714(11) -0.5298(3) 0.53313(12)
O1B O 0.57714(11) -0.4702(3) 0.03313(12)
O1F O 0.42286(11) -0.5298(3) -0.03313(12)
O2B O 0.54182(11) -0.7759(3) 0.15215(12)
C1B C 0.60024(16) -0.7084(4) 0.20480(17)
O3B O 0.61208(13) -0.7554(3) 0.28263(13)
C2B C 0.61813(14) -0.3948(4) 0.11250(16)
C3B C 0.65529(15) -0.5733(4) 0.17133(17)
H1B H 0.68290 -0.65970 0.13980
H2B H 0.69090 -0.51480 0.21980
O4* O 0.40345(11) -1.2087(3) 0.26513(12)
O4B O 0.59655(11) -0.2087(3) 0.23487(12)
O4B* O 0.59655(11) -1.2087(3) 0.23487(12)
C4B C 0.56725(15) -0.2758(4) 0.16144(17)
O5F O 0.5010(1) -0.7541(3) -0.12543(12)
O5B O 0.4990(1) -1.2459(3) 0.12543(12)
O5* O 0.5010(1) -1.2459(3) 0.37457(12)
O5B* O 0.4990(1) -0.2459(3) 0.12543(12)
O6B O 0.69586(12) 0.0720(3) 0.02670(15)
O7D O 0.42115(11) -0.9687(3) -0.01207(13)
O7* O 0.57885(11) -1.0313(3) 0.01207(13)
O7B O 0.42115(11) -0.0313(3) 0.48793(13)
C5B C 0.64961(15) -0.0550(4) 0.04057(17)
C6B C 0.67815(15) -0.2433(4) 0.09675(17)
H3B H 0.70630 -0.19390 0.15190
H4B H 0.71250 -0.31920 0.07030
#END
