
#######################################################################
#
#                 Cambridge Crystallographic Data Centre
#                                CCDC
#
#######################################################################
#
# If this CIF has been generated from an entry in the Cambridge
# Structural Database, then it will include bibliographic, chemical,
# crystal, experimental, refinement or atomic coordinate data resulting
# from the CCDC's data processing and validation procedures.
#
#######################################################################

data_CSD_CIF_KALGUB
_audit_creation_date 2012-03-13
_audit_creation_method CSD-ConQuest-V1
_database_code_CSD KALGUB
_database_code_depnum_ccdc_archive 'CCDC 866154'
_chemical_formula_sum 'C14 H30 N2 O16 Zn2'
_chemical_formula_moiety
;
(C6 O12 Zn2 2-)n,n(C4 H14 N2 2+),4n(C1 H4 O1)
;
_journal_coden_Cambridge 4
_journal_volume 133
_journal_year 2011
_journal_page_first 11050
_journal_name_full 'J.Am.Chem.Soc. '
loop_
_publ_author_name
"M.Sadakiyo"
"T.Yamada"
"H.Kitagawa"
_chemical_name_systematic
;
catena-(Butane-1,4-diaminium tris(\m~2~-oxalato)-di-zinc methanol solvate)
;
_cell_volume    629.317
_exptl_special_details
;
powder data

;
_diffrn_ambient_temperature 296
_diffrn_radiation_probe x-ray
_diffrn_source synchrotron
#These two values have been output from a single CSD field.
_refine_ls_R_factor_gt 0.0141
_refine_ls_wR_factor_gt 0.0141
_symmetry_cell_setting triclinic
_symmetry_space_group_name_H-M 'P -1'
_symmetry_Int_Tables_number 2
loop_
_symmetry_equiv_pos_site_id
_symmetry_equiv_pos_as_xyz
1 x,y,z
2 -x,-y,-z
_cell_length_a 8.7526
_cell_length_b 9.5769
_cell_length_c 9.0567
_cell_angle_alpha 60.9979
_cell_angle_beta 73.2077
_cell_angle_gamma 75.0512
_cell_formula_units_Z 1
loop_
_atom_type_symbol
_atom_type_radius_bond
C 0.68
N 0.68
O 0.68
Zn 1.22
loop_
_atom_site_label
_atom_site_type_symbol
_atom_site_fract_x
_atom_site_fract_y
_atom_site_fract_z
Zn1 Zn 0.00002 0.16923 0.66800
O1 O -0.14475 0.02790 0.88485
O2 O -0.13439 -0.12925 1.16359
O3 O -0.15042 0.38810 0.65527
O4 O 0.14610 -0.04550 0.62012
O5 O 0.11712 -0.16737 0.47430
O6 O -0.12768 0.64803 0.55521
C1 C 0.07652 -0.06227 0.52779
C2 C -0.08128 -0.02875 1.01419
C3 C -0.08083 0.51045 0.56161
N1 N 0.34299 0.61176 0.82667
C4 C 0.18486 0.58125 0.82579
C5 C 0.08199 0.51113 1.00401
C6 C 0.47641 0.13491 0.22425
O7 O 0.42047 0.27072 0.80948
O8 O 0.40060 0.22503 0.32011
C7 C 0.49489 0.28245 0.64208
Zn1A Zn -0.00002 -0.16923 0.33200
Zn1A* Zn -0.00002 -0.16923 1.33200
Zn1A** Zn -0.00002 0.83077 0.33200
O1A O 0.14475 -0.02790 1.11515
O1A* O 0.14475 -0.02790 0.11515
O2A O 0.13439 0.12925 0.83641
O2* O -0.13439 -0.12925 0.16359
O3A O 0.15042 0.61190 0.34473
O3A* O 0.15042 -0.38810 0.34473
O4A O -0.14610 0.04550 0.37988
O5A O -0.11712 0.16737 0.52570
O6A O 0.12768 0.35197 0.44479
O6* O -0.12768 -0.35197 0.55521
C1A C -0.07652 0.06227 0.47221
C2A C 0.08128 0.02875 0.98581
C3A C 0.08083 0.48955 0.43839
N1A N -0.34299 0.38824 1.17333
C4A C -0.18486 0.41875 1.17421
C5A C -0.08199 0.48887 0.99599
#END
