
#######################################################################
#
#                 Cambridge Crystallographic Data Centre
#                                CCDC
#
#######################################################################
#
# If this CIF has been generated from an entry in the Cambridge
# Structural Database, then it will include bibliographic, chemical,
# crystal, experimental, refinement or atomic coordinate data resulting
# from the CCDC's data processing and validation procedures.
#
#######################################################################

data_CSD_CIF_KALGIP
_audit_creation_date 2012-03-13
_audit_creation_method CSD-ConQuest-V1
_database_code_CSD KALGIP
_database_code_depnum_ccdc_archive 'CCDC 866152'
_chemical_formula_sum 'C10 H26 N2 O18 Zn2'
_chemical_formula_moiety
;
(C6 O12 Zn2 2-)n,n(C4 H14 N2 2+),6n(H2 O1)
;
_journal_coden_Cambridge 4
_journal_volume 133
_journal_year 2011
_journal_page_first 11050
_journal_name_full 'J.Am.Chem.Soc. '
loop_
_publ_author_name
"M.Sadakiyo"
"T.Yamada"
"H.Kitagawa"
_chemical_name_systematic
;
catena-(Butane-1,4-diaminium tris(\m~2~-oxalato)-di-zinc hexahydrate)
;
_cell_volume   1109.725
_exptl_crystal_colour 'colorless'
_exptl_crystal_density_diffrn 1.775
_exptl_crystal_description 'platelet'
_diffrn_ambient_temperature 100
#These two values have been output from a single CSD field.
_refine_ls_R_factor_gt 0.0169
_refine_ls_wR_factor_gt 0.0169
_symmetry_cell_setting monoclinic
_symmetry_space_group_name_H-M 'P 21/n'
_symmetry_Int_Tables_number 14
loop_
_symmetry_equiv_pos_site_id
_symmetry_equiv_pos_as_xyz
1 x,y,z
2 1/2-x,1/2+y,1/2-z
3 -x,-y,-z
4 -1/2+x,-1/2-y,-1/2+z
_cell_length_a 8.3007(8)
_cell_length_b 15.6603(14)
_cell_length_c 9.3885(9)
_cell_angle_alpha 90
_cell_angle_beta 114.592(1)
_cell_angle_gamma 90
_cell_formula_units_Z 2
loop_
_atom_type_symbol
_atom_type_radius_bond
C 0.68
H 0.23
N 0.68
O 0.68
Zn 1.22
loop_
_atom_site_label
_atom_site_type_symbol
_atom_site_fract_x
_atom_site_fract_y
_atom_site_fract_z
Zn1 Zn -0.029992(15) 0.330719(8) 0.536463(14)
O1 O -0.30262(10) 0.31297(5) 0.42916(9)
O2 O 0.01011(11) 0.58376(5) 0.62592(9)
O3 O -0.50768(10) 0.24855(5) 0.22020(9)
O4 O -0.04628(10) 0.23532(5) 0.37247(9)
O5 O -0.56159(12) 0.40036(6) 0.49876(10)
H1 H -0.608(2) 0.3737(12) 0.539(2)
H2 H -0.493(2) 0.3719(12) 0.485(2)
O6 O -0.03839(11) 0.44479(5) 0.64529(9)
O7 O -0.24601(12) 0.31796(6) 0.83362(11)
H3 H -0.203(2) 0.2874(12) 0.793(2)
H4 H -0.331(3) 0.2964(13) 0.837(2)
O8 O -0.25216(11) 0.17837(5) 0.15398(10)
N1 N -0.30544(13) 0.49993(7) 0.77555(12)
H5 H -0.212(2) 0.5256(11) 0.838(2)
H6 H -0.289(2) 0.4460(11) 0.7802(18)
H7 H -0.330(2) 0.5186(11) 0.680(2)
C1 C -0.35105(13) 0.26483(6) 0.31224(12)
C2 C -0.20268(13) 0.22213(6) 0.27622(12)
O9 O 0.04163(16) 0.37713(9) 1.10184(14)
H8 H -0.047(3) 0.3588(16) 1.028(3)
H9 H 0.008(3) 0.3831(15) 1.169(3)
C3 C -0.00808(13) 0.50792(7) 0.57885(12)
C4 C -0.42151(15) 0.48930(8) 0.98081(13)
H10 H -0.316(2) 0.5151(10) 1.0562(18)
H11 H -0.399(2) 0.4290(12) 0.989(2)
C5 C -0.45435(16) 0.52030(8) 0.81864(14)
H12 H -0.556(2) 0.4941(10) 0.7443(19)
H13 H -0.465(2) 0.5785(12) 0.815(2)
Zn1B Zn 0.029992(15) 0.669281(8) 0.463537(14)
Zn1A Zn 0.529992(15) 0.830719(8) 0.963537(14)
Zn1C Zn -0.529992(15) 0.169281(8) 0.036463(14)
O1B O 0.30262(10) 0.68703(5) 0.57084(9)
O2B O -0.01011(11) 0.41624(5) 0.37408(9)
O3B O 0.50768(10) 0.75145(5) 0.77980(9)
O3A O 0.00768(10) 0.74855(5) 0.27980(9)
O3C O -0.00768(10) 0.25145(5) 0.72020(9)
O4B O 0.04628(10) 0.76468(5) 0.62753(9)
O6B O 0.03839(11) 0.55521(5) 0.35471(9)
O8B O 0.25216(11) 0.82163(5) 0.84602(10)
O8A O -0.24784(11) 0.67837(5) 0.34602(10)
O8C O 0.24784(11) 0.32163(5) 0.65398(10)
N1B N -0.69456(13) 0.50007(7) 1.22445(12)
H5B H -0.788(2) 0.4744(11) 1.162(2)
H6B H -0.711(2) 0.5540(11) 1.2198(18)
H7B H -0.670(2) 0.4814(11) 1.320(2)
C1B C 0.35105(13) 0.73517(6) 0.68776(12)
C2B C 0.20268(13) 0.77787(6) 0.72378(12)
C3B C 0.00808(13) 0.49208(7) 0.42115(12)
C4B C -0.57849(15) 0.51070(8) 1.01919(13)
H10B H -0.684(2) 0.4849(10) 0.9438(18)
H11B H -0.601(2) 0.5710(12) 1.011(2)
C5B C -0.54565(16) 0.47970(8) 1.18136(14)
H12B H -0.444(2) 0.5059(10) 1.2557(19)
H13B H -0.535(2) 0.4215(12) 1.185(2)
#END
