
#######################################################################
#
#                 Cambridge Crystallographic Data Centre
#                                CCDC
#
#######################################################################
#
# If this CIF has been generated from an entry in the Cambridge
# Structural Database, then it will include bibliographic, chemical,
# crystal, experimental, refinement or atomic coordinate data resulting
# from the CCDC's data processing and validation procedures.
#
#######################################################################

data_CSD_CIF_KALQEV
_audit_creation_date 2012-03-13
_audit_creation_method CSD-ConQuest-V1
_database_code_CSD KALQEV
_database_code_depnum_ccdc_archive 'CCDC 826007'
_chemical_formula_sum 'C12 H24 Cr2 Mn1 N4 O28'
_chemical_formula_moiety
;
(C12 Cr2 Mn1 O24 4-)n,4n(H4 N1 1+),4n(H2 O1)
;
_journal_coden_Cambridge 4
_journal_volume 133
_journal_year 2011
_journal_page_first 15328
_journal_name_full 'J.Am.Chem.Soc. '
loop_
_publ_author_name
"E.Pardo"
"C.Train"
"G.Gontard"
"K.Boubekeur"
"O.Fabelo"
"Hongbo Liu"
"B.Dkhil"
"F.Lloret"
"K.Nakagawa"
"H.Tokoro"
"S.Ohkoshi"
"M.Verdaguer"
_chemical_name_systematic
;
catena-(tetrakis(ammonium) 
tetrakis(\m~2~-oxalato)-bis(oxalato)-di-chromium(iii)-manganese(ii) 
tetrahydrate)
;
_cell_volume   5231.975
_exptl_crystal_colour 'violet'
_exptl_crystal_description 'hexagonal prism'
_diffrn_ambient_temperature 200
_refine_special_details
;
O1W disordered by symmetry over two sites with occupancy 0.50; O2W disordered 
by symmetry over two sites with occupancy 0.25. A number of water molecules 
were not modelled.
;
#These two values have been output from a single CSD field.
_refine_ls_R_factor_gt 0.0578
_refine_ls_wR_factor_gt 0.0578
_symmetry_cell_setting hexagonal
_symmetry_space_group_name_H-M 'P 65 2 2'
_symmetry_Int_Tables_number 179
loop_
_symmetry_equiv_pos_site_id
_symmetry_equiv_pos_as_xyz
1 x,y,z
2 x-y,x,5/6+z
3 -y,x-y,2/3+z
4 -x,-y,1/2+z
5 -x+y,-x,1/3+z
6 y,-x+y,1/6+z
7 -y,-x,1/6-z
8 x-y,-y,-z
9 x,x-y,5/6-z
10 y,x,2/3-z
11 -x+y,y,1/2-z
12 -x,-x+y,1/3-z
_cell_length_a 19.411(2)
_cell_length_b 19.411(2)
_cell_length_c 16.0339(12)
_cell_angle_alpha 90
_cell_angle_beta 90
_cell_angle_gamma 120
_cell_formula_units_Z 6
loop_
_atom_type_symbol
_atom_type_radius_bond
C 0.68
Cr 1.39
Mn 1.61
N 0.68
O 0.68
loop_
_atom_site_label
_atom_site_type_symbol
_atom_site_fract_x
_atom_site_fract_y
_atom_site_fract_z
Mn1 Mn 0.48521(3) 0.51479(3) 0.08330
Cr1 Cr 0.64000(6) 0.83107(4) 0.17485(5)
O1 O 0.62704(18) 0.76978(18) 0.0720(2)
O2 O 0.5523(2) 0.7277(2) 0.2163(2)
O3 O 0.5564(2) 0.64511(19) 0.0236(2)
O4 O 0.4847(2) 0.59972(19) 0.1771(2)
O5 O 0.6343(2) 0.88600(28) 0.2770(2)
O6 O 0.56460(19) 0.86318(25) 0.1305(2)
O7 O 0.6212(2) 0.5833(2) 0.1507(2)
O8 O 0.57355(18) 0.5109(2) -0.0019(3)
O9 O 0.7209(2) 0.8084(2) 0.2191(2)
O10 O 0.7335(2) 0.92890(18) 0.1348(2)
O11 O 0.8510(3) 0.8551(3) 0.2152(3)
O12 O 0.8656(2) 0.9969(3) 0.1534(3)
C1 C 0.5758(2) 0.6966(3) 0.0787(3)
C2 C 0.5330(3) 0.6709(3) 0.1644(3)
C3 C 0.6710(3) 0.5918(3) 0.0995(3)
C4 C 0.6455(3) 0.5523(3) 0.0144(3)
C5 C 0.7929(3) 0.8608(4) 0.2018(3)
C6 C 0.8001(3) 0.9366(3) 0.1579(4)
N1 N 0.0783(3) 0.3708(4) 0.1998(3)
N2 N 0.3281(5) 0.00000 0.00000
N3 N 0.1306(2) 0.2612(5) 0.25000
O13? O 0.2930(7) 0.1736(7) -0.1003(7)
O14? O 0.4813(13) 0.0228(10) -0.0034(14)
O15 O 0.00000 -0.0155(11) 0.16670
O16? O 0.0007(7) -0.0007(7) 0.08330
O3F O 0.35489(20) 0.44360(19) 0.143067(200)
O4F O 0.40028(20) 0.51530(19) -0.010433(200)
O5A O 0.7483(2) 0.63430(28) 0.110333(200)
O6A O 0.70142(19) 0.56460(25) -0.036167(200)
O7F O 0.4167(2) 0.3788(2) 0.015967(200)
O8F O 0.48910(18) 0.42645(20) 0.168567(300)
C3E C 0.5918(3) 0.9208(3) 0.266167(300)
C4E C 0.5523(3) 0.9068(3) 0.181067(300)
#END
