
#######################################################################
#
#                 Cambridge Crystallographic Data Centre
#                                CCDC
#
#######################################################################
#
# If this CIF has been generated from an entry in the Cambridge
# Structural Database, then it will include bibliographic, chemical,
# crystal, experimental, refinement or atomic coordinate data resulting
# from the CCDC's data processing and validation procedures.
#
#######################################################################

data_CSD_CIF_KALXAZ
_audit_creation_date 2017-03-06
_audit_creation_method CSD-ConQuest-V1
_database_code_CSD KALXAZ
_database_code_depnum_ccdc_archive 'CCDC 1502188'
_chemical_formula_sum 'C12 H28 Mg1 O24 U2'
_chemical_formula_moiety
;
(C12 H12 O16 U2 2-)n,H12 Mg1 O6 2+,2(H2 O1)
;
_journal_coden_Cambridge 208
_journal_volume 248
_journal_year 2017
_journal_page_first 178
_journal_name_full 'J.Solid State Chem. '
loop_
_publ_author_name
"S.A.Novikov"
"M.S.Grigor'ev"
"L.B.Serezhkina"
"V.N.Serezhkin"
_chemical_name_systematic
;
catena-[hexa-aqua-magnesium(ii) tris(\m-succinato)-tetraoxo-di-uranium(vi) 
dihydrate]
;
_cell_volume   1352.149
_exptl_crystal_density_diffrn 2.595
_exptl_crystal_description 'block'
_diffrn_ambient_temperature 100
_diffrn_special_details
;
twin

;
#These two values have been output from a single CSD field.
_refine_ls_R_factor_gt 0.0472
_refine_ls_wR_factor_gt 0.0472
_symmetry_cell_setting triclinic
_symmetry_space_group_name_H-M 'P -1'
_symmetry_Int_Tables_number 2
loop_
_symmetry_equiv_pos_site_id
_symmetry_equiv_pos_as_xyz
1 x,y,z
2 -x,-y,-z
_cell_length_a 10.7867(12)
_cell_length_b 11.0627(11)
_cell_length_c 11.9180(12)
_cell_angle_alpha 85.062(6)
_cell_angle_beta 72.924(6)
_cell_angle_gamma 85.378(6)
_cell_formula_units_Z 2
loop_
_atom_type_symbol
_atom_type_radius_bond
C 0.68
H 0.23
Mg 1.41
O 0.68
U 1.96
loop_
_atom_site_label
_atom_site_type_symbol
_atom_site_fract_x
_atom_site_fract_y
_atom_site_fract_z
U1 U 0.32095(3) 0.52001(3) 0.25950(3)
U2 U 0.73741(3) -0.02750(3) 0.68699(3)
O1 O 0.3362(7) 0.3964(6) 0.1713(6)
O2 O 0.3047(6) 0.6455(6) 0.3454(6)
O3 O 0.8481(6) 0.0905(6) 0.6604(5)
O4 O 0.6279(6) -0.1442(6) 0.7132(5)
O5 O 0.3771(6) 0.3964(6) 0.4253(6)
O6 O 0.5406(6) 0.4477(6) 0.2748(6)
O7 O 0.5643(6) 0.1096(6) 0.6388(5)
O8 O 0.7072(6) 0.0299(6) 0.4890(5)
O9 O 0.4873(6) 0.6321(6) 0.1086(5)
O10 O 0.2873(6) 0.6596(6) 0.0966(6)
O11 O 0.2562(6) 1.0440(6) 0.1065(5)
O12 O 0.4005(6) 0.9150(6) 0.1498(5)
O13 O 0.0874(6) 0.5389(6) 0.2589(6)
O14 O 0.1371(6) 0.4285(6) 0.4023(5)
O15 O 0.0791(6) 0.1718(6) 0.2946(5)
O16 O 0.1128(6) 0.1435(6) 0.4668(5)
C1 C 0.4982(10) 0.3863(8) 0.3731(9)
C2 C 0.5875(10) 0.3048(9) 0.4260(9)
H1 H 0.58740 0.33520 0.50180
H2 H 0.67710 0.30620 0.37260
C3 C 0.5443(9) 0.1748(8) 0.4463(7)
H3 H 0.44880 0.17570 0.48030
H4 H 0.56730 0.13670 0.37020
C4 C 0.6081(9) 0.1013(8) 0.5281(8)
C5 C 0.4067(9) 0.6865(8) 0.0603(8)
C6 C 0.4493(9) 0.7796(8) -0.0412(8)
H5 H 0.45760 0.74180 -0.11560
H6 H 0.53590 0.80570 -0.04420
C7 C 0.3541(9) 0.8913(8) -0.0315(7)
H7 H 0.38630 0.94910 -0.10020
H8 H 0.26870 0.86590 -0.03310
C8 C 0.3372(9) 0.9539(8) 0.0789(7)
C9 C 0.0574(9) 0.4593(8) 0.3446(8)
C10 C -0.0682(9) 0.3979(8) 0.3730(8)
H9 H -0.08370 0.37760 0.29910
H10 H -0.14060 0.45430 0.41300
C11 C -0.0666(9) 0.2812(8) 0.4526(8)
H11 H -0.06380 0.30300 0.53060
H12 H -0.14780 0.23990 0.46390
C12 C 0.0473(8) 0.1955(8) 0.4023(8)
Mg1 Mg 0.1649(3) 0.2123(3) 0.7943(3)
O17 O 0.2056(7) 0.2663(7) 0.6166(6)
H13 H 0.259(8) 0.308(9) 0.565(7)
H14 H 0.153(8) 0.243(10) 0.583(8)
O18 O -0.0311(6) 0.1967(6) 0.8039(6)
H15 H -0.067(9) 0.158(8) 0.765(8)
H16 H -0.084(8) 0.255(6) 0.831(8)
O19 O 0.1185(7) 0.1373(7) 0.9611(6)
H17 H 0.170(8) 0.103(10) 0.996(8)
H18 H 0.052(6) 0.165(10) 1.008(7)
O20 O 0.3535(7) 0.2364(7) 0.7893(6)
H19 H 0.410(8) 0.191(8) 0.746(8)
H20 H 0.390(9) 0.264(9) 0.835(7)
O21 O 0.2074(7) 0.0383(6) 0.7388(6)
H21 H 0.227(10) 0.016(8) 0.668(4)
H22 H 0.169(10) -0.022(6) 0.779(7)
O22 O 0.1008(7) 0.3835(6) 0.8479(7)
H23 H 0.033(6) 0.415(8) 0.830(9)
H24 H 0.143(8) 0.446(6) 0.849(10)
O23 O 0.7820(7) 0.4113(7) 0.1120(6)
H25 H 0.707(5) 0.417(10) 0.157(7)
H26 H 0.780(9) 0.397(10) 0.044(4)
O24 O 0.9044(7) 0.1806(6) 0.1580(6)
H27 H 0.954(8) 0.198(9) 0.196(8)
H28 H 0.847(7) 0.234(7) 0.161(9)
U2A U 0.26259(3) 0.02750(3) 0.31301(3)
U2A* U 0.26259(3) 1.02750(3) 0.31301(3)
O11A O 0.7438(6) -0.0440(6) 0.8935(5)
O12A O 0.5995(6) 0.0850(6) 0.8502(5)
O15A O 0.9209(6) -0.1718(6) 0.7054(5)
O16A O 0.8872(6) -0.1435(6) 0.5332(5)
#END
