
#######################################################################
#
#                 Cambridge Crystallographic Data Centre
#                                CCDC
#
#######################################################################
#
# If this CIF has been generated from an entry in the Cambridge
# Structural Database, then it will include bibliographic, chemical,
# crystal, experimental, refinement or atomic coordinate data resulting
# from the CCDC's data processing and validation procedures.
#
#######################################################################

data_CSD_CIF_KAMJEQ
_audit_creation_date 2017-03-06
_audit_creation_method CSD-ConQuest-V1
_database_code_CSD KAMJEQ
_database_code_depnum_ccdc_archive 'CCDC 1487609'
_chemical_formula_sum 'C30 H24 Ag5 Co1 I7 N6'
_chemical_formula_moiety
;
(C30 H24 Co1 N6 2+)n,n(Ag5 I7 2-)
;
_journal_coden_Cambridge 1295
_journal_volume 77
_journal_year 2017
_journal_page_first 64
_journal_name_full 'Inorg.Chem.Commun. '
loop_
_publ_author_name
"Xiao-Wu Lei"
"Cheng-Yang Yue"
"Fan Wu"
"Xiang-Yu Jiang"
"Li-Na Chen"
_chemical_name_systematic
;
catena-[tris(2,2'-bipyridine)-cobalt heptakis(\m-iodo)-penta-silver]
;
_cell_volume   4517.129
_exptl_crystal_colour 'brown'
_exptl_crystal_density_diffrn 2.875
_exptl_crystal_description 'block'
_diffrn_ambient_temperature 296
#These two values have been output from a single CSD field.
_refine_ls_R_factor_gt 0.042
_refine_ls_wR_factor_gt 0.042
_symmetry_cell_setting orthorhombic
_symmetry_space_group_name_H-M 'P 21 21 21'
_symmetry_Int_Tables_number 19
loop_
_symmetry_equiv_pos_site_id
_symmetry_equiv_pos_as_xyz
1 x,y,z
2 1/2-x,-y,1/2+z
3 -x,1/2+y,1/2-z
4 1/2+x,1/2-y,-z
_cell_length_a 13.7377(7)
_cell_length_b 14.0394(7)
_cell_length_c 23.4207(11)
_cell_angle_alpha 90
_cell_angle_beta 90
_cell_angle_gamma 90
_cell_formula_units_Z 4
loop_
_atom_type_symbol
_atom_type_radius_bond
C 0.68
H 0.23
Ag 1.45
Co 1.26
I 1.40
N 0.68
loop_
_atom_site_label
_atom_site_type_symbol
_atom_site_fract_x
_atom_site_fract_y
_atom_site_fract_z
Ag1 Ag 0.99550(6) 0.47443(6) 0.75533(4)
Ag2 Ag 1.12180(8) 0.13175(8) 0.80926(5)
Ag3 Ag 0.85969(8) 0.33650(7) 0.83733(5)
Ag4 Ag 0.85868(8) 0.12264(8) 0.79793(5)
Ag5 Ag 1.10937(8) 0.34494(8) 0.85353(5)
I1 I 1.00147(6) 0.26603(4) 0.74671(3)
I2 I 0.81007(5) 0.52453(5) 0.79342(3)
I3 I 1.01642(6) 0.51239(5) 0.63252(3)
I4 I 1.17012(5) 0.52532(6) 0.81011(3)
I5 I 0.96859(5) 0.35785(5) 0.93800(3)
I6 I 1.26274(6) 0.21913(6) 0.87699(3)
I7 I 0.69765(6) 0.21621(7) 0.83549(4)
Co1 Co 1.47527(9) 0.64616(8) 0.91536(5)
N1 N 1.3799(6) 0.7596(6) 0.8934(4)
N2 N 1.3631(6) 0.5571(6) 0.9497(3)
N3 N 1.5543(5) 0.5313(6) 0.9463(3)
N4 N 1.4736(6) 0.7300(5) 0.9901(3)
N5 N 1.4894(6) 0.5917(6) 0.8334(3)
C1 C 1.3966(7) 0.4744(7) 0.9734(4)
C2 C 1.5009(7) 0.4584(7) 0.9690(4)
N6 N 1.5961(6) 0.7262(6) 0.8797(3)
C3 C 1.6490(8) 0.5190(9) 0.9389(5)
H1 H 1.68550 0.56760 0.92240
C4 C 1.3732(8) 0.8259(7) 0.9325(5)
C5 C 1.6506(10) 0.7877(11) 0.9047(6)
H2 H 1.64300 0.79500 0.94390
C6 C 1.5522(7) 0.6336(8) 0.7983(4)
C7 C 1.4230(7) 0.8085(7) 0.9873(4)
C8 C 1.5423(10) 0.3711(8) 0.9853(5)
H3 H 1.50490 0.32250 1.00100
C9 C 1.6960(9) 0.4339(10) 0.9554(6)
H4 H 1.76310 0.42800 0.95160
C10 C 1.5631(9) 0.6089(12) 0.7415(5)
H5 H 1.60350 0.64340 0.71720
C11 C 1.5214(9) 0.7088(7) 1.0368(5)
H6 H 1.55550 0.65160 1.03740
C12 C 1.2779(10) 0.8448(12) 0.8308(7)
H7 H 1.24560 0.84840 0.79600
C13 C 1.2676(8) 0.5775(8) 0.9526(5)
H8 H 1.24420 0.63300 0.93570
C14 C 1.6824(9) 0.7621(8) 0.7952(5)
H9 H 1.69360 0.74990 0.75670
C15 C 1.2035(8) 0.517(1) 0.9803(6)
H10 H 1.13780 0.53250 0.98170
C16 C 1.3353(8) 0.7681(9) 0.8428(4)
H11 H 1.34360 0.72090 0.81540
C17 C 1.7353(10) 0.8305(9) 0.8231(6)
H12 H 1.78120 0.86650 0.80340
C18 C 1.4722(11) 0.8469(11) 1.0837(6)
H13 H 1.46860 0.88720 1.11510
C19 C 1.2346(9) 0.4360(9) 1.0053(5)
H14 H 1.19120 0.39520 1.02350
C20 C 1.6122(7) 0.7111(7) 0.8248(4)
C21 C 1.4400(8) 0.5153(9) 0.8146(5)
H15 H 1.39950 0.48210 0.83940
C22 C 1.3315(10) 0.4159(8) 1.0030(5)
H16 H 1.35500 0.36210 1.02160
C23 C 1.5251(9) 0.7665(9) 1.0863(4)
H17 H 1.56150 0.75000 1.11830
C24 C 1.6427(11) 0.3608(11) 0.9768(6)
H18 H 1.67310 0.30350 0.98590
C25 C 1.5101(12) 0.5287(13) 0.7218(7)
H19 H 1.51760 0.50670 0.68460
C26 C 1.7207(10) 0.8448(10) 0.8779(6)
H20 H 1.75530 0.89080 0.89800
C27 C 1.4210(8) 0.8701(10) 1.0320(6)
H21 H 1.38670 0.92700 1.02910
C28 C 1.3174(12) 0.9085(9) 0.9223(7)
H22 H 1.31370 0.95640 0.94960
C29 C 1.4491(10) 0.4854(13) 0.7579(6)
H23 H 1.41200 0.43440 0.74510
C30 C 1.2676(11) 0.9174(10) 0.8705(8)
H24 H 1.22890 0.97020 0.86290
Ag2B Ag 0.87820(8) 0.63175(8) 0.69074(5)
Ag4B Ag 1.14132(8) 0.62264(8) 0.70207(5)
I2B I 1.18993(5) 0.02453(5) 0.70658(3)
I3B I 0.98358(6) 0.01239(5) 0.86748(3)
I4B I 0.82988(5) 0.02532(6) 0.68989(3)
#END
