
#######################################################################
#
#                 Cambridge Crystallographic Data Centre
#                                CCDC
#
#######################################################################
#
# If this CIF has been generated from an entry in the Cambridge
# Structural Database, then it will include bibliographic, chemical,
# crystal, experimental, refinement or atomic coordinate data resulting
# from the CCDC's data processing and validation procedures.
#
#######################################################################

data_CSD_CIF_KAMPEW
_audit_creation_date 2017-03-06
_audit_creation_method CSD-ConQuest-V1
_database_code_CSD KAMPEW
_database_code_depnum_ccdc_archive 'CCDC 1536319'
_chemical_formula_sum 'C109.5 H109.5 Mg3 N6.5 O30.5'
_chemical_formula_moiety
;
(C88 H52 Mg3 O20 2-)n,6.5n(C3 H7 N1 O1),2n(H3 O1 1+),n(H2 O1),0.5n(C4 H8 O2)
;
_journal_coden_Cambridge 4
_journal_volume 139
_journal_year 2017
_journal_page_first 3619
_journal_name_full 'J.Am.Chem.Soc. '
loop_
_publ_author_name
"S.S.Park"
"C.H.Hendon"
"A.J.Fielding"
"A.Walsh"
"M.OKeeffe"
"M.Dinca"
_chemical_name_systematic
;
catena-[bis(oxonium) 
bis(\m-aqua)-bis(\m-4,4',4'',4'''-(pyrene-1,3,6,8-tetrayl)tetrabenzoato)-diaqu
a-tri-magnesium N,N-dimethylformamide 1,4-dioxane solvate monohydrate]
;
_chemical_name_common
;
MIT-26
;
_cell_volume   2459.009
_exptl_crystal_colour 'yellow'
_exptl_crystal_description 'block'
_diffrn_ambient_temperature 100
_refine_special_details
;
C141,C142,C144,C145 and C41A,C42A,C44A,C45A disordered over two sites with 
occupancies 0.68:0.32; Disordered oxonium ions, water, N,N-dimethylformamide 
and dioxane solvent molecules were not modelled and the disordered density 
was taken into account using the SQUEEZE/PLATON procedure.
;
#These two values have been output from a single CSD field.
_refine_ls_R_factor_gt 0.0515
_refine_ls_wR_factor_gt 0.0515
_symmetry_cell_setting triclinic
_symmetry_space_group_name_H-M 'P -1'
_symmetry_Int_Tables_number 2
loop_
_symmetry_equiv_pos_site_id
_symmetry_equiv_pos_as_xyz
1 x,y,z
2 -x,-y,-z
_cell_length_a 11.2940(8)
_cell_length_b 14.3971(11)
_cell_length_c 15.9684(12)
_cell_angle_alpha 81.3435(16)
_cell_angle_beta 77.6388(15)
_cell_angle_gamma 77.2317(14)
_cell_formula_units_Z 1
loop_
_atom_type_symbol
_atom_type_radius_bond
C 0.68
H 0.23
Mg 1.41
N 0.68
O 0.68
loop_
_atom_site_label
_atom_site_type_symbol
_atom_site_fract_x
_atom_site_fract_y
_atom_site_fract_z
Mg1 Mg -0.50000 0.50000 0.00000
Mg2 Mg -0.17206(4) 0.46704(3) -0.06267(3)
O1 O -0.08819(8) 0.36177(7) 0.03398(6)
C1 C 0.27791(11) 0.01449(9) 0.44174(8)
C2 C 0.52287(11) -0.18359(9) 0.51717(8)
C3 C 0.42699(11) -0.10186(9) 0.51824(7)
C4 C 0.38332(11) -0.06220(9) 0.44041(8)
C5 C 0.44004(12) -0.10280(9) 0.36176(8)
C6 C 0.21750(11) 0.05183(9) 0.52116(8)
O2 O -0.23815(9) 0.27995(8) 0.09440(7)
C7 C 0.12013(12) 0.11970(9) 0.36866(8)
C8 C 0.27156(12) 0.01732(9) 0.59631(8)
H1 H 0.23670 0.04590 0.64820
C9 C 0.55655(12) -0.23808(9) 0.59850(8)
C10 C 0.06246(12) 0.15958(9) 0.29222(8)
C11 C 0.53668(12) -0.18388(10) 0.36217(8)
C12 C 0.10664(12) 0.12065(9) 0.52343(8)
C13 C 0.57723(12) -0.22201(10) 0.43928(8)
H2 H 0.64370 -0.27560 0.43880
C14 C 0.23104(11) 0.05101(9) 0.36435(8)
C15 C 0.05918(12) 0.15138(9) 0.44801(8)
H3 H -0.01740 0.19550 0.45070
C16 C -0.13393(12) 0.30000(9) 0.08953(8)
C17 C -0.06096(12) 0.24761(9) 0.15679(8)
C18 C 0.67924(12) -0.26982(10) 0.60925(8)
H4 H 0.74420 -0.25320 0.56480
C19 C 0.58085(12) -0.23745(10) 0.28476(8)
C20 C 0.03992(12) 0.16590(9) 0.60308(8)
C21 C 0.29542(13) 0.01207(10) 0.28583(8)
H5 H 0.26770 0.03790 0.23350
C22 C 0.37123(12) -0.0552(1) 0.59477(8)
H6 H 0.40520 -0.07580 0.64550
C23 C 0.12370(12) 0.20812(9) 0.21877(8)
H7 H 0.20810 0.21080 0.21450
C24 C -0.12084(12) 0.19604(10) 0.22844(9)
H8 H -0.20370 0.19010 0.23110
C25 C -0.06057(12) 0.1534(1) 0.29581(8)
H9 H -0.10310 0.11980 0.34470
C26 C 0.39483(13) -0.06062(10) 0.28458(8)
H10 H 0.43560 -0.08420 0.23130
C27 C 0.06277(12) 0.25238(9) 0.15206(8)
H11 H 0.10520 0.28600 0.10310
C28 C 0.70335(14) -0.25731(11) 0.2431(1)
H12 H 0.76410 -0.23450 0.26290
C29 C 0.46316(12) -0.26435(11) 0.66472(9)
H13 H 0.37930 -0.24360 0.65850
C30 C 0.49476(14) -0.27191(15) 0.25408(11)
H14 H 0.41040 -0.25910 0.28170
O3 O -0.00304(8) 0.50752(7) -0.09883(6)
H15 H 0.0557(15) 0.4664(12) -0.0880(12)
H16 H 0.0033(17) 0.5556(12) -0.0794(12)
O4 O -0.33113(8) 0.40366(7) -0.01903(6)
H17 H -0.3039(17) 0.3622(12) 0.0222(11)
H18 H -0.3200(17) 0.3682(12) -0.0602(11)
O5 O 0.74666(9) -0.43425(7) 0.84658(6)
O6 O 0.78886(8) -0.43679(7) 0.03401(6)
O7 O -0.10755(9) 0.36986(7) 0.84722(6)
O8 O 0.58646(9) -0.40829(8) 0.03760(7)
O9 O 0.54574(9) -0.44540(8) 0.87638(6)
C31 C 0.61298(12) -0.35161(9) 0.75019(8)
C32 C 0.65132(12) -0.3442(1) 0.14195(8)
C33 C 0.63817(12) -0.41530(9) 0.83131(8)
C34 C -0.15820(12) 0.31093(10) 0.82422(9)
C35 C 0.70741(12) -0.32560(9) 0.68444(8)
H19 H 0.79120 -0.34600 0.69100
C36 C 0.67838(12) -0.40065(9) 0.06567(8)
C37 C 0.73843(13) -0.31049(11) 0.17245(9)
H20 H 0.82280 -0.32370 0.14500
C38 C 0.49069(12) -0.32008(11) 0.73913(9)
H21 H 0.42560 -0.33710 0.78320
C39 C -0.08888(12) 0.2592(1) 0.74754(8)
C40 C -0.0515(8) 0.1268(6) 0.6608(5)
H22 H -0.07010 0.06850 0.65120
C41 C -0.1160(7) 0.1724(5) 0.7327(5)
H23 H -0.17840 0.14520 0.77190
C42 C 0.0024(6) 0.2969(5) 0.6894(4)
H24 H 0.02270 0.35450 0.69900
C43 C 0.0652(6) 0.2518(4) 0.6170(4)
H25 H 0.12590 0.28000 0.57670
C44 C 0.52898(14) -0.32451(15) 0.18414(11)
H26 H 0.46810 -0.34750 0.16470
O10 O -0.26186(10) 0.29192(10) 0.85941(8)
C45? C -0.0704(17) 0.1444(15) 0.6497(13)
H27? H -0.10220 0.09520 0.63370
C46? C -0.1366(15) 0.1934(14) 0.7202(12)
H28? H -0.21510 0.18040 0.74870
C47? C 0.0212(15) 0.2815(14) 0.7036(10)
H29? H 0.05390 0.32870 0.72190
C48? C 0.0854(15) 0.2349(13) 0.6319(10)
H30? H 0.16190 0.25070 0.60220
C49 C 0.7602(2) 0.53876(15) 0.37516(17)
H31 H 0.67590 0.56620 0.37390
N1 N 0.81480(16) 0.47328(12) 0.32232(12)
O11 O 0.80828(18) 0.56762(13) 0.42595(13)
C50 C 0.94526(19) 0.42867(15) 0.31674(13)
H32 H 0.99480 0.46130 0.26790
H33 H 0.95690 0.36100 0.30830
H34 H 0.97160 0.43380 0.37020
C51 C 0.7478(2) 0.44336(16) 0.26669(16)
H35 H 0.74870 0.37460 0.28030
H36 H 0.78720 0.45650 0.20640
H37 H 0.66220 0.47880 0.27580
Mg2A Mg -0.82794(4) 0.53296(3) 0.06267(3)
O1A O -0.91181(8) 0.63823(7) -0.03398(6)
C1A C -1.27791(11) 0.98551(9) -0.44174(8)
C2A C -1.52287(11) 1.18359(9) -0.51717(8)
C3A C -1.42699(11) 1.10186(9) -0.51824(7)
C4A C -1.38332(11) 1.06220(9) -0.44041(8)
C5A C -1.44004(12) 1.10280(9) -0.36176(8)
C6A C -1.21750(11) 0.94817(9) -0.52116(8)
O2A O -0.76185(9) 0.72005(8) -0.09440(7)
C7A C -1.12013(12) 0.88030(9) -0.36866(8)
C8A C -1.27156(12) 0.98268(9) -0.59631(8)
H1A H -1.23670 0.95410 -0.64820
C9A C -1.55655(12) 1.23808(9) -0.59850(8)
C10A C -1.06246(12) 0.84042(9) -0.29222(8)
C11A C -1.53668(12) 1.18388(10) -0.36217(8)
C12A C -1.10664(12) 0.87935(9) -0.52343(8)
C13A C -1.57723(12) 1.22201(10) -0.43928(8)
H2A H -1.64370 1.27560 -0.43880
C14A C -1.23104(11) 0.94899(9) -0.36435(8)
C15A C -1.05918(12) 0.84862(9) -0.44801(8)
H3A H -0.98260 0.80450 -0.45070
C16A C -0.86607(12) 0.70000(9) -0.08953(8)
C17A C -0.93904(12) 0.75239(9) -0.15679(8)
C18A C -1.67924(12) 1.26982(10) -0.60925(8)
H4A H -1.74420 1.25320 -0.56480
C19A C -1.58085(12) 1.23745(10) -0.28476(8)
C20A C -1.03992(12) 0.83410(9) -0.60308(8)
C21A C -1.29542(13) 0.98793(10) -0.28583(8)
H5A H -1.26770 0.96210 -0.23350
C22A C -1.37123(12) 1.0552(1) -0.59477(8)
H6A H -1.40520 1.07580 -0.64550
C23A C -1.12370(12) 0.79188(9) -0.21877(8)
H7A H -1.20810 0.78920 -0.21450
C24A C -0.87916(12) 0.80396(10) -0.22844(9)
H8A H -0.79630 0.80990 -0.23110
C25A C -0.93943(12) 0.8466(1) -0.29581(8)
H9A H -0.89690 0.88020 -0.34470
C26A C -1.39483(13) 1.06062(10) -0.28458(8)
H10A H -1.43560 1.08420 -0.23130
C27A C -1.06277(12) 0.74762(9) -0.15206(8)
H11A H -1.10520 0.71400 -0.10310
C28A C -1.70335(14) 1.25731(11) -0.2431(1)
H12A H -1.76410 1.23450 -0.26290
C29A C -1.46316(12) 1.26435(11) -0.66472(9)
H13A H -1.37930 1.24360 -0.65850
C30A C -1.49476(14) 1.27191(15) -0.25408(11)
H14A H -1.41040 1.25910 -0.28170
O3A O -0.99696(8) 0.49248(7) 0.09883(6)
H15A H -1.0557(15) 0.5336(12) 0.0880(12)
H16A H -1.0033(17) 0.4444(12) 0.0794(12)
O4A O -0.66887(8) 0.59634(7) 0.01903(6)
H17A H -0.6961(17) 0.6378(12) -0.0222(11)
H18A H -0.6800(17) 0.6318(12) 0.0602(11)
O5A O -1.74666(9) 1.43425(7) -0.84658(6)
O6A O -1.78886(8) 1.43679(7) -0.03401(6)
O7A O -0.89245(9) 0.63014(7) -0.84722(6)
O8A O -1.58646(9) 1.40829(8) -0.03760(7)
O9A O -1.54574(9) 1.44540(8) -0.87638(6)
C31A C -1.61298(12) 1.35161(9) -0.75019(8)
C32A C -1.65132(12) 1.3442(1) -0.14195(8)
C33A C -1.63817(12) 1.41530(9) -0.83131(8)
C34A C -0.84180(12) 0.68907(10) -0.82422(9)
C35A C -1.70741(12) 1.32560(9) -0.68444(8)
H19A H -1.79120 1.34600 -0.69100
C36A C -1.67838(12) 1.40065(9) -0.06567(8)
C37A C -1.73843(13) 1.31049(11) -0.17245(9)
H20A H -1.82280 1.32370 -0.14500
C38A C -1.49069(12) 1.32008(11) -0.73913(9)
H21A H -1.42560 1.33710 -0.78320
C39A C -0.91112(12) 0.7408(1) -0.74754(8)
C40A C -0.9485(8) 0.8732(6) -0.6608(5)
H22A H -0.92990 0.93150 -0.65120
C41A C -0.8840(7) 0.8276(5) -0.7327(5)
H23A H -0.82160 0.85480 -0.77190
C42A C -1.0024(6) 0.7031(5) -0.6894(4)
H24A H -1.02270 0.64550 -0.69900
C43A C -1.0652(6) 0.7482(4) -0.6170(4)
H25A H -1.12590 0.72000 -0.57670
C44A C -1.52898(14) 1.32451(15) -0.18414(11)
H26A H -1.46810 1.34750 -0.16470
O10A O -0.73814(10) 0.70808(10) -0.85941(8)
Mg1* Mg -1.50000 1.50000 -1.00000
Mg1** Mg -1.50000 1.50000 0.00000
Mg1*** Mg 0.50000 -0.50000 0.00000
Mg1**** Mg 0.50000 -0.50000 1.00000
Mg2* Mg -0.17206(4) 0.46704(3) 0.93733(3)
Mg2** Mg 0.82794(4) -0.53296(3) -0.06267(3)
Mg2*** Mg 0.82794(4) -0.53296(3) 0.93733(3)
Mg2A* Mg -1.82794(4) 1.53296(3) -0.93733(3)
Mg2A** Mg -1.82794(4) 1.53296(3) 0.06267(3)
Mg2A*** Mg -0.82794(4) 0.53296(3) -0.93733(3)
O5* O -0.25334(9) 0.56575(7) -0.15342(6)
O5A* O -0.74666(9) 0.43425(7) 0.15342(6)
O6* O -0.21114(8) 0.56321(7) 0.03401(6)
O6A* O -0.78886(8) 0.43679(7) -0.03401(6)
O7* O -0.10755(9) 0.36986(7) -0.15278(6)
O7A* O -0.89245(9) 0.63014(7) 0.15278(6)
O8* O -0.41354(9) 0.59171(8) 0.03760(7)
O8A* O -0.58646(9) 0.40829(8) -0.03760(7)
O9* O -0.45426(9) 0.55460(8) -0.12362(6)
O9A* O -0.54574(9) 0.44540(8) 0.12362(6)
#END
