
#######################################################################
#
#                 Cambridge Crystallographic Data Centre
#                                CCDC
#
#######################################################################
#
# If this CIF has been generated from an entry in the Cambridge
# Structural Database, then it will include bibliographic, chemical,
# crystal, experimental, refinement or atomic coordinate data resulting
# from the CCDC's data processing and validation procedures.
#
#######################################################################

data_CSD_CIF_KAPGUF
_audit_creation_date 2012-03-30
_audit_creation_method CSD-ConQuest-V1
_database_code_CSD KAPGUF
_database_code_depnum_ccdc_archive 'CCDC 737367'
_chemical_formula_sum 'C22 H56 Cu2 Eu1 Ge2 K2 N4 Na9 O102 W22'
_chemical_formula_moiety
;
(C22 H16 Cu2 Eu1 Ge2 N4 O82 W22 11-)n,2n(K1 1+),9n(Na1 1+),20n(H2 O1)
;
_journal_coden_Cambridge 550
_journal_volume 56
_journal_year 2011
_journal_page_first 2331
_journal_name_full 'Chin.Sci.Bull. '
loop_
_publ_author_name
"Ping Sun"
"FengJi Ma"
"ShuXia Liu"
_chemical_name_systematic
;
catena( Di-potassium nona-sodium 
(\m~2~-oxalato)-bis(2,2'-bipyridyl)-bis(germaundecatungstate-copper-europium) 
icosahydrate)
;
_cell_volume  11761.824
_exptl_crystal_colour 'blue'
_exptl_crystal_density_diffrn 3.823
_exptl_crystal_description 'block'
_diffrn_ambient_temperature 283
_refine_special_details
;
O18W disordered by symmetry over two sites with occupancy 0.50.

;
#These two values have been output from a single CSD field.
_refine_ls_R_factor_gt 0.0562
_refine_ls_wR_factor_gt 0.0562
_symmetry_cell_setting monoclinic
_symmetry_space_group_name_H-M 'C 2/c'
_symmetry_Int_Tables_number 15
loop_
_symmetry_equiv_pos_site_id
_symmetry_equiv_pos_as_xyz
1 x,y,z
2 -x,y,1/2-z
3 1/2+x,1/2+y,z
4 1/2-x,1/2+y,1/2-z
5 -x,-y,-z
6 x,-y,-1/2+z
7 -1/2-x,-1/2-y,-z
8 -1/2+x,-1/2-y,-1/2+z
_cell_length_a 15.963(3)
_cell_length_b 19.965(4)
_cell_length_c 37.694(8)
_cell_angle_alpha 90
_cell_angle_beta 101.74(3)
_cell_angle_gamma 90
_cell_formula_units_Z 4
loop_
_atom_type_symbol
_atom_type_radius_bond
C 0.68
H 0.23
Cu 1.32
Eu 1.62
Ge 1.17
K 1.20
N 0.68
Na 1.00
O 0.68
W 1.37
loop_
_atom_site_label
_atom_site_type_symbol
_atom_site_fract_x
_atom_site_fract_y
_atom_site_fract_z
Eu1 Eu 0.00000 0.16435(7) 0.25000
Ge1 Ge -0.06938(15) 0.20775(11) 0.35578(5)
W1 W 0.11713(6) 0.27797(4) 0.33535(2)
W2 W -0.09408(6) 0.33341(4) 0.28870(2)
W3 W -0.14420(6) 0.37395(4) 0.37029(2)
W4 W 0.13594(6) 0.16272(4) 0.40243(2)
W5 W -0.05705(6) 0.08690(4) 0.42490(2)
W6 W 0.00058(6) 0.04992(4) 0.33387(2)
W7 W -0.26986(6) 0.27045(4) 0.31247(2)
W8 W 0.07193(6) 0.31671(4) 0.41773(2)
W9 W -0.18848(6) 0.10056(4) 0.29182(2)
W10 W -0.12361(6) 0.24162(4) 0.44144(2)
W11 W -0.24987(6) 0.13870(5) 0.38248(2)
Cu1 Cu 0.19487(16) 0.36833(12) 0.51069(7)
N1 N 0.0978(11) 0.4107(9) 0.5273(4)
N2 N 0.2339(11) 0.4617(9) 0.5115(5)
C1 C 0.2124(14) 0.2339(11) 0.5078(6)
C2 C -0.0338(16) 0.4114(13) 0.5474(6)
H1 H -0.07930 0.38740 0.55310
C3 C 0.0294(14) 0.3782(12) 0.5339(6)
H2 H 0.02410 0.33240 0.52950
C4 C 0.1040(14) 0.4768(11) 0.5334(6)
C5 C 0.1855(12) 0.5045(9) 0.5242(5)
C6 C 0.3075(15) 0.4818(11) 0.5052(6)
H3 H 0.34470 0.45010 0.49900
C7 C 0.2030(14) 0.5738(11) 0.5269(5)
H4 H 0.16530 0.60380 0.53430
C8 C 0.3328(15) 0.5495(11) 0.5075(6)
H5 H 0.38450 0.56280 0.50190
C9 C 0.2787(17) 0.5952(12) 0.5181(6)
H6 H 0.29290 0.64040 0.51950
C10 C -0.0296(16) 0.4787(12) 0.5523(6)
H7 H -0.07290 0.50210 0.56000
C11 C 0.0435(16) 0.5120(13) 0.5451(5)
H8 H 0.04940 0.55800 0.54840
K1 K -0.2161(3) 0.1050(3) 0.18345(12)
Na1 Na -0.5155(5) 0.1038(4) 0.3518(2)
Na2 Na -0.2802(6) 0.4138(4) 0.2222(2)
Na3 Na -0.1587(8) 0.4546(5) 0.1956(3)
Na4 Na -0.4887(7) 0.3171(6) 0.3353(3)
Na5 Na 0.0137(8) -0.0777(6) 0.4161(3)
O1 O -0.239(1) 0.1894(8) 0.2920(4)
O2 O 0.0212(9) 0.3335(7) 0.3177(4)
O3 O -0.1392(9) 0.1184(7) 0.2553(4)
O4 O 0.1879(9) 0.2141(7) 0.3689(3)
O5 O -0.2266(10) 0.0981(8) 0.3426(4)
O6 O -0.1175(9) 0.4023(7) 0.3270(4)
O7 O -0.1617(11) 0.3119(7) 0.4074(4)
O8 O -0.0773(9) 0.2574(7) 0.2686(4)
O9 O 0.1636(9) 0.2738(7) 0.5190(4)
O10 O -0.2789(9) 0.2192(8) 0.3533(4)
O11 O 0.1156(10) 0.3746(8) 0.4515(4)
O12 O 0.0321(9) 0.0721(7) 0.2929(3)
O13 O -0.0892(9) 0.3933(7) 0.2566(4)
O14 O 0.0822(9) 0.2122(7) 0.3037(3)
O15 O 0.1452(10) 0.2417(7) 0.4333(4)
O16 O -0.0455(9) 0.0508(7) 0.3812(4)
O17 O -0.0261(9) 0.3654(7) 0.3916(4)
O18 O 0.0409(10) -0.0296(8) 0.3424(4)
O19 O 0.1317(9) 0.3350(7) 0.3821(3)
O20 O -0.1402(10) 0.2763(7) 0.4812(4)
O21 O 0.2910(9) 0.3289(7) 0.4916(4)
O22 O -0.2169(9) 0.3220(7) 0.2796(4)
O23 O 0.0901(10) 0.1033(7) 0.3635(4)
O24 O -0.348(1) 0.1095(8) 0.3851(4)
O25 O 0.0333(9) 0.2346(7) 0.3727(3)
O26 O -0.3735(10) 0.2787(8) 0.2910(4)
O27 O -0.1120(9) 0.1795(7) 0.3916(4)
O28 O -0.2579(9) 0.3495(7) 0.3425(4)
O29 O -0.0753(10) 0.1580(8) 0.4594(4)
O30 O -0.0109(10) 0.2735(8) 0.4394(4)
O31 O 0.1995(9) 0.3171(7) 0.3198(4)
O32 O -0.1125(9) 0.0281(7) 0.3107(4)
O33 O -0.0719(9) 0.1442(7) 0.3244(4)
O34 O -0.2303(10) 0.1979(8) 0.4246(4)
O35 O 0.2267(10) 0.1223(8) 0.4242(4)
O36 O -0.1719(10) 0.4483(8) 0.3876(4)
O37 O -0.1286(9) 0.2782(7) 0.3369(4)
O38 O -0.0289(10) 0.0220(8) 0.4548(4)
O39 O 0.0504(11) 0.1286(7) 0.4265(4)
O40 O -0.2738(9) 0.0544(7) 0.2717(4)
O41 O -0.1785(9) 0.0742(7) 0.4138(4)
O42 O 0.1297(9) -0.1391(7) 0.3896(3)
O43 O -0.6222(9) 0.3955(7) 0.3525(4)
O44 O -0.6271(12) 0.0352(8) 0.3001(5)
O45 O -0.2781(12) 0.2183(9) 0.2138(4)
O46? O -0.0522(12) 0.4864(10) 0.2118(5)
O47 O -0.6586(12) 0.0854(9) 0.3789(5)
O48 O 0.3750(13) 0.2491(11) 0.0566(5)
O49 O -0.0506(12) 0.4806(10) 0.1425(5)
O50 O -0.5122(17) 0.2194(13) 0.3873(7)
O51 O -0.0254(18) -0.1729(14) 0.4728(7)
O52 O 0.659(2) 0.2642(16) 0.0957(8)
O53 O 0.293(2) 0.9698(18) 0.0886(9)
O54 O -0.561(3) 0.366(2) 0.2707(11)
O55? O 0.948(2) 0.9505(16) 0.2470(8)
O56 O -0.186(2) -0.0289(16) 0.2063(8)
Ge1A Ge 0.06938(15) 0.20775(11) 0.14422(5)
W1A W -0.11713(6) 0.27797(4) 0.16465(2)
W2A W 0.09408(6) 0.33341(4) 0.21130(2)
W3A W 0.14420(6) 0.37395(4) 0.12971(2)
W4A W -0.13594(6) 0.16272(4) 0.09757(2)
W5A W 0.05705(6) 0.08690(4) 0.07510(2)
W6A W -0.00058(6) 0.04992(4) 0.16613(2)
W7A W 0.26986(6) 0.27045(4) 0.18753(2)
W8A W -0.07193(6) 0.31671(4) 0.08227(2)
W8F W 0.42807(6) 0.18329(4) 0.58227(2)
W9A W 0.18848(6) 0.10056(4) 0.20818(2)
W10A W 0.12361(6) 0.24162(4) 0.05856(2)
W11A W 0.24987(6) 0.13870(5) 0.11752(2)
Cu1F Cu 0.30513(16) 0.13167(12) 0.48931(7)
N1F N 0.4022(11) 0.0893(9) 0.4727(4)
N2F N 0.2661(11) 0.0383(9) 0.4885(5)
C1F C 0.2876(14) 0.2661(11) 0.4922(6)
C2F C 0.5338(16) 0.0886(13) 0.4526(6)
H1F H 0.57930 0.11260 0.44690
C3F C 0.4706(14) 0.1218(12) 0.4661(6)
H2F H 0.47590 0.16760 0.47050
C4F C 0.3960(14) 0.0232(11) 0.4666(6)
C5F C 0.3145(12) -0.0045(9) 0.4758(5)
C6F C 0.1925(15) 0.0182(11) 0.4948(6)
H3F H 0.15530 0.04990 0.50100
C7F C 0.2970(14) -0.0738(11) 0.4731(5)
H4F H 0.33470 -0.10380 0.46570
C8F C 0.1672(15) -0.0495(11) 0.4925(6)
H5F H 0.11550 -0.06280 0.49810
C9F C 0.2213(17) -0.0952(12) 0.4819(6)
H6F H 0.20710 -0.14040 0.48050
C10F C 0.5296(16) 0.0213(12) 0.4477(6)
H7F H 0.57290 -0.00210 0.44000
C11F C 0.4565(16) -0.0120(13) 0.4549(5)
H8F H 0.45060 -0.05800 0.45160
O1A O 0.239(1) 0.1894(8) 0.2080(4)
O2A O -0.0212(9) 0.3335(7) 0.1823(4)
O3A O 0.1392(9) 0.1184(7) 0.2447(4)
O4A O -0.1879(9) 0.2141(7) 0.1311(3)
O5A O 0.2266(10) 0.0981(8) 0.1574(4)
O6A O 0.1175(9) 0.4023(7) 0.1730(4)
O7A O 0.1617(11) 0.3119(7) 0.0926(4)
O8A O 0.0773(9) 0.2574(7) 0.2314(4)
O9F O 0.3364(9) 0.2262(7) 0.4810(4)
O10A O 0.2789(9) 0.2192(8) 0.1467(4)
O11F O 0.3844(10) 0.1254(8) 0.5485(4)
O11A O -0.1156(10) 0.3746(8) 0.0485(4)
O12A O -0.0321(9) 0.0721(7) 0.2071(3)
O13A O 0.0892(9) 0.3933(7) 0.2434(4)
O14A O -0.0822(9) 0.2122(7) 0.1963(3)
O15A O -0.1452(10) 0.2417(7) 0.0667(4)
O16A O 0.0455(9) 0.0508(7) 0.1188(4)
O17A O 0.0261(9) 0.3654(7) 0.1084(4)
O18A O -0.0409(10) -0.0296(8) 0.1576(4)
O19A O -0.1317(9) 0.3350(7) 0.1179(3)
O20A O 0.1402(10) 0.2763(7) 0.0188(4)
O21F O 0.2090(9) 0.1711(7) 0.5084(4)
O22A O 0.2169(9) 0.3220(7) 0.2204(4)
O23A O -0.0901(10) 0.1033(7) 0.1365(4)
O24A O 0.348(1) 0.1095(8) 0.1149(4)
O25A O -0.0333(9) 0.2346(7) 0.1273(3)
O26A O 0.3735(10) 0.2787(8) 0.2090(4)
O27A O 0.1120(9) 0.1795(7) 0.1084(4)
O28A O 0.2579(9) 0.3495(7) 0.1575(4)
O29A O 0.0753(10) 0.1580(8) 0.0406(4)
O30A O 0.0109(10) 0.2735(8) 0.0606(4)
O31A O -0.1995(9) 0.3171(7) 0.1802(4)
O32A O 0.1125(9) 0.0281(7) 0.1893(4)
O33A O 0.0719(9) 0.1442(7) 0.1756(4)
O34A O 0.2303(10) 0.1979(8) 0.0754(4)
O35A O -0.2267(10) 0.1223(8) 0.0758(4)
O36A O 0.1719(10) 0.4483(8) 0.1124(4)
O37A O 0.1286(9) 0.2782(7) 0.1631(4)
O38A O 0.0289(10) 0.0220(8) 0.0452(4)
O39A O -0.0504(11) 0.1286(7) 0.0735(4)
O40A O 0.2738(9) 0.0544(7) 0.2283(4)
O41A O 0.1785(9) 0.0742(7) 0.0862(4)
#END
