
#######################################################################
#
#                 Cambridge Crystallographic Data Centre
#                                CCDC
#
#######################################################################
#
# If this CIF has been generated from an entry in the Cambridge
# Structural Database, then it will include bibliographic, chemical,
# crystal, experimental, refinement or atomic coordinate data resulting
# from the CCDC's data processing and validation procedures.
#
#######################################################################

data_CSD_CIF_KAPGIT
_audit_creation_date 2012-03-30
_audit_creation_method CSD-ConQuest-V1
_database_code_CSD KAPGIT
_database_code_depnum_ccdc_archive 'CCDC 737365'
_chemical_formula_sum 'C22 H59 Cu2 Ge2 K2 La1 N4 Na4 O101 W22'
_chemical_formula_moiety
;
(C22 H16 Cu2 Ge2 La1 N4 O82 W22 11-)n,2n(K1 1+),4n(Na1 1+),5n(H3 O1 
1+),14n(H2 O1)
;
_journal_coden_Cambridge 550
_journal_volume 56
_journal_year 2011
_journal_page_first 2331
_journal_name_full 'Chin.Sci.Bull. '
loop_
_publ_author_name
"Ping Sun"
"FengJi Ma"
"ShuXia Liu"
_chemical_name_systematic
;
catena( Di-potassium tetra-sodium 
(\m~2~-oxalato)-bis(2,2'-bipyridyl)-bis(germaundecatungstate-copper-lanthanum)
 pentaoxonium tetradecahydrate)
;
_cell_volume  11607.084
_exptl_crystal_colour 'blue'
_exptl_crystal_density_diffrn 3.838
_exptl_special_details
;
Study temperature given as 293 K and 283 K in the CIF

;
_exptl_crystal_description 'block'
_diffrn_ambient_temperature 283
_refine_special_details
;
O14W disordered by symmetry over two sites with occupancy 0.50; O17W and O18W 
disordered over two sites with occupancies 0.50:0.50.
;
#These two values have been output from a single CSD field.
_refine_ls_R_factor_gt 0.0574
_refine_ls_wR_factor_gt 0.0574
_symmetry_cell_setting monoclinic
_symmetry_space_group_name_H-M 'C 2/c'
_symmetry_Int_Tables_number 15
loop_
_symmetry_equiv_pos_site_id
_symmetry_equiv_pos_as_xyz
1 x,y,z
2 -x,y,1/2-z
3 1/2+x,1/2+y,z
4 1/2-x,1/2+y,1/2-z
5 -x,-y,-z
6 x,-y,-1/2+z
7 -1/2-x,-1/2-y,-z
8 -1/2+x,-1/2-y,-1/2+z
_cell_length_a 15.737(3)
_cell_length_b 19.923(4)
_cell_length_c 37.805(8)
_cell_angle_alpha 90
_cell_angle_beta 101.69(3)
_cell_angle_gamma 90
_cell_formula_units_Z 4
loop_
_atom_type_symbol
_atom_type_radius_bond
C 0.68
H 0.23
Cu 1.32
Ge 1.17
K 1.20
La 1.62
N 0.68
Na 1.00
O 0.68
W 1.37
loop_
_atom_site_label
_atom_site_type_symbol
_atom_site_fract_x
_atom_site_fract_y
_atom_site_fract_z
K1 K 0.1493(4) -0.1454(3) 0.18188(13)
Na1 Na 0.2547(7) 0.1606(4) 0.2209(2)
Na2 Na 0.6202(7) -0.1435(4) 0.3497(2)
O1 O 0.2483(15) -0.0349(8) 0.2125(4)
O2 O 0.5620(15) -0.2714(7) 0.3573(5)
O3 O 0.8310(13) 0.6599(8) 0.0863(4)
O4 O 0.0929(9) 0.2011(5) 0.1942(3)
O5 O 0.4879(12) 0.0990(7) 0.1114(4)
O6 O 0.273(1) 0.1429(8) 0.1481(3)
O7 O 0.6896(12) -0.2154(7) 0.3012(4)
O8 O 0.7875(14) -0.1649(8) 0.3800(4)
O9 O 0.4295(16) 0.9969(10) 0.0557(4)
O10 O 0.4237(19) 0.0653(12) 0.1638(6)
O11 O 0.745(2) 0.5846(14) 0.0263(7)
O12 O 0.189(2) 0.0269(15) 0.0952(7)
O13 O 0.645(3) -0.0294(17) 0.3853(8)
O14 O 0.885(3) 0.1961(16) 0.3787(8)
Ge1 Ge 0.17671(18) -0.04458(10) 0.35503(5)
W1 W 0.09717(7) 0.06648(4) 0.41732(2)
W2 W -0.03239(7) 0.02718(4) 0.336455(19)
W3 W 0.13488(7) 0.08255(4) 0.28885(2)
W4 W 0.23480(7) -0.15337(4) 0.29194(2)
W5 W 0.26936(7) 0.12238(4) 0.36907(2)
W6 W 0.08451(7) -0.20363(4) 0.33530(2)
W7 W 0.33616(7) 0.01789(4) 0.31086(2)
W8 W 0.01687(7) -0.08806(4) 0.403145(19)
W9 W 0.31752(8) -0.00944(4) 0.44040(2)
W10 W 0.23407(8) -0.16466(4) 0.42473(2)
W11 W 0.38630(8) -0.11288(5) 0.38141(2)
La1 La 0.00000 -0.08999(8) 0.25000
Cu1 Cu 0.0667(2) 0.11878(12) 0.50972(6)
N1 N 0.0243(13) 0.2106(8) 0.5119(4)
N2 N 0.1801(15) 0.1587(8) 0.5268(5)
C1 C -0.0465(15) 0.0131(10) 0.4913(5)
C2 C -0.0546(16) 0.2321(10) 0.5032(5)
H1 H -0.09820 0.20280 0.49240
C3 C -0.0104(18) 0.3438(12) 0.5213(6)
H2 H -0.02410 0.38870 0.52380
C4 C -0.076(2) 0.2987(12) 0.5095(6)
H3 H -0.13340 0.31220 0.50570
C5 C 0.0742(17) 0.3241(11) 0.5293(5)
H4 H 0.11870 0.35450 0.53740
C6 C 0.0912(15) 0.2561(10) 0.5249(5)
C7 C 0.1771(16) 0.2270(9) 0.5329(5)
C8 C 0.3320(16) 0.2287(10) 0.5535(5)
H5 H 0.38250 0.25220 0.56310
C9 C 0.2569(17) 0.1282(11) 0.5330(6)
H6 H 0.25840 0.08240 0.52830
C10 C 0.3351(17) 0.1608(10) 0.5463(5)
H7 H 0.38750 0.13770 0.55010
C11 C 0.2554(18) 0.2599(12) 0.5465(6)
H8 H 0.25400 0.30580 0.55080
O15 O 0.0984(10) 0.1440(6) 0.2565(3)
O16 O 0.1980(11) 0.1506(7) 0.3262(3)
O17 O 0.0979(10) 0.0066(6) 0.2684(3)
O18 O -0.0671(10) -0.0361(6) 0.3703(3)
O19 O 0.0101(10) -0.1882(7) 0.2940(3)
O20 O 0.0014(10) 0.0867(6) 0.3819(3)
O21 O 0.0474(11) 0.0819(6) 0.3179(3)
O22 O 0.2855(11) -0.0634(6) 0.2910(3)
O23 O 0.1814(10) -0.2011(6) 0.3818(3)
O24 O 0.3234(11) 0.0610(7) 0.4064(4)
O25 O 0.0868(13) 0.1236(7) 0.4509(3)
O26 O -0.0317(11) -0.0387(7) 0.3055(3)
O27 O 0.1517(10) -0.1354(6) 0.2545(3)
O28 O 0.3213(12) -0.1522(7) 0.3418(4)
O29 O 0.2587(11) -0.0726(7) 0.3904(3)
O30 O 0.1464(10) -0.1082(6) 0.3242(3)
O31 O 0.0918(12) -0.0166(7) 0.3725(3)
O32 O 0.0246(10) -0.1497(7) 0.3655(3)
O33 O 0.0371(11) -0.0097(6) 0.4330(3)
O34 O -0.0543(11) -0.1283(7) 0.4259(3)
O35 O 0.1702(11) 0.1137(7) 0.3914(3)
O36 O 0.2022(11) 0.0211(7) 0.4385(3)
O37 O 0.3139(12) 0.1971(7) 0.3863(3)
O38 O 0.2522(11) 0.0697(7) 0.2792(3)
O39 O 0.2161(10) 0.0262(7) 0.3366(3)
O40 O 0.3732(12) 0.0258(7) 0.4802(4)
O41 O 0.4215(13) 0.0271(8) 0.2896(4)
O42 O -0.1313(11) 0.0659(7) 0.3204(3)
O43 O 0.2885(11) -0.0931(7) 0.4578(3)
O44 O 0.3881(11) -0.0335(7) 0.3524(4)
O45 O 0.1254(10) -0.1207(7) 0.4270(3)
O46 O 0.4886(14) -0.1444(8) 0.3830(4)
O47 O 0.4095(13) -0.0531(7) 0.4240(4)
O48 O 0.3565(11) 0.0965(7) 0.3412(3)
O49 O 0.3075(13) -0.2015(7) 0.2731(4)
O50 O 0.0520(11) -0.2826(7) 0.3444(4)
O51 O 0.2348(14) -0.2292(8) 0.4546(3)
O52 O 0.1790(13) -0.2289(7) 0.3115(3)
O53 O -0.0490(11) 0.0795(7) 0.4910(4)
O54 O 0.1076(11) 0.0245(7) 0.5178(4)
O55 O 0.3439(12) -0.1755(7) 0.4135(3)
O56? O 0.0134(11) 0.2377(7) 0.2126(4)
O57? O 0.530(2) 0.1214(14) 0.2563(8)
O58? O 0.954(4) 0.218(2) 0.4121(11)
Ge1A Ge -0.17671(18) -0.04458(10) 0.14497(5)
Ge1D Ge -0.17671(18) 0.04458(10) 0.64497(5)
Ge1E Ge 0.17671(18) 0.04458(10) 0.85503(5)
Ge1A* Ge -0.17671(18) -0.04458(10) 1.14497(5)
W1A W -0.09717(7) 0.06648(4) 0.08268(2)
W1D W -0.09717(7) -0.06648(4) 0.58268(2)
W1E W 0.09717(7) -0.06648(4) 0.91732(2)
W1A* W -0.09717(7) 0.06648(4) 1.08268(2)
W2A W 0.03239(7) 0.02718(4) 0.163545(19)
W2D W 0.03239(7) -0.02718(4) 0.663545(19)
W2E W -0.03239(7) -0.02718(4) 0.836455(19)
W2A* W 0.03239(7) 0.02718(4) 1.163545(19)
W3A W -0.13488(7) 0.08255(4) 0.21115(2)
W3D W -0.13488(7) -0.08255(4) 0.71115(2)
W3E W 0.13488(7) -0.08255(4) 0.78885(2)
W3A* W -0.13488(7) 0.08255(4) 1.21115(2)
W4A W -0.23480(7) -0.15337(4) 0.20806(2)
W4E W 0.23480(7) 0.15337(4) 0.79194(2)
W4D W -0.23480(7) 0.15337(4) 0.70806(2)
W4A* W -0.23480(7) -0.15337(4) 1.20806(2)
W5A W -0.26936(7) 0.12238(4) 0.13093(2)
W5D W -0.26936(7) -0.12238(4) 0.63093(2)
W5E W 0.26936(7) -0.12238(4) 0.86907(2)
W5A* W -0.26936(7) 0.12238(4) 1.13093(2)
W6A W -0.08451(7) -0.20363(4) 0.16470(2)
W6D W -0.08451(7) 0.20363(4) 0.66470(2)
W6E W 0.08451(7) 0.20363(4) 0.83530(2)
W6A* W -0.08451(7) -0.20363(4) 1.16470(2)
W7A W -0.33616(7) 0.01789(4) 0.18914(2)
W7E W 0.33616(7) -0.01789(4) 0.81086(2)
W7D W -0.33616(7) -0.01789(4) 0.68914(2)
W7A* W -0.33616(7) 0.01789(4) 1.18914(2)
W8A W -0.01687(7) -0.08806(4) 0.096855(19)
W8D W -0.01687(7) 0.08806(4) 0.596855(19)
W8E W 0.01687(7) 0.08806(4) 0.903145(19)
W8A* W -0.01687(7) -0.08806(4) 1.096855(19)
W9A W -0.31752(8) -0.00944(4) 0.05960(2)
W9D W -0.31752(8) 0.00944(4) 0.55960(2)
W9E W 0.31752(8) 0.00944(4) 0.94040(2)
W9A* W -0.31752(8) -0.00944(4) 1.05960(2)
W10A W -0.23407(8) -0.16466(4) 0.07527(2)
W10D W -0.23407(8) 0.16466(4) 0.57527(2)
W10E W 0.23407(8) 0.16466(4) 0.92473(2)
W10A* W -0.23407(8) -0.16466(4) 1.07527(2)
W11A W -0.38630(8) -0.11288(5) 0.11859(2)
W11D W -0.38630(8) 0.11288(5) 0.61859(2)
W11E W 0.38630(8) 0.11288(5) 0.88141(2)
W11A* W -0.38630(8) -0.11288(5) 1.11859(2)
La1D La 0.00000 0.08999(8) 0.75000
La1* La 0.00000 -0.08999(8) 1.25000
Cu1D Cu -0.0667(2) -0.11878(12) 0.49028(6)
Cu1E Cu 0.0667(2) -0.11878(12) 1.00972(6)
Cu1A Cu -0.0667(2) 0.11878(12) 0.99028(6)
Cu1A* Cu -0.0667(2) 0.11878(12) -0.00972(6)
N1D N -0.0243(13) -0.2106(8) 0.4881(4)
N1E N 0.0243(13) -0.2106(8) 1.0119(4)
N1A N -0.0243(13) 0.2106(8) 0.9881(4)
N1A* N -0.0243(13) 0.2106(8) -0.0119(4)
N2D N -0.1801(15) -0.1587(8) 0.4732(5)
N2E N 0.1801(15) -0.1587(8) 1.0268(5)
N2A N -0.1801(15) 0.1587(8) 0.9732(5)
N2A* N -0.1801(15) 0.1587(8) -0.0268(5)
C1D C 0.0465(15) -0.0131(10) 0.5087(5)
C1E C -0.0465(15) -0.0131(10) 0.9913(5)
C1A C 0.0465(15) 0.0131(10) 1.0087(5)
C2D C 0.0546(16) -0.2321(10) 0.4968(5)
C2E C -0.0546(16) -0.2321(10) 1.0032(5)
C2A C 0.0546(16) 0.2321(10) 0.9968(5)
H1D H 0.09820 -0.20280 0.50760
H1E H -0.09820 -0.20280 0.99240
H1A H 0.09820 0.20280 1.00760
C3D C 0.0104(18) -0.3438(12) 0.4787(6)
C3E C -0.0104(18) -0.3438(12) 1.0213(6)
C3A C 0.0104(18) 0.3438(12) 0.9787(6)
H2D H 0.02410 -0.38870 0.47620
H2E H -0.02410 -0.38870 1.02380
H2A H 0.02410 0.38870 0.97620
C4D C 0.076(2) -0.2987(12) 0.4905(6)
C4E C -0.076(2) -0.2987(12) 1.0095(6)
C4A C 0.076(2) 0.2987(12) 0.9905(6)
H3A H 0.13340 0.31220 0.99430
H3E H -0.13340 -0.31220 1.00570
H3D H 0.13340 -0.31220 0.49430
C5D C -0.0742(17) -0.3241(11) 0.4707(5)
C5E C 0.0742(17) -0.3241(11) 1.0293(5)
C5A C -0.0742(17) 0.3241(11) 0.9707(5)
H4D H -0.11870 -0.35450 0.46260
H4E H 0.11870 -0.35450 1.03740
H4A H -0.11870 0.35450 0.96260
C6D C -0.0912(15) -0.2561(10) 0.4751(5)
C6E C 0.0912(15) -0.2561(10) 1.0249(5)
C6A C -0.0912(15) 0.2561(10) 0.9751(5)
C7D C -0.1771(16) -0.2270(9) 0.4671(5)
C7E C 0.1771(16) -0.2270(9) 1.0329(5)
C7A C -0.1771(16) 0.2270(9) 0.9671(5)
C8A C -0.3320(16) 0.2287(10) 0.9465(5)
C8E C 0.3320(16) -0.2287(10) 1.0535(5)
C8D C -0.3320(16) -0.2287(10) 0.4465(5)
H5A H -0.38250 0.25220 0.93690
H5E H 0.38250 -0.25220 1.06310
H5D H -0.38250 -0.25220 0.43690
C9A C -0.2569(17) 0.1282(11) 0.9670(6)
C9E C 0.2569(17) -0.1282(11) 1.0330(6)
C9D C -0.2569(17) -0.1282(11) 0.4670(6)
H6A H -0.25840 0.08240 0.97170
H6E H 0.25840 -0.08240 1.02830
H6D H -0.25840 -0.08240 0.47170
C10A C -0.3351(17) 0.1608(10) 0.9537(5)
C10E C 0.3351(17) -0.1608(10) 1.0463(5)
C10D C -0.3351(17) -0.1608(10) 0.4537(5)
H7A H -0.38750 0.13770 0.94990
H7E H 0.38750 -0.13770 1.05010
H7D H -0.38750 -0.13770 0.44990
C11A C -0.2554(18) 0.2599(12) 0.9535(6)
C11E C 0.2554(18) -0.2599(12) 1.0465(6)
C11D C -0.2554(18) -0.2599(12) 0.4535(6)
H8A H -0.25400 0.30580 0.94920
H8E H 0.25400 -0.30580 1.05080
H8D H -0.25400 -0.30580 0.44920
O15A O -0.0984(10) 0.1440(6) 0.2435(3)
O15D O -0.0984(10) -0.1440(6) 0.7435(3)
O15E O 0.0984(10) -0.1440(6) 0.7565(3)
O15A* O -0.0984(10) 0.1440(6) 1.2435(3)
O16A O -0.1980(11) 0.1506(7) 0.1738(3)
O16D O -0.1980(11) -0.1506(7) 0.6738(3)
O16E O 0.1980(11) -0.1506(7) 0.8262(3)
O16A* O -0.1980(11) 0.1506(7) 1.1738(3)
O17A O -0.0979(10) 0.0066(6) 0.2316(3)
O17D O -0.0979(10) -0.0066(6) 0.7316(3)
O17E O 0.0979(10) -0.0066(6) 0.7684(3)
O17A* O -0.0979(10) 0.0066(6) 1.2316(3)
O17* O 0.0979(10) 0.0066(6) 1.2684(3)
O18A O 0.0671(10) -0.0361(6) 0.1297(3)
O18D O 0.0671(10) 0.0361(6) 0.6297(3)
O18E O -0.0671(10) 0.0361(6) 0.8703(3)
O18A* O 0.0671(10) -0.0361(6) 1.1297(3)
O19A O -0.0101(10) -0.1882(7) 0.2060(3)
O19D O -0.0101(10) 0.1882(7) 0.7060(3)
O19E O 0.0101(10) 0.1882(7) 0.7940(3)
O19A* O -0.0101(10) -0.1882(7) 1.2060(3)
O19* O 0.0101(10) -0.1882(7) 1.2940(3)
O20A O -0.0014(10) 0.0867(6) 0.1181(3)
O20D O -0.0014(10) -0.0867(6) 0.6181(3)
O20E O 0.0014(10) -0.0867(6) 0.8819(3)
O20A* O -0.0014(10) 0.0867(6) 1.1181(3)
O21A O -0.0474(11) 0.0819(6) 0.1821(3)
O21E O 0.0474(11) -0.0819(6) 0.8179(3)
O21D O -0.0474(11) -0.0819(6) 0.6821(3)
O21A* O -0.0474(11) 0.0819(6) 1.1821(3)
O22A O -0.2855(11) -0.0634(6) 0.2090(3)
O22E O 0.2855(11) 0.0634(6) 0.7910(3)
O22D O -0.2855(11) 0.0634(6) 0.7090(3)
O22A* O -0.2855(11) -0.0634(6) 1.2090(3)
O23A O -0.1814(10) -0.2011(6) 0.1182(3)
O23D O -0.1814(10) 0.2011(6) 0.6182(3)
O23E O 0.1814(10) 0.2011(6) 0.8818(3)
O23A* O -0.1814(10) -0.2011(6) 1.1182(3)
O24A O -0.3234(11) 0.0610(7) 0.0936(4)
O24D O -0.3234(11) -0.0610(7) 0.5936(4)
O24E O 0.3234(11) -0.0610(7) 0.9064(4)
O24A* O -0.3234(11) 0.0610(7) 1.0936(4)
O25D O -0.0868(13) -0.1236(7) 0.5491(3)
O25E O 0.0868(13) -0.1236(7) 0.9509(3)
O25A O -0.0868(13) 0.1236(7) 1.0491(3)
O25A* O -0.0868(13) 0.1236(7) 0.0491(3)
O26A O 0.0317(11) -0.0387(7) 0.1945(3)
O26E O -0.0317(11) 0.0387(7) 0.8055(3)
O26D O 0.0317(11) 0.0387(7) 0.6945(3)
O26A* O 0.0317(11) -0.0387(7) 1.1945(3)
O26* O -0.0317(11) -0.0387(7) 1.3055(3)
O27A O -0.1517(10) -0.1354(6) 0.2455(3)
O27E O 0.1517(10) 0.1354(6) 0.7545(3)
O27D O -0.1517(10) 0.1354(6) 0.7455(3)
O27A* O -0.1517(10) -0.1354(6) 1.2455(3)
O27* O 0.1517(10) -0.1354(6) 1.2545(3)
O28A O -0.3213(12) -0.1522(7) 0.1582(4)
O28D O -0.3213(12) 0.1522(7) 0.6582(4)
O28E O 0.3213(12) 0.1522(7) 0.8418(4)
O28A* O -0.3213(12) -0.1522(7) 1.1582(4)
O29A O -0.2587(11) -0.0726(7) 0.1096(3)
O29D O -0.2587(11) 0.0726(7) 0.6096(3)
O29E O 0.2587(11) 0.0726(7) 0.8904(3)
O29A* O -0.2587(11) -0.0726(7) 1.1096(3)
O30A O -0.1464(10) -0.1082(6) 0.1758(3)
O30E O 0.1464(10) 0.1082(6) 0.8242(3)
O30D O -0.1464(10) 0.1082(6) 0.6758(3)
O30A* O -0.1464(10) -0.1082(6) 1.1758(3)
O31A O -0.0918(12) -0.0166(7) 0.1275(3)
O31D O -0.0918(12) 0.0166(7) 0.6275(3)
O31E O 0.0918(12) 0.0166(7) 0.8725(3)
O31A* O -0.0918(12) -0.0166(7) 1.1275(3)
O32D O -0.0246(10) 0.1497(7) 0.6345(3)
O32E O 0.0246(10) 0.1497(7) 0.8655(3)
O32A O -0.0246(10) -0.1497(7) 1.1345(3)
O32A* O -0.0246(10) -0.1497(7) 0.1345(3)
O33D O -0.0371(11) 0.0097(6) 0.5670(3)
O33E O 0.0371(11) 0.0097(6) 0.9330(3)
O33A O -0.0371(11) -0.0097(6) 1.0670(3)
O33A* O -0.0371(11) -0.0097(6) 0.0670(3)
O34D O 0.0543(11) 0.1283(7) 0.5741(3)
O34A O 0.0543(11) -0.1283(7) 1.0741(3)
O34E O -0.0543(11) 0.1283(7) 0.9259(3)
O34A* O 0.0543(11) -0.1283(7) 0.0741(3)
O35A O -0.1702(11) 0.1137(7) 0.1086(3)
O35E O 0.1702(11) -0.1137(7) 0.8914(3)
O35D O -0.1702(11) -0.1137(7) 0.6086(3)
O35A* O -0.1702(11) 0.1137(7) 1.1086(3)
O36D O -0.2022(11) -0.0211(7) 0.5615(3)
O36A O -0.2022(11) 0.0211(7) 1.0615(3)
O36E O 0.2022(11) -0.0211(7) 0.9385(3)
O36A* O -0.2022(11) 0.0211(7) 0.0615(3)
O37D O -0.3139(12) -0.1971(7) 0.6137(3)
O37A O -0.3139(12) 0.1971(7) 1.1137(3)
O37E O 0.3139(12) -0.1971(7) 0.8863(3)
O37A* O -0.3139(12) 0.1971(7) 0.1137(3)
O38A O -0.2522(11) 0.0697(7) 0.2208(3)
O38E O 0.2522(11) -0.0697(7) 0.7792(3)
O38D O -0.2522(11) -0.0697(7) 0.7208(3)
O38A* O -0.2522(11) 0.0697(7) 1.2208(3)
O39A O -0.2161(10) 0.0262(7) 0.1634(3)
O39E O 0.2161(10) -0.0262(7) 0.8366(3)
O39D O -0.2161(10) -0.0262(7) 0.6634(3)
O39A* O -0.2161(10) 0.0262(7) 1.1634(3)
O40D O -0.3732(12) -0.0258(7) 0.5198(4)
O40A O -0.3732(12) 0.0258(7) 1.0198(4)
O40E O 0.3732(12) -0.0258(7) 0.9802(4)
O40A* O -0.3732(12) 0.0258(7) 0.0198(4)
O41D O -0.4215(13) -0.0271(8) 0.7104(4)
O41A O -0.4215(13) 0.0271(8) 1.2104(4)
O41E O 0.4215(13) -0.0271(8) 0.7896(4)
O41A* O -0.4215(13) 0.0271(8) 0.2104(4)
O42D O 0.1313(11) -0.0659(7) 0.6796(3)
O42A O 0.1313(11) 0.0659(7) 1.1796(3)
O42E O -0.1313(11) -0.0659(7) 0.8204(3)
O42A* O 0.1313(11) 0.0659(7) 0.1796(3)
O43D O -0.2885(11) 0.0931(7) 0.5422(3)
O43A O -0.2885(11) -0.0931(7) 1.0422(3)
O43E O 0.2885(11) 0.0931(7) 0.9578(3)
O43A* O -0.2885(11) -0.0931(7) 0.0422(3)
O44D O -0.3881(11) 0.0335(7) 0.6476(4)
O44A O -0.3881(11) -0.0335(7) 1.1476(4)
O44E O 0.3881(11) 0.0335(7) 0.8524(4)
O44A* O -0.3881(11) -0.0335(7) 0.1476(4)
O45D O -0.1254(10) 0.1207(7) 0.5730(3)
O45A O -0.1254(10) -0.1207(7) 1.0730(3)
O45E O 0.1254(10) 0.1207(7) 0.9270(3)
O45A* O -0.1254(10) -0.1207(7) 0.0730(3)
O46D O -0.4886(14) 0.1444(8) 0.6170(4)
O46A O -0.4886(14) -0.1444(8) 1.1170(4)
O46E O 0.4886(14) 0.1444(8) 0.8830(4)
O46A* O -0.4886(14) -0.1444(8) 0.1170(4)
O47D O -0.4095(13) 0.0531(7) 0.5760(4)
O47A O -0.4095(13) -0.0531(7) 1.0760(4)
O47E O 0.4095(13) 0.0531(7) 0.9240(4)
O47A* O -0.4095(13) -0.0531(7) 0.0760(4)
O48D O -0.3565(11) -0.0965(7) 0.6588(3)
O48A O -0.3565(11) 0.0965(7) 1.1588(3)
O48E O 0.3565(11) -0.0965(7) 0.8412(3)
O48A* O -0.3565(11) 0.0965(7) 0.1588(3)
O49D O -0.3075(13) 0.2015(7) 0.7269(4)
O49E O 0.3075(13) 0.2015(7) 0.7731(4)
O49A O -0.3075(13) -0.2015(7) 1.2269(4)
O49A* O -0.3075(13) -0.2015(7) 0.2269(4)
O50D O -0.0520(11) 0.2826(7) 0.6556(4)
O50A O -0.0520(11) -0.2826(7) 1.1556(4)
O50E O 0.0520(11) 0.2826(7) 0.8444(4)
O50A* O -0.0520(11) -0.2826(7) 0.1556(4)
O51D O -0.2348(14) 0.2292(8) 0.5454(3)
O51A O -0.2348(14) -0.2292(8) 1.0454(3)
O51E O 0.2348(14) 0.2292(8) 0.9546(3)
O51A* O -0.2348(14) -0.2292(8) 0.0454(3)
O52D O -0.1790(13) 0.2289(7) 0.6885(3)
O52E O 0.1790(13) 0.2289(7) 0.8115(3)
O52A O -0.1790(13) -0.2289(7) 1.1885(3)
O52A* O -0.1790(13) -0.2289(7) 0.1885(3)
O53D O 0.0490(11) -0.0795(7) 0.5090(4)
O53E O -0.0490(11) -0.0795(7) 0.9910(4)
O53A O 0.0490(11) 0.0795(7) 1.0090(4)
O53A* O 0.0490(11) 0.0795(7) 0.0090(4)
O54A O -0.1076(11) 0.0245(7) 0.9822(4)
O54E O 0.1076(11) -0.0245(7) 1.0178(4)
O54D O -0.1076(11) -0.0245(7) 0.4822(4)
O54A* O -0.1076(11) 0.0245(7) -0.0178(4)
O55D O -0.3439(12) 0.1755(7) 0.5865(3)
O55A O -0.3439(12) -0.1755(7) 1.0865(3)
O55E O 0.3439(12) 0.1755(7) 0.9135(3)
O55A* O -0.3439(12) -0.1755(7) 0.0865(3)
#END
