
#######################################################################
#
#                 Cambridge Crystallographic Data Centre
#                                CCDC
#
#######################################################################
#
# If this CIF has been generated from an entry in the Cambridge
# Structural Database, then it will include bibliographic, chemical,
# crystal, experimental, refinement or atomic coordinate data resulting
# from the CCDC's data processing and validation procedures.
#
#######################################################################

data_CSD_CIF_KAPGOZ
_audit_creation_date 2012-03-30
_audit_creation_method CSD-ConQuest-V1
_database_code_CSD KAPGOZ
_database_code_depnum_ccdc_archive 'CCDC 737366'
_chemical_formula_sum 'C22 H65 Cu2 Ge2 K2 N4 Na4 O104 Sm1 W22'
_chemical_formula_moiety
;
(C22 H16 Cu2 Ge2 N4 O82 Sm1 W22 11-)n,2n(K1 1+),4n(Na1 1+),5n(H3 O1 
1+),17n(H2 O1)
;
_journal_coden_Cambridge 550
_journal_volume 56
_journal_year 2011
_journal_page_first 2331
_journal_name_full 'Chin.Sci.Bull. '
loop_
_publ_author_name
"Ping Sun"
"FengJi Ma"
"ShuXia Liu"
_chemical_name_systematic
;
catena( Di-potassium tetra-sodium 
(\m~2~-oxalato)-bis(2,2'-bipyridyl)-bis(germaundecatungstate-copper-samarium) 
pentaoxonium heptadecahydrate)
;
_cell_volume  11852.263
_exptl_crystal_colour 'blue'
_exptl_crystal_description 'block'
_diffrn_ambient_temperature 296
#These two values have been output from a single CSD field.
_refine_ls_R_factor_gt 0.0518
_refine_ls_wR_factor_gt 0.0518
_symmetry_cell_setting monoclinic
_symmetry_space_group_name_H-M 'C 2/c'
_symmetry_Int_Tables_number 15
loop_
_symmetry_equiv_pos_site_id
_symmetry_equiv_pos_as_xyz
1 x,y,z
2 -x,y,1/2-z
3 1/2+x,1/2+y,z
4 1/2-x,1/2+y,1/2-z
5 -x,-y,-z
6 x,-y,-1/2+z
7 -1/2-x,-1/2-y,-z
8 -1/2+x,-1/2-y,-1/2+z
_cell_length_a 15.8644(13)
_cell_length_b 20.0581(13)
_cell_length_c 38.060(3)
_cell_angle_alpha 90
_cell_angle_beta 101.866(1)
_cell_angle_gamma 90
_cell_formula_units_Z 4
loop_
_atom_type_symbol
_atom_type_radius_bond
C 0.68
H 0.23
Cu 1.32
Ge 1.17
K 1.20
N 0.68
Na 1.00
O 0.68
Sm 1.62
W 1.37
loop_
_atom_site_label
_atom_site_type_symbol
_atom_site_fract_x
_atom_site_fract_y
_atom_site_fract_z
Ge1 Ge 0.67511(15) 0.46088(10) 0.85481(6)
W1 W 0.46741(6) 0.53192(4) 0.83568(2)
W2 W 0.59621(7) 0.56944(4) 0.91699(2)
W3 W 0.51435(6) 0.41654(4) 0.90174(2)
W4 W 0.63413(6) 0.58732(4) 0.78905(2)
W5 W 0.58131(7) 0.30459(4) 0.83281(2)
W6 W 0.72984(7) 0.33920(5) 0.92279(3)
W7 W 0.83434(7) 0.52346(5) 0.81129(3)
W8 W 0.81496(7) 0.49259(5) 0.93975(3)
W9 W 0.76712(7) 0.62589(4) 0.86965(3)
W10 W 0.88265(7) 0.39123(5) 0.88044(3)
W11 W 0.73082(6) 0.35485(5) 0.79077(2)
Sm1 Sm 0.50000 0.41966(8) 0.75000
Cu1 Cu 0.56674(18) 0.61744(13) 1.01091(8)
N1 N 0.6822(12) 0.6565(8) 1.0273(4)
N2 N 0.5282(13) 0.7101(9) 1.0122(5)
C1 C 0.5447(15) 0.4854(10) 1.0073(7)
C2 C 0.4462(17) 0.7329(12) 1.0038(7)
H1 H 0.40160 0.70250 0.99670
C3 C 0.5947(15) 0.7541(11) 1.0247(6)
C4 C 0.6801(16) 0.7248(11) 1.0324(7)
C5 C 0.427(2) 0.7969(13) 1.0052(7)
H2 H 0.37010 0.81040 0.99910
C6 C 0.487(2) 0.8416(17) 1.0150(9)
H3 H 0.47200 0.88620 1.01570
C7 C 0.5780(17) 0.8225(12) 1.0250(7)
H4 H 0.62170 0.85390 1.03100
C8 C 0.7545(18) 0.7616(14) 1.0455(7)
H5 H 0.75280 0.80730 1.04970
C9 C 0.8305(17) 0.7266(11) 1.0520(6)
H6 H 0.88210 0.74930 1.05980
C10 C 0.8322(17) 0.6585(12) 1.0471(7)
H7 H 0.88460 0.63620 1.05300
C11 C 0.7586(15) 0.6223(12) 1.0338(6)
H8 H 0.76070 0.57680 1.02930
O1 O 0.7535(10) 0.4320(7) 0.8909(4)
O2 O 0.5941(10) 0.5128(7) 0.7682(4)
O3 O 0.6471(9) 0.3988(7) 0.8238(4)
O4 O 0.670(1) 0.6181(7) 0.8921(4)
O5 O 0.6766(11) 0.3050(7) 0.8795(4)
O6 O 0.5482(10) 0.5885(7) 0.8186(4)
O7 O 0.5349(10) 0.4935(7) 0.9313(4)
O8 O 0.7154(10) 0.5307(6) 0.8372(4)
O9 O 0.5197(9) 0.3574(7) 0.8622(4)
O10 O 0.4296(9) 0.4683(7) 0.8691(3)
O11 O 0.6233(10) 0.3827(7) 0.9247(4)
O12 O 0.4683(10) 0.4694(7) 0.8040(4)
O13 O 0.6999(10) 0.5248(7) 0.9378(4)
O14 O 0.7802(10) 0.4431(7) 0.7897(4)
O15 O 0.9059(11) 0.4499(7) 0.9233(4)
O16 O 0.5970(11) 0.6491(7) 0.7587(4)
O17 O 0.4438(12) 0.3767(7) 0.9238(4)
O18 O 0.8173(11) 0.3535(8) 0.8399(4)
O19 O 0.9221(11) 0.5320(8) 0.7905(5)
O20 O 0.8829(10) 0.4715(7) 0.8530(4)
O21 O 0.7851(10) 0.4087(7) 0.9575(4)
O22 O 0.9859(11) 0.3602(8) 0.8831(5)
O23 O 0.6436(11) 0.3731(7) 0.7544(4)
O24 O 0.3698(11) 0.5701(7) 0.8206(5)
O25 O 0.5852(11) 0.6260(7) 0.9511(4)
O26 O 0.730(1) 0.2745(7) 0.9522(4)
O27 O 0.5865(9) 0.4876(7) 0.8722(4)
O28 O 0.7497(9) 0.5762(7) 0.7794(4)
O29 O 0.8697(11) 0.5274(8) 0.9790(4)
O30 O 0.8503(10) 0.6005(7) 0.8424(4)
O31 O 0.8124(12) 0.6994(8) 0.8870(4)
O32 O 0.5104(10) 0.3252(7) 0.7927(4)
O33 O 0.8402(11) 0.3278(8) 0.9111(4)
O34 O 0.5478(12) 0.2259(7) 0.8408(4)
O35 O 0.6748(10) 0.2805(7) 0.8086(4)
O36 O 0.7978(11) 0.3079(8) 0.7695(4)
O37 O 0.8178(10) 0.5628(7) 0.9062(4)
O38 O 0.6973(10) 0.6545(7) 0.8279(4)
O39 O 0.5019(10) 0.5885(7) 0.8821(4)
O40 O 0.6065(9) 0.5224(6) 1.0178(4)
O41 O 0.4498(10) 0.5772(7) 0.9922(4)
K1 K 0.6504(4) 0.3606(3) 0.68329(15)
Na1 Na 0.7542(7) 0.6672(5) 0.7222(3)
O42 O 0.1174(8) 0.3622(6) 0.8495(3)
O43 O 0.8221(13) 0.289(1) 0.6990(6)
O44 O 0.7168(15) 0.3369(10) 0.6210(6)
O45 O 0.7525(15) 0.4738(11) 0.7121(6)
O46 O 0.5092(16) 0.7439(11) 0.7161(6)
O47 O 0.5950(15) 0.7084(11) 0.6944(6)
O48 O 0.008(2) 0.5893(14) 0.8914(8)
O49 O 0.4425(18) 0.7336(13) 0.6447(7)
O50 O 0.076(2) 0.5010(14) 0.9473(7)
O51 O 0.667(2) 0.1602(15) 0.9147(9)
O52 O 0.6384(19) 0.2191(13) 0.7058(8)
O53 O 0.754(2) 0.4166(15) 0.0255(9)
O54 O 0.774(2) 0.6529(17) 0.6460(9)
Ge1A Ge 0.32489(15) 0.46088(10) 0.64519(6)
W1A W 0.53259(6) 0.53192(4) 0.66432(2)
W2D W 0.40379(7) 0.43056(4) 1.08301(2)
W2A W 0.40379(7) 0.56944(4) 0.58301(2)
W3A W 0.48565(6) 0.41654(4) 0.59826(2)
W3D W 0.48565(6) 0.58346(4) 1.09826(2)
W4A W 0.36587(6) 0.58732(4) 0.71095(2)
W5A W 0.41869(7) 0.30459(4) 0.66719(2)
W6A W 0.27016(7) 0.33920(5) 0.57721(3)
W7A W 0.16566(7) 0.52346(5) 0.68871(3)
W8D W 0.18504(7) 0.50741(5) 1.06025(3)
W8A W 0.18504(7) 0.49259(5) 0.56025(3)
W9D W 0.23288(7) 0.37411(4) 1.13035(3)
W9A W 0.23288(7) 0.62589(4) 0.63035(3)
W10A W 0.11735(7) 0.39123(5) 0.61956(3)
W10D W 0.11735(7) 0.60877(5) 1.11956(3)
W11A W 0.26918(6) 0.35485(5) 0.70923(2)
Cu1D Cu 0.43326(18) 0.38256(13) 0.98909(8)
N1D N 0.3178(12) 0.3435(8) 0.9727(4)
N2D N 0.4718(13) 0.2899(9) 0.9878(5)
C1D C 0.4553(15) 0.5146(10) 0.9927(7)
C2D C 0.5538(17) 0.2671(12) 0.9962(7)
H1D H 0.59840 0.29750 1.00330
C3D C 0.4053(15) 0.2459(11) 0.9753(6)
C4D C 0.3199(16) 0.2752(11) 0.9676(7)
C5D C 0.573(2) 0.2031(13) 0.9948(7)
H2D H 0.62990 0.18960 1.00090
C6D C 0.513(2) 0.1584(17) 0.9850(9)
H3D H 0.52800 0.11380 0.98430
C7D C 0.4220(17) 0.1775(12) 0.9750(7)
H4D H 0.37830 0.14610 0.96900
C8D C 0.2455(18) 0.2384(14) 0.9545(7)
H5D H 0.24720 0.19270 0.95030
C9D C 0.1695(17) 0.2734(11) 0.9480(6)
H6D H 0.11790 0.25070 0.94020
C10D C 0.1678(17) 0.3415(12) 0.9529(7)
H7D H 0.11540 0.36380 0.94700
C11D C 0.2414(15) 0.3777(12) 0.9662(6)
H8D H 0.23930 0.42320 0.97070
O1A O 0.2465(10) 0.4320(7) 0.6091(4)
O1D O 0.2465(10) 0.5680(7) 1.1091(4)
O2A O 0.4059(10) 0.5128(7) 0.7318(4)
O3A O 0.3529(9) 0.3988(7) 0.6762(4)
O4D O 0.330(1) 0.3819(7) 1.1079(4)
O5A O 0.3234(11) 0.3050(7) 0.6205(4)
O6A O 0.4518(10) 0.5885(7) 0.6814(4)
O7D O 0.4651(10) 0.5065(7) 1.0687(4)
O7A O 0.4651(10) 0.4935(7) 0.5687(4)
O8A O 0.2846(10) 0.5307(6) 0.6628(4)
O8D O 0.2846(10) 0.4693(6) 1.1628(4)
O9A O 0.4803(9) 0.3574(7) 0.6378(4)
O10A O 0.5704(9) 0.4683(7) 0.6309(3)
O11A O 0.3767(10) 0.3827(7) 0.5753(4)
O12A O 0.5317(10) 0.4694(7) 0.6960(4)
O13D O 0.3001(10) 0.4752(7) 1.0622(4)
O14A O 0.2198(10) 0.4431(7) 0.7103(4)
O15D O 0.0941(11) 0.5501(7) 1.0767(4)
O15A O 0.0941(11) 0.4499(7) 0.5767(4)
O16A O 0.4030(11) 0.6491(7) 0.7413(4)
O17A O 0.5562(12) 0.3767(7) 0.5762(4)
O18A O 0.1827(11) 0.3535(8) 0.6601(4)
O19A O 0.0779(11) 0.5320(8) 0.7095(5)
O20A O 0.1171(10) 0.4715(7) 0.6470(4)
O21A O 0.2149(10) 0.4087(7) 0.5425(4)
O21D O 0.2149(10) 0.5913(7) 1.0425(4)
O22A O 0.0141(11) 0.3602(8) 0.6169(5)
O23A O 0.3564(11) 0.3731(7) 0.7456(4)
O24A O 0.6302(11) 0.5701(7) 0.6794(5)
O25D O 0.4148(11) 0.3740(7) 1.0489(4)
O26A O 0.270(1) 0.2745(7) 0.5478(4)
O27A O 0.4135(9) 0.4876(7) 0.6278(4)
O27D O 0.4135(9) 0.5124(7) 1.1278(4)
O28A O 0.2503(9) 0.5762(7) 0.7206(4)
O29D O 0.1303(11) 0.4726(8) 1.0210(4)
O30A O 0.1497(10) 0.6005(7) 0.6576(4)
O30D O 0.1497(10) 0.3995(7) 1.1576(4)
O31D O 0.1876(12) 0.3006(8) 1.1130(4)
O32A O 0.4896(10) 0.3252(7) 0.7073(4)
O33A O 0.1598(11) 0.3278(8) 0.5889(4)
O34A O 0.4522(12) 0.2259(7) 0.6592(4)
O35A O 0.3252(10) 0.2805(7) 0.6914(4)
O36A O 0.2022(11) 0.3079(8) 0.7305(4)
O37D O 0.1822(10) 0.4372(7) 1.0938(4)
O38A O 0.3027(10) 0.6545(7) 0.6721(4)
O38D O 0.3027(10) 0.3455(7) 1.1721(4)
O39A O 0.4981(10) 0.5885(7) 0.6179(4)
O39D O 0.4981(10) 0.4115(7) 1.1179(4)
O40D O 0.3935(9) 0.4776(6) 0.9822(4)
O41D O 0.5502(10) 0.4228(7) 1.0078(4)
#END
