
#######################################################################
#
#                 Cambridge Crystallographic Data Centre
#                                CCDC
#
#######################################################################
#
# If this CIF has been generated from an entry in the Cambridge
# Structural Database, then it will include bibliographic, chemical,
# crystal, experimental, refinement or atomic coordinate data resulting
# from the CCDC's data processing and validation procedures.
#
#######################################################################

data_CSD_CIF_KAPHAM
_audit_creation_date 2012-03-30
_audit_creation_method CSD-ConQuest-V1
_database_code_CSD KAPHAM
_database_code_depnum_ccdc_archive 'CCDC 737368'
_chemical_formula_sum 'C22 H55 Cu2 Ge2 K2 N4 Na4 Nd1 O99 W22'
_chemical_formula_moiety
;
(C22 H16 Cu2 Ge2 N4 Nd1 O82 W22 11-)n,2n(K1 1+),4n(Na1 1+),5n(H3 O1 
1+),12n(H2 O1)
;
_journal_coden_Cambridge 550
_journal_volume 56
_journal_year 2011
_journal_page_first 2331
_journal_name_full 'Chin.Sci.Bull. '
loop_
_publ_author_name
"Ping Sun"
"FengJi Ma"
"ShuXia Liu"
_chemical_name_systematic
;
catena( Di-potassium tetra-sodium 
(\m~2~-oxalato)-bis(2,2'-bipyridyl)-bis(germaundecatungstate-copper-neodymium)
 pentaoxonium dodecahydrate)
;
_cell_volume  11891.203
_exptl_crystal_colour 'blue'
_exptl_crystal_density_diffrn 3.66
_exptl_crystal_description 'block'
_diffrn_ambient_temperature 296
_refine_special_details
;
O7W and O9W disordered over two sites with occupancies 0.50:0.50.

;
#These two values have been output from a single CSD field.
_refine_ls_R_factor_gt 0.0537
_refine_ls_wR_factor_gt 0.0537
_symmetry_cell_setting monoclinic
_symmetry_space_group_name_H-M 'C 2/c'
_symmetry_Int_Tables_number 15
loop_
_symmetry_equiv_pos_site_id
_symmetry_equiv_pos_as_xyz
1 x,y,z
2 -x,y,1/2-z
3 1/2+x,1/2+y,z
4 1/2-x,1/2+y,1/2-z
5 -x,-y,-z
6 x,-y,-1/2+z
7 -1/2-x,-1/2-y,-z
8 -1/2+x,-1/2-y,-1/2+z
_cell_length_a 15.920(2)
_cell_length_b 20.038(2)
_cell_length_c 38.106(5)
_cell_angle_alpha 90
_cell_angle_beta 101.981(2)
_cell_angle_gamma 90
_cell_formula_units_Z 4
loop_
_atom_type_symbol
_atom_type_radius_bond
C 0.68
H 0.23
Cu 1.32
Ge 1.17
K 1.20
N 0.68
Na 1.00
Nd 1.62
O 0.68
W 1.37
loop_
_atom_site_label
_atom_site_type_symbol
_atom_site_fract_x
_atom_site_fract_y
_atom_site_fract_z
Ge1 Ge 0.17525(16) 0.46052(11) 0.85509(6)
W1 W 0.09710(7) 0.56909(4) 0.91733(2)
W2 W 0.13481(7) 0.58735(4) 0.78957(2)
W3 W 0.08149(7) 0.30391(4) 0.83330(3)
W4 W -0.03162(6) 0.53212(4) 0.83610(2)
W5 W 0.33397(7) 0.52263(5) 0.81185(3)
W6 W 0.38193(7) 0.39060(5) 0.88092(3)
W7 W 0.26754(7) 0.62528(5) 0.87018(3)
W8 W 0.31483(7) 0.49201(5) 0.94016(3)
W9 W 0.22963(7) 0.33867(5) 0.92309(3)
W10 W 0.01509(7) 0.41641(4) 0.90192(2)
W11 W 0.23094(7) 0.35387(5) 0.79133(3)
Nd1 Nd 0.00000 0.41917(8) 0.75000
Cu1 Cu 0.06692(19) 0.61746(13) 1.01127(8)
N1 N 0.1817(12) 0.6556(9) 1.0281(5)
N2 N 0.0291(14) 0.7108(9) 1.0124(5)
C1 C 0.1787(15) 0.7232(11) 1.0334(6)
C2 C 0.0927(15) 0.7540(11) 1.0242(6)
C3 C -0.0518(17) 0.7322(12) 1.0032(6)
H1 H -0.09620 0.70220 0.99520
C4 C -0.0440(14) 0.5152(11) 0.9925(6)
C5 C 0.3322(16) 0.7243(11) 1.0531(6)
H2 H 0.38360 0.74690 1.06130
C6 C 0.3326(18) 0.6563(12) 1.0479(7)
H3 H 0.38400 0.63290 1.05350
C7 C 0.2562(16) 0.6222(12) 1.0342(6)
H4 H 0.25710 0.57670 1.02940
C8 C 0.2524(18) 0.7605(12) 1.0458(7)
H5 H 0.25030 0.80640 1.04910
C9 C 0.0783(17) 0.8237(12) 1.0262(7)
H6 H 0.12260 0.85360 1.03460
C10 C -0.0693(17) 0.8005(13) 1.0056(8)
H7 H -0.12600 0.81520 1.00070
C11 C -0.007(2) 0.8443(16) 1.0148(8)
H8 H -0.01920 0.88970 1.01370
O1 O 0.4061(10) 0.4494(7) 0.9236(4)
O2 O 0.2541(10) 0.4319(7) 0.8908(4)
O3 O 0.4848(12) 0.3603(9) 0.8837(5)
O4 O 0.0046(10) 0.5891(7) 0.8825(4)
O5 O 0.1978(10) 0.6540(7) 0.8277(4)
O6 O 0.2808(11) 0.4412(8) 0.7911(4)
O7 O 0.1264(9) 0.3824(7) 0.9248(4)
O8 O 0.3206(11) 0.5622(8) 0.9066(4)
O9 O 0.088(1) 0.4878(7) 0.8724(4)
O10 O 0.2011(11) 0.5232(7) 0.9380(4)
O11 O 0.3169(11) 0.3525(7) 0.8406(4)
O12 O 0.0363(10) 0.4935(7) 0.9325(4)
O13 O 0.0958(10) 0.5142(7) 0.7690(4)
O14 O -0.0579(11) 0.3773(8) 0.9236(4)
O15 O 0.2152(9) 0.5304(6) 0.8374(4)
O16 O 0.2842(10) 0.4087(7) 0.9576(4)
O17 O 0.2309(11) 0.2727(8) 0.9521(4)
O18 O 0.3835(11) 0.4706(8) 0.8534(5)
O19 O 0.0971(11) 0.6489(8) 0.7593(4)
O20 O 0.0851(11) 0.6252(8) 0.9513(4)
O21 O -0.0684(10) 0.4676(7) 0.8700(4)
O22 O 0.1691(10) 0.6182(7) 0.8918(4)
O23 O 0.176(1) 0.3042(7) 0.8798(4)
O24 O 0.0215(11) 0.3568(7) 0.8631(4)
O25 O 0.3515(10) 0.5998(8) 0.8440(4)
O26 O 0.1454(10) 0.3728(7) 0.7552(4)
O27 O 0.0469(12) 0.2253(7) 0.8409(4)
O28 O -0.1275(11) 0.5711(8) 0.8217(4)
O29 O 0.4197(11) 0.5324(9) 0.7904(5)
O30 O -0.031(1) 0.4688(7) 0.8044(4)
O31 O 0.0499(10) 0.5879(7) 0.8183(4)
O32 O 0.1452(10) 0.3972(7) 0.8245(4)
O33 O 0.3687(11) 0.5257(8) 0.9791(4)
O34 O 0.1751(10) 0.2792(6) 0.8094(4)
O35 O 0.2492(11) 0.5760(8) 0.7810(4)
O36 O 0.3119(12) 0.6980(8) 0.8872(5)
O37 O 0.3411(11) 0.3284(8) 0.9122(4)
O38 O 0.0091(11) 0.3228(7) 0.7925(4)
O39 O 0.2989(11) 0.3060(8) 0.7709(5)
O40 O -0.0479(11) 0.5772(7) 0.9924(4)
O41 O 0.107(1) 0.5222(7) 1.0182(4)
K1 K -0.1495(4) 0.3599(3) 0.81679(16)
Na1 Na 0.6177(7) 0.3613(5) 0.8502(3)
Na2 Na 0.2442(9) 0.1662(5) 0.7774(3)
O42 O 0.6788(15) 0.2899(9) 0.8014(6)
O43 O 0.0096(15) 0.7441(11) 0.7162(6)
O44 O 0.4093(17) 0.2089(9) 0.8063(5)
O45 O 0.7857(14) 0.3367(9) 0.8792(5)
O46 O -0.2472(15) 0.4726(11) 0.7884(6)
O47 O 0.5683(18) 0.4996(13) 0.9465(7)
O48 O 0.504(2) 0.5703(17) 0.8960(9)
O49 O 0.5640(17) 0.2331(12) 0.8571(7)
O50 O 0.169(2) 0.1577(15) 0.9154(8)
O51 O 0.2232(19) 0.1518(14) 0.8536(8)
O52 O 0.248(2) 0.4198(17) 0.0252(9)
O53? O 0.512(2) 0.6071(16) 0.8894(9)
Ge1D Ge -0.17525(16) 0.53948(11) 1.14491(6)
Ge1A Ge -0.17525(16) 0.46052(11) 0.64491(6)
W1D W -0.09710(7) 0.43091(4) 1.08267(2)
W2A W -0.13481(7) 0.58735(4) 0.71043(2)
W3A W -0.08149(7) 0.30391(4) 0.66670(3)
W4A W 0.03162(6) 0.53212(4) 0.66390(2)
W4D W 0.03162(6) 0.46788(4) 1.16390(2)
W5A W -0.33397(7) 0.52263(5) 0.68815(3)
W6A W -0.38193(7) 0.39060(5) 0.61908(3)
W6D W -0.38193(7) 0.60940(5) 1.11908(3)
W7A W -0.26754(7) 0.62528(5) 0.62982(3)
W7D W -0.26754(7) 0.37472(5) 1.12982(3)
W8D W -0.31483(7) 0.50799(5) 1.05984(3)
W8A W -0.31483(7) 0.49201(5) 0.55984(3)
W9A W -0.22963(7) 0.33867(5) 0.57691(3)
W9D W -0.22963(7) 0.66133(5) 1.07691(3)
W10D W -0.01509(7) 0.58359(4) 1.09808(2)
W10A W -0.01509(7) 0.41641(4) 0.59808(2)
W11A W -0.23094(7) 0.35387(5) 0.70867(3)
Cu1D Cu -0.06692(19) 0.38254(13) 0.98873(8)
N1D N -0.1817(12) 0.3444(9) 0.9719(5)
N2D N -0.0291(14) 0.2892(9) 0.9876(5)
C1D C -0.1787(15) 0.2768(11) 0.9666(6)
C2D C -0.0927(15) 0.2460(11) 0.9758(6)
C3D C 0.0518(17) 0.2678(12) 0.9968(6)
H1D H 0.09620 0.29780 1.00480
C4D C 0.0440(14) 0.4848(11) 1.0075(6)
C5D C -0.3322(16) 0.2757(11) 0.9469(6)
H2D H -0.38360 0.25310 0.93870
C6D C -0.3326(18) 0.3437(12) 0.9521(7)
H3D H -0.38400 0.36710 0.94650
C7D C -0.2562(16) 0.3778(12) 0.9658(6)
H4D H -0.25710 0.42330 0.97060
C8D C -0.2524(18) 0.2395(12) 0.9542(7)
H5D H -0.25030 0.19360 0.95090
C9D C -0.0783(17) 0.1763(12) 0.9738(7)
H6D H -0.12260 0.14640 0.96540
C10D C 0.0693(17) 0.1995(13) 0.9944(8)
H7D H 0.12600 0.18480 0.99930
C11D C 0.007(2) 0.1557(16) 0.9852(8)
H8D H 0.01920 0.11030 0.98630
O1A O -0.4061(10) 0.4494(7) 0.5764(4)
O1D O -0.4061(10) 0.5506(7) 1.0764(4)
O2D O -0.2541(10) 0.5681(7) 1.1092(4)
O2A O -0.2541(10) 0.4319(7) 0.6092(4)
O3A O -0.4848(12) 0.3603(9) 0.6163(5)
O4D O -0.0046(10) 0.4109(7) 1.1175(4)
O4A O -0.0046(10) 0.5891(7) 0.6175(4)
O5A O -0.1978(10) 0.6540(7) 0.6723(4)
O6A O -0.2808(11) 0.4412(8) 0.7089(4)
O7A O -0.1264(9) 0.3824(7) 0.5752(4)
O7D O -0.1264(9) 0.6176(7) 1.0752(4)
O8A O -0.3206(11) 0.5622(8) 0.5934(4)
O8D O -0.3206(11) 0.4378(8) 1.0934(4)
O9D O -0.088(1) 0.5122(7) 1.1276(4)
O9A O -0.088(1) 0.4878(7) 0.6276(4)
O10D O -0.2011(11) 0.4768(7) 1.0620(4)
O11A O -0.3169(11) 0.3525(7) 0.6594(4)
O12D O -0.0363(10) 0.5065(7) 1.0675(4)
O13A O -0.0958(10) 0.5142(7) 0.7310(4)
O14D O 0.0579(11) 0.6227(8) 1.0764(4)
O15A O -0.2152(9) 0.5304(6) 0.6626(4)
O15D O -0.2152(9) 0.4696(6) 1.1626(4)
O16D O -0.2842(10) 0.5913(7) 1.0424(4)
O16A O -0.2842(10) 0.4087(7) 0.5424(4)
O17A O -0.2309(11) 0.2727(8) 0.5479(4)
O18A O -0.3835(11) 0.4706(8) 0.6466(5)
O19A O -0.0971(11) 0.6489(8) 0.7407(4)
O20D O -0.0851(11) 0.3748(8) 1.0487(4)
O21A O 0.0684(10) 0.4676(7) 0.6300(4)
O21D O 0.0684(10) 0.5324(7) 1.1300(4)
O22D O -0.1691(10) 0.3818(7) 1.1082(4)
O22A O -0.1691(10) 0.6182(7) 0.6082(4)
O23A O -0.176(1) 0.3042(7) 0.6202(4)
O24A O -0.0215(11) 0.3568(7) 0.6369(4)
O24D O -0.0215(11) 0.6432(7) 1.1369(4)
O25A O -0.3515(10) 0.5998(8) 0.6560(4)
O26A O -0.1454(10) 0.3728(7) 0.7448(4)
O27A O -0.0469(12) 0.2253(7) 0.6591(4)
O28A O 0.1275(11) 0.5711(8) 0.6783(4)
O29A O -0.4197(11) 0.5324(9) 0.7096(5)
O30A O 0.031(1) 0.4688(7) 0.6956(4)
O31A O -0.0499(10) 0.5879(7) 0.6817(4)
O32A O -0.1452(10) 0.3972(7) 0.6755(4)
O32D O -0.1452(10) 0.6028(7) 1.1755(4)
O33D O -0.3687(11) 0.4743(8) 1.0209(4)
O34A O -0.1751(10) 0.2792(6) 0.6906(4)
O35A O -0.2492(11) 0.5760(8) 0.7190(4)
O36A O -0.3119(12) 0.6980(8) 0.6128(5)
O37A O -0.3411(11) 0.3284(8) 0.5878(4)
O38A O -0.0091(11) 0.3228(7) 0.7075(4)
O39A O -0.2989(11) 0.3060(8) 0.7291(5)
O40D O 0.0479(11) 0.4228(7) 1.0076(4)
O41D O -0.107(1) 0.4778(7) 0.9818(4)
#END
