
#######################################################################
#
#                 Cambridge Crystallographic Data Centre
#                                CCDC
#
#######################################################################
#
# If this CIF has been generated from an entry in the Cambridge
# Structural Database, then it will include bibliographic, chemical,
# crystal, experimental, refinement or atomic coordinate data resulting
# from the CCDC's data processing and validation procedures.
#
#######################################################################

data_CSD_CIF_KAPHEQ
_audit_creation_date 2012-03-30
_audit_creation_method CSD-ConQuest-V1
_database_code_CSD KAPHEQ
_database_code_depnum_ccdc_archive 'CCDC 737369'
_chemical_formula_sum 'C22 H61 Cu2 Gd1 Ge2 K2 N4 Na2 O101 W22'
_chemical_formula_moiety
;
(C22 H16 Cu2 Gd1 Ge2 N4 O82 W22 11-)n,2n(K1 1+),2n(Na1 1+),7n(H3 O1 
1+),12n(H2 O1)
;
_journal_coden_Cambridge 550
_journal_volume 56
_journal_year 2011
_journal_page_first 2331
_journal_name_full 'Chin.Sci.Bull. '
loop_
_publ_author_name
"Ping Sun"
"FengJi Ma"
"ShuXia Liu"
_chemical_name_systematic
;
catena( Di-potassium di-sodium 
(\m~2~-oxalato)-bis(2,2'-bipyridyl)-bis(germaundecatungstate-copper-gadolinium
) heptaoxonium dodecahydrate)
;
_cell_volume  11678.171
_exptl_crystal_colour 'blue'
_exptl_crystal_density_diffrn 3.698
_exptl_crystal_description 'block'
_diffrn_ambient_temperature 296
_refine_special_details
;
Some water molecules are disordered.

;
#These two values have been output from a single CSD field.
_refine_ls_R_factor_gt 0.0543
_refine_ls_wR_factor_gt 0.0543
_symmetry_cell_setting monoclinic
_symmetry_space_group_name_H-M 'C 2/c'
_symmetry_Int_Tables_number 15
loop_
_symmetry_equiv_pos_site_id
_symmetry_equiv_pos_as_xyz
1 x,y,z
2 -x,y,1/2-z
3 1/2+x,1/2+y,z
4 1/2-x,1/2+y,1/2-z
5 -x,-y,-z
6 x,-y,-1/2+z
7 -1/2-x,-1/2-y,-z
8 -1/2+x,-1/2-y,-1/2+z
_cell_length_a 15.6336(13)
_cell_length_b 20.0523(13)
_cell_length_c 38.027(3)
_cell_angle_alpha 90
_cell_angle_beta 101.586(1)
_cell_angle_gamma 90
_cell_formula_units_Z 4
loop_
_atom_type_symbol
_atom_type_radius_bond
C 0.68
H 0.23
Cu 1.32
Gd 1.62
Ge 1.17
K 1.20
N 0.68
Na 1.00
O 0.68
W 1.37
loop_
_atom_site_label
_atom_site_type_symbol
_atom_site_fract_x
_atom_site_fract_y
_atom_site_fract_z
K1 K 0.1502(4) 1.1389(3) 0.68338(15)
Na1 Na 0.2430(9) 1.3327(5) 0.7781(3)
O1 O 0.3808(11) 0.8639(8) 0.1519(4)
O2 O 0.2229(15) 1.1635(10) 0.6220(5)
O3 O 0.3218(16) 1.2128(12) 0.6992(6)
O4 O 0.2575(16) 1.0278(11) 0.7118(6)
O5 O 0.4866(17) 0.2550(12) 0.7823(6)
O6 O 0.180(2) 0.3439(15) 0.9121(8)
O7 O 0.5597(18) 0.2730(13) 0.8549(7)
O8 O 0.168(2) 0.0554(15) 0.0874(8)
O9 O 0.4843(19) 0.1149(15) 0.1132(8)
O10 O 0.420(2) 0.0050(16) 0.0542(8)
O11 O 0.747(2) 0.9156(16) 0.9742(9)
Cu1 Cu 0.0687(2) 0.88298(13) 1.01081(7)
Gd1 Gd 0.00000 1.07984(8) 0.75000
Ge1 Ge -0.17656(16) 1.03970(11) 0.64544(6)
W1 W -0.13610(7) 0.91340(5) 0.71124(2)
W2 W 0.09679(7) 0.93109(5) 0.91668(2)
W3 W 0.08056(7) 1.19541(4) 0.83228(2)
W4 W -0.03335(7) 0.96840(5) 0.83539(2)
W5 W -0.33893(7) 0.97755(5) 0.68912(3)
W6 W -0.23274(7) 1.14542(5) 0.70978(2)
W7 W 0.01268(7) 1.08359(5) 0.90147(2)
W8 W 0.31779(8) 1.00878(5) 0.93925(3)
W9 W -0.27073(7) 0.87496(5) 0.63072(3)
W10 W 0.38610(8) 1.11044(5) 0.87977(3)
W11 W 0.23045(8) 1.16182(5) 0.92219(3)
C1 C 0.2614(16) 0.8770(11) 1.0347(6)
H1 H 0.26140 0.92230 1.02950
C2 C 0.100(2) 0.7475(12) 1.0240(6)
C3 C -0.0513(17) 0.7662(12) 1.0041(6)
H2 H -0.09710 0.79590 0.99680
C4 C 0.080(2) 0.6750(16) 1.0258(8)
H3 H 0.12320 0.64320 1.03260
C5 C -0.0707(19) 0.7012(13) 1.0060(7)
H4 H -0.12830 0.68680 0.99980
C6 C -0.0070(19) 0.6578(15) 1.0168(7)
H5 H -0.02180 0.61320 1.01830
C7 C -0.0465(15) 0.9852(12) 0.9928(6)
C8 C 0.2628(17) 0.7401(13) 1.0470(6)
H6 H 0.26140 0.69430 1.05050
C9 C 0.3411(17) 0.7766(13) 1.0545(7)
H7 H 0.39410 0.75520 1.06270
C10 C 0.3379(17) 0.8477(15) 1.0492(7)
H8 H 0.38830 0.87320 1.05570
C11 C 0.1871(16) 0.7771(11) 1.0339(6)
N1 N 0.1877(12) 0.8451(9) 1.0276(5)
N2 N 0.0293(14) 0.7904(9) 1.0119(5)
O12 O 0.1698(11) 0.8827(7) 0.8917(4)
O13 O -0.1997(11) 0.8458(7) 0.6728(4)
O14 O -0.0504(10) 0.9215(7) 0.9923(4)
O15 O -0.1079(10) 1.0232(7) 0.9821(4)
O16 O 0.0887(9) 1.0127(7) 0.8724(4)
O17 O 0.0028(11) 0.9117(7) 0.8822(4)
O18 O -0.0721(10) 1.0315(7) 0.8696(4)
O19 O 0.4096(12) 1.0514(8) 0.9232(4)
O20 O 0.2535(12) 1.0699(7) 0.8901(4)
O21 O -0.0599(11) 1.1220(8) 0.9240(4)
O22 O -0.2178(10) 0.9706(7) 0.6637(4)
O23 O 0.3232(12) 0.9368(8) 0.9057(4)
O24 O -0.1330(11) 0.9296(7) 0.8203(4)
O25 O 0.2856(10) 1.0917(8) 0.9571(4)
O26 O 0.2005(11) 0.9761(8) 0.9373(4)
O27 O 0.1254(11) 1.1187(8) 0.9243(4)
O28 O -0.0327(10) 1.0311(7) 0.8033(4)
O29 O 0.3891(11) 1.0299(8) 0.8519(4)
O30 O -0.2847(11) 1.0588(8) 0.7099(4)
O31 O -0.0482(11) 0.9115(7) 0.6818(4)
O32 O 0.0342(10) 1.0077(8) 0.9317(4)
O33 O 0.1473(10) 1.1018(7) 0.8226(4)
O34 O -0.4287(12) 0.9688(9) 0.7105(5)
O35 O 0.0217(11) 1.1450(7) 0.8627(4)
O36 O 0.1760(12) 1.1969(8) 0.8787(4)
O37 O 0.3211(11) 1.1485(8) 0.8392(4)
O38 O -0.0962(11) 0.9870(7) 0.7326(4)
O39 O 0.0074(10) 1.1745(7) 0.7918(4)
O40 O -0.1439(11) 1.1267(7) 0.7448(4)
O41 O 0.3403(12) 1.1732(8) 0.9118(5)
O42 O 0.4905(13) 1.1414(10) 0.8816(5)
O43 O -0.0989(12) 0.8529(8) 0.7425(4)
O44 O 0.3739(12) 0.9760(8) 0.9788(4)
O45 O -0.2541(11) 0.9270(8) 0.7206(4)
O46 O -0.3028(11) 1.1937(8) 0.7306(4)
O47 O 0.0861(13) 0.8738(8) 0.9503(4)
O48 O 0.2310(12) 1.2264(8) 0.9511(4)
O49 O 0.1739(11) 1.2206(7) 0.8091(4)
O50 O -0.3570(12) 0.8998(8) 0.6574(4)
O51 O 0.0447(11) 1.2739(8) 0.8396(5)
O52 O -0.3131(12) 0.8022(8) 0.6139(5)
O53? O 0.4899(16) 0.0658(13) 0.1043(7)
Cu1A Cu -0.0687(2) 0.88298(13) 0.48919(7)
Cu1D Cu -0.0687(2) 1.11702(13) 0.98919(7)
Ge1A Ge 0.17656(16) 1.03970(11) 0.85456(6)
W1A W 0.13610(7) 0.91340(5) 0.78876(2)
W2A W -0.09679(7) 0.93109(5) 0.58332(2)
W3A W -0.08056(7) 1.19541(4) 0.66772(2)
W4A W 0.03335(7) 0.96840(5) 0.66461(2)
W5A W 0.33893(7) 0.97755(5) 0.81088(3)
W6A W 0.23274(7) 1.14542(5) 0.79022(2)
W7A W -0.01268(7) 1.08359(5) 0.59853(2)
W8A W -0.31779(8) 1.00878(5) 0.56075(3)
W9A W 0.27073(7) 0.87496(5) 0.86928(3)
W10A W -0.38610(8) 1.11044(5) 0.62023(3)
W11A W -0.23045(8) 1.16182(5) 0.57781(3)
C1A C -0.2614(16) 0.8770(11) 0.4653(6)
H1A H -0.26140 0.92230 0.47050
C2A C -0.100(2) 0.7475(12) 0.4760(6)
C3A C 0.0513(17) 0.7662(12) 0.4959(6)
H2A H 0.09710 0.79590 0.50320
C4A C -0.080(2) 0.6750(16) 0.4742(8)
H3A H -0.12320 0.64320 0.46740
C5A C 0.0707(19) 0.7012(13) 0.4940(7)
H4A H 0.12830 0.68680 0.50020
C6A C 0.0070(19) 0.6578(15) 0.4832(7)
H5A H 0.02180 0.61320 0.48170
C7D C 0.0465(15) 1.0148(12) 1.0072(6)
C8A C -0.2628(17) 0.7401(13) 0.4530(6)
H6A H -0.26140 0.69430 0.44950
C9A C -0.3411(17) 0.7766(13) 0.4455(7)
H7A H -0.39410 0.75520 0.43730
C10A C -0.3379(17) 0.8477(15) 0.4508(7)
H8A H -0.38830 0.87320 0.44430
C11A C -0.1871(16) 0.7771(11) 0.4661(6)
N1A N -0.1877(12) 0.8451(9) 0.4724(5)
N2A N -0.0293(14) 0.7904(9) 0.4881(5)
O12A O -0.1698(11) 0.8827(7) 0.6083(4)
O13A O 0.1997(11) 0.8458(7) 0.8272(4)
O14D O 0.0504(10) 1.0785(7) 1.0077(4)
O14A O 0.0504(10) 0.9215(7) 0.5077(4)
O15D O 0.1079(10) 0.9768(7) 1.0179(4)
O15E O -0.1079(10) 0.9768(7) 0.4821(4)
O16A O -0.0887(9) 1.0127(7) 0.6276(4)
O17A O -0.0028(11) 0.9117(7) 0.6178(4)
O18A O 0.0721(10) 1.0315(7) 0.6304(4)
O19A O -0.4096(12) 1.0514(8) 0.5768(4)
O20A O -0.2535(12) 1.0699(7) 0.6099(4)
O21A O 0.0599(11) 1.1220(8) 0.5760(4)
O22A O 0.2178(10) 0.9706(7) 0.8363(4)
O23A O -0.3232(12) 0.9368(8) 0.5943(4)
O24A O 0.1330(11) 0.9296(7) 0.6797(4)
O25A O -0.2856(10) 1.0917(8) 0.5429(4)
O26A O -0.2005(11) 0.9761(8) 0.5627(4)
O27A O -0.1254(11) 1.1187(8) 0.5757(4)
O28A O 0.0327(10) 1.0311(7) 0.6967(4)
O29A O -0.3891(11) 1.0299(8) 0.6481(4)
O30A O 0.2847(11) 1.0588(8) 0.7901(4)
O31A O 0.0482(11) 0.9115(7) 0.8182(4)
O32A O -0.0342(10) 1.0077(8) 0.5683(4)
O33A O -0.1473(10) 1.1018(7) 0.6774(4)
O34A O 0.4287(12) 0.9688(9) 0.7895(5)
O35A O -0.0217(11) 1.1450(7) 0.6373(4)
O36A O -0.1760(12) 1.1969(8) 0.6213(4)
O37A O -0.3211(11) 1.1485(8) 0.6608(4)
O38A O 0.0962(11) 0.9870(7) 0.7674(4)
O39A O -0.0074(10) 1.1745(7) 0.7082(4)
O40A O 0.1439(11) 1.1267(7) 0.7552(4)
O41A O -0.3403(12) 1.1732(8) 0.5882(5)
O42A O -0.4905(13) 1.1414(10) 0.6184(5)
O43A O 0.0989(12) 0.8529(8) 0.7575(4)
O44A O -0.3739(12) 0.9760(8) 0.5212(4)
O45A O 0.2541(11) 0.9270(8) 0.7794(4)
O46A O 0.3028(11) 1.1937(8) 0.7694(4)
O47A O -0.0861(13) 0.8738(8) 0.5497(4)
O48A O -0.2310(12) 1.2264(8) 0.5489(4)
O49A O -0.1739(11) 1.2206(7) 0.6909(4)
O50A O 0.3570(12) 0.8998(8) 0.8426(4)
O51A O -0.0447(11) 1.2739(8) 0.6604(5)
O52A O 0.3131(12) 0.8022(8) 0.8861(5)
#END
