
#######################################################################
#
#                 Cambridge Crystallographic Data Centre
#                                CCDC
#
#######################################################################
#
# If this CIF has been generated from an entry in the Cambridge
# Structural Database, then it will include bibliographic, chemical,
# crystal, experimental, refinement or atomic coordinate data resulting
# from the CCDC's data processing and validation procedures.
#
#######################################################################

data_CSD_CIF_KAPMUM
_audit_creation_date 2017-03-07
_audit_creation_method CSD-ConQuest-V1
_database_code_CSD KAPMUM
_database_code_depnum_ccdc_archive 'CCDC 1515434'
_chemical_formula_sum 'C30 H25 Cl1 Cu1 N4 O10 S2 U1'
_chemical_formula_moiety
;
C20 H16 Cl1 Cu1 N4 1+,n(C10 H7 O9 S2 U1 1-),H2 O1
;
_journal_coden_Cambridge 1290
_journal_year 2017
_journal_page_first 979
_journal_name_full 'Eur.J.Inorg.Chem. '
loop_
_publ_author_name
"P.Thuery"
"J.Harrowfield"
_chemical_name_systematic
;
catena-[bis(2,2'-bipyridine)-chloro-copper(ii) 
(\m-naphthalene-2,7-disulfonato)-(\m-hydroxy)-dioxo-uranium(vi) monohydrate]
;
_cell_volume   1637.642
_exptl_crystal_colour 'light green'
_exptl_crystal_density_diffrn 2.033
_exptl_crystal_description 'platelet'
_diffrn_ambient_temperature 150
#These two values have been output from a single CSD field.
_refine_ls_R_factor_gt 0.0271
_refine_ls_wR_factor_gt 0.0271
_symmetry_cell_setting triclinic
_symmetry_space_group_name_H-M 'P -1'
_symmetry_Int_Tables_number 2
loop_
_symmetry_equiv_pos_site_id
_symmetry_equiv_pos_as_xyz
1 x,y,z
2 -x,-y,-z
_cell_length_a 8.9368(3)
_cell_length_b 13.1629(7)
_cell_length_c 14.0127(7)
_cell_angle_alpha 95.343(2)
_cell_angle_beta 93.436(3)
_cell_angle_gamma 91.245(3)
_cell_formula_units_Z 2
loop_
_atom_type_symbol
_atom_type_radius_bond
C 0.68
H 0.23
Cl 0.99
Cu 1.32
N 0.68
O 0.68
S 1.02
U 1.96
loop_
_atom_site_label
_atom_site_type_symbol
_atom_site_fract_x
_atom_site_fract_y
_atom_site_fract_z
U1 U 0.68663(2) -0.05910(2) 0.46269(2)
S1 S 0.92935(8) 0.16437(5) 0.53514(5)
S2 S 0.58770(9) 0.67037(6) 0.37399(6)
O1 O 0.6459(2) -0.04201(16) 0.33980(15)
O2 O 0.7349(2) -0.07421(16) 0.58503(15)
O3 O 0.8728(2) 0.08169(15) 0.46264(15)
O4 O 1.0785(2) 0.14159(15) 0.57523(15)
O5 O 0.8263(2) 0.18703(16) 0.60893(15)
O6 O 0.6441(3) 0.76074(16) 0.43656(18)
O7 O 0.5577(3) 0.6932(2) 0.27563(18)
O8 O 0.4646(3) 0.62170(17) 0.41562(19)
O9 O 0.4358(2) -0.08839(15) 0.48470(15)
H1 H 0.37660 -0.12620 0.43890
C1 C 0.9475(3) 0.2736(2) 0.4719(2)
C2 C 0.8430(3) 0.3480(2) 0.4828(2)
H2 H 0.76840 0.34330 0.52790
C3 C 0.8472(3) 0.4320(2) 0.4263(2)
C4 C 0.9603(3) 0.4387(2) 0.3602(2)
C5 C 1.0667(3) 0.3603(2) 0.3519(2)
H3 H 1.14290 0.36390 0.30780
C6 C 1.0607(3) 0.2801(2) 0.4064(2)
H4 H 1.13290 0.22830 0.40040
C7 C 0.7359(4) 0.5067(2) 0.4320(2)
H5 H 0.66000 0.50300 0.47630
C8 C 0.7376(4) 0.5843(2) 0.3735(2)
C9 C 0.8531(4) 0.5934(2) 0.3097(2)
H6 H 0.85470 0.64900 0.27120
C10 C 0.9618(4) 0.5227(2) 0.3034(2)
H7 H 1.03930 0.52950 0.26070
Cu1 Cu 0.14942(5) 0.77514(3) 0.89670(3)
Cl1 Cl -0.10241(11) 0.72817(7) 0.89321(7)
N1 N 0.2971(3) 0.7362(2) 0.78895(19)
N2 N 0.2166(3) 0.6413(2) 0.93491(19)
N3 N 0.1021(3) 0.9140(2) 0.86229(19)
N4 N 0.2744(3) 0.8637(2) 1.00717(19)
C11 C 0.3373(4) 0.7909(3) 0.7180(2)
H8 H 0.28740 0.85270 0.70920
C12 C 0.4475(4) 0.7616(3) 0.6574(3)
H9 H 0.47250 0.80190 0.60750
C13 C 0.5201(4) 0.6732(3) 0.6705(3)
H10 H 0.59670 0.65160 0.62960
C14 C 0.4819(4) 0.6151(3) 0.7436(3)
H11 H 0.53240 0.55390 0.75380
C15 C 0.3695(4) 0.6478(2) 0.8011(2)
C16 C 0.3158(4) 0.5907(2) 0.8793(2)
C17 C 0.3594(4) 0.4933(3) 0.8954(2)
H12 H 0.42680 0.45770 0.85530
C18 C 0.3014(4) 0.4487(3) 0.9726(3)
H13 H 0.32820 0.38150 0.98490
C19 C 0.2064(4) 0.5015(3) 1.0304(3)
H14 H 0.16960 0.47270 1.08430
C20 C 0.1648(5) 0.5972(3) 1.0092(2)
H15 H 0.09690 0.63320 1.04860
C21 C 0.0086(5) 0.9326(3) 0.7878(2)
H16 H -0.03540 0.87620 0.74790
C22 C -0.0263(4) 1.0292(3) 0.7667(3)
H17 H -0.09100 1.03980 0.71240
C23 C 0.0342(5) 1.1099(3) 0.8257(3)
H18 H 0.01170 1.17780 0.81320
C24 C 0.1290(5) 1.0922(3) 0.9041(3)
H19 H 0.17110 1.14770 0.94600
C25 C 0.1618(4) 0.9928(2) 0.9207(2)
C26 C 0.2584(4) 0.9647(2) 1.0032(2)
C27 C 0.3248(5) 1.0351(3) 1.0739(3)
H20 H 0.31020 1.10610 1.07160
C28 C 0.4132(5) 0.9994(3) 1.1484(3)
H21 H 0.46020 1.04630 1.19740
C29 C 0.4324(5) 0.8961(3) 1.1508(3)
H22 H 0.49340 0.87050 1.20050
C30 C 0.3605(4) 0.8313(3) 1.0792(2)
H23 H 0.37260 0.75990 1.08080
O10 O 0.7728(3) 0.3279(2) 0.77394(17)
H24 H 0.78640 0.28810 0.71440
H25 H 0.66420 0.33990 0.77080
U1* U 0.68663(2) 0.94090(2) 0.46269(2)
U1A U 0.31337(2) 0.05910(2) 0.53731(2)
U1A* U 1.31337(2) 0.05910(2) 0.53731(2)
O4A O 0.9215(2) -0.14159(15) 0.42477(15)
O6* O 0.6441(3) -0.23926(16) 0.43656(18)
O9A O 0.5642(2) 0.08839(15) 0.51530(15)
#END
