
#######################################################################
#
#                 Cambridge Crystallographic Data Centre
#                                CCDC
#
#######################################################################
#
# If this CIF has been generated from an entry in the Cambridge
# Structural Database, then it will include bibliographic, chemical,
# crystal, experimental, refinement or atomic coordinate data resulting
# from the CCDC's data processing and validation procedures.
#
#######################################################################

data_CSD_CIF_KAPRIE
_audit_creation_date 2012-03-13
_audit_creation_method CSD-ConQuest-V1
_database_code_CSD KAPRIE
_database_code_depnum_ccdc_archive 'CCDC 810137'
_chemical_formula_sum 'C21 H70 Gd2 N5 O76 W12'
_chemical_formula_moiety
;
(C21 H32 Gd2 N3 O61 W12 2-)n,2n(H4 N1 1+),15n(H2 O1)
;
_journal_coden_Cambridge 1133
_journal_volume 22
_journal_year 2011
_journal_page_first 705
_journal_name_full 'J.Cluster Sci. '
loop_
_publ_author_name
"Zheyu Zhang"
_chemical_name_systematic
;
catena-(diammonium 
tetrakis(\m~3~-oxo)-tris(\m~2~-pyridinium-3,5-dicarboxylato)-bis(\m~2~-hydroxo
)-pentacosakis(\m~2~-oxo)-nona-aqua-nonaoxo-di-gadolinium(iii)-dodeca-tungsten
 pentadecahydrate)
;
_cell_volume   6871.573
_exptl_crystal_colour 'white'
_exptl_crystal_description 'block'
_diffrn_ambient_temperature 293
_refine_special_details
;
The structure is disordered.

;
#These two values have been output from a single CSD field.
_refine_ls_R_factor_gt 0.0371
_refine_ls_wR_factor_gt 0.0371
_symmetry_cell_setting monoclinic
_symmetry_space_group_name_H-M 'P 21/n'
_symmetry_Int_Tables_number 14
loop_
_symmetry_equiv_pos_site_id
_symmetry_equiv_pos_as_xyz
1 x,y,z
2 1/2-x,1/2+y,1/2-z
3 -x,-y,-z
4 -1/2+x,-1/2-y,-1/2+z
_cell_length_a 12.939(5)
_cell_length_b 25.084(5)
_cell_length_c 21.336(5)
_cell_angle_alpha 90
_cell_angle_beta 97.112(5)
_cell_angle_gamma 90
_cell_formula_units_Z 4
loop_
_atom_type_symbol
_atom_type_radius_bond
C 0.68
H 0.23
Gd 1.61
N 0.68
O 0.68
W 1.33
loop_
_atom_site_label
_atom_site_type_symbol
_atom_site_fract_x
_atom_site_fract_y
_atom_site_fract_z
W1 W 0.89834(3) 0.265668(17) 0.23440(2)
W2 W 0.92522(3) 0.462612(17) 0.23550(2)
W3 W 0.72245(3) 0.266160(17) 0.33020(2)
W4 W 0.53198(3) 0.376868(17) 0.32891(2)
W5 W 0.72625(3) 0.464282(16) 0.34795(2)
W6 W 0.90825(3) 0.352241(17) 0.34582(2)
W7 W 0.51475(3) 0.376688(17) 0.09664(2)
W8 W 0.73453(3) 0.473189(17) 0.11552(2)
W9 W 0.68786(3) 0.283577(17) 0.10387(2)
W10 W 0.51129(3) 0.280541(17) 0.19709(2)
W11 W 0.53887(3) 0.475872(17) 0.22639(2)
W12 W 0.90993(3) 0.375590(18) 0.11819(2)
Gd1 Gd 1.16383(4) 0.33882(2) 0.47713(2)
Gd2 Gd 0.81103(5) 0.33825(2) 0.74765(3)
O1 O 0.6461(5) 0.4102(3) 0.2695(3)
O2 O 0.9750(6) 0.2136(3) 0.2161(4)
O3 O 0.4228(6) 0.3992(3) 0.0376(4)
O4 O 1.1022(7) 0.4296(3) 0.5001(4)
H1 H 1.05990 0.43970 0.47070
H2 H 1.14370 0.45060 0.52250
O5 O 0.5690(5) 0.2424(3) 0.1334(3)
O6 O 0.4458(6) 0.3637(3) 0.3814(4)
O7 O 0.6877(6) 0.2173(3) 0.3801(4)
O8 O 0.8175(5) 0.4035(3) 0.3704(3)
O9 O 1.1322(7) 0.2639(3) 0.4042(4)
H3 H 1.11250 0.27510 0.36860
H4 H 1.11160 0.23460 0.41820
O10 O 1.2648(7) 0.3734(3) 0.5637(4)
O11 O 0.8176(6) 0.2253(3) 0.2885(3)
O12 O 0.8360(6) 0.4353(3) 0.0745(3)
O13 O 0.7795(5) 0.2553(3) 0.1680(3)
O14 O 0.4840(6) 0.3347(3) 0.2588(3)
O15 O 1.3346(6) 0.3045(3) 0.4613(4)
H5 H 1.36680 0.29640 0.49550
H6 H 1.36430 0.31650 0.42990
O16 O 0.4314(6) 0.3250(3) 0.1326(4)
O17 O 1.2196(7) 0.3840(3) 0.3949(4)
O18 O 1.1950(6) 0.2627(3) 0.5428(4)
O19 O 0.6178(6) 0.2570(3) 0.2592(3)
C1 C 1.2254(9) 0.4194(5) 0.3525(6)
O20 O 0.6287(6) 0.4252(3) 0.0848(3)
O21 O 0.9129(6) 0.2644(3) 0.7077(4)
O22 O 1.4211(6) 0.3859(4) 0.6154(4)
O23 O 0.9386(6) 0.3198(3) 0.1792(3)
O24 O 0.6184(6) 0.4280(3) 0.3830(3)
O25 O 0.6753(8) 0.2376(4) 0.6316(5)
O26 O 0.6345(5) 0.3235(3) 0.3527(3)
O27 O 0.9567(6) 0.4023(3) 0.2896(3)
O28 O 1.0235(6) 0.5052(3) 0.2615(4)
O29 O 0.8030(5) 0.4085(3) 0.1842(3)
O30 O 1.0178(6) 0.3240(3) 0.5344(4)
H7 H 1.02170 0.29400 0.54980
H8 H 0.95790 0.33990 0.52160
N1 N 1.3000(7) 0.3875(4) 0.7845(5)
H9 H 1.34140 0.39050 0.81920
O31 O 0.8063(10) 0.3875(5) 0.8476(5)
H10 H 0.84260 0.41420 0.84760
H11 H 0.74390 0.39240 0.85990
O32 O 0.7137(7) 0.5249(3) 0.0632(4)
O33 O 1.2331(9) 0.4680(3) 0.3633(4)
O34 O 0.8534(6) 0.5051(3) 0.1696(4)
O35 O 0.4574(6) 0.5293(3) 0.2094(4)
O36 O 0.7067(6) 0.2599(3) 0.7337(4)
O37 O 0.6252(5) 0.3345(2) 0.1661(3)
O38 O 1.0081(6) 0.3562(3) 0.4077(4)
O39 O 0.8256(5) 0.4803(3) 0.2905(3)
O40 O 0.6489(5) 0.4934(3) 0.1781(3)
O41 O 0.9926(6) 0.3602(3) 0.0647(4)
O42 O 0.4661(5) 0.4397(3) 0.2877(3)
O43 O 0.5776(6) 0.3253(3) 0.0488(3)
O44 O 0.7998(5) 0.3251(3) 0.2739(3)
C2 C 1.3256(9) 0.3806(4) 0.6131(6)
O45 O 0.4921(5) 0.4265(3) 0.1637(3)
C3 C 1.1722(9) 0.3765(4) 0.6755(6)
H12 H 1.12820 0.37220 0.63790
O46 O 0.7409(8) 0.3405(4) 0.6388(6)
H13 H 0.76390 0.36640 0.62180
H14 H 0.72430 0.31110 0.62010
O47 O 0.7876(5) 0.3328(3) 0.0858(3)
O48 O 0.6323(7) 0.3585(4) 0.7615(6)
H15 H 0.59530 0.33270 0.75090
H16 H 0.61980 0.38060 0.79090
C4 C 0.6934(9) 0.2274(5) 0.6884(7)
C5 C 1.2218(9) 0.4000(4) 0.2865(5)
O49 O 0.6262(6) 0.5065(3) 0.3001(3)
C6 C 1.1982(9) 0.3833(4) 0.7876(6)
H17 H 1.17300 0.38400 0.82660
C7 C 1.2072(8) 0.3477(4) 0.2710(6)
H18 H 1.19950 0.32280 0.30250
O50 O 0.9922(5) 0.4248(3) 0.1706(3)
N2 N 1.2329(8) 0.4196(4) 0.1791(4)
H19 H 1.24390 0.44250 0.15070
O51 O 0.9875(7) 0.3629(4) 0.7891(4)
O52 O 0.8355(6) 0.2960(3) 0.3872(3)
C8 C 1.2151(8) 0.3688(4) 0.1619(6)
H20 H 1.21050 0.35890 0.11960
O53 O 0.8499(9) 0.2799(4) 0.8383(5)
H21 H 0.79830 0.27720 0.85690
H22 H 0.90530 0.26070 0.84240
O54 O 0.9541(7) 0.3725(3) 0.6869(5)
C9 C 1.2344(8) 0.4362(5) 0.2394(6)
H23 H 1.24400 0.47210 0.24930
C10 C 1.2780(8) 0.3815(4) 0.6741(5)
O55 O 0.9842(5) 0.2936(3) 0.3040(3)
C11 C 1.1301(9) 0.3780(4) 0.7330(6)
O56 O 0.7807(7) 0.4316(4) 0.7223(5)
H24 H 0.83210 0.44910 0.73610
H25 H 0.72770 0.44170 0.69450
O57 O 0.7682(6) 0.5067(3) 0.4088(4)
C12 C 1.0171(9) 0.3713(4) 0.7367(7)
C13 C 1.3403(8) 0.3874(4) 0.7302(5)
H26 H 1.41180 0.39130 0.73040
C14 C 1.2036(8) 0.3309(5) 0.2086(6)
O58 O 0.0924(8) 0.0437(4) 0.1462(5)
H27 H 0.02750 0.03740 0.14460
H28 H 0.12750 0.01900 0.13160
O59 O 0.4793(9) 0.2789(5) 0.5652(5)
H29 H 0.48310 0.26580 0.60220
H30 H 0.48830 0.31230 0.56180
O60 O 0.5007(10) 0.1979(6) 0.4389(6)
H31 H 0.56020 0.18910 0.42930
H32 H 0.44670 0.18880 0.41450
O61 O 0.4281(11) 0.3874(5) 0.8954(5)
H33 H 0.42240 0.36840 0.92770
H34 H 0.41330 0.42040 0.89690
O62 O 0.9275(12) 0.2098(4) 0.4552(6)
H35 H 0.91140 0.17950 0.43900
H36 H 0.98960 0.22040 0.45360
O63 O 0.3514(12) 0.4896(8) 0.4798(6)
H37 H 0.29120 0.47640 0.48120
H38 H 0.34990 0.51410 0.45230
O64 O 0.8062(11) 0.6124(7) 0.9964(7)
H39 H 0.85690 0.59370 1.01340
H40 H 0.78410 0.63780 1.01750
O65 O 0.2488(12) 0.5040(6) 0.1037(7)
H41 H 0.26680 0.52480 0.07560
H42 H 0.19450 0.48510 0.09430
O66 O 0.8437(12) 0.3879(6) 0.5322(7)
H43 H 0.84280 0.40550 0.56620
H44 H 0.90360 0.37750 0.52510
O67 O 0.6528(13) 0.3145(7) 0.4895(8)
H45 H 0.64590 0.29160 0.51800
H46 H 0.66340 0.29790 0.45610
O68 O 0.0513(12) 0.5116(6) 0.4108(7)
H47 H 0.03590 0.52560 0.37460
H48 H 0.02720 0.52690 0.44150
O69 O 1.0252(14) 0.4268(8) 0.9039(9)
H49 H 1.08490 0.41250 0.91170
H50 H 1.00630 0.44720 0.93230
O70 O 1.5192(13) 0.4155(7) 0.5104(8)
H51 H 1.57400 0.39960 0.50220
H52 H 1.52520 0.44540 0.52930
O71 O 0.2035(15) 0.1598(8) 0.4382(9)
H53 H 0.22490 0.14590 0.40590
H54 H 0.15980 0.14040 0.45420
N3 N 0.7646(15) 0.2174(7) 0.5197(9)
N4 N 0.0794(18) 0.5203(9) 0.0225(11)
O72 O 0.395(3) 0.5607(16) 0.0597(18)
H55 H 0.36560 0.57770 0.02800
H56 H 0.41520 0.57950 0.09210
O73? O 0.439(2) 0.5252(11) 0.0508(13)
H57? H 0.48480 0.53110 0.02640
H58? H 0.40040 0.49930 0.03690
W9C W 1.18786(3) 0.216423(17) 0.60387(2)
W10C W 1.01129(3) 0.219459(17) 0.69709(2)
Gd1C Gd 0.66383(4) 0.16118(2) 0.97713(2)
Gd2C Gd 1.31103(5) 0.16175(2) 0.24765(3)
O17C O 0.7196(7) 0.1160(3) 0.8949(4)
O18C O 0.6950(6) 0.2373(3) 0.0428(4)
C1C C 0.7254(9) 0.0806(5) 0.8525(6)
O21C O 0.4129(6) 0.2356(3) 0.2077(4)
O25C O 1.1753(8) 0.2624(4) 0.1316(5)
O33C O 0.7331(9) 0.0320(3) 0.8633(4)
O36C O 1.2067(6) 0.2401(3) 0.2337(4)
C4C C 1.1934(9) 0.2726(5) 0.1884(7)
C5C C 0.7218(9) 0.1000(4) 0.7865(5)
C7C C 0.7072(8) 0.1523(4) 0.7710(6)
H18C H 0.69950 0.17720 0.80250
N2C N 0.7329(8) 0.0804(4) 0.6791(4)
H19C H 0.74390 0.05750 0.65070
C8C C 0.7151(8) 0.1312(4) 0.6619(6)
H20C H 0.71050 0.14110 0.61960
C9C C 0.7344(8) 0.0638(5) 0.7394(6)
H23C H 0.74400 0.02790 0.74930
C14C C 0.7036(8) 0.1691(5) 0.7086(6)
#END
