
#######################################################################
#
#                 Cambridge Crystallographic Data Centre
#                                CCDC
#
#######################################################################
#
# If this CIF has been generated from an entry in the Cambridge
# Structural Database, then it will include bibliographic, chemical,
# crystal, experimental, refinement or atomic coordinate data resulting
# from the CCDC's data processing and validation procedures.
#
#######################################################################

data_CSD_CIF_KAPROK
_audit_creation_date 2012-03-13
_audit_creation_method CSD-ConQuest-V1
_database_code_CSD KAPROK
_database_code_depnum_ccdc_archive 'CCDC 798075'
_chemical_formula_sum 'C56 H56 Cu6 I6 Mo2 N10 O2 S6'
_chemical_formula_moiety
;
(C30 H24 Cu6 I6 Mo2 N6 O2 S6 4-)n,2n(C13 H16 N2 2+)
;
_journal_coden_Cambridge 1133
_journal_volume 22
_journal_year 2011
_journal_page_first 633
_journal_name_full 'J.Cluster Sci. '
loop_
_publ_author_name
"Hong-Mei Wang"
"Yu Liang"
"Zhen-Hua Zhang"
"Yun-Yin Niu"
"Ben-Lai Wu"
_chemical_name_systematic
;
catena-(bis(1,1'-propane-1,3-diyldipyridinium) 
hexakis(\m~3~-sulfido)-tris(\m~2~-4,4'-bipyridine)-dioxo-hexaiodo-hexa-copper-
di-molybdenum)
;
_cell_volume   4400.644
_exptl_crystal_colour 'sorrel'
_exptl_crystal_density_diffrn 1.832
_exptl_special_details
;
We calculate 11% void space in the structure

;
_exptl_crystal_description 'prism'
_diffrn_ambient_temperature 296
#These two values have been output from a single CSD field.
_refine_ls_R_factor_gt 0.0809
_refine_ls_wR_factor_gt 0.0809
_symmetry_cell_setting monoclinic
_symmetry_space_group_name_H-M 'P 21/c'
_symmetry_Int_Tables_number 14
loop_
_symmetry_equiv_pos_site_id
_symmetry_equiv_pos_as_xyz
1 x,y,z
2 -x,1/2+y,1/2-z
3 -x,-y,-z
4 x,-1/2-y,-1/2+z
_cell_length_a 17.881(15)
_cell_length_b 11.321(9)
_cell_length_c 23.143(19)
_cell_angle_alpha 90
_cell_angle_beta 110.06(1)
_cell_angle_gamma 90
_cell_formula_units_Z 2
loop_
_atom_type_symbol
_atom_type_radius_bond
C 0.68
H 0.23
Cu 1.32
I 1.40
Mo 0.96
N 0.68
O 0.68
S 1.02
loop_
_atom_site_label
_atom_site_type_symbol
_atom_site_fract_x
_atom_site_fract_y
_atom_site_fract_z
I1 I 0.93537(9) 0.63271(13) 0.53638(6)
I2 I 0.65787(7) 1.0725(1) 0.63328(7)
I3 I 0.71775(8) 0.45858(14) 0.74216(7)
Mo1 Mo 0.86171(5) 0.79081(7) 0.69499(4)
Cu1 Cu 0.84694(8) 0.65525(12) 0.59590(6)
Cu2 Cu 0.71001(7) 0.86450(12) 0.64011(6)
Cu3 Cu 0.81657(8) 0.61002(12) 0.75089(6)
S1 S 0.80618(16) 0.8475(2) 0.59566(13)
S2 S 0.76718(17) 0.7987(3) 0.73940(12)
S3 S 0.90233(15) 0.5998(2) 0.69683(11)
O1 O 0.9418(5) 0.8791(8) 0.7338(5)
N1 N 0.3941(5) 0.2249(9) 0.4038(4)
N2 N 0.7494(5) 0.5454(9) 0.5533(4)
N3 N 0.8935(5) 0.5824(8) 0.8450(4)
C1 C 0.4050(7) 0.3350(11) 0.3903(5)
H1 H 0.36270 0.37340 0.36130
C2 C 0.4760(7) 0.3985(12) 0.4165(6)
H2 H 0.48210 0.47270 0.40140
C3 C 0.4580(9) 0.1772(13) 0.4476(8)
H3 H 0.45550 0.09750 0.45660
C4 C 0.5225(8) 0.2338(12) 0.4779(8)
H4 H 0.56130 0.19580 0.51000
C5 C 0.5354(6) 0.3508(10) 0.4637(5)
C6 C 0.6102(6) 0.4167(10) 0.4949(5)
C7 C 0.6335(8) 0.5069(15) 0.4645(6)
H5 H 0.60290 0.52570 0.42420
C8 C 0.7035(9) 0.5702(17) 0.4949(6)
H6 H 0.71860 0.63100 0.47420
C9 C 0.6571(8) 0.3913(11) 0.5542(6)
H7 H 0.64350 0.33090 0.57600
C10 C 0.7275(7) 0.4603(10) 0.5817(5)
H8 H 0.75920 0.44340 0.62200
C11 C 0.8716(8) 0.6183(12) 0.8917(5)
H9 H 0.82710 0.66690 0.88230
C12 C 0.9090(8) 0.5896(12) 0.9524(5)
H10 H 0.89030 0.61740 0.98270
C13 C 0.9576(7) 0.5150(11) 0.8614(5)
H11 H 0.97510 0.48960 0.83000
C14 C 1.0001(7) 0.4793(11) 0.9185(5)
H12 H 1.04410 0.43060 0.92520
C15 C 0.9778(6) 0.5153(9) 0.9675(4)
N4 N 0.8865(8) 1.2177(13) 0.6290(7)
N5 N 0.8493(8) 1.1465(12) 0.8112(6)
C16 C 0.8760(17) 1.264(2) 0.5121(13)
H13 H 0.87580 1.28420 0.47310
C17 C 0.9325(17) 1.3103(17) 0.5651(13)
H14 H 0.96960 1.36170 0.55880
C18 C 0.9408(13) 1.2892(18) 0.6267(13)
H15 H 0.97970 1.32210 0.66060
C19 C 0.8194(17) 1.186(2) 0.5204(11)
H16 H 0.77990 1.15220 0.48730
C20 C 0.8259(10) 1.1635(14) 0.5812(9)
H17 H 0.79010 1.11270 0.58980
C21 C 0.8944(15) 1.1695(17) 0.6911(8)
H18 H 0.94980 1.15440 0.71510
H19 H 0.86480 1.09640 0.68720
C22 C 0.8599(15) 1.2655(17) 0.7219(10)
H20 H 0.87780 1.34260 0.71370
H21 H 0.80220 1.26410 0.70450
C23 C 0.8862(11) 1.246(2) 0.7919(10)
H22 H 0.94340 1.23510 0.80770
H23 H 0.87450 1.31720 0.81060
C24 C 0.7679(9) 1.1513(18) 0.8008(10)
H24 H 0.73640 1.21030 0.77630
C25 C 0.7349(17) 1.0658(17) 0.8280(9)
H25 H 0.68050 1.07010 0.82050
C26 C 0.7765(16) 0.975(2) 0.8652(9)
H26 H 0.75290 0.91870 0.88290
C27 C 0.8578(18) 0.976(2) 0.8732(11)
H27 H 0.88930 0.91730 0.89780
C28 C 0.8953(12) 1.0581(14) 0.8477(7)
H28 H 0.94970 1.05370 0.85490
I1B I 0.06463(9) 0.36729(13) 0.46362(6)
I2B I 0.34213(7) -0.0725(1) 0.36672(7)
I3B I 1.28225(8) 0.54142(14) 1.25784(7)
Mo1B Mo 0.13829(5) 0.20919(7) 0.30501(4)
Cu1B Cu 0.15306(8) 0.34475(12) 0.40410(6)
Cu2B Cu 0.28999(7) 0.13550(12) 0.35989(6)
Cu3B Cu 1.18343(8) 0.38998(12) 1.24911(6)
Cu3B* Cu 0.18343(8) 0.38998(12) 0.24911(6)
S1B S 0.19382(16) 0.1525(2) 0.40434(13)
S2B S 0.23282(17) 0.2013(3) 0.26060(12)
S2B* S 1.23282(17) 0.2013(3) 1.26060(12)
S3B S 0.09767(15) 0.4002(2) 0.30317(11)
S3B* S 1.09767(15) 0.4002(2) 1.30317(11)
O1B O 0.0582(5) 0.1209(8) 0.2662(5)
N1B N 0.6059(5) 0.7751(9) 0.5962(4)
N2B N 0.2506(5) 0.4546(9) 0.4467(4)
N3B N 1.1065(5) 0.4176(8) 1.1550(4)
C1B C 0.5950(7) 0.6650(11) 0.6097(5)
H1B H 0.63730 0.62660 0.63870
C2B C 0.5240(7) 0.6015(12) 0.5835(6)
H2B H 0.51790 0.52730 0.59860
C3B C 0.5420(9) 0.8228(13) 0.5524(8)
H3B H 0.54450 0.90250 0.54340
C4B C 0.4775(8) 0.7662(12) 0.5221(8)
H4B H 0.43870 0.80420 0.49000
C5B C 0.4646(6) 0.6492(10) 0.5363(5)
C6B C 0.3898(6) 0.5833(10) 0.5051(5)
C7B C 0.3665(8) 0.4931(15) 0.5355(6)
H5B H 0.39710 0.47430 0.57580
C8B C 0.2965(9) 0.4298(17) 0.5051(6)
H6B H 0.28140 0.36900 0.52580
C9B C 0.3429(8) 0.6087(11) 0.4458(6)
H7B H 0.35650 0.66910 0.42400
C10B C 0.2725(7) 0.5397(10) 0.4183(5)
H8B H 0.24080 0.55660 0.37800
C11B C 1.1284(8) 0.3817(12) 1.1083(5)
H9B H 1.17290 0.33310 1.11770
C12B C 1.0910(8) 0.4104(12) 1.0476(5)
H10B H 1.10970 0.38260 1.01730
C13B C 1.0424(7) 0.4850(11) 1.1386(5)
H11B H 1.02490 0.51040 1.17000
C14B C 0.9999(7) 0.5207(11) 1.0815(5)
H12B H 0.95590 0.56940 1.07480
C15B C 1.0222(6) 0.4847(9) 1.0325(4)
#END
