
#######################################################################
#
#                 Cambridge Crystallographic Data Centre
#                                CCDC
#
#######################################################################
#
# If this CIF has been generated from an entry in the Cambridge
# Structural Database, then it will include bibliographic, chemical,
# crystal, experimental, refinement or atomic coordinate data resulting
# from the CCDC's data processing and validation procedures.
#
#######################################################################

data_CSD_CIF_KAPRAW
_audit_creation_date 2012-03-13
_audit_creation_method CSD-ConQuest-V1
_database_code_CSD KAPRAW
_database_code_depnum_ccdc_archive 'CCDC 795705'
_chemical_formula_sum 'C14 H66 N4 O72 Tb2 W12'
_chemical_formula_moiety
;
(C14 H28 N2 O57 Tb2 W12 2-)n,15n(H2 O1),2n(H4 N1 1+)
;
_journal_coden_Cambridge 1133
_journal_volume 22
_journal_year 2011
_journal_page_first 705
_journal_name_full 'J.Cluster Sci. '
loop_
_publ_author_name
"Zheyu Zhang"
_chemical_name_systematic
;
catena-(diammonium 
tetrakis(\m~3~-oxo)-(\m~2~-pyridinium-3,5-dicarboxylato)-bis(\m~2~-hydroxo)-pe
ntacosakis(\m~2~-oxo)-(pyridinium-3,5-dicarboxylato)-nona-aqua-nonaoxo-di-terb
ium(iii)-dodeca-tungsten pentadecahydrate)
;
_cell_volume   6881.100
_exptl_crystal_colour 'white'
_exptl_crystal_density_diffrn 3.773
_exptl_crystal_description 'block'
_diffrn_ambient_temperature 293
_refine_special_details
;
The structure is disordered.

;
#These two values have been output from a single CSD field.
_refine_ls_R_factor_gt 0.0369
_refine_ls_wR_factor_gt 0.0369
_symmetry_cell_setting monoclinic
_symmetry_space_group_name_H-M 'P 21/n'
_symmetry_Int_Tables_number 14
loop_
_symmetry_equiv_pos_site_id
_symmetry_equiv_pos_as_xyz
1 x,y,z
2 1/2-x,1/2+y,1/2-z
3 -x,-y,-z
4 -1/2+x,-1/2-y,-1/2+z
_cell_length_a 12.923
_cell_length_b 25.052
_cell_length_c 21.436
_cell_angle_alpha 90
_cell_angle_beta 97.46
_cell_angle_gamma 90
_cell_formula_units_Z 4
loop_
_atom_type_symbol
_atom_type_radius_bond
C 0.68
H 0.23
N 0.68
O 0.68
Tb 1.72
W 1.39
loop_
_atom_site_label
_atom_site_type_symbol
_atom_site_fract_x
_atom_site_fract_y
_atom_site_fract_z
O1 O 0.9064(8) 0.0415(5) 0.8543(5)
H1 H 0.93970 0.06200 0.88150
H2 H 0.91730 0.00830 0.85980
O2 O 0.5678(10) 0.2904(4) 0.0466(6)
H3 H 0.52610 0.27220 0.02110
H4 H 0.61270 0.30880 0.03040
O3 O -0.4801(10) 0.2778(6) 0.4321(5)
H5 H -0.50460 0.30180 0.45410
H6 H -0.52220 0.25160 0.42870
O4 O -0.4232(11) 0.3878(5) 0.1069(6)
H7 H -0.47720 0.39720 0.08260
H8 H -0.36930 0.37980 0.09000
O5 O -0.3464(12) 0.4903(7) 0.5190(6)
H9 H -0.37320 0.46680 0.54060
H10 H -0.37890 0.51950 0.52240
O6 O -0.0479(13) 0.5092(6) 0.5866(6)
H11 H -0.04540 0.51760 0.62520
H12 H -0.02600 0.53600 0.56790
O7 O 0.4941(13) 0.1998(7) 0.5606(7)
H13 H 0.55910 0.20610 0.56850
H14 H 0.47510 0.17100 0.54160
O8 O -0.2519(13) 0.5036(7) 0.8908(9)
H15 H -0.26830 0.49020 0.92450
H16 H -0.30230 0.51870 0.86800
O9 O 0.0302(16) 0.5743(9) 0.9000(9)
H17 H 0.07050 0.56440 0.93250
H18 H 0.02480 0.60810 0.90020
O10 O 0.3482(16) 0.3167(8) 0.5115(7)
H19 H 0.40160 0.32630 0.49510
H20 H 0.33630 0.28370 0.50520
O11 O 0.1460(13) 0.3896(7) 0.4687(10)
H21 H 0.14720 0.39130 0.42920
H22 H 0.16760 0.42000 0.48230
O12 O -0.5189(16) 0.4167(7) 0.4900(7)
H23 H -0.55200 0.38810 0.49560
H24 H -0.55330 0.43960 0.46650
O13 O 0.1930(13) 0.6106(8) 1.0025(10)
H25 H 0.18300 0.60050 1.03910
H26 H 0.21190 0.64300 1.00070
N1 N 0.0858(14) 0.4769(9) 1.0241(8)
N2 N 0.7387(18) 0.2824(8) -0.0215(7)
O14 O 0.402(3) 0.4382(15) 1.0585(14)
H27 H 0.34290 0.44200 1.07080
H28 H 0.44030 0.41730 1.08280
O15 O 0.781(2) 0.1626(7) 0.5604(9)
H29 H 0.83540 0.17130 0.54460
H30 H 0.75160 0.13300 0.55000
W1 W 0.07422(3) 0.462503(18) 0.76249(2)
W2 W 0.09950(3) 0.265440(18) 0.76414(2)
W3 W 0.27342(4) 0.463225(17) 0.65150(2)
W4 W 0.46726(3) 0.375589(18) 0.67174(2)
W5 W 0.26428(4) 0.472794(18) 0.88274(2)
W6 W 0.30940(3) 0.283133(18) 0.89537(2)
W7 W 0.48330(4) 0.375916(18) 0.90276(2)
W8 W 0.27549(3) 0.265497(18) 0.66962(2)
W9 W 0.08781(4) 0.375711(19) 0.87908(2)
W10 W 0.46016(4) 0.474769(18) 0.77337(2)
W11 W 0.08966(3) 0.351781(17) 0.65318(2)
W12 W 0.48597(3) 0.279589(18) 0.80329(2)
Tb1 Tb -0.16587(4) 0.33869(2) 0.52200(2)
Tb2 Tb 0.68657(5) 0.16124(3) 0.75296(4)
O16 O 0.1455(6) 0.5045(3) 0.8285(4)
O17 O 0.3739(6) 0.5050(3) 0.7002(3)
O18 O 0.1983(5) 0.3250(3) 0.7245(3)
O19 O 0.3505(5) 0.4923(3) 0.8211(3)
O20 O 0.4200(6) 0.3238(3) 0.9507(3)
O21 O 0.5661(5) 0.3233(3) 0.8674(4)
O22 O 0.3707(6) 0.4257(3) 0.9143(3)
O23 O 0.1613(6) 0.4352(3) 0.9229(3)
O24 O 0.1740(6) 0.4797(3) 0.7082(3)
O25 O 0.0068(6) 0.4248(3) 0.8260(4)
O26 O 0.3795(6) 0.4261(3) 0.6166(4)
O27 O 0.3790(5) 0.2564(3) 0.7408(3)
O28 O 0.2095(6) 0.3331(3) 0.9125(3)
O29 O -0.0115(6) 0.3554(3) 0.5909(4)
O30 O 0.0130(6) 0.2935(3) 0.6943(4)
O31 O 0.0027(7) 0.3603(4) 0.9320(5)
O32 O 0.5064(6) 0.4261(3) 0.8360(4)
O33 O 0.3101(7) 0.2160(3) 0.6208(4)
O34 O 0.1810(6) 0.4027(3) 0.6289(3)
O35 O 0.1799(6) 0.2246(3) 0.7107(4)
O36 O 0.5419(7) 0.5280(3) 0.7897(4)
O37 O 0.3717(5) 0.3338(3) 0.8332(3)
O38 O 0.0592(5) 0.3208(3) 0.8196(3)
O39 O 0.5139(6) 0.3335(3) 0.7414(4)
O40 O 0.1965(6) 0.4086(3) 0.8144(3)
O41 O -0.2193(7) 0.3831(3) 0.6037(4)
O42 O 0.0217(6) 0.2132(3) 0.7821(4)
O43 O 0.3010(6) 0.2372(3) 0.9556(4)
O44 O 0.4273(5) 0.2416(3) 0.8666(4)
O45 O 0.3525(5) 0.4084(3) 0.7294(3)
O46 O 0.5549(7) 0.3617(3) 0.6201(4)
O47 O 0.0416(5) 0.4015(3) 0.7083(3)
O48 O 0.2165(6) 0.2547(3) 0.8314(3)
O49 O 0.1617(6) 0.2955(3) 0.6126(3)
O50 O 0.3641(6) 0.3225(3) 0.6478(4)
O51 O 0.5338(6) 0.4384(3) 0.7128(4)
O52 O -0.0265(6) 0.5050(3) 0.7360(4)
O53 O -0.2674(7) 0.3735(3) 0.4376(4)
O54 O -0.1050(7) 0.4286(3) 0.5009(4)
H31 H -0.13400 0.45580 0.51480
H32 H -0.06240 0.43330 0.47430
O55 O 0.5766(7) 0.3985(3) 0.9613(4)
O56 O -0.3362(6) 0.3051(4) 0.5375(4)
H33 H -0.37200 0.28820 0.50780
H34 H -0.36960 0.32020 0.56420
O57 O 0.7884(7) 0.2390(4) 0.7646(5)
N3 N -0.2349(7) 0.4184(4) 0.8176(4)
H35 H -0.24470 0.44130 0.84620
O58 O 0.2317(6) 0.5060(3) 0.5899(4)
O59 O -0.0218(6) 0.3240(3) 0.4664(4)
H36 H 0.00230 0.35170 0.45030
H37 H -0.02710 0.29750 0.44140
O60 O -0.2326(9) 0.4672(3) 0.6343(5)
O61 O -0.4242(7) 0.3864(4) 0.3846(4)
N4 N -0.3010(8) 0.3891(4) 0.2179(5)
H38 H -0.34210 0.39510 0.18370
O62 O 0.2842(7) 0.5244(4) 0.9351(4)
O63 O 0.5836(6) 0.2346(3) 0.7931(4)
O64 O 0.5145(8) 0.1362(4) 0.7158(5)
O65 O 0.5435(7) 0.1277(4) 0.8186(6)
O66 O 0.8208(9) 0.2619(4) 0.8658(5)
C1 C -0.2363(9) 0.4355(5) 0.7577(5)
H39 H -0.24650 0.47140 0.74780
O67 O -0.1317(8) 0.2641(3) 0.5929(4)
H40 H -0.09420 0.23820 0.58360
H41 H -0.16580 0.26060 0.62400
C2 C -0.2224(9) 0.3994(4) 0.7125(5)
O68 O 0.7156(8) 0.0672(4) 0.7806(6)
H42 H 0.77490 0.05310 0.77870
H43 H 0.66410 0.04680 0.78390
C3 C -0.2086(9) 0.3460(4) 0.7268(6)
H44 H -0.20020 0.32140 0.69540
C4 C -0.1998(10) 0.3829(4) 0.2145(7)
H45 H -0.17500 0.38130 0.17570
O69 O 0.7580(9) 0.1605(4) 0.8628(6)
H46 H 0.78290 0.18890 0.88060
H47 H 0.76290 0.13150 0.88360
C5 C -0.2247(9) 0.4183(5) 0.6447(6)
C6 C -0.3414(9) 0.3865(4) 0.2710(6)
H48 H -0.41350 0.38820 0.27020
C7 C -0.2792(9) 0.3814(4) 0.3277(5)
C8 C -0.2191(10) 0.3680(5) 0.8338(6)
H49 H -0.21580 0.35810 0.87590
O70 O 0.8650(8) 0.1403(4) 0.7418(7)
H50 H 0.90680 0.16490 0.73420
H51 H 0.88340 0.10810 0.73740
C9 C -0.1726(9) 0.3776(5) 0.3276(5)
H52 H -0.12870 0.37440 0.36540
O71 O 0.6447(11) 0.2193(5) 0.6628(6)
H53 H 0.69020 0.24200 0.65490
H54 H 0.58160 0.22900 0.65320
O72 O 0.6913(10) 0.1143(5) 0.6551(6)
H55 H 0.64190 0.09280 0.64310
H56 H 0.75050 0.10580 0.64480
C10 C -0.3284(10) 0.3800(4) 0.3884(5)
C11 C 0.8006(9) 0.2721(5) 0.8083(7)
C12 C 0.4844(11) 0.1279(5) 0.7686(8)
C13 C -0.1308(9) 0.3787(4) 0.2709(7)
C14 C -0.2074(9) 0.3296(5) 0.7889(6)
O73? O 0.440(3) 0.4755(10) 1.0504(14)
H57? H 0.48750 0.48490 1.07940
H58? H 0.39890 0.50100 1.03810
Tb3? Tb 0.7025(3) 0.16252(16) 0.8006(2)
Tb1C Tb 0.33413(4) 0.16131(2) 1.02200(2)
Tb1* Tb 0.83413(4) 0.33869(2) 0.52200(2)
Tb2C Tb 0.18657(5) 0.33876(3) 0.25296(4)
Tb2* Tb -0.31343(5) 0.16124(3) 0.75296(4)
O41* O 0.7807(7) 0.3831(3) 0.6037(4)
O43C O -0.1990(6) 0.2628(3) 0.4556(4)
O53C O 0.2326(7) 0.1265(3) 0.9376(4)
O57* O -0.2116(7) 0.2390(4) 0.7646(5)
N3* N 0.7651(7) 0.4184(4) 0.8176(4)
H35* H 0.75530 0.44130 0.84620
O60* O 0.7674(9) 0.4672(3) 0.6343(5)
O61C O 0.0758(7) 0.1136(4) 0.8846(4)
N4C N 0.1990(8) 0.1109(4) 0.7179(5)
H38C H 0.15790 0.10490 0.68370
O64C O 0.0145(8) 0.3638(4) 0.2158(5)
O65C O 0.0435(7) 0.3723(4) 0.3186(6)
O66* O -0.1792(9) 0.2619(4) 0.8658(5)
C1* C 0.7637(9) 0.4355(5) 0.7577(5)
H39* H 0.75350 0.47140 0.74780
C2* C 0.7776(9) 0.3994(4) 0.7125(5)
C3* C 0.7914(9) 0.3460(4) 0.7268(6)
H44* H 0.79980 0.32140 0.69540
C4C C 0.3002(10) 0.1171(4) 0.7145(7)
H45C H 0.32500 0.11870 0.67570
C5* C 0.7753(9) 0.4183(5) 0.6447(6)
C6C C 0.1586(9) 0.1135(4) 0.7710(6)
H48C H 0.08650 0.11180 0.77020
C7C C 0.2208(9) 0.1186(4) 0.8277(5)
C8* C 0.7809(10) 0.3680(5) 0.8338(6)
H49* H 0.78420 0.35810 0.87590
C9C C 0.3274(9) 0.1224(5) 0.8276(5)
H52C H 0.37130 0.12560 0.86540
C10C C 0.1716(10) 0.1200(4) 0.8884(5)
C11* C -0.1994(9) 0.2721(5) 0.8083(7)
C12C C -0.0156(11) 0.3721(5) 0.2686(8)
C13C C 0.3692(9) 0.1213(4) 0.7709(7)
C14* C 0.7926(9) 0.3296(5) 0.7889(6)
#END
