
#######################################################################
#
#                 Cambridge Crystallographic Data Centre
#                                CCDC
#
#######################################################################
#
# If this CIF has been generated from an entry in the Cambridge
# Structural Database, then it will include bibliographic, chemical,
# crystal, experimental, refinement or atomic coordinate data resulting
# from the CCDC's data processing and validation procedures.
#
#######################################################################

data_CSD_CIF_KAPRUQ
_audit_creation_date 2012-03-13
_audit_creation_method CSD-ConQuest-V1
_database_code_CSD KAPRUQ
_database_code_depnum_ccdc_archive 'CCDC 798076'
_chemical_formula_sum 'C58 H60 Cu6 I6 Mo2 N10 O2 S6'
_chemical_formula_moiety
;
(C30 H24 Cu6 I6 Mo2 N6 O2 S6 4-)n,2n(C14 H18 N2 2+)
;
_journal_coden_Cambridge 1133
_journal_volume 22
_journal_year 2011
_journal_page_first 633
_journal_name_full 'J.Cluster Sci. '
loop_
_publ_author_name
"Hong-Mei Wang"
"Yu Liang"
"Zhen-Hua Zhang"
"Yun-Yin Niu"
"Ben-Lai Wu"
_chemical_name_systematic
;
catena-(bis(1,1'-butane-1,4-diyldipyridinium) 
hexakis(\m~3~-sulfido)-tris(\m~2~-4,4'-bipyridine)-dioxo-hexaiodo-hexa-copper-
di-molybdenum)
;
_cell_volume   4322.582
_exptl_crystal_colour 'sorrel'
_exptl_crystal_density_diffrn 1.859
_exptl_special_details
;
We calculate 11% void space in the structure

;
_exptl_crystal_description 'prism'
_diffrn_ambient_temperature 296
_refine_special_details
;
C16 and C16' disordered over two sites with occupancies 0.50:0.50.

;
#These two values have been output from a single CSD field.
_refine_ls_R_factor_gt 0.0951
_refine_ls_wR_factor_gt 0.0951
_symmetry_cell_setting monoclinic
_symmetry_space_group_name_H-M 'P 21/c'
_symmetry_Int_Tables_number 14
loop_
_symmetry_equiv_pos_site_id
_symmetry_equiv_pos_as_xyz
1 x,y,z
2 -x,1/2+y,1/2-z
3 -x,-y,-z
4 x,-1/2-y,-1/2+z
_cell_length_a 18.0654(19)
_cell_length_b 11.0899(11)
_cell_length_c 22.772(2)
_cell_angle_alpha 90
_cell_angle_beta 108.653(1)
_cell_angle_gamma 90
_cell_formula_units_Z 2
loop_
_atom_type_symbol
_atom_type_radius_bond
C 0.68
H 0.23
Cu 1.32
I 1.40
Mo 0.95
N 0.68
O 0.68
S 1.02
loop_
_atom_site_label
_atom_site_type_symbol
_atom_site_fract_x
_atom_site_fract_y
_atom_site_fract_z
I1 I 0.92572(10) 0.61506(16) 0.53110(8)
I2 I 0.65860(9) 1.07862(13) 0.63148(8)
I3 I 0.71409(8) 0.44722(13) 0.74565(7)
Mo1 Mo 0.85909(5) 0.78381(9) 0.69369(4)
Cu1 Cu 0.83605(9) 0.65116(14) 0.59086(7)
Cu2 Cu 0.71290(8) 0.86993(14) 0.64392(7)
Cu3 Cu 0.80991(8) 0.60359(13) 0.75127(6)
S1 S 0.80531(18) 0.8498(3) 0.59531(14)
S2 S 0.76928(18) 0.8004(3) 0.74312(14)
S3 S 0.88873(16) 0.5855(3) 0.69111(13)
O1 O 0.9410(5) 0.8641(8) 0.7322(5)
N1 N 0.7362(6) 0.5550(11) 0.5482(5)
N2 N 0.3895(6) 0.2267(12) 0.3997(5)
N3 N 0.8887(6) 0.5739(9) 0.8448(4)
C1 C 0.6902(11) 0.585(2) 0.4915(9)
H1 H 0.70070 0.65300 0.47180
C2 C 0.6241(12) 0.509(2) 0.4614(9)
H2 H 0.59730 0.52330 0.41970
C3 C 0.7093(15) 0.467(2) 0.5752(8)
H3 H 0.73780 0.44730 0.61580
C4 C 0.6412(16) 0.404(3) 0.5467(9)
H4 H 0.62490 0.34590 0.56950
C5 C 0.5993(7) 0.4220(12) 0.4891(6)
C6 C 0.5260(7) 0.3541(12) 0.4577(6)
C7 C 0.4719(11) 0.3890(16) 0.4010(8)
H5 H 0.48110 0.45630 0.38000
C8 C 0.4087(10) 0.3257(14) 0.3783(7)
H6 H 0.37270 0.35530 0.34220
C9 C 0.5069(10) 0.248(2) 0.4801(10)
H7 H 0.53720 0.22110 0.51900
C10 C 0.4458(12) 0.183(3) 0.4472(11)
H8 H 0.44270 0.10340 0.45830
C11 C 0.9478(7) 0.4998(14) 0.8573(5)
H9 H 0.96060 0.46640 0.82430
C12 C 0.9928(8) 0.4681(12) 0.9171(5)
H10 H 1.03380 0.41370 0.92320
C13 C 0.9769(7) 0.5167(10) 0.9672(5)
C14 C 0.9125(10) 0.5925(15) 0.9527(6)
H11 H 0.89720 0.62540 0.98460
C15 C 0.8725(9) 0.6191(16) 0.8947(7)
H12 H 0.83060 0.67210 0.88770
N4 N 0.8048(12) 1.1199(18) 0.8434(9)
C16 C 0.8276(13) 1.222(2) 0.534(1)
C17 C 0.8937(16) 1.282(3) 0.530(2)
C18 C 0.957(2) 1.316(3) 0.5813(18)
C19 C 0.9825(19) 1.311(3) 0.6461(19)
C20 C 0.874(3) 1.158(2) 0.7827(15)
H13 H 0.83350 1.09860 0.76820
H14 H 0.92370 1.11520 0.79640
C21 C 0.8633(13) 1.221(2) 0.840(1)
H15 H 0.83960 1.30070 0.83130
H16 H 0.91030 1.22370 0.87570
C22 C 0.823(2) 1.024(3) 0.878(2)
H17 H 0.87600 1.00720 0.89600
C23 C 0.780(2) 0.960(3) 0.8892(15)
H18 H 0.79930 0.90810 0.92250
C24 C 0.7002(19) 0.955(4) 0.8556(17)
H19 H 0.66460 0.90480 0.86530
C25 C 0.6815(17) 1.035(3) 0.8060(16)
H20 H 0.63230 1.04370 0.77680
C26 C 0.7480(17) 1.099(3) 0.807(1)
H21 H 0.74430 1.13250 0.76870
N5 N 0.9119(17) 1.2510(18) 0.6394(7)
C27 C 0.9039(15) 1.1570(17) 0.6836(9)
H22 H 0.95360 1.11960 0.70570
H23 H 0.86620 1.09550 0.66340
C28 C 0.8741(11) 1.2384(18) 0.7261(10)
H24 H 0.82170 1.26690 0.70440
H25 H 0.90820 1.30760 0.73980
C29 C 0.8421(18) 1.207(2) 0.5978(10)
C30? C 0.8421(18) 1.207(2) 0.5978(10)
I1B I 0.07428(10) 0.38494(16) 0.46890(8)
I2B I 0.34140(9) -0.07862(13) 0.36852(8)
I3B I 1.28591(8) 0.55278(13) 1.25435(7)
Mo1B Mo 0.14091(5) 0.21619(9) 0.30631(4)
Cu1B Cu 0.16395(9) 0.34884(14) 0.40914(7)
Cu2B Cu 0.28710(8) 0.13007(14) 0.35608(7)
Cu3B Cu 1.19009(8) 0.39641(13) 1.24873(6)
Cu3B* Cu 0.19009(8) 0.39641(13) 0.24873(6)
S1B S 0.19469(18) 0.1502(3) 0.40469(14)
S2B S 0.23072(18) 0.1996(3) 0.25688(14)
S2B* S 1.23072(18) 0.1996(3) 1.25688(14)
S3B S 0.11127(16) 0.4145(3) 0.30889(13)
S3B* S 1.11127(16) 0.4145(3) 1.30889(13)
O1B O 0.0590(5) 0.1359(8) 0.2678(5)
N1B N 0.2638(6) 0.4450(11) 0.4518(5)
N2B N 0.6105(6) 0.7733(12) 0.6003(5)
N3B N 1.1113(6) 0.4261(9) 1.1552(4)
C1B C 0.3098(11) 0.415(2) 0.5085(9)
H1B H 0.29930 0.34700 0.52820
C2B C 0.3759(12) 0.491(2) 0.5386(9)
H2B H 0.40270 0.47670 0.58030
C3B C 0.2907(15) 0.533(2) 0.4248(8)
H3B H 0.26220 0.55270 0.38420
C4B C 0.3588(16) 0.596(3) 0.4533(9)
H4B H 0.37510 0.65410 0.43050
C5B C 0.4007(7) 0.5780(12) 0.5109(6)
C6B C 0.4740(7) 0.6459(12) 0.5423(6)
C7B C 0.5281(11) 0.6110(16) 0.5990(8)
H5B H 0.51890 0.54370 0.62000
C8B C 0.5913(10) 0.6743(14) 0.6217(7)
H6B H 0.62730 0.64470 0.65780
C9B C 0.4931(10) 0.752(2) 0.5199(10)
H7B H 0.46280 0.77890 0.48100
C10B C 0.5542(12) 0.817(3) 0.5528(11)
H8B H 0.55730 0.89660 0.54170
C11B C 1.0522(7) 0.5002(14) 1.1427(5)
H9B H 1.03940 0.53360 1.17570
C12B C 1.0072(8) 0.5319(12) 1.0829(5)
H10B H 0.96620 0.58630 1.07680
C13B C 1.0231(7) 0.4833(10) 1.0328(5)
C14B C 1.0875(10) 0.4075(15) 1.0473(6)
H11B H 1.10280 0.37460 1.01540
C15B C 1.1275(9) 0.3809(16) 1.1053(7)
H12B H 1.16940 0.32790 1.11230
#END
