
#######################################################################
#
#                 Cambridge Crystallographic Data Centre
#                                CCDC
#
#######################################################################
#
# If this CIF has been generated from an entry in the Cambridge
# Structural Database, then it will include bibliographic, chemical,
# crystal, experimental, refinement or atomic coordinate data resulting
# from the CCDC's data processing and validation procedures.
#
#######################################################################

data_CSD_CIF_KAPSAX
_audit_creation_date 2012-03-13
_audit_creation_method CSD-ConQuest-V1
_database_code_CSD KAPSAX
_database_code_depnum_ccdc_archive 'CCDC 807960'
_chemical_formula_sum 'C56 H56 Cu6 I6 N10 O2 S6 W2'
_chemical_formula_moiety
;
(C30 H24 Cu6 I6 N6 O2 S6 W2 4-)n,2n(C13 H16 N2 2+)
;
_journal_coden_Cambridge 1133
_journal_volume 22
_journal_year 2011
_journal_page_first 633
_journal_name_full 'J.Cluster Sci. '
loop_
_publ_author_name
"Hong-Mei Wang"
"Yu Liang"
"Zhen-Hua Zhang"
"Yun-Yin Niu"
"Ben-Lai Wu"
_chemical_name_systematic
;
catena-(bis(1,1'-propane-1,3-diyldipyridinium) 
hexakis(\m~3~-sulfido)-tris(\m~2~-4,4'-bipyridine)-dioxo-hexaiodo-hexa-copper-
di-tungsten unknown solvate)
;
_cell_volume   4391.228
_exptl_crystal_colour 'colorless'
_exptl_crystal_density_diffrn 1.969
_exptl_crystal_description 'block'
_diffrn_ambient_temperature 293
_refine_special_details
;
The disordered unknown solvent molecules were not modelled and the disordered 
density was taken into account using the SQUEEZE/PLATON procedure.
;
#These two values have been output from a single CSD field.
_refine_ls_R_factor_gt 0.0869
_refine_ls_wR_factor_gt 0.0869
_symmetry_cell_setting monoclinic
_symmetry_space_group_name_H-M 'P 21/c'
_symmetry_Int_Tables_number 14
loop_
_symmetry_equiv_pos_site_id
_symmetry_equiv_pos_as_xyz
1 x,y,z
2 -x,1/2+y,1/2-z
3 -x,-y,-z
4 x,-1/2-y,-1/2+z
_cell_length_a 17.821(4)
_cell_length_b 11.339(2)
_cell_length_c 23.069(5)
_cell_angle_alpha 90
_cell_angle_beta 109.61(3)
_cell_angle_gamma 90
_cell_formula_units_Z 2
loop_
_atom_type_symbol
_atom_type_radius_bond
C 0.68
H 0.23
Cu 1.32
I 1.40
N 0.68
O 0.68
S 1.02
W 0.98
loop_
_atom_site_label
_atom_site_type_symbol
_atom_site_fract_x
_atom_site_fract_y
_atom_site_fract_z
W1 W 0.14022(3) 0.20871(4) 0.30487(2)
I1 I 0.34342(9) -0.07610(13) 0.36527(9)
I2 I 0.28790(11) 0.53927(18) 0.25841(9)
I3 I 0.06209(11) 0.36367(16) 0.46317(8)
Cu1 Cu 0.29210(9) 0.13180(15) 0.35962(8)
Cu2 Cu 0.18592(10) 0.38937(16) 0.24779(7)
Cu3 Cu 0.15368(10) 0.34294(15) 0.40509(7)
S1 S 0.2345(2) 0.1991(3) 0.25963(17)
S2 S 0.09891(18) 0.3986(3) 0.30303(14)
S3 S 0.1942(2) 0.1493(3) 0.40392(17)
O1 O 0.0590(6) 0.1213(10) 0.2663(6)
N1 N 0.3969(7) 0.2226(11) 0.4043(6)
N2 N 0.7488(6) 0.5495(11) 0.5529(5)
N3 N 0.1089(7) 0.422(1) 0.1542(5)
C1 C 0.4054(10) 0.3348(16) 0.3888(9)
H1 H 0.36320 0.37000 0.35830
C2 C 0.4731(9) 0.4005(15) 0.4155(8)
H2 H 0.47740 0.47670 0.40200
C3 C 0.5355(8) 0.3502(13) 0.4636(7)
C4 C 0.5227(11) 0.2377(17) 0.4833(10)
H3 H 0.55910 0.20580 0.51880
C5 C 0.4578(11) 0.1752(16) 0.451(1)
H4 H 0.45460 0.09640 0.46110
C6 C 0.7022(13) 0.574(2) 0.4952(9)
H5 H 0.71730 0.63360 0.47400
C7 C 0.6301(11) 0.511(2) 0.4648(8)
H6 H 0.59710 0.53240 0.42560
C8 C 0.6115(7) 0.4203(12) 0.4946(6)
C9 C 0.6573(10) 0.3951(14) 0.5529(6)
H7 H 0.64390 0.33450 0.57470
C10 C 0.7268(10) 0.4645(14) 0.5798(7)
H8 H 0.75850 0.44670 0.61990
C11 C 0.1321(10) 0.3870(15) 0.1043(7)
H9 H 0.17800 0.34200 0.11190
C12 C 0.0915(9) 0.4152(15) 0.0480(6)
H10 H 0.10950 0.38880 0.01680
C13 C 0.0228(7) 0.4826(11) 0.0319(5)
C14 C -0.0009(8) 0.5170(14) 0.0823(6)
H11 H -0.04660 0.56220 0.07560
C15 C 0.0437(8) 0.4834(13) 0.1411(5)
H12 H 0.02630 0.50590 0.17320
N4 N 0.8461(10) 0.3518(14) 0.3137(8)
C16 C 0.7651(10) 0.3481(15) 0.3053(8)
H13 H 0.73360 0.28790 0.28210
C17 C 0.7312(9) 0.4345(19) 0.3314(10)
H14 H 0.67710 0.43210 0.32570
C18 C 0.7783(12) 0.5246(16) 0.3659(9)
H15 H 0.75560 0.58240 0.38340
C19 C 0.8592(12) 0.5282(15) 0.3744(8)
H16 H 0.89070 0.58840 0.39750
C20 C 0.8931(8) 0.4418(17) 0.3483(8)
H17 H 0.94730 0.44430 0.35390
C21 C 0.8861(15) 0.254(2) 0.2979(7)
H18 H 0.87560 0.18390 0.31770
H19 H 0.94310 0.26870 0.31370
C22 C 0.8607(16) 0.233(2) 0.2288(7)
H20 H 0.80320 0.22520 0.21300
H21 H 0.88300 0.15850 0.22200
C23 C 0.8846(17) 0.328(2) 0.1913(10)
H22 H 0.84800 0.39350 0.18460
H23 H 0.93750 0.35620 0.21430
N5 N 0.8841(9) 0.2832(13) 0.1329(6)
C24 C 0.8239(8) 0.3350(13) 0.0847(7)
H24 H 0.78740 0.38500 0.09290
C25 C 0.8184(9) 0.3120(15) 0.0242(6)
H25 H 0.77820 0.34660 -0.00810
C26 C 0.8731(11) 0.2372(15) 0.0120(6)
H26 H 0.86940 0.22180 -0.02850
C27 C 0.9332(10) 0.1854(14) 0.0602(8)
H27 H 0.96980 0.13540 0.05200
C28 C 0.9388(8) 0.2084(13) 0.1207(7)
H28 H 0.97900 0.17380 0.15290
W1B W 0.85978(3) 0.79129(4) 0.69513(2)
I1B I 0.65658(9) 1.07610(13) 0.63473(9)
I2B I -0.28790(11) 0.46073(18) -0.25841(9)
I3B I 0.93791(11) 0.63633(16) 0.53683(8)
Cu1B Cu 0.70790(9) 0.86820(15) 0.64038(8)
Cu2B Cu -0.18592(10) 0.61063(16) -0.24779(7)
Cu2B* Cu 0.81408(10) 0.61063(16) 0.75221(7)
Cu3B Cu 0.84632(10) 0.65706(15) 0.59491(7)
S1B S 0.7655(2) 0.8009(3) 0.74037(17)
S1B* S -0.2345(2) 0.8009(3) -0.25963(17)
S2B S -0.09891(18) 0.6014(3) -0.30303(14)
S2B* S 0.90109(18) 0.6014(3) 0.69697(14)
S3B S 0.8058(2) 0.8507(3) 0.59608(17)
O1B O 0.9410(6) 0.8787(10) 0.7337(6)
N1B N 0.6031(7) 0.7774(11) 0.5957(6)
N2B N 0.2512(6) 0.4505(11) 0.4471(5)
N3B N -0.1089(7) 0.578(1) -0.1542(5)
C1B C 0.5946(10) 0.6652(16) 0.6112(9)
H1B H 0.63680 0.63000 0.64170
C2B C 0.5269(9) 0.5995(15) 0.5845(8)
H2B H 0.52260 0.52330 0.59800
C3B C 0.4645(8) 0.6498(13) 0.5364(7)
C4B C 0.4773(11) 0.7623(17) 0.5167(10)
H3B H 0.44090 0.79420 0.48120
C5B C 0.5422(11) 0.8248(16) 0.549(1)
H4B H 0.54540 0.90360 0.53890
C6B C 0.2978(13) 0.426(2) 0.5048(9)
H5B H 0.28270 0.36640 0.52600
C7B C 0.3699(11) 0.489(2) 0.5352(8)
H6B H 0.40290 0.46760 0.57440
C8B C 0.3885(7) 0.5797(12) 0.5054(6)
C9B C 0.3427(10) 0.6049(14) 0.4471(6)
H7B H 0.35610 0.66550 0.42530
C10B C 0.2732(10) 0.5355(14) 0.4202(7)
H8B H 0.24150 0.55330 0.38010
C11B C -0.1321(10) 0.6130(15) -0.1043(7)
H9B H -0.17800 0.65800 -0.11190
C12B C -0.0915(9) 0.5848(15) -0.0480(6)
H10B H -0.10950 0.61120 -0.01680
C13B C -0.0228(7) 0.5174(11) -0.0319(5)
C14B C 0.0009(8) 0.4830(14) -0.0823(6)
H11B H 0.04660 0.43780 -0.07560
C15B C -0.0437(8) 0.5166(13) -0.1411(5)
H12B H -0.02630 0.49410 -0.17320
#END
