
#######################################################################
#
#                 Cambridge Crystallographic Data Centre
#                                CCDC
#
#######################################################################
#
# If this CIF has been generated from an entry in the Cambridge
# Structural Database, then it will include bibliographic, chemical,
# crystal, experimental, refinement or atomic coordinate data resulting
# from the CCDC's data processing and validation procedures.
#
#######################################################################

data_CSD_CIF_KAPXUW
_audit_creation_date 2012-03-13
_audit_creation_method CSD-ConQuest-V1
_database_code_CSD KAPXUW
_database_code_depnum_ccdc_archive 'CCDC 798988'
_chemical_formula_sum 'C52 H60 Cu4 N8 O40 P1 W11'
_chemical_formula_moiety
;
(C26 H28 Cu2 N4)n,n(C26 H32 Cu1 N4 O1 2+),n(Cu1 O39 P1 W11 2-)
;
_journal_coden_Cambridge 208
_journal_volume 186
_journal_year 2012
_journal_page_first 23
_journal_name_full 'J.Solid State Chem. '
loop_
_publ_author_name
"Haijun Pang"
"Huiyuan Ma"
"Yan Yu"
"Ming Yang"
"Ye Xun"
"Bo Liu"
_chemical_name_systematic
;
catena-(bis(4-(3-(pyridin-4-yl)propyl)pyridinium)-aqua-copper 
(\m~12~-phosphato)-pentacosakis(\m~2~-oxo)-decaoxo-copper-undeca-tungsten 
bis(\m~2~-4,4'-propane-1,3-diyldipyridine)-di-copper)
;
_cell_volume   7771.455
_exptl_crystal_colour 'red'
_exptl_crystal_density_diffrn 3.197
_exptl_crystal_description 'block'
_diffrn_ambient_temperature 293
_refine_special_details
;
The structure is disordered by symmetry.

;
#These two values have been output from a single CSD field.
_refine_ls_R_factor_gt 0.0586
_refine_ls_wR_factor_gt 0.0586
_symmetry_cell_setting monoclinic
_symmetry_space_group_name_H-M 'C 2/c'
_symmetry_Int_Tables_number 15
loop_
_symmetry_equiv_pos_site_id
_symmetry_equiv_pos_as_xyz
1 x,y,z
2 -x,y,1/2-z
3 1/2+x,1/2+y,z
4 1/2-x,1/2+y,1/2-z
5 -x,-y,-z
6 x,-y,-1/2+z
7 -1/2-x,-1/2-y,-z
8 -1/2+x,-1/2-y,-1/2+z
_cell_length_a 25.993(7)
_cell_length_b 14.628(4)
_cell_length_c 21.521(5)
_cell_angle_alpha 90
_cell_angle_beta 108.245(3)
_cell_angle_gamma 90
_cell_formula_units_Z 4
loop_
_atom_type_symbol
_atom_type_radius_bond
C 0.68
H 0.23
Cu 1.32
N 0.68
O 0.68
P 1.05
W 1.38
loop_
_atom_site_label
_atom_site_type_symbol
_atom_site_fract_x
_atom_site_fract_y
_atom_site_fract_z
W1 W -0.11572(3) 0.14280(5) -0.02948(3)
W2 W 0.00033(3) 0.22319(5) -0.06747(3)
W3 W -0.00530(3) -0.19273(5) -0.10127(3)
W4 W -0.11618(3) -0.08255(6) 0.03609(3)
W5 W -0.12035(3) -0.04908(6) -0.13264(3)
W6? W 0.00265(5) -0.0294(1) 0.16310(5)
Cu1 Cu 0.00265(5) -0.0294(1) 0.16310(5)
P1 P 0.00000 0.00000 0.00000
Cu2 Cu -0.23474(17) -0.2112(3) -0.08165(16)
N1 N -0.2839(8) -0.1178(15) -0.0813(8)
N2 N -0.3055(9) -0.1812(15) 0.0850(8)
N3 N -0.1193(10) 0.130(2) 0.1576(9)
N4 N -0.4265(12) 0.199(3) 0.2531(18)
C1 C -0.2643(14) 0.249(3) 0.2476(17)
H1 H -0.24020 0.24850 0.29230
H2 H -0.25370 0.19830 0.22520
C2 C -0.203(2) 0.341(3) 0.213(2)
H3 H -0.20540 0.39150 0.18240
H4 H -0.17900 0.36130 0.25490
C3 C -0.255(2) 0.328(3) 0.2189(14)
H5 H -0.26190 0.37880 0.24380
H6 H -0.28070 0.33120 0.17550
C4 C -0.1230(13) 0.242(3) 0.2339(12)
H7 H -0.10850 0.26190 0.27700
C5 C -0.1977(13) 0.224(3) 0.1391(12)
H8 H -0.23290 0.23780 0.11390
C6 C -0.1782(12) 0.270(2) 0.1923(15)
C7 C -0.4011(9) 0.1288(19) 0.2372(7)
H9 H -0.41760 0.07190 0.22800
C8 C -0.4045(9) 0.2853(19) 0.2705(7)
H10 H -0.42370 0.33140 0.28320
C9 C -0.3523(9) 0.2992(19) 0.2678(7)
H11 H -0.33600 0.35620 0.27810
C10 C -0.3245(9) 0.2279(19) 0.2499(7)
C11 C -0.3489(9) 0.1427(19) 0.2346(7)
H12 H -0.33040 0.09510 0.22250
C12 C -0.3573(8) 0.0158(14) -0.0713(9)
C13 C -0.3058(12) 0.0358(17) -0.0664(11)
H13 H -0.29380 0.09580 -0.05860
C14 C -0.2787(10) -0.094(2) 0.0929(12)
H14 H -0.24120 -0.09080 0.10330
C15 C -0.3357(10) -0.1401(16) -0.0863(11)
H15 H -0.34690 -0.20050 -0.09430
C16 C -0.2707(10) -0.0309(18) -0.0727(11)
H16 H -0.23570 -0.01370 -0.07080
C17 C -0.3734(10) -0.0736(15) -0.0796(10)
H17 H -0.40820 -0.09040 -0.08090
C18 C -0.3953(11) 0.0920(17) -0.0682(14)
H18 H -0.37470 0.14760 -0.05370
H19 H -0.42040 0.10290 -0.11160
C19 C -0.4001(15) 0.063(2) 0.0564(15)
H20 H -0.42640 0.06020 0.07990
H21 H -0.37840 0.11810 0.07020
C20 C -0.4295(13) 0.0668(19) -0.0179(14)
H22 H -0.44620 0.00750 -0.03070
H23 H -0.45860 0.11090 -0.02530
C21 C -0.1721(14) 0.154(2) 0.1150(13)
H24 H -0.18790 0.12640 0.07470
C22 C -0.0954(12) 0.188(3) 0.2052(10)
H25 H -0.05780 0.19040 0.21960
C23 C -0.3081(11) -0.0177(19) 0.0853(14)
H26 H -0.29030 0.03830 0.08990
C24 C -0.3596(9) -0.1822(15) 0.0724(9)
H27 H -0.37850 -0.23710 0.06270
C25 C -0.3651(10) -0.0184(13) 0.0705(11)
C26 C -0.3862(8) -0.1045(14) 0.0736(11)
H28 H -0.42100 -0.10840 0.07670
O1 O -0.024(1) 0.0899(18) -0.0024(11)
O2 O -0.50000 0.057(2) 0.25000
O3 O 0.00000 -0.0435(14) 0.25000
O4 O -0.1355(7) 0.0678(9) -0.1032(6)
O5 O -0.0750(7) -0.0437(14) 0.1202(9)
O6 O -0.1790(6) -0.0748(10) -0.1903(6)
O7 O -0.1693(7) 0.2109(12) -0.0412(7)
O8 O -0.1728(6) -0.1223(10) 0.0492(8)
O9 O -0.0264(9) -0.0447(15) -0.0702(10)
O10 O 0.0020(6) 0.3291(11) -0.0972(7)
O11 O 0.0238(10) 0.0649(17) -0.0483(11)
O12 O -0.0086(5) -0.2865(10) -0.1478(6)
O13 O 0.0163(6) 0.2451(11) 0.0225(6)
O14 O -0.0594(9) 0.0099(16) -0.0209(9)
O15 O -0.0701(6) 0.1865(12) 0.0524(6)
O16 O -0.0772(8) 0.0078(13) -0.1751(10)
O17 O -0.0735(6) 0.2102(11) -0.0702(6)
O18 O 0.0104(6) -0.1002(13) -0.1526(10)
O19 O -0.1360(7) -0.0994(9) -0.0535(7)
O20 O -0.1336(7) 0.0451(10) 0.0166(6)
O21 O 0.0750(7) 0.1898(14) -0.0457(8)
O22 O -0.0789(7) -0.1583(14) -0.1283(11)
O23 O -0.0125(6) 0.1523(15) -0.1398(9)
Cu3 Cu -0.50000 0.2012(8) 0.25000
W1D W 0.11572(3) -0.14280(5) 0.02948(3)
W2D W -0.00033(3) -0.22319(5) 0.06747(3)
W3D W 0.00530(3) 0.19273(5) 0.10127(3)
W4D W 0.11618(3) 0.08255(6) -0.03609(3)
W5D W 0.12035(3) 0.04908(6) 0.13264(3)
Cu1D Cu -0.00265(5) 0.0294(1) -0.16310(5)
Cu1A Cu -0.00265(5) -0.0294(1) 0.33690(5)
Cu2F Cu -0.26526(17) -0.2888(3) 0.08165(16)
N1F N -0.2161(8) -0.3822(15) 0.0813(8)
N2F N -0.1945(9) -0.3188(15) -0.0850(8)
N3A N -0.8807(10) 0.130(2) 0.3424(9)
N4A N -0.5735(12) 0.199(3) 0.2469(18)
C1A C -0.7357(14) 0.249(3) 0.2524(17)
H1A H -0.75980 0.24850 0.20770
H2A H -0.74630 0.19830 0.27480
C2A C -0.797(2) 0.341(3) 0.287(2)
H3A H -0.79460 0.39150 0.31760
H4A H -0.82100 0.36130 0.24510
C3A C -0.745(2) 0.328(3) 0.2811(14)
H5A H -0.73810 0.37880 0.25620
H6A H -0.71930 0.33120 0.32450
C4A C -0.8770(13) 0.242(3) 0.2661(12)
H7A H -0.89150 0.26190 0.22300
C5A C -0.8023(13) 0.224(3) 0.3609(12)
H8A H -0.76710 0.23780 0.38610
C6A C -0.8218(12) 0.270(2) 0.3077(15)
C7A C -0.5989(9) 0.1288(19) 0.2628(7)
H9A H -0.58240 0.07190 0.27200
C8A C -0.5955(9) 0.2853(19) 0.2295(7)
H10A H -0.57630 0.33140 0.21680
C9A C -0.6477(9) 0.2992(19) 0.2322(7)
H11A H -0.66400 0.35620 0.22190
C10A C -0.6755(9) 0.2279(19) 0.2501(7)
C11A C -0.6511(9) 0.1427(19) 0.2654(7)
H12A H -0.66960 0.09510 0.27750
C12F C -0.1427(8) -0.5158(14) 0.0713(9)
C13F C -0.1942(12) -0.5358(17) 0.0664(11)
H13F H -0.20620 -0.59580 0.05860
C14F C -0.2213(10) -0.406(2) -0.0929(12)
H14F H -0.25880 -0.40920 -0.10330
C15F C -0.1643(10) -0.3599(16) 0.0863(11)
H15F H -0.15310 -0.29950 0.09430
C16F C -0.2293(10) -0.4691(18) 0.0727(11)
H16F H -0.26430 -0.48630 0.07080
C17F C -0.1266(10) -0.4264(15) 0.0796(10)
H17F H -0.09180 -0.40960 0.08090
C18F C -0.1047(11) -0.5920(17) 0.0682(14)
H18F H -0.12530 -0.64760 0.05370
H19F H -0.07960 -0.60290 0.11160
C19F C -0.0999(15) -0.563(2) -0.0564(15)
H20F H -0.07360 -0.56020 -0.07990
H21F H -0.12160 -0.61810 -0.07020
C20F C -0.0705(13) -0.5668(19) 0.0179(14)
H22F H -0.05380 -0.50750 0.03070
H23F H -0.04140 -0.61090 0.02530
C21A C -0.8279(14) 0.154(2) 0.3850(13)
H24A H -0.81210 0.12640 0.42530
C22A C -0.9046(12) 0.188(3) 0.2948(10)
H25A H -0.94220 0.19040 0.28040
C23F C -0.1919(11) -0.4823(19) -0.0853(14)
H26F H -0.20970 -0.53830 -0.08990
C24F C -0.1404(9) -0.3178(15) -0.0724(9)
H27F H -0.12150 -0.26290 -0.06270
C25F C -0.1349(10) -0.4816(13) -0.0705(11)
C26F C -0.1138(8) -0.3955(14) -0.0736(11)
H28F H -0.07900 -0.39160 -0.07670
O1D O 0.024(1) -0.0899(18) 0.0024(11)
O3D O 0.00000 0.0435(14) -0.25000
O4D O 0.1355(7) -0.0678(9) 0.1032(6)
O5D O 0.0750(7) 0.0437(14) -0.1202(9)
O6D O 0.1790(6) 0.0748(10) 0.1903(6)
O7D O 0.1693(7) -0.2109(12) 0.0412(7)
O8D O 0.1728(6) 0.1223(10) -0.0492(8)
O9D O 0.0264(9) 0.0447(15) 0.0702(10)
O10D O -0.0020(6) -0.3291(11) 0.0972(7)
O11D O -0.0238(10) -0.0649(17) 0.0483(11)
O12D O 0.0086(5) 0.2865(10) 0.1478(6)
O13D O -0.0163(6) -0.2451(11) -0.0225(6)
O14D O 0.0594(9) -0.0099(16) 0.0209(9)
O15D O 0.0701(6) -0.1865(12) -0.0524(6)
O16D O 0.0772(8) -0.0078(13) 0.1751(10)
O17D O 0.0735(6) -0.2102(11) 0.0702(6)
O18D O -0.0104(6) 0.1002(13) 0.1526(10)
O19D O 0.1360(7) 0.0994(9) 0.0535(7)
O20D O 0.1336(7) -0.0451(10) -0.0166(6)
O21D O -0.0750(7) -0.1898(14) 0.0457(8)
O22D O 0.0789(7) 0.1583(14) 0.1283(11)
O23D O 0.0125(6) -0.1523(15) 0.1398(9)
#END
