
#######################################################################
#
#                 Cambridge Crystallographic Data Centre
#                                CCDC
#
#######################################################################
#
# If this CIF has been generated from an entry in the Cambridge
# Structural Database, then it will include bibliographic, chemical,
# crystal, experimental, refinement or atomic coordinate data resulting
# from the CCDC's data processing and validation procedures.
#
#######################################################################

data_CSD_CIF_KARGER01
_audit_creation_date 2016-11-15
_audit_creation_method CSD-ConQuest-V1
_database_code_CSD KARGER01
_database_code_depnum_ccdc_archive 'CCDC 740396'
_chemical_formula_sum 'C16 H28 N6 O14 Zn1'
_chemical_formula_moiety
;
C4 H12 N2 2+,n(C12 H4 N4 O8 Zn1 2-),6(H2 O1)
;
_journal_coden_Cambridge 1078
_journal_year 2016
_journal_name_full 'CSD Communication(Private Communication) '
loop_
_publ_author_name
"M.Mirzaei"
_chemical_name_systematic
;
catena-(piperazinedi-ium bis(\m-pyrazine-2,3-dicarboxylato)-zinc(ii) 
hexahydrate)
;
_cell_volume   1215.188
_exptl_crystal_density_diffrn 1.606
_diffrn_ambient_temperature 293
#These two values have been output from a single CSD field.
_refine_ls_R_factor_gt 0.0525
_refine_ls_wR_factor_gt 0.0525
_symmetry_cell_setting monoclinic
_symmetry_space_group_name_H-M 'P 21/n'
_symmetry_Int_Tables_number 14
loop_
_symmetry_equiv_pos_site_id
_symmetry_equiv_pos_as_xyz
1 x,y,z
2 1/2-x,1/2+y,1/2-z
3 -x,-y,-z
4 -1/2+x,-1/2-y,-1/2+z
_cell_length_a 6.587(1)
_cell_length_b 17.528(1)
_cell_length_c 10.730(1)
_cell_angle_alpha 90
_cell_angle_beta 101.217(10)
_cell_angle_gamma 90
_cell_formula_units_Z 2
loop_
_atom_type_symbol
_atom_type_radius_bond
C 0.68
H 0.23
N 0.68
O 0.68
Zn 1.22
loop_
_atom_site_label
_atom_site_type_symbol
_atom_site_fract_x
_atom_site_fract_y
_atom_site_fract_z
C1 C 0.8983(4) -0.00883(17) 0.1625(3)
C2 C 0.9057(4) 0.06413(17) 0.0866(3)
C3 C 1.0766(4) 0.11256(18) 0.1030(3)
C4 C 0.9007(5) 0.1932(2) -0.0464(3)
H1 H 0.89420 0.23770 -0.09400
C5 C 0.7308(5) 0.14491(19) -0.0655(3)
H2 H 0.61380 0.15710 -0.12590
C6 C 1.2784(4) 0.09915(18) 0.1965(3)
N1 N 0.7342(4) 0.08153(15) 0.0019(2)
N2 N 1.0733(4) 0.17797(16) 0.0380(3)
O1 O 0.7342(3) -0.04904(13) 0.1309(2)
O2 O 1.0465(4) -0.02430(15) 0.2466(2)
O3 O 1.2919(3) 0.13115(14) 0.3028(2)
O4 O 1.4175(3) 0.06151(14) 0.1620(2)
Zn1 Zn 0.50000 0.00000 0.00000
C7 C 0.6960(6) 0.0040(2) -0.5408(4)
H3 H 0.79160 -0.01530 -0.46720
H4 H 0.77440 0.01680 -0.60570
C8 C 0.4623(6) 0.0559(2) -0.4099(3)
H5 H 0.39310 0.10200 -0.39040
H6 H 0.55040 0.03800 -0.33230
N3 N 0.5902(5) 0.07309(18) -0.5053(3)
H7 H 0.68560 0.10840 -0.47370
H8 H 0.50920 0.09270 -0.57520
O5 O 1.1598(5) -0.19517(18) 0.4121(4)
O6 O 0.7877(5) -0.18892(19) 0.2708(3)
O7 O 0.5826(6) -0.3130(3) 0.1513(4)
C1B C 0.1017(4) 0.00883(17) -0.1625(3)
C2B C 0.0943(4) -0.06413(17) -0.0866(3)
C3B C -0.0766(4) -0.11256(18) -0.1030(3)
C4B C 0.0993(5) -0.1932(2) 0.0464(3)
H1B H 0.10580 -0.23770 0.09400
C5B C 0.2692(5) -0.14491(19) 0.0655(3)
H2B H 0.38620 -0.15710 0.12590
C6B C -0.2784(4) -0.09915(18) -0.1965(3)
N1B N 0.2658(4) -0.08153(15) -0.0019(2)
N2B N -0.0733(4) -0.17797(16) -0.0380(3)
O1B O 0.2658(3) 0.04904(13) -0.1309(2)
O2B O -0.0465(4) 0.02430(15) -0.2466(2)
O3B O -0.2919(3) -0.13115(14) -0.3028(2)
O4B O -0.4175(3) -0.06151(14) -0.1620(2)
O4* O 0.4175(3) 0.06151(14) 0.1620(2)
O4B* O 0.5825(3) -0.06151(14) -0.1620(2)
Zn1* Zn -0.50000 0.00000 0.00000
Zn1** Zn 1.50000 0.00000 0.00000
C7B C 0.3040(6) -0.0040(2) -0.4592(4)
H3B H 0.20840 0.01530 -0.53280
H4B H 0.22560 -0.01680 -0.39430
C8B C 0.5377(6) -0.0559(2) -0.5901(3)
H5B H 0.60690 -0.10200 -0.60960
H6B H 0.44960 -0.03800 -0.66770
N3B N 0.4098(5) -0.07309(18) -0.4947(3)
H7B H 0.31440 -0.10840 -0.52630
H8B H 0.49080 -0.09270 -0.42480
#END
