
#######################################################################
#
#                 Cambridge Crystallographic Data Centre
#                                CCDC
#
#######################################################################
#
# If this CIF has been generated from an entry in the Cambridge
# Structural Database, then it will include bibliographic, chemical,
# crystal, experimental, refinement or atomic coordinate data resulting
# from the CCDC's data processing and validation procedures.
#
#######################################################################

data_CSD_CIF_KARGER
_audit_creation_date 2012-03-13
_audit_creation_method CSD-ConQuest-V1
_database_code_CSD KARGER
_database_code_depnum_ccdc_archive 'CCDC 748370'
_chemical_formula_sum 'C16 H28 N6 O14 Zn1'
_chemical_formula_moiety
;
(C12 H4 N4 O8 Zn1 2-)n,n(C4 H12 N2 2+),6n(H2 O1)
;
_journal_coden_Cambridge 908
_journal_volume 8
_journal_year 2011
_journal_page_first 762
_journal_name_full 'J.Iran.Chem.Soc. '
loop_
_publ_author_name
"H.Eshtiagh-Hosseini"
"H.Aghabozorg"
"M.Shamsipur"
"M.Mirzaei"
"M.Ghanbari"
_chemical_name_systematic
;
catena-(Piperazinedi-ium bis(\m~2~-pyrazine-2,3-dicarboxylato)-zinc(ii) 
hexahydrate)
;
_cell_volume   1199.355
_exptl_crystal_colour 'colorless'
_exptl_crystal_density_diffrn 1.644
_exptl_crystal_description 'prism'
_diffrn_ambient_temperature 120
#These two values have been output from a single CSD field.
_refine_ls_R_factor_gt 0.0354
_refine_ls_wR_factor_gt 0.0354
_symmetry_cell_setting monoclinic
_symmetry_space_group_name_H-M 'P 21/n'
_symmetry_Int_Tables_number 14
loop_
_symmetry_equiv_pos_site_id
_symmetry_equiv_pos_as_xyz
1 x,y,z
2 1/2-x,1/2+y,1/2-z
3 -x,-y,-z
4 -1/2+x,-1/2-y,-1/2+z
_cell_length_a 6.5318(16)
_cell_length_b 17.492(4)
_cell_length_c 10.688(3)
_cell_angle_alpha 90
_cell_angle_beta 100.841(4)
_cell_angle_gamma 90
_cell_formula_units_Z 2
loop_
_atom_type_symbol
_atom_type_radius_bond
C 0.68
H 0.23
N 0.68
O 0.68
Zn 1.22
loop_
_atom_site_label
_atom_site_type_symbol
_atom_site_fract_x
_atom_site_fract_y
_atom_site_fract_z
Zn1 Zn 0.50000 0.00000 0.50000
O1 O 0.2637(2) -0.05009(8) 0.37102(13)
O2 O -0.0489(2) -0.02422(9) 0.25237(14)
O3 O -0.2974(2) 0.13226(9) 0.19599(14)
O4 O -0.4227(2) 0.06057(9) 0.33735(14)
N1 N 0.2633(3) 0.08175(10) 0.49910(16)
C1 C 0.0916(3) 0.06432(11) 0.41304(18)
C2 C -0.0806(3) 0.11310(12) 0.39556(19)
N2 N -0.0771(3) 0.17909(10) 0.46055(17)
C3 C 0.0948(3) 0.19435(12) 0.5460(2)
H1 H 0.10040 0.24000 0.59470
C4 C 0.2654(3) 0.14582(12) 0.5662(2)
H2 H 0.38480 0.15840 0.62840
C5 C 0.0996(3) -0.00905(11) 0.33778(19)
C6 C -0.2832(3) 0.09904(11) 0.30218(19)
H3 H 0.49300 0.09610 0.06820
H4 H 0.30700 0.10550 -0.03240
N3 N 0.4047(3) 0.07314(11) 0.00370(17)
C7 C 0.5386(3) 0.05634(13) -0.0920(2)
H5 H 0.60880 0.10370 -0.11190
H6 H 0.45090 0.03740 -0.17170
C8 C 0.3005(3) 0.00301(12) 0.0400(2)
H7 H 0.20530 -0.01770 -0.03550
H8 H 0.21680 0.01590 0.10530
O5 O 0.1550(3) 0.19413(9) 0.90928(17)
H9 H 0.04460 0.19620 0.85600
H10 H 0.21670 0.24010 0.91670
O6 O -0.2205(3) 0.18886(10) 0.76799(16)
H11 H -0.22490 0.14890 0.71340
H12 H -0.27820 0.22690 0.72800
O7 O 0.5841(3) 0.31525(11) 0.65378(18)
H13 H 0.46320 0.33400 0.66210
H14 H 0.56240 0.31610 0.56820
Zn1* Zn -0.50000 0.00000 0.50000
Zn1** Zn 1.50000 0.00000 0.50000
O1* O 1.2637(2) -0.05009(8) 0.37102(13)
O1B O 0.7363(2) 0.05009(8) 0.62898(13)
O2* O 0.9511(2) -0.02422(9) 0.25237(14)
O3* O 0.7026(2) 0.13226(9) 0.19599(14)
O4* O 0.5773(2) 0.06057(9) 0.33735(14)
O4B O 0.4227(2) -0.06057(9) 0.66265(14)
N1* N 1.2633(3) 0.08175(10) 0.49910(16)
N1B N 0.7367(3) -0.08175(10) 0.50090(16)
C1* C 1.0916(3) 0.06432(11) 0.41304(18)
C2* C 0.9194(3) 0.11310(12) 0.39556(19)
N2* N 0.9229(3) 0.17909(10) 0.46055(17)
C3* C 1.0948(3) 0.19435(12) 0.5460(2)
H1* H 1.10040 0.24000 0.59470
C4* C 1.2654(3) 0.14582(12) 0.5662(2)
H2* H 1.38480 0.15840 0.62840
C5* C 1.0996(3) -0.00905(11) 0.33778(19)
C6* C 0.7168(3) 0.09904(11) 0.30218(19)
H3B H 0.50700 -0.09610 -0.06820
H4B H 0.69300 -0.10550 0.03240
N3B N 0.5953(3) -0.07314(11) -0.00370(17)
C7B C 0.4614(3) -0.05634(13) 0.0920(2)
H5B H 0.39120 -0.10370 0.11190
H6B H 0.54910 -0.03740 0.17170
C8B C 0.6995(3) -0.00301(12) -0.0400(2)
H7B H 0.79470 0.01770 0.03550
H8B H 0.78320 -0.01590 -0.10530
#END
