
#######################################################################
#
#                 Cambridge Crystallographic Data Centre
#                                CCDC
#
#######################################################################
#
# If this CIF has been generated from an entry in the Cambridge
# Structural Database, then it will include bibliographic, chemical,
# crystal, experimental, refinement or atomic coordinate data resulting
# from the CCDC's data processing and validation procedures.
#
#######################################################################

data_CSD_CIF_KASDOA
_audit_creation_date 2017-03-09
_audit_creation_method CSD-ConQuest-V1
_database_code_CSD KASDOA
_database_code_depnum_ccdc_archive 'CCDC 1476574'
_chemical_formula_sum 'C82 H82 N16 O30 Zn6'
_chemical_formula_moiety
;
(C74 H38 N12 O24 Zn6 4-)n,4n(C2 H8 N1 1+),6n(H2 O1)
;
_journal_coden_Cambridge 9
_journal_volume 56
_journal_year 2017
_journal_page_first 2690
_journal_name_full 'Inorg.Chem. '
loop_
_publ_author_name
"Xiao-Xia Jia"
"Ru-Xin Yao"
"Fu-Qiang Zhang"
"Xian-Ming Zhang"
_chemical_name_systematic
;
catena-(tetrakis(dimethylammonium) 
tris(\m-terphenyl-2,5,2',5'-tetracarboxylato)-tetrakis(\m-1,2,4-triazolato)-he
xa-zinc hexahydrate)
;
_cell_volume  14387.125
_exptl_crystal_colour 'colorless'
_exptl_crystal_description 'prism'
_diffrn_ambient_temperature 293
_refine_special_details
;
The SQUEEZE/PLATON program was used to model the cations and water molecules.

;
#These two values have been output from a single CSD field.
_refine_ls_R_factor_gt 0.048
_refine_ls_wR_factor_gt 0.048
_symmetry_cell_setting tetragonal
_symmetry_space_group_name_H-M 'P -4 21 m'
_symmetry_Int_Tables_number 113
loop_
_symmetry_equiv_pos_site_id
_symmetry_equiv_pos_as_xyz
1 x,y,z
2 y,-x,-z
3 -x,-y,z
4 -y,x,-z
5 1/2+x,1/2-y,-z
6 1/2-x,1/2+y,-z
7 1/2-y,1/2-x,z
8 1/2+y,1/2+x,z
_cell_length_a 26.6257(4)
_cell_length_b 26.6257(4)
_cell_length_c 20.2942(6)
_cell_angle_alpha 90
_cell_angle_beta 90
_cell_angle_gamma 90
_cell_formula_units_Z 4
loop_
_atom_type_symbol
_atom_type_radius_bond
C 0.68
H 0.23
N 0.68
O 0.68
Zn 1.22
loop_
_atom_site_label
_atom_site_type_symbol
_atom_site_fract_x
_atom_site_fract_y
_atom_site_fract_z
Zn1 Zn 0.31151(2) 0.28915(2) 0.17089(3)
Zn2 Zn 0.33431(2) 0.16569(2) -0.07553(5)
Zn3 Zn 0.19605(3) 0.30395(3) 0.42489(5)
Zn4 Zn 0.30546(2) 0.29531(2) 0.68567(3)
N1 N 0.31125(17) 0.18875(17) 0.0140(3)
N2 N 0.2173(2) 0.2827(2) 0.5163(3)
N3 N 0.30251(16) 0.23342(15) 0.1035(2)
N4 N 0.26638(17) 0.26974(18) 0.2481(2)
O1 O 0.38836(15) 0.25323(18) -0.0735(2)
N5 N 0.25561(17) 0.28076(17) 0.6117(2)
O2 O 0.37946(14) 0.2834(2) 0.2053(3)
N6 N 0.2276(2) 0.2724(2) 0.3438(3)
O3 O 0.40794(16) 0.17342(18) -0.0877(3)
C1 C 0.3277(2) 0.2268(2) 0.0494(3)
H1 H 0.35460 0.24690 0.03690
C2 C 0.4190(2) 0.2206(3) -0.0871(3)
C3 C 0.2636(2) 0.2920(2) 0.3050(3)
H2 H 0.28430 0.31850 0.31750
C4 C 0.2527(2) 0.3024(2) 0.5539(3)
H3 H 0.27330 0.32880 0.54070
O4 O 0.4045(2) 0.3058(3) 0.1063(3)
C5 C 0.4133(2) 0.2941(3) 0.1647(4)
C6 C 0.4750(2) 0.2852(3) 0.2545(4)
H4 H 0.44760 0.28500 0.28300
C7 C 0.4816(3) 0.2848(3) -0.1153(6)
H5 H 0.45680 0.30900 -0.11030
C8 C 0.4719(3) 0.2350(3) -0.1042(4)
C9 C 0.5310(3) 0.2980(3) -0.1346(6)
H6 H 0.53810 0.33140 -0.14390
C10 C 0.5086(2) 0.1991(2) -0.1098(4)
H7 H 0.50070 0.16570 -0.10180
C11 C 0.4662(3) 0.2892(4) 0.1889(4)
C12 C 0.5583(3) 0.2123(3) -0.1274(4)
C13 C 0.5227(3) 0.2815(4) 0.2812(4)
C14 C 0.5060(3) 0.2907(6) 0.1451(5)
H8 H 0.50100 0.29410 0.10000
C15 C 0.6330(2) 0.1702(2) -0.1807(4)
H9 H 0.620(3) 0.182(3) -0.223(4)
C16 C 0.5971(2) 0.1727(2) -0.1301(4)
C17 C 0.5996(3) 0.1376(3) -0.0796(5)
H10 H 0.57630 0.13870 -0.04550
C18 C 0.5270(3) 0.2783(4) 0.3538(4)
C19 C 0.5486(4) 0.2377(5) 0.4568(5)
H11 H 0.56670 0.21250 0.47800
C20 C 0.5683(3) 0.2636(3) -0.1400(5)
C21 C 0.5630(3) 0.2822(5) 0.2383(5)
O5 O 0.6233(2) 0.3060(3) -0.2160(4)
C22 C 0.6194(3) 0.2845(3) -0.1618(6)
O6 O 0.6531(2) 0.2787(2) -0.1221(4)
C23 C 0.5506(4) 0.2411(5) 0.3858(6)
H12 H 0.56850 0.21720 0.36200
O7 O 0.36946(19) 0.2799(2) 0.6404(3)
O8 O 0.3991(2) 0.2939(3) 0.7398(4)
C24 C 0.5141(3) 0.2637(4) 0.5639(4)
C25 C 0.4051(3) 0.2817(3) 0.6811(5)
C26 C 0.4573(3) 0.2692(4) 0.6547(5)
C27 C 0.5529(3) 0.2518(4) 0.6079(4)
C28 C 0.4668(3) 0.2696(4) 0.5898(4)
H13 H 0.44000 0.27420 0.56090
C29 C 0.5224(3) 0.2684(4) 0.4915(4)
O9 O 0.6326(2) 0.2806(3) 0.5711(4)
C30 C 0.6067(3) 0.2459(4) 0.5867(4)
C31 C 0.4941(3) 0.2576(5) 0.6977(5)
H14 H 0.48720 0.25560 0.74250
C32 C 0.5018(4) 0.3115(6) 0.4590(6)
H15 H 0.48740 0.33710 0.48380
C33 C 0.5417(3) 0.2487(6) 0.6749(5)
H16 H 0.56700 0.24050 0.70460
C34 C 0.5032(5) 0.3151(6) 0.3910(6)
H17 H 0.48810 0.34230 0.37010
C35 C 0.5540(3) 0.2870(7) 0.1720(6)
H18 H 0.58140 0.28770 0.14350
O10 O 0.62334(18) 0.2009(3) 0.5909(3)
O11 O 0.6335(2) 0.3057(3) 0.2967(4)
O12 O 0.6435(4) 0.2385(6) 0.2415(9)
C36 C 0.6172(4) 0.2778(8) 0.2615(6)
N7 N 0.2920(2) 0.24402(18) 0.7559(2)
C37 C 0.3178(3) 0.2372(2) 0.8105(3)
H19 H 0.34480 0.25720 0.82300
N8 N 0.3012(2) 0.1988(2) 0.8456(3)
N3F N 0.26658(16) 0.19749(15) 0.1035(2)
C1F C 0.2732(2) 0.1723(2) 0.0494(3)
H1F H 0.25310 0.14540 0.03690
N5F N 0.21924(17) 0.24439(17) 0.6117(2)
C4F C 0.1976(2) 0.2473(2) 0.5539(3)
H3F H 0.17120 0.22670 0.54070
N4F N 0.23026(17) 0.23362(18) 0.2481(2)
C3F C 0.2080(2) 0.2364(2) 0.3050(3)
H2F H 0.18150 0.21570 0.31750
O1G O 0.75323(15) -0.11164(18) -0.0735(2)
O3G O 0.67342(16) -0.09206(18) -0.0877(3)
C2G C 0.7206(2) -0.0810(3) -0.0871(3)
C7G C 0.7848(3) -0.0184(3) -0.1153(6)
H5G H 0.80900 -0.04320 -0.11030
C8G C 0.7350(3) -0.0281(3) -0.1042(4)
C9G C 0.7980(3) 0.0310(3) -0.1346(6)
H6G H 0.83140 0.03810 -0.14390
C10G C 0.6991(2) 0.0086(2) -0.1098(4)
H7G H 0.66570 0.00070 -0.10180
C12G C 0.7123(3) 0.0583(3) -0.1274(4)
C15G C 0.6702(2) 0.1330(2) -0.1807(4)
H9G H 0.682(3) 0.120(3) -0.223(4)
C16G C 0.6727(2) 0.0971(2) -0.1301(4)
C17G C 0.6376(3) 0.0996(3) -0.0796(5)
H10G H 0.63870 0.07630 -0.04550
C20G C 0.7636(3) 0.0683(3) -0.1400(5)
O5G O 0.8060(2) 0.1233(3) -0.2160(4)
C22G C 0.7845(3) 0.1194(3) -0.1618(6)
O6G O 0.7787(2) 0.1531(2) -0.1221(4)
N7F N 0.25598(20) 0.20800(18) 0.7559(2)
C37F C 0.2628(3) 0.1822(2) 0.8105(3)
H19F H 0.24280 0.15520 0.82300
Zn1A Zn 0.28915(2) 0.68849(2) 0.82911(3)
Zn4A Zn 0.29531(2) 0.69454(2) 0.31433(3)
O2A O 0.28340(14) 0.62054(20) 0.7947(3)
O4A O 0.3058(2) 0.5955(3) 0.8937(3)
C5A C 0.2941(2) 0.5867(3) 0.8353(4)
C6A C 0.2852(2) 0.5250(3) 0.7455(4)
H4A H 0.28500 0.55240 0.71700
C11A C 0.2892(3) 0.5338(4) 0.8111(4)
C13A C 0.2815(3) 0.4773(4) 0.7188(4)
C14A C 0.2907(3) 0.4940(6) 0.8549(5)
H8A H 0.29410 0.49900 0.90000
C18A C 0.2783(3) 0.4730(4) 0.6462(4)
C19A C 0.2377(4) 0.4514(5) 0.5432(5)
H11A H 0.21250 0.43330 0.52200
C21A C 0.2822(3) 0.4370(5) 0.7617(5)
C23A C 0.2411(4) 0.4494(5) 0.6142(6)
H12A H 0.21720 0.43150 0.63800
O7A O 0.27990(19) 0.63054(20) 0.3596(3)
O8A O 0.2939(2) 0.6009(3) 0.2602(4)
C24A C 0.2637(3) 0.4859(4) 0.4361(4)
C25A C 0.2817(3) 0.5949(3) 0.3189(5)
C26A C 0.2692(3) 0.5427(4) 0.3453(5)
C27A C 0.2518(3) 0.4471(4) 0.3921(4)
C28A C 0.2696(3) 0.5332(4) 0.4102(4)
H13A H 0.27420 0.56000 0.43910
C29A C 0.2684(3) 0.4776(4) 0.5085(4)
O9A O 0.2806(2) 0.3674(3) 0.4289(4)
C30A C 0.2459(3) 0.3933(4) 0.4133(4)
C31A C 0.2576(3) 0.5059(5) 0.3023(5)
H14A H 0.25560 0.51280 0.25750
C32A C 0.3115(4) 0.4982(6) 0.5410(6)
H15A H 0.33710 0.51260 0.51620
C33A C 0.2487(3) 0.4583(6) 0.3251(5)
H16A H 0.24050 0.43300 0.29540
C34A C 0.3151(5) 0.4968(6) 0.6090(6)
H17A H 0.34230 0.51190 0.62990
C35A C 0.2870(3) 0.4460(7) 0.8280(6)
H18A H 0.28770 0.41860 0.85650
O10A O 0.20090(18) 0.37666(30) 0.4091(3)
O11A O 0.3057(2) 0.3665(3) 0.7033(4)
O12A O 0.2385(4) 0.3565(6) 0.7585(9)
C36A C 0.2778(4) 0.3828(8) 0.7385(6)
Zn1C Zn 0.71085(2) 0.31151(2) -0.17089(3)
Zn1D Zn 0.81151(2) 0.21085(2) -0.17089(3)
Zn1F Zn 0.21085(2) 0.18849(2) 0.17089(3)
Zn2* Zn 0.33431(2) 0.16569(2) 0.92447(5)
Zn2B Zn 0.66569(2) -0.16569(2) -0.07553(5)
Zn3C Zn 0.69605(3) 0.19605(3) 0.57511(5)
Zn4C Zn 0.70469(2) 0.30546(2) 0.31433(3)
Zn4F Zn 0.20469(2) 0.19454(2) 0.68567(3)
N3A N 0.23342(16) 0.69749(15) 0.8965(2)
N4A N 0.26974(17) 0.73362(18) 0.7519(2)
N5A N 0.28076(17) 0.74439(17) 0.3883(2)
O3F O 0.32658(16) 0.09206(18) -0.0877(3)
O5A O 0.3060(2) 0.3767(3) 0.2160(4)
O5B O 0.3767(2) 0.6940(3) 0.7840(4)
O6A O 0.2787(2) 0.3469(2) 0.1221(4)
O6B O 0.3469(2) 0.7213(2) 0.8779(4)
O10D O 0.12334(18) 0.2991(3) 0.4091(3)
O11B O 0.3665(2) 0.6943(3) 0.2967(4)
N7A N 0.24402(20) 0.70800(18) 0.2441(2)
N8* N 0.3012(2) 0.1988(2) -0.1544(3)
#END
