
#######################################################################
#
#                 Cambridge Crystallographic Data Centre
#                                CCDC
#
#######################################################################
#
# If this CIF has been generated from an entry in the Cambridge
# Structural Database, then it will include bibliographic, chemical,
# crystal, experimental, refinement or atomic coordinate data resulting
# from the CCDC's data processing and validation procedures.
#
#######################################################################

data_CSD_CIF_KATTOR
_audit_creation_date 2017-03-09
_audit_creation_method CSD-ConQuest-V1
_database_code_CSD KATTOR
_database_code_depnum_ccdc_archive 'CCDC 1489345'
_chemical_formula_sum 'C70 H106 Li2 N8 O36 Zn2'
_chemical_formula_moiety
;
(C40 H16 Li2 O18 Zn2 2-)n,2(C4 H8 O2),6(C3 H7 N1 O1),2(C2 H8 N1 1+),8(H2 O1)
;
_journal_coden_Cambridge 9
_journal_volume 56
_journal_year 2017
_journal_page_first 705
_journal_name_full 'Inorg.Chem. '
loop_
_publ_author_name
"Yong-Liang Huang"
"Di-Chang Zhong"
"Long Jiang"
"Yun-Nan Gong"
"Tong-Bu Lu"
_chemical_name_systematic
;
catena-[bis(dimethylammonium) 
bis(\m-pyrene-1,3,6,8-tetracarboxylato)-diaqua-di-lithium-di-zinc 
N,N-dimethylformamide 1,4-dioxane solvate octahydrate]
;
_cell_volume   3087.386
_exptl_crystal_colour 'colorless'
_exptl_crystal_density_diffrn 1.915
_exptl_crystal_description 'block'
_diffrn_ambient_temperature 150
_refine_special_details
;
C27,C28,C29,N2,O11 and C27',C28',C29',N2',O11' disordered over two sites with 
occupancies 0.707:0.293; The SQUEEZE/PLATON program has been used to model 
some disorder.
;
#These two values have been output from a single CSD field.
_refine_ls_R_factor_gt 0.0578
_refine_ls_wR_factor_gt 0.0578
_symmetry_cell_setting monoclinic
_symmetry_space_group_name_H-M 'P 21/c'
_symmetry_Int_Tables_number 14
loop_
_symmetry_equiv_pos_site_id
_symmetry_equiv_pos_as_xyz
1 x,y,z
2 -x,1/2+y,1/2-z
3 -x,-y,-z
4 x,-1/2-y,-1/2+z
_cell_length_a 9.7373(3)
_cell_length_b 15.1542(5)
_cell_length_c 21.1695(6)
_cell_angle_alpha 90
_cell_angle_beta 98.756(3)
_cell_angle_gamma 90
_cell_formula_units_Z 2
loop_
_atom_type_symbol
_atom_type_radius_bond
C 0.68
H 0.23
Li 1.28
N 0.68
O 0.68
Zn 1.22
loop_
_atom_site_label
_atom_site_type_symbol
_atom_site_fract_x
_atom_site_fract_y
_atom_site_fract_z
C1 C 0.4211(4) 0.3361(3) 0.16326(18)
C2 C 0.4546(4) 0.4176(3) 0.12806(18)
C3 C 0.4657(4) 0.4964(3) 0.16237(18)
H1 H 0.45100 0.49590 0.20570
C4 C 0.4975(4) 0.5750(3) 0.13529(18)
C5 C 0.5209(4) 0.6535(3) 0.17922(17)
C6 C 0.5106(4) 0.5784(3) 0.06966(18)
C7 C 0.5317(4) 0.6599(3) 0.03791(18)
H2 H 0.53960 0.71330 0.06170
C8 C 0.4595(4) 0.3381(3) 0.02519(19)
H3 H 0.44550 0.28310 0.04480
C9 C 0.4707(4) 0.4170(3) 0.06330(18)
C10 C 0.4953(4) 0.4989(3) 0.03368(18)
C11 C 0.1835(4) 0.3956(3) 0.33693(17)
C12 C 0.0882(4) 0.4523(3) 0.37031(18)
C13 C -0.0005(4) 0.5109(3) 0.33382(18)
H4 H -0.00020 0.51430 0.28900
C14 C -0.0900(4) 0.5647(3) 0.36198(19)
C15 C -0.1913(4) 0.6225(3) 0.31969(18)
C16 C 0.0907(4) 0.4470(3) 0.43682(18)
C17 C 0.1801(4) 0.3869(3) 0.47667(19)
H5 H 0.24020 0.34910 0.45770
C18 C -0.1805(4) 0.6170(3) 0.45954(19)
H6 H -0.24130 0.65710 0.43470
C19 C -0.0910(4) 0.5618(3) 0.42841(19)
C20 C -0.0005(4) 0.5024(3) 0.46602(18)
O1 O 0.4745(4) 0.2645(2) 0.15306(14)
O2 O 0.3380(3) 0.3500(2) 0.20304(14)
O3 O 0.4449(3) 0.66354(19) 0.22018(13)
O4 O 0.6247(3) 0.70151(19) 0.17183(13)
O5 O 0.1249(3) 0.33653(19) 0.29950(13)
O6 O 0.3094(3) 0.4095(2) 0.34633(15)
O7 O -0.3150(3) 0.6031(2) 0.31298(15)
O8 O -0.1399(3) 0.6877(2) 0.29282(14)
O9 O 0.6126(4) 0.0854(2) 0.14096(16)
H7 H 0.65420 0.11060 0.11340
H8 H 0.63470 0.03110 0.14360
Li1 Li 0.4965(7) 0.1503(4) 0.1891(3)
Zn1 Zn 0.26933(5) 0.27103(3) 0.26169(2)
C21 C 0.1863(7) 0.7557(7) 0.2745(4)
H9 H 0.13420 0.79390 0.24190
H10 H 0.18690 0.69530 0.25810
H11 H 0.28190 0.77720 0.28490
C22 C 0.1063(14) 0.8475(7) 0.3534(6)
H12 H 0.19580 0.86840 0.37590
H13 H 0.03710 0.84890 0.38250
H14 H 0.07590 0.88590 0.31670
N1 N 0.1213(6) 0.7568(4) 0.3310(3)
H15 H 0.17410 0.72470 0.36270
H16 H 0.03510 0.73080 0.32240
C23 C -0.0856(11) 0.6166(7) 0.1315(5)
H17 H -0.18120 0.61280 0.14180
H18 H -0.04470 0.67280 0.14940
C24 C -0.0062(6) 0.5453(5) 0.1619(3)
H19 H 0.00260 0.55280 0.20880
H20 H -0.05670 0.48950 0.15060
C25 C 0.1176(9) 0.5398(6) 0.0766(4)
H21 H 0.07040 0.48530 0.05890
H22 H 0.21270 0.53970 0.06550
C26 C 0.0416(7) 0.6171(5) 0.0471(4)
H23 H 0.09210 0.67180 0.06170
H24 H 0.03430 0.61370 0.00000
O10 O -0.0922(9) 0.6185(6) 0.0647(4)
O11 O 0.1262(8) 0.5389(6) 0.1450(4)
N2 N 0.7042(7) 0.1474(4) 0.9511(3)
O12 O 0.7526(5) 0.1747(3) 1.0573(2)
C27 C 0.7744(7) 0.1866(5) 1.0022(3)
H25 H 0.84640 0.22640 0.99580
C28 C 0.5919(9) 0.0841(6) 0.9564(4)
H26 H 0.57980 0.07830 1.00140
H27 H 0.61590 0.02650 0.94010
H28 H 0.50520 0.10530 0.93140
C29 C 0.7342(10) 0.1639(7) 0.8860(3)
H29 H 0.80990 0.20690 0.88770
H30 H 0.65090 0.18720 0.85940
H31 H 0.76190 0.10850 0.86750
N3? N 0.6822(15) 0.1445(9) 0.9142(6)
O13? O 0.6533(14) 0.1351(9) 1.0176(5)
C30? C 0.6297(19) 0.1088(11) 0.9626(6)
H32? H 0.56970 0.05950 0.95370
C31? C 0.7818(19) 0.2199(11) 0.9243(7)
H33? H 0.79640 0.23660 0.96960
H34? H 0.74380 0.27020 0.89830
H35? H 0.87060 0.20220 0.91180
C32? C 0.651(2) 0.1121(12) 0.8481(6)
H36? H 0.58460 0.06300 0.84620
H37? H 0.73650 0.09180 0.83390
H38? H 0.60990 0.15990 0.82020
C1B C 0.5789(4) 0.6639(3) -0.16326(18)
C2B C 0.5454(4) 0.5824(3) -0.12806(18)
C3B C 0.5343(4) 0.5036(3) -0.16237(18)
H1B H 0.54900 0.50410 -0.20570
C4B C 0.5025(4) 0.4250(3) -0.13529(18)
C5B C 0.4791(4) 0.3465(3) -0.17922(17)
C6B C 0.4894(4) 0.4216(3) -0.06966(18)
C7B C 0.4683(4) 0.3401(3) -0.03791(18)
H2B H 0.46040 0.28670 -0.06170
C8B C 0.5405(4) 0.6619(3) -0.02519(19)
H3B H 0.55450 0.71690 -0.04480
C9B C 0.5293(4) 0.5830(3) -0.06330(18)
C10B C 0.5047(4) 0.5011(3) -0.03368(18)
O1B O 0.5255(4) 0.7355(2) -0.15306(14)
O2B O 0.6620(3) 0.6500(2) -0.20304(14)
O3B O 0.5551(3) 0.33646(19) -0.22018(13)
O4B O 0.3753(3) 0.29849(19) -0.17183(13)
C11B C -0.1835(4) 0.6044(3) 0.66307(17)
C12B C -0.0882(4) 0.5477(3) 0.62969(18)
C13B C 0.0005(4) 0.4891(3) 0.66618(18)
H4B H 0.00020 0.48570 0.71100
C14B C 0.0900(4) 0.4353(3) 0.63802(19)
C15B C 0.1913(4) 0.3775(3) 0.68031(18)
C16B C -0.0907(4) 0.5530(3) 0.56318(18)
C17B C -0.1801(4) 0.6131(3) 0.52333(19)
H5B H -0.24020 0.65090 0.54230
C18B C 0.1805(4) 0.3830(3) 0.54046(19)
H6B H 0.24130 0.34290 0.56530
C19B C 0.0910(4) 0.4382(3) 0.57159(19)
C20B C 0.0005(4) 0.4976(3) 0.53398(18)
O5B O -0.1249(3) 0.66347(19) 0.70050(13)
O6B O -0.3094(3) 0.5905(2) 0.65367(15)
O7B O 0.3150(3) 0.3969(2) 0.68702(15)
O8B O 0.1399(3) 0.3123(2) 0.70718(14)
Zn1B Zn -0.26933(5) 0.72897(3) 0.73831(2)
O9A O 0.3874(4) 0.5854(2) 0.35904(16)
H7A H 0.34580 0.61060 0.38660
H8A H 0.36530 0.53110 0.35640
Li1A Li 0.5035(7) 0.6503(4) 0.3109(3)
O1A O 0.5255(4) 0.7645(2) 0.34694(14)
O2B* O -0.3380(3) 0.6500(2) 0.79696(14)
O3A O 0.5551(3) 0.16354(19) 0.27982(13)
O4A O 0.3753(3) 0.20151(19) 0.32817(13)
O4C O -0.3753(3) 0.79849(19) 0.67183(13)
O7* O 0.6850(3) 0.6031(2) 0.31298(15)
O7A O 0.3150(3) 0.1031(2) 0.18702(15)
O8A O 0.1399(3) 0.1877(2) 0.20718(14)
O8C O -0.1399(3) 0.8123(2) 0.79282(14)
Li1A* Li -0.4965(7) 0.6503(4) 0.3109(3)
Li1B Li 0.5035(7) 0.8497(4) -0.1891(3)
Li1C Li 0.4965(7) 0.3497(4) -0.3109(3)
Li1C* Li 0.4965(7) 0.3497(4) 0.6891(3)
Zn1A Zn -0.26933(5) 0.77103(3) 0.23831(2)
Zn1A* Zn 0.73067(5) 0.77103(3) 0.23831(2)
Zn1B* Zn 0.73067(5) 0.72897(3) -0.26169(2)
Zn1C Zn 0.26933(5) 0.22897(3) -0.23831(2)
Zn1C* Zn 0.26933(5) 0.22897(3) 0.76169(2)
#END
