
#######################################################################
#
#                 Cambridge Crystallographic Data Centre
#                                CCDC
#
#######################################################################
#
# If this CIF has been generated from an entry in the Cambridge
# Structural Database, then it will include bibliographic, chemical,
# crystal, experimental, refinement or atomic coordinate data resulting
# from the CCDC's data processing and validation procedures.
#
#######################################################################

data_CSD_CIF_KAVXUC
_audit_creation_date 2012-03-13
_audit_creation_method CSD-ConQuest-V1
_database_code_CSD KAVXUC
_database_code_depnum_ccdc_archive 'CCDC 795843'
_chemical_formula_sum 'C56 H64 Cu3 Mo12 N16 O44 P1'
_chemical_formula_moiety
;
(C14 H14 Cu1 N4 1+)n,n(C28 H28 Cu2 N8 2+),4n(H2 O1),n(C14 H14 N4),n(Mo12 O40 
P1 3-)
;
_journal_coden_Cambridge 1350
_journal_volume 13
_journal_year 2011
_journal_page_first 2687
_journal_name_full 'CrystEngComm '
loop_
_publ_author_name
"Yan Ding"
"Jing-Xin Meng"
"Wei-Lin Chen"
"En-Bo Wang"
_chemical_name_systematic
;
catena-(bis(\m~2~-1,1'-(1,4-phenylenebis(methylene))bis(1H-imidazole))-di-copp
er(i) (\m~2~-1,1'-(1,4-phenylenebis(methylene))bis(1H-imidazole))-copper(i) 
(\m~12~-phosphato)-tetracosakis(\m~2~-oxo)-dodecaoxo-dodeca-molybdenum 
1,1'-(1,4-phenylenebis(methylene))bis(1H-imidazole) tetrahydrate)
;
_cell_volume   2071.155
_exptl_crystal_colour 'black'
_exptl_crystal_density_diffrn 2.436
_exptl_crystal_description 'block'
_diffrn_ambient_temperature 150
_refine_special_details
;
O1,O2,O20,O21 disordered by symmetry over two sites with occupancy 0.50.

;
#These two values have been output from a single CSD field.
_refine_ls_R_factor_gt 0.0657
_refine_ls_wR_factor_gt 0.0657
_symmetry_cell_setting triclinic
_symmetry_space_group_name_H-M 'P -1'
_symmetry_Int_Tables_number 2
loop_
_symmetry_equiv_pos_site_id
_symmetry_equiv_pos_as_xyz
1 x,y,z
2 -x,-y,-z
_cell_length_a 13.280(3)
_cell_length_b 13.476(3)
_cell_length_c 14.623(3)
_cell_angle_alpha 109.29(3)
_cell_angle_beta 116.85(3)
_cell_angle_gamma 97.96(3)
_cell_formula_units_Z 1
loop_
_atom_type_symbol
_atom_type_radius_bond
C 0.68
H 0.23
Cu 1.32
Mo 1.36
N 0.68
O 0.68
P 1.05
loop_
_atom_site_label
_atom_site_type_symbol
_atom_site_fract_x
_atom_site_fract_y
_atom_site_fract_z
Mo1 Mo 0.60332(9) -0.15122(8) -0.16808(8)
Mo2 Mo 0.29372(9) -0.22874(8) -0.26916(8)
Mo3 Mo 0.43956(9) 0.02269(9) -0.25249(8)
Mo4 Mo 0.81160(8) 0.06024(8) 0.11290(8)
Mo5 Mo 0.36330(9) 0.19323(9) -0.06954(9)
Mo6 Mo 0.66867(9) 0.24174(8) 0.01808(9)
Cu1 Cu 0.50000 0.50000 1.00000
Cu2 Cu 1.39604(14) 1.07013(12) 1.40820(13)
P1 P 0.50000 0.00000 0.00000
O1 O 0.5187(9) 0.272(1) -0.0083(9)
O2 O 0.5991(11) -0.0476(11) 0.0009(11)
O3 O 0.4950(11) 0.0829(11) -0.0559(11)
O4 O 0.3571(8) 0.1057(10) -0.2080(9)
O5 O 0.5849(9) 0.1526(10) -0.1376(10)
O6 O 0.3221(8) -0.1109(9) -0.3105(10)
O7 O 0.1854(11) -0.1600(9) -0.2385(9)
O8 O 0.5524(7) -0.0591(8) -0.2369(9)
O9 O 0.7785(10) -0.0596(7) 0.1359(7)
O10 O 0.6216(9) -0.2238(7) -0.0708(7)
O11 O 0.1959(8) -0.3355(7) -0.3958(8)
O12 O 0.2956(12) -0.2930(9) -0.1751(10)
O13 O 0.6503(9) -0.2222(7) -0.2463(9)
O14 O 0.7432(10) -0.0362(8) -0.0467(7)
O15 O 0.7792(11) 0.1715(10) 0.0514(9)
O16 O 0.7440(8) 0.3586(6) 0.0292(7)
O17 O 0.4369(7) -0.2438(9) -0.2505(10)
O18 O 0.4134(7) 0.0343(7) -0.3694(7)
O19 O 0.9561(7) 0.0915(9) 0.1606(7)
O20 O 0.2924(8) 0.2777(7) -0.1069(7)
O21 O 0.4695(11) -0.0672(10) -0.1223(11)
O22 O 0.6220(12) 0.0939(11) 0.0746(11)
O23 O -0.0050(9) 0.6326(8) 0.6825(8)
O24 O -0.1795(10) -0.2523(9) -0.3217(10)
N1 N 1.0630(8) 0.8761(8) 1.1373(8)
N2 N 1.2399(9) 0.9666(8) 1.2986(8)
N3 N 0.5459(8) 0.1807(8) 0.5246(8)
N4 N 0.7133(9) 0.2873(8) 0.6909(8)
N5 N 0.3866(8) 0.4452(8) 0.6770(7)
N6 N 0.4590(8) 0.4539(8) 0.8483(8)
C1 C 0.7241(11) 0.3084(11) 0.6086(11)
H1 H 0.78910 0.35930 0.62070
C2 C 0.7823(10) 0.5239(10) 0.8988(10)
H2 H 0.71280 0.48460 0.89020
C3 C 0.9497(11) 0.5267(10) 0.8797(10)
H3 H 0.99490 0.48900 0.85850
C4 C 0.8030(11) 0.3403(10) 0.8143(10)
H4 H 0.87130 0.31540 0.82750
H5 H 0.76850 0.31670 0.85290
C5 C 1.1558(11) 0.9285(11) 1.3219(11)
H6 H 1.17180 0.94070 1.39430
C6 C 0.9879(10) 0.6417(10) 0.9257(10)
H7 H 1.05700 0.68040 0.93310
C7 C 1.0479(12) 0.8713(11) 1.2244(11)
H8 H 0.97720 0.83570 1.21650
C8 C 1.1791(11) 0.9329(9) 1.1855(10)
H9 H 1.21300 0.94700 1.14570
C9 C 0.6216(12) 0.2405(11) 0.5076(12)
H10 H 0.60510 0.23530 0.43690
C10 C 0.8454(9) 0.4660(9) 0.8644(9)
C11 C 0.8194(12) 0.6405(11) 0.9464(11)
H11 H 0.77500 0.67880 0.96850
C12 C 0.6037(10) 0.2108(9) 0.6361(10)
H12 H 0.57260 0.18270 0.67170
C13 C 0.4073(10) 0.3472(10) 0.6706(10)
H13 H 0.39400 0.28850 0.60610
C14 C 0.4225(10) 0.5086(10) 0.7864(10)
H14 H 0.42180 0.58110 0.81450
C15 C 0.4505(11) 0.3518(10) 0.7750(11)
H15 H 0.47140 0.29570 0.79510
C16 C 0.5459(12) 0.5124(12) 0.6101(10)
H16 H 0.57820 0.52230 0.68510
C17 C 0.3407(12) 0.4774(11) 0.5831(11)
H17 H 0.26360 0.42150 0.51980
H18 H 0.32820 0.54810 0.60880
C18 C 0.3802(12) 0.4782(11) 0.4309(10)
H19 H 0.29880 0.46480 0.38420
C19 C 0.4254(11) 0.4885(9) 0.5418(9)
N7 N -0.0939(9) -0.3005(8) -0.5784(8)
C20 C -0.0827(10) -0.4557(10) -0.6689(12)
H20 H -0.06450 -0.52120 -0.68430
N8 N -0.1422(14) -0.4187(12) -0.7474(14)
C21 C -0.0554(11) -0.3842(11) -0.5688(12)
H21 H -0.01520 -0.39090 -0.50120
C22 C -0.1492(11) -0.3207(10) -0.6901(10)
H22 H -0.18500 -0.27580 -0.72120
C23 C -0.0796(12) -0.2014(10) -0.4842(10)
H23 H -0.15550 -0.20930 -0.48830
H24 H -0.02090 -0.19670 -0.41120
C24 C -0.1204(11) -0.0566(10) -0.5559(11)
H25 H -0.20220 -0.09400 -0.59260
C25 C 0.0834(11) -0.037(1) -0.4329(10)
H26 H 0.13950 -0.06050 -0.38670
C26 C -0.0396(10) -0.0963(9) -0.4919(9)
C27 C 0.9681(11) 0.8256(10) 1.0145(11)
H27 H 0.99880 0.85180 0.97460
H28 H 0.90040 0.85010 1.00610
C28 C 0.9256(10) 0.6987(10) 0.9600(9)
Mo1A Mo 0.39668(9) 0.15122(8) 0.16808(8)
Mo2A Mo 0.70628(9) 0.22874(8) 0.26916(8)
Mo3A Mo 0.56044(9) -0.02269(9) 0.25249(8)
Mo4A Mo 0.18840(8) -0.06024(8) -0.11290(8)
Mo5A Mo 0.63670(9) -0.19323(9) 0.06954(9)
Mo6A Mo 0.33133(9) -0.24174(8) -0.01808(9)
Cu1* Cu 0.50000 0.50000 0.00000
Cu2* Cu 0.39604(14) 0.07013(12) 0.40820(13)
O1A O 0.4813(9) -0.272(1) 0.0083(9)
O2A O 0.4009(11) 0.0476(11) -0.0009(11)
O3A O 0.5050(11) -0.0829(11) 0.0559(11)
O4A O 0.6429(8) -0.1057(10) 0.2080(9)
O5A O 0.4151(9) -0.1526(10) 0.1376(10)
O6A O 0.6779(8) 0.1109(9) 0.3105(10)
O7A O 0.8146(11) 0.1600(9) 0.2385(9)
O8A O 0.4476(7) 0.0591(8) 0.2369(9)
O9A O 0.2215(10) 0.0596(7) -0.1359(7)
O10A O 0.3784(9) 0.2238(7) 0.0708(7)
O11A O 0.8041(8) 0.3355(7) 0.3958(8)
O12A O 0.7044(12) 0.2930(9) 0.1751(10)
O13A O 0.3497(9) 0.2222(7) 0.2463(9)
O14A O 0.2568(10) 0.0362(8) 0.0467(7)
O15A O 0.2208(11) -0.1715(10) -0.0514(9)
O16A O 0.2560(8) -0.3586(6) -0.0292(7)
O17A O 0.5631(7) 0.2438(9) 0.2505(10)
O18A O 0.5866(7) -0.0343(7) 0.3694(7)
O19A O 0.0439(7) -0.0915(9) -0.1606(7)
O20A O 0.7076(8) -0.2777(7) 0.1069(7)
O21A O 0.5305(11) 0.0672(10) 0.1223(11)
O22A O 0.3780(12) -0.0939(11) -0.0746(11)
N3* N 1.5459(8) 1.1807(8) 1.5246(8)
N5A N 0.6134(8) 0.5548(8) 0.3230(7)
N6A N 0.5410(8) 0.5461(8) 0.1517(8)
N6A* N 0.5410(8) 0.5461(8) 1.1517(8)
C13A C 0.5927(10) 0.6528(10) 0.3294(10)
H13A H 0.60600 0.71150 0.39390
C14A C 0.5775(10) 0.4914(10) 0.2136(10)
H14A H 0.57820 0.41890 0.18550
C15A C 0.5495(11) 0.6482(10) 0.2250(11)
H15A H 0.52860 0.70430 0.20490
C16A C 0.4541(12) 0.4876(12) 0.3899(10)
H16A H 0.42180 0.47770 0.31490
C17A C 0.6593(12) 0.5226(11) 0.4169(11)
H17A H 0.73640 0.57850 0.48020
H18A H 0.67180 0.45190 0.39120
C18A C 0.6198(12) 0.5218(11) 0.5691(10)
H19A H 0.70120 0.53520 0.61580
C19A C 0.5746(11) 0.5115(9) 0.4582(9)
N7A N 0.0939(9) 0.3005(8) -0.4216(8)
C20A C 0.0827(10) 0.4557(10) -0.3311(12)
H20A H 0.06450 0.52120 -0.31570
N8A N 0.1422(14) 0.4187(12) -0.2526(14)
C21A C 0.0554(11) 0.3842(11) -0.4312(12)
H21A H 0.01520 0.39090 -0.49880
C22A C 0.1492(11) 0.3207(10) -0.3099(10)
H22A H 0.18500 0.27580 -0.27880
C23A C 0.0796(12) 0.2014(10) -0.5158(10)
H23A H 0.15550 0.20930 -0.51170
H24A H 0.02090 0.19670 -0.58880
C24A C 0.1204(11) 0.0566(10) -0.4441(11)
H25A H 0.20220 0.09400 -0.40740
C25A C -0.0834(11) 0.037(1) -0.5671(10)
H26A H -0.13950 0.06050 -0.61330
C26A C 0.0396(10) 0.0963(9) -0.5081(9)
#END
