
#######################################################################
#
#                 Cambridge Crystallographic Data Centre
#                                CCDC
#
#######################################################################
#
# If this CIF has been generated from an entry in the Cambridge
# Structural Database, then it will include bibliographic, chemical,
# crystal, experimental, refinement or atomic coordinate data resulting
# from the CCDC's data processing and validation procedures.
#
#######################################################################

data_CSD_CIF_KAWNON
_audit_creation_date 2012-11-07
_audit_creation_method CSD-ConQuest-V1
_database_code_CSD KAWNON
_database_code_depnum_ccdc_archive 'CCDC 836150'
_chemical_formula_sum 'C14 H15 Ag3 Br2 N2 O13 S2'
_chemical_formula_moiety
;
(C14 H11 Ag3 Br2 N1 O13 S2 1-)n,n(H4 N1 1+)
;
_journal_coden_Cambridge 9
_journal_volume 50
_journal_year 2011
_journal_page_first 12562
_journal_name_full 'Inorg.Chem. '
loop_
_publ_author_name
"Xiang-Qian Fang"
"Zhao-Peng Deng"
"Li-Hua Huo"
"Wang Wan"
"Zhi-Biao Zhu"
"Hui Zhao"
"Shan Gao"
_chemical_name_systematic
;
catena-(Ammonium 
(\m~5~-2-hydroxy-3-carboxyl-5-bromobenzenesulfonato)-(\m~4~-2-hydroxy-3-carbox
yl-5-bromobenzenesulfonato)-aqua-ammine-tri-silver)
;
_cell_volume   1160.276
_exptl_crystal_colour 'pale yellow'
_exptl_crystal_density_diffrn 2.767
_exptl_crystal_description 'prism'
_diffrn_ambient_temperature 295
#These two values have been output from a single CSD field.
_refine_ls_R_factor_gt 0.0361
_refine_ls_wR_factor_gt 0.0361
_symmetry_cell_setting triclinic
_symmetry_space_group_name_H-M 'P -1'
_symmetry_Int_Tables_number 2
loop_
_symmetry_equiv_pos_site_id
_symmetry_equiv_pos_as_xyz
1 x,y,z
2 -x,-y,-z
_cell_length_a 9.4697(19)
_cell_length_b 10.256(2)
_cell_length_c 12.099(2)
_cell_angle_alpha 87.90(3)
_cell_angle_beta 88.38(3)
_cell_angle_gamma 81.24(3)
_cell_formula_units_Z 2
loop_
_atom_type_symbol
_atom_type_radius_bond
C 0.68
H 0.23
Ag 1.50
Br 1.21
N 0.68
O 0.88
S 0.92
loop_
_atom_site_label
_atom_site_type_symbol
_atom_site_fract_x
_atom_site_fract_y
_atom_site_fract_z
Ag1 Ag 0.75197(4) 0.69789(4) 0.22087(3)
Ag2 Ag 0.55409(5) 0.23628(5) 0.74009(3)
Ag3 Ag -0.04709(6) 0.28919(5) 0.35447(4)
Br1 Br 0.68910(5) 0.43442(5) 0.15404(4)
Br2 Br 0.27860(5) 1.07657(5) 0.39785(4)
S1 S 0.09848(13) 0.50434(11) 0.19323(10)
S2 S 0.84815(12) 1.00403(11) 0.26138(9)
O1 O 0.1290(4) 0.5436(4) 0.0802(3)
N1 N 0.9866(5) 0.7869(4) -0.0136(3)
O2 O 0.0414(4) 0.3803(3) 0.1981(3)
O3 O 0.8089(5) 0.1627(5) 0.7938(4)
H1 H 0.858(7) 0.086(3) 0.792(7)
H2 H 0.847(8) 0.216(5) 0.751(6)
O4 O 0.0108(4) 0.6071(3) 0.2536(3)
N2 N -0.1080(6) 0.2429(6) 0.5229(4)
H3 H -0.15310 0.17270 0.52440
H4 H -0.16590 0.31140 0.55010
H5 H -0.03020 0.22530 0.56370
O5 O 0.1509(4) 0.4348(3) 0.4323(3)
H6 H 0.17010 0.40960 0.49600
O6 O 0.3049(4) 0.3504(4) 0.5945(3)
O7 O 0.5395(4) 0.2872(4) 0.5680(3)
O8 O 0.8517(4) 0.9797(4) 0.3797(3)
O9 O 0.8898(4) 0.8847(3) 0.1985(3)
O10 O 0.9302(4) 1.1070(3) 0.2236(3)
O11 O 0.7341(3) 1.1015(3) 0.0434(2)
H7 H 0.70060 1.13300 -0.01520
O12 O 0.3107(4) 1.2277(4) -0.0384(3)
O13 O 0.5423(4) 1.2020(4) -0.0855(3)
C1 C 0.2645(5) 0.4709(4) 0.2589(4)
C2 C 0.2733(5) 0.4310(4) 0.3711(4)
C3 C 0.4081(5) 0.3884(4) 0.4167(4)
C4 C 0.5308(5) 0.3877(4) 0.3505(4)
H8 H 0.62000 0.35730 0.37980
C5 C 0.5205(5) 0.4317(4) 0.2425(4)
C6 C 0.3901(5) 0.4726(4) 0.1945(4)
H9 H 0.38540 0.50080 0.12060
C7 C 0.4191(6) 0.3377(4) 0.5357(4)
C8 C 0.6665(5) 1.0569(4) 0.2275(4)
C9 C 0.5617(5) 1.0498(4) 0.3098(4)
H10 H 0.58680 1.01970 0.38110
C10 C 0.4196(5) 1.0882(4) 0.2837(4)
C11 C 0.3806(5) 1.1336(4) 0.1808(4)
H11 H 0.28440 1.16010 0.16620
C12 C 0.4842(5) 1.1414(4) 0.0955(4)
C13 C 0.6288(5) 1.1003(4) 0.1196(4)
C14 C 0.4394(5) 1.1943(4) -0.0164(4)
H12 H 0.956(4) 0.846(3) 0.038(2)
H13 H 0.911(2) 0.770(3) -0.049(3)
H14 H 1.031(4) 0.714(2) 0.018(2)
H15 H 1.044(3) 0.823(3) -0.061(2)
Ag1A Ag 0.24803(4) 0.30211(4) 0.77913(3)
Ag1* Ag -0.24803(4) 0.69789(4) 0.22087(3)
Ag1A* Ag 0.24803(4) 1.30211(4) -0.22087(3)
Ag2A Ag 0.44591(5) 0.76372(5) 0.25991(3)
Ag2* Ag 0.55409(5) 1.23628(5) -0.25991(3)
Ag3* Ag 0.95291(6) 1.28919(5) 0.35447(4)
O4* O 1.0108(4) 0.6071(3) 0.2536(3)
O6A O 0.6951(4) 0.6496(4) 0.4055(3)
O10* O -0.0698(4) 0.1070(3) 0.2236(3)
O12A O 0.6893(4) 0.7723(4) 0.0384(3)
O13* O 0.5423(4) 0.2020(4) 0.9145(3)
#END
