
#######################################################################
#
#                 Cambridge Crystallographic Data Centre
#                                CCDC
#
#######################################################################
#
# If this CIF has been generated from an entry in the Cambridge
# Structural Database, then it will include bibliographic, chemical,
# crystal, experimental, refinement or atomic coordinate data resulting
# from the CCDC's data processing and validation procedures.
#
#######################################################################

data_CSD_CIF_KAXTOU
_audit_creation_date 2012-09-26
_audit_creation_method CSD-ConQuest-V1
_database_code_CSD KAXTOU
_database_code_depnum_ccdc_archive 'CCDC 844766'
_chemical_formula_sum 'C54 H44 Ag4 Mo8 N14 O27'
_chemical_formula_moiety
;
(C54 H42 Ag3 N14 3+)n,n(H2 Ag1 Mo8 O27 3-)
;
_journal_coden_Cambridge 1147
_journal_volume 12
_journal_year 2012
_journal_page_first 2272
_journal_name_full 'Cryst.Growth Des. '
loop_
_publ_author_name
"Hua Wu"
"Jing Yang"
"Ying-Ying Liu"
"Jian-Fang Ma"
_chemical_name_systematic
;
catena-[bis(\m~3~-tris(4-imidazolylphenyl)amine)-tri-silver(i) 
bis(\m~4~-oxo)-tetrakis(\m~3~-oxo)-decakis(\m~2~-oxo)-aqua-decaoxo-octa-molybd
enum-silver]
;
_cell_volume   1891.043
_exptl_crystal_colour 'colorless'
_exptl_crystal_description 'block'
_diffrn_ambient_temperature 293
_refine_special_details
;
One water molecule is disordered by symmetry. One Ag atom site has partial 
occupancy Na in the ratio 0.52:0.48.
;
#These two values have been output from a single CSD field.
_refine_ls_R_factor_gt 0.0657
_refine_ls_wR_factor_gt 0.0657
_symmetry_cell_setting triclinic
_symmetry_space_group_name_H-M 'P -1'
_symmetry_Int_Tables_number 2
loop_
_symmetry_equiv_pos_site_id
_symmetry_equiv_pos_as_xyz
1 x,y,z
2 -x,-y,-z
_cell_length_a 11.0529(10)
_cell_length_b 13.3248(10)
_cell_length_c 13.3632(8)
_cell_angle_alpha 100.674(6)
_cell_angle_beta 94.942(6)
_cell_angle_gamma 99.900(7)
_cell_formula_units_Z 1
loop_
_atom_type_symbol
_atom_type_radius_bond
C 0.68
H 0.23
Ag 1.45
Mo 1.35
N 0.68
Na 1.66
O 0.68
loop_
_atom_site_label
_atom_site_type_symbol
_atom_site_fract_x
_atom_site_fract_y
_atom_site_fract_z
Ag1 Ag 0.50000 -0.50000 0.00000
Na1? Na 0.50000 -0.50000 0.00000
Ag2 Ag 0.83021(10) 0.09835(9) 0.17115(8)
Ag3 Ag 0.00000 0.00000 -1.00000
Mo1 Mo 0.20242(9) -0.38952(8) -0.08362(8)
Mo2 Mo -0.09032(8) -0.55882(7) -0.12117(7)
Mo3 Mo 0.07356(9) -0.68539(7) 0.03825(7)
Mo4 Mo 0.18451(10) -0.63883(8) -0.17064(8)
C1 C 0.2833(12) -0.3933(10) -0.4907(9)
C2 C 0.2863(14) -0.4474(11) -0.5883(10)
H1 H 0.33360 -0.41680 -0.63280
C3 C 0.2183(13) -0.5480(11) -0.6203(10)
H2 H 0.21620 -0.58320 -0.68750
C4 C 0.1549(12) -0.5949(10) -0.5535(9)
C5 C 0.1546(13) -0.5448(10) -0.4535(10)
H3 H 0.11280 -0.57840 -0.40790
C6 C 0.2192(13) -0.4417(10) -0.4225(10)
H4 H 0.21900 -0.40570 -0.35590
C7 C 0.0733(13) -0.7800(11) -0.5418(10)
H5 H 0.11570 -0.78270 -0.47950
C8 C 0.0013(12) -0.7257(10) -0.6770(9)
H6 H -0.01180 -0.68310 -0.72310
C9 C -0.0095(13) -0.8589(11) -0.6064(11)
H7 H -0.03170 -0.92650 -0.59610
C10 C 0.4043(11) -0.2431(9) -0.3619(9)
C11 C 0.4687(13) -0.3047(10) -0.3122(11)
H8 H 0.47370 -0.37110 -0.34610
C12 C 0.5253(12) -0.2672(10) -0.2123(10)
H9 H 0.56650 -0.30900 -0.17850
C13 C 0.5201(12) -0.1693(10) -0.1641(9)
C14 C 0.4605(11) -0.104(1) -0.2138(9)
H10 H 0.46020 -0.03610 -0.18120
C15 C 0.4010(11) -0.1441(11) -0.3146(10)
H11 H 0.35950 -0.10290 -0.34870
C16 C 0.6527(12) -0.0336(10) -0.0243(10)
H12 H 0.65920 0.02160 -0.05840
C17 C 0.5987(16) -0.1858(11) 0.0114(11)
H13 H 0.56480 -0.25580 0.00630
C18 C 0.6719(14) -0.1214(10) 0.0931(10)
H14 H 0.69260 -0.13810 0.15610
C19 C 0.3094(12) -0.2216(11) -0.5276(10)
C20 C 0.1860(12) -0.2345(10) -0.5744(11)
H15 H 0.12640 -0.28790 -0.56250
C21 C 0.1530(12) -0.1717(11) -0.6354(10)
H16 H 0.07090 -0.18110 -0.66340
C22 C 0.2396(11) -0.0934(10) -0.6570(9)
C23 C 0.3629(13) -0.0788(12) -0.6142(11)
H17 H 0.42230 -0.02710 -0.62940
C24 C 0.3949(13) -0.1401(11) -0.5511(11)
H18 H 0.47680 -0.12840 -0.52170
C25 C 0.1194(11) -0.0625(11) -0.8102(11)
H19 H 0.07840 -0.13100 -0.83370
C26 C 0.1838(12) 0.1004(10) -0.7971(10)
H20 H 0.19430 0.16710 -0.81080
C27 C 0.2430(12) 0.0737(10) -0.7188(9)
H21 H 0.30170 0.11770 -0.66850
N1 N 0.3439(11) -0.2855(9) -0.4633(8)
N2 N 0.5844(10) -0.1274(9) -0.0622(8)
N3 N 0.7097(9) -0.0285(9) 0.0671(8)
N4 N 0.0801(10) -0.6968(8) -0.5883(8)
N5 N -0.0531(10) -0.8227(9) -0.6870(8)
N6 N 0.2027(10) -0.0294(8) -0.7253(8)
N7 N 0.1040(9) 0.0144(8) -0.8551(7)
O1 O 0.2195(9) -0.2864(8) -0.1411(7)
O2 O 0.1982(8) -0.5009(7) -0.1950(7)
O3 O 0.3280(8) -0.6247(7) -0.1077(8)
O4 O 0.1849(10) -0.7128(8) -0.2862(7)
O5 O 0.0979(8) -0.7357(6) -0.1007(6)
O6 O -0.0164(8) -0.6281(7) -0.2109(6)
O7 O 0.1076(6) -0.5358(6) -0.0247(5)
O8 O 0.2160(8) -0.6673(7) 0.1015(7)
O9 O -0.0036(8) -0.7942(7) 0.0684(7)
O10 O 0.1187(7) -0.3357(7) 0.0373(6)
O11 O -0.0100(7) -0.4204(6) -0.1364(6)
O12 O -0.2327(7) -0.5688(7) -0.1787(7)
O13 O 0.3452(8) -0.3842(8) -0.0215(8)
O14 O 0.539(2) -0.499(2) -0.171(3)
Ag1* Ag -0.50000 -0.50000 0.00000
Ag2* Ag -0.16979(10) -0.90165(9) -0.82885(8)
Ag2A Ag 0.16979(10) 0.90165(9) -1.17115(8)
Ag2A* Ag -0.83021(10) -0.09835(9) -2.17115(8)
Mo1A Mo -0.20242(9) -0.61048(8) 0.08362(8)
Mo2A Mo 0.09032(8) -0.44118(7) 0.12117(7)
Mo3A Mo -0.07356(9) -0.31461(7) -0.03825(7)
Mo4A Mo -0.18451(10) -0.36117(8) 0.17064(8)
C1A C -0.2833(12) 0.3933(10) -1.5093(9)
C2A C -0.2863(14) 0.4474(11) -1.4117(10)
H1A H -0.33360 0.41680 -1.36720
C3A C -0.2183(13) 0.5480(11) -1.3797(10)
H2A H -0.21620 0.58320 -1.31250
C4A C -0.1549(12) 0.5949(10) -1.4465(9)
C5A C -0.1546(13) 0.5448(10) -1.5465(10)
H3A H -0.11280 0.57840 -1.59210
C6A C -0.2192(13) 0.4417(10) -1.5775(10)
H4A H -0.21900 0.40570 -1.64410
C7A C -0.0733(13) 0.7800(11) -1.4582(10)
H5A H -0.11570 0.78270 -1.52050
C8A C -0.0013(12) 0.7257(10) -1.3230(9)
H6A H 0.01180 0.68310 -1.27690
C9A C 0.0095(13) 0.8589(11) -1.3936(11)
H7A H 0.03170 0.92650 -1.40390
C10A C -0.4043(11) 0.2431(9) -1.6381(9)
C11A C -0.4687(13) 0.3047(10) -1.6878(11)
H8A H -0.47370 0.37110 -1.65390
C12A C -0.5253(12) 0.2672(10) -1.7877(10)
H9A H -0.56650 0.30900 -1.82150
C13A C -0.5201(12) 0.1693(10) -1.8359(9)
C14A C -0.4605(11) 0.104(1) -1.7862(9)
H10A H -0.46020 0.03610 -1.81880
C15A C -0.4010(11) 0.1441(11) -1.6854(10)
H11A H -0.35950 0.10290 -1.65130
C16A C -0.6527(12) 0.0336(10) -1.9757(10)
H12A H -0.65920 -0.02160 -1.94160
C17A C -0.5987(16) 0.1858(11) -2.0114(11)
H13A H -0.56480 0.25580 -2.00630
C18A C -0.6719(14) 0.1214(10) -2.0931(10)
H14A H -0.69260 0.13810 -2.15610
C19A C -0.3094(12) 0.2216(11) -1.4724(10)
C20A C -0.1860(12) 0.2345(10) -1.4256(11)
H15A H -0.12640 0.28790 -1.43750
C21A C -0.1530(12) 0.1717(11) -1.3646(10)
H16A H -0.07090 0.18110 -1.33660
C22A C -0.2396(11) 0.0934(10) -1.3430(9)
C23A C -0.3629(13) 0.0788(12) -1.3858(11)
H17A H -0.42230 0.02710 -1.37060
C24A C -0.3949(13) 0.1401(11) -1.4489(11)
H18A H -0.47680 0.12840 -1.47830
C25A C -0.1194(11) 0.0625(11) -1.1898(11)
H19A H -0.07840 0.13100 -1.16630
C26A C -0.1838(12) -0.1004(10) -1.2029(10)
H20A H -0.19430 -0.16710 -1.18920
C27A C -0.2430(12) -0.0737(10) -1.2812(9)
H21A H -0.30170 -0.11770 -1.33150
N1A N -0.3439(11) 0.2855(9) -1.5367(8)
N2A N -0.5844(10) 0.1274(9) -1.9378(8)
N3A N 0.2903(9) 1.0285(9) -1.0671(8)
N3A* N -0.7097(9) 0.0285(9) -2.0671(8)
N4A N -0.0801(10) 0.6968(8) -1.4117(8)
N5* N 0.9469(10) 0.1773(9) 0.3130(8)
N5A N 0.0531(10) 0.8227(9) -1.3130(8)
N6A N -0.2027(10) 0.0294(8) -1.2747(8)
N7A N -0.1040(9) -0.0144(8) -1.1449(7)
O1A O -0.2195(9) -0.7136(8) 0.1411(7)
O2A O -0.1982(8) -0.4991(7) 0.1950(7)
O3A O -0.3280(8) -0.3753(7) 0.1077(8)
O3A* O 0.6720(8) -0.3753(7) 0.1077(8)
O4A O -0.1849(10) -0.2872(8) 0.2862(7)
O5A O -0.0979(8) -0.2643(6) 0.1007(6)
O6A O 0.0164(8) -0.3719(7) 0.2109(6)
O7A O -0.1076(6) -0.4642(6) 0.0247(5)
O8A O -0.2160(8) -0.3327(7) -0.1015(7)
O9A O 0.0036(8) -0.2058(7) -0.0684(7)
O10A O -0.1187(7) -0.6643(7) -0.0373(6)
O11A O 0.0100(7) -0.5796(6) 0.1364(6)
O12A O 0.2327(7) -0.4312(7) 0.1787(7)
O13A O -0.3452(8) -0.6158(8) 0.0215(8)
O13A* O 0.6548(8) -0.6158(8) 0.0215(8)
O14A O 0.461(2) -0.501(2) 0.171(3)
#END
