
#######################################################################
#
#                 Cambridge Crystallographic Data Centre
#                                CCDC
#
#######################################################################
#
# If this CIF has been generated from an entry in the Cambridge
# Structural Database, then it will include bibliographic, chemical,
# crystal, experimental, refinement or atomic coordinate data resulting
# from the CCDC's data processing and validation procedures.
#
#######################################################################

data_CSD_CIF_KAZJAX
_audit_creation_date 2006-05-04
_audit_creation_method CSD-ConQuest-V1
_database_code_CSD KAZJAX
_database_code_depnum_ccdc_archive 'CCDC 276248'
_chemical_formula_sum 'C48 H70 Eu2 K2 N28 O21 Ru4'
_chemical_formula_moiety
;
(K1 1+)2n,n(C48 H48 Eu2 N28 O10 Ru4 2-),11n(H2 O1)
;
_journal_coden_Cambridge 222
_journal_year 2006
_journal_page_first 39
_journal_name_full 'Dalton Trans. '
loop_
_publ_author_name
"H.Adams"
"W.Z.Alsindi"
"G.M.Davies"
"M.B.Duriska"
"T.L.Easun"
"H.E.Fenton"
"J.-M.Herrera"
"M.W.George"
"K.L.Ronayne"
"Xue-Zhong Sun"
"M.Towrie"
"M.D.Ward"
_chemical_name_systematic
;
catena-(Di-potassium 
hexakis(\m~2~-cyano-C,N)-deca-aqua-decacyano-tetrakis(3-(2-pyridyl)pyrazole-N,
N')-di-europium-tetra-ruthenium undecahydrate)
;
_cell_volume   3748.156
_exptl_crystal_colour 'yellow'
_exptl_crystal_density_diffrn 1.915
_exptl_crystal_description 'Block'
_diffrn_ambient_temperature 150
#These two values have been output from a single CSD field.
_refine_ls_R_factor_gt 0.0396
_refine_ls_wR_factor_gt 0.0396
_symmetry_cell_setting triclinic
_symmetry_space_group_name_H-M 'P -1'
_symmetry_Int_Tables_number 2
loop_
_symmetry_equiv_pos_site_id
_symmetry_equiv_pos_as_xyz
1 x,y,z
2 -x,-y,-z
_cell_length_a 14.0042(16)
_cell_length_b 16.3639(19)
_cell_length_c 18.520(2)
_cell_angle_alpha 113.599(2)
_cell_angle_beta 103.578(2)
_cell_angle_gamma 91.274(2)
_cell_formula_units_Z 2
loop_
_atom_type_symbol
_atom_type_radius_bond
C 0.68
H 0.23
Eu 1.99
K 1.33
N 0.68
O 0.68
Ru 1.40
loop_
_atom_site_label
_atom_site_type_symbol
_atom_site_fract_x
_atom_site_fract_y
_atom_site_fract_z
Eu1 Eu 0.475171(18) 0.694456(16) 0.454203(15)
Eu2 Eu 0.464850(18) 0.748440(16) 0.938450(15)
Ru1 Ru 0.75015(3) 0.85392(3) 0.35926(2)
Ru2 Ru 0.23685(3) 0.66123(3) 0.62880(2)
Ru3 Ru 0.25654(3) 0.48141(3) 0.14606(2)
Ru4 Ru 0.24198(3) 0.94978(3) 1.12752(2)
N1 N 0.8622(3) 0.8523(3) 0.4599(3)
N2 N 0.9109(3) 0.9250(3) 0.2918(3)
H1 H 0.86950 0.93240 0.25170
N3 N 0.8832(3) 0.9043(3) 0.3476(3)
N4 N 0.6953(4) 1.0466(3) 0.4612(3)
N5 N 0.7876(3) 0.6644(3) 0.2344(3)
N6 N 0.6018(3) 0.8665(3) 0.2100(3)
N7 N 0.5837(3) 0.7639(3) 0.4012(3)
N8 N 0.1167(3) 0.6566(3) 0.5301(3)
N9 N 0.0921(3) 0.5805(3) 0.7031(3)
H2 H 0.13770 0.57610 0.74270
N10 N 0.1113(3) 0.6057(3) 0.6466(2)
N11 N 0.2210(4) 0.8587(3) 0.7541(3)
N12 N 0.2960(3) 0.4779(3) 0.5133(3)
N13 N 0.3908(3) 0.7400(3) 0.5675(3)
N14 N 0.3811(3) 0.6698(3) 0.7893(3)
N15 N 0.1558(3) 0.3788(3) 0.0399(3)
N16 N 0.0807(3) 0.5921(3) 0.2017(3)
H3 H 0.11750 0.63720 0.24550
N17 N 0.1165(3) 0.5245(3) 0.1503(3)
N18 N 0.2447(4) 0.3890(3) 0.2669(3)
N19 N 0.2914(3) 0.5906(3) 0.0435(3)
N20 N 0.4387(3) 0.3795(3) 0.1126(3)
N21 N 0.3846(3) 0.6399(3) 0.3061(3)
N22 N 0.1200(3) 0.8661(3) 1.0276(3)
N23 N 0.1019(3) 1.0941(3) 1.2090(3)
H4 H 0.14820 1.13340 1.25040
N24 N 0.1189(3) 1.0187(3) 1.1508(3)
N25 N 0.2899(4) 1.0480(4) 1.0210(3)
N26 N 0.2226(4) 0.8572(3) 1.2466(3)
N27 N 0.3920(3) 0.8235(3) 1.0560(3)
N28 N 0.4116(4) 1.0823(4) 1.2765(3)
O1 O 0.3953(3) 0.8183(3) 0.4451(3)
H5 H 0.42180 0.84840 0.42470
H6 H 0.34060 0.83610 0.45060
O2 O 0.5954(3) 0.8106(3) 0.5692(2)
H7 H 0.59130 0.81630 0.61550
H8 H 0.61630 0.86280 0.57370
O3 O 0.5512(3) 0.6271(3) 0.5456(2)
H9 H 0.61400 0.62660 0.55440
H10 H 0.53540 0.63010 0.58760
O4 O 0.5552(3) 0.5723(3) 0.3861(3)
H11 H 0.53570 0.52240 0.38580
H12 H 0.59160 0.56120 0.35330
O5 O 0.3419(3) 0.5736(2) 0.4160(2)
H13 H 0.30330 0.54760 0.36440
H14 H 0.33160 0.55490 0.45350
O6 O 0.5611(3) 0.7978(3) 0.8636(2)
H15 H 0.51550 0.80360 0.81740
H16 H 0.60490 0.75320 0.84340
O7 O 0.5577(3) 0.8937(3) 1.0222(3)
H17 H 0.60360 0.90140 1.00160
H18 H 0.58310 0.89730 1.06990
O8 O 0.3495(3) 0.8488(2) 0.9029(2)
H19 H 0.36860 0.90270 0.93800
H20 H 0.29140 0.83260 0.90300
O9 O 0.3385(3) 0.6444(3) 0.9296(2)
H21 H 0.29760 0.61190 0.88450
H22 H 0.32350 0.63290 0.96680
O10 O 0.5698(4) 0.7332(3) 1.0505(2)
H23 H 0.63090 0.72890 1.05730
H24 H 0.54770 0.70960 1.07780
O11 O 0.5308(3) 0.0383(3) 0.1490(2)
H25 H 0.45870 0.02660 0.13790
H26 H 0.54750 0.09040 0.13880
O12 O 0.4671(3) 0.9154(3) 0.3708(3)
H27 H 0.53040 0.94980 0.38020
H28 H 0.41530 0.95500 0.37540
O13 O 0.5073(4) 0.6244(3) 0.1525(3)
H29 H 0.47400 0.57590 0.10770
H30 H 0.57060 0.62360 0.17730
O14 O 0.5844(3) 0.5314(3) 0.2418(3)
O15 O 0.7633(3) 0.4879(2) 0.2153(2)
O16 O 0.4433(3) 0.3367(3) 0.2916(3)
O17 O 0.1927(3) 0.7454(3) 0.3236(3)
O18 O 0.7726(3) 0.7532(3) 0.6738(3)
O19 O 0.3160(3) 0.0213(3) 0.4061(3)
O20 O 0.7702(3) 0.9507(3) 0.1753(3)
O21 O 0.3424(3) 0.4049(3) 0.9243(3)
K1 K 0.61772(10) 0.07312(9) 0.30881(8)
K2 K 0.41746(12) 0.77423(11) 0.21308(12)
C1 C 0.8465(4) 0.8293(4) 0.5182(3)
H31 H 0.78040 0.81150 0.51580
C2 C 0.9223(5) 0.8305(4) 0.5818(3)
H32 H 0.90830 0.81300 0.62180
C3 C 1.0186(4) 0.8572(4) 0.5865(3)
H33 H 1.07180 0.85970 0.63030
C4 C 1.0361(4) 0.8802(3) 0.5265(3)
H34 H 1.10170 0.89800 0.52790
C5 C 0.9564(4) 0.8770(3) 0.4637(3)
C6 C 0.9674(4) 0.9001(3) 0.3975(3)
C7 C 1.0499(4) 0.9178(4) 0.3727(4)
H35 H 1.11780 0.91900 0.39750
C8 C 1.0105(4) 0.9329(3) 0.3048(3)
H36 H 1.04660 0.94660 0.27270
C9 C 0.7201(4) 0.9779(4) 0.4281(3)
C10 C 0.7742(4) 0.7314(3) 0.2820(3)
C11 C 0.6570(4) 0.8606(3) 0.2647(3)
C12 C 0.6429(4) 0.7972(3) 0.3836(3)
C13 C 0.1230(4) 0.6780(3) 0.4683(3)
H37 H 0.18650 0.69750 0.46660
C14 C 0.0415(4) 0.6729(3) 0.4074(3)
H38 H 0.04910 0.68880 0.36490
C15 C -0.0520(4) 0.6442(3) 0.4089(3)
H39 H -0.10920 0.64050 0.36760
C16 C -0.0598(4) 0.6214(3) 0.4710(3)
H40 H -0.12270 0.60100 0.47310
C17 C 0.0245(4) 0.6284(3) 0.5305(3)
C18 C 0.0231(3) 0.6053(3) 0.5987(3)
C19 C -0.0530(4) 0.5794(3) 0.6256(3)
H41 H -0.12230 0.57430 0.60300
C20 C -0.0064(4) 0.5629(3) 0.6910(3)
H42 H -0.03760 0.54280 0.72230
C21 C 0.2194(4) 0.7869(3) 0.7056(3)
C22 C 0.2692(4) 0.5411(3) 0.5566(3)
C23 C 0.3375(4) 0.7131(3) 0.5948(3)
C24 C 0.3318(3) 0.6634(3) 0.7272(3)
C25 C 0.1799(4) 0.3071(4) -0.0167(3)
H43 H 0.24740 0.29710 -0.00870
C26 C 0.1120(5) 0.2471(4) -0.0860(3)
H44 H 0.13250 0.19720 -0.12470
C27 C 0.0137(4) 0.2607(4) -0.0984(4)
H45 H -0.03450 0.22080 -0.14620
C28 C -0.0132(4) 0.3330(4) -0.0402(3)
H46 H -0.08070 0.34310 -0.04680
C29 C 0.0587(4) 0.3909(3) 0.0281(3)
C30 C 0.0378(4) 0.4696(4) 0.0920(3)
C31 C -0.0500(4) 0.5046(4) 0.1082(4)
H47 H -0.11620 0.47940 0.07720
C32 C -0.0193(4) 0.5824(4) 0.1779(4)
H48 H -0.06080 0.62230 0.20470
C33 C 0.2444(4) 0.4189(3) 0.2200(3)
C34 C 0.2761(4) 0.5498(3) 0.0788(3)
C35 C 0.3735(4) 0.4202(3) 0.1264(3)
C36 C 0.3381(3) 0.5824(3) 0.2455(3)
C37 C 0.1252(4) 0.7918(4) 0.9632(3)
H49 H 0.18770 0.77100 0.96150
C38 C 0.0441(5) 0.7445(4) 0.8995(4)
H50 H 0.05110 0.69260 0.85440
C39 C -0.0479(5) 0.7729(4) 0.9014(4)
H51 H -0.10490 0.74020 0.85810
C40 C -0.0560(4) 0.8490(4) 0.9667(4)
H52 H -0.11830 0.87010 0.96910
C41 C 0.0290(4) 0.8947(4) 1.0293(3)
C42 C 0.0302(4) 0.9774(4) 1.0998(3)
C43 C -0.0451(4) 1.0269(4) 1.1262(4)
H53 H -0.11440 1.01240 1.10160
C44 C 0.0038(4) 1.1010(4) 1.1953(4)
H54 H -0.02610 1.14870 1.22770
C45 C 0.2690(4) 1.0139(4) 1.0596(3)
C46 C 0.2250(4) 0.8875(4) 1.2001(3)
C47 C 0.3474(4) 1.0347(4) 1.2221(3)
C48 C 0.3388(4) 0.8704(3) 1.0865(3)
Eu2A Eu 0.535150(18) 0.251560(16) 0.061550(15)
N20A N 0.5613(3) 0.6205(3) 0.8874(3)
#END
