
#######################################################################
#
#                 Cambridge Crystallographic Data Centre
#                                CCDC
#
#######################################################################
#
# If this CIF has been generated from an entry in the Cambridge
# Structural Database, then it will include bibliographic, chemical,
# crystal, experimental, refinement or atomic coordinate data resulting
# from the CCDC's data processing and validation procedures.
#
#######################################################################

data_CSD_CIF_KEDJEL
_audit_creation_date 2017-07-27
_audit_creation_method CSD-ConQuest-V1
_database_code_CSD KEDJEL
_database_code_depnum_ccdc_archive 'CCDC 1524045'
_chemical_formula_sum 'C30 H24 N1 O8 Tb1'
_chemical_formula_moiety
;
(C28 H16 O8 Tb1 1-)n,C2 H8 N1 1+
;
_journal_coden_Cambridge 1220
_journal_volume 23
_journal_year 2017
_journal_page_first 7657
_journal_name_full 'Chem.-Eur.J. '
loop_
_publ_author_name
"Junwei Ye"
"R.F.Bogale"
"Yangwei Shi"
"Yanzhen Chen"
"Xigang Liu"
"Siqi Zhang"
"Yaoyao Yang"
"Jianzhang Zhao"
"Guiling Ning"
_chemical_name_systematic
;
catena-[dimethylammonium 
bis(\m-[1,1'-biphenyl]-4,4'-dicarboxylato)-terbium(iii)]
;
_chemical_name_common
;
DUT-101
;
_cell_volume   2562.843
_exptl_crystal_colour 'colorless'
_exptl_crystal_density_diffrn 1.776
_exptl_crystal_description 'block'
_diffrn_ambient_temperature 296
#These two values have been output from a single CSD field.
_refine_ls_R_factor_gt 0.0296
_refine_ls_wR_factor_gt 0.0296
_symmetry_cell_setting orthorhombic
_symmetry_space_group_name_H-M 'P b c n'
_symmetry_Int_Tables_number 60
loop_
_symmetry_equiv_pos_site_id
_symmetry_equiv_pos_as_xyz
1 x,y,z
2 1/2-x,1/2-y,1/2+z
3 1/2+x,1/2-y,-z
4 -x,y,1/2-z
5 -x,-y,-z
6 -1/2+x,-1/2+y,-1/2-z
7 -1/2-x,-1/2+y,z
8 x,-y,-1/2+z
_cell_length_a 27.7629(15)
_cell_length_b 11.8079(6)
_cell_length_c 7.8178(4)
_cell_angle_alpha 90
_cell_angle_beta 90
_cell_angle_gamma 90
_cell_formula_units_Z 4
loop_
_atom_type_symbol
_atom_type_radius_bond
C 0.68
H 0.23
N 0.68
O 0.68
Tb 1.94
loop_
_atom_site_label
_atom_site_type_symbol
_atom_site_fract_x
_atom_site_fract_y
_atom_site_fract_z
Tb1 Tb 0.00000 0.337805(17) 0.25000
O1 O 0.05307(9) 0.2506(2) 0.0345(3)
O2 O 0.05591(10) 0.1727(2) 0.2901(3)
O3 O 0.44931(9) -0.0206(2) 0.1718(4)
O4 O 0.45967(9) 0.1306(2) 0.0073(3)
C1 C 0.12672(14) 0.1601(3) 0.1178(5)
C2 C 0.15301(13) 0.2110(3) -0.0119(5)
H1 H 0.13760 0.25800 -0.09020
C3 C 0.20214(13) 0.1921(3) -0.0252(5)
H2 H 0.21940 0.22720 -0.11230
C4 C 0.22629(13) 0.1214(3) 0.0897(4)
C5 C 0.19868(14) 0.0681(3) 0.2157(5)
H3 H 0.21360 0.01830 0.29120
C6 C 0.14983(14) 0.0878(3) 0.2307(5)
H4 H 0.13240 0.05230 0.31700
C7 C 0.27939(13) 0.1055(3) 0.0822(4)
C8 C 0.30963(13) 0.1913(3) 0.0243(5)
H5 H 0.29650 0.25930 -0.01350
C9 C 0.35905(14) 0.1764(3) 0.0224(5)
H6 H 0.37870 0.23380 -0.01990
C10 C 0.37981(13) 0.0773(3) 0.0824(4)
C11 C 0.34973(13) -0.0080(3) 0.1411(5)
H7 H 0.36310 -0.07480 0.18260
C12 C 0.30024(13) 0.0047(3) 0.1390(5)
H8 H 0.28070 -0.05440 0.17560
C13 C 0.07521(14) 0.1936(3) 0.1481(5)
C14 C 0.43370(13) 0.0607(3) 0.0856(5)
N1 N 0.00000 0.1816(4) 0.75000
C15 C 0.04106(19) 0.1131(4) 0.6917(7)
H9 H 0.06800 0.16170 0.66870
H10 H 0.03240 0.07310 0.58930
H11 H 0.04960 0.05960 0.77910
H12? H 0.01440 0.21530 0.84800
H13? H 0.00000 0.25440 0.75000
O1C O -0.05307(9) 0.2506(2) 0.4655(3)
O2C O -0.05591(10) 0.1727(2) 0.2099(3)
O3C O -0.44931(9) -0.0206(2) 0.3282(4)
O4C O -0.45967(9) 0.1306(2) 0.4927(3)
C1C C -0.12672(14) 0.1601(3) 0.3822(5)
C2C C -0.15301(13) 0.2110(3) 0.5119(5)
H1C H -0.13760 0.25800 0.59020
C3C C -0.20214(13) 0.1921(3) 0.5252(5)
H2C H -0.21940 0.22720 0.61230
C4C C -0.22629(13) 0.1214(3) 0.4103(4)
C5C C -0.19868(14) 0.0681(3) 0.2843(5)
H3C H -0.21360 0.01830 0.20880
C6C C -0.14983(14) 0.0878(3) 0.2693(5)
H4C H -0.13240 0.05230 0.18300
C7C C -0.27939(13) 0.1055(3) 0.4178(4)
C8C C -0.30963(13) 0.1913(3) 0.4757(5)
H5C H -0.29650 0.25930 0.51350
C9C C -0.35905(14) 0.1764(3) 0.4776(5)
H6C H -0.37870 0.23380 0.51990
C10C C -0.37981(13) 0.0773(3) 0.4176(4)
C11C C -0.34973(13) -0.0080(3) 0.3589(5)
H7C H -0.36310 -0.07480 0.31740
C12C C -0.30024(13) 0.0047(3) 0.3610(5)
H8C H -0.28070 -0.05440 0.32440
C13C C -0.07521(14) 0.1936(3) 0.3519(5)
C14C C -0.43370(13) 0.0607(3) 0.4144(5)
Tb1A Tb -0.50000 0.162195(17) 0.75000
Tb1A* Tb 0.50000 0.162195(17) -0.25000
Tb1E Tb -0.50000 -0.162195(17) 0.25000
Tb1E* Tb 0.50000 -0.162195(17) 0.25000
O3E O -0.05069(9) 0.4794(2) 0.3282(4)
O3F O 0.05069(9) 0.4794(2) 0.1718(4)
O4A O 0.04033(9) 0.3694(2) 0.5073(3)
O4B O -0.04033(9) 0.3694(2) -0.0073(3)
C15C C -0.04106(19) 0.1131(4) 0.8083(7)
H9C H -0.06800 0.16170 0.83130
H10C H -0.03240 0.07310 0.91070
H11C H -0.04960 0.05960 0.72090
#END
