
#######################################################################
#
#                 Cambridge Crystallographic Data Centre
#                                CCDC
#
#######################################################################
#
# If this CIF has been generated from an entry in the Cambridge
# Structural Database, then it will include bibliographic, chemical,
# crystal, experimental, refinement or atomic coordinate data resulting
# from the CCDC's data processing and validation procedures.
#
#######################################################################

data_CSD_CIF_KEDJAG55
_audit_creation_date 2020-12-27
_audit_creation_method CSD-ConQuest-V1
_database_code_CSD KEDJAG55
_database_code_depnum_ccdc_archive 'CCDC 2052649'
_chemical_formula_sum 'C36 H64 Cu4 N4 O24'
_chemical_formula_moiety
;
(C12 Cu4 O24 4-)n,4(C6 H16 N1 1+)
;
_journal_coden_Cambridge 1078
_journal_year 2020
_journal_name_full 'CSD Communication(Private Communication) '
loop_
_publ_author_name
"Bin Zhang"
_chemical_name_systematic
;
catena-(tetrakis(triethylammonium) hexakis(\m-oxalato)-tetra-copper)
;
_cell_volume   2441.356
_exptl_crystal_colour 'blue'
_exptl_crystal_density_diffrn 1.62
_exptl_crystal_description 'block'
_diffrn_ambient_temperature 100
_diffrn_special_details
;
twin

;
_refine_special_details
;
C16 and C17 disordered over two sites with occupancies 0.550:0.450; C27 and 
C26 disordered over two sites with occupancies 0.727:0.273.
;
#These two values have been output from a single CSD field.
_refine_ls_R_factor_gt 0.0323
_refine_ls_wR_factor_gt 0.0323
_symmetry_cell_setting monoclinic
_symmetry_space_group_name_H-M 'P 21/c'
_symmetry_Int_Tables_number 14
loop_
_symmetry_equiv_pos_site_id
_symmetry_equiv_pos_as_xyz
1 x,y,z
2 -x,1/2+y,1/2-z
3 -x,-y,-z
4 x,-1/2-y,-1/2+z
_cell_length_a 14.0843(2)
_cell_length_b 10.20194(14)
_cell_length_c 18.3980(3)
_cell_angle_alpha 90
_cell_angle_beta 112.555(2)
_cell_angle_gamma 90
_cell_formula_units_Z 2
loop_
_atom_type_symbol
_atom_type_radius_bond
C 0.68
H 0.23
Cu 1.32
N 0.68
O 0.68
loop_
_atom_site_label
_atom_site_type_symbol
_atom_site_fract_x
_atom_site_fract_y
_atom_site_fract_z
Cu1 Cu 0.32599(2) 0.86862(3) 0.40533(2)
Cu2 Cu 0.17245(2) 0.63502(3) 0.59249(2)
O1 O 0.49515(12) 0.89029(15) 0.42618(9)
O2 O 0.63191(12) 0.98453(14) 0.51725(7)
O3 O 0.29137(13) 0.73065(13) 0.32402(8)
O4 O 0.28123(12) 0.99064(14) 0.31465(8)
O5 O 0.20836(13) 0.71616(14) 0.19356(8)
O6 O 0.23034(11) 0.98184(14) 0.18481(8)
O7 O 0.36415(13) 0.74432(15) 0.49599(8)
O8 O 0.17153(11) 0.84200(15) 0.41295(9)
O9 O 0.30652(10) 0.66236(15) 0.58324(8)
O10 O 0.11829(13) 0.75165(15) 0.50112(8)
O11 O 0.02985(11) 0.60090(14) 0.58390(9)
O12 O -0.12324(12) 0.53907(14) 0.49613(8)
C1 C 0.53660(15) 0.9641(2) 0.48368(10)
C2 C 0.25013(11) 0.7775(2) 0.25526(8)
C3 C 0.25413(11) 0.9301(2) 0.25076(7)
C4 C 0.29502(15) 0.72373(19) 0.52134(11)
C5 C 0.18516(16) 0.77849(19) 0.47325(11)
C6 C -0.02814(16) 0.53980(19) 0.52218(10)
N1 N 0.58425(16) 0.74389(19) 0.34620(11)
H1 H 0.55900 0.80080 0.37930
C7 C 0.5147(2) 0.7675(3) 0.26272(15)
H2 H 0.51130 0.86310 0.25280
H3 H 0.44470 0.73790 0.25550
C8 C 0.5453(2) 0.7005(3) 0.20191(15)
H4 H 0.49530 0.72170 0.14920
H5 H 0.61370 0.73090 0.20720
H6 H 0.54690 0.60540 0.20990
C9 C 0.6933(2) 0.7817(3) 0.36467(16)
H7 H 0.72170 0.72570 0.33390
H8 H 0.73410 0.76560 0.42120
C10 C 0.7042(3) 0.9246(4) 0.3461(2)
H9 H 0.77690 0.94480 0.35910
H10 H 0.66520 0.94070 0.29000
H11 H 0.67760 0.98060 0.37720
C11 C 0.5764(4) 0.6052(3) 0.3700(2)
H12 H 0.57100 0.55050 0.32410
H13 H 0.64390 0.58440 0.41190
C12 C 0.5066(4) 0.5589(5) 0.3951(3)
H14 H 0.51880 0.46520 0.40670
H15 H 0.51160 0.60580 0.44300
H16 H 0.43790 0.57150 0.35430
H17? H 0.51130 0.56740 0.33240
H18? H 0.63360 0.55420 0.36530
C13? C 0.5789(5) 0.5890(6) 0.4456(4)
H19? H 0.57330 0.49560 0.45580
H20? H 0.64390 0.62350 0.48380
H21? H 0.52140 0.63660 0.45080
N2 N -0.07547(15) 0.74746(19) 0.65662(11)
H22 H -0.04370 0.68790 0.62910
C14 C -0.01733(19) 0.7270(3) 0.74320(15)
H23 H 0.05490 0.75410 0.75670
H24 H -0.01710 0.63220 0.75470
C15 C -0.0592(2) 0.8002(3) 0.79552(14)
H25 H -0.01690 0.78130 0.85080
H26 H -0.05790 0.89450 0.78600
H27 H -0.13010 0.77230 0.78390
C16 C -0.1858(2) 0.7108(3) 0.62892(15)
H28 H -0.21750 0.72050 0.57100
H29 H -0.22110 0.77210 0.65200
C17 C -0.2026(3) 0.5720(4) 0.6505(3)
H30 H -0.27650 0.55360 0.63070
H31 H -0.16930 0.51050 0.62680
H32 H -0.17290 0.56210 0.70780
C18 C -0.0592(4) 0.8845(2) 0.63451(18)
H33 H -0.10350 0.94470 0.64990
H34 H 0.01320 0.90980 0.66470
C19 C -0.0820(3) 0.9017(3) 0.5497(2)
H35 H -0.06980 0.99310 0.53940
H36 H -0.03730 0.84420 0.53420
H37 H -0.15410 0.87910 0.51930
H38? H -0.12900 0.91290 0.59950
H39? H -0.04360 0.93430 0.68390
C20? C -0.0045(8) 0.9349(9) 0.6057(6)
H40? H -0.01750 1.02950 0.60070
H41? H 0.06760 0.91900 0.63940
H42? H -0.01920 0.89720 0.55350
O1B O 0.50485(12) 1.10971(15) 0.57382(9)
O2B O 0.36809(12) 1.01547(14) 0.48275(7)
C1B C 0.46340(15) 1.0359(2) 0.51632(10)
O11B O -0.02985(11) 0.39910(14) 0.41610(9)
O12B O 0.12324(12) 0.46093(14) 0.50387(8)
C6B C 0.02814(16) 0.46020(19) 0.47782(10)
Cu1B Cu -0.32599(2) 0.13138(3) 0.59467(2)
Cu2B Cu -0.17245(2) 0.36498(3) 0.40751(2)
O3B O -0.29137(13) 0.26935(13) 0.67598(8)
O4B O -0.28123(12) 0.00936(14) 0.68535(8)
O5B O -0.20836(13) 0.28384(14) 0.80644(8)
O6B O -0.23034(11) 0.01816(14) 0.81519(8)
O7B O -0.36415(13) 0.25568(15) 0.50401(8)
O8B O -0.17153(11) 0.15800(15) 0.58705(9)
O9B O -0.30652(10) 0.33764(15) 0.41676(8)
O10B O -0.11829(13) 0.24835(15) 0.49888(8)
C2B C -0.25013(11) 0.2225(2) 0.74474(8)
C3B C -0.25413(11) 0.0699(2) 0.74924(7)
C4B C -0.29502(15) 0.27627(19) 0.47866(11)
C5B C -0.18516(16) 0.22151(19) 0.52675(11)
Cu1B* Cu 0.67401(2) 1.13138(3) 0.59467(2)
Cu2A Cu -0.17245(2) 0.13502(3) 0.90751(2)
Cu2C Cu 0.17245(2) 0.86498(3) 0.09249(2)
O1B* O -0.49515(12) 0.10971(15) 0.57382(9)
O2* O -0.36809(12) -0.01547(14) 0.51725(7)
O5A O -0.20836(13) 0.21616(14) 0.30644(8)
O5C O 0.20836(13) 0.78384(14) 0.69356(8)
O6A O -0.23034(11) 0.48184(14) 0.31519(8)
O6C O 0.23034(11) 0.51816(14) 0.68481(8)
#END
