
#######################################################################
#
#                 Cambridge Crystallographic Data Centre
#                                CCDC
#
#######################################################################
#
# If this CIF has been generated from an entry in the Cambridge
# Structural Database, then it will include bibliographic, chemical,
# crystal, experimental, refinement or atomic coordinate data resulting
# from the CCDC's data processing and validation procedures.
#
#######################################################################

data_CSD_CIF_KEDJAG19
_audit_creation_date 2017-04-26
_audit_creation_method CSD-ConQuest-V1
_database_code_CSD KEDJAG19
_database_code_depnum_ccdc_archive 'CCDC 1019164'
_chemical_formula_sum 'C36 H64 Cu4 N4 O24'
_chemical_formula_moiety
;
(C12 Cu4 O24 4-)n,4(C6 H16 N1 1+)
;
_journal_coden_Cambridge 1078
_journal_year 2017
_journal_name_full 'CSD Communication(Private Communication) '
loop_
_publ_author_name
"Zhang Bin"
_chemical_name_systematic
;
catena-(tetrakis(Triethylammonium) hexakis(\m~2~-oxalato)-tetra-copper)
;
_cell_volume   2463.075
_exptl_crystal_colour 'blue'
_exptl_crystal_density_diffrn 1.606
_exptl_crystal_description 'diamond'
_diffrn_ambient_temperature 200
_refine_special_details
;
C112,C122 and C111,C121 disordered over two sites with occupancies 
0.573:0.427; C181 and C182 disordered over two sites with occupancies 
0.633:0.367.
;
#These two values have been output from a single CSD field.
_refine_ls_R_factor_gt 0.0315
_refine_ls_wR_factor_gt 0.0315
_symmetry_cell_setting monoclinic
_symmetry_space_group_name_H-M 'P 21/c'
_symmetry_Int_Tables_number 14
loop_
_symmetry_equiv_pos_site_id
_symmetry_equiv_pos_as_xyz
1 x,y,z
2 -x,1/2+y,1/2-z
3 -x,-y,-z
4 x,-1/2-y,-1/2+z
_cell_length_a 8.7595(1)
_cell_length_b 33.9181(4)
_cell_length_c 8.7069(1)
_cell_angle_alpha 90
_cell_angle_beta 107.7970(4)
_cell_angle_gamma 90
_cell_formula_units_Z 2
loop_
_atom_type_symbol
_atom_type_radius_bond
C 0.68
H 0.23
Cu 1.32
N 0.68
O 0.68
loop_
_atom_site_label
_atom_site_type_symbol
_atom_site_fract_x
_atom_site_fract_y
_atom_site_fract_z
Cu1 Cu 0.75070(3) 0.20365(2) 0.48696(3)
Cu2 Cu 0.74064(3) 0.04578(2) 0.49983(3)
O1 O 0.89358(18) 0.15458(4) 0.61545(17)
O2 O 0.85480(18) 0.09030(4) 0.62915(17)
O3 O 0.62199(18) 0.15987(4) 0.36456(18)
O4 O 0.61443(18) 0.09458(4) 0.34734(19)
O5 O 0.62426(18) 0.20703(4) 0.65006(18)
O6 O 0.5964(2) 0.24928(5) 0.8341(2)
O7 O 0.87783(18) 0.24607(4) 0.62425(19)
O8 O 0.86467(19) 0.28772(4) 0.81699(19)
O9 O 0.90925(18) 0.04029(4) 0.38151(18)
O10 O 1.0910(2) -0.00140(5) 0.34773(19)
O11 O 0.57204(18) 0.04137(4) 0.61768(18)
O12 O 0.38073(18) -0.00090(4) 0.62738(18)
C1 C 0.8201(2) 0.12364(6) 0.5659(2)
C2 C 0.6716(2) 0.12600(6) 0.4119(2)
C3 C 0.8164(2) 0.25897(6) 0.7270(2)
C4 C 0.6657(2) 0.23688(6) 0.7407(2)
C5 C 1.0016(2) 0.01092(6) 0.4214(2)
C6 C 0.4862(2) 0.01178(6) 0.5710(2)
N1 N 0.9050(2) 0.07828(6) 0.0968(2)
H1 H 0.91460 0.06290 0.19730
C7 C 0.9045(4) 0.12099(8) 0.1373(3)
H2 H 1.00180 0.12680 0.22830
H3 H 0.81040 0.12630 0.17460
C8 C 0.8995(4) 0.14871(8) 0.0013(3)
H4 H 0.89940 0.17600 0.03850
H5 H 0.99370 0.14430 -0.03470
H6 H 0.80190 0.14390 -0.08860
C9 C 1.0410(4) 0.06656(8) 0.0371(4)
H7 H 1.02830 0.07970 -0.06760
H8 H 1.03610 0.03780 0.01790
C10 C 1.2021(4) 0.07678(11) 0.1511(5)
H9 H 1.28580 0.06840 0.10510
H10 H 1.20900 0.10530 0.16860
H11 H 1.21680 0.06330 0.25420
C11 C 0.7618(12) 0.0622(3) -0.0353(10)
H12 H 0.67190 0.08100 -0.05140
H13 H 0.79010 0.06130 -0.13690
C12 C 0.7085(9) 0.02530(19) -0.0087(6)
H14 H 0.61650 0.01780 -0.10070
H15 H 0.79490 0.00610 0.00380
H16 H 0.67630 0.02580 0.08960
H17? H 0.92570 0.06430 0.20230
C13? C 0.7339(14) 0.0695(3) 0.0076(11)
H18? H 0.68560 0.09610 -0.00250
H19? H 0.74030 0.06340 -0.10150
C14? C 0.6308(11) 0.0506(4) 0.0120(8)
H20? H 0.53770 0.05630 -0.08150
H21? H 0.66010 0.02280 0.01020
H22? H 0.60420 0.05610 0.11130
N2 N 0.3423(2) 0.17176(6) 0.6598(2)
H23 H 0.44300 0.18680 0.66910
C15 C 0.2941(3) 0.18213(9) 0.8048(3)
H24 H 0.19110 0.16900 0.79700
H25 H 0.27660 0.21100 0.80560
C16 C 0.4170(4) 0.17034(12) 0.9618(4)
H26 H 0.37860 0.17790 1.05230
H27 H 0.43320 0.14170 0.96320
H28 H 0.51870 0.18370 0.97180
C17 C 0.3820(3) 0.12908(8) 0.6492(4)
H29 H 0.47550 0.12240 0.74300
H30 H 0.41390 0.12510 0.55060
C18 C 0.2476(3) 0.10112(8) 0.6452(5)
H31 H 0.28320 0.07400 0.63820
H32 H 0.21700 0.10430 0.74370
H33 H 0.15530 0.10690 0.55100
C19 C 0.2186(3) 0.18694(10) 0.5117(3)
H34 H 0.12680 0.16840 0.48600
H35 H 0.17950 0.21250 0.54000
C20 C 0.2605(5) 0.19275(17) 0.3687(6)
H36 H 0.16730 0.20270 0.28350
H37 H 0.34810 0.21190 0.38900
H38 H 0.29510 0.16760 0.33460
H39? H 0.21720 0.16930 0.42080
H40? H 0.11240 0.18480 0.52920
C21? C 0.2362(9) 0.2242(3) 0.4666(13)
H41? H 0.14860 0.23060 0.36890
H42? H 0.23380 0.24230 0.55330
H43? H 0.33900 0.22670 0.44450
O9B O 1.09075(18) -0.04029(4) 0.61849(18)
O10B O 0.9090(2) 0.00140(5) 0.65227(19)
C5B C 0.9984(2) -0.01092(6) 0.5786(2)
O11B O 0.42796(18) -0.04137(4) 0.38232(18)
O12B O 0.61927(18) 0.00090(4) 0.37262(18)
C6B C 0.5138(2) -0.01178(6) 0.4290(2)
Cu1B Cu 0.24930(3) -0.20365(2) 0.51304(3)
Cu2B Cu 0.25936(3) -0.04578(2) 0.50017(3)
O1B O 0.10642(18) -0.15458(4) 0.38455(17)
O2B O 0.14520(18) -0.09030(4) 0.37085(17)
O3B O 0.37801(18) -0.15987(4) 0.63544(18)
O4B O 0.38557(18) -0.09458(4) 0.65266(19)
O5B O 0.37574(18) -0.20703(4) 0.34994(18)
O6B O 0.4036(2) -0.24928(5) 0.1659(2)
O7B O 0.12217(18) -0.24607(4) 0.37575(19)
O8B O 0.13533(19) -0.28772(4) 0.18301(19)
C1B C 0.1799(2) -0.12364(6) 0.4341(2)
C2B C 0.3284(2) -0.12600(6) 0.5881(2)
C3B C 0.1836(2) -0.25897(6) 0.2730(2)
C4B C 0.3343(2) -0.23688(6) 0.2593(2)
Cu1A Cu 0.24930(3) -0.29635(2) 0.01304(3)
Cu1C Cu 0.75070(3) 0.29635(2) 0.98696(3)
Cu2B* Cu 1.25936(3) -0.04578(2) 0.50017(3)
O6A O 0.4036(2) -0.25072(5) 0.6659(2)
O6C O 0.5964(2) 0.25072(5) 0.3341(2)
O8A O 0.13533(19) -0.21228(4) 0.68301(19)
O8C O 0.86467(19) 0.21228(4) 0.31699(19)
O9B* O 0.09075(18) -0.04029(4) 0.61849(18)
O10* O 0.0910(2) -0.00140(5) 0.34773(19)
#END
