
#######################################################################
#
#                 Cambridge Crystallographic Data Centre
#                                CCDC
#
#######################################################################
#
# If this CIF has been generated from an entry in the Cambridge
# Structural Database, then it will include bibliographic, chemical,
# crystal, experimental, refinement or atomic coordinate data resulting
# from the CCDC's data processing and validation procedures.
#
#######################################################################

data_CSD_CIF_KEDJAG03
_audit_creation_date 2012-09-12
_audit_creation_method CSD-ConQuest-V1
_database_code_CSD KEDJAG03
_database_code_depnum_ccdc_archive 'CCDC 852906'
_chemical_formula_sum 'C36 H64 Cu4 N4 O24'
_chemical_formula_moiety
;
(C12 Cu4 O24 4-)n,4n(C6 H16 N1 1+)
;
_journal_coden_Cambridge 222
_journal_volume 41
_journal_year 2012
_journal_page_first 8509
_journal_name_full 'Dalton Trans. '
loop_
_publ_author_name
"Bin Zhang"
"Yan Zhang"
"Daoben Zhu"
_chemical_name_systematic
;
catena-(tetrakis(Triethylammonium) hexakis(\m~2~-oxalato)-tetra-copper)
;
_cell_volume   2498.477
_exptl_crystal_colour 'blue'
_exptl_crystal_density_diffrn 1.583
_exptl_crystal_description 'diamondoid'
_diffrn_ambient_temperature 293
_refine_special_details
;
C112 and C111 disordered over two sites with occupancies 0.55:0.45; C121 and 
C122 disordered over two sites with occupancies 0.51:0.49; C181 and C182 
disordered over two sites with occupancies 0.615:0.385.
;
#These two values have been output from a single CSD field.
_refine_ls_R_factor_gt 0.0325
_refine_ls_wR_factor_gt 0.0325
_symmetry_cell_setting monoclinic
_symmetry_space_group_name_H-M 'P 21/c'
_symmetry_Int_Tables_number 14
loop_
_symmetry_equiv_pos_site_id
_symmetry_equiv_pos_as_xyz
1 x,y,z
2 -x,1/2+y,1/2-z
3 -x,-y,-z
4 x,-1/2-y,-1/2+z
_cell_length_a 8.8294(1)
_cell_length_b 33.7719(4)
_cell_length_c 8.8052(1)
_cell_angle_alpha 90
_cell_angle_beta 107.901(1)
_cell_angle_gamma 90
_cell_formula_units_Z 2
loop_
_atom_type_symbol
_atom_type_radius_bond
C 0.68
H 0.23
Cu 1.32
N 0.68
O 0.68
loop_
_atom_site_label
_atom_site_type_symbol
_atom_site_fract_x
_atom_site_fract_y
_atom_site_fract_z
Cu1 Cu 0.74696(3) 0.204056(8) 0.49762(3)
Cu2 Cu 0.74245(3) 0.045688(8) 0.50213(3)
O1 O 0.88655(19) 0.15532(4) 0.62326(17)
O2 O 0.85720(18) 0.09044(4) 0.63137(17)
O3 O 0.6182(2) 0.15975(5) 0.37507(18)
O4 O 0.61566(19) 0.09430(5) 0.35658(19)
O5 O 0.61971(18) 0.20803(5) 0.66086(18)
O6 O 0.5986(2) 0.24970(5) 0.8471(2)
O7 O 0.87458(19) 0.24621(5) 0.63821(19)
O8 O 0.86357(19) 0.28758(5) 0.82979(19)
O9 O 0.91069(19) 0.04012(5) 0.38113(18)
O10 O 1.0920(2) -0.00176(5) 0.35085(19)
O11 O 0.57550(19) 0.04031(5) 0.62238(19)
O12 O 0.38242(19) -0.00149(5) 0.62604(18)
C1 C 0.8187(3) 0.12392(6) 0.5723(2)
C2 C 0.6699(3) 0.12601(7) 0.4203(3)
C3 C 0.8145(3) 0.25919(6) 0.7389(3)
C4 C 0.6647(2) 0.23731(7) 0.7520(3)
C5 C 1.0023(3) 0.01086(6) 0.4224(2)
C6 C 0.4880(3) 0.01140(6) 0.5719(2)
N1 N 0.9096(3) 0.07731(6) 0.0980(2)
H1 H 0.92650 0.06380 0.19120
C7 C 0.9017(4) 0.11985(8) 0.1417(3)
H2 H 0.99380 0.12590 0.23230
H3 H 0.80780 0.12370 0.17520
C8 C 0.8961(5) 0.14864(8) 0.0099(3)
H4 H 0.89010 0.17520 0.04690
H5 H 0.80420 0.14330 -0.07990
H6 H 0.99050 0.14580 -0.02150
C9 C 1.0495(4) 0.06745(9) 0.0424(4)
H7 H 1.04660 0.03940 0.01810
H8 H 1.03950 0.08180 -0.05560
C10 C 1.2055(4) 0.07690(13) 0.1591(5)
H9 H 1.28890 0.06990 0.11530
H10 H 1.21810 0.06220 0.25560
H11 H 1.21090 0.10470 0.18210
C11 C 0.7772(19) 0.0591(5) -0.0367(16)
H12 H 0.74890 0.07700 -0.12730
C12 C 0.702(2) 0.0262(5) 0.0007(12)
H13 H 0.61570 0.01990 -0.09360
H14 H 0.67190 0.01930 0.09350
H15 H 0.79470 0.01150 0.00050
N2 N 0.3397(2) 0.17202(6) 0.6722(2)
H16 H 0.42990 0.18620 0.68220
C13 C 0.2910(4) 0.18146(10) 0.8154(4)
H17 H 0.19280 0.16750 0.80760
H18 H 0.26940 0.20960 0.81570
C14 C 0.4129(5) 0.17070(13) 0.9709(4)
H19 H 0.37320 0.17740 1.05760
H20 H 0.50950 0.18510 0.98160
H21 H 0.43390 0.14280 0.97270
C15 C 0.3821(3) 0.12949(9) 0.6590(4)
H22 H 0.41390 0.12630 0.56350
H23 H 0.47320 0.12290 0.74980
C16 C 0.2510(4) 0.10083(9) 0.6521(5)
H24 H 0.28680 0.07440 0.64250
H25 H 0.16060 0.10680 0.56150
H26 H 0.22130 0.10300 0.74790
C17 C 0.2175(4) 0.18760(12) 0.5267(4)
H27 H 0.12700 0.16980 0.50210
H28 H 0.18150 0.21290 0.55440
C18 C 0.2586(6) 0.1930(3) 0.3860(7)
H29 H 0.16810 0.20280 0.30320
H30 H 0.29180 0.16820 0.35360
H31 H 0.34420 0.21170 0.40510
H32? H 0.81410 0.03450 -0.07000
C19? C 0.736(2) 0.0690(6) 0.003(2)
C20? C 0.6351(13) 0.0513(6) 0.0147(9)
C21? C 0.2355(11) 0.2260(5) 0.486(2)
H33? H 0.66630 0.08310 0.05130
H34? H 0.71450 0.07850 -0.10530
H35? H 0.54380 0.04780 -0.07750
H36? H 0.61750 0.07330 0.07620
H37? H 0.65210 0.02770 0.07880
H38? H 0.21570 0.17000 0.43520
H39? H 0.11110 0.18560 0.54480
H40? H 0.15040 0.23290 0.39160
H41? H 0.33550 0.22880 0.46470
H42? H 0.23340 0.24320 0.57160
Cu1C Cu 0.74696(3) 0.295944(8) 0.99762(3)
Cu1B Cu 0.25304(3) -0.204056(8) 0.50238(3)
Cu1A Cu 0.25304(3) -0.295944(8) 0.00238(3)
Cu2B Cu 1.25755(3) -0.045688(8) 0.49787(3)
Cu2B* Cu 0.25755(3) -0.045688(8) 0.49787(3)
O1B O 0.11345(19) -0.15532(4) 0.37674(17)
O2B O 0.14280(18) -0.09044(4) 0.36863(17)
O3B O 0.3818(2) -0.15975(5) 0.62493(18)
O4B O 0.38434(19) -0.09430(5) 0.64342(19)
O5B O 0.38029(18) -0.20803(5) 0.33914(18)
O6C O 0.5986(2) 0.25030(5) 0.3471(2)
O6A O 0.4014(2) -0.25030(5) 0.6529(2)
O6B O 0.4014(2) -0.24970(5) 0.1529(2)
O7B O 0.12542(19) -0.24621(5) 0.36179(19)
O8C O 0.86357(19) 0.21242(5) 0.32979(19)
O8A O 0.13643(19) -0.21242(5) 0.67021(19)
O8B O 0.13643(19) -0.28758(5) 0.17021(19)
O9B O 1.08931(19) -0.04012(5) 0.61887(18)
O9B* O 0.08931(19) -0.04012(5) 0.61887(18)
O10B O 0.9080(2) 0.00176(5) 0.64915(19)
O10* O 0.0920(2) -0.00176(5) 0.35085(19)
O11B O 0.42450(19) -0.04031(5) 0.37762(19)
O12B O 0.61758(19) 0.00149(5) 0.37396(18)
C1B C 0.1813(3) -0.12392(6) 0.4277(2)
C2B C 0.3301(3) -0.12601(7) 0.5797(3)
C3B C 0.1855(3) -0.25919(6) 0.2611(3)
C4B C 0.3353(2) -0.23731(7) 0.2480(3)
C5B C 0.9977(3) -0.01086(6) 0.5776(2)
C6B C 0.5120(3) -0.01140(6) 0.4281(2)
#END
