
#######################################################################
#
#                 Cambridge Crystallographic Data Centre
#                                CCDC
#
#######################################################################
#
# If this CIF has been generated from an entry in the Cambridge
# Structural Database, then it will include bibliographic, chemical,
# crystal, experimental, refinement or atomic coordinate data resulting
# from the CCDC's data processing and validation procedures.
#
#######################################################################

data_CSD_CIF_KEDJAG
_audit_creation_date 2012-09-12
_audit_creation_method CSD-ConQuest-V1
_database_code_CSD KEDJAG
_database_code_depnum_ccdc_archive 'CCDC 852903'
_chemical_formula_sum 'C36 H64 Cu4 N4 O24'
_chemical_formula_moiety
;
(C12 Cu4 O24 4-)n,4n(C6 H16 N1 1+)
;
_journal_coden_Cambridge 222
_journal_volume 41
_journal_year 2012
_journal_page_first 8509
_journal_name_full 'Dalton Trans. '
loop_
_publ_author_name
"Bin Zhang"
"Yan Zhang"
"Daoben Zhu"
_chemical_name_systematic
;
catena-(tetrakis(Triethylammonium) hexakis(\m~2~-oxalato)-tetra-copper)
;
_cell_volume   2437.070
_exptl_crystal_colour 'blue'
_exptl_crystal_density_diffrn 1.623
_exptl_crystal_description 'diamondoid'
_diffrn_ambient_temperature 135
_refine_special_details
;
C181 and C182 disordered over two sites with occupancies 0.614:0.386.

;
#These two values have been output from a single CSD field.
_refine_ls_R_factor_gt 0.0308
_refine_ls_wR_factor_gt 0.0308
_symmetry_cell_setting monoclinic
_symmetry_space_group_name_H-M 'P 21/c'
_symmetry_Int_Tables_number 14
loop_
_symmetry_equiv_pos_site_id
_symmetry_equiv_pos_as_xyz
1 x,y,z
2 -x,1/2+y,1/2-z
3 -x,-y,-z
4 x,-1/2-y,-1/2+z
_cell_length_a 8.6987(1)
_cell_length_b 34.1408(4)
_cell_length_c 8.6081(1)
_cell_angle_alpha 90
_cell_angle_beta 107.578(1)
_cell_angle_gamma 90
_cell_formula_units_Z 2
loop_
_atom_type_symbol
_atom_type_radius_bond
C 0.68
H 0.23
Cu 1.32
N 0.68
O 0.68
loop_
_atom_site_label
_atom_site_type_symbol
_atom_site_fract_x
_atom_site_fract_y
_atom_site_fract_z
Cu1 Cu 0.74864(3) 0.203472(7) 0.48079(3)
Cu2 Cu 0.73785(3) 0.045530(7) 0.49830(3)
O1 O 0.89567(17) 0.15350(4) 0.61059(17)
O2 O 0.84818(17) 0.08995(4) 0.62829(16)
O3 O 0.62075(18) 0.16010(4) 0.35884(17)
O4 O 0.61147(18) 0.09516(4) 0.33753(17)
O5 O 0.62359(18) 0.20581(4) 0.64185(17)
O6 O 0.58664(19) 0.24810(5) 0.82434(19)
O7 O 0.87410(18) 0.24625(4) 0.61530(18)
O8 O 0.85791(18) 0.28752(4) 0.80976(17)
O9 O 0.90589(17) 0.04080(4) 0.38507(17)
O10 O 1.08851(19) 0.00016(4) 0.34265(18)
O11 O 0.56971(18) 0.04222(4) 0.61269(17)
O12 O 0.37848(18) 0.00003(4) 0.62778(17)
C1 C 0.8178(2) 0.12323(6) 0.5622(2)
C2 C 0.6695(2) 0.12595(6) 0.4053(2)
C3 C 0.8104(2) 0.25863(6) 0.7193(2)
C4 C 0.6600(2) 0.23616(6) 0.7323(2)
C5 C 0.9999(2) 0.01136(6) 0.4211(2)
C6 C 0.4849(2) 0.01226(6) 0.5695(2)
N1 N 0.8972(2) 0.08001(5) 0.0983(2)
H1 H 0.91250 0.06710 0.19700
C7 C 0.9018(3) 0.12313(7) 0.1360(3)
H2 H 1.00120 0.12880 0.22590
H3 H 0.80870 0.12960 0.17480
C8 C 0.8976(4) 0.14930(7) -0.0067(3)
H4 H 0.89140 0.17670 0.02440
H5 H 0.80290 0.14290 -0.09880
H6 H 0.99560 0.14530 -0.03820
C9 C 1.0301(3) 0.06663(7) 0.0337(3)
H7 H 1.01390 0.07830 -0.07530
H8 H 1.02390 0.03780 0.02050
C10 C 1.1955(3) 0.07746(8) 0.1422(4)
H9 H 1.27660 0.06950 0.09030
H10 H 1.21640 0.06410 0.24730
H11 H 1.20140 0.10590 0.15960
C11 C 0.7332(3) 0.06829(8) -0.0084(3)
H12 H 0.65050 0.08110 0.03190
H13 H 0.71900 0.07780 -0.12040
C12 C 0.7065(4) 0.02501(9) -0.0133(3)
H14 H 0.61120 0.01850 -0.10460
H15 H 0.68970 0.01640 0.08900
H16 H 0.80120 0.01170 -0.02760
N2 N 0.3394(2) 0.17095(6) 0.6497(2)
H17 H 0.43400 0.18460 0.65740
C13 C 0.2936(3) 0.18127(8) 0.7986(3)
H18 H 0.18920 0.16870 0.79180
H19 H 0.27870 0.21000 0.80130
C14 C 0.4176(4) 0.16865(11) 0.9551(3)
H20 H 0.37930 0.17530 1.04790
H21 H 0.51970 0.18220 0.96610
H22 H 0.43430 0.14030 0.95280
C15 C 0.3770(3) 0.12858(7) 0.6368(4)
H23 H 0.47300 0.12180 0.72890
H24 H 0.40520 0.12450 0.53490
C16 C 0.2416(3) 0.10088(8) 0.6376(4)
H25 H 0.27550 0.07390 0.62790
H26 H 0.14640 0.10700 0.54560
H27 H 0.21510 0.10390 0.73990
C17 C 0.2149(4) 0.18636(10) 0.5010(3)
H28 H 0.12280 0.16790 0.47500
H29 H 0.17540 0.21150 0.53160
C18 C 0.2544(5) 0.19291(13) 0.3549(5)
H30 H 0.15950 0.20300 0.27100
H31 H 0.28880 0.16820 0.31770
H32 H 0.34210 0.21210 0.37490
C19? C 0.2338(8) 0.2235(2) 0.4564(10)
H33? H 0.21300 0.16870 0.40950
H34? H 0.10850 0.18440 0.51900
H35? H 0.14510 0.23020 0.35900
H36? H 0.33660 0.22580 0.43230
H37? H 0.23330 0.24140 0.54530
Cu1B Cu 0.25136(3) -0.203472(7) 0.51921(3)
Cu1A Cu 0.25136(3) -0.296528(7) 0.01921(3)
Cu1C Cu 0.74864(3) 0.296528(7) 0.98079(3)
Cu2B Cu 0.26215(3) -0.045530(7) 0.50170(3)
Cu2B* Cu 1.26215(3) -0.045530(7) 0.50170(3)
O1B O 0.10433(17) -0.15350(4) 0.38941(17)
O2B O 0.15182(17) -0.08995(4) 0.37171(16)
O3B O 0.37925(18) -0.16010(4) 0.64116(17)
O4B O 0.38853(18) -0.09516(4) 0.66247(17)
O5B O 0.37641(18) -0.20581(4) 0.35815(17)
O6B O 0.41336(19) -0.24810(5) 0.17566(19)
O6A O 0.41336(19) -0.25190(5) 0.67566(19)
O6C O 0.58664(19) 0.25190(5) 0.32434(19)
O7B O 0.12590(18) -0.24625(4) 0.38470(18)
O8B O 0.14209(18) -0.28752(4) 0.19024(17)
O8A O 0.14209(18) -0.21248(4) 0.69024(17)
O8C O 0.85791(18) 0.21248(4) 0.30976(17)
O9B O 1.09411(17) -0.04080(4) 0.61493(17)
O9B* O 0.09411(17) -0.04080(4) 0.61493(17)
O10B O 0.91149(19) -0.00016(4) 0.65735(18)
O10* O 0.08851(19) 0.00016(4) 0.34265(18)
O11B O 0.43029(18) -0.04222(4) 0.38731(17)
O12B O 0.62152(18) -0.00003(4) 0.37222(17)
C1B C 0.1822(2) -0.12323(6) 0.4378(2)
C2B C 0.3305(2) -0.12595(6) 0.5947(2)
C3B C 0.1896(2) -0.25863(6) 0.2807(2)
C4B C 0.3400(2) -0.23616(6) 0.2677(2)
C5B C 1.0001(2) -0.01136(6) 0.5789(2)
C6B C 0.5151(2) -0.01226(6) 0.4305(2)
#END
