
#######################################################################
#
#                 Cambridge Crystallographic Data Centre
#                                CCDC
#
#######################################################################
#
# If this CIF has been generated from an entry in the Cambridge
# Structural Database, then it will include bibliographic, chemical,
# crystal, experimental, refinement or atomic coordinate data resulting
# from the CCDC's data processing and validation procedures.
#
#######################################################################

data_CSD_CIF_KEDJAG25
_audit_creation_date 2017-04-26
_audit_creation_method CSD-ConQuest-V1
_database_code_CSD KEDJAG25
_database_code_depnum_ccdc_archive 'CCDC 1537590'
_chemical_formula_sum 'C36 H64 Cu4 N4 O24'
_chemical_formula_moiety
;
(C12 Cu4 O24 4-)n,4(C6 H16 N1 1+)
;
_journal_coden_Cambridge 1078
_journal_year 2017
_journal_name_full 'CSD Communication(Private Communication) '
loop_
_publ_author_name
"Zhang Bin"
_chemical_name_systematic
;
catena-(tetrakis(Triethylammonium) hexakis(\m~2~-oxalato)-tetra-copper)
;
_cell_volume   2498.477
_exptl_crystal_colour 'blue'
_exptl_crystal_density_diffrn 1.583
_exptl_crystal_description 'diamond'
_diffrn_ambient_temperature 293
_refine_special_details
;
C112,C122 and C111,C121 disordered over two sites with occupancies 
0.513:0.487; C181 and C182 disordered over two sites with occupancies 
0.613:0.387.
;
#These two values have been output from a single CSD field.
_refine_ls_R_factor_gt 0.0324
_refine_ls_wR_factor_gt 0.0324
_symmetry_cell_setting monoclinic
_symmetry_space_group_name_H-M 'P 21/c'
_symmetry_Int_Tables_number 14
loop_
_symmetry_equiv_pos_site_id
_symmetry_equiv_pos_as_xyz
1 x,y,z
2 -x,1/2+y,1/2-z
3 -x,-y,-z
4 x,-1/2-y,-1/2+z
_cell_length_a 8.8294(1)
_cell_length_b 33.7719(4)
_cell_length_c 8.8052(1)
_cell_angle_alpha 90
_cell_angle_beta 107.901(1)
_cell_angle_gamma 90
_cell_formula_units_Z 2
loop_
_atom_type_symbol
_atom_type_radius_bond
C 0.68
H 0.23
Cu 1.32
N 0.68
O 0.68
loop_
_atom_site_label
_atom_site_type_symbol
_atom_site_fract_x
_atom_site_fract_y
_atom_site_fract_z
Cu1 Cu 0.74697(3) 0.20406(2) 0.49762(3)
Cu2 Cu 0.74245(3) 0.04569(2) 0.50213(3)
O1 O 0.88646(18) 0.15533(4) 0.62327(17)
O2 O 0.85721(18) 0.09045(4) 0.63135(17)
O3 O 0.61824(19) 0.15976(5) 0.37513(18)
O4 O 0.61562(19) 0.09430(5) 0.35651(19)
O5 O 0.61971(18) 0.20802(5) 0.66085(18)
O6 O 0.5985(2) 0.24970(5) 0.8470(2)
O7 O 0.87460(18) 0.24618(5) 0.63822(19)
O8 O 0.86365(19) 0.28759(5) 0.82974(18)
O9 O 0.91075(19) 0.04012(5) 0.38118(18)
O10 O 1.0920(2) -0.00177(5) 0.35078(19)
O11 O 0.57543(19) 0.04032(5) 0.62236(18)
O12 O 0.38241(19) -0.00148(5) 0.62598(18)
C1 C 0.8187(3) 0.12393(6) 0.5722(2)
C2 C 0.6699(3) 0.12604(7) 0.4203(2)
C3 C 0.8145(3) 0.25919(6) 0.7388(2)
C4 C 0.6647(2) 0.23729(7) 0.7521(2)
C5 C 1.0022(3) 0.01086(6) 0.4225(2)
C6 C 0.4880(3) 0.01139(6) 0.5718(2)
N1 N 0.9095(3) 0.07730(6) 0.0980(2)
H1 H 0.92760 0.06270 0.19820
C7 C 0.9016(4) 0.11984(8) 0.1417(3)
H2 H 0.99360 0.12580 0.23240
H3 H 0.80750 0.12370 0.17480
C8 C 0.8965(5) 0.14863(8) 0.0100(3)
H4 H 0.89150 0.17520 0.04740
H5 H 0.99050 0.14560 -0.02180
H6 H 0.80410 0.14350 -0.07950
C9 C 1.0492(4) 0.06746(9) 0.0421(4)
H7 H 1.04620 0.03940 0.01760
H8 H 1.03920 0.08190 -0.05580
C10 C 1.2059(4) 0.07692(13) 0.1593(5)
H9 H 1.28930 0.06990 0.11550
H10 H 1.21140 0.10480 0.18230
H11 H 1.21850 0.06230 0.25580
C11 C 0.7787(15) 0.0588(4) -0.0378(13)
H12 H 0.74960 0.07670 -0.12850
H13 H 0.81640 0.03430 -0.07070
C12 C 0.6367(12) 0.0508(6) 0.0162(8)
H14 H 0.55390 0.03910 -0.06960
H15 H 0.66580 0.03290 0.10530
H16 H 0.59910 0.07520 0.04770
C13? C 0.7379(16) 0.0685(5) 0.0021(15)
H17? H 0.66710 0.08270 0.04800
H18? H 0.71820 0.07770 -0.10660
C14? C 0.703(2) 0.0258(4) 0.0007(11)
H19? H 0.59430 0.02110 -0.06060
H20? H 0.77190 0.01160 -0.04640
H21? H 0.72090 0.01670 0.10810
N2 N 0.3400(2) 0.17206(6) 0.6723(2)
H22 H 0.43720 0.18730 0.68310
C15 C 0.2912(4) 0.18144(9) 0.8156(4)
H23 H 0.19320 0.16740 0.80790
H24 H 0.26930 0.20960 0.81600
C16 C 0.4129(5) 0.17073(13) 0.9706(4)
H25 H 0.37360 0.17760 1.05740
H26 H 0.43340 0.14280 0.97270
H27 H 0.50970 0.18500 0.98080
C17 C 0.3823(3) 0.12951(8) 0.6590(4)
H28 H 0.47330 0.12290 0.74990
H29 H 0.41410 0.12630 0.56360
C18 C 0.2509(4) 0.10078(9) 0.6521(5)
H30 H 0.28720 0.07430 0.64370
H31 H 0.22040 0.10310 0.74730
H32 H 0.16100 0.10650 0.56080
C19 C 0.2176(4) 0.18767(12) 0.5270(4)
H33 H 0.12730 0.16980 0.50210
H34 H 0.18130 0.21300 0.55490
C20 C 0.2590(6) 0.1932(3) 0.3863(7)
H35 H 0.16890 0.20330 0.30390
H36 H 0.34530 0.21170 0.40610
H37 H 0.29100 0.16830 0.35300
H38? H 0.21780 0.17100 0.43730
H39? H 0.11400 0.18500 0.54250
C21? C 0.2349(10) 0.2263(5) 0.487(2)
H40? H 0.15030 0.23310 0.39210
H41? H 0.23130 0.24340 0.57260
H42? H 0.33540 0.22940 0.46700
O9B O 1.08925(19) -0.04012(5) 0.61882(18)
O10B O 0.9080(2) 0.00177(5) 0.64922(19)
C5B C 0.9978(3) -0.01086(6) 0.5775(2)
O11B O 0.42457(19) -0.04032(5) 0.37764(18)
O12B O 0.61759(19) 0.00148(5) 0.37402(18)
C6B C 0.5120(3) -0.01139(6) 0.4282(2)
Cu1B Cu 0.25303(3) -0.20406(2) 0.50238(3)
Cu2B Cu 0.25755(3) -0.04569(2) 0.49787(3)
O1B O 0.11354(18) -0.15533(4) 0.37673(17)
O2B O 0.14279(18) -0.09045(4) 0.36865(17)
O3B O 0.38176(19) -0.15976(5) 0.62487(18)
O4B O 0.38438(19) -0.09430(5) 0.64349(19)
O5B O 0.38029(18) -0.20802(5) 0.33915(18)
O6B O 0.4015(2) -0.24970(5) 0.1530(2)
O7B O 0.12540(18) -0.24618(5) 0.36178(19)
O8B O 0.13635(19) -0.28759(5) 0.17026(18)
C1B C 0.1813(3) -0.12393(6) 0.4278(2)
C2B C 0.3301(3) -0.12604(7) 0.5797(2)
C3B C 0.1855(3) -0.25919(6) 0.2612(2)
C4B C 0.3353(2) -0.23729(7) 0.2479(2)
Cu1A Cu 0.25303(3) -0.29594(2) 0.00238(3)
Cu1C Cu 0.74697(3) 0.29594(2) 0.99762(3)
Cu2B* Cu 1.25755(3) -0.04569(2) 0.49787(3)
O6A O 0.4015(2) -0.25030(5) 0.6530(2)
O6C O 0.5985(2) 0.25030(5) 0.3470(2)
O8A O 0.13635(19) -0.21241(5) 0.67026(18)
O8C O 0.86365(19) 0.21241(5) 0.32974(18)
O9B* O 0.08925(19) -0.04012(5) 0.61882(18)
O10* O 0.0920(2) -0.00177(5) 0.35078(19)
#END
