
#######################################################################
#
#                 Cambridge Crystallographic Data Centre
#                                CCDC
#
#######################################################################
#
# If this CIF has been generated from an entry in the Cambridge
# Structural Database, then it will include bibliographic, chemical,
# crystal, experimental, refinement or atomic coordinate data resulting
# from the CCDC's data processing and validation procedures.
#
#######################################################################

data_CSD_CIF_KEDJAG05
_audit_creation_date 2017-04-26
_audit_creation_method CSD-ConQuest-V1
_database_code_CSD KEDJAG05
_database_code_depnum_ccdc_archive 'CCDC 1019157'
_chemical_formula_sum 'C36 H64 Cu4 N4 O24'
_chemical_formula_moiety
;
(C12 Cu4 O24 4-)n,4(C6 H16 N1 1+)
;
_journal_coden_Cambridge 1078
_journal_year 2017
_journal_name_full 'CSD Communication(Private Communication) '
loop_
_publ_author_name
"Zhang Bin"
_chemical_name_systematic
;
catena-(tetrakis(Triethylammonium) hexakis(\m~2~-oxalato)-tetra-copper)
;
_cell_volume   2427.492
_exptl_crystal_colour 'blue'
_exptl_crystal_density_diffrn 1.63
_exptl_crystal_description 'diamond'
_diffrn_ambient_temperature 93
_refine_special_details
;
C181 and C182 disordered over two sites with occupancies 0.706:0.294.

;
#These two values have been output from a single CSD field.
_refine_ls_R_factor_gt 0.0285
_refine_ls_wR_factor_gt 0.0285
_symmetry_cell_setting monoclinic
_symmetry_space_group_name_H-M 'P 21/c'
_symmetry_Int_Tables_number 14
loop_
_symmetry_equiv_pos_site_id
_symmetry_equiv_pos_as_xyz
1 x,y,z
2 -x,1/2+y,1/2-z
3 -x,-y,-z
4 x,-1/2-y,-1/2+z
_cell_length_a 8.6817(1)
_cell_length_b 34.1802(4)
_cell_length_c 8.5822(1)
_cell_angle_alpha 90
_cell_angle_beta 107.600(1)
_cell_angle_gamma 90
_cell_formula_units_Z 2
loop_
_atom_type_symbol
_atom_type_radius_bond
C 0.68
H 0.23
Cu 1.32
N 0.68
O 0.68
loop_
_atom_site_label
_atom_site_type_symbol
_atom_site_fract_x
_atom_site_fract_y
_atom_site_fract_z
Cu1 Cu 0.74834(3) 0.20340(2) 0.47683(3)
Cu2 Cu 0.73752(3) 0.04554(2) 0.49820(3)
O1 O 0.89641(16) 0.15347(4) 0.60861(15)
O2 O 0.84718(16) 0.09008(4) 0.62851(15)
O3 O 0.62084(17) 0.15997(4) 0.35517(16)
O4 O 0.61138(16) 0.09504(4) 0.33491(16)
O5 O 0.62296(16) 0.20571(4) 0.63702(16)
O6 O 0.58458(17) 0.24812(4) 0.81910(17)
O7 O 0.87349(16) 0.24638(4) 0.61066(16)
O8 O 0.85708(16) 0.28757(4) 0.80574(16)
O9 O 0.90583(16) 0.04100(4) 0.38567(15)
O10 O 1.08819(17) 0.00027(4) 0.34173(16)
O11 O 0.56868(16) 0.04248(4) 0.61159(16)
O12 O 0.37760(16) 0.00027(4) 0.62768(16)
C1 C 0.8177(2) 0.12321(5) 0.5609(2)
C2 C 0.6695(2) 0.12590(5) 0.4028(2)
C3 C 0.8097(2) 0.25870(5) 0.7148(2)
C4 C 0.6586(2) 0.23608(5) 0.7275(2)
C5 C 0.9998(2) 0.01144(5) 0.4211(2)
C6 C 0.4845(2) 0.01237(5) 0.5691(2)
N1 N 0.8950(2) 0.08035(5) 0.09837(19)
H1 H 0.91240 0.06670 0.20550
C7 C 0.9011(3) 0.12355(6) 0.1342(2)
H2 H 1.00120 0.12930 0.22370
H3 H 0.80840 0.13040 0.17350
C8 C 0.8966(3) 0.14929(6) -0.0109(3)
H4 H 0.90100 0.17680 0.02180
H5 H 0.98960 0.14330 -0.04900
H6 H 0.79650 0.14440 -0.09920
C9 C 1.0274(3) 0.06653(6) 0.0319(3)
H7 H 1.01000 0.07790 -0.07820
H8 H 1.02110 0.03770 0.02030
C10 C 1.1940(3) 0.07768(7) 0.1394(3)
H9 H 1.27510 0.06800 0.09060
H10 H 1.20180 0.10620 0.14940
H11 H 1.21300 0.06610 0.24800
C11 C 0.7303(3) 0.06824(7) -0.0082(2)
H12 H 0.71380 0.07830 -0.12020
H13 H 0.64730 0.08020 0.03430
C12 C 0.7077(3) 0.02441(7) -0.0154(3)
H14 H 0.59890 0.01810 -0.08610
H15 H 0.78810 0.01240 -0.05970
H16 H 0.72150 0.01430 0.09490
N2 N 0.3385(2) 0.17133(5) 0.6453(2)
H17 H 0.44010 0.18600 0.65250
C13 C 0.2949(3) 0.18125(7) 0.7966(3)
H18 H 0.19000 0.16890 0.79030
H19 H 0.28130 0.20990 0.80140
C14 C 0.4205(3) 0.16789(9) 0.9517(3)
H20 H 0.38580 0.17510 1.04640
H21 H 0.43280 0.13940 0.94890
H22 H 0.52410 0.18050 0.96010
C15 C 0.3753(3) 0.12889(7) 0.6302(3)
H23 H 0.47240 0.12190 0.72120
H24 H 0.40170 0.12510 0.52680
C16 C 0.2395(3) 0.10126(7) 0.6321(4)
H25 H 0.27290 0.07420 0.62170
H26 H 0.21420 0.10420 0.73530
H27 H 0.14340 0.10740 0.54060
C17 C 0.2108(3) 0.18730(8) 0.4986(3)
H28 H 0.11680 0.16940 0.47400
H29 H 0.17490 0.21280 0.52980
C18 C 0.2528(4) 0.19295(10) 0.3492(4)
H30 H 0.15930 0.20340 0.26430
H31 H 0.34300 0.21140 0.36920
H32 H 0.28460 0.16780 0.31310
H33? H 0.20170 0.16940 0.40570
H34? H 0.10610 0.18660 0.52240
C19? C 0.2322(9) 0.2230(3) 0.4513(11)
H35? H 0.14180 0.23000 0.35540
H36? H 0.23750 0.24140 0.54020
H37? H 0.33340 0.22410 0.42300
O9B O 1.09417(16) -0.04100(4) 0.61433(15)
O10B O 0.91181(17) -0.00027(4) 0.65827(16)
C5B C 1.0002(2) -0.01144(5) 0.5789(2)
O11B O 0.43132(16) -0.04248(4) 0.38841(16)
O12B O 0.62240(16) -0.00027(4) 0.37232(16)
C6B C 0.5155(2) -0.01237(5) 0.4309(2)
Cu1B Cu 0.25166(3) -0.20340(2) 0.52317(3)
Cu2B Cu 0.26248(3) -0.04554(2) 0.50180(3)
O1B O 0.10359(16) -0.15347(4) 0.39139(15)
O2B O 0.15282(16) -0.09008(4) 0.37149(15)
O3B O 0.37916(17) -0.15997(4) 0.64483(16)
O4B O 0.38862(16) -0.09504(4) 0.66509(16)
O5B O 0.37704(16) -0.20571(4) 0.36298(16)
O6B O 0.41542(17) -0.24812(4) 0.18090(17)
O7B O 0.12651(16) -0.24638(4) 0.38934(16)
O8B O 0.14292(16) -0.28757(4) 0.19426(16)
C1B C 0.1823(2) -0.12321(5) 0.4391(2)
C2B C 0.3305(2) -0.12590(5) 0.5972(2)
C3B C 0.1903(2) -0.25870(5) 0.2852(2)
C4B C 0.3414(2) -0.23608(5) 0.2725(2)
Cu1A Cu 0.25166(3) -0.29660(2) 0.02317(3)
Cu1C Cu 0.74834(3) 0.29660(2) 0.97683(3)
Cu2B* Cu 1.26248(3) -0.04554(2) 0.50180(3)
O6A O 0.41542(17) -0.25188(4) 0.68090(17)
O6C O 0.58458(17) 0.25188(4) 0.31910(17)
O8A O 0.14292(16) -0.21243(4) 0.69426(16)
O8C O 0.85708(16) 0.21243(4) 0.30574(16)
O9B* O 0.09417(16) -0.04100(4) 0.61433(15)
O10* O 0.08819(17) 0.00027(4) 0.34173(16)
#END
