
#######################################################################
#
#                 Cambridge Crystallographic Data Centre
#                                CCDC
#
#######################################################################
#
# If this CIF has been generated from an entry in the Cambridge
# Structural Database, then it will include bibliographic, chemical,
# crystal, experimental, refinement or atomic coordinate data resulting
# from the CCDC's data processing and validation procedures.
#
#######################################################################

data_CSD_CIF_KEDJAG21
_audit_creation_date 2017-04-26
_audit_creation_method CSD-ConQuest-V1
_database_code_CSD KEDJAG21
_database_code_depnum_ccdc_archive 'CCDC 1019166'
_chemical_formula_sum 'C36 H64 Cu4 N4 O24'
_chemical_formula_moiety
;
(C12 Cu4 O24 4-)n,4(C6 H16 N1 1+)
;
_journal_coden_Cambridge 1078
_journal_year 2017
_journal_name_full 'CSD Communication(Private Communication) '
loop_
_publ_author_name
"Zhang Bin"
_chemical_name_systematic
;
catena-(tetrakis(Triethylammonium) hexakis(\m~2~-oxalato)-tetra-copper)
;
_cell_volume   2471.262
_exptl_crystal_colour 'blue'
_exptl_crystal_density_diffrn 1.601
_exptl_crystal_description 'diamond'
_diffrn_ambient_temperature 220
_refine_special_details
;
C111,C121 and C112,C122 disordered over two sites with occupancies 
0.571:0.429; C181 and C182 disordered over two sites with occupancies 
0.633:0.367.
;
#These two values have been output from a single CSD field.
_refine_ls_R_factor_gt 0.0306
_refine_ls_wR_factor_gt 0.0306
_symmetry_cell_setting monoclinic
_symmetry_space_group_name_H-M 'P 21/c'
_symmetry_Int_Tables_number 14
loop_
_symmetry_equiv_pos_site_id
_symmetry_equiv_pos_as_xyz
1 x,y,z
2 -x,1/2+y,1/2-z
3 -x,-y,-z
4 x,-1/2-y,-1/2+z
_cell_length_a 8.7734(1)
_cell_length_b 33.8944(4)
_cell_length_c 8.7281(1)
_cell_angle_alpha 90
_cell_angle_beta 107.797(1)
_cell_angle_gamma 90
_cell_formula_units_Z 2
loop_
_atom_type_symbol
_atom_type_radius_bond
C 0.68
H 0.23
Cu 1.32
N 0.68
O 0.68
loop_
_atom_site_label
_atom_site_type_symbol
_atom_site_fract_x
_atom_site_fract_y
_atom_site_fract_z
Cu1 Cu 0.75056(3) 0.20372(2) 0.48856(3)
Cu2 Cu 0.74113(3) 0.04579(2) 0.50020(2)
O1 O 0.89244(17) 0.15477(4) 0.61621(16)
O2 O 0.85556(17) 0.09036(4) 0.62930(16)
O3 O 0.62154(18) 0.15983(4) 0.36632(17)
O4 O 0.61490(18) 0.09454(4) 0.34932(17)
O5 O 0.62403(17) 0.20725(4) 0.65175(17)
O6 O 0.59784(19) 0.24939(5) 0.83652(19)
O7 O 0.87777(18) 0.24605(4) 0.62641(17)
O8 O 0.86507(18) 0.28762(4) 0.81910(17)
O9 O 0.90992(18) 0.04026(4) 0.38102(17)
O10 O 1.0915(2) -0.00159(5) 0.34870(18)
O11 O 0.57251(18) 0.04115(4) 0.61871(17)
O12 O 0.38116(18) -0.00111(4) 0.62720(17)
C1 C 0.8202(2) 0.12374(6) 0.5667(2)
C2 C 0.6714(2) 0.12590(6) 0.4131(2)
C3 C 0.8163(2) 0.25898(6) 0.7290(2)
C4 C 0.6662(2) 0.23696(6) 0.7424(2)
C5 C 1.0019(2) 0.01076(6) 0.4217(2)
C6 C 0.4866(2) 0.01163(6) 0.5713(2)
N1 N 0.9066(2) 0.07795(6) 0.0967(2)
H1 H 0.92300 0.06350 0.19910
C7 C 0.9044(4) 0.12057(7) 0.1377(3)
H2 H 0.99980 0.12640 0.22830
H3 H 0.81060 0.12560 0.17350
C8 C 0.8999(4) 0.14858(7) 0.0030(3)
H4 H 0.89870 0.17550 0.04020
H5 H 0.99380 0.14460 -0.03160
H6 H 0.80420 0.14380 -0.08650
C9 C 1.0430(4) 0.06656(8) 0.0380(3)
H7 H 1.03110 0.07990 -0.06460
H8 H 1.03830 0.03810 0.01800
C10 C 1.2034(4) 0.07661(11) 0.1529(5)
H9 H 1.28660 0.06850 0.10760
H10 H 1.21020 0.10490 0.17140
H11 H 1.21740 0.06300 0.25400
C11 C 0.7365(9) 0.0696(3) -0.0025(9)
H12 H 0.71850 0.07920 -0.11260
H13 H 0.66280 0.08360 0.04330
C12 C 0.7038(10) 0.0256(2) -0.0053(6)
H14 H 0.59410 0.02050 -0.06940
H15 H 0.77600 0.01190 -0.05190
H16 H 0.72050 0.01630 0.10370
C13? C 0.7723(13) 0.0587(3) -0.0417(12)
H17? H 0.74210 0.07640 -0.13500
H18? H 0.81100 0.03390 -0.07420
C14? C 0.6326(11) 0.0510(4) 0.0131(7)
H19? H 0.54850 0.03890 -0.07350
H20? H 0.66290 0.03330 0.10470
H21? H 0.59420 0.07560 0.04410
N2 N 0.3423(2) 0.17192(6) 0.6620(2)
H22 H 0.44170 0.18690 0.67170
C15 C 0.2937(3) 0.18211(8) 0.8067(3)
H23 H 0.19240 0.16880 0.79900
H24 H 0.27520 0.21060 0.80730
C16 C 0.4164(4) 0.17059(12) 0.9634(4)
H25 H 0.37800 0.17800 1.05250
H26 H 0.43360 0.14230 0.96500
H27 H 0.51640 0.18410 0.97330
C17 C 0.3829(3) 0.12921(8) 0.6519(4)
H28 H 0.47510 0.12270 0.74490
H29 H 0.41510 0.12520 0.55500
C18 C 0.2491(3) 0.10105(8) 0.6475(4)
H30 H 0.28480 0.07420 0.64100
H31 H 0.21810 0.10410 0.74440
H32 H 0.15800 0.10670 0.55410
C19 C 0.2198(3) 0.18701(10) 0.5142(3)
H33 H 0.12950 0.16860 0.48840
H34 H 0.18040 0.21220 0.54240
C20 C 0.2604(5) 0.19312(18) 0.3724(6)
H35 H 0.16770 0.20290 0.28880
H36 H 0.34640 0.21230 0.39230
H37 H 0.29520 0.16840 0.33810
H38? H 0.21940 0.16960 0.42450
H39? H 0.11450 0.18480 0.53050
C21? C 0.2372(9) 0.2244(3) 0.4695(13)
H40? H 0.15110 0.23080 0.37270
H41? H 0.23390 0.24230 0.55500
H42? H 0.33920 0.22710 0.44860
O9B O 1.09008(18) -0.04026(4) 0.61898(17)
O10B O 0.9085(2) 0.00159(5) 0.65130(18)
C5B C 0.9981(2) -0.01076(6) 0.5783(2)
O11B O 0.42749(18) -0.04115(4) 0.38129(17)
O12B O 0.61884(18) 0.00111(4) 0.37280(17)
C6B C 0.5134(2) -0.01163(6) 0.4287(2)
Cu1B Cu 0.24944(3) -0.20372(2) 0.51144(3)
Cu2B Cu 0.25887(3) -0.04579(2) 0.49980(2)
O1B O 0.10756(17) -0.15477(4) 0.38379(16)
O2B O 0.14444(17) -0.09036(4) 0.37070(16)
O3B O 0.37846(18) -0.15983(4) 0.63368(17)
O4B O 0.38510(18) -0.09454(4) 0.65068(17)
O5B O 0.37597(17) -0.20725(4) 0.34825(17)
O6B O 0.40216(19) -0.24939(5) 0.16348(19)
O7B O 0.12223(18) -0.24605(4) 0.37359(17)
O8B O 0.13493(18) -0.28762(4) 0.18090(17)
C1B C 0.1798(2) -0.12374(6) 0.4333(2)
C2B C 0.3286(2) -0.12590(6) 0.5869(2)
C3B C 0.1837(2) -0.25898(6) 0.2710(2)
C4B C 0.3338(2) -0.23696(6) 0.2576(2)
Cu1A Cu 0.24944(3) -0.29628(2) 0.01144(3)
Cu1C Cu 0.75056(3) 0.29628(2) 0.98856(3)
Cu2B* Cu 1.25887(3) -0.04579(2) 0.49980(2)
O6A O 0.40216(19) -0.25061(5) 0.66348(19)
O6C O 0.59784(19) 0.25061(5) 0.33652(19)
O8A O 0.13493(18) -0.21238(4) 0.68090(17)
O8C O 0.86507(18) 0.21238(4) 0.31910(17)
O9B* O 0.09008(18) -0.04026(4) 0.61898(17)
O10* O 0.0915(2) -0.00159(5) 0.34870(18)
#END
