
#######################################################################
#
#                 Cambridge Crystallographic Data Centre
#                                CCDC
#
#######################################################################
#
# If this CIF has been generated from an entry in the Cambridge
# Structural Database, then it will include bibliographic, chemical,
# crystal, experimental, refinement or atomic coordinate data resulting
# from the CCDC's data processing and validation procedures.
#
#######################################################################

data_CSD_CIF_KEDJAG09
_audit_creation_date 2017-04-26
_audit_creation_method CSD-ConQuest-V1
_database_code_CSD KEDJAG09
_database_code_depnum_ccdc_archive 'CCDC 1537587'
_chemical_formula_sum 'C36 H64 Cu4 N4 O24'
_chemical_formula_moiety
;
(C12 Cu4 O24 4-)n,4(C6 H16 N1 1+)
;
_journal_coden_Cambridge 1078
_journal_year 2017
_journal_name_full 'CSD Communication(Private Communication) '
loop_
_publ_author_name
"Zhang Bin"
_chemical_name_systematic
;
catena-(tetrakis(Triethylammonium) hexakis(\m~2~-oxalato)-tetra-copper)
;
_cell_volume   2437.070
_exptl_crystal_colour 'blue'
_exptl_crystal_density_diffrn 1.623
_exptl_crystal_description 'diamond'
_diffrn_ambient_temperature 135
_refine_special_details
;
C181 and C182 disordered over two sites with occupancies 0.612:0.388.

;
#These two values have been output from a single CSD field.
_refine_ls_R_factor_gt 0.0301
_refine_ls_wR_factor_gt 0.0301
_symmetry_cell_setting monoclinic
_symmetry_space_group_name_H-M 'P 21/c'
_symmetry_Int_Tables_number 14
loop_
_symmetry_equiv_pos_site_id
_symmetry_equiv_pos_as_xyz
1 x,y,z
2 -x,1/2+y,1/2-z
3 -x,-y,-z
4 x,-1/2-y,-1/2+z
_cell_length_a 8.6987(1)
_cell_length_b 34.1408(4)
_cell_length_c 8.6081(1)
_cell_angle_alpha 90
_cell_angle_beta 107.578(1)
_cell_angle_gamma 90
_cell_formula_units_Z 2
loop_
_atom_type_symbol
_atom_type_radius_bond
C 0.68
H 0.23
Cu 1.32
N 0.68
O 0.68
loop_
_atom_site_label
_atom_site_type_symbol
_atom_site_fract_x
_atom_site_fract_y
_atom_site_fract_z
Cu1 Cu 0.74864(3) 0.20347(2) 0.48079(3)
Cu2 Cu 0.73786(3) 0.04553(2) 0.49831(3)
O1 O 0.89569(17) 0.15350(4) 0.61058(16)
O2 O 0.84819(17) 0.08994(4) 0.62824(16)
O3 O 0.62075(18) 0.16010(4) 0.35884(17)
O4 O 0.61146(17) 0.09515(4) 0.33749(17)
O5 O 0.62359(17) 0.20582(4) 0.64187(17)
O6 O 0.58668(18) 0.24811(4) 0.82436(18)
O7 O 0.87411(17) 0.24625(4) 0.61525(17)
O8 O 0.85792(18) 0.28752(4) 0.80976(17)
O9 O 0.90586(17) 0.04080(4) 0.38504(17)
O10 O 1.08850(18) 0.00016(4) 0.34263(17)
O11 O 0.56970(17) 0.04222(4) 0.61270(17)
O12 O 0.37848(17) 0.00003(4) 0.62780(17)
C1 C 0.8178(2) 0.12323(5) 0.5622(2)
C2 C 0.6695(2) 0.12595(6) 0.4053(2)
C3 C 0.8104(2) 0.25863(6) 0.7193(2)
C4 C 0.6599(2) 0.23615(6) 0.7323(2)
C5 C 0.9999(2) 0.01136(6) 0.4212(2)
C6 C 0.4850(2) 0.01226(6) 0.5695(2)
N1 N 0.8972(2) 0.08000(5) 0.0985(2)
H1 H 0.91360 0.06610 0.20460
C7 C 0.9017(3) 0.12312(6) 0.1360(3)
H2 H 1.00110 0.12880 0.22590
H3 H 0.80860 0.12960 0.17470
C8 C 0.8976(4) 0.14930(7) -0.0067(3)
H4 H 0.90090 0.17680 0.02720
H5 H 0.99100 0.14370 -0.04420
H6 H 0.79820 0.14450 -0.09550
C9 C 1.0302(3) 0.06662(7) 0.0338(3)
H7 H 1.01390 0.07830 -0.07520
H8 H 1.02400 0.03780 0.02070
C10 C 1.1955(3) 0.07747(8) 0.1421(4)
H9 H 1.27700 0.06800 0.09350
H10 H 1.20360 0.10600 0.15360
H11 H 1.21370 0.06550 0.24960
C11 C 0.7331(3) 0.06830(8) -0.0084(3)
H12 H 0.65030 0.08110 0.03180
H13 H 0.71900 0.07790 -0.12050
C12 C 0.7067(4) 0.02501(9) -0.0134(3)
H14 H 0.59810 0.01910 -0.08470
H15 H 0.78670 0.01220 -0.05550
H16 H 0.71800 0.01540 0.09680
N2 N 0.3395(2) 0.17097(5) 0.6498(2)
H17 H 0.44120 0.18560 0.65810
C13 C 0.2936(3) 0.18127(7) 0.7985(3)
H18 H 0.18920 0.16870 0.79160
H19 H 0.27860 0.21000 0.80130
C14 C 0.4177(4) 0.16864(11) 0.9551(3)
H20 H 0.38120 0.17610 1.04810
H21 H 0.43130 0.14020 0.95450
H22 H 0.52090 0.18140 0.96420
C15 C 0.3771(3) 0.12856(7) 0.6370(4)
H23 H 0.47310 0.12170 0.72910
H24 H 0.40540 0.12450 0.53500
C16 C 0.2416(3) 0.10087(7) 0.6377(4)
H25 H 0.27580 0.07380 0.62890
H26 H 0.21440 0.10400 0.73950
H27 H 0.14670 0.10680 0.54510
C17 C 0.2149(3) 0.18639(10) 0.5010(3)
H28 H 0.12280 0.16790 0.47500
H29 H 0.17530 0.21150 0.53160
C18 C 0.2545(5) 0.19294(13) 0.3549(5)
H30 H 0.15960 0.20290 0.27090
H31 H 0.34200 0.21210 0.37490
H32 H 0.28920 0.16830 0.31790
H33? H 0.21270 0.16900 0.40840
H34? H 0.10820 0.18440 0.51940
C19? C 0.2336(8) 0.2235(2) 0.4565(10)
H35? H 0.14550 0.23010 0.35850
H36? H 0.23190 0.24130 0.54500
H37? H 0.33690 0.22590 0.43360
O9B O 1.09414(17) -0.04080(4) 0.61496(17)
O10B O 0.91150(18) -0.00016(4) 0.65737(17)
C5B C 1.0001(2) -0.01136(6) 0.5788(2)
O11B O 0.43030(17) -0.04222(4) 0.38730(17)
O12B O 0.62152(17) -0.00003(4) 0.37220(17)
C6B C 0.5150(2) -0.01226(6) 0.4305(2)
Cu1B Cu 0.25136(3) -0.20347(2) 0.51921(3)
Cu2B Cu 0.26214(3) -0.04553(2) 0.50169(3)
O1B O 0.10431(17) -0.15350(4) 0.38942(16)
O2B O 0.15181(17) -0.08994(4) 0.37176(16)
O3B O 0.37925(18) -0.16010(4) 0.64116(17)
O4B O 0.38854(17) -0.09515(4) 0.66251(17)
O5B O 0.37641(17) -0.20582(4) 0.35813(17)
O6B O 0.41332(18) -0.24811(4) 0.17564(18)
O7B O 0.12589(17) -0.24625(4) 0.38475(17)
O8B O 0.14208(18) -0.28752(4) 0.19024(17)
C1B C 0.1822(2) -0.12323(5) 0.4378(2)
C2B C 0.3305(2) -0.12595(6) 0.5947(2)
C3B C 0.1896(2) -0.25863(6) 0.2807(2)
C4B C 0.3401(2) -0.23615(6) 0.2677(2)
Cu1A Cu 0.25136(3) -0.29653(2) 0.01921(3)
Cu1C Cu 0.74864(3) 0.29653(2) 0.98079(3)
Cu2B* Cu 1.26214(3) -0.04553(2) 0.50169(3)
O6A O 0.41332(18) -0.25189(4) 0.67564(18)
O6C O 0.58668(18) 0.25189(4) 0.32436(18)
O8A O 0.14208(18) -0.21248(4) 0.69024(17)
O8C O 0.85792(18) 0.21248(4) 0.30976(17)
O9B* O 0.09414(17) -0.04080(4) 0.61496(17)
O10* O 0.08850(18) 0.00016(4) 0.34263(17)
#END
