
#######################################################################
#
#                 Cambridge Crystallographic Data Centre
#                                CCDC
#
#######################################################################
#
# If this CIF has been generated from an entry in the Cambridge
# Structural Database, then it will include bibliographic, chemical,
# crystal, experimental, refinement or atomic coordinate data resulting
# from the CCDC's data processing and validation procedures.
#
#######################################################################

data_CSD_CIF_KEDJAG13
_audit_creation_date 2017-04-26
_audit_creation_method CSD-ConQuest-V1
_database_code_CSD KEDJAG13
_database_code_depnum_ccdc_archive 'CCDC 1019159'
_chemical_formula_sum 'C36 H64 Cu4 N4 O24'
_chemical_formula_moiety
;
(C12 Cu4 O24 4-)n,4(C6 H16 N1 1+)
;
_journal_coden_Cambridge 1078
_journal_year 2017
_journal_name_full 'CSD Communication(Private Communication) '
loop_
_publ_author_name
"Zhang Bin"
_chemical_name_systematic
;
catena-(tetrakis(Triethylammonium) hexakis(\m~2~-oxalato)-tetra-copper)
;
_cell_volume   2449.161
_exptl_crystal_colour 'blue'
_exptl_crystal_density_diffrn 1.615
_exptl_crystal_description 'diamond'
_diffrn_ambient_temperature 165
_refine_special_details
;
C121 and C122 disordered over two sites with occupancies 0.745:0.255; C181 
and C182 disordered over two sites with occupancies 0.616:0.384.
;
#These two values have been output from a single CSD field.
_refine_ls_R_factor_gt 0.0306
_refine_ls_wR_factor_gt 0.0306
_symmetry_cell_setting monoclinic
_symmetry_space_group_name_H-M 'P 21/c'
_symmetry_Int_Tables_number 14
loop_
_symmetry_equiv_pos_site_id
_symmetry_equiv_pos_as_xyz
1 x,y,z
2 -x,1/2+y,1/2-z
3 -x,-y,-z
4 x,-1/2-y,-1/2+z
_cell_length_a 8.7259(1)
_cell_length_b 34.0441(4)
_cell_length_c 8.6527(1)
_cell_angle_alpha 90
_cell_angle_beta 107.669(1)
_cell_angle_gamma 90
_cell_formula_units_Z 2
loop_
_atom_type_symbol
_atom_type_radius_bond
C 0.68
H 0.23
Cu 1.32
N 0.68
O 0.68
loop_
_atom_site_label
_atom_site_type_symbol
_atom_site_fract_x
_atom_site_fract_y
_atom_site_fract_z
Cu1 Cu 0.74999(3) 0.20353(2) 0.48376(3)
Cu2 Cu 0.73904(3) 0.04566(2) 0.49884(3)
O1 O 0.89531(17) 0.15395(4) 0.61284(16)
O2 O 0.85109(17) 0.09006(4) 0.62851(16)
O3 O 0.62185(18) 0.16006(4) 0.36160(17)
O4 O 0.61278(18) 0.09499(4) 0.34207(17)
O5 O 0.62437(17) 0.20627(4) 0.64571(17)
O6 O 0.59117(19) 0.24855(5) 0.82888(19)
O7 O 0.87605(18) 0.24607(4) 0.61935(17)
O8 O 0.86144(18) 0.28753(4) 0.81338(17)
O9 O 0.90731(17) 0.04059(4) 0.38339(17)
O10 O 1.08955(19) -0.00052(5) 0.34496(18)
O11 O 0.57063(18) 0.04184(4) 0.61484(17)
O12 O 0.37952(18) -0.00042(4) 0.62773(17)
C1 C 0.8193(2) 0.12336(5) 0.5639(2)
C2 C 0.6706(2) 0.12596(6) 0.4082(2)
C3 C 0.8133(2) 0.25871(6) 0.7229(2)
C4 C 0.6630(2) 0.23640(6) 0.7361(2)
C5 C 1.0006(2) 0.01116(6) 0.4214(2)
C6 C 0.4854(2) 0.01199(6) 0.5700(2)
N1 N 0.9011(2) 0.07922(6) 0.0975(2)
H1 H 0.91640 0.06490 0.20210
C7 C 0.9033(4) 0.12212(7) 0.1366(3)
H2 H 1.00170 0.12780 0.22710
H3 H 0.80970 0.12810 0.17470
C8 C 0.8989(4) 0.14905(7) -0.0025(3)
H4 H 0.90070 0.17640 0.03320
H5 H 0.99270 0.14400 -0.03940
H6 H 0.80030 0.14430 -0.09190
C9 C 1.0351(3) 0.06652(8) 0.0353(3)
H7 H 1.02040 0.07880 -0.07190
H8 H 1.02940 0.03770 0.01990
C10 C 1.1986(3) 0.07715(9) 0.1461(4)
H9 H 1.28110 0.06810 0.09880
H10 H 1.20620 0.10570 0.16000
H11 H 1.21520 0.06460 0.25190
C11 C 0.7387(3) 0.06766(10) -0.0109(3)
H12 H 0.65570 0.08180 0.02410
H13 H 0.72880 0.07620 -0.12300
C12 C 0.7067(6) 0.02509(13) -0.0117(4)
H14 H 0.59880 0.01960 -0.08490
H15 H 0.78660 0.01090 -0.04890
H16 H 0.71340 0.01650 0.09830
H17? H 0.69120 0.09280 -0.06050
H18? H 0.76270 0.05280 -0.09930
C13? C 0.6258(16) 0.0502(5) 0.0100(12)
H19? H 0.53900 0.04840 -0.09290
H20? H 0.65980 0.02370 0.05030
H21? H 0.58720 0.06430 0.08970
N2 N 0.3415(2) 0.17129(6) 0.6545(2)
H22 H 0.44280 0.18610 0.66320
C14 C 0.2940(3) 0.18168(8) 0.8012(3)
H23 H 0.19000 0.16890 0.79360
H24 H 0.27820 0.21050 0.80310
C15 C 0.4170(4) 0.16933(11) 0.9580(3)
H25 H 0.37960 0.17690 1.04970
H26 H 0.43150 0.14080 0.95820
H27 H 0.51980 0.18230 0.96770
C16 C 0.3798(3) 0.12874(8) 0.6431(4)
H28 H 0.47440 0.12200 0.73630
H29 H 0.41020 0.12460 0.54290
C17 C 0.2447(3) 0.10095(8) 0.6412(4)
H30 H 0.27950 0.07390 0.63360
H31 H 0.21540 0.10410 0.74130
H32 H 0.15120 0.10680 0.54760
C18 C 0.2175(3) 0.18641(10) 0.5058(3)
H33 H 0.12610 0.16780 0.47980
H34 H 0.17720 0.21160 0.53530
C19 C 0.2574(5) 0.19283(15) 0.3617(5)
H35 H 0.16280 0.20270 0.27730
H36 H 0.34430 0.21220 0.38170
H37 H 0.29290 0.16810 0.32580
H38? H 0.21650 0.16890 0.41410
H39? H 0.11080 0.18420 0.52330
C20? C 0.2350(8) 0.2237(2) 0.4610(11)
H40? H 0.14720 0.23020 0.36290
H41? H 0.23210 0.24170 0.54850
H42? H 0.33820 0.22640 0.43890
O9B O 1.09269(17) -0.04059(4) 0.61661(17)
O10B O 0.91045(19) 0.00052(5) 0.65504(18)
C5B C 0.9994(2) -0.01116(6) 0.5786(2)
O11B O 0.42937(18) -0.04184(4) 0.38516(17)
O12B O 0.62048(18) 0.00042(4) 0.37227(17)
C6B C 0.5146(2) -0.01199(6) 0.4300(2)
Cu1B Cu 0.25001(3) -0.20353(2) 0.51624(3)
Cu2B Cu 0.26096(3) -0.04566(2) 0.50116(3)
O1B O 0.10469(17) -0.15395(4) 0.38716(16)
O2B O 0.14891(17) -0.09006(4) 0.37149(16)
O3B O 0.37815(18) -0.16006(4) 0.63840(17)
O4B O 0.38722(18) -0.09499(4) 0.65793(17)
O5B O 0.37563(17) -0.20627(4) 0.35429(17)
O6B O 0.40883(19) -0.24855(5) 0.17112(19)
O7B O 0.12395(18) -0.24607(4) 0.38065(17)
O8B O 0.13856(18) -0.28753(4) 0.18662(17)
C1B C 0.1807(2) -0.12336(5) 0.4361(2)
C2B C 0.3294(2) -0.12596(6) 0.5918(2)
C3B C 0.1867(2) -0.25871(6) 0.2771(2)
C4B C 0.3370(2) -0.23640(6) 0.2639(2)
Cu1A Cu 0.25001(3) -0.29647(2) 0.01624(3)
Cu1C Cu 0.74999(3) 0.29647(2) 0.98376(3)
Cu2B* Cu 1.26096(3) -0.04566(2) 0.50116(3)
O6A O 0.40883(19) -0.25145(5) 0.67112(19)
O6C O 0.59117(19) 0.25145(5) 0.32888(19)
O8A O 0.13856(18) -0.21247(4) 0.68662(17)
O8C O 0.86144(18) 0.21247(4) 0.31338(17)
O9B* O 0.09269(17) -0.04059(4) 0.61661(17)
O10* O 0.08955(19) -0.00052(5) 0.34496(18)
#END
