
#######################################################################
#
#                 Cambridge Crystallographic Data Centre
#                                CCDC
#
#######################################################################
#
# If this CIF has been generated from an entry in the Cambridge
# Structural Database, then it will include bibliographic, chemical,
# crystal, experimental, refinement or atomic coordinate data resulting
# from the CCDC's data processing and validation procedures.
#
#######################################################################

data_CSD_CIF_KEDJAG01
_audit_creation_date 2012-09-12
_audit_creation_method CSD-ConQuest-V1
_database_code_CSD KEDJAG01
_database_code_depnum_ccdc_archive 'CCDC 852904'
_chemical_formula_sum 'C36 H64 Cu4 N4 O24'
_chemical_formula_moiety
;
(C12 Cu4 O24 4-)n,4n(C6 H16 N1 1+)
;
_journal_coden_Cambridge 222
_journal_volume 41
_journal_year 2012
_journal_page_first 8509
_journal_name_full 'Dalton Trans. '
loop_
_publ_author_name
"Bin Zhang"
"Yan Zhang"
"Daoben Zhu"
_chemical_name_systematic
;
catena-(tetrakis(Triethylammonium) hexakis(\m~2~-oxalato)-tetra-copper)
;
_cell_volume   2444.718
_exptl_crystal_colour 'blue'
_exptl_crystal_density_diffrn 1.618
_exptl_crystal_description 'diamondoid'
_diffrn_ambient_temperature 155
_refine_special_details
;
C121 and C122 disordered over two sites with occupancies 0.58:0.42; C181 and 
C182 disordered over two sites with occupancies 0.620:0.380.
;
#These two values have been output from a single CSD field.
_refine_ls_R_factor_gt 0.0308
_refine_ls_wR_factor_gt 0.0308
_symmetry_cell_setting monoclinic
_symmetry_space_group_name_H-M 'P 21/c'
_symmetry_Int_Tables_number 14
loop_
_symmetry_equiv_pos_site_id
_symmetry_equiv_pos_as_xyz
1 x,y,z
2 -x,1/2+y,1/2-z
3 -x,-y,-z
4 x,-1/2-y,-1/2+z
_cell_length_a 8.7156(1)
_cell_length_b 34.0813(4)
_cell_length_c 8.6360(1)
_cell_angle_alpha 90
_cell_angle_beta 107.632(1)
_cell_angle_gamma 90
_cell_formula_units_Z 2
loop_
_atom_type_symbol
_atom_type_radius_bond
C 0.68
H 0.23
Cu 1.32
N 0.68
O 0.68
loop_
_atom_site_label
_atom_site_type_symbol
_atom_site_fract_x
_atom_site_fract_y
_atom_site_fract_z
Cu1 Cu 0.74952(3) 0.203512(7) 0.48285(3)
Cu2 Cu 0.73860(3) 0.045600(7) 0.49861(3)
O1 O 0.89530(17) 0.15372(4) 0.61227(17)
O2 O 0.85006(17) 0.09001(4) 0.62846(16)
O3 O 0.62165(18) 0.16010(4) 0.36067(17)
O4 O 0.61226(18) 0.09510(4) 0.34028(18)
O5 O 0.62391(18) 0.20611(4) 0.64438(17)
O6 O 0.58961(19) 0.24830(5) 0.82738(19)
O7 O 0.87528(18) 0.24614(4) 0.61822(18)
O8 O 0.86017(19) 0.28751(4) 0.81236(18)
O9 O 0.90657(17) 0.04066(4) 0.38405(17)
O10 O 1.08905(19) -0.00022(5) 0.34410(18)
O11 O 0.57042(18) 0.04195(4) 0.61404(17)
O12 O 0.37925(18) -0.00023(4) 0.62772(17)
C1 C 0.8187(2) 0.12330(6) 0.5634(2)
C2 C 0.6699(2) 0.12598(6) 0.4074(2)
C3 C 0.8123(2) 0.25867(6) 0.7217(2)
C4 C 0.6620(2) 0.23633(6) 0.7347(2)
C5 C 1.0005(2) 0.01128(6) 0.4213(2)
C6 C 0.4851(2) 0.01208(6) 0.5699(2)
N1 N 0.8997(2) 0.07956(6) 0.0978(2)
H1 H 0.91430 0.06640 0.19530
C7 C 0.9028(4) 0.12250(7) 0.1365(3)
H2 H 1.00160 0.12820 0.22660
H3 H 0.80960 0.12860 0.17490
C8 C 0.8983(4) 0.14921(7) -0.0039(3)
H4 H 0.89210 0.17660 0.02850
H5 H 0.80370 0.14300 -0.09590
H6 H 0.99600 0.14540 -0.03560
C9 C 1.0331(3) 0.06659(7) 0.0348(3)
H7 H 1.01790 0.07870 -0.07290
H8 H 1.02710 0.03770 0.02000
C10 C 1.1973(3) 0.07727(9) 0.1446(4)
H9 H 1.27880 0.06940 0.09390
H10 H 1.21690 0.06360 0.24860
H11 H 1.20300 0.10570 0.16300
C11 C 0.7370(3) 0.06797(9) -0.0100(3)
H12 H 0.72470 0.07700 -0.12180
H13 H 0.65370 0.08120 0.02760
C12 C 0.7110(9) 0.02448(17) -0.0113(9)
H14 H 0.62270 0.01720 -0.10780
H15 H 0.68380 0.01680 0.08630
H16 H 0.80950 0.01090 -0.01340
N2 N 0.3407(2) 0.17113(6) 0.6527(2)
H17 H 0.43490 0.18490 0.66080
C13 C 0.2936(3) 0.18152(8) 0.8002(3)
H18 H 0.18960 0.16880 0.79280
H19 H 0.27800 0.21030 0.80240
C14 C 0.4170(4) 0.16905(11) 0.9570(4)
H20 H 0.37810 0.17570 1.04870
H21 H 0.51870 0.18270 0.96850
H22 H 0.43410 0.14060 0.95530
C15 C 0.3790(3) 0.12861(8) 0.6412(4)
H23 H 0.47380 0.12180 0.73410
H24 H 0.40890 0.12450 0.54080
C16 C 0.2434(3) 0.10091(8) 0.6399(4)
H25 H 0.27720 0.07380 0.63010
H26 H 0.14910 0.10710 0.54760
H27 H 0.21600 0.10380 0.74100
C17 C 0.2167(4) 0.18635(10) 0.5042(3)
H28 H 0.12520 0.16780 0.47810
H29 H 0.17670 0.21160 0.53390
C18 C 0.2568(5) 0.19279(15) 0.3598(5)
H30 H 0.16240 0.20280 0.27570
H31 H 0.29140 0.16800 0.32350
H32 H 0.34430 0.21200 0.38010
C19? C 0.657(4) 0.0382(13) -0.003(2)
C20? C 0.2340(8) 0.2234(2) 0.4582(11)
H33? H 0.56250 0.03700 -0.09880
H34? H 0.62310 0.03940 0.09510
H35? H 0.72370 0.01480 0.00140
H36? H 0.21490 0.16870 0.41260
H37? H 0.11030 0.18430 0.52220
H38? H 0.14510 0.22990 0.36120
H39? H 0.33630 0.22590 0.43400
H40? H 0.23330 0.24160 0.54610
Cu1C Cu 0.74952(3) 0.296488(7) 0.98285(3)
Cu1B Cu 0.25048(3) -0.203512(7) 0.51715(3)
Cu1A Cu 0.25048(3) -0.296488(7) 0.01715(3)
Cu2B Cu 1.26140(3) -0.045600(7) 0.50139(3)
Cu2B* Cu 0.26140(3) -0.045600(7) 0.50139(3)
O1B O 0.10470(17) -0.15372(4) 0.38773(17)
O2B O 0.14994(17) -0.09001(4) 0.37154(16)
O3B O 0.37835(18) -0.16010(4) 0.63933(17)
O4B O 0.38774(18) -0.09510(4) 0.65972(18)
O5B O 0.37609(18) -0.20611(4) 0.35562(17)
O6C O 0.58961(19) 0.25170(5) 0.32738(19)
O6A O 0.41039(19) -0.25170(5) 0.67262(19)
O6B O 0.41039(19) -0.24830(5) 0.17262(19)
O7B O 0.12472(18) -0.24614(4) 0.38178(18)
O8C O 0.86017(19) 0.21249(4) 0.31236(18)
O8A O 0.13983(19) -0.21249(4) 0.68764(18)
O8B O 0.13983(19) -0.28751(4) 0.18764(18)
O9B O 1.09343(17) -0.04066(4) 0.61595(17)
O9B* O 0.09343(17) -0.04066(4) 0.61595(17)
O10B O 0.91095(19) 0.00022(5) 0.65590(18)
O10* O 0.08905(19) -0.00022(5) 0.34410(18)
O11B O 0.42958(18) -0.04195(4) 0.38596(17)
O12B O 0.62075(18) 0.00023(4) 0.37228(17)
C1B C 0.1813(2) -0.12330(6) 0.4366(2)
C2B C 0.3301(2) -0.12598(6) 0.5926(2)
C3B C 0.1877(2) -0.25867(6) 0.2783(2)
C4B C 0.3380(2) -0.23633(6) 0.2653(2)
C5B C 0.9995(2) -0.01128(6) 0.5787(2)
C6B C 0.5149(2) -0.01208(6) 0.4301(2)
#END
