
#######################################################################
#
#                 Cambridge Crystallographic Data Centre
#                                CCDC
#
#######################################################################
#
# If this CIF has been generated from an entry in the Cambridge
# Structural Database, then it will include bibliographic, chemical,
# crystal, experimental, refinement or atomic coordinate data resulting
# from the CCDC's data processing and validation procedures.
#
#######################################################################

data_CSD_CIF_KEDJAG02
_audit_creation_date 2012-09-12
_audit_creation_method CSD-ConQuest-V1
_database_code_CSD KEDJAG02
_database_code_depnum_ccdc_archive 'CCDC 852905'
_chemical_formula_sum 'C36 H64 Cu4 N4 O24'
_chemical_formula_moiety
;
(C12 Cu4 O24 4-)n,4n(C6 H16 N1 1+)
;
_journal_coden_Cambridge 222
_journal_volume 41
_journal_year 2012
_journal_page_first 8509
_journal_name_full 'Dalton Trans. '
loop_
_publ_author_name
"Bin Zhang"
"Yan Zhang"
"Daoben Zhu"
_chemical_name_systematic
;
catena-(tetrakis(Triethylammonium) hexakis(\m~2~-oxalato)-tetra-copper)
;
_cell_volume   2455.456
_exptl_crystal_colour 'blue'
_exptl_crystal_density_diffrn 1.611
_exptl_crystal_description 'diamondoid'
_diffrn_ambient_temperature 180
_refine_special_details
;
Part of each of the cations is disordered.

;
#These two values have been output from a single CSD field.
_refine_ls_R_factor_gt 0.0321
_refine_ls_wR_factor_gt 0.0321
_symmetry_cell_setting monoclinic
_symmetry_space_group_name_H-M 'P 21/c'
_symmetry_Int_Tables_number 14
loop_
_symmetry_equiv_pos_site_id
_symmetry_equiv_pos_as_xyz
1 x,y,z
2 -x,1/2+y,1/2-z
3 -x,-y,-z
4 x,-1/2-y,-1/2+z
_cell_length_a 8.7407(1)
_cell_length_b 33.9886(4)
_cell_length_c 8.6771(1)
_cell_angle_alpha 90
_cell_angle_beta 107.725(1)
_cell_angle_gamma 90
_cell_formula_units_Z 2
loop_
_atom_type_symbol
_atom_type_radius_bond
C 0.68
H 0.23
Cu 1.32
N 0.68
O 0.68
loop_
_atom_site_label
_atom_site_type_symbol
_atom_site_fract_x
_atom_site_fract_y
_atom_site_fract_z
Cu1 Cu 0.75056(3) 0.203578(7) 0.48505(3)
Cu2 Cu 0.73979(3) 0.045729(7) 0.49924(3)
O1 O 0.89475(19) 0.15421(4) 0.61392(18)
O2 O 0.85275(19) 0.09016(4) 0.62874(18)
O3 O 0.6220(2) 0.15999(5) 0.36281(19)
O4 O 0.61334(19) 0.09481(5) 0.34448(19)
O5 O 0.62451(19) 0.20661(5) 0.64767(18)
O6 O 0.5938(2) 0.24885(5) 0.8313(2)
O7 O 0.87709(19) 0.24604(5) 0.62152(19)
O8 O 0.8631(2) 0.28759(5) 0.81501(19)
O9 O 0.90827(19) 0.04046(4) 0.38243(19)
O10 O 1.0904(2) -0.00100(5) 0.3463(2)
O11 O 0.57127(19) 0.04165(4) 0.61610(19)
O12 O 0.3800(2) -0.00071(5) 0.62764(19)
C1 C 0.8196(3) 0.12345(6) 0.5647(2)
C2 C 0.6713(3) 0.12595(6) 0.4098(3)
C3 C 0.8146(3) 0.25882(6) 0.7246(2)
C4 C 0.6644(3) 0.23659(6) 0.7379(3)
C5 C 1.0008(3) 0.01101(6) 0.4217(2)
C6 C 0.4857(3) 0.01186(6) 0.5706(2)
N1 N 0.9034(3) 0.07874(6) 0.0971(2)
H1 H 0.91750 0.06520 0.19370
C7 C 0.9043(4) 0.12162(8) 0.1370(3)
H2 H 1.00220 0.12740 0.22760
H3 H 0.81050 0.12730 0.17470
C8 C 0.8994(4) 0.14884(8) -0.0012(3)
H4 H 0.89330 0.17610 0.03280
H5 H 0.80490 0.14280 -0.09320
H6 H 0.99690 0.14530 -0.03310
C9 C 1.0378(4) 0.06654(9) 0.0357(4)
H7 H 1.02400 0.07930 -0.07030
H8 H 1.03240 0.03770 0.01820
C10 C 1.2005(4) 0.07697(11) 0.1482(5)
H9 H 1.28330 0.06930 0.09920
H10 H 1.21830 0.06300 0.25100
H11 H 1.20610 0.10540 0.16800
C11 C 0.7416(4) 0.06700(12) -0.0129(4)
H12 H 0.730(3) 0.0771(8) -0.110(4)
C12 C 0.7060(8) 0.02511(18) -0.0102(6)
H13 H 0.60180 0.01960 -0.08990
H14 H 0.70260 0.01770 0.09790
H15 H 0.78980 0.00990 -0.03690
N2 N 0.3416(2) 0.17145(6) 0.6564(2)
H16 H 0.43540 0.18530 0.66450
C13 C 0.2941(4) 0.18194(9) 0.8026(3)
H17 H 0.19040 0.16910 0.79510
H18 H 0.27800 0.21080 0.80410
C14 C 0.4176(5) 0.16969(13) 0.9596(4)
H19 H 0.37840 0.17640 1.05080
H20 H 0.51890 0.18350 0.97110
H21 H 0.43540 0.14120 0.95840
C15 C 0.3810(3) 0.12891(8) 0.6462(4)
H22 H 0.47490 0.12230 0.74000
H23 H 0.41260 0.12480 0.54700
C16 C 0.2464(4) 0.10100(9) 0.6433(5)
H24 H 0.28090 0.07390 0.63350
H25 H 0.15260 0.10720 0.55070
H26 H 0.21810 0.10370 0.74370
C17 C 0.2175(4) 0.18687(11) 0.5097(4)
H27 H 0.11140 0.18450 0.52790
C18 C 0.2594(5) 0.19255(17) 0.3627(6)
H28 H 0.18340 0.21240 0.30160
H29 H 0.36710 0.19850 0.35670
H30? H 0.21580 0.16960 0.41750
H31? H 0.26070 0.19290 0.47610
C19? C 0.2344(9) 0.2243(3) 0.4659(12)
H32? H 0.14580 0.23090 0.36900
H33? H 0.33680 0.22710 0.44260
H34? H 0.23280 0.24210 0.55420
C20? C 0.6291(14) 0.0515(6) 0.0123(10)
H35? H 0.55920 0.04020 -0.08850
H36? H 0.56890 0.07100 0.05370
H37? H 0.66680 0.03060 0.09260
Cu1C Cu 0.75056(3) 0.296422(7) 0.98505(3)
Cu1B Cu 0.24944(3) -0.203578(7) 0.51495(3)
Cu1A Cu 0.24944(3) -0.296422(7) 0.01495(3)
Cu2B Cu 1.26021(3) -0.045729(7) 0.50076(3)
Cu2B* Cu 0.26021(3) -0.045729(7) 0.50076(3)
O1B O 0.10525(19) -0.15421(4) 0.38608(18)
O2B O 0.14725(19) -0.09016(4) 0.37126(18)
O3B O 0.3780(2) -0.15999(5) 0.63719(19)
O4B O 0.38666(19) -0.09481(5) 0.65552(19)
O5B O 0.37549(19) -0.20661(5) 0.35233(18)
O6C O 0.5938(2) 0.25115(5) 0.3313(2)
O6A O 0.4062(2) -0.25115(5) 0.6687(2)
O6B O 0.4062(2) -0.24885(5) 0.1687(2)
O7B O 0.12291(19) -0.24604(5) 0.37848(19)
O8C O 0.8631(2) 0.21241(5) 0.31501(19)
O8A O 0.1369(2) -0.21241(5) 0.68499(19)
O8B O 0.1369(2) -0.28759(5) 0.18499(19)
O9B O 1.09173(19) -0.04046(4) 0.61757(19)
O9B* O 0.09173(19) -0.04046(4) 0.61757(19)
O10B O 0.9096(2) 0.00100(5) 0.6537(2)
O10* O 0.0904(2) -0.00100(5) 0.3463(2)
O11B O 0.42873(19) -0.04165(4) 0.38390(19)
O12B O 0.6200(2) 0.00071(5) 0.37236(19)
C1B C 0.1804(3) -0.12345(6) 0.4353(2)
C2B C 0.3287(3) -0.12595(6) 0.5902(3)
C3B C 0.1854(3) -0.25882(6) 0.2754(2)
C4B C 0.3356(3) -0.23659(6) 0.2621(3)
C5B C 0.9992(3) -0.01101(6) 0.5783(2)
C6B C 0.5143(3) -0.01186(6) 0.4294(2)
#END
