
#######################################################################
#
#                 Cambridge Crystallographic Data Centre
#                                CCDC
#
#######################################################################
#
# If this CIF has been generated from an entry in the Cambridge
# Structural Database, then it will include bibliographic, chemical,
# crystal, experimental, refinement or atomic coordinate data resulting
# from the CCDC's data processing and validation procedures.
#
#######################################################################

data_CSD_CIF_KEDJAG27
_audit_creation_date 2017-04-26
_audit_creation_method CSD-ConQuest-V1
_database_code_CSD KEDJAG27
_database_code_depnum_ccdc_archive 'CCDC 1019168'
_chemical_formula_sum 'C36 H64 Cu4 N4 O24'
_chemical_formula_moiety
;
(C12 Cu4 O24 4-)n,4(C6 H16 N1 1+)
;
_journal_coden_Cambridge 1078
_journal_year 2017
_journal_name_full 'CSD Communication(Private Communication) '
loop_
_publ_author_name
"Zhang Bin"
_chemical_name_systematic
;
catena-(tetrakis(Triethylammonium) hexakis(\m~2~-oxalato)-tetra-copper)
;
_cell_volume   2508.609
_exptl_crystal_colour 'blue'
_exptl_crystal_density_diffrn 1.577
_exptl_crystal_description 'diamond'
_diffrn_ambient_temperature 333
_refine_special_details
;
C112,C122 and C111,C121 disordered over two sites with occupancies 0.57:0.43; 
C181 and C182 disordered over two sites with occupancies 0.610:0.390.
;
#These two values have been output from a single CSD field.
_refine_ls_R_factor_gt 0.0335
_refine_ls_wR_factor_gt 0.0335
_symmetry_cell_setting monoclinic
_symmetry_space_group_name_H-M 'P 21/c'
_symmetry_Int_Tables_number 14
loop_
_symmetry_equiv_pos_site_id
_symmetry_equiv_pos_as_xyz
1 x,y,z
2 -x,1/2+y,1/2-z
3 -x,-y,-z
4 x,-1/2-y,-1/2+z
_cell_length_a 8.8533(1)
_cell_length_b 33.7162(4)
_cell_length_c 8.8347(1)
_cell_angle_alpha 90
_cell_angle_beta 107.963(1)
_cell_angle_gamma 90
_cell_formula_units_Z 2
loop_
_atom_type_symbol
_atom_type_radius_bond
C 0.68
H 0.23
Cu 1.32
N 0.68
O 0.68
loop_
_atom_site_label
_atom_site_type_symbol
_atom_site_fract_x
_atom_site_fract_y
_atom_site_fract_z
Cu1 Cu 0.74469(3) 0.20420(2) 0.50280(3)
Cu2 Cu 0.74287(3) 0.04557(2) 0.50294(3)
O1 O 0.88340(19) 0.15544(4) 0.62679(18)
O2 O 0.85771(19) 0.09051(4) 0.63224(18)
O3 O 0.6159(2) 0.15977(5) 0.38041(19)
O4 O 0.61588(19) 0.09437(5) 0.35908(19)
O5 O 0.61722(19) 0.20826(5) 0.66617(19)
O6 O 0.5971(2) 0.24961(5) 0.8524(2)
O7 O 0.87251(19) 0.24631(5) 0.64411(19)
O8 O 0.8622(2) 0.28745(5) 0.83617(19)
O9 O 0.9101(2) 0.04003(5) 0.38154(19)
O10 O 1.0914(2) -0.00161(5) 0.35154(19)
O11 O 0.57726(19) 0.03998(5) 0.62352(19)
O12 O 0.3829(2) -0.00151(5) 0.62556(18)
C1 C 0.8172(3) 0.12401(7) 0.5751(3)
C2 C 0.6687(3) 0.12605(7) 0.4239(3)
C3 C 0.8127(3) 0.25925(6) 0.7446(3)
C4 C 0.6630(3) 0.23743(6) 0.7576(3)
C5 C 1.0020(3) 0.01081(6) 0.4230(2)
C6 C 0.4884(3) 0.01124(6) 0.5719(2)
N1 N 0.9104(3) 0.07721(6) 0.0991(2)
H1 H 0.92900 0.06250 0.19890
C7 C 0.9009(4) 0.11978(8) 0.1434(3)
H2 H 0.80730 0.12320 0.17700
H3 H 0.99280 0.12580 0.23380
C8 C 0.8940(5) 0.14891(8) 0.0142(4)
H4 H 0.88810 0.17530 0.05270
H5 H 0.98750 0.14640 -0.01820
H6 H 0.80170 0.14380 -0.07500
C9 C 1.0502(5) 0.06777(9) 0.0439(4)
H7 H 1.04680 0.03980 0.01700
H8 H 1.04100 0.08270 -0.05230
C10 C 1.2067(5) 0.07668(13) 0.1625(5)
H9 H 1.29000 0.06990 0.11890
H10 H 1.21250 0.10440 0.18800
H11 H 1.21840 0.06150 0.25730
C11 C 0.7813(16) 0.0590(4) -0.0347(14)
H12 H 0.75050 0.07730 -0.12380
H13 H 0.82010 0.03490 -0.06990
C12 C 0.6412(13) 0.0497(6) 0.0180(9)
H14 H 0.55940 0.03810 -0.06860
H15 H 0.67160 0.03140 0.10530
H16 H 0.60220 0.07370 0.05150
C13? C 0.7362(19) 0.0683(6) 0.003(2)
H17? H 0.66540 0.08200 0.05040
H18? H 0.71450 0.07760 -0.10530
C14? C 0.709(2) 0.0250(5) 0.0037(12)
H19? H 0.60070 0.01930 -0.05590
H20? H 0.77870 0.01170 -0.04400
H21? H 0.72970 0.01600 0.11130
N2 N 0.3383(2) 0.17203(6) 0.6775(3)
H22 H 0.43520 0.18740 0.68910
C15 C 0.2890(4) 0.18138(9) 0.8204(4)
H23 H 0.19190 0.16710 0.81290
H24 H 0.26570 0.20950 0.82010
C16 C 0.4109(5) 0.17110(13) 0.9750(4)
H25 H 0.37150 0.17790 1.06140
H26 H 0.43280 0.14320 0.97780
H27 H 0.50670 0.18570 0.98500
C17 C 0.3817(3) 0.12969(8) 0.6639(4)
H28 H 0.47230 0.12310 0.75480
H29 H 0.41400 0.12670 0.56910
C18 C 0.2510(4) 0.10069(9) 0.6557(5)
H30 H 0.28780 0.07430 0.64710
H31 H 0.21990 0.10280 0.75040
H32 H 0.16150 0.10640 0.56440
C19 C 0.2172(4) 0.18781(12) 0.5323(4)
H33 H 0.12790 0.16960 0.50600
H34 H 0.17940 0.21280 0.56140
C20 C 0.2567(6) 0.1944(3) 0.3933(8)
H35 H 0.16580 0.20440 0.31220
H36 H 0.34170 0.21330 0.41390
H37 H 0.28980 0.16980 0.35820
H38? H 0.22160 0.17210 0.44180
H39? H 0.11300 0.18390 0.54440
C21? C 0.2314(11) 0.2272(5) 0.497(2)
H40? H 0.14800 0.23420 0.40220
H41? H 0.22350 0.24340 0.58380
H42? H 0.33250 0.23160 0.48100
O9B O 1.0899(2) -0.04003(5) 0.61846(19)
O10B O 0.9086(2) 0.00161(5) 0.64846(19)
C5B C 0.9980(3) -0.01081(6) 0.5770(2)
O11B O 0.42274(19) -0.03998(5) 0.37648(19)
O12B O 0.6171(2) 0.00151(5) 0.37444(18)
C6B C 0.5116(3) -0.01124(6) 0.4281(2)
Cu1B Cu 0.25531(3) -0.20420(2) 0.49720(3)
Cu2B Cu 0.25713(3) -0.04557(2) 0.49706(3)
O1B O 0.11660(19) -0.15544(4) 0.37321(18)
O2B O 0.14229(19) -0.09051(4) 0.36776(18)
O3B O 0.3841(2) -0.15977(5) 0.61959(19)
O4B O 0.38412(19) -0.09437(5) 0.64092(19)
O5B O 0.38278(19) -0.20826(5) 0.33383(19)
O6B O 0.4029(2) -0.24961(5) 0.1476(2)
O7B O 0.12749(19) -0.24631(5) 0.35589(19)
O8B O 0.1378(2) -0.28745(5) 0.16383(19)
C1B C 0.1828(3) -0.12401(7) 0.4249(3)
C2B C 0.3313(3) -0.12605(7) 0.5761(3)
C3B C 0.1873(3) -0.25925(6) 0.2554(3)
C4B C 0.3370(3) -0.23743(6) 0.2424(3)
Cu1A Cu 0.25531(3) -0.29580(2) -0.00280(3)
Cu1C Cu 0.74469(3) 0.29580(2) 1.00280(3)
Cu2B* Cu 1.25713(3) -0.04557(2) 0.49706(3)
O6A O 0.4029(2) -0.25039(5) 0.6476(2)
O6C O 0.5971(2) 0.25039(5) 0.3524(2)
O8A O 0.1378(2) -0.21255(5) 0.66383(19)
O8C O 0.8622(2) 0.21255(5) 0.33617(19)
O9B* O 0.0899(2) -0.04003(5) 0.61846(19)
O10* O 0.0914(2) -0.00161(5) 0.35154(19)
#END
