
#######################################################################
#
#                 Cambridge Crystallographic Data Centre
#                                CCDC
#
#######################################################################
#
# If this CIF has been generated from an entry in the Cambridge
# Structural Database, then it will include bibliographic, chemical,
# crystal, experimental, refinement or atomic coordinate data resulting
# from the CCDC's data processing and validation procedures.
#
#######################################################################

data_CSD_CIF_KEDJAG17
_audit_creation_date 2017-04-26
_audit_creation_method CSD-ConQuest-V1
_database_code_CSD KEDJAG17
_database_code_depnum_ccdc_archive 'CCDC 1537589'
_chemical_formula_sum 'C36 H64 Cu4 N4 O24'
_chemical_formula_moiety
;
(C12 Cu4 O24 4-)n,4(C6 H16 N1 1+)
;
_journal_coden_Cambridge 1078
_journal_year 2017
_journal_name_full 'CSD Communication(Private Communication) '
loop_
_publ_author_name
"Zhang Bin"
_chemical_name_systematic
;
catena-(tetrakis(Triethylammonium) hexakis(\m~2~-oxalato)-tetra-copper)
;
_cell_volume   2455.456
_exptl_crystal_colour 'blue'
_exptl_crystal_density_diffrn 1.611
_exptl_crystal_description 'diamond'
_diffrn_ambient_temperature 180
_refine_special_details
;
C112,C122 and C111,C121 disordered over two sites with occupancies 
0.684:0.316; C181 and C182 disordered over two sites with occupancies 
0.630:0.370.
;
#These two values have been output from a single CSD field.
_refine_ls_R_factor_gt 0.0307
_refine_ls_wR_factor_gt 0.0307
_symmetry_cell_setting monoclinic
_symmetry_space_group_name_H-M 'P 21/c'
_symmetry_Int_Tables_number 14
loop_
_symmetry_equiv_pos_site_id
_symmetry_equiv_pos_as_xyz
1 x,y,z
2 -x,1/2+y,1/2-z
3 -x,-y,-z
4 x,-1/2-y,-1/2+z
_cell_length_a 8.7407(1)
_cell_length_b 33.9886(4)
_cell_length_c 8.6771(1)
_cell_angle_alpha 90
_cell_angle_beta 107.725(1)
_cell_angle_gamma 90
_cell_formula_units_Z 2
loop_
_atom_type_symbol
_atom_type_radius_bond
C 0.68
H 0.23
Cu 1.32
N 0.68
O 0.68
loop_
_atom_site_label
_atom_site_type_symbol
_atom_site_fract_x
_atom_site_fract_y
_atom_site_fract_z
Cu1 Cu 0.75056(3) 0.20358(2) 0.48505(3)
Cu2 Cu 0.73980(3) 0.04573(2) 0.49924(3)
O1 O 0.89473(18) 0.15418(4) 0.61385(17)
O2 O 0.85291(18) 0.09015(4) 0.62873(17)
O3 O 0.62214(19) 0.15999(4) 0.36275(18)
O4 O 0.61336(18) 0.09483(4) 0.34455(18)
O5 O 0.62455(18) 0.20662(4) 0.64769(17)
O6 O 0.5939(2) 0.24887(5) 0.83124(19)
O7 O 0.87701(18) 0.24604(4) 0.62147(18)
O8 O 0.86306(19) 0.28760(4) 0.81487(18)
O9 O 0.90824(18) 0.04043(4) 0.38239(18)
O10 O 1.0903(2) -0.00102(5) 0.34643(19)
O11 O 0.57119(18) 0.04163(4) 0.61623(18)
O12 O 0.38003(18) -0.00069(4) 0.62748(17)
C1 C 0.8198(2) 0.12349(6) 0.5647(2)
C2 C 0.6711(2) 0.12601(6) 0.4097(2)
C3 C 0.8147(2) 0.25886(6) 0.7245(2)
C4 C 0.6644(2) 0.23658(6) 0.7381(2)
C5 C 1.0009(2) 0.01105(6) 0.4216(2)
C6 C 0.4856(2) 0.01185(6) 0.5706(2)
N1 N 0.9032(2) 0.07874(6) 0.0971(2)
H1 H 0.92420 0.06500 0.20340
C7 C 0.9043(4) 0.12157(7) 0.1370(3)
H2 H 1.00230 0.12730 0.22760
H3 H 0.81060 0.12720 0.17490
C8 C 0.8994(4) 0.14883(8) -0.0011(3)
H4 H 0.90050 0.17620 0.03510
H5 H 0.99340 0.14410 -0.03780
H6 H 0.80130 0.14400 -0.09060
C9 C 1.0378(4) 0.06653(8) 0.0361(3)
H7 H 1.02420 0.07930 -0.06990
H8 H 1.03250 0.03770 0.01870
C10 C 1.2003(4) 0.07698(10) 0.1490(4)
H9 H 1.28360 0.06820 0.10240
H10 H 1.20760 0.10550 0.16470
H11 H 1.21580 0.06400 0.25340
C11 C 0.7489(11) 0.0648(3) -0.0262(11)
H12 H 0.66000 0.08200 -0.01860
H13 H 0.75960 0.06830 -0.13570
C12 C 0.7058(8) 0.02533(16) -0.0101(5)
H14 H 0.60530 0.01920 -0.09460
H15 H 0.79110 0.00780 -0.02090
H16 H 0.69120 0.02160 0.09650
C13? C 0.737(2) 0.0697(4) 0.0099(16)
H17? H 0.68980 0.09640 -0.00690
H18? H 0.74630 0.06220 -0.09710
C14? C 0.6264(13) 0.0512(5) 0.013(1)
H19? H 0.53650 0.05660 -0.08440
H20? H 0.65350 0.02320 0.01690
H21? H 0.59570 0.05820 0.10910
N2 N 0.3418(2) 0.17151(6) 0.6569(2)
H22 H 0.44290 0.18640 0.66600
C15 C 0.2941(3) 0.18194(8) 0.8024(3)
H23 H 0.19050 0.16900 0.79490
H24 H 0.27740 0.21070 0.80370
C16 C 0.4175(4) 0.16985(12) 0.9599(4)
H25 H 0.37970 0.17740 1.05100
H26 H 0.43280 0.14130 0.96080
H27 H 0.51980 0.18300 0.96960
C17 C 0.3809(3) 0.12891(8) 0.6461(4)
H28 H 0.47510 0.12220 0.73960
H29 H 0.41200 0.12480 0.54670
C18 C 0.2464(3) 0.10100(8) 0.6435(5)
H30 H 0.28170 0.07390 0.63640
H31 H 0.21650 0.10420 0.74290
H32 H 0.15330 0.10680 0.54960
C19 C 0.2183(3) 0.18669(10) 0.5082(3)
H33 H 0.12660 0.16820 0.48230
H34 H 0.17870 0.21210 0.53700
C20 C 0.2596(5) 0.19272(16) 0.3650(5)
H35 H 0.16590 0.20260 0.28000
H36 H 0.34700 0.21200 0.38530
H37 H 0.29460 0.16780 0.33020
H38? H 0.21720 0.16910 0.41700
H39? H 0.11170 0.18450 0.52550
C21? C 0.2357(9) 0.2240(3) 0.4628(12)
H40? H 0.14810 0.23030 0.36480
H41? H 0.23290 0.24210 0.54980
H42? H 0.33880 0.22660 0.44090
O9B O 1.09176(18) -0.04043(4) 0.61761(18)
O10B O 0.9097(2) 0.00102(5) 0.65357(19)
C5B C 0.9991(2) -0.01105(6) 0.5784(2)
O11B O 0.42881(18) -0.04163(4) 0.38377(18)
O12B O 0.61997(18) 0.00069(4) 0.37252(17)
C6B C 0.5144(2) -0.01185(6) 0.4294(2)
Cu1B Cu 0.24944(3) -0.20358(2) 0.51495(3)
Cu2B Cu 0.26020(3) -0.04573(2) 0.50076(3)
O1B O 0.10527(18) -0.15418(4) 0.38615(17)
O2B O 0.14709(18) -0.09015(4) 0.37127(17)
O3B O 0.37786(19) -0.15999(4) 0.63725(18)
O4B O 0.38664(18) -0.09483(4) 0.65545(18)
O5B O 0.37545(18) -0.20662(4) 0.35231(17)
O6B O 0.4061(2) -0.24887(5) 0.16876(19)
O7B O 0.12299(18) -0.24604(4) 0.37853(18)
O8B O 0.13694(19) -0.28760(4) 0.18513(18)
C1B C 0.1802(2) -0.12349(6) 0.4353(2)
C2B C 0.3289(2) -0.12601(6) 0.5903(2)
C3B C 0.1853(2) -0.25886(6) 0.2755(2)
C4B C 0.3356(2) -0.23658(6) 0.2619(2)
Cu1A Cu 0.24944(3) -0.29642(2) 0.01495(3)
Cu1C Cu 0.75056(3) 0.29642(2) 0.98505(3)
Cu2B* Cu 1.26020(3) -0.04573(2) 0.50076(3)
O6A O 0.4061(2) -0.25113(5) 0.66876(19)
O6C O 0.5939(2) 0.25113(5) 0.33124(19)
O8A O 0.13694(19) -0.21240(4) 0.68513(18)
O8C O 0.86306(19) 0.21240(4) 0.31487(18)
O9B* O 0.09176(18) -0.04043(4) 0.61761(18)
O10* O 0.0903(2) -0.00102(5) 0.34643(19)
#END
