
#######################################################################
#
#                 Cambridge Crystallographic Data Centre
#                                CCDC
#
#######################################################################
#
# If this CIF has been generated from an entry in the Cambridge
# Structural Database, then it will include bibliographic, chemical,
# crystal, experimental, refinement or atomic coordinate data resulting
# from the CCDC's data processing and validation procedures.
#
#######################################################################

data_CSD_CIF_KEDJAG15
_audit_creation_date 2017-04-26
_audit_creation_method CSD-ConQuest-V1
_database_code_CSD KEDJAG15
_database_code_depnum_ccdc_archive 'CCDC 1019244'
_chemical_formula_sum 'C36 H64 Cu4 N4 O24'
_chemical_formula_moiety
;
(C12 Cu4 O24 4-)n,4(C6 H16 N1 1+)
;
_journal_coden_Cambridge 1078
_journal_year 2017
_journal_name_full 'CSD Communication(Private Communication) '
loop_
_publ_author_name
"Zhang Bin"
_chemical_name_systematic
;
catena-(tetrakis(Triethylammonium) hexakis(\m~2~-oxalato)-tetra-copper)
;
_cell_volume   2453.042
_exptl_crystal_colour 'blue'
_exptl_crystal_density_diffrn 1.613
_exptl_crystal_description 'diamond'
_diffrn_ambient_temperature 173
_refine_special_details
;
C111,C121 and C112,C122 disordered over two sites with occupancies 
0.704:0.296; C181 and C182 disordered over two sites with occupancies 
0.615:0.385.
;
#These two values have been output from a single CSD field.
_refine_ls_R_factor_gt 0.03
_refine_ls_wR_factor_gt 0.03
_symmetry_cell_setting monoclinic
_symmetry_space_group_name_H-M 'P 21/c'
_symmetry_Int_Tables_number 14
loop_
_symmetry_equiv_pos_site_id
_symmetry_equiv_pos_as_xyz
1 x,y,z
2 -x,1/2+y,1/2-z
3 -x,-y,-z
4 x,-1/2-y,-1/2+z
_cell_length_a 8.7368(1)
_cell_length_b 33.9968(4)
_cell_length_c 8.6704(1)
_cell_angle_alpha 90
_cell_angle_beta 107.7261(4)
_cell_angle_gamma 90
_cell_formula_units_Z 2
loop_
_atom_type_symbol
_atom_type_radius_bond
C 0.68
H 0.23
Cu 1.32
N 0.68
O 0.68
loop_
_atom_site_label
_atom_site_type_symbol
_atom_site_fract_x
_atom_site_fract_y
_atom_site_fract_z
Cu1 Cu 0.75034(3) 0.20355(2) 0.48460(3)
Cu2 Cu 0.73960(3) 0.04570(2) 0.49914(3)
O1 O 0.89453(16) 0.15421(4) 0.61347(16)
O2 O 0.85236(16) 0.09016(4) 0.62857(16)
O3 O 0.62200(17) 0.15997(4) 0.36232(17)
O4 O 0.61329(17) 0.09485(4) 0.34359(17)
O5 O 0.62424(16) 0.20659(4) 0.64701(17)
O6 O 0.59307(18) 0.24884(4) 0.83029(19)
O7 O 0.87669(17) 0.24607(4) 0.62079(17)
O8 O 0.86265(17) 0.28762(4) 0.81439(17)
O9 O 0.90765(16) 0.04052(4) 0.38290(17)
O10 O 1.08979(18) -0.00082(4) 0.34568(18)
O11 O 0.57113(17) 0.04173(4) 0.61568(17)
O12 O 0.37984(17) -0.00060(4) 0.62775(17)
C1 C 0.8195(2) 0.12347(5) 0.5643(2)
C2 C 0.6710(2) 0.12596(5) 0.4092(2)
C3 C 0.8144(2) 0.25884(5) 0.7241(2)
C4 C 0.6638(2) 0.23657(6) 0.7375(2)
C5 C 1.0007(2) 0.01112(5) 0.4215(2)
C6 C 0.4857(2) 0.01191(5) 0.5702(2)
N1 N 0.9023(2) 0.07890(5) 0.0974(2)
H1 H 0.91960 0.06470 0.20240
C7 C 0.9037(3) 0.12174(7) 0.1366(3)
H2 H 1.00190 0.12750 0.22710
H3 H 0.81010 0.12750 0.17450
C8 C 0.8990(4) 0.14893(7) -0.0019(3)
H4 H 0.90020 0.17630 0.03420
H5 H 0.99280 0.14410 -0.03860
H6 H 0.80070 0.14410 -0.09140
C9 C 1.0368(3) 0.06655(7) 0.0358(3)
H7 H 1.02260 0.07910 -0.07060
H8 H 1.03130 0.03770 0.01890
C10 C 1.1996(3) 0.07695(9) 0.1470(4)
H9 H 1.28220 0.06810 0.09970
H10 H 1.20730 0.10550 0.16230
H11 H 1.21600 0.06410 0.25190
C11 C 0.7336(6) 0.06924(16) -0.0035(6)
H12 H 0.71460 0.07950 -0.11470
H13 H 0.65640 0.08220 0.04330
C12 C 0.7057(6) 0.02524(14) -0.0100(5)
H14 H 0.59530 0.01960 -0.07620
H15 H 0.78100 0.01240 -0.05780
H16 H 0.72290 0.01520 0.09990
C13? C 0.7683(14) 0.0595(4) -0.0436(13)
H17? H 0.73550 0.07780 -0.13700
H18? H 0.80970 0.03510 -0.07900
C14? C 0.6290(13) 0.0503(4) 0.0123(10)
H19? H 0.54440 0.03810 -0.07610
H20? H 0.66190 0.03210 0.10410
H21? H 0.58790 0.07460 0.04620
N2 N 0.3416(2) 0.17146(5) 0.6561(2)
H22 H 0.44270 0.18630 0.66490
C15 C 0.2944(3) 0.18190(8) 0.8023(3)
H23 H 0.19060 0.16910 0.79490
H24 H 0.27830 0.21070 0.80400
C16 C 0.4176(4) 0.16963(11) 0.9589(3)
H25 H 0.38030 0.17720 1.05040
H26 H 0.43220 0.14100 0.95930
H27 H 0.52000 0.18270 0.96840
C17 C 0.3806(3) 0.12884(7) 0.6453(4)
H28 H 0.47440 0.12210 0.73910
H29 H 0.41200 0.12470 0.54610
C18 C 0.2455(3) 0.10100(7) 0.6422(4)
H30 H 0.28070 0.07390 0.63510
H31 H 0.21520 0.10420 0.74140
H32 H 0.15270 0.10680 0.54790
C19 C 0.2178(3) 0.18659(9) 0.5074(3)
H33 H 0.12620 0.16800 0.48130
H34 H 0.17800 0.21190 0.53630
C20 C 0.2591(5) 0.19273(15) 0.3636(5)
H35 H 0.16520 0.20260 0.27860
H36 H 0.34640 0.21200 0.38390
H37 H 0.29430 0.16780 0.32870
H38? H 0.21700 0.16910 0.41600
H39? H 0.11120 0.18440 0.52460
C21? C 0.2353(8) 0.2238(2) 0.4627(11)
H40? H 0.14770 0.23020 0.36460
H41? H 0.23240 0.24180 0.54990
H42? H 0.33850 0.22640 0.44090
O9B O 1.09235(16) -0.04052(4) 0.61710(17)
O10B O 0.91021(18) 0.00082(4) 0.65432(18)
C5B C 0.9993(2) -0.01112(5) 0.5785(2)
O11B O 0.42887(17) -0.04173(4) 0.38432(17)
O12B O 0.62016(17) 0.00060(4) 0.37225(17)
C6B C 0.5143(2) -0.01191(5) 0.4298(2)
Cu1B Cu 0.24966(3) -0.20355(2) 0.51540(3)
Cu2B Cu 0.26040(3) -0.04570(2) 0.50086(3)
O1B O 0.10547(16) -0.15421(4) 0.38653(16)
O2B O 0.14764(16) -0.09016(4) 0.37143(16)
O3B O 0.37800(17) -0.15997(4) 0.63768(17)
O4B O 0.38671(17) -0.09485(4) 0.65641(17)
O5B O 0.37576(16) -0.20659(4) 0.35299(17)
O6B O 0.40693(18) -0.24884(4) 0.16971(19)
O7B O 0.12331(17) -0.24607(4) 0.37921(17)
O8B O 0.13735(17) -0.28762(4) 0.18561(17)
C1B C 0.1805(2) -0.12347(5) 0.4357(2)
C2B C 0.3290(2) -0.12596(5) 0.5908(2)
C3B C 0.1856(2) -0.25884(5) 0.2759(2)
C4B C 0.3362(2) -0.23657(6) 0.2625(2)
Cu1A Cu 0.24966(3) -0.29645(2) 0.01540(3)
Cu1C Cu 0.75034(3) 0.29645(2) 0.98460(3)
Cu2B* Cu 1.26040(3) -0.04570(2) 0.50086(3)
O6A O 0.40693(18) -0.25116(4) 0.66971(19)
O6C O 0.59307(18) 0.25116(4) 0.33029(19)
O8A O 0.13735(17) -0.21238(4) 0.68561(17)
O8C O 0.86265(17) 0.21238(4) 0.31439(17)
O9B* O 0.09235(16) -0.04052(4) 0.61710(17)
O10* O 0.08979(18) -0.00082(4) 0.34568(18)
#END
