
#######################################################################
#
#                 Cambridge Crystallographic Data Centre
#                                CCDC
#
#######################################################################
#
# If this CIF has been generated from an entry in the Cambridge
# Structural Database, then it will include bibliographic, chemical,
# crystal, experimental, refinement or atomic coordinate data resulting
# from the CCDC's data processing and validation procedures.
#
#######################################################################

data_CSD_CIF_KEDJAG29
_audit_creation_date 2017-04-26
_audit_creation_method CSD-ConQuest-V1
_database_code_CSD KEDJAG29
_database_code_depnum_ccdc_archive 'CCDC 1019169'
_chemical_formula_sum 'C36 H64 Cu4 N4 O24'
_chemical_formula_moiety
;
(C12 Cu4 O24 4-)n,4(C6 H16 N1 1+)
;
_journal_coden_Cambridge 1078
_journal_year 2017
_journal_name_full 'CSD Communication(Private Communication) '
loop_
_publ_author_name
"Zhang Bin"
_chemical_name_systematic
;
catena-(tetrakis(Triethylammonium) hexakis(\m~2~-oxalato)-tetra-copper)
;
_cell_volume   2522.075
_exptl_crystal_colour 'blue'
_exptl_crystal_density_diffrn 1.568
_exptl_crystal_description 'diamond'
_diffrn_ambient_temperature 375
_refine_special_details
;
C112,C122 and C111,C121 disordered over two sites with occupancies 0.62:0.38; 
C181 and C182 disordered over two sites with occupancies 0.594:0.406.
;
#These two values have been output from a single CSD field.
_refine_ls_R_factor_gt 0.0342
_refine_ls_wR_factor_gt 0.0342
_symmetry_cell_setting monoclinic
_symmetry_space_group_name_H-M 'P 21/c'
_symmetry_Int_Tables_number 14
loop_
_symmetry_equiv_pos_site_id
_symmetry_equiv_pos_as_xyz
1 x,y,z
2 -x,1/2+y,1/2-z
3 -x,-y,-z
4 x,-1/2-y,-1/2+z
_cell_length_a 8.8839(1)
_cell_length_b 33.6507(4)
_cell_length_c 8.8737(1)
_cell_angle_alpha 90
_cell_angle_beta 108.0611(5)
_cell_angle_gamma 90
_cell_formula_units_Z 2
loop_
_atom_type_symbol
_atom_type_radius_bond
C 0.68
H 0.23
Cu 1.32
N 0.68
O 0.68
loop_
_atom_site_label
_atom_site_type_symbol
_atom_site_fract_x
_atom_site_fract_y
_atom_site_fract_z
Cu1 Cu 0.74130(3) 0.20440(2) 0.50962(3)
Cu2 Cu 0.74332(3) 0.04543(2) 0.50405(3)
O1 O 0.87963(19) 0.15559(5) 0.63219(18)
O2 O 0.85803(19) 0.09038(5) 0.63416(18)
O3 O 0.6133(2) 0.15974(5) 0.38692(19)
O4 O 0.6159(2) 0.09448(5) 0.3630(2)
O5 O 0.61354(19) 0.20848(5) 0.67168(19)
O6 O 0.5952(2) 0.24936(5) 0.8592(2)
O7 O 0.86850(19) 0.24638(5) 0.6519(2)
O8 O 0.8596(2) 0.28712(5) 0.8446(2)
O9 O 0.9099(2) 0.04002(5) 0.38242(19)
O10 O 1.0908(2) -0.00149(5) 0.3526(2)
O11 O 0.5788(2) 0.03951(5) 0.62526(19)
O12 O 0.3838(2) -0.00157(5) 0.62520(19)
C1 C 0.8156(3) 0.12405(7) 0.5788(3)
C2 C 0.6674(3) 0.12612(7) 0.4284(3)
C3 C 0.8102(3) 0.25913(7) 0.7522(3)
C4 C 0.6600(3) 0.23736(7) 0.7636(3)
C5 C 1.0014(3) 0.01091(6) 0.4235(2)
C6 C 0.4894(3) 0.01116(6) 0.5722(2)
N1 N 0.9111(3) 0.07729(7) 0.1004(2)
H1 H 0.93080 0.06230 0.19940
C7 C 0.8998(5) 0.11998(9) 0.1473(3)
H2 H 0.80670 0.12290 0.18150
H3 H 0.99160 0.12610 0.23730
C8 C 0.8905(5) 0.14933(9) 0.0202(4)
H4 H 0.88370 0.17560 0.05940
H5 H 0.98350 0.14730 -0.01270
H6 H 0.79840 0.14410 -0.06850
C9 C 1.0508(6) 0.06863(10) 0.0471(5)
H7 H 1.04790 0.04080 0.01800
H8 H 1.04200 0.08410 -0.04740
C10 C 1.2061(5) 0.07712(14) 0.1656(6)
H9 H 1.28920 0.07070 0.12170
H10 H 1.21200 0.10480 0.19320
H11 H 1.21790 0.06140 0.25870
C11 C 0.7827(19) 0.0587(5) -0.0322(16)
H12 H 0.75190 0.07680 -0.12160
H13 H 0.82230 0.03450 -0.06610
C12 C 0.6419(15) 0.0491(6) 0.0189(9)
H14 H 0.56130 0.03730 -0.06780
H15 H 0.67200 0.03090 0.10640
H16 H 0.60170 0.07310 0.05090
C13? C 0.740(3) 0.0679(8) 0.007(3)
H17? H 0.66960 0.08140 0.05550
H18? H 0.71670 0.07750 -0.10040
C14? C 0.711(3) 0.0242(7) 0.0056(16)
H19? H 0.60220 0.01880 -0.05330
H20? H 0.77890 0.01090 -0.04330
H21? H 0.73200 0.01480 0.11240
N2 N 0.3358(2) 0.17210(7) 0.6851(3)
H22 H 0.43220 0.18770 0.69770
C15 C 0.2866(4) 0.18081(11) 0.8276(4)
H23 H 0.26130 0.20890 0.82750
H24 H 0.19080 0.16600 0.81980
C16 C 0.4066(6) 0.17100(14) 0.9794(5)
H25 H 0.36640 0.17740 1.06510
H26 H 0.43040 0.14310 0.98200
H27 H 0.50110 0.18610 0.98980
C17 C 0.3800(4) 0.12957(9) 0.6686(4)
H28 H 0.41200 0.12710 0.57400
H29 H 0.47070 0.12280 0.75870
C18 C 0.2502(4) 0.10020(9) 0.6588(5)
H30 H 0.28730 0.07390 0.64850
H31 H 0.21950 0.10180 0.75320
H32 H 0.16070 0.10620 0.56820
C19 C 0.2145(4) 0.18829(13) 0.5405(5)
H33 H 0.12450 0.17040 0.51490
H34 H 0.17870 0.21350 0.56990
C20 C 0.2530(7) 0.1946(3) 0.4007(8)
H35 H 0.16240 0.20500 0.32050
H36 H 0.33870 0.21320 0.42060
H37 H 0.28420 0.16990 0.36530
H38? H 0.22020 0.17320 0.44930
H39? H 0.11040 0.18390 0.55120
C21? C 0.2288(11) 0.2283(6) 0.510(2)
H40? H 0.14620 0.23580 0.41540
H41? H 0.22000 0.24380 0.59760
H42? H 0.33000 0.23300 0.49540
O9B O 1.0901(2) -0.04002(5) 0.61758(19)
O10B O 0.9092(2) 0.00149(5) 0.6474(2)
C5B C 0.9986(3) -0.01091(6) 0.5765(2)
O11B O 0.4212(2) -0.03951(5) 0.37474(19)
O12B O 0.6162(2) 0.00157(5) 0.37480(19)
C6B C 0.5106(3) -0.01116(6) 0.4278(2)
Cu1B Cu 0.25870(3) -0.20440(2) 0.49038(3)
Cu2B Cu 0.25668(3) -0.04543(2) 0.49595(3)
O1B O 0.12037(19) -0.15559(5) 0.36781(18)
O2B O 0.14197(19) -0.09038(5) 0.36584(18)
O3B O 0.3867(2) -0.15974(5) 0.61308(19)
O4B O 0.3841(2) -0.09448(5) 0.6370(2)
O5B O 0.38646(19) -0.20848(5) 0.32832(19)
O6B O 0.4048(2) -0.24936(5) 0.1408(2)
O7B O 0.13150(19) -0.24638(5) 0.3481(2)
O8B O 0.1404(2) -0.28712(5) 0.1554(2)
C1B C 0.1844(3) -0.12405(7) 0.4212(3)
C2B C 0.3326(3) -0.12612(7) 0.5716(3)
C3B C 0.1898(3) -0.25913(7) 0.2478(3)
C4B C 0.3400(3) -0.23736(7) 0.2364(3)
Cu1A Cu 0.25870(3) -0.29560(2) -0.00962(3)
Cu1C Cu 0.74130(3) 0.29560(2) 1.00962(3)
Cu2B* Cu 1.25668(3) -0.04543(2) 0.49595(3)
O6A O 0.4048(2) -0.25064(5) 0.6408(2)
O6C O 0.5952(2) 0.25064(5) 0.3592(2)
O8A O 0.1404(2) -0.21288(5) 0.6554(2)
O8C O 0.8596(2) 0.21288(5) 0.3446(2)
O9B* O 0.0901(2) -0.04002(5) 0.61758(19)
O10* O 0.0908(2) -0.00149(5) 0.3526(2)
#END
