
#######################################################################
#
#                 Cambridge Crystallographic Data Centre
#                                CCDC
#
#######################################################################
#
# If this CIF has been generated from an entry in the Cambridge
# Structural Database, then it will include bibliographic, chemical,
# crystal, experimental, refinement or atomic coordinate data resulting
# from the CCDC's data processing and validation procedures.
#
#######################################################################

data_CSD_CIF_KEDJAG07
_audit_creation_date 2017-04-26
_audit_creation_method CSD-ConQuest-V1
_database_code_CSD KEDJAG07
_database_code_depnum_ccdc_archive 'CCDC 1019158'
_chemical_formula_sum 'C36 H64 Cu4 N4 O24'
_chemical_formula_moiety
;
(C12 Cu4 O24 4-)n,4(C6 H16 N1 1+)
;
_journal_coden_Cambridge 1078
_journal_year 2017
_journal_name_full 'CSD Communication(Private Communication) '
loop_
_publ_author_name
"Zhang Bin"
_chemical_name_systematic
;
catena-(tetrakis(Triethylammonium) hexakis(\m~2~-oxalato)-tetra-copper)
;
_cell_volume   2432.606
_exptl_crystal_colour 'blue'
_exptl_crystal_density_diffrn 1.626
_exptl_crystal_description 'diamond'
_diffrn_ambient_temperature 115
_refine_special_details
;
C181 and C182 disordered over two sites with occupancies 0.644:0.356.

;
#These two values have been output from a single CSD field.
_refine_ls_R_factor_gt 0.0294
_refine_ls_wR_factor_gt 0.0294
_symmetry_cell_setting monoclinic
_symmetry_space_group_name_H-M 'P 21/c'
_symmetry_Int_Tables_number 14
loop_
_symmetry_equiv_pos_site_id
_symmetry_equiv_pos_as_xyz
1 x,y,z
2 -x,1/2+y,1/2-z
3 -x,-y,-z
4 x,-1/2-y,-1/2+z
_cell_length_a 8.6926(1)
_cell_length_b 34.1564(4)
_cell_length_c 8.5956(1)
_cell_angle_alpha 90
_cell_angle_beta 107.6025(4)
_cell_angle_gamma 90
_cell_formula_units_Z 2
loop_
_atom_type_symbol
_atom_type_radius_bond
C 0.68
H 0.23
Cu 1.32
N 0.68
O 0.68
loop_
_atom_site_label
_atom_site_type_symbol
_atom_site_fract_x
_atom_site_fract_y
_atom_site_fract_z
Cu1 Cu 0.74841(3) 0.20344(2) 0.47899(3)
Cu2 Cu 0.73767(3) 0.04553(2) 0.49829(3)
O1 O 0.89598(16) 0.15353(4) 0.60962(16)
O2 O 0.84743(16) 0.09004(4) 0.62837(16)
O3 O 0.62062(17) 0.16002(4) 0.35709(16)
O4 O 0.61134(16) 0.09508(4) 0.33619(16)
O5 O 0.62325(16) 0.20576(4) 0.63985(17)
O6 O 0.58553(17) 0.24813(4) 0.82180(18)
O7 O 0.87358(16) 0.24633(4) 0.61316(17)
O8 O 0.85748(16) 0.28756(4) 0.80797(16)
O9 O 0.90551(16) 0.04094(4) 0.38551(16)
O10 O 1.08821(17) 0.00021(4) 0.34207(17)
O11 O 0.56945(16) 0.04237(4) 0.61234(16)
O12 O 0.37793(16) 0.00019(4) 0.62780(16)
C1 C 0.8177(2) 0.12317(5) 0.5615(2)
C2 C 0.6693(2) 0.12592(5) 0.4040(2)
C3 C 0.8102(2) 0.25863(5) 0.7172(2)
C4 C 0.6591(2) 0.23604(5) 0.7299(2)
C5 C 0.9998(2) 0.01142(5) 0.4213(2)
C6 C 0.4847(2) 0.01231(5) 0.5690(2)
N1 N 0.8960(2) 0.08022(5) 0.0988(2)
H1 H 0.91300 0.06650 0.20540
C7 C 0.9013(3) 0.12336(6) 0.1352(3)
H2 H 1.00110 0.12910 0.22480
H3 H 0.80850 0.13000 0.17430
C8 C 0.8967(3) 0.14937(6) -0.0089(3)
H4 H 0.90050 0.17690 0.02440
H5 H 0.98980 0.14350 -0.04690
H6 H 0.79690 0.14450 -0.09740
C9 C 1.0284(3) 0.06666(6) 0.0329(3)
H7 H 1.01130 0.07820 -0.07670
H8 H 1.02200 0.03780 0.02020
C10 C 1.1948(3) 0.07757(7) 0.1404(3)
H9 H 1.27570 0.06800 0.09130
H10 H 1.20300 0.10610 0.15150
H11 H 1.21370 0.06570 0.24840
C11 C 0.7312(3) 0.06830(7) -0.0083(3)
H12 H 0.71560 0.07820 -0.12020
H13 H 0.64820 0.08060 0.03330
C12 C 0.7077(3) 0.02458(7) -0.0144(3)
H14 H 0.59910 0.01830 -0.08530
H15 H 0.78800 0.01230 -0.05780
H16 H 0.72060 0.01470 0.09580
N2 N 0.3389(2) 0.17110(5) 0.6478(2)
H17 H 0.44060 0.18570 0.65540
C13 C 0.2945(3) 0.18125(7) 0.7978(3)
H18 H 0.18970 0.16890 0.79120
H19 H 0.28060 0.21000 0.80170
C14 C 0.4188(4) 0.16818(10) 0.9533(3)
H20 H 0.38340 0.17560 1.04720
H21 H 0.43140 0.13970 0.95160
H22 H 0.52240 0.18080 0.96210
C15 C 0.3760(3) 0.12875(7) 0.6339(4)
H23 H 0.47250 0.12180 0.72560
H24 H 0.40350 0.12480 0.53140
C16 C 0.2405(3) 0.10106(7) 0.6352(4)
H25 H 0.27450 0.07400 0.62570
H26 H 0.21420 0.10410 0.73760
H27 H 0.14510 0.10710 0.54310
C17 C 0.2131(3) 0.18673(9) 0.4998(3)
H28 H 0.12030 0.16850 0.47440
H29 H 0.17510 0.21200 0.53070
C18 C 0.2533(4) 0.19297(11) 0.3520(4)
H30 H 0.15880 0.20320 0.26780
H31 H 0.34190 0.21190 0.37190
H32 H 0.28680 0.16810 0.31520
H33? H 0.20900 0.16930 0.40670
H34? H 0.10700 0.18500 0.51980
C19? C 0.2321(8) 0.2235(2) 0.4548(10)
H35? H 0.14300 0.23020 0.35740
H36? H 0.23230 0.24140 0.54370
H37? H 0.33470 0.22560 0.43010
O9B O 1.09449(16) -0.04094(4) 0.61449(16)
O10B O 0.91179(17) -0.00021(4) 0.65793(17)
C5B C 1.0002(2) -0.01142(5) 0.5787(2)
O11B O 0.43055(16) -0.04237(4) 0.38766(16)
O12B O 0.62207(16) -0.00019(4) 0.37220(16)
C6B C 0.5153(2) -0.01231(5) 0.4310(2)
Cu1B Cu 0.25159(3) -0.20344(2) 0.52101(3)
Cu2B Cu 0.26233(3) -0.04553(2) 0.50171(3)
O1B O 0.10402(16) -0.15353(4) 0.39038(16)
O2B O 0.15257(16) -0.09004(4) 0.37163(16)
O3B O 0.37938(17) -0.16002(4) 0.64291(16)
O4B O 0.38866(16) -0.09508(4) 0.66381(16)
O5B O 0.37675(16) -0.20576(4) 0.36015(17)
O6B O 0.41447(17) -0.24813(4) 0.17820(18)
O7B O 0.12642(16) -0.24633(4) 0.38684(17)
O8B O 0.14252(16) -0.28756(4) 0.19203(16)
C1B C 0.1823(2) -0.12317(5) 0.4385(2)
C2B C 0.3307(2) -0.12592(5) 0.5960(2)
C3B C 0.1898(2) -0.25863(5) 0.2828(2)
C4B C 0.3409(2) -0.23604(5) 0.2701(2)
Cu1A Cu 0.25159(3) -0.29656(2) 0.02101(3)
Cu1C Cu 0.74841(3) 0.29656(2) 0.97899(3)
Cu2B* Cu 1.26233(3) -0.04553(2) 0.50171(3)
O6A O 0.41447(17) -0.25187(4) 0.67820(18)
O6C O 0.58553(17) 0.25187(4) 0.32180(18)
O8A O 0.14252(16) -0.21244(4) 0.69203(16)
O8C O 0.85748(16) 0.21244(4) 0.30797(16)
O9B* O 0.09449(16) -0.04094(4) 0.61449(16)
O10* O 0.08821(17) 0.00021(4) 0.34207(17)
#END
