
#######################################################################
#
#                 Cambridge Crystallographic Data Centre
#                                CCDC
#
#######################################################################
#
# If this CIF has been generated from an entry in the Cambridge
# Structural Database, then it will include bibliographic, chemical,
# crystal, experimental, refinement or atomic coordinate data resulting
# from the CCDC's data processing and validation procedures.
#
#######################################################################

data_CSD_CIF_KEDJAG11
_audit_creation_date 2017-04-26
_audit_creation_method CSD-ConQuest-V1
_database_code_CSD KEDJAG11
_database_code_depnum_ccdc_archive 'CCDC 1537588'
_chemical_formula_sum 'C36 H64 Cu4 N4 O24'
_chemical_formula_moiety
;
(C12 Cu4 O24 4-)n,4(C6 H16 N1 1+)
;
_journal_coden_Cambridge 1078
_journal_year 2017
_journal_name_full 'CSD Communication(Private Communication) '
loop_
_publ_author_name
"Zhang Bin"
_chemical_name_systematic
;
catena-(tetrakis(Triethylammonium) hexakis(\m~2~-oxalato)-tetra-copper)
;
_cell_volume   2444.718
_exptl_crystal_colour 'blue'
_exptl_crystal_density_diffrn 1.618
_exptl_crystal_description 'diamond'
_diffrn_ambient_temperature 155
_refine_special_details
;
C111,C121 and C112,C122 disordered over two sites with occupancies 
0.80,0.790:0.20,0.210; C181 and C182 disordered over two sites with 
occupancies 0.615:0.385.
;
#These two values have been output from a single CSD field.
_refine_ls_R_factor_gt 0.029
_refine_ls_wR_factor_gt 0.029
_symmetry_cell_setting monoclinic
_symmetry_space_group_name_H-M 'P 21/c'
_symmetry_Int_Tables_number 14
loop_
_symmetry_equiv_pos_site_id
_symmetry_equiv_pos_as_xyz
1 x,y,z
2 -x,1/2+y,1/2-z
3 -x,-y,-z
4 x,-1/2-y,-1/2+z
_cell_length_a 8.7156(1)
_cell_length_b 34.0813(4)
_cell_length_c 8.6360(1)
_cell_angle_alpha 90
_cell_angle_beta 107.632(1)
_cell_angle_gamma 90
_cell_formula_units_Z 2
loop_
_atom_type_symbol
_atom_type_radius_bond
C 0.68
H 0.23
Cu 1.32
N 0.68
O 0.68
loop_
_atom_site_label
_atom_site_type_symbol
_atom_site_fract_x
_atom_site_fract_y
_atom_site_fract_z
Cu1 Cu 0.74952(3) 0.20351(2) 0.48286(3)
Cu2 Cu 0.73861(3) 0.04560(2) 0.49862(2)
O1 O 0.89528(16) 0.15372(4) 0.61220(15)
O2 O 0.85003(16) 0.09002(4) 0.62842(15)
O3 O 0.62165(17) 0.16008(4) 0.36071(16)
O4 O 0.61223(17) 0.09511(4) 0.34025(16)
O5 O 0.62390(16) 0.20612(4) 0.64442(16)
O6 O 0.58957(18) 0.24832(4) 0.82735(17)
O7 O 0.87540(17) 0.24614(4) 0.61814(16)
O8 O 0.86021(17) 0.28750(4) 0.81239(16)
O9 O 0.90653(16) 0.04066(4) 0.38404(16)
O10 O 1.08904(18) -0.00022(4) 0.34408(16)
O11 O 0.57037(16) 0.04196(4) 0.61398(16)
O12 O 0.37925(17) -0.00024(4) 0.62780(16)
C1 C 0.8187(2) 0.12330(5) 0.5635(2)
C2 C 0.6699(2) 0.12599(5) 0.4072(2)
C3 C 0.8122(2) 0.25866(5) 0.7218(2)
C4 C 0.6620(2) 0.23634(5) 0.7347(2)
C5 C 1.0006(2) 0.01127(5) 0.4213(2)
C6 C 0.4851(2) 0.01209(5) 0.5699(2)
N1 N 0.8997(2) 0.07953(5) 0.0980(2)
H1 H 0.91680 0.06550 0.20370
C7 C 0.9029(3) 0.12245(6) 0.1365(3)
H2 H 1.00170 0.12810 0.22670
H3 H 0.80960 0.12860 0.17510
C8 C 0.8983(3) 0.14917(7) -0.0039(3)
H4 H 0.90080 0.17660 0.03130
H5 H 0.99190 0.14390 -0.04130
H6 H 0.79940 0.14440 -0.09300
C9 C 1.0332(3) 0.06657(7) 0.0349(3)
H7 H 1.01800 0.07860 -0.07300
H8 H 1.02730 0.03770 0.02030
C10 C 1.1973(3) 0.07727(8) 0.1448(4)
H9 H 1.27940 0.06800 0.09710
H10 H 1.20510 0.10580 0.15780
H11 H 1.21440 0.06490 0.25120
C11 C 0.7332(6) 0.06899(19) -0.0045(9)
H12 H 0.71520 0.07930 -0.11590
H13 H 0.65390 0.08160 0.04100
C12 C 0.7067(5) 0.02494(12) -0.0122(4)
H14 H 0.59680 0.01920 -0.08010
H15 H 0.78380 0.01250 -0.05910
H16 H 0.72250 0.01480 0.09770
H17? H 0.90750 0.06450 0.19950
C13? C 0.763(3) 0.0600(7) -0.047(2)
H18? H 0.72790 0.07860 -0.13940
H19? H 0.80570 0.03610 -0.08560
C14? C 0.629(2) 0.0499(6) 0.0118(14)
H20? H 0.54300 0.03780 -0.07610
H21? H 0.66480 0.03140 0.10250
H22? H 0.58730 0.07370 0.04890
N2 N 0.3408(2) 0.17115(5) 0.6529(2)
H23 H 0.44220 0.18590 0.66150
C15 C 0.2937(3) 0.18153(7) 0.8002(3)
H24 H 0.18950 0.16880 0.79270
H25 H 0.27810 0.21030 0.80230
C16 C 0.4170(4) 0.16911(10) 0.9570(3)
H26 H 0.37980 0.17660 1.04910
H27 H 0.43130 0.14060 0.95700
H28 H 0.51990 0.18200 0.96650
C17 C 0.3790(3) 0.12861(7) 0.6413(4)
H29 H 0.47370 0.12180 0.73450
H30 H 0.40920 0.12450 0.54080
C18 C 0.2434(3) 0.10089(7) 0.6398(4)
H31 H 0.27810 0.07380 0.63200
H32 H 0.21440 0.10410 0.74020
H33 H 0.14980 0.10680 0.54610
C19 C 0.2167(3) 0.18636(10) 0.5040(3)
H34 H 0.12510 0.16780 0.47780
H35 H 0.17660 0.21160 0.53370
C20 C 0.2569(5) 0.19276(13) 0.3598(5)
H36 H 0.16240 0.20260 0.27530
H37 H 0.34410 0.21210 0.38000
H38 H 0.29220 0.16800 0.32370
H39? H 0.21520 0.16880 0.41220
H40? H 0.11000 0.18430 0.52190
C21? C 0.2344(8) 0.2234(2) 0.4585(10)
H41? H 0.14640 0.22990 0.36040
H42? H 0.23210 0.24150 0.54610
H43? H 0.33760 0.22600 0.43600
O9B O 1.09347(16) -0.04066(4) 0.61596(16)
O10B O 0.91096(18) 0.00022(4) 0.65592(16)
C5B C 0.9994(2) -0.01127(5) 0.5787(2)
O11B O 0.42963(16) -0.04196(4) 0.38602(16)
O12B O 0.62075(17) 0.00024(4) 0.37220(16)
C6B C 0.5149(2) -0.01209(5) 0.4301(2)
Cu1B Cu 0.25048(3) -0.20351(2) 0.51714(3)
Cu2B Cu 0.26139(3) -0.04560(2) 0.50138(2)
O1B O 0.10472(16) -0.15372(4) 0.38780(15)
O2B O 0.14997(16) -0.09002(4) 0.37158(15)
O3B O 0.37835(17) -0.16008(4) 0.63929(16)
O4B O 0.38777(17) -0.09511(4) 0.65975(16)
O5B O 0.37610(16) -0.20612(4) 0.35558(16)
O6B O 0.41043(18) -0.24832(4) 0.17265(17)
O7B O 0.12460(17) -0.24614(4) 0.38186(16)
O8B O 0.13979(17) -0.28750(4) 0.18761(16)
C1B C 0.1813(2) -0.12330(5) 0.4365(2)
C2B C 0.3301(2) -0.12599(5) 0.5928(2)
C3B C 0.1878(2) -0.25866(5) 0.2782(2)
C4B C 0.3380(2) -0.23634(5) 0.2653(2)
Cu1A Cu 0.25048(3) -0.29649(2) 0.01714(3)
Cu1C Cu 0.74952(3) 0.29649(2) 0.98286(3)
Cu2B* Cu 1.26139(3) -0.04560(2) 0.50138(2)
O6A O 0.41043(18) -0.25168(4) 0.67265(17)
O6C O 0.58957(18) 0.25168(4) 0.32735(17)
O8A O 0.13979(17) -0.21250(4) 0.68761(16)
O8C O 0.86021(17) 0.21250(4) 0.31239(16)
O9B* O 0.09347(16) -0.04066(4) 0.61596(16)
O10* O 0.08904(18) -0.00022(4) 0.34408(16)
#END
