
#######################################################################
#
#                 Cambridge Crystallographic Data Centre
#                                CCDC
#
#######################################################################
#
# If this CIF has been generated from an entry in the Cambridge
# Structural Database, then it will include bibliographic, chemical,
# crystal, experimental, refinement or atomic coordinate data resulting
# from the CCDC's data processing and validation procedures.
#
#######################################################################

data_CSD_CIF_KEDJAG54
_audit_creation_date 2020-01-27
_audit_creation_method CSD-ConQuest-V1
_database_code_CSD KEDJAG54
_database_code_depnum_ccdc_archive 'CCDC 1980066'
_chemical_formula_sum 'C36 H64 Cu4 N4 O24'
_chemical_formula_moiety
;
(C12 Cu4 O24 4-)n,4(C6 H16 N1 1+)
;
_journal_coden_Cambridge 1078
_journal_year 2020
_journal_name_full 'CSD Communication(Private Communication) '
loop_
_publ_author_name
"Bin Zhang"
_chemical_name_systematic
;
catena-(tetrakis(Triethylammonium) hexakis(\m~2~-oxalato)-tetra-copper)
;
_cell_volume   2500.548
_exptl_crystal_colour 'blue'
_exptl_crystal_density_diffrn 1.582
_exptl_crystal_description 'rhombus'
_diffrn_ambient_temperature 290
_diffrn_special_details
;
twin

;
_refine_special_details
;
C16 and C17 disordered over two sites with occupancies 0.630:0.370; C26 and 
C27 disordered over two sites with occupancies 0.582:0.418.
;
#These two values have been output from a single CSD field.
_refine_ls_R_factor_gt 0.0308
_refine_ls_wR_factor_gt 0.0308
_symmetry_cell_setting monoclinic
_symmetry_space_group_name_H-M 'P 21/c'
_symmetry_Int_Tables_number 14
loop_
_symmetry_equiv_pos_site_id
_symmetry_equiv_pos_as_xyz
1 x,y,z
2 -x,1/2+y,1/2-z
3 -x,-y,-z
4 x,-1/2-y,-1/2+z
_cell_length_a 14.2898(4)
_cell_length_b 10.3510(3)
_cell_length_c 18.2299(7)
_cell_angle_alpha 90
_cell_angle_beta 111.975(4)
_cell_angle_gamma 90
_cell_formula_units_Z 2
loop_
_atom_type_symbol
_atom_type_radius_bond
C 0.68
H 0.23
Cu 1.32
N 0.68
O 0.68
loop_
_atom_site_label
_atom_site_type_symbol
_atom_site_fract_x
_atom_site_fract_y
_atom_site_fract_z
Cu1 Cu 0.32862(2) 0.87181(2) 0.40627(2)
O1 O 0.49409(10) 0.89095(13) 0.42553(9)
O2 O 0.29412(10) 0.73631(13) 0.32364(8)
O3 O 0.28299(10) 0.99273(12) 0.31425(8)
O4 O 0.36486(9) 0.74565(15) 0.49685(9)
O5 O 0.17851(10) 0.84843(14) 0.41609(9)
O6 O 0.37143(9) 1.01671(14) 0.48430(8)
C1 C 0.53522(13) 0.96369(18) 0.48260(11)
C2 C 0.2517(1) 0.78204(19) 0.25488(9)
C3 C 0.25347(10) 0.9323(2) 0.25002(9)
C4 C 0.29588(12) 0.72240(18) 0.52162(11)
C5 C 0.18981(13) 0.78072(18) 0.47410(11)
O7 O 0.2108(1) 0.72125(13) 0.19343(9)
O8 O 0.22634(9) 0.98390(12) 0.18351(7)
O9 O 0.30406(9) 0.65624(14) 0.58100(9)
O10 O 0.12246(9) 0.75111(15) 0.50093(9)
Cu2 Cu 0.17135(2) 0.86789(2) 0.09077(2)
O11 O 0.02997(9) 0.60306(13) 0.58265(8)
O12 O 0.12004(9) 0.46051(14) 0.50194(9)
C6 C -0.02709(13) 0.54031(18) 0.52272(11)
N1 N 0.58615(14) 0.74737(18) 0.34604(12)
H1 H 0.56200 0.80230 0.37910
C7 C 0.51615(19) 0.7692(3) 0.26280(18)
H2 H 0.51230 0.86130 0.25250
H3 H 0.44930 0.74060 0.25760
C8 C 0.5438(2) 0.7027(4) 0.20026(18)
H4 H 0.49430 0.72260 0.14900
H5 H 0.60890 0.73210 0.20340
H6 H 0.54570 0.61100 0.20850
C9 C 0.6929(2) 0.7863(3) 0.36329(19)
H7 H 0.73320 0.76590 0.41800
H8 H 0.71900 0.73600 0.33020
C10 C 0.7044(3) 0.9254(4) 0.3496(3)
H9 H 0.77430 0.94450 0.36160
H10 H 0.66610 0.94600 0.29520
H11 H 0.68020 0.97590 0.38310
C11 C 0.5834(4) 0.6123(3) 0.3732(3)
H12 H 0.57950 0.55670 0.32930
H13 H 0.64860 0.59620 0.41470
C12 C 0.5141(6) 0.5691(6) 0.4001(6)
H14 H 0.52660 0.47960 0.41420
H15 H 0.51780 0.61820 0.44570
H16 H 0.44820 0.57840 0.35960
N2 N -0.08110(14) 0.74470(18) 0.65428(12)
H17 H -0.05160 0.68930 0.62500
C13 C -0.01680(19) 0.7299(3) 0.73974(18)
H18 H 0.05030 0.76170 0.74810
H19 H -0.01080 0.63850 0.75250
C14 C -0.0540(2) 0.7982(3) 0.79655(17)
H20 H -0.00790 0.78310 0.84980
H21 H -0.05830 0.88930 0.78580
H22 H -0.11950 0.76580 0.79020
C15 C -0.1876(2) 0.7006(3) 0.63334(19)
H23 H -0.22380 0.71100 0.57690
H24 H -0.21990 0.75530 0.66010
C16 C -0.1956(3) 0.5624(4) 0.6552(3)
H25 H -0.26540 0.53970 0.64040
H26 H -0.16520 0.50740 0.62800
H27 H -0.16130 0.55170 0.71130
C17 C -0.0800(4) 0.8788(3) 0.6251(3)
H28 H -0.14450 0.89110 0.58210
H29 H -0.07990 0.93550 0.66740
C18 C -0.0122(6) 0.9244(6) 0.6003(5)
H30 H -0.02760 1.01290 0.58460
H31 H 0.05310 0.91950 0.64210
H32 H -0.01210 0.87460 0.55590
H33? H 0.52600 0.56930 0.33400
H34? H 0.64360 0.56860 0.37360
C19? C 0.5773(11) 0.5941(11) 0.4453(10)
H35? H 0.57610 0.50330 0.45550
H36? H 0.63480 0.63280 0.48550
H37? H 0.51670 0.63350 0.44580
H38? H -0.13940 0.92270 0.62630
H39? H -0.02170 0.92240 0.66280
C20? C -0.0775(9) 0.8968(8) 0.5501(7)
H40? H -0.07710 0.98760 0.53950
H41? H -0.01780 0.85750 0.54790
H42? H -0.13610 0.85770 0.51130
C1B C 0.46478(13) 1.03631(18) 0.51740(11)
O6B O 0.62857(9) 0.98329(14) 0.51570(8)
O1B O 0.50591(10) 1.10905(13) 0.57447(9)
Cu1B Cu 0.67138(2) 1.12819(2) 0.59373(2)
Cu2C Cu 0.17135(2) 0.63211(2) 0.59077(2)
O2B O 0.70588(10) 1.26369(13) 0.67636(8)
O5B O 0.82149(10) 1.15157(14) 0.58391(9)
O3B O 0.71701(10) 1.00727(12) 0.68575(8)
O4B O 0.63514(9) 1.25435(15) 0.50315(9)
O7C O 0.2108(1) 0.77875(13) 0.69343(9)
O8C O 0.22634(9) 0.51610(12) 0.68351(7)
C5B C 0.81019(13) 1.21928(18) 0.52590(11)
C4B C 0.70412(12) 1.27760(18) 0.47838(11)
C6B C 0.02709(13) 0.45969(18) 0.47728(11)
O10B O 0.87754(9) 1.24889(15) 0.49907(9)
O9B O 0.69594(9) 1.34376(14) 0.41900(9)
O12B O -0.12004(9) 0.53949(14) 0.49806(9)
O11B O -0.02997(9) 0.39694(13) 0.41735(8)
Cu2A Cu 0.82865(2) 1.36789(2) 0.40923(2)
Cu2A* Cu -0.17135(2) 0.36789(2) 0.40923(2)
O11B* O 0.97003(9) 1.39694(13) 0.41735(8)
O12B* O 0.87996(9) 1.53949(14) 0.49806(9)
O7A O 0.7892(1) 1.22125(13) 0.30657(9)
O8A O 0.77366(9) 1.48390(12) 0.31649(7)
C6B* C 1.02709(13) 1.45969(18) 0.47728(11)
C6* C 0.97291(13) 1.54031(18) 0.52272(11)
O12* O 1.12004(9) 1.46051(14) 0.50194(9)
O11* O 1.02997(9) 1.60306(13) 0.58265(8)
Cu2C* Cu 1.17135(2) 1.63211(2) 0.59077(2)
#END
