
#######################################################################
#
#                 Cambridge Crystallographic Data Centre
#                                CCDC
#
#######################################################################
#
# If this CIF has been generated from an entry in the Cambridge
# Structural Database, then it will include bibliographic, chemical,
# crystal, experimental, refinement or atomic coordinate data resulting
# from the CCDC's data processing and validation procedures.
#
#######################################################################

data_CSD_CIF_KEFFEI
_audit_creation_date 2012-09-26
_audit_creation_method CSD-ConQuest-V1
_database_code_CSD KEFFEI
_database_code_depnum_ccdc_archive 'CCDC 878230'
_chemical_formula_sum 'C5 H9 Dy1 N2 O8'
_chemical_formula_moiety
;
(C4 H4 Dy1 O8 1-)n,n(C1 H5 N2 1+)
;
_journal_coden_Cambridge 9
_journal_volume 51
_journal_year 2012
_journal_page_first 6962
_journal_name_full 'Inorg.Chem. '
loop_
_publ_author_name
"A.Rossin"
"G.Giambastiani"
"M.Peruzzini"
"R.Sessoli"
_chemical_name_systematic
;
catena-(Formamidinium tetrakis(\m~2~-formato-O,O')-dysprosium)
;
_cell_volume   1044.843
_exptl_crystal_colour 'colorless'
_exptl_crystal_density_diffrn 2.464
_exptl_crystal_description 'prism'
_diffrn_ambient_temperature 298
#These two values have been output from a single CSD field.
_refine_ls_R_factor_gt 0.0244
_refine_ls_wR_factor_gt 0.0244
_symmetry_cell_setting orthorhombic
_symmetry_space_group_name_H-M 'C 2 2 21'
_symmetry_Int_Tables_number 20
loop_
_symmetry_equiv_pos_site_id
_symmetry_equiv_pos_as_xyz
1 x,y,z
2 -x,-y,1/2+z
3 x,-y,-z
4 -x,y,1/2-z
5 1/2+x,1/2+y,z
6 1/2-x,1/2-y,1/2+z
7 1/2+x,1/2-y,-z
8 1/2-x,1/2+y,1/2-z
_cell_length_a 6.682(2)
_cell_length_b 18.446(7)
_cell_length_c 8.477(3)
_cell_angle_alpha 90
_cell_angle_beta 90
_cell_angle_gamma 90
_cell_formula_units_Z 4
loop_
_atom_type_symbol
_atom_type_radius_bond
C 0.68
H 0.23
Dy 1.92
N 0.68
O 0.68
loop_
_atom_site_label
_atom_site_type_symbol
_atom_site_fract_x
_atom_site_fract_y
_atom_site_fract_z
C1 C 0.50000 0.8752(3) 0.25000
H1 H 0.50000 0.82480 0.25000
C2 C 0.0739(11) 1.00000 0.50000
H2 H 0.21310 1.00000 0.50000
C3 C -0.2660(9) 0.7440(3) 0.0264(6)
H3 H -0.28740 0.78270 -0.04180
O1 O 0.3358(5) 0.90537(18) 0.2690(8)
O2 O -0.0136(11) 0.95020(17) 0.4317(4)
O3 O -0.1807(6) 0.7575(2) 0.1526(4)
O4 O -0.3258(6) 0.68314(19) -0.0178(5)
Dy1 Dy 0.00000 0.857359(11) 0.25000
C4 C -0.50000 0.9053(4) 0.75000
H4 H -0.50000 0.860(4) 0.75000
N1 N -0.3639(9) 0.9369(3) 0.6683(7)
H5 H -0.35860 0.98350 0.66520
H6 H -0.27790 0.91150 0.61680
C3C C 0.2660(9) 0.7440(3) 0.4736(6)
H3C H 0.28740 0.78270 0.54180
O1C O 0.6642(5) 0.90537(18) 0.2310(8)
O1C* O -0.3358(5) 0.90537(18) 0.2310(8)
O2B O -0.0136(11) 1.04980(17) 0.5683(4)
O2C O 0.0136(11) 0.95020(17) 0.0683(4)
O3C O 0.1807(6) 0.7575(2) 0.3474(4)
O4C O 0.3258(6) 0.68314(19) 0.5178(5)
O4E O -0.1742(6) 0.81686(19) 0.4822(5)
O4F O 0.1742(6) 0.81686(19) 0.0178(5)
Dy1* Dy 1.00000 0.857359(11) 0.25000
Dy1A Dy 0.00000 1.142641(11) 0.75000
Dy1E Dy -0.50000 0.642641(11) -0.25000
Dy1E* Dy 0.50000 0.642641(11) 0.75000
N1C N -0.6361(9) 0.9369(3) 0.8317(7)
H5C H -0.64140 0.98350 0.83480
H6C H -0.72210 0.91150 0.88320
#END
