
#######################################################################
#
#                 Cambridge Crystallographic Data Centre
#                                CCDC
#
#######################################################################
#
# If this CIF has been generated from an entry in the Cambridge
# Structural Database, then it will include bibliographic, chemical,
# crystal, experimental, refinement or atomic coordinate data resulting
# from the CCDC's data processing and validation procedures.
#
#######################################################################

data_CSD_CIF_KEFWEZ
_audit_creation_date 2012-10-16
_audit_creation_method CSD-ConQuest-V1
_database_code_CSD KEFWEZ
_database_code_depnum_ccdc_archive 'CCDC 891802'
_chemical_formula_sum 'C34 H38 Co3 N4 O22'
_chemical_formula_moiety
;
(C2 H8 N1 1+)2n,n(C24 H8 Co3 O20 2-),2n(C3 H7 N1 O1)
;
_journal_coden_Cambridge 1147
_journal_volume 12
_journal_year 2012
_journal_page_first 2602
_journal_name_full 'Cryst.Growth Des. '
loop_
_publ_author_name
"Huan-Huan Li"
"Wei Shi"
"Na Xu"
"Zhen-Jie Zhang"
"Zheng Niu"
"Tian Han"
"Peng Cheng"
_chemical_name_systematic
;
catena-(bis(Dimethylammonium) 
bis((\m~4~-furan-2,5-dicarboxylato)-(\m~3~-furan-2,5-dicarboxylato))-tri-cobal
t N,N-dimethylformamide solvate)
;
_cell_volume   2475.122
_exptl_crystal_density_diffrn 1.384
_diffrn_ambient_temperature 120
#These two values have been output from a single CSD field.
_refine_ls_R_factor_gt 0.0863
_refine_ls_wR_factor_gt 0.0863
_symmetry_cell_setting monoclinic
_symmetry_space_group_name_H-M 'P 21/c'
_symmetry_Int_Tables_number 14
loop_
_symmetry_equiv_pos_site_id
_symmetry_equiv_pos_as_xyz
1 x,y,z
2 -x,1/2+y,1/2-z
3 -x,-y,-z
4 x,-1/2-y,-1/2+z
_cell_length_a 9.2915(4)
_cell_length_b 15.0734(7)
_cell_length_c 17.8179(7)
_cell_angle_alpha 90
_cell_angle_beta 97.323(4)
_cell_angle_gamma 90
_cell_formula_units_Z 2
loop_
_atom_type_symbol
_atom_type_radius_bond
C 0.68
H 0.23
Co 1.46
N 0.68
O 0.88
loop_
_atom_site_label
_atom_site_type_symbol
_atom_site_fract_x
_atom_site_fract_y
_atom_site_fract_z
Co1 Co 0.50000 0.00000 0.50000
Co2 Co 0.57713(9) -0.11256(6) 0.66364(5)
O1 O 0.0529(5) -0.0395(3) 0.6237(2)
O2 O 0.3173(5) -0.1194(4) 0.6721(3)
O3 O 0.4348(5) -0.0190(3) 0.6137(2)
O4 O -0.2281(5) -0.0717(3) 0.6403(3)
O5 O -0.2979(5) 0.0337(4) 0.5544(3)
O6 O 0.4098(5) 0.2913(3) 0.5885(2)
O7 O 0.4458(5) 0.1397(3) 0.5087(3)
O8 O 0.4422(6) 0.2191(3) 0.4023(2)
O9 O 0.3952(5) 0.3241(4) 0.7354(3)
O10 O 0.3782(7) 0.4669(4) 0.7180(3)
O11 O 0.930(2) 0.5676(11) 0.689(1)
O12 O 0.7307(17) 0.3609(10) 0.4031(9)
N1 N 0.5464(13) 0.3379(9) 0.2662(7)
H1 H 0.53860 0.28000 0.27740
H2 H 0.59600 0.36380 0.30710
N2 N 0.9215(17) 0.4132(11) 0.6831(9)
N3 N 0.9465(19) 0.3103(11) 0.4437(10)
C1 C -0.0530(7) 0.0184(5) 0.5960(4)
C2 C 0.0045(7) 0.0917(5) 0.5679(4)
H3 H -0.04600 0.14030 0.54570
C3 C 0.1586(7) 0.0799(5) 0.5789(4)
H4 H 0.22820 0.11980 0.56650
C4 C 0.1828(7) -0.0006(5) 0.6108(4)
C5 C 0.3149(7) -0.0521(5) 0.6344(3)
C6 C -0.2057(7) -0.0096(5) 0.5985(4)
C7 C 0.4131(8) 0.2945(5) 0.5125(4)
C8 C 0.3864(8) 0.3772(5) 0.6104(4)
C9 C 0.3777(10) 0.4323(6) 0.5514(4)
H5 H 0.36420 0.49340 0.55190
C10 C 0.3931(11) 0.3784(6) 0.4877(5)
H6 H 0.39000 0.39750 0.43790
C11 C 0.4369(7) 0.2099(5) 0.4725(4)
C12 C 0.3848(8) 0.3910(6) 0.6925(4)
C13 C 0.4031(13) 0.3740(8) 0.2580(7)
H7 H 0.37020 0.38360 0.20530
H8 H 0.40380 0.42940 0.28460
H9 H 0.33890 0.33330 0.27850
C14 C 0.6356(14) 0.3434(8) 0.2065(7)
H10 H 0.57540 0.35250 0.15920
H11 H 0.68920 0.28930 0.20430
H12 H 0.70180 0.39220 0.21590
C15 C 0.827(2) 0.3085(15) 0.4065(13)
H13 H 0.80870 0.25860 0.37610
C16 C 1.041(3) 0.2521(13) 0.4116(13)
H14 H 1.06220 0.27590 0.36440
H15 H 0.99500 0.19520 0.40320
H16 H 1.12900 0.24560 0.44550
C17 C 1.000(2) 0.3860(15) 0.4895(12)
H17 H 1.08730 0.36970 0.52140
H18 H 0.92810 0.40450 0.52040
H19 H 1.02070 0.43400 0.45710
C18 C 0.988(2) 0.3316(14) 0.7121(12)
H20 H 0.92230 0.30010 0.73980
H21 H 1.07550 0.34490 0.74510
H22 H 1.01120 0.29570 0.67080
C19 C 0.774(2) 0.3992(18) 0.6446(12)
H23 H 0.77840 0.38120 0.59320
H24 H 0.71980 0.45350 0.64480
H25 H 0.72680 0.35390 0.67040
C20 C 0.989(2) 0.4968(13) 0.7019(13)
H26 H 1.08440 0.49680 0.72550
Co1* Co -0.50000 0.00000 0.50000
Co1** Co 1.50000 0.00000 0.50000
Co2B Co 0.42287(9) 0.11256(6) 0.33636(5)
Co2* Co -0.42287(9) -0.11256(6) 0.66364(5)
Co2A Co 0.42287(9) 0.38744(6) 0.83636(5)
Co2B* Co 1.42287(9) 0.11256(6) 0.33636(5)
Co2C Co 0.57713(9) -0.38744(6) 0.16364(5)
O1B O 0.9471(5) 0.0395(3) 0.3763(2)
O2B O 0.6827(5) 0.1194(4) 0.3279(3)
O3B O 0.5652(5) 0.0190(3) 0.3863(2)
O4B O 1.2281(5) 0.0717(3) 0.3597(3)
O4* O 0.7719(5) -0.0717(3) 0.6403(3)
O4B* O 0.2281(5) 0.0717(3) 0.3597(3)
O5B O 1.2979(5) -0.0337(4) 0.4456(3)
O5* O 0.7021(5) 0.0337(4) 0.5544(3)
O5B* O 0.2979(5) -0.0337(4) 0.4456(3)
O6B O 0.5902(5) -0.2913(3) 0.4115(2)
O7B O 0.5542(5) -0.1397(3) 0.4913(3)
O8B O 0.5578(6) -0.2191(3) 0.5977(2)
O9B O 0.6048(5) -0.3241(4) 0.2646(3)
O9A O 0.6048(5) -0.1759(4) 0.7646(3)
O9C O 0.3952(5) 0.1759(4) 0.2354(3)
O10B O 0.6218(7) -0.4669(4) 0.2820(3)
O10A O 0.6218(7) -0.0331(4) 0.7820(3)
O10C O 0.3782(7) 0.0331(4) 0.2180(3)
C1B C 1.0530(7) -0.0184(5) 0.4040(4)
C2B C 0.9955(7) -0.0917(5) 0.4321(4)
H3B H 1.04600 -0.14030 0.45430
C3B C 0.8414(7) -0.0799(5) 0.4211(4)
H4B H 0.77180 -0.11980 0.43350
C4B C 0.8172(7) 0.0006(5) 0.3892(4)
C5B C 0.6851(7) 0.0521(5) 0.3656(3)
C6B C 1.2057(7) 0.0096(5) 0.4015(4)
C7B C 0.5869(8) -0.2945(5) 0.4875(4)
C8B C 0.6136(8) -0.3772(5) 0.3896(4)
C9B C 0.6223(10) -0.4323(6) 0.4486(4)
H5B H 0.63580 -0.49340 0.44810
C10B C 0.6069(11) -0.3784(6) 0.5123(5)
H6B H 0.61000 -0.39750 0.56210
C11B C 0.5631(7) -0.2099(5) 0.5275(4)
C12B C 0.6152(8) -0.3910(6) 0.3075(4)
#END
