
#######################################################################
#
#                 Cambridge Crystallographic Data Centre
#                                CCDC
#
#######################################################################
#
# If this CIF has been generated from an entry in the Cambridge
# Structural Database, then it will include bibliographic, chemical,
# crystal, experimental, refinement or atomic coordinate data resulting
# from the CCDC's data processing and validation procedures.
#
#######################################################################

data_CSD_CIF_KEFYUR
_audit_creation_date 2012-10-16
_audit_creation_method CSD-ConQuest-V1
_database_code_CSD KEFYUR
_database_code_depnum_ccdc_archive 'CCDC 891830'
_chemical_formula_sum 'C46 H44 Ba1 Fe2 N4 O32'
_chemical_formula_moiety
;
(C12 H12 N2 2+)2n,n(C12 H4 Ba1 Fe2 O26 4-),n(C10 H8 O2),4n(H2 O1)
;
_journal_coden_Cambridge 1147
_journal_volume 12
_journal_year 2012
_journal_page_first 2684
_journal_name_full 'Cryst.Growth Des. '
loop_
_publ_author_name
"M.J.Prakash"
"A.G.Oliver"
"S.C.Sevov"
_chemical_name_systematic
;
catena-(bis(ethylene-1,2-bis(4-pyridinium)) 
tetrakis(\m~2~-oxalato)-bis(oxalato)-barium-di-iron naphthalene-1,5-diol 
solvate tetrahydrate)
;
_cell_volume   5311.972
_exptl_crystal_colour 'dark red'
_exptl_crystal_density_diffrn 1.768
_exptl_crystal_description 'cube'
_diffrn_ambient_temperature 120
_refine_special_details
;
C25A,C26A,C27A,C28C,C29A,C30A,C31A,C32A,C33A,C34A, C35A,C36A,N3A,N4A and 
C25B,C26B,C27B,C28B,C29B,C30B,C31B,C32B,C33B,C34B, C35B,C36B,N3B,N4B 
disordered over two sites with occupancies 0.820:0.180; O29A and O29B 
disordered over two sites with occupancies 0.820:0.180.
;
#These two values have been output from a single CSD field.
_refine_ls_R_factor_gt 0.0348
_refine_ls_wR_factor_gt 0.0348
_symmetry_cell_setting monoclinic
_symmetry_space_group_name_H-M 'P 21/c'
_symmetry_Int_Tables_number 14
loop_
_symmetry_equiv_pos_site_id
_symmetry_equiv_pos_as_xyz
1 x,y,z
2 -x,1/2+y,1/2-z
3 -x,-y,-z
4 x,-1/2-y,-1/2+z
_cell_length_a 25.8392(18)
_cell_length_b 10.6613(7)
_cell_length_c 20.8311(14)
_cell_angle_alpha 90
_cell_angle_beta 112.231(2)
_cell_angle_gamma 90
_cell_formula_units_Z 4
loop_
_atom_type_symbol
_atom_type_radius_bond
C 0.68
H 0.23
Ba 2.15
Fe 1.52
N 0.68
O 0.68
loop_
_atom_site_label
_atom_site_type_symbol
_atom_site_fract_x
_atom_site_fract_y
_atom_site_fract_z
Ba1 Ba 0.376841(8) -0.093637(18) 0.363926(10)
Fe1 Fe 0.45657(2) 0.40575(4) 0.29294(2)
Fe2 Fe 0.17433(2) -0.22696(4) 0.43858(2)
O1 O 0.48621(10) 0.2583(2) 0.35538(12)
O2 O 0.45781(10) 0.1014(2) 0.40540(12)
O3 O 0.38405(10) 0.3138(2) 0.27570(12)
O4 O 0.34891(9) 0.1584(2) 0.31825(12)
O5 O 0.45792(10) 0.5015(2) 0.37598(12)
O6 O 0.42579(10) 0.6751(2) 0.40644(12)
O7 O 0.40923(10) 0.5518(2) 0.24433(12)
O8 O 0.36563(11) 0.7188(2) 0.26514(13)
O9 O 0.5311(1) 0.4742(2) 0.30306(12)
O10 O 0.58762(10) 0.4929(2) 0.24453(13)
O11 O 0.46040(9) 0.3362(2) 0.20558(12)
O12 O 0.51466(10) 0.3400(2) 0.14324(12)
O13 O 0.23019(10) -0.3127(2) 0.41068(13)
O14 O 0.30733(11) -0.2726(2) 0.38996(14)
O15 O 0.22788(10) -0.0844(2) 0.45492(12)
O16 O 0.29951(10) -0.0254(2) 0.42636(13)
O17 O 0.20421(10) -0.3013(2) 0.53545(12)
O18 O 0.18902(10) -0.2990(2) 0.63424(12)
O19 O 0.12049(10) -0.1499(2) 0.47749(12)
O20 O 0.07959(10) -0.2143(2) 0.54936(12)
O21 O 0.11718(10) -0.3636(2) 0.39669(12)
O22 O 0.02896(10) -0.3810(2) 0.31900(13)
O23 O 0.12762(10) -0.1419(2) 0.34915(12)
O24 O 0.0361(1) -0.1335(2) 0.28396(12)
O25 O 0.42741(13) -0.0654(3) 0.50560(16)
H1 H 0.416(2) -0.087(5) 0.521(3)
H2 H 0.466(2) -0.079(4) 0.529(2)
O26 O 0.26829(13) -0.0896(3) 0.26140(16)
H3 H 0.253(2) -0.009(4) 0.239(2)
H4 H 0.258(2) -0.126(5) 0.223(3)
C1 C 0.44930(14) 0.1882(3) 0.36372(17)
C2 C 0.38834(14) 0.2208(3) 0.31555(17)
C3 C 0.42830(14) 0.6014(3) 0.36260(18)
C4 C 0.39718(15) 0.6285(3) 0.28389(18)
C5 C 0.54582(14) 0.4536(3) 0.25139(17)
C6 C 0.50438(14) 0.3693(3) 0.19365(18)
C7 C 0.26975(15) -0.2409(3) 0.40829(18)
C8 C 0.26653(14) -0.1034(3) 0.43178(17)
C9 C 0.17496(15) -0.2762(3) 0.57216(18)
C10 C 0.11935(15) -0.2079(3) 0.53098(17)
C11 C 0.07280(14) -0.3233(3) 0.34795(18)
C12 C 0.07766(15) -0.1867(3) 0.32444(17)
N1 N -0.01684(13) 0.2429(3) 0.35828(15)
H5 H -0.0566(17) 0.247(3) 0.3373(19)
N2 N 0.36038(16) 0.2834(4) 0.62948(18)
H6 H 0.399(2) 0.267(4) 0.658(2)
C13 C 0.00575(16) 0.1317(3) 0.38241(19)
H7 H -0.01710 0.05890 0.37210
C14 C 0.06148(16) 0.1217(3) 0.42174(19)
H8 H 0.07740 0.04180 0.43770
C15 C 0.09502(15) 0.2284(4) 0.43847(18)
C16 C 0.06993(15) 0.3442(3) 0.41253(17)
H9 H 0.09160 0.41880 0.42260
C17 C 0.01385(15) 0.3489(3) 0.37249(17)
H10 H -0.00340 0.42700 0.35480
C18 C 0.33573(19) 0.3950(5) 0.6152(2)
H11 H 0.35670 0.46900 0.63300
C19 C 0.27980(19) 0.4028(5) 0.5745(2)
H12 H 0.26210 0.48240 0.56440
C20 C 0.24919(17) 0.2954(5) 0.5483(2)
C21 C 0.27695(18) 0.1803(5) 0.5639(2)
H13 H 0.25730 0.10470 0.54620
C22 C 0.3334(2) 0.1774(5) 0.6055(2)
H14 H 0.35260 0.09950 0.61670
C23 C 0.15452(16) 0.2142(4) 0.48118(19)
H15 H 0.16870 0.13160 0.49280
C24 C 0.18928(17) 0.3073(4) 0.50430(19)
H16 H 0.17490 0.38960 0.49190
N3 N 0.0724(3) 0.2492(7) 0.2574(4)
H17 H 0.03630 0.24290 0.23290
N4 N 0.44609(15) 0.3458(4) 0.5243(2)
H18 H 0.48210 0.34220 0.54960
C25 C 0.10194(15) 0.1440(4) 0.2783(2)
H19 H 0.08510 0.06340 0.26810
C26 C 0.1569(2) 0.1498(8) 0.3158(3)
H20 H 0.17770 0.07470 0.33130
C27 C 0.1837(2) 0.2655(7) 0.3322(2)
C28 C 0.1513(3) 0.3744(6) 0.3092(3)
H21 H 0.16820 0.45480 0.31960
C29 C 0.0949(3) 0.3636(5) 0.2716(4)
H22 H 0.07230 0.43620 0.25610
C30 C 0.4181(2) 0.2378(5) 0.5063(3)
H23 H 0.43640 0.15960 0.52110
C31 C 0.3633(4) 0.2429(5) 0.4669(4)
H24 H 0.34280 0.16690 0.45420
C32 C 0.3357(3) 0.3559(8) 0.4439(3)
C33 C 0.3663(3) 0.4664(4) 0.4655(3)
H25 H 0.34870 0.54580 0.45230
C34 C 0.4229(2) 0.4585(5) 0.5065(3)
H26 H 0.44480 0.53230 0.52170
C35 C 0.2442(2) 0.2655(4) 0.3753(2)
H27 H 0.26200 0.18600 0.38650
C36 C 0.27566(19) 0.3644(5) 0.3997(2)
H28 H 0.25910 0.44510 0.38840
O27 O 0.02029(10) 0.3720(2) 0.05578(13)
H29 H -0.01090 0.34280 0.03010
O28 O 0.2467(1) 0.1571(2) 0.21774(13)
H30 H 0.27810 0.18620 0.24270
C37 C 0.05749(14) 0.2766(3) 0.08023(17)
C38 C 0.04323(15) 0.1522(3) 0.06820(17)
H31 H 0.00560 0.12940 0.04180
C39 C 0.08417(15) 0.0584(3) 0.09488(18)
H32 H 0.07410 -0.02710 0.08470
C40 C 0.13859(15) 0.0885(3) 0.13541(18)
H33 H 0.16550 0.02400 0.15400
C41 C 0.15429(14) 0.2163(3) 0.14931(17)
C42 C 0.21061(15) 0.2529(3) 0.19016(18)
C43 C 0.22533(15) 0.3763(3) 0.19913(18)
H34 H 0.26300 0.39900 0.22570
C44 C 0.18531(16) 0.4702(3) 0.16943(19)
H35 H 0.19630 0.55580 0.17590
C45 C 0.13079(15) 0.4403(3) 0.13127(18)
H36 H 0.10410 0.50490 0.11210
C46 C 0.11424(14) 0.3132(3) 0.12035(17)
O29 O 0.32155(16) 0.8095(5) 0.1241(2)
O30 O 0.3716(5) 0.6070(12) 0.0987(6)
O31 O 0.3936(2) 0.7636(5) 0.0667(2)
O32 O 0.12746(13) 0.7521(3) 0.21545(15)
H37 H 0.145(2) 0.768(4) 0.191(2)
H38 H 0.138(2) 0.783(5) 0.242(3)
C47? C 0.1040(8) 0.1467(14) 0.2836(13)
C48? C 0.1592(7) 0.1806(17) 0.3212(11)
C49? C 0.1750(7) 0.3060(19) 0.3259(9)
C50? C 0.1355(10) 0.3975(14) 0.293(1)
C51? C 0.0803(9) 0.3636(17) 0.2554(12)
C52? C 0.4276(7) 0.2922(14) 0.5153(9)
C53? C 0.3743(9) 0.2503(12) 0.4742(13)
C54? C 0.3310(6) 0.3359(19) 0.4462(14)
C55? C 0.3409(6) 0.4633(17) 0.4593(10)
C56? C 0.3941(7) 0.5052(11) 0.5004(8)
C57? C 0.2330(6) 0.3560(14) 0.3675(7)
C58? C 0.2800(8) 0.2827(17) 0.4037(9)
H39? H 0.09330 0.06100 0.28040
H40? H 0.18620 0.11800 0.34360
H41? H 0.14630 0.48320 0.29620
H42? H 0.05330 0.42620 0.23300
H43? H 0.45720 0.23370 0.53450
H44? H 0.36760 0.16320 0.46530
H45? H 0.31120 0.52170 0.44010
H46? H 0.40080 0.59220 0.50930
H47? H 0.23790 0.44440 0.36910
H48? H 0.27710 0.19400 0.39930
H49? H 0.02960 0.21680 0.22700
H50? H 0.47110 0.44610 0.55440
N5? N 0.0646(7) 0.238(2) 0.2507(14)
N6? N 0.4374(5) 0.4196(15) 0.5284(7)
O33? O 0.3120(7) 0.696(2) 0.1206(8)
Ba1* Ba 0.376841(8) 0.906363(18) 0.363926(10)
Ba1A Ba 0.623159(8) 0.406363(18) 0.136074(10)
O6* O 0.42579(10) -0.3249(2) 0.40644(12)
O8* O 0.36563(11) -0.2812(2) 0.26514(13)
O10A O 0.41238(10) -0.0071(2) 0.25547(13)
O12A O 0.48534(10) -0.1600(2) 0.35676(12)
#END
