
#######################################################################
#
#                 Cambridge Crystallographic Data Centre
#                                CCDC
#
#######################################################################
#
# If this CIF has been generated from an entry in the Cambridge
# Structural Database, then it will include bibliographic, chemical,
# crystal, experimental, refinement or atomic coordinate data resulting
# from the CCDC's data processing and validation procedures.
#
#######################################################################

data_CSD_CIF_KEGBIK
_audit_creation_date 2017-07-28
_audit_creation_method CSD-ConQuest-V1
_database_code_CSD KEGBIK
_database_code_depnum_ccdc_archive 'CCDC 1551676'
_chemical_formula_sum 'C200 H246 N23 O92 P9 Pb9'
_chemical_formula_moiety
;
(C148 H122 N9 O80 P9 Pb9 2-)n,2(C2 H8 N1 1+),12(C4 H9 N1 O1)
;
_journal_coden_Cambridge 1747
_journal_volume 4
_journal_year 2017
_journal_page_first 1501
_journal_name_full 'Inorg.Chem.Front. '
loop_
_publ_author_name
"Dongjie Bai"
"Fengli Chen"
"Donghao Jiang"
"Yabing He"
_chemical_name_systematic
;
catena-[bis(dimethylammonium) 
tris(\m-4,4',4'',4''',4'''',4'''''-[1,3,5,2\l^5^,4\l^5^,6\l^5^-triazatriphosph
inine-2,2,4,4,6,6-hexaylhexakis(oxy)]hexakis(3-methoxybenzoato))-bis(acetato)-
tetraaqua-nona-lead(ii) N,N-dimethylacetamide solvate]
;
_chemical_name_common
;
ZJNU-62
;
_cell_volume  21998.973
_exptl_crystal_colour 'colorless'
_exptl_crystal_description 'block'
_diffrn_ambient_temperature 150
_refine_special_details
;
Disordered dimethylammonium cations and N,N-dimethylacetamide solvent 
molecules were not modelled and the disordered density was taken into account 
using the SQUEEZE/PLATON procedure.
;
#These two values have been output from a single CSD field.
_refine_ls_R_factor_gt 0.0999
_refine_ls_wR_factor_gt 0.0999
_symmetry_cell_setting monoclinic
_symmetry_space_group_name_H-M 'C 2/c'
_symmetry_Int_Tables_number 15
loop_
_symmetry_equiv_pos_site_id
_symmetry_equiv_pos_as_xyz
1 x,y,z
2 -x,y,1/2-z
3 1/2+x,1/2+y,z
4 1/2-x,1/2+y,1/2-z
5 -x,-y,-z
6 x,-y,-1/2+z
7 -1/2-x,-1/2-y,-z
8 -1/2+x,-1/2-y,-1/2+z
_cell_length_a 31.5688(7)
_cell_length_b 30.9664(6)
_cell_length_c 22.7830(4)
_cell_angle_alpha 90
_cell_angle_beta 98.981(2)
_cell_angle_gamma 90
_cell_formula_units_Z 4
loop_
_atom_type_symbol
_atom_type_radius_bond
C 0.68
H 0.23
N 0.68
O 0.68
P 1.05
Pb 1.46
loop_
_atom_site_label
_atom_site_type_symbol
_atom_site_fract_x
_atom_site_fract_y
_atom_site_fract_z
Pb1 Pb 0.614545(18) 0.71302(2) 0.35704(2)
Pb2 Pb 0.591721(11) 0.729546(11) 0.153592(15)
Pb3 Pb 0.807138(12) 0.774618(13) -0.074977(17)
Pb4 Pb 0.50000 0.734170(18) 0.25000
Pb5 Pb 0.48027(2) 0.63478(2) 0.11526(3)
P1 P 0.75573(8) 0.93326(8) 0.30539(12)
P2 P 0.73623(9) 0.99185(8) 0.21451(13)
P3 P 0.81974(9) 0.96683(8) 0.25198(12)
P4 P 0.47730(8) 0.76046(11) -0.20282(10)
P5 P 0.50000 0.68326(16) -0.25000
O1 O 0.7410(2) 0.8849(2) 0.3013(4)
O2 O 0.7365(2) 0.8015(2) 0.2959(4)
O3 O 0.5455(2) 0.8252(3) 0.2731(5)
O4 O 0.5780(3) 0.7633(3) 0.2741(5)
O5 O 0.7064(3) 0.9784(3) 0.1543(4)
O6 O 0.6253(5) 0.9754(4) 0.1462(8)
O7 O 0.5834(3) 0.8178(3) 0.1388(4)
O8 O 0.6448(3) 0.7834(2) 0.1391(4)
O9 O 0.8549(3) 0.9471(3) 0.2166(4)
O10 O 0.8554(6) 0.9791(6) 0.1079(8)
O11 O 0.7991(3) 0.8022(2) 0.0238(4)
O12 O 0.8137(4) 0.8556(3) -0.0354(4)
O13 O 0.7553(3) 0.9469(3) 0.3720(4)
O14 O 0.7367(6) 0.8823(6) 0.4361(7)
O15 O 0.8636(9) 0.8432(7) 0.5776(11)
O16 O 0.9158(7) 0.8897(8) 0.5558(11)
O17 O 0.7200(3) 1.0406(2) 0.2156(4)
O18 O 0.7498(3) 1.0522(3) 0.3291(4)
O19 O 0.8540(2) 1.1939(2) 0.2441(4)
O20 O 0.8452(3) 1.1856(3) 0.3371(4)
O21 O 0.8498(3) 0.9986(2) 0.2955(3)
O22 O 0.8828(3) 1.0452(3) 0.3844(3)
O23 O 0.9600(2) 1.1683(3) 0.2952(3)
O24 O 0.9412(2) 1.1606(3) 0.1992(3)
O25 O 0.5023(2) 0.7754(3) -0.1407(3)
O26 O 0.5534(3) 0.8113(3) -0.0565(3)
O27 O 0.5011(3) 0.7644(3) 0.1363(3)
O28 O 0.4515(3) 0.7151(3) 0.1045(4)
O29 O 0.4314(2) 0.7809(3) -0.1990(3)
O30 O 0.3750(3) 0.7202(4) -0.1777(4)
O31 O 0.2519(3) 0.7346(3) -0.3517(5)
O32 O 0.2706(3) 0.7899(3) -0.4040(4)
O33 O 0.4709(3) 0.6494(3) -0.2900(3)
O34 O 0.5140(4) 0.6107(4) -0.3680(5)
O35 O 0.4001(3) 0.7170(3) -0.5510(3)
O36 O 0.4504(3) 0.6714(3) -0.5707(3)
O37 O 0.4839(13) 0.5625(13) 0.1481(18)
O38 O 0.4956(13) 0.5674(13) 0.0567(18)
O39 O 0.6309(13) 0.7722(8) 0.4347(12)
O40 O 0.7901(5) 0.7048(4) -0.0209(6)
N1 N 0.7228(3) 0.9644(3) 0.2670(4)
N2 N 0.7855(3) 0.9924(3) 0.2073(4)
N3 N 0.8033(3) 0.9314(3) 0.2920(4)
N4 N 0.4722(3) 0.7110(4) -0.2103(4)
N5 N 0.50000 0.7857(6) -0.25000
C1 C 0.7002(3) 0.8667(3) 0.3001(5)
C2 C 0.6979(3) 0.8222(3) 0.2933(5)
C3 C 0.6584(3) 0.8023(3) 0.2872(5)
H1 H 0.65680 0.77240 0.28240
C4 C 0.6214(3) 0.8254(3) 0.2882(5)
C5 C 0.6231(4) 0.8701(3) 0.2951(6)
H2 H 0.59810 0.88610 0.29470
C6 C 0.6636(4) 0.8907(3) 0.3028(6)
H3 H 0.66560 0.92030 0.30970
C7 C 0.5784(3) 0.8030(4) 0.2782(5)
C8 C 0.7347(5) 0.7558(3) 0.2946(10)
H4 H 0.76310 0.74430 0.29640
H5 H 0.71720 0.74640 0.25860
H6 H 0.72250 0.74560 0.32810
C9 C 0.6873(4) 0.9382(4) 0.1475(5)
C10 C 0.6428(5) 0.9375(4) 0.1435(8)
C11 C 0.6230(4) 0.8979(4) 0.1370(7)
H7 H 0.59320 0.89670 0.13040
C12 C 0.6464(3) 0.8592(3) 0.1400(5)
C13 C 0.6903(4) 0.8607(4) 0.1408(7)
H8 H 0.70570 0.83550 0.13690
C14 C 0.7115(4) 0.9005(4) 0.1475(7)
H9 H 0.74120 0.90180 0.15190
C15 C 0.6228(3) 0.8167(3) 0.1386(4)
C16 C 0.582(3) 0.982(3) 0.139(3)
H10 H 0.57540 1.01200 0.13950
H11 H 0.57020 0.96780 0.17100
H12 H 0.56840 0.96950 0.10190
C17 C 0.8423(4) 0.9206(4) 0.1678(6)
C18 C 0.8426(10) 0.9366(9) 0.1101(13)
C19 C 0.8306(8) 0.9122(5) 0.0619(7)
H13 H 0.82920 0.92400 0.02410
C20 C 0.8203(3) 0.8693(3) 0.0685(5)
C21 C 0.8162(5) 0.8537(4) 0.1239(6)
H14 H 0.80440 0.82660 0.12810
C22 C 0.8299(5) 0.8790(4) 0.1731(5)
H15 H 0.83060 0.86730 0.21080
C23 C 0.8101(9) 0.8402(8) 0.0173(11)
C24 C 0.8906(8) 0.9908(9) 0.0790(12)
H16 H 0.88710 0.97800 0.04020
H17 H 0.91680 0.98060 0.10190
H18 H 0.89170 1.02160 0.07550
C25 C 0.7853(3) 0.9287(4) 0.4163(5)
C26 C 0.7744(3) 0.8941(4) 0.4499(6)
C27 C 0.8051(4) 0.8758(4) 0.4931(6)
H19 H 0.79780 0.85270 0.51560
C28 C 0.8466(4) 0.8920(4) 0.5028(6)
C29 C 0.8575(3) 0.9266(4) 0.4692(6)
H20 H 0.88530 0.93750 0.47560
C30 C 0.8268(4) 0.9449(4) 0.4259(5)
H21 H 0.83410 0.96810 0.40350
C31 C 0.8786(6) 0.8744(10) 0.5522(12)
C32 C 0.7221(19) 0.8405(18) 0.450(6)
H22 H 0.69190 0.83810 0.43570
H23 H 0.72750 0.83620 0.49200
H24 H 0.73720 0.81900 0.43080
C33 C 0.7482(5) 1.0738(4) 0.2330(6)
C34 C 0.7621(4) 1.0820(4) 0.2919(5)
C35 C 0.7906(5) 1.1166(4) 0.3091(7)
H25 H 0.80020 1.12200 0.34910
C36 C 0.8037(3) 1.1420(3) 0.2664(5)
C37 C 0.7882(4) 1.1334(4) 0.2044(5)
H26 H 0.79650 1.15120 0.17540
C38 C 0.7617(5) 1.0993(4) 0.1879(6)
H27 H 0.75270 1.09310 0.14800
C39 C 0.8363(5) 1.1763(4) 0.2822(6)
C40 C 0.7663(5) 1.0556(4) 0.3872(6)
H28 H 0.75460 1.03330 0.40900
H29 H 0.75900 1.08330 0.40170
H30 H 0.79690 1.05280 0.39210
C41 C 0.8704(3) 1.0341(3) 0.2806(4)
C42 C 0.8895(3) 1.0601(3) 0.3298(4)
C43 C 0.9110(3) 1.0963(3) 0.3193(4)
H31 H 0.92280 1.11350 0.35120
C44 C 0.9161(3) 1.1086(3) 0.2618(4)
C45 C 0.8967(4) 1.0841(3) 0.2140(4)
H32 H 0.89940 1.09230 0.17550
C46 C 0.8733(4) 1.0474(4) 0.2231(5)
H33 H 0.85960 1.03180 0.19080
C47 C 0.9407(3) 1.1479(3) 0.2516(4)
C48 C 0.8951(7) 1.0729(5) 0.4316(6)
H34 H 0.88910 1.05980 0.46760
H35 H 0.87940 1.09950 0.42490
H36 H 0.92520 1.07870 0.43510
C49 C 0.4835(3) 0.7526(3) 0.0332(4)
C50 C 0.5164(3) 0.7804(3) 0.0207(4)
H37 H 0.53400 0.79450 0.05130
C51 C 0.5220(3) 0.7867(3) -0.0393(4)
C52 C 0.4936(3) 0.7664(4) -0.0843(4)
C53 C 0.4620(3) 0.7408(5) -0.0718(4)
H38 H 0.44390 0.72730 -0.10260
C54 C 0.4561(4) 0.7342(4) -0.0138(5)
H39 H 0.43330 0.71720 -0.00600
C55 C 0.4787(3) 0.7448(3) 0.0947(5)
C56 C 0.5878(5) 0.8257(7) -0.0120(7)
H40 H 0.60760 0.84270 -0.03040
H41 H 0.60250 0.80110 0.00710
H42 H 0.57640 0.84290 0.01690
C57 C 0.3964(4) 0.7717(4) -0.2429(5)
C58 C 0.3661(3) 0.7412(5) -0.2300(5)
C59 C 0.3287(3) 0.7385(5) -0.2716(5)
H43 H 0.30760 0.71910 -0.26440
C60 C 0.3213(3) 0.7631(5) -0.3232(5)
C61 C 0.3525(4) 0.7925(6) -0.3349(6)
H44 H 0.34790 0.80990 -0.36850
C62 C 0.3912(4) 0.7952(5) -0.2942(6)
H45 H 0.41330 0.81300 -0.30250
C63 C 0.2790(4) 0.7625(5) -0.3615(5)
C64 C 0.3492(7) 0.6837(8) -0.1704(10)
H46 H 0.35840 0.67120 -0.13190
H47 H 0.35210 0.66280 -0.20060
H48 H 0.31980 0.69240 -0.17360
C65 C 0.4589(4) 0.6580(4) -0.3501(4)
C66 C 0.4825(5) 0.6387(5) -0.3907(5)
C67 C 0.4715(4) 0.6480(4) -0.4499(5)
H49 H 0.48680 0.63550 -0.47710
C68 C 0.4384(4) 0.6754(4) -0.4698(4)
C69 C 0.4149(3) 0.6956(5) -0.4289(5)
H50 H 0.39280 0.71480 -0.44200
C70 C 0.4258(4) 0.6858(6) -0.3689(5)
H51 H 0.41060 0.69810 -0.34140
C71 C 0.4287(3) 0.6872(4) -0.5345(4)
C72 C 0.5506(17) 0.6056(18) -0.384(2)
H52 H 0.56670 0.58420 -0.35970
H53 H 0.56600 0.63250 -0.38050
H54 H 0.54680 0.59630 -0.42500
C73 C 0.5008(12) 0.5476(14) 0.1056(18)
C74 C 0.5259(18) 0.5066(17) 0.123(2)
H55 H 0.51500 0.48360 0.09700
H56 H 0.52300 0.49900 0.16330
H57 H 0.55570 0.51130 0.12070
P4A P 0.52270(8) 0.76046(11) -0.29718(10)
O25A O 0.4977(2) 0.7754(3) -0.3593(3)
O26A O 0.4466(3) 0.8113(3) -0.4435(3)
O27A O 0.4989(3) 0.7644(3) -0.6363(3)
O28A O 0.5485(3) 0.7151(3) -0.6045(4)
O29A O 0.5686(2) 0.7809(3) -0.3010(3)
O30A O 0.6250(3) 0.7202(4) -0.3223(4)
O31A O 0.7481(3) 0.7346(3) -0.1483(5)
O32A O 0.7294(3) 0.7899(3) -0.0960(4)
O33A O 0.5291(3) 0.6494(3) -0.2100(3)
O34A O 0.4860(4) 0.6107(4) -0.1320(5)
O35A O 0.5999(3) 0.7170(3) 0.0510(3)
O36A O 0.5496(3) 0.6714(3) 0.0707(3)
N4A N 0.5278(3) 0.7110(4) -0.2897(4)
C49A C 0.5165(3) 0.7526(3) -0.5332(4)
C50A C 0.4836(3) 0.7804(3) -0.5207(4)
H37A H 0.46600 0.79450 -0.55130
C51A C 0.4780(3) 0.7867(3) -0.4607(4)
C52A C 0.5064(3) 0.7664(4) -0.4157(4)
C53A C 0.5380(3) 0.7408(5) -0.4282(4)
H38A H 0.55610 0.72730 -0.39740
C54A C 0.5439(4) 0.7342(4) -0.4862(5)
H39A H 0.56670 0.71720 -0.49400
C55A C 0.5213(3) 0.7448(3) -0.5947(5)
C56A C 0.4122(5) 0.8257(7) -0.4880(7)
H40A H 0.39240 0.84270 -0.46960
H41A H 0.39750 0.80110 -0.50710
H42A H 0.42360 0.84290 -0.51690
C57A C 0.6036(4) 0.7717(4) -0.2571(5)
C58A C 0.6339(3) 0.7412(5) -0.2700(5)
C59A C 0.6713(3) 0.7385(5) -0.2284(5)
H43A H 0.69240 0.71910 -0.23560
C60A C 0.6787(3) 0.7631(5) -0.1768(5)
C61A C 0.6475(4) 0.7925(6) -0.1651(6)
H44A H 0.65210 0.80990 -0.13150
C62A C 0.6088(4) 0.7952(5) -0.2058(6)
H45A H 0.58670 0.81300 -0.19750
C63A C 0.7210(4) 0.7625(5) -0.1385(5)
C64A C 0.6508(7) 0.6837(8) -0.3296(10)
H46A H 0.64160 0.67120 -0.36810
H47A H 0.64790 0.66280 -0.29940
H48A H 0.68020 0.69240 -0.32640
C65A C 0.5411(4) 0.6580(4) -0.1499(4)
C66A C 0.5175(5) 0.6387(5) -0.1093(5)
C67A C 0.5285(4) 0.6480(4) -0.0501(5)
H49A H 0.51320 0.63550 -0.02290
C68A C 0.5616(4) 0.6754(4) -0.0302(4)
C69A C 0.5851(3) 0.6956(5) -0.0711(5)
H50A H 0.60720 0.71480 -0.05800
C70A C 0.5742(4) 0.6858(6) -0.1311(5)
H51A H 0.58940 0.69810 -0.15860
C71A C 0.5713(3) 0.6872(4) 0.0345(4)
C72A C 0.4494(17) 0.6056(18) -0.116(2)
H52A H 0.43330 0.58420 -0.14030
H53A H 0.43400 0.63250 -0.11950
H54A H 0.45320 0.59630 -0.07500
Pb1A Pb 0.385455(18) 0.71302(2) -0.85704(2)
Pb2A Pb 0.408279(11) 0.729546(11) -0.653592(15)
Pb3A Pb 0.192862(12) 0.774618(13) -0.425023(17)
Pb5A Pb 0.51973(2) 0.63478(2) -0.61526(3)
P1A P 0.24427(8) 0.93326(8) -0.80539(12)
P2A P 0.26377(9) 0.99185(8) -0.71451(13)
P3A P 0.18026(9) 0.96683(8) -0.75198(12)
O1A O 0.2590(2) 0.8849(2) -0.8013(4)
O2A O 0.2635(2) 0.8015(2) -0.7959(4)
O3A O 0.4545(2) 0.8252(3) -0.7731(5)
O4A O 0.4220(3) 0.7633(3) -0.7741(5)
O5A O 0.2936(3) 0.9784(3) -0.6543(4)
O6A O 0.3747(5) 0.9754(4) -0.6462(8)
O7A O 0.4166(3) 0.8178(3) -0.6388(4)
O8A O 0.3552(3) 0.7834(2) -0.6391(4)
O9A O 0.1451(3) 0.9471(3) -0.7166(4)
O10A O 0.1446(6) 0.9791(6) -0.6079(8)
O11A O 0.2009(3) 0.8022(2) -0.5238(4)
O12A O 0.1863(4) 0.8556(3) -0.4646(4)
O13A O 0.2447(3) 0.9469(3) -0.8720(4)
O14A O 0.2633(6) 0.8823(6) -0.9361(7)
O15A O 0.1364(9) 0.8432(7) -1.0776(11)
O16A O 0.0842(7) 0.8897(8) -1.0558(11)
O17A O 0.2800(3) 1.0406(2) -0.7156(4)
O18A O 0.2502(3) 1.0522(3) -0.8291(4)
O19A O 0.1460(2) 1.1939(2) -0.7441(4)
O20A O 0.1548(3) 1.1856(3) -0.8371(4)
O21A O 0.1502(3) 0.9986(2) -0.7955(3)
O22A O 0.1172(3) 1.0452(3) -0.8844(3)
O23A O 0.0400(2) 1.1683(3) -0.7952(3)
O24A O 0.0588(2) 1.1606(3) -0.6992(3)
O37A O 0.5161(13) 0.5625(13) -0.6481(18)
O38A O 0.5044(13) 0.5674(13) -0.5567(18)
O39A O 0.3691(13) 0.7722(8) -0.9347(12)
O40A O 0.2099(5) 0.7048(4) -0.4791(6)
N1A N 0.2772(3) 0.9644(3) -0.7670(4)
N2A N 0.2145(3) 0.9924(3) -0.7073(4)
N3A N 0.1967(3) 0.9314(3) -0.7920(4)
C1A C 0.2998(3) 0.8667(3) -0.8001(5)
C2A C 0.3021(3) 0.8222(3) -0.7933(5)
C3A C 0.3416(3) 0.8023(3) -0.7872(5)
H1A H 0.34320 0.77240 -0.78240
C4A C 0.3786(3) 0.8254(3) -0.7882(5)
C5A C 0.3769(4) 0.8701(3) -0.7951(6)
H2A H 0.40190 0.88610 -0.79470
C6A C 0.3364(4) 0.8907(3) -0.8028(6)
H3A H 0.33440 0.92030 -0.80970
C7A C 0.4216(3) 0.8030(4) -0.7782(5)
C8A C 0.2653(5) 0.7558(3) -0.7946(10)
H4A H 0.23690 0.74430 -0.79640
H5A H 0.28280 0.74640 -0.75860
H6A H 0.27750 0.74560 -0.82810
C9A C 0.3127(4) 0.9382(4) -0.6475(5)
C10A C 0.3572(5) 0.9375(4) -0.6435(8)
C11A C 0.3770(4) 0.8979(4) -0.6370(7)
H7A H 0.40680 0.89670 -0.63040
C12A C 0.3536(3) 0.8592(3) -0.6400(5)
C13A C 0.3097(4) 0.8607(4) -0.6408(7)
H8A H 0.29430 0.83550 -0.63690
C14A C 0.2885(4) 0.9005(4) -0.6475(7)
H9A H 0.25880 0.90180 -0.65190
C15A C 0.3772(3) 0.8167(3) -0.6386(4)
C16A C 0.418(3) 0.982(3) -0.639(3)
H10A H 0.42460 1.01200 -0.63950
H11A H 0.42980 0.96780 -0.67100
H12A H 0.43160 0.96950 -0.60190
C17A C 0.1577(4) 0.9206(4) -0.6678(6)
C18A C 0.1574(10) 0.9366(9) -0.6101(13)
C19A C 0.1694(8) 0.9122(5) -0.5619(7)
H13A H 0.17080 0.92400 -0.52410
C20A C 0.1797(3) 0.8693(3) -0.5685(5)
C21A C 0.1838(5) 0.8537(4) -0.6239(6)
H14A H 0.19560 0.82660 -0.62810
C22A C 0.1701(5) 0.8790(4) -0.6731(5)
H15A H 0.16940 0.86730 -0.71080
C23A C 0.1899(9) 0.8402(8) -0.5173(11)
C24A C 0.1094(8) 0.9908(9) -0.5790(12)
H16A H 0.11290 0.97800 -0.54020
H17A H 0.08320 0.98060 -0.60190
H18A H 0.10830 1.02160 -0.57550
C25A C 0.2147(3) 0.9287(4) -0.9163(5)
C26A C 0.2256(3) 0.8941(4) -0.9499(6)
C27A C 0.1949(4) 0.8758(4) -0.9931(6)
H19A H 0.20220 0.85270 -1.01560
C28A C 0.1534(4) 0.8920(4) -1.0028(6)
C29A C 0.1425(3) 0.9266(4) -0.9692(6)
H20A H 0.11470 0.93750 -0.97560
C30A C 0.1732(4) 0.9449(4) -0.9259(5)
H21A H 0.16590 0.96810 -0.90350
C31A C 0.1214(6) 0.8744(10) -1.0522(12)
C32A C 0.2779(19) 0.8405(18) -0.950(6)
H22A H 0.30810 0.83810 -0.93570
H23A H 0.27250 0.83620 -0.99200
H24A H 0.26280 0.81900 -0.93080
C33A C 0.2518(5) 1.0738(4) -0.7330(6)
C34A C 0.2379(4) 1.0820(4) -0.7919(5)
C35A C 0.2094(5) 1.1166(4) -0.8091(7)
H25A H 0.19980 1.12200 -0.84910
C36A C 0.1963(3) 1.1420(3) -0.7664(5)
C37A C 0.2118(4) 1.1334(4) -0.7044(5)
H26A H 0.20350 1.15120 -0.67540
C38A C 0.2383(5) 1.0993(4) -0.6879(6)
H27A H 0.24730 1.09310 -0.64800
C39A C 0.1637(5) 1.1763(4) -0.7822(6)
C40A C 0.2337(5) 1.0556(4) -0.8872(6)
H28A H 0.24540 1.03330 -0.90900
H29A H 0.24100 1.08330 -0.90170
H30A H 0.20310 1.05280 -0.89210
C41A C 0.1296(3) 1.0341(3) -0.7806(4)
C42A C 0.1105(3) 1.0601(3) -0.8298(4)
C43A C 0.0890(3) 1.0963(3) -0.8193(4)
H31A H 0.07720 1.11350 -0.85120
C44A C 0.0839(3) 1.1086(3) -0.7618(4)
C45A C 0.1033(4) 1.0841(3) -0.7140(4)
H32A H 0.10060 1.09230 -0.67550
C46A C 0.1267(4) 1.0474(4) -0.7231(5)
H33A H 0.14040 1.03180 -0.69080
C47A C 0.0593(3) 1.1479(3) -0.7516(4)
C48A C 0.1049(7) 1.0729(5) -0.9316(6)
H34A H 0.11090 1.05980 -0.96760
H35A H 0.12060 1.09950 -0.92490
H36A H 0.07480 1.07870 -0.93510
C73A C 0.4992(12) 0.5476(14) -0.6056(18)
C74A C 0.4741(18) 0.5066(17) -0.623(2)
H55A H 0.48500 0.48360 -0.59700
H56A H 0.47700 0.49900 -0.66330
H57A H 0.44430 0.51130 -0.62070
Pb1* Pb 0.614545(18) 0.71302(2) -0.64296(2)
Pb1A* Pb 0.385455(18) 0.71302(2) 0.14296(2)
Pb1B Pb 0.114545(18) 1.21302(2) -0.64296(2)
Pb1C Pb 0.885455(18) 1.21302(2) 0.14296(2)
Pb1F Pb 0.885455(18) 0.78698(2) 0.64296(2)
Pb1G Pb 0.114545(18) 0.78698(2) -1.14296(2)
Pb2B Pb 0.091721(11) 1.229546(11) -0.846408(15)
Pb2C Pb 0.908279(11) 1.229546(11) 0.346408(15)
Pb3D Pb 0.192862(12) 1.225382(13) -0.925023(17)
Pb3E Pb 0.807138(12) 1.225382(13) 0.425023(17)
Pb3F Pb 0.692862(12) 0.725382(13) 0.074977(17)
Pb3G Pb 0.307138(12) 0.725382(13) -0.574977(17)
Pb4* Pb 0.50000 0.734170(18) -0.75000
Pb4B Pb 0.00000 1.234170(18) -0.75000
Pb4B* Pb 1.00000 1.234170(18) 0.25000
Pb5B Pb -0.01973(2) 1.13478(2) -0.88474(3)
Pb5B* Pb 0.98027(2) 1.13478(2) 0.11526(3)
Pb5C Pb 0.01973(2) 1.13478(2) -0.61526(3)
Pb5C* Pb 1.01973(2) 1.13478(2) 0.38474(3)
Pb5F Pb 0.01973(2) 0.86522(2) -1.11526(3)
Pb5G Pb 0.98027(2) 0.86522(2) 0.61526(3)
O4A* O 0.4220(3) 0.7633(3) 0.2259(5)
O8F O 0.8552(3) 0.7166(2) -0.1391(4)
O8G O 0.1448(3) 0.7166(2) -0.3609(4)
O15F O 0.6364(9) 0.6568(7) 0.4224(11)
O15G O 0.3636(9) 0.6568(7) -0.9224(11)
O16F O 0.5842(7) 0.6103(8) -0.5558(11)
O16G O 0.4158(7) 0.6103(8) 0.0558(11)
O19B O 0.3540(2) 0.6939(2) -0.7559(4)
O19C O 0.6460(2) 0.6939(2) 0.2559(4)
O20B O 0.3452(3) 0.6856(3) -0.6629(4)
O20C O 0.6548(3) 0.6856(3) 0.1629(4)
O20D O 0.1548(3) 0.8144(3) -0.3371(4)
O20E O 0.8452(3) 0.8144(3) -0.1629(4)
O23B O 0.4600(2) 0.6683(3) -0.7048(3)
O23B* O 0.4600(2) 0.6683(3) 0.2952(3)
O23C O 0.5400(2) 0.6683(3) 0.2048(3)
O24B O 0.4412(2) 0.6606(3) -0.8008(3)
O24B* O 0.4412(2) 0.6606(3) 0.1992(3)
O24C O 0.5588(2) 0.6606(3) -0.6992(3)
O24C* O 0.5588(2) 0.6606(3) 0.3008(3)
O27A* O 0.4989(3) 0.7644(3) 0.3637(3)
O28* O 0.4515(3) 0.7151(3) -0.8955(4)
O28A* O 0.5485(3) 0.7151(3) 0.3955(4)
O35F O 0.0999(3) 0.7830(3) -0.4490(3)
O35G O 0.9001(3) 0.7830(3) -0.0510(3)
#END
