
#######################################################################
#
#                 Cambridge Crystallographic Data Centre
#                                CCDC
#
#######################################################################
#
# If this CIF has been generated from an entry in the Cambridge
# Structural Database, then it will include bibliographic, chemical,
# crystal, experimental, refinement or atomic coordinate data resulting
# from the CCDC's data processing and validation procedures.
#
#######################################################################

data_CSD_CIF_KEJVOL
_audit_creation_date 2006-09-13
_audit_creation_method CSD-ConQuest-V1
_database_code_CSD KEJVOL
_database_code_depnum_ccdc_archive 'CCDC 289212'
_chemical_formula_sum 'C3 H9 Fe1 N7 O2'
_chemical_formula_moiety
;
(C2 H8 N1 1+)n,n(C1 H1 Fe1 N6 O2 1-)
;
_journal_coden_Cambridge 9
_journal_volume 45
_journal_year 2006
_journal_page_first 2782
_journal_name_full 'Inorg.Chem. '
loop_
_publ_author_name
"Tao Liu"
"Yanjuan Zhang"
"Zheming Wang"
"Song Gao"
_chemical_name_systematic
;
catena-(Dimethylammonium bis(\m~2~-azido)-(\m~2~-formato)-iron)
;
_cell_volume    906.100
_exptl_crystal_colour 'yellow-green'
_exptl_crystal_density_diffrn 1.694
_exptl_crystal_description 'column'
_diffrn_ambient_temperature 293
#These two values have been output from a single CSD field.
_refine_ls_R_factor_gt 0.0341
_refine_ls_wR_factor_gt 0.0341
_symmetry_cell_setting monoclinic
_symmetry_space_group_name_H-M 'P 21/c'
_symmetry_Int_Tables_number 14
loop_
_symmetry_equiv_pos_site_id
_symmetry_equiv_pos_as_xyz
1 x,y,z
2 -x,1/2+y,1/2-z
3 -x,-y,-z
4 x,-1/2-y,-1/2+z
_cell_length_a 10.1584(4)
_cell_length_b 13.8447(5)
_cell_length_c 6.4644(2)
_cell_angle_alpha 90
_cell_angle_beta 94.6970(13)
_cell_angle_gamma 90
_cell_formula_units_Z 4
loop_
_atom_type_symbol
_atom_type_radius_bond
C 0.68
H 0.23
Fe 1.34
N 0.68
O 0.68
loop_
_atom_site_label
_atom_site_type_symbol
_atom_site_fract_x
_atom_site_fract_y
_atom_site_fract_z
Fe1 Fe -0.25090(3) 0.24921(3) 0.02480(4)
O1 O -0.24913(17) 0.10099(13) 0.4501(2)
O2 O -0.24821(18) 0.10020(12) 0.1015(2)
N1 N -0.3899(2) 0.27319(16) 0.2566(3)
N2 N -0.4988(3) 0.30432(17) 0.2423(3)
N3 N -0.6051(3) 0.3339(2) 0.2262(4)
N4 N -0.1130(2) 0.22144(16) -0.2082(3)
N5 N -0.0316(3) 0.1592(2) -0.1980(3)
N6 N 0.0443(3) 0.0973(2) -0.1839(5)
C1 C -0.2510(3) 0.0609(2) 0.2752(4)
H1 H -0.25500 -0.00630 0.27510
N7 N -0.2376(3) 0.53899(19) 0.2658(3)
H2 H -0.23380 0.49110 0.17220
H3 H -0.20420 0.51600 0.38940
C2 C -0.1540(4) 0.6198(3) 0.2049(5)
H4 H -0.18590 0.64260 0.06980
H5 H -0.06450 0.59790 0.20150
H6 H -0.15720 0.67130 0.30370
C3 C -0.3764(3) 0.5651(2) 0.2811(5)
H7 H -0.38210 0.61330 0.38670
H8 H -0.42510 0.50880 0.31650
H9 H -0.41290 0.59010 0.15030
Fe1C Fe -0.25090(3) 0.25079(3) -0.47520(4)
Fe1C* Fe -0.25090(3) 0.25079(3) 0.52480(4)
O1C O -0.24913(17) 0.39901(13) -0.0499(2)
N1C N -0.3899(2) 0.22681(16) -0.2434(3)
N4C N -0.1130(2) 0.27856(16) 0.2918(3)
#END
