
#######################################################################
#
#                 Cambridge Crystallographic Data Centre
#                                CCDC
#
#######################################################################
#
# If this CIF has been generated from an entry in the Cambridge
# Structural Database, then it will include bibliographic, chemical,
# crystal, experimental, refinement or atomic coordinate data resulting
# from the CCDC's data processing and validation procedures.
#
#######################################################################

data_CSD_CIF_KEKGAK
_audit_creation_date 2013-01-14
_audit_creation_method CSD-ConQuest-V1
_database_code_CSD KEKGAK
_database_code_depnum_ccdc_archive 'CCDC 805646'
_chemical_formula_sum 'C24 H29 In1 O10'
_chemical_formula_moiety
;
(H3 O1 1+)n,n(C24 H24 In1 O8 1-),n(H2 O1)
;
_journal_coden_Cambridge 367
_journal_volume 37
_journal_year 2011
_journal_page_first 751
_journal_name_full 'Koord.Khim.(Russ.)(Coord.Chem.) '
loop_
_publ_author_name
"Y.Q.Xu"
"X.F.Wang"
"J.W.Ji"
"Z.B.Han"
_chemical_name_systematic
;
catena-(oxonium bis(\m~2~-5-t-butylisophthalato-O,O;O',O')indium(iii) 
monohydrate)
;
_cell_volume   3080.985
_exptl_crystal_colour 'colorless'
_exptl_crystal_density_diffrn 1.277
_exptl_crystal_description 'block'
_diffrn_ambient_temperature 295
_refine_special_details
;
The water molecules are disordered by symmetry.

;
#These two values have been output from a single CSD field.
_refine_ls_R_factor_gt 0.0631
_refine_ls_wR_factor_gt 0.0631
_symmetry_cell_setting monoclinic
_symmetry_space_group_name_H-M 'C 2/c'
_symmetry_Int_Tables_number 15
loop_
_symmetry_equiv_pos_site_id
_symmetry_equiv_pos_as_xyz
1 x,y,z
2 -x,y,1/2-z
3 1/2+x,1/2+y,z
4 1/2-x,1/2+y,1/2-z
5 -x,-y,-z
6 x,-y,-1/2+z
7 -1/2-x,-1/2-y,-z
8 -1/2+x,-1/2-y,-1/2+z
_cell_length_a 13.4918(7)
_cell_length_b 14.7515(7)
_cell_length_c 16.3307(9)
_cell_angle_alpha 90
_cell_angle_beta 108.570(1)
_cell_angle_gamma 90
_cell_formula_units_Z 4
loop_
_atom_type_symbol
_atom_type_radius_bond
C 0.68
H 0.23
In 1.52
O 0.68
loop_
_atom_site_label
_atom_site_type_symbol
_atom_site_fract_x
_atom_site_fract_y
_atom_site_fract_z
O1 O 0.3077(10) 0.2797(19) 0.0238(10)
H1 H 0.33540 0.32170 0.00290
In1 In 0.00000 0.63685(3) 0.25000
C1 C 0.1503(4) 0.5188(4) 0.3133(4)
C2 C 0.2323(4) 0.4512(4) 0.3565(4)
C3 C 0.2674(5) 0.4475(4) 0.4474(4)
H2 H 0.24000 0.48780 0.47840
C4 C 0.3419(5) 0.3849(5) 0.4916(4)
C5 C 0.3811(5) 0.3261(4) 0.4426(4)
H3 H 0.43140 0.28360 0.47070
C6 C 0.3470(4) 0.3293(4) 0.3534(4)
C7 C 0.2715(4) 0.3922(4) 0.3094(4)
H4 H 0.24820 0.39400 0.24930
C8 C 0.3918(5) 0.2631(4) 0.3047(4)
C9 C 0.3824(6) 0.3816(6) 0.5910(5)
C10 C 0.4813(10) 0.4393(11) 0.6200(6)
H5 H 0.46500 0.50030 0.59970
H6 H 0.53240 0.41460 0.59650
H7 H 0.50890 0.43930 0.68190
C11 C 0.3001(10) 0.4123(11) 0.6296(6)
H8 H 0.28130 0.47400 0.61340
H9 H 0.32730 0.40790 0.69140
H10 H 0.23940 0.37440 0.60860
C12 C 0.4034(10) 0.2835(8) 0.6218(6)
H11 H 0.42880 0.28210 0.68380
H12 H 0.45480 0.25760 0.59950
H13 H 0.33970 0.24920 0.60140
O2 O 0.1107(4) 0.5205(3) 0.2336(3)
O3 O 0.1205(3) 0.5749(3) 0.3606(3)
O4 O 0.3615(5) 0.2588(4) 0.2259(3)
O5 O 0.4637(3) 0.2107(3) 0.3496(3)
H14? H 0.26550 0.24270 -0.00970
O1F O 0.1923(10) 0.2203(19) -0.0238(10)
H1F H 0.16460 0.17830 -0.00290
In1B In 0.50000 0.13685(3) 0.25000
In1B* In -0.50000 1.13685(3) 0.25000
C1B C -0.3497(4) 1.0188(4) 0.3133(4)
C2B C -0.2677(4) 0.9512(4) 0.3565(4)
C3B C -0.2326(5) 0.9475(4) 0.4474(4)
H2B H -0.26000 0.98780 0.47840
C4B C -0.1581(5) 0.8849(5) 0.4916(4)
C5B C -0.1189(5) 0.8261(4) 0.4426(4)
H3B H -0.06860 0.78360 0.47070
C6B C -0.1530(4) 0.8293(4) 0.3534(4)
C7B C -0.2285(4) 0.8922(4) 0.3094(4)
H4B H -0.25180 0.89400 0.24930
C8B C -0.1082(5) 0.7631(4) 0.3047(4)
C9B C -0.1176(6) 0.8816(6) 0.5910(5)
C10B C -0.0187(10) 0.9393(11) 0.6200(6)
H5B H -0.03500 1.00030 0.59970
H6B H 0.03240 0.91460 0.59650
H7B H 0.00890 0.93930 0.68190
C11B C -0.1999(10) 0.9123(11) 0.6296(6)
H8B H -0.21870 0.97400 0.61340
H9B H -0.17270 0.90790 0.69140
H10B H -0.26060 0.87440 0.60860
C12B C -0.0966(10) 0.7835(8) 0.6218(6)
H11B H -0.07120 0.78210 0.68380
H12B H -0.04520 0.75760 0.59950
H13B H -0.16030 0.74920 0.60140
O2B O -0.3893(4) 1.0205(3) 0.2336(3)
O2A O -0.1107(4) 0.5205(3) 0.2664(3)
O3B O -0.3795(3) 1.0749(3) 0.3606(3)
O3A O -0.1205(3) 0.5749(3) 0.1394(3)
O4B O -0.1385(5) 0.7588(4) 0.2259(3)
O4C O 0.1385(5) 0.7588(4) 0.2741(3)
O5B O -0.0363(3) 0.7107(3) 0.3496(3)
O5C O 0.0363(3) 0.7107(3) 0.1504(3)
#END
