
#######################################################################
#
#                 Cambridge Crystallographic Data Centre
#                                CCDC
#
#######################################################################
#
# If this CIF has been generated from an entry in the Cambridge
# Structural Database, then it will include bibliographic, chemical,
# crystal, experimental, refinement or atomic coordinate data resulting
# from the CCDC's data processing and validation procedures.
#
#######################################################################

data_CSD_CIF_KELCAI
_audit_creation_date 2017-11-21
_audit_creation_method CSD-ConQuest-V1
_database_code_CSD KELCAI
_database_code_depnum_ccdc_archive 'CCDC 1556678'
_chemical_formula_sum 'C13 H26 N1 O12 P3 U1'
_chemical_formula_moiety
;
(C9 H12 O11 P3 U1 1-)n,C4 H12 N1 1+,H2 O1
;
_journal_coden_Cambridge 9
_journal_volume 56
_journal_year 2017
_journal_page_first 14524
_journal_name_full 'Inorg.Chem. '
loop_
_publ_author_name
"Si-Fu Tang"
"Xiaomin Hou"
"Dandan Liu"
"Xuebo Zhao"
_chemical_name_systematic
;
catena-[tetramethylammonium 
(\m-(benzene-1,3,5-triyltrimethanediyl)tris[hydrogen (phosphonate)])-uranium 
monohydrate]
;
_cell_volume   2178.593
_exptl_crystal_colour 'yellow'
_exptl_crystal_density_diffrn 2.193
_exptl_crystal_description 'plate'
_diffrn_ambient_temperature 175
#These two values have been output from a single CSD field.
_refine_ls_R_factor_gt 0.0363
_refine_ls_wR_factor_gt 0.0363
_symmetry_cell_setting monoclinic
_symmetry_space_group_name_H-M 'P 21/c'
_symmetry_Int_Tables_number 14
loop_
_symmetry_equiv_pos_site_id
_symmetry_equiv_pos_as_xyz
1 x,y,z
2 -x,1/2+y,1/2-z
3 -x,-y,-z
4 x,-1/2-y,-1/2+z
_cell_length_a 11.3603(5)
_cell_length_b 11.2718(6)
_cell_length_c 17.1180(9)
_cell_angle_alpha 90
_cell_angle_beta 96.335(2)
_cell_angle_gamma 90
_cell_formula_units_Z 4
loop_
_atom_type_symbol
_atom_type_radius_bond
C 0.68
H 0.23
N 0.68
O 0.68
P 1.05
U 1.96
loop_
_atom_site_label
_atom_site_type_symbol
_atom_site_fract_x
_atom_site_fract_y
_atom_site_fract_z
U1 U 1.45089(2) 1.23588(2) 0.69070(2)
P1 P 0.87132(16) 0.76548(18) 0.36266(13)
P2 P 1.35310(16) 0.92393(16) 0.67151(12)
P3 P 1.31059(16) 0.98700(16) 0.25036(12)
O1 O 0.9328(5) 0.6506(5) 0.3494(4)
O2 O 0.8851(5) 0.8434(6) 0.2870(4)
H1 H 0.85460 0.91040 0.29210
O3 O 0.7432(4) 0.7594(5) 0.3765(3)
O4 O 1.4094(5) 0.8649(5) 0.7445(3)
O5 O 1.4076(5) 1.0379(4) 0.6490(3)
O6 O 1.2197(4) 0.9503(5) 0.6830(3)
H2 H 1.18620 0.88700 0.69400
O7 O 1.3688(4) 1.0711(4) 0.1993(3)
O8 O 1.1831(4) 0.9554(4) 0.2073(3)
H3 H 1.14900 1.01790 0.19050
O9 O 1.3721(4) 0.8709(4) 0.2679(3)
O10 O 1.5032(4) 1.2710(4) 0.5995(3)
O11 O 1.3959(5) 1.2001(5) 0.7805(3)
C1 C 1.0711(6) 0.8759(6) 0.4491(5)
C2 C 1.1489(6) 0.8333(7) 0.5107(5)
H4 H 1.11970 0.78260 0.54860
C3 C 1.2683(7) 0.8625(7) 0.5187(5)
C4 C 1.3113(6) 0.9337(7) 0.4631(5)
H5 H 1.39340 0.95190 0.46720
C5 C 1.2350(7) 0.9795(7) 0.4004(5)
C6 C 1.1162(6) 0.9489(7) 0.3944(5)
H6 H 1.06420 0.97870 0.35150
C7 C 0.9413(6) 0.8474(8) 0.4453(5)
H7 H 0.89820 0.92340 0.44790
H8 H 0.92910 0.80240 0.49340
C8 C 1.3492(7) 0.8214(7) 0.5907(5)
H9 H 1.43050 0.81110 0.57600
H10 H 1.32160 0.74320 0.60770
C9 C 1.2843(7) 1.0597(7) 0.3409(5)
H11 H 1.35980 1.09410 0.36520
H12 H 1.22820 1.12600 0.32840
N1 N 1.2488(10) 1.0252(9) 0.9423(5)
C10 C 1.364(4) 1.064(4) 0.949(2)
H13 H 1.37380 1.13020 0.98570
H14 H 1.38370 1.08970 0.89710
H15 H 1.41680 0.99870 0.96790
C11 C 1.2212(18) 0.9887(18) 1.0175(12)
H16 H 1.22980 1.05610 1.05380
H17 H 1.27520 0.92500 1.03730
H18 H 1.13940 0.95970 1.01320
C12 C 1.178(2) 1.120(3) 0.9060(17)
H19 H 1.18420 1.18990 0.94060
H20 H 1.09490 1.09510 0.89700
H21 H 1.20610 1.14090 0.85560
C13 C 1.2382(16) 0.9249(16) 0.8842(11)
H22 H 1.26100 0.95270 0.83370
H23 H 1.15610 0.89660 0.87700
H24 H 1.29060 0.85990 0.90390
O12 O 1.0864(6) 0.7793(7) 0.7187(5)
H25 H 1.08600 0.71770 0.69010
H26 H 1.05080 0.80530 0.75630
U1A U 1.54911(2) 0.73588(2) 0.80930(2)
U1B U 0.54911(2) 0.76412(2) 0.30930(2)
U1B* U 1.54911(2) 0.76412(2) 0.30930(2)
U1C U 1.45089(2) 1.26412(2) 0.19070(2)
O3B O 1.2568(4) 1.2406(5) 0.6235(3)
O4A O 1.5906(5) 1.3649(5) 0.7555(3)
O7C O 1.3688(4) 1.4289(4) 0.6993(3)
O9B O 1.6279(4) 1.1291(4) 0.7321(3)
#END
