
#######################################################################
#
#                 Cambridge Crystallographic Data Centre
#                                CCDC
#
#######################################################################
#
# If this CIF has been generated from an entry in the Cambridge
# Structural Database, then it will include bibliographic, chemical,
# crystal, experimental, refinement or atomic coordinate data resulting
# from the CCDC's data processing and validation procedures.
#
#######################################################################

data_CSD_CIF_KELJER
_audit_creation_date 2006-09-13
_audit_creation_method CSD-ConQuest-V1
_database_code_CSD KELJER
_database_code_depnum_ccdc_archive 'CCDC 289565'
_chemical_formula_sum 'C6 H7 Br4 Cu5 N9 O1'
_chemical_formula_moiety
;
(C6 H7 Cu3 N9 O1 2+)n,n(Br4 Cu2 2-)
;
_journal_coden_Cambridge 179
_journal_volume 45
_journal_year 2006
_journal_page_first 3497
_journal_name_full 'Angew.Chem.,Int.Ed. '
loop_
_publ_author_name
"W.Ouellette"
"Ming Hui Yu"
"C.J.O'Connor"
"D.Hagrman"
"J.Zubieta"
_chemical_name_systematic
;
catena-((\m~3~-Hydroxo)-tris(\m~3~-triazolato)-tri-copper(ii) 
tetrakis(\m~2~-bromo)-di-copper(i))
;
_cell_volume  14764.908
_exptl_crystal_colour 'black'
_exptl_crystal_density_diffrn 3.09
_exptl_crystal_description 'block'
_diffrn_ambient_temperature 90
_refine_special_details
;
The bridging hydroxo moiety is disordered by symmetry. The anionic Cu atom is 
disordered over two sites with occupancy 0.592:0.408 and one of the bridging 
Br atoms is similarly disordered with occupancy 0.557:0.443.
;
#These two values have been output from a single CSD field.
_refine_ls_R_factor_gt 0.0677
_refine_ls_wR_factor_gt 0.0677
_symmetry_cell_setting cubic
_symmetry_space_group_name_H-M 'F d -3 c'
_symmetry_Int_Tables_number 228
loop_
_symmetry_equiv_pos_site_id
_symmetry_equiv_pos_as_xyz
1 x,y,z
2 z,x,y
3 y,z,x
4 3/4+y,1/4+x,-z
5 1/4+y,-x,3/4+z
6 -y,3/4+x,1/4+z
7 3/4+x,1/4+z,-y
8 -x,3/4+z,1/4+y
9 1/4+x,-z,3/4+y
10 3/4+z,1/4+y,-x
11 1/4+z,-y,3/4+x
12 -z,3/4+y,1/4+x
13 x,1/2+y,1/2+z
14 1/4-x,1/4-y,z
15 z,1/2+x,1/2+y
16 1/4-z,1/4-x,y
17 y,1/2+z,1/2+x
18 1/4-y,1/4-z,x
19 1/4+y,1/2-x,1/4+z
20 -y,1/4+x,3/4+z
21 -x,1/4+z,3/4+y
22 1/4+x,1/2-z,1/4+y
23 1/4+z,1/2-y,1/4+x
24 -z,1/4+y,3/4+x
25 1/2+x,y,1/2+z
26 x,1/4-y,1/4-z
27 1/2+z,x,1/2+y
28 z,1/4-x,1/4-y
29 1/2+y,z,1/2+x
30 y,1/4-z,1/4-x
31 1/4+y,1/4+x,1/2-z
32 3/4+y,-x,1/4+z
33 1/4+x,1/4+z,1/2-y
34 3/4+x,-z,1/4+y
35 1/4+z,1/4+y,1/2-x
36 3/4+z,-y,1/4+x
37 1/2+x,1/2+y,z
38 1/4-x,y,1/4-z
39 1/2+z,1/2+x,y
40 1/4-z,x,1/4-y
41 1/2+y,1/2+z,x
42 1/4-y,z,1/4-x
43 1/4+y,3/4+x,-z
44 1/2-y,1/4+x,1/4+z
45 1/4+x,3/4+z,-y
46 1/2-x,1/4+z,1/4+y
47 1/4+z,3/4+y,-x
48 1/2-z,1/4+y,1/4+x
49 1/4-x,3/4-y,1/2+z
50 3/4-x,1/2+y,1/4-z
51 1/2+x,1/4-y,3/4-z
52 1/2+z,1/4-x,3/4-y
53 1/4-z,3/4-x,1/2+y
54 3/4-z,1/2+x,1/4-y
55 3/4-y,1/2+z,1/4-x
56 1/2+y,1/4-z,3/4-x
57 1/4-y,3/4-z,1/2+x
58 1/2-y,1/2-x,1/2-z
59 1/2-x,1/2-z,1/2-y
60 1/2-z,1/2-y,1/2-x
61 3/4-x,y,3/4-z
62 1/2+x,3/4-y,1/4-z
63 1/2+z,3/4-x,1/4-y
64 3/4-z,x,3/4-y
65 3/4-y,z,3/4-x
66 1/2+y,3/4-z,1/4-x
67 3/4+y,3/4+x,1/2-z
68 1/2-y,-x,-z
69 3/4+x,3/4+z,1/2-y
70 1/2-x,-z,-y
71 3/4+z,3/4+y,1/2-x
72 1/2-z,-y,-x
73 3/4-x,3/4-y,z
74 1/4-x,1/2+y,3/4-z
75 3/4-z,3/4-x,y
76 1/4-z,1/2+x,3/4-y
77 1/4-y,1/2+z,3/4-x
78 3/4-y,3/4-z,x
79 -y,1/2-x,-z
80 1/2-y,3/4+x,3/4+z
81 1/2-x,3/4+z,3/4+y
82 -x,1/2-z,-y
83 1/2-z,3/4+y,3/4+x
84 -z,1/2-y,-x
85 3/4-x,1/4-y,1/2+z
86 x,3/4-y,3/4-z
87 z,3/4-x,3/4-y
88 3/4-z,1/4-x,1/2+y
89 y,3/4-z,3/4-x
90 3/4-y,1/4-z,1/2+x
91 -y,-x,1/2-z
92 3/4+y,1/2-x,3/4+z
93 -x,-z,1/2-y
94 3/4+x,1/2-z,3/4+y
95 3/4+z,1/2-y,3/4+x
96 -z,-y,1/2-x
97 -x,-y,-z
98 -z,-x,-y
99 -y,-z,-x
100 -3/4-y,-1/4-x,z
101 -1/4-y,x,-3/4-z
102 y,-3/4-x,-1/4-z
103 -3/4-x,-1/4-z,y
104 x,-3/4-z,-1/4-y
105 -1/4-x,z,-3/4-y
106 -3/4-z,-1/4-y,x
107 -1/4-z,y,-3/4-x
108 z,-3/4-y,-1/4-x
109 -x,-1/2-y,-1/2-z
110 -1/4+x,-1/4+y,-z
111 -z,-1/2-x,-1/2-y
112 -1/4+z,-1/4+x,-y
113 -y,-1/2-z,-1/2-x
114 -1/4+y,-1/4+z,-x
115 -1/4-y,-1/2+x,-1/4-z
116 y,-1/4-x,-3/4-z
117 x,-1/4-z,-3/4-y
118 -1/4-x,-1/2+z,-1/4-y
119 -1/4-z,-1/2+y,-1/4-x
120 z,-1/4-y,-3/4-x
121 -1/2-x,-y,-1/2-z
122 -x,-1/4+y,-1/4+z
123 -1/2-z,-x,-1/2-y
124 -z,-1/4+x,-1/4+y
125 -1/2-y,-z,-1/2-x
126 -y,-1/4+z,-1/4+x
127 -1/4-y,-1/4-x,-1/2+z
128 -3/4-y,x,-1/4-z
129 -1/4-x,-1/4-z,-1/2+y
130 -3/4-x,z,-1/4-y
131 -1/4-z,-1/4-y,-1/2+x
132 -3/4-z,y,-1/4-x
133 -1/2-x,-1/2-y,-z
134 -1/4+x,-y,-1/4+z
135 -1/2-z,-1/2-x,-y
136 -1/4+z,-x,-1/4+y
137 -1/2-y,-1/2-z,-x
138 -1/4+y,-z,-1/4+x
139 -1/4-y,-3/4-x,z
140 -1/2+y,-1/4-x,-1/4-z
141 -1/4-x,-3/4-z,y
142 -1/2+x,-1/4-z,-1/4-y
143 -1/4-z,-3/4-y,x
144 -1/2+z,-1/4-y,-1/4-x
145 -1/4+x,-3/4+y,-1/2-z
146 -3/4+x,-1/2-y,-1/4+z
147 -1/2-x,-1/4+y,-3/4+z
148 -1/2-z,-1/4+x,-3/4+y
149 -1/4+z,-3/4+x,-1/2-y
150 -3/4+z,-1/2-x,-1/4+y
151 -3/4+y,-1/2-z,-1/4+x
152 -1/2-y,-1/4+z,-3/4+x
153 -1/4+y,-3/4+z,-1/2-x
154 -1/2+y,-1/2+x,-1/2+z
155 -1/2+x,-1/2+z,-1/2+y
156 -1/2+z,-1/2+y,-1/2+x
157 -3/4+x,-y,-3/4+z
158 -1/2-x,-3/4+y,-1/4+z
159 -1/2-z,-3/4+x,-1/4+y
160 -3/4+z,-x,-3/4+y
161 -3/4+y,-z,-3/4+x
162 -1/2-y,-3/4+z,-1/4+x
163 -3/4-y,-3/4-x,-1/2+z
164 -1/2+y,x,z
165 -3/4-x,-3/4-z,-1/2+y
166 -1/2+x,z,y
167 -3/4-z,-3/4-y,-1/2+x
168 -1/2+z,y,x
169 -3/4+x,-3/4+y,-z
170 -1/4+x,-1/2-y,-3/4+z
171 -3/4+z,-3/4+x,-y
172 -1/4+z,-1/2-x,-3/4+y
173 -1/4+y,-1/2-z,-3/4+x
174 -3/4+y,-3/4+z,-x
175 y,-1/2+x,z
176 -1/2+y,-3/4-x,-3/4-z
177 -1/2+x,-3/4-z,-3/4-y
178 x,-1/2+z,y
179 -1/2+z,-3/4-y,-3/4-x
180 z,-1/2+y,x
181 -3/4+x,-1/4+y,-1/2-z
182 -x,-3/4+y,-3/4+z
183 -z,-3/4+x,-3/4+y
184 -3/4+z,-1/4+x,-1/2-y
185 -y,-3/4+z,-3/4+x
186 -3/4+y,-1/4+z,-1/2-x
187 y,x,-1/2+z
188 -3/4-y,-1/2+x,-3/4-z
189 x,z,-1/2+y
190 -3/4-x,-1/2+z,-3/4-y
191 -3/4-z,-1/2+y,-3/4-x
192 z,y,-1/2+x
_cell_length_a 24.5326(6)
_cell_length_b 24.5326(6)
_cell_length_c 24.5326(6)
_cell_angle_alpha 90
_cell_angle_beta 90
_cell_angle_gamma 90
_cell_formula_units_Z 32
loop_
_atom_type_symbol
_atom_type_radius_bond
C 0.68
H 0.23
Br 1.21
Cu 1.47
N 0.68
O 0.68
loop_
_atom_site_label
_atom_site_type_symbol
_atom_site_fract_x
_atom_site_fract_y
_atom_site_fract_z
Br1 Br 0.75000 0.75000 0.00000
Br2 Br 0.74356(12) 0.62500 0.12500
Br3? Br 0.7456(3) 0.5723(3) 0.1142(3)
Cu1 Cu 0.6954(5) 0.6954(5) 0.0546(5)
Cu2? Cu 0.6648(3) 0.6648(3) 0.0852(3)
Cu3 Cu 0.80631(4) 0.50000 0.05631(4)
O1 O 0.7641(5) 0.4859(5) -0.0141(5)
N1 N 0.7696(4) 0.4367(4) 0.0896(4)
N2 N 0.7500(3) 0.36310 0.1369(3)
C1 C 0.7812(5) 0.4088(4) 0.1342(4)
H1 H 0.80760 0.41910 0.16060
Br2Z Br 0.62500(12) 0.74356 0.12500
Br2XB Br 0.62500(12) 0.62500 0.00644
Br2UE Br 0.87500(12) 0.87500 -0.00644
Br2AF Br 0.75644(12) 0.87500 -0.12500
Br2OF Br 0.87500(12) 0.75644 -0.12500
Cu1UE Cu 0.8046(5) 0.8046(5) -0.0546(5)
Cu1P Cu 0.6954(5) 0.5546(5) 0.1954(5)
Cu1Z Cu 0.5546(5) 0.6954(5) 0.1954(5)
Cu1M Cu 0.5546(5) 0.5546(5) 0.0546(5)
Cu3PA Cu 0.75000(4) 0.55631 -0.05631(4)
Cu3FB Cu 0.69369(4) 0.44369 0.00000(4)
Cu3QF Cu 0.75000(4) 0.30631 0.19369(4)
Cu3FD Cu 0.94369(4) 0.69369 0.00000(4)
Cu3SF Cu 1.00000(4) 0.44369 0.19369(4)
Cu3MD Cu 0.94369(4) 0.55631 0.25000(4)
O1IA O 0.7359(5) 0.5141(5) 0.0141(5)
N1FB N 0.7304(4) 0.4104(4) 0.0633(4)
N1IA N 0.8396(4) 0.5633(4) 0.0196(4)
N1XB N 0.8133(4) 0.5896(4) -0.0196(4)
N1SF N 0.9367(4) 0.4804(4) 0.1604(4)
N1SD N 0.9104(4) 0.5196(4) 0.1867(4)
N1PA N 0.6867(4) 0.5196(4) -0.0896(4)
N1IC N 0.6604(4) 0.4804(4) -0.0633(4)
N2IA N 0.8869(3) 0.63690 0.0000(3)
N2SF N 0.8631(3) 0.50000 0.1131(3)
N2AF N 0.7500(3) 0.61310 -0.1131(3)
N2BG N 0.6369(3) 0.38690 0.0000(3)
C1FB C 0.7188(5) 0.3658(4) 0.0912(4)
C1IA C 0.8842(5) 0.5912(4) 0.0312(4)
C1XB C 0.8412(5) 0.6342(4) -0.0312(4)
C1SF C 0.9088(5) 0.4688(4) 0.1158(4)
C1SD C 0.8658(5) 0.5312(4) 0.1588(4)
H1FB H 0.69240 0.33940 0.08090
H1IA H 0.91060 0.58090 0.05760
H1XB H 0.83090 0.66060 -0.05760
H1SF H 0.91910 0.44240 0.08940
H1SD H 0.83940 0.55760 0.16910
#END
