
#######################################################################
#
#                 Cambridge Crystallographic Data Centre
#                                CCDC
#
#######################################################################
#
# If this CIF has been generated from an entry in the Cambridge
# Structural Database, then it will include bibliographic, chemical,
# crystal, experimental, refinement or atomic coordinate data resulting
# from the CCDC's data processing and validation procedures.
#
#######################################################################

data_CSD_CIF_KELJUI
_audit_creation_date 2013-01-14
_audit_creation_method CSD-ConQuest-V1
_database_code_CSD KELJUI
_database_code_depnum_ccdc_archive 'CCDC 815120'
_chemical_formula_sum 'C14 H25 N4 O11.5 Zn1'
_chemical_formula_moiety
;
(C12 H12 N3 O9 Zn1 1-)n,n(C2 H8 N1 1+),2.5n(H2 O1)
;
_journal_coden_Cambridge 367
_journal_volume 38
_journal_year 2012
_journal_page_first 329
_journal_name_full 'Koord.Khim.(Russ.)(Coord.Chem.) '
loop_
_publ_author_name
"S.Sun"
"G.X.Zhang"
"J.Q.Gao"
"Z.B.Han"
_chemical_name_systematic
;
catena-(Dimethylammonium 
(\m~5~-3,3',3''-(2,4,6-trioxo-1,3,5-triazinane-1,3,5-triyl)tripropanoato)-zinc
(ii) hydrate)
;
_cell_volume   2143.677
_exptl_crystal_colour 'colorless'
_exptl_crystal_density_diffrn 1.542
_exptl_crystal_description 'block'
_diffrn_ambient_temperature 295
_refine_special_details
;
A water molecule is disordered by symmetry.

;
#These two values have been output from a single CSD field.
_refine_ls_R_factor_gt 0.0667
_refine_ls_wR_factor_gt 0.0667
_symmetry_cell_setting monoclinic
_symmetry_space_group_name_H-M 'C 2/m'
_symmetry_Int_Tables_number 12
loop_
_symmetry_equiv_pos_site_id
_symmetry_equiv_pos_as_xyz
1 x,y,z
2 -x,y,-z
3 1/2+x,1/2+y,z
4 1/2-x,1/2+y,-z
5 -x,-y,-z
6 x,-y,z
7 -1/2-x,-1/2-y,-z
8 -1/2+x,-1/2-y,z
_cell_length_a 16.228(11)
_cell_length_b 10.705(8)
_cell_length_c 14.453(10)
_cell_angle_alpha 90
_cell_angle_beta 121.374(7)
_cell_angle_gamma 90
_cell_formula_units_Z 4
loop_
_atom_type_symbol
_atom_type_radius_bond
C 0.68
H 0.23
N 0.68
O 0.68
Zn 1.22
loop_
_atom_site_label
_atom_site_type_symbol
_atom_site_fract_x
_atom_site_fract_y
_atom_site_fract_z
Zn1 Zn 0.60597(5) 0.50000 0.54753(6)
C1 C 0.6301(3) 0.8859(5) 0.9675(4)
C2 C 0.6404(5) 1.00000 0.8284(5)
C3 C 0.6325(4) 0.7730(6) 0.8198(4)
C4 C 0.5279(4) 0.7492(6) 0.7299(4)
H1 H 0.49340 0.71370 0.76190
H2 H 0.49780 0.82860 0.69760
C5 C 0.5170(4) 0.6629(5) 0.6415(4)
C6 C 0.6092(5) 1.00000 1.1019(5)
C7 C 0.7018(5) 1.00000 1.2105(5)
C8 C 0.6810(4) 1.00000 1.3016(5)
N1 N 0.6395(3) 0.8901(4) 0.8778(3)
N2 N 0.6274(4) 1.00000 1.0105(4)
O1 O 0.6243(3) 0.7875(4) 1.0063(3)
O2 O 0.6446(4) 1.00000 0.7467(4)
O3 O 0.5914(2) 0.6318(4) 0.6409(3)
O4 O 0.4322(3) 0.6295(4) 0.5726(3)
O5 O 0.7553(3) 1.00000 1.3998(3)
O6 O 0.5981(3) 1.00000 1.2825(4)
C9 C 0.7075(14) 0.8798(15) 1.5768(11)
H3 H 0.75330 0.82670 1.57290
H4 H 0.64410 0.86450 1.51530
H5 H 0.70790 0.86220 1.64210
O7 O 0.614(4) 0.50000 1.204(4)
H6? H 0.59620 0.46960 1.24520
H7? H 0.61300 0.45480 1.15500
O8? O 0.492(6) 0.50000 1.038(3)
H8? H 0.43330 0.47540 1.00340
H9? H 0.52800 0.48290 1.10460
H10 H 0.574(3) 0.927(4) 1.097(3)
H11 H 0.653(4) 0.719(6) 0.870(5)
H12 H 0.742(3) 0.920(4) 1.219(3)
H13 H 0.684(5) 0.775(6) 0.797(5)
N3 N 0.7315(12) 1.00000 1.5768(12)
H14 H 0.78450 1.00000 1.57700
Zn1A Zn 0.39403(5) 0.50000 0.45247(6)
Zn1C Zn 0.89403(5) 1.00000 1.45247(6)
Zn1* Zn 0.60597(5) 1.50000 0.54753(6)
Zn1A* Zn 0.39403(5) 1.50000 0.45247(6)
C1E C 0.6301(3) 1.1141(5) 0.9675(4)
C3E C 0.6325(4) 1.2270(6) 0.8198(4)
C4E C 0.5279(4) 1.2508(6) 0.7299(4)
H1E H 0.49340 1.28630 0.76190
H2E H 0.49780 1.17140 0.69760
C5E C 0.5170(4) 1.3371(5) 0.6415(4)
N1E N 0.6395(3) 1.1099(4) 0.8778(3)
O1E O 0.6243(3) 1.2125(4) 1.0063(3)
O3E O 0.5914(2) 1.3682(4) 0.6409(3)
O3E* O 0.5914(2) 0.3682(4) 0.6409(3)
O4E O 0.4322(3) 1.3705(4) 0.5726(3)
O4A O 0.5678(3) 0.6295(4) 0.4274(3)
O4D O 0.5678(3) 0.3705(4) 0.4274(3)
O5C O 0.7447(3) 0.50000 0.6002(3)
C9E C 0.7075(14) 1.1202(15) 1.5768(11)
H3E H 0.75330 1.17330 1.57290
H4E H 0.64410 1.13550 1.51530
H5E H 0.70790 1.13780 1.64210
H10E H 0.574(3) 1.073(4) 1.097(3)
H11E H 0.653(4) 1.281(6) 0.870(5)
H12E H 0.742(3) 1.080(4) 1.219(3)
H13E H 0.684(5) 1.225(6) 0.797(5)
#END
