
#######################################################################
#
#                 Cambridge Crystallographic Data Centre
#                                CCDC
#
#######################################################################
#
# If this CIF has been generated from an entry in the Cambridge
# Structural Database, then it will include bibliographic, chemical,
# crystal, experimental, refinement or atomic coordinate data resulting
# from the CCDC's data processing and validation procedures.
#
#######################################################################

data_CSD_CIF_KENLEW
_audit_creation_date 2013-03-18
_audit_creation_method CSD-ConQuest-V1
_database_code_CSD KENLEW
_database_code_depnum_ccdc_archive 'CCDC 885694'
_chemical_formula_sum 'C33 H43 N5 O29 Pr2'
_chemical_formula_moiety
;
(C28 H21 N4 O20 Pr2 1-)n,n(C5 H6 N1 O1 1+),8n(H2 O1)
;
_journal_coden_Cambridge 1546
_journal_volume 2
_journal_year 2012
_journal_page_first 1253
_journal_name_full 'Crystals '
loop_
_publ_author_name
"S.Sharif"
"O.Sahin"
"I.U.Khan"
"O.Buyukgungor"
"W.T.A.Harrison"
_chemical_name_systematic
;
catena-(bis(\m~2~-Pyridine-2,6-dicarboxylato)-(pyridine-2,6-dicarboxylato)-(6-
carboxypyridine-2-carboxylato)-tetra-aqua-di-praseodymium(iii) 
3-hydroxypyridinium octahydrate)
;
_cell_volume   2191.163
_exptl_crystal_colour 'green'
_exptl_crystal_density_diffrn 1.903
_exptl_crystal_description 'needle'
_diffrn_ambient_temperature 293
#These two values have been output from a single CSD field.
_refine_ls_R_factor_gt 0.033
_refine_ls_wR_factor_gt 0.033
_symmetry_cell_setting triclinic
_symmetry_space_group_name_H-M 'P -1'
_symmetry_Int_Tables_number 2
loop_
_symmetry_equiv_pos_site_id
_symmetry_equiv_pos_as_xyz
1 x,y,z
2 -x,-y,-z
_cell_length_a 13.2567(1)
_cell_length_b 13.6304(2)
_cell_length_c 13.6409(2)
_cell_angle_alpha 89.695(1)
_cell_angle_beta 63.049(1)
_cell_angle_gamma 86.105(1)
_cell_formula_units_Z 2
loop_
_atom_type_symbol
_atom_type_radius_bond
C 0.68
H 0.23
N 0.68
O 0.68
Pr 2.03
loop_
_atom_site_label
_atom_site_type_symbol
_atom_site_fract_x
_atom_site_fract_y
_atom_site_fract_z
Pr1 Pr 0.510841(14) 0.764838(12) 0.239504(13)
Pr2 Pr 0.025937(14) 0.699581(12) 0.263085(14)
C1 C 0.3331(3) 0.8971(2) 0.1528(3)
C2 C 0.2780(3) 0.9750(3) 0.1257(3)
H1 H 0.21300 0.96560 0.11820
C3 C 0.3211(3) 1.0667(3) 0.1101(3)
H2 H 0.28530 1.12000 0.09250
C4 C 0.4191(3) 1.0773(3) 0.1213(3)
H3 H 0.45040 1.13790 0.11090
C5 C 0.4691(3) 0.9958(2) 0.1483(3)
C6 C 0.2904(3) 0.7956(2) 0.1747(3)
C7 C 0.5774(3) 1.0000(3) 0.1602(3)
C8 C 0.4764(3) 0.8481(3) 0.4933(3)
C9 C 0.4945(3) 0.8645(3) 0.5839(3)
H4 H 0.43910 0.89820 0.64610
C10 C 0.5971(3) 0.8297(3) 0.5799(3)
H5 H 0.61050 0.83810 0.64060
C11 C 0.6795(3) 0.7822(3) 0.4849(3)
H6 H 0.74930 0.75910 0.48010
C12 C 0.6552(3) 0.7701(2) 0.3970(3)
C13 C 0.3663(3) 0.8783(3) 0.4907(3)
C14 C 0.7399(3) 0.7239(2) 0.2869(3)
C15 C 0.6038(3) 0.5584(3) 0.0574(3)
C16 C 0.6223(3) 0.4629(3) 0.0166(3)
H7 H 0.66450 0.44850 -0.05830
C17 C 0.5755(3) 0.3883(3) 0.0914(3)
H8 H 0.58560 0.32310 0.06690
C18 C 0.5137(3) 0.4132(3) 0.2025(3)
H9 H 0.48110 0.36500 0.25360
C19 C 0.5015(3) 0.5105(3) 0.2361(3)
C20 C 0.6438(3) 0.6461(3) -0.0134(3)
C21 C 0.4403(3) 0.5443(3) 0.3567(3)
C22 C 0.0091(3) 0.4488(3) 0.2319(3)
C23 C -0.0092(3) 0.3509(3) 0.2542(3)
H10 H 0.02000 0.30320 0.19780
C24 C -0.0723(3) 0.3250(3) 0.3632(3)
H11 H -0.08710 0.25970 0.38060
C25 C -0.1128(3) 0.3980(3) 0.4456(3)
H12 H -0.15630 0.38270 0.51880
C26 C -0.0871(3) 0.4936(3) 0.4164(3)
C27 C 0.0713(3) 0.4863(3) 0.1161(3)
C28 C -0.1206(3) 0.5785(3) 0.4985(3)
N1 N 0.4267(2) 0.9077(2) 0.1650(2)
N2 N 0.5556(2) 0.8021(2) 0.4014(2)
N3 N 0.5448(2) 0.5825(2) 0.1654(2)
N4 N -0.0280(2) 0.5192(2) 0.3111(2)
O1 O 0.3448(2) 0.73294(18) 0.2048(2)
O2 O 0.2044(2) 0.78075(18) 0.1631(2)
O3 O 0.6123(2) 0.91942(18) 0.1869(2)
O4 O 0.6229(2) 1.07892(18) 0.1438(2)
O5 O 0.3633(2) 0.86409(19) 0.40018(19)
O6 O 0.2852(2) 0.9138(2) 0.5763(2)
O7 O 0.70387(19) 0.71678(17) 0.21525(18)
O8 O 0.83779(19) 0.69860(18) 0.27097(19)
O9 O 0.6195(2) 0.72966(18) 0.02831(19)
O10 O 0.7007(2) 0.6236(2) -0.1170(2)
H13 H 0.72040 0.67390 -0.15180
O11 O 0.4253(2) 0.63649(18) 0.37535(19)
O12 O 0.4125(2) 0.4780(2) 0.4245(2)
O13 O 0.0845(2) 0.57818(18) 0.10792(19)
O14 O 0.1025(3) 0.4282(2) 0.0366(2)
O15 O -0.0885(2) 0.66144(17) 0.45910(19)
O16 O -0.1764(2) 0.56258(19) 0.59892(19)
O17 O 0.1864(2) 0.59584(18) 0.2724(2)
H14 H 0.23960 0.62610 0.26550
H15 H 0.18380 0.54780 0.30840
O18 O 0.0328(2) 0.7815(2) 0.0968(2)
H16 H -0.01920 0.77650 0.07840
H17 H 0.03770 0.84410 0.09540
O19 O -0.0747(3) 0.8669(2) 0.3204(3)
H18 H -0.10630 0.88970 0.28170
H19 H -0.04880 0.91880 0.33210
O20 O 0.0724(3) 0.7872(2) 0.4034(2)
H20 H 0.10850 0.83680 0.40160
H21 H 0.01290 0.79730 0.46380
C29 C 0.7754(3) 0.4730(3) 0.1908(3)
H22 H 0.79210 0.53630 0.16570
C30 C 0.7119(3) 0.4574(3) 0.3032(3)
C31 C 0.6886(3) 0.3621(3) 0.3382(3)
H23 H 0.64610 0.34990 0.41240
C32 C 0.7298(4) 0.2850(3) 0.2605(3)
H24 H 0.71580 0.22070 0.28290
C33 C 0.7914(4) 0.3038(3) 0.1504(3)
H25 H 0.81840 0.25260 0.09800
N5 N 0.8118(3) 0.3968(2) 0.1202(2)
H26 H 0.85050 0.40770 0.05130
O21 O 0.6765(2) 0.53648(19) 0.3698(2)
H27 H 0.63950 0.51980 0.43340
O22 O 0.1667(3) 0.9567(3) 0.4229(3)
H28 H 0.22640 0.92990 0.42390
H29 H 0.12590 0.96560 0.49790
O23 O 0.8812(2) 0.7605(2) 0.0137(2)
H30 H 0.89020 0.70010 -0.00430
H31 H 0.82100 0.76250 0.07180
O24 O 0.7834(2) 0.9539(2) 0.2459(2)
H32 H 0.75130 0.99540 0.29720
H33 H 0.73270 0.93870 0.23180
O25 O 0.9689(3) 0.9188(2) -0.1098(3)
H34 H 0.93160 0.96630 -0.06870
H35 H 0.93800 0.87000 -0.07650
O26 O 0.8534(2) 1.0715(2) 0.0378(2)
H36 H 0.88310 1.05990 0.07890
H37 H 0.78540 1.06750 0.07570
O27 O 0.9502(3) 1.0686(3) 0.3259(3)
H38 H 0.87770 1.08180 0.35120
H39 H 0.97270 1.07720 0.25650
O28 O 0.8939(3) 0.8606(3) 0.6192(3)
H40 H 0.85950 0.91530 0.61570
H41 H 0.91650 0.88290 0.66920
O29 O 0.7463(2) 0.7265(2) 0.7231(2)
H42 H 0.77910 0.68290 0.67390
H43 H 0.79110 0.76990 0.70500
Pr2* Pr 1.025937(14) 0.699581(12) 0.263085(14)
O8* O -0.16221(19) 0.69860(18) 0.27097(19)
#END
