
#######################################################################
#
#                 Cambridge Crystallographic Data Centre
#                                CCDC
#
#######################################################################
#
# If this CIF has been generated from an entry in the Cambridge
# Structural Database, then it will include bibliographic, chemical,
# crystal, experimental, refinement or atomic coordinate data resulting
# from the CCDC's data processing and validation procedures.
#
#######################################################################

data_CSD_CIF_KEPPIF
_audit_creation_date 2006-12-05
_audit_creation_method CSD-ConQuest-V1
_database_code_CSD KEPPIF
_database_code_depnum_ccdc_archive 'CCDC 292643'
_chemical_formula_sum 'C13 H34 O37 Zn6'
_chemical_formula_moiety
;
(C13 H15 O28 Zn6 1-)n,n(H3 O1 1+),8n(H2 O1)
;
_journal_coden_Cambridge 119
_journal_volume 796
_journal_year 2006
_journal_page_first 2
_journal_name_full 'J.Mol.Struct. '
loop_
_publ_author_name
"B.F.Abrahams"
"T.A.Hudson"
"R.Robson"
_chemical_name_systematic
;
catena-(oxonium 
tris(\m~4~-hydroxypropanedioato)-(\m~4~-hydroxymethanetricarboxylato)-hexa-aqu
a-hexa-zinc(ii) octahydrate)
;
_cell_volume   4747.562
_exptl_crystal_colour 'colorless'
_exptl_crystal_density_diffrn 1.617
_exptl_special_details
;
The hydroxonium ion was not identified

;
_exptl_crystal_description 'tetrahedron'
_diffrn_ambient_temperature 293
_refine_special_details
;
A number of water molecules are disordered.

;
#These two values have been output from a single CSD field.
_refine_ls_R_factor_gt 0.0819
_refine_ls_wR_factor_gt 0.0819
_symmetry_cell_setting cubic
_symmetry_space_group_name_H-M 'P 21 3'
_symmetry_Int_Tables_number 198
loop_
_symmetry_equiv_pos_site_id
_symmetry_equiv_pos_as_xyz
1 x,y,z
2 1/2+x,1/2-y,-z
3 -x,1/2+y,1/2-z
4 1/2-x,-y,1/2+z
5 z,x,y
6 1/2+z,1/2-x,-y
7 -z,1/2+x,1/2-y
8 1/2-z,-x,1/2+y
9 y,z,x
10 1/2+y,1/2-z,-x
11 -y,1/2+z,1/2-x
12 1/2-y,-z,1/2+x
_cell_length_a 16.807(8)
_cell_length_b 16.807(8)
_cell_length_c 16.807(8)
_cell_angle_alpha 90
_cell_angle_beta 90
_cell_angle_gamma 90
_cell_formula_units_Z 4
loop_
_atom_type_symbol
_atom_type_radius_bond
C 0.68
O 0.68
Zn 1.39
loop_
_atom_site_label
_atom_site_type_symbol
_atom_site_fract_x
_atom_site_fract_y
_atom_site_fract_z
C1 C 0.8208(14) 0.3910(14) 0.3413(16)
C2 C 0.8760(12) 0.4573(12) 0.3021(14)
C3 C 0.9467(14) 0.4140(13) 0.2623(12)
C4 C 1.0424(14) 0.4576(14) 0.5424(14)
C5 C 0.9904(15) 0.3864(15) 0.5734(15)
O1 O 0.7885(10) 0.3434(8) 0.2944(10)
O2 O 0.9046(8) 0.5067(8) 0.3642(9)
O3 O 0.8144(11) 0.3901(12) 0.4148(9)
O4 O 1.0163(9) 0.4335(10) 0.2884(10)
O5 O 0.9932(8) 0.5068(8) 0.4932(8)
O6 O 0.9351(9) 0.3642(10) 0.2102(10)
O7 O 0.7518(12) 0.6044(14) 0.3415(14)
O8 O 0.9214(10) 0.3789(10) 0.5489(11)
O9 O 1.0260(11) 0.3346(12) 0.6168(13)
O10 O 1.1272(15) 0.3310(15) 0.7687(12)
Zn1 Zn 0.82182(17) 0.32182(17) 0.17818(17)
Zn2 Zn 0.87464(18) 0.47271(18) 0.48276(17)
Zn3 Zn 0.87119(18) 0.62881(18) 0.37119(18)
Zn4 Zn 1.1475(2) 0.3525(2) 0.6475(2)
O11 O 0.810(3) 0.204(3) -0.126(3)
O12 O 0.872(4) 0.576(3) 0.116(4)
O13 O 0.800(4) 0.696(4) 0.035(4)
O14 O 0.799(12) 0.178(11) 0.448(11)
O15 O 0.977(9) 0.261(8) 0.407(7)
O16 O 0.977(6) 0.179(6) 0.507(6)
O17? O 0.920(3) 0.546(3) 0.126(3)
O18? O 0.874(7) 0.216(6) 0.457(6)
O19? O 0.915(13) 0.247(11) 0.421(12)
O20? O 0.826(6) 0.228(5) 0.499(5)
O21? O 0.938(9) 0.212(9) 0.376(9)
O22? O 0.93(2) 0.18(2) 0.46(2)
C1F C 0.6587(14) 0.3208(14) 0.1090(16)
C1I C 0.8910(14) 0.1587(14) 0.1792(16)
C2F C 0.6979(12) 0.3760(12) 0.0427(14)
C2I C 0.9573(12) 0.1979(12) 0.1240(14)
C3F C 0.7377(14) 0.4467(13) 0.0860(12)
C3I C 0.9140(14) 0.2377(13) 0.0533(12)
C5E C 1.0734(15) 0.5096(15) 0.6136(15)
C5K C 1.1136(15) 0.4266(15) 0.4904(15)
O1F O 0.7056(10) 0.2885(8) 0.1566(10)
O1I O 0.8434(10) 0.2056(8) 0.2115(10)
O2F O 0.6358(8) 0.4046(8) -0.0067(9)
O2I O 1.0067(8) 0.1358(8) 0.0954(9)
O2E O 0.8642(8) 0.5954(8) 0.4933(9)
O2K O 0.9933(8) 0.6358(8) 0.4046(9)
O2H O 0.5067(8) 0.3642(8) -0.0954(9)
O2B O 1.0954(8) 0.0067(8) 0.1358(9)
O3F O 0.5852(11) 0.3144(12) 0.1099(9)
O3I O 0.8901(11) 0.0852(12) 0.1856(9)
O4F O 0.7116(9) 0.5163(10) 0.0665(10)
O4I O 0.9335(9) 0.2116(10) -0.0163(10)
O4E O 0.7884(9) 0.4837(10) 0.5665(10)
O4H O 0.4335(9) 0.2884(10) 0.0163(10)
O4B O 0.9837(9) -0.0665(10) 0.2116(10)
O5C O 0.5068(8) 0.4932(8) -0.0068(8)
O5B O 1.0068(8) 0.0068(8) 0.0068(8)
O6F O 0.7898(9) 0.4351(10) 0.1358(10)
O6I O 0.8642(9) 0.2898(10) 0.0649(10)
O7E O 0.8415(12) 0.7482(14) 0.3956(14)
O7K O 0.8956(12) 0.6585(14) 0.2518(14)
O8E O 1.0489(10) 0.5786(10) 0.6211(11)
O8K O 1.1211(10) 0.4511(10) 0.4214(11)
O8F O 0.4511(10) 0.4214(10) 0.1211(11)
O8I O 0.8789(10) -0.0489(10) 0.0786(11)
O9E O 1.1168(11) 0.4740(12) 0.6654(13)
O9K O 1.1654(11) 0.3832(12) 0.5260(13)
O10E O 1.2687(15) 0.3728(15) 0.6690(12)
O10K O 1.1690(15) 0.2313(15) 0.6272(12)
Zn2F Zn 0.51724(18) 0.37464(18) 0.02729(17)
Zn2I Zn 0.97271(18) 0.01724(18) 0.12536(17)
Zn2K Zn 1.02729(18) 0.51724(18) 0.37464(17)
Zn2E Zn 0.98276(18) 0.62536(18) 0.52729(17)
Zn2C Zn 0.62536(18) 0.52729(18) -0.01724(17)
Zn2G Zn 1.01724(18) 0.12536(18) -0.02729(17)
Zn3C Zn 0.62881(18) 0.37119(18) -0.12881(18)
Zn3B Zn 1.12881(18) 0.12881(18) 0.12881(18)
#END
