
#######################################################################
#
#                 Cambridge Crystallographic Data Centre
#                                CCDC
#
#######################################################################
#
# If this CIF has been generated from an entry in the Cambridge
# Structural Database, then it will include bibliographic, chemical,
# crystal, experimental, refinement or atomic coordinate data resulting
# from the CCDC's data processing and validation procedures.
#
#######################################################################

data_CSD_CIF_KEPRIH01
_audit_creation_date 2010-12-02
_audit_creation_method CSD-ConQuest-V1
_database_code_CSD KEPRIH01
_chemical_formula_sum 'C4 H3 Cs1 O14 U2'
_chemical_formula_moiety
;
(Cs1 1+)n,n(C4 H1 O13 U2 1-),n(H2 O1)
;
_journal_coden_Cambridge 233
_journal_volume 54
_journal_year 2009
_journal_page_first 1652
_journal_name_full 'Zh.Neorg.Khim.(Russ.)(Russ.J.Inorg.Chem.) '
loop_
_publ_author_name
"L.B.Serezhkina"
"E.V.Peresypkina"
"A.V.Virovets"
"I.V.Medrish"
"D.V.Pushkin"
_chemical_name_systematic
;
catena-[Cesium 
(\m~2~-hydroxy)-bis(\m~2~-oxalato-O,O':O'',O''')-tetra-oxo-di-uranium(vi) 
monohydrate]
;
_cell_volume    709.862
_exptl_crystal_colour 'yellow'
_exptl_crystal_density_diffrn 4.136
_exptl_special_details
;
The coordination of the cesium cation is not clear from the paper. Given the 
relatively long cesium-oxygen interactions (with distances from 3.10-3.56 A) 
the cesium has been represented as an isolated cation in the 2D 
representation
;
_diffrn_ambient_temperature 295
#These two values have been output from a single CSD field.
_refine_ls_R_factor_gt 0.0444
_refine_ls_wR_factor_gt 0.0444
_symmetry_cell_setting monoclinic
_symmetry_space_group_name_H-M 'P 21/m'
_symmetry_Int_Tables_number 11
loop_
_symmetry_equiv_pos_site_id
_symmetry_equiv_pos_as_xyz
1 x,y,z
2 -x,1/2+y,-z
3 -x,-y,-z
4 x,-1/2-y,z
_cell_length_a 5.5032(4)
_cell_length_b 13.5577(8)
_cell_length_c 9.5859(8)
_cell_angle_alpha 90
_cell_angle_beta 97.012(3)
_cell_angle_gamma 90
_cell_formula_units_Z 2
loop_
_atom_type_symbol
_atom_type_radius_bond
C 0.68
H 0.23
Cs 1.67
O 0.68
U 1.53
loop_
_atom_site_label
_atom_site_type_symbol
_atom_site_fract_x
_atom_site_fract_y
_atom_site_fract_z
U1 U 0.28195(8) 0.58816(3) 0.76169(4)
O1 O 0.5597(16) 0.5541(7) 0.8547(9)
O2 O 0.0072(15) 0.6243(7) 0.6665(9)
O3 O 0.403(2) 0.75000 0.8030(13)
O4 O 0.3327(17) 0.4424(6) 0.6184(9)
O5 O 0.5317(15) 0.3770(6) 0.4512(8)
O6 O 0.1209(15) 0.6175(6) 0.9828(8)
O7 O -0.0732(15) 0.5549(6) 1.1537(8)
O8 O 0.437(3) 0.75000 0.1818(19)
C1 C 0.461(2) 0.4473(9) 0.5209(13)
C2 C 0.015(2) 0.5499(9) 1.0380(11)
H1 H 0.51350 0.75000 0.86500
Cs1 Cs -0.0362(2) 0.75000 0.36098(14)
U1B U 0.71805(8) 0.41184(3) 0.23831(4)
U1C U 0.28195(8) 0.91184(3) 0.76169(4)
U1B* U -0.28195(8) 0.41184(3) 1.23831(4)
O1B O 0.4403(16) 0.4459(7) 0.1453(9)
O2B O 0.9928(15) 0.3757(7) 0.3335(9)
O3A O 0.597(2) 0.25000 0.1970(13)
O4B O 0.6673(17) 0.5576(6) 0.3816(9)
O5B O 0.4683(15) 0.6230(6) 0.5488(8)
O6B O -0.1209(15) 0.3825(6) 1.0172(8)
O6B* O 0.8791(15) 0.3825(6) 0.0172(8)
O7B O 0.0732(15) 0.4451(6) 0.8463(8)
O7* O 0.9268(15) 0.5549(6) 0.1537(8)
C1B C 0.539(2) 0.5527(9) 0.4791(13)
C2B C -0.015(2) 0.4501(9) 0.9620(11)
H1A H 0.48650 0.25000 0.13500
#END
