
#######################################################################
#
#                 Cambridge Crystallographic Data Centre
#                                CCDC
#
#######################################################################
#
# If this CIF has been generated from an entry in the Cambridge
# Structural Database, then it will include bibliographic, chemical,
# crystal, experimental, refinement or atomic coordinate data resulting
# from the CCDC's data processing and validation procedures.
#
#######################################################################

data_CSD_CIF_KERNAX
_audit_creation_date 2006-12-05
_audit_creation_method CSD-ConQuest-V1
_database_code_CSD KERNAX
_database_code_depnum_ccdc_archive 'CCDC 627490'
_chemical_formula_sum 'C12 H24 Cl4 N2 O12 Zn3'
_chemical_formula_moiety
;
(C12 H8 Cl4 N2 O4 Zn2 2-)n,n(H12 O6 Zn1 2+),2n(H2 O1)
;
_journal_coeditor_code "IUCr DN2072"
_journal_coden_Cambridge 1370
_journal_volume 62
_journal_year 2006
_journal_page_first m2932
_journal_name_full 'Acta Crystallogr.,Sect.E:Struct.Rep.Online '
loop_
_publ_author_name
"Bao Li"
"Ling Ye"
"Guang-Feng Hou"
"Guang-Di Yang"
"Li-Xin Wu"
_chemical_name_systematic
;
catena-(bis(\m~2~-pyridine-4-carboxylato)-tetrachloro-di-zinc(ii) 
hexaaqua-zinc(ii) dihydrate)
;
_cell_volume   5174.426
_exptl_crystal_colour 'colorless'
_exptl_crystal_density_diffrn 1.865
_exptl_crystal_description 'block'
_diffrn_ambient_temperature 295
#These two values have been output from a single CSD field.
_refine_ls_R_factor_gt 0.0457
_refine_ls_wR_factor_gt 0.0457
_symmetry_cell_setting orthorhombic
_symmetry_space_group_name_H-M 'F d d 2'
_symmetry_Int_Tables_number 43
loop_
_symmetry_equiv_pos_site_id
_symmetry_equiv_pos_as_xyz
1 x,y,z
2 -x,-y,z
3 1/4+x,1/4-y,1/4+z
4 1/4-x,1/4+y,1/4+z
5 x,1/2+y,1/2+z
6 -x,1/2-y,1/2+z
7 1/4+x,3/4-y,3/4+z
8 1/4-x,3/4+y,3/4+z
9 1/2+x,y,1/2+z
10 1/2-x,-y,1/2+z
11 3/4+x,1/4-y,3/4+z
12 3/4-x,1/4+y,3/4+z
13 1/2+x,1/2+y,z
14 1/2-x,1/2-y,z
15 3/4+x,3/4-y,1/4+z
16 3/4-x,3/4+y,1/4+z
_cell_length_a 11.332(7)
_cell_length_b 50.73(2)
_cell_length_c 9.001(3)
_cell_angle_alpha 90
_cell_angle_beta 90
_cell_angle_gamma 90
_cell_formula_units_Z 8
loop_
_atom_type_symbol
_atom_type_radius_bond
C 0.68
H 0.23
Cl 0.99
N 0.68
O 0.68
Zn 1.14
loop_
_atom_site_label
_atom_site_type_symbol
_atom_site_fract_x
_atom_site_fract_y
_atom_site_fract_z
C1 C 0.3355(5) 0.15480(8) 0.3543(5)
C2 C 0.3747(5) 0.13661(8) 0.2508(4)
C3 C 0.3567(5) 0.11016(9) 0.2761(4)
C4 C 0.3944(5) 0.08943(9) 0.1660(5)
C5 C 0.2994(5) 0.10270(8) 0.4059(5)
C6 C 0.2627(5) 0.12213(9) 0.5039(5)
Cl1 Cl 0.03988(15) 0.18695(3) 0.51484(14)
Cl2 Cl 0.34190(15) 0.20682(2) 0.65898(14)
N1 N 0.2805(4) 0.14768(7) 0.4787(4)
O1 O 0.3854(4) 0.06616(6) 0.1993(4)
O2 O 0.4296(4) 0.09813(7) 0.0418(4)
O3 O 0.1713(5) 0.21220(8) 0.2134(4)
O4 O 0.3675(4) 0.24046(10) 0.3724(5)
O5 O 0.3576(5) 0.23517(8) 0.0471(5)
H1 H 0.36150 0.21880 0.04070
H2 H 0.35050 0.24260 -0.03550
O6 O 0.5993(4) 0.23227(7) 0.3175(4)
Zn1 Zn 0.21056(6) 0.174718(10) 0.62187(5)
Zn2 Zn 0.25000 0.25000 0.21057(8)
H3 H 0.34810 0.17260 0.33620
H4 H 0.41290 0.14220 0.16500
H5 H 0.28590 0.08500 0.42660
H6 H 0.22420 0.11710 0.59070
H7 H 0.11850 0.20860 0.27690
H8 H 0.15840 0.20340 0.13370
H9 H 0.43980 0.23850 0.34900
H10 H 0.35510 0.23150 0.45070
H11 H 0.62080 0.24050 0.23950
H12 H 0.63570 0.21710 0.32640
C1J C 0.0855(5) 0.09520(8) 1.1043(5)
C2J C 0.1247(5) 0.11339(8) 1.0008(4)
C3J C 0.1067(5) 0.13984(9) 1.0261(4)
C4J C 0.1444(5) 0.16057(9) 0.9160(5)
C5J C 0.0494(5) 0.14730(8) 1.1559(5)
C6J C 0.0127(5) 0.12787(9) 1.2539(5)
Cl1J Cl -0.21012(15) 0.06305(3) 1.26484(14)
Cl2J Cl 0.09190(15) 0.04318(2) 1.40898(14)
N1J N 0.0305(4) 0.10232(7) 1.2287(4)
O1J O 0.1354(4) 0.18384(6) 0.9493(4)
O2J O 0.1796(4) 0.15187(7) 0.7918(4)
O2H O -0.0704(4) 0.09813(7) 1.5418(4)
O3M O 0.3287(5) 0.28780(8) 0.2134(4)
O4M O 0.1325(4) 0.25954(10) 0.3724(5)
O5M O 0.1424(5) 0.26483(8) 0.0471(5)
H1M H 0.13850 0.28120 0.04070
H2M H 0.14950 0.25740 -0.03550
Zn1J Zn -0.03944(6) 0.075282(10) 1.37187(5)
Zn1B Zn 0.46056(6) 0.075282(10) -0.12813(5)
H3J H 0.09810 0.07740 1.08620
H4J H 0.16290 0.10780 0.91500
H5J H 0.03590 0.16500 1.17660
H6J H -0.02580 0.13290 1.34070
H7M H 0.38150 0.29140 0.27690
H8M H 0.34160 0.29660 0.13370
H9M H 0.06020 0.26150 0.34900
H10M H 0.14490 0.26850 0.45070
#END
