
#######################################################################
#
#                 Cambridge Crystallographic Data Centre
#                                CCDC
#
#######################################################################
#
# If this CIF has been generated from an entry in the Cambridge
# Structural Database, then it will include bibliographic, chemical,
# crystal, experimental, refinement or atomic coordinate data resulting
# from the CCDC's data processing and validation procedures.
#
#######################################################################

data_CSD_CIF_KESYUF
_audit_creation_date 2017-11-26
_audit_creation_method CSD-ConQuest-V1
_database_code_CSD KESYUF
_database_code_depnum_ccdc_archive 'CCDC 1572448'
_chemical_formula_sum 'C36 H50 Cu2 N18 O44 Si1 W12'
_chemical_formula_moiety
;
(C18 H25 Cu1 N9 O2 2+)2n,O40 Si1 W12 4-
;
_journal_coden_Cambridge 580
_journal_volume 141
_journal_year 2018
_journal_page_first 25
_journal_name_full 'Polyhedron '
loop_
_publ_author_name
"Xiang Wang"
"Lin Lin"
"Xiaowen Yu"
"Jiahuan Liu"
"Hongyan Lin"
"Guocheng Liu"
_chemical_name_systematic
;
catena-[bis((\m-1,1',1''-[(2,4,6-trimethylbenzene-1,3,5-triyl)tris(methylene)]
tris(1H-1,2,4-triazole))-diaqua-copper(ii)) 
(\m-orthosilicato)-tetracosakis(\m-oxo)-dodecaoxo-dodeca-tungsten]
;
_cell_volume   3534.085
_exptl_crystal_colour 'red'
_exptl_crystal_density_diffrn 3.564
_exptl_crystal_description 'block'
_diffrn_ambient_temperature 293
_refine_special_details
;
O10,O18,O2,O3 disordered by symmetry over two configurations with occupancy 
0.50.
;
#These two values have been output from a single CSD field.
_refine_ls_R_factor_gt 0.0567
_refine_ls_wR_factor_gt 0.0567
_symmetry_cell_setting monoclinic
_symmetry_space_group_name_H-M 'P 21/n'
_symmetry_Int_Tables_number 14
loop_
_symmetry_equiv_pos_site_id
_symmetry_equiv_pos_as_xyz
1 x,y,z
2 1/2-x,1/2+y,1/2-z
3 -x,-y,-z
4 -1/2+x,-1/2-y,-1/2+z
_cell_length_a 12.632(5)
_cell_length_b 12.853(5)
_cell_length_c 22.032(5)
_cell_angle_alpha 90
_cell_angle_beta 98.894(5)
_cell_angle_gamma 90
_cell_formula_units_Z 2
loop_
_atom_type_symbol
_atom_type_radius_bond
C 0.68
H 0.23
Cu 1.32
N 0.68
O 0.68
Si 1.20
W 1.62
loop_
_atom_site_label
_atom_site_type_symbol
_atom_site_fract_x
_atom_site_fract_y
_atom_site_fract_z
W1 W 0.27041(6) -0.05311(6) 0.98591(4)
O1 O 0.1223(17) 0.0119(11) 0.7867(6)
W2 W -0.10220(7) 0.25340(5) 0.97490(3)
O2 O 0.1174(12) 0.2922(11) 1.1585(7)
W3 W 0.16843(6) 0.20186(6) 0.96478(4)
Si1 Si 0.00000 0.00000 1.00000
W4 W 0.07951(7) 0.19631(6) 1.10885(4)
O3 O -0.2778(11) 0.0867(11) 0.8059(6)
W5 W 0.08263(7) 0.00850(6) 0.85386(4)
O4 O 0.2060(14) -0.0505(10) 0.9028(7)
W6 W -0.18787(7) 0.05593(6) 0.86875(4)
O5 O 0.0289(18) 0.0244(14) 1.075(1)
O6 O 0.0321(13) 0.2669(17) 0.9502(6)
O7 O -0.0185(15) 0.1289(11) 1.1493(12)
O8 O 0.2700(14) 0.0968(11) 0.9847(7)
O9 O -0.1525(15) 0.1880(13) 0.8995(7)
O10 O 0.3987(12) -0.0752(12) 0.9784(8)
O11 O 0.2503(15) 0.2976(11) 0.9459(9)
O12 O -0.0583(14) 0.0602(12) 0.8346(11)
O13 O 0.090(2) 0.0285(19) 0.9663(11)
O14 O -0.1513(13) 0.3747(11) 0.9639(6)
O15 O -0.0304(13) 0.2613(17) 1.0570(7)
O16 O -0.214(2) 0.1882(15) 1.0080(7)
O17 O 0.1686(15) 0.224(2) 1.0498(7)
O18 O 0.1264(13) 0.1389(11) 0.8851(6)
O19 O -0.277(2) 0.0405(14) 0.9273(8)
O20 O 0.1086(16) -0.0688(15) 1.0241(9)
O21 O 0.0316(16) 0.1223(15) 1.0053(9)
O22 O -0.1804(13) -0.0911(13) 0.8646(12)
Cu1 Cu -0.37474(18) 0.50787(18) 0.84465(11)
O23 O -0.3355(15) 0.6368(13) 0.8070(8)
C1 C 0.231(2) 0.757(2) 0.7341(16)
H1 H 0.27200 0.78670 0.77050
H2 H 0.18110 0.80810 0.71490
H3 H 0.27870 0.73740 0.70610
N1 N 0.3521(14) 0.6575(14) 0.8752(8)
O24 O -0.2693(12) 0.5459(10) 0.9324(7)
C2 C -0.0049(18) 0.454(2) 0.6674(11)
H4 H -0.03250 0.39260 0.68440
H5 H 0.04060 0.43410 0.63820
H6 H -0.06340 0.49500 0.64720
N2 N 0.420(2) 0.703(3) 0.9185(15)
C3 C 0.119(2) 0.5081(19) 0.8922(11)
H7 H 0.08060 0.44380 0.89300
H8 H 0.08340 0.56160 0.91170
H9 H 0.19070 0.49950 0.91380
N3 N 0.0275(16) 0.7328(16) 0.6252(8)
C4 C 0.103(2) 0.644(2) 0.6410(11)
H10 H 0.08120 0.58680 0.61300
H11 H 0.17420 0.66520 0.63530
N4 N -0.0635(14) 0.8761(14) 0.6304(8)
C5 C 0.4039(18) 0.5918(16) 0.8472(13)
H12 H 0.37230 0.54920 0.81540
N5 N 0.5046(14) 0.5918(15) 0.8685(8)
N6 N -0.003(2) 0.763(2) 0.5691(11)
C6 C -0.006(2) 0.802(2) 0.6602(11)
H13 H 0.00910 0.79940 0.70290
N7 N -0.1031(13) 0.3891(12) 0.7933(7)
C7 C 0.2349(16) 0.6872(19) 0.8639(11)
H14 H 0.20430 0.67540 0.90110
H15 H 0.22840 0.76070 0.85420
N8 N -0.2544(13) 0.4301(12) 0.8129(8)
C8 C 0.516(3) 0.666(3) 0.9151(18)
H16 H 0.57970 0.68630 0.93920
N9 N -0.1656(14) 0.3075(13) 0.7720(8)
C9 C 0.1699(17) 0.6610(16) 0.7515(12)
C10 C -0.1579(16) 0.4611(15) 0.8167(11)
H17 H -0.13100 0.52410 0.83320
C11 C 0.0582(15) 0.5159(14) 0.7177(8)
C12 C 0.1234(14) 0.5381(15) 0.8272(9)
C13 C -0.061(2) 0.848(2) 0.5735(11)
H18 H -0.09700 0.88330 0.53970
C14 C 0.0649(17) 0.4819(17) 0.7802(11)
C15 C 0.1056(16) 0.6076(16) 0.7042(10)
C16 C 0.0133(18) 0.3806(18) 0.7920(11)
H19 H 0.02480 0.33150 0.76020
H20 H 0.04800 0.35300 0.83100
C17 C 0.1734(16) 0.6256(16) 0.8124(10)
C18 C -0.2579(16) 0.3382(15) 0.783(1)
H21 H -0.32080 0.30080 0.77140
O5B O -0.0289(18) -0.0244(14) 0.925(1)
O13B O -0.090(2) -0.0285(19) 1.0337(11)
O20B O -0.1086(16) 0.0688(15) 0.9759(9)
O21B O -0.0316(16) -0.1223(15) 0.9947(9)
W1B W -0.27041(6) 0.05311(6) 1.01409(4)
O1B O -0.1223(17) -0.0119(11) 1.2133(6)
W2B W 0.10220(7) -0.25340(5) 1.02510(3)
O2B O -0.1174(12) -0.2922(11) 0.8415(7)
W3B W -0.16843(6) -0.20186(6) 1.03522(4)
W4B W -0.07951(7) -0.19631(6) 0.89115(4)
O3B O 0.2778(11) -0.0867(11) 1.1941(6)
W5B W -0.08263(7) -0.00850(6) 1.14614(4)
O4B O -0.2060(14) 0.0505(10) 1.0972(7)
W6B W 0.18787(7) -0.05593(6) 1.13125(4)
O6B O -0.0321(13) -0.2669(17) 1.0498(6)
O7B O 0.0185(15) -0.1289(11) 0.8507(12)
O8B O -0.2700(14) -0.0968(11) 1.0153(7)
O9B O 0.1525(15) -0.1880(13) 1.1005(7)
O10B O -0.3987(12) 0.0752(12) 1.0216(8)
O11B O -0.2503(15) -0.2976(11) 1.0541(9)
O12B O 0.0583(14) -0.0602(12) 1.1654(11)
O14B O 0.1513(13) -0.3747(11) 1.0361(6)
O15B O 0.0304(13) -0.2613(17) 0.9430(7)
O16B O 0.214(2) -0.1882(15) 0.9920(7)
O17B O -0.1686(15) -0.224(2) 0.9502(7)
O18B O -0.1264(13) -0.1389(11) 1.1149(6)
O19B O 0.277(2) -0.0405(14) 1.0727(8)
O22B O 0.1804(13) 0.0911(13) 1.1354(12)
Cu1* Cu 0.62526(18) 0.50787(18) 0.84465(11)
Cu1A Cu -0.12526(18) 1.00787(18) 0.65535(11)
N4A N -0.4365(14) 0.3761(14) 0.8696(8)
N5* N -0.4954(14) 0.5918(15) 0.8685(8)
#END
