
#######################################################################
#
#                 Cambridge Crystallographic Data Centre
#                                CCDC
#
#######################################################################
#
# If this CIF has been generated from an entry in the Cambridge
# Structural Database, then it will include bibliographic, chemical,
# crystal, experimental, refinement or atomic coordinate data resulting
# from the CCDC's data processing and validation procedures.
#
#######################################################################

data_CSD_CIF_KEVWUF
_audit_creation_date 2013-05-21
_audit_creation_method CSD-ConQuest-V1
_database_code_CSD KEVWUF
_database_code_depnum_ccdc_archive 'CCDC 888795'
_chemical_formula_sum 'C28 H57 La4 Mo10 N4 O78 P1 V2'
_chemical_formula_moiety
;
(C14 H22 La2 N2 O16 2+)2n,6n(H2 O1),n(H1 Mo10 O40 P1 V2 4-)
;
_journal_coden_Cambridge 1290
_journal_year 2013
_journal_page_first 2181
_journal_name_full 'Eur.J.Inorg.Chem. '
loop_
_publ_author_name
"Xiaoyu Liu"
"Li Wang"
"Xuena Yin"
"Rudan Huang"
_chemical_name_systematic
;
catena-(bis(bis(\m~3~-Pyridine-2,6-dicarboxylato)-octa-aqua-di-lanthanum) 
(\m~12~-phosphato)-(\m~2~-hydroxo)-tricosakis(\m~2~-oxo)-dodecaoxo-deca-molybd
enum-di-vanadium hexahydrate)
;
_cell_volume   7752.035
_exptl_crystal_colour 'orange'
_exptl_crystal_density_diffrn 2.828
_exptl_special_details
;
isomorphous with the cerium analogue and with the dihydrates of the 
lanthanum, cerium, praseodymium, neodymium and samarium analogues of the 
Mo11V1 cluster
;
_diffrn_ambient_temperature 296
_refine_special_details
;
The metal sites of the cluster are each mixed Mo/V sites with occupancies 
0.83:0.17, although the atoms in the cif are each reported as Mo. The 
phosphate group is disordered by symmetry.
;
#These two values have been output from a single CSD field.
_refine_ls_R_factor_gt 0.0498
_refine_ls_wR_factor_gt 0.0498
_symmetry_cell_setting monoclinic
_symmetry_space_group_name_H-M 'C 2/c'
_symmetry_Int_Tables_number 15
loop_
_symmetry_equiv_pos_site_id
_symmetry_equiv_pos_as_xyz
1 x,y,z
2 -x,y,1/2-z
3 1/2+x,1/2+y,z
4 1/2-x,1/2+y,1/2-z
5 -x,-y,-z
6 x,-y,-1/2+z
7 -1/2-x,-1/2-y,-z
8 -1/2+x,-1/2-y,-1/2+z
_cell_length_a 30.807(5)
_cell_length_b 15.646(2)
_cell_length_c 22.110(3)
_cell_angle_alpha 90
_cell_angle_beta 133.331(2)
_cell_angle_gamma 90
_cell_formula_units_Z 4
loop_
_atom_type_symbol
_atom_type_radius_bond
C 0.68
H 0.23
La 2.07
Mo 1.54
N 0.68
O 0.68
P 1.05
loop_
_atom_site_label
_atom_site_type_symbol
_atom_site_fract_x
_atom_site_fract_y
_atom_site_fract_z
C1 C 0.8497(4) 0.5535(6) 0.6544(5)
C2 C 0.8250(3) 0.4864(5) 0.6716(5)
C3 C 0.7874(4) 0.4226(5) 0.6162(5)
H1 H 0.77990 0.41480 0.56800
C4 C 0.7607(5) 0.3702(5) 0.6336(6)
H2 H 0.73380 0.32800 0.59620
C5 C 0.7745(4) 0.3813(6) 0.7066(5)
H3 H 0.75710 0.34700 0.71940
C6 C 0.8143(3) 0.4439(5) 0.7604(4)
C7 C 0.8366(4) 0.4563(5) 0.8451(5)
C8 C 0.7642(3) 0.1962(5) 0.8547(5)
C9 C 0.8281(3) 0.1730(5) 0.9061(5)
C10 C 0.8456(4) 0.0977(6) 0.8952(5)
H4 H 0.81740 0.05810 0.85530
C11 C 0.9062(4) 0.0827(5) 0.9452(5)
H5 H 0.91910 0.03230 0.93960
C12 C 0.9477(4) 0.1440(5) 1.0041(6)
H6 H 0.98840 0.13600 1.03720
C13 C 0.9258(3) 0.2173(5) 1.0115(5)
C14 C 0.9653(3) 0.2887(5) 1.0690(5)
La1 La 0.889346(19) 0.63779(3) 0.82868(3)
La2 La 0.831169(19) 0.37075(3) 0.98662(3)
N1 N 0.8382(3) 0.4969(4) 0.7432(4)
N2 N 0.8670(3) 0.2311(4) 0.9642(4)
O1 O 0.8763(3) 0.6156(4) 0.7047(4)
O2 O 0.8411(3) 0.5451(4) 0.5906(4)
O3 O 0.8665(3) 0.5239(4) 0.8832(4)
O4 O 0.8250(3) 0.4019(4) 0.8721(4)
O5 O 0.7535(3) 0.2638(4) 0.8742(4)
O6 O 0.7251(3) 0.1505(4) 0.7941(4)
O7 O 1.0204(2) 0.2808(4) 1.1117(4)
O8 O 0.9414(3) 0.3534(4) 1.0697(4)
O9 O 0.7442(4) 0.4732(6) 0.8860(5)
O10 O 0.8783(4) 0.5189(4) 1.0152(5)
O11 O 0.7460(3) 0.3392(4) 0.9794(5)
O12 O 0.8675(3) 0.2641(4) 1.1056(4)
O13 O 0.9695(4) 0.6286(5) 0.9921(5)
O14 O 0.8389(3) 0.7053(5) 0.8741(5)
O15 O 0.8631(3) 0.7848(5) 0.7639(5)
O16 O 0.9731(3) 0.5232(4) 0.8773(5)
Mo1 Mo 1.00000 0.36331(7) 0.75000
Mo2 Mo 0.86776(4) 0.24914(5) 0.58923(5)
Mo3 Mo 0.94506(4) 0.13633(5) 0.54728(5)
Mo4 Mo 1.07632(4) 0.24932(6) 0.70805(5)
Mo5 Mo 1.07622(4) 0.02313(6) 0.70897(5)
Mo6 Mo 1.00000 -0.09213(7) 0.75000
Mo7 Mo 0.86993(4) 0.02254(7) 0.58872(5)
O17 O 0.8067(5) 0.3019(8) 0.5123(6)
O18 O 0.9223(7) 0.3386(7) 0.6408(6)
O19 O 0.8676(5) 0.2548(6) 0.6740(5)
O20 O 0.8403(5) 0.1350(5) 0.5685(7)
O21 O 0.8952(3) 0.2194(5) 0.5369(6)
O22 O 0.8966(5) 0.0524(5) 0.5391(8)
O23 O 0.8092(3) -0.0323(4) 0.5125(4)
O24 O 0.9265(4) -0.0686(10) 0.6454(5)
O25 O 0.9208(5) 0.1363(4) 0.4542(5)
O26 O 1.0055(3) 0.0532(5) 0.6026(5)
O27 O 1.0045(3) 0.2210(4) 0.6011(6)
O28 O 1.1149(3) -0.0289(5) 0.6937(5)
O29 O 1.0338(4) -0.0638(8) 0.7064(5)
O30 O 1.00000 0.4685(6) 0.75000
O31 O 1.1309(4) 0.0169(9) 0.8267(5)
O32 O 1.0386(4) 0.0543(6) 0.7721(6)
O33 O 1.1038(3) 0.1371(5) 0.7209(6)
O34 O 0.9427(5) 0.1388(5) 0.6565(6)
O35 O 0.9585(4) 0.2149(7) 0.7259(6)
O36 O 0.9833(5) 0.1368(6) 0.8003(6)
O37 O 1.0365(7) 0.3408(9) 0.7086(6)
O38 O 1.1103(4) 0.2990(7) 0.6861(6)
P1 P 1.00000 0.13628(15) 0.75000
O39 O 1.00000 -0.1958(7) 0.75000
O40 O 0.7362(4) 0.6438(6) 0.8375(7)
La1C La 0.610654(19) 0.13779(3) 0.67132(3)
La1D La 1.110654(19) 0.36221(3) 1.17132(3)
La2E La 0.831169(19) 0.62925(3) 0.48662(3)
O2E O 0.8411(3) 0.4549(4) 1.0906(4)
O6C O 0.7749(3) 0.6505(4) 0.7059(4)
O7D O 0.9796(2) 0.7192(4) 0.8883(4)
O32A O 0.9614(4) 0.0543(6) 0.7279(6)
O34A O 1.0573(5) 0.1388(5) 0.8435(6)
O35A O 1.0415(4) 0.2149(7) 0.7741(6)
O36A O 1.0167(5) 0.1368(6) 0.6997(6)
Mo2A Mo 1.13224(4) 0.24914(5) 0.91077(5)
Mo3A Mo 1.05494(4) 0.13633(5) 0.95272(5)
Mo4A Mo 0.92368(4) 0.24932(6) 0.79195(5)
Mo5A Mo 0.92378(4) 0.02313(6) 0.79103(5)
Mo7A Mo 1.13007(4) 0.02254(7) 0.91128(5)
O17A O 1.1933(5) 0.3019(8) 0.9877(6)
O18A O 1.0777(7) 0.3386(7) 0.8592(6)
O19A O 1.1324(5) 0.2548(6) 0.8260(5)
O20A O 1.1597(5) 0.1350(5) 0.9315(7)
O21A O 1.1048(3) 0.2194(5) 0.9631(6)
O22A O 1.1034(5) 0.0524(5) 0.9609(8)
O23A O 1.1908(3) -0.0323(4) 0.9875(4)
O24A O 1.0735(4) -0.0686(10) 0.8546(5)
O25A O 1.0792(5) 0.1363(4) 1.0458(5)
O26A O 0.9945(3) 0.0532(5) 0.8974(5)
O27A O 0.9955(3) 0.2210(4) 0.8989(6)
O28A O 0.8851(3) -0.0289(5) 0.8063(5)
O29A O 0.9662(4) -0.0638(8) 0.7936(5)
O31A O 0.8691(4) 0.0169(9) 0.6733(5)
O33A O 0.8962(3) 0.1371(5) 0.7791(6)
O37A O 0.9635(7) 0.3408(9) 0.7914(6)
O38A O 0.8897(4) 0.2990(7) 0.8139(6)
#END
