
#######################################################################
#
#                 Cambridge Crystallographic Data Centre
#                                CCDC
#
#######################################################################
#
# If this CIF has been generated from an entry in the Cambridge
# Structural Database, then it will include bibliographic, chemical,
# crystal, experimental, refinement or atomic coordinate data resulting
# from the CCDC's data processing and validation procedures.
#
#######################################################################

data_CSD_CIF_KEYJOO
_audit_creation_date 2007-06-28
_audit_creation_method CSD-ConQuest-V1
_database_code_CSD KEYJOO
_database_code_depnum_ccdc_archive 'CCDC 629037'
_chemical_formula_sum 'C12 H30 F6 N4 O16 U2'
_chemical_formula_moiety
;
(C6 F6 O12 U2 4-)n,n(C6 H22 N4 4+),4n(H2 O1)
;
_journal_coden_Cambridge 222
_journal_year 2007
_journal_page_first 1034
_journal_name_full 'Dalton Trans. '
loop_
_publ_author_name
"Chih-Min Wang"
"Yi-Ying Wu"
"Pei-Lin Chen"
"Kwang-Hwa Lii"
_chemical_name_systematic
;
catena-(tris(2-Ammonioethyl)ammonium 
tris(\m~2~-oxalato-O,O',O'',O''')-hexafluoro-di-uranium(iv) tetrahydrate)
;
_cell_volume   2591.391
_exptl_crystal_colour 'green'
_exptl_crystal_density_diffrn 2.759
_exptl_crystal_description 'block'
_diffrn_ambient_temperature 293
_refine_special_details
;
One of the water molecules is equally disordered over two sites.

;
#These two values have been output from a single CSD field.
_refine_ls_R_factor_gt 0.0249
_refine_ls_wR_factor_gt 0.0249
_symmetry_cell_setting monoclinic
_symmetry_space_group_name_H-M 'P 21/c'
_symmetry_Int_Tables_number 14
loop_
_symmetry_equiv_pos_site_id
_symmetry_equiv_pos_as_xyz
1 x,y,z
2 -x,1/2+y,1/2-z
3 -x,-y,-z
4 x,-1/2-y,-1/2+z
_cell_length_a 19.1563(5)
_cell_length_b 8.9531(2)
_cell_length_c 16.6221(4)
_cell_angle_alpha 90
_cell_angle_beta 114.633(1)
_cell_angle_gamma 90
_cell_formula_units_Z 4
loop_
_atom_type_symbol
_atom_type_radius_bond
C 0.68
H 0.23
F 0.64
N 0.68
O 0.68
U 1.58
loop_
_atom_site_label
_atom_site_type_symbol
_atom_site_fract_x
_atom_site_fract_y
_atom_site_fract_z
U1 U 0.127811(15) 0.47478(3) 0.354695(14)
U2 U 0.388277(15) 0.91309(3) 0.618978(14)
F1 F 0.2020(2) 0.4736(4) 0.2856(2)
F2 F 0.1793(2) 0.2510(4) 0.3864(2)
F3 F 0.1236(2) 0.4727(4) 0.4830(2)
F4 F 0.4227(2) 0.9155(4) 0.5092(2)
F5 F 0.2860(2) 0.9134(4) 0.6488(2)
F6 F 0.3434(2) 1.1338(4) 0.5686(2)
O1 O 0.0163(3) 0.6296(5) 0.3462(3)
O2 O 0.0641(3) 0.6327(5) 0.2186(3)
O3 O -0.0646(3) 0.8157(5) 0.2807(3)
O4 O -0.0191(3) 0.8142(6) 0.1511(3)
O5 O 0.1770(3) 0.7350(5) 0.3839(3)
O6 O 0.2597(3) 0.5032(5) 0.4762(3)
O7 O 0.2658(3) 0.8907(5) 0.4753(3)
O8 O 0.3449(3) 0.6596(5) 0.5683(3)
O9 O 0.5073(3) 1.0702(5) 0.6595(3)
O10 O 0.4223(3) 1.0708(5) 0.7525(2)
O11 O 0.5832(3) 1.2453(5) 0.7501(2)
O12 O 0.4975(3) 1.2495(5) 0.8400(2)
C1 C -0.0145(4) 0.7227(7) 0.2869(4)
C2 C 0.0135(4) 0.7229(8) 0.2129(4)
C3 C 0.2383(4) 0.7650(7) 0.4495(4)
C4 C 0.2847(4) 0.6293(7) 0.5019(4)
C5 C 0.5267(4) 1.1579(7) 0.7230(4)
C6 C 0.4772(4) 1.1587(7) 0.7758(4)
C7 C 0.2456(4) 0.2593(7) 0.6815(4)
H1 H 0.26780 0.32880 0.65390
H2 H 0.27990 0.17430 0.70220
C8 C 0.1702(4) 0.2076(8) 0.6144(4)
H3 H 0.14730 0.13910 0.64160
H4 H 0.13610 0.29240 0.59180
C9 C 0.3183(4) 0.3651(8) 0.8338(4)
H5 H 0.35350 0.39460 0.80830
H6 H 0.31420 0.44760 0.86950
C10 C 0.3501(4) 0.2320(8) 0.8918(4)
H7 H 0.31710 0.20420 0.92050
H8 H 0.35390 0.14780 0.85710
C11 C 0.1908(4) 0.4752(7) 0.7339(4)
H9 H 0.18690 0.51640 0.78590
H10 H 0.13940 0.44950 0.69140
C12 C 0.2248(5) 0.5941(7) 0.6934(4)
H11 H 0.28030 0.58660 0.72050
H12 H 0.20720 0.57510 0.63050
N1 N 0.2400(3) 0.3345(6) 0.7599(3)
H13 H 0.21580 0.26870 0.78170
N2 N 0.1798(4) 0.1318(6) 0.5403(3)
H14 H 0.13210 0.06380 0.49540
H15 H 0.21120 0.05250 0.56120
H16 H 0.20080 0.19420 0.51490
N3 N 0.4274(4) 0.2742(7) 0.9589(3)
H17 H 0.44830 0.19620 0.99470
H18 H 0.42320 0.35030 0.99080
H19 H 0.45720 0.29950 0.93210
N4 N 0.2027(4) 0.7419(6) 0.7061(4)
H20 H 0.22360 0.80820 0.68230
H21 H 0.21980 0.76060 0.76400
H22 H 0.15220 0.75000 0.68060
O13 O 0.0605(4) 0.6955(7) 0.5462(3)
H23 H 0.09680 0.73530 0.52310
H24 H 0.04810 0.78590 0.57110
O14 O 0.3519(4) 0.7196(7) 0.3722(3)
H25 H 0.33880 0.67860 0.31370
H26 H 0.31550 0.67230 0.39170
O15 O 0.0514(5) -0.0354(8) 0.4545(4)
O16 O 0.4068(11) 0.3921(19) 0.6509(8)
O17? O 0.4222(11) 0.3882(19) 0.6142(8)
U1A U -0.127811(15) 0.97478(3) 0.145305(14)
U2A U 0.611723(15) 1.41309(3) 0.881022(14)
O3A O 0.0646(3) 0.3157(5) 0.2193(3)
O4A O 0.0191(3) 0.3142(6) 0.3489(3)
O11A O 0.4168(3) 0.7453(5) 0.7499(2)
O12A O 0.5025(3) 0.7495(5) 0.6600(2)
#END
