
#######################################################################
#
#                 Cambridge Crystallographic Data Centre
#                                CCDC
#
#######################################################################
#
# If this CIF has been generated from an entry in the Cambridge
# Structural Database, then it will include bibliographic, chemical,
# crystal, experimental, refinement or atomic coordinate data resulting
# from the CCDC's data processing and validation procedures.
#
#######################################################################

data_CSD_CIF_KEYNAF
_audit_creation_date 2013-05-22
_audit_creation_method CSD-ConQuest-V1
_database_code_CSD KEYNAF
_database_code_depnum_ccdc_archive 'CCDC 918252'
_chemical_formula_sum 'C15 H12 Cd1 N2.5 Na1.5 O9'
_chemical_formula_moiety
;
(C14 H6 Cd1 N2 O8 2-)n,1.5n(Na1 1+),0.5n(C2 H8 N1 1+),n(H2 O1)
;
_journal_coden_Cambridge 1147
_journal_volume 13
_journal_year 2013
_journal_page_first 1736
_journal_name_full 'Cryst.Growth Des. '
loop_
_publ_author_name
"Fenglei Du"
"Huabin Zhang"
"Chongbin Tian"
"Shaowu Du"
_chemical_name_systematic
;
catena-(hemikis(Dimethylammonium) sesqui-sodium 
(\m~2~-pyridine-2,4-dicarboxylato-N,O,O,O')-(\m~2~-pyridine-2,4-dicarboxylato-
N,O,O',O'')-cadmium monohydrate)
;
_cell_volume   7623.584
_exptl_crystal_colour 'white'
_exptl_crystal_density_diffrn 1.806
_exptl_crystal_description 'prism'
_diffrn_ambient_temperature 293
_refine_special_details
;
C15 disordered by symmetry over two sites with occupancy 0.50.

;
#These two values have been output from a single CSD field.
_refine_ls_R_factor_gt 0.0487
_refine_ls_wR_factor_gt 0.0487
_symmetry_cell_setting orthorhombic
_symmetry_space_group_name_H-M 'F d d 2'
_symmetry_Int_Tables_number 43
loop_
_symmetry_equiv_pos_site_id
_symmetry_equiv_pos_as_xyz
1 x,y,z
2 -x,-y,z
3 1/4+x,1/4-y,1/4+z
4 1/4-x,1/4+y,1/4+z
5 x,1/2+y,1/2+z
6 -x,1/2-y,1/2+z
7 1/4+x,3/4-y,3/4+z
8 1/4-x,3/4+y,3/4+z
9 1/2+x,y,1/2+z
10 1/2-x,-y,1/2+z
11 3/4+x,1/4-y,3/4+z
12 3/4-x,1/4+y,3/4+z
13 1/2+x,1/2+y,z
14 1/2-x,1/2-y,z
15 3/4+x,3/4-y,1/4+z
16 3/4-x,3/4+y,1/4+z
_cell_length_a 13.3441(10)
_cell_length_b 43.503(5)
_cell_length_c 13.1326(10)
_cell_angle_alpha 90
_cell_angle_beta 90
_cell_angle_gamma 90
_cell_formula_units_Z 16
loop_
_atom_type_symbol
_atom_type_radius_bond
C 0.68
H 0.23
Cd 1.44
N 0.68
Na 1.66
O 0.68
loop_
_atom_site_label
_atom_site_type_symbol
_atom_site_fract_x
_atom_site_fract_y
_atom_site_fract_z
Cd1 Cd 0.07387(3) 0.147112(10) 0.81813(4)
O1 O 0.5128(4) 0.16182(14) 0.4895(4)
O2 O 0.4258(5) 0.12837(15) 0.4023(4)
O3 O 0.2044(3) 0.18165(11) 0.8637(3)
O4 O 0.3206(4) 0.21154(13) 0.7934(5)
O5 O -0.1546(4) 0.27284(13) 0.5348(4)
O6 O -0.1251(5) 0.29783(13) 0.6785(5)
O7 O -0.1533(3) 0.15647(11) 0.5748(5)
O8 O -0.0447(4) 0.13595(11) 0.6822(4)
N1 N 0.2001(4) 0.14560(13) 0.6970(4)
N2 N -0.0001(4) 0.19266(14) 0.7587(4)
C1 C 0.2010(6) 0.1260(2) 0.6201(6)
H1 H 0.14760 0.11250 0.61290
C2 C 0.2791(6) 0.1249(2) 0.5487(6)
H2 H 0.27820 0.11070 0.49580
C3 C 0.3561(5) 0.14517(16) 0.5591(6)
C4 C 0.3555(5) 0.16584(17) 0.6377(5)
H3 H 0.40750 0.17990 0.64480
C5 C 0.2761(5) 0.16564(15) 0.7074(5)
C6 C 0.4378(5) 0.14530(17) 0.4789(6)
C7 C 0.2679(5) 0.18802(16) 0.7952(5)
C8 C 0.0222(5) 0.22040(16) 0.7954(5)
H4 H 0.06500 0.22170 0.85110
C9 C -0.0156(6) 0.24727(19) 0.7542(6)
H5 H 0.00130 0.26620 0.78230
C10 C -0.0793(5) 0.24575(16) 0.6699(5)
C11 C -0.1023(5) 0.21646(16) 0.6320(5)
H6 H -0.14440 0.21430 0.57600
C12 C -0.0621(5) 0.19113(15) 0.6783(5)
C13 C -0.1237(5) 0.27458(19) 0.6232(6)
C14 C -0.0883(5) 0.15896(17) 0.6426(5)
Na1 Na -0.17693(19) 0.33122(7) 0.54200(19)
Na2 Na -0.25000 0.25000 0.4098(3)
O9 O 0.2436(12) 0.1746(4) 0.3349(14)
N3 N 0.25000 0.25000 0.501(2)
C15 C 0.340(2) 0.2334(7) 0.522(2)
H7 H 0.34940 0.23180 0.59470
H8 H 0.39610 0.24410 0.49290
H9 H 0.33560 0.21320 0.49350
C16 C 0.25000 0.25000 0.380(3)
H10? H 0.25590 0.22930 0.35560
H11? H 0.30560 0.26190 0.35560
H12? H 0.18850 0.25880 0.35560
Cd1H Cd 0.57387(3) 0.147112(10) 0.31813(4)
Cd1J Cd -0.17613(3) 0.102888(10) 0.56813(4)
O1H O 0.0128(4) 0.16182(14) 0.9895(4)
O2H O -0.0742(5) 0.12837(15) 0.9023(4)
O7B O 0.0967(3) 0.09353(11) 0.8248(5)
O8B O 0.2053(4) 0.11405(11) 0.9322(4)
C15M C 0.160(2) 0.2666(7) 0.522(2)
H7M H 0.15060 0.26820 0.59470
H8M H 0.10390 0.25590 0.49290
H9M H 0.16440 0.28680 0.49350
#END
