
#######################################################################
#
#                 Cambridge Crystallographic Data Centre
#                                CCDC
#
#######################################################################
#
# If this CIF has been generated from an entry in the Cambridge
# Structural Database, then it will include bibliographic, chemical,
# crystal, experimental, refinement or atomic coordinate data resulting
# from the CCDC's data processing and validation procedures.
#
#######################################################################

data_CSD_CIF_KEZHOM
_audit_creation_date 1991-07-04
_audit_creation_method CSD-ConQuest-V1
_database_code_CSD KEZHOM
_database_code_depnum_ccdc_archive 'CCDC 1195922'
_chemical_formula_sum 'C4 H7 O11 Yb1'
_chemical_formula_moiety
;
(C4 H2 O9 Yb1 1-)n,n(H5 O2 1+)
;
_journal_coden_Cambridge 233
_journal_volume 34
_journal_year 1989
_journal_page_first 2622
_journal_name_full 'Zh.Neorg.Khim.(Russ.)(Russ.J.Inorg.Chem.) '
loop_
_publ_author_name
"A.E.Prozorovskii"
"A.B.Yaroslavtsev"
"Z.N.Prozorovskaya"
_chemical_name_systematic
;
catena(Aqua-bis(oxalato-O,O')-ytterbium) hydronium
;
_cell_volume    955.901
_diffrn_ambient_temperature ?
_diffrn_special_details
;
The study was carried out at room temperature,in the range 283-303K

;
#These two values have been output from a single CSD field.
_refine_ls_R_factor_gt 0.026
_refine_ls_wR_factor_gt 0.026
_symmetry_cell_setting tetragonal
_symmetry_space_group_name_H-M 'P 42/n'
_symmetry_Int_Tables_number 86
loop_
_symmetry_equiv_pos_site_id
_symmetry_equiv_pos_as_xyz
1 x,y,z
2 -y,1/2+x,1/2+z
3 1/2-x,1/2-y,z
4 1/2+y,-x,1/2+z
5 -x,-y,-z
6 y,-1/2-x,-1/2-z
7 -1/2+x,-1/2+y,-z
8 -1/2-y,x,-1/2-z
_cell_length_a 8.6146(4)
_cell_length_b 8.6146(4)
_cell_length_c 12.8808(6)
_cell_angle_alpha 90
_cell_angle_beta 90
_cell_angle_gamma 90
_cell_formula_units_Z 4
loop_
_atom_type_symbol
_atom_type_radius_bond
C 0.68
H 0.23
O 0.68
Yb 1.94
loop_
_atom_site_label
_atom_site_type_symbol
_atom_site_fract_x
_atom_site_fract_y
_atom_site_fract_z
Yb1 Yb 0.75000 0.25000 0.28745(7)
O1 O 0.75000 0.25000 0.479(1)
O2 O 0.619(1) 0.036(1) 0.356(1)
O3 O 0.834(1) 0.037(1) 0.180(1)
O4 O 0.985(1) 0.143(1) 0.3453(9)
O5 O 0.553(1) 0.157(1) 0.1698(9)
C1 C 0.531(2) -0.034(2) 0.299(1)
C2 C 1.050(2) 0.016(2) 0.305(1)
H1 H 0.78900 0.17000 0.52500
O6 O 0.382(2) 0.306(2) 0.526(1)
H2 H 0.25000 0.25000 0.52200
H3 H 0.45100 0.24900 0.57600
H4 H 0.43800 0.31400 0.45700
O2B O 0.881(1) 0.464(1) 0.356(1)
O3B O 0.666(1) 0.463(1) 0.180(1)
O4B O 0.515(1) 0.357(1) 0.3453(9)
O5B O 0.947(1) 0.343(1) 0.1698(9)
H1B H 0.71100 0.33000 0.52500
C1E C 0.966(2) -0.031(2) 0.201(1)
C2G C 0.484(2) 0.050(2) 0.195(1)
O3G O 0.463(1) -0.166(1) 0.320(1)
O5E O 1.157(1) -0.053(1) 0.3302(9)
O2E O 1.036(1) -0.119(1) 0.144(1)
O4G O 0.357(1) -0.015(1) 0.1547(9)
Yb1E Yb 0.25000 -0.25000 0.21255(7)
Yb1E* Yb 1.25000 -0.25000 0.21255(7)
O6B O 0.118(2) 0.194(2) 0.526(1)
H3B H 0.04900 0.25100 0.57600
H4B H 0.06200 0.18600 0.45700
#END
