
#######################################################################
#
#                 Cambridge Crystallographic Data Centre
#                                CCDC
#
#######################################################################
#
# If this CIF has been generated from an entry in the Cambridge
# Structural Database, then it will include bibliographic, chemical,
# crystal, experimental, refinement or atomic coordinate data resulting
# from the CCDC's data processing and validation procedures.
#
#######################################################################

data_CSD_CIF_KEZQOW
_audit_creation_date 2007-06-28
_audit_creation_method CSD-ConQuest-V1
_database_code_CSD KEZQOW
_database_code_depnum_ccdc_archive 'CCDC 605613'
_chemical_formula_sum 'C21 H20 N2 Ni1 O10'
_chemical_formula_moiety
;
(C8 H4 Ni1 O10 2-)n,n(C13 H16 N2 2+)
;
_journal_coden_Cambridge 580
_journal_volume 26
_journal_year 2007
_journal_page_first 989
_journal_name_full 'Polyhedron '
loop_
_publ_author_name
"C.C.Correa"
"R.Diniz"
"L.H.Chagas"
"B.L.Rodrigues"
"M.I.Yoshida"
"W.M.Teles"
"F.C.Machado"
"L.F.C.de Oliveira"
_chemical_name_systematic
;
catena-(1,3-bis(4-Pyridinio)propane 
bis(\m~2~-squarato-O,O')-diaqua-nickel(ii))
;
_cell_volume   1020.471
_exptl_crystal_colour 'green'
_exptl_crystal_density_diffrn 1.689
_exptl_special_details
;
isostructural with the Mn(ii), Co(ii), Cu(ii) and Zn(ii) analogues

;
_exptl_crystal_description 'prism'
_diffrn_ambient_temperature 298
#These two values have been output from a single CSD field.
_refine_ls_R_factor_gt 0.0519
_refine_ls_wR_factor_gt 0.0519
_symmetry_cell_setting monoclinic
_symmetry_space_group_name_H-M 'P 2/n'
_symmetry_Int_Tables_number 13
loop_
_symmetry_equiv_pos_site_id
_symmetry_equiv_pos_as_xyz
1 x,y,z
2 1/2-x,y,1/2-z
3 -x,-y,-z
4 -1/2+x,-y,-1/2+z
_cell_length_a 9.5262(3)
_cell_length_b 7.9816(3)
_cell_length_c 13.4439(4)
_cell_angle_alpha 90
_cell_angle_beta 93.331(2)
_cell_angle_gamma 90
_cell_formula_units_Z 2
loop_
_atom_type_symbol
_atom_type_radius_bond
C 0.68
H 0.23
N 0.68
Ni 1.50
O 0.68
loop_
_atom_site_label
_atom_site_type_symbol
_atom_site_fract_x
_atom_site_fract_y
_atom_site_fract_z
Ni1 Ni 0.00000 0.00000 0.00000
O1 O -0.1207(3) -0.4043(3) 0.13083(16)
O2 O 0.0167(3) -0.2344(3) -0.06211(16)
O3 O 0.0198(3) -0.0259(3) 0.28889(17)
O4 O 0.1905(2) -0.0407(3) 0.08249(16)
O5 O -0.1251(2) -0.0711(3) 0.11343(17)
N1 N -0.1151(4) -0.8013(4) 0.4682(2)
C1 C -0.0539(3) -0.4565(4) 0.0596(2)
C2 C 0.0071(3) -0.3787(4) -0.0265(2)
C3 C 0.1449(4) -0.0301(4) 0.2672(2)
C4 C 0.2207(3) -0.0341(4) 0.1756(2)
C5 C -0.1630(4) -0.7268(5) 0.3847(3)
H1 H -0.25490 -0.74510 0.36010
C6 C -0.0765(4) -0.6229(5) 0.3350(2)
H2 H -0.11040 -0.56910 0.27720
C7 C 0.0603(3) -0.5979(4) 0.3703(2)
C8 C 0.1056(4) -0.6816(5) 0.4576(3)
H3 H 0.19780 -0.66880 0.48300
C9 C 0.0154(4) -0.7821(5) 0.5059(3)
H4 H 0.04540 -0.83640 0.56450
C10 C 0.1587(4) -0.4889(4) 0.3155(3)
H5 H 0.21840 -0.42620 0.36310
H6 H 0.10470 -0.40940 0.27430
C11 C 0.25000 -0.5954(6) 0.25000
H7 H 0.31030 -0.66700 0.29230
H8 H 0.18970 -0.66700 0.20770
H9 H -0.154(5) -0.846(6) 0.499(3)
H10 H -0.141(8) -0.183(11) 0.115(6)
H11 H -0.087(8) -0.065(10) 0.192(6)
Ni1* Ni 0.00000 -1.00000 0.00000
Ni1C Ni 0.50000 0.00000 0.50000
O1B O 0.1207(3) -0.5957(3) -0.13083(16)
O2B O -0.0167(3) -0.7656(3) 0.06211(16)
O2B* O -0.0167(3) 0.2344(3) 0.06211(16)
O3A O 0.4802(3) -0.0259(3) 0.21111(17)
O4A O 0.3095(2) -0.0407(3) 0.41751(16)
O4B O -0.1905(2) 0.0407(3) -0.08249(16)
O5B O 0.1251(2) 0.0711(3) -0.11343(17)
N1A N 0.6151(4) -0.8013(4) 0.0318(2)
C1B C 0.0539(3) -0.5435(4) -0.0596(2)
C2B C -0.0071(3) -0.6213(4) 0.0265(2)
C3A C 0.3551(4) -0.0301(4) 0.2328(2)
C4A C 0.2793(3) -0.0341(4) 0.3244(2)
C5A C 0.6630(4) -0.7268(5) 0.1153(3)
H1A H 0.75490 -0.74510 0.13990
C6A C 0.5765(4) -0.6229(5) 0.1650(2)
H2A H 0.61040 -0.56910 0.22280
C7A C 0.4397(3) -0.5979(4) 0.1297(2)
C8A C 0.3944(4) -0.6816(5) 0.0424(3)
H3A H 0.30220 -0.66880 0.01700
C9A C 0.4846(4) -0.7821(5) -0.0059(3)
H4A H 0.45460 -0.83640 -0.06450
C10A C 0.3413(4) -0.4889(4) 0.1845(3)
H5A H 0.28160 -0.42620 0.13690
H6A H 0.39530 -0.40940 0.22570
H9A H 0.654(5) -0.846(6) 0.001(3)
H10B H 0.141(8) 0.183(11) -0.115(6)
H11B H 0.087(8) 0.065(10) -0.192(6)
#END
