
#######################################################################
#
#                 Cambridge Crystallographic Data Centre
#                                CCDC
#
#######################################################################
#
# If this CIF has been generated from an entry in the Cambridge
# Structural Database, then it will include bibliographic, chemical,
# crystal, experimental, refinement or atomic coordinate data resulting
# from the CCDC's data processing and validation procedures.
#
#######################################################################

data_CSD_CIF_KEZQIQ
_audit_creation_date 2007-06-28
_audit_creation_method CSD-ConQuest-V1
_database_code_CSD KEZQIQ
_database_code_depnum_ccdc_archive 'CCDC 605612'
_chemical_formula_sum 'C21 H20 Co1 N2 O10'
_chemical_formula_moiety
;
(C8 H4 Co1 O10 2-)n,n(C13 H16 N2 2+)
;
_journal_coden_Cambridge 580
_journal_volume 26
_journal_year 2007
_journal_page_first 989
_journal_name_full 'Polyhedron '
loop_
_publ_author_name
"C.C.Correa"
"R.Diniz"
"L.H.Chagas"
"B.L.Rodrigues"
"M.I.Yoshida"
"W.M.Teles"
"F.C.Machado"
"L.F.C.de Oliveira"
_chemical_name_systematic
;
catena-(1,3-bis(4-Pyridinio)propane 
bis(\m~2~-squarato-O,O')-diaqua-cobalt(ii))
;
_cell_volume   1032.821
_exptl_crystal_colour 'pink'
_exptl_crystal_density_diffrn 1.67
_exptl_special_details
;
isostructural with the Mn(ii), Ni(ii), Cu(ii) and Zn(ii) analogues

;
_exptl_crystal_description 'prism'
_diffrn_ambient_temperature 298
#These two values have been output from a single CSD field.
_refine_ls_R_factor_gt 0.0399
_refine_ls_wR_factor_gt 0.0399
_symmetry_cell_setting monoclinic
_symmetry_space_group_name_H-M 'P 2/n'
_symmetry_Int_Tables_number 13
loop_
_symmetry_equiv_pos_site_id
_symmetry_equiv_pos_as_xyz
1 x,y,z
2 1/2-x,y,1/2-z
3 -x,-y,-z
4 -1/2+x,-y,-1/2+z
_cell_length_a 9.5725(4)
_cell_length_b 8.0321(3)
_cell_length_c 13.4487(3)
_cell_angle_alpha 90
_cell_angle_beta 92.775(2)
_cell_angle_gamma 90
_cell_formula_units_Z 2
loop_
_atom_type_symbol
_atom_type_radius_bond
C 0.68
H 0.23
Co 1.33
N 0.68
O 0.68
loop_
_atom_site_label
_atom_site_type_symbol
_atom_site_fract_x
_atom_site_fract_y
_atom_site_fract_z
Co1 Co 0.00000 0.00000 0.00000
O1 O -0.1243(2) -0.4041(2) 0.12942(12)
O2 O 0.01588(19) -0.23656(19) -0.06338(12)
O3 O 0.02042(19) -0.0265(2) 0.28963(13)
O4 O 0.19156(18) -0.0408(2) 0.08314(11)
O5 O -0.12555(17) -0.0722(2) 0.11602(11)
N1 N -0.1155(3) -0.8017(3) 0.46799(18)
C1 C -0.0556(2) -0.4563(3) 0.05889(16)
C2 C 0.0067(2) -0.3803(3) -0.02745(16)
C3 C 0.1447(3) -0.0309(3) 0.26733(16)
C4 C 0.2214(3) -0.0343(3) 0.17525(16)
C5 C -0.1626(3) -0.7269(4) 0.3848(2)
H1 H -0.25390 -0.74510 0.36050
C6 C -0.0765(3) -0.6230(3) 0.33468(18)
H2 H -0.10980 -0.56970 0.27690
C7 C 0.0594(2) -0.5977(3) 0.36996(16)
C8 C 0.1046(3) -0.6807(4) 0.45671(19)
H3 H 0.19630 -0.66790 0.48160
C9 C 0.0148(3) -0.7806(4) 0.50531(18)
H4 H 0.04440 -0.83370 0.56410
C10 C 0.1574(3) -0.4889(3) 0.3150(2)
H5 H 0.21580 -0.42570 0.36240
H6 H 0.10390 -0.41080 0.27340
C11 C 0.25000 -0.5952(4) 0.25000
H7 H 0.30900 -0.66630 0.29250
H8 H 0.19100 -0.66630 0.20750
H9 H -0.163(4) -0.851(6) 0.498(3)
H10 H -0.140(4) -0.187(6) 0.120(3)
H11 H -0.087(4) -0.055(6) 0.187(3)
Co1* Co 0.00000 -1.00000 0.00000
Co1C Co 0.50000 0.00000 0.50000
O1B O 0.1243(2) -0.5959(2) -0.12942(12)
O2B O -0.01588(19) -0.76344(19) 0.06338(12)
O2B* O -0.01588(19) 0.23656(19) 0.06338(12)
O3A O 0.47958(19) -0.0265(2) 0.21037(13)
O4A O 0.30844(18) -0.0408(2) 0.41686(11)
O4B O -0.19156(18) 0.0408(2) -0.08314(11)
O5B O 0.12555(17) 0.0722(2) -0.11602(11)
N1A N 0.6155(3) -0.8017(3) 0.03201(18)
C1B C 0.0556(2) -0.5437(3) -0.05889(16)
C2B C -0.0067(2) -0.6197(3) 0.02745(16)
C3A C 0.3553(3) -0.0309(3) 0.23267(16)
C4A C 0.2786(3) -0.0343(3) 0.32475(16)
C5A C 0.6626(3) -0.7269(4) 0.1152(2)
H1A H 0.75390 -0.74510 0.13950
C6A C 0.5765(3) -0.6230(3) 0.16532(18)
H2A H 0.60980 -0.56970 0.22310
C7A C 0.4406(2) -0.5977(3) 0.13004(16)
C8A C 0.3954(3) -0.6807(4) 0.04329(19)
H3A H 0.30370 -0.66790 0.01840
C9A C 0.4852(3) -0.7806(4) -0.00531(18)
H4A H 0.45560 -0.83370 -0.06410
C10A C 0.3426(3) -0.4889(3) 0.1850(2)
H5A H 0.28420 -0.42570 0.13760
H6A H 0.39610 -0.41080 0.22660
H9A H 0.663(4) -0.851(6) 0.002(3)
H10B H 0.140(4) 0.187(6) -0.120(3)
H11B H 0.087(4) 0.055(6) -0.187(3)
#END
