
#######################################################################
#
#                 Cambridge Crystallographic Data Centre
#                                CCDC
#
#######################################################################
#
# If this CIF has been generated from an entry in the Cambridge
# Structural Database, then it will include bibliographic, chemical,
# crystal, experimental, refinement or atomic coordinate data resulting
# from the CCDC's data processing and validation procedures.
#
#######################################################################

data_CSD_CIF_KEZQUC
_audit_creation_date 2007-06-28
_audit_creation_method CSD-ConQuest-V1
_database_code_CSD KEZQUC
_database_code_depnum_ccdc_archive 'CCDC 605614'
_chemical_formula_sum 'C21 H20 Cu1 N2 O10'
_chemical_formula_moiety
;
(C8 H4 Cu1 O10 2-)n,n(C13 H16 N2 2+)
;
_journal_coden_Cambridge 580
_journal_volume 26
_journal_year 2007
_journal_page_first 989
_journal_name_full 'Polyhedron '
loop_
_publ_author_name
"C.C.Correa"
"R.Diniz"
"L.H.Chagas"
"B.L.Rodrigues"
"M.I.Yoshida"
"W.M.Teles"
"F.C.Machado"
"L.F.C.de Oliveira"
_chemical_name_systematic
;
catena-(1,3-bis(4-Pyridinio)propane 
bis(\m~2~-squarato-O,O')-diaqua-copper(ii))
;
_cell_volume   1045.235
_exptl_crystal_colour 'yellow'
_exptl_crystal_density_diffrn 1.665
_exptl_special_details
;
isostructural with the Mn(ii), Co(ii), Ni(ii) and Zn(ii) analogues

;
_exptl_crystal_description 'prism'
_diffrn_ambient_temperature 298
#These two values have been output from a single CSD field.
_refine_ls_R_factor_gt 0.0438
_refine_ls_wR_factor_gt 0.0438
_symmetry_cell_setting monoclinic
_symmetry_space_group_name_H-M 'P 2/n'
_symmetry_Int_Tables_number 13
loop_
_symmetry_equiv_pos_site_id
_symmetry_equiv_pos_as_xyz
1 x,y,z
2 1/2-x,y,1/2-z
3 -x,-y,-z
4 -1/2+x,-y,-1/2+z
_cell_length_a 9.7423(3)
_cell_length_b 7.9262(3)
_cell_length_c 13.5410(6)
_cell_angle_alpha 90
_cell_angle_beta 91.571(3)
_cell_angle_gamma 90
_cell_formula_units_Z 2
loop_
_atom_type_symbol
_atom_type_radius_bond
C 0.68
H 0.23
Cu 1.52
N 0.68
O 0.68
loop_
_atom_site_label
_atom_site_type_symbol
_atom_site_fract_x
_atom_site_fract_y
_atom_site_fract_z
Cu1 Cu 0.00000 0.00000 0.00000
O1 O -0.1270(2) -0.4041(3) 0.12782(15)
O2 O 0.0182(2) -0.2326(2) -0.06201(15)
O3 O 0.0208(2) -0.0301(3) 0.28340(15)
O4 O 0.2029(2) -0.0424(3) 0.08384(14)
O5 O -0.1143(2) -0.0711(3) 0.11124(15)
N1 N -0.1128(3) -0.8014(3) 0.4697(2)
C1 C -0.0570(3) -0.4565(4) 0.0583(2)
C2 C 0.0076(2) -0.3790(3) -0.02662(19)
C3 C 0.1457(3) -0.0334(3) 0.2644(2)
C4 C 0.2271(3) -0.0364(3) 0.1756(2)
C5 C -0.1580(3) -0.7297(4) 0.3861(2)
H1 H -0.24700 -0.75010 0.36260
C6 C -0.0734(3) -0.6260(4) 0.3350(2)
H2 H -0.10540 -0.57460 0.27710
C7 C 0.0602(3) -0.5971(3) 0.36925(19)
C8 C 0.1022(3) -0.6788(4) 0.4563(2)
H3 H 0.19160 -0.66470 0.48070
C9 C 0.0137(3) -0.7791(4) 0.5058(2)
H4 H 0.04180 -0.83140 0.56440
C10 C 0.1567(3) -0.4888(3) 0.3138(2)
H5 H 0.21230 -0.42300 0.36010
H6 H 0.10460 -0.41100 0.27210
C11 C 0.25000 -0.5949(5) 0.25000
H7 H 0.30630 -0.66700 0.29250
H8 H 0.19370 -0.66700 0.20750
H9 H -0.170(5) -0.851(6) 0.501(3)
H10 H -0.129(4) -0.175(6) 0.111(3)
H11 H -0.087(4) -0.037(5) 0.160(3)
Cu1* Cu 0.00000 -1.00000 0.00000
Cu1C Cu 0.50000 0.00000 0.50000
O1B O 0.1270(2) -0.5959(3) -0.12782(15)
O2B O -0.0182(2) -0.7674(2) 0.06201(15)
O2B* O -0.0182(2) 0.2326(2) 0.06201(15)
O3A O 0.4792(2) -0.0301(3) 0.21660(15)
O4A O 0.2971(2) -0.0424(3) 0.41616(14)
O4B O -0.2029(2) 0.0424(3) -0.08384(14)
O5B O 0.1143(2) 0.0711(3) -0.11124(15)
N1A N 0.6128(3) -0.8014(3) 0.0303(2)
C1B C 0.0570(3) -0.5435(4) -0.0583(2)
C2B C -0.0076(2) -0.6210(3) 0.02662(19)
C3A C 0.3543(3) -0.0334(3) 0.2356(2)
C4A C 0.2729(3) -0.0364(3) 0.3244(2)
C5A C 0.6580(3) -0.7297(4) 0.1139(2)
H1A H 0.74700 -0.75010 0.13740
C6A C 0.5734(3) -0.6260(4) 0.1650(2)
H2A H 0.60540 -0.57460 0.22290
C7A C 0.4398(3) -0.5971(3) 0.13075(19)
C8A C 0.3978(3) -0.6788(4) 0.0437(2)
H3A H 0.30840 -0.66470 0.01930
C9A C 0.4863(3) -0.7791(4) -0.0058(2)
H4A H 0.45820 -0.83140 -0.06440
C10A C 0.3433(3) -0.4888(3) 0.1862(2)
H5A H 0.28770 -0.42300 0.13990
H6A H 0.39540 -0.41100 0.22790
H9A H 0.670(5) -0.851(6) -0.001(3)
H10B H 0.129(4) 0.175(6) -0.111(3)
H11B H 0.087(4) 0.037(5) -0.160(3)
#END
