
#######################################################################
#
#                 Cambridge Crystallographic Data Centre
#                                CCDC
#
#######################################################################
#
# If this CIF has been generated from an entry in the Cambridge
# Structural Database, then it will include bibliographic, chemical,
# crystal, experimental, refinement or atomic coordinate data resulting
# from the CCDC's data processing and validation procedures.
#
#######################################################################

data_CSD_CIF_KEZRAJ
_audit_creation_date 2007-06-28
_audit_creation_method CSD-ConQuest-V1
_database_code_CSD KEZRAJ
_database_code_depnum_ccdc_archive 'CCDC 605615'
_chemical_formula_sum 'C21 H20 N2 O10 Zn1'
_chemical_formula_moiety
;
(C8 H4 O10 Zn1 2-)n,n(C13 H16 N2 2+)
;
_journal_coden_Cambridge 580
_journal_volume 26
_journal_year 2007
_journal_page_first 989
_journal_name_full 'Polyhedron '
loop_
_publ_author_name
"C.C.Correa"
"R.Diniz"
"L.H.Chagas"
"B.L.Rodrigues"
"M.I.Yoshida"
"W.M.Teles"
"F.C.Machado"
"L.F.C.de Oliveira"
_chemical_name_systematic
;
catena-(1,3-bis(4-Pyridinio)propane bis(\m~2~-squarato-O,O')-diaqua-zinc(ii))
;
_cell_volume   1035.587
_exptl_crystal_colour 'colorless'
_exptl_crystal_density_diffrn 1.686
_exptl_special_details
;
isostructural with the Mn(ii), Co(ii), Ni(ii) and Cu(ii) analogues

;
_exptl_crystal_description 'prism'
_diffrn_ambient_temperature 298
#These two values have been output from a single CSD field.
_refine_ls_R_factor_gt 0.0443
_refine_ls_wR_factor_gt 0.0443
_symmetry_cell_setting monoclinic
_symmetry_space_group_name_H-M 'P 2/n'
_symmetry_Int_Tables_number 13
loop_
_symmetry_equiv_pos_site_id
_symmetry_equiv_pos_as_xyz
1 x,y,z
2 1/2-x,y,1/2-z
3 -x,-y,-z
4 -1/2+x,-y,-1/2+z
_cell_length_a 9.6005(3)
_cell_length_b 8.0323(3)
_cell_length_c 13.4436(6)
_cell_angle_alpha 90
_cell_angle_beta 92.645(2)
_cell_angle_gamma 90
_cell_formula_units_Z 2
loop_
_atom_type_symbol
_atom_type_radius_bond
C 0.68
H 0.23
N 0.68
O 0.68
Zn 1.45
loop_
_atom_site_label
_atom_site_type_symbol
_atom_site_fract_x
_atom_site_fract_y
_atom_site_fract_z
Zn1 Zn 0.00000 0.00000 0.00000
O1 O -0.1249(2) -0.4036(2) 0.12892(15)
O2 O 0.0161(2) -0.2367(2) -0.06329(15)
O3 O 0.0203(2) -0.0279(3) 0.28899(16)
O4 O 0.1928(2) -0.0420(3) 0.08288(14)
O5 O -0.1248(2) -0.0718(3) 0.11526(15)
N1 N -0.1151(3) -0.8012(3) 0.4681(2)
C1 C -0.0561(3) -0.4559(3) 0.0587(2)
C2 C 0.0064(2) -0.3808(3) -0.0276(2)
C3 C 0.1454(3) -0.0319(3) 0.2664(2)
C4 C 0.2225(3) -0.0346(3) 0.1753(2)
C5 C -0.1618(3) -0.7276(4) 0.3847(3)
H1 H -0.25280 -0.74610 0.36060
C6 C -0.0766(3) -0.6246(4) 0.3341(2)
H2 H -0.10970 -0.57220 0.27610
C7 C 0.0598(3) -0.5985(3) 0.3699(2)
C8 C 0.1038(3) -0.6807(4) 0.4566(2)
H3 H 0.19510 -0.66760 0.48160
C9 C 0.0145(3) -0.7804(4) 0.5055(2)
H4 H 0.04390 -0.83330 0.56430
C10 C 0.1575(3) -0.4895(3) 0.3149(2)
H5 H 0.21540 -0.42620 0.36230
H6 H 0.10410 -0.41140 0.27340
C11 C 0.25000 -0.5950(5) 0.25000
H7 H 0.30860 -0.66620 0.29250
H8 H 0.19140 -0.66620 0.20750
H9 H -0.165(5) -0.850(6) 0.495(4)
H10 H -0.134(4) -0.178(6) 0.118(3)
H11 H -0.094(4) -0.038(5) 0.169(3)
Zn1* Zn 0.00000 -1.00000 0.00000
Zn1C Zn 0.50000 0.00000 0.50000
O1B O 0.1249(2) -0.5964(2) -0.12892(15)
O2B O -0.0161(2) -0.7633(2) 0.06329(15)
O2B* O -0.0161(2) 0.2367(2) 0.06329(15)
O3A O 0.4797(2) -0.0279(3) 0.21101(16)
O4A O 0.3072(2) -0.0420(3) 0.41712(14)
O4B O -0.1928(2) 0.0420(3) -0.08288(14)
O5B O 0.1248(2) 0.0718(3) -0.11526(15)
N1A N 0.6151(3) -0.8012(3) 0.0319(2)
C1B C 0.0561(3) -0.5441(3) -0.0587(2)
C2B C -0.0064(2) -0.6192(3) 0.0276(2)
C3A C 0.3546(3) -0.0319(3) 0.2336(2)
C4A C 0.2775(3) -0.0346(3) 0.3247(2)
C5A C 0.6618(3) -0.7276(4) 0.1153(3)
H1A H 0.75280 -0.74610 0.13940
C6A C 0.5766(3) -0.6246(4) 0.1659(2)
H2A H 0.60970 -0.57220 0.22390
C7A C 0.4402(3) -0.5985(3) 0.1301(2)
C8A C 0.3962(3) -0.6807(4) 0.0434(2)
H3A H 0.30490 -0.66760 0.01840
C9A C 0.4855(3) -0.7804(4) -0.0055(2)
H4A H 0.45610 -0.83330 -0.06430
C10A C 0.3425(3) -0.4895(3) 0.1851(2)
H5A H 0.28460 -0.42620 0.13770
H6A H 0.39590 -0.41140 0.22660
H9A H 0.665(5) -0.850(6) 0.005(4)
H10B H 0.134(4) 0.178(6) -0.118(3)
H11B H 0.094(4) 0.038(5) -0.169(3)
#END
