
#######################################################################
#
#                 Cambridge Crystallographic Data Centre
#                                CCDC
#
#######################################################################
#
# If this CIF has been generated from an entry in the Cambridge
# Structural Database, then it will include bibliographic, chemical,
# crystal, experimental, refinement or atomic coordinate data resulting
# from the CCDC's data processing and validation procedures.
#
#######################################################################

data_CSD_CIF_KEZVAN
_audit_creation_date 2007-06-28
_audit_creation_method CSD-ConQuest-V1
_database_code_CSD KEZVAN
_database_code_depnum_ccdc_archive 'CCDC 615027'
_chemical_formula_sum 'C60 H123 Eu4 N20 O45.5'
_chemical_formula_moiety
;
(C56 H80 Eu4 N8 O36 4-)n,4n(C1 H6 N3 1+),9.5n(H2 O1)
;
_journal_coden_Cambridge 580
_journal_volume 26
_journal_year 2007
_journal_page_first 845
_journal_name_full 'Polyhedron '
loop_
_publ_author_name
"R.Janicki"
"A.Mondry"
"P.Starynowicz"
_chemical_name_systematic
;
catena-(tetrakis(Guanidinium) 
tetrakis(\m~2~-trans-1,2-diaminocyclohexane-N,N,N',N'-tetraacetato)-tetraaqua-
tetra-europium(iii) hydrate)
;
_cell_volume   4709.864
_exptl_crystal_colour 'colorless'
_exptl_crystal_density_diffrn 1.733
_exptl_crystal_description 'plate'
_diffrn_ambient_temperature 100
_diffrn_special_details
;
twin

;
_refine_special_details
;
A number of water molecules are disordered.

;
#These two values have been output from a single CSD field.
_refine_ls_R_factor_gt 0.079
_refine_ls_wR_factor_gt 0.079
_symmetry_cell_setting triclinic
_symmetry_space_group_name_H-M 'P -1'
_symmetry_Int_Tables_number 2
loop_
_symmetry_equiv_pos_site_id
_symmetry_equiv_pos_as_xyz
1 x,y,z
2 -x,-y,-z
_cell_length_a 12.09(9)
_cell_length_b 18.83(2)
_cell_length_c 23.328(15)
_cell_angle_alpha 66.82(14)
_cell_angle_beta 77.15(12)
_cell_angle_gamma 77.47(12)
_cell_formula_units_Z 2
loop_
_atom_type_symbol
_atom_type_radius_bond
C 0.68
H 0.23
Eu 1.99
N 0.68
O 0.68
loop_
_atom_site_label
_atom_site_type_symbol
_atom_site_fract_x
_atom_site_fract_y
_atom_site_fract_z
Eu1 Eu 0.22992(4) -0.50222(3) -0.16018(2)
Eu2 Eu -0.02781(5) -0.19352(3) -0.33603(2)
Eu3 Eu 0.73457(5) -0.98583(4) -0.16296(3)
Eu4 Eu 0.42584(5) -0.68812(3) -0.34487(3)
O1 O 0.3735(5) -0.4591(3) -0.2505(3)
O2 O 0.5501(6) -0.4922(5) -0.2960(4)
O3 O 0.3098(5) -0.6306(3) -0.1009(3)
O4 O 0.4153(5) -0.7103(3) -0.0302(3)
O5 O 0.1700(5) -0.5034(4) -0.0552(3)
O6 O 0.1146(6) -0.4390(4) 0.0101(4)
O7 O 0.1310(5) -0.3860(4) -0.2242(3)
O8 O 0.1217(5) -0.2558(4) -0.2785(3)
N1 N 0.4349(6) -0.5149(5) -0.1350(4)
N2 N 0.2626(6) -0.3783(4) -0.1461(4)
C1 C 0.4774(9) -0.4902(7) -0.2480(6)
C2 C 0.5112(8) -0.5422(8) -0.1845(5)
H1 H 0.50350 -0.59580 -0.17590
H2 H 0.59050 -0.54010 -0.18420
C3 C 0.3872(9) -0.6443(6) -0.0664(4)
C4 C 0.4407(9) -0.5743(6) -0.0731(6)
H3 H 0.40020 -0.55300 -0.04130
H4 H 0.52010 -0.59120 -0.06650
C5 C 0.4682(8) -0.4394(6) -0.1434(6)
H5 H 0.48820 -0.41160 -0.18890
C6 C 0.5729(8) -0.4469(6) -0.1124(5)
H6 H 0.55600 -0.47490 -0.06730
H7 H 0.63810 -0.47710 -0.12910
C7 C 0.6028(8) -0.3701(6) -0.1237(7)
H8 H 0.66960 -0.37740 -0.10440
H9 H 0.62180 -0.34240 -0.16880
C8 C 0.5087(10) -0.3245(7) -0.0979(8)
H10 H 0.53200 -0.27610 -0.10260
H11 H 0.48770 -0.35310 -0.05320
C9 C 0.4046(7) -0.3061(6) -0.1316(6)
H12 H 0.42400 -0.27730 -0.17640
H13 H 0.34130 -0.27530 -0.11430
C10 C 0.3714(8) -0.3892(6) -0.1198(5)
H14 H 0.35440 -0.41590 -0.07400
C11 C 0.1449(8) -0.4412(6) -0.0434(5)
C12 C 0.1634(9) -0.3670(6) -0.0982(5)
H15 H 0.09480 -0.34660 -0.11800
H16 H 0.17630 -0.32880 -0.08310
C13 C 0.1633(8) -0.3199(6) -0.2369(5)
C14 C 0.2534(7) -0.3155(5) -0.2053(4)
H17 H 0.32640 -0.31610 -0.23280
H18 H 0.23660 -0.26640 -0.19850
O9 O 0.0457(5) -0.5533(4) -0.1177(3)
O10 O -0.1191(5) -0.2763(4) -0.2380(3)
O11 O -0.1400(6) -0.4040(4) -0.1807(3)
O12 O 0.0758(6) -0.2708(4) -0.3943(3)
O13 O 0.0737(9) -0.3298(5) -0.4601(4)
O14 O -0.0586(5) -0.1164(4) -0.4414(3)
O15 O -0.1560(7) -0.0176(5) -0.5102(4)
O16 O -0.0990(6) -0.1096(4) -0.2792(3)
O17 O -0.2475(7) -0.0645(5) -0.2199(4)
N3 N -0.1506(8) -0.2857(5) -0.3448(4)
N4 N -0.2387(6) -0.1272(5) -0.3481(4)
C15 C -0.1257(9) -0.3476(7) -0.2325(5)
C16 C -0.1170(11) -0.3593(6) -0.2925(5)
H19 H -0.16590 -0.39720 -0.28620
H20 H -0.03870 -0.38060 -0.30440
C17 C 0.0255(13) -0.3001(7) -0.4214(6)
C18 C -0.1040(13) -0.2942(6) -0.4057(5)
H21 H -0.13740 -0.24970 -0.43870
H22 H -0.12660 -0.34060 -0.40560
C19 C -0.2746(10) -0.2617(9) -0.3356(6)
H23 H -0.29830 -0.27550 -0.29000
C20 C -0.3462(12) -0.3044(8) -0.3564(6)
H24 H -0.32700 -0.29250 -0.40150
H25 H -0.32920 -0.36040 -0.33510
C21 C -0.4693(16) -0.2778(13) -0.3400(8)
H26 H -0.48620 -0.29080 -0.29470
H27 H -0.51340 -0.30710 -0.35050
C22 C -0.5120(11) -0.1880(15) -0.3730(8)
H28 H -0.50070 -0.17330 -0.41850
H29 H -0.59270 -0.17540 -0.35830
C23 C -0.4389(10) -0.1463(8) -0.3542(6)
H30 H -0.46210 -0.15530 -0.30960
H31 H -0.45580 -0.09060 -0.37710
C24 C -0.3085(8) -0.1705(8) -0.3659(5)
H32 H -0.28740 -0.15690 -0.41170
C25 C -0.1433(8) -0.0622(6) -0.4540(5)
C26 C -0.2279(8) -0.0512(6) -0.3977(5)
H33 H -0.20050 -0.01830 -0.38220
H34 H -0.30200 -0.02600 -0.41040
C27 C -0.2077(8) -0.0934(5) -0.2611(5)
C28 C -0.2899(9) -0.1171(7) -0.2891(5)
H35 H -0.31520 -0.16550 -0.25900
H36 H -0.35680 -0.07740 -0.29600
O18 O 0.1165(5) -0.1066(4) -0.3814(3)
O19 O 0.8490(6) -1.0981(4) -0.1063(3)
O20 O 0.9668(6) -1.1532(4) -0.0309(4)
O21 O 0.8542(6) -0.9208(4) -0.2598(4)
O22 O 1.0268(7) -0.9341(4) -0.3130(4)
O23 O 0.6772(6) -0.9930(4) -0.0560(3)
O24 O 0.5989(6) -0.9314(4) 0.0107(3)
O25 O 0.6034(6) -0.8864(4) -0.2208(4)
O26 O 0.5612(6) -0.7607(4) -0.2810(4)
N5 N 0.9286(7) -0.9606(5) -0.1499(5)
N6 N 0.7136(7) -0.8498(4) -0.1484(4)
C29 C 0.9179(10) -1.0965(8) -0.0741(7)
C30 C 0.9594(9) -1.0189(6) -0.0885(7)
H37 H 0.92450 -0.99900 -0.05510
H38 H 1.04190 -1.02740 -0.09010
C31 C 0.9610(11) -0.9403(6) -0.2658(7)
C32 C 1.0049(9) -0.9773(7) -0.2035(6)
H39 H 1.01960 -1.03340 -0.19280
H40 H 1.07770 -0.96000 -0.20870
C33 C 0.9323(8) -0.8780(6) -0.1571(7)
H41 H 0.94000 -0.84810 -0.20260
C34 C 1.0322(9) -0.8651(7) -0.1360(7)
H42 H 1.03010 -0.89460 -0.09110
H43 H 1.10270 -0.88490 -0.15770
C35 C 1.0331(11) -0.7828(7) -0.1480(9)
H44 H 1.04000 -0.75350 -0.19310
H45 H 1.09910 -0.77800 -0.13330
C36 C 0.9241(9) -0.7485(6) -0.1148(7)
H46 H 0.92650 -0.69410 -0.12340
H47 H 0.91770 -0.77650 -0.06960
C37 C 0.8188(10) -0.7558(5) -0.1394(6)
H48 H 0.74880 -0.73520 -0.11790
H49 H 0.82340 -0.72540 -0.18420
C38 C 0.8155(8) -0.8404(6) -0.1280(6)
H50 H 0.80780 -0.86830 -0.08220
C39 C 0.6298(8) -0.9332(6) -0.0418(5)
C40 C 0.6129(8) -0.8564(6) -0.0982(4)
H51 H 0.54520 -0.85440 -0.11500
H52 H 0.60090 -0.81270 -0.08430
C41 C 0.6043(10) -0.8191(9) -0.2378(5)
C42 C 0.6872(9) -0.7908(6) -0.2095(5)
H53 H 0.75780 -0.78130 -0.23890
H54 H 0.65100 -0.74220 -0.20400
O27 O 0.5685(6) -1.0540(4) -0.1198(3)
O28 O 0.5246(8) -0.7634(4) -0.4069(4)
O29 O 0.5340(11) -0.8122(5) -0.4778(5)
O30 O 0.3148(6) -0.7735(4) -0.2583(3)
O31 O 0.2886(5) -0.9004(4) -0.2135(3)
O32 O 0.4156(5) -0.6023(4) -0.4506(3)
O33 O 0.3344(6) -0.4898(4) -0.5203(4)
O34 O 0.3534(5) -0.6157(4) -0.2769(3)
O35 O 0.2006(6) -0.5629(4) -0.2242(3)
N7 N 0.2936(11) -0.7595(5) -0.3742(4)
N8 N 0.2257(6) -0.6069(5) -0.3641(4)
C43 C 0.4828(19) -0.7851(7) -0.4404(6)
C44 C 0.3478(19) -0.7637(8) -0.4347(8)
H55 H 0.32880 -0.71370 -0.46750
H56 H 0.31720 -0.80260 -0.44180
C45 C 0.303(1) -0.8380(7) -0.2589(5)
C46 C 0.3090(13) -0.8391(6) -0.3262(5)
H57 H 0.38270 -0.86670 -0.33790
H58 H 0.24990 -0.86730 -0.32530
C47 C 0.1662(11) -0.7228(7) -0.3644(6)
C48 C 0.1011(15) -0.7535(9) -0.4042(7)
H59 H 0.13280 -0.73510 -0.44870
H60 H 0.11030 -0.81010 -0.38820
C49 C -0.0294(14) -0.7185(8) -0.3941(9)
H61 H -0.07270 -0.73580 -0.41530
H62 H -0.05980 -0.73660 -0.34950
C50 C -0.0415(11) -0.6277(8) -0.4214(7)
H63 H -0.01410 -0.60980 -0.46640
H64 H -0.12170 -0.60600 -0.41510
C51 C 0.025(1) -0.5993(8) -0.3902(7)
H65 H -0.00850 -0.61170 -0.34620
H66 H 0.02040 -0.54300 -0.41010
C52 C 0.1545(9) -0.6376(6) -0.3947(5)
C53 C 0.3401(8) -0.5424(6) -0.4640(5)
C54 C 0.2538(7) -0.5297(6) -0.4102(5)
H67 H 0.28520 -0.50390 -0.39010
H68 H 0.18500 -0.49690 -0.42580
C55 C 0.2477(9) -0.5931(5) -0.2663(5)
C56 C 0.1648(8) -0.5990(6) -0.3047(5)
H69 H 0.12530 -0.64390 -0.28010
H70 H 0.10770 -0.55270 -0.31370
O36 O 0.5626(7) -0.5968(5) -0.3740(3)
C57 C 0.1792(18) -0.1343(7) -0.5697(8)
N9 N 0.2478(9) -0.1369(5) -0.6239(5)
H71 H 0.31960 -0.15450 -0.62380
H72 H 0.21920 -0.12100 -0.65820
N10 N 0.0712(12) -0.1068(6) -0.5752(7)
H73 H 0.02270 -0.10360 -0.54290
H74 H 0.04880 -0.09190 -0.61120
N11 N 0.2127(14) -0.1553(6) -0.5201(5)
H75 H 0.16560 -0.15260 -0.48730
H76 H 0.28390 -0.17320 -0.51750
C58 C -0.3601(13) 0.3731(7) -0.5782(7)
N12 N -0.2901(8) 0.3721(5) -0.6327(4)
H77 H -0.21870 0.35320 -0.63210
H78 H -0.31740 0.39030 -0.66760
N13 N -0.3159(11) 0.3452(5) -0.5267(5)
H79 H -0.24420 0.32660 -0.52750
H80 H -0.35810 0.34510 -0.49180
N14 N -0.4724(10) 0.4034(5) -0.5834(5)
H81 H -0.52050 0.40490 -0.55050
H82 H -0.49500 0.42080 -0.61950
C59 C 0.3228(7) -0.8391(6) -0.0862(5)
N15 N 0.1300(6) -0.6261(4) 0.0696(4)
H83 H 0.12900 -0.61930 0.10410
H84 H 0.13390 -0.58730 0.03430
N16 N 0.1213(6) -0.7084(4) 0.0185(4)
H85 H 0.11460 -0.75360 0.01990
H86 H 0.12540 -0.66980 -0.01690
N17 N 0.1195(6) -0.7553(4) 0.1264(4)
H87 H 0.11270 -0.80130 0.12950
H88 H 0.12240 -0.74670 0.15960
C60 C 0.1254(7) -0.6982(6) 0.0710(5)
N18 N 0.3219(6) -0.9029(4) -0.0960(4)
H89 H 0.32240 -0.90080 -0.13360
H90 H 0.32090 -0.94690 -0.06490
N19 N 0.3318(6) -0.8436(4) -0.0286(4)
H91 H 0.33700 -0.88820 0.00180
H92 H 0.33240 -0.80190 -0.02200
N20 N 0.3245(5) -0.7704(4) -0.1341(4)
H93 H 0.32500 -0.76770 -0.17180
H94 H 0.32510 -0.72880 -0.12720
O37 O 0.2187(6) -0.0404(4) -0.3214(4)
O38 O -0.1456(6) -0.5447(4) -0.1752(4)
O39 O 0.2594(6) -0.3745(4) 0.0512(4)
O40 O 0.6302(6) -0.7865(5) 0.0133(4)
O41 O 0.7889(7) -0.5426(6) -0.2887(4)
O42 O -0.5626(10) -0.0417(5) -0.2074(5)
O43 O -0.3354(11) -0.0431(8) -0.5569(7)
O44 O -0.4129(13) 0.0476(9) -0.4984(8)
O45 O 0.3008(9) -0.1242(6) -0.2151(6)
O46 O 0.2003(10) -0.1617(8) -0.0939(7)
O47 O -0.2051(10) -0.4451(7) -0.4241(6)
O48? O 0.1852(17) -0.2136(12) -0.0561(11)
O49? O -0.505(2) 0.0382(16) -0.4527(14)
Eu3* Eu -0.26543(5) 0.01417(4) -0.16296(3)
O17* O 0.7525(7) -1.0645(5) -0.2199(4)
#END
