
#######################################################################
#
#                 Cambridge Crystallographic Data Centre
#                                CCDC
#
#######################################################################
#
# If this CIF has been generated from an entry in the Cambridge
# Structural Database, then it will include bibliographic, chemical,
# crystal, experimental, refinement or atomic coordinate data resulting
# from the CCDC's data processing and validation procedures.
#
#######################################################################

data_CSD_CIF_KEZVER
_audit_creation_date 2007-06-28
_audit_creation_method CSD-ConQuest-V1
_database_code_CSD KEZVER
_database_code_depnum_ccdc_archive 'CCDC 615028'
_chemical_formula_sum 'C31 H72 Cl1 Eu2 N13 O29'
_chemical_formula_moiety
;
(C28 H40 Eu2 N4 O18 2-)n,3n(C1 H6 N3 1+),n(Cl1 O4 1-),7n(H2 O1)
;
_journal_coden_Cambridge 580
_journal_volume 26
_journal_year 2007
_journal_page_first 845
_journal_name_full 'Polyhedron '
loop_
_publ_author_name
"R.Janicki"
"A.Mondry"
"P.Starynowicz"
_chemical_name_systematic
;
catena-(tris(Guanidinium) 
bis(\m~2~-trans-1,2-diaminocyclohexane-N,N,N',N'-tetraacetato)-diaqua-di-europ
ium(iii) perchlorate heptahydrate)
;
_cell_volume   2663.120
_exptl_crystal_colour 'colorless'
_exptl_crystal_density_diffrn 1.784
_exptl_crystal_description 'parallelepiped'
_diffrn_ambient_temperature 100
_diffrn_special_details
;
twin

;
#These two values have been output from a single CSD field.
_refine_ls_R_factor_gt 0.0434
_refine_ls_wR_factor_gt 0.0434
_symmetry_cell_setting triclinic
_symmetry_space_group_name_H-M 'P -1'
_symmetry_Int_Tables_number 2
loop_
_symmetry_equiv_pos_site_id
_symmetry_equiv_pos_as_xyz
1 x,y,z
2 -x,-y,-z
_cell_length_a 10.652(8)
_cell_length_b 16.075(13)
_cell_length_c 17.943(14)
_cell_angle_alpha 69.31(7)
_cell_angle_beta 73.24(7)
_cell_angle_gamma 70.86(7)
_cell_formula_units_Z 2
loop_
_atom_type_symbol
_atom_type_radius_bond
C 0.68
H 0.23
Cl 0.99
Eu 1.99
N 0.68
O 0.68
loop_
_atom_site_label
_atom_site_type_symbol
_atom_site_fract_x
_atom_site_fract_y
_atom_site_fract_z
Eu1 Eu 0.29823(3) 0.22149(2) 0.37105(2)
Eu2 Eu -0.12678(3) 0.28276(2) 0.136160(19)
O1 O 0.0731(5) 0.2297(4) 0.4325(3)
O2 O -0.1118(6) 0.2663(5) 0.5227(4)
O3 O 0.2168(6) 0.5195(4) 0.2515(3)
O4 O 0.3197(5) 0.3704(4) 0.2914(3)
O5 O 0.3113(6) 0.1211(4) 0.5032(3)
O6 O 0.4436(5) 0.0254(4) 0.5912(3)
O7 O 0.5223(5) 0.2006(4) 0.2986(3)
O8 O 0.6944(6) 0.2675(4) 0.2454(3)
C1 C 0.0068(8) 0.2678(5) 0.4889(4)
C2 C 0.0818(8) 0.3165(5) 0.5135(4)
H1 H 0.01770 0.36840 0.53050
H2 H 0.12210 0.27470 0.55950
C3 C 0.1264(7) 0.4290(5) 0.3833(4)
H3 H 0.09820 0.48430 0.40040
H4 H 0.04690 0.41780 0.37650
C4 C 0.2296(7) 0.4418(5) 0.3017(4)
C5 C 0.2903(7) 0.3768(5) 0.4713(4)
H5 H 0.33330 0.41710 0.42240
C6 C 0.4034(7) 0.2940(5) 0.5014(4)
H6 H 0.36100 0.25360 0.55050
C7 C 0.5060(8) 0.3240(5) 0.5271(4)
H7 H 0.57380 0.27000 0.54880
H8 H 0.55180 0.36300 0.47950
C8 C 0.4362(9) 0.3759(5) 0.5906(5)
H9 H 0.39410 0.33640 0.63950
H10 H 0.50240 0.39440 0.60450
C9 C 0.3293(8) 0.4603(6) 0.5564(5)
H11 H 0.37240 0.50080 0.50890
H12 H 0.28430 0.49350 0.59670
C10 C 0.2251(7) 0.4325(5) 0.5334(5)
H13 H 0.15920 0.48730 0.51070
H14 H 0.17730 0.39600 0.58200
C11 C 0.5725(7) 0.2780(5) 0.3751(4)
H15 H 0.65630 0.25880 0.39480
H16 H 0.54420 0.34460 0.35990
C12 C 0.5978(7) 0.2455(5) 0.3006(4)
C13 C 0.5299(7) 0.1442(5) 0.4847(4)
H17 H 0.57930 0.14470 0.52220
H18 H 0.59360 0.11330 0.44600
C14 C 0.4209(7) 0.0924(5) 0.5312(4)
N1 N 0.4672(6) 0.2405(4) 0.4409(3)
N2 N 0.1905(6) 0.3499(4) 0.4458(3)
O9 O 0.3217(5) 0.0655(4) 0.3659(3)
O10 O -0.2875(5) 0.2833(4) 0.0685(3)
O11 O -0.3310(5) 0.2776(4) -0.0428(3)
O12 O -0.0991(6) -0.0053(4) 0.2618(3)
O13 O -0.0521(5) 0.1318(3) 0.2185(3)
O14 O 0.1987(6) 0.2468(4) 0.2620(3)
O15 O 0.0092(6) 0.3021(4) 0.2122(3)
O16 O -0.0693(5) 0.3777(3) 0.0029(3)
O17 O 0.0613(6) 0.4684(4) -0.0837(3)
C15 C -0.2552(7) 0.2561(5) 0.0050(4)
C16 C -0.1132(8) 0.1937(5) -0.0103(4)
H19 H -0.11810 0.14320 -0.02610
H20 H -0.05650 0.22830 -0.05500
C17 C -0.1112(7) 0.0830(5) 0.1243(4)
H21 H -0.07320 0.02640 0.10890
H22 H -0.20810 0.10050 0.12650
C18 C -0.0843(7) 0.0673(5) 0.2076(4)
C19 C 0.0997(7) 0.1189(5) 0.0458(4)
H23 H 0.12500 0.07780 0.09740
C20 C 0.1761(7) 0.1938(5) 0.0167(4)
H24 H 0.15290 0.23330 -0.03580
C21 C 0.3278(7) 0.1527(5) 0.0008(4)
H25 H 0.35540 0.11460 0.05190
H26 H 0.37370 0.20190 -0.02120
C22 C 0.3720(8) 0.0945(5) -0.0585(4)
H27 H 0.35200 0.13330 -0.11120
H28 H 0.46900 0.06760 -0.06510
C23 C 0.2987(8) 0.0190(5) -0.0271(5)
H29 H 0.32330 -0.02220 0.02390
H30 H 0.32520 -0.01620 -0.06570
C24 C 0.1459(7) 0.0605(5) -0.0143(5)
H31 H 0.09970 0.01160 0.00660
H32 H 0.12120 0.09880 -0.06600
C25 C 0.1504(8) 0.3466(5) 0.0253(4)
H33 H 0.23790 0.34070 -0.01120
H34 H 0.14970 0.37890 0.06200
C26 C 0.0400(8) 0.4017(5) -0.0236(4)
C27 C 0.2044(7) 0.2156(5) 0.1412(4)
H35 H 0.29480 0.22530 0.12170
H36 H 0.21310 0.14980 0.16190
C28 C 0.1315(8) 0.2594(5) 0.2099(4)
N3 N 0.1307(6) 0.2546(4) 0.0724(3)
N4 N -0.0501(6) 0.1562(4) 0.0624(3)
O18 O -0.2531(5) 0.4412(4) 0.1358(3)
Cl1 Cl 0.6883(2) 0.08322(13) 0.74502(11)
O19 O 0.6390(6) 0.0006(4) 0.7717(3)
O20 O 0.7310(7) 0.0898(5) 0.8113(4)
O21 O 0.7994(8) 0.0775(7) 0.6790(4)
O22 O 0.5805(10) 0.1612(5) 0.7219(6)
C29 C 0.8844(7) 0.0716(5) 0.4386(4)
N5 N 0.8504(7) 0.0099(5) 0.4213(4)
H37 H 0.86960 0.00750 0.37200
H38 H 0.80890 -0.02800 0.45920
N6 N 0.9487(7) 0.1304(5) 0.3800(4)
H39 H 0.96800 0.12810 0.33070
H40 H 0.97090 0.17060 0.39150
N7 N 0.8550(7) 0.0783(5) 0.5147(4)
H41 H 0.81280 0.04170 0.55370
H42 H 0.87850 0.11930 0.52440
C30 C 0.3827(7) 0.4322(5) 0.0687(4)
N8 N 0.2730(7) 0.4945(4) 0.0879(4)
H43 H 0.22960 0.53350 0.05090
H44 H 0.24480 0.49630 0.13750
N9 N 0.4488(7) 0.3710(5) 0.1267(4)
H45 H 0.41950 0.37250 0.17630
H46 H 0.52050 0.33020 0.11430
N10 N 0.4282(6) 0.4283(4) -0.0076(4)
H47 H 0.38580 0.46680 -0.04520
H48 H 0.50000 0.38720 -0.01930
C31 C 0.9279(8) -0.2415(6) 0.2548(5)
N11 N 0.9852(9) -0.3290(5) 0.2582(4)
H49 H 1.06530 -0.35400 0.26880
H50 H 0.94240 -0.36090 0.24990
N12 N 0.9929(8) -0.1924(5) 0.2674(5)
H51 H 1.07300 -0.21710 0.27800
H52 H 0.95530 -0.13560 0.26510
N13 N 0.8028(8) -0.2058(5) 0.2412(5)
H53 H 0.76270 -0.14970 0.24060
H54 H 0.76160 -0.23880 0.23300
O23 O 0.6439(7) -0.0204(5) 0.2320(4)
O24 O 0.5095(6) 0.5193(5) 0.2253(4)
O25 O 0.8915(9) 0.5231(8) 0.2456(5)
O26 O 0.8372(8) 0.3673(5) 0.3448(5)
O27 O 0.5745(7) 0.2821(5) -0.1749(4)
O28 O 0.7830(8) 0.3311(5) 0.6589(4)
O29 O 0.2956(7) 0.3167(5) -0.1824(4)
Eu2* Eu 0.87322(3) 0.28276(2) 0.136160(19)
O8* O -0.3056(6) 0.2675(4) 0.2454(3)
#END
