
#######################################################################
#
#                 Cambridge Crystallographic Data Centre
#                                CCDC
#
#######################################################################
#
# If this CIF has been generated from an entry in the Cambridge
# Structural Database, then it will include bibliographic, chemical,
# crystal, experimental, refinement or atomic coordinate data resulting
# from the CCDC's data processing and validation procedures.
#
#######################################################################

data_CSD_CIF_KICQUK
_audit_creation_date 2013-05-22
_audit_creation_method CSD-ConQuest-V1
_database_code_CSD KICQUK
_database_code_depnum_ccdc_archive 'CCDC 885746'
_chemical_formula_sum 'C72 H98 Fe2 In10 N14 O8 S19'
_chemical_formula_moiety
;
(C30 H24 Fe1 N6 2+)2n,n(H2 In10 S19 6-),2n(C6 H16 N1 1+),8n(H2 O1)
;
_journal_coden_Cambridge 29
_journal_volume 638
_journal_year 2012
_journal_page_first 2498
_journal_name_full 'Z.Anorg.Allg.Chem. '
loop_
_publ_author_name
"Ya-Yang Pu"
"Xiang Zhang"
"Li-Shen You"
"Guo-Qing Bian"
"Qin-Yu Zhu"
"Jie Dai"
_chemical_name_systematic
;
catena-(bis(tris(2,2'-Bipyridine)-iron) bis(triethylammonium) 
tetrakis(\m~3~-sulfido)-tridecakis(\m~2~-sulfido)-dithiol-deca-indium 
octahydrate)
;
_cell_volume  22008.421
_exptl_crystal_colour 'red'
_exptl_crystal_density_diffrn 1.903
_exptl_crystal_description 'Block'
_diffrn_ambient_temperature 223
#These two values have been output from a single CSD field.
_refine_ls_R_factor_gt 0.0909
_refine_ls_wR_factor_gt 0.0909
_symmetry_cell_setting monoclinic
_symmetry_space_group_name_H-M 'C 2/c'
_symmetry_Int_Tables_number 15
loop_
_symmetry_equiv_pos_site_id
_symmetry_equiv_pos_as_xyz
1 x,y,z
2 -x,y,1/2-z
3 1/2+x,1/2+y,z
4 1/2-x,1/2+y,1/2-z
5 -x,-y,-z
6 x,-y,-1/2+z
7 -1/2-x,-1/2-y,-z
8 -1/2+x,-1/2-y,-1/2+z
_cell_length_a 46.393(9)
_cell_length_b 20.528(3)
_cell_length_c 31.865(6)
_cell_angle_alpha 90
_cell_angle_beta 133.512(3)
_cell_angle_gamma 90
_cell_formula_units_Z 8
loop_
_atom_type_symbol
_atom_type_radius_bond
C 0.68
H 0.23
Fe 1.52
In 1.42
N 0.68
O 0.68
S 1.02
loop_
_atom_site_label
_atom_site_type_symbol
_atom_site_fract_x
_atom_site_fract_y
_atom_site_fract_z
Fe1 Fe 0.43913(7) -0.34405(11) 0.32578(9)
N1 N 0.3902(4) -0.3539(6) 0.3106(6)
N2 N 0.4263(3) -0.2510(6) 0.3192(4)
N3 N 0.4736(4) -0.3366(6) 0.4101(5)
N4 N 0.4891(4) -0.3263(8) 0.3478(6)
N5 N 0.4086(4) -0.3559(7) 0.2425(5)
C1 C 0.3725(5) -0.4085(8) 0.3054(8)
H1 H 0.38420 -0.44870 0.31020
C2 C 0.3376(5) -0.4083(10) 0.2931(8)
H2 H 0.32630 -0.44830 0.28980
C3 C 0.3190(5) -0.3527(9) 0.2857(7)
H3 H 0.29540 -0.35310 0.27800
C4 C 0.3366(5) -0.2942(8) 0.2902(6)
H4 H 0.32480 -0.25390 0.28480
C5 C 0.3718(4) -0.2967(7) 0.3028(6)
C6 C 0.4461(5) -0.2007(8) 0.3227(6)
H5 H 0.46740 -0.20860 0.32570
C7 C 0.4359(6) -0.1369(10) 0.3221(8)
H6 H 0.45030 -0.10210 0.32490
C8 C 0.4044(6) -0.125(1) 0.3172(8)
H7 H 0.39710 -0.08220 0.31700
C9 C 0.3838(5) -0.1775(8) 0.3126(7)
H8 H 0.36260 -0.17060 0.31000
C10 C 0.3941(4) -0.2391(7) 0.3119(6)
C11 C 0.4629(5) -0.3442(9) 0.4405(7)
H9 H 0.43600 -0.35190 0.41960
C12 C 0.4890(6) -0.3412(10) 0.4993(8)
H10 H 0.48030 -0.34610 0.51850
C13 C 0.5285(7) -0.3307(10) 0.5297(8)
H11 H 0.54710 -0.33080 0.57030
C14 C 0.5418(5) -0.320(1) 0.5022(7)
H12 H 0.56860 -0.31100 0.52300
C15 C 0.5125(5) -0.3235(8) 0.4408(6)
C16 C 0.4978(6) -0.3170(13) 0.3161(9)
H13 H 0.47620 -0.32020 0.27590
C17 C 0.5324(6) -0.304(2) 0.3330(9)
H14 H 0.53600 -0.30740 0.30750
C18 C 0.5633(6) -0.2850(17) 0.3904(10)
H15 H 0.58700 -0.26730 0.40360
C19 C 0.5574(7) -0.2933(11) 0.4264(10)
H16 H 0.57860 -0.28630 0.46640
C20 C 0.5209(6) -0.3119(9) 0.4048(8)
N6 N 0.4458(5) -0.4362(7) 0.3251(7)
C21 C 0.4659(6) -0.4768(9) 0.3728(10)
H17 H 0.47880 -0.45900 0.40920
C22 C 0.4673(8) -0.5462(11) 0.3669(12)
H18 H 0.48080 -0.57380 0.39920
C23 C 0.4492(10) -0.5706(12) 0.3150(14)
H19 H 0.44880 -0.61590 0.31030
C24 C 0.4308(9) -0.5298(12) 0.2679(14)
H20 H 0.42030 -0.54670 0.23230
C25 C 0.4283(5) -0.4648(8) 0.2739(8)
C26 C 0.3893(5) -0.3104(9) 0.2016(7)
H21 H 0.38950 -0.26760 0.21220
C27 C 0.3694(6) -0.3219(10) 0.1456(7)
H22 H 0.35630 -0.28800 0.11830
C28 C 0.3688(6) -0.3840(11) 0.1293(8)
H23 H 0.35430 -0.39310 0.09030
C29 C 0.3884(6) -0.4315(10) 0.1682(9)
H24 H 0.38960 -0.47360 0.15790
C30 C 0.4075(5) -0.4162(9) 0.2257(7)
Fe2 Fe 0.43916(7) -0.15591(11) 0.55237(9)
N7 N 0.4264(4) -0.2494(6) 0.5338(5)
N8 N 0.3904(4) -0.1469(6) 0.4696(5)
N9 N 0.4088(4) -0.1450(7) 0.5751(5)
N10 N 0.4462(4) -0.0636(7) 0.5666(6)
N11 N 0.4893(4) -0.1749(8) 0.6310(5)
N12 N 0.4736(4) -0.1627(6) 0.5370(5)
C31 C 0.4463(5) -0.2995(8) 0.5698(7)
H25 H 0.46780 -0.29170 0.60950
C32 C 0.4358(7) -0.3634(10) 0.5494(10)
H26 H 0.45000 -0.39850 0.57530
C33 C 0.4046(6) -0.3749(9) 0.4916(9)
H27 H 0.39770 -0.41780 0.47760
C34 C 0.3831(5) -0.3230(7) 0.4537(8)
H28 H 0.36170 -0.33010 0.41390
C35 C 0.3940(4) -0.2614(7) 0.4761(6)
C36 C 0.3731(5) -0.0909(8) 0.4408(7)
H29 H 0.38520 -0.05130 0.46020
C37 C 0.3371(6) -0.090(1) 0.3820(7)
H30 H 0.32520 -0.05020 0.36260
C38 C 0.3199(5) -0.1477(10) 0.3537(7)
H31 H 0.29650 -0.14760 0.31410
C39 C 0.3363(5) -0.2056(8) 0.3822(6)
H32 H 0.32390 -0.24540 0.36330
C40 C 0.3727(4) -0.2037(7) 0.4411(6)
C41 C 0.3900(5) -0.1897(8) 0.5780(7)
H33 H 0.39070 -0.23270 0.56850
C42 C 0.3698(5) -0.1784(11) 0.5937(8)
H34 H 0.35600 -0.21210 0.59340
C43 C 0.3701(7) -0.1144(11) 0.6105(10)
H35 H 0.35740 -0.10490 0.62330
C44 C 0.3890(6) -0.0680(11) 0.6079(9)
H36 H 0.38870 -0.02490 0.61750
C45 C 0.4092(5) -0.0833(9) 0.5908(7)
C46 C 0.4654(6) -0.0234(9) 0.5585(7)
H37 H 0.47740 -0.04140 0.54660
C47 C 0.4678(7) 0.0457(11) 0.5677(9)
H38 H 0.48180 0.07290 0.56310
C48 C 0.4491(9) 0.0703(12) 0.5832(10)
H39 H 0.44890 0.11560 0.58730
C49 C 0.4305(9) 0.0305(10) 0.5931(11)
H40 H 0.41880 0.04740 0.60580
C50 C 0.4297(6) -0.0358(9) 0.5835(8)
C51 C 0.4966(6) -0.1824(14) 0.6799(8)
H41 H 0.47570 -0.17440 0.67780
C52 C 0.5315(7) -0.2005(15) 0.7305(8)
H42 H 0.53500 -0.20340 0.76320
C53 C 0.5628(7) -0.2151(14) 0.7353(9)
H43 H 0.58720 -0.23000 0.77050
C54 C 0.5575(6) -0.2075(12) 0.6886(9)
H44 H 0.57840 -0.21590 0.69080
C55 C 0.5207(5) -0.1870(8) 0.6370(7)
C56 C 0.4626(5) -0.1557(9) 0.4846(7)
H45 H 0.43580 -0.14790 0.45130
C57 C 0.4896(6) -0.1598(10) 0.4797(8)
H46 H 0.48110 -0.15540 0.44310
C58 C 0.5288(8) -0.1701(10) 0.5272(10)
H47 H 0.54750 -0.16960 0.52400
C59 C 0.5410(5) -0.1812(9) 0.5799(7)
H48 H 0.56760 -0.19130 0.61270
C60 C 0.5124(4) -0.1769(8) 0.5835(6)
In1 In 0.19384(3) -0.16587(5) 0.15962(4)
In2 In 0.27351(3) -0.13500(5) 0.15220(4)
In3 In 0.25004(3) 0.00000(5) 0.21963(4)
In4 In 0.16815(3) -0.03893(5) 0.04502(4)
In5 In 0.34965(4) -0.09284(5) 0.14315(5)
In6 In 0.33188(3) 0.03890(5) 0.20868(5)
In7 In 0.25017(4) 0.00004(5) 0.03673(5)
In8 In 0.30625(3) 0.16587(5) 0.27197(4)
In9 In 0.22650(3) 0.13499(5) 0.10526(4)
In10 In 0.15044(4) 0.09271(5) -0.05607(4)
S1 S 0.15393(12) -0.2498(2) 0.15403(19)
S2 S 0.24720(13) -0.21715(18) 0.17272(18)
S3 S 0.21839(11) -0.08107(18) 0.23201(16)
S4 S 0.13973(12) -0.1220(2) 0.06037(18)
S5 S 0.32289(12) -0.18329(18) 0.15637(18)
S6 S 0.3033(1) -0.04813(16) 0.22694(15)
S7 S 0.22096(12) -0.08787(17) 0.05235(15)
S8 S 0.28133(12) 0.08091(18) 0.29494(15)
S9 S 0.19657(10) 0.04785(16) 0.12027(14)
S10 S 0.11696(12) 0.00529(19) -0.05130(15)
S11 S 0.40260(18) -0.1433(3) 0.1521(3)
S12 S 0.38303(12) -0.00519(19) 0.21457(19)
S13 S 0.30276(16) -0.0433(2) 0.0462(2)
S14 S 0.36013(12) 0.1221(2) 0.2808(2)
S15 S 0.27900(12) 0.08812(18) 0.11035(17)
S16 S 0.19743(16) 0.0433(2) -0.05918(19)
S17 S 0.25247(12) 0.21713(17) 0.17820(16)
S18 S 0.17707(12) 0.18343(17) 0.01067(15)
S19 S 0.09738(18) 0.1431(3) -0.15300(19)
N13 N 0.2209(10) -0.3528(18) 0.0635(14)
C61 C 0.1902(12) -0.370(2) 0.0643(17)
C62 C 0.1776(16) -0.430(2) 0.048(2)
C63 C 0.2564(13) -0.399(2) 0.0970(18)
C64 C 0.2934(11) -0.367(2) 0.1468(17)
C65 C 0.2166(11) -0.2931(13) 0.0327(13)
C66 C 0.1790(11) -0.2554(16) 0.0068(17)
N14 N 0.2749(11) 0.3562(18) 0.1103(17)
C67 C 0.2435(14) 0.398(2) 0.105(2)
C68 C 0.2076(14) 0.371(2) 0.049(2)
C69 C 0.2819(13) 0.2894(14) 0.094(2)
C70 C 0.3201(13) 0.256(2) 0.145(2)
C71 C 0.3085(13) 0.367(2) 0.183(2)
C72 C 0.3241(13) 0.428(2) 0.1939(15)
O1 O 0.1048(6) -0.3256(10) 0.0331(8)
O2 O 0.1050(6) -0.1743(10) 0.1766(8)
O3 O 0.0598(7) -0.0417(10) -0.0324(9)
O4 O 0.5600(6) -0.0403(10) 0.6518(7)
O5 O 0.3868(7) 0.0554(9) 0.4142(9)
O6 O 0.3847(7) -0.5555(9) 0.3571(10)
O7 O 0.4578(11) -0.0017(12) 0.4467(12)
O8 O 0.4593(11) -0.4969(13) 0.4706(13)
In8C In 0.19375(3) -0.33413(5) 0.22803(4)
S1C S 0.34607(12) 0.2502(2) 0.34597(19)
#END
