
#######################################################################
#
#                 Cambridge Crystallographic Data Centre
#                                CCDC
#
#######################################################################
#
# If this CIF has been generated from an entry in the Cambridge
# Structural Database, then it will include bibliographic, chemical,
# crystal, experimental, refinement or atomic coordinate data resulting
# from the CCDC's data processing and validation procedures.
#
#######################################################################

data_CSD_CIF_KICYEB
_audit_creation_date 2007-06-28
_audit_creation_method CSD-ConQuest-V1
_database_code_CSD KICYEB
_database_code_depnum_ccdc_archive 'CCDC 623481'
_chemical_formula_sum 'C55 H50 Br6 Cr1 Mn3 N12 O12'
_chemical_formula_moiety
;
(C38 H28 Br4 Cr1 Mn2 N10 O6 1-)n,n(C17 H18 Br2 Mn1 N2 O4 1+),2n(H2 O1)
;
_journal_coden_Cambridge 1290
_journal_year 2007
_journal_page_first 1240
_journal_name_full 'Eur.J.Inorg.Chem. '
loop_
_publ_author_name
"Zhong-Hai Ni"
"Lei Zheng"
"Li-Fang Zhang"
"Ai-Li Cui"
"Wei-Wei Ni"
"Chong-Chao Zhao"
"Hui-Zhong Kou"
_chemical_name_systematic
;
catena-[aqua-(N,N'-ethylenebis(5-bromosalicylideneaminato))-methanol-manganese
 
tris(\m~2~-cyano)-methanol-dicyano-nitrosyl-bis(N,N'-ethylenebis(5-bromosalicy
lideneaminato))-chromium(i)-di-manganese(iii) dihydrate]
;
_cell_volume   6542.484
_exptl_crystal_colour 'red brown'
_exptl_crystal_density_diffrn 1.794
_exptl_special_details
;
magnetic properties

;
_exptl_crystal_description 'block'
_diffrn_ambient_temperature 293
#These two values have been output from a single CSD field.
_refine_ls_R_factor_gt 0.0744
_refine_ls_wR_factor_gt 0.0744
_symmetry_cell_setting monoclinic
_symmetry_space_group_name_H-M 'P 21/n'
_symmetry_Int_Tables_number 14
loop_
_symmetry_equiv_pos_site_id
_symmetry_equiv_pos_as_xyz
1 x,y,z
2 1/2-x,1/2+y,1/2-z
3 -x,-y,-z
4 -1/2+x,-1/2-y,-1/2+z
_cell_length_a 15.770(4)
_cell_length_b 13.486(3)
_cell_length_c 31.048(8)
_cell_angle_alpha 90
_cell_angle_beta 97.77(2)
_cell_angle_gamma 90
_cell_formula_units_Z 4
loop_
_atom_type_symbol
_atom_type_radius_bond
C 0.68
H 0.23
Br 1.21
Cr 1.35
Mn 1.35
N 0.68
O 0.68
loop_
_atom_site_label
_atom_site_type_symbol
_atom_site_fract_x
_atom_site_fract_y
_atom_site_fract_z
Mn1 Mn 0.76083(13) 0.96896(13) 0.21635(6)
Br1 Br 1.11191(11) 1.11872(12) 0.38612(4)
Mn2 Mn 0.16992(12) 0.71230(12) 0.25898(5)
Cr1 Cr 0.48370(13) 0.86995(13) 0.26787(6)
Mn3 Mn 1.40237(14) 0.86650(15) 0.47732(6)
Br2 Br 0.51421(14) 0.74489(13) 0.02042(5)
Br3 Br 1.81564(12) 0.66915(13) 0.42671(5)
Br4 Br 1.04721(12) 1.08906(14) 0.57679(5)
Br5 Br 0.13631(13) 0.47000(14) 0.46869(5)
Br6 Br 0.07953(14) 0.98204(15) 0.04980(5)
O1 O 0.1415(5) 0.7404(5) 0.3150(2)
O2 O 0.7377(6) 0.8464(5) 0.1877(3)
C1 C 1.5664(9) 0.7600(9) 0.4418(4)
O3 O 0.1018(5) 0.8137(5) 0.2302(2)
O4 O 0.8646(6) 0.9241(6) 0.2472(3)
C2 C 1.0460(8) 0.9606(10) 0.3276(4)
H1 H 1.09250 0.92370 0.34040
N1 N 1.2831(8) 0.8863(8) 0.4468(3)
O5 O 1.5155(6) 0.8411(6) 0.5024(2)
C3 C 0.0982(8) 0.8466(8) 0.1902(4)
N2 N 0.6587(6) 1.0301(6) 0.1832(3)
N3 N 0.4745(8) 0.8418(7) 0.2145(3)
C4 C 0.9175(9) 0.9714(10) 0.2769(4)
C5 C 0.8390(8) 1.1355(8) 0.2679(3)
H2 H 0.83960 1.20210 0.27570
C6 C 0.6125(9) 0.9077(8) 0.2712(3)
O6 O 0.8342(6) 1.0209(6) 0.1600(3)
C7 C 1.6624(10) 0.8037(9) 0.5082(4)
H3 H 1.66980 0.83020 0.53610
C8 C 0.1392(9) 0.8005(8) 0.1573(4)
C9 C 0.0876(10) 0.6365(11) 0.4150(5)
C10 C 1.1521(10) 1.0022(9) 0.5181(4)
H4 H 1.10150 0.99790 0.49900
N4 N 1.4155(8) 0.7854(7) 0.4251(3)
C11 C 1.3013(11) 1.0110(9) 0.5751(4)
H5 H 1.35190 1.01630 0.59420
N5 N 0.7784(7) 1.1057(6) 0.2382(3)
C12 C 0.6885(9) 0.8317(9) 0.1499(4)
C13 C 0.3552(9) 0.8319(9) 0.2697(4)
O7 O 1.4330(7) 1.0024(6) 0.4408(3)
N6 N 0.6821(7) 0.9302(8) 0.2684(4)
N7 N 0.2009(7) 0.6637(7) 0.2020(3)
C14 C 0.2359(8) 0.5520(8) 0.3177(4)
H6 H 0.26770 0.49440 0.32370
N8 N 0.2880(8) 0.8078(8) 0.2689(4)
C15 C 0.9052(9) 1.0728(9) 0.2897(4)
O8 O 1.3802(6) 0.9416(7) 0.5256(3)
C16 C 0.0488(8) 0.9745(9) 0.1374(4)
H7 H 0.01910 1.03320 0.13040
C17 C 0.5837(9) 0.7824(10) 0.0728(4)
C18 C 0.5206(9) 0.7337(9) 0.2943(4)
C19 C 0.9672(9) 1.114(1) 0.3220(4)
H8 H 0.96160 1.17970 0.33030
C20 C 0.6435(10) 0.7154(10) 0.0920(5)
H9 H 0.64860 0.65420 0.07890
C21 C 0.6267(9) 0.8976(9) 0.1308(4)
N9 N 0.2422(7) 0.5971(7) 0.2814(3)
C22 C 0.0533(9) 0.9358(9) 0.1784(4)
H10 H 0.02630 0.96880 0.19910
C23 C 0.4865(9) 0.9209(9) 0.3315(4)
C24 C 0.0902(9) 0.6987(9) 0.3796(4)
H11 H 0.05870 0.75720 0.37790
O9 O 0.4578(9) 0.8356(8) 0.1764(3)
C25 C 0.2968(9) 0.5601(9) 0.2505(4)
H12 H 0.31400 0.49230 0.25730
H13 H 0.34770 0.60070 0.25130
C26 C 0.6968(10) 0.7371(9) 0.1306(4)
H14 H 0.73650 0.69110 0.14330
C27 C 1.2761(10) 0.8557(10) 0.4000(4)
H15 H 1.29300 0.91020 0.38260
H16 H 1.21740 0.83830 0.38920
C28 C 1.2223(9) 0.9265(10) 0.4625(4)
H17 H 1.17000 0.93080 0.44460
C29 C 0.6104(9) 0.9928(10) 0.1492(4)
H18 H 0.56360 1.02940 0.13650
C30 C 1.2265(9) 0.9667(9) 0.5061(4)
C31 C 1.4877(11) 0.7527(9) 0.4156(4)
H19 H 1.48710 0.72140 0.38890
C32 C 0.9888(9) 0.9208(10) 0.2963(4)
H20 H 0.99760 0.85620 0.28730
C33 C 1.5796(9) 0.8039(9) 0.4832(4)
C34 C 1.6415(11) 0.7201(9) 0.4261(4)
H21 H 1.63610 0.69280 0.39830
C35 C 0.1391(9) 0.6758(9) 0.3462(4)
C36 C 0.1332(10) 0.8406(10) 0.1157(4)
H22 H 0.15980 0.80870 0.09460
C37 C 0.1866(9) 0.7077(9) 0.1658(4)
H23 H 0.20820 0.67840 0.14240
N10 N 0.4871(9) 0.9561(9) 0.3651(4)
N11 N 0.5414(8) 0.6607(9) 0.3119(3)
C38 C 0.5737(9) 0.8717(10) 0.0913(4)
H24 H 0.53270 0.91590 0.07850
C39 C 0.0892(10) 0.9252(11) 0.1056(4)
C40 C 1.7320(9) 0.7643(9) 0.4912(5)
H25 H 1.78640 0.76680 0.50710
C41 C 1.0338(9) 1.061(1) 0.3408(4)
C42 C 0.2425(9) 0.5656(8) 0.2050(4)
H26 H 0.27880 0.55820 0.18240
H27 H 0.19990 0.51340 0.20180
C43 C 1.7193(10) 0.7211(11) 0.4503(5)
C44 C 1.2260(11) 1.0450(9) 0.5880(4)
H28 H 1.22480 1.06820 0.61610
C45 C 1.3032(9) 0.9697(10) 0.5348(4)
O10 O 0.9209(11) 0.7347(15) 0.1150(8)
C46 C 0.1337(11) 0.5502(12) 0.4182(5)
C47 C 0.7213(9) 1.1811(9) 0.2151(4)
H29 H 0.74590 1.20690 0.19030
H30 H 0.71250 1.23560 0.23430
C48 C 0.1833(8) 0.5845(9) 0.3494(4)
C49 C 0.1818(9) 0.5248(10) 0.3862(4)
H31 H 0.21410 0.46690 0.38910
C50 C 1.1517(11) 1.0437(10) 0.5579(5)
C51 C 0.6365(8) 1.1278(8) 0.2000(4)
H32 H 0.60390 1.11970 0.22400
H33 H 0.60250 1.16560 0.17730
C52 C 0.4549(9) 1.0153(9) 0.2550(4)
N12 N 0.4373(7) 1.0975(8) 0.2480(3)
C53 C 1.3351(10) 0.7658(11) 0.3964(5)
H34 H 1.30840 0.70580 0.40530
H35 H 1.34620 0.75760 0.36660
O11 O 1.3621(8) 0.7257(8) 0.5118(3)
C54 C 1.3020(14) 0.6634(17) 0.5172(7)
H36 H 1.32430 0.61340 0.53770
H37 H 1.28110 0.63280 0.48990
H38 H 1.25600 0.69780 0.52810
O12 O 0.9143(13) 0.6960(16) 0.1769(9)
H39 H 0.061(6) 0.666(7) 0.439(3)
C55 C 0.828(4) 0.958(4) 0.1117(19)
H40 H 0.86310 0.99030 0.09300
H41 H 0.76950 0.95760 0.09790
H42 H 0.84710 0.89120 0.11700
Mn2A Mn 0.33008(12) 1.21230(12) 0.24102(5)
N12A N 0.0627(7) 0.5975(8) 0.2520(3)
#END
