
#######################################################################
#
#                 Cambridge Crystallographic Data Centre
#                                CCDC
#
#######################################################################
#
# If this CIF has been generated from an entry in the Cambridge
# Structural Database, then it will include bibliographic, chemical,
# crystal, experimental, refinement or atomic coordinate data resulting
# from the CCDC's data processing and validation procedures.
#
#######################################################################

data_CSD_CIF_KIDXUR
_audit_creation_date 2007-06-28
_audit_creation_method CSD-ConQuest-V1
_database_code_CSD KIDXUR
_database_code_depnum_ccdc_archive 'CCDC 645011'
_chemical_formula_sum 'C48 H62 N16 Na2 O33 S4 Zn5'
_chemical_formula_moiety
;
(C2 H8 N1 1+)4n,n(C40 H24 N12 Na2 O30 S4 Zn5 4-),3n(H2 O1)
;
_journal_coden_Cambridge 1147
_journal_volume 7
_journal_year 2007
_journal_page_first 736
_journal_name_full 'Cryst.Growth Des. '
loop_
_publ_author_name
"Hyunsoo Park"
"G.Krigsfeld"
"J.B.Parise"
_chemical_name_systematic
;
catena-(tetrakis(Dimethylammonium) 
bis(\m~5~-sulfoisophthalato)-bis(\m~4~-sulfoisophthalato)-tetrakis(\m~3~-1,2,4
-triazole)-diaqua-di-sodium-penta-zinc trihydrate)
;
_cell_volume   1917.455
_exptl_crystal_colour 'colorless'
_exptl_crystal_density_diffrn 1.639
_exptl_crystal_description 'needle'
_diffrn_ambient_temperature 100
_diffrn_radiation_probe x-ray
_diffrn_source synchrotron
#These two values have been output from a single CSD field.
_refine_ls_R_factor_gt 0.0476
_refine_ls_wR_factor_gt 0.0476
_symmetry_cell_setting triclinic
_symmetry_space_group_name_H-M 'P -1'
_symmetry_Int_Tables_number 2
loop_
_symmetry_equiv_pos_site_id
_symmetry_equiv_pos_as_xyz
1 x,y,z
2 -x,-y,-z
_cell_length_a 9.7012(19)
_cell_length_b 12.442(3)
_cell_length_c 17.218(3)
_cell_angle_alpha 89.83(3)
_cell_angle_beta 75.01(3)
_cell_angle_gamma 73.33(3)
_cell_formula_units_Z 1
loop_
_atom_type_symbol
_atom_type_radius_bond
C 0.68
H 0.23
N 0.68
Na 1.45
O 0.68
S 1.02
Zn 1.33
loop_
_atom_site_label
_atom_site_type_symbol
_atom_site_fract_x
_atom_site_fract_y
_atom_site_fract_z
Zn1 Zn 0.00000 1.00000 0.00000
Zn2 Zn 0.35164(4) 0.19291(3) 0.18370(2)
Zn3 Zn -0.03917(4) 0.88684(3) 0.19338(2)
Na1 Na 0.23335(17) 0.44451(12) 0.27429(9)
O1 O 0.0860(3) 0.8229(2) 0.00636(16)
O2 O 0.0379(3) 0.7458(2) 0.12300(15)
O3 O 0.4198(3) 0.2352(2) 0.03099(16)
O4 O 0.2942(3) 0.3452(2) 0.14291(15)
O5 O 0.3900(3) 0.4595(3) -0.24863(17)
O6 O 0.4842(3) 0.6149(2) -0.22997(16)
O7 O 0.6286(3) 0.4241(2) -0.21699(16)
O8 O 0.2064(6) 0.0440(4) 0.6347(2)
O9 O 0.0125(4) 0.1732(3) 0.70833(17)
O10 O 0.2472(3) 0.2544(2) 0.29619(14)
O11 O 0.3362(3) 0.0827(2) 0.33450(16)
O12 O -0.2222(4) 0.5272(3) 0.45998(19)
O13 O -0.2812(3) 0.5172(3) 0.60332(18)
O14 O -0.3521(4) 0.3975(3) 0.5210(2)
O15 O 0.8162(5) 0.6630(4) 0.2155(3)
O16 O -0.0203(4) 0.5279(3) 0.3087(2)
O17 O 0.2062(12) 0.8693(8) 0.5074(6)
S1 S 0.48099(10) 0.50247(7) -0.20767(5)
S2 S -0.24484(11) 0.45716(9) 0.52622(5)
C1 C -0.3339(4) 1.0882(3) 0.0909(2)
H1 H -0.35320 1.12540 0.04490
C2 C -0.3611(4) 1.0329(3) 0.2076(2)
H2 H -0.40380 1.02250 0.26220
C3 C 0.1701(4) 1.0284(3) 0.1977(2)
H3 H 0.18000 1.01040 0.25000
C4 C 0.1884(4) 1.0991(3) 0.0864(2)
H4 H 0.21470 1.14250 0.04260
C5 C 0.3845(4) 0.5165(3) -0.1046(2)
C6 C 0.2852(4) 0.6198(3) -0.0702(2)
H5 H 0.27110 0.68300 -0.10160
C7 C 0.2069(4) 0.6297(3) 0.0104(2)
C8 C 0.2291(4) 0.5362(3) 0.0555(2)
H6 H 0.17660 0.54310 0.11090
C9 C 0.3285(4) 0.4318(3) 0.0198(2)
C10 C 0.4073(4) 0.4221(3) -0.0605(2)
H7 H 0.47580 0.35220 -0.08510
C11 C 0.1018(4) 0.7425(3) 0.0489(2)
C12 C 0.3507(4) 0.3300(3) 0.0665(2)
C13 C -0.0746(4) 0.3474(3) 0.5155(2)
C14 C -0.0503(4) 0.2891(3) 0.5813(2)
H8 H -0.11800 0.31290 0.63310
C15 C 0.0746(4) 0.1945(3) 0.5713(2)
C16 C 0.1731(4) 0.1597(3) 0.4955(2)
H9 H 0.25620 0.09410 0.48840
C17 C 0.1501(4) 0.2207(3) 0.4302(2)
C18 C 0.0253(4) 0.3161(3) 0.4408(2)
H10 H 0.01000 0.35890 0.39640
C19 C 0.1024(5) 0.1297(3) 0.6423(2)
C20 C 0.2533(4) 0.1817(3) 0.3483(2)
C21 C 0.5520(6) 0.2481(4) 0.3869(4)
H11 H 0.54220 0.21770 0.33690
H12 H 0.45270 0.27910 0.42450
H13 H 0.61290 0.18800 0.41140
C22 C 0.7785(6) 0.2969(6) 0.3163(3)
H14 H 0.84010 0.24030 0.34280
H15 H 0.81990 0.36040 0.30610
H16 H 0.77770 0.26340 0.26500
C23 C 0.6178(9) 0.1891(5) 0.6873(5)
H17 H 0.55090 0.16310 0.73110
H18 H 0.67800 0.22520 0.70970
H19 H 0.68390 0.12470 0.65000
C24 C 0.4245(8) 0.2282(6) 0.6135(4)
H20 H 0.47990 0.15800 0.57980
H21 H 0.37490 0.28380 0.58140
H22 H 0.34940 0.21380 0.65920
N1 N -0.4361(3) 1.1007(2) 0.16155(17)
N2 N -0.2027(3) 1.0183(2) 0.09174(17)
N3 N -0.2211(3) 0.9826(2) 0.16763(17)
N4 N 0.2305(3) 1.1009(2) 0.15449(18)
N5 N 0.0948(3) 0.9845(2) 0.15898(18)
N6 N 0.1067(3) 1.0308(2) 0.08649(17)
N7 N 0.6239(5) 0.3372(3) 0.3691(2)
H23 H 0.62540 0.36940 0.41680
H24 H 0.56770 0.39220 0.34450
N8 N 0.5279(6) 0.2713(4) 0.6433(3)
H25 H 0.47430 0.33490 0.67710
H26 H 0.59160 0.29170 0.60030
Zn2A Zn -0.35164(4) 1.80709(3) -0.18370(2)
Zn2* Zn -0.64836(4) 1.19291(3) 0.18370(2)
Zn2** Zn 0.35164(4) 1.19291(3) 0.18370(2)
Zn2A* Zn 0.64836(4) 0.80709(3) -0.18370(2)
Zn2A** Zn -0.35164(4) 0.80709(3) -0.18370(2)
Zn2A*** Zn -0.35164(4) 0.80709(3) 0.81630(2)
Zn3A Zn 0.03917(4) 1.11316(3) -0.19338(2)
Zn3A* Zn 0.03917(4) 0.11316(3) 0.80662(2)
Na1A Na -0.23335(17) 1.55549(12) -0.27429(9)
Na1A* Na 0.76665(17) 0.55549(12) -0.27429(9)
Na1A** Na -0.23335(17) 0.55549(12) 0.72571(9)
Na1* Na -0.76665(17) 1.44451(12) 0.27429(9)
O1A O -0.0860(3) 1.1771(2) -0.00636(16)
O2A O -0.0379(3) 1.2542(2) -0.12300(15)
O3A O -0.4198(3) 1.7648(2) -0.03099(16)
O4A O -0.2942(3) 1.6548(2) -0.14291(15)
O5A O -0.3900(3) 1.5405(3) 0.24863(17)
O6A O -0.4842(3) 1.3851(2) 0.22997(16)
O6A* O 0.5158(3) 0.3851(2) 0.22997(16)
O6* O -0.5158(3) 1.6149(2) -0.22997(16)
O7A O -0.6286(3) 1.5759(2) 0.21699(16)
O7A* O 0.3714(3) 0.5759(2) 0.21699(16)
O7* O -0.3714(3) 1.4241(2) -0.21699(16)
O8A O -0.2064(6) 0.9560(4) 0.3653(2)
O9A O -0.0125(4) 0.8268(3) 0.29167(17)
O9* O 0.0125(4) 1.1732(3) -0.29167(17)
O10A O -0.2472(3) 0.7456(2) 0.70381(14)
O10A* O -0.2472(3) 1.7456(2) -0.29619(14)
O11A O -0.3362(3) 0.9173(2) 0.66550(16)
O12A O 0.2222(4) 0.4728(3) 0.54002(19)
O13A O 0.2812(3) 0.4828(3) 0.39668(18)
O13* O -0.2812(3) 1.5172(3) -0.39668(18)
O14A O 0.3521(4) 0.6025(3) 0.4790(2)
O16A O 0.0203(4) 1.4721(3) -0.3087(2)
S1A S -0.48099(10) 1.49753(7) 0.20767(5)
S2A S 0.24484(11) 0.54284(9) 0.47378(5)
C1A C 0.3339(4) 0.9118(3) -0.0909(2)
H1A H 0.35320 0.87460 -0.04490
C2A C 0.3611(4) 0.9671(3) -0.2076(2)
H2A H 0.40380 0.97750 -0.26220
C3A C -0.1701(4) 0.9716(3) -0.1977(2)
H3A H -0.18000 0.98960 -0.25000
C4A C -0.1884(4) 0.9009(3) -0.0864(2)
H4A H -0.21470 0.85750 -0.04260
C5A C -0.3845(4) 1.4835(3) 0.1046(2)
C6A C -0.2852(4) 1.3802(3) 0.0702(2)
H5A H -0.27110 1.31700 0.10160
C7A C -0.2069(4) 1.3703(3) -0.0104(2)
C8A C -0.2291(4) 1.4638(3) -0.0555(2)
H6A H -0.17660 1.45690 -0.11090
C9A C -0.3285(4) 1.5682(3) -0.0198(2)
C10A C -0.4073(4) 1.5779(3) 0.0605(2)
H7A H -0.47580 1.64780 0.08510
C11A C -0.1018(4) 1.2575(3) -0.0489(2)
C12A C -0.3507(4) 1.6700(3) -0.0665(2)
C13A C 0.0746(4) 0.6526(3) 0.4845(2)
C14A C 0.0503(4) 0.7109(3) 0.4187(2)
H8A H 0.11800 0.68710 0.36690
C15A C -0.0746(4) 0.8055(3) 0.4287(2)
C16A C -0.1731(4) 0.8403(3) 0.5045(2)
H9A H -0.25620 0.90590 0.51160
C17A C -0.1501(4) 0.7793(3) 0.5698(2)
C18A C -0.0253(4) 0.6839(3) 0.5592(2)
H10A H -0.01000 0.64110 0.60360
C19A C -0.1024(5) 0.8703(3) 0.3577(2)
C20A C -0.2533(4) 0.8183(3) 0.6517(2)
N1A N 0.4361(3) 0.8993(2) -0.16155(17)
N1* N 0.5639(3) 0.1007(2) 0.16155(17)
N1A* N -0.5639(3) 1.8993(2) -0.16155(17)
N2A N 0.2027(3) 0.9817(2) -0.09174(17)
N3A N 0.2211(3) 1.0174(2) -0.16763(17)
N4A N -0.2305(3) 0.8991(2) -0.15449(18)
N4* N 0.2305(3) 0.1009(2) 0.15449(18)
N4A* N -0.2305(3) 1.8991(2) -0.15449(18)
N5A N -0.0948(3) 1.0155(2) -0.15898(18)
N6A N -0.1067(3) 0.9692(2) -0.08649(17)
#END
