
#######################################################################
#
#                 Cambridge Crystallographic Data Centre
#                                CCDC
#
#######################################################################
#
# If this CIF has been generated from an entry in the Cambridge
# Structural Database, then it will include bibliographic, chemical,
# crystal, experimental, refinement or atomic coordinate data resulting
# from the CCDC's data processing and validation procedures.
#
#######################################################################

data_CSD_CIF_KIFNAP
_audit_creation_date 2007-10-25
_audit_creation_method CSD-ConQuest-V1
_database_code_CSD KIFNAP
_database_code_depnum_ccdc_archive 'CCDC 640703'
_chemical_formula_sum 'C16 H34 N2 Ni1 O16'
_chemical_formula_moiety
;
(C6 H16 N2 2+)n,n(C10 H10 Ni1 O12 2-),4n(H2 O1)
;
_journal_coden_Cambridge 29
_journal_volume 633
_journal_year 2007
_journal_page_first 1323
_journal_name_full 'Z.Anorg.Allg.Chem. '
loop_
_publ_author_name
"R.Koeferstein"
"C.Robl"
_chemical_name_systematic
;
catena-(Cyclohexane-1,4-diammonium 
(\m~2~-benzene-1,2,4,5-tetracarboxylato-O,O')-tetra-aqua-nickel(ii) 
tetrahydrate)
;
_cell_volume    609.853
_exptl_crystal_colour 'light green'
_exptl_crystal_density_diffrn 1.55
_exptl_crystal_description 'column'
_diffrn_ambient_temperature 293
#These two values have been output from a single CSD field.
_refine_ls_R_factor_gt 0.0256
_refine_ls_wR_factor_gt 0.0256
_symmetry_cell_setting triclinic
_symmetry_space_group_name_H-M 'P -1'
_symmetry_Int_Tables_number 2
loop_
_symmetry_equiv_pos_site_id
_symmetry_equiv_pos_as_xyz
1 x,y,z
2 -x,-y,-z
_cell_length_a 6.9123(6)
_cell_length_b 9.2484(5)
_cell_length_c 10.8243(7)
_cell_angle_alpha 74.208(6)
_cell_angle_beta 75.558(7)
_cell_angle_gamma 68.251(6)
_cell_formula_units_Z 1
loop_
_atom_type_symbol
_atom_type_radius_bond
C 0.68
H 0.23
N 0.68
Ni 1.50
O 0.68
loop_
_atom_site_label
_atom_site_type_symbol
_atom_site_fract_x
_atom_site_fract_y
_atom_site_fract_z
Ni1 Ni 0.00000 0.00000 0.00000
N1 N 0.1255(3) -0.6430(2) 0.7494(2)
C1 C 0.1113(4) -0.5972(3) 0.6077(2)
C2 C 0.1060(5) -0.4259(3) 0.5554(2)
C3 C -0.0839(4) -0.6216(3) 0.5887(2)
C4 C 0.5357(3) 0.0092(2) -0.3808(2)
C5 C 0.3691(3) -0.0399(2) -0.3848(2)
C6 C 0.6636(3) 0.0503(2) -0.4970(2)
C7 C 0.5834(3) 0.0163(2) -0.2541(2)
C8 C 0.2186(3) -0.0756(2) -0.2624(2)
O1 O 0.5970(2) -0.1054(2) -0.16349(12)
O2 O 0.6076(3) 0.1409(2) -0.24930(14)
O3 O 0.1418(2) 0.02888(14) -0.19224(11)
O4 O 0.1767(3) -0.2009(2) -0.23946(14)
O5 O 0.2802(2) -0.1699(2) 0.04387(14)
O6 O 0.0985(2) 0.1803(2) 0.01585(13)
O7 O -0.3726(3) 0.5171(2) 0.1520(2)
O8 O 0.2520(3) -0.5591(2) 0.1279(2)
H1 H 0.2365(43) -0.6261(31) 0.7666(25)
H2 H -0.0022(43) -0.5766(31) 0.7995(25)
H3 H 0.1363(41) -0.7443(33) 0.7783(25)
H4 H 0.2444(41) -0.6659(30) 0.5672(24)
H5 H 0.2370(41) -0.4134(29) 0.5642(24)
H6 H -0.0197(41) -0.3524(30) 0.6082(25)
H7 H -0.2175(41) -0.5504(30) 0.6392(24)
H8 H -0.0801(40) -0.7280(31) 0.6198(24)
H9 H 0.7743(33) 0.0814(23) -0.4936(19)
H10 H 0.3742(48) -0.1559(35) -0.0191(29)
H11 H 0.3108(48) -0.1608(36) 0.1059(30)
H12 H 0.0020(47) 0.2099(34) 0.0855(29)
H13 H 0.2075(49) 0.1458(36) 0.0415(29)
H14 H -0.4869(49) 0.5345(38) 0.1506(32)
H15 H -0.3270(48) 0.4169(37) 0.1906(29)
H16 H 0.2693(49) -0.5391(36) 0.048(3)
H17 H 0.2842(48) -0.6607(37) 0.1508(29)
Ni1* Ni 1.00000 0.00000 -1.00000
N1A N -0.1255(3) -0.3570(2) 0.2506(2)
C1A C -0.1113(4) -0.4028(3) 0.3923(2)
C2A C -0.1060(5) -0.5741(3) 0.4446(2)
C3A C 0.0839(4) -0.3784(3) 0.4113(2)
C4A C 0.4643(3) -0.0092(2) -0.6192(2)
C5A C 0.6309(3) 0.0399(2) -0.6152(2)
C6A C 0.3364(3) -0.0503(2) -0.5030(2)
C7A C 0.4166(3) -0.0163(2) -0.7459(2)
C8A C 0.7814(3) 0.0756(2) -0.7376(2)
O1A O 0.4030(2) 0.1054(2) -0.83651(12)
O2A O 0.3924(3) -0.1409(2) -0.75070(14)
O3A O 0.8582(2) -0.02888(14) -0.80776(11)
O3A* O -0.1418(2) -0.02888(14) 0.19224(11)
O4A O 0.8233(3) 0.2009(2) -0.76054(14)
O5A O -0.2802(2) 0.1699(2) -0.04387(14)
O6A O -0.0985(2) -0.1803(2) -0.01585(13)
H1A H -0.2365(43) -0.3739(31) 0.2334(25)
H2A H 0.0022(43) -0.4234(31) 0.2005(25)
H3A H -0.1363(41) -0.2557(33) 0.2217(25)
H4A H -0.2444(41) -0.3341(30) 0.4328(24)
H5A H -0.2370(41) -0.5866(29) 0.4358(24)
H6A H 0.0197(41) -0.6476(30) 0.3918(25)
H7A H 0.2175(41) -0.4496(30) 0.3608(24)
H8A H 0.0801(40) -0.2720(31) 0.3802(24)
H9A H 0.2257(33) -0.0814(23) -0.5064(19)
H10A H -0.3742(48) 0.1559(35) 0.0191(29)
H11A H -0.3108(48) 0.1608(36) -0.1059(30)
H12A H -0.0020(47) -0.2099(34) -0.0855(29)
H13A H -0.2075(49) -0.1458(36) -0.0415(29)
#END
