
#######################################################################
#
#                 Cambridge Crystallographic Data Centre
#                                CCDC
#
#######################################################################
#
# If this CIF has been generated from an entry in the Cambridge
# Structural Database, then it will include bibliographic, chemical,
# crystal, experimental, refinement or atomic coordinate data resulting
# from the CCDC's data processing and validation procedures.
#
#######################################################################

data_CSD_CIF_KIHMAS
_audit_creation_date 2018-09-11
_audit_creation_method CSD-ConQuest-V1
_database_code_CSD KIHMAS
_database_code_depnum_ccdc_archive 'CCDC 1583290'
_chemical_formula_sum 'C36 H64 Cu2 N8 O26'
_chemical_formula_moiety
;
(C8 Cu2 O16 4-)n,4(C7 H11 N2 1+),10(H2 O1)
;
_journal_coden_Cambridge 1078
_journal_year 2018
_journal_name_full 'CSD Communication(Private Communication) '
loop_
_publ_author_name
"P.Shankhari"
"T.Fokwa"
"P.Boniface"
_chemical_name_systematic
;
catena-[tetrakis(2-amino-4,6-dimethyl-pyridin-1-ium) 
bis(\m-oxalato)-bis(oxalato)-di-copper(ii) decahydrate]
;
_cell_volume   1265.465
_exptl_crystal_colour 'blue'
_exptl_crystal_density_diffrn 1.512
_exptl_crystal_description 'prism'
_diffrn_ambient_temperature 100
#These two values have been output from a single CSD field.
_refine_ls_R_factor_gt 0.0435
_refine_ls_wR_factor_gt 0.0435
_symmetry_cell_setting triclinic
_symmetry_space_group_name_H-M 'P -1'
_symmetry_Int_Tables_number 2
loop_
_symmetry_equiv_pos_site_id
_symmetry_equiv_pos_as_xyz
1 x,y,z
2 -x,-y,-z
_cell_length_a 9.5727(3)
_cell_length_b 10.9847(4)
_cell_length_c 13.6468(5)
_cell_angle_alpha 108.096(1)
_cell_angle_beta 96.209(1)
_cell_angle_gamma 107.815(1)
_cell_formula_units_Z 1
loop_
_atom_type_symbol
_atom_type_radius_bond
C 0.68
H 0.23
Cu 1.32
N 0.68
O 0.68
loop_
_atom_site_label
_atom_site_type_symbol
_atom_site_fract_x
_atom_site_fract_y
_atom_site_fract_z
Cu1 Cu 0.21443(2) 0.38735(2) 0.03753(2)
C1 C 0.54212(18) 0.52161(16) 0.05834(14)
C2 C -0.05219(19) 0.43565(17) -0.04853(16)
C3 C 0.09926(17) 0.20866(16) 0.13739(12)
C4 C 0.17184(16) 0.13551(16) 0.05230(12)
O1 O 0.11222(14) 0.32984(13) 0.14312(11)
O2 O 0.03731(14) 0.15081(12) 0.19410(9)
O3 O 0.17338(14) 0.02111(12) 0.04351(9)
O4 O 0.22837(14) 0.20516(13) -0.00274(10)
O5 O 0.46749(14) 0.50061(14) 0.12358(11)
O6 O 0.68521(14) 0.57579(14) 0.07714(11)
O7 O -0.00929(15) 0.33708(13) -0.07771(12)
O8 O -0.17459(15) 0.44064(13) -0.09053(12)
C5 C 0.89511(17) 0.41837(16) 0.34060(12)
C6 C 0.81739(17) 0.47594(17) 0.41332(12)
H1 H 0.79430 0.55330 0.41090
C7 C 0.77512(17) 0.42021(17) 0.48755(12)
C8 C 0.80909(18) 0.30404(17) 0.49000(13)
H2 H 0.78030 0.26480 0.54100
C9 C 0.88333(18) 0.24893(17) 0.41869(12)
C10 C 0.6946(2) 0.4823(2) 0.56608(14)
H3 H 0.67310 0.43000 0.61270
H4 H 0.75830 0.57770 0.60840
H5 H 0.60000 0.47960 0.52840
C11 C 0.9297(2) 0.12964(19) 0.41584(15)
H6 H 0.98110 0.10900 0.35790
H7 H 0.99810 0.15250 0.48310
H8 H 0.84030 0.04930 0.40470
N1 N 0.92242(15) 0.30613(14) 0.34491(10)
H9 H 0.96750 0.26800 0.29800
N2 N 0.94255(17) 0.47079(15) 0.26894(11)
H10 H 0.993(4) 0.439(3) 0.223(3)
H11 H 0.931(3) 0.546(3) 0.271(2)
C12 C 0.38902(17) 0.99949(16) 0.82335(12)
C13 C 0.35957(17) 0.82718(16) 0.89901(12)
C14 C 0.43889(18) 0.76786(17) 0.83439(13)
H12 H 0.45690 0.68940 0.83950
C15 C 0.49367(17) 0.82374(17) 0.76022(13)
C16 C 0.46822(18) 0.93857(17) 0.75443(13)
H13 H 0.50400 0.97640 0.70410
C17 C 0.5794(2) 0.7584(2) 0.68783(16)
H14 H 0.58700 0.67860 0.70260
H15 H 0.52650 0.72900 0.61410
H16 H 0.68070 0.82500 0.69950
C18 C 0.2915(2) 0.77344(19) 0.97754(14)
H17 H 0.31470 0.69200 0.97590
H18 H 0.33310 0.84420 1.04850
H19 H 0.18210 0.74890 0.95970
N3 N 0.33669(15) 0.94110(14) 0.89222(10)
H20 H 0.28560 0.97820 0.93450
N4 N 0.36317(19) 1.11289(17) 0.82287(13)
H21 H 0.405(3) 1.148(3) 0.782(2)
H22 H 0.323(4) 1.152(3) 0.875(3)
O9 O 0.06229(17) 0.91594(15) 0.23026(11)
H23 H 0.054(4) 0.858(3) 0.175(3)
H24 H 0.045(4) 0.977(3) 0.215(3)
O10 O 0.3399(2) 0.2139(2) 0.56952(16)
H25 H 0.375(3) 0.2936(19) 0.6214(18)
H26 H 0.415(3) 0.191(3) 0.5728(18)
O11 O 0.5977(2) 0.2388(2) 0.71320(17)
H27 H 0.569(3) 0.297(3) 0.7525(16)
H28 H 0.680(2) 0.259(3) 0.753(2)
O12 O 0.85035(17) 0.71270(16) 0.28614(13)
H29 H 0.913(2) 0.7782(19) 0.2835(18)
H30 H 0.801(2) 0.669(2) 0.2290(14)
O13 O 0.2837(2) -0.0412(2) 0.40085(15)
H31 H 0.253(3) -0.1346(16) 0.3520(16)
H32 H 0.225(2) -0.026(2) 0.3557(17)
C1A C 0.45788(18) 0.47839(16) -0.05834(14)
O5A O 0.53251(14) 0.49939(14) -0.12358(11)
O6A O 0.31479(14) 0.42421(14) -0.07714(11)
C2A C 0.05219(19) 0.56435(17) 0.04853(16)
O7A O 0.00929(15) 0.66292(13) 0.07771(12)
O8A O 0.17459(15) 0.55936(13) 0.09053(12)
Cu1A Cu -0.21443(2) 0.61265(2) -0.03753(2)
C3A C -0.09926(17) 0.79134(16) -0.13739(12)
C4A C -0.17184(16) 0.86449(16) -0.05230(12)
O1A O -0.11222(14) 0.67016(13) -0.14312(11)
O2A O -0.03731(14) 0.84919(12) -0.19410(9)
O3A O -0.17338(14) 0.97889(12) -0.04351(9)
O4A O -0.22837(14) 0.79484(13) 0.00274(10)
Cu1A* Cu 0.78557(2) 0.61265(2) -0.03753(2)
O5A* O -0.46749(14) 0.49939(14) -0.12358(11)
O6* O -0.31479(14) 0.57579(14) 0.07714(11)
#END
