
#######################################################################
#
#                 Cambridge Crystallographic Data Centre
#                                CCDC
#
#######################################################################
#
# If this CIF has been generated from an entry in the Cambridge
# Structural Database, then it will include bibliographic, chemical,
# crystal, experimental, refinement or atomic coordinate data resulting
# from the CCDC's data processing and validation procedures.
#
#######################################################################

data_CSD_CIF_KIHTED
_audit_creation_date 2018-09-12
_audit_creation_method CSD-ConQuest-V1
_database_code_CSD KIHTED
_database_code_depnum_ccdc_archive 'CCDC 1569655'
_chemical_formula_sum 'C56 H50 Cl2 Eu2 N4 O12'
_chemical_formula_moiety
;
(C42 H24 Cl2 Eu2 O12 2-)n,2(C7 H13 N2 1+)
;
_journal_coden_Cambridge 208
_journal_volume 269
_journal_year 2019
_journal_page_first 87
_journal_name_full 'J.Solid State Chem. '
loop_
_publ_author_name
"Mei Lin Shen"
"Zhen Wei"
"Ling Xu"
"Bing Liu"
"Huan Jiao"
_chemical_name_systematic
;
catena-[bis(1-methyl-3-propyl-1H-imidazol-3-ium) 
tris(\m-[1,1'-biphenyl]-4,4'-dicarboxylato)-bis(chloro)-di-europium(iii)]
;
_cell_volume   2585.006
_exptl_crystal_colour 'yellow'
_exptl_crystal_density_diffrn 1.729
_exptl_crystal_description 'block'
_diffrn_ambient_temperature 153
#These two values have been output from a single CSD field.
_refine_ls_R_factor_gt 0.0198
_refine_ls_wR_factor_gt 0.0198
_symmetry_cell_setting monoclinic
_symmetry_space_group_name_H-M 'P 21/c'
_symmetry_Int_Tables_number 14
loop_
_symmetry_equiv_pos_site_id
_symmetry_equiv_pos_as_xyz
1 x,y,z
2 -x,1/2+y,1/2-z
3 -x,-y,-z
4 x,-1/2-y,-1/2+z
_cell_length_a 13.5393(6)
_cell_length_b 19.8663(9)
_cell_length_c 9.6763(4)
_cell_angle_alpha 90
_cell_angle_beta 96.683(1)
_cell_angle_gamma 90
_cell_formula_units_Z 2
loop_
_atom_type_symbol
_atom_type_radius_bond
C 0.68
H 0.23
Cl 0.99
Eu 1.98
N 0.68
O 0.68
loop_
_atom_site_label
_atom_site_type_symbol
_atom_site_fract_x
_atom_site_fract_y
_atom_site_fract_z
Eu1 Eu -0.009123(8) 0.194269(6) 0.935452(12)
Cl1 Cl 0.11970(5) 0.11578(4) 0.81183(7)
O1 O 0.10479(14) 0.18503(10) 1.13172(19)
O2 O 0.07824(13) 0.22164(10) 1.34006(19)
C1 C 0.2439(2) 0.19747(13) 1.3017(3)
C2 C 0.30623(19) 0.16025(13) 1.2260(3)
H1 H 0.27980 0.13850 1.14240
C3 C 0.40707(19) 0.15476(14) 1.2723(3)
H2 H 0.44870 0.12890 1.22030
C4 C 0.4480(2) 0.18676(14) 1.3942(3)
C5 C 0.3845(2) 0.22513(17) 1.4676(3)
H3 H 0.41110 0.24820 1.54950
C6 C 0.2841(2) 0.23004(16) 1.4230(3)
H4 H 0.24220 0.25570 1.47510
C7 C 0.13450(19) 0.20227(12) 1.2543(3)
O3 O 0.93012(13) 0.20317(9) 1.51871(19)
O4 O 0.88610(14) 0.18926(10) 1.7315(2)
C8 C 0.75928(19) 0.18426(12) 1.5440(3)
C9 C 0.7286(2) 0.18764(13) 1.4014(3)
H5 H 0.77650 0.19110 1.33740
C10 C 0.6278(2) 0.18594(13) 1.3530(3)
H6 H 0.60760 0.18730 1.25570
C11 C 0.5556(2) 0.18230(14) 1.4451(3)
C12 C 0.5876(2) 0.17730(15) 1.5872(3)
H7 H 0.53990 0.17360 1.65130
C13 C 0.6879(2) 0.17769(14) 1.6359(3)
H8 H 0.70820 0.17340 1.73290
C14 C 0.86668(19) 0.19266(12) 1.6016(3)
O5 O -0.08954(13) 0.08271(9) 0.9744(2)
O6 O -0.15946(14) 0.17468(10) 1.0426(2)
C15 C -0.26329(19) 0.07917(14) 1.0035(3)
C16 C -0.2701(2) 0.00963(14) 1.0092(3)
H9 H -0.21180 -0.01710 1.01260
C17 C -0.3624(2) -0.02091(14) 1.0099(3)
H10 H -0.36570 -0.06850 1.01770
C18 C -0.45045(19) 0.01655(14) 0.9996(3)
C19 C -0.4417(2) 0.08667(14) 0.9897(3)
H11 H -0.50010 0.11350 0.97980
C20 C -0.3498(2) 0.11755(14) 0.9941(3)
H12 H -0.34570 0.16520 0.99070
C21 C -0.16464(19) 0.11363(13) 1.0073(3)
N1 N -0.0301(2) -0.05211(13) 1.6436(3)
N2 N -0.1821(2) -0.04625(15) 1.5510(3)
C22 C -0.0939(2) -0.07264(16) 1.5373(3)
H13 H -0.07890 -0.10130 1.46400
C23 C -0.0776(3) -0.01150(18) 1.7285(4)
H14 H -0.04920 0.00970 1.81180
C24 C -0.1715(3) -0.0075(2) 1.6714(4)
H15 H -0.22280 0.01760 1.70690
C25 C 0.0737(3) -0.07134(18) 1.6681(4)
H16 H 0.09000 -0.10060 1.59250
H17 H 0.08580 -0.09550 1.75680
H18 H 0.11540 -0.03090 1.67170
C26 C -0.2751(3) -0.0609(2) 1.4613(4)
H19 H -0.25890 -0.08550 1.37790
H20 H -0.31670 -0.09080 1.51240
C27 C -0.3319(4) -0.0019(3) 1.4173(6)
H21 H -0.29770 0.02300 1.34810
H22 H -0.33590 0.02800 1.49830
C28 C -0.4356(4) -0.0201(3) 1.3539(5)
H23 H -0.47200 0.02100 1.32410
H24 H -0.47030 -0.04360 1.42310
H25 H -0.43180 -0.04950 1.27340
O5B O -0.91046(13) -0.08271(9) 1.0256(2)
O6B O -0.84054(14) -0.17468(10) 0.9574(2)
C15B C -0.73671(19) -0.07917(14) 0.9965(3)
C16B C -0.7299(2) -0.00963(14) 0.9908(3)
H9B H -0.78820 0.01710 0.98740
C17B C -0.6376(2) 0.02091(14) 0.9901(3)
H10B H -0.63430 0.06850 0.98230
C18B C -0.54955(19) -0.01655(14) 1.0004(3)
C19B C -0.5583(2) -0.08667(14) 1.0103(3)
H11B H -0.49990 -0.11350 1.02020
C20B C -0.6502(2) -0.11755(14) 1.0059(3)
H12B H -0.65430 -0.16520 1.00930
C21B C -0.83536(19) -0.11363(13) 0.9927(3)
Eu1B Eu -0.990877(8) -0.194269(6) 1.064548(12)
Cl1B Cl -1.11970(5) -0.11578(4) 1.18817(7)
O1B O -1.10479(14) -0.18503(10) 0.86828(19)
O2B O -1.07824(13) -0.22164(10) 0.65994(19)
C1B C -1.2439(2) -0.19747(13) 0.6983(3)
C2B C -1.30623(19) -0.16025(13) 0.7740(3)
H1B H -1.27980 -0.13850 0.85760
C3B C -1.40707(19) -0.15476(14) 0.7277(3)
H2B H -1.44870 -0.12890 0.77970
C4B C -1.4480(2) -0.18676(14) 0.6058(3)
C5B C -1.3845(2) -0.22513(17) 0.5324(3)
H3B H -1.41110 -0.24820 0.45050
C6B C -1.2841(2) -0.23004(16) 0.5770(3)
H4B H -1.24220 -0.25570 0.52490
C7B C -1.13450(19) -0.20227(12) 0.7457(3)
O3B O -1.93012(13) -0.20317(9) 0.48129(19)
O4B O -1.88610(14) -0.18926(10) 0.2685(2)
C8B C -1.75928(19) -0.18426(12) 0.4560(3)
C9B C -1.7286(2) -0.18764(13) 0.5986(3)
H5B H -1.77650 -0.19110 0.66260
C10B C -1.6278(2) -0.18594(13) 0.6470(3)
H6B H -1.60760 -0.18730 0.74430
C11B C -1.5556(2) -0.18230(14) 0.5549(3)
C12B C -1.5876(2) -0.17730(15) 0.4128(3)
H7B H -1.53990 -0.17360 0.34870
C13B C -1.6879(2) -0.17769(14) 0.3641(3)
H8B H -1.70820 -0.17340 0.26710
C14B C -1.86668(19) -0.19266(12) 0.3984(3)
Eu1* Eu 0.990877(8) 0.194269(6) 1.935452(12)
Eu1A Eu -1.990877(8) -0.305731(6) 0.564548(12)
Eu1A* Eu -0.990877(8) -0.305731(6) 0.564548(12)
Eu1B* Eu -1.990877(8) -0.194269(6) 0.064548(12)
Eu1C Eu -0.009123(8) 0.305731(6) 1.435452(12)
Eu1C* Eu 0.990877(8) 0.305731(6) 1.435452(12)
O2A O -1.07824(13) -0.27836(10) 1.15994(19)
O2C O 0.07824(13) 0.27836(10) 0.84006(19)
O3A O -0.93012(13) -0.29683(9) 0.98129(19)
O3C O -0.06988(13) 0.29683(9) 1.01871(19)
O4* O -0.11390(14) 0.18926(10) 0.7315(2)
O4B* O -0.88610(14) -0.18926(10) 1.2685(2)
#END
