
#######################################################################
#
#                 Cambridge Crystallographic Data Centre
#                                CCDC
#
#######################################################################
#
# If this CIF has been generated from an entry in the Cambridge
# Structural Database, then it will include bibliographic, chemical,
# crystal, experimental, refinement or atomic coordinate data resulting
# from the CCDC's data processing and validation procedures.
#
#######################################################################

data_CSD_CIF_KIHYIJ
_audit_creation_date 1991-08-16
_audit_creation_method CSD-ConQuest-V1
_database_code_CSD KIHYIJ
_chemical_formula_sum 'C50 H54 N10 Nd2 O22'
_chemical_formula_moiety
;
(C48 H32 N8 Nd2 O16 2-)n,n(C2 H10 N2 2+),6n(H2 O1)
;
_journal_coeditor_code "IUCr MU0192"
_journal_coden_Cambridge 591
_journal_volume 47
_journal_year 1991
_journal_page_first 294
_journal_name_full 'Acta Crystallogr.,Sect.C:Cryst.Struct.Commun. '
loop_
_publ_author_name
"P.Starynowicz"
_chemical_name_systematic
;
catena-(Ethylenediammonium 
bis(\m~2~-2-pyridinecarboxylato-N,O,O')-hexakis(2-pyridinecarboxylato-N,O)-di-
neodymium hexahydrate)
;
_cell_volume   5917.353
_exptl_crystal_colour 'pink-violet'
_exptl_crystal_density_diffrn 1.611
_diffrn_ambient_temperature 304
#These two values have been output from a single CSD field.
_refine_ls_R_factor_gt 0.0369
_refine_ls_wR_factor_gt 0.0369
_symmetry_cell_setting monoclinic
_symmetry_space_group_name_H-M 'C c'
_symmetry_Int_Tables_number 9
loop_
_symmetry_equiv_pos_site_id
_symmetry_equiv_pos_as_xyz
1 x,y,z
2 1/2+x,1/2+y,z
3 x,-y,1/2+z
4 1/2+x,1/2-y,1/2+z
_cell_length_a 13.654(9)
_cell_length_b 21.813(11)
_cell_length_c 20.136(12)
_cell_angle_alpha 90
_cell_angle_beta 99.36(4)
_cell_angle_gamma 90
_cell_formula_units_Z 4
loop_
_atom_type_symbol
_atom_type_radius_bond
C 0.68
H 0.23
N 0.68
Nd 1.81
O 0.68
loop_
_atom_site_label
_atom_site_type_symbol
_atom_site_fract_x
_atom_site_fract_y
_atom_site_fract_z
Nd1 Nd 0.00000 0.21370(2) 0.00000
Nd2 Nd 0.19194(4) 0.47612(2) -0.02744(3)
O1 O 0.0676(5) 0.2168(3) -0.1045(3)
O2 O 0.1511(8) 0.1855(3) -0.1834(4)
O3 O 0.1803(4) 0.5291(3) 0.0777(3)
O4 O 0.1032(5) 0.5684(3) 0.1563(4)
O5 O 0.0309(4) 0.1386(3) 0.0898(3)
O6 O 0.1314(6) 0.0860(4) 0.1672(4)
O7 O 0.2666(5) 0.3905(3) -0.0805(3)
O8 O 0.3729(6) 0.3123(3) -0.0801(4)
O9 O -0.1484(4) 0.2478(3) 0.0432(3)
O10 O -0.3102(5) 0.2688(3) 0.0290(3)
O11 O 0.0654(4) 0.4578(3) -0.1229(3)
O12 O -0.0723(5) 0.4796(4) -0.1931(4)
O13 O 0.1760(5) 0.3888(3) 0.0445(4)
O14 O 0.0774(5) 0.3135(3) -0.0024(3)
O15 O 0.3007(4) 0.5646(3) -0.0134(3)
O16 O 0.3687(5) 0.6480(3) -0.0493(3)
O17 O -0.5040(5) 0.1194(3) -0.7548(3)
O18 O -0.7451(7) -0.1476(4) -0.7808(4)
O19 O -0.7489(6) -0.0144(3) -0.7748(4)
O20 O -0.1691(6) -0.1177(3) -0.3666(4)
O21 O -0.0252(12) -0.0800(8) -0.2659(8)
O22 O -0.0330(13) -0.1771(11) -0.1915(10)
N1 N 0.0702(6) 0.1051(3) -0.0509(4)
N2 N 0.0134(5) 0.4725(3) 0.0184(4)
N3 N 0.1860(5) 0.1931(4) 0.0466(4)
N4 N 0.3720(5) 0.4382(3) 0.0295(4)
N5 N -0.1359(5) 0.2804(3) -0.0817(4)
N6 N 0.0802(5) 0.5718(3) -0.0731(4)
N7 N 0.0482(5) 0.2735(3) 0.1171(4)
N8 N 0.2621(6) 0.5186(3) -0.1369(3)
N9 N -0.2542(6) 0.2338(4) -0.8410(4)
N10 N -0.3418(6) 0.1805(3) -0.6834(4)
C1 C -0.3287(7) 0.2127(4) -0.7985(4)
C2 C -0.2741(8) 0.1900(5) -0.7323(5)
C3 C 0.0617(8) 0.0486(5) -0.0277(5)
C4 C 0.0910(13) -0.0028(5) -0.0581(8)
C5 C 0.1250(12) 0.0039(5) -0.1186(8)
C6 C 0.1371(11) 0.0627(5) -0.1431(7)
C7 C 0.1063(7) 0.1118(4) -0.1089(4)
C8 C 0.1101(7) 0.1762(4) -0.1341(5)
C9 C -0.0655(7) 0.4389(5) -0.0074(6)
C10 C -0.1453(8) 0.4306(6) 0.0253(7)
C11 C -0.1463(9) 0.4582(7) 0.0856(7)
C12 C -0.0653(9) 0.4928(5) 0.1125(6)
C13 C 0.0146(7) 0.4982(4) 0.0786(5)
C14 C 0.1050(6) 0.5348(4) 0.1070(4)
C15 C 0.2605(8) 0.2206(5) 0.0236(5)
C16 C 0.3620(8) 0.2078(7) 0.0482(6)
C17 C 0.3794(8) 0.1620(7) 0.0964(7)
C18 C 0.3022(7) 0.1346(6) 0.1206(5)
C19 C 0.2059(7) 0.1511(4) 0.0951(4)
C20 C 0.1174(6) 0.1231(4) 0.1197(4)
C21 C 0.4253(8) 0.4640(5) 0.0865(5)
C22 C 0.5123(8) 0.4387(5) 0.1170(6)
C23 C 0.5490(7) 0.3871(5) 0.0914(6)
C24 C 0.4969(7) 0.3612(4) 0.0352(5)
C25 C 0.4071(6) 0.3885(4) 0.0052(4)
C26 C 0.3459(6) 0.3607(4) -0.0569(4)
C27 C -0.1263(8) 0.3003(5) -0.1441(6)
C28 C -0.2039(9) 0.3265(7) -0.1875(6)
C29 C -0.2917(9) 0.3309(6) -0.1661(6)
C30 C -0.3036(8) 0.3122(5) -0.1032(6)
C31 C -0.2223(7) 0.2871(4) -0.0626(4)
C32 C -0.2279(6) 0.2655(4) 0.0096(4)
C33 C 0.0882(7) 0.6295(4) -0.0506(5)
C34 C 0.0222(9) 0.6748(4) -0.0707(6)
C35 C -0.0579(9) 0.6612(5) -0.1176(6)
C36 C -0.0688(8) 0.6024(5) -0.1416(6)
C37 C 0.0028(7) 0.5588(4) -0.1202(5)
C38 C -0.0025(6) 0.4938(4) -0.1481(4)
C39 C 0.0279(7) 0.2555(5) 0.1781(5)
C40 C 0.0542(11) 0.2897(6) 0.2355(6)
C41 C 0.1016(11) 0.3440(6) 0.2322(7)
C42 C 0.1215(10) 0.3639(5) 0.1708(6)
C43 C 0.0960(6) 0.3266(4) 0.1150(4)
C44 C 0.1186(6) 0.3442(3) 0.0467(4)
C45 C 0.2495(8) 0.4929(5) -0.1983(5)
C46 C 0.2883(9) 0.5164(6) -0.2513(5)
C47 C 0.3424(10) 0.5696(6) -0.2423(6)
C48 C 0.3535(8) 0.5973(5) -0.1797(6)
C49 C 0.3145(6) 0.5709(4) -0.1286(4)
C50 C 0.3300(6) 0.5965(4) -0.0585(4)
H1 H -0.3641(56) 0.1810(28) -0.8266(35)
H2 H -0.3840(42) 0.2411(30) -0.8019(44)
H3 H -0.2289(51) 0.2230(27) -0.7157(41)
H4 H -0.2454(62) 0.1525(23) -0.7464(44)
H5 H 0.0156(57) 0.0511(43) 0.0042(39)
H6 H 0.0851(72) -0.0443(17) -0.0419(45)
H7 H 0.1260(73) -0.0330(28) -0.1455(43)
H8 H 0.1791(56) 0.0616(45) -0.1777(33)
H9 H -0.0659(69) 0.4180(38) -0.0500(24)
H10 H -0.1921(54) 0.4071(38) -0.0064(36)
H11 H -0.1875(59) 0.4490(45) 0.1193(36)
H12 H -0.0570(73) 0.5078(41) 0.1585(18)
H13 H 0.2402(67) 0.2576(25) -0.0017(39)
H14 H 0.3972(60) 0.1907(42) 0.0143(35)
H15 H 0.4460(29) 0.1481(41) 0.1142(43)
H16 H 0.31520 0.10980 0.16180
H17 H 0.3985(65) 0.5044(20) 0.0934(50)
H18 H 0.5685(46) 0.4567(39) 0.1463(39)
H19 H 0.5931(56) 0.3548(29) 0.1113(43)
H20 H 0.5006(77) 0.3198(17) 0.0178(43)
H21 H -0.0565(21) 0.2924(41) -0.1148(48)
H22 H -0.1886(66) 0.3482(37) -0.2266(29)
H23 H -0.3476(46) 0.3506(39) -0.1939(39)
H24 H -0.3601(43) 0.3224(42) -0.0815(42)
H25 H 0.1561(26) 0.6324(44) -0.0272(42)
H26 H 0.0497(63) 0.7156(19) -0.0623(47)
H27 H -0.1065(54) 0.6936(31) -0.1287(48)
H28 H -0.1248(46) 0.5842(39) -0.1707(40)
H29 H -0.0165(60) 0.2233(32) 0.1882(47)
H30 H 0.0301(64) 0.2760(42) 0.2758(27)
H31 H 0.0928(70) 0.3619(41) 0.2750(24)
H32 H 0.1652(57) 0.3993(27) 0.1742(48)
H33 H 0.1976(55) 0.4636(36) -0.1936(48)
H34 H 0.2907(70) 0.4974(39) -0.2946(23)
H35 H 0.3616(68) 0.5915(36) -0.2801(31)
H36 H 0.3829(61) 0.6373(20) -0.1685(48)
H37 H -0.4693(75) 0.1079(40) -0.7815(43)
H38 H -0.7708(82) -0.1478(41) -0.7471(38)
H39 H -0.7703(70) 0.0187(26) -0.7890(53)
H40 H -0.2129(44) 0.2673(22) -0.8225(33)
H41 H -0.5041(78) 0.0908(34) -0.7289(43)
H42 H -0.6968(53) -0.0064(40) -0.7505(49)
H43 H -0.279(5) 0.2463(28) -0.8864(20)
H44 H -0.2085(42) 0.2013(24) -0.8457(33)
H45 H -0.3600(47) 0.218(2) -0.6638(31)
H46 H -0.23240 -0.10430 -0.37040
H47 H -0.3145(49) 0.1556(25) -0.6457(24)
H48 H -0.4040(31) 0.1613(26) -0.7009(34)
H49 H -0.7285(83) -0.1122(24) -0.7848(49)
O16A O -0.1313(5) 0.1480(3) -0.0493(3)
Nd1A Nd 0.50000 0.71370(2) 0.00000
#END
