
#######################################################################
#
#                 Cambridge Crystallographic Data Centre
#                                CCDC
#
#######################################################################
#
# If this CIF has been generated from an entry in the Cambridge
# Structural Database, then it will include bibliographic, chemical,
# crystal, experimental, refinement or atomic coordinate data resulting
# from the CCDC's data processing and validation procedures.
#
#######################################################################

data_CSD_CIF_KIJJIY
_audit_creation_date 2013-09-09
_audit_creation_method CSD-ConQuest-V1
_database_code_CSD KIJJIY
_database_code_depnum_ccdc_archive 'CCDC 912477'
_chemical_formula_sum 'C34.3 H39 Cu2 N4 Na4 O25.2 S2'
_chemical_formula_moiety
;
(C32 H18 Cu2 N4 O17 S2 4-)n,2.3n(C1 H4 O1),5.9n(H2 O1),4n(Na1 1+)
;
_journal_coden_Cambridge 1147
_journal_volume 13
_journal_year 2013
_journal_page_first 2711
_journal_name_full 'Cryst.Growth Des. '
loop_
_publ_author_name
"R.A.A.Cassaro"
"S.Ciattini"
"S.Soriano"
"H.S.Amorim"
"N.L.Speziali"
"M.Andruh"
"M.G.F.Vaz"
_chemical_name_systematic
;
catena-[tetra-sodium 
(\m~3~-2,2'-(sulfonylbis(4,1-phenyleneimino))bis(oxoacetato))-(\m~2~-2,2'-(sul
fonylbis(4,1-phenyleneimino))bis(oxoacetato))-aqua-di-copper methanol solvate 
hydrate]
;
_cell_volume   4376.983
_exptl_crystal_colour 'green'
_exptl_crystal_density_diffrn 1.811
_exptl_crystal_description 'block'
_diffrn_ambient_temperature 140
#These two values have been output from a single CSD field.
_refine_ls_R_factor_gt 0.0727
_refine_ls_wR_factor_gt 0.0727
_symmetry_cell_setting monoclinic
_symmetry_space_group_name_H-M 'P 21/c'
_symmetry_Int_Tables_number 14
loop_
_symmetry_equiv_pos_site_id
_symmetry_equiv_pos_as_xyz
1 x,y,z
2 -x,1/2+y,1/2-z
3 -x,-y,-z
4 x,-1/2-y,-1/2+z
_cell_length_a 14.962(4)
_cell_length_b 22.172(4)
_cell_length_c 14.887(2)
_cell_angle_alpha 90
_cell_angle_beta 117.59(3)
_cell_angle_gamma 90
_cell_formula_units_Z 4
loop_
_atom_type_symbol
_atom_type_radius_bond
C 0.68
H 0.23
Cu 1.32
N 0.68
Na 1.66
O 0.68
S 1.02
loop_
_atom_site_label
_atom_site_type_symbol
_atom_site_fract_x
_atom_site_fract_y
_atom_site_fract_z
Cu1 Cu -0.96053(6) 0.49846(4) 0.72884(7)
Cu2 Cu -0.57208(7) 0.08935(4) 0.40844(7)
S1 S -0.37316(14) 0.39649(8) 0.47817(15)
N1 N -0.0966(4) 0.4280(2) 0.2957(4)
N2 N -0.4867(4) 0.1405(2) 0.3691(5)
O1 O 0.0268(3) 0.4457(2) 0.2194(3)
O2 O 0.0442(3) 0.3480(2) 0.2009(4)
O3 O -0.1025(4) 0.3254(2) 0.2607(4)
O4 O -0.3176(3) 0.4008(2) 0.5877(4)
O5 O -0.4585(3) 0.4351(2) 0.4261(4)
O6 O -0.3613(4) 0.1281(2) 0.3193(4)
O7 O -0.4126(4) 0.0065(2) 0.2937(4)
O8 O -0.5176(4) 0.0248(2) 0.3584(4)
C1 C -0.2894(5) 0.4083(3) 0.4271(5)
C2 C -0.1963(5) 0.3810(3) 0.4720(5)
H1 H -0.17570 0.35810 0.53230
C3 C -0.1331(5) 0.3874(3) 0.4284(6)
H2 H -0.06840 0.36910 0.45900
C4 C -0.1635(5) 0.4204(3) 0.3405(6)
C5 C -0.2566(5) 0.4489(3) 0.2963(5)
H3 H -0.27630 0.47280 0.23720
C6 C -0.3208(5) 0.4420(3) 0.3397(6)
H4 H -0.38560 0.46020 0.30950
C7 C -0.0716(5) 0.3777(4) 0.2633(5)
C8 C 0.0060(5) 0.3904(3) 0.2245(5)
C9 C -0.4109(5) 0.3216(3) 0.4467(6)
C10 C -0.3510(5) 0.2762(3) 0.5111(6)
H5 H -0.29330 0.28640 0.57260
C11 C -0.3754(6) 0.2160(4) 0.4857(6)
H6 H -0.33490 0.18480 0.52940
C12 C -0.4600(6) 0.2021(3) 0.3951(6)
C13 C -0.5187(6) 0.2470(3) 0.3317(6)
H7 H -0.57630 0.23690 0.27000
C14 C -0.4942(5) 0.3070(3) 0.3575(6)
H8 H -0.53480 0.33800 0.31350
C15 C -0.4296(6) 0.1089(3) 0.3375(6)
C16 C -0.4547(6) 0.0408(4) 0.3264(6)
S2 S -0.63511(13) 0.40856(8) 0.50147(14)
N3 N -0.6659(4) 0.1447(3) 0.4282(4)
N4 N -0.9283(4) 0.4296(2) 0.6655(4)
O9 O -0.6623(4) 0.0273(2) 0.4177(4)
O10 O -0.8158(3) 0.0176(2) 0.4085(4)
O11 O -0.8246(4) 0.1394(2) 0.4199(4)
O12 O -0.5369(3) 0.4204(2) 0.5838(4)
O13 O -0.6712(3) 0.4431(2) 0.4087(4)
O14 O -0.9481(3) 0.3254(2) 0.6585(4)
O15 O -1.0919(4) 0.3431(2) 0.7235(4)
O16 O -1.0386(3) 0.4377(2) 0.7584(3)
C17 C -0.6415(5) 0.3314(3) 0.4737(5)
C18 C -0.5703(5) 0.2931(3) 0.5456(6)
H9 H -0.51660 0.30900 0.60570
C19 C -0.5791(5) 0.2322(3) 0.5282(6)
H10 H -0.53040 0.20560 0.57590
C20 C -0.6594(5) 0.2087(3) 0.4407(5)
C21 C -0.7290(5) 0.2475(3) 0.3693(6)
H11 H -0.78230 0.23190 0.30880
C22 C -0.7204(5) 0.3089(3) 0.3866(6)
H12 H -0.76870 0.33570 0.33880
C23 C -0.7487(6) 0.1173(3) 0.4206(5)
C24 C -0.7433(6) 0.0484(3) 0.4137(6)
C25 C -0.7235(5) 0.4167(3) 0.5468(5)
C26 C -0.8129(5) 0.4480(3) 0.4932(5)
H13 H -0.82770 0.46620 0.43010
C27 C -0.8806(5) 0.4524(3) 0.5322(5)
H14 H -0.94120 0.47460 0.49640
C28 C -0.8609(5) 0.4247(3) 0.6227(6)
C29 C -0.7710(5) 0.3925(3) 0.6746(6)
H15 H -0.75740 0.37270 0.73620
C30 C -0.7019(5) 0.3891(3) 0.6379(6)
H16 H -0.64020 0.36800 0.67470
C31 C -0.9651(5) 0.3776(4) 0.6792(5)
C32 C -1.0392(6) 0.3851(4) 0.7240(5)
O17 O -0.4548(4) 0.0856(2) 0.5732(4)
H17 H -0.417(5) 0.070(3) 0.552(6)
H18 H -0.476(5) 0.056(2) 0.594(6)
Na1 Na -0.0276(2) 0.25235(12) 0.2038(2)
Na2 Na 0.0700(2) 0.07215(13) 0.4521(2)
Na3 Na -0.2139(2) 0.13745(14) 0.2872(2)
O18 O -0.0452(5) 0.1490(2) 0.4365(5)
H19 H -0.073(6) 0.173(3) 0.387(3)
H20 H -0.035(6) 0.170(3) 0.488(3)
Na4 Na -0.3880(2) 0.02077(12) 0.1560(2)
O19 O 0.0626(4) 0.2365(2) 0.3876(4)
H21 H 0.108(4) 0.210(3) 0.396(6)
C33 C 0.1023(6) 0.2786(4) 0.4739(7)
H22 H 0.13440 0.25580 0.53750
H23 H 0.04690 0.30280 0.47260
H24 H 0.15220 0.30530 0.46920
O20 O -0.2187(4) 0.2457(2) 0.3089(5)
H25 H -0.179(5) 0.268(3) 0.299(6)
C34 C -0.3146(6) 0.2734(4) 0.2664(7)
H26 H -0.30660 0.31690 0.27990
H27 H -0.35460 0.25610 0.29670
H28 H -0.34920 0.26650 0.19300
O21 O -0.2100(4) 0.0300(2) 0.2839(4)
H29 H -0.157(4) 0.023(3) 0.277(5)
H30 H -0.209(5) 0.001(2) 0.321(5)
O22 O -0.1367(4) 0.2792(3) 0.0354(5)
H31 H -0.155(5) 0.3160(13) 0.034(6)
H32 H -0.185(4) 0.263(3) -0.014(4)
O23 O 0.1751(4) 0.0887(3) 0.6261(4)
H33 H 0.143(5) 0.102(3) 0.656(5)
C35 C 0.266(2) 0.1193(14) 0.662(2)
O24 O 0.0267(7) -0.0223(4) 0.4817(8)
O25 O -0.7946(6) -0.0980(4) 0.4803(6)
H34 H -0.750(6) -0.088(5) 0.463(7)
H35 H -0.768(7) -0.094(5) 0.544(2)
O26? O 0.3716(5) 0.1102(3) 0.6572(5)
Cu1B Cu -0.03947(6) 0.50154(4) 0.27116(7)
Cu1C Cu -0.96053(6) 0.00154(4) 0.22884(7)
N1B N -0.9034(4) 0.5720(2) 0.7043(4)
O1B O -1.0268(3) 0.5543(2) 0.7806(3)
O10C O -0.8158(3) 0.4824(2) 0.9085(4)
#END
