
#######################################################################
#
#                 Cambridge Crystallographic Data Centre
#                                CCDC
#
#######################################################################
#
# If this CIF has been generated from an entry in the Cambridge
# Structural Database, then it will include bibliographic, chemical,
# crystal, experimental, refinement or atomic coordinate data resulting
# from the CCDC's data processing and validation procedures.
#
#######################################################################

data_CSD_CIF_KIJJOF
_audit_creation_date 2018-09-12
_audit_creation_method CSD-ConQuest-V1
_database_code_CSD KIJJOF
_database_code_depnum_ccdc_archive 'CCDC 1051844'
_chemical_formula_sum 'C51 H87 Cs3 N18 O15'
_chemical_formula_moiety
;
3(H4 N1 1+),n(C51 H75 Cs3 N15 O15 3-)
;
_journal_coden_Cambridge 1295
_journal_volume 96
_journal_year 2018
_journal_page_first 43
_journal_name_full 'Inorg.Chem.Commun. '
loop_
_publ_author_name
"Dan-Feng He"
"Fu-jiang Zhou"
"Jin-Jun Deng"
"Fang Luo"
"Han Xue"
"Fan-kun Meng"
"Li-qun Sun"
"Hong-sheng Liu"
"Shu-Xia Liu"
_chemical_name_systematic
;
catena-[tris(ammonium) 
bis(\m-1,1',1''-(benzene-1,3-5-triyl)tripiperidine-4-carboxylato)-tris(N,N-dim
ethylformamide)-tri-cesium]
;
_cell_volume   3420.127
_exptl_crystal_colour 'colorless'
_exptl_crystal_description 'block'
_diffrn_ambient_temperature 293
_refine_special_details
;
Disordered cations were not modelled and the disordered density was taken 
into account using the SQUEEZE/PLATON procedure.
;
#These two values have been output from a single CSD field.
_refine_ls_R_factor_gt 0.0857
_refine_ls_wR_factor_gt 0.0857
_symmetry_cell_setting triclinic
_symmetry_space_group_name_H-M 'P -1'
_symmetry_Int_Tables_number 2
loop_
_symmetry_equiv_pos_site_id
_symmetry_equiv_pos_as_xyz
1 x,y,z
2 -x,-y,-z
_cell_length_a 15.009(5)
_cell_length_b 15.717(5)
_cell_length_c 16.170(5)
_cell_angle_alpha 64.991(5)
_cell_angle_beta 85.861(5)
_cell_angle_gamma 81.675(5)
_cell_formula_units_Z 2
loop_
_atom_type_symbol
_atom_type_radius_bond
C 0.68
H 0.23
Cs 2.44
N 0.68
O 0.68
loop_
_atom_site_label
_atom_site_type_symbol
_atom_site_fract_x
_atom_site_fract_y
_atom_site_fract_z
C1 C 0.4657(6) -0.4211(4) 1.0773(5)
C2 C 0.5788(6) -0.5088(4) 1.1732(5)
C3 C 0.6065(5) -0.4316(4) 1.0230(5)
C4 C 0.6355(6) -0.3520(5) 0.8587(5)
H1 H 0.57060 -0.34790 0.85620
H2 H 0.66210 -0.38070 0.81860
C5 C 0.6622(5) -0.2529(5) 0.8254(5)
H3 H 0.64690 -0.21720 0.76160
H4 H 0.62860 -0.22060 0.85970
C6 C 0.7620(5) -0.2566(5) 0.8369(5)
H5 H 0.793(5) -0.284(6) 0.797(6)
C7 C 0.7915(5) -0.3224(6) 0.9337(6)
H6 H 0.85650 -0.32920 0.93700
H7 H 0.76590 -0.29510 0.97520
C8 C 0.7611(6) -0.4191(6) 0.9623(6)
H8 H 0.79270 -0.44970 0.92570
H9 H 0.77630 -0.45820 1.02570
C9 C 0.5451(7) -0.6126(5) 1.3333(5)
H10 H 0.48590 -0.57610 1.31910
H11 H 0.56430 -0.61430 1.39000
C10 C 0.5398(6) -0.7126(5) 1.3446(5)
H12 H 0.51380 -0.71040 1.29050
H13 H 0.50090 -0.74320 1.39630
C11 C 0.6326(5) -0.7697(5) 1.3598(5)
H14 H 0.655(5) -0.777(5) 1.418(6)
C12 C 0.6983(5) -0.7182(5) 1.2850(5)
H15 H 0.75840 -0.75200 1.30000
H16 H 0.68170 -0.71740 1.22770
C13 C 0.6983(6) -0.6173(6) 1.2738(5)
H17 H 0.72310 -0.61820 1.32800
H18 H 0.73630 -0.58470 1.22210
C14 C 0.3127(6) -0.3979(5) 1.1371(6)
H19 H 0.34250 -0.43460 1.19510
H20 H 0.26670 -0.43290 1.13220
C15 C 0.2694(6) -0.3035(5) 1.1338(5)
H21 H 0.31420 -0.27280 1.14760
H22 H 0.22230 -0.31380 1.18000
C16 C 0.2294(5) -0.2387(5) 1.0406(5)
H23 H 0.180(5) -0.268(6) 1.032(5)
C17 C 0.2981(5) -0.2312(5) 0.9657(5)
H24 H 0.34450 -0.19570 0.96860
H25 H 0.26900 -0.19670 0.90700
C18 C 0.3411(6) -0.3270(6) 0.9728(5)
H26 H 0.29660 -0.35910 0.96050
H27 H 0.38890 -0.31890 0.92740
C19 C 0.1889(5) -0.1432(5) 1.0375(5)
C20 C 0.7795(6) 0.2309(5) 0.6427(5)
H28 H 0.744(6) 0.264(6) 0.676(6)
C21 C 0.8777(5) 0.2280(5) 0.6608(5)
H29 H 0.88760 0.19810 0.72610
H30 H 0.91460 0.18990 0.63390
C22 C 0.9066(6) 0.3259(5) 0.6217(4)
H31 H 0.87750 0.36050 0.65580
H32 H 0.97120 0.32060 0.62820
C23 C 0.7885(6) 0.3868(5) 0.5084(5)
H33 H 0.77780 0.42120 0.44350
H34 H 0.75390 0.42200 0.53940
C24 C 0.7589(5) 0.2899(5) 0.5420(5)
H35 H 0.78940 0.25740 0.50650
H36 H 0.69460 0.29650 0.53280
C25 C 0.7461(6) 0.1353(5) 0.6755(6)
C26 C 0.9445(5) 0.4158(4) 0.4601(4)
C27 C 1.0888(5) 0.4355(4) 0.4176(5)
C28 C 0.9802(6) 0.5010(4) 0.3138(5)
C29 C 0.8603(6) 0.5890(6) 0.2013(5)
H37 H 0.82240 0.54860 0.24840
H38 H 0.84880 0.58560 0.14460
C30 C 0.8359(6) 0.6891(6) 0.1906(6)
H39 H 0.83940 0.69110 0.24940
H40 H 0.77430 0.71090 0.16980
C31 C 1.0145(6) 0.6122(5) 0.1577(5)
H41 H 1.00730 0.60910 0.10000
H42 H 1.07620 0.58740 0.17710
C32 C 0.9960(5) 0.7144(5) 0.1452(5)
H43 H 1.03410 0.75220 0.09620
H44 H 1.01140 0.71820 0.20070
C33 C 0.8979(5) 0.7550(5) 0.1229(5)
H45 H 0.886(5) 0.759(5) 0.062(6)
C34 C 0.8837(7) 0.8535(6) 0.1177(6)
C35 C 1.2504(6) 0.4247(5) 0.3746(5)
H46 H 1.30020 0.45120 0.38600
H47 H 1.22890 0.46480 0.31340
C36 C 1.2057(6) 0.3637(5) 0.5345(5)
H48 H 1.15620 0.36500 0.57600
H49 H 1.25490 0.38920 0.54820
C37 C 1.2360(5) 0.2626(5) 0.5480(5)
H50 H 1.18510 0.23520 0.54020
H51 H 1.25760 0.22580 0.60970
C38 C 1.3113(5) 0.2576(5) 0.4796(5)
H52 H 1.364(6) 0.279(6) 0.493(5)
C39 C 1.3390(6) 0.1580(6) 0.4880(6)
C40 C 1.2819(6) 0.3252(6) 0.3828(5)
H53 H 1.33200 0.32710 0.34080
H54 H 1.23340 0.30160 0.36550
C41 C 0.6254(6) -0.8672(5) 1.3653(6)
C42 C 1.0713(19) -0.260(3) 0.847(3)
H55 H 1.10490 -0.22520 0.79690
C43 C 1.0239(16) -0.3039(14) 0.7401(14)
H56 H 1.01320 -0.23780 0.70010
H57 H 0.96980 -0.33220 0.74650
H58 H 1.07100 -0.33450 0.71500
C44 C 1.034(2) -0.4186(19) 0.908(2)
H59 H 1.06780 -0.42780 0.96020
H60 H 1.05560 -0.46790 0.88850
H61 H 0.97170 -0.42030 0.92370
C45 C 0.4575(15) 1.034(2) 0.1114(16)
H62 H 0.43240 0.98130 0.15300
C46 C 0.438(3) 1.157(2) -0.0221(17)
H63 H 0.47350 1.18430 0.00530
H64 H 0.38550 1.20170 -0.04930
H65 H 0.47260 1.14390 -0.06820
C47 C 0.3288(17) 1.058(3) 0.026(3)
H66 H 0.32900 1.06740 -0.03660
H67 H 0.28260 1.10190 0.03580
H68 H 0.31710 0.99440 0.06470
C48 C 0.7926(6) -0.1606(6) 0.8087(7)
Cs1 Cs 0.55697(4) -0.00047(4) 0.64511(4)
Cs2 Cs 0.96962(3) -0.01332(4) 0.84771(4)
Cs3 Cs 0.71226(5) 0.98274(4) 0.22820(4)
N1 N 1.0309(4) 0.3981(4) 0.4867(4)
N2 N 1.0690(4) 0.4852(4) 0.3295(4)
N3 N 0.9146(4) 0.4677(4) 0.3742(4)
N4 N 0.4901(5) -0.4774(4) 1.1642(4)
N5 N 0.6404(5) -0.4867(4) 1.1057(4)
N6 N 0.5191(5) -0.3972(4) 1.0050(4)
N7 N 0.8835(4) 0.3777(4) 0.5261(4)
N8 N 0.9537(5) 0.5550(4) 0.2251(4)
N9 N 1.1773(4) 0.4215(4) 0.4414(4)
N10 N 0.6648(5) -0.4111(5) 0.9511(4)
N11 N 0.3779(5) -0.3844(5) 1.0632(4)
N12 N 0.6089(5) -0.5669(4) 1.2598(4)
N13 N 1.0489(8) -0.3142(10) 0.8237(9)
N14 N 0.4096(7) 1.0714(11) 0.0467(9)
O1 O 0.7410(5) -0.0886(4) 0.7584(5)
O2 O 0.1713(6) -0.1310(4) 1.1058(4)
O3 O 0.1721(5) -0.0773(4) 0.9575(4)
O4 O 0.6318(6) -0.9354(4) 1.4429(4)
O5 O 0.6121(5) -0.8771(4) 1.2968(5)
O6 O 0.6663(5) 0.1317(5) 0.6678(8)
O7 O 0.8038(4) 0.0631(4) 0.7093(5)
O8 O 0.8645(7) -0.1540(5) 0.8303(10)
O9 O 0.8778(8) 0.8655(5) 0.1895(5)
O10 O 0.8901(5) 0.9216(4) 0.0444(4)
O11 O 1.3402(7) 0.0920(4) 0.5620(5)
O12 O 1.3566(11) 0.1451(6) 0.4200(8)
O13 O 0.5202(8) 1.0377(10) 0.1411(9)
O14 O 1.0774(16) -0.2266(18) 0.889(2)
C49 C 0.530(2) 0.7667(15) 0.321(3)
H69 H 0.47580 0.78560 0.34420
C50 C 0.6174(14) 0.6330(18) 0.2973(19)
H70 H 0.66940 0.66150 0.29850
H71 H 0.62360 0.56840 0.34190
H72 H 0.61210 0.63470 0.23780
C51 C 0.4656(18) 0.627(2) 0.341(3)
H73 H 0.46280 0.60300 0.29550
H74 H 0.47640 0.57500 0.39940
H75 H 0.40960 0.66440 0.34260
N15 N 0.5376(9) 0.6846(8) 0.318(1)
O15 O 0.5836(15) 0.8193(12) 0.2970(16)
Cs1* Cs 0.55697(4) -1.00047(4) 1.64511(4)
Cs1** Cs 1.55697(4) -0.00047(4) 0.64511(4)
Cs1A Cs 0.44303(4) -0.99953(4) 1.35489(4)
Cs1A* Cs 0.44303(4) 1.00047(4) 0.35489(4)
Cs1A** Cs 1.44303(4) 0.00047(4) 0.35489(4)
Cs2* Cs -0.03038(3) -0.01332(4) 0.84771(4)
Cs2** Cs 0.96962(3) 0.98668(4) -0.15229(4)
Cs2A Cs 0.03038(3) 0.01332(4) 1.15229(4)
Cs2A* Cs 1.03038(3) 1.01332(4) 0.15229(4)
Cs3* Cs 0.71226(5) -1.01726(4) 1.22820(4)
Cs3A Cs 0.28774(5) 0.01726(4) 0.77180(4)
Cs3A* Cs 1.28774(5) 0.01726(4) 0.77180(4)
O2A O 0.8287(6) 0.1310(4) 0.8942(4)
O3* O 1.1721(5) -0.0773(4) 0.9575(4)
O3A O 0.8279(5) 1.0773(4) 0.0425(4)
O4* O 0.6318(6) 0.0646(4) 0.4429(4)
O5* O 0.6121(5) 1.1229(4) 0.2968(5)
O5A O 0.3879(5) -0.1229(4) 0.7032(5)
O9A O 1.1222(8) 0.1345(5) 0.8105(5)
O10* O 0.8901(5) -0.0784(4) 1.0444(4)
O10A O 1.1099(5) 0.0784(4) 0.9556(4)
O11* O 0.3402(7) 0.0920(4) 0.5620(5)
O11A O 0.6598(7) 0.9080(4) 0.4380(5)
O12A O 0.6434(11) -0.1451(6) 0.5800(8)
O13A O 0.4798(8) -0.0377(10) 0.8589(9)
#END
