
#######################################################################
#
#                 Cambridge Crystallographic Data Centre
#                                CCDC
#
#######################################################################
#
# If this CIF has been generated from an entry in the Cambridge
# Structural Database, then it will include bibliographic, chemical,
# crystal, experimental, refinement or atomic coordinate data resulting
# from the CCDC's data processing and validation procedures.
#
#######################################################################

data_CSD_CIF_KIJNOJ
_audit_creation_date 2018-09-12
_audit_creation_method CSD-ConQuest-V1
_database_code_CSD KIJNOJ
_database_code_depnum_ccdc_archive 'CCDC 1867270'
_chemical_formula_sum 'C10 H20 Mn2 N2 O16 P2'
_chemical_formula_moiety
;
(C4 H4 Mn2 O16 P2 2-)n,C6 H16 N2 2+
;
_journal_coden_Cambridge 1295
_journal_volume 96
_journal_year 2018
_journal_page_first 65
_journal_name_full 'Inorg.Chem.Commun. '
loop_
_publ_author_name
"Lindong Luan"
"Guohong Zou"
"Zhien Lin"
"Huaqiang Cai"
"Hui Huang"
_chemical_name_systematic
;
catena-[1,4-dimethylpiperazine-1,4-diium bis(\m-oxalato)-bis(dihydrogen 
phosphato)-di-manganese(ii)]
;
_cell_volume    516.328
_exptl_crystal_colour 'yellow'
_exptl_crystal_density_diffrn 1.917
_exptl_crystal_description 'prism'
_diffrn_ambient_temperature 293
#These two values have been output from a single CSD field.
_refine_ls_R_factor_gt 0.025
_refine_ls_wR_factor_gt 0.025
_symmetry_cell_setting triclinic
_symmetry_space_group_name_H-M 'P -1'
_symmetry_Int_Tables_number 2
loop_
_symmetry_equiv_pos_site_id
_symmetry_equiv_pos_as_xyz
1 x,y,z
2 -x,-y,-z
_cell_length_a 5.8528(4)
_cell_length_b 8.1833(5)
_cell_length_c 11.1334(5)
_cell_angle_alpha 103.958(5)
_cell_angle_beta 93.550(4)
_cell_angle_gamma 90.572(5)
_cell_formula_units_Z 1
loop_
_atom_type_symbol
_atom_type_radius_bond
C 0.68
H 0.23
Mn 1.61
N 0.68
O 0.68
P 1.05
loop_
_atom_site_label
_atom_site_type_symbol
_atom_site_fract_x
_atom_site_fract_y
_atom_site_fract_z
Mn1 Mn 0.11036(4) 0.20338(3) 0.08370(2)
P1 P 0.08892(9) 0.07442(6) 0.34827(4)
O1 O 0.1135(3) 0.19344(18) 0.26678(12)
O2 O 0.2104(3) 0.13358(18) 0.47500(12)
O3 O -0.1736(2) 0.0477(2) 0.35860(13)
H1 H -0.19290 -0.00610 0.41060
O4 O 0.1848(3) -0.10327(19) 0.29130(14)
H2 H 0.10380 -0.15010 0.22960
O5 O 0.4885(2) 0.21183(17) 0.07730(13)
O6 O 0.7911(2) 0.05105(16) 0.02474(12)
O7 O 0.0749(2) 0.47577(17) 0.14820(11)
O8 O -0.0242(3) 0.70620(16) 0.08561(11)
C1 C 0.5788(3) 0.0780(2) 0.03031(16)
C2 C 0.0153(3) 0.5522(2) 0.06809(15)
C3 C 0.3228(3) 0.5725(3) 0.57615(19)
H3 H 0.40410 0.66790 0.63170
H4 H 0.16520 0.57360 0.59860
C4 C 0.3286(3) 0.5893(3) 0.44464(19)
H5 H 0.24100 0.49720 0.38920
H6 H 0.25980 0.69420 0.43740
C5 C 0.4118(4) 0.3906(3) 0.71904(18)
H7 H 0.48830 0.29010 0.72690
H8 H 0.25340 0.38120 0.73480
H9 H 0.48220 0.48600 0.77790
N1 N 0.4299(3) 0.4131(2) 0.59115(14)
H10 H 0.34590 0.31900 0.53360
O5A O 0.5115(2) -0.21183(17) -0.07730(13)
O6A O 0.2089(2) -0.05105(16) -0.02474(12)
C1A C 0.4212(3) -0.0780(2) -0.03031(16)
O7A O -0.0749(2) 0.52423(17) -0.14820(11)
O8A O 0.0242(3) 0.29380(16) -0.08561(11)
C2A C -0.0153(3) 0.4478(2) -0.06809(15)
Mn1A Mn -0.11036(4) -0.20338(3) -0.08370(2)
P1A P -0.08892(9) -0.07442(6) -0.34827(4)
O1A O -0.1135(3) -0.19344(18) -0.26678(12)
O2A O -0.2104(3) -0.13358(18) -0.47500(12)
O3A O 0.1736(2) -0.0477(2) -0.35860(13)
H1A H 0.19290 0.00610 -0.41060
O4A O -0.1848(3) 0.10327(19) -0.29130(14)
H2A H -0.10380 0.15010 -0.22960
Mn1* Mn 1.11036(4) 0.20338(3) 0.08370(2)
Mn1A* Mn -0.11036(4) 0.79662(3) -0.08370(2)
Mn1A** Mn 0.88964(4) -0.20338(3) -0.08370(2)
O5A* O -0.4885(2) -0.21183(17) -0.07730(13)
O6* O -0.2089(2) 0.05105(16) 0.02474(12)
O7A* O -0.0749(2) -0.47577(17) -0.14820(11)
O8* O -0.0242(3) -0.29380(16) 0.08561(11)
C3A C 0.6772(3) 0.4275(3) 0.42385(19)
H3A H 0.59590 0.33210 0.36830
H4A H 0.83480 0.42640 0.40140
C4A C 0.6714(3) 0.4107(3) 0.55536(19)
H5A H 0.75900 0.50280 0.61080
H6A H 0.74020 0.30580 0.56260
C5A C 0.5882(4) 0.6094(3) 0.28096(18)
H7A H 0.51170 0.70990 0.27310
H8A H 0.74660 0.61880 0.26520
H9A H 0.51780 0.51400 0.22210
N1A N 0.5701(3) 0.5869(2) 0.40885(14)
H10A H 0.65410 0.68100 0.46640
#END
