
#######################################################################
#
#                 Cambridge Crystallographic Data Centre
#                                CCDC
#
#######################################################################
#
# If this CIF has been generated from an entry in the Cambridge
# Structural Database, then it will include bibliographic, chemical,
# crystal, experimental, refinement or atomic coordinate data resulting
# from the CCDC's data processing and validation procedures.
#
#######################################################################

data_CSD_CIF_KIJPAX
_audit_creation_date 2018-09-12
_audit_creation_method CSD-ConQuest-V1
_database_code_CSD KIJPAX
_database_code_depnum_ccdc_archive 'CCDC 1867271'
_chemical_formula_sum 'C16 H48 In4 N4 O42 P8'
_chemical_formula_moiety
;
(C4 H12 In4 O40 P8 4-)n,2(C6 H16 N2 2+),2(H2 O1)
;
_journal_coden_Cambridge 1295
_journal_volume 96
_journal_year 2018
_journal_page_first 65
_journal_name_full 'Inorg.Chem.Commun. '
loop_
_publ_author_name
"Lindong Luan"
"Guohong Zou"
"Zhien Lin"
"Huaqiang Cai"
"Hui Huang"
_chemical_name_systematic
;
catena-[bis(1,4-dimethylpiperazine-1,4-diium) 
bis(\m-oxalato)-tetrakis(\m-dihydrogen phosphato)-tetrakis(\m-hydrogen 
;
_cell_volume   1185.241
_exptl_crystal_colour 'colorless'
_exptl_crystal_density_diffrn 2.348
_exptl_crystal_description 'block'
_diffrn_ambient_temperature 293
#These two values have been output from a single CSD field.
_refine_ls_R_factor_gt 0.0238
_refine_ls_wR_factor_gt 0.0238
_symmetry_cell_setting triclinic
_symmetry_space_group_name_H-M 'P -1'
_symmetry_Int_Tables_number 2
loop_
_symmetry_equiv_pos_site_id
_symmetry_equiv_pos_as_xyz
1 x,y,z
2 -x,-y,-z
_cell_length_a 7.9684(3)
_cell_length_b 11.9582(4)
_cell_length_c 12.5204(4)
_cell_angle_alpha 89.946(3)
_cell_angle_beta 84.035(3)
_cell_angle_gamma 87.287(2)
_cell_formula_units_Z 1
loop_
_atom_type_symbol
_atom_type_radius_bond
C 0.68
H 0.23
In 1.42
N 0.68
O 0.68
P 1.05
loop_
_atom_site_label
_atom_site_type_symbol
_atom_site_fract_x
_atom_site_fract_y
_atom_site_fract_z
In1 In 0.70223(2) 0.49607(2) 0.14468(2)
In2 In 0.29548(3) 0.85567(2) 0.48983(2)
P1 P 0.38316(10) 0.34928(7) 0.07773(6)
P2 P 0.86427(9) 0.29241(6) 0.29773(6)
P3 P 0.51108(11) 0.71982(7) 0.28303(7)
P4 P 0.59484(10) 0.90899(7) 0.64806(7)
O1 O 0.4985(3) 0.3927(2) 0.15424(18)
O2 O 0.4171(3) 0.39105(18) -0.03654(17)
O3 O 0.1974(3) 0.3809(2) 0.1179(2)
H1 H 0.16710 0.34170 0.16950
O4 O 0.4043(4) 0.2192(2) 0.0708(2)
H2 H 0.43300 0.19460 0.12760
O5 O 0.8067(3) 0.41067(18) 0.27011(18)
O6 O 1.0537(3) 0.2736(2) 0.26858(19)
O7 O 0.8179(3) 0.27546(18) 0.41776(17)
O8 O 0.7810(3) 0.2043(2) 0.22995(19)
H3 H 0.67980 0.20330 0.25000
O9 O 0.6047(3) 0.60787(19) 0.26900(18)
O10 O 0.3781(3) 0.72579(18) 0.37741(19)
O11 O 0.6502(4) 0.8057(2) 0.2981(3)
H4 H 0.60530 0.86370 0.32460
O12 O 0.4287(5) 0.7529(3) 0.1800(2)
H5 H 0.45340 0.70460 0.13380
O13 O 0.5062(3) 0.8373(2) 0.5739(2)
O14 O 0.5270(3) 0.8878(2) 0.7631(2)
O15 O 0.5754(3) 1.03315(18) 0.61998(18)
O16 O 0.7878(3) 0.8775(2) 0.6292(2)
H6 H 0.81180 0.82780 0.67100
O17 O 0.8428(3) 0.40198(18) 0.01147(18)
O18 O 1.0677(3) 0.41153(18) -0.10867(18)
O19 O 0.0585(3) 0.88436(18) 0.41650(18)
O20 O -0.1619(3) 1.00590(18) 0.41525(18)
C1 C 0.9740(4) 0.4461(2) -0.0280(2)
C2 C -0.0297(4) 0.9685(2) 0.4516(2)
O21 O 0.3669(3) 1.0306(2) 0.9153(2)
H7 H 0.42010 0.99210 0.86450
H8 H 0.42740 1.08310 0.93230
C3 C 0.9162(5) 0.4602(3) 0.5995(3)
H9 H 0.85200 0.40370 0.63870
H10 H 0.93600 0.51860 0.64980
C4 C 0.9159(5) 0.5919(3) 0.4482(4)
H11 H 0.93540 0.65550 0.49260
H12 H 0.85190 0.61890 0.39080
C5 C 0.6540(5) 0.5647(4) 0.5645(4)
H13 H 0.67870 0.62110 0.61440
H14 H 0.58590 0.50990 0.60160
H15 H 0.59390 0.59880 0.50940
N1 N 0.8155(4) 0.5092(3) 0.5148(3)
H16 H 0.78830 0.44850 0.46780
C6 C -0.0451(5) 0.9653(3) 0.8973(3)
H17 H -0.01290 0.93730 0.82500
H18 H -0.16730 0.97480 0.90740
C7 C -0.0137(5) 1.1186(3) 1.0225(3)
H19 H -0.13500 1.13210 1.03580
H20 H 0.03930 1.18900 1.03100
C8 C -0.0229(6) 1.1573(3) 0.8302(3)
H21 H -0.14280 1.17200 0.84230
H22 H 0.00600 1.12710 0.75930
H23 H 0.03350 1.22580 0.83710
N2 N 0.0307(4) 1.0757(2) 0.9105(2)
H24 H 0.15390 1.06430 0.89850
O17A O 1.1572(3) 0.59802(18) -0.01147(18)
O18A O 0.9323(3) 0.58847(18) 0.10867(18)
C1A C 1.0260(4) 0.5539(2) 0.0280(2)
O19A O -0.0585(3) 1.11564(18) 0.58350(18)
O20A O 0.1619(3) 0.99410(18) 0.58475(18)
C2A C 0.0297(4) 1.0315(2) 0.5484(2)
In1A In -0.70223(2) 1.50393(2) 0.85532(2)
In2A In -0.29548(3) 1.14433(2) 0.51017(2)
P1A P -0.38316(10) 1.65072(7) 0.92227(6)
P2A P -0.86427(9) 1.70759(6) 0.70227(6)
P3A P -0.51108(11) 1.28018(7) 0.71697(7)
P4A P -0.59484(10) 1.09101(7) 0.35194(7)
O1A O -0.4985(3) 1.6073(2) 0.84576(18)
O2A O -0.4171(3) 1.60895(18) 1.03654(17)
O3A O -0.1974(3) 1.6191(2) 0.8821(2)
H1A H -0.16710 1.65830 0.83050
O4A O -0.4043(4) 1.7808(2) 0.9292(2)
H2A H -0.43300 1.80540 0.87240
O5A O -0.8067(3) 1.58933(18) 0.72989(18)
O6A O -1.0537(3) 1.7264(2) 0.73142(19)
O7A O -0.8179(3) 1.72454(18) 0.58224(17)
O8A O -0.7810(3) 1.7957(2) 0.77005(19)
H3A H -0.67980 1.79670 0.75000
O9A O -0.6047(3) 1.39213(19) 0.73100(18)
O10A O -0.3781(3) 1.27421(18) 0.62259(19)
O11A O -0.6502(4) 1.1943(2) 0.7019(3)
H4A H -0.60530 1.13630 0.67540
O12A O -0.4287(5) 1.2471(3) 0.8200(2)
H5A H -0.45340 1.29540 0.86620
O13A O -0.5062(3) 1.1627(2) 0.4261(2)
O14A O -0.5270(3) 1.1122(2) 0.2369(2)
O15A O -0.5754(3) 0.96685(18) 0.38002(18)
O16A O -0.7878(3) 1.1225(2) 0.3708(2)
H6A H -0.81180 1.17220 0.32900
In1* In -0.29777(2) 1.49607(2) 1.14468(2)
In1A* In 0.29777(2) 0.50393(2) -0.14468(2)
In1A** In 1.29777(2) 0.50393(2) -0.14468(2)
In2* In -0.70452(3) 0.85567(2) 0.48983(2)
In2** In -0.70452(3) 1.85567(2) 0.48983(2)
In2A* In 0.70452(3) 0.14433(2) 0.51017(2)
In2A** In 0.70452(3) 1.14433(2) 0.51017(2)
O2* O -0.5829(3) 1.39105(18) 0.96346(17)
O2A* O 0.5829(3) 0.60895(18) 0.03654(17)
O7* O -0.1821(3) 1.27546(18) 0.41776(17)
O7A* O 0.1821(3) 0.72454(18) 0.58224(17)
O15* O -0.4246(3) 1.03315(18) 0.61998(18)
O15A* O 0.4246(3) 0.96685(18) 0.38002(18)
O17A* O -0.8428(3) 1.59802(18) 0.98853(18)
O18* O -0.9323(3) 1.41153(18) 0.89133(18)
C3A C 1.0838(5) 0.5398(3) 0.4005(3)
H9A H 1.14800 0.59630 0.36130
H10A H 1.06400 0.48140 0.35020
C4A C 1.0841(5) 0.4081(3) 0.5518(4)
H11A H 1.06460 0.34450 0.50740
H12A H 1.14810 0.38110 0.60920
C5A C 1.3460(5) 0.4353(4) 0.4355(4)
H13A H 1.32130 0.37890 0.38560
H14A H 1.41410 0.49010 0.39840
H15A H 1.40610 0.40120 0.49060
N1A N 1.1845(4) 0.4908(3) 0.4852(3)
H16A H 1.21170 0.55150 0.53220
C6A C 0.0451(5) 1.0347(3) 1.1027(3)
H17A H 0.01290 1.06270 1.17500
H18A H 0.16730 1.02520 1.09260
C7A C 0.0137(5) 0.8814(3) 0.9775(3)
H19A H 0.13500 0.86790 0.96420
H20A H -0.03930 0.81100 0.96900
C8A C 0.0229(6) 0.8427(3) 1.1698(3)
H21A H 0.14280 0.82800 1.15770
H22A H -0.00600 0.87290 1.24070
H23A H -0.03350 0.77420 1.16290
N2A N -0.0307(4) 0.9243(2) 1.0895(2)
H24A H -0.15390 0.93570 1.10150
#END
