
#######################################################################
#
#                 Cambridge Crystallographic Data Centre
#                                CCDC
#
#######################################################################
#
# If this CIF has been generated from an entry in the Cambridge
# Structural Database, then it will include bibliographic, chemical,
# crystal, experimental, refinement or atomic coordinate data resulting
# from the CCDC's data processing and validation procedures.
#
#######################################################################

data_CSD_CIF_KIJVOR
_audit_creation_date 2018-09-12
_audit_creation_method CSD-ConQuest-V1
_database_code_CSD KIJVOR
_database_code_depnum_ccdc_archive 'CCDC 1835674'
_chemical_formula_sum 'C53.5 H47.5 N4.5 O37.5 Tb4'
_chemical_formula_moiety
;
(C48 H28 N2 O37 Tb4 2-)n,2(C2 H8 N1 1+),0.5(C3 H7 N1 O1)
;
_journal_coden_Cambridge 222
_journal_volume 47
_journal_year 2018
_journal_page_first 15694
_journal_name_full 'Dalton Trans. '
loop_
_publ_author_name
"Ji-Yong Zou"
"Ling Li"
"Sheng-Yong You"
"Yue-Wei Liu"
"Hong-Min Cui"
"Jian-Zhong Cui"
"Shao-Wei Zhang"
_chemical_name_systematic
;
catena-[bis(dimethylammonium) 
heptakis(\m-furan-2,5-dicarboxylato)-bis(N,N-dimethylformamide)-tetra-terbium(
iii) N,N-dimethylformamide solvate]
;
_cell_volume   3193.019
_exptl_crystal_colour 'yellow'
_exptl_crystal_density_diffrn 2.031
_exptl_special_details
;
Non-coordinated solvent molecules were not located in the crystal structure

;
_exptl_crystal_description 'block'
_diffrn_ambient_temperature 150.2
_refine_special_details
;
C20,C21,C22,C23 disordered by symmetry over two configurations with occupancy 
0.5; C28 and C28A disordered over two sites with occupancies 0.57:0.43; 
O16A,O17A and O16,O17 disordered over two sites with occupancies 0.526:0.474.
;
#These two values have been output from a single CSD field.
_refine_ls_R_factor_gt 0.061
_refine_ls_wR_factor_gt 0.061
_symmetry_cell_setting monoclinic
_symmetry_space_group_name_H-M 'P 21/n'
_symmetry_Int_Tables_number 14
loop_
_symmetry_equiv_pos_site_id
_symmetry_equiv_pos_as_xyz
1 x,y,z
2 1/2-x,1/2+y,1/2-z
3 -x,-y,-z
4 -1/2+x,-1/2-y,-1/2+z
_cell_length_a 9.0774(2)
_cell_length_b 25.9711(5)
_cell_length_c 13.9493(3)
_cell_angle_alpha 90
_cell_angle_beta 103.844(2)
_cell_angle_gamma 90
_cell_formula_units_Z 2
loop_
_atom_type_symbol
_atom_type_radius_bond
C 0.68
H 0.23
N 0.68
O 0.68
Tb 1.94
loop_
_atom_site_label
_atom_site_type_symbol
_atom_site_fract_x
_atom_site_fract_y
_atom_site_fract_z
Tb1 Tb 0.90729(5) 0.14624(2) 0.74442(3)
Tb2 Tb 1.40084(6) 0.10022(2) 0.77505(3)
O1 O 0.5174(8) 0.1184(3) 0.6548(5)
O2 O 0.7108(7) 0.1509(2) 0.6005(4)
O3 O 0.5098(7) 0.1928(2) 0.4421(4)
O4 O 0.5168(6) 0.2767(3) 0.3316(4)
O5 O 0.2876(7) 0.2629(3) 0.2397(4)
O6 O 1.0416(6) 0.3364(2) 0.3898(4)
O7 O 1.2716(8) 0.3469(3) 0.3642(5)
O8 O 1.1589(6) 0.2664(2) 0.5388(4)
O9 O 1.0506(6) 0.1923(2) 0.6458(4)
O10 O 1.2832(6) 0.1800(2) 0.7406(4)
O11 O 1.6164(8) 0.0543(3) 0.8390(5)
O12 O 1.8140(8) 0.0650(2) 0.7707(5)
O13 O 1.7537(7) -0.0273(3) 0.9441(5)
O14 O 1.6802(8) -0.0885(3) 1.0818(6)
O15 O 1.9104(9) -0.1239(3) 1.1155(7)
O16 O 1.0825(13) 0.0898(4) 0.7038(9)
O17 O 1.2415(14) 0.0644(5) 0.6196(10)
O18 O 1.00000 0.00000 0.50000
O19 O 1.3175(10) 0.0127(3) 0.7809(7)
C1 C 1.1792(9) 0.3283(3) 0.4097(6)
C2 C 1.2510(9) 0.2970(3) 0.4978(6)
C3 C 1.3962(9) 0.2919(3) 0.5468(6)
H1 H 1.48080 0.30880 0.53200
C4 C 1.4005(9) 0.2564(3) 0.6250(6)
H2 H 1.48750 0.24550 0.67340
C5 C 1.2546(9) 0.2411(3) 0.6164(6)
C6 C 1.1892(9) 0.2016(3) 0.6715(6)
C7 C 0.398(1) 0.2490(4) 0.3071(6)
C8 C 0.3854(10) 0.2033(4) 0.3655(6)
C9 C 0.2691(10) 0.1723(4) 0.3713(7)
H3 H 0.17200 0.17120 0.32660
C10 C 0.3195(11) 0.1414(4) 0.4574(7)
H4 H 0.26190 0.11630 0.48210
C11 C 0.463(1) 0.1546(4) 0.4964(6)
C12 C 0.5745(10) 0.1396(3) 0.5899(6)
C13 C 1.7432(11) 0.0418(4) 0.8253(8)
C14 C 1.8195(11) -0.0038(4) 0.8763(8)
C15 C 1.9497(11) -0.0284(4) 0.8751(8)
H5 H 2.01590 -0.02060 0.83360
C16 C 1.9703(11) -0.0682(4) 0.9471(9)
H6 H 2.05310 -0.09140 0.96420
C17 C 1.8492(11) -0.0661(4) 0.9857(8)
C18 C 1.8101(11) -0.0942(4) 1.0681(9)
C19 C 1.0948(10) 0.0665(3) 0.6219(7)
C20 C 1.091(2) 0.0267(7) 0.5373(14)
C21 C 1.210(2) 0.0090(7) 0.5091(15)
H7 H 1.31050 0.01870 0.53330
C22 C 1.156(2) -0.0270(7) 0.4340(14)
H8 H 1.20820 -0.04590 0.39290
C23 C 1.011(2) -0.0322(7) 0.4291(14)
C24 C 1.3766(13) -0.0254(4) 0.8275(9)
H9 H 1.43800 -0.01890 0.89170
C25 C 1.4105(18) -0.1155(6) 0.8629(12)
H10 H 1.49680 -0.13250 0.84540
H11 H 1.32570 -0.13970 0.85470
H12 H 1.44020 -0.10400 0.93180
C26 C 1.352(3) -0.0837(10) 0.6933(14)
H13 H 1.29550 -0.05580 0.65300
H14 H 1.29720 -0.11620 0.67600
H15 H 1.45310 -0.08640 0.68080
N1 N 1.3655(16) -0.0723(4) 0.8004(9)
C27 C 1.3012(9) 0.2237(3) 1.0376(6)
H16 H 1.26820 0.18850 1.04680
H17 H 1.22650 0.24820 1.05100
H18 H 1.39990 0.23000 1.08320
C28 C 1.3528(11) 0.2836(4) 0.9098(6)
H19 H 1.34940 0.28580 0.83920
H20 H 1.45480 0.29250 0.94820
H21 H 1.27890 0.30760 0.92590
N2 N 1.3151(8) 0.2302(3) 0.9344(6)
H22 H 1.22600 0.22080 0.89260
H23 H 1.38840 0.20860 0.92380
O20? O 0.9559(14) 0.0822(5) 0.6239(9)
O21? O 1.2067(16) 0.0873(6) 0.6519(11)
C29? C 1.225(4) -0.0836(13) 0.718(2)
H24? H 1.21850 -0.05880 0.66450
H25? H 1.13420 -0.08090 0.74430
H26? H 1.23210 -0.11860 0.69320
O16B O 0.9175(13) -0.0898(4) 0.2962(9)
O17B O 0.7585(14) -0.0644(5) 0.3804(10)
C19B C 0.9052(10) -0.0665(3) 0.3781(7)
C20B C 0.909(2) -0.0267(7) 0.4627(14)
C21B C 0.790(2) -0.0090(7) 0.4909(15)
H7B H 0.68950 -0.01870 0.46670
C22B C 0.844(2) 0.0270(7) 0.5660(14)
H8B H 0.79180 0.04590 0.60710
C23B C 0.989(2) 0.0322(7) 0.5709(14)
Tb1B Tb 1.09271(5) -0.14624(2) 0.25558(3)
Tb2B Tb 0.59916(6) -0.10022(2) 0.22495(3)
O1B O 1.4826(8) -0.1184(3) 0.3452(5)
O2B O 1.2892(7) -0.1509(2) 0.3995(4)
O3B O 1.4902(7) -0.1928(2) 0.5579(4)
O4B O 1.4832(6) -0.2767(3) 0.6684(4)
O5B O 1.7124(7) -0.2629(3) 0.7603(4)
O6B O 0.9584(6) -0.3364(2) 0.6102(4)
O7B O 0.7284(8) -0.3469(3) 0.6358(5)
O8B O 0.8411(6) -0.2664(2) 0.4612(4)
O9B O 0.9494(6) -0.1923(2) 0.3542(4)
O10B O 0.7168(6) -0.1800(2) 0.2594(4)
O11B O 0.3836(8) -0.0543(3) 0.1610(5)
O12B O 0.1860(8) -0.0650(2) 0.2293(5)
O13B O 0.2463(7) 0.0273(3) 0.0559(5)
O14B O 0.3198(8) 0.0885(3) -0.0818(6)
O15B O 0.0896(9) 0.1239(3) -0.1155(7)
O19B O 0.6825(10) -0.0127(3) 0.2191(7)
C1B C 0.8208(9) -0.3283(3) 0.5903(6)
C2B C 0.7490(9) -0.2970(3) 0.5022(6)
C3B C 0.6038(9) -0.2919(3) 0.4532(6)
H1B H 0.51920 -0.30880 0.46800
C4B C 0.5995(9) -0.2564(3) 0.3750(6)
H2B H 0.51250 -0.24550 0.32660
C5B C 0.7454(9) -0.2411(3) 0.3836(6)
C6B C 0.8108(9) -0.2016(3) 0.3285(6)
C7B C 1.602(1) -0.2490(4) 0.6929(6)
C8B C 1.6146(10) -0.2033(4) 0.6345(6)
C9B C 1.7309(10) -0.1723(4) 0.6287(7)
H3B H 1.82800 -0.17120 0.67340
C10B C 1.6805(11) -0.1414(4) 0.5426(7)
H4B H 1.73810 -0.11630 0.51790
C11B C 1.537(1) -0.1546(4) 0.5036(6)
C12B C 1.4255(10) -0.1396(3) 0.4101(6)
C13B C 0.2568(11) -0.0418(4) 0.1747(8)
C14B C 0.1805(11) 0.0038(4) 0.1237(8)
C15B C 0.0503(11) 0.0284(4) 0.1249(8)
H5B H -0.01590 0.02060 0.16640
C16B C 0.0297(11) 0.0682(4) 0.0529(9)
H6B H -0.05310 0.09140 0.03580
C17B C 0.1508(11) 0.0661(4) 0.0143(8)
C18B C 0.1899(11) 0.0942(4) -0.0681(9)
C24B C 0.6234(13) 0.0254(4) 0.1725(9)
H9B H 0.56200 0.01890 0.10830
C25B C 0.5895(18) 0.1155(6) 0.1371(12)
H10B H 0.50320 0.13250 0.15460
H11B H 0.67430 0.13970 0.14530
H12B H 0.55980 0.10400 0.06820
C26B C 0.648(3) 0.0837(10) 0.3067(14)
H13B H 0.70450 0.05580 0.34700
H14B H 0.70280 0.11620 0.32400
H15B H 0.54690 0.08640 0.31920
N1B N 0.6345(16) 0.0723(4) 0.1996(9)
Tb1* Tb -0.09271(5) 0.14624(2) -0.25558(3)
Tb1** Tb 1.90729(5) 0.14624(2) 0.74442(3)
Tb1A Tb 0.59271(5) -0.35376(2) 0.75558(3)
Tb1A* Tb 1.59271(5) -0.35376(2) 0.75558(3)
Tb1B* Tb 0.09271(5) -0.14624(2) 0.25558(3)
Tb1B** Tb 2.09271(5) -0.14624(2) 1.25558(3)
Tb1C Tb 0.40729(5) 0.35376(2) 0.24442(3)
Tb1C* Tb 1.40729(5) 0.35376(2) 0.24442(3)
Tb2* Tb 0.40084(6) 0.10022(2) -0.22495(3)
Tb2** Tb 0.40084(6) 0.10022(2) 0.77505(3)
Tb2A Tb 1.09916(6) -0.39978(2) 0.72495(3)
Tb2B* Tb 1.59916(6) -0.10022(2) 0.22495(3)
Tb2B** Tb 1.59916(6) -0.10022(2) 1.22495(3)
Tb2C Tb 0.90084(6) 0.39978(2) 0.27505(3)
O1* O 1.5174(8) 0.1184(3) 0.6548(5)
O1B* O 0.4826(8) -0.1184(3) 0.3452(5)
O4A O 0.9832(6) -0.2233(3) 0.1684(4)
O4C O 1.0168(6) 0.2233(3) 0.8316(4)
O5A O 1.2124(7) -0.2371(3) 0.2603(4)
O5C O 0.7876(7) 0.2371(3) 0.7397(4)
O6A O 0.4584(6) -0.1636(2) 0.1102(4)
O6C O 1.5416(6) 0.1636(2) 0.8898(4)
O7A O 1.2284(8) -0.1531(3) 0.1358(5)
O7C O 0.7716(8) 0.1531(3) 0.8642(5)
O12* O 0.8140(8) 0.0650(2) 0.7707(5)
O12B* O 1.1860(8) -0.0650(2) 0.2293(5)
O14* O 0.6802(8) -0.0885(3) 0.0818(6)
O14B* O 1.3198(8) 0.0885(3) 0.9182(6)
O15* O 0.9104(9) -0.1239(3) 0.1155(7)
O15B* O 1.0896(9) 0.1239(3) 0.8845(7)
#END
