
#######################################################################
#
#                 Cambridge Crystallographic Data Centre
#                                CCDC
#
#######################################################################
#
# If this CIF has been generated from an entry in the Cambridge
# Structural Database, then it will include bibliographic, chemical,
# crystal, experimental, refinement or atomic coordinate data resulting
# from the CCDC's data processing and validation procedures.
#
#######################################################################

data_CSD_CIF_KIKPUR
_audit_creation_date 2013-09-09
_audit_creation_method CSD-ConQuest-V1
_database_code_CSD KIKPUR
_database_code_depnum_ccdc_archive 'CCDC 868751'
_chemical_formula_sum 'C82 H112.9 Gd1.42 N4 O60.56 S10'
_chemical_formula_moiety
;
(C70 H58 Gd1 O44 S10 7-)n,2n(C6 H11 N2 O1 1+),0.42n(H16 Gd1 O8 3+),3.74n(H3 
O1 1+),7.46n(H2 O1)
;
_journal_coden_Cambridge 1147
_journal_volume 13
_journal_year 2013
_journal_page_first 2025
_journal_name_full 'Cryst.Growth Des. '
loop_
_publ_author_name
"Irene Ling"
"R.A.Boulos"
"B.W.Skelton"
"A.N.Sobolev"
"Y.Alias"
"C.L.Raston"
_chemical_name_systematic
;
catena-(bis(3-(2-Hydroxyethyl)-1-methylimidazolium) oxonium 
octa-aqua-gadolinium 
bis(\m~2~-31,32,33,34,35-pentahydroxy-5,11,17,23,29-pentasulfonatocalix(5)aren
e)-tetra-aqua-gadolinium hydrate)
;
_cell_volume  12045.644
_exptl_crystal_colour 'colorless'
_exptl_crystal_density_diffrn 1.472
_exptl_special_details
;
Some additional protons are required for charge-balance. We have arbitrarily 
assigned these to oxonium cations
;
_exptl_crystal_description 'rod'
_diffrn_ambient_temperature 100
_refine_special_details
;
O10,O7,O9 disordered by symmetry over two sites with occupancy 0.5; 
Gd2,O22,O23,O24 and O15,O16,O17,O22',O23',O24',O3,O4,O5,O6 disordered over 
two sites with occupancies 0.724:0.276; The SQUEEZE/PLATON program may have 
been used.
;
#These two values have been output from a single CSD field.
_refine_ls_R_factor_gt 0.0798
_refine_ls_wR_factor_gt 0.0798
_symmetry_cell_setting monoclinic
_symmetry_space_group_name_H-M 'C 2/c'
_symmetry_Int_Tables_number 15
loop_
_symmetry_equiv_pos_site_id
_symmetry_equiv_pos_as_xyz
1 x,y,z
2 -x,y,1/2-z
3 1/2+x,1/2+y,z
4 1/2-x,1/2+y,1/2-z
5 -x,-y,-z
6 x,-y,-1/2+z
7 -1/2-x,-1/2-y,-z
8 -1/2+x,-1/2-y,-1/2+z
_cell_length_a 33.404(2)
_cell_length_b 19.1752(7)
_cell_length_c 22.1972(11)
_cell_angle_alpha 90
_cell_angle_beta 122.090(8)
_cell_angle_gamma 90
_cell_formula_units_Z 4
loop_
_atom_type_symbol
_atom_type_radius_bond
C 0.68
H 0.23
Gd 1.96
N 0.68
O 0.68
S 1.02
loop_
_atom_site_label
_atom_site_type_symbol
_atom_site_fract_x
_atom_site_fract_y
_atom_site_fract_z
Gd1 Gd 0.50000 0.03236(3) 0.75000
O1 O 0.5061(2) 0.1195(3) 0.8315(3)
O2 O 0.44930(19) -0.0602(3) 0.6770(3)
C1 C 0.2496(3) 0.0699(4) 0.4886(4)
O3 O 0.2065(2) 0.0397(3) 0.4381(3)
H1 H 0.20370 0.04010 0.39820
C2 C 0.2646(2) 0.1333(4) 0.4784(3)
C3 C 0.3094(2) 0.1566(4) 0.5326(3)
H2 H 0.32100 0.20010 0.52770
C4 C 0.3371(2) 0.1165(4) 0.5935(3)
S1 S 0.39385(6) 0.14633(10) 0.66159(8)
O4 O 0.42196(16) 0.0830(3) 0.6923(2)
O5 O 0.38785(18) 0.1829(3) 0.7130(2)
O6 O 0.41188(17) 0.1907(3) 0.6273(2)
C5 C 0.3205(3) 0.0536(4) 0.6021(3)
H3 H 0.33950 0.02680 0.64390
C6 C 0.2763(2) 0.0294(4) 0.5501(3)
C7 C 0.2584(3) -0.0386(4) 0.5608(4)
H4 H 0.22390 -0.04160 0.52620
H5 H 0.26380 -0.03940 0.60910
C8 C 0.2640(2) 0.1618(4) 0.3295(3)
O7 O 0.23828(18) 0.1008(3) 0.3114(3)
H6 H 0.23020 0.08900 0.27000
C9 C 0.2888(2) 0.1833(3) 0.2990(3)
C10 C 0.3148(2) 0.2443(4) 0.3230(3)
H7 H 0.33290 0.25870 0.30370
C11 C 0.3148(3) 0.2852(4) 0.3751(3)
S2 S 0.34850(9) 0.36181(11) 0.40471(10)
O8 O 0.3266(3) 0.4097(4) 0.3452(4)
O9 O 0.3942(3) 0.3404(5) 0.4282(6)
O10 O 0.3424(4) 0.3880(4) 0.4617(4)
C12 C 0.2878(3) 0.2641(4) 0.4025(3)
H8 H 0.28690 0.29270 0.43660
C13 C 0.2628(2) 0.2036(4) 0.3819(3)
C14 C 0.2362(2) 0.1795(4) 0.4150(3)
H9 H 0.20760 0.15390 0.37900
H10 H 0.22560 0.22080 0.42970
C15 C 0.2920(2) 0.0083(3) 0.2459(3)
O11 O 0.24424(17) 0.0117(3) 0.2143(2)
H11 H 0.23110 -0.00640 0.17370
C16 C 0.3660(2) -0.0508(3) 0.2952(3)
H12 H 0.38350 -0.09290 0.30590
C17 C 0.3894(2) 0.0112(4) 0.3162(3)
S3 S 0.45217(6) 0.01307(9) 0.36277(8)
O12 O 0.46807(17) -0.0534(3) 0.4009(2)
O13 O 0.46545(17) 0.0191(2) 0.3100(2)
O14 O 0.46693(18) 0.0737(3) 0.4084(2)
C18 C 0.3167(2) -0.0537(3) 0.2583(3)
C19 C 0.3649(2) 0.0737(3) 0.2998(3)
H13 H 0.38160 0.11670 0.31320
C20 C 0.3162(2) 0.0737(3) 0.2640(3)
C21 C 0.2880(3) 0.1412(3) 0.2402(3)
H14 H 0.30030 0.17090 0.21720
H15 H 0.25470 0.12990 0.20380
C22 C 0.2812(2) -0.1778(4) 0.3246(3)
O15 O 0.25096(19) -0.1213(3) 0.3109(3)
H16 H 0.24020 -0.12380 0.33750
C23 C 0.2884(3) -0.2307(4) 0.3715(3)
C24 C 0.3195(3) -0.2831(4) 0.3825(4)
H17 H 0.32480 -0.31950 0.41500
C25 C 0.3431(3) -0.2837(4) 0.3471(4)
S4 S 0.3846(1) -0.34975(12) 0.36424(13)
O16 O 0.3652(4) -0.4135(4) 0.3700(7)
O17 O 0.4258(4) -0.3302(6) 0.4247(5)
O18 O 0.3895(3) -0.3541(4) 0.3055(4)
C26 C 0.3341(2) -0.2321(3) 0.2974(3)
H18 H 0.34930 -0.23370 0.27140
C27 C 0.3030(2) -0.1785(3) 0.2857(3)
C28 C 0.2915(2) -0.1241(3) 0.2294(3)
H19 H 0.25690 -0.11590 0.20210
H20 H 0.29990 -0.14280 0.19600
C29 C 0.2636(3) -0.1344(4) 0.4838(4)
O19 O 0.2279(2) -0.1057(3) 0.4241(3)
H21 H 0.21120 -0.08140 0.43400
C30 C 0.2819(3) -0.1013(4) 0.5517(4)
C31 C 0.3215(3) -0.1323(4) 0.6104(4)
H22 H 0.33540 -0.11100 0.65580
C32 C 0.3401(3) -0.1924(4) 0.6032(4)
S5 S 0.38806(8) -0.23280(12) 0.68056(11)
O20 O 0.3682(2) -0.2640(4) 0.7174(3)
O21 O 0.4206(2) -0.1781(4) 0.7207(3)
O22 O 0.4068(3) -0.2838(5) 0.6548(4)
C33 C 0.3208(3) -0.2255(4) 0.5382(4)
H23 H 0.33410 -0.26810 0.53490
C34 C 0.2823(3) -0.1969(4) 0.4780(4)
C35 C 0.2597(3) -0.2342(4) 0.4076(4)
H24 H 0.22810 -0.21370 0.37520
H25 H 0.25510 -0.28380 0.41500
C36 C 0.4214(3) -0.0072(5) 0.4861(4)
H26 H 0.45260 0.00090 0.49680
N1 N 0.3911(3) 0.0411(5) 0.4785(4)
C37 C 0.3487(4) 0.0156(8) 0.4597(5)
H27 H 0.32050 0.04010 0.44640
N2 N 0.4002(3) -0.0715(5) 0.4760(4)
C38 C 0.3571(4) -0.0600(8) 0.4649(7)
H28 H 0.33570 -0.09490 0.46120
C39 C 0.4019(4) 0.1159(5) 0.4817(4)
H29 H 0.43410 0.12180 0.49230
H30 H 0.39910 0.13810 0.51910
H31 H 0.37960 0.13770 0.43580
C40 C 0.4212(4) -0.1368(5) 0.4750(4)
H32 H 0.45130 -0.12760 0.47770
H33 H 0.39980 -0.16120 0.42960
C41 C 0.4308(4) -0.1835(6) 0.5369(5)
H34 H 0.40130 -0.18890 0.53700
H35 H 0.44040 -0.23040 0.53040
O23 O 0.4676(3) -0.1550(4) 0.6049(4)
H36 H 0.48300 -0.12480 0.59800
Gd2 Gd 0.49210(6) 0.47745(9) 0.72470(8)
O24 O 0.4261(4) 0.4425(6) 0.6828(6)
O25 O 0.50000 0.3628(9) 0.75000
O26 O 0.4804(8) 0.4483(9) 0.8307(8)
O27 O 0.5438(6) 0.5773(9) 0.7501(10)
O28 O 0.6392(3) 0.5320(4) 0.0136(5)
O29 O 0.6471(4) 0.4609(8) 0.7997(5)
O30? O 0.3730(9) 0.3716(13) 0.3661(12)
O31? O 0.3187(8) 0.4202(10) 0.3886(13)
O32? O 0.3864(9) 0.3537(16) 0.4788(10)
O33? O 0.6164(7) 0.3314(7) 0.9030(6)
O34? O 0.6435(5) 0.5931(6) 0.7549(7)
O35? O 0.4557(5) 0.2791(8) 0.7959(8)
O36? O 0.50000 0.50000 0.00000
O37? O 0.4432(5) 0.7405(8) 0.8712(8)
O38? O 0.6314(8) -0.4142(10) 0.8935(10)
O39? O 0.5231(12) 0.2519(15) 0.948(2)
O1A O 0.4939(2) 0.1195(3) 0.6685(3)
O2A O 0.55070(19) -0.0602(3) 0.8230(3)
C1A C 0.7504(3) 0.0699(4) 1.0114(4)
O3A O 0.7935(2) 0.0397(3) 1.0619(3)
H1A H 0.79630 0.04010 1.10180
C2A C 0.7354(2) 0.1333(4) 1.0216(3)
C3A C 0.6906(2) 0.1566(4) 0.9674(3)
H2A H 0.67900 0.20010 0.97230
C4A C 0.6629(2) 0.1165(4) 0.9065(3)
S1A S 0.60615(6) 0.14633(10) 0.83841(8)
O4A O 0.57804(16) 0.0830(3) 0.8077(2)
O5A O 0.61215(18) 0.1829(3) 0.7870(2)
O6A O 0.58812(17) 0.1907(3) 0.8727(2)
C5A C 0.6795(3) 0.0536(4) 0.8979(3)
H3A H 0.66050 0.02680 0.85610
C6A C 0.7237(2) 0.0294(4) 0.9499(3)
C7A C 0.7416(3) -0.0386(4) 0.9392(4)
H4A H 0.77610 -0.04160 0.97380
H5A H 0.73620 -0.03940 0.89090
C8A C 0.7360(2) 0.1618(4) 1.1705(3)
O7A O 0.76172(18) 0.1008(3) 1.1886(3)
H6A H 0.76980 0.08900 1.23000
C9A C 0.7112(2) 0.1833(3) 1.2010(3)
C10A C 0.6852(2) 0.2443(4) 1.1770(3)
H7A H 0.66710 0.25870 1.19630
C11A C 0.6852(3) 0.2852(4) 1.1249(3)
S2A S 0.65150(9) 0.36181(11) 1.09529(10)
O8A O 0.6734(3) 0.4097(4) 1.1548(4)
O9A O 0.6058(3) 0.3404(5) 1.0718(6)
O10A O 0.6576(4) 0.3880(4) 1.0383(4)
C12A C 0.7122(3) 0.2641(4) 1.0975(3)
H8A H 0.71310 0.29270 1.06340
C13A C 0.7372(2) 0.2036(4) 1.1181(3)
C14A C 0.7638(2) 0.1795(4) 1.0850(3)
H9A H 0.79240 0.15390 1.12100
H10A H 0.77440 0.22080 1.07030
C15A C 0.7080(2) 0.0083(3) 1.2541(3)
O11A O 0.75576(17) 0.0117(3) 1.2857(2)
H11A H 0.76890 -0.00640 1.32630
C16A C 0.6340(2) -0.0508(3) 1.2048(3)
H12A H 0.61650 -0.09290 1.19410
C17A C 0.6106(2) 0.0112(4) 1.1838(3)
S3A S 0.54783(6) 0.01307(9) 1.13723(8)
O12A O 0.53193(17) -0.0534(3) 1.0991(2)
O13A O 0.53455(17) 0.0191(2) 1.1900(2)
O14A O 0.53307(18) 0.0737(3) 1.0916(2)
C18A C 0.6833(2) -0.0537(3) 1.2417(3)
C19A C 0.6351(2) 0.0737(3) 1.2002(3)
H13A H 0.61840 0.11670 1.18680
C20A C 0.6838(2) 0.0737(3) 1.2360(3)
C21A C 0.7120(3) 0.1412(3) 1.2598(3)
H14A H 0.69970 0.17090 1.28280
H15A H 0.74530 0.12990 1.29620
C22A C 0.7188(2) -0.1778(4) 1.1754(3)
O15A O 0.74904(19) -0.1213(3) 1.1891(3)
H16A H 0.75980 -0.12380 1.16250
C23A C 0.7116(3) -0.2307(4) 1.1285(3)
C24A C 0.6805(3) -0.2831(4) 1.1175(4)
H17A H 0.67520 -0.31950 1.08500
C25A C 0.6569(3) -0.2837(4) 1.1529(4)
S4A S 0.6154(1) -0.34975(12) 1.13576(13)
O16A O 0.6348(4) -0.4135(4) 1.1300(7)
O17A O 0.5742(4) -0.3302(6) 1.0753(5)
O18A O 0.6105(3) -0.3541(4) 1.1945(4)
C26A C 0.6659(2) -0.2321(3) 1.2026(3)
H18A H 0.65070 -0.23370 1.22860
C27A C 0.6970(2) -0.1785(3) 1.2143(3)
C28A C 0.7085(2) -0.1241(3) 1.2706(3)
H19A H 0.74310 -0.11590 1.29790
H20A H 0.70010 -0.14280 1.30400
C29A C 0.7364(3) -0.1344(4) 1.0162(4)
O19A O 0.7721(2) -0.1057(3) 1.0759(3)
H21A H 0.78880 -0.08140 1.06600
C30A C 0.7181(3) -0.1013(4) 0.9483(4)
C31A C 0.6785(3) -0.1323(4) 0.8896(4)
H22A H 0.66460 -0.11100 0.84420
C32A C 0.6599(3) -0.1924(4) 0.8968(4)
S5A S 0.61194(8) -0.23280(12) 0.81944(11)
O20A O 0.6318(2) -0.2640(4) 0.7826(3)
O21A O 0.5794(2) -0.1781(4) 0.7793(3)
O22A O 0.5932(3) -0.2838(5) 0.8452(4)
C33A C 0.6792(3) -0.2255(4) 0.9618(4)
H23A H 0.66590 -0.26810 0.96510
C34A C 0.7177(3) -0.1969(4) 1.0220(4)
C35A C 0.7403(3) -0.2342(4) 1.0924(4)
H24A H 0.77190 -0.21370 1.12480
H25A H 0.74490 -0.28380 1.08500
Gd1D Gd 0.50000 -0.03236(3) 0.25000
Gd1D* Gd 0.50000 -0.03236(3) 1.25000
O13D O 0.53455(17) -0.0191(2) 0.6900(2)
O13E O 0.46545(17) -0.0191(2) 0.8100(2)
Gd2A Gd 0.50790(6) 0.47745(9) 0.77530(8)
O24A O 0.5739(4) 0.4425(6) 0.8172(6)
O26A O 0.5196(8) 0.4483(9) 0.6693(8)
O27A O 0.4562(6) 0.5773(9) 0.7499(10)
#END
