
#######################################################################
#
#                 Cambridge Crystallographic Data Centre
#                                CCDC
#
#######################################################################
#
# If this CIF has been generated from an entry in the Cambridge
# Structural Database, then it will include bibliographic, chemical,
# crystal, experimental, refinement or atomic coordinate data resulting
# from the CCDC's data processing and validation procedures.
#
#######################################################################

data_CSD_CIF_KIKTIK
_audit_creation_date 2018-09-12
_audit_creation_method CSD-ConQuest-V1
_database_code_CSD KIKTIK
_database_code_depnum_ccdc_archive 'CCDC 1840948'
_chemical_formula_sum 'C79 H75 Cd1 N11 O29'
_chemical_formula_moiety
;
(C60 H24 Cd1 N4 O24 2-)n,2n(C2 H8 N1 1+),5n(C3 H7 N1 O1)
;
_journal_coden_Cambridge 1147
_journal_volume 18
_journal_year 2018
_journal_page_first 5738
_journal_name_full 'Cryst.Growth Des. '
loop_
_publ_author_name
"Yan Zhou"
"Lan Qin"
"Meng-Ke Wu"
"Lei Han"
_chemical_name_systematic
;
catena-(bis(dimethylammonium) bis(\m-dihydrogen 
5,5'-(1,3,6,8-tetraoxo-1,3,6,8-tetrahydrobenzo[lmn][3,8]phenanthroline-2,7-diy
l)bis(benzene-1,3-dicarboxylato))-cadmium(ii) dimethylformamide solvate)
;
_cell_volume   8371.201
_exptl_crystal_colour 'yellow'
_exptl_crystal_description 'block'
_diffrn_ambient_temperature 293
_refine_special_details
;
The MASK/OLEX2 program was used to model the cations and solvent molecules.

;
#These two values have been output from a single CSD field.
_refine_ls_R_factor_gt 0.0395
_refine_ls_wR_factor_gt 0.0395
_symmetry_cell_setting monoclinic
_symmetry_space_group_name_H-M 'C 2/c'
_symmetry_Int_Tables_number 15
loop_
_symmetry_equiv_pos_site_id
_symmetry_equiv_pos_as_xyz
1 x,y,z
2 -x,y,1/2-z
3 1/2+x,1/2+y,z
4 1/2-x,1/2+y,1/2-z
5 -x,-y,-z
6 x,-y,-1/2+z
7 -1/2-x,-1/2-y,-z
8 -1/2+x,-1/2-y,-1/2+z
_cell_length_a 23.1270(12)
_cell_length_b 23.1401(9)
_cell_length_c 18.6690(9)
_cell_angle_alpha 90
_cell_angle_beta 123.083(2)
_cell_angle_gamma 90
_cell_formula_units_Z 4
loop_
_atom_type_symbol
_atom_type_radius_bond
C 0.68
H 0.23
Cd 1.44
N 0.68
O 0.68
loop_
_atom_site_label
_atom_site_type_symbol
_atom_site_fract_x
_atom_site_fract_y
_atom_site_fract_z
Cd1 Cd 0.50000 0.451552(11) 0.25000
N1 N 0.60125(11) 0.27796(9) 0.00290(14)
N2 N 0.85465(10) 0.53936(9) 0.50421(14)
O1 O 0.54013(8) 0.41268(7) 0.16653(11)
O2 O 0.44036(10) 0.38190(8) 0.13795(13)
O3 O 0.30634(15) 0.24476(17) -0.1080(3)
H1 H 0.27300 0.22720 -0.14670
O4 O 0.36189(12) 0.19245(11) -0.14689(16)
O5 O 0.65455(10) 0.24033(8) 0.13682(13)
O6 O 0.54649(11) 0.31164(10) -0.13366(14)
O7 O 0.59590(8) 0.50597(8) 0.31403(11)
O8 O 0.55714(9) 0.52631(8) 0.39654(13)
O9 O 0.71019(9) 0.63196(9) 0.66958(12)
O10 O 0.82210(9) 0.63656(11) 0.72012(14)
H2 H 0.82450 0.64960 0.76250
O11 O 0.8403(1) 0.44535(9) 0.52682(16)
O12 O 0.87266(10) 0.63291(9) 0.49012(16)
C1 C 0.48864(12) 0.38097(10) 0.12662(16)
C2 C 0.35880(17) 0.23156(15) -0.1068(2)
C3 C 0.48452(12) 0.33885(10) 0.06208(16)
C4 C 0.42490(13) 0.30689(11) 0.00943(17)
H3 H 0.38640 0.31260 0.01220
C5 C 0.42244(13) 0.26649(11) -0.04734(17)
C6 C 0.48087(14) 0.25742(11) -0.04891(17)
H4 H 0.48010 0.22990 -0.08580
C7 C 0.54036(13) 0.28873(10) 0.00373(17)
C8 C 0.54242(13) 0.32974(10) 0.05872(16)
H5 H 0.58230 0.35120 0.09340
C9 C 0.65814(14) 0.25267(11) 0.07618(19)
C10 C 0.72129(13) 0.24311(11) 0.07492(18)
C11 C 0.71984(12) 0.25556(10) -0.00018(17)
C12 C 0.66042(14) 0.27728(11) -0.07348(18)
C13 C 0.59773(15) 0.29060(12) -0.0733(2)
C14 C 0.77966(15) 0.22254(13) 0.14618(19)
H6 H 0.78000 0.21550 0.19540
C15 C 0.66060(15) 0.28807(12) -0.14595(19)
H7 H 0.62110 0.30240 -0.19480
C16 C 0.60285(13) 0.52622(10) 0.38105(17)
C17 C 0.75775(13) 0.62216(11) 0.66238(17)
C18 C 0.67387(11) 0.54876(11) 0.44901(15)
C19 C 0.68386(12) 0.57647(10) 0.52046(16)
H8 H 0.64640 0.58360 0.52490
C20 C 0.74946(12) 0.59381(11) 0.58569(16)
C21 C 0.80542(13) 0.58213(11) 0.57935(18)
H9 H 0.84960 0.59320 0.62300
C22 C 0.79533(12) 0.55414(11) 0.50854(17)
C23 C 0.72991(11) 0.53804(11) 0.44297(16)
H10 H 0.72350 0.52000 0.39460
C24 C 0.87339(14) 0.48082(13) 0.5157(2)
C25 C 0.93347(13) 0.46455(11) 0.5117(2)
C26 C 0.97049(12) 0.50775(11) 0.50075(17)
C27 C 0.95097(13) 0.56618(11) 0.49108(19)
C28 C 0.89054(14) 0.58349(12) 0.49420(19)
C29 C 0.95342(15) 0.40839(13) 0.5204(2)
H11 H 0.92830 0.38000 0.52710
C30 C 0.98817(15) 0.60710(12) 0.4806(2)
H12 H 0.97480 0.64560 0.47410
N1F N 0.89875(11) 0.22204(9) -0.00290(14)
O1F O 0.95987(8) 0.08732(7) -0.16653(11)
O2F O 1.05964(10) 0.11810(8) -0.13795(13)
O3F O 1.19366(15) 0.25524(17) 0.1080(3)
H1F H 1.22700 0.27280 0.14670
O4F O 1.13811(12) 0.30755(11) 0.14689(16)
O5F O 0.84545(10) 0.25967(8) -0.13682(13)
O6F O 0.95351(11) 0.18836(10) 0.13366(14)
C1F C 1.01136(12) 0.11903(10) -0.12662(16)
C2F C 1.14120(17) 0.26844(15) 0.1068(2)
C3F C 1.01548(12) 0.16115(10) -0.06208(16)
C4F C 1.07510(13) 0.19311(11) -0.00943(17)
H3F H 1.11360 0.18740 -0.01220
C5F C 1.07756(13) 0.23351(11) 0.04734(17)
C6F C 1.01913(14) 0.24258(11) 0.04891(17)
H4F H 1.01990 0.27010 0.08580
C7F C 0.95964(13) 0.21127(10) -0.00373(17)
C8F C 0.95758(13) 0.17026(10) -0.05872(16)
H5F H 0.91770 0.14880 -0.09340
C9F C 0.84186(14) 0.24733(11) -0.07618(19)
C10F C 0.77871(13) 0.25689(11) -0.07492(18)
C11F C 0.78016(12) 0.24444(10) 0.00018(17)
C12F C 0.83958(14) 0.22272(11) 0.07348(18)
C13F C 0.90227(15) 0.20940(12) 0.0733(2)
C14F C 0.72034(15) 0.27746(13) -0.14618(19)
H6F H 0.72000 0.28450 -0.19540
C15F C 0.83940(15) 0.21193(12) 0.14595(19)
H7F H 0.87890 0.19760 0.19480
N2D N 1.14535(10) 0.46064(9) 0.49579(14)
O7D O 1.40410(8) 0.49403(8) 0.68597(11)
O8D O 1.44286(9) 0.47369(8) 0.60346(13)
O9D O 1.28981(9) 0.36804(9) 0.33042(12)
O10D O 1.17790(9) 0.36344(11) 0.27988(14)
H2D H 1.17550 0.35040 0.23750
O11D O 1.1597(1) 0.55465(9) 0.47318(16)
O12D O 1.12734(10) 0.36709(9) 0.50988(16)
C16D C 1.39715(13) 0.47378(10) 0.61895(17)
C17D C 1.24225(13) 0.37784(11) 0.33762(17)
C18D C 1.32613(11) 0.45124(11) 0.55099(15)
C19D C 1.31614(12) 0.42353(10) 0.47954(16)
H8D H 1.35360 0.41640 0.47510
C20D C 1.25054(12) 0.40619(11) 0.41431(16)
C21D C 1.19458(13) 0.41787(11) 0.42065(18)
H9D H 1.15040 0.40680 0.37700
C22D C 1.20467(12) 0.44586(11) 0.49146(17)
C23D C 1.27009(11) 0.46196(11) 0.55703(16)
H10D H 1.27650 0.48000 0.60540
C24D C 1.12661(14) 0.51918(13) 0.4843(2)
C25D C 1.06653(13) 0.53545(11) 0.4883(2)
C26D C 1.02951(12) 0.49225(11) 0.49925(17)
C27D C 1.04903(13) 0.43382(11) 0.50892(19)
C28D C 1.10946(14) 0.41651(12) 0.50580(19)
C29D C 1.04658(15) 0.59161(13) 0.4796(2)
H11D H 1.07170 0.62000 0.47290
C30D C 1.01183(15) 0.39290(12) 0.5194(2)
H12D H 1.02520 0.35440 0.52590
Cd1D Cd 1.50000 0.548448(11) 0.75000
Cd1F Cd 1.00000 0.048448(11) -0.25000
O1A O 0.45987(8) 0.41268(7) 0.33347(11)
O2A O 0.55964(10) 0.38190(8) 0.36205(13)
O7A O 0.40410(8) 0.50597(8) 0.18597(11)
#END
