
#######################################################################
#
#                 Cambridge Crystallographic Data Centre
#                                CCDC
#
#######################################################################
#
# If this CIF has been generated from an entry in the Cambridge
# Structural Database, then it will include bibliographic, chemical,
# crystal, experimental, refinement or atomic coordinate data resulting
# from the CCDC's data processing and validation procedures.
#
#######################################################################

data_CSD_CIF_KIMYOW
_audit_creation_date 2013-09-11
_audit_creation_method CSD-ConQuest-V1
_database_code_CSD KIMYOW
_database_code_depnum_ccdc_archive 'CCDC 960279'
_chemical_formula_sum 'C60 H56 N8 Ni3 O28'
_chemical_formula_moiety
;
(C25 H16 N3 Ni1 O10 1-)2n,n(C10 H16 N2 Ni1 O4 2+),4n(H2 O1)
;
_journal_coden_Cambridge 1147
_journal_volume 13
_journal_year 2013
_journal_page_first 2756
_journal_name_full 'Cryst.Growth Des. '
loop_
_publ_author_name
"Shu-Na Zhao"
"Sheng-Qun Su"
"Xue-Zhi Song"
"Min Zhu"
"Zhao-Min Hao"
"Xing Meng"
"Shu-Yan Song"
"Hong-Jie Zhang"
_chemical_name_systematic
;
catena-[(\m~2~-4,4'-Bipyridine)-tetra-aqua-nickel(ii) 
bis((\m~2~-4-(3,5-dicarboxylatophenoxy)-3-nitrobenzoate)-(\m~2~-4,4'-bipyridin
e)-aqua-nickel(ii)) tetrahydrate]
;
_cell_volume   1535.633
_exptl_crystal_density_diffrn 1.636
_diffrn_ambient_temperature 185
#These two values have been output from a single CSD field.
_refine_ls_R_factor_gt 0.0449
_refine_ls_wR_factor_gt 0.0449
_symmetry_cell_setting triclinic
_symmetry_space_group_name_H-M 'P -1'
_symmetry_Int_Tables_number 2
loop_
_symmetry_equiv_pos_site_id
_symmetry_equiv_pos_as_xyz
1 x,y,z
2 -x,-y,-z
_cell_length_a 10.1438(7)
_cell_length_b 11.2973(9)
_cell_length_c 14.1941(10)
_cell_angle_alpha 72.882(1)
_cell_angle_beta 88.101(1)
_cell_angle_gamma 81.084(1)
_cell_formula_units_Z 1
loop_
_atom_type_symbol
_atom_type_radius_bond
C 0.68
H 0.23
N 0.68
Ni 1.24
O 0.68
loop_
_atom_site_label
_atom_site_type_symbol
_atom_site_fract_x
_atom_site_fract_y
_atom_site_fract_z
C1 C 0.2533(3) 0.4091(3) 0.3580(2)
C2 C 0.3903(3) 0.3903(3) 0.4004(2)
C3 C 0.4921(3) 0.4465(3) 0.3447(2)
H1 H 0.47460 0.49820 0.28070
C4 C 0.6193(3) 0.4250(3) 0.3852(2)
C5 C 0.6452(3) 0.3502(3) 0.4814(2)
H2 H 0.72990 0.33780 0.50910
C6 C 0.5440(3) 0.2942(3) 0.5356(2)
C7 C 0.4166(3) 0.3147(3) 0.4967(2)
H3 H 0.34880 0.27820 0.53460
C8 C 0.4882(3) 0.1405(3) 0.6778(2)
C9 C 0.3946(3) 0.1858(3) 0.7373(2)
H4 H 0.39160 0.26670 0.74170
C10 C 0.3057(3) 0.1106(3) 0.7901(2)
H5 H 0.24100 0.14280 0.82760
C11 C 0.3116(3) -0.0129(3) 0.7878(2)
C12 C 0.4063(3) -0.0582(3) 0.7286(2)
H6 H 0.41150 -0.14000 0.72590
C13 C 0.4930(3) 0.0186(3) 0.6737(2)
C14 C 0.2184(3) -0.0950(3) 0.8503(3)
C15 C 0.7334(3) 0.4753(3) 0.3229(3)
C16 C -0.0516(3) 0.1887(3) 0.3604(2)
H7 H -0.10930 0.22310 0.40100
C17 C -0.0500(3) 0.0647(3) 0.3666(2)
H8 H -0.10580 0.01780 0.41050
C18 C 0.0349(3) 0.0091(3) 0.3074(2)
C19 C 0.1170(3) 0.0854(3) 0.2453(3)
H9 H 0.17710 0.05300 0.20500
C20 C 0.1093(4) 0.2091(3) 0.2436(3)
H10 H 0.16550 0.25770 0.20150
C21 C 0.0346(3) -0.1220(3) 0.3066(2)
C22 C -0.0145(3) -0.2114(3) 0.3841(2)
H11 H -0.04500 -0.19090 0.44070
C23 C -0.0181(3) -0.3302(3) 0.3771(2)
H12 H -0.05170 -0.38790 0.42980
C24 C 0.0728(3) -0.2805(3) 0.2227(2)
H13 H 0.10320 -0.30390 0.16730
C25 C 0.0790(3) -0.1609(3) 0.2242(2)
H14 H 0.11290 -0.10510 0.17040
N1 N 0.5919(3) -0.0356(3) 0.6137(2)
N2 N 0.0259(3) 0.2630(2) 0.29888(19)
N3 N 0.0245(3) -0.3663(2) 0.29820(19)
O1 O 0.2335(2) 0.4441(2) 0.26524(16)
O2 O 0.1563(2) 0.3898(2) 0.41633(16)
O3 O -0.0523(3) 0.5211(2) 0.15207(18)
O4 O 0.8472(2) 0.4493(2) 0.36390(15)
O5 O 0.5804(2) 0.2156(2) 0.62997(16)
O6 O 0.6295(3) 0.0347(3) 0.53691(19)
O7 O 0.6322(3) -0.1478(2) 0.6437(2)
O8 O 0.2276(2) -0.2062(2) 0.84545(17)
O9 O 0.1384(2) -0.0482(2) 0.90329(18)
O10 O 0.7095(2) 0.5362(2) 0.23319(16)
Ni1 Ni 0.02461(4) 0.45092(4) 0.29484(3)
H15 H -0.048(4) 0.466(4) 0.119(3)
H16 H -0.135(6) 0.544(5) 0.159(4)
C26 C 0.3957(5) 0.2564(4) 0.0253(4)
H17 H 0.32330 0.29790 0.05080
C27 C 0.3950(5) 0.1328(4) 0.0320(4)
H18 H 0.32350 0.09380 0.06140
C28 C 0.4977(3) 0.0668(3) -0.0037(2)
C29 C 0.5947(4) 0.1341(4) -0.0495(3)
H19 H 0.66600 0.09550 -0.07810
C30 C 0.5884(4) 0.2571(4) -0.0538(3)
H20 H 0.65630 0.29930 -0.08640
N4 N 0.4922(3) 0.3207(2) -0.0148(2)
O11 O 0.3164(3) 0.4947(2) 0.0729(2)
O12 O 0.5908(3) 0.4124(3) 0.13203(18)
Ni2 Ni 0.50000 0.50000 0.00000
H21 H 0.255(4) 0.528(3) 0.046(3)
H22 H 0.300(4) 0.473(4) 0.137(3)
H23 H 0.638(4) 0.346(4) 0.137(3)
H24 H 0.618(4) 0.452(4) 0.162(3)
O13 O -0.0790(3) -0.1395(3) 0.9964(2)
H25 H -0.100(4) -0.090(4) 1.030(3)
H26 H -0.001(4) -0.115(4) 0.967(3)
O14 O 0.0902(3) -0.3705(2) 0.9657(2)
H27 H 0.031(4) -0.341(3) 0.992(3)
H28 H 0.127(4) -0.311(4) 0.932(3)
N3* N 0.0245(3) 0.6337(2) 0.29820(19)
O4* O -0.1528(2) 0.4493(2) 0.36390(15)
Ni1* Ni 0.02461(4) -0.54908(4) 0.29484(3)
Ni1** Ni 1.02461(4) 0.45092(4) 0.29484(3)
C26A C 0.6043(5) -0.2564(4) -0.0253(4)
H17A H 0.67670 -0.29790 -0.05080
C27A C 0.6050(5) -0.1328(4) -0.0320(4)
H18A H 0.67650 -0.09380 -0.06140
C28A C 0.5023(3) -0.0668(3) 0.0037(2)
C29A C 0.4053(4) -0.1341(4) 0.0495(3)
H19A H 0.33400 -0.09550 0.07810
C30A C 0.4116(4) -0.2571(4) 0.0538(3)
H20A H 0.34370 -0.29930 0.08640
N4A N 0.5078(3) -0.3207(2) 0.0148(2)
O11A O 0.6836(3) 0.5053(2) -0.0729(2)
H21A H 0.745(4) 0.472(3) -0.046(3)
H22A H 0.700(4) 0.527(4) -0.137(3)
O12A O 0.4092(3) 0.5876(3) -0.13203(18)
H23A H 0.362(4) 0.654(4) -0.137(3)
H24A H 0.382(4) 0.548(4) -0.162(3)
N4A* N 0.5078(3) 0.6793(2) 0.0148(2)
Ni2* Ni 0.50000 -0.50000 0.00000
#END
