
#######################################################################
#
#                 Cambridge Crystallographic Data Centre
#                                CCDC
#
#######################################################################
#
# If this CIF has been generated from an entry in the Cambridge
# Structural Database, then it will include bibliographic, chemical,
# crystal, experimental, refinement or atomic coordinate data resulting
# from the CCDC's data processing and validation procedures.
#
#######################################################################

data_CSD_CIF_KINNUS
_audit_creation_date 2013-09-11
_audit_creation_method CSD-ConQuest-V1
_database_code_CSD KINNUS
_database_code_depnum_ccdc_archive 'CCDC 960407'
_chemical_formula_sum 'C68 H50 Cu2 F8 N10 O2 P2'
_chemical_formula_moiety
;
(C24 Cu2 F8 N8 2-)n,2n(C19 H18 P1 1+),2n(C3 H7 N1 O1)
;
_journal_coden_Cambridge 1147
_journal_volume 13
_journal_year 2013
_journal_page_first 3018
_journal_name_full 'Cryst.Growth Des. '
loop_
_publ_author_name
"B.F.Abrahams"
"R.W.Elliott"
"T.A.Hudson"
"R.Robson"
_chemical_name_systematic
;
catena-[bis(Tetraphenylphosphonium) 
bis(\m~4~-2,2'-(2,3,5,6-tetrafluorocyclohexa-2,5-diene-1,4-diylidene)dipropane
dinitrile)-di-copper N,N-dimethylformamide]
;
_cell_volume   1503.251
_exptl_crystal_colour 'yellow green'
_exptl_crystal_density_diffrn 1.525
_exptl_crystal_description 'block'
_diffrn_ambient_temperature 130.0
#These two values have been output from a single CSD field.
_refine_ls_R_factor_gt 0.0425
_refine_ls_wR_factor_gt 0.0425
_symmetry_cell_setting triclinic
_symmetry_space_group_name_H-M 'P -1'
_symmetry_Int_Tables_number 2
loop_
_symmetry_equiv_pos_site_id
_symmetry_equiv_pos_as_xyz
1 x,y,z
2 -x,-y,-z
_cell_length_a 7.5735(3)
_cell_length_b 11.7547(4)
_cell_length_c 17.0842(5)
_cell_angle_alpha 82.190(3)
_cell_angle_beta 86.285(3)
_cell_angle_gamma 88.218(3)
_cell_formula_units_Z 1
loop_
_atom_type_symbol
_atom_type_radius_bond
C 0.68
H 0.23
Cu 1.32
F 0.64
N 0.68
O 0.68
P 1.05
loop_
_atom_site_label
_atom_site_type_symbol
_atom_site_fract_x
_atom_site_fract_y
_atom_site_fract_z
O1 O 0.2885(6) 0.4262(4) 0.4342(3)
N1 N 0.3044(6) 0.3771(4) 0.5619(3)
C1 C 0.1032(8) 0.3771(5) 0.5802(4)
H1 H 0.04360 0.40800 0.53240
H2 H 0.07240 0.42500 0.62200
H3 H 0.06520 0.29840 0.59800
C2 C 0.4142(8) 0.3439(5) 0.6264(4)
H4 H 0.53110 0.31910 0.60600
H5 H 0.36000 0.28040 0.66210
H6 H 0.42710 0.40940 0.65530
C3 C 0.3621(8) 0.3995(5) 0.4918(4)
H7 H 0.48720 0.39400 0.48400
Cu1 Cu 0.58373(4) 0.94727(3) 0.194135(18)
F1 F 1.30760(18) 1.05975(14) 0.41788(8)
F2 F 0.62202(18) 1.37435(11) 0.13092(8)
F3 F 0.38180(18) 1.40368(11) -0.12093(8)
F4 F 0.74619(18) 0.88779(13) 0.43871(8)
N2 N 0.7978(2) 0.92304(16) 0.25423(11)
N3 N 0.4454(3) 1.14485(16) -0.10775(11)
N4 N 0.5826(3) 1.10763(16) 0.13064(12)
N5 N 1.3649(3) 0.93520(18) 0.26676(11)
C4 C 0.8759(3) 0.94448(19) 0.46720(13)
C5 C 0.4438(3) 1.44825(19) -0.05929(13)
C6 C 0.5059(3) 1.37395(18) 0.00474(12)
C7 C 1.0591(3) 0.94453(19) 0.33854(12)
C8 C 1.0301(3) 0.97123(18) 0.41974(12)
C9 C 0.5534(3) 1.17517(18) 0.07665(13)
C10 C 0.4754(3) 1.19362(18) -0.05580(13)
C11 C 0.5606(3) 1.43389(18) 0.06388(13)
C12 C 0.5125(3) 1.24984(18) 0.00843(13)
C13 C 0.9156(3) 0.93169(18) 0.29262(12)
C14 C 1.2277(3) 0.93899(19) 0.30076(13)
C15 C 1.1527(3) 1.02790(19) 0.45737(13)
P1 P 0.10479(7) 0.32386(5) 0.23452(3)
C16 C -0.1984(3) 0.20073(19) 0.28714(14)
H8 H -0.19760 0.17840 0.23570
C17 C 0.2643(3) 0.5352(2) 0.22205(16)
H9 H 0.37270 0.49300 0.22830
C18 C 0.1058(3) 0.47766(19) 0.22311(13)
C19 C -0.0717(3) 0.2750(2) 0.30501(14)
C20 C 0.0784(3) 0.2735(2) 0.14165(14)
C21 C 0.0148(3) 0.3455(2) 0.07758(15)
H10 H -0.01320 0.42380 0.08200
C22 C 0.1208(4) 0.1582(2) 0.13450(16)
H11 H 0.16380 0.10840 0.17800
C23 C -0.0075(4) 0.3028(2) 0.00744(15)
H12 H -0.05200 0.35170 -0.03610
C24 C 0.0348(4) 0.1888(2) 0.00053(16)
H13 H 0.01920 0.15980 -0.04780
C25 C 0.1048(4) 0.7151(2) 0.20202(15)
H14 H 0.10460 0.79670 0.19430
C26 C 0.2629(4) 0.6546(2) 0.21183(16)
H15 H 0.37020 0.69440 0.21160
C27 C -0.0721(4) 0.3083(3) 0.38028(17)
H16 H 0.01550 0.35840 0.39220
C28 C 0.3092(3) 0.2673(2) 0.27249(15)
H17 H 0.32690 0.29710 0.32220
H18 H 0.40710 0.29060 0.23390
H19 H 0.30530 0.18330 0.28220
C29 C -0.0529(3) 0.5391(2) 0.21454(15)
H20 H -0.16080 0.49950 0.21630
C30 C -0.3260(3) 0.1596(2) 0.34548(15)
H21 H -0.41180 0.10790 0.33410
C31 C 0.0995(4) 0.1176(2) 0.06358(17)
H22 H 0.12970 0.03990 0.05820
C32 C -0.0539(4) 0.6584(2) 0.20333(15)
H23 H -0.16200 0.70080 0.19660
C33 C -0.2017(4) 0.2677(3) 0.43761(17)
H24 H -0.20350 0.29060 0.48890
C34 C -0.3288(3) 0.1935(2) 0.42016(16)
H25 H -0.41760 0.16620 0.45940
F1A F 0.69240(18) 0.94025(14) 0.58212(8)
F4A F 1.25381(18) 1.11221(13) 0.56129(8)
N2A N 1.2022(2) 1.07696(16) 0.74577(11)
C4A C 1.1241(3) 1.05552(19) 0.53280(13)
C7A C 0.9409(3) 1.05547(19) 0.66146(12)
C8A C 0.9699(3) 1.02877(18) 0.58026(12)
C13A C 1.0844(3) 1.06831(18) 0.70738(12)
C15A C 0.8473(3) 0.97210(19) 0.54263(13)
N5A N 0.6351(3) 1.06480(18) 0.73324(11)
C14A C 0.7723(3) 1.06101(19) 0.69924(13)
F2A F 0.37798(18) 1.62565(11) -0.13092(8)
F3A F 0.61820(18) 1.59632(11) 0.12093(8)
N4A N 0.4174(3) 1.89237(16) -0.13064(12)
C5A C 0.5562(3) 1.55175(19) 0.05929(13)
C6A C 0.4941(3) 1.62605(18) -0.00474(12)
C9A C 0.4466(3) 1.82483(18) -0.07665(13)
C11A C 0.4394(3) 1.56611(18) -0.06388(13)
C12A C 0.4875(3) 1.75016(18) -0.00843(13)
N3A N 0.5546(3) 1.85515(16) 0.10775(11)
C10A C 0.5246(3) 1.80638(18) 0.05580(13)
Cu1A Cu 0.41627(4) 1.05273(3) -0.194135(18)
Cu1* Cu 0.58373(4) 1.94727(3) 0.194135(18)
Cu1** Cu 1.58373(4) 0.94727(3) 0.194135(18)
Cu1A* Cu 0.41627(4) 1.05273(3) 0.805865(18)
Cu1A** Cu 0.41627(4) 2.05273(3) -0.194135(18)
Cu1A*** Cu 1.41627(4) 1.05273(3) 0.805865(18)
N2A* N 0.2022(2) 1.07696(16) -0.25423(11)
N3A* N 0.5546(3) 0.85515(16) 0.10775(11)
N4A* N 0.4174(3) 0.89237(16) -0.13064(12)
N5* N 0.3649(3) 0.93520(18) 0.26676(11)
N5A* N 0.6351(3) 1.06480(18) -0.26676(11)
#END
