
#######################################################################
#
#                 Cambridge Crystallographic Data Centre
#                                CCDC
#
#######################################################################
#
# If this CIF has been generated from an entry in the Cambridge
# Structural Database, then it will include bibliographic, chemical,
# crystal, experimental, refinement or atomic coordinate data resulting
# from the CCDC's data processing and validation procedures.
#
#######################################################################

data_CSD_CIF_KINNOM
_audit_creation_date 2013-09-11
_audit_creation_method CSD-ConQuest-V1
_database_code_CSD KINNOM
_database_code_depnum_ccdc_archive 'CCDC 960406'
_chemical_formula_sum 'C75 H47 Cu2 F8 N9 O1 P2'
_chemical_formula_moiety
;
(C24 Cu2 F8 N8 2-)n,2n(C24 H20 P1 1+),n(C3 H7 N1 O1)
;
_journal_coden_Cambridge 1147
_journal_volume 13
_journal_year 2013
_journal_page_first 3018
_journal_name_full 'Cryst.Growth Des. '
loop_
_publ_author_name
"B.F.Abrahams"
"R.W.Elliott"
"T.A.Hudson"
"R.Robson"
_chemical_name_systematic
;
catena-[bis(Tetraphenylphosphonium) 
bis(\m~4~-2,2'-(2,3,5,6-tetrafluorocyclohexa-2,5-diene-1,4-diylidene)dipropane
dinitrile)-di-copper N,N-dimethylformamide]
;
_cell_volume   3067.753
_exptl_crystal_colour 'dark green'
_exptl_crystal_density_diffrn 1.549
_exptl_crystal_description 'Block'
_diffrn_ambient_temperature 130
_refine_special_details
;
Disordered N,N-dimethylformamide solvent molecules were not modelled and the 
disordered density was taken into account using the SQUEEZE/PLATON procedure.
;
#These two values have been output from a single CSD field.
_refine_ls_R_factor_gt 0.0366
_refine_ls_wR_factor_gt 0.0366
_symmetry_cell_setting monoclinic
_symmetry_space_group_name_H-M 'P 2/c'
_symmetry_Int_Tables_number 13
loop_
_symmetry_equiv_pos_site_id
_symmetry_equiv_pos_as_xyz
1 x,y,z
2 -x,y,1/2-z
3 -x,-y,-z
4 x,-y,-1/2+z
_cell_length_a 18.2594(6)
_cell_length_b 11.8015(3)
_cell_length_c 14.9782(4)
_cell_angle_alpha 90
_cell_angle_beta 108.109(3)
_cell_angle_gamma 90
_cell_formula_units_Z 2
loop_
_atom_type_symbol
_atom_type_radius_bond
C 0.68
H 0.23
Cu 1.32
F 0.64
N 0.68
P 1.05
loop_
_atom_site_label
_atom_site_type_symbol
_atom_site_fract_x
_atom_site_fract_y
_atom_site_fract_z
F1 F 0.42898(7) 0.01436(15) 0.38308(8)
F2 F 0.57890(7) 0.01056(16) 0.43507(8)
N1 N 0.24664(8) 0.02306(14) 0.0203(1)
N2 N 0.25297(9) 0.00188(14) 0.30576(11)
C1 C 0.33211(10) 0.01146(16) 0.19153(12)
C2 C 0.29045(10) 0.00682(15) 0.25632(12)
C3 C 0.28664(9) 0.01880(15) 0.09712(12)
C4 C 0.46217(11) 0.01073(18) 0.31450(12)
C5 C 0.41586(10) 0.00976(16) 0.22073(12)
C6 C 0.54135(10) 0.00956(18) 0.34179(12)
Cu1 Cu 0.185612(13) 0.01283(2) -0.112458(16)
F3 F -0.12488(6) -0.37670(9) -0.36202(7)
F4 F -0.12633(6) -0.59629(10) -0.35653(8)
C7 C -0.06146(9) -0.54373(16) -0.30269(11)
C8 C 0.00000 -0.3611(2) -0.25000
N3 N 0.11369(8) -0.85612(13) -0.15826(10)
C9 C 0.00000 -0.6105(2) -0.25000
C10 C -0.06132(9) -0.42771(16) -0.30426(11)
N4 N 0.11000(9) -0.11437(14) -0.14999(11)
C11 C 0.06343(9) -0.79834(14) -0.19885(11)
C12 C 0.00000 -0.2383(2) -0.25000
C13 C 0.06150(9) -0.17298(15) -0.19386(12)
C14 C 0.00000 -0.7331(2) -0.25000
P1 P 0.24996(2) 0.61265(4) 0.14103(3)
C15 C 0.20850(11) 0.40168(17) 0.06358(13)
H1 H 0.20800 0.43630 0.00610
C16 C 0.30051(10) 0.63503(18) 0.05647(12)
C17 C 0.1600(1) 0.68804(17) 0.10503(12)
C18 C 0.30978(10) 0.66626(16) 0.25220(13)
C19 C 0.18779(11) 0.23920(17) 0.14894(14)
H2 H 0.17240 0.16240 0.14970
C20 C 0.09013(12) 0.8636(2) 0.08840(16)
H3 H 0.08880 0.94230 0.10120
C21 C 0.21094(12) 0.30091(18) 0.23200(14)
H4 H 0.21200 0.26570 0.28940
C22 C 0.23098(11) 0.46394(16) 0.14698(13)
C23 C 0.15829(11) 0.80363(18) 0.12372(14)
H5 H 0.20370 0.84110 0.16050
C24 C 0.09296(11) 0.6332(2) 0.05185(14)
H6 H 0.09360 0.55420 0.03980
C25 C 0.23243(11) 0.41341(18) 0.23174(13)
H7 H 0.24790 0.45560 0.28850
C26 C 0.29522(12) 0.74008(19) 0.01356(14)
H8 H 0.26120 0.79590 0.02390
C27 C 0.02543(11) 0.6948(2) 0.01673(15)
H9 H -0.02020 0.65780 -0.01990
C28 C 0.34921(12) 0.55146(19) 0.04016(15)
H10 H 0.35330 0.47970 0.07000
C29 C 0.18704(11) 0.28969(18) 0.06473(14)
H11 H 0.17180 0.24710 0.00810
C30 C 0.02395(12) 0.8094(2) 0.03452(15)
H12 H -0.02250 0.85100 0.00980
C31 C 0.40403(13) 0.7510(2) 0.42170(15)
H13 H 0.43630 0.78050 0.47960
C32 C 0.27770(11) 0.70404(18) 0.32007(14)
H14 H 0.22350 0.70090 0.30850
C33 C 0.32537(13) 0.7462(2) 0.40457(14)
H15 H 0.30370 0.77180 0.45100
C34 C 0.38938(12) 0.6708(2) 0.26975(15)
H16 H 0.41140 0.64510 0.22370
C35 C 0.33936(13) 0.7637(2) -0.04427(16)
H17 H 0.33710 0.83660 -0.07190
C36 C 0.39158(13) 0.5751(2) -0.02040(16)
H18 H 0.42380 0.51840 -0.03330
C37 C 0.38702(13) 0.6806(2) -0.06181(15)
H19 H 0.41660 0.69630 -0.10250
C38 C 0.43614(13) 0.7130(3) 0.35463(16)
H20 H 0.49040 0.71590 0.36690
F1A F 0.57102(7) 0.01436(15) 0.11692(8)
F2A F 0.42110(7) 0.01056(16) 0.06493(8)
N1A N 0.75336(8) 0.02306(14) 0.4797(1)
N2A N 0.74703(9) 0.00188(14) 0.19424(11)
C1A C 0.66789(10) 0.01146(16) 0.30847(12)
C2A C 0.70955(10) 0.00682(15) 0.24368(12)
C3A C 0.71336(9) 0.01880(15) 0.40288(12)
C4A C 0.53783(11) 0.01073(18) 0.18550(12)
C5A C 0.58414(10) 0.00976(16) 0.27927(12)
C6A C 0.45865(10) 0.00956(18) 0.15821(12)
F3A F 0.12488(6) -0.37670(9) -0.13798(7)
C10A C 0.06132(9) -0.42771(16) -0.19574(11)
N4A N -0.11000(9) -0.11437(14) -0.35001(11)
C13A C -0.06150(9) -0.17298(15) -0.30614(12)
F4A F 0.12633(6) -0.59629(10) -0.14347(8)
C7A C 0.06146(9) -0.54373(16) -0.19731(11)
N3A N -0.11369(8) -0.85612(13) -0.34174(10)
C11A C -0.06343(9) -0.79834(14) -0.30115(11)
Cu1A Cu -0.185612(13) 0.01283(2) -0.387542(16)
N1A* N -0.24664(8) 0.02306(14) -0.5203(1)
N2B N -0.25297(9) -0.00188(14) -0.30576(11)
N2C N 0.25297(9) -0.00188(14) -0.19424(11)
Cu1* Cu 0.185612(13) -0.98717(2) -0.112458(16)
Cu1A* Cu -0.185612(13) -0.98717(2) -0.387542(16)
Cu1A** Cu 0.814388(13) 0.01283(2) 0.612458(16)
Cu1B Cu 0.814388(13) -0.01283(2) 0.112458(16)
Cu1C Cu 0.185612(13) -0.01283(2) 0.387542(16)
N3* N 0.11369(8) 0.14388(13) -0.15826(10)
N3A* N -0.11369(8) 0.14388(13) -0.34174(10)
#END
