
#######################################################################
#
#                 Cambridge Crystallographic Data Centre
#                                CCDC
#
#######################################################################
#
# If this CIF has been generated from an entry in the Cambridge
# Structural Database, then it will include bibliographic, chemical,
# crystal, experimental, refinement or atomic coordinate data resulting
# from the CCDC's data processing and validation procedures.
#
#######################################################################

data_CSD_CIF_KIQFIC
_audit_creation_date 2018-09-17
_audit_creation_method CSD-ConQuest-V1
_database_code_CSD KIQFIC
_database_code_depnum_ccdc_archive 'CCDC 1838253'
_chemical_formula_sum 'C4 H60 K6 N3 Na5 O109 Si2 W20 Zr4'
_chemical_formula_moiety
;
(C4 H32 K6 Na5 O101 Si2 W20 Zr4 3-)n,3n(H4 N1 1+),8n(H2 O1)
;
_journal_coden_Cambridge 1290
_journal_year 2019
_journal_page_first 417
_journal_name_full 'Eur.J.Inorg.Chem. '
loop_
_publ_author_name
"Yue-Lin Wang"
"Zhong Zhang"
"Hai-Lou Li"
"Xu-Yan Li"
"Guo-Yu Yang"
_chemical_name_systematic
;
catena-(tris(ammonium) 
bis(\m-silicato)-bis(\m-oxalato)-bis(\m-hydroxo)-nonakis(\m-aqua)-tetrahexacon
takis(\m-oxo)-hexa-aqua-tetraoxo-hexa-potassium-penta-sodium-icosa-tungsten-te
tra-zirconium octahydrate)
;
_cell_volume   2471.075
_exptl_crystal_colour 'colorless'
_exptl_crystal_density_diffrn 4.262
_exptl_crystal_description 'block'
_diffrn_ambient_temperature 293
#These two values have been output from a single CSD field.
_refine_ls_R_factor_gt 0.0347
_refine_ls_wR_factor_gt 0.0347
_symmetry_cell_setting triclinic
_symmetry_space_group_name_H-M 'P -1'
_symmetry_Int_Tables_number 2
loop_
_symmetry_equiv_pos_site_id
_symmetry_equiv_pos_as_xyz
1 x,y,z
2 -x,-y,-z
_cell_length_a 12.0873(5)
_cell_length_b 12.2972(5)
_cell_length_c 19.4826(7)
_cell_angle_alpha 79.478(3)
_cell_angle_beta 89.854(3)
_cell_angle_gamma 60.735(4)
_cell_formula_units_Z 1
loop_
_atom_type_symbol
_atom_type_radius_bond
C 0.68
K 2.03
N 0.68
Na 1.66
O 0.68
Si 1.20
W 1.62
Zr 1.75
loop_
_atom_site_label
_atom_site_type_symbol
_atom_site_fract_x
_atom_site_fract_y
_atom_site_fract_z
W1 W 0.82151(5) 0.03321(5) 0.33384(2)
W2 W 0.34520(5) 0.25342(5) 0.28565(2)
W3 W 0.53834(5) 0.21591(5) 0.42464(2)
W4 W 0.33841(5) 0.64583(5) 0.15826(2)
W5 W 0.80459(5) 0.44368(5) 0.23028(2)
W6 W 0.55030(5) 0.61274(5) 0.31089(2)
W7 W 0.77740(5) 0.32028(5) 0.39531(2)
W8 W 0.84540(5) 0.16390(5) 0.17005(2)
W9 W 0.31258(5) 0.50945(5) 0.34186(2)
W10 W 0.62185(5) 0.07589(5) 0.19647(2)
Zr1 Zr 0.58912(11) 0.48904(11) 0.07070(5)
Zr2 Zr 0.34439(11) 0.39180(12) 0.09230(5)
K1 K 0.0645(3) 0.5828(3) 0.20222(16)
K2 K 0.9782(3) -0.3470(3) 0.44845(16)
K3 K 0.0684(4) 0.7344(4) 0.00738(18)
Na1 Na 0.50000 0.50000 0.50000
Na2 Na 0.5913(5) 0.8994(5) 0.3858(2)
Na3 Na 0.0880(8) 0.1065(9) 0.3200(5)
Si1 Si 0.5742(3) 0.3506(3) 0.24971(15)
C1 C 0.1968(16) 0.2634(16) 0.0584(8)
C2 C 0.0933(13) 0.3906(14) 0.0714(6)
O1 O 0.6732(8) 0.0911(8) 0.3870(4)
O2 O 0.8718(8) 0.3645(8) 0.3311(4)
O3 O 0.3146(8) 0.3450(8) 0.1984(4)
O4 O 0.2853(8) 0.5884(8) 0.2469(4)
O5 O 0.7346(8) 0.2975(8) 0.1028(4)
O6 O 0.4327(8) 0.5643(8) 0.3541(4)
O7 O 0.6969(8) 0.5065(8) 0.1519(4)
O8 O 0.4515(8) 0.6605(8) 0.2276(4)
O9 O 0.7721(8) 0.0596(8) 0.1534(4)
O10 O 0.8730(8) 0.2735(8) 0.2159(4)
O11 O 0.6501(7) 0.4102(8) 0.2862(4)
O12 O 0.9300(9) -0.1014(9) 0.3920(4)
O13 O 0.7447(8) -0.0319(9) 0.2834(4)
O14 O 0.9211(8) 0.0400(8) 0.2630(4)
O15 O 0.5146(8) 0.2136(8) 0.1329(4)
O16 O 0.4243(8) 0.1755(8) 0.3852(4)
O17 O 0.4402(8) 0.6583(8) 0.0900(4)
O18 O 0.8395(8) 0.1620(8) 0.3674(4)
O19 O 0.4752(7) 0.4240(8) 0.0376(4)
O20 O 0.4769(8) 0.3386(8) 0.3054(4)
O21 O 0.6423(8) 0.2915(8) 0.4291(4)
O22 O 0.3934(8) 0.3823(9) 0.4279(4)
O23 O 0.6670(8) 0.4972(8) 0.3946(4)
O24 O 0.2195(8) 0.8027(8) 0.1436(4)
O25 O 0.4997(9) 0.7551(9) 0.3356(4)
O26 O 0.4969(8) 0.1161(9) 0.2628(4)
O27 O 0.6973(8) 0.5968(8) 0.2674(4)
O28 O 0.1324(8) 0.4614(9) 0.0886(4)
O29 O 0.2635(8) 0.5793(8) 0.1111(4)
O30 O 0.6770(8) 0.2087(8) 0.2404(4)
O31 O 0.5560(9) 0.1413(10) 0.5103(4)
O32 O 0.7286(8) 0.5191(9) 0.0169(4)
O33 O 0.9812(8) 0.0978(9) 0.1275(4)
O34 O 0.2409(8) 0.4071(9) 0.3210(4)
O35 O 0.5006(8) 0.4415(8) 0.1738(4)
O36 O 0.6153(9) -0.0462(10) 0.1701(5)
O37 O 0.3098(9) 0.247(1) 0.0657(5)
O38 O 0.2446(9) 0.1902(9) 0.2894(5)
O39 O 0.1839(8) 0.6189(9) 0.3759(4)
O40 O 0.9235(9) 0.4772(10) 0.2084(4)
O41 O 0.8711(9) 0.278(1) 0.4714(4)
O42 O 0.1729(12) 0.1851(12) 0.0434(8)
O43 O -0.0195(9) 0.4167(11) 0.0652(5)
O44 O 0.190(3) -0.114(3) 0.2761(16)
O45 O 0.1012(17) 0.0119(17) 0.4685(8)
O46 O 0.7762(11) -0.3925(13) 0.4667(5)
O47 O 0.8621(13) -0.2988(13) 0.3026(6)
O48 O 0.7512(12) 0.8488(12) 0.5126(6)
O49 O 1.0482(10) -0.5929(12) 0.4043(5)
O50 O 0.00000 1.00000 0.00000
O51 O -0.1868(14) 1.0029(12) -0.0816(8)
N1 N 0.2483(18) 0.8079(19) 0.4052(11)
N2 N 0.50000 0.00000 0.00000
O52 O 0.3072(16) 0.8920(15) 0.9952(7)
W1A W -0.82151(5) 0.96679(5) -0.33384(2)
W2A W -0.34520(5) 0.74658(5) -0.28565(2)
W3A W -0.53834(5) 0.78409(5) -0.42464(2)
W4A W -0.33841(5) 0.35417(5) -0.15826(2)
W5A W -0.80459(5) 0.55632(5) -0.23028(2)
W6A W -0.55030(5) 0.38726(5) -0.31089(2)
W7A W -0.77740(5) 0.67972(5) -0.39531(2)
W8A W -0.84540(5) 0.83610(5) -0.17005(2)
W9A W -0.31258(5) 0.49055(5) -0.34186(2)
W10A W -0.62185(5) 0.92411(5) -0.19647(2)
Zr1A Zr -0.58912(11) 0.51096(11) -0.07070(5)
Zr2A Zr -0.34439(11) 0.60820(12) -0.09230(5)
K1A K -0.0645(3) 0.4172(3) -0.20222(16)
K2A K -0.9782(3) 1.3470(3) -0.44845(16)
K3A K -0.0684(4) 0.2656(4) -0.00738(18)
Na2A Na -0.5913(5) 0.1006(5) -0.3858(2)
Na3A Na -0.0880(8) 0.8935(9) -0.3200(5)
Si1A Si -0.5742(3) 0.6494(3) -0.24971(15)
C1A C -0.1968(16) 0.7366(16) -0.0584(8)
C2A C -0.0933(13) 0.6094(14) -0.0714(6)
O1A O -0.6732(8) 0.9089(8) -0.3870(4)
O2A O -0.8718(8) 0.6355(8) -0.3311(4)
O3A O -0.3146(8) 0.6550(8) -0.1984(4)
O4A O -0.2853(8) 0.4116(8) -0.2469(4)
O5A O -0.7346(8) 0.7025(8) -0.1028(4)
O6A O -0.4327(8) 0.4357(8) -0.3541(4)
O7A O -0.6969(8) 0.4935(8) -0.1519(4)
O8A O -0.4515(8) 0.3395(8) -0.2276(4)
O9A O -0.7721(8) 0.9404(8) -0.1534(4)
O10A O -0.8730(8) 0.7265(8) -0.2159(4)
O11A O -0.6501(7) 0.5898(8) -0.2862(4)
O12A O -0.9300(9) 1.1014(9) -0.3920(4)
O13A O -0.7447(8) 1.0319(9) -0.2834(4)
O14A O -0.9211(8) 0.9600(8) -0.2630(4)
O15A O -0.5146(8) 0.7864(8) -0.1329(4)
O16A O -0.4243(8) 0.8245(8) -0.3852(4)
O17A O -0.4402(8) 0.3417(8) -0.0900(4)
O18A O -0.8395(8) 0.8380(8) -0.3674(4)
O19A O -0.4752(7) 0.5760(8) -0.0376(4)
O20A O -0.4769(8) 0.6614(8) -0.3054(4)
O21A O -0.6423(8) 0.7085(8) -0.4291(4)
O22A O -0.3934(8) 0.6177(9) -0.4279(4)
O23A O -0.6670(8) 0.5028(8) -0.3946(4)
O24A O -0.2195(8) 0.1973(8) -0.1436(4)
O25A O -0.4997(9) 0.2449(9) -0.3356(4)
O26A O -0.4969(8) 0.8839(9) -0.2628(4)
O27A O -0.6973(8) 0.4032(8) -0.2674(4)
O28A O -0.1324(8) 0.5386(9) -0.0886(4)
O29A O -0.2635(8) 0.4207(8) -0.1111(4)
O30A O -0.6770(8) 0.7913(8) -0.2404(4)
O31A O -0.5560(9) 0.8587(10) -0.5103(4)
O32A O -0.7286(8) 0.4809(9) -0.0169(4)
O33A O -0.9812(8) 0.9022(9) -0.1275(4)
O34A O -0.2409(8) 0.5929(9) -0.3210(4)
O35A O -0.5006(8) 0.5585(8) -0.1738(4)
O36A O -0.6153(9) 1.0462(10) -0.1701(5)
O37A O -0.3098(9) 0.753(1) -0.0657(5)
O38A O -0.2446(9) 0.8098(9) -0.2894(5)
O39A O -0.1839(8) 0.3811(9) -0.3759(4)
O40A O -0.9235(9) 0.5228(10) -0.2084(4)
O41A O -0.8711(9) 0.722(1) -0.4714(4)
O42A O -0.1729(12) 0.8149(12) -0.0434(8)
O43A O 0.0195(9) 0.5833(11) -0.0652(5)
O44A O -0.190(3) 1.114(3) -0.2761(16)
O45A O -0.1012(17) 0.9881(17) -0.4685(8)
O46A O -0.7762(11) 1.3925(13) -0.4667(5)
O47A O -0.8621(13) 1.2988(13) -0.3026(6)
O48A O -0.7512(12) 0.1512(12) -0.5126(6)
O49A O -1.0482(10) 1.5929(12) -0.4043(5)
O51A O 0.1868(14) -0.0029(12) 0.0816(8)
Zr1* Zr -0.41088(11) 0.48904(11) 0.07070(5)
Zr1A* Zr 0.41088(11) 0.51096(11) -0.07070(5)
Zr2* Zr -0.65561(11) 0.39180(12) 0.09230(5)
Zr2A* Zr 0.65561(11) 0.60820(12) -0.09230(5)
K1* K 1.0645(3) -0.4172(3) 0.20222(16)
K1** K 1.0645(3) 0.5828(3) 0.20222(16)
K1A* K -1.0645(3) 0.4172(3) -0.20222(16)
K1A** K -1.0645(3) 1.4172(3) -0.20222(16)
K2* K -1.0218(3) 0.6530(3) -0.55155(16)
K2** K -1.0218(3) 1.6530(3) -0.55155(16)
K2*** K -0.0218(3) 0.6530(3) 0.44845(16)
K2**** K 0.9782(3) 0.6530(3) 0.44845(16)
K2A* K -0.9782(3) 0.3470(3) -0.44845(16)
K2A** K 0.0218(3) 0.3470(3) -0.44845(16)
K2A*** K 1.0218(3) -0.6530(3) 0.55155(16)
K2A**** K 1.0218(3) 0.3470(3) 0.55155(16)
K3* K -0.9316(4) 0.7344(4) 0.00738(18)
K3A* K -0.0684(4) 1.2656(4) -0.00738(18)
K3A** K 0.9316(4) 0.2656(4) -0.00738(18)
Na1* Na -0.50000 0.50000 -0.50000
Na2* Na -0.4087(5) 0.8994(5) -0.6142(2)
Na2** Na 0.5913(5) -0.1006(5) 0.3858(2)
Na2A* Na -0.5913(5) 1.1006(5) -0.3858(2)
Na2A** Na 0.4087(5) 0.1006(5) 0.6142(2)
Na3* Na 1.0880(8) 0.1065(9) 0.3200(5)
Na3A* Na -1.0880(8) 0.8935(9) -0.3200(5)
O1* O 0.6732(8) 1.0911(8) 0.3870(4)
O1A* O -0.6732(8) -0.0911(8) -0.3870(4)
O2* O -0.1282(8) 0.3645(8) 0.3311(4)
O2A* O 0.1282(8) 0.6355(8) -0.3311(4)
O5* O -0.2654(8) 0.2975(8) 0.1028(4)
O5A* O 0.2654(8) 0.7025(8) -0.1028(4)
O6A* O 0.5673(8) 0.4357(8) 0.6459(4)
O10* O -0.1270(8) 0.2735(8) 0.2159(4)
O10A* O 0.1270(8) 0.7265(8) -0.2159(4)
O13* O 0.7447(8) 0.9681(9) 0.2834(4)
O13A* O -0.7447(8) 0.0319(9) -0.2834(4)
O14* O -0.0789(8) 0.0400(8) 0.2630(4)
O14A* O 0.0789(8) 0.9600(8) -0.2630(4)
O16* O 0.4243(8) 1.1755(8) 0.3852(4)
O16A* O -0.4243(8) -0.1755(8) -0.3852(4)
O18* O -0.1605(8) 0.1620(8) 0.3674(4)
O18A* O 0.1605(8) 0.8380(8) -0.3674(4)
O19* O -0.5248(7) 0.4240(8) 0.0376(4)
O19A* O 0.5248(7) 0.5760(8) -0.0376(4)
O21A* O 0.3577(8) 0.7085(8) 0.5709(4)
O22A* O 0.6066(8) 0.6177(9) 0.5721(4)
O23A* O 0.3330(8) 0.5028(8) 0.6054(4)
O26* O 0.4969(8) 1.1161(9) 0.2628(4)
O26A* O -0.4969(8) -0.1161(9) -0.2628(4)
O31* O -0.4440(9) 0.1413(10) -0.4897(4)
O31A* O 0.4440(9) 0.8587(10) 0.4897(4)
O32* O -0.2714(8) 0.5191(9) 0.0169(4)
O32A* O 0.2714(8) 0.4809(9) -0.0169(4)
O33* O -0.0188(8) 0.0978(9) 0.1275(4)
O33A* O 0.0188(8) 0.9022(9) -0.1275(4)
O39* O 1.1839(8) -0.3811(9) 0.3759(4)
O39A* O -1.1839(8) 1.3811(9) -0.3759(4)
O40* O -0.0765(9) 0.4772(10) 0.2084(4)
O40A* O 0.0765(9) 0.5228(10) -0.2084(4)
O41* O -1.1289(9) 1.278(1) -0.5286(4)
O41A* O 1.1289(9) -0.278(1) 0.5286(4)
O46* O -1.2238(11) 1.6075(13) -0.5333(5)
O46A* O 1.2238(11) -0.6075(13) 0.5333(5)
O47* O -0.1379(13) 0.7012(13) 0.3026(6)
O47A* O 0.1379(13) 0.2988(13) -0.3026(6)
O48* O 0.7512(12) -0.1512(12) 0.5126(6)
O48A* O -0.7512(12) 1.1512(12) -0.5126(6)
O49* O -0.9518(10) 1.4071(12) -0.5957(5)
O49A* O 0.9518(10) -0.4071(12) 0.5957(5)
O50* O 0.00000 0.00000 0.00000
#END
