
#######################################################################
#
#                 Cambridge Crystallographic Data Centre
#                                CCDC
#
#######################################################################
#
# If this CIF has been generated from an entry in the Cambridge
# Structural Database, then it will include bibliographic, chemical,
# crystal, experimental, refinement or atomic coordinate data resulting
# from the CCDC's data processing and validation procedures.
#
#######################################################################

data_CSD_CIF_KISPOS
_audit_creation_date 2008-04-24
_audit_creation_method CSD-ConQuest-V1
_database_code_CSD KISPOS
_database_code_depnum_ccdc_archive 'CCDC 633392'
_chemical_formula_sum 'C48 H59 Co7 K1 O43'
_chemical_formula_moiety
;
(C48 H33 Co7 O30 1-)n,n(K1 1+),13n(H2 O1)
;
_journal_coden_Cambridge 1089
_journal_volume 19
_journal_year 2007
_journal_page_first 1494
_journal_name_full 'Adv.Mater. '
loop_
_publ_author_name
"Xiao-Ning Cheng"
"Wei-Xiong Zhang"
"Yan-Yong Lin"
"Yan-Zhen Zheng"
"Xiao-Ming Chen"
_chemical_name_systematic
;
catena-(potassium 
tris(\m~5~-isophthalato)-tris(\m~4~-isophthalato)-tris(\m~3~-hydroxo)-triaqua-
hepta-cobalt(ii) tridecahydrate)
;
_cell_volume  21677.202
_exptl_crystal_colour 'red'
_exptl_special_details
;
magnetic properties
The CIF formula suggests there are a total of 11 water molecules, we have 
entered the structure as having 13 as described in the paper. Due to the 
potassium disorder we have drawn it as uncoordinated although it is described 
as having octahedral geometry
;
_exptl_crystal_description 'prism'
_diffrn_ambient_temperature 293
_refine_special_details
;
The K atom is disordered by symmetry and has an occupancy of 0.67. Some of 
the uncoordinated water molecules are disordered.
;
#These two values have been output from a single CSD field.
_refine_ls_R_factor_gt 0.0604
_refine_ls_wR_factor_gt 0.0604
_symmetry_cell_setting rhombohedral
_symmetry_space_group_name_H-M 'R -3 c'
_symmetry_Int_Tables_number 167
loop_
_symmetry_equiv_pos_site_id
_symmetry_equiv_pos_as_xyz
1 x,y,z
2 -y,x-y,z
3 -x+y,-x,z
4 y,x,1/2-z
5 2/3+x,1/3+y,1/3+z
6 2/3-y,1/3+x-y,1/3+z
7 2/3-x+y,1/3-x,1/3+z
8 2/3+y,1/3+x,5/6-z
9 1/3+x,2/3+y,2/3+z
10 1/3+y,2/3+x,1/6-z
11 x-y,-y,1/2-z
12 -x,-x+y,1/2-z
13 1/3-y,2/3+x-y,2/3+z
14 1/3-x+y,2/3-x,2/3+z
15 1/3+x-y,2/3-y,1/6-z
16 1/3-x,2/3-x+y,1/6-z
17 2/3+x-y,1/3-y,5/6-z
18 2/3-x,1/3-x+y,5/6-z
19 -x,-y,-z
20 y,-x+y,-z
21 x-y,x,-z
22 -y,-x,-1/2+z
23 -2/3-x,-1/3-y,-1/3-z
24 -2/3+y,-1/3-x+y,-1/3-z
25 -2/3+x-y,-1/3+x,-1/3-z
26 -2/3-y,-1/3-x,-5/6+z
27 -1/3-x,-2/3-y,-2/3-z
28 -1/3-y,-2/3-x,-1/6+z
29 -x+y,y,-1/2+z
30 x,x-y,-1/2+z
31 -1/3+y,-2/3-x+y,-2/3-z
32 -1/3+x-y,-2/3+x,-2/3-z
33 -1/3-x+y,-2/3+y,-1/6+z
34 -1/3+x,-2/3+x-y,-1/6+z
35 -2/3-x+y,-1/3+y,-5/6+z
36 -2/3+x,-1/3+x-y,-5/6+z
_cell_length_a 17.1947(7)
_cell_length_b 17.1947(7)
_cell_length_c 84.661(4)
_cell_angle_alpha 90
_cell_angle_beta 90
_cell_angle_gamma 120
_cell_formula_units_Z 12
loop_
_atom_type_symbol
_atom_type_radius_bond
C 0.68
H 0.23
Co 1.33
K 1.58
O 0.76
loop_
_atom_site_label
_atom_site_type_symbol
_atom_site_fract_x
_atom_site_fract_y
_atom_site_fract_z
Co1 Co 0.29590(4) 0.51630(4) 0.058787(6)
Co2 Co 0.23839(4) 0.45954(4) 0.021040(6)
Co3 Co 0.33330 0.66670 0.025571(11)
O1 O 0.2595(2) 0.5520(2) 0.03865(3)
H1 H 0.220(4) 0.549(4) 0.0391(6)
O2 O 0.1394(2) 0.3638(2) 0.03505(4)
O3 O 0.1933(2) 0.3814(2) 0.05988(4)
O4 O -0.1514(2) 0.0156(2) 0.08618(4)
O5 O -0.0172(2) 0.0969(2) 0.09658(3)
C1 C 0.1375(3) 0.3375(3) 0.04902(5)
C2 C 0.0624(4) 0.2432(3) 0.05217(6)
C3 C -0.0368(4) 0.1217(3) 0.06925(5)
C4 C 0.0351(3) 0.2082(3) 0.06736(5)
H2 H 0.06500 0.24270 0.07620
C5 C -0.0692(3) 0.0776(3) 0.08508(5)
C6 C 0.0209(6) 0.1891(5) 0.03913(7)
H3 H 0.04040 0.21160 0.02900
C7 C -0.0491(7) 0.1023(5) 0.04103(8)
H4 H -0.07640 0.06620 0.03230
C8 C -0.0783(6) 0.0696(5) 0.05605(7)
H5 H -0.12650 0.01170 0.05730
O6 O -0.1109(2) 0.4017(2) -0.04790(4)
O7 O -0.0907(2) 0.3338(2) -0.02698(4)
O8 O 0.2275(2) 0.6472(2) 0.01000(4)
O9 O 0.1568(2) 0.4976(2) 0.00894(4)
C9 C -0.0689(3) 0.4014(3) -0.03574(5)
C10 C 0.0130(4) 0.4884(4) -0.03094(5)
C11 C 0.1303(3) 0.5717(3) -0.01178(5)
C12 C 0.0562(3) 0.4926(3) -0.01684(5)
H6 H 0.03500 0.44120 -0.01070
C13 C 0.1740(3) 0.5722(3) 0.00354(5)
C14 C 0.0442(5) 0.5652(5) -0.04018(7)
H7 H 0.01530 0.56350 -0.04960
C15 C 0.1192(6) 0.6446(5) -0.03525(9)
H8 H 0.14050 0.69590 -0.04140
C16 C 0.1627(5) 0.6481(4) -0.02114(8)
H9 H 0.21310 0.70120 -0.01800
O10 O 0.2027(4) 0.3648(3) 0.00266(5)
H10 H 0.219(6) 0.323(6) 0.0022(10)
H11 H 0.138(7) 0.333(7) -0.0021(11)
K1 K 0.2785(2) 0.33330 0.08330
O11 O 0.451(3) 0.407(3) 0.0717(5)
O12 O 0.332(5) 0.271(5) 0.0554(8)
O13? O 0.375(4) 0.283(4) 0.0602(6)
O14 O -0.267(3) 0.021(2) -0.0042(4)
O15 O -0.237(4) 0.101(5) 0.0294(8)
O16 O -0.166(4) -0.032(5) 0.0036(6)
O17? O 0.2827(17) 0.325(2) 0.0776(3)
O18? O -0.2407(14) 0.0579(15) 0.0224(3)
O19? O -0.127(4) 0.023(4) 0.0023(5)
O20? O -0.130(3) -0.055(4) 0.0015(6)
O21? O -0.077(5) 0.003(6) 0.0018(7)
O22? O -0.204(4) 0.019(4) 0.0041(7)
O23? O -0.2381(19) 0.0250(19) 0.0114(4)
O24? O 0.353(9) 0.249(8) 0.0549(14)
O25? O -0.3205(10) -0.0023(9) -0.01240(16)
Co1A Co 0.48370(4) 0.77960(4) 0.058787(6)
Co1B Co 0.22040(4) 0.70410(4) 0.058787(6)
Co1I Co -0.150367(40) -0.037433(40) 0.107880(6)
Co1N Co 0.112933(40) 0.150367(40) 0.107880(6)
Co1T Co -0.22040(4) 0.29590(4) -0.058787(6)
Co1R Co 0.70410(4) 0.48370(4) -0.058787(6)
Co1S Co 0.51630(4) 1.22040(4) -0.058787(6)
Co1I* Co 0.849633(40) 0.962567(40) 0.107880(6)
Co2A Co 0.54046(4) 0.77885(4) 0.021040(6)
Co2B Co 0.22115(4) 0.76161(4) 0.021040(6)
Co2T Co -0.22115(4) 0.23839(4) -0.021040(6)
Co2R Co 0.76161(4) 0.54046(4) -0.021040(6)
Co2S Co 0.45954(4) 1.22115(4) -0.021040(6)
Co2I Co 0.792873(40) 0.905057(40) 0.145627(6)
Co2N Co 0.112183(40) 0.207127(40) 0.145627(6)
O1A O 0.4480(2) 0.7075(2) 0.03865(3)
O1B O 0.2925(2) 0.7405(2) 0.03865(3)
H1A H 0.451(4) 0.671(4) 0.0391(6)
H1B H 0.329(4) 0.780(4) 0.0391(6)
O2I O 0.697133(200) 0.806067(200) 0.131617(40)
O2N O 0.108933(200) 0.302867(200) 0.131617(40)
O2A O 0.6362(2) 0.7756(2) 0.03505(4)
O2B O 0.2244(2) 0.8606(2) 0.03505(4)
O3I O 0.714733(200) 0.859967(200) 0.106787(40)
O3N O 0.145233(200) 0.285267(200) 0.106787(40)
O3A O 0.6186(2) 0.8119(2) 0.05988(4)
O3B O 0.1881(2) 0.8067(2) 0.05988(4)
O4I O 0.348933(200) 0.515267(200) 0.080487(40)
O4N O 0.166333(200) 0.651067(200) 0.080487(40)
O4O O 0.484733(200) 0.833667(200) 0.080487(40)
O5I O 0.430233(200) 0.649467(200) 0.070087(30)
O5N O 0.219233(200) 0.569767(200) 0.070087(30)
O5O O 0.350533(200) 0.780767(200) 0.070087(30)
C1I C 0.670833(300) 0.804167(300) 0.117647(50)
C1N C 0.133333(300) 0.329167(300) 0.117647(50)
C2I C 0.576533(400) 0.729067(300) 0.114497(60)
C2N C 0.152533(400) 0.423467(300) 0.114497(60)
C3I C 0.455033(400) 0.629867(300) 0.097417(50)
C3N C 0.174833(400) 0.544967(300) 0.097417(50)
C4I C 0.541533(300) 0.701767(300) 0.099307(50)
C4N C 0.160233(300) 0.458467(300) 0.099307(50)
H2I H 0.57603 0.73167 0.09047
H2N H 0.15563 0.42397 0.09047
C5I C 0.410933(300) 0.597467(300) 0.081587(50)
C5N C 0.186533(300) 0.589067(300) 0.081587(50)
C6I C 0.522433(600) 0.687567(500) 0.127537(70)
C6N C 0.165133(600) 0.477567(500) 0.127537(70)
H3I H 0.54493 0.70707 0.13767
H3N H 0.16213 0.45507 0.13767
C7I C 0.435633(700) 0.617567(500) 0.125637(80)
C7N C 0.181933(700) 0.564367(500) 0.125637(80)
H4I H 0.39953 0.59027 0.13437
H4N H 0.19073 0.60047 0.13437
C8I C 0.402933(600) 0.588367(500) 0.110617(70)
C8N C 0.185433(600) 0.597067(500) 0.110617(70)
H5I H 0.34503 0.54017 0.10937
H5N H 0.19513 0.65497 0.10937
O6A O 0.5983(2) 0.4874(2) -0.04790(4)
O6B O 0.5126(2) 1.1109(2) -0.04790(4)
O6S O 0.4017(2) 0.5126(2) 0.04790(4)
O6T O 0.4874(2) 0.8891(2) 0.04790(4)
O6R O 0.1109(2) 0.5983(2) 0.04790(4)
O7A O 0.6662(2) 0.5755(2) -0.02698(4)
O7B O 0.4245(2) 1.0907(2) -0.02698(4)
O7S O 0.3338(2) 0.4245(2) 0.02698(4)
O7T O 0.5755(2) 0.9093(2) 0.02698(4)
O7R O 0.0907(2) 0.6662(2) 0.02698(4)
O8A O 0.3528(2) 0.5803(2) 0.01000(4)
O8B O 0.4197(2) 0.7725(2) 0.01000(4)
O9A O 0.5024(2) 0.6592(2) 0.00894(4)
O9B O 0.3408(2) 0.8432(2) 0.00894(4)
C9A C 0.5986(3) 0.5297(3) -0.03574(5)
C9B C 0.4703(3) 1.0689(3) -0.03574(5)
C10A C 0.5116(4) 0.5246(4) -0.03094(5)
C10B C 0.4754(4) 0.9870(4) -0.03094(5)
C11A C 0.4283(3) 0.5586(3) -0.01178(5)
C11B C 0.4414(3) 0.8697(3) -0.01178(5)
C12A C 0.5074(3) 0.5636(3) -0.01684(5)
C12B C 0.4364(3) 0.9438(3) -0.01684(5)
H6A H 0.55880 0.59380 -0.01070
H6B H 0.40620 0.96500 -0.01070
C13A C 0.4278(3) 0.6018(3) 0.00354(5)
C13B C 0.3982(3) 0.8260(3) 0.00354(5)
C14A C 0.4348(5) 0.4790(5) -0.04018(7)
C14B C 0.5210(5) 0.9558(5) -0.04018(7)
H7A H 0.43650 0.45180 -0.04960
H7B H 0.54820 0.98470 -0.04960
C15A C 0.3554(6) 0.4746(5) -0.03525(9)
C15B C 0.5254(6) 0.8808(5) -0.03525(9)
H8A H 0.30410 0.44460 -0.04140
H8B H 0.55540 0.85950 -0.04140
C16A C 0.3519(5) 0.5146(4) -0.02114(8)
C16B C 0.4854(5) 0.8373(4) -0.02114(8)
H9A H 0.29880 0.51190 -0.01800
H9B H 0.48810 0.78690 -0.01800
O10A O 0.6352(4) 0.8379(3) 0.00266(5)
O10B O 0.1621(4) 0.7973(3) 0.00266(5)
H10A H 0.677(6) 0.896(6) 0.0022(10)
H10B H 0.104(6) 0.781(6) 0.0022(10)
H11A H 0.667(7) 0.805(7) -0.0021(11)
H11B H 0.195(7) 0.862(7) -0.0021(11)
#END
