
#######################################################################
#
#                 Cambridge Crystallographic Data Centre
#                                CCDC
#
#######################################################################
#
# If this CIF has been generated from an entry in the Cambridge
# Structural Database, then it will include bibliographic, chemical,
# crystal, experimental, refinement or atomic coordinate data resulting
# from the CCDC's data processing and validation procedures.
#
#######################################################################

data_CSD_CIF_KIVPEM
_audit_creation_date 2014-01-24
_audit_creation_method CSD-ConQuest-V1
_database_code_CSD KIVPEM
_database_code_depnum_ccdc_archive 'CCDC 900040'
_chemical_formula_sum 'C56 H64 N14 O35 Pr2 Sr1'
_chemical_formula_moiety
;
(C42 H28 N6 O29 Pr2 Sr1 4-)n,4n(C3 H5 N2 1+),n(C2 H6 O1),5n(H2 O1)
;
_journal_coden_Cambridge 603
_journal_volume 32
_journal_year 2013
_journal_page_first 1859
_journal_name_full 'Jiegou Huaxue(Chin.)(Chin.J.Struct.Chem.) '
loop_
_publ_author_name
"Yanmei Chen"
"Yanyuan Cao"
"Yahong Li"
"Wei Liu"
_chemical_name_systematic
;
catena-(tetrakis(Imidazolium) 
tris(\m~2~-pyridine-2,6-dicarboxylato)-tris(pyridine-2,6-dicarboxylato)-di-pra
seodymium-strontium ethanol solvate pentahydrate)
;
_cell_volume   3475.347
_exptl_crystal_colour 'light green'
_exptl_crystal_density_diffrn 1.78
_exptl_crystal_description 'rod'
_diffrn_ambient_temperature 293
#These two values have been output from a single CSD field.
_refine_ls_R_factor_gt 0.0347
_refine_ls_wR_factor_gt 0.0347
_symmetry_cell_setting triclinic
_symmetry_space_group_name_H-M 'P -1'
_symmetry_Int_Tables_number 2
loop_
_symmetry_equiv_pos_site_id
_symmetry_equiv_pos_as_xyz
1 x,y,z
2 -x,-y,-z
_cell_length_a 10.4566(7)
_cell_length_b 11.0799(7)
_cell_length_c 30.5156(18)
_cell_angle_alpha 88.3306(12)
_cell_angle_beta 87.8310(13)
_cell_angle_gamma 79.7213(11)
_cell_formula_units_Z 2
loop_
_atom_type_symbol
_atom_type_radius_bond
C 0.68
H 0.23
N 0.68
O 0.68
Pr 2.03
Sr 1.95
loop_
_atom_site_label
_atom_site_type_symbol
_atom_site_fract_x
_atom_site_fract_y
_atom_site_fract_z
Pr1 Pr 0.44267(2) 0.345142(19) 0.372914(7)
O1 O 0.5389(3) 0.4937(2) 0.32449(9)
N1 N 0.6838(3) 0.3614(3) 0.38362(10)
C1 C 0.7401(4) 0.4425(3) 0.35985(13)
C2 C 1.1314(5) 0.8921(4) 0.02261(15)
H1 H 1.14370 0.81830 0.00790
Pr2 Pr 0.87102(2) 1.04476(2) 0.148538(7)
O2 O 0.7038(3) 0.5840(2) 0.30013(9)
N2 N 0.2939(3) 0.3397(3) 0.44263(10)
C3 C 0.8656(4) 0.4562(4) 0.36545(14)
H2 H 0.90110 0.51490 0.34900
Sr1 Sr 0.72827(4) 0.57189(3) 0.214740(13)
O3 O 0.5684(3) 0.1985(2) 0.42679(9)
N3 N 0.3625(3) 0.3303(3) 0.29398(11)
C4 C 0.9396(5) 0.3820(4) 0.39584(16)
H3 H 1.02530 0.38970 0.40020
O4 O 0.7468(3) 0.1223(3) 0.46265(10)
N4 N 0.6284(3) 1.0282(3) 0.14668(10)
C5 C 0.8831(4) 0.2967(4) 0.41934(15)
H4 H 0.93090 0.24460 0.43960
O5 O 0.4295(3) 0.5154(3) 0.42461(9)
C6 C 0.7556(4) 0.2884(3) 0.41287(12)
N5 N 1.0294(3) 1.0154(3) 0.08053(11)
O6 O 0.3566(4) 0.6125(3) 0.48597(11)
C7 C 0.6544(4) 0.5130(4) 0.32525(13)
N6 N 0.9670(3) 1.0877(3) 0.22155(11)
O7 O 0.3143(3) 0.1732(2) 0.38163(9)
C8 C 0.6856(4) 0.1956(4) 0.43675(13)
O8 O 0.1789(3) 0.0708(3) 0.41828(11)
C9 C 0.2874(4) 0.4264(4) 0.47217(14)
O9 O 0.5683(3) 0.1858(3) 0.32593(9)
C10 C 0.2151(5) 0.4245(4) 0.51110(15)
H5 H 0.21090 0.48680 0.53120
O10 O 0.6150(3) 0.0907(3) 0.26266(9)
C11 C 0.1498(5) 0.3289(5) 0.51936(16)
H6 H 0.10020 0.32600 0.54520
O11 O 0.2355(3) 0.4825(3) 0.35098(9)
C12 C 0.1579(5) 0.2370(4) 0.48925(15)
H7 H 0.11610 0.17040 0.49470
O12 O 0.0911(3) 0.5678(3) 0.30238(10)
C13 C 0.2300(4) 0.2469(4) 0.45075(13)
O13 O 0.7902(3) 0.9006(3) 0.20174(9)
C14 C 0.3639(5) 0.5266(4) 0.46024(15)
O14 O 0.6381(3) 0.8016(2) 0.23055(10)
C15 C 0.2405(4) 0.1550(4) 0.41448(13)
O15 O 0.7390(3) 1.1653(3) 0.09067(10)
C16 C 0.4351(4) 0.2524(4) 0.26597(13)
O16 O 0.5514(3) 1.2496(3) 0.06239(11)
C17 C 0.4040(5) 0.2477(4) 0.22291(15)
H8 H 0.45670 0.19490 0.20380
O17 O 0.8752(3) 0.8575(3) 0.10289(10)
C18 C 0.2937(6) 0.3224(5) 0.20842(17)
H9 H 0.27040 0.31970 0.17940
O18 O 0.9922(4) 0.7138(3) 0.06054(12)
C19 C 0.2178(5) 0.4010(5) 0.23679(16)
H10 H 0.14200 0.45090 0.22760
O19 O 1.0004(3) 1.2116(3) 0.12993(10)
C20 C 0.2570(4) 0.4043(4) 0.27959(14)
O20 O 1.1321(3) 1.2999(3) 0.08548(11)
C21 C 0.5494(4) 0.1708(4) 0.28599(13)
O21 O 1.0664(3) 0.9014(3) 0.17185(11)
C22 C 0.1878(4) 0.4930(4) 0.31323(14)
O22 O 1.2073(4) 0.8231(4) 0.22266(13)
C23 C 0.5784(4) 0.9528(3) 0.17485(13)
O23 O 0.7595(3) 1.2276(3) 0.18968(9)
C24 C 0.4479(5) 0.9436(4) 0.17525(15)
H11 H 0.41480 0.88990 0.19470
O24 O 0.7432(4) 1.3556(3) 0.24541(10)
C25 C 0.3683(5) 1.0157(5) 0.14620(17)
H12 H 0.28050 1.01090 0.14560
O25 O 0.7362(3) 0.6827(3) 0.13964(9)
H13 H 0.78990 0.73180 0.13980
H14 H 0.66630 0.68520 0.12570
C26 C 0.4198(5) 1.0948(4) 0.11812(15)
H15 H 0.36680 1.14600 0.09890
O26 O 0.9268(3) 0.4372(3) 0.17326(11)
H16 H 0.98760 0.48770 0.17310
H17 H 0.95770 0.36600 0.15760
C27 C 0.5502(4) 1.0976(4) 0.11863(13)
O27 O 0.6199(4) 0.4466(3) 0.15845(11)
H18 H 0.57910 0.49440 0.13910
H19 H 0.65240 0.38010 0.14550
C28 C 0.6758(4) 0.8798(3) 0.20504(13)
O28 O 0.4841(3) 0.5897(3) 0.23954(11)
H20 H 0.42990 0.60330 0.21890
H21 H 0.45700 0.52390 0.24680
C29 C 0.6179(5) 1.1778(4) 0.08802(14)
O29 O 0.9412(3) 0.6569(3) 0.22628(12)
H22 H 0.99650 0.64660 0.24660
H23 H 0.94750 0.71880 0.20980
C30 C 1.0458(4) 0.9111(4) 0.05840(14)
C31 C 1.1984(5) 0.9836(4) 0.00896(16)
H24 H 1.25430 0.97330 -0.01560
C32 C 1.1819(5) 1.0892(4) 0.03181(15)
H25 H 1.22710 1.15150 0.02320
C33 C 1.0971(4) 1.1028(4) 0.06798(13)
C34 C 0.9649(5) 0.8191(4) 0.07528(15)
C35 C 1.0750(4) 1.2152(4) 0.09633(14)
C36 C 1.0718(5) 1.0134(4) 0.23590(15)
C37 C 1.1315(6) 1.0383(6) 0.27299(18)
H26 H 1.20360 0.98430 0.28300
C38 C 1.0844(7) 1.1430(6) 0.29513(19)
H27 H 1.12640 1.16310 0.31950
C39 C 0.9736(6) 1.2186(5) 0.28094(16)
H28 H 0.93800 1.28900 0.29610
C40 C 0.9171(5) 1.1876(4) 0.24407(14)
C41 C 1.1198(5) 0.9029(5) 0.20813(17)
C42 C 0.7965(5) 1.2639(4) 0.22538(14)
N7 N 0.8346(5) 0.5508(4) 0.04206(15)
H29 H 0.88300 0.59820 0.05200
N8 N 0.7140(5) 0.4164(4) 0.03800(17)
H30 H 0.66970 0.36010 0.04530
C43 C 0.7837(7) 0.4683(5) 0.0649(2)
H31 H 0.79450 0.44950 0.09460
C44 C 0.7982(7) 0.5487(5) 0.00061(19)
H32 H 0.82170 0.59800 -0.02240
C45 C 0.7235(8) 0.4653(6) -0.0023(2)
H33 H 0.68510 0.44460 -0.02740
N9 N 0.3735(4) 0.9445(3) 0.34204(12)
H34 H 0.36570 1.01680 0.35250
N10 N 0.4376(4) 0.7891(4) 0.30279(14)
H35 H 0.47860 0.74210 0.28300
C46 C 0.4514(5) 0.9019(4) 0.30924(16)
H36 H 0.50710 0.94480 0.29330
C47 C 0.3486(5) 0.7581(5) 0.33218(19)
H37 H 0.32110 0.68280 0.33480
C48 C 0.3074(5) 0.8564(5) 0.35679(16)
H38 H 0.24520 0.86280 0.37960
N11 N 0.9380(4) 0.8213(5) 0.34403(19)
H39 H 0.98660 0.75270 0.35080
N12 N 0.8047(4) 0.9548(4) 0.31098(13)
H40 H 0.74990 0.98980 0.29220
C49 C 0.8642(6) 0.8413(5) 0.3104(2)
H41 H 0.85550 0.78430 0.28950
C50 C 0.8432(6) 1.0076(5) 0.34573(18)
H42 H 0.81610 1.08880 0.35370
C51 C 0.9259(6) 0.9251(7) 0.3666(2)
H43 H 0.96810 0.93620 0.39210
N13 N 0.5396(5) 0.9533(4) 0.43475(15)
H44 H 0.54500 1.02990 0.43450
N14 N 0.4803(4) 0.7817(4) 0.45153(14)
H45 H 0.44250 0.72730 0.46470
C52 C 0.4591(6) 0.8993(5) 0.46014(16)
H46 H 0.39830 0.93810 0.48050
C53 C 0.5711(5) 0.7603(5) 0.41862(18)
H47 H 0.59950 0.68570 0.40510
C54 C 0.6125(6) 0.8653(5) 0.40903(19)
H48 H 0.67820 0.87670 0.38880
C55 C 0.5456(8) 0.8314(7) 0.0413(3)
H49 H 0.57690 0.88400 0.06120
H50 H 0.49810 0.88030 0.01870
H51 H 0.61790 0.77710 0.02820
C56 C 0.456(1) 0.7560(9) 0.0663(3)
H52 H 0.37840 0.81170 0.07600
H53 H 0.42910 0.70060 0.04580
O30 O 0.5035(5) 0.6911(7) 0.1003(2)
H54 H 0.44430 0.68380 0.11800
O31 O 0.3144(5) 0.6390(4) 0.16921(16)
H55 H 0.28320 0.60340 0.14880
H56 H 0.24360 0.67780 0.18100
O32 O 0.1292(4) 0.5279(4) 0.12025(14)
H57 H 0.11530 0.57820 0.09850
H58 H 0.12360 0.45540 0.11310
O33 O 0.0883(3) 0.6610(3) 0.40229(11)
H59 H 0.14990 0.60620 0.39210
H60 H 0.12100 0.69960 0.42150
O34 O 0.1162(4) 0.8551(4) 0.46041(12)
H61 H 0.12980 0.92370 0.44990
H62 H 0.14600 0.85600 0.48600
O35 O 0.4065(9) 0.4500(8) 0.1007(3)
H63 H 0.32350 0.45870 0.10330
H64 H 0.44390 0.38530 0.08750
Sr1* Sr 0.72827(4) 1.57189(3) 0.214740(13)
O24* O 0.7432(4) 0.3556(3) 0.24541(10)
#END
