
#######################################################################
#
#                 Cambridge Crystallographic Data Centre
#                                CCDC
#
#######################################################################
#
# If this CIF has been generated from an entry in the Cambridge
# Structural Database, then it will include bibliographic, chemical,
# crystal, experimental, refinement or atomic coordinate data resulting
# from the CCDC's data processing and validation procedures.
#
#######################################################################

data_CSD_CIF_KIXKOS
_audit_creation_date 2008-04-24
_audit_creation_method CSD-ConQuest-V1
_database_code_CSD KIXKOS
_database_code_depnum_ccdc_archive 'CCDC 633393'
_chemical_formula_sum 'C48 H27 Co7 K1 O27'
_chemical_formula_moiety
;
(C48 H27 Co7 O27 1-)n,n(K1 1+)
;
_journal_coden_Cambridge 1089
_journal_volume 19
_journal_year 2007
_journal_page_first 1494
_journal_name_full 'Adv.Mater. '
loop_
_publ_author_name
"Xiao-Ning Cheng"
"Wei-Xiong Zhang"
"Yan-Yong Lin"
"Yan-Zhen Zheng"
"Xiao-Ming Chen"
_chemical_name_systematic
;
catena-(potassium 
hexakis(\m~4~-isophthalato)-tris(\m~3~-hydroxo)-hepta-cobalt(ii))
;
_cell_volume  20996.813
_exptl_crystal_colour 'purple'
_exptl_crystal_density_diffrn 1.411
_exptl_special_details
;
magnetic properties
Due to the potassium disorder we have drawn it as uncoordinated although it 
is described as being four-coordinate
;
_exptl_crystal_description 'prism'
_diffrn_ambient_temperature 293
_refine_special_details
;
The K atom is disordered by symmetry and has an occupancy of 0.67.

;
#These two values have been output from a single CSD field.
_refine_ls_R_factor_gt 0.0641
_refine_ls_wR_factor_gt 0.0641
_symmetry_cell_setting rhombohedral
_symmetry_space_group_name_H-M 'R -3 c'
_symmetry_Int_Tables_number 167
loop_
_symmetry_equiv_pos_site_id
_symmetry_equiv_pos_as_xyz
1 x,y,z
2 -y,x-y,z
3 -x+y,-x,z
4 y,x,1/2-z
5 2/3+x,1/3+y,1/3+z
6 2/3-y,1/3+x-y,1/3+z
7 2/3-x+y,1/3-x,1/3+z
8 2/3+y,1/3+x,5/6-z
9 1/3+x,2/3+y,2/3+z
10 1/3+y,2/3+x,1/6-z
11 x-y,-y,1/2-z
12 -x,-x+y,1/2-z
13 1/3-y,2/3+x-y,2/3+z
14 1/3-x+y,2/3-x,2/3+z
15 1/3+x-y,2/3-y,1/6-z
16 1/3-x,2/3-x+y,1/6-z
17 2/3+x-y,1/3-y,5/6-z
18 2/3-x,1/3-x+y,5/6-z
19 -x,-y,-z
20 y,-x+y,-z
21 x-y,x,-z
22 -y,-x,-1/2+z
23 -2/3-x,-1/3-y,-1/3-z
24 -2/3+y,-1/3-x+y,-1/3-z
25 -2/3+x-y,-1/3+x,-1/3-z
26 -2/3-y,-1/3-x,-5/6+z
27 -1/3-x,-2/3-y,-2/3-z
28 -1/3-y,-2/3-x,-1/6+z
29 -x+y,y,-1/2+z
30 x,x-y,-1/2+z
31 -1/3+y,-2/3-x+y,-2/3-z
32 -1/3+x-y,-2/3+x,-2/3-z
33 -1/3-x+y,-2/3+y,-1/6+z
34 -1/3+x,-2/3+x-y,-1/6+z
35 -2/3-x+y,-1/3+y,-5/6+z
36 -2/3+x,-1/3+x-y,-5/6+z
_cell_length_a 16.9261(8)
_cell_length_b 16.9261(8)
_cell_length_c 84.627(5)
_cell_angle_alpha 90
_cell_angle_beta 90
_cell_angle_gamma 120
_cell_formula_units_Z 12
loop_
_atom_type_symbol
_atom_type_radius_bond
C 0.68
H 0.23
Co 1.29
K 1.33
O 0.72
loop_
_atom_site_label
_atom_site_type_symbol
_atom_site_fract_x
_atom_site_fract_y
_atom_site_fract_z
Co1 Co 0.28996(4) 0.51092(5) 0.059032(7)
Co2 Co 0.23463(5) 0.45942(4) 0.023246(7)
Co3 Co 0.33330 0.66670 0.026240(12)
O1 O 0.2558(2) 0.5526(2) 0.03958(4)
H1 H 0.219(4) 0.555(4) 0.0414(7)
O2 O 0.1333(2) 0.3566(2) 0.03434(4)
O3 O 0.1831(2) 0.3763(2) 0.05915(4)
O4 O -0.1559(2) 0.0113(2) 0.08674(4)
O5 O -0.0204(2) 0.0990(3) 0.09613(4)
C1 C 0.1283(3) 0.3319(3) 0.04841(6)
C2 C 0.0485(4) 0.2406(3) 0.05193(6)
C3 C -0.0489(4) 0.1189(3) 0.06932(6)
C4 C 0.0265(3) 0.2050(3) 0.06701(6)
H2 H 0.06200 0.23850 0.07560
C5 C -0.0745(3) 0.0761(3) 0.08506(5)
C6 C -0.0045(6) 0.1893(5) 0.03932(7)
H3 H 0.00990 0.21300 0.02910
C7 C -0.0778(7) 0.1037(5) 0.04170(8)
H4 H -0.11190 0.06890 0.03310
C8 C -0.1005(5) 0.0703(5) 0.05656(7)
H5 H -0.15200 0.01350 0.05820
K1 K 0.26618(17) 0.33330 0.08330
O6 O -0.1140(2) 0.3933(3) -0.04682(4)
O7 O -0.0963(2) 0.3241(2) -0.02594(4)
O8 O 0.2224(2) 0.6332(2) 0.01154(4)
O9 O 0.1723(2) 0.4865(2) 0.00664(4)
C9 C -0.0729(3) 0.3934(4) -0.03445(6)
C10 C 0.0060(4) 0.4804(4) -0.02915(6)
C11 C 0.1248(3) 0.5632(3) -0.01033(6)
C12 C 0.0554(3) 0.4820(3) -0.01620(6)
H6 H 0.04190 0.42750 -0.01130
C13 C 0.1771(3) 0.5612(3) 0.00372(5)
C14 C 0.0257(4) 0.5610(4) -0.03650(8)
H7 H -0.00740 0.56040 -0.04530
C15 C 0.0956(5) 0.6432(4) -0.03058(9)
H8 H 0.10960 0.69780 -0.03550
C16 C 0.1442(4) 0.6438(4) -0.01747(7)
H9 H 0.19020 0.69890 -0.01350
Co1A Co 0.48908(4) 0.77904(5) 0.059032(7)
Co1B Co 0.22096(4) 0.71004(5) 0.059032(7)
Co1I Co -0.155747(40) -0.043373(50) 0.107635(7)
Co1N Co 0.112373(40) 0.155747(50) 0.107635(7)
Co1T Co -0.22096(4) 0.28996(5) -0.059032(7)
Co1R Co 0.71004(4) 0.48908(5) -0.059032(7)
Co1S Co 0.51092(4) 1.22096(5) -0.059032(7)
Co1I* Co 0.844253(40) 0.956627(50) 0.107635(7)
Co2A Co 0.54058(5) 0.77521(4) 0.023246(7)
Co2B Co 0.22479(5) 0.76537(4) 0.023246(7)
Co2T Co -0.22479(5) 0.23463(4) -0.023246(7)
Co2R Co 0.76537(5) 0.54058(4) -0.023246(7)
Co2S Co 0.45942(5) 1.22479(4) -0.023246(7)
Co2I Co 0.792753(50) 0.901297(40) 0.143421(7)
Co2N Co 0.108543(50) 0.207247(40) 0.143421(7)
O1A O 0.4474(2) 0.7032(2) 0.03958(4)
O1B O 0.2968(2) 0.7442(2) 0.03958(4)
H1A H 0.445(4) 0.664(4) 0.0414(7)
H1B H 0.336(4) 0.781(4) 0.0414(7)
O2I O 0.689933(200) 0.799967(200) 0.132327(40)
O2N O 0.110033(200) 0.310067(200) 0.132327(40)
O2A O 0.6434(2) 0.7767(2) 0.03434(4)
O2B O 0.2233(2) 0.8667(2) 0.03434(4)
O3I O 0.709633(200) 0.849767(200) 0.107517(40)
O3N O 0.140133(200) 0.290367(200) 0.107517(40)
O3A O 0.6237(2) 0.8068(2) 0.05915(4)
O3B O 0.1932(2) 0.8169(2) 0.05915(4)
O4I O 0.344633(200) 0.510767(200) 0.079927(40)
O4N O 0.166133(200) 0.655367(200) 0.079927(40)
O4O O 0.489233(200) 0.833867(200) 0.079927(40)
O5I O 0.432333(200) 0.646267(300) 0.070537(40)
O5N O 0.213933(200) 0.567667(300) 0.070537(40)
O5O O 0.353733(200) 0.786067(300) 0.070537(40)
C1I C 0.665233(300) 0.794967(300) 0.118257(60)
C1N C 0.129733(300) 0.334767(300) 0.118257(60)
C2I C 0.573933(400) 0.715167(300) 0.114737(60)
C2N C 0.141233(400) 0.426067(300) 0.114737(60)
C3I C 0.452233(400) 0.617767(300) 0.097347(60)
C3N C 0.165533(400) 0.547767(300) 0.097347(60)
C4I C 0.538333(300) 0.693167(300) 0.099657(60)
C4N C 0.154833(300) 0.461667(300) 0.099657(60)
H2I H 0.57183 0.72867 0.09107
H2N H 0.15683 0.42817 0.09107
C5I C 0.409433(300) 0.592167(300) 0.081607(50)
C5N C 0.182733(300) 0.590567(300) 0.081607(50)
C6I C 0.522633(600) 0.662167(500) 0.127347(70)
C6N C 0.139533(600) 0.477367(500) 0.127347(70)
H3I H 0.54633 0.67657 0.13757
H3N H 0.13023 0.45367 0.13757
C7I C 0.437033(700) 0.588867(500) 0.124967(80)
C7N C 0.151833(700) 0.562967(500) 0.124967(80)
H4I H 0.40223 0.55477 0.13357
H4N H 0.15253 0.59777 0.13357
C8I C 0.403633(500) 0.566167(500) 0.110107(70)
C8N C 0.162533(500) 0.596367(500) 0.110107(70)
H5I H 0.34683 0.51467 0.10847
H5N H 0.16783 0.65317 0.10847
O6A O 0.6067(2) 0.4927(3) -0.04682(4)
O6B O 0.5073(2) 1.1140(3) -0.04682(4)
O6S O 0.3933(2) 0.5073(3) 0.04682(4)
O6T O 0.4927(2) 0.8860(3) 0.04682(4)
O6R O 0.1140(2) 0.6067(3) 0.04682(4)
O7A O 0.6759(2) 0.5796(2) -0.02594(4)
O7B O 0.4204(2) 1.0963(2) -0.02594(4)
O7S O 0.3241(2) 0.4204(2) 0.02594(4)
O7T O 0.5796(2) 0.9037(2) 0.02594(4)
O7R O 0.0963(2) 0.6759(2) 0.02594(4)
O8A O 0.3668(2) 0.5892(2) 0.01154(4)
O8B O 0.4108(2) 0.7776(2) 0.01154(4)
O9A O 0.5135(2) 0.6858(2) 0.00664(4)
O9B O 0.3142(2) 0.8277(2) 0.00664(4)
C9A C 0.6066(3) 0.5337(4) -0.03445(6)
C9B C 0.4663(3) 1.0729(4) -0.03445(6)
C10A C 0.5196(4) 0.5256(4) -0.02915(6)
C10B C 0.4744(4) 0.9940(4) -0.02915(6)
C11A C 0.4368(3) 0.5616(3) -0.01033(6)
C11B C 0.4384(3) 0.8752(3) -0.01033(6)
C12A C 0.5180(3) 0.5734(3) -0.01620(6)
C12B C 0.4266(3) 0.9446(3) -0.01620(6)
H6A H 0.57250 0.61440 -0.01130
H6B H 0.38560 0.95810 -0.01130
C13A C 0.4388(3) 0.6159(3) 0.00372(5)
C13B C 0.3841(3) 0.8229(3) 0.00372(5)
C14A C 0.4390(4) 0.4647(4) -0.03650(8)
C14B C 0.5353(4) 0.9743(4) -0.03650(8)
H7A H 0.43960 0.43220 -0.04530
H7B H 0.56780 1.00740 -0.04530
C15A C 0.3568(5) 0.4524(4) -0.03058(9)
C15B C 0.5476(5) 0.9044(4) -0.03058(9)
H8A H 0.30220 0.41180 -0.03550
H8B H 0.58820 0.89040 -0.03550
C16A C 0.3562(4) 0.5004(4) -0.01747(7)
C16B C 0.4996(4) 0.8558(4) -0.01747(7)
H9A H 0.30110 0.49130 -0.01350
H9B H 0.50870 0.80980 -0.01350
#END
