
#######################################################################
#
#                 Cambridge Crystallographic Data Centre
#                                CCDC
#
#######################################################################
#
# If this CIF has been generated from an entry in the Cambridge
# Structural Database, then it will include bibliographic, chemical,
# crystal, experimental, refinement or atomic coordinate data resulting
# from the CCDC's data processing and validation procedures.
#
#######################################################################

data_CSD_CIF_KIZCEE
_audit_creation_date 2019-01-24
_audit_creation_method CSD-ConQuest-V1
_database_code_CSD KIZCEE
_database_code_depnum_ccdc_archive 'CCDC 1872878'
_chemical_formula_sum 'C48 H38 Cd3 N6 O17'
_chemical_formula_moiety
;
(C38 H25 Cd3 N4 O15 1-)n,0.5n(C10 H10 N2 2+),0.5n(C10 H8 N2),2n(H2 O1)
;
_journal_coden_Cambridge 1350
_journal_volume 21
_journal_year 2019
_journal_page_first 1159
_journal_name_full 'CrystEngComm '
loop_
_publ_author_name
"Wei Gao"
"Feng Liu"
"Chang-Wei Pan"
"Xiu-Mei Zhang"
"Jie-Ping Liu"
"Qing-Yu Gao"
_chemical_name_systematic
;
catena-(hemikis(4,4'-bipyridinium) 
(\m-hydroxo)-bis(\m-3-(3,5-dicarboxylatophenyl)-4-carboxylatopyridine)-(\m-4,4
'-bipyridine)-diaqua-di-cadmium(ii) hemikis(4,4'-bipyridine) dihydrate)
;
_cell_volume   4515.605
_exptl_crystal_colour 'colorless'
_exptl_crystal_density_diffrn 1.924
_exptl_crystal_description 'block'
_diffrn_ambient_temperature 293
#These two values have been output from a single CSD field.
_refine_ls_R_factor_gt 0.0453
_refine_ls_wR_factor_gt 0.0453
_symmetry_cell_setting monoclinic
_symmetry_space_group_name_H-M 'P 21/c'
_symmetry_Int_Tables_number 14
loop_
_symmetry_equiv_pos_site_id
_symmetry_equiv_pos_as_xyz
1 x,y,z
2 -x,1/2+y,1/2-z
3 -x,-y,-z
4 x,-1/2-y,-1/2+z
_cell_length_a 17.960(4)
_cell_length_b 12.903(2)
_cell_length_c 24.414(4)
_cell_angle_alpha 90
_cell_angle_beta 127.047(11)
_cell_angle_gamma 90
_cell_formula_units_Z 4
loop_
_atom_type_symbol
_atom_type_radius_bond
C 0.68
H 0.23
Cd 1.44
N 0.68
O 0.68
loop_
_atom_site_label
_atom_site_type_symbol
_atom_site_fract_x
_atom_site_fract_y
_atom_site_fract_z
Cd1 Cd 0.73235(3) 0.32482(4) 0.77119(2)
Cd2 Cd 0.62928(3) 0.57193(4) 0.68193(2)
Cd3 Cd 0.87258(3) 0.58054(4) 0.80870(2)
O1 O 0.6027(3) 0.2573(3) 0.6675(2)
O2 O 0.6362(3) 0.1905(4) 0.7632(2)
O3 O 0.4081(3) -0.0339(3) 0.7566(2)
O4 O 0.2878(3) -0.0961(3) 0.6558(2)
O5 O 0.3109(3) 0.3280(4) 0.3614(2)
O6 O 0.1754(3) 0.2775(4) 0.2647(2)
O7 O 0.8310(3) 0.2106(4) 0.7601(3)
O8 O 0.8808(3) 0.2701(4) 0.8617(2)
O9 O 1.2069(3) 0.3438(4) 1.1563(2)
O10 O 1.3476(3) 0.2963(3) 1.2477(2)
O11 O 1.1786(3) -0.0576(4) 0.8349(2)
O12 O 1.0593(3) 0.0229(4) 0.7403(2)
O13 O 0.9286(4) 0.4684(4) 0.9003(3)
H1 H 0.90690 0.41060 0.87980
H2 H 0.89990 0.49030 0.91570
O14 O 0.7560(3) 0.4718(3) 0.7387(2)
H3 H 0.76410 0.45470 0.70900
O15 O 0.5697(3) 0.4417(4) 0.5992(2)
H4 H 0.58440 0.38650 0.62270
H5 H 0.51310 0.43660 0.56410
N1 N 0.1926(4) 0.0728(5) 0.4460(3)
N2 N 1.2997(4) 0.0894(4) 1.0558(3)
N3 N 1.0135(4) 0.6689(4) 0.8848(3)
N4 N 1.4811(4) 0.8520(4) 1.1069(3)
C1 C 0.5831(4) 0.1996(5) 0.6990(3)
C2 C 0.4946(4) 0.1392(5) 0.6589(3)
C3 C 0.4727(5) 0.0745(5) 0.6923(4)
H6 H 0.514(5) 0.060(5) 0.738(4)
C4 C 0.3885(4) 0.0204(5) 0.6554(3)
C5 C 0.3287(5) 0.0327(5) 0.5851(4)
H7 H 0.273(5) -0.003(5) 0.563(3)
C6 C 0.3463(4) 0.1003(5) 0.5502(3)
C7 C 0.4309(5) 0.1533(5) 0.5879(4)
H8 H 0.445(5) 0.194(5) 0.570(4)
C8 C 0.2754(4) 0.1189(5) 0.4751(3)
C9 C 0.2917(4) 0.1829(5) 0.4376(3)
H9 H 0.349(4) 0.212(5) 0.460(3)
C10 C 0.2219(4) 0.1994(5) 0.3680(3)
C11 C 0.1377(5) 0.1486(6) 0.3380(4)
H10 H 0.088(5) 0.162(5) 0.288(4)
C12 C 0.1274(6) 0.0874(7) 0.3791(4)
H11 H 0.066(6) 0.056(6) 0.363(4)
C13 C 0.2375(5) 0.2749(5) 0.3281(4)
C14 C 0.3596(4) -0.0412(5) 0.6918(3)
C15 C 0.8927(4) 0.2195(5) 0.8228(4)
C16 C 0.9859(4) 0.1658(5) 0.8552(3)
C17 C 1.0564(5) 0.1781(5) 0.9251(3)
H12 H 1.045(4) 0.225(5) 0.952(3)
C18 C 1.1412(4) 0.1271(5) 0.9568(3)
C19 C 1.1536(5) 0.0642(5) 0.9162(4)
H13 H 1.208(5) 0.028(5) 0.937(3)
C20 C 1.0859(4) 0.0559(5) 0.8465(3)
C21 C 1.0004(4) 0.1076(5) 0.8158(4)
H14 H 0.953(5) 0.095(5) 0.767(4)
C22 C 1.2194(4) 0.1415(5) 1.0311(3)
C23 C 1.2127(5) 0.2050(5) 1.0729(3)
H15 H 1.162(5) 0.243(5) 1.057(3)
C24 C 1.2872(4) 0.2173(5) 1.1417(3)
C25 C 1.3677(5) 0.1621(6) 1.1672(4)
H16 H 1.423(5) 0.168(5) 1.214(4)
C26 C 1.3706(5) 0.0998(6) 1.1225(4)
H17 H 1.425(5) 0.057(5) 1.137(4)
C27 C 1.2799(5) 0.2919(5) 1.1857(4)
C28 C 1.1096(5) 0.0005(5) 0.8042(4)
C29 C 1.0559(5) 0.7089(6) 0.8595(4)
H18 H 1.028(5) 0.705(6) 0.818(4)
C30 C 1.1463(5) 0.7472(6) 0.9011(4)
H19 H 1.166(5) 0.768(5) 0.876(4)
C31 C 1.1976(4) 0.7436(5) 0.9721(3)
C32 C 1.1518(5) 0.7028(5) 0.9982(4)
H20 H 1.176(5) 0.697(5) 1.041(4)
C33 C 1.0619(5) 0.6682(5) 0.9535(4)
H21 H 1.023(5) 0.643(5) 0.964(3)
C34 C 1.2956(4) 0.7809(5) 1.0184(3)
C35 C 1.3405(5) 0.8225(6) 0.9936(4)
H22 H 1.313(5) 0.820(5) 0.946(4)
C36 C 1.4315(5) 0.8565(6) 1.0386(4)
H23 H 1.462(5) 0.884(5) 1.023(4)
C37 C 1.4372(5) 0.8120(6) 1.1307(4)
H24 H 1.471(5) 0.802(5) 1.178(4)
C38 C 1.3472(5) 0.7765(6) 1.0897(4)
H25 H 1.320(5) 0.743(5) 1.107(4)
O16 O 1.3932(4) 0.4114(4) 1.4935(3)
H26 H 1.36280 0.38470 1.45360
H27 H 1.36010 0.40780 1.50760
O17 O 0.8995(4) 0.9285(4) 1.4907(3)
H28 H 0.86840 0.92720 1.50660
H29 H 0.95670 0.93720 1.52400
N5 N 1.3266(4) 0.4740(5) 0.8214(3)
H30 H 1.28380 0.46720 0.77800
C39 C 1.3997(6) 0.4101(7) 0.8544(4)
H31 H 1.398(5) 0.359(6) 0.827(4)
C40 C 1.4678(6) 0.4191(6) 0.9238(4)
H32 H 1.513(5) 0.371(6) 0.940(4)
C41 C 1.4630(5) 0.4947(5) 0.9614(3)
C42 C 1.3856(6) 0.5589(6) 0.9262(4)
H33 H 1.381(5) 0.622(6) 0.952(4)
C43 C 1.3204(6) 0.5482(7) 0.8562(4)
H34 H 1.272(6) 0.586(6) 0.832(4)
N6 N 0.8145(4) 0.9707(5) 0.8229(3)
C44 C 0.8935(6) 0.9173(6) 0.8520(4)
H35 H 0.896(5) 0.871(6) 0.826(4)
C45 C 0.9665(5) 0.9263(6) 0.9205(4)
H36 H 1.025(5) 0.884(5) 0.939(4)
C46 C 0.9609(5) 0.9925(5) 0.9628(3)
C47 C 0.8773(6) 1.0459(6) 0.9317(4)
H37 H 0.869(5) 1.094(6) 0.952(4)
C48 C 0.8076(5) 1.0335(6) 0.8625(4)
H38 H 0.754(5) 1.067(6) 0.838(4)
Cd1A Cd 0.26765(3) -0.17518(4) 0.72881(2)
Cd2A Cd 0.37072(3) 0.07193(4) 0.81807(2)
Cd2B Cd 0.37072(3) 0.42807(4) 0.31807(2)
Cd2B* Cd 1.37072(3) 0.42807(4) 1.31807(2)
Cd2C Cd 1.62928(3) 0.92807(4) 1.18193(2)
Cd3A Cd 1.12742(3) 0.08054(4) 0.69130(2)
Cd3B Cd 0.12742(3) 0.41946(4) 0.19130(2)
Cd3B* Cd 1.12742(3) 0.41946(4) 1.19130(2)
O3A O 0.5919(3) 0.4661(3) 0.7434(2)
O4A O 0.7122(3) 0.4039(3) 0.8442(2)
O5B O 0.6891(3) 0.6720(4) 0.6386(2)
O6B O 0.8246(3) 0.7225(4) 0.7353(2)
O9B O 0.7931(3) 0.6562(4) 0.8437(2)
O10B O 0.6524(3) 0.7037(3) 0.7523(2)
O12A O 0.9407(3) 0.5229(4) 0.7597(2)
N4C N 0.4811(4) 0.6480(4) 0.6069(3)
N5B N 1.6734(4) 0.5260(5) 1.1786(3)
H30B H 1.71620 0.53280 1.22200
C39B C 1.6003(6) 0.5899(7) 1.1456(4)
H31B H 1.602(5) 0.641(6) 1.173(4)
C40B C 1.5322(6) 0.5809(6) 1.0762(4)
H32B H 1.487(5) 0.629(6) 1.060(4)
C41B C 1.5370(5) 0.5053(5) 1.0386(3)
C42B C 1.6144(6) 0.4411(6) 1.0738(4)
H33B H 1.619(5) 0.378(6) 1.048(4)
C43B C 1.6796(6) 0.4518(7) 1.1438(4)
H34B H 1.728(6) 0.414(6) 1.168(4)
N6B N 1.1855(4) 1.0293(5) 1.1771(3)
C44B C 1.1065(6) 1.0827(6) 1.1480(4)
H35B H 1.104(5) 1.129(6) 1.174(4)
C45B C 1.0335(5) 1.0737(6) 1.0795(4)
H36B H 0.975(5) 1.116(5) 1.061(4)
C46B C 1.0391(5) 1.0075(5) 1.0372(3)
C47B C 1.1227(6) 0.9541(6) 1.0683(4)
H37B H 1.131(5) 0.906(6) 1.048(4)
C48B C 1.1924(5) 0.9665(6) 1.1375(4)
H38B H 1.246(5) 0.933(6) 1.162(4)
#END
