
#######################################################################
#
#                 Cambridge Crystallographic Data Centre
#                                CCDC
#
#######################################################################
#
# If this CIF has been generated from an entry in the Cambridge
# Structural Database, then it will include bibliographic, chemical,
# crystal, experimental, refinement or atomic coordinate data resulting
# from the CCDC's data processing and validation procedures.
#
#######################################################################

data_CSD_CIF_KMALUA10
_audit_creation_date 1983-03-10
_audit_creation_method CSD-ConQuest-V1
_database_code_CSD KMALUA10
_database_code_depnum_ccdc_archive 'CCDC 1198178'
_chemical_formula_sum 'C8 H5 K1 O10 U1'
_chemical_formula_moiety
;
(K1 1+)n,n(C8 H5 O10 U1 1-)
;
_journal_coden_Cambridge 42
_journal_volume 43
_journal_year 1981
_journal_page_first 3203
_journal_name_full 'J.Inorg.Nucl.Chem. '
loop_
_publ_author_name
"G.Bombieri"
"F.Benetollo"
"R.M.Rojas"
"M.L.de Paz"
_chemical_name_systematic
;
catena-[Potassium (\m~3~-maleato-O,O',O'',O''')-(hydrogen 
maleato-O)-dioxo-uranium(vi)]
;
_cell_volume    656.987
_exptl_crystal_density_diffrn 2.72
_diffrn_ambient_temperature ?
_diffrn_special_details
;
The study was carried out at room temperature,in the range 283-303K

;
#These two values have been output from a single CSD field.
_refine_ls_R_factor_gt 0.061
_refine_ls_wR_factor_gt 0.061
_symmetry_cell_setting triclinic
_symmetry_space_group_name_H-M 'P -1'
_symmetry_Int_Tables_number 2
loop_
_symmetry_equiv_pos_site_id
_symmetry_equiv_pos_as_xyz
1 x,y,z
2 -x,-y,-z
_cell_length_a 11.512(3)
_cell_length_b 9.387(3)
_cell_length_c 6.757(2)
_cell_angle_alpha 105.6(4)
_cell_angle_beta 96.8(4)
_cell_angle_gamma 107.0(4)
_cell_formula_units_Z 2
loop_
_atom_type_symbol
_atom_type_radius_bond
C 0.68
K 1.33
O 0.68
U 1.48
loop_
_atom_site_label
_atom_site_type_symbol
_atom_site_fract_x
_atom_site_fract_y
_atom_site_fract_z
U1 U -0.16200 -0.32070 -0.03480
O1 O -0.01290 -0.17450 0.03460
O2 O -0.31130 -0.46500 -0.09810
O3 O -0.20020 -0.28140 0.62590
O4 O -0.19210 -0.24330 0.31770
O5 O 0.10240 -0.49180 0.27930
O6 O -0.07520 -0.45750 0.16270
O7 O -0.24970 -0.11860 0.00150
O8 O -0.38330 -0.07410 0.20870
O9 O -0.44140 0.37700 0.31620
O10 O -0.45580 0.14470 0.35910
C1 C -0.13910 -0.24170 0.49620
C2 C 0.00200 -0.18460 0.55430
C3 C 0.07310 -0.26220 0.45990
C4 C 0.02930 -0.41000 0.28960
C5 C -0.31530 -0.03920 0.08620
C6 C -0.29160 0.11000 0.03250
C7 C -0.33250 0.23390 0.11060
C8 C -0.41420 0.25150 0.26610
K1 K 0.44170 -0.66570 0.65530
O5A O -0.10240 -0.50820 -0.27930
U1A U 0.16200 -0.67930 0.03480
O3* O -0.20020 -0.28140 -0.37410
U1* U -0.16200 -0.32070 0.96520
#END
