
#######################################################################
#
#                 Cambridge Crystallographic Data Centre
#                                CCDC
#
#######################################################################
#
# If this CIF has been generated from an entry in the Cambridge
# Structural Database, then it will include bibliographic, chemical,
# crystal, experimental, refinement or atomic coordinate data resulting
# from the CCDC's data processing and validation procedures.
#
#######################################################################

data_CSD_CIF_KOBFIR
_audit_creation_date 2008-09-12
_audit_creation_method CSD-ConQuest-V1
_database_code_CSD KOBFIR
_database_code_depnum_ccdc_archive 'CCDC 668920'
_chemical_formula_sum 'C74 H48 Cd2 N12 P2'
_chemical_formula_moiety
;
(C19 H18 P1 1+)2n,n(C36 H12 Cd2 N12 2-)
;
_journal_coden_Cambridge 1147
_journal_volume 8
_journal_year 2008
_journal_page_first 1123
_journal_name_full 'Cryst.Growth Des. '
loop_
_publ_author_name
"B.F.Abrahams"
"T.A.Hudson"
"R.Robson"
_chemical_name_systematic
;
catena-(bis(methyltriphenylphosphonium) 
tris(\m~4~-2,2'-(p-phenylene)bis(propanedinitrile))-di-cadmium(ii))
;
_cell_volume   4486.099
_exptl_crystal_colour 'yellow'
_exptl_crystal_density_diffrn 1.546
_exptl_crystal_description 'hexagonal prism'
_diffrn_ambient_temperature 130
#These two values have been output from a single CSD field.
_refine_ls_R_factor_gt 0.0314
_refine_ls_wR_factor_gt 0.0314
_symmetry_cell_setting rhombohedral
_symmetry_space_group_name_H-M 'R -3'
_symmetry_Int_Tables_number 148
loop_
_symmetry_equiv_pos_site_id
_symmetry_equiv_pos_as_xyz
1 x,y,z
2 -y,x-y,z
3 -x+y,-x,z
4 2/3+x,1/3+y,1/3+z
5 2/3-y,1/3+x-y,1/3+z
6 2/3-x+y,1/3-x,1/3+z
7 1/3+x,2/3+y,2/3+z
8 1/3-y,2/3+x-y,2/3+z
9 1/3-x+y,2/3-x,2/3+z
10 -x,-y,-z
11 y,-x+y,-z
12 x-y,x,-z
13 -2/3-x,-1/3-y,-1/3-z
14 -2/3+y,-1/3-x+y,-1/3-z
15 -2/3+x-y,-1/3+x,-1/3-z
16 -1/3-x,-2/3-y,-2/3-z
17 -1/3+y,-2/3-x+y,-2/3-z
18 -1/3+x-y,-2/3+x,-2/3-z
_cell_length_a 12.6751(6)
_cell_length_b 12.6751(6)
_cell_length_c 32.243(3)
_cell_angle_alpha 90
_cell_angle_beta 90
_cell_angle_gamma 120
_cell_formula_units_Z 3
loop_
_atom_type_symbol
_atom_type_radius_bond
C 0.68
H 0.23
Cd 1.69
N 0.68
P 1.05
loop_
_atom_site_label
_atom_site_type_symbol
_atom_site_fract_x
_atom_site_fract_y
_atom_site_fract_z
Cd1 Cd -0.66660 -0.33340 0.16660
Cd2 Cd 0.00000 0.00000 0.00000
C1 C 0.0407(2) 0.2139(2) 0.07478(7)
C2 C 0.1390(2) 0.3912(2) 0.11938(7)
C3 C -0.0653(2) 0.2197(2) 0.13911(7)
N1 N 0.21585(19) 0.48808(18) 0.12814(6)
C4 C -0.1668(2) 0.1056(2) 0.13113(7)
H1 H -0.16820 0.06260 0.10680
C5 C -0.0676(2) 0.2797(2) 0.17540(7)
H2 H -0.00010 0.35750 0.18170
C6 C 0.0400(2) 0.2752(2) 0.11090(7)
N2 N 0.03591(19) 0.15919(18) 0.04544(6)
P1 P 0.66670 0.33330 0.08842(3)
C7 C 0.5455(2) 0.3544(2) 0.06993(8)
C8 C 0.5334(2) 0.4503(2) 0.08535(9)
H3 H 0.58940 0.50390 0.10540
C9 C 0.66670 0.33330 0.14377(14)
H4 H 0.67800 0.41120 0.15390
H5 H 0.73320 0.32200 0.15390
H6 H 0.58880 0.26680 0.15390
C10 C 0.3685(3) 0.2930(3) 0.02772(9)
H7 H 0.31080 0.23840 0.00820
C11 C 0.4619(3) 0.2751(3) 0.04106(9)
H8 H 0.46910 0.20900 0.03060
C12 C 0.3586(3) 0.3893(3) 0.04254(9)
H9 H 0.29510 0.40190 0.03270
C13 C 0.4398(3) 0.4675(3) 0.07142(9)
H10 H 0.43170 0.53330 0.08180
Cd1* Cd 0.33340 0.66660 0.16660
Cd1** Cd 0.33340 -0.33340 0.16660
Cd2C Cd -0.33333 0.33333 0.33333
Cd2C* Cd -0.33333 -0.66667 0.33333
Cd2C** Cd 0.66667 0.33333 0.33333
C1O C -0.374033(200) 0.119433(200) 0.258553(70)
C1A C -0.2139(2) -0.1732(2) 0.07478(7)
C1P C -0.119433(200) -0.493467(200) 0.258553(70)
C1B C 0.1732(2) -0.0407(2) 0.07478(7)
C1Q C 0.493467(200) 0.374033(200) 0.258553(70)
C2O C -0.472333(200) -0.057867(200) 0.213953(70)
C2A C -0.3912(2) -0.2522(2) 0.11938(7)
C2P C 0.057867(200) -0.414467(200) 0.213953(70)
C2B C 0.2522(2) -0.1390(2) 0.11938(7)
C2Q C 0.414467(200) 0.472333(200) 0.213953(70)
C3O C -0.268033(200) 0.113633(200) 0.194223(70)
C3A C -0.2197(2) -0.2850(2) 0.13911(7)
C3P C -0.113633(200) -0.381667(200) 0.194223(70)
C3B C 0.2850(2) 0.0653(2) 0.13911(7)
C3Q C 0.381667(200) 0.268033(200) 0.194223(70)
N1O N -0.549183(190) -0.154747(180) 0.205193(60)
N1A N -0.48808(19) -0.27223(18) 0.12814(6)
N1P N 0.154747(190) -0.394437(180) 0.205193(60)
N1B N 0.27223(19) -0.21585(18) 0.12814(6)
N1Q N 0.394437(190) 0.549183(180) 0.205193(60)
N1* N -0.78415(19) -0.51192(18) 0.12814(6)
N1B* N -0.72777(19) -0.21585(18) 0.12814(6)
N1P* N -0.845253(190) -0.394437(180) 0.205193(60)
N1Q* N -0.605563(190) -0.450817(180) 0.205193(60)
C4O C -0.166533(200) 0.227733(200) 0.202203(70)
C4A C -0.1056(2) -0.2724(2) 0.13113(7)
C4P C -0.227733(200) -0.394267(200) 0.202203(70)
C4B C 0.2724(2) 0.1668(2) 0.13113(7)
C4Q C 0.394267(200) 0.166533(200) 0.202203(70)
H1O H -0.16513 0.27073 0.22653
H1A H -0.06260 -0.23080 0.10680
H1P H -0.27073 -0.43587 0.22653
H1B H 0.23080 0.16820 0.10680
H1Q H 0.43587 0.16513 0.22653
C5O C -0.265733(200) 0.053633(200) 0.157933(70)
C5A C -0.2797(2) -0.3473(2) 0.17540(7)
C5P C -0.053633(200) -0.319367(200) 0.157933(70)
C5B C 0.3473(2) 0.0676(2) 0.17540(7)
C5Q C 0.319367(200) 0.265733(200) 0.157933(70)
H2O H -0.33323 -0.02417 0.15163
H2A H -0.35750 -0.35760 0.18170
H2P H 0.02417 -0.30907 0.15163
H2B H 0.35760 0.00010 0.18170
H2Q H 0.30907 0.33323 0.15163
C6O C -0.373333(200) 0.058133(200) 0.222433(70)
C6A C -0.2752(2) -0.2352(2) 0.11090(7)
C6P C -0.058133(200) -0.431467(200) 0.222433(70)
C6B C 0.2352(2) -0.0400(2) 0.11090(7)
C6Q C 0.431467(200) 0.373333(200) 0.222433(70)
N2O N -0.369243(190) 0.174143(180) 0.287893(60)
N2A N -0.15919(19) -0.12328(18) 0.04544(6)
N2P N -0.174143(190) -0.543387(180) 0.287893(60)
N2B N 0.12328(19) -0.03591(18) 0.04544(6)
N2Q N 0.543387(190) 0.369243(180) 0.287893(60)
N2I N -0.03591(19) -0.15919(18) -0.04544(6)
N2J N 0.15919(19) 0.12328(18) -0.04544(6)
N2K N -0.12328(19) 0.03591(18) -0.04544(6)
C7A C 0.6456(2) 0.1911(2) 0.06993(8)
C7B C 0.8089(2) 0.4545(2) 0.06993(8)
C8A C 0.5497(2) 0.0831(2) 0.08535(9)
C8B C 0.9169(2) 0.4666(2) 0.08535(9)
H3A H 0.49610 0.08550 0.10540
H3B H 0.91450 0.41060 0.10540
C10A C 0.7070(3) 0.0755(3) 0.02772(9)
C10B C 0.9245(3) 0.6315(3) 0.02772(9)
H7A H 0.76160 0.07240 0.00820
H7B H 0.92760 0.68920 0.00820
C11A C 0.7249(3) 0.1868(3) 0.04106(9)
C11B C 0.8132(3) 0.5381(3) 0.04106(9)
H8A H 0.79100 0.26010 0.03060
H8B H 0.73990 0.53090 0.03060
C12A C 0.6107(3) -0.0307(3) 0.04254(9)
C12B C 1.0307(3) 0.6414(3) 0.04254(9)
H9A H 0.59810 -0.10680 0.03270
H9B H 1.10680 0.70490 0.03270
C13A C 0.5325(3) -0.0277(3) 0.07142(9)
C13B C 1.0277(3) 0.5602(3) 0.07142(9)
H10A H 0.46670 -0.10160 0.08180
H10B H 1.10160 0.56830 0.08180
#END
