
#######################################################################
#
#                 Cambridge Crystallographic Data Centre
#                                CCDC
#
#######################################################################
#
# If this CIF has been generated from an entry in the Cambridge
# Structural Database, then it will include bibliographic, chemical,
# crystal, experimental, refinement or atomic coordinate data resulting
# from the CCDC's data processing and validation procedures.
#
#######################################################################

data_CSD_CIF_KOBLUL
_audit_creation_date 2019-01-24
_audit_creation_method CSD-ConQuest-V1
_database_code_CSD KOBLUL
_database_code_depnum_ccdc_archive 'CCDC 1879228'
_chemical_formula_sum 'C37 H38 In2 N4 O17'
_chemical_formula_moiety
;
(C16 H9 In1 N1 O8 1-)2n,C2 H8 N1 1+,C3 H10 N1 1+,H2 O1
;
_journal_coden_Cambridge 1147
_journal_volume 19
_journal_year 2019
_journal_page_first 1322
_journal_name_full 'Cryst.Growth Des. '
loop_
_publ_author_name
"Ye-Wang Peng"
"Rui-Juan Wu"
"Meng Liu"
"Shuang Yao"
"Ai-Fang Geng"
"Zhi-Ming Zhang"
_chemical_name_systematic
;
catena-[dimethylammonium trimethylammonium 
bis((\m-4-(6-carboxylatopyridin-3-yl)benzene-1,3-dicarboxylato)-(acetato)-indi
um(iii)) monohydrate]
;
_cell_volume   4287.351
_exptl_crystal_colour 'colorless'
_exptl_crystal_density_diffrn 1.612
_exptl_crystal_description 'block'
_diffrn_ambient_temperature 293
_refine_special_details
;
O1W and O2W disordered over two sites with occupancies 0.26:0.24.

;
#These two values have been output from a single CSD field.
_refine_ls_R_factor_gt 0.0408
_refine_ls_wR_factor_gt 0.0408
_symmetry_cell_setting monoclinic
_symmetry_space_group_name_H-M 'C 2/c'
_symmetry_Int_Tables_number 15
loop_
_symmetry_equiv_pos_site_id
_symmetry_equiv_pos_as_xyz
1 x,y,z
2 -x,y,1/2-z
3 1/2+x,1/2+y,z
4 1/2-x,1/2+y,1/2-z
5 -x,-y,-z
6 x,-y,-1/2+z
7 -1/2-x,-1/2-y,-z
8 -1/2+x,-1/2-y,-1/2+z
_cell_length_a 23.8787(3)
_cell_length_b 13.3860(2)
_cell_length_c 13.6975(2)
_cell_angle_alpha 90
_cell_angle_beta 101.697(1)
_cell_angle_gamma 90
_cell_formula_units_Z 4
loop_
_atom_type_symbol
_atom_type_radius_bond
C 0.68
H 0.23
In 1.42
N 0.68
O 0.68
loop_
_atom_site_label
_atom_site_type_symbol
_atom_site_fract_x
_atom_site_fract_y
_atom_site_fract_z
In1 In 0.382936(9) 0.777403(16) -0.008806(16)
O1 O 0.11359(13) 0.3558(2) 0.6456(2)
O2 O 0.35486(15) 0.7356(2) 0.1218(2)
O3 O 0.14589(14) 0.4845(3) 0.7436(2)
O4 O 0.38855(13) 0.3612(2) 0.4051(3)
O5 O 0.30215(14) 0.3201(2) 0.4118(3)
O6 O 0.47677(17) 0.7556(4) 0.0269(4)
O7 O 0.44746(17) 0.8886(4) 0.0838(4)
O8 O 0.4005(3) 0.5953(4) 0.1269(5)
C1 C 0.24530(15) 0.5124(3) 0.4565(2)
C2 C 0.27687(15) 0.5420(3) 0.3780(3)
C3 C 0.18161(15) 0.4645(3) 0.5959(2)
C4 C 0.33529(15) 0.6130(3) 0.2332(3)
C5 C 0.31797(15) 0.4822(3) 0.3463(3)
C6 C 0.20863(15) 0.4302(3) 0.4465(2)
H1 H 0.20530 0.39030 0.39000
C7 C 0.33587(17) 0.3813(3) 0.3887(3)
C8 C 0.29403(17) 0.6720(3) 0.2640(3)
H2 H 0.28550 0.73500 0.23640
C9 C 0.34656(16) 0.5195(3) 0.2748(3)
H3 H 0.37420 0.48000 0.25460
C10 C 0.14460(16) 0.4336(3) 0.6682(3)
C11 C 0.36665(17) 0.6493(3) 0.1553(3)
C12 C 0.21630(18) 0.5475(3) 0.6116(3)
H4 H 0.21810 0.58690 0.66810
C13 C 0.24824(18) 0.5709(3) 0.5418(3)
H5 H 0.27210 0.62650 0.55160
C14 C 0.26582(17) 0.6364(3) 0.3359(3)
H6 H 0.23870 0.67680 0.35670
C15 C 0.4873(2) 0.8325(6) 0.0762(5)
C16 C 0.5487(3) 0.8555(9) 0.1282(8)
H7 H 0.55830 0.92220 0.11200
H8 H 0.57420 0.80900 0.10620
H9 H 0.55220 0.84970 0.19900
N1 N 0.17819(12) 0.4065(2) 0.5148(2)
N2 N 0.50000 0.50000 0.00000
C17 C 0.4620(8) 0.4421(16) 0.0100(18)
C18 C 0.50000 1.264(2) 0.25000
N3 N 0.50000 1.143(2) 0.25000
C19 C 0.4404(4) 1.0894(9) 0.1560(8)
O9 O 0.1337(18) 0.770(3) 0.339(3)
O10? O 0.5050(8) 0.5149(15) 0.1916(14)
In1C In 0.117064(9) 0.277403(16) 0.508806(16)
In1E In 0.382936(9) 0.222597(16) 0.491194(16)
O1C O 0.38641(13) 0.8558(2) -0.1456(2)
O4E O 0.38855(13) 0.6388(2) -0.0949(3)
O5E O 0.30215(14) 0.6799(2) -0.0882(3)
N1C N 0.32181(12) 0.9065(2) -0.0148(2)
C17D C 0.5380(8) 0.5579(16) -0.0100(18)
C19A C 0.5596(4) 1.0894(9) 0.3440(8)
#END
