
#######################################################################
#
#                 Cambridge Crystallographic Data Centre
#                                CCDC
#
#######################################################################
#
# If this CIF has been generated from an entry in the Cambridge
# Structural Database, then it will include bibliographic, chemical,
# crystal, experimental, refinement or atomic coordinate data resulting
# from the CCDC's data processing and validation procedures.
#
#######################################################################

data_CSD_CIF_KOBMAS
_audit_creation_date 2019-01-24
_audit_creation_method CSD-ConQuest-V1
_database_code_CSD KOBMAS
_database_code_depnum_ccdc_archive 'CCDC 1879227'
_chemical_formula_sum 'C62 H48 In3 N7 O24'
_chemical_formula_moiety
;
(C56 H24 In3 N4 O24 3-)n,3(C2 H8 N1 1+)
;
_journal_coden_Cambridge 1147
_journal_volume 19
_journal_year 2019
_journal_page_first 1322
_journal_name_full 'Cryst.Growth Des. '
loop_
_publ_author_name
"Ye-Wang Peng"
"Rui-Juan Wu"
"Meng Liu"
"Shuang Yao"
"Ai-Fang Geng"
"Zhi-Ming Zhang"
_chemical_name_systematic
;
catena-[tris(dimethylammonium) 
tetrakis(\m-5-(5-carboxylatopyridin-3-yl)benzene-1,3-dicarboxylato)-tri-indium
(iii)]
;
_cell_volume  26249.417
_exptl_crystal_colour 'colorless'
_exptl_crystal_density_diffrn 0.82
_exptl_special_details
;
We calculate void space in the structure

;
_exptl_crystal_description 'block'
_diffrn_ambient_temperature 293
#These two values have been output from a single CSD field.
_refine_ls_R_factor_gt 0.0993
_refine_ls_wR_factor_gt 0.0993
_symmetry_cell_setting orthorhombic
_symmetry_space_group_name_H-M 'F d d d'
_symmetry_Int_Tables_number 70
loop_
_symmetry_equiv_pos_site_id
_symmetry_equiv_pos_as_xyz
1 x,y,z
2 3/4-x,3/4-y,z
3 3/4-x,y,3/4-z
4 x,3/4-y,3/4-z
5 x,1/2+y,1/2+z
6 3/4-x,1/4-y,1/2+z
7 3/4-x,1/2+y,1/4-z
8 x,1/4-y,1/4-z
9 1/2+x,y,1/2+z
10 1/4-x,3/4-y,1/2+z
11 1/4-x,y,1/4-z
12 1/2+x,3/4-y,1/4-z
13 1/2+x,1/2+y,z
14 1/4-x,1/4-y,z
15 1/4-x,1/2+y,3/4-z
16 1/2+x,1/4-y,3/4-z
17 -x,-y,-z
18 -3/4+x,-3/4+y,-z
19 -3/4+x,-y,-3/4+z
20 -x,-3/4+y,-3/4+z
21 -x,-1/2-y,-1/2-z
22 -3/4+x,-1/4+y,-1/2-z
23 -3/4+x,-1/2-y,-1/4+z
24 -x,-1/4+y,-1/4+z
25 -1/2-x,-y,-1/2-z
26 -1/4+x,-3/4+y,-1/2-z
27 -1/4+x,-y,-1/4+z
28 -1/2-x,-3/4+y,-1/4+z
29 -1/2-x,-1/2-y,-z
30 -1/4+x,-1/4+y,-z
31 -1/4+x,-1/2-y,-3/4+z
32 -1/2-x,-1/4+y,-3/4+z
_cell_length_a 22.9514(14)
_cell_length_b 32.1466(13)
_cell_length_c 35.5775(18)
_cell_angle_alpha 90
_cell_angle_beta 90
_cell_angle_gamma 90
_cell_formula_units_Z 8
loop_
_atom_type_symbol
_atom_type_radius_bond
C 0.68
H 0.23
In 1.42
N 0.68
O 0.68
loop_
_atom_site_label
_atom_site_type_symbol
_atom_site_fract_x
_atom_site_fract_y
_atom_site_fract_z
In1 In 0.37500 0.37500 0.87500
In2 In 0.37500 0.37500 0.619352(19)
O1 O 0.3244(3) 0.34792(16) 0.83052(18)
O2 O 0.1839(4) 0.1849(2) 0.87581(17)
O3 O 0.1478(4) 0.1666(2) 0.82186(18)
O4 O 0.3262(3) 0.3467(2) 0.6646(2)
O5 O 0.3080(4) 0.3144(2) 0.8825(2)
O6 O 0.2791(5) 0.3388(3) 0.6135(2)
C1 C 0.1764(4) 0.1912(3) 0.8415(3)
C2 C 0.2600(4) 0.2902(3) 0.8276(3)
C3 C 0.2483(4) 0.3010(3) 0.7068(3)
H1 H 0.28320 0.30880 0.71800
C4 C 0.2366(4) 0.2554(3) 0.8443(3)
H2 H 0.24410 0.24980 0.86950
C5 C 0.2024(4) 0.2290(3) 0.8237(2)
C6 C 0.2997(4) 0.3194(3) 0.8488(3)
C7 C 0.2159(4) 0.2716(3) 0.7682(3)
C8 C 0.2854(6) 0.3322(3) 0.6471(3)
C9 C 0.1927(4) 0.2364(3) 0.7857(3)
H3 H 0.17060 0.21770 0.77170
C10 C 0.2384(5) 0.3101(4) 0.6695(3)
C11 C 0.2071(5) 0.2805(4) 0.7277(3)
C12 C 0.1876(7) 0.2965(5) 0.6537(4)
H4 H 0.18170 0.30110 0.62820
N1 N 0.1458(6) 0.2771(6) 0.6733(3)
C13 C 0.1558(7) 0.2707(6) 0.7096(4)
H5 H 0.12610 0.25880 0.72380
C14 C 0.2499(4) 0.2980(3) 0.7899(3)
H6 H 0.26630 0.32150 0.77880
N2 N 0.4461(18) 0.3222(14) 0.7429(13)
H7 H 0.43650 0.34930 0.74210
H8 H 0.48480 0.31930 0.74600
C15 C 0.424(3) 0.298(2) 0.7099(11)
H9 H 0.43720 0.31110 0.68710
H10 H 0.38170 0.29860 0.71030
H11 H 0.43730 0.27020 0.71120
C16 C 0.412(2) 0.2987(18) 0.7713(11)
H12 H 0.42130 0.30880 0.79600
H13 H 0.42150 0.26970 0.76960
H14 H 0.37120 0.30250 0.76660
O1A O 0.4256(3) 0.40208(16) 0.83052(18)
O2A O 0.5661(4) 0.5651(2) 0.87581(17)
O3A O 0.6022(4) 0.5834(2) 0.82186(18)
O4A O 0.4238(3) 0.4033(2) 0.6646(2)
O5A O 0.4420(4) 0.4356(2) 0.8825(2)
O6A O 0.4709(5) 0.4112(3) 0.6135(2)
C1A C 0.5736(4) 0.5588(3) 0.8415(3)
C2A C 0.4900(4) 0.4598(3) 0.8276(3)
C3A C 0.5017(4) 0.4490(3) 0.7068(3)
H1A H 0.46680 0.44120 0.71800
C4A C 0.5134(4) 0.4946(3) 0.8443(3)
H2A H 0.50590 0.50020 0.86950
C5A C 0.5476(4) 0.5210(3) 0.8237(2)
C6A C 0.4503(4) 0.4306(3) 0.8488(3)
C7A C 0.5341(4) 0.4784(3) 0.7682(3)
C8A C 0.4646(6) 0.4178(3) 0.6471(3)
C9A C 0.5573(4) 0.5136(3) 0.7857(3)
H3A H 0.57940 0.53230 0.77170
C10A C 0.5116(5) 0.4399(4) 0.6695(3)
C11A C 0.5429(5) 0.4695(4) 0.7277(3)
C12A C 0.5624(7) 0.4535(5) 0.6537(4)
H4A H 0.56830 0.44890 0.62820
N1A N 0.6042(6) 0.4729(6) 0.6733(3)
C13A C 0.5942(7) 0.4793(6) 0.7096(4)
H5A H 0.62390 0.49120 0.72380
C14A C 0.5001(4) 0.4520(3) 0.7899(3)
H6A H 0.48370 0.42850 0.77880
In2B In 0.37500 0.37500 1.130648(19)
O1B O 0.4256(3) 0.34792(16) 0.91948(18)
O2B O 0.5661(4) 0.1849(2) 0.87419(17)
O3B O 0.6022(4) 0.1666(2) 0.92814(18)
O4B O 0.4238(3) 0.3467(2) 1.0854(2)
O5B O 0.4420(4) 0.3144(2) 0.8675(2)
O6B O 0.4709(5) 0.3388(3) 1.1365(2)
C1B C 0.5736(4) 0.1912(3) 0.9085(3)
C2B C 0.4900(4) 0.2902(3) 0.9224(3)
C3B C 0.5017(4) 0.3010(3) 1.0432(3)
H1B H 0.46680 0.30880 1.03200
C4B C 0.5134(4) 0.2554(3) 0.9057(3)
H2B H 0.50590 0.24980 0.88050
C5B C 0.5476(4) 0.2290(3) 0.9263(2)
C6B C 0.4503(4) 0.3194(3) 0.9012(3)
C7B C 0.5341(4) 0.2716(3) 0.9818(3)
C8B C 0.4646(6) 0.3322(3) 1.1029(3)
C9B C 0.5573(4) 0.2364(3) 0.9643(3)
H3B H 0.57940 0.21770 0.97830
C10B C 0.5116(5) 0.3101(4) 1.0805(3)
C11B C 0.5429(5) 0.2805(4) 1.0223(3)
C12B C 0.5624(7) 0.2965(5) 1.0963(4)
H4B H 0.56830 0.30110 1.12180
N1B N 0.6042(6) 0.2771(6) 1.0767(3)
C13B C 0.5942(7) 0.2707(6) 1.0404(4)
H5B H 0.62390 0.25880 1.02620
C14B C 0.5001(4) 0.2980(3) 0.9601(3)
H6B H 0.48370 0.32150 0.97120
O1C O 0.3244(3) 0.40208(16) 0.91948(18)
O2C O 0.1839(4) 0.5651(2) 0.87419(17)
O3C O 0.1478(4) 0.5834(2) 0.92814(18)
O4C O 0.3262(3) 0.4033(2) 1.0854(2)
O5C O 0.3080(4) 0.4356(2) 0.8675(2)
O6C O 0.2791(5) 0.4112(3) 1.1365(2)
C1C C 0.1764(4) 0.5588(3) 0.9085(3)
C2C C 0.2600(4) 0.4598(3) 0.9224(3)
C3C C 0.2483(4) 0.4490(3) 1.0432(3)
H1C H 0.28320 0.44120 1.03200
C4C C 0.2366(4) 0.4946(3) 0.9057(3)
H2C H 0.24410 0.50020 0.88050
C5C C 0.2024(4) 0.5210(3) 0.9263(2)
C6C C 0.2997(4) 0.4306(3) 0.9012(3)
C7C C 0.2159(4) 0.4784(3) 0.9818(3)
C8C C 0.2854(6) 0.4178(3) 1.1029(3)
C9C C 0.1927(4) 0.5136(3) 0.9643(3)
H3C H 0.17060 0.53230 0.97830
C10C C 0.2384(5) 0.4399(4) 1.0805(3)
C11C C 0.2071(5) 0.4695(4) 1.0223(3)
C12C C 0.1876(7) 0.4535(5) 1.0963(4)
H4C H 0.18170 0.44890 1.12180
N1C N 0.1458(6) 0.4729(6) 1.0767(3)
C13C C 0.1558(7) 0.4793(6) 1.0404(4)
H5C H 0.12610 0.49120 1.02620
C14C C 0.2499(4) 0.4520(3) 0.9601(3)
H6C H 0.26630 0.42850 0.97120
In2R In 0.62500 0.62500 0.869352(19)
In2T In 0.62500 0.12500 0.880648(19)
In2X In 0.12500 0.62500 0.880648(19)
In2DA In 0.12500 0.12500 0.869352(19)
O2Q O 0.4339(4) 0.4349(2) 1.12419(17)
O2V O 0.4339(4) 0.3151(2) 0.62581(17)
O2AA O 0.3161(4) 0.4349(2) 0.62581(17)
O2BA O 0.3161(4) 0.3151(2) 1.12419(17)
O3Q O 0.3978(4) 0.4166(2) 1.17814(18)
O3V O 0.3978(4) 0.3334(2) 0.57186(18)
O3AA O 0.3522(4) 0.4166(2) 0.57186(18)
O3BA O 0.3522(4) 0.3334(2) 1.17814(18)
#END
