
#######################################################################
#
#                 Cambridge Crystallographic Data Centre
#                                CCDC
#
#######################################################################
#
# If this CIF has been generated from an entry in the Cambridge
# Structural Database, then it will include bibliographic, chemical,
# crystal, experimental, refinement or atomic coordinate data resulting
# from the CCDC's data processing and validation procedures.
#
#######################################################################

data_CSD_CIF_KOBXIL
_audit_creation_date 2019-01-25
_audit_creation_method CSD-ConQuest-V1
_database_code_CSD KOBXIL
_database_code_depnum_ccdc_archive 'CCDC 1851214'
_chemical_formula_sum 'C87 H109 Cu16 I16 In3 N30 O30'
_chemical_formula_moiety
;
3(C2 H8 N1 1+),n(C72 H58 Cu16 I16 In3 N24 O24 3-),3(C3 H7 N1 O1),3(H2 O1)
;
_journal_coden_Cambridge 179
_journal_volume 58
_journal_year 2019
_journal_page_first 577
_journal_name_full 'Angew.Chem.,Int.Ed. '
loop_
_publ_author_name
"Sheng-Li Hou"
"Jie Dong"
"Xiao-Lei Jiang"
"Zhuo-Hao Jiao"
"Bin Zhao"
_chemical_name_systematic
;
catena-[tris(dimethylammonium) 
dodecakis(\m-5-aminopyridine-3-carboxylato)-hexadecakis(\m-iodo)-tri-indium(ii
i)-hexadeca-copper(i) dimethylformamide solvent trihydrate]
;
_cell_volume  20271.472
_exptl_crystal_description 'block'
_diffrn_ambient_temperature 120
_refine_special_details
;
The SQUEEZE/PLATON program has been used to model some disordered cation and 
solvent molecules.
;
#These two values have been output from a single CSD field.
_refine_ls_R_factor_gt 0.0534
_refine_ls_wR_factor_gt 0.0534
_symmetry_cell_setting tetragonal
_symmetry_space_group_name_H-M 'I -4 c 2'
_symmetry_Int_Tables_number 120
loop_
_symmetry_equiv_pos_site_id
_symmetry_equiv_pos_as_xyz
1 x,y,z
2 y,-x,-z
3 -x,-y,z
4 -y,x,-z
5 y,x,1/2-z
6 -y,-x,1/2-z
7 -x,y,1/2+z
8 x,-y,1/2+z
9 1/2+x,1/2+y,1/2+z
10 1/2+y,1/2-x,1/2-z
11 1/2-x,1/2-y,1/2+z
12 1/2-y,1/2+x,1/2-z
13 1/2+y,1/2+x,-z
14 1/2-y,1/2-x,-z
15 1/2-x,1/2+y,z
16 1/2+x,1/2-y,z
_cell_length_a 36.0529(10)
_cell_length_b 36.0529(10)
_cell_length_c 15.5957(4)
_cell_angle_alpha 90
_cell_angle_beta 90
_cell_angle_gamma 90
_cell_formula_units_Z 4
loop_
_atom_type_symbol
_atom_type_radius_bond
C 0.68
Cu 1.32
I 1.40
In 1.42
N 0.68
O 0.68
loop_
_atom_site_label
_atom_site_type_symbol
_atom_site_fract_x
_atom_site_fract_y
_atom_site_fract_z
In1 In -0.28453(2) -0.21547(2) -0.50000
I1 I -0.52516(2) -0.24278(3) -0.17412(6)
I2 I -0.44754(2) -0.18286(3) 0.01171(6)
I3 I -0.40872(3) -0.27446(4) -0.16799(7)
I4 I -0.48079(3) -0.29721(4) 0.06230(7)
Cu1 Cu -0.50041(4) -0.23334(6) -0.01451(10)
Cu2 Cu -0.45510(5) -0.21878(6) -0.13759(11)
Cu3 Cu -0.42798(4) -0.25574(7) -0.00983(12)
O1 O -0.22277(18) -0.2191(2) -0.5147(5)
O2 O -0.24450(19) -0.2177(2) -0.3830(5)
C1 C -0.2181(3) -0.2216(4) -0.4368(8)
C2 C -0.1797(3) -0.2296(4) -0.4008(8)
C3 C -0.1757(3) -0.2388(4) -0.3139(8)
C4 C -0.1502(3) -0.2290(4) -0.4568(8)
C5 C -0.1398(4) -0.2470(4) -0.2881(8)
C6 C -0.1087(3) -0.2484(4) -0.3473(9)
N1 N -0.1320(4) -0.2598(5) -0.2034(8)
N2 N -0.1155(3) -0.2398(4) -0.4274(7)
C7 C -0.3982(3) -0.1947(4) -0.3318(8)
N3 N -0.4451(3) -0.1757(3) -0.2244(7)
O3 O -0.3266(2) -0.2073(2) -0.3941(6)
C8 C -0.4358(3) -0.1907(4) -0.3057(8)
O4 O -0.3485(2) -0.2225(2) -0.5212(5)
C9 C -0.3920(3) -0.2104(4) -0.4127(8)
C10 C -0.4642(3) -0.2008(4) -0.3635(8)
C11 C -0.4209(3) -0.2194(4) -0.4663(8)
N4 N -0.4573(3) -0.2149(3) -0.4404(7)
C12 C -0.3531(3) -0.2130(4) -0.4446(8)
Cu4 Cu -0.47665(6) -0.29070(7) -0.10740(14)
In2 In -0.50000 -0.50000 0.00000
C13 C -0.4913(5) -0.4098(5) -0.1459(13)
C14 C -0.4862(6) -0.4133(6) -0.2339(14)
C15 C -0.4810(8) -0.3819(8) -0.2841(12)
C16 C -0.4810(7) -0.3470(6) -0.2464(17)
N5 N -0.4862(6) -0.3435(5) -0.1585(17)
C17 C -0.4913(6) -0.3749(6) -0.1082(13)
C18 C -0.5134(6) -0.4348(5) -0.0916(12)
N6 N -0.4676(10) -0.3837(11) -0.376(3)
O5 O -0.4907(7) -0.4696(5) -0.1167(10)
O6 O -0.4975(7) -0.4417(4) -0.0184(9)
O7 O -0.3906(10) -0.3716(9) 0.000(3)
O8 O -0.5149(3) -0.1359(4) -0.2413(10)
N7 N -0.5658(5) -0.1414(6) -0.1478(13)
C19 C -0.5520(5) -0.1474(7) -0.2329(15)
C20 C -0.6058(6) -0.1471(7) -0.1470(17)
C21 C -0.5412(6) -0.1293(7) -0.0699(17)
O9 O -0.1668(5) -0.3415(5) -0.4540(12)
In1A In -0.21547(2) -0.71547(2) 0.50000
I1A I -0.24278(2) -0.47484(3) 0.17412(6)
I2A I -0.18286(2) -0.55246(3) -0.01171(6)
I3A I -0.27446(3) -0.59128(4) 0.16799(7)
I4A I -0.29721(3) -0.51921(4) -0.06230(7)
Cu1A Cu -0.23334(4) -0.49959(6) 0.01451(10)
Cu2A Cu -0.21878(5) -0.54490(6) 0.13759(11)
Cu3A Cu -0.25574(4) -0.57202(7) 0.00983(12)
O1A O -0.21910(18) -0.77723(20) 0.5147(5)
O2A O -0.21770(19) -0.7555(2) 0.3830(5)
C1A C -0.2216(3) -0.7819(4) 0.4368(8)
C2A C -0.2296(3) -0.8203(4) 0.4008(8)
C3A C -0.2388(3) -0.8243(4) 0.3139(8)
C4A C -0.2290(3) -0.8498(4) 0.4568(8)
C5A C -0.2470(4) -0.8602(4) 0.2881(8)
C6A C -0.2484(3) -0.8913(4) 0.3473(9)
N1A N -0.2598(4) -0.8680(5) 0.2034(8)
N2A N -0.2398(3) -0.8845(4) 0.4274(7)
C7A C -0.1947(3) -0.6018(4) 0.3318(8)
N3A N -0.1757(3) -0.5549(3) 0.2244(7)
O3A O -0.2073(2) -0.6734(2) 0.3941(6)
C8A C -0.1907(3) -0.5642(4) 0.3057(8)
O4A O -0.2225(2) -0.6515(2) 0.5212(5)
C9A C -0.2104(3) -0.6080(4) 0.4127(8)
C10A C -0.2008(3) -0.5358(4) 0.3635(8)
C11A C -0.2194(3) -0.5791(4) 0.4663(8)
N4A N -0.2149(3) -0.5427(3) 0.4404(7)
C12A C -0.2130(3) -0.6469(4) 0.4446(8)
Cu4A Cu -0.29070(6) -0.52335(7) 0.10740(14)
C13A C -0.4098(5) -0.5087(5) 0.1459(13)
C14A C -0.4133(6) -0.5138(6) 0.2339(14)
C15A C -0.3819(8) -0.5190(8) 0.2841(12)
C16A C -0.3470(7) -0.5190(6) 0.2464(17)
N5A N -0.3435(6) -0.5138(5) 0.1585(17)
C17A C -0.3749(6) -0.5087(6) 0.1082(13)
C18A C -0.4348(6) -0.4866(5) 0.0916(12)
N6A N -0.3837(10) -0.5324(11) 0.376(3)
O5A O -0.4696(7) -0.5093(5) 0.1167(10)
O6A O -0.4417(7) -0.5025(4) 0.0184(9)
I1B I -0.47484(2) -0.75722(3) -0.17412(6)
I2B I -0.55246(2) -0.81714(3) 0.01171(6)
I3B I -0.59128(3) -0.72554(4) -0.16799(7)
I4B I -0.51921(3) -0.70279(4) 0.06230(7)
Cu1B Cu -0.49959(4) -0.76666(6) -0.01451(10)
Cu2B Cu -0.54490(5) -0.78122(6) -0.13759(11)
Cu3B Cu -0.57202(4) -0.74426(7) -0.00983(12)
C7B C -0.6018(3) -0.8053(4) -0.3318(8)
N3B N -0.5549(3) -0.8243(3) -0.2244(7)
O3B O -0.6734(2) -0.7927(2) -0.3941(6)
C8B C -0.5642(3) -0.8093(4) -0.3057(8)
O4B O -0.6515(2) -0.7775(2) -0.5212(5)
C9B C -0.6080(3) -0.7896(4) -0.4127(8)
C10B C -0.5358(3) -0.7992(4) -0.3635(8)
C11B C -0.5791(3) -0.7806(4) -0.4663(8)
N4B N -0.5427(3) -0.7851(3) -0.4404(7)
C12B C -0.6469(3) -0.7870(4) -0.4446(8)
Cu4B Cu -0.52335(6) -0.70930(7) -0.10740(14)
C13B C -0.5087(5) -0.5902(5) -0.1459(13)
C14B C -0.5138(6) -0.5867(6) -0.2339(14)
C15B C -0.5190(8) -0.6181(8) -0.2841(12)
C16B C -0.5190(7) -0.6530(6) -0.2464(17)
N5B N -0.5138(6) -0.6565(5) -0.1585(17)
C17B C -0.5087(6) -0.6251(6) -0.1082(13)
C18B C -0.4866(6) -0.5652(5) -0.0916(12)
N6B N -0.5324(10) -0.6163(11) -0.376(3)
O5B O -0.5093(7) -0.5304(5) -0.1167(10)
O6B O -0.5025(7) -0.5583(4) -0.0184(9)
I1C I -0.75722(2) -0.52516(3) 0.17412(6)
I2C I -0.81714(2) -0.44754(3) -0.01171(6)
I3C I -0.72554(3) -0.40872(4) 0.16799(7)
I4C I -0.70279(3) -0.48079(4) -0.06230(7)
Cu1C Cu -0.76666(4) -0.50041(6) 0.01451(10)
Cu2C Cu -0.78122(5) -0.45510(6) 0.13759(11)
Cu3C Cu -0.74426(4) -0.42798(7) 0.00983(12)
C7C C -0.8053(3) -0.3982(4) 0.3318(8)
N3C N -0.8243(3) -0.4451(3) 0.2244(7)
O3C O -0.7927(2) -0.3266(2) 0.3941(6)
C8C C -0.8093(3) -0.4358(4) 0.3057(8)
O4C O -0.7775(2) -0.3485(2) 0.5212(5)
C9C C -0.7896(3) -0.3920(4) 0.4127(8)
C10C C -0.7992(3) -0.4642(4) 0.3635(8)
C11C C -0.7806(3) -0.4209(4) 0.4663(8)
N4C N -0.7851(3) -0.4573(3) 0.4404(7)
C12C C -0.7870(3) -0.3531(4) 0.4446(8)
Cu4C Cu -0.70930(6) -0.47665(7) 0.10740(14)
C13C C -0.5902(5) -0.4913(5) 0.1459(13)
C14C C -0.5867(6) -0.4862(6) 0.2339(14)
C15C C -0.6181(8) -0.4810(8) 0.2841(12)
C16C C -0.6530(7) -0.4810(6) 0.2464(17)
N5C N -0.6565(6) -0.4862(5) 0.1585(17)
C17C C -0.6251(6) -0.4913(6) 0.1082(13)
C18C C -0.5652(6) -0.5134(5) 0.0916(12)
N6C N -0.6163(10) -0.4676(11) 0.376(3)
O5C O -0.5304(7) -0.4907(5) 0.1167(10)
O6C O -0.5583(7) -0.4975(4) 0.0184(9)
O1M O -0.28090(18) -0.27723(20) -0.4853(5)
O2M O -0.28230(19) -0.2555(2) -0.6170(5)
C1M C -0.2784(3) -0.2819(4) -0.5632(8)
C2M C -0.2704(3) -0.3203(4) -0.5992(8)
C3M C -0.2612(3) -0.3243(4) -0.6861(8)
C4M C -0.2710(3) -0.3498(4) -0.5432(8)
C5M C -0.2530(4) -0.3602(4) -0.7119(8)
C6M C -0.2516(3) -0.3913(4) -0.6527(9)
N1M N -0.2402(4) -0.3680(5) -0.7966(8)
N2M N -0.2602(3) -0.3845(4) -0.5726(7)
O1J O -0.27723(18) -0.2809(2) -0.0147(5)
O2J O -0.25550(19) -0.2823(2) 0.1170(5)
C1J C -0.2819(3) -0.2784(4) 0.0632(8)
C2J C -0.3203(3) -0.2704(4) 0.0992(8)
C3J C -0.3243(3) -0.2612(4) 0.1861(8)
C4J C -0.3498(3) -0.2710(4) 0.0432(8)
C5J C -0.3602(4) -0.2530(4) 0.2119(8)
C6J C -0.3913(3) -0.2516(4) 0.1527(9)
N1J N -0.3680(4) -0.2402(5) 0.2966(8)
N2J N -0.3845(3) -0.2602(4) 0.0726(7)
In1B In -0.71547(2) -0.78453(2) -0.50000
In1C In -0.78453(2) -0.28453(2) 0.50000
In1D In -0.21547(2) -0.28453(2) 0.00000
Cu1D Cu -0.23334(4) -0.50041(6) 0.51451(10)
Cu1E Cu -0.76666(4) -0.49959(6) 0.51451(10)
Cu1F Cu -0.49959(4) -0.23334(6) -0.51451(10)
Cu1G Cu -0.50041(4) -0.76666(6) -0.51451(10)
Cu3D Cu -0.25574(4) -0.42798(7) -0.49017(12)
Cu3J Cu -0.07202(4) -0.24426(7) -0.50983(12)
Cu3K Cu -0.24426(4) -0.92798(7) 0.50983(12)
O1N O -0.27723(18) -0.7191(2) 0.4853(5)
O2N O -0.25550(19) -0.7177(2) 0.6170(5)
N2H N -0.6155(3) -0.7398(4) 0.0726(7)
N2I N -0.7398(3) -0.3845(4) -0.0726(7)
N2K N -0.2602(3) -0.6155(4) -0.0726(7)
O3M O -0.2927(2) -0.1734(2) -0.6059(6)
O3N O -0.1734(2) -0.7073(2) 0.6059(6)
O4M O -0.2775(2) -0.1515(2) -0.4788(5)
O4N O -0.1515(2) -0.7225(2) 0.4788(5)
N4D N -0.2149(3) -0.4573(3) -0.0596(7)
N4E N -0.7851(3) -0.5427(3) -0.0596(7)
N4F N -0.5427(3) -0.2149(3) 0.0596(7)
N4G N -0.4573(3) -0.7851(3) 0.0596(7)
#END
