
#######################################################################
#
#                 Cambridge Crystallographic Data Centre
#                                CCDC
#
#######################################################################
#
# If this CIF has been generated from an entry in the Cambridge
# Structural Database, then it will include bibliographic, chemical,
# crystal, experimental, refinement or atomic coordinate data resulting
# from the CCDC's data processing and validation procedures.
#
#######################################################################

data_CSD_CIF_KOCDOX
_audit_creation_date 2014-01-27
_audit_creation_method CSD-ConQuest-V1
_database_code_CSD KOCDOX
_database_code_depnum_ccdc_archive 'CCDC 959104'
_chemical_formula_sum 'C8 H18 N4 Nd2 O20'
_chemical_formula_moiety
;
(C8 H5 N2 Nd2 O16 1-)n,n(H5 N2 1+),4n(H2 O1)
;
_journal_coden_Cambridge 222
_journal_volume 43
_journal_year 2014
_journal_page_first 4680
_journal_name_full 'Dalton Trans. '
loop_
_publ_author_name
"L.De Almeida"
"S.Grandjean"
"M.Rivenet"
"F.Patisson"
"F.Abraham"
_chemical_name_systematic
;
catena-[hydrazinium 
(\m~3~-oxalato)-tris(\m~2~-oxalato)-(hydrazinium)-di-neodymium tetrahydrate]
;
_cell_volume   2021.412
_exptl_crystal_colour 'pale violet'
_exptl_crystal_density_diffrn 2.558
_exptl_crystal_description 'plate'
_diffrn_ambient_temperature 296
_refine_special_details
;
N3,N4,Ow3 disordered by symmetry over two configurations with occupancy 0.5.

;
#These two values have been output from a single CSD field.
_refine_ls_R_factor_gt 0.0295
_refine_ls_wR_factor_gt 0.0295
_symmetry_cell_setting monoclinic
_symmetry_space_group_name_H-M 'C 2/m'
_symmetry_Int_Tables_number 12
loop_
_symmetry_equiv_pos_site_id
_symmetry_equiv_pos_as_xyz
1 x,y,z
2 -x,y,-z
3 1/2+x,1/2+y,z
4 1/2-x,1/2+y,-z
5 -x,-y,-z
6 x,-y,z
7 -1/2-x,-1/2-y,-z
8 -1/2+x,-1/2-y,z
_cell_length_a 16.315(4)
_cell_length_b 12.127(3)
_cell_length_c 11.430(2)
_cell_angle_alpha 90
_cell_angle_beta 116.638(4)
_cell_angle_gamma 90
_cell_formula_units_Z 4
loop_
_atom_type_symbol
_atom_type_radius_bond
C 0.68
H 0.23
N 0.68
Nd 2.01
O 0.68
loop_
_atom_site_label
_atom_site_type_symbol
_atom_site_fract_x
_atom_site_fract_y
_atom_site_fract_z
Nd1 Nd 0.109653(14) 0.00000 0.19499(2)
Nd2 Nd 0.286967(14) 0.00000 0.81338(2)
O1 O 0.19962(19) 0.00000 0.9427(3)
O2 O 0.06312(19) 0.00000 0.9477(3)
O3 O 0.1177(2) 0.00000 0.6848(3)
O4 O -0.01818(20) 0.00000 0.6835(3)
C1 C 0.1141(3) 0.00000 0.8920(4)
O5 O 0.05132(14) 0.19281(16) 0.1530(2)
O6 O 0.08476(13) 0.36947(16) 0.1409(2)
C2 C 0.10198(18) 0.2687(2) 0.1482(3)
O7 O 0.24162(15) 0.30902(16) 0.1392(2)
O8 O 0.21369(14) 0.13326(16) 0.1660(2)
N1 N 0.4011(3) 0.00000 1.0721(4)
C3 C 0.19364(19) 0.2337(2) 0.1510(3)
C4 C 0.0659(3) 0.00000 0.7409(4)
O9 O 0.25176(16) 0.10982(17) 0.6158(2)
O10 O 0.19382(18) 0.10943(18) 0.3983(2)
N2 N 0.3670(3) 0.00000 1.1700(4)
C5 C 0.2233(2) 0.0634(2) 0.5068(3)
H1 H 0.44157 -0.05215 1.08975
H2 H 0.41310 0.00000 1.24786
H3 H 0.33380 0.05857 1.16036
O11 O 0.08242(19) 0.2691(3) 0.7809(4)
H4 H 0.048(3) 0.249(4) 0.813(5)
H5 H 0.1339(15) 0.242(4) 0.820(4)
O12 O 0.5295(4) 0.00000 1.3904(6)
H6 H 0.556(4) -0.059(3) 1.402(6)
N3 N 0.6108(3) 0.2102(3) 1.4976(4)
N4 N 0.5381(4) 0.2939(5) 1.4960(7)
O13? O 0.6108(3) 0.2102(3) 1.4976(4)
H1E H 0.44157 0.05215 1.08975
H3E H 0.33380 -0.05857 1.16036
O9E O 0.25176(16) -0.10982(17) 0.6158(2)
O10E O 0.19382(18) -0.10943(18) 0.3983(2)
C5E C 0.2233(2) -0.0634(2) 0.5068(3)
O5E O 0.05132(14) -0.19281(16) 0.1530(2)
O6E O 0.08476(13) -0.36947(16) 0.1409(2)
C2E C 0.10198(18) -0.2687(2) 0.1482(3)
O7E O 0.24162(15) -0.30902(16) 0.1392(2)
O8E O 0.21369(14) -0.13326(16) 0.1660(2)
C3E C 0.19364(19) -0.2337(2) 0.1510(3)
Nd1* Nd 0.109653(14) 0.00000 1.19499(2)
Nd1A Nd -0.109653(14) 0.00000 0.80501(2)
Nd2C Nd 0.213033(14) -0.50000 0.18662(2)
Nd2C* Nd 0.213033(14) 0.50000 0.18662(2)
O2* O 0.06312(19) 0.00000 -0.0523(3)
O2A O -0.06312(19) 0.00000 0.0523(3)
O4A O 0.01818(20) 0.00000 0.3165(3)
O6C O 0.41524(13) -0.13053(16) 0.8591(2)
O6F O 0.41524(13) 0.13053(16) 0.8591(2)
O7C O 0.25838(15) -0.19098(16) 0.8608(2)
O7F O 0.25838(15) 0.19098(16) 0.8608(2)
H6E H 0.556(4) 0.059(3) 1.402(6)
N3A N 0.3892(3) 0.2102(3) 1.5024(4)
N4A N 0.4619(4) 0.2939(5) 1.5040(7)
#END
