
#######################################################################
#
#                 Cambridge Crystallographic Data Centre
#                                CCDC
#
#######################################################################
#
# If this CIF has been generated from an entry in the Cambridge
# Structural Database, then it will include bibliographic, chemical,
# crystal, experimental, refinement or atomic coordinate data resulting
# from the CCDC's data processing and validation procedures.
#
#######################################################################

data_CSD_CIF_KODHAP
_audit_creation_date 2019-06-05
_audit_creation_method CSD-ConQuest-V1
_database_code_CSD KODHAP
_database_code_depnum_ccdc_archive 'CCDC 1896446'
_chemical_formula_sum 'C96 H64 Cl4 I12 Mn4 N16 Pb4'
_chemical_formula_moiety
;
(C48 H32 Cl2 Mn2 N8 2+)2n,n(I12 Pb4 4-)
;
_journal_coden_Cambridge 1695
_journal_volume 7
_journal_year 2019
_journal_page_first 7700
_journal_name_full 'J.Mater.Chem.C '
loop_
_publ_author_name
"Guang-Ning Liu"
"Ruo-Yu Zhao"
"Rang-Dong Xu"
"Qisheng Liu"
"Bo Xu"
"Yang-Yang Wang"
"Qian Wu"
"Jun-Nuan Wang"
"Yong Nie"
"Cuncheng Li"
_chemical_name_systematic
;
catena-(bis(bis(\m-chloro)-tetrakis(1,10-phenanthroline)-di-manganese(ii)) 
dodecakis(\m-iodo)-tetra-lead(ii))
;
_cell_volume   2829.547
_exptl_crystal_colour 'yellow'
_exptl_special_details
;
photoconductive property

;
_exptl_crystal_description 'block'
_diffrn_ambient_temperature 293
_refine_special_details
;
The sites represented as bridging Cl atoms are each mixed Cl/I atoms with 
occupancies 0.6455:0.3545.
;
#These two values have been output from a single CSD field.
_refine_ls_R_factor_gt 0.0371
_refine_ls_wR_factor_gt 0.0371
_symmetry_cell_setting triclinic
_symmetry_space_group_name_H-M 'P -1'
_symmetry_Int_Tables_number 2
loop_
_symmetry_equiv_pos_site_id
_symmetry_equiv_pos_as_xyz
1 x,y,z
2 -x,-y,-z
_cell_length_a 12.0083(6)
_cell_length_b 15.9672(8)
_cell_length_c 16.8500(9)
_cell_angle_alpha 71.256(5)
_cell_angle_beta 77.764(4)
_cell_angle_gamma 68.460(5)
_cell_formula_units_Z 1
loop_
_atom_type_symbol
_atom_type_radius_bond
C 0.68
H 0.23
Cl 0.99
I 1.40
Mn 1.61
N 0.68
Pb 1.46
loop_
_atom_site_label
_atom_site_type_symbol
_atom_site_fract_x
_atom_site_fract_y
_atom_site_fract_z
Pb1 Pb -0.50000 0.00000 1.00000
Pb2 Pb -0.75582(2) 0.24563(2) 0.98986(2)
Pb3 Pb -1.00000 0.50000 1.00000
I1 I -0.78765(2) 0.03943(2) 1.06683(2)
I2 I -0.58711(2) 0.16614(2) 0.83621(2)
I3 I -0.52046(3) 0.15481(2) 1.09165(2)
I4 I -0.72853(2) 0.44940(2) 0.89409(2)
I5 I -0.90162(3) 0.31721(2) 1.15059(2)
I6 I -1.01541(2) 0.35965(2) 0.89967(2)
I7? I 0.41628(7) 0.19751(5) 0.38905(5)
I8? I 0.63265(6) 0.36010(4) 0.39619(4)
Mn1 Mn 0.38415(5) 0.38840(4) 0.37875(4)
Mn2 Mn 0.66584(5) 0.17192(4) 0.38841(4)
Cl1 Cl 0.44077(15) 0.21042(10) 0.39984(11)
Cl2 Cl 0.60651(12) 0.34262(8) 0.40110(9)
N1 N 0.8565(3) 0.1484(2) 0.4156(2)
N2 N 0.6782(3) 0.0974(2) 0.52617(19)
N3 N 0.7035(2) 0.03665(19) 0.35417(19)
N4 N 0.7280(3) 0.20015(19) 0.25026(19)
N5 N 0.3890(3) 0.43264(19) 0.23971(19)
N6 N 0.3620(3) 0.54331(19) 0.34076(19)
N7 N 0.1847(3) 0.40089(19) 0.3923(2)
N8 N 0.3122(3) 0.3890(2) 0.5134(2)
C1 C 0.9453(4) 0.1715(3) 0.3614(3)
H1 H 0.93770 0.18990 0.30400
C2 C 1.0496(4) 0.1692(3) 0.3875(3)
H2 H 1.11020 0.18540 0.34780
C3 C 1.0616(3) 0.1437(3) 0.4698(3)
H3 H 1.12990 0.14410 0.48720
C4 C 0.9734(3) 0.1166(2) 0.5297(3)
C5 C 0.9815(4) 0.0861(3) 0.6182(3)
H4 H 1.04670 0.08740 0.63860
C6 C 0.8960(4) 0.0552(3) 0.6729(3)
H5 H 0.90490 0.03420 0.73020
C7 C 0.7915(3) 0.0540(3) 0.6450(2)
C8 C 0.7013(4) 0.0218(3) 0.6974(3)
H6 H 0.70800 -0.00310 0.75480
C9 C 0.6038(4) 0.0262(3) 0.6660(3)
H7 H 0.54390 0.00400 0.70120
C10 C 0.5954(4) 0.0645(3) 0.5804(3)
H8 H 0.52810 0.06760 0.55930
C11 C 0.7768(3) 0.0903(2) 0.5571(2)
C12 C 0.8712(3) 0.1192(2) 0.4992(2)
C13 C 0.6888(3) -0.0426(2) 0.4046(3)
H9 H 0.65690 -0.04420 0.46020
C14 C 0.7186(3) -0.1234(2) 0.3789(3)
H10 H 0.70680 -0.17740 0.41650
C15 C 0.7660(3) -0.1219(2) 0.2967(3)
H11 H 0.78610 -0.17490 0.27790
C16 C 0.7834(3) -0.0393(2) 0.2417(3)
C17 C 0.8353(4) -0.0333(3) 0.1554(3)
H12 H 0.85530 -0.08430 0.13380
C18 C 0.8546(4) 0.0454(3) 0.1067(3)
H13 H 0.89270 0.04700 0.05230
C19 C 0.8185(3) 0.1274(2) 0.1357(2)
C20 C 0.8362(4) 0.2123(3) 0.0847(3)
H14 H 0.87470 0.21630 0.03020
C21 C 0.7964(4) 0.2876(3) 0.1162(3)
H15 H 0.80520 0.34430 0.08280
C22 C 0.7427(4) 0.2797(3) 0.1981(3)
H16 H 0.71530 0.33250 0.21820
C23 C 0.7655(3) 0.1248(2) 0.2182(2)
C24 C 0.7503(3) 0.0382(2) 0.2729(2)
C25 C 0.4007(4) 0.3797(3) 0.1898(3)
H17 H 0.41530 0.31580 0.21330
C26 C 0.3920(4) 0.4158(3) 0.1038(3)
H18 H 0.39570 0.37700 0.07160
C27 C 0.3782(4) 0.5072(3) 0.0666(3)
H19 H 0.37420 0.53120 0.00880
C28 C 0.3699(3) 0.5660(3) 0.1167(2)
C29 C 0.3579(4) 0.6638(3) 0.0820(3)
H20 H 0.35690 0.69010 0.02420
C30 C 0.3482(4) 0.7170(3) 0.1316(3)
H21 H 0.34230 0.77950 0.10780
C31 C 0.3468(3) 0.6789(2) 0.2212(3)
C32 C 0.3337(3) 0.7334(3) 0.2752(3)
H22 H 0.32410 0.79680 0.25350
C33 C 0.3351(3) 0.6929(3) 0.3602(3)
H23 H 0.32700 0.72820 0.39680
C34 C 0.3489(3) 0.5973(2) 0.3911(2)
H24 H 0.34900 0.57020 0.44890
C35 C 0.3612(3) 0.5832(2) 0.2574(2)
C36 C 0.3749(3) 0.5259(2) 0.2032(2)
C37 C 0.1201(4) 0.4093(3) 0.3342(3)
H25 H 0.15410 0.41960 0.27840
C38 C 0.0048(4) 0.4036(3) 0.3512(3)
H26 H -0.03720 0.41070 0.30770
C39 C -0.0459(4) 0.3874(3) 0.4322(3)
H27 H -0.12290 0.38250 0.44470
C40 C 0.0179(3) 0.3781(3) 0.4972(3)
C41 C -0.0285(4) 0.3628(3) 0.5844(3)
H28 H -0.10270 0.35310 0.60070
C42 C 0.0309(4) 0.3622(3) 0.6431(3)
H29 H -0.00410 0.35490 0.69870
C43 C 0.1476(3) 0.3725(2) 0.6220(3)
C44 C 0.2141(4) 0.3744(3) 0.6798(3)
H30 H 0.18210 0.36890 0.73580
C45 C 0.3239(4) 0.3841(3) 0.6554(3)
H31 H 0.36760 0.38700 0.69330
C46 C 0.3701(4) 0.3895(3) 0.5714(2)
H32 H 0.44730 0.39390 0.55520
C47 C 0.1997(3) 0.3816(2) 0.5385(2)
C48 C 0.1326(3) 0.3875(2) 0.4732(2)
Pb2A Pb -1.24418(2) 0.75437(2) 1.01014(2)
I1A I -1.21235(2) 0.96057(2) 0.93317(2)
I2A I -1.41289(2) 0.83386(2) 1.16379(2)
I3A I -1.47954(3) 0.84519(2) 0.90835(2)
I4A I -1.27147(2) 0.55060(2) 1.10591(2)
I5A I -1.09838(3) 0.68279(2) 0.84941(2)
I6A I -0.98459(2) 0.64035(2) 1.10033(2)
Pb1* Pb -1.50000 1.00000 1.00000
I1A* I -0.21235(2) -0.03943(2) 0.93317(2)
I2A* I -0.41289(2) -0.16614(2) 1.16379(2)
I3A* I -0.47954(3) -0.15481(2) 0.90835(2)
#END
