
#######################################################################
#
#                 Cambridge Crystallographic Data Centre
#                                CCDC
#
#######################################################################
#
# If this CIF has been generated from an entry in the Cambridge
# Structural Database, then it will include bibliographic, chemical,
# crystal, experimental, refinement or atomic coordinate data resulting
# from the CCDC's data processing and validation procedures.
#
#######################################################################

data_CSD_CIF_KOFVOS
_audit_creation_date 2014-06-30
_audit_creation_method CSD-ConQuest-V1
_database_code_CSD KOFVOS
_database_code_depnum_ccdc_archive 'CCDC 951474'
_chemical_formula_sum 'C28 H44 N4 Ni4 O34'
_chemical_formula_moiety
;
(C28 H12 N4 Ni3 O18 2-)n,n(H12 Ni1 O6 2+),10n(H2 O1)
;
_journal_coden_Cambridge 29
_journal_volume 640
_journal_year 2014
_journal_page_first 1437
_journal_name_full 'Z.Anorg.Allg.Chem. '
loop_
_publ_author_name
"Zheng-Shuai Bai"
"Pei-Zhong Ni"
"Hui-Dong Zheng"
"Su-Ying Zhao"
_chemical_name_systematic
;
catena-[hexaaqua-nickel 
bis(\m~4~-4,4'-bipyridine-2,2',6,6'-tetracarboxylato)-diaqua-tri-nickel 
decahydrate]
;
_cell_volume   2202.941
_exptl_crystal_colour 'green'
_exptl_crystal_density_diffrn 1.833
_exptl_crystal_description 'block'
_diffrn_ambient_temperature 200
#These two values have been output from a single CSD field.
_refine_ls_R_factor_gt 0.1159
_refine_ls_wR_factor_gt 0.1159
_symmetry_cell_setting monoclinic
_symmetry_space_group_name_H-M 'P 21/c'
_symmetry_Int_Tables_number 14
loop_
_symmetry_equiv_pos_site_id
_symmetry_equiv_pos_as_xyz
1 x,y,z
2 -x,1/2+y,1/2-z
3 -x,-y,-z
4 x,-1/2-y,-1/2+z
_cell_length_a 13.854(4)
_cell_length_b 11.411(5)
_cell_length_c 17.710(4)
_cell_angle_alpha 90
_cell_angle_beta 128.109(13)
_cell_angle_gamma 90
_cell_formula_units_Z 2
loop_
_atom_type_symbol
_atom_type_radius_bond
C 0.68
H 0.23
N 0.68
Ni 1.24
O 0.68
loop_
_atom_site_label
_atom_site_type_symbol
_atom_site_fract_x
_atom_site_fract_y
_atom_site_fract_z
Ni1 Ni 0.87858(12) 0.27598(13) 0.69859(10)
Ni2 Ni 0.00000 0.00000 0.00000
O1 O 0.1601(7) -0.0959(7) 0.0639(6)
O2 O -0.0747(7) 0.1385(7) 0.1180(6)
O3 O 0.0881(6) 0.0848(7) 0.1286(5)
O4 O -0.0831(7) 0.3060(7) 0.3251(5)
O5 O 0.0756(6) 0.3848(7) 0.4637(5)
O6 O 0.8529(7) 0.1187(8) 0.6275(6)
O7 O 0.7081(7) 0.0019(8) 0.5110(6)
O8 O 0.8210(6) 0.4316(7) 0.7256(5)
O9 O 0.6527(7) 0.5307(8) 0.6783(6)
N1 N 0.0608(7) 0.2250(8) 0.2890(6)
N2 N 0.6985(9) 0.2660(8) 0.6060(7)
C1 C 0.0397(9) 0.1288(9) 0.1617(7)
C2 C 0.0287(9) 0.3273(9) 0.3886(8)
C3 C 0.7425(10) 0.0889(10) 0.5627(8)
C4 C 0.7054(10) 0.4449(10) 0.6735(8)
C5 C 0.1217(10) 0.1797(10) 0.2605(8)
C6 C 0.2502(10) 0.1850(9) 0.3209(8)
H1 H 0.29480 0.15370 0.30110
C7 C 0.3117(10) 0.2379(9) 0.4117(8)
C8 C 0.2421(9) 0.2922(9) 0.4351(8)
H2 H 0.28120 0.33480 0.49330
C9 C 0.1151(10) 0.2825(9) 0.3715(8)
C10 C 0.6473(9) 0.1723(10) 0.5472(8)
C11 C 0.5221(9) 0.1624(10) 0.4826(8)
H3 H 0.48640 0.09630 0.44120
C12 C 0.4470(11) 0.2487(9) 0.4773(8)
C13 C 0.5033(10) 0.3466(11) 0.5385(8)
H4 H 0.45490 0.40830 0.53550
C14 C 0.6307(9) 0.3515(10) 0.6034(8)
Ni3 Ni 0.00000 0.00000 0.50000
O10 O 0.1242(8) 0.1017(7) 0.5055(6)
O11 O 0.1318(7) -0.1313(7) 0.5817(6)
O12 O 0.0431(7) 0.0800(7) 0.6211(6)
O13 O 0.3481(9) 0.0805(10) 0.1788(8)
O14 O 0.4898(11) 0.0867(12) 0.6661(9)
O15 O 0.3226(9) 0.1827(8) 0.6868(7)
O16 O 0.5907(9) 0.1003(10) 0.8991(8)
O17 O 0.6299(10) 0.3118(13) 0.8302(12)
Ni1B Ni -0.87858(12) -0.27598(13) -0.69859(10)
O1B O -0.1601(7) 0.0959(7) -0.0639(6)
O2B O 0.0747(7) -0.1385(7) -0.1180(6)
O3B O -0.0881(6) -0.0848(7) -0.1286(5)
O4B O 0.0831(7) -0.3060(7) -0.3251(5)
O5B O -0.0756(6) -0.3848(7) -0.4637(5)
O6B O -0.8529(7) -0.1187(8) -0.6275(6)
O7B O -0.7081(7) -0.0019(8) -0.5110(6)
O8B O -0.8210(6) -0.4316(7) -0.7256(5)
O9B O -0.6527(7) -0.5307(8) -0.6783(6)
N1B N -0.0608(7) -0.2250(8) -0.2890(6)
N2B N -0.6985(9) -0.2660(8) -0.6060(7)
C1B C -0.0397(9) -0.1288(9) -0.1617(7)
C2B C -0.0287(9) -0.3273(9) -0.3886(8)
C3B C -0.7425(10) -0.0889(10) -0.5627(8)
C4B C -0.7054(10) -0.4449(10) -0.6735(8)
C5B C -0.1217(10) -0.1797(10) -0.2605(8)
C6B C -0.2502(10) -0.1850(9) -0.3209(8)
H1B H -0.29480 -0.15370 -0.30110
C7B C -0.3117(10) -0.2379(9) -0.4117(8)
C8B C -0.2421(9) -0.2922(9) -0.4351(8)
H2B H -0.28120 -0.33480 -0.49330
C9B C -0.1151(10) -0.2825(9) -0.3715(8)
C10B C -0.6473(9) -0.1723(10) -0.5472(8)
C11B C -0.5221(9) -0.1624(10) -0.4826(8)
H3B H -0.48640 -0.09630 -0.44120
C12B C -0.4470(11) -0.2487(9) -0.4773(8)
C13B C -0.5033(10) -0.3466(11) -0.5385(8)
H4B H -0.45490 -0.40830 -0.53550
C14B C -0.6307(9) -0.3515(10) -0.6034(8)
Ni1A Ni 0.12142(12) -0.22402(13) -0.19859(10)
Ni1C Ni -0.12142(12) 0.22402(13) 0.19859(10)
Ni2A Ni 0.00000 -0.50000 -0.50000
Ni2A* Ni 0.00000 0.50000 0.50000
O2A O -0.9253(7) -0.3615(7) -0.6180(6)
O2C O 0.9253(7) 0.3615(7) 0.6180(6)
O4A O -0.9169(7) -0.1940(7) -0.8251(5)
O4C O 0.9169(7) 0.1940(7) 0.8251(5)
O5A O -0.0756(6) -0.1152(7) 0.0363(5)
O5C O 0.0756(6) 0.1152(7) -0.0363(5)
N1A N -1.0608(7) -0.2750(8) -0.7890(6)
N1C N 1.0608(7) 0.2750(8) 0.7890(6)
O10B O -0.1242(8) -0.1017(7) 0.4945(6)
O11B O -0.1318(7) 0.1313(7) 0.4183(6)
O12B O -0.0431(7) -0.0800(7) 0.3789(6)
#END
