
#######################################################################
#
#                 Cambridge Crystallographic Data Centre
#                                CCDC
#
#######################################################################
#
# If this CIF has been generated from an entry in the Cambridge
# Structural Database, then it will include bibliographic, chemical,
# crystal, experimental, refinement or atomic coordinate data resulting
# from the CCDC's data processing and validation procedures.
#
#######################################################################

data_CSD_CIF_KOGLUQ01
_audit_creation_date 2019-06-06
_audit_creation_method CSD-ConQuest-V1
_database_code_CSD KOGLUQ01
_database_code_depnum_ccdc_archive 'CCDC 1007378'
_chemical_formula_sum 'C119 H86 Br1 Co0.5 Dy5 N3 O30'
_chemical_formula_moiety
;
0.5(C42 H28 Br2 Co1 N6 2+),n(C98 H72 Dy5 O30 1-)
;
_journal_coden_Cambridge 1295
_journal_volume 105
_journal_year 2019
_journal_page_first 93
_journal_name_full 'Inorg.Chem.Commun. '
loop_
_publ_author_name
"Xianqing Xie"
"Lixiao Yang"
"Feng Luo"
_chemical_name_systematic
;
catena-[hemikis(bis(4'-(4-bromophenyl)-2,2':6',2''-terpyridine)-cobalt(ii)) 
tetradecakis(\m-benzoato)-bis(\m-hydroxo)-penta-dysprosium(iii)]
;
_cell_volume  10908.336
_exptl_crystal_colour 'carmine'
_exptl_crystal_density_diffrn 1.801
_exptl_special_details
;
incomplete spin-crossover transition (SCO) from high-spin Co(ii) at 296 K to 
mixed low- and high-spin Co(ii) at 100 K.
;
_exptl_crystal_description 'Block'
_diffrn_ambient_temperature 100
#These two values have been output from a single CSD field.
_refine_ls_R_factor_gt 0.0624
_refine_ls_wR_factor_gt 0.0624
_symmetry_cell_setting tetragonal
_symmetry_space_group_name_H-M 'P 42/n'
_symmetry_Int_Tables_number 86
loop_
_symmetry_equiv_pos_site_id
_symmetry_equiv_pos_as_xyz
1 x,y,z
2 -y,1/2+x,1/2+z
3 1/2-x,1/2-y,z
4 1/2+y,-x,1/2+z
5 -x,-y,-z
6 y,-1/2-x,-1/2-z
7 -1/2+x,-1/2+y,-z
8 -1/2-y,x,-1/2-z
_cell_length_a 20.8767(2)
_cell_length_b 20.8767(2)
_cell_length_c 25.0285(7)
_cell_angle_alpha 90
_cell_angle_beta 90
_cell_angle_gamma 90
_cell_formula_units_Z 4
loop_
_atom_type_symbol
_atom_type_radius_bond
C 0.68
H 0.23
Br 1.21
Co 1.26
Dy 1.92
N 0.68
O 0.68
loop_
_atom_site_label
_atom_site_type_symbol
_atom_site_fract_x
_atom_site_fract_y
_atom_site_fract_z
Dy1 Dy 0.75000 0.25000 0.04368(3)
O1 O 0.7924(3) 0.3473(4) 0.0689(4)
O2 O 0.6771(4) 0.3287(4) -0.0070(4)
O3 O 0.6801(4) 0.2275(4) -0.0299(4)
O4 O 0.6761(4) 0.2796(5) 0.1048(4)
C1 C 0.7729(5) 0.4032(5) 0.0789(5)
C2 C 0.6604(6) 0.2828(7) -0.0385(5)
Dy2 Dy 0.61517(2) 0.40265(3) 0.04410(3)
C3 C 0.6491(6) 0.3127(6) 0.1404(6)
C4 C 0.8172(6) 0.4476(7) 0.1061(7)
O5 O 0.7180(4) 0.4233(4) 0.0698(4)
C5 C 0.6177(6) 0.2980(8) -0.0850(5)
O6 O 0.6044(3) 0.5069(4) 0.0727(3)
O7 O 0.6580(4) 0.4738(4) -0.0232(4)
O8 O 0.6190(4) 0.3632(4) 0.1311(3)
O9 O 0.5503(4) 0.3175(4) 0.0337(4)
O10 O 0.5351(3) 0.4464(4) -0.0143(3)
O11 O 0.5003(5) 0.4357(6) 0.0933(4)
C6 C 0.6553(7) 0.2922(6) 0.1976(6)
C7 C 0.8055(6) 0.5126(6) 0.1088(6)
C8 C 0.8678(9) 0.4226(9) 0.1370(12)
C9 C 0.6175(6) 0.3602(8) -0.1066(5)
C10 C 0.5801(7) 0.2503(10) -0.1064(6)
C11 C 0.6009(5) 0.5612(6) 0.0969(5)
Dy3 Dy 0.57005(2) 0.55688(3) -0.01353(2)
C12 C 0.6995(5) 0.5193(7) -0.0238(5)
C13 C 0.6412(8) 0.3338(8) 0.2383(6)
C14 C 0.6727(11) 0.2302(9) 0.2105(10)
H1 H 0.76970 0.53010 0.09040
C15 C 0.8447(8) 0.5523(8) 0.1375(10)
H2 H 0.87710 0.37810 0.13480
C16 C 0.9046(12) 0.4611(12) 0.1707(12)
H3 H 0.64270 0.39340 -0.09140
C17 C 0.5787(8) 0.3716(11) -0.1514(6)
H4 H 0.57990 0.20850 -0.09140
C18 C 0.5418(8) 0.2651(13) -0.1512(7)
C19 C 0.6271(6) 0.5666(6) 0.1524(5)
O12 O 0.5774(4) 0.6086(4) 0.0746(4)
O13 O 0.5551(4) 0.6672(4) -0.0275(4)
O14 O 0.6067(5) 0.5615(6) -0.1023(4)
O15 O 0.6840(4) 0.5755(5) -0.0108(4)
C20 C 0.7648(6) 0.5073(7) -0.0445(5)
H5 H 0.62830 0.37620 0.22970
C21 C 0.6450(11) 0.3160(11) 0.2910(8)
H6 H 0.68350 0.20030 0.18340
C22 C 0.6740(15) 0.2125(11) 0.2647(12)
H7 H 0.83850 0.59730 0.13560
C23 C 0.8941(10) 0.5272(12) 0.1697(14)
H8 H 0.93600 0.44280 0.19360
H9 H 0.57840 0.41310 -0.16680
C24 C 0.5416(8) 0.3253(14) -0.1733(7)
H10 H 0.51560 0.23270 -0.16650
C25 C 0.6628(6) 0.5179(7) 0.1752(5)
C26 C 0.6175(7) 0.6224(7) 0.1811(6)
C27 C 0.5057(5) 0.7014(6) -0.0247(5)
C28 C 0.5499(7) 0.5595(8) -0.1227(6)
C29 C 0.7858(6) 0.4433(8) -0.0513(5)
C30 C 0.8054(7) 0.5566(9) -0.0570(8)
C31 C 0.6611(14) 0.2543(14) 0.3036(11)
H11 H 0.63660 0.34630 0.31840
H12 H 0.68440 0.16960 0.27390
H13 H 0.92000 0.55500 0.19070
H14 H 0.51570 0.33430 -0.20360
H15 H 0.66890 0.47900 0.15610
C32 C 0.6896(7) 0.5248(8) 0.2249(6)
C33 C 0.6440(9) 0.6296(8) 0.2312(7)
H16 H 0.59250 0.65590 0.16610
C34 C 0.5139(7) 0.7722(7) -0.0129(7)
C35 C 0.5446(7) 0.5598(7) -0.1819(6)
H17 H 0.75780 0.40870 -0.04350
C36 C 0.8466(7) 0.4313(9) -0.0692(6)
H18 H 0.79220 0.59970 -0.05160
C37 C 0.8655(9) 0.5440(11) -0.0773(10)
H19 H 0.66310 0.24130 0.34000
H20 H 0.71440 0.49120 0.24010
C38 C 0.6801(8) 0.5808(8) 0.2526(6)
H21 H 0.63730 0.66800 0.25080
C39 C 0.4665(8) 0.8156(8) -0.0284(9)
C40 C 0.5661(10) 0.7932(11) 0.0151(11)
C41 C 0.6011(8) 0.5624(7) -0.2100(6)
C42 C 0.4863(8) 0.5561(7) -0.2072(7)
H22 H 0.86160 0.38850 -0.07250
C43 C 0.8857(8) 0.4823(11) -0.0824(9)
H23 H 0.89270 0.57830 -0.08770
H24 H 0.69870 0.58590 0.28700
H25 H 0.43030 0.80070 -0.04780
C44 C 0.4714(13) 0.8804(10) -0.0158(13)
C45 C 0.5683(15) 0.8597(16) 0.0288(16)
H26 H 0.59960 0.76470 0.02500
H27 H 0.64100 0.56420 -0.19180
C46 C 0.5993(8) 0.5624(7) -0.2657(7)
C47 C 0.4838(8) 0.5545(8) -0.2622(8)
H28 H 0.44790 0.55460 -0.18680
H29 H 0.92770 0.47410 -0.09530
H30 H 0.43950 0.90970 -0.02720
C48 C 0.5207(16) 0.9003(15) 0.0120(19)
H31 H 0.60280 0.87580 0.04960
H32 H 0.63780 0.56510 -0.28570
C49 C 0.5405(9) 0.5584(9) -0.2915(8)
H33 H 0.44380 0.55070 -0.28000
H34 H 0.52350 0.94450 0.02090
H35 H 0.53890 0.55830 -0.32950
Br1 Br 0.75000 0.75000 1.18240(13)
C50 C 0.6954(5) 0.7388(6) 0.8527(5)
C51 C 0.75000 0.75000 0.9956(8)
C52 C 0.75000 0.75000 0.9368(8)
C53 C 0.6946(6) 0.7371(6) 0.9080(5)
H36 H 0.65600 0.72710 0.92630
C54 C 0.6395(6) 0.7301(6) 0.8173(6)
C55 C 0.6056(7) 0.7290(7) 0.7294(6)
H37 H 0.61520 0.73150 0.69230
C56 C 0.5425(7) 0.7212(7) 0.7451(7)
H38 H 0.50930 0.71850 0.71920
C57 C 0.5781(6) 0.7206(8) 0.8353(7)
H39 H 0.56990 0.71620 0.87240
C58 C 0.5283(7) 0.7173(7) 0.7988(7)
H40 H 0.48530 0.71250 0.81060
C59 C 0.75000 0.75000 1.1057(8)
C60 C 0.7111(10) 0.7099(8) 1.0241(7)
H41 H 0.68310 0.68180 1.00540
C61 C 0.7113(11) 0.709(1) 1.0789(8)
H42 H 0.68450 0.68000 1.09790
Co1 Co 0.75000 0.75000 0.75000
N1 N 0.6533(5) 0.7333(5) 0.7647(5)
N2 N 0.75000 0.75000 0.8259(6)
O1B O 0.7076(3) 0.1527(4) 0.0689(4)
O2B O 0.8229(4) 0.1713(4) -0.0070(4)
O3B O 0.8199(4) 0.2725(4) -0.0299(4)
O4B O 0.8239(4) 0.2204(5) 0.1048(4)
C1B C 0.7271(5) 0.0968(5) 0.0789(5)
C2B C 0.8396(6) 0.2172(7) -0.0385(5)
Dy2B Dy 0.88483(2) 0.09735(3) 0.04410(3)
C3B C 0.8509(6) 0.1873(6) 0.1404(6)
C4B C 0.6828(6) 0.0524(7) 0.1061(7)
O5B O 0.7820(4) 0.0767(4) 0.0698(4)
C5B C 0.8823(6) 0.2020(8) -0.0850(5)
O6B O 0.8956(3) -0.0069(4) 0.0727(3)
O7B O 0.8420(4) 0.0262(4) -0.0232(4)
O8B O 0.8810(4) 0.1368(4) 0.1311(3)
O9B O 0.9497(4) 0.1825(4) 0.0337(4)
O10B O 0.9649(3) 0.0536(4) -0.0143(3)
O11B O 0.9997(5) 0.0643(6) 0.0933(4)
C6B C 0.8447(7) 0.2078(6) 0.1976(6)
Dy3D Dy 0.42995(2) 0.44312(3) 0.01353(2)
C7B C 0.6945(6) -0.0126(6) 0.1088(6)
C8B C 0.6322(9) 0.0774(9) 0.1370(12)
C9B C 0.8825(6) 0.1398(8) -0.1066(5)
C10B C 0.9199(7) 0.2497(10) -0.1064(6)
C11B C 0.8991(5) -0.0612(6) 0.0969(5)
Dy3B Dy 0.92995(2) -0.05688(3) -0.01353(2)
C12B C 0.8005(5) -0.0193(7) -0.0238(5)
Dy3F Dy 1.07005(2) 0.05688(3) 0.01353(2)
C13B C 0.8588(8) 0.1662(8) 0.2383(6)
C14B C 0.8273(11) 0.2698(9) 0.2105(10)
O10D O 0.4649(3) 0.5536(4) 0.0143(3)
O11D O 0.4997(5) 0.5643(6) -0.0933(4)
H1B H 0.73030 -0.03010 0.09040
C15B C 0.6553(8) -0.0523(8) 0.1375(10)
H2B H 0.62290 0.12190 0.13480
C16B C 0.5954(12) 0.0389(12) 0.1707(12)
H3B H 0.85730 0.10660 -0.09140
C17B C 0.9213(8) 0.1284(11) -0.1514(6)
H4B H 0.92010 0.29150 -0.09140
C18B C 0.9582(8) 0.2349(13) -0.1512(7)
C19B C 0.8729(6) -0.0666(6) 0.1524(5)
O12B O 0.9226(4) -0.1086(4) 0.0746(4)
O10F O 1.0351(3) -0.0536(4) 0.0143(3)
O13B O 0.9449(4) -0.1672(4) -0.0275(4)
O11F O 1.0003(5) -0.0643(6) -0.0933(4)
O14B O 0.8933(5) -0.0615(6) -0.1023(4)
O15B O 0.8160(4) -0.0755(5) -0.0108(4)
C20B C 0.7352(6) -0.0073(7) -0.0445(5)
H5B H 0.87170 0.12380 0.22970
C21B C 0.8550(11) 0.1840(11) 0.2910(8)
H6B H 0.81650 0.29970 0.18340
C22B C 0.8260(15) 0.2875(11) 0.2647(12)
Dy2D Dy 0.38483(2) 0.59735(3) -0.04410(3)
H7B H 0.66150 -0.09730 0.13560
C23B C 0.6059(10) -0.0272(12) 0.1697(14)
H8B H 0.56400 0.05720 0.19360
H9B H 0.92160 0.08690 -0.16680
C24B C 0.9584(8) 0.1747(14) -0.1733(7)
H10B H 0.98440 0.26730 -0.16650
C25B C 0.8372(6) -0.0179(7) 0.1752(5)
C26B C 0.8825(7) -0.1224(7) 0.1811(6)
Dy2F Dy 1.11517(2) -0.09735(3) -0.04410(3)
C27B C 0.9943(5) -0.2014(6) -0.0247(5)
C28B C 0.9501(7) -0.0595(8) -0.1227(6)
C29B C 0.7142(6) 0.0567(8) -0.0513(5)
C30B C 0.6946(7) -0.0566(9) -0.0570(8)
C31B C 0.8389(14) 0.2457(14) 0.3036(11)
H11B H 0.86340 0.15370 0.31840
H12B H 0.81560 0.33040 0.27390
O9D O 0.4497(4) 0.6825(4) -0.0337(4)
H13B H 0.58000 -0.05500 0.19070
H14B H 0.98430 0.16570 -0.20360
H15B H 0.83110 0.02100 0.15610
C32B C 0.8104(7) -0.0248(8) 0.2249(6)
C33B C 0.8560(9) -0.1296(8) 0.2312(7)
H16B H 0.90750 -0.15590 0.16610
O9F O 1.0503(4) -0.1825(4) -0.0337(4)
C34B C 0.9861(7) -0.2722(7) -0.0129(7)
C35B C 0.9554(7) -0.0598(7) -0.1819(6)
H17B H 0.74220 0.09130 -0.04350
C36B C 0.6534(7) 0.0687(9) -0.0692(6)
H18B H 0.70780 -0.09970 -0.05160
C37B C 0.6345(9) -0.0440(11) -0.0773(10)
H19B H 0.83690 0.25870 0.34000
H20B H 0.78560 0.00880 0.24010
C38B C 0.8199(8) -0.0808(8) 0.2526(6)
H21B H 0.86270 -0.16800 0.25080
C39B C 1.0335(8) -0.3156(8) -0.0284(9)
C40B C 0.9339(10) -0.2932(11) 0.0151(11)
C41B C 0.8989(8) -0.0624(7) -0.2100(6)
C42B C 1.0137(8) -0.0561(7) -0.2072(7)
H22B H 0.63840 0.11150 -0.07250
C43B C 0.6143(8) 0.0177(11) -0.0824(9)
H23B H 0.60730 -0.07830 -0.08770
H24B H 0.80130 -0.08590 0.28700
H25B H 1.06970 -0.30070 -0.04780
C44B C 1.0286(13) -0.3804(10) -0.0158(13)
C45B C 0.9317(15) -0.3597(16) 0.0288(16)
H26B H 0.90040 -0.26470 0.02500
H27B H 0.85900 -0.06420 -0.19180
C46B C 0.9007(8) -0.0624(7) -0.2657(7)
C47B C 1.0162(8) -0.0545(8) -0.2622(8)
H28B H 1.05210 -0.05460 -0.18680
H29B H 0.57230 0.02590 -0.09530
H30B H 1.06050 -0.40970 -0.02720
C48B C 0.9793(16) -0.4003(15) 0.0120(19)
H31B H 0.89720 -0.37580 0.04960
H32B H 0.86220 -0.06510 -0.28570
C49B C 0.9595(9) -0.0584(9) -0.2915(8)
H33B H 1.05620 -0.05070 -0.28000
H34B H 0.97650 -0.44450 0.02090
H35B H 0.96110 -0.05830 -0.32950
C50B C 0.8046(5) 0.7612(6) 0.8527(5)
C53B C 0.8054(6) 0.7629(6) 0.9080(5)
H36B H 0.84400 0.77290 0.92630
C54B C 0.8605(6) 0.7699(6) 0.8173(6)
C55B C 0.8944(7) 0.7710(7) 0.7294(6)
H37B H 0.88480 0.76850 0.69230
C56B C 0.9575(7) 0.7788(7) 0.7451(7)
H38B H 0.99070 0.78150 0.71920
C57B C 0.9219(6) 0.7794(8) 0.8353(7)
H39B H 0.93010 0.78380 0.87240
C58B C 0.9717(7) 0.7827(7) 0.7988(7)
H40B H 1.01470 0.78750 0.81060
C60B C 0.7889(10) 0.7901(8) 1.0241(7)
H41B H 0.81690 0.81820 1.00540
C61B C 0.7887(11) 0.791(1) 1.0789(8)
H42B H 0.81550 0.82000 1.09790
N1B N 0.8467(5) 0.7667(5) 0.7647(5)
Br1E Br 0.75000 0.75000 0.31760(13)
C50E C 0.7388(5) 0.8046(6) 0.6473(5)
C51E C 0.75000 0.75000 0.5044(8)
C52E C 0.75000 0.75000 0.5632(8)
C53E C 0.7371(6) 0.8054(6) 0.5920(5)
H36E H 0.72710 0.84400 0.57370
C54E C 0.7301(6) 0.8605(6) 0.6827(6)
C55E C 0.7290(7) 0.8944(7) 0.7706(6)
H37E H 0.73150 0.88480 0.80770
C56E C 0.7212(7) 0.9575(7) 0.7549(7)
H38E H 0.71850 0.99070 0.78080
C57E C 0.7206(6) 0.9219(8) 0.6647(7)
H39E H 0.71620 0.93010 0.62760
C58E C 0.7173(7) 0.9717(7) 0.7012(7)
H40E H 0.71250 1.01470 0.68940
C59E C 0.75000 0.75000 0.3943(8)
C60E C 0.7099(10) 0.7889(8) 0.4759(7)
H41E H 0.68180 0.81690 0.49460
C61E C 0.7090(11) 0.7887(10) 0.4211(8)
H42E H 0.68000 0.81550 0.40210
N1E N 0.7333(5) 0.8467(5) 0.7353(5)
N2E N 0.75000 0.75000 0.6741(6)
C50G C 0.7612(5) 0.6954(6) 0.6473(5)
C53G C 0.7629(6) 0.6946(6) 0.5920(5)
H36G H 0.77290 0.65600 0.57370
C54G C 0.7699(6) 0.6395(6) 0.6827(6)
C55G C 0.7710(7) 0.6056(7) 0.7706(6)
H37G H 0.76850 0.61520 0.80770
C56G C 0.7788(7) 0.5425(7) 0.7549(7)
H38G H 0.78150 0.50930 0.78080
C57G C 0.7794(6) 0.5781(8) 0.6647(7)
H39G H 0.78380 0.56990 0.62760
C58G C 0.7827(7) 0.5283(7) 0.7012(7)
H40G H 0.78750 0.48530 0.68940
C60G C 0.7901(10) 0.7111(8) 0.4759(7)
H41G H 0.81820 0.68310 0.49460
C61G C 0.7910(11) 0.7113(10) 0.4211(8)
H42G H 0.82000 0.68450 0.40210
N1G N 0.7667(5) 0.6533(5) 0.7353(5)
#END
