
#######################################################################
#
#                 Cambridge Crystallographic Data Centre
#                                CCDC
#
#######################################################################
#
# If this CIF has been generated from an entry in the Cambridge
# Structural Database, then it will include bibliographic, chemical,
# crystal, experimental, refinement or atomic coordinate data resulting
# from the CCDC's data processing and validation procedures.
#
#######################################################################

data_CSD_CIF_KOGMIF
_audit_creation_date 2019-06-06
_audit_creation_method CSD-ConQuest-V1
_database_code_CSD KOGMIF
_database_code_depnum_ccdc_archive 'CCDC 1007381'
_chemical_formula_sum 'C119 H86 Br1 Dy5 N3 O30 Zn0.5'
_chemical_formula_moiety
;
0.5(C42 H28 Br2 N6 Zn1 2+),n(C98 H72 Dy5 O30 1-)
;
_journal_coden_Cambridge 1295
_journal_volume 105
_journal_year 2019
_journal_page_first 93
_journal_name_full 'Inorg.Chem.Commun. '
loop_
_publ_author_name
"Xianqing Xie"
"Lixiao Yang"
"Feng Luo"
_chemical_name_systematic
;
catena-[hemikis(bis(4'-(4-bromophenyl)-2,2':6',2''-terpyridine)-zinc(ii)) 
tetradecakis(\m-benzoato)-bis(\m-hydroxo)-penta-dysprosium(iii)]
;
_cell_volume  11204.183
_exptl_crystal_colour 'colorless'
_exptl_crystal_density_diffrn 1.755
_exptl_crystal_description 'Block'
_diffrn_ambient_temperature 296
#These two values have been output from a single CSD field.
_refine_ls_R_factor_gt 0.0659
_refine_ls_wR_factor_gt 0.0659
_symmetry_cell_setting tetragonal
_symmetry_space_group_name_H-M 'P 42/n'
_symmetry_Int_Tables_number 86
loop_
_symmetry_equiv_pos_site_id
_symmetry_equiv_pos_as_xyz
1 x,y,z
2 -y,1/2+x,1/2+z
3 1/2-x,1/2-y,z
4 1/2+y,-x,1/2+z
5 -x,-y,-z
6 y,-1/2-x,-1/2-z
7 -1/2+x,-1/2+y,-z
8 -1/2-y,x,-1/2-z
_cell_length_a 21.0499(10)
_cell_length_b 21.0499(10)
_cell_length_c 25.286(3)
_cell_angle_alpha 90
_cell_angle_beta 90
_cell_angle_gamma 90
_cell_formula_units_Z 4
loop_
_atom_type_symbol
_atom_type_radius_bond
C 0.68
H 0.23
Br 1.21
Dy 1.92
N 0.68
O 0.68
Zn 1.22
loop_
_atom_site_label
_atom_site_type_symbol
_atom_site_fract_x
_atom_site_fract_y
_atom_site_fract_z
Br1 Br 0.75000 0.75000 1.18317(13)
C1 C 0.7379(8) 0.6939(8) 0.9123(6)
H1 H 0.72840 0.65640 0.93000
C2 C 0.7404(8) 0.6959(8) 0.8587(6)
C3 C 0.7332(8) 0.6380(7) 0.8238(6)
C4 C 0.75000 0.75000 0.9400(9)
C5 C 0.75000 0.75000 0.9998(9)
C6 C 0.7313(9) 0.6006(9) 0.7381(7)
H2 H 0.73340 0.60770 0.70180
C7 C 0.7236(10) 0.5396(10) 0.7570(9)
H3 H 0.72190 0.50570 0.73340
C8 C 0.7223(10) 0.5781(8) 0.8436(8)
H4 H 0.71760 0.57160 0.87980
C9 C 0.7052(10) 0.7163(11) 1.0806(7)
H5 H 0.67410 0.69370 1.09870
C10 C 0.75000 0.75000 1.1079(9)
C11 C 0.7185(10) 0.5287(9) 0.8094(8)
H6 H 0.71240 0.48760 0.82190
C12 C 0.7064(9) 0.7160(11) 1.0266(7)
H7 H 0.67680 0.69190 1.00810
N1 N 0.7357(6) 0.6501(6) 0.7717(5)
N2 N 0.75000 0.75000 0.8317(7)
Zn1 Zn 0.75000 0.75000 0.75000
C13 C 0.5076(8) 0.7632(6) -0.0456(6)
C14 C 0.5194(8) 0.6978(7) -0.0254(6)
C15 C 0.2821(9) 0.6587(7) -0.0408(6)
C16 C 0.2962(9) 0.6193(8) -0.0868(6)
C17 C 0.3034(7) 0.4962(7) 0.0233(5)
C18 C 0.4029(8) 0.7722(7) 0.0756(6)
C19 C 0.5656(8) 0.6279(8) 0.1501(6)
C20 C 0.3588(9) 0.6151(8) -0.1063(6)
H8 H 0.39190 0.63660 -0.08980
C21 C 0.4458(9) 0.8190(8) 0.1023(8)
C22 C 0.2318(8) 0.4852(8) 0.0097(7)
C23 C 0.5181(9) 0.6639(9) 0.1721(6)
H9 H 0.48130 0.67260 0.15300
C24 C 0.5253(11) 0.6872(11) 0.2229(7)
H10 H 0.49310 0.71130 0.23820
C25 C 0.6200(9) 0.6143(9) 0.1792(7)
H11 H 0.65210 0.58910 0.16500
C26 C 0.5569(8) 0.5428(10) -0.1822(7)
C27 C 0.3203(15) 0.5442(12) -0.1741(8)
H12 H 0.32770 0.51930 -0.20380
C28 C 0.5574(9) 0.5459(9) -0.1227(7)
C29 C 0.2906(8) 0.6552(8) 0.1924(7)
C30 C 0.5591(7) 0.6012(8) 0.0955(6)
C31 C 0.4457(10) 0.7850(9) -0.0535(7)
H13 H 0.41180 0.75750 -0.04800
C32 C 0.3117(9) 0.6505(8) 0.1360(6)
C33 C 0.3301(11) 0.643(1) 0.2336(7)
H14 H 0.37210 0.63270 0.22610
C34 C 0.5612(10) 0.598(1) -0.2118(7)
H15 H 0.56380 0.63720 -0.19490
C35 C 0.188(1) 0.5301(11) 0.0216(9)
H16 H 0.20190 0.56710 0.03800
C36 C 0.2609(14) 0.5475(11) -0.1531(9)
H17 H 0.22820 0.52440 -0.16870
C37 C 0.5539(10) 0.4850(11) -0.2066(7)
H18 H 0.55090 0.44800 -0.18660
C38 C 0.248(1) 0.5842(11) -0.1092(7)
H19 H 0.20720 0.58520 -0.09490
C39 C 0.5566(11) 0.8041(10) -0.0558(10)
H20 H 0.59820 0.78990 -0.05200
C40 C 0.3695(12) 0.5774(12) -0.1516(7)
H21 H 0.40990 0.57510 -0.16620
C41 C 0.5598(12) 0.5365(14) -0.2897(8)
H22 H 0.56180 0.53390 -0.32630
C42 C 0.5552(12) 0.4819(12) -0.2605(8)
H23 H 0.55300 0.44280 -0.27740
C43 C 0.5095(10) 0.8078(10) 0.1063(8)
H24 H 0.52710 0.77310 0.08880
C44 C 0.4338(13) 0.8473(11) -0.0694(9)
H25 H 0.39240 0.86150 -0.07440
C45 C 0.5616(12) 0.5947(13) -0.2657(9)
H26 H 0.56310 0.63160 -0.28590
C46 C 0.2138(12) 0.4336(10) -0.019(1)
H27 H 0.24430 0.40370 -0.02850
C47 C 0.4841(15) 0.8869(12) -0.0774(12)
H28 H 0.47630 0.92880 -0.08700
C48 C 0.1546(14) 0.4247(12) -0.0337(14)
H29 H 0.14260 0.38790 -0.05150
C49 C 0.1258(13) 0.5243(15) 0.0112(15)
H30 H 0.09490 0.55190 0.02400
C50 C 0.5486(12) 0.8476(14) 0.1362(11)
H31 H 0.59140 0.83830 0.14060
C51 C 0.3117(18) 0.6447(15) 0.2858(9)
H32 H 0.34000 0.63730 0.31330
C52 C 0.5456(18) 0.8671(13) -0.0719(13)
H33 H 0.57930 0.89460 -0.07850
C53 C 0.4224(14) 0.8721(12) 0.1261(14)
H34 H 0.37950 0.88170 0.12250
C54 C 0.1121(18) 0.4697(17) -0.0225(17)
H35 H 0.07160 0.46620 -0.03700
C55 C 0.5228(18) 0.9001(16) 0.1589(16)
H36 H 0.54890 0.92830 0.17710
C56 C 0.250(2) 0.6579(18) 0.2943(17)
H37 H 0.23460 0.65420 0.32870
C57 C 0.4608(18) 0.9120(16) 0.1553(17)
H38 H 0.44340 0.94690 0.17250
C58 C 0.2286(13) 0.6712(13) 0.2041(11)
H39 H 0.20010 0.67880 0.17680
C59 C 0.208(2) 0.6762(18) 0.2566(17)
H40 H 0.16790 0.69120 0.26500
C60 C 0.5792(13) 0.6751(12) 0.2505(8)
H41 H 0.58410 0.69200 0.28420
C61 C 0.6253(11) 0.6393(11) 0.2299(8)
H42 H 0.66150 0.63090 0.24980
Dy1 Dy 0.40317(3) 0.61646(3) 0.04273(3)
Dy2 Dy 0.55591(3) 0.56949(3) -0.01449(3)
Dy3 Dy 0.25000 0.75000 0.04095(4)
O1 O 0.3356(5) 0.4466(5) 0.0265(4)
O2 O 0.3175(6) 0.5514(5) 0.0315(5)
O3 O 0.2295(6) 0.6814(6) -0.0311(5)
O4 O 0.3293(5) 0.6749(5) -0.0090(4)
O5 O 0.2786(7) 0.6755(6) 0.1010(5)
O6 O 0.3629(6) 0.6213(5) 0.1275(4)
O7 O 0.3476(6) 0.7924(5) 0.0653(5)
O8 O 0.4226(6) 0.7198(5) 0.0659(5)
O9 O 0.5062(5) 0.6066(5) 0.0713(4)
O10 O 0.6046(5) 0.5766(6) 0.0732(4)
O11 O 0.4738(5) 0.6589(5) -0.0253(4)
O12 O 0.5740(6) 0.6821(5) -0.0144(5)
O13 O 0.4467(4) 0.5356(4) -0.0141(4)
O14 O 0.5617(8) 0.5000(7) -0.0936(4)
O15 O 0.5578(8) 0.6023(7) -0.1034(5)
C1B C 0.7621(8) 0.8061(8) 0.9123(6)
H1B H 0.77160 0.84360 0.93000
C2B C 0.7596(8) 0.8041(8) 0.8587(6)
C3B C 0.7668(8) 0.8620(7) 0.8238(6)
C6B C 0.7687(9) 0.8994(9) 0.7381(7)
H2B H 0.76660 0.89230 0.70180
C7B C 0.7764(10) 0.9604(10) 0.7570(9)
H3B H 0.77810 0.99430 0.73340
C8B C 0.7777(10) 0.9219(8) 0.8436(8)
H4B H 0.78240 0.92840 0.87980
C9B C 0.7948(10) 0.7837(11) 1.0806(7)
H5B H 0.82590 0.80630 1.09870
C11B C 0.7815(10) 0.9713(9) 0.8094(8)
H6B H 0.78760 1.01240 0.82190
C12B C 0.7936(9) 0.7840(11) 1.0266(7)
H7B H 0.82320 0.80810 1.00810
N1B N 0.7643(6) 0.8499(6) 0.7717(5)
Br1E Br 0.75000 0.75000 0.31683(13)
C1E C 0.6939(8) 0.7621(8) 0.5877(6)
H1E H 0.65640 0.77160 0.57000
C2E C 0.6959(8) 0.7596(8) 0.6413(6)
C3E C 0.6380(8) 0.7668(7) 0.6762(6)
C4E C 0.75000 0.75000 0.5600(9)
C5E C 0.75000 0.75000 0.5002(9)
C6E C 0.6006(9) 0.7687(9) 0.7619(7)
H2E H 0.60770 0.76660 0.79820
C7E C 0.5396(10) 0.7764(10) 0.7430(9)
H3E H 0.50570 0.77810 0.76660
C8E C 0.5781(10) 0.7777(8) 0.6564(8)
H4E H 0.57160 0.78240 0.62020
C9E C 0.7163(10) 0.7948(11) 0.4194(7)
H5E H 0.69370 0.82590 0.40130
C10E C 0.75000 0.75000 0.3921(9)
C11E C 0.5287(10) 0.7815(9) 0.6906(8)
H6E H 0.48760 0.78760 0.67810
C12E C 0.7160(9) 0.7936(11) 0.4734(7)
H7E H 0.69190 0.82320 0.49190
N1E N 0.6501(6) 0.7643(6) 0.7283(5)
N2E N 0.75000 0.75000 0.6683(7)
C1G C 0.8061(8) 0.7379(8) 0.5877(6)
H1G H 0.84360 0.72840 0.57000
C2G C 0.8041(8) 0.7404(8) 0.6413(6)
C3G C 0.8620(8) 0.7332(7) 0.6762(6)
C6G C 0.8994(9) 0.7313(9) 0.7619(7)
H2G H 0.89230 0.73340 0.79820
C7G C 0.9604(10) 0.7236(10) 0.7430(9)
H3G H 0.99430 0.72190 0.76660
C8G C 0.9219(10) 0.7223(8) 0.6564(8)
H4G H 0.92840 0.71760 0.62020
C9G C 0.7837(10) 0.7052(11) 0.4194(7)
H5G H 0.80630 0.67410 0.40130
C11G C 0.9713(10) 0.7185(9) 0.6906(8)
H6G H 1.01240 0.71240 0.67810
C12G C 0.7840(9) 0.7064(11) 0.4734(7)
H7G H 0.80810 0.67680 0.49190
N1G N 0.8499(6) 0.7357(6) 0.7283(5)
C13B C -0.0076(8) 0.7368(6) -0.0456(6)
C14B C -0.0194(8) 0.8022(7) -0.0254(6)
C15B C 0.2179(9) 0.8413(7) -0.0408(6)
C16B C 0.2038(9) 0.8807(8) -0.0868(6)
C17B C 0.1966(7) 1.0038(7) 0.0233(5)
C18B C 0.0971(8) 0.7278(7) 0.0756(6)
C19B C -0.0656(8) 0.8721(8) 0.1501(6)
C20B C 0.1412(9) 0.8849(8) -0.1063(6)
H8B H 0.10810 0.86340 -0.08980
C21B C 0.0542(9) 0.6810(8) 0.1023(8)
C22B C 0.2682(8) 1.0148(8) 0.0097(7)
C23B C -0.0181(9) 0.8361(9) 0.1721(6)
H9B H 0.01870 0.82740 0.15300
C24B C -0.0253(11) 0.8128(11) 0.2229(7)
H10B H 0.00690 0.78870 0.23820
C25B C -0.1200(9) 0.8857(9) 0.1792(7)
H11B H -0.15210 0.91090 0.16500
C26B C -0.0569(8) 0.9572(10) -0.1822(7)
C27B C 0.1797(15) 0.9558(12) -0.1741(8)
H12B H 0.17230 0.98070 -0.20380
C28B C -0.0574(9) 0.9541(9) -0.1227(7)
C29B C 0.2094(8) 0.8448(8) 0.1924(7)
C30B C -0.0591(7) 0.8988(8) 0.0955(6)
C31B C 0.0543(10) 0.7150(9) -0.0535(7)
H13B H 0.08820 0.74250 -0.04800
C32B C 0.1883(9) 0.8495(8) 0.1360(6)
C33B C 0.1699(11) 0.857(1) 0.2336(7)
H14B H 0.12790 0.86730 0.22610
C34B C -0.0612(10) 0.902(1) -0.2118(7)
H15B H -0.06380 0.86280 -0.19490
C35B C 0.312(1) 0.9699(11) 0.0216(9)
H16B H 0.29810 0.93290 0.03800
C36B C 0.2391(14) 0.9525(11) -0.1531(9)
H17B H 0.27180 0.97560 -0.16870
C37B C -0.0539(10) 1.0150(11) -0.2066(7)
H18B H -0.05090 1.05200 -0.18660
C38B C 0.252(1) 0.9158(11) -0.1092(7)
H19B H 0.29280 0.91480 -0.09490
C39B C -0.0566(11) 0.6959(10) -0.0558(10)
H20B H -0.09820 0.71010 -0.05200
C40B C 0.1305(12) 0.9226(12) -0.1516(7)
H21B H 0.09010 0.92490 -0.16620
C41B C -0.0598(12) 0.9635(14) -0.2897(8)
H22B H -0.06180 0.96610 -0.32630
C42B C -0.0552(12) 1.0181(12) -0.2605(8)
H23B H -0.05300 1.05720 -0.27740
C43B C -0.0095(10) 0.6922(10) 0.1063(8)
H24B H -0.02710 0.72690 0.08880
C44B C 0.0662(13) 0.6527(11) -0.0694(9)
H25B H 0.10760 0.63850 -0.07440
C45B C -0.0616(12) 0.9053(13) -0.2657(9)
H26B H -0.06310 0.86840 -0.28590
C46B C 0.2862(12) 1.0664(10) -0.019(1)
H27B H 0.25570 1.09630 -0.02850
C47B C 0.0159(15) 0.6131(12) -0.0774(12)
H28B H 0.02370 0.57120 -0.08700
C48B C 0.3454(14) 1.0753(12) -0.0337(14)
H29B H 0.35740 1.11210 -0.05150
C49B C 0.3742(13) 0.9757(15) 0.0112(15)
H30B H 0.40510 0.94810 0.02400
C50B C -0.0486(12) 0.6524(14) 0.1362(11)
H31B H -0.09140 0.66170 0.14060
C51B C 0.1883(18) 0.8553(15) 0.2858(9)
H32B H 0.16000 0.86270 0.31330
C52B C -0.0456(18) 0.6329(13) -0.0719(13)
H33B H -0.07930 0.60540 -0.07850
C53B C 0.0776(14) 0.6279(12) 0.1261(14)
H34B H 0.12050 0.61830 0.12250
C54B C 0.3879(18) 1.0303(17) -0.0225(17)
H35B H 0.42840 1.03380 -0.03700
C55B C -0.0228(18) 0.5999(16) 0.1589(16)
H36B H -0.04890 0.57170 0.17710
C56B C 0.250(2) 0.8421(18) 0.2943(17)
H37B H 0.26540 0.84580 0.32870
C57B C 0.0392(18) 0.5880(16) 0.1553(17)
H38B H 0.05660 0.55310 0.17250
C58B C 0.2714(13) 0.8288(13) 0.2041(11)
H39B H 0.29990 0.82120 0.17680
C59B C 0.292(2) 0.8238(18) 0.2566(17)
H40B H 0.33210 0.80880 0.26500
C60B C -0.0792(13) 0.8249(12) 0.2505(8)
H41B H -0.08410 0.80800 0.28420
C61B C -0.1253(11) 0.8607(11) 0.2299(8)
H42B H -0.16150 0.86910 0.24980
Dy1B Dy 0.09683(3) 0.88354(3) 0.04273(3)
Dy2B Dy -0.05591(3) 0.93051(3) -0.01449(3)
O1B O 0.1644(5) 1.0534(5) 0.0265(4)
O2B O 0.1825(6) 0.9486(5) 0.0315(5)
O3B O 0.2705(6) 0.8186(6) -0.0311(5)
O4B O 0.1707(5) 0.8251(5) -0.0090(4)
O5B O 0.2214(7) 0.8245(6) 0.1010(5)
O6B O 0.1371(6) 0.8787(5) 0.1275(4)
O7B O 0.1524(6) 0.7076(5) 0.0653(5)
O8B O 0.0774(6) 0.7802(5) 0.0659(5)
O9B O -0.0062(5) 0.8934(5) 0.0713(4)
O10B O -0.1046(5) 0.9234(6) 0.0732(4)
O11B O 0.0262(5) 0.8411(5) -0.0253(4)
O12B O -0.0740(6) 0.8179(5) -0.0144(5)
O13B O 0.0533(4) 0.9644(4) -0.0141(4)
O14B O -0.0617(8) 1.0000(7) -0.0936(4)
O15B O -0.0578(8) 0.8977(7) -0.1034(5)
Dy1D Dy 0.59683(3) 0.38354(3) -0.04273(3)
Dy1F Dy -0.09683(3) 1.11646(3) -0.04273(3)
Dy2D Dy 0.44409(3) 0.43051(3) 0.01449(3)
Dy2F Dy 0.05591(3) 1.06949(3) 0.01449(3)
O1D O 0.6644(5) 0.5534(5) -0.0265(4)
O1F O -0.1644(5) 0.9466(5) -0.0265(4)
O13D O 0.5533(4) 0.4644(4) 0.0141(4)
O13F O -0.0533(4) 1.0356(4) 0.0141(4)
O14D O 0.4383(8) 0.5000(7) 0.0936(4)
O14F O 0.0617(8) 1.0000(7) 0.0936(4)
#END
