
#######################################################################
#
#                 Cambridge Crystallographic Data Centre
#                                CCDC
#
#######################################################################
#
# If this CIF has been generated from an entry in the Cambridge
# Structural Database, then it will include bibliographic, chemical,
# crystal, experimental, refinement or atomic coordinate data resulting
# from the CCDC's data processing and validation procedures.
#
#######################################################################

data_CSD_CIF_KOGMUQ01
_audit_creation_date 2015-02-20
_audit_creation_method CSD-ConQuest-V1
_database_code_CSD KOGMUQ01
_database_code_depnum_ccdc_archive 'CCDC 1035043'
_chemical_formula_sum 'C38 H27 Cr1 N1 Na1 O12 S24'
_chemical_formula_moiety
;
(C6 Cr1 Na1 O12 3-)n,3n(C10 H8 S8 1+),n(C2 H3 N1)
;
_journal_coden_Cambridge 1350
_journal_volume 17
_journal_year 2015
_journal_page_first 2783
_journal_name_full 'CrystEngComm '
loop_
_publ_author_name
"L.Martin"
"H.Akutsu"
"P.N.Horton"
"M.B.Hursthouse"
_chemical_name_systematic
;
catena-[tris(bis(ethylenedithio)tetrathiafulvane) 
tris(\m-oxalato)-chromium-sodium acetonitrile solvate]
;
_cell_volume   2789.343
_exptl_crystal_colour 'green'
_exptl_crystal_density_diffrn 1.826
_exptl_crystal_description 'plate'
_diffrn_ambient_temperature 120
_diffrn_special_details
;
twin

;
_refine_special_details
;
C11,C12 and C211,C212 disordered over two sites with occupancies 0.70:0.30; 
C201,C202 and C1,C2 disordered over two sites with occupancies 0.52:0.48; 
C219,C220 and C19,C20 disordered over two sites with occupancies 0.51:0.49.
;
#These two values have been output from a single CSD field.
_refine_ls_R_factor_gt 0.099
_refine_ls_wR_factor_gt 0.099
_symmetry_cell_setting monoclinic
_symmetry_space_group_name_H-M 'P 21'
_symmetry_Int_Tables_number 4
loop_
_symmetry_equiv_pos_site_id
_symmetry_equiv_pos_as_xyz
1 x,y,z
2 -x,1/2+y,-z
_cell_length_a 10.4088(4)
_cell_length_b 14.7524(8)
_cell_length_c 18.2275(8)
_cell_angle_alpha 90
_cell_angle_beta 94.741(3)
_cell_angle_gamma 90
_cell_formula_units_Z 2
loop_
_atom_type_symbol
_atom_type_radius_bond
C 0.68
H 0.23
Cr 1.39
N 0.68
Na 1.66
O 0.68
S 1.02
loop_
_atom_site_label
_atom_site_type_symbol
_atom_site_fract_x
_atom_site_fract_y
_atom_site_fract_z
Na1 Na -0.2016(8) 0.6919(7) 0.0073(4)
Cr1 Cr 0.3046(4) 0.5602(3) 0.0042(2)
C1 C 0.090(2) 0.6609(17) -0.0265(14)
C2 C 0.064(2) 0.6010(18) 0.0459(14)
O1 O 0.2002(16) 0.6593(13) -0.0413(10)
O2 O 0.1624(15) 0.5597(15) 0.0729(9)
O3 O -0.0450(17) 0.5978(14) 0.0676(11)
O4 O -0.0039(15) 0.7052(13) -0.0520(9)
C3 C 0.211(2) 0.3938(17) -0.0388(11)
C4 C 0.311(2) 0.3743(18) 0.0267(13)
O5 O 0.2019(15) 0.4717(12) -0.0596(9)
O6 O 0.3724(16) 0.4491(12) 0.0512(8)
O7 O 0.3241(18) 0.3012(13) 0.0572(10)
O8 O 0.1537(16) 0.3277(11) -0.0657(9)
C5 C 0.551(2) 0.5929(17) -0.0266(11)
C6 C 0.539(2) 0.643(2) 0.0471(14)
O9 O 0.4470(13) 0.5652(12) -0.0604(7)
O10 O 0.4207(15) 0.6380(12) 0.0669(8)
O11 O 0.6337(16) 0.6733(14) 0.0823(9)
O12 O 0.6610(15) 0.5902(12) -0.0527(8)
C7? C -0.002(3) 0.772(3) 0.207(3)
H1? H -0.03290 0.83250 0.22180
H2? H 0.00600 0.77490 0.15290
C8? C -0.103(4) 0.703(4) 0.2210(17)
H3? H -0.06830 0.64200 0.21130
H4? H -0.17920 0.71300 0.18600
C9 C 0.012(3) 0.724(3) 0.197(2)
H5 H 0.01530 0.75070 0.14740
H6 H 0.00740 0.65770 0.19190
C10 C -0.108(4) 0.758(3) 0.2297(19)
H7 H -0.18080 0.75010 0.19200
H8 H -0.09710 0.82340 0.23900
C11 C -0.004(2) 0.722(2) 0.3653(14)
C12 C 0.113(2) 0.740(2) 0.3423(15)
C13 C 0.149(2) 0.734(2) 0.4845(14)
C14 C 0.205(2) 0.730(2) 0.5574(13)
C15 C 0.365(2) 0.732(2) 0.6680(13)
C16 C 0.246(2) 0.714(2) 0.6975(14)
C17 C 0.357(2) 0.7512(19) 0.8319(13)
H9 H 0.35590 0.81670 0.82000
H10 H 0.35370 0.74550 0.88580
C18 C 0.481(2) 0.712(2) 0.8112(12)
H11 H 0.47840 0.64510 0.81650
H12 H 0.55250 0.73480 0.84570
S1 S 0.1544(7) 0.7538(6) 0.2519(4)
S2 S -0.1520(6) 0.7059(6) 0.3131(4)
S3 S -0.0153(6) 0.7120(7) 0.4606(4)
S4 S 0.2395(6) 0.7492(6) 0.4101(4)
S5 S 0.3665(7) 0.7449(6) 0.5757(4)
S6 S 0.1147(6) 0.7113(6) 0.6303(4)
S7 S 0.2115(6) 0.7005(6) 0.7875(4)
S8 S 0.5146(6) 0.7395(6) 0.7184(4)
C19 C 0.400(3) 0.550(3) 0.2206(14)
H13 H 0.32150 0.53620 0.18780
H14 H 0.42750 0.61220 0.20980
C20 C 0.505(2) 0.484(3) 0.205(2)
H15 H 0.51340 0.48520 0.15120
H16 H 0.47610 0.42260 0.21740
C21 C 0.624(2) 0.514(2) 0.3418(13)
C22 C 0.509(2) 0.533(2) 0.3662(13)
C23 C 0.661(2) 0.521(2) 0.4817(13)
C24 C 0.718(2) 0.520(2) 0.5533(13)
C25 C 0.760(2) 0.5312(18) 0.6938(12)
C26 C 0.872(2) 0.519(2) 0.6730(13)
C27 C 0.973(4) 0.491(3) 0.8134(15)
H17 H 0.93480 0.42930 0.81550
H18 H 1.04890 0.49340 0.84970
C28 C 0.875(2) 0.560(3) 0.832(2)
H19 H 0.90950 0.62090 0.82160
H20 H 0.86740 0.55720 0.88610
S9 S 0.3602(6) 0.5440(7) 0.3152(4)
S10 S 0.6645(7) 0.5012(8) 0.2510(4)
S11 S 0.7552(7) 0.5020(7) 0.4086(4)
S12 S 0.5005(6) 0.5344(7) 0.4603(4)
S13 S 0.6270(6) 0.5358(7) 0.6282(3)
S14 S 0.8802(6) 0.5052(7) 0.5762(4)
S15 S 1.0225(6) 0.5115(6) 0.7217(4)
S16 S 0.7151(6) 0.5496(6) 0.7854(3)
C29? C 0.397(8) 0.489(6) 0.231(3)
H21? H 0.41690 0.42390 0.23960
H22? H 0.32360 0.49360 0.19300
C30? C 0.513(4) 0.537(6) 0.205(4)
H23? H 0.50320 0.60310 0.21350
H24? H 0.51580 0.52740 0.15170
C31? C 0.975(4) 0.549(4) 0.8105(19)
H25? H 1.04800 0.53910 0.84760
H26? H 0.96000 0.61570 0.80750
C32? C 0.857(3) 0.507(4) 0.839(2)
H27? H 0.85270 0.52170 0.89140
H28? H 0.86150 0.44000 0.83380
C33 C 1.019(2) 0.918(2) 0.7985(15)
H29 H 1.08610 0.87280 0.78830
H30 H 1.05320 0.95480 0.84100
C34 C 0.900(2) 0.868(2) 0.8189(16)
H31 H 0.83110 0.91270 0.82450
H32 H 0.92030 0.83860 0.86740
C35 C 0.847(3) 0.844(2) 0.6696(16)
C36 C 0.896(3) 0.921(2) 0.6596(14)
C37 C 0.779(2) 0.873(2) 0.5357(16)
C38 C 0.720(2) 0.876(2) 0.4671(16)
C39 C 0.652(2) 0.914(2) 0.3269(15)
C40 C 0.587(2) 0.834(2) 0.3460(15)
C41 C 0.466(3) 0.835(2) 0.2044(16)
H33 H 0.42870 0.79660 0.16310
H34 H 0.39930 0.87960 0.21550
C42 C 0.580(3) 0.884(2) 0.1800(16)
H35 H 0.55570 0.91320 0.13180
H36 H 0.64940 0.84000 0.17290
S17 S 0.9886(7) 0.9911(6) 0.7182(4)
S18 S 0.8417(8) 0.7846(6) 0.7554(5)
S19 S 0.7502(8) 0.7891(6) 0.5976(4)
S20 S 0.8820(8) 0.9616(7) 0.5669(4)
S21 S 0.7428(7) 0.9633(6) 0.4017(4)
S22 S 0.6121(8) 0.7904(7) 0.4329(5)
S23 S 0.4985(8) 0.7634(7) 0.2837(5)
S24 S 0.6424(7) 0.9718(6) 0.2459(5)
C43 C 0.217(3) 0.858(3) 0.038(2)
C44 C 0.229(4) 0.899(3) -0.031(2)
H37 H 0.17470 0.86710 -0.06850
H38 H 0.31940 0.89600 -0.04230
H39 H 0.20230 0.96260 -0.02870
N1 N 0.198(3) 0.826(2) 0.0923(16)
Na1* Na 0.7984(8) 0.6919(7) 0.0073(4)
Na1A Na 0.2016(8) 0.1919(7) -0.0073(4)
O7A O -0.3241(18) 0.8012(13) -0.0572(10)
O8A O -0.1537(16) 0.8277(11) 0.0657(9)
O11* O -0.3663(16) 0.6733(14) 0.0823(9)
O12* O -0.3390(15) 0.5902(12) -0.0527(8)
#END
