
#######################################################################
#
#                 Cambridge Crystallographic Data Centre
#                                CCDC
#
#######################################################################
#
# If this CIF has been generated from an entry in the Cambridge
# Structural Database, then it will include bibliographic, chemical,
# crystal, experimental, refinement or atomic coordinate data resulting
# from the CCDC's data processing and validation procedures.
#
#######################################################################

data_CSD_CIF_KOGMEB01
_audit_creation_date 2020-01-08
_audit_creation_method CSD-ConQuest-V1
_database_code_CSD KOGMEB01
_database_code_depnum_ccdc_archive 'CCDC 1007379'
_chemical_formula_sum 'C238 H172 Br2 Co1 N6 O60 Y10'
_chemical_formula_moiety
;
(C98 H72 O30 Y5 1-)2n,C42 H28 Br2 Co1 N6 2+
;
_journal_coden_Cambridge 1295
_journal_volume 105
_journal_year 2019
_journal_page_first 93
_journal_name_full 'Inorg.Chem.Commun. '
loop_
_publ_author_name
"Xianqing Xie"
"Lixiao Yang"
"Feng Luo"
_chemical_name_systematic
;
catena-[bis(4'-(4-bromophenyl)-2,2':6',2''-terpyridine)-cobalt(ii) 
bis(tetradecakis(\m-benzoato)-bis(\m-hydroxo)-penta-yttrium(iii))]
;
_cell_volume  11211.066
_exptl_crystal_colour 'red'
_exptl_crystal_description 'block'
_diffrn_ambient_temperature 296
#These two values have been output from a single CSD field.
_refine_ls_R_factor_gt 0.079
_refine_ls_wR_factor_gt 0.079
_symmetry_cell_setting tetragonal
_symmetry_space_group_name_H-M 'P 42/n'
_symmetry_Int_Tables_number 86
loop_
_symmetry_equiv_pos_site_id
_symmetry_equiv_pos_as_xyz
1 x,y,z
2 1/2-x,1/2-y,z
3 -y,1/2+x,1/2+z
4 1/2+y,-x,1/2+z
5 -x,-y,-z
6 -1/2+x,-1/2+y,-z
7 y,-1/2-x,-1/2-z
8 -1/2-y,x,-1/2-z
_cell_length_a 21.1128(10)
_cell_length_b 21.1128(10)
_cell_length_c 25.151(3)
_cell_angle_alpha 90
_cell_angle_beta 90
_cell_angle_gamma 90
_cell_formula_units_Z 2
loop_
_atom_type_symbol
_atom_type_radius_bond
C 0.68
H 0.23
Br 1.21
Co 1.26
N 0.68
O 0.68
Y 1.90
loop_
_atom_site_label
_atom_site_type_symbol
_atom_site_fract_x
_atom_site_fract_y
_atom_site_fract_z
Br1 Br 0.25000 0.25000 1.18175(8)
C1 C 0.2619(5) 0.3043(4) 0.8546(4)
C2 C 0.2706(5) 0.3599(5) 0.8200(4)
C3 C 0.2811(6) 0.4211(5) 0.8375(5)
H1 H 0.28520 0.42890 0.87370
C4 C 0.2854(6) 0.4694(6) 0.8029(6)
H2 H 0.29150 0.51070 0.81480
C5 C 0.2807(6) 0.4563(6) 0.7490(6)
H3 H 0.28380 0.48870 0.72410
C6 C 0.2716(5) 0.3958(5) 0.7332(5)
H4 H 0.26920 0.38750 0.69690
C7 C 0.2638(5) 0.3052(5) 0.9097(4)
H5 H 0.27410 0.34230 0.92780
C8 C 0.25000 0.25000 0.9375(6)
C9 C 0.25000 0.25000 0.9967(5)
C10 C 0.2041(5) 0.2188(6) 1.0252(4)
H6 H 0.17240 0.19700 1.00710
C11 C 0.2038(6) 0.2192(7) 1.0796(5)
H7 H 0.17180 0.19830 1.09790
C12 C 0.25000 0.25000 1.1072(6)
Co1 Co 0.25000 0.25000 0.75000
N1 N 0.25000 0.25000 0.8280(4)
N2 N 0.2660(4) 0.3473(4) 0.7670(3)
C13 C 0.7712(5) 0.0975(6) 0.5769(4)
C14 C 0.8166(4) 0.0547(4) 0.6030(4)
C15 C 0.8059(4) -0.0102(4) 0.6056(4)
H8 H 0.77150 -0.02790 0.58790
C16 C 0.8468(6) -0.0487(4) 0.6345(5)
H9 H 0.83960 -0.09210 0.63620
C17 C 0.8983(6) -0.0223(7) 0.6608(6)
H10 H 0.92560 -0.04810 0.68010
C18 C 0.9089(6) 0.0426(7) 0.6583(7)
H11 H 0.94340 0.06020 0.67590
C19 C 0.8681(5) 0.0811(4) 0.6294(6)
H12 H 0.87520 0.12450 0.62770
C20 C 0.8491(6) 0.3114(6) 0.6386(5)
C21 C 0.8456(4) 0.2908(4) 0.6957(3)
C22 C 0.8289(6) 0.2290(4) 0.7087(5)
H13 H 0.81860 0.20030 0.68210
C23 C 0.8277(7) 0.2101(5) 0.7617(6)
H14 H 0.81660 0.16880 0.77040
C24 C 0.8432(7) 0.2529(7) 0.8016(4)
H15 H 0.84240 0.24030 0.83700
C25 C 0.8599(6) 0.3147(6) 0.7885(3)
H16 H 0.87020 0.34340 0.81520
C26 C 0.8610(5) 0.3336(4) 0.7356(4)
H17 H 0.87220 0.37500 0.72690
C27 C 1.0053(5) 0.3032(5) 0.5263(4)
C28 C 1.0150(4) 0.2370(3) 0.5130(4)
C29 C 0.9699(4) 0.1927(5) 0.5284(4)
H18 H 0.93510 0.20530 0.54840
C30 C 0.9769(6) 0.1295(4) 0.5139(5)
H19 H 0.94680 0.09990 0.52420
C31 C 1.0290(7) 0.1107(4) 0.4840(5)
H20 H 1.03370 0.06850 0.47430
C32 C 1.0741(5) 0.1550(6) 0.4686(5)
H21 H 1.10890 0.14240 0.44860
C33 C 1.0671(4) 0.2182(5) 0.4831(4)
H22 H 1.09720 0.24780 0.47270
C34 C 0.8400(5) 0.2842(5) 0.4627(4)
C35 C 0.8816(3) 0.2965(4) 0.4161(2)
C36 C 0.8863(4) 0.3566(3) 0.3939(3)
H23 H 0.86450 0.39040 0.40920
C37 C 0.9234(4) 0.3663(4) 0.3491(3)
H24 H 0.92660 0.40660 0.33430
C38 C 0.9559(4) 0.3159(6) 0.3263(3)
H25 H 0.98080 0.32240 0.29630
C39 C 0.9512(4) 0.2557(5) 0.3484(4)
H26 H 0.97300 0.22200 0.33320
C40 C 0.9140(4) 0.2460(3) 0.3933(3)
H27 H 0.91090 0.20580 0.40810
C41 C 0.8996(5) 0.5602(5) 0.5955(4)
C42 C 0.8732(3) 0.5661(3) 0.6497(2)
C43 C 0.8367(4) 0.5182(3) 0.6721(3)
H28 H 0.82820 0.48160 0.65280
C44 C 0.8128(4) 0.5251(4) 0.7233(3)
H29 H 0.78840 0.49310 0.73820
C45 C 0.8254(4) 0.5799(5) 0.7520(2)
H30 H 0.80940 0.58450 0.78630
C46 C 0.8619(4) 0.6278(4) 0.7297(3)
H31 H 0.87030 0.66440 0.74890
C47 C 0.8858(4) 0.6209(3) 0.6785(3)
H32 H 0.91020 0.65290 0.66350
C48 C 0.8034(5) 0.5182(6) 0.4720(4)
C49 C 0.7373(3) 0.5067(4) 0.4533(3)
C50 C 0.6965(4) 0.5569(3) 0.4432(4)
H33 H 0.71070 0.59840 0.44680
C51 C 0.6344(4) 0.5451(5) 0.4276(4)
H34 H 0.60710 0.57870 0.42090
C52 C 0.6132(3) 0.4831(6) 0.4223(4)
H35 H 0.57160 0.47520 0.41190
C53 C 0.6540(4) 0.4329(4) 0.4324(4)
H36 H 0.63980 0.39140 0.42880
C54 C 0.7161(4) 0.4447(3) 0.4479(3)
H37 H 0.74340 0.41110 0.45470
C55 C 0.9547(8) 0.5544(7) 0.3762(5)
C56 C 0.9558(5) 0.5540(4) 0.3165(2)
C57 C 0.8995(4) 0.5560(4) 0.2879(4)
H38 H 0.86090 0.55700 0.30570
C58 C 0.9009(5) 0.5565(5) 0.2326(4)
H39 H 0.86320 0.55790 0.21350
C59 C 0.9585(6) 0.5550(5) 0.2060(2)
H40 H 0.95940 0.55540 0.16900
C60 C 1.0148(5) 0.5530(5) 0.2346(4)
H41 H 1.05340 0.55200 0.21670
C61 C 1.0135(4) 0.5525(4) 0.2898(4)
H42 H 1.05110 0.55110 0.30890
Y1 Y 0.75000 0.25000 0.54390(5)
Y2 Y 0.88418(5) 0.40385(5) 0.54453(4)
Y3 Y 0.93082(4) 0.55482(5) 0.48525(4)
O1 O 1.0543(3) 0.3377(3) 0.5290(3)
O2 O 0.9504(3) 0.3210(4) 0.5350(3)
O3 O 0.8189(4) 0.2302(4) 0.4717(3)
O4 O 0.8262(3) 0.3302(3) 0.4936(3)
O5 O 0.7893(4) 0.1530(4) 0.5666(3)
O6 O 0.7175(3) 0.0763(4) 0.5680(3)
O7 O 0.8237(4) 0.2767(5) 0.6042(3)
O8 O 0.8775(4) 0.3617(4) 0.6280(3)
O9 O 0.8927(3) 0.5071(3) 0.5711(3)
O10 O 0.9236(3) 0.6053(3) 0.5722(3)
O11 O 0.8422(3) 0.4730(3) 0.4749(3)
O12 O 0.8196(3) 0.5736(4) 0.4836(3)
O13 O 1.0001(6) 0.5578(6) 0.4036(4)
O14 O 0.9003(6) 0.5556(6) 0.3964(4)
O15 O 0.9642(3) 0.4472(3) 0.4876(2)
C1A C 0.2381(5) 0.1957(4) 0.8546(4)
C2A C 0.2294(5) 0.1401(5) 0.8200(4)
C3A C 0.2189(6) 0.0789(5) 0.8375(5)
H1A H 0.21480 0.07110 0.87370
C4A C 0.2146(6) 0.0306(6) 0.8029(6)
H2A H 0.20850 -0.01070 0.81480
C5A C 0.2193(6) 0.0437(6) 0.7490(6)
H3A H 0.21620 0.01130 0.72410
C6A C 0.2284(5) 0.1042(5) 0.7332(5)
H4A H 0.23080 0.11250 0.69690
C7A C 0.2362(5) 0.1948(5) 0.9097(4)
H5A H 0.22590 0.15770 0.92780
C10A C 0.2959(5) 0.2812(6) 1.0252(4)
H6A H 0.32760 0.30300 1.00710
C11A C 0.2962(6) 0.2808(7) 1.0796(5)
H7A H 0.32820 0.30170 1.09790
N2A N 0.2340(4) 0.1527(4) 0.7670(3)
Br1F Br 0.25000 0.25000 0.31825(8)
C1F C 0.3043(5) 0.2381(4) 0.6454(4)
C2F C 0.3599(5) 0.2294(5) 0.6800(4)
C3F C 0.4211(6) 0.2189(5) 0.6625(5)
H1F H 0.42890 0.21480 0.62630
C4F C 0.4694(6) 0.2146(6) 0.6971(6)
H2F H 0.51070 0.20850 0.68520
C5F C 0.4563(6) 0.2193(6) 0.7510(6)
H3F H 0.48870 0.21620 0.77590
C6F C 0.3958(5) 0.2284(5) 0.7668(5)
H4F H 0.38750 0.23080 0.80310
C7F C 0.3052(5) 0.2362(5) 0.5903(4)
H5F H 0.34230 0.22590 0.57220
C8F C 0.25000 0.25000 0.5625(6)
C9F C 0.25000 0.25000 0.5033(5)
C10F C 0.2188(5) 0.2959(6) 0.4748(4)
H6F H 0.19700 0.32760 0.49290
C11F C 0.2192(6) 0.2962(7) 0.4204(5)
H7F H 0.19830 0.32820 0.40210
C12F C 0.25000 0.25000 0.3928(6)
N1F N 0.25000 0.25000 0.6720(4)
N2F N 0.3473(4) 0.2340(4) 0.7330(3)
C1G C 0.1957(5) 0.2619(4) 0.6454(4)
C2G C 0.1401(5) 0.2706(5) 0.6800(4)
C3G C 0.0789(6) 0.2811(5) 0.6625(5)
H1G H 0.07110 0.28520 0.62630
C4G C 0.0306(6) 0.2854(6) 0.6971(6)
H2G H -0.01070 0.29150 0.68520
C5G C 0.0437(6) 0.2807(6) 0.7510(6)
H3G H 0.01130 0.28380 0.77590
C6G C 0.1042(5) 0.2716(5) 0.7668(5)
H4G H 0.11250 0.26920 0.80310
C7G C 0.1948(5) 0.2638(5) 0.5903(4)
H5G H 0.15770 0.27410 0.57220
C10G C 0.2812(5) 0.2041(6) 0.4748(4)
H6G H 0.30300 0.17240 0.49290
C11G C 0.2808(6) 0.2038(7) 0.4204(5)
H7G H 0.30170 0.17180 0.40210
N2G N 0.1527(4) 0.2660(4) 0.7330(3)
C13A C 0.7288(5) 0.4025(6) 0.5769(4)
C14A C 0.6834(4) 0.4453(4) 0.6030(4)
C15A C 0.6941(4) 0.5102(4) 0.6056(4)
H8A H 0.72850 0.52790 0.58790
C16A C 0.6532(6) 0.5487(4) 0.6345(5)
H9A H 0.66040 0.59210 0.63620
C17A C 0.6017(6) 0.5223(7) 0.6608(6)
H10A H 0.57440 0.54810 0.68010
C18A C 0.5911(6) 0.4574(7) 0.6583(7)
H11A H 0.55660 0.43980 0.67590
C19A C 0.6319(5) 0.4189(4) 0.6294(6)
H12A H 0.62480 0.37550 0.62770
C20A C 0.6509(6) 0.1886(6) 0.6386(5)
C21A C 0.6544(4) 0.2092(4) 0.6957(3)
C22A C 0.6711(6) 0.2710(4) 0.7087(5)
H13A H 0.68140 0.29970 0.68210
C23A C 0.6723(7) 0.2899(5) 0.7617(6)
H14A H 0.68340 0.33120 0.77040
C24A C 0.6568(7) 0.2471(7) 0.8016(4)
H15A H 0.65760 0.25970 0.83700
C25A C 0.6401(6) 0.1853(6) 0.7885(3)
H16A H 0.62980 0.15660 0.81520
C26A C 0.6390(5) 0.1664(4) 0.7356(4)
H17A H 0.62780 0.12500 0.72690
C27A C 0.4947(5) 0.1968(5) 0.5263(4)
C28A C 0.4850(4) 0.2630(3) 0.5130(4)
C29A C 0.5301(4) 0.3073(5) 0.5284(4)
H18A H 0.56490 0.29470 0.54840
C30A C 0.5231(6) 0.3705(4) 0.5139(5)
H19A H 0.55320 0.40010 0.52420
C31A C 0.4710(7) 0.3893(4) 0.4840(5)
H20A H 0.46630 0.43150 0.47430
C32A C 0.4259(5) 0.3450(6) 0.4686(5)
H21A H 0.39110 0.35760 0.44860
C33A C 0.4329(4) 0.2818(5) 0.4831(4)
H22A H 0.40280 0.25220 0.47270
C34A C 0.6600(5) 0.2158(5) 0.4627(4)
C35A C 0.6184(3) 0.2035(4) 0.4161(2)
C36A C 0.6137(4) 0.1434(3) 0.3939(3)
H23A H 0.63550 0.10960 0.40920
C37A C 0.5766(4) 0.1337(4) 0.3491(3)
H24A H 0.57340 0.09340 0.33430
C38A C 0.5441(4) 0.1841(6) 0.3263(3)
H25A H 0.51920 0.17760 0.29630
C39A C 0.5488(4) 0.2443(5) 0.3484(4)
H26A H 0.52700 0.27800 0.33320
C40A C 0.5860(4) 0.2540(3) 0.3933(3)
H27A H 0.58910 0.29420 0.40810
C41A C 0.6004(5) -0.0602(5) 0.5955(4)
C42A C 0.6268(3) -0.0661(3) 0.6497(2)
C43A C 0.6633(4) -0.0182(3) 0.6721(3)
H28A H 0.67180 0.01840 0.65280
C44A C 0.6872(4) -0.0251(4) 0.7233(3)
H29A H 0.71160 0.00690 0.73820
C45A C 0.6746(4) -0.0799(5) 0.7520(2)
H30A H 0.69060 -0.08450 0.78630
C46A C 0.6381(4) -0.1278(4) 0.7297(3)
H31A H 0.62970 -0.16440 0.74890
C47A C 0.6142(4) -0.1209(3) 0.6785(3)
H32A H 0.58980 -0.15290 0.66350
C48A C 0.6966(5) -0.0182(6) 0.4720(4)
C49A C 0.7627(3) -0.0067(4) 0.4533(3)
C50A C 0.8035(4) -0.0569(3) 0.4432(4)
H33A H 0.78930 -0.09840 0.44680
C51A C 0.8656(4) -0.0451(5) 0.4276(4)
H34A H 0.89290 -0.07870 0.42090
C52A C 0.8868(3) 0.0169(6) 0.4223(4)
H35A H 0.92840 0.02480 0.41190
C53A C 0.8460(4) 0.0671(4) 0.4324(4)
H36A H 0.86020 0.10860 0.42880
C54A C 0.7839(4) 0.0553(3) 0.4479(3)
H37A H 0.75660 0.08890 0.45470
C55A C 0.5453(8) -0.0544(7) 0.3762(5)
C56A C 0.5442(5) -0.0540(4) 0.3165(2)
C57A C 0.6005(4) -0.0560(4) 0.2879(4)
H38A H 0.63910 -0.05700 0.30570
C58A C 0.5991(5) -0.0565(5) 0.2326(4)
H39A H 0.63680 -0.05790 0.21350
C59A C 0.5415(6) -0.0550(5) 0.2060(2)
H40A H 0.54060 -0.05540 0.16900
C60A C 0.4852(5) -0.0530(5) 0.2346(4)
H41A H 0.44660 -0.05200 0.21670
C61A C 0.4865(4) -0.0525(4) 0.2898(4)
H42A H 0.44890 -0.05110 0.30890
Y2A Y 0.61582(5) 0.09615(5) 0.54453(4)
Y3A Y 0.56918(4) -0.05482(5) 0.48525(4)
O1A O 0.4457(3) 0.1623(3) 0.5290(3)
O2A O 0.5496(3) 0.1790(4) 0.5350(3)
O3A O 0.6811(4) 0.2698(4) 0.4717(3)
O4A O 0.6738(3) 0.1698(3) 0.4936(3)
O5A O 0.7107(4) 0.3470(4) 0.5666(3)
O6A O 0.7825(3) 0.4237(4) 0.5680(3)
O7A O 0.6763(4) 0.2233(5) 0.6042(3)
O8A O 0.6225(4) 0.1383(4) 0.6280(3)
O9A O 0.6073(3) -0.0071(3) 0.5711(3)
O10A O 0.5764(3) -0.1053(3) 0.5722(3)
O11A O 0.6578(3) 0.0270(3) 0.4749(3)
O12A O 0.6804(3) -0.0736(4) 0.4836(3)
O13A O 0.4999(6) -0.0578(6) 0.4036(4)
O14A O 0.5997(6) -0.0556(6) 0.3964(4)
O15A O 0.5358(3) 0.0528(3) 0.4876(2)
Y2D Y 1.11582(5) 0.59615(5) 0.45547(4)
Y2E Y 0.38418(5) -0.09615(5) 0.45547(4)
Y3D Y 1.06918(4) 0.44518(5) 0.51475(4)
Y3E Y 0.43082(4) 0.05482(5) 0.51475(4)
O1D O 0.9457(3) 0.6623(3) 0.4710(3)
O1E O 0.5543(3) -0.1623(3) 0.4710(3)
O13D O 0.9999(6) 0.4422(6) 0.5964(4)
O13E O 0.5001(6) 0.0578(6) 0.5964(4)
O15D O 1.0358(3) 0.5528(3) 0.5124(2)
O15E O 0.4642(3) -0.0528(3) 0.5124(2)
#END
