
#######################################################################
#
#                 Cambridge Crystallographic Data Centre
#                                CCDC
#
#######################################################################
#
# If this CIF has been generated from an entry in the Cambridge
# Structural Database, then it will include bibliographic, chemical,
# crystal, experimental, refinement or atomic coordinate data resulting
# from the CCDC's data processing and validation procedures.
#
#######################################################################

data_CSD_CIF_KOHWEK
_audit_creation_date 2009-02-26
_audit_creation_method CSD-ConQuest-V1
_database_code_CSD KOHWEK
_database_code_depnum_ccdc_archive 'CCDC 684632'
_chemical_formula_sum 'C40 H40 Ag3 N6 O14.5 S3'
_chemical_formula_moiety
;
(C30 H21 Ag2 N4 O9 S3 1-)n,n(C10 H12 Ag1 N2 O2 1+),3.5n(H2 O1)
;
_journal_coden_Cambridge 222
_journal_year 2008
_journal_page_first 5331
_journal_name_full 'Dalton Trans. '
loop_
_publ_author_name
"Hua Wu"
"Xian-Wu Dong"
"Hai-Yan Liu"
"Jian-Fang Ma"
"Shun-Li Li"
"Jin Yang"
"Ying-Ying Liu"
"Zhong-Min Su"
_chemical_name_systematic
;
catena-((\m~2~-4,4'-Bipyridyl)-diaqua-silver(i) 
(\m~3~-naphthalene-1,3,5-trisulfonato)-bis(\m~2~-4,4'-bipyridyl)-di-silver(i) 
hydrate)
;
_cell_volume   4405.242
_exptl_crystal_colour 'colorless'
_exptl_crystal_density_diffrn 1.895
_exptl_special_details
;
photoluminescent
Silver bonding to naphthalene-1,3,5-trisulfonate ions is not reflected in the 
bonds given in the cif, but is described in the paper. Bonding of one Ag atom 
to two water molecules is not described in the paper, but is given in the 
molecular formula prefacing the text description of the structure
;
_exptl_crystal_description 'block'
_diffrn_ambient_temperature 293
#These two values have been output from a single CSD field.
_refine_ls_R_factor_gt 0.0306
_refine_ls_wR_factor_gt 0.0306
_symmetry_cell_setting monoclinic
_symmetry_space_group_name_H-M 'C c'
_symmetry_Int_Tables_number 9
loop_
_symmetry_equiv_pos_site_id
_symmetry_equiv_pos_as_xyz
1 x,y,z
2 x,-y,1/2+z
3 1/2+x,1/2+y,z
4 1/2+x,1/2-y,1/2+z
_cell_length_a 11.809(2)
_cell_length_b 18.114(4)
_cell_length_c 20.703(4)
_cell_angle_alpha 90
_cell_angle_beta 95.88(3)
_cell_angle_gamma 90
_cell_formula_units_Z 4
loop_
_atom_type_symbol
_atom_type_radius_bond
C 0.68
H 0.23
Ag 1.52
N 0.68
O 0.94
S 0.89
loop_
_atom_site_label
_atom_site_type_symbol
_atom_site_fract_x
_atom_site_fract_y
_atom_site_fract_z
Ag1 Ag 1.11236(3) 0.747566(19) 0.347481(16)
Ag2 Ag 1.02495(3) 0.76497(2) 0.594301(18)
Ag3 Ag 0.74831(3) 0.25424(2) 0.132100(17)
C1 C 0.7262(3) 0.48407(19) 0.39191(17)
C2 C 0.7935(3) 0.48603(19) 0.33872(16)
C3 C 0.7455(3) 0.47704(18) 0.27354(16)
H1 H 0.66770 0.46870 0.26470
C4 C 0.8131(4) 0.48050(17) 0.22353(17)
C5 C 0.9313(4) 0.4936(2) 0.23563(19)
H2 H 0.97590 0.49690 0.20130
C6 C 0.9798(3) 0.50124(19) 0.29822(18)
C7 C 0.9128(3) 0.49749(17) 0.35158(16)
C8 C 0.9607(3) 0.5027(2) 0.41770(18)
H3 H 1.03890 0.50880 0.42670
C9 C 0.8954(4) 0.4991(2) 0.46730(17)
H4 H 0.92850 0.50180 0.51000
C10 C 0.7772(4) 0.4914(2) 0.45424(18)
H5 H 0.73220 0.49110 0.48860
C11 C 1.3300(5) 0.7433(2) 0.5650(2)
C12 C 1.2785(5) 0.8061(2) 0.5384(2)
H6 H 1.28710 0.85060 0.56090
C13 C 1.2146(5) 0.8039(2) 0.4788(2)
H7 H 1.18150 0.84740 0.46220
C14 C 1.2419(4) 0.6804(2) 0.4704(2)
H8 H 1.22790 0.63640 0.44790
C15 C 1.3076(4) 0.6786(2) 0.5301(2)
H9 H 1.33660 0.63390 0.54660
C16 C 1.4024(5) 0.7440(2) 0.6280(3)
C17 C 1.4208(5) 0.8092(2) 0.6625(2)
H10 H 1.38950 0.85320 0.64570
C18 C 1.4511(4) 0.6815(2) 0.6570(2)
H11 H 1.44090 0.63630 0.63590
C19 C 1.4852(5) 0.8086(3) 0.7216(2)
H12 H 1.49760 0.85340 0.74320
C20 C 1.5137(4) 0.6849(2) 0.7160(2)
H13 H 1.54580 0.64150 0.73350
C21 C 0.6338(4) 0.6771(2) 0.2276(2)
H14 H 0.59720 0.63350 0.21400
C22 C 0.6946(4) 0.6788(2) 0.28814(19)
H15 H 0.69760 0.63730 0.31470
C23 C 0.7514(5) 0.7431(2) 0.3092(2)
C24 C 0.7428(4) 0.8040(2) 0.26807(19)
H16 H 0.77860 0.84820 0.28050
C25 C 0.6800(4) 0.7973(2) 0.20843(19)
H17 H 0.67540 0.83790 0.18090
C26 C 0.8767(4) 0.8164(2) 0.4702(2)
H18 H 0.87820 0.86080 0.49270
C27 C 0.8215(4) 0.8139(2) 0.4096(2)
H19 H 0.78840 0.85660 0.39130
C28 C 0.8134(4) 0.7482(2) 0.3743(2)
C29 C 0.8694(4) 0.6870(2) 0.4049(2)
H20 H 0.86890 0.64190 0.38350
C30 C 0.9254(4) 0.6939(2) 0.4667(2)
H21 H 0.96140 0.65270 0.48620
C31 C 0.3280(3) 0.3114(2) -0.23250(18)
H22 H 0.28170 0.35070 -0.24730
C32 C 0.3844(3) 0.3148(2) -0.17077(18)
H23 H 0.37650 0.35640 -0.14520
C33 C 0.4529(5) 0.2566(2) -0.1464(2)
C34 C 0.4617(4) 0.1961(2) -0.18787(17)
H24 H 0.50640 0.15570 -0.17400
C35 C 0.4034(4) 0.1967(2) -0.24964(18)
H25 H 0.41060 0.15620 -0.27650
C36 C 0.6222(4) 0.3191(3) 0.0077(2)
H26 H 0.65080 0.36290 0.02630
C37 C 0.5587(4) 0.3223(2) -0.0526(2)
H27 H 0.54480 0.36730 -0.07350
C38 C 0.5163(5) 0.2574(2) -0.0813(3)
C39 C 0.5369(4) 0.1919(2) -0.0465(2)
H28 H 0.50850 0.14730 -0.06360
C40 C 0.5995(4) 0.1936(3) 0.0135(2)
H29 H 0.61140 0.14960 0.03640
N1 N 0.6442(5) 0.2558(2) 0.0404(2)
N2 N 0.3376(4) 0.25289(19) -0.2722(3)
N3 N 0.9295(5) 0.75755(19) 0.4993(2)
N4 N 0.6252(4) 0.7352(2) 0.1879(2)
N5 N 1.1982(5) 0.7424(2) 0.4441(3)
N6 N 1.5314(4) 0.74798(18) 0.7501(2)
O1 O 0.6366(3) 0.4587(2) 0.14125(14)
O2 O 0.8121(3) 0.40123(16) 0.12054(14)
O3 O 0.7908(4) 0.53212(17) 0.10787(14)
O4 O 1.1658(3) 0.5244(2) 0.24552(16)
O5 O 1.1786(3) 0.46028(16) 0.34943(17)
O6 O 1.1384(3) 0.59121(15) 0.34316(15)
O7 O 0.5364(3) 0.4777(2) 0.44383(14)
O8 O 0.5327(2) 0.52895(16) 0.33592(14)
O9 O 0.5597(3) 0.39750(17) 0.35176(15)
O10 O 0.8299(7) 0.9004(4) 0.6309(3)
O11 O 0.3101(4) 0.5077(3) 0.4616(2)
O12 O 1.0480(3) 0.60947(18) 0.59395(18)
O13 O 1.0452(5) 0.9166(3) 0.5669(3)
O14 O 0.3873(4) 0.4940(4) 0.2213(2)
S1 S 1.12863(8) 0.52085(5) 0.31019(5)
S2 S 0.75790(9) 0.46700(5) 0.14165(4)
S3 S 0.57638(8) 0.47077(5) 0.37927(4)
O15 O 1.1712(5) 0.5109(4) 0.0608(3)
H30 H 0.277(8) 0.482(5) 0.424(4)
H31 H 0.369(6) 0.482(5) 0.469(5)
H32 H 1.080(7) 0.576(5) 0.572(5)
H33 H 0.970(5) 0.594(6) 0.575(5)
H34 H 1.202(8) 0.499(6) 0.022(3)
H35 H 1.238(6) 0.525(6) 0.084(4)
H36 H 0.314(4) 0.495(6) 0.226(5)
H37 H 0.415(8) 0.515(6) 0.258(3)
Ag1C Ag 1.61236(3) 0.752434(19) 0.847481(16)
Ag1B Ag 0.61236(3) 0.247566(19) 0.347481(16)
Ag2C Ag 0.52495(3) 0.73503(2) 0.094301(18)
Ag3C Ag 0.24831(3) 0.24576(2) -0.367900(17)
N2C N 0.8376(4) 0.24711(19) 0.2278(3)
N4C N 1.1252(4) 0.7648(2) 0.6879(2)
N6C N 1.0314(4) 0.75202(18) 0.2501(2)
O9B O 1.0597(3) 0.89750(17) 0.35176(15)
#END
