
#######################################################################
#
#                 Cambridge Crystallographic Data Centre
#                                CCDC
#
#######################################################################
#
# If this CIF has been generated from an entry in the Cambridge
# Structural Database, then it will include bibliographic, chemical,
# crystal, experimental, refinement or atomic coordinate data resulting
# from the CCDC's data processing and validation procedures.
#
#######################################################################

data_CSD_CIF_KOJTUY
_audit_creation_date 2000-07-14
_audit_creation_method CSD-ConQuest-V1
_database_code_CSD KOJTUY
_database_code_depnum_ccdc_archive 'CCDC 137066'
_chemical_formula_sum 'C24 H36 Ag1 N5 O2 Pd1 S4'
_chemical_formula_moiety
;
(C8 Ag1 N4 O2 Pd1 S4 1-)n,n(C16 H36 N1 1+)
;
_journal_coden_Cambridge 7
_journal_volume 73
_journal_year 2000
_journal_page_first 391
_journal_name_full 'Bull.Chem.Soc.Jpn. '
loop_
_publ_author_name
"K.Sugimoto"
"T.Kuroda-Sowa"
"M.Maekawa"
"M.Munakata"
_chemical_name_systematic
;
catena-((Tetra-n-butylammonium) 
(\m~3~-1,2-dicyanoethene-1,2-dithiolato)-(\m~2~-1,2-dicyano-2-sulfonyletheneth
iolato)-palladium-silver(i))
;
_cell_volume   3205.759
_exptl_crystal_colour 'red'
_exptl_crystal_density_diffrn 1.593
_exptl_crystal_description 'prismatic'
_diffrn_ambient_temperature ?
_diffrn_special_details
;
The study was carried out at room temperature,in the range 283-303K

;
#These two values have been output from a single CSD field.
_refine_ls_R_factor_gt 0.0616
_refine_ls_wR_factor_gt 0.0616
_symmetry_cell_setting monoclinic
_symmetry_space_group_name_H-M 'P 21/c'
_symmetry_Int_Tables_number 14
loop_
_symmetry_equiv_pos_site_id
_symmetry_equiv_pos_as_xyz
1 x,y,z
2 x,1/2-y,1/2+z
3 -x,-y,-z
4 -x,-1/2+y,-1/2-z
_cell_length_a 9.649(2)
_cell_length_b 13.235(2)
_cell_length_c 25.107(2)
_cell_angle_alpha 90
_cell_angle_beta 91.03(1)
_cell_angle_gamma 90
_cell_formula_units_Z 4
loop_
_atom_type_symbol
_atom_type_radius_bond
C 0.68
H 0.23
Ag 1.36
N 0.82
O 0.68
Pd 1.25
S 1.15
loop_
_atom_site_label
_atom_site_type_symbol
_atom_site_fract_x
_atom_site_fract_y
_atom_site_fract_z
Ag1 Ag 0.14863(8) 0.02314(6) -1.05364(3)
Pd1 Pd 0.11000(8) 0.13279(5) -0.94968(3)
S1 S 0.1177(2) 0.0634(2) -0.86760(9)
S2 S 0.3402(3) 0.0919(2) -0.95982(9)
S3 S -0.1242(3) 0.1644(2) -0.94371(10)
S4 S 0.1086(3) 0.2064(2) -1.03362(9)
O1 O 0.0234(6) -0.0220(5) -0.8625(3)
O2 O 0.1118(7) 0.1348(5) -0.8237(2)
N1 N 0.353(1) -0.076(1) -0.7732(4)
N2 N 0.6280(9) -0.0384(7) -0.8989(3)
N3 N -0.424(1) 0.2387(10) -1.0296(5)
N4 N -0.139(1) 0.2913(8) -1.1369(4)
N5 N 0.1805(9) 0.0754(6) -0.2884(3)
C1 C 0.2879(9) 0.0093(7) -0.8623(3)
C2 C 0.377(1) 0.0234(7) -0.9025(4)
C3 C 0.326(1) -0.0408(9) -0.8128(5)
C4 C 0.515(1) -0.0128(8) -0.9003(3)
C5 C -0.165(1) 0.2054(7) -1.0086(4)
C6 C -0.0696(10) 0.2242(7) -1.0449(4)
C7 C -0.308(1) 0.225(1) -1.0196(5)
C8 C -0.111(1) 0.2614(8) -1.0970(4)
C9 C 0.168(1) -0.0226(9) -0.2567(5)
C10 C 0.289(1) -0.065(1) -0.2330(5)
C11 C 0.270(1) -0.165(1) -0.2075(6)
C12 C 0.394(2) -0.209(1) -0.1826(6)
C13 C 0.277(1) 0.062(1) -0.3330(5)
C14 C 0.295(2) 0.139(1) -0.3741(7)
C15 C 0.390(3) 0.109(2) -0.4194(9)
C16 C 0.357(5) 0.050(3) -0.453(1)
C17 C 0.229(2) 0.160(1) -0.2537(6)
C18 C 0.202(3) 0.190(1) -0.2098(7)
C19 C 0.250(2) 0.283(1) -0.1827(6)
C20 C 0.384(3) 0.304(2) -0.1655(10)
C21 C 0.037(2) 0.099(1) -0.3096(6)
C22 C -0.021(2) 0.046(2) -0.3516(8)
C23 C -0.158(2) 0.074(1) -0.3738(9)
C24 C -0.191(2) 0.024(2) -0.425(1)
H1 H 0.10290 -0.01030 -0.22760
H2 H 0.12630 -0.07350 -0.27870
H3 H 0.36010 -0.06930 -0.25980
H4 H 0.32710 -0.01740 -0.20610
H5 H 0.20000 -0.16030 -0.18050
H6 H 0.23450 -0.21220 -0.23410
H7 H 0.37900 -0.27510 -0.16720
H8 H 0.46720 -0.21830 -0.20870
H9 H 0.43230 -0.16680 -0.15500
H10 H 0.36910 0.04890 -0.31890
H11 H 0.25010 0.00150 -0.35290
H12 H 0.20500 0.15640 -0.38980
H13 H 0.32690 0.20200 -0.35660
H14 H 0.42860 0.16820 -0.43530
H15 H 0.47300 0.07640 -0.40060
H16 H 0.27360 0.08410 -0.46920
H17 H 0.41880 0.03580 -0.47600
H18 H 0.31790 -0.00770 -0.43440
H19 H 0.33280 0.14690 -0.24590
H20 H 0.23120 0.22190 -0.27360
H21 H 0.09550 0.19450 -0.21240
H22 H 0.21370 0.13410 -0.18440
H23 H 0.22840 0.33610 -0.20810
H24 H 0.19050 0.29460 -0.15250
H25 H 0.41140 0.25230 -0.13750
H26 H 0.44950 0.29340 -0.19320
H27 H 0.39700 0.36670 -0.14980
H28 H -0.03130 0.09280 -0.28140
H29 H 0.03080 0.16930 -0.32130
H30 H 0.04120 0.04790 -0.38210
H31 H -0.02440 -0.02700 -0.34220
H32 H -0.22930 0.05450 -0.34580
H33 H -0.16490 0.14720 -0.37400
H34 H -0.27650 0.04510 -0.43780
H35 H -0.11860 0.04680 -0.44840
H36 H -0.18430 -0.04540 -0.42030
Ag1B Ag -0.14863(8) -0.02314(6) -0.94636(3)
S3B S 0.1242(3) -0.1644(2) -1.05629(10)
N2B N 0.3720(9) 0.0384(7) -1.1011(3)
Ag1B* Ag 0.85137(8) -0.02314(6) -0.94636(3)
#END
