
#######################################################################
#
#                 Cambridge Crystallographic Data Centre
#                                CCDC
#
#######################################################################
#
# If this CIF has been generated from an entry in the Cambridge
# Structural Database, then it will include bibliographic, chemical,
# crystal, experimental, refinement or atomic coordinate data resulting
# from the CCDC's data processing and validation procedures.
#
#######################################################################

data_CSD_CIF_KOJZAN
_audit_creation_date 2019-06-10
_audit_creation_method CSD-ConQuest-V1
_database_code_CSD KOJZAN
_database_code_depnum_ccdc_archive 'CCDC 1897982'
_chemical_formula_sum 'C132 H170 In2 N18 O34'
_chemical_formula_moiety
;
(C80 H44 In2 O18 2-)n,2(C2 H7 N1 1+),16(C3 H7 N1 O1)
;
_journal_coden_Cambridge 9
_journal_volume 58
_journal_year 2019
_journal_page_first 8396
_journal_name_full 'Inorg.Chem. '
loop_
_publ_author_name
"Xiangjing Gao"
"Guohao Sun"
"Fayuan Ge"
"Hegen Zheng"
_chemical_name_systematic
;
catena-[bis(dimethylammonium) 
bis(\m-2^5^,3^5^-oxydi([1^1^,2^1^:2^3^,3^1^-terphenyl]-1^4^,3^4^-dicarboxylato
;
_cell_volume  13669.285
_exptl_crystal_colour 'colorless'
_exptl_crystal_density_diffrn 0.74
_exptl_crystal_description 'virgulate'
_diffrn_ambient_temperature 296
_refine_special_details
;
Disordered cation and solvent molecules were not modelled and the disordered 
density was taken into account using the SQUEEZE/PLATON procedure.
;
#These two values have been output from a single CSD field.
_refine_ls_R_factor_gt 0.1543
_refine_ls_wR_factor_gt 0.1543
_symmetry_cell_setting monoclinic
_symmetry_space_group_name_H-M 'P 21/c'
_symmetry_Int_Tables_number 14
loop_
_symmetry_equiv_pos_site_id
_symmetry_equiv_pos_as_xyz
1 x,y,z
2 -x,1/2+y,1/2-z
3 -x,-y,-z
4 x,-1/2-y,-1/2+z
_cell_length_a 34.946(3)
_cell_length_b 17.4553(17)
_cell_length_c 23.700(2)
_cell_angle_alpha 90
_cell_angle_beta 108.999(2)
_cell_angle_gamma 90
_cell_formula_units_Z 4
loop_
_atom_type_symbol
_atom_type_radius_bond
C 0.68
H 0.23
In 1.42
O 0.68
loop_
_atom_site_label
_atom_site_type_symbol
_atom_site_fract_x
_atom_site_fract_y
_atom_site_fract_z
In1 In 0.99918(3) 0.93675(6) 0.19139(5)
In2 In 0.49749(3) 0.87811(5) 0.19504(4)
O1 O 0.5010(3) 0.0127(5) 0.2033(5)
O2 O 0.4763(3) -0.0426(5) 0.1134(4)
O3 O 0.3116(3) 0.3737(6) -0.0358(5)
O4 O 0.0573(3) 0.5598(6) -0.2366(5)
O5 O 0.0603(3) 0.5455(7) -0.3238(5)
O6 O 0.4306(3) 0.6019(7) -0.3140(5)
O7 O 0.4739(3) 0.6109(6) -0.2268(5)
O8 O 0.4978(3) 0.7550(4) 0.2042(4)
O9 O 0.4724(3) 0.7959(5) 0.1180(5)
O10 O 0.5546(3) 0.8758(6) 0.2692(5)
O11 O 0.5600(3) 0.8833(7) 0.1800(5)
O12 O 0.8065(3) 1.0549(7) 0.4816(5)
O13 O 0.9793(3) 0.6463(5) 0.6121(5)
O14 O 1.0048(4) 0.6981(8) 0.7043(5)
O15 O 0.9942(3) 1.4354(5) 0.7018(5)
O16 O 0.9735(3) 1.4795(6) 0.6144(5)
O17 O 0.9767(3) 0.9308(6) 0.2723(5)
O18 O 0.9358(3) 0.9282(7) 0.1860(5)
C1 C 0.0780(5) 0.5452(10) -0.2681(7)
C2 C 0.1228(4) 0.5281(10) -0.2418(6)
C3 C 0.1371(5) 0.5252(10) -0.1860(8)
H1 H 0.12071 0.53401 -0.16265
C4 C 0.1816(5) 0.5072(11) -0.1573(7)
H2 H 0.19304 0.50527 -0.11601
C5 C 0.2037(4) 0.4945(11) -0.1915(7)
C6 C 0.1864(5) 0.4951(13) -0.2542(8)
H3 H 0.20173 0.48394 -0.27870
C7 C 0.1463(6) 0.5126(13) -0.2773(8)
H4 H 0.13437 0.51417 -0.31856
C8 C 0.2481(4) 0.475(1) -0.1641(7)
C9 C 0.2598(4) 0.4347(11) -0.1121(8)
H5 H 0.24137 0.41818 -0.09388
C10 C 0.3007(5) 0.4199(10) -0.0882(8)
C11 C 0.3299(4) 0.4452(8) -0.1127(7)
H6 H 0.35725 0.43384 -0.09506
C12 C 0.3174(4) 0.4840(8) -0.1595(6)
C13 C 0.2758(5) 0.5037(12) -0.1851(8)
H7 H 0.26791 0.53738 -0.21719
C14 C 0.3466(4) 0.5145(10) -0.1883(7)
C15 C 0.3401(5) 0.5282(13) -0.2489(8)
H8 H 0.31464 0.51592 -0.27530
C16 C 0.3677(5) 0.5583(11) -0.2734(8)
H9 H 0.36071 0.56872 -0.31404
C17 C 0.4073(5) 0.5726(10) -0.2338(8)
C18 C 0.4161(4) 0.5653(11) -0.1722(8)
H10 H 0.44086 0.58163 -0.14608
C19 C 0.3880(4) 0.5342(10) -0.1511(7)
H11 H 0.39537 0.52466 -0.11035
C20 C 0.4402(4) 0.5998(8) -0.2574(7)
C21 C 0.3522(4) 0.3777(7) 0.0038(6)
C22 C 0.3708(5) 0.3097(8) 0.0236(7)
H12 H 0.35746 0.26369 0.01043
C23 C 0.4106(4) 0.3100(7) 0.0642(6)
C24 C 0.4277(4) 0.3760(7) 0.0811(6)
H13 H 0.45422 0.37515 0.10699
C25 C 0.4105(4) 0.4481(7) 0.0643(6)
C26 C 0.3712(5) 0.4460(8) 0.0262(7)
H14 H 0.35701 0.49170 0.01535
C27 C 0.4319(5) 0.2368(10) 0.0836(8)
C28 C 0.4212(5) 0.1705(9) 0.0431(9)
H15 H 0.40199 0.17291 0.00529
C29 C 0.4438(5) 0.0993(7) 0.0680(8)
H16 H 0.44176 0.05659 0.04376
C30 C 0.4675(4) 0.0969(8) 0.1262(6)
C31 C 0.4778(5) 0.1593(7) 0.1617(7)
H17 H 0.49736 0.15589 0.19924
C32 C 0.4592(4) 0.2273(7) 0.1416(6)
H18 H 0.46478 0.26912 0.16728
C33 C 0.4812(5) 0.0162(10) 0.1510(8)
C34 C 0.4290(4) 0.5193(7) 0.0842(6)
C35 C 0.4193(5) 0.5873(9) 0.0491(7)
H19 H 0.40122 0.58425 0.01037
C36 C 0.4354(4) 0.6561(8) 0.0702(6)
H20 H 0.42812 0.69903 0.04582
C37 C 0.4632(5) 0.6642(8) 0.1291(7)
C38 C 0.4750(4) 0.5978(8) 0.1633(6)
H21 H 0.49479 0.60067 0.20064
C39 C 0.4577(5) 0.5277(9) 0.1421(7)
H22 H 0.46514 0.48488 0.16659
C40 C 0.4779(4) 0.7372(7) 0.1536(6)
C41 C 0.5767(4) 0.8851(10) 0.2366(8)
C42 C 0.6195(4) 0.8939(9) 0.2640(7)
C43 C 0.6384(4) 0.8907(9) 0.3251(8)
H23 H 0.62288 0.87760 0.34903
C44 C 0.6781(4) 0.9058(10) 0.3518(7)
H24 H 0.68926 0.90076 0.39302
C45 C 0.7030(4) 0.9289(9) 0.3184(7)
C46 C 0.6868(5) 0.9292(12) 0.2595(8)
H25 H 0.70294 0.94072 0.23625
C47 C 0.6442(5) 0.9116(10) 0.2305(7)
H26 H 0.63340 0.91239 0.18909
C48 C 0.7453(4) 0.9544(11) 0.3469(6)
C49 C 0.7737(4) 0.9368(12) 0.3199(8)
H27 H 0.76602 0.90627 0.28585
C50 C 0.8135(5) 0.9632(11) 0.3420(7)
C51 C 0.8254(4) 1.0002(10) 0.3977(8)
H28 H 0.85225 1.01482 0.41497
C52 C 0.7967(5) 1.0162(11) 0.4289(7)
C53 C 0.7578(5) 0.9893(9) 0.4018(7)
H29 H 0.73910 0.99526 0.42181
C54 C 0.8456(5) 0.9479(10) 0.3175(7)
C55 C 0.8378(6) 0.9506(17) 0.2558(10)
H30 H 0.81127 0.96109 0.23245
C56 C 0.8648(5) 0.9396(14) 0.2264(10)
H31 H 0.85709 0.93790 0.18503
C57 C 0.9075(4) 0.9303(10) 0.2650(7)
C58 C 0.9167(6) 0.9230(13) 0.3277(9)
H32 H 0.94283 0.91099 0.35197
C59 C 0.8862(4) 0.9342(13) 0.3518(8)
H33 H 0.89283 0.93262 0.39308
C60 C 0.9388(6) 0.9265(11) 0.2363(8)
C61 C 0.8467(5) 1.0524(10) 0.5158(8)
C62 C 0.8641(4) 1.1303(9) 0.5302(7)
H34 H 0.84959 1.17430 0.51436
C63 C 0.9043(4) 1.1327(7) 0.5696(7)
C64 C 0.9276(4) 1.0682(8) 0.5857(7)
H35 H 0.95498 1.07261 0.60730
C65 C 0.9088(5) 0.9887(9) 0.5683(7)
C66 C 0.8670(4) 0.9889(9) 0.5315(7)
H36 H 0.85407 0.94243 0.51861
C67 C 0.9229(4) 1.2090(6) 0.5858(6)
C68 C 0.9150(5) 1.2726(8) 0.5522(7)
H37 H 0.89772 1.26816 0.51310
C69 C 0.9294(6) 1.3387(9) 0.5702(8)
H38 H 0.91905 1.38099 0.54620
C70 C 0.9611(5) 1.3501(9) 0.6260(7)
C71 C 0.9707(5) 1.2867(9) 0.6644(8)
H39 H 0.98791 1.29325 0.70334
C72 C 0.9549(5) 1.2135(8) 0.6453(6)
H40 H 0.96406 1.17011 0.66861
C73 C 0.9791(5) 1.4276(8) 0.6510(7)
C74 C 0.9314(4) 0.9211(8) 0.5876(7)
C75 C 0.9233(5) 0.8561(8) 0.5526(8)
H41 H 0.90472 0.86053 0.51442
C76 C 0.9402(5) 0.7861(10) 0.5694(8)
H42 H 0.93433 0.74465 0.54335
C77 C 0.9674(6) 0.7795(10) 0.6285(8)
C78 C 0.9775(6) 0.8466(10) 0.6606(7)
H43 H 0.99717 0.84410 0.69807
C79 C 0.9619(5) 0.9123(10) 0.6425(7)
H44 H 0.97109 0.95505 0.66656
C80 C 0.9870(5) 0.7010(8) 0.6480(8)
In1C In -0.00082(3) 0.56325(6) -0.30861(5)
In1C* In 0.99918(3) 0.56325(6) 0.69139(5)
In1C** In 0.99918(3) 1.56325(6) 0.69139(5)
In2* In 0.49749(3) -0.12189(5) 0.19504(4)
In2C In 0.49749(3) 0.62189(5) -0.30496(4)
O1* O 0.5010(3) 1.0127(5) 0.2033(5)
O2* O 0.4763(3) 0.9574(5) 0.1134(4)
O4C O 1.0573(3) 0.9402(6) 0.2634(5)
O5C O 1.0603(3) 0.9545(7) 0.1762(5)
O6C O 0.4306(3) 0.8981(7) 0.1860(5)
O7C O 0.4739(3) 0.8891(6) 0.2732(5)
O13C O 0.9793(3) 0.8537(5) 0.1121(5)
O14C O 1.0048(4) 0.8019(8) 0.2043(5)
O15C O 0.9942(3) 1.0646(5) 0.2018(5)
O16C O 0.9735(3) 1.0205(6) 0.1144(5)
#END
