
#######################################################################
#
#                 Cambridge Crystallographic Data Centre
#                                CCDC
#
#######################################################################
#
# If this CIF has been generated from an entry in the Cambridge
# Structural Database, then it will include bibliographic, chemical,
# crystal, experimental, refinement or atomic coordinate data resulting
# from the CCDC's data processing and validation procedures.
#
#######################################################################

data_CSD_CIF_KOLHIE
_audit_creation_date 2014-07-03
_audit_creation_method CSD-ConQuest-V1
_database_code_CSD KOLHIE
_database_code_depnum_ccdc_archive 'CCDC 984260'
_chemical_formula_sum 'C20 H44 Co1 Nd2 O36'
_chemical_formula_moiety
;
(C10 H6 Nd1 O10 1-)2n,H12 Co1 O6 2+,10(H2 O1)
;
_journal_coden_Cambridge 9
_journal_volume 53
_journal_year 2014
_journal_page_first 6299
_journal_name_full 'Inorg.Chem. '
loop_
_publ_author_name
"P.Diaz-Gallifa"
"O.Fabelo"
"J.Pasan"
"L.Canadillas-Delgado"
"F.Lloret"
"M.Julve"
"C.Ruiz-Perez"
_chemical_name_systematic
;
catena-(hexaaqua-cobalt(ii) 
bis((\m-benzene-1,2,4,5-tetracarboxylato)-diaqua-neodymium(iii)) decahydrate)
;
_cell_volume   2028.206
_exptl_crystal_colour 'light pink'
_exptl_crystal_description 'prism'
_diffrn_ambient_temperature 293
#These two values have been output from a single CSD field.
_refine_ls_R_factor_gt 0.0572
_refine_ls_wR_factor_gt 0.0572
_symmetry_cell_setting monoclinic
_symmetry_space_group_name_H-M 'P 21/n'
_symmetry_Int_Tables_number 14
loop_
_symmetry_equiv_pos_site_id
_symmetry_equiv_pos_as_xyz
1 x,y,z
2 1/2-x,1/2+y,1/2-z
3 -x,-y,-z
4 -1/2+x,-1/2-y,-1/2+z
_cell_length_a 15.2410(9)
_cell_length_b 8.7110(3)
_cell_length_c 15.788(1)
_cell_angle_alpha 90
_cell_angle_beta 104.621(3)
_cell_angle_gamma 90
_cell_formula_units_Z 2
loop_
_atom_type_symbol
_atom_type_radius_bond
C 0.68
H 0.23
Co 1.26
Nd 2.01
O 0.68
loop_
_atom_site_label
_atom_site_type_symbol
_atom_site_fract_x
_atom_site_fract_y
_atom_site_fract_z
C1 C 0.2130(5) 0.0228(7) -0.2098(4)
H1 H 0.23190 0.11950 -0.22280
C2 C 0.2616(4) -0.0523(7) -0.1340(4)
C3 C 0.2303(4) -0.1947(7) -0.1114(4)
C4 C 0.1519(5) -0.2547(6) -0.1659(5)
H2 H 0.12950 -0.34700 -0.15040
C5 C 0.1054(4) -0.1827(7) -0.2427(4)
C6 C 0.1373(4) -0.0428(7) -0.2662(4)
C7 C 0.3396(4) 0.0362(7) -0.0792(4)
C8 C 0.2698(5) -0.2829(7) -0.0282(5)
C9 C 0.0143(5) -0.2455(7) -0.2901(5)
C10 C 0.0894(4) 0.0475(7) -0.3441(4)
O1 O 0.3286(3) 0.1796(5) -0.0704(3)
O2 O 0.4141(3) -0.0252(5) -0.0444(3)
O3 O 0.3767(4) 0.4029(5) 0.0739(4)
O4 O 0.3536(3) -0.3043(6) 0.0005(3)
O5 O 0.4328(3) 0.1034(5) 0.1271(4)
O6 O 0.2122(3) -0.3401(6) 0.0074(3)
O7 O 0.0048(3) -0.3173(6) -0.3613(3)
O8 O -0.0486(4) -0.2221(7) -0.2535(4)
O9 O 0.0531(3) -0.0219(5) -0.4160(3)
O10 O 0.0854(3) 0.1879(5) -0.3379(3)
Nd1 Nd 0.48883(2) 0.25087(3) 0.01189(2)
O11 O 1.0387(5) 0.7663(6) -0.0046(5)
O12 O 1.0348(5) 0.9763(7) 0.1350(4)
O13 O 1.1323(4) 1.0773(7) 0.0112(4)
Co1 Co 1.00000 1.00000 0.00000
O14 O 0.1756(4) 0.3451(7) -0.0701(5)
O15 O -0.2278(5) -0.2176(11) -0.3126(6)
O16 O 0.9935(5) 0.6884(9) 0.1906(5)
O17 O 0.9237(6) 0.5607(10) -0.1167(6)
O18 O 1.2642(8) 1.0389(17) 0.1605(10)
O2B O 0.5859(3) 0.0252(5) 0.0444(3)
O4B O 0.6464(3) 0.3043(6) -0.0005(3)
O7A O 0.4952(3) 0.1827(6) -0.1387(3)
O9A O 0.4469(3) 0.4781(5) -0.0840(3)
O9C O 0.5531(3) 0.5219(5) 0.0840(3)
O10C O 0.5854(3) 0.3121(5) 0.1621(3)
Nd1A Nd 0.01117(2) -0.24913(3) -0.51189(2)
Nd1B Nd 0.51117(2) -0.25087(3) -0.01189(2)
Nd1C Nd -0.01117(2) 0.24913(3) -0.48811(2)
O11B O 0.9613(5) 1.2337(6) 0.0046(5)
O12B O 0.9652(5) 1.0237(7) -0.1350(4)
O13B O 0.8677(4) 0.9227(7) -0.0112(4)
#END
