
#######################################################################
#
#                 Cambridge Crystallographic Data Centre
#                                CCDC
#
#######################################################################
#
# If this CIF has been generated from an entry in the Cambridge
# Structural Database, then it will include bibliographic, chemical,
# crystal, experimental, refinement or atomic coordinate data resulting
# from the CCDC's data processing and validation procedures.
#
#######################################################################

data_CSD_CIF_KOLHOK
_audit_creation_date 2014-07-03
_audit_creation_method CSD-ConQuest-V1
_database_code_CSD KOLHOK
_database_code_depnum_ccdc_archive 'CCDC 984261'
_chemical_formula_sum 'C20 H44 Co1 Eu2 O36'
_chemical_formula_moiety
;
(C10 H6 Eu1 O10 1-)2n,H12 Co1 O6 2+,10(H2 O1)
;
_journal_coden_Cambridge 9
_journal_volume 53
_journal_year 2014
_journal_page_first 6299
_journal_name_full 'Inorg.Chem. '
loop_
_publ_author_name
"P.Diaz-Gallifa"
"O.Fabelo"
"J.Pasan"
"L.Canadillas-Delgado"
"F.Lloret"
"M.Julve"
"C.Ruiz-Perez"
_chemical_name_systematic
;
catena-(hexaaqua-cobalt(ii) 
bis((\m-benzene-1,2,4,5-tetracarboxylato)-diaqua-europium(iii)) decahydrate)
;
_cell_volume   1999.638
_exptl_crystal_colour 'light pink'
_exptl_crystal_density_diffrn 2.032
_exptl_special_details
;
Study temperature given as 293 K and 100 K in the CIF

;
_exptl_crystal_description 'needle'
_diffrn_ambient_temperature 100
_diffrn_radiation_probe x-ray
_diffrn_source synchrotron
#These two values have been output from a single CSD field.
_refine_ls_R_factor_gt 0.0651
_refine_ls_wR_factor_gt 0.0651
_symmetry_cell_setting monoclinic
_symmetry_space_group_name_H-M 'P 21/n'
_symmetry_Int_Tables_number 14
loop_
_symmetry_equiv_pos_site_id
_symmetry_equiv_pos_as_xyz
1 x,y,z
2 1/2-x,1/2+y,1/2-z
3 -x,-y,-z
4 -1/2+x,-1/2-y,-1/2+z
_cell_length_a 15.159(3)
_cell_length_b 8.6660(17)
_cell_length_c 15.744(3)
_cell_angle_alpha 90
_cell_angle_beta 104.80(3)
_cell_angle_gamma 90
_cell_formula_units_Z 2
loop_
_atom_type_symbol
_atom_type_radius_bond
C 0.68
H 0.23
Co 1.26
Eu 1.98
O 0.68
loop_
_atom_site_label
_atom_site_type_symbol
_atom_site_fract_x
_atom_site_fract_y
_atom_site_fract_z
C1 C 0.2140(4) 0.0218(7) -0.2099(4)
H1 H 0.23410 0.11830 -0.22290
C2 C 0.2617(4) -0.0540(7) -0.1345(4)
C3 C 0.2308(4) -0.1957(7) -0.1116(4)
C4 C 0.1515(5) -0.2561(6) -0.1672(5)
H2 H 0.12870 -0.34870 -0.15180
C5 C 0.1055(4) -0.1851(7) -0.2437(4)
C6 C 0.1370(4) -0.0429(7) -0.2667(4)
C7 C 0.3419(4) 0.0356(7) -0.0803(4)
C8 C 0.2714(5) -0.2844(8) -0.0278(4)
C9 C 0.0134(6) -0.2481(6) -0.2920(5)
C10 C 0.0887(4) 0.0416(7) -0.3460(4)
O1 O 0.3323(3) 0.1787(5) -0.0706(3)
O2 O 0.4158(3) -0.0274(5) -0.0453(3)
O3 O 0.3793(3) 0.4016(5) 0.0732(3)
O4 O 0.3548(3) -0.3064(5) 0.0006(3)
O5 O 0.4324(3) 0.1056(5) 0.1234(3)
O6 O 0.2132(3) -0.3439(6) 0.0078(3)
O7 O 0.0031(3) -0.3155(5) -0.3643(3)
O8 O -0.0489(5) -0.2276(7) -0.2542(5)
O9 O 0.0530(3) -0.0252(5) -0.4172(3)
O10 O 0.0838(3) 0.1882(5) -0.3401(3)
Eu1 Eu 0.48884(2) 0.25084(3) 0.01177(2)
O11 O 1.0382(6) 0.7654(6) -0.0032(5)
O12 O 1.0355(5) 0.9756(7) 0.1373(4)
O13 O 1.1317(4) 1.0753(7) 0.0095(4)
Co1 Co 1.00000 1.00000 0.00000
O14 O 0.1770(4) 0.3443(7) -0.0704(5)
O15 O -0.2264(7) -0.2256(11) -0.3122(7)
O16 O 0.9935(5) 0.6912(9) 0.1927(4)
O17 O 0.9241(5) 0.5619(9) -0.1169(5)
O18 O 1.2629(8) 1.0315(17) 0.1595(9)
O2B O 0.5842(3) 0.0274(5) 0.0453(3)
O4B O 0.6452(3) 0.3064(5) -0.0006(3)
O7A O 0.4969(3) 0.1845(5) -0.1357(3)
O9A O 0.4470(3) 0.4748(5) -0.0828(3)
O9C O 0.5530(3) 0.5252(5) 0.0828(3)
O10C O 0.5838(3) 0.3118(5) 0.1599(3)
Eu1A Eu 0.01116(2) -0.24916(3) -0.51177(2)
Eu1B Eu 0.51116(2) -0.25084(3) -0.01177(2)
Eu1C Eu -0.01116(2) 0.24916(3) -0.48823(2)
O11B O 0.9618(6) 1.2346(6) 0.0032(5)
O12B O 0.9645(5) 1.0244(7) -0.1373(4)
O13B O 0.8683(4) 0.9247(7) -0.0095(4)
#END
