
#######################################################################
#
#                 Cambridge Crystallographic Data Centre
#                                CCDC
#
#######################################################################
#
# If this CIF has been generated from an entry in the Cambridge
# Structural Database, then it will include bibliographic, chemical,
# crystal, experimental, refinement or atomic coordinate data resulting
# from the CCDC's data processing and validation procedures.
#
#######################################################################

data_CSD_CIF_KOLMEE
_audit_creation_date 2009-02-26
_audit_creation_method CSD-ConQuest-V1
_database_code_CSD KOLMEE
_database_code_depnum_ccdc_archive 'CCDC 656397'
_chemical_formula_sum 'C70 H66 Cu3 N6 O26'
_chemical_formula_moiety
;
(C12 H20 Cu1 N2 O4 2+)n,n(C58 H38 Cu2 N4 O18 2-),4n(H2 O1)
;
_journal_coden_Cambridge 1350
_journal_volume 10
_journal_year 2008
_journal_page_first 1583
_journal_name_full 'CrystEngComm '
loop_
_publ_author_name
"Hong Wang"
"Yao-Yu Wang"
"Guo-Ping Yang"
"Cui-Juan Wang"
"Gui-Lin Wen"
"Qi-Zhen Shi"
"S.R.Batten"
_chemical_name_systematic
;
catena-((\m~2~-1,2-bis(4-Pyridyl)ethane-N,N')-tetra-aqua-copper(ii) 
bis(\m~3~-3'-carboxybenzophenone-3,4,4'-tricarboxylato)-bis(\m~2~-1,2-bis(4-py
ridyl)ethane-N,N')-di-copper(ii) tetrahydrate)
;
_cell_volume   1896.243
_exptl_crystal_colour 'blue'
_exptl_special_details
;
magnetic properties
The paper molecular formula has 8 water ligands and four water solvent 
molecules associated with the structure, whereas we could only find evidence 
for 4 water ligands in the cation and four solvent molecules. Ligand 
coordination is described as 6 in the cation and 5 in the anion, which agrees 
with the bonds in the cif and the 2D diagram
;
_exptl_crystal_description 'prism'
_diffrn_ambient_temperature 293
#These two values have been output from a single CSD field.
_refine_ls_R_factor_gt 0.066
_refine_ls_wR_factor_gt 0.066
_symmetry_cell_setting triclinic
_symmetry_space_group_name_H-M 'P -1'
_symmetry_Int_Tables_number 2
loop_
_symmetry_equiv_pos_site_id
_symmetry_equiv_pos_as_xyz
1 x,y,z
2 -x,-y,-z
_cell_length_a 10.2701(13)
_cell_length_b 13.3741(17)
_cell_length_c 14.9368(19)
_cell_angle_alpha 89.016(2)
_cell_angle_beta 86.975(2)
_cell_angle_gamma 67.753(2)
_cell_formula_units_Z 1
loop_
_atom_type_symbol
_atom_type_radius_bond
C 0.68
H 0.23
Cu 1.52
N 0.68
O 0.68
loop_
_atom_site_label
_atom_site_type_symbol
_atom_site_fract_x
_atom_site_fract_y
_atom_site_fract_z
Cu1 Cu 0.79392(7) 0.84381(5) -0.07801(5)
Cu2 Cu 1.00000 0.00000 0.50000
O1 O 0.6598(4) 0.8694(3) 0.0264(3)
O2 O 0.8275(4) 0.7534(4) 0.1074(3)
O3 O 0.6162(4) 1.0106(3) 0.2033(3)
O4 O 0.3945(4) 1.0917(3) 0.1676(3)
O5 O 0.3687(4) 0.5826(3) 0.2934(3)
O6 O 1.0296(4) 0.2120(3) 0.1517(3)
O7 O 1.0980(5) 0.1915(4) 0.2928(3)
O8 O 0.8400(4) 0.1143(3) 0.2498(3)
O9 O 0.6148(4) 0.1950(3) 0.2165(3)
H1 H 0.62380 0.13350 0.20290
O10 O 0.9566(9) -0.0519(5) 0.3654(4)
H2 H 1.00790 -0.10210 0.32900
H3 H 0.92300 -0.00070 0.32730
O11 O 1.1390(6) 0.0632(5) 0.4370(4)
H4 H 1.20600 0.00620 0.41620
H5 H 1.11230 0.10560 0.39190
O12 O 0.3657(18) 0.0899(14) 0.4927(18)
H6 H 0.38880 0.03840 0.45400
H7 H 0.32050 0.08390 0.54130
O13 O 0.3313(8) 0.2480(7) 0.3225(5)
H8 H 0.41780 0.23200 0.30470
H9 H 0.28390 0.30580 0.29410
O14 O 0.1531(11) 0.5011(10) 0.3318(6)
H10 H 0.20590 0.43830 0.35060
H11 H 0.21850 0.52570 0.32090
O15 O 0.9128(13) 0.7267(16) 0.2833(7)
H12 H 0.88850 0.73560 0.22860
H13 H 0.92470 0.78180 0.30450
N1 N 0.7866(5) 0.6931(3) -0.0881(3)
N2 N 0.8090(5) -0.0119(3) -0.0635(3)
N3 N 0.8409(6) 0.1445(4) 0.4875(4)
C1 C 0.7026(6) 0.8113(4) 0.0948(4)
C2 C 0.4952(6) 1.0109(4) 0.1860(4)
C3 C 0.4792(6) 0.5930(4) 0.2721(4)
C4 C 0.5884(5) 0.8086(4) 0.1621(4)
C5 C 0.4830(5) 0.9023(4) 0.1981(4)
C6 C 0.3740(6) 0.8946(4) 0.2526(4)
H14 H 0.30220 0.95700 0.27460
C7 C 0.3711(6) 0.7935(4) 0.2749(4)
H15 H 0.29680 0.78870 0.31070
C8 C 0.4793(6) 0.7000(4) 0.2435(4)
C9 C 0.5845(6) 0.7090(4) 0.1854(4)
H16 H 0.65400 0.64660 0.16160
C10 C 0.6158(6) 0.4973(4) 0.2725(4)
C11 C 0.6138(6) 0.3959(4) 0.2567(4)
H17 H 0.52810 0.38850 0.25100
C12 C 0.7393(5) 0.3043(4) 0.2492(3)
C13 C 0.8670(6) 0.3173(4) 0.2596(4)
C14 C 0.8666(6) 0.4165(4) 0.2826(4)
H18 H 0.95090 0.42310 0.29460
C15 C 0.7417(6) 0.5070(4) 0.2882(4)
H19 H 0.74310 0.57390 0.30250
C16 C 1.0099(6) 0.2293(4) 0.2350(4)
C17 C 0.7350(6) 0.1953(4) 0.2371(4)
C18 C 0.8999(6) 0.6017(4) -0.0922(4)
H20 H 0.98790 0.60690 -0.09440
C19 C 0.8959(7) 0.5004(5) -0.0935(5)
H21 H 0.97910 0.43950 -0.09690
C20 C 0.7656(7) 0.4895(4) -0.0898(4)
C21 C 0.6463(6) 0.5841(5) -0.0828(5)
H22 H 0.55710 0.58140 -0.07750
C22 C 0.6623(6) 0.6828(5) -0.0839(5)
H23 H 0.58130 0.74540 -0.08170
C23 C 0.7537(8) 0.3800(5) -0.0956(5)
H24 H 0.65520 0.39000 -0.08810
H25 H 0.78740 0.35010 -0.15500
C24 C 0.8354(7) 0.3002(4) -0.0267(4)
H26 H 0.79740 0.32680 0.03290
H27 H 0.93310 0.29290 -0.03140
C25 C 0.8272(6) 0.1904(4) -0.0404(4)
C26 C 0.9277(6) 0.1101(4) -0.0930(4)
H28 H 1.00280 0.12240 -0.12180
C27 C 0.9142(6) 0.0120(4) -0.1018(4)
H29 H 0.98290 -0.04090 -0.13660
C28 C 0.7099(6) 0.0666(4) -0.0139(4)
H30 H 0.63450 0.05290 0.01280
C29 C 0.7168(7) 0.1667(4) -0.0016(5)
H31 H 0.64650 0.21870 0.03310
C30 C 0.8588(7) 0.2365(5) 0.5050(5)
H32 H 0.94820 0.23290 0.51760
C31 C 0.7485(7) 0.3371(5) 0.5051(4)
H33 H 0.76510 0.39930 0.51640
C32 C 0.6145(6) 0.3442(5) 0.4884(4)
C33 C 0.5978(7) 0.2497(5) 0.4689(5)
H34 H 0.50950 0.25090 0.45620
C34 C 0.7119(8) 0.1536(5) 0.4684(5)
H35 H 0.69820 0.09110 0.45370
C35 C 0.4860(6) 0.4494(4) 0.4893(4)
H36 H 0.41650 0.44330 0.53330
H37 H 0.44540 0.45870 0.43110
Cu1A Cu 0.20608(7) 1.15619(5) 0.07801(5)
Cu1A* Cu 1.20608(7) 0.15619(5) 0.07801(5)
Cu1* Cu 0.79392(7) -0.15619(5) -0.07801(5)
Cu1** Cu -0.20608(7) 1.84381(5) -0.07801(5)
Cu1*** Cu 0.79392(7) 1.84381(5) -0.07801(5)
Cu2* Cu 0.00000 1.00000 0.50000
O1A O 0.3402(4) 1.1306(3) -0.0264(3)
O2A O 0.1725(4) 1.2466(4) -0.1074(3)
O3A O 0.3838(4) 0.9894(3) -0.2033(3)
O4A O 0.6055(4) 0.9083(3) -0.1676(3)
O5A O 0.6313(4) 1.4174(3) -0.2934(3)
O6A O -0.0296(4) 1.7880(3) -0.1517(3)
O6A* O 0.9704(4) 0.7880(3) -0.1517(3)
O6* O 0.0296(4) 1.2120(3) 0.1517(3)
O7A O -0.0980(5) 1.8085(4) -0.2928(3)
O8A O 0.1600(4) 1.8857(3) -0.2498(3)
O9A O 0.3852(4) 1.8050(3) -0.2165(3)
H1A H 0.37620 1.86650 -0.20290
O10A O 1.0434(9) 0.0519(5) 0.6346(4)
H2A H 0.99210 0.10210 0.67100
H3A H 1.07700 0.00070 0.67270
O11A O 0.8610(6) -0.0632(5) 0.5630(4)
H4A H 0.79400 -0.00620 0.58380
H5A H 0.88770 -0.10560 0.60810
N1* N 0.7866(5) 1.6931(3) -0.0881(3)
N1A N 0.2134(5) 1.3069(3) 0.0881(3)
N2* N 0.8090(5) 0.9881(3) -0.0635(3)
N2A N 0.1910(5) 1.0119(3) 0.0635(3)
N3A N 0.1591(6) 0.8555(4) 0.5125(4)
N3A* N 1.1591(6) -0.1445(4) 0.5125(4)
C1A C 0.2974(6) 1.1887(4) -0.0948(4)
C2A C 0.5048(6) 0.9891(4) -0.1860(4)
C3A C 0.5208(6) 1.4070(4) -0.2721(4)
C4A C 0.4116(5) 1.1914(4) -0.1621(4)
C5A C 0.5170(5) 1.0977(4) -0.1981(4)
C6A C 0.6260(6) 1.1054(4) -0.2526(4)
H14A H 0.69780 1.04300 -0.27460
C7A C 0.6289(6) 1.2065(4) -0.2749(4)
H15A H 0.70320 1.21130 -0.31070
C8A C 0.5207(6) 1.3000(4) -0.2435(4)
C9A C 0.4155(6) 1.2910(4) -0.1854(4)
H16A H 0.34600 1.35340 -0.16160
C10A C 0.3842(6) 1.5027(4) -0.2725(4)
C11A C 0.3862(6) 1.6041(4) -0.2567(4)
H17A H 0.47190 1.61150 -0.25100
C12A C 0.2607(5) 1.6957(4) -0.2492(3)
C13A C 0.1330(6) 1.6827(4) -0.2596(4)
C14A C 0.1334(6) 1.5835(4) -0.2826(4)
H18A H 0.04910 1.57690 -0.29460
C15A C 0.2583(6) 1.4930(4) -0.2882(4)
H19A H 0.25690 1.42610 -0.30250
C16A C -0.0099(6) 1.7707(4) -0.2350(4)
C17A C 0.2650(6) 1.8047(4) -0.2371(4)
C18* C 0.8999(6) 1.6017(4) -0.0922(4)
H20* H 0.98790 1.60690 -0.09440
C19* C 0.8959(7) 1.5004(5) -0.0935(5)
H21* H 0.97910 1.43950 -0.09690
C20* C 0.7656(7) 1.4895(4) -0.0898(4)
C21* C 0.6463(6) 1.5841(5) -0.0828(5)
H22* H 0.55710 1.58140 -0.07750
C22* C 0.6623(6) 1.6828(5) -0.0839(5)
H23* H 0.58130 1.74540 -0.08170
C23* C 0.7537(8) 1.3800(5) -0.0956(5)
H24* H 0.65520 1.39000 -0.08810
H25* H 0.78740 1.35010 -0.15500
C24* C 0.8354(7) 1.3002(4) -0.0267(4)
H26* H 0.79740 1.32680 0.03290
H27* H 0.93310 1.29290 -0.03140
C25* C 0.8272(6) 1.1904(4) -0.0404(4)
C26* C 0.9277(6) 1.1101(4) -0.0930(4)
H28* H 1.00280 1.12240 -0.12180
C27* C 0.9142(6) 1.0120(4) -0.1018(4)
H29* H 0.98290 0.95910 -0.13660
C28* C 0.7099(6) 1.0666(4) -0.0139(4)
H30* H 0.63450 1.05290 0.01280
C29* C 0.7168(7) 1.1667(4) -0.0016(5)
H31* H 0.64650 1.21870 0.03310
C30A C 0.1412(7) 0.7635(5) 0.4950(5)
H32A H 0.05180 0.76710 0.48240
C31A C 0.2515(7) 0.6629(5) 0.4949(4)
H33A H 0.23490 0.60070 0.48360
C32A C 0.3855(6) 0.6558(5) 0.5116(4)
C33A C 0.4022(7) 0.7503(5) 0.5311(5)
H34A H 0.49050 0.74910 0.54380
C34A C 0.2881(8) 0.8464(5) 0.5316(5)
H35A H 0.30180 0.90890 0.54630
C35A C 0.5140(6) 0.5506(4) 0.5107(4)
H36A H 0.58350 0.55670 0.46670
H37A H 0.55460 0.54130 0.56890
#END
