
#######################################################################
#
#                 Cambridge Crystallographic Data Centre
#                                CCDC
#
#######################################################################
#
# If this CIF has been generated from an entry in the Cambridge
# Structural Database, then it will include bibliographic, chemical,
# crystal, experimental, refinement or atomic coordinate data resulting
# from the CCDC's data processing and validation procedures.
#
#######################################################################

data_CSD_CIF_KOLWOY
_audit_creation_date 2009-02-26
_audit_creation_method CSD-ConQuest-V1
_database_code_CSD KOLWOY
_database_code_depnum_ccdc_archive 'CCDC 680835'
_chemical_formula_sum 'C28 H24 Ag2 N4 O9 S1'
_chemical_formula_moiety
;
(C10 H8 Ag1 N2 1+)n,n(C18 H12 Ag1 N2 O7 S1 1-),2n(H2 O1)
;
_journal_coden_Cambridge 1350
_journal_volume 10
_journal_year 2008
_journal_page_first 1667
_journal_name_full 'CrystEngComm '
loop_
_publ_author_name
"Yu-Ling Wang"
"Qing-Yan Liu"
"Li Xu"
_chemical_name_systematic
;
catena-((\m~2~-4,4'-Bipyridine-N,N')-silver(i) 
(\m~2~-4,4'-bipyridine-N,N')-(hydrogen 5-sulfonatoisophthalato-O)-silver(i) 
dihydrate)
;
_cell_volume   2859.442
_exptl_crystal_colour 'colorless'
_exptl_crystal_density_diffrn 1.878
_exptl_special_details
;
luminescent

;
_exptl_crystal_description 'Needle'
_diffrn_ambient_temperature 273
#These two values have been output from a single CSD field.
_refine_ls_R_factor_gt 0.0662
_refine_ls_wR_factor_gt 0.0662
_symmetry_cell_setting monoclinic
_symmetry_space_group_name_H-M 'P 2/c'
_symmetry_Int_Tables_number 13
loop_
_symmetry_equiv_pos_site_id
_symmetry_equiv_pos_as_xyz
1 x,y,z
2 -x,y,1/2-z
3 -x,-y,-z
4 x,-y,-1/2+z
_cell_length_a 18.3027(5)
_cell_length_b 11.4073(1)
_cell_length_c 13.7081(4)
_cell_angle_alpha 90
_cell_angle_beta 92.440(2)
_cell_angle_gamma 90
_cell_formula_units_Z 4
loop_
_atom_type_symbol
_atom_type_radius_bond
C 0.68
H 0.23
Ag 1.30
N 0.68
O 0.76
S 1.02
loop_
_atom_site_label
_atom_site_type_symbol
_atom_site_fract_x
_atom_site_fract_y
_atom_site_fract_z
Ag1 Ag 0.04784(4) 0.33244(5) 0.16224(5)
Ag2 Ag 0.54653(4) 0.17656(5) 0.64220(6)
O1 O 0.1162(4) 0.3719(6) 0.3166(5)
O2 O 0.7904(4) -0.0255(7) 1.1531(6)
H1 H 0.76740 -0.06610 1.19910
H2 H 0.79860 0.05150 1.16260
O3 O 0.1799(4) 0.2071(6) 0.3092(5)
O4 O 0.7104(5) 0.8925(7) 0.9943(7)
H3 H 0.71590 0.90050 0.92970
H4 H 0.75050 0.89250 1.03470
O5 O 0.2262(5) 0.6880(6) 0.5189(6)
H5 H 0.23620 0.75560 0.53460
O6 O 0.3079(4) 0.6472(6) 0.6387(6)
O7 O 0.2865(4) 0.0713(5) 0.6397(6)
O8 O 0.3958(4) 0.1808(7) 0.6407(9)
O9 O 0.3083(7) 0.2153(8) 0.7583(6)
N1 N 0.0408(4) 0.1460(6) 0.1291(5)
N2 N 0.0438(4) -0.4755(6) 0.1418(5)
N3 N 0.5461(4) -0.0122(6) 0.6376(5)
N4 N 0.5468(4) -0.6348(6) 0.6268(5)
C1 C 0.2066(4) 0.3378(7) 0.4397(6)
C2 C 0.2114(4) 0.4554(7) 0.4663(6)
H6 H 0.18790 0.51170 0.42730
C3 C 0.2511(4) 0.4901(7) 0.5506(6)
C4 C 0.2843(4) 0.4034(7) 0.6093(6)
H7 H 0.31010 0.42470 0.66640
C5 C 0.2791(4) 0.2874(6) 0.5836(6)
C6 C 0.2414(4) 0.2532(6) 0.4989(5)
H8 H 0.23910 0.17450 0.48150
C7 C 0.1652(5) 0.3022(7) 0.3464(6)
C8 C 0.2649(6) 0.6157(8) 0.5736(8)
C9 C -0.0213(5) 0.0836(7) 0.1286(6)
H9 H -0.06530 0.12400 0.12990
C10 C -0.0234(4) -0.0361(7) 0.1263(5)
H10 H -0.06830 -0.07430 0.12670
C11 C 0.0403(5) -0.1016(7) 0.1234(5)
C12 C 0.1046(5) -0.0360(7) 0.1205(6)
H11 H 0.14930 -0.07430 0.11680
C13 C 0.1028(5) 0.0838(7) 0.1231(6)
H12 H 0.14680 0.12430 0.12050
C14 C 0.0999(5) -0.4093(7) 0.1784(6)
H13 H 0.14000 -0.44710 0.20810
C15 C 0.1005(5) -0.2895(7) 0.1737(6)
H14 H 0.13980 -0.24750 0.20110
C16 C 0.0411(4) -0.2302(7) 0.1270(5)
C17 C -0.0167(4) -0.2987(7) 0.0907(6)
H15 H -0.05770 -0.26340 0.06110
C18 C -0.0133(5) -0.4169(7) 0.0986(6)
H16 H -0.05250 -0.46050 0.07280
C19 C 0.6054(5) -0.0751(7) 0.6618(7)
H17 H 0.64790 -0.03500 0.68090
C20 C 0.6078(4) -0.1951(7) 0.6602(7)
H18 H 0.65080 -0.23420 0.67850
C21 C 0.5455(4) -0.2581(6) 0.6313(5)
C22 C 0.4833(5) -0.1931(7) 0.6049(6)
H19 H 0.44050 -0.23090 0.58360
C23 C 0.4856(5) -0.0726(7) 0.6105(6)
H20 H 0.44310 -0.03090 0.59460
C24 C 0.4848(5) -0.5738(7) 0.6240(6)
H21 H 0.44100 -0.61540 0.62090
C25 C 0.4810(5) -0.4528(6) 0.6253(6)
H22 H 0.43590 -0.41520 0.62460
C26 C 0.5451(4) -0.3879(6) 0.6277(6)
C27 C 0.6102(5) -0.4514(7) 0.6293(6)
H23 H 0.65470 -0.41210 0.63050
C28 C 0.6089(5) -0.5720(7) 0.6291(6)
H24 H 0.65320 -0.61190 0.63060
S1 S 0.32227(13) 0.17929(18) 0.65995(18)
Ag1* Ag 0.04784(4) -0.66756(5) 0.16224(5)
Ag2* Ag 0.54653(4) -0.82344(5) 0.64220(6)
N2* N 0.0438(4) 0.5245(6) 0.1418(5)
N4* N 0.5468(4) 0.3652(6) 0.6268(5)
#END
