
#######################################################################
#
#                 Cambridge Crystallographic Data Centre
#                                CCDC
#
#######################################################################
#
# If this CIF has been generated from an entry in the Cambridge
# Structural Database, then it will include bibliographic, chemical,
# crystal, experimental, refinement or atomic coordinate data resulting
# from the CCDC's data processing and validation procedures.
#
#######################################################################

data_CSD_CIF_KOLXAL
_audit_creation_date 2009-02-26
_audit_creation_method CSD-ConQuest-V1
_database_code_CSD KOLXAL
_database_code_depnum_ccdc_archive 'CCDC 668681'
_chemical_formula_sum 'C7 H5 Cd1 K1 N2 O4'
_chemical_formula_moiety
;
(C7 H5 Cd1 N2 O4 1-)n,n(K1 1+)
;
_journal_coden_Cambridge 1350
_journal_volume 10
_journal_year 2008
_journal_page_first 1662
_journal_name_full 'CrystEngComm '
loop_
_publ_author_name
"Shuang Wang"
"Lirong Zhang"
"Guanghua Li"
"Qisheng Huo"
"Yunling Liu"
_chemical_name_systematic
;
catena-(Potassium (\m~4~-2-ethylimidazole-4,5-dicarboxylato)-cadmium(ii))
;
_cell_volume   1755.464
_exptl_crystal_colour 'colorless'
_exptl_crystal_density_diffrn 2.517
_exptl_crystal_description 'block'
_diffrn_ambient_temperature 293
#These two values have been output from a single CSD field.
_refine_ls_R_factor_gt 0.0351
_refine_ls_wR_factor_gt 0.0351
_symmetry_cell_setting tetragonal
_symmetry_space_group_name_H-M 'P -4 21 c'
_symmetry_Int_Tables_number 114
loop_
_symmetry_equiv_pos_site_id
_symmetry_equiv_pos_as_xyz
1 x,y,z
2 -x,-y,z
3 y,-x,-z
4 -y,x,-z
5 1/2-x,1/2+y,1/2-z
6 1/2+x,1/2-y,1/2-z
7 1/2-y,1/2-x,1/2+z
8 1/2+y,1/2+x,1/2+z
_cell_length_a 16.0901(15)
_cell_length_b 16.0901(15)
_cell_length_c 6.7807(9)
_cell_angle_alpha 90
_cell_angle_beta 90
_cell_angle_gamma 90
_cell_formula_units_Z 8
loop_
_atom_type_symbol
_atom_type_radius_bond
C 0.68
H 0.23
Cd 1.69
K 1.33
N 0.68
O 0.68
loop_
_atom_site_label
_atom_site_type_symbol
_atom_site_fract_x
_atom_site_fract_y
_atom_site_fract_z
Cd1 Cd 0.82333(2) 0.23935(2) 0.51981(6)
K1 K 0.61936(8) 0.03252(8) 1.2790(2)
O1 O 0.7716(2) 0.2112(2) 0.8352(5)
O2 O 0.6886(2) 0.1251(2) 1.0059(7)
O3 O 0.6057(2) -0.0329(2) 0.9024(6)
O4 O 0.6834(3) -0.1373(2) 0.7892(6)
N1 N 0.7985(2) 0.0956(2) 0.5464(7)
N2 N 0.7581(2) -0.0376(2) 0.5191(7)
C1 C 0.7482(3) 0.0767(3) 0.7054(7)
C2 C 0.7225(3) -0.0056(3) 0.6874(7)
C3 C 0.8029(3) 0.0251(3) 0.4402(8)
C4 C 0.7338(3) 0.1403(3) 0.8620(8)
C5 C 0.6665(3) -0.0615(3) 0.8058(8)
C6 C 0.8493(5) 0.0124(4) 0.2501(10)
H1 H 0.88540 -0.03540 0.26510
H2 H 0.80940 -0.00060 0.14750
C7 C 0.9008(5) 0.0843(4) 0.1823(10)
H3 H 0.86620 0.13240 0.16790
H4 H 0.92590 0.07110 0.05770
H5 H 0.94350 0.09540 0.27770
Cd1G Cd 0.73935(2) 0.32333(2) 1.01981(6)
Cd1C Cd 0.76065(2) -0.17667(2) 0.48019(6)
Cd1D Cd 0.67667(2) -0.26065(2) 0.98019(6)
O1G O 0.7112(2) 0.2716(2) 0.3352(5)
O4B O 0.8627(3) 0.3166(2) 0.2108(6)
O4D O 0.8166(3) 0.3627(2) 0.7108(6)
N2B N 0.9624(2) 0.2419(2) 0.4809(7)
#END
