
#######################################################################
#
#                 Cambridge Crystallographic Data Centre
#                                CCDC
#
#######################################################################
#
# If this CIF has been generated from an entry in the Cambridge
# Structural Database, then it will include bibliographic, chemical,
# crystal, experimental, refinement or atomic coordinate data resulting
# from the CCDC's data processing and validation procedures.
#
#######################################################################

data_CSD_CIF_KOMHAX
_audit_creation_date 2014-07-04
_audit_creation_method CSD-ConQuest-V1
_database_code_CSD KOMHAX
_database_code_depnum_ccdc_archive 'CCDC 977163'
_chemical_formula_sum 'C24 H48 Co3 Er2 O42'
_chemical_formula_moiety
;
(C12 H12 Co1 Er1 O15 1-)2n,n(H12 Co1 O6 2+),6n(H2 O1)
;
_journal_coden_Cambridge 9
_journal_volume 53
_journal_year 2014
_journal_page_first 5922
_journal_name_full 'Inorg.Chem. '
loop_
_publ_author_name
"Xiao-feng Huang"
"Jing-xin Ma"
"Wei-sheng Liu"
_chemical_name_systematic
;
catena-[hexaaqua-cobalt bis(tris(\m-2,2'-oxydiacetato)-cobalt-erbium) 
hexahydrate]
;
_cell_volume  16656.005
_exptl_crystal_density_diffrn 2.396
_diffrn_ambient_temperature 296
#These two values have been output from a single CSD field.
_refine_ls_R_factor_gt 0.027
_refine_ls_wR_factor_gt 0.027
_symmetry_cell_setting cubic
_symmetry_space_group_name_H-M 'F d -3 c'
_symmetry_Int_Tables_number 228
loop_
_symmetry_equiv_pos_site_id
_symmetry_equiv_pos_as_xyz
1 x,y,z
2 1/4-x,3/4-y,1/2+z
3 3/4-x,1/2+y,1/4-z
4 1/2+x,1/4-y,3/4-z
5 z,x,y
6 1/2+z,1/4-x,3/4-y
7 1/4-z,3/4-x,1/2+y
8 3/4-z,1/2+x,1/4-y
9 y,z,x
10 3/4-y,1/2+z,1/4-x
11 1/2+y,1/4-z,3/4-x
12 1/4-y,3/4-z,1/2+x
13 3/4+y,1/4+x,-z
14 1/2-y,1/2-x,1/2-z
15 1/4+y,-x,3/4+z
16 -y,3/4+x,1/4+z
17 3/4+x,1/4+z,-y
18 -x,3/4+z,1/4+y
19 1/2-x,1/2-z,1/2-y
20 1/4+x,-z,3/4+y
21 3/4+z,1/4+y,-x
22 1/4+z,-y,3/4+x
23 -z,3/4+y,1/4+x
24 1/2-z,1/2-y,1/2-x
25 x,1/2+y,1/2+z
26 1/4-x,1/4-y,z
27 3/4-x,y,3/4-z
28 1/2+x,3/4-y,1/4-z
29 z,1/2+x,1/2+y
30 1/2+z,3/4-x,1/4-y
31 1/4-z,1/4-x,y
32 3/4-z,x,3/4-y
33 y,1/2+z,1/2+x
34 3/4-y,z,3/4-x
35 1/2+y,3/4-z,1/4-x
36 1/4-y,1/4-z,x
37 3/4+y,3/4+x,1/2-z
38 1/2-y,-x,-z
39 1/4+y,1/2-x,1/4+z
40 -y,1/4+x,3/4+z
41 3/4+x,3/4+z,1/2-y
42 -x,1/4+z,3/4+y
43 1/2-x,-z,-y
44 1/4+x,1/2-z,1/4+y
45 3/4+z,3/4+y,1/2-x
46 1/4+z,1/2-y,1/4+x
47 -z,1/4+y,3/4+x
48 1/2-z,-y,-x
49 1/2+x,y,1/2+z
50 3/4-x,3/4-y,z
51 1/4-x,1/2+y,3/4-z
52 x,1/4-y,1/4-z
53 1/2+z,x,1/2+y
54 z,1/4-x,1/4-y
55 3/4-z,3/4-x,y
56 1/4-z,1/2+x,3/4-y
57 1/2+y,z,1/2+x
58 1/4-y,1/2+z,3/4-x
59 y,1/4-z,1/4-x
60 3/4-y,3/4-z,x
61 1/4+y,1/4+x,1/2-z
62 -y,1/2-x,-z
63 3/4+y,-x,1/4+z
64 1/2-y,3/4+x,3/4+z
65 1/4+x,1/4+z,1/2-y
66 1/2-x,3/4+z,3/4+y
67 -x,1/2-z,-y
68 3/4+x,-z,1/4+y
69 1/4+z,1/4+y,1/2-x
70 3/4+z,-y,1/4+x
71 1/2-z,3/4+y,3/4+x
72 -z,1/2-y,-x
73 1/2+x,1/2+y,z
74 3/4-x,1/4-y,1/2+z
75 1/4-x,y,1/4-z
76 x,3/4-y,3/4-z
77 1/2+z,1/2+x,y
78 z,3/4-x,3/4-y
79 3/4-z,1/4-x,1/2+y
80 1/4-z,x,1/4-y
81 1/2+y,1/2+z,x
82 1/4-y,z,1/4-x
83 y,3/4-z,3/4-x
84 3/4-y,1/4-z,1/2+x
85 1/4+y,3/4+x,-z
86 -y,-x,1/2-z
87 3/4+y,1/2-x,3/4+z
88 1/2-y,1/4+x,1/4+z
89 1/4+x,3/4+z,-y
90 1/2-x,1/4+z,1/4+y
91 -x,-z,1/2-y
92 3/4+x,1/2-z,3/4+y
93 1/4+z,3/4+y,-x
94 3/4+z,1/2-y,3/4+x
95 1/2-z,1/4+y,1/4+x
96 -z,-y,1/2-x
97 -x,-y,-z
98 -1/4+x,-3/4+y,-1/2-z
99 -3/4+x,-1/2-y,-1/4+z
100 -1/2-x,-1/4+y,-3/4+z
101 -z,-x,-y
102 -1/2-z,-1/4+x,-3/4+y
103 -1/4+z,-3/4+x,-1/2-y
104 -3/4+z,-1/2-x,-1/4+y
105 -y,-z,-x
106 -3/4+y,-1/2-z,-1/4+x
107 -1/2-y,-1/4+z,-3/4+x
108 -1/4+y,-3/4+z,-1/2-x
109 -3/4-y,-1/4-x,z
110 -1/2+y,-1/2+x,-1/2+z
111 -1/4-y,x,-3/4-z
112 y,-3/4-x,-1/4-z
113 -3/4-x,-1/4-z,y
114 x,-3/4-z,-1/4-y
115 -1/2+x,-1/2+z,-1/2+y
116 -1/4-x,z,-3/4-y
117 -3/4-z,-1/4-y,x
118 -1/4-z,y,-3/4-x
119 z,-3/4-y,-1/4-x
120 -1/2+z,-1/2+y,-1/2+x
121 -x,-1/2-y,-1/2-z
122 -1/4+x,-1/4+y,-z
123 -3/4+x,-y,-3/4+z
124 -1/2-x,-3/4+y,-1/4+z
125 -z,-1/2-x,-1/2-y
126 -1/2-z,-3/4+x,-1/4+y
127 -1/4+z,-1/4+x,-y
128 -3/4+z,-x,-3/4+y
129 -y,-1/2-z,-1/2-x
130 -3/4+y,-z,-3/4+x
131 -1/2-y,-3/4+z,-1/4+x
132 -1/4+y,-1/4+z,-x
133 -3/4-y,-3/4-x,-1/2+z
134 -1/2+y,x,z
135 -1/4-y,-1/2+x,-1/4-z
136 y,-1/4-x,-3/4-z
137 -3/4-x,-3/4-z,-1/2+y
138 x,-1/4-z,-3/4-y
139 -1/2+x,z,y
140 -1/4-x,-1/2+z,-1/4-y
141 -3/4-z,-3/4-y,-1/2+x
142 -1/4-z,-1/2+y,-1/4-x
143 z,-1/4-y,-3/4-x
144 -1/2+z,y,x
145 -1/2-x,-y,-1/2-z
146 -3/4+x,-3/4+y,-z
147 -1/4+x,-1/2-y,-3/4+z
148 -x,-1/4+y,-1/4+z
149 -1/2-z,-x,-1/2-y
150 -z,-1/4+x,-1/4+y
151 -3/4+z,-3/4+x,-y
152 -1/4+z,-1/2-x,-3/4+y
153 -1/2-y,-z,-1/2-x
154 -1/4+y,-1/2-z,-3/4+x
155 -y,-1/4+z,-1/4+x
156 -3/4+y,-3/4+z,-x
157 -1/4-y,-1/4-x,-1/2+z
158 y,-1/2+x,z
159 -3/4-y,x,-1/4-z
160 -1/2+y,-3/4-x,-3/4-z
161 -1/4-x,-1/4-z,-1/2+y
162 -1/2+x,-3/4-z,-3/4-y
163 x,-1/2+z,y
164 -3/4-x,z,-1/4-y
165 -1/4-z,-1/4-y,-1/2+x
166 -3/4-z,y,-1/4-x
167 -1/2+z,-3/4-y,-3/4-x
168 z,-1/2+y,x
169 -1/2-x,-1/2-y,-z
170 -3/4+x,-1/4+y,-1/2-z
171 -1/4+x,-y,-1/4+z
172 -x,-3/4+y,-3/4+z
173 -1/2-z,-1/2-x,-y
174 -z,-3/4+x,-3/4+y
175 -3/4+z,-1/4+x,-1/2-y
176 -1/4+z,-x,-1/4+y
177 -1/2-y,-1/2-z,-x
178 -1/4+y,-z,-1/4+x
179 -y,-3/4+z,-3/4+x
180 -3/4+y,-1/4+z,-1/2-x
181 -1/4-y,-3/4-x,z
182 y,x,-1/2+z
183 -3/4-y,-1/2+x,-3/4-z
184 -1/2+y,-1/4-x,-1/4-z
185 -1/4-x,-3/4-z,y
186 -1/2+x,-1/4-z,-1/4-y
187 x,z,-1/2+y
188 -3/4-x,-1/2+z,-3/4-y
189 -1/4-z,-3/4-y,x
190 -3/4-z,-1/2+y,-3/4-x
191 -1/2+z,-1/4-y,-1/4-x
192 z,y,-1/2+x
_cell_length_a 25.5382(8)
_cell_length_b 25.5382(8)
_cell_length_c 25.5382(8)
_cell_angle_alpha 90
_cell_angle_beta 90
_cell_angle_gamma 90
_cell_formula_units_Z 16
loop_
_atom_type_symbol
_atom_type_radius_bond
C 0.68
H 0.23
Co 1.26
Er 1.89
O 0.68
loop_
_atom_site_label
_atom_site_type_symbol
_atom_site_fract_x
_atom_site_fract_y
_atom_site_fract_z
Er1 Er 0.50000 0.25000 0.50000
Co1 Co 0.50000 0.25000 0.25000
C1 C 0.49670(18) 0.24179(19) 0.37263(19)
C2 C 0.5549(2) 0.2474(2) 0.37935(19)
H1 H 0.57260 0.21780 0.36360
H2 H 0.56690 0.27900 0.36200
O1 O 0.56680(13) 0.25000 0.43320(13)
O2 O 0.46925(14) 0.24169(14) 0.41373(13)
O3 O 0.47785(14) 0.23669(14) 0.32806(14)
Co2 Co 0.62500 0.12500 0.12500
O4 O 0.62500 0.2064(2) 0.12500
H3 H 0.59520 0.21710 0.11980
O5 O 0.62500 0.3315(8) 0.12500
C1SB C 0.62737(18) 0.25821(19) 0.50330(19)
C2SB C 0.62065(20) 0.2526(2) 0.44510(19)
H1SB H 0.63640 0.28220 0.42740
H2SB H 0.63800 0.22100 0.43310
O2SB O 0.58627(14) 0.25831(14) 0.53075(13)
O3SB O 0.67194(14) 0.26331(14) 0.52215(14)
C1Q C 0.50330(18) 0.12263(19) 0.49179(19)
C2Q C 0.4451(2) 0.12935(20) 0.49740(19)
H1Q H 0.42740 0.11360 0.46780
H2Q H 0.43310 0.11200 0.52900
O1Q O 0.43320(13) 0.18320 0.50000(13)
O2Q O 0.53075(14) 0.16373(14) 0.49169(13)
O3Q O 0.52215(14) 0.07806(14) 0.48669(14)
C1YB C 0.37263(18) 0.25330(19) 0.50821(19)
C2YB C 0.37935(20) 0.1951(2) 0.50260(19)
H1YB H 0.36360 0.17740 0.53220
H2YB H 0.36200 0.18310 0.47100
O2YB O 0.41373(14) 0.28075(14) 0.50831(13)
O3YB O 0.32806(14) 0.27215(14) 0.51331(14)
C1GB C 0.50821(18) 0.37737(19) 0.49670(19)
C2GB C 0.5026(2) 0.37065(20) 0.55490(19)
H1GB H 0.53220 0.38640 0.57260
H2GB H 0.47100 0.38800 0.56690
O1GB O 0.50000(13) 0.31680 0.56680(13)
O2GB O 0.50831(14) 0.33627(14) 0.46925(13)
O3GB O 0.51331(14) 0.42194(14) 0.47785(14)
C1FC C 0.49179(18) 0.24670(19) 0.62737(19)
C2FC C 0.4974(2) 0.3049(2) 0.62065(19)
H1FC H 0.46780 0.32260 0.63640
H2FC H 0.52900 0.31690 0.63800
O2FC O 0.49169(14) 0.21925(14) 0.58627(13)
O3FC O 0.48669(14) 0.22785(14) 0.67194(14)
Co1H Co 0.25000 0.25000 0.50000
Co1O Co 0.75000 0.25000 0.50000
Co1Q Co 0.50000 0.00000 0.50000
Co1EA Co 0.50000 0.50000 0.50000
Co1SA Co 0.50000 0.25000 0.75000
O3GA O 0.51331(14) 0.32806(14) 0.27215(14)
O3BB O 0.42194(14) 0.27215(14) 0.23669(14)
O3AD O 0.48669(14) 0.17194(14) 0.22785(14)
O3PD O 0.52215(14) 0.26331(14) 0.17194(14)
O3RF O 0.57806(14) 0.22785(14) 0.26331(14)
H3VB H 0.65480 0.21710 0.13020
O4G O 0.62500 0.1250(2) 0.04360
H3G H 0.63020 0.09520 0.03290
H3CA H 0.61980 0.15480 0.03290
O4J O 0.70640 0.1250(2) 0.12500
H3J H 0.71710 0.13020 0.15480
H3DB H 0.71710 0.11980 0.09520
O4Y O 0.62500 0.0436(2) 0.12500
H3Y H 0.65480 0.03290 0.11980
H3YA H 0.59520 0.03290 0.13020
O4GA O 0.54360 0.1250(2) 0.12500
H3GA H 0.53290 0.11980 0.15480
H3EC H 0.53290 0.13020 0.09520
O4BB O 0.62500 0.1250(2) 0.20640
H3BB H 0.63020 0.15480 0.21710
H3XB H 0.61980 0.09520 0.21710
#END
