
#######################################################################
#
#                 Cambridge Crystallographic Data Centre
#                                CCDC
#
#######################################################################
#
# If this CIF has been generated from an entry in the Cambridge
# Structural Database, then it will include bibliographic, chemical,
# crystal, experimental, refinement or atomic coordinate data resulting
# from the CCDC's data processing and validation procedures.
#
#######################################################################

data_CSD_CIF_KONFUQ
_audit_creation_date 2014-07-04
_audit_creation_method CSD-ConQuest-V1
_database_code_CSD KONFUQ
_database_code_depnum_ccdc_archive 'CCDC 957580'
_chemical_formula_sum 'C8 H5 Ce1 K1 N4 O10.5 S2'
_chemical_formula_moiety
;
(C8 H2 Ce1 N4 O9 S2 1-)n,1.5n(H2 O1),n(K1 1+)
;
_journal_coden_Cambridge 1350
_journal_volume 16
_journal_year 2014
_journal_page_first 10181
_journal_name_full 'CrystEngComm '
loop_
_publ_author_name
"Tingting Zhao"
"Lirong Zhang"
"Dongmei Wang"
"Guanghua Li"
"Qisheng Huo"
"Yunling Liu"
_chemical_name_systematic
;
catena-(Potassium 
(\m~3~-1,2,5-thiadiazole-3,4-dicarboxylato)-(\m~2~-1,2,5-thiadiazole-3,4-dicar
boxylato)-aqua-cerium sesquihydrate)
;
_cell_volume   3115.540
_exptl_crystal_colour 'colorless'
_exptl_crystal_density_diffrn 2.424
_exptl_crystal_description 'block'
_diffrn_ambient_temperature 296
#These two values have been output from a single CSD field.
_refine_ls_R_factor_gt 0.0187
_refine_ls_wR_factor_gt 0.0187
_symmetry_cell_setting monoclinic
_symmetry_space_group_name_H-M 'C 2/c'
_symmetry_Int_Tables_number 15
loop_
_symmetry_equiv_pos_site_id
_symmetry_equiv_pos_as_xyz
1 x,y,z
2 -x,y,1/2-z
3 1/2+x,1/2+y,z
4 1/2-x,1/2+y,1/2-z
5 -x,-y,-z
6 x,-y,-1/2+z
7 -1/2-x,-1/2-y,-z
8 -1/2+x,-1/2-y,-1/2+z
_cell_length_a 18.1735(7)
_cell_length_b 8.3436(3)
_cell_length_c 20.5557(8)
_cell_angle_alpha 90
_cell_angle_beta 91.699(1)
_cell_angle_gamma 90
_cell_formula_units_Z 8
loop_
_atom_type_symbol
_atom_type_radius_bond
C 0.68
H 0.23
Ce 2.04
K 2.03
N 0.68
O 0.68
S 1.02
loop_
_atom_site_label
_atom_site_type_symbol
_atom_site_fract_x
_atom_site_fract_y
_atom_site_fract_z
Ce1 Ce 0.206832(7) 0.003757(15) 0.479582(7)
S1 S 0.15570(5) -0.45069(11) 0.21074(4)
S2 S -0.02373(5) -0.49953(8) 0.62728(4)
O1 O 0.13074(10) -0.1173(2) 0.37917(9)
O2 O 0.25096(10) -0.1563(2) 0.38610(9)
O3 O 0.28187(12) -0.5254(2) 0.40199(10)
O4 O 0.36577(12) -0.4413(3) 0.33264(11)
O5 O 0.10132(10) -0.1609(2) 0.52023(10)
O6 O 0.17698(10) -0.3538(2) 0.49359(9)
O7 O 0.18551(9) -0.6855(2) 0.52119(9)
O8 O 0.08743(9) -0.8347(2) 0.50245(10)
O9 O 0.19070(13) 0.1996(3) 0.38643(10)
H1 H 0.218(2) 0.299(3) 0.3836(19)
H2 H 0.162(2) 0.183(5) 0.3470(14)
N1 N 0.13426(13) -0.3077(3) 0.26139(11)
N2 N 0.22968(17) -0.5170(3) 0.24895(14)
N3 N 0.02211(12) -0.3545(3) 0.59557(11)
N4 N 0.01789(12) -0.6492(3) 0.59375(12)
C1 C 0.18547(13) -0.3071(3) 0.30811(12)
C2 C 0.23965(14) -0.4276(3) 0.30107(12)
C3 C 0.18819(14) -0.1838(3) 0.36088(12)
C4 C 0.30249(15) -0.4657(3) 0.34863(13)
C5 C 0.07287(13) -0.4177(3) 0.55804(12)
C6 C 0.07003(13) -0.5891(3) 0.55719(12)
C7 C 0.12110(13) -0.3033(3) 0.52127(12)
C8 C 0.11719(13) -0.7097(3) 0.52336(12)
K1 K 0.00432(4) -0.00316(7) 0.59912(4)
O10 O -0.08498(16) -0.1935(3) 0.71674(12)
H3 H -0.1161(17) -0.132(3) 0.7488(13)
H4 H -0.0534(14) -0.271(4) 0.7449(14)
O11 O 0.00000 0.0989(5) 0.75000
H5 H 0.0376(18) 0.178(4) 0.758(2)
Ce1* Ce 0.206832(7) -0.996243(15) 0.479582(7)
Ce1F Ce 0.293168(7) -0.503757(15) 0.520418(7)
O3F O 0.21813(12) 0.0254(2) 0.59801(10)
O6F O 0.32302(10) -0.1462(2) 0.50641(9)
O7* O 0.18551(9) 0.3145(2) 0.52119(9)
O7F O 0.31449(9) 0.1855(2) 0.47881(9)
O8* O 0.08743(9) 0.1653(2) 0.50245(10)
H5A H -0.0376(18) 0.178(4) 0.742(2)
#END
