
#######################################################################
#
#                 Cambridge Crystallographic Data Centre
#                                CCDC
#
#######################################################################
#
# If this CIF has been generated from an entry in the Cambridge
# Structural Database, then it will include bibliographic, chemical,
# crystal, experimental, refinement or atomic coordinate data resulting
# from the CCDC's data processing and validation procedures.
#
#######################################################################

data_CSD_CIF_KONFOK
_audit_creation_date 2014-07-04
_audit_creation_method CSD-ConQuest-V1
_database_code_CSD KONFOK
_database_code_depnum_ccdc_archive 'CCDC 957579'
_chemical_formula_sum 'C8 H5 K1 La1 N4 O10.5 S2'
_chemical_formula_moiety
;
(C8 H2 La1 N4 O9 S2 1-)n,1.5n(H2 O1),n(K1 1+)
;
_journal_coden_Cambridge 1350
_journal_volume 16
_journal_year 2014
_journal_page_first 10181
_journal_name_full 'CrystEngComm '
loop_
_publ_author_name
"Tingting Zhao"
"Lirong Zhang"
"Dongmei Wang"
"Guanghua Li"
"Qisheng Huo"
"Yunling Liu"
_chemical_name_systematic
;
catena-(Potassium 
(\m~3~-1,2,5-thiadiazole-3,4-dicarboxylato)-(\m~2~-1,2,5-thiadiazole-3,4-dicar
boxylato)-aqua-lanthanum sesquihydrate)
;
_cell_volume   3119.344
_exptl_crystal_colour 'colorless'
_exptl_crystal_density_diffrn 2.416
_exptl_crystal_description 'block'
_diffrn_ambient_temperature 296
#These two values have been output from a single CSD field.
_refine_ls_R_factor_gt 0.021
_refine_ls_wR_factor_gt 0.021
_symmetry_cell_setting monoclinic
_symmetry_space_group_name_H-M 'C 2/c'
_symmetry_Int_Tables_number 15
loop_
_symmetry_equiv_pos_site_id
_symmetry_equiv_pos_as_xyz
1 x,y,z
2 -x,y,1/2-z
3 1/2+x,1/2+y,z
4 1/2-x,1/2+y,1/2-z
5 -x,-y,-z
6 x,-y,-1/2+z
7 -1/2-x,-1/2-y,-z
8 -1/2+x,-1/2-y,-1/2+z
_cell_length_a 18.175(3)
_cell_length_b 8.3359(14)
_cell_length_c 20.600(4)
_cell_angle_alpha 90
_cell_angle_beta 91.868(3)
_cell_angle_gamma 90
_cell_formula_units_Z 8
loop_
_atom_type_symbol
_atom_type_radius_bond
C 0.68
H 0.23
K 2.03
La 2.07
N 0.68
O 0.68
S 1.02
loop_
_atom_site_label
_atom_site_type_symbol
_atom_site_fract_x
_atom_site_fract_y
_atom_site_fract_z
La1 La 0.206582(9) 0.002569(19) 0.479426(8)
S1 S 0.15595(6) -0.45248(13) 0.21038(5)
S2 S -0.02313(5) -0.50051(10) 0.62789(5)
O1 O 0.13052(12) -0.1194(3) 0.37817(11)
O2 O 0.25053(11) -0.1595(3) 0.38558(10)
O3 O 0.28223(14) -0.5261(3) 0.40126(12)
O4 O 0.36574(14) -0.4412(4) 0.33224(12)
O5 O 0.09919(12) -0.1602(2) 0.52012(11)
O6 O 0.17591(11) -0.3509(3) 0.49428(10)
O7 O 0.18465(11) -0.6849(2) 0.52055(11)
O8 O 0.08644(11) -0.8334(2) 0.50189(11)
O9 O 0.19044(15) 0.1997(3) 0.38565(12)
N1 N 0.13414(15) -0.3105(3) 0.26069(13)
N2 N 0.22998(18) -0.5183(3) 0.24867(15)
N3 N 0.02204(14) -0.3550(3) 0.59610(13)
N4 N 0.01826(14) -0.6494(3) 0.59410(14)
C1 C 0.18522(16) -0.3094(4) 0.30757(14)
C2 C 0.23977(17) -0.4287(4) 0.30050(15)
C3 C 0.18770(17) -0.1861(4) 0.36029(14)
C4 C 0.30269(19) -0.4659(4) 0.34820(16)
C5 C 0.07217(16) -0.4180(4) 0.55816(14)
C6 C 0.06993(16) -0.5890(4) 0.55736(15)
C7 C 0.11949(16) -0.3024(4) 0.52130(14)
C8 C 0.11661(16) -0.7093(4) 0.52294(15)
H1 H 0.220(2) 0.292(4) 0.383(2)
H2 H 0.160(2) 0.192(5) 0.3481(16)
K1 K 0.00423(4) -0.00249(8) 0.59942(4)
O10 O -0.08523(18) -0.1933(4) 0.71708(14)
H3 H -0.104(2) -0.118(3) 0.7416(14)
H4 H -0.0507(14) -0.250(4) 0.7378(14)
O11 O 0.00000 0.1003(5) 0.75000
H5 H -0.034(2) 0.179(4) 0.738(2)
La1* La 0.206582(9) -0.997431(19) 0.479426(8)
La1F La 0.293418(9) -0.502569(19) 0.520574(8)
O3F O 0.21777(14) 0.0261(3) 0.59874(12)
O6F O 0.32409(11) -0.1491(3) 0.50572(10)
O7* O 0.18465(11) 0.3151(2) 0.52055(11)
O7F O 0.31535(11) 0.1849(2) 0.47945(11)
O8* O 0.08644(11) 0.1666(2) 0.50189(11)
H5A H 0.034(2) 0.179(4) 0.762(2)
#END
