
#######################################################################
#
#                 Cambridge Crystallographic Data Centre
#                                CCDC
#
#######################################################################
#
# If this CIF has been generated from an entry in the Cambridge
# Structural Database, then it will include bibliographic, chemical,
# crystal, experimental, refinement or atomic coordinate data resulting
# from the CCDC's data processing and validation procedures.
#
#######################################################################

data_CSD_CIF_KONGAX
_audit_creation_date 2014-07-04
_audit_creation_method CSD-ConQuest-V1
_database_code_CSD KONGAX
_database_code_depnum_ccdc_archive 'CCDC 957581'
_chemical_formula_sum 'C8 H5 K1 N4 O10.5 Pr1 S2'
_chemical_formula_moiety
;
(C8 H2 N4 O9 Pr1 S2 1-)n,1.5n(H2 O1),n(K1 1+)
;
_journal_coden_Cambridge 1350
_journal_volume 16
_journal_year 2014
_journal_page_first 10181
_journal_name_full 'CrystEngComm '
loop_
_publ_author_name
"Tingting Zhao"
"Lirong Zhang"
"Dongmei Wang"
"Guanghua Li"
"Qisheng Huo"
"Yunling Liu"
_chemical_name_systematic
;
catena-(Potassium 
(\m~3~-1,2,5-thiadiazole-3,4-dicarboxylato)-(\m~2~-1,2,5-thiadiazole-3,4-dicar
boxylato)-aqua-praseodymium sesquihydrate)
;
_cell_volume   3106.057
_exptl_crystal_colour 'colorless'
_exptl_crystal_density_diffrn 2.435
_exptl_crystal_description 'block'
_diffrn_ambient_temperature 296
#These two values have been output from a single CSD field.
_refine_ls_R_factor_gt 0.0196
_refine_ls_wR_factor_gt 0.0196
_symmetry_cell_setting monoclinic
_symmetry_space_group_name_H-M 'C 2/c'
_symmetry_Int_Tables_number 15
loop_
_symmetry_equiv_pos_site_id
_symmetry_equiv_pos_as_xyz
1 x,y,z
2 -x,y,1/2-z
3 1/2+x,1/2+y,z
4 1/2-x,1/2+y,1/2-z
5 -x,-y,-z
6 x,-y,-1/2+z
7 -1/2-x,-1/2-y,-z
8 -1/2+x,-1/2-y,-1/2+z
_cell_length_a 18.1389(14)
_cell_length_b 8.3629(6)
_cell_length_c 20.4829(15)
_cell_angle_alpha 90
_cell_angle_beta 91.505(1)
_cell_angle_gamma 90
_cell_formula_units_Z 8
loop_
_atom_type_symbol
_atom_type_radius_bond
C 0.68
H 0.23
K 2.03
N 0.68
O 0.68
Pr 2.03
S 1.02
loop_
_atom_site_label
_atom_site_type_symbol
_atom_site_fract_x
_atom_site_fract_y
_atom_site_fract_z
Pr1 Pr 0.207137(9) 0.006298(18) 0.479599(8)
S1 S 0.15466(6) -0.44831(13) 0.21118(5)
S2 S -0.02442(5) -0.49862(10) 0.62711(5)
O1 O 0.13093(12) -0.1136(3) 0.38012(11)
O2 O 0.25161(12) -0.1542(3) 0.38693(10)
O3 O 0.28218(13) -0.5265(3) 0.40228(11)
O4 O 0.36572(14) -0.4394(4) 0.33255(12)
O5 O 0.10447(13) -0.1625(3) 0.52074(11)
O6 O 0.17754(12) -0.3595(3) 0.49250(11)
O7 O 0.18591(11) -0.6880(3) 0.52124(11)
O8 O 0.08706(12) -0.8361(2) 0.50226(11)
O9 O 0.19149(16) 0.1997(3) 0.38654(12)
N1 N 0.13378(15) -0.3046(3) 0.26174(13)
N2 N 0.22883(18) -0.5154(4) 0.24914(14)
N3 N 0.02258(15) -0.3543(3) 0.59530(13)
N4 N 0.01693(15) -0.6489(3) 0.59352(14)
C1 C 0.18559(17) -0.3048(4) 0.30887(15)
C2 C 0.23948(18) -0.4261(4) 0.30162(15)
C3 C 0.18857(17) -0.1811(4) 0.36180(15)
C4 C 0.30279(18) -0.4646(4) 0.34909(15)
C5 C 0.07319(16) -0.4187(4) 0.55755(14)
C6 C 0.06973(16) -0.5893(4) 0.55698(15)
C7 C 0.12221(17) -0.3063(4) 0.52078(14)
C8 C 0.11742(16) -0.7113(4) 0.52325(15)
H1 H 0.218(2) 0.294(4) 0.388(2)
H2 H 0.161(2) 0.191(5) 0.3499(17)
K1 K 0.00474(4) -0.00451(9) 0.59897(4)
O10 O -0.08534(18) -0.1956(4) 0.71620(14)
H3 H -0.105(2) -0.123(3) 0.7416(15)
H4 H -0.0512(14) -0.252(4) 0.7380(15)
O11 O 0.00000 0.0955(6) 0.75000
H5 H -0.039(2) 0.167(5) 0.745(3)
Pr1* Pr 0.207137(9) -0.993702(18) 0.479599(8)
Pr1F Pr 0.292863(9) -0.506298(18) 0.520401(8)
O3F O 0.21782(13) 0.0265(3) 0.59772(11)
O6F O 0.32246(12) -0.1405(3) 0.50750(11)
O7* O 0.18591(11) 0.3120(3) 0.52124(11)
O7F O 0.31409(11) 0.1880(3) 0.47876(11)
O8* O 0.08706(12) 0.1639(2) 0.50226(11)
H5A H 0.039(2) 0.167(5) 0.755(3)
#END
