
#######################################################################
#
#                 Cambridge Crystallographic Data Centre
#                                CCDC
#
#######################################################################
#
# If this CIF has been generated from an entry in the Cambridge
# Structural Database, then it will include bibliographic, chemical,
# crystal, experimental, refinement or atomic coordinate data resulting
# from the CCDC's data processing and validation procedures.
#
#######################################################################

data_CSD_CIF_KONGOL
_audit_creation_date 2014-07-04
_audit_creation_method CSD-ConQuest-V1
_database_code_CSD KONGOL
_database_code_depnum_ccdc_archive 'CCDC 957584'
_chemical_formula_sum 'C8 H5 Eu1 K1 N4 O10.5 S2'
_chemical_formula_moiety
;
(C8 H2 Eu1 N4 O9 S2 1-)n,1.5n(H2 O1),n(K1 1+)
;
_journal_coden_Cambridge 1350
_journal_volume 16
_journal_year 2014
_journal_page_first 10181
_journal_name_full 'CrystEngComm '
loop_
_publ_author_name
"Tingting Zhao"
"Lirong Zhang"
"Dongmei Wang"
"Guanghua Li"
"Qisheng Huo"
"Yunling Liu"
_chemical_name_systematic
;
catena-(Potassium 
(\m~3~-1,2,5-thiadiazole-3,4-dicarboxylato)-(\m~2~-1,2,5-thiadiazole-3,4-dicar
boxylato)-aqua-europium sesquihydrate)
;
_cell_volume   3069.965
_exptl_crystal_colour 'colorless'
_exptl_crystal_density_diffrn 2.511
_exptl_crystal_description 'block'
_diffrn_ambient_temperature 296
#These two values have been output from a single CSD field.
_refine_ls_R_factor_gt 0.0193
_refine_ls_wR_factor_gt 0.0193
_symmetry_cell_setting monoclinic
_symmetry_space_group_name_H-M 'C 2/c'
_symmetry_Int_Tables_number 15
loop_
_symmetry_equiv_pos_site_id
_symmetry_equiv_pos_as_xyz
1 x,y,z
2 -x,y,1/2-z
3 1/2+x,1/2+y,z
4 1/2-x,1/2+y,1/2-z
5 -x,-y,-z
6 x,-y,-1/2+z
7 -1/2-x,-1/2-y,-z
8 -1/2+x,-1/2-y,-1/2+z
_cell_length_a 18.017(7)
_cell_length_b 8.423(4)
_cell_length_c 20.231(8)
_cell_angle_alpha 90
_cell_angle_beta 90.709(6)
_cell_angle_gamma 90
_cell_formula_units_Z 8
loop_
_atom_type_symbol
_atom_type_radius_bond
C 0.68
H 0.23
Eu 1.98
K 2.03
N 0.68
O 0.68
S 1.02
loop_
_atom_site_label
_atom_site_type_symbol
_atom_site_fract_x
_atom_site_fract_y
_atom_site_fract_z
Eu1 Eu 0.207884(9) 0.014324(19) 0.480088(8)
S1 S 0.15209(6) -0.44203(14) 0.21296(5)
S2 S -0.02641(6) -0.49415(11) 0.62620(6)
O1 O 0.13143(12) -0.1046(3) 0.38246(12)
O2 O 0.25235(13) -0.1476(3) 0.38930(11)
O3 O 0.28325(14) -0.5310(3) 0.40253(12)
O4 O 0.36563(15) -0.4326(4) 0.33185(14)
O5 O 0.11448(14) -0.1679(3) 0.52137(12)
O6 O 0.18018(13) -0.3752(3) 0.48898(12)
O7 O 0.18672(12) -0.6925(3) 0.52209(12)
O8 O 0.08766(12) -0.8396(3) 0.50323(12)
O9 O 0.19311(16) 0.1993(3) 0.38749(13)
N1 N 0.13312(16) -0.2965(4) 0.26379(15)
N2 N 0.2261(2) -0.5117(4) 0.25051(17)
N3 N 0.02313(16) -0.3542(3) 0.59403(15)
N4 N 0.01469(16) -0.6461(3) 0.59292(15)
C1 C 0.18526(18) -0.2973(4) 0.31052(16)
C2 C 0.23846(19) -0.4214(4) 0.30304(16)
C3 C 0.18893(19) -0.1735(4) 0.36398(17)
C4 C 0.3025(2) -0.4625(4) 0.34933(18)
C5 C 0.07475(17) -0.4202(4) 0.55677(16)
C6 C 0.06959(17) -0.5903(4) 0.55644(16)
C7 C 0.12780(18) -0.3130(4) 0.51973(17)
C8 C 0.11751(18) -0.7142(4) 0.52396(17)
H1 H 0.220(2) 0.295(4) 0.383(2)
H2 H 0.159(2) 0.189(6) 0.3529(19)
K1 K 0.00603(5) -0.00826(9) 0.59919(5)
O10 O -0.08455(19) -0.1992(4) 0.71438(14)
H3 H -0.105(2) -0.138(3) 0.7455(15)
H4 H -0.0554(16) -0.271(4) 0.7362(17)
O11 O 0.00000 0.0886(6) 0.75000
H5 H -0.039(2) 0.159(5) 0.743(3)
Eu1* Eu 0.207884(9) -0.985676(19) 0.480088(8)
Eu1F Eu 0.292116(9) -0.514324(19) 0.519912(8)
O3F O 0.21675(14) 0.0310(3) 0.59747(12)
O6F O 0.31982(13) -0.1248(3) 0.51102(12)
O7* O 0.18672(12) 0.3075(3) 0.52209(12)
O7F O 0.31328(12) 0.1925(3) 0.47791(12)
O8* O 0.08766(12) 0.1604(3) 0.50323(12)
H5A H 0.039(2) 0.159(5) 0.757(3)
#END
