
#######################################################################
#
#                 Cambridge Crystallographic Data Centre
#                                CCDC
#
#######################################################################
#
# If this CIF has been generated from an entry in the Cambridge
# Structural Database, then it will include bibliographic, chemical,
# crystal, experimental, refinement or atomic coordinate data resulting
# from the CCDC's data processing and validation procedures.
#
#######################################################################

data_CSD_CIF_KONGIF
_audit_creation_date 2014-07-04
_audit_creation_method CSD-ConQuest-V1
_database_code_CSD KONGIF
_database_code_depnum_ccdc_archive 'CCDC 957583'
_chemical_formula_sum 'C8 H5 K1 N4 O10.5 S2 Sm1'
_chemical_formula_moiety
;
(C8 H2 N4 O9 S2 Sm1 1-)n,1.5n(H2 O1),n(K1 1+)
;
_journal_coden_Cambridge 1350
_journal_volume 16
_journal_year 2014
_journal_page_first 10181
_journal_name_full 'CrystEngComm '
loop_
_publ_author_name
"Tingting Zhao"
"Lirong Zhang"
"Dongmei Wang"
"Guanghua Li"
"Qisheng Huo"
"Yunling Liu"
_chemical_name_systematic
;
catena-(Potassium 
(\m~3~-1,2,5-thiadiazole-3,4-dicarboxylato)-(\m~2~-1,2,5-thiadiazole-3,4-dicar
boxylato)-aqua-samarium sesquihydrate)
;
_cell_volume   3061.279
_exptl_crystal_colour 'colorless'
_exptl_crystal_density_diffrn 2.511
_exptl_crystal_description 'block'
_diffrn_ambient_temperature 296
#These two values have been output from a single CSD field.
_refine_ls_R_factor_gt 0.028
_refine_ls_wR_factor_gt 0.028
_symmetry_cell_setting monoclinic
_symmetry_space_group_name_H-M 'C 2/c'
_symmetry_Int_Tables_number 15
loop_
_symmetry_equiv_pos_site_id
_symmetry_equiv_pos_as_xyz
1 x,y,z
2 -x,y,1/2-z
3 1/2+x,1/2+y,z
4 1/2-x,1/2+y,1/2-z
5 -x,-y,-z
6 x,-y,-1/2+z
7 -1/2-x,-1/2-y,-z
8 -1/2+x,-1/2-y,-1/2+z
_cell_length_a 18.0310(18)
_cell_length_b 8.3836(8)
_cell_length_c 20.254(2)
_cell_angle_alpha 90
_cell_angle_beta 90.938(1)
_cell_angle_gamma 90
_cell_formula_units_Z 8
loop_
_atom_type_symbol
_atom_type_radius_bond
C 0.68
H 0.23
K 2.03
N 0.68
O 0.68
S 1.02
Sm 1.98
loop_
_atom_site_label
_atom_site_type_symbol
_atom_site_fract_x
_atom_site_fract_y
_atom_site_fract_z
Sm1 Sm 0.207743(15) 0.01247(3) 0.479983(13)
S1 S 0.1528(1) -0.4431(2) 0.21253(8)
S2 S -0.02607(9) -0.4955(2) 0.62637(8)
O1 O 0.1317(2) -0.1068(5) 0.3822(2)
O2 O 0.2523(2) -0.1486(5) 0.3887(2)
O3 O 0.2831(2) -0.5292(5) 0.40248(19)
O4 O 0.3657(2) -0.4341(7) 0.3320(2)
O5 O 0.1123(2) -0.1664(5) 0.5215(2)
O6 O 0.1792(2) -0.3722(5) 0.4898(2)
O7 O 0.1870(2) -0.6919(5) 0.5221(2)
O8 O 0.0870(2) -0.8395(4) 0.5032(2)
O9 O 0.1930(3) 0.1992(5) 0.3873(2)
N1 N 0.1331(3) -0.2984(6) 0.2634(3)
N2 N 0.2270(3) -0.5124(7) 0.2503(3)
N3 N 0.0231(3) -0.3541(6) 0.5947(3)
N4 N 0.0149(3) -0.6474(6) 0.5930(3)
C1 C 0.1859(3) -0.2988(7) 0.3103(3)
C2 C 0.2391(3) -0.4227(7) 0.3026(3)
C3 C 0.1890(3) -0.1746(7) 0.3637(3)
C4 C 0.3027(3) -0.4633(7) 0.3492(3)
C5 C 0.0745(3) -0.4199(7) 0.5571(3)
C6 C 0.0693(3) -0.5903(6) 0.5564(3)
C7 C 0.1269(3) -0.3118(7) 0.5200(3)
C8 C 0.1175(3) -0.7131(6) 0.5238(3)
H1 H 0.215(5) 0.302(5) 0.391(4)
H2 H 0.162(4) 0.195(9) 0.350(3)
K1 K 0.00562(7) -0.00756(17) 0.59919(8)
O10 O -0.0852(3) -0.1988(7) 0.7147(3)
H3 H -0.105(4) -0.128(3) 0.743(2)
H4 H -0.054(2) -0.266(7) 0.736(3)
O11 O 0.00000 0.0903(11) 0.75000
H5 H -0.040(4) 0.158(9) 0.741(5)
Sm1* Sm 0.207743(15) -0.98753(3) 0.479983(13)
Sm1F Sm 0.292257(15) -0.51247(3) 0.520017(13)
O3F O 0.2169(2) 0.0292(5) 0.59752(19)
O6F O 0.3208(2) -0.1278(5) 0.5102(2)
O7* O 0.1870(2) 0.3081(5) 0.5221(2)
O7F O 0.3130(2) 0.1919(5) 0.4779(2)
O8* O 0.0870(2) 0.1605(4) 0.5032(2)
H5A H 0.040(4) 0.158(9) 0.759(5)
#END
