
#######################################################################
#
#                 Cambridge Crystallographic Data Centre
#                                CCDC
#
#######################################################################
#
# If this CIF has been generated from an entry in the Cambridge
# Structural Database, then it will include bibliographic, chemical,
# crystal, experimental, refinement or atomic coordinate data resulting
# from the CCDC's data processing and validation procedures.
#
#######################################################################

data_CSD_CIF_KONGEB
_audit_creation_date 2014-07-04
_audit_creation_method CSD-ConQuest-V1
_database_code_CSD KONGEB
_database_code_depnum_ccdc_archive 'CCDC 957582'
_chemical_formula_sum 'C8 H5 K1 N4 Nd1 O10.5 S2'
_chemical_formula_moiety
;
(C8 H2 N4 Nd1 O9 S2 1-)n,1.5n(H2 O1),n(K1 1+)
;
_journal_coden_Cambridge 1350
_journal_volume 16
_journal_year 2014
_journal_page_first 10181
_journal_name_full 'CrystEngComm '
loop_
_publ_author_name
"Tingting Zhao"
"Lirong Zhang"
"Dongmei Wang"
"Guanghua Li"
"Qisheng Huo"
"Yunling Liu"
_chemical_name_systematic
;
catena-(Potassium 
(\m~3~-1,2,5-thiadiazole-3,4-dicarboxylato)-(\m~2~-1,2,5-thiadiazole-3,4-dicar
boxylato)-aqua-neodymium sesquihydrate)
;
_cell_volume   3082.054
_exptl_crystal_colour 'colorless'
_exptl_crystal_density_diffrn 2.468
_exptl_crystal_description 'block'
_diffrn_ambient_temperature 293
#These two values have been output from a single CSD field.
_refine_ls_R_factor_gt 0.0227
_refine_ls_wR_factor_gt 0.0227
_symmetry_cell_setting monoclinic
_symmetry_space_group_name_H-M 'C 2/c'
_symmetry_Int_Tables_number 15
loop_
_symmetry_equiv_pos_site_id
_symmetry_equiv_pos_as_xyz
1 x,y,z
2 -x,y,1/2-z
3 1/2+x,1/2+y,z
4 1/2-x,1/2+y,1/2-z
5 -x,-y,-z
6 x,-y,-1/2+z
7 -1/2-x,-1/2-y,-z
8 -1/2+x,-1/2-y,-1/2+z
_cell_length_a 18.077(4)
_cell_length_b 8.3675(17)
_cell_length_c 20.380(4)
_cell_angle_alpha 90
_cell_angle_beta 91.14(3)
_cell_angle_gamma 90
_cell_formula_units_Z 8
loop_
_atom_type_symbol
_atom_type_radius_bond
C 0.68
H 0.23
K 2.03
N 0.68
Nd 2.01
O 0.68
S 1.02
loop_
_atom_site_label
_atom_site_type_symbol
_atom_site_fract_x
_atom_site_fract_y
_atom_site_fract_z
Nd1 Nd 0.207443(8) 0.008762(17) 0.479673(7)
S1 S 0.15383(5) -0.44626(11) 0.21171(4)
S2 S -0.02515(5) -0.49768(9) 0.62688(4)
O1 O 0.13123(11) -0.1108(2) 0.3810(1)
O2 O 0.25214(11) -0.1525(2) 0.38743(10)
O3 O 0.28239(12) -0.5276(2) 0.40225(10)
O4 O 0.36562(13) -0.4372(4) 0.33182(11)
O5 O 0.10752(12) -0.1636(2) 0.52132(11)
O6 O 0.17828(11) -0.3643(3) 0.49114(10)
O7 O 0.18593(11) -0.6898(2) 0.52137(10)
O8 O 0.08700(11) -0.8371(2) 0.50239(10)
O9 O 0.19207(15) 0.1994(3) 0.38681(11)
N1 N 0.13369(15) -0.3028(3) 0.26251(13)
N2 N 0.22778(16) -0.5148(3) 0.24951(13)
N3 N 0.02261(14) -0.3541(3) 0.59503(12)
N4 N 0.01607(14) -0.6483(3) 0.59335(13)
C1 C 0.18506(16) -0.3024(3) 0.30942(14)
C2 C 0.23931(17) -0.4245(3) 0.30219(14)
C3 C 0.18891(17) -0.1792(3) 0.36223(14)
C4 C 0.30227(16) -0.4643(3) 0.34867(14)
C5 C 0.07373(15) -0.4194(3) 0.55745(13)
C6 C 0.06947(15) -0.5906(3) 0.55690(14)
C7 C 0.12398(16) -0.3081(3) 0.52060(14)
C8 C 0.11723(15) -0.7120(3) 0.52324(14)
H1 H 0.217(2) 0.298(4) 0.387(2)
H2 H 0.159(2) 0.192(5) 0.3511(17)
K1 K 0.00508(4) -0.00572(8) 0.59909(4)
O10 O -0.08548(17) -0.1975(4) 0.71587(14)
H3 H -0.0358(11) -0.202(6) 0.709(2)
H4 H -0.113(2) -0.171(6) 0.7522(16)
O11 O 0.00000 0.0923(5) 0.75000
H5 H -0.0394(19) 0.161(5) 0.753(3)
Nd1* Nd 0.207443(8) -0.991238(17) 0.479673(7)
Nd1F Nd 0.292557(8) -0.508762(17) 0.520327(7)
O3F O 0.21761(12) 0.0276(2) 0.59775(10)
O6F O 0.32172(11) -0.1357(3) 0.50886(10)
O7* O 0.18593(11) 0.3102(2) 0.52137(10)
O7F O 0.31407(11) 0.1898(2) 0.47863(10)
O8* O 0.08700(11) 0.1629(2) 0.50239(10)
H5A H 0.0394(19) 0.161(5) 0.747(3)
#END
