
#######################################################################
#
#                 Cambridge Crystallographic Data Centre
#                                CCDC
#
#######################################################################
#
# If this CIF has been generated from an entry in the Cambridge
# Structural Database, then it will include bibliographic, chemical,
# crystal, experimental, refinement or atomic coordinate data resulting
# from the CCDC's data processing and validation procedures.
#
#######################################################################

data_CSD_CIF_KONHAY
_audit_creation_date 2014-07-04
_audit_creation_method CSD-ConQuest-V1
_database_code_CSD KONHAY
_database_code_depnum_ccdc_archive 'CCDC 957586'
_chemical_formula_sum 'C8 H5 K1 N4 O10.5 S2 Tb1'
_chemical_formula_moiety
;
(C8 H2 N4 O9 S2 Tb1 1-)n,1.5n(H2 O1),n(K1 1+)
;
_journal_coden_Cambridge 1350
_journal_volume 16
_journal_year 2014
_journal_page_first 10181
_journal_name_full 'CrystEngComm '
loop_
_publ_author_name
"Tingting Zhao"
"Lirong Zhang"
"Dongmei Wang"
"Guanghua Li"
"Qisheng Huo"
"Yunling Liu"
_chemical_name_systematic
;
catena-(Potassium 
(\m~3~-1,2,5-thiadiazole-3,4-dicarboxylato)-(\m~2~-1,2,5-thiadiazole-3,4-dicar
boxylato)-aqua-terbium sesquihydrate)
;
_cell_volume   3041.328
_exptl_crystal_colour 'colorless'
_exptl_crystal_density_diffrn 2.565
_exptl_crystal_description 'block'
_diffrn_ambient_temperature 296
#These two values have been output from a single CSD field.
_refine_ls_R_factor_gt 0.019
_refine_ls_wR_factor_gt 0.019
_symmetry_cell_setting monoclinic
_symmetry_space_group_name_H-M 'C 2/c'
_symmetry_Int_Tables_number 15
loop_
_symmetry_equiv_pos_site_id
_symmetry_equiv_pos_as_xyz
1 x,y,z
2 -x,y,1/2-z
3 1/2+x,1/2+y,z
4 1/2-x,1/2+y,1/2-z
5 -x,-y,-z
6 x,-y,-1/2+z
7 -1/2-x,-1/2-y,-z
8 -1/2+x,-1/2-y,-1/2+z
_cell_length_a 17.9851(18)
_cell_length_b 8.4100(8)
_cell_length_c 20.1083(19)
_cell_angle_alpha 90
_cell_angle_beta 90.563(2)
_cell_angle_gamma 90
_cell_formula_units_Z 8
loop_
_atom_type_symbol
_atom_type_radius_bond
C 0.68
H 0.23
K 2.03
N 0.68
O 0.68
S 1.02
Tb 1.94
loop_
_atom_site_label
_atom_site_type_symbol
_atom_site_fract_x
_atom_site_fract_y
_atom_site_fract_z
Tb1 Tb 0.208050(8) 0.016858(17) 0.480321(7)
S1 S 0.15157(6) -0.44077(13) 0.21356(5)
S2 S -0.02666(5) -0.49195(10) 0.62569(5)
O1 O 0.13114(12) -0.1012(3) 0.38308(12)
O2 O 0.25208(12) -0.1445(3) 0.39039(11)
O3 O 0.28383(14) -0.5323(3) 0.40274(12)
O4 O 0.36547(14) -0.4294(4) 0.33191(14)
O5 O 0.11795(13) -0.1689(3) 0.52119(12)
O6 O 0.18168(12) -0.3795(3) 0.48796(11)
O7 O 0.18731(11) -0.6931(3) 0.52262(11)
O8 O 0.08843(12) -0.8404(2) 0.50364(12)
O9 O 0.19350(15) 0.1986(3) 0.38805(12)
N1 N 0.13298(16) -0.2950(4) 0.26443(14)
N2 N 0.2256(2) -0.5107(4) 0.25149(18)
N3 N 0.02388(15) -0.3523(3) 0.59348(14)
N4 N 0.01421(16) -0.6449(3) 0.59239(15)
C1 C 0.18483(17) -0.2953(4) 0.31140(16)
C2 C 0.23798(18) -0.4203(4) 0.30350(16)
C3 C 0.18871(18) -0.1707(4) 0.36455(16)
C4 C 0.30233(19) -0.4611(4) 0.34967(17)
C5 C 0.07563(17) -0.4205(4) 0.55635(16)
C6 C 0.06971(17) -0.5907(4) 0.55605(16)
C7 C 0.12979(17) -0.3144(4) 0.51901(16)
C8 C 0.11794(17) -0.7143(4) 0.52377(16)
H1 H 0.221(2) 0.292(4) 0.388(2)
H2 H 0.160(2) 0.193(6) 0.3525(18)
K1 K 0.00670(5) -0.00866(9) 0.59915(5)
O10 O -0.08470(19) -0.1998(4) 0.71376(15)
H3 H -0.103(2) -0.134(3) 0.7448(15)
H4 H -0.0550(17) -0.272(4) 0.7339(18)
O11 O 0.00000 0.0871(6) 0.75000
H5 H -0.039(2) 0.160(5) 0.744(3)
Tb1* Tb 0.208050(8) -0.983142(17) 0.480321(7)
Tb1F Tb 0.291950(8) -0.516858(17) 0.519679(7)
O3F O 0.21617(14) 0.0323(3) 0.59726(12)
O6F O 0.31832(12) -0.1205(3) 0.51204(11)
O7* O 0.18731(11) 0.3069(3) 0.52262(11)
O7F O 0.31269(11) 0.1931(3) 0.47738(11)
O8* O 0.08843(12) 0.1596(2) 0.50364(12)
H5A H 0.039(2) 0.160(5) 0.756(3)
#END
