
#######################################################################
#
#                 Cambridge Crystallographic Data Centre
#                                CCDC
#
#######################################################################
#
# If this CIF has been generated from an entry in the Cambridge
# Structural Database, then it will include bibliographic, chemical,
# crystal, experimental, refinement or atomic coordinate data resulting
# from the CCDC's data processing and validation procedures.
#
#######################################################################

data_CSD_CIF_KOQHUV01
_audit_creation_date 2015-01-27
_audit_creation_method CSD-ConQuest-V1
_database_code_CSD KOQHUV01
_database_code_depnum_ccdc_archive 'CCDC 980624'
_chemical_formula_sum 'C30 H26 Cu2 N6 O40 Si1 W12'
_chemical_formula_moiety
;
(C20 H16 Cu2 N4 O40 Si1 W12 2-)n,C10 H10 N2 2+
;
_journal_coden_Cambridge 211
_journal_volume 68
_journal_year 2015
_journal_page_first 398
_journal_name_full 'J.Coord.Chem. '
loop_
_publ_author_name
"Ya-Bing Liu"
"La-Mei Wang"
"Li-Na Xiao"
"Yang-Yang Hu"
"De-Chuan Zhao"
"Hai-Yang Guo"
"Peng Yu"
"Li-Wei Fu"
"Xiao-Bing Cui"
"Ji-Qing Xu"
_chemical_name_systematic
;
catena-[4,4'-bipyridinium 
(\m~12~-silicato)-bis(\m-oxo)-bis(\m-4,4'-bipyridine)-tetracosakis(\m-oxo)-dec
aoxo-di-copper-dodeca-tungsten]
;
_cell_volume   1395.009
_exptl_crystal_density_diffrn 4.133
_diffrn_ambient_temperature 293
_refine_special_details
;
C11,C12,C13,C14,C15,C16,C17,C19,N3A,N3B disordered by symmetry over two 
configurations with occupancy 0.50; O1,O2,O3,O4 disordered by symmetry over 
two configurations with occupancy 0.50.
;
#These two values have been output from a single CSD field.
_refine_ls_R_factor_gt 0.0556
_refine_ls_wR_factor_gt 0.0556
_symmetry_cell_setting triclinic
_symmetry_space_group_name_H-M 'P -1'
_symmetry_Int_Tables_number 2
loop_
_symmetry_equiv_pos_site_id
_symmetry_equiv_pos_as_xyz
1 x,y,z
2 -x,-y,-z
_cell_length_a 10.845(2)
_cell_length_b 11.838(2)
_cell_length_c 13.355(3)
_cell_angle_alpha 104.33(3)
_cell_angle_beta 103.07(3)
_cell_angle_gamma 114.98(3)
_cell_formula_units_Z 1
loop_
_atom_type_symbol
_atom_type_radius_bond
C 0.68
H 0.23
Cu 1.32
N 0.68
O 0.68
Si 1.20
W 1.62
loop_
_atom_site_label
_atom_site_type_symbol
_atom_site_fract_x
_atom_site_fract_y
_atom_site_fract_z
W1 W 1.10990(7) 0.85834(7) 0.79692(6)
W2 W 1.37542(7) 1.10556(7) 1.06123(5)
W3 W 1.12816(7) 0.77713(7) 1.03310(6)
W4 W 0.73562(8) 0.75605(7) 0.73645(6)
W5 W 0.75208(8) 0.67113(7) 0.97350(6)
W6 W 1.01854(8) 0.91858(8) 1.23773(7)
Si1 Si 1.00000 1.00000 1.00000
O1 O 0.985(2) 0.880(2) 1.044(2)
O2 O 0.9686(19) 0.9410(18) 0.8630(15)
O3 O 1.1727(18) 1.1266(16) 1.0647(14)
O4 O 1.1120(19) 0.9536(17) 0.9846(15)
O5 O 0.708(2) 0.6448(19) 0.8173(16)
O6 O 1.0860(16) 0.9867(18) 0.746(2)
O7 O 0.629(3) 0.749(2) 0.9733(15)
O8 O 0.8075(17) 0.9114(17) 0.703(2)
O9 O 1.5558(13) 1.1584(16) 1.0932(14)
O10 O 1.186(2) 0.6736(15) 1.0503(13)
O11 O 0.6066(13) 0.6366(13) 0.6094(10)
O12 O 1.1630(17) 0.7928(15) 0.6986(11)
O13 O 1.1062(16) 0.7562(14) 0.884(1)
O14 O 1.3070(17) 0.9404(14) 1.0812(11)
O15 O 0.6368(16) 0.5140(13) 0.9578(15)
O16 O 1.0322(17) 0.8839(17) 1.3515(13)
O17 O 0.9202(15) 0.661(2) 0.9772(12)
O18 O 1.2915(17) 1.0025(15) 0.9062(11)
O19 O 0.9016(15) 0.7454(17) 0.728(2)
O20 O 0.8366(17) 0.763(2) 1.1302(14)
O21 O 1.382(3) 1.188(2) 1.2045(13)
O22 O 1.1193(16) 0.843(2) 1.1754(12)
Cu1 Cu 0.4979(3) 0.4101(3) 0.6412(4)
N1 N 0.3239(17) 0.4101(18) 0.6472(18)
N2 N -0.3372(17) 0.3934(18) 0.6354(17)
C1 C 0.204(2) 0.335(2) 0.558(2)
H1 H 0.20560 0.27950 0.49660
C2 C 0.072(2) 0.333(2) 0.5500(15)
H2 H -0.01040 0.28090 0.48380
C3 C 0.0670(16) 0.4118(17) 0.6446(14)
C4 C -0.0711(17) 0.4089(17) 0.6452(15)
C5 C -0.171(2) 0.387(2) 0.5456(16)
H3 H -0.15050 0.37990 0.48120
C6 C -0.304(2) 0.378(2) 0.547(2)
H4 H -0.37300 0.35840 0.47990
C7 C -0.241(2) 0.4091(19) 0.7268(19)
H5 H -0.26660 0.41070 0.78880
C8 C -0.107(2) 0.423(2) 0.7368(16)
H6 H -0.04070 0.44190 0.80520
C9 C 0.194(2) 0.487(2) 0.737(2)
H7 H 0.19440 0.54140 0.80150
C10 C 0.321(2) 0.486(3) 0.739(2)
H8 H 0.40500 0.53770 0.80430
N3 N 0.600(3) 0.797(3) 0.2034(19)
C11 C 0.696(3) 0.840(4) 0.311(2)
C12 C 0.671(3) 0.900(4) 0.4019(17)
C13 C 0.550(3) 0.919(3) 0.3843(19)
C14 C 0.455(3) 0.876(4) 0.276(2)
C15 C 0.480(3) 0.815(4) 0.1858(17)
C16 C 0.587(5) 0.984(5) 0.564(4)
C17 C 0.499(4) 0.969(4) 0.477(3)
N4? N 0.588(5) 0.942(4) 0.352(4)
C18? C 0.491(6) 0.979(5) 0.333(5)
C19? C 0.655(5) 0.954(4) 0.459(4)
O1A O 1.015(2) 1.120(2) 0.956(2)
O2A O 1.0314(19) 1.0590(18) 1.1370(15)
O3A O 0.8273(18) 0.8734(16) 0.9353(14)
O4A O 0.8880(19) 1.0464(17) 1.0154(15)
W1A W 0.89010(7) 1.14166(7) 1.20308(6)
W2A W 0.62458(7) 0.89444(7) 0.93877(5)
W3A W 0.87184(7) 1.22287(7) 0.96690(6)
W4A W 1.26438(8) 1.24395(7) 1.26355(6)
W5A W 1.24792(8) 1.32887(7) 1.02650(6)
W6A W 0.98146(8) 1.08142(8) 0.76227(7)
O5A O 1.292(2) 1.3552(19) 1.1827(16)
O6A O 0.9140(16) 1.0133(18) 1.254(2)
O7A O 1.371(3) 1.251(2) 1.0267(15)
O8A O 1.1925(17) 1.0886(17) 1.297(2)
O9A O 0.4442(13) 0.8416(16) 0.9068(14)
O10A O 0.814(2) 1.3264(15) 0.9497(13)
O11A O 1.3934(13) 1.3634(13) 1.3906(10)
O12A O 0.8370(17) 1.2072(15) 1.3014(11)
O13A O 0.8938(16) 1.2438(14) 1.116(1)
O14A O 0.6930(17) 1.0596(14) 0.9188(11)
O15A O 1.3632(16) 1.4860(13) 1.0422(15)
O16A O 0.9678(17) 1.1161(17) 0.6485(13)
O17A O 1.0798(15) 1.339(2) 1.0228(12)
O18A O 0.7085(17) 0.9975(15) 1.0938(11)
O19A O 1.0984(15) 1.2546(17) 1.272(2)
O20A O 1.1634(17) 1.237(2) 0.8698(14)
O21A O 0.618(3) 0.812(2) 0.7955(13)
O22A O 0.8807(16) 1.157(2) 0.8246(12)
Cu1A Cu 1.5021(3) 1.5899(3) 1.3588(4)
N1A N 1.6761(17) 1.5899(18) 1.3528(18)
N2A N 2.3372(17) 1.6066(18) 1.3646(17)
C1A C 1.796(2) 1.665(2) 1.442(2)
H1A H 1.79440 1.72050 1.50340
C2A C 1.928(2) 1.667(2) 1.4500(15)
H2A H 2.01040 1.71910 1.51620
C3A C 1.9330(16) 1.5882(17) 1.3554(14)
C4A C 2.0711(17) 1.5911(17) 1.3548(15)
C5A C 2.171(2) 1.613(2) 1.4544(16)
H3A H 2.15050 1.62010 1.51880
C6A C 2.304(2) 1.622(2) 1.453(2)
H4A H 2.37300 1.64160 1.52010
C7A C 2.241(2) 1.5909(19) 1.2732(19)
H5A H 2.26660 1.58930 1.21120
C8A C 2.107(2) 1.577(2) 1.2632(16)
H6A H 2.04070 1.55810 1.19480
C9A C 1.806(2) 1.513(2) 1.263(2)
H7A H 1.80560 1.45860 1.19850
C10A C 1.679(2) 1.514(3) 1.261(2)
H8A H 1.59500 1.46230 1.19570
Cu1* Cu -0.5021(3) 0.4101(3) 0.6412(4)
Cu1A* Cu 2.5021(3) 1.5899(3) 1.3588(4)
N2* N 0.6628(17) 0.3934(18) 0.6354(17)
N2A* N 1.3372(17) 1.6066(18) 1.3646(17)
N3A N 0.400(3) 1.203(3) 0.7966(19)
C11A C 0.304(3) 1.160(4) 0.689(2)
C12A C 0.329(3) 1.100(4) 0.5981(17)
C13A C 0.450(3) 1.081(3) 0.6157(19)
C14A C 0.545(3) 1.124(4) 0.724(2)
C15A C 0.520(3) 1.185(4) 0.8142(17)
C16A C 0.413(5) 1.016(5) 0.436(4)
C17A C 0.501(4) 1.031(4) 0.523(3)
#END
