
#######################################################################
#
#                 Cambridge Crystallographic Data Centre
#                                CCDC
#
#######################################################################
#
# If this CIF has been generated from an entry in the Cambridge
# Structural Database, then it will include bibliographic, chemical,
# crystal, experimental, refinement or atomic coordinate data resulting
# from the CCDC's data processing and validation procedures.
#
#######################################################################

data_CSD_CIF_KOQREP
_audit_creation_date 2014-11-25
_audit_creation_method CSD-ConQuest-V1
_database_code_CSD KOQREP
_database_code_depnum_ccdc_archive 'CCDC 1004156'
_chemical_formula_sum 'C26 H21 K1 N4 O16 W3'
_chemical_formula_moiety
;
(C21 H15 K1 N3 O16 W3 1-)n,C5 H6 N1 1+
;
_journal_coden_Cambridge 155
_journal_volume 424
_journal_year 2015
_journal_page_first 226
_journal_name_full 'Inorg.Chim.Acta '
loop_
_publ_author_name
"B.Modec"
"P.Bukovec"
_chemical_name_systematic
;
catena-[pyridinium 
tris(\m-oxalato)-tetrakis(\m-oxo)-tripyridine-potassium-tri-tungsten]
;
_cell_volume   6771.774
_exptl_crystal_colour 'red'
_exptl_crystal_density_diffrn 2.425
_exptl_crystal_description 'block'
_diffrn_ambient_temperature 150
#These two values have been output from a single CSD field.
_refine_ls_R_factor_gt 0.0188
_refine_ls_wR_factor_gt 0.0188
_symmetry_cell_setting monoclinic
_symmetry_space_group_name_H-M 'C 2/c'
_symmetry_Int_Tables_number 15
loop_
_symmetry_equiv_pos_site_id
_symmetry_equiv_pos_as_xyz
1 x,y,z
2 -x,y,1/2-z
3 1/2+x,1/2+y,z
4 1/2-x,1/2+y,1/2-z
5 -x,-y,-z
6 x,-y,-1/2+z
7 -1/2-x,-1/2-y,-z
8 -1/2+x,-1/2-y,-1/2+z
_cell_length_a 37.1540(4)
_cell_length_b 10.1654(1)
_cell_length_c 19.6631(2)
_cell_angle_alpha 90
_cell_angle_beta 114.2386(5)
_cell_angle_gamma 90
_cell_formula_units_Z 8
loop_
_atom_type_symbol
_atom_type_radius_bond
C 0.68
H 0.23
K 2.03
N 0.68
O 0.68
W 1.62
loop_
_atom_site_label
_atom_site_type_symbol
_atom_site_fract_x
_atom_site_fract_y
_atom_site_fract_z
W1 W 0.411763(4) -0.002300(13) 0.758137(7)
W2 W 0.370221(4) 0.193895(13) 0.755273(7)
W3 W 0.405668(4) 0.184884(13) 0.670608(7)
K1 K 0.30749(2) -0.13589(10) 0.82191(5)
O1 O 0.36154(6) 0.0616(2) 0.67019(12)
O2 O 0.41075(6) 0.1047(2) 0.83828(12)
O3 O 0.40351(7) 0.3229(2) 0.73686(12)
O4 O 0.45208(6) 0.0910(2) 0.73884(12)
O5 O 0.40935(7) -0.1655(2) 0.69053(13)
O6 O 0.37394(6) -0.1391(2) 0.77807(12)
O7 O 0.32967(7) -0.2945(3) 0.72000(14)
O8 O 0.36992(8) -0.3320(3) 0.62819(14)
O9 O 0.32284(7) 0.1068(3) 0.77011(13)
O10 O 0.32068(7) 0.3009(2) 0.68525(13)
O11 O 0.25723(8) 0.3429(3) 0.65628(17)
O12 O 0.26028(8) 0.1370(4) 0.75417(19)
O13 O 0.36271(6) 0.2773(2) 0.57746(12)
O14 O 0.40540(7) 0.0782(2) 0.57888(12)
O15 O 0.37241(8) 0.0436(3) 0.45645(14)
O16 O 0.32630(7) 0.2614(3) 0.45484(13)
C1 C 0.38025(10) -0.2463(3) 0.67548(18)
C2 C 0.35838(10) -0.2275(3) 0.72725(18)
C3 C 0.28879(11) 0.1656(4) 0.7416(2)
C4 C 0.28739(10) 0.2807(4) 0.6895(2)
C5 C 0.3525(1) 0.2231(4) 0.51268(18)
C6 C 0.37815(10) 0.1019(4) 0.51367(19)
C7 C 0.49878(10) -0.0959(3) 0.8588(2)
H1 H 0.50360 -0.07030 0.81790
C8 C 0.53028(10) -0.1337(4) 0.9230(2)
H2 H 0.55580 -0.13250 0.92550
C9 C 0.52323(12) -0.1733(4) 0.9838(2)
H3 H 0.54390 -0.19850 1.02810
C10 C 0.48477(12) -0.1746(4) 0.9772(2)
H4 H 0.47910 -0.20340 1.01660
C11 C 0.45482(10) -0.1330(4) 0.91177(19)
H5 H 0.42910 -0.13170 0.90850
C12 C 0.37307(11) 0.2754(4) 0.9084(2)
H6 H 0.37260 0.18450 0.91310
C13 C 0.37542(16) 0.3529(5) 0.9672(2)
H7 H 0.37630 0.31510 1.01090
C14 C 0.3765(2) 0.4872(6) 0.9605(3)
H8 H 0.37810 0.54160 0.99970
C15 C 0.3751(2) 0.5409(6) 0.8944(3)
H9 H 0.37620 0.63150 0.88900
C16 C 0.37227(16) 0.4576(4) 0.8375(2)
H10 H 0.37080 0.49340 0.79290
C17 C 0.43968(12) 0.4510(4) 0.6494(2)
H11 H 0.41590 0.47920 0.64970
C18 C 0.46527(14) 0.5429(5) 0.6435(3)
H12 H 0.45890 0.63190 0.63990
C19 C 0.50075(14) 0.5014(5) 0.6430(3)
H13 H 0.51850 0.56190 0.63870
C20 C 0.50930(11) 0.3682(5) 0.6489(2)
H14 H 0.53290 0.33760 0.64890
C21 C 0.48194(10) 0.2814(4) 0.65495(19)
H15 H 0.48760 0.19190 0.65920
N1 N 0.46142(8) -0.0944(3) 0.85264(15)
N2 N 0.37145(9) 0.3268(3) 0.84381(16)
N3 N 0.44765(8) 0.3220(3) 0.65488(15)
N4 N 0.21625(9) 0.0766(3) 0.91071(18)
H16 H 0.19650 0.10670 0.87270
C22 C 0.25216(13) 0.1202(5) 0.9236(3)
H17 H 0.25580 0.17890 0.89080
C23 C 0.28378(13) 0.0777(5) 0.9858(3)
H18 H 0.30910 0.10870 0.99620
C24 C 0.27754(13) -0.0114(5) 1.0326(3)
H19 H 0.29860 -0.04020 1.07540
C25 C 0.24006(13) -0.0576(5) 1.0156(2)
H20 H 0.23570 -0.11970 1.04610
C26 C 0.20943(12) -0.0114(4) 0.9538(2)
H21 H 0.18390 -0.04140 0.94200
K1C K 0.19251(2) 0.36411(10) 0.67809(5)
K1E K 0.30749(2) 0.13589(10) 0.32191(5)
O11C O 0.24277(8) -0.1571(3) 0.84372(17)
O12C O 0.23972(8) -0.3630(4) 0.74583(19)
O15E O 0.37241(8) -0.0436(3) 0.95645(14)
O16E O 0.32630(7) -0.2614(3) 0.95484(13)
#END
