
#######################################################################
#
#                 Cambridge Crystallographic Data Centre
#                                CCDC
#
#######################################################################
#
# If this CIF has been generated from an entry in the Cambridge
# Structural Database, then it will include bibliographic, chemical,
# crystal, experimental, refinement or atomic coordinate data resulting
# from the CCDC's data processing and validation procedures.
#
#######################################################################

data_CSD_CIF_KOVBAA
_audit_creation_date 2014-11-27
_audit_creation_method CSD-ConQuest-V1
_database_code_CSD KOVBAA
_database_code_depnum_ccdc_archive 'CCDC 1025601'
_chemical_formula_sum 'C8 H18 Ag1 N1 O6 S2'
_chemical_formula_moiety
;
(C6 H10 Ag1 O6 S2 1-)n,C2 H8 N1 1+
;
_journal_coden_Cambridge 1290
_journal_year 2014
_journal_page_first 6225
_journal_name_full 'Eur.J.Inorg.Chem. '
loop_
_publ_author_name
"F.Behler"
"C.Zitzer"
"M.S.Wickleder"
"J.Christoffers"
_chemical_name_systematic
;
catena-[dimethylammonium (\m-2-sulfocyclohexanesulfonato)-silver]
;
_cell_volume    665.855
_exptl_crystal_colour 'colorless'
_exptl_crystal_density_diffrn 1.976
_exptl_crystal_description 'plates'
_diffrn_ambient_temperature 100.2
#These two values have been output from a single CSD field.
_refine_ls_R_factor_gt 0.0154
_refine_ls_wR_factor_gt 0.0154
_symmetry_cell_setting monoclinic
_symmetry_space_group_name_H-M 'P 21'
_symmetry_Int_Tables_number 4
loop_
_symmetry_equiv_pos_site_id
_symmetry_equiv_pos_as_xyz
1 x,y,z
2 -x,1/2+y,-z
_cell_length_a 9.1560(3)
_cell_length_b 5.4451(2)
_cell_length_c 13.5638(4)
_cell_angle_alpha 90
_cell_angle_beta 100.0485(15)
_cell_angle_gamma 90
_cell_formula_units_Z 2
loop_
_atom_type_symbol
_atom_type_radius_bond
C 0.68
H 0.23
Ag 1.45
N 0.68
O 0.68
S 1.02
loop_
_atom_site_label
_atom_site_type_symbol
_atom_site_fract_x
_atom_site_fract_y
_atom_site_fract_z
Ag1 Ag 0.45563(2) 0.06282(4) 0.95273(2)
S1 S 0.23384(6) -0.48029(9) 0.84253(4)
S2 S 0.59280(6) -0.35539(11) 0.79490(4)
O1 O 0.07489(15) -0.4439(5) 0.83625(11)
O2 O 0.71558(18) -0.4014(4) 0.74187(13)
C1 C 0.4286(2) -0.4214(6) 0.70386(15)
H1 H 0.42420 -0.60300 0.69290
O3 O 0.27273(19) -0.7403(3) 0.83781(13)
O4 O 0.59763(19) -0.5221(3) 0.87995(13)
O5 O 0.31893(18) -0.3522(3) 0.92874(12)
O6 O 0.58138(19) -0.0956(3) 0.82204(14)
C2 C 0.1529(2) -0.3975(5) 0.64338(16)
H2 H 0.14770 -0.57720 0.63230
H3 H 0.05750 -0.34370 0.66100
C3 C 0.2795(2) -0.3397(5) 0.73121(16)
H4 H 0.28300 -0.15780 0.74140
C4 C 0.4499(3) -0.2990(6) 0.60498(19)
H5 H 0.45980 -0.11940 0.61540
H6 H 0.54330 -0.35960 0.58630
C5 C 0.3226(3) -0.3490(7) 0.51914(19)
H7 H 0.31920 -0.52650 0.50300
H8 H 0.33910 -0.25770 0.45890
C6 C 0.1752(3) -0.2706(6) 0.54718(19)
H9 H 0.17440 -0.09030 0.55650
H10 H 0.09290 -0.31420 0.49240
C7 C -0.0628(3) 0.0379(6) 0.91670(16)
H11 H -0.09740 0.09800 0.97670
H12 H 0.04440 0.06400 0.92380
H13 H -0.08460 -0.13780 0.90830
C8 C -0.0960(3) 0.0921(6) 0.73299(17)
H14 H 0.01230 0.09700 0.73970
H15 H -0.14040 0.20180 0.67870
H16 H -0.13100 -0.07600 0.71780
N1 N -0.1396(2) 0.1731(4) 0.82801(15)
H17 H -0.11770 0.35050 0.83740
H18 H -0.24800 0.15120 0.82300
Ag1* Ag 0.45563(2) -0.93718(4) 0.95273(2)
Ag1A Ag 0.54437(2) -0.43718(4) 1.04727(2)
Ag1A* Ag 0.54437(2) 0.56282(4) 1.04727(2)
O3* O 0.27273(19) 0.2597(3) 0.83781(13)
O4A O 0.40237(19) -0.0221(3) 1.12005(13)
O5A O 0.68107(18) 0.1478(3) 1.07126(12)
#END
