
#######################################################################
#
#                 Cambridge Crystallographic Data Centre
#                                CCDC
#
#######################################################################
#
# If this CIF has been generated from an entry in the Cambridge
# Structural Database, then it will include bibliographic, chemical,
# crystal, experimental, refinement or atomic coordinate data resulting
# from the CCDC's data processing and validation procedures.
#
#######################################################################

data_CSD_CIF_KOVGOT
_audit_creation_date 2014-11-27
_audit_creation_method CSD-ConQuest-V1
_database_code_CSD KOVGOT
_database_code_depnum_ccdc_archive 'CCDC 1011903'
_chemical_formula_sum 'C150 H322 Mo24 N6 O127 P2 Zn8'
_chemical_formula_moiety
;
(C54 H36 Mo24 O92 P2 Zn8 6-)n,6n(C16 H36 N1 1+),35n(H2 O1)
;
_journal_coden_Cambridge 222
_journal_volume 44
_journal_year 2015
_journal_page_first 1435
_journal_name_full 'Dalton Trans. '
loop_
_publ_author_name
"Bao-Xia Dong"
"Lu Chen"
"Shi-Yang Zhang"
"Jun Ge"
"Liang Song"
"Hui Tian"
"Yun-Lei Teng"
"Wen-Long Liu"
_chemical_name_systematic
;
catena-[hexakis(tetra-n-butylammonium) 
bis(\m-benzene-1,3,4-tribenzoato)-hexakis(\m-hydroxo)-dotetracontakis(\m-oxo)-
bis(\m-phosphato)-tetracosaoxo-tetracosa-molybdenum-octa-zinc 
pentatriacontahydrate]
;
_cell_volume  11507.309
_exptl_crystal_colour 'dark red'
_exptl_special_details
;
The keggin H atoms have not been located and have been placed arbitrarily in 
the 2D diagram
;
_exptl_crystal_description 'block'
_exptl_crystal_preparation 'hydrothermal synthesis'
_diffrn_ambient_temperature 296
_refine_special_details
;
Disordered solvent molecules were not modelled and the disordered density was 
taken into account using the SQUEEZE/PLATON procedure.
;
#These two values have been output from a single CSD field.
_refine_ls_R_factor_gt 0.0882
_refine_ls_wR_factor_gt 0.0882
_symmetry_cell_setting triclinic
_symmetry_space_group_name_H-M 'P -1'
_symmetry_Int_Tables_number 2
loop_
_symmetry_equiv_pos_site_id
_symmetry_equiv_pos_as_xyz
1 x,y,z
2 -x,-y,-z
_cell_length_a 15.745(2)
_cell_length_b 26.506(4)
_cell_length_c 27.765(4)
_cell_angle_alpha 86.976(4)
_cell_angle_beta 84.139(4)
_cell_angle_gamma 88.302(4)
_cell_formula_units_Z 2
loop_
_atom_type_symbol
_atom_type_radius_bond
C 0.68
H 0.23
Mo 1.54
N 0.68
O 0.68
P 1.05
Zn 1.22
loop_
_atom_site_label
_atom_site_type_symbol
_atom_site_fract_x
_atom_site_fract_y
_atom_site_fract_z
Mo1 Mo 1.27954(7) 0.34579(4) 0.30859(4)
Mo2 Mo 1.19386(6) 0.39765(4) 0.37546(4)
Mo3 Mo 1.56797(6) 0.32511(3) 0.41324(3)
Mo4 Mo 1.49992(7) 0.49372(4) 0.25165(3)
Mo5 Mo 1.45790(7) 0.40227(4) 0.23768(3)
Mo6 Mo 1.28656(6) 0.42446(4) 0.48428(3)
Mo7 Mo 1.48520(6) 0.30225(3) 0.31731(3)
Mo8 Mo 1.39628(6) 0.56817(3) 0.33712(3)
Mo9 Mo 1.23804(6) 0.51875(4) 0.40113(3)
Mo10 Mo 1.44320(5) 0.39393(3) 0.49542(3)
Mo11 Mo 1.59391(6) 0.52060(4) 0.36014(3)
Mo12 Mo 1.61798(5) 0.44819(3) 0.42531(3)
Mo13 Mo 0.78216(6) 0.83215(4) 0.10182(4)
Mo14 Mo 0.70086(7) 0.80124(4) 0.18397(4)
Mo15 Mo 0.48288(6) 0.80570(4) 0.20825(3)
Mo16 Mo 0.79472(6) 0.95548(4) 0.06072(3)
Mo17 Mo 0.59426(6) 0.89124(4) 0.26340(3)
Mo18 Mo 0.66508(6) 0.88132(4) 0.00338(3)
Mo19 Mo 0.39490(5) 0.97546(3) 0.09299(3)
Mo20 Mo 0.59861(6) 0.98705(4) 0.23739(3)
Mo21 Mo 0.70043(6) 1.03534(4) 0.13065(3)
Mo22 Mo 0.48138(6) 1.03641(3) 0.13947(3)
Mo23 Mo 0.49812(6) 0.88670(3) 0.01629(3)
Mo24 Mo 0.37881(6) 0.84834(3) 0.12199(3)
Zn1 Zn 1.34789(8) 0.30713(5) 0.42449(5)
Zn2 Zn 1.27609(9) 0.48316(5) 0.28166(5)
Zn3 Zn 1.63795(8) 0.39759(5) 0.30772(4)
Zn4 Zn 1.42696(7) 0.52829(4) 0.45733(4)
Zn5 Zn 0.60148(7) 1.00870(5) 0.02681(4)
Zn6 Zn 0.39870(8) 0.92919(5) 0.21538(4)
Zn7 Zn 0.56848(8) 0.78421(5) 0.08931(5)
Zn8 Zn 0.78892(8) 0.92782(6) 0.18548(5)
P1 P 1.42209(16) 0.42837(10) 0.36679(9)
P2 P 0.59060(16) 0.91052(11) 0.13038(9)
C1 C 0.9844(7) 1.0868(5) 0.4782(5)
C2 C 0.9763(9) 1.0577(5) 0.4385(5)
H1 H 1.01040 1.06390 0.40960
C3 C 0.9159(8) 1.0184(5) 0.4424(4)
C4 C 0.8726(8) 1.0071(5) 0.4840(5)
H2 H 0.83790 0.97910 0.48650
C5 C 0.8761(8) 1.0354(5) 0.5249(4)
C6 C 0.9338(9) 1.0771(5) 0.5197(5)
H3 H 0.93620 1.09780 0.54550
C7 C 1.0443(9) 1.1300(5) 0.4743(6)
C8 C 1.0208(11) 1.1739(7) 0.4950(6)
H4 H 0.96710 1.17680 0.51200
C9 C 1.0739(9) 1.2145(6) 0.4916(6)
H5 H 1.05510 1.24470 0.50510
C10 C 1.1547(9) 1.2103(6) 0.4683(5)
C11 C 1.1784(9) 1.1644(5) 0.4461(6)
H6 H 1.23170 1.16130 0.42860
C12 C 1.1263(9) 1.1261(5) 0.4499(6)
H7 H 1.14430 1.09590 0.43620
C13 C 1.2100(8) 1.2560(5) 0.4633(5)
C14 C 0.9096(7) 0.9897(5) 0.3982(4)
C15 C 0.8870(9) 0.9399(5) 0.4003(4)
H8 H 0.88040 0.92290 0.43060
C16 C 0.8733(9) 0.9132(5) 0.3602(6)
H9 H 0.85880 0.87930 0.36310
C17 C 0.8824(7) 0.9402(5) 0.3145(4)
C18 C 0.9081(9) 0.9884(5) 0.3100(5)
H10 H 0.91480 1.00570 0.27990
C19 C 0.9244(9) 1.0118(5) 0.3526(5)
H11 H 0.94660 1.04410 0.34950
C20 C 0.8569(8) 0.9142(5) 0.2714(4)
C21 C 0.8260(9) 1.0256(5) 0.5725(4)
C22 C 0.7493(10) 1.0043(6) 0.5773(5)
H12 H 0.72740 0.99270 0.55020
C23 C 0.7019(9) 0.9991(6) 0.6222(6)
H13 H 0.64920 0.98380 0.62460
C24 C 0.7314(8) 1.0163(5) 0.6632(4)
C25 C 0.8106(8) 1.0346(6) 0.6585(4)
H14 H 0.83340 1.04480 0.68590
C26 C 0.8591(9) 1.0387(5) 0.6144(5)
H15 H 0.91450 1.05030 0.61270
C27 C 0.6752(8) 1.0152(5) 0.7103(4)
C28 C 1.0470(8) 0.5871(5) -0.0496(4)
C29 C 0.9680(8) 0.6133(5) -0.0434(4)
H16 H 0.94660 0.63000 -0.07000
C30 C 0.9226(7) 0.6145(5) 0.0005(5)
C31 C 0.9578(7) 0.5904(5) 0.0406(4)
H17 H 0.92710 0.59060 0.07110
C32 C 1.0377(7) 0.5663(5) 0.0355(4)
C33 C 1.0799(7) 0.5635(5) -0.0104(4)
H18 H 1.13120 0.54520 -0.01470
C34 C 1.0936(8) 0.5852(6) -0.0995(4)
C35 C 1.1298(10) 0.5389(6) -0.1144(5)
H19 H 1.12290 0.50980 -0.09420
C36 C 1.1763(8) 0.5372(5) -0.1599(4)
H20 H 1.19740 0.50620 -0.17060
C37 C 1.1917(6) 0.5798(5) -0.1891(4)
C38 C 1.1554(9) 0.6248(5) -0.1733(5)
H21 H 1.16350 0.65410 -0.19300
C39 C 1.1063(9) 0.6275(6) -0.1281(5)
H22 H 1.08280 0.65830 -0.11810
C40 C 1.2432(7) 0.5761(6) -0.2377(4)
C41 C 0.8336(9) 0.6362(6) 0.0071(5)
C42 C 0.7732(10) 0.6274(8) -0.0222(6)
H23 H 0.78710 0.60620 -0.04770
C43 C 0.6938(10) 0.6479(6) -0.0166(6)
H24 H 0.65670 0.64260 -0.03980
C44 C 0.6653(8) 0.6768(6) 0.0228(4)
C45 C 0.7297(9) 0.6863(6) 0.0521(5)
H25 H 0.71560 0.70760 0.07740
C46 C 0.8095(8) 0.6676(5) 0.0471(5)
H26 H 0.84840 0.67470 0.06870
C47 C 0.5789(8) 0.6982(5) 0.0278(4)
C48 C 1.0740(8) 0.5416(5) 0.0786(4)
C49 C 1.0645(9) 0.5629(6) 0.1229(5)
H27 H 1.03160 0.59250 0.12650
C50 C 1.1019(9) 0.5420(5) 0.1622(4)
H28 H 1.09180 0.55610 0.19230
C51 C 1.1525(8) 0.5017(5) 0.1566(4)
C52 C 1.1647(8) 0.4782(5) 0.1134(5)
H29 H 1.19830 0.44880 0.11060
C53 C 1.127(1) 0.4986(6) 0.0748(5)
H30 H 1.13680 0.48350 0.04520
C54 C 1.2014(8) 0.4802(5) 0.1978(4)
O1 O 1.3316(4) 0.4379(3) 0.3921(2)
O2 O 1.4588(4) 0.4771(3) 0.3417(2)
O3 O 1.4809(4) 0.4079(3) 0.4059(2)
O4 O 1.4158(4) 0.3896(3) 0.3275(2)
O5 O 1.0966(5) 0.3769(3) 0.3723(3)
O6 O 1.6382(4) 0.4508(2) 0.3537(2)
O7 O 1.3917(4) 0.4610(2) 0.4855(2)
O8 O 1.4609(5) 0.3009(3) 0.3888(3)
O9 O 1.2001(5) 0.3131(3) 0.2907(3)
O10 O 1.3544(4) 0.5471(3) 0.4068(2)
O11 O 1.5826(4) 0.3385(3) 0.3407(3)
O12 O 1.3486(4) 0.3610(3) 0.4711(2)
O13 O 1.2916(4) 0.5289(3) 0.3324(2)
O14 O 1.5574(5) 0.4284(3) 0.2626(3)
O15 O 1.2697(5) 0.3388(3) 0.3792(3)
O16 O 1.5569(4) 0.4282(2) 0.4904(2)
O17 O 1.2387(5) 0.4169(3) 0.3091(3)
O18 O 1.6443(4) 0.3745(3) 0.4181(3)
O19 O 1.5977(5) 0.5210(3) 0.2844(3)
O20 O 1.5418(4) 0.5072(3) 0.4264(2)
O21 O 1.3380(5) 0.3690(3) 0.2421(3)
O22 O 1.4298(5) 0.3800(3) 0.5550(2)
O23 O 1.2400(4) 0.4918(3) 0.4628(3)
O24 O 1.1912(4) 0.3938(3) 0.4496(3)
O25 O 1.5020(5) 0.5741(3) 0.3569(3)
O26 O 1.4314(5) 0.5537(3) 0.2751(2)
O27 O 1.3884(5) 0.4639(3) 0.2485(3)
O28 O 1.5090(4) 0.3307(2) 0.4724(2)
O29 O 1.4801(6) 0.4025(3) 0.1775(2)
O30 O 1.5325(5) 0.2440(3) 0.3093(3)
O31 O 1.1699(5) 0.4716(3) 0.3792(3)
O32 O 1.2426(5) 0.4177(3) 0.5407(3)
O33 O 1.6252(5) 0.2701(3) 0.4199(3)
O34 O 1.5081(5) 0.3348(3) 0.2574(3)
O35 O 1.3717(5) 0.2928(3) 0.3124(3)
O36 O 1.3609(6) 0.6282(3) 0.3313(3)
O37 O 1.6779(5) 0.5558(3) 0.3643(3)
O38 O 1.1736(5) 0.5703(3) 0.4072(3)
O39 O 1.5336(6) 0.5126(3) 0.1944(3)
O40 O 1.7089(5) 0.4665(3) 0.4433(3)
O41 O 1.2889(6) 1.2473(3) 0.4446(3)
O42 O 1.1826(7) 1.2956(4) 0.4763(4)
O43 O 1.2617(5) 0.5326(4) -0.2511(3)
O44 O 1.2670(5) 0.6169(4) -0.2594(3)
O45 O 1.2015(6) 0.5078(3) 0.2339(3)
O46 O 1.2386(6) 0.4371(3) 0.1957(3)
O47 O 0.6685(4) 0.8996(3) 0.0934(2)
O48 O 0.5915(4) 0.8714(3) 0.1737(2)
O49 O 0.5921(4) 0.9652(3) 0.1487(2)
O50 O 0.5073(4) 0.9068(3) 0.1052(2)
O51 O 0.4155(5) 0.7609(3) 0.2317(3)
O52 O 0.4969(5) 1.0139(3) 0.0736(2)
O53 O 0.5057(4) 0.9396(2) 0.2447(2)
O54 O 0.4139(4) 0.9454(3) 0.0281(2)
O55 O 0.5855(4) 0.9390(3) 0.0081(3)
O56 O 0.6994(4) 1.0078(3) 0.0646(2)
O57 O 0.5056(5) 0.8398(3) 0.2603(3)
O58 O 0.4020(5) 0.8623(3) 0.1902(3)
O59 O 0.6859(5) 0.9336(3) 0.2324(3)
O60 O 0.6780(5) 0.7929(3) 0.1163(3)
O61 O 0.6853(5) 1.0279(3) 0.1965(2)
O62 O 0.5076(5) 1.0351(3) 0.2112(2)
O63 O 0.4748(5) 0.8011(3) 0.1375(2)
O64 O 0.3318(4) 0.9128(3) 0.1173(3)
O65 O 0.4136(4) 0.8436(3) 0.0582(2)
O66 O 0.7548(5) 0.8309(3) 0.0305(3)
O67 O 0.8457(4) 0.8955(3) 0.0818(3)
O68 O 0.5799(4) 0.8350(2) 0.0346(2)
O69 O 0.4183(5) 1.0875(3) 0.1381(3)
O70 O 0.4067(4) 0.9808(3) 0.1615(2)
O71 O 0.7538(4) 0.9335(3) 0.0069(3)
O72 O 0.7781(5) 0.8563(3) 0.1665(3)
O73 O 0.4743(4) 0.8720(3) -0.0377(3)
O74 O 0.5876(5) 0.7729(3) 0.2009(3)
O75 O 0.2949(5) 0.8098(3) 0.1323(3)
O76 O 0.3132(5) 1.0140(3) 0.0833(3)
O77 O 0.7706(5) 1.0824(3) 0.1205(3)
O78 O 0.8795(5) 0.9895(3) 0.0373(3)
O79 O 0.5965(5) 1.0658(3) 0.1242(2)
O80 O 0.6808(5) 0.8667(3) -0.0544(3)
O81 O 0.8614(6) 0.7903(4) 0.0984(3)
O82 O 0.7816(4) 0.9747(3) 0.1300(2)
O83 O 0.6026(6) 1.0124(3) 0.2905(3)
O84 O 0.5977(5) 0.8925(3) 0.3226(3)
O85 O 0.7621(6) 0.7517(4) 0.1978(4)
O86 O 0.6816(5) 0.8338(3) 0.2518(3)
O87 O 0.6896(5) 1.0518(3) 0.7359(3)
O88 O 0.6229(5) 0.9829(4) 0.7213(3)
O89 O 0.5514(6) 0.7190(3) 0.0676(3)
O90 O 0.5174(13) 0.6743(8) 0.0107(7)
O91 O 0.8232(6) 0.8707(4) 0.2759(3)
O92 O 0.8702(5) 0.9380(3) 0.2309(3)
C55 C 0.0121(9) 0.4320(7) 0.6509(6)
H31 H -0.01780 0.41620 0.67980
H32 H -0.03070 0.44620 0.63090
C56 C 0.0620(13) 0.3924(8) 0.6238(7)
H33 H 0.10820 0.38040 0.64230
H34 H 0.08730 0.40750 0.59330
C57 C 0.0084(18) 0.3459(10) 0.6129(9)
H35 H -0.01490 0.33020 0.64360
H36 H -0.03950 0.35840 0.59590
C58 C 0.053(2) 0.3085(10) 0.5853(10)
H37 H 0.01430 0.28330 0.57830
H38 H 0.09680 0.29300 0.60330
H39 H 0.07910 0.32370 0.55540
C59 C 0.1095(8) 0.5038(7) 0.6186(5)
H40 H 0.14250 0.53110 0.62840
H41 H 0.14850 0.48060 0.60100
C60 C 0.0434(9) 0.5255(8) 0.5849(6)
H42 H 0.01610 0.49800 0.57120
H43 H -0.00030 0.54500 0.60340
C61 C 0.0860(7) 0.5585(8) 0.5449(4)
H44 H 0.13170 0.53950 0.52740
H45 H 0.11100 0.58690 0.55850
C62 C 0.0235(7) 0.5779(9) 0.5103(4)
H46 H 0.05310 0.59730 0.48390
H47 H -0.01940 0.59880 0.52700
H48 H -0.00300 0.54980 0.49780
C63 C 0.1323(8) 0.4572(7) 0.6937(5)
H49 H 0.16560 0.48600 0.69980
H50 H 0.16960 0.43450 0.67440
C64 C 0.1035(10) 0.4291(9) 0.7434(6)
H51 H 0.07420 0.45300 0.76500
H52 H 0.06350 0.40330 0.73830
C65 C 0.1782(11) 0.4049(7) 0.7670(6)
H53 H 0.20580 0.38000 0.74580
H54 H 0.21950 0.43060 0.77030
C66 C 0.1536(16) 0.3795(10) 0.8163(9)
H55 H 0.20330 0.36340 0.82830
H56 H 0.11160 0.35460 0.81360
H57 H 0.13050 0.40430 0.83830
C67 C 0.0000(8) 0.5107(3) 0.6941(5)
H58 H -0.04830 0.51740 0.67550
H59 H -0.02110 0.49340 0.72450
C68 C 0.0351(8) 0.5600(4) 0.7051(6)
H60 H 0.04610 0.58090 0.67550
H61 H 0.08850 0.55440 0.71940
C69 C -0.0299(11) 0.5864(7) 0.7403(6)
H62 H -0.08670 0.58170 0.73100
H63 H -0.02740 0.57080 0.77260
C70 C -0.0149(16) 0.6416(8) 0.7417(9)
H64 H -0.05730 0.65640 0.76440
H65 H -0.01860 0.65740 0.71010
H66 H 0.04090 0.64650 0.75160
N1 N 0.0643(7) 0.4747(5) 0.6657(4)
C71 C 0.0349(5) 0.9148(3) 0.1555(4)
C72 C 0.0991(8) 0.8860(4) 0.1835(4)
C73 C 0.0774(9) 0.8392(3) 0.2147(3)
C74 C 0.0189(9) 0.8023(5) 0.1969(8)
H67 H 0.00310 0.77740 0.22240
H68 H 0.04750 0.78600 0.16950
H69 H -0.03150 0.81990 0.18750
C75 C 0.1377(8) 0.9687(5) 0.1664(3)
C76 C 0.1084(7) 1.0077(4) 0.2023(4)
H70 H 0.06600 1.02920 0.18780
H71 H 0.07890 0.98990 0.23020
C77 C 0.1701(8) 1.0421(4) 0.2213(4)
H72 H 0.14590 1.05390 0.25230
H73 H 0.22250 1.02330 0.22630
C78 C 0.190(2) 1.0866(5) 0.1867(6)
H74 H 0.22840 1.10810 0.20010
H75 H 0.13790 1.10510 0.18160
H76 H 0.21580 1.07490 0.15630
C79 C 0.1413(8) 0.9327(6) 0.0866(4)
H77 H 0.18320 0.91040 0.10070
H78 H 0.17200 0.95950 0.06790
C80 C 0.0947(8) 0.9026(7) 0.0521(4)
H79 H 0.07370 0.87230 0.06990
H80 H 0.04520 0.92270 0.04390
C81 C 0.1428(6) 0.8870(7) 0.0057(4)
H81 H 0.11130 0.86040 -0.00650
H82 H 0.14170 0.91560 -0.01750
C82 C 0.2333(6) 0.8690(9) 0.0058(8)
H83 H 0.24390 0.84170 -0.01560
H84 H 0.24370 0.85730 0.03810
H85 H 0.27060 0.89620 -0.00490
C83 C 0.0302(7) 0.9974(3) 0.1067(6)
C84 C 0.0729(16) 1.0387(11) 0.0819(8)
C85 C 0.0152(11) 1.0882(4) 0.0783(4)
C86 C 0.0582(11) 1.1325(4) 0.0507(6)
H86 H 0.01830 1.16060 0.04950
H87 H 0.07730 1.12340 0.01830
H88 H 0.10620 1.14190 0.06670
N2 N 0.0850(5) 0.9556(3) 0.1269(2)
C87 C 1.5185(6) 0.7631(3) 0.4332(3)
H89 H 1.48180 0.76340 0.46340
H90 H 1.56180 0.73670 0.43650
C88 C 1.5611(6) 0.8130(4) 0.4245(4)
H91 H 1.51870 0.84030 0.42430
H92 H 1.59590 0.81420 0.39360
C89 C 1.6155(5) 0.8176(5) 0.4652(3)
H93 H 1.61440 0.78690 0.48580
H94 H 1.59540 0.84560 0.48480
C90 C 1.7041(6) 0.8267(15) 0.4417(8)
H95 H 1.73120 0.85070 0.45950
H96 H 1.70130 0.83980 0.40900
H97 H 1.73660 0.79550 0.44150
C91 C 1.4145(7) 0.7058(4) 0.4105(4)
H98 H 1.38900 0.69330 0.38330
H99 H 1.45270 0.67940 0.42190
C92 C 1.3451(8) 0.7152(8) 0.4503(4)
H100 H 1.30740 0.74230 0.43990
H101 H 1.37000 0.72550 0.47860
C93 C 1.2939(6) 0.6680(7) 0.4634(8)
H102 H 1.29790 0.64570 0.43660
H103 H 1.31360 0.64970 0.49150
C94 C 1.2045(6) 0.6881(9) 0.4743(15)
H104 H 1.16660 0.66040 0.48200
H105 H 1.18750 0.70730 0.44640
H106 H 1.20200 0.70940 0.50130
C95 C 1.5206(7) 0.7409(4) 0.3464(4)
H107 H 1.48400 0.73260 0.32200
H108 H 1.55060 0.77130 0.33480
C96 C 1.5845(6) 0.6984(5) 0.3527(3)
H109 H 1.61410 0.70390 0.38090
H110 H 1.55440 0.66690 0.35870
C97 C 1.6488(5) 0.6939(9) 0.3092(3)
H111 H 1.64460 0.66200 0.29420
H112 H 1.64250 0.72140 0.28540
C98 C 1.7311(7) 0.697(2) 0.3318(6)
H113 H 1.77820 0.69480 0.30710
H114 H 1.73530 0.66910 0.35530
H115 H 1.73230 0.72810 0.34740
C99 C 1.4135(6) 0.7972(4) 0.3798(5)
H116 H 1.39210 0.81340 0.40930
H117 H 1.45040 0.82080 0.36040
C100 C 1.3395(7) 0.7867(7) 0.3523(5)
H118 H 1.30140 0.76440 0.37240
H119 H 1.36070 0.76890 0.32370
C101 C 1.2880(7) 0.8332(11) 0.3363(5)
H120 H 1.26680 0.84970 0.36570
H121 H 1.32860 0.85590 0.31850
C102 C 1.2137(7) 0.8315(15) 0.3066(5)
H122 H 1.19540 0.86530 0.29780
H123 H 1.16760 0.81420 0.32510
H124 H 1.23080 0.81380 0.27770
N3 N 1.4661(5) 0.7510(3) 0.3931(2)
C103 C 1.2909(6) 0.6803(8) 0.1081(6)
H125 H 1.28610 0.71200 0.12410
H126 H 1.33090 0.68540 0.07940
C104 C 1.2051(6) 0.6717(4) 0.0907(5)
H127 H 1.20870 0.64170 0.07190
H128 H 1.16330 0.66590 0.11840
C105 C 1.1763(6) 0.7160(4) 0.0601(5)
H129 H 1.17940 0.74680 0.07720
H130 H 1.21360 0.71920 0.03010
C106 C 1.0864(6) 0.7089(12) 0.0491(9)
H131 H 1.06450 0.73980 0.03490
H132 H 1.05160 0.69980 0.07860
H133 H 1.08540 0.68240 0.02690
C107 C 1.2695(13) 0.6361(4) 0.1880(5)
H134 H 1.21690 0.62370 0.17800
H135 H 1.29150 0.61000 0.20960
C108 C 1.2467(7) 0.6815(4) 0.2171(3)
H136 H 1.22630 0.70900 0.19650
H137 H 1.29640 0.69260 0.23120
C109 C 1.1780(8) 0.6666(5) 0.2564(3)
H138 H 1.12200 0.67270 0.24520
H139 H 1.18390 0.63110 0.26590
C110 C 1.1888(15) 0.6986(5) 0.2981(3)
C111 C 1.4166(5) 0.6631(4) 0.1523(4)
H140 H 1.44870 0.67100 0.12120
H141 H 1.40350 0.69480 0.16760
C112 C 1.4741(5) 0.6322(5) 0.1829(5)
H142 H 1.47010 0.59680 0.17640
H143 H 1.45490 0.63610 0.21690
C113 C 1.5657(6) 0.6474(10) 0.1734(4)
H144 H 1.59950 0.62320 0.15400
H145 H 1.57060 0.68070 0.15730
C114 C 1.5914(15) 0.6471(15) 0.2237(4)
H146 H 1.64960 0.65730 0.22260
H147 H 1.58630 0.61360 0.23850
H148 H 1.55490 0.67000 0.24240
C115 C 1.3399(9) 0.5916(8) 0.1220(4)
H149 H 1.28390 0.58260 0.11400
H150 H 1.35740 0.56670 0.14620
C116 C 1.4019(10) 0.5896(3) 0.0775(4)
H151 H 1.45680 0.60150 0.08440
H152 H 1.38150 0.61170 0.05190
C117 C 1.412(3) 0.5366(3) 0.0609(6)
H153 H 1.36710 0.53450 0.03960
H154 H 1.46470 0.53730 0.03970
C118 C 1.414(3) 0.4849(4) 0.0854(7)
H155 H 1.42710 0.46020 0.06160
H156 H 1.35910 0.47820 0.10270
H157 H 1.45670 0.48330 0.10770
N4 N 1.3338(5) 0.6408(4) 0.1426(5)
C119 C 0.545(3) 0.2271(3) 0.1888(3)
H158 H 0.58900 0.23890 0.20740
H159 H 0.49050 0.24000 0.20250
C120 C 0.5459(11) 0.1703(3) 0.1918(5)
H160 H 0.52520 0.15750 0.16320
H161 H 0.60310 0.15680 0.19480
C121 C 0.4875(6) 0.1561(11) 0.2362(4)
H162 H 0.51680 0.16780 0.26250
H163 H 0.49290 0.11960 0.23880
C122 C 0.3950(6) 0.1663(10) 0.2525(11)
H164 H 0.38420 0.15740 0.28650
H165 H 0.36020 0.14640 0.23470
H166 H 0.38150 0.20150 0.24670
C123 C 0.4750(8) 0.2426(5) 0.1165(8)
H167 H 0.48390 0.24860 0.08170
H168 H 0.45600 0.20810 0.12270
C124 C 0.4039(5) 0.2774(5) 0.1356(7)
H169 H 0.41000 0.31100 0.12020
H170 H 0.40290 0.27970 0.17040
C125 C 0.3242(5) 0.2535(5) 0.1229(8)
H171 H 0.32780 0.25110 0.08800
H172 H 0.32180 0.21930 0.13740
C126 C 0.2426(7) 0.2813(7) 0.1392(11)
H173 H 0.19530 0.26530 0.12760
H174 H 0.24520 0.31570 0.12640
H175 H 0.23520 0.28090 0.17400
C127 C 0.5878(19) 0.3007(8) 0.1405(12)
H176 H 0.54130 0.31840 0.15880
H177 H 0.63680 0.30060 0.15900
C128 C 0.610(2) 0.3302(10) 0.0933(8)
H178 H 0.55820 0.33670 0.07720
H179 H 0.64930 0.31060 0.07230
C129 C 0.6495(14) 0.3804(11) 0.1021(9)
H180 H 0.61420 0.39830 0.12670
H181 H 0.70580 0.37460 0.11280
C130 C 0.655(3) 0.411(2) 0.0545(14)
H182 H 0.68170 0.44220 0.05810
H183 H 0.59900 0.41680 0.04480
H184 H 0.68900 0.39200 0.03030
C131 C 0.6343(6) 0.2123(7) 0.1104(5)
H185 H 0.61330 0.17830 0.10920
H186 H 0.64680 0.22560 0.07730
C132 C 0.7149(5) 0.2097(7) 0.1348(4)
H187 H 0.73000 0.17500 0.14390
H188 H 0.70880 0.22920 0.16360
C133 C 0.7811(9) 0.2317(8) 0.0976(6)
H189 H 0.77130 0.22080 0.06590
H190 H 0.77540 0.26830 0.09680
C134 C 0.865(3) 0.2171(13) 0.1075(18)
H191 H 0.90530 0.23590 0.08590
H192 H 0.87370 0.18170 0.10290
H193 H 0.87230 0.22400 0.14040
N5 N 0.5622(16) 0.2463(6) 0.1369(3)
C135 C 0.7036(6) 0.1316(4) 0.3189(2)
H194 H 0.65500 0.12160 0.30310
H195 H 0.70740 0.16790 0.31380
C136 C 0.7815(7) 0.1088(6) 0.2925(3)
H196 H 0.77810 0.07230 0.29660
H197 H 0.83080 0.11860 0.30780
C137 C 0.7967(7) 0.1226(7) 0.2392(3)
H198 H 0.74850 0.11190 0.22350
H199 H 0.79940 0.15910 0.23470
C138 C 0.8771(7) 0.0994(7) 0.2149(5)
H200 H 0.88270 0.10960 0.18110
H201 H 0.87450 0.06330 0.21860
H202 H 0.92540 0.11060 0.22960
C139 C 0.5975(3) 0.1453(5) 0.3902(3)
H203 H 0.59150 0.14250 0.42530
H204 H 0.60020 0.18100 0.38070
C140 C 0.5178(4) 0.1255(7) 0.3732(4)
H205 H 0.51470 0.13760 0.33980
H206 H 0.52270 0.08890 0.37360
C141 C 0.4358(6) 0.1399(9) 0.4022(3)
H207 H 0.39740 0.11190 0.40330
H208 H 0.40970 0.16830 0.38530
C142 C 0.4440(19) 0.1539(10) 0.4532(3)
H209 H 0.38900 0.16390 0.46830
H210 H 0.48240 0.18150 0.45270
H211 H 0.46600 0.12530 0.47110
C143 C 0.7547(4) 0.1417(3) 0.3963(4)
H212 H 0.73560 0.14560 0.43030
H213 H 0.80120 0.11680 0.39490
C144 C 0.7901(6) 0.1915(3) 0.3757(4)
H214 H 0.80840 0.18810 0.34160
H215 H 0.74430 0.21680 0.37800
C145 C 0.8635(7) 0.2104(5) 0.3996(3)
H216 H 0.85600 0.24660 0.40210
H217 H 0.91570 0.20440 0.37860
C146 C 0.8750(16) 0.1871(10) 0.4491(4)
H218 H 0.91710 0.20520 0.46340
H219 H 0.89350 0.15240 0.44640
H220 H 0.82170 0.18870 0.46910
C147 C 0.6718(8) 0.0651(2) 0.3847(3)
H221 H 0.63250 0.05310 0.36340
H222 H 0.72670 0.04870 0.37590
C148 C 0.6417(14) 0.0456(3) 0.4350(3)
H223 H 0.58520 0.06000 0.44390
H224 H 0.67950 0.05760 0.45710
C149 C 0.6374(7) -0.0109(3) 0.4420(7)
H225 H 0.68530 -0.02570 0.42230
H226 H 0.64440 -0.02020 0.47560
C150 C 0.5571(7) -0.0337(6) 0.4294(9)
H227 H 0.56070 -0.06970 0.43470
H228 H 0.54980 -0.02550 0.39600
H229 H 0.50910 -0.02050 0.44950
N6 N 0.6822(4) 0.1207(2) 0.3727(2)
C151? C -0.0122(13) 1.0479(3) 0.1163(5)
C152? C 0.154(2) 0.9826(14) 0.1547(13)
C153? C 0.0802(12) 0.8654(4) 0.1654(3)
O93? O 1.479(2) 0.3807(13) 0.5482(13)
O94? O 0.5328(12) 0.6955(7) -0.0093(7)
Mo10A Mo 1.55680(5) 0.60607(3) 0.50458(3)
Mo12A Mo 1.38202(5) 0.55181(3) 0.57469(3)
Mo19A Mo 0.60510(5) 1.02454(3) -0.09299(3)
Mo23A Mo 0.50188(6) 1.11330(3) -0.01629(3)
Zn1* Zn 1.34789(8) 1.30713(5) 0.42449(5)
Zn3A Zn 1.36205(8) 0.60241(5) -0.30772(4)
Zn4A Zn 1.57304(7) 0.47171(4) 0.54267(4)
Zn5A Zn 0.39852(7) 0.99130(5) -0.02681(4)
Zn6A Zn 0.60130(8) 1.07081(5) 0.78462(4)
O16A O 1.4431(4) 0.5718(2) 0.5096(2)
O41* O 1.2889(6) 0.2473(3) 0.4446(3)
O44A O 1.7330(5) 0.3831(4) 0.2594(3)
O54A O 0.5861(4) 1.0546(3) -0.0281(2)
O87A O 0.3104(5) 0.9482(3) 0.2641(3)
#END
