
#######################################################################
#
#                 Cambridge Crystallographic Data Centre
#                                CCDC
#
#######################################################################
#
# If this CIF has been generated from an entry in the Cambridge
# Structural Database, then it will include bibliographic, chemical,
# crystal, experimental, refinement or atomic coordinate data resulting
# from the CCDC's data processing and validation procedures.
#
#######################################################################

data_CSD_CIF_KOVHAH
_audit_creation_date 2019-10-08
_audit_creation_method CSD-ConQuest-V1
_database_code_CSD KOVHAH
_database_code_depnum_ccdc_archive 'CCDC 1934851'
_chemical_formula_sum 'C116 H89 N28 O23 Zn8'
_chemical_formula_moiety
;
(C111 H72 N26 O21 Zn8 1-)n,C2 H8 N1 1+,x(C3 H7 N1 O1),y(H2 O1)
;
_journal_coden_Cambridge 1078
_journal_year 2019
_journal_name_full 'CSD Communication(Private Communication) '
loop_
_publ_author_name
"Jian-Ping Bai"
"Yong-Liang Huang"
"Mo Xie"
"Yifang Zhao"
"Dong Luo"
"Yan Yan Li"
"Weigang Lu"
"Dan Li"
_chemical_name_systematic
;
catena-[dimethylammonium 
bis(\m-4,4',4'',4'''-(porphyrin-5,10,15,20-tetrayl)tetrabenzoato)-tris(\m-2,6-
diamino-9H-purin-9-yl)-(\m-oxo)-octa-zinc(ii) N,N-dimethylformamide solvate 
hydrate]
;
_cell_volume  15219.140
_exptl_crystal_colour 'dark brown'
_exptl_crystal_description 'needle'
_diffrn_ambient_temperature 100.0
_refine_special_details
;
Disordered dimethylammonium cation, N,N-dimethylformamide and water solvent 
molecules were not modelled and the disordered density was taken into account 
using the MASK/OLEX2 program.
;
#These two values have been output from a single CSD field.
_refine_ls_R_factor_gt 0.1432
_refine_ls_wR_factor_gt 0.1432
_symmetry_cell_setting monoclinic
_symmetry_space_group_name_H-M 'P 21/n'
_symmetry_Int_Tables_number 14
loop_
_symmetry_equiv_pos_site_id
_symmetry_equiv_pos_as_xyz
1 x,y,z
2 1/2-x,1/2+y,1/2-z
3 -x,-y,-z
4 -1/2+x,-1/2-y,-1/2+z
_cell_length_a 20.5074(9)
_cell_length_b 29.3383(12)
_cell_length_c 26.3661(14)
_cell_angle_alpha 90
_cell_angle_beta 106.383(5)
_cell_angle_gamma 90
_cell_formula_units_Z 4
loop_
_atom_type_symbol
_atom_type_radius_bond
C 0.68
H 0.23
N 0.68
O 0.68
Zn 1.22
loop_
_atom_site_label
_atom_site_type_symbol
_atom_site_fract_x
_atom_site_fract_y
_atom_site_fract_z
Zn1 Zn 0.58057(8) 0.13989(5) 0.27531(6)
Zn2 Zn 0.41461(8) 0.13983(5) 0.21761(6)
Zn3 Zn 0.55028(8) 0.52055(6) 0.13188(7)
Zn4 Zn 0.44961(8) 0.51937(6) 0.36817(7)
Zn5 Zn 0.48518(9) 0.06547(7) 0.29943(8)
Zn6 Zn 0.51685(9) 0.07487(7) 0.18538(8)
Zn7 Zn 1.04856(10) 0.40868(6) 0.02794(8)
Zn8 Zn 0.55442(11) 0.90580(7) 0.03889(8)
O1 O 0.4972(4) 0.1045(3) 0.2459(3)
O2 O 0.1588(4) 0.6051(3) 0.2625(3)
N1 N 0.3779(5) 0.1445(3) 0.1384(4)
O3 O 0.8452(4) 0.6026(3) 0.2426(3)
N2 N 0.6156(5) 0.1426(3) 0.3534(4)
O4 O 0.5859(4) 0.2011(3) 0.2500(4)
O5 O 0.5139(4) 0.1841(3) 0.1715(4)
O6 O 0.9256(5) 0.4689(3) -0.0280(4)
O7 O 0.9703(5) 0.4330(3) 0.0455(4)
N3 N 0.5426(6) 0.0823(4) 0.3698(4)
N4 N 0.4901(6) 0.4800(4) 0.1616(5)
O8 O 0.4082(5) 0.2016(3) 0.2415(4)
O9 O 0.0688(5) 0.4679(4) 0.5197(5)
O10 O 0.5140(5) 0.5122(3) 0.4500(4)
O11 O 0.4860(6) 0.5170(4) 0.0517(4)
N5 N 0.4967(5) 0.5773(4) 0.3501(4)
N6 N 0.6108(5) 0.4645(4) 0.1306(5)
N7 N 0.6841(6) 0.2053(4) 0.3492(5)
H1 H 0.65321 0.21767 0.32171
H2 H 0.70183 0.22839 0.36975
N8 N 0.3886(5) 0.4640(3) 0.3652(4)
N9 N 0.4489(5) 0.0854(4) 0.1187(4)
O12 O 0.8952(5) 0.5880(4) 0.3287(4)
N10 N 0.5059(5) 0.5778(3) 0.1535(4)
N11 N 0.3755(5) 0.5604(3) 0.3840(4)
N12 N 0.3066(6) 0.2059(4) 0.1445(5)
H3 H 0.27508 0.19197 0.15452
H4 H 0.33955 0.21243 0.17231
O13 O 0.1087(6) 0.5679(6) 0.1918(4)
N13 N 0.5708(5) 0.0884(4) 0.4588(4)
N14 N 0.4200(7) 0.0954(5) 0.0288(5)
N15 N 0.3092(6) 0.1857(4) 0.0615(5)
C1 C 0.4011(6) 0.2917(4) 0.2717(5)
H5 H 0.36354 0.28025 0.24627
N16 N 0.6819(6) 0.1829(4) 0.4319(5)
N17 N 0.6259(5) 0.5618(4) 0.1180(4)
O14 O 0.0222(6) 0.4334(4) 0.4436(5)
C2 C 0.4001(6) 0.1190(5) 0.1037(5)
O15 O 0.4157(6) 0.8540(3) 0.4244(4)
C3 C 0.5947(6) 0.3371(4) 0.2095(5)
H6 H 0.63075 0.35525 0.22802
C4 C 0.5927(7) 0.1160(5) 0.3860(5)
C5 C 0.6513(6) 0.5497(4) 0.3079(5)
N18 N 0.4878(5) -0.0041(4) 0.2739(4)
N19 N 0.5114(5) 0.4805(3) 0.3365(5)
C6 C 0.7600(4) 0.4924(3) 0.0783(3)
C7 C 0.8203(4) 0.4758(4) 0.1119(2)
H7 H 0.82479 0.47242 0.14776
C8 C 0.8740(4) 0.4643(4) 0.0918(3)
H8 H 0.91430 0.45319 0.11427
C9 C 0.8673(4) 0.4694(3) 0.0382(3)
C10 C 0.8070(4) 0.4860(3) 0.0046(2)
H9 H 0.80256 0.48935 -0.03130
C11 C 0.7534(3) 0.4975(3) 0.0246(3)
H10 H 0.71304 0.50858 0.00218
C12 C 0.6101(7) 0.1193(4) 0.4381(6)
C13 C 0.3196(6) 0.5461(4) 0.3979(5)
C14 C 0.6582(7) 0.1739(5) 0.3789(6)
C15 C 0.4039(8) 0.3376(4) 0.2827(5)
H11 H 0.36959 0.35633 0.26269
C16 C 0.3342(6) 0.1780(5) 0.1145(6)
C17 C 0.6818(7) 0.5490(5) 0.1043(5)
C18 C 0.4491(8) 0.2131(5) 0.2862(7)
C19 C 0.4036(7) 0.4188(6) 0.3576(6)
N20 N 0.3102(7) 0.1685(4) -0.0218(4)
H12 H 0.28208 0.19068 -0.03219
H13 H 0.32339 0.15273 -0.04454
C20 C 0.3462(7) 0.5680(5) 0.2418(6)
H14 H 0.38657 0.57164 0.26855
C21 C 0.6647(7) 0.4638(5) 0.1097(6)
C22 C 0.9253(5) 0.4561(3) 0.0169(4)
C23 C 0.0691(6) 0.4563(4) 0.4751(6)
C24 C 0.3471(7) 0.5504(4) 0.1930(6)
C25 C 0.6392(8) 0.3913(5) 0.1219(6)
H15 H 0.63836 0.35956 0.12229
C26 C 0.4045(6) 0.4576(5) 0.1984(6)
H16 H 0.36796 0.45861 0.21275
C27 C 0.4584(6) 0.0742(4) 0.0696(6)
H17 H 0.49051 0.05282 0.06637
C28 C 0.2860(7) 0.5857(5) 0.4128(5)
H18 H 0.24675 0.58559 0.42381
C29 C 0.4532(6) 0.4046(5) 0.3371(5)
C30 C 0.5975(6) 0.4563(5) 0.2993(5)
H19 H 0.63478 0.45765 0.28584
C31 C 0.5353(7) 0.0685(5) 0.4166(6)
H20 H 0.50522 0.04522 0.41835
C32 C 0.7169(7) 0.5785(5) 0.2529(5)
H21 H 0.71888 0.58940 0.22023
O16 O 0.4810(6) 0.1857(3) 0.3162(4)
C33 C 0.4519(6) 0.2621(4) 0.2971(5)
C34 C 0.3320(6) 0.1593(5) 0.0268(6)
C35 C 0.2391(7) 0.4914(5) 0.4185(6)
C36 C 0.5396(6) 0.3572(5) 0.1708(5)
N21 N 0.5363(6) 0.0136(3) 0.1979(4)
C37 C 0.5169(6) -0.0148(3) 0.2348(4)
C38 C 0.5374(7) -0.0600(3) 0.2278(4)
N22 N 0.5695(6) -0.0596(3) 0.1865(4)
C39 C 0.5688(6) -0.0141(4) 0.1681(4)
H22 H 0.58657 -0.00412 0.14120
C40 C 0.5832(6) 0.5407(4) 0.3192(5)
C41 C 0.8429(6) 0.5873(5) 0.2855(6)
C42 C 0.5404(7) 0.4051(4) 0.1587(6)
C43 C 0.5613(7) 0.4196(5) 0.3047(6)
H23 H 0.56955 0.38991 0.29572
C44 C 0.4897(8) 0.3279(4) 0.1460(6)
H24 H 0.45185 0.33972 0.12108
C45 C 0.5543(7) 0.5771(5) 0.3335(5)
N23 N 0.4872(8) -0.0814(5) 0.2949(6)
C46 C 0.7102(8) 0.5440(5) 0.3476(6)
H25 H 0.70807 0.53348 0.38035
C47 C 0.4335(6) 0.4954(5) 0.1789(6)
N24 N 0.4375(6) -0.0279(5) 0.3329(5)
H26 H 0.42260 -0.04896 0.34944
H27 H 0.42845 0.00019 0.33724
C48 C 0.4137(6) 0.5406(5) 0.1807(5)
C49 C 0.6985(6) 0.5015(5) 0.0986(5)
C50 C 0.5655(6) 0.4926(6) 0.3189(6)
C51 C 0.5477(7) 0.2120(5) 0.2040(7)
O17 O 0.4972(7) 0.8330(4) 0.4959(4)
C52 C 0.4389(6) 0.4203(5) 0.1925(6)
H28 H 0.42884 0.39072 0.20062
C53 C 0.7192(7) 0.5872(4) 0.0948(5)
H29 H 0.75808 0.58715 0.08320
C54 C 0.7774(6) 0.5731(5) 0.2945(5)
C55 C 0.6846(7) 0.4181(5) 0.1045(5)
H30 H 0.72039 0.40814 0.09205
C56 C 0.2270(7) 0.5681(5) 0.2139(6)
C57 C 0.5963(7) 0.4191(5) 0.1382(6)
C58 C 0.3533(7) 0.3913(5) 0.3691(5)
H31 H 0.35015 0.35986 0.36464
C59 C 0.3002(7) 0.5012(5) 0.4001(5)
C60 C 0.4544(7) 0.3568(5) 0.3214(6)
C61 C 0.2882(7) 0.5398(5) 0.1575(6)
H32 H 0.28887 0.52568 0.12611
N25 N 0.6849(7) 0.1621(4) 0.5139(5)
H33 H 0.71557 0.18277 0.52398
H34 H 0.67249 0.14617 0.53689
C62 C 0.5432(8) 0.2636(4) 0.1906(7)
C63 C 0.1280(7) 0.4666(5) 0.4549(6)
C64 C 0.4918(8) 0.2816(5) 0.1554(6)
H35 H 0.45643 0.26313 0.13652
C65 C 0.4818(7) 0.6204(5) 0.3621(6)
C66 C 0.2254(7) 0.5495(5) 0.1666(5)
H36 H 0.18458 0.54341 0.14120
C67 C 0.2859(7) 0.5797(5) 0.2501(5)
H37 H 0.28504 0.59566 0.28038
C68 C 0.1908(8) 0.4803(6) 0.4907(6)
H38 H 0.19623 0.48023 0.52697
C69 C 0.5063(7) 0.4334(5) 0.3272(6)
C70 C 0.6558(7) 0.5677(5) 0.2604(6)
H39 H 0.61629 0.57259 0.23321
C71 C 0.2440(8) 0.4936(6) 0.4712(6)
H40 H 0.28397 0.50442 0.49447
C72 C 0.4961(7) 0.4336(4) 0.1709(5)
C73 C 0.3311(7) 0.4620(5) 0.3858(5)
C74 C 0.6267(8) 0.6077(4) 0.1188(6)
C75 C 0.3787(7) 0.6067(5) 0.3900(5)
C76 C 0.5342(8) 0.6531(5) 0.3512(6)
H41 H 0.53863 0.68436 0.35717
C77 C 0.5123(7) 0.3265(5) 0.3503(6)
H42 H 0.54956 0.33784 0.37613
C78 C 0.4302(8) 0.6353(5) 0.3805(6)
C79 C 0.3113(8) 0.4165(5) 0.3871(7)
H43 H 0.27519 0.40587 0.39858
C80 C 0.4486(7) 0.5775(5) 0.1706(5)
C81 C 0.4734(7) 0.6554(5) 0.1595(6)
C82 C 0.4250(8) 0.6257(5) 0.1748(6)
C83 C 0.5954(7) 0.2913(5) 0.2199(6)
H44 H 0.63078 0.27880 0.24644
C84 C 0.6864(9) 0.6231(6) 0.1061(7)
H45 H 0.69998 0.65334 0.10589
C85 C 0.5233(8) 0.6227(5) 0.1478(6)
C86 C 0.5801(7) 0.6375(5) 0.1329(6)
C87 C 0.6567(8) 0.1550(6) 0.4629(6)
C88 C 0.3217(7) 0.6214(5) 0.4077(6)
H46 H 0.31194 0.65141 0.41436
C89 C 0.3829(8) 0.1265(6) 0.0511(6)
C90 C 0.4324(6) 0.6848(3) 0.4022(4)
C91 C 0.3853(5) 0.7172(4) 0.3761(4)
H47 H 0.34916 0.70867 0.34759
C92 C 0.3924(5) 0.7624(3) 0.3927(4)
H48 H 0.36090 0.78404 0.37532
C93 C 0.4465(4) 0.7751(2) 0.4354(3)
C94 C 0.4935(5) 0.7427(3) 0.4615(4)
H49 H 0.52973 0.75128 0.49000
C95 C 0.4865(6) 0.6976(3) 0.4448(5)
H50 H 0.51799 0.67591 0.46227
C96 C 0.1594(7) 0.5859(6) 0.2261(6)
C97 C 0.7735(8) 0.5536(6) 0.3400(6)
H51 H 0.81307 0.54645 0.36625
C98 C 0.1239(9) 0.4668(6) 0.4024(7)
H52 H 0.08273 0.45842 0.37874
C99 C 0.5072(7) 0.2815(5) 0.3364(7)
H53 H 0.54227 0.26216 0.35392
C100 C 0.1752(9) 0.4783(6) 0.3825(6)
H54 H 0.16949 0.47770 0.34628
C101 C 0.5815(6) 0.7604(4) 0.0820(4)
H55 H 0.57260 0.77560 0.04984
C102 C 0.5967(4) 0.7850(3) 0.1290(4)
C103 C 0.6101(7) 0.7623(4) 0.1770(4)
H56 H 0.62024 0.77871 0.20845
C104 C 0.6082(8) 0.7149(4) 0.1782(4)
H57 H 0.61717 0.69969 0.21038
C105 C 0.5930(6) 0.6903(3) 0.1313(5)
C106 C 0.5797(7) 0.7130(4) 0.0832(4)
H58 H 0.56953 0.69659 0.05177
C107 C 0.5730(7) 0.6246(5) 0.3303(6)
H59 H 0.60701 0.63439 0.31583
C108 C 0.5162(11) -0.0961(6) 0.2585(7)
N26 N 0.5430(12) -0.1384(5) 0.2588(7)
H60 H 0.54191 -0.15741 0.28338
H61 H 0.56114 -0.14621 0.23440
C109 C 0.4537(5) 0.8250(5) 0.4534(5)
C110 C 0.4782(8) -0.0399(6) 0.2974(6)
O18 O 0.6051(10) 0.8582(6) 0.1704(6)
O19 O 0.5932(6) 0.8541(3) 0.0815(5)
C111 C 0.5986(5) 0.8375(5) 0.1273(5)
O20 O 1.1179(5) 0.4529(3) 0.0771(4)
O21 O 0.6184(5) 0.9585(4) 0.0769(4)
Zn1A Zn 0.91943(8) 0.63989(5) 0.22469(6)
Zn2A Zn 0.08539(8) 0.63983(5) 0.28239(6)
Zn5A Zn 0.01482(9) 0.56547(7) 0.20057(8)
Zn6A Zn 0.98315(9) 0.57487(7) 0.31462(8)
Zn7A Zn 0.45144(10) 0.90868(6) 0.47206(8)
Zn7C Zn 0.54856(10) 0.09132(6) 0.52794(8)
Zn8A Zn -0.05442(11) 0.40580(7) 0.46111(8)
Zn8B Zn 0.44558(11) 0.09420(7) -0.03889(8)
O2A O 0.3412(4) 0.1051(3) 0.2375(3)
O3A O 0.6548(4) 0.1026(3) 0.2574(3)
O12A O 0.6048(5) 0.0880(4) 0.1713(4)
O13A O 0.3913(6) 0.0679(6) 0.3082(4)
N13C N 1.0708(5) 0.4116(4) -0.0412(4)
N14B N 0.5800(7) 0.9046(5) -0.0288(5)
O14A O 0.4778(6) 0.9334(4) 0.0564(5)
O15A O 1.0843(6) 0.3540(3) 0.0756(4)
O17A O 1.0028(7) 0.3330(4) 0.0041(4)
#END
