
#######################################################################
#
#                 Cambridge Crystallographic Data Centre
#                                CCDC
#
#######################################################################
#
# If this CIF has been generated from an entry in the Cambridge
# Structural Database, then it will include bibliographic, chemical,
# crystal, experimental, refinement or atomic coordinate data resulting
# from the CCDC's data processing and validation procedures.
#
#######################################################################

data_CSD_CIF_KOYRAT
_audit_creation_date 2014-12-01
_audit_creation_method CSD-ConQuest-V1
_database_code_CSD KOYRAT
_database_code_depnum_ccdc_archive 'CCDC 1024277'
_chemical_formula_sum 'C73.5 H79.5 N6.5 O20.5 Ru1 Zn2'
_chemical_formula_moiety
;
(C56 H32 O16 Ru1 Zn2 2-)n,4.5n(C3 H7 N1 O1),2n(C2 H8 N1 1+)
;
_journal_coden_Cambridge 36
_journal_volume 782
_journal_year 2015
_journal_page_first 89
_journal_name_full 'J.Organomet.Chem. '
loop_
_publ_author_name
"Jing Xu"
"H.Shimakoshi"
"Y.Hisaeda"
_chemical_name_systematic
;
catena-[bis(dimethylammonium) 
tetrakis(\m-biphenyl-4,4'-dicarboxylato)-ruthenium-di-zinc 
N,N-dimethylformamide solvate]
;
_cell_volume   7958.021
_exptl_crystal_colour 'orange'
_exptl_crystal_density_diffrn 1.347
_exptl_special_details
;
Luminescent
Air-sensitive

;
_exptl_crystal_description 'block'
_diffrn_ambient_temperature 93
_diffrn_special_details
;
twin

;
#These two values have been output from a single CSD field.
_refine_ls_R_factor_gt 0.1213
_refine_ls_wR_factor_gt 0.1213
_symmetry_cell_setting orthorhombic
_symmetry_space_group_name_H-M 'P n a 21'
_symmetry_Int_Tables_number 33
loop_
_symmetry_equiv_pos_site_id
_symmetry_equiv_pos_as_xyz
1 x,y,z
2 -x,-y,1/2+z
3 1/2+x,1/2-y,z
4 1/2-x,1/2+y,1/2+z
_cell_length_a 24.572(6)
_cell_length_b 14.514(4)
_cell_length_c 22.314(5)
_cell_angle_alpha 90
_cell_angle_beta 90
_cell_angle_gamma 90
_cell_formula_units_Z 4
loop_
_atom_type_symbol
_atom_type_radius_bond
C 0.68
H 0.23
N 0.68
O 0.68
Ru 1.46
Zn 1.22
loop_
_atom_site_label
_atom_site_type_symbol
_atom_site_fract_x
_atom_site_fract_y
_atom_site_fract_z
C1 C 0.0886(9) 0.5867(16) 0.112(1)
C2 C 0.1569(8) -0.3167(16) -0.0682(11)
C3 C -0.2552(9) 0.9677(15) 0.0982(10)
C4 C -0.2728(7) 1.0744(13) -0.0890(7)
C5 C 0.0698(8) 1.4593(17) -0.0833(10)
C6 C 0.1841(3) 0.5412(4) 0.6687(2)
C7 C 0.2216(3) 0.5745(4) 0.6275(2)
H1 H 0.25100 0.61210 0.64050
C8 C 0.2162(3) 0.5528(4) 0.5671(2)
H2 H 0.24190 0.57560 0.53890
C9 C 0.1733(3) 0.4978(4) 0.5479(2)
C10 C 0.1357(3) 0.4645(4) 0.5892(2)
H3 H 0.10640 0.42700 0.57610
C11 C 0.1411(3) 0.4862(4) 0.6496(2)
H4 H 0.11550 0.46350 0.67780
C12 C 0.1654(2) 0.4743(3) 0.4810(2)
C13 C 0.2090(2) 0.4778(3) 0.4415(2)
H5 H 0.24460 0.49020 0.45600
C14 C 0.20062(19) 0.4630(3) 0.3806(2)
H6 H 0.23050 0.46540 0.35360
C15 C 0.14857(18) 0.4448(3) 0.3593(2)
C16 C 0.1049(2) 0.4413(3) 0.3988(2)
H7 H 0.06930 0.42880 0.38430
C17 C 0.1133(2) 0.4561(3) 0.4597(2)
H8 H 0.08350 0.45370 0.48670
C18 C 0.13452(18) 0.2300(3) 0.0684(2)
C19 C 0.12928(19) 0.1553(3) 0.1069(2)
H9 H 0.12570 0.16520 0.14880
C20 C 0.1293(2) 0.0662(3) 0.0842(3)
H10 H 0.12570 0.01510 0.11060
C21 C 0.1345(2) 0.0517(3) 0.0229(3)
C22 C 0.1398(2) 0.1264(3) -0.0157(3)
H11 H 0.14330 0.11650 -0.05760
C23 C 0.13976(19) 0.2155(3) 0.0071(2)
H12 H 0.14330 0.26660 -0.01930
C24 C 0.1396(2) -0.0453(3) -0.0006(3)
C25 C 0.1607(3) -0.1154(3) 0.0349(3)
H13 H 0.17140 -0.10290 0.07500
C26 C 0.1661(3) -0.2038(3) 0.0118(3)
H14 H 0.18050 -0.25180 0.03610
C27 C 0.1505(3) -0.2222(3) -0.0469(3)
C28 C 0.1294(3) -0.1521(3) -0.0824(3)
H15 H 0.11880 -0.16460 -0.12250
C29 C 0.1240(3) -0.0636(3) -0.0593(3)
H16 H 0.10960 -0.01570 -0.08360
C30 C 0.03636(14) 0.6394(2) 0.1118(2)
C31 C 0.02050(14) 0.6798(2) 0.0581(2)
H17 H 0.04160 0.67050 0.02290
C32 C -0.02621(14) 0.7337(2) 0.0558(2)
H18 H -0.03710 0.76130 0.01910
C33 C -0.05707(14) 0.7472(2) 0.1073(2)
C34 C -0.04121(14) 0.7068(2) 0.1610(2)
H19 H -0.06230 0.71600 0.19620
C35 C 0.00551(14) 0.6529(2) 0.1633(2)
H20 H 0.01630 0.62530 0.20000
C36 C -0.10810(14) 0.8043(2) 0.1030(2)
C37 C -0.14136(14) 0.8017(3) 0.0526(2)
H21 H -0.13160 0.76440 0.01930
C38 C -0.18887(15) 0.8536(3) 0.0510(2)
H22 H -0.21160 0.85180 0.01660
C39 C -0.20313(15) 0.9081(3) 0.0997(3)
C40 C -0.16986(16) 0.9107(3) 0.1501(2)
H23 H -0.17960 0.94800 0.18340
C41 C -0.12235(15) 0.8588(3) 0.1517(2)
H24 H -0.09960 0.86060 0.18610
C42 C -0.22114(19) 1.1327(3) -0.0853(3)
C43 C -0.1830(2) 1.1258(3) -0.1311(3)
H25 H -0.18900 1.08450 -0.16350
C44 C -0.1361(2) 1.1794(3) -0.1296(3)
H26 H -0.11010 1.17470 -0.16090
C45 C -0.1274(2) 1.2398(3) -0.0822(3)
C46 C -0.1656(2) 1.2467(3) -0.0364(3)
H27 H -0.15960 1.28800 -0.00410
C47 C -0.2124(2) 1.1931(3) -0.0380(3)
H28 H -0.23850 1.19780 -0.00670
C48 C -0.0771(2) 1.2980(3) -0.0806(3)
C49 C -0.0561(2) 1.3304(3) -0.1345(3)
H29 H -0.07390 1.31610 -0.17120
C50 C -0.0090(2) 1.3835(3) -0.1348(3)
H30 H 0.00530 1.40560 -0.17170
C51 C 0.0170(2) 1.4044(3) -0.0812(3)
C52 C -0.0039(2) 1.3720(3) -0.0274(3)
H31 H 0.01390 1.38630 0.00930
C53 C -0.0510(2) 1.3188(3) -0.0271(3)
H32 H -0.06530 1.29670 0.00980
C54 C 0.1892(7) 0.5635(14) 0.7305(9)
C55 C 0.1379(8) 0.3270(15) 0.0957(9)
C56 C 0.1373(6) 0.4398(15) 0.2943(9)
O1 O 0.0809(5) 1.4983(11) -0.0338(6)
O2 O -0.2751(6) 0.9808(11) 0.1497(7)
O3 O 0.1289(6) 0.3894(9) 0.0590(6)
O4 O 0.1219(6) 0.5928(10) 0.0732(6)
O5 O -0.2751(4) 1.0174(9) -0.1305(6)
O6 O 0.2314(6) 0.6043(12) 0.7511(7)
O7 O 0.1495(6) 0.5372(12) 0.7664(5)
O8 O 0.1755(6) 0.4583(11) 0.2591(5)
O9 O -0.2703(6) 0.9905(11) 0.0494(7)
O10 O 0.1788(6) -0.3762(9) -0.0366(6)
O11 O 0.1437(6) -0.3304(10) -0.1237(7)
O12 O 0.1483(6) 0.3343(11) 0.1472(7)
O13 O 0.0945(6) 0.5383(10) 0.1626(7)
O14 O 0.0910(6) 1.4712(11) -0.1310(7)
O15 O -0.3090(5) 1.0873(9) -0.0504(6)
O16 O 0.0926(6) 0.4069(12) 0.2782(7)
Ru1 Ru -0.34516(7) 0.99634(18) 0.00960(16)
Zn1 Zn -0.34432(8) 0.95773(16) -0.14791(14)
Zn2 Zn 0.15813(8) 0.46243(17) 0.17378(14)
C57 C 0.9842(10) 0.981(3) 0.9713(18)
H33 H 1.00960 1.00280 1.00190
H34 H 0.98760 0.91380 0.96720
H35 H 0.99260 1.01030 0.93290
C58 C 0.9211(16) 1.067(3) 1.0382(14)
H36 H 0.95570 1.07610 1.05910
H37 H 0.90780 1.12590 1.02290
H38 H 0.89440 1.04090 1.06610
C59 C 0.8885(11) 0.981(2) 0.9546(14)
H39 H 0.85400 1.00550 0.96520
N1 N 0.929(1) 1.0037(18) 0.9888(10)
O17 O 0.8899(9) 0.9316(18) 0.9102(9)
C60 C 0.8510(13) 0.7491(19) 0.3218(19)
H40 H 0.82760 0.69590 0.33030
H41 H 0.87120 0.73820 0.28470
H42 H 0.87670 0.75780 0.35500
C61 C 0.7594(10) 0.821(3) 0.315(2)
H43 H 0.74950 0.75740 0.32420
H44 H 0.74340 0.86260 0.34460
H45 H 0.74550 0.83710 0.27480
C62 C 0.8404(11) 0.909(2) 0.3039(17)
H46 H 0.81670 0.95950 0.29540
N2 N 0.8178(9) 0.8306(17) 0.3153(13)
O18 O 0.8893(11) 0.9256(18) 0.3029(13)
C63 C 0.8719(13) 0.168(3) 0.2414(11)
H47 H 0.84990 0.14670 0.27540
H48 H 0.89850 0.12060 0.23080
H49 H 0.89100 0.22480 0.25260
C64 C 0.7786(9) 0.186(3) 0.1998(16)
H50 H 0.77030 0.16170 0.23990
H51 H 0.76450 0.24850 0.19610
H52 H 0.76140 0.14610 0.16960
C65 C 0.8569(10) 0.215(3) 0.1404(11)
H53 H 0.83170 0.22680 0.10910
N3 N 0.8370(7) 0.1858(19) 0.1908(9)
O19 O 0.9052(11) 0.229(2) 0.1291(13)
C66 C 0.1578(10) 0.7545(17) 0.1860(15)
H54 H 0.17500 0.69810 0.17090
H55 H 0.14170 0.74250 0.22540
H56 H 0.12930 0.77420 0.15810
C67 C 0.2533(9) 0.806(2) 0.1714(17)
H57 H 0.25570 0.74200 0.15860
H58 H 0.26270 0.84690 0.13780
H59 H 0.27870 0.81710 0.20460
C68 C 0.1856(8) 0.9074(16) 0.2102(11)
H60 H 0.21460 0.95060 0.21180
N4 N 0.1982(7) 0.8261(14) 0.1912(10)
O20 O 0.1415(8) 0.9359(13) 0.2265(10)
C69 C 0.020(3) 0.124(2) 0.212(3)
H61 H 0.02400 0.13740 0.16970
H62 H -0.01010 0.16140 0.22880
H63 H 0.05360 0.13920 0.23350
C70 C 0.023(3) -0.036(4) 0.173(2)
H64 H 0.02650 -0.00260 0.13550
H65 H 0.05720 -0.06580 0.18350
H66 H -0.00570 -0.08340 0.16900
C71 C 0.0003(19) -0.004(4) 0.2747(17)
H67 H -0.03250 -0.03670 0.28240
N5 N 0.007(2) 0.027(2) 0.2205(16)
O21 O 0.0322(19) 0.004(4) 0.3163(17)
C72 C 0.9988(10) 0.375(2) 0.1396(9)
H68 H 1.03020 0.35780 0.11500
H69 H 0.96750 0.33660 0.12850
H70 H 0.98990 0.43990 0.13290
N6 N 1.0114(8) 0.3607(16) 0.2018(8)
H71 H 1.02080 0.30050 0.20690
H72 H 1.04130 0.39510 0.21090
C73 C 0.9694(11) 0.382(3) 0.2442(12)
H73 H 0.98250 0.37020 0.28490
H74 H 0.95970 0.44770 0.24050
H75 H 0.93730 0.34440 0.23600
C74 C 0.3497(10) 0.671(2) 0.7873(10)
H76 H 0.36370 0.62010 0.76320
H77 H 0.32910 0.71350 0.76160
H78 H 0.38020 0.70440 0.80570
N7 N 0.3145(8) 0.6358(14) 0.8335(8)
H79 H 0.33400 0.59530 0.85620
H80 H 0.28720 0.60370 0.81570
C75 C 0.2907(9) 0.7034(18) 0.8729(11)
H81 H 0.26770 0.67240 0.90250
H82 H 0.31970 0.73740 0.89350
H83 H 0.26860 0.74650 0.84940
O1B O -0.4191(5) 1.0017(11) -0.0338(6)
O2B O 0.2249(6) 0.5192(11) 0.1497(7)
O3B O -0.3711(6) 1.1106(9) 0.0590(6)
O4B O -0.3781(6) 0.9072(10) 0.0732(6)
O7B O -0.3505(6) 0.9628(12) -0.2336(5)
O10B O -0.3212(6) 0.8762(9) -0.0366(6)
O11B O -0.3563(6) 0.8304(10) -0.1237(7)
O14B O -0.4090(6) 1.0288(11) -0.1310(7)
Ru1B Ru 0.15484(7) -0.49634(18) 0.00960(16)
Ru1B* Ru 0.15484(7) 0.50366(18) 0.00960(16)
Ru1B** Ru 0.15484(7) 1.50366(18) 0.00960(16)
Zn1B Zn 0.15568(8) -0.45773(16) -0.14791(14)
Zn1B* Zn 0.15568(8) 0.54227(16) 0.85209(14)
Zn1B** Zn 0.15568(8) 1.54227(16) -0.14791(14)
Zn2B Zn -0.34187(8) 1.03757(17) 0.17378(14)
#END
