
#######################################################################
#
#                 Cambridge Crystallographic Data Centre
#                                CCDC
#
#######################################################################
#
# If this CIF has been generated from an entry in the Cambridge
# Structural Database, then it will include bibliographic, chemical,
# crystal, experimental, refinement or atomic coordinate data resulting
# from the CCDC's data processing and validation procedures.
#
#######################################################################

data_CSD_CIF_KOZDEK
_audit_creation_date 2014-12-01
_audit_creation_method CSD-ConQuest-V1
_database_code_CSD KOZDEK
_database_code_depnum_ccdc_archive 'CCDC 1022513'
_chemical_formula_sum 'C43 H46 Mn2 N2 O16'
_chemical_formula_moiety
;
(C13 H28 N2 2+)n,2n(C15 H9 Mn1 O8 1-)
;
_journal_coden_Cambridge 222
_journal_volume 44
_journal_year 2015
_journal_page_first 1655
_journal_name_full 'Dalton Trans. '
loop_
_publ_author_name
"Yan-Ning Wang"
"Ping Zhang"
"Jie-Hui Yu"
"Ji-Qing Xu"
_chemical_name_systematic
;
catena-[4,4'-propane-1,3-diyldipiperidinium 
bis((\m-4-(4-carboxylatophenoxy)phthalato)-aqua-manganese)]
;
_cell_volume   2016.728
_exptl_crystal_colour 'colorless'
_exptl_crystal_density_diffrn 1.556
_exptl_crystal_description 'block'
_diffrn_ambient_temperature 293
_refine_special_details
;
C22 disordered by symmetry over two configurations with occupancy 0.50.

;
#These two values have been output from a single CSD field.
_refine_ls_R_factor_gt 0.0605
_refine_ls_wR_factor_gt 0.0605
_symmetry_cell_setting monoclinic
_symmetry_space_group_name_H-M 'P 21/c'
_symmetry_Int_Tables_number 14
loop_
_symmetry_equiv_pos_site_id
_symmetry_equiv_pos_as_xyz
1 x,y,z
2 -x,1/2+y,1/2-z
3 -x,-y,-z
4 x,-1/2-y,-1/2+z
_cell_length_a 14.5688(7)
_cell_length_b 14.2833(9)
_cell_length_c 9.8497(6)
_cell_angle_alpha 90
_cell_angle_beta 100.280(3)
_cell_angle_gamma 90
_cell_formula_units_Z 2
loop_
_atom_type_symbol
_atom_type_radius_bond
C 0.68
H 0.23
Mn 1.61
N 0.68
O 0.68
loop_
_atom_site_label
_atom_site_type_symbol
_atom_site_fract_x
_atom_site_fract_y
_atom_site_fract_z
Mn1 Mn 0.43216(4) 0.16315(4) -0.00749(6)
O1 O 0.30835(19) 0.2324(2) 0.0849(3)
O2 O 0.2799(2) 0.1392(2) -0.0960(3)
O3 O -0.50819(18) 0.0705(2) -0.1307(3)
O4 O -0.4157(2) -0.0526(2) -0.1371(3)
O5 O -0.4645(2) 0.1148(2) -0.4236(3)
O6 O -0.4621(2) 0.2675(2) -0.3722(3)
O7 O -0.12054(19) 0.1363(3) 0.0752(3)
C1 C 0.1532(3) 0.1740(3) 0.0179(4)
C2 C 0.1208(3) 0.2157(3) 0.1280(4)
H1 H 0.16120 0.25170 0.19090
C3 C 0.0292(3) 0.2041(3) 0.1451(5)
H2 H 0.00810 0.23170 0.21930
C4 C -0.0308(3) 0.1510(3) 0.0502(4)
C5 C -0.0003(3) 0.1090(3) -0.0601(5)
H3 H -0.04120 0.07390 -0.12350
C6 C 0.0917(3) 0.1198(3) -0.0754(4)
H4 H 0.11280 0.09070 -0.14850
C7 C -0.1941(3) 0.1460(3) -0.0360(4)
C8 C -0.1954(3) 0.2160(3) -0.1331(5)
H5 H -0.14380 0.25460 -0.13140
C9 C -0.2744(3) 0.2281(3) -0.2328(5)
H6 H -0.27590 0.27560 -0.29770
C10 C -0.3519(3) 0.1701(3) -0.2375(4)
C11 C -0.3488(3) 0.0982(3) -0.1408(4)
C12 C -0.2690(3) 0.0862(3) -0.0397(4)
H7 H -0.26640 0.03820 0.02470
C13 C 0.2531(3) 0.1827(3) 0.0007(4)
C14 C -0.4310(3) 0.0336(3) -0.1363(4)
C15 C -0.4333(3) 0.1842(3) -0.3542(4)
O8 O 0.4224(2) 0.2772(2) -0.1580(3)
N1 N 0.3494(4) 0.4500(4) -0.0056(9)
H8 H 0.38730 0.49300 -0.03350
H9 H 0.38380 0.39770 0.01320
C16 C 0.3299(4) 0.4839(8) 0.1290(7)
C17 C 0.2357(5) 0.5273(5) 0.1314(7)
H10 H 0.24510 0.59340 0.15150
H11 H 0.21120 0.49970 0.20750
C18 C 0.1620(3) 0.5182(6) 0.0030(5)
H12 H 0.14450 0.45580 0.03090
C19 C 0.1876(3) 0.4794(6) -0.1297(6)
H13 H 0.13770 0.43750 -0.16980
H14 H 0.18660 0.53150 -0.19290
C20 C 0.2778(4) 0.4280(5) -0.1282(6)
H15 H 0.26570 0.36120 -0.13040
H16 H 0.30200 0.44400 -0.21090
C21 C 0.0632(5) 0.5540(8) -0.0034(12)
C22 C 0.0144(9) 0.4596(9) 0.0568(13)
Mn1* Mn -0.56784(4) 0.16315(4) -0.00749(6)
Mn1B Mn -0.43216(4) -0.16315(4) 0.00749(6)
Mn1C Mn -0.56784(4) 0.33685(4) -0.50749(6)
O3* O 0.49181(18) 0.0705(2) -0.1307(3)
O4B O 0.4157(2) 0.0526(2) 0.1371(3)
O6C O 0.5379(2) 0.2325(2) 0.1278(3)
N1B N -0.3494(4) 0.5500(4) 0.0056(9)
H8B H -0.38730 0.50700 0.03350
H9B H -0.38380 0.60230 -0.01320
C16B C -0.3299(4) 0.5161(8) -0.1290(7)
C17B C -0.2357(5) 0.4727(5) -0.1314(7)
H10B H -0.24510 0.40660 -0.15150
H11B H -0.21120 0.50030 -0.20750
C18B C -0.1620(3) 0.4818(6) -0.0030(5)
H12B H -0.14450 0.54420 -0.03090
C19B C -0.1876(3) 0.5206(6) 0.1297(6)
H13B H -0.13770 0.56250 0.16980
H14B H -0.18660 0.46850 0.19290
C20B C -0.2778(4) 0.5720(5) 0.1282(6)
H15B H -0.26570 0.63880 0.13040
H16B H -0.30200 0.55600 0.21090
C21B C -0.0632(5) 0.4460(8) 0.0034(12)
C22B C -0.0144(9) 0.5404(9) -0.0568(13)
#END
