
#######################################################################
#
#                 Cambridge Crystallographic Data Centre
#                                CCDC
#
#######################################################################
#
# If this CIF has been generated from an entry in the Cambridge
# Structural Database, then it will include bibliographic, chemical,
# crystal, experimental, refinement or atomic coordinate data resulting
# from the CCDC's data processing and validation procedures.
#
#######################################################################

data_CSD_CIF_KOZGEN
_audit_creation_date 2014-12-01
_audit_creation_method CSD-ConQuest-V1
_database_code_CSD KOZGEN
_database_code_depnum_ccdc_archive 'CCDC 1002444'
_chemical_formula_sum 'C34 H70 Cl2 Cu1 N6 O12 Si4'
_chemical_formula_moiety
;
(C10 H30 N2 O1 Si2 2+)2n,n(C14 H6 Cu1 N2 O8 2-),2n(H2 O1),2n(Cl1 1-)
;
_journal_coden_Cambridge 119
_journal_volume 1083
_journal_year 2015
_journal_page_first 88
_journal_name_full 'J.Mol.Struct. '
loop_
_publ_author_name
"A.Soroceanu"
"A.Bargan"
"S.Shova"
"M.Avadanei"
"M.Cazacu"
_chemical_name_systematic
;
catena-[bis(3,3'-(1,1,3,3-tetramethyldisiloxane-1,3-diyl)dipropan-1-aminium) 
bis(\m-pyridine-2,3-dicarboxylato)-copper dichloride dihydrate]
;
_cell_volume   2536.659
_exptl_crystal_colour 'light violet'
_exptl_crystal_density_diffrn 1.312
_exptl_crystal_description 'plate'
_diffrn_ambient_temperature 200
#These two values have been output from a single CSD field.
_refine_ls_R_factor_gt 0.0778
_refine_ls_wR_factor_gt 0.0778
_symmetry_cell_setting monoclinic
_symmetry_space_group_name_H-M 'P 21/c'
_symmetry_Int_Tables_number 14
loop_
_symmetry_equiv_pos_site_id
_symmetry_equiv_pos_as_xyz
1 x,y,z
2 -x,1/2+y,1/2-z
3 -x,-y,-z
4 x,-1/2-y,-1/2+z
_cell_length_a 23.527(3)
_cell_length_b 7.9089(7)
_cell_length_c 13.6772(13)
_cell_angle_alpha 90
_cell_angle_beta 94.627(10)
_cell_angle_gamma 90
_cell_formula_units_Z 2
loop_
_atom_type_symbol
_atom_type_radius_bond
C 0.68
H 0.23
Cl 0.99
Cu 1.32
N 0.68
O 0.68
Si 1.20
loop_
_atom_site_label
_atom_site_type_symbol
_atom_site_fract_x
_atom_site_fract_y
_atom_site_fract_z
Si1 Si 0.11436(8) 0.3683(3) 0.25546(15)
Si2 Si 0.11835(9) 0.6386(3) 0.08655(16)
O1 O 0.1181(2) 0.5358(7) 0.1885(4)
N1 N 0.33001(18) 0.4109(6) 0.4030(3)
H1 H 0.36500 0.40740 0.38290
H2 H 0.32940 0.35580 0.45960
H3 H 0.31990 0.51800 0.41120
N2 N 0.32730(18) 0.8486(5) 0.2088(3)
H4 H 0.34040 0.75200 0.18600
H5 H 0.32180 0.83700 0.27200
H6 H 0.35250 0.93060 0.20160
C1 C 0.2895(2) 0.3299(7) 0.3282(4)
H7 H 0.29590 0.20880 0.32880
H8 H 0.29670 0.37190 0.26370
C2 C 0.2285(2) 0.3642(7) 0.3463(4)
H9 H 0.22150 0.48490 0.34220
H10 H 0.22180 0.32770 0.41210
C3 C 0.1866(2) 0.2726(8) 0.2721(4)
H11 H 0.18280 0.15640 0.29330
H12 H 0.20270 0.27050 0.20910
C4 C 0.0626(3) 0.2121(10) 0.1975(6)
H13 H 0.07610 0.17170 0.13740
H14 H 0.02610 0.26540 0.18390
H15 H 0.05880 0.11870 0.24140
C5 C 0.0909(3) 0.4432(10) 0.3738(6)
H16 H 0.09590 0.35460 0.42170
H17 H 0.05130 0.47420 0.36550
H18 H 0.11310 0.53970 0.39570
C6 C 0.1375(5) 0.5033(16) -0.0142(8)
H19 H 0.14030 0.57070 -0.07200
H20 H 0.10870 0.41830 -0.02700
H21 H 0.17350 0.45000 0.00340
C7 C 0.0461(3) 0.7255(12) 0.0613(7)
H22 H 0.03920 0.80930 0.10970
H23 H 0.01860 0.63610 0.06370
H24 H 0.04280 0.77630 -0.00260
C8 C 0.1719(3) 0.8070(9) 0.1054(5)
H25 H 0.17840 0.85450 0.04190
H26 H 0.15600 0.89600 0.14370
C9 C 0.2288(2) 0.7564(8) 0.1558(4)
H27 H 0.22370 0.72770 0.22350
H28 H 0.24240 0.65600 0.12420
C10 C 0.2731(2) 0.8919(7) 0.1538(4)
H29 H 0.28020 0.91450 0.08620
H30 H 0.25830 0.99470 0.18100
Cu1 Cu 0.50000 0.00000 0.00000
O2 O 0.43067(14) -0.0001(4) 0.0671(2)
O3 O 0.38843(14) 0.1428(4) 0.1806(2)
O4 O 0.43513(14) 0.4248(5) 0.3259(2)
O5 O 0.38155(15) 0.5319(4) 0.1982(3)
N3 N 0.51143(16) 0.2245(5) 0.0584(3)
C11 C 0.42594(19) 0.1263(6) 0.1237(3)
C12 C 0.47046(19) 0.2621(5) 0.1181(3)
C13 C 0.47064(19) 0.4128(6) 0.1693(3)
C14 C 0.5140(2) 0.5268(6) 0.1551(3)
H31 H 0.51430 0.63210 0.18530
C15 C 0.5569(2) 0.4837(6) 0.0957(3)
H32 H 0.58680 0.55790 0.08770
C16 C 0.5545(2) 0.3310(6) 0.0492(3)
H33 H 0.58360 0.30070 0.01030
C17 C 0.4247(2) 0.4594(6) 0.2361(3)
O6 O 0.3189(2) 0.3576(5) 0.0348(3)
H34 H 0.33920 0.39350 0.08470
H35 H 0.30180 0.44030 0.00560
Cl1 Cl 0.29168(7) 0.80270(19) 0.42177(11)
O2B O 0.56933(14) 0.0001(4) -0.0671(2)
O3B O 0.61157(14) -0.1428(4) -0.1806(2)
O4B O 0.56487(14) -0.4248(5) -0.3259(2)
O5B O 0.61845(15) -0.5319(4) -0.1982(3)
N3B N 0.48857(16) -0.2245(5) -0.0584(3)
C11B C 0.57406(19) -0.1263(6) -0.1237(3)
C12B C 0.52954(19) -0.2621(5) -0.1181(3)
C13B C 0.52936(19) -0.4128(6) -0.1693(3)
C14B C 0.4860(2) -0.5268(6) -0.1551(3)
H31B H 0.48570 -0.63210 -0.18530
C15B C 0.4431(2) -0.4837(6) -0.0957(3)
H32B H 0.41320 -0.55790 -0.08770
C16B C 0.4455(2) -0.3310(6) -0.0492(3)
H33B H 0.41640 -0.30070 -0.01030
C17B C 0.5753(2) -0.4594(6) -0.2361(3)
Cu1A Cu 0.50000 -0.50000 -0.50000
Cu1A* Cu 0.50000 0.50000 0.50000
O4A O 0.56487(14) -0.0752(5) 0.1741(2)
O4C O 0.43513(14) 0.0752(5) -0.1741(2)
#END
