
#######################################################################
#
#                 Cambridge Crystallographic Data Centre
#                                CCDC
#
#######################################################################
#
# If this CIF has been generated from an entry in the Cambridge
# Structural Database, then it will include bibliographic, chemical,
# crystal, experimental, refinement or atomic coordinate data resulting
# from the CCDC's data processing and validation procedures.
#
#######################################################################

data_CSD_CIF_KOZJUH
_audit_creation_date 2019-10-10
_audit_creation_method CSD-ConQuest-V1
_database_code_CSD KOZJUH
_database_code_depnum_ccdc_archive 'CCDC 1940281'
_chemical_formula_sum 'C14 H18 Mo4 N6 O18 Zn1'
_chemical_formula_moiety
;
C14 H18 N6 O5 Zn1 2+,n(Mo4 O13 2-)
;
_journal_coden_Cambridge 1350
_journal_volume 21
_journal_year 2019
_journal_page_first 6472
_journal_name_full 'CrystEngComm '
loop_
_publ_author_name
"Xiang Pan"
"Xiuli Wang"
"Xiang Wang"
"Yan Li"
"Guocheng Liu"
"Hongyan Lin"
_chemical_name_systematic
;
catena-[(N,N'-(1,4-phenylene)di(1H-pyrazole-3-carboxamide))-triaqua-zinc(ii) 
hexakis(\m-oxo)-heptaoxo-tetra-molybdenum]
;
_cell_volume   1316.573
_exptl_crystal_colour 'colorless'
_exptl_crystal_density_diffrn 2.541
_exptl_crystal_description 'block'
_diffrn_ambient_temperature 293
#These two values have been output from a single CSD field.
_refine_ls_R_factor_gt 0.0361
_refine_ls_wR_factor_gt 0.0361
_symmetry_cell_setting triclinic
_symmetry_space_group_name_H-M 'P -1'
_symmetry_Int_Tables_number 2
loop_
_symmetry_equiv_pos_site_id
_symmetry_equiv_pos_as_xyz
1 x,y,z
2 -x,-y,-z
_cell_length_a 8.1287(11)
_cell_length_b 11.5708(16)
_cell_length_c 15.695(2)
_cell_angle_alpha 105.595(3)
_cell_angle_beta 101.843(2)
_cell_angle_gamma 104.487(2)
_cell_formula_units_Z 2
loop_
_atom_type_symbol
_atom_type_radius_bond
C 0.68
H 0.23
Mo 1.54
N 0.68
O 0.68
Zn 1.22
loop_
_atom_site_label
_atom_site_type_symbol
_atom_site_fract_x
_atom_site_fract_y
_atom_site_fract_z
Mo1 Mo -0.54009(5) -0.46827(4) -0.31661(3)
Mo2 Mo 0.00186(5) -0.35089(4) -0.49331(3)
Mo3 Mo -0.13220(5) -0.44489(4) -0.32191(3)
O1 O -0.5492(4) -0.5920(3) -0.2765(2)
Mo4 Mo -0.39466(5) -0.34237(3) -0.47942(3)
O2 O -0.6223(4) -0.3731(3) -0.2467(2)
O3 O -0.4061(4) -0.5289(3) -0.4260(2)
O4 O -0.2867(4) -0.3755(3) -0.2605(2)
O5 O -0.4830(4) -0.3129(3) -0.3865(2)
O6 O -0.3736(4) -0.2122(3) -0.5105(2)
O7 O -0.2788(4) -0.4470(3) -0.5685(2)
O8 O -0.1479(4) -0.3083(3) -0.4064(2)
O9 O -0.1456(4) -0.5759(3) -0.2900(2)
O10 O 0.0564(4) -0.3323(3) -0.2470(2)
O11 O 0.1916(4) -0.2741(3) -0.4038(2)
O12 O 0.0539(4) -0.4900(3) -0.5686(2)
O13 O 0.0083(4) -0.2500(3) -0.5541(2)
Zn1 Zn 0.32004(8) 0.03023(6) 0.12974(4)
O14 O 0.1277(5) -0.1443(3) 0.1047(2)
N1 N 0.3847(5) 0.0018(4) 0.2549(3)
C1 C 0.5151(7) -0.0243(5) 0.3839(4)
H1 H 0.59390 -0.00740 0.44130
O15 O 0.2638(5) -0.0275(3) -0.0109(2)
H2 H 0.32210 -0.06250 -0.04270
H3 H 0.15760 -0.05050 -0.04510
O16 O -0.5325(5) -0.8547(3) -0.0667(3)
C2 C 0.2985(6) -0.1147(4) 0.2538(3)
N2 N 0.5151(5) 0.0535(4) 0.3350(3)
H4 H 0.59030 0.12860 0.35280
O17 O 0.5777(4) 0.1341(3) 0.1511(2)
H5 H 0.63700 0.21250 0.16910
N3 N 0.0527(5) -0.3028(4) 0.1636(3)
H6 H 0.07990 -0.32300 0.21230
C3 C 0.1514(6) -0.1901(5) 0.1684(3)
O18 O 0.1742(5) 0.1466(4) 0.1360(3)
H7 H 0.16550 0.20460 0.17980
N4 N -0.5049(5) -0.6901(4) -0.1226(3)
H8 H -0.54460 -0.67050 -0.17000
C4 C -0.0912(6) -0.3947(4) 0.0899(3)
N5 N -0.9376(5) -1.0578(4) -0.2994(3)
H9 H -1.00600 -1.13540 -0.32210
C5 C -0.1920(6) -0.4942(5) 0.1095(3)
H10 H -0.16780 -0.49390 0.17010
C6 C -0.3274(6) -0.5938(5) 0.0415(3)
H11 H -0.39260 -0.66070 0.05570
N6 N -0.8029(5) -1.0109(4) -0.2204(3)
C7 C -0.3648(6) -0.5925(4) -0.0486(3)
C8 C -0.2660(7) -0.4928(5) -0.0687(4)
H12 H -0.29070 -0.49260 -0.12920
C9 C -0.1316(7) -0.3939(5) -0.0001(3)
H13 H -0.06770 -0.32630 -0.01410
C10 C -0.5825(6) -0.8098(4) -0.1266(3)
C11 C -0.7347(6) -0.8877(4) -0.2100(3)
C12 C -0.9535(7) -0.9704(5) -0.3387(4)
H14 H -1.03660 -0.98330 -0.39370
C13 C 0.3756(7) -0.1353(5) 0.3333(4)
H15 H 0.34130 -0.20770 0.34920
C14 C -0.8243(6) -0.8579(5) -0.2826(4)
H16 H -0.80180 -0.77960 -0.29120
Mo1A Mo -0.45991(5) -0.53173(4) -0.68339(3)
Mo2A Mo -0.00186(5) -0.64911(4) -0.50669(3)
Mo3A Mo 0.13220(5) -0.55511(4) -0.67809(3)
Mo4A Mo -0.60534(5) -0.65763(3) -0.52058(3)
O3A O -0.5939(4) -0.4711(3) -0.5740(2)
O7A O -0.7212(4) -0.5530(3) -0.4315(2)
O12A O -0.0539(4) -0.5100(3) -0.4314(2)
#END
