
#######################################################################
#
#                 Cambridge Crystallographic Data Centre
#                                CCDC
#
#######################################################################
#
# If this CIF has been generated from an entry in the Cambridge
# Structural Database, then it will include bibliographic, chemical,
# crystal, experimental, refinement or atomic coordinate data resulting
# from the CCDC's data processing and validation procedures.
#
#######################################################################

data_CSD_CIF_KOZNES
_audit_creation_date 1992-12-10
_audit_creation_method CSD-ConQuest-V1
_database_code_CSD KOZNES
_chemical_formula_sum 'C12 H25 Bi2 Br6 O7'
_chemical_formula_moiety
;
(C12 H25 Bi1 Br2 O7 1+)n,0.5n(Bi2 Br8 2-)
;
_journal_coden_Cambridge 4
_journal_volume 114
_journal_year 1992
_journal_page_first 2967
_journal_name_full 'J.Am.Chem.Soc. '
loop_
_publ_author_name
"R.D.Rogers"
"A.H.Bond"
"S.Aguinaga"
"A.Reyes"
_chemical_name_systematic
;
catena-((Hexaethylene glycolato)-dibromo-bismuth(iii)-tetrabromo-bismuth(iii))
;
_cell_volume   1320.644
_exptl_crystal_colour 'red'
_exptl_crystal_density_diffrn 2.96
_diffrn_ambient_temperature ?
_diffrn_special_details
;
The study was carried out at room temperature,in the range 283-303K

;
#These two values have been output from a single CSD field.
_refine_ls_R_factor_gt 0.065
_refine_ls_wR_factor_gt 0.065
_symmetry_cell_setting triclinic
_symmetry_space_group_name_H-M 'P -1'
_symmetry_Int_Tables_number 2
loop_
_symmetry_equiv_pos_site_id
_symmetry_equiv_pos_as_xyz
1 x,y,z
2 -x,-y,-z
_cell_length_a 7.897(5)
_cell_length_b 10.831(9)
_cell_length_c 16.198(7)
_cell_angle_alpha 100.80(6)
_cell_angle_beta 100.42(4)
_cell_angle_gamma 97.08(6)
_cell_formula_units_Z 2
loop_
_atom_type_symbol
_atom_type_radius_bond
C 0.68
H 0.23
Bi 1.78
Br 1.21
O 0.68
loop_
_atom_site_label
_atom_site_type_symbol
_atom_site_fract_x
_atom_site_fract_y
_atom_site_fract_z
Bi1 Bi 0.1379(1) 0.18239(7) 0.34706(6)
Bi2 Bi 0.28079(9) 0.60376(7) 0.03326(6)
Br1 Br 0.2895(3) -0.0065(3) 0.3923(2)
Br2 Br 0.3350(3) 0.3358(3) 0.4909(2)
Br3 Br 0.6099(3) 0.5514(2) 0.1238(2)
Br4 Br -0.0442(3) 0.6432(2) -0.0552(2)
Br5 Br 0.4387(3) 0.8131(2) -0.0053(2)
Br6 Br 0.2352(3) 0.7356(2) 0.1830(2)
O1 O -0.056(2) 0.141(1) 0.443(1)
O2 O -0.099(3) 0.343(2) 0.364(2)
O3 O 0.176(2) 0.397(2) 0.290(1)
O4 O 0.396(2) 0.225(2) 0.272(1)
O5 O 0.111(2) 0.070(2) 0.184(1)
O6 O -0.161(2) 0.002(2) 0.254(1)
O7 O -0.188(4) -0.108(2) 0.392(2)
C1 C -0.188(4) 0.214(3) 0.451(3)
C2 C -0.194(4) 0.313(4) 0.411(3)
C3 C -0.087(4) 0.445(3) 0.325(3)
C4 C 0.074(5) 0.491(3) 0.317(3)
C5 C 0.354(3) 0.440(3) 0.287(2)
C6 C 0.419(4) 0.336(2) 0.236(2)
C7 C 0.410(4) 0.112(3) 0.211(2)
C8 C 0.252(4) 0.069(3) 0.139(2)
C9 C -0.041(4) 0.002(3) 0.120(2)
C10 C -0.177(4) 0.040(2) 0.170(2)
C11 C -0.198(4) -0.124(3) 0.250(2)
C12 C -0.279(4) -0.158(3) 0.317(2)
H1 H -0.17900 0.24800 0.51000
H2 H -0.29500 0.15700 0.42900
H3 H -0.18600 0.38600 0.45600
H4 H -0.30600 0.29600 0.37500
H5 H -0.12800 0.51200 0.35900
H6 H -0.16100 0.42100 0.26900
H7 H 0.06100 0.54300 0.27600
H8 H 0.13700 0.54200 0.37100
H9 H 0.35900 0.51100 0.26000
H10 H 0.42300 0.46500 0.34300
H11 H 0.54000 0.36100 0.23900
H12 H 0.35700 0.31700 0.17800
H13 H 0.51000 0.13000 0.18700
H14 H 0.42500 0.04500 0.24100
H15 H 0.25300 -0.01400 0.10800
H16 H 0.24500 0.12700 0.10200
H17 H -0.05100 0.03000 0.06700
H18 H -0.04200 -0.08800 0.10800
H19 H -0.28900 0.00300 0.13600
H20 H -0.16600 0.13000 0.18100
H21 H -0.27700 -0.16100 0.19600
H22 H -0.09300 -0.15800 0.25100
H23 H -0.28300 -0.24700 0.31000
H24 H -0.39400 -0.13800 0.31000
Br3A Br 0.3901(3) 0.4486(2) -0.1238(2)
Br4A Br 0.0442(3) 0.3568(2) 0.0552(2)
Bi2A Bi 0.71921(9) 0.39624(7) -0.03326(6)
Bi2A* Bi -0.28079(9) 0.39624(7) -0.03326(6)
Br4* Br 0.9558(3) 0.6432(2) -0.0552(2)
Br4A* Br 1.0442(3) 0.3568(2) 0.0552(2)
Br5A Br 0.5613(3) 0.1869(2) 0.0053(2)
Br6A Br 0.7648(3) 0.2644(2) -0.1830(2)
#END
