
#######################################################################
#
#                 Cambridge Crystallographic Data Centre
#                                CCDC
#
#######################################################################
#
# If this CIF has been generated from an entry in the Cambridge
# Structural Database, then it will include bibliographic, chemical,
# crystal, experimental, refinement or atomic coordinate data resulting
# from the CCDC's data processing and validation procedures.
#
#######################################################################

data_CSD_CIF_KPACCE10
_audit_creation_date 1971-12-31
_audit_creation_method CSD-ConQuest-V1
_database_code_CSD KPACCE10
_database_code_depnum_ccdc_archive 'CCDC 1200191'
_chemical_formula_sum 'C10 H17 Ce1 K2 O11'
_chemical_formula_moiety
;
(C10 H15 Ce1 O10 2-)n,2n(K1 1+),n(H2 O1)
;
_journal_coden_Cambridge 82
_journal_volume 9
_journal_year 1968
_journal_page_first 145
_journal_name_full 'Zh.Strukt.Khim.(Russ.)(J.Struct.Chem.) '
loop_
_publ_author_name
"G.G.Sadikov"
"G.A.Kukina"
_chemical_name_systematic
;
catena-[dipotassium (\m-acetato)-tetrakis(acetato)-cerium(iii) monohydrate]
;
_cell_volume   1918.400
_exptl_crystal_density_diffrn 1.839
_diffrn_ambient_temperature ?
_diffrn_special_details
;
The study was carried out at room temperature,in the range 283-303K

;
#These two values have been output from a single CSD field.
_refine_ls_R_factor_gt 0.193
_refine_ls_wR_factor_gt 0.193
_symmetry_cell_setting monoclinic
_symmetry_space_group_name_H-M 'P 21/n'
_symmetry_Int_Tables_number 14
loop_
_symmetry_equiv_pos_site_id
_symmetry_equiv_pos_as_xyz
1 x,y,z
2 1/2-x,1/2+y,1/2-z
3 -x,-y,-z
4 -1/2+x,-1/2-y,-1/2+z
_cell_length_a 20.55(5)
_cell_length_b 14.19(2)
_cell_length_c 6.71(1)
_cell_angle_alpha 90
_cell_angle_beta 101.35(25)
_cell_angle_gamma 90
_cell_formula_units_Z 4
loop_
_atom_type_symbol
_atom_type_radius_bond
C 0.68
Ce 1.76
K 1.33
O 0.68
loop_
_atom_site_label
_atom_site_type_symbol
_atom_site_fract_x
_atom_site_fract_y
_atom_site_fract_z
Ce1 Ce 0.28460 -0.40090 0.52100
C1 C 0.37800 -0.55900 0.58200
C2 C 0.43500 -0.63000 0.61600
C3 C 0.19200 -0.54800 0.54300
C4 C 0.12800 -0.61600 0.58400
C5 C 0.38600 -0.26600 0.48900
C6 C 0.44100 -0.18600 0.46800
C7 C 0.27200 -0.34100 0.00200
C8 C 0.20200 -0.28100 0.01900
C9 C 0.13600 -0.27100 0.44800
C10 C 0.08400 -0.34700 0.48600
O1 O 0.34800 -0.53200 0.41400
O2 O 0.36000 -0.52300 0.72000
O3 O 0.20800 -0.50700 0.71300
O4 O 0.20300 -0.52300 0.38500
O5 O 0.40600 -0.35000 0.52200
O6 O 0.33100 -0.23800 0.46200
O7 O 0.27700 -0.39700 0.16100
O8 O 0.29800 -0.35300 -0.15700
O9 O 0.11900 -0.18400 0.41300
O10 O 0.19500 -0.30100 0.48800
K1 K 0.23780 -0.09840 0.44690
K2 K 0.41120 -0.46300 0.10020
O11 O 0.49500 -0.38900 -0.15900
O8* O 0.29800 -0.35300 0.84300
Ce1* Ce 0.28460 -0.40090 -0.47900
#END
