
#######################################################################
#
#                 Cambridge Crystallographic Data Centre
#                                CCDC
#
#######################################################################
#
# If this CIF has been generated from an entry in the Cambridge
# Structural Database, then it will include bibliographic, chemical,
# crystal, experimental, refinement or atomic coordinate data resulting
# from the CCDC's data processing and validation procedures.
#
#######################################################################

data_CSD_CIF_KPHTCU
_audit_creation_date 1978-06-15
_audit_creation_method CSD-ConQuest-V1
_database_code_CSD KPHTCU
_database_code_depnum_ccdc_archive 'CCDC 1200201'
_chemical_formula_sum 'C16 H12 Cu1 K2 O10'
_chemical_formula_moiety
;
(C16 H8 Cu1 O8 2-)n,2n(K1 1+),2n(H2 O1)
;
_journal_coeditor_code "IUCr A15785"
_journal_coden_Cambridge 107
_journal_volume 34
_journal_year 1978
_journal_page_first 412
_journal_name_full 'Acta Crystallogr.,Sect.B:Struct.Crystallogr.Cryst.Chem. '
loop_
_publ_author_name
"M.B.Cingi"
"A.M.M.Lanfredi"
"A.Tiripicchio"
"M.Tiripicchio Camellini"
_chemical_name_systematic
;
catena-[Di-potassium bis(\m~2~-o-phthalato-O,O',O'',O''')-copper(ii) 
dihydrate]
;
_cell_volume   1840.807
_exptl_crystal_density_diffrn 1.82
_diffrn_ambient_temperature ?
_diffrn_special_details
;
The study was carried out at room temperature,in the range 283-303K

;
#These two values have been output from a single CSD field.
_refine_ls_R_factor_gt 0.033
_refine_ls_wR_factor_gt 0.033
_symmetry_cell_setting monoclinic
_symmetry_space_group_name_H-M 'C 2/c'
_symmetry_Int_Tables_number 15
loop_
_symmetry_equiv_pos_site_id
_symmetry_equiv_pos_as_xyz
1 x,y,z
2 1/2+x,1/2+y,z
3 -x,y,1/2-z
4 1/2-x,1/2+y,1/2-z
5 -x,-y,-z
6 -1/2-x,-1/2-y,-z
7 x,-y,-1/2+z
8 -1/2+x,-1/2-y,-1/2+z
_cell_length_a 12.065(15)
_cell_length_b 21.327(16)
_cell_length_c 7.825(9)
_cell_angle_alpha 90
_cell_angle_beta 113.9(1)
_cell_angle_gamma 90
_cell_formula_units_Z 4
loop_
_atom_type_symbol
_atom_type_radius_bond
C 0.68
H 0.23
Cu 1.82
K 1.33
O 0.68
loop_
_atom_site_label
_atom_site_type_symbol
_atom_site_fract_x
_atom_site_fract_y
_atom_site_fract_z
Cu1 Cu 0.00000 0.23490 0.25000
O1 O 0.09300 0.18770 0.57460
O2 O 0.12370 0.16640 0.32220
O3 O 0.37400 0.20280 0.69270
O4 O 0.44330 0.16500 0.98350
C1 C 0.20950 0.09690 0.58040
C2 C 0.31760 0.09930 0.73600
C3 C 0.37560 0.04400 0.82130
C4 C 0.32020 -0.01350 0.74800
C5 C 0.21320 -0.01630 0.59860
C6 C 0.15440 0.03920 0.51230
C7 C 0.13940 0.15460 0.48860
C8 C 0.38420 0.15990 0.81540
H1 H 0.46800 0.04200 0.92900
H2 H 0.37300 -0.05300 0.82000
H3 H 0.15200 -0.05300 0.53500
H4 H 0.06200 0.03600 0.39800
K1 K 0.33380 0.19670 0.26900
O5 O 0.35080 0.32020 0.05100
H5 H 0.35700 0.32800 0.14900
H6 H 0.42900 0.31500 0.03900
O1B O -0.09300 0.18770 -0.07460
O2B O -0.12370 0.16640 0.17780
O3B O -0.37400 0.20280 -0.19270
O4B O -0.44330 0.16500 -0.48350
C1B C -0.20950 0.09690 -0.08040
C2B C -0.31760 0.09930 -0.23600
C3B C -0.37560 0.04400 -0.32130
C4B C -0.32020 -0.01350 -0.24800
C5B C -0.21320 -0.01630 -0.09860
C6B C -0.15440 0.03920 -0.01230
C7B C -0.13940 0.15460 0.01140
C8B C -0.38420 0.15990 -0.31540
H1B H -0.46800 0.04200 -0.42900
H2B H -0.37300 -0.05300 -0.32000
H3B H -0.15200 -0.05300 -0.03500
H4B H -0.06200 0.03600 0.10200
O3E O 0.12600 0.29720 0.30730
O3G O -0.12600 0.29720 0.19270
O4E O 0.05670 0.33500 0.01650
O4G O -0.05670 0.33500 0.48350
Cu1E Cu 0.50000 0.26510 0.75000
Cu1E* Cu -0.50000 0.26510 -0.25000
#END
