
#######################################################################
#
#                 Cambridge Crystallographic Data Centre
#                                CCDC
#
#######################################################################
#
# If this CIF has been generated from an entry in the Cambridge
# Structural Database, then it will include bibliographic, chemical,
# crystal, experimental, refinement or atomic coordinate data resulting
# from the CCDC's data processing and validation procedures.
#
#######################################################################

data_CSD_CIF_KUGZIW
_audit_creation_date 2010-04-07
_audit_creation_method CSD-ConQuest-V1
_database_code_CSD KUGZIW
_database_code_depnum_ccdc_archive 'CCDC 724592'
_chemical_formula_sum 'C56 H50 N2 Ni3 O18'
_chemical_formula_moiety
;
(C48 H30 Ni3 O16 2-)n,2n(C4 H10 N1 O1 1+)
;
_journal_coden_Cambridge 182
_journal_year 2009
_journal_page_first 4049
_journal_name_full 'Chem.Commun. '
loop_
_publ_author_name
"Shengqian Ma"
"J.M.Simmons"
"Daqiang Yuan"
"Jian-Rong Li"
"Wei Weng"
"Di-Jia Liu"
"Hong-Cai Zhou"
_chemical_name_systematic
;
catena-[bis(Dimethylacetamidium) 
tris(\m~4~-anthracene-9,10-dicarboxylato)-(\m~3~-oxo)-triaqua-tri-nickel(ii)]
;
_cell_volume   3427.179
_exptl_crystal_colour 'yellow'
_exptl_crystal_description 'block'
_diffrn_ambient_temperature 90
_refine_special_details
;
The SQUEEZE/PLATON program has been used to model disordered cations or 
solvent molecules.
;
#These two values have been output from a single CSD field.
_refine_ls_R_factor_gt 0.0563
_refine_ls_wR_factor_gt 0.0563
_symmetry_cell_setting hexagonal
_symmetry_space_group_name_H-M 'P -3 1 c'
_symmetry_Int_Tables_number 163
loop_
_symmetry_equiv_pos_site_id
_symmetry_equiv_pos_as_xyz
1 x,y,z
2 -y,x-y,z
3 -x+y,-x,z
4 -y,-x,1/2-z
5 -x+y,y,1/2-z
6 x,x-y,1/2-z
7 -x,-y,-z
8 y,-x+y,-z
9 x-y,x,-z
10 y,x,-1/2+z
11 x-y,-y,-1/2+z
12 -x,-x+y,-1/2+z
_cell_length_a 15.5510(3)
_cell_length_b 15.5510(3)
_cell_length_c 16.3640(5)
_cell_angle_alpha 90
_cell_angle_beta 90
_cell_angle_gamma 120
_cell_formula_units_Z 2
loop_
_atom_type_symbol
_atom_type_radius_bond
C 0.68
H 0.23
Ni 1.22
O 0.68
loop_
_atom_site_label
_atom_site_type_symbol
_atom_site_fract_x
_atom_site_fract_y
_atom_site_fract_z
Ni1 Ni 0.52000 0.26000 0.25000
O1 O 0.66670 0.33330 0.25000
O2 O 0.50899(17) 0.35858(16) 0.17434(13)
O3 O 0.66449(18) 0.48082(17) 0.14853(14)
O4 O 0.36600 0.18300 0.25000
C1 C 0.5347(2) 0.4663(2) 0.06512(19)
C2 C 0.5731(3) 0.4313(3) 0.13614(19)
C3 C 0.5198(3) 0.5466(3) 0.0765(2)
C4 C 0.5151(3) 0.4186(2) -0.01050(19)
C5 C 0.5275(3) 0.3340(3) -0.0241(2)
H1 H 0.54780 0.30820 0.01970
C6 C 0.5376(3) 0.5960(3) 0.1538(2)
H2 H 0.56020 0.57350 0.19850
C7 C 0.5106(4) 0.2907(3) -0.0984(3)
H3 H 0.52120 0.23630 -0.10690
C8 C 0.5231(4) 0.6734(4) 0.1643(3)
H4 H 0.53520 0.70460 0.21630
Ni1F Ni 0.48000 0.74000 -0.25000
Ni1F* Ni 0.48000 -0.26000 0.75000
Ni1B Ni 0.74000 0.48000 0.25000
Ni1A Ni 0.74000 0.26000 0.25000
Ni1H Ni 0.26000 0.52000 -0.25000
Ni1G Ni 0.26000 -0.26000 0.75000
Ni1G* Ni 0.26000 -0.26000 -0.25000
Ni1F** Ni 0.48000 -0.26000 -0.25000
O1F O 0.33330 0.66670 -0.25000
O1G O 0.33330 -0.33340 0.75000
O2F O 0.49101(17) 0.64142(16) -0.17434(13)
O2E O 0.50899(17) 0.15041(16) 0.32566(13)
O2K O 0.49101(17) -0.15041(16) 0.67434(13)
O2A O 0.64142(17) 0.15041(16) 0.17434(13)
O2G O 0.35858(17) -0.15041(16) -0.17434(13)
O2K* O 0.49101(17) 0.84959(16) -0.32566(13)
O2F* O 0.49101(17) -0.35858(16) 0.82566(13)
O3F O 0.33551(18) 0.51918(17) -0.14853(14)
O3E O 0.66449(18) 0.18367(17) 0.35147(14)
O3K O 0.33551(18) -0.18367(17) 0.64853(14)
O3A O 0.51918(18) 0.18367(17) 0.14853(14)
O3G O 0.48082(18) -0.18367(17) -0.14853(14)
O3C O 0.51918(18) 0.33551(17) 0.35147(14)
O3G* O 0.48082(18) 0.81633(17) -0.14853(14)
O3I O 0.48082(18) 0.66449(17) -0.35147(14)
O3I* O 0.48082(18) -0.33551(17) 0.64853(14)
O3G** O 0.48082(18) -0.18367(17) 0.85147(14)
O4F O 0.63400 0.81700 -0.25000
O4F* O 0.63400 -0.18300 0.75000
C1F C 0.4653(2) 0.5337(2) -0.06512(19)
C1E C 0.5347(2) 0.0684(2) 0.43488(19)
C1K C 0.4653(2) -0.0684(2) 0.56512(19)
C1A C 0.5337(2) 0.0684(2) 0.06512(19)
C1G C 0.4663(2) -0.0684(2) -0.06512(19)
C2F C 0.4269(3) 0.5687(3) -0.13614(19)
C2E C 0.5731(3) 0.1418(3) 0.36386(19)
C2K C 0.4269(3) -0.1418(3) 0.63614(19)
C2A C 0.5687(3) 0.1418(3) 0.13614(19)
C2G C 0.4313(3) -0.1418(3) -0.13614(19)
C3F C 0.4802(3) 0.4534(3) -0.0765(2)
C3E C 0.5198(3) -0.0268(3) 0.4235(2)
C3K C 0.4802(3) 0.0268(3) 0.5765(2)
C3A C 0.4534(3) -0.0268(3) 0.0765(2)
C3G C 0.5466(3) 0.0268(3) -0.0765(2)
C4F C 0.4849(3) 0.5814(2) 0.01050(19)
C4E C 0.5151(3) 0.0965(2) 0.51050(19)
C4K C 0.4849(3) -0.0965(2) 0.48950(19)
C4A C 0.5814(3) 0.0965(2) -0.01050(19)
C4G C 0.4186(3) -0.0965(2) 0.01050(19)
C5F C 0.4725(3) 0.6660(3) 0.0241(2)
C5E C 0.5275(3) 0.1935(3) 0.5241(2)
C5K C 0.4725(3) -0.1935(3) 0.4759(2)
C5A C 0.6660(3) 0.1935(3) -0.0241(2)
C5G C 0.3340(3) -0.1935(3) 0.0241(2)
H1F H 0.45220 0.69180 -0.01970
H1E H 0.54780 0.23960 0.48030
H1K H 0.45220 -0.23960 0.51970
H1A H 0.69180 0.23960 0.01970
H1G H 0.30820 -0.23960 -0.01970
C6F C 0.4624(3) 0.4040(3) -0.1538(2)
C6E C 0.5376(3) -0.0584(3) 0.3462(2)
C6K C 0.4624(3) 0.0584(3) 0.6538(2)
C6A C 0.4040(3) -0.0584(3) 0.1538(2)
C6G C 0.5960(3) 0.0584(3) -0.1538(2)
H2F H 0.43980 0.42650 -0.19850
H2E H 0.56020 -0.01330 0.30150
H2K H 0.43980 0.01330 0.69850
H2A H 0.42650 -0.01330 0.19850
H2G H 0.57350 0.01330 -0.19850
C7F C 0.4894(4) 0.7093(3) 0.0984(3)
C7E C 0.5106(4) 0.2199(3) 0.5984(3)
C7K C 0.4894(4) -0.2199(3) 0.4016(3)
C7A C 0.7093(4) 0.2199(3) -0.0984(3)
C7G C 0.2907(4) -0.2199(3) 0.0984(3)
H3F H 0.47880 0.76370 0.10690
H3E H 0.52120 0.28490 0.60690
H3K H 0.47880 -0.28490 0.39310
H3A H 0.76370 0.28490 -0.10690
H3G H 0.23630 -0.28490 0.10690
C8F C 0.4769(4) 0.3266(4) -0.1643(3)
C8E C 0.5231(4) -0.1503(4) 0.3357(3)
C8K C 0.4769(4) 0.1503(4) 0.6643(3)
C8A C 0.3266(4) -0.1503(4) 0.1643(3)
C8G C 0.6734(4) 0.1503(4) -0.1643(3)
H4F H 0.46480 0.29540 -0.21630
H4E H 0.53520 -0.16940 0.28370
H4K H 0.46480 0.16940 0.71630
H4A H 0.29540 -0.16940 0.21630
H4G H 0.70460 0.16940 -0.21630
#END
