
#######################################################################
#
#                 Cambridge Crystallographic Data Centre
#                                CCDC
#
#######################################################################
#
# If this CIF has been generated from an entry in the Cambridge
# Structural Database, then it will include bibliographic, chemical,
# crystal, experimental, refinement or atomic coordinate data resulting
# from the CCDC's data processing and validation procedures.
#
#######################################################################

data_CSD_CIF_KUJFUS
_audit_creation_date 2015-04-14
_audit_creation_method CSD-ConQuest-V1
_database_code_CSD KUJFUS
_database_code_depnum_ccdc_archive 'CCDC 1047001'
_chemical_formula_sum 'C14 H30 K1 N2 O12 Sc1'
_chemical_formula_moiety
;
(C6 H6 K1 O12 Sc1 2-)n,2(C4 H12 N1 1+)
;
_journal_coden_Cambridge 1147
_journal_volume 15
_journal_year 2015
_journal_page_first 2352
_journal_name_full 'Cryst.Growth Des. '
loop_
_publ_author_name
"J.Cepeda"
"S.Perez-Yanez"
"G.Beobide"
"O.Castillo"
"A.Luque"
"P.A.Wright"
"S.Sneddon"
"S.E.Ashbrook"
_chemical_name_systematic
;
catena-[bis(tetramethylammonium) hexakis(\m-formato)-potassium]
;
_cell_volume   1162.254
_exptl_crystal_colour 'colorless'
_exptl_crystal_density_diffrn 1.436
_exptl_crystal_description 'trigonal antiprism'
_diffrn_ambient_temperature 100
#These two values have been output from a single CSD field.
_refine_ls_R_factor_gt 0.0314
_refine_ls_wR_factor_gt 0.0314
_symmetry_cell_setting monoclinic
_symmetry_space_group_name_H-M 'P 21/n'
_symmetry_Int_Tables_number 14
loop_
_symmetry_equiv_pos_site_id
_symmetry_equiv_pos_as_xyz
1 x,y,z
2 1/2-x,1/2+y,1/2-z
3 -x,-y,-z
4 -1/2+x,-1/2-y,-1/2+z
_cell_length_a 9.5369(2)
_cell_length_b 9.1544(1)
_cell_length_c 13.3131(2)
_cell_angle_alpha 90
_cell_angle_beta 90.483(1)
_cell_angle_gamma 90
_cell_formula_units_Z 2
loop_
_atom_type_symbol
_atom_type_radius_bond
C 0.68
H 0.23
K 2.03
N 0.68
O 0.68
Sc 1.70
loop_
_atom_site_label
_atom_site_type_symbol
_atom_site_fract_x
_atom_site_fract_y
_atom_site_fract_z
Sc1 Sc 2.00000 0.00000 0.50000
K1 K 1.50000 -0.50000 0.50000
O1 O 1.81971(11) -0.11032(12) 0.45533(8)
C1 C 1.75445(16) -0.22767(17) 0.47194(11)
H1 H 1.80320 -0.30060 0.50610
O2 O 1.63367(12) -0.25480(12) 0.44754(8)
O3 O 1.90328(11) -0.80358(11) 0.45844(7)
C2 C 1.77879(17) -0.75781(17) 0.47021(11)
H2 H 1.71590 -0.82180 0.50000
O4 O 1.73391(13) -0.63821(14) 0.44620(9)
O5 O 1.58236(12) -0.47941(12) 0.85536(8)
C3 C 1.53467(17) -0.48777(16) 0.76651(12)
H3 H 1.44140 -0.51580 0.75950
O6 O 1.59753(12) -0.46320(14) 0.68947(8)
N1 N 1.51360(12) -0.01459(14) 0.74939(8)
C4 C 1.57517(17) -0.08087(18) 0.65723(11)
H4 H 1.53220 -0.03820 0.59870
H5 H 1.55860 -0.18430 0.65740
H6 H 1.67430 -0.06270 0.65640
C5 C 1.35846(16) -0.0362(2) 0.74770(12)
H7 H 1.31840 0.00770 0.80630
H8 H 1.33780 -0.13890 0.74710
H9 H 1.31940 0.00860 0.68860
C6 C 1.57458(17) -0.08562(18) 0.84072(11)
H10 H 1.67390 -0.06890 0.84290
H11 H 1.55660 -0.18870 0.83830
H12 H 1.53240 -0.04490 0.89960
C7 C 1.54646(18) 0.14454(17) 0.75210(11)
H13 H 1.50640 0.18730 0.81110
H14 H 1.50780 0.19090 0.69340
H15 H 1.64630 0.15790 0.75350
O1B O 1.18029(11) -0.88968(12) 0.54467(8)
C1B C 1.24555(16) -0.77233(17) 0.52806(11)
H1B H 1.19680 -0.69940 0.49390
O2B O 1.36633(12) -0.74520(12) 0.55246(8)
O3B O 1.09672(11) -0.19642(11) 0.54156(7)
C2B C 1.22121(17) -0.24219(17) 0.52979(11)
H2B H 1.28410 -0.17820 0.50000
O4B O 1.26609(13) -0.36179(14) 0.55380(9)
O5B O 1.41764(12) -0.52059(12) 0.14464(8)
C3B C 1.46533(17) -0.51223(16) 0.23349(12)
H3B H 1.55860 -0.48420 0.24050
O6B O 1.40247(12) -0.53680(14) 0.31053(8)
Sc1* Sc 1.00000 -1.00000 0.50000
Sc1** Sc 1.00000 0.00000 0.50000
Sc1*** Sc 2.00000 -1.00000 0.50000
Sc1A Sc 1.50000 -0.50000 0.00000
Sc1A* Sc 1.50000 -0.50000 1.00000
O1B* O 2.18029(11) 0.11032(12) 0.54467(8)
O3* O 1.90328(11) 0.19642(11) 0.45844(7)
O3B* O 2.09672(11) -0.19642(11) 0.54156(7)
O5A O 1.91764(12) 0.02059(12) 0.64464(8)
O5C O 2.08236(12) -0.02059(12) 0.35536(8)
#END
