
#######################################################################
#
#                 Cambridge Crystallographic Data Centre
#                                CCDC
#
#######################################################################
#
# If this CIF has been generated from an entry in the Cambridge
# Structural Database, then it will include bibliographic, chemical,
# crystal, experimental, refinement or atomic coordinate data resulting
# from the CCDC's data processing and validation procedures.
#
#######################################################################

data_CSD_CIF_KUKHIJ
_audit_creation_date 2015-04-15
_audit_creation_method CSD-ConQuest-V1
_database_code_CSD KUKHIJ
_database_code_depnum_ccdc_archive 'CCDC 1022196'
_chemical_formula_sum 'C62 H62 N8 O14 Zn2'
_chemical_formula_moiety
;
(C52 H32 N4 O12 Zn2 2-)n,2n(C2 H8 N1 1+),2n(C3 H7 N1 O1)
;
_journal_coden_Cambridge 208
_journal_volume 227
_journal_year 2015
_journal_page_first 155
_journal_name_full 'J.Solid State Chem. '
loop_
_publ_author_name
"Li-Ting Cui"
"Yan-Fei Niu"
"Jie Han"
"Xiao-Li Zhao"
_chemical_name_systematic
;
catena-(bis(Dimethylammonium) 
bis(\m~3~-4,4',4''-nitrilotribenzoato)-bis(\m~2~-4,4'-bipyridine)-di-zinc 
dimethylformamide solvate)
;
_cell_volume   1483.103
_exptl_crystal_colour 'colorless'
_exptl_crystal_density_diffrn 1.424
_exptl_crystal_description 'block'
_diffrn_ambient_temperature 296
#These two values have been output from a single CSD field.
_refine_ls_R_factor_gt 0.0472
_refine_ls_wR_factor_gt 0.0472
_symmetry_cell_setting triclinic
_symmetry_space_group_name_H-M 'P -1'
_symmetry_Int_Tables_number 2
loop_
_symmetry_equiv_pos_site_id
_symmetry_equiv_pos_as_xyz
1 x,y,z
2 -x,-y,-z
_cell_length_a 9.3189(3)
_cell_length_b 13.4985(4)
_cell_length_c 14.3207(4)
_cell_angle_alpha 116.117(1)
_cell_angle_beta 92.393(1)
_cell_angle_gamma 109.754(1)
_cell_formula_units_Z 1
loop_
_atom_type_symbol
_atom_type_radius_bond
C 0.68
H 0.23
N 0.68
O 0.68
Zn 1.22
loop_
_atom_site_label
_atom_site_type_symbol
_atom_site_fract_x
_atom_site_fract_y
_atom_site_fract_z
Zn1 Zn 0.60253(4) 0.72509(3) 0.96545(3)
O1 O 0.4234(3) 0.5737(2) 0.8676(2)
O2 O 0.2526(3) 0.6558(2) 0.8725(3)
O3 O -0.2492(4) -0.1114(3) 0.1207(2)
O4 O -0.4635(3) -0.2454(3) 0.1145(2)
O5 O -0.4323(3) -0.0958(3) 0.9484(2)
O6 O -0.3076(3) -0.2110(2) 0.8681(2)
N1 N -0.2071(3) 0.0987(2) 0.6221(2)
N2 N 0.7501(3) 0.6388(2) 0.9723(2)
C1 C -0.2410(4) 0.0354(3) 0.5101(3)
C2 C -0.1459(4) 0.0808(3) 0.4537(3)
H1 H -0.05830 0.15280 0.49040
C3 C -0.1813(4) 0.0192(3) 0.3432(3)
H2 H -0.11620 0.05000 0.30650
C4 C -0.3119(4) -0.0876(3) 0.2862(3)
C5 C -0.4063(4) -0.1322(3) 0.3426(3)
H3 H -0.49410 -0.20390 0.30560
C6 C -0.3723(4) -0.0720(3) 0.4528(3)
H4 H -0.43760 -0.10340 0.48910
C7 C -0.2456(4) 0.0377(3) 0.6835(3)
C8 C -0.3069(4) 0.0854(3) 0.7718(3)
H5 H -0.32510 0.15430 0.78820
C9 C -0.3410(4) 0.0316(3) 0.8352(3)
H6 H -0.38310 0.06390 0.89360
C10 C -0.3128(4) -0.0707(3) 0.8125(3)
C11 C -0.2521(4) -0.1187(3) 0.7241(3)
H7 H -0.23250 -0.18690 0.70820
C12 C -0.2202(4) -0.0654(3) 0.6593(3)
H8 H -0.18170 -0.09920 0.59930
C13 C -0.0832(4) 0.2171(3) 0.6763(2)
C14 C -0.1083(4) 0.3152(3) 0.6860(3)
H9 H -0.20650 0.30580 0.65760
C15 C 0.0127(4) 0.4285(3) 0.7381(3)
H10 H -0.00570 0.49470 0.74480
C16 C 0.1604(4) 0.4444(3) 0.7802(3)
C17 C 0.1849(4) 0.3446(3) 0.7682(3)
H11 H 0.28390 0.35330 0.79440
C18 C 0.0639(4) 0.2314(3) 0.7176(3)
H12 H 0.08160 0.16510 0.71130
C19 C -0.3534(4) -0.1292(3) 0.8819(3)
C20 C -0.3458(5) -0.1534(3) 0.1654(3)
C21 C 0.2884(4) 0.5682(3) 0.8431(3)
C22 C 0.6951(4) 0.5207(3) 0.9401(3)
H13 H 0.58860 0.47520 0.91050
C23 C 0.7882(4) 0.4636(3) 0.9486(3)
H14 H 0.74430 0.38130 0.92470
C24 C 0.9481(4) 0.5285(3) 0.9930(3)
C25 C 1.0045(4) 0.6499(3) 1.0244(3)
H15 H 1.11100 0.69710 1.05210
C26 C 0.9034(4) 0.7011(3) 1.0146(3)
H16 H 0.94410 0.78350 1.03870
O7 O -0.1318(13) 0.6087(9) 0.6286(8)
N3 N -0.3674(11) 0.4587(8) 0.5865(7)
C27 C -0.5209(15) 0.4132(13) 0.6101(13)
H17 H -0.52230 0.46990 0.68000
H18 H -0.53920 0.33750 0.60750
H19 H -0.60130 0.40240 0.55810
C28 C -0.3538(15) 0.3790(11) 0.4811(9)
H20 H -0.25230 0.41480 0.47020
H21 H -0.43300 0.36680 0.42740
H22 H -0.36710 0.30310 0.47630
C29 C -0.2518(13) 0.5648(9) 0.6660(9)
H23 H -0.25750 0.60100 0.73720
N4 N 0.2507(5) 0.8604(4) 0.8662(3)
H24 H 0.33000 0.89070 0.91750
C30 C 0.1008(5) 0.8595(5) 0.8866(4)
H25 H 0.10770 0.89640 0.96220
H26 H 0.02490 0.77800 0.85310
H27 H 0.06970 0.90350 0.85820
C31 C 0.2629(6) 0.8076(5) 0.7542(4)
H28 H 0.36790 0.81330 0.75090
H29 H 0.23720 0.85040 0.72200
H30 H 0.19160 0.72470 0.71650
N2A N 1.2499(3) 0.3612(2) 1.0277(2)
C22A C 1.3049(4) 0.4793(3) 1.0599(3)
H13A H 1.41140 0.52480 1.08950
C23A C 1.2118(4) 0.5364(3) 1.0514(3)
H14A H 1.25570 0.61870 1.07530
C24A C 1.0519(4) 0.4715(3) 1.0070(3)
C25A C 0.9955(4) 0.3501(3) 0.9756(3)
H15A H 0.88900 0.30290 0.94790
C26A C 1.0966(4) 0.2989(3) 0.9854(3)
H16A H 1.05590 0.21650 0.96130
Zn1A Zn 1.39747(4) 0.27491(3) 1.03455(3)
O1A O 1.5766(3) 0.4263(2) 1.1324(2)
O2A O 1.7474(3) 0.3442(2) 1.1275(3)
O3A O 2.2492(4) 1.1114(3) 1.8793(2)
O4A O 2.4635(3) 1.2454(3) 1.8855(2)
O5A O 2.4323(3) 1.0958(3) 1.0516(2)
O6A O 2.3076(3) 1.2110(2) 1.1319(2)
N1A N 2.2071(3) 0.9013(2) 1.3779(2)
C1A C 2.2410(4) 0.9646(3) 1.4899(3)
C2A C 2.1459(4) 0.9192(3) 1.5463(3)
H1A H 2.05830 0.84720 1.50960
C3A C 2.1813(4) 0.9808(3) 1.6568(3)
H2A H 2.11620 0.95000 1.69350
C4A C 2.3119(4) 1.0876(3) 1.7138(3)
C5A C 2.4063(4) 1.1322(3) 1.6574(3)
H3A H 2.49410 1.20390 1.69440
C6A C 2.3723(4) 1.0720(3) 1.5472(3)
H4A H 2.43760 1.10340 1.51090
C7A C 2.2456(4) 0.9623(3) 1.3165(3)
C8A C 2.3069(4) 0.9146(3) 1.2282(3)
H5A H 2.32510 0.84570 1.21180
C9A C 2.3410(4) 0.9684(3) 1.1648(3)
H6A H 2.38310 0.93610 1.10640
C10A C 2.3128(4) 1.0707(3) 1.1875(3)
C11A C 2.2521(4) 1.1187(3) 1.2759(3)
H7A H 2.23250 1.18690 1.29180
C12A C 2.2202(4) 1.0654(3) 1.3407(3)
H8A H 2.18170 1.09920 1.40070
C13A C 2.0832(4) 0.7829(3) 1.3237(2)
C14A C 2.1083(4) 0.6848(3) 1.3140(3)
H9A H 2.20650 0.69420 1.34240
C15A C 1.9873(4) 0.5715(3) 1.2619(3)
H10A H 2.00570 0.50530 1.25520
C16A C 1.8396(4) 0.5556(3) 1.2198(3)
C17A C 1.8151(4) 0.6554(3) 1.2318(3)
H11A H 1.71610 0.64670 1.20560
C18A C 1.9361(4) 0.7686(3) 1.2824(3)
H12A H 1.91840 0.83490 1.28870
C19A C 2.3534(4) 1.1292(3) 1.1181(3)
C20A C 2.3458(5) 1.1534(3) 1.8346(3)
C21A C 1.7116(4) 0.4318(3) 1.1569(3)
Zn1* Zn -0.39747(4) -0.27491(3) -0.03455(3)
Zn1** Zn -0.39747(4) -0.27491(3) 0.96545(3)
Zn1A* Zn 2.39747(4) 1.27491(3) 1.03455(3)
Zn1A** Zn 2.39747(4) 1.27491(3) 2.03455(3)
O3* O 0.7508(4) 0.8886(3) 1.1207(2)
O3A* O 1.2492(4) 0.1114(3) 0.8793(2)
O4* O 0.5365(3) 0.7546(3) 1.1145(2)
O4A* O 1.4635(3) 0.2454(3) 0.8855(2)
O6* O 0.6924(3) 0.7890(2) 0.8681(2)
O6A* O 1.3076(3) 0.2110(2) 1.1319(2)
#END
