
#######################################################################
#
#                 Cambridge Crystallographic Data Centre
#                                CCDC
#
#######################################################################
#
# If this CIF has been generated from an entry in the Cambridge
# Structural Database, then it will include bibliographic, chemical,
# crystal, experimental, refinement or atomic coordinate data resulting
# from the CCDC's data processing and validation procedures.
#
#######################################################################

data_CSD_CIF_KUKHAB
_audit_creation_date 2015-04-15
_audit_creation_method CSD-ConQuest-V1
_database_code_CSD KUKHAB
_database_code_depnum_ccdc_archive 'CCDC 1022194'
_chemical_formula_sum 'C29.5 H30.5 N3.5 O7.5 Zn1'
_chemical_formula_moiety
;
(C26 H17 N2 O6 Zn1 1-)n,n(C2 H8 N1 1+),0.5n(C3 H7 N1 O1),n(H2 O1)
;
_journal_coden_Cambridge 208
_journal_volume 227
_journal_year 2015
_journal_page_first 155
_journal_name_full 'J.Solid State Chem. '
loop_
_publ_author_name
"Li-Ting Cui"
"Yan-Fei Niu"
"Jie Han"
"Xiao-Li Zhao"
_chemical_name_systematic
;
catena-(Dimethylammonium (\m~3~-4,4',4''-nitrilotribenzoato)-pyridine-zinc 
dimethylformamide solvate monohydrate)
;
_cell_volume   5790.476
_exptl_crystal_colour 'colorless'
_exptl_crystal_description 'block'
_diffrn_ambient_temperature 296
_refine_special_details
;
The SQUEEZE/PLATON program was used to model the solvent molecules.

;
#These two values have been output from a single CSD field.
_refine_ls_R_factor_gt 0.0395
_refine_ls_wR_factor_gt 0.0395
_symmetry_cell_setting monoclinic
_symmetry_space_group_name_H-M 'C 2/c'
_symmetry_Int_Tables_number 15
loop_
_symmetry_equiv_pos_site_id
_symmetry_equiv_pos_as_xyz
1 x,y,z
2 -x,y,1/2-z
3 1/2+x,1/2+y,z
4 1/2-x,1/2+y,1/2-z
5 -x,-y,-z
6 x,-y,-1/2+z
7 -1/2-x,-1/2-y,-z
8 -1/2+x,-1/2-y,-1/2+z
_cell_length_a 26.0328(6)
_cell_length_b 9.1655(2)
_cell_length_c 27.4382(6)
_cell_angle_alpha 90
_cell_angle_beta 117.814(1)
_cell_angle_gamma 90
_cell_formula_units_Z 8
loop_
_atom_type_symbol
_atom_type_radius_bond
C 0.68
H 0.23
N 0.68
O 0.68
Zn 1.22
loop_
_atom_site_label
_atom_site_type_symbol
_atom_site_fract_x
_atom_site_fract_y
_atom_site_fract_z
N1 N 0.02184(11) 0.5527(3) 0.12440(11)
H1 H 0.05170 0.53730 0.11940
C1 C 0.0159(2) 0.6817(5) 0.1529(2)
H2 H 0.04950 0.74260 0.16420
H3 H 0.01230 0.65180 0.18470
H4 H -0.01810 0.73540 0.12840
C2 C -0.02694(15) 0.4535(5) 0.10540(18)
H5 H -0.02030 0.37220 0.08700
H6 H -0.06170 0.50350 0.08030
H7 H -0.03120 0.41890 0.13630
Zn1 Zn 0.113173(11) 0.13603(3) 0.164574(11)
N2 N 0.25625(8) 0.4711(2) 0.48284(8)
N3 N 0.15023(9) -0.0723(3) 0.18693(9)
C3 C 0.16437(11) 0.3693(3) 0.31366(10)
C4 C 0.14670(11) 0.4840(3) 0.33493(11)
H8 H 0.11470 0.53960 0.31160
C5 C 0.17629(10) 0.5173(3) 0.39087(10)
H9 H 0.16330 0.59320 0.40480
C6 C 0.22498(9) 0.4379(3) 0.42591(9)
C7 C 0.24286(11) 0.3234(3) 0.40395(10)
H10 H 0.27560 0.26930 0.42670
C8 C 0.21254(11) 0.2898(3) 0.34903(10)
H11 H 0.22470 0.21180 0.33530
C9 C 0.31806(9) 0.4635(3) 0.51029(9)
C10 C 0.34809(10) 0.4149(3) 0.56471(10)
H12 H 0.32770 0.38690 0.58340
C11 C 0.40797(10) 0.4082(3) 0.59087(10)
H13 H 0.42750 0.37530 0.62710
C12 C 0.43937(10) 0.4495(3) 0.56418(10)
C13 C 0.40953(10) 0.4968(3) 0.50997(10)
H14 H 0.43020 0.52420 0.49140
C14 C 0.34984(10) 0.5039(3) 0.48325(9)
H15 H 0.33060 0.53580 0.44690
C15 C 0.22662(9) 0.5206(3) 0.51187(9)
C16 C 0.1739(1) 0.4597(3) 0.5023(1)
H16 H 0.15830 0.38350 0.47720
C17 C 0.14447(10) 0.5109(3) 0.52957(10)
H17 H 0.10890 0.46980 0.52230
C18 C 0.16746(11) 0.6240(3) 0.5680(1)
C19 C 0.22107(11) 0.6807(3) 0.57852(10)
H18 H 0.23760 0.75410 0.60470
C20 C 0.25022(10) 0.6307(3) 0.55097(10)
H19 H 0.28600 0.67090 0.55860
C21 C 0.13261(11) 0.3325(3) 0.25244(11)
C22 C 0.50518(10) 0.4441(3) 0.59277(10)
C23 C 0.13346(11) 0.6840(3) 0.59564(10)
C24 C 0.17943(15) -0.1147(4) 0.23944(14)
H20 H 0.18520 -0.04780 0.26700
C25 C 0.20127(19) -0.2535(5) 0.25428(18)
H21 H 0.22200 -0.27870 0.29130
C26 C 0.19252(18) -0.3538(4) 0.2146(2)
H22 H 0.20590 -0.44910 0.22390
C27 C 0.16394(16) -0.3118(4) 0.16112(19)
H23 H 0.15830 -0.37740 0.13320
C28 C 0.14335(13) -0.1715(3) 0.14844(14)
H24 H 0.12380 -0.14420 0.11160
O1 O 0.09562(11) 0.4157(3) 0.22118(8)
O2 O 0.14827(9) 0.2147(3) 0.23944(8)
O3 O 0.53176(8) 0.5049(3) 0.57113(8)
O4 O 0.52930(7) 0.3780(2) 0.63824(8)
O5 O 0.15705(8) 0.7887(2) 0.62848(7)
O6 O 0.08533(9) 0.6329(2) 0.58398(10)
Zn1E Zn 0.113173(11) 0.86397(3) 0.664574(11)
Zn1G Zn 0.613173(11) 0.36397(3) 0.664574(11)
O4G O 0.02930(7) 0.1220(2) 0.13824(8)
O5E O 0.15705(8) 0.2113(2) 0.12848(7)
#END
