
#######################################################################
#
#                 Cambridge Crystallographic Data Centre
#                                CCDC
#
#######################################################################
#
# If this CIF has been generated from an entry in the Cambridge
# Structural Database, then it will include bibliographic, chemical,
# crystal, experimental, refinement or atomic coordinate data resulting
# from the CCDC's data processing and validation procedures.
#
#######################################################################

data_CSD_CIF_KUMXUM
_audit_creation_date 2010-09-23
_audit_creation_method CSD-ConQuest-V1
_database_code_CSD KUMXUM
_database_code_depnum_ccdc_archive 'CCDC 747976'
_chemical_formula_sum 'C50 H55 B1 N10 Ni2 O47 W12'
_chemical_formula_moiety
;
(H3 O1 1+)n,n(C50 H44 B1 N10 Ni2 O42 W12 1-),4n(H2 O1)
;
_journal_coden_Cambridge 222
_journal_volume 39
_journal_year 2010
_journal_page_first 1916
_journal_name_full 'Dalton Trans. '
loop_
_publ_author_name
"Yan Wang"
"Ling Ye"
"Tie-Gang Wang"
"Xiao-Bing Cui"
"Shu-Yun Shi"
"Guo-Wu Wang"
"Ji-Qing Xu"
_chemical_name_systematic
;
catena-(Oxonium 
(\m~12~-borato)-hexacosakis(\m~2~-oxo)-tris(\m~2~-4,4'-bipyridine)-diaqua-deca
oxo-bis(4,4'-bipyridine)-di-nickel-dodeca-tungsten(vi) tetrahydrate)
;
_cell_volume   3924.409
_exptl_crystal_density_diffrn 3.286
_exptl_crystal_description 'block'
_diffrn_ambient_temperature 293
#These two values have been output from a single CSD field.
_refine_ls_R_factor_gt 0.0649
_refine_ls_wR_factor_gt 0.0649
_symmetry_cell_setting monoclinic
_symmetry_space_group_name_H-M 'P 21'
_symmetry_Int_Tables_number 4
loop_
_symmetry_equiv_pos_site_id
_symmetry_equiv_pos_as_xyz
1 x,y,z
2 -x,1/2+y,-z
_cell_length_a 13.292(3)
_cell_length_b 15.146(3)
_cell_length_c 19.946(4)
_cell_angle_alpha 90
_cell_angle_beta 102.23(3)
_cell_angle_gamma 90
_cell_formula_units_Z 2
loop_
_atom_type_symbol
_atom_type_radius_bond
C 0.68
H 0.23
B 0.83
N 0.68
Ni 1.24
O 0.68
W 1.37
loop_
_atom_site_label
_atom_site_type_symbol
_atom_site_fract_x
_atom_site_fract_y
_atom_site_fract_z
W1 W -0.6394(1) 0.38720(7) 0.16770(5)
W2 W -0.62159(9) 0.39117(7) 0.35350(5)
W3 W -0.45141(9) 0.24734(6) 0.28108(5)
W4 W -0.53281(9) 0.07473(7) 0.35873(5)
W5 W -0.86982(9) 0.34206(7) 0.32352(5)
W6 W -0.54916(9) 0.07466(7) 0.19021(5)
W7 W -0.80893(9) 0.02514(7) 0.32690(5)
W8 W -0.88914(10) 0.33953(7) 0.13802(5)
W9 W -0.82399(10) 0.02432(7) 0.15856(5)
W10 W -0.98148(9) 0.15154(7) 0.22356(5)
W11 W -0.70646(9) 0.21733(7) 0.42979(5)
W12 W -0.73119(9) 0.21239(7) 0.07330(5)
B1 B -0.7186(19) 0.2055(13) 0.2508(10)
Ni1 Ni -1.5736(3) 0.3656(2) -0.13800(14)
Ni2 Ni -1.0487(3) 0.5257(2) 0.35276(13)
O1 O -0.6299(17) 0.3280(12) 0.4346(8)
O2 O -0.5926(15) 0.1518(11) 0.4131(8)
O3 O -0.5603(16) 0.4827(11) 0.3895(9)
O4 O -0.7293(13) 0.2643(9) 0.3120(8)
O5 O -0.8341(17) -0.0579(11) 0.3767(9)
O6 O -0.6033(18) 0.1682(15) 0.2660(9)
O7 O -0.4370(15) 0.1553(11) 0.2163(10)
O8 O -0.6429(14) 0.4199(10) 0.2575(9)
O9 O -0.4628(17) 0.0064(11) 0.4210(9)
O10 O -0.8297(15) 0.2851(11) 0.4120(8)
O11 O -0.7268(16) 0.1914(10) -0.0124(8)
O12 O -1.1159(17) 0.1522(16) 0.2088(10)
O13 O -0.5106(15) 0.3191(10) 0.3389(7)
O14 O -0.7357(13) 0.2624(9) 0.1859(7)
O15 O -0.8269(16) -0.0380(12) 0.2425(9)
O16 O -0.6733(14) 0.0184(12) 0.1808(8)
O17 O -0.7982(13) 0.1334(9) 0.2425(7)
O18 O -0.6616(14) 0.0182(13) 0.3401(7)
O19 O -0.7773(16) 0.4268(11) 0.1371(8)
O20 O -0.6542(15) 0.3200(8) 0.0840(8)
O21 O -0.4279(14) 0.1579(12) 0.3529(8)
O22 O -0.5015(13) 0.0223(10) 0.2798(7)
O23 O -0.9490(14) 0.2433(10) 0.2920(8)
O24 O -0.5759(15) 0.481(1) 0.1438(9)
O25 O -0.8481(17) 0.2792(14) 0.0628(9)
O26 O -0.8074(14) 0.1174(10) 0.0975(8)
O27 O -0.8530(17) -0.0613(10) 0.1031(9)
O28 O -0.5226(15) 0.3194(11) 0.2074(8)
O29 O -0.7590(14) 0.427(1) 0.3507(7)
O30 O -0.9595(14) 0.2389(8) 0.1621(7)
O31 O -0.4939(13) -0.0049(9) 0.1483(7)
O32 O -0.3322(16) 0.289(1) 0.2946(8)
O33 O -0.6083(14) 0.1491(12) 0.1190(8)
O34 O -0.9648(13) 0.4106(9) 0.3451(7)
O35 O -0.9917(16) 0.4010(11) 0.0982(8)
O36 O -0.8778(12) 0.3739(9) 0.2320(8)
O37 O -0.7860(14) 0.1198(12) 0.3911(8)
O38 O -0.9439(14) 0.0638(10) 0.2962(8)
O39 O -0.6953(14) 0.2012(13) 0.5174(9)
O40 O -0.9580(15) 0.0633(10) 0.1588(8)
N1 N -1.4586(16) 0.3495(12) -0.0513(9)
N2 N -1.6703(18) 0.4039(11) -0.2290(9)
N3 N -1.6637(17) 0.4302(15) -0.0776(10)
N4 N -1.971(3) 0.719(3) 0.0680(15)
N5 N -1.950(2) 0.5487(15) -0.5488(10)
N6 N -1.135(2) 0.4776(15) 0.2603(9)
N7 N -0.942(2) 0.5990(13) 0.3066(10)
N8 N -0.526(2) 0.7970(17) 0.1881(11)
N9 N -1.1433(19) 0.4481(13) 0.4038(10)
N10 N -1.455(2) 0.2023(15) 0.578(1)
O41 O -1.6500(14) 0.2474(11) -0.1294(8)
O42 O -1.1417(13) 0.6482(11) 0.3554(7)
C1 C -1.471(2) 0.3168(17) 0.0080(13)
H1 H -1.52860 0.28160 0.00740
C2 C -1.404(2) 0.331(2) 0.0722(11)
H2 H -1.41710 0.30840 0.11280
C3 C -1.318(3) 0.381(2) 0.0705(11)
C4 C -1.295(3) 0.4119(18) 0.0059(12)
H3 H -1.23720 0.44440 0.00310
C5 C -1.371(2) 0.3876(17) -0.0513(12)
H4 H -1.35730 0.40020 -0.09400
C6 C -1.677(2) 0.3587(18) -0.2885(12)
H5 H -1.65040 0.30190 -0.28780
C7 C -1.724(3) 0.396(2) -0.3493(11)
H6 H -1.72230 0.36490 -0.38930
C8 C -1.773(2) 0.4782(16) -0.356(1)
C9 C -1.770(2) 0.5146(15) -0.2944(13)
H7 H -1.80780 0.56580 -0.29280
C10 C -1.715(2) 0.4823(15) -0.2336(12)
H8 H -1.70870 0.51660 -0.19430
C11 C -1.110(2) 0.3745(16) 0.4343(12)
H9 H -1.04380 0.35620 0.43360
C12 C -1.171(2) 0.3213(14) 0.4684(13)
H10 H -1.14590 0.26830 0.48890
C13 C -1.267(2) 0.3510(16) 0.4698(11)
C14 C -1.339(2) 0.3004(18) 0.5037(12)
C15 C -1.339(2) 0.2072(18) 0.5023(15)
H11 H -1.29960 0.17520 0.47730
C16 C -1.403(3) 0.1650(19) 0.5423(14)
H12 H -1.40640 0.10370 0.54090
C17 C -1.461(2) 0.298(2) 0.5741(13)
H13 H -1.50430 0.32810 0.59720
C18 C -1.405(2) 0.3422(19) 0.5372(14)
H14 H -1.41040 0.40340 0.53440
C19 C -1.308(3) 0.4297(16) 0.4364(15)
H15 H -1.37320 0.45050 0.43730
C20 C -1.242(2) 0.473(2) 0.4022(15)
H16 H -1.26670 0.52290 0.37650
C21 C -1.760(2) 0.415(2) -0.0869(14)
H17 H -1.78500 0.36460 -0.11090
C22 C -1.832(3) 0.4706(17) -0.0635(14)
H18 H -1.90170 0.45800 -0.07560
C23 C -1.799(3) 0.5420(17) -0.0234(13)
C24 C -1.860(3) 0.5995(17) 0.0057(15)
C25 C -1.944(3) 0.580(2) 0.0274(16)
H19 H -1.96220 0.52050 0.02260
C26 C -2.013(3) 0.633(3) 0.0572(17)
H20 H -2.07480 0.61430 0.06740
C27 C -1.898(5) 0.746(4) 0.038(3)
H21 H -1.89200 0.80640 0.03170
C28 C -1.826(4) 0.690(3) 0.013(2)
H22 H -1.76450 0.70970 0.00360
C29 C -1.692(3) 0.557(2) -0.0136(17)
H23 H -1.66490 0.60750 0.01060
C30 C -1.624(2) 0.5025(18) -0.0377(14)
H24 H -1.55400 0.51370 -0.02750
C31 C -1.1584(19) 0.3975(18) 0.2514(12)
H25 H -1.13600 0.35950 0.28810
C32 C -1.215(3) 0.3609(17) 0.1913(12)
H26 H -1.22920 0.30070 0.18840
C33 C -1.2518(19) 0.4188(19) 0.1331(12)
C34 C -1.223(2) 0.5062(16) 0.1420(12)
H27 H -1.23710 0.54500 0.10510
C35 C -1.172(3) 0.5360(17) 0.2055(13)
H28 H -1.16250 0.59640 0.21240
C36 C -1.986(2) 0.5627(14) -0.4931(11)
H29 H -2.05180 0.58700 -0.49750
C37 C -1.931(2) 0.5426(13) -0.4290(12)
H30 H -1.95710 0.55380 -0.39020
C38 C -1.834(3) 0.5049(16) -0.4234(11)
C39 C -1.789(2) 0.4966(13) -0.4804(12)
H31 H -1.72280 0.47600 -0.47810
C40 C -1.855(2) 0.5223(17) -0.5411(13)
H32 H -1.82810 0.52050 -0.58060
C41 C -0.917(3) 0.5690(18) 0.2493(13)
H33 H -0.95720 0.52510 0.22430
C42 C -0.834(2) 0.6003(18) 0.2260(12)
H34 H -0.81140 0.57120 0.19070
C43 C -0.780(2) 0.6794(15) 0.2568(12)
C44 C -0.698(2) 0.7190(14) 0.2340(11)
C45 C -0.642(3) 0.6728(14) 0.1905(13)
H35 H -0.66090 0.61550 0.17630
C46 C -0.563(3) 0.7128(19) 0.1706(13)
H36 H -0.53020 0.68060 0.14200
C47 C -0.574(3) 0.837(2) 0.2385(12)
H37 H -0.54420 0.88680 0.26210
C48 C -0.663(2) 0.8026(17) 0.2521(13)
H38 H -0.70210 0.83810 0.27500
C49 C -0.819(2) 0.7150(16) 0.3101(11)
H39 H -0.78830 0.76560 0.33160
C50 C -0.904(2) 0.6784(16) 0.3336(13)
H40 H -0.93200 0.70730 0.36630
O43 O -1.016(3) -0.1487(17) 0.3722(15)
O44 O -1.595(2) 0.1554(15) 0.6553(9)
O45 O -1.1434(14) 0.7589(9) 0.2360(8)
O46 O -0.411(2) 0.514(2) 0.2559(14)
O47 O -0.077(2) 0.7550(18) 0.4642(11)
Ni1A Ni -0.4264(3) 0.8656(2) 0.13800(14)
Ni1A* Ni -0.4264(3) -0.1344(2) 0.13800(14)
Ni2* Ni -2.0487(3) 0.5257(2) -0.64724(13)
O31A O -1.5061(13) 0.4951(9) -0.1483(7)
N5* N -0.950(2) 0.5487(15) 0.4512(10)
N8A N -1.474(2) 0.2970(17) -0.1881(11)
#END
