
#######################################################################
#
#                 Cambridge Crystallographic Data Centre
#                                CCDC
#
#######################################################################
#
# If this CIF has been generated from an entry in the Cambridge
# Structural Database, then it will include bibliographic, chemical,
# crystal, experimental, refinement or atomic coordinate data resulting
# from the CCDC's data processing and validation procedures.
#
#######################################################################

data_CSD_CIF_KUNLEL
_audit_creation_date 2010-09-23
_audit_creation_method CSD-ConQuest-V1
_database_code_CSD KUNLEL
_database_code_depnum_ccdc_archive 'CCDC 752796'
_chemical_formula_sum 'C20 H27 N1 O18 Zn2'
_chemical_formula_moiety
;
(C18 H13 O15 Zn2 1-)n,n(C2 H8 N1 1+),3n(H2 O1)
;
_journal_coden_Cambridge 222
_journal_volume 39
_journal_year 2010
_journal_page_first 2869
_journal_name_full 'Dalton Trans. '
loop_
_publ_author_name
"K.Davies"
"S.A.Bourne"
"L.Ohrstrom"
"C.L.Oliver"
_chemical_name_systematic
;
catena-[Dimethylammonium 
(\m~4~-1-carboxybenzene-3,5-dicarboxylato)-(\m~3~-benzene-1,3,5-tricarboxylato
)-(\m~2~-aqua)-diaqua-di-zinc trihydrate]
;
_cell_volume   1256.910
_exptl_crystal_colour 'colorless'
_exptl_crystal_density_diffrn 1.85
_exptl_crystal_description 'needles'
_diffrn_ambient_temperature 173
#These two values have been output from a single CSD field.
_refine_ls_R_factor_gt 0.0278
_refine_ls_wR_factor_gt 0.0278
_symmetry_cell_setting monoclinic
_symmetry_space_group_name_H-M 'P 21'
_symmetry_Int_Tables_number 4
loop_
_symmetry_equiv_pos_site_id
_symmetry_equiv_pos_as_xyz
1 x,y,z
2 -x,1/2+y,-z
_cell_length_a 7.8334(1)
_cell_length_b 17.2763(4)
_cell_length_c 9.4450(5)
_cell_angle_alpha 90
_cell_angle_beta 100.475(2)
_cell_angle_gamma 90
_cell_formula_units_Z 2
loop_
_atom_type_symbol
_atom_type_radius_bond
C 0.68
H 0.23
N 0.68
O 0.68
Zn 1.22
loop_
_atom_site_label
_atom_site_type_symbol
_atom_site_fract_x
_atom_site_fract_y
_atom_site_fract_z
Zn1 Zn 0.38862(4) 0.326156(16) 0.26230(3)
Zn2 Zn -0.23195(4) 0.250550(15) -0.51019(3)
O1 O -0.0556(2) 0.32906(12) -0.4232(2)
O2 O 0.6736(2) 0.32046(12) 0.2866(2)
O3 O 0.1238(2) 0.32494(14) 0.2820(2)
O4 O 0.5871(3) 0.16761(11) 0.4243(2)
O5 O -0.1799(3) 0.18384(12) -0.3220(2)
O6 O 0.5693(3) -0.10380(11) 0.5662(2)
O7 O 0.1979(3) 0.70454(12) -0.1461(2)
O8 O 0.4170(3) -0.18882(10) 0.4152(2)
C1 C 0.4271(3) -0.05899(14) 0.3368(3)
C2 C 0.3217(3) -0.07532(15) 0.2052(3)
H1 H 0.29110 -0.12730 0.17970
C3 C 0.1302(3) 0.66422(15) -0.2536(3)
O9 O 0.3837(3) 0.21211(12) 0.2445(2)
C4 C 0.4148(3) 0.07704(15) 0.2786(3)
C5 C 0.3044(3) 0.06156(15) 0.1487(3)
H2 H 0.25880 0.10270 0.08630
C6 C 0.0511(4) 0.45076(15) -0.3357(3)
C7 C 0.2261(4) 0.46294(17) -0.0983(3)
C8 C 0.0462(3) 0.53127(15) -0.3489(3)
H3 H -0.01580 0.55450 -0.43410
C9 C 0.1421(4) 0.41697(16) -0.2099(3)
H4 H 0.14650 0.36220 -0.20080
C10 C 0.2198(4) 0.54327(17) -0.1129(3)
H5 H 0.27670 0.57480 -0.03630
C11 C 0.3105(4) 0.4271(2) 0.0419(3)
C12 C 0.2613(3) -0.01547(15) 0.1110(3)
C13 C 0.4768(3) 0.01729(15) 0.3717(3)
H6 H 0.55330 0.02820 0.45950
C14 C 0.1318(3) 0.57778(15) -0.2377(3)
C15 C 0.4661(3) 0.15894(14) 0.3190(3)
O10 O -0.1210(3) 0.43129(11) -0.5681(2)
O11 O 0.0759(4) 0.03015(13) -0.0929(3)
H7 H 0.01000 0.01790 -0.17010
O12 O 0.1087(3) -0.09792(13) -0.0713(2)
O13 O 0.3179(3) 0.35455(14) 0.0522(2)
O14 O 0.3648(4) 0.47037(18) 0.1456(3)
C16 C -0.0497(3) 0.40054(15) -0.4513(3)
C17 C 0.1428(4) -0.03243(16) -0.0272(3)
C18 C 0.4756(3) -0.12215(15) 0.4469(3)
O15 O 0.0629(2) 0.69352(11) -0.3751(2)
H8 H 0.073(4) 0.2869(14) 0.324(3)
H9 H 0.039(3) 0.3515(18) 0.226(3)
H10 H -0.165(5) 0.1328(5) -0.332(4)
H11 H -0.123(4) 0.199(2) -0.2350(17)
H12 H 0.74650 0.36600 0.32620
H13 H 0.73100 0.29820 0.22510
O16 O -0.1484(3) 0.01926(13) -0.3300(2)
H14 H -0.23710 0.00190 -0.30170
H15 H -0.10590 -0.00320 -0.39430
O17 O 1.0099(4) 0.23403(14) 0.9331(2)
H16 H 0.93380 0.22800 0.98910
H17 H 1.03400 0.28750 0.93780
O18 O 1.6348(4) 0.53585(16) 1.2942(4)
H18 H 1.72430 0.50810 1.36420
H19 H 1.55280 0.50100 1.23770
N1 N 1.4286(4) 0.18901(18) 0.7145(3)
C19 C 1.2591(5) 0.2154(3) 0.6336(5)
H20 H 1.16570 0.19420 0.67840
H21 H 1.24490 0.19740 0.53380
H22 H 1.25430 0.27210 0.63520
C20 C 1.4641(4) 0.2138(2) 0.8703(3)
H23 H 1.47790 0.27020 0.87580
H24 H 1.57080 0.18900 0.92010
H25 H 1.36670 0.19840 0.91610
H26 H 1.43880 0.13840 0.74160
H27 H 1.51890 0.20320 0.67470
Zn1A Zn 0.61138(4) -0.173844(16) 0.73770(3)
Zn2* Zn 0.76805(4) 0.250550(15) 0.48981(3)
Zn2A Zn 0.23195(4) -0.249450(15) 0.51019(3)
Zn2A* Zn 0.23195(4) 0.750550(15) -0.48981(3)
O2* O -0.3264(2) 0.32046(12) -0.7134(2)
O4* O -0.4129(3) 0.16761(11) -0.5757(2)
O6A O 0.4307(3) 0.39620(11) 0.4338(2)
O8A O -0.4170(3) 0.31118(10) -0.4152(2)
O15A O -0.0629(2) 0.19352(11) -0.6249(2)
H12* H -0.25350 0.36600 -0.67380
H13* H -0.26900 0.29820 -0.77490
#END
