
#######################################################################
#
#                 Cambridge Crystallographic Data Centre
#                                CCDC
#
#######################################################################
#
# If this CIF has been generated from an entry in the Cambridge
# Structural Database, then it will include bibliographic, chemical,
# crystal, experimental, refinement or atomic coordinate data resulting
# from the CCDC's data processing and validation procedures.
#
#######################################################################

data_CSD_CIF_KUPJIR
_audit_creation_date 2020-07-05
_audit_creation_method CSD-ConQuest-V1
_database_code_CSD KUPJIR
_database_code_depnum_ccdc_archive 'CCDC 1994002'
_chemical_formula_sum 'C37 H65 N9 O26 S4 Zn3'
_chemical_formula_moiety
;
2(C2 H8 N1 1+),n(C30 H24 N6 O16 S4 Zn3 2-),C3 H7 N1 O1,9(H2 O1)
;
_journal_coden_Cambridge 1295
_journal_volume 119
_journal_year 2020
_journal_page_first 108037
_journal_name_full 'Inorg.Chem.Commun. '
loop_
_publ_author_name
"Wei-Peng Zhong"
"Qi-Wei Chen"
"Xiang-Xin Cao"
"Shui-Li Liu"
"Qing Chen"
"Ning Lin"
_chemical_name_systematic
;
catena-[bis(dimethylammonium) 
tris(\m-4,4'-bipyridine)-tetrakis(\m-sulfato)-tri-zinc N,N-dimethylformamide 
solvate nonahydrate]
;
_cell_volume   5654.995
_exptl_crystal_colour 'yellow'
_exptl_crystal_density_diffrn 1.383
_exptl_crystal_description 'block'
_diffrn_ambient_temperature 293
_refine_special_details
;
C4A,C5A,N4A and C4B,C5B,N4B disordered over two sites with occupancies 
0.50:0.50. N,N-dimethylformamide and water solvent molecules have not been 
modelled from the diffraction data.
;
#These two values have been output from a single CSD field.
_refine_ls_R_factor_gt 0.0577
_refine_ls_wR_factor_gt 0.0577
_symmetry_cell_setting monoclinic
_symmetry_space_group_name_H-M 'C 2/c'
_symmetry_Int_Tables_number 15
loop_
_symmetry_equiv_pos_site_id
_symmetry_equiv_pos_as_xyz
1 x,y,z
2 -x,y,1/2-z
3 1/2+x,1/2+y,z
4 1/2-x,1/2+y,1/2-z
5 -x,-y,-z
6 x,-y,-1/2+z
7 -1/2-x,-1/2-y,-z
8 -1/2+x,-1/2-y,-1/2+z
_cell_length_a 11.3703(6)
_cell_length_b 24.2898(13)
_cell_length_c 20.7266(10)
_cell_angle_alpha 90
_cell_angle_beta 98.9261(15)
_cell_angle_gamma 90
_cell_formula_units_Z 4
loop_
_atom_type_symbol
_atom_type_radius_bond
C 0.68
H 0.23
N 0.68
O 0.68
S 1.02
Zn 1.22
loop_
_atom_site_label
_atom_site_type_symbol
_atom_site_fract_x
_atom_site_fract_y
_atom_site_fract_z
Zn1 Zn 0.75000 0.25000 0.00000
Zn2 Zn 0.61436(5) 0.035732(19) 0.06146(2)
S1 S 0.33982(10) 0.03921(4) 0.04547(5)
S2 S 0.79015(10) 0.13209(4) 0.10375(5)
N1 N 0.7194(3) -0.19347(14) 0.41385(16)
N2 N 0.6356(4) -0.01862(16) 0.13645(18)
C1 C 0.6652(5) -0.08804(18) 0.2453(2)
C2 C 0.6955(6) -0.1036(2) 0.3657(2)
H1 H 0.69200 -0.06580 0.37220
C3 C 0.6832(4) -0.12460(18) 0.3037(2)
C4 C 0.6425(8) -0.1081(2) 0.1829(3)
H2 H 0.63590 -0.14590 0.17600
C5 C 0.6698(9) -0.0315(2) 0.2511(3)
H3 H 0.68410 -0.01530 0.29220
C6 C 0.6294(8) -0.0727(2) 0.1301(3)
H4 H 0.61550 -0.08750 0.08820
C7 C 0.7086(7) -0.2134(2) 0.3536(3)
H5 H 0.71270 -0.25140 0.34830
C8 C 0.6531(9) 0.0008(2) 0.1959(3)
H6 H 0.65450 0.03880 0.20130
C9 C 0.7131(6) -0.1391(2) 0.4186(2)
H7 H 0.72100 -0.12380 0.46020
C10 C 0.6917(8) -0.1808(2) 0.2984(2)
H8 H 0.68600 -0.19700 0.25740
O1 O 0.4534(3) 0.05796(15) 0.02408(18)
O2 O 0.2475(4) 0.07850(17) 0.0220(2)
O3 O 0.3090(4) -0.01499(15) 0.01250(18)
O4 O 0.3570(5) 0.03114(17) 0.1150(2)
O5 O 0.7724(3) 0.18114(13) 0.06293(16)
O6 O 0.6722(4) 0.10475(16) 0.0995(2)
O7 O 0.8749(4) 0.09545(18) 0.0801(3)
O8 O 0.8283(5) 0.1485(2) 0.17106(19)
N3 N 0.5630(3) 0.25014(14) 0.00373(18)
C11 C 0.5004(4) 0.29672(19) -0.0013(3)
H9 H 0.54080 0.32980 -0.00380
C12 C 0.3784(4) 0.29848(19) -0.0031(3)
H10 H 0.33870 0.33210 -0.00680
C13 C 0.3810(4) 0.2017(2) 0.0060(3)
H11 H 0.34290 0.16800 0.00800
C14 C 0.5027(4) 0.20364(19) 0.0081(3)
H12 H 0.54500 0.17070 0.01280
C15 C 0.3155(4) 0.25012(17) 0.0008(2)
O9 O 1.0146(14) -0.0239(8) 0.0487(11)
H13 H 0.99390 -0.02870 0.00790
H14 H 1.08580 -0.01220 0.05620
C16 C 0.8526(14) 0.1105(6) 0.3295(8)
H15 H 0.90150 0.10670 0.29590
H16 H 0.78590 0.08590 0.32080
H17 H 0.89850 0.10170 0.37100
N4 N 0.810(3) 0.1665(9) 0.3305(19)
H18 H 0.85900 0.18800 0.31120
H19 H 0.81680 0.17720 0.37250
C17 C 0.689(4) 0.177(2) 0.299(4)
H20 H 0.65510 0.20520 0.32240
H21 H 0.64340 0.14350 0.30040
H22 H 0.68940 0.18750 0.25500
C18? C 0.910(2) 0.2065(13) 0.3278(15)
H23? H 0.91840 0.20920 0.28260
H24? H 0.86910 0.17290 0.33500
H25? H 0.98680 0.20670 0.35430
N5? N 0.842(3) 0.252(2) 0.345(4)
H26? H 0.87100 0.28280 0.32840
H27? H 0.85650 0.25560 0.38880
C19? C 0.714(3) 0.2524(16) 0.325(2)
H28? H 0.69550 0.23980 0.28110
H29? H 0.68430 0.28910 0.32850
H30? H 0.67810 0.22850 0.35350
N3F N -0.0630(3) 0.24986(14) -0.00373(18)
C11F C -0.0004(4) 0.20328(19) 0.0013(3)
H9F H -0.04080 0.17020 0.00380
C12F C 0.1216(4) 0.20152(19) 0.0031(3)
H10F H 0.16130 0.16790 0.00680
C13F C 0.1190(4) 0.2983(2) -0.0060(3)
H11F H 0.15710 0.33200 -0.00800
C14F C -0.0027(4) 0.29636(19) -0.0081(3)
H12F H -0.04500 0.32930 -0.01280
C15F C 0.1845(4) 0.24988(17) -0.0008(2)
Zn2D Zn 0.38564(5) -0.035732(19) -0.06146(2)
S1D S 0.66018(10) -0.03921(4) -0.04547(5)
S2D S 0.20985(10) -0.13209(4) -0.10375(5)
N1D N 0.2806(3) 0.19347(14) -0.41385(16)
N2D N 0.3644(4) 0.01862(16) -0.13645(18)
C1D C 0.3348(5) 0.08804(18) -0.2453(2)
C2D C 0.3045(6) 0.1036(2) -0.3657(2)
H1D H 0.30800 0.06580 -0.37220
C3D C 0.3168(4) 0.12460(18) -0.3037(2)
C4D C 0.3575(8) 0.1081(2) -0.1829(3)
H2D H 0.36410 0.14590 -0.17600
C5D C 0.3302(9) 0.0315(2) -0.2511(3)
H3D H 0.31590 0.01530 -0.29220
C6D C 0.3706(8) 0.0727(2) -0.1301(3)
H4D H 0.38450 0.08750 -0.08820
C7D C 0.2914(7) 0.2134(2) -0.3536(3)
H5D H 0.28730 0.25140 -0.34830
C8D C 0.3469(9) -0.0008(2) -0.1959(3)
H6D H 0.34550 -0.03880 -0.20130
C9D C 0.2869(6) 0.1391(2) -0.4186(2)
H7D H 0.27900 0.12380 -0.46020
C10D C 0.3083(8) 0.1808(2) -0.2984(2)
H8D H 0.31400 0.19700 -0.25740
O1D O 0.5466(3) -0.05796(15) -0.02408(18)
O2D O 0.7525(4) -0.07850(17) -0.0220(2)
O3D O 0.6910(4) 0.01499(15) -0.01250(18)
O4D O 0.6430(5) -0.03114(17) -0.1150(2)
O5D O 0.2276(3) -0.18114(13) -0.06293(16)
O6D O 0.3278(4) -0.10475(16) -0.0995(2)
O7D O 0.1251(4) -0.09545(18) -0.0801(3)
O8D O 0.1717(5) -0.1485(2) -0.17106(19)
Zn1* Zn -0.25000 0.25000 0.00000
Zn1A Zn 0.25000 0.25000 -0.50000
Zn1B Zn 0.25000 -0.25000 0.00000
Zn1C Zn 0.75000 -0.25000 0.50000
N1C N 0.7806(3) 0.30653(14) 0.08615(16)
N1E N 0.7194(3) 0.19347(14) -0.08615(16)
O5F O 0.7276(3) 0.31886(13) -0.06293(16)
N3F* N 0.9370(3) 0.24986(14) -0.00373(18)
#END
