
#######################################################################
#
#                 Cambridge Crystallographic Data Centre
#                                CCDC
#
#######################################################################
#
# If this CIF has been generated from an entry in the Cambridge
# Structural Database, then it will include bibliographic, chemical,
# crystal, experimental, refinement or atomic coordinate data resulting
# from the CCDC's data processing and validation procedures.
#
#######################################################################

data_CSD_CIF_KUPTAT
_audit_creation_date 2020-07-06
_audit_creation_method CSD-ConQuest-V1
_database_code_CSD KUPTAT
_database_code_depnum_ccdc_archive 'CCDC 2014325'
_chemical_formula_sum 'C1 H6 Fe1 N1 O5'
_chemical_formula_moiety
;
(C1 H2 Fe1 O5 1-)n,H4 N1 1+
;
_journal_coden_Cambridge 1078
_journal_year 2020
_journal_name_full 'CSD Communication(Private Communication) '
loop_
_publ_author_name
"J.Kaduk"
_chemical_name_systematic
;
catena-[ammonium (\m-carbonato)-bis(\m-hydroxo)-iron]
;
_cell_volume    480.944
_exptl_crystal_colour 'yellow'
_exptl_crystal_description 'powder'
_diffrn_ambient_temperature 300
_symmetry_cell_setting orthorhombic
_symmetry_space_group_name_H-M 'C m c m'
_symmetry_Int_Tables_number 63
loop_
_symmetry_equiv_pos_site_id
_symmetry_equiv_pos_as_xyz
1 x,y,z
2 -x,-y,1/2+z
3 -x,y,1/2-z
4 x,-y,-z
5 1/2+x,1/2+y,z
6 1/2-x,1/2-y,1/2+z
7 1/2-x,1/2+y,1/2-z
8 1/2+x,1/2-y,-z
9 -x,-y,-z
10 x,y,-1/2-z
11 x,-y,-1/2+z
12 -x,y,z
13 -1/2-x,-1/2-y,-z
14 -1/2+x,-1/2+y,-1/2-z
15 -1/2+x,-1/2-y,-1/2+z
16 -1/2-x,-1/2+y,z
_cell_length_a 6.6154(6)
_cell_length_b 12.0639(10)
_cell_length_c 6.0263(5)
_cell_angle_alpha 90
_cell_angle_beta 90
_cell_angle_gamma 90
_cell_formula_units_Z 4
loop_
_atom_type_symbol
_atom_type_radius_bond
C 0.68
H 0.23
Fe 1.52
N 0.68
O 0.68
loop_
_atom_site_label
_atom_site_type_symbol
_atom_site_fract_x
_atom_site_fract_y
_atom_site_fract_z
N1 N 0.00000 0.3465(6) 0.25000
H1 H 0.00000 0.30273 0.38241
H2 H 0.13213 0.38488 0.25000
C1 C 0.00000 0.7874(5) 0.25000
O1 O 0.00000 0.6805(4) 0.25000
O2 O 0.00000 0.8395(2) 0.0638(5)
Fe1 Fe 0.00000 1.00000 0.00000
O3 O 0.1906(4) 1.0163(4) 0.25000
H3 H 0.19152 1.09751 0.25000
H1B H 0.00000 0.30273 0.11759
H2B H -0.13213 0.38488 0.25000
O2B O 0.00000 0.8395(2) 0.4362(5)
O3B O -0.1906(4) 1.0163(4) 0.25000
H3B H -0.19152 1.09751 0.25000
O2C O 0.00000 1.1605(2) -0.0638(5)
Fe1A Fe 0.00000 1.00000 -0.50000
Fe1A* Fe 0.00000 1.00000 0.50000
O3A O -0.1906(4) 0.9837(4) -0.25000
O3C O 0.1906(4) 0.9837(4) -0.25000
#END
