
#######################################################################
#
#                 Cambridge Crystallographic Data Centre
#                                CCDC
#
#######################################################################
#
# If this CIF has been generated from an entry in the Cambridge
# Structural Database, then it will include bibliographic, chemical,
# crystal, experimental, refinement or atomic coordinate data resulting
# from the CCDC's data processing and validation procedures.
#
#######################################################################

data_CSD_CIF_KUPXAV
_audit_creation_date 2010-09-23
_audit_creation_method CSD-ConQuest-V1
_database_code_CSD KUPXAV
_database_code_depnum_ccdc_archive 'CCDC 757357'
_chemical_formula_sum 'C32 H52 B2 Cd2 N18 S4'
_chemical_formula_moiety
;
(C24 H28 B2 Cd2 N16 S4 2-)n,2n(C4 H12 N1 1+)
;
_journal_coden_Cambridge 222
_journal_volume 39
_journal_year 2010
_journal_page_first 2487
_journal_name_full 'Dalton Trans. '
loop_
_publ_author_name
"Jian Zhang"
"Shumei Chen"
"Xianhui Bu"
_chemical_name_systematic
;
catena-(bis(Tetramethylammonium) 
bis(\m~4~-tetrakis(imidazolyl)borate)-tetrakis(hydrogen sulfido)-di-cadmium)
;
_cell_volume   1104.401
_exptl_crystal_colour 'colorless'
_exptl_crystal_density_diffrn 1.599
_exptl_crystal_description 'prism'
_diffrn_ambient_temperature 293
#These two values have been output from a single CSD field.
_refine_ls_R_factor_gt 0.0332
_refine_ls_wR_factor_gt 0.0332
_symmetry_cell_setting triclinic
_symmetry_space_group_name_H-M 'P -1'
_symmetry_Int_Tables_number 2
loop_
_symmetry_equiv_pos_site_id
_symmetry_equiv_pos_as_xyz
1 x,y,z
2 -x,-y,-z
_cell_length_a 8.5738(1)
_cell_length_b 8.9508(1)
_cell_length_c 14.7961(2)
_cell_angle_alpha 83.766(1)
_cell_angle_beta 84.286(1)
_cell_angle_gamma 78.997(1)
_cell_formula_units_Z 1
loop_
_atom_type_symbol
_atom_type_radius_bond
C 0.68
H 0.23
B 0.83
Cd 1.44
N 0.68
S 1.02
loop_
_atom_site_label
_atom_site_type_symbol
_atom_site_fract_x
_atom_site_fract_y
_atom_site_fract_z
Cd1 Cd 0.28700(3) 0.18190(3) 0.249547(15)
S1 S 0.43991(13) 0.40876(13) 0.20600(7)
S2 S 0.23242(13) 0.15066(13) 0.08318(7)
B1 B 0.8459(4) -0.2710(4) 0.3554(3)
N1 N 0.7250(3) -0.1756(3) 0.2909(2)
N2 N 0.5234(4) 0.0029(4) 0.2444(2)
N3 N 0.7615(3) -0.2767(3) 0.45231(19)
N4 N 0.6741(4) -0.2113(4) 0.5927(2)
N5 N 0.8963(3) -0.4316(3) 0.3220(2)
N6 N 1.0468(4) -0.6484(4) 0.2804(2)
N7 N 0.9927(3) -0.1940(3) 0.35397(19)
N8 N 1.1611(4) -0.0316(4) 0.3158(2)
C1 C 0.6094(4) -0.0573(4) 0.3132(2)
H1 H 0.59210 -0.02190 0.37080
C2 C 0.7092(5) -0.1908(5) 0.2007(3)
H2 H 0.77140 -0.26280 0.16500
C3 C 0.5859(5) -0.0812(5) 0.1737(3)
H3 H 0.54970 -0.06590 0.11560
C4 C 0.7797(4) -0.1959(4) 0.5220(2)
H4 H 0.85780 -0.13620 0.52030
C5 C 0.6315(5) -0.3416(5) 0.4811(3)
H5 H 0.58660 -0.40280 0.44800
C6 C 0.5791(5) -0.3019(6) 0.5661(3)
H6 H 0.49180 -0.33160 0.60080
C7 C 1.0460(4) -0.5131(4) 0.3066(3)
H7 H 1.13810 -0.47660 0.31390
C8 C 0.8894(5) -0.6564(5) 0.2772(3)
H8 H 0.85230 -0.74000 0.26080
C9 C 0.7964(5) -0.5254(5) 0.3013(3)
H9 H 0.68570 -0.50230 0.30370
C10 C 1.0262(4) -0.0712(4) 0.3001(2)
H10 H 0.96070 -0.01920 0.25600
C11 C 1.2191(5) -0.1377(5) 0.3843(3)
H11 H 1.31410 -0.14060 0.41040
C12 C 1.1187(4) -0.2371(5) 0.4084(3)
H12 H 1.13180 -0.31900 0.45310
N9 N 0.2307(4) 0.7159(4) 0.0048(2)
C13 C 0.2218(7) 0.5651(6) -0.0250(5)
H13 H 0.25010 0.48670 0.02330
H14 H 0.29420 0.54590 -0.07790
H15 H 0.11510 0.56510 -0.03950
C14 C 0.1165(9) 0.7472(8) 0.0857(4)
H16 H 0.12280 0.84460 0.10510
H17 H 0.14250 0.66880 0.13420
H18 H 0.01020 0.74840 0.06990
C15 C 0.1871(6) 0.8374(6) -0.0694(3)
H19 H 0.19240 0.93490 -0.04980
H20 H 0.08070 0.83720 -0.08430
H21 H 0.26000 0.81870 -0.12230
C16 C 0.3968(6) 0.7183(6) 0.0238(4)
H22 H 0.40220 0.81560 0.04370
H23 H 0.46610 0.70200 -0.03070
H24 H 0.42970 0.63880 0.07070
Cd1A Cd 0.71300(3) -0.18190(3) 0.750453(15)
Cd1* Cd 1.28700(3) -0.81810(3) 0.249547(15)
Cd1** Cd 1.28700(3) 0.18190(3) 0.249547(15)
Cd1A* Cd -0.28700(3) -0.18190(3) 0.750453(15)
Cd1A** Cd -0.28700(3) 0.81810(3) 0.750453(15)
S1A S 0.56009(13) -0.40876(13) 0.79400(7)
S2A S 0.76758(13) -0.15066(13) 0.91682(7)
B1A B 0.1541(4) 0.2710(4) 0.6446(3)
N1A N 0.2750(3) 0.1756(3) 0.7091(2)
N2A N 0.4766(4) -0.0029(4) 0.7556(2)
N3A N 0.2385(3) 0.2767(3) 0.54769(19)
N4A N 0.3259(4) 0.2113(4) 0.4073(2)
N5A N 0.1037(3) 0.4316(3) 0.6780(2)
N6A N -0.0468(4) 0.6484(4) 0.7196(2)
N6* N 0.0468(4) 0.3516(4) 0.2804(2)
N6A* N 0.9532(4) -0.3516(4) 0.7196(2)
N7A N 0.0073(3) 0.1940(3) 0.64603(19)
N8A N -0.1611(4) 0.0316(4) 0.6842(2)
N8* N 0.1611(4) -0.0316(4) 0.3158(2)
N8A* N 0.8389(4) 0.0316(4) 0.6842(2)
C1A C 0.3906(4) 0.0573(4) 0.6868(2)
H1A H 0.40790 0.02190 0.62920
C2A C 0.2908(5) 0.1908(5) 0.7993(3)
H2A H 0.22860 0.26280 0.83500
C3A C 0.4141(5) 0.0812(5) 0.8263(3)
H3A H 0.45030 0.06590 0.88440
C4A C 0.2203(4) 0.1959(4) 0.4780(2)
H4A H 0.14220 0.13620 0.47970
C5A C 0.3685(5) 0.3416(5) 0.5189(3)
H5A H 0.41340 0.40280 0.55200
C6A C 0.4209(5) 0.3019(6) 0.4339(3)
H6A H 0.50820 0.33160 0.39920
C7A C -0.0460(4) 0.5131(4) 0.6934(3)
H7A H -0.13810 0.47660 0.68610
C8A C 0.1106(5) 0.6564(5) 0.7228(3)
H8A H 0.14770 0.74000 0.73920
C9A C 0.2036(5) 0.5254(5) 0.6987(3)
H9A H 0.31430 0.50230 0.69630
C10A C -0.0262(4) 0.0712(4) 0.6999(2)
H10A H 0.03930 0.01920 0.74400
C11A C -0.2191(5) 0.1377(5) 0.6157(3)
H11A H -0.31410 0.14060 0.58960
C12A C -0.1187(4) 0.2371(5) 0.5916(3)
H12A H -0.13180 0.31900 0.54690
#END
