
#######################################################################
#
#                 Cambridge Crystallographic Data Centre
#                                CCDC
#
#######################################################################
#
# If this CIF has been generated from an entry in the Cambridge
# Structural Database, then it will include bibliographic, chemical,
# crystal, experimental, refinement or atomic coordinate data resulting
# from the CCDC's data processing and validation procedures.
#
#######################################################################

data_CSD_CIF_KUROXT
_audit_creation_date 1976-02-16
_audit_creation_method CSD-ConQuest-V1
_database_code_CSD KUROXT
_database_code_depnum_ccdc_archive 'CCDC 1201429'
_chemical_formula_sum 'C6 H8 K2 O20 U2'
_chemical_formula_moiety
;
(C6 O16 U2 2-)n,2n(K1 1+),4n(H2 O1)
;
_journal_coeditor_code "IUCr A12378"
_journal_coden_Cambridge 107
_journal_volume 31
_journal_year 1975
_journal_page_first 2277
_journal_name_full 'Acta Crystallogr.,Sect.B:Struct.Crystallogr.Cryst.Chem. '
loop_
_publ_author_name
"N.C.Jayadevan"
"K.D.S.Mudher"
"D.M.Chackraburtty"
_chemical_name_systematic
;
catena-[di-potassium tris(\m~2~-oxalato)-tetraoxo-di-uranium tetrahydrate]
;
_cell_volume    934.487
_exptl_crystal_density_diffrn 3.4
_diffrn_ambient_temperature ?
_diffrn_special_details
;
The study was carried out at room temperature,in the range 283-303K

;
#These two values have been output from a single CSD field.
_refine_ls_R_factor_gt 0.097
_refine_ls_wR_factor_gt 0.097
_symmetry_cell_setting monoclinic
_symmetry_space_group_name_H-M 'P 21/n'
_symmetry_Int_Tables_number 14
loop_
_symmetry_equiv_pos_site_id
_symmetry_equiv_pos_as_xyz
1 x,y,z
2 1/2-x,1/2+y,1/2-z
3 -x,-y,-z
4 -1/2+x,-1/2-y,-1/2+z
_cell_length_a 8.85(1)
_cell_length_b 19.67(1)
_cell_length_c 5.37(1)
_cell_angle_alpha 90
_cell_angle_beta 91.5(2)
_cell_angle_gamma 90
_cell_formula_units_Z 2
loop_
_atom_type_symbol
_atom_type_radius_bond
C 0.68
K 1.33
O 0.68
U 1.48
loop_
_atom_site_label
_atom_site_type_symbol
_atom_site_fract_x
_atom_site_fract_y
_atom_site_fract_z
C1 C 0.20040 0.28070 -0.23800
C2 C 0.29740 0.22490 -0.17600
C3 C 0.07470 0.00080 -0.06300
O1 O -0.12830 0.17550 -0.22200
O2 O 0.10460 0.15550 0.31100
O3 O 0.07840 0.27690 -0.15100
O4 O 0.24630 0.33530 -0.31600
O5 O 0.41510 0.22820 -0.27900
O6 O 0.24620 0.17500 -0.08500
O7 O 0.10430 0.05890 -0.15900
O8 O -0.10710 0.05290 0.15200
U1 U -0.00940 0.16606 0.04420
K1 K 0.39440 0.09950 0.45800
O9 O 0.00760 0.42500 0.49700
O10 O 0.20090 0.46310 0.06700
U1C U 0.49060 0.33394 -0.45580
O4C O -0.25370 0.16470 0.18400
O5C O -0.08490 0.27180 0.22100
C3B C -0.07470 -0.00080 0.06300
O8B O 0.10710 -0.05290 -0.15200
O1C O 0.37170 0.32450 -0.72200
O2C O 0.60460 0.34450 -0.18900
O3C O 0.57840 0.22310 -0.65100
O6C O 0.74620 0.32500 -0.58500
O7C O 0.60430 0.44110 -0.65900
O8C O 0.39290 0.44710 -0.34800
C1C C -0.29960 0.21930 0.26200
C2C C -0.20260 0.27510 0.32400
O7B O -0.10430 -0.05890 0.15900
U1B U 0.00940 -0.16606 -0.04420
O3C* O -0.42160 0.22310 0.34900
O6C* O -0.25380 0.32500 0.41500
U1C* U -0.50940 0.33394 0.54420
#END
