
#######################################################################
#
#                 Cambridge Crystallographic Data Centre
#                                CCDC
#
#######################################################################
#
# If this CIF has been generated from an entry in the Cambridge
# Structural Database, then it will include bibliographic, chemical,
# crystal, experimental, refinement or atomic coordinate data resulting
# from the CCDC's data processing and validation procedures.
#
#######################################################################

data_CSD_CIF_KUTRUO
_audit_creation_date 2015-09-22
_audit_creation_method CSD-ConQuest-V1
_database_code_CSD KUTRUO
_database_code_depnum_ccdc_archive 'CCDC 1426532'
_chemical_formula_sum 'C78 H88 Co2 N12 Na2 O38 Zn2'
_chemical_formula_moiety
;
(C39 H24 Co1 N6 O9 Zn1 1-)2n,H26 Na2 O13 2+,7(H2 O1)
;
_journal_coden_Cambridge 1147
_journal_volume 15
_journal_year 2015
_journal_page_first 4110
_journal_name_full 'Cryst.Growth Des. '
loop_
_publ_author_name
"S.Srivastava"
"H.Aggarwal"
"R.Gupta"
_chemical_name_systematic
;
catena-((\m-aqua)-dodecaaqua-di-sodium 
bis(tris(\m-4-((pyridin-2-ylcarbonyl)amino)benzoato)-cobalt(iii)-zinc(ii)) 
heptahydrate)
;
_cell_volume   9444.974
_exptl_crystal_colour 'red'
_exptl_crystal_description 'block'
_diffrn_ambient_temperature 173
_refine_special_details
;
The SQUEEZE/PLATON program has been used to model some disorder.

;
#These two values have been output from a single CSD field.
_refine_ls_R_factor_gt 0.0797
_refine_ls_wR_factor_gt 0.0797
_symmetry_cell_setting monoclinic
_symmetry_space_group_name_H-M 'C 2/c'
_symmetry_Int_Tables_number 15
loop_
_symmetry_equiv_pos_site_id
_symmetry_equiv_pos_as_xyz
1 x,y,z
2 -x,y,1/2-z
3 1/2+x,1/2+y,z
4 1/2-x,1/2+y,1/2-z
5 -x,-y,-z
6 x,-y,-1/2+z
7 -1/2-x,-1/2-y,-z
8 -1/2+x,-1/2-y,-1/2+z
_cell_length_a 17.317(5)
_cell_length_b 25.397(5)
_cell_length_c 21.540(5)
_cell_angle_alpha 90
_cell_angle_beta 94.431(5)
_cell_angle_gamma 90
_cell_formula_units_Z 4
loop_
_atom_type_symbol
_atom_type_radius_bond
C 0.68
H 0.23
Co 1.26
N 0.68
Na 1.66
O 0.68
Zn 1.22
loop_
_atom_site_label
_atom_site_type_symbol
_atom_site_fract_x
_atom_site_fract_y
_atom_site_fract_z
C1 C -0.1270(3) -0.1897(2) -0.4344(3)
H1 H -0.17180 -0.20720 -0.45230
C2 C -0.0685(4) -0.2188(2) -0.4040(4)
H2 H -0.07300 -0.25600 -0.40140
C3 C -0.0054(4) -0.1944(3) -0.3782(4)
H3 H 0.03480 -0.21430 -0.35680
C4 C 0.0009(4) -0.1408(3) -0.3827(4)
H4 H 0.04590 -0.12330 -0.36520
C5 C -0.0587(3) -0.1128(2) -0.4127(3)
C6 C -0.0595(3) -0.0544(2) -0.4178(3)
C7 C -0.1343(3) 0.01796(19) -0.4539(3)
C8 C -0.1278(4) 0.0464(2) -0.5087(3)
H5 H -0.11000 0.02960 -0.54430
C9 C -0.1476(3) 0.0994(2) -0.5108(3)
H6 H -0.14210 0.11890 -0.54780
C10 C -0.1750(3) 0.12379(19) -0.4605(3)
C11 C -0.1806(4) 0.0957(2) -0.4058(3)
H7 H -0.19820 0.11280 -0.37030
C12 C -0.1609(4) 0.0430(2) -0.4025(3)
H8 H -0.16550 0.02390 -0.36500
C13 C -0.1959(3) 0.1810(2) -0.4644(3)
C14 C -0.9300(4) 0.0862(2) -0.4278(3)
H9 H -0.95030 0.05660 -0.45040
C15 C -0.9701(4) 0.1059(3) -0.3796(3)
H10 H -1.01780 0.09050 -0.37020
C16 C -0.9401(5) 0.1477(3) -0.3459(4)
H11 H -0.96680 0.16220 -0.31300
C17 C -0.8696(5) 0.1685(3) -0.3607(3)
H12 H -0.84690 0.19680 -0.33700
C18 C -0.8331(4) 0.1481(2) -0.4094(3)
C19 C -0.7587(3) 0.1683(2) -0.4286(3)
C20 C -0.6608(3) 0.1576(2) -0.4974(3)
C21 C -0.5982(4) 0.1289(3) -0.4753(4)
H13 H -0.60380 0.09970 -0.44860
C22 C -0.5232(4) 0.1442(3) -0.4936(4)
H14 H -0.47880 0.12520 -0.47760
C23 C -0.5143(4) 0.1849(3) -0.5332(4)
C24 C -0.5770(5) 0.2123(3) -0.5543(5)
H15 H -0.57160 0.24080 -0.58210
C25 C -0.6495(4) 0.1993(3) -0.5359(4)
H16 H -0.69290 0.22000 -0.55060
C26 C -0.4339(6) 0.1999(3) -0.5558(4)
C27 C -0.2588(5) 0.0226(2) -1.0864(3)
H17 H -0.22820 0.04130 -1.11370
C28 C -0.3022(6) -0.0201(3) -1.1084(4)
H18 H -0.30100 -0.03060 -1.15060
C29 C -0.3463(8) -0.0468(4) -1.0701(5)
H19 H -0.37480 -0.07690 -1.08460
C30 C -0.3491(6) -0.0294(3) -1.0093(4)
H20 H -0.38070 -0.04710 -0.98160
C31 C -0.3059(4) 0.0134(2) -0.9896(3)
C32 C -0.3057(4) 0.0346(2) -0.9263(3)
C33 C -0.2521(3) 0.0999(2) -0.8569(2)
C34 C -0.3158(4) 0.1276(3) -0.8400(3)
H21 H -0.36200 0.12860 -0.86690
C35 C -0.3120(4) 0.1538(3) -0.7836(4)
H22 H -0.35570 0.17290 -0.77180
C36 C -0.2430(4) 0.1526(3) -0.7432(3)
C37 C -0.1848(4) 0.1227(3) -0.7609(3)
H23 H -0.13850 0.12050 -0.73430
C38 C -0.1893(4) 0.0950(3) -0.8157(3)
H24 H -0.14820 0.07220 -0.82490
C39 C -0.2387(4) 0.1819(3) -0.6832(3)
Co1 Co -0.19396(4) -0.09018(2) -0.48474(3)
N1 N -0.1222(3) -0.13715(16) -0.4393(2)
N2 N -0.1190(3) -0.03721(16) -0.4527(2)
N3 N -0.8636(3) 0.10754(16) -0.4435(2)
N4 N -0.7371(3) 0.14523(16) -0.4795(2)
N5 N -0.2595(3) 0.03795(17) -1.0264(2)
N6 N -0.2559(3) 0.07455(17) -0.9163(2)
O1 O -0.0076(3) -0.02743(18) -0.3911(3)
O2 O -0.2007(2) 0.20202(16) -0.5173(2)
O3 O -0.2059(3) 0.20535(15) -0.4150(2)
O4 O -0.7223(3) 0.20300(19) -0.3979(2)
O5 O -0.4323(5) 0.2296(4) -0.5992(4)
O6 O -0.3783(4) 0.1828(2) -0.5261(4)
O7 O -0.3470(3) 0.0147(2) -0.8875(2)
O8 O -0.1821(4) 0.2095(4) -0.6702(3)
O9 O -0.2954(3) 0.1795(2) -0.6520(2)
Zn1 Zn -0.29467(4) 0.21700(2) -0.57292(3)
Na1 Na -0.3760(5) 0.1407(3) -0.2792(3)
O10 O -0.50000 0.1160(5) -0.25000
O11 O -0.3783(5) 0.1962(4) -0.3875(5)
O12 O -0.3446(11) 0.2135(7) -0.2219(7)
O13 O -0.3786(15) 0.0900(9) -0.3508(12)
O14 O -0.2415(17) 0.1518(12) -0.2655(14)
O15 O -0.263(4) 0.081(2) -0.245(3)
O16 O -0.4193(18) 0.0677(13) -0.2207(16)
Co1D Co -0.80604(4) 0.09018(2) -0.51526(3)
Co1E Co -0.19396(4) 0.09018(2) -0.98474(3)
N3D N -0.1364(3) -0.10754(16) -0.5565(2)
N4D N -0.2629(3) -0.14523(16) -0.5205(2)
N5E N -0.2595(3) -0.03795(17) -0.5264(2)
N6E N -0.2559(3) -0.07455(17) -0.4163(2)
O3F O -0.2941(3) 0.29465(15) -0.5850(2)
Zn1F Zn -0.20533(4) 0.28300(2) -0.42708(3)
Na1A Na -0.6240(5) 0.1407(3) -0.2208(3)
O11A O -0.6217(5) 0.1962(4) -0.1125(5)
O12A O -0.6554(11) 0.2135(7) -0.2781(7)
O13A O -0.6214(15) 0.0900(9) -0.1492(12)
O14A O -0.7585(17) 0.1518(12) -0.2345(14)
O15A O -0.737(4) 0.081(2) -0.255(3)
O16A O -0.5807(18) 0.0677(13) -0.2793(16)
#END
