
#######################################################################
#
#                 Cambridge Crystallographic Data Centre
#                                CCDC
#
#######################################################################
#
# If this CIF has been generated from an entry in the Cambridge
# Structural Database, then it will include bibliographic, chemical,
# crystal, experimental, refinement or atomic coordinate data resulting
# from the CCDC's data processing and validation procedures.
#
#######################################################################

data_CSD_CIF_KUTSAV
_audit_creation_date 2015-09-22
_audit_creation_method CSD-ConQuest-V1
_database_code_CSD KUTSAV
_database_code_depnum_ccdc_archive 'CCDC 1426533'
_chemical_formula_sum 'C39 H58 Cd1 Co1 N6 Na1 O26'
_chemical_formula_moiety
;
(C39 H26 Cd1 Co1 N6 O10 1-)n,11(H2 O1),H10 Na1 O5 1+
;
_journal_coden_Cambridge 1147
_journal_volume 15
_journal_year 2015
_journal_page_first 4110
_journal_name_full 'Cryst.Growth Des. '
loop_
_publ_author_name
"S.Srivastava"
"H.Aggarwal"
"R.Gupta"
_chemical_name_systematic
;
catena-(pentaaqua-sodium 
tris(\m-4-((pyridin-2-ylcarbonyl)amino)benzoato)-aqua-cobalt(iii)-cadmium(ii) 
undecahydrate)
;
_cell_volume  10045.906
_exptl_crystal_colour 'red'
_exptl_crystal_description 'rectangular'
_diffrn_ambient_temperature 293
_refine_special_details
;
The structure is disordered.

;
#These two values have been output from a single CSD field.
_refine_ls_R_factor_gt 0.0515
_refine_ls_wR_factor_gt 0.0515
_symmetry_cell_setting monoclinic
_symmetry_space_group_name_H-M 'C 2/c'
_symmetry_Int_Tables_number 15
loop_
_symmetry_equiv_pos_site_id
_symmetry_equiv_pos_as_xyz
1 x,y,z
2 -x,y,1/2-z
3 1/2+x,1/2+y,z
4 1/2-x,1/2+y,1/2-z
5 -x,-y,-z
6 x,-y,-1/2+z
7 -1/2-x,-1/2-y,-z
8 -1/2+x,-1/2-y,-1/2+z
_cell_length_a 21.277(5)
_cell_length_b 24.814(5)
_cell_length_c 20.774(5)
_cell_angle_alpha 90
_cell_angle_beta 113.662(5)
_cell_angle_gamma 90
_cell_formula_units_Z 8
loop_
_atom_type_symbol
_atom_type_radius_bond
C 0.68
H 0.23
Cd 1.44
Co 1.26
N 0.68
Na 1.66
O 0.68
loop_
_atom_site_label
_atom_site_type_symbol
_atom_site_fract_x
_atom_site_fract_y
_atom_site_fract_z
O1 O 0.4161(11) 0.9891(8) 0.6656(12)
O2 O 0.8298(11) 0.4784(7) 0.7778(11)
O3 O 0.4353(3) 0.7983(2) 0.7494(2)
C1 C 0.6551(3) 0.8803(3) 0.5124(3)
Cd1 Cd 0.258795(15) 1.029896(12) 0.448213(16)
Co1 Co 0.44216(3) 0.663703(19) 0.51202(3)
C2 C 0.5488(2) 0.60154(18) 0.5044(2)
N1 N 0.40379(17) 0.71251(12) 0.56064(17)
N2 N 0.48318(17) 0.61094(13) 0.47046(17)
N3 N 0.43153(17) 0.61139(13) 0.57790(17)
N4 N 0.35240(17) 0.65300(13) 0.43883(18)
N5 N 0.44823(17) 0.71820(13) 0.44782(17)
C3 C 0.3807(2) 0.76702(15) 0.5418(2)
O4 O 0.3704(2) 0.71507(13) 0.65355(18)
N6 N 0.53678(17) 0.67122(13) 0.57917(17)
O5 O 0.3415(2) 0.96690(13) 0.5232(3)
O6 O 0.33746(18) 0.56789(15) 0.13949(17)
C4 C 0.3699(2) 0.56222(17) 0.2623(2)
C5 C 0.4180(2) 0.80985(16) 0.5811(2)
H1 H 0.45880 0.80350 0.61980
O7 O 0.3910(2) 0.74888(15) 0.33512(17)
C6 C 0.3600(2) 0.53730(17) 0.3177(2)
H2 H 0.32590 0.51140 0.30820
C7 C 0.3416(2) 0.68090(17) 0.3798(2)
C8 C 0.4492(2) 0.59056(16) 0.4010(2)
C9 C 0.4117(2) 0.63347(16) 0.6257(2)
C10 C 0.3354(2) 0.87202(17) 0.5055(2)
C11 C 0.5010(2) 0.75790(16) 0.4628(2)
C12 C 0.3964(2) 0.71948(17) 0.3856(2)
C13 C 0.3091(3) 0.92844(18) 0.4867(3)
C14 C 0.3934(2) 0.69193(16) 0.6149(2)
O8 O 0.20456(19) 1.02183(14) 0.5219(2)
C15 C 0.3206(2) 0.77663(17) 0.4845(2)
H3 H 0.29500 0.74800 0.45790
C16 C 0.4415(3) 0.52683(17) 0.6359(3)
H4 H 0.45110 0.49020 0.63810
C17 C 0.2980(2) 0.82907(18) 0.4663(2)
H5 H 0.25740 0.83540 0.42740
O9 O 0.58379(17) 0.56835(16) 0.4883(2)
C18 C 0.4226(2) 0.59929(19) 0.2781(2)
H6 H 0.43180 0.61480 0.24210
C19 C 0.5803(2) 0.63586(19) 0.5698(2)
C20 C 0.3949(2) 0.86221(17) 0.5632(2)
H7 H 0.41990 0.89080 0.59040
C21 C 0.4615(2) 0.61339(18) 0.3469(2)
H8 H 0.49650 0.63860 0.35680
C22 C 0.4470(2) 0.55828(16) 0.5834(2)
H9 H 0.46170 0.54250 0.55110
C23 C 0.4000(2) 0.55055(17) 0.3859(2)
H10 H 0.39410 0.53260 0.42240
C24 C 0.4063(3) 0.60426(18) 0.6792(2)
H11 H 0.39240 0.62070 0.71150
O10 O 0.2539(2) 0.93573(15) 0.4359(2)
O11 O 0.2700(2) 0.52353(16) 0.1771(2)
C25 C 0.4219(3) 0.54997(19) 0.6843(2)
H12 H 0.41910 0.52940 0.72050
C26 C 0.5612(2) 0.7050(2) 0.6334(3)
H13 H 0.53160 0.72940 0.64090
C27 C 0.2824(3) 0.6750(2) 0.3203(3)
H14 H 0.27540 0.69500 0.28010
C28 C 0.3039(2) 0.61864(18) 0.4397(2)
H15 H 0.31090 0.59980 0.48070
C29 C 0.6160(3) 0.7841(2) 0.4851(3)
H16 H 0.65980 0.77500 0.48910
C30 C 0.6016(3) 0.8367(2) 0.4945(3)
C31 C 0.4859(2) 0.81150(17) 0.4692(2)
H17 H 0.44130 0.82140 0.46190
C32 C 0.5363(3) 0.85010(19) 0.4865(3)
H18 H 0.52610 0.88560 0.49280
C33 C 0.3229(3) 0.55048(18) 0.1886(2)
C34 C 0.5660(2) 0.7441(2) 0.4696(3)
H19 H 0.57650 0.70850 0.46400
C35 C 0.6478(3) 0.6341(3) 0.6137(3)
H20 H 0.67670 0.60900 0.60620
C36 C 0.2440(2) 0.6107(2) 0.3809(3)
H21 H 0.21120 0.58650 0.38200
O12 O 0.7040(3) 0.8748(2) 0.4954(3)
O13 O 0.6489(3) 0.92101(18) 0.5441(2)
C37 C 0.6297(3) 0.7047(3) 0.6788(3)
H22 H 0.64590 0.72890 0.71620
C38 C 0.6732(3) 0.6691(3) 0.6687(4)
H23 H 0.71950 0.66860 0.69870
C39 C 0.2335(3) 0.6388(3) 0.3212(3)
H24 H 0.19360 0.63360 0.28110
O14 O 0.1642(3) 0.1730(2) 0.4065(4)
O15 O 0.2654(7) 0.9176(4) 0.2968(6)
O16 O 0.3473(13) 0.7501(4) 0.1891(5)
O17 O 0.7840(4) 0.5424(3) 0.6597(3)
O18 O 0.4383(6) 0.9130(4) 0.7556(6)
O19 O 0.550(2) 0.0173(14) 0.542(2)
O20 O 0.8974(10) 0.4400(8) 0.8547(10)
O21 O 0.4729(12) 0.9975(9) 0.5827(13)
O22 O 0.3377(4) 0.1499(3) 0.6474(4)
Na1 Na 0.45636(13) 0.12966(14) 0.73779(14)
O23 O 0.3786(8) 0.1384(6) 0.8074(6)
O24 O 0.4798(6) 0.1944(12) 0.7955(7)
O25 O 0.5757(4) 0.1154(2) 0.7597(3)
O26 O 0.4650(11) 0.0848(7) 0.6806(9)
Cd1C Cd 0.241205(15) 0.529896(12) 0.051787(16)
Cd1D Cd 0.741205(15) 0.970104(12) 0.551787(16)
O6C O 0.16254(18) 1.06789(15) 0.36051(17)
O11C O 0.2300(2) 1.02353(16) 0.3229(2)
O12D O 0.2960(3) 1.1252(2) 0.5046(3)
O13D O 0.3511(3) 1.07899(18) 0.4559(2)
O22A O 0.6623(4) 0.1499(3) 0.8526(4)
Na1A Na 0.54364(13) 0.12966(14) 0.76221(14)
O23A O 0.6214(8) 0.1384(6) 0.6926(6)
O24A O 0.5202(6) 0.1944(12) 0.7045(7)
O25A O 0.4243(4) 0.1154(2) 0.7403(3)
O26A O 0.5350(11) 0.0848(7) 0.8194(9)
#END
