
#######################################################################
#
#                 Cambridge Crystallographic Data Centre
#                                CCDC
#
#######################################################################
#
# If this CIF has been generated from an entry in the Cambridge
# Structural Database, then it will include bibliographic, chemical,
# crystal, experimental, refinement or atomic coordinate data resulting
# from the CCDC's data processing and validation procedures.
#
#######################################################################

data_CSD_CIF_KUVJIW
_audit_creation_date 2015-09-22
_audit_creation_method CSD-ConQuest-V1
_database_code_CSD KUVJIW
_database_code_depnum_ccdc_archive 'CCDC 1426561'
_chemical_formula_sum 'C26 H26 N4 O30 P4 U4'
_chemical_formula_moiety
;
2(C8 H5 O15 P2 U2 1-)n,C10 H16 N4 2+
;
_journal_coden_Cambridge 9
_journal_volume 54
_journal_year 2015
_journal_page_first 8617
_journal_name_full 'Inorg.Chem. '
loop_
_publ_author_name
"Dai Wu"
"Xiaojing Bai"
"Hong-Rui Tian"
"Weiting Yang"
"Zewen Li"
"Qing Huang"
"Shiyu Du"
"Zhong-Ming Sun"
_chemical_name_systematic
;
catena-[1,1'-butane-1,4-diylbis(1H-imidazol-3-ium) 
bis((\m-4-carboxy-2,5-diphosphonatobenzoato)-aqua-tetraoxo-di-uranium) 
unknown solvate]
;
_chemical_name_common
;
DPTP-U2
;
_cell_volume   1053.878
_exptl_crystal_colour 'yellow'
_exptl_crystal_density_diffrn 3.067
_exptl_crystal_description 'block'
_diffrn_ambient_temperature 296
_refine_special_details
;
The SQUEEZE/PLATON program has been used to model some disorder.

;
#These two values have been output from a single CSD field.
_refine_ls_R_factor_gt 0.0509
_refine_ls_wR_factor_gt 0.0509
_symmetry_cell_setting triclinic
_symmetry_space_group_name_H-M 'P -1'
_symmetry_Int_Tables_number 2
loop_
_symmetry_equiv_pos_site_id
_symmetry_equiv_pos_as_xyz
1 x,y,z
2 -x,-y,-z
_cell_length_a 9.7561(13)
_cell_length_b 10.2852(14)
_cell_length_c 11.0465(14)
_cell_angle_alpha 95.127(3)
_cell_angle_beta 95.109(2)
_cell_angle_gamma 105.974(2)
_cell_formula_units_Z 1
loop_
_atom_type_symbol
_atom_type_radius_bond
C 0.68
H 0.23
N 0.68
O 0.68
P 1.05
U 1.96
loop_
_atom_site_label
_atom_site_type_symbol
_atom_site_fract_x
_atom_site_fract_y
_atom_site_fract_z
U1 U 1.33279(6) 0.38788(6) 0.36936(5)
U2 U 1.13500(6) 0.17206(6) -0.17265(5)
P1 P 1.0542(4) 0.1834(4) 0.1452(3)
P2 P 0.6327(4) 0.5413(4) 0.2904(3)
O1 O 1.3999(13) 0.2477(11) 0.3978(11)
O2 O 1.2643(14) 0.5293(12) 0.3502(11)
O3 O 1.2720(13) 0.1069(13) -0.1136(12)
O4 O 1.0012(12) 0.2437(11) -0.2291(10)
O5 O 1.0338(12) 0.1647(11) 0.0070(9)
O6 O 1.2069(12) 0.2656(11) 0.1964(10)
O7 O 1.0110(12) 0.0491(10) 0.2004(9)
O8 O 1.1128(12) 0.2735(12) 0.4365(11)
O9 O 0.8918(13) 0.1886(14) 0.4798(12)
O10 O 0.6944(12) 0.6868(11) 0.2735(11)
O11 O 0.4884(11) 0.4715(11) 0.2121(9)
O12 O 0.6025(11) 0.5214(11) 0.4224(9)
O13 O 0.6467(15) 0.4060(12) -0.0619(10)
H1 H 0.65260 0.44650 -0.12280
O14 O 0.7361(13) 0.6100(12) 0.0417(10)
O15 O 1.1352(16) 0.0785(12) -0.3899(11)
C1 C 0.9407(16) 0.2864(15) 0.1911(13)
C2 C 0.8722(17) 0.3414(15) 0.0997(14)
H2 H 0.88570 0.32340 0.01830
C3 C 0.7832(16) 0.4237(15) 0.1301(13)
C4 C 0.7536(16) 0.4459(15) 0.2503(12)
C5 C 0.8248(17) 0.3852(15) 0.3415(14)
H3 H 0.80730 0.39790 0.42250
C6 C 0.9154(15) 0.3112(14) 0.3138(13)
C7 C 0.9802(16) 0.2570(16) 0.4181(13)
C8 C 0.7214(17) 0.4868(16) 0.0315(14)
C9 C 0.545(3) 0.121(3) 0.636(2)
H4 H 0.50790 0.16930 0.58070
C10 C 0.693(2) 0.054(3) 0.749(3)
H5 H 0.77700 0.04210 0.78670
C11 C 0.470(2) 0.026(3) 0.6988(19)
H6 H 0.37020 -0.00770 0.69280
C12 C 0.534(2) -0.1119(18) 0.8604(18)
H7 H 0.62330 -0.12750 0.89200
H8 H 0.47280 -0.19730 0.81730
C13 C 0.4617(19) -0.0705(17) 0.9668(16)
H9 H 0.45590 -0.13670 1.02480
H10 H 0.36440 -0.07280 0.93690
N1 N 0.690(2) 0.134(2) 0.667(2)
H11 H 0.76150 0.18550 0.63830
N2 N 0.5653(16) -0.0094(14) 0.7715(13)
U1* U 0.33279(6) 0.38788(6) 0.36936(5)
U1A U 0.66721(6) 0.61212(6) 0.63064(5)
U2A U 0.86500(6) -0.17206(6) 0.17265(5)
U2A* U 0.86500(6) 0.82794(6) 0.17265(5)
O7A O 0.9890(12) -0.0491(10) -0.2004(9)
O10A O 1.3056(12) 0.3132(11) -0.2735(11)
O11* O 1.4884(11) 0.4715(11) 0.2121(9)
O12* O 1.6025(11) 0.5214(11) 0.4224(9)
O12A O 1.3975(11) 0.4786(11) 0.5776(9)
O14A O 1.2639(13) 0.3900(12) -0.0417(10)
C9A C 0.455(3) -0.121(3) 1.364(2)
H4A H 0.49210 -0.16930 1.41930
C10A C 0.307(2) -0.054(3) 1.251(3)
H5A H 0.22300 -0.04210 1.21330
C11A C 0.530(2) -0.026(3) 1.3012(19)
H6A H 0.62980 0.00770 1.30720
C12A C 0.466(2) 0.1119(18) 1.1396(18)
H7A H 0.37670 0.12750 1.10800
H8A H 0.52720 0.19730 1.18270
C13A C 0.5383(19) 0.0705(17) 1.0332(16)
H9A H 0.54410 0.13670 0.97520
H10A H 0.63560 0.07280 1.06310
N1A N 0.310(2) -0.134(2) 1.333(2)
H11A H 0.23850 -0.18550 1.36170
N2A N 0.4347(16) 0.0094(14) 1.2285(13)
#END
