
#######################################################################
#
#                 Cambridge Crystallographic Data Centre
#                                CCDC
#
#######################################################################
#
# If this CIF has been generated from an entry in the Cambridge
# Structural Database, then it will include bibliographic, chemical,
# crystal, experimental, refinement or atomic coordinate data resulting
# from the CCDC's data processing and validation procedures.
#
#######################################################################

data_CSD_CIF_KUVYAD
_audit_creation_date 2015-09-22
_audit_creation_method CSD-ConQuest-V1
_database_code_CSD KUVYAD
_database_code_depnum_ccdc_archive 'CCDC 1058270'
_chemical_formula_sum 'C32 H42 Cd1 N4 O11'
_chemical_formula_moiety
;
(C21 H11 Cd1 O7 1-)n,n(C2 H8 N1 1+),3n(C3 H7 N1 O1),n(H2 O1)
;
_journal_coden_Cambridge 1147
_journal_volume 15
_journal_year 2015
_journal_page_first 3119
_journal_name_full 'Cryst.Growth Des. '
loop_
_publ_author_name
"Yun-Nan Gong"
"Yong-Rong Xie"
"Di-Chang Zhong"
"Zi-Yi Du"
"Tong-Bu Lu"
_chemical_name_systematic
;
catena-(Dimethylammonium 
(\m~3~-triphenylene-2,6,10-tricarboxylato)-aqua-cadmium dimethylformamide 
solvate monohydrate)
;
_cell_volume   4803.893
_exptl_crystal_colour 'colorless'
_exptl_crystal_description 'block'
_diffrn_ambient_temperature 293
_refine_special_details
;
The SQUEEZE/PLATON program was used to model the disordered cation and 
solvent molecules.
;
#These two values have been output from a single CSD field.
_refine_ls_R_factor_gt 0.0734
_refine_ls_wR_factor_gt 0.0734
_symmetry_cell_setting hexagonal
_symmetry_space_group_name_H-M 'P 32 2 1'
_symmetry_Int_Tables_number 154
loop_
_symmetry_equiv_pos_site_id
_symmetry_equiv_pos_as_xyz
1 x,y,z
2 -y,x-y,2/3+z
3 -x+y,-x,1/3+z
4 y,x,-z
5 x-y,-y,1/3-z
6 -x,-x+y,2/3-z
_cell_length_a 14.0306(3)
_cell_length_b 14.0306(3)
_cell_length_c 28.1780(11)
_cell_angle_alpha 90
_cell_angle_beta 90
_cell_angle_gamma 120
_cell_formula_units_Z 6
loop_
_atom_type_symbol
_atom_type_radius_bond
C 0.68
H 0.23
Cd 1.44
O 0.68
loop_
_atom_site_label
_atom_site_type_symbol
_atom_site_fract_x
_atom_site_fract_y
_atom_site_fract_z
C1 C 1.2197(6) 1.0121(7) 0.0648(2)
Cd1 Cd 1.42990(5) 1.09083(6) 0.024718(17)
O1 O 1.2377(5) 1.0722(5) 0.02993(19)
C2 C 1.1113(6) 0.9594(7) 0.0899(3)
O2 O 1.2909(5) 0.9884(7) 0.0797(2)
C3 C 1.0876(7) 0.8851(9) 0.1261(3)
H1 H 1.13900 0.86520 0.13510
O3 O 0.7203(6) 0.6025(6) 0.2784(2)
C4 C 0.9874(7) 0.8400(8) 0.1490(3)
H2 H 0.97280 0.79090 0.17390
O4 O 0.6004(6) 0.6519(6) 0.3022(2)
C5 C 0.9048(6) 0.8673(7) 0.1353(3)
O5 O 0.5106(6) 1.0016(9) 0.0609(2)
C6 C 0.9293(6) 0.9409(6) 0.0985(2)
O6 O 0.6186(6) 1.1134(8) 0.0067(3)
C7 C 1.0336(6) 0.9856(7) 0.0761(3)
H3 H 1.04980 1.03450 0.05100
C8 C 0.8004(6) 0.8195(6) 0.1616(3)
C9 C 0.7767(7) 0.7537(7) 0.1999(3)
H4 H 0.82730 0.73240 0.20860
C10 C 0.6841(7) 0.7161(7) 0.2269(3)
C11 C 0.6671(8) 0.6522(8) 0.2725(3)
C12 C 0.6047(7) 0.7475(9) 0.2121(3)
H5 H 0.54150 0.72630 0.23000
C13 C 0.6227(7) 0.8084(8) 0.1718(3)
H6 H 0.56920 0.82400 0.16120
C14 C 0.7202(6) 0.8473(6) 0.1462(3)
C15 C 0.7450(6) 0.9211(7) 0.1054(3)
C16 C 0.6639(7) 0.9485(8) 0.0880(3)
H7 H 0.59540 0.91760 0.10270
C17 C 0.6855(8) 1.0157(8) 0.0521(3)
C18 C 0.5996(7) 1.0476(9) 0.0383(3)
C19 C 0.7840(7) 1.0586(8) 0.0291(3)
H8 H 0.79720 1.10400 0.00290
C20 C 0.8627(7) 1.0366(7) 0.0434(3)
H9 H 0.93040 1.07020 0.02800
C21 C 0.8447(6) 0.9650(7) 0.0806(3)
O7 O 1.5188(4) 1.2738(3) 0.06151(13)
Cd1* Cd 0.42990(5) 1.09083(6) 0.024718(17)
Cd1B Cd 0.66093(5) 0.57010(6) 0.358051(17)
O3A O 1.3975(6) 1.1178(6) -0.054933(200)
O4A O 1.3481(6) 0.9485(6) -0.031133(200)
O5* O 1.5106(6) 1.0016(9) 0.0609(2)
O6* O 1.6186(6) 1.1134(8) 0.0067(3)
#END
