
#######################################################################
#
#                 Cambridge Crystallographic Data Centre
#                                CCDC
#
#######################################################################
#
# If this CIF has been generated from an entry in the Cambridge
# Structural Database, then it will include bibliographic, chemical,
# crystal, experimental, refinement or atomic coordinate data resulting
# from the CCDC's data processing and validation procedures.
#
#######################################################################

data_CSD_CIF_KUWNEY
_audit_creation_date 2020-07-09
_audit_creation_method CSD-ConQuest-V1
_database_code_CSD KUWNEY
_database_code_depnum_ccdc_archive 'CCDC 1959264'
_chemical_formula_sum 'C10.5 H16 Er4 Na2 O29.5'
_chemical_formula_moiety
;
(C10 H4 Er4 O24 2-)n,2(Na1 1+),5(H2 O1),0.5(C1 H4 O1)
;
_journal_coden_Cambridge 1350
_journal_volume 22
_journal_year 2020
_journal_page_first 4833
_journal_name_full 'CrystEngComm '
loop_
_publ_author_name
"Nutcha Ponjan"
"F.Kielar"
"Winya Dungkaew"
"Kanokwan Kongpatpanich"
"H.Zenno"
"S.Hayami"
"M.Sukwattanasinitt"
"Kittipong Chainok"
_chemical_name_systematic
;
catena-[di-sodium pentakis(\m-oxalato)-tetrakis(\m-hydroxo)-tetra-erbium(iii) 
methanol unknown solvate pentahydrate]
;
_cell_volume   2950.325
_exptl_crystal_colour 'pink'
_exptl_crystal_density_diffrn 2.811
_exptl_crystal_description 'block'
_diffrn_ambient_temperature 296
_refine_special_details
;
The structure is disordered. Disordered solvent molecules were not modelled 
and the disordered density was taken into account using the MASK/OLEX2 
program.
;
#These two values have been output from a single CSD field.
_refine_ls_R_factor_gt 0.0199
_refine_ls_wR_factor_gt 0.0199
_symmetry_cell_setting tetragonal
_symmetry_space_group_name_H-M 'I 4/m'
_symmetry_Int_Tables_number 87
loop_
_symmetry_equiv_pos_site_id
_symmetry_equiv_pos_as_xyz
1 x,y,z
2 -y,x,z
3 -x,-y,z
4 y,-x,z
5 1/2+x,1/2+y,1/2+z
6 1/2-y,1/2+x,1/2+z
7 1/2-x,1/2-y,1/2+z
8 1/2+y,1/2-x,1/2+z
9 -x,-y,-z
10 y,-x,-z
11 x,y,-z
12 -y,x,-z
13 -1/2-x,-1/2-y,-1/2-z
14 -1/2+y,-1/2-x,-1/2-z
15 -1/2+x,-1/2+y,-1/2-z
16 -1/2-y,-1/2+x,-1/2-z
_cell_length_a 12.4441(2)
_cell_length_b 12.4441(2)
_cell_length_c 19.0521(5)
_cell_angle_alpha 90
_cell_angle_beta 90
_cell_angle_gamma 90
_cell_formula_units_Z 4
loop_
_atom_type_symbol
_atom_type_radius_bond
C 0.68
H 0.23
Er 1.89
Na 1.66
O 0.68
loop_
_atom_site_label
_atom_site_type_symbol
_atom_site_fract_x
_atom_site_fract_y
_atom_site_fract_z
Er1 Er 0.50001(2) 0.84720(2) 0.68412(2)
O1 O 0.5000(2) 0.8922(2) 0.80289(14)
H1 H 0.500(4) 0.833(2) 0.824(3)
O2 O 0.4999(3) 0.9109(2) 0.56959(15)
O3 O 0.4053(6) 0.7218(6) 0.6087(4)
O4 O 0.2782(6) 0.5950(6) 0.6086(4)
O5 O 0.3411(5) 0.7854(5) 0.7351(3)
O6 O 0.2147(5) 0.6590(5) 0.7353(3)
C1 C 0.50000 1.00000 0.5407(3)
C2 C 0.3220(4) 0.6778(4) 0.6381(2)
C3 C 0.2924(6) 0.7074(6) 0.7083(4)
Na1 Na 0.5001(3) 0.7440(3) 0.50000
O7 O 0.43669 0.56362 0.50000
H2? H 0.40790 0.53042 0.46786
H3? H 0.53857 0.45540 0.50000
H4? H 0.55006 0.54177 0.56128
H5? H 0.45837 0.45560 0.56531
C4? C 0.3673(6) 0.6321(6) 0.7065(4)
O8? O 0.3608(6) 0.7665(6) 0.6171(4)
O9? O 0.2337(6) 0.6392(6) 0.6170(4)
O10? O 0.5487(5) 0.6766(4) 0.7299(3)
O11? O 0.4510(5) 0.6764(4) 0.7299(3)
C5? C 0.50000 0.50000 0.53429
O2B O 0.5001(3) 1.0891(2) 0.56959(15)
O2H O 0.5001(3) 1.0891(2) 0.43041(15)
C1H C 0.50000 1.00000 0.4593(3)
O2J O 0.4999(3) 0.9109(2) 0.43041(15)
Er1A Er 0.15280(2) 0.50001(2) 0.68412(2)
O1A O 0.1078(2) 0.5000(2) 0.80289(14)
H1A H 0.167(4) 0.500(2) 0.824(3)
O3A O 0.2782(6) 0.4053(6) 0.6087(4)
O4A O 0.4050(6) 0.2782(6) 0.6086(4)
O5A O 0.2146(5) 0.3411(5) 0.7351(3)
O6A O 0.3410(5) 0.2147(5) 0.7353(3)
C2A C 0.3222(4) 0.3220(4) 0.6381(2)
C3A C 0.2926(6) 0.2924(6) 0.7083(4)
Er1B Er 0.49999(2) 0.15280(2) 0.68412(2)
O1B O 0.5000(2) 0.1078(2) 0.80289(14)
H1B H 0.500(4) 0.167(2) 0.824(3)
O3B O 0.5947(6) 0.2782(6) 0.6087(4)
O4B O 0.7218(6) 0.4050(6) 0.6086(4)
O5B O 0.6589(5) 0.2146(5) 0.7351(3)
O6B O 0.7853(5) 0.3410(5) 0.7353(3)
C2B C 0.6780(4) 0.3222(4) 0.6381(2)
C3B C 0.7076(6) 0.2926(6) 0.7083(4)
Er1O Er 0.65280(2) 1.00001(2) 0.81588(2)
O1O O 0.6078(2) 1.0000(2) 0.69711(14)
H1O H 0.667(4) 1.000(2) 0.676(3)
O3O O 0.7782(6) 0.9053(6) 0.8913(4)
O4O O 0.9050(6) 0.7782(6) 0.8914(4)
O5O O 0.7146(5) 0.8411(5) 0.7649(3)
O6O O 0.8410(5) 0.7147(5) 0.7647(3)
C2O C 0.8222(4) 0.8220(4) 0.8619(2)
C3O C 0.7926(6) 0.7924(6) 0.7917(4)
Er1B* Er 0.49999(2) 1.15280(2) 0.68412(2)
Er1C Er 0.84720(2) 0.49999(2) 0.68412(2)
Er1H Er 0.49999(2) 1.15280(2) 0.31588(2)
Er1J Er 0.50001(2) 0.84720(2) 0.31588(2)
Er1L Er -0.00001(2) 0.65280(2) 0.81588(2)
Er1L* Er 0.99999(2) 0.65280(2) 0.81588(2)
Er1M Er 0.34720(2) -0.00001(2) 0.81588(2)
Er1M* Er 0.34720(2) 0.99999(2) 0.81588(2)
Er1N Er 0.00001(2) 0.34720(2) 0.81588(2)
Er1O* Er 0.65280(2) 0.00001(2) 0.81588(2)
O1B* O 0.5000(2) 1.1078(2) 0.80289(14)
O1L O 0.0000(2) 0.6078(2) 0.69711(14)
O1M O 0.3922(2) 0.0000(2) 0.69711(14)
O1M* O 0.3922(2) 1.0000(2) 0.69711(14)
O1N O 0.0000(2) 0.3922(2) 0.69711(14)
O1O* O 0.6078(2) 0.0000(2) 0.69711(14)
O2A O 0.0891(3) 0.4999(2) 0.56959(15)
O2B* O 0.5001(3) 0.0891(2) 0.56959(15)
O2O O 0.5891(3) 0.9999(2) 0.93041(15)
O4C O 0.5950(6) 0.7218(6) 0.6086(4)
O4N O 0.7782(6) 1.0950(6) 0.8914(4)
O6C O 0.6590(5) 0.7853(5) 0.7353(3)
O6N O 0.7147(5) 1.1590(5) 0.7647(3)
#END
