
#######################################################################
#
#                 Cambridge Crystallographic Data Centre
#                                CCDC
#
#######################################################################
#
# If this CIF has been generated from an entry in the Cambridge
# Structural Database, then it will include bibliographic, chemical,
# crystal, experimental, refinement or atomic coordinate data resulting
# from the CCDC's data processing and validation procedures.
#
#######################################################################

data_CSD_CIF_KUWROK
_audit_creation_date 2010-09-23
_audit_creation_method CSD-ConQuest-V1
_database_code_CSD KUWROK
_database_code_depnum_ccdc_archive 'CCDC 768698'
_chemical_formula_sum 'C48 H51 Ag3 N8 O66 P2 W18'
_chemical_formula_moiety
;
(C24 H23 Ag2 N4 O62 P2 W18 1-)n,n(C12 H10 Ag1 N2 1+),n(C12 H10 N2),4n(H2 O1)
;
_journal_coden_Cambridge 971
_journal_volume 12
_journal_year 2010
_journal_page_first 262
_journal_name_full 'Solid State Sciences '
loop_
_publ_author_name
"Jingquan Sha"
"Hongjun Lu"
"Jun Peng"
"Haijun Pang"
"Aixiang Tian"
"Yuguang Lv"
"Hong Liu"
_chemical_name_systematic
;
catena-((\m~2~-bis(4-pyridyl)ethylene)-silver(i) 
bis(\m~9~-phosphato)-bis(\m~2~-bis(4-pyridyl)ethylene)-heptatriacontakis(\m~2~
-oxo)-tris(\m~2~-hydroxo)-tetradecaoxo-di-silver-octadeca-tungsten 
bis(4-pyridyl)ethylene tetrahydrate)
;
_cell_volume   4737.812
_exptl_crystal_colour 'yellow'
_exptl_crystal_density_diffrn 3.798
_exptl_special_details
;
The polyoxometalate H atoms have not been located and have been added 
arbitrarily
;
_exptl_crystal_description 'block'
_diffrn_ambient_temperature 293
#These two values have been output from a single CSD field.
_refine_ls_R_factor_gt 0.064
_refine_ls_wR_factor_gt 0.064
_symmetry_cell_setting monoclinic
_symmetry_space_group_name_H-M 'P 21/m'
_symmetry_Int_Tables_number 11
loop_
_symmetry_equiv_pos_site_id
_symmetry_equiv_pos_as_xyz
1 x,y,z
2 -x,1/2+y,-z
3 -x,-y,-z
4 x,-1/2-y,z
_cell_length_a 13.623(5)
_cell_length_b 25.345(5)
_cell_length_c 13.858(5)
_cell_angle_alpha 90
_cell_angle_beta 98.038(5)
_cell_angle_gamma 90
_cell_formula_units_Z 2
loop_
_atom_type_symbol
_atom_type_radius_bond
C 0.68
H 0.23
Ag 1.72
N 0.68
O 0.68
P 1.05
W 1.40
loop_
_atom_site_label
_atom_site_type_symbol
_atom_site_fract_x
_atom_site_fract_y
_atom_site_fract_z
W1 W 0.31844(6) -0.05634(3) -0.60004(6)
W2 W 0.53977(6) -0.05637(3) -0.68354(6)
W3 W 0.32769(6) -0.05645(3) -0.84123(6)
W4 W 0.62251(5) -0.17583(3) -0.80349(5)
W5 W 0.61362(5) -0.17611(3) -0.54010(5)
W6 W 0.39421(5) -0.17575(3) -0.45664(5)
W7 W 0.16203(5) -0.17603(3) -0.62523(6)
W8 W 0.16989(5) -0.17580(3) -0.86703(5)
W9 W 0.41017(5) -0.17593(3) -0.95780(5)
Ag1 Ag 0.3941(2) -0.08720(13) -1.2203(2)
P1 P 0.3950(3) -0.17252(15) -0.7085(3)
O1 O 0.3939(7) -0.1096(4) -0.7091(8)
O2 O 0.4525(8) -0.1892(4) -0.7919(9)
O3 O 0.2863(8) -0.1901(4) -0.7272(8)
O4 O 0.4463(8) -0.1889(4) -0.6086(9)
O5 O 0.2824(10) -0.0104(5) -0.9262(10)
O6 O 0.2812(9) -0.0275(5) -0.7283(10)
O7 O 0.4528(9) -0.0282(5) -0.7937(9)
O8 O 0.2677(10) -0.0092(5) -0.5344(9)
O9 O 0.4466(9) -0.0276(5) -0.6028(9)
O10 O 0.6319(9) -0.0107(5) -0.6726(9)
O11 O 0.2213(8) -0.1055(5) -0.8524(8)
O12 O 0.3900(8) -0.1060(4) -0.9191(9)
O13 O 0.2134(8) -0.1048(4) -0.6253(8)
O14 O 0.5920(9) -0.1051(5) -0.7669(9)
O15 O 0.3750(9) -0.1052(5) -0.5037(9)
O16 O 0.5849(8) -0.1063(4) -0.5833(9)
O17 O 0.7395(10) -0.1629(5) -0.8239(11)
O18 O 0.5500(9) -0.1656(4) -0.9313(9)
O19 O 0.3952(10) -0.1642(5) -1.0790(9)
O20 O 0.2774(8) -0.1893(4) -0.9363(8)
O21 O 0.0788(9) -0.1628(5) -0.9596(10)
O22 O 0.1011(8) -0.1658(5) -0.7573(10)
O23 O 0.0633(9) -0.1630(5) -0.5629(10)
O24 O 0.2649(9) -0.1895(5) -0.5209(9)
O25 O 0.3696(11) -0.1650(6) -0.3405(9)
O26 O 0.5345(9) -0.1669(5) -0.4383(9)
O27 O 0.7282(9) -0.1651(5) -0.4782(10)
O28 O 0.6403(8) -0.1898(5) -0.6680(9)
O29 O 0.6204(11) -0.25000 -0.8218(13)
O30 O 0.6082(11) -0.25000 -0.5201(13)
O31 O 0.4146(11) -0.25000 -0.4461(13)
O32 O 0.1446(13) -0.25000 -0.6402(12)
O33 O 0.1494(13) -0.25000 -0.8593(12)
O34 O 0.4287(12) -0.25000 -0.9636(12)
N1 N 0.5537(14) -0.0971(7) -1.2066(18)
N2 N 1.2359(16) -0.0897(10) -1.242(2)
C1 C 0.6920(15) -0.0894(8) -1.2883(17)
H1 H 0.71730 -0.08320 -1.34620
C2 C 0.7557(17) -0.1021(8) -1.2088(18)
C3 C 0.5950(16) -0.0851(7) -1.2885(17)
H2 H 0.55480 -0.07400 -1.34450
C4 C 0.6105(16) -0.1088(9) -1.1252(17)
H3 H 0.58330 -0.11460 -1.06810
C5 C 1.0223(19) -0.0967(10) -1.261(2)
C6 C 1.197(2) -0.1048(11) -1.165(2)
H4 H 1.23830 -0.11400 -1.10760
C7 C 0.9166(14) -0.0956(9) -1.2732(16)
H5 H 0.88260 -0.08750 -1.33440
C8 C 0.7106(19) -0.1124(10) -1.126(2)
H6 H 0.75050 -0.12210 -1.06860
C9 C 0.8661(17) -0.1053(10) -1.2035(19)
H7 H 0.90150 -0.11530 -1.14400
C10 C 1.183(2) -0.0849(12) -1.330(3)
H8 H 1.21450 -0.08100 -1.38440
C11 C 1.091(3) -0.1068(10) -1.170(2)
H9 H 1.06450 -0.11470 -1.11320
C12 C 1.077(2) -0.0858(14) -1.340(2)
H10 H 1.04170 -0.07890 -1.40100
Ag2 Ag -0.59642(14) -0.25000 -0.20792(15)
N3 N -0.4374(14) -0.25000 -0.1894(16)
N4 N 0.2466(16) -0.25000 -0.2245(17)
C13 C 0.198(2) -0.25000 -0.141(2)
H11 H 0.23690 -0.25000 -0.08000
C14 C 0.0954(19) -0.25000 -0.143(2)
H12 H 0.06680 -0.25000 -0.08610
C15 C -0.3930(18) -0.25000 -0.270(2)
H13 H -0.43180 -0.25000 -0.33030
C16 C -0.2276(17) -0.25000 -0.1775(19)
C17 C -0.2907(19) -0.25000 -0.264(2)
H14 H -0.26340 -0.25000 -0.32210
C18 C -0.2762(19) -0.25000 -0.093(2)
H15 H -0.23890 -0.25000 -0.03100
C19 C -0.125(2) -0.25000 -0.168(2)
H16 H -0.09030 -0.25000 -0.10550
C20 C 0.036(2) -0.25000 -0.236(2)
C21 C -0.379(2) -0.25000 -0.102(2)
H17 H -0.40950 -0.25000 -0.04590
C22 C 0.186(2) -0.25000 -0.320(3)
H18 H 0.21440 -0.25000 -0.37700
C23 C -0.070(2) -0.25000 -0.244(2)
H19 H -0.10520 -0.25000 -0.30620
C24 C 0.084(2) -0.25000 -0.320(3)
H20 H 0.04390 -0.25000 -0.38050
N5 N 0.1135(16) 0.0573(7) 0.7170(13)
C25 C 0.0186(18) 0.0577(9) 0.7159(17)
H21 H -0.02150 0.06800 0.65910
C26 C 0.0324(17) 0.0292(8) 0.8796(16)
C27 C 0.179(2) 0.0457(10) 0.806(2)
H22 H 0.24750 0.04900 0.80930
C28 C -0.0257(16) 0.0434(9) 0.7957(17)
H23 H -0.09440 0.04350 0.79220
C29 C 0.1356(19) 0.0298(10) 0.8838(16)
H24 H 0.17510 0.01920 0.94060
C30 C -0.015(2) 0.0111(10) 0.9640(19)
H25 H -0.08240 0.01890 0.95840
O35 O 0.1714(11) 0.0743(6) 0.5406(11)
O36 O 0.925(4) -0.25000 -0.779(4)
O37 O -0.112(4) -0.312(2) 0.062(4)
O38 O 0.592(7) 0.004(4) 0.077(7)
W1C W 0.31844(6) -0.44366(3) -0.60004(6)
W2C W 0.53977(6) -0.44363(3) -0.68354(6)
W3C W 0.32769(6) -0.44355(3) -0.84123(6)
W4C W 0.62251(5) -0.32417(3) -0.80349(5)
W5C W 0.61362(5) -0.32389(3) -0.54010(5)
W6C W 0.39421(5) -0.32425(3) -0.45664(5)
W7C W 0.16203(5) -0.32397(3) -0.62523(6)
W8C W 0.16989(5) -0.32420(3) -0.86703(5)
W9C W 0.41017(5) -0.32407(3) -0.95780(5)
Ag1C Ag 0.3941(2) -0.41280(13) -1.2203(2)
Ag1* Ag 0.3941(2) -0.08720(13) -0.2203(2)
Ag1** Ag 1.3941(2) -0.08720(13) -1.2203(2)
Ag1C* Ag 0.3941(2) -0.41280(13) -0.2203(2)
Ag1*** Ag -0.6059(2) -0.08720(13) -1.2203(2)
P1C P 0.3950(3) -0.32748(15) -0.7085(3)
O1C O 0.3939(7) -0.3904(4) -0.7091(8)
O2C O 0.4525(8) -0.3108(4) -0.7919(9)
O3C O 0.2863(8) -0.3099(4) -0.7272(8)
O4C O 0.4463(8) -0.3111(4) -0.6086(9)
O5C O 0.2824(10) -0.4896(5) -0.9262(10)
O6C O 0.2812(9) -0.4725(5) -0.7283(10)
O7C O 0.4528(9) -0.4718(5) -0.7937(9)
O8C O 0.2677(10) -0.4908(5) -0.5344(9)
O9C O 0.4466(9) -0.4724(5) -0.6028(9)
O10C O 0.6319(9) -0.4893(5) -0.6726(9)
O11C O 0.2213(8) -0.3945(5) -0.8524(8)
O12C O 0.3900(8) -0.3940(4) -0.9191(9)
O13C O 0.2134(8) -0.3952(4) -0.6253(8)
O14C O 0.5920(9) -0.3949(5) -0.7669(9)
O15C O 0.3750(9) -0.3948(5) -0.5037(9)
O16C O 0.5849(8) -0.3937(4) -0.5833(9)
O17C O 0.7395(10) -0.3371(5) -0.8239(11)
O18C O 0.5500(9) -0.3344(4) -0.9313(9)
O19C O 0.3952(10) -0.3358(5) -1.0790(9)
O20C O 0.2774(8) -0.3107(4) -0.9363(8)
O21C O 0.0788(9) -0.3372(5) -0.9596(10)
O22C O 0.1011(8) -0.3342(5) -0.7573(10)
O23C O 0.0633(9) -0.3370(5) -0.5629(10)
O24C O 0.2649(9) -0.3105(5) -0.5209(9)
O25C O 0.3696(11) -0.3350(6) -0.3405(9)
O25* O 0.3696(11) -0.1650(6) -1.3405(9)
O25C* O 0.3696(11) -0.3350(6) -1.3405(9)
O26C O 0.5345(9) -0.3331(5) -0.4383(9)
O27C O 0.7282(9) -0.3349(5) -0.4782(10)
O28C O 0.6403(8) -0.3102(5) -0.6680(9)
N1* N -0.4463(14) -0.0971(7) -1.2066(18)
N1C N 0.5537(14) -0.4029(7) -1.2066(18)
N2* N 0.2359(16) -0.0897(10) -1.242(2)
N2C N 0.2359(16) -0.4103(10) -1.242(2)
C1* C -0.3080(15) -0.0894(8) -1.2883(17)
H1* H -0.28270 -0.08320 -1.34620
C2* C -0.2443(17) -0.1021(8) -1.2088(18)
C3* C -0.4050(16) -0.0851(7) -1.2885(17)
H2* H -0.44520 -0.07400 -1.34450
C4* C -0.3895(16) -0.1088(9) -1.1252(17)
H3* H -0.41670 -0.11460 -1.06810
C5* C 0.0223(19) -0.0967(10) -1.261(2)
C6* C 0.197(2) -0.1048(11) -1.165(2)
H4* H 0.23830 -0.11400 -1.10760
C7* C -0.0834(14) -0.0956(9) -1.2732(16)
H5* H -0.11740 -0.08750 -1.33440
C8* C -0.2894(19) -0.1124(10) -1.126(2)
H6* H -0.24950 -0.12210 -1.06860
C9* C -0.1339(17) -0.1053(10) -1.2035(19)
H7* H -0.09850 -0.11530 -1.14400
C10* C 0.183(2) -0.0849(12) -1.330(3)
H8* H 0.21450 -0.08100 -1.38440
C11* C 0.091(3) -0.1068(10) -1.170(2)
H9* H 0.06450 -0.11470 -1.11320
C12* C 0.077(2) -0.0858(14) -1.340(2)
H10* H 0.04170 -0.07890 -1.40100
Ag2* Ag 0.40358(14) -0.25000 -0.20792(15)
N4* N -0.7534(16) -0.25000 -0.2245(17)
N5B N -0.1135(16) -0.0573(7) 1.2830(13)
C25B C -0.0186(18) -0.0577(9) 1.2841(17)
H21B H 0.02150 -0.06800 1.34090
C26B C -0.0324(17) -0.0292(8) 1.1204(16)
C27B C -0.179(2) -0.0457(10) 1.194(2)
H22B H -0.24750 -0.04900 1.19070
C28B C 0.0257(16) -0.0434(9) 1.2043(17)
H23B H 0.09440 -0.04350 1.20780
C29B C -0.1356(19) -0.0298(10) 1.1162(16)
H24B H -0.17510 -0.01920 1.05940
C30B C 0.015(2) -0.0111(10) 1.0360(19)
H25B H 0.08240 -0.01890 1.04160
#END
