
#######################################################################
#
#                 Cambridge Crystallographic Data Centre
#                                CCDC
#
#######################################################################
#
# If this CIF has been generated from an entry in the Cambridge
# Structural Database, then it will include bibliographic, chemical,
# crystal, experimental, refinement or atomic coordinate data resulting
# from the CCDC's data processing and validation procedures.
#
#######################################################################

data_CSD_CIF_KUXDOW
_audit_creation_date 1993-06-17
_audit_creation_method CSD-ConQuest-V1
_database_code_CSD KUXDOW
_database_code_depnum_ccdc_archive 'CCDC 1201881'
_chemical_formula_sum 'C108 H132 Ag7 I7 O36 P4'
_chemical_formula_moiety
;
(C54 H66 Ag1 O18 P2 1+)2n,n(Ag5 I7 2-)
;
_journal_coden_Cambridge 154
_journal_volume 45
_journal_year 1992
_journal_page_first 1909
_journal_name_full 'Aust.J.Chem. '
loop_
_publ_author_name
"L.-J.Baker"
"G.A.Bowmaker"
"Effendy"
"B.W.Skelton"
"A.H.White"
_chemical_name_systematic
;
catena-((bis(tris(2,4,6-Trimethoxyphenyl)phosphine))-silver(i) 
hepta-iodo-penta-silver(i))
;
_cell_volume   6426.282
_exptl_crystal_density_diffrn 1.95
_diffrn_ambient_temperature ?
_diffrn_special_details
;
The study was carried out at room temperature,in the range 283-303K

;
#These two values have been output from a single CSD field.
_refine_ls_R_factor_gt 0.11
_refine_ls_wR_factor_gt 0.11
_symmetry_cell_setting triclinic
_symmetry_space_group_name_H-M 'P -1'
_symmetry_Int_Tables_number 2
loop_
_symmetry_equiv_pos_site_id
_symmetry_equiv_pos_as_xyz
1 x,y,z
2 -x,-y,-z
_cell_length_a 22.01(2)
_cell_length_b 19.98(1)
_cell_length_c 16.48(1)
_cell_angle_alpha 94.49(6)
_cell_angle_beta 92.46(7)
_cell_angle_gamma 116.76(5)
_cell_formula_units_Z 2
loop_
_atom_type_symbol
_atom_type_radius_bond
C 0.68
H 0.23
Ag 1.20
I 1.49
O 0.68
P 1.05
loop_
_atom_site_label
_atom_site_type_symbol
_atom_site_fract_x
_atom_site_fract_y
_atom_site_fract_z
Ag1 Ag 0.0792(4) 1.0208(6) 0.9409(6)
Ag2 Ag 0.1811(4) 1.0610(6) 0.8066(6)
Ag3 Ag -0.0189(4) 0.9906(6) 0.5949(6)
Ag4 Ag -0.0159(4) 0.9849(5) 0.7824(6)
Ag5 Ag 0.1186(4) 0.9802(6) 0.6532(6)
I1 I 0.2200(3) 1.1186(5) 0.9631(6)
I2 I 0.0945(4) 1.1118(4) 0.7061(5)
I3 I 0.2610(3) 1.0282(5) 0.6943(5)
I4 I -0.0310(3) 1.0625(4) 0.9235(4)
I5 I 0.0614(3) 0.9014(4) 0.8033(4)
I6 I 0.0469(3) 0.9135(5) 0.5060(5)
I7 I -0.1273(3) 0.8955(5) 0.6736(5)
Ag6 Ag 0.2271(3) 0.6009(4) 1.0450(4)
P1 P 0.174(1) 0.475(1) 1.080(1)
C1 C 0.115(2) 0.409(2) 0.994(2)
C2 C 0.135(2) 0.429(2) 0.914(3)
O1 O 0.194(2) 0.494(3) 0.916(3)
C3 C 0.209(3) 0.525(4) 0.844(4)
C4 C 0.100(2) 0.390(2) 0.842(2)
C5 C 0.040(1) 0.325(2) 0.853(2)
O2 O 0.015(2) 0.288(2) 0.779(2)
C6 C -0.037(2) 0.215(2) 0.775(2)
C7 C 0.017(1) 0.302(1) 0.920(2)
C8 C 0.052(1) 0.350(2) 0.996(2)
O3 O 0.031(2) 0.331(2) 1.072(2)
C9 C -0.022(2) 0.257(2) 1.088(2)
C10 C 0.136(3) 0.467(4) 1.171(4)
C11 C 0.096(3) 0.516(4) 1.185(4)
O4 O 0.105(2) 0.560(3) 1.126(3)
C12 C 0.090(4) 0.624(5) 1.139(6)
C13 C 0.065(4) 0.520(5) 1.245(6)
C14 C 0.049(4) 0.468(4) 1.293(5)
O5 O 0.016(3) 0.464(3) 1.368(4)
C15 C 0.000(4) 0.415(5) 1.426(6)
C16 C 0.078(4) 0.416(4) 1.297(5)
C17 C 0.116(4) 0.419(4) 1.230(5)
O6 O 0.143(3) 0.370(3) 1.211(4)
C18 C 0.124(4) 0.315(5) 1.268(5)
C19 C 0.241(4) 0.444(4) 1.101(5)
C20 C 0.299(3) 0.486(4) 1.135(4)
O7 O 0.319(2) 0.564(3) 1.143(3)
C21 C 0.386(4) 0.622(5) 1.169(5)
C22 C 0.359(4) 0.474(5) 1.140(5)
C23 C 0.335(4) 0.396(4) 1.125(4)
O8 O 0.393(3) 0.374(3) 1.128(3)
C24 C 0.374(4) 0.294(4) 1.118(5)
C25 C 0.267(4) 0.334(4) 1.095(5)
C26 C 0.222(4) 0.374(5) 1.084(5)
O9 O 0.158(3) 0.311(3) 1.059(4)
C27 C 0.131(8) 0.236(9) 1.06(1)
P2 P 0.273(1) 0.727(1) 1.005(1)
C28 C 0.237(3) 0.728(4) 0.910(4)
C29 C 0.168(3) 0.680(4) 0.886(4)
O10 O 0.137(2) 0.626(3) 0.943(3)
C30 C 0.077(4) 0.568(4) 0.922(5)
C31 C 0.132(3) 0.675(4) 0.815(4)
C32 C 0.164(4) 0.728(5) 0.772(5)
O11 O 0.122(3) 0.732(3) 0.695(3)
C33 C 0.147(5) 0.789(6) 0.655(6)
C34 C 0.235(3) 0.785(4) 0.780(4)
C35 C 0.263(4) 0.774(4) 0.850(5)
O12 O 0.333(3) 0.825(3) 0.871(3)
C36 C 0.368(5) 0.889(5) 0.824(6)
C37 C 0.253(3) 0.783(4) 1.079(4)
C38 C 0.262(3) 0.777(4) 1.162(4)
O13 O 0.280(2) 0.720(3) 1.178(3)
C39 C 0.266(3) 0.686(4) 1.251(4)
C40 C 0.248(3) 0.819(4) 1.230(5)
C41 C 0.227(3) 0.863(4) 1.195(4)
O14 O 0.216(3) 0.906(3) 1.275(4)
C42 C 0.208(4) 0.969(4) 1.256(5)
C43 C 0.224(4) 0.887(4) 1.115(5)
C44 C 0.234(3) 0.834(4) 1.062(4)
O15 O 0.237(2) 0.859(3) 0.983(3)
C45 C 0.213(5) 0.906(5) 0.971(6)
C46 C 0.368(3) 0.766(4) 1.009(4)
C47 C 0.398(4) 0.720(5) 0.991(5)
O16 O 0.356(2) 0.652(3) 0.956(3)
C48 C 0.379(6) 0.589(7) 0.960(8)
C49 C 0.470(4) 0.743(4) 0.997(5)
C50 C 0.504(4) 0.813(4) 1.017(5)
O17 O 0.578(2) 0.840(3) 1.037(3)
C51 C 0.614(4) 0.909(5) 1.082(6)
C52 C 0.479(5) 0.869(5) 1.042(6)
C53 C 0.407(4) 0.841(5) 1.041(5)
O18 O 0.382(3) 0.889(3) 1.045(3)
C54 C 0.416(4) 0.948(5) 1.104(6)
H1 H 0.21220 0.49080 0.79960
H2 H 0.17390 0.53790 0.82120
H3 H 0.25170 0.57260 0.83920
H4 H 0.11430 0.41050 0.78190
H5 H -0.02310 0.18060 0.79810
H6 H -0.07680 0.21080 0.79350
H7 H -0.05840 0.17970 0.71740
H8 H -0.02200 0.25150 0.92190
H9 H -0.06670 0.23410 1.06380
H10 H -0.00880 0.21080 1.07550
H11 H -0.04200 0.22650 1.14680
H12 H 0.03950 0.60710 1.14920
H13 H 0.11400 0.65880 1.18530
H14 H 0.09320 0.65670 1.09410
H15 H 0.05160 0.56240 1.25600
H16 H -0.01090 0.36750 1.41600
H17 H 0.05220 0.43660 1.46090
H18 H -0.01630 0.41050 1.48930
H19 H 0.07410 0.37910 1.34310
H20 H 0.14810 0.33850 1.32710
H21 H 0.07930 0.28480 1.27750
H22 H 0.14370 0.27520 1.26420
H23 H 0.40160 0.61560 1.21920
H24 H 0.41540 0.62460 1.12830
H25 H 0.40190 0.68070 1.17990
H26 H 0.40410 0.50700 1.16490
H27 H 0.34550 0.27120 1.15950
H28 H 0.34810 0.27260 1.06570
H29 H 0.40870 0.27760 1.11900
H30 H 0.25330 0.27890 1.08310
H31 H 0.15980 0.22480 1.00930
H32 H 0.14520 0.22250 1.10050
H33 H 0.09060 0.18590 1.03450
H34 H 0.04040 0.58000 0.90230
H35 H 0.07860 0.53390 0.87600
H36 H 0.04930 0.52760 0.95880
H37 H 0.08290 0.63060 0.79650
H38 H 0.16290 0.83820 0.69320
H39 H 0.19560 0.79840 0.63910
H40 H 0.13120 0.80180 0.60700
H41 H 0.26280 0.82880 0.74620
H42 H 0.36960 0.87160 0.76270
H43 H 0.34660 0.92190 0.81650
H44 H 0.41800 0.92770 0.83310
H45 H 0.29070 0.72880 1.29930
H46 H 0.21820 0.66960 1.26320
H47 H 0.27690 0.64850 1.26910
H48 H 0.25870 0.82360 1.29020
H49 H 0.25060 1.00550 1.23200
H50 H 0.17180 0.95820 1.21800
H51 H 0.20580 0.99860 1.30390
H52 H 0.21460 0.93360 1.08660
H53 H 0.17080 0.89650 0.98990
H54 H 0.24600 0.95740 1.01070
H55 H 0.21610 0.93150 0.92190
H56 H 0.41760 0.60700 0.91890
H57 H 0.38870 0.58220 1.00160
H58 H 0.34760 0.54030 0.92120
H59 H 0.49270 0.71200 0.98580
H60 H 0.61000 0.94680 1.04750
H61 H 0.59350 0.91190 1.12950
H62 H 0.66180 0.92850 1.09410
H63 H 0.51060 0.92140 1.05860
H64 H 0.41870 0.93730 1.16380
H65 H 0.46680 0.98150 1.10000
H66 H 0.40360 0.99270 1.11730
Ag7 Ag 0.3579(3) 0.5992(4) 0.5515(4)
P3 P 0.306(1) 0.475(1) 0.588(1)
C55 C 0.208(3) 0.442(4) 0.592(4)
C56 C 0.197(4) 0.500(4) 0.626(5)
O19 O 0.239(2) 0.567(3) 0.645(3)
C57 C 0.223(5) 0.630(6) 0.652(6)
C58 C 0.123(5) 0.482(6) 0.646(6)
C59 C 0.083(4) 0.411(4) 0.610(5)
O20 O 0.007(3) 0.387(3) 0.620(3)
C60 C -0.039(3) 0.314(4) 0.603(4)
C61 C 0.090(3) 0.339(4) 0.578(4)
C62 C 0.160(3) 0.365(4) 0.578(4)
O21 O 0.181(3) 0.312(3) 0.554(3)
C63 C 0.136(5) 0.241(6) 0.516(7)
C64 C 0.313(3) 0.407(4) 0.509(4)
C65 C 0.307(3) 0.421(3) 0.434(4)
O22 O 0.305(2) 0.489(3) 0.415(3)
C66 C 0.308(4) 0.511(5) 0.347(5)
C67 C 0.311(4) 0.387(4) 0.363(5)
C68 C 0.316(3) 0.323(4) 0.384(4)
O23 O 0.320(2) 0.273(3) 0.314(3)
C69 C 0.321(5) 0.203(6) 0.315(7)
C70 C 0.318(4) 0.288(4) 0.456(5)
C71 C 0.314(3) 0.342(4) 0.526(4)
O24 O 0.320(2) 0.326(3) 0.601(3)
C72 C 0.297(4) 0.249(5) 0.617(5)
C73 C 0.341(3) 0.465(4) 0.681(4)
C74 C 0.413(3) 0.509(4) 0.708(4)
O25 O 0.442(3) 0.550(3) 0.648(3)
C75 C 0.510(4) 0.613(5) 0.663(5)
C76 C 0.448(3) 0.512(4) 0.777(4)
C77 C 0.421(4) 0.457(4) 0.819(5)
O26 O 0.446(3) 0.462(3) 0.894(3)
C78 C 0.424(6) 0.416(6) 0.962(7)
C79 C 0.346(3) 0.421(4) 0.815(5)
C80 C 0.311(4) 0.424(5) 0.736(5)
O27 O 0.241(2) 0.369(3) 0.729(3)
C81 C 0.210(3) 0.307(4) 0.781(4)
P4 P 0.412(1) 0.723(1) 0.515(1)
C82 C 0.349(4) 0.757(4) 0.494(5)
C83 C 0.281(5) 0.709(6) 0.457(7)
O28 O 0.271(2) 0.642(3) 0.453(3)
C84 C 0.208(3) 0.578(4) 0.430(4)
C85 C 0.229(4) 0.727(5) 0.463(5)
C86 C 0.249(5) 0.805(5) 0.471(6)
O29 O 0.197(3) 0.825(4) 0.452(4)
C87 C 0.222(6) 0.911(7) 0.455(8)
C88 C 0.309(4) 0.854(5) 0.507(5)
C89 C 0.359(5) 0.831(6) 0.518(7)
O30 O 0.425(3) 0.886(3) 0.553(4)
C90 C 0.443(5) 0.960(6) 0.596(7)
C91 C 0.454(4) 0.744(4) 0.421(5)
C92 C 0.482(4) 0.696(4) 0.413(5)
O31 O 0.475(3) 0.635(3) 0.453(3)
C93 C 0.485(6) 0.571(7) 0.449(7)
C94 C 0.513(5) 0.688(6) 0.337(5)
C95 C 0.519(4) 0.750(6) 0.275(3)
O32 O 0.558(7) 0.769(9) 0.194(7)
C96 C 0.591(6) 0.732(8) 0.201(8)
C97 C 0.497(5) 0.789(6) 0.289(4)
C98 C 0.467(5) 0.786(6) 0.354(7)
O33 O 0.432(3) 0.827(4) 0.375(4)
C99 C 0.428(6) 0.877(7) 0.318(8)
C100 C 0.476(3) 0.786(4) 0.590(4)
C101 C 0.468(4) 0.778(5) 0.672(5)
O34 O 0.403(3) 0.721(3) 0.687(3)
C102 C 0.394(4) 0.692(5) 0.761(5)
C103 C 0.509(4) 0.812(4) 0.748(5)
C104 C 0.576(3) 0.879(4) 0.722(4)
O35 O 0.626(3) 0.919(3) 0.789(3)
C105 C 0.618(4) 0.888(4) 0.863(5)
C106 C 0.584(4) 0.899(4) 0.646(5)
C107 C 0.547(4) 0.848(4) 0.588(5)
O36 O 0.551(3) 0.869(3) 0.505(3)
C108 C 0.620(4) 0.906(5) 0.484(5)
H67 H 0.19650 0.62940 0.60530
H68 H 0.18660 0.61540 0.69610
H69 H 0.25100 0.68010 0.67260
H70 H 0.11190 0.51690 0.67040
H71 H -0.03550 0.29220 0.55020
H72 H -0.03020 0.28560 0.64320
H73 H -0.08950 0.29390 0.60330
H74 H 0.05390 0.29100 0.54830
H75 H 0.09980 0.21550 0.55200
H76 H 0.10800 0.24590 0.46730
H77 H 0.14340 0.20000 0.49200
H78 H 0.34820 0.51670 0.31800
H79 H 0.26910 0.47300 0.30500
H80 H 0.30520 0.55760 0.32080
H81 H 0.31200 0.40390 0.30690
H82 H 0.35000 0.20560 0.35700
H83 H 0.27160 0.17010 0.33680
H84 H 0.31760 0.16680 0.27340
H85 H 0.31970 0.23860 0.46690
H86 H 0.24880 0.21740 0.59880
H87 H 0.32080 0.22470 0.58540
H88 H 0.29970 0.23090 0.67160
H89 H 0.51280 0.64940 0.70880
H90 H 0.54240 0.59430 0.68370
H91 H 0.53720 0.64630 0.62420
H92 H 0.49680 0.55400 0.78750
H93 H 0.38470 0.41700 0.97810
H94 H 0.41560 0.36630 0.94200
H95 H 0.44580 0.41670 1.01930
H96 H 0.31780 0.38700 0.86250
H97 H 0.23320 0.27720 0.77910
H98 H 0.21840 0.33080 0.83920
H99 H 0.16190 0.27090 0.78000
H100 H 0.17840 0.57700 0.47360
H101 H 0.18600 0.58430 0.38110
H102 H 0.19550 0.52420 0.42080
H103 H 0.18690 0.68460 0.43330
H104 H 0.24450 0.93770 0.51720
H105 H 0.26520 0.94120 0.42820
H106 H 0.19250 0.93080 0.44570
H107 H 0.32310 0.90860 0.50670
H108 H 0.41750 0.98510 0.59800
H109 H 0.43240 0.94360 0.66590
H110 H 0.48940 1.00550 0.62940
H111 H 0.46990 0.54130 0.39480
H112 H 0.53930 0.59030 0.44560
H113 H 0.48640 0.52270 0.47400
H114 H 0.52850 0.64960 0.32420
H115 H 0.61100 0.74090 0.25580
H116 H 0.54820 0.67640 0.20470
H117 H 0.60830 0.73480 0.15920
H118 H 0.47560 0.81810 0.24430
H119 H 0.47190 0.91670 0.29800
H120 H 0.40570 0.85090 0.25430
H121 H 0.40130 0.90930 0.31820
H122 H 0.42850 0.67960 0.78000
H123 H 0.40010 0.73620 0.80270
H124 H 0.35120 0.65300 0.77570
H125 H 0.49260 0.79280 0.80110
H126 H 0.57230 0.87620 0.88390
H127 H 0.61510 0.83590 0.85580
H128 H 0.64790 0.90930 0.91270
H129 H 0.61900 0.95470 0.63280
H130 H 0.64980 0.95100 0.52230
H131 H 0.64220 0.87190 0.49180
H132 H 0.62740 0.91920 0.43150
I4A I 0.0310(3) 0.9375(4) 1.0765(4)
I6A I -0.0469(3) 1.0865(5) 0.4940(5)
Ag1A Ag -0.0792(4) 0.9792(6) 1.0591(6)
Ag3A Ag 0.0189(4) 1.0094(6) 0.4051(6)
#END
