
#######################################################################
#
#                 Cambridge Crystallographic Data Centre
#                                CCDC
#
#######################################################################
#
# If this CIF has been generated from an entry in the Cambridge
# Structural Database, then it will include bibliographic, chemical,
# crystal, experimental, refinement or atomic coordinate data resulting
# from the CCDC's data processing and validation procedures.
#
#######################################################################

data_CSD_CIF_KUXJUJ
_audit_creation_date 2010-09-23
_audit_creation_method CSD-ConQuest-V1
_database_code_CSD KUXJUJ
_database_code_depnum_ccdc_archive 'CCDC 630630'
_chemical_formula_sum 'C66 H97 Cu11 N44 O128 P4 W36'
_chemical_formula_moiety
;
(C60 H80 Cu10 N40 O124 P4 W36 2-)n,3n(H2 O1),n(C6 H8 Cu1 N4 1+),n(H3 O1 1+)
;
_journal_coden_Cambridge 923
_journal_volume 39
_journal_year 2009
_journal_page_first 236
_journal_name_full 'Synth.React.Inorg.,Met.-Org.,Nano-Met.Chem. '
loop_
_publ_author_name
"Hong-Bo Liu"
"Yu Sun"
"Ya-Guang Chen"
_chemical_name_systematic
;
catena-(tetrakis(\m~9~-phosphato)-bis(\m~3~-oxo)-octacontakis(\m~2~-oxo)-hexac
osaoxo-icosakis(imidazole)-deca-copper(i)-hexatriaconta-tungsten 
bis(imidazole)-copper(i) oxonium trihydrate)
;
_cell_volume   4657.914
_exptl_crystal_colour 'dark blue'
_exptl_crystal_description 'block'
_diffrn_ambient_temperature 293
#These two values have been output from a single CSD field.
_refine_ls_R_factor_gt 0.0779
_refine_ls_wR_factor_gt 0.0779
_symmetry_cell_setting triclinic
_symmetry_space_group_name_H-M 'P -1'
_symmetry_Int_Tables_number 2
loop_
_symmetry_equiv_pos_site_id
_symmetry_equiv_pos_as_xyz
1 x,y,z
2 -x,-y,-z
_cell_length_a 13.384(3)
_cell_length_b 15.191(3)
_cell_length_c 25.220(5)
_cell_angle_alpha 104.16(3)
_cell_angle_beta 90.08(3)
_cell_angle_gamma 109.80(3)
_cell_formula_units_Z 1
loop_
_atom_type_symbol
_atom_type_radius_bond
C 0.68
H 0.23
Cu 1.61
N 0.68
O 0.70
P 1.05
W 1.36
loop_
_atom_site_label
_atom_site_type_symbol
_atom_site_fract_x
_atom_site_fract_y
_atom_site_fract_z
W1 W 0.48211(7) 0.98388(8) 0.22899(3)
W2 W 0.54169(7) 0.76000(8) 0.17902(3)
W3 W 0.52349(7) 0.72390(8) 0.32118(3)
W4 W 0.34286(7) 0.54673(8) 0.13214(3)
W5 W 0.46540(7) 0.94891(8) 0.37187(3)
W6 W 0.44540(7) 0.86457(8) 0.07949(3)
W7 W 0.04799(7) 0.50318(8) 0.27020(3)
W8 W 0.14156(7) 0.75556(8) 0.44853(3)
W9 W 0.06411(7) 0.53738(8) 0.12700(3)
W10 W 0.22765(7) 0.97481(8) 0.22564(4)
W11 W 0.00942(7) 0.74091(8) 0.17111(3)
W12 W 0.24548(7) 0.64850(8) 0.03149(3)
W13 W 0.39928(7) 0.76614(8) 0.45193(3)
W14 W 0.21133(7) 0.93939(8) 0.36863(3)
W15 W 0.32599(7) 0.50992(8) 0.27431(4)
W16 W 0.19009(7) 0.85523(8) 0.07609(3)
W17 W -0.00714(7) 0.70667(8) 0.31376(3)
W18 W 0.19876(7) 0.55085(8) 0.40412(3)
P1 P 0.2805(4) 0.7583(5) 0.17301(19)
P2 P 0.2619(4) 0.7221(5) 0.32391(19)
Cu1 Cu 0.7439(3) 1.2550(3) 0.25030(12)
Cu2 Cu 0.0249(4) 0.9146(4) 0.58905(18)
Cu3 Cu 0.4304(3) 1.2406(4) 0.23936(14)
Cu4 Cu -0.0030(4) 1.0841(4) 0.21451(18)
Cu5 Cu -0.2994(3) 0.5816(4) 0.32532(14)
O1 O 0.3406(10) 0.6762(11) 0.2966(5)
O2 O 0.3605(11) 1.0043(12) 0.3931(5)
O3 O -0.1253(13) 0.7239(17) 0.3295(7)
O4 O -0.0353(13) 0.3859(15) 0.2583(7)
O5 O 0.3299(14) 0.3949(15) 0.2607(6)
O6 O 0.3539(10) 0.7042(12) 0.1784(5)
O7 O -0.0502(12) 0.5718(14) 0.2974(6)
O8 O 0.1940(11) 0.5163(14) 0.1382(6)
O9 O 0.3766(11) 0.7459(14) 0.0247(6)
O10 O 0.3808(12) 1.0463(13) 0.2303(6)
O11 O 0.0918(12) 0.5145(14) 0.3454(6)
O12 O 0.3262(11) 0.6340(12) 0.4519(6)
O13 O 0.5792(12) 1.0441(13) 0.4049(6)
O14 O 0.4334(12) 0.8826(14) 0.4276(6)
O15 O 0.6547(12) 0.7458(14) 0.3395(6)
O16 O 0.3503(12) 0.4429(14) 0.0963(6)
O17 O 0.6720(11) 0.7841(14) 0.1746(7)
O18 O 0.1244(10) 0.6269(13) 0.4494(6)
O19 O 0.4701(11) 0.5833(13) 0.3019(6)
O20 O 0.2865(10) 0.7746(12) 0.1135(5)
O21 O -0.0159(12) 0.4267(13) 0.0893(6)
O22 O 0.0866(11) 0.8360(13) 0.3291(6)
O23 O 0.5983(11) 1.0831(13) 0.2390(6)
O24 O 0.2857(12) 0.5241(14) 0.3484(7)
O25 O 0.2811(12) 0.7963(14) 0.4880(6)
O26 O 0.0403(12) 0.7091(14) 0.3885(6)
O27 O 0.1796(10) 0.4874(12) 0.2532(5)
O28 O 0.5447(11) 0.9237(14) 0.0459(5)
O29 O 0.3359(12) 0.9065(15) 0.0583(6)
O30 O 0.1800(11) 1.0706(13) 0.2326(6)
O31 O 0.1603(13) 0.4490(15) 0.4289(6)
O32 O -0.0286(12) 0.6075(15) 0.1306(6)
O33 O 0.2257(12) 0.9424(13) 0.1464(6)
O34 O 0.5347(10) 0.8808(11) 0.2183(5)
O35 O 0.1766(11) 0.7358(13) 0.0206(5)
O36 O 0.5195(12) 0.8515(13) 0.3389(6)
O37 O 0.1497(11) 0.6710(13) 0.2930(5)
O38 O 0.4695(11) 0.7266(12) 0.3930(5)
O39 O 0.1255(12) 0.5870(14) 0.0656(6)
O40 O 0.3581(11) 0.5329(12) 0.2044(6)
O41 O 0.313(1) 0.8606(12) 0.2144(5)
O42 O 0.1914(11) 0.8735(12) 0.4253(5)
O43 O 0.4629(12) 0.9522(15) 0.1499(6)
O44 O 0.5082(10) 0.7951(13) 0.1147(6)
O45 O 0.3189(11) 0.5941(12) 0.0700(6)
O46 O 0.5325(11) 0.7253(13) 0.2457(6)
O47 O 0.236(1) 0.9709(11) 0.2996(5)
O48 O 0.0722(11) 0.7801(13) 0.1078(5)
O49 O 0.4642(11) 0.9822(13) 0.3023(6)
O50 O -0.0110(11) 0.7067(13) 0.2389(6)
O51 O 0.0379(11) 0.5188(11) 0.1975(5)
O52 O 0.4890(12) 0.6297(13) 0.1390(5)
O53 O 0.1291(12) 0.9049(14) 0.0408(6)
O54 O -0.1074(12) 0.7611(14) 0.1622(6)
O55 O 0.2233(14) 0.5723(16) -0.0340(6)
O56 O 0.1589(13) 1.0262(14) 0.3989(6)
O57 O 0.2996(11) 0.8300(13) 0.3305(6)
O58 O 0.4917(13) 0.8055(14) 0.5075(6)
O59 O 0.2539(12) 0.7102(14) 0.3846(6)
O60 O 0.0727(12) 0.7858(14) 0.5030(6)
O61 O 0.1003(11) 0.8642(13) 0.2140(5)
O62 O 0.1614(11) 0.6973(12) 0.1761(5)
C1 C -0.303(4) 0.600(5) 0.2153(19)
H1 H -0.30790 0.66110 0.22840
C2 C -0.217(3) 0.606(3) 0.4358(15)
H2 H -0.14890 0.61280 0.42460
C3 C -0.291(3) 0.574(3) 0.1682(14)
H3 H -0.27690 0.60890 0.14200
C4 C 0.170(3) 1.145(4) 0.5261(14)
H4 H 0.16350 1.18980 0.50810
C5 C -0.009(4) 0.753(5) 0.647(2)
H5 H 0.05100 0.73690 0.63680
C6 C 0.215(3) 1.021(3) 0.5482(13)
H6 H 0.24800 0.97670 0.54990
C7 C 0.805(3) 1.289(3) 0.1451(14)
H7 H 0.86070 1.34540 0.16240
C8 C 0.512(3) 1.358(4) 0.3478(17)
H8 H 0.54560 1.41390 0.33680
C9 C 0.412(2) 1.137(3) 0.1231(11)
H9 H 0.40690 1.07880 0.13030
C10 C 0.679(2) 1.160(3) 0.1322(11)
H10 H 0.62460 1.10590 0.13650
C11 C 0.089(3) 1.093(4) 0.5518(15)
H11 H 0.02710 1.10540 0.56170
C12 C 0.819(2) 1.358(3) 0.3630(11)
H12 H 0.85900 1.41700 0.35640
C13 C 0.4688(17) 1.2393(19) 0.3965(9)
H13 H 0.46950 1.20730 0.42350
C14 C -0.193(2) 1.010(3) 0.2688(11)
H14 H -0.22570 1.05030 0.26020
C15 C 0.7394(17) 1.2494(19) 0.4075(8)
H15 H 0.71020 1.21790 0.43420
C16 C 0.7847(17) 1.258(2) 0.0934(8)
H16 H 0.81880 1.28720 0.06680
C17 C 0.431(2) 1.203(3) 0.3456(10)
H17 H 0.39360 1.13740 0.33060
C18 C -0.157(4) 0.740(5) 0.680(2)
H18 H -0.21420 0.71640 0.69960
C19 C -0.149(4) 0.800(5) 0.6432(19)
H19 H -0.20080 0.82280 0.63360
C20 C -0.085(3) 0.945(3) 0.2771(13)
H20 H -0.02320 0.93050 0.27650
C21 C 0.713(2) 1.217(3) 0.3546(11)
H21 H 0.66710 1.15470 0.33800
C22 C -0.164(2) 0.903(2) 0.3031(10)
H22 H -0.16960 0.85440 0.32040
C23 C 0.411(3) 1.155(3) 0.0714(14)
H23 H 0.40340 1.11260 0.03700
C24 C 0.435(3) 1.295(4) 0.1405(16)
H24 H 0.45000 1.35970 0.15980
C25 C -0.364(3) 0.610(3) 0.4385(14)
H25 H -0.42640 0.61990 0.43010
C26 C -0.334(3) 0.606(4) 0.4872(17)
H26 H -0.37330 0.60360 0.51750
C27 C -0.302(4) 0.465(6) 0.218(2)
H27 H -0.29800 0.41290 0.23000
N1 N 0.265(2) 1.124(3) 0.5298(11)
N2 N -0.290(2) 0.599(2) 0.4012(10)
N3 N 0.7552(18) 1.281(2) 0.3276(9)
N4 N -0.232(3) 0.604(3) 0.4840(13)
N5 N -0.067(3) 0.727(3) 0.6785(14)
N6 N 0.813(2) 1.332(3) 0.4157(11)
N7 N -0.052(2) 0.817(3) 0.6253(12)
N8 N 0.118(2) 1.019(3) 0.5597(12)
N9 N 0.451(2) 1.266(3) 0.3176(11)
N10 N 0.707(3) 1.179(3) 0.0863(13)
N11 N -0.0945(17) 1.0019(19) 0.2541(8)
N12 N 0.7400(16) 1.2311(18) 0.1717(7)
N13 N -0.3091(17) 0.546(2) 0.2492(9)
N14 N 0.4229(19) 1.226(2) 0.1629(9)
N15 N -0.229(2) 0.943(3) 0.2994(11)
N16 N 0.424(2) 1.263(3) 0.0861(11)
N17 N 0.509(3) 1.341(3) 0.4008(13)
N18 N -0.302(3) 0.474(4) 0.1616(17)
C28 C 0.170(6) 1.183(7) 0.149(2)
H28 H 0.21870 1.15170 0.15140
N19 N 0.061(2) 1.164(2) 0.1677(10)
C29 C 0.034(9) 1.234(9) 0.152(3)
H29 H -0.03220 1.23900 0.15900
C30 C 0.098(15) 1.295(16) 0.127(5)
H30 H 0.09200 1.34450 0.11350
N20 N 0.178(7) 1.257(8) 0.128(3)
Cu6 Cu 1.00000 1.00000 0.00000
C31 C 0.828(2) 0.895(2) 0.1126(11)
H31 H 0.81340 0.85630 0.13720
C32 C 0.911(4) 0.916(5) 0.086(2)
H32 H 0.96920 0.89740 0.09130
C33 C 0.807(3) 0.970(3) 0.0529(15)
H33 H 0.77440 0.99190 0.02870
N21 N 0.908(3) 0.960(3) 0.0529(15)
N22 N 0.768(2) 0.938(3) 0.0982(12)
O63 O -0.088(3) 0.643(3) 0.0084(13)
O64 O 0.546(3) 0.644(4) 1.0097(16)
W1* W -0.51789(7) 0.98388(8) 0.22899(3)
W2* W -0.45831(7) 0.76000(8) 0.17902(3)
W3* W -0.47651(7) 0.72390(8) 0.32118(3)
W4* W -0.65714(7) 0.54673(8) 0.13214(3)
W5* W -0.53460(7) 0.94891(8) 0.37187(3)
W6* W -0.55460(7) 0.86457(8) 0.07949(3)
W7* W -0.95201(7) 0.50318(8) 0.27020(3)
W8* W -0.85844(7) 0.75556(8) 0.44853(3)
W9* W -0.93589(7) 0.53738(8) 0.12700(3)
W10* W -0.77235(7) 0.97481(8) 0.22564(4)
W11* W -0.99058(7) 0.74091(8) 0.17111(3)
W12* W -0.75452(7) 0.64850(8) 0.03149(3)
W13* W -0.60072(7) 0.76614(8) 0.45193(3)
W14* W -0.78867(7) 0.93939(8) 0.36863(3)
W15* W -0.67401(7) 0.50992(8) 0.27431(4)
W16* W -0.80991(7) 0.85523(8) 0.07609(3)
W17* W -1.00714(7) 0.70667(8) 0.31376(3)
W18* W -0.80124(7) 0.55085(8) 0.40412(3)
P1* P -0.7195(4) 0.7583(5) 0.17301(19)
P2* P -0.7381(4) 0.7221(5) 0.32391(19)
Cu1* Cu -0.2561(3) 1.2550(3) 0.25030(12)
Cu2* Cu -0.9751(4) 0.9146(4) 0.58905(18)
Cu3* Cu -0.5696(3) 1.2406(4) 0.23936(14)
Cu4* Cu -1.0030(4) 1.0841(4) 0.21451(18)
Cu5* Cu 0.7006(3) 0.5816(4) 0.32532(14)
Cu5** Cu -1.2994(3) 0.5816(4) 0.32532(14)
O1* O -0.6594(10) 0.6762(11) 0.2966(5)
O2* O -0.6395(11) 1.0043(12) 0.3931(5)
O3* O -1.1253(13) 0.7239(17) 0.3295(7)
O3** O 0.8747(13) 0.7239(17) 0.3295(7)
O4* O -1.0353(13) 0.3859(15) 0.2583(7)
O5* O -0.6701(14) 0.3949(15) 0.2607(6)
O6* O -0.6461(10) 0.7042(12) 0.1784(5)
O7* O -1.0502(12) 0.5718(14) 0.2974(6)
O8* O -0.8060(11) 0.5163(14) 0.1382(6)
O9* O -0.6234(11) 0.7459(14) 0.0247(6)
O10* O -0.6192(12) 1.0463(13) 0.2303(6)
O11* O -0.9082(12) 0.5145(14) 0.3454(6)
O12* O -0.6738(11) 0.6340(12) 0.4519(6)
O13* O -0.4208(12) 1.0441(13) 0.4049(6)
O14* O -0.5666(12) 0.8826(14) 0.4276(6)
O15* O -0.3453(12) 0.7458(14) 0.3395(6)
O16* O -0.6497(12) 0.4429(14) 0.0963(6)
O17* O -0.3280(11) 0.7841(14) 0.1746(7)
O18* O -0.8756(10) 0.6269(13) 0.4494(6)
O19* O -0.5299(11) 0.5833(13) 0.3019(6)
O20* O -0.7135(10) 0.7746(12) 0.1135(5)
O21* O -1.0159(12) 0.4267(13) 0.0893(6)
O22* O -0.9134(11) 0.8360(13) 0.3291(6)
O23* O -0.4017(11) 1.0831(13) 0.2390(6)
O24* O -0.7143(12) 0.5241(14) 0.3484(7)
O25* O -0.7189(12) 0.7963(14) 0.4880(6)
O26* O -0.9597(12) 0.7091(14) 0.3885(6)
O27* O -0.8204(10) 0.4874(12) 0.2532(5)
O28* O -0.4553(11) 0.9237(14) 0.0459(5)
O29* O -0.6641(12) 0.9065(15) 0.0583(6)
O30* O -0.8200(11) 1.0706(13) 0.2326(6)
O31* O -0.8397(13) 0.4490(15) 0.4289(6)
O32* O -1.0286(12) 0.6075(15) 0.1306(6)
O33* O -0.7743(12) 0.9424(13) 0.1464(6)
O34* O -0.4653(10) 0.8808(11) 0.2183(5)
O35* O -0.8234(11) 0.7358(13) 0.0206(5)
O36* O -0.4805(12) 0.8515(13) 0.3389(6)
O37* O -0.8503(11) 0.6710(13) 0.2930(5)
O38* O -0.5305(11) 0.7266(12) 0.3930(5)
O39* O -0.8745(12) 0.5870(14) 0.0656(6)
O40* O -0.6419(11) 0.5329(12) 0.2044(6)
O41* O -0.687(1) 0.8606(12) 0.2144(5)
O42* O -0.8086(11) 0.8735(12) 0.4253(5)
O43* O -0.5371(12) 0.9522(15) 0.1499(6)
O44* O -0.4918(10) 0.7951(13) 0.1147(6)
O45* O -0.6811(11) 0.5941(12) 0.0700(6)
O46* O -0.4675(11) 0.7253(13) 0.2457(6)
O47* O -0.764(1) 0.9709(11) 0.2996(5)
O48* O -0.9278(11) 0.7801(13) 0.1078(5)
O49* O -0.5358(11) 0.9822(13) 0.3023(6)
O50* O -1.0110(11) 0.7067(13) 0.2389(6)
O51* O -0.9621(11) 0.5188(11) 0.1975(5)
O52* O -0.5110(12) 0.6297(13) 0.1390(5)
O53* O -0.8709(12) 0.9049(14) 0.0408(6)
O54* O -1.1074(12) 0.7611(14) 0.1622(6)
O55* O -0.7767(14) 0.5723(16) -0.0340(6)
O56* O -0.8411(13) 1.0262(14) 0.3989(6)
O57* O -0.7004(11) 0.8300(13) 0.3305(6)
O58* O -0.5083(13) 0.8055(14) 0.5075(6)
O59* O -0.7461(12) 0.7102(14) 0.3846(6)
O60* O -0.9273(12) 0.7858(14) 0.5030(6)
O61* O -0.8997(11) 0.8642(13) 0.2140(5)
O62* O -0.8386(11) 0.6973(12) 0.1761(5)
C1* C 0.697(4) 0.600(5) 0.2153(19)
H1* H 0.69210 0.66110 0.22840
C2* C 0.783(3) 0.606(3) 0.4358(15)
H2* H 0.85110 0.61280 0.42460
C3* C 0.709(3) 0.574(3) 0.1682(14)
H3* H 0.72310 0.60890 0.14200
C4* C -0.830(3) 1.145(4) 0.5261(14)
H4* H -0.83650 1.18980 0.50810
C5* C -1.009(4) 0.753(5) 0.647(2)
H5* H -0.94900 0.73690 0.63680
C6* C -0.785(3) 1.021(3) 0.5482(13)
H6* H -0.75200 0.97670 0.54990
C7* C -0.195(3) 1.289(3) 0.1451(14)
H7* H -0.13930 1.34540 0.16240
C8* C -0.488(3) 1.358(4) 0.3478(17)
H8* H -0.45440 1.41390 0.33680
C9* C -0.588(2) 1.137(3) 0.1231(11)
H9* H -0.59310 1.07880 0.13030
C10* C -0.321(2) 1.160(3) 0.1322(11)
H10* H -0.37540 1.10590 0.13650
C11* C -0.911(3) 1.093(4) 0.5518(15)
H11* H -0.97290 1.10540 0.56170
C12* C -0.181(2) 1.358(3) 0.3630(11)
H12* H -0.14100 1.41700 0.35640
C13* C -0.5312(17) 1.2393(19) 0.3965(9)
H13* H -0.53050 1.20730 0.42350
C14* C -1.193(2) 1.010(3) 0.2688(11)
H14* H -1.22570 1.05030 0.26020
C15* C -0.2606(17) 1.2494(19) 0.4075(8)
H15* H -0.28980 1.21790 0.43420
C16* C -0.2153(17) 1.258(2) 0.0934(8)
H16* H -0.18120 1.28720 0.06680
C17* C -0.569(2) 1.203(3) 0.3456(10)
H17* H -0.60640 1.13740 0.33060
C18* C -1.157(4) 0.740(5) 0.680(2)
H18* H -1.21420 0.71640 0.69960
C19* C -1.149(4) 0.800(5) 0.6432(19)
H19* H -1.20080 0.82280 0.63360
C20* C -1.085(3) 0.945(3) 0.2771(13)
H20* H -1.02320 0.93050 0.27650
C21* C -0.287(2) 1.217(3) 0.3546(11)
H21* H -0.33290 1.15470 0.33800
C22* C -1.164(2) 0.903(2) 0.3031(10)
H22* H -1.16960 0.85440 0.32040
C23* C -0.589(3) 1.155(3) 0.0714(14)
H23* H -0.59660 1.11260 0.03700
C24* C -0.565(3) 1.295(4) 0.1405(16)
H24* H -0.55000 1.35970 0.15980
C25* C 0.636(3) 0.610(3) 0.4385(14)
H25* H 0.57360 0.61990 0.43010
C26* C 0.666(3) 0.606(4) 0.4872(17)
H26* H 0.62670 0.60360 0.51750
C27* C 0.698(4) 0.465(6) 0.218(2)
H27* H 0.70200 0.41290 0.23000
N1* N -0.735(2) 1.124(3) 0.5298(11)
N2* N 0.710(2) 0.599(2) 0.4012(10)
N3* N -0.2448(18) 1.281(2) 0.3276(9)
N4* N 0.768(3) 0.604(3) 0.4840(13)
N5* N -1.067(3) 0.727(3) 0.6785(14)
N6* N -0.187(2) 1.332(3) 0.4157(11)
N7* N -1.052(2) 0.817(3) 0.6253(12)
N8* N -0.882(2) 1.019(3) 0.5597(12)
N9* N -0.549(2) 1.266(3) 0.3176(11)
N10* N -0.293(3) 1.179(3) 0.0863(13)
N11* N -1.0945(17) 1.0019(19) 0.2541(8)
N12* N -0.2600(16) 1.2311(18) 0.1717(7)
N13* N 0.6909(17) 0.546(2) 0.2492(9)
N14* N -0.5771(19) 1.226(2) 0.1629(9)
N15* N -1.229(2) 0.943(3) 0.2994(11)
N16* N -0.576(2) 1.263(3) 0.0861(11)
N17* N -0.491(3) 1.341(3) 0.4008(13)
N18* N 0.698(3) 0.474(4) 0.1616(17)
C28* C -0.830(6) 1.183(7) 0.149(2)
H28* H -0.78130 1.15170 0.15140
N19* N -0.939(2) 1.164(2) 0.1677(10)
C29* C -0.966(9) 1.234(9) 0.152(3)
H29* H -1.03220 1.23900 0.15900
C30* C -0.902(15) 1.295(16) 0.127(5)
H30* H -0.90800 1.34450 0.11350
N20* N -0.822(7) 1.257(8) 0.128(3)
C31A C 1.172(2) 1.105(2) -0.1126(11)
H31A H 1.18660 1.14370 -0.13720
C32A C 1.089(4) 1.084(5) -0.086(2)
H32A H 1.03080 1.10260 -0.09130
C33A C 1.193(3) 1.030(3) -0.0529(15)
H33A H 1.22560 1.00810 -0.02870
N21A N 1.092(3) 1.040(3) -0.0529(15)
N22A N 1.232(2) 1.062(3) -0.0982(12)
#END
