
#######################################################################
#
#                 Cambridge Crystallographic Data Centre
#                                CCDC
#
#######################################################################
#
# If this CIF has been generated from an entry in the Cambridge
# Structural Database, then it will include bibliographic, chemical,
# crystal, experimental, refinement or atomic coordinate data resulting
# from the CCDC's data processing and validation procedures.
#
#######################################################################

data_CSD_CIF_KUXYUY
_audit_creation_date 2010-10-03
_audit_creation_method CSD-ConQuest-V1
_database_code_CSD KUXYUY
_database_code_depnum_ccdc_archive 'CCDC 767682'
_chemical_formula_sum 'C28 H33 N2 Na1 O16 S3'
_chemical_formula_moiety
;
(C16 H13 Na1 O13 S3 2-)n,n(C12 H14 N2 2+),3n(H2 O1)
;
_journal_coden_Cambridge 179
_journal_volume 48
_journal_year 2009
_journal_page_first 8962
_journal_name_full 'Angew.Chem.,Int.Ed. '
loop_
_publ_author_name
"Chao Wang"
"Yinsheng Guo"
"Yapei Wang"
"Huaping Xu"
"Ruji Wang"
"Xi Zhang"
_chemical_name_systematic
;
catena-(1,1'-Dimethyl-4,4'-bipyridinium 
(\m~2~-8-hydroxypyrene-1,3,6-trisulfonato)-triaqua-sodium trihydrate)
;
_cell_volume   1592.422
_exptl_crystal_colour 'orange'
_exptl_crystal_density_diffrn 1.612
_exptl_crystal_description 'plate'
_diffrn_ambient_temperature 295
#These two values have been output from a single CSD field.
_refine_ls_R_factor_gt 0.0765
_refine_ls_wR_factor_gt 0.0765
_symmetry_cell_setting monoclinic
_symmetry_space_group_name_H-M 'P c'
_symmetry_Int_Tables_number 7
loop_
_symmetry_equiv_pos_site_id
_symmetry_equiv_pos_as_xyz
1 x,y,z
2 x,-y,1/2+z
_cell_length_a 9.887(3)
_cell_length_b 7.0863(13)
_cell_length_c 22.737(6)
_cell_angle_alpha 90
_cell_angle_beta 91.55(2)
_cell_angle_gamma 90
_cell_formula_units_Z 2
loop_
_atom_type_symbol
_atom_type_radius_bond
C 0.68
H 0.23
N 0.68
Na 1.66
O 0.68
S 1.02
loop_
_atom_site_label
_atom_site_type_symbol
_atom_site_fract_x
_atom_site_fract_y
_atom_site_fract_z
S1 S 0.97283(9) -0.60820(17) -0.60644(4)
S2 S 0.67916(8) -0.28196(15) -0.31385(4)
S3 S 0.17654(8) -0.33473(16) -0.41106(4)
Na1 Na -0.00305(16) -0.0104(3) -0.32644(8)
O1 O 0.4824(2) -0.6563(4) -0.67901(11)
H1 H 0.52460 -0.67840 -0.70880
O2 O 0.9804(3) -0.6937(5) -0.66361(11)
O3 O 1.0277(2) -0.4216(4) -0.60285(13)
O4 O 1.0253(2) -0.7342(4) -0.55955(11)
O5 O 0.7937(2) -0.1673(4) -0.3300(1)
O6 O 0.7152(3) -0.4662(4) -0.29141(11)
O7 O 0.5885(2) -0.1786(4) -0.27469(9)
O8 O 0.1637(2) -0.2384(4) -0.35589(11)
O9 O 0.1254(3) -0.5285(4) -0.41058(13)
O10 O 0.1240(2) -0.2253(4) -0.46121(10)
C1 C 0.5699(3) -0.6128(6) -0.63438(14)
C2 C 0.7093(4) -0.6282(5) -0.64207(16)
H2 H 0.74370 -0.66670 -0.67780
C3 C 0.7933(3) -0.5847(5) -0.59544(15)
C4 C 0.7486(3) -0.5186(5) -0.54006(14)
C5 C 0.6036(3) -0.5041(5) -0.53477(14)
C6 C 0.5134(3) -0.5517(5) -0.58212(15)
C7 C 0.3712(3) -0.5435(6) -0.57446(15)
H3 H 0.31280 -0.58210 -0.60490
C8 C 0.3204(3) -0.4812(5) -0.52426(14)
H4 H 0.22700 -0.47210 -0.52100
C9 C 0.4061(3) -0.4280(5) -0.47539(15)
C10 C 0.5489(3) -0.4397(5) -0.48033(15)
C11 C 0.6368(3) -0.3897(5) -0.43135(15)
C12 C 0.7809(3) -0.4100(5) -0.43936(15)
H5 H 0.84030 -0.37870 -0.40850
C13 C 0.8322(4) -0.4736(5) -0.49073(16)
H6 H 0.92530 -0.48780 -0.49340
C14 C 0.5822(4) -0.3261(6) -0.37737(15)
C15 C 0.4418(3) -0.3112(5) -0.37532(13)
H7 H 0.40420 -0.26750 -0.34080
C16 C 0.3560(3) -0.3580(5) -0.42174(15)
O11 O -0.0096(3) 0.0992(4) -0.42727(13)
H8 H 0.03420 0.02330 -0.44860
H9 H 0.02560 0.20840 -0.42870
O12 O 0.0936(4) -0.0403(7) -0.23719(15)
H10 H 0.05950 -0.12320 -0.21500
H11 H 0.15260 0.03060 -0.22070
O13 O -0.0439(4) 0.3021(7) -0.31088(19)
H12 H 0.01640 0.36200 -0.29120
H13 H -0.11450 0.36790 -0.30590
N1 N 0.7247(3) 0.1196(5) -0.13781(14)
N2 N 0.4571(3) -0.1833(5) 0.12803(13)
C17 C 0.8062(4) 0.0824(6) -0.09309(17)
H14 H 0.89910 0.09730 -0.09680
C18 C 0.7558(4) 0.0216(6) -0.04078(16)
H15 H 0.81550 -0.00820 -0.00990
C19 C 0.6176(4) 0.0034(6) -0.03292(15)
C20 C 0.5350(4) 0.0478(6) -0.08100(17)
H16 H 0.44150 0.04000 -0.07790
C21 C 0.5897(4) 0.1041(6) -0.13410(17)
H17 H 0.53350 0.13070 -0.16650
C22 C 0.5645(4) -0.0659(5) 0.02311(16)
C23 C 0.6479(4) -0.1135(5) 0.07059(16)
H18 H 0.74120 -0.10510 0.06690
C24 C 0.5964(4) -0.1731(6) 0.12339(18)
H19 H 0.65370 -0.20540 0.15490
C25 C 0.3766(4) -0.1409(6) 0.08429(18)
H20 H 0.28360 -0.14980 0.08880
C26 C 0.4252(4) -0.0831(6) 0.03142(17)
H21 H 0.36490 -0.05480 0.00060
C27 C 0.7794(5) 0.1793(7) -0.19708(17)
H22 H 0.87440 0.20570 -0.19280
H23 H 0.73280 0.29050 -0.21070
H24 H 0.76560 0.07930 -0.22510
C28 C 0.4078(5) -0.2356(7) 0.18697(17)
H25 H 0.31740 -0.28430 0.18310
H26 H 0.40810 -0.12600 0.21180
H27 H 0.46610 -0.33020 0.20410
O14 O 0.1942(3) -0.0484(4) -0.57664(12)
H28 H 0.17380 -0.09930 -0.54420
H29 H 0.13310 0.03510 -0.57360
O15 O 0.2901(4) -0.7994(7) -0.18174(16)
H30 H 0.26200 -0.84570 -0.14980
H31 H 0.25210 -0.70960 -0.20060
O16 O 0.1609(5) -0.4955(7) -0.2459(2)
H32 H 0.10900 -0.44090 -0.22200
H33 H 0.16210 -0.42510 -0.27610
Na1* Na 0.99695(16) -0.0104(3) -0.32644(8)
O5* O -0.2063(2) -0.1673(4) -0.3300(1)
#END
