
#######################################################################
#
#                 Cambridge Crystallographic Data Centre
#                                CCDC
#
#######################################################################
#
# If this CIF has been generated from an entry in the Cambridge
# Structural Database, then it will include bibliographic, chemical,
# crystal, experimental, refinement or atomic coordinate data resulting
# from the CCDC's data processing and validation procedures.
#
#######################################################################

data_CSD_CIF_KUYFUI
_audit_creation_date 2020-07-10
_audit_creation_method CSD-ConQuest-V1
_database_code_CSD KUYFUI
_database_code_depnum_ccdc_archive 'CCDC 1979325'
_chemical_formula_sum 'C35 H39 Cu2 K1 N10 O22'
_chemical_formula_moiety
;
(C35 H35 Cu2 N10 O20 1-)n,2(H2 O1),K1 1+
;
_journal_coden_Cambridge 1147
_journal_volume 20
_journal_year 2020
_journal_page_first 5097
_journal_name_full 'Cryst.Growth Des. '
loop_
_publ_author_name
"N.Maldonado"
"J.Perles"
"J.I.Martinez"
"C.J.Gomez-Garcia"
"M.-L.Marcos"
"P.Amo-Ochoa"
_chemical_name_systematic
;
catena-[potassium 
pentakis(\m-3-(2,4-dioxo-3,4-dihydropyrimidin-1(2H)-yl)propanoato)-di-copper(i
i) dihydrate]
;
_cell_volume   2219.195
_exptl_crystal_colour 'intense blue green'
_exptl_crystal_description 'prismatic'
_diffrn_ambient_temperature 296
#These two values have been output from a single CSD field.
_refine_ls_R_factor_gt 0.0388
_refine_ls_wR_factor_gt 0.0388
_symmetry_cell_setting triclinic
_symmetry_space_group_name_H-M 'P -1'
_symmetry_Int_Tables_number 2
loop_
_symmetry_equiv_pos_site_id
_symmetry_equiv_pos_as_xyz
1 x,y,z
2 -x,-y,-z
_cell_length_a 11.0005(3)
_cell_length_b 13.1485(3)
_cell_length_c 16.1098(3)
_cell_angle_alpha 106.964(1)
_cell_angle_beta 92.770(1)
_cell_angle_gamma 93.512(2)
_cell_formula_units_Z 2
loop_
_atom_type_symbol
_atom_type_radius_bond
C 0.68
H 0.23
Cu 1.32
K 2.03
N 0.68
O 0.68
loop_
_atom_site_label
_atom_site_type_symbol
_atom_site_fract_x
_atom_site_fract_y
_atom_site_fract_z
C1 C 0.3163(3) 0.5974(3) 1.0632(2)
C2 C 0.2122(3) 0.6620(3) 1.0986(2)
H1 H 0.14620 0.64620 1.05350
H2 H 0.23910 0.73690 1.11140
C3 C 0.1623(3) 0.6442(3) 1.1795(2)
H3 H 0.22970 0.64730 1.22150
H4 H 0.11130 0.70120 1.20520
C4 C 0.1359(3) 0.4575(3) 1.1831(2)
H5 H 0.21510 0.46590 1.20840
C5 C 0.0715(4) 0.3636(3) 1.1694(3)
H6 H 0.10640 0.30790 1.18380
C6 C -0.0517(4) 0.3495(3) 1.1323(3)
C7 C -0.0260(3) 0.5338(3) 1.1236(3)
C8 C 0.3608(3) 0.3320(3) 0.9355(2)
C9 C 0.2740(4) 0.2334(3) 0.8984(3)
H7 H 0.32070 0.17280 0.87370
H8 H 0.22120 0.24330 0.85200
C10 C 0.1962(4) 0.2092(3) 0.9665(3)
H9 H 0.24820 0.19350 1.01090
H10 H 0.15340 0.27120 0.99420
C11 C -0.0037(4) 0.1341(3) 0.8936(4)
H11 H -0.02120 0.20350 0.89740
C12 C -0.0883(4) 0.0551(4) 0.8563(4)
H12 H -0.16280 0.07000 0.83450
C13 C -0.0647(4) -0.0530(3) 0.8495(3)
C14 C 0.1420(4) 0.0160(3) 0.9169(3)
C15 C 0.5224(3) 0.5894(3) 0.7685(2)
C16 C 0.5529(4) 0.7072(3) 0.7836(3)
H13 H 0.54510 0.72190 0.72810
H14 H 0.63760 0.72450 0.80570
C17 C 0.4745(4) 0.7802(3) 0.8462(3)
H15 H 0.38910 0.75650 0.83020
H16 H 0.49310 0.77620 0.90460
C18 C 0.5729(4) 0.9626(3) 0.9058(3)
H17 H 0.61040 0.94000 0.94960
C19 C 0.5979(4) 1.0648(3) 0.9063(3)
H18 H 0.65100 1.11080 0.94960
C20 C 0.5421(4) 1.1011(3) 0.8397(3)
C21 C 0.4357(5) 0.9220(3) 0.7812(3)
C22 C 0.3684(3) 0.3318(3) 0.4892(2)
C23 C 0.2815(4) 0.2353(3) 0.4794(3)
H19 H 0.20920 0.25790 0.50960
H20 H 0.32000 0.18790 0.50700
C24 C 0.2433(4) 0.1742(3) 0.3857(3)
H21 H 0.21870 0.22350 0.35470
H22 H 0.31200 0.13890 0.35810
C25 C 0.0247(4) 0.1207(4) 0.3753(4)
H23 H 0.01210 0.19010 0.37550
C26 C -0.0732(5) 0.0527(4) 0.3696(5)
H24 H -0.15150 0.07370 0.36360
C27 C -0.0553(4) -0.0527(4) 0.3730(4)
C28 C 0.1646(4) -0.0061(3) 0.3815(3)
C29 C 0.6796(3) 0.3901(3) 0.4483(2)
C30 C 0.7763(3) 0.3171(3) 0.4105(2)
H25 H 0.74320 0.24370 0.39810
H26 H 0.84460 0.32860 0.45350
C31 C 0.8221(3) 0.3339(3) 0.3282(2)
H27 H 0.87340 0.27730 0.30200
H28 H 0.75300 0.32960 0.28720
C32 C 0.8435(3) 0.5212(3) 0.3232(3)
H29 H 0.76390 0.51140 0.29840
C33 C 0.9053(4) 0.6157(3) 0.3368(3)
H30 H 0.86840 0.67080 0.32270
C34 C 1.0294(4) 0.6320(3) 0.3736(2)
C35 C 1.0102(3) 0.4474(3) 0.3808(2)
Cu1 Cu 0.48033(4) 0.52527(3) 0.92804(3)
Cu2 Cu 0.53631(3) 0.50160(3) 0.57977(2)
N1 N 0.0904(3) 0.5412(2) 1.1617(2)
N2 N -0.0929(3) 0.4381(3) 1.1135(2)
H31 H -0.16770 0.43320 1.09360
N3 N 0.1076(3) 0.1179(3) 0.9266(2)
N4 N 0.0511(3) -0.0634(3) 0.8816(2)
H32 H 0.06820 -0.12710 0.87920
N5 N 0.4961(3) 0.8911(3) 0.8451(2)
N6 N 0.4639(4) 1.0245(3) 0.7814(2)
H33 H 0.42880 1.04370 0.74020
N7 N 0.1410(3) 0.0941(3) 0.3806(2)
N8 N 0.0643(3) -0.0742(3) 0.3784(3)
H34 H 0.07790 -0.13730 0.37990
N9 N 0.8923(3) 0.4377(2) 0.3444(2)
N10 N 1.0733(3) 0.5440(2) 0.3906(2)
H35 H 1.14870 0.55010 0.40950
O1 O 0.3757(2) 0.5555(2) 1.11175(16)
O2 O 0.3388(2) 0.5918(2) 0.98582(16)
O3 O -0.0675(3) 0.6056(2) 1.1008(2)
O4 O -0.1202(3) 0.2686(2) 1.1164(2)
O5 O 0.3800(2) 0.3895(2) 0.88662(17)
O6 O 0.4075(2) 0.3495(2) 1.01170(18)
O7 O 0.2439(3) -0.0013(3) 0.9383(3)
O8 O -0.1367(3) -0.1306(3) 0.8191(3)
O9 O 0.4401(2) 0.5611(2) 0.81023(17)
O10 O 0.5813(2) 0.5244(2) 0.71391(16)
O11 O 0.3628(5) 0.8630(3) 0.7277(3)
O12 O 0.5565(3) 1.1903(2) 0.8308(2)
O13 O 0.4288(2) 0.3704(2) 0.56114(17)
O14 O 0.3718(2) 0.3684(2) 0.42582(17)
O15 O 0.2676(3) -0.0333(3) 0.3846(4)
O16 O -0.1361(3) -0.1228(3) 0.3699(4)
O17 O 0.6720(2) 0.4167(2) 0.52997(16)
O18 O 0.6106(2) 0.4181(2) 0.39648(16)
O19 O 1.0552(2) 0.3761(2) 0.4020(2)
O20 O 1.0969(3) 0.7145(2) 0.3885(2)
K1 K 0.48184(9) 0.32051(7) 0.72435(6)
O21 O 0.6424(4) 0.2274(3) 0.6141(4)
H36 H 0.620(6) 0.173(4) 0.563(3)
H37 H 0.708(4) 0.265(5) 0.604(4)
O22 O 0.3746(3) 0.1041(3) 0.6455(3)
Cu1A Cu 0.51967(4) 0.47473(3) 1.07196(3)
Cu2A Cu 0.46369(3) 0.49840(3) 0.42023(2)
O1A O 0.6243(2) 0.4445(2) 0.88825(16)
O6A O 0.5925(2) 0.6505(2) 0.98830(18)
O14A O 0.6282(2) 0.6316(2) 0.57418(17)
O18A O 0.3894(2) 0.5819(2) 0.60352(16)
#END
