
#######################################################################
#
#                 Cambridge Crystallographic Data Centre
#                                CCDC
#
#######################################################################
#
# If this CIF has been generated from an entry in the Cambridge
# Structural Database, then it will include bibliographic, chemical,
# crystal, experimental, refinement or atomic coordinate data resulting
# from the CCDC's data processing and validation procedures.
#
#######################################################################

data_CSD_CIF_KUYFAO
_audit_creation_date 2020-07-10
_audit_creation_method CSD-ConQuest-V1
_database_code_CSD KUYFAO
_database_code_depnum_ccdc_archive 'CCDC 1996625'
_chemical_formula_sum 'C60 H135 K23 O187.5 P20 U20'
_chemical_formula_moiety
;
(C30 H20 O70 P10 U10 13-)n,n(C18 H12 O42 P6 U6 5-),n(C12 H8 O28 P4 U4 
5-),23(K1 1+),47.5(H2 O1)
;
_journal_coden_Cambridge 9
_journal_volume 59
_journal_year 2020
_journal_page_first 9881
_journal_name_full 'Inorg.Chem. '
loop_
_publ_author_name
"Mengyu Xu"
"P.Eckard"
"P.C.Burns"
_chemical_name_systematic
;
catena-[tricosa-potassium 
pentakis(\m-1,2-phenylenebis(phosphonato))-decakis(\m-peroxido)-icosaoxo-deca-
uranium 
tris(\m-1,2-phenylenebis(phosphonato))-hexakis(\m-peroxido)-dodecaoxo-hexa-ura
nium 
bis(\m-1,2-phenylenebis(phosphonato))-tetrakis(\m-peroxido)-octaoxo-tetra-uran
ium hydrate]
;
_chemical_name_common
;
U20Ppb10
;
_cell_volume  26631.409
_exptl_crystal_colour 'yellow'
_exptl_crystal_description 'block'
_diffrn_ambient_temperature 180
_refine_special_details
;
The structure is disordered. The authors' sum of formula is C60 H36 K22.30 
O187.50 P20 U20.
;
#These two values have been output from a single CSD field.
_refine_ls_R_factor_gt 0.0656
_refine_ls_wR_factor_gt 0.0656
_symmetry_cell_setting monoclinic
_symmetry_space_group_name_H-M 'C 2/m'
_symmetry_Int_Tables_number 12
loop_
_symmetry_equiv_pos_site_id
_symmetry_equiv_pos_as_xyz
1 x,y,z
2 -x,y,-z
3 1/2+x,1/2+y,z
4 1/2-x,1/2+y,-z
5 -x,-y,-z
6 x,-y,z
7 -1/2-x,-1/2-y,-z
8 -1/2+x,-1/2-y,z
_cell_length_a 36.081(4)
_cell_length_b 32.094(4)
_cell_length_c 23.080(3)
_cell_angle_alpha 90
_cell_angle_beta 94.8286(18)
_cell_angle_gamma 90
_cell_formula_units_Z 4
loop_
_atom_type_symbol
_atom_type_radius_bond
C 0.68
H 0.23
K 2.03
O 0.68
P 1.05
U 1.96
loop_
_atom_site_label
_atom_site_type_symbol
_atom_site_fract_x
_atom_site_fract_y
_atom_site_fract_z
U1 U -0.18403(4) 0.50000 0.12299(6)
U2 U -0.17490(3) 0.56688(3) -0.16210(4)
U3 U -0.17956(3) 0.60928(3) 0.01493(4)
U4 U -0.04338(4) 0.50000 0.23676(6)
U5 U -0.03649(3) 0.66857(3) 0.06957(4)
U6 U 0.02863(3) 0.60302(3) 0.20400(4)
P1 P -0.1270(2) 0.6692(2) 0.1291(3)
P2 P -0.1234(2) 0.7005(2) -0.0117(3)
P3 P 0.1186(2) 0.6552(2) 0.2001(3)
P4 P 0.11485(19) 0.5677(2) 0.2833(3)
P5 P -0.1325(2) 0.4463(2) 0.2444(3)
O1 O -0.1977(6) 0.50000 -0.1392(9)
O2 O -0.0964(5) 0.4562(5) 0.2182(7)
O3 O -0.0491(7) 0.50000 0.3127(10)
O4 O -0.0247(5) 0.5704(5) 0.2374(7)
O5 O -0.1832(6) 0.50000 -0.1984(9)
O6 O -0.1376(6) 0.50000 0.0978(10)
O7 O -0.2051(4) 0.5440(5) 0.0448(7)
O8 O 0.0273(5) 0.5705(5) 0.1400(8)
O9 O 0.0130(5) 0.6612(5) 0.1424(7)
O10 O 0.1512(4) 0.5614(5) 0.2532(6)
O11 O 0.0322(5) 0.6352(5) 0.2687(7)
O12 O -0.1987(5) 0.5707(5) -0.0697(7)
O13 O -0.2298(7) 0.50000 0.1469(10)
O14 O -0.1594(5) 0.6471(5) 0.0999(7)
O15 O -0.0398(6) 0.50000 0.1596(10)
O16 O 0.0801(5) 0.5625(5) 0.2412(8)
O17 O -0.0412(4) 0.7218(5) 0.0925(7)
O18 O -0.0886(5) 0.6750(5) -0.0005(7)
O19 O -0.1923(5) 0.5693(5) 0.0963(7)
O20 O -0.1866(5) 0.6127(5) -0.0861(8)
O21 O 0.0846(5) 0.6334(6) 0.1741(8)
O22 O -0.0334(5) 0.6153(5) 0.0463(7)
O23 O 0.0161(5) 0.6880(5) 0.0219(7)
O24 O 0.0079(5) 0.5453(5) 0.2556(7)
O25 O -0.2253(4) 0.6319(5) 0.0164(7)
O26 O -0.1662(5) 0.4565(5) 0.2021(7)
O27 O -0.1584(5) 0.6741(5) -0.0171(7)
O28 O -0.1306(4) 0.5529(5) -0.1261(7)
O29 O -0.2191(5) 0.5796(5) -0.1976(7)
O30 O -0.1337(5) 0.5850(5) 0.0139(7)
O31 O 0.1195(6) 0.7008(6) 0.1821(9)
O32 O -0.0914(5) 0.6511(5) 0.1151(8)
O33 O -0.1294(6) 0.6693(7) 0.1967(9)
O34 O -0.0207(5) 0.6456(5) 0.1660(7)
O35 O 0.1149(5) 0.5378(5) 0.3363(7)
O36 O 0.1543(5) 0.6343(6) 0.1864(8)
O37 O -0.1216(6) 0.7268(6) -0.0678(8)
O38 O -0.1330(7) 0.4008(7) 0.2626(10)
C1 C -0.1256(6) 0.7363(7) 0.0506(10)
C2 C -0.1287(9) 0.7785(11) 0.0361(16)
C3 C -0.1319(10) 0.8071(12) 0.0809(16)
H1 H -0.13270 0.83610 0.07240
C4 C -0.1339(10) 0.7944(12) 0.1350(17)
H2 H -0.13630 0.81490 0.16430
C5 C -0.1325(9) 0.7532(10) 0.1512(14)
H3 H -0.13360 0.74480 0.19050
C6 C -0.1292(7) 0.7239(8) 0.1060(11)
C7 C -0.1354(8) 0.4781(8) 0.3090(12)
C8 C -0.1394(9) 0.4533(12) 0.3623(15)
H4 H -0.13980 0.42370 0.36370
C9 C -0.1426(10) 0.4802(11) 0.4115(17)
H5 H -0.14500 0.46700 0.44780
C10 C 0.1177(8) 0.6193(8) 0.3122(12)
C11 C 0.1182(8) 0.6554(9) 0.2787(12)
C12 C 0.1207(10) 0.6937(12) 0.3049(16)
H6 H 0.12200 0.71820 0.28190
C13 C 0.1213(10) 0.6969(11) 0.3651(16)
C14 C 0.118(1) 0.6638(12) 0.3994(16)
C15 C 0.1161(9) 0.6229(10) 0.3730(14)
H7 H -0.12860 0.78750 -0.00310
K1 K -0.0510(6) 0.7621(6) -0.0626(9)
U7 U -0.18776(4) 1.00000 -0.66595(6)
U8 U -0.18240(3) 0.89150(3) -0.55578(4)
U9 U -0.17373(3) 0.93378(3) -0.37809(4)
U10 U 0.03850(3) 0.83126(3) -0.42340(4)
U11 U -0.02453(3) 0.89644(3) -0.30496(4)
P6 P -0.10984(19) 0.9322(2) -0.2451(3)
P7 P 0.1247(2) 0.7998(2) -0.4834(3)
P8 P -0.13674(19) 0.9456(2) -0.7733(3)
P9 P 0.1304(2) 0.8328(2) -0.3426(3)
P10 P -0.1150(2) 0.8455(2) -0.3291(3)
O39 O -0.1415(6) 1.00000 -0.6304(9)
O40 O -0.1018(4) 0.9570(5) -0.7370(7)
O41 O -0.1370(5) 0.9003(5) -0.7918(7)
O42 O -0.0271(5) 0.8654(5) -0.2411(7)
O43 O -0.1958(5) 0.9312(5) -0.6406(7)
O44 O -0.1453(4) 0.9402(5) -0.2823(7)
O45 O -0.2163(4) 0.9185(5) -0.3508(7)
O46 O -0.1309(4) 0.9485(5) -0.4060(6)
O47 O -0.1372(5) 0.9157(5) -0.5444(7)
O48 O 0.0154(5) 0.8108(5) -0.5191(7)
O49 O -0.0243(5) 0.9277(5) -0.3695(7)
O50 O 0.0245(5) 0.8535(5) -0.3298(7)
O51 O -0.0766(5) 0.9359(5) -0.2800(7)
O52 O -0.1500(5) 0.8664(5) -0.3533(7)
O53 O -0.1874(5) 0.8880(5) -0.4561(7)
O54 O -0.2271(5) 0.8679(5) -0.5673(7)
O55 O -0.1712(5) 0.9556(5) -0.7423(7)
O56 O 0.0355(5) 0.8847(5) -0.4472(7)
O57 O -0.0101(5) 0.8381(5) -0.3613(7)
O58 O -0.2021(5) 0.9285(5) -0.4764(7)
O59 O 0.0440(5) 0.7778(5) -0.3976(7)
O60 O 0.0893(5) 0.8248(6) -0.4814(8)
O61 O 0.1236(5) 0.7726(6) -0.5372(8)
O62 O -0.2343(7) 1.00000 -0.7027(10)
O63 O 0.1586(5) 0.8275(5) -0.4780(7)
O64 O 0.1645(5) 0.8550(5) -0.3598(7)
O65 O -0.1071(5) 0.9618(5) -0.1916(8)
O66 O 0.1318(5) 0.8317(6) -0.2750(8)
O67 O 0.0949(5) 0.8516(6) -0.3679(8)
O68 O -0.1172(6) 0.7988(6) -0.3503(9)
O69 O -0.0806(6) 0.8659(6) -0.3474(9)
C16 C -0.1139(8) 0.8457(8) -0.2514(12)
C17 C -0.1168(8) 0.8058(9) -0.2234(13)
H8 H -0.11860 0.78140 -0.24680
C18 C -0.1172(9) 0.8018(11) -0.1672(15)
H9 H -0.11750 0.77460 -0.15120
C19 C -0.117(1) 0.8369(12) -0.1287(18)
C20 C -0.1135(9) 0.8765(10) -0.1555(14)
H10 H -0.11270 0.90100 -0.13230
C21 C -0.1112(7) 0.8800(8) -0.2169(11)
C22 C -0.1390(7) 0.9787(8) -0.8378(11)
C23 C -0.1397(8) 0.9567(10) -0.8903(13)
H11 H -0.13930 0.92710 -0.89030
C24 C -0.1410(8) 0.9796(8) -0.9455(13)
H12 H -0.14180 0.96480 -0.98120
C25 C 0.1322(7) 0.7786(8) -0.3634(11)
C26 C 0.1363(8) 0.7487(9) -0.3184(13)
H13 H 0.13940 0.75760 -0.27910
C27 C 0.1358(10) 0.7065(12) -0.3311(17)
H14 H 0.13760 0.68640 -0.30070
C28 C 0.1327(9) 0.6944(11) -0.3872(15)
H15 H 0.13300 0.66540 -0.39560
C29 C 0.1289(8) 0.7234(9) -0.4351(14)
H16 H 0.12680 0.71350 -0.47400
C30 C 0.1284(8) 0.7654(8) -0.4237(12)
U12 U 0.04807(4) 1.00000 -0.25693(6)
O70 O 0.0429(6) 1.00000 -0.3355(9)
O71 O 0.0290(5) 0.9285(5) -0.2610(7)
O72 O 0.0543(7) 1.00000 -0.1815(10)
O73 O -0.0022(5) 0.9553(5) -0.2501(7)
O74 O -0.2075(5) 0.9562(5) -0.5911(7)
O75 O -0.1996(6) 1.00000 -0.4048(10)
O76 O -0.1850(6) 1.00000 -0.3429(9)
H17 H -0.11910 0.83390 -0.08820
K2 K 0.1921(2) 0.50000 0.3162(4)
K3 K -0.2187(11) 0.6275(11) 0.1622(17)
K4 K -0.2171(9) 0.6774(10) -0.1255(14)
K5 K -0.1495(3) 0.50000 -0.0279(4)
K6 K 0.0723(3) 0.50000 0.1626(4)
K7 K -0.0827(2) 0.4346(2) 0.1083(3)
K8 K -0.2713(2) 0.50000 -0.1776(4)
K9 K -0.2798(2) 0.6183(2) -0.2683(3)
K10 K -0.0415(4) 0.8059(4) 0.1295(7)
O77 O 0.0249(5) 0.8034(6) 0.1565(8)
O78 O -0.2725(6) 0.5569(7) -0.0885(9)
O79 O -0.2120(8) 0.6223(9) -0.3193(12)
O80 O -0.0659(7) 0.8830(8) 0.1727(11)
O81 O -0.2963(7) 0.6260(8) -0.1519(11)
O82 O -0.0538(10) 0.7945(11) 0.2460(15)
O83 O -0.0648(18) 0.50000 -0.008(3)
O84 O -0.0460(11) 0.8316(12) 0.0050(17)
O85 O -0.2173(14) 0.7139(16) 0.185(2)
K11 K 0.0770(2) 0.6056(2) 0.0623(3)
K12 K 0.0414(4) 0.6952(4) -0.3628(6)
O86 O -0.0237(8) 0.6928(9) -0.3551(12)
O87 O 0.0778(14) 0.6369(15) -0.263(2)
O88 O 0.0554(10) 0.7034(11) -0.2427(15)
O89 O 0.0451(12) 0.6707(13) -0.4884(19)
K13 K -0.2652(3) 1.00000 -0.3578(6)
O90 O -0.2711(6) 1.0530(7) -0.2624(9)
O91 O -0.2760(9) 1.0479(10) -0.4684(14)
K14 K -0.1526(2) 1.00000 -0.5064(4)
O92 O -0.0650(14) 1.00000 -0.501(2)
K15 K -0.0699(3) 1.00000 -0.3549(4)
K16 K -0.0785(2) 0.8959(2) -0.4565(3)
O93 O 0.2171(9) 0.5558(9) 0.3984(13)
K17 K -0.08526(18) 1.0651(2) -0.6241(3)
O94 O -0.2079(16) 0.6269(17) 0.324(2)
O95 O -0.2968(6) 0.5461(7) 0.2115(10)
O96 O -0.2805(7) 0.5536(8) 0.0337(11)
O97 O 0.4776(15) 0.00000 0.431(2)
O98 O -0.0409(10) 0.7294(11) -0.2009(15)
O99 O 0.4515(11) 0.0512(12) 0.4150(17)
O100 O 0.4486(11) 0.4452(12) 0.0774(16)
O101 O 0.0365(11) 0.2326(12) 0.3082(17)
O102 O 0.1028(11) 0.1056(12) 0.0040(16)
O103 O -0.1788(13) 0.8739(14) -0.0225(19)
O104 O 0.2139(13) 0.3008(14) 0.357(2)
O105 O 0.2709(13) 0.1995(14) 0.343(2)
O106 O -0.3177(10) 0.50000 0.1012(15)
O107 O 0.4763(10) 0.50000 0.0675(15)
O108 O 0.1965(6) 0.1918(7) 0.4171(9)
O109 O 0.0523(6) 0.2597(7) 0.4499(9)
O110 O 0.0242(7) 0.0525(8) 0.1409(11)
O111 O -0.2210(8) 0.8050(9) 0.0074(12)
O112 O 0.2816(8) 0.2248(9) 0.0491(13)
O113 O 0.2809(10) 0.2754(11) 0.4043(15)
O114 O 0.0259(11) 0.4450(12) 0.3746(17)
O115? O 0.1074(12) 0.0276(13) 0.0796(18)
K18? K -0.1906(5) 0.6978(5) -0.1305(7)
K19? K -0.2015(4) 0.6244(4) 0.1904(6)
H18? H -0.12950 0.69500 0.11470
O116? O -0.5610(9) 0.8842(9) -0.6790(13)
P5E P -0.1325(2) 0.5537(2) 0.2444(3)
O2E O -0.0964(5) 0.5438(5) 0.2182(7)
O26E O -0.1662(5) 0.5435(5) 0.2021(7)
O38E O -0.1330(7) 0.5992(7) 0.2626(10)
C7E C -0.1354(8) 0.5219(8) 0.3090(12)
C8E C -0.1394(9) 0.5467(12) 0.3623(15)
H4E H -0.13980 0.57630 0.36370
C9E C -0.1426(10) 0.5198(11) 0.4115(17)
H5E H -0.14500 0.53300 0.44780
O23A O -0.0161(5) 0.6880(5) -0.0219(7)
U2A U 0.17490(3) 0.56688(3) 0.16210(4)
U2E U -0.17490(3) 0.43312(3) -0.16210(4)
U5A U 0.03649(3) 0.66857(3) -0.06957(4)
O4E O -0.0247(5) 0.4296(5) 0.2374(7)
O7E O -0.2051(4) 0.4560(5) 0.0448(7)
O10A O -0.1512(4) 0.5614(5) -0.2532(6)
O19E O -0.1923(5) 0.4307(5) 0.0963(7)
O24E O 0.0079(5) 0.4547(5) 0.2556(7)
O36A O -0.1543(5) 0.6343(6) -0.1864(8)
P8E P -0.13674(19) 1.0544(2) -0.7733(3)
O40E O -0.1018(4) 1.0430(5) -0.7370(7)
O41E O -0.1370(5) 1.0997(5) -0.7918(7)
O55E O -0.1712(5) 1.0444(5) -0.7423(7)
C22E C -0.1390(7) 1.0213(8) -0.8378(11)
C23E C -0.1397(8) 1.0433(10) -0.8903(13)
H11E H -0.13930 1.07290 -0.89030
C24E C -0.1410(8) 1.0204(8) -0.9455(13)
H12E H -0.14180 1.03520 -0.98120
O48A O -0.0154(5) 0.8108(5) -0.4809(7)
U8A U 0.18240(3) 0.89150(3) -0.44422(4)
U9A U 0.17373(3) 0.93378(3) -0.62191(4)
U10A U -0.03850(3) 0.83126(3) -0.57660(4)
U11A U 0.02453(3) 0.89644(3) -0.69504(4)
P6A P 0.10984(19) 0.9322(2) -0.7549(3)
P7A P -0.1247(2) 0.7998(2) -0.5166(3)
P9A P -0.1304(2) 0.8328(2) -0.6574(3)
P10A P 0.1150(2) 0.8455(2) -0.6709(3)
O42A O 0.0271(5) 0.8654(5) -0.7589(7)
O43A O 0.1958(5) 0.9312(5) -0.3594(7)
O44A O 0.1453(4) 0.9402(5) -0.7177(7)
O45A O 0.2163(4) 0.9185(5) -0.6492(7)
O46A O 0.1309(4) 0.9485(5) -0.5940(6)
O47A O 0.1372(5) 0.9157(5) -0.4556(7)
O49A O 0.0243(5) 0.9277(5) -0.6305(7)
O50A O -0.0245(5) 0.8535(5) -0.6702(7)
O51A O 0.0766(5) 0.9359(5) -0.7200(7)
O52A O 0.1500(5) 0.8664(5) -0.6467(7)
O53A O 0.1874(5) 0.8880(5) -0.5439(7)
O54A O 0.2271(5) 0.8679(5) -0.4327(7)
O56A O -0.0355(5) 0.8847(5) -0.5528(7)
O57A O 0.0101(5) 0.8381(5) -0.6387(7)
O58A O 0.2021(5) 0.9285(5) -0.5236(7)
O59A O -0.0440(5) 0.7778(5) -0.6024(7)
O60A O -0.0893(5) 0.8248(6) -0.5186(8)
O61A O -0.1236(5) 0.7726(6) -0.4628(8)
O63A O -0.1586(5) 0.8275(5) -0.5220(7)
O64A O -0.1645(5) 0.8550(5) -0.6402(7)
O65A O 0.1071(5) 0.9618(5) -0.8084(8)
O66A O -0.1318(5) 0.8317(6) -0.7250(8)
O67A O -0.0949(5) 0.8516(6) -0.6321(8)
O68A O 0.1172(6) 0.7988(6) -0.6497(9)
O69A O 0.0806(6) 0.8659(6) -0.6526(9)
C16A C 0.1139(8) 0.8457(8) -0.7486(12)
C17A C 0.1168(8) 0.8058(9) -0.7766(13)
H8A H 0.11860 0.78140 -0.75320
C18A C 0.1172(9) 0.8018(11) -0.8328(15)
H9A H 0.11750 0.77460 -0.84880
C19A C 0.117(1) 0.8369(12) -0.8713(18)
C20A C 0.1135(9) 0.8765(10) -0.8445(14)
H10A H 0.11270 0.90100 -0.86770
C21A C 0.1112(7) 0.8800(8) -0.7831(11)
C25A C -0.1322(7) 0.7786(8) -0.6366(11)
C26A C -0.1363(8) 0.7487(9) -0.6816(13)
H13A H -0.13940 0.75760 -0.72090
C27A C -0.1358(10) 0.7065(12) -0.6689(17)
H14A H -0.13760 0.68640 -0.69930
C28A C -0.1327(9) 0.6944(11) -0.6128(15)
H15A H -0.13300 0.66540 -0.60440
C29A C -0.1289(8) 0.7234(9) -0.5649(14)
H16A H -0.12680 0.71350 -0.52600
C30A C -0.1284(8) 0.7654(8) -0.5763(12)
O71A O -0.0290(5) 0.9285(5) -0.7390(7)
O73A O 0.0022(5) 0.9553(5) -0.7499(7)
O74A O 0.2075(5) 0.9562(5) -0.4089(7)
H17A H 0.11910 0.83390 -0.91180
U7A U 0.18776(4) 1.00000 -0.33405(6)
U9E U -0.17373(3) 1.06622(3) -0.37809(4)
O40A O 0.1018(4) 0.9570(5) -0.2630(7)
O40D O 0.1018(4) 1.0430(5) -0.2630(7)
O43E O -0.1958(5) 1.0688(5) -0.6406(7)
U12A U -0.04807(4) 1.00000 -0.74307(6)
O71E O 0.0290(5) 1.0715(5) -0.2610(7)
O73E O -0.0022(5) 1.0447(5) -0.2501(7)
O74E O -0.2075(5) 1.0438(5) -0.5911(7)
O75A O 0.1996(6) 1.00000 -0.5952(10)
O76A O 0.1850(6) 1.00000 -0.6571(9)
U2A* U 0.17490(3) 0.56688(3) -0.83790(4)
U3A U 0.17956(3) 0.60928(3) -1.01493(4)
U5A* U 0.03649(3) 0.66857(3) -1.06957(4)
U6A U -0.02863(3) 0.60302(3) -1.20400(4)
P1A P 0.1270(2) 0.6692(2) -1.1291(3)
P2A P 0.1234(2) 0.7005(2) -0.9883(3)
P3A P -0.1186(2) 0.6552(2) -1.2001(3)
P4A P -0.11485(19) 0.5677(2) -1.2833(3)
O4A O 0.0247(5) 0.5704(5) -1.2374(7)
O7A O 0.2051(4) 0.5440(5) -1.0448(7)
O8A O -0.0273(5) 0.5705(5) -1.1400(8)
O9A O -0.0130(5) 0.6612(5) -1.1424(7)
O10A* O -0.1512(4) 0.5614(5) -1.2532(6)
O11A O -0.0322(5) 0.6352(5) -1.2687(7)
O12A O 0.1987(5) 0.5707(5) -0.9303(7)
O14A O 0.1594(5) 0.6471(5) -1.0999(7)
O16A O -0.0801(5) 0.5625(5) -1.2412(8)
O17A O 0.0412(4) 0.7218(5) -1.0925(7)
O18A O 0.0886(5) 0.6750(5) -0.9995(7)
O19A O 0.1923(5) 0.5693(5) -1.0963(7)
O20A O 0.1866(5) 0.6127(5) -0.9139(8)
O21A O -0.0846(5) 0.6334(6) -1.1741(8)
O22A O 0.0334(5) 0.6153(5) -1.0463(7)
O24A O -0.0079(5) 0.5453(5) -1.2556(7)
O25A O 0.2253(4) 0.6319(5) -1.0164(7)
O27A O 0.1584(5) 0.6741(5) -0.9829(7)
O28A O 0.1306(4) 0.5529(5) -0.8739(7)
O29A O 0.2191(5) 0.5796(5) -0.8024(7)
O30A O 0.1337(5) 0.5850(5) -1.0139(7)
O31A O -0.1195(6) 0.7008(6) -1.1821(9)
O32A O 0.0914(5) 0.6511(5) -1.1151(8)
O33A O 0.1294(6) 0.6693(7) -1.1967(9)
O34A O 0.0207(5) 0.6456(5) -1.1660(7)
O35A O -0.1149(5) 0.5378(5) -1.3363(7)
O36A* O -0.1543(5) 0.6343(6) -1.1864(8)
O37A O 0.1216(6) 0.7268(6) -0.9322(8)
C1A C 0.1256(6) 0.7363(7) -1.0506(10)
C2A C 0.1287(9) 0.7785(11) -1.0361(16)
C3A C 0.1319(10) 0.8071(12) -1.0809(16)
H1A H 0.13270 0.83610 -1.07240
C4A C 0.1339(10) 0.7944(12) -1.1350(17)
H2A H 0.13630 0.81490 -1.16430
C5A C 0.1325(9) 0.7532(10) -1.1512(14)
H3A H 0.13360 0.74480 -1.19050
C6A C 0.1292(7) 0.7239(8) -1.1060(11)
C10A C -0.1177(8) 0.6193(8) -1.3122(12)
C11A C -0.1182(8) 0.6554(9) -1.2787(12)
C12A C -0.1207(10) 0.6937(12) -1.3049(16)
H6A H -0.12200 0.71820 -1.28190
C13A C -0.1213(10) 0.6969(11) -1.3651(16)
C14A C -0.118(1) 0.6638(12) -1.3994(16)
C15A C -0.1161(9) 0.6229(10) -1.3730(14)
H7A H 0.12860 0.78750 -0.99690
U1A U 0.18403(4) 0.50000 -1.12299(6)
U2* U -0.17490(3) 0.56688(3) -1.16210(4)
U4A U 0.04338(4) 0.50000 -1.23676(6)
O1A O 0.1977(6) 0.50000 -0.8608(9)
O5A O 0.1832(6) 0.50000 -0.8016(9)
O10* O 0.1512(4) 0.5614(5) -0.7468(6)
O23* O 0.0161(5) 0.6880(5) -0.9781(7)
O23A* O -0.0161(5) 0.6880(5) -1.0219(7)
O36* O 0.1543(5) 0.6343(6) -0.8136(8)
#END
