
#######################################################################
#
#                 Cambridge Crystallographic Data Centre
#                                CCDC
#
#######################################################################
#
# If this CIF has been generated from an entry in the Cambridge
# Structural Database, then it will include bibliographic, chemical,
# crystal, experimental, refinement or atomic coordinate data resulting
# from the CCDC's data processing and validation procedures.
#
#######################################################################

data_CSD_CIF_KUYHOE
_audit_creation_date 2020-07-10
_audit_creation_method CSD-ConQuest-V1
_database_code_CSD KUYHOE
_database_code_depnum_ccdc_archive 'CCDC 2005810'
_chemical_formula_sum 'C80 H61 Cd2 N6 Na1 O15'
_chemical_formula_moiety
;
(C74 H45 Cd2 N4 O12 1-)n,Na1 1+,2(C3 H7 N1 O1),H2 O1
;
_journal_coden_Cambridge 440
_journal_volume 44
_journal_year 2020
_journal_page_first 12496
_journal_name_full 'New J.Chem. '
loop_
_publ_author_name
"Xiao-Li Hu"
"Kang Wang"
"Xiao Li"
"Qing-Qing Pan"
"Zhong-Min Su"
_chemical_name_systematic
;
catena-[(1,3,5-tris(4-carboxylatophenyl)benzene)-(hydrogen 
1,3,5-tris(4-carboxylatophenyl)benzene)-bis(9,10-bis(1H-imidazol-1-yl)anthrace
ne)-di-cadmium(ii) N,N-dimethylformamide solvate monohydrate]
;
_cell_volume   9847.365
_exptl_crystal_colour 'green'
_exptl_special_details
;
The formula in the publication is [Cd2 Na(btb)2 (dia)2 ] 2DMF H2O. The paper 
describes the asymmetric unit consisting of one Cd(II) ion, one Na ion, one 
btb and one dia ligand.  A hydrogen atom has been placed for charge balance
;
_exptl_crystal_description 'block'
_diffrn_ambient_temperature 296.1
_refine_special_details
;
O5,O7 and O6,O8 disordered over two sites with occupancies 0.5:0.5; The 
SQUEEZE/PLATON program has been used to model some disorder; The MASK/OLEX2 
program has been used to model some disorder.
;
#These two values have been output from a single CSD field.
_refine_ls_R_factor_gt 0.0721
_refine_ls_wR_factor_gt 0.0721
_symmetry_cell_setting monoclinic
_symmetry_space_group_name_H-M 'C 2/c'
_symmetry_Int_Tables_number 15
loop_
_symmetry_equiv_pos_site_id
_symmetry_equiv_pos_as_xyz
1 x,y,z
2 -x,y,1/2-z
3 1/2+x,1/2+y,z
4 1/2-x,1/2+y,1/2-z
5 -x,-y,-z
6 x,-y,-1/2+z
7 -1/2-x,-1/2-y,-z
8 -1/2+x,-1/2-y,-1/2+z
_cell_length_a 32.143(4)
_cell_length_b 10.3824(10)
_cell_length_c 32.772(4)
_cell_angle_alpha 90
_cell_angle_beta 115.790(4)
_cell_angle_gamma 90
_cell_formula_units_Z 4
loop_
_atom_type_symbol
_atom_type_radius_bond
C 0.68
H 0.23
Cd 1.44
N 0.68
Na 1.66
O 0.68
loop_
_atom_site_label
_atom_site_type_symbol
_atom_site_fract_x
_atom_site_fract_y
_atom_site_fract_z
Cd1 Cd 0.09937(2) 0.73165(3) 0.49616(2)
O1 O 0.16792(14) 1.3079(4) 0.06944(13)
O2 O 0.11362(14) 1.1745(5) 0.06376(12)
N1 N 0.12056(15) 0.5391(5) 0.47985(16)
N2 N 0.16695(16) 0.3853(5) 0.48029(18)
C1 C 0.28136(16) 1.1067(5) 0.37464(16)
H1 H 0.29524 1.09558 0.40591
C2 C 0.30784(14) 1.1453(4) 0.35223(15)
C3 C 0.23429(15) 1.0853(5) 0.34985(15)
C4 C 0.17429(16) 1.2067(5) 0.13774(15)
C5 C 0.21711(16) 1.1666(5) 0.23121(16)
C6 C 0.15085(18) 1.2327(5) 0.08780(16)
C7 C 0.20537(16) 1.0501(5) 0.37418(15)
C8 C 0.28657(15) 1.1637(5) 0.30618(16)
H2 H 0.30422 1.18792 0.29128
C9 C 0.23789(16) 1.1463(5) 0.28064(15)
O3 O 0.1362(2) 0.8429(6) 0.46634(18)
C10 C 0.21368(15) 1.1079(5) 0.30422(15)
H3 H 0.18190 1.09666 0.28846
C11 C 0.45366(16) 1.1969(5) 0.42792(17)
C12 C 0.35858(14) 1.1642(5) 0.37890(16)
C13 C 0.15474(17) 0.9799(6) 0.42050(19)
C14 C 0.22068(18) 0.9531(6) 0.40612(16)
H4 H 0.24838 0.91164 0.41206
C15 C 0.16327(18) 0.5022(5) 0.49420(16)
H5 H 0.18848 0.55267 0.51231
O4 O 0.0930(2) 1.0154(5) 0.4415(2)
C16 C 0.38434(15) 1.0871(5) 0.41659(16)
H6 H 0.36959 1.02321 0.42532
C17 C 0.43014(16) 1.1044(5) 0.44030(18)
H7 H 0.44642 1.05325 0.46557
C18 C 0.50549(18) 1.2138(6) 0.4550(2)
C19 C 0.23084(19) 1.2584(5) 0.21181(18)
H8 H 0.25572 1.30973 0.23007
C20 C 0.2607(2) 0.1406(6) 0.5277(2)
C21 C 0.2195(2) 0.2072(5) 0.5181(2)
C22 C 0.2096(2) 1.2820(6) 0.16495(16)
H9 H 0.21984 1.34899 0.15281
C23 C 0.1282(2) 0.9408(7) 0.4462(2)
C24 C 0.20889(19) 0.3157(6) 0.4911(2)
C25 C 0.15865(19) 1.1105(6) 0.15661(17)
H10 H 0.13327 1.06086 0.13835
C26 C 0.16468(19) 1.1083(6) 0.3652(2)
H11 H 0.15343 1.17165 0.34301
C27 C 0.38196(18) 1.2534(5) 0.3663(2)
H12 H 0.36608 1.30310 0.34050
C28 C 0.18105(19) 1.0879(6) 0.20324(16)
H13 H 0.17171 1.01961 0.21565
C29 C 0.1391(2) 1.0737(7) 0.3894(2)
H14 H 0.11159 1.11589 0.38378
O5 O 0.5276(3) 1.1168(10) 0.4697(4)
C30 C 0.1951(2) 0.9152(7) 0.4301(2)
H15 H 0.20530 0.84923 0.45136
C31 C 0.4290(2) 1.2706(7) 0.3914(3)
H16 H 0.44404 1.33431 0.38287
C32 C 0.0950(2) 0.4366(7) 0.4562(3)
H17 H 0.06290 0.43608 0.44174
C33 C 0.2682(3) 0.0308(8) 0.5578(3)
H18 H 0.29670 -0.00988 0.56734
C34 C 0.1893(3) 0.1603(7) 0.5366(3)
H19 H 0.16175 0.20390 0.52963
C35 C 0.2423(4) -0.0148(8) 0.5720(3)
H20 H 0.24921 -0.09219 0.58786
C36 C 0.1216(3) 0.3355(8) 0.4562(3)
H21 H 0.11241 0.25415 0.44356
O6 O 0.5207(3) 1.3320(9) 0.4670(3)
C37 C 0.1990(4) 0.0567(9) 0.5633(4)
H22 H 0.17960 0.03025 0.57596
Na1 Na 0.50000 1.50000 0.50000
O7? O 0.5260(2) 1.2826(10) 0.4380(4)
O8? O 0.5270(3) 1.1589(12) 0.4912(4)
N1F N 0.37944(15) -0.0391(5) 0.52015(16)
N2F N 0.33305(16) 0.1147(5) 0.51971(18)
C15F C 0.33673(18) -0.0022(5) 0.50580(16)
H5F H 0.31152 -0.05267 0.48769
C20F C 0.2393(2) 0.3594(6) 0.4723(2)
C21F C 0.2805(2) 0.2928(5) 0.4819(2)
C24F C 0.29111(19) 0.1843(6) 0.5089(2)
C32F C 0.4050(2) 0.0634(7) 0.5438(3)
H17F H 0.43710 0.06392 0.55826
C33F C 0.2318(3) 0.4692(8) 0.4422(3)
H18F H 0.20330 0.50988 0.43266
C34F C 0.3107(3) 0.3397(7) 0.4634(3)
H19F H 0.33825 0.29610 0.47037
C35F C 0.2577(4) 0.5148(8) 0.4280(3)
H20F H 0.25079 0.59219 0.41214
C36F C 0.3784(3) 0.1645(8) 0.5438(3)
H21F H 0.38759 0.24585 0.55644
C37F C 0.3010(4) 0.4433(9) 0.4367(4)
H22F H 0.32040 0.46975 0.42404
Cd1F Cd 0.40063(2) -0.23165(3) 0.50384(2)
O1F O 0.33208(14) -0.8079(4) 0.93056(13)
O2F O 0.38638(14) -0.6745(5) 0.93624(12)
C1F C 0.21864(16) -0.6067(5) 0.62536(16)
H1F H 0.20476 -0.59558 0.59409
C2F C 0.19216(14) -0.6453(4) 0.64777(15)
C3F C 0.26571(15) -0.5853(5) 0.65015(15)
C4F C 0.32571(16) -0.7067(5) 0.86226(15)
C5F C 0.28289(16) -0.6666(5) 0.76879(16)
C6F C 0.34915(18) -0.7327(5) 0.91220(16)
C7F C 0.29463(16) -0.5501(5) 0.62582(15)
C8F C 0.21343(15) -0.6637(5) 0.69382(16)
H2F H 0.19578 -0.68792 0.70872
C9F C 0.26211(16) -0.6463(5) 0.71936(15)
O3F O 0.3638(2) -0.3429(6) 0.53366(18)
C10F C 0.28632(15) -0.6079(5) 0.69578(15)
H3F H 0.31810 -0.59666 0.71154
C11F C 0.04634(16) -0.6969(5) 0.57208(17)
C12F C 0.14142(14) -0.6642(5) 0.62110(16)
C13F C 0.34526(17) -0.4799(6) 0.57950(19)
C14F C 0.27932(18) -0.4531(6) 0.59388(16)
H4F H 0.25162 -0.41164 0.58794
O4F O 0.4070(2) -0.5154(5) 0.5585(2)
C16F C 0.11566(15) -0.5871(5) 0.58341(16)
H6F H 0.13041 -0.52321 0.57468
C17F C 0.06986(16) -0.6044(5) 0.55970(18)
H7F H 0.05358 -0.55325 0.53443
C18F C -0.00549(18) -0.7138(6) 0.5450(2)
C19F C 0.26916(19) -0.7584(5) 0.78819(18)
H8F H 0.24428 -0.80973 0.76993
C22F C 0.2904(2) -0.7820(6) 0.83505(16)
H9F H 0.28016 -0.84899 0.84719
C23F C 0.3718(2) -0.4408(7) 0.5538(2)
C25F C 0.34135(19) -0.6105(6) 0.84339(17)
H10F H 0.36673 -0.56086 0.86165
C26F C 0.33532(19) -0.6083(6) 0.6348(2)
H11F H 0.34657 -0.67165 0.65699
C27F C 0.11804(18) -0.7534(5) 0.6337(2)
H12F H 0.13392 -0.80310 0.65950
C28F C 0.31895(19) -0.5879(6) 0.79676(16)
H13F H 0.32829 -0.51961 0.78435
C29F C 0.3609(2) -0.5737(7) 0.6106(2)
H14F H 0.38841 -0.61589 0.61622
O5F O -0.0276(3) -0.6168(10) 0.5303(4)
C30F C 0.3049(2) -0.4152(7) 0.5699(2)
H15F H 0.29470 -0.34923 0.54864
C31F C 0.0710(2) -0.7706(7) 0.6086(3)
H16F H 0.05596 -0.83431 0.61713
O6F O -0.0207(3) -0.8320(9) 0.5330(3)
Cd1B Cd 0.59937(2) 1.23165(3) 0.49616(2)
Cd1C Cd 0.40063(2) -0.76835(3) 1.00384(2)
Cd1D Cd -0.09937(2) -0.73165(3) 0.50384(2)
Cd1E Cd 0.09937(2) 1.26835(3) -0.00384(2)
O1C O 0.33208(14) -0.1921(4) 0.43056(13)
O1E O 0.16792(14) 0.6921(4) 0.56944(13)
O2C O 0.38638(14) -0.3255(5) 0.43624(12)
O2E O 0.11362(14) 0.8255(5) 0.56376(12)
O5B O 0.0276(3) 0.6168(10) 0.4697(4)
O5D O 0.4724(3) -0.1168(10) 0.5303(4)
O6B O 0.0207(3) 0.8320(9) 0.4670(3)
O6D O 0.4793(3) -0.3320(9) 0.5330(3)
#END
