
#######################################################################
#
#                 Cambridge Crystallographic Data Centre
#                                CCDC
#
#######################################################################
#
# If this CIF has been generated from an entry in the Cambridge
# Structural Database, then it will include bibliographic, chemical,
# crystal, experimental, refinement or atomic coordinate data resulting
# from the CCDC's data processing and validation procedures.
#
#######################################################################

data_CSD_CIF_KUYLUO
_audit_creation_date 2020-11-03
_audit_creation_method CSD-ConQuest-V1
_database_code_CSD KUYLUO
_database_code_depnum_ccdc_archive 'CCDC 1991208'
_chemical_formula_sum 'C16 H16 Cl4 N2 O8 Pb1'
_chemical_formula_moiety
;
(C12 Cl4 O8 Pb1 2-)n,2(C2 H8 N1 1+)
;
_journal_coden_Cambridge 179
_journal_volume 59
_journal_year 2020
_journal_page_first 11856
_journal_name_full 'Angew.Chem.,Int.Ed. '
loop_
_publ_author_name
"Chengyu Liang"
"Shitong Zhang"
"Liwei Cheng"
"Jian Xie"
"Fuwan Zhai"
"Yihui He"
"Yaxing Wang"
"Zhifang Chai"
"Shuao Wang"
_chemical_name_systematic
;
catena-[bis(dimethylammonium) 
bis(\m-2,5-dichloro-3,6-dioxocyclohexa-1,4-diene-1,4-bis(olato))-lead]
;
_cell_volume   2322.834
_exptl_crystal_colour 'dark brown'
_exptl_crystal_density_diffrn 2.04
_exptl_crystal_description 'Block'
_diffrn_ambient_temperature 298
#These two values have been output from a single CSD field.
_refine_ls_R_factor_gt 0.0147
_refine_ls_wR_factor_gt 0.0147
_symmetry_cell_setting tetragonal
_symmetry_space_group_name_H-M 'I 41/a'
_symmetry_Int_Tables_number 88
loop_
_symmetry_equiv_pos_site_id
_symmetry_equiv_pos_as_xyz
1 x,y,z
2 1/2-x,-y,1/2+z
3 3/4-y,1/4+x,1/4+z
4 3/4+y,3/4-x,3/4+z
5 1/2+x,1/2+y,1/2+z
6 -x,1/2-y,z
7 1/4-y,3/4+x,3/4+z
8 1/4+y,1/4-x,1/4+z
9 -x,-y,-z
10 -1/2+x,y,-1/2-z
11 -3/4+y,-1/4-x,-1/4-z
12 -3/4-y,-3/4+x,-3/4-z
13 -1/2-x,-1/2-y,-1/2-z
14 x,-1/2+y,-z
15 -1/4+y,-3/4-x,-3/4-z
16 -1/4-y,-1/4+x,-1/4-z
_cell_length_a 8.7771(10)
_cell_length_b 8.7771(10)
_cell_length_c 30.152(7)
_cell_angle_alpha 90
_cell_angle_beta 90
_cell_angle_gamma 90
_cell_formula_units_Z 4
loop_
_atom_type_symbol
_atom_type_radius_bond
C 0.68
H 0.23
Cl 0.99
N 0.68
O 0.68
Pb 1.46
loop_
_atom_site_label
_atom_site_type_symbol
_atom_site_fract_x
_atom_site_fract_y
_atom_site_fract_z
Pb1 Pb 0.50000 0.75000 0.62500
Cl1 Cl 0.23890(8) 0.28442(7) 0.53704(2)
O1 O 0.33609(18) 0.3302(2) 0.44369(5)
O2 O 0.4456(2) 0.49064(19) 0.58834(5)
C1 C 0.3812(2) 0.4039(2) 0.51713(7)
C2 C 0.4075(2) 0.4072(2) 0.47119(7)
C3 C 0.4649(3) 0.4891(2) 0.54661(7)
N1 N 0.50000 0.25000 0.64679(11)
H1 H 0.52169 0.17116 0.62933
C4 C 0.6358(4) 0.2874(4) 0.67294(11)
H2 H 0.72023 0.30422 0.65332
H3 H 0.65891 0.20455 0.69260
H4 H 0.61718 0.37798 0.68996
Cl1H Cl 0.76110(8) 0.71558(7) 0.46296(2)
O1H O 0.66391(18) 0.6698(2) 0.55631(5)
O2H O 0.5544(2) 0.50936(19) 0.41166(5)
C1H C 0.6188(2) 0.5961(2) 0.48287(7)
C2H C 0.5925(2) 0.5928(2) 0.52881(7)
C3H C 0.5351(3) 0.5109(2) 0.45339(7)
Cl1E Cl 0.76110(8) 1.21558(7) 0.53704(2)
O1E O 0.66391(18) 1.1698(2) 0.44369(5)
O2E O 0.5544(2) 1.00936(19) 0.58834(5)
C1E C 0.6188(2) 1.0961(2) 0.51713(7)
C2E C 0.5925(2) 1.0928(2) 0.47119(7)
C3E C 0.5351(3) 1.0109(2) 0.54661(7)
Cl1M Cl 0.23890(8) 0.78442(7) 0.46296(2)
O1M O 0.33609(18) 0.8302(2) 0.55631(5)
O2M O 0.4456(2) 0.99064(19) 0.41166(5)
C1M C 0.3812(2) 0.9039(2) 0.48287(7)
C2M C 0.4075(2) 0.9072(2) 0.52881(7)
C3M C 0.4649(3) 0.9891(2) 0.45339(7)
Pb1C Pb 0.50000 0.25000 0.37500
Pb1C* Pb 0.50000 1.25000 0.37500
O1B O 0.41980(18) 0.58609(20) 0.69369(5)
O1G O 0.58020(18) 0.91391(20) 0.69369(5)
O2K O 0.75936(20) 0.69560(19) 0.66166(5)
O2N O 0.24064(20) 0.80440(19) 0.66166(5)
H1E H 0.47831 0.32884 0.62933
C4E C 0.3642(4) 0.2126(4) 0.67294(11)
H2E H 0.27977 0.19578 0.65332
H3E H 0.34109 0.29545 0.69260
H4E H 0.38282 0.12202 0.68996
#END
