
#######################################################################
#
#                 Cambridge Crystallographic Data Centre
#                                CCDC
#
#######################################################################
#
# If this CIF has been generated from an entry in the Cambridge
# Structural Database, then it will include bibliographic, chemical,
# crystal, experimental, refinement or atomic coordinate data resulting
# from the CCDC's data processing and validation procedures.
#
#######################################################################

data_CSD_CIF_KUZHUI
_audit_creation_date 1993-07-09
_audit_creation_method CSD-ConQuest-V1
_database_code_CSD KUZHUI
_chemical_formula_sum 'C14 H26 Cl8 Cu3 Mg1 N2 O5'
_chemical_formula_moiety
;
(C14 H26 Mg1 N2 O5 2+)n,n(Cl8 Cu3 2-)
;
_journal_coden_Cambridge 580
_journal_volume 11
_journal_year 1992
_journal_page_first 1929
_journal_name_full 'Polyhedron '
loop_
_publ_author_name
"T.B.Rubtsova"
"O.K.Kireeva"
"B.M.Bulychev"
"N.P.Streltsova"
"V.K.Belsky"
"B.P.Tarasov"
_chemical_name_systematic
;
catena-(bis(Acetonitrile)-(15-crown-5)-magnesium 
bis(tetrakis(\m~2~-chloro)-chloro-copper)-copper)
;
_cell_volume    719.414
_exptl_crystal_density_diffrn 1.85
_exptl_special_details
;
Moisture-sensitive

;
_diffrn_ambient_temperature ?
_diffrn_special_details
;
The study was carried out at room temperature,in the range 283-303K

;
_refine_special_details
;
15-crown-5 ligand disordered across inversion centre.

;
#These two values have been output from a single CSD field.
_refine_ls_R_factor_gt 0.084
_refine_ls_wR_factor_gt 0.084
_symmetry_cell_setting triclinic
_symmetry_space_group_name_H-M 'P -1'
_symmetry_Int_Tables_number 2
loop_
_symmetry_equiv_pos_site_id
_symmetry_equiv_pos_as_xyz
1 x,y,z
2 -x,-y,-z
_cell_length_a 9.164(2)
_cell_length_b 9.900(2)
_cell_length_c 9.708(2)
_cell_angle_alpha 122.93(2)
_cell_angle_beta 94.63(2)
_cell_angle_gamma 97.87(2)
_cell_formula_units_Z 1
loop_
_atom_type_symbol
_atom_type_radius_bond
C 0.68
Cl 0.99
Cu 1.40
Mg 1.10
N 0.68
O 0.68
loop_
_atom_site_label
_atom_site_type_symbol
_atom_site_fract_x
_atom_site_fract_y
_atom_site_fract_z
Cu1 Cu 0.0021(2) 0.3569(1) 0.2975(1)
Cu2 Cu 0.00000 0.00000 0.00000
Cl1 Cl 0.0015(3) 0.0778(3) 0.2652(3)
Cl2 Cl -0.1696(3) 0.5466(4) 0.4637(5)
Cl3 Cl 0.1823(6) 0.2998(8) 0.1391(6)
Cl4 Cl -0.1748(7) 0.2226(7) 0.0630(5)
Mg1 Mg 0.50000 0.00000 0.50000
N1 N 0.2718(14) -0.1300(17) 0.3902(15)
C1 C 0.1532(14) -0.1989(14) 0.3307(14)
C2 C 0.0023(24) -0.2933(25) 0.2515(29)
O1 O 0.4970(21) -0.0019(23) 0.7207(20)
O2 O 0.5731(21) -0.1981(18) 0.4566(22)
O3 O 0.5481(10) -0.0965(23) 0.2653(18)
O4 O 0.5081(16) -0.1947(22) 0.5640(18)
O5 O 0.5721(19) -0.2416(20) 0.2843(19)
C3 C 0.5449(42) -0.1405(46) 0.7171(49)
C4 C 0.5531(43) -0.2826(47) 0.5329(46)
C5 C 0.5906(28) -0.3099(31) 0.2921(32)
C6 C 0.6375(34) -0.2180(36) 0.2124(38)
C7 C 0.4178(29) 0.0015(34) 0.8053(32)
C8 C 0.5097(25) -0.1070(27) 0.7462(28)
C9 C 0.6038(35) -0.3176(38) 0.4744(39)
C10 C 0.5544(35) -0.3745(41) 0.3041(37)
C11 C 0.5475(32) -0.2731(35) 0.1328(35)
C12 C 0.4282(33) 0.1133(40) 0.8605(38)
Cl2A Cl 0.1696(3) 0.4534(4) 0.5363(5)
Cl1A Cl -0.0015(3) -0.0778(3) -0.2652(3)
Cl3A Cl -0.1823(6) -0.2998(8) -0.1391(6)
Cl4A Cl 0.1748(7) -0.2226(7) -0.0630(5)
Cu1A Cu -0.0021(2) -0.3569(1) -0.2975(1)
Cu1A* Cu -0.0021(2) 0.6431(1) 0.7025(1)
N1A N 0.7282(14) 0.1300(17) 0.6098(15)
O1A O 0.5030(21) 0.0019(23) 0.2793(20)
O2A O 0.4269(21) 0.1981(18) 0.5434(22)
O3A O 0.4519(10) 0.0965(23) 0.7347(18)
C7A C 0.5822(29) -0.0015(34) 0.1947(32)
C12A C 0.5718(33) -0.1133(40) 0.1395(38)
C6A C 0.3625(34) 0.2180(36) 0.7876(38)
C11A C 0.4525(32) 0.2731(35) 0.8672(35)
C1A C 0.8468(14) 0.1989(14) 0.6693(14)
O4A O 0.4919(16) 0.1947(22) 0.4360(18)
C3A C 0.4551(42) 0.1405(46) 0.2829(49)
C8A C 0.4903(25) 0.1070(27) 0.2538(28)
O5A O 0.4279(19) 0.2416(20) 0.7157(19)
C4A C 0.4469(43) 0.2826(47) 0.4671(46)
C5A C 0.4094(28) 0.3099(31) 0.7079(32)
C9A C 0.3962(35) 0.3176(38) 0.5256(39)
C10A C 0.4456(35) 0.3745(41) 0.6959(37)
C2A C 0.9977(24) 0.2933(25) 0.7485(29)
Cl2* Cl -0.1696(3) -0.4534(4) -0.5363(5)
Cl2A* Cl 0.1696(3) -0.5466(4) -0.4637(5)
#END
