
#######################################################################
#
#                 Cambridge Crystallographic Data Centre
#                                CCDC
#
#######################################################################
#
# If this CIF has been generated from an entry in the Cambridge
# Structural Database, then it will include bibliographic, chemical,
# crystal, experimental, refinement or atomic coordinate data resulting
# from the CCDC's data processing and validation procedures.
#
#######################################################################

data_CSD_CIF_KUZZAI
_audit_creation_date 2016-01-19
_audit_creation_method CSD-ConQuest-V1
_database_code_CSD KUZZAI
_database_code_depnum_ccdc_archive 'CCDC 1448250'
_chemical_formula_sum 'C59 H57 N13 O11 Zn2'
_chemical_formula_moiety
;
(C49 H30 N9 O8 Zn2 1-)n,n(C2 H8 N1 1+),n(C4 H9 N1 O1),2n(C2 H5 N1 O1)
;
_journal_coden_Cambridge 1078
_journal_year 2016
_journal_name_full 'CSD Communication(Private Communication) '
loop_
_publ_author_name
"Chen Di Ming"
_chemical_name_systematic
;
catena-[dimethylammonium 
(\m-5-aminotetrazolato)-bis(\m-4,4'-((4,4'-bipyridine)-2,6-diyl)dibenzoato)-di
-zinc N,N-dimethylacetamide N-methylformamide solvate]
;
_cell_volume   3039.053
_diffrn_ambient_temperature 293
_refine_special_details
;
Disordered N,N-dimethylacetamide and N-methylformamide solvent molecules were 
not modelled and the disordered density was taken into account using the 
SQUEEZE/PLATON procedure.
;
#These two values have been output from a single CSD field.
_refine_ls_R_factor_gt 0.0833
_refine_ls_wR_factor_gt 0.0833
_symmetry_cell_setting triclinic
_symmetry_space_group_name_H-M 'P -1'
_symmetry_Int_Tables_number 2
loop_
_symmetry_equiv_pos_site_id
_symmetry_equiv_pos_as_xyz
1 x,y,z
2 -x,-y,-z
_cell_length_a 15.5285(7)
_cell_length_b 15.7542(7)
_cell_length_c 15.8691(7)
_cell_angle_alpha 107.604(4)
_cell_angle_beta 109.573(4)
_cell_angle_gamma 109.808(4)
_cell_formula_units_Z 2
loop_
_atom_type_symbol
_atom_type_radius_bond
C 0.68
H 0.23
N 0.68
O 0.68
Zn 1.22
loop_
_atom_site_label
_atom_site_type_symbol
_atom_site_fract_x
_atom_site_fract_y
_atom_site_fract_z
Zn1 Zn 1.04769(5) 1.30589(4) -0.07109(4)
Zn2 Zn 0.40677(5) 0.25939(5) -0.11686(4)
O1 O 0.5381(3) 0.3248(3) 0.0093(3)
C1 C 0.3116(6) 0.5918(4) -0.6975(4)
H1 H 0.32410 0.64100 -0.71940
O2 O 0.9248(3) 1.1721(3) -0.1403(3)
O3 O 1.0260(3) 1.1299(3) -0.0467(3)
O4 O 0.1913(5) 0.5243(4) -0.9051(3)
C2 C 0.3761(5) 0.6179(4) -0.5987(4)
H2 H 0.43100 0.68450 -0.55530
C3 C 0.2290(4) 0.4941(4) -0.7641(4)
N1 N 0.9942(4) 0.3664(3) 0.8377(3)
C4 C 1.0746(7) 0.7953(6) 0.5831(7)
H3 H 1.01150 0.75920 0.52280
O5 O 0.4339(4) 0.2297(4) 0.0478(3)
C5 C 0.2128(4) 0.4237(4) -0.7278(4)
H4 H 0.15710 0.35750 -0.77120
C6 C 0.8627(4) 0.9295(4) -0.1375(4)
H5 H 0.92730 0.94590 -0.08790
C7 C 0.2751(4) 0.4479(4) -0.6314(4)
H6 H 0.26130 0.39860 -0.60990
N2 N 0.4571(3) 0.3432(3) -0.1847(3)
C8 C 0.9550(4) 0.4988(4) 0.6384(4)
C9 C 0.7006(5) 0.4378(4) 0.2137(4)
H7 H 0.70660 0.46790 0.17230
C10 C 1.1334(6) 0.8895(6) 0.6115(8)
H8 H 1.11070 0.92060 0.57440
C11 C 0.7791(4) 0.4835(4) 0.3105(4)
H9 H 0.83770 0.54520 0.33420
N3 N 0.9366(3) 0.5879(3) 0.5118(3)
C12 C 0.7751(4) 0.4418(4) 0.3746(4)
N4 N 0.2344(4) 0.2231(5) -0.0171(5)
H10 H 0.28250 0.20670 0.00090
H11 H 0.18560 0.20590 -0.00120
N5 N 0.5210(3) 0.6691(3) -0.4078(3)
C13 C 0.7790(4) 0.8325(4) -0.1851(4)
H12 H 0.78750 0.78490 -0.16510
O6 O 0.0920(3) 0.3729(3) -0.9287(3)
C14 C 0.6103(4) 0.3452(4) 0.1759(4)
C15 C 0.3609(4) 0.5471(4) -0.5632(3)
C16 C 1.0987(5) 0.7430(4) 0.6363(4)
C17 C 0.4867(4) 0.4706(4) -0.2739(4)
C18 C 0.6829(4) 0.8036(4) -0.2616(4)
C19 C 0.5846(4) 0.6356(3) -0.2696(4)
H13 H 0.63570 0.65900 -0.20400
N6 N 0.2051(5) 0.3716(6) -0.1332(6)
C20 C 1.1977(5) 0.7933(4) 0.7185(5)
H14 H 1.22000 0.76020 0.75330
C21 C 0.4990(4) 0.5381(4) -0.3220(4)
N7 N 0.2853(6) 0.3677(6) -0.1375(6)
C22 C 0.6043(4) 0.3030(4) 0.2397(4)
H15 H 0.54490 0.24210 0.21640
C23 C 0.6851(4) 0.3496(4) 0.3377(4)
H16 H 0.67970 0.31970 0.37940
C24 C 0.5938(4) 0.6983(4) -0.3153(4)
C25 C 0.7532(4) 0.9742(4) -0.2405(5)
H17 H 0.74400 1.02170 -0.26030
C26 C 0.9660(4) 0.4521(4) 0.7079(4)
C27 C 0.8639(4) 0.4943(4) 0.4806(4)
C28 C 0.5366(4) 0.5079(4) -0.1704(4)
H18 H 0.58180 0.57760 -0.12810
C29 C 0.6724(5) 0.8794(4) -0.2867(5)
H19 H 0.60800 0.86330 -0.33640
C30 C 1.2352(8) 0.9475(5) 0.7016(8)
C31 C 0.1672(5) 0.4628(5) -0.8750(4)
C32 C 0.8692(4) 0.4463(4) 0.5421(4)
H20 H 0.81650 0.38080 0.51880
C33 C 0.8503(4) 1.0036(4) -0.1641(4)
C34 C 0.4237(6) 0.3652(4) -0.3313(4)
H21 H 0.39000 0.33550 -0.40160
C35 C 0.9326(5) 0.3492(4) 0.6722(4)
H22 H 0.89950 0.30620 0.60300
C36 C 0.4367(4) 0.5743(4) -0.4601(3)
C37 C 0.5196(5) 0.4422(4) -0.1294(4)
H23 H 0.55400 0.46930 -0.05930
N8 N 0.3056(4) 0.3053(4) -0.0981(4)
C38 C 1.0119(5) 0.5080(4) 0.8099(4)
H24 H 1.03470 0.57780 0.83770
C39 C 1.0257(5) 0.4657(4) 0.8725(4)
H25 H 1.05810 0.50730 0.94200
C40 C 1.0292(4) 0.5950(4) 0.6701(3)
H26 H 1.08610 0.63180 0.73530
C41 C 0.5215(5) 0.2965(5) 0.0720(4)
C42 C 0.4243(4) 0.5081(4) -0.4191(4)
H27 H 0.36580 0.44330 -0.45650
C43 C 0.9415(5) 1.1079(4) -0.1130(4)
C44 C 1.0207(4) 0.6390(4) 0.6057(4)
N9 N 0.1707(4) 0.3136(4) -0.0908(4)
C45 C 1.2652(6) 0.8977(5) 0.7490(5)
H28 H 1.33240 0.93190 0.80390
C46 C 0.9485(6) 0.3109(4) 0.7389(4)
H29 H 0.92570 0.24120 0.71300
C47 C 0.4111(6) 0.3057(4) -0.2857(4)
H30 H 0.36850 0.23540 -0.32620
C48 C 0.2352(4) 0.2752(5) -0.0698(4)
O7 O 1.3786(6) 1.1053(5) 0.8171(5)
C49 C 1.2914(6) 1.0512(4) 0.7329(6)
O8 O 1.2603(7) 1.0989(7) 0.6873(8)
C50 C 1.2195(6) 0.7667(5) 0.9485(5)
H31 H 1.21480 0.73060 0.88490
H32 H 1.15720 0.72790 0.94930
H33 H 1.27950 0.77610 1.00260
C51 C 1.1235(13) 0.8576(12) 0.9132(10)
H34 H 1.12650 0.90300 0.88390
H35 H 1.10270 0.87560 0.96360
H36 H 1.07340 0.78860 0.86120
N10 N 1.2302(10) 0.8666(8) 0.9617(8)
H37 H 1.26370 0.90620 1.03470
H38 H 1.27760 0.89450 0.93810
Zn1* Zn 0.04769(5) 0.30589(4) -1.07109(4)
Zn1** Zn 0.04769(5) 0.30589(4) -0.07109(4)
Zn1*** Zn 1.04769(5) 0.30589(4) 0.92891(4)
Zn2* Zn 1.40677(5) 1.25939(5) 0.88314(4)
N1* N 0.9942(4) 1.3664(3) -0.1623(3)
O6* O 1.0920(3) 1.3729(3) 0.0713(3)
N9* N 1.1707(4) 1.3136(4) -0.0908(4)
O7* O 0.3786(6) 0.1053(5) -0.1829(5)
#END
