
#######################################################################
#
#                 Cambridge Crystallographic Data Centre
#                                CCDC
#
#######################################################################
#
# If this CIF has been generated from an entry in the Cambridge
# Structural Database, then it will include bibliographic, chemical,
# crystal, experimental, refinement or atomic coordinate data resulting
# from the CCDC's data processing and validation procedures.
#
#######################################################################

data_CSD_CIF_LABCUN
_audit_creation_date 2003-07-09
_audit_creation_method CSD-ConQuest-V1
_database_code_CSD LABCUN
_database_code_depnum_ccdc_archive 'CCDC 199493'
_chemical_formula_sum 'C56 H68 N2 O18 Zn1'
_chemical_formula_moiety
;
(C44 H24 O12 Zn1 2-)n,2n(C5 H14 N1 1+),2n(C1 H4 O1),4n(H2 O1)
;
_journal_coden_Cambridge 182
_journal_year 2003
_journal_page_first 994
_journal_name_full 'Chem.Commun. '
loop_
_publ_author_name
"Yong Cui"
"H.L.Ngo"
"P.S.White"
"Wenbin Lin"
_chemical_name_systematic
;
catena-(bis(Diethyl(methyl)ammonium) 
bis(\m~2~-(S)-2,2'-dihydroxy-1,1'-binaphthalene-6,6'-dicarboxylato)-zinc(ii) 
bis(methanol) tetrahydrate clathrate)
;
_cell_volume   3087.652
_exptl_crystal_density_diffrn 1.19
_diffrn_ambient_temperature 293
_refine_special_details
;
Cations and methanol solvent molecules have symmetry-imposed disorder.

;
#These two values have been output from a single CSD field.
_refine_ls_R_factor_gt 0.0981
_refine_ls_wR_factor_gt 0.0981
_symmetry_cell_setting tetragonal
_symmetry_space_group_name_H-M 'P 42 21 2'
_symmetry_Int_Tables_number 94
loop_
_symmetry_equiv_pos_site_id
_symmetry_equiv_pos_as_xyz
1 x,y,z
2 -x,-y,z
3 1/2-y,1/2+x,1/2+z
4 1/2+y,1/2-x,1/2+z
5 1/2-x,1/2+y,1/2-z
6 1/2+x,1/2-y,1/2-z
7 y,x,-z
8 -y,-x,-z
_cell_length_a 11.7385(17)
_cell_length_b 11.7385(17)
_cell_length_c 22.408(5)
_cell_angle_alpha 90
_cell_angle_beta 90
_cell_angle_gamma 90
_cell_formula_units_Z 2
loop_
_atom_type_symbol
_atom_type_radius_bond
C 0.68
H 0.23
N 0.68
O 0.68
Zn 1.45
loop_
_atom_site_label
_atom_site_type_symbol
_atom_site_fract_x
_atom_site_fract_y
_atom_site_fract_z
Zn1 Zn 0.00000 0.00000 0.00000
O1 O 0.0022(7) 0.1290(5) 0.0553(2)
O2 O -0.1754(6) 0.0787(6) 0.0805(3)
O3 O -0.1269(6) 0.5417(5) 0.3686(3)
C1 C -0.0499(8) 0.4585(7) 0.2809(4)
C2 C -0.1362(8) 0.4642(7) 0.3226(4)
C3 C -0.2336(9) 0.3938(9) 0.3193(4)
H1 H -0.29000 0.39630 0.34850
C4 C -0.2413(9) 0.3219(9) 0.2714(5)
H2 H -0.30730 0.27890 0.26700
C5 C -0.1654(9) 0.2338(9) 0.1791(4)
H3 H -0.23140 0.19070 0.17490
C6 C -0.0807(9) 0.2228(8) 0.1374(4)
C7 C 0.0162(11) 0.2898(7) 0.1443(4)
H4 H 0.07500 0.28100 0.11690
C8 C 0.0299(8) 0.3670(8) 0.1886(4)
H5 H 0.09500 0.41200 0.19020
C9 C -0.0576(8) 0.3786(7) 0.2331(4)
C10 C -0.1553(9) 0.3096(8) 0.2288(4)
C11 C -0.0877(9) 0.1386(8) 0.0875(4)
N1 N 0.4360(15) 0.4133(15) 0.1596(8)
C12 C 0.500(3) 0.3139(19) 0.1342(13)
C13 C 0.552(6) 0.350(6) 0.074(2)
C14 C 0.321(2) 0.458(2) 0.1443(13)
C15 C 0.277(3) 0.382(3) 0.0959(16)
C16 C 0.470(2) 0.458(2) 0.2205(10)
C17 C 0.50000 0.00000 -0.0222(14)
O4 O 0.5068(15) 0.0954(13) 0.0277(7)
O5 O 0.2767(16) 0.1573(16) 0.0328(8)
C1A C 0.0499(8) 0.5415(7) 0.2809(4)
C2A C 0.1362(8) 0.5358(7) 0.3226(4)
O3A O 0.1269(6) 0.4583(5) 0.3686(3)
C3A C 0.2336(9) 0.6062(9) 0.3193(4)
H1A H 0.29000 0.60370 0.34850
C4A C 0.2413(9) 0.6781(9) 0.2714(5)
H2A H 0.30730 0.72110 0.26700
C10A C 0.1553(9) 0.6904(8) 0.2288(4)
C5A C 0.1654(9) 0.7662(9) 0.1791(4)
H3A H 0.23140 0.80930 0.17490
C6A C 0.0807(9) 0.7772(8) 0.1374(4)
C7A C -0.0162(11) 0.7102(7) 0.1443(4)
H4A H -0.07500 0.71900 0.11690
C8A C -0.0299(8) 0.6330(8) 0.1886(4)
H5A H -0.09500 0.58800 0.19020
C9A C 0.0576(8) 0.6214(7) 0.2331(4)
C11A C 0.0877(9) 0.8614(8) 0.0875(4)
O1A O -0.0022(7) 0.8710(5) 0.0553(2)
O2A O 0.1754(6) 0.9213(6) 0.0805(3)
C16A C 0.530(2) 0.542(2) 0.2205(10)
N1A N 0.5640(15) 0.5867(15) 0.1596(8)
C12A C 0.500(3) 0.6861(19) 0.1342(13)
C13A C 0.448(6) 0.650(6) 0.074(2)
C14A C 0.679(2) 0.542(2) 0.1443(13)
C15A C 0.723(3) 0.618(3) 0.0959(16)
O4A O 0.4932(15) -0.0954(13) 0.0277(7)
O1A* O -0.0022(7) -0.1290(5) 0.0553(2)
O2A* O 0.1754(6) -0.0787(6) 0.0805(3)
O3A* O 0.1269(6) -0.5417(5) 0.3686(3)
C1A* C 0.0499(8) -0.4585(7) 0.2809(4)
C2A* C 0.1362(8) -0.4642(7) 0.3226(4)
C3A* C 0.2336(9) -0.3938(9) 0.3193(4)
H1A* H 0.29000 -0.39630 0.34850
C4A* C 0.2413(9) -0.3219(9) 0.2714(5)
H2A* H 0.30730 -0.27890 0.26700
C5A* C 0.1654(9) -0.2338(9) 0.1791(4)
H3A* H 0.23140 -0.19070 0.17490
C6A* C 0.0807(9) -0.2228(8) 0.1374(4)
C7A* C -0.0162(11) -0.2898(7) 0.1443(4)
H4A* H -0.07500 -0.28100 0.11690
C8A* C -0.0299(8) -0.3670(8) 0.1886(4)
H5A* H -0.09500 -0.41200 0.19020
C9A* C 0.0576(8) -0.3786(7) 0.2331(4)
C10A* C 0.1553(9) -0.3096(8) 0.2288(4)
C11A* C 0.0877(9) -0.1386(8) 0.0875(4)
C1* C -0.0499(8) -0.5415(7) 0.2809(4)
C2* C -0.1362(8) -0.5358(7) 0.3226(4)
O3* O -0.1269(6) -0.4583(5) 0.3686(3)
C3* C -0.2336(9) -0.6062(9) 0.3193(4)
H1* H -0.29000 -0.60370 0.34850
C4* C -0.2413(9) -0.6781(9) 0.2714(5)
H2* H -0.30730 -0.72110 0.26700
C10* C -0.1553(9) -0.6904(8) 0.2288(4)
C5* C -0.1654(9) -0.7662(9) 0.1791(4)
H3* H -0.23140 -0.80930 0.17490
C6* C -0.0807(9) -0.7772(8) 0.1374(4)
C7* C 0.0162(11) -0.7102(7) 0.1443(4)
H4* H 0.07500 -0.71900 0.11690
C8* C 0.0299(8) -0.6330(8) 0.1886(4)
H5* H 0.09500 -0.58800 0.19020
C9* C -0.0576(8) -0.6214(7) 0.2331(4)
C11* C -0.0877(9) -0.8614(8) 0.0875(4)
O1* O 0.0022(7) -0.8710(5) 0.0553(2)
O2* O -0.1754(6) -0.9213(6) 0.0805(3)
O1F O 0.1290(7) 0.0022(5) -0.0553(2)
O1G O -0.1290(7) -0.0022(5) -0.0553(2)
Zn1* Zn 0.00000 1.00000 0.00000
Zn1** Zn 0.00000 -1.00000 0.00000
#END
