
#######################################################################
#
#                 Cambridge Crystallographic Data Centre
#                                CCDC
#
#######################################################################
#
# If this CIF has been generated from an entry in the Cambridge
# Structural Database, then it will include bibliographic, chemical,
# crystal, experimental, refinement or atomic coordinate data resulting
# from the CCDC's data processing and validation procedures.
#
#######################################################################

data_CSD_CIF_LABRUE
_audit_creation_date 2016-02-15
_audit_creation_method CSD-ConQuest-V1
_database_code_CSD LABRUE
_database_code_depnum_ccdc_archive 'CCDC 1426885'
_chemical_formula_sum 'C69 H54 Co3.5 N3 O17'
_chemical_formula_moiety
;
(C6 H22 Co1 N2 O6 2+)0.5n,n(C66 H41 Co3 N2 O13 1-),n(H2 O1)
;
_journal_coden_Cambridge 179
_journal_volume 55
_journal_year 2016
_journal_page_first 2425
_journal_name_full 'Angew.Chem.,Int.Ed. '
loop_
_publ_author_name
"P.Manna"
"J.Debgupta"
"S.Bose"
"S.K.Das"
_chemical_name_systematic
;
catena-[hemikis(Tetra-aqua-bis(N,N-dimethylformamide)-cobalt(ii)) 
bis(\m~5~-1,3,5-tris(4-carboxylatophenyl)benzene)-(\m~3~-hydroxo)-(\m~2~-1,2-b
is(4-pyridyl)ethene)-tri-cobalt(ii) unknown solvate monohydrate]
;
_chemical_name_common
;
Co-WOC-1
;
_cell_volume  16107.866
_exptl_crystal_colour 'blue'
_exptl_crystal_density_diffrn 1.152
_exptl_crystal_description 'block'
_diffrn_ambient_temperature 100
_refine_special_details
;
The SQUEEZE/PLATON program has been used to model some disorder.

;
#These two values have been output from a single CSD field.
_refine_ls_R_factor_gt 0.0626
_refine_ls_wR_factor_gt 0.0626
_symmetry_cell_setting monoclinic
_symmetry_space_group_name_H-M 'C 2/c'
_symmetry_Int_Tables_number 15
loop_
_symmetry_equiv_pos_site_id
_symmetry_equiv_pos_as_xyz
1 x,y,z
2 -x,y,1/2-z
3 1/2+x,1/2+y,z
4 1/2-x,1/2+y,1/2-z
5 -x,-y,-z
6 x,-y,-1/2+z
7 -1/2-x,-1/2-y,-z
8 -1/2+x,-1/2-y,-1/2+z
_cell_length_a 29.689(3)
_cell_length_b 19.3120(16)
_cell_length_c 29.424(3)
_cell_angle_alpha 90
_cell_angle_beta 107.292(1)
_cell_angle_gamma 90
_cell_formula_units_Z 8
loop_
_atom_type_symbol
_atom_type_radius_bond
C 0.68
H 0.23
Co 1.26
N 0.68
O 0.68
loop_
_atom_site_label
_atom_site_type_symbol
_atom_site_fract_x
_atom_site_fract_y
_atom_site_fract_z
C1 C 0.27789(12) 0.28772(17) 0.29223(12)
C2 C 0.63308(13) -0.07376(19) 0.30891(13)
C3 C 0.39464(13) 0.22310(18) 0.28304(15)
H1 H 0.40560 0.18810 0.26740
C4 C 0.27614(11) 0.14988(17) 0.36293(11)
C5 C 0.20185(13) 0.19424(19) 0.48980(13)
H2 H 0.19530 0.24140 0.48640
C6 C 0.32977(12) 0.28245(17) 0.29942(13)
C7 C 0.61592(12) -0.14136(19) 0.40837(12)
C8 C 0.61120(13) -0.00586(19) 0.31375(13)
C9 C 0.64204(12) -0.20172(18) 0.39748(12)
C10 C 0.47498(13) 0.0929(2) 0.44889(13)
C11 C 0.64063(12) -0.0814(2) 0.42723(13)
H3 H 0.67290 -0.07870 0.43160
C12 C 0.55155(14) 0.3179(2) 0.31970(16)
C13 C 0.34781(13) 0.1411(2) 0.43396(12)
H4 H 0.32960 0.15610 0.45290
C14 C 0.35457(12) 0.10881(18) 0.35749(11)
H5 H 0.34080 0.10070 0.32520
C15 C 0.21955(13) 0.09538(19) 0.54039(13)
C16 C 0.64971(12) 0.57465(18) 0.31489(13)
C17 C 0.32721(12) 0.13205(18) 0.38517(12)
C18 C 0.34667(12) 0.23097(18) 0.27565(14)
H6 H 0.32560 0.20170 0.25470
C19 C 0.50428(14) 0.32160(19) 0.31917(18)
H7 H 0.49030 0.36460 0.31920
C20 C 0.64794(12) 0.21000(18) 0.70140(12)
C21 C 0.56755(13) -0.1441(2) 0.40005(13)
H8 H 0.55080 -0.18330 0.38620
C22 C 0.61731(13) -0.0265(2) 0.43938(13)
H9 H 0.63400 0.01330 0.45210
C23 C 0.42375(12) 0.10700(19) 0.42658(13)
C24 C 0.56911(13) 0.12322(19) 0.31991(15)
C25 C 0.22512(15) -0.0056(2) 0.59315(13)
H10 H 0.22590 -0.03300 0.56740
C26 C 0.20994(14) 0.16486(19) 0.53439(13)
H11 H 0.20890 0.19200 0.56010
C27 C 0.40255(12) 0.09753(19) 0.37782(13)
H12 H 0.42080 0.08350 0.35870
C28 C 0.47815(13) 0.2621(2) 0.31856(16)
C29 C 0.42670(13) 0.26762(18) 0.31400(15)
C30 C 0.49970(13) 0.19792(19) 0.31979(17)
H13 H 0.48240 0.15790 0.32030
C31 C 0.36195(13) 0.32596(19) 0.33109(16)
H14 H 0.35110 0.35980 0.34770
C32 C 0.22420(13) 0.0616(2) 0.58667(12)
H15 H 0.22660 0.08990 0.61290
C33 C 0.22507(13) -0.0418(2) 0.63680(13)
C34 C 0.49991(13) 0.1265(2) 0.49051(13)
H16 H 0.48520 0.16120 0.50290
C35 C 0.57187(13) 0.25299(19) 0.31979(15)
H17 H 0.60300 0.25020 0.31950
C36 C 0.57249(13) 0.1378(2) 0.56131(14)
C37 C 0.39533(13) 0.1278(2) 0.45424(13)
H18 H 0.40860 0.13290 0.48690
C38 C 0.62161(13) 0.1862(2) 0.65196(13)
C39 C 0.54703(13) 0.19242(19) 0.32033(16)
C40 C 0.54212(13) 0.0638(2) 0.30640(15)
H19 H 0.50950 0.06690 0.29910
C41 C 0.49776(13) 0.0435(2) 0.42929(13)
H20 H 0.48140 0.02170 0.40110
C42 C 0.22053(15) -0.1492(2) 0.67652(13)
H21 H 0.22020 -0.19740 0.67590
C43 C 0.57005(15) 0.2071(2) 0.57303(14)
H22 H 0.55150 0.23750 0.55070
C44 C 0.22461(13) -0.00922(19) 0.67889(13)
H23 H 0.22690 0.03870 0.68140
C45 C 0.56244(14) 0.0004(2) 0.30343(16)
H24 H 0.54340 -0.03860 0.29450
C46 C 0.56848(13) 0.0590(2) 0.49367(14)
H25 H 0.59970 0.04740 0.50890
C47 C 0.54405(13) -0.0885(2) 0.41232(13)
H26 H 0.51160 -0.09070 0.40670
C48 C 0.40971(14) 0.3187(2) 0.33764(17)
H27 H 0.43080 0.34850 0.35820
C49 C 0.56873(13) -0.0293(2) 0.43298(13)
C50 C 0.54631(13) 0.1092(2) 0.51386(14)
C51 C 0.22354(17) 0.0593(2) 0.50104(14)
H28 H 0.23210 0.01280 0.50390
C52 C 0.22081(13) -0.04797(18) 0.71656(12)
H29 H 0.22050 -0.02500 0.74420
C53 C 0.60086(15) 0.3937(2) 0.28466(17)
H30 H 0.60140 0.35870 0.26320
C54 C 0.54480(13) 0.0261(2) 0.45126(14)
C55 C 0.6026(2) 0.4964(3) 0.3500(2)
H31 H 0.60410 0.53010 0.37300
C56 C 0.59934(14) 0.0935(2) 0.59577(14)
H32 H 0.60120 0.04690 0.58840
C57 C 0.57799(13) 0.38294(19) 0.31831(16)
C58 C 0.62338(14) 0.1166(2) 0.64081(13)
H33 H 0.64070 0.08570 0.66360
C59 C 0.21502(17) 0.0919(2) 0.45819(15)
H34 H 0.21770 0.06630 0.43240
C60 C 0.62442(13) 0.50737(19) 0.31497(14)
C61 C 0.59516(15) 0.2316(2) 0.61792(13)
H35 H 0.59420 0.27830 0.62510
C62 C 0.61781(14) 0.1157(2) 0.3319(2)
H36 H 0.63700 0.15420 0.34220
C63 C 0.63835(14) 0.0523(2) 0.32887(18)
H37 H 0.67100 0.04890 0.33720
C64 C 0.62318(14) 0.4562(2) 0.28224(15)
H38 H 0.63730 0.46340 0.25840
C65 C 0.5784(2) 0.4352(3) 0.3505(3)
H39 H 0.56230 0.42910 0.37290
C66 C 0.22412(16) -0.1141(2) 0.63662(14)
H40 H 0.22590 -0.13850 0.61000
Co1 Co 0.200919(15) 0.17458(2) 0.269699(14)
Co2 Co 0.188937(15) 0.19907(2) 0.381138(15)
Co3 Co 0.192835(15) 0.33214(2) 0.299562(15)
N1 N 0.20301(11) 0.15848(16) 0.4513(1)
N2 N 0.21756(10) -0.11747(15) 0.71575(10)
O1 O 0.64772(9) 0.27309(13) 0.71160(8)
O2 O 0.66839(9) 0.16246(12) 0.72922(8)
O3 O 0.25145(8) 0.24703(12) 0.26309(8)
O4 O 0.26324(8) 0.33272(12) 0.31601(8)
O5 O 0.65564(8) 0.59439(13) 0.27626(8)
O6 O 0.66284(10) 0.60547(13) 0.35416(9)
O7 O 0.25619(8) 0.12876(12) 0.32174(8)
O8 O 0.25801(8) 0.18737(13) 0.38807(8)
O9 O 0.17484(8) 0.23818(11) 0.31260(7)
O10 O 0.68593(8) -0.19790(12) 0.40485(9)
O11 O 0.62067(9) -0.25781(13) 0.38241(9)
O12 O 0.67763(9) -0.07671(13) 0.32159(9)
O13 O 0.60845(10) -0.12481(15) 0.29186(12)
C67 C 0.0514(9) 0.1362(13) 0.2092(9)
H41 H 0.06780 0.13650 0.24150
C68 C 0.1011(5) 0.0847(7) 0.1785(5)
H42 H 0.10410 0.13190 0.16960
H43 H 0.10260 0.05450 0.15300
H44 H 0.12620 0.07360 0.20660
C69 C 0.0199(8) 0.0226(12) 0.1784(8)
Co4 Co 0.00000 0.22557(9) 0.25000
N3 N 0.0579(7) 0.0759(13) 0.1875(8)
O14 O 0.0077(10) 0.3055(15) 0.2055(9)
O15 O 0.0239(8) 0.2028(13) 0.1935(8)
O16 O 0.0663(4) 0.1947(6) 0.3004(4)
O17 O 0.0470(3) 0.4025(5) 0.1953(3)
O18? O 0.0662(2) 0.2562(4) 0.2890(2)
Co1B Co 0.700919(15) 0.67458(2) 0.269699(14)
Co1E Co 0.200919(15) -0.17458(2) 0.769699(14)
Co1G Co 0.700919(15) 0.32542(2) 0.769699(14)
Co2B Co 0.688937(15) -0.30093(2) 0.381138(15)
Co2B* Co 0.688937(15) 0.69907(2) 0.381138(15)
Co3B Co 0.692835(15) -0.16786(2) 0.299562(15)
Co3G Co 0.692835(15) 0.16786(2) 0.799562(15)
N2E N 0.21756(10) 0.11747(15) 0.21575(10)
O1G O 0.14772(9) 0.22691(13) 0.21160(8)
O2G O 0.16839(9) 0.33754(12) 0.22922(8)
O5B O 0.15564(8) 0.09439(13) 0.27626(8)
O6B O 0.16284(10) 0.10547(13) 0.35416(9)
O10B O 0.18593(8) 0.30210(12) 0.40485(9)
O11B O 0.12067(9) 0.24219(13) 0.38241(9)
O12B O 0.17763(9) 0.42329(13) 0.32159(9)
C67A C -0.0514(9) 0.1362(13) 0.2908(9)
H41A H -0.06780 0.13650 0.25850
C68A C -0.1011(5) 0.0847(7) 0.3215(5)
H42A H -0.10410 0.13190 0.33040
H43A H -0.10260 0.05450 0.34700
H44A H -0.12620 0.07360 0.29340
C69A C -0.0199(8) 0.0226(12) 0.3216(8)
N3A N -0.0579(7) 0.0759(13) 0.3125(8)
O14A O -0.0077(10) 0.3055(15) 0.2945(9)
O15A O -0.0239(8) 0.2028(13) 0.3065(8)
O16A O -0.0663(4) 0.1947(6) 0.1996(4)
#END
