
#######################################################################
#
#                 Cambridge Crystallographic Data Centre
#                                CCDC
#
#######################################################################
#
# If this CIF has been generated from an entry in the Cambridge
# Structural Database, then it will include bibliographic, chemical,
# crystal, experimental, refinement or atomic coordinate data resulting
# from the CCDC's data processing and validation procedures.
#
#######################################################################

data_CSD_CIF_LACLIL
_audit_creation_date 2003-07-09
_audit_creation_method CSD-ConQuest-V1
_database_code_CSD LACLIL
_database_code_depnum_ccdc_archive 'CCDC 212851'
_chemical_formula_sum 'C6 H26 Ag1 B10 N1'
_chemical_formula_moiety
;
(C6 H16 N1 1+)n,n(H10 Ag1 B10 1-)
;
_journal_coden_Cambridge 233
_journal_volume 47
_journal_year 2002
_journal_page_first 1275
_journal_name_full 'Zh.Neorg.Khim.(Russ.)(Russ.J.Inorg.Chem.) '
loop_
_publ_author_name
"E.A.Malinina"
"K.Yu.Zhizhin"
"I.N.Polyakova"
"M.V.Lisovskii"
"N.T.Kuznetsov"
_chemical_name_systematic
;
catena-(Triethylammonium (\m~3~-closo-decaborato)-silver(i))
;
_cell_volume   1524.792
_exptl_crystal_density_diffrn 1.43
_exptl_crystal_preparation 'acetonitrile'
_diffrn_ambient_temperature 293
#These two values have been output from a single CSD field.
_refine_ls_R_factor_gt 0.0339
_refine_ls_wR_factor_gt 0.0339
_symmetry_cell_setting monoclinic
_symmetry_space_group_name_H-M 'P 21/c'
_symmetry_Int_Tables_number 14
loop_
_symmetry_equiv_pos_site_id
_symmetry_equiv_pos_as_xyz
1 x,y,z
2 -x,1/2+y,1/2-z
3 -x,-y,-z
4 x,-1/2-y,-1/2+z
_cell_length_a 9.369(1)
_cell_length_b 7.325(1)
_cell_length_c 22.520(1)
_cell_angle_alpha 90
_cell_angle_beta 99.39(1)
_cell_angle_gamma 90
_cell_formula_units_Z 4
loop_
_atom_type_symbol
_atom_type_radius_bond
C 0.68
H 0.23
Ag 1.69
B 0.83
N 0.68
loop_
_atom_site_label
_atom_site_type_symbol
_atom_site_fract_x
_atom_site_fract_y
_atom_site_fract_z
Ag1 Ag 0.40134(4) 0.46112(5) 0.19900(2)
B1 B 0.2351(5) 0.7461(7) 0.1773(3)
B2 B 0.3947(5) 0.7822(6) 0.1536(2)
B3 B 0.3437(5) 0.9056(6) 0.2179(2)
B4 B 0.1677(5) 0.9616(7) 0.1707(2)
B5 B 0.2219(5) 0.8401(6) 0.1072(2)
B6 B 0.4708(5) 1.0042(6) 0.1752(2)
B7 B 0.3084(5) 1.1320(6) 0.1865(2)
B8 B 0.2236(5) 1.0838(7) 0.1092(2)
B9 B 0.3837(5) 0.9596(7) 0.0964(2)
B10 B 0.3935(5) 1.1710(7) 0.1273(2)
H1 H 0.186(4) 0.623(6) 0.1940(17)
H2 H 0.475(4) 0.679(5) 0.1481(15)
H3 H 0.373(4) 0.883(5) 0.2688(17)
H4 H 0.063(4) 0.992(5) 0.1874(18)
H5 H 0.158(4) 0.776(5) 0.0672(16)
H6 H 0.587(5) 1.011(6) 0.193(2)
H7 H 0.293(4) 1.241(6) 0.2245(18)
H8 H 0.145(4) 1.163(6) 0.0810(17)
H9 H 0.437(5) 0.941(6) 0.056(2)
H10 H 0.439(5) 1.290(6) 0.1084(18)
N1 N 0.1301(4) 0.1703(5) 0.39062(17)
C1 C 0.2176(5) 0.3437(7) 0.3919(3)
C2 C 0.1957(8) 0.4726(10) 0.4410(3)
C3 C 0.1545(7) 0.0572(9) 0.3382(2)
C4 C 0.0793(7) -0.1236(8) 0.3314(3)
C5 C 0.1523(6) 0.0701(8) 0.4495(2)
C6 C 0.3064(8) 0.0136(11) 0.4704(4)
H11 H 0.054(5) 0.206(6) 0.387(2)
H12 H 0.314(5) 0.299(6) 0.3949(19)
H13 H 0.192(5) 0.392(8) 0.354(2)
H14 H 0.225(6) 0.432(8) 0.478(3)
H15 H 0.254(6) 0.581(9) 0.438(2)
H16 H 0.099(7) 0.513(8) 0.438(3)
H17 H 0.246(6) 0.046(8) 0.342(2)
H18 H 0.117(5) 0.138(8) 0.300(2)
H19 H 0.098(5) -0.192(9) 0.295(2)
H20 H 0.129(6) -0.196(9) 0.364(3)
H21 H -0.006(7) -0.111(9) 0.337(3)
H22 H 0.124(5) 0.150(7) 0.475(2)
H23 H 0.091(6) -0.037(8) 0.443(3)
H24 H 0.363(5) 0.112(7) 0.478(2)
H25 H 0.311(7) -0.044(9) 0.500(3)
H26 H 0.341(6) -0.061(8) 0.443(3)
B3A B 0.6563(5) 0.4056(6) 0.2821(2)
B6A B 0.5292(5) 0.5042(6) 0.3248(2)
B7* B 0.3084(5) 0.1320(6) 0.1865(2)
B10* B 0.3935(5) 0.1710(7) 0.1273(2)
H3A H 0.627(4) 0.383(5) 0.2312(17)
H7* H 0.293(4) 0.241(6) 0.2245(18)
Ag1A Ag 0.59866(4) 0.96112(5) 0.30100(2)
Ag1* Ag 0.40134(4) 1.46112(5) 0.19900(2)
H6A H 0.413(5) 0.511(6) 0.307(2)
H10* H 0.439(5) 0.290(6) 0.1084(18)
#END
