
#######################################################################
#
#                 Cambridge Crystallographic Data Centre
#                                CCDC
#
#######################################################################
#
# If this CIF has been generated from an entry in the Cambridge
# Structural Database, then it will include bibliographic, chemical,
# crystal, experimental, refinement or atomic coordinate data resulting
# from the CCDC's data processing and validation procedures.
#
#######################################################################

data_CSD_CIF_LACPEN
_audit_creation_date 2016-02-15
_audit_creation_method CSD-ConQuest-V1
_database_code_CSD LACPEN
_database_code_depnum_ccdc_archive 'CCDC 1422943'
_chemical_formula_sum 'C16 H32 Cu14 I12 N21'
_chemical_formula_moiety
;
(C12 H20 Cu14 I12 N20 1-)n,n(C4 H12 N1 1+)
;
_journal_coden_Cambridge 9
_journal_volume 55
_journal_year 2016
_journal_page_first 1358
_journal_name_full 'Inorg.Chem. '
loop_
_publ_author_name
"Juan Liu"
"Fei Wang"
"Li-Yang Liu"
"Jian Zhang"
_chemical_name_systematic
;
catena-[tetramethylammonium 
dodecakis(\m-iodo)-tetrakis(\m-1-(5-tetrazolato)ethan-1-amido)-tetradeca-coppe
r]
;
_cell_volume   2691.398
_exptl_crystal_colour 'yellow'
_exptl_crystal_density_diffrn 3.617
_exptl_crystal_description 'block'
_diffrn_ambient_temperature 293
#These two values have been output from a single CSD field.
_refine_ls_R_factor_gt 0.0434
_refine_ls_wR_factor_gt 0.0434
_symmetry_cell_setting tetragonal
_symmetry_space_group_name_H-M 'P 42'
_symmetry_Int_Tables_number 77
loop_
_symmetry_equiv_pos_site_id
_symmetry_equiv_pos_as_xyz
1 x,y,z
2 -x,-y,z
3 -y,x,1/2+z
4 y,-x,1/2+z
_cell_length_a 14.8451(2)
_cell_length_b 14.8451(2)
_cell_length_c 12.2127(3)
_cell_angle_alpha 90
_cell_angle_beta 90
_cell_angle_gamma 90
_cell_formula_units_Z 2
loop_
_atom_type_symbol
_atom_type_radius_bond
C 0.68
H 0.23
Cu 1.32
I 1.40
N 0.68
loop_
_atom_site_label
_atom_site_type_symbol
_atom_site_fract_x
_atom_site_fract_y
_atom_site_fract_z
I1 I 0.90304(12) 0.69372(12) -1.47626(14)
I2 I 0.92634(12) 0.64244(12) -1.84455(13)
I3 I 0.69406(13) 0.61369(13) -1.22928(13)
I4 I 0.80938(13) 0.88428(13) -1.70195(13)
I5 I 0.59816(11) 0.80493(12) -1.46647(13)
I6 I 0.56385(11) 0.86294(12) -1.11797(13)
Cu1 Cu 0.50000 0.50000 -1.7801(3)
Cu2 Cu 1.00000 1.00000 -1.1560(3)
Cu3 Cu 0.8256(2) 0.7076(2) -1.6764(3)
Cu4 Cu 0.6766(3) 0.7871(2) -1.2657(3)
Cu5 Cu 0.7663(3) 0.8448(3) -1.5090(3)
Cu6 Cu 0.7334(3) 0.6563(3) -1.4252(3)
Cu7 Cu 1.0763(4) 0.5393(4) -1.8178(5)
Cu8 Cu 0.9616(3) 0.5859(3) -1.6423(4)
N1 N 0.9136(14) 0.9438(14) -1.2529(15)
N2 N 0.5923(13) 0.5506(13) -1.6812(15)
N3 N 0.8884(14) 0.9487(14) -1.3591(17)
N4 N 0.6117(16) 0.5526(14) -1.5741(16)
N5 N 0.7139(13) 0.6315(13) -1.6608(15)
N6 N 0.7923(14) 0.8581(14) -1.2723(15)
N7 N 0.6822(13) 0.6024(13) -1.5659(16)
N8 N 0.8173(16) 0.8976(16) -1.3701(17)
C1 C 0.8539(14) 0.8880(15) -1.2037(17)
C2 C 0.6560(14) 0.6059(14) -1.8552(18)
H1 H 0.71570 0.59070 -1.88390
N9 N 0.9238(13) 0.9435(15) -1.0436(17)
H2 H 0.91920 0.96230 -0.97720
C3 C 0.8739(14) 0.8626(13) -1.0892(17)
H3 H 0.91660 0.81220 -1.09140
C4 C 0.6565(17) 0.5974(17) -1.7335(19)
C5 C 0.7938(15) 0.8328(17) -1.0209(19)
H4 H 0.81370 0.81780 -0.94830
H5 H 0.75060 0.88080 -1.01710
H6 H 0.76640 0.78090 -1.05400
C6 C 0.6321(13) 0.7003(13) -1.8882(17)
H7 H 0.67660 0.74130 -1.86050
H8 H 0.63020 0.70440 -1.96670
H9 H 0.57420 0.71570 -1.85870
N10 N 0.5902(14) 0.5408(15) -1.8955(16)
H10 H 0.58960 0.52140 -1.96180
N11 N 0.00000 0.50000 -1.221(3)
C7 C -0.038(2) 0.574(2) -1.153(3)
H11 H -0.06220 0.61990 -1.19980
H12 H -0.08570 0.55040 -1.10740
H13 H 0.00810 0.59900 -1.10740
C8 C 0.0720(18) 0.540(2) -1.290(3)
H14 H 0.04700 0.58770 -1.33410
H15 H 0.11900 0.56380 -1.24480
H16 H 0.09650 0.49450 -1.33770
I1A I 0.09696(12) 0.30628(12) -1.47626(14)
I2A I 0.07366(12) 0.35756(12) -1.84455(13)
I3A I 0.30594(13) 0.38631(13) -1.22928(13)
I4A I 0.19062(13) 0.11572(13) -1.70195(13)
I5A I 0.40184(11) 0.19507(12) -1.46647(13)
I6A I 0.43615(11) 0.13706(12) -1.11797(13)
Cu3A Cu 0.1744(2) 0.2924(2) -1.6764(3)
Cu4A Cu 0.3234(3) 0.2129(2) -1.2657(3)
Cu5A Cu 0.2337(3) 0.1552(3) -1.5090(3)
Cu6A Cu 0.2666(3) 0.3437(3) -1.4252(3)
Cu7A Cu -0.0763(4) 0.4607(4) -1.8178(5)
Cu8A Cu 0.0384(3) 0.4141(3) -1.6423(4)
N1A N 0.0864(14) 0.0562(14) -1.2529(15)
N2A N 0.4077(13) 0.4494(13) -1.6812(15)
N3A N 0.1116(14) 0.0513(14) -1.3591(17)
N4A N 0.3883(16) 0.4474(14) -1.5741(16)
N5A N 0.2861(13) 0.3685(13) -1.6608(15)
N6A N 0.2077(14) 0.1419(14) -1.2723(15)
N7A N 0.3178(13) 0.3976(13) -1.5659(16)
N8A N 0.1827(16) 0.1024(16) -1.3701(17)
C1A C 0.1461(14) 0.1120(15) -1.2037(17)
C2A C 0.3440(14) 0.3941(14) -1.8552(18)
H1A H 0.28430 0.40930 -1.88390
N9A N 0.0762(13) 0.0565(15) -1.0436(17)
H2A H 0.08080 0.03770 -0.97720
C3A C 0.1261(14) 0.1374(13) -1.0892(17)
H3A H 0.08340 0.18780 -1.09140
C4A C 0.3435(17) 0.4026(17) -1.7335(19)
C5A C 0.2062(15) 0.1672(17) -1.0209(19)
H4A H 0.18630 0.18220 -0.94830
H5A H 0.24940 0.11920 -1.01710
H6A H 0.23360 0.21910 -1.05400
C6A C 0.3679(13) 0.2997(13) -1.8882(17)
H7A H 0.32340 0.25870 -1.86050
H8A H 0.36980 0.29560 -1.96670
H9A H 0.42580 0.28430 -1.85870
N10A N 0.4098(14) 0.4592(15) -1.8955(16)
H10A H 0.41040 0.47860 -1.96180
I2* I -0.07366(12) 0.64244(12) -1.84455(13)
I2A* I 1.07366(12) 0.35756(12) -1.84455(13)
I4B I 1.11572(13) 0.80938(13) -1.20195(13)
I4C I 0.88428(13) 1.19062(13) -1.20195(13)
I5B I 1.19507(11) 0.59816(12) -1.96647(13)
I5C I -0.19507(11) 0.40184(12) -1.96647(13)
I6B I 0.13706(11) 0.56385(12) -1.61797(13)
I6B* I 1.13706(11) 0.56385(12) -1.61797(13)
I6C I -0.13706(11) 0.43615(12) -1.61797(13)
I6C* I 0.86294(11) 0.43615(12) -1.61797(13)
Cu2* Cu 0.00000 0.00000 -1.1560(3)
Cu2B Cu 0.00000 0.00000 -1.6560(3)
Cu2B* Cu 1.00000 1.00000 -1.6560(3)
Cu7* Cu 0.0763(4) 0.5393(4) -1.8178(5)
Cu7A* Cu 0.9237(4) 0.4607(4) -1.8178(5)
Cu7B Cu 0.4607(4) 0.0763(4) -1.3178(5)
Cu7C Cu 0.5393(4) 0.9237(4) -1.3178(5)
Cu8B Cu 0.4141(3) -0.0384(3) -1.1423(4)
Cu8B* Cu 0.4141(3) 0.9616(3) -1.1423(4)
Cu8C Cu 0.5859(3) 0.0384(3) -1.1423(4)
Cu8C* Cu 0.5859(3) 1.0384(3) -1.1423(4)
N1A* N 1.0864(14) 1.0562(14) -1.2529(15)
N9A* N 1.0762(13) 1.0565(15) -1.0436(17)
C7A C 0.038(2) 0.426(2) -1.153(3)
H11A H 0.06220 0.38010 -1.19980
H12A H 0.08570 0.44960 -1.10740
H13A H -0.00810 0.40100 -1.10740
C8A C -0.0720(18) 0.460(2) -1.290(3)
H14A H -0.04700 0.41230 -1.33410
H15A H -0.11900 0.43620 -1.24480
H16A H -0.09650 0.50550 -1.33770
#END
