
#######################################################################
#
#                 Cambridge Crystallographic Data Centre
#                                CCDC
#
#######################################################################
#
# If this CIF has been generated from an entry in the Cambridge
# Structural Database, then it will include bibliographic, chemical,
# crystal, experimental, refinement or atomic coordinate data resulting
# from the CCDC's data processing and validation procedures.
#
#######################################################################

data_CSD_CIF_LACYIA
_audit_creation_date 2016-02-16
_audit_creation_method CSD-ConQuest-V1
_database_code_CSD LACYIA
_database_code_depnum_ccdc_archive 'CCDC 1445946'
_chemical_formula_sum 'C171 H153 N19 Na6 O65 Pr2 Zn3'
_chemical_formula_moiety
;
6(C2 H8 N1 1+),n(C156 H96 N12 Na6 O63 Pr2 Zn3 6-),x(C3 H7 N1 O1),x(H2 O1)
;
_journal_coden_Cambridge 1147
_journal_volume 16
_journal_year 2016
_journal_page_first 1751
_journal_name_full 'Cryst.Growth Des. '
loop_
_publ_author_name
"B.K.Tripuramallu"
"I.Goldberg"
_chemical_name_systematic
;
catena-[hexakis(dimethylammonium) 
tris(\m-3-carboxy-5-(15-(3-carboxy-5-carboxylatophenyl)-10,20-bis(3,5-dicarbox
ylatophenyl)porphyrin-5-yl)benzoato)-pentadecakis(aqua)-hexa-sodium-di-praseod
ymium-tri-zinc N,N-dimethylformamide solvate hydrate]
;
_cell_volume   7792.337
_exptl_crystal_colour 'red'
_exptl_crystal_density_diffrn 0.824
_exptl_special_details
;
Absolute configuration

;
_exptl_crystal_description 'prism'
_diffrn_ambient_temperature 110
_refine_special_details
;
Disordered solvent molecules and dimethylammonium cations were not modelled 
and the disordered density was taken into account using the SQUEEZE/PLATON 
procedure.
;
#These two values have been output from a single CSD field.
_refine_ls_R_factor_gt 0.0285
_refine_ls_wR_factor_gt 0.0285
_symmetry_cell_setting hexagonal
_symmetry_space_group_name_H-M 'P 3 2 1'
_symmetry_Int_Tables_number 150
loop_
_symmetry_equiv_pos_site_id
_symmetry_equiv_pos_as_xyz
1 x,y,z
2 -y,x-y,z
3 -x+y,-x,z
4 y,x,-z
5 x-y,-y,-z
6 -x,-x+y,-z
_cell_length_a 23.4820(8)
_cell_length_b 23.4820(8)
_cell_length_c 16.3180(5)
_cell_angle_alpha 90
_cell_angle_beta 90
_cell_angle_gamma 120
_cell_formula_units_Z 1
loop_
_atom_type_symbol
_atom_type_radius_bond
C 0.68
H 0.23
N 0.68
Na 1.66
O 0.68
Pr 2.03
Zn 1.22
loop_
_atom_site_label
_atom_site_type_symbol
_atom_site_fract_x
_atom_site_fract_y
_atom_site_fract_z
Pr1 Pr 0.66670 0.33330 1.03450(2)
Zn1 Zn 0.63129(2) 0.63129(2) 0.50000
Na1 Na 0.51045(7) 0.37255(6) 1.00301(8)
O1 O 0.54178(17) 0.54178(17) 0.50000
H1 H 0.54170 0.50140 0.50450
O2 O 0.76382(10) 0.45435(11) 0.07162(13)
O3 O 0.64635(11) 0.40030(12) 0.94429(15)
O4 O 0.67177(11) 0.41461(11) 0.14203(14)
O5 O 0.88844(12) 0.57012(13) 0.89887(17)
O6 O 0.57534(16) 0.42793(18) 0.89489(16)
O7 O 0.9622(3) 0.6864(3) 0.3106(3)
O8 O 0.96978(14) 0.63934(18) 0.1988(2)
O9 O 0.9092(3) 0.6119(3) 0.7678(4)
H2 H 0.96920 0.66180 0.78710
N1 N 0.69653(14) 0.59674(14) 0.51126(16)
N2 N 0.64872(13) 0.63940(13) 0.37512(15)
C1 C 0.76552(16) 0.51118(15) 0.19261(19)
C2 C 0.68340(16) 0.61737(16) 0.3310(2)
C3 C 0.7315(2) 0.45665(14) 0.13084(17)
C4 C 0.6793(2) 0.6280(2) 0.2459(2)
H3 H 0.69890 0.61680 0.20250
C5 C 0.72769(17) 0.52269(17) 0.2499(2)
H4 H 0.68120 0.49580 0.25000
C6 C 0.71236(17) 0.57666(17) 0.5832(2)
C7 C 0.68474(17) 0.48675(17) 0.8480(2)
C8 C 0.71881(17) 0.58942(16) 0.36596(19)
C9 C 0.7509(2) 0.50864(15) 0.86405(19)
H5 H 0.76270 0.49000 0.90800
C10 C 0.71601(16) 0.56071(17) 0.73235(19)
C11 C 0.66794(17) 0.51331(17) 0.78269(19)
H6 H 0.62290 0.49890 0.77220
C12 C 0.72320(16) 0.57864(17) 0.4490(2)
C13 C 0.75854(17) 0.57354(17) 0.3066(2)
C14 C 0.78197(18) 0.58311(18) 0.75029(19)
H7 H 0.81540 0.61630 0.71720
C15 C 0.75416(19) 0.54417(19) 0.4821(2)
H8 H 0.77580 0.52590 0.45180
C16 C 0.69562(17) 0.58737(18) 0.6617(2)
C17 C 0.83277(17) 0.54860(18) 0.1955(2)
H9 H 0.85850 0.54090 0.15700
C18 C 0.64194(19) 0.6574(2) 0.2382(2)
H10 H 0.63080 0.67070 0.18860
C19 C 0.74684(19) 0.54248(19) 0.5644(2)
H11 H 0.76180 0.52230 0.60260
C20 C 0.82475(17) 0.60884(19) 0.3104(2)
H12 H 0.84530 0.64160 0.35150
C21 C 0.63189(17) 0.43456(18) 0.9000(2)
C22 C 0.9371(2) 0.6403(2) 0.2584(3)
C23 C 0.79917(17) 0.55730(19) 0.8162(2)
C24 C 0.86386(18) 0.59781(19) 0.2542(2)
C25 C 0.62289(17) 0.66429(17) 0.3190(2)
C26 C 0.87009(19) 0.5838(2) 0.8373(3)
O10 O 0.5821(2) 0.4562(2) 1.0942(3)
H13 H 0.60860 0.44380 1.10780
H14 H 0.57540 0.48130 1.12390
O11 O 0.43383(15) 0.39323(15) 1.06586(17)
H15 H 0.41110 0.37370 1.10730
O12 O 0.51532(19) 0.52995(18) 1.0889(2)
H16 H 0.48890 0.54400 1.09380
H17 H 0.49140 0.48910 1.08200
O13? O 0.9605(3) 0.6607(3) 0.3312(4)
O14? O 0.9096(2) 0.6333(3) 0.7904(3)
H18? H 0.42150 0.40590 1.02450
H1C H 0.50140 0.54170 0.49550
O2C O 0.45435(10) 0.76382(11) 0.92838(13)
O3C O 0.40030(11) 0.64635(12) 0.05571(15)
O4C O 0.41461(11) 0.67177(11) 0.85797(14)
O5C O 0.57012(12) 0.88844(13) 0.10113(17)
O6C O 0.42793(16) 0.57534(18) 0.10511(16)
O7C O 0.6864(3) 0.9622(3) 0.6894(3)
O8C O 0.63934(14) 0.96978(18) 0.8012(2)
O9C O 0.6119(3) 0.9092(3) 0.2322(4)
H2C H 0.66180 0.96920 0.21290
N1C N 0.59674(14) 0.69653(14) 0.48874(16)
N2C N 0.63940(13) 0.64872(13) 0.62488(15)
C1C C 0.51118(16) 0.76552(15) 0.80739(19)
C2C C 0.61737(16) 0.68340(16) 0.6690(2)
C3C C 0.45665(20) 0.73150(14) 0.86916(17)
C4C C 0.6280(2) 0.6793(2) 0.7541(2)
H3C H 0.61680 0.69890 0.79750
C5C C 0.52269(17) 0.72769(17) 0.7501(2)
H4C H 0.49580 0.68120 0.75000
C6C C 0.57666(17) 0.71236(17) 0.4168(2)
C7C C 0.48675(17) 0.68474(17) 0.1520(2)
C8C C 0.58942(17) 0.71881(16) 0.63404(19)
C9C C 0.50864(20) 0.75090(15) 0.13595(19)
H5C H 0.49000 0.76270 0.09200
C10C C 0.56071(16) 0.71601(17) 0.26765(19)
C11C C 0.51331(17) 0.66794(17) 0.21731(19)
H6C H 0.49890 0.62290 0.22780
C12C C 0.57864(16) 0.72320(17) 0.5510(2)
C13C C 0.57354(17) 0.75854(17) 0.6934(2)
C14C C 0.58311(18) 0.78197(18) 0.24971(19)
H7C H 0.61630 0.81540 0.28280
C15C C 0.54417(19) 0.75416(19) 0.5179(2)
H8C H 0.52590 0.77580 0.54820
C16C C 0.58737(17) 0.69562(18) 0.3383(2)
C17C C 0.54860(17) 0.83277(18) 0.8045(2)
H9C H 0.54090 0.85850 0.84300
C18C C 0.65740(19) 0.64194(20) 0.7618(2)
H10C H 0.67070 0.63080 0.81140
C19C C 0.54248(19) 0.74684(19) 0.4356(2)
H11C H 0.52230 0.76180 0.39740
C20C C 0.60884(17) 0.82475(19) 0.6896(2)
H12C H 0.64160 0.84530 0.64850
C21C C 0.43456(17) 0.63189(18) 0.1000(2)
C22C C 0.6403(2) 0.9371(2) 0.7416(3)
C23C C 0.55730(17) 0.79917(19) 0.1838(2)
C24C C 0.59781(18) 0.86386(19) 0.7458(2)
C25C C 0.66429(17) 0.62289(17) 0.6810(2)
C26C C 0.58380(19) 0.87009(20) 0.1627(3)
Zn1A Zn 0.36871(2) 0.00000(2) 0.50000
Na1A Na 0.62745(7) 0.13790(6) 1.00301(8)
O1A O 0.45822(17) 0.00000(17) 0.50000
H1A H 0.49860 0.04030 0.50450
O2A O 0.54565(10) 0.30947(11) 0.07162(13)
O3A O 0.59970(11) 0.24605(12) 0.94429(15)
O4A O 0.58539(11) 0.25716(11) 0.14203(14)
O5A O 0.42988(12) 0.31832(13) 0.89887(17)
O6A O 0.57207(16) 0.14741(18) 0.89489(16)
O7A O 0.3136(3) 0.2758(3) 0.3106(3)
O8A O 0.36066(14) 0.33044(18) 0.1988(2)
O9A O 0.3881(3) 0.2973(3) 0.7678(4)
H2A H 0.33820 0.30740 0.78710
N1A N 0.40326(14) 0.09979(14) 0.51126(16)
N2A N 0.36060(13) 0.00932(13) 0.37512(15)
C1A C 0.48882(16) 0.25434(15) 0.19261(19)
C2A C 0.38263(16) 0.06603(16) 0.3310(2)
C3A C 0.54335(20) 0.27485(14) 0.13084(17)
C4A C 0.3720(2) 0.0513(2) 0.2459(2)
H3A H 0.38320 0.08210 0.20250
C5A C 0.47731(17) 0.20500(17) 0.2499(2)
H4A H 0.50420 0.18540 0.25000
C6A C 0.42334(17) 0.13570(17) 0.5832(2)
C7A C 0.51325(17) 0.19799(17) 0.8480(2)
C8A C 0.41058(17) 0.12939(16) 0.36596(19)
C9A C 0.49136(20) 0.24226(15) 0.86405(19)
H5A H 0.51000 0.27270 0.90800
C10A C 0.43929(16) 0.15530(17) 0.73235(19)
C11A C 0.48669(17) 0.15463(17) 0.78269(19)
H6A H 0.50110 0.12400 0.77220
C12A C 0.42136(16) 0.14456(17) 0.4490(2)
C13A C 0.42646(17) 0.18500(17) 0.3066(2)
C14A C 0.41689(18) 0.19886(18) 0.75029(19)
H7A H 0.38370 0.19910 0.71720
C15A C 0.45583(19) 0.20999(19) 0.4821(2)
H8A H 0.47410 0.24990 0.45180
C16A C 0.41263(17) 0.10825(18) 0.6617(2)
C17A C 0.45140(17) 0.28417(18) 0.1955(2)
H9A H 0.45910 0.31760 0.15700
C18A C 0.34260(19) -0.01546(20) 0.2382(2)
H10A H 0.32930 -0.03990 0.18860
C19A C 0.45752(19) 0.20436(19) 0.5644(2)
H11A H 0.47770 0.23950 0.60260
C20A C 0.39116(17) 0.21591(19) 0.3104(2)
H12A H 0.35840 0.20370 0.35150
C21A C 0.56544(17) 0.19733(18) 0.9000(2)
C22A C 0.3597(2) 0.2968(2) 0.2584(3)
C23A C 0.44270(17) 0.24187(19) 0.8162(2)
C24A C 0.40219(18) 0.26605(19) 0.2542(2)
C25A C 0.33571(17) -0.04140(17) 0.3190(2)
C26A C 0.41620(19) 0.28629(20) 0.8373(3)
O10A O 0.5438(2) 0.1259(2) 1.0942(3)
H13A H 0.55620 0.16480 1.10780
H14A H 0.51870 0.09410 1.12390
O11A O 0.60677(15) 0.04060(15) 1.06586(17)
H15A H 0.62630 0.03740 1.10730
H1E H 0.45830 -0.04030 0.49550
O2E O 0.23618(10) -0.30947(11) 0.92838(13)
O3E O 0.35365(11) -0.24605(12) 0.05571(15)
O4E O 0.32823(11) -0.25716(11) 0.85797(14)
O5E O 0.11156(12) -0.31832(13) 0.10113(17)
O6E O 0.42466(16) -0.14741(18) 0.10511(16)
O7E O 0.0378(3) -0.2758(3) 0.6894(3)
O8E O 0.03022(14) -0.33044(18) 0.8012(2)
O9E O 0.0908(3) -0.2973(3) 0.2322(4)
H2E H 0.03080 -0.30740 0.21290
N1E N 0.30347(14) -0.09979(14) 0.48874(16)
N2E N 0.35128(13) -0.00932(13) 0.62488(15)
C1E C 0.23448(16) -0.25434(15) 0.80739(19)
C2E C 0.31660(16) -0.06603(16) 0.6690(2)
C3E C 0.2685(2) -0.27485(14) 0.86916(17)
C4E C 0.3207(2) -0.0513(2) 0.7541(2)
H3E H 0.30110 -0.08210 0.79750
C5E C 0.27231(17) -0.20500(17) 0.7501(2)
H4E H 0.31880 -0.18540 0.75000
C6E C 0.28764(17) -0.13570(17) 0.4168(2)
C7E C 0.31526(17) -0.19799(17) 0.1520(2)
C8E C 0.28119(17) -0.12939(16) 0.63404(19)
C9E C 0.2491(2) -0.24226(15) 0.13595(19)
H5E H 0.23730 -0.27270 0.09200
C10E C 0.28399(16) -0.15530(17) 0.26765(19)
C11E C 0.33206(17) -0.15463(17) 0.21731(19)
H6E H 0.37710 -0.12400 0.22780
C12E C 0.27680(16) -0.14456(17) 0.5510(2)
C13E C 0.24146(17) -0.18500(17) 0.6934(2)
C14E C 0.21803(18) -0.19886(18) 0.24971(19)
H7E H 0.18460 -0.19910 0.28280
C15E C 0.24584(19) -0.20999(19) 0.5179(2)
H8E H 0.22420 -0.24990 0.54820
C16E C 0.30438(17) -0.10825(18) 0.3383(2)
C17E C 0.16723(17) -0.28417(18) 0.8045(2)
H9E H 0.14150 -0.31760 0.84300
C18E C 0.35806(19) 0.01546(20) 0.7618(2)
H10E H 0.36920 0.03990 0.81140
C19E C 0.25316(19) -0.20436(19) 0.4356(2)
H11E H 0.23820 -0.23950 0.39740
C20E C 0.17525(17) -0.21591(19) 0.6896(2)
H12E H 0.15470 -0.20370 0.64850
C21E C 0.36811(17) -0.19733(18) 0.1000(2)
C22E C 0.0629(2) -0.2968(2) 0.7416(3)
C23E C 0.20083(17) -0.24187(19) 0.1838(2)
C24E C 0.13614(18) -0.26605(19) 0.7458(2)
C25E C 0.37711(17) 0.04140(17) 0.6810(2)
C26E C 0.12991(19) -0.28629(20) 0.1627(3)
Na1B Na 0.86210(7) 0.48955(6) 1.00301(8)
O10B O 0.8741(2) 0.4179(2) 1.0942(3)
H13B H 0.83520 0.39140 1.10780
H14B H 0.90590 0.42460 1.12390
O11B O 0.95940(15) 0.56617(15) 1.06586(17)
H15B H 0.96260 0.58890 1.10730
Pr1C Pr 0.33330 0.66670 -0.03450(2)
Na1C Na 0.37255(7) 0.51045(6) -0.00301(8)
O10C O 0.4562(2) 0.5821(2) -0.0942(3)
H13C H 0.44380 0.60860 -0.10780
H14C H 0.48130 0.57540 -0.12390
O11C O 0.39323(15) 0.43383(15) -0.06586(17)
H15C H 0.37370 0.41110 -0.10730
Zn1B Zn 1.00000(2) 0.36871(2) 1.50000
Na1B* Na 0.86210(7) 0.48955(6) 2.00301(8)
O1B O 1.00000(17) 0.45822(17) 1.50000
H1B H 0.95970 0.45830 1.50450
O2B O 0.69053(10) 0.23618(11) 1.07162(13)
O3B O 0.75395(11) 0.35365(12) 1.94429(15)
O4B O 0.74284(11) 0.32823(11) 1.14203(14)
O5B O 0.68168(12) 0.11156(13) 1.89887(17)
O6B O 0.85259(16) 0.42466(18) 1.89489(16)
O7B O 0.7242(3) 0.0378(3) 1.3106(3)
O8B O 0.66956(14) 0.03022(18) 1.1988(2)
O9B O 0.7027(3) 0.0908(3) 1.7678(4)
H2B H 0.69260 0.03080 1.78710
N1B N 0.90021(14) 0.30347(14) 1.51126(16)
N2B N 0.99068(13) 0.35128(13) 1.37512(15)
C1B C 0.74566(16) 0.23448(15) 1.19261(19)
C2B C 0.93397(16) 0.31660(16) 1.3310(2)
C3B C 0.72515(20) 0.26850(14) 1.13084(17)
C4B C 0.9487(2) 0.3207(2) 1.2459(2)
H3B H 0.91790 0.30110 1.20250
C5B C 0.79500(17) 0.27231(17) 1.2499(2)
H4B H 0.81460 0.31880 1.25000
C6B C 0.86430(17) 0.28764(17) 1.5832(2)
C7B C 0.80201(17) 0.31526(17) 1.8480(2)
C8B C 0.87061(17) 0.28119(16) 1.36596(19)
C9B C 0.75774(20) 0.24910(15) 1.86405(19)
H5B H 0.72730 0.23730 1.90800
C10B C 0.84470(16) 0.28399(17) 1.73235(19)
C11B C 0.84537(17) 0.33206(17) 1.78269(19)
H6B H 0.87600 0.37710 1.77220
C12B C 0.85544(16) 0.27680(17) 1.4490(2)
C13B C 0.81500(17) 0.24146(17) 1.3066(2)
C14B C 0.80114(18) 0.21803(18) 1.75029(19)
H7B H 0.80090 0.18460 1.71720
C15B C 0.79001(19) 0.24584(19) 1.4821(2)
H8B H 0.75010 0.22420 1.45180
C16B C 0.89175(17) 0.30438(18) 1.6617(2)
C17B C 0.71583(17) 0.16723(18) 1.1955(2)
H9B H 0.68240 0.14150 1.15700
C18B C 1.01546(19) 0.35806(20) 1.2382(2)
H10B H 1.03990 0.36920 1.18860
C19B C 0.79564(19) 0.25316(19) 1.5644(2)
H11B H 0.76050 0.23820 1.60260
C20B C 0.78409(17) 0.17525(19) 1.3104(2)
H12B H 0.79630 0.15470 1.35150
C21B C 0.80267(17) 0.36811(18) 1.9000(2)
C22B C 0.7032(2) 0.0629(2) 1.2584(3)
C23B C 0.75813(17) 0.20083(19) 1.8162(2)
C24B C 0.73395(18) 0.13614(19) 1.2542(2)
C25B C 1.04140(17) 0.37711(17) 1.3190(2)
C26B C 0.71371(19) 0.12991(20) 1.8373(3)
O10B* O 0.8741(2) 0.4179(2) 2.0942(3)
H13B* H 0.83520 0.39140 2.10780
H14B* H 0.90590 0.42460 2.12390
O11B* O 0.95940(15) 0.56617(15) 2.06586(17)
H15B* H 0.96260 0.58890 2.10730
H1D H 1.04030 0.49860 1.49550
O2D O 1.30947(10) 0.54565(11) 1.92838(13)
O3D O 1.24605(11) 0.59970(12) 1.05571(15)
O4D O 1.25716(11) 0.58539(11) 1.85797(14)
O5D O 1.31832(12) 0.42988(13) 1.10113(17)
O6D O 1.14741(16) 0.57207(18) 1.10511(16)
O7D O 1.2758(3) 0.3136(3) 1.6894(3)
O8D O 1.33044(14) 0.36066(18) 1.8012(2)
O9D O 1.2973(3) 0.3881(3) 1.2322(4)
H2D H 1.30740 0.33820 1.21290
N1D N 1.09979(14) 0.40326(14) 1.48874(16)
N2D N 1.00932(13) 0.36060(13) 1.62488(15)
C1D C 1.25434(16) 0.48882(15) 1.80739(19)
C2D C 1.06603(16) 0.38263(16) 1.6690(2)
C3D C 1.27485(20) 0.54335(14) 1.86916(17)
C4D C 1.0513(2) 0.3720(2) 1.7541(2)
H3D H 1.08210 0.38320 1.79750
C5D C 1.20500(17) 0.47731(17) 1.7501(2)
H4D H 1.18540 0.50420 1.75000
C6D C 1.13570(17) 0.42334(17) 1.4168(2)
C7D C 1.19799(17) 0.51325(17) 1.1520(2)
C8D C 1.12939(17) 0.41058(16) 1.63404(19)
C9D C 1.24226(20) 0.49136(15) 1.13595(19)
H5D H 1.27270 0.51000 1.09200
C10D C 1.15530(16) 0.43929(17) 1.26765(19)
C11D C 1.15463(17) 0.48669(17) 1.21731(19)
H6D H 1.12400 0.50110 1.22780
C12D C 1.14456(16) 0.42136(17) 1.5510(2)
C13D C 1.18500(17) 0.42646(17) 1.6934(2)
C14D C 1.19886(18) 0.41689(18) 1.24971(19)
H7D H 1.19910 0.38370 1.28280
C15D C 1.20999(19) 0.45583(19) 1.5179(2)
H8D H 1.24990 0.47410 1.54820
C16D C 1.10825(17) 0.41263(18) 1.3383(2)
C17D C 1.28417(17) 0.45140(18) 1.8045(2)
H9D H 1.31760 0.45910 1.84300
C18D C 0.98454(19) 0.3426(2) 1.7618(2)
H10D H 0.96010 0.32930 1.81140
C19D C 1.20436(19) 0.45752(19) 1.4356(2)
H11D H 1.23950 0.47770 1.39740
C20D C 1.21591(17) 0.39116(19) 1.6896(2)
H12D H 1.20370 0.35840 1.64850
C21D C 1.19733(17) 0.56544(18) 1.1000(2)
C22D C 1.2968(2) 0.3597(2) 1.7416(3)
C23D C 1.24187(17) 0.44270(19) 1.1838(2)
C24D C 1.26605(18) 0.40219(19) 1.7458(2)
C25D C 0.95860(17) 0.33571(17) 1.6810(2)
C26D C 1.28629(19) 0.4162(2) 1.1627(3)
Na1B** Na 0.86210(7) 0.48955(6) 0.00301(8)
O10B** O 0.8741(2) 0.4179(2) 0.0942(3)
H13B** H 0.83520 0.39140 0.10780
H14B** H 0.90590 0.42460 0.12390
O11B** O 0.95940(15) 0.56617(15) 0.06586(17)
H15B** H 0.96260 0.58890 0.10730
Pr1* Pr 0.66670 0.33330 0.03450(2)
Pr1** Pr 0.66670 0.33330 2.03450(2)
Pr1C* Pr 0.33330 -0.33330 -0.03450(2)
Pr1C** Pr 0.33330 -0.33330 0.96550(2)
Pr1C*** Pr 0.33330 0.66670 0.96550(2)
Pr1C**** Pr 1.33330 0.66670 0.96550(2)
Pr1C***** Pr 1.33330 0.66670 1.96550(2)
Na1* Na 0.51045(7) 0.37255(6) 0.00301(8)
Na1A* Na 0.62745(7) 0.13790(6) 2.00301(8)
Na1C* Na 1.37255(7) 0.51045(6) 0.99699(8)
Na1C** Na 1.37255(7) 0.51045(6) 1.99699(8)
Na1D Na 0.13790(7) -0.37255(6) -0.00301(8)
Na1D* Na 0.13790(7) -0.37255(6) 0.99699(8)
Na1D** Na 1.13790(7) 0.62745(6) 0.99699(8)
Na1E Na 0.48955(7) -0.13790(6) -0.00301(8)
Na1E* Na 0.48955(7) 0.86210(6) -0.00301(8)
Na1E** Na 0.48955(7) 0.86210(6) 0.99699(8)
O2* O 0.76382(10) 0.45435(11) 1.07162(13)
O2** O 0.76382(10) 0.45435(11) 2.07162(13)
O2A* O 0.54565(10) 0.30947(11) 1.07162(13)
O2C* O 0.45435(10) 0.76382(11) -0.07162(13)
O2D* O 0.30947(10) 0.54565(11) -0.07162(13)
O2E* O 0.23618(10) 0.69053(11) -0.07162(13)
O3B* O 0.75395(11) 0.35365(12) 0.94429(15)
O3D* O 0.24605(11) 0.59970(12) 0.05571(15)
O3E* O 0.35365(11) 0.75395(12) 0.05571(15)
O4* O 0.67177(11) 0.41461(11) 1.14203(14)
O4A* O 0.58539(11) 0.25716(11) 1.14203(14)
O4C* O 0.41461(11) 0.67177(11) -0.14203(14)
O4D* O 0.25716(11) 0.58539(11) -0.14203(14)
O4E* O 0.32823(11) 0.74284(11) -0.14203(14)
O5* O 0.88844(12) 0.57012(13) -0.10113(17)
O5** O 0.88844(12) 0.57012(13) 1.89887(17)
O5B* O 0.68168(12) 0.11156(13) 0.89887(17)
O5D* O 0.31832(12) 0.42988(13) 0.10113(17)
O6B* O 0.85259(16) 0.42466(18) -0.10511(16)
O6B** O 0.85259(16) 0.42466(18) 0.89489(16)
#END
