
#######################################################################
#
#                 Cambridge Crystallographic Data Centre
#                                CCDC
#
#######################################################################
#
# If this CIF has been generated from an entry in the Cambridge
# Structural Database, then it will include bibliographic, chemical,
# crystal, experimental, refinement or atomic coordinate data resulting
# from the CCDC's data processing and validation procedures.
#
#######################################################################

data_CSD_CIF_LADHIJ
_audit_creation_date 2011-07-18
_audit_creation_method CSD-ConQuest-V1
_database_code_CSD LADHIJ
_database_code_depnum_ccdc_archive 'CCDC 748480'
_chemical_formula_sum 'C42 H63 N11 O18 Zn4'
_chemical_formula_moiety
;
(C26 H17 N10 O13 Zn4 1-)n,n(C16 H36 N1 1+),5n(H2 O1)
;
_journal_coden_Cambridge 155
_journal_volume 363
_journal_year 2010
_journal_page_first 3874
_journal_name_full 'Inorg.Chim.Acta '
loop_
_publ_author_name
"Yanli Chen"
"Li Wang"
"Lirong Zhang"
"Daojun Zhang"
"Xuemin Jing"
"Yong Fan"
"Hong Ren"
"Jinhua Jiang"
"Ping Zhang"
"Jianing Xu"
_chemical_name_systematic
;
catena-(tris(\m~3~-1,2,4-triazolyl)-bis(\m~3~-benzene-1,2,4-tricarboxylato)-ac
etonitrile-aqua-tetra-zinc(ii) tetrabutylammonium pentahydrate)
;
_cell_volume   5773.903
_exptl_crystal_colour 'colorless'
_exptl_crystal_density_diffrn 1.452
_exptl_crystal_description 'block'
_diffrn_ambient_temperature 296
#These two values have been output from a single CSD field.
_refine_ls_R_factor_gt 0.06
_refine_ls_wR_factor_gt 0.06
_symmetry_cell_setting monoclinic
_symmetry_space_group_name_H-M 'P 21/c'
_symmetry_Int_Tables_number 14
loop_
_symmetry_equiv_pos_site_id
_symmetry_equiv_pos_as_xyz
1 x,y,z
2 -x,1/2+y,1/2-z
3 -x,-y,-z
4 x,-1/2-y,-1/2+z
_cell_length_a 14.8858(11)
_cell_length_b 23.0550(18)
_cell_length_c 17.7834(14)
_cell_angle_alpha 90
_cell_angle_beta 108.905(1)
_cell_angle_gamma 90
_cell_formula_units_Z 4
loop_
_atom_type_symbol
_atom_type_radius_bond
C 0.68
H 0.23
N 0.68
O 0.68
Zn 1.22
loop_
_atom_site_label
_atom_site_type_symbol
_atom_site_fract_x
_atom_site_fract_y
_atom_site_fract_z
C1 C 0.4667(9) 0.7541(8) 0.0925(8)
H1 H 0.46110 0.75050 0.03730
H2 H 0.52550 0.73710 0.12460
H3 H 0.46570 0.79440 0.10580
O1 O 0.5944(9) 0.0542(7) 0.5392(10)
C2 C -0.0976(8) 0.9513(5) 0.0489(7)
H4 H -0.10440 0.96440 -0.00380
H5 H -0.10640 0.98340 0.08020
H6 H -0.14440 0.92200 0.04660
C3 C 0.3900(7) 0.7252(6) 0.1067(7)
H7 H 0.39090 0.73410 0.16020
H8 H 0.39920 0.68370 0.10390
C4 C -0.0019(7) 0.9267(4) 0.0856(5)
H9 H 0.00100 0.90770 0.13500
H10 H 0.04420 0.95800 0.09820
O2 O 0.8107(6) 0.4058(3) 0.9036(5)
C5 C 0.3498(5) 0.9746(3) -0.0458(5)
H11 H 0.31020 1.00740 -0.04520
H12 H 0.38280 0.98140 -0.08320
H13 H 0.39500 0.96920 0.00630
C6 C 0.2884(5) 0.9205(3) -0.0699(4)
H14 H 0.32600 0.88960 -0.08170
H15 H 0.23600 0.92870 -0.11780
C7 C 0.2492(5) 0.9002(3) -0.0050(4)
H16 H 0.30110 0.88890 0.04180
H17 H 0.21500 0.93170 0.00970
O3 O 0.3504(4) 0.3601(3) 0.8544(4)
C8 C 0.0863(4) 0.7695(3) -0.0155(4)
H18 H 0.11350 0.74730 -0.04920
H19 H 0.03010 0.78890 -0.04980
N1 N 0.1577(4) 0.8153(2) 0.0283(3)
C9 C 0.6498(4) 1.0816(2) 0.7622(4)
H20 H 0.62580 1.11920 0.75770
C10 C 0.8571(3) 1.0054(2) 0.7319(4)
C11 C 0.7703(3) 1.0151(2) 0.7549(3)
C12 C 0.7324(4) 1.0709(2) 0.7460(4)
H21 H 0.76310 1.10090 0.72920
O4 O 0.6574(3) 0.4252(2) 0.7731(3)
C13 C 0.7224(3) 0.9706(2) 0.7779(3)
H22 H 0.74750 0.93330 0.78390
C14 C 0.6014(3) 1.0369(2) 0.7852(3)
O5 O 0.1053(4) 0.3510(2) 0.6610(3)
Zn1 Zn 0.55487(4) 0.82018(2) 0.84723(3)
Zn2 Zn 0.81050(4) 0.79939(2) 1.19252(3)
Zn3 Zn 0.63302(4) 0.60235(2) 0.68819(3)
Zn4 Zn 0.00145(4) 0.96277(2) 0.70098(4)
O6 O 0.4158(2) 0.82035(15) 0.8121(2)
O7 O -0.0315(2) 0.83853(15) 0.6882(2)
O8 O -0.0619(2) 0.73971(17) 0.7891(2)
O9 O -0.0532(2) 0.70281(16) 0.6780(3)
O10 O 0.5348(3) 0.94151(17) 0.8558(2)
O11 O 0.5102(3) 1.0873(2) 0.8503(3)
O12 O 0.6038(3) 0.88142(16) 0.7931(3)
O13 O 0.7941(2) 0.71328(16) 1.1437(2)
N2 N 0.8360(3) 0.88788(18) 1.2321(3)
N3 N 0.7086(3) 0.82410(19) 1.0872(3)
N4 N 0.6479(3) 0.67503(18) 0.7545(3)
N5 N 0.7656(3) 0.92924(18) 1.2252(3)
O14 O 0.9008(2) 0.95720(16) 0.7512(3)
N6 N 0.6221(3) 0.75494(18) 0.8127(3)
O15 O 0.0909(3) 0.89791(16) 0.7296(3)
N7 N 0.6115(3) 0.83082(19) 0.9634(3)
O16 O 0.8832(3) 1.04309(18) 0.6949(3)
N8 N 0.7170(3) 0.71496(18) 0.7542(3)
O17 O 0.4409(3) 0.73246(17) 0.8633(3)
N9 N 0.6396(3) 0.86449(18) 1.0844(3)
O18 O 0.4326(3) 1.03624(19) 0.7470(3)
N10 N 0.9025(3) 0.97404(19) 1.2652(3)
N11 N -0.0606(4) 0.9581(2) 0.5862(3)
C15 C 0.6378(3) 0.9810(2) 0.7921(3)
C16 C 0.5943(3) 0.7006(2) 0.7900(3)
H23 H 0.54230 0.68290 0.79850
C17 C 0.8079(3) 0.9786(2) 1.2444(3)
H24 H 0.77620 1.01350 1.24390
C18 C 0.9158(3) 0.9170(2) 1.2571(3)
H25 H 0.97540 0.90000 1.26790
C19 C 0.1207(3) 0.7984(2) 0.7541(3)
C20 C 0.2177(3) 0.8075(2) 0.7744(3)
H26 H 0.23990 0.84340 0.76440
C21 C 0.6988(3) 0.7619(2) 0.7888(3)
H27 H 0.73450 0.79570 0.79600
C22 C 0.6884(3) 0.8047(2) 1.0140(3)
H28 H 0.72340 0.77630 0.99890
C23 C 0.0531(3) 0.8477(2) 0.7206(3)
C24 C 0.5845(3) 0.8669(2) 1.0109(3)
H29 H 0.53200 0.89120 0.99320
C25 C 0.5870(3) 0.9318(2) 0.8162(3)
C26 C 0.1503(3) 0.7010(2) 0.8036(3)
H30 H 0.12780 0.66510 0.81320
C27 C 0.2817(3) 0.7644(2) 0.8092(3)
C28 C 0.0867(3) 0.7442(2) 0.7665(3)
C29 C 0.2471(3) 0.7110(2) 0.8264(3)
H31 H 0.28930 0.68230 0.85320
C30 C -0.0166(3) 0.7292(2) 0.7429(3)
C31 C 0.3865(3) 0.7720(2) 0.8303(3)
C32 C 0.5096(4) 1.0525(3) 0.7963(4)
C33 C 0.1836(5) 0.8496(3) -0.0345(4)
H32 H 0.21300 0.82330 -0.06230
H33 H 0.12550 0.86380 -0.07300
C34 C 0.1164(5) 0.8547(3) 0.0766(4)
H34 H 0.10720 0.83220 0.11960
H35 H 0.16280 0.88460 0.10040
C35 C 0.2462(5) 0.7873(4) 0.0861(4)
H36 H 0.22920 0.76980 0.12920
H37 H 0.29240 0.81750 0.10880
C36 C 0.0567(5) 0.7277(3) 0.0387(4)
H38 H 0.03340 0.74940 0.07540
H39 H 0.11110 0.70500 0.06950
C37 C -0.0213(5) 0.6873(3) -0.0116(5)
H40 H -0.00630 0.67540 -0.05850
H41 H -0.02360 0.65270 0.01890
C38 C 0.0240(6) 0.8838(4) 0.0325(5)
H42 H -0.02570 0.85490 0.01450
H43 H 0.02980 0.90360 -0.01380
C39 C -0.1897(7) 0.9360(5) 0.4858(5)
H44 H -0.23080 0.96910 0.47380
H45 H -0.22690 0.90120 0.47150
H46 H -0.14600 0.93810 0.45630
C40 C -0.1159(6) 0.7163(5) -0.0363(6)
H47 H -0.13140 0.72740 0.01010
H48 H -0.16320 0.69000 -0.06770
H49 H -0.11400 0.75010 -0.06710
C41 C -0.1431(7) 0.9351(4) 0.5605(5)
C42 C 0.2932(7) 0.7408(6) 0.0492(6)
H50 H 0.25340 0.70650 0.03680
H51 H 0.30000 0.75540 0.00010
Zn2C Zn -0.18950(4) 0.70061(2) 0.69252(3)
Zn2C* Zn 0.81050(4) 0.70061(2) 0.69252(3)
Zn3A Zn 0.36698(4) 1.10235(2) 0.81181(3)
Zn3C Zn 0.63302(4) 0.89765(2) 1.18819(3)
Zn4* Zn 1.00145(4) 0.96277(2) 0.70098(4)
Zn4B Zn 0.99855(4) 1.03723(2) 1.29902(4)
O8C O 0.9381(2) 0.76029(17) 1.2891(2)
O9C O 0.9468(2) 0.79719(16) 1.1780(3)
O11A O 0.4898(3) 0.5873(2) 0.6497(3)
N5C N 0.7656(3) 0.57076(18) 0.7252(3)
O14* O -0.0992(2) 0.95720(16) 0.7512(3)
O16* O -0.1168(3) 1.04309(18) 0.6949(3)
N8C N 0.7170(3) 0.78504(18) 1.2542(3)
N9C N 0.6396(3) 0.63551(18) 0.5844(3)
O18A O 0.5674(3) 0.53624(19) 0.7530(3)
N10B N 0.0975(3) 1.02596(19) 0.7348(3)
#END
