
#######################################################################
#
#                 Cambridge Crystallographic Data Centre
#                                CCDC
#
#######################################################################
#
# If this CIF has been generated from an entry in the Cambridge
# Structural Database, then it will include bibliographic, chemical,
# crystal, experimental, refinement or atomic coordinate data resulting
# from the CCDC's data processing and validation procedures.
#
#######################################################################

data_CSD_CIF_LADKEJ
_audit_creation_date 2016-02-16
_audit_creation_method CSD-ConQuest-V1
_database_code_CSD LADKEJ
_database_code_depnum_ccdc_archive 'CCDC 1026783'
_chemical_formula_sum 'C60 H54 Cd4 N6 O30'
_chemical_formula_moiety
;
(C36 H18 Cd4 N2 O26 4-)n,2n(C12 H14 N2 2+),4n(H2 O1)
;
_journal_coden_Cambridge 119
_journal_volume 1114
_journal_year 2016
_journal_page_first 38
_journal_name_full 'J.Mol.Struct. '
loop_
_publ_author_name
"M.R.Shimpi"
"S.N.Biswas"
"S.Sarkar"
"V.R.Pedireddi"
_chemical_name_systematic
;
catena-[bis(4,4'-(ethane-1,2-diyl)di(pyridin-1-ium)) 
bis(\m-benzene-1,2,3,4,5-pentacarboxylato)-(\m-4,4'-(ethane-1,2-diyl)dipyridin
e)-(\m-oxalato)-tetra-cadmium tetrahydrate]
;
_cell_volume   1553.088
_exptl_crystal_colour 'red'
_exptl_crystal_density_diffrn 1.906
_exptl_crystal_description 'Block'
_diffrn_ambient_temperature 293
#These two values have been output from a single CSD field.
_refine_ls_R_factor_gt 0.0432
_refine_ls_wR_factor_gt 0.0432
_symmetry_cell_setting triclinic
_symmetry_space_group_name_H-M 'P -1'
_symmetry_Int_Tables_number 2
loop_
_symmetry_equiv_pos_site_id
_symmetry_equiv_pos_as_xyz
1 x,y,z
2 -x,-y,-z
_cell_length_a 9.3037(14)
_cell_length_b 9.5728(15)
_cell_length_c 18.669(3)
_cell_angle_alpha 82.061(3)
_cell_angle_beta 79.153(3)
_cell_angle_gamma 72.695(3)
_cell_formula_units_Z 1
loop_
_atom_type_symbol
_atom_type_radius_bond
C 0.68
H 0.23
Cd 1.44
N 0.68
O 0.68
loop_
_atom_site_label
_atom_site_type_symbol
_atom_site_fract_x
_atom_site_fract_y
_atom_site_fract_z
Cd1 Cd 0.20750(5) 0.82020(5) 0.10807(2)
Cd2 Cd 0.10107(6) 0.76459(5) 0.43271(2)
C1 C 0.1497(7) 0.1543(6) 0.3075(3)
C2 C 0.1858(7) 0.1709(6) 0.2305(3)
C3 C 0.2031(7) 0.3038(6) 0.1965(3)
H1 H 0.236(6) 0.311(6) 0.139(3)
C4 C 0.1857(7) 0.4224(6) 0.2362(3)
C5 C 0.1540(7) 0.4051(6) 0.3131(3)
C6 C 0.1336(7) 0.2729(6) 0.3481(3)
C7 C 0.1396(8) 0.5303(7) 0.3585(3)
C8 C 0.1989(7) 0.5666(7) 0.1950(4)
C9 C 0.1291(8) 0.0113(7) 0.3480(3)
C10 C 0.1985(8) 0.0492(6) 0.1840(3)
C11 C 0.0883(8) 0.2559(7) 0.4305(3)
C12 C 0.9454(9) 0.4589(9) 0.0192(6)
H2 H 0.951(7) 0.381(7) -0.007(4)
H3 H 1.001(9) 0.428(9) 0.063(4)
C13 C 0.7794(8) 0.5451(8) 0.0313(4)
C14 C 0.5675(8) 0.7621(7) 0.0334(4)
H4 H 0.53260 0.86300 0.02230
C15 C 0.7235(8) 0.6961(8) 0.0148(4)
H5 H 0.78860 0.75170 -0.00810
C16 C 0.5212(8) 0.5475(7) 0.0788(4)
H6 H 0.45300 0.49440 0.10070
C17 C 0.6724(8) 0.4711(8) 0.0620(4)
H7 H 0.70270 0.36940 0.07140
C18 C -0.0715(8) 0.9933(7) 0.0272(4)
N1 N 0.4656(6) 0.6937(6) 0.0655(3)
O1 O 0.2270(5) 0.8556(5) 0.5066(2)
H8 H 0.22750 0.93990 0.49100
O2 O -0.1988(5) 1.0670(5) 0.0095(2)
O3 O 0.0216(5) 0.6368(4) 0.3593(2)
O4 O 0.2433(5) 0.5210(5) 0.3943(2)
O5 O -0.0347(6) 0.3450(5) 0.4556(2)
O6 O 0.1529(5) 0.5988(4) 0.1341(2)
O7 O 0.2559(6) 0.6454(5) 0.2217(2)
O8 O 0.0014(5) 0.0113(4) 0.3862(2)
O9 O 0.2403(5) -0.1007(5) 0.3437(2)
O10 O 0.0998(5) -0.0181(5) 0.1985(2)
O11 O 0.3051(5) 0.0236(5) 0.1312(2)
O12 O -0.0513(5) 0.9092(5) 0.0837(3)
O13 O 0.1669(6) 0.1570(5) 0.4685(2)
C19 C 0.7883(9) 0.6888(8) 0.1896(4)
H9 H 0.87240 0.70570 0.15780
C20 C 0.7959(8) 0.5566(9) 0.2270(4)
H10 H 0.88590 0.48120 0.21990
C21 C 0.6728(8) 0.5303(8) 0.2757(4)
C22 C 0.5412(8) 0.6431(8) 0.2844(4)
H11 H 0.45690 0.62940 0.31720
C23 C 0.5341(8) 0.7752(8) 0.2450(4)
H12 H 0.44410 0.85110 0.25000
C24 C 0.6797(9) 0.3819(8) 0.3150(5)
H13 H 0.63700 0.39250 0.36620
H14 H 0.78520 0.32380 0.31250
C25 C 0.5919(9) 0.3019(7) 0.2819(5)
H15 H 0.48360 0.35030 0.29210
H16 H 0.62230 0.30580 0.22920
C26 C 0.6229(8) 0.1445(8) 0.3133(4)
C27 C 0.5256(9) 0.0983(10) 0.3708(5)
H17 H 0.43480 0.16380 0.38970
C28 C 0.5646(13) -0.0456(12) 0.3999(5)
H18 H 0.49880 -0.07890 0.43760
C29 C 0.7541(9) 0.0429(8) 0.2866(4)
H19 H 0.81940 0.07050 0.24670
C30 C 0.7890(11) -0.0948(10) 0.3170(6)
H20 H 0.87870 -0.16190 0.29820
N2 N 0.6562(7) 0.7958(6) 0.1992(3)
H21 H 0.65020 0.88010 0.17510
N3 N 0.6985(11) -0.1377(8) 0.3735(5)
H22 H 0.72560 -0.22590 0.39370
O14 O 0.5843(6) 1.0776(6) 0.1354(3)
H23 H 0.501(4) 1.072(7) 0.123(3)
H24 H 0.64(1) 1.077(11) 0.093(3)
O15 O 0.7173(6) -0.4054(5) 0.4521(3)
C12A C 1.0546(9) 0.5411(9) -0.0192(6)
H2A H 1.049(7) 0.619(7) 0.007(4)
H3A H 0.999(9) 0.572(9) -0.063(4)
C13A C 1.2206(8) 0.4549(8) -0.0313(4)
C14A C 1.4325(8) 0.2379(7) -0.0334(4)
H4A H 1.46740 0.13700 -0.02230
C15A C 1.2765(8) 0.3039(8) -0.0148(4)
H5A H 1.21140 0.24830 0.00810
C16A C 1.4788(8) 0.4525(7) -0.0788(4)
H6A H 1.54700 0.50560 -0.10070
C17A C 1.3276(8) 0.5289(8) -0.0620(4)
H7A H 1.29730 0.63060 -0.07140
N1A N 1.5344(6) 0.3063(6) -0.0655(3)
C18A C 0.0715(8) 1.0067(7) -0.0272(4)
O12A O 0.0513(5) 1.0908(5) -0.0837(3)
O2A O 0.1988(5) 0.9330(5) -0.0095(2)
Cd1A Cd -0.20750(5) 0.17980(5) 0.89193(2)
Cd2A Cd -0.10107(6) 0.23541(5) 0.56729(2)
C1A C -0.1497(7) 0.8457(6) 0.6925(3)
C2A C -0.1858(7) 0.8291(6) 0.7695(3)
C3A C -0.2031(7) 0.6962(6) 0.8035(3)
H1A H -0.236(6) 0.689(6) 0.861(3)
C4A C -0.1857(7) 0.5776(6) 0.7638(3)
C5A C -0.1540(7) 0.5949(6) 0.6869(3)
C6A C -0.1336(7) 0.7271(6) 0.6519(3)
C7A C -0.1396(8) 0.4697(7) 0.6415(3)
C8A C -0.1989(7) 0.4334(7) 0.8050(4)
C9A C -0.1291(8) 0.9887(7) 0.6520(3)
C10A C -0.1985(8) 0.9508(6) 0.8160(3)
C11A C -0.0883(8) 0.7441(7) 0.5695(3)
O1A O -0.2270(5) 0.1444(5) 0.4934(2)
H8A H -0.22750 0.06010 0.50900
O3A O -0.0216(5) 0.3632(4) 0.6407(2)
O4A O -0.2433(5) 0.4790(5) 0.6057(2)
O5A O 0.0347(6) 0.6550(5) 0.5444(2)
O6A O -0.1529(5) 0.4012(4) 0.8659(2)
O7A O -0.2559(6) 0.3546(5) 0.7783(2)
O8A O -0.0014(5) 0.9887(4) 0.6138(2)
O9A O -0.2403(5) 1.1007(5) 0.6563(2)
O10A O -0.0998(5) 1.0181(5) 0.8015(2)
O11A O -0.3051(5) 0.9764(5) 0.8688(2)
O13A O -0.1669(6) 0.8430(5) 0.5315(2)
Cd1* Cd 0.20750(5) -0.17980(5) 0.10807(2)
Cd1A* Cd -0.20750(5) 1.17980(5) -0.10807(2)
Cd1A** Cd -0.20750(5) 1.17980(5) 0.89193(2)
Cd1A*** Cd 1.79250(5) 0.17980(5) -0.10807(2)
Cd2* Cd 0.10107(6) -0.23541(5) 0.43271(2)
Cd2A* Cd -0.10107(6) 1.23541(5) 0.56729(2)
N1A* N -0.4656(6) 0.3063(6) 0.9345(3)
O2* O -0.1988(5) 0.0670(5) 1.0095(2)
O8* O 0.0014(5) 1.0113(4) 0.3862(2)
O8A* O -0.0014(5) -0.0113(4) 0.6138(2)
O9* O 0.2403(5) 0.8993(5) 0.3437(2)
O9A* O -0.2403(5) 0.1007(5) 0.6563(2)
O10* O 0.0998(5) 0.9819(5) 0.1985(2)
O10A* O -0.0998(5) 0.0181(5) 0.8015(2)
O11* O 0.3051(5) 1.0236(5) 0.1312(2)
O11A* O -0.3051(5) -0.0236(5) 0.8688(2)
O12A* O 0.0513(5) 0.0908(5) 0.9163(3)
#END
