
#######################################################################
#
#                 Cambridge Crystallographic Data Centre
#                                CCDC
#
#######################################################################
#
# If this CIF has been generated from an entry in the Cambridge
# Structural Database, then it will include bibliographic, chemical,
# crystal, experimental, refinement or atomic coordinate data resulting
# from the CCDC's data processing and validation procedures.
#
#######################################################################

data_CSD_CIF_LADMOV
_audit_creation_date 2016-02-16
_audit_creation_method CSD-ConQuest-V1
_database_code_CSD LADMOV
_database_code_depnum_ccdc_archive 'CCDC 1440267'
_chemical_formula_sum 'C50 H64 F16 N10 O12 Si1 Zn6'
_chemical_formula_moiety
;
(C30 H24 F8 N6 Zn3 2-)n,n(C20 H24 F2 N4 O4 Zn2 2+),n(H12 O6 Zn1 2+),n(F6 Si1 
2-),2n(H2 O1)
;
_journal_coden_Cambridge 580
_journal_volume 109
_journal_year 2016
_journal_page_first 107
_journal_name_full 'Polyhedron '
loop_
_publ_author_name
"E.B.Coropceanu"
"L.Croitor"
"A.V.Siminel"
"Y.Chumakov"
"M.S.Fonari"
_chemical_name_systematic
;
catena-[tris(\m-4,4'-bipyridine)-tetrakis(\m-fluoro)-tetrakis(fluoro)-tri-zinc
 tris(\m-4,4'-bipyridine)-bis(\m-fluoro)-tetraaqua-di-zinc hexaaqua-zinc 
hexafluorosilicate dihydrate]
;
_cell_volume   6094.564
_exptl_crystal_colour 'colorless'
_exptl_crystal_description 'prism'
_diffrn_ambient_temperature 293
#These two values have been output from a single CSD field.
_refine_ls_R_factor_gt 0.1219
_refine_ls_wR_factor_gt 0.1219
_symmetry_cell_setting monoclinic
_symmetry_space_group_name_H-M 'C 2/c'
_symmetry_Int_Tables_number 15
loop_
_symmetry_equiv_pos_site_id
_symmetry_equiv_pos_as_xyz
1 x,y,z
2 -x,y,1/2-z
3 1/2+x,1/2+y,z
4 1/2-x,1/2+y,1/2-z
5 -x,-y,-z
6 x,-y,-1/2+z
7 -1/2-x,-1/2-y,-z
8 -1/2+x,-1/2-y,-1/2+z
_cell_length_a 10.736(2)
_cell_length_b 25.075(3)
_cell_length_c 22.813(2)
_cell_angle_alpha 90
_cell_angle_beta 97.079(13)
_cell_angle_gamma 90
_cell_formula_units_Z 4
loop_
_atom_type_symbol
_atom_type_radius_bond
C 0.68
H 0.23
F 0.64
N 0.68
O 0.68
Si 1.20
Zn 1.22
loop_
_atom_site_label
_atom_site_type_symbol
_atom_site_fract_x
_atom_site_fract_y
_atom_site_fract_z
Zn1 Zn 0.97046(18) 0.06174(7) 0.49794(8)
F1 F 1.1244(7) 0.0119(3) 0.5066(4)
N1 N 0.9751(15) 0.0670(5) 0.4034(6)
N2 N 0.9797(12) 0.0648(5) 0.5934(6)
O1 O 1.0764(10) 0.1308(4) 0.5068(5)
O2 O 0.7942(10) 0.0988(4) 0.4866(5)
C1 C 0.8789(19) 0.0631(6) 0.3646(8)
H1 H 0.80090 0.05880 0.37780
C2 C 0.884(2) 0.0648(8) 0.3034(8)
H2 H 0.81080 0.06070 0.27710
C3 C 0.9988(18) 0.0727(6) 0.2827(7)
C4 C 1.098(2) 0.0785(7) 0.3239(8)
H3 H 1.17630 0.08580 0.31210
C5 C 1.0877(18) 0.0740(6) 0.3835(8)
H4 H 1.15980 0.07570 0.41050
C6 C 1.0833(17) 0.0748(6) 0.6276(7)
H5 H 1.15500 0.08160 0.60970
C7 C 1.0941(19) 0.0761(7) 0.6881(8)
H6 H 1.17230 0.08200 0.70950
C8 C 0.9929(17) 0.0688(6) 0.7173(7)
C9 C 0.8846(18) 0.0589(6) 0.6824(8)
H7 H 0.81210 0.05360 0.70020
C10 C 0.8761(17) 0.0563(6) 0.6227(7)
H8 H 0.79900 0.04870 0.60100
Zn2 Zn 0.60759(16) 0.22946(6) 0.49897(7)
Zn3 Zn 0.25000 0.25000 0.50000
F2 F 0.7858(6) 0.1992(3) 0.4997(3)
F3 F 0.4416(7) 0.2663(3) 0.4991(3)
F4 F 0.2913(8) 0.1710(3) 0.4936(4)
F5 F 0.5202(10) 0.1532(4) 0.4956(5)
N3 N 0.5783(11) 0.2312(4) 0.4054(5)
N4 N 0.6205(10) 0.2309(4) 0.5921(5)
N5 N 0.7225(11) 0.2450(4) 0.9057(5)
C11 C 0.5347(15) 0.2752(6) 0.3764(6)
H9 H 0.52350 0.30570 0.39830
C12 C 0.5059(15) 0.2774(5) 0.3165(6)
H10 H 0.47870 0.30940 0.29870
C13 C 0.5167(13) 0.2319(6) 0.2811(6)
C14 C 0.5644(16) 0.1868(6) 0.3121(6)
H11 H 0.57760 0.15580 0.29130
C15 C 0.5923(13) 0.1873(5) 0.3722(6)
H12 H 0.62220 0.15620 0.39110
C16 C 0.6637(15) 0.1879(6) 0.6257(6)
H13 H 0.68540 0.15700 0.60670
C17 C 0.6761(15) 0.1884(6) 0.6855(6)
H14 H 0.69720 0.15720 0.70640
C18 C 0.6569(15) 0.2365(6) 0.7166(6)
C19 C 0.6169(15) 0.2799(6) 0.6818(6)
H15 H 0.60150 0.31230 0.69940
C20 C 0.6002(13) 0.2753(5) 0.6221(6)
H16 H 0.57260 0.30530 0.60030
C21 C 0.6789(14) 0.2006(6) 0.8770(6)
H17 H 0.66240 0.17130 0.89980
C22 C 0.6568(14) 0.1953(6) 0.8164(6)
H18 H 0.62770 0.16320 0.79960
C23 C 0.6784(15) 0.2388(5) 0.7804(7)
C24 C 0.7226(13) 0.2862(6) 0.8098(7)
H19 H 0.74050 0.31610 0.78820
C25 C 0.7384(14) 0.2875(6) 0.8699(6)
H20 H 0.76190 0.31980 0.88790
Zn4 Zn 0.50000 0.00000 0.50000
O3 O 0.6034(14) 0.0613(5) 0.5392(6)
O4 O 0.459(3) 0.0502(10) 0.418(1)
O5 O 0.3428(16) 0.0357(7) 0.5213(15)
Si1 Si 0.50000 0.0300(6) 0.25000
F6 F 0.564(2) 0.0280(12) 0.3186(10)
F7 F 0.3974(19) 0.0800(8) 0.2716(10)
F8 F 0.418(2) -0.0194(9) 0.2659(16)
O6 O 0.455(3) 0.0745(11) 0.6401(15)
N1A N 1.0249(15) 0.0670(5) 0.0966(6)
C1A C 1.1211(19) 0.0631(6) 0.1354(8)
H1A H 1.19910 0.05880 0.12220
C2A C 1.116(2) 0.0648(8) 0.1966(8)
H2A H 1.18920 0.06070 0.22290
C3A C 1.0012(18) 0.0727(6) 0.2173(7)
C4A C 0.902(2) 0.0785(7) 0.1761(8)
H3A H 0.82370 0.08580 0.18790
C5A C 0.9123(18) 0.0740(6) 0.1165(8)
H4A H 0.84020 0.07570 0.08950
N2A N 1.0203(12) 0.0648(5) 0.9066(6)
C6A C 0.9167(17) 0.0748(6) 0.8724(7)
H5A H 0.84500 0.08160 0.89030
C7A C 0.9059(19) 0.0761(7) 0.8119(8)
H6A H 0.82770 0.08200 0.79050
C8A C 1.0071(17) 0.0688(6) 0.7827(7)
C9A C 1.1154(18) 0.0589(6) 0.8176(8)
H7A H 1.18790 0.05360 0.79980
C10A C 1.1239(17) 0.0563(6) 0.8773(7)
H8A H 1.20100 0.04870 0.89900
Zn1A Zn 1.02954(18) 0.06174(7) 0.00206(8)
F1A F 0.8756(7) 0.0119(3) -0.0066(4)
O1A O 0.9236(10) 0.1308(4) -0.0068(5)
O2A O 1.2058(10) 0.0988(4) 0.0134(5)
Zn1A* Zn 1.02954(18) 0.06174(7) 1.00206(8)
Zn1D Zn 1.02954(18) -0.06174(7) 0.50206(8)
Zn1E Zn 0.97046(18) -0.06174(7) -0.00206(8)
F1D F 0.8756(7) -0.0119(3) 0.4934(4)
F1E F 1.1244(7) -0.0119(3) 0.0066(4)
N2A* N 1.0203(12) 0.0648(5) -0.0934(6)
N3A N 0.4217(11) 0.2312(4) 0.0946(5)
C11A C 0.4653(15) 0.2752(6) 0.1236(6)
H9A H 0.47650 0.30570 0.10170
C12A C 0.4941(15) 0.2774(5) 0.1835(6)
H10A H 0.52130 0.30940 0.20130
C13A C 0.4833(13) 0.2319(6) 0.2189(6)
C14A C 0.4356(16) 0.1868(6) 0.1879(6)
H11A H 0.42240 0.15580 0.20870
C15A C 0.4077(13) 0.1873(5) 0.1278(6)
H12A H 0.37780 0.15620 0.10890
Zn2A Zn 0.39241(16) 0.22946(6) 0.00103(7)
F2A F 0.2142(6) 0.1992(3) 0.0003(3)
F3A F 0.5584(7) 0.2663(3) 0.0009(3)
F5A F 0.4798(10) 0.1532(4) 0.0044(5)
N4A N 0.3795(10) 0.2309(4) -0.0921(5)
N5A N 0.2775(11) 0.2450(4) -0.4057(5)
C16A C 0.3363(15) 0.1879(6) -0.1257(6)
H13A H 0.31460 0.15700 -0.10670
C17A C 0.3239(15) 0.1884(6) -0.1855(6)
H14A H 0.30280 0.15720 -0.20640
C18A C 0.3431(15) 0.2365(6) -0.2166(6)
C19A C 0.3831(15) 0.2799(6) -0.1818(6)
H15A H 0.39850 0.31230 -0.19940
C20A C 0.3998(13) 0.2753(5) -0.1221(6)
H16A H 0.42740 0.30530 -0.10030
C21A C 0.3211(14) 0.2006(6) -0.3770(6)
H17A H 0.33760 0.17130 -0.39980
C22A C 0.3432(14) 0.1953(6) -0.3164(6)
H18A H 0.37230 0.16320 -0.29960
C23A C 0.3216(15) 0.2388(5) -0.2804(7)
C24A C 0.2774(13) 0.2862(6) -0.3098(7)
H19A H 0.25950 0.31610 -0.28820
C25A C 0.2616(14) 0.2875(6) -0.3699(6)
H20A H 0.23810 0.31980 -0.38790
F4F F 0.2087(8) 0.3290(3) 0.5064(4)
Zn2F Zn 0.89241(16) 0.27054(6) 0.50103(7)
Zn2G Zn 0.10759(16) 0.27054(6) -0.00103(7)
Zn3* Zn 0.25000 0.25000 -0.50000
Zn3A Zn 0.75000 0.25000 0.00000
Zn3A* Zn 0.75000 0.25000 1.00000
F2F F 0.7142(6) 0.3008(3) 0.5003(3)
F2G F 0.2858(6) 0.3008(3) -0.0003(3)
F3F F 0.0584(7) 0.2337(3) 0.5009(3)
N5A* N 0.2775(11) 0.2450(4) 0.5943(5)
N5G N 0.2225(11) 0.2550(4) 0.4057(5)
O3D O 0.3966(14) -0.0613(5) 0.4608(6)
O4D O 0.541(3) -0.0502(10) 0.582(1)
O5D O 0.6572(16) -0.0357(7) 0.4787(15)
F6A F 0.436(2) 0.0280(12) 0.1814(10)
F7A F 0.6026(19) 0.0800(8) 0.2284(10)
F8A F 0.582(2) -0.0194(9) 0.2341(16)
#END
