
#######################################################################
#
#                 Cambridge Crystallographic Data Centre
#                                CCDC
#
#######################################################################
#
# If this CIF has been generated from an entry in the Cambridge
# Structural Database, then it will include bibliographic, chemical,
# crystal, experimental, refinement or atomic coordinate data resulting
# from the CCDC's data processing and validation procedures.
#
#######################################################################

data_CSD_CIF_LADXUM
_audit_creation_date 2016-02-16
_audit_creation_method CSD-ConQuest-V1
_database_code_CSD LADXUM
_database_code_depnum_ccdc_archive 'CCDC 1438439'
_chemical_formula_sum 'C12 H26 N2 O18 U2'
_chemical_formula_moiety
;
C4 H12 N2 2+,2n(C4 H3 O7 U1 1-),4(H2 O1)
;
_journal_coden_Cambridge 580
_journal_volume 114
_journal_year 2016
_journal_page_first 378
_journal_name_full 'Polyhedron '
loop_
_publ_author_name
"E.Cole"
"E.Flores"
"M.Basile"
"Ashini Jayasinghe"
"Joshua de Groot"
"D.K.Unruh"
"T.Z.Forbes"
_chemical_name_systematic
;
catena-[piperazinediium bis((\m-3-carboxylato-2-oxypropanoato)-dioxo-uranium) 
 tetrahydrate]
;
_cell_volume    564.021
_exptl_crystal_colour 'yellow'
_exptl_crystal_description 'blade'
_diffrn_ambient_temperature 210
#These two values have been output from a single CSD field.
_refine_ls_R_factor_gt 0.0268
_refine_ls_wR_factor_gt 0.0268
_symmetry_cell_setting triclinic
_symmetry_space_group_name_H-M 'P -1'
_symmetry_Int_Tables_number 2
loop_
_symmetry_equiv_pos_site_id
_symmetry_equiv_pos_as_xyz
1 x,y,z
2 -x,-y,-z
_cell_length_a 7.9421(6)
_cell_length_b 8.4226(6)
_cell_length_c 9.1852(6)
_cell_angle_alpha 75.067(2)
_cell_angle_beta 73.037(2)
_cell_angle_gamma 79.497(2)
_cell_formula_units_Z 1
loop_
_atom_type_symbol
_atom_type_radius_bond
C 0.68
H 0.23
N 0.68
O 0.68
U 1.96
loop_
_atom_site_label
_atom_site_type_symbol
_atom_site_fract_x
_atom_site_fract_y
_atom_site_fract_z
U1 U 0.11077(3) 0.26848(2) 0.52213(2)
O1 O 0.2862(6) 0.3172(6) 0.3481(6)
O2 O 0.3045(6) 0.2697(5) 0.6755(6)
O3 O 0.0092(6) 0.8561(5) 0.6209(5)
O4 O -0.0633(6) 0.2139(6) 0.6921(5)
O5 O 0.0948(6) 0.5277(5) 0.5835(5)
O6 O 0.2459(7) 0.9864(5) 0.5722(6)
O7 O 0.3836(9) 0.3845(7) 0.8329(8)
C1 C 0.1722(9) 0.8575(7) 0.6063(8)
C2 C 0.3019(10) 0.3890(8) 0.7347(9)
C3 C 0.1801(10) 0.5479(8) 0.6916(9)
H1 H 0.08880 0.56670 0.78720
C4 C 0.2863(10) 0.6923(8) 0.6285(11)
H2 H 0.36850 0.68010 0.52800
H3 H 0.35700 0.69120 0.70020
O8 O 0.2511(12) 0.5776(8) 0.0590(8)
O9 O 0.0062(15) 1.152(2) 0.0275(12)
N1 N 0.3858(8) 0.8772(7) 0.0820(7)
H4 H 0.46350 0.79100 0.11440
H5 H 0.27570 0.84340 0.11690
C5 C 0.4341(11) 0.9215(9) -0.0902(9)
H6 H 0.34520 1.00790 -0.12600
H7 H 0.43530 0.82440 -0.13080
C6 C 0.3872(11) 1.0179(9) 0.1516(9)
H8 H 0.36030 0.98200 0.26540
H9 H 0.29640 1.10770 0.12510
U1* U 0.11077(3) 1.26848(2) 0.52213(2)
U1A U -0.11077(3) 0.73152(2) 0.47787(2)
O3A O -0.0092(6) 0.1439(5) 0.3791(5)
O5A O -0.0948(6) 0.4723(5) 0.4165(5)
O6* O 0.2459(7) -0.0136(5) 0.5722(6)
N1A N 0.6142(8) 1.1228(7) -0.0820(7)
H4A H 0.53650 1.20900 -0.11440
H5A H 0.72430 1.15660 -0.11690
C5A C 0.5659(11) 1.0785(9) 0.0902(9)
H6A H 0.65480 0.99210 0.12600
H7A H 0.56470 1.17560 0.13080
C6A C 0.6128(11) 0.9821(9) -0.1516(9)
H8A H 0.63970 1.01800 -0.26540
H9A H 0.70360 0.89230 -0.12510
#END
