
#######################################################################
#
#                 Cambridge Crystallographic Data Centre
#                                CCDC
#
#######################################################################
#
# If this CIF has been generated from an entry in the Cambridge
# Structural Database, then it will include bibliographic, chemical,
# crystal, experimental, refinement or atomic coordinate data resulting
# from the CCDC's data processing and validation procedures.
#
#######################################################################

data_CSD_CIF_LADZEZ
_audit_creation_date 2020-11-19
_audit_creation_method CSD-ConQuest-V1
_database_code_CSD LADZEZ
_database_code_depnum_ccdc_archive 'CCDC 2008315'
_chemical_formula_sum 'C38 H30 N4 O24 U3'
_chemical_formula_moiety
;
(C32 H16 O22 U3 2-)n,2(C3 H5 N2 1+),2(H2 O1)
;
_journal_coden_Cambridge 1350
_journal_volume 22
_journal_year 2020
_journal_page_first 8394
_journal_name_full 'CrystEngComm '
loop_
_publ_author_name
"G.Andreev"
"N.Budantseva"
"A.Levtsova"
"M.Sokolova"
"A.Fedoseev"
_chemical_name_systematic
;
catena-[bis(imidazolium) tetrakis(\m-isophthalato)-hexaoxo-tri-uranium(vi) 
dihydrate]
;
_cell_volume   1218.222
_exptl_crystal_density_diffrn 2.236
_exptl_crystal_description 'prism'
_diffrn_ambient_temperature 100
_refine_special_details
;
imidazolium cations are disordered:  C17,C18,C19,N1,N2 disordered by symmetry 
over two configurations with occupancy 0.5; C20,C21,C22 disordered by 
symmetry over two configurations with occupancy 0.5; O14 and O13 disordered 
over two sites with occupancies 0.51:0.49.
;
#These two values have been output from a single CSD field.
_refine_ls_R_factor_gt 0.0406
_refine_ls_wR_factor_gt 0.0406
_symmetry_cell_setting triclinic
_symmetry_space_group_name_H-M 'P -1'
_symmetry_Int_Tables_number 2
loop_
_symmetry_equiv_pos_site_id
_symmetry_equiv_pos_as_xyz
1 x,y,z
2 -x,-y,-z
_cell_length_a 8.4843(6)
_cell_length_b 12.6359(10)
_cell_length_c 12.9071(10)
_cell_angle_alpha 118.091(2)
_cell_angle_beta 92.772(3)
_cell_angle_gamma 90.816(3)
_cell_formula_units_Z 1
loop_
_atom_type_symbol
_atom_type_radius_bond
C 0.68
H 0.23
N 0.68
O 0.68
U 1.96
loop_
_atom_site_label
_atom_site_type_symbol
_atom_site_fract_x
_atom_site_fract_y
_atom_site_fract_z
U1 U 0.00000 1.00000 0.00000
U2 U 0.02070(2) 0.75185(2) 0.16574(2)
O1 O 0.0132(5) 1.0526(4) 0.2019(4)
O2 O 0.1193(5) 0.9547(3) 0.2911(3)
O3 O -0.0904(5) 1.1223(5) 0.4811(4)
O4 O 0.2053(5) 0.7012(4) 0.1910(4)
O5 O 0.0552(6) 1.1980(4) 0.6502(4)
O6 O -0.0309(5) 1.3934(4) 0.0371(4)
O7 O -0.1629(5) 0.7996(4) 0.1360(4)
C1 C -0.3254(6) 1.2979(4) 0.0745(5)
O8 O -0.1677(6) 1.1722(4) 0.1220(4)
C2 C -0.2970(7) 1.4167(5) 0.0951(5)
O9 O -0.1144(6) 1.5764(4) 0.1461(4)
O10 O 0.1784(5) 1.0849(4) 0.0314(4)
C3 C 0.0290(8) 1.1735(5) 0.5429(5)
C4 C 0.1838(7) 1.1614(5) 0.3732(5)
C5 C -0.2007(7) 1.2084(5) 0.0492(5)
C6 C -0.1344(7) 1.4647(5) 0.0908(5)
C7 C 0.1618(7) 1.2141(5) 0.4939(5)
C8 C -0.4236(8) 1.4925(6) 0.1220(6)
H1 H -0.40527 1.57177 0.13840
C9 C -0.4767(7) 1.2618(5) 0.0824(6)
H2 H -0.49505 1.18451 0.07175
C10 C 0.0974(6) 1.0485(5) 0.2832(4)
C11 C -0.5739(8) 1.4540(6) 0.1250(6)
H3 H -0.65732 1.50516 0.13995
C12 C -0.6000(8) 1.3361(6) 0.1053(7)
H4 H -0.70120 1.30855 0.10771
C13 C 0.2965(8) 1.2101(6) 0.3334(6)
H5 H 0.30966 1.17614 0.25307
C14 C 0.2555(8) 1.3134(6) 0.5703(6)
H6 H 0.24107 1.34864 0.65057
C15 C 0.3917(9) 1.3099(6) 0.4116(7)
H7 H 0.46894 1.34133 0.38381
C16 C 0.3695(9) 1.3611(7) 0.5305(7)
H8 H 0.43157 1.42781 0.58350
O11 O -0.1355(5) 1.1578(3) -0.0490(3)
C17 C -0.0437(18) 1.4658(13) 0.4798(14)
H9 H -0.01104 1.45081 0.40655
N1 N 0.0021(16) 1.5601(12) 0.5906(11)
H10 H 0.06565 1.61800 0.60000
C18 C -0.1497(16) 1.4009(12) 0.5072(11)
H11 H -0.21193 1.33311 0.45666
C19 C -0.0532(17) 1.5549(13) 0.6722(14)
H12 H -0.03397 1.60966 0.75141
N2 N -0.1403(13) 1.4632(10) 0.6313(9)
H13 H -0.18985 1.43987 0.67406
O12 O -0.2661(16) 1.1915(14) 0.3373(12)
O13? O -0.2116(15) 1.2544(14) 0.3622(11)
N3? N -0.6140(9) 0.9621(7) 0.4824(7)
H14? H -0.69381 0.91384 0.44574
C20? C -0.4839(18) 0.9626(17) 0.4341(15)
H15? H -0.46448 0.91780 0.35498
C21? C -0.610(2) 1.0557(14) 0.6105(13)
H16? H -0.69181 1.07625 0.66093
C22? C -0.465(2) 1.1014(17) 0.6347(15)
H17? H -0.42013 1.15941 0.70684
U2A U -0.02070(2) 1.24815(2) -0.16574(2)
O1A O -0.0132(5) 0.9474(4) -0.2019(4)
O2A O -0.1193(5) 1.0453(3) -0.2911(3)
O3A O 0.0904(5) 0.8777(5) -0.4811(4)
O4A O -0.2053(5) 1.2988(4) -0.1910(4)
O5A O -0.0552(6) 0.8020(4) -0.6502(4)
O6A O 0.0309(5) 0.6066(4) -0.0371(4)
O7A O 0.1629(5) 1.2004(4) -0.1360(4)
C1A C 0.3254(6) 0.7021(4) -0.0745(5)
O8A O 0.1677(6) 0.8278(4) -0.1220(4)
C2A C 0.2970(7) 0.5833(5) -0.0951(5)
O9A O 0.1144(6) 0.4236(4) -0.1461(4)
O10A O -0.1784(5) 0.9151(4) -0.0314(4)
C3A C -0.0290(8) 0.8265(5) -0.5429(5)
C4A C -0.1838(7) 0.8386(5) -0.3732(5)
C5A C 0.2007(7) 0.7916(5) -0.0492(5)
C6A C 0.1344(7) 0.5353(5) -0.0908(5)
C7A C -0.1618(7) 0.7859(5) -0.4939(5)
C8A C 0.4236(8) 0.5075(6) -0.1220(6)
H1A H 0.40527 0.42823 -0.13840
C9A C 0.4767(7) 0.7382(5) -0.0824(6)
H2A H 0.49505 0.81549 -0.07175
C10A C -0.0974(6) 0.9515(5) -0.2832(4)
C11A C 0.5739(8) 0.5460(6) -0.1250(6)
H3A H 0.65732 0.49484 -0.13995
C12A C 0.6000(8) 0.6639(6) -0.1053(7)
H4A H 0.70120 0.69145 -0.10771
C13A C -0.2965(8) 0.7899(6) -0.3334(6)
H5A H -0.30966 0.82386 -0.25307
C14A C -0.2555(8) 0.6866(6) -0.5703(6)
H6A H -0.24107 0.65136 -0.65057
C15A C -0.3917(9) 0.6901(6) -0.4116(7)
H7A H -0.46894 0.65867 -0.38381
C16A C -0.3695(9) 0.6389(7) -0.5305(7)
H8A H -0.43157 0.57219 -0.58350
O11A O 0.1355(5) 0.8422(3) 0.0490(3)
U2* U 0.02070(2) 0.75185(2) -0.83426(2)
U2** U 0.02070(2) 1.75185(2) 0.16574(2)
U2A* U -0.02070(2) 0.24815(2) -0.16574(2)
U2A** U -0.02070(2) 1.24815(2) 0.83426(2)
O5* O 0.0552(6) 1.1980(4) -0.3498(4)
O5A* O -0.0552(6) 0.8020(4) 0.3498(4)
O9* O -0.1144(6) 0.5764(4) 0.1461(4)
O9A* O 0.1144(6) 1.4236(4) -0.1461(4)
C17A C 0.0437(18) 1.5342(13) 0.5202(14)
H9A H 0.01104 1.54919 0.59345
N1A N -0.0021(16) 1.4399(12) 0.4094(11)
H10A H -0.06565 1.38200 0.40000
C18A C 0.1497(16) 1.5991(12) 0.4928(11)
H11A H 0.21193 1.66689 0.54334
C19A C 0.0532(17) 1.4451(13) 0.3278(14)
H12A H 0.03397 1.39034 0.24859
N2A N 0.1403(13) 1.5368(10) 0.3687(9)
H13A H 0.18985 1.56013 0.32594
#END
