
#######################################################################
#
#                 Cambridge Crystallographic Data Centre
#                                CCDC
#
#######################################################################
#
# If this CIF has been generated from an entry in the Cambridge
# Structural Database, then it will include bibliographic, chemical,
# crystal, experimental, refinement or atomic coordinate data resulting
# from the CCDC's data processing and validation procedures.
#
#######################################################################

data_CSD_CIF_LAFFEG
_audit_creation_date 2016-02-16
_audit_creation_method CSD-ConQuest-V1
_database_code_CSD LAFFEG
_database_code_depnum_ccdc_archive 'CCDC 1423556'
_chemical_formula_sum 'C72 H87 N21 O18 Zn3'
_chemical_formula_moiety
;
(C57 H36 N15 O12 Zn3 3-)n,3n(C3 H7 N1 O1),3n(C2 H8 N1 1+),3n(H2 O1)
;
_journal_coden_Cambridge 1220
_journal_volume 22
_journal_year 2016
_journal_page_first 4460
_journal_name_full 'Chem.-Eur.J. '
loop_
_publ_author_name
"Hao Zhang"
"Chensheng Lin"
"Tianlu Sheng"
"Shengmin Hu"
"Chao Zhuo"
"Ruibiao Fu"
"Yuehong Wen"
"Haoran Li"
"Shaodong Su"
"Xintao Wu"
_chemical_name_systematic
;
catena-[tris(dimethylammonium) 
tris(\m-5-aminotetrazolato)-bis(\m-4,4',4''-benzene-1,3,5-tribenzoato)-tri-zin
c N,N-dimethylformamide solvate trihydrate]
;
_cell_volume  12829.760
_exptl_crystal_colour 'colorless'
_exptl_crystal_density_diffrn 1.344
_exptl_crystal_description 'rod'
_diffrn_ambient_temperature 293
#These two values have been output from a single CSD field.
_refine_ls_R_factor_gt 0.0602
_refine_ls_wR_factor_gt 0.0602
_symmetry_cell_setting rhombohedral
_symmetry_space_group_name_H-M 'R -3'
_symmetry_Int_Tables_number 148
loop_
_symmetry_equiv_pos_site_id
_symmetry_equiv_pos_as_xyz
1 x,y,z
2 -y,x-y,z
3 -x+y,-x,z
4 2/3+x,1/3+y,1/3+z
5 2/3-y,1/3+x-y,1/3+z
6 2/3-x+y,1/3-x,1/3+z
7 1/3+x,2/3+y,2/3+z
8 1/3-y,2/3+x-y,2/3+z
9 1/3-x+y,2/3-x,2/3+z
10 -x,-y,-z
11 y,-x+y,-z
12 x-y,x,-z
13 -2/3-x,-1/3-y,-1/3-z
14 -2/3+y,-1/3-x+y,-1/3-z
15 -2/3+x-y,-1/3+x,-1/3-z
16 -1/3-x,-2/3-y,-2/3-z
17 -1/3+y,-2/3-x+y,-2/3-z
18 -1/3+x-y,-2/3+x,-2/3-z
_cell_length_a 31.3837(10)
_cell_length_b 31.3837(10)
_cell_length_c 15.0411(7)
_cell_angle_alpha 90
_cell_angle_beta 90
_cell_angle_gamma 120
_cell_formula_units_Z 6
loop_
_atom_type_symbol
_atom_type_radius_bond
C 0.68
H 0.23
N 0.68
O 0.68
Zn 1.22
loop_
_atom_site_label
_atom_site_type_symbol
_atom_site_fract_x
_atom_site_fract_y
_atom_site_fract_z
Zn1 Zn 0.061264(15) 0.730992(15) 0.48673(2)
C1 C 0.14864(12) 0.73902(12) 0.5458(2)
C2 C 0.18600(12) 0.72225(12) 0.5515(2)
C3 C 0.17617(11) 0.67775(11) 0.5142(2)
H1 H 0.14580 0.65740 0.48790
C4 C 0.21149(11) 0.66367(11) 0.5160(2)
H2 H 0.20430 0.63350 0.49170
C5 C 0.25809(11) 0.69400(11) 0.55392(18)
C6 C 0.26604(12) 0.73728(12) 0.5947(2)
H3 H 0.29590 0.75720 0.62310
C7 C 0.23084(12) 0.75127(12) 0.5939(2)
H4 H 0.23710 0.78030 0.62190
C8 C 0.29646(11) 0.68001(11) 0.55190(18)
C9 C 0.34620(12) 0.71595(11) 0.55146(18)
H5 H 0.35490 0.74900 0.55090
C10 C 0.07503(13) 0.81984(13) 0.4332(2)
C11 C 0.05805(12) 0.85583(12) 0.4163(2)
C12 C 0.08447(13) 0.89570(13) 0.3592(2)
H6 H 0.11240 0.89940 0.33070
C13 C 0.06952(12) 0.92960(12) 0.3447(2)
H7 H 0.08810 0.95630 0.30770
C14 C 0.02734(11) 0.92475(11) 0.38419(19)
C15 C 0.00008(11) 0.88413(11) 0.4392(2)
H8 H -0.02880 0.87950 0.46510
C16 C 0.01560(12) 0.85074(11) 0.4555(2)
H9 H -0.00270 0.82430 0.49330
C17 C 0.01294(11) 0.96315(11) 0.37437(18)
C18 C -0.03648(11) 0.95086(11) 0.37381(19)
H10 H -0.06090 0.91790 0.37310
C19 C 0.04298(12) 0.67123(13) 0.3172(2)
O1 O 0.10901(12) 0.82086(12) 0.3912(3)
O2 O 0.05184(11) 0.78754(10) 0.49310(17)
O3 O 0.15106(10) 0.77166(9) 0.59555(17)
O4 O 0.11539(9) 0.71745(10) 0.48704(16)
N1 N -0.02817(12) 0.65741(16) 0.2791(2)
N2 N 0.00799(10) 0.64808(11) 0.25675(18)
N3 N -0.01572(13) 0.68480(16) 0.3491(2)
N4 N 0.08706(13) 0.67365(17) 0.3173(3)
H11 H 0.09430 0.65950 0.27590
H12 H 0.10790 0.68940 0.35880
N5 N 0.0292(1) 0.69404(11) 0.37588(18)
C20 C -0.0612(2) 0.5064(3) 0.7432(6)
H13 H -0.06940 0.48930 0.68740
H14 H -0.06930 0.53210 0.74120
H15 H -0.07950 0.48370 0.79000
C21 C 0.0080(3) 0.5551(3) 0.8464(5)
H16 H 0.04280 0.56770 0.85220
H17 H -0.00880 0.53330 0.89510
H18 H 0.00150 0.58180 0.84700
N6 N -0.00986(15) 0.52718(16) 0.7596(3)
H19 H 0.00680 0.54780 0.71470
H20 H -0.00260 0.50280 0.75920
C22 C 0.0798(4) 0.4357(3) 0.5533(5)
H21 H 0.05190 0.42870 0.58970
H22 H 0.10510 0.43600 0.58960
H23 H 0.07010 0.41080 0.50840
C23 C 0.1399(2) 0.5002(3) 0.4562(6)
H24 H 0.14840 0.53190 0.43260
H25 H 0.13270 0.47740 0.40830
H26 H 0.16700 0.50290 0.49030
C24 C 0.0773(3) 0.5098(2) 0.5273(3)
H27 H 0.05030 0.49610 0.56520
O5 O 0.0898(2) 0.55079(16) 0.4970(3)
N7 N 0.09836(19) 0.48332(17) 0.5113(3)
O6 O 0.04709(16) 0.58357(15) 0.6181(3)
H28 H 0.03780 0.60390 0.60420
H29 H 0.05950 0.57790 0.57250
C1A C 0.26098(12) 0.40962(12) 0.5458(2)
C2A C 0.27775(12) 0.46375(12) 0.5515(2)
C3A C 0.32225(11) 0.49842(11) 0.5142(2)
H1A H 0.34260 0.48840 0.48790
C4A C 0.33633(11) 0.54782(11) 0.5160(2)
H2A H 0.36650 0.57080 0.49170
C5A C 0.30600(11) 0.56409(11) 0.55392(18)
C6A C 0.26272(12) 0.52876(12) 0.5947(2)
H3A H 0.24280 0.53870 0.62310
C7A C 0.24873(12) 0.47957(12) 0.5939(2)
H4A H 0.21970 0.45680 0.62190
C8A C 0.31999(11) 0.61645(11) 0.55190(18)
C9A C 0.28405(12) 0.63025(11) 0.55146(18)
H5A H 0.25100 0.60590 0.55090
O3A O 0.22834(10) 0.37940(9) 0.59555(17)
O4A O 0.28255(9) 0.39794(10) 0.48704(16)
C1B C 0.59038(12) 0.85136(12) 0.5458(2)
C2B C 0.53625(12) 0.81400(12) 0.5515(2)
C3B C 0.50158(11) 0.82383(11) 0.5142(2)
H1B H 0.51160 0.85420 0.48790
C4B C 0.45218(11) 0.78851(11) 0.5160(2)
H2B H 0.42920 0.79570 0.49170
C5B C 0.43591(11) 0.74191(11) 0.55392(18)
C6B C 0.47124(12) 0.73396(12) 0.5947(2)
H3B H 0.46130 0.70410 0.62310
C7B C 0.52043(12) 0.76916(12) 0.5939(2)
H4B H 0.54320 0.76290 0.62190
C8B C 0.38355(11) 0.70354(11) 0.55190(18)
C9B C 0.36975(12) 0.65380(11) 0.55146(18)
H5B H 0.39410 0.64510 0.55090
O3B O 0.6206(1) 0.84894(9) 0.59555(17)
O4B O 0.60206(9) 0.88461(10) 0.48704(16)
C10A C 0.18016(13) 1.25519(13) 0.4332(2)
C11A C 0.14417(12) 1.20222(12) 0.4163(2)
C12A C 0.10430(13) 1.18877(13) 0.3592(2)
H6A H 0.10060 1.21300 0.33070
C13A C 0.07040(12) 1.13992(12) 0.3447(2)
H7A H 0.04370 1.13180 0.30770
C14A C 0.07525(11) 1.10259(11) 0.38419(19)
C15A C 0.11587(11) 1.11595(11) 0.4392(2)
H8A H 0.12050 1.09170 0.46510
C16A C 0.14926(12) 1.16486(11) 0.4555(2)
H9A H 0.17570 1.17300 0.49330
C17A C 0.03685(11) 1.04979(11) 0.37437(18)
C18A C 0.04914(11) 1.01266(11) 0.37381(19)
H10A H 0.08210 1.02120 0.37310
O1A O 0.17914(12) 1.28815(12) 0.3912(3)
O2A O 0.21246(11) 1.2643(1) 0.49310(17)
C10B C -0.25519(13) 0.92497(13) 0.4332(2)
C11B C -0.20222(12) 0.94195(12) 0.4163(2)
C12B C -0.18877(13) 0.91553(13) 0.3592(2)
H6B H -0.21300 0.88760 0.33070
C13B C -0.13992(12) 0.93048(12) 0.3447(2)
H7B H -0.13180 0.91190 0.30770
C14B C -0.10259(11) 0.97266(11) 0.38419(19)
C15B C -0.11595(11) 0.99992(11) 0.4392(2)
H8B H -0.09170 1.02880 0.46510
C16B C -0.16486(12) 0.98440(11) 0.4555(2)
H9B H -0.17300 1.00270 0.49330
C17B C -0.04979(11) 0.98706(11) 0.37437(18)
C18B C -0.01266(11) 1.03648(11) 0.37381(19)
H10B H -0.02120 1.06090 0.37310
O1B O -0.28815(12) 0.89099(12) 0.3912(3)
O2B O -0.26430(11) 0.94816(10) 0.49310(17)
Zn1A Zn 0.269008(15) 0.330272(15) 0.48673(2)
C19A C 0.32877(12) 0.37175(13) 0.3172(2)
N1A N 0.34259(12) 0.31442(16) 0.2791(2)
N2A N 0.35192(10) 0.35991(11) 0.25675(18)
N3A N 0.31520(13) 0.29948(16) 0.3491(2)
N4A N 0.32635(13) 0.41341(17) 0.3173(3)
H11A H 0.34050 0.43480 0.27590
H12A H 0.31060 0.41850 0.35880
N5A N 0.30596(10) 0.33516(11) 0.37588(18)
Zn1D Zn -0.064325(15) 0.663605(15) 0.820063(20)
C19D C -0.004563(120) 0.705083(130) 0.650533(200)
N1D N 0.009257(120) 0.647753(160) 0.612433(200)
N2D N 0.018587(100) 0.693243(110) 0.590083(180)
N3D N -0.018133(130) 0.632813(160) 0.682433(200)
N4D N -0.006983(130) 0.746743(170) 0.650633(300)
H11D H 0.00717 0.76813 0.60923
H12D H -0.02273 0.75183 0.69213
N5D N -0.027373(100) 0.668493(110) 0.709213(180)
Zn1A* Zn 0.269008(15) 1.330272(15) 0.48673(2)
Zn1B Zn -0.330272(15) 0.938736(15) 0.48673(2)
Zn1B* Zn 0.669728(15) 0.938736(15) 0.48673(2)
Zn1F Zn 0.394597(15) 0.397659(15) 0.153397(20)
Zn1H Zn 0.003061(15) 0.605403(15) 0.153397(20)
O2A* O 0.21246(11) 0.2643(1) 0.49310(17)
O2D O -0.120873(110) 0.597633(100) 0.826433(170)
O4D O -0.050783(90) 0.731273(100) 0.820373(160)
N2E N 0.306757(100) 0.325343(110) 0.590083(180)
N2H N -0.026577(100) 0.658677(110) 0.923417(180)
#END
