
#######################################################################
#
#                 Cambridge Crystallographic Data Centre
#                                CCDC
#
#######################################################################
#
# If this CIF has been generated from an entry in the Cambridge
# Structural Database, then it will include bibliographic, chemical,
# crystal, experimental, refinement or atomic coordinate data resulting
# from the CCDC's data processing and validation procedures.
#
#######################################################################

data_CSD_CIF_LAFFEG02
_audit_creation_date 2016-05-16
_audit_creation_method CSD-ConQuest-V1
_database_code_CSD LAFFEG02
_database_code_depnum_ccdc_archive 'CCDC 1475917'
_chemical_formula_sum 'C72 H87 N21 O18 Zn3'
_chemical_formula_moiety
;
(C2 H8 N1 1+)3n,n(C57 H36 N15 O12 Zn3 3-),3n(C3 H7 N1 O1),3n(H2 O1)
;
_journal_coden_Cambridge 1220
_journal_volume 22
_journal_year 2016
_journal_page_first 4460
_journal_name_full 'Chem.-Eur.J. '
loop_
_publ_author_name
"Hao Zhang"
"Chensheng Lin"
"Tianlu Sheng"
"Shengmin Hu"
"Chao Zhuo"
"Ruibiao Fu"
"Yuehong Wen"
"Haoran Li"
"Shaodong Su"
"Xintao Wu"
_chemical_name_systematic
;
catena-[tris(Dimethylammonium) 
bis(\m~3~-1,3,5-tris(4-carboxylatophenyl)benzene)-tris(\m~2~-5-aminotetrazolid
o)-tri-zinc N,N-dimethylformamide solvate trihydrate]
;
_cell_volume  12895.008
_exptl_crystal_colour 'colorless'
_exptl_crystal_density_diffrn 1.337
_exptl_crystal_description 'rod'
_diffrn_ambient_temperature 77
#These two values have been output from a single CSD field.
_refine_ls_R_factor_gt 0.0948
_refine_ls_wR_factor_gt 0.0948
_symmetry_cell_setting rhombohedral
_symmetry_space_group_name_H-M 'R -3'
_symmetry_Int_Tables_number 148
loop_
_symmetry_equiv_pos_site_id
_symmetry_equiv_pos_as_xyz
1 x,y,z
2 -y,x-y,z
3 -x+y,-x,z
4 2/3+x,1/3+y,1/3+z
5 2/3-y,1/3+x-y,1/3+z
6 2/3-x+y,1/3-x,1/3+z
7 1/3+x,2/3+y,2/3+z
8 1/3-y,2/3+x-y,2/3+z
9 1/3-x+y,2/3-x,2/3+z
10 -x,-y,-z
11 y,-x+y,-z
12 x-y,x,-z
13 -2/3-x,-1/3-y,-1/3-z
14 -2/3+y,-1/3-x+y,-1/3-z
15 -2/3+x-y,-1/3+x,-1/3-z
16 -1/3-x,-2/3-y,-2/3-z
17 -1/3+y,-2/3-x+y,-2/3-z
18 -1/3+x-y,-2/3+x,-2/3-z
_cell_length_a 31.4077(9)
_cell_length_b 31.4077(9)
_cell_length_c 15.0945(7)
_cell_angle_alpha 90
_cell_angle_beta 90
_cell_angle_gamma 120
_cell_formula_units_Z 6
loop_
_atom_type_symbol
_atom_type_radius_bond
C 0.68
H 0.23
N 0.68
O 0.68
Zn 1.22
loop_
_atom_site_label
_atom_site_type_symbol
_atom_site_fract_x
_atom_site_fract_y
_atom_site_fract_z
Zn1 Zn 0.06099(2) 0.73073(2) 0.48688(4)
C1 C 0.14877(18) 0.73931(18) 0.5454(3)
C2 C 0.18614(17) 0.72238(17) 0.5509(3)
C3 C 0.17635(17) 0.67761(17) 0.5133(3)
H1 H 0.14600 0.65720 0.48700
C4 C 0.21152(17) 0.66387(17) 0.5153(3)
H2 H 0.20440 0.63390 0.49060
C5 C 0.25817(17) 0.69405(16) 0.5539(3)
C6 C 0.26610(18) 0.73749(18) 0.5944(3)
H3 H 0.29590 0.75750 0.62270
C7 C 0.2307(2) 0.75147(19) 0.5933(3)
H4 H 0.23680 0.78040 0.62110
C8 C 0.29656(17) 0.67981(17) 0.5520(3)
C9 C 0.34646(17) 0.71604(18) 0.5516(3)
H5 H 0.35520 0.74900 0.55100
C10 C 0.0747(2) 0.81930(19) 0.4334(4)
C11 C 0.05795(18) 0.85585(18) 0.4167(3)
C12 C 0.08423(19) 0.89555(19) 0.3593(4)
H6 H 0.11200 0.89910 0.33060
C13 C 0.0695(2) 0.92930(19) 0.3449(3)
H7 H 0.08810 0.95600 0.30800
C14 C 0.02707(17) 0.92456(16) 0.3841(3)
C15 C 0.00002(17) 0.88435(16) 0.4393(3)
H8 H -0.02860 0.88020 0.46580
C16 C 0.01507(18) 0.85032(17) 0.4556(3)
H9 H -0.00350 0.82370 0.49260
C17 C 0.01307(17) 0.96325(16) 0.3745(3)
C18 C -0.03652(17) 0.95084(17) 0.3740(3)
H10 H -0.06090 0.91790 0.37340
C19 C 0.04252(18) 0.6707(2) 0.3180(3)
O1 O 0.10882(19) 0.8207(2) 0.3917(4)
O2 O 0.05124(18) 0.78729(15) 0.4926(3)
O3 O 0.15096(16) 0.77167(14) 0.5946(3)
O4 O 0.11538(14) 0.71742(15) 0.4866(3)
N1 N -0.02840(19) 0.6573(3) 0.2798(4)
N2 N 0.00779(15) 0.64786(17) 0.2570(3)
N3 N -0.01587(19) 0.6847(3) 0.3493(4)
N4 N 0.0867(2) 0.6735(3) 0.3178(4)
H11 H 0.09420 0.65990 0.27590
H12 H 0.10740 0.68890 0.35960
N5 N 0.02896(15) 0.69370(17) 0.3763(3)
C20 C -0.0609(4) 0.5072(5) 0.7453(12)
H13 H -0.06940 0.49000 0.68970
H14 H -0.06860 0.53310 0.74350
H15 H -0.07920 0.48470 0.79210
C21 C 0.0081(7) 0.5551(6) 0.8478(8)
H16 H 0.04280 0.56760 0.85320
H17 H -0.00870 0.53330 0.89630
H18 H 0.00160 0.58190 0.84880
N6 N -0.0102(3) 0.5272(3) 0.7609(6)
H19 H 0.00650 0.54780 0.71610
H20 H -0.00330 0.50270 0.76020
C22 C 0.0804(7) 0.4360(5) 0.5541(8)
H21 H 0.05260 0.42890 0.59040
H22 H 0.10590 0.43670 0.59020
H23 H 0.07080 0.41110 0.50950
C23 C 0.1392(4) 0.4994(6) 0.4551(10)
H24 H 0.14780 0.53110 0.43120
H25 H 0.13100 0.47630 0.40760
H26 H 0.16650 0.50180 0.48780
C24 C 0.0771(5) 0.5097(4) 0.5291(6)
H27 H 0.05000 0.49610 0.56660
O5 O 0.0910(3) 0.5514(3) 0.4982(5)
N7 N 0.0985(3) 0.4836(3) 0.5118(5)
O6 O 0.0473(3) 0.5836(3) 0.6185(5)
H28 H 0.03810 0.60390 0.60460
H29 H 0.05970 0.57800 0.57290
C1A C 0.26069(18) 0.40946(18) 0.5454(3)
C2A C 0.27762(17) 0.46376(17) 0.5509(3)
C3A C 0.32239(17) 0.49874(17) 0.5133(3)
H1A H 0.34280 0.48880 0.48700
C4A C 0.33613(17) 0.54765(17) 0.5153(3)
H2A H 0.36610 0.57050 0.49060
C5A C 0.30595(17) 0.56412(16) 0.5539(3)
C6A C 0.26251(18) 0.52861(18) 0.5944(3)
H3A H 0.24250 0.53840 0.62270
C7A C 0.24853(20) 0.47923(19) 0.5933(3)
H4A H 0.21960 0.45640 0.62110
C8A C 0.32019(17) 0.61675(17) 0.5520(3)
C9A C 0.28396(17) 0.63042(18) 0.5516(3)
H5A H 0.25100 0.60620 0.55100
O3A O 0.22833(16) 0.37929(14) 0.5946(3)
O4A O 0.28258(14) 0.39796(15) 0.4866(3)
C1B C 0.59054(18) 0.85123(18) 0.5454(3)
C2B C 0.53624(17) 0.81386(17) 0.5509(3)
C3B C 0.50126(17) 0.82365(17) 0.5133(3)
H1B H 0.51120 0.85400 0.48700
C4B C 0.45235(17) 0.78848(17) 0.5153(3)
H2B H 0.42950 0.79560 0.49060
C5B C 0.43588(17) 0.74183(16) 0.5539(3)
C6B C 0.47139(18) 0.73390(18) 0.5944(3)
H3B H 0.46160 0.70410 0.62270
C7B C 0.52077(20) 0.76930(19) 0.5933(3)
H4B H 0.54360 0.76320 0.62110
C8B C 0.38325(17) 0.70344(17) 0.5520(3)
C9B C 0.36958(17) 0.65354(18) 0.5516(3)
H5B H 0.39380 0.64480 0.55100
O3B O 0.62071(16) 0.84904(14) 0.5946(3)
O4B O 0.60204(14) 0.88462(15) 0.4866(3)
C10A C 0.1807(2) 1.25540(19) 0.4334(4)
C11A C 0.14415(18) 1.20210(18) 0.4167(3)
C12A C 0.10445(19) 1.18868(19) 0.3593(4)
H6A H 0.10090 1.21290 0.33060
C13A C 0.0707(2) 1.14020(19) 0.3449(3)
H7A H 0.04400 1.13210 0.30800
C14A C 0.07544(17) 1.10251(16) 0.3841(3)
C15A C 0.11565(17) 1.11567(16) 0.4393(3)
H8A H 0.11980 1.09120 0.46580
C16A C 0.14968(18) 1.16475(17) 0.4556(3)
H9A H 0.17630 1.17280 0.49260
C17A C 0.03675(17) 1.04982(16) 0.3745(3)
C18A C 0.04916(17) 1.01264(17) 0.3740(3)
H10A H 0.08210 1.02120 0.37340
O1A O 0.17930(19) 1.28812(20) 0.3917(4)
O2A O 0.21271(18) 1.26395(15) 0.4926(3)
C10B C -0.2554(2) 0.92530(19) 0.4334(4)
C11B C -0.20210(18) 0.94205(18) 0.4167(3)
C12B C -0.18868(19) 0.91577(19) 0.3593(4)
H6B H -0.21290 0.88800 0.33060
C13B C -0.1402(2) 0.93050(19) 0.3449(3)
H7B H -0.13210 0.91190 0.30800
C14B C -0.10251(17) 0.97293(16) 0.3841(3)
C15B C -0.11567(17) 0.99998(16) 0.4393(3)
H8B H -0.09120 1.02860 0.46580
C16B C -0.16475(18) 0.98493(17) 0.4556(3)
H9B H -0.17280 1.00350 0.49260
C17B C -0.04982(17) 0.98693(16) 0.3745(3)
C18B C -0.01264(17) 1.03652(17) 0.3740(3)
H10B H -0.02120 1.06090 0.37340
O1B O -0.28812(19) 0.89118(20) 0.3917(4)
O2B O -0.26395(18) 0.94876(15) 0.4926(3)
Zn1A Zn 0.26927(2) 0.33026(2) 0.48688(4)
C19A C 0.32930(18) 0.37182(20) 0.3180(3)
N1A N 0.34270(19) 0.3143(3) 0.2798(4)
N2A N 0.35214(15) 0.35993(17) 0.2570(3)
N3A N 0.31530(19) 0.29943(30) 0.3493(4)
N4A N 0.3265(2) 0.4132(3) 0.3178(4)
H11A H 0.34010 0.43430 0.27590
H12A H 0.31110 0.41850 0.35960
N5A N 0.30630(15) 0.33526(17) 0.3763(3)
Zn1D Zn -0.064063(20) 0.663593(20) 0.820213(40)
C19D C -0.004033(180) 0.705153(200) 0.651333(300)
N1D N 0.009367(190) 0.647633(300) 0.613133(400)
N2D N 0.018807(150) 0.693263(170) 0.590333(300)
N3D N -0.018033(190) 0.632763(300) 0.682633(400)
N4D N -0.006833(200) 0.746533(300) 0.651133(400)
H11D H 0.00677 0.76763 0.60923
H12D H -0.02223 0.75183 0.69293
N5D N -0.027033(150) 0.668593(170) 0.709633(300)
Zn1A* Zn 0.26927(2) 1.33026(2) 0.48688(4)
Zn1B Zn -0.33026(2) 0.93901(2) 0.48688(4)
Zn1B* Zn 0.66974(2) 0.93901(2) 0.48688(4)
Zn1F Zn 0.394323(20) 0.397397(20) 0.153547(40)
Zn1H Zn 0.003073(20) 0.605677(20) 0.153547(40)
O2A* O 0.21271(18) 0.26395(15) 0.4926(3)
O2D O -0.120623(180) 0.597283(150) 0.825933(300)
O4D O -0.050753(140) 0.731293(150) 0.819933(300)
N2E N 0.306737(150) 0.325543(170) 0.590333(300)
N2H N -0.026597(150) 0.658877(170) 0.923667(300)
#END
