
#######################################################################
#
#                 Cambridge Crystallographic Data Centre
#                                CCDC
#
#######################################################################
#
# If this CIF has been generated from an entry in the Cambridge
# Structural Database, then it will include bibliographic, chemical,
# crystal, experimental, refinement or atomic coordinate data resulting
# from the CCDC's data processing and validation procedures.
#
#######################################################################

data_CSD_CIF_LAGGIK
_audit_creation_date 2005-02-01
_audit_creation_method CSD-ConQuest-V1
_database_code_CSD LAGGIK
_database_code_depnum_ccdc_archive 'CCDC 233303'
_chemical_formula_sum 'C12 H32 N4 O21 V2 Zn1'
_chemical_formula_moiety
;
(C12 H20 N2 O19 V2 Zn1 2-)n,2n(H4 N1 1+),2n(H2 O1)
;
_journal_coden_Cambridge 580
_journal_volume 23
_journal_year 2004
_journal_page_first 1975
_journal_name_full 'Polyhedron '
loop_
_publ_author_name
"Quanzheng Zhang"
"Canzhong Lu"
"Wenbin Yang"
"Shumei Chen"
"Yaqin Yu"
"XiangHe"
"Ying Yan"
"Jiuhui Liu"
"Xinjiang Xu"
"Changkun Xia"
"Lijuan Chen"
"Xiaoyuan Wu"
_chemical_name_systematic
;
catena-(bis(Ammonium) 
bis(\m~2~-nitrilotriacetato)-(\m~2~-oxo)-tetra-aqua-dioxo-di-vanadium(iv)-zinc
 dihydrate)
;
_cell_volume   1197.905
_exptl_crystal_colour 'deep blue'
_exptl_crystal_density_diffrn 2.039
_exptl_special_details
;
isostructural with the Mn analogue

;
_exptl_crystal_description 'prism'
_diffrn_ambient_temperature 293
_refine_special_details
;
The ammonium cation is disordered by symmetry.

;
#These two values have been output from a single CSD field.
_refine_ls_R_factor_gt 0.0529
_refine_ls_wR_factor_gt 0.0529
_symmetry_cell_setting monoclinic
_symmetry_space_group_name_H-M 'P 21/n'
_symmetry_Int_Tables_number 14
loop_
_symmetry_equiv_pos_site_id
_symmetry_equiv_pos_as_xyz
1 x,y,z
2 1/2+x,1/2-y,1/2+z
3 -x,-y,-z
4 -1/2-x,-1/2+y,-1/2-z
_cell_length_a 10.738(6)
_cell_length_b 10.217(5)
_cell_length_c 11.070(6)
_cell_angle_alpha 90
_cell_angle_beta 99.480(7)
_cell_angle_gamma 90
_cell_formula_units_Z 2
loop_
_atom_type_symbol
_atom_type_radius_bond
C 0.68
H 0.23
N 0.68
O 0.68
V 1.33
Zn 1.45
loop_
_atom_site_label
_atom_site_type_symbol
_atom_site_fract_x
_atom_site_fract_y
_atom_site_fract_z
V1 V 0.49046(8) 0.09286(8) 0.35826(7)
Zn1 Zn 0.00000 0.00000 0.50000
N1 N 0.3836(4) -0.0823(4) 0.2648(4)
N2 N 0.517(2) -0.5153(16) 0.4528(12)
C1 C 0.3543(5) -0.0591(5) 0.1319(5)
H1 H 0.26430 -0.07080 0.10520
H2 H 0.39770 -0.12420 0.09040
C2 C 0.3916(4) 0.0759(5) 0.0941(5)
C3 C 0.4723(5) -0.1905(5) 0.2982(5)
H3 H 0.45840 -0.25720 0.23510
H4 H 0.45690 -0.22950 0.37430
C4 C 0.6073(5) -0.1436(6) 0.3131(5)
C5 C 0.2689(5) -0.0882(5) 0.3232(5)
H5 H 0.28520 -0.14300 0.39560
H6 H 0.20030 -0.12720 0.26670
C6 C 0.2307(5) 0.0469(6) 0.3587(5)
O1 O 0.4527(3) 0.1476(3) 0.1780(3)
O2 O 0.3630(4) 0.1096(3) -0.0139(3)
O3 O 0.6276(3) -0.0191(4) 0.3150(3)
O4 O 0.6929(4) -0.2259(5) 0.3262(5)
O5 O 0.3121(4) 0.1382(4) 0.3621(4)
O6 O 0.1244(4) 0.0662(5) 0.3842(5)
O7 O 0.5661(4) 0.2260(4) 0.4000(3)
O8 O 0.50000 0.00000 0.50000
O9 O 0.0714(4) 0.1347(4) 0.6282(4)
O10 O -0.1376(3) 0.1319(3) 0.4197(3)
O11 O 0.6468(8) -0.4846(8) 0.3534(7)
V1B V 0.50954(8) -0.09286(8) 0.64174(7)
N1B N 0.6164(4) 0.0823(4) 0.7352(4)
C1B C 0.6457(5) 0.0591(5) 0.8681(5)
H1B H 0.73570 0.07080 0.89480
H2B H 0.60230 0.12420 0.90960
C2B C 0.6084(4) -0.0759(5) 0.9059(5)
O1B O 0.5473(3) -0.1476(3) 0.8220(3)
O3B O 0.3724(3) 0.0191(4) 0.6850(3)
C4B C 0.3927(5) 0.1436(6) 0.6869(5)
C3B C 0.5277(5) 0.1905(5) 0.7018(5)
C5B C 0.7311(5) 0.0882(5) 0.6768(5)
H5B H 0.71480 0.14300 0.60440
H6B H 0.79970 0.12720 0.73330
C6B C 0.7693(5) -0.0469(6) 0.6413(5)
O5B O 0.6879(4) -0.1382(4) 0.6379(4)
O7B O 0.4339(4) -0.2260(4) 0.6000(3)
O6B O 0.8756(4) -0.0662(5) 0.6158(5)
Zn1B Zn 1.00000 0.00000 0.50000
H3B H 0.54160 0.25720 0.76490
H4B H 0.54310 0.22950 0.62570
O4B O 0.3071(4) 0.2259(5) 0.6738(5)
O2B O 0.6370(4) -0.1096(3) 1.0139(3)
O6B* O -0.1244(4) -0.0662(5) 0.6158(5)
O9B O -0.0714(4) -0.1347(4) 0.3718(4)
O10B O 0.1376(3) -0.1319(3) 0.5803(3)
N2B N 0.483(2) -0.4847(16) 0.5472(12)
#END
