
#######################################################################
#
#                 Cambridge Crystallographic Data Centre
#                                CCDC
#
#######################################################################
#
# If this CIF has been generated from an entry in the Cambridge
# Structural Database, then it will include bibliographic, chemical,
# crystal, experimental, refinement or atomic coordinate data resulting
# from the CCDC's data processing and validation procedures.
#
#######################################################################

data_CSD_CIF_LAGGEG
_audit_creation_date 2005-02-01
_audit_creation_method CSD-ConQuest-V1
_database_code_CSD LAGGEG
_database_code_depnum_ccdc_archive 'CCDC 233302'
_chemical_formula_sum 'C12 H32 Mn1 N4 O21 V2'
_chemical_formula_moiety
;
(C12 H20 Mn1 N2 O19 V2 2-)n,2n(H4 N1 1+),2n(H2 O1)
;
_journal_coden_Cambridge 580
_journal_volume 23
_journal_year 2004
_journal_page_first 1975
_journal_name_full 'Polyhedron '
loop_
_publ_author_name
"Quanzheng Zhang"
"Canzhong Lu"
"Wenbin Yang"
"Shumei Chen"
"Yaqin Yu"
"XiangHe"
"Ying Yan"
"Jiuhui Liu"
"Xinjiang Xu"
"Changkun Xia"
"Lijuan Chen"
"Xiaoyuan Wu"
_chemical_name_systematic
;
catena-(bis(Ammonium) 
bis(\m~2~-nitrilotriacetato)-(\m~2~-oxo)-tetra-aqua-dioxo-manganese-di-vanadiu
m(iv) dihydrate)
;
_cell_volume   1240.477
_exptl_crystal_colour 'deep blue'
_exptl_crystal_density_diffrn 1.942
_exptl_special_details
;
isostructural with the Zn analogue

;
_exptl_crystal_description 'prism'
_diffrn_ambient_temperature 293
_refine_special_details
;
The ammonium cation is disordered by symmetry.

;
#These two values have been output from a single CSD field.
_refine_ls_R_factor_gt 0.0732
_refine_ls_wR_factor_gt 0.0732
_symmetry_cell_setting monoclinic
_symmetry_space_group_name_H-M 'P 21/n'
_symmetry_Int_Tables_number 14
loop_
_symmetry_equiv_pos_site_id
_symmetry_equiv_pos_as_xyz
1 x,y,z
2 1/2+x,1/2-y,1/2+z
3 -x,-y,-z
4 -1/2-x,-1/2+y,-1/2-z
_cell_length_a 10.8755(9)
_cell_length_b 10.2993(8)
_cell_length_c 11.2187(10)
_cell_angle_alpha 90
_cell_angle_beta 99.190(2)
_cell_angle_gamma 90
_cell_formula_units_Z 2
loop_
_atom_type_symbol
_atom_type_radius_bond
C 0.68
H 0.23
Mn 1.35
N 0.69
O 0.68
V 1.27
loop_
_atom_site_label
_atom_site_type_symbol
_atom_site_fract_x
_atom_site_fract_y
_atom_site_fract_z
Mn1 Mn 0.00000 0.00000 0.50000
V1 V 0.48998(11) 0.08894(11) 0.35897(10)
N1 N 0.3848(5) -0.0865(5) 0.2670(5)
N2 N 0.510(4) -0.523(4) 0.455(3)
C1 C 0.3586(7) -0.0624(7) 0.1354(6)
H1 H 0.40460 -0.12500 0.09530
H2 H 0.27060 -0.07680 0.10740
C2 C 0.3913(6) 0.0697(7) 0.0992(6)
C3 C 0.4722(6) -0.1940(7) 0.3012(7)
H3 H 0.45820 -0.26170 0.24050
H4 H 0.45810 -0.23050 0.37760
C4 C 0.6061(7) -0.1454(9) 0.3127(7)
C5 C 0.2710(7) -0.0924(7) 0.3222(7)
H5 H 0.28540 -0.14720 0.39340
H6 H 0.20400 -0.13040 0.26550
C6 C 0.2338(8) 0.0416(8) 0.3570(7)
O1 O 0.4514(5) 0.1430(5) 0.1809(4)
O2 O 0.3632(6) 0.1048(6) -0.0070(5)
O3 O 0.6242(4) -0.0226(6) 0.3160(5)
O4 O 0.6898(6) -0.2271(8) 0.3238(8)
O5 O 0.3127(5) 0.1320(5) 0.3620(5)
O6 O 0.1258(5) 0.0594(7) 0.3787(6)
O7 O 0.5631(6) 0.2213(5) 0.3970(5)
O8 O 0.50000 0.00000 0.50000
O9 O 0.0757(5) 0.1434(6) 0.6275(6)
O10 O -0.1411(5) 0.1390(5) 0.4203(5)
O11 O 0.6485(11) -0.4873(11) 0.3552(9)
V1B V 0.51002(11) -0.08894(11) 0.64103(10)
N1B N 0.6152(5) 0.0865(5) 0.7330(5)
C1B C 0.6414(7) 0.0624(7) 0.8646(6)
H1B H 0.59540 0.12500 0.90470
H2B H 0.72940 0.07680 0.89260
C2B C 0.6087(6) -0.0697(7) 0.9008(6)
O1B O 0.5486(5) -0.1430(5) 0.8191(4)
O3B O 0.3758(4) 0.0226(6) 0.6840(5)
C4B C 0.3939(7) 0.1454(9) 0.6873(7)
C3B C 0.5278(6) 0.1940(7) 0.6988(7)
C5B C 0.7290(7) 0.0924(7) 0.6778(7)
H5B H 0.71460 0.14720 0.60660
H6B H 0.79600 0.13040 0.73450
C6B C 0.7662(8) -0.0416(8) 0.6430(7)
O5B O 0.6873(5) -0.1320(5) 0.6380(5)
O7B O 0.4369(6) -0.2213(5) 0.6030(5)
O6B O 0.8742(5) -0.0594(7) 0.6213(6)
Mn1B Mn 1.00000 0.00000 0.50000
H3B H 0.54180 0.26170 0.75950
H4B H 0.54190 0.23050 0.62240
O4B O 0.3102(6) 0.2271(8) 0.6762(8)
O2B O 0.6368(6) -0.1048(6) 1.0070(5)
O6B* O -0.1258(5) -0.0594(7) 0.6213(6)
O9B O -0.0757(5) -0.1434(6) 0.3725(6)
O10B O 0.1411(5) -0.1390(5) 0.5797(5)
N2B N 0.490(4) -0.477(4) 0.545(3)
#END
