
#######################################################################
#
#                 Cambridge Crystallographic Data Centre
#                                CCDC
#
#######################################################################
#
# If this CIF has been generated from an entry in the Cambridge
# Structural Database, then it will include bibliographic, chemical,
# crystal, experimental, refinement or atomic coordinate data resulting
# from the CCDC's data processing and validation procedures.
#
#######################################################################

data_CSD_CIF_LAGROC
_audit_creation_date 2011-01-12
_audit_creation_method CSD-ConQuest-V1
_database_code_CSD LAGROC
_database_code_depnum_ccdc_archive 'CCDC 786955'
_chemical_formula_sum 'C23 H28 N2 O11 Zn2'
_chemical_formula_moiety
;
(C16 H10 O10 Zn2 2-)n,n(C7 H18 N2 O1 2+)
;
_journal_coden_Cambridge 179
_journal_volume 49
_journal_year 2010
_journal_page_first 8876
_journal_name_full 'Angew.Chem.,Int.Ed. '
loop_
_publ_author_name
"Jian Zhang"
"J.T.Bu"
"Shumei Chen"
"Tao Wu"
"Shoutian Zheng"
"Yigang Chen"
"R.A.Nieto"
"Pingyun Feng"
"Xianhui Bu"
_chemical_name_systematic
;
catena-(bis(\m~4~-terephthalato)-dihydroxy-di-zinc(ii) 
bis(trimethylammonio)methanone)
;
_cell_volume   2572.938
_diffrn_ambient_temperature 293
#These two values have been output from a single CSD field.
_refine_ls_R_factor_gt 0.0453
_refine_ls_wR_factor_gt 0.0453
_symmetry_cell_setting orthorhombic
_symmetry_space_group_name_H-M 'C m c m'
_symmetry_Int_Tables_number 63
loop_
_symmetry_equiv_pos_site_id
_symmetry_equiv_pos_as_xyz
1 x,y,z
2 -x,-y,1/2+z
3 -x,y,1/2-z
4 x,-y,-z
5 1/2+x,1/2+y,z
6 1/2-x,1/2-y,1/2+z
7 1/2-x,1/2+y,1/2-z
8 1/2+x,1/2-y,-z
9 -x,-y,-z
10 x,y,-1/2-z
11 x,-y,-1/2+z
12 -x,y,z
13 -1/2-x,-1/2-y,-z
14 -1/2+x,-1/2+y,-1/2-z
15 -1/2+x,-1/2-y,-1/2+z
16 -1/2-x,-1/2+y,z
_cell_length_a 15.6967(3)
_cell_length_b 15.2088(3)
_cell_length_c 10.7777(2)
_cell_angle_alpha 90
_cell_angle_beta 90
_cell_angle_gamma 90
_cell_formula_units_Z 4
loop_
_atom_type_symbol
_atom_type_radius_bond
C 0.68
H 0.23
N 0.68
O 0.68
Zn 1.22
loop_
_atom_site_label
_atom_site_type_symbol
_atom_site_fract_x
_atom_site_fract_y
_atom_site_fract_z
Zn1 Zn 0.00000 0.36286(3) 0.11332(5)
C1 C 0.1161(3) 0.4848(3) 0.25000
C2 C 0.3133(3) 0.6793(3) 0.25000
O1 O 0.0895(3) 0.4582(3) 0.1489(3)
C3 C 0.1849(3) 0.5542(3) 0.25000
C4 C 0.2795(3) 0.6493(3) 0.3611(4)
H1 H 0.29990 0.67150 0.43580
C5 C 0.2162(3) 0.5870(3) 0.3615(4)
H2 H 0.19430 0.56670 0.43640
C6 C 0.3832(3) 0.7474(3) 0.25000
O2 O 0.4095(2) 0.7732(3) 0.3524(3)
O3 O 0.00000 0.3728(2) -0.0703(4)
H3 H 0.00000 0.32350 -0.10100
O4 O 0.00000 0.2455(7) -0.25000
C7 C 0.00000 0.1635(9) -0.25000
N1 N 0.0741(6) 0.1206(6) -0.25000
C8 C 0.1558(12) 0.1673(12) -0.25000
C9 C 0.0746(19) 0.0367(18) -0.346(2)
Zn1B Zn 0.00000 0.36286(3) 0.38668(5)
Zn1D Zn -0.50000 0.86286(3) 0.11332(5)
Zn1D* Zn 0.50000 0.86286(3) 0.11332(5)
Zn1F Zn -0.50000 0.86286(3) 0.38668(5)
Zn1F* Zn 0.50000 0.86286(3) 0.38668(5)
C1B C -0.1161(3) 0.4848(3) 0.25000
C2B C -0.3133(3) 0.6793(3) 0.25000
O1I O 0.0895(3) 0.4582(3) 0.3511(3)
O1B O -0.0895(3) 0.4582(3) 0.3511(3)
O1K O -0.0895(3) 0.4582(3) 0.1489(3)
C3B C -0.1849(3) 0.5542(3) 0.25000
C4I C 0.2795(3) 0.6493(3) 0.1389(4)
C4B C -0.2795(3) 0.6493(3) 0.1389(4)
C4K C -0.2795(3) 0.6493(3) 0.3611(4)
H1I H 0.29990 0.67150 0.06420
H1B H -0.29990 0.67150 0.06420
H1K H -0.29990 0.67150 0.43580
C5I C 0.2162(3) 0.5870(3) 0.1385(4)
C5B C -0.2162(3) 0.5870(3) 0.1385(4)
C5K C -0.2162(3) 0.5870(3) 0.3615(4)
H2I H 0.19430 0.56670 0.06360
H2B H -0.19430 0.56670 0.06360
H2K H -0.19430 0.56670 0.43640
C6B C -0.3832(3) 0.7474(3) 0.25000
O2I O 0.4095(2) 0.7732(3) 0.1476(3)
O2B O -0.4095(2) 0.7732(3) 0.1476(3)
O2K O -0.4095(2) 0.7732(3) 0.3524(3)
O2D O -0.0905(2) 0.2732(3) 0.3524(3)
O2F O 0.0905(2) 0.2732(3) 0.1476(3)
O2M O -0.0905(2) 0.2732(3) 0.1476(3)
O2O O 0.0905(2) 0.2732(3) 0.3524(3)
O3B O 0.00000 0.3728(2) 0.5703(4)
H3B H 0.00000 0.32350 0.60100
N1B N -0.0741(6) 0.1206(6) -0.25000
C8B C -0.1558(12) 0.1673(12) -0.25000
C9B C -0.0746(19) 0.0367(18) -0.154(2)
C9I C 0.0746(19) 0.0367(18) -0.154(2)
C9K C -0.0746(19) 0.0367(18) -0.346(2)
#END
