
#######################################################################
#
#                 Cambridge Crystallographic Data Centre
#                                CCDC
#
#######################################################################
#
# If this CIF has been generated from an entry in the Cambridge
# Structural Database, then it will include bibliographic, chemical,
# crystal, experimental, refinement or atomic coordinate data resulting
# from the CCDC's data processing and validation procedures.
#
#######################################################################

data_CSD_CIF_LAGZUP
_audit_creation_date 2005-02-01
_audit_creation_method CSD-ConQuest-V1
_database_code_CSD LAGZUP
_database_code_depnum_ccdc_archive 'CCDC 234748'
_chemical_formula_sum 'C167 H154 N9 Na1 O15 P6 S6 Ti2'
_chemical_formula_moiety
;
(C55 H54 N6 Na1 O14 S6 Ti2 3-)n,3n(C36 H30 N1 P2 1+),n(C4 H10 O1)
;
_journal_coden_Cambridge 179
_journal_volume 43
_journal_year 2004
_journal_page_first 4807
_journal_name_full 'Angew.Chem.,Int.Ed. '
loop_
_publ_author_name
"F.E.Hahn"
"C.S.Isfort"
"T.Pape"
_chemical_name_systematic
;
catena-(tris(bis(triphenylphosphoranyl)iminium) 
bis(\m~3~-N-(2-((2,3-mercaptobenzoyl)amino)-2-methylpropyl)-2,3-dioxybenzamide
)-(\m~2~-N-(2-((2,3-mercaptobenzoyl)amino)-2-methylpropyl)-2,3-dioxybenzamide)
-aqua-methanol-sodium-di-titanium(iv) diethyl ether solvate)
;
_cell_volume   3977.350
_exptl_crystal_density_diffrn 1.262
_exptl_crystal_preparation 'diethyl ether/ethanol'
_diffrn_ambient_temperature 123
#These two values have been output from a single CSD field.
_refine_ls_R_factor_gt 0.0772
_refine_ls_wR_factor_gt 0.0772
_symmetry_cell_setting triclinic
_symmetry_space_group_name_H-M 'P 1'
_symmetry_Int_Tables_number 1
loop_
_symmetry_equiv_pos_site_id
_symmetry_equiv_pos_as_xyz
1 x,y,z
_cell_length_a 13.594(3)
_cell_length_b 17.190(4)
_cell_length_c 18.900(4)
_cell_angle_alpha 66.722(4)
_cell_angle_beta 79.188(4)
_cell_angle_gamma 82.523(4)
_cell_formula_units_Z 1
loop_
_atom_type_symbol
_atom_type_radius_bond
C 0.68
H 0.23
N 0.68
Na 1.25
O 0.68
P 1.05
S 1.02
Ti 1.47
loop_
_atom_site_label
_atom_site_type_symbol
_atom_site_fract_x
_atom_site_fract_y
_atom_site_fract_z
Ti1 Ti 0.34890 0.68180 0.30480
Ti2 Ti 0.38900(13) 0.12617(11) 0.73134(11)
S1 S 0.50732(18) 0.23583(15) 0.67745(15)
S2 S 0.26335(18) 0.24201(15) 0.72739(14)
S3 S 0.37253(18) 0.16682(16) 0.59528(15)
S4 S 0.53882(18) 0.03708(15) 0.75906(15)
S5 S 0.30814(19) 0.00511(15) 0.74398(15)
S6 S 0.34863(19) 0.09376(16) 0.86770(15)
N1 N 0.4398(5) 0.4148(5) 0.3073(5)
O1 O 0.3655(5) 0.1550(4) 0.3741(4)
O2 O 0.4428(4) 0.7287(4) 0.2129(3)
O3 O 0.7672(5) 0.3774(4) 0.6166(4)
O4 O 0.4114(4) 0.5765(4) 0.2924(3)
O5 O -0.0137(5) 0.4940(4) 0.5359(4)
O6 O 0.3309(4) 0.7898(4) 0.3172(3)
O7 O 0.2439(4) 0.6125(4) 0.3878(3)
O8 O 0.5828(5) 0.3773(4) 0.2430(4)
O9 O 0.4309(4) 0.6566(4) 0.3892(3)
O10 O 0.6202(5) 0.6523(4) 0.5456(4)
O11 O 0.2399(4) 0.7023(4) 0.2474(3)
C1 C 0.5173(6) 0.8023(6) 0.4585(5)
H1 H 0.56280 0.80460 0.49000
C2 C 0.0729(6) 0.5713(6) 0.4096(5)
C3 C 0.1341(7) 0.3844(6) 0.7749(6)
N2 N 0.5579(6) 0.5762(5) 0.4915(4)
C4 C 0.1637(7) 0.4531(6) 0.6018(5)
H2 H 0.21160 0.40530 0.59980
H3 H 0.09840 0.42950 0.62980
C5 C 0.4019(7) 0.8739(6) 0.3692(5)
H4 H 0.36760 0.92480 0.33940
C6 C -0.0098(8) 0.5774(6) 0.3730(6)
H5 H -0.06890 0.55040 0.40330
C7 C 0.5228(7) 0.4332(6) 0.2523(5)
C8 C 0.3002(7) 0.3219(6) 0.3811(6)
C9 C 0.4640(7) 0.8749(6) 0.4203(5)
H6 H 0.46870 0.92550 0.42820
N3 N 0.2850(5) 0.2364(5) 0.4405(4)
C10 C 0.2291(7) 0.2412(6) 0.8213(5)
N4 N 0.2096(5) 0.4291(4) 0.7258(4)
C11 C 0.1627(6) 0.3033(6) 0.8386(5)
C12 C 0.3071(7) 0.5242(6) 0.6131(6)
H7 H 0.33280 0.54600 0.64640
H8 H 0.30580 0.56910 0.56130
H9 H 0.35080 0.47580 0.60870
N5 N 0.1515(5) 0.5089(5) 0.5241(4)
C13 C 0.3033(7) 0.0093(6) 0.6494(6)
C14 C 0.3254(6) 0.0845(5) 0.5844(5)
C15 C 0.5085(7) 0.7246(6) 0.4537(5)
C16 C 0.2857(7) 0.0146(6) 0.5047(6)
H10 H 0.27850 0.01700 0.45480
C17 C 0.3258(7) 0.1622(6) 0.4355(6)
C18 C 0.4798(7) 0.5872(6) 0.2291(5)
C19 C 0.6401(7) 0.1025(6) 0.7364(6)
C20 C 0.5318(7) 0.5237(6) 0.2059(5)
C21 C 0.7141(7) 0.3269(6) 0.6108(6)
C22 C 0.1321(8) 0.5702(6) 0.6546(6)
H11 H 0.06440 0.55090 0.67710
H12 H 0.13090 0.61460 0.60250
H13 H 0.15600 0.59290 0.68800
C23 C 0.6408(7) 0.4386(6) 0.4945(5)
C24 C 0.2273(8) 0.1656(6) 0.9601(6)
H14 H 0.25300 0.12000 1.00190
C25 C 0.6299(7) 0.1891(6) 0.6920(5)
C26 C 0.3909(7) 0.7987(6) 0.3623(5)
O12 O 0.0447(5) 0.4090(5) 0.7733(4)
N6 N 0.6589(6) 0.3510(5) 0.5519(5)
C27 C 0.8073(7) 0.1995(6) 0.6873(6)
H15 H 0.86380 0.23300 0.67020
C28 C 0.2681(8) -0.0591(6) 0.5697(6)
H16 H 0.25170 -0.10830 0.56420
C29 C 0.4456(7) 0.7236(6) 0.4032(5)
C30 C 0.0673(7) 0.5229(5) 0.4939(5)
C31 C 0.2742(7) -0.0614(6) 0.6432(6)
H17 H 0.25860 -0.11080 0.68840
C32 C 0.7312(7) 0.0662(6) 0.7583(6)
H18 H 0.73700 0.00750 0.79010
C33 C 0.2019(7) 0.4962(6) 0.6486(5)
C34 C 0.2619(7) 0.1705(6) 0.8849(5)
C35 C 0.1265(7) 0.2941(6) 0.9150(5)
H19 H 0.08000 0.33620 0.92500
C36 C 0.1563(8) 0.6617(6) 0.2825(5)
C37 C 0.4157(7) 0.3312(6) 0.3591(6)
H20 H 0.44540 0.31650 0.40710
H21 H 0.44580 0.29080 0.33440
C38 C 0.0735(7) 0.6639(6) 0.2490(5)
H22 H 0.07290 0.69470 0.19480
C39 C -0.0077(8) 0.6207(7) 0.2955(6)
H23 H -0.06430 0.62120 0.27250
C40 C 0.1572(8) 0.2238(6) 0.9775(6)
H24 H 0.13100 0.21640 1.02980
C41 C 0.5651(8) 0.4299(7) 0.4472(6)
H25 H 0.59530 0.39310 0.41950
H26 H 0.54690 0.48610 0.40960
H27 H 0.50480 0.40520 0.48260
C42 C 0.5568(7) 0.6975(7) 0.1124(6)
H28 H 0.56480 0.75580 0.08120
C43 C 0.2546(8) 0.3344(7) 0.3105(6)
H29 H 0.18650 0.31470 0.32690
H30 H 0.29550 0.30180 0.28190
H31 H 0.25220 0.39470 0.27670
C44 C 0.3137(6) 0.0843(5) 0.5124(6)
C45 C 0.8167(7) 0.1144(6) 0.7346(6)
H32 H 0.87920 0.08890 0.75080
C46 C 0.7154(7) 0.2356(6) 0.6649(5)
C47 C 0.4958(7) 0.6735(6) 0.1815(6)
C48 C 0.6085(8) 0.6335(7) 0.0876(7)
H33 H 0.65080 0.64890 0.03870
C49 C 0.2530(8) 0.3828(6) 0.4171(6)
H34 H 0.18290 0.36990 0.43870
H35 H 0.25550 0.44070 0.37760
H36 H 0.28930 0.37810 0.45890
C50 C 0.5659(7) 0.6489(6) 0.5000(6)
C51 C 0.1558(7) 0.6133(6) 0.3630(5)
C52 C 0.5954(7) 0.4938(6) 0.5393(5)
H37 H 0.53980 0.46450 0.57920
H38 H 0.64690 0.50070 0.56670
C53 C 0.5976(8) 0.5478(7) 0.1348(6)
H39 H 0.63500 0.50540 0.11880
C54 C 0.73730 0.47000 0.44390
H40 H 0.78450 0.47320 0.47590
H41 H 0.72470 0.52660 0.40450
H42 H 0.76600 0.43100 0.41800
Na1 Na 0.85940 0.46250 0.63640
O13 O 0.77220 0.59160 0.62260
O14 O 0.84910 0.41250 0.77020
C55 C 0.75310 0.62640 0.68370
H43 H 0.70050 0.59550 0.72490
H44 H 0.73120 0.68660 0.66140
H45 H 0.81480 0.62010 0.70580
H46 H 0.27380 0.39720 0.72890
H47 H 0.27030 0.24300 0.48490
H48 H 0.51510 0.57050 0.46510
H49 H 0.19060 0.53140 0.49710
H50 H 0.61790 0.31810 0.56070
H51 H 0.39560 0.46620 0.31040
P1 P 0.90937(19) 0.96053(17) 0.05890(15)
P2 P 0.70976(19) 0.96792(17) 0.15603(14)
C56 C 0.9054(7) 0.8623(6) 0.0474(5)
C57 C 0.7043(8) 0.7942(6) 0.2321(6)
H52 H 0.68110 0.79560 0.18730
C58 C 0.9868(9) 0.8044(7) 0.0561(6)
H53 H 1.04500 0.81430 0.07160
C59 C 0.9946(7) 0.8798(6) 0.1929(5)
H54 H 0.93690 0.84750 0.21070
C60 C 0.9063(7) 1.1198(6) -0.0565(6)
H55 H 0.85350 1.13390 -0.02200
C61 C 1.1502(8) 0.9082(6) 0.2145(6)
H56 H 1.19960 0.89570 0.24760
C62 C 0.7224(7) 0.8676(6) 0.2377(5)
C63 C 0.7386(10) 1.1134(7) 0.1743(7)
H57 H 0.79610 1.11830 0.13580
C64 C 0.6805(8) 1.0466(6) 0.1972(6)
C65 C 1.1636(8) 0.9711(6) 0.1406(6)
H58 H 1.22240 1.00200 0.12250
N7 N 0.8054(5) 0.9928(5) 0.0926(4)
C66 C 0.6040(7) 0.9649(7) 0.1119(6)
C67 C 0.5983(9) 1.0400(7) 0.2540(6)
H59 H 0.55700 0.99400 0.26820
C68 C 1.0604(8) 1.0794(7) -0.1552(5)
H60 H 1.11500 1.06530 -0.18850
C69 C 0.7205(9) 0.7163(7) 0.2936(6)
H61 H 0.70790 0.66440 0.29110
C70 C 0.7552(8) 0.7166(7) 0.3577(6)
H62 H 0.76670 0.66470 0.39970
C71 C 1.0052(7) 0.9428(6) 0.1189(5)
C72 C 0.7555(7) 0.8673(6) 0.3016(5)
H63 H 0.76640 0.91900 0.30530
C73 C 0.9495(7) 1.0380(6) -0.0341(5)
C74 C 0.5730(11) 1.0938(9) 0.2900(8)
H64 H 0.51920 1.08500 0.33200
C75 C 0.6096(8) 1.0067(7) 0.0319(6)
H65 H 0.66740 1.03570 0.00140
C76 C 1.0179(8) 1.1610(7) -0.1780(6)
H66 H 1.04240 1.20270 -0.22690
C77 C 1.0891(7) 0.9890(6) 0.0924(5)
H67 H 1.09690 1.03270 0.04190
C78 C 0.9386(8) 1.1824(6) -0.1290(6)
H68 H 0.90740 1.23810 -0.14440
C79 C 1.0258(7) 1.0190(6) -0.0865(6)
H69 H 1.05390 0.96240 -0.07350
C80 C 1.0634(7) 0.8633(6) 0.2399(6)
H70 H 1.05310 0.82070 0.29090
C81 C 0.6307(12) 1.1638(10) 0.2620(8)
H71 H 0.61090 1.20680 0.28240
C82 C 0.7151(11) 1.1746(8) 0.2064(8)
H72 H 0.75510 1.22160 0.19090
C83 C 0.5215(7) 0.9217(7) 0.1539(7)
H73 H 0.51920 0.89120 0.20840
C84 C 0.8203(9) 0.8473(8) 0.0262(7)
H74 H 0.76510 0.88830 0.01860
C85 C 0.9831(9) 0.7302(7) 0.0419(7)
H75 H 1.04100 0.69240 0.04300
C86 C 0.7727(7) 0.7909(7) 0.3605(6)
H76 H 0.79760 0.79020 0.40450
C87 C 0.8949(10) 0.7129(7) 0.0266(7)
H77 H 0.88900 0.66000 0.02320
C88 C 0.4426(8) 0.9212(7) 0.1195(7)
H78 H 0.38470 0.89250 0.15020
C89 C 0.81480 0.77300 0.01610
H79 H 0.75570 0.76300 0.00190
C90 C 0.52920 1.00520 -0.00250
H80 H 0.53070 1.03450 -0.05710
C91 C 0.44630 0.96120 0.04250
H81 H 0.39170 0.95930 0.01840
P3 P 0.91210 -0.08560 0.58090
P4 P 0.94058(18) 0.09976(15) 0.49286(14)
N8 N 0.9458(5) 0.0053(4) 0.5568(4)
C92 C 0.9817(7) -0.1418(6) 0.5241(5)
C93 C 1.0941(7) 0.1780(6) 0.6125(5)
H82 H 1.13680 0.15210 0.65120
C94 C 1.0771(7) -0.1193(6) 0.4870(5)
H83 H 1.10250 -0.07100 0.48820
C95 C 0.6404(7) 0.1400(6) 0.5390(6)
H84 H 0.58980 0.11870 0.58270
C96 C 0.9701(7) 0.2503(6) 0.5035(5)
H85 H 0.92680 0.27540 0.46520
C97 C 1.1357(8) -0.1652(7) 0.4485(6)
H86 H 1.20080 -0.14800 0.42240
C98 C 1.0247(8) 0.0730(7) 0.2874(6)
H87 H 0.99670 0.05210 0.25640
C99 C 1.0700(7) 0.2622(6) 0.5889(5)
H88 H 1.09680 0.29510 0.61030
C100 C 1.1009(8) -0.2364(7) 0.4473(6)
H89 H 1.14280 -0.26980 0.42240
C101 C 0.7867(8) 0.2006(6) 0.4107(5)
H90 H 0.83680 0.22090 0.36640
C102 C 0.7824(7) -0.0894(6) 0.5793(6)
C103 C 0.7490(7) -0.0672(6) 0.5077(5)
H91 H 0.79660 -0.05890 0.46190
C104 C 0.9415(6) -0.1431(6) 0.6781(5)
C105 C 0.6094(7) -0.0916(6) 0.6381(6)
H92 H 0.56080 -0.09940 0.68320
C106 C 1.0083(7) 0.1086(6) 0.4002(5)
C107 C 0.6478(7) -0.0574(6) 0.5028(6)
H93 H 0.62620 -0.04190 0.45380
C108 C 1.0063(8) -0.2587(7) 0.4818(6)
H94 H 0.98230 -0.30710 0.47960
C109 C 0.9953(6) 0.1651(6) 0.5276(5)
C110 C 1.1073(7) 0.1331(6) 0.3777(6)
H95 H 1.13580 0.15460 0.40810
C111 C 0.7406(7) 0.1134(6) 0.5448(6)
H96 H 0.75890 0.07520 0.59330
C112 C 0.8133(7) 0.1418(6) 0.4811(6)
C113 C 1.0061(7) 0.3011(6) 0.5333(6)
H97 H 0.98780 0.36020 0.51650
C114 C 0.6893(8) 0.2289(7) 0.4055(6)
H98 H 0.67180 0.27050 0.35800
C115 C 0.9695(8) 0.0783(7) 0.3529(6)
H99 H 0.90260 0.06100 0.36720
C116 C 1.0584(6) 0.1292(6) 0.5820(5)
H100 H 1.07740 0.07020 0.59870
C117 C 0.7114(7) -0.1031(6) 0.6455(6)
H101 H 0.73170 -0.12010 0.69510
C118 C 0.61550 0.19770 0.46870
H102 H 0.54720 0.21600 0.46380
C119 C 0.57810 -0.06970 0.56840
H103 H 0.50850 -0.06290 0.56490
C120 C 0.94290 -0.21230 0.52070
H104 H 0.87630 -0.22770 0.54380
C121 C 1.16390 0.12590 0.31060
H105 H 1.23190 0.14050 0.29670
C122 C 0.95640 -0.09790 0.72030
H106 H 0.94600 -0.03780 0.69900
C123 C 0.96040 -0.23100 0.70770
H107 H 0.95280 -0.26330 0.67840
C124 C 0.98560 -0.13680 0.79210
H108 H 0.99260 -0.10440 0.82130
C125 C 1.00500 -0.22520 0.82230
H109 H 1.02790 -0.25330 0.87130
C126 C 1.12330 0.09850 0.26540
H110 H 1.16160 0.09650 0.21850
C127 C 0.99020 -0.26990 0.77950
H111 H 1.00090 -0.32990 0.80050
P5 P 0.41928(19) 0.65995(16) 0.89584(14)
P6 P 0.3648(2) 0.48400(17) 0.94316(15)
C128 C 0.0812(8) 0.5140(6) 0.8893(7)
H112 H 0.04960 0.51510 0.84810
N9 N 0.4173(6) 0.5610(5) 0.9417(4)
C129 C 0.3913(7) 0.3783(6) 0.8609(6)
H113 H 0.33830 0.34800 0.89810
C130 C 0.4615(8) 0.7079(7) 0.7371(6)
H114 H 0.52930 0.70680 0.74380
C131 C 0.3783(7) 0.3946(6) 1.0328(5)
C132 C 0.3423(8) 0.7243(6) 0.6555(6)
H115 H 0.32760 0.73370 0.60550
C133 C 0.5158(8) 0.3911(6) 0.7540(6)
H116 H 0.54820 0.37070 0.71500
C134 C 0.0241(8) 0.5231(6) 0.9537(6)
H117 H -0.04690 0.52970 0.95720
C135 C 0.2650(8) 0.8470(7) 0.9563(7)
H118 H 0.24250 0.90480 0.93200
C136 C 0.4387(7) 0.3492(6) 0.8040(5)
H119 H 0.41720 0.30070 0.80040
C137 C 0.2309(7) 0.5022(6) 0.9441(5)
C138 C 0.5022(8) 0.4904(7) 0.8128(6)
H120 H 0.52510 0.53810 0.81690
C139 C 0.06890 0.52270 1.01400
H121 H 0.02960 0.52930 1.05870
C140 C 0.18550 0.50320 0.88370
H122 H 0.22510 0.49670 0.83900
C141 C 0.30610 0.80040 0.91300
H123 H 0.31040 0.82520 0.85790
C142 C 0.41930 0.44970 0.86490
C143 C 0.28710 0.70100 0.78990
H124 H 0.23490 0.69500 0.83250
C144 C 0.38510 0.69630 0.79980
C145 C 0.31970 0.32830 1.05440
H125 H 0.26890 0.33120 1.02500
C146 C 0.45310 0.39280 1.07380
H126 H 0.49240 0.44020 1.05840
C147 C 0.33250 0.67970 1.02930
H127 H 0.35600 0.62240 1.05450
C148 C 0.26420 0.71480 0.71590
H128 H 0.19670 0.71740 0.70790
C149 C 0.43810 0.72090 0.66500
H129 H 0.49010 0.72740 0.62220
C150 C 0.17320 0.51250 1.00700
H130 H 0.20490 0.51270 1.04760
C151 C 0.55080 0.46200 0.75570
H131 H 0.60580 0.48990 0.71940
C152 C 0.54510 0.69180 0.88440
C153 C 0.46920 0.31990 1.13800
H132 H 0.52160 0.31720 1.16600
C154 C 0.72220 0.65930 0.87720
H133 H 0.77800 0.61910 0.88070
C155 C 0.56020 0.77390 0.86640
H134 H 0.50410 0.81390 0.86100
C156 C 0.41120 0.25100 1.16260
H135 H 0.42300 0.20180 1.20710
C157 C 0.65380 0.80110 0.85560
H136 H 0.66340 0.85860 0.84520
C158 C 0.73650 0.74020 0.86060
H137 H 0.80280 0.75740 0.85200
C159 C 0.28860 0.72700 1.07250
H138 H 0.28090 0.70220 1.12770
C160 C 0.62580 0.63400 0.88920
H139 H 0.61550 0.57640 0.90080
C161 C 0.33520 0.25520 1.12070
H140 H 0.29390 0.20890 1.13690
C162 C 0.25670 0.80830 1.03640
H141 H 0.22740 0.84020 1.06700
C163 C 0.34200 0.71660 0.94890
O15 O 0.73000 0.30670 0.91850
C164 C 0.64470 0.26470 0.92450
H142 H 0.58600 0.30610 0.91550
H143 H 0.63070 0.22110 0.97780
C165 C 0.66010 0.22370 0.86690
H144 H 0.67250 0.26710 0.81410
H145 H 0.60000 0.19470 0.87240
H146 H 0.71790 0.18250 0.87610
C166 C 0.71950 0.34810 0.97110
H147 H 0.69960 0.30650 1.02450
H148 H 0.66460 0.39300 0.95890
C167 C 0.80950 0.38600 0.96960
H149 H 0.86620 0.34360 0.97550
H150 H 0.79970 0.40610 1.01240
H151 H 0.82330 0.43390 0.91980
O16 O 0.92740 0.40600 0.19560
C168 C 0.91270 0.45200 0.24060
H152 H 0.97020 0.48760 0.22780
H153 H 0.90800 0.41360 0.29610
C169 C 1.01600 0.34550 0.20800
H154 H 1.00880 0.30260 0.26200
H155 H 1.07800 0.37530 0.19770
C170 C 0.81320 0.51000 0.22630
H156 H 0.82520 0.55890 0.17700
H157 H 0.79160 0.52990 0.26910
H158 H 0.76080 0.47750 0.22380
C171 C 1.01840 0.30200 0.14600
H159 H 0.95210 0.28210 0.15110
H160 H 1.06830 0.25380 0.15610
H161 H 1.03620 0.34370 0.09310
Na1* Na -0.14060 0.46250 0.63640
O5* O 0.9863(5) 0.4940(4) 0.5359(4)
#END
