
#######################################################################
#
#                 Cambridge Crystallographic Data Centre
#                                CCDC
#
#######################################################################
#
# If this CIF has been generated from an entry in the Cambridge
# Structural Database, then it will include bibliographic, chemical,
# crystal, experimental, refinement or atomic coordinate data resulting
# from the CCDC's data processing and validation procedures.
#
#######################################################################

data_CSD_CIF_LAHCOP
_audit_creation_date 2016-02-17
_audit_creation_method CSD-ConQuest-V1
_database_code_CSD LAHCOP
_database_code_depnum_ccdc_archive 'CCDC 1431904'
_chemical_formula_sum 'C20 H140 Cu9 N5 Na12 O116.5 P10 Si1 W9'
_chemical_formula_moiety
;
(C20 H55 Cu9 N5 O74 P10 Si1 W9 12-)n,12n(Na1 1+),42.5n(H2 O1)
;
_journal_coden_Cambridge 9
_journal_volume 55
_journal_year 2016
_journal_page_first 1551
_journal_name_full 'Inorg.Chem. '
loop_
_publ_author_name
"O.Oms"
"Shu Yang"
"W.Salomon"
"J.Marrot"
"A.Dolbecq"
"E.Riviere"
"A.Bonnefont"
"L.Ruhlmann"
"P.Mialane"
_chemical_name_systematic
;
catena-(Dodeca-sodium 
(\m~11~-silicato)-pentakis(\m~3~-alendronato)-tricosakis(\m~2~-oxo)-penta-aqua
-heptaoxo-nona-copper-nona-tungsten hydrate)
;
_cell_volume  14647.663
_exptl_crystal_colour 'green'
_exptl_crystal_density_diffrn 2.37
_exptl_crystal_description 'needle'
_diffrn_ambient_temperature 200
#These two values have been output from a single CSD field.
_refine_ls_R_factor_gt 0.0827
_refine_ls_wR_factor_gt 0.0827
_symmetry_cell_setting monoclinic
_symmetry_space_group_name_H-M 'P 21/c'
_symmetry_Int_Tables_number 14
loop_
_symmetry_equiv_pos_site_id
_symmetry_equiv_pos_as_xyz
1 x,y,z
2 -x,1/2+y,1/2-z
3 -x,-y,-z
4 x,-1/2-y,-1/2+z
_cell_length_a 23.3560(8)
_cell_length_b 22.4995(8)
_cell_length_c 28.2725(9)
_cell_angle_alpha 90
_cell_angle_beta 99.6330(17)
_cell_angle_gamma 90
_cell_formula_units_Z 4
loop_
_atom_type_symbol
_atom_type_radius_bond
C 0.68
H 0.23
Cu 1.32
N 0.68
Na 1.66
O 0.68
P 1.05
Si 1.20
W 1.62
loop_
_atom_site_label
_atom_site_type_symbol
_atom_site_fract_x
_atom_site_fract_y
_atom_site_fract_z
W1 W 0.42084(2) 0.67777(2) 0.57809(2)
W2 W 0.35430(2) 0.79611(2) 0.61788(2)
W3 W 0.27637(2) 0.67422(2) 0.57715(2)
W4 W 0.29433(2) 0.53821(2) 0.65677(2)
W5 W 0.43384(2) 0.54035(2) 0.65373(2)
W6 W 0.52523(2) 0.67413(2) 0.69191(2)
W7 W 0.45970(2) 0.79157(2) 0.73315(2)
W8 W 0.30062(2) 0.79011(2) 0.73554(2)
W9 W 0.21769(2) 0.67432(2) 0.69173(2)
Cu1 Cu 0.31112(4) 0.65460(5) 0.78370(4)
Cu2 Cu 0.38827(4) 0.50883(6) 0.76074(4)
Cu3 Cu 0.46797(4) 0.65804(6) 0.78282(4)
Cu4 Cu 0.68096(4) 0.65937(5) 0.65122(4)
Cu5 Cu 0.69893(4) 0.60346(5) 0.56816(4)
Cu6 Cu 0.86643(4) 0.53002(5) 0.66200(4)
Cu7 Cu 0.84325(4) 0.73365(5) 0.56578(4)
Cu8 Cu 0.99222(4) 0.60200(4) 0.56784(4)
Cu9 Cu 1.04249(4) 0.66152(5) 0.64980(4)
Si1 Si 0.37071(7) 0.66940(8) 0.68949(6)
P1 P 0.34052(9) 0.55920(11) 0.85040(8)
P2 P 0.47163(9) 0.56351(11) 0.84830(8)
P3 P 0.74476(8) 0.48948(10) 0.61332(8)
P4 P 0.75724(8) 0.57099(10) 0.70115(8)
P5 P 0.71938(9) 0.71289(12) 0.51494(9)
P6 P 0.73706(9) 0.76130(11) 0.6176(1)
P7 P 0.94613(9) 0.70838(10) 0.51250(8)
P8 P 0.96936(9) 0.75951(10) 0.61428(8)
P9 P 0.96952(8) 0.49007(9) 0.61570(8)
P10 P 0.98941(8) 0.57391(10) 0.70131(8)
O1 O 0.4569(2) 0.6717(3) 0.5302(2)
O2 O 0.4190(2) 0.6003(3) 0.5998(2)
O3 O 0.4813(2) 0.6937(3) 0.62848(19)
O4 O 0.4015(2) 0.7613(2) 0.5736(2)
O5 O 0.3405(2) 0.6643(2) 0.5430(2)
O6 O 0.3580(2) 0.6971(3) 0.63433(19)
O7 O 0.3479(3) 0.8677(3) 0.5944(3)
O8 O 0.3080(2) 0.7997(2) 0.66522(18)
O9 O 0.4210(2) 0.8010(3) 0.6643(2)
O10 O 0.2886(2) 0.7597(2) 0.5744(2)
O11 O 0.2200(2) 0.6676(3) 0.5284(2)
O12 O 0.2850(2) 0.5976(2) 0.60051(19)
O13 O 0.2355(2) 0.6925(2) 0.62804(19)
O14 O 0.2433(2) 0.4879(3) 0.6298(2)
O15 O 0.3172(2) 0.5015(3) 0.7130(2)
O16 O 0.2429(2) 0.5941(2) 0.6780(2)
O17 O 0.3580(2) 0.5087(2) 0.62746(19)
O18 O 0.36926(19) 0.5982(2) 0.68473(19)
O19 O 0.4739(2) 0.4919(3) 0.6251(2)
O20 O 0.4365(2) 0.5029(3) 0.7108(2)
O21 O 0.4937(2) 0.5957(3) 0.6783(2)
O22 O 0.5936(2) 0.6689(3) 0.6768(2)
O23 O 0.5409(2) 0.6565(3) 0.7553(2)
O24 O 0.5234(2) 0.7590(3) 0.7052(2)
O25 O 0.4336(2) 0.6919(3) 0.7166(2)
O26 O 0.4853(2) 0.8643(3) 0.7411(2)
O27 O 0.4834(2) 0.7598(3) 0.7905(2)
O28 O 0.3821(2) 0.7996(3) 0.7449(2)
O29 O 0.2779(2) 0.8630(3) 0.7441(2)
O30 O 0.2978(2) 0.7563(3) 0.7924(2)
O31 O 0.2242(2) 0.7573(3) 0.7062(2)
O32 O 0.3183(2) 0.6915(3) 0.7175(2)
O33 O 0.1425(2) 0.6697(2) 0.6757(2)
O34 O 0.2287(2) 0.6528(3) 0.75479(19)
O35 O 0.2915(2) 0.6043(3) 0.8341(2)
O36 O 0.3939(2) 0.6399(3) 0.8071(2)
O37 O 0.4579(3) 0.5191(4) 0.8068(2)
O38 O 0.3402(3) 0.5121(3) 0.8113(2)
O39 O 0.4052(4) 0.4031(4) 0.7755(5)
O40 O 0.5120(3) 0.6136(3) 0.8353(3)
O41 O 0.7237(2) 0.6279(3) 0.7105(2)
O42 O 0.7115(3) 0.7399(3) 0.6619(2)
O43 O 0.6713(2) 0.5768(3) 0.6259(2)
O44 O 0.6610(2) 0.6760(3) 0.5821(2)
O45 O 0.7337(3) 0.6470(3) 0.5215(2)
O46 O 0.7478(3) 0.5321(3) 0.5715(2)
O47 O 0.6257(3) 0.5687(4) 0.5060(3)
O48 O 0.8050(2) 0.4733(3) 0.6397(2)
O49 O 0.9277(2) 0.5896(2) 0.6774(2)
O50 O 0.9221(2) 0.4716(3) 0.6444(2)
O51 O 0.8094(2) 0.5887(2) 0.6778(2)
O52 O 0.8847(3) 0.4961(3) 0.7471(3)
O53 O 0.7752(3) 0.7489(3) 0.5180(2)
O54 O 0.8907(2) 0.7432(3) 0.5152(2)
O55 O 0.9129(2) 0.7256(3) 0.6152(2)
O56 O 0.7951(2) 0.7302(3) 0.6169(2)
O57 O 0.8472(3) 0.6188(3) 0.5811(3)
O58 O 0.9451(3) 0.5323(3) 0.5747(2)
O59 O 0.9364(2) 0.6411(3) 0.5198(2)
O60 O 1.0339(2) 0.6765(2) 0.58016(19)
O61 O 1.0451(2) 0.5787(2) 0.62677(19)
O62 O 1.0436(2) 0.5618(3) 0.5103(2)
O63 O 1.0260(2) 0.6314(3) 0.7100(2)
O64 O 1.0140(2) 0.7421(3) 0.6585(2)
O65 O 0.3366(3) 0.5326(3) 0.8988(2)
O66 O 0.4965(3) 0.5337(3) 0.8953(2)
O67 O 0.7111(2) 0.4335(3) 0.5962(2)
O68 O 0.7738(3) 0.5351(3) 0.7461(2)
O69 O 0.6781(3) 0.7249(3) 0.4685(3)
O70 O 0.7411(2) 0.8279(3) 0.6159(2)
O71 O 0.9682(3) 0.7217(3) 0.4660(2)
O72 O 0.9609(3) 0.8254(3) 0.6099(2)
O73 O 0.9966(2) 0.4359(3) 0.5970(2)
O74 O 0.9904(3) 0.5379(3) 0.7461(2)
C1 C 0.4050(3) 0.6056(4) 0.8519(3)
C2 C 0.4174(4) 0.6468(4) 0.8958(3)
H1 H 0.42700 0.62180 0.92480
H2 H 0.45220 0.67080 0.89310
C3 C 0.3696(4) 0.6882(5) 0.9030(4)
H3 H 0.33470 0.66510 0.90730
H4 H 0.35930 0.71400 0.87450
C4 C 0.3903(4) 0.7271(4) 0.9484(4)
H5 H 0.39950 0.70160 0.97720
H6 H 0.42560 0.74960 0.94450
N1 N 0.3418(4) 0.7693(4) 0.9539(3)
H7 H 0.33920 0.79800 0.93090
H8 H 0.34910 0.78650 0.98340
H9 H 0.30770 0.74890 0.95070
C5 C 0.7052(3) 0.5309(3) 0.6553(3)
C6 C 0.6639(3) 0.4894(4) 0.6756(3)
H10 H 0.63610 0.47250 0.64870
H11 H 0.68660 0.45600 0.69220
C7 C 0.6298(3) 0.5189(4) 0.7105(3)
H12 H 0.65690 0.53390 0.73870
H13 H 0.60770 0.55310 0.69480
C8 C 0.5888(4) 0.4750(5) 0.7266(3)
H14 H 0.56160 0.46020 0.69840
H15 H 0.61090 0.44070 0.74210
N2 N 0.5555(4) 0.5035(7) 0.7610(3)
H16 H 0.57970 0.52710 0.78160
H17 H 0.54020 0.47490 0.77790
H18 H 0.52640 0.52590 0.74460
C9 C 0.6843(4) 0.7315(4) 0.5669(4)
C10 C 0.6337(4) 0.7739(5) 0.5522(4)
H19 H 0.60790 0.75680 0.52410
H20 H 0.64910 0.81180 0.54190
C11 C 0.5966(4) 0.7876(5) 0.5914(5)
H21 H 0.58930 0.75060 0.60840
H22 H 0.61720 0.81600 0.61500
C12 C 0.5398(4) 0.8140(7) 0.5669(5)
H23 H 0.54750 0.84800 0.54670
H24 H 0.51750 0.78380 0.54600
N3 N 0.5064(5) 0.8339(7) 0.6032(6)
H25 H 0.50500 0.80430 0.62490
H26 H 0.46970 0.84330 0.58880
H27 H 0.52370 0.86650 0.61840
C13 C 1.0023(3) 0.7301(4) 0.5640(3)
C14 C 1.0468(4) 0.7734(4) 0.5495(3)
H28 H 1.06180 0.75640 0.52160
H29 H 1.02660 0.81090 0.53880
C15 C 1.0982(4) 0.7880(5) 0.5882(4)
H30 H 1.08530 0.81590 0.61140
H31 H 1.11140 0.75110 0.60580
C16 C 1.1476(4) 0.8145(6) 0.5695(4)
H32 H 1.13560 0.85270 0.55340
H33 H 1.16030 0.78750 0.54560
N4 N 1.1965(4) 0.8249(6) 0.6096(4)
H34 H 1.18500 0.85060 0.63110
H35 H 1.22720 0.84070 0.59790
H36 H 1.20730 0.78980 0.62450
C17 C 1.0235(3) 0.5334(4) 0.6556(3)
C18 C 1.0745(3) 0.4946(4) 0.6796(3)
H37 H 1.05880 0.46130 0.69640
H38 H 1.09380 0.47720 0.65410
C19 C 1.1196(3) 0.5265(4) 0.7149(3)
H39 H 1.10260 0.53710 0.74350
H40 H 1.13050 0.56380 0.70010
C20 C 1.1734(3) 0.4896(4) 0.7302(4)
H41 H 1.16250 0.45160 0.74400
H42 H 1.19150 0.48030 0.70180
N5 N 1.2162(3) 0.5215(3) 0.7666(3)
H43 H 1.21210 0.56140 0.76200
H44 H 1.25290 0.51050 0.76330
H45 H 1.20980 0.51210 0.79650
Na1 Na 0.86434(14) 0.67126(16) 0.66568(13)
Na2 Na 0.18039(14) 0.48424(18) 0.55479(13)
Na3 Na 0.89793(17) 0.40246(18) 0.78142(15)
Na4 Na 1.12798(17) 0.6210(2) 0.51587(15)
Na5 Na 0.54252(17) 0.6237(2) 0.51570(17)
Na6 Na 0.4744(3) 0.3909(3) 0.6015(2)
Na7 Na 0.88715(18) 0.3059(2) 0.69541(15)
Na8 Na 0.8761(2) 0.1769(2) 0.63412(16)
Na9 Na 0.2339(5) 0.3709(6) 0.6210(4)
Na10 Na 1.0439(5) 0.5112(6) 0.8304(4)
Na11 Na 0.3421(6) 0.5545(5) 0.5435(4)
Na12 Na 0.3078(3) 0.2618(3) 0.6937(3)
O75 O 1.1473(2) 0.5734(3) 0.5900(2)
O76 O 0.8204(3) 0.3815(3) 0.7118(3)
O77 O 0.8402(4) 0.4248(4) 0.8409(3)
O78 O 0.8920(3) 0.2977(3) 0.7819(2)
O79 O 0.9743(3) 0.4176(4) 0.8509(4)
O80 O 0.9593(3) 0.3850(4) 0.7242(3)
O81 O 0.2707(3) 0.4969(4) 0.5288(3)
O82 O 0.1533(3) 0.5276(4) 0.4752(3)
O83 O 0.0835(2) 0.4521(3) 0.5467(2)
O84 O 0.1918(4) 0.3824(4) 0.5395(3)
O85 O 1.0827(3) 0.6867(3) 0.4588(2)
O86 O 0.8829(3) 0.3578(3) 0.6206(2)
O87 O 0.8009(3) 0.2513(3) 0.6506(3)
O88 O 0.9572(3) 0.2481(4) 0.6631(3)
O89 O 0.8607(4) 0.2062(4) 0.5511(3)
O90 O 0.8828(3) 0.1615(5) 0.7141(3)
O91 O 0.8018(4) 0.1038(5) 0.6128(3)
O92 O 1.0467(7) 0.6074(6) 0.8868(8)
O93 O 0.5552(3) 0.5643(4) 0.5834(3)
O94 O 0.4168(6) 0.3798(5) 0.6665(6)
O95 O 0.5189(4) 0.4344(5) 0.5431(4)
O96 O 0.5423(4) 0.3225(5) 0.6295(3)
O97 O 0.4362(4) 0.3139(5) 0.5468(3)
O98 O 0.3314(4) 0.1608(5) 0.7145(4)
O99 O 1.1607(4) 0.4922(4) 0.8466(3)
O100 O 0.3722(3) 0.5571(4) 0.4813(3)
O101 O 0.3531(3) 0.2911(4) 0.7726(3)
O102 O 0.2827(7) 0.3764(5) 0.7033(5)
O103 O 0.4004(4) 0.2594(6) 0.6640(5)
O104 O 0.3338(7) 0.3954(5) 0.5823(4)
O105 O 0.9492(8) 0.7207(8) 0.7404(10)
O106 O 0.2718(7) 0.2727(8) 0.6132(5)
O107 O 0.1523(10) 0.3379(13) 0.6649(10)
O108 O 0.8166(6) 0.7176(7) 0.7292(6)
O109 O 0.7701(2) 0.3371(3) 0.5706(2)
O110 O 0.6624(3) 0.3364(3) 0.6315(3)
O111 O 0.0375(3) 0.3253(3) 0.6234(3)
O112 O 0.2705(3) 0.9656(3) 0.6922(3)
O113 O 0.2584(3) 0.8070(3) 0.4832(3)
O114 O 0.3194(5) 0.5849(4) 0.9820(3)
O115 O 0.2426(4) 0.9283(5) 0.5669(4)
O116 O 0.7242(5) 0.9030(5) 0.6933(4)
O117 O 0.5691(5) 0.5913(6) 0.9665(4)
O118 O 0.4347(5) 0.4899(7) 0.9601(5)
O119 O 0.4347(6) 0.9108(7) 0.5335(4)
Cu9* Cu 0.04249(4) 0.66152(5) 0.64980(4)
O33* O 1.1425(2) 0.6697(2) 0.6757(2)
#END
