
#######################################################################
#
#                 Cambridge Crystallographic Data Centre
#                                CCDC
#
#######################################################################
#
# If this CIF has been generated from an entry in the Cambridge
# Structural Database, then it will include bibliographic, chemical,
# crystal, experimental, refinement or atomic coordinate data resulting
# from the CCDC's data processing and validation procedures.
#
#######################################################################

data_CSD_CIF_LAHCUV
_audit_creation_date 2016-02-17
_audit_creation_method CSD-ConQuest-V1
_database_code_CSD LAHCUV
_database_code_depnum_ccdc_archive 'CCDC 1431905'
_chemical_formula_sum 'C48 H323 Cl1 Cu24 Li32 N12 Na5 O323.5 P24 Sb4 W36'
_chemical_formula_moiety
;
(C48 H144 Cl1 Cu24 N12 O234 P24 Sb4 W36 37-)n,5n(Na1 1+),32n(Li1 1+),89.5n(H2 
O1)
;
_journal_coden_Cambridge 9
_journal_volume 55
_journal_year 2016
_journal_page_first 1551
_journal_name_full 'Inorg.Chem. '
loop_
_publ_author_name
"O.Oms"
"Shu Yang"
"W.Salomon"
"J.Marrot"
"A.Dolbecq"
"E.Riviere"
"A.Bonnefont"
"L.Ruhlmann"
"P.Mialane"
_chemical_name_systematic
;
catena-(Dotriaconta-lithium penta-sodium 
dodecakis(\m~4~-oxo)-dodecakis(\m~3~-alendronato)-nonacontakis(\m~2~-oxo)-octa
deca-aqua-chloro-triacontaoxo-tetra-antimony-tetracosa-copper-hexatriaconta-tu
ngsten hydrate)
;
_cell_volume  23229.335
_exptl_crystal_colour 'green'
_exptl_crystal_density_diffrn 2.304
_exptl_special_details
;
The lithium ions do not appear to have been modelled. The numbers of sodium 
atoms, lithium atoms and water molecules in the formula from the cif differ 
from those reported in the formula in the paper
;
_exptl_crystal_description 'parallelepiped'
_diffrn_ambient_temperature 200
#These two values have been output from a single CSD field.
_refine_ls_R_factor_gt 0.0918
_refine_ls_wR_factor_gt 0.0918
_symmetry_cell_setting triclinic
_symmetry_space_group_name_H-M 'P -1'
_symmetry_Int_Tables_number 2
loop_
_symmetry_equiv_pos_site_id
_symmetry_equiv_pos_as_xyz
1 x,y,z
2 -x,-y,-z
_cell_length_a 22.384(3)
_cell_length_b 32.340(4)
_cell_length_c 34.221(4)
_cell_angle_alpha 75.951(4)
_cell_angle_beta 78.016(5)
_cell_angle_gamma 78.695(5)
_cell_formula_units_Z 2
loop_
_atom_type_symbol
_atom_type_radius_bond
C 0.68
H 0.23
Cl 0.99
Cu 1.32
N 0.68
Na 1.66
O 0.68
P 1.05
Sb 1.39
W 1.62
loop_
_atom_site_label
_atom_site_type_symbol
_atom_site_fract_x
_atom_site_fract_y
_atom_site_fract_z
W1 W 0.73883(2) 0.52134(2) 0.98975(2)
W2 W 0.60035(2) 0.48722(2) 1.06243(2)
W3 W 0.74698(2) 0.48154(2) 1.09993(2)
W4 W 0.66896(2) 0.54364(2) 1.16665(2)
W5 W 0.79470(2) 0.57413(2) 1.10116(2)
W6 W 0.78488(2) 0.61412(2) 0.99311(2)
W7 W 0.65345(2) 0.61856(2) 0.95670(2)
W8 W 0.51900(2) 0.58579(2) 1.02969(2)
W9 W 0.52598(2) 0.54897(2) 1.12990(2)
W10 W 0.58004(2) 0.80508(2) 0.98446(2)
W11 W 0.44176(2) 0.77293(2) 1.05233(2)
W12 W 0.44452(2) 0.73486(2) 1.15326(2)
W13 W 0.58476(3) 0.72900(2) 1.19336(2)
W14 W 0.71403(3) 0.76057(2) 1.13100(2)
W15 W 0.71048(3) 0.79930(2) 1.02233(2)
W16 W 0.58626(3) 0.87584(2) 1.04192(2)
W17 W 0.44474(3) 0.84194(2) 1.11215(2)
W18 W 0.58804(3) 0.83581(2) 1.15309(2)
W19 W 0.01089(2) 0.74076(2) 0.65397(2)
W20 W 0.12457(3) 0.66372(2) 0.60055(2)
W21 W -0.00380(3) 0.73253(2) 0.55026(2)
W22 W 0.10125(3) 0.76977(2) 0.46747(2)
W23 W 0.00146(2) 0.84018(2) 0.51730(2)
W24 W 0.01539(2) 0.84791(2) 0.61923(2)
W25 W 0.13088(2) 0.78415(2) 0.66619(2)
W26 W 0.24149(3) 0.71031(2) 0.61165(2)
W27 W 0.22666(3) 0.70289(2) 0.51743(2)
W28 W 0.39205(3) 0.84543(2) 0.44673(2)
W29 W 0.26994(3) 0.91307(2) 0.39502(2)
W30 W 0.16469(3) 0.98297(2) 0.44202(2)
W31 W 0.17442(2) 0.99073(2) 0.54450(2)
W32 W 0.28854(2) 0.92837(2) 0.59269(2)
W33 W 0.40161(2) 0.85320(2) 0.54169(2)
W34 W 0.43783(3) 0.93439(2) 0.46129(2)
W35 W 0.31221(3) 1.00355(2) 0.40834(2)
W36 W 0.32147(2) 1.01205(2) 0.51297(2)
Cu1 Cu 0.56246(7) 0.64200(5) 1.15404(5)
Cu2 Cu 0.74050(7) 0.68499(5) 1.06394(5)
Cu3 Cu 0.55358(7) 0.69383(5) 1.01061(5)
Cu4 Cu 0.24292(8) 0.81105(6) 0.46104(5)
Cu5 Cu 0.09873(7) 0.90894(5) 0.52984(4)
Cu6 Cu 0.26028(7) 0.82085(5) 0.59718(5)
Cu7 Cu 0.62989(7) 0.66125(6) 0.84120(5)
Cu8 Cu 0.72488(9) 0.63851(6) 0.78046(6)
Cu9 Cu 0.66821(9) 0.76750(7) 0.70810(6)
Cu10 Cu 0.57139(10) 0.63745(6) 0.70978(5)
Cu11 Cu 0.62617(8) 0.74867(6) 0.59631(6)
Cu12 Cu 0.50496(7) 0.78490(5) 0.62059(5)
Cu13 Cu 0.32401(7) 0.78006(5) 0.97995(5)
Cu14 Cu 0.19668(7) 0.79262(5) 1.00600(4)
Cu15 Cu 0.20976(7) 0.69316(5) 0.91955(4)
Cu16 Cu 0.17800(8) 0.86552(6) 0.88102(5)
Cu17 Cu 0.06829(7) 0.78726(5) 0.84052(4)
Cu18 Cu 0.16512(7) 0.78262(5) 0.77536(4)
Cu19 Cu 0.86380(8) 0.75810(6) 1.17821(6)
Cu20 Cu 0.98780(8) 0.74486(7) 1.14379(5)
Cu21 Cu 1.01540(8) 0.83952(6) 1.21555(5)
Cu22 Cu 1.01346(8) 0.66420(6) 1.27400(5)
Cu23 Cu 1.06753(9) 0.76127(6) 1.35858(5)
Cu24 Cu 1.15457(8) 0.74386(6) 1.29237(5)
Sb1 Sb 0.65309(5) 0.59257(4) 1.06464(4)
Sb2 Sb 0.58381(6) 0.75491(4) 1.08786(4)
Sb3 Sb 0.27145(6) 0.90948(4) 0.49860(4)
Sb4 Sb 0.12977(6) 0.78497(4) 0.56179(4)
P1 P 0.64472(16) 0.74754(12) 0.80062(11)
P2 P 0.77373(19) 0.72086(15) 0.75436(13)
P3 P 0.55333(17) 0.62582(13) 0.80338(11)
P4 P 0.6653(2) 0.57573(14) 0.75751(12)
P5 P 0.56037(18) 0.82205(14) 0.66905(12)
P6 P 0.68805(18) 0.81091(15) 0.61778(12)
P7 P 0.47995(18) 0.69981(12) 0.65884(10)
P8 P 0.6038(2) 0.65769(13) 0.61473(11)
P9 P 0.31349(14) 0.69801(10) 0.96444(9)
P10 P 0.18020(14) 0.70239(11) 1.01027(9)
P11 P 0.29731(17) 0.85543(12) 0.91703(11)
P12 P 0.17050(16) 0.88467(11) 0.96483(10)
P13 P 0.09414(16) 0.69566(11) 0.88424(10)
P14 P 0.21828(16) 0.70294(12) 0.82536(10)
P15 P 0.06228(17) 0.87963(11) 0.84114(10)
P16 P 0.19068(16) 0.85930(11) 0.79274(10)
P17 P 0.89171(18) 0.68080(13) 1.23828(13)
P18 P 1.01524(18) 0.65325(13) 1.18659(12)
P19 P 0.89029(18) 0.83724(14) 1.19095(13)
P20 P 1.01042(19) 0.83460(15) 1.12807(12)
P21 P 1.14231(16) 0.83240(12) 1.24119(10)
P22 P 1.0232(2) 0.83944(14) 1.30442(11)
P23 P 1.13824(18) 0.65248(12) 1.30304(11)
P24 P 1.02009(19) 0.68390(14) 1.35757(11)
O1 O 0.7731(4) 0.4808(3) 0.9641(3)
O2 O 0.7634(4) 0.4985(3) 1.0415(3)
O3 O 0.8001(4) 0.5575(3) 0.9772(3)
O4 O 0.6964(4) 0.5599(3) 0.9490(3)
O5 O 0.6617(4) 0.5027(3) 1.0149(3)
O6 O 0.6952(4) 0.5842(3) 1.0167(3)
O7 O 0.5921(4) 0.4368(3) 1.0582(2)
O8 O 0.5466(4) 0.4933(3) 1.1103(2)
O9 O 0.5411(4) 0.5229(2) 1.0309(2)
O10 O 0.6680(4) 0.4735(2) 1.0922(3)
O11 O 0.5968(4) 0.5585(3) 1.0686(2)
O12 O 0.7836(4) 0.4290(3) 1.1067(3)
O13 O 0.7128(4) 0.4857(3) 1.1536(2)
O14 O 0.8120(4) 0.5106(3) 1.1011(3)
O15 O 0.7024(4) 0.5555(3) 1.0964(3)
O16 O 0.6585(4) 0.5258(3) 1.2193(3)
O17 O 0.6382(4) 0.5999(3) 1.1592(3)
O18 O 0.5974(4) 0.5283(3) 1.1559(3)
O19 O 0.7538(4) 0.5568(3) 1.1562(3)
O20 O 0.8669(4) 0.5761(3) 1.1108(3)
O21 O 0.7554(4) 0.6288(3) 1.0982(3)
O22 O 0.8101(4) 0.5807(3) 1.0441(3)
O23 O 0.8517(4) 0.6317(3) 0.9656(3)
O24 O 0.7471(4) 0.6568(3) 1.0178(3)
O25 O 0.7377(4) 0.6321(3) 0.9484(3)
O26 O 0.6374(4) 0.6365(3) 0.9083(3)
O27 O 0.6215(4) 0.6629(3) 0.9802(3)
O28 O 0.5854(4) 0.5892(3) 0.9835(2)
O29 O 0.4564(4) 0.5943(3) 1.0044(2)
O30 O 0.5256(4) 0.6387(3) 1.0350(3)
O31 O 0.4795(3) 0.5685(3) 1.0853(2)
O32 O 0.4695(4) 0.5352(3) 1.1689(3)
O33 O 0.5314(4) 0.6028(3) 1.1311(2)
O34 O 0.5687(4) 0.8213(3) 0.9346(3)
O35 O 0.5892(4) 0.7476(3) 0.9947(3)
O36 O 0.6695(4) 0.8066(3) 0.9761(3)
O37 O 0.4954(4) 0.8072(3) 1.0133(3)
O38 O 0.5688(4) 0.8669(3) 0.9952(3)
O39 O 0.6053(4) 0.8003(3) 1.0485(3)
O40 O 0.3840(4) 0.7767(3) 1.0246(3)
O41 O 0.4901(4) 0.7231(3) 1.0455(3)
O42 O 0.4035(4) 0.7450(3) 1.1053(2)
O43 O 0.4089(4) 0.8284(4) 1.0721(3)
O44 O 0.5027(4) 0.7759(3) 1.0988(3)
O45 O 0.3871(4) 0.7144(3) 1.1911(3)
O46 O 0.4938(4) 0.6874(3) 1.1412(3)
O47 O 0.5010(4) 0.7424(4) 1.1857(3)
O48 O 0.4097(4) 0.7982(3) 1.1527(3)
O49 O 0.5745(4) 0.7067(3) 1.2458(3)
O50 O 0.5986(4) 0.6840(3) 1.1700(3)
O51 O 0.5757(4) 0.7898(4) 1.1984(3)
O52 O 0.6759(4) 0.7333(3) 1.1837(3)
O53 O 0.6070(4) 0.7703(3) 1.1288(3)
O54 O 0.7845(5) 0.7596(3) 1.1436(3)
O55 O 0.7241(4) 0.7132(3) 1.1105(3)
O56 O 0.7183(4) 0.7974(3) 1.0785(3)
O57 O 0.6730(5) 0.8159(3) 1.1494(3)
O58 O 0.7819(5) 0.8101(3) 0.9955(3)
O59 O 0.7199(4) 0.7418(3) 1.0308(3)
O60 O 0.6731(4) 0.8615(3) 1.0239(3)
O61 O 0.5790(5) 0.9316(3) 1.0317(4)
O62 O 0.5044(5) 0.8677(3) 1.0657(3)
O63 O 0.6009(5) 0.8615(4) 1.0985(3)
O64 O 0.3917(5) 0.8869(4) 1.1236(4)
O65 O 0.5049(4) 0.8373(3) 1.1456(3)
O66 O 0.5810(5) 0.8781(3) 1.1762(4)
O67 O -0.0420(4) 0.7131(3) 0.6901(3)
O68 O -0.0278(4) 0.7977(3) 0.6525(3)
O69 O -0.0169(4) 0.7418(3) 0.6054(3)
O70 O 0.0640(4) 0.7479(3) 0.6882(2)
O71 O 0.0729(4) 0.6939(3) 0.6391(2)
O72 O 0.0824(4) 0.7855(3) 0.6116(3)
O73 O 0.1079(5) 0.6119(3) 0.6196(3)
O74 O 0.1806(4) 0.6555(3) 0.5520(3)
O75 O 0.1929(4) 0.6608(3) 0.6270(3)
O76 O 0.0619(4) 0.6886(3) 0.5663(3)
O77 O 0.1639(4) 0.7285(3) 0.5711(2)
O78 O -0.0618(5) 0.7034(3) 0.5541(3)
O79 O -0.0446(4) 0.7897(3) 0.5335(3)
O80 O 0.0347(5) 0.7325(3) 0.4947(3)
O81 O 0.0718(4) 0.7788(3) 0.5347(3)
O82 O 0.1025(4) 0.7620(3) 0.4184(3)
O83 O 0.1576(4) 0.8036(3) 0.4596(3)
O84 O 0.1554(4) 0.7206(3) 0.4899(2)
O85 O 0.0336(4) 0.8180(3) 0.4677(2)
O86 O -0.0587(5) 0.8798(3) 0.5000(3)
O87 O 0.0631(4) 0.8704(3) 0.5090(3)
O88 O -0.0184(4) 0.8417(3) 0.5747(3)
O89 O -0.0376(5) 0.8890(3) 0.6366(2)
O90 O 0.0712(4) 0.8773(3) 0.5846(2)
O91 O 0.0612(4) 0.8325(3) 0.6644(3)
O92 O 0.1477(4) 0.7831(3) 0.7133(2)
O93 O 0.1813(4) 0.8173(3) 0.6316(3)
O94 O 0.1804(4) 0.7332(3) 0.6529(2)
O95 O 0.3009(4) 0.6834(3) 0.6395(3)
O96 O 0.2611(4) 0.7628(3) 0.5891(3)
O97 O 0.2752(4) 0.6901(3) 0.5613(3)
O98 O 0.2766(5) 0.6707(3) 0.4869(3)
O99 O 0.2476(5) 0.7552(3) 0.4983(3)
O100 O 0.4356(4) 0.8100(3) 0.4194(3)
O101 O 0.3250(4) 0.8201(3) 0.4680(3)
O102 O 0.3500(4) 0.8865(3) 0.4063(2)
O103 O 0.4296(4) 0.8234(3) 0.4959(3)
O104 O 0.4526(4) 0.8891(3) 0.4338(3)
O105 O 0.3545(4) 0.8957(3) 0.4893(3)
O106 O 0.2350(4) 0.8700(3) 0.4285(3)
O107 O 0.2735(5) 0.9032(5) 0.3462(3)
O108 O 0.1925(4) 0.9530(3) 0.3970(3)
O109 O 0.3102(5) 0.9674(3) 0.3740(3)
O110 O 0.2629(4) 0.9448(3) 0.4493(3)
O111 O 0.1016(5) 1.0175(3) 0.4245(3)
O112 O 0.1324(4) 0.9381(3) 0.4748(2)
O113 O 0.1714(4) 1.0059(3) 0.4878(3)
O114 O 0.2272(4) 1.0223(3) 0.4106(3)
O115 O 0.1152(5) 1.0269(3) 0.5632(3)
O116 O 0.1400(4) 0.9446(3) 0.5496(2)
O117 O 0.2097(4) 0.9677(3) 0.5946(2)
O118 O 0.2363(4) 1.0312(3) 0.5303(3)
O119 O 0.2691(4) 0.9505(3) 0.5264(3)
O120 O 0.3005(4) 0.9266(3) 0.6420(2)
O121 O 0.2521(4) 0.8821(3) 0.5983(3)
O122 O 0.3657(4) 0.8991(3) 0.5694(3)
O123 O 0.3278(4) 0.9821(3) 0.5673(3)
O124 O 0.4519(4) 0.8222(3) 0.5741(3)
O125 O 0.3337(4) 0.8287(3) 0.5575(3)
O126 O 0.4592(4) 0.8941(3) 0.5096(3)
O127 O 0.5051(5) 0.9546(4) 0.4437(4)
O128 O 0.3875(4) 0.9684(3) 0.4227(3)
O129 O 0.3957(4) 0.9738(3) 0.4958(3)
O130 O 0.3411(5) 1.0468(3) 0.3728(3)
O131 O 0.3073(4) 1.0210(3) 0.4582(3)
O132 O 0.3536(4) 1.0572(3) 0.5112(3)
O133 O 0.4924(4) 0.7054(3) 0.9603(3)
O134 O 0.2870(5) 0.7767(4) 0.4075(3)
O135 O 0.0048(5) 0.9587(4) 0.5215(4)
O136 O 0.3190(5) 0.7889(4) 0.6509(3)
O137 O 0.5500(4) 0.6502(3) 0.8378(3)
O138 O 0.6033(4) 0.7237(3) 0.8385(3)
O139 O 0.6677(4) 0.6068(3) 0.8216(3)
O140 O 0.7172(4) 0.6737(3) 0.8219(3)
O141 O 0.7685(6) 0.6792(4) 0.7416(4)
O142 O 0.7086(5) 0.6108(4) 0.7410(3)
O143 O 0.8205(5) 0.5907(5) 0.7968(5)
O144 O 0.7029(5) 0.8070(4) 0.6608(3)
O145 O 0.7452(5) 0.7627(4) 0.7262(3)
O146 O 0.5877(5) 0.7772(4) 0.6913(3)
O147 O 0.6303(4) 0.7392(3) 0.7615(3)
O148 O 0.6605(8) 0.6975(4) 0.6943(4)
O149 O 0.6173(5) 0.5819(3) 0.7298(3)
O150 O 0.5924(5) 0.6244(3) 0.6555(3)
O151 O 0.5234(5) 0.6938(3) 0.6893(3)
O152 O 0.5641(4) 0.6560(3) 0.7618(3)
O153 O 0.4798(6) 0.6037(4) 0.7320(4)
O154 O 0.5466(4) 0.7379(3) 0.5909(3)
O155 O 0.6973(5) 0.7665(4) 0.6086(3)
O156 O 0.6502(5) 0.6867(4) 0.6159(3)
O157 O 0.5829(4) 0.8083(3) 0.5942(3)
O158 O 0.6716(6) 0.7607(5) 0.5216(4)
O159 O 0.4470(4) 0.7466(3) 0.6515(3)
O160 O 0.4949(4) 0.8190(3) 0.6617(3)
O161 O 0.3506(4) 0.8204(3) 0.9298(3)
O162 O 0.3630(5) 0.7266(4) 0.9615(3)
O163 O 0.2632(4) 0.7466(2) 1.0196(2)
O164 O 0.2619(4) 0.8287(3) 0.9970(3)
O165 O 0.1424(4) 0.8428(3) 0.9818(3)
O166 O 0.1515(4) 0.7503(3) 0.9974(3)
O167 O 0.1569(5) 0.8013(3) 1.0717(3)
O168 O 0.1401(4) 0.6718(3) 0.9122(3)
O169 O 0.1796(4) 0.6759(3) 0.9779(3)
O170 O 0.2773(4) 0.7182(3) 0.9295(2)
O171 O 0.2269(4) 0.7218(3) 0.8604(2)
O172 O 0.2794(4) 0.6297(3) 0.9121(3)
O173 O 0.1630(5) 0.9021(3) 0.9190(3)
O174 O 0.2534(4) 0.8349(3) 0.9004(3)
O175 O 0.1041(4) 0.8986(3) 0.8606(3)
O176 O 0.2006(4) 0.8350(3) 0.8359(3)
O177 O 0.0480(4) 0.8339(3) 0.8675(3)
O178 O 0.0732(4) 0.7433(3) 0.8901(2)
O179 O 0.0931(4) 0.8271(3) 0.7886(3)
O180 O 0.1083(4) 0.7439(3) 0.8080(2)
O181 O -0.0361(5) 0.7898(4) 0.8349(3)
O182 O 0.2311(4) 0.7352(3) 0.7849(2)
O183 O 0.2172(4) 0.8282(3) 0.7639(3)
O184 O 0.8387(5) 0.7178(3) 1.2280(4)
O185 O 0.8381(5) 0.8089(4) 1.2014(4)
O186 O 0.9186(4) 0.7909(4) 1.1339(3)
O187 O 0.9209(5) 0.7106(4) 1.1586(3)
O188 O 1.0410(5) 0.6959(4) 1.1703(3)
O189 O 1.0388(5) 0.7872(3) 1.1405(3)
O190 O 1.0213(4) 0.8612(3) 1.1570(3)
O191 O 1.0945(5) 0.8573(3) 1.2138(3)
O192 O 1.0079(4) 0.8161(3) 1.2751(3)
O193 O 0.9403(4) 0.8153(3) 1.2173(3)
O194 O 1.0893(4) 0.6326(3) 1.2904(3)
O195 O 1.0272(5) 0.6331(3) 1.2306(3)
O196 O 1.0031(5) 0.6995(3) 1.3153(3)
O197 O 0.9371(4) 0.6994(3) 1.2562(3)
O198 O 1.0081(5) 0.8131(4) 1.3490(3)
O199 O 1.1265(5) 0.7116(3) 1.3483(3)
O200 O 1.0053(5) 0.7236(4) 1.3790(3)
O201 O 1.1304(5) 0.7923(3) 1.3195(3)
O202 O 1.1535(4) 0.6941(3) 1.2710(3)
O203 O 1.1535(5) 0.7842(3) 1.2405(3)
O204 O 1.2575(4) 0.7328(3) 1.2974(3)
O205 O 0.6407(5) 0.7940(4) 0.8009(3)
O206 O 0.8396(5) 0.7239(4) 0.7566(3)
O207 O 0.4990(5) 0.6038(4) 0.8094(3)
O208 O 0.7009(6) 0.5295(4) 0.7641(4)
O209 O 0.5587(5) 0.8587(4) 0.6902(3)
O210 O 0.7267(5) 0.8393(4) 0.5858(3)
O211 O 0.4360(5) 0.6670(4) 0.6701(3)
O212 O 0.6248(6) 0.6353(4) 0.5794(3)
O213 O 0.3382(4) 0.6518(3) 0.9651(2)
O214 O 0.1463(4) 0.6815(3) 1.0522(3)
O215 O 0.3172(5) 0.8947(3) 0.8882(3)
O216 O 0.1469(4) 0.9194(3) 0.9884(3)
O217 O 0.0403(4) 0.6720(3) 0.8911(3)
O218 O 0.2560(5) 0.6590(3) 0.8243(3)
O219 O 0.0045(4) 0.9119(3) 0.8329(3)
O220 O 0.2147(5) 0.9015(3) 0.7799(3)
O221 O 0.8711(5) 0.6417(4) 1.2667(5)
O222 O 1.0405(5) 0.6215(4) 1.1586(3)
O223 O 0.8682(6) 0.8830(4) 1.1936(4)
O224 O 1.0320(6) 0.8532(5) 1.0833(3)
O225 O 1.2009(5) 0.8515(3) 1.2285(3)
O226 O 0.9923(6) 0.8854(4) 1.2984(3)
O227 O 1.1967(5) 0.6197(4) 1.3084(3)
O228 O 0.9923(6) 0.6456(4) 1.3809(3)
C1 C 0.7244(6) 0.7175(5) 0.8047(5)
C2 C 0.7525(7) 0.7338(5) 0.8345(5)
H1 H 0.75730 0.76440 0.82290
H2 H 0.79430 0.71720 0.83640
C3 C 0.7144(7) 0.7304(6) 0.8783(5)
H3 H 0.67930 0.75440 0.87850
H4 H 0.69760 0.70290 0.88700
C4 C 0.7551(7) 0.7325(6) 0.9074(5)
H5 H 0.79190 0.70990 0.90560
H6 H 0.76950 0.76090 0.89980
N1 N 0.7208(6) 0.7261(4) 0.9502(4)
H7 H 0.69910 0.75170 0.95510
H8 H 0.74810 0.71560 0.96790
H9 H 0.69420 0.70700 0.95370
C5 C 0.6271(6) 0.5877(4) 0.8080(4)
C6 C 0.6157(8) 0.5428(5) 0.8380(5)
H10 H 0.58790 0.52960 0.82730
H11 H 0.65560 0.52320 0.83830
C7 C 0.5874(6) 0.5472(4) 0.8817(4)
H12 H 0.60350 0.57010 0.88920
H13 H 0.54180 0.55440 0.88470
C8 C 0.6057(7) 0.5045(5) 0.9080(4)
H14 H 0.65140 0.49750 0.90390
H15 H 0.58970 0.48200 0.89970
N2 N 0.5806(5) 0.5039(4) 0.9535(3)
H16 H 0.59290 0.52580 0.96080
H17 H 0.59550 0.47820 0.96890
H18 H 0.53860 0.50740 0.95790
C9 C 0.6047(7) 0.8322(5) 0.6169(4)
C10 C 0.5970(7) 0.8812(5) 0.5956(5)
H19 H 0.61480 0.89720 0.61050
H20 H 0.62020 0.88460 0.56730
C11 C 0.5292(6) 0.9003(5) 0.5946(5)
H21 H 0.50920 0.88140 0.58410
H22 H 0.50740 0.90200 0.62260
C12 C 0.5245(7) 0.9442(5) 0.5677(6)
H23 H 0.54610 0.94230 0.53970
H24 H 0.54510 0.96290 0.57800
N3 N 0.4581(6) 0.9639(4) 0.5666(4)
H25 H 0.44090 0.94920 0.55330
H26 H 0.45610 0.99200 0.55320
H27 H 0.43710 0.96240 0.59260
C13 C 0.5294(6) 0.6951(4) 0.6099(4)
C14 C 0.4952(7) 0.6825(6) 0.5811(4)
H28 H 0.48340 0.65360 0.59350
H29 H 0.52350 0.68060 0.55500
C15 C 0.4366(7) 0.7149(5) 0.5722(4)
H30 H 0.44470 0.74470 0.56920
H31 H 0.40240 0.70950 0.59540
C16 C 0.4173(7) 0.7104(5) 0.5317(4)
H32 H 0.45280 0.71250 0.50900
H33 H 0.40380 0.68200 0.53580
N4 N 0.3670(6) 0.7449(4) 0.5221(4)
H34 H 0.33580 0.74410 0.54400
H35 H 0.35280 0.74160 0.50020
H36 H 0.38080 0.77080 0.51620
C17 C 0.2618(5) 0.7049(4) 1.0130(4)
C18 C 0.2825(5) 0.6703(4) 1.0495(3)
H37 H 0.25520 0.67610 1.07490
H38 H 0.27700 0.64170 1.04630
C19 C 0.3495(5) 0.6683(4) 1.0540(3)
H39 H 0.37740 0.65430 1.03290
H40 H 0.35870 0.69800 1.04970
C20 C 0.3610(6) 0.6436(4) 1.0956(4)
H41 H 0.36370 0.61230 1.09720
H42 H 0.32650 0.65230 1.11670
N5 N 0.4204(5) 0.6528(4) 1.1028(4)
H43 H 0.45290 0.63860 1.08790
H44 H 0.42300 0.64390 1.12980
H45 H 0.42150 0.68170 1.09510
C21 C 0.2550(6) 0.8677(4) 0.9665(3)
C22 C 0.2795(6) 0.9020(5) 0.9793(5)
H46 H 0.25650 0.90590 1.00650
H47 H 0.27190 0.92980 0.95960
C23 C 0.3495(6) 0.8908(5) 0.9813(5)
H48 H 0.35840 0.86100 0.99710
H49 H 0.37320 0.89200 0.95330
C24 C 0.3710(7) 0.9213(5) 1.0009(6)
H50 H 0.36160 0.95130 0.98560
H51 H 0.34880 0.91940 1.02930
N6 N 0.4383(6) 0.9096(6) 1.0007(5)
H52 H 0.44680 0.88180 1.01420
H53 H 0.45080 0.92730 1.01340
H54 H 0.45850 0.91260 0.97450
C25 C 0.1346(10) 0.7010(6) 0.8307(5)
C26 C 0.1224(7) 0.6667(4) 0.8118(4)
H55 H 0.07710 0.66760 0.81540
H56 H 0.13990 0.63810 0.82680
C27 C 0.1494(9) 0.6709(4) 0.7661(4)
H57 H 0.14110 0.70140 0.75150
H58 H 0.19470 0.66170 0.76250
C28 C 0.1192(10) 0.6424(6) 0.7484(5)
H59 H 0.07420 0.64530 0.75890
H60 H 0.12540 0.65110 0.71820
N7 N 0.1500(8) 0.5961(5) 0.7617(5)
H61 H 0.15960 0.58300 0.74000
H62 H 0.12370 0.58150 0.78190
H63 H 0.18520 0.59610 0.77110
C29 C 0.1070(7) 0.8667(4) 0.7918(3)
C30 C 0.0908(7) 0.9026(4) 0.7555(4)
H64 H 0.04560 0.90640 0.75600
H65 H 0.10050 0.92980 0.75920
C31 C 0.1240(6) 0.8949(5) 0.7136(4)
H66 H 0.12810 0.86390 0.71310
H67 H 0.16590 0.90270 0.70810
C32 C 0.0875(8) 0.9221(5) 0.6803(4)
H68 H 0.04520 0.91460 0.68630
H69 H 0.08390 0.95300 0.68070
N8 N 0.1172(8) 0.9151(5) 0.6395(4)
H70 H 0.15540 0.92320 0.63340
H71 H 0.09380 0.93120 0.62070
H72 H 0.12080 0.88670 0.63900
C33 C 0.9313(7) 0.6705(5) 1.1876(5)
C34 C 0.9010(7) 0.6366(6) 1.1752(5)
H73 H 0.92700 0.62830 1.15030
H74 H 0.90130 0.61040 1.19730
C35 C 0.8332(8) 0.6522(5) 1.1668(5)
H75 H 0.82250 0.68350 1.16620
H76 H 0.83080 0.64770 1.13960
C36 C 0.7888(6) 0.6299(5) 1.1971(5)
H77 H 0.78560 0.63830 1.22360
H78 H 0.80250 0.59840 1.20100
N9 N 0.7270(5) 0.6413(4) 1.1836(4)
H79 H 0.71380 0.67010 1.18120
H80 H 0.69930 0.62640 1.20230
H81 H 0.73040 0.63420 1.15890
C37 C 0.9239(7) 0.8330(5) 1.1387(5)
C38 C 0.8903(8) 0.8653(6) 1.1074(5)
H82 H 0.91050 0.86050 1.07990
H83 H 0.89550 0.89460 1.10880
C39 C 0.8208(7) 0.8639(6) 1.1121(5)
H84 H 0.81340 0.83350 1.12020
H85 H 0.79770 0.87900 1.13390
C40 C 0.7988(11) 0.8841(9) 1.0742(7)
H86 H 0.81830 0.86710 1.05310
H87 H 0.81000 0.91350 1.06450
N10 N 0.7277(5) 0.8866(4) 1.0814(4)
H88 H 0.71690 0.86150 1.09780
H89 H 0.71490 0.89060 1.05700
H90 H 0.70950 0.90900 1.09360
C41 C 1.1105(6) 0.8332(4) 1.2952(4)
C42 C 1.1307(8) 0.8688(5) 1.3088(5)
H91 H 1.11640 0.89700 1.29180
H92 H 1.17640 0.86470 1.30480
C43 C 1.1030(12) 0.8684(8) 1.3559(6)
H93 H 1.05760 0.87670 1.35880
H94 H 1.11150 0.83860 1.37190
C44 C 1.1265(10) 0.8958(6) 1.3724(5)
H95 H 1.11320 0.92610 1.35910
H96 H 1.17220 0.89000 1.36700
N11 N 1.1042(6) 0.8895(4) 1.4173(3)
H97 H 1.06400 0.90190 1.42210
H98 H 1.12760 0.90180 1.42870
H99 H 1.10750 0.86070 1.42860
C45 C 1.1038(7) 0.6714(5) 1.3515(4)
C46 C 1.1280(7) 0.6390(5) 1.3891(4)
H100 H 1.11680 0.61040 1.39080
H101 H 1.17360 0.63580 1.38450
C47 C 1.1032(8) 0.6521(6) 1.4291(5)
H102 H 1.10750 0.68270 1.42570
H103 H 1.05850 0.65010 1.43600
C48 C 1.1326(8) 0.6270(6) 1.4631(5)
H104 H 1.17600 0.63200 1.45820
H105 H 1.13300 0.59590 1.46470
N12 N 1.1005(7) 0.6380(5) 1.5033(3)
H106 H 1.11550 0.66060 1.50720
H107 H 1.10740 0.61480 1.52390
H108 H 1.05920 0.64530 1.50310
Cl1 Cl 0.5071(2) 0.61314(17) 1.23177(14)
O229 O 0.8494(6) 0.6848(5) 1.0441(5)
O230 O 0.1586(4) 0.7846(3) 0.9133(3)
O231 O 1.0251(8) 0.7329(6) 1.0723(4)
O232 O 0.9584(5) 0.9106(4) 1.2231(3)
O233 O 0.9511(8) 0.6103(5) 1.3253(5)
O234 O 1.0474(5) 0.7381(4) 1.2325(3)
Na1 Na 0.94690(19) 0.76119(14) 1.27795(13)
Na2 Na 0.2696(2) 0.77606(15) 0.86976(13)
Na3 Na 0.5366(3) 0.7266(2) 0.73993(19)
Na4 Na 1.0175(15) 0.9199(12) 1.0268(10)
O235 O 0.3756(8) 0.7528(6) 0.8716(5)
O236 O 0.9011(6) 0.7741(5) 1.3468(4)
O237 O 0.3284(4) 0.7815(3) 0.8007(2)
O238 O 0.8352(7) 0.7701(6) 1.2866(5)
O239 O 0.468(3) 0.753(3) 0.741(2)
O240 O 0.4862(15) 0.7500(12) 0.8094(11)
O241 O 1.1579(4) 0.7708(3) 1.1636(3)
O242 O 0.2733(4) 0.7465(3) 1.1062(2)
O243 O 0.1482(4) 0.7166(3) 1.1145(3)
O244 O 0.7428(4) 0.5474(3) 0.8723(3)
O245 O 0.4766(5) 0.6481(3) 0.9137(3)
O246 O -0.0014(5) 0.8350(3) 0.7444(3)
O247 O 0.8001(5) 0.6271(4) 0.8704(3)
O248 O 0.2779(5) 0.8413(3) 1.0733(3)
O249 O 0.2765(5) 0.8015(4) 1.1688(3)
O250 O 0.5365(5) 0.7646(4) 0.8962(3)
O251 O 0.6770(5) 0.4292(3) 0.9679(3)
O252 O 0.3874(5) 0.6206(4) 1.1906(3)
O253 O 0.3009(6) 0.8488(4) 0.6962(3)
O254 O 0.2316(6) 0.7223(4) 0.3842(4)
O255 O 0.2572(5) 0.7095(4) 1.2030(3)
O256 O 0.5802(5) 0.8546(4) 0.5123(3)
O257 O 1.1704(6) 0.8668(4) 1.1323(3)
O258 O -0.0737(5) 0.7178(4) 0.8899(4)
O259 O 0.0154(7) 0.7371(4) 0.7681(4)
O260 O 1.3005(5) 0.8095(4) 1.2650(4)
O261 O 0.2607(7) 0.5917(4) 0.7911(3)
O262 O -0.1403(5) 0.8095(4) 0.6036(4)
O263 O -0.0556(6) 0.7210(5) 0.4575(3)
O264 O 0.8550(6) 0.7328(5) -0.0346(4)
O265 O 0.7178(5) 0.8443(4) 0.5081(4)
O266 O 0.9070(7) 0.4992(5) 1.0235(5)
O267 O 0.3820(6) 0.5872(4) 0.8354(4)
O268 O 0.2173(6) 0.6520(4) 1.1660(4)
O269 O 0.7143(5) 0.8390(4) 1.2108(4)
O270 O -0.0005(6) 0.9748(4) 0.6204(4)
O271 O 0.3817(7) 0.7217(5) 0.4432(5)
O272 O 0.3088(8) 0.7159(4) 0.7154(4)
O273 O 0.9725(6) 0.6136(5) 0.9728(5)
O274 O 0.8945(8) 0.4117(5) 1.0525(5)
O275 O 0.3878(7) 0.6716(5) 0.8507(5)
O276 O 0.5434(7) 0.7678(4) 0.5060(4)
O277 O 1.0301(3) 0.8169(2) 1.0210(2)
O278 O -0.0905(7) 0.6571(6) 0.8551(6)
O279 O 0.7161(5) 0.7180(7) 1.2566(4)
O280 O 0.9455(7) 0.8408(6) 1.4160(4)
O281 O 1.3341(7) 0.8242(4) 1.3332(3)
O282 O 0.6394(8) 0.6054(5) 1.2552(5)
O283 O 0.1620(7) 0.6129(5) 1.1180(5)
O284 O 0.3375(7) 1.1143(5) 0.5742(4)
O285 O 0.4069(7) 0.8744(6) 0.7000(5)
O286 O 0.4553(7) 0.8337(7) 0.8690(6)
O287 O 1.2718(8) 0.6167(5) 1.2377(5)
O288 O 0.2545(10) 0.9601(6) 0.7107(5)
O289 O 0.4128(8) 0.9617(5) 0.6560(5)
O290 O 0.5390(9) 0.8454(7) 0.7741(5)
O291 O 0.3271(9) 0.6144(5) 0.7150(5)
O292 O 0.8956(7) 0.8067(8) 1.0213(6)
O293 O 0.8648(9) 0.4076(6) 0.9729(6)
O294 O 0.6830(7) 0.4472(5) 0.8077(5)
O295 O 0.0262(9) 0.5814(7) 0.7149(5)
O296 O 0.7631(8) 0.8841(6) 0.6432(6)
O297 O 0.3122(7) 0.9131(6) 0.8082(5)
O298 O -0.032(1) 0.8451(6) 0.9368(5)
O299 O -0.1748(8) 0.9003(5) 0.5413(6)
O300 O 0.0063(14) 0.7531(5) 0.9678(5)
O301 O 0.3951(8) 0.8539(8) 0.7787(5)
O302 O 0.5549(9) 0.5129(6) 0.7493(4)
O303 O 0.9134(12) 0.5311(7) 0.9292(7)
O304 O -0.0070(8) 1.0481(6) 0.5562(6)
O305 O 0.5443(8) 0.9441(6) 0.6777(5)
O306 O 0.0350(6) 0.6652(4) 0.9982(4)
O307 O 1.3397(9) 0.6649(5) 1.2738(4)
O308 O 0.3024(11) 0.6448(8) 0.4043(6)
O309 O 0.4304(6) 1.1464(6) 0.5915(6)
O310 O 0.5038(11) 0.9114(10) 0.9199(7)
O311 O 0.3255(11) 1.0328(6) 0.6233(6)
O312 O -0.0096(9) 0.5910(5) 0.8869(8)
O313 O 0.1502(11) 0.9887(6) 0.7820(9)
O314 O 1.4278(8) 0.8055(7) 1.2329(6)
O315 O 0.4047(9) 0.9433(7) 0.8686(7)
O316 O 0.4389(9) 0.9862(5) 1.0316(6)
O317 O 0.8430(7) 0.8153(7) 0.6915(7)
O318 O 0.1808(8) 1.1111(6) 0.547(1)
O319 O 0.0277(11) 0.9947(6) 0.8091(8)
O320 O 1.1294(12) 0.9231(7) 1.0685(5)
O321 O 0.2001(10) 1.0297(8) 0.6371(6)
O322 O 0.9083(9) 0.7250(7) 0.0751(5)
O323 O 0.8756(7) 0.7899(6) 0.7716(5)
Cu23* Cu 0.06753(9) 0.76127(6) 0.35858(5)
O82* O 1.1025(4) 0.7620(3) 1.4184(3)
#END
