
#######################################################################
#
#                 Cambridge Crystallographic Data Centre
#                                CCDC
#
#######################################################################
#
# If this CIF has been generated from an entry in the Cambridge
# Structural Database, then it will include bibliographic, chemical,
# crystal, experimental, refinement or atomic coordinate data resulting
# from the CCDC's data processing and validation procedures.
#
#######################################################################

data_CSD_CIF_LAHDAC
_audit_creation_date 2016-02-17
_audit_creation_method CSD-ConQuest-V1
_database_code_CSD LAHDAC
_database_code_depnum_ccdc_archive 'CCDC 1431906'
_chemical_formula_sum 'C16 H118 Cu10 N4 Na10 O181 P12 W30'
_chemical_formula_moiety
;
(C16 H48 Cu10 N4 O146 P12 W30 10-)n,10n(Na1 1+),35n(H2 O1)
;
_journal_coden_Cambridge 9
_journal_volume 55
_journal_year 2016
_journal_page_first 1551
_journal_name_full 'Inorg.Chem. '
loop_
_publ_author_name
"O.Oms"
"Shu Yang"
"W.Salomon"
"J.Marrot"
"A.Dolbecq"
"E.Riviere"
"A.Bonnefont"
"L.Ruhlmann"
"P.Mialane"
_chemical_name_systematic
;
catena-(Deca-sodium 
tetrakis(\m~9~-phosphato)-tetrakis(\m~3~-aledronato)-tetrakis(\m~3~-oxo)-tetra
hexacontakis(\m~2~-oxo)-hexa-aqua-octacosaoxo-deca-copper-triaconta-tungsten 
pentatriacontahydrate)
;
_cell_volume  24857.333
_exptl_crystal_colour 'green'
_exptl_crystal_density_diffrn 2.654
_exptl_crystal_description 'parallelepiped'
_diffrn_ambient_temperature 200
#These two values have been output from a single CSD field.
_refine_ls_R_factor_gt 0.0806
_refine_ls_wR_factor_gt 0.0806
_symmetry_cell_setting monoclinic
_symmetry_space_group_name_H-M 'P 21/c'
_symmetry_Int_Tables_number 14
loop_
_symmetry_equiv_pos_site_id
_symmetry_equiv_pos_as_xyz
1 x,y,z
2 -x,1/2+y,1/2-z
3 -x,-y,-z
4 x,-1/2-y,-1/2+z
_cell_length_a 32.256(3)
_cell_length_b 28.454(3)
_cell_length_c 27.131(2)
_cell_angle_alpha 90
_cell_angle_beta 93.400(4)
_cell_angle_gamma 90
_cell_formula_units_Z 4
loop_
_atom_type_symbol
_atom_type_radius_bond
C 0.68
H 0.23
Cu 1.32
N 0.68
Na 1.66
O 0.68
P 1.05
W 1.62
loop_
_atom_site_label
_atom_site_type_symbol
_atom_site_fract_x
_atom_site_fract_y
_atom_site_fract_z
W1 W 0.86219(2) 0.64597(2) -0.09196(2)
W2 W 0.90892(2) 0.74177(2) -0.03789(2)
W3 W 0.90897(2) 0.63674(2) 0.02333(2)
W4 W 0.86182(2) 0.69444(2) 0.12945(2)
W5 W 0.80942(2) 0.59212(2) 0.06925(2)
W6 W 0.76352(2) 0.60118(2) -0.04410(2)
W7 W 0.76472(2) 0.71604(2) -0.10741(2)
W8 W 0.80989(2) 0.81013(2) -0.05377(2)
W9 W 0.86242(2) 0.79813(2) 0.07069(2)
W10 W 0.76082(2) 0.83135(2) 0.12776(2)
W11 W 0.76011(2) 0.72759(2) 0.18663(2)
W12 W 0.70796(2) 0.62747(2) 0.12562(2)
W13 W 0.66221(2) 0.63596(2) 0.01143(2)
W14 W 0.66320(2) 0.74901(2) -0.05106(2)
W15 W 0.70834(2) 0.84197(2) 0.00607(2)
W16 W 0.48420(2) 0.77457(2) -0.00809(2)
W17 W 0.53669(2) 0.87386(2) 0.05383(2)
W18 W 0.58237(2) 0.86568(2) 0.16822(2)
W19 W 0.58041(2) 0.75318(2) 0.23116(2)
W20 W 0.53456(2) 0.66087(2) 0.17391(2)
W21 W 0.48253(2) 0.67187(2) 0.05162(2)
W22 W 0.38079(2) 0.70669(2) 0.10801(2)
W23 W 0.38291(2) 0.81017(2) 0.04880(2)
W24 W 0.43581(2) 0.91186(2) 0.10941(2)
W25 W 0.48122(2) 0.90168(2) 0.22292(2)
W26 W 0.47866(2) 0.78694(2) 0.28679(2)
W27 W 0.43279(2) 0.69360(2) 0.23256(2)
W28 W 0.33446(2) 0.76319(2) 0.21626(2)
W29 W 0.33595(2) 0.86836(2) 0.15483(2)
W30 W 0.38206(2) 0.85860(2) 0.27061(2)
Cu1 Cu 0.62212(5) 0.79832(6) 0.06364(6)
Cu2 Cu 0.66664(5) 0.79065(6) 0.17129(6)
Cu3 Cu 0.62180(5) 0.70282(6) 0.11662(6)
Cu4 Cu 0.57725(5) 0.71057(6) 0.00835(6)
Cu5 Cu 0.01031(5) 0.70987(6) 0.40955(6)
Cu6 Cu 0.02721(5) 0.61478(6) 0.40189(6)
Cu7 Cu 0.15651(5) 0.65694(6) 0.41936(6)
Cu8 Cu 0.08390(5) 0.66361(6) 0.25226(6)
Cu9 Cu 0.23290(5) 0.71237(6) 0.27036(6)
Cu10 Cu 0.21626(5) 0.61684(6) 0.27753(6)
P1 P 0.81648(11) 0.70084(13) 0.00770(13)
P2 P 0.70587(11) 0.73680(13) 0.06993(13)
P3 P 0.53796(11) 0.76511(13) 0.10975(13)
P4 P 0.42727(11) 0.80349(13) 0.17046(13)
P5 P 0.01583(11) 0.71471(14) 0.30469(14)
P6 P 0.01035(11) 0.60813(13) 0.29279(13)
P7 P 0.08776(11) 0.71600(14) 0.46342(14)
P8 P 0.09255(11) 0.61056(13) 0.48427(14)
P9 P 0.22595(11) 0.71472(13) 0.37452(13)
P10 P 0.23626(11) 0.60744(14) 0.38544(13)
P11 P 0.15638(11) 0.71953(13) 0.21354(13)
P12 P 0.15060(11) 0.61419(13) 0.19583(13)
O1 O 0.8749(3) 0.6194(4) -0.1455(3)
O2 O 0.8204(3) 0.6080(3) -0.0692(3)
O3 O 0.8209(3) 0.6900(3) -0.1136(3)
O4 O 0.9011(3) 0.6169(3) -0.0451(3)
O5 O 0.9015(3) 0.6980(3) -0.0923(3)
O6 O 0.8584(3) 0.6879(3) -0.0158(3)
O7 O -0.0482(3) 0.7283(4) 0.4428(4)
O8 O 0.9016(3) 0.7681(3) 0.0239(3)
O9 O 0.8644(3) 0.7776(3) -0.0643(3)
O10 O 0.9384(3) 0.6911(3) -0.0033(3)
O11 O 0.9517(3) 0.6027(4) 0.0417(3)
O12 O 0.9001(3) 0.6725(3) 0.0800(3)
O13 O 0.8635(3) 0.6000(3) 0.0372(4)
O14 O 0.8925(3) 0.6821(4) 0.1815(3)
O15 O 0.8170(3) 0.7169(3) 0.1591(3)
O16 O 0.8323(3) 0.6383(3) 0.1127(3)
O17 O 0.8849(3) 0.7563(3) 0.1189(3)
O18 O 0.8271(3) 0.7249(3) 0.0577(3)
O19 O 0.8231(3) 0.5413(3) 0.1012(3)
O20 O 0.7583(3) 0.6036(4) 0.0892(4)
O21 O 0.7894(3) 0.5645(3) 0.0083(3)
O22 O 0.7930(3) 0.6550(3) 0.0162(3)
O23 O 0.7475(3) 0.5580(4) -0.0850(3)
O24 O 0.7172(3) 0.6095(3) -0.0110(3)
O25 O 0.7522(3) 0.6566(3) -0.0820(3)
O26 O 0.7487(3) 0.7096(3) -0.1685(3)
O27 O 0.7180(3) 0.7402(3) -0.0841(3)
O28 O 0.7904(3) 0.7781(3) -0.1122(3)
O29 O 0.7929(3) 0.7332(3) -0.0280(3)
O30 O 0.8240(3) 0.8626(3) -0.0808(3)
O31 O 0.7582(3) 0.8244(3) -0.0349(3)
O32 O 0.8330(3) 0.8175(3) 0.0111(3)
O33 O 0.8934(3) 0.8456(3) 0.0845(3)
O34 O 0.8174(3) 0.8122(3) 0.1052(3)
O35 O 0.7085(3) 0.8330(3) 0.1453(3)
O36 O 0.7775(3) 0.8867(3) 0.1490(3)
O37 O 0.7488(3) 0.8431(3) 0.0590(3)
O38 O 0.7790(3) 0.7927(3) 0.1832(3)
O39 O 0.7420(3) 0.7530(3) 0.1046(3)
O40 O 0.7079(3) 0.7444(3) 0.1959(3)
O41 O 0.7762(3) 0.7132(3) 0.2465(3)
O42 O 0.7476(3) 0.6679(3) 0.1581(3)
O43 O 0.7078(3) 0.5795(3) 0.1656(3)
O44 O 0.6636(3) 0.6598(3) 0.1437(3)
O45 O 0.6764(3) 0.6004(3) 0.0693(3)
O46 O 0.7073(3) 0.6831(3) 0.0636(3)
O47 O 0.6329(3) 0.5970(3) -0.0242(4)
O48 O 0.6218(3) 0.6697(3) 0.0379(3)
O49 O 0.6710(3) 0.6835(3) -0.0362(3)
O50 O 0.6356(3) 0.7454(4) -0.1071(3)
O51 O 0.6222(3) 0.7533(3) -0.0099(3)
O52 O 0.6771(3) 0.8142(3) -0.0495(3)
O53 O 0.7076(3) 0.7610(3) 0.0202(3)
O54 O 0.7075(3) 0.8993(3) -0.0120(3)
O55 O 0.6653(3) 0.8408(3) 0.0442(3)
O56 O 0.4677(3) 0.7881(4) -0.0684(3)
O57 O 0.5358(3) 0.7566(4) -0.0164(3)
O58 O 0.4965(3) 0.8343(3) 0.0196(3)
O59 O 0.4271(3) 0.7867(4) 0.0192(3)
O60 O 0.4648(3) 0.7098(3) -0.0045(3)
O61 O 0.5022(3) 0.7485(3) 0.0744(3)
O62 O 0.5384(3) 0.9213(3) 0.0137(3)
O63 O 0.5796(3) 0.8405(3) 0.0357(3)
O64 O 0.5688(3) 0.9002(3) 0.1097(3)
O65 O 0.4874(3) 0.8997(3) 0.0893(3)
O66 O 0.5369(3) 0.8179(3) 0.1158(3)
O67 O 0.6120(3) 0.9039(3) 0.2032(3)
O68 O 0.6219(3) 0.8308(3) 0.1419(3)
O69 O 0.5728(3) 0.8183(3) 0.2152(3)
O70 O 0.5273(3) 0.8925(3) 0.1914(3)
O71 O 0.6077(3) 0.7573(4) 0.2872(3)
O72 O 0.6214(3) 0.7482(3) 0.1906(3)
O73 O 0.5659(3) 0.6879(3) 0.2300(3)
O74 O 0.5250(3) 0.7612(3) 0.2629(3)
O75 O 0.5351(3) 0.7409(3) 0.1599(3)
O76 O 0.5343(3) 0.6038(3) 0.1933(4)
O77 O 0.5782(3) 0.6618(3) 0.1361(3)
O78 O 0.4938(3) 0.6602(3) 0.1197(3)
O79 O 0.4843(3) 0.6788(3) 0.2146(3)
O80 O 0.5349(3) 0.6694(3) 0.0335(3)
O81 O 0.4641(3) 0.6179(3) 0.0317(3)
O82 O 0.4252(3) 0.6924(4) 0.0732(3)
O83 O 0.3494(3) 0.6596(3) 0.0940(3)
O84 O 0.4098(3) 0.6873(3) 0.1683(3)
O85 O 0.3583(3) 0.7498(3) 0.0589(3)
O86 O 0.3421(3) 0.7356(3) 0.1542(3)
O87 O 0.4171(3) 0.7778(4) 0.1209(3)
O88 O 0.3520(3) 0.8287(4) -0.0021(4)
O89 O 0.4127(3) 0.8659(4) 0.0665(3)
O90 O 0.3446(3) 0.8333(4) 0.0984(3)
O91 O 0.4244(3) 0.9632(3) 0.0777(3)
O92 O 0.4560(3) 0.9395(3) 0.1707(3)
O93 O 0.3819(3) 0.9046(4) 0.1411(4)
O94 O 0.4517(3) 0.8481(3) 0.1642(3)
O95 O 0.4969(3) 0.9454(3) 0.2633(3)
O96 O 0.4239(3) 0.8961(3) 0.2468(3)
O97 O 0.4916(3) 0.8463(4) 0.2610(4)
O98 O 0.4930(3) 0.7935(4) 0.3487(3)
O99 O 0.4520(3) 0.7262(4) 0.2910(3)
O100 O 0.4224(3) 0.8148(4) 0.2927(3)
O101 O 0.4499(3) 0.7701(3) 0.2073(3)
O102 O 0.4181(3) 0.6416(4) 0.2604(4)
O103 O 0.3793(3) 0.7277(4) 0.2416(3)
O104 O 0.2915(3) 0.7330(4) 0.2366(4)
O105 O 0.3067(3) 0.8151(3) 0.1809(3)
O106 O 0.3426(3) 0.8072(4) 0.2702(4)
O107 O 0.3858(3) 0.8174(3) 0.1950(3)
O108 O 0.2944(3) 0.9037(4) 0.1354(4)
O109 O 0.3433(3) 0.8885(4) 0.2230(4)
O110 O 0.3699(3) 0.8860(4) 0.3240(4)
O111 O 0.5800(3) 0.7521(3) 0.0882(3)
O112 O 0.6633(3) 0.7495(3) 0.0924(3)
O113 O 0.6727(3) 0.8337(4) 0.2464(3)
O114 O 0.5721(3) 0.6707(4) -0.0688(4)
O115 O 0.0088(3) 0.7469(4) 0.3495(4)
O116 O 0.0517(3) 0.7491(3) 0.4465(4)
O117 O 0.0226(3) 0.6588(3) 0.4568(3)
O118 O -0.0146(3) 0.6569(3) 0.3706(3)
O119 O 0.0378(3) 0.5901(4) 0.3370(4)
O120 O 0.0733(3) 0.5853(4) 0.4381(4)
O121 O -0.0211(4) 0.5586(4) 0.4308(6)
O122 O 0.2066(3) 0.6195(4) 0.4257(4)
O123 O 0.1370(3) 0.6251(3) 0.4769(3)
O124 O 0.1093(3) 0.6986(3) 0.4172(3)
O125 O 0.1808(3) 0.6972(3) 0.3697(3)
O126 O 0.1247(3) 0.6099(4) 0.3499(4)
O127 O 0.1046(3) 0.6297(4) 0.1962(3)
O128 O 0.0361(3) 0.6215(3) 0.2499(3)
O129 O 0.0620(3) 0.6997(3) 0.3061(3)
O130 O 0.1326(3) 0.7035(4) 0.2589(4)
O131 O 0.2334(3) 0.7479(3) 0.3307(4)
O132 O 0.2206(3) 0.6612(3) 0.2233(3)
O133 O 0.1923(3) 0.7518(3) 0.2323(3)
O134 O 0.2590(3) 0.6587(3) 0.3089(3)
O135 O 0.2120(3) 0.5864(4) 0.3406(4)
O136 O 0.1645(3) 0.5917(4) 0.2462(4)
O137 O 0.0023(3) 0.7395(4) 0.2564(4)
O138 O -0.0231(3) 0.5724(4) 0.2762(4)
O139 O 0.1173(3) 0.7387(4) 0.5023(4)
O140 O 0.0899(3) 0.5804(4) 0.5315(4)
O141 O 0.2379(3) 0.7375(4) 0.4246(4)
O142 O 0.2705(3) 0.5755(3) 0.4047(4)
O143 O 0.1290(3) 0.7422(3) 0.1739(4)
O144 O 0.1576(3) 0.5819(4) 0.1531(4)
C1 C 0.1838(4) 0.6673(5) 0.1905(5)
C2 C 0.1998(4) 0.6730(5) 0.1387(5)
H1 H 0.21750 0.64560 0.13190
H2 H 0.17580 0.67260 0.11430
C3 C 0.2247(5) 0.7175(5) 0.1308(5)
H3 H 0.20590 0.74510 0.13000
H4 H 0.24570 0.72170 0.15860
C4 C 0.2461(4) 0.7146(5) 0.0829(5)
H5 H 0.22520 0.70930 0.05530
H6 H 0.26550 0.68770 0.08410
N1 N 0.2705(3) 0.7605(4) 0.0734(5)
H7 H 0.26730 0.76820 0.04080
H8 H 0.29790 0.75610 0.08190
H9 H 0.26050 0.78420 0.09180
C5 C 0.0594(4) 0.6654(5) 0.4896(5)
C6 C 0.0481(4) 0.6731(5) 0.5415(5)
H10 H 0.07390 0.67660 0.56280
H11 H 0.03340 0.64490 0.55280
C7 C 0.0197(4) 0.7176(5) 0.5487(5)
H12 H 0.03680 0.74650 0.54890
H13 H -0.00160 0.71980 0.52100
C8 C -0.0014(4) 0.7129(6) 0.5979(6)
H14 H -0.01940 0.68470 0.59710
H15 H 0.01990 0.70930 0.62540
N2 N -0.0265(4) 0.7554(4) 0.6056(5)
H16 H -0.01200 0.77530 0.62650
H17 H -0.05070 0.74710 0.61890
H18 H -0.03220 0.77000 0.57610
C9 C 0.2584(4) 0.6633(5) 0.3623(5)
C10 C 0.3044(4) 0.6676(5) 0.3807(6)
H19 H 0.30600 0.66620 0.41720
H20 H 0.31960 0.64010 0.36860
C11 C 0.3265(4) 0.7120(5) 0.3651(5)
H21 H 0.31610 0.73950 0.38300
H22 H 0.32100 0.71730 0.32930
C12 C 0.3743(4) 0.7060(5) 0.3773(5)
H23 H 0.37900 0.69550 0.41200
H24 H 0.38510 0.68140 0.35580
N3 N 0.3965(4) 0.7483(5) 0.3706(5)
H25 H 0.39460 0.75640 0.33810
H26 H 0.42360 0.74400 0.38080
H27 H 0.38550 0.77160 0.38870
C13 C -0.0150(4) 0.6613(5) 0.3154(5)
C14 C -0.0589(4) 0.6647(5) 0.2967(5)
H28 H -0.07370 0.63640 0.30780
H29 H -0.05980 0.66370 0.26020
C15 C -0.0833(4) 0.7087(5) 0.3124(6)
H30 H -0.07790 0.71440 0.34820
H31 H -0.07380 0.73670 0.29450
C16 C -0.1295(4) 0.7015(5) 0.3011(5)
H32 H -0.13430 0.69100 0.26640
H33 H -0.13960 0.67650 0.32270
N4 N -0.1533(4) 0.7456(5) 0.3086(5)
H34 H -0.15670 0.74960 0.34140
H35 H -0.17860 0.74350 0.29200
H36 H -0.13910 0.77050 0.29690
O145 O 0.2633(3) 0.5632(4) 0.2485(5)
O146 O 0.0456(4) 0.7108(4) 0.1813(4)
Na1 Na 0.67232(19) 0.7198(3) -0.1804(2)
Na2 Na 0.8777(2) 0.5545(2) -0.2001(2)
Na3 Na 0.5694(3) 0.7199(4) -0.1400(4)
Na4 Na 0.9994(3) 0.5406(3) 0.0468(4)
Na5 Na 0.7189(4) 0.5097(4) 0.2068(5)
Na6 Na 0.12116(17) 0.7330(3) 0.3382(2)
Na7 Na 0.2069(2) 0.6183(2) 0.5136(2)
Na8 Na 0.80844(19) 0.9550(2) 0.1104(2)
Na9 Na 0.7524(2) 0.9673(2) -0.0065(2)
Na10 Na 0.0350(2) 0.6232(2) 0.1640(3)
Na11 Na 0.7807(2) 0.9255(3) 0.2330(3)
O147 O 0.8511(4) 0.6016(4) -0.2687(4)
O148 O 0.6618(4) 0.6470(5) -0.1385(4)
O149 O 0.9469(4) 0.5848(6) -0.2123(6)
O150 O 0.7996(4) 0.5528(5) -0.1823(5)
O151 O 0.8881(4) 0.4988(4) -0.1355(5)
O152 O 0.8777(6) 0.4931(5) -0.2598(5)
O153 O 1.0329(5) 0.5457(5) 0.1327(6)
O154 O 0.6944(5) 0.7928(6) -0.2060(5)
O155 O 0.5522(5) 0.7698(8) -0.1188(5)
O156 O 0.0824(6) 0.8055(7) 0.3662(8)
O157 O 0.1604(7) 0.8085(8) 0.3085(11)
O158 O 0.2007(4) 0.7045(4) 0.5059(5)
O159 O 0.2015(4) 0.5340(4) 0.5098(5)
O160 O 0.2827(5) 0.6092(8) 0.5115(7)
O161 O 0.1996(5) 0.6174(8) 0.6016(5)
O162 O 0.8083(3) 0.9199(4) 0.0317(4)
O163 O 0.7407(4) 0.9818(4) 0.0781(4)
O164 O 0.8764(4) 0.9270(4) 0.1400(5)
O165 O 0.8024(4) 0.9921(4) 0.1889(4)
O166 O 0.8433(4) 1.0228(4) 0.0839(5)
O167 O 0.7688(5) 0.9429(5) -0.0897(6)
O168 O 0.6970(5) 1.0161(6) -0.0429(7)
O169 O 0.0262(5) 0.6654(5) 0.0865(5)
O170 O -0.0417(5) 0.6116(5) 0.1626(6)
O171 O 0.7581(4) 0.8535(4) 0.2584(4)
O172 O 0.7129(6) 0.9597(7) 0.2320(8)
O173 O 0.2737(5) 0.8314(6) 0.3248(6)
O174 O 0.2185(3) 0.8806(4) 0.2675(5)
O175 O -0.1331(5) 0.7990(5) 0.2274(6)
O176 O 0.3768(3) 0.7968(4) 0.4559(4)
O177 O -0.0476(4) 0.6351(5) 0.5075(5)
O178 O 0.2958(3) 0.7783(5) 0.4818(4)
O179 O -0.0546(4) 0.7840(5) 0.1974(4)
O180 O 0.0201(4) 0.8328(5) 0.4739(6)
O181 O 0.9062(5) 0.8739(6) -0.0989(6)
W2C W -0.09108(2) 0.75823(2) 0.46211(2)
O7C O 0.9518(3) 0.7717(4) -0.0572(4)
#END
