
#######################################################################
#
#                 Cambridge Crystallographic Data Centre
#                                CCDC
#
#######################################################################
#
# If this CIF has been generated from an entry in the Cambridge
# Structural Database, then it will include bibliographic, chemical,
# crystal, experimental, refinement or atomic coordinate data resulting
# from the CCDC's data processing and validation procedures.
#
#######################################################################

data_CSD_CIF_LAJBUX
_audit_creation_date 2020-11-20
_audit_creation_method CSD-ConQuest-V1
_database_code_CSD LAJBUX
_database_code_depnum_ccdc_archive 'CCDC 2034009'
_chemical_formula_sum 'C60 H57 Cu4 Mo12 N16 O50 P3'
_chemical_formula_moiety
;
(C30 H26 Cu2 N8 O4 P1 1+)2n,2n(H2 O1),n(H1 Mo12 O40 P1 2-)
;
_journal_coden_Cambridge 182
_journal_volume 56
_journal_year 2020
_journal_page_first 15177
_journal_name_full 'Chem.Commun. '
loop_
_publ_author_name
"Shaobin Li"
"Xiaoguo Tan"
"Ming Yue"
"Li Zhang"
"Dongfeng Chai"
"Wendi Wang"
"Hong Pan"
"Linlin Fan"
"Chunyan Zhao"
_chemical_name_systematic
;
catena-((\m-hydroxo)-bis(\m-1,1'-(1,4-phenylene)bis(1H-imidazole))-(\m-phenylp
hosphito)-di-copper 
(\m-hydroxo)-tricosakis(\m-oxo)-(\m-phosphato)-dodecaoxo-dodeca-molybdenum 
dihydrate)
;
_cell_volume   4775.687
_exptl_crystal_colour 'green'
_exptl_crystal_density_diffrn 2.29
_exptl_crystal_description 'block'
_diffrn_ambient_temperature 293
_refine_special_details
;
The phosphate moiety is disordered by symmetry.

;
#These two values have been output from a single CSD field.
_refine_ls_R_factor_gt 0.0617
_refine_ls_wR_factor_gt 0.0617
_symmetry_cell_setting monoclinic
_symmetry_space_group_name_H-M 'C 2/m'
_symmetry_Int_Tables_number 12
loop_
_symmetry_equiv_pos_site_id
_symmetry_equiv_pos_as_xyz
1 x,y,z
2 -x,y,-z
3 1/2+x,1/2+y,z
4 1/2-x,1/2+y,-z
5 -x,-y,-z
6 x,-y,z
7 -1/2-x,-1/2-y,-z
8 -1/2+x,-1/2-y,z
_cell_length_a 24.841(6)
_cell_length_b 18.316(4)
_cell_length_c 10.897(5)
_cell_angle_alpha 90
_cell_angle_beta 105.586(4)
_cell_angle_gamma 90
_cell_formula_units_Z 2
loop_
_atom_type_symbol
_atom_type_radius_bond
C 0.68
H 0.23
Cu 1.32
Mo 1.54
N 0.68
O 0.68
P 1.05
loop_
_atom_site_label
_atom_site_type_symbol
_atom_site_fract_x
_atom_site_fract_y
_atom_site_fract_z
Mo1 Mo -0.06811(5) 0.09866(5) 0.20528(10)
Mo2 Mo 0.12826(4) -0.09933(5) 0.13711(10)
Mo3 Mo 0.00000 0.19693(7) 0.00000
Mo4 Mo 0.06061(5) 0.00000 0.34215(12)
P1 P 0.00000 0.00000 0.00000
O1 O 0.0391(5) -0.0676(6) -0.0130(11)
O2 O 0.0014(3) 0.0730(4) 0.3203(10)
O3 O 0.0726(5) -0.1766(6) 0.1090(9)
O4 O 0.00000 0.2894(5) 0.00000
O5 O -0.0308(5) 0.1777(6) 0.1416(9)
O6 O -0.0995(4) 0.1456(5) 0.2998(9)
O7 O -0.0926(4) 0.00000 0.2184(14)
O8 O -0.1233(5) 0.1037(5) 0.0411(9)
O9 O 0.0885(8) 0.00000 0.4966(13)
O10 O 0.1054(3) -0.0722(4) 0.2877(10)
O11 O 0.1543(5) 0.00000 0.1381(13)
O12 O 0.1888(4) -0.1433(5) 0.2026(9)
O13 O 0.0499(7) 0.00000 0.1095(17)
O14 O -0.0087(6) 0.00000 0.1336(17)
Cu1 Cu 0.00403(4) 0.40698(6) 0.18629(11)
P2 P 0.07550(11) 0.50000 0.0450(3)
O15 O 0.0660(2) 0.4290(3) 0.1135(6)
O16 O 0.0386(3) 0.50000 -0.0990(8)
N1 N -0.0664(3) 0.3656(4) 0.2122(7)
N2 N -0.1517(3) 0.3166(4) 0.1551(8)
N3 N 0.0527(3) 0.3298(4) 0.2949(7)
N4 N 0.1327(3) 0.2753(4) 0.3997(8)
C1 C -0.0889(4) 0.3724(6) 0.314(1)
H1 H -0.07124 0.39253 0.39291
C2 C -0.1049(3) 0.3332(5) 0.1165(9)
H2 H -0.10034 0.32358 0.03607
C3 C -0.1434(4) 0.3435(6) 0.2774(10)
H3 H -0.16897 0.34274 0.32605
C4 C -0.2023(3) 0.2829(5) 0.0763(10)
C5 C -0.2277(4) 0.2256(6) 0.1273(11)
H4 H -0.21268 0.20948 0.21039
C6 C -0.2241(4) 0.3061(6) -0.0496(10)
H5 H -0.20625 0.34318 -0.08187
C7 C 0.0405(4) 0.2711(5) 0.3683(9)
H6 H 0.00477 0.25750 0.37093
C8 C 0.0878(4) 0.2378(5) 0.4335(10)
H7 H 0.09087 0.19852 0.48907
C9 C 0.1084(4) 0.3291(5) 0.3185(9)
H8 H 0.12834 0.36215 0.28288
C10 C 0.1933(4) 0.2629(5) 0.4501(9)
C11 C 0.2305(4) 0.3191(6) 0.4557(11)
H9 H 0.21727 0.36508 0.42613
C12 C 0.2121(4) 0.1917(6) 0.4949(10)
H10 H 0.18689 0.15368 0.49125
C13 C 0.1500(4) 0.50000 0.0496(13)
C14 C 0.1898(5) 0.50000 0.1716(13)
H11 H 0.17777 0.50000 0.24544
C15 C 0.2475(6) 0.50000 0.1794(16)
H12 H 0.27395 0.50000 0.25816
C16 C 0.2645(5) 0.50000 0.0647(15)
H13 H 0.30243 0.50000 0.06937
C17 C 0.2264(5) 0.50000 -0.0526(17)
H14 H 0.23869 0.50000 -0.12601
C18 C 0.1696(5) 0.50000 -0.0622(14)
H15 H 0.14405 0.50000 -0.14218
O17 O 0.0259(2) 0.50000 0.3924(6)
O18 O 0.1558(8) 0.50000 0.500(2)
O1A O -0.0391(5) -0.0676(6) 0.0130(11)
O13A O -0.0499(7) 0.00000 -0.1095(17)
O14A O 0.0087(6) 0.00000 -0.1336(17)
O1D O -0.0391(5) 0.0676(6) 0.0130(11)
O1E O 0.0391(5) 0.0676(6) -0.0130(11)
Mo1A Mo 0.06811(5) 0.09866(5) -0.20528(10)
Mo2A Mo -0.12826(4) -0.09933(5) -0.13711(10)
Mo4A Mo -0.06061(5) 0.00000 -0.34215(12)
O2A O -0.0014(3) 0.0730(4) -0.3203(10)
O3A O -0.0726(5) -0.1766(6) -0.1090(9)
O5A O 0.0308(5) 0.1777(6) -0.1416(9)
O6A O 0.0995(4) 0.1456(5) -0.2998(9)
O7A O 0.0926(4) 0.00000 -0.2184(14)
O8A O 0.1233(5) 0.1037(5) -0.0411(9)
O9A O -0.0885(8) 0.00000 -0.4966(13)
O10A O -0.1054(3) -0.0722(4) -0.2877(10)
O11A O -0.1543(5) 0.00000 -0.1381(13)
O12A O -0.1888(4) -0.1433(5) -0.2026(9)
Mo1D Mo 0.06811(5) -0.09866(5) -0.20528(10)
Mo2D Mo -0.12826(4) 0.09933(5) -0.13711(10)
Mo3D Mo 0.00000 -0.19693(7) 0.00000
O2D O -0.0014(3) -0.0730(4) -0.3203(10)
O3D O -0.0726(5) 0.1766(6) -0.1090(9)
O4D O 0.00000 -0.2894(5) 0.00000
O5D O 0.0308(5) -0.1777(6) -0.1416(9)
O6D O 0.0995(4) -0.1456(5) -0.2998(9)
O8D O 0.1233(5) -0.1037(5) -0.0411(9)
O10D O -0.1054(3) 0.0722(4) -0.2877(10)
O12D O -0.1888(4) 0.1433(5) -0.2026(9)
Mo1E Mo -0.06811(5) -0.09866(5) 0.20528(10)
Mo2E Mo 0.12826(4) 0.09933(5) 0.13711(10)
O2E O 0.0014(3) -0.0730(4) 0.3203(10)
O3E O 0.0726(5) 0.1766(6) 0.1090(9)
O5E O -0.0308(5) -0.1777(6) 0.1416(9)
O6E O -0.0995(4) -0.1456(5) 0.2998(9)
O8E O -0.1233(5) -0.1037(5) 0.0411(9)
O10E O 0.1054(3) 0.0722(4) 0.2877(10)
O12E O 0.1888(4) 0.1433(5) 0.2026(9)
O15E O 0.0660(2) 0.5710(3) 0.1135(6)
N1F N -0.4336(3) 0.1344(4) -0.2122(7)
N2F N -0.3483(3) 0.1834(4) -0.1551(8)
C1F C -0.4111(4) 0.1276(6) -0.314(1)
H1F H -0.42876 0.10747 -0.39291
C2F C -0.3951(3) 0.1668(5) -0.1165(9)
H2F H -0.39966 0.17642 -0.03607
C3F C -0.3566(4) 0.1565(6) -0.2774(10)
H3F H -0.33103 0.15726 -0.32605
C4F C -0.2977(3) 0.2171(5) -0.0763(10)
C5F C -0.2723(4) 0.2744(6) -0.1273(11)
H4F H -0.28732 0.29052 -0.21039
C6F C -0.2759(4) 0.1939(6) 0.0496(10)
H5F H -0.29375 0.15682 0.08187
N3F N 0.4473(3) 0.1702(4) 0.7051(7)
N4F N 0.3673(3) 0.2247(4) 0.6003(8)
C7F C 0.4595(4) 0.2289(5) 0.6317(9)
H6F H 0.49523 0.24250 0.62907
C8F C 0.4122(4) 0.2622(5) 0.5665(10)
H7F H 0.40914 0.30148 0.51093
C9F C 0.3916(4) 0.1709(5) 0.6815(9)
H8F H 0.37166 0.13785 0.71712
C10F C 0.3067(4) 0.2371(5) 0.5499(9)
C11F C 0.2695(4) 0.1809(6) 0.5443(11)
H9F H 0.28273 0.13492 0.57387
C12F C 0.2879(4) 0.3083(6) 0.5051(10)
H10F H 0.31311 0.34632 0.50875
Cu1A Cu -0.00403(4) 0.40698(6) -0.18629(11)
Cu1D Cu -0.00403(4) 0.59302(6) -0.18629(11)
Cu1E Cu 0.00403(4) 0.59302(6) 0.18629(11)
Cu1F Cu -0.50403(4) 0.09302(6) -0.18629(11)
Cu1F* Cu 0.49597(4) 0.09302(6) 0.81371(11)
O15A O -0.0660(2) 0.4290(3) -0.1135(6)
O16A O -0.0386(3) 0.50000 0.0990(8)
N1A N 0.0664(3) 0.3656(4) -0.2122(7)
N3A N -0.0527(3) 0.3298(4) -0.2949(7)
O17A O -0.0259(2) 0.50000 -0.3924(6)
#END
