
#######################################################################
#
#                 Cambridge Crystallographic Data Centre
#                                CCDC
#
#######################################################################
#
# If this CIF has been generated from an entry in the Cambridge
# Structural Database, then it will include bibliographic, chemical,
# crystal, experimental, refinement or atomic coordinate data resulting
# from the CCDC's data processing and validation procedures.
#
#######################################################################

data_CSD_CIF_LAJDUV02
_audit_creation_date 1996-07-31
_audit_creation_method CSD-ConQuest-V1
_database_code_CSD LAJDUV02
_database_code_depnum_ccdc_archive 'CCDC 131597'
_chemical_formula_sum 'C4 H8 N1 O10 Ti1'
_chemical_formula_moiety
;
(C4 O8 Ti1 1-)n,n(H4 N1 1+),2n(H2 O1)
;
_journal_coeditor_code "IUCr AS0695"
_journal_coden_Cambridge 622
_journal_volume 52
_journal_year 1996
_journal_page_first 458
_journal_name_full 'Acta Crystallogr.,Sect.B:Struct.Sci. '
loop_
_publ_author_name
"H.S.Sheu"
"J.C.Wu"
"Y.Wang"
"R.B.English"
_chemical_name_systematic
;
catena-(Ammonium bis(\m~2~-oxalato)-titanium(iii) dihydrate)
;
_cell_volume    752.451
_exptl_crystal_colour 'black'
_exptl_crystal_density_diffrn 1.84
_diffrn_ambient_temperature 130
_diffrn_radiation_source 'molybdenum radiation'
#These two values have been output from a single CSD field.
_refine_ls_R_factor_gt 0.024
_refine_ls_wR_factor_gt 0.024
_symmetry_cell_setting hexagonal
_symmetry_space_group_name_H-M 'P 64 2 2'
_symmetry_Int_Tables_number 181
loop_
_symmetry_equiv_pos_site_id
_symmetry_equiv_pos_as_xyz
1 x,y,z
2 x-y,x,2/3+z
3 -y,-x,1/3-z
4 -y,x-y,1/3+z
5 x-y,-y,-z
6 -x,-y,z
7 x,x-y,2/3-z
8 -x+y,-x,2/3+z
9 y,x,1/3-z
10 y,-x+y,1/3+z
11 -x+y,y,-z
12 -x,-x+y,2/3-z
_cell_length_a 8.931(2)
_cell_length_b 8.931(2)
_cell_length_c 10.893(1)
_cell_angle_alpha 90
_cell_angle_beta 90
_cell_angle_gamma 120
_cell_formula_units_Z 3
loop_
_atom_type_symbol
_atom_type_radius_bond
C 0.68
H 0.23
N 0.68
O 0.68
Ti 1.47
loop_
_atom_site_label
_atom_site_type_symbol
_atom_site_fract_x
_atom_site_fract_y
_atom_site_fract_z
Ti1 Ti 1.00000 0.50000 0.83333
O1 O 0.76287(6) 0.44938(6) 0.72385(5)
O2 O 0.92462(6) 0.27273(6) 0.72991(4)
C1 C 0.69163(4) 0.30837(4) 0.66670
C2 C 0.78975(4) 0.21025(4) 0.66670
O3 O 0.7493(1) 0.7493(1) 0.66670
H1 H 0.73667 0.63295 0.68072
N1 N 0.00000 0.00000 0.16667
H2 H 0.10614 0.02003 0.11639
O1B O 0.55062(6) 0.23713(6) 0.609483(50)
Ti1B Ti 0.50000 0.00000 0.50000
O1H O 0.44938(6) -0.23713(6) 0.609483(50)
C1H C 0.30837(4) -0.30837(4) 0.66663
O1E O 0.23713(6) -0.44938(6) 0.72385(5)
Ti1* Ti 0.00000 -0.50000 0.83333
O2B O 0.72727(6) 0.07538(6) 0.603423(40)
O1G O 0.68651(6) 0.23713(6) 0.390517(50)
O2G O 0.34811(6) 0.07538(6) 0.396577(40)
O1A O 0.31349(6) -0.23713(6) 0.390517(50)
O2A O 0.65189(6) -0.07538(6) 0.396577(40)
O2H O 0.27273(6) -0.07538(6) 0.603423(40)
C2H C 0.21025(4) -0.21025(4) 0.66663
O2E O 0.07538(6) -0.27273(6) 0.72991(4)
H1H H 0.63295 0.73667 0.65261
H2B H -0.02003 -0.10614 0.21694
H2E H -0.10614 -0.02003 0.11639
H2H H 0.02003 0.10614 0.21694
#END
