
#######################################################################
#
#                 Cambridge Crystallographic Data Centre
#                                CCDC
#
#######################################################################
#
# If this CIF has been generated from an entry in the Cambridge
# Structural Database, then it will include bibliographic, chemical,
# crystal, experimental, refinement or atomic coordinate data resulting
# from the CCDC's data processing and validation procedures.
#
#######################################################################

data_CSD_CIF_LAJDUV
_audit_creation_date 1993-11-16
_audit_creation_method CSD-ConQuest-V1
_database_code_CSD LAJDUV
_database_code_depnum_ccdc_archive 'CCDC 1202949'
_chemical_formula_sum 'C4 H8 N1 O10 Ti1'
_chemical_formula_moiety
;
(C4 O8 Ti1 1-)n,n(H4 N1 1+),2n(H2 O1)
;
_journal_coden_Cambridge 155
_journal_volume 203
_journal_year 1993
_journal_page_first 219
_journal_name_full 'Inorg.Chim.Acta '
loop_
_publ_author_name
"R.B.English"
"D.J.Eve"
_chemical_name_systematic
;
catena-(Ammonium bis(\m~2~-oxalato)-titanium(iii) dihydrate)
;
_cell_volume    752.088
_exptl_crystal_colour 'dark red'
_exptl_crystal_density_diffrn 1.84
_exptl_special_details
;
Isomorphous with In analogue

;
_diffrn_ambient_temperature ?
_diffrn_special_details
;
The study was carried out at room temperature,in the range 283-303K

;
#These two values have been output from a single CSD field.
_refine_ls_R_factor_gt 0.0427
_refine_ls_wR_factor_gt 0.0427
_symmetry_cell_setting hexagonal
_symmetry_space_group_name_H-M 'P 62 2 2'
_symmetry_Int_Tables_number 180
loop_
_symmetry_equiv_pos_site_id
_symmetry_equiv_pos_as_xyz
1 x,y,z
2 x-y,x,1/3+z
3 -y,-x,2/3-z
4 -y,x-y,2/3+z
5 x-y,-y,-z
6 -x,-y,z
7 x,x-y,1/3-z
8 -x+y,-x,1/3+z
9 y,x,2/3-z
10 y,-x+y,2/3+z
11 -x+y,y,-z
12 -x,-x+y,1/3-z
_cell_length_a 8.935(3)
_cell_length_b 8.935(3)
_cell_length_c 10.878(4)
_cell_angle_alpha 90
_cell_angle_beta 90
_cell_angle_gamma 120
_cell_formula_units_Z 3
loop_
_atom_type_symbol
_atom_type_radius_bond
C 0.68
H 0.23
N 0.68
O 0.68
Ti 1.47
loop_
_atom_site_label
_atom_site_type_symbol
_atom_site_fract_x
_atom_site_fract_y
_atom_site_fract_z
Ti1 Ti 0.50000 0.50000 0.33330
O1 O 0.5511(3) 0.3140(3) 0.4430(3)
O2 O 0.9232(3) 0.6505(3) 0.5628(2)
C1 C 0.6920(3) 0.3840(6) 0.50000
C2 C 0.7895(3) 0.5791(7) 0.50000
O3 O 0.2504(6) 0.00000 0.50000
H1 H 0.2378(91) -0.0892(92) 0.5179(63)
N1 N 0.00000 0.00000 0.00000
H2 H -0.0282(99) 0.0815(88) 0.0506(60)
O1J O 0.7629(3) 0.3140(3) 0.5570(3)
O2J O 0.7273(3) 0.6505(3) 0.4372(2)
O1B O 0.6860(3) 0.4489(3) 0.223667(300)
O2B O 0.3495(3) 0.0768(3) 0.103867(200)
C1B C 0.6160(3) 0.3080(6) 0.16667
C2B C 0.4209(3) 0.2105(7) 0.16667
O1C O 0.6860(3) 0.2371(3) 0.109667(300)
O2C O 0.3495(3) 0.2727(3) 0.229467(200)
O1E O 0.4489(3) 0.6860(3) 0.4430(3)
O1H O 0.3140(3) 0.5511(3) 0.223667(300)
O2D O 0.2727(3) 0.3495(3) 0.4372(2)
O2I O 0.6505(3) 0.7273(3) 0.229467(200)
Ti1A Ti 1.00000 0.50000 0.66663
Ti1C Ti 0.50000 0.00000 -0.00003
H1D H 0.3270(91) 0.0892(92) 0.4821(63)
H2D H -0.1097(99) -0.0815(88) -0.0506(60)
H2E H 0.0282(99) -0.0815(88) 0.0506(60)
H2J H 0.1097(99) 0.0815(88) -0.0506(60)
#END
