
#######################################################################
#
#                 Cambridge Crystallographic Data Centre
#                                CCDC
#
#######################################################################
#
# If this CIF has been generated from an entry in the Cambridge
# Structural Database, then it will include bibliographic, chemical,
# crystal, experimental, refinement or atomic coordinate data resulting
# from the CCDC's data processing and validation procedures.
#
#######################################################################

data_CSD_CIF_LAKTUN
_audit_creation_date 2005-08-24
_audit_creation_method CSD-ConQuest-V1
_database_code_CSD LAKTUN
_database_code_depnum_ccdc_archive 'CCDC 270696'
_chemical_formula_sum 'C10 H22 Fe2 N2 O15 P4'
_chemical_formula_moiety
;
(C4 H10 Fe2 O14 P4 2-)n,n(C6 H10 N2 2+),n(H2 O1)
;
_journal_coden_Cambridge 9
_journal_volume 44
_journal_year 2005
_journal_page_first 2761
_journal_name_full 'Inorg.Chem. '
loop_
_publ_author_name
"Ping Yin"
"Song Gao"
"Zhe-Ming Wang"
"Chun-Hua Yan"
"Li-Min Zheng"
"Xin-Quan Xin"
_chemical_name_systematic
;
catena-(p-phenylenediammonium 
bis(\m~3~-(1-hydroxyethylidene)diphosphonato)-iron monohydrate)
;
_cell_volume   1034.898
_exptl_crystal_colour 'light yellow'
_exptl_crystal_density_diffrn 2.073
_exptl_special_details
;
isomorphous with the Co, Mn and Zn analogues

;
_exptl_crystal_description 'block'
_diffrn_ambient_temperature 293
#These two values have been output from a single CSD field.
_refine_ls_R_factor_gt 0.0387
_refine_ls_wR_factor_gt 0.0387
_symmetry_cell_setting triclinic
_symmetry_space_group_name_H-M 'P -1'
_symmetry_Int_Tables_number 2
loop_
_symmetry_equiv_pos_site_id
_symmetry_equiv_pos_as_xyz
1 x,y,z
2 -x,-y,-z
_cell_length_a 5.5222(11)
_cell_length_b 12.403(3)
_cell_length_c 15.454(3)
_cell_angle_alpha 87.71(3)
_cell_angle_beta 89.57(3)
_cell_angle_gamma 78.10(3)
_cell_formula_units_Z 2
loop_
_atom_type_symbol
_atom_type_radius_bond
C 0.68
H 0.23
Fe 1.34
N 0.68
O 0.68
P 1.05
loop_
_atom_site_label
_atom_site_type_symbol
_atom_site_fract_x
_atom_site_fract_y
_atom_site_fract_z
Fe1 Fe 1.32496(8) 0.52380(4) 0.09095(3)
Fe2 Fe 0.14709(8) 0.03846(4) 0.40935(3)
P1 P 0.88886(14) 0.37735(7) 0.10796(5)
P2 P 0.76140(15) 0.60095(7) 0.18582(6)
P3 P 0.72091(14) -0.10562(7) 0.39033(5)
P4 P 0.62500(14) 0.13104(7) 0.32509(5)
O1 O 1.1483(4) 0.39401(18) 0.08730(14)
O2 O 0.2017(5) 0.7980(2) 0.2129(2)
H1 H 0.12430 0.75530 0.18110
H2 H 0.26820 0.76060 0.26150
O3 O 0.6949(4) 0.42751(18) 0.03917(13)
O4 O 0.8845(4) 0.25634(17) 0.12617(15)
O5 O 1.0095(4) 0.61948(18) 0.15447(15)
O6 O 0.5483(4) 0.63578(18) 0.12218(14)
O7 O 0.6815(4) 0.6560(2) 0.27186(16)
H3 H 0.780(7) 0.701(3) 0.303(3)
O8 O 0.5208(4) 0.44423(18) 0.21756(15)
H4 H 0.517(6) 0.3746(12) 0.232(2)
O9 O 0.4499(4) -0.09625(18) 0.41044(14)
O10 O 0.8745(4) -0.06687(18) 0.45980(13)
O11 O 0.8435(4) -0.22392(18) 0.36922(15)
O12 O 0.3742(4) 0.14117(18) 0.36446(15)
O13 O 0.8225(4) 0.16329(17) 0.38015(14)
O14 O 0.5893(4) 0.20214(19) 0.23799(15)
H5 H 0.725(6) 0.208(3) 0.208(2)
O15 O 1.0162(4) -0.01700(18) 0.28671(14)
H6 H 1.085(6) -0.0811(16) 0.264(2)
N1 N 0.7266(5) 0.2758(2) 0.5298(2)
H7 H 0.861(7) 0.264(3) 0.564(2)
H8 H 0.760(6) 0.251(3) 0.480(3)
H9 H 0.644(6) 0.228(3) 0.565(2)
N2 N 0.5079(5) 0.7742(2) -0.0194(2)
H10 H 0.518(6) 0.736(3) 0.036(2)
H11 H 0.392(7) 0.765(3) -0.052(2)
H12 H 0.647(6) 0.744(3) -0.058(2)
C1 C 0.7810(5) 0.4521(3) 0.2064(2)
C2 C 0.9343(6) 0.4082(3) 0.2857(2)
H13 H 0.87000 0.45020 0.33470
H14 H 1.10290 0.41420 0.27590
H15 H 0.92720 0.33220 0.29700
C3 C 0.7518(5) -0.0127(3) 0.2971(2)
C4 C 0.6390(6) -0.0437(3) 0.2147(2)
H16 H 0.71000 -0.11900 0.20280
H17 H 0.67230 0.00350 0.16740
H18 H 0.46340 -0.03520 0.22200
C5 C 0.6073(6) 0.3920(3) 0.5155(2)
C6 C 0.7024(7) 0.4716(3) 0.5533(3)
H19 H 0.842(7) 0.452(3) 0.585(3)
C7 C 0.4045(7) 0.4185(3) 0.4617(3)
H20 H 0.336(7) 0.364(3) 0.436(3)
C8 C 0.5066(6) 0.8905(3) -0.0088(2)
C9 C 0.6979(6) 0.9349(3) -0.0417(2)
H21 H 0.844(6) 0.886(3) -0.067(2)
C10 C 0.3078(6) 0.9542(3) 0.0327(2)
H22 H 0.178(6) 0.924(3) 0.060(2)
Fe1* Fe 2.32496(8) 0.52380(4) 0.09095(3)
Fe1** Fe 0.32496(8) 0.52380(4) 0.09095(3)
Fe1A Fe 0.67504(8) 0.47620(4) -0.09095(3)
Fe1A* Fe 1.67504(8) 0.47620(4) -0.09095(3)
Fe2* Fe -0.85291(8) 0.03846(4) 0.40935(3)
Fe2** Fe 1.14709(8) 0.03846(4) 0.40935(3)
Fe2A Fe 0.85291(8) -0.03846(4) 0.59065(3)
Fe2A* Fe -0.14709(8) -0.03846(4) 0.59065(3)
P1* P 1.88886(14) 0.37735(7) 0.10796(5)
P2* P 1.76140(15) 0.60095(7) 0.18582(6)
P3* P -0.27909(14) -0.10562(7) 0.39033(5)
P4* P -0.37500(14) 0.13104(7) 0.32509(5)
O1* O 2.1483(4) 0.39401(18) 0.08730(14)
O3* O 1.6949(4) 0.42751(18) 0.03917(13)
O3A O 1.3051(4) 0.57249(18) -0.03917(13)
O3** O 2.6949(4) 0.42751(18) 0.03917(13)
O3A* O 2.3051(4) 0.57249(18) -0.03917(13)
O4* O 1.8845(4) 0.25634(17) 0.12617(15)
O5* O 2.0095(4) 0.61948(18) 0.15447(15)
O6* O 1.5483(4) 0.63578(18) 0.12218(14)
O6** O 2.5483(4) 0.63578(18) 0.12218(14)
O7* O 1.6815(4) 0.6560(2) 0.27186(16)
H3* H 1.780(7) 0.701(3) 0.303(3)
O8* O 1.5208(4) 0.44423(18) 0.21756(15)
O8** O 2.5208(4) 0.44423(18) 0.21756(15)
H4* H 1.517(6) 0.3746(12) 0.232(2)
H4** H 2.517(6) 0.3746(12) 0.232(2)
O9* O -0.5501(4) -0.09625(18) 0.41044(14)
O10* O -0.1255(4) -0.06687(18) 0.45980(13)
O10A O 0.1255(4) 0.06687(18) 0.54020(13)
O10** O -1.1255(4) -0.06687(18) 0.45980(13)
O10A* O -0.8745(4) 0.06687(18) 0.54020(13)
O11* O -0.1565(4) -0.22392(18) 0.36922(15)
O12* O -0.6258(4) 0.14117(18) 0.36446(15)
O13* O -0.1775(4) 0.16329(17) 0.38015(14)
O13** O -1.1775(4) 0.16329(17) 0.38015(14)
O14* O -0.4107(4) 0.20214(19) 0.23799(15)
H5* H -0.275(6) 0.208(3) 0.208(2)
O15* O 0.0162(4) -0.01700(18) 0.28671(14)
O15** O -0.9838(4) -0.01700(18) 0.28671(14)
H6* H 0.085(6) -0.0811(16) 0.264(2)
H6** H -0.915(6) -0.0811(16) 0.264(2)
N1A N 0.2734(5) 0.7242(2) 0.4702(2)
H7A H 0.139(7) 0.736(3) 0.436(2)
H8A H 0.240(6) 0.749(3) 0.520(3)
H9A H 0.356(6) 0.772(3) 0.435(2)
N2A N 0.4921(5) 1.2258(2) 0.0194(2)
H10A H 0.482(6) 1.264(3) -0.036(2)
H11A H 0.608(7) 1.235(3) 0.052(2)
H12A H 0.353(6) 1.256(3) 0.058(2)
C1* C 1.7810(5) 0.4521(3) 0.2064(2)
C2* C 1.9343(6) 0.4082(3) 0.2857(2)
H13* H 1.87000 0.45020 0.33470
H14* H 2.10290 0.41420 0.27590
H15* H 1.92720 0.33220 0.29700
C3* C -0.2482(5) -0.0127(3) 0.2971(2)
C4* C -0.3610(6) -0.0437(3) 0.2147(2)
H16* H -0.29000 -0.11900 0.20280
H17* H -0.32770 0.00350 0.16740
H18* H -0.53660 -0.03520 0.22200
C5A C 0.3927(6) 0.6080(3) 0.4845(2)
C6A C 0.2976(7) 0.5284(3) 0.4467(3)
H19A H 0.158(7) 0.548(3) 0.415(3)
C7A C 0.5955(7) 0.5815(3) 0.5383(3)
H20A H 0.664(7) 0.636(3) 0.564(3)
C8A C 0.4934(6) 1.1095(3) 0.0088(2)
C9A C 0.3021(6) 1.0651(3) 0.0417(2)
H21A H 0.156(6) 1.114(3) 0.067(2)
C10A C 0.6922(6) 1.0458(3) -0.0327(2)
H22A H 0.822(6) 1.076(3) -0.060(2)
#END
