
#######################################################################
#
#                 Cambridge Crystallographic Data Centre
#                                CCDC
#
#######################################################################
#
# If this CIF has been generated from an entry in the Cambridge
# Structural Database, then it will include bibliographic, chemical,
# crystal, experimental, refinement or atomic coordinate data resulting
# from the CCDC's data processing and validation procedures.
#
#######################################################################

data_CSD_CIF_LAKVEZ
_audit_creation_date 2005-08-24
_audit_creation_method CSD-ConQuest-V1
_database_code_CSD LAKVEZ
_database_code_depnum_ccdc_archive 'CCDC 270698'
_chemical_formula_sum 'C10 H22 Mn2 N2 O15 P4'
_chemical_formula_moiety
;
(C4 H10 Mn2 O14 P4 2-)n,n(C6 H10 N2 2+),n(H2 O1)
;
_journal_coden_Cambridge 9
_journal_volume 44
_journal_year 2005
_journal_page_first 2761
_journal_name_full 'Inorg.Chem. '
loop_
_publ_author_name
"Ping Yin"
"Song Gao"
"Zhe-Ming Wang"
"Chun-Hua Yan"
"Li-Min Zheng"
"Xin-Quan Xin"
_chemical_name_systematic
;
catena-(p-phenylenediammonium 
bis(\m~3~-(1-hydroxyethylidene)diphosphonato)-manganese monohydrate)
;
_cell_volume   1053.325
_exptl_crystal_colour 'light pink'
_exptl_crystal_density_diffrn 2.031
_exptl_special_details
;
isomorphous with the Co, Fe and Zn analogues

;
_exptl_crystal_description 'column'
_diffrn_ambient_temperature 293
#These two values have been output from a single CSD field.
_refine_ls_R_factor_gt 0.0438
_refine_ls_wR_factor_gt 0.0438
_symmetry_cell_setting triclinic
_symmetry_space_group_name_H-M 'P -1'
_symmetry_Int_Tables_number 2
loop_
_symmetry_equiv_pos_site_id
_symmetry_equiv_pos_as_xyz
1 x,y,z
2 -x,-y,-z
_cell_length_a 5.6083(2)
_cell_length_b 12.4098(4)
_cell_length_c 15.5105(7)
_cell_angle_alpha 87.8985(13)
_cell_angle_beta 89.9113(13)
_cell_angle_gamma 77.536(2)
_cell_formula_units_Z 2
loop_
_atom_type_symbol
_atom_type_radius_bond
C 0.68
H 0.23
Mn 1.35
N 0.68
O 0.68
P 1.05
loop_
_atom_site_label
_atom_site_type_symbol
_atom_site_fract_x
_atom_site_fract_y
_atom_site_fract_z
Mn1 Mn 1.31564(10) 0.52430(5) 0.09169(4)
Mn2 Mn 0.15531(9) 0.03850(5) 0.40866(4)
P1 P 0.88756(16) 0.37446(8) 0.10877(7)
P2 P 0.75827(17) 0.60017(8) 0.18684(7)
P3 P 0.72702(16) -0.10735(8) 0.38827(7)
P4 P 0.62788(17) 0.13170(8) 0.32507(7)
O1 O 1.1433(4) 0.3898(2) 0.08816(17)
O2 O 0.1941(6) 0.8004(3) 0.2056(3)
H1 H 0.11870 0.76390 0.16830
H2 H 0.24340 0.76150 0.25550
O3 O 0.6967(4) 0.4245(2) 0.03999(16)
O4 O 0.8809(4) 0.2535(2) 0.12760(17)
O5 O 1.0030(4) 0.6187(2) 0.15646(18)
O6 O 0.5491(4) 0.6366(2) 0.12331(17)
O7 O 0.6792(5) 0.6538(2) 0.2729(2)
H3 H 0.749(8) 0.693(4) 0.293(3)
O8 O 0.5245(4) 0.4426(2) 0.21700(18)
H4 H 0.535(7) 0.3722(13) 0.234(2)
O9 O 0.4598(4) -0.0995(2) 0.40828(17)
O10 O 0.8762(4) -0.0690(2) 0.45845(16)
O11 O 0.8531(4) -0.2250(2) 0.36510(17)
O12 O 0.3821(4) 0.1429(2) 0.36511(17)
O13 O 0.8232(4) 0.1635(2) 0.38000(17)
O14 O 0.5908(5) 0.2029(2) 0.23849(18)
H5 H 0.727(7) 0.207(3) 0.202(3)
O15 O 1.0103(4) -0.0175(2) 0.28430(17)
H6 H 1.080(6) -0.0853(15) 0.267(2)
N1 N 0.7225(7) 0.2751(3) 0.5316(3)
H7 H 0.862(7) 0.266(3) 0.565(3)
H8 H 0.759(7) 0.253(4) 0.486(3)
H9 H 0.634(7) 0.228(3) 0.561(3)
N2 N 0.5066(6) 0.7742(3) -0.0195(3)
H10 H 0.521(6) 0.735(3) 0.039(3)
H11 H 0.364(7) 0.770(3) -0.049(3)
H12 H 0.638(7) 0.739(3) -0.051(3)
C1 C 0.7820(6) 0.4505(3) 0.2056(2)
C2 C 0.9348(7) 0.4070(3) 0.2859(3)
H13 H 0.86950 0.44930 0.33440
H14 H 1.10050 0.41330 0.27660
H15 H 0.93030 0.33080 0.29710
C3 C 0.7502(6) -0.0126(3) 0.2966(2)
C4 C 0.6335(6) -0.0420(3) 0.2144(2)
H16 H 0.70290 -0.11730 0.20150
H17 H 0.66360 0.00580 0.16740
H18 H 0.46070 -0.03290 0.22250
C5 C 0.6057(7) 0.3918(3) 0.5164(3)
C6 C 0.7006(8) 0.4717(4) 0.5538(3)
H19 H 0.844(8) 0.445(4) 0.588(3)
C7 C 0.4057(8) 0.4184(4) 0.4630(3)
H20 H 0.344(7) 0.364(4) 0.434(3)
C8 C 0.5047(7) 0.8906(3) -0.0086(2)
C9 C 0.6971(7) 0.9339(3) -0.0404(3)
H21 H 0.839(7) 0.885(3) -0.066(3)
C10 C 0.3088(7) 0.9554(3) 0.0309(3)
H22 H 0.187(7) 0.920(3) 0.054(3)
Mn1* Mn 2.31564(10) 0.52430(5) 0.09169(4)
Mn1** Mn 0.31564(10) 0.52430(5) 0.09169(4)
Mn1A Mn 0.68436(10) 0.47570(5) -0.09169(4)
Mn1A* Mn 1.68436(10) 0.47570(5) -0.09169(4)
Mn2* Mn -0.84469(9) 0.03850(5) 0.40866(4)
Mn2** Mn 1.15531(9) 0.03850(5) 0.40866(4)
Mn2A Mn 0.84469(9) -0.03850(5) 0.59134(4)
Mn2A* Mn -0.15531(9) -0.03850(5) 0.59134(4)
P1* P 1.88756(16) 0.37446(8) 0.10877(7)
P2* P 1.75827(17) 0.60017(8) 0.18684(7)
P3* P -0.27298(16) -0.10735(8) 0.38827(7)
P4* P -0.37212(17) 0.13170(8) 0.32507(7)
O1* O 2.1433(4) 0.3898(2) 0.08816(17)
O3* O 1.6967(4) 0.4245(2) 0.03999(16)
O3A O 1.3033(4) 0.5755(2) -0.03999(16)
O3** O 2.6967(4) 0.4245(2) 0.03999(16)
O3A* O 2.3033(4) 0.5755(2) -0.03999(16)
O4* O 1.8809(4) 0.2535(2) 0.12760(17)
O5* O 2.0030(4) 0.6187(2) 0.15646(18)
O6* O 1.5491(4) 0.6366(2) 0.12331(17)
O6** O 2.5491(4) 0.6366(2) 0.12331(17)
O7* O 1.6792(5) 0.6538(2) 0.2729(2)
H3* H 1.749(8) 0.693(4) 0.293(3)
O8* O 1.5245(4) 0.4426(2) 0.21700(18)
O8** O 2.5245(4) 0.4426(2) 0.21700(18)
H4* H 1.535(7) 0.3722(13) 0.234(2)
H4** H 2.535(7) 0.3722(13) 0.234(2)
O9* O -0.5402(4) -0.0995(2) 0.40828(17)
O10* O -0.1238(4) -0.0690(2) 0.45845(16)
O10A O 0.1238(4) 0.0690(2) 0.54155(16)
O10** O -1.1238(4) -0.0690(2) 0.45845(16)
O10A* O -0.8762(4) 0.0690(2) 0.54155(16)
O11* O -0.1469(4) -0.2250(2) 0.36510(17)
O12* O -0.6179(4) 0.1429(2) 0.36511(17)
O13* O -0.1768(4) 0.1635(2) 0.38000(17)
O13** O -1.1768(4) 0.1635(2) 0.38000(17)
O14* O -0.4092(5) 0.2029(2) 0.23849(18)
H5* H -0.273(7) 0.207(3) 0.202(3)
O15* O 0.0103(4) -0.0175(2) 0.28430(17)
O15** O -0.9897(4) -0.0175(2) 0.28430(17)
H6* H 0.080(6) -0.0853(15) 0.267(2)
H6** H -0.920(6) -0.0853(15) 0.267(2)
N1A N 0.2775(7) 0.7249(3) 0.4684(3)
H7A H 0.138(7) 0.734(3) 0.435(3)
H8A H 0.241(7) 0.747(4) 0.514(3)
H9A H 0.366(7) 0.772(3) 0.439(3)
N2A N 0.4934(6) 1.2258(3) 0.0195(3)
H10A H 0.479(6) 1.265(3) -0.039(3)
H11A H 0.636(7) 1.230(3) 0.049(3)
H12A H 0.362(7) 1.261(3) 0.051(3)
C1* C 1.7820(6) 0.4505(3) 0.2056(2)
C2* C 1.9348(7) 0.4070(3) 0.2859(3)
H13* H 1.86950 0.44930 0.33440
H14* H 2.10050 0.41330 0.27660
H15* H 1.93030 0.33080 0.29710
C3* C -0.2498(6) -0.0126(3) 0.2966(2)
C4* C -0.3665(6) -0.0420(3) 0.2144(2)
H16* H -0.29710 -0.11730 0.20150
H17* H -0.33640 0.00580 0.16740
H18* H -0.53930 -0.03290 0.22250
C5A C 0.3943(7) 0.6082(3) 0.4836(3)
C6A C 0.2994(8) 0.5283(4) 0.4462(3)
H19A H 0.156(8) 0.555(4) 0.412(3)
C7A C 0.5943(8) 0.5816(4) 0.5370(3)
H20A H 0.656(7) 0.636(4) 0.566(3)
C8A C 0.4953(7) 1.1094(3) 0.0086(2)
C9A C 0.3029(7) 1.0661(3) 0.0404(3)
H21A H 0.161(7) 1.115(3) 0.066(3)
C10A C 0.6912(7) 1.0446(3) -0.0309(3)
H22A H 0.813(7) 1.080(3) -0.054(3)
#END
