
#######################################################################
#
#                 Cambridge Crystallographic Data Centre
#                                CCDC
#
#######################################################################
#
# If this CIF has been generated from an entry in the Cambridge
# Structural Database, then it will include bibliographic, chemical,
# crystal, experimental, refinement or atomic coordinate data resulting
# from the CCDC's data processing and validation procedures.
#
#######################################################################

data_CSD_CIF_LAKVID
_audit_creation_date 2005-08-24
_audit_creation_method CSD-ConQuest-V1
_database_code_CSD LAKVID
_database_code_depnum_ccdc_archive 'CCDC 270699'
_chemical_formula_sum 'C10 H22 N2 O15 P4 Zn2'
_chemical_formula_moiety
;
(C4 H10 O14 P4 Zn2 2-)n,n(C6 H10 N2 2+),n(H2 O1)
;
_journal_coden_Cambridge 9
_journal_volume 44
_journal_year 2005
_journal_page_first 2761
_journal_name_full 'Inorg.Chem. '
loop_
_publ_author_name
"Ping Yin"
"Song Gao"
"Zhe-Ming Wang"
"Chun-Hua Yan"
"Li-Min Zheng"
"Xin-Quan Xin"
_chemical_name_systematic
;
catena-(p-phenylenediammonium 
bis(\m~3~-(1-hydroxyethylidene)diphosphonato)-zinc monohydrate)
;
_cell_volume   1024.670
_exptl_crystal_colour 'light pink'
_exptl_crystal_density_diffrn 2.155
_exptl_special_details
;
isomorphous with the Co, Fe and Mn analogues

;
_exptl_crystal_description 'column'
_diffrn_ambient_temperature 293
#These two values have been output from a single CSD field.
_refine_ls_R_factor_gt 0.0396
_refine_ls_wR_factor_gt 0.0396
_symmetry_cell_setting triclinic
_symmetry_space_group_name_H-M 'P -1'
_symmetry_Int_Tables_number 2
loop_
_symmetry_equiv_pos_site_id
_symmetry_equiv_pos_as_xyz
1 x,y,z
2 -x,-y,-z
_cell_length_a 5.4895(1)
_cell_length_b 12.3661(3)
_cell_length_c 15.4141(4)
_cell_angle_alpha 87.505(1)
_cell_angle_beta 89.774(1)
_cell_angle_gamma 78.581(1)
_cell_formula_units_Z 2
loop_
_atom_type_symbol
_atom_type_radius_bond
C 0.68
H 0.23
N 0.68
O 0.68
P 1.05
Zn 1.45
loop_
_atom_site_label
_atom_site_type_symbol
_atom_site_fract_x
_atom_site_fract_y
_atom_site_fract_z
Zn1 Zn 1.30839(8) 0.53033(4) 0.08986(3)
Zn2 Zn 0.15709(8) 0.04256(4) 0.40908(3)
P1 P 0.89451(17) 0.37889(8) 0.10751(6)
P2 P 0.75500(18) 0.60378(8) 0.18244(6)
P3 P 0.71273(17) -0.10503(8) 0.39288(6)
P4 P 0.63360(17) 0.13122(8) 0.32636(6)
O1 O 1.1574(4) 0.3960(2) 0.08966(17)
O2 O 0.2029(6) 0.7936(3) 0.2233(3)
H1 H 0.11690 0.76080 0.18740
H2 H 0.31070 0.75280 0.26050
O3 O 0.7044(4) 0.4260(2) 0.03685(16)
O4 O 0.8920(4) 0.2574(2) 0.12709(17)
O5 O 1.0019(4) 0.6248(2) 0.14924(18)
O6 O 0.5388(4) 0.6362(2) 0.11877(16)
O7 O 0.6790(5) 0.6599(2) 0.26767(18)
H3 H 0.753(7) 0.701(3) 0.302(2)
O8 O 0.5169(5) 0.4450(2) 0.21368(17)
H4 H 0.533(7) 0.3738(11) 0.229(3)
O9 O 0.4378(4) -0.0940(2) 0.41014(16)
O10 O 0.8673(5) -0.0691(2) 0.46361(16)
O11 O 0.8294(5) -0.2244(2) 0.37229(17)
O12 O 0.3831(4) 0.1436(2) 0.36728(17)
O13 O 0.8363(4) 0.1624(2) 0.38079(16)
O14 O 0.5983(5) 0.2020(2) 0.23885(17)
H5 H 0.729(7) 0.211(3) 0.201(3)
O15 O 1.0207(4) -0.0184(2) 0.29127(17)
H6 H 1.093(6) -0.0836(16) 0.271(2)
N1 N 0.7348(6) 0.2768(3) 0.5288(2)
H7 H 0.888(8) 0.267(3) 0.565(3)
H8 H 0.774(8) 0.246(4) 0.483(3)
H9 H 0.656(7) 0.227(3) 0.559(3)
N2 N 0.5057(7) 0.7741(3) -0.0217(2)
H10 H 0.525(7) 0.725(3) 0.042(3)
H11 H 0.373(8) 0.770(3) -0.051(3)
H12 H 0.653(7) 0.741(3) -0.059(3)
C1 C 0.7784(6) 0.4550(3) 0.2046(2)
C2 C 0.9305(7) 0.4141(4) 0.2853(2)
H13 H 0.86350 0.45710 0.33340
H14 H 1.09960 0.42140 0.27590
H15 H 0.92490 0.33790 0.29780
C3 C 0.7548(6) -0.0136(3) 0.2992(2)
C4 C 0.6432(7) -0.0436(3) 0.2157(2)
H16 H 0.71380 -0.11880 0.20360
H17 H 0.67870 0.00430 0.16870
H18 H 0.46650 -0.03530 0.22210
C5 C 0.6115(7) 0.3924(3) 0.5143(3)
C6 C 0.7055(8) 0.4726(4) 0.5535(3)
H19 H 0.861(8) 0.460(4) 0.584(3)
C7 C 0.4055(8) 0.4180(4) 0.4616(3)
H20 H 0.338(8) 0.363(4) 0.441(3)
C8 C 0.5058(7) 0.8903(3) -0.0103(2)
C9 C 0.6973(7) 0.9368(3) -0.0434(3)
H21 H 0.824(8) 0.892(4) -0.073(3)
C10 C 0.3099(7) 0.9521(3) 0.0330(3)
H22 H 0.188(7) 0.920(3) 0.059(3)
Zn1* Zn 2.30839(8) 0.53033(4) 0.08986(3)
Zn1** Zn 0.30839(8) 0.53033(4) 0.08986(3)
Zn1A Zn 0.69161(8) 0.46967(4) -0.08986(3)
Zn1A* Zn 1.69161(8) 0.46967(4) -0.08986(3)
Zn2* Zn -0.84291(8) 0.04256(4) 0.40908(3)
Zn2** Zn 1.15709(8) 0.04256(4) 0.40908(3)
Zn2A Zn 0.84291(8) -0.04256(4) 0.59092(3)
Zn2A* Zn -0.15709(8) -0.04256(4) 0.59092(3)
P1* P 1.89451(17) 0.37889(8) 0.10751(6)
P2* P 1.75500(18) 0.60378(8) 0.18244(6)
P3* P -0.28727(17) -0.10503(8) 0.39288(6)
P4* P -0.36640(17) 0.13122(8) 0.32636(6)
O1* O 2.1574(4) 0.3960(2) 0.08966(17)
O3* O 1.7044(4) 0.4260(2) 0.03685(16)
O3A O 1.2956(4) 0.5740(2) -0.03685(16)
O3** O 2.7044(4) 0.4260(2) 0.03685(16)
O3A* O 2.2956(4) 0.5740(2) -0.03685(16)
O4* O 1.8920(4) 0.2574(2) 0.12709(17)
O5* O 2.0019(4) 0.6248(2) 0.14924(18)
O6* O 1.5388(4) 0.6362(2) 0.11877(16)
O6** O 2.5388(4) 0.6362(2) 0.11877(16)
O7* O 1.6790(5) 0.6599(2) 0.26767(18)
H3* H 1.753(7) 0.701(3) 0.302(2)
O8* O 1.5169(5) 0.4450(2) 0.21368(17)
O8** O 2.5169(5) 0.4450(2) 0.21368(17)
H4* H 1.533(7) 0.3738(11) 0.229(3)
H4** H 2.533(7) 0.3738(11) 0.229(3)
O9* O -0.5622(4) -0.0940(2) 0.41014(16)
O10* O -0.1327(5) -0.0691(2) 0.46361(16)
O10A O 0.1327(5) 0.0691(2) 0.53639(16)
O10** O -1.1327(5) -0.0691(2) 0.46361(16)
O10A* O -0.8673(5) 0.0691(2) 0.53639(16)
O11* O -0.1706(5) -0.2244(2) 0.37229(17)
O12* O -0.6169(4) 0.1436(2) 0.36728(17)
O13* O -0.1637(4) 0.1624(2) 0.38079(16)
O13** O -1.1637(4) 0.1624(2) 0.38079(16)
O14* O -0.4017(5) 0.2020(2) 0.23885(17)
H5* H -0.271(7) 0.211(3) 0.201(3)
O15* O 0.0207(4) -0.0184(2) 0.29127(17)
O15** O -0.9793(4) -0.0184(2) 0.29127(17)
H6* H 0.093(6) -0.0836(16) 0.271(2)
H6** H -0.907(6) -0.0836(16) 0.271(2)
N1A N 0.2652(6) 0.7232(3) 0.4712(2)
H7A H 0.112(8) 0.733(3) 0.435(3)
H8A H 0.226(8) 0.754(4) 0.517(3)
H9A H 0.344(7) 0.773(3) 0.441(3)
N2A N 0.4943(7) 1.2259(3) 0.0217(2)
H10A H 0.475(7) 1.275(3) -0.042(3)
H11A H 0.627(8) 1.230(3) 0.051(3)
H12A H 0.347(7) 1.259(3) 0.059(3)
C1* C 1.7784(6) 0.4550(3) 0.2046(2)
C2* C 1.9305(7) 0.4141(4) 0.2853(2)
H13* H 1.86350 0.45710 0.33340
H14* H 2.09960 0.42140 0.27590
H15* H 1.92490 0.33790 0.29780
C3* C -0.2452(6) -0.0136(3) 0.2992(2)
C4* C -0.3568(7) -0.0436(3) 0.2157(2)
H16* H -0.28620 -0.11880 0.20360
H17* H -0.32130 0.00430 0.16870
H18* H -0.53350 -0.03530 0.22210
C5A C 0.3885(7) 0.6076(3) 0.4857(3)
C6A C 0.2945(8) 0.5274(4) 0.4465(3)
H19A H 0.139(8) 0.540(4) 0.416(3)
C7A C 0.5945(8) 0.5820(4) 0.5384(3)
H20A H 0.662(8) 0.637(4) 0.559(3)
C8A C 0.4942(7) 1.1097(3) 0.0103(2)
C9A C 0.3027(7) 1.0632(3) 0.0434(3)
H21A H 0.176(8) 1.108(4) 0.073(3)
C10A C 0.6901(7) 1.0479(3) -0.0330(3)
H22A H 0.812(7) 1.080(3) -0.059(3)
#END
