
#######################################################################
#
#                 Cambridge Crystallographic Data Centre
#                                CCDC
#
#######################################################################
#
# If this CIF has been generated from an entry in the Cambridge
# Structural Database, then it will include bibliographic, chemical,
# crystal, experimental, refinement or atomic coordinate data resulting
# from the CCDC's data processing and validation procedures.
#
#######################################################################

data_CSD_CIF_LALDUZ
_audit_creation_date 2011-03-21
_audit_creation_method CSD-ConQuest-V1
_database_code_CSD LALDUZ
_database_code_depnum_ccdc_archive 'CCDC 764683'
_chemical_formula_sum 'C13 H34 Co1 N6 O19 Zn2'
_chemical_formula_moiety
;
(C14 O28 Zn4 6-)0.5n,n(C6 H24 Co1 N6 3+),5n(H2 O1)
;
_journal_coden_Cambridge 1350
_journal_volume 12
_journal_year 2010
_journal_page_first 4198
_journal_name_full 'CrystEngComm '
loop_
_publ_author_name
"Qinhe Pan"
"Qiang Chen"
"Wei-Chao Song"
"Tong-Liang Hu"
"Xian-He Bu"
_chemical_name_systematic
;
catena-(tris(Ethylenediamine)-cobalt(iii) 
hemikis(pentakis(\m~2~-oxalato)-bis(oxalato)-tetra-zinc) pentahydrate)
;
_cell_volume   1400.032
_exptl_crystal_colour 'orange'
_exptl_crystal_density_diffrn 1.822
_exptl_crystal_description 'plate'
_diffrn_ambient_temperature 293
#These two values have been output from a single CSD field.
_refine_ls_R_factor_gt 0.0811
_refine_ls_wR_factor_gt 0.0811
_symmetry_cell_setting triclinic
_symmetry_space_group_name_H-M 'P -1'
_symmetry_Int_Tables_number 2
loop_
_symmetry_equiv_pos_site_id
_symmetry_equiv_pos_as_xyz
1 x,y,z
2 -x,-y,-z
_cell_length_a 8.9116(18)
_cell_length_b 9.2445(18)
_cell_length_c 18.724(4)
_cell_angle_alpha 103.92(3)
_cell_angle_beta 92.14(3)
_cell_angle_gamma 109.46(3)
_cell_formula_units_Z 2
loop_
_atom_type_symbol
_atom_type_radius_bond
C 0.68
H 0.23
Co 1.26
N 0.68
O 0.68
Zn 1.22
loop_
_atom_site_label
_atom_site_type_symbol
_atom_site_fract_x
_atom_site_fract_y
_atom_site_fract_z
Zn1 Zn -0.51378(12) -0.21685(10) -0.42054(5)
Zn2 Zn -0.41462(9) -0.15923(8) -0.12418(4)
Co1 Co -0.0987(1) -0.31274(10) 0.22581(5)
O1 O -0.6286(7) -0.6392(6) -0.5777(3)
O2 O -0.6464(7) -0.4125(6) -0.5077(3)
O3 O -0.6437(6) -0.0798(6) -0.4443(3)
O4 O -0.6383(7) 0.0941(6) -0.5109(3)
O5 O -0.6495(6) -0.2844(5) -0.3359(3)
O6 O -0.6198(5) -0.2333(5) -0.2119(2)
O7 O -0.3554(6) -0.0593(5) -0.3260(3)
O8 O -0.3046(5) -0.0633(5) -0.2088(2)
O9 O -0.4381(5) -0.3987(5) -0.1725(2)
O10 O -0.2901(6) -0.5555(6) -0.1870(3)
O11 O -0.1978(5) -0.1611(5) -0.0803(3)
O12 O -0.0292(6) -0.2953(6) -0.1089(3)
O13 O -0.3816(5) 0.0760(5) -0.0647(2)
O14 O -0.4411(5) 0.2059(5) 0.0419(2)
N1 N -0.2893(7) -0.3632(7) 0.2801(3)
H1 H -0.37100 -0.44580 0.25100
H2 H -0.26540 -0.39000 0.32100
N2 N -0.1428(7) -0.1189(7) 0.2226(4)
H3 H -0.06830 -0.03330 0.25400
H4 H -0.13750 -0.10600 0.17650
N3 N -0.2307(7) -0.4358(7) 0.1297(3)
H5 H -0.28710 -0.53520 0.13190
H6 H -0.30070 -0.38980 0.11990
N4 N 0.0813(6) -0.2631(6) 0.1676(3)
H7 H 0.14490 -0.16030 0.18560
H8 H 0.14020 -0.32410 0.17100
N5 N 0.0480(6) -0.2033(6) 0.3205(3)
H9 H 0.11660 -0.10870 0.31770
H10 H -0.00920 -0.18560 0.35810
N6 N -0.0600(6) -0.5057(6) 0.2374(3)
H11 H -0.15430 -0.58660 0.23100
H12 H -0.00080 -0.53460 0.20260
C1 C -0.3369(10) -0.2179(12) 0.3013(5)
H13 H -0.44970 -0.25000 0.30770
H14 H -0.27550 -0.14820 0.34810
C2 C -0.3079(13) -0.1321(13) 0.2442(7)
H15 H -0.31310 -0.02680 0.26310
H16 H -0.38860 -0.18910 0.20130
C3 C -0.1271(9) -0.4435(9) 0.0688(4)
H17 H -0.09390 -0.53500 0.06350
H18 H -0.18680 -0.45480 0.02210
C4 C 0.0172(9) -0.2939(9) 0.0873(4)
H19 H -0.01210 -0.20560 0.08050
H20 H 0.09790 -0.30640 0.05550
C5 C 0.1387(9) -0.3035(9) 0.3347(4)
H21 H 0.18150 -0.27120 0.38670
H22 H 0.22760 -0.29200 0.30550
C6 C 0.0268(10) -0.4727(9) 0.3136(4)
H23 H -0.04940 -0.48930 0.34910
H24 H 0.08640 -0.54360 0.31290
C7 C -0.5807(11) -0.5150(9) -0.5239(4)
C8 C -0.5810(9) 0.0043(8) -0.4871(4)
C9 C -0.5717(8) -0.2201(7) -0.2727(4)
C10 C -0.3937(8) -0.1036(7) -0.2685(4)
C11 C -0.3096(8) -0.4273(7) -0.1619(4)
C12 C -0.1653(8) -0.2827(8) -0.1130(4)
C13 C -0.4488(7) 0.0815(7) -0.0071(4)
O15 O -0.9677(12) -0.3535(15) -0.4751(6)
O16 O -0.4904(11) -0.3736(14) 0.0588(6)
O17 O -0.1226(11) -0.2059(12) -0.5465(4)
O18 O -0.0406(11) -0.1623(9) -0.3507(4)
O19 O 0.1942(6) 0.0243(6) -0.0759(3)
Zn1A Zn -0.48622(12) -0.78315(10) -0.57946(5)
Zn1A* Zn -0.48622(12) 0.21685(10) -0.57946(5)
Zn2A Zn -0.58538(9) -0.84077(8) -0.87582(4)
Zn2A* Zn -0.58538(9) 0.15923(8) 0.12418(4)
O1A O -0.3714(7) -0.3608(6) -0.4223(3)
O2A O -0.3536(7) -0.5875(6) -0.4923(3)
O3A O -0.3563(6) 0.0798(6) -0.5557(3)
O3A* O -0.3563(6) -0.9202(6) -0.5557(3)
O4A O -0.3617(7) -0.0941(6) -0.4891(3)
O4* O -0.6383(7) -0.9059(6) -0.5109(3)
O5A O -0.3505(6) -0.7156(5) -0.6641(3)
O6A O -0.3802(5) -0.7667(5) -0.7881(2)
O7A O -0.6446(6) -0.9407(5) -0.6740(3)
O8A O -0.6954(5) -0.9367(5) -0.7912(2)
O9A O -0.5619(5) -0.6013(5) -0.8275(2)
O10A O -0.7099(6) -0.4445(6) -0.8130(3)
O11A O -0.8022(5) -0.8389(5) -0.9197(3)
O12A O -0.9708(6) -0.7047(6) -0.8911(3)
O13A O -0.6184(5) -0.0760(5) 0.0647(2)
O13A* O -0.6184(5) -1.0760(5) -0.9353(2)
O14A O -0.5589(5) -0.2059(5) -0.0419(2)
O14* O -0.4411(5) -0.7941(5) -0.9581(2)
C7A C -0.4193(11) -0.4850(9) -0.4761(4)
C8A C -0.4190(9) -0.0043(8) -0.5129(4)
C9A C -0.4283(8) -0.7799(7) -0.7273(4)
C10A C -0.6063(8) -0.8964(7) -0.7315(4)
C11A C -0.6904(8) -0.5727(7) -0.8381(4)
C12A C -0.8347(8) -0.7173(8) -0.8870(4)
C13A C -0.5512(7) -0.0815(7) 0.0071(4)
#END
