
#######################################################################
#
#                 Cambridge Crystallographic Data Centre
#                                CCDC
#
#######################################################################
#
# If this CIF has been generated from an entry in the Cambridge
# Structural Database, then it will include bibliographic, chemical,
# crystal, experimental, refinement or atomic coordinate data resulting
# from the CCDC's data processing and validation procedures.
#
#######################################################################

data_CSD_CIF_LALFEL
_audit_creation_date 2011-03-21
_audit_creation_method CSD-ConQuest-V1
_database_code_CSD LALFEL
_database_code_depnum_ccdc_archive 'CCDC 764685'
_chemical_formula_sum 'C15 H37 Cd2 Co1 N6 O19.5'
_chemical_formula_moiety
;
(C14 H4 Cd4 O30 6-)0.5n,n(C8 H26 Co1 N6 3+),4.5n(H2 O1)
;
_journal_coden_Cambridge 1350
_journal_volume 12
_journal_year 2010
_journal_page_first 4198
_journal_name_full 'CrystEngComm '
loop_
_publ_author_name
"Qinhe Pan"
"Qiang Chen"
"Wei-Chao Song"
"Tong-Liang Hu"
"Xian-He Bu"
_chemical_name_systematic
;
catena-(bis(Diethylenetriamine)-cobalt(iii) 
hemikis(pentakis(\m~2~-oxalato-O,O',O'',O''')-bis(\m~2~-oxalato-O,O')-diaqua-t
etra-cadmium(ii)) hydrate)
;
_cell_volume   3001.257
_exptl_crystal_colour 'yellow'
_exptl_crystal_density_diffrn 1.981
_exptl_crystal_description 'rod'
_diffrn_ambient_temperature 293
#These two values have been output from a single CSD field.
_refine_ls_R_factor_gt 0.0823
_refine_ls_wR_factor_gt 0.0823
_symmetry_cell_setting monoclinic
_symmetry_space_group_name_H-M 'P 21/c'
_symmetry_Int_Tables_number 14
loop_
_symmetry_equiv_pos_site_id
_symmetry_equiv_pos_as_xyz
1 x,y,z
2 -x,1/2+y,1/2-z
3 -x,-y,-z
4 x,-1/2-y,-1/2+z
_cell_length_a 16.955(3)
_cell_length_b 9.5430(19)
_cell_length_c 18.549(4)
_cell_angle_alpha 90
_cell_angle_beta 90.01(3)
_cell_angle_gamma 90
_cell_formula_units_Z 4
loop_
_atom_type_symbol
_atom_type_radius_bond
C 0.68
H 0.23
Cd 1.51
Co 1.26
N 0.68
O 0.68
loop_
_atom_site_label
_atom_site_type_symbol
_atom_site_fract_x
_atom_site_fract_y
_atom_site_fract_z
Cd1 Cd 0.41415(4) 0.91346(8) -0.36861(4)
Cd2 Cd 0.08065(4) 0.75183(8) -0.43168(5)
Co1 Co 0.28391(7) 1.14867(13) -0.11745(7)
O1 O 0.4921(4) 0.7578(8) -0.3069(4)
O2 O 0.3804(4) 0.7662(7) -0.2428(4)
O3 O 0.5551(4) 0.5790(7) -0.2137(4)
O4 O 0.4443(4) 0.5822(8) -0.1482(4)
O5 O 0.4112(4) 1.0666(7) -0.4651(4)
O6 O 0.4901(4) 1.1585(7) -0.5467(4)
O7 O 0.2819(4) 0.9777(7) -0.3431(4)
O8 O 0.1582(4) 0.9227(8) -0.3700(4)
O9 O 0.3337(4) 0.7667(7) -0.4295(4)
O10 O 0.2110(4) 0.7187(9) -0.4579(5)
O11 O 0.0673(4) 0.8803(8) -0.5367(4)
O12 O 0.0130(4) 1.0686(8) -0.5868(4)
O13 O -0.0402(4) 0.6395(8) -0.4508(4)
O14 O -0.0997(4) 0.4652(8) -0.5100(5)
O15 O 0.0779(5) 0.6628(11) -0.3155(5)
N1 N 0.3368(5) 1.3186(9) -0.1551(5)
H1 H 0.32130 1.39420 -0.12970
H2 H 0.38940 1.30990 -0.15060
N2 N 0.2341(5) 1.1408(9) -0.2118(5)
H3 H 0.26530 1.08550 -0.23970
N3 N 0.2233(5) 0.9782(8) -0.0948(5)
H4 H 0.25650 0.90760 -0.08420
H5 H 0.19230 0.99360 -0.05620
N4 N 0.2012(4) 1.2656(8) -0.0714(4)
H6 H 0.19400 1.34450 -0.09720
H7 H 0.15530 1.21830 -0.07040
N5 N 0.3367(5) 1.1610(9) -0.0243(5)
H8 H 0.36940 1.23660 -0.02590
N6 N 0.3727(5) 1.0291(8) -0.1467(5)
H9 H 0.35480 0.94370 -0.15900
H10 H 0.39680 1.06670 -0.18540
C1 C 0.3156(7) 1.3365(13) -0.2320(7)
H11 H 0.31780 1.43500 -0.24470
H12 H 0.35310 1.28650 -0.26200
C2 C 0.2353(8) 1.2819(13) -0.2450(7)
H13 H 0.22460 1.27610 -0.29630
H14 H 0.19620 1.34220 -0.22280
C3 C 0.1577(8) 1.0661(14) -0.2042(6)
H15 H 0.13770 1.03890 -0.25120
H16 H 0.11900 1.12610 -0.18110
C4 C 0.1730(7) 0.9388(12) -0.1589(7)
H17 H 0.19990 0.86830 -0.18740
H18 H 0.12340 0.89970 -0.14240
C5 C 0.2259(7) 1.3020(13) 0.0037(6)
H19 H 0.25430 1.39020 0.00370
H20 H 0.17970 1.31220 0.03420
C6 C 0.2776(7) 1.1881(14) 0.0321(6)
H21 H 0.30300 1.21740 0.07650
H22 H 0.24690 1.10430 0.04170
C7 C 0.3869(6) 1.0345(11) -0.0160(6)
H23 H 0.35470 0.95290 -0.00570
H24 H 0.42430 1.04720 0.02310
C8 C 0.4296(6) 1.0163(11) -0.0867(6)
H25 H 0.47030 1.08710 -0.09140
H26 H 0.45470 0.92490 -0.08820
C9 C 0.4497(6) 0.7228(11) -0.2547(6)
C10 C 0.4859(6) 0.6193(10) -0.1998(6)
C11 C 0.4720(6) 1.0666(10) -0.5042(5)
C12 C 0.2304(6) 0.9056(11) -0.3748(6)
C13 C 0.2602(6) 0.7861(10) -0.4246(5)
C14 C 0.0228(6) 0.9876(12) -0.5358(6)
C15 C -0.0412(6) 0.5318(13) -0.4882(6)
O16 O 0.2006(4) 0.9369(7) -0.6186(4)
O17 O 0.3294(4) 0.7195(8) -0.0825(4)
O18 O -0.0291(7) 0.5828(14) 0.2468(7)
O19 O 0.2267(5) 0.6481(9) -0.2623(5)
O20 O -0.0621(18) 0.784(3) 0.3565(15)
Cd1A Cd 0.58585(4) 1.41346(8) -0.13139(4)
Cd1A* Cd 0.58585(4) 0.41346(8) -0.13139(4)
Cd1B Cd 0.58585(4) 1.08654(8) -0.63139(4)
Cd2A Cd 0.91935(4) 1.25183(8) -0.06832(5)
Cd2B Cd -0.08065(4) 1.24817(8) -0.56832(5)
Cd2B* Cd -0.08065(4) 0.24817(8) -0.56832(5)
O1A O 0.5079(4) 1.2578(8) -0.1931(4)
O2A O 0.6196(4) 1.2662(7) -0.2572(4)
O3A O 0.4449(4) 1.0790(7) -0.2863(4)
O3* O 0.5551(4) 1.5790(7) -0.2137(4)
O4A O 0.5557(4) 1.0822(8) -0.3518(4)
O5B O 0.5888(4) 0.9334(7) -0.5349(4)
O5A O 0.5888(4) 1.5666(7) -0.0349(4)
O6B O 0.5099(4) 0.8415(7) -0.4533(4)
O6C O 0.4901(4) 1.3415(7) -0.0467(4)
O7A O 0.7181(4) 1.4777(7) -0.1569(4)
O8A O 0.8418(4) 1.4227(8) -0.1300(4)
O9A O 0.6663(4) 1.2667(7) -0.0705(4)
O10A O 0.7890(4) 1.2187(9) -0.0421(5)
O11B O -0.0673(4) 1.1197(8) -0.4633(4)
O11A O 0.9327(4) 1.3803(8) 0.0367(4)
O12B O -0.0130(4) 0.9314(8) -0.4132(4)
O12C O 1.0130(4) 1.4314(8) -0.0868(4)
O13B O 0.0402(4) 0.3605(8) -0.5492(4)
O13A O 1.0402(4) 1.1395(8) -0.0492(4)
O14B O 0.0997(4) 0.5348(8) -0.4900(5)
O14C O 0.9003(4) 1.0348(8) -0.0100(5)
O15A O 0.9221(5) 1.1628(11) -0.1845(5)
C9A C 0.5503(6) 1.2228(11) -0.2453(6)
C10A C 0.5141(6) 1.1193(10) -0.3002(6)
C11B C 0.5280(6) 0.9334(10) -0.4958(5)
C12A C 0.7696(6) 1.4056(11) -0.1252(6)
C13A C 0.7398(6) 1.2861(10) -0.0754(5)
C14B C -0.0228(6) 1.0124(12) -0.4642(6)
C15B C 0.0412(6) 0.4682(13) -0.5118(6)
#END
