
#######################################################################
#
#                 Cambridge Crystallographic Data Centre
#                                CCDC
#
#######################################################################
#
# If this CIF has been generated from an entry in the Cambridge
# Structural Database, then it will include bibliographic, chemical,
# crystal, experimental, refinement or atomic coordinate data resulting
# from the CCDC's data processing and validation procedures.
#
#######################################################################

data_CSD_CIF_LALFAH
_audit_creation_date 2011-03-21
_audit_creation_method CSD-ConQuest-V1
_database_code_CSD LALFAH
_database_code_depnum_ccdc_archive 'CCDC 764684'
_chemical_formula_sum 'C15 H38 Co1 Mn2 N6 O20'
_chemical_formula_moiety
;
(C14 Mn4 O28 6-)0.5n,n(C8 H26 Co1 N6 3+),6n(H2 O1)
;
_journal_coden_Cambridge 1350
_journal_volume 12
_journal_year 2010
_journal_page_first 4198
_journal_name_full 'CrystEngComm '
loop_
_publ_author_name
"Qinhe Pan"
"Qiang Chen"
"Wei-Chao Song"
"Tong-Liang Hu"
"Xian-He Bu"
_chemical_name_systematic
;
catena-(bis(Diethylenetriamine)-cobalt(iii) 
hemikis(pentakis(\m~2~-oxalato)-bis(oxalato)-tetra-manganese(ii)) 
hexahydrate)
;
_cell_volume   2984.814
_exptl_crystal_colour 'salmon pink'
_exptl_crystal_density_diffrn 1.761
_exptl_crystal_description 'rod'
_diffrn_ambient_temperature 293
_refine_special_details
;
O2W and O2W' disordered over two sites with occupancies 0.60:0.40.

;
#These two values have been output from a single CSD field.
_refine_ls_R_factor_gt 0.0817
_refine_ls_wR_factor_gt 0.0817
_symmetry_cell_setting monoclinic
_symmetry_space_group_name_H-M 'P 21/c'
_symmetry_Int_Tables_number 14
loop_
_symmetry_equiv_pos_site_id
_symmetry_equiv_pos_as_xyz
1 x,y,z
2 -x,1/2+y,1/2-z
3 -x,-y,-z
4 x,-1/2-y,-1/2+z
_cell_length_a 13.133(3)
_cell_length_b 22.410(5)
_cell_length_c 10.267(2)
_cell_angle_alpha 90
_cell_angle_beta 98.96(3)
_cell_angle_gamma 90
_cell_formula_units_Z 4
loop_
_atom_type_symbol
_atom_type_radius_bond
C 0.68
H 0.23
Co 1.26
Mn 1.61
N 0.68
O 0.68
loop_
_atom_site_label
_atom_site_type_symbol
_atom_site_fract_x
_atom_site_fract_y
_atom_site_fract_z
Mn1 Mn -0.75783(8) 0.70020(5) 1.15349(10)
Mn2 Mn -0.68982(8) 0.47256(5) 1.33933(11)
O1 O -0.7798(5) 0.3132(2) 1.4786(5)
O2 O -0.3786(4) 0.4701(2) 1.4995(5)
O3 O -0.7718(4) 0.3031(2) 1.2161(5)
O4 O -0.6542(4) 0.5266(2) 1.1791(5)
O5 O -0.5284(4) 0.4437(2) 1.3830(5)
O6 O -0.7322(4) 0.3990(2) 1.2127(5)
O7 O -0.8132(4) 0.5364(2) 1.3104(5)
O8 O -0.7434(4) 0.4093(2) 1.4664(5)
O9 O -0.8472(4) 0.7032(2) 0.9587(5)
O10 O -0.6740(4) 0.6208(2) 1.1143(5)
O11 O -0.6592(4) 0.7897(2) 0.8447(5)
O12 O -0.6689(4) 0.7581(2) 1.0470(5)
O13 O -0.8408(4) 0.6290(2) 1.2348(5)
O14 O -0.8388(4) 0.7354(2) 0.7560(5)
C1 C -0.4733(6) 0.4754(3) 1.4663(7)
C2 C -0.7926(5) 0.5817(3) 1.2470(7)
C3 C -0.7024(5) 0.7621(3) 0.9260(7)
C4 C -0.8057(5) 0.7309(3) 0.8753(7)
C5 C -0.7584(6) 0.3580(3) 1.4183(7)
C6 C -0.7546(5) 0.3513(3) 1.2702(7)
C7 C -0.6986(6) 0.5755(3) 1.1738(7)
Co1 Co -0.24648(7) 0.62879(4) 1.15810(9)
C8 C -0.4227(7) 0.5618(4) 1.1804(9)
H1 H -0.46470 0.59020 1.21990
H2 H -0.44850 0.52200 1.19270
C9 C -0.4283(7) 0.5749(4) 1.0345(9)
H3 H -0.40480 0.54040 0.99040
H4 H -0.49920 0.58300 0.99580
C10 C -0.4141(6) 0.6868(4) 1.0132(8)
H5 H -0.48260 0.68450 0.96180
H6 H -0.37460 0.71580 0.97200
C11 C -0.4217(6) 0.7061(4) 1.1507(9)
H7 H -0.43120 0.74900 1.15350
H8 H -0.48030 0.68700 1.18040
C12 C -0.0679(6) 0.6981(4) 1.1446(9)
H9 H -0.04370 0.73840 1.13340
H10 H -0.02330 0.67060 1.10730
C13 C -0.0662(6) 0.6849(4) 1.2883(8)
H11 H 0.00420 0.67800 1.33060
H12 H -0.09330 0.71870 1.33100
C14 C -0.0751(7) 0.5738(4) 1.3024(9)
H13 H -0.11110 0.54340 1.34490
H14 H -0.00630 0.57800 1.35180
C15 C -0.0685(7) 0.5548(4) 1.160(1)
H15 H -0.01250 0.57590 1.12850
H16 H -0.05500 0.51240 1.15680
N1 N -0.3168(5) 0.5665(3) 1.2415(6)
H17 H -0.28480 0.53140 1.23470
H18 H -0.31390 0.57480 1.32780
N2 N -0.3631(5) 0.6272(3) 1.0157(6)
H19 H -0.33830 0.62240 0.93830
N3 N -0.3264(5) 0.6890(3) 1.2362(6)
H20 H -0.34210 0.67480 1.31260
H21 H -0.28710 0.72170 1.25500
N4 N -0.1731(5) 0.6917(3) 1.0787(6)
H22 H -0.17280 0.68320 0.99310
H23 H -0.20650 0.72660 1.08290
N5 N -0.1304(5) 0.6307(3) 1.3016(6)
H24 H -0.15590 0.63370 1.37880
N6 N -0.1677(5) 0.5692(3) 1.0753(6)
H25 H -0.20550 0.53570 1.06000
H26 H -0.15510 0.58330 0.99720
O15 O 0.1684(12) 0.5693(8) 1.5777(12)
O16 O 0.0239(11) 0.6422(6) 1.6281(15)
O17 O 0.3987(9) 0.6410(4) 0.7274(9)
O18 O -0.0073(8) 0.6142(5) 0.8890(9)
O19 O 0.2581(8) 0.5553(3) 1.8546(8)
O20 O 0.5337(5) 0.6604(3) 1.4349(6)
O21? O -0.032(2) 0.5683(13) 1.647(3)
Mn1B Mn -0.24217(8) 0.29980(5) 1.84651(10)
Mn1A Mn -0.24217(8) 0.20020(5) 2.34651(10)
Mn1C Mn -0.75783(8) 0.79980(5) 0.65349(10)
Mn2B Mn -0.31018(8) 0.52744(5) 1.66067(11)
O1B O -0.2202(5) 0.6868(2) 1.5214(5)
O2B O -0.6214(4) 0.5299(2) 1.5005(5)
O3B O -0.2282(4) 0.6969(2) 1.7839(5)
O4B O -0.3458(4) 0.4734(2) 1.8209(5)
O5B O -0.4716(4) 0.5563(2) 1.6170(5)
O6B O -0.2678(4) 0.6010(2) 1.7873(5)
O7B O -0.1868(4) 0.4636(2) 1.6896(5)
O8B O -0.2566(4) 0.5907(2) 1.5336(5)
O9B O -0.1528(4) 0.2968(2) 2.0413(5)
O10B O -0.3260(4) 0.3792(2) 1.8857(5)
O11B O -0.3408(4) 0.2103(2) 2.1553(5)
O11A O -0.3408(4) 0.2897(2) 1.6553(5)
O11C O -0.6592(4) 0.7103(2) 1.3447(5)
O12B O -0.3311(4) 0.2419(2) 1.9530(5)
O13B O -0.1592(4) 0.3710(2) 1.7652(5)
O14B O -0.1612(4) 0.2646(2) 2.2440(5)
O14A O -0.1612(4) 0.2354(2) 1.7440(5)
O14C O -0.8388(4) 0.7646(2) 1.2560(5)
C1B C -0.5267(6) 0.5246(3) 1.5337(7)
C2B C -0.2074(5) 0.4183(3) 1.7530(7)
C3B C -0.2976(5) 0.2379(3) 2.0740(7)
C4B C -0.1943(5) 0.2691(3) 2.1247(7)
C5B C -0.2416(6) 0.6420(3) 1.5817(7)
C6B C -0.2454(5) 0.6487(3) 1.7298(7)
C7B C -0.3014(6) 0.4245(3) 1.8262(7)
#END
