
#######################################################################
#
#                 Cambridge Crystallographic Data Centre
#                                CCDC
#
#######################################################################
#
# If this CIF has been generated from an entry in the Cambridge
# Structural Database, then it will include bibliographic, chemical,
# crystal, experimental, refinement or atomic coordinate data resulting
# from the CCDC's data processing and validation procedures.
#
#######################################################################

data_CSD_CIF_LALJOY
_audit_creation_date 2005-08-24
_audit_creation_method CSD-ConQuest-V1
_database_code_CSD LALJOY
_database_code_depnum_ccdc_archive 'CCDC 252522'
_chemical_formula_sum 'C64 H63.5 Mo5 N10 Ni2 O26.75 P2'
_chemical_formula_moiety
;
(C30 H24 N6 Ni1 2+)n,n(C34 H30 Mo5 N4 Ni1 O22 P2 2-),4.75n(H2 O1)
;
_journal_coden_Cambridge 208
_journal_volume 178
_journal_year 2005
_journal_page_first 1349
_journal_name_full 'J.Solid State Chem. '
loop_
_publ_author_name
"Hui-Shuang Zhang"
"Rui-Biao Fu"
"Jian-Jun Zhang"
"Xin-Tao Wu"
"Ya-Min Li"
"Long-Sheng Wang"
"Xi-He Huang"
_chemical_name_systematic
;
catena-(tris(2,2'-Bipyridyl)-nickel(ii) 
(\m~10~-4,4'-dimethylenebiphenyldiphosphonato)-hexakis(\m~2~-oxo)-aqua-bis(2,2
'-bipyrdiyl)-nonaoxo-penta-molybdenum-nickel hydrate)
;
_cell_volume   7368.070
_exptl_crystal_colour 'green'
_exptl_crystal_density_diffrn 1.857
_exptl_crystal_description 'block'
_diffrn_ambient_temperature 130.1500
_refine_special_details
;
The structure is disordered.

;
#These two values have been output from a single CSD field.
_refine_ls_R_factor_gt 0.0287
_refine_ls_wR_factor_gt 0.0287
_symmetry_cell_setting monoclinic
_symmetry_space_group_name_H-M 'P 21/c'
_symmetry_Int_Tables_number 14
loop_
_symmetry_equiv_pos_site_id
_symmetry_equiv_pos_as_xyz
1 x,y,z
2 -x,1/2+y,1/2-z
3 -x,-y,-z
4 x,-1/2-y,-1/2+z
_cell_length_a 20.9348(15)
_cell_length_b 15.1677(7)
_cell_length_c 23.8219(15)
_cell_angle_alpha 90
_cell_angle_beta 103.077(3)
_cell_angle_gamma 90
_cell_formula_units_Z 4
loop_
_atom_type_symbol
_atom_type_radius_bond
C 0.68
H 0.23
Mo 1.42
N 0.68
Ni 1.50
O 0.68
P 1.05
loop_
_atom_site_label
_atom_site_type_symbol
_atom_site_fract_x
_atom_site_fract_y
_atom_site_fract_z
Mo1 Mo 0.27702(1) 0.632140(13) -0.144400(9)
Mo2 Mo 0.144500(9) 0.587320(12) -0.091180(8)
Mo3 Mo 0.171000(9) 0.704240(12) 0.047500(9)
Mo4 Mo 0.334140(9) 0.748720(13) 0.084100(9)
Mo5 Mo 0.39796(1) 0.707690(13) -0.032280(9)
Ni1 Ni 0.015450(15) 0.74310(2) -0.157520(14)
P1 P 0.28409(3) 0.56250(4) 0.00060(3)
P2 P 0.23781(3) -0.21263(4) -0.05487(3)
O1 O 0.06777(9) 0.83532(13) -0.10145(9)
O2 O 0.32117(9) 0.55061(12) -0.16722(8)
O3 O 0.24374(9) 0.69062(12) -0.20587(8)
O4 O 0.22080(8) 0.51696(10) -0.02837(7)
O5 O 0.20255(8) 0.55785(11) -0.13887(7)
O6 O 0.09763(8) 0.49390(11) -0.09697(8)
O7 O 0.09226(8) 0.66038(12) -0.13616(8)
O8 O 0.22216(8) -0.29933(10) -0.08905(7)
O9 O 0.13472(8) 0.63952(11) -0.02028(7)
O10 O 0.17091(8) 0.62532(12) 0.09905(8)
O11 O 0.10606(8) 0.76974(12) 0.05409(8)
O12 O 0.18421(8) -0.19490(11) -0.02289(8)
O13 O 0.24342(8) 0.77704(11) 0.08626(8)
O14 O 0.36691(9) 0.85146(12) 0.09916(9)
O15 O 0.35678(9) 0.69278(13) 0.14777(8)
O16 O 0.30642(8) -0.21398(10) -0.01465(8)
O17 O 0.39702(8) 0.69399(11) 0.04680(8)
O18 O 0.26911(8) 0.64187(10) 0.03651(7)
O19 O 0.43803(9) 0.80633(12) -0.03287(9)
O20 O 0.45636(9) 0.63211(12) -0.03809(8)
O21 O 0.32341(8) 0.58989(11) -0.04384(7)
O22 O 0.34504(8) 0.71306(11) -0.11003(8)
N1 N -0.03719(12) 0.63976(17) -0.20566(11)
N2 N -0.02803(10) 0.68585(16) -0.09698(10)
N3 N 0.04416(11) 0.79059(16) -0.22862(11)
N4 N -0.05661(10) 0.83539(16) -0.18685(10)
C1 C -0.03846(17) 0.6189(2) -0.26074(15)
H1 H -0.01320 0.65190 -0.28050
C2 C -0.0759(2) 0.5503(3) -0.28923(19)
H2 H -0.07530 0.53640 -0.32710
C3 C -0.1142(2) 0.5029(3) -0.2597(2)
H3 H -0.14190 0.45860 -0.27820
C4 C -0.11119(18) 0.5219(3) -0.2030(2)
H4 H -0.13550 0.48890 -0.18230
C5 C -0.07163(14) 0.5905(2) -0.17620(16)
C6 C -0.06457(13) 0.6132(2) -0.11486(14)
C7 C -0.09260(17) 0.5652(3) -0.07705(19)
H5 H -0.11700 0.51490 -0.08970
C8 C -0.08411(19) 0.5924(3) -0.02061(19)
H6 H -0.10290 0.56100 0.00500
C9 C -0.04762(18) 0.6661(3) -0.00295(16)
H7 H -0.04200 0.68620 0.03470
C10 C -0.01903(15) 0.7107(2) -0.04194(13)
H8 H 0.00720 0.75950 -0.02930
C11 C 0.09573(15) 0.7614(2) -0.24756(14)
H9 H 0.12790 0.72900 -0.22270
C12 C 0.10300(18) 0.7777(3) -0.30280(16)
H10 H 0.13980 0.75750 -0.31470
C13 C 0.05434(17) 0.8247(3) -0.34028(15)
H11 H 0.05760 0.83510 -0.37800
C14 C 0.00113(15) 0.8559(2) -0.32099(13)
H12 H -0.03190 0.88760 -0.34540
C15 C -0.00191(13) 0.83907(19) -0.26460(12)
C16 C -0.05548(13) 0.87145(18) -0.23839(12)
C17 C -0.09970(15) 0.9354(2) -0.26366(13)
H13 H -0.09840 0.95860 -0.29950
C18 C -0.14615(17) 0.9643(3) -0.23444(15)
H14 H -0.17670 1.00690 -0.25060
C19 C -0.14643(17) 0.9289(3) -0.18089(15)
H15 H -0.17640 0.94840 -0.16010
C20 C -0.10119(14) 0.8639(2) -0.15888(13)
H16 H -0.10190 0.83910 -0.12330
C21 C 0.23772(13) -0.12702(15) -0.10713(11)
H17 H 0.26940 -0.14150 -0.12980
H18 H 0.19480 -0.12410 -0.13310
C22 C 0.25427(12) -0.03876(15) -0.07936(11)
C23 C 0.20566(13) 0.02349(17) -0.07785(12)
H19 H 0.16220 0.01050 -0.09500
C24 C 0.22113(13) 0.10477(16) -0.05109(12)
H20 H 0.18780 0.14520 -0.05080
C25 C 0.28568(12) 0.12679(16) -0.02475(12)
C26 C 0.33414(12) 0.06333(17) -0.02547(12)
H21 H 0.37750 0.07610 -0.00790
C27 C 0.31908(12) -0.01794(16) -0.05168(12)
H22 H 0.35220 -0.05910 -0.05090
C28 C 0.33510(12) 0.48850(15) 0.05174(11)
H23 H 0.38070 0.50350 0.05430
H24 H 0.32610 0.49820 0.08940
C29 C 0.32563(12) 0.39186(16) 0.03712(11)
C30 C 0.37370(12) 0.34284(16) 0.01933(11)
H25 H 0.41420 0.36830 0.01960
C31 C 0.36167(13) 0.25574(16) 0.00111(12)
H26 H 0.39420 0.22420 -0.01100
C32 C 0.30177(13) 0.21503(16) 0.00071(12)
C33 C 0.25553(13) 0.26289(16) 0.02254(12)
H27 H 0.21640 0.23600 0.02530
C34 C 0.26710(12) 0.34984(16) 0.04013(12)
H28 H 0.23550 0.38050 0.05410
Ni2 Ni 0.386594(16) 0.20852(2) -0.211696(14)
N5 N 0.33835(11) 0.09454(15) -0.24768(10)
N6 N 0.42448(10) 0.11601(14) -0.14856(9)
N7 N 0.46183(10) 0.18266(15) -0.25423(10)
N8 N 0.36030(11) 0.29317(15) -0.28318(10)
N9 N 0.31256(11) 0.25224(14) -0.17283(10)
N10 N 0.43113(10) 0.31547(14) -0.16681(9)
C35 C 0.29538(14) 0.0892(2) -0.29880(13)
H29 H 0.28420 0.14040 -0.32030
C36 C 0.26710(14) 0.0102(2) -0.32069(13)
H30 H 0.23790 0.00840 -0.35650
C37 C 0.28295(15) -0.0657(2) -0.28858(14)
H31 H 0.26420 -0.11940 -0.30230
C38 C 0.32728(14) -0.06108(19) -0.23548(14)
H32 H 0.33840 -0.11140 -0.21310
C39 C 0.35479(13) 0.02063(18) -0.21634(12)
C40 C 0.40529(13) 0.03148(17) -0.16232(12)
C41 C 0.43389(13) -0.03919(17) -0.12836(12)
H33 H 0.41960 -0.09650 -0.13770
C42 C 0.48397(13) -0.02287(18) -0.08040(12)
H34 H 0.50370 -0.06920 -0.05720
C43 C 0.50433(13) 0.06311(18) -0.06735(12)
H35 H 0.53860 0.07530 -0.03590
C44 C 0.47290(13) 0.13036(17) -0.10184(11)
H36 H 0.48580 0.18810 -0.09230
C45 C 0.51227(13) 0.12682(19) -0.23785(12)
H37 H 0.51830 0.10020 -0.20190
C46 C 0.55579(14) 0.1068(2) -0.27198(13)
H38 H 0.59080 0.06880 -0.25890
C47 C 0.54575(14) 0.1450(2) -0.32588(13)
H39 H 0.57340 0.13140 -0.35020
C48 C 0.49442(14) 0.20339(19) -0.34355(13)
H40 H 0.48710 0.22940 -0.37980
C49 C 0.45390(12) 0.22273(17) -0.30620(12)
C50 C 0.40258(13) 0.29205(17) -0.31830(12)
C51 C 0.40132(15) 0.3566(2) -0.36022(14)
H41 H 0.42920 0.35260 -0.38540
C52 C 0.35821(16) 0.4268(2) -0.36401(15)
H42 H 0.35760 0.47120 -0.39100
C53 C 0.31588(14) 0.4297(2) -0.32677(14)
H43 H 0.28690 0.47650 -0.32780
C54 C 0.31785(14) 0.3613(2) -0.28807(13)
H44 H 0.28840 0.36220 -0.26410
C55 C 0.25166(14) 0.21968(18) -0.18017(13)
H45 H 0.24150 0.16800 -0.20130
C56 C 0.20330(14) 0.25911(19) -0.15795(13)
H46 H 0.16150 0.23480 -0.16420
C57 C 0.21858(14) 0.33598(18) -0.12597(13)
H47 H 0.18710 0.36410 -0.11040
C58 C 0.28117(13) 0.36992(17) -0.11764(12)
H48 H 0.29220 0.42150 -0.09650
C59 C 0.32754(12) 0.32653(16) -0.14103(11)
C60 C 0.39524(12) 0.35955(16) -0.13529(11)
C61 C 0.42109(13) 0.43126(18) -0.10124(12)
H49 H 0.39650 0.45980 -0.07880
C62 C 0.48372(13) 0.45956(18) -0.10125(13)
H50 H 0.50190 0.50700 -0.07840
C63 C 0.51935(13) 0.41681(18) -0.13553(12)
H51 H 0.56100 0.43630 -0.13730
C64 C 0.49134(13) 0.34444(17) -0.16702(12)
H52 H 0.51550 0.31460 -0.18930
O23 O 0.22048(13) -0.11972(15) 0.18017(10)
O24 O 0.21857(17) -0.03219(16) 0.06029(11)
O25 O 0.03012(19) -0.0008(2) -0.07898(18)
O26 O 0.0777(2) -0.0970(3) 0.1214(2)
O27 O 0.0985(3) 0.0561(4) 0.0232(2)
O28? O 0.0842(4) -0.0444(5) 0.0396(4)
Mo1* Mo 0.27702(1) -0.367860(13) -0.144400(9)
Mo2* Mo 0.144500(9) -0.412680(12) -0.091180(8)
Mo3* Mo 0.171000(9) -0.295760(12) 0.047500(9)
Mo4* Mo 0.334140(9) -0.251280(13) 0.084100(9)
Mo5* Mo 0.39796(1) -0.292310(13) -0.032280(9)
O8* O 0.22216(8) 0.70067(10) -0.08905(7)
O12* O 0.18421(8) 0.80510(11) -0.02289(8)
O16* O 0.30642(8) 0.78602(10) -0.01465(8)
#END
