
#######################################################################
#
#                 Cambridge Crystallographic Data Centre
#                                CCDC
#
#######################################################################
#
# If this CIF has been generated from an entry in the Cambridge
# Structural Database, then it will include bibliographic, chemical,
# crystal, experimental, refinement or atomic coordinate data resulting
# from the CCDC's data processing and validation procedures.
#
#######################################################################

data_CSD_CIF_LALJAL
_audit_creation_date 2011-03-21
_audit_creation_method CSD-ConQuest-V1
_database_code_CSD LALJAL
_database_code_depnum_ccdc_archive 'CCDC 749908'
_chemical_formula_sum 'C4 H31 Mo3 N4 O20 P2'
_chemical_formula_moiety
;
(C4 H9 Mo3 N1 O15 P2 3-)n,3n(H4 N1 1+),5n(H2 O1)
;
_journal_coden_Cambridge 1350
_journal_volume 12
_journal_year 2010
_journal_page_first 4017
_journal_name_full 'CrystEngComm '
loop_
_publ_author_name
"Hua-Qiao Tan"
"Wei-Lin Chen"
"Ding Liu"
"Yang-Guang Li"
"En-Bo Wang"
_chemical_name_systematic
;
catena-(tris(Ammonium) 
(\m~3~-4-ammoniobutane-1-olato-1,1-diphosphonato)-tris(\m~2~-oxo)-pentaoxo-mol
ybdenum(v)-di-molybdenum(vi) pentahydrate)
;
_cell_volume   2426.120
_exptl_crystal_colour 'red'
_exptl_crystal_density_diffrn 2.204
_exptl_crystal_description 'block'
_diffrn_ambient_temperature 293
_refine_special_details
;
An ammonium cation is disordered equally over two sites. A water molecule is 
also equally disordered over two sites.
;
#These two values have been output from a single CSD field.
_refine_ls_R_factor_gt 0.0459
_refine_ls_wR_factor_gt 0.0459
loop_
_citation_database_id_CSD
_citation_special_details
LALJEP "is a stereoisomer of this entry"
_symmetry_cell_setting orthorhombic
_symmetry_space_group_name_H-M 'P 21 21 2'
_symmetry_Int_Tables_number 18
loop_
_symmetry_equiv_pos_site_id
_symmetry_equiv_pos_as_xyz
1 x,y,z
2 -x,-y,z
3 1/2-x,1/2+y,-z
4 1/2+x,1/2-y,-z
_cell_length_a 14.626(3)
_cell_length_b 17.129(3)
_cell_length_c 9.6840(19)
_cell_angle_alpha 90
_cell_angle_beta 90
_cell_angle_gamma 90
_cell_formula_units_Z 4
loop_
_atom_type_symbol
_atom_type_radius_bond
C 0.68
H 0.23
Mo 1.07
N 0.68
O 0.89
P 0.99
loop_
_atom_site_label
_atom_site_type_symbol
_atom_site_fract_x
_atom_site_fract_y
_atom_site_fract_z
Mo1 Mo 0.38297(4) 0.90927(3) -0.39667(6)
Mo2 Mo 0.43177(4) 0.95297(3) -0.01551(6)
Mo3 Mo 0.20842(5) 0.79598(4) -0.38671(8)
P1 P 0.34584(12) 0.78058(10) -0.1195(2)
P2 P 0.21918(12) 0.92025(10) -0.1321(2)
O1 O 0.4384(3) 1.0653(3) -0.0387(5)
O2 O 0.4162(3) 0.9432(3) 0.1571(5)
O3 O 0.1234(3) 0.9483(3) -0.1076(6)
O4 O 0.4134(3) 0.8305(3) -0.0376(5)
O5 O 0.4247(3) 0.9430(3) -0.2363(5)
O6 O 0.3560(4) 0.6961(3) -0.0869(6)
O7 O 0.1749(4) 0.7785(3) -0.1918(6)
O8 O 0.4785(4) 0.8667(3) -0.4702(6)
O9 O 0.3514(4) 0.7941(3) -0.2782(6)
O10 O 0.3658(4) 0.9943(3) -0.4883(6)
O11 O 0.2410(3) 0.9185(3) -0.2888(6)
O12 O 0.2902(3) 0.9677(3) -0.0501(5)
O13 O 0.2906(4) 0.8460(3) -0.5053(6)
O14 O 0.2160(5) 0.7007(4) -0.4403(7)
C1 C 0.2307(5) 0.8163(4) -0.0873(8)
C2 C 0.1273(6) 0.7089(5) 0.2326(8)
H1 H 0.14760 0.74410 0.30480
H2 H 0.06510 0.72280 0.20840
C3 C 0.1883(5) 0.7184(4) 0.1068(8)
H3 H 0.24990 0.70180 0.12950
H4 H 0.16600 0.68550 0.03270
O15 O 0.1045(4) 0.8249(5) -0.4484(7)
C4 C 0.1903(5) 0.8020(4) 0.0589(8)
H5 H 0.22550 0.83220 0.12480
H6 H 0.12830 0.82200 0.06040
N1 N 0.1290(5) 0.6292(4) 0.2843(7)
H7 H 0.09290 0.62540 0.35790
H8 H 0.18590 0.61650 0.30780
H9 H 0.10930 0.59690 0.21880
N2 N 0.2569(4) 0.5698(4) -0.1597(7)
H10 H 0.305(3) 0.608(3) -0.145(7)
H11 H 0.248(4) 0.541(3) -0.075(4)
H12 H 0.272(4) 0.536(3) -0.233(5)
H13 H 0.201(3) 0.598(3) -0.180(7)
O16 O 0.4103(5) 1.0973(4) -0.7054(7)
H14 H 0.435(6) 1.134(4) -0.66(1)
H15 H 0.357(3) 1.108(6) -0.733(11)
O17 O 0.3101(6) 0.5821(5) 0.3693(10)
H16 H 0.356(5) 0.550(6) 0.376(14)
H17 H 0.267(6) 0.565(7) 0.423(12)
O18 O 0.1820(7) 0.9690(7) -0.6405(14)
H18 H 0.154(8) 0.925(4) -0.65(2)
H19 H 0.240(2) 0.960(8) -0.63(2)
O19 O 0.4969(12) 0.7489(10) 0.1642(18)
N3 N 0.4216(9) 0.6740(7) -0.4502(14)
O20 O 0.0438(11) 0.9413(9) -0.5549(17)
N4 N 0.4525(9) 0.6327(8) 0.1530(14)
N5? N 0.4672(11) 0.5711(9) -0.0312(17)
O21? O -0.0001(10) 0.9487(9) -0.6818(16)
Mo2A Mo 0.56823(4) 1.04703(3) -0.01551(6)
O1A O 0.5616(3) 0.9347(3) -0.0387(5)
#END
