
#######################################################################
#
#                 Cambridge Crystallographic Data Centre
#                                CCDC
#
#######################################################################
#
# If this CIF has been generated from an entry in the Cambridge
# Structural Database, then it will include bibliographic, chemical,
# crystal, experimental, refinement or atomic coordinate data resulting
# from the CCDC's data processing and validation procedures.
#
#######################################################################

data_CSD_CIF_LALZUU
_audit_creation_date 2005-08-24
_audit_creation_method CSD-ConQuest-V1
_database_code_CSD LALZUU
_database_code_depnum_ccdc_archive 'CCDC 198391'
_chemical_formula_sum 'C6 H56.96 Al1 Na7 O42.48 P6'
_chemical_formula_moiety
;
(C6 H24 Al1 Na7 O31 P6 10-)n,10n(H3 O1 1+),1.48n(H2 O1)
;
_journal_coden_Cambridge 229
_journal_volume 264
_journal_year 2004
_journal_page_first 400
_journal_name_full 'J.Cryst.Growth '
loop_
_publ_author_name
"Zongbin Wu"
"Zhongmin Liu"
"Peng Tian"
"Yue Yang"
"Lei Xu"
"Haibin Song"
"Xinhe Bao"
"Xiumei Liu"
"Xianchun Liu"
_chemical_name_systematic
;
catena-[Decaoxonium tris(\m~7~-dihydrogen 
1-hydroxyethylidenediphosphonato)-heptakis(\m~2~-oxo)-triaqua-aluminium-hepta-
sodium hydrate]
;
_cell_volume   2435.394
_exptl_crystal_density_diffrn 1.613
_exptl_special_details
;
isostructural with the 2.5 hydrate, the 1.57 hydrate and the dioxonium 
nona-sodium-octa-aqua-1.75 hydrate
formulation not given in paper- authors state there are protonated water 
molecules which balance the charge on the aluminodiphosphonate framework. We 
have input 10 oxonium ions and given the framework a charge of 10-, adding 2 
protons each to the diphosphonate ligands. No reply from authors
;
_diffrn_ambient_temperature 293
#These two values have been output from a single CSD field.
_refine_ls_R_factor_gt 0.0652
_refine_ls_wR_factor_gt 0.0652
_symmetry_cell_setting hexagonal
_symmetry_space_group_name_H-M 'P -3'
_symmetry_Int_Tables_number 147
loop_
_symmetry_equiv_pos_site_id
_symmetry_equiv_pos_as_xyz
1 x,y,z
2 -y,x-y,z
3 -x+y,-x,z
4 -x,-y,-z
5 y,-x+y,-z
6 x-y,x,-z
_cell_length_a 17.853(4)
_cell_length_b 17.853(4)
_cell_length_c 8.823(4)
_cell_angle_alpha 90
_cell_angle_beta 90
_cell_angle_gamma 120
_cell_formula_units_Z 2
loop_
_atom_type_symbol
_atom_type_radius_bond
C 0.68
H 0.23
Al 1.35
Na 1.50
O 0.90
P 0.90
loop_
_atom_site_label
_atom_site_type_symbol
_atom_site_fract_x
_atom_site_fract_y
_atom_site_fract_z
Al1 Al 0.33330 0.66670 1.0065(3)
P1 P 0.52894(9) 0.77796(8) 0.88074(15)
P2 P 0.49018(9) 0.65039(9) 1.13739(14)
Na1 Na 0.33330 0.66670 0.6519(4)
Na2 Na 0.44580(13) 0.58017(15) 0.7785(2)
Na3 Na 0.57106(14) 0.95873(14) 1.0614(2)
C1 C 0.6534(3) 0.7969(4) 1.0968(7)
H1 H 0.68610 0.85260 1.04990
H2 H 0.66770 0.75710 1.05020
H3 H 0.66700 0.80160 1.20290
C2 C 0.5555(3) 0.7635(3) 1.0765(5)
O1 O 0.5617(2) 0.7344(2) 0.7748(4)
O2 O 0.4295(2) 0.7293(2) 0.8737(4)
O3 O 0.5639(2) 0.8732(2) 0.8526(4)
O4 O 0.5029(2) 0.5926(2) 1.0294(4)
O5 O 0.3966(2) 0.6338(2) 1.1327(4)
O6 O 0.5140(2) 0.6438(2) 1.2995(4)
O7 O 0.5361(2) 0.8172(2) 1.1760(4)
O8 O 0.3861(3) 0.5836(3) 0.5343(4)
O9 O 0.5447(3) 0.5366(2) 0.6792(4)
O10 O 0.7143(3) 1.0122(3) 1.2087(5)
O11 O 0.3488(3) 0.3709(3) 0.5935(6)
O12 O 0.2224(3) 0.4372(3) 0.4931(5)
O13 O 0.6551(4) 0.9118(3) 0.3939(5)
O14 O 0.1453(8) 0.1350(9) 0.104(2)
O15 O 0.7726(12) 0.8861(16) 0.448(2)
O16 O 0.7602(16) 0.9364(16) 0.750(3)
P1A P 0.22204(9) 0.75098(8) 0.88074(15)
P1B P 0.24902(9) 0.47106(8) 0.88074(15)
P2A P 0.34961(9) 0.83979(9) 1.13739(14)
P2B P 0.16021(9) 0.50982(9) 1.13739(14)
Na2A Na 0.41983(13) 0.86563(15) 0.7785(2)
Na2B Na 0.13437(13) 0.55420(15) 0.7785(2)
Na2D Na 0.58017(13) 1.13437(15) 1.2215(2)
Na2E Na -0.13437(13) 0.44580(15) 1.2215(2)
Na2C Na 0.55420(13) 0.41983(15) 1.2215(2)
Na3A Na 0.04127(14) 0.61233(14) 1.0614(2)
Na3B Na 0.38767(14) 0.42894(14) 1.0614(2)
Na3E Na 0.61233(14) 0.57106(14) 0.9386(2)
Na3C Na 0.42894(14) 1.04127(14) 0.9386(2)
Na3D Na -0.04127(14) 0.38767(14) 0.9386(2)
C1A C 0.2031(3) 0.8565(4) 1.0968(7)
C1B C 0.1435(3) 0.3466(4) 1.0968(7)
H1A H 0.14740 0.83350 1.04990
H1B H 0.16650 0.31390 1.04990
H2A H 0.24290 0.91060 1.05020
H2B H 0.08940 0.33230 1.05020
H3A H 0.19840 0.86540 1.20290
H3B H 0.13460 0.33300 1.20290
C2A C 0.2365(3) 0.7920(3) 1.0765(5)
C2B C 0.2080(3) 0.4445(3) 1.0765(5)
O1A O 0.2656(2) 0.8273(2) 0.7748(4)
O1B O 0.1727(2) 0.4383(2) 0.7748(4)
O2A O 0.2707(2) 0.7002(2) 0.8737(4)
O2B O 0.2998(2) 0.5705(2) 0.8737(4)
O3A O 0.1268(2) 0.6907(2) 0.8526(4)
O3B O 0.3093(2) 0.4361(2) 0.8526(4)
O4A O 0.4074(2) 0.9103(2) 1.0294(4)
O4B O 0.0897(2) 0.4971(2) 1.0294(4)
O4D O 0.5926(2) 1.0897(2) 0.9706(4)
O4E O -0.0897(2) 0.5029(2) 0.9706(4)
O4C O 0.4971(2) 0.4074(2) 0.9706(4)
O5A O 0.3662(2) 0.7628(2) 1.1327(4)
O5B O 0.2372(2) 0.6034(2) 1.1327(4)
O6A O 0.3562(2) 0.8702(2) 1.2995(4)
O6B O 0.1298(2) 0.4860(2) 1.2995(4)
O7A O 0.1828(2) 0.7189(2) 1.1760(4)
O7B O 0.2811(2) 0.4639(2) 1.1760(4)
O8A O 0.4164(3) 0.8025(3) 0.5343(4)
O8B O 0.1975(3) 0.6139(3) 0.5343(4)
O9D O 0.5366(3) 0.9919(2) 1.3208(4)
O9A O 0.4634(3) 1.0081(2) 0.6792(4)
O9B O -0.0081(3) 0.4553(2) 0.6792(4)
O9E O 0.0081(3) 0.5447(2) 1.3208(4)
O9C O 0.4553(3) 0.4634(2) 1.3208(4)
O10A O -0.0122(3) 0.7021(3) 1.2087(5)
O10B O 0.2979(3) 0.2857(3) 1.2087(5)
#END
