
#######################################################################
#
#                 Cambridge Crystallographic Data Centre
#                                CCDC
#
#######################################################################
#
# If this CIF has been generated from an entry in the Cambridge
# Structural Database, then it will include bibliographic, chemical,
# crystal, experimental, refinement or atomic coordinate data resulting
# from the CCDC's data processing and validation procedures.
#
#######################################################################

data_CSD_CIF_LAPLOG01
_audit_creation_date 2017-04-03
_audit_creation_method CSD-ConQuest-V1
_database_code_CSD LAPLOG01
_database_code_depnum_ccdc_archive 'CCDC 1524327'
_chemical_formula_sum 'C21 H27 In1 N4 O10'
_chemical_formula_moiety
;
(C16 H10 In1 N2 O8 1-)n,C2 H8 N1 1+,x(C3 H7 N1 O1),x(H2 O1)
;
_journal_coden_Cambridge 1441
_journal_volume 9
_journal_year 2017
_journal_page_first 882
_journal_name_full 'Nature Chemistry '
loop_
_publ_author_name
"E.J.Carrington"
"C.A.McAnally"
"A.J.Fletcher"
"S.P.Thompson"
"M.Warren"
"L.Brammer"
_chemical_name_systematic
;
catena-[dimethylammonium bis(2-aminobenzene-1,4-dicarboxylato)-indium(iii) 
N,N-dimethylformamide solvate hydrate]
;
_chemical_name_common
;
SHF-61-DMF
;
_cell_volume  12903.725
_exptl_crystal_colour 'brown'
_exptl_special_details
;
Solvent molecules contained in MOF pores are not included in the reported 
chemical formula. See original publication for details
;
_exptl_crystal_description 'octahedral'
_diffrn_ambient_temperature 100
_refine_special_details
;
C11,H11A,H11B,H11C,H2BA,H2BB,N2B disordered over two configurations with 
occupancies 0.5,0.5,0.5,0.5,0.25,0.25,0.5; C3B,C4B,C6B,C7B,N1B and 
C3A,C4A,C6A,C7A,N1A disordered over two sites with occupancies 0.51:0.49.
;
#These two values have been output from a single CSD field.
_refine_ls_R_factor_gt 0.0523
_refine_ls_wR_factor_gt 0.0523
_symmetry_cell_setting orthorhombic
_symmetry_space_group_name_H-M 'F d d d'
_symmetry_Int_Tables_number 70
loop_
_symmetry_equiv_pos_site_id
_symmetry_equiv_pos_as_xyz
1 x,y,z
2 1/4-x,1/4-y,z
3 x,1/4-y,1/4-z
4 1/4-x,y,1/4-z
5 x,1/2+y,1/2+z
6 1/4-x,3/4-y,1/2+z
7 x,3/4-y,3/4-z
8 1/4-x,1/2+y,3/4-z
9 1/2+x,y,1/2+z
10 3/4-x,1/4-y,1/2+z
11 1/2+x,1/4-y,3/4-z
12 3/4-x,y,3/4-z
13 1/2+x,1/2+y,z
14 3/4-x,3/4-y,z
15 1/2+x,3/4-y,1/4-z
16 3/4-x,1/2+y,1/4-z
17 -x,-y,-z
18 -1/4+x,-1/4+y,-z
19 -x,-1/4+y,-1/4+z
20 -1/4+x,-y,-1/4+z
21 -x,-1/2-y,-1/2-z
22 -1/4+x,-3/4+y,-1/2-z
23 -x,-3/4+y,-3/4+z
24 -1/4+x,-1/2-y,-3/4+z
25 -1/2-x,-y,-1/2-z
26 -3/4+x,-1/4+y,-1/2-z
27 -1/2-x,-1/4+y,-3/4+z
28 -3/4+x,-y,-3/4+z
29 -1/2-x,-1/2-y,-z
30 -3/4+x,-3/4+y,-z
31 -1/2-x,-3/4+y,-1/4+z
32 -3/4+x,-1/2-y,-1/4+z
_cell_length_a 15.3069(5)
_cell_length_b 26.9467(8)
_cell_length_c 31.284(1)
_cell_angle_alpha 90
_cell_angle_beta 90
_cell_angle_gamma 90
_cell_formula_units_Z 16
loop_
_atom_type_symbol
_atom_type_radius_bond
C 0.68
H 0.23
In 1.42
N 0.68
O 0.68
loop_
_atom_site_label
_atom_site_type_symbol
_atom_site_fract_x
_atom_site_fract_y
_atom_site_fract_z
In1 In 0.37500 0.37500 0.06570(2)
O1 O 0.3963(2) 0.43611(16) 0.01764(12)
O2 O 0.2628(2) 0.41161(13) 0.02976(11)
O3 O 0.1040(2) 0.56777(14) -0.13221(12)
O4 O 0.2383(2) 0.58756(12) -0.14851(10)
C1 C 0.3151(3) 0.43843(19) 0.00915(15)
C2 C 0.2832(3) 0.4720(2) -0.02515(16)
C3 C 0.2179(3) 0.5320(2) -0.09026(16)
C4 C 0.1851(3) 0.56419(18) -0.12562(13)
N1 N 0.4211(9) 0.5206(6) -0.0295(5)
H1 H 0.44250 0.49420 -0.01620
H2 H 0.45450 0.52720 -0.05190
C5 C 0.3369(7) 0.5111(5) -0.0425(4)
C6 C 0.1976(8) 0.4634(5) -0.0412(4)
H3 H 0.16390 0.43700 -0.02970
C7 C 0.3017(7) 0.5410(5) -0.0751(4)
H4 H 0.33530 0.56740 -0.08680
C8 C 0.1619(8) 0.4929(5) -0.0736(4)
H5 H 0.10440 0.48760 -0.08400
N2? N 0.4324(10) 0.5001(7) -0.0458(6)
H6? H 0.44970 0.47780 -0.02690
H7? H 0.46090 0.49530 -0.07000
C9? C 0.3411(8) 0.4982(5) -0.0506(4)
C10? C 0.3061(8) 0.5279(6) -0.0831(4)
H8? H 0.34500 0.54600 -0.10090
C11? C 0.1600(8) 0.5054(5) -0.0651(4)
H9? H 0.09880 0.50750 -0.06960
C12? C 0.1948(7) 0.4753(5) -0.0324(4)
H10? H 0.15610 0.45670 -0.01500
N3 N 0.3158(18) 0.5392(11) 0.0796(10)
H11 H 0.34110 0.51010 0.07150
H12 H 0.34010 0.54810 0.10500
C13 C 0.339(4) 0.577(2) 0.048(2)
H13 H 0.40240 0.58010 0.04580
H14 H 0.31510 0.56770 0.01980
H15 H 0.31390 0.60920 0.05640
C14 C 0.225(2) 0.5300(15) 0.0867(13)
H16 H 0.21790 0.50410 0.10840
H17 H 0.19640 0.56060 0.09650
H18 H 0.19760 0.51900 0.05990
N4 N 0.12500 0.4623(13) 0.12500
H19 H 0.08160 0.48240 0.13460
C15 C 0.0918(14) 0.4371(7) 0.0890(6)
H20 H 0.07220 0.46140 0.06770
H21 H 0.13770 0.41630 0.07660
H22 H 0.04240 0.41630 0.09770
H23? H 0.08150 0.48240 0.13460
O1M O 0.3537(2) 0.31389(16) 0.01764(12)
O2M O 0.4872(2) 0.33839(13) 0.02976(11)
O3M O 0.6460(2) 0.18223(14) -0.13221(12)
O4M O 0.5117(2) 0.16244(12) -0.14851(10)
C1M C 0.4349(3) 0.31157(19) 0.00915(15)
C2M C 0.4668(3) 0.2780(2) -0.02515(16)
C3M C 0.5321(3) 0.2180(2) -0.09026(16)
C4M C 0.5649(3) 0.18581(18) -0.12562(13)
N1M N 0.3289(9) 0.2294(6) -0.0295(5)
H1M H 0.30750 0.25580 -0.01620
H2M H 0.29550 0.22280 -0.05190
C5M C 0.4131(7) 0.2389(5) -0.0425(4)
C6M C 0.5524(8) 0.2866(5) -0.0412(4)
H3M H 0.58610 0.31300 -0.02970
C7M C 0.4483(7) 0.2090(5) -0.0751(4)
H4M H 0.41470 0.18260 -0.08680
C8M C 0.5881(8) 0.2571(5) -0.0736(4)
H5M H 0.64560 0.26240 -0.08400
In1R In 0.62500 0.12500 -0.18430(2)
In1S In 0.12500 0.62500 -0.18430(2)
O3Z O 0.3960(2) 0.31777(14) 0.11779(12)
O3AA O 0.3540(2) 0.43223(14) 0.11779(12)
O4Z O 0.2617(2) 0.33756(12) 0.10149(10)
O4AA O 0.4883(2) 0.41244(12) 0.10149(10)
H19C H 0.16840 0.48240 0.11540
C15C C 0.1582(14) 0.4371(7) 0.1610(6)
H20C H 0.17780 0.46140 0.18230
H21C H 0.11230 0.41630 0.17340
H22C H 0.20760 0.41630 0.15230
#END
