
#######################################################################
#
#                 Cambridge Crystallographic Data Centre
#                                CCDC
#
#######################################################################
#
# If this CIF has been generated from an entry in the Cambridge
# Structural Database, then it will include bibliographic, chemical,
# crystal, experimental, refinement or atomic coordinate data resulting
# from the CCDC's data processing and validation procedures.
#
#######################################################################

data_CSD_CIF_LAPNAR
_audit_creation_date 1994-02-10
_audit_creation_method CSD-ConQuest-V1
_database_code_CSD LAPNAR
_database_code_depnum_ccdc_archive 'CCDC 1203542'
_chemical_formula_sum 'C12 H36 Cl2 Fe2 Li8 O42'
_chemical_formula_moiety
;
(H8 Li1 O4 1+)3n,n(C12 H12 Fe2 Li5 O30 1-),2n(Cl1 1-)
;
_journal_coden_Cambridge 580
_journal_volume 12
_journal_year 1993
_journal_page_first 1031
_journal_name_full 'Polyhedron '
loop_
_publ_author_name
"J.P.Declercq"
"J.Feneau-Dupont"
"J.Ladriere"
_chemical_name_systematic
;
catena-(tris(Tetraaqua-lithium) hexakis(\m~3~-oxalato)-di-iron-penta-lithium 
dichloride)
;
_cell_volume   2073.043
_exptl_crystal_density_diffrn 1.747
_diffrn_ambient_temperature ?
_diffrn_special_details
;
The study was carried out at room temperature,in the range 283-303K

;
#These two values have been output from a single CSD field.
_refine_ls_R_factor_gt 0.046
_refine_ls_wR_factor_gt 0.046
_symmetry_cell_setting hexagonal
_symmetry_space_group_name_H-M 'P -6 c 2'
_symmetry_Int_Tables_number 188
loop_
_symmetry_equiv_pos_site_id
_symmetry_equiv_pos_as_xyz
1 x,y,z
2 -y,x-y,z
3 -x+y,-x,z
4 x,y,1/2-z
5 -y,x-y,1/2-z
6 -x+y,-x,1/2-z
7 -y,-x,1/2+z
8 -x+y,y,1/2+z
9 x,x-y,1/2+z
10 -y,-x,-z
11 -x+y,y,-z
12 x,x-y,-z
_cell_length_a 9.465(5)
_cell_length_b 9.465(5)
_cell_length_c 26.72(2)
_cell_angle_alpha 90
_cell_angle_beta 90
_cell_angle_gamma 120
_cell_formula_units_Z 2
loop_
_atom_type_symbol
_atom_type_radius_bond
C 0.68
Cl 0.99
Fe 1.34
Li 1.13
O 0.68
loop_
_atom_site_label
_atom_site_type_symbol
_atom_site_fract_x
_atom_site_fract_y
_atom_site_fract_z
Fe1 Fe 0.33333 0.66667 0.10023(2)
C1 C 0.1225(4) 0.3371(4) 0.0753(1)
C2 C 0.2024(4) 0.3348(4) 0.1259(1)
O1 O 0.1658(2) 0.4797(2) 0.0583(1)
O2 O 0.0226(3) 0.2037(3) 0.0559(1)
O3 O 0.1681(4) 0.2042(3) 0.1443(1)
O4 O 0.3028(3) 0.4770(3) 0.1428(1)
Li1 Li 0.00000 0.00000 0.1011(3)
Li2 Li -0.1376(6) 0.1376(6) 0.00000
O5 O -0.3355(4) 0.0741(4) 0.0383(1)
Li3 Li -0.0236(10) 0.3379(10) 0.25000
O6 O -0.1275(6) 0.2686(5) 0.1850(2)
O7 O 0.0971(7) 0.2225(7) 0.25000
O8 O 0.1033(7) 0.5688(6) 0.25000
Cl1 Cl -0.33330 0.33330 0.1100(1)
C1A C 0.6629(4) 0.7854(4) 0.0753(1)
C2A C 0.6652(4) 0.8676(4) 0.1259(1)
O1A O 0.5203(2) 0.6861(2) 0.0583(1)
O2A O 0.7963(3) 0.8189(3) 0.0559(1)
O3A O 0.7958(4) 0.9639(3) 0.1443(1)
O4A O 0.5230(3) 0.8258(3) 0.1428(1)
C1B C 0.2146(4) 0.8775(4) 0.0753(1)
C2B C 0.1324(4) 0.7976(4) 0.1259(1)
O1B O 0.3139(2) 0.8342(2) 0.0583(1)
O2B O 0.1811(3) 0.9774(3) 0.0559(1)
O3B O 0.0361(4) 0.8319(3) 0.1443(1)
O4B O 0.1742(3) 0.6972(3) 0.1428(1)
Li1A Li 1.00000 1.00000 0.1011(3)
Li2A Li 0.8624(6) 0.7248(6) 0.00000
Li2B Li 0.2752(6) 1.1376(6) 0.00000
C1A* C -0.3371(4) -0.2146(4) 0.0753(1)
C2A* C -0.3348(4) -0.1324(4) 0.1259(1)
O1A* O -0.4797(2) -0.3139(2) 0.0583(1)
O2A* O -0.2037(3) -0.1811(3) 0.0559(1)
O3A* O -0.2042(4) -0.0361(3) 0.1443(1)
O4A* O -0.4770(3) -0.1742(3) 0.1428(1)
C1B* C 0.2146(4) -0.1225(4) 0.0753(1)
C2B* C 0.1324(4) -0.2024(4) 0.1259(1)
O1B* O 0.3139(2) -0.1658(2) 0.0583(1)
O2B* O 0.1811(3) -0.0226(3) 0.0559(1)
O3B* O 0.0361(4) -0.1681(3) 0.1443(1)
O4B* O 0.1742(3) -0.3028(3) 0.1428(1)
C1I C -0.3371(4) -0.1225(4) -0.0753(1)
C2I C -0.3348(4) -0.2024(4) -0.1259(1)
O1I O -0.4797(2) -0.1658(2) -0.0583(1)
O2I O -0.2037(3) -0.0226(3) -0.0559(1)
O3I O -0.2042(4) -0.1681(3) -0.1443(1)
O4I O -0.4770(3) -0.3028(3) -0.1428(1)
O5I O -0.0741(4) 0.3355(4) -0.0383(1)
O5A O 0.9259(4) 0.5904(4) 0.0383(1)
O5K O 0.6645(4) 0.5904(4) -0.0383(1)
O5B O 0.4096(4) 1.3355(4) 0.0383(1)
O5J O 0.4096(4) 1.0741(4) -0.0383(1)
Fe1A Fe -0.66667 -0.33334 0.10023(2)
Li1* Li 0.00000 1.00000 0.1011(3)
O2* O 1.0226(3) 1.2037(3) 0.0559(1)
O2B** O 1.1811(3) 0.9774(3) 0.0559(1)
O3* O 1.1681(4) 1.2042(3) 0.1443(1)
O3B** O 1.0361(4) 0.8319(3) 0.1443(1)
O2K O 1.0226(3) 0.8189(3) -0.0559(1)
O2J O 0.1811(3) 1.2037(3) -0.0559(1)
Li2A* Li -0.1376(6) -0.2752(6) 0.00000
Fe1* Fe 0.33333 -0.33333 0.10023(2)
Li2B* Li 0.2752(6) 0.1376(6) 0.00000
Fe1I Fe -0.66667 -0.33333 -0.10023(2)
Li1I Li 0.00000 0.00000 -0.1011(3)
O1* O -0.8342(2) -0.5203(2) 0.0583(1)
O1B** O -0.6861(2) -0.1658(2) 0.0583(1)
O4* O -0.6972(3) -0.5230(3) 0.1428(1)
O4B** O -0.8258(3) -0.3028(3) 0.1428(1)
O6C O -0.1275(6) 0.2686(5) 0.3150(2)
#END
