
#######################################################################
#
#                 Cambridge Crystallographic Data Centre
#                                CCDC
#
#######################################################################
#
# If this CIF has been generated from an entry in the Cambridge
# Structural Database, then it will include bibliographic, chemical,
# crystal, experimental, refinement or atomic coordinate data resulting
# from the CCDC's data processing and validation procedures.
#
#######################################################################

data_CSD_CIF_LAPNIC
_audit_creation_date 2017-04-03
_audit_creation_method CSD-ConQuest-V1
_database_code_CSD LAPNIC
_database_code_depnum_ccdc_archive 'CCDC 1524340'
_chemical_formula_sum 'C19 H21 Cl3 In1 N3 O9'
_chemical_formula_moiety
;
(C16 H10 In1 N2 O8 1-)n,C2 H8 N1 1+,H2 O1,x(C1 H1 Cl3)
;
_journal_coden_Cambridge 1441
_journal_volume 9
_journal_year 2017
_journal_page_first 882
_journal_name_full 'Nature Chemistry '
loop_
_publ_author_name
"E.J.Carrington"
"C.A.McAnally"
"A.J.Fletcher"
"S.P.Thompson"
"M.Warren"
"L.Brammer"
_chemical_name_systematic
;
catena-[dimethylammonium bis(2-aminobenzene-1,4-dicarboxylato)-indium(iii) 
chloroform solvate monohydrate]
;
_chemical_name_common
;
SHF-61-CHCl3
;
_cell_volume  13072.609
_exptl_crystal_colour 'brown'
_exptl_crystal_density_diffrn 1.088
_exptl_special_details
;
Glued to Glass fibre put of CHCl3
Solvent molecules contained in MOF pores are not included in the reported 
chemical formula. See original publication for details
;
_exptl_crystal_description 'octahedral'
_exptl_crystal_preparation 'solvothermal from N,N-dimethylformamide/chloroform'
_diffrn_ambient_temperature 298
_refine_special_details
;
C3A,C4A,C6A,C7A,N1A,O5 and C3B,C4B,C6B,C7B,N1B,O6 disordered over two sites 
with occupancies 0.54,0.54,0.54,0.54,0.54,0.25:0.46,0.46,0.46,0.46,0.46,0.25; 
C9,H2A,H2B,H9A,H9B,H9C,N2 disordered over two configurations with occupancies 
0.5,0.25,0.25,0.5,0.5,0.5,0.5.
;
#These two values have been output from a single CSD field.
_refine_ls_R_factor_gt 0.089
_refine_ls_wR_factor_gt 0.089
_symmetry_cell_setting orthorhombic
_symmetry_space_group_name_H-M 'F d d d'
_symmetry_Int_Tables_number 70
loop_
_symmetry_equiv_pos_site_id
_symmetry_equiv_pos_as_xyz
1 x,y,z
2 1/4-x,1/4-y,z
3 x,1/4-y,1/4-z
4 1/4-x,y,1/4-z
5 x,1/2+y,1/2+z
6 1/4-x,3/4-y,1/2+z
7 x,3/4-y,3/4-z
8 1/4-x,1/2+y,3/4-z
9 1/2+x,y,1/2+z
10 3/4-x,1/4-y,1/2+z
11 1/2+x,1/4-y,3/4-z
12 3/4-x,y,3/4-z
13 1/2+x,1/2+y,z
14 3/4-x,3/4-y,z
15 1/2+x,3/4-y,1/4-z
16 3/4-x,1/2+y,1/4-z
17 -x,-y,-z
18 -1/4+x,-1/4+y,-z
19 -x,-1/4+y,-1/4+z
20 -1/4+x,-y,-1/4+z
21 -x,-1/2-y,-1/2-z
22 -1/4+x,-3/4+y,-1/2-z
23 -x,-3/4+y,-3/4+z
24 -1/4+x,-1/2-y,-3/4+z
25 -1/2-x,-y,-1/2-z
26 -3/4+x,-1/4+y,-1/2-z
27 -1/2-x,-1/4+y,-3/4+z
28 -3/4+x,-y,-3/4+z
29 -1/2-x,-1/2-y,-z
30 -3/4+x,-3/4+y,-z
31 -1/2-x,-3/4+y,-1/4+z
32 -3/4+x,-1/2-y,-1/4+z
_cell_length_a 15.4336(7)
_cell_length_b 27.6137(12)
_cell_length_c 30.6740(14)
_cell_angle_alpha 90
_cell_angle_beta 90
_cell_angle_gamma 90
_cell_formula_units_Z 16
loop_
_atom_type_symbol
_atom_type_radius_bond
C 0.68
H 0.23
In 1.42
N 0.68
O 0.68
loop_
_atom_site_label
_atom_site_type_symbol
_atom_site_fract_x
_atom_site_fract_y
_atom_site_fract_z
In1 In 0.87500 0.37500 0.07418(2)
O1 O 0.8592(5) 0.4313(3) 0.1266(2)
O2 O 0.9917(5) 0.4102(3) 0.1105(2)
O3 O 1.0149(4) 0.5854(3) 0.2901(2)
O4 O 1.1486(4) 0.5677(3) 0.2740(2)
C1 C 0.9389(7) 0.4346(4) 0.1334(3)
C2 C 0.9725(6) 0.4666(3) 0.1688(2)
C3 C 1.0576(6) 0.4616(5) 0.1828(5)
H1 H 1.09280 0.43770 0.17080
C4 C 1.0902(5) 0.4923(5) 0.2148(5)
C5 C 1.0377(5) 0.5280(3) 0.2327(2)
C6 C 0.9525(6) 0.5330(5) 0.2187(5)
H2 H 0.91730 0.55690 0.23060
C7 C 0.9199(5) 0.5023(5) 0.1867(5)
H3 H 0.86290 0.50560 0.17730
C8 C 1.0685(6) 0.5616(4) 0.2675(3)
N1 N 1.179(2) 0.4864(13) 0.2280(12)
H4 H 1.21090 0.46430 0.21610
H5 H 1.20110 0.50490 0.24770
N2? N 1.1842(13) 0.5063(8) 0.2087(8)
H6? H 1.21670 0.49060 0.19090
H7? H 1.20700 0.52380 0.22890
C9? C 1.0592(12) 0.4752(8) 0.1725(7)
H8? H 1.09570 0.46130 0.15190
C10? C 1.0966(13) 0.5035(6) 0.2051(6)
C11? C 0.9491(11) 0.5205(7) 0.2277(6)
H9? H 0.91170 0.53640 0.24670
C12? C 0.9134(15) 0.4909(8) 0.1963(8)
H10? H 0.85380 0.48720 0.19340
O5? O 0.8870(18) 0.6513(11) 0.2313(11)
O6 O 0.8250(19) 0.5385(10) 0.0847(10)
N3 N 0.62500 0.4202(18) 0.12500
H11 H 0.66610 0.40050 0.11500
C13 C 0.586(2) 0.4387(13) 0.0844(9)
H12 H 0.56860 0.41190 0.06640
H13 H 0.53610 0.45800 0.09130
H14 H 0.62750 0.45800 0.06900
H15? H 0.66610 0.40050 0.11500
O1M O 0.8908(5) 0.3187(3) 0.1266(2)
O2M O 0.7583(5) 0.3398(3) 0.1105(2)
O3M O 0.7351(4) 0.1646(3) 0.2901(2)
O4M O 0.6014(4) 0.1823(3) 0.2740(2)
C1M C 0.8111(7) 0.3154(4) 0.1334(3)
C2M C 0.7775(6) 0.2834(3) 0.1688(2)
C3M C 0.6924(6) 0.2884(5) 0.1828(5)
H1M H 0.65720 0.31230 0.17080
C4M C 0.6598(5) 0.2577(5) 0.2148(5)
C5M C 0.7123(5) 0.2220(3) 0.2327(2)
C6M C 0.7975(6) 0.2170(5) 0.2187(5)
H2M H 0.83270 0.19310 0.23060
C7M C 0.8301(5) 0.2477(5) 0.1867(5)
H3M H 0.88710 0.24440 0.17730
C8M C 0.6815(6) 0.1884(4) 0.2675(3)
N1M N 0.571(2) 0.2636(13) 0.2280(12)
H4M H 0.53910 0.28570 0.21610
H5M H 0.54890 0.24510 0.24770
In1V In 1.12500 0.62500 0.32418(2)
In1W In 0.62500 0.12500 0.32418(2)
O3R O 0.9851(4) 0.3354(3) 0.0401(2)
O3S O 0.7649(4) 0.4146(3) 0.0401(2)
O4R O 0.8514(4) 0.3177(3) 0.0240(2)
O4S O 0.8986(4) 0.4323(3) 0.0240(2)
H11C H 0.58390 0.40050 0.13500
C13C C 0.664(2) 0.4387(13) 0.1656(9)
H12C H 0.68140 0.41190 0.18360
H13C H 0.71390 0.45800 0.15870
H14C H 0.62250 0.45800 0.18100
#END
