
#######################################################################
#
#                 Cambridge Crystallographic Data Centre
#                                CCDC
#
#######################################################################
#
# If this CIF has been generated from an entry in the Cambridge
# Structural Database, then it will include bibliographic, chemical,
# crystal, experimental, refinement or atomic coordinate data resulting
# from the CCDC's data processing and validation procedures.
#
#######################################################################

data_CSD_CIF_LAQREB
_audit_creation_date 2005-12-01
_audit_creation_method CSD-ConQuest-V1
_database_code_CSD LAQREB
_database_code_depnum_ccdc_archive 'CCDC 279377'
_chemical_formula_sum 'C40 H52 N8 Ni2 O47 Si1 W11'
_chemical_formula_moiety
;
(C30 H30 N6 Ni2 O41 Si1 W11 2-)n,n(C10 H10 N2 2+),6n(H2 O1)
;
_journal_coden_Cambridge 9
_journal_volume 44
_journal_year 2005
_journal_page_first 1190
_journal_name_full 'Inorg.Chem. '
loop_
_publ_author_name
"Pei-Qing Zheng"
"Yan-Ping Ren"
"La-Sheng Long"
"Rong-Bin Huang"
"Lan-Sun Zheng"
_chemical_name_systematic
;
catena((\m~12~-Silicato)-(\m~2~-4,4'-bipyridine)-pentacosakis(\m~2~-oxo)-bis(4
,4'-bipyridinium)-diaqua-decaoxo-di-nickel(ii)-undeca-tungsten) 
4,4'-bipyridinium clathrate hexahydrate
;
_cell_volume   6827.456
_exptl_crystal_colour 'pale green'
_exptl_crystal_density_diffrn 3.452
_exptl_crystal_description 'sheet'
_diffrn_ambient_temperature 273
#These two values have been output from a single CSD field.
_refine_ls_R_factor_gt 0.0527
_refine_ls_wR_factor_gt 0.0527
_symmetry_cell_setting monoclinic
_symmetry_space_group_name_H-M 'P 21/c'
_symmetry_Int_Tables_number 14
loop_
_symmetry_equiv_pos_site_id
_symmetry_equiv_pos_as_xyz
1 x,y,z
2 -x,1/2+y,1/2-z
3 -x,-y,-z
4 x,-1/2-y,-1/2+z
_cell_length_a 15.530(3)
_cell_length_b 15.127(3)
_cell_length_c 29.923(6)
_cell_angle_alpha 90
_cell_angle_beta 103.773(3)
_cell_angle_gamma 90
_cell_formula_units_Z 4
loop_
_atom_type_symbol
_atom_type_radius_bond
C 0.68
H 0.23
N 0.68
Ni 1.41
O 0.68
Si 1.20
W 1.37
loop_
_atom_site_label
_atom_site_type_symbol
_atom_site_fract_x
_atom_site_fract_y
_atom_site_fract_z
W1 W -0.36542(3) 1.36280(3) 0.289034(18)
W2 W -0.14090(3) 1.37592(3) 0.328130(18)
W3 W -0.23026(3) 1.22670(3) 0.248736(18)
W4 W -0.34158(3) 1.02887(3) 0.280148(18)
W5 W -0.40162(3) 1.33550(3) 0.403228(19)
W6 W -0.14001(4) 1.02577(4) 0.42868(2)
W7 W -0.02461(3) 1.20320(3) 0.407879(19)
W8 W -0.17947(3) 1.35602(3) 0.445370(18)
W9 W -0.28636(4) 1.17765(4) 0.472253(19)
W10 W -0.38493(3) 1.01134(3) 0.383775(19)
W11 W -0.09959(3) 1.05467(4) 0.325083(19)
Si1 Si -0.2566(2) 1.1929(2) 0.35993(11)
Ni1 Ni -0.17897(11) 1.19500(11) 0.13249(6)
Ni2 Ni -0.47556(9) 1.16835(9) 0.31793(5)
O1 O -0.2534(6) 0.9894(6) 0.4023(3)
O2 O -0.1848(7) 1.3323(7) 0.1237(4)
O3 O -0.0318(6) 1.0999(6) 0.4428(3)
O4 O -0.1300(7) 1.1736(7) 0.0752(3)
O5 O 0.1296(7) 0.9371(8) 0.3015(4)
O6 O -0.4614(6) 1.0829(6) 0.2680(3)
O7 O -0.0846(5) 1.2738(6) 0.4425(3)
O8 O -0.753(3) 1.4375(15) -0.0240(12)
O9 O -0.2216(6) 1.0102(6) 0.3027(3)
O10 O -0.0965(16) 1.423(2) 0.0651(7)
O11 O -0.1630(5) 1.1388(5) 0.3748(3)
O12 O 0.6151(17) 0.4609(13) 0.0807(10)
O13 O -0.2032(6) 1.2735(6) 0.4914(3)
O14 O 0.0698(7) 1.0857(8) -0.0329(5)
O15 O -0.2176(6) 1.2138(6) 0.1934(3)
O16 O -0.3783(6) 1.2636(6) 0.4578(3)
O17 O -0.2728(5) 1.2462(5) 0.4050(3)
O18 O -0.3713(6) 1.3881(6) 0.3498(3)
O19 O -0.0608(6) 1.2870(6) 0.3587(3)
O20 O -0.1445(5) 1.3186(6) 0.2700(3)
O21 O -0.1439(5) 1.1471(6) 0.2830(3)
O22 O -0.2497(5) 1.4287(6) 0.3018(3)
O23 O -0.3199(6) 1.3127(6) 0.2368(3)
O24 O -0.3137(6) 1.1365(5) 0.2503(3)
O25 O -0.2500(5) 1.2631(5) 0.3195(3)
O26 O -0.3372(5) 1.1235(5) 0.3411(3)
O27 O -0.1660(6) 1.3940(6) 0.3876(3)
O28 O -0.1028(7) 0.9421(7) 0.4687(4)
O29 O -0.0456(7) 0.9889(7) 0.2938(4)
O30 O -0.0698(7) 1.4615(7) 0.3259(4)
O31 O -0.2957(7) 1.1437(7) 0.5253(4)
O32 O -0.1891(6) 1.1067(6) 0.4662(3)
O33 O -0.2914(6) 1.4031(6) 0.4374(3)
O34 O -0.3656(6) 0.9589(6) 0.2341(3)
O35 O -0.0949(6) 0.9832(6) 0.3764(3)
O36 O -0.4896(6) 1.0617(6) 0.3569(3)
O37 O -0.1186(6) 1.4323(7) 0.4814(3)
O38 O -0.4314(6) 1.4449(6) 0.2570(4)
O39 O 0.0833(6) 1.2339(7) 0.4307(3)
O40 O -0.4388(5) 1.2701(6) 0.2838(3)
O41 O -0.3576(6) 1.0950(6) 0.4335(3)
O42 O -0.0066(6) 1.1228(6) 0.3578(3)
O43 O -0.3746(6) 0.9577(6) 0.3254(3)
O44 O -0.4675(6) 1.2528(6) 0.3690(3)
O45 O -0.4792(6) 1.4095(7) 0.4150(4)
O46 O -0.4182(7) 0.9196(6) 0.4096(4)
C1 C -0.6556(9) 1.1112(10) 0.2790(6)
H1 H -0.63140 1.05560 0.28740
C2 C -0.7428(11) 1.1176(11) 0.2561(7)
H2 H -0.77640 1.06650 0.24830
C3 C -0.7812(10) 1.199(1) 0.2443(5)
C4 C -0.7297(9) 1.2736(10) 0.2550(6)
H3 H -0.75360 1.32960 0.24750
C5 C -0.6402(9) 1.2628(9) 0.2773(5)
H4 H -0.60460 1.31280 0.28370
C6 C -0.9361(9) 1.1450(11) 0.2313(6)
H5 H -0.91780 1.10270 0.25410
C7 C -1.0236(10) 1.1475(11) 0.2063(5)
H6 H -1.06380 1.10860 0.21430
C8 C -0.9933(11) 1.2644(10) 0.1646(5)
H7 H -1.01320 1.30680 0.14210
C9 C -0.909(1) 1.2682(11) 0.1879(6)
H8 H -0.87240 1.31250 0.18140
C10 C -0.8752(9) 1.2067(10) 0.2220(5)
C11 C -0.1356(10) 0.9999(11) 0.1289(6)
H9 H -0.08620 1.02130 0.11980
C12 C -0.1487(10) 0.9094(10) 0.1276(5)
H10 H -0.10600 0.87150 0.12120
C13 C -0.2268(10) 0.8758(10) 0.1360(6)
C14 C -0.2822(11) 0.9360(11) 0.1503(6)
H11 H -0.33380 0.91670 0.15780
C15 C -0.2609(10) 1.0235(10) 0.1532(5)
H12 H -0.29840 1.06240 0.16360
C16 C -0.2545(12) 0.7832(10) 0.1278(6)
C17 C -0.1887(16) 0.7157(12) 0.1395(8)
C18 C -0.221(2) 0.6307(15) 0.1310(8)
H13 H -0.18190 0.58380 0.13930
C19 C -0.3664(14) 0.6725(12) 0.1026(8)
H14 H -0.42590 0.65850 0.09140
C20 C -0.3388(11) 0.7592(12) 0.1108(6)
H15 H -0.38150 0.80350 0.10400
C21 C -0.3422(10) 1.1319(10) 0.0614(6)
H16 H -0.30170 1.09320 0.05350
C22 C -0.4300(9) 1.1233(11) 0.0394(5)
H17 H -0.44820 1.07890 0.01770
C23 C -0.4909(9) 1.1815(9) 0.0499(5)
C24 C -0.4595(9) 1.2439(10) 0.0819(6)
H18 H -0.49790 1.28550 0.08950
C25 C -0.3695(9) 1.2460(9) 0.1038(5)
H19 H -0.34950 1.28760 0.12680
C26 C -0.5881(9) 1.1737(10) 0.0289(5)
C27 C -0.6288(9) 1.0905(10) 0.0261(6)
H20 H -0.59650 1.04020 0.03750
C28 C -0.7175(11) 1.0858(12) 0.0061(6)
H21 H -0.74530 1.03090 0.00310
C29 C -0.7292(10) 1.2377(11) -0.0060(6)
H22 H -0.76400 1.28700 -0.01650
C30 C -0.6386(9) 1.2456(10) 0.0134(6)
H23 H -0.61230 1.30120 0.01570
C31 C 0.0985(11) 0.2422(12) 0.0720(7)
H24 H 0.06830 0.29160 0.05770
C32 C 0.1889(11) 0.2498(11) 0.0899(7)
H25 H 0.21870 0.30160 0.08620
C33 C 0.2339(10) 0.1785(9) 0.1135(6)
C34 C 0.1860(11) 0.1016(10) 0.1140(6)
H26 H 0.21450 0.05090 0.12780
C35 C 0.0986(10) 0.0997(10) 0.0948(6)
H27 H 0.06780 0.04740 0.09590
C36 C 0.3284(10) 0.1836(9) 0.1369(5)
C37 C 0.3655(10) 0.2638(10) 0.1577(6)
H28 H 0.33170 0.31520 0.15420
C38 C 0.4486(13) 0.2648(10) 0.1819(6)
H29 H 0.47390 0.31790 0.19420
C39 C 0.4663(12) 0.1138(12) 0.1699(6)
H30 H 0.50270 0.06410 0.17460
C40 C 0.3842(11) 0.1076(10) 0.1439(5)
H31 H 0.36320 0.05400 0.13040
N1 N -0.6034(7) 1.1838(7) 0.2899(4)
N2 N -1.0525(7) 1.2024(8) 0.1716(4)
N3 N -0.1870(7) 1.0574(7) 0.1418(4)
N4 N -0.3068(13) 0.6123(12) 0.1111(7)
H32 H -0.32170 0.55840 0.10400
N5 N -0.3122(7) 1.1915(7) 0.0929(4)
N6 N -0.7646(8) 1.1559(10) -0.0089(5)
H33 H -0.82020 1.14960 -0.02120
N7 N 0.0533(9) 0.1708(9) 0.0737(5)
H34 H -0.00290 0.16870 0.06210
N8 N 0.4969(9) 0.1906(10) 0.1892(5)
H35 H 0.54940 0.19250 0.20680
O47 O 0.610(4) 0.421(4) 0.1613(16)
Ni1* Ni -1.17897(11) 1.19500(11) 0.13249(6)
N2* N -0.0525(7) 1.2024(8) 0.1716(4)
#END
