
#######################################################################
#
#                 Cambridge Crystallographic Data Centre
#                                CCDC
#
#######################################################################
#
# If this CIF has been generated from an entry in the Cambridge
# Structural Database, then it will include bibliographic, chemical,
# crystal, experimental, refinement or atomic coordinate data resulting
# from the CCDC's data processing and validation procedures.
#
#######################################################################

data_CSD_CIF_LAQRAX
_audit_creation_date 2005-12-01
_audit_creation_method CSD-ConQuest-V1
_database_code_CSD LAQRAX
_database_code_depnum_ccdc_archive 'CCDC 279376'
_chemical_formula_sum 'C30 H42 N6 Ni1 O48 Si1 W12'
_chemical_formula_moiety
;
(C30 H30 N6 Ni1 O2 4+)n,n(O40 Si1 W12 4-),6n(H2 O1)
;
_journal_coden_Cambridge 9
_journal_volume 44
_journal_year 2005
_journal_page_first 1190
_journal_name_full 'Inorg.Chem. '
loop_
_publ_author_name
"Pei-Qing Zheng"
"Yan-Ping Ren"
"La-Sheng Long"
"Rong-Bin Huang"
"Lan-Sun Zheng"
_chemical_name_systematic
;
catena-((\m~2~-4,4'-Bipyridine)-bis(4,4'-bipyridinium)-diaqua-nickel(ii) 
(\m~12~-silicato)-tetracosakis(\m~2~-oxo)-dodecakis(oxo-tungsten) 
hexahydrate)
;
_cell_volume   6223.319
_exptl_crystal_colour 'green'
_exptl_crystal_density_diffrn 3.787
_exptl_crystal_description 'block'
_diffrn_ambient_temperature 298
_refine_special_details
;
The structure is partially disordered by symmetry.

;
#These two values have been output from a single CSD field.
_refine_ls_R_factor_gt 0.0766
_refine_ls_wR_factor_gt 0.0766
_symmetry_cell_setting monoclinic
_symmetry_space_group_name_H-M 'C 2/c'
_symmetry_Int_Tables_number 15
loop_
_symmetry_equiv_pos_site_id
_symmetry_equiv_pos_as_xyz
1 x,y,z
2 1/2+x,1/2+y,z
3 -x,y,1/2-z
4 1/2-x,1/2+y,1/2-z
5 -x,-y,-z
6 -1/2-x,-1/2-y,-z
7 x,-y,-1/2+z
8 -1/2+x,-1/2-y,-1/2+z
_cell_length_a 24.642(5)
_cell_length_b 11.399(2)
_cell_length_c 22.597(5)
_cell_angle_alpha 90
_cell_angle_beta 101.346(4)
_cell_angle_gamma 90
_cell_formula_units_Z 4
loop_
_atom_type_symbol
_atom_type_radius_bond
C 0.68
H 0.23
N 0.68
Ni 1.50
O 0.68
Si 1.20
W 1.37
loop_
_atom_site_label
_atom_site_type_symbol
_atom_site_fract_x
_atom_site_fract_y
_atom_site_fract_z
W1 W 0.37917(3) 0.61344(6) 0.55012(4)
W2 W 0.37308(3) 0.90468(7) 0.49728(4)
W3 W 0.24490(4) 1.04055(7) 0.44626(4)
W4 W 0.29584(4) 0.69375(8) 0.65495(5)
W5 W 0.16764(3) 0.82874(8) 0.60464(6)
W6 W 0.29035(3) 0.98364(8) 0.60076(6)
Ni1 Ni 0.00000 -0.7067(2) 0.25000
Si1 Si 0.25000 0.75000 0.50000
O1 O 0.2496(6) 0.7986(12) 0.5630(3)
O2 O 0.2767(5) 0.8388(10) 0.4658(6)
O3? O 0.212(2) 0.622(5) 0.497(5)
O4 O 0.2837(4) 0.6387(7) 0.5092(9)
O5 O 0.1906(3) 0.7281(15) 0.4711(8)
O6 O 0.3714(6) 0.5948(12) 0.4655(6)
O7 O 0.1297(7) 0.8687(13) 0.6529(7)
O8 O 0.4005(5) 0.7713(10) 0.5385(6)
O9 O 0.3545(7) 0.6676(14) 0.6243(6)
O10 O 0.3200(6) 0.6630(16) 0.7305(7)
O11 O 0.3668(5) 0.8123(12) 0.4250(5)
O12 O 0.3091(5) 1.0915(12) 0.6498(7)
O13 O 0.2398(6) 1.1780(13) 0.4211(10)
O14 O 0.3301(6) 0.4867(14) 0.5489(7)
O15 O 0.2330(7) 0.9500(15) 0.3722(6)
O16 O 0.4409(6) 0.5464(13) 0.5718(11)
O17 O 0.3186(8) 1.0050(18) 0.4527(7)
O18 O 0.2235(7) 0.7407(15) 0.6527(17)
O19 O 0.3526(6) 0.9616(14) 0.5674(6)
O20 O 0.2187(6) 0.9565(14) 0.6162(14)
O21 O 0.2586(7) 1.0664(17) 0.5313(8)
O22 O 0.4298(6) 0.9824(14) 0.4952(9)
O23 O 0.3145(6) 0.8539(14) 0.6537(13)
N1 N 0.0299(5) -0.7180(11) 0.3463(6)
C1 C -0.0057(9) -0.735(2) 0.3826(10)
H1 H -0.04340 -0.73230 0.36590
C2 C 0.0104(8) -0.757(2) 0.4452(9)
H2 H -0.01530 -0.76830 0.46980
C3 C 0.0690(6) -0.7616(15) 0.4682(7)
C4 C 0.1024(6) -0.7410(16) 0.4301(10)
H3 H 0.14050 -0.73840 0.44420
C5 C 0.0816(6) -0.7238(14) 0.3711(6)
H4 H 0.10690 -0.71530 0.34580
C6 C 0.0862(3) -0.7915(11) 0.5315(4)
C7 C 0.0526(4) -0.8483(10) 0.5647(3)
H5 H 0.01610 -0.86610 0.54710
C8 C 0.0731(3) -0.8787(13) 0.6241(4)
H6 H 0.05210 -0.92430 0.64530
C9 C 0.1612(4) -0.8011(16) 0.6161(4)
H7 H 0.19880 -0.79340 0.63250
C10 C 0.1414(3) -0.7735(19) 0.5563(4)
H8 H 0.16500 -0.74290 0.53280
N2 N 0.1253(4) -0.8402(17) 0.6515(4)
H9 H 0.13530 -0.84070 0.69020
N3 N 0.00000 -0.5194(14) 0.25000
C11 C 0.0379(6) -0.4572(14) 0.2869(6)
H10 H 0.06600 -0.49760 0.31230
C12 C 0.0381(6) -0.3363(15) 0.2899(6)
H11 H 0.06400 -0.29820 0.31910
C13 C 0.00000 -0.2715(19) 0.25000
C14 C 0.00000 -0.1415(19) 0.25000
C15 C 0.0485(9) -0.0772(16) 0.2658(10)
H12 H 0.08250 -0.11540 0.27480
C16 C 0.0462(7) 0.0435(14) 0.2679(10)
H13 H 0.07880 0.08410 0.28280
N4 N 0.00000 0.1058(15) 0.25000
O24 O 0.0803(4) -0.6949(10) 0.2374(5)
H14 H 0.09800 -0.65540 0.26690
H15 H 0.09720 -0.75950 0.23620
O25 O 0.1272(11) -0.5215(19) 0.1869(11)
H16 H 0.14490 -0.57080 0.16970
H17 H 0.10790 -0.47950 0.15950
O26 O 0.1764(11) -0.821(3) 0.2826(8)
H18 H 0.19010 -0.78620 0.31550
H19 H 0.19500 -0.88320 0.28090
O27 O 0.2179(17) -0.441(4) 0.225(2)
H20 H 0.24650 -0.40660 0.21720
H21 H 0.21120 -0.41130 0.25720
W1E W 0.12083(3) 0.88656(6) 0.44988(4)
W2E W 0.12692(3) 0.59532(7) 0.50272(4)
W3E W 0.25510(4) 0.45945(7) 0.55374(4)
W4E W 0.20416(4) 0.80625(8) 0.34505(5)
W5E W 0.33236(3) 0.67126(8) 0.39536(6)
W6E W 0.20965(3) 0.51636(8) 0.39924(6)
Ni1* Ni 0.00000 0.2933(2) 0.25000
O1E O 0.2504(6) 0.7014(12) 0.4370(3)
O2E O 0.2233(5) 0.6612(10) 0.5342(6)
O4E O 0.2163(4) 0.8613(7) 0.4908(9)
O5E O 0.3094(3) 0.7719(15) 0.5289(8)
O6E O 0.1286(6) 0.9052(12) 0.5345(6)
O7E O 0.3703(7) 0.6313(13) 0.3471(7)
O8E O 0.0995(5) 0.7287(10) 0.4615(6)
O9E O 0.1455(7) 0.8324(14) 0.3757(6)
O10E O 0.1800(6) 0.8370(16) 0.2695(7)
O11E O 0.1332(5) 0.6877(12) 0.5750(5)
O12E O 0.1909(5) 0.4085(12) 0.3502(7)
O13E O 0.2602(6) 0.3220(13) 0.5789(10)
O14E O 0.1699(6) 1.0133(14) 0.4511(7)
O15E O 0.2670(7) 0.5500(15) 0.6278(6)
O16E O 0.0591(6) 0.9536(13) 0.4282(11)
O17E O 0.1814(8) 0.4950(18) 0.5473(7)
O18E O 0.2765(7) 0.7593(15) 0.3473(17)
O19E O 0.1474(6) 0.5384(14) 0.4326(6)
O20E O 0.2813(6) 0.5435(14) 0.3838(14)
O21E O 0.2414(7) 0.4336(17) 0.4687(8)
O22E O 0.0702(6) 0.5176(14) 0.5048(9)
O23E O 0.1855(6) 0.6461(14) 0.3463(13)
N1B N -0.0299(5) -0.7180(11) 0.1537(6)
C1B C 0.0057(9) -0.735(2) 0.1174(10)
H1B H 0.04340 -0.73230 0.13410
C2B C -0.0104(8) -0.757(2) 0.0548(9)
H2B H 0.01530 -0.76830 0.03020
C3B C -0.0690(6) -0.7616(15) 0.0318(7)
C4B C -0.1024(6) -0.7410(16) 0.0699(10)
H3B H -0.14050 -0.73840 0.05580
C5B C -0.0816(6) -0.7238(14) 0.1289(6)
H4B H -0.10690 -0.71530 0.15420
C6B C -0.0862(3) -0.7915(11) -0.0315(4)
C7B C -0.0526(4) -0.8483(10) -0.0647(3)
H5B H -0.01610 -0.86610 -0.04710
C8B C -0.0731(3) -0.8787(13) -0.1241(4)
H6B H -0.05210 -0.92430 -0.14530
C9B C -0.1612(4) -0.8011(16) -0.1161(4)
H7B H -0.19880 -0.79340 -0.13250
C10B C -0.1414(3) -0.7735(19) -0.0563(4)
H8B H -0.16500 -0.74290 -0.03280
N2B N -0.1253(4) -0.8402(17) -0.1515(4)
H9B H -0.13530 -0.84070 -0.19020
C11B C -0.0379(6) -0.4572(14) 0.2131(6)
H10B H -0.06600 -0.49760 0.18770
C12B C -0.0381(6) -0.3363(15) 0.2101(6)
H11B H -0.06400 -0.29820 0.18090
C15B C -0.0485(9) -0.0772(16) 0.2342(10)
H12B H -0.08250 -0.11540 0.22520
C16B C -0.0462(7) 0.0435(14) 0.2321(10)
H13B H -0.07880 0.08410 0.21720
N4* N 0.00000 -0.8942(15) 0.25000
O24B O -0.0803(4) -0.6949(10) 0.2626(5)
H14B H -0.09800 -0.65540 0.23310
H15B H -0.09720 -0.75950 0.26380
#END
