
#######################################################################
#
#                 Cambridge Crystallographic Data Centre
#                                CCDC
#
#######################################################################
#
# If this CIF has been generated from an entry in the Cambridge
# Structural Database, then it will include bibliographic, chemical,
# crystal, experimental, refinement or atomic coordinate data resulting
# from the CCDC's data processing and validation procedures.
#
#######################################################################

data_CSD_CIF_LARNEA
_audit_creation_date 2017-04-04
_audit_creation_method CSD-ConQuest-V1
_database_code_CSD LARNEA
_database_code_depnum_ccdc_archive 'CCDC 1413196'
_chemical_formula_sum 'C31 H31 Cd3 N3 O21'
_chemical_formula_moiety
;
(C24 H8 Cd3 O20 2-)n,C3 H7 N1 O1,2(C2 H8 N1 1+)
;
_journal_coden_Cambridge 2069
_journal_volume 47
_journal_year 2017
_journal_page_first 1186
_journal_name_full 'Inorg.Nano-Metal Chem. '
loop_
_publ_author_name
"Huimin Li"
"Shasha Li"
"Yuanrui Wang"
"Yafeng Li"
"Qian Qiao"
_chemical_name_systematic
;
catena-[bis(dimethylammonium) 
tetrakis(\m-furan-2,5-dicarboxylato)-tri-cadmium(ii) N,N-dimethylformamide 
solvate]
;
_cell_volume    930.118
_exptl_crystal_colour 'colorless'
_exptl_crystal_density_diffrn 1.997
_exptl_crystal_description 'block'
_diffrn_ambient_temperature 293
#These two values have been output from a single CSD field.
_refine_ls_R_factor_gt 0.0452
_refine_ls_wR_factor_gt 0.0452
_symmetry_cell_setting triclinic
_symmetry_space_group_name_H-M 'P 1'
_symmetry_Int_Tables_number 1
loop_
_symmetry_equiv_pos_site_id
_symmetry_equiv_pos_as_xyz
1 x,y,z
_cell_length_a 9.4378(19)
_cell_length_b 10.192(2)
_cell_length_c 11.234(2)
_cell_angle_alpha 64.11(3)
_cell_angle_beta 73.10(3)
_cell_angle_gamma 83.18(3)
_cell_formula_units_Z 1
loop_
_atom_type_symbol
_atom_type_radius_bond
C 0.68
H 0.23
Cd 1.44
N 0.68
O 0.68
loop_
_atom_site_label
_atom_site_type_symbol
_atom_site_fract_x
_atom_site_fract_y
_atom_site_fract_z
Cd1 Cd 0.05325(11) 0.16732(11) 0.29976(11)
Cd2 Cd 0.04773(6) 0.82151(5) -0.39108(5)
Cd3 Cd 0.07674(6) 0.50318(5) -0.01747(5)
O1 O 0.276(1) 0.9111(14) -0.5147(12)
O2 O 0.2799(9) 1.0732(11) -0.7326(10)
O3 O 0.5669(9) 0.9301(9) -0.5684(8)
O4 O 0.7578(11) 0.7967(11) -0.4115(11)
O5 O 0.9422(9) 0.9369(8) -0.5771(10)
C1 C 0.3336(11) 0.9878(13) -0.6331(13)
C2 C 0.5004(14) 0.9949(16) -0.6725(15)
C3 C 0.6077(13) 1.0651(13) -0.7957(15)
H1 H 0.59080 1.12110 -0.88130
C4 C 0.7458(12) 1.0357(11) -0.7662(12)
H2 H 0.83800 1.06550 -0.82890
C5 C 0.7178(13) 0.9523(13) -0.6233(12)
C6 C 0.8143(14) 0.8972(13) -0.5335(16)
C7 C 0.2954(12) 0.4443(11) 0.1315(11)
C8 C 0.3967(12) 0.3940(14) 0.2231(13)
C9 C 0.3758(13) 0.3297(14) 0.3578(13)
H3 H 0.28490 0.30660 0.42350
C10 C 0.5135(13) 0.3028(12) 0.3834(12)
H4 H 0.53200 0.25850 0.46930
C11 C 0.6145(14) 0.3519(13) 0.2628(13)
C12 C 0.7770(14) 0.3564(14) 0.2223(14)
O6 O 0.1569(9) 0.4028(9) 0.1929(9)
O7 O 0.3423(10) 0.5232(11) 0.0090(9)
O8 O 0.5442(9) 0.4193(10) 0.1589(9)
O9 O 0.8425(9) 0.2867(10) 0.3143(9)
O10 O 0.8423(10) 0.4272(9) 0.0981(9)
C13 C -0.0224(12) 1.0992(12) -0.3638(11)
C14 C -0.0611(13) 1.1912(12) -0.2850(12)
C15 C -0.1392(13) 1.1549(15) -0.1529(15)
H5 H -0.18480 1.06580 -0.09010
C16 C -0.1371(14) 1.2808(11) -0.1300(12)
H6 H -0.18390 1.29290 -0.05040
C17 C -0.0525(14) 1.3794(11) -0.2488(12)
C18 C -0.0011(14) 1.5349(11) -0.2952(12)
O11 O -0.0593(11) 0.9675(9) -0.2961(10)
O12 O 0.0439(10) 1.1691(8) -0.4936(9)
O13 O -0.0029(10) 1.3260(9) -0.3437(9)
O14 O -0.037(1) 1.5870(9) -0.2060(9)
O15 O 0.0689(10) 1.6033(9) -0.4118(9)
C19 C 0.1510(13) 0.7929(14) -0.1239(14)
C20 C 0.1974(13) 0.9360(13) -0.1493(13)
C21 C 0.2856(15) 1.0376(15) -0.2658(14)
H7 H 0.33360 1.02730 -0.34620
C22 C 0.2901(13) 1.1606(11) -0.2411(12)
H8 H 0.34140 1.24700 -0.30320
C23 C 0.2057(12) 1.1320(11) -0.1096(11)
C24 C 0.1582(14) 1.2110(13) -0.0242(14)
O16 O 0.0658(10) 0.7214(9) -0.0046(10)
O17 O 0.2044(9) 0.7483(8) -0.2138(9)
O18 O 0.1483(10) 0.9886(8) -0.0516(9)
O19 O 0.2017(10) 1.3455(9) -0.0929(10)
O20 O 0.0779(10) 1.1619(12) 0.0879(10)
N1 N 0.4923(13) 0.6171(12) 0.7040(14)
H9 H 0.41590 0.63460 0.76500
H10 H 0.54880 0.69850 0.65610
C25 C 0.4329(19) 0.5938(15) 0.610(2)
H11 H 0.35520 0.52180 0.66040
H12 H 0.51010 0.56040 0.55220
H13 H 0.39410 0.68370 0.55340
C26 C 0.583(2) 0.498(2) 0.7825(17)
H14 H 0.53380 0.40560 0.81780
H15 H 0.59330 0.51410 0.85740
H16 H 0.67860 0.49680 0.72280
N2 N -0.054(2) 0.5940(19) 0.2994(17)
H17 H -0.10270 0.63340 0.23370
H18 H -0.00750 0.51460 0.29180
C27 C 0.072(3) 0.710(2) 0.2636(18)
H19 H 0.02530 0.79570 0.27200
H20 H 0.13200 0.73580 0.17140
H21 H 0.13240 0.66710 0.32630
C28 C -0.152(2) 0.550(2) 0.416(2)
H22 H -0.10600 0.48800 0.48720
H23 H -0.22820 0.49660 0.41480
H24 H -0.19420 0.63270 0.43290
N3 N 0.5952(16) 0.8026(16) 0.0189(19)
O21 O 0.716(3) 0.725(2) 0.174(3)
C29 C 0.708(3) 0.754(2) 0.060(3)
C30 C 0.589(3) 0.824(3) -0.118(2)
H25 H 0.62090 0.92080 -0.18330
H26 H 0.48870 0.80910 -0.11450
H27 H 0.65210 0.75460 -0.14410
C31 C 0.465(3) 0.839(4) 0.087(4)
H28 H 0.44180 0.77130 0.18180
H29 H 0.38850 0.83740 0.04750
H30 H 0.47360 0.93570 0.07960
H31? H 0.63280 0.70920 0.22670
Cd1* Cd 0.05325(11) 1.16732(11) -0.70024(11)
Cd1** Cd 0.05325(11) 1.16732(11) 0.29976(11)
Cd1*** Cd 1.05325(11) 0.16732(11) 0.29976(11)
Cd1**** Cd 1.05325(11) 1.16732(11) -0.70024(11)
Cd2* Cd 0.04773(6) 1.82151(5) -0.39108(5)
Cd2** Cd 1.04773(6) 0.82151(5) -0.39108(5)
Cd3* Cd 0.07674(6) 1.50318(5) -0.01747(5)
Cd3** Cd 1.07674(6) 0.50318(5) -0.01747(5)
O2* O 0.2799(9) 0.0732(11) 0.2674(10)
O5* O -0.0578(9) -0.0631(8) 0.4229(10)
O5** O -0.0578(9) 0.9369(8) -0.5771(10)
O9* O -0.1575(9) 0.2867(10) 0.3143(9)
O10* O -0.1577(10) 0.4272(9) 0.0981(9)
O12* O 0.0439(10) 0.1691(8) 0.5064(9)
O14* O -0.037(1) 0.5870(9) -0.2060(9)
O15* O 0.0689(10) 0.6033(9) -0.4118(9)
O19* O 0.2017(10) 0.3455(9) -0.0929(10)
O20* O 0.0779(10) 0.1619(12) 0.0879(10)
#END
