
#######################################################################
#
#                 Cambridge Crystallographic Data Centre
#                                CCDC
#
#######################################################################
#
# If this CIF has been generated from an entry in the Cambridge
# Structural Database, then it will include bibliographic, chemical,
# crystal, experimental, refinement or atomic coordinate data resulting
# from the CCDC's data processing and validation procedures.
#
#######################################################################

data_CSD_CIF_LARNIE
_audit_creation_date 2017-04-04
_audit_creation_method CSD-ConQuest-V1
_database_code_CSD LARNIE
_database_code_depnum_ccdc_archive 'CCDC 1413197'
_chemical_formula_sum 'C32 H32 Mn3 N2 O20'
_chemical_formula_moiety
;
(C24 H8 Mn3 O20 2-)n,C6 H16 N1 1+,C2 H8 N1 1+
;
_journal_coden_Cambridge 2069
_journal_volume 47
_journal_year 2017
_journal_page_first 1186
_journal_name_full 'Inorg.Nano-Metal Chem. '
loop_
_publ_author_name
"Huimin Li"
"Shasha Li"
"Yuanrui Wang"
"Yafeng Li"
"Qian Qiao"
_chemical_name_systematic
;
catena-[triethylammonium dimethylammonium 
tetrakis(\m-furan-2,5-dicarboxylato)-tri-manganese(ii)]
;
_cell_volume   3580.962
_exptl_crystal_colour 'pink'
_exptl_crystal_density_diffrn 1.724
_exptl_crystal_description 'block'
_diffrn_ambient_temperature 100
#These two values have been output from a single CSD field.
_refine_ls_R_factor_gt 0.0672
_refine_ls_wR_factor_gt 0.0672
_symmetry_cell_setting orthorhombic
_symmetry_space_group_name_H-M 'P 21 21 21'
_symmetry_Int_Tables_number 19
loop_
_symmetry_equiv_pos_site_id
_symmetry_equiv_pos_as_xyz
1 x,y,z
2 1/2-x,-y,1/2+z
3 1/2+x,1/2-y,-z
4 -x,1/2+y,1/2-z
_cell_length_a 9.4078(2)
_cell_length_b 11.6538(3)
_cell_length_c 32.6621(9)
_cell_angle_alpha 90
_cell_angle_beta 90
_cell_angle_gamma 90
_cell_formula_units_Z 4
loop_
_atom_type_symbol
_atom_type_radius_bond
C 0.68
H 0.23
Mn 1.61
N 0.68
O 0.68
loop_
_atom_site_label
_atom_site_type_symbol
_atom_site_fract_x
_atom_site_fract_y
_atom_site_fract_z
Mn1 Mn 0.19316(12) 0.09382(12) 0.63759(4)
Mn2 Mn 0.24042(12) 0.71462(11) 0.59962(4)
Mn3 Mn 0.21617(12) 0.40878(12) 0.62589(4)
O1 O 0.3219(5) 0.2465(5) 0.60988(16)
O2 O 0.4417(5) 0.1008(5) 0.63596(17)
O3 O 0.6957(5) 0.2061(5) 0.61740(17)
O4 O 1.0326(5) 0.3294(5) 0.60074(18)
O5 O 0.9813(5) 0.1559(5) 0.62660(19)
O6 O 1.1056(5) 0.5758(5) 0.62643(16)
O7 O 0.9821(6) 0.7188(6) 0.6002(2)
O8 O 0.7314(5) 0.6133(5) 0.62468(16)
O9 O 0.3968(6) 0.4930(5) 0.65011(18)
O10 O 0.4473(6) 0.6486(5) 0.61215(18)
O11 O 0.6984(6) -0.1308(5) 0.46008(16)
O12 O 0.7627(6) 0.0454(5) 0.43962(15)
O13 O 0.5062(6) -0.0468(5) 0.51221(18)
O14 O 0.2173(6) 0.0063(5) 0.58000(16)
O15 O 0.3252(6) -0.1559(5) 0.56030(18)
O16 O -0.1460(5) 0.8776(5) 0.81171(17)
O17 O -0.2207(6) 0.6950(5) 0.80890(17)
O18 O 0.0008(6) 0.8393(5) 0.73797(16)
O19 O 0.2393(6) 0.8099(5) 0.65389(17)
O20 O 0.1221(6) 0.9632(5) 0.67693(18)
C1 C 0.4380(8) 0.1968(7) 0.6185(2)
C2 C 0.5692(8) 0.2532(8) 0.6047(2)
C3 C 0.5908(9) 0.3427(8) 0.5795(3)
H1 H 0.52040 0.38860 0.56660
C4 C 0.7392(9) 0.3546(7) 0.5761(2)
H2 H 0.78790 0.40970 0.55990
C5 C 0.8003(8) 0.2735(7) 0.5999(3)
C6 C 0.9492(9) 0.2502(9) 0.6102(3)
C7 C 0.9895(8) 0.6260(8) 0.6197(3)
C8 C 0.8617(8) 0.5746(7) 0.6384(2)
C9 C 0.8432(8) 0.4912(8) 0.6671(3)
H3 H 0.91610 0.45090 0.68120
C10 C 0.6957(9) 0.4759(8) 0.6720(3)
H4 H 0.65020 0.42410 0.69020
C11 C 0.6306(9) 0.5498(8) 0.6456(3)
C12 C 0.4809(8) 0.5667(7) 0.6348(2)
C13 C 0.6903(9) -0.0243(8) 0.4608(2)
C14 C 0.5841(9) 0.0295(8) 0.4887(3)
C15 C 0.5362(9) 0.1356(8) 0.4951(3)
H5 H 0.57190 0.20370 0.48280
C16 C 0.4204(8) 0.1289(7) 0.5241(3)
H6 H 0.36500 0.19060 0.53450
C17 C 0.4077(8) 0.0171(7) 0.5334(3)
C18 C 0.3115(8) -0.0475(7) 0.5604(2)
C19 C -0.1472(8) 0.7768(7) 0.7965(2)
C20 C -0.0551(9) 0.7505(8) 0.7614(2)
C21 C -0.0067(10) 0.6509(9) 0.7484(3)
H7 H -0.02970 0.57780 0.75950
C22 C 0.0856(8) 0.6720(8) 0.7151(3)
H8 H 0.13670 0.61600 0.69990
C23 C 0.0875(9) 0.7862(8) 0.7090(2)
C24 C 0.1542(9) 0.8579(8) 0.6773(3)
N1 N 0.1423(9) 0.5260(8) 0.3236(3)
H9 H 0.08940 0.47410 0.33890
C25 C 0.110(2) 0.7061(18) 0.2833(6)
H10 H 0.20830 0.72490 0.29090
H11 H 0.05240 0.77600 0.28360
H12 H 0.10910 0.67270 0.25570
C26 C 0.0494(16) 0.6193(14) 0.3139(5)
H13 H 0.02540 0.66030 0.33950
H14 H -0.04000 0.58770 0.30260
C27 C 0.2125(19) 0.4606(15) 0.2921(5)
H15 H 0.26930 0.39780 0.30430
H16 H 0.27650 0.51040 0.27590
C28 C 0.092(3) 0.411(2) 0.2647(7)
H17 H 0.05730 0.33920 0.27660
H18 H 0.12890 0.39680 0.23720
H19 H 0.01370 0.46650 0.26330
C29 C 0.2634(19) 0.5661(16) 0.3507(5)
H20 H 0.33940 0.50730 0.35050
H21 H 0.30360 0.63770 0.33920
C30 C 0.2221(19) 0.5861(14) 0.3911(5)
H22 H 0.16330 0.65550 0.39240
H23 H 0.30670 0.59650 0.40830
H24 H 0.16720 0.52040 0.40120
C31 C 0.4661(11) 0.6191(10) 0.4793(4)
H25 H 0.54000 0.58850 0.46110
H26 H 0.38940 0.65230 0.46280
H27 H 0.42810 0.55710 0.49630
C32 C 0.6432(12) 0.6647(11) 0.5326(3)
H28 H 0.60540 0.60140 0.54910
H29 H 0.67880 0.72510 0.55080
H30 H 0.72090 0.63640 0.51540
N2 N 0.5296(10) 0.7113(8) 0.5065(3)
H31 H 0.56590 0.76920 0.49050
H32 H 0.45930 0.74210 0.52280
Mn1* Mn 0.19316(12) 1.09382(12) 0.63759(4)
Mn1** Mn 1.19316(12) 0.09382(12) 0.63759(4)
Mn1C Mn -0.19316(12) 0.59382(12) 0.86241(4)
Mn2* Mn 0.24042(12) -0.28538(11) 0.59962(4)
Mn2** Mn 1.24042(12) 0.71462(11) 0.59962(4)
Mn2B Mn 0.74042(12) -0.21462(11) 0.40038(4)
Mn3* Mn 1.21617(12) 0.40878(12) 0.62589(4)
Mn3B Mn 0.71617(12) 0.09122(12) 0.37411(4)
Mn3C Mn -0.21617(12) 0.90878(12) 0.87411(4)
O4* O 0.0326(5) 0.3294(5) 0.60074(18)
O5* O -0.0187(5) 0.1559(5) 0.62660(19)
O6* O 0.1056(5) 0.5758(5) 0.62643(16)
O7* O -0.0179(6) 0.7188(6) 0.6002(2)
O11B O 0.1984(6) 0.6308(5) 0.53992(16)
O12B O 0.2627(6) 0.4546(5) 0.56038(15)
O15* O 0.3252(6) 0.8441(5) 0.56030(18)
O16C O 0.1460(5) 0.3776(5) 0.68829(17)
O17C O 0.2207(6) 0.1950(5) 0.69110(17)
O20* O 0.1221(6) -0.0368(5) 0.67693(18)
#END
