
#######################################################################
#
#                 Cambridge Crystallographic Data Centre
#                                CCDC
#
#######################################################################
#
# If this CIF has been generated from an entry in the Cambridge
# Structural Database, then it will include bibliographic, chemical,
# crystal, experimental, refinement or atomic coordinate data resulting
# from the CCDC's data processing and validation procedures.
#
#######################################################################

data_CSD_CIF_LARPOL
_audit_creation_date 2012-05-09
_audit_creation_method CSD-ConQuest-V1
_database_code_CSD LARPOL
_database_code_depnum_ccdc_archive 'CCDC 805272'
_chemical_formula_sum 'C35 H47 Fe3 N2 O24.5'
_chemical_formula_moiety
;
(C4 H12 N1 1+)2n,n(C27 H12 Fe3 O19 2-),5.5n(H2 O1)
;
_journal_coden_Cambridge 155
_journal_volume 384
_journal_year 2012
_journal_page_first 219
_journal_name_full 'Inorg.Chim.Acta '
loop_
_publ_author_name
"Tian-zhan Zhang"
"Ying Lu"
"Yang-guang Li"
"Zhiming Zhang"
"Wei-lin Chen"
"Hai Fu"
"En-bo Wang"
_chemical_name_systematic
;
catena-[bis(Tetramethylammonium) 
(\m~5~-5-carboxybenzene-1,3-dicarboxylato)-bis(\m~5~-benzene-1,3,5-tricarboxyl
ato)-aqua-tri-iron(ii) hydrate]
;
_cell_volume   5184.778
_exptl_crystal_colour 'yellow'
_exptl_special_details
;
The deposited cif has modelled 1.5 solvent water molecules, as opposed to the 
5.5 water quoted in the formula in the paper. It has been assumed additional 
water is present that could not be modelled from the diffraction data. We 
calculate 5.7% void space in the structure
;
_exptl_crystal_description 'block'
_diffrn_ambient_temperature 150
_refine_special_details
;
O5W and O6W disordered over two sites with occupancies 0.25:0.25.

;
#These two values have been output from a single CSD field.
_refine_ls_R_factor_gt 0.0878
_refine_ls_wR_factor_gt 0.0878
_symmetry_cell_setting monoclinic
_symmetry_space_group_name_H-M 'P 21/c'
_symmetry_Int_Tables_number 14
loop_
_symmetry_equiv_pos_site_id
_symmetry_equiv_pos_as_xyz
1 x,y,z
2 -x,1/2+y,1/2-z
3 -x,-y,-z
4 x,-1/2-y,-1/2+z
_cell_length_a 18.1258(15)
_cell_length_b 14.3712(12)
_cell_length_c 26.6897(16)
_cell_angle_alpha 90
_cell_angle_beta 131.776(3)
_cell_angle_gamma 90
_cell_formula_units_Z 4
loop_
_atom_type_symbol
_atom_type_radius_bond
C 0.68
H 0.23
Fe 1.46
N 0.68
O 0.68
loop_
_atom_site_label
_atom_site_type_symbol
_atom_site_fract_x
_atom_site_fract_y
_atom_site_fract_z
Fe1 Fe 0.70821(11) 0.18477(10) 0.40928(8)
Fe2 Fe 0.67481(11) -0.05234(10) 0.42522(8)
Fe3 Fe 0.75922(13) 0.80064(11) 0.56240(9)
O1 O 0.6978(5) 0.3177(5) 0.3820(4)
O2 O 0.6984(5) 0.0920(5) 0.4638(4)
O3 O 0.6639(6) 0.8078(5) 0.3972(4)
O4 O 0.4408(6) 0.4930(5) 0.1730(4)
O5 O 0.6315(6) 0.2254(5) 0.4536(4)
O6 O 0.8001(6) 0.1227(5) 0.4008(4)
O7 O 0.7367(6) 0.7204(5) 0.4886(4)
O8 O 1.1323(6) -0.2367(5) 0.4789(4)
O9 O 0.4220(6) 0.6458(5) 0.1813(4)
O10 O 0.7717(6) -0.0250(5) 0.4102(4)
O11 O 0.3891(7) 0.1827(6) 0.4911(5)
O12 O 0.4286(6) 0.0762(6) 0.5666(4)
O13 O 0.7978(7) -0.1240(6) 0.6436(4)
O14 O 0.9857(7) -0.2790(6) 0.4397(6)
O15 O 0.7596(9) -0.0873(9) 0.7043(6)
O16 O 0.8015(6) 0.3946(5) 0.4787(4)
O17 O 1.2021(5) 0.0874(5) 0.4688(4)
O18 O 1.0740(6) 0.1752(5) 0.3906(4)
O19 O 0.7851(11) 0.6745(9) 0.6139(7)
C1 C 0.9285(8) -0.0893(7) 0.4240(5)
H1 H 0.88910 -0.13350 0.42360
C2 C 0.9009(7) 0.0039(7) 0.4121(5)
C3 C 0.5396(8) 0.0988(7) 0.5501(6)
C4 C 0.7523(10) -0.0764(10) 0.6548(7)
C5 C 0.5584(8) 0.1391(7) 0.5124(6)
H2 H 0.51630 0.18680 0.48100
C6 C 0.9582(8) 0.0672(7) 0.4113(5)
H3 H 0.93880 0.13070 0.40100
C7 C 0.4643(8) 0.5678(7) 0.2052(6)
C8 C 0.6025(9) 0.0312(8) 0.5969(6)
H4 H 0.58990 0.00470 0.62310
C9 C 0.6896(8) 0.7322(7) 0.4271(6)
C10 C 0.6391(8) 0.1096(7) 0.5204(6)
C11 C 0.5517(8) 0.5663(7) 0.2800(5)
C12 C 0.7013(9) 0.0395(8) 0.5669(6)
H5 H 0.75520 0.01820 0.57150
C13 C 0.7063(8) 0.5618(7) 0.4181(6)
H6 H 0.75830 0.56050 0.46550
C14 C 0.6595(8) 0.6451(7) 0.3867(6)
C15 C 0.6792(8) 0.4800(6) 0.3821(5)
C16 C 0.5831(8) 0.6461(7) 0.3185(6)
H7 H 0.55070 0.70330 0.29690
C17 C 0.6018(8) 0.4826(7) 0.3134(6)
H8 H 0.58190 0.42690 0.28810
C18 C 0.8168(8) 0.0363(8) 0.4063(5)
C19 C 0.6558(8) 0.1456(8) 0.4768(6)
C20 C 0.4448(9) 0.1224(8) 0.5353(7)
C21 C 0.6842(9) 0.0011(8) 0.6063(6)
C22 C 0.7300(9) 0.3915(7) 0.4170(6)
C23 C 1.0119(7) -0.1193(7) 0.4365(5)
C24 C 1.0687(7) -0.0551(7) 0.4376(5)
H9 H 1.12680 -0.07480 0.44700
C25 C 1.0418(9) -0.2188(8) 0.4519(6)
C26 C 1.0424(7) 0.0390(7) 0.4251(5)
C27 C 1.1087(8) 0.1059(7) 0.4279(6)
N1 N 0.3292(12) 0.3075(12) 0.2670(8)
C28 C 0.4106(15) 0.2514(16) 0.3243(10)
H10 H 0.45920 0.29240 0.36230
H11 H 0.44260 0.21670 0.31160
H12 H 0.38450 0.20770 0.33730
C29 C 0.3648(18) 0.3712(15) 0.2433(12)
H13 H 0.41150 0.41600 0.27880
H14 H 0.30850 0.40470 0.20330
H15 H 0.39800 0.33520 0.23200
C30 C 0.2768(17) 0.3597(16) 0.2832(12)
H16 H 0.32250 0.40380 0.31960
H17 H 0.25210 0.31600 0.29730
H18 H 0.22100 0.39380 0.24330
C31 C 0.2572(16) 0.2414(15) 0.210(1)
H19 H 0.29130 0.20550 0.19940
H20 H 0.20300 0.27690 0.17030
H21 H 0.23030 0.19900 0.22310
N2 N 0.3338(11) 0.7024(11) 0.2926(8)
C32 C 0.3725(17) 0.7814(14) 0.2793(12)
H22 H 0.42710 0.75940 0.28290
H23 H 0.39640 0.83090 0.31230
H24 H 0.31950 0.80580 0.23400
C33 C 0.2974(17) 0.6233(14) 0.2439(10)
H25 H 0.35160 0.60100 0.24710
H26 H 0.24280 0.64500 0.19800
H27 H 0.27430 0.57240 0.25480
C34 C 0.4146(14) 0.6640(17) 0.3631(8)
H28 H 0.46990 0.64180 0.36760
H29 H 0.38810 0.61230 0.37090
H30 H 0.43780 0.71320 0.39610
C35 C 0.2478(14) 0.7367(16) 0.2857(12)
H31 H 0.19590 0.76200 0.24050
H32 H 0.27120 0.78540 0.31910
H33 H 0.22110 0.68470 0.29310
O20 O 1.036(2) 0.585(2) 0.6073(14)
O21 O 0.691(3) 0.510(3) 0.552(2)
O22 O 0.996(6) -0.251(6) 0.760(4)
O23? O 1.014(4) -0.163(4) 0.765(3)
Fe1B Fe 1.29179(11) -0.18477(10) 0.59072(8)
Fe1A Fe 0.29179(11) 0.68477(10) 0.09072(8)
Fe2* Fe 0.67481(11) 0.94766(10) 0.42522(8)
Fe2A Fe 0.32519(11) 0.44766(10) 0.07478(8)
Fe2B Fe 0.32519(11) 0.05234(10) 0.57478(8)
Fe2B* Fe 1.32519(11) 0.05234(10) 0.57478(8)
Fe3B Fe 0.24078(13) 0.19936(11) 0.43760(9)
Fe3* Fe 0.75922(13) -0.19936(11) 0.56240(9)
Fe3B* Fe 1.24078(13) 0.19936(11) 0.43760(9)
O3* O 0.6639(6) -0.1922(5) 0.3972(4)
O4A O 0.5592(6) -0.0070(5) 0.3270(4)
O8B O 0.8677(6) 0.2367(5) 0.5211(4)
O9A O 0.5780(6) 0.1458(5) 0.3187(4)
O11B O 0.6109(7) 0.8173(6) 0.5089(5)
O12B O 0.5714(6) -0.0762(6) 0.4334(4)
O13* O 0.7978(7) 0.8760(6) 0.6436(4)
O17B O 0.7979(5) -0.0874(5) 0.5312(4)
O17B* O 0.7979(5) 0.9126(5) 0.5312(4)
O18B O 0.9260(6) 0.8248(5) 0.6094(4)
#END
