
#######################################################################
#
#                 Cambridge Crystallographic Data Centre
#                                CCDC
#
#######################################################################
#
# If this CIF has been generated from an entry in the Cambridge
# Structural Database, then it will include bibliographic, chemical,
# crystal, experimental, refinement or atomic coordinate data resulting
# from the CCDC's data processing and validation procedures.
#
#######################################################################

data_CSD_CIF_LASRAB
_audit_creation_date 2017-04-05
_audit_creation_method CSD-ConQuest-V1
_database_code_CSD LASRAB
_database_code_depnum_ccdc_archive 'CCDC 1532625'
_chemical_formula_sum 'C57 H47 Br1 Cu3 Mn1 O20 P2'
_chemical_formula_moiety
;
2(C24 H20 P1 1+),(C9 H5 Br1 Cu3 Mn1 O19 2-)n,H2 O1
;
_journal_coden_Cambridge 222
_journal_volume 46
_journal_year 2017
_journal_page_first 5260
_journal_name_full 'Dalton Trans. '
loop_
_publ_author_name
"B.Gil-Hernandez"
"A.J.Calahorro"
"P.Gili"
"J.Sanchiz"
_chemical_name_systematic
;
catena-(bis(tetraphenylphosphonium) (\m-bromo)-tris(\m-hydrogen 
2,2-dioxypropane-1,3-dioato)-aqua-tri-copper-manganese monohydrate)
;
_cell_volume   5727.709
_exptl_crystal_colour 'blue'
_exptl_crystal_density_diffrn 1.669
_exptl_crystal_description 'prismatic'
_diffrn_ambient_temperature 293
#These two values have been output from a single CSD field.
_refine_ls_R_factor_gt 0.0354
_refine_ls_wR_factor_gt 0.0354
_symmetry_cell_setting orthorhombic
_symmetry_space_group_name_H-M 'P 21 21 21'
_symmetry_Int_Tables_number 19
loop_
_symmetry_equiv_pos_site_id
_symmetry_equiv_pos_as_xyz
1 x,y,z
2 1/2-x,-y,1/2+z
3 -x,1/2+y,1/2-z
4 1/2+x,1/2-y,-z
_cell_length_a 16.2170(1)
_cell_length_b 17.9831(1)
_cell_length_c 19.6402(1)
_cell_angle_alpha 90
_cell_angle_beta 90
_cell_angle_gamma 90
_cell_formula_units_Z 4
loop_
_atom_type_symbol
_atom_type_radius_bond
C 0.68
H 0.23
Br 1.21
Cu 1.32
Mn 1.61
O 0.68
P 1.05
loop_
_atom_site_label
_atom_site_type_symbol
_atom_site_fract_x
_atom_site_fract_y
_atom_site_fract_z
P1 P 0.59820(5) -0.01859(5) 0.83031(4)
C1 C 0.60662(16) -0.06721(13) 0.90949(10)
C2 C 0.64130(18) -0.13789(13) 0.90921(10)
H1 H 0.66200 -0.15770 0.86890
C3 C 0.6451(2) -0.17891(12) 0.96911(14)
H2 H 0.66830 -0.22620 0.96890
C4 C 0.6143(2) -0.14926(16) 1.02929(11)
H3 H 0.61680 -0.17670 1.06940
C5 C 0.5796(2) -0.07857(18) 1.02957(10)
H4 H 0.55890 -0.05870 1.06980
C6 C 0.57575(18) -0.03755(13) 0.96967(13)
H5 H 0.55250 0.00970 0.96990
C7 C 0.69173(13) -0.03418(17) 0.78320(13)
C8 C 0.68930(14) -0.07275(17) 0.72190(13)
H6 H 0.63930 -0.09010 0.70510
C9 C 0.7616(2) -0.08533(18) 0.68574(12)
H7 H 0.76000 -0.11110 0.64470
C10 C 0.83641(15) -0.0594(2) 0.71087(18)
H8 H 0.88480 -0.06780 0.68670
C11 C 0.83884(13) -0.0208(2) 0.77217(19)
H9 H 0.88890 -0.00340 0.78900
C12 C 0.76650(17) -0.00820(18) 0.80834(14)
H10 H 0.76810 0.01760 0.84930
C13 C 0.51268(16) -0.05542(15) 0.78361(14)
C14 C 0.4847(2) -0.01670(15) 0.72688(17)
H11 H 0.51070 0.02710 0.71370
C15 C 0.4179(2) -0.04343(18) 0.68990(16)
H12 H 0.39920 -0.01750 0.65190
C16 C 0.3791(2) -0.10887(19) 0.70966(19)
H13 H 0.33440 -0.12680 0.68490
C17 C 0.4070(2) -0.14759(19) 0.7664(2)
H14 H 0.38110 -0.19140 0.77960
C18 C 0.4739(2) -0.12086(19) 0.80337(17)
H15 H 0.49260 -0.14680 0.84130
C19 C 0.57826(17) 0.07759(12) 0.84685(16)
C20 C 0.49851(16) 0.09817(17) 0.86469(19)
H16 H 0.45640 0.06310 0.86420
C21 C 0.4817(2) 0.1712(2) 0.8833(2)
H17 H 0.42840 0.18500 0.89520
C22 C 0.5447(3) 0.22365(14) 0.8840(2)
H18 H 0.53340 0.27250 0.89650
C23 C 0.6244(2) 0.20307(16) 0.8662(2)
H19 H 0.66650 0.23820 0.86670
C24 C 0.64121(16) 0.13005(17) 0.8476(2)
H20 H 0.69460 0.11630 0.83570
P2 P 0.89362(6) -0.13807(5) 1.05401(4)
C25 C 0.8957(2) -0.18345(17) 0.97207(11)
C26 C 0.8563(2) -0.15217(16) 0.91612(14)
H21 H 0.83490 -0.10430 0.91890
C27 C 0.8488(3) -0.1925(2) 0.85606(12)
H22 H 0.82250 -0.17160 0.81860
C28 C 0.8807(3) -0.2641(2) 0.85193(15)
H23 H 0.87570 -0.29100 0.81170
C29 C 0.9201(3) -0.29535(19) 0.90788(19)
H24 H 0.94150 -0.34330 0.90510
C30 C 0.9276(3) -0.25504(19) 0.96795(14)
H25 H 0.95400 -0.27600 1.00540
C31 C 0.86961(16) -0.04074(11) 1.04481(14)
C32 C 0.92950(14) 0.01368(16) 1.05376(18)
H26 H 0.98270 0.00030 1.06630
C33 C 0.9098(2) 0.08813(14) 1.0439(2)
H27 H 0.94990 0.12450 1.04990
C34 C 0.8302(2) 0.10815(11) 1.0251(2)
H28 H 0.81700 0.15800 1.01850
C35 C 0.77032(17) 0.05373(16) 1.01613(17)
H29 H 0.71710 0.06710 1.00350
C36 C 0.79002(15) -0.02072(14) 1.02600(16)
H30 H 0.75000 -0.05710 1.02000
C37 C 0.81421(19) -0.18178(16) 1.10417(15)
C38 C 0.7766(2) -0.14261(16) 1.15668(16)
H31 H 0.79150 -0.09350 1.16520
C39 C 0.7167(3) -0.1768(2) 1.19649(17)
H32 H 0.69150 -0.15060 1.23160
C40 C 0.6944(3) -0.2501(2) 1.1838(2)
H33 H 0.65440 -0.27300 1.21040
C41 C 0.7320(3) -0.28929(17) 1.1313(3)
H34 H 0.71720 -0.33840 1.12280
C42 C 0.7919(3) -0.25512(16) 1.09146(19)
H35 H 0.81710 -0.28130 1.05630
C43 C 0.99208(13) -0.14949(16) 1.09386(12)
C44 C 1.06251(17) -0.12859(17) 1.05835(11)
H36 H 1.05820 -0.11150 1.01380
C45 C 1.13934(14) -0.13323(19) 1.08943(16)
H37 H 1.18650 -0.11920 1.06570
C46 C 1.14575(16) -0.1588(2) 1.15602(16)
H38 H 1.19720 -0.16190 1.17680
C47 C 1.0753(2) -0.1797(2) 1.19153(11)
H39 H 1.07960 -0.19680 1.23610
C48 C 0.99849(17) -0.17503(18) 1.16045(12)
H40 H 0.95140 -0.18900 1.18420
Mn1 Mn 0.89764(3) 0.42820(2) 0.89729(2)
Cu1 Cu 1.21909(3) 0.06905(3) 0.84918(2)
Cu2 Cu 1.02992(3) 0.14915(2) 0.80037(2)
Cu3 Cu 1.15529(3) 0.21203(2) 0.93119(2)
Br1 Br 1.25342(3) 0.21412(3) 0.81867(2)
C49 C 1.19044(18) 0.00419(18) 0.72530(16)
C50 C 1.3072(2) 0.04132(17) 0.96584(16)
C51 C 1.04316(19) 0.32496(16) 0.93090(14)
C52 C 1.10361(17) 0.01833(15) 0.75560(13)
C53 C 1.23289(17) 0.08820(16) 0.99120(14)
C54 C 0.99982(18) 0.26012(15) 0.89265(13)
C55 C 1.04059(17) 0.04489(15) 0.70240(14)
C56 C 1.26523(18) 0.16124(16) 1.02328(14)
C57 C 0.96466(17) 0.28523(16) 0.82296(13)
O1 O 1.25021(15) 0.02169(18) 0.76334(13)
O2 O 1.31097(15) 0.02859(16) 0.90225(12)
O3 O 1.11758(16) 0.31326(13) 0.94798(14)
O4 O 0.9224(3) 0.0899(2) 0.8705(2)
O5 O 1.19786(14) -0.02498(15) 0.66752(12)
O6 O 1.35823(16) 0.01820(15) 1.00834(12)
O7 O 1.00468(16) 0.38227(13) 0.94433(12)
O8 O 1.10919(12) 0.06984(12) 0.8073(1)
O9 O 1.17896(12) 0.10389(11) 0.93875(10)
O10 O 1.05352(13) 0.20206(11) 0.88267(10)
O11 O 1.07532(16) -0.04924(12) 0.78531(11)
H41 H 1.07020 -0.08090 0.75560
O12 O 1.18996(15) 0.04772(15) 1.04208(12)
H42 H 1.22140 0.03820 1.07360
O13 O 0.93322(15) 0.23390(12) 0.93303(12)
H43 H 0.89960 0.26750 0.93840
O14 O 1.02861(14) 0.00813(12) 0.64980(11)
O15 O 1.31553(15) 0.15754(13) 1.07128(12)
O16 O 0.92983(15) 0.34618(12) 0.81659(10)
O17 O 0.99971(17) 0.10187(14) 0.71568(12)
O18 O 1.23934(16) 0.22142(13) 1.00068(13)
O19 O 0.9711(2) 0.23926(15) 0.77542(13)
O20 O 1.0426(3) -0.0157(3) 0.92720(19)
Mn1B Mn 1.10236(3) -0.07180(2) 0.60271(2)
Mn1C Mn 1.39764(3) 0.07180(2) 1.10271(2)
O5B O 0.80214(14) 0.47502(15) 0.83248(12)
O6C O 0.85823(16) 0.48180(15) 0.99166(12)
O14B O 0.97139(14) 0.50813(12) 0.85020(11)
O15C O 0.81553(15) 0.34246(13) 0.92872(12)
#END
