
#######################################################################
#
#                 Cambridge Crystallographic Data Centre
#                                CCDC
#
#######################################################################
#
# If this CIF has been generated from an entry in the Cambridge
# Structural Database, then it will include bibliographic, chemical,
# crystal, experimental, refinement or atomic coordinate data resulting
# from the CCDC's data processing and validation procedures.
#
#######################################################################

data_CSD_CIF_LASREF
_audit_creation_date 2017-04-05
_audit_creation_method CSD-ConQuest-V1
_database_code_CSD LASREF
_database_code_depnum_ccdc_archive 'CCDC 1532626'
_chemical_formula_sum 'C114 H96 Br2 Cu6 O41 P4 Zn2'
_chemical_formula_moiety
;
(C18 H8 Br2 Cu6 O37 Zn2 4-)n,4(C24 H20 P1 1+),4(H2 O1)
;
_journal_coden_Cambridge 222
_journal_volume 46
_journal_year 2017
_journal_page_first 5260
_journal_name_full 'Dalton Trans. '
loop_
_publ_author_name
"B.Gil-Hernandez"
"A.J.Calahorro"
"P.Gili"
"J.Sanchiz"
_chemical_name_systematic
;
catena-(tetrakis(tetraphenylphosphonium) bis(\m-bromo)-hexakis(\m-hydrogen 
2,2-dioxypropane-1,3-dioato)-aqua-hexa-copper-di-zinc tetrahydrate)
;
_cell_volume   5736.073
_exptl_crystal_colour 'blue'
_exptl_crystal_density_diffrn 1.689
_exptl_crystal_description 'prismatic'
_diffrn_ambient_temperature 150
#These two values have been output from a single CSD field.
_refine_ls_R_factor_gt 0.0754
_refine_ls_wR_factor_gt 0.0754
_symmetry_cell_setting monoclinic
_symmetry_space_group_name_H-M 'P 21'
_symmetry_Int_Tables_number 4
loop_
_symmetry_equiv_pos_site_id
_symmetry_equiv_pos_as_xyz
1 x,y,z
2 -x,1/2+y,-z
_cell_length_a 17.5123(5)
_cell_length_b 18.1004(6)
_cell_length_c 18.1084(5)
_cell_angle_alpha 90
_cell_angle_beta 92.118(2)
_cell_angle_gamma 90
_cell_formula_units_Z 2
loop_
_atom_type_symbol
_atom_type_radius_bond
C 0.68
H 0.23
Br 1.21
Cu 1.32
O 0.68
P 1.05
Zn 1.22
loop_
_atom_site_label
_atom_site_type_symbol
_atom_site_fract_x
_atom_site_fract_y
_atom_site_fract_z
C1 C 0.0368(11) 0.0038(11) 0.0529(14)
C2 C -0.0366(13) -0.0143(12) 0.0733(13)
H1 H -0.04800 -0.01630 0.12300
C3 C -0.0929(10) -0.0296(11) 0.0194(15)
H2 H -0.14210 -0.04170 0.03300
C4 C -0.0759(11) -0.0266(11) -0.0549(14)
H3 H -0.11360 -0.03680 -0.09100
C5 C -0.0025(12) -0.0085(12) -0.0753(13)
H4 H 0.00890 -0.00650 -0.12500
C6 C 0.0539(10) 0.0068(11) -0.0214(15)
H5 H 0.10300 0.01890 -0.03500
C7 C 0.0633(8) 0.0635(8) 0.1978(6)
C8 C 0.0256(8) 0.1304(8) 0.1866(6)
H6 H 0.02010 0.15010 0.13930
C9 C -0.0038(7) 0.1679(7) 0.2462(8)
H7 H -0.02910 0.21260 0.23880
C10 C 0.0044(8) 0.1385(8) 0.3170(6)
H8 H -0.01530 0.16350 0.35690
C11 C 0.0421(8) 0.0716(8) 0.3281(6)
H9 H 0.04760 0.05190 0.37550
C12 C 0.0716(8) 0.0341(7) 0.2686(8)
H10 H 0.09680 -0.01060 0.27600
C13 C 0.1511(9) -0.0645(7) 0.1507(9)
C14 C 0.2197(9) -0.0616(7) 0.1918(9)
H11 H 0.24510 -0.01680 0.19820
C15 C 0.2503(8) -0.1256(9) 0.2233(9)
H12 H 0.29620 -0.12360 0.25070
C16 C 0.2124(9) -0.1926(7) 0.2137(9)
H13 H 0.23290 -0.23540 0.23470
C17 C 0.1438(9) -0.1955(7) 0.1726(9)
H14 H 0.11840 -0.24030 0.16620
C18 C 0.1132(8) -0.1315(9) 0.1411(9)
H15 H 0.06730 -0.13350 0.11360
C19 C 0.1804(8) 0.0778(8) 0.0870(8)
C20 C 0.1800(8) 0.1537(8) 0.0986(8)
H16 H 0.14470 0.17460 0.12960
C21 C 0.2323(9) 0.1985(7) 0.0640(9)
H17 H 0.23200 0.24930 0.07180
C22 C 0.2850(8) 0.1673(8) 0.0176(8)
H18 H 0.32000 0.19720 -0.00560
C23 C 0.2854(8) 0.0914(8) 0.0060(8)
H19 H 0.32070 0.07060 -0.02500
C24 C 0.2331(9) 0.0467(7) 0.0406(9)
H20 H 0.23340 -0.00410 0.03280
P1 P 0.1076(3) 0.0193(3) 0.1215(3)
C25 C 0.6099(8) 0.5264(7) 0.6562(6)
C26 C 0.6142(7) 0.5603(6) 0.7251(6)
H21 H 0.64450 0.60210 0.73250
C27 C 0.5733(8) 0.5319(7) 0.7829(5)
H22 H 0.57620 0.55450 0.82900
C28 C 0.5281(8) 0.4695(7) 0.7719(6)
H23 H 0.50070 0.45040 0.81060
C29 C 0.5237(7) 0.4356(6) 0.7030(6)
H24 H 0.49340 0.39380 0.69560
C30 C 0.5646(8) 0.4640(7) 0.6451(5)
H25 H 0.56170 0.44130 0.59900
C31 C 0.7374(6) 0.4987(6) 0.5593(7)
C32 C 0.7987(7) 0.5244(5) 0.5199(7)
H26 H 0.79900 0.57290 0.50290
C33 C 0.8595(6) 0.4777(7) 0.5060(7)
H27 H 0.90050 0.49490 0.47970
C34 C 0.8590(6) 0.4052(6) 0.5314(7)
H28 H 0.89970 0.37390 0.52210
C35 C 0.7977(7) 0.3795(5) 0.5708(7)
H29 H 0.79740 0.33100 0.58780
C36 C 0.7370(6) 0.4262(7) 0.5847(7)
H30 H 0.69600 0.40900 0.61110
C37 C 0.5944(6) 0.5764(8) 0.5055(5)
C38 C 0.6194(5) 0.5869(8) 0.4343(6)
H31 H 0.67110 0.58310 0.42500
C39 C 0.5671(6) 0.6030(8) 0.3770(5)
H32 H 0.58380 0.61000 0.32930
C40 C 0.4898(6) 0.6087(8) 0.3908(5)
H33 H 0.45480 0.61950 0.35240
C41 C 0.4647(5) 0.5982(8) 0.4620(6)
H34 H 0.41300 0.60200 0.47130
C42 C 0.5170(6) 0.5821(8) 0.5194(5)
H35 H 0.50030 0.57510 0.56700
C43 C 0.7080(6) 0.6462(5) 0.6065(7)
C44 C 0.6843(5) 0.7125(6) 0.5744(6)
H36 H 0.64380 0.71300 0.53970
C45 C 0.7212(6) 0.7780(5) 0.5940(6)
H37 H 0.70530 0.82230 0.57240
C46 C 0.7818(6) 0.7772(5) 0.6458(6)
H38 H 0.80640 0.82110 0.65890
C47 C 0.8055(5) 0.7110(6) 0.6779(6)
H39 H 0.84600 0.71050 0.71260
C48 C 0.7686(6) 0.6455(5) 0.6583(6)
H40 H 0.78450 0.60120 0.67980
P2 P 0.6623(2) 0.5614(2) 0.5812(2)
C49 C 0.8947(7) 0.2428(9) 0.0552(9)
C50 C 0.8940(7) 0.1899(8) -0.0005(10)
H41 H 0.85030 0.16140 -0.00860
C51 C 0.9557(8) 0.1781(8) -0.0444(9)
H42 H 0.95380 0.14200 -0.08100
C52 C 1.0207(7) 0.2213(9) -0.0327(9)
H43 H 1.06280 0.21390 -0.06160
C53 C 1.0233(6) 0.2722(8) 0.0187(9)
H44 H 1.06720 0.30090 0.02420
C54 C 0.9604(8) 0.2862(8) 0.0677(9)
H45 H 0.96380 0.32160 0.10490
C55 C 0.7454(8) 0.3155(9) 0.0588(8)
C56 C 0.7279(8) 0.3003(8) -0.0152(8)
H46 H 0.75370 0.26290 -0.03910
C57 C 0.6717(9) 0.3409(9) -0.0532(7)
H47 H 0.66000 0.33070 -0.10270
C58 C 0.6331(8) 0.3967(9) -0.0174(8)
H48 H 0.59560 0.42390 -0.04280
C59 C 0.6507(8) 0.4119(8) 0.0566(8)
H49 H 0.62480 0.44930 0.08060
C60 C 0.7068(9) 0.3713(10) 0.0946(7)
H50 H 0.71850 0.38150 0.14410
C61 C 0.8339(9) 0.2992(10) 0.1964(7)
C62 C 0.8710(9) 0.3671(9) 0.2002(7)
H51 H 0.87690 0.39470 0.15750
C63 C 0.8991(9) 0.3937(8) 0.2679(9)
H52 H 0.92390 0.43910 0.27040
C64 C 0.8902(9) 0.3525(9) 0.3317(7)
H53 H 0.90900 0.37030 0.37700
C65 C 0.8531(9) 0.2846(9) 0.3279(7)
H54 H 0.84710 0.25710 0.37070
C66 C 0.8250(9) 0.2580(8) 0.2603(8)
H55 H 0.80020 0.21260 0.25770
C67 C 0.7668(8) 0.1718(6) 0.1207(10)
C68 C 0.6876(8) 0.1674(6) 0.1156(10)
H56 H 0.65890 0.20860 0.10130
C69 C 0.6511(6) 0.1015(8) 0.1318(10)
H57 H 0.59810 0.09860 0.12840
C70 C 0.6939(8) 0.0399(6) 0.1532(10)
H58 H 0.66960 -0.00420 0.16410
C71 C 0.7732(8) 0.0443(6) 0.1583(10)
H59 H 0.80190 0.00310 0.17260
C72 C 0.8096(6) 0.1102(8) 0.142(1)
H60 H 0.86270 0.11310 0.14540
P3 P 0.8114(3) 0.2584(3) 0.1070(3)
C73 C 0.5165(7) 0.3303(7) 0.4377(6)
C74 C 0.4719(7) 0.3935(7) 0.4291(6)
H61 H 0.47610 0.42280 0.38730
C75 C 0.4211(7) 0.4128(6) 0.4831(7)
H62 H 0.39130 0.45510 0.47730
C76 C 0.4149(7) 0.3690(7) 0.5456(6)
H63 H 0.38090 0.38190 0.58170
C77 C 0.4595(7) 0.3058(7) 0.5541(6)
H64 H 0.45530 0.27650 0.59600
C78 C 0.5103(7) 0.2865(6) 0.5002(7)
H65 H 0.54010 0.24420 0.50590
C79 C 0.6378(9) 0.2321(7) 0.3969(8)
C80 C 0.6425(9) 0.1636(8) 0.3597(7)
H66 H 0.61120 0.15420 0.31820
C81 C 0.6953(10) 0.1093(7) 0.3861(8)
H67 H 0.69900 0.06440 0.36160
C82 C 0.7397(9) 0.1229(8) 0.4464(8)
H68 H 0.77520 0.08760 0.46240
C83 C 0.7344(9) 0.1871(8) 0.4850(7)
H69 H 0.76420 0.19390 0.52810
C84 C 0.6828(10) 0.2451(7) 0.4597(8)
H70 H 0.68000 0.28970 0.48500
C85 C 0.626(1) 0.3829(8) 0.3286(9)
C86 C 0.5945(9) 0.4193(9) 0.2676(9)
H71 H 0.55080 0.39950 0.24460
C87 C 0.6219(10) 0.4783(9) 0.2411(8)
H72 H 0.59510 0.50540 0.20500
C88 C 0.6935(10) 0.5007(8) 0.2683(9)
H73 H 0.71730 0.53980 0.24500
C89 C 0.7340(9) 0.4653(10) 0.3330(9)
H74 H 0.78000 0.48290 0.35330
C90 C 0.6950(11) 0.4005(9) 0.3616(8)
H75 H 0.71620 0.37260 0.40030
C91 C 0.5109(8) 0.270(1) 0.2900(7)
C92 C 0.5429(7) 0.2447(10) 0.2233(9)
H76 H 0.59560 0.24310 0.21850
C93 C 0.4960(9) 0.2233(10) 0.1680(7)
H77 H 0.51620 0.20530 0.12480
C94 C 0.4198(8) 0.2272(10) 0.1736(7)
H78 H 0.38920 0.20770 0.13530
C95 C 0.3851(7) 0.2577(11) 0.2315(9)
H79 H 0.33300 0.26790 0.22970
C96 C 0.4325(9) 0.2739(10) 0.2959(7)
H80 H 0.41100 0.28650 0.34040
P4 P 0.5739(3) 0.3021(3) 0.3638(3)
C97 C 0.6767(9) 0.8798(9) 0.9931(8)
C98 C 0.4834(9) 1.1808(8) 0.9339(7)
C99 C 0.7486(10) 1.0867(10) 0.7033(8)
C100 C 0.8200(8) 0.9370(9) 1.4990(8)
C101 C 1.0307(10) 0.6452(10) 1.4344(9)
C102 C 0.7453(9) 0.7346(9) 1.2042(8)
C103 C 0.5962(9) 0.9055(9) 0.9721(9)
C104 C 0.4913(8) 1.1528(8) 0.8528(8)
C105 C 0.7195(8) 1.0069(10) 0.7251(8)
C106 C 0.9002(8) 0.9106(9) 1.4798(8)
C107 C 1.0139(9) 0.6715(9) 1.3523(9)
C108 C 0.7720(8) 0.8128(8) 1.2272(7)
C109 C 0.5559(9) 0.9348(9) 1.0394(9)
C110 C 0.5179(9) 1.2191(9) 0.8053(7)
C111 C 0.7877(9) 0.9601(9) 0.7526(9)
C112 C 0.9464(8) 0.8829(11) 1.5517(9)
C113 C 0.9861(10) 0.6107(11) 1.3034(9)
C114 C 0.7034(8) 0.8614(8) 1.2520(8)
O1 O 0.7283(6) 0.8947(7) 0.9503(6)
O2 O 0.5152(7) 1.1418(7) 0.9846(6)
O3 O 0.7082(6) 1.1409(6) 0.7242(6)
O4 O 0.7669(6) 0.9158(7) 1.4560(6)
O5 O 1.0018(8) 0.6822(7) 1.4855(6)
O6 O 0.7844(7) 0.6807(6) 1.2289(7)
O7 O 0.6884(5) 0.8404(6) 1.0513(5)
O8 O 0.4428(6) 1.2363(5) 0.9459(5)
O9 O 0.8054(6) 1.0945(6) 0.6645(6)
O10 O 0.8076(5) 0.9734(6) 1.5562(5)
O11 O 1.0716(6) 0.5880(6) 1.4451(6)
O12 O 0.6871(6) 0.7283(6) 1.1624(5)
O13 O 0.5985(6) 0.9597(6) 0.9164(5)
O14 O 0.5447(6) 1.0961(6) 0.8510(5)
O15 O 0.6651(6) 1.0134(6) 0.7769(5)
O16 O 0.8989(5) 0.8598(6) 1.4254(5)
O17 O 0.9597(6) 0.7289(6) 1.3543(6)
O18 O 0.8293(5) 0.8098(6) 1.2807(5)
O19 O 0.5547(6) 0.8450(6) 0.9416(6)
H81 H 0.55380 0.81150 0.97210
O20 O 0.4219(6) 1.1242(6) 0.8283(6)
H82 H 0.38920 1.15650 0.82920
O21 O 0.6886(6) 0.9748(6) 0.6607(6)
H83 H 0.72120 0.97340 0.62940
O22 O 0.9392(6) 0.9760(6) 1.4533(6)
H84 H 0.94110 1.00740 1.48590
O23 O 1.0823(7) 0.7038(7) 1.3284(6)
H85 H 1.11580 0.67220 1.32740
O24 O 0.8038(6) 0.8459(6) 1.1644(6)
H86 H 0.77090 0.84880 1.13100
O25 O 0.5406(6) 0.8922(6) 1.0904(6)
O26 O 0.4757(6) 1.2734(6) 0.7966(6)
O27 O 0.7820(7) 0.9297(7) 0.8163(6)
O28 O 0.9576(6) 0.9277(7) 1.6025(6)
O29 O 1.0305(6) 0.5549(7) 1.2938(6)
O30 O 0.6490(6) 0.8744(6) 1.2094(5)
O31 O 0.5357(6) 1.0034(7) 1.0397(6)
O32 O 0.5808(6) 1.2099(7) 0.7739(6)
O33 O 0.8445(6) 0.9488(7) 0.7152(6)
O34 O 0.9649(7) 0.8171(7) 1.5489(6)
O35 O 0.9219(7) 0.6162(7) 1.2735(7)
O36 O 0.7099(6) 0.8845(7) 1.3199(6)
Cu1 Cu 0.69372(13) 0.95805(14) 0.86792(12)
Cu2 Cu 0.56111(13) 1.05332(13) 0.94901(12)
Cu3 Cu 0.63049(12) 1.11478(13) 0.79196(12)
Cu4 Cu 0.80276(13) 0.86189(17) 1.37050(13)
Cu5 Cu 0.94458(16) 0.76664(15) 1.45514(13)
Cu6 Cu 0.86839(13) 0.70681(13) 1.29550(14)
Zn1 Zn 0.60639(10) 0.80806(11) 1.12973(10)
Zn2 Zn 0.88863(11) 1.01352(11) 0.63458(11)
Br1 Br 0.71710(11) 1.10156(12) 0.92584(11)
Br2 Br 0.79656(13) 0.70412(13) 1.42520(12)
O37 O 0.8568(15) 0.9840(13) 1.3172(13)
H87 H 0.90390 0.96040 1.28960
H88 H 0.88170 1.01650 1.36550
O38 O 0.0873(19) 0.3218(14) 0.1990(19)
H89 H 0.11340 0.36080 0.19250
H90 H 0.06140 0.33350 0.23990
O39 O 0.0276(14) 0.8695(15) 0.3196(14)
O40 O 0.0681(16) 0.4244(18) 0.7942(18)
O41 O 0.6464(9) 0.2710(9) 0.6413(8)
O8A O 0.5572(6) 0.7363(5) 1.0541(5)
O10* O 0.8076(5) 0.9734(6) 0.5562(5)
O11A O 0.9284(6) 1.0880(6) 0.5549(6)
O26A O 0.5243(6) 0.7734(6) 1.2034(6)
O28* O 0.9576(6) 0.9277(7) 0.6025(6)
O29A O 0.9695(6) 1.0549(7) 0.7062(6)
Zn1A Zn 0.39361(10) 1.30806(11) 0.87027(10)
Zn2* Zn 0.88863(11) 1.01352(11) 1.63458(11)
Zn2A Zn 1.11137(11) 0.51352(11) 1.36542(11)
#END
