
#######################################################################
#
#                 Cambridge Crystallographic Data Centre
#                                CCDC
#
#######################################################################
#
# If this CIF has been generated from an entry in the Cambridge
# Structural Database, then it will include bibliographic, chemical,
# crystal, experimental, refinement or atomic coordinate data resulting
# from the CCDC's data processing and validation procedures.
#
#######################################################################

data_CSD_CIF_LATYOV
_audit_creation_date 2005-12-01
_audit_creation_method CSD-ConQuest-V1
_database_code_CSD LATYOV
_database_code_depnum_ccdc_archive 'CCDC 283100'
_chemical_formula_sum 'C72 H66 Cs2 N12 Ni12 O40 S12'
_chemical_formula_moiety
;
(C72 H50 Cs1 N12 Ni12 O32 S12 1-)n,n(Cs1 1+),8n(H2 O1)
;
_journal_coden_Cambridge 9
_journal_volume 44
_journal_year 2005
_journal_page_first 5981
_journal_name_full 'Inorg.Chem. '
loop_
_publ_author_name
"S.M.Humphrey"
"R.A.Mole"
"M.McPartlin"
"E.J.L.McInnes"
"P.T.Wood"
_chemical_name_systematic
;
catena-(Cesium 
dodecakis(\m~4~-6-mercaptonicotinato)-bis(\m~3~-hydroxo)-hexa-aqua-cesium-dode
ca-nickel(ii) octahydrate)
;
_cell_volume   2665.306
_exptl_crystal_colour 'green'
_exptl_crystal_density_diffrn 1.922
_exptl_crystal_description 'hexagonal rod'
_diffrn_ambient_temperature 180
_refine_special_details
;
One cesium ion is disordered over two positions with occupancy 0.11:0.06 and 
further disordered equally over small cavities within the structure (total 
occupancy 0.17); the remaining cavity space is filled with three disordered 
water solvent molecules having occupancy 0.33:0.25:0.25 (total occupancy 
0.83). All these atom positions are suppressed because of imposed disorder 
and this Cs ion shown as an isolated ion in the 2D diagram.
;
#These two values have been output from a single CSD field.
_refine_ls_R_factor_gt 0.0299
_refine_ls_wR_factor_gt 0.0299
_symmetry_cell_setting hexagonal
_symmetry_space_group_name_H-M 'P -3'
_symmetry_Int_Tables_number 147
loop_
_symmetry_equiv_pos_site_id
_symmetry_equiv_pos_as_xyz
1 x,y,z
2 -y,x-y,z
3 -x+y,-x,z
4 -x,-y,-z
5 y,-x+y,-z
6 x-y,x,-z
_cell_length_a 19.0136(3)
_cell_length_b 19.0136(3)
_cell_length_c 8.5131(2)
_cell_angle_alpha 90
_cell_angle_beta 90
_cell_angle_gamma 120
_cell_formula_units_Z 1
loop_
_atom_type_symbol
_atom_type_radius_bond
C 0.68
H 0.23
Cs 2.07
N 0.68
Ni 1.35
O 0.68
S 1.02
loop_
_atom_site_label
_atom_site_type_symbol
_atom_site_fract_x
_atom_site_fract_y
_atom_site_fract_z
Cs1 Cs 1.00000 1.00000 0.00000
Ni1 Ni 1.10085(3) 0.89340(3) 0.47883(7)
Ni2 Ni 1.35175(3) 0.77919(3) -0.09650(8)
S1 S 1.12017(6) 1.01177(6) 0.31952(13)
S2 S 1.21152(6) 0.98192(7) 0.65200(13)
N1 N 1.1731(2) 0.9115(2) 0.2897(4)
N2 N 1.3076(2) 1.0961(2) 0.4642(4)
O1 O 1.2792(2) 0.7910(2) 0.0847(5)
O2 O 1.3496(2) 0.8914(2) -0.0801(5)
O3 O 1.5133(2) 1.2558(2) 0.2396(5)
O4 O 1.5732(2) 1.1831(2) 0.2819(5)
O5 O 1.33330 0.66670 -0.0456(6)
H1 H 1.33330 0.66670 0.052(3)
O6 O 1.4512(3) 0.8292(3) 0.0545(8)
H2 H 1.48400 0.81590 0.01430
H3 H 1.43690 0.80880 0.14530
Cs2? Cs 1.6419(2) 1.1871(3) 0.5908(5)
Cs3? Cs 1.6540(5) 1.2170(5) 0.5903(11)
O7? O 1.6456(10) 1.2929(8) 0.7082(18)
O8? O 1.6370(13) 1.1502(15) 0.561(3)
O9? O 1.5665(14) 1.3186(15) 0.590(3)
O10 O 1.4937(5) 0.9765(5) 0.1758(11)
H4 H 1.45920 0.97380 0.24800
H5 H 1.49210 0.99640 0.08760
C1 C 1.2112(3) 0.8751(3) 0.2268(5)
H6 H 1.20320 0.82590 0.27190
C2 C 1.2620(3) 0.9070(3) 0.0974(6)
C3 C 1.2729(3) 0.9786(3) 0.0329(6)
H7 H 1.30780 1.00180 -0.05500
C4 C 1.2330(3) 1.0166(3) 0.0959(6)
H8 H 1.24080 1.06620 0.05320
C5 C 1.1813(3) 0.9800(3) 0.2234(5)
C6 C 1.2993(3) 0.8609(3) 0.0284(6)
C7 C 1.3751(3) 1.1465(3) 0.3861(6)
H9 H 1.37730 1.19070 0.33010
C8 C 1.4423(3) 1.1359(3) 0.3845(7)
C9 C 1.4374(4) 1.0715(4) 0.4687(10)
H10 H 1.48270 1.06310 0.47050
C10 C 1.3680(3) 1.0192(4) 0.5501(8)
H11 H 1.36450 0.97450 0.60660
C11 C 1.3030(3) 1.0336(3) 0.5472(5)
C12 C 1.5150(3) 1.1962(3) 0.2953(6)
Ni1A Ni 1.10660(3) 1.20745(3) 0.47883(7)
Ni1B Ni 0.79255(3) 0.89915(3) 0.47883(7)
Ni1C Ni 0.89915(3) 1.10660(3) -0.47883(7)
Ni1D Ni 0.89340(3) 0.79255(3) -0.47883(7)
Ni1E Ni 1.20745(3) 1.10085(3) -0.47883(7)
Ni1E* Ni 1.20745(3) 1.10085(3) 0.52117(7)
Ni1C* Ni 0.89915(3) 1.10660(3) 0.52117(7)
Ni1D* Ni 0.89340(3) 0.79255(3) 0.52117(7)
Ni1B* Ni 0.79255(3) 0.89915(3) -0.52117(7)
Ni1* Ni 1.10085(3) 0.89340(3) -0.52117(7)
Ni1A* Ni 1.10660(3) 1.20745(3) -0.52117(7)
Ni1B** Ni 1.79255(3) 0.89915(3) -0.52117(7)
Ni1C** Ni 1.89915(3) 1.10660(3) -0.47883(7)
Ni2A Ni 1.22081(3) 1.57256(3) -0.09650(8)
Ni2B Ni 0.42744(3) 0.64825(3) -0.09650(8)
Ni2C Ni 0.64825(3) 1.22081(3) 0.09650(8)
Ni2D Ni 0.77919(3) 0.42744(3) 0.09650(8)
Ni2E Ni 1.57256(3) 1.35175(3) 0.09650(8)
Ni2C* Ni 1.64825(3) 1.22081(3) 0.09650(8)
Ni2A* Ni 1.22081(3) 0.57256(3) -0.09650(8)
Ni2B* Ni 1.42744(3) 0.64825(3) -0.09650(8)
Ni2* Ni 1.35175(3) 0.77919(3) 0.90350(8)
Ni2A** Ni 1.22081(3) 0.57256(3) 0.90350(8)
Ni2D* Ni 0.77919(3) 1.42744(3) 0.09650(8)
Ni2A*** Ni 1.22081(3) 1.57256(3) 0.90350(8)
Ni2B** Ni 1.42744(3) 1.64825(3) 0.90350(8)
Ni2** Ni 1.35175(3) 1.77919(3) -0.09650(8)
Ni2B*** Ni 1.42744(3) 1.64825(3) -0.09650(8)
S1A S 0.98823(6) 1.10840(6) 0.31952(13)
S1B S 0.89160(6) 0.87983(6) 0.31952(13)
S1C S 0.87983(6) 0.98823(6) -0.31952(13)
S1D S 1.01177(6) 0.89160(6) -0.31952(13)
S1E S 1.10840(6) 1.12017(6) -0.31952(13)
S1D* S 1.01177(6) 0.89160(6) 0.68048(13)
S1E* S 1.10840(6) 1.12017(6) 0.68048(13)
S1C* S 0.87983(6) 0.98823(6) 0.68048(13)
S1A* S 0.98823(6) 1.10840(6) -0.68048(13)
S1B* S 0.89160(6) 0.87983(6) -0.68048(13)
S1* S 1.12017(6) 1.01177(6) -0.68048(13)
S2D S 0.98192(6) 0.77040(7) 0.34800(13)
S2D* S 0.98192(6) 0.77040(7) -0.65200(13)
S2C S 1.78848(6) 1.01808(7) -0.65200(13)
S2A S 1.01808(6) 1.22960(7) 0.65200(13)
S2E S 1.22960(6) 1.21152(7) 0.34800(13)
S2B S 0.77040(6) 0.78848(7) 0.65200(13)
S2C* S 0.78848(6) 1.01808(7) 0.34800(13)
S2A* S 1.01808(6) 1.22960(7) -0.34800(13)
S2C** S 0.78848(6) 1.01808(7) -0.65200(13)
S2B* S 0.77040(6) 0.78848(7) -0.34800(13)
S2* S 1.21152(6) 0.98192(7) -0.34800(13)
S2E* S 1.22960(6) 1.21152(7) -0.65200(13)
N1A N 1.0885(2) 1.2616(2) 0.2897(4)
N1B N 0.7384(2) 0.8269(2) 0.2897(4)
N1C N 0.8269(2) 1.0885(2) -0.2897(4)
N1D N 0.9115(2) 0.7384(2) -0.2897(4)
N1E N 1.2616(2) 1.1731(2) -0.2897(4)
N2D N 1.0961(2) 0.7885(2) 0.5358(4)
N2D* N 1.0961(2) 0.7885(2) -0.4642(4)
N2C N 1.6924(2) 0.9039(2) -0.4642(4)
N2A N 0.9039(2) 1.2115(2) 0.4642(4)
N2E N 1.2115(2) 1.3076(2) 0.5358(4)
N2C* N 0.6924(2) 0.9039(2) 0.5358(4)
N2A* N 0.9039(2) 1.2115(2) -0.5358(4)
N2B N 0.7885(2) 0.6924(2) -0.5358(4)
N2* N 1.3076(2) 1.0961(2) -0.5358(4)
O1A O 1.2090(2) 1.4882(2) 0.0847(5)
O1B O 0.5118(2) 0.7208(2) 0.0847(5)
O1C O 0.7208(2) 1.2090(2) -0.0847(5)
O1D O 0.7910(2) 0.5118(2) -0.0847(5)
O1E O 1.4882(2) 1.2792(2) -0.0847(5)
O2A O 1.1086(2) 1.4582(2) -0.0801(5)
O2B O 0.5418(2) 0.6504(2) -0.0801(5)
O2C O 0.6504(2) 1.1086(2) 0.0801(5)
O2D O 0.8914(2) 0.5418(2) 0.0801(5)
O2E O 1.4582(2) 1.3496(2) 0.0801(5)
O3D O 1.2558(2) 0.7425(2) 0.7604(5)
O3D* O 1.2558(2) 0.7425(2) -0.2396(5)
O3C O 1.4867(2) 0.7442(2) -0.2396(5)
O3A O 0.7442(2) 1.2575(2) 0.2396(5)
O3E O 1.2575(2) 1.5133(2) 0.7604(5)
O3E* O 1.2575(2) 1.5133(2) -0.2396(5)
O3C* O 0.4867(2) 0.7442(2) -0.2396(5)
O3B O 0.7425(2) 0.4867(2) 0.2396(5)
O4D O 1.1831(2) 0.6099(2) 0.7181(5)
O4D* O 1.1831(2) 0.6099(2) -0.2819(5)
O4C O 1.4268(2) 0.8169(2) -0.2819(5)
O4A O 0.8169(2) 1.3901(2) 0.2819(5)
O4E O 1.3901(2) 1.5732(2) 0.7181(5)
O4D** O 1.1831(2) 1.6099(2) -0.2819(5)
O4E* O 0.3901(2) 0.5732(2) -0.2819(5)
O4* O 0.5732(2) 1.1831(2) 0.2819(5)
O4A* O 0.8169(2) 0.3901(2) 0.2819(5)
O4B O 1.6099(2) 1.4268(2) 0.2819(5)
O5A O 1.33330 1.66660 -0.0456(6)
O5* O 0.33330 0.66670 -0.0456(6)
O5C O 0.66670 1.33330 0.0456(6)
O5C* O 0.66670 0.33330 0.0456(6)
O5C** O 1.66670 1.33330 0.0456(6)
H1A H 1.33330 1.66660 0.052(3)
H1* H 0.33330 0.66670 0.052(3)
H1C H 0.66670 1.33330 -0.052(3)
H1C* H 0.66670 0.33330 -0.052(3)
H1C** H 1.66670 1.33330 -0.052(3)
O6A O 1.1708(3) 1.6220(3) 0.0545(8)
O6B O 0.3780(3) 0.5488(3) 0.0545(8)
O6C O 0.5488(3) 1.1708(3) -0.0545(8)
O6D O 0.8292(3) 0.3780(3) -0.0545(8)
O6E O 1.6220(3) 1.4512(3) -0.0545(8)
H2A H 1.18410 1.66810 0.01430
H2B H 0.33190 0.51600 0.01430
H2C H 0.51600 1.18410 -0.01430
H2D H 0.81590 0.33190 -0.01430
H2E H 1.66810 1.48400 -0.01430
H3A H 1.19120 1.62810 0.14530
H3B H 0.37190 0.56310 0.14530
H3C H 0.56310 1.19120 -0.14530
H3D H 0.80880 0.37190 -0.14530
H3E H 1.62810 1.43690 -0.14530
C1A C 1.1249(3) 1.3361(3) 0.2268(5)
C1B C 0.6639(3) 0.7888(3) 0.2268(5)
C1C C 0.7888(3) 1.1249(3) -0.2268(5)
C1D C 0.8751(3) 0.6639(3) -0.2268(5)
C1E C 1.3361(3) 1.2112(3) -0.2268(5)
H6A H 1.17410 1.37730 0.27190
H6B H 0.62270 0.79680 0.27190
H6C H 0.79680 1.17410 -0.27190
H6D H 0.82590 0.62270 -0.27190
H6E H 1.37730 1.20320 -0.27190
C2A C 1.0930(3) 1.3550(3) 0.0974(6)
C2B C 0.6450(3) 0.7380(3) 0.0974(6)
C2C C 0.7380(3) 1.0930(3) -0.0974(6)
C2D C 0.9070(3) 0.6450(3) -0.0974(6)
C2E C 1.3550(3) 1.2620(3) -0.0974(6)
C3A C 1.0214(3) 1.2943(3) 0.0329(6)
C3B C 0.7057(3) 0.7271(3) 0.0329(6)
C3C C 0.7271(3) 1.0214(3) -0.0329(6)
C3D C 0.9786(3) 0.7057(3) -0.0329(6)
C3E C 1.2943(3) 1.2729(3) -0.0329(6)
H7A H 0.99820 1.30600 -0.05500
H7B H 0.69400 0.69220 -0.05500
H7C H 0.69220 0.99820 0.05500
H7D H 1.00180 0.69400 0.05500
H7E H 1.30600 1.30780 0.05500
C4A C 0.9834(3) 1.2164(3) 0.0959(6)
C4B C 0.7836(3) 0.7670(3) 0.0959(6)
C4C C 0.7670(3) 0.9834(3) -0.0959(6)
C4D C 1.0166(3) 0.7836(3) -0.0959(6)
C4E C 1.2164(3) 1.2330(3) -0.0959(6)
H8A H 0.93380 1.17460 0.05320
H8B H 0.82540 0.75920 0.05320
H8C H 0.75920 0.93380 -0.05320
H8D H 1.06620 0.82540 -0.05320
H8E H 1.17460 1.24080 -0.05320
C5A C 1.0200(3) 1.2013(3) 0.2234(5)
C5B C 0.7987(3) 0.8187(3) 0.2234(5)
C5C C 0.8187(3) 1.0200(3) -0.2234(5)
C5D C 0.9800(3) 0.7987(3) -0.2234(5)
C5E C 1.2013(3) 1.1813(3) -0.2234(5)
C6A C 1.1391(3) 1.4384(3) 0.0284(6)
C6B C 0.5616(3) 0.7007(3) 0.0284(6)
C6C C 0.7007(3) 1.1391(3) -0.0284(6)
C6D C 0.8609(3) 0.5616(3) -0.0284(6)
C6E C 1.4384(3) 1.2993(3) -0.0284(6)
C7D C 1.1465(3) 0.7714(3) 0.6139(6)
C7D* C 1.1465(3) 0.7714(3) -0.3861(6)
C7C C 1.6249(3) 0.8535(3) -0.3861(6)
C7A C 0.8535(3) 1.2286(3) 0.3861(6)
C7E C 1.2286(3) 1.3751(3) 0.6139(6)
H9D H 1.19070 0.81340 0.66990
H9D* H 1.19070 0.81340 -0.33010
H9C H 1.62270 0.80930 -0.33010
H9A H 0.80930 1.18660 0.33010
H9E H 1.18660 1.37730 0.66990
C8D C 1.1359(3) 0.6936(3) 0.6155(7)
C8D* C 1.1359(3) 0.6936(3) -0.3845(7)
C8C C 1.5577(3) 0.8641(3) -0.3845(7)
C8A C 0.8641(3) 1.3064(3) 0.3845(7)
C8E C 1.3064(3) 1.4423(3) 0.6155(7)
C9D C 1.0715(4) 0.6341(4) 0.5313(10)
C9D* C 1.0715(4) 0.6341(4) -0.4687(10)
C9C C 1.5626(4) 0.9285(4) -0.4687(10)
C9A C 0.9285(4) 1.3659(4) 0.4687(10)
C9E C 1.3659(4) 1.4374(4) 0.5313(10)
H10D H 1.06310 0.58040 0.52950
H10D* H 1.06310 0.58040 -0.47050
H10C H 1.51730 0.93690 -0.47050
H10A H 0.93690 1.41960 0.47050
H10E H 1.41960 1.48270 0.52950
C10D C 1.0192(3) 0.6512(4) 0.4499(8)
C10D* C 1.0192(3) 0.6512(4) -0.5501(8)
C10C C 1.6320(3) 0.9808(4) -0.5501(8)
C10A C 0.9808(3) 1.3488(4) 0.5501(8)
C10E C 1.3488(3) 1.3680(4) 0.4499(8)
H11D H 0.97450 0.61000 0.39340
H11D* H 0.97450 0.61000 -0.60660
H11C H 1.63550 1.02550 -0.60660
H11A H 1.02550 1.39000 0.60660
H11E H 1.39000 1.36450 0.39340
C11D C 1.0336(3) 0.7306(3) 0.4528(5)
C11D* C 1.0336(3) 0.7306(3) -0.5472(5)
C11C C 1.6970(3) 0.9664(3) -0.5472(5)
C11A C 0.9664(3) 1.2694(3) 0.5472(5)
C11E C 1.2694(3) 1.3030(3) 0.4528(5)
C12D C 1.1962(3) 0.6812(3) 0.7047(6)
C12D* C 1.1962(3) 0.6812(3) -0.2953(6)
C12C C 1.4850(3) 0.8038(3) -0.2953(6)
C12A C 0.8038(3) 1.3188(3) 0.2953(6)
C12E C 1.3188(3) 1.5150(3) 0.7047(6)
#END
