
#######################################################################
#
#                 Cambridge Crystallographic Data Centre
#                                CCDC
#
#######################################################################
#
# If this CIF has been generated from an entry in the Cambridge
# Structural Database, then it will include bibliographic, chemical,
# crystal, experimental, refinement or atomic coordinate data resulting
# from the CCDC's data processing and validation procedures.
#
#######################################################################

data_CSD_CIF_LAVBUH
_audit_creation_date 2012-05-09
_audit_creation_method CSD-ConQuest-V1
_database_code_CSD LAVBUH
_database_code_depnum_ccdc_archive 'CCDC 804785'
_chemical_formula_sum 'C24 H43 Cu1 N24 O40 P1 S6 W12'
_chemical_formula_moiety
;
(C24 H42 Cu1 N24 S6 2+)n,n(H1 O40 P1 W12 2-)
;
_journal_coden_Cambridge 155
_journal_volume 384
_journal_year 2012
_journal_page_first 62
_journal_name_full 'Inorg.Chim.Acta '
loop_
_publ_author_name
"Xiu-Li Wang"
"Qiang Gao"
"Ai-Xiang Tian"
"Hai-Liang Hu"
"Guo-Cheng Liu"
_chemical_name_systematic
;
catena-((\m~2~-1,4-bis(1-Methyl-5-mercapto-1,2,3,4-tetrazole)butane)-bis(1,4-b
is(1-methyl-5-mercapto-1,2,3,4-tetrazole)butane)-copper(ii) 
(\m~12~-phosphato)-(\m~2~-hydroxo)-tricosakis(\m~2~-oxo)-dodecaoxo-dodeca-tung
sten)
;
_cell_volume   1753.373
_exptl_crystal_density_diffrn 3.599
_exptl_special_details
;
isostructural with the molybdenum analogue

;
_diffrn_ambient_temperature 296
_refine_special_details
;
The phosphate moiety is disordered by symmetry.

;
#These two values have been output from a single CSD field.
_refine_ls_R_factor_gt 0.0773
_refine_ls_wR_factor_gt 0.0773
_symmetry_cell_setting triclinic
_symmetry_space_group_name_H-M 'P -1'
_symmetry_Int_Tables_number 2
loop_
_symmetry_equiv_pos_site_id
_symmetry_equiv_pos_as_xyz
1 x,y,z
2 -x,-y,-z
_cell_length_a 11.9972(14)
_cell_length_b 12.6118(15)
_cell_length_c 13.7326(16)
_cell_angle_alpha 106.531(2)
_cell_angle_beta 102.094(2)
_cell_angle_gamma 110.400(2)
_cell_formula_units_Z 1
loop_
_atom_type_symbol
_atom_type_radius_bond
C 0.68
H 0.23
Cu 1.32
N 0.68
O 0.68
P 1.05
S 1.02
W 1.38
loop_
_atom_site_label
_atom_site_type_symbol
_atom_site_fract_x
_atom_site_fract_y
_atom_site_fract_z
W1 W 0.87114(11) 0.9907(1) 0.23826(9)
W2 W 1.13436(12) 1.26097(10) 0.43773(10)
W3 W 0.95469(12) 1.26629(10) 0.61239(10)
W4 W 0.74155(10) 0.72585(10) 0.29792(9)
W5 W 0.69518(11) 0.99002(11) 0.41727(10)
W6 W 1.17355(12) 0.99095(11) 0.31911(10)
Cu1 Cu 0.50000 0.50000 0.00000
S1 S 0.7471(9) 0.2167(10) 0.111(1)
S2 S 0.5473(15) 0.2512(12) 0.4552(14)
S3 S 0.9765(9) 0.7529(10) -0.0331(9)
P1 P 1.00000 1.00000 0.50000
O1 O 0.884(3) 0.948(3) 0.403(3)
O2? O 0.933(3) 0.858(3) 0.456(3)
O3 O 1.029(3) 1.045(3) 0.412(3)
O4? O 0.907(3) 1.046(3) 0.537(3)
O5 O 0.705(3) 0.968(2) 0.547(2)
O6 O 1.028(2) 1.304(3) 0.5106(17)
O7 O 0.751(3) 1.016(2) 0.303(2)
O8 O 0.799(3) 1.163(2) 0.5005(19)
O9 O 1.205(2) 1.1614(18) 0.375(2)
O10 O 1.105(3) 0.8298(18) 0.3069(17)
O11 O 1.017(2) 0.9622(18) 0.232(2)
O12 O 0.877(2) 0.683(3) 0.2944(18)
O13 O 1.191(2) 1.381(2) 0.405(2)
O14 O 0.6195(18) 0.5986(18) 0.2000(15)
O15 O 0.982(2) 1.158(2) 0.3139(19)
O16 O 0.552(2) 0.9865(19) 0.3760(19)
O17 O 0.788(2) 0.8240(18) 0.219(2)
O18 O 1.254(2) 0.989(2) 0.2323(19)
O19 O 0.808(3) 0.987(3) 0.1157(18)
O20 O 0.658(2) 0.8231(19) 0.349(2)
O21 O 0.9337(19) 1.3915(17) 0.6649(16)
O22 O 1.252(2) 1.314(3) 0.575(2)
N1 N 0.661(2) 0.385(2) 0.077(2)
N2 N 0.575(3) 0.378(2) -0.007(2)
N3 N 0.527(3) 0.276(2) -0.087(2)
N4 N 0.576(2) 0.209(3) -0.050(2)
N5 N 0.539(3) 0.467(3) 0.572(3)
N6 N 0.582(5) 0.534(4) 0.676(4)
N7 N 0.622(4) 0.486(5) 0.738(4)
N8 N 0.622(4) 0.382(3) 0.672(3)
N9 N 0.758(2) 0.618(2) -0.0046(18)
N10 N 0.640(2) 0.614(2) -0.0239(17)
N11 N 0.629(2) 0.690(2) -0.069(2)
N12 N 0.742(2) 0.748(2) -0.0737(18)
C1 C 0.662(3) 0.276(3) 0.051(3)
C2 C 0.842(6) 0.332(6) 0.216(6)
H1 H 0.91430 0.31750 0.24450
H2 H 0.87320 0.40190 0.19640
C3 C 0.798(5) 0.361(4) 0.293(5)
H3 H 0.78200 0.42930 0.28610
H4 H 0.87170 0.39760 0.35800
C4 C 0.700(6) 0.301(6) 0.325(4)
H5 H 0.62930 0.24790 0.25770
H6 H 0.72560 0.24570 0.35040
C5 C 0.647(9) 0.341(9) 0.393(8)
H7 H 0.59570 0.37320 0.35740
H8 H 0.71590 0.41200 0.45360
C6 C 0.565(4) 0.369(4) 0.564(3)
C7 C 0.528(4) 0.071(3) -0.120(3)
H9 H 0.48030 0.05360 -0.19300
H10 H 0.47480 0.02270 -0.09080
H11 H 0.59890 0.05250 -0.11970
C8 C 0.658(4) 0.306(6) 0.707(4)
H12 H 0.66230 0.32370 0.78070
H13 H 0.74030 0.31830 0.70260
H14 H 0.59820 0.22290 0.66270
C9 C 0.821(3) 0.702(3) -0.034(2)
C10 C 1.023(4) 0.667(4) 0.034(3)
H15 H 1.11470 0.70360 0.06160
H16 H 0.99470 0.67520 0.09550
C11 C 0.976(4) 0.530(4) -0.031(3)
H17 H 0.88450 0.49040 -0.05590
H18 H 1.00220 0.51930 -0.09380
C12 C 0.765(3) 0.835(3) -0.126(2)
H19 H 0.68970 0.84610 -0.14880
H20 H 0.78680 0.80450 -0.18830
H21 H 0.83310 0.91280 -0.07620
W1A W 1.12886(11) 1.0093(1) 0.76174(9)
W2A W 0.86564(12) 0.73903(10) 0.56227(10)
W3A W 1.04531(12) 0.73371(10) 0.38761(10)
W4A W 1.25845(10) 1.27415(10) 0.70208(9)
W5A W 1.30482(11) 1.00998(11) 0.58273(10)
W6A W 0.82645(12) 1.00905(11) 0.68089(10)
Cu1* Cu 1.50000 0.50000 0.00000
S1A S 0.2529(9) 0.7833(10) -0.111(1)
S2A S 0.4527(15) 0.7488(12) -0.4552(14)
S3A S 1.0235(9) 0.2471(10) 0.0331(9)
O1A O 1.116(3) 1.052(3) 0.597(3)
O3A O 0.971(3) 0.955(3) 0.588(3)
O5A O 1.295(3) 1.032(2) 0.453(2)
O6A O 0.972(2) 0.696(3) 0.4894(17)
O7A O 1.249(3) 0.984(2) 0.697(2)
O8A O 1.201(3) 0.837(2) 0.4995(19)
O9A O 0.795(2) 0.8386(18) 0.625(2)
O10A O 0.895(3) 1.1702(18) 0.6931(17)
O11A O 0.983(2) 1.0378(18) 0.768(2)
O12A O 1.123(2) 1.317(3) 0.7056(18)
O13A O 0.809(2) 0.619(2) 0.595(2)
O14A O 1.3805(18) 1.4014(18) 0.8000(15)
O15A O 1.018(2) 0.842(2) 0.6861(19)
O16A O 1.448(2) 1.0135(19) 0.6240(19)
O17A O 1.212(2) 1.1760(18) 0.781(2)
O18A O 0.746(2) 1.011(2) 0.7677(19)
O19A O 1.192(3) 1.013(3) 0.8843(18)
O20A O 1.342(2) 1.1769(19) 0.651(2)
O21A O 1.0663(19) 0.6085(17) 0.3351(16)
O22A O 0.748(2) 0.686(3) 0.425(2)
N1A N 0.339(2) 0.615(2) -0.077(2)
N2A N 0.425(3) 0.622(2) 0.007(2)
N3A N 0.473(3) 0.724(2) 0.087(2)
N4A N 0.424(2) 0.791(3) 0.050(2)
N5A N 0.461(3) 0.533(3) -0.572(3)
N6A N 0.418(5) 0.466(4) -0.676(4)
N7A N 0.378(4) 0.514(5) -0.738(4)
N8A N 0.378(4) 0.618(3) -0.672(3)
N9A N 1.242(2) 0.382(2) 0.0046(18)
N10A N 1.360(2) 0.386(2) 0.0239(17)
N10A* N 0.360(2) 0.386(2) 0.0239(17)
N11A N 1.371(2) 0.310(2) 0.069(2)
N12A N 1.258(2) 0.252(2) 0.0737(18)
C1A C 0.338(3) 0.724(3) -0.051(3)
C2A C 0.158(6) 0.668(6) -0.216(6)
H1A H 0.08570 0.68250 -0.24450
H2A H 0.12680 0.59810 -0.19640
C3A C 0.202(5) 0.639(4) -0.293(5)
H3A H 0.21800 0.57070 -0.28610
H4A H 0.12830 0.60240 -0.35800
C4A C 0.300(6) 0.699(6) -0.325(4)
H5A H 0.37070 0.75210 -0.25770
H6A H 0.27440 0.75430 -0.35040
C5A C 0.353(9) 0.659(9) -0.393(8)
H7A H 0.40430 0.62680 -0.35740
H8A H 0.28410 0.58800 -0.45360
C6A C 0.435(4) 0.631(4) -0.564(3)
C7A C 0.472(4) 0.929(3) 0.120(3)
H9A H 0.51970 0.94640 0.19300
H10A H 0.52520 0.97730 0.09080
H11A H 0.40110 0.94750 0.11970
C8A C 0.342(4) 0.694(6) -0.707(4)
H12A H 0.33770 0.67630 -0.78070
H13A H 0.25970 0.68170 -0.70260
H14A H 0.40180 0.77710 -0.66270
C9A C 1.179(3) 0.298(3) 0.034(2)
C10A C 0.977(4) 0.333(4) -0.034(3)
H15A H 0.88530 0.29640 -0.06160
H16A H 1.00530 0.32480 -0.09550
C11A C 1.024(4) 0.470(4) 0.031(3)
H17A H 1.11550 0.50960 0.05590
H18A H 0.99780 0.48070 0.09380
C12A C 1.235(3) 0.165(3) 0.126(2)
H19A H 1.31030 0.15390 0.14880
H20A H 1.21320 0.19550 0.18830
H21A H 1.16690 0.08720 0.07620
#END
