
#######################################################################
#
#                 Cambridge Crystallographic Data Centre
#                                CCDC
#
#######################################################################
#
# If this CIF has been generated from an entry in the Cambridge
# Structural Database, then it will include bibliographic, chemical,
# crystal, experimental, refinement or atomic coordinate data resulting
# from the CCDC's data processing and validation procedures.
#
#######################################################################

data_CSD_CIF_LAVCAO
_audit_creation_date 2012-05-09
_audit_creation_method CSD-ConQuest-V1
_database_code_CSD LAVCAO
_database_code_depnum_ccdc_archive 'CCDC 804786'
_chemical_formula_sum 'C24 H43 Cu1 Mo12 N24 O40 P1 S6'
_chemical_formula_moiety
;
(C24 H42 Cu1 N24 S6 2+)n,n(H1 Mo12 O40 P1 2-)
;
_journal_coden_Cambridge 155
_journal_volume 384
_journal_year 2012
_journal_page_first 62
_journal_name_full 'Inorg.Chim.Acta '
loop_
_publ_author_name
"Xiu-Li Wang"
"Qiang Gao"
"Ai-Xiang Tian"
"Hai-Liang Hu"
"Guo-Cheng Liu"
_chemical_name_systematic
;
catena-((\m~2~-1,4-bis(1-Methyl-5-mercapto-1,2,3,4-tetrazole)butane)-bis(1,4-b
is(1-methyl-5-mercapto-1,2,3,4-tetrazole)butane)-copper(ii) 
(\m~12~-phosphato)-(\m~2~-hydroxo)-tricosakis(\m~2~-oxo)-dodecaoxo-dodeca-moly
bdenum)
;
_cell_volume   1749.748
_exptl_crystal_density_diffrn 2.605
_exptl_special_details
;
isostructural with the tungsten analogue

;
_diffrn_ambient_temperature 296
_refine_special_details
;
The phosphate moiety of the anion is disordered by symmetry.

;
#These two values have been output from a single CSD field.
_refine_ls_R_factor_gt 0.0795
_refine_ls_wR_factor_gt 0.0795
_symmetry_cell_setting triclinic
_symmetry_space_group_name_H-M 'P -1'
_symmetry_Int_Tables_number 2
loop_
_symmetry_equiv_pos_site_id
_symmetry_equiv_pos_as_xyz
1 x,y,z
2 -x,-y,-z
_cell_length_a 12.012(2)
_cell_length_b 12.536(2)
_cell_length_c 13.734(4)
_cell_angle_alpha 106.637(3)
_cell_angle_beta 101.958(3)
_cell_angle_gamma 110.130(2)
_cell_formula_units_Z 1
loop_
_atom_type_symbol
_atom_type_radius_bond
C 0.68
H 0.23
Cu 1.32
Mo 1.41
N 0.68
O 0.68
P 1.05
S 1.02
loop_
_atom_site_label
_atom_site_type_symbol
_atom_site_fract_x
_atom_site_fract_y
_atom_site_fract_z
Cu1 Cu 0.50000 0.00000 1.00000
Mo1 Mo 0.74828(12) 0.22394(12) 1.29488(10)
Mo2 Mo 1.14466(13) 0.75820(12) 1.43569(11)
Mo3 Mo 0.84023(14) 0.52677(12) 1.69098(11)
Mo4 Mo 0.86836(13) 0.49656(12) 1.24157(10)
Mo5 Mo 0.69267(12) 0.48159(12) 1.42163(11)
Mo6 Mo 0.95138(14) 0.76898(12) 1.59868(11)
P1 P 1.00000 0.50000 1.50000
S1 S 0.0264(4) -0.2534(5) 1.0358(4)
S2 S 0.2536(5) 0.2896(5) 0.8977(5)
S3 S 0.4522(8) 0.2484(6) 0.5477(7)
O1 O 0.6268(10) 0.0968(9) 1.2018(9)
O2 O 1.2012(12) 0.8780(11) 1.4007(11)
O3 O 0.7603(12) 0.5327(12) 1.7761(10)
O4 O 0.8046(15) 0.4853(13) 1.1182(9)
O5 O 0.5510(11) 0.4780(11) 1.3798(10)
O6 O 0.9267(12) 0.8919(10) 1.6496(9)
O7 O 0.9051(15) 0.5454(15) 1.5381(14)
O8 O 1.0264(15) 0.5375(16) 1.4071(13)
O9 O 0.8826(15) 0.4496(15) 1.4043(13)
O10 O 0.9352(17) 0.3573(15) 1.4577(14)
O11 O 0.9925(12) 0.5464(10) 1.7732(13)
O12 O 0.7061(15) 0.4743(11) 1.5532(10)
O13 O 1.2037(11) 0.6530(11) 1.3670(12)
O14 O 0.7510(14) 0.5127(11) 1.3043(12)
O15 O 0.7481(13) 0.1903(16) 1.4286(10)
O16 O 1.0269(13) 0.8041(17) 1.5036(10)
O17 O 0.7958(14) 0.6596(11) 1.4966(10)
O18 O 0.7900(14) 0.3206(11) 1.2211(12)
O19 O 0.8804(12) 0.1812(16) 1.2998(10)
O20 O 0.8981(14) 0.6812(12) 1.6923(10)
O21 O 0.9819(12) 0.6568(11) 1.3114(12)
O22 O 0.6605(14) 0.3207(11) 1.3522(12)
N1 N 0.2450(12) -0.1172(11) 1.0073(11)
N2 N 0.3583(12) -0.1162(10) 1.0246(9)
N3 N 0.3721(12) -0.1932(10) 1.067(1)
N4 N 0.2593(13) -0.2496(11) 1.0745(10)
N5 N 0.3345(13) 0.1166(13) 0.9285(13)
N6 N 0.4253(12) 0.1228(11) 1.0133(11)
N7 N 0.4804(13) 0.2291(12) 1.0895(11)
N8 N 0.4282(14) 0.2988(13) 1.0597(12)
N9 N 0.4624(16) 0.0366(16) 0.4276(14)
N10 N 0.430(2) -0.030(2) 0.3214(19)
N11 N 0.381(2) 0.016(2) 0.2639(17)
N12 N 0.3813(17) 0.1206(18) 0.3323(16)
C1 C 0.1807(14) -0.2039(13) 1.0367(12)
C2 C -0.0256(16) -0.1668(17) 0.9630(14)
H1 H 0.00200 -0.17510 0.90090
H2 H -0.11700 -0.20270 0.93670
C3 C 0.0241(17) -0.0335(18) 1.0315(14)
H3 H 0.11550 0.00360 1.05620
H4 H -0.00200 -0.02450 1.09450
C4 C 0.235(2) -0.3377(17) 1.1254(15)
H5 H 0.30750 -0.35360 1.14390
H6 H 0.16360 -0.41320 1.07630
H7 H 0.21750 -0.30470 1.18960
C5 C 0.3407(15) 0.2303(15) 0.9606(14)
C6 C 0.161(3) 0.169(3) 0.777(3)
H8 H 0.11960 0.09800 0.79230
H9 H 0.09570 0.18920 0.74340
C7 C 0.209(3) 0.135(3) 0.705(2)
H10 H 0.13900 0.09190 0.63700
H11 H 0.23090 0.07210 0.71930
C8 C 0.307(3) 0.201(2) 0.679(2)
H12 H 0.38080 0.23340 0.74300
H13 H 0.29280 0.27100 0.67500
C9 C 0.345(4) 0.161(3) 0.593(3)
H14 H 0.26740 0.11380 0.53130
H15 H 0.37480 0.10240 0.60570
C10 C 0.432(2) 0.132(2) 0.4312(19)
C11 C 0.468(2) 0.4287(18) 1.1260(15)
H16 H 0.53150 0.45260 1.19320
H17 H 0.39640 0.43980 1.13990
H18 H 0.50070 0.47890 1.08830
C12 C 0.339(3) 0.197(3) 0.293(3)
H19 H 0.34690 0.26580 0.35230
H20 H 0.25170 0.15080 0.24730
H21 H 0.38820 0.22730 0.25160
Cu1* Cu -0.50000 0.00000 1.00000
Mo1A Mo 1.25172(12) 0.77606(12) 1.70512(10)
Mo2A Mo 0.85534(13) 0.24180(12) 1.56431(11)
Mo3A Mo 1.15977(14) 0.47323(12) 1.30902(11)
Mo4A Mo 1.13164(13) 0.50344(12) 1.75843(10)
Mo5A Mo 1.30733(12) 0.51841(12) 1.57837(11)
Mo6A Mo 1.04862(14) 0.23102(12) 1.40132(11)
S1A S -0.0264(4) 0.2534(5) 0.9642(4)
S2A S 0.7464(5) -0.2896(5) 1.1023(5)
S3A S 0.5478(8) -0.2484(6) 1.4523(7)
O1A O 1.3732(10) 0.9032(9) 1.7982(9)
O2A O 0.7988(12) 0.1220(11) 1.5993(11)
O3A O 1.2397(12) 0.4673(12) 1.2239(10)
O4A O 1.1954(15) 0.5147(13) 1.8818(9)
O5A O 1.4490(11) 0.5220(11) 1.6202(10)
O6A O 1.0733(12) 0.1081(10) 1.3504(9)
O7A O 1.0949(15) 0.4546(15) 1.4619(14)
O8A O 0.9736(15) 0.4625(16) 1.5929(13)
O9A O 1.1174(15) 0.5504(15) 1.5957(13)
O10A O 1.0648(17) 0.6427(15) 1.5423(14)
O11A O 1.0075(12) 0.4536(10) 1.2268(13)
O12A O 1.2939(15) 0.5257(11) 1.4468(10)
O13A O 0.7963(11) 0.3470(11) 1.6330(12)
O14A O 1.2490(14) 0.4873(11) 1.6957(12)
O15A O 1.2519(13) 0.8097(16) 1.5714(10)
O16A O 0.9731(13) 0.1959(17) 1.4964(10)
O17A O 1.2042(14) 0.3404(11) 1.5034(10)
O18A O 1.2100(14) 0.6794(11) 1.7789(12)
O19A O 1.1196(12) 0.8188(16) 1.7002(10)
O20A O 1.1019(14) 0.3188(12) 1.3077(10)
O21A O 1.0181(12) 0.3432(11) 1.6886(12)
O22A O 1.3395(14) 0.6793(11) 1.6478(12)
N1A N -0.2450(12) 0.1172(11) 0.9927(11)
N2A N -0.3583(12) 0.1162(10) 0.9754(9)
N2A* N 0.6417(12) 0.1162(10) 0.9754(9)
N3A N -0.3721(12) 0.1932(10) 0.933(1)
N4A N -0.2593(13) 0.2496(11) 0.9255(10)
N5A N 0.6655(13) -0.1166(13) 1.0715(13)
N6A N 0.5747(12) -0.1228(11) 0.9867(11)
N7A N 0.5196(13) -0.2291(12) 0.9105(11)
N8A N 0.5718(14) -0.2988(13) 0.9403(12)
N9A N 0.5376(16) -0.0366(16) 1.5724(14)
N10A N 0.570(2) 0.030(2) 1.6786(19)
N11A N 0.619(2) -0.016(2) 1.7361(17)
N12A N 0.6187(17) -0.1206(18) 1.6677(16)
C1A C -0.1807(14) 0.2039(13) 0.9633(12)
C2A C 0.0256(16) 0.1668(17) 1.0370(14)
H1A H -0.00200 0.17510 1.09910
H2A H 0.11700 0.20270 1.06330
C3A C -0.0241(17) 0.0335(18) 0.9685(14)
H3A H -0.11550 -0.00360 0.94380
H4A H 0.00200 0.02450 0.90550
C4A C -0.235(2) 0.3377(17) 0.8746(15)
H5A H -0.30750 0.35360 0.85610
H6A H -0.16360 0.41320 0.92370
H7A H -0.21750 0.30470 0.81040
C5A C 0.6593(15) -0.2303(15) 1.0394(14)
C6A C 0.839(3) -0.169(3) 1.223(3)
H8A H 0.88040 -0.09800 1.20770
H9A H 0.90430 -0.18920 1.25660
C7A C 0.791(3) -0.135(3) 1.295(2)
H10A H 0.86100 -0.09190 1.36300
H11A H 0.76910 -0.07210 1.28070
C8A C 0.693(3) -0.201(2) 1.321(2)
H12A H 0.61920 -0.23340 1.25700
H13A H 0.70720 -0.27100 1.32500
C9A C 0.655(4) -0.161(3) 1.407(3)
H14A H 0.73260 -0.11380 1.46870
H15A H 0.62520 -0.10240 1.39430
C10A C 0.568(2) -0.132(2) 1.5688(19)
C11A C 0.532(2) -0.4287(18) 0.8740(15)
H16A H 0.46850 -0.45260 0.80680
H17A H 0.60360 -0.43980 0.86010
H18A H 0.49930 -0.47890 0.91170
C12A C 0.661(3) -0.197(3) 1.707(3)
H19A H 0.65310 -0.26580 1.64770
H20A H 0.74830 -0.15080 1.75270
H21A H 0.61180 -0.22730 1.74840
#END
