
#######################################################################
#
#                 Cambridge Crystallographic Data Centre
#                                CCDC
#
#######################################################################
#
# If this CIF has been generated from an entry in the Cambridge
# Structural Database, then it will include bibliographic, chemical,
# crystal, experimental, refinement or atomic coordinate data resulting
# from the CCDC's data processing and validation procedures.
#
#######################################################################

data_CSD_CIF_LAVZOA
_audit_creation_date 2017-04-07
_audit_creation_method CSD-ConQuest-V1
_database_code_CSD LAVZOA
_database_code_depnum_ccdc_archive 'CCDC 1469922'
_chemical_formula_sum 'C28 H38 O50 P8 U5'
_chemical_formula_moiety
;
(C28 H29 O46 P8 U5 1-)n,3n(H2 O1),n(H3 O1 1+)
;
_journal_coden_Cambridge 9
_journal_volume 56
_journal_year 2017
_journal_page_first 1669
_journal_name_full 'Inorg.Chem. '
loop_
_publ_author_name
"Chao Liu"
"Weiting Yang"
"Ning Qu"
"Lei-Jiao Li"
"Qing-Jiang Pan"
"Zhong-Ming Sun"
_chemical_name_systematic
;
catena-(oxonium bis(\m-trihydrogen 
5-carboxybenzene-1,3-diphosphonato)-(\m-dihydrogen 
5-carboxybenzene-1,3-diphosphonato)-(\m-hydrogen 
5-carboxybenzene-1,3-diphosphonato)-tetra-aqua-decaoxo-penta-uranium 
trihydrate)
;
_cell_volume   3185.813
_exptl_crystal_colour 'yellow'
_exptl_crystal_density_diffrn 2.723
_exptl_crystal_description 'block'
_diffrn_ambient_temperature 296
#These two values have been output from a single CSD field.
_refine_ls_R_factor_gt 0.0457
_refine_ls_wR_factor_gt 0.0457
_symmetry_cell_setting triclinic
_symmetry_space_group_name_H-M 'P -1'
_symmetry_Int_Tables_number 2
loop_
_symmetry_equiv_pos_site_id
_symmetry_equiv_pos_as_xyz
1 x,y,z
2 -x,-y,-z
_cell_length_a 14.3893(7)
_cell_length_b 14.7147(7)
_cell_length_c 15.3534(8)
_cell_angle_alpha 98.306(1)
_cell_angle_beta 93.876(1)
_cell_angle_gamma 96.296(1)
_cell_formula_units_Z 2
loop_
_atom_type_symbol
_atom_type_radius_bond
C 0.68
H 0.23
O 0.68
P 1.05
U 1.96
loop_
_atom_site_label
_atom_site_type_symbol
_atom_site_fract_x
_atom_site_fract_y
_atom_site_fract_z
U1 U 0.71786(3) -0.02219(3) 0.62443(3)
U2 U 0.69991(3) -0.02875(3) 0.88365(3)
U3 U 0.92651(3) -0.07461(3) 0.24699(3)
U4 U 0.60350(3) 0.60731(3) 0.74385(3)
U5 U 0.53466(3) -0.24140(3) 0.29560(3)
P1 P 0.6068(2) 0.4115(2) 0.8742(2)
P2 P 0.8378(2) 0.12724(19) 0.8296(2)
P3 P 0.5368(2) -0.2319(2) 0.9264(2)
P4 P 0.2760(2) 0.0053(2) 0.87743(19)
P5 P 0.4401(2) 0.15973(18) 0.31756(19)
P6 P 0.72782(19) -0.05594(19) 0.38256(18)
P7 P 0.9229(2) 0.1403(2) 0.5783(2)
P8 P 0.6529(2) 0.3810(2) 0.6182(2)
O1 O 0.7979(6) -0.0977(5) 0.6505(5)
O2 O 0.6360(6) 0.0538(6) 0.5986(6)
O3 O 0.7583(6) 0.0656(5) 0.7679(5)
O4 O 0.8381(6) 0.0783(6) 0.5948(6)
O5 O 0.7212(6) -0.0717(5) 0.4773(5)
O6 O 0.8249(6) 0.0961(6) 0.9193(6)
O7 O 0.9327(6) 0.1222(6) 0.7990(6)
O8 O 0.6188(6) 0.0489(6) 0.9144(6)
O9 O 0.7814(6) -0.1056(6) 0.8524(6)
O10 O 0.5984(6) -0.1467(6) 0.9129(6)
O11 O 0.5602(6) -0.3232(6) 0.8833(6)
O12 O 0.5420(7) -0.2313(7) 1.0303(6)
H1 H 0.56910 -0.18160 1.05560
O13 O 0.8632(6) -0.1831(6) 0.2058(6)
O14 O 0.9873(6) 0.0350(6) 0.2865(6)
O15 O 0.8303(5) -0.0455(6) 0.3635(5)
O16 O 0.6677(6) -0.1325(6) 0.3215(6)
O17 O 0.8786(8) 0.2833(8) 0.3710(12)
H2 H 0.91270 0.33230 0.37470
O18 O 0.4861(7) 0.5629(6) 0.7099(6)
O19 O 0.7205(7) 0.6510(7) 0.7775(7)
O20 O 0.2514(6) 0.0378(6) 0.9710(5)
O21 O 0.1966(6) 0.0042(6) 0.8092(5)
O22 O 0.3660(7) 0.0653(6) 0.8560(6)
H3 H 0.38060 0.10890 0.89610
O23 O 0.5880(7) -0.3209(7) 0.3509(8)
O24 O 0.4805(6) -0.1588(6) 0.2470(6)
O25 O 0.6530(7) 0.4794(6) 0.6579(6)
O26 O 0.6111(7) 0.5023(7) 0.8408(6)
O27 O 0.5287(7) 0.3391(7) 0.8369(9)
O28 O 0.5979(8) 0.4259(8) 0.9762(7)
H4 H 0.61660 0.47980 0.99720
O29 O 0.6091(7) 0.3076(6) 0.6670(8)
O30 O 0.6044(7) 0.3638(8) 0.5234(7)
H5 H 0.61650 0.40970 0.49970
O31 O 0.9852(9) 0.5791(8) 0.6139(14)
O32 O 1.0954(8) 0.4853(9) 0.6208(15)
O33 O 0.1968(9) -0.4302(9) 0.8511(15)
H6 H 0.14810 -0.46580 0.84680
O34 O 0.0941(12) -0.3273(12) 0.8434(11)
O35 O 0.9458(7) 0.1096(7) 0.4796(6)
H7 H 0.98270 0.14990 0.46470
O36 O 1.0101(6) 0.1418(6) 0.6366(6)
O37 O 1.0439(9) 0.4478(9) 0.8350(18)
O38 O 0.9478(13) 0.5571(13) 0.8382(12)
H8 H 0.99630 0.59270 0.84100
O39 O 0.3861(5) 0.0741(5) 0.2589(5)
O40 O 0.4341(6) 0.2464(5) 0.2789(6)
O41 O 0.3983(5) 0.1610(5) 0.4065(5)
O42 O 0.7690(7) 0.3758(7) 0.3598(9)
O43 O 0.9435(11) -0.0535(10) 0.0890(8)
O44 O 0.6327(11) 0.6411(8) 0.5916(8)
O45 O 0.6594(7) -0.2720(7) 0.1893(7)
O46 O 0.5115(6) -0.1518(7) 0.4351(6)
C1 C 0.7175(9) 0.3689(9) 0.8591(11)
C2 C 0.7284(8) 0.2746(7) 0.8507(8)
H9 H 0.67740 0.23090 0.85390
C3 C 0.8178(8) 0.2469(7) 0.8374(9)
C4 C 0.8938(9) 0.3117(10) 0.8357(14)
H10 H 0.95220 0.29260 0.82600
C5 C 0.8842(13) 0.4057(12) 0.8483(12)
C6 C 0.7944(11) 0.4362(12) 0.8599(11)
H11 H 0.78720 0.49880 0.86780
C7 C 0.9693(17) 0.4712(17) 0.8485(15)
C8 C 0.4175(7) -0.2160(8) 0.8958(8)
C9 C 0.3468(9) -0.2895(9) 0.8809(10)
H12 H 0.36040 -0.34960 0.88270
C10 C 0.2562(11) -0.2718(11) 0.8633(14)
C11 C 0.2356(9) -0.1834(9) 0.8558(10)
H13 H 0.17460 -0.17320 0.83970
C12 C 0.3063(9) -0.1110(8) 0.8725(7)
C13 C 0.3978(8) -0.1267(8) 0.8885(7)
H14 H 0.44610 -0.07820 0.89440
C14 C 0.1772(14) -0.3472(14) 0.8557(13)
C15 C 0.5619(7) 0.1464(7) 0.3343(7)
C16 C 0.5911(8) 0.0605(8) 0.3490(8)
H15 H 0.54690 0.00890 0.34670
C17 C 0.6862(7) 0.0534(8) 0.3671(7)
C18 C 0.7506(9) 0.1304(8) 0.3695(8)
H16 H 0.81430 0.12560 0.37920
C19 C 0.7221(9) 0.2141(8) 0.3578(9)
C20 C 0.6277(8) 0.2239(8) 0.3414(8)
H17 H 0.60900 0.28140 0.33520
C21 C 0.7934(10) 0.298(1) 0.3632(12)
C22 C 0.8920(8) 0.2547(8) 0.5878(9)
C23 C 0.7981(9) 0.2722(8) 0.5936(9)
H18 H 0.75110 0.22250 0.58780
C24 C 0.7740(9) 0.3614(8) 0.6078(10)
C25 C 0.8417(11) 0.435(1) 0.6131(14)
H19 H 0.82560 0.49490 0.62050
C26 C 0.9359(11) 0.4196(10) 0.6074(16)
C27 C 0.9609(10) 0.3299(9) 0.5934(13)
H20 H 1.02320 0.32060 0.58790
C28 C 1.0118(11) 0.5001(11) 0.6170(18)
O47 O 0.0695(13) 0.2282(13) 0.3997(12)
O48 O 0.6625(11) 0.6074(11) 0.0344(10)
O49 O 0.6393(12) 0.5131(12) 0.4402(11)
O50 O 0.0981(15) 0.2286(15) 0.2406(14)
U1A U 0.28214(3) 0.02219(3) 0.37557(3)
U2A U 0.30009(3) 0.02875(3) 0.11635(3)
U2A* U 0.30009(3) 0.02875(3) 1.11635(3)
U3A U 0.07349(3) 0.07461(3) 0.75301(3)
U3A* U 1.07349(3) 0.07461(3) 0.75301(3)
U4* U 0.60350(3) -0.39269(3) 0.74385(3)
U4A U 0.39650(3) 0.39269(3) 0.25615(3)
U5A U 0.46534(3) 0.24140(3) 0.70440(3)
O7A O 1.0673(6) -0.1222(6) 0.2010(6)
O11* O 0.5602(6) 0.6768(6) 0.8833(6)
O20A O 0.7486(6) -0.0378(6) 1.0290(5)
O21A O 0.8034(6) -0.0042(6) 0.1908(5)
O27A O 0.4713(7) -0.3391(7) 0.1631(9)
O29A O 0.3909(7) -0.3076(6) 0.3330(8)
O36A O 0.9899(6) -0.1418(6) 0.3634(6)
O39A O 0.6139(5) -0.0741(5) 0.7411(5)
O40A O 0.5659(6) 0.7536(5) 0.7211(6)
O41A O 0.6017(5) -0.1610(5) 0.5935(5)
#END
