
#######################################################################
#
#                 Cambridge Crystallographic Data Centre
#                                CCDC
#
#######################################################################
#
# If this CIF has been generated from an entry in the Cambridge
# Structural Database, then it will include bibliographic, chemical,
# crystal, experimental, refinement or atomic coordinate data resulting
# from the CCDC's data processing and validation procedures.
#
#######################################################################

data_CSD_CIF_LAVZIU
_audit_creation_date 2017-04-07
_audit_creation_method CSD-ConQuest-V1
_database_code_CSD LAVZIU
_database_code_depnum_ccdc_archive 'CCDC 1469921'
_chemical_formula_sum 'C48 H48 N4 O38 P8 U6'
_chemical_formula_moiety
;
(C28 H24 O36 P8 U6 4-)n,2(C10 H10 N2 2+),2(H2 O1)
;
_journal_coden_Cambridge 9
_journal_volume 56
_journal_year 2017
_journal_page_first 1669
_journal_name_full 'Inorg.Chem. '
loop_
_publ_author_name
"Chao Liu"
"Weiting Yang"
"Ning Qu"
"Lei-Jiao Li"
"Qing-Jiang Pan"
"Zhong-Ming Sun"
_chemical_name_systematic
;
catena-(bis(4,4'-bipyridinium) 
tetrakis(\m-5-methylbenzene-1,3-diphosphonato)-dodecaoxo-hexa-uranium 
dihydrate)
;
_cell_volume   3581.821
_exptl_crystal_colour 'yellow'
_exptl_crystal_density_diffrn 2.745
_exptl_crystal_description 'plate'
_diffrn_ambient_temperature 296
#These two values have been output from a single CSD field.
_refine_ls_R_factor_gt 0.0525
_refine_ls_wR_factor_gt 0.0525
_symmetry_cell_setting monoclinic
_symmetry_space_group_name_H-M 'P 21/c'
_symmetry_Int_Tables_number 14
loop_
_symmetry_equiv_pos_site_id
_symmetry_equiv_pos_as_xyz
1 x,y,z
2 -x,1/2+y,1/2-z
3 -x,-y,-z
4 x,-1/2-y,-1/2+z
_cell_length_a 11.9899(6)
_cell_length_b 17.4465(9)
_cell_length_c 17.2385(9)
_cell_angle_alpha 90
_cell_angle_beta 96.636(1)
_cell_angle_gamma 90
_cell_formula_units_Z 2
loop_
_atom_type_symbol
_atom_type_radius_bond
C 0.68
H 0.23
N 0.68
O 0.68
P 1.05
U 1.96
loop_
_atom_site_label
_atom_site_type_symbol
_atom_site_fract_x
_atom_site_fract_y
_atom_site_fract_z
U1 U 0.51256(4) 0.74000(2) 0.74228(3)
U2 U 0.74615(4) 0.497993(19) 0.77646(2)
U3 U 0.50000 0.50000 0.50000
U4 U 0.50000 0.00000 0.50000
P1 P 0.6736(3) 0.62760(15) 0.61915(17)
P2 P 0.6713(3) 0.86135(15) 0.40501(16)
P3 P 0.6445(3) 0.35825(15) 0.63443(16)
P4 P 0.6538(3) 0.14215(16) 0.40465(16)
O1 O 0.6162(8) 0.8050(5) 0.7175(5)
O2 O 0.4096(7) 0.6734(5) 0.7654(5)
O3 O 0.8935(7) 0.4922(4) 0.7849(5)
O4 O 0.5975(7) 0.5047(4) 0.7664(5)
O5 O 0.4263(8) 0.5194(4) 0.5817(5)
O6 O 0.6313(8) 0.0086(4) 0.5610(5)
O7 O 0.5724(8) 0.6551(4) 0.6549(5)
O8 O 0.7574(7) 0.5867(4) 0.6781(4)
O9 O 0.6429(8) 0.5774(4) 0.5475(5)
O10 O 0.5734(9) 0.9074(5) 0.4277(5)
O11 O 0.7588(7) 0.9118(4) 0.3731(5)
O12 O 0.6333(8) 0.7992(4) 0.3463(4)
O13 O 0.7353(7) 0.4033(4) 0.6840(4)
O14 O 0.5963(8) 0.4027(4) 0.5634(5)
O15 O 0.5532(7) 0.3317(4) 0.6808(5)
O16 O 0.5532(8) 0.0939(4) 0.4186(5)
O17 O 0.7424(7) 0.0953(4) 0.3697(4)
O18 O 0.6176(8) 0.2118(4) 0.3546(4)
C1 C 0.7416(11) 0.7101(6) 0.5830(6)
C2 C 0.6930(12) 0.7470(6) 0.5168(7)
H1 H 0.62820 0.72680 0.48940
C3 C 0.7393(10) 0.8139(6) 0.4903(6)
C4 C 0.8343(13) 0.8441(8) 0.5300(8)
H2 H 0.86370 0.88960 0.51300
C5 C 0.8892(13) 0.8061(8) 0.5980(8)
C6 C 0.8387(12) 0.7407(7) 0.6243(8)
H3 H 0.87010 0.71700 0.67010
C7 C 0.9949(17) 0.8366(11) 0.6421(11)
H4 H 1.01810 0.80350 0.68550
H5 H 0.98160 0.88720 0.66090
H6 H 1.05290 0.83860 0.60800
C8 C 0.7129(10) 0.2758(6) 0.5978(6)
C9 C 0.6659(11) 0.2420(6) 0.5293(7)
H7 H 0.59820 0.26040 0.50440
C10 C 0.7184(10) 0.1814(6) 0.4975(6)
C11 C 0.8154(12) 0.1524(6) 0.5347(7)
H8 H 0.84850 0.11000 0.51400
C12 C 0.8659(12) 0.1856(7) 0.6037(7)
C13 C 0.8117(12) 0.2461(6) 0.6355(7)
H9 H 0.84210 0.26710 0.68290
C14 C 0.9765(15) 0.1567(11) 0.6441(10)
H10 H 0.99730 0.18640 0.69040
H11 H 1.03340 0.16140 0.60960
H12 H 0.96890 0.10380 0.65810
C15 C 0.6480(14) 0.9510(8) 0.7884(8)
H13 H 0.57620 0.93380 0.79490
C16 C 0.7360(13) 0.9265(8) 0.8395(9)
H14 H 0.72430 0.89340 0.88010
C17 C 0.8440(14) 0.9517(9) 0.8300(8)
C18 C 0.8510(18) 0.9999(9) 0.7652(12)
H15 H 0.92140 1.01620 0.75430
C19 C 0.7639(18) 1.0220(16) 0.7208(14)
H16 H 0.77250 1.05590 0.68040
C20 C 0.9393(12) 0.9279(8) 0.8852(8)
C21 C 0.9399(16) 0.8638(10) 0.9336(12)
H17 H 0.87690 0.83230 0.92950
C22 C 1.0284(17) 0.8456(10) 0.9865(11)
H18 H 1.02600 0.80210 1.01740
C23 C 1.1241(13) 0.9521(9) 0.9485(9)
H19 H 1.18860 0.98220 0.95320
C24 C 1.0341(13) 0.9726(9) 0.8937(8)
H20 H 1.03840 1.01620 0.86310
N1 N 0.6605(14) 0.9975(7) 0.7311(9)
H21 H 0.60320 1.01230 0.70010
N2 N 1.1207(12) 0.8914(8) 0.9940(7)
H22 H 1.17660 0.88090 1.02820
O19 O 0.7280(9) 0.1379(6) 0.8893(6)
U1B U 0.48744(4) -0.74000(2) 0.25772(3)
U2B U 0.25385(4) -0.497993(19) 0.22354(2)
P1B P 0.3264(3) -0.62760(15) 0.38085(17)
P2B P 0.3287(3) -0.86135(15) 0.59499(16)
P3B P 0.3555(3) -0.35825(15) 0.36557(16)
P4B P 0.3462(3) -0.14215(16) 0.59535(16)
O1B O 0.3838(8) -0.8050(5) 0.2825(5)
O2B O 0.5904(7) -0.6734(5) 0.2346(5)
O3B O 0.1065(7) -0.4922(4) 0.2151(5)
O4B O 0.4025(7) -0.5047(4) 0.2336(5)
O6B O 0.3687(8) -0.0086(4) 0.4390(5)
O7B O 0.4276(8) -0.6551(4) 0.3451(5)
O8B O 0.2426(7) -0.5867(4) 0.3219(4)
O9B O 0.3571(8) -0.5774(4) 0.4525(5)
O10B O 0.4266(9) -0.9074(5) 0.5723(5)
O11B O 0.2412(7) -0.9118(4) 0.6269(5)
O12B O 0.3667(8) -0.7992(4) 0.6537(4)
O13B O 0.2647(7) -0.4033(4) 0.3160(4)
O14B O 0.4037(8) -0.4027(4) 0.4366(5)
O15B O 0.4468(7) -0.3317(4) 0.3192(5)
O16B O 0.4468(8) -0.0939(4) 0.5814(5)
O17B O 0.2576(7) -0.0953(4) 0.6303(4)
O18B O 0.3824(8) -0.2118(4) 0.6454(4)
C1B C 0.2584(11) -0.7101(6) 0.4170(6)
C2B C 0.3070(12) -0.7470(6) 0.4832(7)
H1B H 0.37180 -0.72680 0.51060
C3B C 0.2607(10) -0.8139(6) 0.5097(6)
C4B C 0.1657(13) -0.8441(8) 0.4700(8)
H2B H 0.13630 -0.88960 0.48700
C5B C 0.1108(13) -0.8061(8) 0.4020(8)
C6B C 0.1613(12) -0.7407(7) 0.3757(8)
H3B H 0.12990 -0.71700 0.32990
C7B C 0.0051(17) -0.8366(11) 0.3579(11)
H4B H -0.01810 -0.80350 0.31450
H5B H 0.01840 -0.88720 0.33910
H6B H -0.05290 -0.83860 0.39200
C8B C 0.2871(10) -0.2758(6) 0.4022(6)
C9B C 0.3341(11) -0.2420(6) 0.4707(7)
H7B H 0.40180 -0.26040 0.49560
C10B C 0.2816(10) -0.1814(6) 0.5025(6)
C11B C 0.1846(12) -0.1524(6) 0.4653(7)
H8B H 0.15150 -0.11000 0.48600
C12B C 0.1341(12) -0.1856(7) 0.3963(7)
C13B C 0.1883(12) -0.2461(6) 0.3645(7)
H9B H 0.15790 -0.26710 0.31710
C14B C 0.0235(15) -0.1567(11) 0.3559(10)
H10B H 0.00270 -0.18640 0.30960
H11B H -0.03340 -0.16140 0.39040
H12B H 0.03110 -0.10380 0.34190
O5B O 0.5737(8) 0.4806(4) 0.4183(5)
U1* U 0.51256(4) -0.26000(2) 0.74228(3)
U1A U 0.48744(4) -0.76000(2) 0.75772(3)
U1A* U 0.48744(4) 0.24000(2) 0.75772(3)
U1B* U 0.48744(4) 0.26000(2) 0.25772(3)
U1C U 0.51256(4) -0.24000(2) 0.24228(3)
U1C* U 0.51256(4) 0.76000(2) 0.24228(3)
U2A U 0.25385(4) -1.002007(19) 0.72354(2)
U2A* U 0.25385(4) -0.002007(19) 0.72354(2)
U2C U 0.74615(4) 0.002007(19) 0.27646(2)
U2C* U 0.74615(4) 1.002007(19) 0.27646(2)
U3* U 0.50000 -0.50000 0.50000
U4* U 0.50000 -1.00000 0.50000
U4** U 0.50000 1.00000 0.50000
O9B* O 0.3571(8) 0.4226(4) 0.4525(5)
O10* O 0.5734(9) -0.0926(5) 0.4277(5)
O10B* O 0.4266(9) 0.0926(5) 0.5723(5)
O11A O 0.2412(7) -0.5882(4) 0.1269(5)
O11C O 0.7588(7) 0.5882(4) 0.8731(5)
O12A O 0.3667(8) -0.7008(4) 0.1537(4)
O12C O 0.6333(8) 0.7008(4) 0.8463(4)
O14B* O 0.4037(8) 0.5973(4) 0.4366(5)
O15A O 0.4468(7) 0.8317(4) 0.8192(5)
O15C O 0.5532(7) -0.8317(4) 0.1808(5)
O17A O 0.2576(7) -0.4047(4) 0.1303(4)
O17C O 0.7424(7) 0.4047(4) 0.8697(4)
O18* O 0.6176(8) -0.7882(4) 0.3546(4)
O18B* O 0.3824(8) 0.7882(4) 0.6454(4)
#END
