
#######################################################################
#
#                 Cambridge Crystallographic Data Centre
#                                CCDC
#
#######################################################################
#
# If this CIF has been generated from an entry in the Cambridge
# Structural Database, then it will include bibliographic, chemical,
# crystal, experimental, refinement or atomic coordinate data resulting
# from the CCDC's data processing and validation procedures.
#
#######################################################################

data_CSD_CIF_LAZJIH
_audit_creation_date 2012-12-31
_audit_creation_method CSD-ConQuest-V1
_database_code_CSD LAZJIH
_database_code_depnum_ccdc_archive 'CCDC 895182'
_chemical_formula_sum 'C45 H32 N4 O20 Zn2'
_chemical_formula_moiety
;
(C25 H28 N4 O4 4+)n,2n(C10 H2 O8 Zn1 2-)
;
_journal_coden_Cambridge 1147
_journal_volume 12
_journal_year 2012
_journal_page_first 3426
_journal_name_full 'Cryst.Growth Des. '
loop_
_publ_author_name
"Jin-Song Hu"
"Xiao-Qiang Yao"
"Ming-Dao Zhang"
"Ling Qin"
"Yi-Zhi Li"
"Zi-Jian Guo"
"He-Gen Zheng"
"Zi-Ling Xue"
_chemical_name_systematic
;
catena-[tetrakis(4-Pyridiniooxymethyl)methane 
(\m~4~-benzene-1,3-dicarboxylato)-zinc]
;
_cell_volume   7836.561
_exptl_crystal_colour 'colorless'
_exptl_crystal_density_diffrn 1.83
_exptl_crystal_description 'block'
_diffrn_ambient_temperature 291
#These two values have been output from a single CSD field.
_refine_ls_R_factor_gt 0.0419
_refine_ls_wR_factor_gt 0.0419
_symmetry_cell_setting tetragonal
_symmetry_space_group_name_H-M 'I 41/a c d'
_symmetry_Int_Tables_number 142
loop_
_symmetry_equiv_pos_site_id
_symmetry_equiv_pos_as_xyz
1 x,y,z
2 1/2-x,-y,1/2+z
3 1/4-y,3/4+x,1/4+z
4 1/4+y,1/4-x,3/4+z
5 1/2-x,y,-z
6 x,-y,1/2-z
7 1/4+y,3/4+x,3/4-z
8 1/4-y,1/4-x,1/4-z
9 1/2+x,1/2+y,1/2+z
10 -x,1/2-y,z
11 3/4-y,1/4+x,3/4+z
12 3/4+y,3/4-x,1/4+z
13 -x,1/2+y,1/2-z
14 1/2+x,1/2-y,-z
15 3/4+y,1/4+x,1/4-z
16 3/4-y,3/4-x,3/4-z
17 -x,-y,-z
18 -1/2+x,y,-1/2-z
19 -1/4+y,-3/4-x,-1/4-z
20 -1/4-y,-1/4+x,-3/4-z
21 -1/2+x,-y,z
22 -x,y,-1/2+z
23 -1/4-y,-3/4-x,-3/4+z
24 -1/4+y,-1/4+x,-1/4+z
25 -1/2-x,-1/2-y,-1/2-z
26 x,-1/2+y,-z
27 -3/4+y,-1/4-x,-3/4-z
28 -3/4-y,-3/4+x,-1/4-z
29 x,-1/2-y,-1/2+z
30 -1/2-x,-1/2+y,z
31 -3/4-y,-1/4-x,-1/4+z
32 -3/4+y,-3/4+x,-3/4+z
_cell_length_a 16.1936(9)
_cell_length_b 16.1936(9)
_cell_length_c 29.884(3)
_cell_angle_alpha 90
_cell_angle_beta 90
_cell_angle_gamma 90
_cell_formula_units_Z 8
loop_
_atom_type_symbol
_atom_type_radius_bond
C 0.68
H 0.23
N 0.68
O 0.68
Zn 1.22
loop_
_atom_site_label
_atom_site_type_symbol
_atom_site_fract_x
_atom_site_fract_y
_atom_site_fract_z
C1 C 0.25000 0.3049(3) 0.00000
H1 H 0.25000 0.36230 0.00000
C2 C 0.2579(2) 0.2630(2) 0.04035(11)
C3 C 0.2570(2) 0.1766(2) 0.04037(12)
C4 C 0.25000 0.1375(3) 0.00000
H2 H 0.25000 0.08010 0.00000
C5 C 0.2749(2) 0.3165(2) 0.08104(11)
C6 C 0.25849(19) 0.12604(19) 0.08238(11)
C7 C 0.00000 0.25000 0.12500
C8 C 0.0681(2) 0.2335(3) 0.15920(12)
H3 H 0.12290 0.24540 0.14780
H4 H 0.06600 0.17810 0.17150
C9 C 0.0835(3) 0.2933(3) 0.23327(14)
C10 C 0.1415(2) 0.3507(2) 0.24318(12)
H5 H 0.15280 0.39370 0.22350
C11 C 0.1836(2) 0.3437(2) 0.28328(12)
H6 H 0.22280 0.38320 0.29100
C12 C 0.1120(2) 0.2263(2) 0.30215(12)
H7 H 0.10160 0.18470 0.32280
C13 C 0.0686(2) 0.2297(3) 0.26339(12)
H8 H 0.02910 0.18970 0.25700
N1 N 0.16887(19) 0.28242(17) 0.31035(10)
H9 H 0.19740 0.27840 0.33450
O1 O 0.22018(14) 0.37120(14) 0.08873(8)
O2 O 0.33923(14) 0.30651(15) 0.10205(8)
O3 O 0.27539(14) 0.05000(15) 0.07609(8)
O4 O 0.24344(15) 0.15697(15) 0.11884(8)
O5 O 0.03618(16) 0.29922(16) 0.19157(8)
Zn1 Zn 0.22251(2) 0.47251(2) 0.12500
C2D C 0.2421(2) 0.2630(2) -0.04035(11)
C3D C 0.2430(2) 0.1766(2) -0.04037(12)
C5D C 0.2251(2) 0.3165(2) -0.08104(11)
C6D C 0.24151(19) 0.12604(19) -0.08238(11)
C8G C 0.0165(2) 0.1819(3) 0.09080(12)
C8I C -0.0681(2) 0.2665(3) 0.15920(12)
C8N C -0.0165(2) 0.3181(3) 0.09080(12)
H3G H 0.00460 0.12710 0.10220
H3I H -0.12290 0.25460 0.14780
H3N H -0.00460 0.37290 0.10220
H4G H 0.07190 0.18400 0.07850
H4I H -0.06600 0.32190 0.17150
H4N H -0.07190 0.31600 0.07850
C9G C -0.0433(3) 0.1665(3) 0.01673(14)
C9I C -0.0835(3) 0.2067(3) 0.23327(14)
C9N C 0.0433(3) 0.3335(3) 0.01673(14)
C10G C -0.1007(2) 0.1085(2) 0.00682(12)
C10I C -0.1415(2) 0.1493(2) 0.24318(12)
C10N C 0.1007(2) 0.3915(2) 0.00682(12)
H5G H -0.14370 0.09720 0.02650
H5I H -0.15280 0.10630 0.22350
H5N H 0.14370 0.40280 0.02650
C11G C -0.0937(2) 0.0664(2) -0.03328(12)
C11I C -0.1836(2) 0.1563(2) 0.28328(12)
C11N C 0.0937(2) 0.4336(2) -0.03328(12)
H6G H -0.13320 0.02720 -0.04100
H6I H -0.22280 0.11680 0.29100
H6N H 0.13320 0.47280 -0.04100
C12G C 0.0237(2) 0.1380(2) -0.05215(12)
C12I C -0.1120(2) 0.2737(2) 0.30215(12)
C12N C -0.0237(2) 0.3620(2) -0.05215(12)
H7G H 0.06530 0.14840 -0.07280
H7I H -0.10160 0.31530 0.32280
H7N H -0.06530 0.35160 -0.07280
C13G C 0.0203(2) 0.1814(3) -0.01339(12)
C13I C -0.0686(2) 0.2703(3) 0.26339(12)
C13N C -0.0203(2) 0.3186(3) -0.01339(12)
H8G H 0.06030 0.22090 -0.00700
H8I H -0.02910 0.31030 0.25700
H8N H -0.06030 0.27910 -0.00700
N1G N -0.03242(19) 0.08113(17) -0.06035(10)
N1I N -0.16887(19) 0.21758(17) 0.31035(10)
N1N N 0.03242(19) 0.41887(17) -0.06035(10)
H9G H -0.02840 0.05260 -0.08450
H9I H -0.19740 0.22160 0.33450
H9N H 0.02840 0.44740 -0.08450
O1D O 0.27982(14) 0.37120(14) -0.08873(8)
O1N O 0.12120(14) 0.47018(14) 0.16127(8)
O2D O 0.16077(14) 0.30651(15) -0.10205(8)
O3D O 0.22461(14) 0.05000(15) -0.07609(8)
O3Z O 0.30000(14) 0.47461(15) 0.17391(8)
O3CA O 0.22461(14) 0.55000(15) 0.07609(8)
O4D O 0.25656(15) 0.15697(15) -0.11884(8)
O5G O -0.04922(16) 0.21382(16) 0.05843(8)
O5I O -0.03618(16) 0.20078(16) 0.19157(8)
O5N O 0.04922(16) 0.28618(16) 0.05843(8)
Zn1D Zn 0.27749(2) 0.47251(2) -0.12500
Zn1S Zn 0.27749(2) -0.02749(2) 0.12500
Zn1W Zn 0.22251(2) -0.02749(2) -0.12500
#END
