
#######################################################################
#
#                 Cambridge Crystallographic Data Centre
#                                CCDC
#
#######################################################################
#
# If this CIF has been generated from an entry in the Cambridge
# Structural Database, then it will include bibliographic, chemical,
# crystal, experimental, refinement or atomic coordinate data resulting
# from the CCDC's data processing and validation procedures.
#
#######################################################################

data_CSD_CIF_LAZYAP
_audit_creation_date 2017-08-22
_audit_creation_method CSD-ConQuest-V1
_database_code_CSD LAZYAP
_database_code_depnum_ccdc_archive 'CCDC 1557196'
_chemical_formula_sum 'C48 H36 Ag12 N8 O60 V2 W12'
_chemical_formula_moiety
;
(C12 H8 Ag3 N2 O4 1+)4n,n(O2 V1),2n(H2 O1),n(O40 V1 W12 4-)
;
_journal_coden_Cambridge 1295
_journal_volume 84
_journal_year 2017
_journal_page_first 168
_journal_name_full 'Inorg.Chem.Commun. '
loop_
_publ_author_name
"Xiu-Li Wang"
"Ge Song"
"Hong-Yan Lin"
"Xiang Wang"
"Guo-Cheng Liu"
"Xing Rong"
_chemical_name_systematic
;
catena-(tetrakis(bis(\m-isonicotinato)-tri-silver) 
octacosakis(\m-oxo)-dodecaoxo-dodeca-tungsten-vanadium dioxo-vanadium 
dihydrate)
;
_cell_volume   5524.600
_exptl_crystal_colour 'brown yellow'
_exptl_crystal_description 'block'
_diffrn_ambient_temperature 293
_refine_special_details
;
The structure is disordered. The SQUEEZE/PLATON program has been used to 
model some disorder.
;
#These two values have been output from a single CSD field.
_refine_ls_R_factor_gt 0.0796
_refine_ls_wR_factor_gt 0.0796
_symmetry_cell_setting monoclinic
_symmetry_space_group_name_H-M 'C 2/m'
_symmetry_Int_Tables_number 12
loop_
_symmetry_equiv_pos_site_id
_symmetry_equiv_pos_as_xyz
1 x,y,z
2 -x,y,-z
3 1/2+x,1/2+y,z
4 1/2-x,1/2+y,-z
5 -x,-y,-z
6 x,-y,z
7 -1/2-x,-1/2-y,-z
8 -1/2+x,-1/2-y,z
_cell_length_a 12.779(5)
_cell_length_b 24.385(5)
_cell_length_c 18.269(5)
_cell_angle_alpha 90
_cell_angle_beta 103.967(5)
_cell_angle_gamma 90
_cell_formula_units_Z 2
loop_
_atom_type_symbol
_atom_type_radius_bond
C 0.68
H 0.23
Ag 1.45
N 0.68
O 0.68
V 1.53
W 1.62
loop_
_atom_site_label
_atom_site_type_symbol
_atom_site_fract_x
_atom_site_fract_y
_atom_site_fract_z
W1 W 0.76485(8) 0.00000 -0.15052(6)
O1 O 0.652(2) 0.00000 -0.2209(16)
O2 O 0.9546(19) 0.00000 -0.0829(14)
O3 O 0.7307(13) 0.0538(7) -0.0859(9)
O4 O 0.8483(13) 0.0552(7) -0.1842(9)
O5 O 0.8782(18) 0.00000 -0.0259(12)
O6 O 1.0456(12) 0.0515(7) -0.0387(9)
V1 V 1.00000 0.00000 0.00000
W2 W 0.76754(7) 0.07233(4) 0.01856(6)
W3 W 0.99738(7) 0.07290(3) -0.16923(4)
W4 W 1.00000 0.14360(5) 0.00000
O7 O 0.7328(19) 0.00000 0.0404(13)
O8 O 0.6587(13) 0.1071(7) 0.0268(9)
O9 O 0.8533(14) 0.0762(7) 0.1188(10)
O10 O 0.8523(13) 0.1297(8) -0.0078(9)
O11 O 0.9962(14) 0.1083(7) -0.2463(10)
O12 O 0.9719(13) 0.1287(8) -0.1037(10)
O13 O 1.0211(18) 0.00000 -0.1971(13)
O14 O 1.00000 0.2129(10) 0.00000
Ag1 Ag 1.00000 0.31908(8) 0.00000
Ag2 Ag 1.00000 0.25346(16) 0.50000
Ag3 Ag 1.00000 0.36956(17) 0.50000
N1 N 1.0083(15) 0.3191(8) 0.1193(9)
O15 O 1.0133(14) 0.3660(7) 0.3834(8)
O16 O 1.0208(13) 0.2751(7) 0.3870(8)
C1 C 1.0093(17) 0.3661(10) 0.1564(11)
H1 H 1.00660 0.39880 0.12990
C2 C 1.0141(18) 0.3684(10) 0.2309(11)
H2 H 1.01510 0.40230 0.25430
C3 C 1.0175(18) 0.3205(10) 0.2737(11)
C4 C 1.0195(18) 0.2701(10) 0.2354(11)
H3 H 1.02310 0.23700 0.26120
C5 C 1.0160(17) 0.2707(10) 0.1585(11)
H4 H 1.01880 0.23780 0.13340
C6 C 1.0187(19) 0.3185(10) 0.3564(12)
O17 O 1.00000 0.1571(15) 0.50000
Ag4 Ag 0.7601(2) 0.19297(10) 0.50014(11)
Ag5 Ag 0.75000 0.25000 0.00000
N2 N 0.7618(15) 0.2529(8) 0.1180(9)
O18 O 0.7550(13) 0.2994(7) 0.3814(8)
O19 O 0.7858(13) 0.2086(7) 0.3882(8)
C7 C 0.7487(17) 0.2993(10) 0.1543(11)
H5 H 0.73650 0.33180 0.12690
C8 C 0.7526(18) 0.301(1) 0.2309(11)
H6 H 0.74320 0.33390 0.25420
C9 C 0.7708(18) 0.2529(10) 0.2716(11)
C10 C 0.7861(18) 0.2063(10) 0.2348(11)
H7 H 0.80110 0.17360 0.26160
C11 C 0.7800(18) 0.2065(10) 0.1606(12)
H8 H 0.78870 0.17350 0.13710
C12 C 0.7723(18) 0.2542(10) 0.3542(11)
O20 O 0.743(2) 0.0950(11) 0.5140(15)
V2 V 0.50000 0.00000 0.00000
O21 O 0.529(2) 0.00000 0.1140(18)
O3E O 0.7307(13) -0.0538(7) -0.0859(9)
O4E O 0.8483(13) -0.0552(7) -0.1842(9)
O6E O 1.0456(12) -0.0515(7) -0.0387(9)
W2E W 0.76754(7) -0.07233(4) 0.01856(6)
W3E W 0.99738(7) -0.07290(3) -0.16923(4)
W2A W 1.23246(7) 0.07233(4) -0.01856(6)
O6A O 0.9544(12) 0.0515(7) 0.0387(9)
O2A O 1.0454(19) 0.00000 0.0829(14)
O5A O 1.1218(18) 0.00000 0.0259(12)
O6D O 0.9544(12) -0.0515(7) 0.0387(9)
W2D W 1.23246(7) -0.07233(4) -0.01856(6)
W4D W 1.00000 -0.14360(5) 0.00000
O9A O 1.1467(14) 0.0762(7) -0.1188(10)
O8E O 0.6587(13) -0.1071(7) 0.0268(9)
O9E O 0.8533(14) -0.0762(7) 0.1188(10)
O10E O 0.8523(13) -0.1297(8) -0.0078(9)
O9D O 1.1467(14) -0.0762(7) -0.1188(10)
O11E O 0.9962(14) -0.1083(7) -0.2463(10)
O12E O 0.9719(13) -0.1287(8) -0.1037(10)
O10A O 1.1477(13) 0.1297(8) 0.0078(9)
O12A O 1.0281(13) 0.1287(8) 0.1037(10)
O7A O 1.2672(19) 0.00000 -0.0404(13)
O8A O 1.3413(13) 0.1071(7) -0.0268(9)
O3A O 1.2693(13) 0.0538(7) 0.0859(9)
W3A W 1.00262(7) 0.07290(3) 0.16923(4)
W1A W 1.23515(8) 0.00000 0.15052(6)
W3D W 1.00262(7) -0.07290(3) 0.16923(4)
O8D O 1.3413(13) -0.1071(7) -0.0268(9)
O10D O 1.1477(13) -0.1297(8) 0.0078(9)
O3D O 1.2693(13) -0.0538(7) 0.0859(9)
O14D O 1.00000 -0.2129(10) 0.00000
O12D O 1.0281(13) -0.1287(8) 0.1037(10)
O11A O 1.0038(14) 0.1083(7) 0.2463(10)
O4A O 1.1517(13) 0.0552(7) 0.1842(9)
O13A O 0.9789(18) 0.00000 0.1971(13)
O1A O 1.348(2) 0.00000 0.2209(16)
O4D O 1.1517(13) -0.0552(7) 0.1842(9)
O11D O 1.0038(14) -0.1083(7) 0.2463(10)
N1A N 0.9917(15) 0.3191(8) -0.1193(9)
O15A O 0.9867(14) 0.3660(7) -0.3834(8)
O16A O 0.9792(13) 0.2751(7) -0.3870(8)
C1A C 0.9907(17) 0.3661(10) -0.1564(11)
H1A H 0.99340 0.39880 -0.12990
C2A C 0.9859(18) 0.3684(10) -0.2309(11)
H2A H 0.98490 0.40230 -0.25430
C3A C 0.9825(18) 0.3205(10) -0.2737(11)
C4A C 0.9805(18) 0.2701(10) -0.2354(11)
H3A H 0.97690 0.23700 -0.26120
C5A C 0.9840(17) 0.2707(10) -0.1585(11)
H4A H 0.98120 0.23780 -0.13340
C6A C 0.9813(19) 0.3185(10) -0.3564(12)
Ag2* Ag 1.00000 0.25346(16) -0.50000
Ag3* Ag 1.00000 0.36956(17) -0.50000
O15A* O 0.9867(14) 0.3660(7) 0.6166(8)
O16A* O 0.9792(13) 0.2751(7) 0.6130(8)
Ag4F Ag 0.7399(2) 0.30703(10) -0.50014(11)
N2F N 0.7382(15) 0.2471(8) -0.1180(9)
O18F O 0.7450(13) 0.2006(7) -0.3814(8)
O19F O 0.7142(13) 0.2914(7) -0.3882(8)
C7F C 0.7513(17) 0.2007(10) -0.1543(11)
H5F H 0.76350 0.16820 -0.12690
C8F C 0.7474(18) 0.199(1) -0.2309(11)
H6F H 0.75680 0.16610 -0.25420
C9F C 0.7292(18) 0.2471(10) -0.2716(11)
C10F C 0.7139(18) 0.2937(10) -0.2348(11)
H7F H 0.69890 0.32640 -0.26160
C11F C 0.7200(18) 0.2935(10) -0.1606(12)
H8F H 0.71130 0.32650 -0.13710
C12F C 0.7277(18) 0.2458(10) -0.3542(11)
Ag4* Ag 0.7601(2) 0.19297(10) -0.49986(11)
Ag4F* Ag 0.7399(2) 0.30703(10) 0.49986(11)
O18* O 0.7550(13) 0.2994(7) -0.6186(8)
O19* O 0.7858(13) 0.2086(7) -0.6118(8)
O21A O 0.471(2) 0.00000 -0.1140(18)
#END
