
#######################################################################
#
#                 Cambridge Crystallographic Data Centre
#                                CCDC
#
#######################################################################
#
# If this CIF has been generated from an entry in the Cambridge
# Structural Database, then it will include bibliographic, chemical,
# crystal, experimental, refinement or atomic coordinate data resulting
# from the CCDC's data processing and validation procedures.
#
#######################################################################

data_CSD_CIF_LEBMAJ
_audit_creation_date 2017-08-22
_audit_creation_method CSD-ConQuest-V1
_database_code_CSD LEBMAJ
_database_code_depnum_ccdc_archive 'CCDC 1556102'
_chemical_formula_sum 'C6 H12 Er0.02 N1 O8 Y0.91 Yb0.07'
_chemical_formula_moiety
;
(C4 H4 O8 Y1 1-)0.91n,C2 H8 N1 1+,0.07n(C4 H4 O8 Yb1 1-),0.02n(C4 H4 Er1 O8 
1-)
;
_journal_coden_Cambridge 1326
_journal_volume 19
_journal_year 2017
_journal_page_first 22733
_journal_name_full 'Phys.Chem.Chem.Phys.(PCCP) '
loop_
_publ_author_name
"M.Ptak"
"K.Pasinska"
"P.Gluchowski"
"A.Lukowiak"
"A.Ciupa"
_chemical_name_systematic
;
catena-[ethylammonium tris(\m-formato)-(formato)-yttrium 
tris(\m-formato)-(formato)-ytterbium tris(\m-formato)-(formato)-erbium]
;
_cell_volume    546.060
_exptl_crystal_colour 'pink'
_exptl_crystal_density_diffrn 1.962
_exptl_crystal_description 'block'
_diffrn_ambient_temperature 293
_refine_special_details
;
Y1 and Yb1 and Er1 disordered over three sites with occupancies 
0.91:0.07:0.02.
;
#These two values have been output from a single CSD field.
_refine_ls_R_factor_gt 0.0218
_refine_ls_wR_factor_gt 0.0218
_symmetry_cell_setting monoclinic
_symmetry_space_group_name_H-M 'P 21'
_symmetry_Int_Tables_number 4
loop_
_symmetry_equiv_pos_site_id
_symmetry_equiv_pos_as_xyz
1 x,y,z
2 -x,1/2+y,-z
_cell_length_a 6.657(3)
_cell_length_b 8.652(3)
_cell_length_c 9.708(3)
_cell_angle_alpha 90
_cell_angle_beta 102.42(3)
_cell_angle_gamma 90
_cell_formula_units_Z 2
loop_
_atom_type_symbol
_atom_type_radius_bond
C 0.68
H 0.23
Er 1.89
N 0.68
O 0.68
Y 1.90
Yb 1.87
loop_
_atom_site_label
_atom_site_type_symbol
_atom_site_fract_x
_atom_site_fract_y
_atom_site_fract_z
Y1 Y 0.10573(5) 0.22489(4) 0.27123(3)
O1 O 0.0727(5) 0.4515(4) 0.1272(4)
O2 O 0.0008(6) 0.6118(4) -0.0538(4)
O3 O 0.1420(6) 0.4184(4) 0.4338(4)
O4 O 0.0604(6) 0.5795(5) 0.5890(4)
O5 O 0.4242(5) 0.2956(5) 0.2293(4)
O6 O 0.7552(5) 0.3017(5) 0.2215(4)
O7 O 0.3764(5) 0.1224(4) 0.4795(4)
O8 O 0.2826(6) -0.0270(4) 0.2945(4)
C1 C -0.0242(10) 0.4923(7) 0.0098(7)
H1 H -0.12710 0.42580 -0.03570
C2 C 0.0446(11) 0.5106(10) 0.4807(9)
H2 H -0.07580 0.53630 0.41670
C3 C 0.5975(7) 0.2470(8) 0.2413(6)
H3 H 0.61220 0.14530 0.27280
C4 C 0.3847(8) -0.0017(6) 0.4175(6)
H4 H 0.46970 -0.07950 0.46360
Yb1? Yb 0.10573(5) 0.22489(4) 0.27123(3)
Er1? Er 0.10573(5) 0.22489(4) 0.27123(3)
C5 C 0.5281(11) 0.6664(7) 0.1347(7)
H5 H 0.59430 0.56670 0.13360
H6 H 0.44390 0.68450 0.04140
C6 C 0.6855(14) 0.7859(9) 0.166(1)
H7 H 0.77330 0.77950 0.09960
H8 H 0.76590 0.77120 0.25980
H9 H 0.62110 0.88570 0.15930
N1 N 0.3941(6) 0.6619(5) 0.2380(4)
H10 H 0.29590 0.59150 0.21130
H11 H 0.33690 0.75430 0.24210
H12 H 0.46870 0.63710 0.32260
Y1* Y 1.10573(5) 0.22489(4) 0.27123(3)
Y1A Y -0.10573(5) 0.72489(4) -0.27123(3)
Y1A* Y -0.10573(5) 0.72489(4) 0.72877(3)
O2A O -0.0008(6) 0.1118(4) 0.0538(4)
O4A O -0.0604(6) 0.0795(5) 0.4110(4)
O6* O -0.2448(5) 0.3017(5) 0.2215(4)
#END
