
#######################################################################
#
#                 Cambridge Crystallographic Data Centre
#                                CCDC
#
#######################################################################
#
# If this CIF has been generated from an entry in the Cambridge
# Structural Database, then it will include bibliographic, chemical,
# crystal, experimental, refinement or atomic coordinate data resulting
# from the CCDC's data processing and validation procedures.
#
#######################################################################

data_CSD_CIF_LECHOQ
_audit_creation_date 2000-04-05
_audit_creation_method CSD-ConQuest-V1
_database_code_CSD LECHOQ
_chemical_formula_sum 'C22 H36 Co1 Mn1 N1 O12'
_chemical_formula_moiety
;
(C6 Co1 Mn1 O12 1-)n,n(C16 H36 N1 1+)
;
_journal_coden_Cambridge 95
_journal_year 1999
_journal_page_first 1601
_journal_name_full 'Izv.Akad.Nauk SSSR,Ser.Khim.(Russ.)(Russ.Chem.Bull.) '
loop_
_publ_author_name
"N.A.Sanina"
"G.V.Shilov"
"N.S.Ovanesyan"
"L.O.Atovmyan"
_chemical_name_systematic
;
catena-(Tetrabutylammonium tris(\m~2~-oxalato)-manganese(ii)-cobalt(iii))
;
_cell_volume   4033.205
_exptl_special_details
;
Only one carbon atom is located in the NBu4 cation. Value of R-factor and Z 
come directly from the authors
;
_diffrn_ambient_temperature ?
_diffrn_special_details
;
The study was carried out at room temperature,in the range 283-303K

;
#These two values have been output from a single CSD field.
_refine_ls_R_factor_gt 0.1635
_refine_ls_wR_factor_gt 0.1635
_symmetry_cell_setting rhombohedral
_symmetry_space_group_name_H-M 'R 3 c'
_symmetry_Int_Tables_number 161
loop_
_symmetry_equiv_pos_site_id
_symmetry_equiv_pos_as_xyz
1 x,y,z
2 -y,x-y,z
3 -y,-x,1/2+z
4 -x+y,-x,z
5 x,x-y,1/2+z
6 -x+y,y,1/2+z
7 1/3+x,2/3+y,2/3+z
8 1/3-y,2/3+x-y,2/3+z
9 1/3-y,2/3-x,1/6+z
10 1/3-x+y,2/3-x,2/3+z
11 1/3+x,2/3+x-y,1/6+z
12 1/3-x+y,2/3+y,1/6+z
13 2/3+x,1/3+y,1/3+z
14 2/3-y,1/3+x-y,1/3+z
15 2/3-y,1/3-x,5/6+z
16 2/3-x+y,1/3-x,1/3+z
17 2/3+x,1/3+x-y,5/6+z
18 2/3-x+y,1/3+y,5/6+z
_cell_length_a 9.242(3)
_cell_length_b 9.242(3)
_cell_length_c 54.524(13)
_cell_angle_alpha 90
_cell_angle_beta 90
_cell_angle_gamma 120
_cell_formula_units_Z 6
loop_
_atom_type_symbol
_atom_type_radius_bond
C 0.68
Co 1.33
Mn 1.35
N 0.68
O 0.68
loop_
_atom_site_label
_atom_site_type_symbol
_atom_site_fract_x
_atom_site_fract_y
_atom_site_fract_z
Co1 Co 0.00000 0.00000 0.0002(2)
Mn1 Mn 0.33330 0.66670 -0.0004(1)
O1 O -0.0027(20) 0.1739(19) 0.0179(3)
O2 O 0.1525(25) 0.1734(23) -0.0190(4)
O3 O 0.1303(31) 0.4447(41) 0.0186(5)
O4 O 0.2915(25) 0.4526(23) -0.0237(3)
C1 C 0.1239(34) 0.3226(34) 0.0104(5)
C2 C 0.2058(66) 0.3113(74) -0.0106(8)
N1 N 0.00000 0.00000 0.1044(18)
C3 C 0.00000 0.00000 0.1358(10)
O1A O -0.1739(20) -0.1766(19) 0.0179(3)
O1C O 0.1766(20) 0.0027(19) 0.0179(3)
O2A O -0.1734(25) -0.0209(23) -0.0190(4)
O2C O 0.0209(25) -0.1525(23) -0.0190(4)
O3A O 0.5553(31) 0.6856(41) 0.0186(5)
O3C O 0.3144(31) 0.8697(41) 0.0186(5)
O4A O 0.5474(25) 0.8389(23) -0.0237(3)
O4C O 0.1611(25) 0.7085(23) -0.0237(3)
C1A C -0.3226(34) -0.1987(34) 0.0104(5)
C1C C 0.1987(34) -0.1239(34) 0.0104(5)
C2A C -0.3113(66) -0.1055(74) -0.0106(8)
C2C C 0.1055(66) -0.2058(74) -0.0106(8)
O3A* O -0.4447(31) -0.3144(41) 0.0186(5)
O3C* O 0.3144(31) -0.1303(41) 0.0186(5)
O4A* O -0.4526(25) -0.1611(23) -0.0237(3)
O4C* O 0.1611(25) -0.2915(23) -0.0237(3)
Mn1* Mn -0.66670 -0.33330 -0.0004(1)
Mn1** Mn 0.33330 -0.33330 -0.0004(1)
#END
