
#######################################################################
#
#                 Cambridge Crystallographic Data Centre
#                                CCDC
#
#######################################################################
#
# If this CIF has been generated from an entry in the Cambridge
# Structural Database, then it will include bibliographic, chemical,
# crystal, experimental, refinement or atomic coordinate data resulting
# from the CCDC's data processing and validation procedures.
#
#######################################################################

data_CSD_CIF_LECKIN01
_audit_creation_date 2000-08-29
_audit_creation_method CSD-ConQuest-V1
_database_code_CSD LECKIN01
_database_code_depnum_ccdc_archive 'CCDC 146968'
_chemical_formula_sum 'C12 H30 Bi1 Co1 N6 O15'
_chemical_formula_moiety
;
(C10 H12 Bi1 N2 O8 1-)n,n(C2 H12 Co1 N4 O4 1+),3n(H2 O1)
;
_journal_coden_Cambridge 41
_journal_volume 45
_journal_year 2000
_journal_page_first 50
_journal_name_full 'Kristallografiya(Russ.)(Crystallogr.Rep.) '
loop_
_publ_author_name
"A.L.Poznyak"
"A.B.Ilyukhin"
_chemical_name_systematic
;
catena-((Tetra-ammine)-oxalato-cobalt 
(\m~3~-ethylenediaminotetra-acetato)-bismuth(iii) trihydrate)
;
_cell_volume   2270.681
_exptl_crystal_density_diffrn 2.242
_diffrn_ambient_temperature ?
_diffrn_special_details
;
The study was carried out at room temperature,in the range 283-303K

;
#These two values have been output from a single CSD field.
_refine_ls_R_factor_gt 0.031
_refine_ls_wR_factor_gt 0.031
_symmetry_cell_setting monoclinic
_symmetry_space_group_name_H-M 'P 21/c'
_symmetry_Int_Tables_number 14
loop_
_symmetry_equiv_pos_site_id
_symmetry_equiv_pos_as_xyz
1 x,y,z
2 -x,1/2+y,1/2-z
3 -x,-y,-z
4 x,-1/2-y,-1/2+z
_cell_length_a 9.291(2)
_cell_length_b 22.275(4)
_cell_length_c 11.402(3)
_cell_angle_alpha 90
_cell_angle_beta 105.79(2)
_cell_angle_gamma 90
_cell_formula_units_Z 4
loop_
_atom_type_symbol
_atom_type_radius_bond
C 0.68
H 0.23
Bi 1.74
Co 1.33
N 0.68
O 0.68
loop_
_atom_site_label
_atom_site_type_symbol
_atom_site_fract_x
_atom_site_fract_y
_atom_site_fract_z
Bi1 Bi 0.06651(2) 0.27541(1) -0.19407(1)
Co1 Co -0.41438(6) 0.37037(3) -0.64604(5)
O1 O -0.01975(38) 0.30173(16) -0.40281(31)
O2 O 0.06313(50) 0.32792(18) -0.56100(34)
O3 O 0.34082(44) 0.26796(16) -0.14049(39)
O4 O 0.53664(46) 0.32015(23) -0.03166(40)
O5 O -0.20218(39) 0.26020(16) -0.24776(36)
O6 O -0.42613(42) 0.30194(20) -0.31857(38)
O7 O 0.15414(38) 0.30347(16) 0.01357(30)
O8 O 0.07633(51) 0.32635(17) 0.17504(34)
O9 O -0.28604(39) 0.41731(16) -0.51873(33)
O10 O -0.24745(58) 0.51316(21) -0.46300(44)
O11 O -0.49379(42) 0.44544(16) -0.71337(33)
O12 O -0.47985(51) 0.54237(18) -0.66329(45)
O13 O -0.04148(65) 0.55662(22) -0.25664(54)
H1 H -0.10655(65) 0.54290(22) -0.32485(54)
H2 H -0.08447(65) 0.58833(22) -0.23657(54)
O14 O 0.24597(65) 0.03525(27) -0.39245(51)
H3 H 0.33360(65) 0.03424(27) -0.32822(51)
H4 H 0.17066(65) 0.03956(27) -0.34070(51)
O15 O 0.63979(93) 0.04415(44) -0.45583(74)
H5 H 0.69391(93) 0.01804(44) -0.50382(74)
H6 H 0.62113(93) 0.08052(44) -0.49778(74)
N1 N 0.18693(42) 0.36601(17) -0.24255(34)
N2 N -0.07214(40) 0.36218(17) -0.14426(34)
N3 N -0.32533(45) 0.29755(18) -0.56666(38)
H7 H -0.25064(45) 0.30795(18) -0.50072(38)
H8 H -0.27484(45) 0.27285(18) -0.62712(38)
H9 H -0.37117(45) 0.26399(18) -0.51361(38)
N4 N -0.54553(47) 0.3267(2) -0.78143(39)
H10 H -0.61408(47) 0.35324(20) -0.84260(39)
H11 H -0.48237(47) 0.30245(20) -0.81489(39)
H12 H -0.59726(47) 0.29564(20) -0.74845(39)
N5 N -0.56380(46) 0.36689(19) -0.55494(38)
H13 H -0.55056(46) 0.35546(19) -0.46195(38)
H14 H -0.63556(46) 0.39846(19) -0.59065(38)
H15 H -0.60677(46) 0.32633(19) -0.58112(38)
N6 N -0.26307(50) 0.37416(21) -0.73585(44)
H16 H -0.2390(5) 0.33960(21) -0.76383(44)
H17 H -0.2877(5) 0.40060(21) -0.79393(44)
H18 H -0.1874(5) 0.39320(21) -0.70163(44)
C1 C 0.07536(54) 0.32663(20) -0.45103(42)
C2 C 0.21138(54) 0.35523(22) -0.36307(41)
H19 H 0.29985(54) 0.32826(22) -0.35366(41)
H20 H 0.23391(54) 0.39429(22) -0.39755(41)
C3 C 0.41148(53) 0.31665(26) -0.10422(45)
C4 C 0.33139(52) 0.37502(22) -0.14958(43)
H21 H 0.31307(52) 0.39594(22) -0.07738(43)
H22 H 0.39669(52) 0.40142(22) -0.18420(43)
C5 C 0.08597(56) 0.41876(20) -0.24996(44)
H23 H 0.00650(56) 0.41842(20) -0.32928(44)
H24 H 0.14548(56) 0.45647(20) -0.24610(44)
C6 C 0.01563(55) 0.41815(20) -0.14423(44)
H25 H 0.09468(55) 0.42204(20) -0.06512(44)
H26 H -0.05346(55) 0.45325(20) -0.15209(44)
C7 C -0.29055(53) 0.30496(23) -0.26930(43)
C8 C -0.22148(51) 0.36622(22) -0.23260(44)
H27 H -0.21259(51) 0.38706(22) -0.30799(44)
H28 H -0.28900(51) 0.39068(22) -0.19650(44)
C9 C 0.05941(55) 0.3254(2) 0.06428(41)
C10 C -0.08390(53) 0.35125(22) -0.01879(40)
H29 H -0.16806(53) 0.32267(22) -0.02264(40)
H30 H -0.10788(53) 0.38991(22) 0.01631(40)
C11 C -0.31132(59) 0.47362(23) -0.53103(49)
C12 C -0.43970(56) 0.49057(22) -0.64412(47)
O2C O 0.06313(50) 0.17208(18) -0.06100(34)
O8C O 0.07633(51) 0.17365(17) -0.32496(34)
Bi1C Bi 0.06651(2) 0.22459(1) -0.69407(1)
Bi1C* Bi 0.06651(2) 0.22459(1) 0.30593(1)
#END
