
#######################################################################
#
#                 Cambridge Crystallographic Data Centre
#                                CCDC
#
#######################################################################
#
# If this CIF has been generated from an entry in the Cambridge
# Structural Database, then it will include bibliographic, chemical,
# crystal, experimental, refinement or atomic coordinate data resulting
# from the CCDC's data processing and validation procedures.
#
#######################################################################

data_CSD_CIF_LECMIP
_audit_creation_date 2000-04-05
_audit_creation_method CSD-ConQuest-V1
_database_code_CSD LECMIP
_database_code_depnum_ccdc_archive 'CCDC 140652'
_chemical_formula_sum 'C16 H42 Bi1 Co1 N6 O18'
_chemical_formula_moiety
;
(C10 H14 Bi1 N2 O9 1-)n,n(C6 H18 Co1 N4 O4 1+),5n(H2 O1)
;
_journal_coden_Cambridge 233
_journal_volume 44
_journal_year 1999
_journal_page_first 727
_journal_name_full 'Zh.Neorg.Khim.(Russ.)(Russ.J.Inorg.Chem.) '
loop_
_publ_author_name
"A.S.Antsyshkina"
"G.G.Sadikov"
"A.L.Poznyak"
"V.S.Sergienko"
"Yu.N.Mikhailov"
_chemical_name_systematic
;
catena-(Diammino-bis(\b-alaninato)-cobalt(iii) 
aqua-(\m~2~-ethylenediaminotetra-acetato)-bismuth(iii) pentahydrate)
;
_cell_volume   2958.209
_exptl_crystal_colour 'deep-red'
_exptl_crystal_density_diffrn 1.957
_exptl_special_details
;
The form.wt and density given in the CIF are not correct. According to the 
information from the authors form.wt is 874.41 (not 862.37), density is 1.957 
(not 1.936)
;
_exptl_crystal_description 'prism'
_diffrn_ambient_temperature ?
_diffrn_special_details
;
The study was carried out at room temperature,in the range 283-303K

;
#These two values have been output from a single CSD field.
_refine_ls_R_factor_gt 0.0429
_refine_ls_wR_factor_gt 0.0429
_symmetry_cell_setting monoclinic
_symmetry_space_group_name_H-M 'P 21/n'
_symmetry_Int_Tables_number 14
loop_
_symmetry_equiv_pos_site_id
_symmetry_equiv_pos_as_xyz
1 x,y,z
2 1/2+x,1/2-y,1/2+z
3 -x,-y,-z
4 -1/2-x,-1/2+y,-1/2-z
_cell_length_a 14.614(3)
_cell_length_b 8.800(2)
_cell_length_c 23.188(5)
_cell_angle_alpha 90
_cell_angle_beta 97.25(3)
_cell_angle_gamma 90
_cell_formula_units_Z 4
loop_
_atom_type_symbol
_atom_type_radius_bond
C 0.68
H 0.23
Bi 1.74
Co 1.33
N 0.68
O 0.68
loop_
_atom_site_label
_atom_site_type_symbol
_atom_site_fract_x
_atom_site_fract_y
_atom_site_fract_z
Bi1 Bi -0.15909(11) 0.31218(8) 0.20527(3)
Co1 Co -0.7083(4) 0.3324(3) -0.01765(10)
N1 N -0.0253(22) 0.1382(21) 0.2199(7)
N2 N -0.0239(23) 0.4563(20) 0.2528(6)
N3 N -0.7818(24) 0.1743(22) -0.0624(9)
N4 N -0.6631(24) 0.4024(21) -0.0895(7)
N5 N -0.6087(23) 0.1832(22) -0.0013(7)
N6 N -0.8061(24) 0.4833(24) -0.0326(8)
O1 O -0.0738(20) 0.3033(20) 0.1229(6)
O2 O -0.0052(24) 0.1450(25) 0.0670(7)
O3 O -0.2046(18) 0.0564(17) 0.2280(8)
O4 O -0.163(2) -0.1311(23) 0.2872(8)
O5 O -0.1472(18) 0.3126(17) 0.3100(5)
O6 O -0.1292(20) 0.4787(19) 0.3829(6)
O7 O -0.1480(22) 0.5741(20) 0.1686(6)
O8 O -0.0486(22) 0.7078(22) 0.1276(9)
O9 O -0.6402(19) 0.4957(18) 0.0232(7)
O10 O -0.5458(20) 0.6030(18) 0.0938(7)
O11 O -0.7522(20) 0.2577(20) 0.0525(7)
O12 O -0.7939(24) 0.2832(28) 0.1376(7)
O13 O -0.2755(26) 0.2520(24) 0.1062(8)
O14 O 0.0839(30) -0.1367(31) 0.0731(10)
O15 O -0.7602(26) 0.9695(29) 0.1491(10)
O16 O -0.6787(38) 0.3480(49) 0.2426(19)
O17 O -0.6342(27) 0.8865(28) 0.0714(9)
O18 O -0.7877(25) -0.1501(29) -0.0092(8)
C1 C -0.0315(31) 0.1808(30) 0.1151(9)
C2 C -0.0245(31) 0.0645(25) 0.1639(9)
H1 H -0.0754(31) -0.0049(25) 0.1569(9)
H2 H 0.0317(31) 0.0075(25) 0.1646(9)
C3 C -0.1436(41) -0.0206(22) 0.2593(9)
C4 C -0.0487(39) 0.0210(31) 0.263(1)
H3 H -0.0288(39) 0.0588(31) 0.3014(10)
H4 H -0.0128(39) -0.0678(31) 0.2572(10)
C5 C -0.1160(27) 0.4333(25) 0.3339(8)
C6 C -0.0591(26) 0.5378(25) 0.3008(8)
H5 H -0.0961(26) 0.6224(25) 0.2856(8)
H6 H -0.0080(26) 0.5767(25) 0.3266(8)
C7 C -0.0663(39) 0.6179(26) 0.1656(9)
C8 C 0.0110(28) 0.5589(26) 0.2088(8)
H7 H 0.0537(28) 0.5042(26) 0.1883(8)
H8 H 0.0432(28) 0.6425(26) 0.2287(8)
C9 C 0.0585(28) 0.2160(23) 0.2355(9)
H9 H 0.0805(28) 0.2525(23) 0.2008(9)
H10 H 0.1028(28) 0.1443(23) 0.2535(9)
C10 C 0.0508(27) 0.3502(25) 0.2775(8)
H11 H 0.0385(27) 0.3135(25) 0.3147(8)
H12 H 0.1083(27) 0.4042(25) 0.2827(8)
C11 C -0.5759(27) 0.4901(24) 0.0675(8)
C12 C -0.5407(31) 0.3307(27) 0.0850(9)
H13 H -0.5856(31) 0.2802(27) 0.1050(9)
H14 H -0.4852(31) 0.3406(27) 0.1116(9)
C13 C -0.5220(31) 0.2329(26) 0.0341(10)
H15 H -0.4857(31) 0.2899(26) 0.010(1)
H16 H -0.4870(31) 0.1454(26) 0.0484(10)
C14 C -0.7934(34) 0.3315(35) 0.0874(10)
C15 C -0.8443(35) 0.4699(44) 0.0683(11)
H17 H -0.8025(35) 0.5542(44) 0.0747(11)
H18 H -0.8929(35) 0.4852(44) 0.0920(11)
C16 C -0.8860(34) 0.4708(31) 0.0041(13)
H19 H -0.9195(34) 0.3782(31) -0.0049(13)
H20 H -0.9275(34) 0.5548(31) -0.0042(13)
H21 H -0.270(33) 0.190(38) 0.097(15)
H22 H -0.736(28) -0.160(32) 0.038(13)
H23 H -0.717(27) 1.072(36) 0.142(12)
H24 H -0.626(27) 0.771(36) 0.076(12)
H25 H -0.684(28) 0.938(34) 0.098(13)
O4C O -0.337(2) 0.3689(23) 0.2128(8)
Bi1C Bi -0.34091(11) -0.18782(8) 0.29473(3)
#END
