
#######################################################################
#
#                 Cambridge Crystallographic Data Centre
#                                CCDC
#
#######################################################################
#
# If this CIF has been generated from an entry in the Cambridge
# Structural Database, then it will include bibliographic, chemical,
# crystal, experimental, refinement or atomic coordinate data resulting
# from the CCDC's data processing and validation procedures.
#
#######################################################################

data_CSD_CIF_LEDCII
_audit_creation_date 2012-12-11
_audit_creation_method CSD-ConQuest-V1
_database_code_CSD LEDCII
_database_code_depnum_ccdc_archive 'CCDC 866190'
_chemical_formula_sum 'C36 H65 I1 Mo6 N8 Ni2 O40'
_chemical_formula_moiety
;
(H3 O1 1+)n,n(C36 H52 I1 Mo6 N8 Ni2 O34 1-),5n(H2 O1)
;
_journal_coden_Cambridge 1295
_journal_volume 21
_journal_year 2012
_journal_page_first 65
_journal_name_full 'Inorg.Chem.Commun. '
loop_
_publ_author_name
"Hao Chen"
"Haiyan An"
"Xuan Liu"
"Huilong Wang"
"Zhaofei Chen"
"Hua Zhang"
"Ying Hu"
_chemical_name_systematic
;
catena-[Oxonium 
(\m~6~-hexaoxoiodato)-bis(\m~2~-trans-N,N'-cyclohexane-1,2-diyldiisonicotinami
de)-octakis(\m~2~-oxo)-hexa-aqua-deca-oxo-hexa-molybdenum(vi)-di-nickel(ii) 
pentahydrate]
;
_cell_volume   3354.367
_exptl_crystal_colour 'blue'
_exptl_crystal_density_diffrn 2.049
_exptl_special_details
;
The formula given in the paper has an additional proton required for charge 
balance. This has arbitrarily been assigned to an oxonium cation in the 2D 
representation
;
_exptl_crystal_description 'block'
_diffrn_ambient_temperature 293
_refine_special_details
;
OW8 disordered by symmetry over two sites with occupancy 0.50.

;
#These two values have been output from a single CSD field.
_refine_ls_R_factor_gt 0.0544
_refine_ls_wR_factor_gt 0.0544
_symmetry_cell_setting monoclinic
_symmetry_space_group_name_H-M 'P 21/c'
_symmetry_Int_Tables_number 14
loop_
_symmetry_equiv_pos_site_id
_symmetry_equiv_pos_as_xyz
1 x,y,z
2 -x,1/2+y,1/2-z
3 -x,-y,-z
4 x,-1/2-y,-1/2+z
_cell_length_a 16.688(4)
_cell_length_b 13.124(3)
_cell_length_c 17.441(4)
_cell_angle_alpha 90
_cell_angle_beta 118.58
_cell_angle_gamma 90
_cell_formula_units_Z 2
loop_
_atom_type_symbol
_atom_type_radius_bond
C 0.68
H 0.23
I 1.40
Mo 1.40
N 0.68
Ni 1.24
O 0.68
loop_
_atom_site_label
_atom_site_type_symbol
_atom_site_fract_x
_atom_site_fract_y
_atom_site_fract_z
I1 I 0.50000 1.50000 1.00000
Mo1 Mo 0.37481(7) 1.68787(7) 1.01978(6)
Mo2 Mo 0.57577(7) 1.73539(7) 1.02855(7)
Mo3 Mo 0.69871(7) 1.54937(7) 1.00729(7)
Ni1 Ni 0.39924(10) 1.91189(10) 1.16607(9)
O1 O 0.5205(5) 1.6047(5) 1.0818(5)
O2 O 0.6211(5) 1.4519(5) 1.0607(5)
O3 O 0.4587(5) 1.4080(5) 1.0572(5)
O4 O 0.3487(6) 1.5705(5) 1.0680(5)
O5 O 0.4439(5) 1.7472(5) 0.9697(5)
O6 O 0.6845(6) 1.6527(6) 1.0758(6)
O7 O 0.4027(6) 1.7733(5) 1.1062(5)
O8 O 0.2695(6) 1.7222(6) 0.9435(5)
O9 O 0.5915(7) 1.8061(6) 0.9543(6)
O10 O 0.6040(6) 1.8113(6) 1.1180(6)
O11 O 0.8045(7) 1.5060(6) 1.0820(7)
O12 O 0.7163(7) 1.6210(6) 0.9338(6)
O13 O 0.1064(12) 2.0738(9) 0.7390(8)
O14 O 0.0142(15) 2.3038(13) 0.8856(13)
C1 C 0.0827(9) 2.2826(11) 0.7181(9)
H1 H 0.05660 2.23620 0.66800
C2 C 0.0068(10) 2.3383(9) 0.7244(9)
H2 H 0.03260 2.38710 0.77280
C3 C -0.0558(10) 2.3947(11) 0.6378(10)
H3 H -0.10400 2.43010 0.64290
H4 H -0.08360 2.34610 0.59040
C4 C 0.0025(12) 2.4721(12) 0.6185(12)
H5 H -0.03530 2.50300 0.56190
H6 H 0.02270 2.52580 0.66200
C5 C 0.0849(10) 2.4238(10) 0.6189(9)
H7 H 0.06530 2.37690 0.57020
H8 H 0.12230 2.47610 0.61240
C6 C 0.1393(10) 2.3678(11) 0.7028(10)
H9 H 0.16130 2.41590 0.75080
H10 H 0.19200 2.33710 0.70250
C7 C 0.1537(12) 2.1337(11) 0.8044(10)
C8 C 0.217(1) 2.0869(8) 0.8902(8)
C9 C 0.2811(9) 2.0127(9) 0.9007(9)
H11 H 0.28860 1.99320 0.85330
C10 C 0.3316(9) 1.9695(8) 0.9780(8)
H12 H 0.37620 1.92340 0.98310
C11 C 0.2583(8) 2.0570(8) 1.0411(8)
H13 H 0.24920 2.06960 1.08880
C12 C 0.2063(9) 2.1088(8) 0.9640(8)
H14 H 0.16460 2.15790 0.96070
C13 C -0.0493(14) 2.2539(13) 0.8159(12)
C14 C -0.1306(9) 2.2092(10) 0.8197(8)
C15 C -0.1381(10) 2.2238(10) 0.8954(8)
H15 H -0.09380 2.25880 0.94330
C16 C -0.2167(9) 2.1824(9) 0.8954(8)
H16 H -0.22380 2.19410 0.94440
C17 C -0.2689(9) 2.1146(9) 0.7613(8)
H17 H -0.31310 2.07600 0.71610
C18 C -0.1990(11) 2.1516(10) 0.7510(9)
H18 H -0.19600 2.13950 0.69990
N1 N 0.1402(9) 2.2254(8) 0.7974(7)
H19 H 0.16790 2.26040 0.84460
N2 N 0.3226(7) 1.9878(6) 1.0487(7)
N3 N -0.0552(9) 2.2646(8) 0.7373(8)
H20 H -0.09430 2.22940 0.69390
N4 N -0.2787(7) 2.1300(7) 0.8330(6)
O15 O 0.4161(7) 2.0415(6) 1.2409(6)
O16 O 0.4739(6) 1.8275(6) 1.2787(5)
O17 O 0.5150(6) 1.9542(6) 1.1630(6)
O18 O 0.3655(8) 0.2543(7) 0.7105(7)
O19 O 1.3932(17) 0.6405(15) 1.3039(15)
O20 O 1.00000 0.50000 1.00000
O21 O 1.0598(17) 0.5765(15) 0.9569(15)
O22? O 1.0822(19) 0.4989(17) 1.1084(16)
Mo1B Mo 0.62519(7) 1.31213(7) 0.98022(6)
Mo2B Mo 0.42423(7) 1.26461(7) 0.97145(7)
Mo3B Mo 0.30129(7) 1.45063(7) 0.99271(7)
Ni1B Ni 0.60076(10) 1.08811(10) 0.83393(9)
Ni1B* Ni -0.39924(10) 2.08811(10) 0.83393(9)
O1B O 0.4795(5) 1.3953(5) 0.9182(5)
O2B O 0.3789(5) 1.5481(5) 0.9393(5)
O3B O 0.5413(5) 1.5920(5) 0.9428(5)
O4B O 0.6513(6) 1.4295(5) 0.9320(5)
O5B O 0.5561(5) 1.2528(5) 1.0303(5)
O6B O 0.3155(6) 1.3473(6) 0.9242(6)
O7B O 0.5973(6) 1.2267(5) 0.8938(5)
O7B* O -0.4027(6) 2.2267(5) 0.8938(5)
O8B O 0.7305(6) 1.2778(6) 1.0565(5)
O9B O 0.4085(7) 1.1939(6) 1.0457(6)
O10B O 0.3960(6) 1.1887(6) 0.8820(6)
O11B O 0.1955(7) 1.4940(6) 0.9180(7)
O12B O 0.2837(7) 1.3790(6) 1.0662(6)
O13B O -0.1064(12) 1.9262(9) 1.2610(8)
O14B O -0.0142(15) 1.6962(13) 1.1144(13)
C1B C -0.0827(9) 1.7174(11) 1.2819(9)
H1B H -0.05660 1.76380 1.33200
C2B C -0.0068(10) 1.6617(9) 1.2756(9)
H2B H -0.03260 1.61290 1.22720
C3B C 0.0558(10) 1.6053(11) 1.3622(10)
H3B H 0.10400 1.56990 1.35710
H4B H 0.08360 1.65390 1.40960
C4B C -0.0025(12) 1.5279(12) 1.3815(12)
H5B H 0.03530 1.49700 1.43810
H6B H -0.02270 1.47420 1.33800
C5B C -0.0849(10) 1.5762(10) 1.3811(9)
H7B H -0.06530 1.62310 1.42980
H8B H -0.12230 1.52390 1.38760
C6B C -0.1393(10) 1.6322(11) 1.2972(10)
H9B H -0.16130 1.58410 1.24920
H10B H -0.19200 1.66290 1.29750
C7B C -0.1537(12) 1.8663(11) 1.1956(10)
C8B C -0.217(1) 1.9131(8) 1.1098(8)
C9B C -0.2811(9) 1.9873(9) 1.0993(9)
H11B H -0.28860 2.00680 1.14670
C10B C -0.3316(9) 2.0305(8) 1.0220(8)
H12B H -0.37620 2.07660 1.01690
C11B C -0.2583(8) 1.9430(8) 0.9589(8)
H13B H -0.24920 1.93040 0.91120
C12B C -0.2063(9) 1.8912(8) 1.0360(8)
H14B H -0.16460 1.84210 1.03930
C13B C 0.0493(14) 1.7461(13) 1.1841(12)
C14B C 0.1306(9) 1.7908(10) 1.1803(8)
C15B C 0.1381(10) 1.7762(10) 1.1046(8)
H15B H 0.09380 1.74120 1.05670
C16B C 0.2167(9) 1.8176(9) 1.1046(8)
H16B H 0.22380 1.80590 1.05560
C17B C 0.2689(9) 1.8854(9) 1.2387(8)
H17B H 0.31310 1.92400 1.28390
C18B C 0.1990(11) 1.8484(10) 1.2490(9)
H18B H 0.19600 1.86050 1.30010
N1B N -0.1402(9) 1.7746(8) 1.2026(7)
H19B H -0.16790 1.73960 1.15540
N2B N -0.3226(7) 2.0122(6) 0.9513(7)
N3B N 0.0552(9) 1.7354(8) 1.2627(8)
H20B H 0.09430 1.77060 1.30610
N4B N 0.2787(7) 1.8700(7) 1.1670(6)
O15B O -0.4161(7) 1.9585(6) 0.7591(6)
O16B O -0.4739(6) 2.1725(6) 0.7213(5)
O17B O -0.5150(6) 2.0458(6) 0.8370(6)
#END
