
#######################################################################
#
#                 Cambridge Crystallographic Data Centre
#                                CCDC
#
#######################################################################
#
# If this CIF has been generated from an entry in the Cambridge
# Structural Database, then it will include bibliographic, chemical,
# crystal, experimental, refinement or atomic coordinate data resulting
# from the CCDC's data processing and validation procedures.
#
#######################################################################

data_CSD_CIF_LEDCUU
_audit_creation_date 2012-12-11
_audit_creation_method CSD-ConQuest-V1
_database_code_CSD LEDCUU
_database_code_depnum_ccdc_archive 'CCDC 791746'
_chemical_formula_sum 'C84 H102 Cu6 O36'
_chemical_formula_moiety
;
(H3 O1 1+)2n,n(C84 H92 Cu6 O32 2-),2n(H2 O1)
;
_journal_coden_Cambridge 1295
_journal_volume 21
_journal_year 2012
_journal_page_first 72
_journal_name_full 'Inorg.Chem.Commun. '
loop_
_publ_author_name
"Xiao-Fang Wang"
"Li Li"
"Yu-Mei Kong"
"Yang Liu"
_chemical_name_systematic
;
catena-[bis(Oxonium) 
hexakis(\m~4~-5-t-butylisophthalato)-tetra-aqua-(5-t-butylisophthalato)-hexa-c
opper(ii) dihydrate]
;
_cell_volume   7955.772
_exptl_crystal_density_diffrn 1.294
_diffrn_ambient_temperature 293
_refine_special_details
;
The terminal isophthalate ligand is modelled as half occupancy, effectively 
making one of the three independent copper sites 4.5 occupancy.
;
#These two values have been output from a single CSD field.
_refine_ls_R_factor_gt 0.0771
_refine_ls_wR_factor_gt 0.0771
_symmetry_cell_setting hexagonal
_symmetry_space_group_name_H-M 'P 31 2 1'
_symmetry_Int_Tables_number 152
loop_
_symmetry_equiv_pos_site_id
_symmetry_equiv_pos_as_xyz
1 x,y,z
2 -y,x-y,1/3+z
3 -x+y,-x,2/3+z
4 y,x,-z
5 x-y,-y,2/3-z
6 -x,-x+y,1/3-z
_cell_length_a 18.5737(10)
_cell_length_b 18.5737(10)
_cell_length_c 26.629(3)
_cell_angle_alpha 90
_cell_angle_beta 90
_cell_angle_gamma 120
_cell_formula_units_Z 3
loop_
_atom_type_symbol
_atom_type_radius_bond
C 0.68
H 0.23
Cu 1.07
O 0.74
loop_
_atom_site_label
_atom_site_type_symbol
_atom_site_fract_x
_atom_site_fract_y
_atom_site_fract_z
O1 O 0.00000 0.5010(8) 0.16670
H1 H 0.00270 0.53030 0.14140
O2 O 0.00000 0.9773(8) 0.16670
H2 H 0.00390 0.94830 0.14320
O3 O 0.1855(9) 0.3439(11) 0.2891(8)
H3 H 0.14830 0.31980 0.31150
H4 H 0.17530 0.32740 0.25880
Cu1 Cu 0.45932(11) 0.47679(7) 0.28762(4)
Cu2 Cu 0.55365(11) 0.52494(7) 0.36688(4)
Cu3 Cu -0.02800(9) -0.04764(6) 0.37306(4)
C1 C 0.3538(8) 0.2792(6) 0.3905(4)
C2 C 0.3677(8) 0.2621(5) 0.4390(4)
H5 H 0.41540 0.30160 0.45530
C3 C 0.3147(8) 0.1895(6) 0.4648(3)
C4 C 0.2402(8) 0.1334(6) 0.4418(4)
H6 H 0.20370 0.08410 0.45790
C5 C 0.2191(8) 0.1516(6) 0.3923(3)
C6 C 0.2770(8) 0.2228(6) 0.3664(3)
H7 H 0.26590 0.23330 0.33400
C7 C 0.4109(8) 0.3629(6) 0.3650(4)
C8 C 0.1399(9) 0.0951(7) 0.3712(4)
C9 C 0.3365(8) 0.1723(6) 0.5165(3)
C10 C 0.3869(10) 0.1274(8) 0.5115(4)
H8 H 0.35480 0.07630 0.49350
H9 H 0.39990 0.11580 0.54440
H10 H 0.43740 0.16220 0.49360
C11 C 0.3915(8) 0.2518(6) 0.5464(4)
H11 H 0.36250 0.28200 0.55120
H12 H 0.44220 0.28580 0.52830
H13 H 0.40420 0.23740 0.57850
C12 C 0.2575(11) 0.1202(8) 0.5465(4)
H14 H 0.22260 0.06910 0.52910
H15 H 0.22840 0.15040 0.55050
H16 H 0.27150 0.10820 0.57900
C13 C 0.6550(8) 0.4207(6) 0.2688(4)
C14 C 0.6423(8) 0.3868(6) 0.2211(4)
H17 H 0.59490 0.37620 0.20330
C15 C 0.6989(8) 0.3683(6) 0.1996(4)
C16 C 0.7690(8) 0.3831(6) 0.2266(4)
H18 H 0.80530 0.36680 0.21390
C17 C 0.7844(9) 0.4233(7) 0.2736(4)
C18 C 0.7295(8) 0.4403(5) 0.2934(3)
H19 H 0.74050 0.46600 0.32470
C19 C 0.5971(9) 0.4494(6) 0.2895(4)
C20 C 0.8659(8) 0.4472(6) 0.2989(4)
C21 C 0.6814(11) 0.3289(8) 0.1470(5)
C22 C 0.755(2) 0.3139(15) 0.1321(7)
H20 H 0.75400 0.27160 0.15330
H21 H 0.80690 0.36460 0.13620
H22 H 0.74880 0.29640 0.09770
C23 C 0.6013(18) 0.2575(12) 0.1416(7)
H23 H 0.59490 0.21610 0.16560
H24 H 0.59530 0.23550 0.10830
H25 H 0.55950 0.27260 0.14740
C24 C 0.6995(18) 0.3994(10) 0.1076(6)
H26 H 0.68850 0.37630 0.07440
H27 H 0.75660 0.44240 0.11010
H28 H 0.66420 0.42230 0.11450
C25 C 0.7778(8) 0.8555(6) 0.2633(4)
C26 C 0.7596(9) 0.8689(7) 0.2155(4)
H29 H 0.79700 0.91860 0.20000
C27 C 0.6881(9) 0.8127(7) 0.1879(3)
C28 C 0.6356(9) 0.7429(7) 0.2118(4)
H30 H 0.58560 0.70580 0.19640
C29 C 0.6539(8) 0.7231(6) 0.2606(3)
C30 C 0.7194(8) 0.7765(6) 0.2863(3)
H31 H 0.72830 0.76400 0.31870
C31 C 0.8590(9) 0.9122(6) 0.2895(4)
C32 C 0.5975(8) 0.6439(6) 0.2837(3)
C33 C 0.6741(11) 0.8357(9) 0.1353(4)
C34 C 0.6110(23) 0.7550(12) 0.1085(6)
H32 H 0.59940 0.76800 0.07570
H33 H 0.56040 0.72780 0.12770
H34 H 0.63380 0.71880 0.10560
C35 C 0.6354(32) 0.882(3) 0.1356(6)
H35 H 0.67340 0.93700 0.14780
H36 H 0.58760 0.85620 0.15700
H37 H 0.61860 0.88580 0.10210
C36 C 0.7426(27) 0.856(2) 0.1046(6)
H38 H 0.79150 0.90160 0.11910
H39 H 0.73320 0.87170 0.07190
H40 H 0.75030 0.80880 0.10150
C37 C 0.3421(11) 0.4286(8) 0.1365(3)
C38 C 0.3647(10) 0.4671(7) 0.0898(4)
H41 H 0.41970 0.50710 0.08360
C39 C 0.3051(11) 0.4458(7) 0.0524(3)
C40 C 0.2229(13) 0.3860(9) 0.0617(3)
H42 H 0.18310 0.37180 0.03670
C41 C 0.2002(14) 0.3475(8) 0.1084(4)
C42 C 0.2598(11) 0.3688(7) 0.1458(3)
H43 H 0.24460 0.34300 0.17700
C43 C 0.4014(18) 0.4575(13) 0.1805(7)
C44 C 0.1158(23) 0.2662(16) 0.1164(10)
C45 C 0.3204(19) 0.4738(15) -0.0011(7)
C46 C 0.2718(18) 0.5133(14) -0.0123(8)
H44 H 0.28380 0.53510 -0.04580
H45 H 0.28600 0.55790 0.01100
H46 H 0.21370 0.47320 -0.00940
C47 C 0.3082(18) 0.4167(13) -0.0403(7)
H47 H 0.34190 0.39180 -0.03410
H48 H 0.32380 0.44560 -0.07180
H49 H 0.25070 0.37410 -0.04140
C48 C 0.4011(26) 0.5461(17) 0.017(2)
H50 H 0.43880 0.52730 0.02510
H51 H 0.39080 0.57100 0.04510
H52 H 0.42440 0.58640 -0.01020
O4 O 0.4720(6) 0.4117(4) 0.3910(3)
O5 O 0.3930(6) 0.3734(4) 0.3225(3)
O6 O 0.0858(6) 0.0365(4) 0.3980(3)
O7 O 0.1258(6) 0.1089(4) 0.3261(3)
O8 O 0.6154(6) 0.4815(4) 0.3328(3)
O9 O 0.5378(6) 0.4412(4) 0.2639(3)
O10 O 0.8744(6) 0.4759(4) 0.3429(3)
O11 O 0.9190(6) 0.4373(4) 0.2741(3)
O12 O 0.9084(6) 0.9772(4) 0.2662(3)
O13 O 0.8710(6) 0.8913(4) 0.3316(3)
O14 O 0.5339(6) 0.5872(4) 0.2591(2)
O15 O 0.6127(6) 0.6308(4) 0.3279(3)
O16 O 0.3860(9) 0.4383(6) 0.2195(3)
O17 O 0.4706(12) 0.5051(9) 0.1682(3)
O18 O 0.0968(18) 0.2276(13) 0.1536(8)
O19 O 0.0609(18) 0.2647(13) 0.0873(7)
O20 O -0.0789(8) -0.1347(6) 0.4343(3)
H53 H -0.05010 -0.12720 0.46070
H54 H -0.12760 -0.17650 0.43220
O21 O 0.6372(8) 0.5796(6) 0.4291(3)
H55 H 0.66600 0.63220 0.43170
H56 H 0.64120 0.54880 0.45120
H57? H 0.98150 0.44920 0.16320
H58? H 0.98160 0.01000 0.16040
H1E H -0.00270 0.52760 0.19193
H2E H -0.00390 0.94440 0.19013
Cu1D Cu 0.98253(11) 0.52321(7) 0.379047(40)
Cu2D Cu 1.02871(11) 0.47506(7) 0.299787(40)
Cu3* Cu 0.97200(9) 0.95236(6) 0.37306(4)
Cu3D Cu 0.01964(9) 0.04764(6) 0.293607(40)
Cu3D* Cu 1.01964(9) 1.04764(6) 0.293607(40)
O7D O 0.0169(6) -0.1089(4) 0.340567(300)
O10D O 0.3985(6) 0.5241(4) 0.323767(300)
O11D O 0.4817(6) 0.5627(4) 0.392567(300)
O12D O -0.0688(6) 0.0228(4) 0.400467(300)
O13* O -0.1290(6) -0.1087(4) 0.3316(3)
#END
