
#######################################################################
#
#                 Cambridge Crystallographic Data Centre
#                                CCDC
#
#######################################################################
#
# If this CIF has been generated from an entry in the Cambridge
# Structural Database, then it will include bibliographic, chemical,
# crystal, experimental, refinement or atomic coordinate data resulting
# from the CCDC's data processing and validation procedures.
#
#######################################################################

data_CSD_CIF_LEDFOS
_audit_creation_date 2017-08-22
_audit_creation_method CSD-ConQuest-V1
_database_code_CSD LEDFOS
_database_code_depnum_ccdc_archive 'CCDC 1405492'
_chemical_formula_sum 'C20 H106 Cu5 K4 N20 Nb24 O84 Te2'
_chemical_formula_moiety
;
(C20 H90 Cu5 N20 Nb24 O76 Te2 4-)n,4(K1 1+),8(H2 O1)
;
_journal_coden_Cambridge 9
_journal_volume 56
_journal_year 2017
_journal_page_first 10119
_journal_name_full 'Inorg.Chem. '
loop_
_publ_author_name
"Zhijie Liang"
"Junjun Sun"
"Dongdi Zhang"
"Pengtao Ma"
"Chao Zhang"
"Jingyang Niu"
"Jingping Wang"
_chemical_name_systematic
;
catena-[tetra-potassium 
bis(\m-trioxotellurato)-pentacontakis(\m-oxido)-bis(2-aminoethanaminium)-octak
is(ethane-1,2-diamine)-tetra-aqua-hexadecaoxo-penta-copper-tetracosa-niobium 
octahydrate]
;
_cell_volume   2628.491
_exptl_crystal_colour 'black'
_exptl_crystal_density_diffrn 3.115
_exptl_crystal_description 'block'
_diffrn_ambient_temperature 296.1
#These two values have been output from a single CSD field.
_refine_ls_R_factor_gt 0.0344
_refine_ls_wR_factor_gt 0.0344
_symmetry_cell_setting triclinic
_symmetry_space_group_name_H-M 'P -1'
_symmetry_Int_Tables_number 2
loop_
_symmetry_equiv_pos_site_id
_symmetry_equiv_pos_as_xyz
1 x,y,z
2 -x,-y,-z
_cell_length_a 12.9000(11)
_cell_length_b 13.1537(11)
_cell_length_c 17.9887(15)
_cell_angle_alpha 75.088(1)
_cell_angle_beta 69.638(1)
_cell_angle_gamma 68.227(1)
_cell_formula_units_Z 1
loop_
_atom_type_symbol
_atom_type_radius_bond
C 0.68
H 0.23
Cu 1.32
K 2.03
N 0.68
Nb 1.64
O 0.68
Te 1.47
loop_
_atom_site_label
_atom_site_type_symbol
_atom_site_fract_x
_atom_site_fract_y
_atom_site_fract_z
Cu1 Cu 1.00000 0.00000 0.50000
Te1 Te 0.94473(3) 0.45879(3) 0.15351(2)
Nb1 Nb 0.80266(4) 0.74840(4) 0.19358(3)
Nb2 Nb 1.09966(4) 0.62035(4) 0.18750(3)
Nb3 Nb 0.88203(4) 0.56817(4) 0.35453(3)
Nb4 Nb 1.24230(4) 0.31313(4) 0.18130(3)
Nb5 Nb 1.02135(4) 0.26643(4) 0.34804(3)
Nb6 Nb 1.07146(4) 0.15653(4) 0.17960(3)
Nb7 Nb 0.70903(4) 0.39520(4) 0.35501(3)
Nb8 Nb 0.75696(4) 0.28467(4) 0.18579(3)
Nb9 Nb 0.63070(4) 0.57251(4) 0.19375(3)
Nb10 Nb 0.74708(4) 0.47329(4) 0.01888(3)
Nb11 Nb 0.77461(4) 0.72275(4) -0.00866(3)
Nb12 Nb 1.01052(4) 0.73909(4) 0.02044(3)
Cu2 Cu 0.68682(7) 0.63427(7) 0.56336(5)
Cu3 Cu 0.43554(6) 0.81037(6) 0.11955(5)
O1 O 0.7293(4) 0.8919(3) 0.1781(3)
O2 O 0.9313(3) 0.5630(3) 0.2117(2)
O3 O 1.2082(4) 0.6817(3) 0.1676(3)
O4 O 0.8541(4) 0.6018(3) 0.4493(2)
O5 O 1.0360(3) 0.3381(3) 0.2074(2)
O6 O 1.3946(3) 0.2722(3) 0.1638(3)
O7 O 1.0371(4) 0.1890(3) 0.4415(2)
O8 O 1.1238(4) 0.0209(3) 0.1575(3)
O9 O 0.8029(3) 0.4343(3) 0.2121(2)
O10 O 0.6167(3) 0.3705(3) 0.4502(3)
O11 O 0.6995(4) 0.1943(3) 0.1699(2)
O12 O 0.4971(3) 0.6586(3) 0.1717(3)
O13 O 0.6275(4) 0.4722(3) -0.0035(2)
O14 O 0.6413(3) 0.8199(3) 0.0260(2)
O15 O 1.0241(4) 0.8699(3) -0.0022(2)
O16 O 0.7978(3) 0.7225(3) 0.3022(2)
O17 O 0.6852(3) 0.6807(3) 0.2081(2)
O18 O 1.0212(3) 0.6260(3) 0.2959(2)
O19 O 1.1958(3) 0.4655(3) 0.1972(2)
O20 O 0.9872(3) 0.4168(3) 0.3611(2)
O21 O 0.7551(3) 0.5143(3) 0.3666(2)
O22 O 1.1930(3) 0.2556(3) 0.2898(2)
O23 O 1.2254(3) 0.1981(3) 0.1307(2)
O24 O 1.0665(3) 0.1355(3) 0.2874(2)
O25 O 0.8592(3) 0.2895(3) 0.3597(2)
O26 O 0.9079(3) 0.1896(3) 0.1947(2)
O27 O 0.6824(3) 0.2940(3) 0.2971(2)
O28 O 0.5860(3) 0.5126(3) 0.3008(2)
O29 O 0.6524(3) 0.4385(3) 0.1442(2)
O30 O 0.7745(4) 0.6093(3) -0.0644(2)
O31 O 0.8530(3) 0.7166(3) 0.0754(2)
O32 O 0.9316(3) 0.7502(3) -0.0647(2)
O33 O 0.9706(3) 0.7527(3) 0.1457(2)
O34 O 1.1177(3) 0.5992(3) 0.0705(2)
O35 O 0.8496(3) 0.3332(3) 0.0676(2)
O36 O 0.7448(3) 0.5881(3) 0.0754(2)
O37 O 0.2495(4) 0.8272(4) 0.2315(3)
O38 O 0.5508(4) 0.6612(5) 0.7097(3)
N1 N 0.5685(6) 0.7474(5) 0.5114(4)
H1 H 0.56330 0.72080 0.47260
H2 H 0.49910 0.76340 0.54740
N2 N 0.7309(5) 0.7650(5) 0.5636(4)
H3 H 0.73180 0.76570 0.61270
H4 H 0.80190 0.76010 0.53060
N3 N 0.7961(5) 0.5242(5) 0.6223(4)
H5 H 0.86890 0.51070 0.59090
H6 H 0.79130 0.54930 0.66520
N4 N 0.6382(5) 0.5078(4) 0.5587(4)
H7 H 0.56670 0.51290 0.59080
H8 H 0.63900 0.50840 0.50890
N5 N 0.4018(6) 0.7459(4) 0.0433(4)
N6 N 0.3631(5) 0.9556(4) 0.0590(3)
H9 H 0.29220 0.98800 0.08870
H10 H 0.40590 1.00020 0.04770
N7 N 0.4796(4) 0.8758(4) 0.1909(3)
H11 H 0.48150 0.82820 0.23600
H12 H 0.55200 0.87780 0.16650
N8 N 0.5456(5) 1.0649(4) 0.2330(3)
H13 H 0.56240 1.08510 0.26990
H14 H 0.60700 1.01260 0.20950
H15 H 0.52740 1.12330 0.19630
N9 N 0.8833(5) 0.0602(4) 0.5974(3)
H16 H 0.89540 0.01330 0.64130
H17 H 0.88840 0.12460 0.60020
N10 N 0.8643(5) 0.0526(4) 0.4520(4)
H18 H 0.88030 0.09490 0.40490
H19 H 0.85040 -0.00500 0.44470
C1 C 0.6035(8) 0.8462(6) 0.4785(5)
H20 H 0.53780 0.90880 0.46860
H21 H 0.66410 0.83600 0.42810
C2 C 0.6475(7) 0.8667(6) 0.5376(5)
H22 H 0.68460 0.92410 0.51350
H23 H 0.58310 0.89190 0.58350
C3 C 0.7609(9) 0.4197(7) 0.6472(6)
H24 H 0.82630 0.35650 0.65690
H25 H 0.69800 0.42530 0.69660
C4 C 0.7242(8) 0.4039(6) 0.5859(6)
H26 H 0.68900 0.34490 0.60620
H27 H 0.79130 0.38180 0.54060
C5 C 0.3283(9) 0.8352(6) -0.0023(5)
H28 H 0.34080 0.81410 -0.05340
H29 H 0.24700 0.84700 0.02730
C6 C 0.3562(10) 0.9355(7) -0.0156(5)
H30 H 0.29700 0.99720 -0.03490
H31 H 0.43010 0.93000 -0.05630
C7 C 0.4099(5) 0.9845(5) 0.2134(4)
H32 H 0.32970 0.98500 0.23750
H33 H 0.41240 1.03840 0.16510
C8 C 0.4463(5) 1.0217(5) 0.2714(4)
H34 H 0.38060 1.07880 0.29800
H35 H 0.46630 0.95950 0.31220
C9 C 0.7686(7) 0.0751(8) 0.5908(5)
H36 H 0.75260 0.00490 0.60810
H37 H 0.70980 0.12690 0.62580
C10 C 0.7628(7) 0.1163(8) 0.5090(6)
H38 H 0.75940 0.19350 0.49620
H39 H 0.69240 0.11150 0.50390
K1 K 0.43022(12) 0.48094(12) 0.13979(9)
K2 K 0.92634(14) -0.01368(12) 0.13803(9)
O39 O 0.8460(5) -0.0860(4) 0.3075(3)
O40 O 0.6399(5) 0.0868(4) 0.3551(3)
O41 O 0.5042(6) 0.7195(5) 0.3773(4)
O42 O 0.9767(6) 0.7866(5) 0.4126(4)
Te1A Te 1.05527(3) 0.54121(3) -0.15351(2)
Nb1A Nb 1.19734(4) 0.25160(4) -0.19358(3)
Nb2A Nb 0.90034(4) 0.37965(4) -0.18750(3)
Nb3A Nb 1.11797(4) 0.43183(4) -0.35453(3)
Nb4A Nb 0.75770(4) 0.68687(4) -0.18130(3)
Nb5A Nb 0.97865(4) 0.73357(4) -0.34804(3)
Nb6A Nb 0.92854(4) 0.84347(4) -0.17960(3)
Nb7A Nb 1.29097(4) 0.60480(4) -0.35501(3)
Nb8A Nb 1.24304(4) 0.71533(4) -0.18579(3)
Nb9A Nb 1.36930(4) 0.42749(4) -0.19375(3)
Nb10A Nb 1.25292(4) 0.52671(4) -0.01888(3)
Nb11A Nb 1.22539(4) 0.27725(4) 0.00866(3)
Nb12A Nb 0.98948(4) 0.26091(4) -0.02044(3)
O1A O 1.2707(4) 0.1081(3) -0.1781(3)
O2A O 1.0687(3) 0.4370(3) -0.2117(2)
O3A O 0.7918(4) 0.3183(3) -0.1676(3)
O4A O 1.1459(4) 0.3982(3) -0.4493(2)
O5A O 0.9640(3) 0.6619(3) -0.2074(2)
O6A O 0.6054(3) 0.7278(3) -0.1638(3)
O7A O 0.9629(4) 0.8110(3) -0.4415(2)
O8A O 0.8762(4) 0.9791(3) -0.1575(3)
O9A O 1.1971(3) 0.5657(3) -0.2121(2)
O10A O 1.3833(3) 0.6295(3) -0.4502(3)
O11A O 1.3005(4) 0.8057(3) -0.1699(2)
O12A O 1.5029(3) 0.3414(3) -0.1717(3)
O13A O 1.3725(4) 0.5278(3) 0.0035(2)
O14A O 1.3587(3) 0.1801(3) -0.0260(2)
O15A O 0.9759(4) 0.1301(3) 0.0022(2)
O16A O 1.2022(3) 0.2775(3) -0.3022(2)
O17A O 1.3148(3) 0.3193(3) -0.2081(2)
O18A O 0.9788(3) 0.3740(3) -0.2959(2)
O19A O 0.8042(3) 0.5345(3) -0.1972(2)
O20A O 1.0128(3) 0.5832(3) -0.3611(2)
O21A O 1.2449(3) 0.4857(3) -0.3666(2)
O22A O 0.8070(3) 0.7444(3) -0.2898(2)
O23A O 0.7746(3) 0.8019(3) -0.1307(2)
O24A O 0.9335(3) 0.8645(3) -0.2874(2)
O25A O 1.1408(3) 0.7105(3) -0.3597(2)
O26A O 1.0921(3) 0.8104(3) -0.1947(2)
O27A O 1.3176(3) 0.7060(3) -0.2971(2)
O28A O 1.4140(3) 0.4874(3) -0.3008(2)
O29A O 1.3476(3) 0.5615(3) -0.1442(2)
O30A O 1.2255(4) 0.3907(3) 0.0644(2)
O31A O 1.1470(3) 0.2834(3) -0.0754(2)
O32A O 1.0684(3) 0.2498(3) 0.0647(2)
O33A O 1.0294(3) 0.2473(3) -0.1457(2)
O34A O 0.8823(3) 0.4008(3) -0.0705(2)
O35A O 1.1504(3) 0.6668(3) -0.0676(2)
O36A O 1.2552(3) 0.4119(3) -0.0754(2)
N9A N 1.1167(5) -0.0602(4) 0.4026(3)
H16A H 1.10460 -0.01330 0.35870
H17A H 1.11160 -0.12460 0.39980
N10A N 1.1357(5) -0.0526(4) 0.5480(4)
H18A H 1.11970 -0.09490 0.59510
H19A H 1.14960 0.00500 0.55530
C9A C 1.2314(7) -0.0751(8) 0.4092(5)
H36A H 1.24740 -0.00490 0.39190
H37A H 1.29020 -0.12690 0.37420
C10A C 1.2372(7) -0.1163(8) 0.4910(6)
H38A H 1.24060 -0.19350 0.50380
H39A H 1.30760 -0.11150 0.49610
Cu2A Cu 1.31318(7) 0.36573(7) -0.56336(5)
O38A O 1.4492(4) 0.3388(5) -0.7097(3)
N1A N 1.4315(6) 0.2526(5) -0.5114(4)
H1A H 1.43670 0.27920 -0.47260
H2A H 1.50090 0.23660 -0.54740
N2A N 1.2691(5) 0.2350(5) -0.5636(4)
H3A H 1.26820 0.23430 -0.61270
H4A H 1.19810 0.23990 -0.53060
N3A N 1.2039(5) 0.4758(5) -0.6223(4)
H5A H 1.13110 0.48930 -0.59090
H6A H 1.20870 0.45070 -0.66520
N4A N 1.3618(5) 0.4922(4) -0.5587(4)
H7A H 1.43330 0.48710 -0.59080
H8A H 1.36100 0.49160 -0.50890
C1A C 1.3965(8) 0.1538(6) -0.4785(5)
H20A H 1.46220 0.09120 -0.46860
H21A H 1.33590 0.16400 -0.42810
C2A C 1.3525(7) 0.1333(6) -0.5376(5)
H22A H 1.31540 0.07590 -0.51350
H23A H 1.41690 0.10810 -0.58350
C3A C 1.2391(9) 0.5803(7) -0.6472(6)
H24A H 1.17370 0.64350 -0.65690
H25A H 1.30200 0.57470 -0.69660
C4A C 1.2758(8) 0.5961(6) -0.5859(6)
H26A H 1.31100 0.65510 -0.60620
H27A H 1.20870 0.61820 -0.54060
Cu3A Cu 1.56446(6) 0.18963(6) -0.11955(5)
O37A O 1.7505(4) 0.1728(4) -0.2315(3)
N5A N 1.5982(6) 0.2541(4) -0.0433(4)
N6A N 1.6369(5) 0.0444(4) -0.0590(3)
H9A H 1.70780 0.01200 -0.08870
H10A H 1.59410 -0.00020 -0.04770
N7A N 1.5204(4) 0.1242(4) -0.1909(3)
H11A H 1.51850 0.17180 -0.23600
H12A H 1.44800 0.12220 -0.16650
N8A N 1.4544(5) -0.0649(4) -0.2330(3)
H13A H 1.43760 -0.08510 -0.26990
H14A H 1.39300 -0.01260 -0.20950
H15A H 1.47260 -0.12330 -0.19630
C5A C 1.6717(9) 0.1648(6) 0.0023(5)
H28A H 1.65920 0.18590 0.05340
H29A H 1.75300 0.15300 -0.02730
C6A C 1.6438(10) 0.0645(7) 0.0156(5)
H30A H 1.70300 0.00280 0.03490
H31A H 1.56990 0.07000 0.05630
C7A C 1.5901(5) 0.0155(5) -0.2134(4)
H32A H 1.67030 0.01500 -0.23750
H33A H 1.58760 -0.03840 -0.16510
C8A C 1.5537(5) -0.0217(5) -0.2714(4)
H34A H 1.61940 -0.07880 -0.29800
H35A H 1.53370 0.04050 -0.31220
Cu1* Cu 1.00000 1.00000 -0.50000
O7A* O 0.9629(4) -0.1890(3) 0.5585(2)
#END
