
#######################################################################
#
#                 Cambridge Crystallographic Data Centre
#                                CCDC
#
#######################################################################
#
# If this CIF has been generated from an entry in the Cambridge
# Structural Database, then it will include bibliographic, chemical,
# crystal, experimental, refinement or atomic coordinate data resulting
# from the CCDC's data processing and validation procedures.
#
#######################################################################

data_CSD_CIF_LEDNEP
_audit_creation_date 2012-12-11
_audit_creation_method CSD-ConQuest-V1
_database_code_CSD LEDNEP
_database_code_depnum_ccdc_archive 'CCDC 716499'
_chemical_formula_sum 'C20 H21 N2 O28 Yb3'
_chemical_formula_moiety
;
(H3 O1 1+)3n,n(C20 H10 N2 O24 Yb3 3-),n(H2 O1)
;
_journal_coden_Cambridge 1295
_journal_volume 21
_journal_year 2012
_journal_page_first 178
_journal_name_full 'Inorg.Chem.Commun. '
loop_
_publ_author_name
"Hao-Zhao Chen"
"Jian-Xiong Rong"
"Jing-Jun Lin"
"Xia Cai"
"Song-Liang Cai"
"Rong-Hua Zeng"
"Sheng-Run Zheng"
_chemical_name_systematic
;
catena-[tris(Oxonium) 
tetrakis(\m~2~-oxalato)-bis(\m~2~-2-oxidonicotinato)-diaqua-tri-ytterbium(iii)
 monohydrate]
;
_cell_volume   3578.195
_exptl_crystal_colour 'colorless'
_exptl_special_details
;
Isomorphous with the Tm analogue
The structure as described and represented in the paper does not charge 
balance. The CSD entry shows three of the four solvent water molecules as 
oxonium cations in order to present a charge-balanced structure
;
_exptl_crystal_description 'block'
_diffrn_ambient_temperature 296
#These two values have been output from a single CSD field.
_refine_ls_R_factor_gt 0.0321
_refine_ls_wR_factor_gt 0.0321
_symmetry_cell_setting monoclinic
_symmetry_space_group_name_H-M 'C 2/c'
_symmetry_Int_Tables_number 15
loop_
_symmetry_equiv_pos_site_id
_symmetry_equiv_pos_as_xyz
1 x,y,z
2 -x,y,1/2-z
3 1/2+x,1/2+y,z
4 1/2-x,1/2+y,1/2-z
5 -x,-y,-z
6 x,-y,-1/2+z
7 -1/2-x,-1/2-y,-z
8 -1/2+x,-1/2-y,-1/2+z
_cell_length_a 18.991(3)
_cell_length_b 20.708(3)
_cell_length_c 9.7641(13)
_cell_angle_alpha 90
_cell_angle_beta 111.275(2)
_cell_angle_gamma 90
_cell_formula_units_Z 4
loop_
_atom_type_symbol
_atom_type_radius_bond
C 0.68
H 0.23
N 0.68
O 0.68
Yb 1.82
loop_
_atom_site_label
_atom_site_type_symbol
_atom_site_fract_x
_atom_site_fract_y
_atom_site_fract_z
Yb1 Yb 0.216905(16) 0.585975(13) 0.15637(3)
Yb2 Yb 0.50000 0.718732(19) 0.25000
C1 C 0.2687(4) 0.6543(3) 0.4784(8)
O1 O 0.2165(3) 0.6343(3) 0.3645(6)
N1 N 0.2504(4) 0.6637(3) 0.6004(7)
O2 O 0.1422(3) 0.5286(3) -0.0539(5)
C2 C 0.1725(4) 0.5071(3) -0.1378(7)
O3 O 0.3276(3) 0.6376(2) 0.2483(5)
O4 O 0.3802(3) 0.7707(3) 0.1871(6)
O5 O 0.4390(3) 0.6760(2) 0.3922(5)
C3 C 0.3721(4) 0.6599(3) 0.3701(7)
C4 C 0.2585(4) 0.5128(3) -0.0858(8)
C5 C 0.3595(4) 0.8092(3) 0.0837(7)
C6 C 0.3448(4) 0.6686(3) 0.4948(7)
C7 C 0.3931(5) 0.6920(5) 0.6248(9)
H1 H 0.44210 0.70310 0.63360
C8 C 0.3001(6) 0.6854(6) 0.7306(10)
H2 H 0.28450 0.69020 0.81000
C9 C 0.3708(6) 0.6998(6) 0.7467(10)
H3 H 0.40470 0.71480 0.83610
O6 O 0.4186(3) 0.6476(3) 0.0879(6)
H4 H 0.448(4) 0.616(3) 0.127(11)
H5 H 0.378(3) 0.639(4) 0.103(11)
O7 O 0.2907(3) 0.5402(2) 0.0360(5)
O8 O 0.2970(3) 0.8366(3) 0.0261(6)
O9 O 0.1402(3) 0.4805(2) -0.2598(5)
O10 O 0.2900(3) 0.4895(3) -0.1672(6)
O11 O 1.00000 0.50000 0.50000
O12 O 0.1059(4) 0.6259(4) 0.5707(10)
O13 O 0.0591(6) 0.9593(6) 0.0640(19)
O14 O 0.4816(3) 0.7964(2) 0.0681(6)
C10 C 0.4189(4) 0.8244(3) 0.0140(8)
O15 O 0.4010(3) 0.8646(3) -0.0891(6)
O16 O 1.00000 0.6282(18) 0.25000
O17 O 1.00000 0.5167(18) 0.25000
Yb1A Yb 0.783095(16) 0.585975(13) 0.34363(3)
Yb1F Yb 0.283095(16) 0.914025(13) -0.15637(3)
Yb1E Yb 0.216905(16) 0.414025(13) -0.34363(3)
Yb1G Yb 0.716905(16) 0.914025(13) 0.65637(3)
Yb1E* Yb 0.216905(16) 0.414025(13) 0.65637(3)
C1A C 0.7313(4) 0.6543(3) 0.0216(8)
O1A O 0.7835(3) 0.6343(3) 0.1355(6)
N1A N 0.7496(4) 0.6637(3) -0.1004(7)
O2E O 0.1422(3) 0.4714(3) 0.4461(5)
O2A O 0.8578(3) 0.5286(3) 0.5539(5)
C2E C 0.1725(4) 0.4929(3) 0.3622(7)
O3A O 0.6724(3) 0.6376(2) 0.2517(5)
O4A O 0.6198(3) 0.7707(3) 0.3129(6)
O5A O 0.5610(3) 0.6760(2) 0.1078(5)
C3A C 0.6279(4) 0.6599(3) 0.1299(7)
C4E C 0.2585(4) 0.4872(3) 0.4142(8)
C5A C 0.6405(4) 0.8092(3) 0.4163(7)
C6A C 0.6552(4) 0.6686(3) 0.0052(7)
C7A C 0.6069(5) 0.6920(5) -0.1248(9)
H1A H 0.55790 0.70310 -0.13360
C8A C 0.6999(6) 0.6854(6) -0.2306(10)
H2A H 0.71550 0.69020 -0.31000
C9A C 0.6292(6) 0.6998(6) -0.2467(10)
H3A H 0.59530 0.71480 -0.33610
O6A O 0.5814(3) 0.6476(3) 0.4121(6)
H4A H 0.552(4) 0.616(3) 0.373(11)
H5A H 0.622(3) 0.639(4) 0.397(11)
O7E O 0.2907(3) 0.4598(2) 0.5360(5)
O7A O 0.7093(3) 0.5402(2) 0.4640(5)
O8A O 0.7030(3) 0.8366(3) 0.4739(6)
O8F O 0.2030(3) 0.6634(3) -0.0261(6)
O8G O 0.7970(3) 0.6634(3) 0.5261(6)
O9E O 0.1402(3) 0.5195(2) 0.2402(5)
O9D O 0.8598(3) 0.5195(2) 0.2598(5)
O10E O 0.2900(3) 0.5105(3) 0.3328(6)
O10D O 0.7100(3) 0.5105(3) 0.1672(6)
O14A O 0.5184(3) 0.7964(2) 0.4319(6)
C10A C 0.5811(4) 0.8244(3) 0.4860(8)
O15A O 0.5990(3) 0.8646(3) 0.5891(6)
O15F O 0.0990(3) 0.6354(3) 0.0891(6)
O15G O 0.9010(3) 0.6354(3) 0.4109(6)
#END
