
#######################################################################
#
#                 Cambridge Crystallographic Data Centre
#                                CCDC
#
#######################################################################
#
# If this CIF has been generated from an entry in the Cambridge
# Structural Database, then it will include bibliographic, chemical,
# crystal, experimental, refinement or atomic coordinate data resulting
# from the CCDC's data processing and validation procedures.
#
#######################################################################

data_CSD_CIF_LEHFOW
_audit_creation_date 2017-08-22
_audit_creation_method CSD-ConQuest-V1
_database_code_CSD LEHFOW
_database_code_depnum_ccdc_archive 'CCDC 1536562'
_chemical_formula_sum 'C64 H66 N6 O42 Zn6'
_chemical_formula_moiety
;
4(C2 H8 N1 1+),n(C48 H16 O40 Zn6 4-),2(C4 H9 N1 O1)
;
_journal_coden_Cambridge 1350
_journal_volume 19
_journal_year 2017
_journal_page_first 5244
_journal_name_full 'CrystEngComm '
loop_
_publ_author_name
"Jun Wang"
"Deyun Ma"
"Weilin Liao"
"Shujun Li"
"Manfei Huang"
"Huimin Liu"
"Yifei Wang"
"Rui Xie"
"Jun Xu"
_chemical_name_systematic
;
catena-[tetrakis(dimethylammonium) 
octakis(\m-furan-2,5-dicarboxylato)-hexa-zinc(ii) N,N-dimethylacetamide 
solvate]
;
_cell_volume   2216.273
_exptl_crystal_colour 'colorless'
_exptl_crystal_description 'Block'
_diffrn_ambient_temperature 296
_refine_special_details
;
Disordered N,N-dimethylacetamide solvent molecules were not modelled and the 
disordered density was taken into account using the SQUEEZE/PLATON procedure.
;
#These two values have been output from a single CSD field.
_refine_ls_R_factor_gt 0.0529
_refine_ls_wR_factor_gt 0.0529
_symmetry_cell_setting triclinic
_symmetry_space_group_name_H-M 'P -1'
_symmetry_Int_Tables_number 2
loop_
_symmetry_equiv_pos_site_id
_symmetry_equiv_pos_as_xyz
1 x,y,z
2 -x,-y,-z
_cell_length_a 12.5412(9)
_cell_length_b 12.9653(9)
_cell_length_c 14.9803(10)
_cell_angle_alpha 113.869(2)
_cell_angle_beta 95.216(2)
_cell_angle_gamma 90.096(2)
_cell_formula_units_Z 1
loop_
_atom_type_symbol
_atom_type_radius_bond
C 0.68
H 0.23
N 0.68
O 0.68
Zn 1.22
loop_
_atom_site_label
_atom_site_type_symbol
_atom_site_fract_x
_atom_site_fract_y
_atom_site_fract_z
C1 C 0.3194(5) -0.4560(6) -0.3583(5)
C2 C 0.2437(6) -0.3636(5) -0.3183(4)
C3 C 0.2082(6) -0.2839(6) -0.3466(5)
H1 H 0.22800 -0.27150 -0.39990
C4 C 0.1344(6) -0.2214(6) -0.2806(5)
H2 H 0.09710 -0.16020 -0.28240
C5 C 0.1284(6) -0.2667(5) -0.2156(5)
C6 C 0.0721(5) -0.2331(5) -0.1269(4)
C7 C -0.1589(5) -0.1099(5) 0.0866(4)
C8 C -0.2537(5) -0.0853(5) 0.1431(5)
C9 C -0.3246(6) -0.0050(6) 0.1625(5)
H3 H -0.32810 0.05180 0.13950
C10 C -0.3949(6) -0.0229(6) 0.2256(5)
H4 H -0.45300 0.01970 0.25140
C11 C -0.3606(6) -0.1120(6) 0.2398(5)
C12 C -0.3981(6) -0.1736(6) 0.2981(5)
C13 C 0.1154(5) 0.0098(5) 0.1898(5)
C14 C 0.2099(5) 0.0877(5) 0.2196(4)
C15 C 0.2813(6) 0.1160(6) 0.1707(5)
H5 H 0.27870 0.09260 0.10310
C16 C 0.3615(6) 0.1882(6) 0.2417(5)
H6 H 0.42210 0.21990 0.22940
C17 C 0.3333(6) 0.2018(5) 0.3289(5)
C18 C 0.3842(6) 0.2664(5) 0.4294(5)
C19 C 0.3860(5) 0.5528(5) 0.3302(4)
C20 C 0.2865(5) 0.5312(5) 0.2650(4)
C21 C 0.2175(5) 0.4420(6) 0.2216(5)
H7 H 0.22000 0.37380 0.22840
C22 C 0.1384(6) 0.4736(6) 0.1620(5)
H8 H 0.07870 0.43010 0.12380
C23 C 0.1671(5) 0.5759(6) 0.1723(5)
C24 C 0.1163(6) 0.6536(7) 0.1318(5)
O1 O 0.3584(3) -0.4616(4) -0.4330(3)
O2 O 0.3342(4) -0.5198(4) -0.3144(3)
O3 O 0.1957(4) -0.3547(4) -0.2360(3)
O4 O 0.0924(4) -0.2819(3) -0.0700(3)
O5 O 0.0085(4) -0.1564(4) -0.1135(3)
O6 O -0.1073(3) -0.1957(4) 0.0823(3)
O7 O -0.1377(3) -0.0427(4) 0.0499(3)
O8 O -0.2737(4) -0.1545(4) 0.1900(3)
O9 O -0.3501(4) -0.2615(4) 0.2914(3)
O10 O -0.4726(4) -0.1335(4) 0.3482(4)
O11 O 0.0991(3) -0.0515(3) 0.0959(3)
O12 O 0.0610(4) 0.0012(4) 0.2511(3)
O13 O 0.2415(4) 0.1407(3) 0.3187(3)
O14 O 0.3404(4) 0.2499(4) 0.4960(3)
O15 O 0.4669(4) 0.3256(4) 0.4415(3)
O16 O 0.4085(4) 0.4891(3) 0.3707(3)
O17 O 0.4419(3) 0.6405(3) 0.3386(3)
O18 O 0.2587(3) 0.6148(3) 0.2336(3)
O19 O 0.0328(5) 0.6211(5) 0.0762(4)
O20 O 0.1590(5) 0.7470(4) 0.1534(4)
Zn1 Zn 0.00000 0.00000 0.00000
Zn2 Zn 0.04561(6) -0.21062(6) 0.06299(5)
Zn3 Zn 0.50000 0.50000 0.50000
Zn4 Zn 0.59599(6) 0.66358(6) 0.36991(5)
C25 C 0.2867(8) 0.9415(8) 0.3768(7)
H9 H 0.22260 0.97180 0.40630
H10 H 0.27330 0.91400 0.30670
H11 H 0.34270 0.99950 0.39990
C26 C 0.3602(7) 0.8754(7) 0.5048(6)
H12 H 0.42170 0.92630 0.52160
H13 H 0.38000 0.80870 0.51400
H14 H 0.30520 0.91150 0.54610
N1 N 0.3209(5) 0.8453(5) 0.4044(4)
H15 H 0.26510 0.79680 0.38970
H16 H 0.37180 0.80920 0.36710
C27 C 0.1201(10) 0.3774(15) 0.7648(9)
H17 H 0.06330 0.42900 0.78450
H18 H 0.09020 0.30310 0.72400
H19 H 0.16660 0.40140 0.72870
C28 C 0.2266(12) 0.4761(9) 0.9097(9)
H20 H 0.27230 0.50060 0.87340
H21 H 0.26820 0.47080 0.96460
H22 H 0.17180 0.52950 0.93290
N2 N 0.1812(8) 0.3752(8) 0.8517(8)
H23 H 0.13780 0.35330 0.88520
H24 H 0.23190 0.32500 0.83320
C1A C -0.3194(5) 0.4560(6) 0.3583(5)
C2A C -0.2437(6) 0.3636(5) 0.3183(4)
C3A C -0.2082(6) 0.2839(6) 0.3466(5)
H1A H -0.22800 0.27150 0.39990
C4A C -0.1344(6) 0.2214(6) 0.2806(5)
H2A H -0.09710 0.16020 0.28240
C5A C -0.1284(6) 0.2667(5) 0.2156(5)
C6A C -0.0721(5) 0.2331(5) 0.1269(4)
C7A C 0.1589(5) 0.1099(5) -0.0866(4)
C8A C 0.2537(5) 0.0853(5) -0.1431(5)
C9A C 0.3246(6) 0.0050(6) -0.1625(5)
H3A H 0.32810 -0.05180 -0.13950
C10A C 0.3949(6) 0.0229(6) -0.2256(5)
H4A H 0.45300 -0.01970 -0.25140
C11A C 0.3606(6) 0.1120(6) -0.2398(5)
C12A C 0.3981(6) 0.1736(6) -0.2981(5)
C13A C -0.1154(5) -0.0098(5) -0.1898(5)
C14A C -0.2099(5) -0.0877(5) -0.2196(4)
C15A C -0.2813(6) -0.1160(6) -0.1707(5)
H5A H -0.27870 -0.09260 -0.10310
C16A C -0.3615(6) -0.1882(6) -0.2417(5)
H6A H -0.42210 -0.21990 -0.22940
C17A C -0.3333(6) -0.2018(5) -0.3289(5)
C18A C -0.3842(6) -0.2664(5) -0.4294(5)
O1A O -0.3584(3) 0.4616(4) 0.4330(3)
O2A O -0.3342(4) 0.5198(4) 0.3144(3)
O3A O -0.1957(4) 0.3547(4) 0.2360(3)
O4A O -0.0924(4) 0.2819(3) 0.0700(3)
O5A O -0.0085(4) 0.1564(4) 0.1135(3)
O6A O 0.1073(3) 0.1957(4) -0.0823(3)
O7A O 0.1377(3) 0.0427(4) -0.0499(3)
O8A O 0.2737(4) 0.1545(4) -0.1900(3)
O9A O 0.3501(4) 0.2615(4) -0.2914(3)
O10A O 0.4726(4) 0.1335(4) -0.3482(4)
O11A O -0.0991(3) 0.0515(3) -0.0959(3)
O12A O -0.0610(4) -0.0012(4) -0.2511(3)
O13A O -0.2415(4) -0.1407(3) -0.3187(3)
O14A O -0.3404(4) -0.2499(4) -0.4960(3)
O15A O -0.4669(4) -0.3256(4) -0.4415(3)
Zn2A Zn -0.04561(6) 0.21062(6) -0.06299(5)
C19A C 0.6140(5) -0.5528(5) -0.3302(4)
C20A C 0.7135(5) -0.5312(5) -0.2650(4)
C21A C 0.7825(5) -0.4420(6) -0.2216(5)
H7A H 0.78000 -0.37380 -0.22840
C22A C 0.8616(6) -0.4736(6) -0.1620(5)
H8A H 0.92130 -0.43010 -0.12380
C23A C 0.8329(5) -0.5759(6) -0.1723(5)
C24A C 0.8837(6) -0.6536(7) -0.1318(5)
O16A O 0.5915(4) -0.4891(3) -0.3707(3)
O17A O 0.5581(3) -0.6405(3) -0.3386(3)
O18A O 0.7413(3) -0.6148(3) -0.2336(3)
O19A O 0.9672(5) -0.6211(5) -0.0762(4)
O20A O 0.8410(5) -0.7470(4) -0.1534(4)
Zn4A Zn 0.40401(6) -0.66358(6) -0.36991(5)
O1* O 0.3584(3) 0.5384(4) 0.5670(3)
O1A* O 0.6416(3) 0.4616(4) 0.4330(3)
O2A* O 0.6658(4) 0.5198(4) 0.3144(3)
O9* O 0.6499(4) 0.7385(4) 0.2914(3)
O9A* O 0.3501(4) -0.7385(4) -0.2914(3)
O14* O 0.3404(4) -0.7501(4) -0.5040(3)
O14A* O 0.6596(4) 0.7501(4) 0.5040(3)
O15A* O 0.5331(4) 0.6744(4) 0.5585(3)
O16A* O 0.5915(4) 0.5109(3) 0.6293(3)
O19* O 0.0328(5) -0.3789(5) 0.0762(4)
O19A* O -0.0328(5) 0.3789(5) -0.0762(4)
O20* O 0.1590(5) -0.2530(4) 0.1534(4)
O20A* O -0.1590(5) 0.2530(4) -0.1534(4)
Zn2* Zn 0.04561(6) 0.78938(6) 0.06299(5)
Zn2A* Zn 0.95439(6) -0.78938(6) -0.06299(5)
Zn3* Zn -0.50000 -0.50000 -0.50000
Zn3** Zn -0.50000 0.50000 0.50000
Zn3*** Zn 0.50000 -0.50000 -0.50000
Zn4* Zn -0.40401(6) -0.33642(6) -0.63009(5)
Zn4** Zn -0.40401(6) -0.33642(6) 0.36991(5)
Zn4*** Zn -0.40401(6) 0.66358(6) 0.36991(5)
Zn4A* Zn 0.40401(6) 0.33642(6) -0.36991(5)
Zn4A** Zn 0.40401(6) 0.33642(6) 0.63009(5)
#END
