
#######################################################################
#
#                 Cambridge Crystallographic Data Centre
#                                CCDC
#
#######################################################################
#
# If this CIF has been generated from an entry in the Cambridge
# Structural Database, then it will include bibliographic, chemical,
# crystal, experimental, refinement or atomic coordinate data resulting
# from the CCDC's data processing and validation procedures.
#
#######################################################################

data_CSD_CIF_LEKKAP
_audit_creation_date 2013-04-23
_audit_creation_method CSD-ConQuest-V1
_database_code_CSD LEKKAP
_database_code_depnum_ccdc_archive 'CCDC 890809'
_chemical_formula_sum 'C7 H15 Mo2 N2 Na1 O17'
_chemical_formula_moiety
;
(C4 H10 Mo2 Na1 O17 1-)n,n(C3 H5 N2 1+)
;
_journal_coden_Cambridge 222
_journal_volume 42
_journal_year 2013
_journal_page_first 1627
_journal_name_full 'Dalton Trans. '
loop_
_publ_author_name
"Quan-Liang Chen"
"Hong-Bin Chen"
"Ze-Xing Cao"
"Zhao-Hui Zhou"
_chemical_name_systematic
;
catena-(1H-Imidazol-3-ium 
(\m~3~-oxalato)-bis(\m~2~-oxo)-oxalato-dioxo-penta-aqua-di-molybdenum-sodium)
;
_cell_volume    919.239
_exptl_crystal_density_diffrn 2.219
_diffrn_ambient_temperature 173
#These two values have been output from a single CSD field.
_refine_ls_R_factor_gt 0.034
_refine_ls_wR_factor_gt 0.034
_symmetry_cell_setting triclinic
_symmetry_space_group_name_H-M 'P -1'
_symmetry_Int_Tables_number 2
loop_
_symmetry_equiv_pos_site_id
_symmetry_equiv_pos_as_xyz
1 x,y,z
2 -x,-y,-z
_cell_length_a 8.6765(2)
_cell_length_b 9.5675(3)
_cell_length_c 11.8913(4)
_cell_angle_alpha 100.703(3)
_cell_angle_beta 100.708(2)
_cell_angle_gamma 102.734(3)
_cell_formula_units_Z 2
loop_
_atom_type_symbol
_atom_type_radius_bond
C 0.68
H 0.23
Mo 1.31
N 0.68
Na 1.54
O 0.68
loop_
_atom_site_label
_atom_site_type_symbol
_atom_site_fract_x
_atom_site_fract_y
_atom_site_fract_z
Mo1 Mo 0.63292(4) 0.05469(3) -0.26143(3)
Mo2 Mo 0.35440(4) 0.04696(3) -0.21688(3)
Na1 Na -0.17343(18) -0.43110(17) -0.53003(13)
O1 O 0.4210(3) 0.0131(3) -0.3652(2)
O2 O 0.5907(3) -0.1876(3) -0.3014(2)
O3 O 0.1103(3) -0.0056(3) -0.3180(2)
O4 O 0.5524(3) 0.0293(3) -0.1228(2)
O5 O 0.8455(3) 0.0119(3) -0.1725(2)
O6 O 0.9617(3) -0.1576(3) -0.1158(2)
O7 O 0.6739(3) -0.3675(3) -0.2332(2)
O8 O 0.2645(3) -0.1928(3) -0.2592(2)
O9 O -0.1128(3) -0.1846(3) -0.4139(2)
O10 O 0.0628(3) -0.3857(3) -0.3695(2)
O11 O 0.7184(3) 0.2367(3) -0.2338(2)
O12 O 0.3606(3) 0.2276(3) -0.1893(2)
O13 O 0.7270(3) 0.0148(3) -0.4155(2)
H1 H 0.788(4) -0.043(3) -0.422(3)
H2 H 0.663(4) 0.005(4) -0.4808(17)
O14 O 0.2607(3) 0.0179(3) -0.0670(2)
H3 H 0.324(3) -0.003(4) -0.013(2)
H4 H 0.1648(17) -0.035(3) -0.078(3)
C1 C 0.0302(4) -0.1401(4) -0.3583(3)
C2 C 0.1243(4) -0.2529(4) -0.3278(3)
C3 C 0.8474(4) -0.1205(4) -0.1674(3)
C4 C 0.6898(4) -0.2390(4) -0.2397(3)
O15 O -0.3415(3) -0.6450(3) -0.4898(2)
O16 O 0.0437(3) -0.2972(3) -0.6117(3)
O17 O -0.4123(4) -0.4047(3) -0.6416(2)
H5 H -0.403(4) -0.636(5) -0.442(2)
H6 H -0.399(4) -0.694(4) -0.5569(16)
H7 H 0.069(4) -0.2059(15) -0.608(4)
H8 H 0.128(3) -0.326(4) -0.594(4)
H9 H -0.399(5) -0.353(4) -0.684(4)
H10 H -0.496(5) -0.491(4) -0.687(4)
C5 C 0.2342(5) 0.5524(5) -0.1101(4)
H11 H 0.27290 0.62280 -0.14970
C6 C 0.2926(5) 0.5509(5) 0.0020(4)
H12 H 0.38030 0.62070 0.05520
C7 C 0.0887(5) 0.3552(5) -0.0725(4)
H13 H 0.01160 0.26680 -0.08140
N1 N 0.2004(4) 0.4285(4) 0.0239(3)
H14 H 0.21310 0.40320 0.09010
N2 N 0.1061(4) 0.4297(4) -0.1545(3)
H15 H 0.04600 0.40480 -0.22500
Na1A Na 0.17343(18) -0.56890(17) -0.46997(13)
O10A O -0.0628(3) -0.6143(3) -0.6305(2)
#END
