
#######################################################################
#
#                 Cambridge Crystallographic Data Centre
#                                CCDC
#
#######################################################################
#
# If this CIF has been generated from an entry in the Cambridge
# Structural Database, then it will include bibliographic, chemical,
# crystal, experimental, refinement or atomic coordinate data resulting
# from the CCDC's data processing and validation procedures.
#
#######################################################################

data_CSD_CIF_LEKMEW
_audit_creation_date 2017-12-14
_audit_creation_method CSD-ConQuest-V1
_database_code_CSD LEKMEW
_database_code_depnum_ccdc_archive 'CCDC 1554083'
_chemical_formula_sum 'C42 H33 In3 O20 P2'
_chemical_formula_moiety
;
(C42 H28 In3 O18 P2 1-)n,H3 O1 1+,H2 O1
;
_journal_coden_Cambridge 1440
_journal_volume 9
_journal_year 2017
_journal_page_first 28939
_journal_name_full 'ACS Applied Materials and Interfaces '
loop_
_publ_author_name
"Xi Du"
"Ruiqing Fan"
"Liangsheng Qiang"
"Kai Xing"
"Haoxin Ye"
"Xinya Ran"
"Yang Song"
"Ping Wang"
"Yulin Yang"
_chemical_name_systematic
;
catena-(oxonium 
bis(\m-4,4',4''-phosphoryltribenzoato)-bis(\m-hydroxo)-dihydroxy-tri-indium(ii
i) monohydrate unknown solvate)
;
_chemical_name_common
;
MOF-In1
;
_cell_volume   5990.342
_exptl_crystal_colour 'colorless'
_exptl_crystal_density_diffrn 1.402
_exptl_crystal_description 'block'
_diffrn_ambient_temperature 293
_refine_special_details
;
The SQUEEZE/PLATON program has been used to model some disorder.

;
#These two values have been output from a single CSD field.
_refine_ls_R_factor_gt 0.0526
_refine_ls_wR_factor_gt 0.0526
_symmetry_cell_setting monoclinic
_symmetry_space_group_name_H-M 'C 2/c'
_symmetry_Int_Tables_number 15
loop_
_symmetry_equiv_pos_site_id
_symmetry_equiv_pos_as_xyz
1 x,y,z
2 -x,y,1/2-z
3 1/2+x,1/2+y,z
4 1/2-x,1/2+y,1/2-z
5 -x,-y,-z
6 x,-y,-1/2+z
7 -1/2-x,-1/2-y,-z
8 -1/2+x,-1/2-y,-1/2+z
_cell_length_a 28.825(6)
_cell_length_b 11.472(2)
_cell_length_c 18.905(4)
_cell_angle_alpha 90
_cell_angle_beta 106.62(3)
_cell_angle_gamma 90
_cell_formula_units_Z 4
loop_
_atom_type_symbol
_atom_type_radius_bond
C 0.68
H 0.23
In 1.42
O 0.68
P 1.05
loop_
_atom_site_label
_atom_site_type_symbol
_atom_site_fract_x
_atom_site_fract_y
_atom_site_fract_z
In1 In 0.388593(14) 1.15245(3) -0.02071(2)
In2 In 0.50000 1.00000 0.00000
P1 P 0.37275(5) 1.34262(12) -0.17438(8)
O1 O 0.36609(16) 1.2718(4) -0.1117(2)
O2 O 0.43576(14) 1.0651(4) -0.0691(2)
H1 H 0.44400 1.11850 -0.10350
O3 O 0.40560(18) 0.9621(4) -0.4248(3)
O4 O 0.3442(2) 1.2410(5) 0.0327(3)
H2 H 0.32280 1.19430 0.03900
O5 O 0.17192(17) 1.5472(5) -0.4219(3)
O6 O 0.13796(18) 1.4282(5) -0.3577(4)
O7 O 0.46183(18) 1.0925(4) -0.4326(3)
O8 O 0.49118(18) 1.8463(4) -0.0681(3)
O9 O 0.55356(16) 1.7244(4) -0.0292(3)
C1 C 0.3147(2) 1.3923(5) -0.2288(3)
C2 C 0.2738(2) 1.3487(6) -0.2131(4)
H3 H 0.27680 1.30160 -0.17200
C3 C 0.2277(2) 1.3764(7) -0.2602(5)
H4 H 0.20020 1.34640 -0.25030
C4 C 0.2228(2) 1.4474(6) -0.3208(4)
C5 C 0.2638(3) 1.4924(7) -0.3352(4)
H5 H 0.26060 1.54170 -0.37540
C6 C 0.3097(2) 1.4647(7) -0.2900(4)
H6 H 0.33710 1.49420 -0.30050
C7 C 0.1731(2) 1.4745(6) -0.3704(4)
C8 C 0.4127(2) 1.4635(5) -0.1436(3)
C9 C 0.4619(2) 1.4424(5) -0.1127(3)
H7 H 0.47370 1.36650 -0.11010
C10 C 0.4935(2) 1.5338(6) -0.0859(3)
H8 H 0.52640 1.51910 -0.06610
C11 C 0.4764(2) 1.6466(5) -0.0883(3)
C12 C 0.4272(2) 1.6680(6) -0.1179(4)
H9 H 0.41550 1.74380 -0.11960
C13 C 0.3954(2) 1.5771(6) -0.1450(4)
H10 H 0.36240 1.59190 -0.16420
C14 C 0.5099(2) 1.7457(5) -0.0594(3)
C15 C 0.3952(2) 1.2580(5) -0.2375(3)
C16 C 0.3750(3) 1.1482(6) -0.2560(5)
H11 H 0.35360 1.11870 -0.23180
C17 C 0.3863(3) 1.0828(6) -0.3092(4)
H12 H 0.37270 1.00920 -0.32070
C18 C 0.4178(2) 1.1253(6) -0.3462(4)
C19 C 0.4389(3) 1.2343(7) -0.3269(5)
H13 H 0.46080 1.26250 -0.35040
C20 C 0.4276(3) 1.3010(7) -0.2735(4)
H14 H 0.44160 1.37410 -0.26140
C21 C 0.4297(2) 1.0542(6) -0.4058(4)
O10 O 0.00000 0.932(3) 0.25000
H15 H 0.00660 0.95580 0.29440
O11 O 0.00000 0.762(2) 0.25000
H16 H 0.00000 0.68810 0.25000
H17? H 0.00490 0.78460 0.29440
H18? H -0.02650 0.79050 0.22350
H19? H -0.02470 0.96860 0.22390
In1A In 0.611407(14) 1.15245(3) -0.47929(2)
P1A P 0.62725(5) 1.34262(12) -0.32562(8)
O1A O 0.63391(16) 1.2718(4) -0.3883(2)
O2A O 0.56424(14) 1.0651(4) -0.4309(2)
H1A H 0.55600 1.11850 -0.39650
O3A O 0.59440(18) 0.9621(4) -0.0752(3)
O4A O 0.6558(2) 1.2410(5) -0.5327(3)
H2A H 0.67720 1.19430 -0.53900
O5A O 0.82808(17) 1.5472(5) -0.0781(3)
O6A O 0.86204(18) 1.4282(5) -0.1423(4)
O7A O 0.53817(18) 1.0925(4) -0.0674(3)
O8A O 0.50882(18) 1.8463(4) -0.4319(3)
O9A O 0.44644(16) 1.7244(4) -0.4708(3)
C1A C 0.6853(2) 1.3923(5) -0.2712(3)
C2A C 0.7262(2) 1.3487(6) -0.2869(4)
H3A H 0.72320 1.30160 -0.32800
C3A C 0.7723(2) 1.3764(7) -0.2398(5)
H4A H 0.79980 1.34640 -0.24970
C4A C 0.7772(2) 1.4474(6) -0.1792(4)
C5A C 0.7362(3) 1.4924(7) -0.1648(4)
H5A H 0.73940 1.54170 -0.12460
C6A C 0.6903(2) 1.4647(7) -0.2100(4)
H6A H 0.66290 1.49420 -0.19950
C7A C 0.8269(2) 1.4745(6) -0.1296(4)
C8A C 0.5873(2) 1.4635(5) -0.3564(3)
C9A C 0.5381(2) 1.4424(5) -0.3873(3)
H7A H 0.52630 1.36650 -0.38990
C10A C 0.5065(2) 1.5338(6) -0.4141(3)
H8A H 0.47360 1.51910 -0.43390
C11A C 0.5236(2) 1.6466(5) -0.4117(3)
C12A C 0.5728(2) 1.6680(6) -0.3821(4)
H9A H 0.58450 1.74380 -0.38040
C13A C 0.6046(2) 1.5771(6) -0.3550(4)
H10A H 0.63760 1.59190 -0.33580
C14A C 0.4901(2) 1.7457(5) -0.4406(3)
C15A C 0.6048(2) 1.2580(5) -0.2625(3)
C16A C 0.6250(3) 1.1482(6) -0.2440(5)
H11A H 0.64640 1.11870 -0.26820
C17A C 0.6137(3) 1.0828(6) -0.1908(4)
H12A H 0.62730 1.00920 -0.17930
C18A C 0.5822(2) 1.1253(6) -0.1538(4)
C19A C 0.5611(3) 1.2343(7) -0.1731(5)
H13A H 0.53920 1.26250 -0.14960
C20A C 0.5724(3) 1.3010(7) -0.2265(4)
H14A H 0.55840 1.37410 -0.23860
C21A C 0.5703(2) 1.0542(6) -0.0942(4)
In1B In 0.888593(14) 1.65245(3) -0.02071(2)
In1C In 0.111407(14) 1.65245(3) -0.47929(2)
In1D In 0.611407(14) 0.84755(3) 0.02071(2)
In1D* In 0.611407(14) 1.84755(3) 0.02071(2)
In1E In 0.388593(14) 0.84755(3) -0.52071(2)
In1E* In 0.388593(14) 1.84755(3) -0.52071(2)
In2* In 0.50000 2.00000 0.00000
In2A In 0.50000 1.00000 -0.50000
In2A* In 0.50000 2.00000 -0.50000
O2D O 0.56424(14) 0.9349(4) 0.0691(2)
O3D O 0.59440(18) 1.0379(4) -0.5752(3)
O3E O 0.40560(18) 1.0379(4) 0.0752(3)
O5B O 0.67192(17) 1.0472(5) -0.4219(3)
O5C O 0.32808(17) 1.0472(5) -0.0781(3)
O7E O 0.46183(18) 0.9075(4) 0.0674(3)
O8* O 0.49118(18) 0.8463(4) -0.0681(3)
O8D O 0.50882(18) 1.1537(4) 0.0681(3)
O9D O 0.44644(16) 1.2756(4) 0.0292(3)
O9E O 0.55356(16) 1.2756(4) -0.5292(3)
H15A H -0.00660 0.95580 0.20560
#END
