
#######################################################################
#
#                 Cambridge Crystallographic Data Centre
#                                CCDC
#
#######################################################################
#
# If this CIF has been generated from an entry in the Cambridge
# Structural Database, then it will include bibliographic, chemical,
# crystal, experimental, refinement or atomic coordinate data resulting
# from the CCDC's data processing and validation procedures.
#
#######################################################################

data_CSD_CIF_LELHAO
_audit_creation_date 2017-12-15
_audit_creation_method CSD-ConQuest-V1
_database_code_CSD LELHAO
_database_code_depnum_ccdc_archive 'CCDC 837177'
_chemical_formula_sum 'C44 H52 Cl2 Mn7 O44'
_chemical_formula_moiety
;
(C44 H36 Cl2 Mn7 O38 4-)n,2(H2 O1),4(H3 O1 1+)
;
_journal_coden_Cambridge 702
_journal_volume 33
_journal_year 2017
_journal_page_first 2169
_journal_name_full 'Wuji Huaxue Xuebao(Chin.)(Chin.J.Inorg.Chem.) '
loop_
_publ_author_name
"Ling-Zhi Lv"
"Xiao-Juan Wang"
"Xian-Rong Jiang"
"Yun-Long Feng"
_chemical_name_systematic
;
catena-[tetrakis(oxonium) 
tetrakis(\m-3,5-bis(carboxylatomethoxy)benzoato)-tetrakis(\m-hydroxo)-bis(\m-c
hloro)-diaqua-hepta-manganese(ii) dihydrate]
;
_cell_volume   5702.471
_exptl_crystal_colour 'yellow'
_exptl_crystal_density_diffrn 2.022
_exptl_crystal_description 'block'
_diffrn_ambient_temperature 296
#These two values have been output from a single CSD field.
_refine_ls_R_factor_gt 0.0523
_refine_ls_wR_factor_gt 0.0523
_symmetry_cell_setting orthorhombic
_symmetry_space_group_name_H-M 'C m c a'
_symmetry_Int_Tables_number 64
loop_
_symmetry_equiv_pos_site_id
_symmetry_equiv_pos_as_xyz
1 x,y,z
2 -x,1/2-y,1/2+z
3 -x,1/2+y,1/2-z
4 x,-y,-z
5 1/2+x,1/2+y,z
6 1/2-x,-y,1/2+z
7 1/2-x,y,1/2-z
8 1/2+x,1/2-y,-z
9 -x,-y,-z
10 x,-1/2+y,-1/2-z
11 x,-1/2-y,-1/2+z
12 -x,y,z
13 -1/2-x,-1/2-y,-z
14 -1/2+x,y,-1/2-z
15 -1/2+x,-y,-1/2+z
16 -1/2-x,-1/2+y,z
_cell_length_a 24.6390(3)
_cell_length_b 16.0763(3)
_cell_length_c 14.3964(2)
_cell_angle_alpha 90
_cell_angle_beta 90
_cell_angle_gamma 90
_cell_formula_units_Z 4
loop_
_atom_type_symbol
_atom_type_radius_bond
C 0.68
H 0.23
Cl 0.99
Mn 1.61
O 0.68
loop_
_atom_site_label
_atom_site_type_symbol
_atom_site_fract_x
_atom_site_fract_y
_atom_site_fract_z
Mn1 Mn 0.50000 0.14347(6) 0.08511(7)
Mn2 Mn 0.56353(3) -0.01018(5) 0.23477(5)
Mn3 Mn 0.50000 0.00000 0.50000
Cl1 Cl 0.50000 -0.06924(16) 0.65421(15)
O1 O 0.43803(15) 0.1960(3) 0.1768(3)
O2 O 0.50000 0.2665(3) 0.0173(5)
H1 H 0.4715(16) 0.294(4) 0.017(4)
O3 O 0.38326(15) 0.0952(2) 0.2252(2)
O4 O 0.11470(13) 0.0695(2) 0.6356(2)
O5 O 0.05927(13) 0.1093(3) 0.5231(3)
O6 O 0.44045(12) 0.0900(2) 0.5450(3)
O7 O 0.38454(13) 0.0586(2) 0.6609(2)
O8 O 0.20167(13) 0.1085(3) 0.5476(3)
O9 O 0.31134(13) 0.2055(2) 0.2969(2)
O10 O 0.50000 0.0215(3) 0.1404(3)
H2 H 0.50000 -0.010(4) 0.094(3)
O11 O 0.50000 -0.1152(5) 0.2624(5)
H3 H 0.50000 -0.149(6) 0.218(6)
C1 C 0.39736(19) 0.1698(3) 0.2181(3)
C2 C 0.3618(2) 0.2352(3) 0.2621(4)
H4 H 0.38160 0.26070 0.31280
H5 H 0.35450 0.27820 0.21640
C3 C 0.30946(19) 0.1707(3) 0.3846(3)
C4 C 0.25728(19) 0.1589(3) 0.4184(3)
H6 H 0.22740 0.17440 0.38300
C5 C 0.25031(18) 0.1238(4) 0.5052(4)
C6 C 0.29465(19) 0.1009(4) 0.5578(4)
H7 H 0.28980 0.07720 0.61620
C7 C 0.10507(17) 0.0993(3) 0.5572(3)
C8 C 0.15283(17) 0.1251(3) 0.4978(3)
H8 H 0.15260 0.09420 0.43990
H9 H 0.15040 0.18390 0.48330
C9 C 0.34652(17) 0.1133(3) 0.5229(3)
C10 C 0.35437(18) 0.1479(3) 0.4358(3)
H10 H 0.38920 0.15550 0.41230
C11 C 0.39372(17) 0.0848(3) 0.5812(3)
O12 O 0.2021(3) 0.4895(5) 0.2219(3)
H11 H 0.17610 0.47550 0.25730
H12 H 0.21200 0.43940 0.21290
O13 O 0.25000 0.3509(9) 0.25000
H13 H 0.245(8) 0.312(7) 0.211(9)
O14 O 0.00000 0.2671(7) 0.1641(8)
H14 H 0.00000 0.259(11) 0.106(2)
H15 H 0.00000 0.218(4) 0.184(12)
H1K H 0.5285(16) 0.294(4) 0.017(4)
Mn1C Mn 0.50000 -0.14347(6) 0.91489(7)
Mn2C Mn 0.56353(3) 0.01018(5) 0.76523(5)
Cl1C Cl 0.50000 0.06924(16) 0.34579(15)
O1C O 0.43803(15) -0.1960(3) 0.8232(3)
O2C O 0.50000 -0.2665(3) 0.9827(5)
H1C H 0.4715(16) -0.294(4) 0.983(4)
O3C O 0.38326(15) -0.0952(2) 0.7748(2)
O4C O 0.11470(13) -0.0695(2) 0.3644(2)
O5C O 0.05927(13) -0.1093(3) 0.4769(3)
O6C O 0.44045(12) -0.0900(2) 0.4550(3)
O7C O 0.38454(13) -0.0586(2) 0.3391(2)
O8C O 0.20167(13) -0.1085(3) 0.4524(3)
O9C O 0.31134(13) -0.2055(2) 0.7031(2)
O10C O 0.50000 -0.0215(3) 0.8596(3)
H2C H 0.50000 0.010(4) 0.906(3)
O11C O 0.50000 0.1152(5) 0.7376(5)
H3C H 0.50000 0.149(6) 0.782(6)
C1C C 0.39736(19) -0.1698(3) 0.7819(3)
C2C C 0.3618(2) -0.2352(3) 0.7379(4)
H4C H 0.38160 -0.26070 0.68720
H5C H 0.35450 -0.27820 0.78360
C3C C 0.30946(19) -0.1707(3) 0.6154(3)
C4C C 0.25728(19) -0.1589(3) 0.5816(3)
H6C H 0.22740 -0.17440 0.61700
C5C C 0.25031(18) -0.1238(4) 0.4948(4)
C6C C 0.29465(19) -0.1009(4) 0.4422(4)
H7C H 0.28980 -0.07720 0.38380
C7C C 0.10507(17) -0.0993(3) 0.4428(3)
C8C C 0.15283(17) -0.1251(3) 0.5022(3)
H8C H 0.15260 -0.09420 0.56010
H9C H 0.15040 -0.18390 0.51670
C9C C 0.34652(17) -0.1133(3) 0.4771(3)
C10C C 0.35437(18) -0.1479(3) 0.5642(3)
H10C H 0.38920 -0.15550 0.58770
C11C C 0.39372(17) -0.0848(3) 0.4188(3)
H1H H 0.5285(16) -0.294(4) 0.983(4)
Mn2H Mn 0.43647(3) 0.01018(5) 0.76523(5)
O1H O 0.56197(15) -0.1960(3) 0.8232(3)
O3H O 0.61674(15) -0.0952(2) 0.7748(2)
O4H O 0.88530(13) -0.0695(2) 0.3644(2)
O5H O 0.94073(13) -0.1093(3) 0.4769(3)
O6H O 0.55955(12) -0.0900(2) 0.4550(3)
O7H O 0.61546(13) -0.0586(2) 0.3391(2)
O8H O 0.79833(13) -0.1085(3) 0.4524(3)
O9H O 0.68866(13) -0.2055(2) 0.7031(2)
C1H C 0.60264(19) -0.1698(3) 0.7819(3)
C2H C 0.6382(2) -0.2352(3) 0.7379(4)
H4H H 0.61840 -0.26070 0.68720
H5H H 0.64550 -0.27820 0.78360
C3H C 0.69054(19) -0.1707(3) 0.6154(3)
C4H C 0.74272(19) -0.1589(3) 0.5816(3)
H6H H 0.77260 -0.17440 0.61700
C5H C 0.74969(18) -0.1238(4) 0.4948(4)
C6H C 0.70535(19) -0.1009(4) 0.4422(4)
H7H H 0.71020 -0.07720 0.38380
C7H C 0.89493(17) -0.0993(3) 0.4428(3)
C8H C 0.84717(17) -0.1251(3) 0.5022(3)
H8H H 0.84740 -0.09420 0.56010
H9H H 0.84960 -0.18390 0.51670
C9H C 0.65348(17) -0.1133(3) 0.4771(3)
C10H C 0.64563(18) -0.1479(3) 0.5642(3)
H10H H 0.61080 -0.15550 0.58770
C11H C 0.60628(17) -0.0848(3) 0.4188(3)
Mn2K Mn 0.43647(3) -0.01018(5) 0.23477(5)
O1K O 0.56197(15) 0.1960(3) 0.1768(3)
O3K O 0.61674(15) 0.0952(2) 0.2252(2)
O4K O 0.88530(13) 0.0695(2) 0.6356(2)
O5K O 0.94073(13) 0.1093(3) 0.5231(3)
O6K O 0.55955(12) 0.0900(2) 0.5450(3)
O7K O 0.61546(13) 0.0586(2) 0.6609(2)
O8K O 0.79833(13) 0.1085(3) 0.5476(3)
O9K O 0.68866(13) 0.2055(2) 0.2969(2)
C1K C 0.60264(19) 0.1698(3) 0.2181(3)
C2K C 0.6382(2) 0.2352(3) 0.2621(4)
H4K H 0.61840 0.26070 0.31280
H5K H 0.64550 0.27820 0.21640
C3K C 0.69054(19) 0.1707(3) 0.3846(3)
C4K C 0.74272(19) 0.1589(3) 0.4184(3)
H6K H 0.77260 0.17440 0.38300
C5K C 0.74969(18) 0.1238(4) 0.5052(4)
C6K C 0.70535(19) 0.1009(4) 0.5578(4)
H7K H 0.71020 0.07720 0.61620
C7K C 0.89493(17) 0.0993(3) 0.5572(3)
C8K C 0.84717(17) 0.1251(3) 0.4978(3)
H8K H 0.84740 0.09420 0.43990
H9K H 0.84960 0.18390 0.48330
C9K C 0.65348(17) 0.1133(3) 0.5229(3)
C10K C 0.64563(18) 0.1479(3) 0.4358(3)
H10K H 0.61080 0.15550 0.41230
C11K C 0.60628(17) 0.0848(3) 0.5812(3)
Mn1E Mn 0.00000 -0.14347(6) 0.58511(7)
Mn1E* Mn 1.00000 -0.14347(6) 0.58511(7)
Mn1F Mn 0.00000 0.14347(6) 0.41489(7)
Mn1F* Mn 1.00000 0.14347(6) 0.41489(7)
Mn2E Mn 0.93647(3) 0.01018(5) 0.73477(5)
Mn2F Mn 0.93647(3) -0.01018(5) 0.26523(5)
Mn2M Mn 0.06353(3) -0.01018(5) 0.26523(5)
Mn2N Mn 0.06353(3) 0.01018(5) 0.73477(5)
O4E O 0.38530(13) -0.0695(2) 0.1356(2)
O4F O 0.38530(13) 0.0695(2) 0.8644(2)
O4M O 0.61470(13) 0.0695(2) 0.8644(2)
O4N O 0.61470(13) -0.0695(2) 0.1356(2)
O5E O 0.44073(13) -0.1093(3) 1.0231(3)
O5F O 0.44073(13) 0.1093(3) -0.0231(3)
O5M O 0.55927(13) 0.1093(3) -0.0231(3)
O5N O 0.55927(13) -0.1093(3) 1.0231(3)
H13F H 0.255(8) 0.312(7) 0.289(9)
#END
