
#######################################################################
#
#                 Cambridge Crystallographic Data Centre
#                                CCDC
#
#######################################################################
#
# If this CIF has been generated from an entry in the Cambridge
# Structural Database, then it will include bibliographic, chemical,
# crystal, experimental, refinement or atomic coordinate data resulting
# from the CCDC's data processing and validation procedures.
#
#######################################################################

data_CSD_CIF_LELNUN01
_audit_creation_date 2015-02-11
_audit_creation_method CSD-ConQuest-V1
_database_code_CSD LELNUN01
_database_code_depnum_ccdc_archive 'CCDC 990755'
_chemical_formula_sum 'C8 H9 Ag2 N3 O6'
_chemical_formula_moiety
;
(C8 H3 Ag1 N1 O6 1-)n,n(H6 Ag1 N2 1+)
;
_journal_coden_Cambridge 155
_journal_volume 427
_journal_year 2015
_journal_page_first 299
_journal_name_full 'Inorg.Chim.Acta '
loop_
_publ_author_name
"Ting Zhang"
"Dan-Feng Wang"
"Rong-Bin Huang"
"Lan-Sun Zheng"
_chemical_name_systematic
;
catena-(Diammine-slver (\m~3~-3-nitrophthalato)-silver)
;
_cell_volume   1189.750
_exptl_crystal_colour 'colorless'
_exptl_crystal_density_diffrn 2.562
_exptl_crystal_description 'prism'
_diffrn_ambient_temperature 173
#These two values have been output from a single CSD field.
_refine_ls_R_factor_gt 0.0331
_refine_ls_wR_factor_gt 0.0331
_symmetry_cell_setting monoclinic
_symmetry_space_group_name_H-M 'P 21/n'
_symmetry_Int_Tables_number 14
loop_
_symmetry_equiv_pos_site_id
_symmetry_equiv_pos_as_xyz
1 x,y,z
2 1/2-x,1/2+y,1/2-z
3 -x,-y,-z
4 -1/2+x,-1/2-y,-1/2+z
_cell_length_a 7.169(2)
_cell_length_b 21.821(4)
_cell_length_c 7.791(8)
_cell_angle_alpha 90
_cell_angle_beta 102.531(7)
_cell_angle_gamma 90
_cell_formula_units_Z 4
loop_
_atom_type_symbol
_atom_type_radius_bond
C 0.68
H 0.23
Ag 1.45
N 0.68
O 0.68
loop_
_atom_site_label
_atom_site_type_symbol
_atom_site_fract_x
_atom_site_fract_y
_atom_site_fract_z
Ag1 Ag 0.56258(4) 0.028579(13) 0.17029(4)
O1 O 0.4749(4) -0.06148(12) 0.2676(4)
C1 C 0.2615(5) -0.15860(16) 0.3965(5)
C2 C 0.3471(5) -0.09008(18) 0.1618(6)
C3 C 0.2379(5) -0.19808(17) 0.1037(6)
H1 H 0.24780 -0.19160 -0.01460
C4 C 0.2793(5) -0.15036(16) 0.2239(6)
O2 O 0.2711(4) -0.07467(13) 0.0089(4)
C5 C 0.2002(5) -0.21625(16) 0.4400(6)
C6 C 0.1626(5) -0.26464(17) 0.3224(6)
H2 H 0.12410 -0.30340 0.35800
C7 C 0.1825(5) -0.25509(18) 0.1538(6)
H3 H 0.15830 -0.28760 0.07080
O3 O 0.1949(4) -0.06254(11) 0.5143(4)
O4 O 0.0893(4) -0.18294(13) 0.6807(4)
O5 O 0.1974(5) -0.27577(13) 0.6869(5)
N1 N 0.1611(4) -0.22554(15) 0.6154(5)
C8 C 0.3050(5) -0.10740(16) 0.5323(5)
O6 O 0.4511(3) -0.11491(11) 0.6535(4)
Ag2 Ag 0.13347(4) 0.066158(15) 0.04566(5)
N2 N 0.1382(5) 0.09295(16) -0.2161(5)
H4 H 0.03950 0.07480 -0.29230
H5 H 0.25070 0.08110 -0.24200
H6 H 0.12650 0.13440 -0.22600
N3 N 0.1604(5) 0.05648(15) 0.3205(5)
H7 H 0.04990 0.06840 0.35000
H8 H 0.25840 0.08030 0.37810
H9 H 0.18460 0.01660 0.35140
Ag1B Ag 0.43742(4) -0.028579(13) -0.17029(4)
Ag1B* Ag 0.43742(4) -0.028579(13) 0.82971(4)
O2B O 0.7289(4) 0.07467(13) -0.0089(4)
O6B O 0.5489(3) 0.11491(11) 0.3465(4)
#END
