
#######################################################################
#
#                 Cambridge Crystallographic Data Centre
#                                CCDC
#
#######################################################################
#
# If this CIF has been generated from an entry in the Cambridge
# Structural Database, then it will include bibliographic, chemical,
# crystal, experimental, refinement or atomic coordinate data resulting
# from the CCDC's data processing and validation procedures.
#
#######################################################################

data_CSD_CIF_LELPEZ
_audit_creation_date 2013-04-24
_audit_creation_method CSD-ConQuest-V1
_database_code_CSD LELPEZ
_database_code_depnum_ccdc_archive 'CCDC 890735'
_chemical_formula_sum 'C8 H9 Ag1 N2 O7'
_chemical_formula_moiety
;
(C8 H3 Ag1 N1 O6 1-)n,n(H4 N1 1+),n(H2 O1)
;
_journal_coden_Cambridge 1350
_journal_volume 15
_journal_year 2013
_journal_page_first 1185
_journal_name_full 'CrystEngComm '
loop_
_publ_author_name
"Di Sun"
"Fu-Jing Liu"
"Rong-Bin Huang"
"Lan-Sun Zheng"
_chemical_name_systematic
;
catena-(Ammonium (\m~4~-3-nitrophthalato)-silver monohydrate)
;
_cell_volume   2229.453
_exptl_crystal_density_diffrn 2.104
_diffrn_ambient_temperature 173
#These two values have been output from a single CSD field.
_refine_ls_R_factor_gt 0.0414
_refine_ls_wR_factor_gt 0.0414
_symmetry_cell_setting orthorhombic
_symmetry_space_group_name_H-M 'P b c a'
_symmetry_Int_Tables_number 61
loop_
_symmetry_equiv_pos_site_id
_symmetry_equiv_pos_as_xyz
1 x,y,z
2 1/2-x,-y,1/2+z
3 -x,1/2+y,1/2-z
4 1/2+x,1/2-y,-z
5 -x,-y,-z
6 -1/2+x,y,-1/2-z
7 x,-1/2-y,-1/2+z
8 -1/2-x,-1/2+y,z
_cell_length_a 13.132(3)
_cell_length_b 6.9261(14)
_cell_length_c 24.512(5)
_cell_angle_alpha 90
_cell_angle_beta 90
_cell_angle_gamma 90
_cell_formula_units_Z 8
loop_
_atom_type_symbol
_atom_type_radius_bond
C 0.68
H 0.23
Ag 1.45
N 0.68
O 0.68
loop_
_atom_site_label
_atom_site_type_symbol
_atom_site_fract_x
_atom_site_fract_y
_atom_site_fract_z
Ag1 Ag 0.74147(3) 0.52582(7) 0.237866(14)
C1 C 0.6280(4) 0.2190(6) 0.42182(19)
C2 C 0.5909(4) 0.2196(6) 0.47501(18)
H1 H 0.63530 0.19720 0.50490
C3 C 0.4884(4) 0.2532(7) 0.48358(18)
H2 H 0.46200 0.25660 0.51960
C4 C 0.4248(4) 0.2818(6) 0.43962(18)
H3 H 0.35450 0.30610 0.44560
C5 C 0.4623(3) 0.2754(6) 0.38633(17)
C6 C 0.5653(3) 0.2429(6) 0.37633(18)
C7 C 0.3873(3) 0.2883(6) 0.33976(18)
C8 C 0.6068(3) 0.2379(6) 0.31883(18)
N1 N 0.7386(3) 0.1981(5) 0.41528(17)
N2 N 0.5120(3) 0.7628(5) 0.30973(15)
H4 H 0.54880 0.66310 0.31420
H5 H 0.48100 0.75230 0.27940
H6 H 0.54900 0.86350 0.30960
H7 H 0.46920 0.77200 0.33560
O1 O 0.3988(2) 0.1756(5) 0.30053(13)
O2 O 0.3163(2) 0.4127(5) 0.34443(12)
O3 O 0.3617(3) 0.7630(5) 0.39365(14)
H8 H 0.35750 0.64870 0.39960
H9 H 0.31120 0.82680 0.38960
O4 O 0.6031(2) 0.3908(4) 0.29147(12)
O5 O 0.6405(2) 0.0778(4) 0.30223(12)
O6 O 0.7781(3) 0.2695(5) 0.37476(16)
O7 O 0.7857(3) 0.1138(5) 0.45139(14)
Ag1B Ag 0.25853(3) 0.02582(7) 0.262134(14)
Ag1E Ag 0.24147(3) 0.52582(7) 0.262134(14)
Ag1G Ag 0.75853(3) 0.02582(7) 0.237866(14)
O1B O 0.6012(2) 0.6756(5) 0.19947(13)
O2E O 0.8163(2) 0.4127(5) 0.15557(12)
O5G O 0.8595(2) 0.5778(4) 0.30223(12)
#END
