
#######################################################################
#
#                 Cambridge Crystallographic Data Centre
#                                CCDC
#
#######################################################################
#
# If this CIF has been generated from an entry in the Cambridge
# Structural Database, then it will include bibliographic, chemical,
# crystal, experimental, refinement or atomic coordinate data resulting
# from the CCDC's data processing and validation procedures.
#
#######################################################################

data_CSD_CIF_LEPKID
_audit_creation_date 2017-12-19
_audit_creation_method CSD-ConQuest-V1
_database_code_CSD LEPKID
_database_code_depnum_ccdc_archive 'CCDC 1569599'
_chemical_formula_sum 'C82 H126 Cu2 N14 O48 Y2'
_chemical_formula_moiety
;
(C52 H20 Cu1 N4 O20 Y2 2-)n,Cu1 2+,10(C3 H7 N1 O1),18(H2 O1)
;
_journal_coden_Cambridge 1063
_journal_volume 358
_journal_year 2018
_journal_page_first 43
_journal_name_full 'J.Catalysis '
loop_
_publ_author_name
"Wei-Long He"
"Xiu-Li Yang"
"Min Zhao"
"Chuan-De Wu"
_chemical_name_systematic
;
catena-(copper(ii) 
(\m-5,5',5'',5'''-(porphyrin-5,10,15,20-tetrayl)tetra(benzene-1,3-dicarboxylat
o))-tetraaqua-copper(ii)-di-yttrium(iii) N,N-dimethylformamide solvate 
octadecahydrate)
;
_chemical_name_common
;
CZJ-22-Cu
;
_cell_volume  21886.467
_exptl_crystal_colour 'brown'
_exptl_crystal_description 'block'
_diffrn_ambient_temperature 293
_refine_special_details
;
One of the Cu atoms has an occupancy of 0.5; The SQUEEZE/PLATON program has 
been used to model some disorder.
;
#These two values have been output from a single CSD field.
_refine_ls_R_factor_gt 0.0686
_refine_ls_wR_factor_gt 0.0686
_symmetry_cell_setting orthorhombic
_symmetry_space_group_name_H-M 'C m c a'
_symmetry_Int_Tables_number 64
loop_
_symmetry_equiv_pos_site_id
_symmetry_equiv_pos_as_xyz
1 x,y,z
2 -x,1/2-y,1/2+z
3 -x,1/2+y,1/2-z
4 x,-y,-z
5 1/2+x,1/2+y,z
6 1/2-x,-y,1/2+z
7 1/2-x,y,1/2-z
8 1/2+x,1/2-y,-z
9 -x,-y,-z
10 x,-1/2+y,-1/2-z
11 x,-1/2-y,-1/2+z
12 -x,y,z
13 -1/2-x,-1/2-y,-z
14 -1/2+x,y,-1/2-z
15 -1/2+x,-y,-1/2+z
16 -1/2-x,-1/2+y,z
_cell_length_a 30.1135(9)
_cell_length_b 30.6138(9)
_cell_length_c 23.7409(13)
_cell_angle_alpha 90
_cell_angle_beta 90
_cell_angle_gamma 90
_cell_formula_units_Z 8
loop_
_atom_type_symbol
_atom_type_radius_bond
C 0.68
H 0.23
Cu 1.32
N 0.68
O 0.68
Y 1.90
loop_
_atom_site_label
_atom_site_type_symbol
_atom_site_fract_x
_atom_site_fract_y
_atom_site_fract_z
Y1 Y 0.242454(19) 0.379677(16) 0.05272(3)
Cu1 Cu 0.00000 0.37668(4) -0.26139(6)
O1 O 0.1385(3) 0.5859(3) -0.1578(5)
O2 O 0.1975(2) 0.57928(15) -0.1058(2)
O3 O 0.23179(14) 0.44003(13) -0.01029(19)
O4 O 0.18951(17) 0.38219(15) -0.0231(2)
O5 O 0.19501(16) 0.37185(14) -0.4898(2)
O6 O 0.23616(17) 0.31328(14) -0.5067(2)
O7 O 0.1919(2) 0.17232(16) -0.4188(3)
O8 O 0.1405(4) 0.1683(3) -0.3555(4)
O9 O 0.2807(3) 0.3515(2) 0.1330(3)
O10 O 0.29302(19) 0.43592(19) 0.0847(2)
N1 N 0.00000 0.4178(2) -0.1970(3)
N2 N 0.06523(18) 0.37699(16) -0.2616(2)
N3 N 0.00000 0.3344(2) -0.3256(3)
C1 C 0.0231(2) 0.4635(2) -0.1249(3)
H1 H 0.04150 0.47860 -0.10030
C2 C 0.0365(2) 0.4356(2) -0.1701(3)
C3 C 0.0810(2) 0.4273(2) -0.1844(3)
C4 C 0.0937(2) 0.3999(2) -0.2260(3)
C5 C 0.1395(2) 0.3907(3) -0.2404(4)
H2 H 0.16460 0.40160 -0.22220
C6 C 0.1390(2) 0.3632(3) -0.2856(4)
H3 H 0.16350 0.35260 -0.30500
C7 C 0.0947(2) 0.3542(2) -0.2970(3)
C8 C 0.0803(2) 0.3261(2) -0.3385(3)
C9 C 0.03736(19) 0.31610(18) -0.3513(3)
C10 C 0.0232(2) 0.2892(2) -0.3983(3)
H4 H 0.04150 0.27470 -0.42370
C11 C 0.1160(2) 0.4500(2) -0.1499(4)
C12 C 0.1222(3) 0.4931(3) -0.1543(4)
H5 H 0.10370 0.50920 -0.17790
C13 C 0.1558(3) 0.5149(2) -0.1245(4)
C14 C 0.1780(3) 0.4909(2) -0.0859(3)
H6 H 0.19870 0.50530 -0.06350
C15 C 0.1724(2) 0.4469(2) -0.0772(3)
C16 C 0.1404(2) 0.4270(2) -0.1106(3)
H7 H 0.13520 0.39720 -0.10630
C17 C 0.11523(18) 0.30346(19) -0.3740(3)
C18 C 0.1403(2) 0.3258(2) -0.4114(3)
H8 H 0.13420 0.35520 -0.41740
C19 C 0.1758(2) 0.30604(18) -0.4419(3)
C20 C 0.1825(2) 0.26159(19) -0.4364(3)
H9 H 0.20380 0.24770 -0.45840
C21 C 0.1571(2) 0.2373(2) -0.3975(3)
C22 C 0.1257(2) 0.25960(19) -0.3651(3)
H10 H 0.11130 0.24460 -0.33630
C23 C 0.1645(4) 0.5612(3) -0.1307(5)
C24 C 0.1982(2) 0.4210(2) -0.0353(3)
C25 C 0.2027(2) 0.3316(2) -0.4828(3)
C26 C 0.1652(4) 0.1899(3) -0.3905(5)
Cu2 Cu 0.13701(12) 0.13993(8) -0.2667(1)
O1K O -0.1385(3) 0.5859(3) -0.1578(5)
O2K O -0.1975(2) 0.57928(15) -0.1058(2)
O3K O -0.23179(14) 0.44003(13) -0.01029(19)
O4K O -0.18951(17) 0.38219(15) -0.0231(2)
O5K O -0.19501(16) 0.37185(14) -0.4898(2)
O6K O -0.23616(17) 0.31328(14) -0.5067(2)
O7K O -0.1919(2) 0.17232(16) -0.4188(3)
O8K O -0.1405(4) 0.1683(3) -0.3555(4)
N2K N -0.06523(18) 0.37699(16) -0.2616(2)
C1K C -0.0231(2) 0.4635(2) -0.1249(3)
H1K H -0.04150 0.47860 -0.10030
C2K C -0.0365(2) 0.4356(2) -0.1701(3)
C3K C -0.0810(2) 0.4273(2) -0.1844(3)
C4K C -0.0937(2) 0.3999(2) -0.2260(3)
C5K C -0.1395(2) 0.3907(3) -0.2404(4)
H2K H -0.16460 0.40160 -0.22220
C6K C -0.1390(2) 0.3632(3) -0.2856(4)
H3K H -0.16350 0.35260 -0.30500
C7K C -0.0947(2) 0.3542(2) -0.2970(3)
C8K C -0.0803(2) 0.3261(2) -0.3385(3)
C9K C -0.03736(19) 0.31610(18) -0.3513(3)
C10K C -0.0232(2) 0.2892(2) -0.3983(3)
H4K H -0.04150 0.27470 -0.42370
C11K C -0.1160(2) 0.4500(2) -0.1499(4)
C12K C -0.1222(3) 0.4931(3) -0.1543(4)
H5K H -0.10370 0.50920 -0.17790
C13K C -0.1558(3) 0.5149(2) -0.1245(4)
C14K C -0.1780(3) 0.4909(2) -0.0859(3)
H6K H -0.19870 0.50530 -0.06350
C15K C -0.1724(2) 0.4469(2) -0.0772(3)
C16K C -0.1404(2) 0.4270(2) -0.1106(3)
H7K H -0.13520 0.39720 -0.10630
C17K C -0.11523(18) 0.30346(19) -0.3740(3)
C18K C -0.1403(2) 0.3258(2) -0.4114(3)
H8K H -0.13420 0.35520 -0.41740
C19K C -0.1758(2) 0.30604(18) -0.4419(3)
C20K C -0.1825(2) 0.26159(19) -0.4364(3)
H9K H -0.20380 0.24770 -0.45840
C21K C -0.1571(2) 0.2373(2) -0.3975(3)
C22K C -0.1257(2) 0.25960(19) -0.3651(3)
H10K H -0.11130 0.24460 -0.33630
C23K C -0.1645(4) 0.5612(3) -0.1307(5)
C24K C -0.1982(2) 0.4210(2) -0.0353(3)
C25K C -0.2027(2) 0.3316(2) -0.4828(3)
C26K C -0.1652(4) 0.1899(3) -0.3905(5)
Y1C Y 0.242454(19) 0.620323(16) -0.05272(3)
O9C O 0.2807(3) 0.6485(2) -0.1330(3)
O10C O 0.29302(19) 0.56408(19) -0.0847(2)
Y1A Y -0.242454(19) 0.120323(16) -0.44728(3)
Y1F Y 0.257546(19) 0.379677(16) -0.55272(3)
Y1H Y -0.242454(19) 0.620323(16) -0.05272(3)
Y1J Y 0.242454(19) 0.120323(16) -0.44728(3)
Y1K Y -0.242454(19) 0.379677(16) 0.05272(3)
Y1M Y -0.257546(19) 0.379677(16) -0.55272(3)
O2C O 0.1975(2) 0.42072(15) 0.1058(2)
O3C O 0.23179(14) 0.55997(13) 0.01029(19)
O4C O 0.18951(17) 0.61781(15) 0.0231(2)
O5E O 0.30499(16) 0.62815(14) 0.0102(2)
O5F O 0.30499(16) 0.37185(14) -0.0102(2)
O6E O 0.26384(17) 0.68672(14) -0.0067(2)
O6F O 0.26384(17) 0.31328(14) 0.0067(2)
O7I O 0.1919(2) 0.67232(16) -0.0812(3)
O7J O 0.1919(2) 0.32768(16) 0.0812(3)
#END
