
#######################################################################
#
#                 Cambridge Crystallographic Data Centre
#                                CCDC
#
#######################################################################
#
# If this CIF has been generated from an entry in the Cambridge
# Structural Database, then it will include bibliographic, chemical,
# crystal, experimental, refinement or atomic coordinate data resulting
# from the CCDC's data processing and validation procedures.
#
#######################################################################

data_CSD_CIF_LEPKOJ
_audit_creation_date 2017-12-19
_audit_creation_method CSD-ConQuest-V1
_database_code_CSD LEPKOJ
_database_code_depnum_ccdc_archive 'CCDC 1569600'
_chemical_formula_sum 'C83 H157 N15 O54 Y2 Zn1'
_chemical_formula_moiety
;
(C52 H30 N4 O21 Y2 Zn1 2-)n,2(C2 H8 N1 1+),9(C3 H7 N1 O1),24(H2 O1)
;
_journal_coden_Cambridge 1063
_journal_volume 358
_journal_year 2018
_journal_page_first 43
_journal_name_full 'J.Catalysis '
loop_
_publ_author_name
"Wei-Long He"
"Xiu-Li Yang"
"Min Zhao"
"Chuan-De Wu"
_chemical_name_systematic
;
catena-(bis(dimethylammonium) 
(\m-5,5',5'',5'''-(porphyrin-5,10,15,20-tetrayl)tetra(benzene-1,3-dicarboxylat
o))-pentaaqua-zinc(ii)-di-yttrium(iii) N,N-dimethylformamide solvate 
tetracosahydrate)
;
_chemical_name_common
;
Zn-CZJ-22
;
_cell_volume  20971.428
_exptl_crystal_colour 'brown'
_exptl_crystal_description 'block'
_diffrn_ambient_temperature 293
_refine_special_details
;
The SQUEEZE/PLATON program has been used to model some disorder.

;
#These two values have been output from a single CSD field.
_refine_ls_R_factor_gt 0.0882
_refine_ls_wR_factor_gt 0.0882
_symmetry_cell_setting orthorhombic
_symmetry_space_group_name_H-M 'C m c a'
_symmetry_Int_Tables_number 64
loop_
_symmetry_equiv_pos_site_id
_symmetry_equiv_pos_as_xyz
1 x,y,z
2 -x,1/2-y,1/2+z
3 -x,1/2+y,1/2-z
4 x,-y,-z
5 1/2+x,1/2+y,z
6 1/2-x,-y,1/2+z
7 1/2-x,y,1/2-z
8 1/2+x,1/2-y,-z
9 -x,-y,-z
10 x,-1/2+y,-1/2-z
11 x,-1/2-y,-1/2+z
12 -x,y,z
13 -1/2-x,-1/2-y,-z
14 -1/2+x,y,-1/2-z
15 -1/2+x,-y,-1/2+z
16 -1/2-x,-1/2+y,z
_cell_length_a 30.078(3)
_cell_length_b 30.676(3)
_cell_length_c 22.729(6)
_cell_angle_alpha 90
_cell_angle_beta 90
_cell_angle_gamma 90
_cell_formula_units_Z 8
loop_
_atom_type_symbol
_atom_type_radius_bond
C 0.68
H 0.23
N 0.68
O 0.68
Y 1.90
Zn 1.22
loop_
_atom_site_label
_atom_site_type_symbol
_atom_site_fract_x
_atom_site_fract_y
_atom_site_fract_z
Y1 Y 0.24963(3) 0.37722(3) 0.05850(5)
Zn1 Zn 0.50000 0.37104(8) -0.24703(11)
O1 O 0.3506(4) 0.1669(4) -0.3311(6)
O2 O 0.3004(3) 0.1728(2) -0.4079(4)
O3 O 0.2629(3) 0.3132(3) -0.5027(4)
O4 O 0.3092(2) 0.3693(3) -0.4897(4)
O5 O 0.3586(2) 0.5887(2) -0.1559(4)
O6 O 0.2935(2) 0.5775(2) -0.1157(4)
O7 O 0.2570(3) 0.4369(2) -0.0055(4)
O8 O 0.3065(3) 0.3817(3) -0.0106(4)
O9 O 0.1971(3) 0.4325(3) 0.0973(5)
O10 O 0.2074(3) 0.3377(3) 0.1334(4)
O11 O 0.50000 0.3191(4) -0.1743(6)
N1 N 0.50000 0.3256(4) -0.3157(6)
N2 N 0.4324(2) 0.3755(3) -0.2536(4)
N3 N 0.50000 0.4201(4) -0.1908(8)
C1 C 0.4766(3) 0.2809(4) -0.3910(6)
H1 H 0.45820 0.26430 -0.41510
C2 C 0.4622(4) 0.3119(3) -0.3457(6)
C3 C 0.4187(3) 0.3187(4) -0.3279(6)
C4 C 0.3826(4) 0.2993(4) -0.3630(7)
C5 C 0.3745(4) 0.2572(5) -0.3540(5)
H2 H 0.39160 0.24160 -0.32710
C6 C 0.3403(4) 0.2363(3) -0.3849(5)
C7 C 0.3266(7) 0.1898(5) -0.3706(9)
C8 C 0.3142(4) 0.2602(4) -0.4311(6)
H3 H 0.29170 0.24680 -0.45250
C9 C 0.3252(4) 0.3023(4) -0.4396(6)
C10 C 0.2991(4) 0.3302(4) -0.4833(6)
C11 C 0.3595(4) 0.3221(4) -0.4044(6)
H4 H 0.36610 0.35140 -0.41020
C12 C 0.4056(4) 0.3513(4) -0.2828(6)
C13 C 0.3591(4) 0.3595(5) -0.2728(6)
H5 H 0.33430 0.34600 -0.28910
C14 C 0.3614(3) 0.3896(5) -0.2367(6)
H6 H 0.33610 0.40390 -0.22300
C15 C 0.4056(4) 0.4012(4) -0.2167(6)
C16 C 0.4188(3) 0.4302(4) -0.1771(6)
C17 C 0.3834(4) 0.4515(4) -0.1391(6)
C18 C 0.3737(4) 0.4936(4) -0.1503(5)
H7 H 0.39230 0.50920 -0.17530
C19 C 0.3371(4) 0.5146(4) -0.1263(7)
C20 C 0.3280(3) 0.5593(3) -0.1327(6)
C21 C 0.3134(4) 0.4894(4) -0.0829(5)
H8 H 0.29000 0.50300 -0.06350
C22 C 0.3228(4) 0.4464(4) -0.0678(5)
C23 C 0.2989(5) 0.4180(5) -0.0266(7)
C24 C 0.3591(4) 0.4277(4) -0.0984(6)
H9 H 0.36680 0.39890 -0.09100
C25 C 0.4649(4) 0.4371(3) -0.1636(5)
C26 C 0.4757(4) 0.4661(4) -0.1174(7)
H10 H 0.45650 0.48150 -0.09300
O1K O 0.6494(4) 0.1669(4) -0.3311(6)
O2K O 0.6996(3) 0.1728(2) -0.4079(4)
O3K O 0.7371(3) 0.3132(3) -0.5027(4)
O4K O 0.6908(2) 0.3693(3) -0.4897(4)
O5K O 0.6414(2) 0.5887(2) -0.1559(4)
O6K O 0.7065(2) 0.5775(2) -0.1157(4)
O7K O 0.7430(3) 0.4369(2) -0.0055(4)
O8K O 0.6935(3) 0.3817(3) -0.0106(4)
N2K N 0.5676(2) 0.3755(3) -0.2536(4)
C1K C 0.5234(3) 0.2809(4) -0.3910(6)
H1K H 0.54180 0.26430 -0.41510
C2K C 0.5378(4) 0.3119(3) -0.3457(6)
C3K C 0.5813(3) 0.3187(4) -0.3279(6)
C4K C 0.6174(4) 0.2993(4) -0.3630(7)
C5K C 0.6255(4) 0.2572(5) -0.3540(5)
H2K H 0.60840 0.24160 -0.32710
C6K C 0.6597(4) 0.2363(3) -0.3849(5)
C7K C 0.6734(7) 0.1898(5) -0.3706(9)
C8K C 0.6858(4) 0.2602(4) -0.4311(6)
H3K H 0.70830 0.24680 -0.45250
C9K C 0.6748(4) 0.3023(4) -0.4396(6)
C10K C 0.7009(4) 0.3302(4) -0.4833(6)
C11K C 0.6405(4) 0.3221(4) -0.4044(6)
H4K H 0.63390 0.35140 -0.41020
C12K C 0.5944(4) 0.3513(4) -0.2828(6)
C13K C 0.6409(4) 0.3595(5) -0.2728(6)
H5K H 0.66570 0.34600 -0.28910
C14K C 0.6386(3) 0.3896(5) -0.2367(6)
H6K H 0.66390 0.40390 -0.22300
C15K C 0.5944(4) 0.4012(4) -0.2167(6)
C16K C 0.5812(3) 0.4302(4) -0.1771(6)
C17K C 0.6166(4) 0.4515(4) -0.1391(6)
C18K C 0.6263(4) 0.4936(4) -0.1503(5)
H7K H 0.60770 0.50920 -0.17530
C19K C 0.6629(4) 0.5146(4) -0.1263(7)
C20K C 0.6720(3) 0.5593(3) -0.1327(6)
C21K C 0.6866(4) 0.4894(4) -0.0829(5)
H8K H 0.71000 0.50300 -0.06350
C22K C 0.6772(4) 0.4464(4) -0.0678(5)
C23K C 0.7011(5) 0.4180(5) -0.0266(7)
C24K C 0.6409(4) 0.4277(4) -0.0984(6)
H9K H 0.63320 0.39890 -0.09100
C25K C 0.5351(4) 0.4371(3) -0.1636(5)
C26K C 0.5243(4) 0.4661(4) -0.1174(7)
H10K H 0.54350 0.48150 -0.09300
Y1C Y 0.24963(3) 0.62278(3) -0.05850(5)
O9C O 0.1971(3) 0.5675(3) -0.0973(5)
O10C O 0.2074(3) 0.6623(3) -0.1334(4)
Y1A Y 0.75037(3) 0.12278(3) -0.44150(5)
Y1F Y 0.25037(3) 0.37722(3) -0.55850(5)
Y1H Y 0.75037(3) 0.62278(3) -0.05850(5)
Y1J Y 0.24963(3) 0.12278(3) -0.44150(5)
Y1K Y 0.75037(3) 0.37722(3) 0.05850(5)
Y1M Y 0.74963(3) 0.37722(3) -0.55850(5)
O2I O 0.3004(3) 0.6728(2) -0.0921(4)
O2J O 0.3004(3) 0.3272(2) 0.0921(4)
O3E O 0.2371(3) 0.6868(3) -0.0027(4)
O3F O 0.2371(3) 0.3132(3) 0.0027(4)
O4E O 0.1908(2) 0.6307(3) 0.0103(4)
O4F O 0.1908(2) 0.3693(3) -0.0103(4)
O6C O 0.2935(2) 0.4225(2) 0.1157(4)
O7C O 0.2570(3) 0.5631(2) 0.0055(4)
O8C O 0.3065(3) 0.6183(3) 0.0106(4)
#END
