
#######################################################################
#
#                 Cambridge Crystallographic Data Centre
#                                CCDC
#
#######################################################################
#
# If this CIF has been generated from an entry in the Cambridge
# Structural Database, then it will include bibliographic, chemical,
# crystal, experimental, refinement or atomic coordinate data resulting
# from the CCDC's data processing and validation procedures.
#
#######################################################################

data_CSD_CIF_LEPKEZ
_audit_creation_date 2017-12-19
_audit_creation_method CSD-ConQuest-V1
_database_code_CSD LEPKEZ
_database_code_depnum_ccdc_archive 'CCDC 1569598'
_chemical_formula_sum 'C80 H144 Cu1 N14 O50 Y2'
_chemical_formula_moiety
;
(C52 H28 Cu1 N4 O20 Y2 2-)n,2(C2 H8 N1 1+),8(C3 H7 N1 O1),22(H2 O1)
;
_journal_coden_Cambridge 1063
_journal_volume 358
_journal_year 2018
_journal_page_first 43
_journal_name_full 'J.Catalysis '
loop_
_publ_author_name
"Wei-Long He"
"Xiu-Li Yang"
"Min Zhao"
"Chuan-De Wu"
_chemical_name_systematic
;
catena-(bis(dimethylammonium) 
(\m-5,5',5'',5'''-(porphyrin-5,10,15,20-tetrayl)tetra(benzene-1,3-dicarboxylat
o))-tetraaqua-copper(ii)-di-yttrium(iii) N,N-dimethylformamide solvate 
docosahydrate)
;
_chemical_name_common
;
CZJ-22
;
_cell_volume  21812.832
_exptl_crystal_colour 'brown'
_exptl_crystal_description 'block'
_diffrn_ambient_temperature 293
_refine_special_details
;
The SQUEEZE/PLATON program has been used to model some disorder.

;
#These two values have been output from a single CSD field.
_refine_ls_R_factor_gt 0.0682
_refine_ls_wR_factor_gt 0.0682
_symmetry_cell_setting orthorhombic
_symmetry_space_group_name_H-M 'C m c a'
_symmetry_Int_Tables_number 64
loop_
_symmetry_equiv_pos_site_id
_symmetry_equiv_pos_as_xyz
1 x,y,z
2 -x,1/2-y,1/2+z
3 -x,1/2+y,1/2-z
4 x,-y,-z
5 1/2+x,1/2+y,z
6 1/2-x,-y,1/2+z
7 1/2-x,y,1/2-z
8 1/2+x,1/2-y,-z
9 -x,-y,-z
10 x,-1/2+y,-1/2-z
11 x,-1/2-y,-1/2+z
12 -x,y,z
13 -1/2-x,-1/2-y,-z
14 -1/2+x,y,-1/2-z
15 -1/2+x,-y,-1/2+z
16 -1/2-x,-1/2+y,z
_cell_length_a 30.1088(9)
_cell_length_b 30.5872(9)
_cell_length_c 23.6853(13)
_cell_angle_alpha 90
_cell_angle_beta 90
_cell_angle_gamma 90
_cell_formula_units_Z 8
loop_
_atom_type_symbol
_atom_type_radius_bond
C 0.68
H 0.23
Cu 1.32
N 0.68
O 0.68
Y 1.90
loop_
_atom_site_label
_atom_site_type_symbol
_atom_site_fract_x
_atom_site_fract_y
_atom_site_fract_z
Y1 Y 0.242873(17) 0.379827(16) 0.05271(3)
Cu1 Cu 0.00000 0.37659(3) -0.26112(5)
O1 O 0.1375(3) 0.5848(3) -0.1547(4)
O2 O 0.19861(18) 0.57780(15) -0.1056(3)
O3 O 0.23155(13) 0.44061(13) -0.0119(2)
O4 O 0.18983(15) 0.38222(14) -0.0215(3)
O5 O 0.19536(15) 0.37240(13) -0.4902(2)
O6 O 0.23451(15) 0.31324(13) -0.5071(2)
O7 O 0.19363(16) 0.17278(14) -0.4186(2)
O8 O 0.1404(3) 0.1689(2) -0.3568(4)
O9 O 0.2810(3) 0.3524(2) 0.1319(3)
O10 O 0.29325(16) 0.4380(2) 0.0834(2)
N1 N 0.00000 0.4183(2) -0.1963(3)
N2 N 0.06615(13) 0.37700(14) -0.2621(2)
N3 N 0.00000 0.3342(2) -0.3254(3)
C1 C 0.0224(2) 0.4629(2) -0.1255(3)
H1 H 0.04060 0.47810 -0.10060
C2 C 0.03646(19) 0.4361(3) -0.1695(3)
C3 C 0.08028(18) 0.4278(2) -0.1834(3)
C4 C 0.09383(19) 0.4003(2) -0.2246(3)
C5 C 0.1398(2) 0.3918(3) -0.2411(4)
H2 H 0.16500 0.40330 -0.22400
C6 C 0.13926(19) 0.3645(2) -0.2851(3)
H3 H 0.16440 0.35340 -0.30290
C7 C 0.09457(17) 0.3546(2) -0.3008(3)
C8 C 0.08059(16) 0.32467(19) -0.3395(2)
C9 C 0.03644(16) 0.31590(18) -0.3520(3)
C10 C 0.02255(18) 0.2887(2) -0.3967(2)
H4 H 0.04090 0.27350 -0.42150
C11 C 0.11538(19) 0.4492(2) -0.1473(3)
C12 C 0.1231(2) 0.4925(2) -0.1532(3)
H5 H 0.10460 0.50810 -0.17740
C13 C 0.1568(2) 0.5155(2) -0.1255(4)
C14 C 0.1798(2) 0.49086(19) -0.0857(3)
H6 H 0.20100 0.50510 -0.06370
C15 C 0.1733(2) 0.4462(2) -0.0764(3)
C16 C 0.14050(19) 0.4254(2) -0.1092(3)
H7 H 0.13570 0.39560 -0.10520
C17 C 0.11656(17) 0.30401(18) -0.3726(3)
C18 C 0.14222(16) 0.32574(16) -0.4105(3)
H8 H 0.13720 0.35550 -0.41550
C19 C 0.17480(16) 0.30649(17) -0.4416(2)
C20 C 0.18288(19) 0.2611(2) -0.4355(3)
H9 H 0.20510 0.24730 -0.45600
C21 C 0.1565(2) 0.2381(2) -0.3978(3)
C22 C 0.12391(19) 0.2600(2) -0.3660(3)
H10 H 0.10700 0.24430 -0.34000
C23 C 0.1668(3) 0.5616(3) -0.1322(5)
C24 C 0.1988(2) 0.4200(2) -0.0339(3)
C25 C 0.20231(18) 0.3314(2) -0.4836(3)
C26 C 0.1671(3) 0.1900(3) -0.3904(5)
O1K O -0.1375(3) 0.5848(3) -0.1547(4)
O2K O -0.19861(18) 0.57780(15) -0.1056(3)
O3K O -0.23155(13) 0.44061(13) -0.0119(2)
O4K O -0.18983(15) 0.38222(14) -0.0215(3)
O5K O -0.19536(15) 0.37240(13) -0.4902(2)
O6K O -0.23451(15) 0.31324(13) -0.5071(2)
O7K O -0.19363(16) 0.17278(14) -0.4186(2)
O8K O -0.1404(3) 0.1689(2) -0.3568(4)
N2K N -0.06615(13) 0.37700(14) -0.2621(2)
C1K C -0.0224(2) 0.4629(2) -0.1255(3)
H1K H -0.04060 0.47810 -0.10060
C2K C -0.03646(19) 0.4361(3) -0.1695(3)
C3K C -0.08028(18) 0.4278(2) -0.1834(3)
C4K C -0.09383(19) 0.4003(2) -0.2246(3)
C5K C -0.1398(2) 0.3918(3) -0.2411(4)
H2K H -0.16500 0.40330 -0.22400
C6K C -0.13926(19) 0.3645(2) -0.2851(3)
H3K H -0.16440 0.35340 -0.30290
C7K C -0.09457(17) 0.3546(2) -0.3008(3)
C8K C -0.08059(16) 0.32467(19) -0.3395(2)
C9K C -0.03644(16) 0.31590(18) -0.3520(3)
C10K C -0.02255(18) 0.2887(2) -0.3967(2)
H4K H -0.04090 0.27350 -0.42150
C11K C -0.11538(19) 0.4492(2) -0.1473(3)
C12K C -0.1231(2) 0.4925(2) -0.1532(3)
H5K H -0.10460 0.50810 -0.17740
C13K C -0.1568(2) 0.5155(2) -0.1255(4)
C14K C -0.1798(2) 0.49086(19) -0.0857(3)
H6K H -0.20100 0.50510 -0.06370
C15K C -0.1733(2) 0.4462(2) -0.0764(3)
C16K C -0.14050(19) 0.4254(2) -0.1092(3)
H7K H -0.13570 0.39560 -0.10520
C17K C -0.11656(17) 0.30401(18) -0.3726(3)
C18K C -0.14222(16) 0.32574(16) -0.4105(3)
H8K H -0.13720 0.35550 -0.41550
C19K C -0.17480(16) 0.30649(17) -0.4416(2)
C20K C -0.18288(19) 0.2611(2) -0.4355(3)
H9K H -0.20510 0.24730 -0.45600
C21K C -0.1565(2) 0.2381(2) -0.3978(3)
C22K C -0.12391(19) 0.2600(2) -0.3660(3)
H10K H -0.10700 0.24430 -0.34000
C23K C -0.1668(3) 0.5616(3) -0.1322(5)
C24K C -0.1988(2) 0.4200(2) -0.0339(3)
C25K C -0.20231(18) 0.3314(2) -0.4836(3)
C26K C -0.1671(3) 0.1900(3) -0.3904(5)
Y1C Y 0.242873(17) 0.620173(16) -0.05271(3)
O9C O 0.2810(3) 0.6476(2) -0.1319(3)
O10C O 0.29325(16) 0.5620(2) -0.0834(2)
Y1A Y -0.242873(17) 0.120173(16) -0.44729(3)
Y1F Y 0.257127(17) 0.379827(16) -0.55271(3)
Y1H Y -0.242873(17) 0.620173(16) -0.05271(3)
Y1J Y 0.242873(17) 0.120173(16) -0.44729(3)
Y1K Y -0.242873(17) 0.379827(16) 0.05271(3)
Y1M Y -0.257127(17) 0.379827(16) -0.55271(3)
O2C O 0.19861(18) 0.42220(15) 0.1056(3)
O3C O 0.23155(13) 0.55939(13) 0.0119(2)
O4C O 0.18983(15) 0.61778(14) 0.0215(3)
O5E O 0.30464(15) 0.62760(13) 0.0098(2)
O5F O 0.30464(15) 0.37240(13) -0.0098(2)
O6E O 0.26549(15) 0.68676(13) -0.0071(2)
O6F O 0.26549(15) 0.31324(13) 0.0071(2)
O7I O 0.19363(16) 0.67278(14) -0.0814(2)
O7J O 0.19363(16) 0.32722(14) 0.0814(2)
#END
