
#######################################################################
#
#                 Cambridge Crystallographic Data Centre
#                                CCDC
#
#######################################################################
#
# If this CIF has been generated from an entry in the Cambridge
# Structural Database, then it will include bibliographic, chemical,
# crystal, experimental, refinement or atomic coordinate data resulting
# from the CCDC's data processing and validation procedures.
#
#######################################################################

data_CSD_CIF_LEPTUY
_audit_creation_date 2017-12-19
_audit_creation_method CSD-ConQuest-V1
_database_code_CSD LEPTUY
_database_code_depnum_ccdc_archive 'CCDC 1560977'
_chemical_formula_sum 'C106 H118 In2 N4 O18 S8'
_chemical_formula_moiety
;
2(C16 H36 N1 1+),n(C68 H32 In2 O16 S8 2-),2(C3 H7 N1 O1)
;
_journal_coden_Cambridge 1490
_journal_volume 8
_journal_year 2017
_journal_page_first 2008
_journal_name_full 'Nat.Commun. '
loop_
_publ_author_name
"Jian Su"
"Shuai Yuan"
"Hai-Ying Wang"
"Lan Huang"
"Jing-Yuan Ge"
"E.Joseph"
"Junsheng Qin"
"T.Cagin"
"Jing-Lin Zuo"
"Hong-Cai Zhou"
_chemical_name_systematic
;
catena-[bis(tetra-n-butylammonium) 
bis(\m-2,3,6,7-tetrakis(4-carboxylatophenyl)tetrathiafulvalene)-di-indium(iii)
 N,N-dimethylformamide unknown solvate]
;
_cell_volume   5639.666
_exptl_crystal_colour 'red'
_exptl_crystal_description 'rod like'
_diffrn_ambient_temperature 80
_refine_special_details
;
The SQUEEZE/PLATON program has been used to model some disorder. It has been 
assumed an additional tetra-n-butylammonium cation has been modelled using 
SQUEEZE.
;
#These two values have been output from a single CSD field.
_refine_ls_R_factor_gt 0.0495
_refine_ls_wR_factor_gt 0.0495
_symmetry_cell_setting triclinic
_symmetry_space_group_name_H-M 'P -1'
_symmetry_Int_Tables_number 2
loop_
_symmetry_equiv_pos_site_id
_symmetry_equiv_pos_as_xyz
1 x,y,z
2 -x,-y,-z
_cell_length_a 12.1284(5)
_cell_length_b 15.2917(7)
_cell_length_c 30.6531(13)
_cell_angle_alpha 83.195(2)
_cell_angle_beta 88.220(2)
_cell_angle_gamma 88.062(2)
_cell_formula_units_Z 2
loop_
_atom_type_symbol
_atom_type_radius_bond
C 0.68
H 0.23
In 1.42
N 0.68
O 0.68
S 1.02
loop_
_atom_site_label
_atom_site_type_symbol
_atom_site_fract_x
_atom_site_fract_y
_atom_site_fract_z
C1 C 0.6733(3) 1.0565(3) 1.00742(14)
C2 C 0.7407(3) 0.9880(3) 1.03324(14)
C3 C 0.7028(3) 0.9066(3) 1.05047(15)
H1 H 0.63198 0.88928 1.04297
C4 C 0.7667(3) 0.8504(3) 1.07846(14)
H2 H 0.73951 0.79471 1.09023
C5 C 0.8696(3) 0.8742(3) 1.08947(14)
C6 C 0.9094(4) 0.9553(3) 1.07159(16)
H3 H 0.98088 0.97188 1.07868
C7 C 0.8455(3) 1.0116(3) 1.04359(16)
H4 H 0.87328 1.06674 1.03132
C8 C 0.9334(3) 0.8162(3) 1.12257(14)
C9 C 0.6688(3) 1.0661(3) 0.96180(13)
C10 C 0.7244(3) 1.0095(3) 0.93343(14)
C11 C 0.7175(3) 0.9175(3) 0.94022(14)
H5 H 0.67504 0.89079 0.96444
C12 C 0.7717(3) 0.8654(3) 0.91220(13)
H6 H 0.76467 0.80325 0.91684
C13 C 0.8365(3) 0.9029(3) 0.87719(14)
C14 C 0.8439(3) 0.9953(3) 0.86895(14)
H7 H 0.88764 1.02128 0.84493
C15 C 0.7864(3) 1.0477(3) 0.89637(14)
H8 H 0.78847 1.10998 0.89029
C16 C 0.8970(3) 0.8494(3) 0.84665(14)
C17 C 0.3593(3) 1.3973(3) 1.01368(15)
C18 C 0.3063(3) 1.4552(3) 1.04378(15)
C19 C 0.2205(3) 1.4235(3) 1.07388(14)
H9 H 0.19582 1.36522 1.07396
C20 C 0.1743(3) 1.4763(3) 1.10232(15)
H10 H 0.11598 1.45423 1.12149
C21 C 0.2086(3) 1.5612(3) 1.10462(14)
C22 C 0.2939(3) 1.5926(3) 1.07644(14)
H11 H 0.31940 1.65023 1.07773
C23 C 0.3436(3) 1.5395(3) 1.04564(15)
H12 H 0.40189 1.56163 1.02649
C24 C 0.1541(3) 1.6179(3) 1.13484(14)
C25 C 0.3527(3) 1.4044(3) 0.96834(15)
C26 C 0.2855(3) 1.4677(3) 0.93992(15)
C27 C 0.3186(3) 1.5545(3) 0.92872(15)
H13 H 0.38336 1.57373 0.94087
C28 C 0.2571(3) 1.6131(3) 0.89984(15)
H14 H 0.27784 1.67277 0.89392
C29 C 0.1669(3) 1.5851(3) 0.87994(15)
C30 C 0.1346(3) 1.4974(3) 0.88973(15)
H15 H 0.07086 1.47807 0.87688
C31 C 0.1961(3) 1.4391(3) 0.91819(15)
H16 H 0.17730 1.37881 0.92299
C32 C 0.1036(3) 1.6462(3) 0.84712(14)
C33 C 0.5480(3) 1.1937(3) 0.98831(15)
C34 C 0.4767(3) 1.2662(3) 0.98934(14)
C35 C 0.5614(3) 0.8564(3) 0.58104(15)
C36 C 0.6317(3) 0.8380(3) 0.62075(15)
C37 C 0.6235(4) 0.7590(3) 0.64787(15)
H17 H 0.56945 0.71822 0.64271
C38 C 0.6948(3) 0.7398(3) 0.68268(15)
H18 H 0.68915 0.68579 0.70128
C39 C 0.7738(4) 0.7990(3) 0.69034(15)
C40 C 0.7825(3) 0.8768(3) 0.66320(15)
H19 H 0.83742 0.91706 0.66821
C41 C 0.7116(3) 0.8972(3) 0.62854(15)
H20 H 0.71759 0.95143 0.61013
C42 C 0.8511(4) 0.7869(3) 0.72703(16)
C43 C 0.4457(3) 0.8559(3) 0.58041(14)
C44 C 0.3695(3) 0.8320(3) 0.62012(15)
C45 C 0.3738(3) 0.8864(3) 0.65484(14)
H21 H 0.42469 0.93269 0.65292
C46 C 0.3025(3) 0.8711(3) 0.69192(15)
H22 H 0.30462 0.90492 0.71593
C47 C 0.2268(3) 0.8017(3) 0.69129(15)
C48 C 0.2252(4) 0.7502(3) 0.65877(15)
H23 H 0.17654 0.70245 0.66053
C49 C 0.2985(3) 0.7685(3) 0.62113(15)
H24 H 0.29563 0.73479 0.59710
C50 C 0.1480(3) 0.7803(3) 0.73032(15)
C51 C 0.4686(3) 0.8281(3) 0.38116(15)
C52 C 0.4126(3) 0.7966(3) 0.34314(15)
C53 C 0.4071(4) 0.8542(3) 0.30449(15)
H25 H 0.44945 0.90580 0.30085
C54 C 0.3392(3) 0.8357(3) 0.27126(15)
H26 H 0.33529 0.87542 0.24501
C55 C 0.2776(3) 0.7612(3) 0.27561(15)
C56 C 0.2840(4) 0.7027(3) 0.31514(15)
H27 H 0.24177 0.65104 0.31890
C57 C 0.3515(4) 0.7211(3) 0.34802(15)
H28 H 0.35612 0.68158 0.37430
C58 C 0.2045(3) 0.7420(3) 0.23992(15)
C59 C 0.5828(3) 0.8383(3) 0.37878(15)
C60 C 0.6606(4) 0.8284(3) 0.34200(16)
C61 C 0.6832(4) 0.8820(3) 0.30491(18)
H29 H 0.65194 0.94016 0.30095
C62 C 0.7501(4) 0.8530(3) 0.27346(18)
H30 H 0.75572 0.88915 0.24610
C63 C 0.8116(3) 0.7741(3) 0.27801(15)
C64 C 0.7956(4) 0.7231(4) 0.31877(17)
H31 H 0.83893 0.67058 0.32535
C65 C 0.7179(4) 0.7475(3) 0.34975(18)
H32 H 0.70388 0.70947 0.37600
C66 C 0.8965(4) 0.7506(3) 0.24530(15)
C67 C 0.5084(3) 0.8826(3) 0.49959(15)
C68 C 0.5141(3) 0.8817(3) 0.45576(15)
In1 In 1.05334(2) 0.72920(2) 1.18400(2)
In2 In 0.99510(2) 0.75697(2) 0.79081(2)
O1 O 1.0213(2) 0.84533(18) 1.13609(9)
O2 O 0.9042(2) 0.74049(18) 1.13679(9)
O3 O 0.8729(2) 0.77055(19) 0.84768(9)
O4 O 0.9695(2) 0.88246(18) 0.82060(9)
O5 O 0.0741(2) 1.59485(18) 1.15960(9)
O6 O 0.1860(2) 1.69711(18) 1.13523(9)
O7 O 0.1294(2) 1.72531(18) 0.84089(9)
O8 O 0.0279(2) 1.61951(17) 0.82642(9)
O9 O 0.8516(2) 0.7137(2) 0.75042(10)
O10 O 0.9156(2) 0.8434(2) 0.73629(10)
O11 O 0.1351(2) 0.83903(19) 0.75508(10)
O12 O 0.0973(2) 0.7085(2) 0.73615(10)
O13 O 0.1910(2) 0.8042(2) 0.20937(10)
O14 O 0.1520(2) 0.6720(2) 0.24133(9)
O15 O 0.9487(2) 0.8129(2) 0.2260(1)
O16 O 0.9045(2) 0.6748(2) 0.23576(9)
S1 S 0.59986(8) 1.13408(7) 1.03585(4)
S2 S 0.59151(8) 1.15709(6) 0.93847(3)
S3 S 0.43934(8) 1.30988(7) 1.03812(4)
S4 S 0.42270(8) 1.32275(6) 0.94172(4)
S5 S 0.62455(8) 0.89261(7) 0.53049(4)
S6 S 0.38422(9) 0.87994(7) 0.52975(4)
S7 S 0.39520(9) 0.86810(7) 0.42593(4)
S8 S 0.63605(8) 0.88417(7) 0.42348(4)
C69 C 0.8333(4) 0.4854(3) 0.42778(17)
H33 H 0.85741 0.51020 0.39784
H34 H 0.85005 0.52999 0.44735
C70 C 0.7078(4) 0.4846(3) 0.42688(18)
H35 H 0.68599 0.45722 0.45665
H36 H 0.69323 0.44010 0.40696
C71 C 0.6182(4) 0.5565(3) 0.41600(18)
H37 H 0.63249 0.58533 0.38578
H38 H 0.62402 0.60182 0.43630
C72 C 0.4991(4) 0.5228(3) 0.41924(18)
H39 H 0.49991 0.46113 0.43232
H40 H 0.46874 0.52736 0.38977
H41 H 0.45329 0.55855 0.43767
C73 C 0.9422(4) 0.3949(3) 0.39227(17)
H42 H 0.97542 0.33451 0.39513
H43 H 0.87030 0.39036 0.37839
C74 C 1.0130(4) 0.4455(3) 0.35593(18)
H44 H 0.97103 0.50016 0.34530
H45 H 1.07985 0.46370 0.36981
C75 C 1.0500(4) 0.4032(3) 0.31694(17)
H46 H 0.99481 0.35999 0.31123
H47 H 1.12050 0.37045 0.32342
C76 C 1.0665(4) 0.4686(3) 0.27507(17)
H48 H 0.99440 0.49001 0.26398
H49 H 1.10692 0.43876 0.25261
H50 H 1.10868 0.51845 0.28201
C77 C 1.0209(4) 0.4209(3) 0.46118(18)
H51 H 1.05543 0.47435 0.44604
H52 H 1.00637 0.43089 0.49218
C78 C 1.1031(4) 0.3437(3) 0.46023(18)
H53 H 1.07103 0.29062 0.47677
H54 H 1.11618 0.33179 0.42943
C79 C 1.2117(4) 0.3606(3) 0.47973(18)
H55 H 1.21343 0.33081 0.51020
H56 H 1.21721 0.42467 0.48107
C80 C 1.3120(4) 0.3282(3) 0.45355(16)
H57 H 1.28715 0.29198 0.43165
H58 H 1.36207 0.29296 0.47365
H59 H 1.35086 0.37898 0.43867
C81 C 0.8499(4) 0.3350(3) 0.46600(16)
H60 H 0.89671 0.28070 0.46607
H61 H 0.78159 0.32565 0.45054
C82 C 0.8188(4) 0.3477(3) 0.51345(17)
H62 H 0.86855 0.39038 0.52386
H63 H 0.74236 0.37223 0.51495
C83 C 0.8270(4) 0.2626(3) 0.54261(17)
H64 H 0.87235 0.21972 0.52742
H65 H 0.75232 0.23872 0.54800
C84 C 0.8779(4) 0.2720(3) 0.58646(17)
H66 H 0.88136 0.21445 0.60428
H67 H 0.95253 0.29435 0.58138
H68 H 0.83247 0.31336 0.60197
N1 N 0.9104(2) 0.4101(2) 0.44003(11)
C85 C 1.0127(4) 0.2033(3) 0.02148(18)
H69 H 0.96304 0.17365 0.04393
H70 H 1.08647 0.20529 0.03344
H71 H 1.01687 0.17067 -0.00422
C86 C 1.0306(4) 0.3792(3) -0.00036(17)
H72 H 1.04160 0.39474 -0.03211
H73 H 1.10254 0.37085 0.01352
H74 H 0.98844 0.42670 0.01197
C87 C 0.8572(4) 0.3052(3) 0.00214(17)
H75 H 0.82206 0.36190 0.00074
N2 N 0.9690(3) 0.2963(3) 0.00802(13)
O17 O 0.8019(3) 0.2403(2) -0.00132(11)
C88 C 0.9258(4) -0.0138(3) 0.33595(17)
H76 H 0.99276 -0.03474 0.32119
H77 H 0.89678 0.03996 0.31901
H78 H 0.87024 -0.05933 0.33807
C89 C 0.9374(4) 0.0896(3) 0.40148(17)
H79 H 0.86200 0.09401 0.41365
H80 H 0.95021 0.13983 0.37911
H81 H 0.99008 0.08999 0.42505
C90 C 1.0013(4) -0.0644(4) 0.40736(18)
H82 H 0.99086 -0.12368 0.40241
N3 N 0.9526(3) 0.0054(3) 0.38097(14)
O18 O 1.0602(3) -0.0463(2) 0.43824(12)
In1* In 0.05334(2) 0.72920(2) 0.18400(2)
In1** In 0.05334(2) 1.72920(2) 1.18400(2)
In1*** In 1.05334(2) 0.72920(2) 0.18400(2)
In2* In -0.00490(2) 0.75697(2) 0.79081(2)
In2** In -0.00490(2) 1.75697(2) 0.79081(2)
O5* O 1.0741(2) 0.59485(18) 1.15960(9)
O6* O 1.1860(2) 0.69711(18) 1.13523(9)
O7* O 1.1294(2) 0.72531(18) 0.84089(9)
O8* O 1.0279(2) 0.61951(17) 0.82642(9)
O11* O 1.1351(2) 0.83903(19) 0.75508(10)
O12* O 1.0973(2) 0.7085(2) 0.73615(10)
O13* O 1.1910(2) 0.8042(2) 1.20937(10)
O14* O 1.1520(2) 0.6720(2) 1.24133(9)
O15* O 0.9487(2) 0.8129(2) 1.2260(1)
O16* O 0.9045(2) 0.6748(2) 1.23576(9)
#END
