
#######################################################################
#
#                 Cambridge Crystallographic Data Centre
#                                CCDC
#
#######################################################################
#
# If this CIF has been generated from an entry in the Cambridge
# Structural Database, then it will include bibliographic, chemical,
# crystal, experimental, refinement or atomic coordinate data resulting
# from the CCDC's data processing and validation procedures.
#
#######################################################################

data_CSD_CIF_LEPTIM
_audit_creation_date 2017-12-19
_audit_creation_method CSD-ConQuest-V1
_database_code_CSD LEPTIM
_database_code_depnum_ccdc_archive 'CCDC 1560236'
_chemical_formula_sum 'C72 H48 In2 N2 O16 S8'
_chemical_formula_moiety
;
2(C2 H8 N1 1+),n(C68 H32 In2 O16 S8 2-)
;
_journal_coden_Cambridge 1490
_journal_volume 8
_journal_year 2017
_journal_page_first 2008
_journal_name_full 'Nat.Commun. '
loop_
_publ_author_name
"Jian Su"
"Shuai Yuan"
"Hai-Ying Wang"
"Lan Huang"
"Jing-Yuan Ge"
"E.Joseph"
"Junsheng Qin"
"T.Cagin"
"Jing-Lin Zuo"
"Hong-Cai Zhou"
_chemical_name_systematic
;
catena-[bis(Dimethylammonium) 
bis(\m-2,3,6,7-tetrakis(4-carboxylatophenyl)tetrathiafulvalene)-di-indium(iii)
 unknown solvate]
;
_cell_volume   5667.798
_exptl_crystal_colour 'red'
_exptl_crystal_density_diffrn 0.987
_exptl_special_details
;
open-framework

;
_exptl_crystal_description 'rod like'
_diffrn_ambient_temperature 80
_refine_special_details
;
Disordered solvent molecules were not modelled and the disordered density was 
taken into account using the SQUEEZE/PLATON procedure.
;
#These two values have been output from a single CSD field.
_refine_ls_R_factor_gt 0.0411
_refine_ls_wR_factor_gt 0.0411
_symmetry_cell_setting triclinic
_symmetry_space_group_name_H-M 'P -1'
_symmetry_Int_Tables_number 2
loop_
_symmetry_equiv_pos_site_id
_symmetry_equiv_pos_as_xyz
1 x,y,z
2 -x,-y,-z
_cell_length_a 12.1632(13)
_cell_length_b 15.3236(18)
_cell_length_c 30.622(2)
_cell_angle_alpha 83.6933(13)
_cell_angle_beta 88.5300(19)
_cell_angle_gamma 87.9124(18)
_cell_formula_units_Z 2
loop_
_atom_type_symbol
_atom_type_radius_bond
C 0.68
H 0.23
In 1.42
N 0.68
O 0.68
S 1.02
loop_
_atom_site_label
_atom_site_type_symbol
_atom_site_fract_x
_atom_site_fract_y
_atom_site_fract_z
C1 C 0.7953(3) 0.2429(3) 1.26425(14)
C2 C 0.7265(4) 0.2306(3) 1.22595(14)
C3 C 0.6571(4) 0.1591(3) 1.22968(14)
H1 H 0.65338 0.12168 1.25652
C4 C 0.5947(4) 0.1423(3) 1.19521(14)
H2 H 0.54900 0.09300 1.19815
C5 C 0.5979(3) 0.1979(3) 1.15533(13)
C6 C 0.6654(4) 0.2687(3) 1.15151(15)
H3 H 0.66974 0.30506 1.12437
C7 C 0.7272(4) 0.2880(3) 1.18651(14)
H4 H 0.76949 0.33929 1.18398
C8 C 0.5278(3) 0.1671(3) 1.12058(13)
C9 C 0.4161(3) 0.1591(3) 1.11886(13)
C10 C 0.3377(4) 0.1886(3) 1.15412(15)
C11 C 0.3351(3) 0.2706(3) 1.16793(14)
H5 H 0.38098 0.31441 1.15371
C12 C 0.2652(3) 0.2904(3) 1.20301(14)
H6 H 0.26329 0.34729 1.21269
C13 C 0.1984(4) 0.2246(3) 1.22339(14)
C14 C 0.2010(4) 0.1426(3) 1.20922(15)
H7 H 0.15468 0.09861 1.22302
C15 C 0.2717(3) 0.1237(3) 1.17444(13)
H8 H 0.27442 0.06674 1.16485
C16 C 0.1180(4) 0.2420(3) 1.25792(15)
C17 C 0.4995(4) 0.1221(3) 1.04500(14)
C18 C 0.4922(3) 0.1138(3) 1.00151(14)
C19 C 0.4426(3) 0.1304(3) 0.91858(13)
C20 C 0.5576(4) 0.1437(3) 0.91916(14)
C21 C 0.6283(4) 0.1670(3) 0.87985(14)
C22 C 0.7011(4) 0.2335(3) 0.87804(15)
H9 H 0.70246 0.26865 0.90170
C23 C 0.7741(4) 0.2510(3) 0.84181(15)
H10 H 0.82418 0.29739 0.84085
C24 C 0.7710(3) 0.1987(3) 0.80763(14)
C25 C 0.6998(3) 0.1301(3) 0.80972(14)
H11 H 0.70091 0.09258 0.78697
C26 C 0.6260(3) 0.1159(3) 0.84546(13)
H12 H 0.57412 0.07087 0.84605
C27 C 0.8553(4) 0.2213(3) 0.77124(15)
C28 C 0.3715(3) 0.1625(3) 0.88046(14)
C29 C 0.2958(3) 0.1032(3) 0.87236(14)
H13 H 0.29073 0.04928 0.89071
C30 C 0.2256(4) 0.1222(3) 0.83695(14)
H14 H 0.17334 0.08040 0.83133
C31 C 0.2304(3) 0.2000(3) 0.81004(14)
C32 C 0.3070(4) 0.2610(3) 0.81920(14)
H15 H 0.31003 0.31580 0.80144
C33 C 0.3792(4) 0.2427(3) 0.85405(13)
H16 H 0.43226 0.28375 0.85969
C34 C 0.1585(4) 0.2168(3) 0.77109(14)
C35 C 0.8458(4) 0.3802(3) 0.36488(15)
C36 C 0.7935(3) 0.4400(3) 0.39671(14)
C37 C 0.7078(3) 0.4067(3) 0.42386(13)
H17 H 0.68238 0.34941 0.42186
C38 C 0.6597(3) 0.4601(3) 0.45442(14)
H18 H 0.60210 0.43844 0.47374
C39 C 0.6968(3) 0.5448(3) 0.45623(14)
C40 C 0.7809(4) 0.5771(3) 0.42826(13)
H19 H 0.80573 0.63480 0.42950
C41 C 0.8287(4) 0.5238(3) 0.39822(15)
H20 H 0.88589 0.54567 0.37875
C42 C 0.6431(3) 0.6036(3) 0.48678(14)
C43 C 0.6492(3) 0.5949(3) 0.53388(13)
C44 C 0.7171(3) 0.5313(3) 0.56233(14)
C45 C 0.6968(3) 0.4426(3) 0.56644(13)
H21 H 0.64271 0.42097 0.54894
C46 C 0.7553(4) 0.3855(3) 0.59607(14)
H22 H 0.73988 0.32481 0.59930
C47 C 0.8374(3) 0.4162(3) 0.62157(13)
C48 C 0.8570(3) 0.5054(3) 0.61698(13)
H23 H 0.91236 0.52719 0.63384
C49 C 0.7967(3) 0.5630(3) 0.58802(13)
H24 H 0.80942 0.62412 0.58564
C50 C 0.8978(4) 0.3509(3) 0.65349(14)
C51 C 0.5219(3) 0.7338(3) 0.51127(13)
C52 C 0.4529(3) 0.8090(3) 0.51152(14)
C53 C 0.3335(3) 0.9412(3) 0.49158(14)
C54 C 0.3265(3) 0.9344(3) 0.53729(13)
C55 C 0.2631(3) 1.0059(3) 0.46468(13)
C56 C 0.1511(3) 0.9983(3) 0.46387(14)
H25 H 0.11690 0.95152 0.48147
C57 C 0.0864(4) 1.0600(3) 0.43686(14)
H26 H 0.00899 1.05447 0.43557
C58 C 0.1382(3) 1.1284(3) 0.41242(14)
C59 C 0.2481(3) 1.1372(3) 0.41317(13)
H27 H 0.28133 1.18440 0.39554
C60 C 0.3135(3) 1.0768(3) 0.43993(13)
H28 H 0.39056 1.08376 0.44125
C61 C 0.0734(4) 1.1860(3) 0.37747(13)
C62 C 0.2757(3) 0.9879(3) 0.56699(13)
C63 C 0.2116(3) 0.9527(3) 0.60131(14)
H29 H 0.20662 0.89064 0.60638
C64 C 0.1530(4) 1.0048(3) 0.62914(13)
H30 H 0.10748 0.97945 0.65248
C65 C 0.1642(3) 1.0965(3) 0.62123(13)
C66 C 0.2279(3) 1.1334(3) 0.58604(13)
H31 H 0.23404 1.19531 0.58096
C67 C 0.2814(3) 1.0804(3) 0.55889(14)
H32 H 0.32296 1.10569 0.53431
C68 C 0.1008(4) 1.1501(3) 0.65235(14)
In1 In 1.00617(2) 0.24288(2) 0.70905(2)
In2 In 0.95082(2) 0.27227(2) 0.31731(2)
O1 O 0.8179(2) 0.18235(19) 1.29294(9)
O2 O 0.8430(2) 0.3156(2) 1.26035(9)
O3 O 0.0526(3) 0.18865(19) 1.27694(9)
O4 O 0.1012(2) 0.3222(2) 1.26630(9)
O5 O 0.0961(2) 0.16103(18) 0.76248(9)
O6 O 0.1548(2) 0.29240(19) 0.74767(9)
O7 O 0.8617(2) 0.16327(18) 0.74490(9)
O8 O 0.9070(2) 0.2869(2) 0.76582(8)
O9 O 0.8695(2) 0.27585(18) 0.65803(9)
O10 O 0.9720(2) 0.37948(17) 0.67562(9)
O11 O 0.8190(2) 0.30243(18) 0.36716(8)
O12 O 0.9267(2) 0.40490(17) 0.34040(9)
O13 O -0.0137(2) 1.15628(17) 0.36476(9)
O14 O 0.1039(2) 1.26183(18) 0.36302(9)
O15 O 0.0278(2) 1.11628(18) 0.67881(9)
O16 O 0.1359(2) 1.22929(19) 0.65122(9)
S1 S 0.36989(9) 0.11795(7) 1.07221(4)
S2 S 0.61213(9) 0.13521(7) 1.07834(4)
S3 S 0.37540(9) 0.10770(7) 0.96926(4)
S4 S 0.61666(9) 0.11754(7) 0.97063(4)
S5 S 0.58040(8) 0.67836(7) 0.55872(3)
S6 S 0.56555(9) 0.69251(7) 0.46191(3)
S7 S 0.40774(9) 0.84390(7) 0.56168(3)
S8 S 0.40391(9) 0.86462(7) 0.46405(3)
C69 C 0.6742(4) 0.0977(3) 0.65263(15)
H33 H 0.75263 0.08270 0.64882
H34 H 0.65633 0.15366 0.63519
H35 H 0.63036 0.05141 0.64280
C70 C 0.5982(4) 0.0233(3) 0.72470(14)
H36 H 0.58320 0.03216 0.75553
H37 H 0.52930 0.01177 0.71077
H38 H 0.64983 -0.02693 0.72317
N1 N 0.6484(3) 0.1058(3) 0.70072(12)
H39 H 0.60068 0.15235 0.70282
H40 H 0.71142 0.11679 0.71421
C71 C 0.5939(4) 0.3737(3) -0.03871(15)
H41 H 0.66376 0.40378 -0.04232
H42 H 0.54071 0.40279 -0.05950
H43 H 0.60577 0.31229 -0.04441
C72 C 0.6305(4) 0.4082(3) 0.04141(16)
H44 H 0.70343 0.38327 0.03465
H45 H 0.60978 0.38896 0.07200
H46 H 0.63214 0.47251 0.03717
N2 N 0.5466(3) 0.3771(2) 0.01099(11)
H47 H 0.48609 0.41393 0.01043
H48 H 0.52528 0.32259 0.02195
In1* In 0.00617(2) 0.24288(2) 0.70905(2)
In1** In 0.00617(2) 1.24288(2) 0.70905(2)
In2* In -0.04918(2) 0.27227(2) 1.31731(2)
In2** In -0.04918(2) 1.27227(2) 0.31731(2)
In2*** In 0.95082(2) 0.27227(2) 1.31731(2)
O1* O 0.8179(2) 0.18235(19) 0.29294(9)
O2* O 0.8430(2) 0.3156(2) 0.26035(9)
O3* O 1.0526(3) 0.18865(19) 0.27694(9)
O4* O 1.1012(2) 0.3222(2) 0.26630(9)
O5* O 1.0961(2) 0.16103(18) 0.76248(9)
O6* O 1.1548(2) 0.29240(19) 0.74767(9)
O13* O 0.9863(2) 0.15628(17) 0.36476(9)
O14* O 1.1039(2) 0.26183(18) 0.36302(9)
O15* O 1.0278(2) 0.11628(18) 0.67881(9)
O16* O 1.1359(2) 0.22929(19) 0.65122(9)
#END
