
#######################################################################
#
#                 Cambridge Crystallographic Data Centre
#                                CCDC
#
#######################################################################
#
# If this CIF has been generated from an entry in the Cambridge
# Structural Database, then it will include bibliographic, chemical,
# crystal, experimental, refinement or atomic coordinate data resulting
# from the CCDC's data processing and validation procedures.
#
#######################################################################

data_CSD_CIF_LEPTAE
_audit_creation_date 2017-12-19
_audit_creation_method CSD-ConQuest-V1
_database_code_CSD LEPTAE
_database_code_depnum_ccdc_archive 'CCDC 1560204'
_chemical_formula_sum 'C82 H74 In2 N4 O20 S8'
_chemical_formula_moiety
;
2(C2 H8 N1 1+),n(C68 H32 In2 O16 S8 2-),2(C3 H7 N1 O1),2(C2 H6 O1)
;
_journal_coden_Cambridge 1490
_journal_volume 8
_journal_year 2017
_journal_page_first 2008
_journal_name_full 'Nat.Commun. '
loop_
_publ_author_name
"Jian Su"
"Shuai Yuan"
"Hai-Ying Wang"
"Lan Huang"
"Jing-Yuan Ge"
"E.Joseph"
"Junsheng Qin"
"T.Cagin"
"Jing-Lin Zuo"
"Hong-Cai Zhou"
_chemical_name_systematic
;
catena-[bis(Dimethylammonium) 
bis(\m-2,3,6,7-tetrakis(4-carboxylatophenyl)tetrathiafulvalene)-di-indium(iii)
 N,N-dimethylformamide ethanol solvate]
;
_cell_volume   5702.675
_exptl_crystal_colour 'red'
_exptl_crystal_description 'block'
_diffrn_ambient_temperature 153
_refine_special_details
;
C18,C19,C20,C21,C22,C23 and C18A,C19A,C20A,C21A,C22A,C23A disordered over two 
sites with occupancies 0.508:0.492; C26,C27,C28,C29,C30,C31 and 
C26A,C27A,C28A,C29A,C30A,C31A disordered over two sites with occupancies 
0.547:0.453. Disordered solvent molecules were not modelled and the 
disordered density was taken into account using the SQUEEZE/PLATON procedure.
;
#These two values have been output from a single CSD field.
_refine_ls_R_factor_gt 0.0538
_refine_ls_wR_factor_gt 0.0538
_symmetry_cell_setting triclinic
_symmetry_space_group_name_H-M 'P -1'
_symmetry_Int_Tables_number 2
loop_
_symmetry_equiv_pos_site_id
_symmetry_equiv_pos_as_xyz
1 x,y,z
2 -x,-y,-z
_cell_length_a 12.247(3)
_cell_length_b 15.245(4)
_cell_length_c 30.785(3)
_cell_angle_alpha 83.165(2)
_cell_angle_beta 88.424(3)
_cell_angle_gamma 88.289(2)
_cell_formula_units_Z 2
loop_
_atom_type_symbol
_atom_type_radius_bond
C 0.68
H 0.23
In 1.42
N 0.68
O 0.68
S 1.02
loop_
_atom_site_label
_atom_site_type_symbol
_atom_site_fract_x
_atom_site_fract_y
_atom_site_fract_z
In1 In 0.50542(3) 0.74336(2) 0.20934(2)
O1 O 0.4044(3) 0.7881(3) 0.26427(9)
O2 O 0.3604(3) 0.6613(2) 0.24463(9)
O3 O 0.6479(3) 0.7878(3) 0.24714(12)
O4 O 0.5877(4) 0.6583(3) 0.26388(12)
O5 O 0.6320(3) 0.7342(3) 0.14873(11)
O6 O 0.5287(2) 0.6172(2) 0.17897(8)
O7 O 0.3699(2) 0.7744(2) 0.15929(10)
O8 O 0.4697(2) 0.8814(2) 0.17582(9)
C1 C 0.3492(4) 0.7209(4) 0.27054(12)
C2 C 0.2680(4) 0.7030(4) 0.30779(15)
C3 C 0.2708(4) 0.7490(4) 0.34179(15)
C4 C 0.1936(5) 0.6353(4) 0.30852(14)
C5 C 0.1955(6) 0.7288(5) 0.3789(2)
H1 H 0.32159 0.79485 0.34191
H2 H 0.19052 0.60479 0.28344
C6 C 0.1210(4) 0.6089(4) 0.34529(16)
C7 C 0.1242(4) 0.6620(4) 0.38113(15)
H3 H 0.19649 0.76383 0.40244
H4 H 0.07438 0.56003 0.34584
C8 C 0.0515(4) 0.6432(4) 0.41789(15)
C9 C -0.0619(4) 0.6364(4) 0.41976(12)
S1 S 0.11382(11) 0.61591(11) 0.47015(4)
C10 C -0.1316(4) 0.6598(4) 0.38043(13)
S2 S -0.12675(11) 0.60761(11) 0.46916(4)
C11 C -0.0092(4) 0.6163(4) 0.50159(17)
C12 C -0.1213(6) 0.7380(5) 0.3529(2)
C13 C -0.2137(5) 0.6023(5) 0.37457(18)
C14 C -0.0174(4) 0.6224(4) 0.54393(15)
H5 H -0.06795 0.77958 0.35758
C15 C -0.1922(6) 0.7532(6) 0.3180(2)
C16 C -0.2842(6) 0.6165(5) 0.3414(2)
H6 H -0.22066 0.55044 0.39477
S3 S -0.14074(11) 0.61872(11) 0.57439(4)
S4 S 0.09962(11) 0.62882(11) 0.57582(4)
H7 H -0.18534 0.80611 0.29851
C17 C -0.2721(4) 0.6951(5) 0.3104(2)
H8 H -0.34040 0.57614 0.33848
C18 C -0.0823(5) 0.6620(4) 0.61920(14)
C19 C 0.0241(4) 0.6659(4) 0.61918(13)
C20 C -0.3490(5) 0.7146(5) 0.27095(16)
C21 C -0.1646(5) 0.6868(5) 0.6552(2)
C22 C 0.0951(5) 0.6938(4) 0.65580(15)
C23 C -0.2408(6) 0.6254(4) 0.6723(2)
C24 C -0.1604(5) 0.7678(5) 0.6715(2)
C25 C 0.1690(6) 0.7618(4) 0.64912(15)
C26 C 0.0860(5) 0.6439(4) 0.69651(18)
H9 H -0.24367 0.57004 0.66115
C27 C -0.3126(6) 0.6449(5) 0.7058(2)
C28 C -0.2322(6) 0.7873(4) 0.7050(2)
H10 H -0.10835 0.80977 0.65981
H11 H 0.17512 0.79595 0.62130
C29 C 0.2338(5) 0.7800(4) 0.6831(2)
C30 C 0.1509(5) 0.6620(5) 0.73053(14)
H12 H 0.03555 0.59736 0.70107
H13 H -0.36463 0.60290 0.71749
C31 C -0.3083(6) 0.7259(5) 0.7221(2)
H14 H -0.22931 0.84263 0.71615
H15 H 0.28429 0.82647 0.67858
C32 C 0.2248(5) 0.7300(5) 0.72385(16)
H16 H 0.14472 0.62788 0.75836
C33 C -0.3937(5) 0.7531(5) 0.75334(16)
C34 C 0.2967(4) 0.7405(5) 0.76080(17)
O9 O -0.4401(4) 0.6929(3) 0.77294(16)
O10 O -0.4076(3) 0.8302(3) 0.76297(12)
O11 O 0.3399(3) 0.8200(3) 0.75978(11)
O12 O 0.3168(3) 0.6876(3) 0.79022(11)
In2 In -0.55377(3) 0.77456(2) 0.81540(2)
O13 O 0.6008(3) 0.7653(2) 0.86292(10)
O14 O 0.4817(3) 0.6630(3) 0.86337(10)
O15 O 0.3118(3) 0.7992(2) 0.86593(8)
O16 O 0.4194(2) 0.90644(19) 0.83934(10)
C35 C 0.5691(4) 0.6921(4) 0.87746(13)
C36 C 0.6365(4) 0.6334(3) 0.91022(14)
C37 C 0.7475(4) 0.6409(4) 0.91038(16)
C38 C 0.5853(4) 0.5690(4) 0.93854(15)
C39 C 0.8078(4) 0.5800(3) 0.93791(13)
H17 H 0.78263 0.68674 0.89205
H18 H 0.50788 0.56672 0.93976
C40 C 0.6471(4) 0.5083(4) 0.96496(14)
C41 C 0.7593(3) 0.5131(3) 0.96497(13)
H19 H 0.88500 0.58467 0.93805
H20 H 0.61181 0.46261 0.98336
C42 C 0.8281(3) 0.4462(3) 0.99301(12)
C43 C 0.8300(3) 0.4371(3) 1.03641(12)
S5 S 0.90480(9) 0.36996(7) 0.96394(3)
C44 C 0.7705(3) 0.4909(3) 1.06550(12)
S6 S 0.90660(9) 0.34492(7) 1.06028(3)
C45 C 0.9533(3) 0.3104(3) 1.01005(12)
C46 C 0.7798(3) 0.5842(3) 1.05830(12)
C47 C 0.7082(3) 0.4549(3) 1.10026(13)
C48 C 1.0230(3) 0.2402(3) 1.00956(13)
H21 H 0.82225 0.61107 1.03433
C49 C 0.7266(3) 0.6343(3) 1.08648(11)
C50 C 0.6533(4) 0.5048(3) 1.12798(14)
H22 H 0.70294 0.39240 1.10526
S7 S 1.08055(9) 0.18005(7) 1.05754(3)
S8 S 1.06458(9) 0.19440(7) 0.96118(3)
H23 H 0.73417 0.69660 1.08229
C51 C 0.6611(4) 0.5966(3) 1.12146(12)
H24 H 0.60997 0.47739 1.15156
C52 C 1.1518(3) 0.0994(3) 1.03322(11)
C53 C 1.1457(3) 0.1042(3) 0.98671(13)
C54 C 0.5992(4) 0.6486(3) 1.15028(14)
C55 C 1.2198(4) 0.0352(3) 1.05983(14)
C56 C 1.1981(4) 0.0447(3) 0.95925(14)
C57 C 1.2983(4) 0.0643(3) 1.08457(14)
C58 C 1.1974(4) -0.0535(3) 1.06388(17)
C59 C 1.1495(4) -0.0377(3) 0.95158(18)
C60 C 1.2809(3) 0.0774(3) 0.93044(14)
H25 H 1.31515 0.12519 1.08058
C61 C 1.3552(4) 0.0074(3) 1.11576(16)
C62 C 1.2526(5) -0.1147(3) 1.09611(18)
H26 H 1.14556 -0.07448 1.04546
H27 H 1.08471 -0.05691 0.96710
C63 C 1.1992(4) -0.0888(3) 0.92095(14)
C64 C 1.3277(4) 0.0218(3) 0.89873(15)
H28 H 1.30669 0.13530 0.93137
H29 H 1.40672 0.03009 1.13375
C65 C 1.3351(4) -0.0850(3) 1.12028(14)
H30 H 1.23256 -0.17483 1.10071
H31 H 1.17028 -0.14496 0.91811
C66 C 1.2894(3) -0.0607(3) 0.89444(13)
H32 H 1.38696 0.04348 0.88035
C67 C 1.4001(4) -0.1464(3) 1.15516(12)
C68 C 1.3374(4) -0.1215(3) 0.86447(13)
C69 C 0.7165(5) 0.3999(3) 0.86972(16)
H33 H 0.72517 0.45413 0.88333
H34 H 0.77710 0.35832 0.87798
H35 H 0.64720 0.37305 0.87974
C70 C 0.6602(5) 0.5156(4) 0.8086(2)
H36 H 0.58947 0.52149 0.82381
H37 H 0.64921 0.52026 0.77698
H38 H 0.70783 0.56268 0.81504
N1 N 0.7168(4) 0.4198(4) 0.82515(16)
H39 H 0.68085 0.37709 0.81345
H40 H 0.78710 0.41885 0.81480
C71 C 0.0627(4) 0.8999(3) 0.55322(13)
H41 H 0.12419 0.85718 0.55374
H42 H 0.03401 0.90249 0.58309
H43 H 0.08765 0.95843 0.54100
C72 C -0.0040(5) 0.8491(4) 0.47956(18)
H44 H 0.07536 0.84479 0.47478
H45 H -0.03488 0.89560 0.45833
H46 H -0.03625 0.79251 0.47586
N2 N -0.0284(5) 0.8710(3) 0.52454(15)
H47 H -0.05928 0.82267 0.53969
H48 H -0.08062 0.91486 0.52243
C73? C 0.0902(8) 0.6843(7) 0.6576(3)
C74? C 0.0852(9) 0.7684(7) 0.6709(3)
H49? H 0.03959 0.81321 0.65610
C75? C 0.1469(9) 0.7869(6) 0.7057(3)
H50? H 0.14348 0.84439 0.71478
C76? C 0.2136(8) 0.7214(7) 0.7273(3)
C77? C 0.2187(8) 0.6373(6) 0.7141(3)
H51? H 0.26428 0.59246 0.72883
C78? C 0.1570(9) 0.6187(6) 0.6792(3)
H52? H 0.16039 0.56128 0.67014
C79? C -0.1768(7) 0.6970(6) 0.6528(3)
C80? C -0.1629(7) 0.6628(5) 0.6962(3)
H53? H -0.10451 0.62190 0.70387
C81? C -0.2344(9) 0.6883(7) 0.7285(2)
H54? H -0.22493 0.66494 0.75825
C82? C -0.3199(8) 0.7481(7) 0.7174(2)
C83? C -0.3338(6) 0.7823(6) 0.6739(3)
H55? H -0.39223 0.82317 0.66631
C84? C -0.2623(7) 0.7567(6) 0.6416(2)
H56? H -0.27181 0.78013 0.61193
O3* O -0.3521(3) 0.7878(3) 0.24714(12)
O4* O -0.4123(4) 0.6583(3) 0.26388(12)
In1* In -0.49458(3) 0.74336(2) 0.20934(2)
In2* In 0.44623(3) 0.77456(2) 0.81540(2)
O9* O 0.5599(4) 0.6929(3) 0.77294(16)
O10* O 0.5924(3) 0.8302(3) 0.76297(12)
O5* O 0.6320(3) 0.7342(3) 1.14873(11)
O6* O 0.5287(2) 0.6172(2) 1.17897(8)
In1** In 0.50542(3) 0.74336(2) 1.20934(2)
O7* O 1.3699(2) -0.2256(2) 1.15929(10)
O8* O 1.4697(2) -0.1186(2) 1.17582(9)
O15* O 1.3118(3) -0.2008(2) 0.86593(8)
O16* O 1.4194(2) -0.09356(19) 0.83934(10)
In1*** In 1.50542(3) -0.25664(2) 1.20934(2)
In2** In 1.44623(3) -0.22544(2) 0.81540(2)
#END
