
#######################################################################
#
#                 Cambridge Crystallographic Data Centre
#                                CCDC
#
#######################################################################
#
# If this CIF has been generated from an entry in the Cambridge
# Structural Database, then it will include bibliographic, chemical,
# crystal, experimental, refinement or atomic coordinate data resulting
# from the CCDC's data processing and validation procedures.
#
#######################################################################

data_CSD_CIF_LEPTIM01
_audit_creation_date 2017-12-19
_audit_creation_method CSD-ConQuest-V1
_database_code_CSD LEPTIM01
_database_code_depnum_ccdc_archive 'CCDC 1560235'
_chemical_formula_sum 'C72 H48 In2 N2 O16 S8'
_chemical_formula_moiety
;
2(C2 H8 N1 1+),n(C68 H32 In2 O16 S8 2-)
;
_journal_coden_Cambridge 1490
_journal_volume 8
_journal_year 2017
_journal_page_first 2008
_journal_name_full 'Nat.Commun. '
loop_
_publ_author_name
"Jian Su"
"Shuai Yuan"
"Hai-Ying Wang"
"Lan Huang"
"Jing-Yuan Ge"
"E.Joseph"
"Junsheng Qin"
"T.Cagin"
"Jing-Lin Zuo"
"Hong-Cai Zhou"
_chemical_name_systematic
;
catena-[bis(Dimethylammonium) 
bis(\m-2,3,6,7-tetrakis(4-carboxylatophenyl)tetrathiafulvalene)-di-indium(iii)
 unknown solvate]
;
_cell_volume   5771.453
_exptl_crystal_colour 'red'
_exptl_crystal_density_diffrn 0.969
_exptl_special_details
;
closed-framework

;
_exptl_crystal_description 'block'
_diffrn_ambient_temperature 273
_refine_special_details
;
Disordered solvent molecules were not modelled and the disordered density was 
taken into account using the SQUEEZE/PLATON procedure.
;
#These two values have been output from a single CSD field.
_refine_ls_R_factor_gt 0.09
_refine_ls_wR_factor_gt 0.09
_symmetry_cell_setting triclinic
_symmetry_space_group_name_H-M 'P -1'
_symmetry_Int_Tables_number 2
loop_
_symmetry_equiv_pos_site_id
_symmetry_equiv_pos_as_xyz
1 x,y,z
2 -x,-y,-z
_cell_length_a 14.611(3)
_cell_length_b 14.811(3)
_cell_length_c 30.363(8)
_cell_angle_alpha 93.057(4)
_cell_angle_beta 93.057(4)
_cell_angle_gamma 117.98
_cell_formula_units_Z 2
loop_
_atom_type_symbol
_atom_type_radius_bond
C 0.68
H 0.23
In 1.42
N 0.68
O 0.68
S 1.02
loop_
_atom_site_label
_atom_site_type_symbol
_atom_site_fract_x
_atom_site_fract_y
_atom_site_fract_z
In1 In 0.46886(7) 0.96103(6) 0.30684(3)
O1 O 0.5279(7) 0.8936(6) 0.3615(3)
O2 O 0.3666(8) 0.8133(6) 0.3347(3)
O3 O 0.3094(8) 0.9252(8) 0.2664(3)
O4 O 0.4557(10) 1.0496(8) 0.2492(3)
O5 O 0.5841(8) 1.1219(6) 0.3362(3)
O6 O 0.4745(8) 0.8506(7) 0.2504(3)
O7 O 0.4253(7) 1.0509(6) 0.3600(3)
O8 O 0.6194(8) 0.9884(8) 0.2753(3)
C1 C 0.4299(12) 0.8144(10) 0.3609(4)
C2 C 0.3583(14) 0.9937(13) 0.2421(5)
C3 C 0.4111(11) 0.7299(9) 0.3919(4)
C4 C 0.3011(13) 1.0145(12) 0.2052(4)
C5 C 0.4885(13) 0.7259(10) 0.4179(4)
C6 C 0.3085(11) 0.6521(9) 0.3912(4)
C7 C 0.1924(15) 0.9744(12) 0.2018(5)
C8 C 0.3632(15) 1.0714(13) 0.1737(6)
H1 H 0.55750 0.77490 0.41670
C9 C 0.4624(11) 0.6468(9) 0.4466(4)
H2 H 0.25620 0.65220 0.37250
C10 C 0.2855(12) 0.5718(10) 0.4202(4)
H3 H 0.15170 0.93310 0.22260
C11 C 0.1485(12) 0.9997(10) 0.1656(5)
C12 C 0.3148(15) 1.0959(13) 0.1353(5)
H4 H 0.43450 1.09400 0.17660
H5 H 0.51500 0.64730 0.46550
C13 C 0.3655(11) 0.5716(9) 0.4476(4)
H6 H 0.21740 0.52010 0.42070
C14 C 0.2084(14) 1.0566(12) 0.1326(5)
H7 H 0.07740 0.97830 0.16330
H8 H 0.35440 1.13590 0.11390
C15 C 0.3361(10) 0.4862(9) 0.4790(4)
C16 C 0.1599(13) 1.0857(12) 0.0945(5)
S1 S 0.2742(3) 0.3579(2) 0.4505(1)
C17 C 0.3473(9) 0.4962(8) 0.5215(4)
S2 S 0.1824(4) 1.0440(4) 0.04104(13)
C18 C 0.1033(13) 1.1325(11) 0.0943(5)
C19 C 0.2565(10) 0.2916(10) 0.4995(4)
S3 S 0.2898(3) 0.3774(2) 0.5485(1)
C20 C 0.3806(11) 0.5911(9) 0.5522(4)
C21 C 0.1334(13) 1.1134(12) 0.0120(5)
S4 S 0.0524(4) 1.1494(4) 0.04292(13)
C22 C 0.0746(15) 1.1773(12) 0.1336(5)
C23 C 0.2228(10) 0.1896(9) 0.4995(4)
C24 C 0.3135(12) 0.6045(10) 0.5783(4)
C25 C 0.4835(12) 0.6698(10) 0.5557(4)
C26 C 0.1386(14) 1.1271(13) -0.0304(5)
C27 C -0.0252(16) 1.1654(13) 0.1353(6)
C28 C 0.1599(15) 1.2492(13) 0.1660(6)
S5 S 0.2010(3) 0.1243(2) 0.54823(10)
S6 S 0.1863(3) 0.1053(2) 0.45018(10)
H9 H 0.24540 0.55220 0.57760
C29 C 0.3452(12) 0.6971(10) 0.6067(4)
C30 C 0.5184(12) 0.761(1) 0.5839(4)
H10 H 0.53080 0.66190 0.53870
S7 S 0.2205(5) 1.0923(5) -0.06166(15)
S8 S 0.0911(5) 1.1979(5) -0.05901(15)
H11 H -0.07860 1.12440 0.11370
C31 C -0.0424(15) 1.2197(13) 0.1721(6)
C32 C 0.1313(16) 1.3015(14) 0.2005(6)
H12 H 0.22790 1.26070 0.16460
C33 C 0.1571(10) -0.0035(8) 0.5204(4)
C34 C 0.1485(10) -0.0134(8) 0.4769(4)
C35 C 0.4470(11) 0.7741(10) 0.6092(4)
H13 H 0.29730 0.70500 0.62330
H14 H 0.58760 0.81150 0.58570
C36 C 0.2256(15) 1.1676(13) -0.1053(6)
C37 C 0.1580(14) 1.2093(13) -0.1054(5)
C38 C 0.0382(15) 1.2881(11) 0.2033(5)
H15 H -0.10970 1.20900 0.17530
H16 H 0.18330 1.34700 0.22170
C39 C 0.1367(11) -0.0854(9) 0.5518(4)
C40 C 0.1238(11) -0.1045(9) 0.4457(4)
C41 C 0.4834(12) 0.8738(10) 0.6403(4)
C42 C 0.2747(15) 1.1504(13) -0.1456(6)
C43 C 0.1457(16) 1.2767(13) -0.1394(6)
C44 C 0.0165(17) 1.3507(14) 0.2409(6)
C45 C 0.0458(11) -0.1667(9) 0.5538(4)
C46 C 0.217(1) -0.0746(9) 0.5822(4)
C47 C 0.1886(11) -0.1081(10) 0.4167(4)
C48 C 0.0234(11) -0.1908(9) 0.4422(4)
C49 C 0.3802(14) 1.1999(13) -0.1414(6)
C50 C 0.2209(16) 1.0862(14) -0.1827(6)
C51 C 0.2213(17) 1.3350(15) -0.1661(7)
C52 C 0.0511(17) 1.2724(14) -0.1448(6)
O9 O 0.0931(8) 1.4261(8) 0.2620(3)
O10 O -0.0725(10) 1.3268(8) 0.2431(3)
H17 H -0.00810 -0.17430 0.53370
C53 C 0.0221(12) -0.2429(10) 0.5833(4)
H18 H 0.28270 -0.01830 0.58240
C54 C 0.1986(11) -0.1495(9) 0.6128(4)
H19 H 0.25310 -0.05060 0.41620
C55 C 0.1633(11) -0.1958(9) 0.3868(4)
H20 H -0.02540 -0.19000 0.46040
C56 C -0.0056(10) -0.2768(9) 0.4126(4)
C57 C 0.4368(16) 1.1850(14) -0.1785(6)
H21 H 0.41680 1.24220 -0.11590
C58 C 0.2725(15) 1.0674(13) -0.2163(6)
H22 H 0.14860 1.05470 -0.18550
C59 C 0.2053(16) 1.4015(13) -0.1972(6)
H23 H 0.28390 1.33270 -0.16460
C60 C 0.0276(16) 1.3297(14) -0.1742(6)
H24 H -0.00100 1.22900 -0.12810
In2 In -0.03087(8) 1.45752(6) 0.29818(3)
C61 C 0.1013(11) -0.2347(9) 0.6135(4)
H25 H -0.04480 -0.29750 0.58260
H26 H 0.25290 -0.14130 0.63290
C62 C 0.0686(11) -0.2785(9) 0.3854(4)
H27 H 0.21210 -0.19590 0.36830
H28 H -0.07250 -0.33180 0.41090
C63 C 0.3783(14) 1.1193(12) -0.2131(5)
H29 H 0.50900 1.21970 -0.17750
H30 H 0.23540 1.02030 -0.24040
C64 C 0.1064(13) 1.3912(11) -0.2016(5)
H31 H 0.25860 1.44720 -0.21270
H32 H -0.03690 1.32790 -0.17580
C65 C 0.0812(12) -0.3152(9) 0.6454(4)
C66 C 0.0334(12) -0.3751(9) 0.3522(4)
C67 C 0.4293(15) 1.0910(13) -0.2500(5)
C68 C 0.0862(13) 1.4535(11) -0.2379(4)
O11 O 0.1526(8) -0.3145(6) 0.6700(3)
O12 O -0.0144(7) -0.3837(6) 0.6479(3)
O13 O 0.1020(7) -0.3836(6) 0.3298(3)
O14 O -0.0613(7) -0.4462(6) 0.3494(3)
O15 O 0.1627(9) 1.5232(8) -0.2557(3)
O16 O -0.0088(9) 1.4351(7) -0.2412(3)
N1 N 0.3146(10) 0.7771(10) 0.7383(4)
H33 H 0.34790 0.83370 0.72440
H34 H 0.24970 0.74330 0.72570
C69 C 0.3120(15) 0.8062(14) 0.7835(6)
H35 H 0.28530 0.85440 0.78510
H36 H 0.38110 0.83740 0.79810
H37 H 0.26780 0.74650 0.79780
C70 C 0.3686(14) 0.7085(13) 0.7313(6)
H38 H 0.37140 0.69580 0.70020
H39 H 0.32960 0.64450 0.74380
H40 H 0.43790 0.74320 0.74570
N2 N 0.2393(11) -0.3274(11) 0.2605(4)
H41 H 0.17520 -0.36490 0.26840
H42 H 0.26900 -0.26870 0.27780
C71 C 0.2336(17) -0.3060(15) 0.2153(7)
H43 H 0.19300 -0.36910 0.19710
H44 H 0.30250 -0.27180 0.20580
H45 H 0.20150 -0.26270 0.21270
C72 C 0.3046(13) -0.3876(12) 0.2678(5)
H46 H 0.26860 -0.45420 0.25170
H47 H 0.31230 -0.39530 0.29870
H48 H 0.37200 -0.34970 0.25730
O5A O 0.4159(8) 0.8781(6) 0.6638(3)
O7A O 0.5747(7) 0.9491(6) 0.6400(3)
In1A In 0.53114(7) 1.03897(6) 0.69316(3)
O6A O 0.5255(8) 1.1494(7) -0.2504(3)
O8A O 0.3806(8) 1.0116(8) -0.2753(3)
In2A In 0.03087(8) -0.45752(6) 0.70182(3)
In2* In -0.03087(8) -0.54248(6) 0.29818(3)
In1A* In 0.53114(7) 1.03897(6) -0.30684(3)
In2A* In 0.03087(8) 1.54248(6) -0.29818(3)
O13A O -0.1020(7) -0.6164(6) 0.6702(3)
O9A O -0.0931(8) -0.4261(8) 0.7380(3)
O14A O 0.0613(7) -0.5538(6) 0.6506(3)
O10A O 0.0725(10) -0.3268(8) 0.7569(3)
O15* O 0.1627(9) -0.4768(8) 0.7443(3)
O16* O -0.0088(9) -0.5649(7) 0.7588(3)
#END
