
#######################################################################
#
#                 Cambridge Crystallographic Data Centre
#                                CCDC
#
#######################################################################
#
# If this CIF has been generated from an entry in the Cambridge
# Structural Database, then it will include bibliographic, chemical,
# crystal, experimental, refinement or atomic coordinate data resulting
# from the CCDC's data processing and validation procedures.
#
#######################################################################

data_CSD_CIF_LEQKEA
_audit_creation_date 2017-12-19
_audit_creation_method CSD-ConQuest-V1
_database_code_CSD LEQKEA
_database_code_depnum_ccdc_archive 'CCDC 1551023'
_chemical_formula_sum 'C24 H56 K2 Mg1 O34 V2'
_chemical_formula_moiety
;
Mg1 2+,2(C12 H20 K1 O13 V1 1-)n,8(H2 O1)
;
_journal_coden_Cambridge 367
_journal_volume 43
_journal_year 2017
_journal_page_first 709
_journal_name_full 'Koord.Khim.(Russ.)(Coord.Chem.) '
loop_
_publ_author_name
"E.S.Bazhina"
"G.G.Aleksandrov"
"M.A.Kiskin"
"A.A.Sidorov"
"I.L.Eremenko"
_chemical_name_systematic
;
catena-[magnesium(ii) 
bis(bis(\m-cyclobutane-1,1-dicarboxylato)-(\m-aqua)-triaqua-oxo-potassium-vana
dium(iv)) octahydrate]
;
_cell_volume   4352.891
_exptl_crystal_colour 'blue'
_exptl_crystal_density_diffrn 1.668
_exptl_crystal_description 'block'
_diffrn_ambient_temperature 173
_refine_special_details
;
Mg1 disordered by symmetry over two configurations with occupancy 0.50.

;
#These two values have been output from a single CSD field.
_refine_ls_R_factor_gt 0.0608
_refine_ls_wR_factor_gt 0.0608
_symmetry_cell_setting monoclinic
_symmetry_space_group_name_H-M 'C 2/c'
_symmetry_Int_Tables_number 15
loop_
_symmetry_equiv_pos_site_id
_symmetry_equiv_pos_as_xyz
1 x,y,z
2 -x,y,1/2-z
3 1/2+x,1/2+y,z
4 1/2-x,1/2+y,1/2-z
5 -x,-y,-z
6 x,-y,-1/2+z
7 -1/2-x,-1/2-y,-z
8 -1/2+x,-1/2-y,-1/2+z
_cell_length_a 24.831(3)
_cell_length_b 10.1266(12)
_cell_length_c 18.068(2)
_cell_angle_alpha 90
_cell_angle_beta 106.645(2)
_cell_angle_gamma 90
_cell_formula_units_Z 4
loop_
_atom_type_symbol
_atom_type_radius_bond
C 0.68
H 0.23
K 2.03
Mg 1.41
O 0.68
V 1.53
loop_
_atom_site_label
_atom_site_type_symbol
_atom_site_fract_x
_atom_site_fract_y
_atom_site_fract_z
V1 V 1.22007(2) 1.39505(5) 0.12774(3)
O1 O 1.19701(11) 1.4030(3) 0.03599(15)
O2 O 1.20569(9) 1.2058(2) 0.14860(14)
O3 O 1.15672(10) 1.0332(2) 0.16703(16)
O4 O 1.14816(10) 1.4390(2) 0.15361(15)
O5 O 1.07258(12) 1.3884(3) 0.18778(18)
O6 O 1.2452(1) 1.5829(2) 0.14986(14)
O7 O 1.29906(11) 1.7574(2) 0.15404(16)
O8 O 1.30015(10) 1.3476(2) 0.14099(15)
O9 O 1.39044(11) 1.3915(3) 0.1649(2)
O10 O 1.25206(12) 1.3927(3) 0.25868(15)
H1 H 1.2789(14) 1.439(4) 0.283(2)
H2 H 1.2354(17) 1.347(4) 0.283(2)
C1 C 1.15899(13) 1.1490(3) 0.14601(18)
C2 C 1.10505(13) 1.2275(3) 0.11354(19)
C3 C 1.10841(13) 1.3595(3) 0.15560(19)
C4 C 1.09126(16) 1.2363(4) 0.0235(2)
H3 H 1.07320 1.32020 0.00150
H4 H 1.12350 1.21530 0.00360
C5 C 1.04993(18) 1.1214(4) 0.0175(2)
H5 H 1.01290 1.13620 -0.02070
H6 H 1.06560 1.03440 0.00960
C6 C 1.05021(14) 1.1472(3) 0.1013(2)
H7 H 1.05470 1.06630 0.13330
H8 H 1.01790 1.20040 0.10600
C7 C 1.28843(13) 1.6398(3) 0.13850(18)
C8 C 1.32641(13) 1.5603(3) 0.10211(19)
C9 C 1.34029(14) 1.4247(3) 0.1391(2)
C10 C 1.29889(17) 1.5581(4) 0.0118(2)
H9 H 1.30380 1.47340 -0.01280
H10 H 1.25910 1.58670 -0.00450
C11 C 1.3404(2) 1.6658(5) 0.0043(3)
H11 H 1.32370 1.75540 -0.00390
H12 H 1.36040 1.64560 -0.03450
C12 C 1.37561(16) 1.6394(4) 0.0880(2)
H13 H 1.38510 1.72030 0.11980
H14 H 1.40960 1.58570 0.09200
K1 K 1.18495(4) 1.64383(8) 0.25728(5)
O11 O 1.15787(16) 1.4982(3) 0.38143(18)
H15 H 1.1763(19) 1.540(4) 0.4198(14)
H16 H 1.170(2) 1.424(2) 0.375(2)
O12 O 1.09277(16) 1.8091(4) 0.1659(2)
H17 H 1.0881(19) 1.773(4) 0.1235(13)
H18 H 1.113(2) 1.876(4) 0.175(3)
O13 O 1.0792(3) 1.6093(5) 0.2714(3)
H19 H 1.096(3) 1.591(7) 0.3181(17)
H20 H 1.056(3) 1.552(6) 0.247(4)
Mg1 Mg 1.04444(9) 1.7959(2) 0.25290(13)
O14 O 1.01650(18) 1.7332(5) 0.3359(2)
H21 H 1.021(3) 1.8120(17) 0.347(3)
H22 H 1.019(3) 1.675(4) 0.369(3)
O15 O 1.00000 1.9660(4) 0.25000
H23 H 1.00000 2.0475(11) 0.25000
O16 O 1.00000 1.2376(5) 0.25000
H24 H 1.022(2) 1.285(5) 0.235(4)
O17 O 0.9283(3) 1.3753(6) -0.0439(4)
H25 H 0.932(4) 1.39(1) 0.0029(17)
H26 H 0.959(2) 1.358(11) -0.053(5)
O18 O 0.9625(6) 1.4773(9) 0.1003(6)
H27 H 0.993(4) 1.523(16) 0.091(12)
H28 H 0.971(7) 1.420(13) 0.139(8)
O2C O 1.29431(9) 1.7058(2) 0.35140(14)
O8C O 1.19985(10) 1.8476(2) 0.35901(15)
O10C O 1.24794(12) 1.8927(3) 0.24132(15)
K1C K 1.31505(4) 1.14383(8) 0.24272(5)
H24A H 0.978(2) 1.285(5) 0.265(4)
#END
