
#######################################################################
#
#                 Cambridge Crystallographic Data Centre
#                                CCDC
#
#######################################################################
#
# If this CIF has been generated from an entry in the Cambridge
# Structural Database, then it will include bibliographic, chemical,
# crystal, experimental, refinement or atomic coordinate data resulting
# from the CCDC's data processing and validation procedures.
#
#######################################################################

data_CSD_CIF_LEXDUQ
_audit_creation_date 2018-05-10
_audit_creation_method CSD-ConQuest-V1
_database_code_CSD LEXDUQ
_database_code_depnum_ccdc_archive 'CCDC 1812113'
_chemical_formula_sum 'C80 H58 Ag3 K1 N8 O41 Si1 W12'
_chemical_formula_moiety
;
(C80 H56 Ag3 K1 N8 4+)n,H2 O1,O40 Si1 W12 4-
;
_journal_coden_Cambridge 1350
_journal_volume 20
_journal_year 2018
_journal_page_first 2940
_journal_name_full 'CrystEngComm '
loop_
_publ_author_name
"Aixiang Tian"
"Jiani Liu"
"Tingting Li"
"Yan Tian"
"Guiying Liu"
"Jun Ying"
_chemical_name_systematic
;
catena-[tetrakis(\m-2,3-diphenylquinoxaline)-potassium-tri-silver(i) 
(\m-silicato)-tetracosakis(\m-oxo)-dodecaoxo-dodeca-tungsten monohydrate]
;
_cell_volume   9650.065
_exptl_crystal_colour 'colorless'
_exptl_crystal_density_diffrn 3.018
_exptl_crystal_description 'block'
_diffrn_ambient_temperature 293
_refine_special_details
;
The structure is disordered.

;
#These two values have been output from a single CSD field.
_refine_ls_R_factor_gt 0.0481
_refine_ls_wR_factor_gt 0.0481
_symmetry_cell_setting monoclinic
_symmetry_space_group_name_H-M 'C 2/c'
_symmetry_Int_Tables_number 15
loop_
_symmetry_equiv_pos_site_id
_symmetry_equiv_pos_as_xyz
1 x,y,z
2 -x,y,1/2-z
3 1/2+x,1/2+y,z
4 1/2-x,1/2+y,1/2-z
5 -x,-y,-z
6 x,-y,-1/2+z
7 -1/2-x,-1/2-y,-z
8 -1/2+x,-1/2-y,-1/2+z
_cell_length_a 22.9979(8)
_cell_length_b 17.8971(8)
_cell_length_c 24.9795(9)
_cell_angle_alpha 90
_cell_angle_beta 110.184(1)
_cell_angle_gamma 90
_cell_formula_units_Z 4
loop_
_atom_type_symbol
_atom_type_radius_bond
C 0.68
H 0.23
Ag 1.45
K 2.03
N 0.68
O 0.68
Si 1.20
W 1.62
loop_
_atom_site_label
_atom_site_type_symbol
_atom_site_fract_x
_atom_site_fract_y
_atom_site_fract_z
Ag1 Ag 0.73591(4) 0.38743(7) 0.26362(4)
N1 N 0.6476(4) 0.4570(6) 0.2483(4)
C1 C 0.6324(5) 0.5196(7) 0.2174(5)
Ag2 Ag 1.00000 0.50000 0.50000
N2 N 0.5684(5) 0.5613(6) 0.2684(4)
C2 C 0.5943(6) 0.5748(7) 0.2278(5)
N3 N 0.8251(4) 0.3996(5) 0.3373(4)
C3 C 0.5792(8) 0.6421(9) 0.1950(6)
H1 H 0.55620 0.67950 0.20400
N4 N 0.9254(4) 0.4529(5) 0.4288(4)
C4 C 0.5990(8) 0.6496(10) 0.1513(8)
H2 H 0.58870 0.69230 0.12870
C5 C 0.6362(8) 0.5927(10) 0.1386(6)
H3 H 0.64900 0.59870 0.10740
C6 C 0.6527(6) 0.5315(9) 0.1705(6)
H4 H 0.67790 0.49620 0.16190
C7 C 0.5791(5) 0.4981(6) 0.2966(5)
C8 C 0.6228(5) 0.4467(7) 0.2889(5)
C9 C 0.5460(5) 0.4819(6) 0.3365(5)
C10 C 0.5461(6) 0.5326(7) 0.3774(5)
H5 H 0.56760 0.57730 0.38030
C11 C 0.5145(6) 0.5185(9) 0.4148(6)
H6 H 0.51510 0.55340 0.44260
C12 C 0.4821(7) 0.4524(9) 0.4106(6)
H7 H 0.46060 0.44240 0.43530
C13 C 0.4822(6) 0.4022(8) 0.3695(6)
H8 H 0.45990 0.35800 0.36590
C14 C 0.5143(6) 0.4154(7) 0.3337(6)
H9 H 0.51500 0.37930 0.30710
C15 C 0.6404(6) 0.3777(7) 0.3236(6)
C16 C 0.6638(6) 0.3807(8) 0.3817(6)
H10 H 0.67160 0.42660 0.40020
C17 C 0.6761(7) 0.3153(11) 0.4130(8)
H11 H 0.69370 0.31760 0.45250
C18 C 0.6627(9) 0.2477(11) 0.3868(11)
H12 H 0.66910 0.20390 0.40810
C19 C 0.6398(8) 0.2454(9) 0.3285(11)
H13 H 0.63090 0.19950 0.31000
C20 C 0.6297(6) 0.3091(8) 0.2974(8)
H14 H 0.61540 0.30630 0.25780
C21 C 0.8449(5) 0.3620(6) 0.3879(5)
C22 C 0.8143(6) 0.2957(7) 0.3935(6)
H15 H 0.77960 0.27870 0.36400
C23 C 0.8375(6) 0.2567(7) 0.4442(6)
H16 H 0.81870 0.21210 0.44840
C24 C 0.8880(7) 0.2825(8) 0.4887(6)
H17 H 0.90320 0.25480 0.52220
C25 C 0.9153(6) 0.3475(8) 0.4839(5)
H18 H 0.94840 0.36510 0.51470
C26 C 0.8948(5) 0.3889(6) 0.4335(5)
C27 C 0.8559(5) 0.4594(6) 0.3314(4)
C28 C 0.9079(4) 0.4873(6) 0.3793(4)
C29 C 0.8375(5) 0.4961(7) 0.2757(5)
C30 C 0.8133(6) 0.5656(8) 0.2666(5)
H19 H 0.80870 0.59250 0.29680
C31 C 0.7952(7) 0.5976(9) 0.2122(6)
H20 H 0.77710 0.64470 0.20590
C32 C 0.8042(8) 0.5590(11) 0.1677(6)
H21 H 0.79390 0.58060 0.13180
C33 C 0.8284(8) 0.4884(11) 0.1777(6)
H22 H 0.83490 0.46190 0.14820
C34 C 0.8433(7) 0.4562(8) 0.2307(6)
H23 H 0.85740 0.40710 0.23630
C35 C 0.9412(5) 0.5545(6) 0.3711(4)
C36 C 0.9829(6) 0.5495(8) 0.3420(6)
H24 H 0.99100 0.50360 0.32860
C37 C 1.0119(7) 0.6126(10) 0.3333(7)
H25 H 1.03930 0.60900 0.31340
C38 C 1.0016(6) 0.6814(8) 0.3531(5)
H26 H 1.02140 0.72400 0.34660
C39 C 0.9614(6) 0.6855(7) 0.3828(6)
H27 H 0.95400 0.73120 0.39690
C40 C 0.9319(6) 0.6221(7) 0.3919(5)
H28 H 0.90530 0.62570 0.41250
K1 K 0.50000 0.6527(2) 0.25000
W1 W 0.26155(2) 0.60875(3) 0.10144(2)
Si1 Si 0.25000 0.75000 0.00000
O1 O 0.4290(4) 0.7560(5) 0.1956(4)
W2 W 0.21798(2) 0.79126(3) 0.12460(2)
O2 O 0.1283(4) 0.8836(6) -0.0035(4)
W3 W 0.20529(2) 0.93275(3) 0.02285(2)
O3 O 0.0244(3) 0.8026(5) -0.0111(3)
O4 O 0.4118(7) 0.7145(5) 0.0859(5)
W4 W 0.37138(2) 0.75480(3) 0.13294(2)
O5 O 0.2342(6) 0.7691(7) -0.0651(5)
W5 W 0.14068(2) 0.60359(3) -0.03133(2)
W6 W 0.09623(2) 0.78548(3) -0.00794(2)
O6 O 0.0779(8) 0.6743(10) -0.0198(6)
O7 O 0.1829(4) 0.5879(7) 0.0474(4)
O8 O 0.2073(4) 0.5578(7) -0.0452(4)
O9 O 0.1855(5) 1.0192(5) 0.0338(3)
O10 O 0.2026(4) 0.8113(5) 0.1841(4)
O11 O 0.0889(4) 0.5332(5) -0.0453(3)
O12 O 0.2673(4) 0.5417(6) 0.1497(4)
O13 O 0.1371(4) 0.7802(6) 0.0724(4)
O14 O 0.2436(6) 0.6627(7) 0.0124(5)
O15 O 0.3059(4) 0.7940(5) 0.1522(5)
O16 O 0.3254(6) 0.7727(8) 0.0352(6)
O17 O 0.3386(4) 0.6592(5) 0.1353(5)
O18 O 0.2250(4) 0.6862(5) 0.1295(4)
O19 O 0.2242(8) 0.8769(10) 0.0861(7)
O20 O 0.2105(6) 0.7998(7) 0.0303(5)
O21 O 0.2969(4) 0.5612(7) 0.0533(4)
O22 O 0.3806(7) 0.8501(6) 0.1032(5)
O23 O 0.9615(10) 0.3420(14) 0.3282(13)
O24? O 0.6135(7) 0.1869(10) -0.0020(7)
O25? O 0.7133(8) 0.3989(10) 0.1043(7)
Ag1A Ag 0.26409(4) 0.38743(7) 0.23638(4)
N1A N 0.3524(4) 0.4570(6) 0.2517(4)
C1A C 0.3676(5) 0.5196(7) 0.2826(5)
N2A N 0.4316(5) 0.5613(6) 0.2316(4)
C2A C 0.4057(6) 0.5748(7) 0.2722(5)
N3A N 0.1749(4) 0.3996(5) 0.1627(4)
C3A C 0.4208(8) 0.6421(9) 0.3050(6)
H1A H 0.44380 0.67950 0.29600
N4A N 0.0746(4) 0.4529(5) 0.0712(4)
C4A C 0.4010(8) 0.6496(10) 0.3487(8)
H2A H 0.41130 0.69230 0.37130
C5A C 0.3638(8) 0.5927(10) 0.3614(6)
H3A H 0.35100 0.59870 0.39260
C6A C 0.3473(6) 0.5315(9) 0.3295(6)
H4A H 0.32210 0.49620 0.33810
C7A C 0.4209(5) 0.4981(6) 0.2034(5)
C8A C 0.3772(5) 0.4467(7) 0.2111(5)
C9A C 0.4540(5) 0.4819(6) 0.1635(5)
C10A C 0.4539(6) 0.5326(7) 0.1226(5)
H5A H 0.43240 0.57730 0.11970
C11A C 0.4855(6) 0.5185(9) 0.0852(6)
H6A H 0.48490 0.55340 0.05740
C12A C 0.5179(7) 0.4524(9) 0.0894(6)
H7A H 0.53940 0.44240 0.06470
C13A C 0.5178(6) 0.4022(8) 0.1305(6)
H8A H 0.54010 0.35800 0.13410
C14A C 0.4857(6) 0.4154(7) 0.1663(6)
H9A H 0.48500 0.37930 0.19290
C15A C 0.3596(6) 0.3777(7) 0.1764(6)
C16A C 0.3362(6) 0.3807(8) 0.1183(6)
H10A H 0.32840 0.42660 0.09980
C17A C 0.3239(7) 0.3153(11) 0.0870(8)
H11A H 0.30630 0.31760 0.04750
C18A C 0.3373(9) 0.2477(11) 0.1132(11)
H12A H 0.33090 0.20390 0.09190
C19A C 0.3602(8) 0.2454(9) 0.1715(11)
H13A H 0.36910 0.19950 0.19000
C20A C 0.3703(6) 0.3091(8) 0.2026(8)
H14A H 0.38460 0.30630 0.24220
C21A C 0.1551(5) 0.3620(6) 0.1121(5)
C22A C 0.1857(6) 0.2957(7) 0.1065(6)
H15A H 0.22040 0.27870 0.13600
C23A C 0.1625(6) 0.2567(7) 0.0558(6)
H16A H 0.18130 0.21210 0.05160
C24A C 0.1120(7) 0.2825(8) 0.0113(6)
H17A H 0.09680 0.25480 -0.02220
C25A C 0.0847(6) 0.3475(8) 0.0161(5)
H18A H 0.05160 0.36510 -0.01470
C26A C 0.1052(5) 0.3889(6) 0.0665(5)
C27A C 0.1441(5) 0.4594(6) 0.1686(4)
C28A C 0.0921(4) 0.4873(6) 0.1207(4)
C29A C 0.1625(5) 0.4961(7) 0.2243(5)
C30A C 0.1867(6) 0.5656(8) 0.2334(5)
H19A H 0.19130 0.59250 0.20320
C31A C 0.2048(7) 0.5976(9) 0.2878(6)
H20A H 0.22290 0.64470 0.29410
C32A C 0.1958(8) 0.5590(11) 0.3323(6)
H21A H 0.20610 0.58060 0.36820
C33A C 0.1716(8) 0.4884(11) 0.3223(6)
H22A H 0.16510 0.46190 0.35180
C34A C 0.1567(7) 0.4562(8) 0.2693(6)
H23A H 0.14260 0.40710 0.26370
C35A C 0.0588(5) 0.5545(6) 0.1289(4)
C36A C 0.0171(6) 0.5495(8) 0.1580(6)
H24A H 0.00900 0.50360 0.17140
C37A C -0.0119(7) 0.6126(10) 0.1667(7)
H25A H -0.03930 0.60900 0.18660
C38A C -0.0016(6) 0.6814(8) 0.1469(5)
H26A H -0.02140 0.72400 0.15340
C39A C 0.0386(6) 0.6855(7) 0.1172(6)
H27A H 0.04600 0.73120 0.10310
C40A C 0.0681(6) 0.6221(7) 0.1081(5)
H28A H 0.09470 0.62570 0.08750
Ag2A Ag 0.00000 0.50000 0.00000
N4D N 1.0746(4) 0.5471(5) 0.5712(4)
O5F O 0.2658(6) 0.7309(7) 0.0651(5)
O14F O 0.2564(6) 0.8373(7) -0.0124(5)
O16F O 0.1746(6) 0.7273(8) -0.0352(6)
O20F O 0.2895(6) 0.7002(7) -0.0303(5)
W1F W 0.23845(2) 0.89125(3) -0.10144(2)
O1F O 0.0710(4) 0.7440(5) -0.1956(4)
W2F W 0.28202(2) 0.70874(3) -0.12460(2)
O2F O 0.3717(4) 0.6164(6) 0.0035(4)
W3F W 0.29471(2) 0.56725(3) -0.02285(2)
O3F O 0.4756(3) 0.6974(5) 0.0111(3)
O4F O 0.0882(7) 0.7855(5) -0.0859(5)
W4F W 0.12862(2) 0.74520(3) -0.13294(2)
W5F W 0.35932(2) 0.89641(3) 0.03133(2)
W6F W 0.40377(2) 0.71452(3) 0.00794(2)
O6F O 0.4221(8) 0.8257(10) 0.0198(6)
O7F O 0.3171(4) 0.9121(7) -0.0474(4)
O8F O 0.2927(4) 0.9422(7) 0.0452(4)
O9F O 0.3145(5) 0.4808(5) -0.0338(3)
O10F O 0.2974(4) 0.6887(5) -0.1841(4)
O11F O 0.4111(4) 0.9668(5) 0.0453(3)
O12F O 0.2327(4) 0.9583(6) -0.1497(4)
O13F O 0.3629(4) 0.7198(6) -0.0724(4)
O15F O 0.1941(4) 0.7060(5) -0.1522(5)
O17F O 0.1614(4) 0.8408(5) -0.1353(5)
O18F O 0.2750(4) 0.8138(5) -0.1295(4)
O19F O 0.2758(8) 0.6231(10) -0.0861(7)
O21F O 0.2031(4) 0.9388(7) -0.0533(4)
O22F O 0.1194(7) 0.6499(6) -0.1032(5)
#END
