
#######################################################################
#
#                 Cambridge Crystallographic Data Centre
#                                CCDC
#
#######################################################################
#
# If this CIF has been generated from an entry in the Cambridge
# Structural Database, then it will include bibliographic, chemical,
# crystal, experimental, refinement or atomic coordinate data resulting
# from the CCDC's data processing and validation procedures.
#
#######################################################################

data_CSD_CIF_LEXDOK
_audit_creation_date 2018-05-10
_audit_creation_method CSD-ConQuest-V1
_database_code_CSD LEXDOK
_database_code_depnum_ccdc_archive 'CCDC 1552010'
_chemical_formula_sum 'C80 H56 Ag4 N8 O40 Si1 W12'
_chemical_formula_moiety
;
(C80 H56 Ag4 N8 4+)n,O40 Si1 W12 4-
;
_journal_coden_Cambridge 1350
_journal_volume 20
_journal_year 2018
_journal_page_first 2940
_journal_name_full 'CrystEngComm '
loop_
_publ_author_name
"Aixiang Tian"
"Jiani Liu"
"Tingting Li"
"Yan Tian"
"Guiying Liu"
"Jun Ying"
_chemical_name_systematic
;
catena-[tetrakis(\m-2,3-diphenylquinoxaline)-tetra-silver(i) 
(\m-silicato)-tetracosakis(\m-oxo)-dodecaoxo-dodeca-tungsten]
;
_cell_volume   9771.669
_exptl_crystal_colour 'colorless'
_exptl_crystal_density_diffrn 3.015
_exptl_crystal_description 'block'
_diffrn_ambient_temperature 293
_refine_special_details
;
The structure is disordered.

;
#These two values have been output from a single CSD field.
_refine_ls_R_factor_gt 0.0569
_refine_ls_wR_factor_gt 0.0569
_symmetry_cell_setting monoclinic
_symmetry_space_group_name_H-M 'C 2/c'
_symmetry_Int_Tables_number 15
loop_
_symmetry_equiv_pos_site_id
_symmetry_equiv_pos_as_xyz
1 x,y,z
2 -x,y,1/2-z
3 1/2+x,1/2+y,z
4 1/2-x,1/2+y,1/2-z
5 -x,-y,-z
6 x,-y,-1/2+z
7 -1/2-x,-1/2-y,-z
8 -1/2+x,-1/2-y,-1/2+z
_cell_length_a 23.383(3)
_cell_length_b 17.739(2)
_cell_length_c 25.264(3)
_cell_angle_alpha 90
_cell_angle_beta 111.176(2)
_cell_angle_gamma 90
_cell_formula_units_Z 4
loop_
_atom_type_symbol
_atom_type_radius_bond
C 0.68
H 0.23
Ag 1.45
N 0.68
O 0.68
Si 1.20
W 1.62
loop_
_atom_site_label
_atom_site_type_symbol
_atom_site_fract_x
_atom_site_fract_y
_atom_site_fract_z
W1 W 0.73877(3) 0.10738(5) 0.39947(3)
Si1 Si 0.75000 0.25000 0.50000
O1 O 0.7887(11) 0.3019(16) 0.4707(10)
O2 O 0.7659(9) 0.2665(12) 0.5653(8)
W2 W 0.77815(3) 0.29265(5) 0.37588(3)
O3 O 0.7576(9) 0.1637(12) 0.4883(8)
O4 O 0.6747(10) 0.2703(13) 0.4655(9)
W3 W 0.70880(4) 0.06491(5) 0.52297(3)
O5 O 0.7044(6) 0.0583(10) 0.4463(5)
W4 W 0.86014(4) 0.10415(5) 0.53176(3)
O6 O 0.6320(7) 0.1144(9) 0.4971(6)
W5 W 0.62768(4) 0.25240(5) 0.36815(3)
O7 O 0.6909(6) 0.2947(8) 0.3496(8)
W6 W 0.59924(4) 0.21134(5) 0.49280(4)
O8 O 0.7737(6) 0.1876(8) 0.3715(7)
O9 O 0.8809(10) 0.1496(9) 0.6039(6)
O10 O 0.5688(6) 0.2517(8) 0.3057(5)
O11 O 0.7965(6) 0.0566(10) 0.5459(6)
O12 O 0.6620(6) 0.1585(8) 0.3670(7)
O13 O 0.7769(6) 0.3897(9) 0.4046(6)
O14 O 0.9007(10) 0.1835(10) 0.5105(6)
O15 O 0.5292(5) 0.1916(8) 0.4902(5)
O16 O 0.8598(7) 0.2822(10) 0.4278(7)
O17 O 0.8170(6) 0.0871(10) 0.4523(5)
O18 O 0.5892(9) 0.2114(10) 0.4145(7)
O19 O 0.9124(6) 0.0339(9) 0.5455(5)
O20 O 0.6907(7) -0.0235(8) 0.5336(5)
O21 O 0.7917(8) 0.3131(8) 0.3159(5)
O22 O 0.7323(6) 0.0397(8) 0.3519(6)
N1 N 0.6742(7) 0.3966(10) 0.1604(7)
C1 C 0.6542(10) 0.3608(11) 0.1098(8)
Ag1 Ag 0.76244(7) 0.38029(10) 0.23347(6)
C2 C 0.6855(10) 0.2933(11) 0.1042(9)
H1 H 0.72010 0.27500 0.13310
N2 N 0.5751(7) 0.4516(9) 0.0687(6)
Ag2 Ag 0.50000 0.50000 0.00000
C3 C 0.6591(10) 0.2568(12) 0.0506(10)
H2 H 0.67690 0.21220 0.04490
C4 C 0.6119(10) 0.2823(14) 0.0096(9)
H3 H 0.59700 0.25490 -0.02400
C5 C 0.5826(10) 0.3485(13) 0.0135(9)
H4 H 0.54950 0.36650 -0.01700
C6 C 0.6048(9) 0.3877(13) 0.0653(9)
C7 C 0.5939(7) 0.4861(11) 0.1179(7)
C8 C 0.6442(8) 0.4550(11) 0.1660(7)
C9 C 0.5612(8) 0.5519(11) 0.1268(7)
C10 C 0.5193(10) 0.5470(13) 0.1542(10)
H5 H 0.51030 0.50070 0.16670
C11 C 0.4915(10) 0.6120(13) 0.1624(9)
H6 H 0.46250 0.60800 0.17960
C12 C 0.5042(9) 0.6837(12) 0.1464(8)
H7 H 0.48660 0.72680 0.15480
C13 C 0.5431(10) 0.6874(12) 0.1182(9)
H8 H 0.55170 0.73380 0.10560
C14 C 0.5699(10) 0.6243(12) 0.1079(9)
H9 H 0.59550 0.62890 0.08720
C15 C 0.6627(8) 0.4932(13) 0.2231(8)
C16 C 0.6545(10) 0.4519(12) 0.2654(8)
H10 H 0.63990 0.40270 0.25860
C17 C 0.6681(13) 0.4837(17) 0.318(1)
H11 H 0.65980 0.45740 0.34630
C18 C 0.6941(12) 0.5547(17) 0.3294(9)
H12 H 0.70400 0.57620 0.36520
C19 C 0.7048(11) 0.5920(14) 0.2872(10)
H13 H 0.72500 0.63820 0.29480
C20 C 0.6861(9) 0.5623(12) 0.2331(8)
H14 H 0.68990 0.59070 0.20360
Ag3 Ag 1.00000 0.65119(13) 0.25000
N3 N 0.8476(7) 0.4472(9) 0.2490(7)
N4 N 0.9247(7) 0.5601(9) 0.2334(6)
C21 C 0.8624(8) 0.5113(12) 0.2829(8)
C22 C 0.8429(9) 0.5187(13) 0.3305(10)
H15 H 0.82150 0.47900 0.33870
C23 C 0.8538(12) 0.5785(12) 0.3625(10)
H16 H 0.84030 0.58060 0.39290
C24 C 0.8853(12) 0.6389(14) 0.3517(11)
H17 H 0.89140 0.68210 0.37390
C25 C 0.9084(11) 0.6357(14) 0.3072(10)
H18 H 0.92940 0.67650 0.29990
C26 C 0.8992(9) 0.5693(11) 0.2739(8)
C27 C 0.9168(9) 0.4972(11) 0.2053(8)
C28 C 0.8745(9) 0.4422(11) 0.2113(8)
C29 C 0.9496(7) 0.4838(11) 0.1657(7)
C30 C 0.9825(9) 0.4174(10) 0.1707(9)
H19 H 0.98200 0.38200 0.19770
C31 C 1.0162(10) 0.4024(14) 0.1364(10)
H20 H 1.04000 0.35920 0.14150
C32 C 1.0127(11) 0.4558(14) 0.0934(9)
H21 H 1.03070 0.44600 0.06680
C33 C 0.9826(10) 0.5208(13) 0.0924(9)
H22 H 0.98400 0.55800 0.06690
C34 C 0.9497(8) 0.5354(11) 0.1272(7)
H23 H 0.92810 0.58020 0.12380
C35 C 0.8597(9) 0.3746(11) 0.1763(9)
C36 C 0.8697(9) 0.3020(14) 0.2021(12)
H24 H 0.88270 0.29600 0.24130
C37 C 0.8588(15) 0.2406(16) 0.1655(17)
H25 H 0.86920 0.19330 0.18210
C38 C 0.8350(14) 0.2429(19) 0.110(2)
H26 H 0.82740 0.19930 0.08770
C39 C 0.8220(11) 0.3144(17) 0.0849(12)
H27 H 0.80340 0.31770 0.04560
C40 C 0.8355(8) 0.3821(14) 0.1165(9)
H28 H 0.82880 0.42910 0.09900
O1F O 0.7113(11) 0.1981(16) 0.5293(10)
O2F O 0.7341(9) 0.2335(12) 0.4347(8)
O3F O 0.7424(9) 0.3363(12) 0.5117(8)
O4F O 0.8253(10) 0.2297(13) 0.5345(9)
W1F W 0.76123(3) 0.39262(5) 0.60053(3)
W2F W 0.72185(3) 0.20735(5) 0.62412(3)
W3F W 0.79120(4) 0.43509(5) 0.47703(3)
O5F O 0.7956(6) 0.4417(10) 0.5537(5)
W4F W 0.63986(4) 0.39585(5) 0.46824(3)
O6F O 0.8680(7) 0.3856(9) 0.5029(6)
W5F W 0.87232(4) 0.24760(5) 0.63185(3)
O7F O 0.8091(6) 0.2053(8) 0.6504(8)
W6F W 0.90076(4) 0.28866(5) 0.50720(4)
O8F O 0.7263(6) 0.3124(8) 0.6285(7)
O9F O 0.6191(10) 0.3504(9) 0.3961(6)
O10F O 0.9312(6) 0.2483(8) 0.6943(5)
O11F O 0.7035(6) 0.4434(10) 0.4541(6)
O12F O 0.8380(6) 0.3415(8) 0.6330(7)
O13F O 0.7231(6) 0.1103(9) 0.5954(6)
O14F O 0.5993(10) 0.3165(10) 0.4895(6)
O15F O 0.9708(5) 0.3084(8) 0.5098(5)
O16F O 0.6402(7) 0.2178(10) 0.5722(7)
O17F O 0.6830(6) 0.4129(10) 0.5477(5)
O18F O 0.9108(9) 0.2886(10) 0.5855(7)
O19F O 0.5876(6) 0.4661(9) 0.4545(5)
O20F O 0.8093(7) 0.5235(8) 0.4664(5)
O21F O 0.7083(8) 0.1869(8) 0.6841(5)
O22F O 0.7677(6) 0.4603(8) 0.6481(6)
N1A N 1.3258(7) 0.3966(10) 0.3396(7)
C1A C 1.3458(10) 0.3608(11) 0.3902(8)
Ag1A Ag 1.23756(7) 0.38029(10) 0.26653(6)
C2A C 1.3145(10) 0.2933(11) 0.3958(9)
H1A H 1.27990 0.27500 0.36690
N2A N 1.4249(7) 0.4516(9) 0.4313(6)
C3A C 1.3409(10) 0.2568(12) 0.4494(10)
H2A H 1.32310 0.21220 0.45510
C4A C 1.3881(10) 0.2823(14) 0.4904(9)
H3A H 1.40300 0.25490 0.52400
C5A C 1.4174(10) 0.3485(13) 0.4865(9)
H4A H 1.45050 0.36650 0.51700
C6A C 1.3952(9) 0.3877(13) 0.4347(9)
C7A C 1.4061(7) 0.4861(11) 0.3821(7)
C8A C 1.3558(8) 0.4550(11) 0.3340(7)
C9A C 1.4388(8) 0.5519(11) 0.3732(7)
C10A C 1.4807(10) 0.5470(13) 0.3458(10)
H5A H 1.48970 0.50070 0.33330
C11A C 1.5085(10) 0.6120(13) 0.3376(9)
H6A H 1.53750 0.60800 0.32040
C12A C 1.4958(9) 0.6837(12) 0.3536(8)
H7A H 1.51340 0.72680 0.34520
C13A C 1.4569(10) 0.6874(12) 0.3818(9)
H8A H 1.44830 0.73380 0.39440
C14A C 1.4301(10) 0.6243(12) 0.3921(9)
H9A H 1.40450 0.62890 0.41280
C15A C 1.3373(8) 0.4932(13) 0.2769(8)
C16A C 1.3455(10) 0.4519(12) 0.2346(8)
H10A H 1.36010 0.40270 0.24140
C17A C 1.3319(13) 0.4837(17) 0.182(1)
H11A H 1.34020 0.45740 0.15370
C18A C 1.3059(12) 0.5547(17) 0.1706(9)
H12A H 1.29600 0.57620 0.13480
C19A C 1.2952(11) 0.5920(14) 0.2128(10)
H13A H 1.27500 0.63820 0.20520
C20A C 1.3139(9) 0.5623(12) 0.2669(8)
H14A H 1.31010 0.59070 0.29640
N3A N 1.1524(7) 0.4472(9) 0.2510(7)
N4A N 1.0753(7) 0.5601(9) 0.2666(6)
C21A C 1.1376(8) 0.5113(12) 0.2171(8)
C22A C 1.1571(9) 0.5187(13) 0.1695(10)
H15A H 1.17850 0.47900 0.16130
C23A C 1.1462(12) 0.5785(12) 0.1375(10)
H16A H 1.15970 0.58060 0.10710
C24A C 1.1147(12) 0.6389(14) 0.1483(11)
H17A H 1.10860 0.68210 0.12610
C25A C 1.0916(11) 0.6357(14) 0.1928(10)
H18A H 1.07060 0.67650 0.20010
C26A C 1.1008(9) 0.5693(11) 0.2261(8)
C27A C 1.0832(9) 0.4972(11) 0.2947(8)
C28A C 1.1255(9) 0.4422(11) 0.2887(8)
C29A C 1.0504(7) 0.4838(11) 0.3343(7)
C30A C 1.0175(9) 0.4174(10) 0.3293(9)
H19A H 1.01800 0.38200 0.30230
C31A C 0.9838(10) 0.4024(14) 0.3636(10)
H20A H 0.96000 0.35920 0.35850
C32A C 0.9873(11) 0.4558(14) 0.4066(9)
H21A H 0.96930 0.44600 0.43320
C33A C 1.0174(10) 0.5208(13) 0.4076(9)
H22A H 1.01600 0.55800 0.43310
C34A C 1.0503(8) 0.5354(11) 0.3728(7)
H23A H 1.07190 0.58020 0.37620
C35A C 1.1403(9) 0.3746(11) 0.3237(9)
C36A C 1.1303(9) 0.3020(14) 0.2979(12)
H24A H 1.11730 0.29600 0.25870
C37A C 1.1412(15) 0.2406(16) 0.3345(17)
H25A H 1.13080 0.19330 0.31790
C38A C 1.1650(14) 0.2429(19) 0.390(2)
H26A H 1.17260 0.19930 0.41230
C39A C 1.1780(11) 0.3144(17) 0.4151(12)
H27A H 1.19660 0.31770 0.45440
C40A C 1.1645(8) 0.3821(14) 0.3835(9)
H28A H 1.17120 0.42910 0.40100
N2D N 0.4249(7) 0.5484(9) -0.0687(6)
Ag2A Ag 1.50000 0.50000 0.50000
#END
