
#######################################################################
#
#                 Cambridge Crystallographic Data Centre
#                                CCDC
#
#######################################################################
#
# If this CIF has been generated from an entry in the Cambridge
# Structural Database, then it will include bibliographic, chemical,
# crystal, experimental, refinement or atomic coordinate data resulting
# from the CCDC's data processing and validation procedures.
#
#######################################################################

data_CSD_CIF_LEYFUS
_audit_creation_date 2013-05-26
_audit_creation_method CSD-ConQuest-V1
_database_code_CSD LEYFUS
_database_code_depnum_ccdc_archive 'CCDC 830736'
_chemical_formula_sum 'C21 H87 N6 O84 Tm3 W12'
_chemical_formula_moiety
;
(C21 H41 N3 O67 Tm3 W12 3-)n,3n(H4 N1 1+),17n(H2 O1)
;
_journal_coden_Cambridge 155
_journal_volume 401
_journal_year 2013
_journal_page_first 70
_journal_name_full 'Inorg.Chim.Acta '
loop_
_publ_author_name
"Dan-Dan Liu"
"Ya-Guang Chen"
_chemical_name_systematic
;
catena-(tris(Ammonium) 
tetrakis(\m~3~-oxo)-bis(\m~2~-hydroxo)-tris(\m~2~-pyridine-3,5-dicarboxylato)-
pentacosakis(\m~2~-oxo)-pentadeca-aqua-nonaoxo-tri-thulium-dodeca-tungsten 
heptadecahydrate)
;
_cell_volume  12319.610
_exptl_crystal_colour 'colorless'
_exptl_crystal_density_diffrn 3.595
_exptl_special_details
;
The formula in the cif suggests that there are 10 water molecules; we have 
used the formula from the paper with 17 water molecules.The two protons 
associated with the cluster have been arbitrarily assigned as hydroxo groups
;
_exptl_crystal_description 'block'
_diffrn_ambient_temperature 293
#These two values have been output from a single CSD field.
_refine_ls_R_factor_gt 0.047
_refine_ls_wR_factor_gt 0.047
_symmetry_cell_setting rhombohedral
_symmetry_space_group_name_H-M 'R 3 c'
_symmetry_Int_Tables_number 161
loop_
_symmetry_equiv_pos_site_id
_symmetry_equiv_pos_as_xyz
1 x,y,z
2 -y,x-y,z
3 -x+y,-x,z
4 -y,-x,1/2+z
5 -x+y,y,1/2+z
6 x,x-y,1/2+z
7 2/3+x,1/3+y,1/3+z
8 2/3-y,1/3+x-y,1/3+z
9 2/3-x+y,1/3-x,1/3+z
10 2/3-y,1/3-x,5/6+z
11 2/3-x+y,1/3+y,5/6+z
12 2/3+x,1/3+x-y,5/6+z
13 1/3+x,2/3+y,2/3+z
14 1/3-y,2/3+x-y,2/3+z
15 1/3-x+y,2/3-x,2/3+z
16 1/3-y,2/3-x,1/6+z
17 1/3-x+y,2/3+y,1/6+z
18 1/3+x,2/3+x-y,1/6+z
_cell_length_a 16.6502(4)
_cell_length_b 16.6502(4)
_cell_length_c 51.313(2)
_cell_angle_alpha 90
_cell_angle_beta 90
_cell_angle_gamma 120
_cell_formula_units_Z 6
loop_
_atom_type_symbol
_atom_type_radius_bond
C 0.68
H 0.23
N 0.68
O 0.68
Tm 1.90
W 1.62
loop_
_atom_site_label
_atom_site_type_symbol
_atom_site_fract_x
_atom_site_fract_y
_atom_site_fract_z
W1 W 0.51816(4) 1.62430(4) 0.173199(13)
W2 W 0.30545(5) 1.44762(4) 0.169100(12)
W3 W 0.25835(5) 1.53290(5) 0.229643(14)
W4 W 0.39798(5) 1.58509(5) 0.118853(15)
Tm1 Tm 0.32229(5) 1.21718(5) 0.168686(14)
O1 O 0.2060(8) 1.4501(10) 0.2535(2)
O2 O 0.4399(7) 1.4949(8) 0.1784(2)
O3 O 0.4202(9) 1.5553(10) 0.0893(3)
O4 O 0.6206(8) 1.6267(9) 0.1767(3)
O5 O 0.2778(8) 1.3322(8) 0.1718(3)
O6 O 0.3778(7) 1.5941(7) 0.1615(2)
O7 O 0.5080(9) 1.6062(9) 0.1354(2)
O8 O 0.2985(8) 1.4795(8) 0.2057(2)
O9 O 0.3216(12) 1.2554(9) 0.1256(3)
O10 O 0.2454(7) 1.3850(8) 0.3119(2)
O11 O 0.4965(8) 1.6543(7) 0.2074(2)
O12 O 0.4422(10) 1.1803(9) 0.1717(4)
O13 O 0.3746(9) 1.2875(8) 0.2079(2)
O14 O 0.2607(15) 1.0972(10) 0.2000(3)
O15 O 0.3344(8) 1.4556(8) 0.1334(2)
O16 O 0.4635(10) 1.3524(9) 0.1614(3)
O17 O 0.1931(8) 1.4397(9) 0.1651(2)
O18 O 0.2260(8) 1.6220(8) 0.2452(2)
O19 O 0.33330 1.66670 0.2068(3)
O20 O 0.4367(9) 1.7100(8) 0.1158(3)
O21 O 0.1632(10) 1.1482(10) 0.1647(4)
O22 O 0.3716(10) 1.5018(11) 0.3272(3)
N1 N 0.505(1) 1.5099(11) 0.2573(3)
C1 C 0.3793(12) 1.3636(11) 0.2470(3)
C2 C 0.4642(13) 1.4353(13) 0.2412(3)
H1 H 0.49580 1.43290 0.22580
C3 C 0.3793(10) 1.4408(11) 0.2863(3)
C4 C 0.4666(11) 1.5133(13) 0.2803(3)
H2 H 0.49900 1.56420 0.29210
C5 C 0.3361(11) 1.3659(12) 0.2700(4)
H3 H 0.27580 1.31520 0.27430
C6 C 0.3303(11) 1.4452(12) 0.3101(4)
C7 C 0.3329(13) 1.2802(14) 0.2295(4)
O23 O 0.2646(14) 1.2133(12) 0.2372(4)
O24 O 0.0637(18) 0.4924(18) -0.1182(5)
O25 O 0.523(3) 1.426(3) 0.1126(6)
N2 N 0.6730(12) 1.6485(12) 0.2419(3)
H4 H 0.61870 1.61870 0.23110
H5 H 0.67670 1.60280 0.25250
H6 H 0.72720 1.67940 0.23120
H7 H 0.66920 1.69300 0.25300
O26 O 0.33330 1.66670 0.2985(6)
O27 O 0.5619(19) 1.243(4) 0.2074(6)
W1A W 0.37570(4) 1.89386(4) 0.173199(13)
W2A W 0.55238(5) 1.85783(4) 0.169100(12)
W3A W 0.46710(5) 1.72545(5) 0.229643(14)
W4A W 0.41491(5) 1.81289(5) 0.118853(15)
Tm1A Tm 0.78282(5) 2.10511(5) 0.168686(14)
O1A O 0.5499(8) 1.7559(10) 0.2535(2)
O2A O 0.5051(7) 1.9450(8) 0.1784(2)
O3A O 0.4447(9) 1.8649(10) 0.0893(3)
O4A O 0.3733(8) 1.9939(9) 0.1767(3)
O5A O 0.6678(8) 1.9456(8) 0.1718(3)
O6A O 0.4059(7) 1.7837(7) 0.1615(2)
O7A O 0.3938(9) 1.9018(9) 0.1354(2)
O8A O 0.5205(8) 1.8190(8) 0.2057(2)
O9A O 0.7446(12) 2.0662(9) 0.1256(3)
O10A O 0.6150(7) 1.8604(8) 0.3119(2)
O11A O 0.3457(8) 1.8422(7) 0.2074(2)
O12A O 0.8197(10) 2.2619(9) 0.1717(4)
O13A O 0.7125(9) 2.0871(8) 0.2079(2)
O14A O 0.9028(15) 2.1635(10) 0.2000(3)
O15A O 0.5444(8) 1.8788(8) 0.1334(2)
O16A O 0.6476(10) 2.1111(9) 0.1614(3)
O17A O 0.5603(8) 1.7534(9) 0.1651(2)
O18A O 0.3780(8) 1.6040(8) 0.2452(2)
O20A O 0.2900(9) 1.7267(8) 0.1158(3)
O21A O 0.8518(10) 2.015(1) 0.1647(4)
O22A O 0.4982(10) 1.8698(11) 0.3272(3)
N1A N 0.4901(10) 1.9951(11) 0.2573(3)
C1A C 0.6364(12) 2.0157(11) 0.2470(3)
C2A C 0.5647(13) 2.0289(13) 0.2412(3)
H1A H 0.56710 2.06290 0.22580
C3A C 0.5592(10) 1.9385(11) 0.2863(3)
C4A C 0.4867(11) 1.9533(13) 0.2803(3)
H2A H 0.43580 1.93480 0.29210
C5A C 0.6341(11) 1.9702(12) 0.2700(4)
H3A H 0.68480 1.96060 0.27430
C6A C 0.5548(11) 1.8851(12) 0.3101(4)
C7A C 0.7198(13) 2.0527(14) 0.2295(4)
O23A O 0.7867(14) 2.0513(12) 0.2372(4)
W1B W 0.10614(4) 1.48184(4) 0.173199(13)
W2B W 0.14217(5) 1.69455(4) 0.169100(12)
W3B W 0.27455(5) 1.74165(5) 0.229643(14)
W4B W 0.18711(5) 1.60202(5) 0.118853(15)
Tm1B Tm -0.10511(5) 1.67771(5) 0.168686(14)
O1B O 0.2441(8) 1.794(1) 0.2535(2)
O2B O 0.0550(7) 1.5601(8) 0.1784(2)
O3B O 0.1351(9) 1.5798(10) 0.0893(3)
O4B O 0.0061(8) 1.3794(9) 0.1767(3)
O5B O 0.0544(8) 1.7222(8) 0.1718(3)
O6B O 0.2163(7) 1.6222(7) 0.1615(2)
O7B O 0.0982(9) 1.4920(9) 0.1354(2)
O8B O 0.1810(8) 1.7015(8) 0.2057(2)
O9B O -0.0662(12) 1.6784(9) 0.1256(3)
O10B O 0.1396(7) 1.7546(8) 0.3119(2)
O11B O 0.1578(8) 1.5035(7) 0.2074(2)
O12B O -0.2619(10) 1.5578(9) 0.1717(4)
O13B O -0.0871(9) 1.6254(8) 0.2079(2)
O14B O -0.1635(15) 1.7393(10) 0.2000(3)
O15B O 0.1212(8) 1.6656(8) 0.1334(2)
O16B O -0.1111(10) 1.5365(9) 0.1614(3)
O17B O 0.2466(8) 1.8069(9) 0.1651(2)
O18B O 0.3960(8) 1.7740(8) 0.2452(2)
O20B O 0.2733(9) 1.5633(8) 0.1158(3)
O21B O -0.015(1) 1.8368(10) 0.1647(4)
O22B O 0.1302(10) 1.6284(11) 0.3272(3)
N1B N 0.0049(10) 1.4950(11) 0.2573(3)
C1B C -0.0157(12) 1.6207(11) 0.2470(3)
C2B C -0.0289(13) 1.5358(13) 0.2412(3)
H1B H -0.06290 1.50420 0.22580
C3B C 0.0615(10) 1.6207(11) 0.2863(3)
C4B C 0.0467(11) 1.5334(13) 0.2803(3)
H2B H 0.06520 1.50100 0.29210
C5B C 0.0298(11) 1.6639(12) 0.2700(4)
H3B H 0.03940 1.72420 0.27430
C6B C 0.1149(11) 1.6697(12) 0.3101(4)
C7B C -0.0527(13) 1.6671(14) 0.2295(4)
O23B O -0.0513(14) 1.7354(12) 0.2372(4)
Tm1O Tm 0.116153(50) 1.344377(50) 0.335353(14)
Tm1P Tm 0.228223(50) 1.883847(50) 0.335353(14)
Tm1Q Tm 0.655623(50) 1.771777(50) 0.335353(14)
O10I O 0.281667(700) 1.087933(800) 0.145233(200)
O10J O -0.193733(700) 1.718333(800) 0.145233(200)
O10K O 0.912067(700) 2.193733(800) 0.145233(200)
#END
