
#######################################################################
#
#                 Cambridge Crystallographic Data Centre
#                                CCDC
#
#######################################################################
#
# If this CIF has been generated from an entry in the Cambridge
# Structural Database, then it will include bibliographic, chemical,
# crystal, experimental, refinement or atomic coordinate data resulting
# from the CCDC's data processing and validation procedures.
#
#######################################################################

data_CSD_CIF_LEYPAI
_audit_creation_date 2013-05-26
_audit_creation_method CSD-ConQuest-V1
_database_code_CSD LEYPAI
_database_code_depnum_ccdc_archive 'CCDC 829445'
_chemical_formula_sum 'C36 H40 Eu4 N4 O40'
_chemical_formula_moiety
;
(C16 H8 Eu4 O36 4-)n,4n(C5 H6 N1 1+),4n(H2 O1)
;
_journal_coden_Cambridge 603
_journal_volume 31
_journal_year 2012
_journal_page_first 1067
_journal_name_full 'Jiegou Huaxue(Chin.)(Chin.J.Struct.Chem.) '
loop_
_publ_author_name
"Min Li"
"Qunzeng Huang"
"Yu-Quan Feng"
"Heng-Zhen Shi"
_chemical_name_systematic
;
catena-(octakis(\m~2~-oxalato)-tetraqua-tetra-europium tetrapyridinium 
tetrahydrate)
;
_cell_volume   2602.996
_exptl_crystal_colour 'colorless'
_exptl_crystal_density_diffrn 2.267
_exptl_crystal_description 'Block'
_diffrn_ambient_temperature 296
#These two values have been output from a single CSD field.
_refine_ls_R_factor_gt 0.0279
_refine_ls_wR_factor_gt 0.0279
_symmetry_cell_setting monoclinic
_symmetry_space_group_name_H-M 'P 21/n'
_symmetry_Int_Tables_number 14
loop_
_symmetry_equiv_pos_site_id
_symmetry_equiv_pos_as_xyz
1 x,y,z
2 1/2-x,1/2+y,1/2-z
3 -x,-y,-z
4 -1/2+x,-1/2-y,-1/2+z
_cell_length_a 10.444(5)
_cell_length_b 17.261(9)
_cell_length_c 14.598(8)
_cell_angle_alpha 90
_cell_angle_beta 98.461(9)
_cell_angle_gamma 90
_cell_formula_units_Z 2
loop_
_atom_type_symbol
_atom_type_radius_bond
C 0.68
H 0.23
Eu 1.98
N 0.68
O 0.68
loop_
_atom_site_label
_atom_site_type_symbol
_atom_site_fract_x
_atom_site_fract_y
_atom_site_fract_z
Eu1 Eu 0.49692(2) 0.127355(12) 0.156653(16)
Eu2 Eu -0.01990(2) 0.334967(11) 0.090834(17)
O1 O 0.6104(3) 0.00221(16) 0.2020(2)
O2 O 0.5970(4) 0.1682(2) 0.3137(3)
O3 O 0.3900(3) 0.05118(16) 0.2626(2)
O4 O -0.1284(4) 0.2976(3) -0.0635(3)
O5 O 0.6165(3) -0.01185(17) -0.0733(2)
O6 O 0.5692(3) 0.09254(16) 0.0080(2)
O7 O -0.2633(3) 0.13643(15) 0.1631(2)
O8 O 0.3185(3) 0.18244(17) 0.0456(2)
O9 O 0.3392(3) 0.20760(17) 0.2285(2)
O10 O 0.1412(3) 0.25845(17) 0.0234(2)
O11 O 0.1519(3) 0.27467(17) 0.2061(2)
O12 O -0.0986(3) 0.20919(16) 0.1294(3)
O13 O -0.2590(3) 0.32879(15) 0.0906(2)
O14 O -0.1231(3) 0.46346(15) 0.0574(2)
O15 O -0.0788(3) 0.58638(16) 0.0225(2)
O16 O 0.3733(3) -0.06435(16) 0.3303(2)
O17 O 0.5787(3) -0.11704(16) 0.2588(2)
O18 O -0.4266(3) 0.25670(16) 0.1236(2)
C1 C 0.4261(4) -0.0168(2) 0.2809(3)
C2 C 0.5539(4) 0.0231(3) -0.0190(3)
C3 C 0.2330(4) 0.2249(2) 0.0734(3)
C4 C 0.2429(4) 0.2367(2) 0.1792(3)
C5 C -0.2151(4) 0.1985(2) 0.1378(3)
C6 C -0.3093(4) 0.2678(2) 0.1151(3)
C7 C 0.5497(4) -0.0465(2) 0.2430(3)
C8 C -0.0586(4) 0.5143(2) 0.0230(3)
H1 H -0.195(5) 0.272(3) -0.069(4)
H2 H 0.658(6) 0.199(4) 0.327(5)
H3 H 0.595(5) 0.148(3) 0.359(4)
H4 H -0.112(5) 0.299(3) -0.106(4)
O19 O 0.3077(4) 0.2308(3) 0.8525(3)
H5 H 0.316(5) 0.213(3) 0.915(5)
H6 H 0.334(6) 0.199(4) 0.825(5)
O20 O 0.6508(5) 0.2145(3) 0.8983(4)
H7 H 0.632(6) 0.180(3) 0.916(5)
H8 H 0.635(7) 0.213(4) 0.844(6)
C9 C 0.6103(7) 0.4307(4) 0.8687(5)
H9 H 0.68400 0.40210 0.86260
C10 C 0.4988(8) 0.3951(4) 0.8781(6)
H10 H 0.49450 0.34130 0.87840
C11 C 0.3906(7) 0.4386(5) 0.8871(5)
H11 H 0.31360 0.41340 0.89330
C12 C 0.3936(6) 0.5156(4) 0.8874(5)
H12 H 0.31960 0.54360 0.89440
C13 C 0.5003(9) 0.5518(4) 0.8778(6)
H13 H 0.50160 0.60570 0.87710
N1 N 0.6134(7) 0.5103(4) 0.8684(5)
H14 H 0.68380 0.53440 0.86250
C14 C 0.1313(6) 0.0697(4) 0.8584(6)
H15 H 0.21160 0.08960 0.85030
C15 C 0.0344(7) 0.1190(4) 0.8716(6)
H16 H 0.04800 0.17220 0.87310
C16 C -0.0841(6) 0.0891(4) 0.8827(6)
H17 H -0.15200 0.12190 0.89100
C17 C -0.1015(6) 0.0104(4) 0.8815(5)
H18 H -0.18080 -0.01090 0.88980
C18 C -0.0002(6) -0.0362(3) 0.8679(5)
H19 H -0.01090 -0.08970 0.86620
N2 N 0.1133(5) -0.0056(3) 0.8570(4)
H20 H 0.17630 -0.03570 0.84890
O6B O 0.4308(3) -0.09254(16) -0.0080(2)
C2B C 0.4461(4) -0.0231(3) 0.0190(3)
O5B O 0.3835(3) 0.01185(17) 0.0733(2)
O14B O 0.1231(3) 0.53654(15) -0.0574(2)
C8B C 0.0586(4) 0.4857(2) -0.0230(3)
O15B O 0.0788(3) 0.41362(16) -0.0225(2)
Eu1B Eu -0.49692(2) 0.872645(12) -0.156653(16)
Eu2B Eu 0.01990(2) 0.665033(11) -0.090834(17)
O1B O -0.6104(3) 0.99779(16) -0.2020(2)
O2B O -0.5970(4) 0.8318(2) -0.3137(3)
O3B O -0.3900(3) 0.94882(16) -0.2626(2)
O4B O 0.1284(4) 0.7024(3) 0.0635(3)
O7B O 0.2633(3) 0.86357(15) -0.1631(2)
O8B O -0.3185(3) 0.81756(17) -0.0456(2)
O9B O -0.3392(3) 0.79240(17) -0.2285(2)
O10B O -0.1412(3) 0.74155(17) -0.0234(2)
O11B O -0.1519(3) 0.72533(17) -0.2061(2)
O12B O 0.0986(3) 0.79081(16) -0.1294(3)
O13B O 0.2590(3) 0.67121(15) -0.0906(2)
O16B O -0.3733(3) 1.06435(16) -0.3303(2)
O17B O -0.5787(3) 1.11704(16) -0.2588(2)
O18B O 0.4266(3) 0.74330(16) -0.1236(2)
C1B C -0.4261(4) 1.0168(2) -0.2809(3)
C3B C -0.2330(4) 0.7751(2) -0.0734(3)
C4B C -0.2429(4) 0.7633(2) -0.1792(3)
C5B C 0.2151(4) 0.8015(2) -0.1378(3)
C6B C 0.3093(4) 0.7322(2) -0.1151(3)
C7B C -0.5497(4) 1.0465(2) -0.2430(3)
H1B H 0.195(5) 0.728(3) 0.069(4)
H2B H -0.658(6) 0.801(4) -0.327(5)
H3B H -0.595(5) 0.852(3) -0.359(4)
H4B H 0.112(5) 0.701(3) 0.106(4)
Eu1* Eu -0.50308(2) 0.127355(12) 0.156653(16)
Eu1B* Eu 0.50308(2) -0.127355(12) -0.156653(16)
Eu1B** Eu 0.50308(2) 0.872645(12) -0.156653(16)
Eu2A Eu 0.51990(2) -0.165033(11) 0.409166(17)
Eu2C Eu -0.51990(2) 1.165033(11) -0.409166(17)
O5* O -0.3835(3) 0.98815(17) -0.0733(2)
O6B* O -0.5692(3) 0.90746(16) -0.0080(2)
O7* O 0.7367(3) 0.13643(15) 0.1631(2)
O7B* O -0.7367(3) 0.86357(15) -0.1631(2)
O16A O 0.1267(3) 0.43565(16) 0.1697(2)
O16C O -0.1267(3) 0.56435(16) -0.1697(2)
O17A O -0.0787(3) 0.38296(16) 0.2412(2)
O17C O 0.0787(3) 0.61704(16) -0.2412(2)
O18* O 0.5734(3) 0.25670(16) 0.1236(2)
O18B* O -0.5734(3) 0.74330(16) -0.1236(2)
#END
