
#######################################################################
#
#                 Cambridge Crystallographic Data Centre
#                                CCDC
#
#######################################################################
#
# If this CIF has been generated from an entry in the Cambridge
# Structural Database, then it will include bibliographic, chemical,
# crystal, experimental, refinement or atomic coordinate data resulting
# from the CCDC's data processing and validation procedures.
#
#######################################################################

data_CSD_CIF_LEZWUK
_audit_creation_date 2013-05-26
_audit_creation_method CSD-ConQuest-V1
_database_code_CSD LEZWUK
_database_code_depnum_ccdc_archive 'CCDC 825704'
_chemical_formula_sum 'C21 H79 Lu3 N6 O80 W12'
_chemical_formula_moiety
;
(C21 H41 Lu3 N3 O67 W12 3-)n,3n(H4 N1 1+),13n(H2 O1)
;
_journal_coden_Cambridge 155
_journal_volume 401
_journal_year 2013
_journal_page_first 70
_journal_name_full 'Inorg.Chim.Acta '
loop_
_publ_author_name
"Dan-Dan Liu"
"Ya-Guang Chen"
_chemical_name_systematic
;
catena-(tris(Ammonium) 
tetrakis(\m~3~-oxo)-tris(\m~2~-pyridine-3,5-dicarboxylato)-bis(\m~2~-hydroxo)-
pentacosakis(\m~2~-oxo)-pentadeca-aqua-nonaoxo-tri-lutetium-dodeca-tungsten 
tridecahydrate)
;
_cell_volume  12255.228
_exptl_crystal_colour 'colorless'
_exptl_crystal_density_diffrn 3.552
_exptl_special_details
;
Two protons have been arbitrarily assigned to hydroxo groups

;
_exptl_crystal_description 'block'
_diffrn_ambient_temperature 296
#These two values have been output from a single CSD field.
_refine_ls_R_factor_gt 0.0352
_refine_ls_wR_factor_gt 0.0352
_symmetry_cell_setting rhombohedral
_symmetry_space_group_name_H-M 'R 3 c'
_symmetry_Int_Tables_number 161
loop_
_symmetry_equiv_pos_site_id
_symmetry_equiv_pos_as_xyz
1 x,y,z
2 -y,x-y,z
3 -x+y,-x,z
4 -y,-x,1/2+z
5 -x+y,y,1/2+z
6 x,x-y,1/2+z
7 2/3+x,1/3+y,1/3+z
8 2/3-y,1/3+x-y,1/3+z
9 2/3-x+y,1/3-x,1/3+z
10 2/3-y,1/3-x,5/6+z
11 2/3-x+y,1/3+y,5/6+z
12 2/3+x,1/3+x-y,5/6+z
13 1/3+x,2/3+y,2/3+z
14 1/3-y,2/3+x-y,2/3+z
15 1/3-x+y,2/3-x,2/3+z
16 1/3-y,2/3-x,1/6+z
17 1/3-x+y,2/3+y,1/6+z
18 1/3+x,2/3+x-y,1/6+z
_cell_length_a 16.6308(8)
_cell_length_b 16.6308(8)
_cell_length_c 51.164(5)
_cell_angle_alpha 90
_cell_angle_beta 90
_cell_angle_gamma 120
_cell_formula_units_Z 6
loop_
_atom_type_symbol
_atom_type_radius_bond
C 0.68
H 0.23
Lu 1.87
N 0.68
O 0.68
W 1.62
loop_
_atom_site_label
_atom_site_type_symbol
_atom_site_fract_x
_atom_site_fract_y
_atom_site_fract_z
W1 W -0.47459(6) 0.63951(7) 0.172419(17)
W2 W -0.70859(6) 0.43915(6) 0.168371(17)
W3 W -0.60754(6) 0.59167(6) 0.111610(19)
W4 W -0.51993(7) 0.73175(7) 0.22288(2)
Lu1 Lu -0.22744(6) 0.65682(6) 0.172782(18)
O1 O -0.2211(12) 0.7989(11) 0.1799(4)
C1 C -0.3165(14) 0.7144(16) 0.0943(4)
O2 O -0.5777(10) 0.5276(10) 0.1765(3)
O3 O -0.7063(12) 0.3364(11) 0.1641(4)
O4 O -0.3868(13) 0.6111(11) 0.1689(4)
O5 O -0.3877(12) 0.7735(9) 0.1634(3)
O6 O -0.5774(11) 0.5402(11) 0.0875(3)
C2 C -0.3958(13) 0.7125(13) 0.0543(4)
O7 O -0.7373(10) 0.5506(10) 0.1792(3)
O8 O -0.5124(10) 0.6336(10) 0.1348(3)
N1 N -0.3374(17) 0.8385(15) 0.0848(5)
O9 O -0.4719(11) 0.5802(15) 0.0295(3)
O10 O -0.2459(11) 0.7077(13) 0.1337(3)
O11 O -0.7250(11) 0.4297(12) 0.2060(3)
O12 O -0.681(1) 0.4876(10) 0.1337(3)
O13 O -0.1694(16) 0.5952(18) 0.1409(4)
O14 O -0.2661(16) 0.6535(15) 0.2155(4)
O15 O -0.0737(12) 0.7773(12) 0.1701(5)
O16 O -0.6062(11) 0.7707(10) 0.2256(3)
O17 O -0.560(1) 0.7101(11) 0.0955(4)
O18 O -0.3166(14) 0.4971(11) 0.1741(5)
O19 O -0.4666(17) 0.7039(22) 0.0145(4)
O20 O -0.4724(13) 0.7498(12) 0.2527(3)
C3 C -0.281(2) 0.6652(18) 0.1115(5)
O21 O -0.2823(19) 0.5942(17) 0.1044(5)
C4 C -0.4493(15) 0.6615(22) 0.0309(5)
O22 O -0.66670 0.66670 0.1337(5)
O23 O -0.4521(12) 0.6691(10) 0.2081(3)
C5 C -0.3822(15) 0.7994(14) 0.0623(4)
H1 H -0.40440 0.83160 0.05170
C6 C -0.3068(17) 0.7978(17) 0.0993(5)
H2 H -0.27670 0.83650 0.11410
C7 C -0.3610(16) 0.6705(16) 0.0718(5)
H3 H -0.36880 0.61250 0.06770
O24 O 0.33330 0.66670 0.0399(11)
N2 N 0.3569(14) 1.0150(13) -0.0675(5)
H4 H 0.31040 0.99400 -0.05410
H5 H 0.35520 0.96240 -0.07580
H6 H 0.34500 1.05010 -0.08020
H7 H 0.41710 1.05350 -0.05990
O25 O 0.577(5) 1.240(3) -0.0349(8)
O26 O 0.240(3) 0.817(4) -0.0433(13)
O27 O 0.412(7) 0.689(8) -0.049(3)
O28 O 0.408(4) 0.878(4) -0.1038(9)
W1A W -0.63951(6) 0.88590(7) 0.172419(17)
W2A W -0.43915(6) 0.85226(6) 0.168371(17)
W3A W -0.59167(6) 0.80079(6) 0.111610(19)
W4A W -0.73175(7) 0.74832(7) 0.22288(2)
Lu1A Lu -0.65682(6) 1.11574(6) 0.172782(18)
O1A O -0.7989(12) 0.9800(11) 0.1799(4)
C1A C -0.7144(14) 0.9691(16) 0.0943(4)
O2A O -0.5276(10) 0.8947(10) 0.1765(3)
O3A O -0.3364(12) 0.9573(11) 0.1641(4)
O4A O -0.6111(13) 1.0021(11) 0.1689(4)
O5A O -0.7735(12) 0.8388(9) 0.1634(3)
O6A O -0.5402(11) 0.8824(11) 0.0875(3)
C2A C -0.7125(13) 0.8917(13) 0.0543(4)
O7A O -0.5506(10) 0.7121(10) 0.1792(3)
O8A O -0.6336(10) 0.854(1) 0.1348(3)
N1A N -0.8385(17) 0.8241(15) 0.0848(5)
O9A O -0.5802(11) 0.9479(15) 0.0295(3)
O10A O -0.7077(11) 1.0464(13) 0.1337(3)
O11A O -0.4297(11) 0.8453(12) 0.2060(3)
O12A O -0.4876(10) 0.8314(10) 0.1337(3)
O13A O -0.5952(16) 1.2354(18) 0.1409(4)
O14A O -0.6535(16) 1.0804(15) 0.2155(4)
O15A O -0.7773(12) 1.1490(12) 0.1701(5)
O16A O -0.7707(11) 0.6231(10) 0.2256(3)
O17A O -0.7101(10) 0.7299(11) 0.0955(4)
O18A O -0.4971(14) 1.1863(11) 0.1741(5)
O19A O -0.7039(17) 0.8295(22) 0.0145(4)
O20A O -0.7498(13) 0.7778(12) 0.2527(3)
C3A C -0.6652(20) 1.0538(18) 0.1115(5)
O21A O -0.5942(19) 1.1235(17) 0.1044(5)
C4A C -0.6615(15) 0.8892(22) 0.0309(5)
O23A O -0.6691(12) 0.8788(10) 0.2081(3)
C5A C -0.7994(15) 0.8184(14) 0.0623(4)
H1A H -0.83160 0.76400 0.05170
C6A C -0.7978(17) 0.8954(17) 0.0993(5)
H2A H -0.83650 0.88680 0.11410
C7A C -0.6705(16) 0.9685(16) 0.0718(5)
H3A H -0.61250 1.01870 0.06770
W1B W -0.88590(6) 0.47459(7) 0.172419(17)
W2B W -0.85226(6) 0.70859(6) 0.168371(17)
W3B W -0.80079(6) 0.60754(6) 0.111610(19)
W4B W -0.74832(7) 0.51993(7) 0.22288(2)
Lu1B Lu -1.11574(6) 0.22744(6) 0.172782(18)
O1B O -0.9800(12) 0.2211(11) 0.1799(4)
C1B C -0.9691(14) 0.3165(16) 0.0943(4)
O2B O -0.8947(10) 0.5777(10) 0.1765(3)
O3B O -0.9573(12) 0.7063(11) 0.1641(4)
O4B O -1.0021(13) 0.3868(11) 0.1689(4)
O5B O -0.8388(12) 0.3877(9) 0.1634(3)
O6B O -0.8824(11) 0.5774(11) 0.0875(3)
C2B C -0.8917(13) 0.3958(13) 0.0543(4)
O7B O -0.7121(10) 0.7373(10) 0.1792(3)
O8B O -0.854(1) 0.5124(10) 0.1348(3)
N1B N -0.8241(17) 0.3374(15) 0.0848(5)
O9B O -0.9479(11) 0.4719(15) 0.0295(3)
O10B O -1.0464(11) 0.2459(13) 0.1337(3)
O11B O -0.8453(11) 0.7250(12) 0.2060(3)
O12B O -0.8314(10) 0.681(1) 0.1337(3)
O13B O -1.2354(16) 0.1694(18) 0.1409(4)
O14B O -1.0804(16) 0.2661(15) 0.2155(4)
O15B O -1.1490(12) 0.0737(12) 0.1701(5)
O16B O -0.6231(11) 0.6062(10) 0.2256(3)
O17B O -0.7299(10) 0.5600(11) 0.0955(4)
O18B O -1.1863(14) 0.3166(11) 0.1741(5)
O19B O -0.8295(17) 0.4666(22) 0.0145(4)
O20B O -0.7778(13) 0.4724(12) 0.2527(3)
C3B C -1.0538(20) 0.2810(18) 0.1115(5)
O21B O -1.1235(19) 0.2823(17) 0.1044(5)
C4B C -0.8892(15) 0.4493(22) 0.0309(5)
O23B O -0.8788(12) 0.4521(10) 0.2081(3)
C5B C -0.8184(15) 0.3822(14) 0.0623(4)
H1B H -0.76400 0.40440 0.05170
C6B C -0.8954(17) 0.3068(17) 0.0993(5)
H2B H -0.88680 0.27670 0.11410
C7B C -0.9685(16) 0.3610(16) 0.0718(5)
H3B H -1.01870 0.36880 0.06770
Lu1I Lu -0.990153(60) 0.560773(60) 0.006115(18)
Lu1J Lu -0.449073(60) 0.990153(60) 0.006115(18)
Lu1K Lu -0.560773(60) 0.449073(60) 0.006115(18)
O9O O -1.246867(1100) 0.138567(1500) 0.196167(300)
O9P O -0.614567(1100) 1.246867(1500) 0.196167(300)
O9Q O -0.138567(1100) 0.614567(1500) 0.196167(300)
#END
