
#######################################################################
#
#                 Cambridge Crystallographic Data Centre
#                                CCDC
#
#######################################################################
#
# If this CIF has been generated from an entry in the Cambridge
# Structural Database, then it will include bibliographic, chemical,
# crystal, experimental, refinement or atomic coordinate data resulting
# from the CCDC's data processing and validation procedures.
#
#######################################################################

data_CSD_CIF_LEZXAR
_audit_creation_date 2013-05-26
_audit_creation_method CSD-ConQuest-V1
_database_code_CSD LEZXAR
_database_code_depnum_ccdc_archive 'CCDC 825703'
_chemical_formula_sum 'C21 H93 N6 O87 W12 Yb3'
_chemical_formula_moiety
;
(C21 H41 N3 O67 W12 Yb3 3-)n,3n(H4 N1 1+),20n(H2 O1)
;
_journal_coden_Cambridge 155
_journal_volume 401
_journal_year 2013
_journal_page_first 70
_journal_name_full 'Inorg.Chim.Acta '
loop_
_publ_author_name
"Dan-Dan Liu"
"Ya-Guang Chen"
_chemical_name_systematic
;
catena-(tris(Ammonium) 
tetrakis(\m~3~-oxo)-tris(\m~2~-pyridine-3,5-dicarboxylato)-bis(\m~2~-hydroxo)-
pentacosakis(\m~2~-oxo)-pentadeca-aqua-nonaoxo-dodeca-tungsten-tri-ytterbium 
icosahydrate)
;
_cell_volume  12335.726
_exptl_crystal_colour 'colorless'
_exptl_crystal_density_diffrn 3.638
_exptl_special_details
;
The formula in the cif seems to suggest that there are 11 unbound water 
molecules, whereas the data in the paper suggests 20 molecules
;
_exptl_crystal_description 'block'
_diffrn_ambient_temperature 296
#These two values have been output from a single CSD field.
_refine_ls_R_factor_gt 0.0438
_refine_ls_wR_factor_gt 0.0438
_symmetry_cell_setting rhombohedral
_symmetry_space_group_name_H-M 'R 3 c'
_symmetry_Int_Tables_number 161
loop_
_symmetry_equiv_pos_site_id
_symmetry_equiv_pos_as_xyz
1 x,y,z
2 -y,x-y,z
3 -x+y,-x,z
4 -y,-x,1/2+z
5 -x+y,y,1/2+z
6 x,x-y,1/2+z
7 2/3+x,1/3+y,1/3+z
8 2/3-y,1/3+x-y,1/3+z
9 2/3-x+y,1/3-x,1/3+z
10 2/3-y,1/3-x,5/6+z
11 2/3-x+y,1/3+y,5/6+z
12 2/3+x,1/3+x-y,5/6+z
13 1/3+x,2/3+y,2/3+z
14 1/3-y,2/3+x-y,2/3+z
15 1/3-x+y,2/3-x,2/3+z
16 1/3-y,2/3-x,1/6+z
17 1/3-x+y,2/3+y,1/6+z
18 1/3+x,2/3+x-y,1/6+z
_cell_length_a 16.6606(9)
_cell_length_b 16.6606(9)
_cell_length_c 51.316(4)
_cell_angle_alpha 90
_cell_angle_beta 90
_cell_angle_gamma 120
_cell_formula_units_Z 6
loop_
_atom_type_symbol
_atom_type_radius_bond
C 0.68
H 0.23
N 0.68
O 0.68
W 1.62
Yb 1.87
loop_
_atom_site_label
_atom_site_type_symbol
_atom_site_fract_x
_atom_site_fract_y
_atom_site_fract_z
W1 W -0.25158(6) -0.52003(6) 0.029757(18)
Yb1 Yb 0.11630(6) -0.22841(5) 0.079543(16)
O1 O -0.4200(9) -0.5276(9) 0.0766(3)
O2 O -0.33330 -0.66670 0.1160(4)
C1 C 0.3775(13) -0.0598(14) 0.0297(4)
O3 O -0.1221(12) -0.4522(11) 0.0437(3)
O4 O -0.1174(10) -0.5773(10) 0.1632(3)
O5 O -0.3196(9) -0.4893(9) 0.1180(3)
O6 O -0.2939(11) -0.3391(10) 0.0883(4)
O7 O -0.2723(11) -0.4303(12) 0.0460(3)
O8 O 0.0798(11) -0.2682(12) 0.0350(3)
O9 O 0.2353(13) -0.1694(17) 0.1121(4)
O10 O -0.0179(11) -0.2230(11) 0.0721(3)
O11 O -0.2686(9) -0.5577(9) 0.1558(3)
O12 O -0.1614(9) -0.3888(9) 0.0880(3)
O13 O 0.2457(9) -0.1418(11) 0.0564(3)
O14 O 0.0023(10) -0.3859(10) 0.0824(3)
O15 O 0.3743(16) 0.0891(11) -0.0481(3)
O16 O 0.1852(11) -0.3179(12) 0.0768(5)
C2 C 0.3803(16) 0.0172(15) -0.0090(4)
N1 N 0.5038(13) -0.0049(16) -0.0025(4)
C3 C 0.4636(15) 0.0297(17) -0.0130(5)
H1 H 0.49800 0.06930 -0.02730
C4 C 0.3349(15) -0.0325(14) 0.0130(6)
H2 H 0.27210 -0.04790 0.01640
C5 C 0.4664(17) -0.0447(14) 0.0222(4)
H3 H 0.49840 -0.06730 0.03280
C6 C 0.330(3) 0.047(2) -0.0277(5)
O17 O 0.3714(13) -0.133(2) 0.0718(4)
C7 C 0.3291(15) -0.1164(15) 0.0538(4)
O18 O -0.2606(10) -0.5492(10) 0.0725(3)
W2 W -0.29080(5) -0.43925(5) 0.083995(16)
W3 W -0.11446(5) -0.47510(5) 0.079941(15)
O19 O 0.1492(11) -0.0758(11) 0.0823(4)
O20 O 0.2603(24) 0.051(2) -0.0176(6)
O21 O -0.2282(9) -0.6215(10) 0.0272(3)
O22 O -0.2226(13) -0.4741(14) -0.0014(4)
W4 W -0.19982(5) -0.60792(5) 0.140602(17)
O23 O -0.1457(12) -0.5158(10) 0.1168(3)
O24 O 0.66670 0.33330 0.2107(15)
N2 N 0.3406(14) 0.3573(14) 0.3193(5)
H4 H 0.31520 0.31090 0.30590
H5 H 0.40660 0.38330 0.32000
H6 H 0.32650 0.40540 0.31550
H7 H 0.31410 0.32980 0.33580
O25 O 0.080(5) -0.021(5) 0.1193(10)
O26 O 0.66670 0.33330 0.2726(7)
O27 O -0.086(4) -0.232(3) 0.0241(6)
O28 O 0.460(9) 0.249(4) 0.3035(13)
W1A W -0.47997(6) -0.73155(6) 0.029757(18)
Yb1A Yb -0.77159(6) -0.65529(5) 0.079543(16)
O1A O -0.4724(9) -0.8924(9) 0.0766(3)
C1A C -0.9402(13) -0.5627(14) 0.0297(4)
O3A O -0.5478(12) -0.6699(11) 0.0437(3)
O4A O -0.4227(10) -0.5401(10) 0.1632(3)
O5A O -0.5107(9) -0.8303(9) 0.1180(3)
O6A O -0.6609(11) -0.9548(10) 0.0883(4)
O7A O -0.5697(11) -0.8420(12) 0.0460(3)
O8A O -0.7318(11) -0.6520(12) 0.0350(3)
O9A O -0.8306(13) -0.5953(17) 0.1121(4)
O10A O -0.7770(11) -0.7949(11) 0.0721(3)
O11A O -0.4423(9) -0.7109(9) 0.1558(3)
O12A O -0.6112(9) -0.7726(9) 0.0880(3)
O13A O -0.8582(9) -0.6125(11) 0.0564(3)
O14A O -0.6141(10) -0.6118(10) 0.0824(3)
O15A O -1.0891(16) -0.7148(11) -0.0481(3)
O16A O -0.6821(11) -0.4969(12) 0.0768(5)
C2A C -1.0172(16) -0.6369(15) -0.0090(4)
N1A N -0.9951(13) -0.4913(16) -0.0025(4)
C3A C -1.0297(15) -0.5661(17) -0.0130(5)
H1A H -1.06930 -0.57130 -0.02730
C4A C -0.9675(15) -0.6326(14) 0.0130(6)
H2A H -0.95210 -0.68000 0.01640
C5A C -0.9553(17) -0.4889(14) 0.0222(4)
H3A H -0.93270 -0.43430 0.03280
C6A C -1.047(3) -0.717(2) -0.0277(5)
O17A O -0.8670(13) -0.4956(20) 0.0718(4)
C7A C -0.8836(15) -0.5545(15) 0.0538(4)
O18A O -0.4508(10) -0.7114(10) 0.0725(3)
W2A W -0.56075(5) -0.85155(5) 0.083995(16)
W3A W -0.52490(5) -0.63936(5) 0.079941(15)
O19A O -0.9242(11) -0.7750(11) 0.0823(4)
O20A O -1.0510(24) -0.7907(20) -0.0176(6)
O21A O -0.3785(9) -0.6067(10) 0.0272(3)
O22A O -0.5259(13) -0.7485(14) -0.0014(4)
W4A W -0.39208(5) -0.59190(5) 0.140602(17)
O23A O -0.4842(12) -0.6299(10) 0.1168(3)
W1B W -0.26845(6) -0.74842(6) 0.029757(18)
Yb1B Yb -0.34471(6) -1.11630(5) 0.079543(16)
O1B O -0.1076(9) -0.5800(9) 0.0766(3)
C1B C -0.4373(13) -1.3775(14) 0.0297(4)
O3B O -0.3301(12) -0.8779(11) 0.0437(3)
O4B O -0.4599(10) -0.8826(10) 0.1632(3)
O5B O -0.1697(9) -0.6804(9) 0.1180(3)
O6B O -0.0452(11) -0.7061(10) 0.0883(4)
O7B O -0.1580(11) -0.7277(12) 0.0460(3)
O8B O -0.3480(11) -1.0798(12) 0.0350(3)
O9B O -0.4047(13) -1.2353(17) 0.1121(4)
O10B O -0.2051(11) -0.9821(11) 0.0721(3)
O11B O -0.2891(9) -0.7314(9) 0.1558(3)
O12B O -0.2274(9) -0.8386(9) 0.0880(3)
O13B O -0.3875(9) -1.2457(11) 0.0564(3)
O14B O -0.3882(10) -1.0023(10) 0.0824(3)
O15B O -0.2852(16) -1.3743(11) -0.0481(3)
O16B O -0.5031(11) -1.1852(12) 0.0768(5)
C2B C -0.3631(16) -1.3803(15) -0.0090(4)
N1B N -0.5087(13) -1.5038(16) -0.0025(4)
C3B C -0.4339(15) -1.4636(17) -0.0130(5)
H1B H -0.42870 -1.49800 -0.02730
C4B C -0.3674(15) -1.3349(14) 0.0130(6)
H2B H -0.32000 -1.27210 0.01640
C5B C -0.5111(17) -1.4664(14) 0.0222(4)
H3B H -0.56570 -1.49840 0.03280
C6B C -0.283(3) -1.330(2) -0.0277(5)
O17B O -0.5044(13) -1.3714(20) 0.0718(4)
C7B C -0.4455(15) -1.3291(15) 0.0538(4)
O18B O -0.2886(10) -0.7394(10) 0.0725(3)
W2B W -0.14845(5) -0.70920(5) 0.083995(16)
W3B W -0.36064(5) -0.88554(5) 0.079941(15)
O19B O -0.2250(11) -1.1492(11) 0.0823(4)
O20B O -0.2093(24) -1.2603(20) -0.0176(6)
O21B O -0.3933(9) -0.7718(10) 0.0272(3)
O22B O -0.2515(13) -0.7774(14) -0.0014(4)
W4B W -0.40810(5) -0.80018(5) 0.140602(17)
O23B O -0.3701(12) -0.8543(10) 0.1168(3)
Yb1I Yb -1.104923(60) -0.782967(50) -0.087124(16)
Yb1J Yb 0.321957(60) 0.104923(50) -0.087124(16)
Yb1K Yb -0.217033(60) -1.321957(50) -0.087124(16)
O15O O -0.755767(1600) -0.707633(1100) 0.118567(300)
O15P O 0.048133(1600) -0.244233(1100) 0.118567(300)
O15Q O -0.292367(1600) -1.048133(1100) 0.118567(300)
#END
