
#######################################################################
#
#                 Cambridge Crystallographic Data Centre
#                                CCDC
#
#######################################################################
#
# If this CIF has been generated from an entry in the Cambridge
# Structural Database, then it will include bibliographic, chemical,
# crystal, experimental, refinement or atomic coordinate data resulting
# from the CCDC's data processing and validation procedures.
#
#######################################################################

data_CSD_CIF_LICPAQ
_audit_creation_date 2013-05-26
_audit_creation_method CSD-ConQuest-V1
_database_code_CSD LICPAQ
_database_code_depnum_ccdc_archive 'CCDC 816063'
_chemical_formula_sum 'C37 H33 Ag5 N12 O14'
_chemical_formula_moiety
;
(C10 H8 Ag1 N2 1+)n,n(C7 H5 Ag1 N2),n(C20 H16 Ag3 N8 O12 1-),2n(H2 O1)
;
_journal_coden_Cambridge 1350
_journal_volume 13
_journal_year 2011
_journal_page_first 6345
_journal_name_full 'CrystEngComm '
loop_
_publ_author_name
"Song-Liang Cai"
"Sheng-Run Zheng"
"Jing-Bo Tan"
"Mei Pan"
"Jun Fan"
"Wei-Guang Zhang"
_chemical_name_systematic
;
catena-[((\m~2~-4,4'-Bipyridine)-silver(i)) 
(\m~2~-1H-benzimidazol-1-yl)-silver(i) 
(bis(\m~2~-4,4'-bipyridine)-bis(\m~2~-nitrato-O:O',O'')-bis(nitrato-O,O')-tri-
silver(i)) dihydrate]
;
_cell_volume   4215.466
_exptl_crystal_colour 'colorless'
_exptl_crystal_density_diffrn 2.22
_exptl_crystal_description 'block'
_diffrn_ambient_temperature 298
#These two values have been output from a single CSD field.
_refine_ls_R_factor_gt 0.1085
_refine_ls_wR_factor_gt 0.1085
_symmetry_cell_setting orthorhombic
_symmetry_space_group_name_H-M 'P n n a'
_symmetry_Int_Tables_number 52
loop_
_symmetry_equiv_pos_site_id
_symmetry_equiv_pos_as_xyz
1 x,y,z
2 1/2-x,-y,z
3 1/2-x,1/2+y,1/2-z
4 x,1/2-y,1/2-z
5 -x,-y,-z
6 -1/2+x,y,-z
7 -1/2+x,-1/2-y,-1/2+z
8 -x,-1/2+y,-1/2+z
_cell_length_a 17.835(4)
_cell_length_b 12.421(3)
_cell_length_c 19.029(4)
_cell_angle_alpha 90
_cell_angle_beta 90
_cell_angle_gamma 90
_cell_formula_units_Z 4
loop_
_atom_type_symbol
_atom_type_radius_bond
C 0.68
H 0.23
Ag 1.45
N 0.68
O 0.68
loop_
_atom_site_label
_atom_site_type_symbol
_atom_site_fract_x
_atom_site_fract_y
_atom_site_fract_z
Ag1 Ag 1.01056(6) 0.29352(8) 0.61135(5)
N1 N 1.0025(6) 0.1948(8) 0.5195(5)
C1 C 0.9957(6) 0.0618(9) 0.4002(5)
C2 C 0.9934(6) -0.0078(9) 0.3364(5)
C3 C 1.0564(6) -0.0277(11) 0.2989(6)
H1 H 1.10220 -0.00160 0.31500
C4 C 0.9255(7) -0.0512(9) 0.3097(6)
H2 H 0.88040 -0.04060 0.33330
C5 C 1.0607(7) 0.0693(9) 0.4409(5)
H3 H 1.10250 0.02790 0.42990
C6 C 0.9388(7) 0.1852(8) 0.4808(6)
H4 H 0.89660 0.22390 0.49460
C7 C 0.9340(7) 0.1209(9) 0.4222(6)
H5 H 0.88930 0.11690 0.39730
C8 C 1.0623(7) 0.1378(9) 0.4972(6)
H6 H 1.10730 0.14560 0.52140
C9 C 0.9276(7) -0.1077(9) 0.2498(5)
H7 H 0.88280 -0.13580 0.23280
N2 N 0.9905(6) -0.1264(8) 0.2125(5)
C10 C 1.0541(6) -0.0853(11) 0.2376(6)
H8 H 1.09840 -0.09610 0.21280
Ag2 Ag 0.75000 0.50000 0.4905(2)
O1 O 0.8577(8) 0.4109(10) 0.5432(7)
O2 O 0.8325(9) 0.7496(11) 0.3758(6)
O3 O 0.8510(9) 0.6187(11) 0.4352(8)
N3 N 0.8031(9) 0.6769(11) 0.4082(7)
O4 O 0.7388(8) 0.6694(13) 0.4094(9)
N4 N 0.8241(10) 0.3538(11) 0.5894(7)
O5 O 0.8595(11) 0.2910(13) 0.6274(9)
O6 O 0.7538(8) 0.3578(15) 0.599(1)
Ag3 Ag 1.00000 0.50000 0.50000
N5 N 0.9961(6) 0.5890(9) 0.5965(5)
C11 C 0.9949(6) 0.7187(9) 0.7183(5)
C12 C 0.9299(8) 0.7043(11) 0.6766(6)
H9 H 0.88550 0.73910 0.68840
C13 C 1.0585(7) 0.666(1) 0.6941(5)
H10 H 1.10360 0.67410 0.71810
C14 C 0.9326(8) 0.6380(11) 0.6179(6)
H11 H 0.88880 0.62700 0.59230
C15 C 1.0559(8) 0.6021(10) 0.6354(6)
H12 H 1.09930 0.56580 0.62250
Ag4 Ag 1.25957(8) 0.25000 0.25000
C16 C 1.2514(7) 0.4402(13) 0.1399(11)
N6 N 1.2523(6) 0.4094(8) 0.2080(7)
C17 C 1.2525(9) 0.3830(18) 0.0819(10)
H13 H 1.25350 0.30820 0.08280
C18 C 1.25000 0.50000 0.2458(11)
H14 H 1.25000 0.50000 0.29460
C19 C 1.2523(10) 0.441(3) 0.0180(16)
H15 H 1.25490 0.40370 -0.02440
O7 O 1.2821(10) 0.1297(18) 0.6931(11)
Ag1A Ag 0.48944(6) 0.70648(8) 0.61135(5)
N1A N 0.4975(6) 0.8052(8) 0.5195(5)
C1A C 0.5043(6) 0.9382(9) 0.4002(5)
C2A C 0.5066(6) 1.0078(9) 0.3364(5)
C3A C 0.4436(6) 1.0277(11) 0.2989(6)
H1A H 0.39780 1.00160 0.31500
C4A C 0.5745(7) 1.0512(9) 0.3097(6)
H2A H 0.61960 1.04060 0.33330
C5A C 0.4393(7) 0.9307(9) 0.4409(5)
H3A H 0.39750 0.97210 0.42990
C6A C 0.5612(7) 0.8148(8) 0.4808(6)
H4A H 0.60340 0.77610 0.49460
C7A C 0.5660(7) 0.8791(9) 0.4222(6)
H5A H 0.61070 0.88310 0.39730
C8A C 0.4377(7) 0.8622(9) 0.4972(6)
H6A H 0.39270 0.85440 0.52140
C9A C 0.5724(7) 1.1077(9) 0.2498(5)
H7A H 0.61720 1.13580 0.23280
N2A N 0.5095(6) 1.1264(8) 0.2125(5)
C10A C 0.4459(6) 1.0853(11) 0.2376(6)
H8A H 0.40160 1.09610 0.21280
O1A O 0.6423(8) 0.5891(10) 0.5432(7)
O2A O 0.6675(9) 0.2504(11) 0.3758(6)
O3A O 0.6490(9) 0.3813(11) 0.4352(8)
N3A N 0.6969(9) 0.3231(11) 0.4082(7)
O4A O 0.7612(8) 0.3306(13) 0.4094(9)
N4A N 0.6759(10) 0.6462(11) 0.5894(7)
O5A O 0.6405(11) 0.7090(13) 0.6274(9)
O6A O 0.7462(8) 0.6422(15) 0.599(1)
Ag1F Ag 0.51056(6) 1.20648(8) 0.11135(5)
Ag1G Ag 0.98944(6) -0.20648(8) 0.11135(5)
N2F N 0.4905(6) 0.6264(8) 0.7125(5)
N2G N 1.0095(6) 0.3736(8) 0.7125(5)
N5C N 0.9961(6) 0.9110(9) 0.9035(5)
C11C C 0.9949(6) 0.7813(9) 0.7817(5)
C12C C 0.9299(8) 0.7957(11) 0.8234(6)
H9C H 0.88550 0.76090 0.81160
C13C C 1.0585(7) 0.834(1) 0.8059(5)
H10C H 1.10360 0.82590 0.78190
C14C C 0.9326(8) 0.8620(11) 0.8821(6)
H11C H 0.88880 0.87300 0.90770
C15C C 1.0559(8) 0.8979(10) 0.8646(6)
H12C H 1.09930 0.93420 0.87750
Ag3C Ag 1.00000 1.00000 1.00000
N5D N 1.0039(6) 0.4110(9) 0.4035(5)
C16A C 1.2486(7) 0.5598(13) 0.1399(11)
N6A N 1.2477(6) 0.5906(8) 0.2080(7)
C17A C 1.2475(9) 0.6170(18) 0.0819(10)
H13A H 1.24650 0.69180 0.08280
C19A C 1.2477(10) 0.559(3) 0.0180(16)
H15A H 1.24510 0.59630 -0.02440
Ag4A Ag 1.24043(8) 0.75000 0.25000
N6C N 1.2523(6) 0.0906(8) 0.2920(7)
#END
