
#######################################################################
#
#                 Cambridge Crystallographic Data Centre
#                                CCDC
#
#######################################################################
#
# If this CIF has been generated from an entry in the Cambridge
# Structural Database, then it will include bibliographic, chemical,
# crystal, experimental, refinement or atomic coordinate data resulting
# from the CCDC's data processing and validation procedures.
#
#######################################################################

data_CSD_CIF_LICTOG
_audit_creation_date 1995-05-18
_audit_creation_method CSD-ConQuest-V1
_database_code_CSD LICTOG
_chemical_formula_sum 'C12 H14 Ag1 N3 O5'
_chemical_formula_moiety
;
(C12 H8 Ag1 N2 O4 1-)n,n(H4 N1 1+),n(H2 O1)
;
_journal_coden_Cambridge 580
_journal_volume 13
_journal_year 1994
_journal_page_first 2425
_journal_name_full 'Polyhedron '
loop_
_publ_author_name
"G.Smith"
"A.N.Reddy"
"K.A.Byriel"
"C.H.L.Kennard"
_chemical_name_systematic
;
catena-(Ammonium bis(pyridine-3-carboxylato-O,N,N')-silver(i) monohydrate)
;
_cell_volume    683.227
_exptl_crystal_colour 'colorless'
_exptl_crystal_density_diffrn 1.887
_diffrn_ambient_temperature ?
_diffrn_special_details
;
The study was carried out at room temperature,in the range 283-303K

;
#These two values have been output from a single CSD field.
_refine_ls_R_factor_gt 0.027
_refine_ls_wR_factor_gt 0.027
_symmetry_cell_setting triclinic
_symmetry_space_group_name_H-M 'P -1'
_symmetry_Int_Tables_number 2
loop_
_symmetry_equiv_pos_site_id
_symmetry_equiv_pos_as_xyz
1 x,y,z
2 -x,-y,-z
_cell_length_a 8.2053(6)
_cell_length_b 8.3916(6)
_cell_length_c 11.4902(9)
_cell_angle_alpha 75.854(6)
_cell_angle_beta 82.468(6)
_cell_angle_gamma 62.976(5)
_cell_formula_units_Z 2
loop_
_atom_type_symbol
_atom_type_radius_bond
C 0.68
H 0.23
Ag 1.59
N 0.68
O 0.68
loop_
_atom_site_label
_atom_site_type_symbol
_atom_site_fract_x
_atom_site_fract_y
_atom_site_fract_z
Ag1 Ag 0.5047(1) 0.4487(1) 0.3507(1)
N1 N 0.7686(4) 0.3712(4) 0.2431(3)
C1 C 0.8658(5) 0.4686(5) 0.2222(3)
C2 C 1.0339(4) 0.4158(5) 0.1623(3)
C3 C 1.1063(5) 0.2525(5) 0.1243(3)
C4 C 1.0091(5) 0.1501(6) 0.1460(4)
C5 C 0.8414(5) 0.2145(5) 0.2046(3)
C6 C 1.1315(4) 0.5375(5) 0.1393(3)
O1 O 1.2904(4) 0.4733(4) 0.0920(3)
O2 O 1.0533(4) 0.6875(4) 0.1676(3)
N2 N 0.3377(4) 0.2872(4) 0.4035(2)
C7 C 0.3804(4) 0.1379(5) 0.3619(3)
C8 C 0.3139(4) 0.0113(4) 0.4111(3)
C9 C 0.1924(5) 0.0427(5) 0.5074(3)
C10 C 0.1402(5) 0.2015(5) 0.5504(3)
C11 C 0.2177(4) 0.3173(5) 0.4980(3)
C12 C 0.3782(4) -0.1625(5) 0.3638(3)
O3 O 0.4689(4) -0.1713(4) 0.2667(2)
O4 O 0.3375(4) -0.2834(3) 0.4247(2)
N3 N 1.5680(5) 0.2718(5) -0.0552(3)
O5 O 0.2966(5) 0.0567(4) 0.8830(3)
H1 H 0.8192(50) 0.5719(55) 0.2477(33)
H2 H 1.2269(59) 0.2001(58) 0.0817(37)
H3 H 1.0495(62) 0.0473(64) 0.1285(39)
H4 H 0.7743(52) 0.1497(54) 0.2250(34)
H5 H 0.4673(53) 0.1158(54) 0.2905(37)
H6 H 0.1437(46) -0.0450(48) 0.5407(30)
H7 H 0.0564(56) 0.2206(56) 0.6130(39)
H8 H 0.1741(53) 0.4450(58) 0.5196(35)
H9 H 1.6331(71) 0.1550(79) -0.0009(49)
H10 H 1.5603(66) 0.2532(68) -0.1258(49)
H11 H 1.6394(67) 0.3274(68) -0.0696(42)
H12 H 1.4828(72) 0.3088(67) -0.0246(44)
H13 H 0.3580(85) 0.0964(82) 0.8398(56)
H14 H 0.2063(85) 0.1211(84) 0.8649(51)
O4* O 0.3375(4) 0.7166(3) 0.4247(2)
Ag1* Ag 0.5047(1) -0.5513(1) 0.3507(1)
#END
