
#######################################################################
#
#                 Cambridge Crystallographic Data Centre
#                                CCDC
#
#######################################################################
#
# If this CIF has been generated from an entry in the Cambridge
# Structural Database, then it will include bibliographic, chemical,
# crystal, experimental, refinement or atomic coordinate data resulting
# from the CCDC's data processing and validation procedures.
#
#######################################################################

data_CSD_CIF_LIFCIP
_audit_creation_date 2018-05-16
_audit_creation_method CSD-ConQuest-V1
_database_code_CSD LIFCIP
_database_code_depnum_ccdc_archive 'CCDC 1554519'
_chemical_formula_sum 'C20 H19 Cl4 Lu1 N4'
_chemical_formula_moiety
;
(C10 H8 Cl4 Lu1 N2 1-)n,C5 H6 N1 1+,C5 H5 N1
;
_journal_coden_Cambridge 222
_journal_volume 47
_journal_year 2018
_journal_page_first 7669
_journal_name_full 'Dalton Trans. '
loop_
_publ_author_name
"J.R.Sorg"
"T.Wehner"
"P.R.Matthes"
"R.Sure"
"S.Grimme"
"J.Heine"
"K.Muller-Buschbaum"
_chemical_name_systematic
;
catena-[pyridinium (\m-4,4'-bipyridine)-tetrachloro-lutetium(iii) pyridine 
solvate]
;
_cell_volume   2234.051
_exptl_crystal_colour 'colorless'
_exptl_crystal_density_diffrn 1.88
_exptl_crystal_description 'block'
_diffrn_ambient_temperature 100
#These two values have been output from a single CSD field.
_refine_ls_R_factor_gt 0.0177
_refine_ls_wR_factor_gt 0.0177
_symmetry_cell_setting monoclinic
_symmetry_space_group_name_H-M 'C 2/c'
_symmetry_Int_Tables_number 15
loop_
_symmetry_equiv_pos_site_id
_symmetry_equiv_pos_as_xyz
1 x,y,z
2 -x,y,1/2-z
3 1/2+x,1/2+y,z
4 1/2-x,1/2+y,1/2-z
5 -x,-y,-z
6 x,-y,-1/2+z
7 -1/2-x,-1/2-y,-z
8 -1/2+x,-1/2-y,-1/2+z
_cell_length_a 14.516(3)
_cell_length_b 12.071(2)
_cell_length_c 13.240(3)
_cell_angle_alpha 90
_cell_angle_beta 105.64(3)
_cell_angle_gamma 90
_cell_formula_units_Z 4
loop_
_atom_type_symbol
_atom_type_radius_bond
C 0.68
H 0.23
Cl 0.99
Lu 1.87
N 0.68
loop_
_atom_site_label
_atom_site_type_symbol
_atom_site_fract_x
_atom_site_fract_y
_atom_site_fract_z
Lu1 Lu 0.00000 0.27378(2) 0.25000
Cl1 Cl 0.18086(4) 0.27293(5) 0.26964(5)
Cl2 Cl -0.02531(4) 0.27068(5) 0.05122(5)
N1 N 0.00000 0.4770(2) 0.25000
N2 N 0.00000 1.0693(2) 0.25000
C1 C 0.00000 0.7123(3) 0.25000
C2 C -0.08073(17) 0.5368(2) 0.2387(2)
H1 H -0.13916 0.49772 0.23007
C3 C 0.00000 0.8356(3) 0.25000
C4 C 0.07238(16) 1.01107(19) 0.23120(19)
H2 H 0.12466 1.05052 0.21824
C5 C -0.08379(16) 0.6513(2) 0.2389(2)
H3 H -0.14294 0.68842 0.23158
C6 C 0.07478(16) 0.89643(19) 0.22972(19)
H4 H 0.12731 0.85921 0.21490
N3 N 0.25994(15) 0.35790(18) 0.00984(17)
H5 H 0.25336 0.28545 0.00541
C7 C 0.3487(2) 0.5187(2) -0.0032(2)
H6 H 0.40361 0.55169 -0.01657
C8 C 0.2017(2) 0.5329(3) 0.0430(2)
H7 H 0.15414 0.57603 0.06182
C9 C 0.2802(2) 0.5832(2) 0.0226(2)
H8 H 0.28694 0.66146 0.02627
C10 C 0.1935(2) 0.4197(2) 0.0357(2)
H9 H 0.13942 0.38470 0.04927
C11 C 0.3364(2) 0.4059(2) -0.0093(2)
H10 H 0.38331 0.36109 -0.02749
C2A C 0.08073(17) 0.5368(2) 0.2613(2)
H1A H 0.13916 0.49772 0.26993
C4A C -0.07238(16) 1.01107(19) 0.26880(19)
H2A H -0.12466 1.05052 0.28176
C5A C 0.08379(16) 0.6513(2) 0.2611(2)
H3A H 0.14294 0.68842 0.26843
C6A C -0.07478(16) 0.89643(19) 0.27028(19)
H4A H -0.12731 0.85921 0.28510
Cl1A Cl -0.18086(4) 0.27293(5) 0.23036(5)
Cl2A Cl 0.02531(4) 0.27068(5) 0.44878(5)
Lu1* Lu 0.00000 1.27378(2) 0.25000
N2* N 0.00000 0.0693(2) 0.25000
#END
