
#######################################################################
#
#                 Cambridge Crystallographic Data Centre
#                                CCDC
#
#######################################################################
#
# If this CIF has been generated from an entry in the Cambridge
# Structural Database, then it will include bibliographic, chemical,
# crystal, experimental, refinement or atomic coordinate data resulting
# from the CCDC's data processing and validation procedures.
#
#######################################################################

data_CSD_CIF_LIFCEL
_audit_creation_date 2018-05-16
_audit_creation_method CSD-ConQuest-V1
_database_code_CSD LIFCEL
_database_code_depnum_ccdc_archive 'CCDC 1554516'
_chemical_formula_sum 'C20 H19 Cl4 N4 Tb1'
_chemical_formula_moiety
;
(C10 H8 Cl4 N2 Tb1 1-)n,C5 H6 N1 1+,C5 H5 N1
;
_journal_coden_Cambridge 222
_journal_volume 47
_journal_year 2018
_journal_page_first 7669
_journal_name_full 'Dalton Trans. '
loop_
_publ_author_name
"J.R.Sorg"
"T.Wehner"
"P.R.Matthes"
"R.Sure"
"S.Grimme"
"J.Heine"
"K.Muller-Buschbaum"
_chemical_name_systematic
;
catena-[pyridinium (\m-4,4'-bipyridine)-tetrachloro-terbium(iii) pyridine 
solvate]
;
_cell_volume   2221.787
_exptl_crystal_colour 'colorless'
_exptl_crystal_density_diffrn 1.842
_exptl_crystal_description 'block'
_diffrn_ambient_temperature 173.2
#These two values have been output from a single CSD field.
_refine_ls_R_factor_gt 0.0169
_refine_ls_wR_factor_gt 0.0169
_symmetry_cell_setting monoclinic
_symmetry_space_group_name_H-M 'C 2/c'
_symmetry_Int_Tables_number 15
loop_
_symmetry_equiv_pos_site_id
_symmetry_equiv_pos_as_xyz
1 x,y,z
2 -x,y,1/2-z
3 1/2+x,1/2+y,z
4 1/2-x,1/2+y,1/2-z
5 -x,-y,-z
6 x,-y,-1/2+z
7 -1/2-x,-1/2-y,-z
8 -1/2+x,-1/2-y,-1/2+z
_cell_length_a 14.5387(4)
_cell_length_b 12.2326(3)
_cell_length_c 13.1136(4)
_cell_angle_alpha 90
_cell_angle_beta 107.701(1)
_cell_angle_gamma 90
_cell_formula_units_Z 4
loop_
_atom_type_symbol
_atom_type_radius_bond
C 0.68
H 0.23
Cl 0.99
N 0.68
Tb 1.94
loop_
_atom_site_label
_atom_site_type_symbol
_atom_site_fract_x
_atom_site_fract_y
_atom_site_fract_z
Tb1 Tb 0.50000 0.76661(2) 0.25000
Cl1 Cl 0.68538(3) 0.76649(3) 0.27022(4)
Cl2 Cl 0.52951(3) 0.76173(3) 0.45743(3)
N1 N 0.50000 0.55921(16) 0.25000
N2 N 0.50000 -0.02556(16) 0.25000
C1 C 0.50000 0.20605(19) 0.25000
C2 C 0.50000 0.32788(19) 0.25000
C3 C 0.42609(12) 0.38754(14) 0.27139(14)
H1 H 0.37450 0.35070 0.28710
C4 C 0.41711(12) 0.14599(15) 0.24573(14)
H2 H 0.35890 0.18270 0.24330
C5 C 0.42832(12) 0.50109(14) 0.26952(14)
H3 H 0.37650 0.53990 0.28270
C6 C 0.42006(12) 0.03267(15) 0.24506(14)
H4 H 0.36240 -0.00610 0.24090
N3 N 0.74291(10) 0.35585(13) 0.49205(11)
H5 H 0.74740 0.28410 0.49540
C7 C 0.66837(14) 0.40570(15) 0.51201(15)
H6 H 0.62080 0.36300 0.52960
C8 C 0.65927(15) 0.51806(16) 0.50749(15)
H7 H 0.60570 0.55260 0.52110
C9 C 0.81084(14) 0.41453(16) 0.46700(15)
H8 H 0.86330 0.37800 0.45270
C10 C 0.72947(15) 0.57959(16) 0.48277(14)
H9 H 0.72520 0.65710 0.48040
C11 C 0.80603(15) 0.52708(16) 0.46154(15)
H10 H 0.85450 0.56790 0.44350
C3A C 0.57391(12) 0.38754(14) 0.22861(14)
H1A H 0.62550 0.35070 0.21290
C4A C 0.58289(12) 0.14599(15) 0.25427(14)
H2A H 0.64110 0.18270 0.25670
C5A C 0.57168(12) 0.50109(14) 0.23048(14)
H3A H 0.62350 0.53990 0.21730
C6A C 0.57994(12) 0.03267(15) 0.25494(14)
H4A H 0.63760 -0.00610 0.25910
Cl1A Cl 0.31462(3) 0.76649(3) 0.22978(4)
Cl2A Cl 0.47049(3) 0.76173(3) 0.04257(3)
Tb1* Tb 0.50000 -0.23339(2) 0.25000
N2* N 0.50000 0.97444(16) 0.25000
#END
