
#######################################################################
#
#                 Cambridge Crystallographic Data Centre
#                                CCDC
#
#######################################################################
#
# If this CIF has been generated from an entry in the Cambridge
# Structural Database, then it will include bibliographic, chemical,
# crystal, experimental, refinement or atomic coordinate data resulting
# from the CCDC's data processing and validation procedures.
#
#######################################################################

data_CSD_CIF_LIFCOV
_audit_creation_date 2018-05-16
_audit_creation_method CSD-ConQuest-V1
_database_code_CSD LIFCOV
_database_code_depnum_ccdc_archive 'CCDC 1554521'
_chemical_formula_sum 'C60 H52 Cl8 N12 Sm2'
_chemical_formula_moiety
;
(C30 H24 Cl8 N6 Sm2 2-)n,2(C10 H8 N2),2(C5 H6 N1 1+)
;
_journal_coden_Cambridge 222
_journal_volume 47
_journal_year 2018
_journal_page_first 7669
_journal_name_full 'Dalton Trans. '
loop_
_publ_author_name
"J.R.Sorg"
"T.Wehner"
"P.R.Matthes"
"R.Sure"
"S.Grimme"
"J.Heine"
"K.Muller-Buschbaum"
_chemical_name_systematic
;
catena-[bis(pyridinium) tris(4,4'-bipyridine)-octachloro-di-samarium(iii) 
4,4'-bipyridine solvate]
;
_cell_volume   3027.390
_exptl_crystal_colour 'colorless'
_exptl_crystal_density_diffrn 1.673
_exptl_crystal_description 'block'
_diffrn_ambient_temperature 296.1
_refine_special_details
;
C21B,C22B,C23B,C24B,C25B,C26B,C27B,C28B,C29B,C30B,N5B,N6B and 
C21A,C22A,C23A,C24A,C25A,C26A,C27A,C28A,C29A,C30A,N5A,N6A disordered over two 
sites with occupancies 0.5:0.5.
;
#These two values have been output from a single CSD field.
_refine_ls_R_factor_gt 0.0334
_refine_ls_wR_factor_gt 0.0334
_symmetry_cell_setting monoclinic
_symmetry_space_group_name_H-M 'P 21/c'
_symmetry_Int_Tables_number 14
loop_
_symmetry_equiv_pos_site_id
_symmetry_equiv_pos_as_xyz
1 x,y,z
2 -x,1/2+y,1/2-z
3 -x,-y,-z
4 x,-1/2-y,-1/2+z
_cell_length_a 8.7594(4)
_cell_length_b 20.0090(9)
_cell_length_c 17.2945(8)
_cell_angle_alpha 90
_cell_angle_beta 92.855(1)
_cell_angle_gamma 90
_cell_formula_units_Z 2
loop_
_atom_type_symbol
_atom_type_radius_bond
C 0.68
H 0.23
Cl 0.99
N 0.68
Sm 1.98
loop_
_atom_site_label
_atom_site_type_symbol
_atom_site_fract_x
_atom_site_fract_y
_atom_site_fract_z
Sm1 Sm 0.51834(2) 0.69702(2) 0.34988(2)
Cl1 Cl 0.59441(8) 0.62008(4) 0.22923(4)
Cl2 Cl 0.33416(8) 0.60900(4) 0.41557(4)
Cl3 Cl 0.34417(8) 0.79077(3) 0.41905(4)
Cl4 Cl 0.65031(8) 0.79513(4) 0.27062(4)
N1 N 0.7027(3) 0.74912(12) 0.45471(13)
N2 N 0.7239(3) 0.61082(12) 0.41130(14)
N3 N 1.2921(3) 0.78568(12) 0.74948(13)
C1 C 0.7181(3) 0.59199(16) 0.48524(18)
H1 H 0.63890 0.60859 0.51355
C2 C 0.8508(3) 0.75532(16) 0.43886(16)
H2 H 0.87616 0.75457 0.38728
C3 C 1.3215(3) 0.77739(16) 0.67479(16)
H3 H 1.42306 0.77637 0.66153
C4 C 0.6701(3) 0.75338(16) 0.52905(16)
H4 H 0.56812 0.75099 0.54135
C5 C 1.1444(3) 0.78584(15) 0.76692(16)
H5 H 1.12116 0.79079 0.81849
C6 C 0.8408(3) 0.58633(16) 0.37271(18)
H6 H 0.84850 0.59865 0.32121
C7 C 0.9326(3) 0.76469(14) 0.57246(15)
C8 C 1.0250(3) 0.77903(16) 0.71209(16)
H7 H 0.92449 0.77951 0.72704
C9 C 1.0561(3) 0.77143(14) 0.63426(16)
C10 C 1.2092(3) 0.77027(16) 0.61633(16)
H8 H 1.23577 0.76473 0.56533
C11 C 0.9431(3) 0.52358(15) 0.48192(18)
C12 C 0.7795(3) 0.76114(16) 0.58895(17)
H9 H 0.75048 0.76395 0.63985
C13 C 0.9670(3) 0.76273(16) 0.49481(16)
H10 H 1.06775 0.76639 0.48079
C14 C 0.8225(4) 0.54931(16) 0.52241(18)
H11 H 0.81225 0.53790 0.57402
C15 C 0.9504(3) 0.54380(16) 0.40537(18)
H12 H 1.02933 0.52863 0.37593
N4 N 0.4716(4) 0.54974(14) 0.76032(16)
H13 H 0.52063 0.53824 0.80254
C16 C 0.5162(5) 0.52488(18) 0.6929(2)
H14 H 0.59830 0.49544 0.69223
C17 C 0.4402(5) 0.5432(2) 0.6255(2)
H15 H 0.47092 0.52643 0.57855
C18 C 0.3180(6) 0.5864(2) 0.6268(2)
H16 H 0.26553 0.59913 0.58106
C19 C 0.3543(5) 0.59143(17) 0.7640(2)
H17 H 0.32653 0.60752 0.81174
C20 C 0.2742(5) 0.61083(18) 0.6981(2)
H18 H 0.19173 0.63988 0.70059
C21 C 0.7664(7) 0.5671(3) -0.0058(4)
H19 H 0.81376 0.60475 0.01587
C22 C 0.6743(7) 0.5725(3) -0.0720(4)
H20 H 0.66155 0.61457 -0.09420
C23 C 0.7088(8) 0.4509(3) -0.0059(4)
H21 H 0.71746 0.40827 0.01524
C24 C 0.6181(8) 0.4620(4) -0.0715(4)
H22 H 0.56401 0.42595 -0.09291
C25 C 0.9686(8) 0.4363(4) 0.1140(4)
H23 H 0.95149 0.39977 0.08141
C26 C 1.0702(9) 0.4309(4) 0.1774(4)
H24 H 1.11984 0.39025 0.18595
C27 C 0.9238(8) 0.5475(4) 0.1498(4)
H25 H 0.87522 0.58854 0.14254
C28 C 1.0278(8) 0.5386(4) 0.2119(5)
H26 H 1.04742 0.57484 0.24451
N5 N 0.6023(14) 0.5213(6) -0.1065(5)
N6 N 1.1018(12) 0.4817(6) 0.2283(6)
C29 C 0.7883(13) 0.5045(6) 0.0286(5)
C30 C 0.8921(12) 0.4960(6) 0.0986(6)
C31? C 0.7270(7) 0.5559(3) 0.0339(4)
H27? H 0.73331 0.58946 0.07120
C32? C 0.6376(8) 0.5650(3) -0.0331(4)
H28? H 0.58720 0.60555 -0.04052
C33? C 0.7859(8) 0.4474(4) -0.0098(4)
H29? H 0.83405 0.40622 -0.00309
C34? C 0.6925(8) 0.4597(4) -0.0750(4)
H30? H 0.67951 0.42577 -0.11152
C35? C 0.9911(8) 0.5421(4) 0.1493(5)
H31? H 0.97330 0.58510 0.13060
C36? C 0.9494(8) 0.4245(4) 0.1458(4)
H32? H 0.90328 0.38621 0.12496
C37? C 1.0532(9) 0.4202(4) 0.2094(4)
H33? H 1.07325 0.37796 0.22983
N7? N 0.6196(13) 0.5178(7) -0.0886(5)
C38? C 1.0908(9) 0.5313(5) 0.2115(5)
H34? H 1.13875 0.56849 0.23394
N8? N 1.1251(12) 0.4710(5) 0.2430(6)
C39? C 0.8073(13) 0.4971(6) 0.0458(5)
C40? C 0.9159(12) 0.4871(6) 0.1141(6)
N2B N 1.2761(3) 0.38918(12) 0.58870(14)
C1B C 1.2819(3) 0.40801(16) 0.51476(18)
H1B H 1.36110 0.39141 0.48645
C6B C 1.1592(3) 0.41367(16) 0.62729(18)
H6B H 1.15150 0.40135 0.67879
C11B C 1.0569(3) 0.47642(15) 0.51808(18)
C14B C 1.1775(4) 0.45069(16) 0.47759(18)
H11B H 1.18775 0.46210 0.42598
C15B C 1.0496(3) 0.45620(16) 0.59463(18)
H12B H 0.97067 0.47137 0.62407
Sm1B Sm 1.48166(2) 0.30298(2) 0.65012(2)
Cl1B Cl 1.40559(8) 0.37992(4) 0.77077(4)
Cl2B Cl 1.66584(8) 0.39100(4) 0.58443(4)
Cl3B Cl 1.65583(8) 0.20923(3) 0.58095(4)
Cl4B Cl 1.34969(8) 0.20487(4) 0.72938(4)
N1B N 1.2973(3) 0.25088(12) 0.54529(13)
N3B N 0.7079(3) 0.21432(12) 0.25052(13)
C2B C 1.1492(3) 0.24468(16) 0.56114(16)
H2B H 1.12384 0.24543 0.61272
C3B C 0.6785(3) 0.22261(16) 0.32521(16)
H3B H 0.57694 0.22363 0.33847
C4B C 1.3299(3) 0.24662(16) 0.47095(16)
H4B H 1.43188 0.24901 0.45865
C5B C 0.8556(3) 0.21416(15) 0.23308(16)
H5B H 0.87884 0.20921 0.18151
C7B C 1.0674(3) 0.23531(14) 0.42754(15)
C8B C 0.9750(3) 0.22097(16) 0.28791(16)
H7B H 1.07551 0.22049 0.27296
C9B C 0.9439(3) 0.22857(14) 0.36574(16)
C10B C 0.7908(3) 0.22973(16) 0.38367(16)
H8B H 0.76423 0.23527 0.43467
C12B C 1.2205(3) 0.23886(16) 0.41105(17)
H9B H 1.24952 0.23605 0.36015
C13B C 1.0330(3) 0.23727(16) 0.50519(16)
H10B H 0.93225 0.23361 0.51921
Sm1A Sm 0.48166(2) 0.19702(2) 0.15012(2)
Sm1C Sm 1.51834(2) 0.80298(2) 0.84988(2)
N3A N 1.7079(3) 0.28568(12) 0.75052(13)
N3C N 0.2921(3) 0.71432(12) 0.24948(13)
#END
