
#######################################################################
#
#                 Cambridge Crystallographic Data Centre
#                                CCDC
#
#######################################################################
#
# If this CIF has been generated from an entry in the Cambridge
# Structural Database, then it will include bibliographic, chemical,
# crystal, experimental, refinement or atomic coordinate data resulting
# from the CCDC's data processing and validation procedures.
#
#######################################################################

data_CSD_CIF_LIFQEX
_audit_creation_date 2007-10-04
_audit_creation_method CSD-ConQuest-V1
_database_code_CSD LIFQEX
_database_code_depnum_ccdc_archive 'CCDC 604132'
_chemical_formula_sum 'C8 H13 Ag4 Mo12 N16 O40 P1'
_chemical_formula_moiety
;
(H1 Mo12 O40 P1 4-)n,n(C8 H12 Ag4 N16 4+)
;
_journal_coden_Cambridge 9
_journal_volume 46
_journal_year 2007
_journal_page_first 5046
_journal_name_full 'Inorg.Chem. '
loop_
_publ_author_name
"Quan-Guo Zhai"
"Xiao-Yuan Wu"
"Shu-Mei Chen"
"Zhen-Guo Zhao"
"Can-Zhong Lu"
_chemical_name_systematic
;
catena-[tetrakis(3-Amino-1,2,4-triazolato)-tetra-silver(i) 
(\m~12~-phosphato)-(\m~2~-hydroxo)-tricosa(\m~2~-oxo)-dodecaoxo-di-molybdenum(
v)-deca-molybdenum(vi)]
;
_cell_volume   2370.405
_exptl_crystal_colour 'black'
_exptl_crystal_density_diffrn 3.623
_exptl_special_details
;
isostructural with the 3,5-dimethyl-4H-1,2,4-triazole analogue

;
_exptl_crystal_description 'prism'
_diffrn_ambient_temperature 293
_refine_special_details
;
The anion is partially disordered by symmetry.

;
#These two values have been output from a single CSD field.
_refine_ls_R_factor_gt 0.0522
_refine_ls_wR_factor_gt 0.0522
_symmetry_cell_setting monoclinic
_symmetry_space_group_name_H-M 'P 21/n'
_symmetry_Int_Tables_number 14
loop_
_symmetry_equiv_pos_site_id
_symmetry_equiv_pos_as_xyz
1 x,y,z
2 1/2-x,1/2+y,1/2-z
3 -x,-y,-z
4 -1/2+x,-1/2-y,-1/2+z
_cell_length_a 12.1848(7)
_cell_length_b 14.4015(8)
_cell_length_c 13.5158(9)
_cell_angle_alpha 90
_cell_angle_beta 91.926(3)
_cell_angle_gamma 90
_cell_formula_units_Z 2
loop_
_atom_type_symbol
_atom_type_radius_bond
C 0.68
H 0.23
Ag 1.59
Mo 1.37
N 0.68
O 0.68
P 1.05
loop_
_atom_site_label
_atom_site_type_symbol
_atom_site_fract_x
_atom_site_fract_y
_atom_site_fract_z
P1 P 0.50000 1.00000 1.00000
Ag1 Ag 0.06044(6) 0.88345(6) 1.22733(6)
Ag2 Ag 0.32133(6) 0.86040(5) 1.41348(6)
Mo1 Mo 0.62092(6) 0.78060(5) 1.05906(5)
Mo2 Mo 0.35390(5) 0.83522(5) 1.14250(5)
Mo3 Mo 0.39487(6) 0.79655(5) 0.88419(5)
Mo4 Mo 0.74206(6) 0.98798(6) 1.15420(6)
Mo5 Mo 0.75344(6) 0.93506(6) 0.89636(6)
Mo6 Mo 0.51758(6) 0.97031(5) 0.73838(5)
C1 C 0.0386(7) 0.7673(7) 0.9375(7)
C2 C 0.1971(8) 1.0351(6) 1.4680(7)
C3 C -0.0547(7) 0.7563(7) 1.0677(7)
H1 H -0.10790 0.73810 1.11150
N1 N 0.0997(6) 0.9661(5) 1.3519(5)
N2 N 0.1976(6) 0.9648(5) 1.4088(6)
N3 N -0.0506(6) 0.7245(5) 0.9737(6)
N4 N 0.0240(6) 0.8153(6) 1.0907(6)
N5 N 0.0826(6) 0.8228(6) 1.0068(6)
N6 N 0.0783(7) 0.7519(8) 0.8492(6)
H2 H 0.13780 0.77900 0.83230
H3 H 0.04470 0.71480 0.80850
C4 C 0.0464(8) 1.0368(8) 1.3794(8)
H4 H -0.02150 1.05440 1.35200
N7 N 0.2750(8) 1.0603(7) 1.5335(8)
H5 H 0.33430 1.02820 1.53990
H6 H 0.26620 1.10880 1.56950
N8 N 0.1001(7) 1.0835(7) 1.4532(7)
O1 O 0.6283(6) 0.9927(6) 1.2483(7)
O2 O 0.5198(5) 0.7488(6) 0.9489(5)
O3 O 0.3402(6) 0.7007(5) 0.8352(6)
O4 O 0.7990(9) 0.9786(6) 1.0280(5)
O5 O 0.6579(6) 0.9255(5) 0.7876(7)
O6 O 0.6776(5) 0.6779(5) 1.0844(5)
O7 O 0.4996(5) 0.7785(6) 1.1387(5)
O8 O 0.4295(6) 0.9094(5) 1.2458(7)
O9 O 0.2523(6) 0.9282(5) 1.1276(7)
O10 O 0.5225(7) 0.9555(5) 0.6176(5)
O11 O 0.8742(5) 0.9117(5) 0.8507(5)
O12 O 0.5698(8) 1.0158(7) 0.9095(7)
O13 O 0.8536(5) 0.9833(5) 1.2265(5)
O14 O 0.7016(9) 0.8587(7) 1.1426(5)
O15 O 0.7127(8) 0.8244(7) 0.9523(5)
O16 O 0.4670(5) 0.8465(5) 0.7821(7)
O17 O 0.2909(6) 0.7612(6) 1.2138(6)
O18 O 0.2745(5) 0.8831(6) 0.8614(7)
O19 O 0.3284(6) 0.7895(6) 1.0173(5)
O20 O 0.4750(8) 0.9002(7) 1.0141(7)
O21 O 0.4453(8) 0.9569(7) 0.9076(7)
O22 O 0.6118(8) 0.9445(7) 1.0188(7)
Ag1C Ag -0.43956(6) 0.61655(6) 0.72733(6)
Ag1C* Ag 0.56044(6) 0.61655(6) 1.72733(6)
Ag2C Ag -0.17867(6) 0.63960(5) 0.91348(6)
Mo1B Mo 0.37908(6) 1.21940(5) 0.94094(5)
Mo2B Mo 0.64610(5) 1.16478(5) 0.85750(5)
Mo3B Mo 0.60513(6) 1.20345(5) 1.11581(5)
Mo4B Mo 0.25794(6) 1.01202(6) 0.84580(6)
Mo5B Mo 0.24656(6) 1.06494(6) 1.10364(6)
Mo6B Mo 0.48242(6) 1.02969(5) 1.26162(5)
C1C C 0.5386(7) 0.7327(7) 1.4375(7)
C2C C -0.3029(8) 0.4649(6) 0.9680(7)
C3C C 0.4453(7) 0.7437(7) 1.5677(7)
H1C H 0.39210 0.76190 1.61150
N1C N -0.4003(6) 0.5339(5) 0.8519(5)
N2C N -0.3024(6) 0.5352(5) 0.9088(6)
N3C N 0.4494(6) 0.7755(5) 1.4737(6)
N4C N 0.5240(6) 0.6847(6) 1.5907(6)
N4C* N -0.4760(6) 0.6847(6) 0.5907(6)
N5C N 0.5826(6) 0.6772(6) 1.5068(6)
N6C N 0.5783(7) 0.7481(8) 1.3492(6)
H2C H 0.63780 0.72100 1.33230
H3C H 0.54470 0.78520 1.30850
C4C C -0.4536(8) 0.4632(8) 0.8794(8)
H4C H -0.52150 0.44560 0.85200
N7C N -0.2250(8) 0.4397(7) 1.0335(8)
H5C H -0.16570 0.47180 1.03990
H6C H -0.23380 0.39120 1.06950
N8C N -0.3999(7) 0.4165(7) 0.9532(7)
O1B O 0.3717(6) 1.0073(6) 0.7517(7)
O2B O 0.4802(5) 1.2512(6) 1.0511(5)
O3B O 0.6598(6) 1.2993(5) 1.1648(6)
O4B O 0.2010(9) 1.0214(6) 0.9720(5)
O5B O 0.3421(6) 1.0745(5) 1.2124(7)
O6B O 0.3224(5) 1.3221(5) 0.9156(5)
O7B O 0.5004(5) 1.2215(6) 0.8613(5)
O8B O 0.5705(6) 1.0906(5) 0.7542(7)
O9B O 0.7477(6) 1.0718(5) 0.8724(7)
O10B O 0.4775(7) 1.0445(5) 1.3824(5)
O11B O 0.1258(5) 1.0883(5) 1.1493(5)
O12B O 0.4302(8) 0.9842(7) 1.0905(7)
O13B O 0.1464(5) 1.0167(5) 0.7735(5)
O14B O 0.2984(9) 1.1413(7) 0.8574(5)
O15B O 0.2873(8) 1.1756(7) 1.0477(5)
O16B O 0.5330(5) 1.1535(5) 1.2179(7)
O17B O 0.7091(6) 1.2388(6) 0.7862(6)
O18B O 0.7255(5) 1.1169(6) 1.1386(7)
O19B O 0.6716(6) 1.2105(6) 0.9827(5)
O20B O 0.5250(8) 1.0998(7) 0.9859(7)
O21B O 0.5547(8) 1.0431(7) 1.0924(7)
O22B O 0.3882(8) 1.0555(7) 0.9812(7)
#END
