
#######################################################################
#
#                 Cambridge Crystallographic Data Centre
#                                CCDC
#
#######################################################################
#
# If this CIF has been generated from an entry in the Cambridge
# Structural Database, then it will include bibliographic, chemical,
# crystal, experimental, refinement or atomic coordinate data resulting
# from the CCDC's data processing and validation procedures.
#
#######################################################################

data_CSD_CIF_LIFQIB
_audit_creation_date 2007-10-04
_audit_creation_method CSD-ConQuest-V1
_database_code_CSD LIFQIB
_database_code_depnum_ccdc_archive 'CCDC 604133'
_chemical_formula_sum 'C16 H29 Ag4 Mo12 N12 O40 P1'
_chemical_formula_moiety
;
(H1 Mo12 O40 P1 4-)n,n(C16 H28 Ag4 N12 4+)
;
_journal_coden_Cambridge 9
_journal_volume 46
_journal_year 2007
_journal_page_first 5046
_journal_name_full 'Inorg.Chem. '
loop_
_publ_author_name
"Quan-Guo Zhai"
"Xiao-Yuan Wu"
"Shu-Mei Chen"
"Zhen-Guo Zhao"
"Can-Zhong Lu"
_chemical_name_systematic
;
catena-[tetrakis(3,5-Dimethyl-4H-1,2,4-triazole)-tetra-silver(i) 
(\m~12~-phosphato)-(\m~2~-hydroxo)-tricosa(\m~2~-oxo)-dodecaoxo-di-molybdenum(
v)-deca-molybdenum(vi)]
;
_cell_volume   2659.291
_exptl_crystal_colour 'black'
_exptl_crystal_density_diffrn 3.3
_exptl_special_details
;
isostructural with the 3-amino-1,2,4-triazolate analogue

;
_exptl_crystal_description 'Polyhedron'
_diffrn_ambient_temperature 293
_refine_special_details
;
The anion is partially disordered by symmetry.

;
#These two values have been output from a single CSD field.
_refine_ls_R_factor_gt 0.0367
_refine_ls_wR_factor_gt 0.0367
_symmetry_cell_setting monoclinic
_symmetry_space_group_name_H-M 'P 21/n'
_symmetry_Int_Tables_number 14
loop_
_symmetry_equiv_pos_site_id
_symmetry_equiv_pos_as_xyz
1 x,y,z
2 1/2-x,1/2+y,1/2-z
3 -x,-y,-z
4 -1/2+x,-1/2-y,-1/2+z
_cell_length_a 13.755(2)
_cell_length_b 13.589(2)
_cell_length_c 14.229(2)
_cell_angle_alpha 90
_cell_angle_beta 90.925(2)
_cell_angle_gamma 90
_cell_formula_units_Z 2
loop_
_atom_type_symbol
_atom_type_radius_bond
C 0.68
H 0.23
Ag 1.59
Mo 1.39
N 0.68
O 0.68
P 1.05
loop_
_atom_site_label
_atom_site_type_symbol
_atom_site_fract_x
_atom_site_fract_y
_atom_site_fract_z
P1 P 0.50000 1.50000 -0.50000
Mo1 Mo 0.37979(3) 1.32524(3) -0.64751(3)
Mo2 Mo 0.42194(4) 1.27250(3) -0.40463(3)
Mo3 Mo 0.46365(4) 1.55054(3) -0.74533(3)
Mo4 Mo 0.26295(4) 1.55221(4) -0.59063(4)
Mo5 Mo 0.62031(4) 1.27831(4) -0.56366(3)
Mo6 Mo 0.70233(4) 1.50651(4) -0.65294(3)
Ag1 Ag 0.87011(4) 1.67467(6) -0.27267(4)
Ag2 Ag 0.63988(3) 1.69240(4) -0.09518(3)
C1 C 0.8857(5) 1.7591(6) -0.6620(4)
H1 H 0.93970 1.77880 -0.69960
H2 H 0.85740 1.70020 -0.68770
H3 H 0.83790 1.81050 -0.66200
C2 C 0.8878(5) 1.5052(5) -0.1334(5)
C3 C 0.7620(5) 1.5110(4) -0.0412(4)
C4 C 1.0953(5) 1.7155(6) -0.3783(5)
H4 H 1.15180 1.73480 -0.41250
H5 H 1.10310 1.64910 -0.35650
H6 H 1.08730 1.75860 -0.32550
C5 C 0.6931(6) 1.4872(6) 0.0354(5)
H7 H 0.64190 1.53520 0.03600
H8 H 0.72720 1.48790 0.09480
H9 H 0.66570 1.42310 0.02470
C6 C 1.0083(4) 1.7218(4) -0.4408(4)
C7 C 0.9796(6) 1.4717(7) -0.1767(7)
H10 H 0.99730 1.51650 -0.22560
H11 H 0.97040 1.40710 -0.20280
H12 H 1.03030 1.46960 -0.12970
C8 C 0.9201(4) 1.7402(4) -0.5640(4)
N1 N 0.7570(3) 1.5867(3) -0.0979(3)
N2 N 0.8369(3) 1.5828(3) -0.1558(3)
N3 N 0.9201(4) 1.7005(4) -0.4141(3)
N4 N 0.8643(4) 1.7118(4) -0.4938(3)
H13 H 0.80260 1.70210 -0.49780
N5 N 0.8425(4) 1.4587(4) -0.0618(4)
H14 H 0.86160 1.40550 -0.03440
N6 N 1.0111(3) 1.7466(3) -0.5331(3)
O1 O 0.6746(6) 1.3689(4) -0.6459(3)
O2 O 0.4800(5) 1.3876(5) -0.5195(4)
O3 O 0.3213(4) 1.2476(3) -0.7194(3)
O4 O 0.5953(3) 1.5148(3) -0.7402(4)
O5 O 0.7961(3) 1.5102(4) -0.7240(4)
O6 O 0.3803(4) 1.1657(3) -0.3650(4)
O7 O 0.2784(4) 1.4178(3) -0.6219(4)
O8 O 0.4938(3) 1.3207(3) -0.3040(4)
O9 O 0.6725(3) 1.1739(3) -0.5946(3)
O10 O 0.1516(3) 1.5757(4) -0.6307(4)
O11 O 0.3544(4) 1.2687(6) -0.5289(3)
O12 O 0.3180(3) 1.3592(4) -0.3732(4)
O13 O 0.4362(5) 1.4891(5) -0.5853(4)
O14 O 0.5328(4) 1.2341(7) -0.4668(3)
O15 O 0.6038(5) 1.4550(5) -0.5228(4)
O16 O 0.3400(4) 1.5859(3) -0.6931(5)
O17 O 0.5370(5) 1.5488(5) -0.5854(4)
O18 O 0.4475(5) 1.5759(4) -0.8583(3)
O19 O 0.5049(4) 1.2746(6) -0.6425(3)
O20 O 0.2357(7) 1.5066(4) -0.4663(4)
O21 O 0.4245(4) 1.4191(3) -0.7385(4)
O22 O 0.2952(6) 1.6756(4) -0.5333(3)
Mo1B Mo 0.62021(3) 1.67476(3) -0.35249(3)
Mo2B Mo 0.57806(4) 1.72750(3) -0.59537(3)
Mo3B Mo 0.53635(4) 1.44946(3) -0.25467(3)
Mo4B Mo 0.73705(4) 1.44779(4) -0.40937(4)
Mo5B Mo 0.37969(4) 1.72169(4) -0.43634(3)
Mo6B Mo 0.29767(4) 1.49349(4) -0.34706(3)
Ag1C Ag 1.37011(4) 1.82533(6) -0.77267(4)
Ag1C* Ag 0.37011(4) 1.82533(6) 0.22733(4)
Ag2C Ag 1.13988(3) 1.80760(4) -0.59518(3)
C1C C 0.3857(5) 1.7409(6) -0.1620(4)
H1C H 0.43970 1.72120 -0.19960
H2C H 0.35740 1.79980 -0.18770
H3C H 0.33790 1.68950 -0.16200
C2C C 1.3878(5) 1.9948(5) -0.6334(5)
C3C C 1.2620(5) 1.9890(4) -0.5412(4)
C4C C 0.5953(5) 1.7845(6) 0.1217(5)
H4C H 0.65180 1.76520 0.08750
H5C H 0.60310 1.85090 0.14350
H6C H 0.58730 1.74140 0.17450
C5C C 1.1931(6) 2.0128(6) -0.4646(5)
H7C H 1.14190 1.96480 -0.46400
H8C H 1.22720 2.01210 -0.40520
H9C H 1.16570 2.07690 -0.47530
C6C C 0.5083(4) 1.7782(4) 0.0592(4)
C7C C 1.4796(6) 2.0283(7) -0.6767(7)
H10C H 1.49730 1.98350 -0.72560
H11C H 1.47040 2.09290 -0.70280
H12C H 1.53030 2.03040 -0.62970
C8C C 0.4201(4) 1.7598(4) -0.0640(4)
N1C N 1.2570(3) 1.9133(3) -0.5979(3)
N2C N 1.3369(3) 1.9172(3) -0.6558(3)
N3C N 0.4201(4) 1.7995(4) 0.0859(3)
N3C* N 1.4201(4) 1.7995(4) -0.9141(3)
N4C N 0.3643(4) 1.7882(4) 0.0062(3)
H13C H 0.30260 1.79790 0.00220
N5C N 1.3425(4) 2.0413(4) -0.5618(4)
H14C H 1.36160 2.09450 -0.53440
N6C N 0.5111(3) 1.7534(3) -0.0331(3)
O1B O 0.3254(6) 1.6311(4) -0.3541(3)
O2B O 0.5200(5) 1.6124(5) -0.4805(4)
O3B O 0.6787(4) 1.7524(3) -0.2806(3)
O4B O 0.4047(3) 1.4852(3) -0.2598(4)
O5B O 0.2039(3) 1.4898(4) -0.2760(4)
O6B O 0.6197(4) 1.8343(3) -0.6350(4)
O7B O 0.7216(4) 1.5822(3) -0.3781(4)
O8B O 0.5062(3) 1.6793(3) -0.6960(4)
O9B O 0.3275(3) 1.8261(3) -0.4054(3)
O10B O 0.8484(3) 1.4243(4) -0.3693(4)
O11B O 0.6456(4) 1.7313(6) -0.4711(3)
O12B O 0.6820(3) 1.6408(4) -0.6268(4)
O13B O 0.5638(5) 1.5109(5) -0.4147(4)
O14B O 0.4672(4) 1.7659(7) -0.5332(3)
O15B O 0.3962(5) 1.5450(5) -0.4772(4)
O16B O 0.6600(4) 1.4141(3) -0.3069(5)
O17B O 0.4630(5) 1.4512(5) -0.4146(4)
O18B O 0.5525(5) 1.4241(4) -0.1417(3)
O19B O 0.4951(4) 1.7254(6) -0.3575(3)
O20B O 0.7643(7) 1.4934(4) -0.5337(4)
O21B O 0.5755(4) 1.5809(3) -0.2615(4)
O22B O 0.7048(6) 1.3244(4) -0.4667(3)
#END
