
#######################################################################
#
#                 Cambridge Crystallographic Data Centre
#                                CCDC
#
#######################################################################
#
# If this CIF has been generated from an entry in the Cambridge
# Structural Database, then it will include bibliographic, chemical,
# crystal, experimental, refinement or atomic coordinate data resulting
# from the CCDC's data processing and validation procedures.
#
#######################################################################

data_CSD_CIF_LIFRAV
_audit_creation_date 2013-05-26
_audit_creation_method CSD-ConQuest-V1
_database_code_CSD LIFRAV
_database_code_depnum_ccdc_archive 'CCDC 800778'
_chemical_formula_sum 'C78 H62 N12 O24 Zn2'
_chemical_formula_moiety
;
(C42 H32 N4 O20 Zn2 2-)n,2n(C18 H15 N4 O2 1+)
;
_journal_coden_Cambridge 1147
_journal_volume 13
_journal_year 2013
_journal_page_first 1059
_journal_name_full 'Cryst.Growth Des. '
loop_
_publ_author_name
"Yun Gong"
"Peng Gang Jiang"
"Jian Li"
"Tao Wu"
"Jian Hua Lin"
_chemical_name_systematic
;
catena-(bis(\m~3~-(2,3-Bis(carboxymethoxy)phenoxy)acetate)-(\m~2~-(2,3-bis(car
boxymethoxy)phenoxy)acetate)-di-zinc 
bis(N,N'-bis(pyridinium-4-yl)terephthalamide))
;
_cell_volume   3575.857
_exptl_crystal_colour 'colorless'
_exptl_crystal_density_diffrn 1.562
_exptl_crystal_description 'prismatic'
_diffrn_ambient_temperature 293
#These two values have been output from a single CSD field.
_refine_ls_R_factor_gt 0.0351
_refine_ls_wR_factor_gt 0.0351
_symmetry_cell_setting monoclinic
_symmetry_space_group_name_H-M 'P 21/c'
_symmetry_Int_Tables_number 14
loop_
_symmetry_equiv_pos_site_id
_symmetry_equiv_pos_as_xyz
1 x,y,z
2 -x,1/2+y,1/2-z
3 -x,-y,-z
4 x,-1/2-y,-1/2+z
_cell_length_a 13.5193(4)
_cell_length_b 18.2105(4)
_cell_length_c 14.6349(4)
_cell_angle_alpha 90
_cell_angle_beta 97.039(3)
_cell_angle_gamma 90
_cell_formula_units_Z 2
loop_
_atom_type_symbol
_atom_type_radius_bond
C 0.68
H 0.23
N 0.68
O 0.68
Zn 1.22
loop_
_atom_site_label
_atom_site_type_symbol
_atom_site_fract_x
_atom_site_fract_y
_atom_site_fract_z
Zn1 Zn 0.60459(2) -0.021333(13) -0.138829(19)
O1 O 0.60781(15) 0.32622(9) 0.09024(12)
O2 O 0.74418(12) -0.13933(8) 0.17538(11)
O3 O 0.60065(13) -0.07827(9) -0.02900(12)
O4 O 0.76463(14) -0.08181(10) 0.01030(12)
O5 O 0.73710(14) -0.26618(8) 0.26526(11)
O6 O 0.76876(13) -0.38838(9) 0.17582(12)
O7 O 0.68730(13) -0.45753(8) 0.26590(11)
O8 O 0.72745(12) -0.01087(8) 0.25671(12)
O9 O 0.53555(13) 0.01513(9) 0.19423(12)
O10 O 0.54029(13) 0.12748(8) 0.25359(12)
N1 N 0.61706(15) 0.08715(10) -0.10794(14)
N2 N 0.56926(16) 0.31111(10) -0.06432(14)
H1 H 0.55210 0.33510 -0.11440
C1 C 0.60956(9) 0.13671(6) -0.17599(8)
H2 H 0.61390 0.12000 -0.23540
C2 C 0.59628(9) 0.21048(6) -0.16333(8)
H3 H 0.59210 0.24260 -0.21310
C3 C 0.58938(19) 0.23683(12) -0.07445(17)
C4 C 0.59728(13) 0.18583(9) -0.00237(12)
H4 H 0.59440 0.20070 0.05800
C5 C 0.60937(13) 0.11315(9) -0.02343(12)
H5 H 0.61260 0.07940 0.02450
C6 C 0.5734(2) 0.35081(12) 0.01552(18)
C7 C 0.53547(18) 0.42804(12) 0.00489(16)
C8 C 0.56696(7) 0.47822(5) 0.07373(7)
H6 H 0.61180 0.46380 0.12380
C9 C 0.53201(7) 0.54925(5) 0.06824(7)
H7 H 0.55430 0.58250 0.11450
C10 C 0.72749(7) -0.13816(5) 0.26632(7)
C11 C 0.72516(7) -0.20347(5) 0.31529(7)
C12 C 0.71408(7) -0.20194(5) 0.40721(7)
H8 H 0.71260 -0.24550 0.44030
C13 C 0.70519(7) -0.13531(5) 0.45003(7)
H9 H 0.69750 -0.13450 0.51230
C14 C 0.70734(7) -0.06992(5) 0.40325(7)
H10 H 0.70190 -0.02550 0.43350
C15 C 0.71797(18) -0.07129(12) 0.31071(17)
C16 C 0.65583(11) -0.13017(7) 0.11257(9)
H11 H 0.60850 -0.10040 0.14100
H12 H 0.62560 -0.17770 0.09810
C17 C 0.67890(11) -0.09385(7) 0.02545(9)
C18 C 0.70494(11) -0.33213(7) 0.30311(9)
H13 H 0.63450 -0.32860 0.30930
H14 H 0.74090 -0.33950 0.36400
C19 C 0.72299(18) -0.39637(12) 0.24247(17)
C20 C 0.6851(2) 0.05672(13) 0.2807(2)
H15 H 0.72480 0.09670 0.26080
H16 H 0.68850 0.05940 0.34720
C21 C 0.57868(19) 0.06743(12) 0.23958(16)
O11 O -0.12684(15) 0.44335(10) 0.37113(17)
O12 O -0.11343(14) 0.06982(9) 0.41087(15)
N3 N 0.07307(17) -0.16617(11) 0.35994(16)
H17 H 0.07970 -0.21310 0.35730
N4 N 0.04451(16) 0.05932(11) 0.37513(15)
H18 H 0.09690 0.08380 0.36620
N5 N 0.04040(9) 0.45760(6) 0.39280(8)
H19 H 0.09590 0.43460 0.40570
N6 N 0.06830(9) 0.68527(6) 0.36190(8)
C22 C -0.0193(2) 0.65341(15) 0.3550(2)
H20 H -0.07480 0.68350 0.34200
C23 C -0.0365(2) 0.57985(14) 0.3653(2)
H21 H -0.10100 0.56130 0.36090
C24 C 0.04559(19) 0.53391(13) 0.38268(17)
C25 C 0.1381(2) 0.56625(14) 0.3905(2)
H22 H 0.19540 0.53780 0.40250
C26 C 0.14534(12) 0.64086(8) 0.38062(11)
H23 H 0.20870 0.66160 0.38750
C27 C -0.04444(12) 0.41640(8) 0.38406(11)
C28 C -0.03310(12) 0.33476(8) 0.39011(11)
C29 C -0.1190(2) 0.29436(14) 0.3954(2)
H24 H -0.17910 0.31870 0.39770
C30 C -0.1171(2) 0.21928(14) 0.3973(2)
H25 H -0.17560 0.19350 0.40240
C31 C -0.02957(19) 0.18106(13) 0.39172(17)
C32 C 0.0564(2) 0.22092(14) 0.3862(2)
H26 H 0.11610 0.19640 0.38260
C33 C 0.05484(12) 0.29699(8) 0.38599(11)
H27 H 0.11360 0.32290 0.38300
C34 C -0.03714(12) 0.09895(8) 0.39317(11)
C35 C 0.05060(12) -0.01680(8) 0.36995(11)
C36 C -0.02893(16) -0.06353(11) 0.37660(16)
H28 H -0.09130 -0.04510 0.38500
C37 C -0.01354(16) -0.13738(11) 0.37056(16)
H29 H -0.06730 -0.16870 0.37420
C38 C 0.15023(16) -0.12282(11) 0.35335(16)
H30 H 0.21140 -0.14360 0.34530
C39 C 0.14210(16) -0.04775(11) 0.35812(16)
H31 H 0.19720 -0.01800 0.35370
O1B O 0.39219(15) 0.67378(9) -0.09024(12)
N1B N 0.38294(15) 0.91285(10) 0.10794(14)
N2B N 0.43074(16) 0.68889(10) 0.06432(14)
H1B H 0.44790 0.66490 0.11440
C1B C 0.39044(9) 0.86329(6) 0.17599(8)
H2B H 0.38610 0.88000 0.23540
C2B C 0.40372(9) 0.78952(6) 0.16333(8)
H3B H 0.40790 0.75740 0.21310
C3B C 0.41062(19) 0.76317(12) 0.07445(17)
C4B C 0.40272(13) 0.81417(9) 0.00237(12)
H4B H 0.40560 0.79930 -0.05800
C5B C 0.39063(13) 0.88685(9) 0.02343(12)
H5B H 0.38740 0.92060 -0.02450
C6B C 0.4266(2) 0.64919(12) -0.01552(18)
C7B C 0.46453(18) 0.57196(12) -0.00489(16)
C8B C 0.43304(7) 0.52178(5) -0.07373(7)
H6B H 0.38820 0.53620 -0.12380
C9B C 0.46799(7) 0.45075(5) -0.06824(7)
H7B H 0.44570 0.41750 -0.11450
Zn1B Zn 0.39541(2) 0.021333(13) 0.138829(19)
O2B O 0.25582(12) 0.13933(8) -0.17538(11)
O3B O 0.39935(13) 0.07827(9) 0.02900(12)
O4B O 0.23537(14) 0.08181(10) -0.01030(12)
O5B O 0.26290(14) 0.26618(8) -0.26526(11)
O6B O 0.23124(13) 0.38838(9) -0.17582(12)
O7B O 0.31270(13) 0.45753(8) -0.26590(11)
O8B O 0.27255(12) 0.01087(8) -0.25671(12)
O9B O 0.46445(13) -0.01513(9) -0.19423(12)
O10B O 0.45971(13) -0.12748(8) -0.25359(12)
C10B C 0.27251(7) 0.13816(5) -0.26632(7)
C11B C 0.27484(7) 0.20347(5) -0.31529(7)
C12B C 0.28592(7) 0.20194(5) -0.40721(7)
H8B H 0.28740 0.24550 -0.44030
C13B C 0.29481(7) 0.13531(5) -0.45003(7)
H9B H 0.30250 0.13450 -0.51230
C14B C 0.29266(7) 0.06992(5) -0.40325(7)
H10B H 0.29810 0.02550 -0.43350
C15B C 0.28203(18) 0.07129(12) -0.31071(17)
C16B C 0.34417(11) 0.13017(7) -0.11257(9)
H11B H 0.39150 0.10040 -0.14100
H12B H 0.37440 0.17770 -0.09810
C17B C 0.32110(11) 0.09385(7) -0.02545(9)
C18B C 0.29506(11) 0.33213(7) -0.30311(9)
H13B H 0.36550 0.32860 -0.30930
H14B H 0.25910 0.33950 -0.36400
C19B C 0.27701(18) 0.39637(12) -0.24247(17)
C20B C 0.3149(2) -0.05672(13) -0.2807(2)
H15B H 0.27520 -0.09670 -0.26080
H16B H 0.31150 -0.05940 -0.34720
C21B C 0.42132(19) -0.06743(12) -0.23958(16)
Zn1A Zn 0.39541(2) 0.478667(13) -0.361171(19)
Zn1B* Zn 0.39541(2) 1.021333(13) 0.138829(19)
Zn1C Zn 0.60459(2) -0.478667(13) 0.361171(19)
O7A O 0.31270(13) 0.04247(8) 0.23410(11)
O7C O 0.68730(13) -0.04247(8) -0.23410(11)
N1B* N 0.38294(15) -0.08715(10) 0.10794(14)
#END
