
#######################################################################
#
#                 Cambridge Crystallographic Data Centre
#                                CCDC
#
#######################################################################
#
# If this CIF has been generated from an entry in the Cambridge
# Structural Database, then it will include bibliographic, chemical,
# crystal, experimental, refinement or atomic coordinate data resulting
# from the CCDC's data processing and validation procedures.
#
#######################################################################

data_CSD_CIF_LIFREY
_audit_creation_date 2007-10-04
_audit_creation_method CSD-ConQuest-V1
_database_code_CSD LIFREY
_database_code_depnum_ccdc_archive 'CCDC 613930'
_chemical_formula_sum 'C8 H16 Ag4 Mo8 N16 O26'
_chemical_formula_moiety
;
(C4 H8 Ag2 Mo8 N8 O26 2-)n,n(C4 H8 Ag2 N8 2+)
;
_journal_coden_Cambridge 9
_journal_volume 46
_journal_year 2007
_journal_page_first 5046
_journal_name_full 'Inorg.Chem. '
loop_
_publ_author_name
"Quan-Guo Zhai"
"Xiao-Yuan Wu"
"Shu-Mei Chen"
"Zhen-Guo Zhao"
"Can-Zhong Lu"
_chemical_name_systematic
;
catena-[bis(\m~2~-3-Amino-2H-1,2,4-triazole)-di-silver(i) 
bis(\m~4~-oxo)-hexakis(\m~3~-oxo)-bis(\m~2~-3-amino-4H-1,2,4-triazole)-octakis
(\m~2~-oxo)-decaoxo-octa-molybdenum-di-silver(i)]
;
_cell_volume    913.810
_exptl_crystal_colour 'colorless'
_exptl_crystal_density_diffrn 3.546
_exptl_crystal_description 'block'
_diffrn_ambient_temperature 293
#These two values have been output from a single CSD field.
_refine_ls_R_factor_gt 0.0316
_refine_ls_wR_factor_gt 0.0316
_symmetry_cell_setting triclinic
_symmetry_space_group_name_H-M 'P -1'
_symmetry_Int_Tables_number 2
loop_
_symmetry_equiv_pos_site_id
_symmetry_equiv_pos_as_xyz
1 x,y,z
2 -x,-y,-z
_cell_length_a 8.2465(4)
_cell_length_b 10.8172(5)
_cell_length_c 10.9336(2)
_cell_angle_alpha 71.101(7)
_cell_angle_beta 82.03(1)
_cell_angle_gamma 87.775(10)
_cell_formula_units_Z 1
loop_
_atom_type_symbol
_atom_type_radius_bond
C 0.68
H 0.23
Ag 1.47
Mo 1.38
N 0.68
O 0.71
loop_
_atom_site_label
_atom_site_type_symbol
_atom_site_fract_x
_atom_site_fract_y
_atom_site_fract_z
Mo1 Mo 1.06106(4) 1.34397(4) -0.47171(4)
Mo2 Mo 1.26444(5) 1.55918(4) -0.75407(4)
Mo3 Mo 1.46253(4) 1.34271(4) -0.48931(4)
Mo4 Mo 1.33804(5) 1.42244(4) -0.23473(4)
C1 C 1.0233(7) 0.7241(5) -0.0790(5)
H1 H 0.96590 0.64710 -0.03240
C2 C 1.1823(6) 0.8665(5) -0.2283(5)
C3 C 1.3834(6) 1.1705(5) 0.1776(5)
C4 C 1.2522(6) 0.9902(5) 0.2497(5)
H2 H 1.21710 0.90710 0.25680
N1 N 1.1932(6) 1.0510(4) 0.3305(4)
N2 N 1.1171(6) 0.7451(4) -0.1949(4)
H3 H 1.13260 0.69180 -0.23920
N3 N 1.1301(6) 0.9189(4) -0.1372(4)
N4 N 1.3700(5) 1.0583(4) 0.1534(4)
N5 N 1.2800(5) 1.1685(4) 0.2830(4)
H4 H 1.26850 1.23040 0.31670
N6 N 1.2750(7) 0.9250(5) -0.3431(5)
H5 H 1.30600 1.00490 -0.36260
H6 H 1.30320 0.88240 -0.39680
N7 N 1.0242(6) 0.8255(4) -0.0412(4)
N8 N 1.4881(6) 1.2692(4) 0.1095(4)
H7 H 1.49110 1.33720 0.13340
H8 H 1.55180 1.26400 0.04200
O1 O 1.0623(4) 1.1970(3) -0.3503(4)
O2 O 1.2611(5) 1.7223(3) -0.8336(3)
O3 O 0.9542(5) 1.3059(4) -0.5769(4)
O4 O 1.1602(4) 1.4892(4) -0.8377(4)
O5 O 1.3480(4) 1.2597(3) -0.1447(3)
O6 O 1.2590(4) 1.4037(3) -0.3854(3)
O7 O 1.2759(4) 1.3518(3) -0.5906(3)
O8 O 0.9091(4) 1.4450(3) -0.3953(3)
O9 O 1.4776(4) 1.5152(3) -0.8232(3)
O10 O 1.1752(4) 1.4816(3) -0.1589(3)
O11 O 1.6169(4) 1.3629(3) -0.6220(3)
O12 O 1.4627(4) 1.1795(3) -0.4074(3)
O13 O 1.4394(4) 1.5769(3) -0.6139(3)
Ag1 Ag 1.00000 1.00000 0.50000
Ag2 Ag 1.50000 1.00000 0.00000
Ag3 Ag 1.12352(7) 1.11116(4) -0.11234(5)
Mo1A Mo 0.93894(4) 1.65603(4) -0.52829(4)
Mo2A Mo 0.73556(5) 1.44082(4) -0.24593(4)
Mo2A* Mo 1.73556(5) 1.44082(4) -0.24593(4)
Mo3A Mo 0.53747(4) 1.65729(4) -0.51069(4)
Mo3A* Mo 1.53747(4) 1.65729(4) -0.51069(4)
Mo4A Mo 0.66196(5) 1.57756(4) -0.76527(4)
Mo4A* Mo 1.66196(5) 1.57756(4) -0.76527(4)
C1A C 0.9767(7) 1.2759(5) 0.0790(5)
H1A H 1.03410 1.35290 0.03240
C2A C 0.8177(6) 1.1335(5) 0.2283(5)
C3A C 0.6166(6) 0.8295(5) 0.8224(5)
C4A C 0.7478(6) 1.0098(5) 0.7503(5)
H2A H 0.78290 1.09290 0.74320
N1A N 0.8068(6) 0.9490(4) 0.6695(4)
N2A N 0.8829(6) 1.2549(4) 0.1949(4)
H3A H 0.86740 1.30820 0.23920
N3A N 0.8699(6) 1.0811(4) 0.1372(4)
N4A N 0.6300(5) 0.9417(4) 0.8466(4)
N4A* N 1.6300(5) 0.9417(4) -0.1534(4)
N5A N 0.7200(5) 0.8315(4) 0.7170(4)
H4A H 0.73150 0.76960 0.68330
N6A N 0.7250(7) 1.0750(5) 0.3431(5)
H5A H 0.69400 0.99510 0.36260
H6A H 0.69680 1.11760 0.39680
N7A N 0.9758(6) 1.1745(4) 0.0412(4)
N8A N 0.5119(6) 0.7308(4) 0.8905(4)
H7A H 0.50890 0.66280 0.86660
H8A H 0.44820 0.73600 0.95800
O1A O 0.9377(4) 1.8030(3) -0.6497(4)
O1A* O 0.9377(4) 0.8030(3) 0.3503(4)
O2A O 0.7389(5) 1.2777(3) -0.1664(3)
O3A O 1.0458(5) 1.6941(4) -0.4231(4)
O4A O 0.8398(4) 1.5108(4) -0.1623(4)
O5A O 0.6520(4) 1.7403(3) -0.8553(3)
O5A* O 0.6520(4) 0.7403(3) 0.1447(3)
O6A O 0.7410(4) 1.5963(3) -0.6146(3)
O7A O 0.7241(4) 1.6482(3) -0.4094(3)
O8A O 1.0909(4) 1.5550(3) -0.6047(3)
O9A O 1.5224(4) 1.4848(3) -0.1768(3)
O9A* O 0.5224(4) 1.4848(3) -0.1768(3)
O9* O 0.4776(4) 1.5152(3) -0.8232(3)
O10A O 0.8248(4) 1.5184(3) -0.8411(3)
O11A O 1.3831(4) 1.6371(3) -0.3780(3)
O11A* O 0.3831(4) 1.6371(3) -0.3780(3)
O11* O 0.6169(4) 1.3629(3) -0.6220(3)
O12A O 0.5373(4) 1.8205(3) -0.5926(3)
O13A O 1.5606(4) 1.4231(3) -0.3861(3)
O13A* O 0.5606(4) 1.4231(3) -0.3861(3)
O13* O 0.4394(4) 1.5769(3) -0.6139(3)
Ag2* Ag 0.50000 1.00000 1.00000
Ag3A Ag 0.87648(7) 0.88884(4) 0.11234(5)
Ag3A* Ag 0.87648(7) 1.88884(4) -0.88766(5)
#END
