
#######################################################################
#
#                 Cambridge Crystallographic Data Centre
#                                CCDC
#
#######################################################################
#
# If this CIF has been generated from an entry in the Cambridge
# Structural Database, then it will include bibliographic, chemical,
# crystal, experimental, refinement or atomic coordinate data resulting
# from the CCDC's data processing and validation procedures.
#
#######################################################################

data_CSD_CIF_LIHKAQ
_audit_creation_date 2013-05-26
_audit_creation_method CSD-ConQuest-V1
_database_code_CSD LIHKAQ
_database_code_depnum_ccdc_archive 'CCDC 780625'
_chemical_formula_sum 'C6 H15 In2 N2 O13 P3'
_chemical_formula_moiety
;
(C2 H3 In2 O13 P3 2-)n,n(C4 H12 N2 2+)
;
_journal_coden_Cambridge 208
_journal_volume 197
_journal_year 2013
_journal_page_first 75
_journal_name_full 'J.Solid State Chem. '
loop_
_publ_author_name
"Huiduan Li"
"Lirong Zhang"
"Qisheng Huo"
"Yunling Liu"
_chemical_name_systematic
;
catena-(Piperazinedi-ium bis(\m~3~-hydrogen 
phosphito)-(\m~2~-oxalato)-(\m~2~-hydrogen phosphito)-di-indium)
;
_cell_volume   1828.883
_exptl_crystal_colour 'colorless'
_exptl_crystal_density_diffrn 2.345
_exptl_crystal_description 'block'
_diffrn_ambient_temperature 293
_refine_special_details
;
O2A,O2B disordered by symmetry over two sites with occupancy 0.50.

;
#These two values have been output from a single CSD field.
_refine_ls_R_factor_gt 0.0433
_refine_ls_wR_factor_gt 0.0433
_symmetry_cell_setting orthorhombic
_symmetry_space_group_name_H-M 'C m c m'
_symmetry_Int_Tables_number 63
loop_
_symmetry_equiv_pos_site_id
_symmetry_equiv_pos_as_xyz
1 x,y,z
2 -x,-y,1/2+z
3 -x,y,1/2-z
4 x,-y,-z
5 1/2+x,1/2+y,z
6 1/2-x,1/2-y,1/2+z
7 1/2-x,1/2+y,1/2-z
8 1/2+x,1/2-y,-z
9 -x,-y,-z
10 x,y,-1/2-z
11 x,-y,-1/2+z
12 -x,y,z
13 -1/2-x,-1/2-y,-z
14 -1/2+x,-1/2+y,-1/2-z
15 -1/2+x,-1/2-y,-1/2+z
16 -1/2-x,-1/2+y,z
_cell_length_a 6.5554(13)
_cell_length_b 15.384(3)
_cell_length_c 18.135(4)
_cell_angle_alpha 90
_cell_angle_beta 90
_cell_angle_gamma 90
_cell_formula_units_Z 4
loop_
_atom_type_symbol
_atom_type_radius_bond
C 0.68
H 0.23
In 1.42
N 0.68
O 0.68
P 1.05
loop_
_atom_site_label
_atom_site_type_symbol
_atom_site_fract_x
_atom_site_fract_y
_atom_site_fract_z
In1 In 0.50000 0.83529(4) 0.42689(3)
P1 P 0.50000 0.6641(2) 0.54248(17)
H1 H 0.50000 0.73950 0.58470
O1 O 0.50000 0.7095(5) 0.4690(4)
O2 O 0.6868(16) 0.6307(7) 0.5696(6)
P2 P 0.6081(11) 0.8372(4) 0.25000
H2 H 0.82640 0.84750 0.25000
O3 O 0.50000 0.7945(6) 0.3172(4)
O4 O 0.574(3) 0.9326(12) 0.25000
O5 O 0.50000 0.9785(5) 0.4054(3)
O6 O 0.50000 1.1055(5) 0.4623(3)
C1 C 0.50000 1.0239(6) 0.4618(4)
N1 N 0.724(6) 0.564(2) 0.25000
H3 H 0.82690 0.60290 0.25000
H4 H 0.78120 0.51120 0.25000
C2 C 0.602(4) 0.5727(18) 0.1744(13)
H5 H 0.64690 0.52620 0.14300
H6 H 0.64690 0.62610 0.15240
H7? H 0.50000 0.57620 0.52470
O7? O 0.6862(16) 0.6747(7) 0.5866(7)
O2K O 0.3132(16) 0.6307(7) 0.5696(6)
P2B P 0.3919(11) 0.8372(4) 0.25000
H2B H 0.17360 0.84750 0.25000
O3B O 0.50000 0.7945(6) 0.1828(4)
O4B O 0.426(3) 0.9326(12) 0.25000
O5C O 0.50000 1.0215(5) 0.5946(3)
O6C O 0.50000 0.8945(5) 0.5377(3)
C1C C 0.50000 0.9761(6) 0.5382(4)
In1B In 0.50000 0.83529(4) 0.07311(3)
P1B P 0.50000 0.6641(2) -0.04248(17)
H1B H 0.50000 0.73950 -0.08470
O1B O 0.50000 0.7095(5) 0.0310(4)
O2B O 0.3132(16) 0.6307(7) -0.0696(6)
O2I O 0.6868(16) 0.6307(7) -0.0696(6)
In1C In 0.50000 1.16471(4) 0.57311(3)
In1E In 0.00000 0.66471(4) -0.07311(3)
In1E* In 1.00000 0.66471(4) -0.07311(3)
In1G In 0.00000 0.66471(4) 0.57311(3)
In1G* In 1.00000 0.66471(4) 0.57311(3)
O2E O 0.8132(16) 0.8693(7) 0.0696(6)
O2G O 0.1868(16) 0.8693(7) 0.4304(6)
O2L O 0.8132(16) 0.8693(7) 0.4304(6)
O2N O 0.1868(16) 0.8693(7) 0.0696(6)
O5B O 0.50000 0.9785(5) 0.0946(3)
O6A O 0.50000 0.8945(5) -0.0377(3)
C2I C 0.602(4) 0.5727(18) 0.3256(13)
H5I H 0.64690 0.52620 0.35700
H6I H 0.64690 0.62610 0.34760
N1B N 0.276(6) 0.564(2) 0.25000
H3B H 0.17310 0.60290 0.25000
H4B H 0.21880 0.51120 0.25000
C2K C 0.398(4) 0.5727(18) 0.1744(13)
H5K H 0.35310 0.52620 0.14300
H6K H 0.35310 0.62610 0.15240
C2B C 0.398(4) 0.5727(18) 0.3256(13)
H5B H 0.35310 0.52620 0.35700
H6B H 0.35310 0.62610 0.34760
#END
