
#######################################################################
#
#                 Cambridge Crystallographic Data Centre
#                                CCDC
#
#######################################################################
#
# If this CIF has been generated from an entry in the Cambridge
# Structural Database, then it will include bibliographic, chemical,
# crystal, experimental, refinement or atomic coordinate data resulting
# from the CCDC's data processing and validation procedures.
#
#######################################################################

data_CSD_CIF_LIKCOY
_audit_creation_date 2008-01-17
_audit_creation_method CSD-ConQuest-V1
_database_code_CSD LIKCOY
_database_code_depnum_ccdc_archive 'CCDC 625476'
_chemical_formula_sum 'C40 H46 Cu6 I3 N9 O7 S6 W2'
_chemical_formula_moiety
;
(C40 H32 Cu6 I3 N8 O2 S6 W2 1-)n,n(H4 N1 1+),5n(H2 O1)
;
_journal_coden_Cambridge 9
_journal_volume 46
_journal_year 2007
_journal_page_first 6233
_journal_name_full 'Inorg.Chem. '
loop_
_publ_author_name
"Kexuan Huang"
"Yinglin Song"
"Zhaorui Pan"
"Yizhi Li"
"Xin Zhuo"
"Hegen Zhang"
_chemical_name_systematic
;
catena-(ammonium 
hexakis(\m~3~-sulfido)-tetrakis(\m~2~-4,4'-bipyridine)-(\m~2~-iodo)-di-iodo-di
oxo-hexa-copper-di-tungsten pentahydrate)
;
_cell_volume   7305.690
_exptl_crystal_colour 'red'
_exptl_crystal_density_diffrn 1.897
_exptl_crystal_description 'block'
_exptl_crystal_preparation 'diethyl ether'
_diffrn_ambient_temperature 298
_refine_special_details
;
Some water molecules are disordered also hydrogens of the ammonium ion are 
disordered.
;
#These two values have been output from a single CSD field.
_refine_ls_R_factor_gt 0.0479
_refine_ls_wR_factor_gt 0.0479
_symmetry_cell_setting monoclinic
_symmetry_space_group_name_H-M 'C 2/c'
_symmetry_Int_Tables_number 15
loop_
_symmetry_equiv_pos_site_id
_symmetry_equiv_pos_as_xyz
1 x,y,z
2 1/2+x,1/2+y,z
3 -x,y,1/2-z
4 1/2-x,1/2+y,1/2-z
5 -x,-y,-z
6 -1/2-x,-1/2-y,-z
7 x,-y,-1/2+z
8 -1/2+x,-1/2-y,-1/2+z
_cell_length_a 17.927(4)
_cell_length_b 24.839(5)
_cell_length_c 16.881(3)
_cell_angle_alpha 90
_cell_angle_beta 103.615(3)
_cell_angle_gamma 90
_cell_formula_units_Z 4
loop_
_atom_type_symbol
_atom_type_radius_bond
C 0.68
H 0.18
Cu 1.52
I 1.40
N 0.68
O 0.68
S 1.02
W 1.37
loop_
_atom_site_label
_atom_site_type_symbol
_atom_site_fract_x
_atom_site_fract_y
_atom_site_fract_z
C1 C 1.0497(5) 0.7660(4) 0.3562(6)
H1 H 1.02210 0.79260 0.32310
C2 C 1.1226(5) 0.7623(4) 0.3602(5)
H2 H 1.14670 0.78860 0.33600
C3 C 1.1651(4) 0.7193(3) 0.4002(5)
C4 C 1.1246(5) 0.6874(4) 0.4416(5)
H3 H 1.14900 0.66110 0.47760
C5 C 1.0475(5) 0.6954(4) 0.4286(5)
H4 H 1.01880 0.66880 0.44630
C6 C 0.8643(5) 0.6577(3) 0.2955(5)
H5 H 0.91420 0.66170 0.28950
C7 C 0.8200(5) 0.6163(3) 0.2533(5)
H6 H 0.83980 0.59440 0.21850
C8 C 0.7485(5) 0.6079(3) 0.2626(5)
C9 C 0.7239(5) 0.6439(3) 0.3117(5)
H7 H 0.67400 0.64090 0.31840
C10 C 0.7668(5) 0.6822(3) 0.3494(5)
H8 H 0.74630 0.70480 0.38270
C11 C 1.3690(5) 0.6658(4) 0.4487(5)
H9 H 1.39470 0.63650 0.47660
C12 C 1.2930(5) 0.6747(3) 0.4497(6)
H10 H 1.27130 0.65360 0.48400
C13 C 1.2495(4) 0.7116(3) 0.4043(4)
C14 C 1.2880(4) 0.7497(3) 0.3690(5)
H11 H 1.26290 0.78050 0.34480
C15 C 1.3629(5) 0.7413(3) 0.3704(5)
H12 H 1.38800 0.76570 0.34390
C16 C 0.5861(5) 0.5149(3) 0.1786(5)
H13 H 0.53400 0.51420 0.17740
C17 C 0.6262(5) 0.5580(4) 0.2164(6)
H14 H 0.60090 0.58480 0.23810
C18 C 0.7010(6) 0.5620(3) 0.2226(5)
C19 C 0.7353(5) 0.5174(4) 0.1926(5)
H15 H 0.78840 0.51640 0.20080
C20 C 0.6909(5) 0.4736(3) 0.1501(5)
H16 H 0.71380 0.44580 0.12760
Cu1 Cu 0.90017(5) 0.75436(4) 0.39985(6)
Cu2 Cu 0.55252(6) 0.40646(4) 0.09588(6)
Cu3 Cu 1.51671(5) 0.68255(4) 0.40853(6)
I1 I 0.42532(3) 0.41939(2) 0.13706(3)
I2 I 1.50000 0.69209(3) 0.25000
N1 N 1.0132(4) 0.7350(3) 0.3952(4)
N2 N 1.4045(4) 0.6972(3) 0.4104(4)
N3 N 0.6123(4) 0.4746(3) 0.1442(5)
N4 N 0.8393(4) 0.6915(3) 0.3435(4)
N5 N 0.50000 0.8500(3) 0.25000
H17 H 0.54790 0.84740 0.28150
H18? H 0.46830 0.86250 0.28000
H19? H 0.49980 0.87290 0.20850
H20 H 0.48390 0.81740 0.23000
O1 O 0.7668(3) 0.8601(2) 0.4736(3)
O2 O 0.8978(8) 0.5587(6) 0.4306(9)
H21 H 0.91520 0.55590 0.38810
H22 H 0.93260 0.55030 0.47230
O3 O 0.286(1) 0.9709(7) 0.4067(10)
H23 H 0.32080 0.94750 0.40800
H24 H 0.28820 0.99450 0.37080
O4 O 0.4208(7) 0.9891(5) 0.6439(7)
H25 H 0.40190 1.01360 0.66840
H26 H 0.42180 0.95950 0.66950
O5 O 0.6431(4) 0.8422(2) 0.3440(4)
H27 H 0.69040 0.84110 0.34370
H28 H 0.63830 0.84250 0.39290
O6 O 0.5520(9) 0.0851(6) 0.6001(9)
H29 H 0.57280 0.07970 0.65020
H30 H 0.50480 0.07650 0.59060
S1 S 0.55502(13) 0.40099(8) -0.03967(12)
S2 S 0.86902(12) 0.83724(8) 0.34271(12)
S3 S 0.88716(12) 0.76015(8) 0.53005(12)
W1 W 0.858910(17) 0.841630(12) 0.472560(18)
C1E C 1.4503(5) 0.7340(4) 0.6438(6)
H1E H 1.47790 0.70740 0.67690
C2E C 1.3774(5) 0.7377(4) 0.6398(5)
H2E H 1.35330 0.71140 0.66400
C3E C 1.3349(4) 0.7807(3) 0.5998(5)
C4E C 1.3754(5) 0.8126(4) 0.5584(5)
H3E H 1.35100 0.83890 0.52240
C5E C 1.4525(5) 0.8046(4) 0.5714(5)
H4E H 1.48120 0.83120 0.55370
C6C C 0.6357(5) 1.1577(3) 0.2045(5)
H5C H 0.58580 1.16170 0.21050
C7C C 0.6800(5) 1.1163(3) 0.2467(5)
H6C H 0.66020 1.09440 0.28150
C8C C 0.7515(5) 1.1079(3) 0.2374(5)
C9C C 0.7761(5) 1.1439(3) 0.1883(5)
H7C H 0.82600 1.14090 0.18160
C10C C 0.7332(5) 1.1822(3) 0.1506(5)
H8C H 0.75370 1.20480 0.11730
C11E C 1.1310(5) 0.8342(4) 0.5513(5)
H9E H 1.10530 0.86350 0.52340
C12E C 1.2070(5) 0.8253(3) 0.5503(6)
H10E H 1.22870 0.84640 0.51600
C13E C 1.2505(4) 0.7884(3) 0.5957(4)
C14E C 1.2120(4) 0.7503(3) 0.6310(5)
H11E H 1.23710 0.71950 0.65520
C15E C 1.1371(5) 0.7587(3) 0.6296(5)
H12E H 1.11200 0.73430 0.65610
C16C C 0.9139(5) 1.0149(3) 0.3214(5)
H13C H 0.96600 1.01420 0.32260
C17C C 0.8738(5) 1.0580(4) 0.2836(6)
H14C H 0.89910 1.08480 0.26190
C18C C 0.7990(6) 1.0620(3) 0.2774(5)
C19C C 0.7647(5) 1.0174(4) 0.3074(5)
H15C H 0.71160 1.01640 0.29920
C20C C 0.8091(5) 0.9736(3) 0.3499(5)
H16C H 0.78620 0.94580 0.37240
Cu1E Cu 1.59983(5) 0.74564(4) 0.60015(6)
Cu1C Cu 0.59983(5) 0.25436(4) 0.10015(6)
Cu1C* Cu 0.59983(5) 1.25436(4) 0.10015(6)
Cu2C Cu 0.94748(6) 0.90646(4) 0.40412(6)
Cu2F Cu 1.55252(6) 0.59354(4) 0.59588(6)
Cu3E Cu 0.98329(5) 0.81745(4) 0.59147(6)
Cu3B Cu 1.48329(5) 0.68255(4) 0.09147(6)
Cu3F Cu 0.51671(5) 0.31745(4) -0.09147(6)
I1C I 1.07468(3) 0.91939(2) 0.36294(3)
I2G I 1.00000 0.80791(3) 0.75000
N1E N 1.4868(4) 0.7650(3) 0.6048(4)
N2E N 1.0955(4) 0.8028(3) 0.5896(4)
N3C N 0.8877(4) 0.9746(3) 0.3558(5)
N4C N 0.6607(4) 1.1915(3) 0.1565(4)
N4E N 1.6607(4) 0.8085(3) 0.6565(4)
H17B H 0.45210 0.84740 0.21850
H20B H 0.51610 0.81740 0.27000
O1C O 0.7332(3) 0.3601(2) 0.0264(3)
S1F S 1.55502(13) 0.59901(8) 0.46033(12)
S1C S 0.94498(13) 0.90099(8) 0.53967(12)
S2C S 0.63098(12) 0.33724(8) 0.15729(12)
S2E S 1.63098(12) 0.66276(8) 0.65729(12)
S3E S 1.61284(12) 0.73985(8) 0.46995(12)
S3C S 0.61284(12) 0.26015(8) -0.03005(12)
W1C W 0.641090(17) 0.341630(12) 0.027440(18)
W1E W 1.641090(17) 0.658370(12) 0.527440(18)
#END
