
#######################################################################
#
#                 Cambridge Crystallographic Data Centre
#                                CCDC
#
#######################################################################
#
# If this CIF has been generated from an entry in the Cambridge
# Structural Database, then it will include bibliographic, chemical,
# crystal, experimental, refinement or atomic coordinate data resulting
# from the CCDC's data processing and validation procedures.
#
#######################################################################

data_CSD_CIF_LIKNIE
_audit_creation_date 2013-10-12
_audit_creation_method CSD-ConQuest-V1
_database_code_CSD LIKNIE
_database_code_depnum_ccdc_archive 'CCDC 962876'
_chemical_formula_sum 'C15 H20 Cd1 N2 O11'
_chemical_formula_moiety
;
(C10 H9 Cd1 O9 1-)n,n(C5 H7 N2 1+),2n(H2 O1)
;
_journal_coeditor_code "mx3108"
_journal_coden_Cambridge 591
_journal_volume 69
_journal_year 2013
_journal_page_first 1340
_journal_name_full 'Acta Crystallogr.,Sect.C:Cryst.Struct.Commun. '
loop_
_publ_author_name
"P.Wang"
"Y.Zhao"
"Y.Chen"
"X.-Y.Kou"
_chemical_name_systematic
;
catena-[4-aminopyridinium 
(\m~3~-5-(carboxylatomethoxy)benzene-1,3-dicarboxylato)-diaqua-cadmium(ii) 
dihydrate]
;
_cell_volume   1813.872
_exptl_crystal_colour 'colorless'
_exptl_crystal_density_diffrn 1.892
_exptl_crystal_description 'planar'
_diffrn_ambient_temperature 293
#These two values have been output from a single CSD field.
_refine_ls_R_factor_gt 0.0268
_refine_ls_wR_factor_gt 0.0268
_symmetry_cell_setting monoclinic
_symmetry_space_group_name_H-M 'P 21/c'
_symmetry_Int_Tables_number 14
loop_
_symmetry_equiv_pos_site_id
_symmetry_equiv_pos_as_xyz
1 x,y,z
2 -x,1/2+y,1/2-z
3 -x,-y,-z
4 x,-1/2-y,-1/2+z
_cell_length_a 7.6330(9)
_cell_length_b 22.831(3)
_cell_length_c 12.5639(12)
_cell_angle_alpha 90
_cell_angle_beta 124.061(5)
_cell_angle_gamma 90
_cell_formula_units_Z 4
loop_
_atom_type_symbol
_atom_type_radius_bond
C 0.68
H 0.23
Cd 1.44
N 0.68
O 0.68
loop_
_atom_site_label
_atom_site_type_symbol
_atom_site_fract_x
_atom_site_fract_y
_atom_site_fract_z
Cd1 Cd 0.36956(3) 0.843899(8) -0.193155(17)
O1 O 0.6153(3) 0.91537(8) -0.05618(16)
O2 O 0.6185(3) 0.83260(8) 0.03348(18)
O3 O 0.8671(3) 1.1255(1) 0.07663(19)
O4 O 0.9262(3) 1.10201(9) 0.26378(18)
O5 O 1.2531(3) 1.02772(8) 0.31654(17)
O6 O 1.2991(3) 0.87236(9) 0.61330(17)
O7 O 1.2302(4) 0.79265(9) 0.49319(19)
O8 O 0.6287(3) 0.78677(10) -0.1826(2)
H1 H 0.74700 0.78960 -0.11060
H2 H 0.65020 0.78500 -0.24120
O9 O 0.1932(3) 0.75913(9) -0.21460(19)
H3 H 0.21300 0.74170 -0.14930
H4 H 0.16610 0.73510 -0.27210
C1 C 0.6947(4) 0.88223(12) 0.0408(2)
C2 C 0.8871(4) 0.90230(11) 0.1675(2)
C3 C 0.9758(4) 0.95718(12) 0.1765(2)
H5 H 0.91830 0.98130 0.10480
C4 C 1.1515(4) 0.97515(11) 0.2944(2)
C5 C 1.2364(4) 0.93926(11) 0.4014(2)
H6 H 1.35370 0.95160 0.47990
C6 C 1.1471(4) 0.88507(11) 0.3917(2)
C7 C 0.9731(4) 0.86674(12) 0.2740(2)
H7 H 0.91420 0.83010 0.26690
C8 C 1.1710(4) 1.06869(12) 0.2145(3)
H8 H 1.14000 1.04820 0.13810
H9 H 1.27990 1.09740 0.23630
C9 C 0.9724(4) 1.10100(12) 0.1823(3)
C10 C 1.2332(4) 0.84704(12) 0.5091(2)
N1 N 0.4151(4) 0.96021(12) 0.1141(2)
N2 N 0.7572(4) 0.88886(13) 0.4708(2)
H10 H 0.83010 0.87400 0.54720
C11 C 0.5282(5) 0.93762(13) 0.2305(3)
C12 C 0.6807(5) 0.97067(14) 0.3373(3)
H11 H 0.70470 1.00970 0.32800
C13 C 0.7910(5) 0.94476(16) 0.4533(3)
H12 H 0.89430 0.96630 0.52390
C14 C 0.6161(5) 0.85641(15) 0.3724(3)
H13 H 0.59530 0.81770 0.38610
C15 C 0.5020(5) 0.87861(14) 0.2528(3)
H14 H 0.40520 0.85500 0.18430
H15 H 0.43850 0.99660 0.10440
H16 H 0.33540 0.93670 0.05510
O10 O 0.0457(3) 0.79048(10) 0.0480(2)
H17 H 0.11220 0.76460 0.03480
H18 H 0.06200 0.82290 0.02050
O11 O 0.7361(4) 0.71615(10) 0.1371(2)
H19 H 0.67070 0.74750 0.09910
H20 H 0.86800 0.72240 0.17520
Cd1* Cd 1.36956(3) 0.843899(8) 0.806845(17)
Cd1B Cd 0.63044(3) 1.156101(8) 0.193155(17)
O4B O 0.0738(3) 0.89799(9) -0.26378(18)
O6* O 0.2991(3) 0.87236(9) -0.38670(17)
#END
