
#######################################################################
#
#                 Cambridge Crystallographic Data Centre
#                                CCDC
#
#######################################################################
#
# If this CIF has been generated from an entry in the Cambridge
# Structural Database, then it will include bibliographic, chemical,
# crystal, experimental, refinement or atomic coordinate data resulting
# from the CCDC's data processing and validation procedures.
#
#######################################################################

data_CSD_CIF_LIKQUS
_audit_creation_date 2008-01-17
_audit_creation_method CSD-ConQuest-V1
_database_code_CSD LIKQUS
_database_code_depnum_ccdc_archive 'CCDC 662639'
_chemical_formula_sum 'C94 H102 Mn1 N10 O28 Rh2'
_chemical_formula_moiety
;
(C16 H19 N2 1+)4n,n(C12 Mn1 O24 Rh2 4-),2n(C9 H11 N1 O1),2n(H2 O1)
;
_journal_coden_Cambridge 4
_journal_volume 129
_journal_year 2007
_journal_page_first 9410
_journal_name_full 'J.Am.Chem.Soc. '
loop_
_publ_author_name
"E.Cariati"
"R.Macchi"
"D.Roberto"
"R.Ugo"
"S.Galli"
"N.Casati"
"P.Macchi"
"A.Sironi"
"L.Bogani"
"A.Caneschi"
"D.Gatteschi"
_chemical_name_systematic
;
catena-(tetrakis(trans-4-(4-Dimethylaminostyryl)-1-methylpyridinium) 
bis((\m~2~-oxalato-O,O',O'',O''')-(\m~2~-oxalato-O,O',O'')-(oxalato-O,O'))-man
ganese-di-rhodium(iii) 4-dimethylaminobenzaldehyde solvate dihydrate)
;
_cell_volume  17791.904
_exptl_crystal_colour 'red'
_exptl_crystal_density_diffrn 1.55
_exptl_special_details
;
magnetic properties
isomorphous and isostructural with the iron(iii) and chromium(iii) analogues
;
_exptl_crystal_description 'needle'
_diffrn_ambient_temperature 293
#These two values have been output from a single CSD field.
_refine_ls_R_factor_gt 0.0468
_refine_ls_wR_factor_gt 0.0468
_symmetry_cell_setting orthorhombic
_symmetry_space_group_name_H-M 'F d d 2'
_symmetry_Int_Tables_number 43
loop_
_symmetry_equiv_pos_site_id
_symmetry_equiv_pos_as_xyz
1 x,y,z
2 -x,-y,z
3 1/4-x,1/4+y,1/4+z
4 1/4+x,1/4-y,1/4+z
5 x,1/2+y,1/2+z
6 -x,1/2-y,1/2+z
7 1/4-x,3/4+y,3/4+z
8 1/4+x,3/4-y,3/4+z
9 1/2+x,y,1/2+z
10 1/2-x,-y,1/2+z
11 3/4-x,1/4+y,3/4+z
12 3/4+x,1/4-y,3/4+z
13 1/2+x,1/2+y,z
14 1/2-x,1/2-y,z
15 3/4-x,3/4+y,1/4+z
16 3/4+x,3/4-y,1/4+z
_cell_length_a 38.937(3)
_cell_length_b 48.000(4)
_cell_length_c 9.5196(7)
_cell_angle_alpha 90
_cell_angle_beta 90
_cell_angle_gamma 90
_cell_formula_units_Z 8
loop_
_atom_type_symbol
_atom_type_radius_bond
C 0.68
H 0.23
Mn 1.42
N 0.68
O 0.68
Rh 1.45
loop_
_atom_site_label
_atom_site_type_symbol
_atom_site_fract_x
_atom_site_fract_y
_atom_site_fract_z
C1 C 0.84985(14) 0.05401(11) 0.3158(5)
C2 C 0.82037(14) 0.04907(11) 0.3944(6)
H1 H 0.79910 0.05320 0.35500
C3 C 0.83761(15) 0.10036(12) -0.2480(7)
H2 H 0.81650 0.10510 -0.28710
C4 C 0.82157(15) 0.03843(12) 0.5270(6)
H3 H 0.80120 0.03500 0.57500
C5 C 0.83856(14) 0.08999(11) -0.1161(6)
H4 H 0.81830 0.08790 -0.06560
C6 C 0.85325(15) 0.03259(11) 0.5928(6)
C7 C 0.86975(14) 0.08233(11) -0.0553(6)
C8 C 0.88344(15) 0.03864(12) 0.5143(6)
H5 H 0.90490 0.03540 0.55440
C9 C 0.89933(13) 0.08603(11) -0.1386(7)
H6 H 0.92070 0.08120 -0.10270
C10 C 0.88151(14) 0.04904(11) 0.3820(6)
H7 H 0.90170 0.05300 0.33380
C11 C 0.89700(15) 0.09665(12) -0.2710(6)
H8 H 0.91680 0.09880 -0.32480
C12 C 0.87340(15) 0.07096(12) 0.0846(6)
H9 H 0.89550 0.06720 0.11640
C13 C 0.84691(14) 0.06531(11) 0.1729(6)
H10 H 0.82490 0.06890 0.13990
C14 C 0.88566(15) -0.07006(11) 0.9335(6)
C15 C 0.85392(14) -0.07728(12) 0.9902(6)
H11 H 0.83430 -0.07530 0.93520
C16 C 0.85202(16) -0.02622(12) 0.3359(6)
H12 H 0.83390 -0.02380 0.27340
C17 C 0.85068(14) -0.08725(12) 1.1258(6)
H13 H 0.82900 -0.09110 1.16160
C18 C 0.84546(16) -0.03714(12) 0.4659(6)
H14 H 0.82310 -0.04160 0.49230
C19 C 0.87994(15) -0.09158(12) 1.2104(6)
C20 C 0.87292(15) -0.04158(12) 0.5593(6)
C21 C 0.91204(14) -0.08476(11) 1.1528(6)
H15 H 0.93180 -0.08740 1.20580
C22 C 0.90539(15) -0.03336(12) 0.5139(6)
H16 H 0.92410 -0.03550 0.57380
C23 C 0.91450(14) -0.07423(11) 1.0191(6)
H17 H 0.93610 -0.06970 0.98410
C24 C 0.91043(15) -0.02224(12) 0.3835(7)
H18 H 0.93240 -0.01700 0.35540
C25 C 0.89085(16) -0.05891(12) 0.7918(7)
H19 H 0.91330 -0.05480 0.76580
C26 C 0.86633(16) -0.05400(12) 0.6960(6)
H20 H 0.84380 -0.05880 0.71820
C27 C 0.99678(16) 0.12275(13) 0.3449(7)
C28 C 0.96379(15) 0.11878(13) 0.4295(6)
C29 C 1.00578(14) 0.04839(12) 0.6283(7)
C30 C 0.97555(15) 0.02889(13) 0.5796(7)
C31 C 1.01077(15) 0.03439(12) 1.1391(7)
C32 C 0.97519(15) 0.04529(12) 1.0892(7)
C33 C 0.77227(18) -0.00102(17) 0.1779(9)
H21 H 0.77190 0.00570 0.26960
C34 C 0.76747(16) -0.03042(15) 0.1593(7)
C35 C 0.76865(16) -0.04350(14) 0.0270(8)
H22 H 0.77420 -0.03290 -0.05150
C36 C 0.76202(16) -0.07100(16) 0.0097(7)
H23 H 0.76280 -0.07880 -0.07970
C37 C 0.75387(15) -0.08831(15) 0.1285(8)
C38 C 0.75450(17) -0.07573(15) 0.2630(7)
H24 H 0.75060 -0.08650 0.34280
C39 C 0.76096(16) -0.04733(16) 0.2760(7)
H25 H 0.76090 -0.03940 0.36500
C40 C 0.7476(2) -0.13436(17) 0.2331(9)
H26 H 0.77010 -0.13260 0.27380
H27 H 0.74410 -0.15320 0.20300
H28 H 0.73060 -0.12950 0.30170
C41 C 0.7426(3) -0.1283(2) -0.0231(9)
H29 H 0.73140 -0.11570 -0.08690
H30 H 0.72960 -0.14520 -0.01660
H31 H 0.76530 -0.13240 -0.05680
C42 C 0.82411(17) 0.01413(16) 0.7998(7)
H32 H 0.81220 0.03090 0.82500
H33 H 0.82980 0.00390 0.88340
H34 H 0.80960 0.00290 0.74090
C43 C 0.88748(15) 0.01599(14) 0.7945(6)
H35 H 0.90520 0.01360 0.72540
H36 H 0.88570 -0.00050 0.85080
H37 H 0.89310 0.03160 0.85360
C44 C 0.86425(17) 0.11520(13) -0.4711(6)
H38 H 0.85690 0.10070 -0.53360
H39 H 0.88640 0.12190 -0.49990
H40 H 0.84800 0.13020 -0.47370
C45 C 0.84383(16) -0.10949(15) 1.4028(7)
H41 H 0.82960 -0.09320 1.40570
H42 H 0.84700 -0.11650 1.49630
H43 H 0.83300 -0.12350 1.34610
C46 C 0.90774(16) -0.10788(13) 1.4273(6)
H44 H 0.92230 -0.12080 1.37870
H45 H 0.90110 -0.11560 1.51630
H46 H 0.91990 -0.09080 1.44220
C47 C 0.88908(18) -0.00728(14) 0.1530(6)
H47 H 0.88890 0.01270 0.15740
H48 H 0.87100 -0.01350 0.09210
H49 H 0.91080 -0.01350 0.11710
N1 N 0.86654(13) 0.10397(10) -0.3245(5)
N2 N 0.85515(13) 0.02107(11) 0.7252(5)
N3 N 0.88374(13) -0.01888(10) 0.2961(5)
N4 N 0.87685(12) -0.10244(11) 1.3427(5)
N5 N 0.74480(15) -0.11568(11) 0.1123(7)
O1 O 0.94798(11) 0.13918(9) 0.4728(5)
O2 O 1.00951(12) 0.14625(9) 0.3310(5)
O3 O 1.00971(11) 0.10030(9) 0.2904(5)
O4 O 0.95403(10) 0.09323(9) 0.4490(4)
O5 O 0.96496(10) 0.03248(8) 0.4541(5)
O6 O 1.01485(10) 0.06697(8) 0.5415(5)
O7 O 1.01840(11) 0.04431(9) 0.7442(4)
O8 O 0.96482(10) 0.01149(8) 0.6634(4)
O9 O 0.96015(10) 0.06172(9) 1.1808(5)
O10 O 1.02023(10) 0.04051(9) 1.2625(5)
O11 O 0.96358(11) 0.03812(9) 0.9771(5)
O12 O 1.02806(10) 0.02066(8) 1.0527(4)
Rh1 Rh 0.987068(11) 0.065861(9) 0.36170(5)
Mn1 Mn 1.00000 0.00000 0.85973(17)
O13 O 0.72331(13) 0.05318(10) 0.1665(5)
O14 O 0.77676(15) 0.0159(1) 0.0850(6)
C27A C 1.00322(16) -0.12275(13) 0.3449(7)
C28A C 1.03621(15) -0.11878(13) 0.4295(6)
C29A C 0.99422(14) -0.04839(12) 0.6283(7)
C30A C 1.02445(15) -0.02889(13) 0.5796(7)
C31A C 0.98923(15) -0.03439(12) 1.1391(7)
C32A C 1.02481(15) -0.04529(12) 1.0892(7)
O1A O 1.05202(11) -0.13918(9) 0.4728(5)
O2A O 0.99049(12) -0.14625(9) 0.3310(5)
O3A O 0.99029(11) -0.10030(9) 0.2904(5)
O4A O 1.04597(10) -0.09323(9) 0.4490(4)
O5A O 1.03504(10) -0.03248(8) 0.4541(5)
O6A O 0.98515(10) -0.06697(8) 0.5415(5)
O7A O 0.98160(11) -0.04431(9) 0.7442(4)
O8A O 1.03518(10) -0.01149(8) 0.6634(4)
O9A O 1.03985(10) -0.06172(9) 1.1808(5)
O9* O 0.96015(10) 0.06172(9) 0.1808(5)
O9A* O 1.03985(10) -0.06172(9) 0.1808(5)
O10A O 0.97977(10) -0.04051(9) 1.2625(5)
O10* O 1.02023(10) 0.04051(9) 0.2625(5)
O10A* O 0.97977(10) -0.04051(9) 0.2625(5)
O11A O 1.03642(11) -0.03812(9) 0.9771(5)
O12A O 0.97194(10) -0.02066(8) 1.0527(4)
Rh1A Rh 1.012932(11) -0.065861(9) 0.36170(5)
Rh1* Rh 0.987068(11) 0.065861(9) 1.36170(5)
Rh1A* Rh 1.012932(11) -0.065861(9) 1.36170(5)
#END
