
#######################################################################
#
#                 Cambridge Crystallographic Data Centre
#                                CCDC
#
#######################################################################
#
# If this CIF has been generated from an entry in the Cambridge
# Structural Database, then it will include bibliographic, chemical,
# crystal, experimental, refinement or atomic coordinate data resulting
# from the CCDC's data processing and validation procedures.
#
#######################################################################

data_CSD_CIF_LIKRAZ
_audit_creation_date 2008-01-17
_audit_creation_method CSD-ConQuest-V1
_database_code_CSD LIKRAZ
_database_code_depnum_ccdc_archive 'CCDC 662640'
_chemical_formula_sum 'C94 H102 Fe2 Mn1 N10 O28'
_chemical_formula_moiety
;
(C16 H19 N2 1+)4n,n(C12 Fe2 Mn1 O24 4-),2n(C9 H11 N1 O1),2n(H2 O1)
;
_journal_coden_Cambridge 4
_journal_volume 129
_journal_year 2007
_journal_page_first 9410
_journal_name_full 'J.Am.Chem.Soc. '
loop_
_publ_author_name
"E.Cariati"
"R.Macchi"
"D.Roberto"
"R.Ugo"
"S.Galli"
"N.Casati"
"P.Macchi"
"A.Sironi"
"L.Bogani"
"A.Caneschi"
"D.Gatteschi"
_chemical_name_systematic
;
catena-(tetrakis(trans-4-(4-Dimethylaminostyryl)-1-methylpyridinium) 
bis((\m~2~-oxalato-O,O',O'',O''')-(\m~2~-oxalato-O,O',O'')-(oxalato-O,O'))-man
ganese-di-iron(iii) 4-dimethylaminobenzaldehyde solvate dihydrate)
;
_cell_volume  18121.053
_exptl_crystal_colour 'purple'
_exptl_crystal_density_diffrn 1.453
_exptl_special_details
;
magnetic properties
isomorphous and isostructural with the rhodium(iii) and chromium(iii) 
analogues
;
_exptl_crystal_description 'prism'
_diffrn_ambient_temperature 293
#These two values have been output from a single CSD field.
_refine_ls_R_factor_gt 0.0507
_refine_ls_wR_factor_gt 0.0507
_symmetry_cell_setting orthorhombic
_symmetry_space_group_name_H-M 'F d d 2'
_symmetry_Int_Tables_number 43
loop_
_symmetry_equiv_pos_site_id
_symmetry_equiv_pos_as_xyz
1 x,y,z
2 -x,-y,z
3 1/4-x,1/4+y,1/4+z
4 1/4+x,1/4-y,1/4+z
5 x,1/2+y,1/2+z
6 -x,1/2-y,1/2+z
7 1/4-x,3/4+y,3/4+z
8 1/4+x,3/4-y,3/4+z
9 1/2+x,y,1/2+z
10 1/2-x,-y,1/2+z
11 3/4-x,1/4+y,3/4+z
12 3/4+x,1/4-y,3/4+z
13 1/2+x,1/2+y,z
14 1/2-x,1/2-y,z
15 3/4-x,3/4+y,1/4+z
16 3/4+x,3/4-y,1/4+z
_cell_length_a 39.406(3)
_cell_length_b 48.573(4)
_cell_length_c 9.4673(8)
_cell_angle_alpha 90
_cell_angle_beta 90
_cell_angle_gamma 90
_cell_formula_units_Z 8
loop_
_atom_type_symbol
_atom_type_radius_bond
C 0.68
H 0.23
Fe 1.34
Mn 1.41
N 0.68
O 0.68
loop_
_atom_site_label
_atom_site_type_symbol
_atom_site_fract_x
_atom_site_fract_y
_atom_site_fract_z
C1 C 0.84965(9) 0.05355(7) 0.3082(4)
C2 C 0.82031(9) 0.04831(8) 0.3875(4)
H1 H 0.79930 0.05230 0.34810
C3 C 0.83777(10) 0.09982(8) -0.2548(4)
H2 H 0.81700 0.10490 -0.29370
C4 C 0.82156(9) 0.03750(9) 0.5215(4)
H3 H 0.80150 0.03390 0.56970
C5 C 0.83857(10) 0.08952(8) -0.1219(5)
H4 H 0.81850 0.08780 -0.07080
C6 C 0.85279(9) 0.03173(8) 0.5869(4)
C7 C 0.86934(9) 0.08148(7) -0.0610(4)
C8 C 0.88242(9) 0.03794(8) 0.5093(4)
H5 H 0.90360 0.03500 0.55010
C9 C 0.89848(10) 0.08483(8) -0.1454(5)
H6 H 0.91960 0.07970 -0.11000
C10 C 0.88052(8) 0.04829(7) 0.3747(4)
H7 H 0.90050 0.05190 0.32620
C11 C 0.89617(11) 0.09545(9) -0.2779(4)
H8 H 0.91570 0.09760 -0.33180
C12 C 0.87271(10) 0.07013(8) 0.0786(4)
H9 H 0.89450 0.06630 0.11040
C13 C 0.84675(10) 0.06457(7) 0.1672(4)
H10 H 0.82500 0.06820 0.13430
C14 C 0.88589(9) -0.07060(7) 0.9276(4)
C15 C 0.85445(9) -0.07778(8) 0.9836(4)
H11 H 0.83510 -0.07550 0.92840
C16 C 0.85366(11) -0.02645(9) 0.3291(5)
H12 H 0.83570 -0.02370 0.26700
C17 C 0.85122(9) -0.08799(8) 1.1165(5)
H13 H 0.82970 -0.09230 1.15050
C18 C 0.84735(10) -0.03749(9) 0.4587(5)
H14 H 0.82520 -0.04180 0.48420
C19 C 0.87984(9) -0.09230(7) 1.2048(4)
C20 C 0.87375(9) -0.04233(8) 0.5533(4)
C21 C 0.91168(9) -0.08497(7) 1.1482(4)
H15 H 0.93120 -0.08740 1.20200
C22 C 0.90624(10) -0.03447(9) 0.5076(5)
H16 H 0.92470 -0.03700 0.56710
C23 C 0.91403(9) -0.07439(7) 1.0151(4)
H17 H 0.93530 -0.06950 0.98110
C24 C 0.91108(10) -0.02312(9) 0.3766(5)
H18 H 0.93280 -0.01790 0.34860
C25 C 0.89095(10) -0.05942(8) 0.7868(4)
H19 H 0.91320 -0.05520 0.76170
C26 C 0.86702(10) -0.05450(8) 0.6890(4)
H20 H 0.84470 -0.05920 0.71020
C27 C 0.99764(11) 0.12256(8) 0.3550(4)
C28 C 0.9630(1) 0.11879(9) 0.4268(4)
C29 C 1.00726(10) 0.04663(8) 0.6350(5)
C30 C 0.9760(1) 0.02942(9) 0.5949(5)
C31 C 1.00975(10) 0.03459(8) 1.1308(5)
C32 C 0.97328(10) 0.04372(8) 1.0892(5)
C33 C 0.77128(13) -0.00309(12) 0.1760(7)
H21 H 0.77010 0.00390 0.26730
C34 C 0.76744(10) -0.03297(9) 0.1594(5)
C35 C 0.76794(9) -0.04596(10) 0.0272(5)
H22 H 0.77270 -0.03550 -0.05250
C36 C 0.76178(10) -0.07319(10) 0.0109(4)
H23 H 0.76220 -0.08110 -0.07850
C37 C 0.75463(10) -0.08962(9) 0.1321(5)
C38 C 0.75543(10) -0.07698(11) 0.2646(5)
H24 H 0.75200 -0.08740 0.34570
C39 C 0.76125(10) -0.04929(10) 0.2755(5)
H25 H 0.76100 -0.04120 0.36460
C40 C 0.74879(16) -0.13503(11) 0.2390(7)
H26 H 0.77100 -0.13340 0.27960
H27 H 0.74500 -0.15380 0.21070
H28 H 0.73210 -0.12980 0.30750
C41 C 0.7431(2) -0.12970(14) -0.0192(8)
H29 H 0.73200 -0.11720 -0.08260
H30 H 0.73000 -0.14630 -0.01130
H31 H 0.76530 -0.13400 -0.05500
C42 C 0.82395(12) 0.01321(12) 0.7956(5)
H32 H 0.81180 0.02960 0.82150
H33 H 0.83010 0.00320 0.87940
H34 H 0.80980 0.00190 0.73710
C43 C 0.88641(11) 0.0150(1) 0.7876(5)
H35 H 0.90390 0.01260 0.71800
H36 H 0.88430 -0.00150 0.84270
H37 H 0.89220 0.03010 0.84840
C44 C 0.86411(14) 0.11414(10) -0.4770(4)
H38 H 0.85680 0.09990 -0.54070
H39 H 0.88600 0.12070 -0.50530
H40 H 0.84810 0.12900 -0.47890
C45 C 0.84439(11) -0.11046(11) 1.3944(5)
H41 H 0.83020 -0.09440 1.39760
H42 H 0.84740 -0.11750 1.48820
H43 H 0.83390 -0.12420 1.33630
C46 C 0.90677(12) -0.10835(10) 1.4222(5)
H44 H 0.92140 -0.12120 1.37480
H45 H 0.89990 -0.11590 1.51160
H46 H 0.91870 -0.09140 1.43730
C47 C 0.89119(14) -0.00774(10) 0.1472(5)
H47 H 0.89090 0.01200 0.15260
H48 H 0.87380 -0.01380 0.08360
H49 H 0.91290 -0.01380 0.11320
N1 N 0.86618(9) 0.10285(6) -0.3320(3)
N2 N 0.85457(8) 0.02070(8) 0.7181(4)
N3 N 0.88501(9) -0.01942(7) 0.2888(3)
N4 N 0.87692(8) -0.10323(8) 1.3359(4)
N5 N 0.74626(11) -0.11718(8) 0.1168(5)
O1 O 0.94656(8) 0.13876(7) 0.4658(4)
O2 O 1.01080(9) 0.14553(6) 0.3431(4)
O3 O 1.01097(7) 0.09982(6) 0.3101(3)
O4 O 0.95369(7) 0.09336(6) 0.4383(3)
O5 O 0.96421(7) 0.03456(6) 0.4716(4)
O6 O 1.01655(7) 0.06392(5) 0.5409(3)
O7 O 1.02008(8) 0.04307(6) 0.7509(3)
O8 O 0.96518(7) 0.01188(6) 0.6776(3)
O9 O 0.95926(7) 0.05854(6) 1.1885(3)
O10 O 1.01970(7) 0.04248(6) 1.2518(3)
O11 O 0.96141(8) 0.03674(7) 0.9790(4)
O12 O 1.02626(7) 0.02087(6) 1.0461(3)
Fe1 Fe 0.986897(14) 0.065558(12) 0.36476(7)
Mn1 Mn 1.00000 0.00000 0.86217(9)
O13 O 0.72275(10) 0.05342(7) 0.1593(4)
O14 O 0.77583(12) 0.01324(8) 0.0823(5)
C27A C 1.00236(11) -0.12256(8) 0.3550(4)
C28A C 1.0370(1) -0.11879(9) 0.4268(4)
C29A C 0.99274(10) -0.04663(8) 0.6350(5)
C30A C 1.0240(1) -0.02942(9) 0.5949(5)
C31A C 0.99025(10) -0.03459(8) 1.1308(5)
C32A C 1.02672(10) -0.04372(8) 1.0892(5)
O1A O 1.05344(8) -0.13876(7) 0.4658(4)
O2A O 0.98920(9) -0.14553(6) 0.3431(4)
O3A O 0.98903(7) -0.09982(6) 0.3101(3)
O4A O 1.04631(7) -0.09336(6) 0.4383(3)
O5A O 1.03579(7) -0.03456(6) 0.4716(4)
O6A O 0.98345(7) -0.06392(5) 0.5409(3)
O7A O 0.97992(8) -0.04307(6) 0.7509(3)
O8A O 1.03482(7) -0.01188(6) 0.6776(3)
O9A O 1.04074(7) -0.05854(6) 1.1885(3)
O9* O 0.95926(7) 0.05854(6) 0.1885(3)
O9A* O 1.04074(7) -0.05854(6) 0.1885(3)
O10A O 0.98030(7) -0.04248(6) 1.2518(3)
O10* O 1.01970(7) 0.04248(6) 0.2518(3)
O10A* O 0.98030(7) -0.04248(6) 0.2518(3)
O11A O 1.03859(8) -0.03674(7) 0.9790(4)
O12A O 0.97374(7) -0.02087(6) 1.0461(3)
Fe1A Fe 1.013103(14) -0.065558(12) 0.36476(7)
Fe1* Fe 0.986897(14) 0.065558(12) 1.36476(7)
Fe1A* Fe 1.013103(14) -0.065558(12) 1.36476(7)
#END
