
#######################################################################
#
#                 Cambridge Crystallographic Data Centre
#                                CCDC
#
#######################################################################
#
# If this CIF has been generated from an entry in the Cambridge
# Structural Database, then it will include bibliographic, chemical,
# crystal, experimental, refinement or atomic coordinate data resulting
# from the CCDC's data processing and validation procedures.
#
#######################################################################

data_CSD_CIF_LIKRED
_audit_creation_date 2008-01-17
_audit_creation_method CSD-ConQuest-V1
_database_code_CSD LIKRED
_database_code_depnum_ccdc_archive 'CCDC 662641'
_chemical_formula_sum 'C94 H102 Cr2 Mn1 N10 O28'
_chemical_formula_moiety
;
(C16 H19 N2 1+)4n,n(C12 Cr2 Mn1 O24 4-),2n(C9 H11 N1 O1),2n(H2 O1)
;
_journal_coden_Cambridge 4
_journal_volume 129
_journal_year 2007
_journal_page_first 9410
_journal_name_full 'J.Am.Chem.Soc. '
loop_
_publ_author_name
"E.Cariati"
"R.Macchi"
"D.Roberto"
"R.Ugo"
"S.Galli"
"N.Casati"
"P.Macchi"
"A.Sironi"
"L.Bogani"
"A.Caneschi"
"D.Gatteschi"
_chemical_name_systematic
;
catena-(tetrakis(trans-4-(4-Dimethylaminostyryl)-1-methylpyridinium) 
bis((\m~2~-oxalato-O,O',O'',O''')-(\m~2~-oxalato-O,O',O'')-(oxalato-O,O'))-man
ganese-di-chromium(iii) 4-dimethylaminobenzaldehyde solvate dihydrate)
;
_cell_volume  18141.569
_exptl_crystal_colour 'red'
_exptl_crystal_density_diffrn 1.446
_exptl_special_details
;
magnetic properties
isomorphous and isostructural with the iron(iii) and rhodium(iii) analogues
;
_exptl_crystal_description 'needle'
_diffrn_ambient_temperature 293
#These two values have been output from a single CSD field.
_refine_ls_R_factor_gt 0.0864
_refine_ls_wR_factor_gt 0.0864
_symmetry_cell_setting orthorhombic
_symmetry_space_group_name_H-M 'F d d 2'
_symmetry_Int_Tables_number 43
loop_
_symmetry_equiv_pos_site_id
_symmetry_equiv_pos_as_xyz
1 x,y,z
2 -x,-y,z
3 1/4-x,1/4+y,1/4+z
4 1/4+x,1/4-y,1/4+z
5 x,1/2+y,1/2+z
6 -x,1/2-y,1/2+z
7 1/4-x,3/4+y,3/4+z
8 1/4+x,3/4-y,3/4+z
9 1/2+x,y,1/2+z
10 1/2-x,-y,1/2+z
11 3/4-x,1/4+y,3/4+z
12 3/4+x,1/4-y,3/4+z
13 1/2+x,1/2+y,z
14 1/2-x,1/2-y,z
15 3/4-x,3/4+y,1/4+z
16 3/4+x,3/4-y,1/4+z
_cell_length_a 39.299(2)
_cell_length_b 48.612(3)
_cell_length_c 9.4962(6)
_cell_angle_alpha 90
_cell_angle_beta 90
_cell_angle_gamma 90
_cell_formula_units_Z 8
loop_
_atom_type_symbol
_atom_type_radius_bond
C 0.68
H 0.23
Cr 1.35
Mn 1.45
N 0.68
O 0.68
loop_
_atom_site_label
_atom_site_type_symbol
_atom_site_fract_x
_atom_site_fract_y
_atom_site_fract_z
C1 C 0.8493(2) 0.05376(15) 0.3102(9)
C2 C 0.82013(19) 0.04823(15) 0.3896(10)
H1 H 0.79890 0.05200 0.35070
C3 C 0.8378(2) 0.09957(17) -0.2539(10)
H2 H 0.81690 0.10430 -0.29320
C4 C 0.8217(2) 0.03748(17) 0.5213(9)
H3 H 0.80160 0.03360 0.56930
C5 C 0.8385(2) 0.08958(17) -0.122(1)
H4 H 0.81830 0.08780 -0.07190
C6 C 0.8533(2) 0.03201(16) 0.5871(9)
C7 C 0.8690(2) 0.08187(15) -0.0593(9)
C8 C 0.8822(2) 0.03803(16) 0.5121(10)
H5 H 0.90330 0.03510 0.55340
C9 C 0.8983(2) 0.08562(16) -0.1431(10)
H6 H 0.91960 0.08080 -0.10760
C10 C 0.88067(18) 0.04843(16) 0.3762(9)
H7 H 0.90080 0.05190 0.32780
C11 C 0.8958(2) 0.09633(17) -0.2758(9)
H8 H 0.91540 0.09900 -0.32870
C12 C 0.8727(2) 0.07060(17) 0.0794(9)
H9 H 0.89460 0.06700 0.11130
C13 C 0.8464(2) 0.06491(15) 0.1668(9)
H10 H 0.82460 0.06840 0.13320
C14 C 0.8863(2) -0.07045(15) 0.9300(9)
C15 C 0.8549(2) -0.07785(17) 0.9834(10)
H11 H 0.83560 -0.07590 0.92750
C16 C 0.8539(2) -0.02694(19) 0.3315(10)
H12 H 0.83600 -0.02470 0.26870
C17 C 0.85185(19) -0.08794(17) 1.117(1)
H13 H 0.83030 -0.09200 1.15180
C18 C 0.8478(2) -0.03783(17) 0.4619(10)
H14 H 0.82560 -0.04220 0.48800
C19 C 0.8804(2) -0.09227(17) 1.2033(9)
C20 C 0.87420(19) -0.04231(15) 0.5551(8)
C21 C 0.91266(19) -0.08487(15) 1.1494(9)
H15 H 0.93220 -0.08670 1.20370
C22 C 0.9066(2) -0.03477(17) 0.5091(9)
H16 H 0.92530 -0.03750 0.56780
C23 C 0.9142(2) -0.07489(15) 1.0143(10)
H17 H 0.93550 -0.07090 0.97740
C24 C 0.9113(2) -0.02339(18) 0.3785(11)
H18 H 0.93300 -0.01830 0.34940
C25 C 0.8909(2) -0.05973(16) 0.7896(10)
H19 H 0.91330 -0.05590 0.76480
C26 C 0.8676(2) -0.05438(17) 0.6885(9)
H20 H 0.84520 -0.05900 0.70830
C27 C 0.9967(2) 0.1220(2) 0.3500(11)
C28 C 0.9625(2) 0.1179(2) 0.4271(10)
C29 C 1.0064(2) 0.0481(2) 0.6366(19)
C30 C 0.9762(3) 0.0290(2) 0.5987(15)
C31 C 1.0099(3) 0.0347(2) 1.1355(18)
C32 C 0.9742(2) 0.0443(2) 1.0869(15)
C33 C 0.7714(2) -0.0026(3) 0.1804(13)
H21 H 0.77050 0.00400 0.27220
C34 C 0.7678(2) -0.03242(19) 0.1581(10)
C35 C 0.7684(2) -0.0451(2) 0.0293(11)
H22 H 0.77300 -0.03440 -0.04980
C36 C 0.7627(2) -0.0715(2) 0.0122(11)
H23 H 0.76360 -0.07910 -0.07770
C37 C 0.7552(2) -0.08893(18) 0.1315(11)
C38 C 0.7559(2) -0.0764(2) 0.2602(10)
H24 H 0.75210 -0.08680 0.34070
C39 C 0.7622(2) -0.0487(2) 0.2735(11)
H25 H 0.76260 -0.04080 0.36280
C40 C 0.7487(3) -0.1339(2) 0.2392(13)
H26 H 0.77040 -0.13150 0.28460
H27 H 0.74620 -0.15280 0.21070
H28 H 0.73080 -0.12920 0.30360
C41 C 0.7436(4) -0.1285(3) -0.0162(16)
H29 H 0.73180 -0.11640 -0.07950
H30 H 0.73090 -0.14530 -0.00620
H31 H 0.76570 -0.13250 -0.05330
C42 C 0.8242(2) 0.0122(2) 0.7935(10)
H32 H 0.81360 0.02800 0.83530
H33 H 0.83050 -0.00060 0.86610
H34 H 0.80850 0.00350 0.73000
C43 C 0.8861(2) 0.01468(19) 0.7860(9)
H35 H 0.90470 0.01810 0.72260
H36 H 0.88640 -0.00430 0.81430
H37 H 0.88840 0.02620 0.86750
C44 C 0.8636(3) 0.11447(19) -0.4753(10)
H38 H 0.84760 0.10390 -0.52950
H39 H 0.88560 0.11360 -0.51940
H40 H 0.85620 0.13330 -0.47060
C45 C 0.8449(3) -0.1091(2) 1.3936(11)
H41 H 0.83030 -0.09340 1.38510
H42 H 0.84710 -0.11400 1.49110
H43 H 0.83520 -0.12430 1.34280
C46 C 0.9069(2) -0.10780(19) 1.4225(10)
H44 H 0.92270 -0.11920 1.37190
H45 H 0.90030 -0.11690 1.50800
H46 H 0.91770 -0.09060 1.44490
C47 C 0.8907(3) -0.0084(2) 0.1497(10)
H47 H 0.87640 0.00740 0.13540
H48 H 0.88530 -0.02220 0.08110
H49 H 0.91410 -0.00310 0.13980
N1 N 0.86586(19) 0.10292(13) -0.3304(8)
N2 N 0.85449(17) 0.02068(15) 0.7163(8)
N3 N 0.88501(19) -0.01956(13) 0.2933(7)
N4 N 0.87745(18) -0.10286(16) 1.3372(8)
N5 N 0.7468(2) -0.11593(18) 0.1141(11)
O1 O 0.94623(17) 0.13772(14) 0.4675(8)
O2 O 1.00931(17) 0.14472(13) 0.3347(7)
O3 O 1.00968(16) 0.09910(14) 0.3030(8)
O4 O 0.95464(14) 0.09271(14) 0.4458(8)
O5 O 0.96522(16) 0.03412(13) 0.4633(10)
O6 O 1.01453(14) 0.06547(12) 0.5392(9)
O7 O 1.0200(2) 0.04387(15) 0.7485(10)
O8 O 0.96502(16) 0.01155(14) 0.6709(10)
O9 O 0.96027(15) 0.06019(14) 1.1895(9)
O10 O 1.01860(15) 0.04176(12) 1.2598(10)
O11 O 0.96130(18) 0.03787(16) 0.983(1)
O12 O 1.02650(17) 0.02100(14) 1.0527(9)
Cr1 Cr 0.98670(4) 0.06583(3) 0.3664(2)
Mn1 Mn 1.00000 0.00000 0.8624(3)
O13 O 0.72201(18) 0.05467(13) 0.1579(8)
O14 O 0.7756(2) 0.01403(16) 0.0848(10)
C27A C 1.0033(2) -0.1220(2) 0.3500(11)
C28A C 1.0375(2) -0.1179(2) 0.4271(10)
C29A C 0.9936(2) -0.0481(2) 0.6366(19)
C30A C 1.0238(3) -0.0290(2) 0.5987(15)
C31A C 0.9901(3) -0.0347(2) 1.1355(18)
C32A C 1.0258(2) -0.0443(2) 1.0869(15)
O1A O 1.05377(17) -0.13772(14) 0.4675(8)
O2A O 0.99069(17) -0.14472(13) 0.3347(7)
O3A O 0.99032(16) -0.09910(14) 0.3030(8)
O4A O 1.04536(14) -0.09271(14) 0.4458(8)
O5A O 1.03478(16) -0.03412(13) 0.4633(10)
O6A O 0.98547(14) -0.06547(12) 0.5392(9)
O7A O 0.9800(2) -0.04387(15) 0.7485(10)
O8A O 1.03498(16) -0.01155(14) 0.6709(10)
O9A O 1.03973(15) -0.06019(14) 1.1895(9)
O9* O 0.96027(15) 0.06019(14) 0.1895(9)
O9A* O 1.03973(15) -0.06019(14) 0.1895(9)
O10A O 0.98140(15) -0.04176(12) 1.2598(10)
O10* O 1.01860(15) 0.04176(12) 0.2598(10)
O10A* O 0.98140(15) -0.04176(12) 0.2598(10)
O11A O 1.03870(18) -0.03787(16) 0.983(1)
O12A O 0.97350(17) -0.02100(14) 1.0527(9)
Cr1A Cr 1.01330(4) -0.06583(3) 0.3664(2)
Cr1* Cr 0.98670(4) 0.06583(3) 1.3664(2)
Cr1A* Cr 1.01330(4) -0.06583(3) 1.3664(2)
#END
