
#######################################################################
#
#                 Cambridge Crystallographic Data Centre
#                                CCDC
#
#######################################################################
#
# If this CIF has been generated from an entry in the Cambridge
# Structural Database, then it will include bibliographic, chemical,
# crystal, experimental, refinement or atomic coordinate data resulting
# from the CCDC's data processing and validation procedures.
#
#######################################################################

data_CSD_CIF_LIQFEY
_audit_creation_date 2013-10-16
_audit_creation_method CSD-ConQuest-V1
_database_code_CSD LIQFEY
_database_code_depnum_ccdc_archive 'CCDC 888081'
_chemical_formula_sum 'C42 H36 Cd3 N2 O22'
_chemical_formula_moiety
;
(C36 H12 Cd3 O16 2-)n,2n(H2 O1),2n(C3 H7 N1 O1),2n(H3 O1 1+)
;
_journal_coden_Cambridge 1147
_journal_volume 13
_journal_year 2013
_journal_page_first 1033
_journal_name_full 'Cryst.Growth Des. '
loop_
_publ_author_name
"Bing Zheng"
"Jiahuan Luo"
"Fang Wang"
"Yu Peng"
"Guanghua Li"
"Qisheng Huo"
"Yunling Liu"
_chemical_name_systematic
;
catena-[dioxonium 
bis(\m~7~-5,5'-ethyne-1,2-diyldibenzene-1,3-dicarboxylato)-tri-cadmium 
N,N-dimethylformamide solvate dihydrate]
;
_cell_volume   1188.500
_exptl_crystal_colour 'colorless'
_exptl_crystal_density_diffrn 1.758
_exptl_crystal_description 'block'
_diffrn_ambient_temperature 293
_refine_special_details
;
The structure is disordered. The N,N-dimethylformamide solvent has not been 
modelled from the diffraction data.
;
#These two values have been output from a single CSD field.
_refine_ls_R_factor_gt 0.0414
_refine_ls_wR_factor_gt 0.0414
_symmetry_cell_setting triclinic
_symmetry_space_group_name_H-M 'P -1'
_symmetry_Int_Tables_number 2
loop_
_symmetry_equiv_pos_site_id
_symmetry_equiv_pos_as_xyz
1 x,y,z
2 -x,-y,-z
_cell_length_a 9.899(2)
_cell_length_b 10.362(2)
_cell_length_c 13.180(3)
_cell_angle_alpha 68.87(3)
_cell_angle_beta 70.65(3)
_cell_angle_gamma 80.77(3)
_cell_formula_units_Z 1
loop_
_atom_type_symbol
_atom_type_radius_bond
C 0.68
H 0.23
Cd 1.44
O 0.68
loop_
_atom_site_label
_atom_site_type_symbol
_atom_site_fract_x
_atom_site_fract_y
_atom_site_fract_z
Cd1 Cd 0.00000 0.00000 0.00000
Cd2 Cd 0.01405(4) 0.30815(3) -0.23635(3)
O1 O 0.1164(4) 0.2049(4) -0.0942(3)
O2 O 0.2850(4) 0.3196(5) -0.2419(3)
O3 O 0.7795(4) 0.2848(5) -0.1995(4)
O4 O 0.8129(4) 0.1510(5) -0.0349(4)
O5 O 0.0876(5) 0.1537(4) 0.6774(3)
O6 O 0.0449(4) -0.0362(4) 0.8318(3)
O7 O -0.0081(5) -0.4714(4) 0.7749(3)
O8 O 0.0778(5) -0.4930(4) 0.6058(3)
C1 C 0.3428(5) 0.2066(5) -0.0676(4)
C2 C 0.4871(5) 0.2290(5) -0.1162(4)
H1 H 0.52370 0.27210 -0.19440
C3 C 0.5778(5) 0.1867(5) -0.0479(4)
C4 C 0.5214(5) 0.1235(5) 0.0695(4)
H2 H 0.58230 0.09360 0.11500
C5 C 0.3760(5) 0.1050(5) 0.1188(4)
C6 C 0.2865(5) 0.1483(5) 0.0492(4)
H3 H 0.18820 0.13790 0.08140
C7 C 0.2439(5) 0.2473(5) -0.1415(4)
C8 C 0.7339(5) 0.2081(6) -0.0981(5)
C9 C 0.3159(6) 0.0409(6) 0.2395(4)
C10 C 0.2587(6) -0.0133(6) 0.3393(4)
C11 C 0.1021(5) -0.0580(5) 0.6484(4)
C12 C 0.0627(6) -0.1945(5) 0.6922(4)
H4 H 0.01980 -0.23450 0.77000
C13 C 0.0872(5) -0.2719(5) 0.6200(4)
C14 C 0.1509(6) -0.2129(5) 0.5034(4)
H5 H 0.16680 -0.26450 0.45520
C15 C 0.1907(6) -0.0756(5) 0.4594(4)
C16 C 0.1638(6) -0.0003(5) 0.5326(4)
H6 H 0.18810 0.09190 0.50280
C17 C 0.0756(6) 0.0271(6) 0.7264(4)
C18 C 0.0507(6) -0.4214(5) 0.6698(4)
O9 O -0.179(2) -0.572(2) 1.0476(16)
O10 O -0.325(3) -0.566(3) 1.069(2)
O11 O 0.553(3) 0.541(3) -0.077(2)
O12? O 0.50000 0.50000 0.00000
O13? O 0.2744(15) 0.4679(16) -0.6039(12)
O14? O 0.357(2) 0.378(2) -0.4922(17)
O15? O 0.479(4) 0.058(3) -0.491(3)
O16? O 0.440(3) 0.232(3) -0.468(3)
O17? O 0.458(3) 0.464(4) -0.480(3)
O18? O 0.487(6) 0.154(6) -0.558(5)
O19? O 0.427(10) 0.120(11) -0.412(8)
Cd2A Cd -0.01405(4) -0.30815(3) 0.23635(3)
O1A O -0.1164(4) -0.2049(4) 0.0942(3)
O2A O -0.2850(4) -0.3196(5) 0.2419(3)
O3A O -0.7795(4) -0.2848(5) 0.1995(4)
O4A O -0.8129(4) -0.1510(5) 0.0349(4)
O5A O -0.0876(5) -0.1537(4) -0.6774(3)
O6A O -0.0449(4) 0.0362(4) -0.8318(3)
O7A O 0.0081(5) 0.4714(4) -0.7749(3)
O8A O -0.0778(5) 0.4930(4) -0.6058(3)
C1A C -0.3428(5) -0.2066(5) 0.0676(4)
C2A C -0.4871(5) -0.2290(5) 0.1162(4)
H1A H -0.52370 -0.27210 0.19440
C3A C -0.5778(5) -0.1867(5) 0.0479(4)
C4A C -0.5214(5) -0.1235(5) -0.0695(4)
H2A H -0.58230 -0.09360 -0.11500
C5A C -0.3760(5) -0.1050(5) -0.1188(4)
C6A C -0.2865(5) -0.1483(5) -0.0492(4)
H3A H -0.18820 -0.13790 -0.08140
C7A C -0.2439(5) -0.2473(5) 0.1415(4)
C8A C -0.7339(5) -0.2081(6) 0.0981(5)
C9A C -0.3159(6) -0.0409(6) -0.2395(4)
C10A C -0.2587(6) 0.0133(6) -0.3393(4)
C11A C -0.1021(5) 0.0580(5) -0.6484(4)
C12A C -0.0627(6) 0.1945(5) -0.6922(4)
H4A H -0.01980 0.23450 -0.77000
C13A C -0.0872(5) 0.2719(5) -0.6200(4)
C14A C -0.1509(6) 0.2129(5) -0.5034(4)
H5A H -0.16680 0.26450 -0.45520
C15A C -0.1907(6) 0.0756(5) -0.4594(4)
C16A C -0.1638(6) 0.0003(5) -0.5326(4)
H6A H -0.18810 -0.09190 -0.50280
C17A C -0.0756(6) -0.0271(6) -0.7264(4)
C18A C -0.0507(6) 0.4214(5) -0.6698(4)
Cd1* Cd -1.00000 0.00000 0.00000
Cd1** Cd 0.00000 0.00000 -1.00000
Cd1*** Cd 0.00000 0.00000 1.00000
Cd1**** Cd 1.00000 0.00000 0.00000
Cd2* Cd 0.01405(4) -0.69185(3) 0.76365(3)
Cd2** Cd 0.01405(4) 0.30815(3) 0.76365(3)
Cd2*** Cd 1.01405(4) 0.30815(3) -0.23635(3)
Cd2A* Cd -1.01405(4) -0.30815(3) 0.23635(3)
Cd2A** Cd -0.01405(4) -0.30815(3) -0.76365(3)
Cd2A*** Cd -0.01405(4) 0.69185(3) -0.76365(3)
O3* O -0.2205(4) 0.2848(5) -0.1995(4)
O3A* O 0.2205(4) -0.2848(5) 0.1995(4)
O4* O -0.1871(4) 0.1510(5) -0.0349(4)
O4A* O 0.1871(4) -0.1510(5) 0.0349(4)
O5* O 0.0876(5) 0.1537(4) -0.3226(3)
O5A* O -0.0876(5) -0.1537(4) 0.3226(3)
O6* O 0.0449(4) -0.0362(4) -0.1682(3)
O6A* O -0.0449(4) 0.0362(4) 0.1682(3)
O7* O -0.0081(5) 0.5286(4) -0.2251(3)
O7A* O 0.0081(5) -0.5286(4) 0.2251(3)
O8* O 0.0778(5) 0.5070(4) -0.3942(3)
O8A* O -0.0778(5) -0.5070(4) 0.3942(3)
#END
