
#######################################################################
#
#                 Cambridge Crystallographic Data Centre
#                                CCDC
#
#######################################################################
#
# If this CIF has been generated from an entry in the Cambridge
# Structural Database, then it will include bibliographic, chemical,
# crystal, experimental, refinement or atomic coordinate data resulting
# from the CCDC's data processing and validation procedures.
#
#######################################################################

data_CSD_CIF_LIQSAG
_audit_creation_date 2008-04-01
_audit_creation_method CSD-ConQuest-V1
_database_code_CSD LIQSAG
_database_code_depnum_ccdc_archive 'CCDC 644687'
_chemical_formula_sum 'C14 H28 Cu1 Mn2 N4 O14'
_chemical_formula_moiety
;
(C8 H24 Cu1 N4 2+)n,n(C6 Mn2 O12 2-),2n(H2 O1)
;
_journal_coden_Cambridge 1295
_journal_volume 10
_journal_year 2007
_journal_page_first 1325
_journal_name_full 'Inorg.Chem.Commun. '
loop_
_publ_author_name
"A.O.Beznischenko"
"V.G.Makhankova"
"V.N.Kokozay"
"R.I.Zubatyuk"
"O.V.Shishkin"
_chemical_name_systematic
;
catena-(bis(N,N-Dimethylethylenediamine)-copper(ii) 
tris(\m~2~-oxalato)-di-manganese(ii) dihydrate)
;
_cell_volume    598.650
_exptl_crystal_colour 'dark violet'
_exptl_crystal_density_diffrn 1.802
_diffrn_ambient_temperature 100
#These two values have been output from a single CSD field.
_refine_ls_R_factor_gt 0.0321
_refine_ls_wR_factor_gt 0.0321
_symmetry_cell_setting triclinic
_symmetry_space_group_name_H-M 'P -1'
_symmetry_Int_Tables_number 2
loop_
_symmetry_equiv_pos_site_id
_symmetry_equiv_pos_as_xyz
1 x,y,z
2 -x,-y,-z
_cell_length_a 8.6108(17)
_cell_length_b 9.1233(14)
_cell_length_c 9.2126(14)
_cell_angle_alpha 106.892(13)
_cell_angle_beta 94.040(14)
_cell_angle_gamma 117.115(17)
_cell_formula_units_Z 1
loop_
_atom_type_symbol
_atom_type_radius_bond
C 0.68
H 0.23
Cu 1.52
Mn 1.35
N 0.68
O 0.68
loop_
_atom_site_label
_atom_site_type_symbol
_atom_site_fract_x
_atom_site_fract_y
_atom_site_fract_z
Cu1 Cu 0.00000 0.50000 0.50000
Mn1 Mn 0.31105(3) 0.31582(3) 0.18413(3)
O1 O 0.27812(15) 0.43467(16) 0.41604(13)
O2 O 0.18554(16) 0.03210(16) 0.12383(14)
O3 O -0.04141(16) -0.21769(15) -0.05401(14)
O4 O 0.43204(17) 0.28294(16) -0.01375(14)
O5 O 0.58904(18) 0.43352(16) -0.15469(15)
O6 O 0.44511(16) 0.60865(17) 0.65943(14)
O7 O 0.52192(19) 0.01557(19) 0.17846(18)
H1 H 0.41910 0.00040 0.14540
H2 H 0.54130 -0.05870 0.11930
N1 N -0.09674(19) 0.26222(19) 0.53867(17)
N2 N 0.11955(19) 0.61297(19) 0.72689(16)
H3 H 0.24220 0.67040 0.73940
H4 H 0.08810 0.69560 0.77460
C1 C 0.0421(2) -0.0536(2) 0.02025(18)
C2 C 0.5057(2) 0.4178(2) -0.04937(18)
C3 C 0.4202(2) 0.5130(2) 0.52206(18)
C4 C 0.0299(2) 0.3065(2) 0.6835(2)
H5 H 0.14370 0.31620 0.65920
H6 H -0.02290 0.21150 0.72640
C5 C 0.0670(2) 0.4795(2) 0.8024(2)
H7 H -0.04170 0.46430 0.84100
H8 H 0.16510 0.51930 0.89250
C6 C -0.2800(2) 0.2032(2) 0.5647(2)
H9 H -0.31820 0.10010 0.59570
H10 H -0.36330 0.17110 0.46800
H11 H -0.28000 0.29910 0.64760
C7 C -0.1031(2) 0.1132(2) 0.4130(2)
H12 H -0.13790 0.01260 0.44700
H13 H 0.01570 0.15000 0.39020
H14 H -0.19130 0.07850 0.31860
Mn1A Mn 0.68895(3) 0.68418(3) 0.81587(3)
Mn1A* Mn -0.31105(3) -0.31582(3) -0.18413(3)
Mn1A** Mn 0.68895(3) 0.68418(3) -0.18413(3)
O1A O 0.72188(15) 0.56533(16) 0.58396(13)
O2A O -0.18554(16) -0.03210(16) -0.12383(14)
O2A* O 0.81446(16) 0.96790(16) 0.87617(14)
O3A O 0.04141(16) 0.21769(15) 0.05401(14)
O3* O 0.95859(16) 0.78231(15) 0.94599(14)
O4A O 0.56796(17) 0.71706(16) 0.01375(14)
O4A* O 0.56796(17) 0.71706(16) 1.01375(14)
O5A O 0.41096(18) 0.56648(16) 0.15469(15)
O5* O 0.58904(18) 0.43352(16) 0.84531(15)
O6A O 0.55489(16) 0.39135(17) 0.34057(14)
N1A N 0.09674(19) 0.73778(19) 0.46133(17)
N2A N -0.11955(19) 0.38703(19) 0.27311(16)
H3A H -0.24220 0.32960 0.26060
H4A H -0.08810 0.30440 0.22540
C1A C -0.0421(2) 0.0536(2) -0.02025(18)
C2A C 0.4943(2) 0.5822(2) 0.04937(18)
C3A C 0.5798(2) 0.4870(2) 0.47794(18)
C4A C -0.0299(2) 0.6935(2) 0.3165(2)
H5A H -0.14370 0.68380 0.34080
H6A H 0.02290 0.78850 0.27360
C5A C -0.0670(2) 0.5205(2) 0.1976(2)
H7A H 0.04170 0.53570 0.15900
H8A H -0.16510 0.48070 0.10750
C6A C 0.2800(2) 0.7968(2) 0.4353(2)
H9A H 0.31820 0.89990 0.40430
H10A H 0.36330 0.82890 0.53200
H11A H 0.28000 0.70090 0.35240
C7A C 0.1031(2) 0.8868(2) 0.5870(2)
H12A H 0.13790 0.98740 0.55300
H13A H -0.01570 0.85000 0.60980
H14A H 0.19130 0.92150 0.68140
#END
