
#######################################################################
#
#                 Cambridge Crystallographic Data Centre
#                                CCDC
#
#######################################################################
#
# If this CIF has been generated from an entry in the Cambridge
# Structural Database, then it will include bibliographic, chemical,
# crystal, experimental, refinement or atomic coordinate data resulting
# from the CCDC's data processing and validation procedures.
#
#######################################################################

data_CSD_CIF_LISBIB
_audit_creation_date 2018-10-22
_audit_creation_method CSD-ConQuest-V1
_database_code_CSD LISBIB
_database_code_depnum_ccdc_archive 'CCDC 1858064'
_chemical_formula_sum 'C8 H9 Eu1 O13 S2'
_chemical_formula_moiety
;
(C8 H6 Eu1 O12 S2 1-)n,H3 O1 1+
;
_journal_coden_Cambridge 1350
_journal_volume 20
_journal_year 2018
_journal_page_first 6989
_journal_name_full 'CrystEngComm '
loop_
_publ_author_name
"Yue-Ying Yuan"
"Shuai-Liang Yang"
"Chen-Xi Zhang"
"Qing-Lun Wang"
_chemical_name_systematic
;
catena-[oxonium 
(\m-4,6-disulfonatobenzene-1,3-dicarboxylato)-diaqua-europium(iii) unknown 
solvate]
;
_cell_volume   3846.188
_exptl_crystal_density_diffrn 1.828
_exptl_crystal_description 'block'
_diffrn_ambient_temperature 293
_refine_special_details
;
Disordered solvent molecules were not modelled and the disordered density was 
taken into account using the SQUEEZE/PLATON procedure.
;
#These two values have been output from a single CSD field.
_refine_ls_R_factor_gt 0.0639
_refine_ls_wR_factor_gt 0.0639
_symmetry_cell_setting orthorhombic
_symmetry_space_group_name_H-M 'C m c m'
_symmetry_Int_Tables_number 63
loop_
_symmetry_equiv_pos_site_id
_symmetry_equiv_pos_as_xyz
1 x,y,z
2 -x,-y,1/2+z
3 x,-y,-z
4 -x,y,1/2-z
5 1/2+x,1/2+y,z
6 1/2-x,1/2-y,1/2+z
7 1/2+x,1/2-y,-z
8 1/2-x,1/2+y,1/2-z
9 -x,-y,-z
10 x,y,-1/2-z
11 -x,y,z
12 x,-y,-1/2+z
13 -1/2-x,-1/2-y,-z
14 -1/2+x,-1/2+y,-1/2-z
15 -1/2-x,-1/2+y,z
16 -1/2+x,-1/2-y,-1/2+z
_cell_length_a 23.1181(18)
_cell_length_b 8.8477(8)
_cell_length_c 18.8039(12)
_cell_angle_alpha 90
_cell_angle_beta 90
_cell_angle_gamma 90
_cell_formula_units_Z 8
loop_
_atom_type_symbol
_atom_type_radius_bond
C 0.68
H 0.23
Eu 1.98
O 0.68
S 1.02
loop_
_atom_site_label
_atom_site_type_symbol
_atom_site_fract_x
_atom_site_fract_y
_atom_site_fract_z
Eu1 Eu 0.26220(3) 0.00000 0.50000
S1 S 0.1300(3) 0.0077(4) 0.3895(2)
O1 O 0.2296(3) -0.2202(8) 0.4343(4)
O2 O 0.3487(4) 0.1458(7) 0.5265(4)
H1 H 0.37170 0.10150 0.56150
H2 H 0.34060 0.24260 0.54300
C1 C 0.2067(6) -0.2716(16) 0.25000
H3 H 0.22440 -0.36590 0.25000
C2 C 0.2099(4) -0.2856(10) 0.3798(5)
C3 C 0.1943(4) -0.2056(11) 0.3150(4)
O3 O 0.1762(3) 0.0695(7) 0.4305(3)
C4 C 0.1461(7) -0.0012(13) 0.25000
C5 C 0.1622(4) -0.0664(11) 0.3166(5)
O4 O 0.0902(5) 0.1179(15) 0.3694(6)
O5 O 0.2052(4) -0.4272(7) 0.3789(3)
O6 O 0.1037(6) -0.115(2) 0.4247(9)
O7 O 0.00000 0.141(3) 0.3679(14)
H4 H 0.02360 0.21410 0.37230
H5? H 0.01820 0.05790 0.37070
S1I S 0.1300(3) 0.0077(4) 0.1105(2)
O1I O 0.2296(3) -0.2202(8) 0.0657(4)
C2I C 0.2099(4) -0.2856(10) 0.1202(5)
C3I C 0.1943(4) -0.2056(11) 0.1850(4)
O3I O 0.1762(3) 0.0695(7) 0.0695(3)
C5I C 0.1622(4) -0.0664(11) 0.1834(5)
O4I O 0.0902(5) 0.1179(15) 0.1306(6)
O5I O 0.2052(4) -0.4272(7) 0.1211(3)
O6I O 0.1037(6) -0.115(2) 0.0753(9)
O2B O 0.3487(4) -0.1458(7) 0.4735(4)
H1B H 0.37170 -0.10150 0.43850
H2B H 0.34060 -0.24260 0.45700
Eu1E Eu 0.23780(3) -0.50000 0.00000
Eu1I Eu 0.26220(3) 0.00000 0.00000
Eu1L Eu 0.23780(3) -0.50000 0.50000
O1B O 0.2296(3) 0.2202(8) 0.5657(4)
O1L O 0.2704(3) -0.2798(8) 0.5657(4)
O1N O 0.2704(3) 0.2798(8) 0.4343(4)
O3B O 0.1762(3) -0.0695(7) 0.5695(3)
O5L O 0.2948(4) -0.0728(7) 0.6211(3)
O5N O 0.2948(4) 0.0728(7) 0.3789(3)
H4J H -0.02360 0.21410 0.37230
#END
