
#######################################################################
#
#                 Cambridge Crystallographic Data Centre
#                                CCDC
#
#######################################################################
#
# If this CIF has been generated from an entry in the Cambridge
# Structural Database, then it will include bibliographic, chemical,
# crystal, experimental, refinement or atomic coordinate data resulting
# from the CCDC's data processing and validation procedures.
#
#######################################################################

data_CSD_CIF_LIWFUS
_audit_creation_date 2000-08-04
_audit_creation_method CSD-ConQuest-V1
_database_code_CSD LIWFUS
_chemical_formula_sum 'C4 H20 N2 O20 P4 V4'
_chemical_formula_moiety
;
(C4 H12 O20 P4 V4 2-)n,2n(H4 N1 1+)
;
_journal_coden_Cambridge 1347
_journal_volume 23
_journal_year 1998
_journal_page_first 23
_journal_name_full 'Microporous and Mesoporous Materials '
loop_
_publ_author_name
"D.Riou"
"O.Roubeau"
"G.Ferey"
_chemical_name_systematic
;
catena-(bis(Ammonium) 
bis((\m~6~-ethane-1,2-diphosphonato)-(\m~2~-oxo)-dioxo-aqua-di-vanadium(iv,v))
)
;
_cell_volume    550.856
_exptl_crystal_colour 'green'
_exptl_crystal_density_diffrn 2.244
_exptl_crystal_description 'parallelepiped'
_diffrn_ambient_temperature ?
_diffrn_special_details
;
The study was carried out at room temperature,in the range 283-303K

;
#These two values have been output from a single CSD field.
_refine_ls_R_factor_gt 0.0286
_refine_ls_wR_factor_gt 0.0286
_symmetry_cell_setting triclinic
_symmetry_space_group_name_H-M 'P -1'
_symmetry_Int_Tables_number 2
loop_
_symmetry_equiv_pos_site_id
_symmetry_equiv_pos_as_xyz
1 x,y,z
2 -x,-y,-z
_cell_length_a 7.4548(3)
_cell_length_b 8.0825(3)
_cell_length_c 10.1660(4)
_cell_angle_alpha 75.244(1)
_cell_angle_beta 68.883(1)
_cell_angle_gamma 80.648(1)
_cell_formula_units_Z 1
loop_
_atom_type_symbol
_atom_type_radius_bond
C 0.68
H 0.23
N 0.68
O 0.68
P 1.05
V 1.33
loop_
_atom_site_label
_atom_site_type_symbol
_atom_site_fract_x
_atom_site_fract_y
_atom_site_fract_z
V1 V 0.2440(1) -0.4836(1) 0.2622(1)
V2 V 0.3074(1) -0.2386(1) -0.2528(1)
P1 P 0.5323(1) -0.2648(1) -0.0312(1)
P2 P -0.0973(1) -0.7230(1) 0.4785(1)
O1 O 0.4783(2) -0.3608(2) 0.1261(2)
O2 O 0.7113(2) -0.3488(2) -0.1310(2)
O3 O 0.0731(2) -0.3681(2) 0.2123(2)
O4 O 0.0993(2) -0.6552(2) 0.4340(2)
O5 O -0.2566(2) -0.6414(2) 0.5946(2)
O6 O 0.0451(3) -0.2996(3) -0.0837(2)
O7 O 0.3563(2) -0.2406(2) -0.0806(2)
O8 O -0.1593(2) -0.6903(2) 0.3447(2)
O9 O 0.4866(2) -0.6584(2) 0.3285(2)
O10 O 0.3225(3) -0.0386(2) -0.3311(2)
C1 C 0.5879(3) -0.0523(3) -0.0420(2)
C2 C -0.0784(3) -0.9505(3) 0.5519(2)
N1 N 0.3428(3) -0.6863(3) 0.6379(2)
H1 H 0.6914(3) -0.0606(3) -0.0034(2)
H2 H 0.6328(3) 0.0071(3) -0.1424(2)
H3 H -0.2017(3) -0.9956(3) 0.5753(2)
H4 H -0.0501(3) -0.9693(3) 0.6408(2)
H5 H 0.3323(78) -0.8048(77) 0.6634(61)
H6 H 0.4347(83) -0.6655(73) 0.6575(60)
H7 H 0.2100(82) -0.6743(71) 0.7191(61)
H8 H 0.3457(76) -0.6287(70) 0.5374(63)
O8A O 0.1593(2) -0.3097(2) -0.3447(2)
O9A O 0.5134(2) -0.3416(2) -0.3285(2)
O2A O 0.2887(2) -0.6512(2) 0.1310(2)
O5A O 0.2566(2) -0.3586(2) 0.4054(2)
V2A V -0.3074(1) -0.7614(1) 0.2528(1)
V2A* V 0.6926(1) -0.7614(1) 0.2528(1)
C1A C 0.4121(3) 0.0523(3) 0.0420(2)
C2A C 0.0784(3) -1.0495(3) 0.4481(2)
V1A V 0.7560(1) -0.5164(1) -0.2622(1)
P1A P 0.4677(1) 0.2648(1) 0.0312(1)
H1A H 0.3086(3) 0.0606(3) 0.0034(2)
H2A H 0.3672(3) -0.0071(3) 0.1424(2)
O1A O 0.5217(2) 0.3608(2) -0.1261(2)
O2A* O 0.2887(2) 0.3488(2) 0.1310(2)
O7A O 0.6437(2) 0.2406(2) 0.0806(2)
V1A* V 0.7560(1) 0.4836(1) -0.2622(1)
O2* O 0.7113(2) 0.6512(2) -0.1310(2)
O3A O 0.9269(2) 0.3681(2) -0.2123(2)
O4A O 0.9007(2) 0.6552(2) -0.4340(2)
O5* O 0.7434(2) 0.3586(2) -0.4054(2)
O9A* O 0.5134(2) 0.6584(2) -0.3285(2)
V2* V 0.3074(1) 0.7614(1) -0.2528(1)
V2A** V 0.6926(1) 0.2386(1) 0.2528(1)
V1* V 0.2440(1) 0.5164(1) 0.2622(1)
V1A** V -0.2440(1) -0.5164(1) 0.7378(1)
O6A O -0.0451(3) -0.7004(3) 0.0837(2)
O7A* O -0.3563(2) -0.7594(2) 0.0806(2)
O9* O -0.5134(2) -0.6584(2) 0.3285(2)
O10A O -0.3225(3) -0.9614(2) 0.3311(2)
P2A P 0.0973(1) -1.2770(1) 0.5215(1)
H3A H 0.2017(3) -1.0044(3) 0.4247(2)
H4A H 0.0501(3) -1.0307(3) 0.3592(2)
O4A* O -0.0993(2) -1.3448(2) 0.5660(2)
O5A* O 0.2566(2) -1.3586(2) 0.4054(2)
O8A* O 0.1593(2) -1.3097(2) 0.6553(2)
V1A*** V -0.2440(1) -1.5164(1) 0.7378(1)
V1** V 0.2440(1) -1.4836(1) 0.2622(1)
V2** V 0.3074(1) -1.2386(1) 0.7472(1)
#END
