
#######################################################################
#
#                 Cambridge Crystallographic Data Centre
#                                CCDC
#
#######################################################################
#
# If this CIF has been generated from an entry in the Cambridge
# Structural Database, then it will include bibliographic, chemical,
# crystal, experimental, refinement or atomic coordinate data resulting
# from the CCDC's data processing and validation procedures.
#
#######################################################################

data_CSD_CIF_LIWSUI
_audit_creation_date 2019-02-18
_audit_creation_method CSD-ConQuest-V1
_database_code_CSD LIWSUI
_database_code_depnum_ccdc_archive 'CCDC 1883480'
_chemical_formula_sum 'C54 H58 Cd2 N4 O16'
_chemical_formula_moiety
;
(C50 H38 Cd2 N2 O14 2-)n,2(C2 H8 N1 1+),2(H2 O1)
;
_journal_coden_Cambridge 1295
_journal_volume 101
_journal_year 2019
_journal_page_first 184
_journal_name_full 'Inorg.Chem.Commun. '
loop_
_publ_author_name
"Xiuling Zhang"
"Hui-Ling Liu"
"Da-Shuai Zhang"
"Longlong Geng"
_chemical_name_systematic
;
catena-[bis(dimethylammonium) 
bis(\m-2',6'-dimethyl[1,1'-biphenyl]-3,4',5-tricarboxylato)-(\m-4,4'-(1,4-phen
ylene)dipyridine)-diaqua-di-cadmium dihydrate]
;
_cell_volume   1385.264
_exptl_crystal_colour 'colorless'
_exptl_crystal_density_diffrn 1.491
_exptl_crystal_description 'block'
_diffrn_ambient_temperature 293.1
#These two values have been output from a single CSD field.
_refine_ls_R_factor_gt 0.0321
_refine_ls_wR_factor_gt 0.0321
_symmetry_cell_setting triclinic
_symmetry_space_group_name_H-M 'P -1'
_symmetry_Int_Tables_number 2
loop_
_symmetry_equiv_pos_site_id
_symmetry_equiv_pos_as_xyz
1 x,y,z
2 -x,-y,-z
_cell_length_a 10.3296(7)
_cell_length_b 12.0708(9)
_cell_length_c 13.3106(10)
_cell_angle_alpha 109.816(2)
_cell_angle_beta 111.077(2)
_cell_angle_gamma 98.627(2)
_cell_formula_units_Z 1
loop_
_atom_type_symbol
_atom_type_radius_bond
C 0.68
H 0.23
Cd 1.44
N 0.68
O 0.68
loop_
_atom_site_label
_atom_site_type_symbol
_atom_site_fract_x
_atom_site_fract_y
_atom_site_fract_z
Cd1 Cd 0.78379(2) 0.26111(2) 0.18828(2)
O1 O 0.69675(19) 0.04115(17) 0.10375(15)
O2 O 0.70451(17) 0.25529(15) 0.00578(13)
O3 O 0.69089(16) 0.24423(17) -0.68071(14)
O4 O 0.53327(16) 0.26768(16) -0.82842(14)
O5 O 0.00217(16) 0.26483(16) -0.68606(14)
O6 O 0.5659(2) 0.05812(17) -0.09829(15)
O7 O 0.02768(19) 0.2535(2) -0.84420(16)
N1 N 0.8528(2) 0.47551(17) 0.26904(16)
C1 C 0.6107(2) 0.1656(2) -0.08824(19)
C2 C 0.5527(2) 0.1881(2) -0.19818(18)
C3 C 0.4597(2) 0.0906(2) -0.30714(19)
H1 H 0.42820 0.01230 -0.31090
C4 C 0.4124(2) 0.1076(2) -0.41121(18)
C5 C 0.4608(2) 0.2259(2) -0.40429(18)
C6 C 0.4149(2) 0.2420(2) -0.51742(19)
C7 C 0.2762(2) 0.2482(2) -0.57414(18)
H2 H 0.21360 0.24870 -0.53840
C8 C 0.2292(2) 0.25381(19) -0.68384(18)
C9 C 0.3229(2) 0.25383(19) -0.73637(18)
H3 H 0.29130 0.25600 -0.81030
C10 C 0.4634(2) 0.2507(2) -0.67997(18)
C11 C 0.5081(2) 0.2446(2) -0.57085(19)
H4 H 0.60210 0.24230 -0.53280
C12 C 0.5687(2) 0.2540(2) -0.73378(19)
C13 C 0.0765(2) 0.2577(2) -0.74224(19)
C14 C 0.5522(2) 0.3260(2) -0.2945(2)
C15 C 0.6017(4) 0.4550(3) -0.2842(3)
H5 H 0.66230 0.51090 -0.20210
H6 H 0.51800 0.48080 -0.31460
H7 H 0.65620 0.45560 -0.32920
C16 C 0.5965(2) 0.3049(2) -0.19264(19)
H8 H 0.65690 0.37090 -0.11910
C17 C 0.3141(2) -0.0007(2) -0.52888(19)
H9 H 0.21950 0.00970 -0.55960
H10 H 0.30500 -0.07580 -0.51810
H11 H 0.35490 -0.00530 -0.58400
C18 C 0.9770(2) 0.5449(2) 0.3681(2)
H12 H 1.04000 0.50500 0.39950
C19 C 1.0164(2) 0.6714(2) 0.4255(2)
H13 H 1.10430 0.71520 0.49350
C20 C 0.9242(2) 0.7339(2) 0.38154(19)
C21 C 0.9619(2) 0.87022(19) 0.44247(18)
C22 C 1.0505(2) 0.9344(2) 0.56495(19)
H14 H 1.08460 0.89070 0.60910
C23 C 0.9121(2) 0.9388(2) 0.37901(19)
H15 H 0.85260 0.89800 0.29750
C24 C 0.7952(2) 0.6621(2) 0.2790(2)
H16 H 0.72990 0.69950 0.24580
C25 C 0.7643(3) 0.5358(2) 0.2267(2)
H17 H 0.67730 0.48970 0.15820
H18 H 0.627(4) 0.020(5) 0.116(5)
H19 H 0.659(5) 0.033(5) 0.0351(19)
O8 O 1.7082(2) 1.7954(3) 2.0378(2)
H20 H 1.63520 1.73050 1.99180
H21 H 1.67890 1.85870 2.05060
C26 C 2.0195(5) 1.7043(6) 2.0973(5)
H22 H 2.11300 1.70210 2.09950
H23 H 1.94880 1.62420 2.04440
H24 H 2.02610 1.72650 2.17580
N2 N 1.9759(3) 1.7941(3) 2.0560(2)
H25 H 1.88530 1.78740 2.03680
C27 C 2.0726(5) 1.9226(5) 2.1363(4)
H26 H 2.07870 1.94310 2.21450
H27 H 2.03360 1.97850 2.10660
H28 H 2.16820 1.92960 2.14000
H29 H 1.976(4) 1.783(4) 1.983(4)
N1A N 1.1472(2) 1.52449(17) 0.73096(16)
C18A C 1.0230(2) 1.4551(2) 0.6319(2)
H12A H 0.96000 1.49500 0.60050
C19A C 0.9836(2) 1.3286(2) 0.5745(2)
H13A H 0.89570 1.28480 0.50650
C20A C 1.0758(2) 1.2661(2) 0.61846(19)
C21A C 1.0381(2) 1.12978(19) 0.55753(18)
C22A C 0.9495(2) 1.0656(2) 0.43505(19)
H14A H 0.91540 1.10930 0.39090
C23A C 1.0879(2) 1.0612(2) 0.62099(19)
H15A H 1.14740 1.10200 0.70250
C24A C 1.2048(2) 1.3379(2) 0.7210(2)
H16A H 1.27010 1.30050 0.75420
C25A C 1.2357(3) 1.4642(2) 0.7733(2)
H17A H 1.32270 1.51030 0.84180
Cd1A Cd 1.21621(2) 1.73889(2) 0.81172(2)
O1A O 1.30325(19) 1.95885(17) 0.89625(15)
O2A O 1.29549(17) 1.74471(15) 0.99422(13)
O3A O 1.30911(16) 1.75577(17) 1.68071(14)
O4A O 1.46673(16) 1.73232(16) 1.82842(14)
O5A O 1.99783(16) 1.73517(16) 1.68606(14)
O6A O 1.4341(2) 1.94188(17) 1.09829(15)
O7A O 1.97232(19) 1.7465(2) 1.84420(16)
C1A C 1.3893(2) 1.8344(2) 1.08824(19)
C2A C 1.4473(2) 1.8119(2) 1.19818(18)
C3A C 1.5403(2) 1.9094(2) 1.30714(19)
H1A H 1.57180 1.98770 1.31090
C4A C 1.5876(2) 1.8924(2) 1.41121(18)
C5A C 1.5392(2) 1.7741(2) 1.40429(18)
C6A C 1.5851(2) 1.7580(2) 1.51742(19)
C7A C 1.7238(2) 1.7518(2) 1.57414(18)
H2A H 1.78640 1.75130 1.53840
C8A C 1.7708(2) 1.74619(19) 1.68384(18)
C9A C 1.6771(2) 1.74617(19) 1.73637(18)
H3A H 1.70870 1.74400 1.81030
C10A C 1.5366(2) 1.7493(2) 1.67997(18)
C11A C 1.4919(2) 1.7554(2) 1.57085(19)
H4A H 1.39790 1.75770 1.53280
C12A C 1.4313(2) 1.7460(2) 1.73378(19)
C13A C 1.9235(2) 1.7423(2) 1.74224(19)
C14A C 1.4478(2) 1.6740(2) 1.2945(2)
C15A C 1.3983(4) 1.5450(3) 1.2842(3)
H5A H 1.33770 1.48910 1.20210
H6A H 1.48200 1.51920 1.31460
H7A H 1.34380 1.54440 1.32920
C16A C 1.4035(2) 1.6951(2) 1.19264(19)
H8A H 1.34310 1.62910 1.11910
C17A C 1.6859(2) 2.0007(2) 1.52888(19)
H9A H 1.78050 1.99030 1.55960
H10A H 1.69500 2.07580 1.51810
H11A H 1.64510 2.00530 1.58400
H18A H 1.373(4) 1.980(5) 0.884(5)
H19A H 1.341(5) 1.967(5) 0.9649(19)
Cd1* Cd -0.21621(2) 0.26111(2) -0.81172(2)
Cd1** Cd 0.78379(2) 0.26111(2) -0.81172(2)
Cd1A* Cd 1.21621(2) 1.73889(2) 1.81172(2)
Cd1A** Cd 2.21621(2) 1.73889(2) 1.81172(2)
O3* O 0.69089(16) 0.24423(17) 0.31929(14)
O3A* O 1.30911(16) 1.75577(17) 0.68071(14)
O4* O 0.53327(16) 0.26768(16) 0.17158(14)
O4A* O 1.46673(16) 1.73232(16) 0.82842(14)
O5* O 1.00217(16) 0.26483(16) 0.31394(14)
O5A* O 0.99783(16) 1.73517(16) 0.68606(14)
O7* O 1.02768(19) 0.2535(2) 0.15580(16)
O7A* O 0.97232(19) 1.7465(2) 0.84420(16)
#END
