
#######################################################################
#
#                 Cambridge Crystallographic Data Centre
#                                CCDC
#
#######################################################################
#
# If this CIF has been generated from an entry in the Cambridge
# Structural Database, then it will include bibliographic, chemical,
# crystal, experimental, refinement or atomic coordinate data resulting
# from the CCDC's data processing and validation procedures.
#
#######################################################################

data_CSD_CIF_LNIACU10
_audit_creation_date 1975-08-29
_audit_creation_method CSD-ConQuest-V1
_database_code_CSD LNIACU10
_chemical_formula_sum 'C6 H12 Cu1 Li1 N1 O9'
_chemical_formula_moiety
;
(C6 H6 Cu1 N1 O6 1-)n,n(Li1 1+),3n(H2 O1)
;
_journal_coden_Cambridge 82
_journal_volume 15
_journal_year 1974
_journal_page_first 268
_journal_name_full 'Zh.Strukt.Khim.(Russ.)(J.Struct.Chem.) '
loop_
_publ_author_name
"V.V.Fomenko"
"L.I.Kopaneva"
"M.A.Porai-Koshits"
"T.N.Polynova"
_chemical_name_systematic
;
catena-(Lithium (\m~2~-nitrilotriacetato)-copper(ii) trihydrate)
;
_cell_volume   1145.630
_exptl_special_details
;
Density reported as 1.70 in the paper. We calculate 1.81

;
_diffrn_ambient_temperature ?
_diffrn_special_details
;
The study was carried out at room temperature,in the range 283-303K

;
_symmetry_cell_setting orthorhombic
_symmetry_space_group_name_H-M 'P 21 21 21'
_symmetry_Int_Tables_number 19
loop_
_symmetry_equiv_pos_site_id
_symmetry_equiv_pos_as_xyz
1 x,y,z
2 1/2+x,1/2-y,-z
3 -x,1/2+y,1/2-z
4 1/2-x,-y,1/2+z
_cell_length_a 11.0(2)
_cell_length_b 10.66(2)
_cell_length_c 9.77(2)
_cell_angle_alpha 90
_cell_angle_beta 90
_cell_angle_gamma 90
_cell_formula_units_Z 4
loop_
_atom_type_symbol
_atom_type_radius_bond
C 0.68
Cu 1.52
Li 0.68
N 0.68
O 0.68
loop_
_atom_site_label
_atom_site_type_symbol
_atom_site_fract_x
_atom_site_fract_y
_atom_site_fract_z
Cu1 Cu -0.18080 -0.54320 1.37950
C1 C -0.17300 -0.80000 1.29900
C2 C -0.30700 -0.76200 1.32500
C3 C -0.08300 -0.65700 1.13400
C4 C -0.18000 -0.57000 1.07600
C5 C 0.02500 -0.71100 1.33900
C6 C 0.06300 -0.57900 1.39600
Li1 Li -0.31700 -0.12700 -0.80800
N1 N -0.09500 -0.69200 1.27900
O1 O -0.33100 -0.64900 1.36600
O2 O -0.40000 -0.82600 1.28600
O3 O -0.23200 -0.59200 0.96500
O4 O -0.21100 -0.48800 1.15900
O5 O -0.01500 -0.48400 1.41900
O6 O 0.17600 -0.55500 1.42200
O7 O -0.37100 -0.29200 -0.88000
O8 O -0.27200 -0.13600 -0.62500
O9 O -0.44800 -0.01900 -0.88000
Cu1C Cu -0.31920 -0.45680 0.87950
O3C O -0.26800 -0.40800 1.46500
#END
