
#######################################################################
#
#                 Cambridge Crystallographic Data Centre
#                                CCDC
#
#######################################################################
#
# If this CIF has been generated from an entry in the Cambridge
# Structural Database, then it will include bibliographic, chemical,
# crystal, experimental, refinement or atomic coordinate data resulting
# from the CCDC's data processing and validation procedures.
#
#######################################################################

data_CSD_CIF_LOFGOE
_audit_creation_date 2014-03-04
_audit_creation_method CSD-ConQuest-V1
_database_code_CSD LOFGOE
_database_code_depnum_ccdc_archive 'CCDC 958851'
_chemical_formula_sum 'C48 H41 Cl5 Mn6 N24 O4'
_chemical_formula_moiety
;
(C48 H32 Cl5 Mn6 N24 1-)n,3n(H2 O1),n(H3 O1 1+)
;
_journal_coden_Cambridge 1147
_journal_volume 14
_journal_year 2014
_journal_page_first 2
_journal_name_full 'Cryst.Growth Des. '
loop_
_publ_author_name
"Song-De Han"
"Jiong-Peng Zhao"
"Yong-Qiang Chen"
"Sui-Jun Liu"
"Xiao-Hong Miao"
"Tong-Liang Hu"
"Xian-He Bu"
_chemical_name_systematic
;
catena-[oxonium 
(\m~4~-chloro)-octakis(\m~3~-benzotriazole)-tetrakis(\m~2~chloro)-hexa-mangane
se trihydrate]
;
_cell_volume   7516.124
_exptl_crystal_colour 'colorless'
_exptl_crystal_density_diffrn 1.34
_exptl_special_details
;
A hydrogen has been added to a water molecule to charge balance

;
_exptl_crystal_description 'block'
_diffrn_ambient_temperature 113
#These two values have been output from a single CSD field.
_refine_ls_R_factor_gt 0.0843
_refine_ls_wR_factor_gt 0.0843
_symmetry_cell_setting tetragonal
_symmetry_space_group_name_H-M 'I -4 2 d'
_symmetry_Int_Tables_number 122
loop_
_symmetry_equiv_pos_site_id
_symmetry_equiv_pos_as_xyz
1 x,y,z
2 y,-x,-z
3 -x,-y,z
4 -y,x,-z
5 x,1/2-y,1/4-z
6 1/2-y,-x,3/4+z
7 -x,1/2+y,1/4-z
8 1/2+y,x,3/4+z
9 1/2+x,1/2+y,1/2+z
10 1/2+y,1/2-x,1/2-z
11 1/2-x,1/2-y,1/2+z
12 1/2-y,1/2+x,1/2-z
13 1/2+x,-y,3/4-z
14 -y,1/2-x,1/4+z
15 1/2-x,y,3/4-z
16 y,1/2+x,1/4+z
_cell_length_a 21.312(10)
_cell_length_b 21.312(10)
_cell_length_c 16.548(3)
_cell_angle_alpha 90
_cell_angle_beta 90
_cell_angle_gamma 90
_cell_formula_units_Z 4
loop_
_atom_type_symbol
_atom_type_radius_bond
C 0.68
H 0.23
Cl 0.99
Mn 1.61
N 0.68
O 0.68
loop_
_atom_site_label
_atom_site_type_symbol
_atom_site_fract_x
_atom_site_fract_y
_atom_site_fract_z
Mn1 Mn 0.00928(4) 0.12472(4) -0.02059(5)
Mn2 Mn 0.01895(7) 0.25000 0.12500
Cl1 Cl 0.00000 0.00000 0.00000
Cl2 Cl 0.02228(8) 0.24001(7) -0.02737(10)
N1 N 0.1250(3) 0.0769(3) 0.0977(3)
N2 N 0.0810(2) 0.1208(3) 0.0834(3)
N3 N 0.0903(3) 0.1728(3) 0.1281(4)
N4 N 0.0898(3) 0.1082(3) -0.1001(3)
N5 N 0.1283(3) 0.0592(3) -0.0844(3)
N6 N 0.1783(3) 0.0582(3) -0.1325(4)
C1 C 0.1966(5) 0.1857(5) -0.2847(7)
H1 H 0.22240 0.20170 -0.32510
C2 C 0.1404(5) 0.2177(5) -0.2635(7)
H2 H 0.13040 0.25470 -0.29030
C3 C 0.2132(4) 0.1305(4) -0.2452(5)
H3 H 0.24930 0.10850 -0.25930
C4 C 0.1716(4) 0.2009(5) 0.2305(6)
H4 H 0.15550 0.24000 0.24400
C5 C 0.1174(4) 0.1405(4) -0.1632(5)
C6 C 0.2262(4) 0.1787(6) 0.2653(6)
H5 H 0.24870 0.20430 0.30040
C7 C 0.2484(4) 0.1171(5) 0.2481(6)
H6 H 0.28390 0.10250 0.27490
C8 C 0.0997(5) 0.1955(4) -0.2039(6)
H7 H 0.06250 0.21620 -0.19170
C9 C 0.1415(3) 0.1620(4) 0.1742(5)
C10 C 0.1731(4) 0.1091(3) -0.1828(5)
C11 C 0.1641(4) 0.1027(4) 0.1546(4)
C12 C 0.2188(4) 0.0777(5) 0.1923(5)
H8 H 0.23380 0.03770 0.18050
O1 O 0.991(9) 0.949(3) 0.726(4)
Mn1A Mn 0.12472(4) -0.00928(4) 0.02059(5)
Mn2A Mn 0.25000(7) -0.01895 -0.12500
Cl2A Cl 0.24001(8) -0.02228(7) 0.02737(10)
N1A N 0.0769(3) -0.1250(3) -0.0977(3)
N2A N 0.1208(2) -0.0810(3) -0.0834(3)
N3A N 0.1728(3) -0.0903(3) -0.1281(4)
N4A N 0.1082(3) -0.0898(3) 0.1001(3)
N5A N 0.0592(3) -0.1283(3) 0.0844(3)
N6A N 0.0582(3) -0.1783(3) 0.1325(4)
C1A C 0.1857(5) -0.1966(5) 0.2847(7)
H1A H 0.20170 -0.22240 0.32510
C2A C 0.2177(5) -0.1404(5) 0.2635(7)
H2A H 0.25470 -0.13040 0.29030
C3A C 0.1305(4) -0.2132(4) 0.2452(5)
H3A H 0.10850 -0.24930 0.25930
C4A C 0.2009(4) -0.1716(5) -0.2305(6)
H4A H 0.24000 -0.15550 -0.24400
C5A C 0.1405(4) -0.1174(4) 0.1632(5)
C6A C 0.1787(4) -0.2262(6) -0.2653(6)
H5A H 0.20430 -0.24870 -0.30040
C7A C 0.1171(4) -0.2484(5) -0.2481(6)
H6A H 0.10250 -0.28390 -0.27490
C8A C 0.1955(5) -0.0997(4) 0.2039(6)
H7A H 0.21620 -0.06250 0.19170
C9A C 0.1620(3) -0.1415(4) -0.1742(5)
C10A C 0.1091(4) -0.1731(3) 0.1828(5)
C11A C 0.1027(4) -0.1641(4) -0.1546(4)
C12A C 0.0777(4) -0.2188(5) -0.1923(5)
H8A H 0.03770 -0.23380 -0.18050
Mn1B Mn -0.00928(4) -0.12472(4) -0.02059(5)
Cl2B Cl -0.02228(8) -0.24001(7) -0.02737(10)
N1B N -0.1250(3) -0.0769(3) 0.0977(3)
N2B N -0.0810(2) -0.1208(3) 0.0834(3)
N3B N -0.0903(3) -0.1728(3) 0.1281(4)
N4B N -0.0898(3) -0.1082(3) -0.1001(3)
N5B N -0.1283(3) -0.0592(3) -0.0844(3)
N6B N -0.1783(3) -0.0582(3) -0.1325(4)
C1B C -0.1966(5) -0.1857(5) -0.2847(7)
H1B H -0.22240 -0.20170 -0.32510
C2B C -0.1404(5) -0.2177(5) -0.2635(7)
H2B H -0.13040 -0.25470 -0.29030
C3B C -0.2132(4) -0.1305(4) -0.2452(5)
H3B H -0.24930 -0.10850 -0.25930
C4B C -0.1716(4) -0.2009(5) 0.2305(6)
H4B H -0.15550 -0.24000 0.24400
C5B C -0.1174(4) -0.1405(4) -0.1632(5)
C6B C -0.2262(4) -0.1787(6) 0.2653(6)
H5B H -0.24870 -0.20430 0.30040
C7B C -0.2484(4) -0.1171(5) 0.2481(6)
H6B H -0.28390 -0.10250 0.27490
C8B C -0.0997(5) -0.1955(4) -0.2039(6)
H7B H -0.06250 -0.21620 -0.19170
C9B C -0.1415(3) -0.1620(4) 0.1742(5)
C10B C -0.1731(4) -0.1091(3) -0.1828(5)
C11B C -0.1641(4) -0.1027(4) 0.1546(4)
C12B C -0.2188(4) -0.0777(5) 0.1923(5)
H8B H -0.23380 -0.03770 0.18050
Mn1C Mn -0.12472(4) 0.00928(4) 0.02059(5)
Cl2C Cl -0.24001(8) 0.02228(7) 0.02737(10)
N1C N -0.0769(3) 0.1250(3) -0.0977(3)
N2C N -0.1208(2) 0.0810(3) -0.0834(3)
N3C N -0.1728(3) 0.0903(3) -0.1281(4)
N4C N -0.1082(3) 0.0898(3) 0.1001(3)
N5C N -0.0592(3) 0.1283(3) 0.0844(3)
N6C N -0.0582(3) 0.1783(3) 0.1325(4)
C1C C -0.1857(5) 0.1966(5) 0.2847(7)
H1C H -0.20170 0.22240 0.32510
C2C C -0.2177(5) 0.1404(5) 0.2635(7)
H2C H -0.25470 0.13040 0.29030
C3C C -0.1305(4) 0.2132(4) 0.2452(5)
H3C H -0.10850 0.24930 0.25930
C4C C -0.2009(4) 0.1716(5) -0.2305(6)
H4C H -0.24000 0.15550 -0.24400
C5C C -0.1405(4) 0.1174(4) 0.1632(5)
C6C C -0.1787(4) 0.2262(6) -0.2653(6)
H5C H -0.20430 0.24870 -0.30040
C7C C -0.1171(4) 0.2484(5) -0.2481(6)
H6C H -0.10250 0.28390 -0.27490
C8C C -0.1955(5) 0.0997(4) 0.2039(6)
H7C H -0.21620 0.06250 0.19170
C9C C -0.1620(3) 0.1415(4) -0.1742(5)
C10C C -0.1091(4) 0.1731(3) 0.1828(5)
C11C C -0.1027(4) 0.1641(4) -0.1546(4)
C12C C -0.0777(4) 0.2188(5) -0.1923(5)
H8C H -0.03770 0.23380 -0.18050
Mn2B Mn -0.01895(7) -0.25000 0.12500
Mn2C Mn -0.25000(7) 0.01895 -0.12500
Cl2D Cl 0.02228(8) 0.25999(7) 0.27737(10)
Cl2E Cl 0.25999(8) -0.02228(7) -0.27737(10)
N3D N 0.0903(3) 0.3272(3) 0.1219(4)
N3E N 0.3272(3) -0.0903(3) -0.1219(4)
N6M N -0.0582(3) 0.3217(3) 0.1175(4)
N6N N 0.3217(3) 0.0582(3) -0.1175(4)
#END
