
#######################################################################
#
#                 Cambridge Crystallographic Data Centre
#                                CCDC
#
#######################################################################
#
# If this CIF has been generated from an entry in the Cambridge
# Structural Database, then it will include bibliographic, chemical,
# crystal, experimental, refinement or atomic coordinate data resulting
# from the CCDC's data processing and validation procedures.
#
#######################################################################

data_CSD_CIF_LOFGIW
_audit_creation_date 2000-08-29
_audit_creation_method CSD-ConQuest-V1
_database_code_CSD LOFGIW
_chemical_formula_sum 'C2 H28 N6 O26 Se4 U2'
_chemical_formula_moiety
;
(C2 O24 Se4 U2 6-)n,6n(H4 N1 1+),2n(H2 O1)
;
_journal_coden_Cambridge 233
_journal_volume 44
_journal_year 1999
_journal_page_first 1448
_journal_name_full 'Zh.Neorg.Khim.(Russ.)(Russ.J.Inorg.Chem.) '
loop_
_publ_author_name
"Yu.N.Mikhailov"
"Yu.E.Gorbunova"
"O.V.Shishkina"
"L.B.Serezhkina"
"V.N.Serezhkin"
_chemical_name_systematic
;
catena-(Hexa-ammonium 
(\m~2~-oxalato)-bis(\m~2~-selenato)-bis(selenato)-tetraoxo-di-uranium(vi) 
dihydrate)
;
_cell_volume   1572.963
_exptl_crystal_density_diffrn 2.838
_diffrn_ambient_temperature ?
_diffrn_special_details
;
The study was carried out at room temperature,in the range 283-303K

;
_refine_special_details
;
The water molecule, O13', is equally disordered over two sites.

;
#These two values have been output from a single CSD field.
_refine_ls_R_factor_gt 0.046
_refine_ls_wR_factor_gt 0.046
_symmetry_cell_setting monoclinic
_symmetry_space_group_name_H-M 'P 21/c'
_symmetry_Int_Tables_number 14
loop_
_symmetry_equiv_pos_site_id
_symmetry_equiv_pos_as_xyz
1 x,y,z
2 -x,1/2+y,1/2-z
3 -x,-y,-z
4 x,-1/2-y,-1/2+z
_cell_length_a 11.434(3)
_cell_length_b 10.995(4)
_cell_length_c 12.698(5)
_cell_angle_alpha 90
_cell_angle_beta 99.82(3)
_cell_angle_gamma 90
_cell_formula_units_Z 2
loop_
_atom_type_symbol
_atom_type_radius_bond
C 0.68
N 0.85
O 0.90
Se 1.02
U 1.20
loop_
_atom_site_label
_atom_site_type_symbol
_atom_site_fract_x
_atom_site_fract_y
_atom_site_fract_z
U1 U 0.26012(3) 0.09104(3) 0.06207(3)
Se1 Se 0.3913(1) 0.3707(1) 0.21512(9)
Se2 Se 1.06251(9) -0.16821(9) -0.03451(9)
O1 O 0.2462(7) 0.1867(7) -0.0508(7)
O2 O 0.2729(8) -0.0064(8) 0.1748(7)
O3 O 0.4724(9) 0.337(1) 0.3271(8)
O4 O 0.476(1) 0.3950(9) 0.1270(9)
O5 O 0.302(1) 0.4856(9) 0.2213(9)
O6 O 0.3040(8) 0.2526(8) 0.1790(8)
O7 O 1.1322(8) -0.2642(8) -0.0983(8)
O8 O 1.0668(9) -0.2078(9) 0.0891(8)
O9 O 0.9251(7) -0.1660(9) -0.0995(7)
O10 O 0.8832(7) 0.0305(7) 0.0442(7)
O11 O 0.4719(6) 0.1196(7) 0.0834(7)
O12 O 0.3589(7) -0.0606(7) -0.0300(7)
O13 O 0.230(2) 0.522(2) -0.009(2)
O14 O -0.054(3) -0.425(3) 0.126(3)
C1 C 0.5328(9) 0.052(1) 0.0330(9)
N1 N 0.309(1) 0.738(1) 0.273(1)
N2 N 0.069(1) 0.386(1) 0.250(1)
N3 N 0.398(2) 0.110(1) 0.401(1)
O12B O 0.6411(7) 0.0606(7) 0.0300(7)
U1B U 0.73988(3) -0.09104(3) -0.06207(3)
O1B O 0.7538(7) -0.1867(7) 0.0508(7)
O2B O 0.7271(8) 0.0064(8) -0.1748(7)
O6B O 0.6960(8) -0.2526(8) -0.1790(8)
Se1B Se 0.6087(1) -0.3707(1) -0.21512(9)
O3B O 0.5276(9) -0.337(1) -0.3271(8)
O4B O 0.524(1) -0.3950(9) -0.1270(9)
O5B O 0.698(1) -0.4856(9) -0.2213(9)
O9B O 0.0749(7) 0.1660(9) 0.0995(7)
O10B O 0.1168(7) -0.0305(7) -0.0442(7)
O11B O 0.5281(6) -0.1196(7) -0.0834(7)
C1B C 0.4672(9) -0.052(1) -0.0330(9)
Se2B Se 0.93749(9) 0.16821(9) 0.03451(9)
O10B* O 1.1168(7) -0.0305(7) -0.0442(7)
O7B O 0.8678(8) 0.2642(8) 0.0983(8)
O8B O 0.9332(9) 0.2078(9) -0.0891(8)
O9B* O 1.0749(7) 0.1660(9) 0.0995(7)
U1* U 1.26012(3) 0.09104(3) 0.06207(3)
#END
