
#######################################################################
#
#                 Cambridge Crystallographic Data Centre
#                                CCDC
#
#######################################################################
#
# If this CIF has been generated from an entry in the Cambridge
# Structural Database, then it will include bibliographic, chemical,
# crystal, experimental, refinement or atomic coordinate data resulting
# from the CCDC's data processing and validation procedures.
#
#######################################################################

data_CSD_CIF_LOKJUR
_audit_creation_date 2009-06-04
_audit_creation_method CSD-ConQuest-V1
_database_code_CSD LOKJUR
_database_code_depnum_ccdc_archive 'CCDC 690429'
_chemical_formula_sum 'C33 H22 Cu5 Mo8 N10 O27'
_chemical_formula_moiety
;
(C12 H8 Cu4 Mo8 N6 O26 2-)n,0.5n(C22 H12 Cu1 N4 O2 2+),0.5n(C20 H16 Cu1 N4 2+)
;
_journal_coden_Cambridge 580
_journal_volume 27
_journal_year 2008
_journal_page_first 3700
_journal_name_full 'Polyhedron '
loop_
_publ_author_name
"E.Burkholder"
"F.Heitzler"
"L.Orian"
"W.Ouellette"
"J.Zubieta"
_chemical_name_systematic
;
catena-[hemikis(bis(2,2'-bipyridyl)-copper(ii)) 
hemikis((2,13-dioxo-23,24,25,26-tetraazapentacyclo[17.3.1.1^3,7^.1^8,12^.1^14,
17^.1^18,22^]hexacosa-3(26),4,6,7,9,11(25),13,15,17(24),18,20,22-dodecaene)-co
pper(ii)) 
bis(\m~5~-oxo)-tetrakis(\m~3~-oxo)-bis(\m~3~-benzotriazolato)-hexadecakis(\m~2
~-oxo)-tetraoxo-tetra-copper(ii)-octa-molybdenum]
;
_cell_volume   1228.729
_exptl_crystal_colour 'brown'
_exptl_crystal_density_diffrn 2.803
_exptl_crystal_description 'block'
_diffrn_ambient_temperature 90
_refine_special_details
;
The carbonyl ligand is disordered by symmetry with half occupancy. The 
structure is described as a 50:50 mixture of the zero carbonyl and the 
dicarbonyl-copper cations.
;
#These two values have been output from a single CSD field.
_refine_ls_R_factor_gt 0.0508
_refine_ls_wR_factor_gt 0.0508
_symmetry_cell_setting triclinic
_symmetry_space_group_name_H-M 'P -1'
_symmetry_Int_Tables_number 2
loop_
_symmetry_equiv_pos_site_id
_symmetry_equiv_pos_as_xyz
1 x,y,z
2 -x,-y,-z
_cell_length_a 9.9538(7)
_cell_length_b 11.4051(8)
_cell_length_c 12.5150(9)
_cell_angle_alpha 64.535(1)
_cell_angle_beta 74.892(1)
_cell_angle_gamma 89.805(2)
_cell_formula_units_Z 1
loop_
_atom_type_symbol
_atom_type_radius_bond
C 0.68
H 0.23
Cu 1.32
Mo 1.36
N 0.68
O 0.68
loop_
_atom_site_label
_atom_site_type_symbol
_atom_site_fract_x
_atom_site_fract_y
_atom_site_fract_z
Mo1 Mo -0.10774(7) 0.30529(7) -0.24889(6)
Mo2 Mo 0.19159(7) 0.23251(7) -0.37026(6)
Mo3 Mo 0.00512(7) 0.60934(6) -0.43737(6)
Mo4 Mo -0.30084(7) 0.46414(6) -0.43884(6)
Cu1 Cu 0.00000 0.00000 0.50000
Cu2 Cu 0.01561(10) 0.51007(10) -0.13239(9)
Cu3 Cu -0.66204(10) 0.43699(10) -0.27106(9)
O1 O -0.2631(5) 0.2142(5) -0.1577(4)
O2 O 0.2483(6) 0.0917(5) -0.3650(5)
O3 O -0.4407(5) 0.3859(5) -0.3126(5)
O4 O 0.0767(5) 0.2483(5) -0.5131(4)
O5 O -0.1636(5) 0.4844(5) -0.3308(4)
O6 O -0.0009(5) 0.1769(5) -0.2713(4)
O7 O 0.3170(5) 0.3594(5) -0.5218(4)
O8 O -0.1714(5) 0.3261(5) -0.4217(4)
O9 O 0.0765(5) 0.4281(5) -0.4257(4)
O10 O 0.0670(5) 0.6133(5) -0.3239(5)
O11 O -0.0357(6) 0.3413(5) -0.1547(4)
O12 O 0.2584(6) 0.2636(5) -0.2705(5)
O13 O -0.3485(6) 0.4573(5) -0.5591(5)
O14 O -0.2838(13) 0.2191(12) 0.2745(11)
N1 N 0.2947(6) 0.4312(6) -0.1117(5)
N2 N 0.1753(6) 0.4703(6) -0.0641(6)
N3 N 0.1639(7) 0.4502(6) 0.0524(6)
N4 N -0.1927(8) 0.0383(7) 0.5539(7)
N5 N -0.0242(7) -0.0849(6) 0.6821(6)
C1 C 0.2782(8) 0.3962(7) 0.0803(7)
C2 C 0.3202(8) 0.3537(7) 0.1891(7)
H1 H 0.26610 0.36360 0.25880
C3 C 0.4420(9) 0.2978(8) 0.1902(7)
H2 H 0.47140 0.26740 0.26290
C4 C 0.3606(8) 0.3833(7) -0.0207(6)
C5 C 0.4868(8) 0.3275(8) -0.0206(7)
H3 H 0.54270 0.32030 -0.09120
H4 H 0.60870 0.24370 0.09290
C6 C 0.5253(8) 0.2836(9) 0.0879(7)
C7 C -0.2816(15) 0.0940(14) 0.4868(12)
C8 C -0.4053(13) 0.1294(13) 0.5332(12)
H5 H -0.46240 0.17190 0.48110
C9 C -0.4482(10) 0.1032(10) 0.6572(10)
H6 H -0.53530 0.12590 0.69140
C10 C -0.3615(9) 0.0436(9) 0.7289(9)
H7 H -0.38730 0.02500 0.81370
C11 C -0.2361(9) 0.0111(8) 0.6757(8)
C12 C -0.1386(9) -0.0577(7) 0.7482(7)
C13 C -0.1655(9) -0.0908(8) 0.8702(7)
H8 H -0.24770 -0.06900 0.91300
C14 C -0.0718(9) -0.1564(8) 0.9304(8)
H9 H -0.08710 -0.17910 1.01550
C15 C 0.0435(10) -0.1888(9) 0.8670(9)
H10 H 0.10760 -0.23680 0.90850
C16 C -0.0675(10) 0.1511(9) 0.2592(8)
C17 C -0.2057(18) 0.1658(16) 0.3323(15)
Mo1A Mo 0.10774(7) 0.69471(7) -0.75111(6)
Mo2A Mo -0.19159(7) 0.76749(7) -0.62974(6)
Mo2* Mo -0.80841(7) 0.23251(7) -0.37026(6)
Mo3A Mo -0.00512(7) 0.39066(6) -0.56263(6)
Mo4A Mo 0.30084(7) 0.53586(6) -0.56116(6)
Cu2A Cu -0.01561(10) 0.48993(10) -0.86761(9)
Cu2A* Cu -0.01561(10) 0.48993(10) 0.13239(9)
Cu3A Cu 0.66204(10) 0.56301(10) -0.72894(9)
Cu3* Cu 0.33796(10) 0.43699(10) -0.27106(9)
Cu3A* Cu -0.33796(10) 0.56301(10) -0.72894(9)
Cu3A** Cu -0.33796(10) 0.56301(10) 0.27106(9)
O1A O 0.2631(5) 0.7858(5) -0.8423(4)
O2A O -0.2483(6) 0.9083(5) -0.6350(5)
O3A O 0.4407(5) 0.6141(5) -0.6874(5)
O4A O -0.0767(5) 0.7517(5) -0.4869(4)
O5A O 0.1636(5) 0.5156(5) -0.6692(4)
O6A O 0.0009(5) 0.8231(5) -0.7287(4)
O7A O -0.3170(5) 0.6406(5) -0.4782(4)
O8A O 0.1714(5) 0.6739(5) -0.5783(4)
O9A O -0.0765(5) 0.5719(5) -0.5743(4)
O10A O -0.0670(5) 0.3867(5) -0.6761(5)
O11A O 0.0357(6) 0.6587(5) -0.8453(4)
O12* O -0.7416(6) 0.2636(5) -0.2705(5)
O12A O -0.2584(6) 0.7364(5) -0.7295(5)
O12A* O 0.7416(6) 0.7364(5) -0.7295(5)
O13A O 0.3485(6) 0.5427(5) -0.4409(5)
O13A* O -0.6515(6) 0.5427(5) -0.4409(5)
O13* O 0.6515(6) 0.4573(5) -0.5591(5)
O14A O 0.2838(13) -0.2191(12) 0.7255(11)
N1A N -0.2947(6) 0.5688(6) 0.1117(5)
N1* N -0.7053(6) 0.4312(6) -0.1117(5)
N1A* N 0.7053(6) 0.5688(6) -0.8883(5)
N2A N -0.1753(6) 0.5297(6) 0.0641(6)
N2A* N -0.1753(6) 0.5297(6) -0.9359(6)
N3A N -0.1639(7) 0.5498(6) -0.0524(6)
N3* N 0.1639(7) 0.4502(6) -0.9476(6)
N4A N 0.1927(8) -0.0383(7) 0.4461(7)
N5A N 0.0242(7) 0.0849(6) 0.3179(6)
C1A C -0.2782(8) 0.6038(7) -0.0803(7)
C2A C -0.3202(8) 0.6463(7) -0.1891(7)
H1A H -0.26610 0.63640 -0.25880
C3A C -0.4420(9) 0.7022(8) -0.1902(7)
H2A H -0.47140 0.73260 -0.26290
C4A C -0.3606(8) 0.6167(7) 0.0207(6)
C5A C -0.4868(8) 0.6725(8) 0.0206(7)
H3A H -0.54270 0.67970 0.09120
H4A H -0.60870 0.75630 -0.09290
C6A C -0.5253(8) 0.7164(9) -0.0879(7)
C7A C 0.2816(15) -0.0940(14) 0.5132(12)
C8A C 0.4053(13) -0.1294(13) 0.4668(12)
H5A H 0.46240 -0.17190 0.51890
C9A C 0.4482(10) -0.1032(10) 0.3428(10)
H6A H 0.53530 -0.12590 0.30860
C10A C 0.3615(9) -0.0436(9) 0.2711(9)
H7A H 0.38730 -0.02500 0.18630
C11A C 0.2361(9) -0.0111(8) 0.3243(8)
C12A C 0.1386(9) 0.0577(7) 0.2518(7)
C13A C 0.1655(9) 0.0908(8) 0.1298(7)
H8A H 0.24770 0.06900 0.08700
C14A C 0.0718(9) 0.1564(8) 0.0696(8)
H9A H 0.08710 0.17910 -0.01550
C15A C -0.0435(10) 0.1888(9) 0.1330(9)
H10A H -0.10760 0.23680 0.09150
C16A C 0.0675(10) -0.1511(9) 0.7408(8)
C17A C 0.2057(18) -0.1658(16) 0.6677(15)
#END
