
#######################################################################
#
#                 Cambridge Crystallographic Data Centre
#                                CCDC
#
#######################################################################
#
# If this CIF has been generated from an entry in the Cambridge
# Structural Database, then it will include bibliographic, chemical,
# crystal, experimental, refinement or atomic coordinate data resulting
# from the CCDC's data processing and validation procedures.
#
#######################################################################

data_CSD_CIF_LOKMIK
_audit_creation_date 2019-07-04
_audit_creation_method CSD-ConQuest-V1
_database_code_CSD LOKMIK
_database_code_depnum_ccdc_archive 'CCDC 1891550'
_chemical_formula_sum 'C40 H62 Cl1 Cu2 Dy1 Li2 N4 O25'
_chemical_formula_moiety
;
(C40 H38 Cl1 Cu2 Dy1 N4 O13 2-)n,2n(H8 Li1 O4 1+),4n(H2 O1)
;
_journal_coden_Cambridge 261
_journal_volume 22
_journal_year 2019
_journal_page_first 466
_journal_name_full 'Comptes Rendus Chimie '
loop_
_publ_author_name
"A.Pascual-Alvarez"
"Joan Cano"
"F.Lloret"
"J.Ferrando-Soria"
"D.Armentano"
"E.Pardo"
_chemical_name_systematic
;
catena-(bis(tetra-aqua-lithium) 
tetrakis(\m-[(2,6-dimethylphenyl)amino](oxo)acetato)-aqua-chloro-di-copper-dys
prosium tetrahydrate)
;
_cell_volume   6190.530
_exptl_crystal_colour 'green'
_exptl_crystal_description 'prism'
_diffrn_ambient_temperature 90
_refine_special_details
;
The SQUEEZE/PLATON program was used to model the water molecules.

;
#These two values have been output from a single CSD field.
_refine_ls_R_factor_gt 0.1319
_refine_ls_wR_factor_gt 0.1319
_symmetry_cell_setting tetragonal
_symmetry_space_group_name_H-M 'I 4/m'
_symmetry_Int_Tables_number 87
loop_
_symmetry_equiv_pos_site_id
_symmetry_equiv_pos_as_xyz
1 x,y,z
2 -x,-y,z
3 -y,x,z
4 y,-x,z
5 1/2+x,1/2+y,1/2+z
6 1/2-x,1/2-y,1/2+z
7 1/2-y,1/2+x,1/2+z
8 1/2+y,1/2-x,1/2+z
9 -x,-y,-z
10 x,y,-z
11 y,-x,-z
12 -y,x,-z
13 -1/2-x,-1/2-y,-1/2-z
14 -1/2+x,-1/2+y,-1/2-z
15 -1/2+y,-1/2-x,-1/2-z
16 -1/2-y,-1/2+x,-1/2-z
_cell_length_a 15.9307(5)
_cell_length_b 15.9307(5)
_cell_length_c 24.3926(9)
_cell_angle_alpha 90
_cell_angle_beta 90
_cell_angle_gamma 90
_cell_formula_units_Z 4
loop_
_atom_type_symbol
_atom_type_radius_bond
C 0.68
H 0.23
Cl 0.99
Cu 1.32
Dy 1.92
Li 1.28
N 0.68
O 0.68
loop_
_atom_site_label
_atom_site_type_symbol
_atom_site_fract_x
_atom_site_fract_y
_atom_site_fract_z
Cu1 Cu 0.25000 0.25000 0.25000
Dy1 Dy 0.00000 0.00000 0.21470(5)
Cl1 Cl 0.00000 0.00000 0.3223(12)
N1 N 0.167(3) 0.197(3) 0.2902(16)
O1 O 0.2032(15) 0.1852(15) 0.1942(8)
O2 O 0.0929(13) 0.1023(13) 0.1788(6)
O3 O 0.0499(14) 0.1137(14) 0.2733(7)
O4 O 0.00000 0.00000 0.1085(7)
C1 C 0.1379(11) 0.1440(11) 0.2066(6)
C2 C 0.1178(14) 0.1473(16) 0.2577(10)
C3 C 0.1231(13) 0.2383(16) 0.3387(8)
C4 C 0.1310(11) 0.1884(13) 0.3851(10)
C5 C 0.1012(17) 0.217(2) 0.4353(8)
H1 H 0.10660 0.18280 0.46700
C6 C 0.0635(19) 0.295(2) 0.4391(11)
H2 H 0.04320 0.31490 0.47340
C7 C 0.0557(16) 0.3454(15) 0.3926(15)
H3 H 0.02990 0.39900 0.39520
C8 C 0.0855(16) 0.3168(16) 0.3424(11)
C9 C 0.1702(18) 0.1131(19) 0.3775(13)
H4 H 0.17690 0.08490 0.41300
H5 H 0.22550 0.12250 0.36110
H6 H 0.13630 0.07790 0.35320
C10 C 0.064(3) 0.368(4) 0.295(2)
H7 H 0.08990 0.34450 0.26220
H8 H 0.08340 0.42550 0.30080
H9 H 0.00240 0.36830 0.29040
Li1 Li 0.3339(19) 0.322(3) 0.50000
O5 O 0.290(5) 0.271(5) 0.437(3)
O6 O 0.387(6) 0.382(6) 0.556(4)
N1A N -0.167(3) -0.197(3) 0.2902(16)
O1A O -0.2032(15) -0.1852(15) 0.1942(8)
O2A O -0.0929(13) -0.1023(13) 0.1788(6)
O3A O -0.0499(14) -0.1137(14) 0.2733(7)
C1A C -0.1379(11) -0.1440(11) 0.2066(6)
C2A C -0.1178(14) -0.1473(16) 0.2577(10)
C3A C -0.1231(13) -0.2383(16) 0.3387(8)
C4A C -0.1310(11) -0.1884(13) 0.3851(10)
C5A C -0.1012(17) -0.217(2) 0.4353(8)
H1A H -0.10660 -0.18280 0.46700
C6A C -0.0635(19) -0.295(2) 0.4391(11)
H2A H -0.04320 -0.31490 0.47340
C7A C -0.0557(16) -0.3454(15) 0.3926(15)
H3A H -0.02990 -0.39900 0.39520
C8A C -0.0855(16) -0.3168(16) 0.3424(11)
C9A C -0.1702(18) -0.1131(19) 0.3775(13)
H4A H -0.17690 -0.08490 0.41300
H5A H -0.22550 -0.12250 0.36110
H6A H -0.13630 -0.07790 0.35320
C10A C -0.064(3) -0.368(4) 0.295(2)
H7A H -0.08990 -0.34450 0.26220
H8A H -0.08340 -0.42550 0.30080
H9A H -0.00240 -0.36830 0.29040
Cu1B Cu -0.25000 0.25000 0.25000
N1B N -0.197(3) 0.167(3) 0.2902(16)
O1B O -0.1852(15) 0.2032(15) 0.1942(8)
O2B O -0.1023(13) 0.0929(13) 0.1788(6)
O3B O -0.1137(14) 0.0499(14) 0.2733(7)
C1B C -0.1440(11) 0.1379(11) 0.2066(6)
C2B C -0.1473(14) 0.1178(16) 0.2577(10)
C3B C -0.2383(13) 0.1231(16) 0.3387(8)
C4B C -0.1884(11) 0.1310(13) 0.3851(10)
C5B C -0.2170(17) 0.1012(20) 0.4353(8)
H1B H -0.18280 0.10660 0.46700
C6B C -0.2950(19) 0.0635(20) 0.4391(11)
H2B H -0.31490 0.04320 0.47340
C7B C -0.3454(16) 0.0557(15) 0.3926(15)
H3B H -0.39900 0.02990 0.39520
C8B C -0.3168(16) 0.0855(16) 0.3424(11)
C9B C -0.1131(18) 0.1702(19) 0.3775(13)
H4B H -0.08490 0.17690 0.41300
H5B H -0.12250 0.22550 0.36110
H6B H -0.07790 0.13630 0.35320
C10B C -0.368(3) 0.064(4) 0.295(2)
H7B H -0.34450 0.08990 0.26220
H8B H -0.42550 0.08340 0.30080
H9B H -0.36830 0.00240 0.29040
N1C N 0.197(3) -0.167(3) 0.2902(16)
O1C O 0.1852(15) -0.2032(15) 0.1942(8)
O2C O 0.1023(13) -0.0929(13) 0.1788(6)
O3C O 0.1137(14) -0.0499(14) 0.2733(7)
C1C C 0.1440(11) -0.1379(11) 0.2066(6)
C2C C 0.1473(14) -0.1178(16) 0.2577(10)
C3C C 0.2383(13) -0.1231(16) 0.3387(8)
C4C C 0.1884(11) -0.1310(13) 0.3851(10)
C5C C 0.2170(17) -0.1012(20) 0.4353(8)
H1C H 0.18280 -0.10660 0.46700
C6C C 0.2950(19) -0.0635(20) 0.4391(11)
H2C H 0.31490 -0.04320 0.47340
C7C C 0.3454(16) -0.0557(15) 0.3926(15)
H3C H 0.39900 -0.02990 0.39520
C8C C 0.3168(16) -0.0855(16) 0.3424(11)
C9C C 0.1131(18) -0.1702(19) 0.3775(13)
H4C H 0.08490 -0.17690 0.41300
H5C H 0.12250 -0.22550 0.36110
H6C H 0.07790 -0.13630 0.35320
C10C C 0.368(3) -0.064(4) 0.295(2)
H7C H 0.34450 -0.08990 0.26220
H8C H 0.42550 -0.08340 0.30080
H9C H 0.36830 -0.00240 0.29040
Cu1A Cu -0.25000 -0.25000 0.25000
Cu1C Cu 0.25000 -0.25000 0.25000
N1L N 0.333(3) 0.303(3) 0.2098(16)
N1N N -0.303(3) 0.333(3) 0.2098(16)
O1L O 0.2968(15) 0.3148(15) 0.3058(8)
O1N O -0.3148(15) 0.2968(15) 0.3058(8)
O5I O 0.290(5) 0.271(5) 0.563(3)
O6I O 0.387(6) 0.382(6) 0.444(4)
#END
