
#######################################################################
#
#                 Cambridge Crystallographic Data Centre
#                                CCDC
#
#######################################################################
#
# If this CIF has been generated from an entry in the Cambridge
# Structural Database, then it will include bibliographic, chemical,
# crystal, experimental, refinement or atomic coordinate data resulting
# from the CCDC's data processing and validation procedures.
#
#######################################################################

data_CSD_CIF_LOKREJ
_audit_creation_date 2009-06-04
_audit_creation_method CSD-ConQuest-V1
_database_code_CSD LOKREJ
_database_code_depnum_ccdc_archive 'CCDC 691981'
_chemical_formula_sum 'C42 H63 Co2 Cr2 F1 K1 N1 O40'
_chemical_formula_moiety
;
(C24 H32 Co2 Cr2 K1 O34 1-)n,n(C6 H7 F1 N1 1+),n(C12 H24 O6)
;
_journal_coden_Cambridge 4
_journal_volume 130
_journal_year 2008
_journal_page_first 14987
_journal_name_full 'J.Am.Chem.Soc. '
loop_
_publ_author_name
"E.Coronado"
"J.R.Galan-Mascaros"
"C.Marti-Gastaldo"
_chemical_name_systematic
;
catena-(tetrakis(\m~2~-oxalato-O,O',O'',O'')-bis(\m~2~-oxalato-O,O',O'')-tetra
-aqua-(18-crown-6)-di-cobalt(ii)-di-chromium(iii)-potassium 4-fluoroanilinium 
18-crown-6)
;
_cell_volume   3445.978
_exptl_crystal_colour 'pink'
_exptl_crystal_density_diffrn 1.44
_exptl_special_details
;
magnetic properties

;
_exptl_crystal_description 'needle'
_diffrn_ambient_temperature 110
#These two values have been output from a single CSD field.
_refine_ls_R_factor_gt 0.0665
_refine_ls_wR_factor_gt 0.0665
_symmetry_cell_setting monoclinic
_symmetry_space_group_name_H-M 'P 21/m'
_symmetry_Int_Tables_number 11
loop_
_symmetry_equiv_pos_site_id
_symmetry_equiv_pos_as_xyz
1 x,y,z
2 -x,1/2+y,-z
3 -x,-y,-z
4 x,-1/2-y,z
_cell_length_a 8.9240(2)
_cell_length_b 36.6840(11)
_cell_length_c 11.4110(3)
_cell_angle_alpha 90
_cell_angle_beta 112.7100(15)
_cell_angle_gamma 90
_cell_formula_units_Z 2
loop_
_atom_type_symbol
_atom_type_radius_bond
C 0.68
H 0.23
Co 1.33
Cr 1.35
F 0.64
K 1.83
N 0.68
O 0.68
loop_
_atom_site_label
_atom_site_type_symbol
_atom_site_fract_x
_atom_site_fract_y
_atom_site_fract_z
Cr1 Cr -0.41995(8) -0.10385(2) -0.34589(6)
O1 O -0.8418(3) -0.1427(1) -0.5850(3)
O2 O -0.8842(4) -0.07705(10) -0.4935(3)
C1 C -0.7230(5) -0.12676(14) -0.5086(4)
C2 C -0.7470(5) -0.09008(14) -0.4537(4)
O3 O -0.5754(3) -0.13805(10) -0.4699(3)
O4 O -0.6193(3) -0.07551(10) -0.3717(3)
O5 O -0.2797(4) -0.07106(10) -0.2154(3)
O6 O -0.4277(4) -0.13052(10) -0.2000(3)
C3 C -0.2551(6) -0.08075(16) -0.1040(4)
C4 C -0.3430(6) -0.11564(18) -0.0926(4)
O7 O -0.1695(6) -0.06388(14) -0.0078(3)
O8 O -0.3346(6) -0.12748(17) 0.0090(3)
O9 O -0.3911(4) -0.0770(1) -0.4864(3)
O10 O -0.2338(3) -0.13256(10) -0.3475(3)
C5 C -0.2810(5) -0.09062(15) -0.5187(4)
C6 C -0.1930(5) -0.12337(15) -0.4390(4)
O11 O -0.2427(4) -0.08045(10) -0.6063(3)
O12 O -0.0875(4) -0.13905(11) -0.4675(3)
Co1 Co -1.05786(7) -0.11279(2) -0.62248(5)
O13 O -1.2215(4) -0.14891(13) -0.7469(3)
O14 O -1.0279(4) -0.08516(12) -0.7678(3)
C7 C 0.3518(8) -0.0513(2) 0.0193(8)
H1 H 0.28910 -0.07440 0.00330
H2 H 0.46890 -0.05740 0.05710
C8 C 0.3125(8) -0.0306(2) -0.1048(7)
H3 H 0.36820 -0.00670 -0.08760
H4 H 0.35110 -0.04460 -0.16190
C9 C 0.0943(9) -0.00840(19) -0.2826(6)
H5 H 0.14180 0.01630 -0.27300
H6 H 0.13250 -0.02270 -0.33940
C10 C -0.086(1) -0.0062(2) -0.3374(5)
H7 H -0.13250 -0.03050 -0.33480
H8 H -0.12430 0.00160 -0.42730
C11 C -0.3139(7) 0.0204(2) -0.3085(5)
H9 H -0.36230 0.02870 -0.39790
H10 H -0.35520 -0.00440 -0.30400
C12 C -0.3603(7) 0.0458(2) -0.2259(7)
H11 H -0.47920 0.04990 -0.26230
H12 H -0.30550 0.06960 -0.22000
O15 O 0.1422(5) -0.02542(13) -0.1638(3)
O16 O -0.1407(4) 0.01966(11) -0.2658(3)
O17 O 0.3112(5) -0.02948(13) 0.1011(4)
C13 C -0.0783(12) 0.2831(3) -0.2118(7)
H13 H -0.01500 0.28410 -0.26630
H14 H -0.19510 0.28330 -0.26770
C14 C -0.0418(11) 0.3145(3) -0.1309(7)
H15 H -0.05970 0.33690 -0.18320
H16 H 0.07390 0.31390 -0.07220
C15 C -0.1287(15) 0.3468(3) 0.0088(11)
H17 H -0.01290 0.35140 0.06200
H18 H -0.16940 0.36760 -0.05030
C16 C -0.2239(12) 0.3444(3) 0.0930(9)
H19 H -0.34120 0.34210 0.04010
H20 H -0.20730 0.36690 0.14460
C17 C -0.2335(8) 0.3139(2) 0.2686(7)
H21 H -0.20330 0.33670 0.31880
H22 H -0.35350 0.31220 0.23060
C18 C -0.1652(9) 0.2819(3) 0.3534(6)
H23 H -0.19910 0.28260 0.42640
H24 H -0.04510 0.28240 0.38650
O18 O -0.0406(10) 0.25000 -0.1391(6)
O19 O -0.1413(8) 0.31545(19) -0.0599(5)
O20 O -0.1726(5) 0.31461(13) 0.1718(4)
O21 O -0.2242(8) 0.25000 0.2819(5)
C19 C 0.4348(9) 0.25000 0.3933(8)
C20 C 0.3635(7) 0.28188(19) 0.3503(6)
H25 H 0.41740 0.30410 0.38410
C21 C 0.2076(7) 0.28204(18) 0.2542(6)
H26 H 0.15590 0.30450 0.22050
C22 C 0.1304(9) 0.25000 0.2092(7)
N1 N -0.0358(7) 0.25000 0.1153(5)
H27? H -0.07000 0.22660 0.09500
H28? H -0.03960 0.26190 0.04420
H29? H -0.10160 0.26140 0.14790
F1 F 0.5868(6) 0.25000 0.4894(6)
K1 K 0.00000 0.00000 0.00000
Cr1B Cr 0.41995(8) 0.10385(2) 0.34589(6)
O1B O 0.8418(3) 0.1427(1) 0.5850(3)
O2B O 0.8842(4) 0.07705(10) 0.4935(3)
C1B C 0.7230(5) 0.12676(14) 0.5086(4)
C2B C 0.7470(5) 0.09008(14) 0.4537(4)
O3B O 0.5754(3) 0.13805(10) 0.4699(3)
O4B O 0.6193(3) 0.07551(10) 0.3717(3)
O5B O 0.2797(4) 0.07106(10) 0.2154(3)
O6B O 0.4277(4) 0.13052(10) 0.2000(3)
C3B C 0.2551(6) 0.08075(16) 0.1040(4)
C4B C 0.3430(6) 0.11564(18) 0.0926(4)
O7B O 0.1695(6) 0.06388(14) 0.0078(3)
O8B O 0.3346(6) 0.12748(17) -0.0090(3)
O9B O 0.3911(4) 0.0770(1) 0.4864(3)
O10B O 0.2338(3) 0.13256(10) 0.3475(3)
C5B C 0.2810(5) 0.09062(15) 0.5187(4)
C6B C 0.1930(5) 0.12337(15) 0.4390(4)
O11B O 0.2427(4) 0.08045(10) 0.6063(3)
O11* O -1.2427(4) -0.08045(10) -0.6063(3)
O11B* O 1.2427(4) 0.08045(10) 0.6063(3)
O12B O 0.0875(4) 0.13905(11) 0.4675(3)
O12* O -1.0875(4) -0.13905(11) -0.4675(3)
O12B* O 1.0875(4) 0.13905(11) 0.4675(3)
Co1B Co 1.05786(7) 0.11279(2) 0.62248(5)
Co1* Co -0.05786(7) -0.11279(2) -0.62248(5)
Co1B* Co 0.05786(7) 0.11279(2) 0.62248(5)
O13B O 1.2215(4) 0.14891(13) 0.7469(3)
O14B O 1.0279(4) 0.08516(12) 0.7678(3)
C7B C -0.3518(8) 0.0513(2) -0.0193(8)
H1B H -0.28910 0.07440 -0.00330
H2B H -0.46890 0.05740 -0.05710
C8B C -0.3125(8) 0.0306(2) 0.1048(7)
H3B H -0.36820 0.00670 0.08760
H4B H -0.35110 0.04460 0.16190
C9B C -0.0943(9) 0.00840(19) 0.2826(6)
H5B H -0.14180 -0.01630 0.27300
H6B H -0.13250 0.02270 0.33940
C10B C 0.086(1) 0.0062(2) 0.3374(5)
H7B H 0.13250 0.03050 0.33480
H8B H 0.12430 -0.00160 0.42730
C11B C 0.3139(7) -0.0204(2) 0.3085(5)
H9B H 0.36230 -0.02870 0.39790
H10B H 0.35520 0.00440 0.30400
C12B C 0.3603(7) -0.0458(2) 0.2259(7)
H11B H 0.47920 -0.04990 0.26230
H12B H 0.30550 -0.06960 0.22000
O15B O -0.1422(5) 0.02542(13) 0.1638(3)
O16B O 0.1407(4) -0.01966(11) 0.2658(3)
O17B O -0.3112(5) 0.02948(13) -0.1011(4)
C13C C -0.0783(12) 0.2169(3) -0.2118(7)
H13C H -0.01500 0.21590 -0.26630
H14C H -0.19510 0.21670 -0.26770
C14C C -0.0418(11) 0.1855(3) -0.1309(7)
H15C H -0.05970 0.16310 -0.18320
H16C H 0.07390 0.18610 -0.07220
C15C C -0.1287(15) 0.1532(3) 0.0088(11)
H17C H -0.01290 0.14860 0.06200
H18C H -0.16940 0.13240 -0.05030
C16C C -0.2239(12) 0.1556(3) 0.0930(9)
H19C H -0.34120 0.15790 0.04010
H20C H -0.20730 0.13310 0.14460
C17C C -0.2335(8) 0.1861(2) 0.2686(7)
H21C H -0.20330 0.16330 0.31880
H22C H -0.35350 0.18780 0.23060
C18C C -0.1652(9) 0.2181(3) 0.3534(6)
H23C H -0.19910 0.21740 0.42640
H24C H -0.04510 0.21760 0.38650
O19C O -0.1413(8) 0.18455(19) -0.0599(5)
O20C O -0.1726(5) 0.18539(13) 0.1718(4)
C20C C 0.3635(7) 0.21812(19) 0.3503(6)
H25C H 0.41740 0.19590 0.38410
C21C C 0.2076(7) 0.21796(18) 0.2542(6)
H26C H 0.15590 0.19550 0.22050
#END
