
#######################################################################
#
#                 Cambridge Crystallographic Data Centre
#                                CCDC
#
#######################################################################
#
# If this CIF has been generated from an entry in the Cambridge
# Structural Database, then it will include bibliographic, chemical,
# crystal, experimental, refinement or atomic coordinate data resulting
# from the CCDC's data processing and validation procedures.
#
#######################################################################

data_CSD_CIF_LOKVAI
_audit_creation_date 2000-12-08
_audit_creation_method CSD-ConQuest-V1
_database_code_CSD LOKVAI
_database_code_depnum_ccdc_archive 'CCDC 1208237'
_chemical_formula_sum 'C8 H16 Cs3 Mo4 Na1 O28 S4'
_chemical_formula_moiety
;
(Cs1 1+)3n,n(C8 H8 Mo4 Na1 O24 S4 3-),4n(H2 O1)
;
_journal_coden_Cambridge 1076
_journal_volume 46
_journal_year 1998
_journal_page_first 237
_journal_name_full 'Bull.Pol.Acad.Sci.,Chem. '
loop_
_publ_author_name
"A.Dolbecq"
"B.Salignac"
"E.Cadot"
"F.Secheresse"
_chemical_name_systematic
;
catena-(Tri-cesium 
tetrakis(\m~2~-oxalato)-tetrakis(\m~2~-sulfido)-tetra-aqua-tetraoxo-sodium-tet
ra-molybdenum(v) tetrahydrate)
;
_cell_volume   3327.006
_exptl_crystal_colour 'red'
_exptl_crystal_density_diffrn 2.95
_exptl_crystal_description 'cubic'
_diffrn_ambient_temperature ?
_diffrn_special_details
;
The study was carried out at room temperature,in the range 283-303K

;
#These two values have been output from a single CSD field.
_refine_ls_R_factor_gt 0.0247
_refine_ls_wR_factor_gt 0.0247
_symmetry_cell_setting monoclinic
_symmetry_space_group_name_H-M 'C 2/m'
_symmetry_Int_Tables_number 12
loop_
_symmetry_equiv_pos_site_id
_symmetry_equiv_pos_as_xyz
1 x,y,z
2 -x,y,-z
3 1/2+x,1/2+y,z
4 1/2-x,1/2+y,-z
5 -x,-y,-z
6 x,-y,z
7 -1/2-x,-1/2-y,-z
8 -1/2+x,-1/2-y,z
_cell_length_a 17.5683(4)
_cell_length_b 21.4944(4)
_cell_length_c 12.4371(3)
_cell_angle_alpha 90
_cell_angle_beta 134.895(1)
_cell_angle_gamma 90
_cell_formula_units_Z 4
loop_
_atom_type_symbol
_atom_type_radius_bond
C 0.68
Cs 1.67
Mo 1.40
Na 1.49
O 0.68
S 1.02
loop_
_atom_site_label
_atom_site_type_symbol
_atom_site_fract_x
_atom_site_fract_y
_atom_site_fract_z
Mo1 Mo 0.2496(1) 0.0658(1) 0.0291(1)
S1 S 0.3963(2) 0.00000 0.1935(2)
S2 S 0.1166(2) 0.00000 -0.1664(2)
O1 O 0.2141(3) 0.0798(2) 0.1218(4)
O2 O 0.1376(3) 0.1408(2) -0.1321(5)
O3 O 0.3631(3) 0.1437(2) 0.1508(4)
O4 O 0.2964(3) 0.0878(2) -0.0889(4)
O5 O 0.3795(3) 0.1560(2) -0.1121(4)
O6 O 0.4545(3) 0.2139(2) 0.1452(5)
C1 C 0.3974(4) 0.1678(2) 0.0958(6)
C2 C 0.3554(4) 0.1353(2) -0.0478(6)
Mo2 Mo 0.2205(1) 0.4342(1) -0.5300(1)
S3 S 0.2025(2) 0.50000 -0.4014(2)
S4 S 0.2830(2) 0.50000 -0.6006(2)
O7 O 0.0924(3) 0.4203(2) -0.6936(4)
O8 O 0.2697(3) 0.3590(2) -0.5925(4)
O9 O 0.2125(3) 0.3564(2) -0.4240(4)
O10 O 0.3849(3) 0.4122(2) -0.3183(4)
O11 O 0.4912(3) 0.3438(2) -0.1289(4)
O12 O 0.3094(3) 0.2861(2) -0.2365(5)
C3 C 0.3014(4) 0.3325(2) -0.3010(6)
C4 C 0.4036(4) 0.3646(2) -0.2402(6)
Na1 Na 0.50000 0.2501(1) 0.00000
Cs1 Cs 0.50000 0.00000 0.00000
Cs2 Cs 0.00000 0.00000 0.00000
Cs3 Cs 0.50000 0.1161(1) 0.50000
Cs4 Cs 0.00000 0.1202(1) -0.50000
O13 O 0.8973(4) -0.2387(2) 0.5675(5)
O14 O 0.1698(4) 0.2386(2) -0.2271(7)
Mo1E Mo 0.2496(1) -0.0658(1) 0.0291(1)
O1E O 0.2141(3) -0.0798(2) 0.1218(4)
O2E O 0.1376(3) -0.1408(2) -0.1321(5)
O3E O 0.3631(3) -0.1437(2) 0.1508(4)
C1E C 0.3974(4) -0.1678(2) 0.0958(6)
O6E O 0.4545(3) -0.2139(2) 0.1452(5)
Na1E Na 0.50000 -0.2501(1) 0.00000
O5E O 0.3795(3) -0.1560(2) -0.1121(4)
C2E C 0.3554(4) -0.1353(2) -0.0478(6)
O4E O 0.2964(3) -0.0878(2) -0.0889(4)
O6A O 0.5455(3) 0.2139(2) -0.1452(5)
O5A O 0.6205(3) 0.1560(2) 0.1121(4)
Mo2E Mo 0.2205(1) 0.5658(1) -0.5300(1)
O7E O 0.0924(3) 0.5797(2) -0.6936(4)
O8E O 0.2697(3) 0.6410(2) -0.5925(4)
O9E O 0.2125(3) 0.6436(2) -0.4240(4)
C3E C 0.3014(4) 0.6675(2) -0.3010(6)
O12E O 0.3094(3) 0.7139(2) -0.2365(5)
Na1E* Na 0.50000 0.7499(1) 0.00000
O11E O 0.4912(3) 0.6562(2) -0.1289(4)
C4E C 0.4036(4) 0.6354(2) -0.2402(6)
O10E O 0.3849(3) 0.5878(2) -0.3183(4)
O12A O 0.6906(3) 0.2861(2) 0.2365(5)
O11A O 0.5088(3) 0.3438(2) 0.1289(4)
#END
