
#######################################################################
#
#                 Cambridge Crystallographic Data Centre
#                                CCDC
#
#######################################################################
#
# If this CIF has been generated from an entry in the Cambridge
# Structural Database, then it will include bibliographic, chemical,
# crystal, experimental, refinement or atomic coordinate data resulting
# from the CCDC's data processing and validation procedures.
#
#######################################################################

data_CSD_CIF_LOLVEQ06
_audit_creation_date 2019-07-04
_audit_creation_method CSD-ConQuest-V1
_database_code_CSD LOLVEQ06
_database_code_depnum_ccdc_archive 'CCDC 1908602'
_chemical_formula_sum 'C11 H22 Mg2 N2 O12'
_chemical_formula_moiety
;
(C6 H6 Mg2 O12 2-)n,C5 H16 N2 2+
;
_journal_coden_Cambridge 1220
_journal_volume 25
_journal_year 2019
_journal_page_first 9303
_journal_name_full 'Chem.-Eur.J. '
loop_
_publ_author_name
"Yin-Hua Zhao"
"Shu Liu"
"Bing-Wu Wang"
"Zhe-Ming Wang"
"Song Gao"
_chemical_name_systematic
;
catena-[N^1^,N^3^-dimethylpropane-1,3-bis(aminium) 
hexakis(\m-formato)-di-magnesium]
;
_cell_volume    891.275
_exptl_crystal_colour 'colorless'
_exptl_crystal_density_diffrn 1.576
_exptl_crystal_description 'thick plate'
_diffrn_ambient_temperature 350
_refine_special_details
;
The structure is disordered.

;
#These two values have been output from a single CSD field.
_refine_ls_R_factor_gt 0.0299
_refine_ls_wR_factor_gt 0.0299
_symmetry_cell_setting hexagonal
_symmetry_space_group_name_H-M 'P -3 1 c'
_symmetry_Int_Tables_number 163
loop_
_symmetry_equiv_pos_site_id
_symmetry_equiv_pos_as_xyz
1 x,y,z
2 -y,x-y,z
3 -x+y,-x,z
4 -y,-x,1/2-z
5 -x+y,y,1/2-z
6 x,x-y,1/2-z
7 -x,-y,-z
8 y,-x+y,-z
9 x-y,x,-z
10 y,x,-1/2+z
11 x-y,-y,-1/2+z
12 -x,-x+y,-1/2+z
_cell_length_a 8.1239(3)
_cell_length_b 8.1239(3)
_cell_length_c 15.5938(6)
_cell_angle_alpha 90
_cell_angle_beta 90
_cell_angle_gamma 120
_cell_formula_units_Z 2
loop_
_atom_type_symbol
_atom_type_radius_bond
C 0.68
H 0.23
Mg 1.41
N 0.68
O 0.68
loop_
_atom_site_label
_atom_site_type_symbol
_atom_site_fract_x
_atom_site_fract_y
_atom_site_fract_z
Mg1 Mg 0.00000 0.00000 0.00000
O1 O 0.20713(14) 0.21891(14) 0.07667(6)
C1 C 0.1966(2) 0.3189(2) 0.13360(9)
O2 O 0.32911(14) 0.45618(14) 0.17055(6)
H1 H 0.07470 0.28730 0.15080
Mg2 Mg 0.33330 0.66670 0.25000
C2 C 0.66670 0.33330 0.0161(2)
H2 H 0.611(7) 0.256(5) -0.0348(13)
H3 H 0.805(3) 0.374(8) 0.018(3)
H4 H 0.662(8) 0.453(5) 0.011(3)
N1 N 0.5805(6) 0.2403(6) 0.0945(2)
H5 H 0.568(5) 0.110(3) 0.0931(15)
H6 H 0.443(2) 0.213(5) 0.0921(15)
C3 C 0.66670 0.33330 0.1716(2)
H7 H 0.795(3) 0.338(6) 0.1784(16)
H8 H 0.715(5) 0.479(2) 0.1636(16)
C4 C 0.5728(12) 0.2864(6) 0.25000
H9 H 0.476(6) 0.140(4) 0.2497(17)
O1A O -0.21891(14) -0.01178(14) 0.07667(6)
O1B O 0.01178(14) -0.20713(14) 0.07667(6)
O1F O -0.20713(14) -0.21891(14) -0.07667(6)
O1H O -0.01178(14) 0.20713(14) -0.07667(6)
O1G O 0.21891(14) 0.01178(14) -0.07667(6)
C1A C -0.3189(2) -0.1223(2) 0.13360(9)
C1B C 0.1223(2) -0.1966(2) 0.13360(9)
C1F C -0.1966(2) -0.3189(2) -0.13360(9)
C1H C -0.1223(2) 0.1966(2) -0.13360(9)
C1G C 0.3189(2) 0.1223(2) -0.13360(9)
O2A O -0.45618(14) -0.12707(14) 0.17055(6)
H1A H -0.28730 -0.21260 0.15080
O2B O 0.12707(14) -0.32911(14) 0.17055(6)
H1B H 0.21260 -0.07470 0.15080
O2F O -0.32911(14) -0.45618(14) -0.17055(6)
H1F H -0.07470 -0.28730 -0.15080
O2H O -0.12707(14) 0.32911(14) -0.17055(6)
H1H H -0.21260 0.07470 -0.15080
O2G O 0.45618(14) 0.12707(14) -0.17055(6)
H1G H 0.28730 0.21260 -0.15080
Mg2* Mg -0.66670 -0.33330 0.25000
Mg2** Mg 0.33330 -0.33330 0.25000
Mg2F Mg -0.33330 -0.66670 -0.25000
Mg2F* Mg -0.33330 0.33330 -0.25000
Mg2F** Mg 0.66670 0.33330 -0.25000
O2D O 0.12707(14) 0.45618(14) 0.32945(6)
O2A* O 0.54382(14) 0.87293(14) 0.17055(6)
O2B* O 0.12707(14) 0.67089(14) 0.17055(6)
O2C O 0.54382(14) 0.67089(14) 0.32945(6)
O2E O 0.32911(14) 0.87293(14) 0.32945(6)
H2A H 0.744(7) 0.355(5) -0.0348(13)
H3A H 0.626(3) 0.431(8) 0.018(3)
H4A H 0.547(8) 0.209(5) 0.011(3)
N1A N 0.7597(6) 0.3402(6) 0.0945(2)
H5A H 0.890(5) 0.458(3) 0.0931(15)
H6A H 0.787(2) 0.230(5) 0.0921(15)
H7A H 0.662(3) 0.457(6) 0.1784(16)
H8A H 0.521(5) 0.236(2) 0.1636(16)
C4A C 0.7136(12) 0.2864(6) 0.25000
H9A H 0.860(6) 0.336(4) 0.2497(17)
H2B H 0.645(7) 0.389(5) -0.0348(13)
H3B H 0.569(3) 0.195(8) 0.018(3)
H4B H 0.791(8) 0.338(5) 0.011(3)
N1B N 0.6598(6) 0.4195(6) 0.0945(2)
H5B H 0.542(5) 0.432(3) 0.0931(15)
H6B H 0.770(2) 0.557(5) 0.0921(15)
H7B H 0.543(3) 0.205(6) 0.1784(16)
H8B H 0.764(5) 0.285(2) 0.1636(16)
C4B C 0.7136(12) 0.4272(6) 0.25000
H9B H 0.664(6) 0.524(4) 0.2497(17)
C2C C 0.66670 0.33330 0.4839(2)
H2C H 0.744(7) 0.389(5) 0.5348(13)
H3C H 0.626(3) 0.195(8) 0.482(3)
H4C H 0.547(8) 0.338(5) 0.489(3)
N1C N 0.7597(6) 0.4195(6) 0.4055(2)
H5C H 0.890(5) 0.432(3) 0.4069(15)
H6C H 0.787(2) 0.557(5) 0.4079(15)
C3C C 0.66670 0.33330 0.3284(2)
H7C H 0.662(3) 0.205(6) 0.3216(16)
H8C H 0.521(5) 0.285(2) 0.3364(16)
H9C H 0.860(6) 0.524(4) 0.2503(17)
H2D H 0.645(7) 0.256(5) 0.5348(13)
H3D H 0.569(3) 0.374(8) 0.482(3)
H4D H 0.791(8) 0.453(5) 0.489(3)
N1D N 0.6598(6) 0.2403(6) 0.4055(2)
H5D H 0.542(5) 0.110(3) 0.4069(15)
H6D H 0.770(2) 0.213(5) 0.4079(15)
H7D H 0.543(3) 0.338(6) 0.3216(16)
H8D H 0.764(5) 0.479(2) 0.3364(16)
H9D H 0.664(6) 0.140(4) 0.2503(17)
H2E H 0.611(7) 0.355(5) 0.5348(13)
H3E H 0.805(3) 0.431(8) 0.482(3)
H4E H 0.662(8) 0.209(5) 0.489(3)
N1E N 0.5805(6) 0.3402(6) 0.4055(2)
H5E H 0.568(5) 0.458(3) 0.4069(15)
H6E H 0.443(2) 0.230(5) 0.4079(15)
H7E H 0.795(3) 0.457(6) 0.3216(16)
H8E H 0.715(5) 0.236(2) 0.3364(16)
H9E H 0.476(6) 0.336(4) 0.2503(17)
#END
