
#######################################################################
#
#                 Cambridge Crystallographic Data Centre
#                                CCDC
#
#######################################################################
#
# If this CIF has been generated from an entry in the Cambridge
# Structural Database, then it will include bibliographic, chemical,
# crystal, experimental, refinement or atomic coordinate data resulting
# from the CCDC's data processing and validation procedures.
#
#######################################################################

data_CSD_CIF_LOLVEQ
_audit_creation_date 2019-07-04
_audit_creation_method CSD-ConQuest-V1
_database_code_CSD LOLVEQ
_database_code_depnum_ccdc_archive 'CCDC 1908597'
_chemical_formula_sum 'C11 H22 Mg2 N2 O12'
_chemical_formula_moiety
;
(C6 H6 Mg2 O12 2-)n,C5 H16 N2 2+
;
_journal_coden_Cambridge 1220
_journal_volume 25
_journal_year 2019
_journal_page_first 9303
_journal_name_full 'Chem.-Eur.J. '
loop_
_publ_author_name
"Yin-Hua Zhao"
"Shu Liu"
"Bing-Wu Wang"
"Zhe-Ming Wang"
"Song Gao"
_chemical_name_systematic
;
catena-[N^1^,N^3^-dimethylpropane-1,3-bis(aminium) 
hexakis(\m-formato)-di-magnesium]
;
_cell_volume   1757.711
_exptl_crystal_colour 'colorless'
_exptl_crystal_density_diffrn 1.598
_exptl_crystal_description 'thick plate'
_diffrn_ambient_temperature 80
#These two values have been output from a single CSD field.
_refine_ls_R_factor_gt 0.0249
_refine_ls_wR_factor_gt 0.0249
_symmetry_cell_setting monoclinic
_symmetry_space_group_name_H-M 'C 2/c'
_symmetry_Int_Tables_number 15
loop_
_symmetry_equiv_pos_site_id
_symmetry_equiv_pos_as_xyz
1 x,y,z
2 -x,y,1/2-z
3 1/2+x,1/2+y,z
4 1/2-x,1/2+y,1/2-z
5 -x,-y,-z
6 x,-y,-1/2+z
7 -1/2-x,-1/2-y,-z
8 -1/2+x,-1/2-y,-1/2+z
_cell_length_a 7.7729(2)
_cell_length_b 14.5055(4)
_cell_length_c 15.5929(4)
_cell_angle_alpha 90
_cell_angle_beta 91.200(2)
_cell_angle_gamma 90
_cell_formula_units_Z 4
loop_
_atom_type_symbol
_atom_type_radius_bond
C 0.68
H 0.23
Mg 1.41
N 0.68
O 0.68
loop_
_atom_site_label
_atom_site_type_symbol
_atom_site_fract_x
_atom_site_fract_y
_atom_site_fract_z
Mg1 Mg 0.00000 0.00000 0.00000
Mg2 Mg 0.00000 0.32217(3) 0.25000
O1 O 0.11285(9) 0.09892(5) 0.08372(4)
O2 O 0.10875(9) 0.21862(5) 0.17413(4)
O3 O 0.21011(9) 0.32760(5) 0.33250(5)
O4 O 0.37464(9) 0.39663(5) 0.43254(4)
O5 O 0.10687(9) 0.42409(5) 0.17108(4)
O6 O 0.27852(9) 0.48921(5) 0.07623(4)
C1 C 0.03710(12) 0.15794(7) 0.12934(6)
H1 H -0.08500 0.15580 0.12950
C2 C 0.28622(12) 0.39615(7) 0.36435(6)
H2 H 0.27600 0.45280 0.33410
C3 C 0.24752(12) 0.43101(7) 0.13415(6)
H3 H 0.33710 0.38970 0.15080
C4 C 0.50466(14) 0.17872(8) 0.01434(7)
H4 H 0.41890 0.22830 0.01360
H5 H 0.49130 0.14160 -0.03790
H6 H 0.62040 0.20550 0.01690
N1 N 0.47948(11) 0.11933(6) 0.09062(5)
H7 H 0.55510 0.07060 0.08930
H8 H 0.36950 0.09590 0.08920
C5 C 0.50789(13) 0.17254(7) 0.17169(6)
H9 H 0.41920 0.22130 0.17550
H10 H 0.62180 0.20290 0.17040
C6 C 0.50000 0.11167(10) 0.25000
H11 H 0.39680 0.07170 0.24630
H12? H 0.39680 0.07170 0.24630
O1A O -0.11285(9) 0.09892(5) 0.41628(4)
O2A O -0.10875(9) 0.21862(5) 0.32587(4)
O3A O -0.21011(9) 0.32760(5) 0.16750(5)
O4A O -0.37464(9) 0.39663(5) 0.06746(4)
O5A O -0.10687(9) 0.42409(5) 0.32892(4)
O6A O -0.27852(9) 0.48921(5) 0.42377(4)
C1A C -0.03710(12) 0.15794(7) 0.37066(6)
H1A H 0.08500 0.15580 0.37050
C2A C -0.28622(12) 0.39615(7) 0.13565(6)
H2A H -0.27600 0.45280 0.16590
C3A C -0.24752(12) 0.43101(7) 0.36585(6)
H3A H -0.33710 0.38970 0.34920
Mg1A Mg 0.00000 0.00000 0.50000
Mg1B Mg -0.50000 0.50000 0.00000
Mg1B* Mg 0.50000 0.50000 0.00000
Mg1C Mg -0.50000 0.50000 0.50000
Mg1C* Mg 0.50000 0.50000 0.50000
O1D O -0.11285(9) -0.09892(5) -0.08372(4)
O4C O 0.12536(9) -0.10337(5) 0.06746(4)
O4G O -0.12536(9) 0.10337(5) -0.06746(4)
O6B O -0.22148(9) -0.01079(5) 0.07623(4)
O6F O 0.22148(9) 0.01079(5) -0.07623(4)
H11A H 0.60320 0.07170 0.25370
C4A C 0.49534(14) 0.17872(8) 0.48566(7)
H4A H 0.58110 0.22830 0.48640
H5A H 0.50870 0.14160 0.53790
H6A H 0.37960 0.20550 0.48310
N1A N 0.52052(11) 0.11933(6) 0.40938(5)
H7A H 0.44490 0.07060 0.41070
H8A H 0.63050 0.09590 0.41080
C5A C 0.49211(13) 0.17254(7) 0.32831(6)
H9A H 0.58080 0.22130 0.32450
H10A H 0.37820 0.20290 0.32960
#END
