
#######################################################################
#
#                 Cambridge Crystallographic Data Centre
#                                CCDC
#
#######################################################################
#
# If this CIF has been generated from an entry in the Cambridge
# Structural Database, then it will include bibliographic, chemical,
# crystal, experimental, refinement or atomic coordinate data resulting
# from the CCDC's data processing and validation procedures.
#
#######################################################################

data_CSD_CIF_LOLVEQ01
_audit_creation_date 2019-07-04
_audit_creation_method CSD-ConQuest-V1
_database_code_CSD LOLVEQ01
_database_code_depnum_ccdc_archive 'CCDC 1908598'
_chemical_formula_sum 'C11 H22 Mg2 N2 O12'
_chemical_formula_moiety
;
(C6 H6 Mg2 O12 2-)n,C5 H16 N2 2+
;
_journal_coden_Cambridge 1220
_journal_volume 25
_journal_year 2019
_journal_page_first 9303
_journal_name_full 'Chem.-Eur.J. '
loop_
_publ_author_name
"Yin-Hua Zhao"
"Shu Liu"
"Bing-Wu Wang"
"Zhe-Ming Wang"
"Song Gao"
_chemical_name_systematic
;
catena-[N^1^,N^3^-dimethylpropane-1,3-bis(aminium) 
hexakis(\m-formato)-di-magnesium]
;
_cell_volume   1764.063
_exptl_crystal_colour 'colorless'
_exptl_crystal_density_diffrn 1.592
_exptl_crystal_description 'thick plate'
_diffrn_ambient_temperature 180
#These two values have been output from a single CSD field.
_refine_ls_R_factor_gt 0.0249
_refine_ls_wR_factor_gt 0.0249
_symmetry_cell_setting monoclinic
_symmetry_space_group_name_H-M 'C 2/c'
_symmetry_Int_Tables_number 15
loop_
_symmetry_equiv_pos_site_id
_symmetry_equiv_pos_as_xyz
1 x,y,z
2 -x,y,1/2-z
3 1/2+x,1/2+y,z
4 1/2-x,1/2+y,1/2-z
5 -x,-y,-z
6 x,-y,-1/2+z
7 -1/2-x,-1/2-y,-z
8 -1/2+x,-1/2-y,-1/2+z
_cell_length_a 7.7918(3)
_cell_length_b 14.5002(5)
_cell_length_c 15.6169(5)
_cell_angle_alpha 90
_cell_angle_beta 91.182(3)
_cell_angle_gamma 90
_cell_formula_units_Z 4
loop_
_atom_type_symbol
_atom_type_radius_bond
C 0.68
H 0.23
Mg 1.41
N 0.68
O 0.68
loop_
_atom_site_label
_atom_site_type_symbol
_atom_site_fract_x
_atom_site_fract_y
_atom_site_fract_z
Mg1 Mg 0.00000 0.00000 0.00000
Mg2 Mg 0.00000 0.32298(3) 0.25000
O1 O 0.11107(9) 0.09990(5) 0.08342(4)
O2 O 0.10744(9) 0.21924(5) 0.17389(5)
O3 O 0.21095(9) 0.32876(5) 0.33163(5)
O4 O 0.37520(9) 0.39728(5) 0.43152(5)
O5 O 0.10673(9) 0.42490(5) 0.17059(4)
O6 O 0.27845(9) 0.48919(5) 0.07589(5)
C1 C 0.03651(12) 0.15829(7) 0.12969(6)
H1 H -0.08520 0.15540 0.13090
C2 C 0.28686(13) 0.39674(7) 0.36381(6)
H2 H 0.27640 0.45360 0.33390
C3 C 0.24635(12) 0.43133(7) 0.13350(6)
H3 H 0.33500 0.38950 0.14990
C4 C 0.50513(16) 0.17858(9) 0.01479(7)
H4 H 0.42020 0.22850 0.01360
H5 H 0.49190 0.14110 -0.03720
H6 H 0.62090 0.20500 0.01750
N1 N 0.47837(12) 0.11984(6) 0.09115(6)
H7 H 0.55290 0.07070 0.09020
H8 H 0.36820 0.09700 0.08960
C5 C 0.50696(13) 0.17304(7) 0.17180(7)
H9 H 0.41830 0.22170 0.17560
H10 H 0.62050 0.20360 0.17020
C6 C 0.50000 0.11276(11) 0.25000
H11 H 0.39710 0.07280 0.24670
H12? H 0.39710 0.07280 0.24670
O1A O -0.11107(9) 0.09990(5) 0.41658(4)
O2A O -0.10744(9) 0.21924(5) 0.32611(5)
O3A O -0.21095(9) 0.32876(5) 0.16837(5)
O4A O -0.37520(9) 0.39728(5) 0.06848(5)
O5A O -0.10673(9) 0.42490(5) 0.32941(4)
O6A O -0.27845(9) 0.48919(5) 0.42411(5)
C1A C -0.03651(12) 0.15829(7) 0.37031(6)
H1A H 0.08520 0.15540 0.36910
C2A C -0.28686(13) 0.39674(7) 0.13619(6)
H2A H -0.27640 0.45360 0.16610
C3A C -0.24635(12) 0.43133(7) 0.36650(6)
H3A H -0.33500 0.38950 0.35010
Mg1A Mg 0.00000 0.00000 0.50000
Mg1B Mg -0.50000 0.50000 0.00000
Mg1B* Mg 0.50000 0.50000 0.00000
Mg1C Mg -0.50000 0.50000 0.50000
Mg1C* Mg 0.50000 0.50000 0.50000
O1D O -0.11107(9) -0.09990(5) -0.08342(4)
O4C O 0.12480(9) -0.10272(5) 0.06848(5)
O4G O -0.12480(9) 0.10272(5) -0.06848(5)
O6B O -0.22155(9) -0.01081(5) 0.07589(5)
O6F O 0.22155(9) 0.01081(5) -0.07589(5)
H11A H 0.60290 0.07280 0.25330
C4A C 0.49487(16) 0.17858(9) 0.48521(7)
H4A H 0.57980 0.22850 0.48640
H5A H 0.50810 0.14110 0.53720
H6A H 0.37910 0.20500 0.48250
N1A N 0.52163(12) 0.11984(6) 0.40885(6)
H7A H 0.44710 0.07070 0.40980
H8A H 0.63180 0.09700 0.41040
C5A C 0.49304(13) 0.17304(7) 0.32820(7)
H9A H 0.58170 0.22170 0.32440
H10A H 0.37950 0.20360 0.32980
#END
