
#######################################################################
#
#                 Cambridge Crystallographic Data Centre
#                                CCDC
#
#######################################################################
#
# If this CIF has been generated from an entry in the Cambridge
# Structural Database, then it will include bibliographic, chemical,
# crystal, experimental, refinement or atomic coordinate data resulting
# from the CCDC's data processing and validation procedures.
#
#######################################################################

data_CSD_CIF_LOLVEQ04
_audit_creation_date 2019-07-04
_audit_creation_method CSD-ConQuest-V1
_database_code_CSD LOLVEQ04
_database_code_depnum_ccdc_archive 'CCDC 1908601'
_chemical_formula_sum 'C11 H22 Mg2 N2 O12'
_chemical_formula_moiety
;
(C6 H6 Mg2 O12 2-)n,C5 H16 N2 2+
;
_journal_coden_Cambridge 1220
_journal_volume 25
_journal_year 2019
_journal_page_first 9303
_journal_name_full 'Chem.-Eur.J. '
loop_
_publ_author_name
"Yin-Hua Zhao"
"Shu Liu"
"Bing-Wu Wang"
"Zhe-Ming Wang"
"Song Gao"
_chemical_name_systematic
;
catena-[N^1^,N^3^-dimethylpropane-1,3-bis(aminium) 
hexakis(\m-formato)-di-magnesium]
;
_cell_volume   1778.739
_exptl_crystal_colour 'colorless'
_exptl_crystal_density_diffrn 1.579
_exptl_crystal_description 'thick plate'
_diffrn_ambient_temperature 330
_refine_special_details
;
The structure is disordered.

;
#These two values have been output from a single CSD field.
_refine_ls_R_factor_gt 0.0292
_refine_ls_wR_factor_gt 0.0292
_symmetry_cell_setting monoclinic
_symmetry_space_group_name_H-M 'C 2/c'
_symmetry_Int_Tables_number 15
loop_
_symmetry_equiv_pos_site_id
_symmetry_equiv_pos_as_xyz
1 x,y,z
2 -x,y,1/2-z
3 1/2+x,1/2+y,z
4 1/2-x,1/2+y,1/2-z
5 -x,-y,-z
6 x,-y,-1/2+z
7 -1/2-x,-1/2-y,-z
8 -1/2+x,-1/2-y,-1/2+z
_cell_length_a 7.9060(3)
_cell_length_b 14.3988(6)
_cell_length_c 15.6269(6)
_cell_angle_alpha 90
_cell_angle_beta 90.812(3)
_cell_angle_gamma 90
_cell_formula_units_Z 4
loop_
_atom_type_symbol
_atom_type_radius_bond
C 0.68
H 0.23
Mg 1.41
N 0.68
O 0.68
loop_
_atom_site_label
_atom_site_type_symbol
_atom_site_fract_x
_atom_site_fract_y
_atom_site_fract_z
Mg1 Mg 0.00000 0.00000 0.00000
Mg2 Mg 0.00000 0.32642(3) 0.25000
O1 O 0.10507(11) 0.10310(6) 0.08177(5)
O2 O 0.10321(11) 0.22244(6) 0.17222(6)
O3 O 0.21265(11) 0.33160(6) 0.32947(6)
O4 O 0.37848(12) 0.39786(6) 0.42811(6)
O5 O 0.10553(11) 0.42865(6) 0.16950(5)
O6 O 0.28012(12) 0.49028(6) 0.07549(6)
C1 C 0.03526(16) 0.15906(9) 0.13096(8)
H1 H -0.08090 0.15230 0.13730
C2 C 0.28738(16) 0.39830(9) 0.36307(8)
H2 H 0.27330 0.45550 0.33620
C3 C 0.24285(15) 0.43327(9) 0.13225(8)
H3 H 0.32540 0.39030 0.14810
C4 C 0.5068(7) 0.1777(4) 0.0163(2)
H4 H 0.48580 0.14140 -0.03430
H5 H 0.62260 0.19770 0.01750
H6 H 0.43390 0.23100 0.01590
N1 N 0.47300(19) 0.12082(10) 0.09279(9)
H7 H 0.36510 0.10090 0.09100
H8 H 0.54100 0.07070 0.09300
C5 C 0.5025(3) 0.1750(2) 0.17181(12)
H9 H 0.41620 0.22250 0.17600
H10 H 0.61130 0.20580 0.16840
C6 C 0.50000 0.1169(3) 0.25000
H11 H 0.40070 0.07730 0.24850
H12? H 0.40070 0.07730 0.24850
C7? C 0.512(4) 0.191(3) 0.0112(14)
H13? H 0.55220 0.15200 -0.03420
H14? H 0.53630 0.25440 -0.00120
H15? H 0.39150 0.18270 0.01610
N2? N 0.5955(16) 0.1637(9) 0.0925(8)
H16? H 0.66150 0.21110 0.11020
H17? H 0.66330 0.11480 0.08260
C8? C 0.477(3) 0.139(2) 0.1635(10)
H18? H 0.43240 0.07650 0.15500
H19? H 0.38260 0.18190 0.16470
C9? C 0.578(2) 0.1438(13) 0.2469(9)
H20? H 0.63660 0.08530 0.25610
H21? H 0.66300 0.19220 0.24230
C10? C 0.472(4) 0.163(3) 0.3198(11)
H22? H 0.41880 0.10500 0.33580
H23? H 0.38200 0.20400 0.30000
N3? N 0.5439(16) 0.2044(9) 0.3988(7)
H24? H 0.50260 0.26220 0.40540
H25? H 0.65700 0.20870 0.39410
C11? C 0.502(4) 0.1465(15) 0.4772(13)
H26? H 0.55370 0.17390 0.52710
H27? H 0.54430 0.08450 0.46990
H28? H 0.38160 0.14450 0.48400
O1A O -0.10507(11) 0.10310(6) 0.41823(5)
O2A O -0.10321(11) 0.22244(6) 0.32778(6)
O3A O -0.21265(11) 0.33160(6) 0.17053(6)
O4A O -0.37848(12) 0.39786(6) 0.07189(6)
O5A O -0.10553(11) 0.42865(6) 0.33050(5)
O6A O -0.28012(12) 0.49028(6) 0.42451(6)
C1A C -0.03526(16) 0.15906(9) 0.36904(8)
H1A H 0.08090 0.15230 0.36270
C2A C -0.28738(16) 0.39830(9) 0.13693(8)
H2A H -0.27330 0.45550 0.16380
C3A C -0.24285(15) 0.43327(9) 0.36775(8)
H3A H -0.32540 0.39030 0.35190
Mg1A Mg 0.00000 0.00000 0.50000
Mg1B Mg -0.50000 0.50000 0.00000
Mg1B* Mg 0.50000 0.50000 0.00000
Mg1C Mg -0.50000 0.50000 0.50000
Mg1C* Mg 0.50000 0.50000 0.50000
O1D O -0.10507(11) -0.10310(6) -0.08177(5)
O4C O 0.12152(12) -0.10214(6) 0.07189(6)
O4G O -0.12152(12) 0.10214(6) -0.07189(6)
O6B O -0.21988(12) -0.00972(6) 0.07549(6)
O6F O 0.21988(12) 0.00972(6) -0.07549(6)
C4A C 0.4932(7) 0.1777(4) 0.4837(2)
H4A H 0.51420 0.14140 0.53430
H5A H 0.37740 0.19770 0.48250
H6A H 0.56610 0.23100 0.48410
N1A N 0.52700(19) 0.12082(10) 0.40721(9)
H7A H 0.63490 0.10090 0.40900
H8A H 0.45900 0.07070 0.40700
C5A C 0.4975(3) 0.1750(2) 0.32819(12)
H9A H 0.58380 0.22250 0.32400
H10A H 0.38870 0.20580 0.33160
H11A H 0.59930 0.07730 0.25150
#END
