
#######################################################################
#
#                 Cambridge Crystallographic Data Centre
#                                CCDC
#
#######################################################################
#
# If this CIF has been generated from an entry in the Cambridge
# Structural Database, then it will include bibliographic, chemical,
# crystal, experimental, refinement or atomic coordinate data resulting
# from the CCDC's data processing and validation procedures.
#
#######################################################################

data_CSD_CIF_LOLVEQ05
_audit_creation_date 2019-07-05
_audit_creation_method CSD-ConQuest-V1
_database_code_CSD LOLVEQ05
_database_code_depnum_ccdc_archive 'CCDC 1908604; not CCDC 1958604 as published'
_chemical_formula_sum 'C11 H22 Mg2 N2 O12'
_chemical_formula_moiety
;
(C6 H6 Mg2 O12 2-)n,C5 H16 N2 2+
;
_journal_coden_Cambridge 1220
_journal_volume 25
_journal_year 2019
_journal_page_first 9303
_journal_name_full 'Chem.-Eur.J. '
loop_
_publ_author_name
"Yin-Hua Zhao"
"Shu Liu"
"Bing-Wu Wang"
"Zhe-Ming Wang"
"Song Gao"
_chemical_name_systematic
;
catena-[N^1^,N^3^-dimethylpropane-1,3-diaminium 
hexakis(\m-formato)-di-magnesium]
;
_cell_volume    900.242
_exptl_crystal_colour 'colorless'
_exptl_crystal_density_diffrn 1.56
_exptl_crystal_description 'thick plate'
_diffrn_ambient_temperature 480
_refine_special_details
;
The structure is disordered.

;
#These two values have been output from a single CSD field.
_refine_ls_R_factor_gt 0.0359
_refine_ls_wR_factor_gt 0.0359
_symmetry_cell_setting hexagonal
_symmetry_space_group_name_H-M 'P -3 1 c'
_symmetry_Int_Tables_number 163
loop_
_symmetry_equiv_pos_site_id
_symmetry_equiv_pos_as_xyz
1 x,y,z
2 -y,x-y,z
3 -x+y,-x,z
4 -y,-x,1/2-z
5 -x+y,y,1/2-z
6 x,x-y,1/2-z
7 -x,-y,-z
8 y,-x+y,-z
9 x-y,x,-z
10 y,x,-1/2+z
11 x-y,-y,-1/2+z
12 -x,-x+y,-1/2+z
_cell_length_a 8.1906(3)
_cell_length_b 8.1906(3)
_cell_length_c 15.4952(7)
_cell_angle_alpha 90
_cell_angle_beta 90
_cell_angle_gamma 120
_cell_formula_units_Z 2
loop_
_atom_type_symbol
_atom_type_radius_bond
C 0.68
H 0.23
Mg 1.41
N 0.68
O 0.68
loop_
_atom_site_label
_atom_site_type_symbol
_atom_site_fract_x
_atom_site_fract_y
_atom_site_fract_z
Mg1 Mg 0.00000 0.00000 0.00000
O1 O 0.20460(18) 0.21882(18) 0.07702(8)
C1 C 0.1968(3) 0.3203(3) 0.13295(11)
O2 O 0.32675(18) 0.45578(17) 0.17012(8)
H1 H 0.07610 0.29100 0.14960
Mg2 Mg 0.33330 0.66670 0.25000
C2 C 0.66670 0.33330 0.0208(4)
H2 H 0.615(10) 0.257(6) -0.0326(14)
H3 H 0.805(3) 0.377(11) 0.022(4)
H4 H 0.658(11) 0.450(7) 0.014(4)
N1 N 0.5775(8) 0.2366(8) 0.0962(4)
H5 H 0.567(6) 0.108(3) 0.0972(17)
H6 H 0.442(2) 0.209(6) 0.0949(17)
C3 C 0.66670 0.33330 0.1735(4)
H7 H 0.795(3) 0.337(7) 0.1784(18)
H8 H 0.715(7) 0.477(2) 0.1622(17)
C4 C 0.5738(15) 0.2869(8) 0.25000
H9 H 0.474(6) 0.141(4) 0.2499(17)
O1A O -0.21882(18) -0.01422(18) 0.07702(8)
O1B O 0.01422(18) -0.20460(18) 0.07702(8)
O1F O -0.20460(18) -0.21882(18) -0.07702(8)
O1H O -0.01422(18) 0.20460(18) -0.07702(8)
O1G O 0.21882(18) 0.01422(18) -0.07702(8)
C1A C -0.3203(3) -0.1235(3) 0.13295(11)
C1B C 0.1235(3) -0.1968(3) 0.13295(11)
C1F C -0.1968(3) -0.3203(3) -0.13295(11)
C1H C -0.1235(3) 0.1968(3) -0.13295(11)
C1G C 0.3203(3) 0.1235(3) -0.13295(11)
O2A O -0.45578(18) -0.12903(17) 0.17012(8)
H1A H -0.29100 -0.21490 0.14960
O2B O 0.12903(18) -0.32675(17) 0.17012(8)
H1B H 0.21490 -0.07610 0.14960
O2F O -0.32675(18) -0.45578(17) -0.17012(8)
H1F H -0.07610 -0.29100 -0.14960
O2H O -0.12903(18) 0.32675(17) -0.17012(8)
H1H H -0.21490 0.07610 -0.14960
O2G O 0.45578(18) 0.12903(17) -0.17012(8)
H1G H 0.29100 0.21490 -0.14960
Mg2* Mg -0.66670 -0.33330 0.25000
Mg2** Mg 0.33330 -0.33330 0.25000
Mg2F Mg -0.33330 -0.66670 -0.25000
Mg2F* Mg -0.33330 0.33330 -0.25000
Mg2F** Mg 0.66670 0.33330 -0.25000
O2D O 0.12903(18) 0.45578(17) 0.32988(8)
O2A* O 0.54422(18) 0.87097(17) 0.17012(8)
O2B* O 0.12903(18) 0.67325(17) 0.17012(8)
O2C O 0.54422(18) 0.67325(17) 0.32988(8)
O2E O 0.32675(18) 0.87097(17) 0.32988(8)
H2A H 0.743(10) 0.358(6) -0.0326(14)
H3A H 0.623(3) 0.428(11) 0.022(4)
H4A H 0.550(11) 0.208(7) 0.014(4)
N1A N 0.7634(8) 0.3409(8) 0.0962(4)
H5A H 0.892(6) 0.459(3) 0.0972(17)
H6A H 0.791(2) 0.233(6) 0.0949(17)
H7A H 0.663(3) 0.458(7) 0.1784(18)
H8A H 0.523(7) 0.238(2) 0.1622(17)
C4A C 0.7131(15) 0.2869(8) 0.25000
H9A H 0.859(6) 0.333(4) 0.2499(17)
H2B H 0.642(10) 0.385(6) -0.0326(14)
H3B H 0.572(3) 0.195(11) 0.022(4)
H4B H 0.792(11) 0.342(7) 0.014(4)
N1B N 0.6591(8) 0.4225(8) 0.0962(4)
H5B H 0.541(6) 0.433(3) 0.0972(17)
H6B H 0.767(2) 0.558(6) 0.0949(17)
H7B H 0.542(3) 0.205(7) 0.1784(18)
H8B H 0.762(7) 0.285(2) 0.1622(17)
C4B C 0.7131(15) 0.4262(8) 0.25000
H9B H 0.667(6) 0.526(4) 0.2499(17)
C2C C 0.66670 0.33330 0.4792(4)
H2C H 0.743(10) 0.385(6) 0.5326(14)
H3C H 0.623(3) 0.195(11) 0.478(4)
H4C H 0.550(11) 0.342(7) 0.486(4)
N1C N 0.7634(8) 0.4225(8) 0.4038(4)
H5C H 0.892(6) 0.433(3) 0.4028(17)
H6C H 0.791(2) 0.558(6) 0.4051(17)
C3C C 0.66670 0.33330 0.3265(4)
H7C H 0.663(3) 0.205(7) 0.3216(18)
H8C H 0.523(7) 0.285(2) 0.3378(17)
H9C H 0.859(6) 0.526(4) 0.2501(17)
H2D H 0.642(10) 0.257(6) 0.5326(14)
H3D H 0.572(3) 0.377(11) 0.478(4)
H4D H 0.792(11) 0.450(7) 0.486(4)
N1D N 0.6591(8) 0.2366(8) 0.4038(4)
H5D H 0.541(6) 0.108(3) 0.4028(17)
H6D H 0.767(2) 0.209(6) 0.4051(17)
H7D H 0.542(3) 0.337(7) 0.3216(18)
H8D H 0.762(7) 0.477(2) 0.3378(17)
H9D H 0.667(6) 0.141(4) 0.2501(17)
H2E H 0.615(10) 0.358(6) 0.5326(14)
H3E H 0.805(3) 0.428(11) 0.478(4)
H4E H 0.658(11) 0.208(7) 0.486(4)
N1E N 0.5775(8) 0.3409(8) 0.4038(4)
H5E H 0.567(6) 0.459(3) 0.4028(17)
H6E H 0.442(2) 0.233(6) 0.4051(17)
H7E H 0.795(3) 0.458(7) 0.3216(18)
H8E H 0.715(7) 0.238(2) 0.3378(17)
H9E H 0.474(6) 0.333(4) 0.2501(17)
#END
