
#######################################################################
#
#                 Cambridge Crystallographic Data Centre
#                                CCDC
#
#######################################################################
#
# If this CIF has been generated from an entry in the Cambridge
# Structural Database, then it will include bibliographic, chemical,
# crystal, experimental, refinement or atomic coordinate data resulting
# from the CCDC's data processing and validation procedures.
#
#######################################################################

data_CSD_CIF_LOMGIG03
_audit_creation_date 2019-07-04
_audit_creation_method CSD-ConQuest-V1
_database_code_CSD LOMGIG03
_database_code_depnum_ccdc_archive 'CCDC 1908586'
_chemical_formula_sum 'C11 H22 Co2 N2 O12'
_chemical_formula_moiety
;
(C6 H6 Co2 O12 2-)n,C5 H16 N2 2+
;
_journal_coden_Cambridge 1220
_journal_volume 25
_journal_year 2019
_journal_page_first 9303
_journal_name_full 'Chem.-Eur.J. '
loop_
_publ_author_name
"Yin-Hua Zhao"
"Shu Liu"
"Bing-Wu Wang"
"Zhe-Ming Wang"
"Song Gao"
_chemical_name_systematic
;
catena-[N^1^,N^3^-dimethylpropane-1,3-diaminium 
hexakis(\m-formato)-di-cobalt(ii)]
;
_cell_volume   1780.983
_exptl_crystal_colour 'purple red'
_exptl_crystal_density_diffrn 1.836
_exptl_special_details
;
LT phase, Tc = 366K

;
_exptl_crystal_description 'thin plate'
_diffrn_ambient_temperature 350
_refine_special_details
;
C10,C11,C7,C8,C9,N2,N3 disordered over one sites with occupancies 
0.14,0.14,0.141,0.141,0.141,0.141,0.14; H6A,H6B and H6A,H6B disordered over 
two sites with occupancies 0.359:0.359.
;
#These two values have been output from a single CSD field.
_refine_ls_R_factor_gt 0.0176
_refine_ls_wR_factor_gt 0.0176
_symmetry_cell_setting monoclinic
_symmetry_space_group_name_H-M 'C 2/c'
_symmetry_Int_Tables_number 15
loop_
_symmetry_equiv_pos_site_id
_symmetry_equiv_pos_as_xyz
1 x,y,z
2 -x,y,1/2-z
3 1/2+x,1/2+y,z
4 1/2-x,1/2+y,1/2-z
5 -x,-y,-z
6 x,-y,-1/2+z
7 -1/2-x,-1/2-y,-z
8 -1/2+x,-1/2-y,-1/2+z
_cell_length_a 7.9699(3)
_cell_length_b 14.4025(5)
_cell_length_c 15.5176(5)
_cell_angle_alpha 90
_cell_angle_beta 90.916(3)
_cell_angle_gamma 90
_cell_formula_units_Z 4
loop_
_atom_type_symbol
_atom_type_radius_bond
C 0.68
H 0.23
Co 1.26
N 0.68
O 0.68
loop_
_atom_site_label
_atom_site_type_symbol
_atom_site_fract_x
_atom_site_fract_y
_atom_site_fract_z
Co1 Co 0.00000 0.00000 0.00000
Co2 Co 0.00000 0.327701(14) 0.25000
O1 O 0.10912(12) 0.10287(6) 0.08272(6)
O2 O 0.10723(12) 0.22345(7) 0.17165(6)
O3 O 0.21265(12) 0.32974(6) 0.33075(6)
O4 O 0.38405(12) 0.39456(7) 0.42726(6)
O5 O 0.10363(12) 0.43201(6) 0.16905(6)
O6 O 0.27822(13) 0.49302(7) 0.07542(6)
C1 C 0.03850(16) 0.15926(9) 0.13144(8)
H1 H -0.07660 0.15240 0.13810
C2 C 0.28291(16) 0.39702(9) 0.36601(8)
H2 H 0.25670 0.45540 0.34400
C3 C 0.24043(16) 0.43559(9) 0.13192(8)
H3 H 0.32120 0.39190 0.14760
C4 C 0.5031(10) 0.1799(7) 0.0152(3)
H4 H 0.48220 0.14380 -0.03590
H5 H 0.61760 0.20070 0.01610
H6 H 0.42960 0.23270 0.01540
N1 N 0.4723(2) 0.12213(12) 0.09214(11)
H7 H 0.36560 0.10160 0.09080
H8 H 0.54070 0.07240 0.09180
C5 C 0.5025(4) 0.1762(3) 0.17159(14)
H9 H 0.61060 0.20670 0.16790
H10 H 0.41740 0.22410 0.17550
C6 C 0.50000 0.1199(3) 0.25000
H11 H 0.40170 0.08030 0.24840
H12? H 0.40170 0.08030 0.24840
N2? N 0.5463(12) 0.2062(7) 0.4003(6)
C7? C 0.469(3) 0.161(2) 0.3223(10)
H13? H 0.63500 0.19230 0.19190
C8? C 0.570(2) 0.1588(15) 0.2472(8)
H14? H 0.62420 0.21880 0.24150
H15? H 0.65760 0.11280 0.25550
H16? H 0.37550 0.17310 0.16200
C9? C 0.479(3) 0.1379(15) 0.1656(9)
H17? H 0.55900 0.09700 0.16280
H18? H 0.45230 0.07230 0.16240
H19? H 0.65180 0.21590 0.10870
N3? N 0.5937(12) 0.1649(7) 0.0929(6)
H20? H 0.66810 0.11880 0.08490
H21? H 0.62170 0.14820 0.01590
H22? H 0.46300 0.08570 0.02860
C10? C 0.502(4) 0.1482(11) 0.0213(11)
H23? H 0.55070 0.14340 -0.03230
H24? H 0.45120 0.17440 -0.02970
H25? H 0.38950 0.17260 0.01760
H26? H 0.52550 0.24710 -0.00470
C11? C 0.508(4) 0.184(3) 0.0115(12)
H27? H 0.34140 0.20840 0.10430
H28? H 0.49250 0.26460 0.09440
O1A O -0.10912(12) 0.10287(6) 0.41728(6)
O2A O -0.10723(12) 0.22345(7) 0.32835(6)
O3A O -0.21265(12) 0.32974(6) 0.16925(6)
O4A O -0.38405(12) 0.39456(7) 0.07274(6)
O5A O -0.10363(12) 0.43201(6) 0.33095(6)
O6A O -0.27822(13) 0.49302(7) 0.42458(6)
C1A C -0.03850(16) 0.15926(9) 0.36856(8)
H1A H 0.07660 0.15240 0.36190
C2A C -0.28291(16) 0.39702(9) 0.13399(8)
H2A H -0.25670 0.45540 0.15600
C3A C -0.24043(16) 0.43559(9) 0.36808(8)
H3A H -0.32120 0.39190 0.35240
Co1A Co 0.00000 0.00000 0.50000
Co1B Co -0.50000 0.50000 0.00000
Co1B* Co 0.50000 0.50000 0.00000
Co1C Co -0.50000 0.50000 0.50000
Co1C* Co 0.50000 0.50000 0.50000
O1D O -0.10912(12) -0.10287(6) -0.08272(6)
O4C O 0.11595(12) -0.10544(7) 0.07274(6)
O4G O -0.11595(12) 0.10544(7) -0.07274(6)
O6B O -0.22178(13) -0.00698(7) 0.07542(6)
O6F O 0.22178(13) 0.00698(7) -0.07542(6)
C4A C 0.4969(10) 0.1799(7) 0.4848(3)
H4A H 0.51780 0.14380 0.53590
H5A H 0.38240 0.20070 0.48390
H6A H 0.57040 0.23270 0.48460
N1A N 0.5277(2) 0.12213(12) 0.40786(11)
H7A H 0.63440 0.10160 0.40920
H8A H 0.45930 0.07240 0.40820
C5A C 0.4975(4) 0.1762(3) 0.32841(14)
H9A H 0.38940 0.20670 0.33210
H10A H 0.58260 0.22410 0.32450
H11A H 0.59830 0.08030 0.25160
#END
