
#######################################################################
#
#                 Cambridge Crystallographic Data Centre
#                                CCDC
#
#######################################################################
#
# If this CIF has been generated from an entry in the Cambridge
# Structural Database, then it will include bibliographic, chemical,
# crystal, experimental, refinement or atomic coordinate data resulting
# from the CCDC's data processing and validation procedures.
#
#######################################################################

data_CSD_CIF_LOMGIG06
_audit_creation_date 2019-07-04
_audit_creation_method CSD-ConQuest-V1
_database_code_CSD LOMGIG06
_database_code_depnum_ccdc_archive 'CCDC 1908587'
_chemical_formula_sum 'C11 H22 Co2 N2 O12'
_chemical_formula_moiety
;
(C6 H6 Co2 O12 2-)n,n(C5 H16 N2 2+)
;
_journal_coden_Cambridge 1220
_journal_volume 25
_journal_year 2019
_journal_page_first 9303
_journal_name_full 'Chem.-Eur.J. '
loop_
_publ_author_name
"Yin-Hua Zhao"
"Shu Liu"
"Bing-Wu Wang"
"Zhe-Ming Wang"
"Song Gao"
_chemical_name_systematic
;
catena-(N,N'-dimethyl-1,3-propylenediammonium 
hexakis(\m-formato)-di-cobalt(ii))
;
_cell_volume    892.203
_exptl_crystal_colour 'purple red'
_exptl_crystal_density_diffrn 1.832
_exptl_special_details
;
P-31c polymorph

;
_exptl_crystal_description 'thin plate'
_diffrn_ambient_temperature 370
#These two values have been output from a single CSD field.
_refine_ls_R_factor_gt 0.0184
_refine_ls_wR_factor_gt 0.0184
_symmetry_cell_setting hexagonal
_symmetry_space_group_name_H-M 'P -3 1 c'
_symmetry_Int_Tables_number 163
loop_
_symmetry_equiv_pos_site_id
_symmetry_equiv_pos_as_xyz
1 x,y,z
2 -y,x-y,z
3 -x+y,-x,z
4 -y,-x,1/2-z
5 -x+y,y,1/2-z
6 x,x-y,1/2-z
7 -x,-y,-z
8 y,-x+y,-z
9 x-y,x,-z
10 y,x,-1/2+z
11 x-y,-y,-1/2+z
12 -x,-x+y,-1/2+z
_cell_length_a 8.1560(3)
_cell_length_b 8.1560(3)
_cell_length_c 15.4874(6)
_cell_angle_alpha 90
_cell_angle_beta 90
_cell_angle_gamma 120
_cell_formula_units_Z 2
loop_
_atom_type_symbol
_atom_type_radius_bond
C 0.68
H 0.23
Co 1.26
N 0.68
O 0.68
loop_
_atom_site_label
_atom_site_type_symbol
_atom_site_fract_x
_atom_site_fract_y
_atom_site_fract_z
Co1 Co 0.00000 0.00000 0.00000
Co2 Co 0.33330 0.66670 0.25000
O1 O 0.21195(17) 0.21794(17) 0.07723(7)
O2 O 0.33323(16) 0.45665(16) 0.16980(7)
C1 C 0.1999(2) 0.3210(2) 0.13249(9)
H1 H 0.07850 0.29400 0.14750
C2 C 0.66670 0.33330 0.0155(3)
H2 H 0.612(8) 0.253(5) -0.0354(13)
H3 H 0.806(3) 0.378(8) 0.016(3)
H4 H 0.655(8) 0.449(5) 0.009(3)
N1 N 0.5831(6) 0.2415(6) 0.0944(3)
H5 H 0.571(6) 0.111(3) 0.0948(16)
H6 H 0.445(2) 0.209(6) 0.0929(16)
C3 C 0.66670 0.33330 0.1716(3)
H7 H 0.797(3) 0.343(6) 0.1782(17)
H8 H 0.712(6) 0.479(2) 0.1629(16)
C4 C 0.5741(13) 0.2870(7) 0.25000
H9 H 0.476(7) 0.141(4) 0.2497(17)
O1A O -0.21794(17) -0.00599(17) 0.07723(7)
O2A O -0.45665(16) -0.12342(16) 0.16980(7)
C1A C -0.3210(2) -0.1211(2) 0.13249(9)
H1A H -0.29400 -0.21550 0.14750
O1B O 0.00599(17) -0.21195(17) 0.07723(7)
O2B O 0.12342(16) -0.33323(16) 0.16980(7)
C1B C 0.1211(2) -0.1999(2) 0.13249(9)
H1B H 0.21550 -0.07850 0.14750
O1D O 0.00599(17) 0.21794(17) 0.42277(7)
O2D O 0.12342(16) 0.45665(16) 0.33020(7)
C1D C 0.1211(2) 0.3210(2) 0.36751(9)
H1D H 0.21550 0.29400 0.35250
O1F O -0.21195(17) -0.21794(17) -0.07723(7)
O2F O -0.33323(16) -0.45665(16) -0.16980(7)
C1F C -0.1999(2) -0.3210(2) -0.13249(9)
H1F H -0.07850 -0.29400 -0.14750
O1H O -0.00599(17) 0.21195(17) -0.07723(7)
O2H O -0.12342(16) 0.33323(16) -0.16980(7)
C1H C -0.1211(2) 0.1999(2) -0.13249(9)
H1H H -0.21550 0.07850 -0.14750
Co1C Co 0.00000 0.00000 0.50000
Co2* Co -0.66670 -0.33330 0.25000
Co2** Co 0.33330 -0.33330 0.25000
Co2F Co -0.33330 -0.66670 -0.25000
Co2F* Co -0.33330 0.33330 -0.25000
O1G O 0.21794(17) 0.00599(17) -0.07723(7)
O2A* O 0.54335(16) 0.87658(16) 0.16980(7)
O2B* O 0.12342(16) 0.66677(16) 0.16980(7)
O2C O 0.54335(16) 0.66677(16) 0.33020(7)
O2E O 0.33323(16) 0.87658(16) 0.33020(7)
H2A H 0.747(8) 0.359(5) -0.0354(13)
H3A H 0.622(3) 0.428(8) 0.016(3)
H4A H 0.551(8) 0.206(5) 0.009(3)
N1A N 0.7585(6) 0.3416(6) 0.0944(3)
H5A H 0.889(6) 0.460(3) 0.0948(16)
H6A H 0.791(2) 0.236(6) 0.0929(16)
H7A H 0.657(3) 0.454(6) 0.1782(17)
H8A H 0.521(6) 0.233(2) 0.1629(16)
C4A C 0.7130(13) 0.2871(7) 0.25000
H9A H 0.859(7) 0.335(4) 0.2497(17)
H2B H 0.641(8) 0.388(5) -0.0354(13)
H3B H 0.572(3) 0.194(8) 0.016(3)
H4B H 0.794(8) 0.345(5) 0.009(3)
N1B N 0.6584(6) 0.4169(6) 0.0944(3)
H5B H 0.540(6) 0.429(3) 0.0948(16)
H6B H 0.764(2) 0.555(6) 0.0929(16)
H7B H 0.546(3) 0.203(6) 0.1782(17)
H8B H 0.767(6) 0.288(2) 0.1629(16)
C4B C 0.7129(13) 0.4259(7) 0.25000
H9B H 0.665(7) 0.524(4) 0.2497(17)
C2C C 0.66670 0.33330 0.4845(3)
H2C H 0.747(8) 0.388(5) 0.5354(13)
H3C H 0.622(3) 0.194(8) 0.484(3)
H4C H 0.551(8) 0.345(5) 0.491(3)
N1C N 0.7585(6) 0.4169(6) 0.4056(3)
H5C H 0.889(6) 0.429(3) 0.4052(16)
H6C H 0.791(2) 0.555(6) 0.4071(16)
C3C C 0.66670 0.33330 0.3284(3)
H7C H 0.657(3) 0.203(6) 0.3218(17)
H8C H 0.521(6) 0.288(2) 0.3371(16)
H9C H 0.859(7) 0.524(4) 0.2503(17)
H2D H 0.641(8) 0.253(5) 0.5354(13)
H3D H 0.572(3) 0.378(8) 0.484(3)
H4D H 0.794(8) 0.449(5) 0.491(3)
N1D N 0.6584(6) 0.2415(6) 0.4056(3)
H5D H 0.540(6) 0.111(3) 0.4052(16)
H6D H 0.764(2) 0.209(6) 0.4071(16)
H7D H 0.546(3) 0.343(6) 0.3218(17)
H8D H 0.767(6) 0.479(2) 0.3371(16)
H9D H 0.665(7) 0.141(4) 0.2503(17)
H2E H 0.612(8) 0.359(5) 0.5354(13)
H3E H 0.806(3) 0.428(8) 0.484(3)
H4E H 0.655(8) 0.206(5) 0.491(3)
N1E N 0.5831(6) 0.3416(6) 0.4056(3)
H5E H 0.571(6) 0.460(3) 0.4052(16)
H6E H 0.445(2) 0.236(6) 0.4071(16)
H7E H 0.797(3) 0.454(6) 0.3218(17)
H8E H 0.712(6) 0.233(2) 0.3371(16)
H9E H 0.476(7) 0.335(4) 0.2503(17)
#END
