
#######################################################################
#
#                 Cambridge Crystallographic Data Centre
#                                CCDC
#
#######################################################################
#
# If this CIF has been generated from an entry in the Cambridge
# Structural Database, then it will include bibliographic, chemical,
# crystal, experimental, refinement or atomic coordinate data resulting
# from the CCDC's data processing and validation procedures.
#
#######################################################################

data_CSD_CIF_LOMGIG
_audit_creation_date 2019-07-04
_audit_creation_method CSD-ConQuest-V1
_database_code_CSD LOMGIG
_database_code_depnum_ccdc_archive 'CCDC 1908583'
_chemical_formula_sum 'C11 H22 Co2 N2 O12'
_chemical_formula_moiety
;
(C6 H6 Co2 O12 2-)n,C5 H16 N2 2+
;
_journal_coden_Cambridge 1220
_journal_volume 25
_journal_year 2019
_journal_page_first 9303
_journal_name_full 'Chem.-Eur.J. '
loop_
_publ_author_name
"Yin-Hua Zhao"
"Shu Liu"
"Bing-Wu Wang"
"Zhe-Ming Wang"
"Song Gao"
_chemical_name_systematic
;
catena-[N^1^,N^3^-dimethylpropane-1,3-diaminium 
hexakis(\m-formato)-di-cobalt(ii)]
;
_cell_volume   1769.299
_exptl_crystal_colour 'purple red'
_exptl_crystal_density_diffrn 1.848
_exptl_special_details
;
C2/c polymorph
LT phase, Tc = 366K

;
_exptl_crystal_description 'thin plate'
_diffrn_ambient_temperature 240
_refine_special_details
;
C10,C11,C7,C8,C9,N2,N3 disordered over one sites with occupancies 0.0278; 
H6A,H6B and H6A,H6B disordered over two sites with occupancies 0.4722:0.4722.
;
#These two values have been output from a single CSD field.
_refine_ls_R_factor_gt 0.0149
_refine_ls_wR_factor_gt 0.0149
_symmetry_cell_setting monoclinic
_symmetry_space_group_name_H-M 'C 2/c'
_symmetry_Int_Tables_number 15
loop_
_symmetry_equiv_pos_site_id
_symmetry_equiv_pos_as_xyz
1 x,y,z
2 -x,y,1/2-z
3 1/2+x,1/2+y,z
4 1/2-x,1/2+y,1/2-z
5 -x,-y,-z
6 x,-y,-1/2+z
7 -1/2-x,-1/2-y,-z
8 -1/2+x,-1/2-y,-1/2+z
_cell_length_a 7.8427(3)
_cell_length_b 14.5312(4)
_cell_length_c 15.5305(5)
_cell_angle_alpha 90
_cell_angle_beta 91.512(3)
_cell_angle_gamma 90
_cell_formula_units_Z 4
loop_
_atom_type_symbol
_atom_type_radius_bond
C 0.68
H 0.23
Co 1.26
N 0.68
O 0.68
loop_
_atom_site_label
_atom_site_type_symbol
_atom_site_fract_x
_atom_site_fract_y
_atom_site_fract_z
Co1 Co 0.00000 0.00000 0.00000
Co2 Co 0.00000 0.324247(12) 0.25000
O1 O 0.11421(9) 0.09961(5) 0.08495(5)
O2 O 0.11122(10) 0.22007(5) 0.17347(5)
O3 O 0.21106(10) 0.32707(5) 0.33289(5)
O4 O 0.38058(10) 0.39443(5) 0.43085(5)
O5 O 0.10466(10) 0.42841(5) 0.16995(5)
O6 O 0.27549(10) 0.49143(5) 0.07518(5)
C1 C 0.03972(13) 0.15808(7) 0.13080(7)
H1 H -0.07980 0.15450 0.13290
C2 C 0.28262(13) 0.39562(7) 0.36629(7)
H2 H 0.26070 0.45310 0.34050
C3 C 0.24314(13) 0.43356(7) 0.13262(7)
H3 H 0.32910 0.39130 0.14850
C4 C 0.5037(3) 0.18032(18) 0.01434(10)
H4 H 0.48300 0.14460 -0.03760
H5 H 0.62010 0.20310 0.01540
H6 H 0.42530 0.23190 0.01530
N1 N 0.47769(13) 0.12146(7) 0.09073(6)
H7 H 0.55060 0.07280 0.08960
H8 H 0.36920 0.09920 0.08920
C5 C 0.50766(16) 0.17439(9) 0.17161(8)
H9 H 0.42150 0.22300 0.17530
H10 H 0.61990 0.20390 0.17010
C6 C 0.50000 0.11454(13) 0.25000
H11? H 0.39880 0.07500 0.24610
C7? C 0.583(4) 0.132(3) 0.2354(14)
H12? H 0.67420 0.17750 0.23690
H13? H 0.63470 0.07090 0.24350
H14? H 0.39880 0.07500 0.24610
H15? H 0.36890 0.18250 0.28170
H16? H 0.42790 0.09010 0.32660
C8? C 0.468(4) 0.149(3) 0.3053(16)
C9? C 0.492(4) 0.135(3) 0.1477(15)
H17? H 0.44760 0.07350 0.13310
H18? H 0.39480 0.17720 0.14980
H19? H 0.50630 0.26110 0.11900
H20? H 0.34580 0.20830 0.12190
N2? N 0.461(4) 0.203(2) 0.1188(16)
N3? N 0.610(4) 0.166(2) 0.0804(16)
H21? H 0.68650 0.12000 0.07060
H22? H 0.66840 0.21570 0.09990
H23? H 0.63090 0.15450 0.02990
H24? H 0.47040 0.08940 0.03920
C10? C 0.508(7) 0.153(3) 0.0361(18)
H25? H 0.55960 0.15020 -0.04830
H26? H 0.54010 0.25330 -0.01670
H27? H 0.39700 0.18000 0.00330
H28? H 0.45300 0.18270 -0.01310
C11? C 0.519(7) 0.189(6) -0.003(2)
O1A O -0.11421(9) 0.09961(5) 0.41505(5)
O2A O -0.11122(10) 0.22007(5) 0.32653(5)
O3A O -0.21106(10) 0.32707(5) 0.16711(5)
O4A O -0.38058(10) 0.39443(5) 0.06915(5)
O5A O -0.10466(10) 0.42841(5) 0.33005(5)
O6A O -0.27549(10) 0.49143(5) 0.42482(5)
C1A C -0.03972(13) 0.15808(7) 0.36920(7)
H1A H 0.07980 0.15450 0.36710
C2A C -0.28262(13) 0.39562(7) 0.13371(7)
H2A H -0.26070 0.45310 0.15950
C3A C -0.24314(13) 0.43356(7) 0.36738(7)
H3A H -0.32910 0.39130 0.35150
Co1A Co 0.00000 0.00000 0.50000
Co1B Co -0.50000 0.50000 0.00000
Co1B* Co 0.50000 0.50000 0.00000
Co1C Co -0.50000 0.50000 0.50000
Co1C* Co 0.50000 0.50000 0.50000
O1D O -0.11421(9) -0.09961(5) -0.08495(5)
O4C O 0.11942(10) -0.10557(5) 0.06915(5)
O4G O -0.11942(10) 0.10557(5) -0.06915(5)
O6B O -0.22451(10) -0.00857(5) 0.07518(5)
O6F O 0.22451(10) 0.00857(5) -0.07518(5)
C4A C 0.4963(3) 0.18032(18) 0.48566(10)
H4A H 0.51700 0.14460 0.53760
H5A H 0.37990 0.20310 0.48460
H6A H 0.57470 0.23190 0.48470
N1A N 0.52231(13) 0.12146(7) 0.40927(6)
H7A H 0.44940 0.07280 0.41040
H8A H 0.63080 0.09920 0.41080
C5A C 0.49234(16) 0.17439(9) 0.32839(8)
H9A H 0.57850 0.22300 0.32470
H10A H 0.38010 0.20390 0.32990
#END
