
#######################################################################
#
#                 Cambridge Crystallographic Data Centre
#                                CCDC
#
#######################################################################
#
# If this CIF has been generated from an entry in the Cambridge
# Structural Database, then it will include bibliographic, chemical,
# crystal, experimental, refinement or atomic coordinate data resulting
# from the CCDC's data processing and validation procedures.
#
#######################################################################

data_CSD_CIF_LOMHON
_audit_creation_date 2019-07-04
_audit_creation_method CSD-ConQuest-V1
_database_code_CSD LOMHON
_database_code_depnum_ccdc_archive 'CCDC 1908589'
_chemical_formula_sum 'C11 H22 N2 O12 Zn2'
_chemical_formula_moiety
;
(C6 H6 O12 Zn2 2-)n,C5 H16 N2 2+
;
_journal_coden_Cambridge 1220
_journal_volume 25
_journal_year 2019
_journal_page_first 9303
_journal_name_full 'Chem.-Eur.J. '
loop_
_publ_author_name
"Yin-Hua Zhao"
"Shu Liu"
"Bing-Wu Wang"
"Zhe-Ming Wang"
"Song Gao"
_chemical_name_systematic
;
catena-[N^1^,N^3^-dimethylpropane-1,3-diaminium hexakis(\m-formato)-di-zinc]
;
_cell_volume   1749.420
_exptl_crystal_colour 'colorless'
_exptl_crystal_density_diffrn 1.918
_exptl_crystal_description 'hexagonal plate'
_diffrn_ambient_temperature 80
#These two values have been output from a single CSD field.
_refine_ls_R_factor_gt 0.0161
_refine_ls_wR_factor_gt 0.0161
_symmetry_cell_setting monoclinic
_symmetry_space_group_name_H-M 'C 2/c'
_symmetry_Int_Tables_number 15
loop_
_symmetry_equiv_pos_site_id
_symmetry_equiv_pos_as_xyz
1 x,y,z
2 -x,y,1/2-z
3 1/2+x,1/2+y,z
4 1/2-x,1/2+y,1/2-z
5 -x,-y,-z
6 x,-y,-1/2+z
7 -1/2-x,-1/2-y,-z
8 -1/2+x,-1/2-y,-1/2+z
_cell_length_a 7.7761(3)
_cell_length_b 14.5451(5)
_cell_length_c 15.4769(5)
_cell_angle_alpha 90
_cell_angle_beta 92.014(3)
_cell_angle_gamma 90
_cell_formula_units_Z 4
loop_
_atom_type_symbol
_atom_type_radius_bond
C 0.68
H 0.23
N 0.68
O 0.68
Zn 1.22
loop_
_atom_site_label
_atom_site_type_symbol
_atom_site_fract_x
_atom_site_fract_y
_atom_site_fract_z
Zn1 Zn 0.00000 0.00000 0.00000
Zn2 Zn 0.00000 0.322047(14) 0.25000
O1 O 0.11806(11) 0.09809(6) 0.08583(6)
O2 O 0.11478(12) 0.21837(6) 0.17485(6)
O3 O 0.20839(12) 0.32561(6) 0.33497(6)
O4 O 0.37910(12) 0.39351(6) 0.43348(6)
O5 O 0.10668(12) 0.42688(6) 0.17076(6)
O6 O 0.27520(12) 0.49121(6) 0.07549(6)
C1 C 0.04168(16) 0.15726(9) 0.13058(8)
H1 H -0.08040 0.15500 0.13040
C2 C 0.28177(16) 0.39485(9) 0.36728(8)
H2 H 0.26220 0.45240 0.33960
C3 C 0.24591(16) 0.43284(9) 0.13353(8)
H3 H 0.33510 0.39100 0.14980
C4 C 0.50445(19) 0.18031(10) 0.01348(9)
H4 H 0.41760 0.22910 0.01260
H5 H 0.49160 0.14350 -0.03940
H6 H 0.61960 0.20780 0.01690
N1 N 0.48117(14) 0.12051(8) 0.08979(7)
H7 H 0.55710 0.07210 0.08830
H8 H 0.37130 0.09690 0.08800
C5 C 0.51084(17) 0.17305(9) 0.17165(8)
H9 H 0.42390 0.22260 0.17480
H10 H 0.62590 0.20210 0.17150
C6 C 0.50000 0.11226(13) 0.25000
H11 H 0.39690 0.07250 0.24460
H12? H 0.39690 0.07250 0.24460
O1A O -0.11806(11) 0.09809(6) 0.41417(6)
O2A O -0.11478(12) 0.21837(6) 0.32515(6)
O3A O -0.20839(12) 0.32561(6) 0.16503(6)
O4A O -0.37910(12) 0.39351(6) 0.06652(6)
O5A O -0.10668(12) 0.42688(6) 0.32924(6)
O6A O -0.27520(12) 0.49121(6) 0.42451(6)
C1A C -0.04168(16) 0.15726(9) 0.36942(8)
H1A H 0.08040 0.15500 0.36960
C2A C -0.28177(16) 0.39485(9) 0.13272(8)
H2A H -0.26220 0.45240 0.16040
C3A C -0.24591(16) 0.43284(9) 0.36647(8)
H3A H -0.33510 0.39100 0.35020
Zn1A Zn 0.00000 0.00000 0.50000
Zn1B Zn -0.50000 0.50000 0.00000
Zn1B* Zn 0.50000 0.50000 0.00000
Zn1C Zn -0.50000 0.50000 0.50000
Zn1C* Zn 0.50000 0.50000 0.50000
O1D O -0.11806(11) -0.09809(6) -0.08583(6)
O4C O 0.12090(12) -0.10649(6) 0.06652(6)
O4G O -0.12090(12) 0.10649(6) -0.06652(6)
O6B O -0.22480(12) -0.00879(6) 0.07549(6)
O6F O 0.22480(12) 0.00879(6) -0.07549(6)
H11A H 0.60310 0.07250 0.25540
C4A C 0.49555(19) 0.18031(10) 0.48652(9)
H4A H 0.58240 0.22910 0.48740
H5A H 0.50840 0.14350 0.53940
H6A H 0.38040 0.20780 0.48310
N1A N 0.51883(14) 0.12051(8) 0.41021(7)
H7A H 0.44290 0.07210 0.41170
H8A H 0.62870 0.09690 0.41200
C5A C 0.48916(17) 0.17305(9) 0.32835(8)
H9A H 0.57610 0.22260 0.32520
H10A H 0.37410 0.20210 0.32850
#END
