
#######################################################################
#
#                 Cambridge Crystallographic Data Centre
#                                CCDC
#
#######################################################################
#
# If this CIF has been generated from an entry in the Cambridge
# Structural Database, then it will include bibliographic, chemical,
# crystal, experimental, refinement or atomic coordinate data resulting
# from the CCDC's data processing and validation procedures.
#
#######################################################################

data_CSD_CIF_LOMHON02
_audit_creation_date 2019-07-04
_audit_creation_method CSD-ConQuest-V1
_database_code_CSD LOMHON02
_database_code_depnum_ccdc_archive 'CCDC 1908593'
_chemical_formula_sum 'C11 H22 N2 O12 Zn2'
_chemical_formula_moiety
;
(C6 H6 O12 Zn2 2-)n,C5 H16 N2 2+
;
_journal_coden_Cambridge 1220
_journal_volume 25
_journal_year 2019
_journal_page_first 9303
_journal_name_full 'Chem.-Eur.J. '
loop_
_publ_author_name
"Yin-Hua Zhao"
"Shu Liu"
"Bing-Wu Wang"
"Zhe-Ming Wang"
"Song Gao"
_chemical_name_systematic
;
catena-[N^1^,N^3^-dimethylpropane-1,3-bis(aminium) 
hexakis(\m-formato)-di-zinc]
;
_cell_volume   1769.438
_exptl_crystal_colour 'colorless'
_exptl_crystal_density_diffrn 1.896
_exptl_crystal_description 'hexagonal plate'
_diffrn_ambient_temperature 330
_refine_special_details
;
The structure is disordered.

;
#These two values have been output from a single CSD field.
_refine_ls_R_factor_gt 0.0192
_refine_ls_wR_factor_gt 0.0192
_symmetry_cell_setting monoclinic
_symmetry_space_group_name_H-M 'C 2/c'
_symmetry_Int_Tables_number 15
loop_
_symmetry_equiv_pos_site_id
_symmetry_equiv_pos_as_xyz
1 x,y,z
2 -x,y,1/2-z
3 1/2+x,1/2+y,z
4 1/2-x,1/2+y,1/2-z
5 -x,-y,-z
6 x,-y,-1/2+z
7 -1/2-x,-1/2-y,-z
8 -1/2+x,-1/2-y,-1/2+z
_cell_length_a 7.8733(3)
_cell_length_b 14.4912(6)
_cell_length_c 15.5155(6)
_cell_angle_alpha 90
_cell_angle_beta 91.702(4)
_cell_angle_gamma 90
_cell_formula_units_Z 4
loop_
_atom_type_symbol
_atom_type_radius_bond
C 0.68
H 0.23
N 0.68
O 0.68
Zn 1.22
loop_
_atom_site_label
_atom_site_type_symbol
_atom_site_fract_x
_atom_site_fract_y
_atom_site_fract_z
Zn1 Zn 0.00000 0.00000 0.00000
Zn2 Zn 0.00000 0.325435(16) 0.25000
O1 O 0.11243(14) 0.10158(8) 0.08465(7)
O2 O 0.10988(15) 0.22150(8) 0.17318(8)
O3 O 0.21163(15) 0.32937(8) 0.33169(8)
O4 O 0.38202(15) 0.39511(8) 0.42934(8)
O5 O 0.10547(14) 0.43030(8) 0.16877(7)
O6 O 0.27616(16) 0.49198(8) 0.07465(8)
C1 C 0.0399(2) 0.15864(11) 0.13141(10)
H1 H -0.07740 0.15340 0.13520
C2 C 0.2825(2) 0.39680(11) 0.36634(10)
H2 H 0.25830 0.45440 0.34250
C3 C 0.2424(2) 0.43496(11) 0.13197(10)
H3 H 0.32650 0.39280 0.14820
C4 C 0.5038(7) 0.1800(5) 0.0150(2)
H4 H 0.48300 0.14390 -0.03620
H5 H 0.61900 0.20180 0.01620
H6 H 0.42750 0.23160 0.01510
N1 N 0.4762(2) 0.12233(11) 0.09165(10)
H7 H 0.54690 0.07350 0.09120
H8 H 0.36890 0.10090 0.08990
C5 C 0.5064(3) 0.17541(18) 0.17196(14)
H9 H 0.42120 0.22350 0.17550
H10 H 0.61680 0.20490 0.17020
C6 C 0.50000 0.1165(2) 0.25000
H11 H 0.40020 0.07720 0.24640
H12? H 0.40020 0.07720 0.24640
C7? C 0.512(7) 0.192(8) 0.007(3)
H13? H 0.55060 0.15420 -0.03980
H14? H 0.53820 0.25520 -0.00450
H15? H 0.39180 0.18450 0.01180
N2? N 0.600(3) 0.1624(19) 0.0885(13)
H16? H 0.66890 0.11490 0.07680
H17? H 0.66540 0.20930 0.10780
C8? C 0.487(4) 0.134(3) 0.1583(13)
H18? H 0.44590 0.07230 0.14720
H19? H 0.39030 0.17540 0.15930
C9? C 0.581(4) 0.137(3) 0.2452(12)
H20? H 0.63330 0.07750 0.25690
H21? H 0.66940 0.18320 0.24460
C10? C 0.458(4) 0.159(4) 0.3144(16)
H22? H 0.40360 0.10260 0.33240
H23? H 0.37060 0.19970 0.29070
N3? N 0.540(3) 0.2045(17) 0.3920(13)
H24? H 0.50800 0.26400 0.39440
H25? H 0.65400 0.20270 0.38800
C11? C 0.488(8) 0.155(4) 0.4738(18)
H26? H 0.54230 0.18340 0.52310
H27? H 0.52270 0.09110 0.47100
H28? H 0.36710 0.15790 0.47870
O1A O -0.11243(14) 0.10158(8) 0.41535(7)
O2A O -0.10988(15) 0.22150(8) 0.32682(8)
O3A O -0.21163(15) 0.32937(8) 0.16831(8)
O4A O -0.38202(15) 0.39511(8) 0.07066(8)
O5A O -0.10547(14) 0.43030(8) 0.33123(7)
O6A O -0.27616(16) 0.49198(8) 0.42535(8)
C1A C -0.0399(2) 0.15864(11) 0.36859(10)
H1A H 0.07740 0.15340 0.36480
C2A C -0.2825(2) 0.39680(11) 0.13366(10)
H2A H -0.25830 0.45440 0.15750
C3A C -0.2424(2) 0.43496(11) 0.36803(10)
H3A H -0.32650 0.39280 0.35180
Zn1A Zn 0.00000 0.00000 0.50000
Zn1B Zn -0.50000 0.50000 0.00000
Zn1B* Zn 0.50000 0.50000 0.00000
Zn1C Zn -0.50000 0.50000 0.50000
Zn1C* Zn 0.50000 0.50000 0.50000
O1D O -0.11243(14) -0.10158(8) -0.08465(7)
O4C O 0.11798(15) -0.10489(8) 0.07066(8)
O4G O -0.11798(15) 0.10489(8) -0.07066(8)
O6B O -0.22384(16) -0.00802(8) 0.07465(8)
O6F O 0.22384(16) 0.00802(8) -0.07465(8)
C4A C 0.4962(7) 0.1800(5) 0.4850(2)
H4A H 0.51700 0.14390 0.53620
H5A H 0.38100 0.20180 0.48380
H6A H 0.57250 0.23160 0.48490
N1A N 0.5238(2) 0.12233(11) 0.40835(10)
H7A H 0.45310 0.07350 0.40880
H8A H 0.63110 0.10090 0.41010
C5A C 0.4936(3) 0.17541(18) 0.32804(14)
H9A H 0.57880 0.22350 0.32450
H10A H 0.38320 0.20490 0.32980
H11A H 0.59980 0.07720 0.25360
#END
