
#######################################################################
#
#                 Cambridge Crystallographic Data Centre
#                                CCDC
#
#######################################################################
#
# If this CIF has been generated from an entry in the Cambridge
# Structural Database, then it will include bibliographic, chemical,
# crystal, experimental, refinement or atomic coordinate data resulting
# from the CCDC's data processing and validation procedures.
#
#######################################################################

data_CSD_CIF_LOMHON06
_audit_creation_date 2019-07-04
_audit_creation_method CSD-ConQuest-V1
_database_code_CSD LOMHON06
_database_code_depnum_ccdc_archive 'CCDC 1908591'
_chemical_formula_sum 'C11 H22 N2 O12 Zn2'
_chemical_formula_moiety
;
(C6 H6 O12 Zn2 2-)n,C5 H16 N2 2+
;
_journal_coden_Cambridge 1220
_journal_volume 25
_journal_year 2019
_journal_page_first 9303
_journal_name_full 'Chem.-Eur.J. '
loop_
_publ_author_name
"Yin-Hua Zhao"
"Shu Liu"
"Bing-Wu Wang"
"Zhe-Ming Wang"
"Song Gao"
_chemical_name_systematic
;
catena-[N^1^,N^3^-dimethylpropane-1,3-diaminium hexakis(\m-formato)-di-zinc]
;
_cell_volume   1759.944
_exptl_crystal_colour 'colorless'
_exptl_crystal_density_diffrn 1.906
_exptl_crystal_description 'hexagonal plate'
_diffrn_ambient_temperature 240
#These two values have been output from a single CSD field.
_refine_ls_R_factor_gt 0.0179
_refine_ls_wR_factor_gt 0.0179
_symmetry_cell_setting monoclinic
_symmetry_space_group_name_H-M 'C 2/c'
_symmetry_Int_Tables_number 15
loop_
_symmetry_equiv_pos_site_id
_symmetry_equiv_pos_as_xyz
1 x,y,z
2 -x,y,1/2-z
3 1/2+x,1/2+y,z
4 1/2-x,1/2+y,1/2-z
5 -x,-y,-z
6 x,-y,-1/2+z
7 -1/2-x,-1/2-y,-z
8 -1/2+x,-1/2-y,-1/2+z
_cell_length_a 7.8122(3)
_cell_length_b 14.5332(5)
_cell_length_c 15.5106(5)
_cell_angle_alpha 90
_cell_angle_beta 91.999(3)
_cell_angle_gamma 90
_cell_formula_units_Z 4
loop_
_atom_type_symbol
_atom_type_radius_bond
C 0.68
H 0.23
N 0.68
O 0.68
Zn 1.22
loop_
_atom_site_label
_atom_site_type_symbol
_atom_site_fract_x
_atom_site_fract_y
_atom_site_fract_z
Zn1 Zn 0.00000 0.00000 0.00000
Zn2 Zn 0.00000 0.323671(15) 0.25000
O1 O 0.11534(13) 0.09989(7) 0.08552(7)
O2 O 0.11236(13) 0.21975(7) 0.17422(7)
O3 O 0.21006(13) 0.32776(7) 0.33321(7)
O4 O 0.38042(14) 0.39470(7) 0.43142(7)
O5 O 0.10642(13) 0.42851(7) 0.16958(7)
O6 O 0.27507(14) 0.49142(7) 0.07478(7)
C1 C 0.04083(19) 0.15812(10) 0.13107(9)
H1 H -0.07920 0.15460 0.13250
C2 C 0.28200(18) 0.39611(10) 0.36663(9)
H2 H 0.26010 0.45360 0.34070
C3 C 0.24417(18) 0.43395(10) 0.13256(9)
H3 H 0.33130 0.39220 0.14890
C4 C 0.5052(3) 0.17999(14) 0.01442(12)
H4 H 0.42180 0.22950 0.01290
H5 H 0.49140 0.14310 -0.03750
H6 H 0.61980 0.20570 0.01780
N1 N 0.47872(17) 0.12159(9) 0.09069(8)
H7 H 0.55140 0.07270 0.08980
H8 H 0.36960 0.09960 0.08870
C5 C 0.5092(2) 0.17401(10) 0.17196(10)
H9 H 0.42370 0.22310 0.17530
H10 H 0.62250 0.20290 0.17120
C6 C 0.50000 0.11432(17) 0.25000
H11 H 0.60160 0.07480 0.25480
H12? H 0.60160 0.07480 0.25480
O1A O -0.11534(13) 0.09989(7) 0.41448(7)
O2A O -0.11236(13) 0.21975(7) 0.32578(7)
O3A O -0.21006(13) 0.32776(7) 0.16679(7)
O4A O -0.38042(14) 0.39470(7) 0.06858(7)
O5A O -0.10642(13) 0.42851(7) 0.33042(7)
O6A O -0.27507(14) 0.49142(7) 0.42522(7)
C1A C -0.04083(19) 0.15812(10) 0.36893(9)
H1A H 0.07920 0.15460 0.36750
C2A C -0.28200(18) 0.39611(10) 0.13337(9)
H2A H -0.26010 0.45360 0.15930
C3A C -0.24417(18) 0.43395(10) 0.36744(9)
H3A H -0.33130 0.39220 0.35110
Zn1A Zn 0.00000 0.00000 0.50000
Zn1B Zn -0.50000 0.50000 0.00000
Zn1B* Zn 0.50000 0.50000 0.00000
Zn1C Zn -0.50000 0.50000 0.50000
Zn1C* Zn 0.50000 0.50000 0.50000
O1D O -0.11534(13) -0.09989(7) -0.08552(7)
O4C O 0.11958(14) -0.10530(7) 0.06858(7)
O4G O -0.11958(14) 0.10530(7) -0.06858(7)
O6B O -0.22493(14) -0.00858(7) 0.07478(7)
O6F O 0.22493(14) 0.00858(7) -0.07478(7)
H11A H 0.39840 0.07480 0.24520
C4A C 0.4948(3) 0.17999(14) 0.48558(12)
H4A H 0.57820 0.22950 0.48710
H5A H 0.50860 0.14310 0.53750
H6A H 0.38020 0.20570 0.48220
N1A N 0.52128(17) 0.12159(9) 0.40931(8)
H7A H 0.44860 0.07270 0.41020
H8A H 0.63040 0.09960 0.41130
C5A C 0.4908(2) 0.17401(10) 0.32804(10)
H9A H 0.57630 0.22310 0.32470
H10A H 0.37750 0.20290 0.32880
#END
