
#######################################################################
#
#                 Cambridge Crystallographic Data Centre
#                                CCDC
#
#######################################################################
#
# If this CIF has been generated from an entry in the Cambridge
# Structural Database, then it will include bibliographic, chemical,
# crystal, experimental, refinement or atomic coordinate data resulting
# from the CCDC's data processing and validation procedures.
#
#######################################################################

data_CSD_CIF_LOMHON05
_audit_creation_date 2019-07-04
_audit_creation_method CSD-ConQuest-V1
_database_code_CSD LOMHON05
_database_code_depnum_ccdc_archive 'CCDC 1908596'
_chemical_formula_sum 'C11 H22 N2 O12 Zn2'
_chemical_formula_moiety
;
(C6 H6 O12 Zn2 2-)n,C5 H16 N2 2+
;
_journal_coden_Cambridge 1220
_journal_volume 25
_journal_year 2019
_journal_page_first 9303
_journal_name_full 'Chem.-Eur.J. '
loop_
_publ_author_name
"Yin-Hua Zhao"
"Shu Liu"
"Bing-Wu Wang"
"Zhe-Ming Wang"
"Song Gao"
_chemical_name_systematic
;
catena-[N^1^,N^3^-dimethylpropane-1,3-bis(aminium) 
hexakis(\m-formato)-di-zinc]
;
_cell_volume    891.687
_exptl_crystal_colour 'colorless'
_exptl_crystal_density_diffrn 1.881
_exptl_crystal_description 'hexagonal plate'
_diffrn_ambient_temperature 380
_refine_special_details
;
The structure is disordered.

;
#These two values have been output from a single CSD field.
_refine_ls_R_factor_gt 0.0219
_refine_ls_wR_factor_gt 0.0219
_symmetry_cell_setting hexagonal
_symmetry_space_group_name_H-M 'P -3 1 c'
_symmetry_Int_Tables_number 163
loop_
_symmetry_equiv_pos_site_id
_symmetry_equiv_pos_as_xyz
1 x,y,z
2 -y,x-y,z
3 -x+y,-x,z
4 -y,-x,1/2-z
5 -x+y,y,1/2-z
6 x,x-y,1/2-z
7 -x,-y,-z
8 y,-x+y,-z
9 x-y,x,-z
10 y,x,-1/2+z
11 x-y,-y,-1/2+z
12 -x,-x+y,-1/2+z
_cell_length_a 8.1587(4)
_cell_length_b 8.1587(4)
_cell_length_c 15.4682(10)
_cell_angle_alpha 90
_cell_angle_beta 90
_cell_angle_gamma 120
_cell_formula_units_Z 2
loop_
_atom_type_symbol
_atom_type_radius_bond
C 0.68
H 0.23
N 0.68
O 0.68
Zn 1.22
loop_
_atom_site_label
_atom_site_type_symbol
_atom_site_fract_x
_atom_site_fract_y
_atom_site_fract_z
Zn1 Zn 0.00000 0.00000 0.00000
O1 O 0.2119(2) 0.2177(2) 0.07734(10)
C1 C 0.2003(3) 0.3212(3) 0.13234(13)
O2 O 0.3328(2) 0.4562(2) 0.16973(9)
H1 H 0.07900 0.29480 0.14710
Zn2 Zn 0.33330 0.66670 0.25000
C2 C 0.66670 0.33330 0.0153(4)
H2 H 0.612(9) 0.250(6) -0.0351(14)
H3 H 0.806(3) 0.378(10) 0.017(3)
H4 H 0.655(10) 0.448(6) 0.008(3)
N1 N 0.5825(9) 0.2414(9) 0.0942(4)
H5 H 0.569(7) 0.110(3) 0.0938(16)
H6 H 0.444(2) 0.212(6) 0.0925(16)
C3 C 0.66670 0.33330 0.1719(3)
H7 H 0.795(3) 0.342(7) 0.1796(18)
H8 H 0.711(6) 0.477(2) 0.1622(17)
C4 C 0.569(2) 0.2846(10) 0.25000
H9 H 0.475(6) 0.140(4) 0.2500(17)
O1A O -0.2177(2) -0.0058(2) 0.07734(10)
O1B O 0.0058(2) -0.2119(2) 0.07734(10)
O1F O -0.2119(2) -0.2177(2) -0.07734(10)
O1H O -0.0058(2) 0.2119(2) -0.07734(10)
O1G O 0.2177(2) 0.0058(2) -0.07734(10)
C1A C -0.3212(3) -0.1209(3) 0.13234(13)
C1B C 0.1209(3) -0.2003(3) 0.13234(13)
C1F C -0.2003(3) -0.3212(3) -0.13234(13)
C1H C -0.1209(3) 0.2003(3) -0.13234(13)
C1G C 0.3212(3) 0.1209(3) -0.13234(13)
O2A O -0.4562(2) -0.1234(2) 0.16973(9)
H1A H -0.29480 -0.21580 0.14710
O2B O 0.1234(2) -0.3328(2) 0.16973(9)
H1B H 0.21580 -0.07900 0.14710
O2F O -0.3328(2) -0.4562(2) -0.16973(9)
H1F H -0.07900 -0.29480 -0.14710
O2H O -0.1234(2) 0.3328(2) -0.16973(9)
H1H H -0.21580 0.07900 -0.14710
H1G H 0.29480 0.21580 -0.14710
O2G O 0.4562(2) 0.1234(2) -0.16973(9)
Zn2* Zn -0.66670 -0.33330 0.25000
Zn2** Zn 0.33330 -0.33330 0.25000
Zn2F Zn -0.33330 -0.66670 -0.25000
Zn2F* Zn -0.33330 0.33330 -0.25000
Zn2F** Zn 0.66670 0.33330 -0.25000
O2D O 0.1234(2) 0.4562(2) 0.33027(9)
O2A* O 0.5438(2) 0.8766(2) 0.16973(9)
O2B* O 0.1234(2) 0.6672(2) 0.16973(9)
O2C O 0.5438(2) 0.6672(2) 0.33027(9)
O2E O 0.3328(2) 0.8766(2) 0.33027(9)
H2A H 0.750(9) 0.362(6) -0.0351(14)
H3A H 0.622(3) 0.428(10) 0.017(3)
H4A H 0.552(10) 0.207(6) 0.008(3)
N1A N 0.7586(9) 0.3411(9) 0.0942(4)
H5A H 0.890(7) 0.459(3) 0.0938(16)
H6A H 0.788(2) 0.232(6) 0.0925(16)
H7A H 0.658(3) 0.453(7) 0.1796(18)
H8A H 0.523(6) 0.234(2) 0.1622(17)
C4A C 0.7154(20) 0.2844(10) 0.25000
H9A H 0.860(6) 0.335(4) 0.2500(17)
H2B H 0.638(9) 0.388(6) -0.0351(14)
H3B H 0.572(3) 0.194(10) 0.017(3)
H4B H 0.793(10) 0.345(6) 0.008(3)
N1B N 0.6589(9) 0.4175(9) 0.0942(4)
H5B H 0.541(7) 0.431(3) 0.0938(16)
H6B H 0.768(2) 0.556(6) 0.0925(16)
H7B H 0.547(3) 0.205(7) 0.1796(18)
H8B H 0.766(6) 0.289(2) 0.1622(17)
C4B C 0.7156(20) 0.431(1) 0.25000
H9B H 0.665(6) 0.525(4) 0.2500(17)
C2C C 0.66670 0.33330 0.4847(4)
H2C H 0.750(9) 0.388(6) 0.5351(14)
H3C H 0.622(3) 0.194(10) 0.483(3)
H4C H 0.552(10) 0.345(6) 0.492(3)
N1C N 0.7586(9) 0.4175(9) 0.4058(4)
H5C H 0.890(7) 0.431(3) 0.4062(16)
H6C H 0.788(2) 0.556(6) 0.4075(16)
C3C C 0.66670 0.33330 0.3281(3)
H7C H 0.658(3) 0.205(7) 0.3204(18)
H8C H 0.523(6) 0.289(2) 0.3378(17)
H9C H 0.860(6) 0.525(4) 0.2500(17)
H2D H 0.638(9) 0.250(6) 0.5351(14)
H3D H 0.572(3) 0.378(10) 0.483(3)
H4D H 0.793(10) 0.448(6) 0.492(3)
N1D N 0.6589(9) 0.2414(9) 0.4058(4)
H5D H 0.541(7) 0.110(3) 0.4062(16)
H6D H 0.768(2) 0.212(6) 0.4075(16)
H7D H 0.547(3) 0.342(7) 0.3204(18)
H8D H 0.766(6) 0.477(2) 0.3378(17)
H9D H 0.665(6) 0.140(4) 0.2500(17)
H2E H 0.612(9) 0.362(6) 0.5351(14)
H3E H 0.806(3) 0.428(10) 0.483(3)
H4E H 0.655(10) 0.207(6) 0.492(3)
N1E N 0.5825(9) 0.3411(9) 0.4058(4)
H5E H 0.569(7) 0.459(3) 0.4062(16)
H6E H 0.444(2) 0.232(6) 0.4075(16)
H7E H 0.795(3) 0.453(7) 0.3204(18)
H8E H 0.711(6) 0.234(2) 0.3378(17)
H9E H 0.475(6) 0.335(4) 0.2500(17)
#END
