
#######################################################################
#
#                 Cambridge Crystallographic Data Centre
#                                CCDC
#
#######################################################################
#
# If this CIF has been generated from an entry in the Cambridge
# Structural Database, then it will include bibliographic, chemical,
# crystal, experimental, refinement or atomic coordinate data resulting
# from the CCDC's data processing and validation procedures.
#
#######################################################################

data_CSD_CIF_LOMHON01
_audit_creation_date 2019-07-04
_audit_creation_method CSD-ConQuest-V1
_database_code_CSD LOMHON01
_database_code_depnum_ccdc_archive 'CCDC 1908592'
_chemical_formula_sum 'C11 H22 N2 O12 Zn2'
_chemical_formula_moiety
;
(C6 H6 O12 Zn2 2-)n,C5 H16 N2 2+
;
_journal_coden_Cambridge 1220
_journal_volume 25
_journal_year 2019
_journal_page_first 9303
_journal_name_full 'Chem.-Eur.J. '
loop_
_publ_author_name
"Yin-Hua Zhao"
"Shu Liu"
"Bing-Wu Wang"
"Zhe-Ming Wang"
"Song Gao"
_chemical_name_systematic
;
catena-[N^1^,N^3^-dimethylpropane-1,3-bis(aminium) 
hexakis(\m-formato)-di-zinc]
;
_cell_volume   1765.071
_exptl_crystal_colour 'colorless'
_exptl_crystal_density_diffrn 1.901
_exptl_crystal_description 'hexagonal plate'
_diffrn_ambient_temperature 290
_refine_special_details
;
The structure is disordered.

;
#These two values have been output from a single CSD field.
_refine_ls_R_factor_gt 0.0181
_refine_ls_wR_factor_gt 0.0181
_symmetry_cell_setting monoclinic
_symmetry_space_group_name_H-M 'C 2/c'
_symmetry_Int_Tables_number 15
loop_
_symmetry_equiv_pos_site_id
_symmetry_equiv_pos_as_xyz
1 x,y,z
2 -x,y,1/2-z
3 1/2+x,1/2+y,z
4 1/2-x,1/2+y,1/2-z
5 -x,-y,-z
6 x,-y,-1/2+z
7 -1/2-x,-1/2-y,-z
8 -1/2+x,-1/2-y,-1/2+z
_cell_length_a 7.8373(3)
_cell_length_b 14.5206(6)
_cell_length_c 15.5183(6)
_cell_angle_alpha 90
_cell_angle_beta 91.877(4)
_cell_angle_gamma 90
_cell_formula_units_Z 4
loop_
_atom_type_symbol
_atom_type_radius_bond
C 0.68
H 0.23
N 0.68
O 0.68
Zn 1.22
loop_
_atom_site_label
_atom_site_type_symbol
_atom_site_fract_x
_atom_site_fract_y
_atom_site_fract_z
Zn1 Zn 0.00000 0.00000 0.00000
Zn2 Zn 0.00000 0.324441(15) 0.25000
O1 O 0.11395(13) 0.10065(7) 0.08524(7)
O2 O 0.11129(14) 0.22049(8) 0.17381(7)
O3 O 0.21078(14) 0.32853(7) 0.33249(7)
O4 O 0.38100(14) 0.39498(7) 0.43044(7)
O5 O 0.10604(13) 0.42939(7) 0.16914(7)
O6 O 0.27547(14) 0.49160(7) 0.07462(7)
C1 C 0.04057(19) 0.15842(10) 0.13127(9)
H1 H -0.07760 0.15430 0.13370
C2 C 0.28238(19) 0.39646(10) 0.36650(9)
H2 H 0.25970 0.45360 0.34160
C3 C 0.24332(19) 0.43439(10) 0.13219(10)
H3 H 0.32860 0.39270 0.14830
C4 C 0.5048(4) 0.1801(3) 0.01476(17)
H4 H 0.48410 0.14430 -0.03660
H5 H 0.62030 0.20220 0.01620
H6 H 0.42760 0.23140 0.01500
N1 N 0.47772(18) 0.12204(10) 0.09116(9)
H7 H 0.54900 0.07350 0.09040
H8 H 0.37000 0.10050 0.08930
C5 C 0.5083(2) 0.17470(13) 0.17202(12)
H9 H 0.42360 0.22320 0.17540
H10 H 0.61980 0.20350 0.17090
C6 C 0.50000 0.11538(19) 0.25000
H11 H 0.39980 0.07620 0.24560
H12? H 0.39980 0.07620 0.24560
C7? C 0.517(10) 0.194(10) 0.002(4)
H13? H 0.55240 0.15720 -0.04530
H14? H 0.54210 0.25760 -0.00870
H15? H 0.39580 0.18700 0.00850
N2? N 0.609(5) 0.164(3) 0.083(2)
H16? H 0.67880 0.11650 0.07080
H17? H 0.67410 0.21020 0.10370
C8? C 0.491(5) 0.134(4) 0.1513(19)
H18? H 0.44810 0.07270 0.13740
H19? H 0.39480 0.17550 0.15210
C9? C 0.578(6) 0.132(4) 0.2395(19)
H20? H 0.62630 0.07120 0.24980
H21? H 0.67060 0.17610 0.24130
C10? C 0.457(6) 0.154(5) 0.309(2)
H22? H 0.40540 0.09710 0.32770
H23? H 0.36690 0.19270 0.28460
N3? N 0.538(6) 0.202(3) 0.385(2)
H24? H 0.50250 0.26060 0.38640
H25? H 0.65190 0.20150 0.38100
C11? C 0.491(11) 0.154(5) 0.469(2)
H26? H 0.54700 0.18500 0.51650
H27? H 0.52680 0.09120 0.46720
H28? H 0.36960 0.15710 0.47480
O1A O -0.11395(13) 0.10065(7) 0.41476(7)
O2A O -0.11129(14) 0.22049(8) 0.32619(7)
O3A O -0.21078(14) 0.32853(7) 0.16751(7)
O4A O -0.38100(14) 0.39498(7) 0.06956(7)
O5A O -0.10604(13) 0.42939(7) 0.33086(7)
O6A O -0.27547(14) 0.49160(7) 0.42538(7)
C1A C -0.04057(19) 0.15842(10) 0.36873(9)
H1A H 0.07760 0.15430 0.36630
C2A C -0.28238(19) 0.39646(10) 0.13350(9)
H2A H -0.25970 0.45360 0.15840
C3A C -0.24332(19) 0.43439(10) 0.36781(10)
H3A H -0.32860 0.39270 0.35170
Zn1A Zn 0.00000 0.00000 0.50000
Zn1B Zn -0.50000 0.50000 0.00000
Zn1B* Zn 0.50000 0.50000 0.00000
Zn1C Zn -0.50000 0.50000 0.50000
Zn1C* Zn 0.50000 0.50000 0.50000
O1D O -0.11395(13) -0.10065(7) -0.08524(7)
O4C O 0.11900(14) -0.10502(7) 0.06956(7)
O4G O -0.11900(14) 0.10502(7) -0.06956(7)
O6B O -0.22453(14) -0.00840(7) 0.07462(7)
O6F O 0.22453(14) 0.00840(7) -0.07462(7)
C4A C 0.4952(4) 0.1801(3) 0.48524(17)
H4A H 0.51590 0.14430 0.53660
H5A H 0.37970 0.20220 0.48380
H6A H 0.57240 0.23140 0.48500
N1A N 0.52228(18) 0.12204(10) 0.40884(9)
H7A H 0.45100 0.07350 0.40960
H8A H 0.63000 0.10050 0.41070
C5A C 0.4917(2) 0.17470(13) 0.32798(12)
H9A H 0.57640 0.22320 0.32460
H10A H 0.38020 0.20350 0.32910
H11A H 0.60020 0.07620 0.25440
#END
