
#######################################################################
#
#                 Cambridge Crystallographic Data Centre
#                                CCDC
#
#######################################################################
#
# If this CIF has been generated from an entry in the Cambridge
# Structural Database, then it will include bibliographic, chemical,
# crystal, experimental, refinement or atomic coordinate data resulting
# from the CCDC's data processing and validation procedures.
#
#######################################################################

data_CSD_CIF_LOMHON03
_audit_creation_date 2019-07-04
_audit_creation_method CSD-ConQuest-V1
_database_code_CSD LOMHON03
_database_code_depnum_ccdc_archive 'CCDC 1908594'
_chemical_formula_sum 'C11 H22 N2 O12 Zn2'
_chemical_formula_moiety
;
(C6 H6 O12 Zn2 2-)n,C5 H16 N2 2+
;
_journal_coden_Cambridge 1220
_journal_volume 25
_journal_year 2019
_journal_page_first 9303
_journal_name_full 'Chem.-Eur.J. '
loop_
_publ_author_name
"Yin-Hua Zhao"
"Shu Liu"
"Bing-Wu Wang"
"Zhe-Ming Wang"
"Song Gao"
_chemical_name_systematic
;
catena-[N^1^,N^3^-dimethylpropane-1,3-bis(aminium) 
hexakis(\m-formato)-di-zinc]
;
_cell_volume   1772.565
_exptl_crystal_colour 'colorless'
_exptl_crystal_density_diffrn 1.893
_exptl_crystal_description 'hexagonal plate'
_diffrn_ambient_temperature 350
_refine_special_details
;
The structure is disordered.

;
#These two values have been output from a single CSD field.
_refine_ls_R_factor_gt 0.0202
_refine_ls_wR_factor_gt 0.0202
_symmetry_cell_setting monoclinic
_symmetry_space_group_name_H-M 'C 2/c'
_symmetry_Int_Tables_number 15
loop_
_symmetry_equiv_pos_site_id
_symmetry_equiv_pos_as_xyz
1 x,y,z
2 -x,y,1/2-z
3 1/2+x,1/2+y,z
4 1/2-x,1/2+y,1/2-z
5 -x,-y,-z
6 x,-y,-1/2+z
7 -1/2-x,-1/2-y,-z
8 -1/2+x,-1/2-y,-1/2+z
_cell_length_a 7.9087(3)
_cell_length_b 14.4579(6)
_cell_length_c 15.5075(6)
_cell_angle_alpha 90
_cell_angle_beta 91.506(4)
_cell_angle_gamma 90
_cell_formula_units_Z 4
loop_
_atom_type_symbol
_atom_type_radius_bond
C 0.68
H 0.23
N 0.68
O 0.68
Zn 1.22
loop_
_atom_site_label
_atom_site_type_symbol
_atom_site_fract_x
_atom_site_fract_y
_atom_site_fract_z
Zn1 Zn 0.00000 0.00000 0.00000
Zn2 Zn 0.00000 0.326321(17) 0.25000
O1 O 0.11118(15) 0.10226(8) 0.08404(8)
O2 O 0.10880(16) 0.22234(9) 0.17264(8)
O3 O 0.21218(15) 0.32989(8) 0.33128(8)
O4 O 0.38291(16) 0.39505(9) 0.42848(8)
O5 O 0.10502(15) 0.43119(9) 0.16865(8)
O6 O 0.27697(16) 0.49234(9) 0.07479(9)
C1 C 0.0395(2) 0.15897(12) 0.13153(11)
H1 H -0.07690 0.15300 0.13640
C2 C 0.2825(2) 0.39702(12) 0.36643(11)
H2 H 0.25680 0.45500 0.34360
C3 C 0.2416(2) 0.43548(12) 0.13190(11)
H3 H 0.32450 0.39290 0.14820
C4 C 0.5021(12) 0.1781(6) 0.0159(3)
H4 H 0.48090 0.14140 -0.03480
H5 H 0.61690 0.19970 0.01660
H6 H 0.42660 0.23010 0.01560
N1 N 0.4748(2) 0.12241(13) 0.09188(12)
H7 H 0.54480 0.07330 0.09170
H8 H 0.36780 0.10110 0.09050
C5 C 0.5050(4) 0.1760(3) 0.17204(16)
H9 H 0.41970 0.22400 0.17580
H10 H 0.61460 0.20590 0.16980
C6 C 0.50000 0.1171(3) 0.25000
H11 H 0.40070 0.07770 0.24700
C7? C 0.508(5) 0.187(3) 0.0080(15)
H12? H 0.54810 0.14820 -0.03710
H13? H 0.53030 0.25080 -0.00570
H14? H 0.38820 0.17860 0.01340
N2? N 0.596(2) 0.1628(14) 0.0911(10)
H15? H 0.66180 0.21070 0.10780
H16? H 0.66430 0.11410 0.08210
C8? C 0.480(3) 0.139(3) 0.1626(11)
H17? H 0.43690 0.07710 0.15470
H18? H 0.38490 0.18170 0.16160
C9? C 0.574(3) 0.146(2) 0.2477(10)
H19? H 0.64130 0.09090 0.25640
H20? H 0.65070 0.19850 0.24610
H21? H 0.42380 0.09720 0.34130
H22? H 0.36040 0.19200 0.30340
H23? H 0.52230 0.26840 0.39170
H24? H 0.65630 0.19960 0.39460
H25? H 0.54500 0.20770 0.52810
H26? H 0.50640 0.10980 0.48880
H27? H 0.36580 0.18620 0.48730
H28? H 0.40070 0.07770 0.24700
C10? C 0.460(4) 0.158(3) 0.3222(14)
N3? N 0.544(2) 0.2075(13) 0.3968(10)
C11? C 0.485(7) 0.175(3) 0.4831(15)
O1A O -0.11118(15) 0.10226(8) 0.41596(8)
O2A O -0.10880(16) 0.22234(9) 0.32736(8)
O3A O -0.21218(15) 0.32989(8) 0.16872(8)
O4A O -0.38291(16) 0.39505(9) 0.07152(8)
O5A O -0.10502(15) 0.43119(9) 0.33135(8)
O6A O -0.27697(16) 0.49234(9) 0.42521(9)
C1A C -0.0395(2) 0.15897(12) 0.36847(11)
H1A H 0.07690 0.15300 0.36360
C2A C -0.2825(2) 0.39702(12) 0.13357(11)
H2A H -0.25680 0.45500 0.15640
C3A C -0.2416(2) 0.43548(12) 0.36810(11)
H3A H -0.32450 0.39290 0.35180
Zn1A Zn 0.00000 0.00000 0.50000
Zn1B Zn -0.50000 0.50000 0.00000
Zn1B* Zn 0.50000 0.50000 0.00000
Zn1C Zn -0.50000 0.50000 0.50000
Zn1C* Zn 0.50000 0.50000 0.50000
O1D O -0.11118(15) -0.10226(8) -0.08404(8)
O4C O 0.11709(16) -0.10495(9) 0.07152(8)
O4G O -0.11709(16) 0.10495(9) -0.07152(8)
O6B O -0.22303(16) -0.00766(9) 0.07479(9)
O6F O 0.22303(16) 0.00766(9) -0.07479(9)
C4A C 0.4979(12) 0.1781(6) 0.4841(3)
H4A H 0.51910 0.14140 0.53480
H5A H 0.38310 0.19970 0.48340
H6A H 0.57340 0.23010 0.48440
N1A N 0.5252(2) 0.12241(13) 0.40812(12)
H7A H 0.45520 0.07330 0.40830
H8A H 0.63220 0.10110 0.40950
C5A C 0.4950(4) 0.1760(3) 0.32796(16)
H9A H 0.58030 0.22400 0.32420
H10A H 0.38540 0.20590 0.33020
H11A H 0.59930 0.07770 0.25300
#END
