
#######################################################################
#
#                 Cambridge Crystallographic Data Centre
#                                CCDC
#
#######################################################################
#
# If this CIF has been generated from an entry in the Cambridge
# Structural Database, then it will include bibliographic, chemical,
# crystal, experimental, refinement or atomic coordinate data resulting
# from the CCDC's data processing and validation procedures.
#
#######################################################################

data_CSD_CIF_LOMZIZ
_audit_creation_date 2019-07-05
_audit_creation_method CSD-ConQuest-V1
_database_code_CSD LOMZIZ
_database_code_depnum_ccdc_archive 'CCDC 1862692'
_chemical_formula_sum 'C19 H11 N6 Rb1 Ru1'
_chemical_formula_moiety
;
(C8 N6 Rb1 1-)n,n(C11 H11 Ru1 1+)
;
_journal_coden_Cambridge 1220
_journal_volume 25
_journal_year 2019
_journal_page_first 10111
_journal_name_full 'Chem.-Eur.J. '
loop_
_publ_author_name
"H.Kimata"
"T.Mochida"
_chemical_name_systematic
;
catena-(benzene-cyclopentadienyl-ruthenium bis(\m-tricyanomethanide)-rubidium)
;
_cell_volume    949.861
_exptl_crystal_colour 'colorless'
_exptl_crystal_density_diffrn 1.783
_exptl_crystal_description 'block'
_diffrn_ambient_temperature 100
_refine_special_details
;
The cation is disordered by symmetry.

;
#These two values have been output from a single CSD field.
_refine_ls_R_factor_gt 0.0274
_refine_ls_wR_factor_gt 0.0274
_symmetry_cell_setting monoclinic
_symmetry_space_group_name_H-M 'C 2/m'
_symmetry_Int_Tables_number 12
loop_
_symmetry_equiv_pos_site_id
_symmetry_equiv_pos_as_xyz
1 x,y,z
2 -x,y,-z
3 1/2+x,1/2+y,z
4 1/2-x,1/2+y,-z
5 -x,-y,-z
6 x,-y,z
7 -1/2-x,-1/2-y,-z
8 -1/2+x,-1/2-y,z
_cell_length_a 12.9842(19)
_cell_length_b 8.9304(13)
_cell_length_c 9.5332(14)
_cell_angle_alpha 90
_cell_angle_beta 120.764(1)
_cell_angle_gamma 90
_cell_formula_units_Z 2
loop_
_atom_type_symbol
_atom_type_radius_bond
C 0.68
H 0.23
N 0.68
Rb 2.20
Ru 1.46
loop_
_atom_site_label
_atom_site_type_symbol
_atom_site_fract_x
_atom_site_fract_y
_atom_site_fract_z
Ru1 Ru 0.50000 0.00000 0.50000
C1 C 0.3329(9) -0.017(3) 0.4964(14)
H1 H 0.25742 -0.02336 0.39808
C2 C 0.3922(15) 0.117(2) 0.578(2)
H2 H 0.36333 0.21610 0.54346
C3 C 0.5021(11) 0.077(3) 0.7195(16)
H3 H 0.55972 0.14500 0.79667
N1 N 0.8300(2) 0.7504(3) 0.8713(3)
N2 N 0.4916(3) 0.50000 0.6804(5)
Rb1 Rb 1.00000 1.00000 1.00000
C4 C 0.7187(3) 0.50000 0.8007(4)
C5 C 0.7808(2) 0.6371(3) 0.8395(3)
C6 C 0.5937(3) 0.50000 0.7321(4)
C7? C 0.3973(10) -0.1591(8) 0.5649(13)
H4? H 0.37840 -0.26173 0.53765
C8? C 0.3188(8) -0.0487(11) 0.4641(11)
H5? H 0.24631 -0.07586 0.36796
C9? C 0.3464(9) 0.1015(10) 0.5040(12)
H6? H 0.29279 0.17694 0.43509
C10? C 0.4525(10) 0.1412(9) 0.6447(13)
H7? H 0.47136 0.24388 0.67192
C11? C 0.5310(9) 0.0308(13) 0.7455(11)
H8? H 0.60346 0.05801 0.84162
C12? C 0.5034(10) -0.1193(11) 0.7056(12)
H9? H 0.55698 -0.19479 0.77449
C13? C 0.5107(16) -0.081(3) 0.726(2)
H10? H 0.57518 0.13841 0.80777
C14? C 0.406(2) -0.140(2) 0.588(3)
H11? H 0.38835 -0.24246 0.56143
C1E C 0.3329(9) 0.017(3) 0.4964(14)
H1E H 0.25742 0.02336 0.39808
C2E C 0.3922(15) -0.117(2) 0.578(2)
H2E H 0.36333 -0.21610 0.54346
C3E C 0.5021(11) -0.077(3) 0.7195(16)
H3E H 0.55972 -0.14500 0.79667
C1A C 0.6671(9) -0.017(3) 0.5036(14)
H1A H 0.74258 -0.02336 0.60192
C2A C 0.6078(15) 0.117(2) 0.422(2)
H2A H 0.63667 0.21610 0.45654
C3A C 0.4979(11) 0.077(3) 0.2805(16)
H3A H 0.44028 0.14500 0.20333
C1D C 0.6671(9) 0.017(3) 0.5036(14)
H1D H 0.74258 0.02336 0.60192
C2D C 0.6078(15) -0.117(2) 0.422(2)
H2D H 0.63667 -0.21610 0.45654
C3D C 0.4979(11) -0.077(3) 0.2805(16)
H3D H 0.44028 -0.14500 0.20333
N1E N 0.8300(2) 0.2496(3) 0.8713(3)
C5E C 0.7808(2) 0.3629(3) 0.8395(3)
N1A N 1.1700(2) 0.7504(3) 1.1287(3)
N2A N 1.5084(3) 0.50000 1.3196(5)
C4A C 1.2813(3) 0.50000 1.1993(4)
C5A C 1.2192(2) 0.6371(3) 1.1605(3)
C6A C 1.4063(3) 0.50000 1.2679(4)
N1D N 1.1700(2) 0.2496(3) 1.1287(3)
C5D C 1.2192(2) 0.3629(3) 1.1605(3)
N1D* N 1.1700(2) 1.2496(3) 1.1287(3)
N1E* N 0.8300(2) 1.2496(3) 0.8713(3)
N2B N 0.9916(3) 1.00000 0.6804(5)
N2C N 1.0084(3) 1.00000 1.3196(5)
Rb1* Rb 1.00000 0.00000 1.00000
Rb1B Rb 0.50000 0.50000 1.00000
Rb1B* Rb 1.50000 0.50000 1.00000
#END
