
#######################################################################
#
#                 Cambridge Crystallographic Data Centre
#                                CCDC
#
#######################################################################
#
# If this CIF has been generated from an entry in the Cambridge
# Structural Database, then it will include bibliographic, chemical,
# crystal, experimental, refinement or atomic coordinate data resulting
# from the CCDC's data processing and validation procedures.
#
#######################################################################

data_CSD_CIF_LONLIM
_audit_creation_date 2019-07-05
_audit_creation_method CSD-ConQuest-V1
_database_code_CSD LONLIM
_database_code_depnum_ccdc_archive 'CCDC 1918608'
_chemical_formula_sum 'C40 H28 Cd2 N8 O14 S2'
_chemical_formula_moiety
;
(C28 H16 Cd2 N4 O14 S2 2-)n,C12 H12 N4 2+
;
_journal_coden_Cambridge 208
_journal_volume 277
_journal_year 2019
_journal_page_first 510
_journal_name_full 'J.Solid State Chem. '
loop_
_publ_author_name
"Shui-Sheng Chen"
"Jia-Le Li"
"Wei-Dong Li"
"Xing-Zhe Guo"
"Yue Zhao"
_chemical_name_systematic
;
catena-[5,5'-(1,4-phenylene)di(1H-imidazol-3-ium) 
(\m-5,5'-(1,4-phenylene)di(1H-imidazole))-bis(\m-5-sulfonatoisophthalato)-di-c
admium]
;
_cell_volume   1029.251
_exptl_crystal_colour 'colorless'
_exptl_crystal_density_diffrn 1.829
_exptl_crystal_description 'block'
_diffrn_ambient_temperature 296
#These two values have been output from a single CSD field.
_refine_ls_R_factor_gt 0.024
_refine_ls_wR_factor_gt 0.024
_symmetry_cell_setting triclinic
_symmetry_space_group_name_H-M 'P -1'
_symmetry_Int_Tables_number 2
loop_
_symmetry_equiv_pos_site_id
_symmetry_equiv_pos_as_xyz
1 x,y,z
2 -x,-y,-z
_cell_length_a 9.4509(12)
_cell_length_b 10.2672(13)
_cell_length_c 12.2152(15)
_cell_angle_alpha 114.581(1)
_cell_angle_beta 96.752(1)
_cell_angle_gamma 101.483(1)
_cell_formula_units_Z 1
loop_
_atom_type_symbol
_atom_type_radius_bond
C 0.68
H 0.23
Cd 1.44
N 0.68
O 0.68
S 1.02
loop_
_atom_site_label
_atom_site_type_symbol
_atom_site_fract_x
_atom_site_fract_y
_atom_site_fract_z
Cd1 Cd 0.62428(2) 0.60765(2) 0.404840(19)
C1 C 1.0949(3) 0.8481(3) 0.3659(3)
H1 H 1.04080 0.89880 0.33770
C2 C 1.0466(3) 0.6939(3) 0.3165(3)
C3 C 1.1266(3) 0.6183(3) 0.3579(3)
H2 H 1.09460 0.51490 0.32340
C4 C 1.2552(3) 0.6957(3) 0.4512(3)
C5 C 1.3061(3) 0.8504(3) 0.4994(3)
H3 H 1.39420 0.90220 0.55890
C6 C 1.2250(3) 0.9267(3) 0.4582(3)
C7 C 1.2766(3) 1.0938(3) 0.5139(3)
C8 C 1.3336(3) 0.6127(3) 0.5028(3)
C9 C -0.0184(4) 0.1201(4) -0.0207(3)
H4 H -0.03140 0.19950 -0.03500
C10 C 0.1091(4) 0.1375(4) 0.0616(3)
C11 C 0.1245(4) 0.0162(4) 0.0802(3)
H5 H 0.20870 0.02680 0.13440
C12 C 0.2262(4) 0.2791(4) 0.1253(3)
C13 C 0.3393(4) 0.3289(4) 0.2244(3)
H6 H 0.35570 0.27710 0.26940
C14 C 0.3653(5) 0.5000(5) 0.1665(3)
H7 H 0.40060 0.58780 0.16090
N1 N 0.4266(3) 0.4669(3) 0.2493(2)
N2 N 0.2451(4) 0.3910(4) 0.0907(3)
H8 H 0.18880 0.39110 0.03000
O1 O 0.7835(2) 0.5237(2) 0.2659(2)
O2 O 0.9085(3) 0.4772(4) 0.1001(2)
O3 O 0.8181(3) 0.6970(3) 0.1783(3)
O4 O 1.2043(3) 1.1598(2) 0.4699(2)
O5 O 1.3875(3) 1.1635(3) 0.6010(2)
O6 O 1.2532(2) 0.4976(2) 0.5019(2)
O7 O 1.4703(2) 0.6628(3) 0.5479(2)
S1 S 0.87654(9) 0.59124(9) 0.20454(7)
C15 C 0.4107(4) -0.1431(4) -0.0415(3)
H9 H 0.35120 -0.23950 -0.06920
C16 C 0.5319(4) -0.0862(4) 0.0563(3)
H10 H 0.55280 -0.14460 0.09400
C17 C 0.6230(3) 0.0572(3) 0.0990(3)
C18 C 0.7549(3) 0.1122(3) 0.1987(3)
C19 C 0.8315(4) 0.0383(4) 0.2423(3)
H11 H 0.80700 -0.06400 0.21550
C20 C 0.9492(3) 0.2742(4) 0.3454(3)
H12 H 1.01870 0.36290 0.40110
N3 N 0.9504(3) 0.1407(3) 0.3321(3)
N4 N 0.8325(3) 0.2612(3) 0.2659(2)
H13 H 1.026(5) 0.128(5) 0.376(4)
H14 H 0.813(5) 0.327(5) 0.255(4)
C9A C 0.0184(4) -0.1201(4) 0.0207(3)
H4A H 0.03140 -0.19950 0.03500
C10A C -0.1091(4) -0.1375(4) -0.0616(3)
C11A C -0.1245(4) -0.0162(4) -0.0802(3)
H5A H -0.20870 -0.02680 -0.13440
C12A C -0.2262(4) -0.2791(4) -0.1253(3)
C13A C -0.3393(4) -0.3289(4) -0.2244(3)
H6A H -0.35570 -0.27710 -0.26940
C14A C -0.3653(5) -0.5000(5) -0.1665(3)
H7A H -0.40060 -0.58780 -0.16090
N1A N -0.4266(3) -0.4669(3) -0.2493(2)
N2A N -0.2451(4) -0.3910(4) -0.0907(3)
H8A H -0.18880 -0.39110 -0.03000
Cd1A Cd -0.62428(2) -0.60765(2) -0.404840(19)
C1A C -1.0949(3) -0.8481(3) -0.3659(3)
H1A H -1.04080 -0.89880 -0.33770
C2A C -1.0466(3) -0.6939(3) -0.3165(3)
C3A C -1.1266(3) -0.6183(3) -0.3579(3)
H2A H -1.09460 -0.51490 -0.32340
C4A C -1.2552(3) -0.6957(3) -0.4512(3)
C5A C -1.3061(3) -0.8504(3) -0.4994(3)
H3A H -1.39420 -0.90220 -0.55890
C6A C -1.2250(3) -0.9267(3) -0.4582(3)
C7A C -1.2766(3) -1.0938(3) -0.5139(3)
C8A C -1.3336(3) -0.6127(3) -0.5028(3)
O1A O -0.7835(2) -0.5237(2) -0.2659(2)
O2A O -0.9085(3) -0.4772(4) -0.1001(2)
O3A O -0.8181(3) -0.6970(3) -0.1783(3)
O4A O -1.2043(3) -1.1598(2) -0.4699(2)
O5A O -1.3875(3) -1.1635(3) -0.6010(2)
O6A O -1.2532(2) -0.4976(2) -0.5019(2)
O7A O -1.4703(2) -0.6628(3) -0.5479(2)
S1A S -0.87654(9) -0.59124(9) -0.20454(7)
Cd1* Cd -1.37572(2) -1.39235(2) -0.595160(19)
Cd1** Cd -1.37572(2) -0.39235(2) -0.595160(19)
Cd1*** Cd 1.62428(2) 0.60765(2) 0.404840(19)
Cd1A* Cd -1.62428(2) -0.60765(2) -0.404840(19)
Cd1A** Cd 1.37572(2) 0.39235(2) 0.595160(19)
Cd1A*** Cd 1.37572(2) 1.39235(2) 0.595160(19)
O4* O -0.7957(3) -0.8402(2) -0.5301(2)
O4A* O 0.7957(3) 0.8402(2) 0.5301(2)
O5* O -0.6125(3) -0.8365(3) -0.3990(2)
O5A* O 0.6125(3) 0.8365(3) 0.3990(2)
O6* O -0.7468(2) -0.5024(2) -0.4981(2)
O6A* O 0.7468(2) 0.5024(2) 0.4981(2)
O7* O 0.4703(2) 0.6628(3) 0.5479(2)
O7A* O -0.4703(2) -0.6628(3) -0.5479(2)
C15A C 0.5893(4) 0.1431(4) 0.0415(3)
H9A H 0.64880 0.23950 0.06920
C16A C 0.4681(4) 0.0862(4) -0.0563(3)
H10A H 0.44720 0.14460 -0.09400
C17A C 0.3770(3) -0.0572(3) -0.0990(3)
C18A C 0.2451(3) -0.1122(3) -0.1987(3)
C19A C 0.1685(4) -0.0383(4) -0.2423(3)
H11A H 0.19300 0.06400 -0.21550
C20A C 0.0508(3) -0.2742(4) -0.3454(3)
H12A H -0.01870 -0.36290 -0.40110
N3A N 0.0496(3) -0.1407(3) -0.3321(3)
N4A N 0.1675(3) -0.2612(3) -0.2659(2)
H13A H -0.026(5) -0.128(5) -0.376(4)
H14A H 0.187(5) -0.327(5) -0.255(4)
#END
