
#######################################################################
#
#                 Cambridge Crystallographic Data Centre
#                                CCDC
#
#######################################################################
#
# If this CIF has been generated from an entry in the Cambridge
# Structural Database, then it will include bibliographic, chemical,
# crystal, experimental, refinement or atomic coordinate data resulting
# from the CCDC's data processing and validation procedures.
#
#######################################################################

data_CSD_CIF_LONPEM
_audit_creation_date 2019-07-05
_audit_creation_method CSD-ConQuest-V1
_database_code_CSD LONPEM
_database_code_depnum_ccdc_archive 'CCDC 1852070'
_chemical_formula_sum 'C18 H10 Co1 K1 N6'
_chemical_formula_moiety
;
(C8 K1 N6 1-)n,C10 H10 Co1 1+
;
_journal_coden_Cambridge 1220
_journal_volume 25
_journal_year 2019
_journal_page_first 10111
_journal_name_full 'Chem.-Eur.J. '
loop_
_publ_author_name
"H.Kimata"
"T.Mochida"
_chemical_name_systematic
;
catena-[cobaltocenium bis(\m-methanetricarbonitrile)-potassium]
;
_cell_volume    875.128
_exptl_crystal_colour 'light yellow'
_exptl_crystal_density_diffrn 1.55
_exptl_crystal_description 'block'
_diffrn_ambient_temperature 100
#These two values have been output from a single CSD field.
_refine_ls_R_factor_gt 0.0364
_refine_ls_wR_factor_gt 0.0364
_symmetry_cell_setting monoclinic
_symmetry_space_group_name_H-M 'C 2/m'
_symmetry_Int_Tables_number 12
loop_
_symmetry_equiv_pos_site_id
_symmetry_equiv_pos_as_xyz
1 x,y,z
2 -x,y,-z
3 1/2+x,1/2+y,z
4 1/2-x,1/2+y,-z
5 -x,-y,-z
6 x,-y,z
7 -1/2-x,-1/2-y,-z
8 -1/2+x,-1/2-y,z
_cell_length_a 12.885(4)
_cell_length_b 8.563(2)
_cell_length_c 9.184(3)
_cell_angle_alpha 90
_cell_angle_beta 120.273(2)
_cell_angle_gamma 90
_cell_formula_units_Z 2
loop_
_atom_type_symbol
_atom_type_radius_bond
C 0.68
H 0.23
Co 1.26
K 2.03
N 0.68
loop_
_atom_site_label
_atom_site_type_symbol
_atom_site_fract_x
_atom_site_fract_y
_atom_site_fract_z
Co1 Co 0.50000 1.00000 0.50000
C1 C 0.3319(2) 1.00000 0.4724(3)
H1 H 0.25400 1.00000 0.36300
C2 C 0.50378(16) 0.9173(2) 0.7109(2)
H2 H 0.56740 0.84880 0.79860
C3 C 0.39758(16) 0.8652(2) 0.5627(2)
H3 H 0.37370 0.75410 0.52870
K1 K 1.00000 1.00000 1.00000
N1 N 0.83153(15) 0.76061(19) 0.8731(2)
N2 N 0.49026(19) 0.50000 0.6825(3)
C4 C 0.7186(2) 0.50000 0.8012(3)
C5 C 0.78092(14) 0.64289(19) 0.8397(2)
C6 C 0.5933(2) 0.50000 0.7343(3)
C2E C 0.50378(16) 1.0827(2) 0.7109(2)
H2E H 0.56740 1.15120 0.79860
C3E C 0.39758(16) 1.1348(2) 0.5627(2)
H3E H 0.37370 1.24590 0.52870
C1A C 0.6681(2) 1.00000 0.5276(3)
H1A H 0.74600 1.00000 0.63700
C2A C 0.49622(16) 0.9173(2) 0.2891(2)
H2A H 0.43260 0.84880 0.20140
C3A C 0.60242(16) 0.8652(2) 0.4373(2)
H3A H 0.62630 0.75410 0.47130
C2D C 0.49622(16) 1.0827(2) 0.2891(2)
H2D H 0.43260 1.15120 0.20140
C3D C 0.60242(16) 1.1348(2) 0.4373(2)
H3D H 0.62630 1.24590 0.47130
N1E N 0.83153(15) 0.23939(19) 0.8731(2)
C5E C 0.78092(14) 0.35711(19) 0.8397(2)
N1A N 1.16847(15) 0.76061(19) 1.1269(2)
N2A N 1.50974(19) 0.50000 1.3175(3)
C4A C 1.2814(2) 0.50000 1.1988(3)
C5A C 1.21908(14) 0.64289(19) 1.1603(2)
C6A C 1.4067(2) 0.50000 1.2657(3)
N1D N 1.16847(15) 0.23939(19) 1.1269(2)
C5D C 1.21908(14) 0.35711(19) 1.1603(2)
K1* K 1.00000 0.00000 1.00000
K1B K 0.50000 0.50000 1.00000
K1B* K 1.50000 0.50000 1.00000
N1D* N 1.16847(15) 1.23939(19) 1.1269(2)
N1E* N 0.83153(15) 1.23939(19) 0.8731(2)
N2B N 0.99026(19) 1.00000 0.6825(3)
N2C N 1.00974(19) 1.00000 1.3175(3)
#END
