
#######################################################################
#
#                 Cambridge Crystallographic Data Centre
#                                CCDC
#
#######################################################################
#
# If this CIF has been generated from an entry in the Cambridge
# Structural Database, then it will include bibliographic, chemical,
# crystal, experimental, refinement or atomic coordinate data resulting
# from the CCDC's data processing and validation procedures.
#
#######################################################################

data_CSD_CIF_LORLUZ
_audit_creation_date 2001-02-12
_audit_creation_method CSD-ConQuest-V1
_database_code_CSD LORLUZ
_database_code_depnum_ccdc_archive 'CCDC 143213'
_chemical_formula_sum 'C20 H38 Cs4 N4 O23 Pb2'
_chemical_formula_moiety
;
(Cs1 1+)4n,n(C20 H24 N4 O16 Pb2 4-),7n(H2 O1)
;
_journal_coden_Cambridge 233
_journal_volume 44
_journal_year 1999
_journal_page_first 1654
_journal_name_full 'Zh.Neorg.Khim.(Russ.)(Russ.J.Inorg.Chem.) '
loop_
_publ_author_name
"A.B.Ilyukhin"
"V.B.Logvinova"
"R.L.Davidovich"
_chemical_name_systematic
;
catena-(bis(Di-cesium (\m~3~-ethylenediaminetetra-acetato)-lead(ii)) 
heptahydrate)
;
_cell_volume   4023.607
_exptl_crystal_density_diffrn 2.721
_diffrn_ambient_temperature ?
_diffrn_special_details
;
The study was carried out at room temperature,in the range 283-303K

;
_refine_special_details
;
Atom Cs4 is disordered over two positions with occupancies 0.6:0.4.

;
#These two values have been output from a single CSD field.
_refine_ls_R_factor_gt 0.042
_refine_ls_wR_factor_gt 0.042
_symmetry_cell_setting monoclinic
_symmetry_space_group_name_H-M 'P 21/c'
_symmetry_Int_Tables_number 14
loop_
_symmetry_equiv_pos_site_id
_symmetry_equiv_pos_as_xyz
1 x,y,z
2 -x,1/2+y,1/2-z
3 -x,-y,-z
4 x,-1/2-y,-1/2+z
_cell_length_a 10.532(2)
_cell_length_b 27.331(4)
_cell_length_c 13.981(2)
_cell_angle_alpha 90
_cell_angle_beta 91.16(1)
_cell_angle_gamma 90
_cell_formula_units_Z 4
loop_
_atom_type_symbol
_atom_type_radius_bond
C 0.68
H 0.23
Cs 1.54
N 0.68
O 0.68
Pb 2.14
loop_
_atom_site_label
_atom_site_type_symbol
_atom_site_fract_x
_atom_site_fract_y
_atom_site_fract_z
Pb1 Pb -0.10197(4) -0.43823(1) -0.33799(3)
Pb2 Pb -0.04299(4) -0.42725(2) 0.15585(3)
Cs1 Cs 0.20238(7) -0.38965(3) 0.38421(6)
Cs2 Cs 0.71595(8) -0.55153(3) 0.25425(6)
Cs3 Cs -0.32764(7) -0.49645(3) -0.11607(6)
Cs4 Cs 0.65716(63) -0.76543(15) 0.73144(37)
Cs5? Cs 0.65651(78) -0.77909(22) 0.71162(55)
O1 O -0.2821(10) -0.40410(35) -0.23453(72)
O2 O -0.3641(11) -0.33956(38) -0.16441(84)
O3 O 0.08251(98) -0.36617(44) -0.31116(83)
O4 O 0.15544(94) -0.30442(41) -0.39604(85)
O5 O -0.27536(76) -0.50460(32) -0.33850(62)
O6 O -0.48664(87) -0.50627(39) -0.33613(71)
O7 O -0.0140(8) -0.43780(37) -0.50357(61)
O8 O -0.0465(10) -0.47315(40) -0.64640(66)
O9 O -0.02007(95) -0.35170(38) 0.26794(67)
O10 O -0.12489(99) -0.29575(38) 0.34782(67)
O11 O -0.27501(98) -0.45149(38) 0.15980(81)
O12 O -0.4473(10) -0.44513(45) 0.06752(87)
O13 O -0.09164(88) -0.45038(35) -0.01188(64)
O14 O 0.0082(11) -0.46453(39) -0.15133(57)
O15 O 0.20893(92) -0.40475(34) 0.15751(70)
O16 O 0.3347(11) -0.33847(48) 0.15570(99)
O17 O 0.3474(12) -0.75239(41) 0.09634(88)
O18 O 0.6252(12) -0.63997(56) 0.4093(11)
O19 O 0.48739(98) -0.39412(41) 0.28736(79)
O20 O 0.4557(11) -0.31879(50) 0.41323(96)
O21 O 0.1307(11) -0.26848(48) 0.40663(96)
O22 O -0.4308(13) -0.60634(68) 0.0913(10)
O23 O 0.4882(27) -0.26347(82) 0.0926(20)
N1 N -0.16687(93) -0.34599(32) -0.36571(62)
N2 N -0.26941(87) -0.43171(35) -0.47187(65)
N3 N -0.20159(90) -0.35663(33) 0.12637(68)
N4 N 0.04279(94) -0.36652(38) 0.02488(73)
C1 C -0.2899(12) -0.35898(44) -0.22060(85)
C2 C -0.1963(12) -0.32649(47) -0.27362(83)
H1 H -0.1157(12) -0.32292(47) -0.23518(83)
H2 H -0.2343(12) -0.29322(47) -0.28231(83)
C3 C 0.0694(12) -0.33074(47) -0.36718(93)
C4 C -0.0614(11) -0.31993(44) -0.41284(77)
H3 H -0.0609(11) -0.32836(44) -0.48243(77)
H4 H -0.0771(11) -0.28396(44) -0.40745(77)
C5 C -0.2817(11) -0.34348(41) -0.43086(91)
H5 H -0.3604(11) -0.34900(41) -0.39352(91)
H6 H -0.2870(11) -0.31007(41) -0.45982(91)
C6 C -0.2774(12) -0.38109(44) -0.51016(82)
H7 H -0.2007(12) -0.37451(44) -0.54911(82)
H8 H -0.3539(12) -0.37801(44) -0.55329(82)
C7 C -0.3844(11) -0.48950(42) -0.36463(91)
C8 C -0.3939(10) -0.44804(46) -0.43755(78)
H9 H -0.4384(10) -0.41963(46) -0.40808(78)
H10 H -0.4472(10) -0.45973(46) -0.49300(78)
C9 C -0.0840(12) -0.45783(41) -0.56804(79)
C10 C -0.2238(12) -0.46382(43) -0.54786(80)
H11 H -0.2392(12) -0.49828(43) -0.52705(80)
H12 H -0.2754(12) -0.45800(43) -0.60765(80)
C11 C -0.1168(12) -0.32729(44) 0.28426(90)
C12 C -0.2326(11) -0.33789(46) 0.22073(90)
H13 H -0.2832(11) -0.30719(46) 0.21196(90)
H14 H -0.2871(11) -0.36227(46) 0.25398(90)
C13 C -0.3464(11) -0.42872(48) 0.10538(97)
C14 C -0.3166(11) -0.37603(43) 0.07666(96)
H15 H -0.3902(11) -0.35458(43) 0.09248(96)
H16 H -0.3047(11) -0.37455(43) 0.00594(96)
C15 C -0.1445(11) -0.31677(41) 0.07097(96)
H17 H -0.2140(11) -0.29542(41) 0.04468(96)
H18 H -0.0896(11) -0.29633(41) 0.11427(96)
C16 C -0.0652(13) -0.33597(46) -0.01183(86)
H19 H -0.0312(13) -0.30770(46) -0.04881(86)
H20 H -0.1202(13) -0.35591(46) -0.05606(86)
C17 C -0.0092(11) -0.44068(45) -0.07352(82)
C18 C 0.0843(13) -0.39935(47) -0.05150(91)
H21 H 0.0962(13) -0.37950(47) -0.11073(91)
H22 H 0.1687(13) -0.41349(47) -0.03265(91)
C19 C 0.2387(12) -0.36243(57) 0.12874(91)
C20 C 0.1483(11) -0.33599(44) 0.05993(84)
H23 H 0.1981(11) -0.32405(44) 0.00445(84)
H24 H 0.1124(11) -0.30682(44) 0.09305(84)
O14B O -0.0082(11) -0.53547(39) 0.15133(57)
O8B O 0.0465(10) -0.52685(40) -0.35360(66)
Pb2B Pb 0.04299(4) -0.57275(2) -0.15585(3)
O8* O -0.0465(10) -0.47315(40) 0.35360(66)
Pb1B Pb 0.10197(4) -0.56177(1) -0.66201(3)
Pb2* Pb -0.04299(4) -0.42725(2) -0.84415(3)
#END
