
#######################################################################
#
#                 Cambridge Crystallographic Data Centre
#                                CCDC
#
#######################################################################
#
# If this CIF has been generated from an entry in the Cambridge
# Structural Database, then it will include bibliographic, chemical,
# crystal, experimental, refinement or atomic coordinate data resulting
# from the CCDC's data processing and validation procedures.
#
#######################################################################

data_CSD_CIF_LORLIN
_audit_creation_date 2001-02-12
_audit_creation_method CSD-ConQuest-V1
_database_code_CSD LORLIN
_database_code_depnum_ccdc_archive 'CCDC 141287'
_chemical_formula_sum 'C20 H50 N8 O21 Pb2'
_chemical_formula_moiety
;
(H4 N1 1+)4n,n(C20 H24 N4 O16 Pb2 4-),5n(H2 O1)
;
_journal_coden_Cambridge 233
_journal_volume 44
_journal_year 1999
_journal_page_first 1654
_journal_name_full 'Zh.Neorg.Khim.(Russ.)(Russ.J.Inorg.Chem.) '
loop_
_publ_author_name
"A.B.Ilyukhin"
"V.B.Logvinova"
"R.L.Davidovich"
_chemical_name_systematic
;
catena-(bis(bis(Ammonium) (\m~3~-ethylenediaminetetra-acetato)-lead(ii)) 
pentahydrate)
;
_cell_volume   1809.699
_exptl_crystal_density_diffrn 2.116
_diffrn_ambient_temperature ?
_diffrn_special_details
;
The study was carried out at room temperature,in the range 283-303K

;
#These two values have been output from a single CSD field.
_refine_ls_R_factor_gt 0.028
_refine_ls_wR_factor_gt 0.028
_symmetry_cell_setting triclinic
_symmetry_space_group_name_H-M 'P -1'
_symmetry_Int_Tables_number 2
loop_
_symmetry_equiv_pos_site_id
_symmetry_equiv_pos_as_xyz
1 x,y,z
2 -x,-y,-z
_cell_length_a 10.641(3)
_cell_length_b 13.308(4)
_cell_length_c 14.352(5)
_cell_angle_alpha 95.47(2)
_cell_angle_beta 103.60(2)
_cell_angle_gamma 110.86(2)
_cell_formula_units_Z 2
loop_
_atom_type_symbol
_atom_type_radius_bond
C 0.68
H 0.23
N 0.68
O 0.68
Pb 2.09
loop_
_atom_site_label
_atom_site_type_symbol
_atom_site_fract_x
_atom_site_fract_y
_atom_site_fract_z
Pb1 Pb 0.40601(2) 0.36867(2) -0.35209(2)
Pb2 Pb -0.05967(2) -0.16571(2) -0.36394(2)
O1 O 0.61566(51) 0.50849(42) -0.38657(39)
O2 O 0.66787(57) 0.66924(48) -0.43629(39)
O3 O 0.21846(50) 0.45118(45) -0.38261(37)
O4 O 0.12113(63) 0.52740(75) -0.29389(47)
O5 O 0.57843(63) 0.25999(52) -0.32713(42)
O6 O 0.80850(64) 0.30188(60) -0.26201(52)
O7 O 0.28031(48) 0.32214(47) -0.21870(36)
O8 O 0.28593(57) 0.25839(50) -0.08144(42)
O9 O -0.04559(62) -0.29991(43) -0.24947(36)
O10 O -0.04728(56) -0.33755(43) -0.10198(36)
O11 O -0.20705(59) -0.07853(50) -0.28582(45)
O12 O -0.16387(71) 0.08817(54) -0.21018(57)
O13 O 0.06861(52) -0.26902(44) -0.45028(37)
O14 O 0.27172(59) -0.28282(46) -0.44788(45)
O15 O 0.04278(54) 0.04011(41) -0.37993(39)
O16 O 0.20089(65) 0.14987(45) -0.44280(42)
O17 O 0.88742(77) 0.45984(62) -0.89282(50)
H1 H 0.89073(77) 0.46754(62) -0.81543(50)
H2 H 0.95648(77) 0.42998(62) -0.88832(50)
O18 O 0.3616(11) 0.93679(96) -0.89963(71)
H3 H 0.3870(11) 0.99840(96) -0.90797(71)
H4 H 0.2853(11) 0.92090(96) -0.87148(71)
O19 O 0.6794(10) 0.22827(74) -0.94431(72)
H5 H 0.7357(10) 0.30350(74) -0.95658(72)
H6 H 0.6827(10) 0.17475(74) -0.98925(72)
O20 O 0.4069(12) 0.15850(82) -0.93211(69)
H7 H 0.3664(12) 0.18794(82) -0.98696(69)
H8 H 0.4998(12) 0.17556(82) -0.94013(69)
O21 O 0.6399(11) 0.06894(75) -0.38744(67)
H9 H 0.7043(11) 0.07524(75) -0.34921(67)
H10 H 0.6196(11) 0.12344(75) -0.36941(67)
N1 N 0.48368(49) 0.56624(42) -0.26113(37)
N2 N 0.56971(52) 0.39929(43) -0.17525(37)
N3 N 0.04186(56) -0.07837(44) -0.17915(39)
N4 N 0.21320(55) -0.06915(45) -0.31682(39)
N5 N 1.00777(60) 0.75760(52) -0.64906(44)
H11 H 0.9027(6) 0.72203(52) -0.66230(44)
H12 H 1.0337(6) 0.71703(52) -0.69930(44)
H13 H 1.0341(6) 0.83393(52) -0.64800(44)
H14 H 1.0556(6) 0.75593(52) -0.57800(44)
N6 N 0.13576(64) 0.50205(53) -0.57251(45)
H15 H 0.17159(64) 0.48709(53) -0.60651(45)
H16 H 0.05889(64) 0.48809(53) -0.61001(45)
H17 H 0.15809(64) 0.57009(53) -0.55681(45)
H18 H 0.10094(64) 0.44328(53) -0.54359(45)
N7 N 0.9593(7) 0.69082(67) -0.90832(46)
H19 H 0.94336(70) 0.61266(67) -0.89985(46)
H20 H 0.97226(70) 0.69696(67) -0.96825(46)
H21 H 0.88946(70) 0.69726(67) -0.90755(46)
H22 H 1.03296(70) 0.73806(67) -0.84685(46)
N8 N 0.54045(80) 0.84271(65) -0.46419(56)
H23 H 0.49815(80) 0.82066(65) -0.54082(56)
H24 H 0.59063(80) 0.92093(65) -0.45804(56)
H25 H 0.56957(80) 0.79585(65) -0.44134(56)
H26 H 0.46187(80) 0.83126(65) -0.43472(56)
C1 C 0.60932(61) 0.60077(56) -0.38902(47)
C2 C 0.52239(64) 0.63512(53) -0.33254(52)
H27 H 0.57679(64) 0.71289(53) -0.29704(52)
H28 H 0.43402(64) 0.63145(53) -0.37921(52)
C3 C 0.22450(62) 0.51366(58) -0.31043(47)
C4 C 0.36462(62) 0.57817(57) -0.23327(48)
H29 H 0.38032(62) 0.65753(57) -0.22043(48)
H30 H 0.36048(62) 0.55087(57) -0.17106(48)
C5 C 0.60879(61) 0.59396(52) -0.17623(46)
H31 H 0.62783(61) 0.66553(52) -0.13478(46)
H32 H 0.69286(61) 0.60201(52) -0.19935(46)
C6 C 0.59023(65) 0.50406(53) -0.11666(45)
H33 H 0.67328(65) 0.52509(53) -0.05784(45)
H34 H 0.50573(65) 0.49524(53) -0.09385(45)
C7 C 0.69606(75) 0.31253(60) -0.26273(52)
C8 C 0.70562(61) 0.39641(58) -0.17938(49)
H35 H 0.75167(61) 0.38006(58) -0.11682(49)
H36 H 0.76748(61) 0.47095(58) -0.18510(49)
C9 C 0.34237(63) 0.29539(52) -0.14427(47)
C10 C 0.49416(68) 0.30894(60) -0.13265(52)
H37 H 0.54534(68) 0.32462(60) -0.06149(52)
H38 H 0.49570(68) 0.23909(60) -0.16387(52)
C11 C -0.04018(68) -0.27474(54) -0.16275(47)
C12 C -0.02890(82) -0.15905(60) -0.12561(50)
H39 H -0.12610(82) -0.16179(60) -0.13384(50)
H40 H 0.02369(82) -0.1345(6) -0.05446(50)
C13 C -0.13367(77) 0.00617(61) -0.22575(58)
C14 C 0.01264(77) 0.02045(59) -0.16326(52)
H41 H 0.08602(77) 0.08155(59) -0.17987(52)
H42 H 0.01982(77) 0.04038(59) -0.09269(52)
C15 C 0.19408(73) -0.05389(59) -0.14834(48)
H43 H 0.21017(73) -0.12273(59) -0.14132(48)
H44 H 0.23580(73) -0.00405(59) -0.08266(48)
C16 C 0.26807(61) 0.00046(52) -0.21846(49)
H45 H 0.25771(61) 0.07183(52) -0.22265(49)
H46 H 0.37051(61) 0.01617(52) -0.19355(49)
C17 C 0.19882(65) -0.24134(52) -0.41391(48)
C18 C 0.27492(68) -0.15226(57) -0.32110(53)
H47 H 0.28055(68) -0.18584(57) -0.26162(53)
H48 H 0.37245(68) -0.11343(57) -0.32519(53)
C19 C 0.15486(73) 0.06958(56) -0.40464(49)
C20 C 0.24271(70) -0.00038(60) -0.39036(54)
H49 H 0.22348(70) -0.04915(60) -0.45392(54)
H50 H 0.34471(70) 0.04883(60) -0.36859(54)
O2A O 0.33213(57) 0.33076(48) -0.56371(39)
Pb1A Pb 0.59399(2) 0.63133(2) -0.64791(2)
Pb2* Pb 0.94033(2) 0.83429(2) -0.36394(2)
Pb2A Pb 0.05967(2) 0.16571(2) -0.63606(2)
O2* O -0.33213(57) -0.33076(48) -0.43629(39)
O16A O -0.20089(65) -0.14987(45) -0.55720(42)
#END
