
#######################################################################
#
#                 Cambridge Crystallographic Data Centre
#                                CCDC
#
#######################################################################
#
# If this CIF has been generated from an entry in the Cambridge
# Structural Database, then it will include bibliographic, chemical,
# crystal, experimental, refinement or atomic coordinate data resulting
# from the CCDC's data processing and validation procedures.
#
#######################################################################

data_CSD_CIF_LORQIU
_audit_creation_date 2014-12-31
_audit_creation_method CSD-ConQuest-V1
_database_code_CSD LORQIU
_database_code_depnum_ccdc_archive 'CCDC 966488'
_chemical_formula_sum 'C39 H43 In1 N2 O12'
_chemical_formula_moiety
;
(C37 H35 In1 N1 O12 1-)n,n(C2 H8 N1 1+)
;
_journal_coden_Cambridge 597
_journal_volume 128
_journal_year 2014
_journal_page_first 1385
_journal_name_full 'J.Chem.Sci.(Bangalore,India) '
loop_
_publ_author_name
"P.Vishnoi"
"A.Ch Kalita"
"R.Murugavel"
_chemical_name_systematic
;
catena-[dimethylammonium 
(\m-4,4',4''-((2,4,6-trimethylbenzene-1,3,5-triyl)tris(methyleneoxy))tribenzoa
to)-(N,N-dimethylformamide)-(formato)-indium]
;
_cell_volume   1850.331
_exptl_crystal_colour 'colorless'
_exptl_crystal_density_diffrn 1.519
_exptl_crystal_description 'block'
_diffrn_ambient_temperature 150
#These two values have been output from a single CSD field.
_refine_ls_R_factor_gt 0.0754
_refine_ls_wR_factor_gt 0.0754
_symmetry_cell_setting triclinic
_symmetry_space_group_name_H-M 'P -1'
_symmetry_Int_Tables_number 2
loop_
_symmetry_equiv_pos_site_id
_symmetry_equiv_pos_as_xyz
1 x,y,z
2 -x,-y,-z
_cell_length_a 9.08(3)
_cell_length_b 12.01(4)
_cell_length_c 18.1(1)
_cell_angle_alpha 82.90(3)
_cell_angle_beta 86.40(3)
_cell_angle_gamma 70.90(2)
_cell_formula_units_Z 2
loop_
_atom_type_symbol
_atom_type_radius_bond
C 0.68
H 0.23
In 1.42
N 0.68
O 0.68
loop_
_atom_site_label
_atom_site_type_symbol
_atom_site_fract_x
_atom_site_fract_y
_atom_site_fract_z
In1 In 0.26970(5) 0.29697(4) 0.36401(2)
O1 O 0.2973(5) 0.2671(4) 0.8182(2)
O2 O 0.2074(5) -0.0470(3) 1.1242(2)
O3 O 0.6117(5) 0.2671(4) 1.0800(2)
O4 O 0.3888(5) 0.2823(4) 0.4701(2)
O5 O 0.1339(5) 0.3605(3) 0.4730(2)
O6 O 0.3127(5) -0.5536(4) 1.3058(2)
O7 O 0.2576(5) -0.4391(4) 1.3994(2)
O8 O 1.2018(5) 0.2644(4) 1.2509(2)
O9 O 1.0178(5) 0.3607(4) 1.3266(2)
O10 O 0.5058(5) 0.1897(4) 0.3270(2)
O11 O 0.2369(5) 0.1344(4) 0.4105(2)
O12 O 0.2300(6) -0.0478(4) 0.4101(3)
N1 N 0.7346(6) 0.0429(5) 0.3522(3)
C1 C 0.2287(7) 0.2484(5) 0.9439(3)
C2 C 0.2238(7) 0.1338(5) 0.9664(3)
C3 C 0.3014(7) 0.0716(5) 1.0315(3)
C4 C 0.3750(7) 0.1256(5) 1.0754(3)
C5 C 0.3728(7) 0.2410(5) 1.0541(3)
C6 C 0.3034(7) 0.3018(5) 0.9876(3)
C7 C 0.1392(8) 0.0776(6) 0.9203(3)
H1 H 0.14690 -0.00030 0.94360
H2 H 0.18580 0.07220 0.87120
H3 H 0.03150 0.12550 0.91700
C8 C 0.4562(7) 0.0565(5) 1.1463(3)
H4 H 0.44560 -0.02110 1.15270
H5 H 0.40920 0.09770 1.18840
H6 H 0.56470 0.04940 1.14250
C9 C 0.3184(8) 0.4223(6) 0.9608(4)
H7 H 0.26420 0.45280 0.91500
H8 H 0.42650 0.41500 0.95270
H9 H 0.27390 0.47570 0.99770
C10 C 0.1675(8) 0.3112(6) 0.8687(3)
H10 H 0.07750 0.29150 0.85590
H11 H 0.13890 0.39650 0.86830
C11 C 0.2782(8) 0.2866(6) 0.7433(3)
C12 C 0.1382(7) 0.3538(6) 0.7092(3)
H12 H 0.05000 0.38980 0.73730
C13 C 0.1346(7) 0.3652(5) 0.6314(3)
H13 H 0.04210 0.40830 0.60760
C14 C 0.2669(7) 0.3131(5) 0.5890(3)
C15 C 0.4056(7) 0.2476(6) 0.6246(3)
H14 H 0.49460 0.21220 0.59670
C16 C 0.4099(8) 0.2358(6) 0.7010(4)
H15 H 0.50270 0.19300 0.72470
C17 C 0.2605(8) 0.3211(6) 0.5069(3)
C18 C 0.3021(8) -0.0530(5) 1.0567(3)
H16 H 0.25910 -0.08310 1.01880
H17 H 0.40770 -0.10510 1.06620
C19 C 0.2277(7) -0.1496(6) 1.1708(4)
C20 C 0.2874(8) -0.2623(6) 1.1475(4)
H18 H 0.31710 -0.27220 1.09800
C21 C 0.3014(7) -0.3601(6) 1.2003(4)
H19 H 0.33950 -0.43580 1.18520
C22 C 0.2602(7) -0.3475(6) 1.2749(3)
C23 C 0.2017(7) -0.2338(5) 1.2961(3)
H20 H 0.17410 -0.22360 1.34580
C24 C 0.1836(7) -0.1358(6) 1.2450(3)
H21 H 0.14200 -0.06020 1.26010
C25 C 0.2782(7) -0.4533(6) 1.3324(4)
C26 C 0.4482(7) 0.2990(6) 1.1033(3)
H22 H 0.39960 0.38440 1.09700
H23 H 0.43800 0.27040 1.15520
C27 C 0.7126(7) 0.2888(5) 1.1254(3)
C28 C 0.6675(7) 0.3490(5) 1.1887(3)
H24 H 0.56260 0.38030 1.20200
C29 C 0.7812(7) 0.3611(5) 1.2311(3)
H25 H 0.75150 0.40380 1.27210
C30 C 0.9371(7) 0.3118(5) 1.2146(3)
C31 C 0.9819(8) 0.2527(6) 1.1509(3)
H26 H 1.08710 0.22030 1.13840
C32 C 0.8702(7) 0.2425(6) 1.1065(3)
H27 H 0.90020 0.20440 1.06360
C33 C 1.0576(7) 0.3145(6) 1.2657(3)
C34 C 0.6003(8) 0.1151(6) 0.3719(4)
H28 H 0.57200 0.11170 0.42220
C35 C 0.8397(8) -0.0393(6) 0.4069(4)
H29 H 0.93240 -0.08460 0.38200
H30 H 0.78890 -0.09190 0.43290
H31 H 0.86680 0.00440 0.44180
C36 C 0.7839(9) 0.0382(7) 0.2747(4)
H32 H 0.88560 -0.01950 0.27110
H33 H 0.78770 0.11460 0.25360
H34 H 0.71120 0.01640 0.24810
C37 C 0.2573(9) 0.0420(7) 0.3816(4)
H35 H 0.34590 0.02090 0.33420
N2 N 0.8084(6) 0.3691(5) 0.4569(3)
C38 C 0.8645(9) 0.2377(6) 0.4698(4)
H36 H 0.97080 0.21070 0.48520
H37 H 0.85810 0.20560 0.42450
H38 H 0.80090 0.21170 0.50790
C39 C 0.6465(7) 0.4150(6) 0.4333(4)
H39 H 0.61410 0.50000 0.42560
H40 H 0.58110 0.39040 0.47110
H41 H 0.63810 0.38460 0.38760
H42 H 0.83530 0.39720 0.50210
H43 H 0.87890 0.40020 0.42770
In1* In 0.26970(5) -0.70303(4) 1.36401(2)
In1** In 1.26970(5) 0.29697(4) 1.36401(2)
O6* O 0.3127(5) 0.4464(4) 0.3058(2)
O8* O 0.2018(5) 0.2644(4) 0.2509(2)
O9* O 0.0178(5) 0.3607(4) 0.3266(2)
#END
