
#######################################################################
#
#                 Cambridge Crystallographic Data Centre
#                                CCDC
#
#######################################################################
#
# If this CIF has been generated from an entry in the Cambridge
# Structural Database, then it will include bibliographic, chemical,
# crystal, experimental, refinement or atomic coordinate data resulting
# from the CCDC's data processing and validation procedures.
#
#######################################################################

data_CSD_CIF_LOTMOY02
_audit_creation_date 2015-01-05
_audit_creation_method CSD-ConQuest-V1
_database_code_CSD LOTMOY02
_database_code_depnum_ccdc_archive 'CCDC 990497'
_chemical_formula_sum 'C24 H48.4 Cu2 N2 O14.2'
_chemical_formula_moiety
;
(C9 H22 N1 1+)2n,n(C6 Cu2 O12 2-),2.2n(H2 O1)
;
_journal_coden_Cambridge 1540
_journal_volume 4
_journal_year 2014
_journal_page_first 6451
_journal_name_full 'Scientific Reports '
loop_
_publ_author_name
"Bin Zhang"
"Yan Zhang"
"Zheming Wang"
"Dongwei Wang"
"P.J.Baker"
"F.L.Pratt"
"Daoben Zhu"
_chemical_name_systematic
;
catena-[bis(Triethylammonium) tris(\m~2~-oxalato)-di-copper(ii) hydrate]
;
_cell_volume   3306.405
_exptl_crystal_colour 'blue'
_exptl_crystal_density_diffrn 1.445
_exptl_crystal_description 'plate'
_diffrn_ambient_temperature 140
_refine_special_details
;
The structure is disordered.

;
#These two values have been output from a single CSD field.
_refine_ls_R_factor_gt 0.0437
_refine_ls_wR_factor_gt 0.0437
_symmetry_cell_setting monoclinic
_symmetry_space_group_name_H-M 'P 21/n'
_symmetry_Int_Tables_number 14
loop_
_symmetry_equiv_pos_site_id
_symmetry_equiv_pos_as_xyz
1 x,y,z
2 1/2-x,1/2+y,1/2-z
3 -x,-y,-z
4 -1/2+x,-1/2-y,-1/2+z
_cell_length_a 9.3957(2)
_cell_length_b 15.8261(2)
_cell_length_c 22.2735(4)
_cell_angle_alpha 90
_cell_angle_beta 93.3334(6)
_cell_angle_gamma 90
_cell_formula_units_Z 4
loop_
_atom_type_symbol
_atom_type_radius_bond
C 0.68
H 0.23
Cu 1.32
N 0.68
O 0.68
loop_
_atom_site_label
_atom_site_type_symbol
_atom_site_fract_x
_atom_site_fract_y
_atom_site_fract_z
Cu1 Cu 0.55454(3) 0.66232(2) 0.244586(17)
Cu2 Cu 0.05730(3) 0.50378(2) 0.249369(18)
O1 O 0.4314(2) 0.55963(13) 0.19104(10)
O2 O 0.3868(2) 0.64790(12) 0.29416(9)
O3 O 0.2218(2) 0.49664(12) 0.1990(1)
O4 O 0.1737(2) 0.58707(12) 0.29565(9)
O5 O 0.4547(2) 0.75156(12) 0.19657(10)
O6 O 0.6158(2) 0.78192(13) 0.29990(11)
O7 O 0.3906(2) 0.88687(12) 0.19348(10)
O8 O 0.5452(2) 0.91525(13) 0.29845(11)
O9 O 0.7216(2) 0.66711(14) 0.19533(11)
O10 O 0.6705(2) 0.58058(13) 0.29307(10)
O11 O 0.9346(2) 0.60588(13) 0.19045(11)
O12 O 0.8853(2) 0.52256(13) 0.29542(10)
C1 C 0.3197(3) 0.54759(17) 0.21594(13)
C2 C 0.2923(3) 0.59948(17) 0.27316(13)
C3 C 0.4561(3) 0.82618(18) 0.21698(14)
C4 C 0.5470(3) 0.84211(19) 0.27666(15)
C5 C 0.8191(3) 0.61782(17) 0.21402(15)
C6 C 0.7909(3) 0.56933(18) 0.27221(15)
N1 N 0.9535(5) 0.8749(3) 0.1443(2)
H1 H 0.98210 0.82330 0.12890
C7 C 0.8133(6) 0.8990(4) 0.1115(3)
H2 H 0.76760 0.94390 0.13460
H3 H 0.83340 0.92280 0.07180
C8 C 0.7117(7) 0.8281(5) 0.1023(4)
H4 H 0.68800 0.80540 0.14190
H5 H 0.75750 0.78230 0.08000
C9 C 0.5772(8) 0.8547(5) 0.0680(4)
H6 H 0.51310 0.80610 0.06280
H7 H 0.60010 0.87630 0.02850
H8 H 0.53050 0.89920 0.09030
C10 C 1.0687(11) 0.9379(7) 0.1345(4)
H9 H 1.14600 0.93060 0.16620
H10 H 1.02940 0.99550 0.13850
C11 C 1.1307(15) 0.9299(7) 0.0737(6)
H11 H 1.05260 0.93010 0.04190
H12 H 1.18220 0.87550 0.07150
C12 C 1.2321(9) 1.0020(6) 0.0632(4)
H13 H 1.25970 1.00050 0.02140
H14 H 1.31730 0.99630 0.09040
H15 H 1.18490 1.05580 0.07080
C13 C 0.9328(8) 0.8629(5) 0.2106(3)
H16 H 0.92450 0.91900 0.22970
H17 H 0.84230 0.83220 0.21530
C14 C 1.0513(11) 0.8153(8) 0.2421(4)
H18 H 1.14270 0.84370 0.23500
H19 H 1.05510 0.75760 0.22500
C15 C 1.035(2) 0.8091(10) 0.3084(5)
H20 H 1.11280 0.77520 0.32690
H21 H 0.94340 0.78220 0.31560
H22 H 1.03730 0.86590 0.32600
N2 N 0.6713(8) 0.8194(5) 0.4277(8)
H23 H 0.66280 0.81670 0.38590
C16 C 0.7943(7) 0.8776(4) 0.4451(3)
H24 H 0.80260 0.88240 0.48940
H25 H 0.88330 0.85140 0.43230
C17 C 0.7831(15) 0.9643(7) 0.4191(10)
H26 H 0.69830 0.99310 0.43380
H27 H 0.77130 0.96070 0.37470
C18 C 0.9173(10) 1.0155(5) 0.4371(4)
C19 C 0.5337(6) 0.8538(4) 0.4488(3)
H28 H 0.51560 0.90950 0.42970
H29 H 0.54520 0.86300 0.49280
C20 C 0.4052(9) 0.7987(10) 0.4358(11)
H30 H 0.41480 0.74580 0.45940
H31 H 0.39760 0.78360 0.39260
C21 C 0.2717(9) 0.8463(8) 0.4523(5)
C22 C 0.7020(8) 0.7318(5) 0.4509(4)
H32 H 0.61770 0.69580 0.44100
H33 H 0.71590 0.73420 0.49520
C23 C 0.8316(9) 0.6904(5) 0.4260(6)
H34 H 0.91950 0.71790 0.44320
H35 H 0.82850 0.69720 0.38180
C24 C 0.8336(14) 0.5962(5) 0.4422(6)
O13 O 0.0234(4) 0.7130(2) 0.10342(17)
O14 O 0.2250(5) 0.7389(3) 0.1111(2)
O15 O 0.1063(6) 0.5775(4) 0.0905(2)
N3? N 1.0093(8) 0.8476(5) 0.1501(3)
H36? H 1.08570 0.81210 0.14350
C25? C 0.8877(7) 0.8184(5) 0.1096(3)
H37? H 0.86840 0.75830 0.11830
H38? H 0.91520 0.82220 0.06750
C26? C 0.7535(9) 0.8683(7) 0.1159(5)
H39? H 0.76990 0.92820 0.10560
H40? H 0.72530 0.86570 0.15800
C27? C 0.6348(11) 0.8316(10) 0.0739(6)
H41? H 0.54710 0.86420 0.07780
H42? H 0.61830 0.77250 0.08460
H43? H 0.66300 0.83470 0.03230
C28? C 1.057(2) 0.9355(10) 0.1371(6)
H44? H 1.13660 0.95060 0.16610
H45? H 0.97720 0.97490 0.14360
C29? C 1.104(2) 0.9478(9) 0.0745(7)
H46? H 1.02070 0.94270 0.04540
H47? H 1.17300 0.90290 0.06530
C30? C 1.173(1) 1.0335(6) 0.0674(5)
H48? H 1.22210 1.03480 0.02980
H49? H 1.24200 1.04360 0.10140
H50? H 1.09950 1.07750 0.06650
C31? C 0.9757(12) 0.8368(8) 0.2152(4)
H51? H 0.94970 0.89260 0.23130
H52? H 0.89130 0.79960 0.21690
C32? C 1.0902(16) 0.8017(13) 0.2539(6)
H53? H 1.17160 0.84150 0.25550
H54? H 1.12260 0.74820 0.23600
C33? C 1.049(3) 0.7844(12) 0.3168(5)
H55? H 1.13250 0.76500 0.34130
H56? H 0.97490 0.74060 0.31590
H57? H 1.01180 0.83630 0.33410
N4? N 0.6662(11) 0.8115(7) 0.4209(11)
H58? H 0.65600 0.81040 0.37920
C34? C 0.6891(12) 0.9023(6) 0.4398(5)
H59? H 0.60210 0.93520 0.42830
H60? H 0.70430 0.90490 0.48410
C35? C 0.815(2) 0.9423(9) 0.4116(12)
H61? H 0.80160 0.93850 0.36730
H62? H 0.90280 0.91120 0.42440
C36? C 0.830(2) 1.0338(9) 0.4300(12)
H63? H 0.91320 1.05830 0.41180
H64? H 0.84310 1.03760 0.47390
H65? H 0.74420 1.06500 0.41630
C37? C 0.5331(8) 0.7752(7) 0.4443(5)
H66? H 0.52400 0.71590 0.43040
H67? H 0.54390 0.77420 0.48880
C38? C 0.3982(12) 0.8206(16) 0.4260(15)
H68? H 0.38850 0.82460 0.38160
H69? H 0.40270 0.87870 0.44240
C39? C 0.2688(11) 0.7761(12) 0.4484(7)
H70? H 0.18300 0.80900 0.43720
H71? H 0.27920 0.77060 0.49220
H72? H 0.26050 0.71980 0.43020
C40? C 0.7937(11) 0.7573(6) 0.4398(5)
H73? H 0.88000 0.78290 0.42390
H74? H 0.80620 0.75760 0.48420
C41? C 0.7830(16) 0.6681(8) 0.4189(8)
H75? H 0.75460 0.66790 0.37540
H76? H 0.70630 0.63990 0.44010
C42? C 0.9168(14) 0.6176(9) 0.4287(6)
H77? H 0.90010 0.55980 0.41420
H78? H 0.94520 0.61620 0.47180
H79? H 0.99280 0.64360 0.40670
N5? N 0.6251(16) 0.8449(11) 0.4051(8)
H80? H 0.64880 0.84220 0.36510
C43? C 0.652(2) 0.9350(11) 0.4244(11)
H81? H 0.64760 0.93890 0.46860
H82? H 0.57630 0.97150 0.40580
C44? C 0.795(4) 0.9672(18) 0.407(3)
H83? H 0.87200 0.93270 0.42700
H84? H 0.80210 0.96140 0.36300
C45? C 0.816(3) 1.0583(13) 0.4246(18)
H85? H 0.90880 1.07790 0.41230
H86? H 0.81210 1.06380 0.46830
H87? H 0.74020 1.09250 0.40460
C46? C 0.4707(16) 0.8229(16) 0.4047(8)
H88? H 0.45740 0.76590 0.38690
H89? H 0.41690 0.86330 0.37810
C47? C 0.407(2) 0.823(3) 0.4649(10)
H90? H 0.42610 0.87820 0.48520
H91? H 0.45000 0.77810 0.49060
C48? C 0.247(2) 0.810(3) 0.4567(18)
H92? H 0.20690 0.80230 0.49610
H93? H 0.22740 0.75890 0.43220
H94? H 0.20220 0.85870 0.43640
C49? C 0.721(2) 0.7836(12) 0.4382(12)
H95? H 0.70490 0.78800 0.48160
H96? H 0.82100 0.80040 0.43280
C50? C 0.703(3) 0.6935(11) 0.4197(12)
H97? H 0.69090 0.69060 0.37530
H98? H 0.61520 0.67090 0.43620
C51? C 0.827(5) 0.6386(18) 0.4406(17)
H99? H 0.80870 0.58010 0.42800
H100? H 0.84040 0.64120 0.48450
H101? H 0.91410 0.65890 0.42270
O16? O 0.3113(5) 0.6825(3) 0.09408(19)
O17? O 0.140(4) 0.5273(16) 0.0869(13)
Cu2* Cu 1.05730(3) 0.50378(2) 0.249369(18)
Cu2A Cu 0.44270(3) 1.00378(2) 0.250631(18)
O7A O 0.1094(2) 0.38687(12) 0.30652(10)
O8A O -0.0452(2) 0.41525(13) 0.20155(11)
O11* O -0.0654(2) 0.60588(13) 0.19045(11)
O12* O -0.1147(2) 0.52256(13) 0.29542(10)
#END
