
#######################################################################
#
#                 Cambridge Crystallographic Data Centre
#                                CCDC
#
#######################################################################
#
# If this CIF has been generated from an entry in the Cambridge
# Structural Database, then it will include bibliographic, chemical,
# crystal, experimental, refinement or atomic coordinate data resulting
# from the CCDC's data processing and validation procedures.
#
#######################################################################

data_CSD_CIF_LOTMOY03
_audit_creation_date 2015-01-05
_audit_creation_method CSD-ConQuest-V1
_database_code_CSD LOTMOY03
_database_code_depnum_ccdc_archive 'CCDC 990498'
_chemical_formula_sum 'C24 H48.4 Cu2 N2 O14.2'
_chemical_formula_moiety
;
(C9 H22 N1 1+)2n,n(C6 Cu2 O12 2-),2.2n(H2 O1)
;
_journal_coden_Cambridge 1540
_journal_volume 4
_journal_year 2014
_journal_page_first 6451
_journal_name_full 'Scientific Reports '
loop_
_publ_author_name
"Bin Zhang"
"Yan Zhang"
"Zheming Wang"
"Dongwei Wang"
"P.J.Baker"
"F.L.Pratt"
"Daoben Zhu"
_chemical_name_systematic
;
catena-[bis(Triethylammonium) tris(\m~2~-oxalato)-di-copper(ii) hydrate]
;
_cell_volume   3332.986
_exptl_crystal_colour 'blue'
_exptl_crystal_density_diffrn 1.434
_exptl_crystal_description 'plate'
_diffrn_ambient_temperature 180
_refine_special_details
;
The structure is disordered.

;
#These two values have been output from a single CSD field.
_refine_ls_R_factor_gt 0.0436
_refine_ls_wR_factor_gt 0.0436
_symmetry_cell_setting monoclinic
_symmetry_space_group_name_H-M 'P 21/n'
_symmetry_Int_Tables_number 14
loop_
_symmetry_equiv_pos_site_id
_symmetry_equiv_pos_as_xyz
1 x,y,z
2 1/2-x,1/2+y,1/2-z
3 -x,-y,-z
4 -1/2+x,-1/2-y,-1/2+z
_cell_length_a 9.3909(1)
_cell_length_b 15.8784(2)
_cell_length_c 22.3876(4)
_cell_angle_alpha 90
_cell_angle_beta 93.2243(5)
_cell_angle_gamma 90
_cell_formula_units_Z 4
loop_
_atom_type_symbol
_atom_type_radius_bond
C 0.68
H 0.23
Cu 1.32
N 0.68
O 0.68
loop_
_atom_site_label
_atom_site_type_symbol
_atom_site_fract_x
_atom_site_fract_y
_atom_site_fract_z
Cu1 Cu 0.55265(4) 0.66240(2) 0.245157(17)
Cu2 Cu 0.05499(4) 0.50336(2) 0.248306(18)
O1 O 0.4296(2) 0.56060(14) 0.1909(1)
O2 O 0.3840(2) 0.64678(13) 0.2941(1)
O3 O 0.2198(2) 0.49777(13) 0.19808(10)
O4 O 0.1708(2) 0.58607(13) 0.29489(10)
O5 O 0.4533(2) 0.75194(13) 0.19795(10)
O6 O 0.6132(2) 0.78115(13) 0.30094(10)
O7 O 0.3909(2) 0.88688(13) 0.19512(10)
O8 O 0.5459(2) 0.91465(13) 0.29913(11)
O9 O 0.7205(2) 0.66777(14) 0.19623(11)
O10 O 0.6682(2) 0.58000(13) 0.29269(10)
O11 O 0.9313(2) 0.60526(14) 0.19011(11)
O12 O 0.8822(2) 0.52145(14) 0.29434(10)
C1 C 0.3176(3) 0.54841(18) 0.21540(14)
C2 C 0.2892(3) 0.59864(17) 0.27284(13)
C3 C 0.4559(3) 0.82607(18) 0.21826(14)
C4 C 0.5460(3) 0.84145(19) 0.27757(15)
C5 C 0.8172(3) 0.61743(18) 0.21382(15)
C6 C 0.7880(3) 0.56855(18) 0.27163(14)
N1 N 0.9546(5) 0.8741(3) 0.1447(2)
H1 H 0.98290 0.82280 0.12910
C7 C 0.8140(6) 0.8987(4) 0.1125(3)
H2 H 0.76800 0.94250 0.13620
H3 H 0.83410 0.92380 0.07340
C8 C 0.7130(8) 0.8283(5) 0.1022(4)
H4 H 0.68890 0.80460 0.14130
H5 H 0.75950 0.78340 0.07960
C9 C 0.5793(8) 0.8548(6) 0.0685(4)
H6 H 0.51520 0.80640 0.06320
H7 H 0.60220 0.87650 0.02910
H8 H 0.53250 0.89910 0.09080
C10 C 1.0700(8) 0.9370(5) 0.1352(3)
H9 H 1.03050 0.99430 0.13930
H10 H 1.14670 0.92960 0.16690
C11 C 1.1335(14) 0.9303(7) 0.0758(6)
H11 H 1.05570 0.92920 0.04410
H12 H 1.18630 0.87650 0.07400
C12 C 1.2328(10) 1.0016(7) 0.0639(4)
H13 H 1.25920 0.99920 0.02220
H14 H 1.31890 0.99690 0.09050
H15 H 1.18530 1.05530 0.07110
C13 C 0.9340(7) 0.8617(5) 0.2108(3)
H16 H 0.92650 0.91760 0.22990
H17 H 0.84290 0.83160 0.21540
C14 C 1.0487(13) 0.8146(8) 0.2418(4)
H18 H 1.14070 0.84130 0.23330
H19 H 1.04930 0.75680 0.22530
C15 C 1.039(3) 0.8091(10) 0.3075(5)
H20 H 1.11860 0.77490 0.32460
H21 H 0.94870 0.78290 0.31670
H22 H 1.04480 0.86580 0.32480
O13 O 0.0237(4) 0.7132(2) 0.10333(17)
O14 O 0.2268(6) 0.7398(4) 0.1104(2)
O15 O 0.1041(6) 0.5792(5) 0.0903(3)
N2 N 0.6642(10) 0.8133(6) 0.4227(10)
H23 H 0.65400 0.81200 0.38110
C16 C 0.6897(12) 0.9037(6) 0.4411(5)
H24 H 0.60170 0.93650 0.43150
H25 H 0.70940 0.90590 0.48500
C17 C 0.811(2) 0.9440(11) 0.4114(12)
H26 H 0.79250 0.94110 0.36740
H27 H 0.89960 0.91270 0.42190
C18 C 0.829(2) 1.0351(10) 0.4301(11)
H28 H 0.91260 1.05880 0.41160
H29 H 0.84360 1.03830 0.47370
H30 H 0.74400 1.06710 0.41710
C19 C 0.5292(8) 0.7800(6) 0.4462(4)
H31 H 0.51860 0.72050 0.43350
H32 H 0.53990 0.78030 0.49040
C20 C 0.3958(11) 0.8245(13) 0.4281(9)
H33 H 0.38760 0.82880 0.38400
H34 H 0.40050 0.88240 0.44450
C21 C 0.2650(11) 0.7819(11) 0.4490(8)
H35 H 0.18070 0.81570 0.43740
H36 H 0.27320 0.77610 0.49270
H37 H 0.25570 0.72600 0.43070
C22 C 0.7891(10) 0.7579(6) 0.4415(5)
H38 H 0.87700 0.78440 0.42780
H39 H 0.79760 0.75600 0.48570
C23 C 0.7820(16) 0.6707(8) 0.4187(8)
H40 H 0.75980 0.67280 0.37500
H41 H 0.70140 0.64200 0.43690
C24 C 0.9117(15) 0.6185(10) 0.4300(9)
H42 H 0.89320 0.56120 0.41520
H43 H 0.93680 0.61670 0.47300
H44 H 0.99070 0.64310 0.40910
N3? N 1.0167(10) 0.8517(5) 0.1501(3)
H45? H 1.09430 0.81730 0.14340
C25? C 0.8932(8) 0.8203(5) 0.1121(4)
H46? H 0.87810 0.76010 0.12130
H47? H 0.91660 0.82410 0.06960
C26? C 0.7576(11) 0.8670(8) 0.1200(7)
H48? H 0.77140 0.92750 0.11150
H49? H 0.73030 0.86140 0.16190
C27? C 0.6393(13) 0.8315(13) 0.0777(8)
H50? H 0.55170 0.86410 0.08170
H51? H 0.62200 0.77250 0.08780
H52? H 0.66810 0.83520 0.03640
C28? C 1.056(2) 0.9406(10) 0.1336(7)
H53? H 0.97220 0.97730 0.13740
H54? H 1.13220 0.96070 0.16270
C29? C 1.107(2) 0.9501(10) 0.0726(7)
H55? H 1.02520 0.94370 0.04310
H56? H 1.17660 0.90510 0.06520
C30? C 1.1757(12) 1.0349(7) 0.0645(7)
H57? H 1.22420 1.03530 0.02680
H58? H 1.24530 1.04550 0.09790
H59? H 1.10240 1.07880 0.06340
C31? C 0.9907(15) 0.8477(10) 0.2155(4)
H60? H 0.99200 0.90600 0.23120
H61? H 0.89320 0.82550 0.21950
C32? C 1.085(2) 0.7995(15) 0.2529(6)
H62? H 1.17870 0.82780 0.25460
H63? H 1.09690 0.74420 0.23330
C33? C 1.047(3) 0.7835(13) 0.3147(6)
H64? H 1.13150 0.76430 0.33850
H65? H 0.97270 0.74010 0.31490
H66? H 1.01110 0.83560 0.33200
N4? N 0.6713(10) 0.8194(6) 0.4273(10)
H67? H 0.66270 0.81640 0.38580
C34? C 0.7930(9) 0.8780(5) 0.4439(4)
H68? H 0.80090 0.88320 0.48810
H69? H 0.88220 0.85160 0.43160
C35? C 0.784(2) 0.9633(9) 0.4183(12)
H70? H 0.69780 0.99170 0.43190
H71? H 0.77460 0.95930 0.37410
C36? C 0.9145(12) 1.0158(7) 0.4365(6)
C37? C 0.5315(8) 0.8519(6) 0.4483(4)
H72? H 0.54100 0.85940 0.49230
H73? H 0.51260 0.90800 0.43030
C38? C 0.4053(11) 0.7959(12) 0.4333(15)
H74? H 0.39700 0.78590 0.38950
H75? H 0.41980 0.74080 0.45340
C39? C 0.2704(15) 0.835(2) 0.4528(15)
C40? C 0.7025(10) 0.7318(6) 0.4504(5)
H76? H 0.71550 0.73420 0.49450
H77? H 0.61830 0.69590 0.44040
C41? C 0.8305(12) 0.6907(7) 0.4266(7)
H78? H 0.91780 0.71780 0.44440
H79? H 0.82900 0.69870 0.38270
C42? C 0.8342(19) 0.5970(7) 0.4408(9)
N5? N 0.631(2) 0.8380(16) 0.4063(12)
H80? H 0.65710 0.83510 0.36680
C43? C 0.658(3) 0.9277(16) 0.4254(15)
H81? H 0.58380 0.96380 0.40520
H82? H 0.64640 0.93180 0.46910
C44? C 0.801(4) 0.961(2) 0.412(3)
H83? H 0.81590 0.95200 0.36930
H84? H 0.87450 0.92850 0.43570
C45? C 0.818(6) 1.052(2) 0.427(2)
H85? H 0.91120 1.07150 0.41420
H86? H 0.81260 1.06070 0.46970
H87? H 0.74240 1.08440 0.40510
C46? C 0.476(2) 0.816(2) 0.4049(12)
H88? H 0.42570 0.85080 0.37370
H89? H 0.46540 0.75650 0.39260
C47? C 0.405(3) 0.828(4) 0.4618(15)
H90? H 0.45130 0.87440 0.48470
H91? H 0.41610 0.77590 0.48610
C48? C 0.249(4) 0.847(5) 0.452(3)
H92? H 0.20230 0.84050 0.48940
H93? H 0.20660 0.80760 0.42200
H94? H 0.23740 0.90470 0.43710
C49? C 0.725(3) 0.7765(18) 0.4400(17)
H95? H 0.82540 0.79410 0.43680
H96? H 0.70400 0.77950 0.48280
C50? C 0.711(3) 0.6876(16) 0.4203(17)
H97? H 0.69930 0.68640 0.37610
H98? H 0.62360 0.66370 0.43620
C51? C 0.834(6) 0.633(3) 0.439(3)
H99? H 0.81360 0.57470 0.42660
H100? H 0.84850 0.63450 0.48300
H101? H 0.91990 0.65280 0.42110
O16? O 0.3137(5) 0.6847(3) 0.09480(19)
O17? O 0.153(5) 0.5232(15) 0.0861(14)
Cu2* Cu 1.05499(4) 0.50336(2) 0.248306(18)
Cu2A Cu 0.44501(4) 1.00336(2) 0.251694(18)
O7A O 0.1091(2) 0.38688(13) 0.30488(10)
O8A O -0.0459(2) 0.41465(13) 0.20087(11)
O11* O -0.0687(2) 0.60526(14) 0.19011(11)
O12* O -0.1178(2) 0.52145(14) 0.29434(10)
#END
