
#######################################################################
#
#                 Cambridge Crystallographic Data Centre
#                                CCDC
#
#######################################################################
#
# If this CIF has been generated from an entry in the Cambridge
# Structural Database, then it will include bibliographic, chemical,
# crystal, experimental, refinement or atomic coordinate data resulting
# from the CCDC's data processing and validation procedures.
#
#######################################################################

data_CSD_CIF_LOTMOY04
_audit_creation_date 2015-01-05
_audit_creation_method CSD-ConQuest-V1
_database_code_CSD LOTMOY04
_database_code_depnum_ccdc_archive 'CCDC 990499'
_chemical_formula_sum 'C24 H48.4 Cu2 N2 O14.2'
_chemical_formula_moiety
;
(C9 H22 N1 1+)2n,n(C6 Cu2 O12 2-),2.2n(H2 O1)
;
_journal_coden_Cambridge 1540
_journal_volume 4
_journal_year 2014
_journal_page_first 6451
_journal_name_full 'Scientific Reports '
loop_
_publ_author_name
"Bin Zhang"
"Yan Zhang"
"Zheming Wang"
"Dongwei Wang"
"P.J.Baker"
"F.L.Pratt"
"Daoben Zhu"
_chemical_name_systematic
;
catena-[bis(Triethylammonium) tris(\m~2~-oxalato)-di-copper(ii) hydrate]
;
_cell_volume   3373.516
_exptl_crystal_colour 'blue'
_exptl_crystal_density_diffrn 1.416
_exptl_crystal_description 'plate'
_diffrn_ambient_temperature 230
_refine_special_details
;
The structure is disordered.

;
#These two values have been output from a single CSD field.
_refine_ls_R_factor_gt 0.0425
_refine_ls_wR_factor_gt 0.0425
_symmetry_cell_setting monoclinic
_symmetry_space_group_name_H-M 'P 21/n'
_symmetry_Int_Tables_number 14
loop_
_symmetry_equiv_pos_site_id
_symmetry_equiv_pos_as_xyz
1 x,y,z
2 1/2-x,1/2+y,1/2-z
3 -x,-y,-z
4 -1/2+x,-1/2-y,-1/2+z
_cell_length_a 9.3787(1)
_cell_length_b 15.9582(2)
_cell_length_c 22.5721(4)
_cell_angle_alpha 90
_cell_angle_beta 93.0504(5)
_cell_angle_gamma 90
_cell_formula_units_Z 4
loop_
_atom_type_symbol
_atom_type_radius_bond
C 0.68
H 0.23
Cu 1.32
N 0.68
O 0.68
loop_
_atom_site_label
_atom_site_type_symbol
_atom_site_fract_x
_atom_site_fract_y
_atom_site_fract_z
Cu1 Cu 0.54891(3) 0.66248(2) 0.245092(17)
Cu2 Cu 0.05090(3) 0.50304(2) 0.247159(17)
O1 O 0.4253(2) 0.56211(14) 0.19021(10)
O2 O 0.3793(2) 0.64587(13) 0.29329(10)
O3 O 0.2157(2) 0.49897(13) 0.19702(10)
O4 O 0.1664(2) 0.58524(12) 0.29383(9)
O5 O 0.4508(2) 0.75285(12) 0.19898(9)
O6 O 0.6100(2) 0.78004(13) 0.30139(9)
O7 O 0.3920(2) 0.88733(12) 0.19664(10)
O8 O 0.5479(2) 0.91345(13) 0.29949(10)
O9 O 0.7170(2) 0.66753(13) 0.19633(10)
O10 O 0.6639(2) 0.57960(12) 0.29149(9)
O11 O 0.9264(2) 0.60425(13) 0.18947(10)
O12 O 0.8773(2) 0.52048(14) 0.29276(10)
C1 C 0.3133(3) 0.54948(17) 0.21461(14)
C2 C 0.2847(3) 0.59799(17) 0.27211(13)
C3 C 0.4547(3) 0.82644(18) 0.21939(13)
C4 C 0.5460(3) 0.84077(18) 0.27813(13)
C5 C 0.8133(3) 0.61728(17) 0.21326(14)
C6 C 0.7836(3) 0.56798(17) 0.27051(13)
N1 N 0.9569(5) 0.8716(4) 0.1466(2)
H1 H 0.98630 0.82250 0.12970
C7 C 0.8150(6) 0.8963(4) 0.1149(3)
H2 H 0.76740 0.93700 0.13970
H3 H 0.83540 0.92450 0.07780
C8 C 0.7170(8) 0.8282(5) 0.1014(5)
H4 H 0.69260 0.80140 0.13860
H5 H 0.76520 0.78630 0.07780
C9 C 0.5845(9) 0.8542(7) 0.0688(5)
H6 H 0.52130 0.80630 0.06360
H7 H 0.60680 0.87580 0.03020
H8 H 0.53800 0.89740 0.09090
C10 C 1.0705(7) 0.9362(4) 0.1376(3)
H9 H 1.03200 0.99200 0.14530
H10 H 1.15110 0.92630 0.16620
C11 C 1.1226(14) 0.9341(8) 0.0764(5)
H11 H 1.04110 0.93810 0.04750
H12 H 1.17100 0.88070 0.07000
C12 C 1.2247(13) 1.0056(8) 0.0667(6)
H13 H 1.25260 1.00490 0.02600
H14 H 1.30870 0.99930 0.09330
H15 H 1.17810 1.05830 0.07470
C13 C 0.9395(7) 0.8541(5) 0.2112(2)
H16 H 0.92030 0.90730 0.23100
H17 H 0.85540 0.81840 0.21460
C14 C 1.0626(10) 0.8133(5) 0.2433(4)
H18 H 1.14780 0.84860 0.24130
H19 H 1.08220 0.75910 0.22500
C15 C 1.026(2) 0.8009(13) 0.3075(5)
H20 H 1.10030 0.76780 0.32790
H21 H 0.93550 0.77210 0.30880
H22 H 1.01980 0.85510 0.32670
O13 O 0.0256(4) 0.7130(2) 0.10323(17)
O14 O 0.2267(7) 0.7404(4) 0.1087(2)
O15 O 0.0980(7) 0.5823(5) 0.0910(3)
N2 N 0.6610(9) 0.8146(6) 0.4235(8)
H23 H 0.64870 0.81310 0.38280
C16 C 0.6942(13) 0.9041(5) 0.4416(6)
H24 H 0.61020 0.93890 0.43190
H25 H 0.71350 0.90620 0.48460
C17 C 0.8186(18) 0.9397(9) 0.4120(9)
H26 H 0.79980 0.93690 0.36890
H27 H 0.90290 0.90520 0.42200
C18 C 0.851(3) 1.0289(11) 0.4292(9)
H28 H 0.93410 1.04800 0.40930
H29 H 0.87000 1.03230 0.47180
H30 H 0.76980 1.06410 0.41770
C19 C 0.5253(8) 0.7849(7) 0.4486(4)
H31 H 0.51540 0.72490 0.44040
H32 H 0.53450 0.79160 0.49180
C20 C 0.3924(11) 0.8270(14) 0.4267(9)
H33 H 0.38620 0.82520 0.38330
H34 H 0.39620 0.88600 0.43880
C21 C 0.2610(12) 0.7877(13) 0.4495(8)
H35 H 0.17820 0.82140 0.43770
H36 H 0.27030 0.78440 0.49250
H37 H 0.24930 0.73170 0.43320
C22 C 0.7856(10) 0.7579(6) 0.4415(5)
H38 H 0.87330 0.78370 0.42830
H39 H 0.79390 0.75500 0.48490
C23 C 0.7769(16) 0.6723(7) 0.4182(7)
H40 H 0.75870 0.67550 0.37510
H41 H 0.69430 0.64480 0.43460
C24 C 0.9035(19) 0.6184(9) 0.4305(13)
H42 H 0.88370 0.56240 0.41550
H43 H 0.92520 0.61590 0.47300
H44 H 0.98450 0.64160 0.41110
N3? N 1.0248(10) 0.8619(7) 0.1472(4)
H45? H 1.10210 0.82880 0.13990
C25? C 0.8972(9) 0.8251(6) 0.1153(4)
H46? H 0.88930 0.76630 0.12710
H47? H 0.91170 0.82640 0.07270
C26? C 0.7605(11) 0.8681(9) 0.1262(8)
H48? H 0.77170 0.92870 0.12130
H49? H 0.73410 0.85730 0.16690
C27? C 0.6427(14) 0.8356(15) 0.0822(8)
H50? H 0.55630 0.86800 0.08640
H51? H 0.62390 0.77710 0.09050
H52? H 0.67350 0.84120 0.04210
C28? C 1.053(2) 0.9494(9) 0.1229(7)
H53? H 0.96150 0.97410 0.10870
H54? H 1.09250 0.98460 0.15530
C29? C 1.150(3) 0.9507(14) 0.0746(12)
H55? H 1.10550 0.92170 0.04020
H56? H 1.23760 0.92040 0.08700
C30? C 1.188(2) 1.0379(14) 0.0572(12)
H57? H 1.23490 1.03650 0.01990
H58? H 1.25150 1.06240 0.08770
H59? H 1.10160 1.07130 0.05250
C31? C 1.0186(16) 0.8712(8) 0.2136(4)
H60? H 1.09610 0.90810 0.22830
H61? H 0.92800 0.89770 0.22260
C32? C 1.031(3) 0.7906(10) 0.2447(7)
H62? H 0.93920 0.76150 0.23980
H63? H 1.10200 0.75640 0.22540
C33? C 1.072(4) 0.795(2) 0.3082(7)
H64? H 1.16630 0.77120 0.31540
H65? H 1.00370 0.76320 0.33020
H66? H 1.07180 0.85280 0.32100
N4? N 0.6682(13) 0.8216(8) 0.4247(13)
H67? H 0.65870 0.81960 0.38390
C34? C 0.7883(15) 0.8817(9) 0.4409(9)
H68? H 0.80650 0.87980 0.48410
H69? H 0.87460 0.86130 0.42300
C35? C 0.767(3) 0.9681(10) 0.4237(15)
H70? H 0.67360 0.98600 0.43660
H71? H 0.76340 0.97100 0.38030
C36? C 0.876(6) 1.0291(19) 0.447(2)
C37? C 0.5275(11) 0.8505(9) 0.4463(6)
H72? H 0.53580 0.85450 0.48970
H73? H 0.50750 0.90690 0.43080
C38? C 0.4038(16) 0.7947(18) 0.429(2)
H74? H 0.39490 0.78980 0.38550
H75? H 0.42100 0.73860 0.44540
C39? C 0.2679(19) 0.829(4) 0.451(3)
C40? C 0.7044(17) 0.7339(8) 0.4460(9)
H76? H 0.71620 0.73460 0.48940
H77? H 0.62390 0.69690 0.43500
C41? C 0.8347(16) 0.6985(11) 0.4220(13)
H78? H 0.91820 0.72560 0.44170
H79? H 0.83510 0.71170 0.37960
C42? C 0.848(4) 0.6064(14) 0.430(2)
N5? N 0.639(3) 0.828(2) 0.4156(18)
H80? H 0.66710 0.82560 0.37720
C43? C 0.666(4) 0.917(2) 0.434(2)
H81? H 0.58290 0.95080 0.42170
H82? H 0.67540 0.91890 0.47780
C44? C 0.796(4) 0.955(2) 0.4103(13)
H83? H 0.78590 0.95400 0.36690
H84? H 0.87900 0.92070 0.42260
C45? C 0.821(3) 1.043(2) 0.431(3)
H85? H 0.91300 1.06170 0.41870
H86? H 0.81850 1.04520 0.47360
H87? H 0.74640 1.07880 0.41310
C46? C 0.484(3) 0.805(3) 0.4112(18)
H88? H 0.44200 0.82800 0.37390
H89? H 0.47620 0.74420 0.40900
C47? C 0.398(4) 0.835(5) 0.460(2)
H90? H 0.42420 0.89350 0.46920
H91? H 0.42270 0.80160 0.49560
C48? C 0.242(3) 0.830(5) 0.447(3)
H92? H 0.19360 0.82350 0.48310
H93? H 0.22100 0.78270 0.42080
H94? H 0.20960 0.88130 0.42690
C49? C 0.732(5) 0.766(2) 0.449(2)
H95? H 0.83150 0.78420 0.44710
H96? H 0.70820 0.76670 0.49050
C50? C 0.721(5) 0.679(2) 0.427(2)
H97? H 0.72010 0.67950 0.38380
H98? H 0.63030 0.65540 0.43860
C51? C 0.838(7) 0.623(3) 0.450(2)
H99? H 0.81760 0.56570 0.43670
H100? H 0.84540 0.62460 0.49260
H101? H 0.92760 0.64080 0.43420
O16? O 0.3177(5) 0.6861(3) 0.09593(19)
O17? O 0.201(9) 0.5186(18) 0.0842(14)
Cu2* Cu 1.05090(3) 0.50304(2) 0.247159(17)
Cu2A Cu 0.44910(3) 1.00304(2) 0.252841(17)
O7A O 0.1080(2) 0.38733(12) 0.30336(10)
O8A O -0.0479(2) 0.41345(13) 0.20051(10)
O11* O -0.0736(2) 0.60425(13) 0.18947(10)
O12* O -0.1227(2) 0.52048(14) 0.29276(10)
#END
