
#######################################################################
#
#                 Cambridge Crystallographic Data Centre
#                                CCDC
#
#######################################################################
#
# If this CIF has been generated from an entry in the Cambridge
# Structural Database, then it will include bibliographic, chemical,
# crystal, experimental, refinement or atomic coordinate data resulting
# from the CCDC's data processing and validation procedures.
#
#######################################################################

data_CSD_CIF_LOTMOY
_audit_creation_date 2015-01-05
_audit_creation_method CSD-ConQuest-V1
_database_code_CSD LOTMOY
_database_code_depnum_ccdc_archive 'CCDC 990501'
_chemical_formula_sum 'C24 H48.4 Cu2 N2 O14.2'
_chemical_formula_moiety
;
(C9 H22 N1 1+)2n,n(C6 Cu2 O12 2-),2.2n(H2 O1)
;
_journal_coden_Cambridge 1540
_journal_volume 4
_journal_year 2014
_journal_page_first 6451
_journal_name_full 'Scientific Reports '
loop_
_publ_author_name
"Bin Zhang"
"Yan Zhang"
"Zheming Wang"
"Dongwei Wang"
"P.J.Baker"
"F.L.Pratt"
"Daoben Zhu"
_chemical_name_systematic
;
catena-[bis(Triethylammonium) tris(\m~2~-oxalato)-di-copper(ii) hydrate]
;
_cell_volume   3420.600
_exptl_crystal_colour 'blue'
_exptl_crystal_density_diffrn 1.397
_exptl_crystal_description 'plate'
_diffrn_ambient_temperature 290
_refine_special_details
;
The structure is disordered.

;
#These two values have been output from a single CSD field.
_refine_ls_R_factor_gt 0.0544
_refine_ls_wR_factor_gt 0.0544
_symmetry_cell_setting monoclinic
_symmetry_space_group_name_H-M 'P 21/n'
_symmetry_Int_Tables_number 14
loop_
_symmetry_equiv_pos_site_id
_symmetry_equiv_pos_as_xyz
1 x,y,z
2 1/2-x,1/2+y,1/2-z
3 -x,-y,-z
4 -1/2+x,-1/2-y,-1/2+z
_cell_length_a 9.3696(1)
_cell_length_b 16.0340(2)
_cell_length_c 22.7991(4)
_cell_angle_alpha 90
_cell_angle_beta 92.9561(5)
_cell_angle_gamma 90
_cell_formula_units_Z 4
loop_
_atom_type_symbol
_atom_type_radius_bond
C 0.68
H 0.23
Cu 1.32
N 0.68
O 0.68
loop_
_atom_site_label
_atom_site_type_symbol
_atom_site_fract_x
_atom_site_fract_y
_atom_site_fract_z
Cu1 Cu 0.54594(4) 0.66665(3) 0.24510(2)
Cu2 Cu 0.04787(4) 0.50612(3) 0.24709(2)
O1 O 0.4220(3) 0.56723(17) 0.19041(13)
O2 O 0.3750(2) 0.64980(16) 0.29249(12)
O3 O 0.2133(3) 0.50355(16) 0.19745(13)
O4 O 0.1631(2) 0.58810(16) 0.29339(11)
O5 O 0.4500(3) 0.75686(15) 0.19937(11)
O6 O 0.6071(3) 0.78307(16) 0.30109(12)
O7 O 0.3934(3) 0.89108(16) 0.19690(11)
O8 O 0.5495(3) 0.91577(16) 0.29881(12)
O9 O 0.7148(3) 0.67129(15) 0.19677(12)
O10 O 0.6607(2) 0.58365(16) 0.29097(12)
O11 O 0.9236(3) 0.60694(16) 0.18980(12)
O12 O 0.8729(3) 0.52332(17) 0.29155(12)
C1 C 0.3103(4) 0.5535(2) 0.21458(17)
C2 C 0.2810(4) 0.6012(2) 0.27143(17)
C3 C 0.4549(3) 0.8305(2) 0.21969(16)
C4 C 0.5457(3) 0.8439(2) 0.27772(17)
C5 C 0.8107(4) 0.6203(2) 0.21333(17)
C6 C 0.7796(4) 0.5712(2) 0.27032(16)
N1 N 0.9691(5) 0.8712(3) 0.14685(18)
H1 H 1.00030 0.82310 0.13070
C7 C 0.8091(9) 0.8940(7) 0.1205(5)
H2 H 0.76290 0.92470 0.15090
H3 H 0.82070 0.93280 0.08840
C8 C 0.7238(12) 0.8410(8) 0.1023(5)
H4 H 0.69990 0.80950 0.13680
H5 H 0.77890 0.80350 0.07890
C9 C 0.5977(10) 0.8516(7) 0.0709(4)
H6 H 0.54640 0.79980 0.06920
H7 H 0.61610 0.86950 0.03180
H8 H 0.54170 0.89300 0.08960
C10 C 1.0649(6) 0.9413(4) 0.1337(3)
H9 H 1.01070 0.99260 0.13630
H10 H 1.14060 0.94320 0.16430
C11 C 1.1290(8) 0.9409(5) 0.0792(3)
H11 H 1.05530 0.93220 0.04830
H12 H 1.19460 0.89420 0.07830
C12 C 1.2081(10) 1.0189(6) 0.0664(3)
H13 H 1.23510 1.01810 0.02640
H14 H 1.29220 1.02260 0.09220
H15 H 1.14780 1.06620 0.07250
C13 C 0.9627(10) 0.8621(5) 0.2123(3)
H16 H 0.97430 0.91750 0.22900
H17 H 0.86660 0.84420 0.21990
C14 C 1.0505(7) 0.8129(5) 0.2426(2)
H18 H 1.14660 0.83030 0.23440
H19 H 1.03780 0.75740 0.22610
C15 C 1.0472(9) 0.8041(5) 0.3057(3)
H20 H 1.12670 0.77070 0.31990
H21 H 0.95960 0.77760 0.31540
H22 H 1.05310 0.85820 0.32370
N2 N 0.6572(5) 0.8197(3) 0.4221(2)
H23 H 0.64860 0.81830 0.38210
C16 C 0.7076(14) 0.9021(6) 0.4402(4)
H24 H 0.62330 0.93690 0.44210
H25 H 0.74670 0.89620 0.48020
C17 C 0.8014(10) 0.9459(6) 0.4121(4)
H26 H 0.76260 0.95160 0.37200
H27 H 0.88600 0.91130 0.41030
C18 C 0.8540(11) 1.0331(6) 0.4312(4)
H28 H 0.93630 1.04770 0.41000
H29 H 0.87920 1.03280 0.47260
H30 H 0.77950 1.07310 0.42300
C19 C 0.5174(11) 0.8101(10) 0.4444(4)
H31 H 0.52220 0.75550 0.46260
H32 H 0.51860 0.84930 0.47680
C20 C 0.3976(10) 0.8137(9) 0.4250(5)
H33 H 0.39600 0.77480 0.39240
H34 H 0.39180 0.86860 0.40720
C21 C 0.2566(10) 0.8029(9) 0.4490(4)
H35 H 0.19130 0.84300 0.43150
H36 H 0.26400 0.81110 0.49080
H37 H 0.22210 0.74770 0.44050
C22 C 0.7544(12) 0.7523(6) 0.4423(3)
H38 H 0.84520 0.77990 0.45070
H39 H 0.72050 0.73620 0.48020
C23 C 0.7872(14) 0.6840(8) 0.4185(4)
H40 H 0.81530 0.70110 0.38000
H41 H 0.69550 0.65670 0.41160
C24 C 0.8786(11) 0.6181(6) 0.4321(4)
H42 H 0.84140 0.56810 0.41390
H43 H 0.88670 0.61060 0.47390
H44 H 0.97120 0.62990 0.41790
O13 O 0.0249(5) 0.7146(3) 0.1038(2)
O14 O 0.2251(12) 0.7435(6) 0.1085(4)
O15 O 0.0942(11) 0.5856(9) 0.0913(4)
H45? H 1.04310 0.83450 0.14640
C25? C 0.894(2) 0.8253(11) 0.1157(9)
H46? H 0.90370 0.76990 0.13250
H47? H 0.93710 0.82320 0.07790
H48? H 0.69120 0.79720 0.12770
H49? H 0.71720 0.89090 0.12610
O16? O 0.3200(6) 0.6899(4) 0.0965(2)
O17? O 0.230(8) 0.514(3) 0.0792(13)
Cu2* Cu 1.04787(4) 0.50612(3) 0.24709(2)
Cu2A Cu 0.45213(4) 1.00612(3) 0.25291(2)
O7A O 0.1066(3) 0.39108(16) 0.30310(11)
O8A O -0.0495(3) 0.41577(16) 0.20119(12)
O11* O -0.0764(3) 0.60694(16) 0.18980(12)
O12* O -0.1271(3) 0.52332(17) 0.29155(12)
#END
