
#######################################################################
#
#                 Cambridge Crystallographic Data Centre
#                                CCDC
#
#######################################################################
#
# If this CIF has been generated from an entry in the Cambridge
# Structural Database, then it will include bibliographic, chemical,
# crystal, experimental, refinement or atomic coordinate data resulting
# from the CCDC's data processing and validation procedures.
#
#######################################################################

data_CSD_CIF_LOTMOY01
_audit_creation_date 2015-01-05
_audit_creation_method CSD-ConQuest-V1
_database_code_CSD LOTMOY01
_database_code_depnum_ccdc_archive 'CCDC 990496'
_chemical_formula_sum 'C24 H48.4 Cu2 N2 O14.2'
_chemical_formula_moiety
;
(C9 H22 N1 1+)2n,n(C6 Cu2 O12 2-),2.2n(H2 O1)
;
_journal_coden_Cambridge 1540
_journal_volume 4
_journal_year 2014
_journal_page_first 6451
_journal_name_full 'Scientific Reports '
loop_
_publ_author_name
"Bin Zhang"
"Yan Zhang"
"Zheming Wang"
"Dongwei Wang"
"P.J.Baker"
"F.L.Pratt"
"Daoben Zhu"
_chemical_name_systematic
;
catena-[bis(Triethylammonium) tris(\m~2~-oxalato)-di-copper(ii) hydrate]
;
_cell_volume   3287.257
_exptl_crystal_colour 'blue'
_exptl_crystal_density_diffrn 1.453
_exptl_crystal_description 'plate'
_diffrn_ambient_temperature 100
_refine_special_details
;
The structure is disordered.

;
#These two values have been output from a single CSD field.
_refine_ls_R_factor_gt 0.0415
_refine_ls_wR_factor_gt 0.0415
_symmetry_cell_setting monoclinic
_symmetry_space_group_name_H-M 'P 21/n'
_symmetry_Int_Tables_number 14
loop_
_symmetry_equiv_pos_site_id
_symmetry_equiv_pos_as_xyz
1 x,y,z
2 1/2-x,1/2+y,1/2-z
3 -x,-y,-z
4 -1/2+x,-1/2-y,-1/2+z
_cell_length_a 9.3963(2)
_cell_length_b 15.7906(2)
_cell_length_c 22.1918(4)
_cell_angle_alpha 90
_cell_angle_beta 93.2854(6)
_cell_angle_gamma 90
_cell_formula_units_Z 4
loop_
_atom_type_symbol
_atom_type_radius_bond
C 0.68
H 0.23
Cu 1.32
N 0.68
O 0.68
loop_
_atom_site_label
_atom_site_type_symbol
_atom_site_fract_x
_atom_site_fract_y
_atom_site_fract_z
Cu1 Cu 0.55626(3) 0.66290(2) 0.244356(16)
Cu2 Cu 0.05932(3) 0.50449(2) 0.250287(16)
O1 O 0.4338(2) 0.55912(12) 0.19128(9)
O2 O 0.38876(18) 0.64923(11) 0.29446(8)
O3 O 0.22386(19) 0.49627(11) 0.19990(9)
O4 O 0.17618(18) 0.58813(11) 0.29651(8)
O5 O 0.45607(18) 0.75163(11) 0.19560(9)
O6 O 0.6174(2) 0.78296(12) 0.29932(10)
O7 O 0.39042(19) 0.88721(11) 0.19237(9)
O8 O 0.5436(2) 0.91626(12) 0.29786(10)
O9 O 0.7238(2) 0.66744(13) 0.19512(11)
O10 O 0.67201(18) 0.58169(12) 0.29343(9)
O11 O 0.93766(19) 0.60683(12) 0.19095(10)
O12 O 0.88752(19) 0.52394(12) 0.2964(1)
C1 C 0.3219(3) 0.54735(15) 0.21645(12)
C2 C 0.2943(2) 0.60026(15) 0.27373(11)
C3 C 0.4565(2) 0.82668(16) 0.21615(13)
C4 C 0.5473(3) 0.84326(17) 0.27609(14)
C5 C 0.8215(3) 0.61829(16) 0.21422(14)
C6 C 0.7926(3) 0.57034(17) 0.27276(14)
N1 N 0.9525(5) 0.8755(3) 0.14428(19)
H1 H 0.98570 0.82510 0.12870
C7 C 0.8130(6) 0.8996(4) 0.1111(2)
H2 H 0.76710 0.94490 0.13390
H3 H 0.83340 0.92290 0.07110
C8 C 0.7111(7) 0.8275(5) 0.1024(3)
H4 H 0.68710 0.80530 0.14230
H5 H 0.75700 0.78140 0.08030
C9 C 0.5764(7) 0.8545(6) 0.0675(4)
H6 H 0.51200 0.80590 0.06230
H7 H 0.59980 0.87590 0.02780
H8 H 0.52970 0.89940 0.08970
C10 C 1.0606(14) 0.9431(9) 0.1378(5)
H9 H 1.14360 0.93240 0.16630
H10 H 1.01920 0.99860 0.14810
C11 C 1.1095(19) 0.9462(8) 0.0742(6)
H11 H 1.02740 0.94000 0.04450
H12 H 1.17850 0.90030 0.06760
C12 C 1.1794(9) 1.0325(4) 0.0679(3)
H13 H 1.21170 1.03880 0.02700
H14 H 1.26130 1.03710 0.09720
H15 H 1.11030 1.07710 0.07570
C13 C 0.9315(8) 0.8647(5) 0.2114(3)
H16 H 0.92320 0.92120 0.23020
H17 H 0.84130 0.83380 0.21660
C14 C 1.0516(10) 0.8175(7) 0.2429(4)
H18 H 1.14230 0.84740 0.23700
H19 H 1.05810 0.76020 0.22520
C15 C 1.0293(17) 0.8101(9) 0.3101(4)
H20 H 1.10750 0.77730 0.32970
H21 H 0.93860 0.78150 0.31590
H22 H 1.02750 0.86680 0.32800
N2? N 1.0065(6) 0.8456(4) 0.1503(2)
H23? H 1.07930 0.80710 0.14450
C16? C 0.8855(6) 0.8172(4) 0.1085(3)
H24? H 0.91480 0.82100 0.06650
H25? H 0.86470 0.75700 0.11690
C17? C 0.7530(8) 0.8677(6) 0.1141(4)
H26? H 0.77160 0.92770 0.10420
H27? H 0.72380 0.86520 0.15620
C18? C 0.6329(10) 0.8333(9) 0.0715(5)
H28? H 0.54620 0.86660 0.07610
H29? H 0.61480 0.77400 0.08130
H30? H 0.66090 0.83750 0.02970
C19? C 1.066(2) 0.9296(10) 0.1336(6)
H31? H 1.14110 0.94650 0.16450
H32? H 0.98970 0.97270 0.13320
C20? C 1.129(2) 0.9276(10) 0.0726(8)
H33? H 1.05050 0.93090 0.04100
H34? H 1.17780 0.87260 0.06790
C21? C 1.235(1) 0.9986(6) 0.0619(4)
H35? H 1.27600 0.99030 0.02270
H36? H 1.31130 0.99770 0.09390
H37? H 1.18570 1.05320 0.06220
C22? C 0.9718(9) 0.8341(6) 0.2146(3)
H38? H 0.93960 0.88890 0.23060
H39? H 0.89170 0.79350 0.21630
C23? C 1.0926(12) 0.8029(9) 0.2534(5)
H40? H 1.17010 0.84550 0.25450
H41? H 1.12950 0.75010 0.23600
C24? C 1.051(2) 0.7856(9) 0.3173(5)
H42? H 1.13470 0.76560 0.34170
H43? H 0.97650 0.74220 0.31660
H44? H 1.01530 0.83780 0.33490
N3? N 0.6661(11) 0.8100(7) 0.4195(10)
H45? H 0.65660 0.80840 0.37760
C25? C 0.6882(10) 0.9009(6) 0.4389(5)
H46? H 0.70190 0.90320 0.48340
H47? H 0.60170 0.93400 0.42690
C26? C 0.8154(17) 0.9408(8) 0.4114(11)
H48? H 0.80650 0.93420 0.36700
H49? H 0.90360 0.91150 0.42650
C27? C 0.826(2) 1.0350(9) 0.4275(13)
H50? H 0.90880 1.05980 0.40930
H51? H 0.83580 1.04140 0.47140
H52? H 0.73910 1.06410 0.41190
C28? C 0.5334(8) 0.7724(6) 0.4438(4)
H53? H 0.52360 0.71320 0.42940
H54? H 0.54530 0.77080 0.48840
C29? C 0.3982(12) 0.8194(15) 0.4261(14)
H55? H 0.38860 0.82520 0.38160
H56? H 0.40270 0.87700 0.44380
C30? C 0.2686(10) 0.7728(10) 0.4480(6)
H57? H 0.18210 0.80520 0.43680
H58? H 0.27840 0.76670 0.49200
H59? H 0.26190 0.71670 0.42920
C31? C 0.7939(10) 0.7564(6) 0.4399(4)
H60? H 0.88070 0.78170 0.42420
H61? H 0.80480 0.75750 0.48450
C32? C 0.7818(15) 0.6659(8) 0.4192(7)
H62? H 0.75110 0.66490 0.37580
H63? H 0.70740 0.63720 0.44150
C33? C 0.9199(13) 0.6175(7) 0.4285(5)
H64? H 0.90610 0.55930 0.41410
H65? H 0.94960 0.61690 0.47160
H66? H 0.99370 0.64500 0.40590
N4 N 0.6717(7) 0.8196(4) 0.4283(6)
H67 H 0.66370 0.81710 0.38630
C34 C 0.7933(6) 0.8780(3) 0.4458(3)
H68 H 0.79970 0.88360 0.49030
H69 H 0.88290 0.85140 0.43390
C35 C 0.7833(14) 0.9645(6) 0.4189(8)
H70 H 0.69770 0.99370 0.43270
H71 H 0.77350 0.96010 0.37430
C36 C 0.9171(8) 1.0162(4) 0.4376(3)
C37 C 0.5340(5) 0.8547(4) 0.4492(3)
H72 H 0.51590 0.91020 0.42950
H73 H 0.54540 0.86480 0.49330
C38 C 0.4055(8) 0.7989(8) 0.4365(9)
H74 H 0.41500 0.74640 0.46080
H75 H 0.39810 0.78300 0.39330
C39 C 0.2713(8) 0.8474(6) 0.4527(4)
C40 C 0.7013(6) 0.7316(4) 0.4512(3)
H76 H 0.61730 0.69560 0.44060
H77 H 0.71380 0.73350 0.49580
C41 C 0.8328(8) 0.6906(4) 0.4264(5)
H78 H 0.92000 0.71880 0.44350
H79 H 0.82980 0.69690 0.38190
C42 C 0.8358(11) 0.5959(5) 0.4432(5)
N5? N 0.6250(12) 0.8489(8) 0.4041(7)
H80? H 0.64890 0.84570 0.36410
C43? C 0.6519(15) 0.9386(9) 0.4234(7)
H81? H 0.64770 0.94240 0.46780
H82? H 0.57550 0.97500 0.40500
C44? C 0.795(3) 0.9714(14) 0.4055(19)
H83? H 0.79930 0.96870 0.36100
H84? H 0.87200 0.93520 0.42360
C45? C 0.817(3) 1.0620(12) 0.4266(17)
H85? H 0.91010 1.08230 0.41460
H86? H 0.81450 1.06440 0.47060
H87? H 0.74160 1.09790 0.40810
C46? C 0.4703(12) 0.8262(11) 0.4043(6)
H88? H 0.45670 0.76950 0.38590
H89? H 0.41520 0.86710 0.37840
C47? C 0.4097(17) 0.825(2) 0.4657(8)
H90? H 0.42710 0.88060 0.48580
H91? H 0.45700 0.78080 0.49100
C48? C 0.2488(17) 0.8081(19) 0.4587(12)
H92? H 0.21130 0.80050 0.49860
H93? H 0.23160 0.75660 0.43470
H94? H 0.20090 0.85610 0.43820
C49? C 0.7200(16) 0.7872(10) 0.4382(9)
H95? H 0.82040 0.80370 0.43340
H96? H 0.70230 0.79130 0.48160
C50? C 0.701(2) 0.6972(9) 0.4186(9)
H97? H 0.69120 0.69510 0.37400
H98? H 0.61080 0.67540 0.43400
C51? C 0.822(3) 0.6398(13) 0.4406(10)
H99? H 0.80150 0.58160 0.42760
H100? H 0.83290 0.64190 0.48470
H101? H 0.91060 0.65890 0.42360
O13 O 0.0228(4) 0.7135(2) 0.10361(16)
O14 O 0.2245(4) 0.7386(3) 0.11134(18)
O15? O 0.3090(4) 0.6823(3) 0.09338(18)
O16 O 0.1087(5) 0.5763(3) 0.0910(2)
O17? O 0.138(2) 0.5311(11) 0.0834(9)
Cu2* Cu 1.05932(3) 0.50449(2) 0.250287(16)
Cu2A Cu 0.44068(3) 1.00449(2) 0.249713(16)
O7A O 0.10958(19) 0.38721(11) 0.30763(9)
O8A O -0.0436(2) 0.41626(12) 0.20214(10)
O11* O -0.06234(19) 0.60683(12) 0.19095(10)
O12* O -0.11248(19) 0.52394(12) 0.2964(1)
#END
