
#######################################################################
#
#                 Cambridge Crystallographic Data Centre
#                                CCDC
#
#######################################################################
#
# If this CIF has been generated from an entry in the Cambridge
# Structural Database, then it will include bibliographic, chemical,
# crystal, experimental, refinement or atomic coordinate data resulting
# from the CCDC's data processing and validation procedures.
#
#######################################################################

data_CSD_CIF_LOTPAN
_audit_creation_date 2015-01-05
_audit_creation_method CSD-ConQuest-V1
_database_code_CSD LOTPAN
_database_code_depnum_ccdc_archive 'CCDC 1006424'
_chemical_formula_sum 'C33 H29 Cu3 N8 O40 Si1 W12'
_chemical_formula_moiety
;
(C10 H8 Cu1 N2 1+)3n,n(H1 O40 Si1 W12 3-),n(C3 H4 N2)
;
_journal_coden_Cambridge 1350
_journal_volume 17
_journal_year 2015
_journal_page_first 1336
_journal_name_full 'CrystEngComm '
loop_
_publ_author_name
"Li-Na Xiao"
"La-Mei Wang"
"Xiao-Nan Shan"
"Hai-Yang Guo"
"Li-Wei Fu"
"Yang-Yang Hu"
"Xiao-Bing Cui"
"Ke-Chang Li"
"Ji-Qing Xu"
_chemical_name_systematic
;
catena-[tris(\m~2~-4,4'-Bipyridine)-tri-copper(i) 
(\m~12~-silicato)-(\m~2~-hydroxo)-tricosakis(\m~2~-oxo)-dodeca-oxo-dodeca-tung
sten imidazole]
;
_cell_volume   1510.024
_exptl_crystal_density_diffrn 3.962
_diffrn_ambient_temperature 293
_refine_special_details
;
The Keggin anion and imidazole moiety are disordered by symmetry.

;
#These two values have been output from a single CSD field.
_refine_ls_R_factor_gt 0.0688
_refine_ls_wR_factor_gt 0.0688
_symmetry_cell_setting triclinic
_symmetry_space_group_name_H-M 'P -1'
_symmetry_Int_Tables_number 2
loop_
_symmetry_equiv_pos_site_id
_symmetry_equiv_pos_as_xyz
1 x,y,z
2 -x,-y,-z
_cell_length_a 10.882(2)
_cell_length_b 11.587(2)
_cell_length_c 13.273(3)
_cell_angle_alpha 113.30(3)
_cell_angle_beta 96.32(3)
_cell_angle_gamma 95.46(3)
_cell_formula_units_Z 1
loop_
_atom_type_symbol
_atom_type_radius_bond
C 0.68
H 0.23
Cu 1.32
N 0.68
O 0.68
Si 1.20
W 1.62
loop_
_atom_site_label
_atom_site_type_symbol
_atom_site_fract_x
_atom_site_fract_y
_atom_site_fract_z
W1 W -1.77017(7) 0.76784(9) 0.39947(8)
W2 W -1.21067(7) 0.92003(8) 0.41455(8)
W3 W -1.74448(7) 1.01494(8) 0.30891(7)
W4 W -1.45494(9) 0.93546(8) 0.22535(7)
W5 W -1.52683(10) 0.75198(10) 0.59084(9)
W6 W -1.47998(10) 0.68838(9) 0.31748(8)
Si1 Si -1.50000 1.00000 0.50000
O1 O -1.562(2) 0.846(2) 0.463(2)
O2 O -1.638(2) 0.981(2) 0.463(2)
O3 O -1.424(2) 0.921(2) 0.398(2)
O4 O -1.541(2) 1.035(2) 0.395(2)
O5 O -1.688(2) 0.734(3) 0.5176(16)
O6 O -1.289(3) 0.939(3) 0.289(2)
O7 O -1.075(2) 0.883(2) 0.3710(18)
O8 O -1.8937(16) 0.6576(14) 0.3506(14)
O9 O -1.863(2) 1.017(2) 0.2161(16)
O10 O -1.7918(18) 0.8556(14) 0.3053(14)
O11 O -1.4303(16) 1.1128(16) 0.287(2)
O12 O -1.4366(14) 0.901(2) 0.0913(14)
O13 O -1.305(3) 0.757(3) 0.360(2)
O14 O -1.485(2) 0.766(2) 0.215(2)
O15 O -1.627(2) 0.9398(15) 0.217(2)
O16 O -1.472(2) 0.666(2) 0.450(2)
O17 O -1.4737(13) 0.5408(13) 0.2274(13)
O18 O -1.5396(16) 0.6348(17) 0.6344(18)
O19 O -1.189(2) 0.9168(15) 0.5595(15)
O20 O -1.8240(17) 0.9028(16) 0.5146(13)
O21 O -1.6373(19) 1.175(2) 0.3558(18)
O22 O -1.662(3) 0.677(3) 0.310(3)
Cu1 Cu -1.4846(2) 0.7256(4) -0.1304(3)
N1 N -1.6553(16) 0.7309(17) -0.1288(15)
C1 C -1.701(2) 0.835(2) -0.064(2)
H1 H -1.64480 0.90750 -0.01930
C2 C -1.827(2) 0.838(2) -0.062(2)
H2 H -1.85380 0.91100 -0.01370
C3 C -1.9138(18) 0.7349(18) -0.1297(17)
C4 C -1.8682(17) 0.6285(19) -0.1963(17)
H3 H -1.92380 0.55630 -0.24360
C5 C -1.7419(18) 0.628(2) -0.194(2)
H4 H -1.71440 0.55350 -0.23850
C6 C -2.0470(17) 0.736(2) -0.1285(19)
C7 C -2.1394(17) 0.6520(19) -0.219(2)
H5 H -2.11370 0.59540 -0.28240
C8 C -2.0955(18) 0.820(2) -0.0399(19)
H6 H -2.04140 0.88190 0.02030
C9 C -2.2248(19) 0.811(3) -0.040(2)
H7 H -2.25340 0.86090 0.02420
C10 C -2.265(2) 0.652(3) -0.216(2)
H8 H -2.32200 0.59240 -0.27570
N2 N -2.3077(15) 0.7373(18) -0.1274(18)
Cu2 Cu -1.50000 0.50000 0.00000
N3 N -1.3236(19) 0.500(3) 0.010(2)
C11 C -1.280(2) 0.398(2) -0.062(2)
H9 H -1.33660 0.32730 -0.11090
C12 C -1.152(2) 0.398(2) -0.062(2)
H10 H -1.12450 0.32570 -0.11060
C13 C -1.0696(17) 0.497(2) 0.0025(18)
C14 C -1.113(3) 0.607(3) 0.079(3)
H11 H -1.05930 0.67990 0.12820
C15 C -1.240(2) 0.596(2) 0.073(2)
H12 H -1.26980 0.66610 0.12120
N4 N -0.983(4) 0.572(5) 0.533(5)
C16 C -0.996(5) 0.712(5) 0.577(5)
C17 C -1.133(5) 0.721(4) 0.549(5)
N5 N -1.204(4) 0.587(4) 0.488(3)
C18 C -1.111(4) 0.495(3) 0.478(4)
O1A O -1.438(2) 1.154(2) 0.537(2)
O2A O -1.362(2) 1.019(2) 0.537(2)
O3A O -1.576(2) 1.079(2) 0.602(2)
O4A O -1.459(2) 0.965(2) 0.605(2)
W1A W -1.22983(7) 1.23216(9) 0.60053(8)
W2A W -1.78933(7) 1.07997(8) 0.58545(8)
W3A W -1.25552(7) 0.98506(8) 0.69109(7)
W4A W -1.54506(9) 1.06454(8) 0.77465(7)
W5A W -1.47317(10) 1.24802(10) 0.40916(9)
W6A W -1.52002(10) 1.31162(9) 0.68252(8)
O5A O -1.312(2) 1.266(3) 0.4824(16)
O6A O -1.711(3) 1.061(3) 0.711(2)
O7A O -1.925(2) 1.117(2) 0.6290(18)
O8A O -1.1063(16) 1.3424(14) 0.6494(14)
O9A O -1.137(2) 0.983(2) 0.7839(16)
O10A O -1.2082(18) 1.1444(14) 0.6947(14)
O11A O -1.5697(16) 0.8872(16) 0.713(2)
O12A O -1.5634(14) 1.099(2) 0.9087(14)
O13A O -1.695(3) 1.243(3) 0.640(2)
O14A O -1.515(2) 1.234(2) 0.785(2)
O15A O -1.373(2) 1.0602(15) 0.783(2)
O16A O -1.528(2) 1.334(2) 0.550(2)
O17A O -1.5263(13) 1.4592(13) 0.7726(13)
O18A O -1.4604(16) 1.3652(17) 0.3656(18)
O19A O -1.811(2) 1.0832(15) 0.4405(15)
O20A O -1.1760(17) 1.0972(16) 0.4854(13)
O21A O -1.3627(19) 0.825(2) 0.6442(18)
O22A O -1.338(3) 1.323(3) 0.690(3)
Cu1* Cu -2.4846(2) 0.7256(4) -0.1304(3)
N2* N -1.3077(15) 0.7373(18) -0.1274(18)
N3A N -0.6764(19) 0.500(3) -0.010(2)
C11A C -0.720(2) 0.602(2) 0.062(2)
H9A H -0.66340 0.67270 0.11090
C12A C -0.848(2) 0.602(2) 0.062(2)
H10A H -0.87550 0.67430 0.11060
C13A C -0.9304(17) 0.503(2) -0.0025(18)
C14A C -0.887(3) 0.393(3) -0.079(3)
H11A H -0.94070 0.32010 -0.12820
C15A C -0.760(2) 0.404(2) -0.073(2)
H12A H -0.73020 0.33390 -0.12120
Cu2* Cu -0.50000 0.50000 0.00000
N3A* N -1.6764(19) 0.500(3) -0.010(2)
N4A N -1.017(4) 0.428(5) 0.467(5)
C16A C -1.004(5) 0.288(5) 0.423(5)
C17A C -0.867(5) 0.279(4) 0.451(5)
N5A N -0.796(4) 0.413(4) 0.512(3)
C18A C -0.889(4) 0.505(3) 0.522(4)
#END
