
#######################################################################
#
#                 Cambridge Crystallographic Data Centre
#                                CCDC
#
#######################################################################
#
# If this CIF has been generated from an entry in the Cambridge
# Structural Database, then it will include bibliographic, chemical,
# crystal, experimental, refinement or atomic coordinate data resulting
# from the CCDC's data processing and validation procedures.
#
#######################################################################

data_CSD_CIF_LOWKUF
_audit_creation_date 2015-01-07
_audit_creation_method CSD-ConQuest-V1
_database_code_CSD LOWKUF
_database_code_depnum_ccdc_archive 'CCDC 1025823'
_chemical_formula_sum 'C22 H32 N8 O11 Zn3'
_chemical_formula_moiety
;
(C12 H7 N6 O7 Zn3 1-)n,H3 O1 1+,H2 O1,2(C5 H10 N1 O1)
;
_journal_coden_Cambridge 222
_journal_volume 44
_journal_year 2015
_journal_page_first 2893
_journal_name_full 'Dalton Trans. '
loop_
_publ_author_name
"Hong-Ru Fu"
"Fei Wang"
"Jian Zhang"
_chemical_name_systematic
;
catena-[oxonium tris(\m-4-carboxylato-pyrazolato)-(\m-hydroxo)-tri-zinc 
N,N-diethylformamide solvate monohydrate]
;
_chemical_name_common
;
FIR-51
;
_cell_volume   8092.756
_exptl_crystal_colour 'colorless'
_exptl_crystal_description 'block'
_diffrn_ambient_temperature 293
_refine_special_details
;
The SQUEEZE/PLATON program has been used to model some disorder.

;
#These two values have been output from a single CSD field.
_refine_ls_R_factor_gt 0.0733
_refine_ls_wR_factor_gt 0.0733
_symmetry_cell_setting cubic
_symmetry_space_group_name_H-M 'P a -3'
_symmetry_Int_Tables_number 205
loop_
_symmetry_equiv_pos_site_id
_symmetry_equiv_pos_as_xyz
1 x,y,z
2 1/2-x,-y,1/2+z
3 -x,1/2+y,1/2-z
4 1/2+x,1/2-y,-z
5 z,x,y
6 1/2+z,1/2-x,-y
7 1/2-z,-x,1/2+y
8 -z,1/2+x,1/2-y
9 y,z,x
10 -y,1/2+z,1/2-x
11 1/2+y,1/2-z,-x
12 1/2-y,-z,1/2+x
13 -x,-y,-z
14 -1/2+x,y,-1/2-z
15 x,-1/2-y,-1/2+z
16 -1/2-x,-1/2+y,z
17 -z,-x,-y
18 -1/2-z,-1/2+x,y
19 -1/2+z,x,-1/2-y
20 z,-1/2-x,-1/2+y
21 -y,-z,-x
22 y,-1/2-z,-1/2+x
23 -1/2-y,-1/2+z,x
24 -1/2+y,z,-1/2-x
_cell_length_a 20.0770(2)
_cell_length_b 20.0770(2)
_cell_length_c 20.0770(2)
_cell_angle_alpha 90
_cell_angle_beta 90
_cell_angle_gamma 90
_cell_formula_units_Z 8
loop_
_atom_type_symbol
_atom_type_radius_bond
C 0.68
H 0.23
N 0.68
O 0.68
Zn 1.22
loop_
_atom_site_label
_atom_site_type_symbol
_atom_site_fract_x
_atom_site_fract_y
_atom_site_fract_z
Zn1 Zn 0.25274(4) 0.27345(4) 0.14823(4)
N1 N 0.2185(3) 0.3524(3) 0.1970(3)
O1 O 0.2038(2) 0.2038(2) 0.2038(2)
O2 O 0.2411(3) 0.5580(3) 0.2187(3)
N2 N 0.1731(4) 0.3441(3) 0.2461(3)
C1 C 0.1966(4) 0.4524(4) 0.2393(4)
O3 O 0.1624(4) 0.5510(3) 0.2937(4)
C2 C 0.1592(4) 0.4046(4) 0.2717(4)
H1 H 0.12900 0.41290 0.30590
C3 C 0.1985(5) 0.5245(4) 0.2527(4)
C4 C 0.2330(4) 0.4171(4) 0.1920(4)
H2 H 0.26270 0.43560 0.16180
Zn1D Zn 0.14823(4) 0.25274(4) 0.27345(4)
N1D N 0.1970(3) 0.2185(3) 0.3524(3)
O2D O 0.2187(3) 0.2411(3) 0.5580(3)
N2D N 0.2461(4) 0.1731(3) 0.3441(3)
C1D C 0.2393(4) 0.1966(4) 0.4524(4)
O3D O 0.2937(4) 0.1624(3) 0.5510(4)
C2D C 0.2717(4) 0.1592(4) 0.4046(4)
H1D H 0.30590 0.12900 0.41290
C3D C 0.2527(5) 0.1985(4) 0.5245(4)
C4D C 0.1920(4) 0.2330(4) 0.4171(4)
H2D H 0.16180 0.26270 0.43560
Zn1H Zn 0.27345(4) 0.14823(4) 0.25274(4)
N1H N 0.3524(3) 0.1970(3) 0.2185(3)
O2H O 0.5580(3) 0.2187(3) 0.2411(3)
N2H N 0.3441(4) 0.2461(3) 0.1731(3)
C1H C 0.4524(4) 0.2393(4) 0.1966(4)
O3H O 0.5510(4) 0.2937(3) 0.1624(4)
C2H C 0.4046(4) 0.2717(4) 0.1592(4)
H1H H 0.41290 0.30590 0.12900
C3H C 0.5245(5) 0.2527(4) 0.1985(4)
C4H C 0.4171(4) 0.1920(4) 0.2330(4)
H2H H 0.43560 0.16180 0.26270
Zn1N Zn 0.25274(4) 0.22655(4) 0.64823(4)
Zn1R Zn 0.64823(4) 0.25274(4) 0.22655(4)
Zn1V Zn 0.22655(4) 0.64823(4) 0.25274(4)
O2O O 0.2589(3) 0.0580(3) 0.2187(3)
O2S O 0.2187(3) 0.2589(3) 0.0580(3)
O2W O 0.0580(3) 0.2187(3) 0.2589(3)
O3O O 0.3376(4) 0.0510(3) 0.2937(4)
O3S O 0.2937(4) 0.3376(3) 0.0510(4)
O3W O 0.0510(4) 0.2937(3) 0.3376(4)
#END
