
#######################################################################
#
#                 Cambridge Crystallographic Data Centre
#                                CCDC
#
#######################################################################
#
# If this CIF has been generated from an entry in the Cambridge
# Structural Database, then it will include bibliographic, chemical,
# crystal, experimental, refinement or atomic coordinate data resulting
# from the CCDC's data processing and validation procedures.
#
#######################################################################

data_CSD_CIF_LUDNUW03
_audit_creation_date 2020-03-17
_audit_creation_method CSD-ConQuest-V1
_database_code_CSD LUDNUW03
_database_code_depnum_ccdc_archive 'CCDC 1971743'
_chemical_formula_sum 'C42 H56 Cl6 Fe2 N2 O12'
_chemical_formula_moiety
;
(C18 Cl6 Fe2 O12 2-)n,2(C12 H28 N1 1+)
;
_journal_coden_Cambridge 1475
_journal_volume 11
_journal_year 2020
_journal_page_first 3610
_journal_name_full 'Chemical Science '
loop_
_publ_author_name
"Jian Chen"
"Y.Sekine"
"A.Okazawa"
"H.Sato"
"W.Kosaka"
"H.Miyasaka"
_chemical_name_systematic
;
catena-[bis(tetra-n-butylammonium) 
tris(\m-2,5-dichloro-3,6-dioxocyclohexa-1,4-diene-1,4-bis(olato) 
radical)-di-iron]
;
_cell_volume   2807.912
_exptl_crystal_colour 'black'
_exptl_crystal_density_diffrn 1.307
_exptl_crystal_description 'hexagonal'
_diffrn_ambient_temperature 380
#These two values have been output from a single CSD field.
_refine_ls_R_factor_gt 0.0743
_refine_ls_wR_factor_gt 0.0743
_symmetry_cell_setting monoclinic
_symmetry_space_group_name_H-M 'P 21/n'
_symmetry_Int_Tables_number 14
loop_
_symmetry_equiv_pos_site_id
_symmetry_equiv_pos_as_xyz
1 x,y,z
2 1/2-x,1/2+y,1/2-z
3 -x,-y,-z
4 -1/2+x,-1/2-y,-1/2+z
_cell_length_a 10.9375(9)
_cell_length_b 21.2780(15)
_cell_length_c 12.2835(7)
_cell_angle_alpha 90
_cell_angle_beta 100.818(6)
_cell_angle_gamma 90
_cell_formula_units_Z 2
loop_
_atom_type_symbol
_atom_type_radius_bond
C 0.68
H 0.23
Cl 0.99
Fe 1.52
N 0.68
O 0.68
loop_
_atom_site_label
_atom_site_type_symbol
_atom_site_fract_x
_atom_site_fract_y
_atom_site_fract_z
Fe1 Fe 0.95729(10) 0.68518(5) 0.51717(8)
Cl1 Cl 1.0731(2) 0.67469(10) 0.93640(15)
Cl2 Cl 1.33233(19) 0.82855(11) 0.59929(15)
Cl3 Cl 0.70867(18) 0.48148(10) 0.4809(2)
O1 O 1.0971(4) 0.7528(2) 0.5514(3)
O2 O 0.9932(4) 0.6884(2) 0.6914(3)
O3 O 1.3019(4) 0.7562(2) 0.9842(3)
O4 O 1.4140(5) 0.8132(2) 0.8436(4)
O5 O 0.8572(4) 0.6007(2) 0.5130(4)
O6 O 0.9036(4) 0.3839(3) 0.4780(4)
C1 C 1.1511(6) 0.7544(3) 0.6505(5)
C2 C 1.0904(7) 0.7175(3) 0.7330(5)
C3 C 1.1446(6) 0.7168(3) 0.8439(5)
C4 C 1.2494(6) 0.7515(3) 0.8846(5)
C5 C 1.3145(7) 0.7865(3) 0.8017(5)
C6 C 1.2582(7) 0.7870(3) 0.6911(5)
C7 C 0.9172(7) 0.5500(4) 0.5046(5)
C8 C 0.8700(6) 0.4921(5) 0.4909(6)
C9 C 0.9425(7) 0.4387(4) 0.4882(5)
N1 N 0.6129(7) 0.6373(4) 0.7476(6)
C10 C 0.7334(11) 0.6083(6) 0.8055(8)
H1 H 0.80090 0.62780 0.77670
H2 H 0.74470 0.61890 0.88360
C11 C 0.7460(15) 0.5396(6) 0.7965(11)
H3 H 0.73650 0.52830 0.71880
H4 H 0.67980 0.51930 0.82590
C12 C 0.8694(14) 0.5158(7) 0.8575(14)
H5 H 0.88450 0.53170 0.93190
H6 H 0.93430 0.52970 0.82030
H7 H 0.86820 0.47070 0.85910
C13 C 0.6039(10) 0.6262(5) 0.6246(8)
H8 H 0.68380 0.63730 0.60660
H9 H 0.59300 0.58140 0.61190
C14 C 0.5098(11) 0.6575(5) 0.5460(9)
H10 H 0.52420 0.70250 0.55100
H11 H 0.42890 0.64940 0.56470
C15 C 0.5083(11) 0.6363(6) 0.4279(9)
H12 H 0.48740 0.59240 0.42100
H13 H 0.58900 0.64270 0.40980
H14 H 0.44760 0.66020 0.37810
C16 C 0.4982(11) 0.6088(6) 0.7795(10)
H15 H 0.42650 0.63200 0.74140
H16 H 0.49040 0.56610 0.75130
C17 C 0.4912(15) 0.6066(7) 0.8955(12)
H17 H 0.49450 0.64930 0.92380
H18 H 0.56380 0.58450 0.93500
C18 C 0.3780(15) 0.5756(7) 0.9203(17)
H19 H 0.39630 0.53250 0.93980
H20 H 0.31280 0.57760 0.85620
H21 H 0.35180 0.59680 0.98100
C19 C 0.6167(10) 0.7071(6) 0.7749(8)
H22 H 0.53740 0.72510 0.74020
H23 H 0.62290 0.71120 0.85440
C20 C 0.7123(9) 0.7445(6) 0.7439(8)
H24 H 0.71370 0.73700 0.66620
H25 H 0.79180 0.73090 0.78640
C21 C 0.6987(10) 0.8142(5) 0.7610(9)
H26 H 0.71280 0.82320 0.83890
H27 H 0.61630 0.82730 0.72730
H28 H 0.75850 0.83650 0.72760
Cl3B Cl 1.29133(18) 0.51852(10) 0.5191(2)
O5B O 1.1428(4) 0.3993(2) 0.4870(4)
O6B O 1.0964(4) 0.6161(3) 0.5220(4)
C7B C 1.0828(7) 0.4500(4) 0.4954(5)
C8B C 1.1300(6) 0.5079(5) 0.5091(6)
C9B C 1.0575(7) 0.5613(4) 0.5118(5)
Fe1B Fe 1.04271(10) 0.31482(5) 0.48283(8)
Cl1B Cl 0.9269(2) 0.32531(10) 0.06360(15)
Cl2B Cl 0.66767(19) 0.17145(11) 0.40071(15)
O1B O 0.9029(4) 0.2472(2) 0.4486(3)
O2B O 1.0068(4) 0.3116(2) 0.3086(3)
O3B O 0.6981(4) 0.2438(2) 0.0158(3)
O4B O 0.5860(5) 0.1868(2) 0.1564(4)
C1B C 0.8489(6) 0.2456(3) 0.3495(5)
C2B C 0.9096(7) 0.2825(3) 0.2670(5)
C3B C 0.8554(6) 0.2832(3) 0.1561(5)
C4B C 0.7506(6) 0.2485(3) 0.1154(5)
C5B C 0.6855(7) 0.2135(3) 0.1983(5)
C6B C 0.7418(7) 0.2130(3) 0.3089(5)
Fe1A Fe 0.54271(10) 0.18518(5) -0.01717(8)
Fe1C Fe 1.45729(10) 0.81482(5) 1.01717(8)
O3A O 1.1981(4) 0.2562(2) 0.5158(3)
O3C O 0.8019(4) 0.7438(2) 0.4842(3)
O4A O 1.0860(5) 0.3132(2) 0.6564(4)
O4C O 0.9140(5) 0.6868(2) 0.3436(4)
#END
