
#######################################################################
#
#                 Cambridge Crystallographic Data Centre
#                                CCDC
#
#######################################################################
#
# If this CIF has been generated from an entry in the Cambridge
# Structural Database, then it will include bibliographic, chemical,
# crystal, experimental, refinement or atomic coordinate data resulting
# from the CCDC's data processing and validation procedures.
#
#######################################################################

data_CSD_CIF_LUDNUW
_audit_creation_date 2020-03-17
_audit_creation_method CSD-ConQuest-V1
_database_code_CSD LUDNUW
_database_code_depnum_ccdc_archive 'CCDC 1971740'
_chemical_formula_sum 'C42 H56 Cl6 Fe2 N2 O12'
_chemical_formula_moiety
;
(C18 Cl6 Fe2 O12 2-)n,2(C12 H28 N1 1+)
;
_journal_coden_Cambridge 1475
_journal_volume 11
_journal_year 2020
_journal_page_first 3610
_journal_name_full 'Chemical Science '
loop_
_publ_author_name
"Jian Chen"
"Y.Sekine"
"A.Okazawa"
"H.Sato"
"W.Kosaka"
"H.Miyasaka"
_chemical_name_systematic
;
catena-[bis(tetra-n-butylammonium) 
tris(\m-2,5-dichloro-3,6-dioxocyclohexa-1,4-diene-1,4-bis(olato) 
radical)-di-iron]
;
_cell_volume   2677.467
_exptl_crystal_colour 'black'
_exptl_crystal_density_diffrn 1.371
_exptl_crystal_description 'hexagonal'
_diffrn_ambient_temperature 103
#These two values have been output from a single CSD field.
_refine_ls_R_factor_gt 0.0413
_refine_ls_wR_factor_gt 0.0413
_symmetry_cell_setting monoclinic
_symmetry_space_group_name_H-M 'P 21/n'
_symmetry_Int_Tables_number 14
loop_
_symmetry_equiv_pos_site_id
_symmetry_equiv_pos_as_xyz
1 x,y,z
2 1/2-x,1/2+y,1/2-z
3 -x,-y,-z
4 -1/2+x,-1/2-y,-1/2+z
_cell_length_a 10.7583(4)
_cell_length_b 20.7341(5)
_cell_length_c 12.2345(5)
_cell_angle_alpha 90
_cell_angle_beta 101.160(4)
_cell_angle_gamma 90
_cell_formula_units_Z 2
loop_
_atom_type_symbol
_atom_type_radius_bond
C 0.68
H 0.23
Cl 0.99
Fe 1.52
N 0.68
O 0.68
loop_
_atom_site_label
_atom_site_type_symbol
_atom_site_fract_x
_atom_site_fract_y
_atom_site_fract_z
Fe1 Fe 0.04324(3) 0.68902(2) 0.47528(3)
Cl1 Cl -0.06841(5) 0.67143(3) 0.05971(5)
Cl2 Cl -0.33780(6) 0.83026(3) 0.39065(5)
Cl3 Cl 0.29723(5) 0.48028(3) 0.51475(5)
O1 O -0.09567(15) 0.75290(8) 0.44459(13)
O2 O 0.01397(15) 0.68740(8) 0.30941(13)
O3 O -0.30522(15) 0.75439(8) 0.00474(13)
O4 O -0.42186(15) 0.81254(8) 0.14152(13)
O5 O 0.14426(15) 0.60346(8) 0.47817(14)
O6 O 0.09656(15) 0.38069(8) 0.52401(14)
C1 C -0.1521(2) 0.75360(11) 0.34099(18)
C2 C -0.0895(2) 0.71624(11) 0.26413(19)
C3 C -0.1429(2) 0.71512(11) 0.15054(18)
C4 C -0.2521(2) 0.74991(11) 0.10915(18)
C5 C -0.3168(2) 0.78524(11) 0.18649(19)
C6 C -0.2637(2) 0.78665(11) 0.29996(19)
C7 C 0.0835(2) 0.55279(12) 0.49066(19)
C8 C 0.1351(2) 0.49122(12) 0.5065(2)
C9 C 0.0588(2) 0.43791(11) 0.51368(19)
N1 N 0.3909(2) 0.63985(10) 0.24765(17)
C10 C 0.2691(3) 0.60969(13) 0.1848(2)
H1 H 0.19710 0.62920 0.21230
H2 H 0.25970 0.62120 0.10500
C11 C 0.2595(3) 0.53683(14) 0.1937(2)
H3 H 0.26350 0.52430 0.27240
H4 H 0.33120 0.51610 0.16730
C12 C 0.1347(3) 0.51443(17) 0.1231(3)
H5 H 0.12800 0.46740 0.12850
H6 H 0.06420 0.53480 0.15000
H7 H 0.13170 0.52660 0.04520
C13 C 0.3968(2) 0.62884(13) 0.3715(2)
H8 H 0.31350 0.64060 0.38860
H9 H 0.40930 0.58210 0.38650
C14 C 0.4981(3) 0.66497(13) 0.4514(2)
H10 H 0.48330 0.71200 0.44370
H11 H 0.58270 0.65530 0.43490
C15 C 0.4921(3) 0.64338(14) 0.5700(2)
H12 H 0.55700 0.66620 0.62320
H13 H 0.40820 0.65330 0.58560
H14 H 0.50720 0.59680 0.57690
C16 C 0.5073(3) 0.60919(13) 0.2159(2)
H15 H 0.58300 0.63280 0.25490
H16 H 0.51410 0.56440 0.24430
C17 C 0.5113(3) 0.60742(15) 0.0926(3)
H17 H 0.51140 0.65200 0.06340
H18 H 0.43520 0.58500 0.05140
C18 C 0.6298(4) 0.57229(17) 0.0751(3)
H19 H 0.63200 0.57130 -0.00460
H20 H 0.70490 0.59490 0.11530
H21 H 0.62890 0.52810 0.10330
C19 C 0.3910(3) 0.71133(12) 0.2201(2)
H22 H 0.47310 0.72990 0.25730
H23 H 0.38550 0.71590 0.13870
C20 C 0.2854(2) 0.75081(13) 0.2533(2)
H24 H 0.28420 0.74380 0.33320
H25 H 0.20270 0.73700 0.20920
C21 C 0.3068(3) 0.82234(13) 0.2325(2)
H26 H 0.23860 0.84780 0.25390
H27 H 0.38840 0.83590 0.27680
H28 H 0.30700 0.82910 0.15320
Cl3B Cl -0.29723(5) 0.51972(3) 0.48525(5)
O5B O -0.14426(15) 0.39654(8) 0.52183(14)
O6B O -0.09656(15) 0.61931(8) 0.47599(14)
C7B C -0.0835(2) 0.44721(12) 0.50934(19)
C8B C -0.1351(2) 0.50878(12) 0.4935(2)
C9B C -0.0588(2) 0.56209(11) 0.48632(19)
Fe1B Fe -0.04324(3) 0.31098(2) 0.52472(3)
Cl1B Cl 0.06841(5) 0.32857(3) 0.94029(5)
Cl2B Cl 0.33780(6) 0.16974(3) 0.60935(5)
O1B O 0.09567(15) 0.24710(8) 0.55541(13)
O2B O -0.01397(15) 0.31260(8) 0.69059(13)
O3B O 0.30522(15) 0.24561(8) 0.99526(13)
O4B O 0.42186(15) 0.18746(8) 0.85848(13)
C1B C 0.1521(2) 0.24640(11) 0.65901(18)
C2B C 0.0895(2) 0.28376(11) 0.73587(19)
C3B C 0.1429(2) 0.28488(11) 0.84946(18)
C4B C 0.2521(2) 0.25009(11) 0.89085(18)
C5B C 0.3168(2) 0.21476(11) 0.81351(19)
C6B C 0.2637(2) 0.21335(11) 0.70004(19)
Fe1A Fe 0.45676(3) 0.18902(2) 1.02472(3)
Fe1C Fe -0.45676(3) 0.81098(2) -0.02472(3)
O3A O -0.19478(15) 0.25439(8) 0.49526(13)
O3C O 0.19478(15) 0.74561(8) 0.50474(13)
O4A O -0.07814(15) 0.31254(8) 0.35848(13)
O4C O 0.07814(15) 0.68746(8) 0.64152(13)
#END
