
#######################################################################
#
#                 Cambridge Crystallographic Data Centre
#                                CCDC
#
#######################################################################
#
# If this CIF has been generated from an entry in the Cambridge
# Structural Database, then it will include bibliographic, chemical,
# crystal, experimental, refinement or atomic coordinate data resulting
# from the CCDC's data processing and validation procedures.
#
#######################################################################

data_CSD_CIF_LUDNUW02
_audit_creation_date 2020-03-17
_audit_creation_method CSD-ConQuest-V1
_database_code_CSD LUDNUW02
_database_code_depnum_ccdc_archive 'CCDC 1971742'
_chemical_formula_sum 'C42 H56 Cl6 Fe2 N2 O12'
_chemical_formula_moiety
;
(C18 Cl6 Fe2 O12 2-)n,2(C12 H28 N1 1+)
;
_journal_coden_Cambridge 1475
_journal_volume 11
_journal_year 2020
_journal_page_first 3610
_journal_name_full 'Chemical Science '
loop_
_publ_author_name
"Jian Chen"
"Y.Sekine"
"A.Okazawa"
"H.Sato"
"W.Kosaka"
"H.Miyasaka"
_chemical_name_systematic
;
catena-[bis(tetra-n-butylammonium) 
tris(\m-2,5-dichloro-3,6-dioxocyclohexa-1,4-diene-1,4-bis(olato) 
radical)-di-iron]
;
_cell_volume   2770.056
_exptl_crystal_colour 'black'
_exptl_crystal_density_diffrn 1.325
_exptl_crystal_description 'hexagonal'
_diffrn_ambient_temperature 335
#These two values have been output from a single CSD field.
_refine_ls_R_factor_gt 0.0699
_refine_ls_wR_factor_gt 0.0699
_symmetry_cell_setting monoclinic
_symmetry_space_group_name_H-M 'P 21/n'
_symmetry_Int_Tables_number 14
loop_
_symmetry_equiv_pos_site_id
_symmetry_equiv_pos_as_xyz
1 x,y,z
2 1/2-x,1/2+y,1/2-z
3 -x,-y,-z
4 -1/2+x,-1/2-y,-1/2+z
_cell_length_a 10.866(1)
_cell_length_b 21.1945(18)
_cell_length_c 12.2707(9)
_cell_angle_alpha 90
_cell_angle_beta 101.413(8)
_cell_angle_gamma 90
_cell_formula_units_Z 2
loop_
_atom_type_symbol
_atom_type_radius_bond
C 0.68
H 0.23
Cl 0.99
Fe 1.52
N 0.68
O 0.68
loop_
_atom_site_label
_atom_site_type_symbol
_atom_site_fract_x
_atom_site_fract_y
_atom_site_fract_z
Fe1 Fe 0.95697(9) 0.68556(5) 0.51715(7)
Cl1 Cl 1.07117(17) 0.67513(8) 0.93506(13)
Cl2 Cl 1.33398(17) 0.82747(9) 0.60012(13)
Cl3 Cl 0.70668(16) 0.48093(9) 0.48392(18)
O1 O 1.0963(4) 0.75084(19) 0.5498(3)
O2 O 0.9898(4) 0.68746(19) 0.6875(3)
O3 O 1.3028(4) 0.75734(19) 0.9856(3)
O4 O 1.4157(4) 0.8136(2) 0.8469(3)
O5 O 0.8566(4) 0.6016(2) 0.5137(3)
O6 O 0.9040(4) 0.3831(2) 0.4800(3)
C1 C 1.1518(5) 0.7533(3) 0.6508(4)
C2 C 1.0892(6) 0.7167(3) 0.7307(5)
C3 C 1.1425(6) 0.7171(3) 0.8434(4)
C4 C 1.2492(5) 0.7523(3) 0.8833(4)
C5 C 1.3140(6) 0.7860(3) 0.8037(4)
C6 C 1.2604(6) 0.7857(3) 0.6915(4)
C7 C 0.9167(6) 0.5513(4) 0.5061(5)
C8 C 0.8675(6) 0.4921(4) 0.4916(5)
C9 C 0.9419(6) 0.4386(4) 0.4893(5)
N1 N 0.6113(6) 0.6383(3) 0.7463(4)
C10 C 0.7320(8) 0.6096(4) 0.8081(6)
H1 H 0.80110 0.62890 0.78120
H2 H 0.74140 0.62050 0.88610
C11 C 0.7439(11) 0.5396(5) 0.7995(8)
H3 H 0.67590 0.51930 0.82690
H4 H 0.73700 0.52780 0.72210
C12 C 0.8667(11) 0.5170(5) 0.8650(12)
H5 H 0.86590 0.47180 0.86950
H6 H 0.88000 0.53460 0.93850
H7 H 0.93320 0.53020 0.82890
C13 C 0.6048(7) 0.6273(4) 0.6231(5)
H8 H 0.68480 0.63960 0.60610
H9 H 0.59540 0.58230 0.60950
C14 C 0.5051(8) 0.6597(4) 0.5437(6)
H10 H 0.51730 0.70500 0.55010
H11 H 0.42390 0.64980 0.56100
C15 C 0.5081(9) 0.6389(4) 0.4266(7)
H12 H 0.48320 0.59550 0.41730
H13 H 0.59160 0.64370 0.41310
H14 H 0.45130 0.66450 0.37480
C16 C 0.4957(9) 0.6092(4) 0.7778(7)
H15 H 0.42280 0.63200 0.73870
H16 H 0.48870 0.56610 0.75060
C17 C 0.4900(12) 0.6079(5) 0.8967(9)
H17 H 0.49010 0.65090 0.92410
H18 H 0.56410 0.58690 0.93770
C18 C 0.3742(13) 0.5743(6) 0.9172(12)
H19 H 0.35620 0.58770 0.98710
H20 H 0.38850 0.52960 0.91890
H21 H 0.30430 0.58420 0.85860
C19 C 0.6116(8) 0.7079(4) 0.7739(6)
H22 H 0.53190 0.72560 0.73700
H23 H 0.61620 0.71200 0.85330
C20 C 0.7134(7) 0.7465(4) 0.7433(6)
H24 H 0.71620 0.73930 0.66580
H25 H 0.79330 0.73350 0.78780
C21 C 0.6939(8) 0.8166(4) 0.7616(7)
H26 H 0.76220 0.84010 0.74260
H27 H 0.69060 0.82390 0.83820
H28 H 0.61640 0.83000 0.71530
Cl3B Cl 1.29332(16) 0.51907(9) 0.51608(18)
O5B O 1.1434(4) 0.3984(2) 0.4863(3)
O6B O 1.0960(4) 0.6169(2) 0.5200(3)
C7B C 1.0833(6) 0.4487(4) 0.4939(5)
C8B C 1.1325(6) 0.5079(4) 0.5084(5)
C9B C 1.0581(6) 0.5614(4) 0.5107(5)
Fe1B Fe 1.04303(9) 0.31444(5) 0.48285(7)
Cl1B Cl 0.92883(17) 0.32487(8) 0.06494(13)
Cl2B Cl 0.66602(17) 0.17253(9) 0.39988(13)
O1B O 0.9037(4) 0.24916(19) 0.4502(3)
O2B O 1.0102(4) 0.31254(19) 0.3125(3)
O3B O 0.6972(4) 0.24266(19) 0.0144(3)
O4B O 0.5843(4) 0.1864(2) 0.1531(3)
C1B C 0.8482(5) 0.2467(3) 0.3492(4)
C2B C 0.9108(6) 0.2833(3) 0.2693(5)
C3B C 0.8575(6) 0.2829(3) 0.1566(4)
C4B C 0.7508(5) 0.2477(3) 0.1167(4)
C5B C 0.6860(6) 0.2140(3) 0.1963(4)
C6B C 0.7396(6) 0.2143(3) 0.3085(4)
Fe1A Fe 0.54303(9) 0.18556(5) -0.01715(7)
Fe1C Fe 1.45697(9) 0.81444(5) 1.01715(7)
O3A O 1.1972(4) 0.25734(19) 0.5144(3)
O3C O 0.8028(4) 0.74266(19) 0.4856(3)
O4A O 1.0843(4) 0.3136(2) 0.6531(3)
O4C O 0.9157(4) 0.6864(2) 0.3469(3)
#END
