
#######################################################################
#
#                 Cambridge Crystallographic Data Centre
#                                CCDC
#
#######################################################################
#
# If this CIF has been generated from an entry in the Cambridge
# Structural Database, then it will include bibliographic, chemical,
# crystal, experimental, refinement or atomic coordinate data resulting
# from the CCDC's data processing and validation procedures.
#
#######################################################################

data_CSD_CIF_LUJPUC
_audit_creation_date 2010-06-17
_audit_creation_method CSD-ConQuest-V1
_database_code_CSD LUJPUC
_database_code_depnum_ccdc_archive 'CCDC 751591'
_chemical_formula_sum 'C20 H31 Li2 Ni3 O29.5'
_chemical_formula_moiety
;
(C20 H24 Ni3 O26 2-)n,3.5n(H2 O1),2n(Li1 1+)
;
_journal_coden_Cambridge 9
_journal_volume 48
_journal_year 2009
_journal_page_first 7457
_journal_name_full 'Inorg.Chem. '
loop_
_publ_author_name
"Miao-Tzu Ding"
"Jing-Yun Wu"
"Yen-Hsiang Liu"
"Juang-Lieh Lu"
_chemical_name_systematic
;
catena-[Di-lithium 
bis(\m~4~-benzene-1,2,4,5-tetracarboxylato)-decaaqua-tri-nickel(ii) hydrate]
;
_cell_volume   1930.097
_exptl_crystal_colour 'green'
_exptl_crystal_density_diffrn 1.606
_exptl_crystal_description 'prism'
_diffrn_ambient_temperature 293
#These two values have been output from a single CSD field.
_refine_ls_R_factor_gt 0.0629
_refine_ls_wR_factor_gt 0.0629
_symmetry_cell_setting monoclinic
_symmetry_space_group_name_H-M 'C 2/m'
_symmetry_Int_Tables_number 12
loop_
_symmetry_equiv_pos_site_id
_symmetry_equiv_pos_as_xyz
1 x,y,z
2 -x,y,-z
3 1/2+x,1/2+y,z
4 1/2-x,1/2+y,-z
5 -x,-y,-z
6 x,-y,z
7 -1/2-x,-1/2-y,-z
8 -1/2+x,-1/2-y,z
_cell_length_a 9.540(2)
_cell_length_b 19.812(5)
_cell_length_c 11.151(3)
_cell_angle_alpha 90
_cell_angle_beta 113.684(10)
_cell_angle_gamma 90
_cell_formula_units_Z 2
loop_
_atom_type_symbol
_atom_type_radius_bond
C 0.68
H 0.23
Li 1.48
Ni 1.24
O 0.68
loop_
_atom_site_label
_atom_site_type_symbol
_atom_site_fract_x
_atom_site_fract_y
_atom_site_fract_z
Ni1 Ni 0.00000 -0.50000 0.00000
Ni2 Ni 0.25000 -0.25000 0.50000
Li1 Li -1.015(2) -1.00000 -0.748(2)
O1 O -0.3451(6) -0.0726(3) 0.0060(6)
O2 O -0.2593(7) -0.1091(3) 0.2095(6)
O3 O 0.0497(6) -0.2505(3) 0.3311(5)
O4 O 0.0614(6) -0.1531(3) 0.2369(6)
O5 O -0.0676(9) -0.50000 -0.2007(7)
H1 H -0.14660 -0.52840 -0.23850
O6 O 0.1549(6) -0.3152(3) 0.5900(6)
H2 H 0.06730 -0.30240 0.59430
H3 H 0.20990 -0.33070 0.66790
O7 O 0.1647(6) -0.1665(3) 0.5553(5)
H4 H 0.16600 -0.12760 0.52270
H5 H 0.17400 -0.16180 0.63530
C1 C -0.3656(9) -0.2080(4) -0.0727(8)
H6 H -0.44420 -0.17910 -0.12240
C2 C -0.2563(9) -0.1839(4) 0.0480(9)
C3 C -0.1368(8) -0.2287(4) 0.1210(8)
C4 C -0.2862(9) -0.1166(4) 0.0916(10)
C5 C 0.0020(9) -0.2078(4) 0.2368(8)
O8 O -1.00000 -0.9276(6) -1.00000
O9 O -0.827(5) -1.00000 -0.504(4)
O10 O -0.729(3) -1.00000 -0.785(3)
Ni1B Ni -0.50000 0.00000 0.00000
Ni1B* Ni 0.50000 0.00000 0.00000
Ni2A Ni 0.75000 -0.25000 0.50000
Ni2A* Ni -0.25000 -0.25000 -0.50000
Ni2* Ni -0.75000 -0.25000 -0.50000
O1F O -0.1549(6) -0.4274(3) -0.0060(6)
O1G O 0.1549(6) -0.4274(3) 0.0060(6)
O1A O 0.3451(6) -0.0726(3) -0.0060(6)
O1B O 0.1549(6) -0.5726(3) 0.0060(6)
O1C O -0.1549(6) -0.5726(3) -0.0060(6)
O2G O 0.2407(7) -0.3909(3) 0.2095(6)
O2A O 0.2593(7) -0.1091(3) -0.2095(6)
O2F O -0.2407(7) -0.3909(3) -0.2095(6)
O3F O 0.4503(6) -0.2495(3) 0.6689(5)
O3G O 0.5497(6) -0.2495(3) 0.3311(5)
O3A O -0.0497(6) -0.2505(3) -0.3311(5)
O3F* O -0.5497(6) -0.2495(3) -0.3311(5)
O3G* O -0.4503(6) -0.2495(3) -0.6689(5)
O4G O 0.5614(6) -0.3469(3) 0.2369(6)
O4A O -0.0614(6) -0.1531(3) -0.2369(6)
O4F O -0.5614(6) -0.3469(3) -0.2369(6)
O5A O 0.0676(9) -0.50000 0.2007(7)
H1E H -0.14660 -0.47160 -0.23850
H1A H 0.14660 -0.52840 0.23850
H1D H 0.14660 -0.47160 0.23850
O6F O 0.3451(6) -0.1848(3) 0.4100(6)
O6A O -0.1549(6) -0.3152(3) -0.5900(6)
O6G O -0.3451(6) -0.1848(3) -0.4100(6)
H2F H 0.43270 -0.19760 0.40570
H2A H -0.06730 -0.30240 -0.59430
H2G H -0.43270 -0.19760 -0.40570
H3F H 0.29010 -0.16930 0.33210
H3A H -0.20990 -0.33070 -0.66790
H3G H -0.29010 -0.16930 -0.33210
O7F O 0.3353(6) -0.3335(3) 0.4447(5)
O7A O -0.1647(6) -0.1665(3) -0.5553(5)
O7G O -0.3353(6) -0.3335(3) -0.4447(5)
H4F H 0.33400 -0.37240 0.47730
H4A H -0.16600 -0.12760 -0.52270
H4G H -0.33400 -0.37240 -0.47730
H5F H 0.32600 -0.33820 0.36470
H5A H -0.17400 -0.16180 -0.63530
H5G H -0.32600 -0.33820 -0.36470
C1F C -0.1344(9) -0.2920(4) 0.0727(8)
C1G C 0.1344(9) -0.2920(4) -0.0727(8)
C1A C 0.3656(9) -0.2080(4) 0.0727(8)
H6F H -0.05580 -0.32090 0.12240
H6G H 0.05580 -0.32090 -0.12240
H6A H 0.44420 -0.17910 0.12240
C2F C -0.2437(9) -0.3161(4) -0.0480(9)
C2G C 0.2437(9) -0.3161(4) 0.0480(9)
C2A C 0.2563(9) -0.1839(4) -0.0480(9)
C3F C -0.3632(8) -0.2713(4) -0.1210(8)
C3A C 0.1368(8) -0.2287(4) -0.1210(8)
C3G C 0.3632(8) -0.2713(4) 0.1210(8)
C4F C -0.2138(9) -0.3834(4) -0.0916(10)
C4G C 0.2138(9) -0.3834(4) 0.0916(10)
C4A C 0.2862(9) -0.1166(4) -0.0916(10)
C5G C 0.5020(9) -0.2922(4) 0.2368(8)
C5A C -0.0020(9) -0.2078(4) -0.2368(8)
C5F C -0.5020(9) -0.2922(4) -0.2368(8)
#END
