
#######################################################################
#
#                 Cambridge Crystallographic Data Centre
#                                CCDC
#
#######################################################################
#
# If this CIF has been generated from an entry in the Cambridge
# Structural Database, then it will include bibliographic, chemical,
# crystal, experimental, refinement or atomic coordinate data resulting
# from the CCDC's data processing and validation procedures.
#
#######################################################################

data_CSD_CIF_LULCUT
_audit_creation_date 2020-03-19
_audit_creation_method CSD-ConQuest-V1
_database_code_CSD LULCUT
_database_code_depnum_ccdc_archive 'CCDC 1970316'
_chemical_formula_sum 'C32 H32 N1 O16 Tb1'
_chemical_formula_moiety
;
(C32 H28 O16 Tb1 1-)n,H4 N1 1+
;
_journal_coden_Cambridge 9
_journal_volume 59
_journal_year 2020
_journal_page_first 4414
_journal_name_full 'Inorg.Chem. '
loop_
_publ_author_name
"Li Zhong"
"Wen-Bin Chen"
"Xiao-Hui Li"
"Zhi-Jian OuYang"
"Meng Yang"
"Yi-Quan Zhang"
"Song Gao"
"Wen Dong"
_chemical_name_systematic
;
catena-[ammonium 
bis(\m-2-hydroxy-3-methoxybenzoato)-bis(2-hydroxy-3-methoxybenzoato)-terbium(i
ii)]
;
_cell_volume   3210.457
_exptl_crystal_colour 'colorless'
_exptl_crystal_density_diffrn 1.749
_exptl_crystal_description 'block'
_diffrn_ambient_temperature 100.0
#These two values have been output from a single CSD field.
_refine_ls_R_factor_gt 0.0584
_refine_ls_wR_factor_gt 0.0584
_symmetry_cell_setting orthorhombic
_symmetry_space_group_name_H-M 'C c c 2'
_symmetry_Int_Tables_number 37
loop_
_symmetry_equiv_pos_site_id
_symmetry_equiv_pos_as_xyz
1 x,y,z
2 -x,-y,z
3 x,-y,1/2+z
4 -x,y,1/2+z
5 1/2+x,1/2+y,z
6 1/2-x,1/2-y,z
7 1/2+x,1/2-y,1/2+z
8 1/2-x,1/2+y,1/2+z
_cell_length_a 16.5221(3)
_cell_length_b 20.2726(3)
_cell_length_c 9.5850(1)
_cell_angle_alpha 90
_cell_angle_beta 90
_cell_angle_gamma 90
_cell_formula_units_Z 4
loop_
_atom_type_symbol
_atom_type_radius_bond
C 0.68
H 0.23
N 0.68
O 0.68
Tb 1.94
loop_
_atom_site_label
_atom_site_type_symbol
_atom_site_fract_x
_atom_site_fract_y
_atom_site_fract_z
Tb1 Tb -0.50000 -0.50000 -0.6782(3)
O1 O -0.6428(5) -0.4922(3) -0.7547(9)
O2 O -0.6140(2) -0.5545(2) -0.5714(5)
O3 O -0.7229(3) -0.6203(2) -0.4457(5)
H1 H -0.67730 -0.60550 -0.45790
O4 O -0.8739(3) -0.6478(2) -0.4070(5)
O5 O -0.4880(4) -0.4196(4) -0.8422(8)
O6 O -0.4444(3) -0.4076(2) -1.0602(5)
O7 O -0.3824(3) -0.2978(2) -1.1398(5)
H2 H -0.40080 -0.33510 -1.14990
O8 O -0.3186(3) -0.1860(2) -1.0735(5)
C1 C -0.7526(4) -0.5470(3) -0.6391(6)
C2 C -0.7754(4) -0.5900(4) -0.5329(6)
C3 C -0.8591(4) -0.6037(3) -0.5125(7)
C4 C -0.9162(4) -0.5743(4) -0.5972(7)
H3 H -0.97100 -0.58230 -0.58270
C5 C -0.8915(4) -0.5324(3) -0.7046(7)
H4 H -0.93010 -0.51280 -0.76180
C6 C -0.8111(4) -0.5198(4) -0.7266(8)
H5 H -0.79550 -0.49290 -0.80040
C7 C -0.6656(4) -0.5306(3) -0.6575(6)
C8 C -0.9570(5) -0.6639(4) -0.3784(9)
H6 H -0.95940 -0.69610 -0.30510
H7 H -0.98170 -0.68160 -0.46110
H8 H -0.98540 -0.62490 -0.35010
C9 C -0.4139(4) -0.3231(3) -0.8970(6)
C10 C -0.3814(3) -0.2823(3) -1.0026(7)
C11 C -0.3464(4) -0.2219(3) -0.9634(7)
C12 C -0.3416(4) -0.2029(3) -0.8251(6)
H9 H -0.31840 -0.16270 -0.80090
C13 C -0.3723(4) -0.2453(3) -0.7213(7)
H10 H -0.36790 -0.23360 -0.62780
C14 C -0.4088(4) -0.3037(3) -0.7573(7)
H11 H -0.43020 -0.33060 -0.68810
C15 C -0.4511(4) -0.3881(3) -0.9354(6)
C16 C -0.2863(5) -0.1220(4) -1.0472(8)
H12 H -0.24690 -0.12460 -0.97400
H13 H -0.32920 -0.09290 -1.01960
H14 H -0.26120 -0.10550 -1.13050
N1 N -0.75000 -0.75000 -0.3167(8)
H15 H -0.76240 -0.71510 -0.37070
H16 H -0.70190 -0.74510 -0.27370
O1A O -0.3572(5) -0.5078(3) -0.7547(9)
O2A O -0.3860(2) -0.4455(2) -0.5714(5)
O3A O -0.2771(3) -0.3797(2) -0.4457(5)
H1A H -0.32270 -0.39450 -0.45790
O4A O -0.1261(3) -0.3522(2) -0.4070(5)
O5A O -0.5120(4) -0.5804(4) -0.8422(8)
O6A O -0.5556(3) -0.5924(2) -1.0602(5)
O7A O -0.6176(3) -0.7022(2) -1.1398(5)
H2A H -0.59920 -0.66490 -1.14990
O8A O -0.6814(3) -0.8140(2) -1.0735(5)
C1A C -0.2474(4) -0.4530(3) -0.6391(6)
C2A C -0.2246(4) -0.4100(4) -0.5329(6)
C3A C -0.1409(4) -0.3963(3) -0.5125(7)
C4A C -0.0838(4) -0.4257(4) -0.5972(7)
H3A H -0.02900 -0.41770 -0.58270
C5A C -0.1085(4) -0.4676(3) -0.7046(7)
H4A H -0.06990 -0.48720 -0.76180
C6A C -0.1889(4) -0.4802(4) -0.7266(8)
H5A H -0.20450 -0.50710 -0.80040
C7A C -0.3344(4) -0.4694(3) -0.6575(6)
C8A C -0.0430(5) -0.3361(4) -0.3784(9)
H6A H -0.04060 -0.30390 -0.30510
H7A H -0.01830 -0.31840 -0.46110
H8A H -0.01460 -0.37510 -0.35010
C9A C -0.5861(4) -0.6769(3) -0.8970(6)
C10A C -0.6186(3) -0.7177(3) -1.0026(7)
C11A C -0.6536(4) -0.7781(3) -0.9634(7)
C12A C -0.6584(4) -0.7971(3) -0.8251(6)
H9A H -0.68160 -0.83730 -0.80090
C13A C -0.6277(4) -0.7547(3) -0.7213(7)
H10A H -0.63210 -0.76640 -0.62780
C14A C -0.5912(4) -0.6963(3) -0.7573(7)
H11A H -0.56980 -0.66940 -0.68810
C15A C -0.5489(4) -0.6119(3) -0.9354(6)
C16A C -0.7137(5) -0.8780(4) -1.0472(8)
H12A H -0.75310 -0.87540 -0.97400
H13A H -0.67080 -0.90710 -1.01960
H14A H -0.73880 -0.89450 -1.13050
Tb1B Tb -0.50000 -0.50000 -1.1782(3)
O6B O -0.4444(3) -0.5924(2) -0.5602(5)
O6C O -0.5556(3) -0.4076(2) -0.5602(5)
H15E H -0.73760 -0.78490 -0.37070
H16E H -0.79810 -0.75490 -0.27370
#END
