
#######################################################################
#
#                 Cambridge Crystallographic Data Centre
#                                CCDC
#
#######################################################################
#
# If this CIF has been generated from an entry in the Cambridge
# Structural Database, then it will include bibliographic, chemical,
# crystal, experimental, refinement or atomic coordinate data resulting
# from the CCDC's data processing and validation procedures.
#
#######################################################################

data_CSD_CIF_LULDEE
_audit_creation_date 2020-03-19
_audit_creation_method CSD-ConQuest-V1
_database_code_CSD LULDEE
_database_code_depnum_ccdc_archive 'CCDC 1981457'
_chemical_formula_sum 'C32 H32 N1 O16 Y1'
_chemical_formula_moiety
;
(C32 H28 O16 Y1 1-)n,H4 N1 1+
;
_journal_coden_Cambridge 9
_journal_volume 59
_journal_year 2020
_journal_page_first 4414
_journal_name_full 'Inorg.Chem. '
loop_
_publ_author_name
"Li Zhong"
"Wen-Bin Chen"
"Xiao-Hui Li"
"Zhi-Jian OuYang"
"Meng Yang"
"Yi-Quan Zhang"
"Song Gao"
"Wen Dong"
_chemical_name_systematic
;
catena-[ammonium tetrakis(\m-2-hydroxy-3-methoxybenzoato)-yttrium]
;
_cell_volume   3197.378
_exptl_crystal_colour 'colorless'
_exptl_crystal_density_diffrn 1.611
_exptl_crystal_description 'block'
_diffrn_ambient_temperature 100
#These two values have been output from a single CSD field.
_refine_ls_R_factor_gt 0.0188
_refine_ls_wR_factor_gt 0.0188
_symmetry_cell_setting orthorhombic
_symmetry_space_group_name_H-M 'C c c 2'
_symmetry_Int_Tables_number 37
loop_
_symmetry_equiv_pos_site_id
_symmetry_equiv_pos_as_xyz
1 x,y,z
2 -x,-y,z
3 x,-y,1/2+z
4 -x,y,1/2+z
5 1/2+x,1/2+y,z
6 1/2-x,1/2-y,z
7 1/2+x,1/2-y,1/2+z
8 1/2-x,1/2+y,1/2+z
_cell_length_a 16.4717(1)
_cell_length_b 20.2271(1)
_cell_length_c 9.5967(1)
_cell_angle_alpha 90
_cell_angle_beta 90
_cell_angle_gamma 90
_cell_formula_units_Z 4
loop_
_atom_type_symbol
_atom_type_radius_bond
C 0.68
H 0.23
N 0.68
O 0.68
Y 1.90
loop_
_atom_site_label
_atom_site_type_symbol
_atom_site_fract_x
_atom_site_fract_y
_atom_site_fract_z
Y1 Y -0.50000 -0.50000 -0.67695(6)
O1 O -0.64163(12) -0.49145(9) -0.7532(2)
O2 O -0.61294(10) -0.55379(8) -0.5702(2)
O3 O -0.72258(10) -0.61983(8) -0.4459(2)
H1 H -0.67640 -0.60680 -0.46260
O4 O -0.87417(11) -0.64760(9) -0.4082(2)
O5 O -0.48853(11) -0.42068(9) -0.8392(2)
O6 O -0.44482(10) -0.40959(8) -1.0574(2)
O7 O -0.38322(12) -0.29950(8) -1.13867(18)
H2 H -0.40490 -0.33560 -1.14920
O8 O -0.31928(12) -0.18686(8) -1.0762(2)
C1 C -0.75221(15) -0.54710(11) -0.6400(3)
C2 C -0.77555(15) -0.59006(11) -0.5334(3)
C3 C -0.85905(15) -0.60390(12) -0.5142(3)
C4 C -0.91610(16) -0.57465(13) -0.5996(3)
H3 H -0.97100 -0.58290 -0.58530
C5 C -0.89162(16) -0.53268(13) -0.7076(3)
H4 H -0.93030 -0.51370 -0.76590
C6 C -0.81017(16) -0.51936(12) -0.7280(3)
H5 H -0.79410 -0.49190 -0.80060
C7 C -0.66440(14) -0.52943(11) -0.6574(3)
C8 C -0.95733(18) -0.66415(15) -0.3823(4)
H6 H -0.96040 -0.69510 -0.30660
H7 H -0.98050 -0.68360 -0.46440
H8 H -0.98690 -0.62480 -0.35860
C9 C -0.41368(14) -0.32438(12) -0.8965(3)
C10 C -0.38223(13) -0.28385(12) -1.0015(3)
C11 C -0.34669(14) -0.22254(12) -0.9646(3)
C12 C -0.34193(16) -0.20371(12) -0.8273(3)
H9 H -0.31870 -0.16330 -0.80390
C13 C -0.37197(15) -0.24532(12) -0.7224(3)
H10 H -0.36740 -0.23300 -0.62940
C14 C -0.40825(16) -0.30460(12) -0.7570(3)
H11 H -0.42920 -0.33160 -0.68720
C15 C -0.45171(12) -0.38943(10) -0.9325(3)
C16 C -0.28830(17) -0.12189(12) -1.0496(3)
H12 H -0.24440 -0.12460 -0.98390
H13 H -0.33070 -0.09470 -1.01200
H14 H -0.26900 -0.10290 -1.13500
N1 N -0.75000 -0.75000 -0.3169(3)
H15 H -0.76240 -0.71510 -0.37090
H16 H -0.70190 -0.74510 -0.27390
O1A O -0.35837(12) -0.50855(9) -0.7532(2)
O2A O -0.38706(10) -0.44621(8) -0.5702(2)
O3A O -0.27742(10) -0.38017(8) -0.4459(2)
H1A H -0.32360 -0.39320 -0.46260
O4A O -0.12583(11) -0.35240(9) -0.4082(2)
O5A O -0.51147(11) -0.57932(9) -0.8392(2)
O6A O -0.55518(10) -0.59041(8) -1.0574(2)
O7A O -0.61678(12) -0.70050(8) -1.13867(18)
H2A H -0.59510 -0.66440 -1.14920
O8A O -0.68072(12) -0.81314(8) -1.0762(2)
C1A C -0.24779(15) -0.45290(11) -0.6400(3)
C2A C -0.22445(15) -0.40994(11) -0.5334(3)
C3A C -0.14095(15) -0.39610(12) -0.5142(3)
C4A C -0.08390(16) -0.42535(13) -0.5996(3)
H3A H -0.02900 -0.41710 -0.58530
C5A C -0.10838(16) -0.46732(13) -0.7076(3)
H4A H -0.06970 -0.48630 -0.76590
C6A C -0.18983(16) -0.48064(12) -0.7280(3)
H5A H -0.20590 -0.50810 -0.80060
C7A C -0.33560(14) -0.47057(11) -0.6574(3)
C8A C -0.04267(18) -0.33585(15) -0.3823(4)
H6A H -0.03960 -0.30490 -0.30660
H7A H -0.01950 -0.31640 -0.46440
H8A H -0.01310 -0.37520 -0.35860
C9A C -0.58632(14) -0.67562(12) -0.8965(3)
C10A C -0.61777(13) -0.71615(12) -1.0015(3)
C11A C -0.65331(14) -0.77746(12) -0.9646(3)
C12A C -0.65807(16) -0.79629(12) -0.8273(3)
H9A H -0.68130 -0.83670 -0.80390
C13A C -0.62803(15) -0.75468(12) -0.7224(3)
H10A H -0.63260 -0.76700 -0.62940
C14A C -0.59175(16) -0.69540(12) -0.7570(3)
H11A H -0.57080 -0.66840 -0.68720
C15A C -0.54829(12) -0.61057(10) -0.9325(3)
C16A C -0.71170(17) -0.87811(12) -1.0496(3)
H12A H -0.75560 -0.87540 -0.98390
H13A H -0.66930 -0.90530 -1.01200
H14A H -0.73100 -0.89710 -1.13500
Y1B Y -0.50000 -0.50000 -1.17695(6)
O6B O -0.44482(10) -0.59041(8) -0.5574(2)
O6C O -0.55518(10) -0.40959(8) -0.5574(2)
H15E H -0.73760 -0.78490 -0.37090
H16E H -0.79810 -0.75490 -0.27390
#END
