
#######################################################################
#
#                 Cambridge Crystallographic Data Centre
#                                CCDC
#
#######################################################################
#
# If this CIF has been generated from an entry in the Cambridge
# Structural Database, then it will include bibliographic, chemical,
# crystal, experimental, refinement or atomic coordinate data resulting
# from the CCDC's data processing and validation procedures.
#
#######################################################################

data_CSD_CIF_LULLOV
_audit_creation_date 2015-05-20
_audit_creation_method CSD-ConQuest-V1
_database_code_CSD LULLOV
_database_code_depnum_ccdc_archive 'CCDC 1052700'
_chemical_formula_sum 'C22 H20 K1 N1 O8 S4 Zn1'
_chemical_formula_moiety
;
(C2 H8 N1 1+)n,n(C20 H12 K1 O8 S4 Zn1 1-)
;
_journal_coden_Cambridge 1295
_journal_volume 61
_journal_year 2015
_journal_page_first 27
_journal_name_full 'Inorg.Chem.Commun. '
loop_
_publ_author_name
"Huan Wen"
"Guang-Sheng Yang"
"Shao-Juan Bao"
"Liang Zhao"
"Zhong-Min Su"
_chemical_name_systematic
;
catena-[Dimethylammonium 
bis(\m~5~-3,4-dimethylthieno[2,3-b]thiophene-2,5-dicarboxylato)-potassium-zinc
]
;
_cell_volume  12266.151
_exptl_crystal_colour 'colorless'
_exptl_crystal_density_diffrn 1.428
_exptl_crystal_description 'block'
_diffrn_ambient_temperature 293
_refine_special_details
;
The disordered cation molecules were not modelled and the disordered density 
was taken into account using the SQUEEZE/PLATON procedure. The unit cell was 
found to contain a void of 3955 A$3! holding 1056 electrons.
;
#These two values have been output from a single CSD field.
_refine_ls_R_factor_gt 0.0657
_refine_ls_wR_factor_gt 0.0657
_symmetry_cell_setting tetragonal
_symmetry_space_group_name_H-M 'I 41/a c d'
_symmetry_Int_Tables_number 142
loop_
_symmetry_equiv_pos_site_id
_symmetry_equiv_pos_as_xyz
1 x,y,z
2 -x,1/2-y,z
3 x,-y,1/2-z
4 1/2-x,y,-z
5 1/4-y,1/4-x,1/4-z
6 3/4+y,1/4+x,1/4-z
7 1/4+y,1/4-x,3/4+z
8 1/4-y,3/4+x,1/4+z
9 1/2+x,1/2+y,1/2+z
10 1/2-x,-y,1/2+z
11 1/2+x,1/2-y,-z
12 -x,1/2+y,1/2-z
13 3/4-y,3/4-x,3/4-z
14 1/4+y,3/4+x,3/4-z
15 3/4+y,3/4-x,1/4+z
16 3/4-y,1/4+x,3/4+z
17 -x,-y,-z
18 x,-1/2+y,-z
19 -x,y,-1/2+z
20 -1/2+x,-y,z
21 -1/4+y,-1/4+x,-1/4+z
22 -3/4-y,-1/4-x,-1/4+z
23 -1/4-y,-1/4+x,-3/4-z
24 -1/4+y,-3/4-x,-1/4-z
25 -1/2-x,-1/2-y,-1/2-z
26 -1/2+x,y,-1/2-z
27 -1/2-x,-1/2+y,z
28 x,-1/2-y,-1/2+z
29 -3/4+y,-3/4+x,-3/4+z
30 -1/4-y,-3/4-x,-3/4+z
31 -3/4-y,-3/4+x,-1/4-z
32 -3/4+y,-1/4-x,-3/4-z
_cell_length_a 22.558(5)
_cell_length_b 22.558(5)
_cell_length_c 24.105(5)
_cell_angle_alpha 90
_cell_angle_beta 90
_cell_angle_gamma 90
_cell_formula_units_Z 16
loop_
_atom_type_symbol
_atom_type_radius_bond
C 0.68
H 0.23
K 2.03
O 0.68
S 1.02
Zn 1.22
loop_
_atom_site_label
_atom_site_type_symbol
_atom_site_fract_x
_atom_site_fract_y
_atom_site_fract_z
Zn1 Zn 0.16990(2) 0.08010(2) 0.12500
S1 S 0.43476(8) 0.07555(9) 0.34253(8)
S2 S 0.32235(8) 0.07723(8) 0.26616(8)
C1 C 0.3998(3) 0.0849(3) 0.1812(4)
C2 C 0.4984(4) 0.0838(3) 0.2465(3)
O1 O 0.23680(16) 0.07634(16) 0.17911(15)
O2 O 0.29515(19) 0.0812(2) 0.10429(18)
O3 O 0.60556(18) 0.07731(16) 0.31866(17)
C3 C 0.4324(3) 0.0823(3) 0.2339(3)
C4 C 0.3395(3) 0.0813(2) 0.1942(3)
C5 C 0.5018(3) 0.0789(2) 0.3048(2)
C6 C 0.3980(3) 0.0789(3) 0.2807(3)
C7 C 0.2871(3) 0.0800(2) 0.1554(2)
O4 O 0.5480(2) 0.0752(3) 0.39205(19)
C8 C 0.5560(3) 0.0773(3) 0.3408(3)
C9 C 0.4199(3) 0.0895(3) 0.1354(4)
H1 H 0.46240 0.09070 0.13740
H2 H 0.40570 0.12540 0.11870
H3 H 0.40780 0.05620 0.11330
C10 C 0.5373(3) 0.0881(3) 0.2138(3)
H4 H 0.52100 0.09120 0.17710
H5 H 0.56230 0.05370 0.21590
H6 H 0.56030 0.12280 0.22180
K1 K 0.67509(9) 0.00000 0.25000
S1B S 0.43476(8) -0.07555(9) 0.15747(8)
S2B S 0.32235(8) -0.07723(8) 0.23384(8)
C1B C 0.3998(3) -0.0849(3) 0.3188(4)
C2B C 0.4984(4) -0.0838(3) 0.2535(3)
O1B O 0.23680(16) -0.07634(16) 0.32089(15)
O2B O 0.29515(19) -0.0812(2) 0.39571(18)
O3B O 0.60556(18) -0.07731(16) 0.18134(17)
C3B C 0.4324(3) -0.0823(3) 0.2661(3)
C4B C 0.3395(3) -0.0813(2) 0.3058(3)
C5B C 0.5018(3) -0.0789(2) 0.1952(2)
C6B C 0.3980(3) -0.0789(3) 0.2193(3)
C7B C 0.2871(3) -0.0800(2) 0.3446(2)
O4B O 0.5480(2) -0.0752(3) 0.10795(19)
C8B C 0.5560(3) -0.0773(3) 0.1592(3)
C9B C 0.4199(3) -0.0895(3) 0.3646(4)
H1B H 0.46240 -0.09070 0.36260
H2B H 0.40570 -0.12540 0.38130
H3B H 0.40780 -0.05620 0.38670
C10B C 0.5373(3) -0.0881(3) 0.2862(3)
H4B H 0.52100 -0.09120 0.32290
H5B H 0.56230 -0.05370 0.28410
H6B H 0.56030 -0.12280 0.27820
Zn1B Zn 0.16990(2) -0.08010(2) 0.37500
Zn1S Zn 0.66990(2) -0.08010(2) 0.12500
Zn1Y Zn 0.66990(2) 0.08010(2) 0.37500
O1D O 0.17366(16) 0.01320(16) 0.07089(15)
O1S O 0.73680(16) -0.07634(16) 0.17911(15)
O1Y O 0.73680(16) 0.07634(16) 0.32089(15)
O2V O 0.66880(19) 0.04515(20) 0.14571(18)
O2CA O 0.66880(19) -0.04515(20) 0.35429(18)
O3U O 0.17269(18) 0.14444(16) 0.06866(17)
O3Y O 0.10556(18) 0.07731(16) 0.18134(17)
K1S K 0.17509(9) 0.00000 0.25000
K1U K 0.25000(9) 0.07491 0.00000
K1BA K 0.25000(9) -0.07491 0.50000
#END
