
#######################################################################
#
#                 Cambridge Crystallographic Data Centre
#                                CCDC
#
#######################################################################
#
# If this CIF has been generated from an entry in the Cambridge
# Structural Database, then it will include bibliographic, chemical,
# crystal, experimental, refinement or atomic coordinate data resulting
# from the CCDC's data processing and validation procedures.
#
#######################################################################

data_CSD_CIF_LUMHUZ
_audit_creation_date 2020-03-20
_audit_creation_method CSD-ConQuest-V1
_database_code_CSD LUMHUZ
_database_code_depnum_ccdc_archive 'CCDC 1971318'
_chemical_formula_sum 'C46 H53 Cd1 N9 O13'
_chemical_formula_moiety
;
(C28 H16 Cd1 N4 O10 2-)n,n(C14 H24 N4 2+),n(C3 H7 N1 O1),n(C1 H4 O1),n(H2 O1)
;
_journal_coden_Cambridge 580
_journal_volume 182
_journal_year 2020
_journal_page_first 114481
_journal_name_full 'Polyhedron '
loop_
_publ_author_name
"M.Arici"
"F.Semerci"
"Yunus Guclu"
"O.Z.Yesilel"
_chemical_name_systematic
;
catena-(1,1'-(butane-1,4-diyl)bis(2-ethyl-1H-imidazol-3-ium) 
bis(5-[(4-hydroxyphenyl)diazenyl]benzene-1,3-dicarboxylato)-cadmium 
dimethylformamide methanol solvate monohydrate)
;
_cell_volume   4812.583
_exptl_crystal_colour 'orange'
_exptl_crystal_density_diffrn 1.452
_exptl_crystal_description 'prism'
_diffrn_ambient_temperature 293
#These two values have been output from a single CSD field.
_refine_ls_R_factor_gt 0.0618
_refine_ls_wR_factor_gt 0.0618
_symmetry_cell_setting orthorhombic
_symmetry_space_group_name_H-M 'P 21 21 21'
_symmetry_Int_Tables_number 19
loop_
_symmetry_equiv_pos_site_id
_symmetry_equiv_pos_as_xyz
1 x,y,z
2 1/2-x,-y,1/2+z
3 1/2+x,1/2-y,-z
4 -x,1/2+y,1/2-z
_cell_length_a 10.592
_cell_length_b 16.86
_cell_length_c 26.949
_cell_angle_alpha 90
_cell_angle_beta 90
_cell_angle_gamma 90
_cell_formula_units_Z 4
loop_
_atom_type_symbol
_atom_type_radius_bond
C 0.68
H 0.23
Cd 1.44
N 0.68
O 0.68
loop_
_atom_site_label
_atom_site_type_symbol
_atom_site_fract_x
_atom_site_fract_y
_atom_site_fract_z
Cd1 Cd -0.24174(5) -0.03830(3) -0.23786(2)
O1 O -0.0859(6) 0.0706(4) -0.2421(3)
O2 O -0.6691(5) 0.3897(3) -0.3278(2)
O3 O -0.6010(6) 0.3516(4) -0.2538(3)
O4 O 0.1030(6) 0.3402(4) -0.2584(3)
O5 O -0.4093(6) 0.0792(4) -0.2358(3)
O6 O -0.3281(6) 0.0289(3) -0.3045(2)
O7 O -0.1593(6) 0.0316(4) -0.1688(2)
O8 O 0.1526(6) 0.4036(3) -0.1890(2)
C1 C -0.3949(8) 0.0801(5) -0.2830(3)
C2 C -0.5554(7) 0.2692(4) -0.3247(3)
C3 C -0.5061(7) 0.2098(4) -0.2949(3)
H1 H -0.50880 0.21500 -0.26060
N1 N -0.4903(6) 0.1845(4) -0.4529(2)
C4 C -0.0994(8) 0.0786(5) -0.1950(3)
N2 N 0.0269(7) 0.2930(4) -0.0215(3)
C5 C 0.0083(7) 0.2107(4) -0.1995(3)
H2 H 0.01640 0.20270 -0.23350
C6 C -0.0610(8) 0.1656(5) -0.1184(3)
H3 H -0.10000 0.12720 -0.09900
O9 O -0.0845(6) 0.3589(4) 0.1797(2)
H4 H -0.02830 0.38460 0.19300
C7 C -0.0462(8) 0.1526(5) -0.1702(3)
C8 C -0.4531(7) 0.1428(4) -0.3159(3)
C9 C -0.6118(8) 0.3420(5) -0.3012(3)
C10 C -0.0525(9) 0.3443(5) 0.1313(3)
C11 C -0.4490(7) 0.1362(5) -0.3682(3)
H5 H -0.41170 0.09190 -0.38260
N3 N -0.5696(6) 0.2232(4) -0.4780(2)
O10 O -0.5795(6) 0.2154(5) -0.6874(2)
H6 H -0.51280 0.20030 -0.69970
C12 C 0.0384(8) 0.2925(5) -0.1268(3)
H7 H 0.06810 0.33920 -0.11260
C13 C -0.5005(7) 0.1956(5) -0.3988(3)
N4 N -0.0431(7) 0.2444(4) -0.0435(3)
C14 C 0.1056(7) 0.3455(5) -0.2103(3)
C15 C 0.0507(7) 0.2807(5) -0.1783(3)
C16 C -0.5629(8) 0.2193(5) -0.5307(3)
C17 C 0.0590(9) 0.3675(6) 0.1089(4)
H8 H 0.11960 0.39480 0.12720
C18 C -0.0180(7) 0.2348(5) -0.0968(3)
C19 C -0.1195(9) 0.2855(5) 0.0518(3)
H9 H -0.17870 0.25720 0.03340
C20 C -0.5534(8) 0.2618(5) -0.3770(3)
H10 H -0.58770 0.30160 -0.39670
C21 C -0.4627(9) 0.1915(6) -0.6112(3)
H11 H -0.39200 0.17510 -0.62890
C22 C 0.0814(8) 0.3497(5) 0.0579(3)
H12 H 0.15650 0.36640 0.04340
C23 C -0.4586(9) 0.1925(5) -0.5589(3)
H13 H -0.38620 0.17530 -0.54270
C24 C -0.0045(8) 0.3084(5) 0.0293(3)
C25 C -0.5697(9) 0.2146(6) -0.6364(3)
C26 C -0.1454(9) 0.3049(5) 0.1015(3)
H14 H -0.22340 0.29200 0.11520
C27 C -0.6669(8) 0.2440(6) -0.5564(3)
H15 H -0.73650 0.26290 -0.53900
C28 C -0.6715(9) 0.2414(6) -0.6098(3)
H16 H -0.74390 0.25810 -0.62640
N5 N 0.0363(8) 0.5762(5) -0.1544(3)
H17 H 0.06170 0.57910 -0.18470
N6 N -0.0802(7) 0.5842(4) -0.0887(3)
N7 N -0.5197(8) 0.3642(5) -0.1560(3)
H18 H -0.53780 0.35390 -0.18640
N8 N -0.4163(6) 0.3754(4) -0.0868(3)
C29 C -0.0772(9) 0.5970(5) -0.1384(4)
C30 C 0.0377(8) 0.5540(6) -0.0727(4)
H19 H 0.06250 0.54030 -0.04070
C31 C -0.1904(8) 0.5929(6) -0.0545(3)
H20 H -0.23320 0.64250 -0.06170
H21 H -0.16010 0.59530 -0.02060
C32 C -0.2836(7) 0.5253(5) -0.0593(3)
H22 H -0.32490 0.52880 -0.09140
H23 H -0.34800 0.53100 -0.03400
C33 C -0.4086(9) 0.3515(6) -0.1342(4)
C34 C -0.3171(9) 0.3755(6) -0.0477(4)
H24 H -0.27230 0.32540 -0.04860
H25 H -0.35700 0.38030 -0.01540
C35 C 0.1062(9) 0.5498(6) -0.1157(4)
H26 H 0.18880 0.53160 -0.11790
C36 C -0.2248(11) 0.5717(9) -0.2087(5)
H27 H -0.26970 0.60040 -0.23390
H28 H -0.28020 0.53360 -0.19370
H29 H -0.15410 0.54490 -0.22330
C37 C -0.3005(10) 0.3134(8) -0.1601(4)
H30 H -0.22400 0.32820 -0.14260
H31 H -0.30990 0.25640 -0.15660
C38 C -0.2222(8) 0.4435(5) -0.0543(3)
H32 H -0.16560 0.44420 -0.02600
H33 H -0.17190 0.43330 -0.08370
C39 C -0.1782(10) 0.6293(7) -0.1695(4)
H34 H -0.14780 0.67690 -0.18570
H35 H -0.24860 0.64420 -0.14840
C40 C -0.2821(13) 0.3298(13) -0.2104(5)
H36 H -0.24550 0.38150 -0.21390
H37 H -0.36180 0.32820 -0.22730
H38 H -0.22650 0.29090 -0.22450
C41 C -0.5341(9) 0.4042(5) -0.0773(4)
H39 H -0.56440 0.42480 -0.04760
C42 C -0.5993(9) 0.3961(6) -0.1220(4)
H40 H -0.68300 0.41020 -0.12760
N9 N -0.2736(13) 0.4718(6) -0.3780(4)
C43 C -0.387(2) 0.4562(10) -0.3961(7)
H41 H -0.44930 0.44470 -0.37300
C44 C -0.1760(16) 0.4904(10) -0.4135(7)
H42 H -0.14900 0.44260 -0.42980
H43 H -0.10560 0.51410 -0.39670
H44 H -0.20840 0.52680 -0.43780
O11 O -0.4199(9) 0.4551(7) -0.4412(4)
C45 C -0.249(2) 0.4698(10) -0.3263(5)
H45 H -0.32220 0.45120 -0.30900
H46 H -0.22760 0.52210 -0.31500
H47 H -0.17920 0.43460 -0.31990
O12 O -0.6957(9) 0.4530(7) -0.4333(3)
H48 H -0.71090 0.44020 -0.40340
H49 H -0.61720 0.44410 -0.43700
O13 O -0.838(2) 0.4632(11) -0.5191(6)
H50 H -0.77830 0.44020 -0.50580
C46 C -0.915(3) 0.4928(15) -0.4837(9)
H51 H -0.95200 0.54140 -0.49530
H52 H -0.86730 0.50290 -0.45410
H53 H -0.98060 0.45520 -0.47670
Cd1C Cd -0.75826(5) 0.46170(3) -0.26214(2)
Cd1C* Cd 0.24174(5) 0.46170(3) -0.26214(2)
O2C O -0.3309(5) -0.1103(3) -0.1722(2)
O3C O -0.3990(6) -0.1484(4) -0.2462(3)
O4C O -0.1030(6) -0.1598(4) -0.2416(3)
O8C O -0.1526(6) -0.0964(3) -0.3110(2)
#END
