
#######################################################################
#
#                 Cambridge Crystallographic Data Centre
#                                CCDC
#
#######################################################################
#
# If this CIF has been generated from an entry in the Cambridge
# Structural Database, then it will include bibliographic, chemical,
# crystal, experimental, refinement or atomic coordinate data resulting
# from the CCDC's data processing and validation procedures.
#
#######################################################################

data_CSD_CIF_LUMZAW
_audit_creation_date 2015-05-21
_audit_creation_method CSD-ConQuest-V1
_database_code_CSD LUMZAW
_database_code_depnum_ccdc_archive 'CCDC 1041839'
_chemical_formula_sum 'C24 H36 Cu4 N20 O1'
_chemical_formula_moiety
;
(C12 H2 Cu4 N18 2-)n,2n(C6 H16 N1 1+),n(H2 O1)
;
_journal_coden_Cambridge 182
_journal_volume 51
_journal_year 2015
_journal_page_first 10353
_journal_name_full 'Chem.Commun. '
loop_
_publ_author_name
"Chao Huang"
"Jie Wu"
"Chuanjun Song"
"Ran Ding"
"Yan Qiao"
"Hongwei Hou"
"Junbiao Chang"
"Yaoting Fan"
_chemical_name_systematic
;
catena-[bis(diisopropylammonium) 
bis(\m-cyano)-(\m-1,2,4,5-tetra(5-tetrazolato)benzene)-tetra-copper(i) 
monohydrate]
;
_cell_volume   3321.430
_exptl_crystal_colour 'yellow'
_exptl_crystal_density_diffrn 1.75
_exptl_crystal_description 'block'
_diffrn_ambient_temperature 293
#These two values have been output from a single CSD field.
_refine_ls_R_factor_gt 0.0357
_refine_ls_wR_factor_gt 0.0357
_symmetry_cell_setting monoclinic
_symmetry_space_group_name_H-M 'C c'
_symmetry_Int_Tables_number 9
loop_
_symmetry_equiv_pos_site_id
_symmetry_equiv_pos_as_xyz
1 x,y,z
2 x,-y,1/2+z
3 1/2+x,1/2+y,z
4 1/2+x,1/2-y,1/2+z
_cell_length_a 24.349(5)
_cell_length_b 9.2334(18)
_cell_length_c 16.959(3)
_cell_angle_alpha 90
_cell_angle_beta 119.41(3)
_cell_angle_gamma 90
_cell_formula_units_Z 4
loop_
_atom_type_symbol
_atom_type_radius_bond
C 0.68
H 0.23
Cu 1.32
N 0.68
O 0.68
loop_
_atom_site_label
_atom_site_type_symbol
_atom_site_fract_x
_atom_site_fract_y
_atom_site_fract_z
Cu1 Cu 0.15336(3) 0.67062(8) 0.32335(5)
Cu2 Cu 0.14800(3) 0.89651(8) 0.64849(5)
Cu3 Cu 0.06310(3) 0.68569(8) 0.72744(4)
Cu4 Cu 0.06379(3) 0.87942(8) 0.39709(4)
N1 N 0.1926(3) 0.7387(6) 0.4579(4)
N2 N 0.2493(3) 0.7163(6) 0.5289(4)
N3 N 0.1895(3) 0.8270(5) 0.5735(3)
N4 N 0.1558(3) 0.8065(6) 0.4837(4)
N5 N 0.1872(3) 0.7189(6) 0.7343(4)
N6 N 0.1545(3) 0.6298(6) 0.7595(3)
N7 N 0.1902(3) 0.5225(5) 0.8085(4)
N8 N 0.2490(3) 0.5397(6) 0.8197(4)
N9 N 0.4689(3) 0.8045(7) 1.0232(4)
N10 N 0.5258(3) 0.7664(6) 1.0933(4)
N11 N 0.5581(3) 0.6917(5) 1.0645(4)
N12 N 0.5241(3) 0.6791(5) 0.9732(3)
N13 N 0.5282(3) 0.8042(5) 0.8194(4)
N14 N 0.5636(3) 0.8900(5) 0.7993(4)
N15 N 0.5278(3) 1.0003(6) 0.7504(4)
N16 N 0.4705(3) 0.9886(6) 0.7393(4)
N17 N 0.0572(3) 1.1553(7) 0.2968(4)
N18 N 0.1523(3) 1.1790(7) 0.7425(5)
C1 C 0.2463(3) 0.7707(7) 0.5993(4)
C2 C 0.3018(3) 0.7714(6) 0.6926(4)
C3 C 0.3581(3) 0.8158(7) 0.7012(5)
H1 H 0.35830 0.85040 0.64990
C4 C 0.4144(3) 0.8124(6) 0.7813(4)
C5 C 0.4145(3) 0.7594(6) 0.8593(4)
C6 C 0.3567(3) 0.7183(7) 0.8520(4)
H2 H 0.35600 0.68870 0.90390
C7 C 0.2997(3) 0.7202(6) 0.7691(4)
C8 C 0.2448(3) 0.6610(6) 0.7731(4)
C9 C 0.4708(3) 0.7512(7) 0.9516(4)
C10 C 0.4709(3) 0.8677(7) 0.7824(4)
C11 C 0.0570(3) 1.0538(7) 0.3362(5)
C12 C 0.1513(3) 1.0776(8) 0.7023(5)
O1 O 0.3801(3) 0.0506(9) 0.5573(4)
H3 H 0.39740 0.06400 0.62300
H4 H 0.40030 0.11160 0.54190
N19 N 0.3483(3) 0.6438(7) 0.4667(4)
H5 H 0.32930 0.68910 0.49390
H6 H 0.31970 0.58590 0.42340
C13 C 0.4030(4) 0.5507(10) 0.5370(5)
H7 H 0.41770 0.49020 0.50370
C14 C 0.4598(5) 0.6371(11) 0.6066(7)
H8 H 0.47750 0.69130 0.57620
H9 H 0.49100 0.57180 0.64910
H10 H 0.44660 0.70240 0.63810
C15 C 0.3750(5) 0.4483(12) 0.5798(7)
H11 H 0.40320 0.36850 0.60800
H12 H 0.33500 0.41250 0.53360
H13 H 0.36930 0.50000 0.62440
C16 C 0.3717(5) 0.7604(11) 0.4216(7)
H14 H 0.40680 0.81720 0.46760
C17 C 0.3902(5) 0.6853(12) 0.3552(8)
H15 H 0.42290 0.61560 0.38780
H16 H 0.40510 0.75690 0.32920
H17 H 0.35400 0.63740 0.30800
C18 C 0.3130(5) 0.8575(12) 0.3648(8)
H18 H 0.27930 0.79920 0.32060
H19 H 0.32360 0.93140 0.33480
H20 H 0.29990 0.90180 0.40410
N20 N 0.1508(3) 0.2250(8) 0.5096(5)
H21 H 0.12690 0.17000 0.46070
H22 H 0.15370 0.17810 0.55800
C19 C 0.2167(4) 0.2323(10) 0.5207(5)
H23 H 0.22140 0.33070 0.50330
C20 C 0.2220(4) 0.1347(10) 0.4560(7)
H24 H 0.21840 0.03600 0.47070
H25 H 0.26220 0.14860 0.45930
H26 H 0.18890 0.15580 0.39570
C21 C 0.2657(6) 0.2170(14) 0.6203(7)
H27 H 0.30660 0.23980 0.62850
H28 H 0.26550 0.11940 0.63960
H29 H 0.25570 0.28230 0.65550
C22 C 0.1167(6) 0.3610(12) 0.4995(7)
H30 H 0.10770 0.40730 0.44240
C23 C 0.0493(6) 0.3157(15) 0.4946(10)
H31 H 0.03820 0.21860 0.47200
H32 H 0.01670 0.38100 0.45490
H33 H 0.05390 0.32120 0.55410
C24 C 0.1531(6) 0.4606(15) 0.5742(7)
H34 H 0.15050 0.43100 0.62650
H35 H 0.13650 0.55680 0.55710
H36 H 0.19640 0.45960 0.58820
Cu1A Cu 0.15336(3) 0.32938(8) 0.82335(5)
Cu1A* Cu 0.15336(3) 1.32938(8) 0.82335(5)
Cu1C Cu 0.65336(3) 0.82938(8) 0.82335(5)
Cu2C Cu 0.64800(3) 0.60349(8) 1.14849(5)
Cu3A Cu 0.06310(3) 1.31431(8) 0.22744(4)
Cu3B Cu 0.56310(3) 1.18569(8) 0.72744(4)
Cu3C Cu 0.56310(3) 0.81431(8) 1.22744(4)
Cu4C Cu 0.56379(3) 0.62058(8) 0.89709(4)
N7A N 0.1902(3) 0.4775(5) 0.3085(4)
N10C N 0.0258(3) 0.7336(6) 0.5933(4)
N11C N 0.0581(3) 0.8083(5) 0.5645(4)
N12C N 0.0241(3) 0.8209(5) 0.4732(3)
N13C N 0.0282(3) 0.6958(5) 0.3194(4)
N14C N 0.0636(3) 0.6100(5) 0.2993(4)
N15B N 0.0278(3) 0.5003(6) 0.7504(4)
N17A N 0.0572(3) 0.8447(7) 0.7968(4)
N18A N 0.1523(3) 0.8210(7) 0.2425(5)
#END
