
#######################################################################
#
#                 Cambridge Crystallographic Data Centre
#                                CCDC
#
#######################################################################
#
# If this CIF has been generated from an entry in the Cambridge
# Structural Database, then it will include bibliographic, chemical,
# crystal, experimental, refinement or atomic coordinate data resulting
# from the CCDC's data processing and validation procedures.
#
#######################################################################

data_CSD_CIF_LUPVOJ
_audit_creation_date 2015-10-05
_audit_creation_method CSD-ConQuest-V1
_database_code_CSD LUPVOJ
_database_code_depnum_ccdc_archive 'CCDC 1400193'
_chemical_formula_sum 'C76 H82 Co6 N36 O18'
_chemical_formula_moiety
;
(C60 H38 Co6 N30 O14 2-)n,4(C3 H7 N1 O1),2(C2 H8 N1 1+)
;
_journal_coden_Cambridge 1350
_journal_volume 17
_journal_year 2015
_journal_page_first 8198
_journal_name_full 'CrystEngComm '
loop_
_publ_author_name
"Guo-Jian Ren"
"Yan-Qing Liu"
"Tong-Liang Hu"
"Xian-He Bu"
_chemical_name_systematic
;
catena-[bis(dimethylammonium) 
tris(\m~4~-terephthalato)-hexakis(\m~3~-5-(pyridin-4-yl)-1H-tetrazol-1-yl)-bis
(\m~3~-hydroxo)-hexa-cobalt(ii) N,N-dimethylformamide solvate]
;
_cell_volume  13094.193
_exptl_crystal_colour 'red'
_exptl_crystal_density_diffrn 1.085
_exptl_crystal_description 'block'
_diffrn_ambient_temperature 113.2
_refine_special_details
;
The SQUEEZE/PLATON program has been used to model some disordered cations and 
solvent molecules.
;
#These two values have been output from a single CSD field.
_refine_ls_R_factor_gt 0.0661
_refine_ls_wR_factor_gt 0.0661
_symmetry_cell_setting cubic
_symmetry_space_group_name_H-M 'I -4 3 m'
_symmetry_Int_Tables_number 217
loop_
_symmetry_equiv_pos_site_id
_symmetry_equiv_pos_as_xyz
1 x,y,z
2 -x,-y,z
3 -x,y,-z
4 x,-y,-z
5 z,x,y
6 z,-x,-y
7 -z,-x,y
8 -z,x,-y
9 y,z,x
10 -y,z,-x
11 y,-z,-x
12 -y,-z,x
13 y,x,z
14 -y,-x,z
15 y,-x,-z
16 -y,x,-z
17 x,z,y
18 -x,z,-y
19 -x,-z,y
20 x,-z,-y
21 z,y,x
22 z,-y,-x
23 -z,y,-x
24 -z,-y,x
25 1/2+x,1/2+y,1/2+z
26 1/2-x,1/2-y,1/2+z
27 1/2-x,1/2+y,1/2-z
28 1/2+x,1/2-y,1/2-z
29 1/2+z,1/2+x,1/2+y
30 1/2+z,1/2-x,1/2-y
31 1/2-z,1/2-x,1/2+y
32 1/2-z,1/2+x,1/2-y
33 1/2+y,1/2+z,1/2+x
34 1/2-y,1/2+z,1/2-x
35 1/2+y,1/2-z,1/2-x
36 1/2-y,1/2-z,1/2+x
37 1/2+y,1/2+x,1/2+z
38 1/2-y,1/2-x,1/2+z
39 1/2+y,1/2-x,1/2-z
40 1/2-y,1/2+x,1/2-z
41 1/2+x,1/2+z,1/2+y
42 1/2-x,1/2+z,1/2-y
43 1/2-x,1/2-z,1/2+y
44 1/2+x,1/2-z,1/2-y
45 1/2+z,1/2+y,1/2+x
46 1/2+z,1/2-y,1/2-x
47 1/2-z,1/2+y,1/2-x
48 1/2-z,1/2-y,1/2+x
_cell_length_a 23.570(3)
_cell_length_b 23.570(3)
_cell_length_c 23.570(3)
_cell_angle_alpha 90
_cell_angle_beta 90
_cell_angle_gamma 90
_cell_formula_units_Z 4
loop_
_atom_type_symbol
_atom_type_radius_bond
C 0.68
H 0.23
Co 1.26
N 0.68
O 0.68
loop_
_atom_site_label
_atom_site_type_symbol
_atom_site_fract_x
_atom_site_fract_y
_atom_site_fract_z
Co1 Co 0.38784(4) 0.71608(3) 0.71608(3)
O1 O 0.43055(18) 0.7267(2) 0.63753(18)
O2 O 0.3279(2) 0.6721(2) 0.6721(2)
N1 N 0.2551(2) 0.7449(2) 1.0414(3)
N2 N 0.3409(2) 0.6989(2) 0.79270(19)
N3 N 0.3435(2) 0.7244(2) 0.8437(2)
C1 C 0.2987(3) 0.7701(3) 1.0152(3)
H1 H 0.31810 0.79870 1.03430
C2 C 0.3162(3) 0.7555(3) 0.9610(3)
H2 H 0.34610 0.77460 0.94380
C3 C 0.2882(3) 0.7118(3) 0.9328(3)
C4 C 0.3036(3) 0.6964(3) 0.8727(4)
C5 C 0.4130(2) 0.7278(4) 0.5870(2)
C6 C 0.4579(3) 0.7304(6) 0.5421(3)
C7 C 0.5156(3) 0.7315(5) 0.5571(3)
H3 H 0.52600 0.73220 0.59520
O1T O 0.63753(18) 0.7267(2) 0.43055(18)
C5B C 0.5870(2) 0.7278(4) 0.4130(2)
C6B C 0.5421(3) 0.7304(6) 0.4579(3)
C7T C 0.5571(3) 0.7315(5) 0.5156(3)
H3T H 0.59520 0.73220 0.52600
O1V O 0.36247(18) 0.7267(2) 0.56945(18)
C7V C 0.4429(3) 0.7315(5) 0.4844(3)
H3V H 0.40480 0.73220 0.47400
O1B O 0.56945(18) 0.7267(2) 0.36247(18)
C7B C 0.4844(3) 0.7315(5) 0.4429(3)
H3B H 0.47400 0.73220 0.40480
N2M N 0.3011(2) 0.6591(2) 0.79270(19)
N3M N 0.2756(2) 0.6565(2) 0.8437(2)
C1M C 0.2299(3) 0.7013(3) 1.0152(3)
H1M H 0.20130 0.68190 1.03430
C2M C 0.2445(3) 0.6838(3) 0.9610(3)
H2M H 0.22540 0.65390 0.94380
Co1B Co 0.61216(4) 0.71608(3) 0.28392(3)
O2B O 0.6721(2) 0.6721(2) 0.3279(2)
N1B N 0.7449(2) 0.7449(2) -0.0414(3)
N2B N 0.6591(2) 0.6989(2) 0.20730(19)
N3B N 0.6565(2) 0.7244(2) 0.1563(2)
C1B C 0.7013(3) 0.7701(3) -0.0152(3)
H1B H 0.68190 0.79870 -0.03430
C2B C 0.6838(3) 0.7555(3) 0.0390(3)
H2B H 0.65390 0.77460 0.05620
C3B C 0.7118(3) 0.7118(3) 0.0672(3)
C4B C 0.6964(3) 0.6964(3) 0.1273(4)
N2N N 0.6989(2) 0.6591(2) 0.20730(19)
N3N N 0.7244(2) 0.6565(2) 0.1563(2)
C1N C 0.7701(3) 0.7013(3) -0.0152(3)
H1N H 0.79870 0.68190 -0.03430
C2N C 0.7555(3) 0.6838(3) 0.0390(3)
H2N H 0.77460 0.65390 0.05620
Co1D Co 0.71608(4) 0.38784(3) 0.71608(3)
O1D O 0.63753(18) 0.43055(20) 0.72670(18)
N1D N 1.0414(2) 0.2551(2) 0.7449(3)
N2D N 0.7927(2) 0.3409(2) 0.69890(19)
N3D N 0.8437(2) 0.3435(2) 0.7244(2)
C1D C 1.0152(3) 0.2987(3) 0.7701(3)
H1D H 1.03430 0.31810 0.79870
C2D C 0.9610(3) 0.3162(3) 0.7555(3)
H2D H 0.94380 0.34610 0.77460
C3D C 0.9328(3) 0.2882(3) 0.7118(3)
C4D C 0.8727(3) 0.3036(3) 0.6964(4)
C5D C 0.5870(2) 0.4130(4) 0.7278(2)
C6D C 0.5421(3) 0.4579(6) 0.7304(3)
C7D C 0.5571(3) 0.5156(5) 0.7315(3)
H3D H 0.59520 0.52600 0.73220
O1P O 0.43055(18) 0.63753(20) 0.72670(18)
C5F C 0.4130(2) 0.5870(4) 0.7278(2)
C6F C 0.4579(3) 0.5421(6) 0.7304(3)
C7P C 0.5156(3) 0.5571(5) 0.7315(3)
H3P H 0.52600 0.59520 0.73220
O1R O 0.56945(18) 0.36247(20) 0.72670(18)
C7R C 0.4844(3) 0.4429(5) 0.7315(3)
H3R H 0.47400 0.40480 0.73220
O1F O 0.36247(18) 0.56945(20) 0.72670(18)
C7F C 0.4429(3) 0.4844(5) 0.7315(3)
H3F H 0.40480 0.47400 0.73220
N2U N 0.7927(2) 0.3011(2) 0.65910(19)
N3U N 0.8437(2) 0.2756(2) 0.6565(2)
C1U C 1.0152(3) 0.2299(3) 0.7013(3)
H1U H 1.03430 0.20130 0.68190
C2U C 0.9610(3) 0.2445(3) 0.6838(3)
H2U H 0.94380 0.22540 0.65390
Co1E Co 0.71608(4) 0.61216(3) 0.28392(3)
O1E O 0.63753(18) 0.56945(20) 0.27330(18)
N1E N 1.0414(2) 0.7449(2) 0.2551(3)
N2E N 0.7927(2) 0.6591(2) 0.30110(19)
N3E N 0.8437(2) 0.6565(2) 0.2756(2)
C1E C 1.0152(3) 0.7013(3) 0.2299(3)
H1E H 1.03430 0.68190 0.20130
C2E C 0.9610(3) 0.6838(3) 0.2445(3)
H2E H 0.94380 0.65390 0.22540
C3E C 0.9328(3) 0.7118(3) 0.2882(3)
C4E C 0.8727(3) 0.6964(3) 0.3036(4)
C5E C 0.5870(2) 0.5870(4) 0.2722(2)
C6E C 0.5421(3) 0.5421(6) 0.2696(3)
C7E C 0.5571(3) 0.4844(5) 0.2685(3)
H3E H 0.59520 0.47400 0.26780
O1S O 0.43055(18) 0.36247(20) 0.27330(18)
C5G C 0.4130(2) 0.4130(4) 0.2722(2)
C6G C 0.4579(3) 0.4579(6) 0.2696(3)
C7S C 0.5156(3) 0.4429(5) 0.2685(3)
H3S H 0.52600 0.40480 0.26780
O1Q O 0.56945(18) 0.63753(20) 0.27330(18)
C7Q C 0.4844(3) 0.5571(5) 0.2685(3)
H3Q H 0.47400 0.59520 0.26780
O1G O 0.36247(18) 0.43055(20) 0.27330(18)
C7G C 0.4429(3) 0.5156(5) 0.2685(3)
H3G H 0.40480 0.52600 0.26780
N2T N 0.7927(2) 0.6989(2) 0.34090(19)
N3T N 0.8437(2) 0.7244(2) 0.3435(2)
C1T C 1.0152(3) 0.7701(3) 0.2987(3)
H1T H 1.03430 0.79870 0.31810
C2T C 0.9610(3) 0.7555(3) 0.3162(3)
H2T H 0.94380 0.77460 0.34610
Co1F Co 0.28392(4) 0.61216(3) 0.71608(3)
N1F N -0.0414(2) 0.7449(2) 0.7449(3)
N2F N 0.2073(2) 0.6591(2) 0.69890(19)
N3F N 0.1563(2) 0.6565(2) 0.7244(2)
C1F C -0.0152(3) 0.7013(3) 0.7701(3)
H1F H -0.03430 0.68190 0.79870
C2F C 0.0390(3) 0.6838(3) 0.7555(3)
H2F H 0.05620 0.65390 0.77460
C3F C 0.0672(3) 0.7118(3) 0.7118(3)
C4F C 0.1273(3) 0.6964(3) 0.6964(4)
N2V N 0.2073(2) 0.6989(2) 0.65910(19)
N3V N 0.1563(2) 0.7244(2) 0.6565(2)
C1V C -0.0152(3) 0.7701(3) 0.7013(3)
H1V H -0.03430 0.79870 0.68190
C2V C 0.0390(3) 0.7555(3) 0.6838(3)
H2V H 0.05620 0.77460 0.65390
Co1G Co 0.28392(4) 0.38784(3) 0.28392(3)
N1G N -0.0414(2) 0.2551(2) 0.2551(3)
N2G N 0.2073(2) 0.3409(2) 0.30110(19)
N3G N 0.1563(2) 0.3435(2) 0.2756(2)
C1G C -0.0152(3) 0.2987(3) 0.2299(3)
H1G H -0.03430 0.31810 0.20130
C2G C 0.0390(3) 0.3162(3) 0.2445(3)
H2G H 0.05620 0.34610 0.22540
C3G C 0.0672(3) 0.2882(3) 0.2882(3)
C4G C 0.1273(3) 0.3036(3) 0.3036(4)
N2W N 0.2073(2) 0.3011(2) 0.34090(19)
N3W N 0.1563(2) 0.2756(2) 0.3435(2)
C1W C -0.0152(3) 0.2299(3) 0.2987(3)
H1W H -0.03430 0.20130 0.31810
C2W C 0.0390(3) 0.2445(3) 0.3162(3)
H2W H 0.05620 0.22540 0.34610
Co1A Co 0.61216(4) 0.28392(3) 0.71608(3)
Co1C Co 0.38784(4) 0.28392(3) 0.28392(3)
Co1H Co 0.71608(4) 0.71608(3) 0.38784(3)
Co1I Co 0.28392(4) 0.71608(3) 0.61216(3)
Co1J Co 0.71608(4) 0.28392(3) 0.61216(3)
Co1K Co 0.28392(4) 0.28392(3) 0.38784(3)
Co1X Co -0.11216(4) 0.21608(3) 0.21608(3)
Co1Y Co 1.11216(4) 0.78392(3) 0.21608(3)
Co1Z Co 1.11216(4) 0.21608(3) 0.78392(3)
Co1AA Co -0.11216(4) 0.78392(3) 0.78392(3)
Co1HA Co 0.21608(4) 0.78392(3) 1.11216(3)
Co1IA Co 0.78392(4) 0.78392(3) -0.11216(3)
O1L O 0.72670(18) 0.43055(20) 0.63753(18)
O1M O 0.27330(18) 0.56945(20) 0.63753(18)
O1N O 0.72670(18) 0.56945(20) 0.36247(18)
O1O O 0.27330(18) 0.43055(20) 0.36247(18)
O2A O 0.6721(2) 0.3279(2) 0.6721(2)
O2C O 0.3279(2) 0.3279(2) 0.3279(2)
N1BA N 0.5414(2) 0.7551(2) 0.2449(3)
N1EA N 0.4586(2) 0.7551(2) 0.7551(3)
N1FA N 0.2449(2) 0.5414(2) 0.7551(3)
N1GA N 0.7551(2) 0.5414(2) 0.2449(3)
N1HA N 0.2449(2) 0.4586(2) 0.2449(3)
N1IA N 0.7551(2) 0.4586(2) 0.7551(3)
N2L N 0.6989(2) 0.3409(2) 0.79270(19)
N2O N 0.3011(2) 0.3409(2) 0.20730(19)
N2P N 0.3409(2) 0.7927(2) 0.69890(19)
N2Q N 0.6591(2) 0.7927(2) 0.30110(19)
#END
