
#######################################################################
#
#                 Cambridge Crystallographic Data Centre
#                                CCDC
#
#######################################################################
#
# If this CIF has been generated from an entry in the Cambridge
# Structural Database, then it will include bibliographic, chemical,
# crystal, experimental, refinement or atomic coordinate data resulting
# from the CCDC's data processing and validation procedures.
#
#######################################################################

data_CSD_CIF_LUQCUW
_audit_creation_date 2010-10-20
_audit_creation_method CSD-ConQuest-V1
_database_code_CSD LUQCUW
_database_code_depnum_ccdc_archive 'CCDC 733846'
_chemical_formula_sum 'C8 H22 Ga2 N2 O12 P2'
_chemical_formula_moiety
;
(C2 H4 Ga2 O12 P2 2-)n,n(C6 H18 N2 2+)
;
_journal_coden_Cambridge 971
_journal_volume 12
_journal_year 2010
_journal_page_first 873
_journal_name_full 'Solid State Sciences '
loop_
_publ_author_name
"Guangpeng Zhou"
"Yunlin Yang"
"Ruiqing Fan"
"Xinrong Liu"
"Qing Wang"
"Fuping Wang"
_chemical_name_systematic
;
catena-[N,N,N',N'-Tetramethylethylenediammonium bis(\m~3~-hydrogen 
phosphito)-(\m~2~-oxalato)-dihydroxy-di-gallium(iii)]
;
_cell_volume    444.086
_exptl_crystal_colour 'colorless'
_exptl_crystal_density_diffrn 2.018
_exptl_crystal_description 'prism'
_diffrn_ambient_temperature 293
#These two values have been output from a single CSD field.
_refine_ls_R_factor_gt 0.0383
_refine_ls_wR_factor_gt 0.0383
_symmetry_cell_setting triclinic
_symmetry_space_group_name_H-M 'P -1'
_symmetry_Int_Tables_number 2
loop_
_symmetry_equiv_pos_site_id
_symmetry_equiv_pos_as_xyz
1 x,y,z
2 -x,-y,-z
_cell_length_a 6.2571(14)
_cell_length_b 8.5580(18)
_cell_length_c 9.253(2)
_cell_angle_alpha 93.219(3)
_cell_angle_beta 108.265(3)
_cell_angle_gamma 106.956(3)
_cell_formula_units_Z 1
loop_
_atom_type_symbol
_atom_type_radius_bond
C 0.68
H 0.23
Ga 1.22
N 0.68
O 0.68
P 1.05
loop_
_atom_site_label
_atom_site_type_symbol
_atom_site_fract_x
_atom_site_fract_y
_atom_site_fract_z
Ga1 Ga 0.20853(5) 0.58269(4) 0.80859(3)
P1 P -0.29369(13) 0.51685(11) 0.85895(9)
H1 H -0.345(7) 0.362(2) 0.817(4)
O1 O 0.1583(4) 0.6943(3) 0.6117(3)
O2 O -0.0960(4) 0.6108(3) 0.8017(3)
O3 O -0.2159(4) 0.5527(3) 1.0342(3)
O4 O -0.0119(4) 0.6219(3) 0.3558(3)
O5 O 0.3604(4) 0.7883(3) 0.9250(2)
H2 H 0.40330 0.77970 1.01670
O6 O -0.5115(5) 0.5624(4) 0.7774(3)
N1 N -0.0433(6) 0.9455(4) 0.7887(4)
H3 H -0.016(8) 0.859(6) 0.809(5)
C1 C 0.0433(5) 0.5926(4) 0.4899(4)
C2 C 0.1780(7) 1.0562(5) 0.7728(5)
H4 H 0.31020 1.07040 0.86570
H5 H 0.16040 1.16200 0.75510
H6 H 0.20620 1.00780 0.68740
C3 C -0.2504(9) 0.9219(6) 0.6455(5)
H7 H -0.39200 0.85040 0.65710
H8 H -0.22340 0.87290 0.55970
H9 H -0.26940 1.02720 0.62720
C4 C -0.0932(7) 1.0048(5) 0.9258(4)
H10 H -0.24990 0.93720 0.92170
H11 H -0.09200 1.11820 0.92410
Ga1A Ga -0.20853(5) 0.41731(4) 0.19141(3)
Ga1A* Ga -0.20853(5) 0.41731(4) 1.19141(3)
Ga1* Ga -0.79147(5) 0.58269(4) 0.80859(3)
Ga1** Ga 1.20853(5) 0.58269(4) 0.80859(3)
Ga1A** Ga 0.79147(5) 0.41731(4) 1.19141(3)
P1* P 0.70631(13) 0.51685(11) 0.85895(9)
H1* H 0.655(7) 0.362(2) 0.817(4)
O1A O -0.1583(4) 0.3057(3) 0.3883(3)
O2* O 0.9040(4) 0.6108(3) 0.8017(3)
O2A O 0.0960(4) 0.3892(3) 0.1983(3)
O3* O 0.7841(4) 0.5527(3) 1.0342(3)
O3A O 0.2159(4) 0.4473(3) 0.9658(3)
O3** O -0.2159(4) 0.5527(3) 0.0342(3)
O4A O 0.0119(4) 0.3781(3) 0.6442(3)
O5A O -0.3604(4) 0.2117(3) 0.0750(2)
H2A H -0.40330 0.22030 -0.01670
O6* O 0.4885(5) 0.5624(4) 0.7774(3)
O6A O -0.4885(5) 0.4376(4) 0.2226(3)
N1A N 0.0433(6) 1.0545(4) 1.2113(4)
H3A H 0.016(8) 1.141(6) 1.191(5)
C1A C -0.0433(5) 0.4074(4) 0.5101(4)
C2A C -0.1780(7) 0.9438(5) 1.2272(5)
H4A H -0.31020 0.92960 1.13430
H5A H -0.16040 0.83800 1.24490
H6A H -0.20620 0.99220 1.31260
C3A C 0.2504(9) 1.0781(6) 1.3545(5)
H7A H 0.39200 1.14960 1.34290
H8A H 0.22340 1.12710 1.44030
H9A H 0.26940 0.97280 1.37280
C4A C 0.0932(7) 0.9952(5) 1.0742(4)
H10A H 0.24990 1.06280 1.07830
H11A H 0.09200 0.88180 1.07590
#END
