
#######################################################################
#
#                 Cambridge Crystallographic Data Centre
#                                CCDC
#
#######################################################################
#
# If this CIF has been generated from an entry in the Cambridge
# Structural Database, then it will include bibliographic, chemical,
# crystal, experimental, refinement or atomic coordinate data resulting
# from the CCDC's data processing and validation procedures.
#
#######################################################################

data_CSD_CIF_LUQNIX
_audit_creation_date 2020-07-25
_audit_creation_method CSD-ConQuest-V1
_database_code_CSD LUQNIX
_database_code_depnum_ccdc_archive 'CCDC 1016622'
_chemical_formula_sum 'C14 H20 Cu1 N6 O8'
_chemical_formula_moiety
;
(C10 H4 Cu1 N4 O8 2-)n,2(C2 H8 N1 1+)
;
_journal_coden_Cambridge 119
_journal_volume 1223
_journal_year 2021
_journal_page_first 128964
_journal_name_full 'J.Mol.Struct. '
loop_
_publ_author_name
"A.K.Bharati"
"P.Lama"
"D.Bienko"
"K.A.Siddiqui"
_chemical_name_systematic
;
catena-[bis(dimethylammonium) 
bis(\m-2,4-dioxo-3,4-dihydro-2H-pyrimidin-1-yl-6-carboxylato)-copper]
;
_cell_volume    880.472
_exptl_crystal_colour 'blue'
_exptl_crystal_density_diffrn 1.75
_exptl_crystal_description 'block'
_diffrn_ambient_temperature 173
#These two values have been output from a single CSD field.
_refine_ls_R_factor_gt 0.0426
_refine_ls_wR_factor_gt 0.0426
_symmetry_cell_setting monoclinic
_symmetry_space_group_name_H-M 'P 21/c'
_symmetry_Int_Tables_number 14
loop_
_symmetry_equiv_pos_site_id
_symmetry_equiv_pos_as_xyz
1 x,y,z
2 -x,1/2+y,1/2-z
3 -x,-y,-z
4 x,-1/2-y,-1/2+z
_cell_length_a 10.045(3)
_cell_length_b 9.760(3)
_cell_length_c 8.991(2)
_cell_angle_alpha 90
_cell_angle_beta 92.728(5)
_cell_angle_gamma 90
_cell_formula_units_Z 2
loop_
_atom_type_symbol
_atom_type_radius_bond
C 0.68
H 0.23
Cu 1.32
N 0.68
O 0.68
loop_
_atom_site_label
_atom_site_type_symbol
_atom_site_fract_x
_atom_site_fract_y
_atom_site_fract_z
H1 H -0.238(4) 0.267(4) -0.021(4)
H2 H -0.354(5) 0.325(5) -0.097(6)
N1 N -0.2831(3) 0.3371(3) -0.0259(3)
C1 C -0.3441(3) 0.3550(3) 0.1190(3)
H3 H -0.27380 0.36190 0.19800
H4 H -0.40110 0.27600 0.13820
H5 H -0.39790 0.43870 0.11690
C2 C -0.1989(4) 0.4538(4) -0.0663(4)
H6 H -0.25350 0.53690 -0.07510
H7 H -0.15920 0.43500 -0.16170
H8 H -0.12800 0.46710 0.01110
Cu1 Cu 0.00000 0.00000 0.00000
O1 O -0.3348(2) 0.0602(2) -0.0261(2)
O2 O -0.4701(2) -0.3334(2) 0.1865(2)
O3 O 0.0806(2) -0.1279(2) 0.1450(2)
N2 N -0.3961(3) -0.1360(3) 0.0851(3)
H9 H -0.47950 -0.11380 0.06250
N3 N -0.1694(3) -0.0786(2) 0.0744(3)
C3 C -0.1448(3) -0.1902(3) 0.1629(3)
O4 O 0.0335(2) -0.2857(3) 0.3130(3)
C4 C -0.3747(3) -0.2569(3) 0.1613(3)
C5 C -0.2995(3) -0.0460(3) 0.0404(3)
C6 C -0.2388(3) -0.2802(3) 0.2080(3)
H10 H -0.21440 -0.35640 0.26910
C7 C 0.0004(3) -0.2060(3) 0.2129(3)
O1B O 0.3348(2) -0.0602(2) 0.0261(2)
O2B O 0.4701(2) 0.3334(2) -0.1865(2)
O3B O -0.0806(2) 0.1279(2) -0.1450(2)
N2B N 0.3961(3) 0.1360(3) -0.0851(3)
H9B H 0.47950 0.11380 -0.06250
N3B N 0.1694(3) 0.0786(2) -0.0744(3)
C3B C 0.1448(3) 0.1902(3) -0.1629(3)
O4B O -0.0335(2) 0.2857(3) -0.3130(3)
C4B C 0.3747(3) 0.2569(3) -0.1613(3)
C5B C 0.2995(3) 0.0460(3) -0.0404(3)
C6B C 0.2388(3) 0.2802(3) -0.2080(3)
H10B H 0.21440 0.35640 -0.26910
C7B C -0.0004(3) 0.2060(3) -0.2129(3)
Cu1A Cu 0.00000 -0.50000 0.50000
Cu1A* Cu 0.00000 0.50000 -0.50000
O4A O -0.0335(2) 0.2143(3) 0.1870(3)
O4C O 0.0335(2) -0.2143(3) -0.1870(3)
#END
