
#######################################################################
#
#                 Cambridge Crystallographic Data Centre
#                                CCDC
#
#######################################################################
#
# If this CIF has been generated from an entry in the Cambridge
# Structural Database, then it will include bibliographic, chemical,
# crystal, experimental, refinement or atomic coordinate data resulting
# from the CCDC's data processing and validation procedures.
#
#######################################################################

data_CSD_CIF_LUQNAN
_audit_creation_date 2010-11-04
_audit_creation_method CSD-ConQuest-V1
_database_code_CSD LUQNAN
_database_code_depnum_ccdc_archive 'CCDC 780865'
_chemical_formula_sum 'C15 H26 Cr1 Mn1 N1 O17'
_chemical_formula_moiety
;
(C9 H22 N1 O3 1+)n,n(C6 Cr1 Mn1 O12 1-),2n(H2 O1)
;
_journal_coden_Cambridge 4
_journal_volume 131
_journal_year 2009
_journal_page_first 13516
_journal_name_full 'J.Am.Chem.Soc. '
loop_
_publ_author_name
"H.Okawa"
"A.Shigematsu"
"M.Sadakiyo"
"T.Miyagawa"
"K.Yoneda"
"M.Ohba"
"H.Kitagawa"
_chemical_name_systematic
;
catena-(tris(3-Hydroxypropyl)ammonium tris(\m~2~-oxalato)-chromium-manganese 
dihydrate)
;
_cell_volume   1204.159
_exptl_crystal_colour 'purple'
_exptl_crystal_density_diffrn 1.653
_exptl_crystal_description 'prism'
_exptl_crystal_preparation 'methanol'
_diffrn_ambient_temperature 100
_refine_special_details
;
A water molecule is equally disordered over three sites by symmetry.

;
#These two values have been output from a single CSD field.
_refine_ls_R_factor_gt 0.0805
_refine_ls_wR_factor_gt 0.0805
_symmetry_cell_setting hexagonal
_symmetry_space_group_name_H-M 'P 63'
_symmetry_Int_Tables_number 173
loop_
_symmetry_equiv_pos_site_id
_symmetry_equiv_pos_as_xyz
1 x,y,z
2 x-y,x,1/2+z
3 -y,x-y,z
4 -x,-y,1/2+z
5 -x+y,-x,z
6 y,-x+y,1/2+z
_cell_length_a 9.3808(14)
_cell_length_b 9.3808(14)
_cell_length_c 15.8006(14)
_cell_angle_alpha 90
_cell_angle_beta 90
_cell_angle_gamma 120
_cell_formula_units_Z 2
loop_
_atom_type_symbol
_atom_type_radius_bond
C 0.68
Cr 1.39
Mn 1.66
N 0.68
O 0.68
loop_
_atom_site_label
_atom_site_type_symbol
_atom_site_fract_x
_atom_site_fract_y
_atom_site_fract_z
Mn1 Mn 0.00000 0.00000 0.5424(8)
Cr1 Cr -0.33330 -0.66670 0.54365(14)
O1 O 0.293(6) 0.365(5) 0.379(3)
O2 O -0.3190(13) -0.4836(9) 0.4761(5)
O3 O -0.1853(15) -0.2062(11) 0.4767(11)
O4 O -0.1621(11) -0.4798(7) 0.6138(5)
O5 O -0.0257(13) -0.2079(10) 0.6151(9)
O6 O 1.00000 0.00000 0.2584(18)
O7 O 0.654(9) 0.269(4) -0.030(2)
N1 N 0.66670 0.33330 0.2285(17)
C1 C -0.2185(20) -0.3507(16) 0.5054(10)
C2 C -0.1210(18) -0.3426(14) 0.5824(8)
C3 C 0.215(8) 0.292(6) 0.292(3)
C4 C 0.550(7) 0.401(5) 0.2726(18)
C5 C 0.398(6) 0.318(5) 0.274(2)
Cr1B Cr 0.66670 0.33340 0.54365(14)
Cr1D Cr -0.33340 0.33330 0.54365(14)
O1B O 0.635(6) -0.072(5) 0.379(3)
O1D O 1.072(6) 0.707(5) 0.379(3)
O2B O 0.4836(13) 0.1646(9) 0.4761(5)
O2D O -0.1646(13) 0.3190(9) 0.4761(5)
O2B* O -0.5164(13) -0.8354(9) 0.4761(5)
O2D* O -0.1646(13) -0.6810(9) 0.4761(5)
O3B O 0.2062(15) 0.0209(11) 0.4767(11)
O3D O -0.0209(15) 0.1853(11) 0.4767(11)
O4B O 0.4798(11) 0.3177(7) 0.6138(5)
O4D O -0.3177(11) 0.1621(7) 0.6138(5)
O4B* O -0.5202(11) -0.6823(7) 0.6138(5)
O4D* O -0.3177(11) -0.8379(7) 0.6138(5)
O5B O 0.2079(13) 0.1822(10) 0.6151(9)
O5D O -0.1822(13) 0.0257(10) 0.6151(9)
O7B O 0.731(9) 0.385(4) -0.030(2)
O7D O 0.615(9) 0.346(4) -0.030(2)
C1B C 0.3507(20) 0.1322(16) 0.5054(10)
C1D C -0.1322(20) 0.2185(16) 0.5054(10)
C2B C 0.3426(18) 0.2216(14) 0.5824(8)
C2D C -0.2216(18) 0.1210(14) 0.5824(8)
C3B C 0.708(8) -0.077(6) 0.292(3)
C3D C 1.077(8) 0.785(6) 0.292(3)
C4B C 0.599(7) 0.149(5) 0.2726(18)
C4D C 0.851(7) 0.450(5) 0.2726(18)
C5B C 0.682(6) 0.080(5) 0.274(2)
C5D C 0.920(6) 0.602(5) 0.274(2)
#END
