
#######################################################################
#
#                 Cambridge Crystallographic Data Centre
#                                CCDC
#
#######################################################################
#
# If this CIF has been generated from an entry in the Cambridge
# Structural Database, then it will include bibliographic, chemical,
# crystal, experimental, refinement or atomic coordinate data resulting
# from the CCDC's data processing and validation procedures.
#
#######################################################################

data_CSD_CIF_LUQRIY
_audit_creation_date 2003-04-28
_audit_creation_method CSD-ConQuest-V1
_database_code_CSD LUQRIY
_chemical_formula_sum 'C10 H18 Bi1 N2 O11 Rb1'
_chemical_formula_moiety
;
(Rb1 1+)n,n(C10 H12 Bi1 N2 O8 1-),3n(H2 O1)
;
_journal_coden_Cambridge 233
_journal_volume 47
_journal_year 2002
_journal_page_first 1269
_journal_name_full 'Zh.Neorg.Khim.(Russ.)(Russ.J.Inorg.Chem.) '
loop_
_publ_author_name
"R.L.Davidovich"
"A.V.Gerasimenko"
"V.B.Logvinova"
_chemical_name_systematic
;
catena-(Rubidium (\m~3~-ethylenediaminotetra-acetato)-bismuth(iii) trihydrate)
;
_cell_volume   1695.063
_exptl_crystal_density_diffrn 2.495
_exptl_crystal_description 'plate'
_diffrn_ambient_temperature 293
#These two values have been output from a single CSD field.
_refine_ls_R_factor_gt 0.0257
_refine_ls_wR_factor_gt 0.0257
_symmetry_cell_setting monoclinic
_symmetry_space_group_name_H-M 'P 21/n'
_symmetry_Int_Tables_number 14
loop_
_symmetry_equiv_pos_site_id
_symmetry_equiv_pos_as_xyz
1 x,y,z
2 1/2-x,1/2+y,1/2-z
3 -x,-y,-z
4 -1/2+x,-1/2-y,-1/2+z
_cell_length_a 6.850(1)
_cell_length_b 9.896(1)
_cell_length_c 25.033(2)
_cell_angle_alpha 90
_cell_angle_beta 92.686(2)
_cell_angle_gamma 90
_cell_formula_units_Z 4
loop_
_atom_type_symbol
_atom_type_radius_bond
C 0.68
H 0.23
Bi 1.84
N 0.68
O 0.68
Rb 1.47
loop_
_atom_site_label
_atom_site_type_symbol
_atom_site_fract_x
_atom_site_fract_y
_atom_site_fract_z
Bi1 Bi 0.7055(1) 0.2649(1) 0.1522(1)
Rb1 Rb 0.3979(1) 0.9068(1) 0.1177(1)
O1 O 0.6347(3) 0.3670(2) 0.2437(1)
O2 O 0.7637(3) 0.4946(2) 0.3098(1)
O3 O 0.5236(3) 0.4134(2) 0.1001(1)
O4 O 0.4430(3) 0.6242(2) 0.0792(1)
O5 O 1.0303(3) 0.2305(2) 0.1843(1)
O6 O 1.3333(3) 0.1798(2) 0.1648(1)
O7 O 0.6633(3) 0.1136(2) 0.0789(1)
O8 O 0.7171(3) 0.0651(2) -0.0059(1)
O9 O 0.9896(4) 0.8848(3) 0.1168(1)
O10 O 0.7256(4) 0.7964(3) 0.0307(1)
O11 O 0.2652(4) 0.7813(4) 0.2140(1)
N1 N 0.8372(3) 0.4997(2) 0.1674(1)
N2 N 0.9311(3) 0.3165(2) 0.0806(1)
C1 C 0.8912(4) 0.5200(3) 0.2251(1)
C2 C 0.7513(4) 0.4566(3) 0.2621(1)
C3 C 0.6735(4) 0.5932(3) 0.1516(1)
C4 C 0.5366(4) 0.5408(3) 0.1059(1)
C5 C 1.0095(4) 0.5212(3) 0.1346(1)
C6 C 0.9789(4) 0.4631(3) 0.0796(1)
C7 C 1.1114(4) 0.2339(3) 0.0923(1)
C8 C 1.1641(4) 0.2144(3) 0.1512(1)
C9 C 0.8410(4) 0.2721(3) 0.0285(1)
C10 C 0.7342(4) 0.1390(3) 0.0334(1)
H1 H 0.916(6) 0.906(4) 0.135(2)
H2 H 0.933(5) 0.867(4) 0.084(2)
H3 H 0.697(6) 0.847(4) 0.019(2)
H4 H 0.615(6) 0.744(4) 0.037(2)
H5 H 0.287(7) 0.752(4) 0.244(2)
H6 H 0.149(7) 0.778(4) 0.213(2)
O2A O 0.7363(3) -0.0054(2) 0.1902(1)
O6* O 0.3333(3) 0.1798(2) 0.1648(1)
Bi1A Bi 0.7945(1) 0.7649(1) 0.3478(1)
Bi1* Bi 1.7055(1) 0.2649(1) 0.1522(1)
#END
