
#######################################################################
#
#                 Cambridge Crystallographic Data Centre
#                                CCDC
#
#######################################################################
#
# If this CIF has been generated from an entry in the Cambridge
# Structural Database, then it will include bibliographic, chemical,
# crystal, experimental, refinement or atomic coordinate data resulting
# from the CCDC's data processing and validation procedures.
#
#######################################################################

data_CSD_CIF_LURDOU
_audit_creation_date 2020-07-27
_audit_creation_method CSD-ConQuest-V1
_database_code_CSD LURDOU
_database_code_depnum_ccdc_archive 'CCDC 1994127'
_chemical_formula_sum 'C46 H37 In1 N3 O10 S4'
_chemical_formula_moiety
;
(C34 H16 In1 O8 S4 1-)n,0.5n(C12 H14 N2 2+),2n(C3 H7 N1 O1)
;
_journal_coden_Cambridge 179
_journal_volume 59
_journal_year 2020
_journal_page_first 18763
_journal_name_full 'Angew.Chem.,Int.Ed. '
loop_
_publ_author_name
"Yan Zhou"
"Fei Yu"
"Jian Su"
"M.Kurmoo"
"Jing-Lin Zuo"
_chemical_name_systematic
;
catena-(N,N'-dimethyl-4,4'-bipyridinium 
(\m-4,4',4'',4'''-tetrathiafulvalenetetrabenzoato)-indium dimethylformamide 
solvate)
;
_cell_volume  12095.827
_exptl_crystal_description 'block'
_diffrn_ambient_temperature 193.0
_refine_special_details
;
The structure is disordered. The cation is disordered by symmetry. The 
SQUEEZE/PLATON program was used to model the disordered solvent.
;
#These two values have been output from a single CSD field.
_refine_ls_R_factor_gt 0.095
_refine_ls_wR_factor_gt 0.095
_symmetry_cell_setting orthorhombic
_symmetry_space_group_name_H-M 'C c c m'
_symmetry_Int_Tables_number 66
loop_
_symmetry_equiv_pos_site_id
_symmetry_equiv_pos_as_xyz
1 x,y,z
2 -x,-y,z
3 -x,y,1/2-z
4 x,-y,1/2-z
5 1/2+x,1/2+y,z
6 1/2-x,1/2-y,z
7 1/2-x,1/2+y,1/2-z
8 1/2+x,1/2-y,1/2-z
9 -x,-y,-z
10 x,y,-z
11 x,-y,-1/2+z
12 -x,y,-1/2+z
13 -1/2-x,-1/2-y,-z
14 -1/2+x,-1/2+y,-z
15 -1/2+x,-1/2-y,-1/2+z
16 -1/2-x,-1/2+y,-1/2+z
_cell_length_a 14.4482(10)
_cell_length_b 36.174(2)
_cell_length_c 23.1433(14)
_cell_angle_alpha 90
_cell_angle_beta 90
_cell_angle_gamma 90
_cell_formula_units_Z 8
loop_
_atom_type_symbol
_atom_type_radius_bond
C 0.68
H 0.23
In 1.42
N 0.68
O 0.68
S 1.02
loop_
_atom_site_label
_atom_site_type_symbol
_atom_site_fract_x
_atom_site_fract_y
_atom_site_fract_z
In1 In 0.00000 0.21625(3) 0.25000
S1 S 0.2747(4) 0.41442(10) 0.43641(15)
S2 S 0.3529(4) 0.49821(12) 0.56373(15)
O1 O -0.0125(6) 0.2613(2) 0.3176(3)
O2 O 0.1252(6) 0.2468(2) 0.2872(3)
O3 O 0.3963(9) 0.6835(3) 0.6968(4)
O4 O 0.5403(9) 0.6728(3) 0.6822(4)
C1 C 0.0733(10) 0.2659(3) 0.3182(5)
C2 C 0.1117(5) 0.29518(16) 0.3560(3)
C3 C 0.0522(4) 0.31550(16) 0.3910(4)
H1 H -0.01256 0.31109 0.38955
C4 C 0.0876(5) 0.34227(17) 0.4280(3)
H2 H 0.04693 0.35616 0.45186
C5 C 0.1823(5) 0.34872(15) 0.4300(3)
C6 C 0.2418(4) 0.32840(14) 0.3951(3)
H3 H 0.30656 0.33281 0.39649
C7 C 0.2064(5) 0.30163(17) 0.3581(3)
H4 H 0.24707 0.28775 0.33418
C8 C 0.2171(11) 0.3774(3) 0.4707(5)
C9 C 0.298(2) 0.4387(5) 0.50000
C10 C 0.328(2) 0.4731(6) 0.50000
C11 C 0.3739(13) 0.5406(3) 0.5298(6)
C12 C 0.4580(15) 0.6653(4) 0.6740(7)
C13 C 0.3937(13) 0.5715(4) 0.5690(7)
C14 C 0.3363(12) 0.6023(4) 0.5691(7)
H5 H 0.28281 0.60283 0.54527
C15 C 0.3572(13) 0.6323(4) 0.6042(8)
H6 H 0.31794 0.65342 0.60434
C16 C 0.4354(13) 0.6316(3) 0.6391(7)
C17 C 0.4928(12) 0.6007(4) 0.6390(7)
H7 H 0.54629 0.60018 0.66282
C18 C 0.4719(13) 0.5707(3) 0.6039(8)
H8 H 0.51116 0.54959 0.60375
C19 C -0.5668(15) 0.2716(6) 0.5978(10)
H9 H -0.53828 0.27034 0.63615
H10 H -0.61087 0.29217 0.59662
H11 H -0.59935 0.24839 0.58977
C20 C -0.5157(10) 0.2803(7) 0.4946(8)
H12 H -0.57861 0.27846 0.48297
N1 N -0.4926(11) 0.2776(5) 0.5528(8)
C21 C -0.4006(12) 0.2803(8) 0.5699(7)
H13 H -0.38482 0.27846 0.60959
C22 C -0.3318(10) 0.2858(8) 0.5288(8)
H14 H -0.26892 0.28771 0.54046
C23 C -0.3549(11) 0.2886(5) 0.4707(8)
C24 C -0.4469(12) 0.2858(7) 0.4536(7)
H15 H -0.46271 0.28771 0.41384
C25 C -0.2792(8) 0.2947(6) 0.4267(6)
C26 C -0.223(2) 0.3258(9) 0.4321(14)
H16 H -0.23313 0.34264 0.46297
C27 C -0.153(2) 0.3322(9) 0.3923(14)
H17 H -0.11484 0.35345 0.39601
N2 N -0.1386(4) 0.3075(4) 0.3472(4)
C28 C -0.195(3) 0.2764(9) 0.3418(15)
H18 H -0.18470 0.25958 0.31090
C29 C -0.265(3) 0.2700(9) 0.3815(16)
H19 H -0.30299 0.24878 0.37787
C30 C -0.06182 0.31479 0.30440
H20 H -0.03360 0.33775 0.31840
H21 H -0.01780 0.29438 0.30890
H22 H -0.07803 0.31752 0.26351
C31? C 0.3903(15) 0.5733(4) 0.5653(8)
C32? C 0.3287(13) 0.5838(5) 0.6084(9)
H23? H 0.27318 0.57027 0.61417
C33? C 0.3485(14) 0.6142(5) 0.6432(8)
H24? H 0.30643 0.62134 0.67265
C34? C 0.4298(15) 0.6340(4) 0.6348(8)
C35? C 0.4914(13) 0.6235(5) 0.5916(8)
H25? H 0.54694 0.63702 0.58591
C36? C 0.4716(14) 0.5931(5) 0.5569(8)
H26? H 0.51369 0.58595 0.52743
S1I S 0.2747(4) 0.41442(10) 0.56359(15)
S2I S 0.3529(4) 0.49821(12) 0.43627(15)
O1I O -0.0125(6) 0.2613(2) 0.6824(3)
O2I O 0.1252(6) 0.2468(2) 0.7128(3)
O3I O 0.3963(9) 0.6835(3) 0.3032(4)
O4I O 0.5403(9) 0.6728(3) 0.3178(4)
C1I C 0.0733(10) 0.2659(3) 0.6818(5)
C2I C 0.1117(5) 0.29518(16) 0.6440(3)
C3I C 0.0522(4) 0.31550(16) 0.6090(4)
H1I H -0.01256 0.31109 0.61045
C4I C 0.0876(5) 0.34227(17) 0.5720(3)
H2I H 0.04693 0.35616 0.54814
C5I C 0.1823(5) 0.34872(15) 0.5700(3)
C6I C 0.2418(4) 0.32840(14) 0.6049(3)
H3I H 0.30656 0.33281 0.60351
C7I C 0.2064(5) 0.30163(17) 0.6419(3)
H4I H 0.24707 0.28775 0.66582
C8I C 0.2171(11) 0.3774(3) 0.5293(5)
C11I C 0.3739(13) 0.5406(3) 0.4702(6)
C12I C 0.4580(15) 0.6653(4) 0.3260(7)
C13I C 0.3937(13) 0.5715(4) 0.4310(7)
C14I C 0.3363(12) 0.6023(4) 0.4309(7)
H5I H 0.28281 0.60283 0.45473
C15I C 0.3572(13) 0.6323(4) 0.3958(8)
H6I H 0.31794 0.65342 0.39566
C16I C 0.4354(13) 0.6316(3) 0.3609(7)
C17I C 0.4928(12) 0.6007(4) 0.3610(7)
H7I H 0.54629 0.60018 0.33718
C18I C 0.4719(13) 0.5707(3) 0.3961(8)
H8I H 0.51116 0.54959 0.39625
In1D In 0.50000 0.71625(3) 0.25000
In1I In 0.00000 0.21625(3) 0.75000
In1M In 0.50000 0.71625(3) 0.75000
O1B O 0.0125(6) 0.2613(2) 0.1824(3)
O2B O -0.1252(6) 0.2468(2) 0.2128(3)
O3M O -0.1037(9) 0.1835(3) 0.3032(4)
O3O O 0.1037(9) 0.1835(3) 0.1968(4)
O4M O 0.0403(9) 0.1728(3) 0.3178(4)
O4O O -0.0403(9) 0.1728(3) 0.1822(4)
C19E C 0.0668(15) 0.2284(6) 0.5978(10)
H9E H 0.03828 0.22966 0.63615
H10E H 0.11087 0.20783 0.59662
H11E H 0.09935 0.25161 0.58977
C20E C 0.0157(10) 0.2197(7) 0.4946(8)
H12E H 0.07861 0.22154 0.48297
N1E N -0.0074(11) 0.2224(5) 0.5528(8)
C21E C -0.0994(12) 0.2197(8) 0.5699(7)
H13E H -0.11518 0.22154 0.60959
C22E C -0.1682(10) 0.2142(8) 0.5288(8)
H14E H -0.23108 0.21229 0.54046
C23E C -0.1451(11) 0.2114(5) 0.4707(8)
C24E C -0.0531(12) 0.2142(7) 0.4536(7)
H15E H -0.03729 0.21229 0.41384
C25E C -0.2208(8) 0.2053(6) 0.4267(6)
C26E C -0.277(2) 0.1742(9) 0.4321(14)
H16E H -0.26687 0.15736 0.46297
C27E C -0.347(2) 0.1678(9) 0.3923(14)
H17E H -0.38516 0.14655 0.39601
N2E N -0.3614(4) 0.1925(4) 0.3472(4)
C28E C -0.305(3) 0.2236(9) 0.3418(15)
H18E H -0.31530 0.24042 0.31090
C29E C -0.235(3) 0.2300(9) 0.3815(16)
H19E H -0.19701 0.25122 0.37787
C30E C -0.43818 0.18521 0.30440
H20E H -0.46640 0.16225 0.31840
H21E H -0.48220 0.20562 0.30890
H22E H -0.42197 0.18248 0.26351
C19I C -0.5668(15) 0.2716(6) 0.4022(10)
H9I H -0.53828 0.27034 0.36385
H10I H -0.61087 0.29217 0.40338
H11I H -0.59935 0.24839 0.41023
C20I C -0.5157(10) 0.2803(7) 0.5054(8)
H12I H -0.57861 0.27846 0.51703
N1I N -0.4926(11) 0.2776(5) 0.4472(8)
C21I C -0.4006(12) 0.2803(8) 0.4301(7)
H13I H -0.38482 0.27846 0.39041
C22I C -0.3318(10) 0.2858(8) 0.4712(8)
H14I H -0.26892 0.28771 0.45954
C23I C -0.3549(11) 0.2886(5) 0.5293(8)
C24I C -0.4469(12) 0.2858(7) 0.5464(7)
H15I H -0.46271 0.28771 0.58616
C25I C -0.2792(8) 0.2947(6) 0.5733(6)
C26I C -0.223(2) 0.3258(9) 0.5679(14)
H16I H -0.23313 0.34264 0.53703
C27I C -0.153(2) 0.3322(9) 0.6077(14)
H17I H -0.11484 0.35345 0.60399
N2I N -0.1386(4) 0.3075(4) 0.6528(4)
C28I C -0.195(3) 0.2764(9) 0.6582(15)
H18I H -0.18470 0.25958 0.68910
C29I C -0.265(3) 0.2700(9) 0.6185(16)
H19I H -0.30299 0.24878 0.62213
C30I C -0.06182 0.31479 0.69560
H20I H -0.03360 0.33775 0.68160
H21I H -0.01780 0.29438 0.69110
H22I H -0.07803 0.31752 0.73649
C19L C 0.0668(15) 0.2284(6) 0.4022(10)
H9L H 0.03828 0.22966 0.36385
H10L H 0.11087 0.20783 0.40338
H11L H 0.09935 0.25161 0.41023
C20L C 0.0157(10) 0.2197(7) 0.5054(8)
H12L H 0.07861 0.22154 0.51703
N1L N -0.0074(11) 0.2224(5) 0.4472(8)
C21L C -0.0994(12) 0.2197(8) 0.4301(7)
H13L H -0.11518 0.22154 0.39041
C22L C -0.1682(10) 0.2142(8) 0.4712(8)
H14L H -0.23108 0.21229 0.45954
C23L C -0.1451(11) 0.2114(5) 0.5293(8)
C24L C -0.0531(12) 0.2142(7) 0.5464(7)
H15L H -0.03729 0.21229 0.58616
C25L C -0.2208(8) 0.2053(6) 0.5733(6)
C26L C -0.277(2) 0.1742(9) 0.5679(14)
H16L H -0.26687 0.15736 0.53703
C27L C -0.347(2) 0.1678(9) 0.6077(14)
H17L H -0.38516 0.14655 0.60399
N2L N -0.3614(4) 0.1925(4) 0.6528(4)
C28L C -0.305(3) 0.2236(9) 0.6582(15)
H18L H -0.31530 0.24042 0.68910
C29L C -0.235(3) 0.2300(9) 0.6185(16)
H19L H -0.19701 0.25122 0.62213
C30L C -0.43818 0.18521 0.69560
H20L H -0.46640 0.16225 0.68160
H21L H -0.48220 0.20562 0.69110
H22L H -0.42197 0.18248 0.73649
#END
