
#######################################################################
#
#                 Cambridge Crystallographic Data Centre
#                                CCDC
#
#######################################################################
#
# If this CIF has been generated from an entry in the Cambridge
# Structural Database, then it will include bibliographic, chemical,
# crystal, experimental, refinement or atomic coordinate data resulting
# from the CCDC's data processing and validation procedures.
#
#######################################################################

data_CSD_CIF_LUTHAM
_audit_creation_date 2020-07-27
_audit_creation_method CSD-ConQuest-V1
_database_code_CSD LUTHAM
_database_code_depnum_ccdc_archive 'CCDC 2011324'
_chemical_formula_sum 'C56 H77 Gd1 K1 Ni4 O46.5 P4'
_chemical_formula_moiety
;
K1 1+,(C56 H44 Gd1 Ni4 O30 P4 1-)n,16.5(H2 O1)
;
_journal_coden_Cambridge 1295
_journal_volume 119
_journal_year 2020
_journal_page_first 108138
_journal_name_full 'Inorg.Chem.Commun. '
loop_
_publ_author_name
"Ya-Jing Zou"
"Li-Na Wu"
"Ming-Xing Li"
"Zhao-Xi Wang"
_chemical_name_systematic
;
catena-[potassium 
tetrakis(\m-2,2'-phosphinatodibenzoato)-hexa-aqua-gadolinium(iii)-tetra-nickel
(ii) hydrate]
;
_cell_volume  14848.008
_exptl_crystal_colour 'green'
_exptl_special_details
;
Magnetic properties

;
_exptl_crystal_description 'block'
_diffrn_ambient_temperature 296
_refine_special_details
;
The structure is disordered. Additional disordered solvent water molecules 
were not modelled and the disordered density was taken into account using the 
SQUEEZE/PLATON procedure.
;
#These two values have been output from a single CSD field.
_refine_ls_R_factor_gt 0.0614
_refine_ls_wR_factor_gt 0.0614
_symmetry_cell_setting tetragonal
_symmetry_space_group_name_H-M 'I 41/a'
_symmetry_Int_Tables_number 88
loop_
_symmetry_equiv_pos_site_id
_symmetry_equiv_pos_as_xyz
1 x,y,z
2 1/2-x,-y,1/2+z
3 3/4-y,1/4+x,1/4+z
4 3/4+y,3/4-x,3/4+z
5 1/2+x,1/2+y,1/2+z
6 -x,1/2-y,z
7 1/4-y,3/4+x,3/4+z
8 1/4+y,1/4-x,1/4+z
9 -x,-y,-z
10 -1/2+x,y,-1/2-z
11 -3/4+y,-1/4-x,-1/4-z
12 -3/4-y,-3/4+x,-3/4-z
13 -1/2-x,-1/2-y,-1/2-z
14 x,-1/2+y,-z
15 -1/4+y,-3/4-x,-3/4-z
16 -1/4-y,-1/4+x,-1/4-z
_cell_length_a 20.2174(6)
_cell_length_b 20.2174(6)
_cell_length_c 36.326(2)
_cell_angle_alpha 90
_cell_angle_beta 90
_cell_angle_gamma 90
_cell_formula_units_Z 8
loop_
_atom_type_symbol
_atom_type_radius_bond
C 0.68
H 0.23
Gd 1.96
K 2.03
Ni 1.24
O 0.68
P 1.05
loop_
_atom_site_label
_atom_site_type_symbol
_atom_site_fract_x
_atom_site_fract_y
_atom_site_fract_z
K1 K 0.1299(3) 0.2442(4) 0.1590(3)
K2 K 0.50000 0.25000 -0.0585(3)
C1 C 0.2467(5) 0.1689(4) 0.1431(2)
C2 C 0.2899(4) 0.1118(4) 0.1529(2)
C3 C 0.2728(5) 0.0771(5) 0.1843(2)
H1 H 0.23550 0.08960 0.19760
C4 C 0.3101(6) 0.0248(5) 0.1962(3)
H2 H 0.29920 0.00390 0.21820
C5 C 0.3635(5) 0.0023(4) 0.1762(2)
H3 H 0.38910 -0.03300 0.18430
C6 C 0.3775(4) 0.0350(4) 0.1428(2)
H4 H 0.41140 0.01890 0.12800
C7 C 0.3430(4) 0.0899(3) 0.13135(18)
C8 C 0.3119(3) 0.1464(4) 0.05812(19)
C9 C 0.2509(4) 0.1147(4) 0.0641(2)
H5 H 0.24650 0.08450 0.08330
C10 C 0.1965(4) 0.1285(6) 0.0412(3)
H6 H 0.15610 0.10760 0.04520
C11 C 0.2031(4) 0.1721(6) 0.0135(3)
H7 H 0.16660 0.18210 -0.00110
C12 C 0.2625(4) 0.2023(5) 0.0062(2)
H8 H 0.26540 0.23230 -0.01310
C13 C 0.3195(4) 0.1884(3) 0.02758(19)
C14 C 0.3819(4) 0.2188(3) 0.01602(18)
C15 C 0.4702(4) 0.3648(3) 0.15089(17)
C16 C 0.4385(3) 0.4287(3) 0.14032(17)
C17 C 0.4479(4) 0.4816(3) 0.16410(19)
H9 H 0.47510 0.47600 0.18450
C18 C 0.4185(4) 0.5417(4) 0.1585(2)
H10 H 0.42570 0.57600 0.17510
C19 C 0.3780(5) 0.5517(4) 0.1283(2)
H11 H 0.35710 0.59220 0.12470
C20 C 0.3692(4) 0.5003(3) 0.10372(19)
H12 H 0.34260 0.50730 0.08320
C21 C 0.3989(3) 0.4379(3) 0.10850(16)
C22 C 0.3346(3) 0.4092(3) 0.03638(16)
C23 C 0.2738(4) 0.3775(4) 0.0299(2)
H13 H 0.25920 0.34510 0.04610
C24 C 0.2354(4) 0.3939(4) -0.0003(2)
H14 H 0.19550 0.37200 -0.00420
C25 C 0.2553(4) 0.4422(4) -0.0248(2)
H15 H 0.22990 0.45270 -0.04530
C26 C 0.3134(4) 0.4741(4) -0.01790(19)
H16 H 0.32650 0.50740 -0.03400
C27 C 0.3540(3) 0.4596(3) 0.01180(16)
C28 C 0.4154(3) 0.5014(3) 0.01653(16)
Gd1 Gd 0.50000 0.25000 0.08185(2)
Ni1 Ni 0.35844(4) 0.26765(4) 0.13675(2)
Ni2 Ni 0.48287(4) 0.10609(4) 0.02806(2)
O1 O 0.1843(3) 0.1607(3) 0.1455(2)
O2 O 0.2702(3) 0.2234(3) 0.13205(15)
O3 O 0.4051(2) 0.1967(2) 0.10505(11)
O4 O 0.4294(2) 0.0857(2) 0.07536(12)
O5 O 0.4368(2) 0.2003(2) 0.03198(12)
O6 O 0.3818(3) 0.2606(3) -0.00896(15)
O7 O 0.4458(2) 0.3453(2) 0.05889(11)
O8 O 0.3367(2) 0.3236(2) 0.09189(12)
O9 O 0.4532(2) 0.3120(2) 0.13253(11)
O10 O 0.5083(3) 0.3635(3) 0.17704(14)
O11 O 0.4639(2) 0.4789(2) 0.03387(12)
O12 O 0.4131(2) 0.5588(2) 0.00256(13)
O13 O 0.3179(3) 0.3383(3) 0.17083(15)
H17 H 0.34530 0.36910 0.17550
H18 H 0.30420 0.32160 0.19090
O14 O 0.3875(3) 0.2196(3) 0.18372(13)
H19 H 0.42790 0.22140 0.19010
H20 H 0.36610 0.18560 0.19060
O15 O 0.5299(3) 0.1404(2) -0.01772(12)
H21 H 0.57010 0.14530 -0.01130
H22 H 0.52940 0.10840 -0.03290
P1 P 0.37741(8) 0.13079(8) 0.09114(4)
P2 P 0.38154(8) 0.37465(8) 0.07472(4)
O16 O 0.0704(9) 0.1601(10) 0.1918(6)
H23 H 0.08450 0.16800 0.21340
H24 H 0.09190 0.12610 0.18510
O17 O 0.158(2) 0.276(2) 0.2044(12)
H25 H 0.18800 0.24650 0.20820
H26 H 0.12600 0.26280 0.21750
O18 O 0.4764(12) 0.3377(11) -0.1255(6)
H27 H 0.50310 0.37020 -0.12550
H28 H 0.43700 0.35240 -0.12550
O19 O 0.2126(6) 0.3830(7) 0.1277(3)
H29 H 0.23710 0.37020 0.11000
H30 H 0.23310 0.37510 0.14760
C1E C 0.7533(5) 0.3311(4) 0.1431(2)
C2E C 0.7101(4) 0.3882(4) 0.1529(2)
C3E C 0.7272(5) 0.4229(5) 0.1843(2)
H1E H 0.76450 0.41040 0.19760
C4E C 0.6899(6) 0.4752(5) 0.1962(3)
H2E H 0.70080 0.49610 0.21820
C5E C 0.6365(5) 0.4977(4) 0.1762(2)
H3E H 0.61090 0.53300 0.18430
C6E C 0.6225(4) 0.4650(4) 0.1428(2)
H4E H 0.58860 0.48110 0.12800
C7E C 0.6570(4) 0.4101(3) 0.13135(18)
C8E C 0.6881(3) 0.3536(4) 0.05812(19)
C9E C 0.7491(4) 0.3853(4) 0.0641(2)
H5E H 0.75350 0.41550 0.08330
C10E C 0.8035(4) 0.3715(6) 0.0412(3)
H6E H 0.84390 0.39240 0.04520
C11E C 0.7969(4) 0.3279(6) 0.0135(3)
H7E H 0.83340 0.31790 -0.00110
C12E C 0.7375(4) 0.2977(5) 0.0062(2)
H8E H 0.73460 0.26770 -0.01310
C13E C 0.6805(4) 0.3116(3) 0.02758(19)
C14E C 0.6181(4) 0.2812(3) 0.01602(18)
C15E C 0.5298(4) 0.1352(3) 0.15089(17)
C16E C 0.5615(3) 0.0713(3) 0.14032(17)
C17E C 0.5521(4) 0.0184(3) 0.16410(19)
H9E H 0.52490 0.02400 0.18450
C18E C 0.5815(4) -0.0417(4) 0.1585(2)
H10E H 0.57430 -0.07600 0.17510
C19E C 0.6220(5) -0.0517(4) 0.1283(2)
H11E H 0.64290 -0.09220 0.12470
C20E C 0.6308(4) -0.0003(3) 0.10372(19)
H12E H 0.65740 -0.00730 0.08320
C21E C 0.6011(3) 0.0621(3) 0.10850(16)
C22E C 0.6654(3) 0.0908(3) 0.03638(16)
C23E C 0.7262(4) 0.1225(4) 0.0299(2)
H13E H 0.74080 0.15490 0.04610
C24E C 0.7646(4) 0.1061(4) -0.0003(2)
H14E H 0.80450 0.12800 -0.00420
C25E C 0.7447(4) 0.0578(4) -0.0248(2)
H15E H 0.77010 0.04730 -0.04530
C26E C 0.6866(4) 0.0259(4) -0.01790(19)
H16E H 0.67350 -0.00740 -0.03400
C27E C 0.6460(3) 0.0404(3) 0.01180(16)
C28E C 0.5846(3) -0.0014(3) 0.01653(16)
Ni1E Ni 0.64156(4) 0.23235(4) 0.13675(2)
Ni2E Ni 0.51713(4) 0.39391(4) 0.02806(2)
O1E O 0.8157(3) 0.3393(3) 0.1455(2)
O2E O 0.7298(3) 0.2766(3) 0.13205(15)
O3E O 0.5949(2) 0.3033(2) 0.10505(11)
O4E O 0.5706(2) 0.4143(2) 0.07536(12)
O5E O 0.5632(2) 0.2997(2) 0.03198(12)
O6E O 0.6182(3) 0.2394(3) -0.00896(15)
O7E O 0.5542(2) 0.1547(2) 0.05889(11)
O8E O 0.6633(2) 0.1764(2) 0.09189(12)
O9E O 0.5468(2) 0.1880(2) 0.13253(11)
O10E O 0.4917(3) 0.1365(3) 0.17704(14)
O11E O 0.5361(2) 0.0211(2) 0.03387(12)
O12E O 0.5869(2) -0.0588(2) 0.00256(13)
O13E O 0.6821(3) 0.1617(3) 0.17083(15)
H17E H 0.65470 0.13090 0.17550
H18E H 0.69580 0.17840 0.19090
O14E O 0.6125(3) 0.2804(3) 0.18372(13)
H19E H 0.57210 0.27860 0.19010
H20E H 0.63390 0.31440 0.19060
O15E O 0.4701(3) 0.3596(2) -0.01772(12)
H21E H 0.42990 0.35470 -0.01130
H22E H 0.47060 0.39160 -0.03290
P1E P 0.62259(8) 0.36921(8) 0.09114(4)
P2E P 0.61846(8) 0.12535(8) 0.07472(4)
Ni2H Ni 0.51713(4) -0.10609(4) -0.02806(2)
Ni2M Ni 0.48287(4) 0.60609(4) -0.02806(2)
O12H O 0.5869(2) 0.4412(2) -0.00256(13)
O12M O 0.4131(2) 0.0588(2) -0.00256(13)
O16E O 0.9296(9) 0.3399(10) 0.1918(6)
H23E H 0.91550 0.33200 0.21340
H24E H 0.90810 0.37390 0.18510
O17E O 0.842(2) 0.224(2) 0.2044(12)
H25E H 0.81200 0.25350 0.20820
H26E H 0.87400 0.23720 0.21750
#END
