
#######################################################################
#
#                 Cambridge Crystallographic Data Centre
#                                CCDC
#
#######################################################################
#
# If this CIF has been generated from an entry in the Cambridge
# Structural Database, then it will include bibliographic, chemical,
# crystal, experimental, refinement or atomic coordinate data resulting
# from the CCDC's data processing and validation procedures.
#
#######################################################################

data_CSD_CIF_LUWCAI
_audit_creation_date 2010-10-20
_audit_creation_method CSD-ConQuest-V1
_database_code_CSD LUWCAI
_database_code_depnum_ccdc_archive 'CCDC 780016'
_chemical_formula_sum 'C10 H33 Fe5 N4 O40 P8'
_chemical_formula_moiety
;
(C4 H9 Fe5 O40 P8 4-)n,2n(C3 H12 N2 2+)
;
_journal_coden_Cambridge 4
_journal_volume 132
_journal_year 2010
_journal_page_first 2301
_journal_name_full 'J.Am.Chem.Soc. '
loop_
_publ_author_name
"F.Kizewski"
"P.D.Boyle"
"Hesterberg"
"J.D.Martin"
_chemical_name_systematic
;
catena-(hexakis(\m~3~-monohydrogen phosphato)-(\m~2~-dihydrogen 
phosphato)-(\m~2~-monohydrogen phosphato)-bis(\m~2~-oxalato)-penta-iron(iii) 
bis(propane-1,3-diammonium))
;
_cell_volume    942.987
_exptl_crystal_colour 'colorless'
_exptl_crystal_density_diffrn 2.408
_exptl_special_details
;
The phosphato H atoms could not be located

;
_exptl_crystal_description 'prism'
_diffrn_ambient_temperature 173
#These two values have been output from a single CSD field.
_refine_ls_R_factor_gt 0.037
_refine_ls_wR_factor_gt 0.037
_symmetry_cell_setting triclinic
_symmetry_space_group_name_H-M 'P -1'
_symmetry_Int_Tables_number 2
loop_
_symmetry_equiv_pos_site_id
_symmetry_equiv_pos_as_xyz
1 x,y,z
2 -x,-y,-z
_cell_length_a 9.7851(3)
_cell_length_b 9.8986(3)
_cell_length_c 10.7420(3)
_cell_angle_alpha 73.7900(15)
_cell_angle_beta 71.6838(14)
_cell_angle_gamma 79.3001(13)
_cell_formula_units_Z 1
loop_
_atom_type_symbol
_atom_type_radius_bond
C 0.68
H 0.23
Fe 1.52
N 0.68
O 0.68
P 1.05
loop_
_atom_site_label
_atom_site_type_symbol
_atom_site_fract_x
_atom_site_fract_y
_atom_site_fract_z
Fe1 Fe 0.00000 0.00000 0.00000
Fe2 Fe -0.14078(4) 0.37441(4) 0.22905(4)
Fe3 Fe 0.37769(4) -0.09670(4) 0.24490(4)
P1 P 0.06011(8) 0.07087(8) 0.26101(8)
P2 P -0.06026(8) 0.34616(8) -0.08176(8)
P3 P -0.39350(8) 0.63163(8) 0.17673(8)
P4 P 0.36104(8) -0.10483(8) -0.06647(8)
O1 O 0.0402(2) -0.0113(2) 0.1683(2)
O2 O 0.0230(2) 0.2314(2) 0.2139(2)
O3 O 0.2176(2) 0.0510(2) 0.2664(2)
O4 O -0.0411(2) 0.0133(2) 0.4023(2)
O5 O 0.0415(2) 0.2099(2) -0.0720(2)
O6 O -0.1654(2) 0.3646(2) 0.0541(2)
O7 O 0.0193(2) 0.4741(2) -0.1529(2)
O8 O -0.1659(2) 0.3451(2) -0.1677(2)
O9 O -0.3169(2) 0.5098(2) 0.2564(2)
O10 O -0.4774(2) 0.7343(2) 0.2602(2)
O11 O -0.4940(2) 0.5688(2) 0.1229(2)
O12 O -0.2881(2) 0.7092(2) 0.0426(2)
O13 O 0.2111(2) -0.0520(2) -0.0847(2)
O14 O 0.3737(2) -0.1075(2) 0.0701(2)
O15 O 0.4745(2) -0.0282(2) -0.1843(2)
O16 O 0.3998(2) -0.2653(2) -0.0793(2)
O17 O -0.2848(2) 0.2230(2) 0.3410(2)
O18 O -0.3823(2) 0.1086(2) 0.5547(2)
O19 O -0.1404(2) 0.3645(2) 0.4260(2)
O20 O -0.2266(2) 0.2429(2) 0.6397(2)
C1 C -0.3024(3) 0.1947(3) 0.4661(3)
C2 C -0.2153(3) 0.2751(3) 0.5158(3)
N1 N 0.7364(3) 0.8941(3) 0.3656(3)
N2 N 0.7016(3) 0.6580(3) 0.7860(3)
C3 C 0.7749(4) 0.7402(4) 0.4039(4)
C4 C 0.8008(4) 0.6905(4) 0.5396(4)
C5 C 0.6679(4) 0.7049(4) 0.6513(4)
H1 H 0.72100 0.91800 0.28700
H2 H 0.65900 0.91800 0.42400
H3 H 0.80600 0.93600 0.36400
H4 H 0.62400 0.66700 0.85000
H5 H 0.73800 0.57100 0.79800
H6 H 0.76300 0.71000 0.78600
H7 H 0.69600 0.69400 0.40500
H8 H 0.86100 0.71500 0.33800
H9 H 0.87000 0.74600 0.54200
H10 H 0.84000 0.59300 0.55300
H11 H 0.62700 0.80200 0.63800
H12 H 0.59900 0.64700 0.65100
Fe2A Fe 0.14078(4) -0.37441(4) -0.22905(4)
Fe2A* Fe 0.14078(4) 0.62559(4) -0.22905(4)
Fe2* Fe -0.14078(4) -0.62559(4) 0.22905(4)
Fe2** Fe 0.85922(4) -0.62559(4) 0.22905(4)
Fe2A** Fe 0.14078(4) -0.37441(4) 0.77095(4)
Fe3A Fe -0.37769(4) 0.09670(4) -0.24490(4)
Fe3* Fe -0.62231(4) 0.90330(4) 0.24490(4)
Fe3A* Fe 0.62231(4) 0.09670(4) -0.24490(4)
Fe3A** Fe -0.37769(4) 0.09670(4) 0.75510(4)
Fe3** Fe -0.62231(4) -0.09670(4) 0.24490(4)
P1A P -0.06011(8) -0.07087(8) -0.26101(8)
P2A P 0.06026(8) -0.34616(8) 0.08176(8)
P3* P 0.60650(8) -0.36837(8) 0.17673(8)
P4A P -0.36104(8) 0.10483(8) 0.06647(8)
O1A O -0.0402(2) 0.0113(2) -0.1683(2)
O2A O -0.0230(2) -0.2314(2) -0.2139(2)
O3A O -0.2176(2) -0.0510(2) -0.2664(2)
O4A O 0.0411(2) -0.0133(2) -0.4023(2)
O5A O -0.0415(2) -0.2099(2) 0.0720(2)
O6A O 0.1654(2) -0.3646(2) -0.0541(2)
O7A O -0.0193(2) -0.4741(2) 0.1529(2)
O7A* O -0.0193(2) 0.5259(2) 0.1529(2)
O7* O 0.0193(2) -0.5259(2) -0.1529(2)
O8A O 0.1659(2) -0.3451(2) 0.1677(2)
O9* O 0.6831(2) -0.4902(2) 0.2564(2)
O9A O 0.3169(2) -0.5098(2) -0.2564(2)
O10* O 0.5226(2) -0.2657(2) 0.2602(2)
O10A O -0.5226(2) 0.2657(2) -0.2602(2)
O11* O 0.5060(2) -0.4312(2) 0.1229(2)
O12* O 0.7119(2) -0.2908(2) 0.0426(2)
O13A O -0.2111(2) 0.0520(2) 0.0847(2)
O14A O -0.3737(2) 0.1075(2) -0.0701(2)
O15A O -0.4745(2) 0.0282(2) 0.1843(2)
O15A* O 0.5255(2) 0.0282(2) 0.1843(2)
O15* O -0.5255(2) -0.0282(2) -0.1843(2)
O16A O -0.3998(2) 0.2653(2) 0.0793(2)
O17A O 0.2848(2) -0.2230(2) 0.6590(2)
O17A* O 0.2848(2) -0.2230(2) -0.3410(2)
O18A O 0.3823(2) -0.1086(2) 0.4453(2)
O18* O -0.3823(2) 0.1086(2) -0.4453(2)
O19A O 0.1404(2) -0.3645(2) 0.5740(2)
O19A* O 0.1404(2) -0.3645(2) -0.4260(2)
O20A O 0.2266(2) -0.2429(2) 0.3603(2)
O20* O -0.2266(2) 0.2429(2) -0.3603(2)
C1A C 0.3024(3) -0.1947(3) 0.5339(3)
C2A C 0.2153(3) -0.2751(3) 0.4842(3)
#END
