
#######################################################################
#
#                 Cambridge Crystallographic Data Centre
#                                CCDC
#
#######################################################################
#
# If this CIF has been generated from an entry in the Cambridge
# Structural Database, then it will include bibliographic, chemical,
# crystal, experimental, refinement or atomic coordinate data resulting
# from the CCDC's data processing and validation procedures.
#
#######################################################################

data_CSD_CIF_LUWKIZ
_audit_creation_date 2015-10-08
_audit_creation_method CSD-ConQuest-V1
_database_code_CSD LUWKIZ
_database_code_depnum_ccdc_archive 'CCDC 1054768'
_chemical_formula_sum 'C52 H40 Cd3 N2 O16'
_chemical_formula_moiety
;
(C2 H8 N1 1+)2n,n(C48 H24 Cd3 O16 2-)
;
_journal_coden_Cambridge 1295
_journal_volume 61
_journal_year 2015
_journal_page_first 200
_journal_name_full 'Inorg.Chem.Commun. '
loop_
_publ_author_name
"Xing-Xia Wang"
"Quan-Guo Zhai"
"Shu-Ni Li"
"Yu-Cheng Jiang"
"Man-Cheng Hu"
_chemical_name_systematic
;
catena-[bis(Dimethylammonium) 
tetrakis(\m-naphthalene-2,6-dicarboxylato)-tri-cadmium(ii) unknown solvate]
;
_cell_volume  28403.105
_exptl_crystal_colour 'colorless'
_exptl_crystal_density_diffrn 1.203
_exptl_crystal_description 'block'
_diffrn_ambient_temperature 293
_refine_special_details
;
Disordered cation molecules were not modelled and the disordered density was 
taken into account using the SQUEEZE/PLATON procedure. The unit cell was 
found to contain a void of 14679 A$3! holding 213 electrons.
;
#These two values have been output from a single CSD field.
_refine_ls_R_factor_gt 0.0616
_refine_ls_wR_factor_gt 0.0616
_symmetry_cell_setting orthorhombic
_symmetry_space_group_name_H-M 'F d d 2'
_symmetry_Int_Tables_number 43
loop_
_symmetry_equiv_pos_site_id
_symmetry_equiv_pos_as_xyz
1 x,y,z
2 -x,-y,z
3 1/4+x,1/4-y,1/4+z
4 1/4-x,1/4+y,1/4+z
5 x,1/2+y,1/2+z
6 -x,1/2-y,1/2+z
7 1/4+x,3/4-y,3/4+z
8 1/4-x,3/4+y,3/4+z
9 1/2+x,y,1/2+z
10 1/2-x,-y,1/2+z
11 3/4+x,1/4-y,3/4+z
12 3/4-x,1/4+y,3/4+z
13 1/2+x,1/2+y,z
14 1/2-x,1/2-y,z
15 3/4+x,3/4-y,1/4+z
16 3/4-x,3/4+y,1/4+z
_cell_length_a 32.7812(11)
_cell_length_b 34.5802(9)
_cell_length_c 25.0561(7)
_cell_angle_alpha 90
_cell_angle_beta 90
_cell_angle_gamma 90
_cell_formula_units_Z 16
loop_
_atom_type_symbol
_atom_type_radius_bond
C 0.68
H 0.23
Cd 1.44
O 0.68
loop_
_atom_site_label
_atom_site_type_symbol
_atom_site_fract_x
_atom_site_fract_y
_atom_site_fract_z
Cd1 Cd 0.140255(18) -0.001854(14) 0.07975(2)
Cd2 Cd 0.248846(19) 0.058166(18) -0.14326(3)
Cd3 Cd 0.192545(19) 0.025342(17) -0.03529(3)
C1 C 0.3638(6) 0.1545(5) -0.1604(9)
H1 H 0.35790 0.15000 -0.12460
C2 C 0.3458(5) 0.1428(4) -0.2514(10)
H2 H 0.33340 0.13000 -0.27970
C3 C 0.2777(4) -0.1344(3) -0.0204(4)
C4 C 0.2603(8) -0.1129(7) -0.1071(8)
H3 H 0.24360 -0.09660 -0.12690
C5 C 0.3741(6) 0.1731(6) -0.2565(7)
C6 C 0.4285(4) 0.2193(4) -0.2386(5)
H4 H 0.44470 0.23320 -0.21500
C7 C 0.3982(7) 0.1817(7) -0.1673(7)
H5 H 0.41480 0.19060 -0.13980
C8 C 0.3386(5) 0.1344(4) -0.1936(9)
C9 C 0.4069(4) 0.2069(4) -0.3282(4)
H6 H 0.40940 0.21110 -0.36470
C10 C 0.4023(6) 0.1920(7) -0.2200(6)
C11 C 0.2625(5) -0.1165(5) -0.0574(6)
C12 C 0.3779(5) 0.1797(5) -0.3089(7)
H7 H 0.36140 0.16640 -0.33290
C13 C 0.2473(5) -0.1059(4) 0.0411(12)
H8 H 0.24070 -0.10450 0.07720
C14 C 0.3061(5) 0.1059(5) -0.1758(7)
C15 C 0.2915(5) -0.1420(5) -0.1265(13)
H9 H 0.29740 -0.14290 -0.16280
C16 C 0.1395(5) -0.0605(4) -0.1659(5)
H10 H 0.13880 -0.05940 -0.12890
C17 C 0.2259(4) -0.0811(3) 0.0120(9)
C18 C 0.2292(5) -0.0839(4) -0.0379(9)
H11 H 0.21410 -0.06890 -0.06160
C19 C 0.2819(4) 0.1342(4) 0.0996(5)
H12 H 0.29850 0.14780 0.07610
C20 C 0.3098(5) -0.1657(4) -0.0394(9)
H13 H 0.32490 -0.18020 -0.01520
C21 C 0.1168(4) -0.0856(4) -0.1900(5)
H14 H 0.10110 -0.10250 -0.16980
C22 C 0.3408(4) -0.1979(4) -0.1190(7)
C23 C 0.2761(6) -0.1326(5) 0.0315(7)
H15 H 0.29130 -0.14660 0.05610
C24 C 0.3139(4) -0.1701(4) -0.0894(7)
C25 C 0.1969(3) -0.0528(2) 0.0393(5)
C26 C 0.3157(3) 0.1667(3) 0.1748(4)
H16 H 0.33230 0.18060 0.15140
C27 C 0.2655(3) 0.1266(4) 0.2448(4)
H17 H 0.24910 0.11290 0.26850
C28 C 0.1153(3) -0.0881(3) -0.2458(4)
C29 C 0.1148(4) -0.0922(3) -0.3564(5)
H18 H 0.11660 -0.09570 -0.39320
C30 C 0.1388(4) -0.0649(4) -0.3320(5)
H19 H 0.15440 -0.04810 -0.35240
C31 C 0.2862(3) 0.1408(3) 0.1533(4)
C32 C 0.1652(3) -0.0373(3) -0.2475(4)
H20 H 0.18300 -0.02140 -0.26620
C33 C 0.1396(4) -0.0623(3) -0.2756(4)
C34 C 0.2925(4) 0.1509(3) 0.2636(4)
H21 H 0.29430 0.15520 0.30020
C35 C 0.2541(4) 0.1083(3) 0.0787(5)
H22 H 0.25210 0.10440 0.04210
C36 C 0.1646(4) -0.0355(3) -0.1930(4)
C37 C 0.4632(3) 0.2539(3) -0.3143(6)
C38 C 0.3501(3) 0.1992(3) 0.2487(5)
C39 C 0.0878(3) -0.1149(3) -0.3268(4)
C40 C 0.2607(3) 0.1205(3) 0.1884(4)
C41 C 0.2318(3) 0.0928(3) 0.1691(4)
H23 H 0.21570 0.07860 0.19250
C42 C 0.2287(3) 0.0878(3) 0.1152(4)
C43 C 0.0898(3) -0.1148(3) -0.2741(4)
H24 H 0.07420 -0.13250 -0.25500
C44 C 0.4310(2) 0.2266(3) -0.2936(5)
C45 C 0.3204(3) 0.1717(3) 0.2261(4)
C46 C 0.0601(3) -0.1435(2) -0.3548(4)
C47 C 0.1895(4) -0.0040(3) -0.1642(5)
C48 C 0.1981(3) 0.0587(2) 0.0944(4)
O1 O 0.2985(4) 0.1084(4) -0.1279(6)
O2 O 0.2875(4) 0.0855(3) -0.2097(6)
O3 O 0.1884(3) -0.0038(2) -0.1150(4)
O4 O 0.4904(2) 0.2657(2) -0.2848(4)
O5 O 0.3644(3) -0.2207(2) -0.0900(4)
O6 O 0.4592(3) 0.2630(3) -0.3626(5)
O7 O 0.2125(3) 0.0170(2) -0.1919(3)
O8 O 0.3493(2) 0.2084(2) 0.2959(3)
O9 O 0.3760(2) 0.21271(19) 0.2148(4)
O10 O 0.1971(3) 0.0542(2) 0.0453(3)
O11 O 0.0558(3) -0.1409(2) -0.4032(3)
O12 O 0.1763(2) -0.03040(18) 0.0110(3)
O13 O 0.0405(2) -0.16718(17) -0.3269(3)
O14 O 0.3415(2) -0.2003(2) -0.1678(4)
O15 O 0.1945(3) -0.0522(2) 0.0873(4)
O16 O 0.1783(2) 0.0396(2) 0.1259(3)
Cd1B Cd 0.390255(18) 0.251854(14) 0.32975(2)
Cd1F Cd 0.390255(18) -0.248146(14) -0.17025(2)
Cd2G Cd 0.001154(19) -0.191834(18) -0.39326(3)
Cd2K Cd 0.501154(19) 0.308166(18) -0.39326(3)
Cd3B Cd 0.442545(19) 0.224658(17) 0.21471(3)
Cd3G Cd 0.057455(19) -0.224658(17) -0.28529(3)
Cd3K Cd 0.557455(19) 0.275342(17) -0.28529(3)
O4O O 0.2596(2) 0.0157(2) -0.0348(4)
O5N O 0.1144(3) -0.0293(2) 0.1600(4)
O6O O 0.2908(3) 0.0130(3) -0.1126(5)
O8J O 0.0993(2) 0.0416(2) 0.0459(3)
O9J O 0.1260(2) 0.03729(19) -0.0352(4)
O11C O 0.1942(3) 0.1091(2) -0.1532(3)
O13C O 0.2095(2) 0.08282(17) -0.0769(3)
O14N O 0.0915(2) -0.0497(2) 0.0822(4)
#END
