
#######################################################################
#
#                 Cambridge Crystallographic Data Centre
#                                CCDC
#
#######################################################################
#
# If this CIF has been generated from an entry in the Cambridge
# Structural Database, then it will include bibliographic, chemical,
# crystal, experimental, refinement or atomic coordinate data resulting
# from the CCDC's data processing and validation procedures.
#
#######################################################################

data_CSD_CIF_LUXDUE
_audit_creation_date 2011-04-06
_audit_creation_method CSD-ConQuest-V1
_database_code_CSD LUXDUE
_database_code_depnum_ccdc_archive 'CCDC 780104'
_chemical_formula_sum 'C92 H142 N56 O69 Zn12'
_chemical_formula_moiety
;
(C60 H32 N24 O58 Zn12 8-)n,8n(C1 H6 N3 1+),8n(C3 H7 N1 O1),3n(H2 O1)
;
_journal_coden_Cambridge 4
_journal_volume 131
_journal_year 2009
_journal_page_first 17753
_journal_name_full 'J.Am.Chem.Soc. '
loop_
_publ_author_name
"M.H.Alkordi"
"J.A.Brant"
"L.Wojtas"
"V.C.Kravtsov"
"A.J.Cairns"
"M.Eddaoudi"
_chemical_name_systematic
;
catena-(octakis(Guanidinium) 
dodecakis(\m~2~-4,5-imidazoledicarboxylato)-deca-aqua-dodeca-zinc 
dimethylformamide solvate trihydrate)
;
_cell_volume  17527.373
_exptl_crystal_colour 'colorless'
_exptl_crystal_density_diffrn 1.475
_exptl_crystal_description 'polyhedra'
_exptl_crystal_preparation 'dmf/ethanol'
_diffrn_ambient_temperature 100
_refine_special_details
;
The solvent is disordered over two sites.

;
#These two values have been output from a single CSD field.
_refine_ls_R_factor_gt 0.0794
_refine_ls_wR_factor_gt 0.0794
_symmetry_cell_setting cubic
_symmetry_space_group_name_H-M 'F m -3'
_symmetry_Int_Tables_number 202
loop_
_symmetry_equiv_pos_site_id
_symmetry_equiv_pos_as_xyz
1 x,y,z
2 -x,-y,z
3 -x,y,-z
4 x,-y,-z
5 z,x,y
6 z,-x,-y
7 -z,-x,y
8 -z,x,-y
9 y,z,x
10 -y,z,-x
11 y,-z,-x
12 -y,-z,x
13 x,1/2+y,1/2+z
14 -x,1/2-y,1/2+z
15 -x,1/2+y,1/2-z
16 x,1/2-y,1/2-z
17 z,1/2+x,1/2+y
18 z,1/2-x,1/2-y
19 -z,1/2-x,1/2+y
20 -z,1/2+x,1/2-y
21 y,1/2+z,1/2+x
22 -y,1/2+z,1/2-x
23 y,1/2-z,1/2-x
24 -y,1/2-z,1/2+x
25 1/2+x,y,1/2+z
26 1/2-x,-y,1/2+z
27 1/2-x,y,1/2-z
28 1/2+x,-y,1/2-z
29 1/2+z,x,1/2+y
30 1/2+z,-x,1/2-y
31 1/2-z,-x,1/2+y
32 1/2-z,x,1/2-y
33 1/2+y,z,1/2+x
34 1/2-y,z,1/2-x
35 1/2+y,-z,1/2-x
36 1/2-y,-z,1/2+x
37 1/2+x,1/2+y,z
38 1/2-x,1/2-y,z
39 1/2-x,1/2+y,-z
40 1/2+x,1/2-y,-z
41 1/2+z,1/2+x,y
42 1/2+z,1/2-x,-y
43 1/2-z,1/2-x,y
44 1/2-z,1/2+x,-y
45 1/2+y,1/2+z,x
46 1/2-y,1/2+z,-x
47 1/2+y,1/2-z,-x
48 1/2-y,1/2-z,x
49 -x,-y,-z
50 x,y,-z
51 x,-y,z
52 -x,y,z
53 -z,-x,-y
54 -z,x,y
55 z,x,-y
56 z,-x,y
57 -y,-z,-x
58 y,-z,x
59 -y,z,x
60 y,z,-x
61 -x,-1/2-y,-1/2-z
62 x,-1/2+y,-1/2-z
63 x,-1/2-y,-1/2+z
64 -x,-1/2+y,-1/2+z
65 -z,-1/2-x,-1/2-y
66 -z,-1/2+x,-1/2+y
67 z,-1/2+x,-1/2-y
68 z,-1/2-x,-1/2+y
69 -y,-1/2-z,-1/2-x
70 y,-1/2-z,-1/2+x
71 -y,-1/2+z,-1/2+x
72 y,-1/2+z,-1/2-x
73 -1/2-x,-y,-1/2-z
74 -1/2+x,y,-1/2-z
75 -1/2+x,-y,-1/2+z
76 -1/2-x,y,-1/2+z
77 -1/2-z,-x,-1/2-y
78 -1/2-z,x,-1/2+y
79 -1/2+z,x,-1/2-y
80 -1/2+z,-x,-1/2+y
81 -1/2-y,-z,-1/2-x
82 -1/2+y,-z,-1/2+x
83 -1/2-y,z,-1/2+x
84 -1/2+y,z,-1/2-x
85 -1/2-x,-1/2-y,-z
86 -1/2+x,-1/2+y,-z
87 -1/2+x,-1/2-y,z
88 -1/2-x,-1/2+y,z
89 -1/2-z,-1/2-x,-y
90 -1/2-z,-1/2+x,y
91 -1/2+z,-1/2+x,-y
92 -1/2+z,-1/2-x,y
93 -1/2-y,-1/2-z,-x
94 -1/2+y,-1/2-z,x
95 -1/2-y,-1/2+z,x
96 -1/2+y,-1/2+z,-x
_cell_length_a 25.976(5)
_cell_length_b 25.976(5)
_cell_length_c 25.976(5)
_cell_angle_alpha 90
_cell_angle_beta 90
_cell_angle_gamma 90
_cell_formula_units_Z 4
loop_
_atom_type_symbol
_atom_type_radius_bond
C 0.68
H 0.23
N 0.68
O 0.68
Zn 1.17
loop_
_atom_site_label
_atom_site_type_symbol
_atom_site_fract_x
_atom_site_fract_y
_atom_site_fract_z
N1 N 0.1876(3) 0.2803(3) 0.1487(3)
H1 H 0.16510 0.25510 0.14770
H2 H 0.21200 0.28220 0.12520
C1 C 0.1849(4) 0.3151(4) 0.1849(4)
O1 O 0.00000 0.50000 0.50000
O2 O 0.061(10) 0.50000 1.00000
O3 O 0.3488(3) 0.6116(2) 0.7990(3)
Zn1 Zn 0.37885(3) 0.62115(3) 0.87885(3)
Zn2 Zn 0.25000 0.50000 0.75000
N2 N 0.3689(3) 0.5430(3) 0.8717(3)
C2 C 0.37900 0.5000(5) 0.8977(5)
H3 H 0.39220 0.50000 0.93190
C3 C 0.3484(3) 0.5266(4) 0.8260(3)
C4 C 0.3344(4) 0.5675(4) 0.7902(4)
O4 O 0.3077(3) 0.5552(3) 0.7526(4)
O5 O 0.2336(7) 0.50000 0.8287(7)
N3? N 0.196(2) 0.50000 0.908(2)
N4? N 0.206(5) 0.465(5) 0.897(5)
C5? C 0.195(2) 0.50000 0.853(4)
C6? C 0.212(6) 0.474(6) 0.845(7)
C7? C 0.232(4) 0.521(3) 0.869(4)
C8? C 0.237(5) 0.538(5) 0.933(5)
C9? C 0.134(7) 0.514(7) 0.929(7)
C10? C 0.18240 0.56450 0.92680
C11? C 0.243(4) 0.50000 0.926(4)
C12? C 0.221(6) 0.457(5) 0.904(6)
C13? C 0.136(6) 0.550(6) 0.943(6)
O6? O 0.022(3) 0.522(3) 0.978(3)
N1UA N 0.2197(3) 0.3513(3) 0.1876(3)
N1Q N 0.1487(3) 0.3124(3) 0.2197(3)
H1UA H 0.24490 0.35230 0.16510
H1Q H 0.14770 0.33490 0.24490
H2UA H 0.21780 0.37480 0.21200
H2Q H 0.12520 0.28800 0.21780
O3XA O 0.3488(3) 0.3884(2) 0.7990(3)
O3Z O 0.1512(3) 0.6116(2) 0.7010(3)
O3TB O 0.1512(3) 0.3884(2) 0.7010(3)
O3W O 0.3884(3) 0.7010(2) 0.8488(3)
O3QB O 0.6116(3) 0.7010(2) 0.8488(3)
O3CA O 0.2990(3) 0.6512(2) 0.8884(3)
O3AC O 0.2990(3) 0.6512(2) 1.1116(3)
O3RB O 0.3884(3) 0.2990(2) 0.8488(3)
O3T O 0.6116(3) 0.2990(2) 0.8488(3)
O3ZB O 0.2990(3) 0.3488(2) 0.8884(3)
O3BA O 0.2990(3) 0.3488(2) 1.1116(3)
O3TA O 0.1116(3) 0.7010(2) 0.6512(3)
O3NC O -0.1116(3) 0.7010(2) 0.6512(3)
O3F O 0.2010(3) 0.6512(2) 0.6116(3)
O3ZA O 0.2010(3) 0.6512(2) 0.3884(3)
O3QC O 0.1116(3) 0.2990(2) 0.6512(3)
O3SA O -0.1116(3) 0.2990(2) 0.6512(3)
O3AB O 0.2010(3) 0.3488(2) 0.6116(3)
O3G O 0.2010(3) 0.3488(2) 0.3884(3)
O3I O 0.3884(3) 0.7990(2) 0.6512(3)
O3GB O 0.6116(3) 0.7990(2) 0.6512(3)
O3S O 0.2010(3) 0.8488(2) 0.8884(3)
O3MB O 0.2010(3) 0.8488(2) 1.1116(3)
O3XB O 0.7010(3) 0.6512(2) 0.8884(3)
O3YA O 0.6512(3) 0.6116(2) 0.7990(3)
O3WA O 0.3488(3) 0.6116(2) 1.2010(3)
O3PB O 0.3884(3) 0.7010(2) 1.1512(3)
O3EA O 0.7010(3) 0.3488(2) 0.8884(3)
O3A O 0.6512(3) 0.3884(2) 0.7990(3)
O3C O 0.3488(3) 0.3884(2) 1.2010(3)
O3U O 0.3884(3) 0.2990(2) 1.1512(3)
Zn1XA Zn 0.37885(3) 0.37885(3) 0.87885(3)
Zn1F Zn 0.12115(3) 0.62115(3) 0.62115(3)
Zn1AB Zn 0.12115(3) 0.37885(3) 0.62115(3)
Zn1YA Zn 0.62115(3) 0.62115(3) 0.87885(3)
Zn1WA Zn 0.37885(3) 0.62115(3) 1.12115(3)
Zn1A Zn 0.62115(3) 0.37885(3) 0.87885(3)
Zn1C Zn 0.37885(3) 0.37885(3) 1.12115(3)
Zn1CB Zn -0.12115(3) 0.62115(3) 0.62115(3)
Zn1ZA Zn 0.12115(3) 0.62115(3) 0.37885(3)
Zn1D Zn -0.12115(3) 0.37885(3) 0.62115(3)
Zn1G Zn 0.12115(3) 0.37885(3) 0.37885(3)
Zn1I Zn 0.37885(3) 0.87885(3) 0.62115(3)
Zn1GB Zn 0.62115(3) 0.87885(3) 0.62115(3)
Zn1S Zn 0.12115(3) 0.87885(3) 0.87885(3)
Zn1MB Zn 0.12115(3) 0.87885(3) 1.12115(3)
Zn2I Zn 0.50000 0.75000 0.75000
Zn2S Zn 0.25000 0.75000 1.00000
Zn2J Zn 0.50000 0.25000 0.75000
Zn2R Zn 0.25000 0.25000 1.00000
Zn2FA Zn 0.00000 0.75000 0.75000
Zn2F Zn 0.25000 0.75000 0.50000
Zn2IA Zn 0.00000 0.25000 0.75000
Zn2G Zn 0.25000 0.25000 0.50000
N2XA N 0.3689(3) 0.4570(3) 0.8717(3)
N2Z N 0.1311(3) 0.5430(3) 0.6283(3)
N2TB N 0.1311(3) 0.4570(3) 0.6283(3)
N2W N 0.4570(3) 0.6283(3) 0.8689(3)
N2QB N 0.5430(3) 0.6283(3) 0.8689(3)
N2CA N 0.3717(3) 0.6311(3) 0.9570(3)
N2AC N 0.3717(3) 0.6311(3) 1.0430(3)
N2RB N 0.4570(3) 0.3717(3) 0.8689(3)
N2T N 0.5430(3) 0.3717(3) 0.8689(3)
N2ZB N 0.3717(3) 0.3689(3) 0.9570(3)
N2BA N 0.3717(3) 0.3689(3) 1.0430(3)
N2TA N 0.0430(3) 0.6283(3) 0.6311(3)
N2NC N -0.0430(3) 0.6283(3) 0.6311(3)
N2F N 0.1283(3) 0.6311(3) 0.5430(3)
N2ZA N 0.1283(3) 0.6311(3) 0.4570(3)
N2QC N 0.0430(3) 0.3717(3) 0.6311(3)
N2SA N -0.0430(3) 0.3717(3) 0.6311(3)
N2AB N 0.1283(3) 0.3689(3) 0.5430(3)
N2G N 0.1283(3) 0.3689(3) 0.4570(3)
N2I N 0.4570(3) 0.8717(3) 0.6311(3)
N2GB N 0.5430(3) 0.8717(3) 0.6311(3)
N2S N 0.1283(3) 0.8689(3) 0.9570(3)
N2MB N 0.1283(3) 0.8689(3) 1.0430(3)
N2XB N 0.6283(3) 0.6311(3) 0.9570(3)
N2YA N 0.6311(3) 0.5430(3) 0.8717(3)
N2WA N 0.3689(3) 0.5430(3) 1.1283(3)
N2PB N 0.4570(3) 0.6283(3) 1.1311(3)
N2EA N 0.6283(3) 0.3689(3) 0.9570(3)
N2A N 0.6311(3) 0.4570(3) 0.8717(3)
N2C N 0.3689(3) 0.4570(3) 1.1283(3)
N2U N 0.4570(3) 0.3717(3) 1.1311(3)
C2Z C 0.12100 0.5000(5) 0.6023(5)
C2W C 0.50000 0.6023(5) 0.8790(5)
C2CA C 0.39770 0.6210(5) 1.0000(5)
C2T C 0.50000 0.3977(5) 0.8790(5)
C2BA C 0.39770 0.3790(5) 1.0000(5)
C2TA C 0.00000 0.6023(5) 0.6210(5)
C2F C 0.10230 0.6210(5) 0.5000(5)
C2SA C 0.00000 0.3977(5) 0.6210(5)
C2G C 0.10230 0.3790(5) 0.5000(5)
C2I C 0.50000 0.8977(5) 0.6210(5)
C2S C 0.10230 0.8790(5) 1.0000(5)
H3Z H 0.10780 0.50000 0.56810
H3W H 0.50000 0.56810 0.89220
H3CA H 0.43190 0.60780 1.00000
H3T H 0.50000 0.43190 0.89220
H3BA H 0.43190 0.39220 1.00000
H3TA H 0.00000 0.56810 0.60780
H3F H 0.06810 0.60780 0.50000
H3SA H 0.00000 0.43190 0.60780
H3G H 0.06810 0.39220 0.50000
H3I H 0.50000 0.93190 0.60780
H3S H 0.06810 0.89220 1.00000
C3XA C 0.3484(3) 0.4734(4) 0.8260(3)
C3Z C 0.1516(3) 0.5266(4) 0.6740(3)
C3TB C 0.1516(3) 0.4734(4) 0.6740(3)
C3W C 0.4734(3) 0.6740(4) 0.8484(3)
C3QB C 0.5266(3) 0.6740(4) 0.8484(3)
C3CA C 0.3260(3) 0.6516(4) 0.9734(3)
C3AC C 0.3260(3) 0.6516(4) 1.0266(3)
C3RB C 0.4734(3) 0.3260(4) 0.8484(3)
C3T C 0.5266(3) 0.3260(4) 0.8484(3)
C3ZB C 0.3260(3) 0.3484(4) 0.9734(3)
C3BA C 0.3260(3) 0.3484(4) 1.0266(3)
C3TA C 0.0266(3) 0.6740(4) 0.6516(3)
C3NC C -0.0266(3) 0.6740(4) 0.6516(3)
C3F C 0.1740(3) 0.6516(4) 0.5266(3)
C3ZA C 0.1740(3) 0.6516(4) 0.4734(3)
C3QC C 0.0266(3) 0.3260(4) 0.6516(3)
C3SA C -0.0266(3) 0.3260(4) 0.6516(3)
C3AB C 0.1740(3) 0.3484(4) 0.5266(3)
C3G C 0.1740(3) 0.3484(4) 0.4734(3)
C3I C 0.4734(3) 0.8260(4) 0.6516(3)
C3GB C 0.5266(3) 0.8260(4) 0.6516(3)
C3S C 0.1740(3) 0.8484(4) 0.9734(3)
C3MB C 0.1740(3) 0.8484(4) 1.0266(3)
C4XA C 0.3344(4) 0.4325(4) 0.7902(4)
C4Z C 0.1656(4) 0.5675(4) 0.7098(4)
C4TB C 0.1656(4) 0.4325(4) 0.7098(4)
C4W C 0.4325(4) 0.7098(4) 0.8344(4)
C4QB C 0.5675(4) 0.7098(4) 0.8344(4)
C4CA C 0.2902(4) 0.6656(4) 0.9325(4)
C4AC C 0.2902(4) 0.6656(4) 1.0675(4)
C4RB C 0.4325(4) 0.2902(4) 0.8344(4)
C4T C 0.5675(4) 0.2902(4) 0.8344(4)
C4ZB C 0.2902(4) 0.3344(4) 0.9325(4)
C4BA C 0.2902(4) 0.3344(4) 1.0675(4)
C4TA C 0.0675(4) 0.7098(4) 0.6656(4)
C4NC C -0.0675(4) 0.7098(4) 0.6656(4)
C4F C 0.2098(4) 0.6656(4) 0.5675(4)
C4ZA C 0.2098(4) 0.6656(4) 0.4325(4)
C4QC C 0.0675(4) 0.2902(4) 0.6656(4)
C4SA C -0.0675(4) 0.2902(4) 0.6656(4)
C4AB C 0.2098(4) 0.3344(4) 0.5675(4)
C4G C 0.2098(4) 0.3344(4) 0.4325(4)
C4I C 0.4325(4) 0.7902(4) 0.6656(4)
C4GB C 0.5675(4) 0.7902(4) 0.6656(4)
C4S C 0.2098(4) 0.8344(4) 0.9325(4)
C4MB C 0.2098(4) 0.8344(4) 1.0675(4)
O4XA O 0.3077(3) 0.4448(3) 0.7526(4)
O4Z O 0.1923(3) 0.5552(3) 0.7474(4)
O4TB O 0.1923(3) 0.4448(3) 0.7474(4)
O4W O 0.4448(3) 0.7474(3) 0.8077(4)
O4QB O 0.5552(3) 0.7474(3) 0.8077(4)
O4CA O 0.2526(3) 0.6923(3) 0.9448(4)
O4AC O 0.2526(3) 0.6923(3) 1.0552(4)
O4RB O 0.4448(3) 0.2526(3) 0.8077(4)
O4T O 0.5552(3) 0.2526(3) 0.8077(4)
O4ZB O 0.2526(3) 0.3077(3) 0.9448(4)
O4BA O 0.2526(3) 0.3077(3) 1.0552(4)
O4TA O 0.0552(3) 0.7474(3) 0.6923(4)
O4NC O -0.0552(3) 0.7474(3) 0.6923(4)
O4F O 0.2474(3) 0.6923(3) 0.5552(4)
O4ZA O 0.2474(3) 0.6923(3) 0.4448(4)
O4QC O 0.0552(3) 0.2526(3) 0.6923(4)
O4SA O -0.0552(3) 0.2526(3) 0.6923(4)
O4AB O 0.2474(3) 0.3077(3) 0.5552(4)
O4G O 0.2474(3) 0.3077(3) 0.4448(4)
O4I O 0.4448(3) 0.7526(3) 0.6923(4)
O4GB O 0.5552(3) 0.7526(3) 0.6923(4)
O4S O 0.2474(3) 0.8077(3) 0.9448(4)
O4MB O 0.2474(3) 0.8077(3) 1.0552(4)
O4DB O 0.4448(3) 0.2474(3) 0.6923(4)
O4J O 0.5552(3) 0.2474(3) 0.6923(4)
O4LB O 0.2474(3) 0.1923(3) 0.9448(4)
O4R O 0.2474(3) 0.1923(3) 1.0552(4)
O4FA O 0.0552(3) 0.7526(3) 0.8077(4)
O4DC O -0.0552(3) 0.7526(3) 0.8077(4)
O5Z O 0.2664(7) 0.50000 0.6713(7)
O5W O 0.5000(7) 0.67130 0.7336(7)
O5I O 0.5000(7) 0.82870 0.7664(7)
O5CA O 0.3287(7) 0.76640 1.0000(7)
O5S O 0.1713(7) 0.73360 1.0000(7)
O5T O 0.5000(7) 0.32870 0.7336(7)
O5J O 0.5000(7) 0.17130 0.7664(7)
O5BA O 0.3287(7) 0.23360 1.0000(7)
O5R O 0.1713(7) 0.26640 1.0000(7)
O5TA O 0.0000(7) 0.67130 0.7664(7)
O5FA O 0.0000(7) 0.82870 0.7336(7)
#END
