
#######################################################################
#
#                 Cambridge Crystallographic Data Centre
#                                CCDC
#
#######################################################################
#
# If this CIF has been generated from an entry in the Cambridge
# Structural Database, then it will include bibliographic, chemical,
# crystal, experimental, refinement or atomic coordinate data resulting
# from the CCDC's data processing and validation procedures.
#
#######################################################################

data_CSD_CIF_LUXFEQ
_audit_creation_date 2011-04-06
_audit_creation_method CSD-ConQuest-V1
_database_code_CSD LUXFEQ
_database_code_depnum_ccdc_archive 'CCDC 780106'
_chemical_formula_sum 'C104 H156 Cd12 N42 Na12 O116'
_chemical_formula_moiety
;
(C4 H12 N2 2+)3n,n(C90 H58 Cd12 N36 Na12 O87 6-),n(C2 H6 O1),28n(H2 O1)
;
_journal_coden_Cambridge 4
_journal_volume 131
_journal_year 2009
_journal_page_first 17753
_journal_name_full 'J.Am.Chem.Soc. '
loop_
_publ_author_name
"M.H.Alkordi"
"J.A.Brant"
"L.Wojtas"
"V.C.Kravtsov"
"A.J.Cairns"
"M.Eddaoudi"
_chemical_name_systematic
;
catena-(tris(Piperazinium) 
tris(\m~6~-imidazole-4,5-dicarboxylato)-hexakis((\m~5~-imidazole-4,5-dicarboxy
lato)-(\m~3~-imidazole-4,5-dicarboxylato))-tris(\m~2~-imidazole-4,5-dicarboxyl
ato)-nonakis(\m~2~-aqua)-hexa-aqua-dodeca-cadmium-dodeca-sodium ethanol 
solvate hydrate)
;
_cell_volume  55864.961
_exptl_crystal_colour 'colorless'
_exptl_crystal_description 'polyhedra'
_diffrn_ambient_temperature 100
_refine_special_details
;
The piperazine, ethanol solvent molecule and lattice water molecules are 
disordered by symmetry.
;
#These two values have been output from a single CSD field.
_refine_ls_R_factor_gt 0.0983
_refine_ls_wR_factor_gt 0.0983
_symmetry_cell_setting rhombohedral
_symmetry_space_group_name_H-M 'R -3 m'
_symmetry_Int_Tables_number 166
loop_
_symmetry_equiv_pos_site_id
_symmetry_equiv_pos_as_xyz
1 x,y,z
2 -y,x-y,z
3 -x+y,-x,z
4 y,x,-z
5 x-y,-y,-z
6 -x,-x+y,-z
7 2/3+x,1/3+y,1/3+z
8 2/3-y,1/3+x-y,1/3+z
9 2/3-x+y,1/3-x,1/3+z
10 2/3+y,1/3+x,1/3-z
11 2/3+x-y,1/3-y,1/3-z
12 2/3-x,1/3-x+y,1/3-z
13 1/3+x,2/3+y,2/3+z
14 1/3-y,2/3+x-y,2/3+z
15 1/3-x+y,2/3-x,2/3+z
16 1/3+y,2/3+x,2/3-z
17 1/3+x-y,2/3-y,2/3-z
18 1/3-x,2/3-x+y,2/3-z
19 -x,-y,-z
20 y,-x+y,-z
21 x-y,x,-z
22 -y,-x,z
23 -x+y,y,z
24 x,x-y,z
25 -2/3-x,-1/3-y,-1/3-z
26 -2/3+y,-1/3-x+y,-1/3-z
27 -2/3+x-y,-1/3+x,-1/3-z
28 -2/3-y,-1/3-x,-1/3+z
29 -2/3-x+y,-1/3+y,-1/3+z
30 -2/3+x,-1/3+x-y,-1/3+z
31 -1/3-x,-2/3-y,-2/3-z
32 -1/3+y,-2/3-x+y,-2/3-z
33 -1/3+x-y,-2/3+x,-2/3-z
34 -1/3-y,-2/3-x,-2/3+z
35 -1/3-x+y,-2/3+y,-2/3+z
36 -1/3+x,-2/3+x-y,-2/3+z
_cell_length_a 40.637(5)
_cell_length_b 40.637(5)
_cell_length_c 39.063(7)
_cell_angle_alpha 90
_cell_angle_beta 90
_cell_angle_gamma 120
_cell_formula_units_Z 9
loop_
_atom_type_symbol
_atom_type_radius_bond
C 0.62
H 0.21
Cd 1.44
N 0.68
Na 1.36
O 0.89
loop_
_atom_site_label
_atom_site_type_symbol
_atom_site_fract_x
_atom_site_fract_y
_atom_site_fract_z
C1 C 0.7439(10) -0.1280(5) 0.0957(9)
H1 H 0.74080 -0.15210 0.08640
C2 C 0.8110(11) -0.0945(5) 0.1095(9)
H2 H 0.83540 -0.07100 0.10480
C3 C 0.8062(10) -0.0969(5) 0.1430(9)
C4 C 0.7395(10) -0.1302(5) 0.1329(9)
H3 H 0.73320 -0.15610 0.14000
N1 N 0.7706(9) -0.1039(10) 0.1533(8)
H4 H 0.77070 -0.08120 0.15350
N2 N 0.7854(10) -0.0942(9) 0.0890(9)
O1 O 0.8777(11) 0.1223(11) 0.0652(19)
C5 C 0.863(3) 0.087(3) 0.047(3)
H5 H 0.86280 0.09530 0.02330
H6 H 0.83600 0.07400 0.05420
C6 C 0.951(3) 0.132(3) 0.039(3)
H7 H 0.96900 0.15280 0.02460
H8 H 0.96360 0.13280 0.06110
H9 H 0.94290 0.10770 0.02800
O2 O 0.7527(10) -0.1236(5) 0.2253(9)
O3 O 0.8912(12) -0.0544(6) 0.0824(11)
O4 O 0.83330 0.16670 0.16670
O5 O 0.2548(19) 0.3465(19) 0.2851(17)
O6 O 0.6665(19) -0.1667(9) 0.1465(16)
O7 O 0.776(2) 0.00000 0.00000
O8 O 0.2663(18) 0.3603(18) 0.4840(16)
O9 O 0.8930(7) 0.1070(7) 0.2477(13)
O10 O 1.00000 0.00000 0.061(6)
O11 O 0.7052(10) 0.0386(10) 0.16670
O12 O 0.671(2) -0.027(2) 0.1934(18)
Cd1 Cd 0.65113(3) 0.51350(3) 0.48295(3)
Cd2 Cd 0.57231(4) 0.59041(4) 0.38568(3)
C7 C 0.5624(3) 0.4376(3) 0.4862(6)
H10 H 0.54980 0.45020 0.49490
N3 N 0.6001(4) 0.4553(4) 0.4793(3)
C8 C 0.6055(4) 0.4274(5) 0.4674(4)
C9 C 0.6433(6) 0.4383(6) 0.4567(5)
O13 O 0.6706(4) 0.4718(4) 0.4587(4)
O14 O 0.6502(4) 0.4118(4) 0.4450(4)
C10 C 0.6004(5) 0.5449(5) 0.4402(5)
H11 H 0.57610 0.52610 0.44820
N4 N 0.6317(4) 0.5464(4) 0.4494(3)
C11 C 0.6606(5) 0.5764(5) 0.4317(5)
C12 C 0.6430(6) 0.5923(5) 0.4127(4)
N5 N 0.6055(4) 0.5724(4) 0.4182(4)
C13 C 0.6594(7) 0.6247(7) 0.3892(5)
O15 O 0.6348(4) 0.6282(3) 0.3713(3)
O16 O 0.6939(4) 0.6489(6) 0.3866(3)
O17 O 0.7032(3) 0.5599(4) 0.4553(4)
C14 C 0.6996(5) 0.5831(7) 0.4362(5)
O18 O 0.7265(4) 0.6097(5) 0.4220(5)
C15 C 0.6095(5) 0.5374(5) 0.5446(5)
H12 H 0.58830 0.53420 0.53160
N6 N 0.6164(4) 0.5506(4) 0.5769(4)
N7 N 0.6356(4) 0.5293(4) 0.5326(4)
C16 C 0.6485(5) 0.5510(5) 0.5875(5)
C17 C 0.6603(5) 0.5382(5) 0.5594(5)
C18 C 0.6931(5) 0.5318(6) 0.5523(7)
C19 C 0.6633(6) 0.5625(7) 0.6213(6)
O19 O 0.6969(4) 0.5217(4) 0.5251(3)
O20 O 0.7148(4) 0.5400(5) 0.5808(4)
O21 O 0.6464(4) 0.5741(4) 0.6414(3)
O22 O 0.6934(5) 0.5619(4) 0.6294(3)
C20 C 0.4908(3) 0.5092(3) 0.3953(7)
H13 H 0.48900 0.51100 0.41940
C21 C 0.5377(7) 0.5485(10) 0.3173(5)
C22 C 0.5106(4) 0.5238(4) 0.3453(5)
N8 N 0.5194(4) 0.5351(4) 0.3772(3)
O23 O 0.5654(4) 0.5775(6) 0.3242(3)
O24 O 0.5270(3) 0.5340(4) 0.2857(3)
Na1 Na 0.6183(2) 0.6474(3) 0.32020(17)
Na2 Na 0.7520(2) 0.6712(4) 0.4087(2)
O25 O 0.6667(5) 0.71120 0.33330
O26 O 0.5784(6) 0.6427(9) 0.2728(5)
O27 O 0.753(3) 0.675(3) 0.470(2)
H14? H 0.61530 0.38470 0.44460
H15? H 0.56080 0.71080 0.39130
H16? H 0.49780 0.50230 0.29220
H17? H 0.72490 -0.12290 0.08490
H18? H 0.81430 -0.11610 0.10230
H19? H 0.82580 -0.07280 0.15350
H20? H 0.81020 -0.11750 0.15160
H21? H 0.71730 -0.12740 0.13850
H22? H 0.76660 -0.12060 0.17550
H23? H 0.79200 -0.09540 0.06670
H24? H 0.78570 -0.07160 0.09180
O28? O 0.6825(13) 0.1525(13) -0.1511(11)
O29? O 0.8209(7) 0.1791(7) 0.1479(13)
O30? O 0.626(3) 0.008(3) 0.096(2)
O31? O 0.598(3) 0.018(3) 0.086(3)
O32? O 0.881(3) 0.087(3) 0.302(3)
O33? O 0.706(3) 0.009(3) 0.189(2)
O34? O 0.836(6) -0.082(3) 0.329(5)
O35? O 0.589(4) -0.2055(19) 0.111(4)
O36? O 0.574(3) -0.2132(16) 0.081(3)
O37? O 0.201(3) 0.316(3) 0.282(3)
H1W H 0.74080 -0.10710 0.08640
H2W H 0.83540 -0.09360 0.10480
H3W H 0.73320 -0.11070 0.14000
N1W N 0.7706(9) -0.1255(10) 0.1533(8)
H4W H 0.77070 -0.14810 0.15350
N2W N 0.7854(10) -0.1204(9) 0.0890(9)
C5U C 0.913(3) 0.137(3) 0.047(3)
H5U H 0.90470 0.13720 0.02330
H6U H 0.92600 0.16400 0.05420
Cd1U Cd 0.48650(3) 0.34887(3) 0.48295(3)
Cd1Q Cd 0.682203(30) 0.529037(30) 0.183717(30)
Cd1C Cd 0.51350(3) 0.65113(3) 0.51705(3)
Cd1H Cd 0.529037(30) 0.682203(30) 0.816283(30)
Cd1M Cd 0.819833(30) 0.804297(30) 0.149617(30)
Cd1Y Cd 0.846833(30) 0.529037(30) 0.183717(30)
Cd1R Cd 0.34887(3) 0.48650(3) 0.51705(3)
Cd2C Cd 0.59041(4) 0.57231(4) 0.61432(3)
Cd2Q Cd 0.761023(40) 0.684767(40) 0.280987(30)
Cd2U Cd 0.40959(4) 0.42769(4) 0.38568(3)
Cd2H Cd 0.684767(40) 0.761023(40) 0.719013(30)
Cd2R Cd 0.42769(4) 0.40959(4) 0.61432(3)
Cd2Y Cd 0.923743(40) 0.684767(40) 0.280987(30)
Cd2M Cd 0.742923(40) 0.648567(40) 0.052347(30)
Cd2J Cd 0.648567(40) 0.742923(40) 0.947653(30)
C7Q C 0.770933(300) 0.541867(300) 0.180467(600)
C7C C 0.4376(3) 0.5624(3) 0.5138(6)
H10Q H 0.78353 0.56707 0.17177
H10C H 0.45020 0.54980 0.50510
N3U N 0.5447(4) 0.3999(4) 0.4793(3)
N3Q N 0.733233(400) 0.521867(400) 0.187367(300)
N3Y N 0.788633(400) 0.521867(400) 0.187367(300)
N3C N 0.4553(4) 0.6001(4) 0.5207(3)
N3R N 0.3999(4) 0.5447(4) 0.5207(3)
N3H N 0.521867(400) 0.733233(400) 0.812633(300)
N3M N 0.878033(400) 0.811467(400) 0.145967(300)
C8U C 0.5726(4) 0.3945(5) 0.4674(4)
C8Q C 0.727833(400) 0.488567(500) 0.199267(400)
C8Y C 0.760733(400) 0.488567(500) 0.199267(400)
C8C C 0.4274(4) 0.6055(5) 0.5326(4)
C8R C 0.3945(4) 0.5726(5) 0.5326(4)
C9U C 0.5617(6) 0.3567(6) 0.4567(5)
C9Q C 0.690033(600) 0.461667(600) 0.209967(500)
C9Y C 0.771633(600) 0.461667(600) 0.209967(500)
C9C C 0.4383(6) 0.6433(6) 0.5433(5)
C9R C 0.3567(6) 0.5617(6) 0.5433(5)
O13U O 0.5282(4) 0.3294(4) 0.4587(4)
O13Q O 0.662733(400) 0.467867(400) 0.207967(400)
O13Y O 0.805133(400) 0.467867(400) 0.207967(400)
O13C O 0.4718(4) 0.6706(4) 0.5413(4)
O13R O 0.3294(4) 0.5282(4) 0.5413(4)
O13H O 0.467867(400) 0.662733(400) 0.792033(400)
O13M O 0.861533(400) 0.865467(400) 0.125367(400)
O14U O 0.5882(4) 0.3498(4) 0.4450(4)
O14Q O 0.683133(400) 0.428267(400) 0.221667(400)
O14Y O 0.745133(400) 0.428267(400) 0.221667(400)
O14C O 0.4118(4) 0.6502(4) 0.5550(4)
O14R O 0.3498(4) 0.5882(4) 0.5550(4)
C10Q C 0.732933(500) 0.611167(500) 0.226467(500)
C10U C 0.4551(5) 0.3996(5) 0.4402(5)
C10C C 0.5449(5) 0.6004(5) 0.5598(5)
C10H C 0.611167(500) 0.732933(500) 0.773533(500)
C10M C 0.788433(500) 0.722167(500) 0.106867(500)
H11Q H 0.75723 0.61667 0.21847
H11U H 0.47390 0.42390 0.44820
H11C H 0.52610 0.57610 0.55180
H11H H 0.61667 0.75723 0.78153
H11M H 0.80723 0.71667 0.11487
N4Q N 0.701633(400) 0.581367(400) 0.217267(300)
N4U N 0.4536(4) 0.3683(4) 0.4494(3)
N4C N 0.5464(4) 0.6317(4) 0.5506(3)
N4H N 0.581367(400) 0.701633(400) 0.782733(300)
N4M N 0.786933(400) 0.751967(400) 0.116067(300)
C11Q C 0.672733(500) 0.582467(500) 0.234967(500)
C11U C 0.4236(5) 0.3394(5) 0.4317(5)
C11C C 0.5764(5) 0.6606(5) 0.5683(5)
C11H C 0.582467(500) 0.672733(500) 0.765033(500)
C11M C 0.756933(500) 0.750867(500) 0.098367(500)
C12Q C 0.690333(600) 0.615967(500) 0.253967(400)
C12U C 0.4077(6) 0.3570(5) 0.4127(4)
C12C C 0.5923(6) 0.6430(5) 0.5873(4)
C12H C 0.615967(600) 0.690333(500) 0.746033(400)
C12M C 0.741033(600) 0.717367(500) 0.079367(400)
N5Q N 0.727833(400) 0.633567(400) 0.248467(400)
N5U N 0.4276(4) 0.3945(4) 0.4182(4)
N5C N 0.5724(4) 0.6055(4) 0.5818(4)
N5H N 0.633567(400) 0.727833(400) 0.751533(400)
N5M N 0.760933(400) 0.699767(400) 0.084867(400)
N5R N 0.3945(4) 0.4276(4) 0.5818(4)
C13Q C 0.673933(700) 0.631967(700) 0.277467(500)
C13U C 0.3753(7) 0.3406(7) 0.3892(5)
C13C C 0.6247(7) 0.6594(7) 0.6108(5)
C13H C 0.631967(700) 0.673933(700) 0.722533(500)
C13M C 0.708633(700) 0.701367(700) 0.055867(500)
O15Q O 0.698533(400) 0.660067(300) 0.295367(300)
O15U O 0.3718(4) 0.3652(3) 0.3713(3)
O15C O 0.6282(4) 0.6348(3) 0.6287(3)
O15H O 0.660067(400) 0.698533(300) 0.704633(300)
O15M O 0.705133(400) 0.673267(300) 0.037967(300)
O15R O 0.3652(4) 0.3718(3) 0.6287(3)
O15Z O 0.339933(400) 0.301467(300) 0.295367(300)
O16Q O 0.639433(400) 0.621667(600) 0.280067(300)
O16U O 0.3511(4) 0.3061(6) 0.3866(3)
O16C O 0.6489(4) 0.6939(6) 0.6134(3)
O16H O 0.621667(400) 0.639433(600) 0.719933(300)
O16M O 0.684433(400) 0.711667(600) 0.053267(300)
O16Z O 0.378333(400) 0.360567(600) 0.280067(300)
O17Q O 0.630133(300) 0.523367(400) 0.211367(400)
O17U O 0.4401(3) 0.2968(4) 0.4553(4)
O17C O 0.5599(3) 0.7032(4) 0.5447(4)
O17H O 0.523367(300) 0.630133(400) 0.788633(400)
O17M O 0.773433(300) 0.809967(400) 0.121967(400)
C14Q C 0.633733(500) 0.550167(700) 0.230467(500)
C14U C 0.4169(5) 0.3004(7) 0.4362(5)
C14C C 0.5831(5) 0.6996(7) 0.5638(5)
C14H C 0.550167(500) 0.633733(700) 0.769533(500)
C14M C 0.750233(500) 0.783167(700) 0.102867(500)
O18Q O 0.606833(400) 0.549867(500) 0.244667(500)
O18U O 0.3903(4) 0.2735(5) 0.4220(5)
O18C O 0.6097(4) 0.7265(5) 0.5780(5)
O18H O 0.549867(400) 0.606833(500) 0.755333(500)
O18M O 0.723633(400) 0.783467(500) 0.088667(500)
O18Z O 0.450133(400) 0.393167(500) 0.244667(500)
C15C C 0.5374(5) 0.6095(5) 0.4554(5)
C15U C 0.4626(5) 0.3905(5) 0.5446(5)
C15M C 0.795933(500) 0.738767(500) 0.211267(500)
C15Q C 0.723833(500) 0.594567(500) 0.122067(500)
C15H C 0.594567(500) 0.723833(500) 0.877933(500)
H12C H 0.53420 0.58830 0.46840
H12U H 0.46580 0.41170 0.53160
H12M H 0.79913 0.72077 0.19827
H12Q H 0.74503 0.61257 0.13507
H12H H 0.61257 0.74503 0.86493
N6C N 0.5506(4) 0.6164(4) 0.4231(4)
N6U N 0.4494(4) 0.3836(4) 0.5769(4)
N6M N 0.782733(400) 0.732467(400) 0.243567(400)
N6Q N 0.716933(400) 0.600867(400) 0.089767(400)
N6H N 0.600867(400) 0.716933(400) 0.910233(400)
N6R N 0.3836(4) 0.4494(4) 0.4231(4)
N6J N 0.732467(400) 0.782733(400) 0.756433(400)
N7C N 0.5293(4) 0.6356(4) 0.4674(4)
N7U N 0.4707(4) 0.3644(4) 0.5326(4)
N7M N 0.804033(400) 0.772967(400) 0.199267(400)
N7Q N 0.697733(400) 0.560367(400) 0.134067(400)
N7H N 0.560367(400) 0.697733(400) 0.865933(400)
C16C C 0.5510(5) 0.6485(5) 0.4125(5)
C16U C 0.4490(5) 0.3515(5) 0.5875(5)
C16M C 0.782333(500) 0.764167(500) 0.254167(500)
C16Q C 0.684833(500) 0.569167(500) 0.079167(500)
C16H C 0.569167(500) 0.684833(500) 0.920833(500)
C17C C 0.5382(5) 0.6603(5) 0.4406(5)
C17U C 0.4618(5) 0.3397(5) 0.5594(5)
C17M C 0.795133(500) 0.788767(500) 0.226067(500)
C17Q C 0.673033(500) 0.544567(500) 0.107267(500)
C17H C 0.544567(500) 0.673033(500) 0.892733(500)
C18C C 0.5318(5) 0.6931(6) 0.4477(7)
C18U C 0.4682(5) 0.3069(6) 0.5523(7)
C18M C 0.801533(500) 0.827967(600) 0.218967(700)
C18Q C 0.640233(500) 0.505367(600) 0.114367(700)
C18H C 0.505367(500) 0.640233(600) 0.885633(700)
C19C C 0.5625(6) 0.6633(7) 0.3787(6)
C19U C 0.4375(6) 0.3367(7) 0.6213(6)
C19M C 0.770833(600) 0.767467(700) 0.287967(600)
C19Q C 0.670033(600) 0.565867(700) 0.045367(600)
C19H C 0.565867(600) 0.670033(700) 0.954633(600)
O19C O 0.5217(4) 0.6969(4) 0.4749(3)
O19U O 0.4783(4) 0.3031(4) 0.5251(3)
O19M O 0.811633(400) 0.841867(400) 0.191767(300)
O19Q O 0.636433(400) 0.491467(400) 0.141567(300)
O19H O 0.491467(400) 0.636433(400) 0.858433(300)
O20C O 0.5400(4) 0.7148(5) 0.4192(4)
O20U O 0.4600(4) 0.2852(5) 0.5808(4)
O20M O 0.793333(400) 0.841467(500) 0.247467(400)
O20Q O 0.618533(400) 0.491867(500) 0.085867(400)
O20H O 0.491867(400) 0.618533(500) 0.914133(400)
O21C O 0.5741(4) 0.6464(4) 0.3586(3)
O21U O 0.4259(4) 0.3536(4) 0.6414(3)
O21M O 0.759233(400) 0.738967(400) 0.308067(300)
O21Q O 0.686933(400) 0.594367(400) 0.025267(300)
O21H O 0.594367(400) 0.686933(400) 0.974733(300)
O21R O 0.3536(4) 0.4259(4) 0.3586(3)
O21J O 0.738967(400) 0.759233(400) 0.691933(300)
O21BA O 0.261033(400) 0.240767(400) 0.308067(300)
O22C O 0.5619(5) 0.6934(4) 0.3706(3)
O22U O 0.4381(5) 0.3066(4) 0.6294(3)
O22M O 0.771433(500) 0.798167(400) 0.296067(300)
O22Q O 0.639933(500) 0.535167(400) 0.037267(300)
O22H O 0.535167(500) 0.639933(400) 0.962733(300)
C20Q C 0.842533(300) 0.685067(300) 0.271367(700)
C20C C 0.5092(3) 0.4908(3) 0.6047(7)
H13Q H 0.84433 0.68867 0.24727
H13C H 0.51100 0.48900 0.58060
C21U C 0.4515(7) 0.4623(10) 0.3173(5)
C21Q C 0.795633(700) 0.677467(1000) 0.349367(500)
C21Y C 0.881833(700) 0.677467(1000) 0.349367(500)
C21C C 0.5485(7) 0.5377(10) 0.6827(5)
C21R C 0.4623(7) 0.4515(10) 0.6827(5)
C22U C 0.4762(4) 0.4894(4) 0.3453(5)
C22Q C 0.822733(400) 0.679867(400) 0.321367(500)
C22Y C 0.857133(400) 0.679867(400) 0.321367(500)
C22C C 0.5238(4) 0.5106(4) 0.6547(5)
C22R C 0.4894(4) 0.4762(4) 0.6547(5)
N8U N 0.4649(4) 0.4806(4) 0.3772(3)
N8Q N 0.813933(400) 0.682367(400) 0.289467(300)
N8Y N 0.868433(400) 0.682367(400) 0.289467(300)
N8C N 0.5351(4) 0.5194(4) 0.6228(3)
N8R N 0.4806(4) 0.4649(4) 0.6228(3)
N8H N 0.682367(400) 0.813933(400) 0.710533(300)
O23U O 0.4225(4) 0.4346(6) 0.3242(3)
O23Q O 0.767933(400) 0.678767(600) 0.342467(300)
O23Y O 0.910833(400) 0.678767(600) 0.342467(300)
O23C O 0.5775(4) 0.5654(6) 0.6758(3)
O23R O 0.4346(4) 0.4225(6) 0.6758(3)
O23H O 0.678767(400) 0.767933(600) 0.657533(300)
O23Z O 0.321233(400) 0.232067(600) 0.342467(300)
O24U O 0.4660(3) 0.4730(4) 0.2857(3)
O24Q O 0.806333(300) 0.673667(400) 0.380967(300)
O24Y O 0.867333(300) 0.673667(400) 0.380967(300)
O24C O 0.5340(3) 0.5270(4) 0.7143(3)
O24R O 0.4730(3) 0.4660(4) 0.7143(3)
O24Z O 0.326333(300) 0.193667(400) 0.380967(300)
O24H O 0.673667(300) 0.806333(400) 0.619033(300)
Na1Q Na 0.715033(200) 0.695767(300) 0.346467(170)
Na1C Na 0.6474(2) 0.6183(3) 0.67980(17)
Na1U Na 0.3526(2) 0.3817(3) 0.32020(17)
Na1H Na 0.695767(200) 0.715033(300) 0.653533(170)
Na1Z Na 0.304233(200) 0.284967(300) 0.346467(170)
Na1Y Na 0.980733(200) 0.695767(300) 0.346467(170)
Na1R Na 0.3817(2) 0.3526(3) 0.67980(17)
Na1M Na 0.685933(200) 0.637567(300) -0.013133(170)
Na1J Na 0.637567(200) 0.685933(300) 1.013133(170)
Na1J* Na 0.637567(200) 0.685933(300) 0.013133(170)
Na2Q Na 0.581333(200) 0.585867(400) 0.257967(200)
Na2U Na 0.3288(2) 0.2480(4) 0.4087(2)
Na2C Na 0.6712(2) 0.7520(4) 0.5913(2)
Na2H Na 0.585867(200) 0.581333(400) 0.742033(200)
Na2Z Na 0.414133(200) 0.418667(400) 0.257967(200)
Na2V Na 0.9192(2) 0.6712(4) 0.4087(2)
Na2IA Na 0.418667(200) 0.414133(400) 0.742033(200)
Na2M Na 0.662133(200) 0.747467(400) 0.075367(200)
O25C O 0.7112(5) 0.66670 0.66670
O25U O 0.2888(5) 0.33330 0.33330
O26Q O 0.754933(600) 0.730967(900) 0.393867(500)
O26C O 0.6427(6) 0.5784(9) 0.7272(5)
O26U O 0.3573(6) 0.4216(9) 0.2728(5)
O26H O 0.730967(600) 0.754933(900) 0.606133(500)
O26Z O 0.269033(600) 0.245067(900) 0.393867(500)
O27Q O 0.580333(3000) 0.588667(3000) 0.196667(2000)
O27U O 0.325(3) 0.247(3) 0.470(2)
O27C O 0.675(3) 0.753(3) 0.530(2)
O27H O 0.588667(3000) 0.580333(3000) 0.803333(2000)
O27Z O 0.411333(3000) 0.419667(3000) 0.196667(2000)
#END
