
#######################################################################
#
#                 Cambridge Crystallographic Data Centre
#                                CCDC
#
#######################################################################
#
# If this CIF has been generated from an entry in the Cambridge
# Structural Database, then it will include bibliographic, chemical,
# crystal, experimental, refinement or atomic coordinate data resulting
# from the CCDC's data processing and validation procedures.
#
#######################################################################

data_CSD_CIF_LUXWEI
_audit_creation_date 2015-10-08
_audit_creation_method CSD-ConQuest-V1
_database_code_CSD LUXWEI
_database_code_depnum_ccdc_archive 'CCDC 1045449'
_chemical_formula_sum 'C36 H26 N4 O15 Sn2'
_chemical_formula_moiety
;
(C20 H10 O14 Sn2 2-)n,n(C16 H16 N4 O1 2+)
;
_journal_coden_Cambridge 29
_journal_volume 641
_journal_year 2015
_journal_page_first 1892
_journal_name_full 'Z.Anorg.Allg.Chem. '
loop_
_publ_author_name
"Yong-Hong Wen"
"Dong-Mei Wang"
"Hui-Ling Wen"
"Yue Zhang"
"Kuo Yao"
_chemical_name_systematic
;
catena-[2-((1H-benzimidazol-3-ium-2-ylmethoxy)methyl)-1H-3,1-benzimidazol-3-iu
m bis(\m-5-(carboxylatomethoxy)isophthalato)-di-tin]
;
_cell_volume   3505.759
_exptl_crystal_colour 'colorless'
_exptl_crystal_density_diffrn 1.88
_exptl_crystal_description 'plate'
_diffrn_ambient_temperature 294
#These two values have been output from a single CSD field.
_refine_ls_R_factor_gt 0.0363
_refine_ls_wR_factor_gt 0.0363
_symmetry_cell_setting monoclinic
_symmetry_space_group_name_H-M 'P 21/n'
_symmetry_Int_Tables_number 14
loop_
_symmetry_equiv_pos_site_id
_symmetry_equiv_pos_as_xyz
1 x,y,z
2 1/2-x,1/2+y,1/2-z
3 -x,-y,-z
4 -1/2+x,-1/2-y,-1/2+z
_cell_length_a 9.4392(4)
_cell_length_b 16.4399(6)
_cell_length_c 22.6504(8)
_cell_angle_alpha 90
_cell_angle_beta 94.128(4)
_cell_angle_gamma 90
_cell_formula_units_Z 4
loop_
_atom_type_symbol
_atom_type_radius_bond
C 0.68
H 0.23
N 0.68
O 0.68
Sn 1.39
loop_
_atom_site_label
_atom_site_type_symbol
_atom_site_fract_x
_atom_site_fract_y
_atom_site_fract_z
Sn1 Sn 0.42345(3) 0.273375(16) 0.647017(11)
Sn2 Sn 0.98731(3) 0.806800(17) 0.676276(11)
O1 O 0.1902(3) 0.73562(18) 0.77824(12)
O2 O 0.1973(3) 0.61149(19) 0.81680(12)
O3 O 0.3806(3) 0.39069(17) 0.68252(12)
O4 O 0.5669(4) 0.4263(2) 0.63299(16)
O5 O 0.5029(3) 0.73673(17) 0.61591(13)
O6 O 0.7796(3) 0.79361(17) 0.62813(12)
O7 O 0.8431(3) 0.6851(2) 0.57698(12)
O8 O 0.4776(5) 0.4518(2) 0.87756(15)
O9 O 0.5962(3) 0.42464(16) 0.80057(11)
O10 O 0.8685(3) 0.65086(17) 0.70974(12)
O11 O 0.8682(3) 0.77270(16) 0.75211(11)
O12 O 0.5763(3) 0.75168(17) 0.92166(11)
O13 O 0.2345(3) 0.6924(2) 0.96237(13)
O14 O 0.2962(3) 0.78025(17) 0.89409(12)
C1 C 0.3199(4) 0.6351(2) 0.72996(15)
C2 C 0.3482(4) 0.5536(2) 0.71993(15)
H1 H 0.30840 0.51370 0.74270
C3 C 0.4350(4) 0.5316(2) 0.67622(15)
C4 C 0.4968(4) 0.5920(3) 0.64216(16)
H2 H 0.56040 0.57770 0.61440
C5 C 0.4622(4) 0.6721(2) 0.65030(16)
C6 C 0.3749(4) 0.6938(2) 0.69464(16)
H3 H 0.35350 0.74820 0.70050
C7 C 0.2287(4) 0.6608(3) 0.77877(16)
C8 C 0.4653(5) 0.4446(3) 0.66245(17)
C9 C 0.5982(4) 0.7218(3) 0.57106(17)
H4 H 0.57740 0.75950 0.53860
H5 H 0.58270 0.66720 0.55580
C10 C 0.7540(5) 0.7310(2) 0.59332(16)
C11 C 0.5963(4) 0.5617(2) 0.83522(15)
C12 C 0.6856(4) 0.5883(2) 0.79253(15)
H6 H 0.71300 0.55260 0.76360
C13 C 0.7330(4) 0.6680(2) 0.79352(14)
C14 C 0.6936(4) 0.7214(2) 0.83745(16)
H7 H 0.72730 0.77450 0.83870
C15 C 0.6035(4) 0.6944(2) 0.87925(15)
C16 C 0.5534(4) 0.6153(2) 0.87823(15)
H8 H 0.49170 0.59800 0.90590
C17 C 0.5510(4) 0.4747(2) 0.83835(17)
C18 C 0.8292(4) 0.6970(2) 0.74826(16)
C19 C 0.4772(4) 0.7303(3) 0.96391(16)
H9 H 0.48810 0.76750 0.99710
H10 H 0.49890 0.67600 0.97870
C20 C 0.3237(4) 0.7325(2) 0.93820(16)
O15 O 0.9804(6) 0.4708(3) 0.75626(16)
N1 N 1.0752(4) 0.4275(2) 0.61553(15)
H11 H 1.08050 0.37530 0.61440
N2 N 1.0203(4) 0.5475(2) 0.64342(14)
H12 H 0.98390 0.58620 0.66290
N3 N 0.8667(4) 0.4344(2) 0.89198(17)
H13 H 0.82780 0.38740 0.88700
N4 N 0.9986(4) 0.5388(2) 0.87865(14)
H14 H 1.05960 0.57050 0.86400
C21 C 1.1339(5) 0.4797(3) 0.57621(18)
C22 C 1.2118(6) 0.4665(4) 0.5272(2)
H15 H 1.23220 0.41440 0.51420
C23 C 1.2566(6) 0.5346(4) 0.4991(2)
H16 H 1.30920 0.52820 0.46620
C24 C 1.2272(6) 0.6113(4) 0.5175(2)
H17 H 1.26150 0.65550 0.49720
C25 C 1.1473(5) 0.6256(3) 0.56578(19)
H18 H 1.12680 0.67800 0.57810
C26 C 1.1005(5) 0.5581(3) 0.59428(17)
C27 C 1.0092(5) 0.4700(3) 0.65533(18)
C28 C 0.9616(5) 0.4662(3) 0.85780(18)
C29 C 0.8403(4) 0.4878(3) 0.93625(18)
C30 C 0.7484(5) 0.4855(3) 0.9823(2)
H19 H 0.69130 0.44050 0.98810
C31 C 0.7463(5) 0.5514(4) 1.0180(2)
H20 H 0.68690 0.55130 1.04900
C32 C 0.8294(5) 0.6190(4) 1.00973(19)
H21 H 0.82390 0.66320 1.03500
C33 C 0.9206(5) 0.6223(3) 0.96489(17)
H22 H 0.97780 0.66750 0.95990
C34 C 0.9235(4) 0.5563(3) 0.92804(16)
C35 C 0.9336(6) 0.4326(3) 0.70392(19)
H23 H 0.83180 0.43960 0.69650
H24 H 0.95390 0.37480 0.70640
C36 C 1.0167(7) 0.4258(4) 0.8057(2)
H25 H 1.11930 0.42090 0.81120
H26 H 0.97680 0.37160 0.80120
Sn1A Sn 0.07655(3) 0.773375(16) 0.852983(11)
Sn2A Sn 0.51269(3) 0.306800(17) 0.823724(11)
O1A O 0.3098(3) 0.23562(18) 0.72176(12)
O8A O 1.0224(5) 0.9518(2) 0.62244(15)
O9A O 0.9038(3) 0.92464(16) 0.69943(11)
O14A O 0.2038(3) 0.28025(17) 0.60591(12)
#END
