
#######################################################################
#
#                 Cambridge Crystallographic Data Centre
#                                CCDC
#
#######################################################################
#
# If this CIF has been generated from an entry in the Cambridge
# Structural Database, then it will include bibliographic, chemical,
# crystal, experimental, refinement or atomic coordinate data resulting
# from the CCDC's data processing and validation procedures.
#
#######################################################################

data_CSD_CIF_LUXWIM
_audit_creation_date 2015-10-08
_audit_creation_method CSD-ConQuest-V1
_database_code_CSD LUXWIM
_database_code_depnum_ccdc_archive 'CCDC 1060668'
_chemical_formula_sum 'C19 H30 Cu1 N4 O16'
_chemical_formula_moiety
;
(C13 H10 Cu1 N2 O15 2-)n,n(C6 H18 N2 2+),n(H2 O1)
;
_journal_coden_Cambridge 29
_journal_volume 641
_journal_year 2015
_journal_page_first 1886
_journal_name_full 'Z.Anorg.Allg.Chem. '
loop_
_publ_author_name
"R.Koferstein"
"C.Robl"
_chemical_name_systematic
;
catena-[hexane-1,6-diaminium 
(\m-benzene-2,6-dicarboxy-1,3,4,5-tetracarboxylato)-diaqua-(urea)-copper(ii) 
monohydrate]
;
_cell_volume   2535.687
_exptl_crystal_density_diffrn 1.661
_diffrn_ambient_temperature 293
#These two values have been output from a single CSD field.
_refine_ls_R_factor_gt 0.0323
_refine_ls_wR_factor_gt 0.0323
_symmetry_cell_setting monoclinic
_symmetry_space_group_name_H-M 'P 21/n'
_symmetry_Int_Tables_number 14
loop_
_symmetry_equiv_pos_site_id
_symmetry_equiv_pos_as_xyz
1 x,y,z
2 1/2-x,1/2+y,1/2-z
3 -x,-y,-z
4 -1/2+x,-1/2-y,-1/2+z
_cell_length_a 9.5848(9)
_cell_length_b 14.6574(11)
_cell_length_c 18.2114(12)
_cell_angle_alpha 90
_cell_angle_beta 97.655(8)
_cell_angle_gamma 90
_cell_formula_units_Z 4
loop_
_atom_type_symbol
_atom_type_radius_bond
C 0.68
H 0.23
Cu 1.32
N 0.68
O 0.68
loop_
_atom_site_label
_atom_site_type_symbol
_atom_site_fract_x
_atom_site_fract_y
_atom_site_fract_z
Cu1 Cu -0.13303(3) -0.20773(2) 0.38814(2)
C1 C -0.2693(2) -0.2363(2) 0.59312(12)
C2 C -0.1815(2) -0.2445(2) 0.66023(12)
C3 C -0.2351(2) -0.2354(2) 0.72773(12)
C4 C -0.3790(2) -0.2193(2) 0.72732(12)
C5 C -0.4663(2) -0.2079(2) 0.66034(12)
C6 C -0.4126(2) -0.2155(2) 0.59301(12)
C7 C -0.2053(2) -0.2499(2) 0.52196(13)
C8 C -0.0258(2) -0.2642(2) 0.66195(13)
C9 C -0.1351(2) -0.2342(2) 0.79914(13)
C10 C -0.4428(2) -0.2160(2) 0.79873(12)
C11 C -0.6190(2) -0.1852(2) 0.66493(13)
C12 C -0.5087(2) -0.1957(2) 0.52138(12)
O1 O -0.2365(2) -0.18986(13) 0.47214(9)
O2 O -0.1265(2) -0.31552(14) 0.51774(10)
O3 O 0.0427(2) -0.20398(13) 0.63185(10)
O4 O 0.0226(2) -0.33500(13) 0.69292(10)
O5 O -0.0311(2) -0.18597(14) 0.8036(1)
O6 O -0.1706(2) -0.28499(13) 0.85205(10)
O7 O -0.4097(2) -0.15271(13) 0.84330(9)
O8 O -0.5271(2) -0.28035(12) 0.80540(9)
O9 O -0.6491(2) -0.12863(13) 0.70926(10)
O10 O -0.7076(2) -0.23190(15) 0.62037(11)
O11 O -0.5567(2) -0.11680(13) 0.51389(10)
O12 O -0.5347(2) -0.25988(13) 0.47570(9)
O13 O 0.0235(2) -0.13354(13) 0.43673(10)
C13 C 0.0507(3) -0.0510(2) 0.4251(2)
N1 N 0.1703(3) -0.0151(2) 0.4600(2)
N2 N -0.0322(3) 0.0016(2) 0.3792(2)
O14 O -0.2503(2) -0.31362(15) 0.34712(11)
O15 O -0.2810(2) -0.1062(2) 0.32098(12)
H1 H -0.1078(44) -0.2685(29) 0.8999(24)
H2 H -0.7834(46) -0.2194(31) 0.6231(25)
H3 H -0.2321(41) -0.3317(26) 0.3101(21)
H4 H -0.3378(41) -0.3093(25) 0.3435(20)
H5 H -0.3219(39) -0.1267(26) 0.2817(21)
H6 H -0.3290(41) -0.0805(28) 0.3396(22)
H7 H 0.2290(39) -0.0556(26) 0.4869(20)
H8 H 0.1769(39) 0.0390(27) 0.4601(21)
H9 H -0.108(4) -0.0186(25) 0.3542(21)
H10 H -0.0189(39) 0.0571(27) 0.3788(20)
N3 N 0.3690(3) -0.0122(2) 0.2395(2)
N4 N -0.3334(3) -0.1654(2) -0.00605(14)
C14 C 0.2146(3) -0.0201(2) 0.2418(2)
H11 H 0.1825(3) 0.0324(2) 0.2673(2)
H12 H 0.1959(3) -0.0743(2) 0.2695(2)
C15 C 0.1340(3) -0.0257(2) 0.1650(2)
H13 H 0.1673(3) -0.0778(2) 0.1395(2)
H14 H 0.1525(3) 0.0287(2) 0.1376(2)
C16 C -0.0239(3) -0.0348(2) 0.1658(2)
H15 H -0.0428(3) -0.0894(2) 0.1928(2)
H16 H -0.0574(3) 0.0172(2) 0.1914(2)
C17 C -0.1030(3) -0.0397(2) 0.0885(2)
H17 H -0.0728(3) -0.0936(2) 0.0641(2)
H18 H -0.0786(3) 0.0131(2) 0.0607(2)
C18 C -0.2623(3) -0.0430(2) 0.0863(2)
H19 H -0.2853(3) -0.0873(2) 0.1224(2)
H20 H -0.2948(3) 0.0162(2) 0.1008(2)
C19 C -0.3398(4) -0.0676(2) 0.0118(2)
H21 H -0.4377(4) -0.0498(2) 0.0102(2)
H22 H -0.3005(4) -0.0329(2) -0.0260(2)
H23 H 0.4174(34) -0.0065(23) 0.2882(19)
H24 H 0.3897(37) 0.0320(25) 0.2145(20)
H25 H 0.4059(45) -0.0638(32) 0.2172(24)
H26 H -0.3951(48) -0.1911(32) 0.0136(26)
H27 H -0.2553(50) -0.1853(32) 0.0050(25)
H28 H -0.3618(46) -0.1717(30) -0.0560(25)
O16 O 0.5011(3) -0.0237(2) 0.38618(12)
H29 H 0.4718(40) -0.0595(27) 0.4127(21)
H30 H 0.5197(40) 0.0195(26) 0.4119(21)
Cu1C Cu -0.63303(3) -0.29227(2) 0.88814(2)
O8C O -0.0271(2) -0.21965(12) 0.30540(9)
#END
