
#######################################################################
#
#                 Cambridge Crystallographic Data Centre
#                                CCDC
#
#######################################################################
#
# If this CIF has been generated from an entry in the Cambridge
# Structural Database, then it will include bibliographic, chemical,
# crystal, experimental, refinement or atomic coordinate data resulting
# from the CCDC's data processing and validation procedures.
#
#######################################################################

data_CSD_CIF_MABHUW
_audit_creation_date 2020-12-04
_audit_creation_method CSD-ConQuest-V1
_database_code_CSD MABHUW
_database_code_depnum_ccdc_archive 'CCDC 2005048'
_chemical_formula_sum 'C15 H22 N2 O8 Zn1'
_chemical_formula_moiety
;
(C9 H3 O6 Zn1 1-)n,C2 H8 N1 1+,C4 H9 N1 O1,H2 O1
;
_journal_coden_Cambridge 119
_journal_year 2020
_journal_page_first 129540
_journal_name_full 'J.Mol.Struct. '
loop_
_publ_author_name
"Fang-Kuo Wang"
"Shi-Yao Yang"
"Hua-Ze Dong"
_chemical_name_systematic
;
catena-[dimethylammonium (\m-benzene-1,3,5-tricarboxylato)-zinc(ii) 
N,N-dimethylacetamide solvate monohydrate]
;
_cell_volume   1845.026
_exptl_crystal_colour 'colorless'
_exptl_crystal_density_diffrn 1.525
_exptl_crystal_description 'block'
_diffrn_ambient_temperature 223.2
#These two values have been output from a single CSD field.
_refine_ls_R_factor_gt 0.046
_refine_ls_wR_factor_gt 0.046
_symmetry_cell_setting monoclinic
_symmetry_space_group_name_H-M 'P 21/n'
_symmetry_Int_Tables_number 14
loop_
_symmetry_equiv_pos_site_id
_symmetry_equiv_pos_as_xyz
1 x,y,z
2 1/2-x,1/2+y,1/2-z
3 -x,-y,-z
4 -1/2+x,-1/2-y,-1/2+z
_cell_length_a 9.4352(3)
_cell_length_b 15.3422(4)
_cell_length_c 13.2775(4)
_cell_angle_alpha 90
_cell_angle_beta 106.271(3)
_cell_angle_gamma 90
_cell_formula_units_Z 4
loop_
_atom_type_symbol
_atom_type_radius_bond
C 0.68
H 0.23
N 0.68
O 0.68
Zn 1.22
loop_
_atom_site_label
_atom_site_type_symbol
_atom_site_fract_x
_atom_site_fract_y
_atom_site_fract_z
Zn1 Zn -0.12549(6) 0.09567(3) 0.51331(4)
O1 O 0.0645(4) 0.1040(2) 0.6203(3)
O2 O -0.2061(4) -0.0097(2) 0.4360(2)
O3 O -0.2836(4) 0.0978(2) 0.5832(3)
O4 O -0.1660(4) 0.1917(2) 0.4088(3)
C1 C -0.2913(5) 0.1645(3) 0.6406(4)
O5 O -0.1928(4) 0.2214(2) 0.6650(3)
C2 C -0.4281(5) 0.1713(3) 0.6761(3)
C3 C -0.4349(6) 0.2338(3) 0.7506(4)
C4 C -0.5514(6) 0.1189(3) 0.6344(4)
C5 C -0.5618(5) 0.2440(3) 0.7834(4)
H1 H -0.35260 0.26960 0.77920
C6 C -0.6767(5) 0.1302(3) 0.6652(3)
H2 H -0.54820 0.07570 0.58490
C7 C -0.5603(6) 0.3113(3) 0.8667(4)
C8 C -0.6871(5) 0.1912(3) 0.7401(4)
C9 C -0.8142(5) 0.0767(3) 0.6128(3)
O6 O -0.4653(5) 0.3665(3) 0.8886(3)
H3 H -0.77380 0.19710 0.76120
O7 O 0.8047(6) 0.4137(3) 0.8570(5)
H4 H 0.78930 0.46900 0.85280
H5 H 0.89320 0.40360 0.89510
N1 N 0.9219(7) 0.3826(3) 0.6607(5)
H6 H 0.85580 0.42620 0.65280
H7 H 0.88210 0.33460 0.68070
C10 C 0.9546(11) 0.3656(6) 0.5579(7)
H8 H 0.86540 0.34640 0.50650
H9 H 1.02970 0.32080 0.56740
H10 H 0.99000 0.41880 0.53360
C11 C 1.0537(9) 0.4056(4) 0.7401(7)
H11 H 1.08920 0.46160 0.72330
H12 H 1.12870 0.36160 0.74340
H13 H 1.03280 0.40930 0.80750
O8 O 0.7383(6) 0.5159(3) 0.5873(4)
N2 N 0.6040(7) 0.6380(4) 0.5675(4)
C12 C 0.6311(7) 0.5582(4) 0.6033(5)
C13 C 0.5323(10) 0.5179(6) 0.6631(6)
H14 H 0.55560 0.45650 0.67450
H15 H 0.42980 0.52440 0.62280
H16 H 0.54820 0.54700 0.73020
C14 C 0.4798(10) 0.6907(7) 0.5801(7)
H17 H 0.39820 0.68700 0.51670
H18 H 0.51070 0.75100 0.59270
H19 H 0.44860 0.66890 0.63900
C15 C 0.6943(9) 0.6766(5) 0.5062(6)
H20 H 0.78850 0.64670 0.52170
H21 H 0.71050 0.73780 0.52410
H22 H 0.64380 0.67100 0.43210
O4C O -0.6660(4) 0.3083(2) 0.9088(3)
O2B O -0.7939(4) 0.0097(2) 0.5640(2)
O1* O -0.9355(4) 0.1040(2) 0.6203(3)
Zn1B Zn -0.87451(6) -0.09567(3) 0.48669(4)
Zn1C Zn -0.62549(6) 0.40433(3) 1.01331(4)
Zn1* Zn -1.12549(6) 0.09567(3) 0.51331(4)
#END
