
#######################################################################
#
#                 Cambridge Crystallographic Data Centre
#                                CCDC
#
#######################################################################
#
# If this CIF has been generated from an entry in the Cambridge
# Structural Database, then it will include bibliographic, chemical,
# crystal, experimental, refinement or atomic coordinate data resulting
# from the CCDC's data processing and validation procedures.
#
#######################################################################

data_CSD_CIF_MACKAE
_audit_creation_date 2011-03-25
_audit_creation_method CSD-ConQuest-V1
_database_code_CSD MACKAE
_database_code_depnum_ccdc_archive 'CCDC 761715'
_chemical_formula_sum 'C12 H40 N4 O41 U6'
_chemical_formula_moiety
;
(C12 H6 O32 U6 4-)n,4n(H4 N1 1+),9n(H2 O1)
;
_journal_coden_Cambridge 9
_journal_volume 49
_journal_year 2010
_journal_page_first 8668
_journal_name_full 'Inorg.Chem. '
loop_
_publ_author_name
"C.E.Rowland"
"C.L.Cahill"
_chemical_name_systematic
;
catena-[Tetraammonium 
tris(\m~4~-squarato)-bis(\m~3~-oxo)-hexakis(\m~2~-hydroxo)-dodecaoxo-hexa-uran
ium nonahydrate]
;
_cell_volume   4648.851
_exptl_crystal_colour 'yellow'
_exptl_crystal_description 'block'
_diffrn_ambient_temperature 100
_refine_special_details
;
The SQUEEZE/PLATON program has been used to remove disordered cations and 
solvent molecules.
;
#These two values have been output from a single CSD field.
_refine_ls_R_factor_gt 0.0232
_refine_ls_wR_factor_gt 0.0232
_symmetry_cell_setting cubic
_symmetry_space_group_name_H-M 'I 2 3'
_symmetry_Int_Tables_number 197
loop_
_symmetry_equiv_pos_site_id
_symmetry_equiv_pos_as_xyz
1 x,y,z
2 -x,-y,z
3 -x,y,-z
4 x,-y,-z
5 z,x,y
6 z,-x,-y
7 -z,-x,y
8 -z,x,-y
9 y,z,x
10 -y,z,-x
11 y,-z,-x
12 -y,-z,x
13 1/2+x,1/2+y,1/2+z
14 1/2-x,1/2-y,1/2+z
15 1/2-x,1/2+y,1/2-z
16 1/2+x,1/2-y,1/2-z
17 1/2+z,1/2+x,1/2+y
18 1/2+z,1/2-x,1/2-y
19 1/2-z,1/2-x,1/2+y
20 1/2-z,1/2+x,1/2-y
21 1/2+y,1/2+z,1/2+x
22 1/2-y,1/2+z,1/2-x
23 1/2+y,1/2-z,1/2-x
24 1/2-y,1/2-z,1/2+x
_cell_length_a 16.6897(7)
_cell_length_b 16.6897(7)
_cell_length_c 16.6897(7)
_cell_angle_alpha 90
_cell_angle_beta 90
_cell_angle_gamma 90
_cell_formula_units_Z 4
loop_
_atom_type_symbol
_atom_type_radius_bond
C 0.68
O 0.68
U 1.49
loop_
_atom_site_label
_atom_site_type_symbol
_atom_site_fract_x
_atom_site_fract_y
_atom_site_fract_z
U1 U 0.764736(16) 0.610123(16) 0.774314(16)
O1 O 0.6487(4) 0.6628(3) 0.8469(3)
O2 O 0.7015(4) 0.5604(4) 0.7036(4)
O3 O 0.8290(3) 0.6550(4) 0.8476(4)
O4 O 0.9983(4) 0.3636(3) 0.7704(3)
O5 O 0.8627(4) 0.5023(3) 0.7673(3)
O6 O 0.7296(4) 0.7296(4) 0.7296(4)
C1 C 0.9384(5) 0.5017(4) 0.7702(4)
C2 C 0.9981(5) 0.4381(4) 0.7708(5)
U1D U 0.774314(16) 0.764736(16) 0.610123(16)
U1H U 0.610123(16) 0.774314(16) 0.764736(16)
U1A U 1.235264(16) 0.389877(16) 0.774314(16)
U1R U 0.725686(16) 0.735264(16) 1.110123(16)
U1S U 0.725686(16) 0.264736(16) 0.889877(16)
U1U U 0.889877(16) 0.274314(16) 0.735264(16)
U1V U 1.110123(16) 0.725686(16) 0.735264(16)
U1C U 0.764736(16) 0.389877(16) 1.225686(16)
U1M U 0.735264(16) 0.889877(16) 0.274314(16)
U1N U 0.735264(16) 1.110123(16) 0.725686(16)
U1E U 0.774314(16) 1.235264(16) 0.389877(16)
U1K U 1.389877(16) 0.225686(16) 0.764736(16)
U1F U 1.225686(16) 0.235264(16) 0.610123(16)
U1M* U 0.735264(16) 0.889877(16) 1.274314(16)
O1D O 0.8469(4) 0.6487(3) 0.6628(3)
O1H O 0.6628(4) 0.8469(3) 0.6487(3)
O1A O 1.3513(4) 0.3372(3) 0.8469(3)
O1F O 1.1531(4) 0.3513(3) 0.6628(3)
O1R O 0.6531(4) 0.8513(3) 1.1628(3)
O1W O 0.8372(4) 0.6531(3) 1.1487(3)
O1S O 0.6531(4) 0.1487(3) 0.8372(3)
O1U O 0.8372(4) 0.3469(3) 0.8513(3)
O2D O 0.7036(4) 0.7015(4) 0.5604(4)
O2H O 0.5604(4) 0.7036(4) 0.7015(4)
O2A O 1.2985(4) 0.4396(4) 0.7036(4)
O2R O 0.7964(4) 0.7985(4) 1.0604(4)
O2S O 0.7964(4) 0.2015(4) 0.9396(4)
O3D O 0.8476(3) 0.8290(4) 0.6550(4)
O3H O 0.6550(3) 0.8476(4) 0.8290(4)
O3A O 1.1710(3) 0.3450(4) 0.8476(4)
O3R O 0.6524(3) 0.6710(4) 1.1550(4)
O3S O 0.6524(3) 0.3290(4) 0.8450(4)
O4A O 1.0017(4) 0.6364(3) 0.7704(3)
O4R O 0.7296(4) 0.5017(3) 0.8636(3)
O4S O 0.7296(4) 0.4983(3) 1.1364(3)
O4D O 0.7704(4) 0.9983(3) 0.3636(3)
O4E O 0.7704(4) 1.0017(3) 0.6364(3)
O4V O 0.8636(4) 0.7296(3) 0.5017(3)
O4N O 0.5017(4) 0.8636(3) 0.7296(3)
O4P O 1.2704(4) 0.4983(3) 0.8636(3)
O4I O 0.6364(4) 0.7704(3) 1.0017(3)
O4K O 0.6364(4) 0.2296(3) 0.9983(3)
O5A O 1.1373(4) 0.4977(3) 0.7673(3)
O5R O 0.7327(4) 0.6373(3) 1.0023(3)
O5S O 0.7327(4) 0.3627(3) 0.9977(3)
O5D O 0.7673(4) 0.8627(3) 0.5023(3)
O5E O 0.7673(4) 1.1373(3) 0.4977(3)
O5H O 0.5023(4) 0.7673(3) 0.8627(3)
O6A O 1.2704(4) 0.2704(4) 0.7296(4)
O6M O 0.7704(4) 0.7704(4) 1.2296(4)
O6N O 0.7704(4) 0.2296(4) 0.7704(4)
C1A C 1.0616(5) 0.4983(4) 0.7702(4)
C1R C 0.7298(5) 0.5616(4) 1.0017(4)
C1S C 0.7298(5) 0.4384(4) 0.9983(4)
C1D C 0.7702(5) 0.9384(4) 0.5017(4)
C1E C 0.7702(5) 1.0616(4) 0.4983(4)
C2A C 1.0019(5) 0.5619(4) 0.7708(5)
C2R C 0.7292(5) 0.5019(4) 0.9381(5)
C2S C 0.7292(5) 0.4981(4) 1.0619(5)
C2D C 0.7708(5) 0.9981(4) 0.4381(5)
C2E C 0.7708(5) 1.0019(4) 0.5619(5)
#END
