
#######################################################################
#
#                 Cambridge Crystallographic Data Centre
#                                CCDC
#
#######################################################################
#
# If this CIF has been generated from an entry in the Cambridge
# Structural Database, then it will include bibliographic, chemical,
# crystal, experimental, refinement or atomic coordinate data resulting
# from the CCDC's data processing and validation procedures.
#
#######################################################################

data_CSD_CIF_MACUFR12
_audit_creation_date 2018-06-05
_audit_creation_method CSD-ConQuest-V1
_database_code_CSD MACUFR12
_database_code_depnum_ccdc_archive 'CCDC 1837739'
_chemical_formula_sum 'C5 H11 Cu1 N1 O6'
_chemical_formula_moiety
;
(C3 H3 Cu1 O6 1-)n,C2 H8 N1 1+
;
_journal_coden_Cambridge 1350
_journal_volume 20
_journal_year 2018
_journal_page_first 3512
_journal_name_full 'CrystEngComm '
loop_
_publ_author_name
"I.E.Collings"
"M.Bykov"
"E.Bykova"
"M.Hanfland"
"S.van Smaalen"
"L.Dubrovinsky"
"N.Dubrovinskaia"
_chemical_name_systematic
;
catena-[dimethylammonium tris(\m-formato)-copper(ii)]
;
_cell_volume    819.725
_exptl_crystal_colour 'blue'
_exptl_crystal_density_diffrn 1.983
_exptl_crystal_description 'block'
_diffrn_ambient_temperature 293
_diffrn_ambient_pressure 1780000.0
_diffrn_radiation_probe x-ray
_diffrn_source synchrotron
#These two values have been output from a single CSD field.
_refine_ls_R_factor_gt 0.0359
_refine_ls_wR_factor_gt 0.0359
_symmetry_cell_setting monoclinic
_symmetry_space_group_name_H-M 'I 2/a'
_symmetry_Int_Tables_number 15
loop_
_symmetry_equiv_pos_site_id
_symmetry_equiv_pos_as_xyz
1 x,y,z
2 1/2-x,y,-z
3 1/2+x,1/2+y,1/2+z
4 -x,1/2+y,1/2-z
5 -x,-y,-z
6 -1/2+x,-y,z
7 -1/2-x,-1/2-y,-1/2-z
8 x,-1/2-y,-1/2+z
_cell_length_a 11.27196(14)
_cell_length_b 8.5295(3)
_cell_length_c 8.5611(3)
_cell_angle_alpha 90
_cell_angle_beta 95.1904(17)
_cell_angle_gamma 90
_cell_formula_units_Z 4
loop_
_atom_type_symbol
_atom_type_radius_bond
C 0.68
H 0.23
Cu 1.32
N 0.68
O 0.68
loop_
_atom_site_label
_atom_site_type_symbol
_atom_site_fract_x
_atom_site_fract_y
_atom_site_fract_z
Cu1 Cu 0.50000 0.50000 0.50000
O1 O 0.34801(19) 0.6116(3) 0.5076(4)
O2 O 0.4245(2) 0.2255(4) 0.1178(4)
O3 O 0.4377(2) 0.4132(4) 0.2952(4)
C1 C 0.25000 0.5428(7) 0.50000
H1 H 0.25000 0.43374 0.50000
C2 C 0.4688(3) 0.2847(5) 0.2407(5)
H2 H 0.52972 0.22993 0.29731
N1 N 0.25000 0.4396(7) 0.00000
H3 H 0.197(4) 0.381(6) -0.047(6)
C3 C 0.1896(4) 0.5329(6) 0.1099(7)
H4 H 0.15145 0.46490 0.17940
H5 H 0.24653 0.59787 0.16979
H6 H 0.13084 0.59787 0.05345
O1A O 0.15199(19) 0.6116(3) 0.4924(4)
O2C O 0.5755(2) 0.7255(4) 0.3822(4)
O3C O 0.5623(2) 0.9132(4) 0.2048(4)
C2C C 0.5312(3) 0.7847(5) 0.2593(5)
H2C H 0.47028 0.72993 0.20269
Cu1A Cu 0.00000 0.50000 0.50000
Cu1C Cu 0.50000 0.00000 0.00000
Cu1C* Cu 0.50000 1.00000 0.00000
O1D O 0.65199(19) 0.3884(3) 0.4924(4)
O2G O 0.4245(2) 0.2745(4) 0.6178(4)
O3D O 0.5623(2) 0.5868(4) 0.7048(4)
H3A H 0.303(4) 0.381(6) 0.047(6)
C3A C 0.3104(4) 0.5329(6) -0.1099(7)
H4A H 0.34855 0.46490 -0.17940
H5A H 0.25347 0.59787 -0.16979
H6A H 0.36916 0.59787 -0.05345
#END
