
#######################################################################
#
#                 Cambridge Crystallographic Data Centre
#                                CCDC
#
#######################################################################
#
# If this CIF has been generated from an entry in the Cambridge
# Structural Database, then it will include bibliographic, chemical,
# crystal, experimental, refinement or atomic coordinate data resulting
# from the CCDC's data processing and validation procedures.
#
#######################################################################

data_CSD_CIF_MACUFR27
_audit_creation_date 2021-06-14
_audit_creation_method CSD-ConQuest-V1
_database_code_CSD MACUFR27
_database_code_depnum_ccdc_archive 'CCDC 2067550'
_chemical_formula_sum 'C5 H11 Cu1 N1 O6'
_chemical_formula_moiety
;
(C3 H3 Cu1 O6 1-)n,C2 H8 N1 1+
;
_journal_coden_Cambridge 1695
_journal_volume 9
_journal_year 2021
_journal_page_first 8051
_journal_name_full 'J.Mater.Chem.C '
loop_
_publ_author_name
"R.Scatena"
"M.Andrzejewski"
"R.D.Johnson"
"P.Macchi"
_chemical_name_systematic
;
catena-(dimethylammonium tris(\m~2~-formato)-copper(ii))
;
_cell_volume    747.846
_exptl_crystal_colour 'light blue'
_exptl_crystal_density_diffrn 2.173
_exptl_special_details
;
I2/a polymorph (alpha)

;
_exptl_crystal_description 'plate'
_diffrn_ambient_temperature 294
_diffrn_ambient_pressure 5200000.0
#These two values have been output from a single CSD field.
_refine_ls_R_factor_gt 0.0336
_refine_ls_wR_factor_gt 0.0336
_symmetry_cell_setting monoclinic
_symmetry_space_group_name_H-M 'I 2/a'
_symmetry_Int_Tables_number 15
loop_
_symmetry_equiv_pos_site_id
_symmetry_equiv_pos_as_xyz
1 x,y,z
2 1/2-x,y,-z
3 1/2+x,1/2+y,1/2+z
4 -x,1/2+y,1/2-z
5 -x,-y,-z
6 -1/2+x,-y,z
7 -1/2-x,-1/2-y,-1/2-z
8 x,-1/2-y,-1/2+z
_cell_length_a 8.086(4)
_cell_length_b 8.466(2)
_cell_length_c 10.9541(9)
_cell_angle_alpha 90
_cell_angle_beta 94.215(17)
_cell_angle_gamma 90
_cell_formula_units_Z 4
loop_
_atom_type_symbol
_atom_type_radius_bond
C 0.68
H 0.23
Cu 1.32
N 0.68
O 0.68
loop_
_atom_site_label
_atom_site_type_symbol
_atom_site_fract_x
_atom_site_fract_y
_atom_site_fract_z
Cu1 Cu 0.75000 0.75000 0.75000
O1 O 0.3614(19) 0.4679(14) 0.6645(8)
O2 O 0.7533(17) 0.8716(12) 0.6007(6)
C1 C 0.75000 0.798(3) 0.50000
H1 H 0.75000 0.68790 0.50000
O3 O 0.5373(19) 0.6650(17) 0.6844(7)
C2 C 0.488(3) 0.529(2) 0.7150(12)
H2 H 0.54880 0.47460 0.77680
N1 N 0.25000 0.697(3) 0.50000
H3 H 0.31110 0.63450 0.55090
C3 C 0.359(3) 0.786(2) 0.4299(14)
H4 H 0.29590 0.84100 0.36550
H5 H 0.43650 0.71640 0.39500
H6 H 0.41860 0.86140 0.48200
H7? H 0.31110 0.63450 0.55090
O2A O 0.7467(17) 0.8716(12) 0.3993(6)
O1C O 0.6386(19) 0.9679(14) 0.8355(8)
O3C O 0.4627(19) 1.1650(17) 0.8156(7)
C2C C 0.512(3) 1.029(2) 0.7850(12)
H2C H 0.45120 0.97460 0.72320
Cu1A Cu 0.75000 0.75000 0.25000
Cu1C Cu 0.25000 0.25000 0.75000
Cu1C* Cu 0.25000 1.25000 0.75000
O1E O 0.8614(19) 0.5321(14) 0.6645(8)
O2F O 0.7467(17) 0.6284(12) 0.8993(6)
O3F O 0.9627(19) 0.8350(17) 0.8156(7)
H3A H 0.18890 0.63450 0.44910
C3A C 0.141(3) 0.786(2) 0.5701(14)
H4A H 0.20410 0.84100 0.63450
H5A H 0.06350 0.71640 0.60500
H6A H 0.08140 0.86140 0.51800
#END
