
#######################################################################
#
#                 Cambridge Crystallographic Data Centre
#                                CCDC
#
#######################################################################
#
# If this CIF has been generated from an entry in the Cambridge
# Structural Database, then it will include bibliographic, chemical,
# crystal, experimental, refinement or atomic coordinate data resulting
# from the CCDC's data processing and validation procedures.
#
#######################################################################

data_CSD_CIF_MACUFR30
_audit_creation_date 2021-06-14
_audit_creation_method CSD-ConQuest-V1
_database_code_CSD MACUFR30
_database_code_depnum_ccdc_archive 'CCDC 2067553'
_chemical_formula_sum 'C10 H22 Cu2 N2 O12'
_chemical_formula_moiety
;
(C6 H6 Cu2 O12 2-)n,2(C2 H8 N1 1+)
;
_journal_coden_Cambridge 1695
_journal_volume 9
_journal_year 2021
_journal_page_first 8051
_journal_name_full 'J.Mater.Chem.C '
loop_
_publ_author_name
"R.Scatena"
"M.Andrzejewski"
"R.D.Johnson"
"P.Macchi"
_chemical_name_systematic
;
catena-(bis(dimethylammonium) hexakis(\m~2~-formato)-di-copper(ii))
;
_cell_volume    668.240
_exptl_crystal_colour 'light blue'
_exptl_crystal_density_diffrn 2.432
_exptl_special_details
;
gamma polymorph

;
_exptl_crystal_description 'plate'
_diffrn_ambient_temperature 294
_diffrn_ambient_pressure 9100000.0
#These two values have been output from a single CSD field.
_refine_ls_R_factor_gt 0.0547
_refine_ls_wR_factor_gt 0.0547
_symmetry_cell_setting triclinic
_symmetry_space_group_name_H-M 'P -1'
_symmetry_Int_Tables_number 2
loop_
_symmetry_equiv_pos_site_id
_symmetry_equiv_pos_as_xyz
1 x,y,z
2 -x,-y,-z
_cell_length_a 7.2332(8)
_cell_length_b 8.5452(10)
_cell_length_c 11.085(4)
_cell_angle_alpha 92.908(17)
_cell_angle_beta 102.278(18)
_cell_angle_gamma 91.268(10)
_cell_formula_units_Z 2
loop_
_atom_type_symbol
_atom_type_radius_bond
C 0.68
H 0.23
Cu 1.32
N 0.68
O 0.68
loop_
_atom_site_label
_atom_site_type_symbol
_atom_site_fract_x
_atom_site_fract_y
_atom_site_fract_z
Cu1 Cu 0.7452(5) 0.7559(3) 0.7331(7)
Cu2 Cu 0.7397(5) 0.7522(3) 0.2305(8)
O1 O 0.700(3) 0.7987(18) 0.545(4)
O2 O 0.865(3) 0.8688(19) 0.418(4)
O3 O 0.765(3) 0.7171(17) -0.092(4)
O4 O 0.376(3) 0.4500(17) 0.321(3)
C1 C 1.135(5) 0.571(3) 0.774(6)
H1 H 1.25050 0.59750 0.82760
O5 O 0.950(3) 0.8481(19) 0.176(4)
O6 O 1.174(3) 1.0295(17) 0.221(4)
O7 O 0.537(3) 0.6598(19) 0.294(3)
C2 C 1.008(4) 0.985(3) 0.221(6)
H2 H 0.92870 1.05040 0.25460
C3 C 0.465(4) 0.526(3) 0.254(5)
H3 H 0.47690 0.48370 0.17760
O8 O 0.407(3) 1.061(2) 0.815(4)
C4 C 0.856(5) 0.834(3) 0.516(7)
H4 H 0.96690 0.83120 0.57620
C5 C 0.625(4) 0.740(3) -0.053(6)
H5 H 0.54230 0.81790 -0.08370
O9 O 0.419(3) 0.820(2) 0.734(4)
C6 C 0.411(4) 0.966(3) 0.719(6)
H6 H 0.40860 1.00510 0.64230
O10 O 1.098(3) 0.427(2) 0.738(4)
O11 O 1.027(3) 0.6751(19) 0.743(4)
O12 O 0.591(3) 0.6545(18) 0.035(4)
N1 N 0.352(3) 0.688(2) 0.514(3)
H7 H 0.38200 0.73010 0.59110
H8 H 0.45420 0.64550 0.49520
C7 C 0.273(4) 0.811(3) 0.423(6)
H9 H 0.15970 0.85170 0.44290
H10 H 0.24350 0.76330 0.34030
H11 H 0.36510 0.89480 0.42780
C8 C 0.189(4) 0.566(2) 0.499(6)
H12 H 0.22560 0.48360 0.55340
H13 H 0.15830 0.52340 0.41470
H14 H 0.07960 0.61530 0.51800
N2 N 0.263(3) 0.767(2) 0.090(4)
H15 H 0.38580 0.74720 0.09900
H16 H 0.24710 0.81700 0.15910
C9 C 0.152(4) 0.616(3) 0.071(6)
H17 H 0.17220 0.56010 -0.00240
H18 H 0.01970 0.63670 0.06110
H19 H 0.19130 0.55390 0.14080
C10 C 0.204(4) 0.868(3) -0.017(6)
H20 H 0.27690 0.96450 -0.00160
H21 H 0.07190 0.88910 -0.02610
H22 H 0.22420 0.81440 -0.09080
Cu1* Cu 0.7452(5) 0.7559(3) -0.2669(7)
Cu1A Cu 0.2548(5) 0.2441(3) 0.2669(7)
Cu1A* Cu 1.2548(5) 1.2441(3) 0.2669(7)
Cu2A Cu 0.2603(5) 1.2478(3) 0.7695(8)
Cu2A* Cu 1.2603(5) 0.2478(3) 0.7695(8)
O3* O 0.765(3) 0.7171(17) 0.908(4)
O4A O 0.624(3) 0.5500(17) 0.679(3)
O6A O 0.826(3) 0.9705(17) 0.779(4)
O8A O 0.593(3) 0.939(2) 0.185(4)
O10A O 0.902(3) 0.573(2) 0.262(4)
#END
