
#######################################################################
#
#                 Cambridge Crystallographic Data Centre
#                                CCDC
#
#######################################################################
#
# If this CIF has been generated from an entry in the Cambridge
# Structural Database, then it will include bibliographic, chemical,
# crystal, experimental, refinement or atomic coordinate data resulting
# from the CCDC's data processing and validation procedures.
#
#######################################################################

data_CSD_CIF_MACUFR02
_audit_creation_date 2009-12-22
_audit_creation_method CSD-ConQuest-V1
_database_code_CSD MACUFR02
_database_code_depnum_ccdc_archive 'CCDC 750985'
_database_code_depnum_ccdc_journal 1267/2545
_chemical_formula_sum 'C5 H11 Cu1 N1 O6'
_chemical_formula_moiety
;
(C2 H8 N1 1+)n,n(C3 H3 Cu1 O6 1-)
;
_journal_coden_Cambridge 1267
_journal_volume 224
_journal_year 2009
_journal_page_first 383
_journal_name_full 'Z.Kristallogr.-New Cryst.Struct. '
loop_
_publ_author_name
"Shu-Qing Xu"
"Jia-Ming Li"
_chemical_name_systematic
;
catena-(Dimethylammonium tris(\m~2~-formato-O,O')-copper(ii))
;
_cell_volume   1292.822
_exptl_crystal_colour 'blue'
_exptl_crystal_density_diffrn 1.886
_exptl_special_details
;
hexagonal polymorph

;
_exptl_crystal_description 'prism'
_diffrn_ambient_temperature 293
_refine_special_details
;
The dimethylammonium cation is disordered by symmetry.

;
#These two values have been output from a single CSD field.
_refine_ls_R_factor_gt 0.0293
_refine_ls_wR_factor_gt 0.0293
_symmetry_cell_setting rhombohedral
_symmetry_space_group_name_H-M 'R -3 c'
_symmetry_Int_Tables_number 167
loop_
_symmetry_equiv_pos_site_id
_symmetry_equiv_pos_as_xyz
1 x,y,z
2 -y,x-y,z
3 -x+y,-x,z
4 x-y,-y,1/2-z
5 -x,-x+y,1/2-z
6 y,x,1/2-z
7 2/3+x,1/3+y,1/3+z
8 2/3-y,1/3+x-y,1/3+z
9 2/3-x+y,1/3-x,1/3+z
10 2/3+x-y,1/3-y,5/6-z
11 2/3-x,1/3-x+y,5/6-z
12 2/3+y,1/3+x,5/6-z
13 1/3+x,2/3+y,2/3+z
14 1/3-y,2/3+x-y,2/3+z
15 1/3-x+y,2/3-x,2/3+z
16 1/3+x-y,2/3-y,1/6-z
17 1/3-x,2/3-x+y,1/6-z
18 1/3+y,2/3+x,1/6-z
19 -x,-y,-z
20 y,-x+y,-z
21 x-y,x,-z
22 -x+y,y,-1/2+z
23 x,x-y,-1/2+z
24 -y,-x,-1/2+z
25 -2/3-x,-1/3-y,-1/3-z
26 -2/3+y,-1/3-x+y,-1/3-z
27 -2/3+x-y,-1/3+x,-1/3-z
28 -2/3-x+y,-1/3+y,-5/6+z
29 -2/3+x,-1/3+x-y,-5/6+z
30 -2/3-y,-1/3-x,-5/6+z
31 -1/3-x,-2/3-y,-2/3-z
32 -1/3+y,-2/3-x+y,-2/3-z
33 -1/3+x-y,-2/3+x,-2/3-z
34 -1/3-x+y,-2/3+y,-1/6+z
35 -1/3+x,-2/3+x-y,-1/6+z
36 -1/3-y,-2/3-x,-1/6+z
_cell_length_a 8.1929(3)
_cell_length_b 8.1929(3)
_cell_length_c 22.2399(15)
_cell_angle_alpha 90
_cell_angle_beta 90
_cell_angle_gamma 120
_cell_formula_units_Z 6
loop_
_atom_type_symbol
_atom_type_radius_bond
C 0.68
H 0.23
Cu 1.32
N 0.68
O 0.68
loop_
_atom_site_label
_atom_site_type_symbol
_atom_site_fract_x
_atom_site_fract_y
_atom_site_fract_z
N1 N 0.000(2) -0.0842(14) 0.25000
H1 H 0.10100 -0.09870 0.25000
H2 H -0.10280 -0.20060 0.25000
C1 C 0.00000 0.00000 0.3041(4)
H3 H 0.07670 0.07670 0.33670
H4 H 0.01210 -0.11050 0.19350
H5 H 0.01210 -0.11050 0.30650
Cu1 Cu 0.66670 0.33330 0.33330
O1 O 0.4580(2) 0.3412(2) 0.38687(7)
C2 C 0.3333(6) 0.2092(4) 0.41670
H6 H 0.33330 0.09570 0.41670
N1B N -0.0842(20) 0.0000(14) 0.25000
N1A N 0.0842(20) 0.0842(14) 0.25000
H1A H 0.09870 0.19970 0.25000
H1B H -0.19970 -0.10100 0.25000
H2A H 0.20060 0.09780 0.25000
H2B H -0.09780 0.10280 0.25000
C1C C 0.00000 0.00000 0.1959(4)
H3E H 0.07670 0.07670 0.16330
H3A H -0.07670 0.00000 0.33670
H3C H 0.00000 -0.07670 0.16330
H3B H 0.00000 -0.07670 0.33670
H3D H -0.07670 0.00000 0.16330
H4C H 0.12260 0.11050 0.30650
H4A H 0.11050 0.12260 0.19350
H4E H -0.11050 0.01210 0.30650
H4B H -0.12260 -0.01210 0.19350
H4D H -0.01210 -0.12260 0.30650
H5C H 0.12260 0.11050 0.19350
H5A H 0.11050 0.12260 0.30650
H5D H -0.01210 -0.12260 0.19350
H5B H -0.12260 -0.01210 0.30650
H5E H -0.11050 0.01210 0.19350
Cu1J Cu -0.00003 -0.00007 0.50003
Cu1I Cu 1.00007 0.00003 0.50003
Cu1K Cu 0.99997 1.00003 0.50003
O1J O 0.208667(200) 0.216533(200) 0.446463(70)
O1A O 0.6588(2) 0.1168(2) 0.38687(7)
O1I O 0.783467(200) -0.007867(200) 0.446463(70)
O1B O 0.8832(2) 0.5420(2) 0.38687(7)
O1K O 1.007867(200) 0.791333(200) 0.446463(70)
O1X O 0.875333(200) 0.325467(200) 0.279797(70)
O1Y O 0.674533(200) 0.549867(200) 0.279797(70)
O1Z O 0.450133(200) 0.124667(200) 0.279797(70)
C2A C 0.7908(6) 0.1241(4) 0.41670
C2B C 0.8759(6) 0.6667(4) 0.41670
H6A H 0.90430 0.23760 0.41670
H6B H 0.76240 0.66670 0.41670
#END
