
#######################################################################
#
#                 Cambridge Crystallographic Data Centre
#                                CCDC
#
#######################################################################
#
# If this CIF has been generated from an entry in the Cambridge
# Structural Database, then it will include bibliographic, chemical,
# crystal, experimental, refinement or atomic coordinate data resulting
# from the CCDC's data processing and validation procedures.
#
#######################################################################

data_CSD_CIF_MACUFR06
_audit_creation_date 2018-06-05
_audit_creation_method CSD-ConQuest-V1
_database_code_CSD MACUFR06
_database_code_depnum_ccdc_archive 'CCDC 1837742'
_chemical_formula_sum 'C5 H11 Cu1 N1 O6'
_chemical_formula_moiety
;
(C3 H3 Cu1 O6 1-)n,C2 H8 N1 1+
;
_journal_coden_Cambridge 1350
_journal_volume 20
_journal_year 2018
_journal_page_first 3512
_journal_name_full 'CrystEngComm '
loop_
_publ_author_name
"I.E.Collings"
"M.Bykov"
"E.Bykova"
"M.Hanfland"
"S.van Smaalen"
"L.Dubrovinsky"
"N.Dubrovinskaia"
_chemical_name_systematic
;
catena-[dimethylammonium tris(\m-formato)-copper(ii)]
;
_cell_volume    772.303
_exptl_crystal_colour 'blue'
_exptl_crystal_density_diffrn 2.104
_exptl_special_details
;
I2/a polymorph

;
_exptl_crystal_description 'block'
_diffrn_ambient_temperature 293
_diffrn_ambient_pressure 4040000.0
_diffrn_radiation_probe x-ray
_diffrn_source synchrotron
#These two values have been output from a single CSD field.
_refine_ls_R_factor_gt 0.0514
_refine_ls_wR_factor_gt 0.0514
_symmetry_cell_setting monoclinic
_symmetry_space_group_name_H-M 'I 2/a'
_symmetry_Int_Tables_number 15
loop_
_symmetry_equiv_pos_site_id
_symmetry_equiv_pos_as_xyz
1 x,y,z
2 1/2-x,y,-z
3 1/2+x,1/2+y,1/2+z
4 -x,1/2+y,1/2-z
5 -x,-y,-z
6 -1/2+x,-y,z
7 -1/2-x,-1/2-y,-1/2-z
8 x,-1/2-y,-1/2+z
_cell_length_a 11.08603(18)
_cell_length_b 8.4489(4)
_cell_length_c 8.2715(3)
_cell_angle_alpha 90
_cell_angle_beta 94.553(3)
_cell_angle_gamma 90
_cell_formula_units_Z 4
loop_
_atom_type_symbol
_atom_type_radius_bond
C 0.68
H 0.23
Cu 1.32
N 0.68
O 0.68
loop_
_atom_site_label
_atom_site_type_symbol
_atom_site_fract_x
_atom_site_fract_y
_atom_site_fract_z
Cu1 Cu 0.50000 0.50000 0.50000
O1 O 0.3494(3) 0.6190(5) 0.5085(6)
O2 O 0.4193(4) 0.2190(6) 0.1128(6)
O3 O 0.4362(3) 0.4157(6) 0.2891(5)
C1 C 0.25000 0.5484(11) 0.50000
H1 H 0.25000 0.43834 0.50000
C2 C 0.4655(5) 0.2830(8) 0.2386(8)
H2 H 0.52604 0.22799 0.29923
N1 N 0.25000 0.4436(12) 0.00000
H3 H 0.181(6) 0.402(10) -0.053(10)
C3 C 0.1867(7) 0.5345(10) 0.1083(11)
H4 H 0.14592 0.46532 0.17821
H5 H 0.24272 0.60004 0.17252
H6 H 0.12840 0.60004 0.04815
O1A O 0.1506(3) 0.6190(5) 0.4915(6)
O2C O 0.5807(4) 0.7190(6) 0.3872(6)
O3C O 0.5638(3) 0.9157(6) 0.2109(5)
C2C C 0.5345(5) 0.7830(8) 0.2614(8)
H2C H 0.47396 0.72799 0.20077
Cu1A Cu 0.00000 0.50000 0.50000
Cu1C Cu 0.50000 0.00000 0.00000
Cu1C* Cu 0.50000 1.00000 0.00000
O1D O 0.6506(3) 0.3810(5) 0.4915(6)
O2G O 0.4193(4) 0.2810(6) 0.6128(6)
O3D O 0.5638(3) 0.5843(6) 0.7109(5)
H3A H 0.319(6) 0.402(10) 0.053(10)
C3A C 0.3133(7) 0.5345(10) -0.1083(11)
H4A H 0.35408 0.46532 -0.17821
H5A H 0.25728 0.60004 -0.17252
H6A H 0.37160 0.60004 -0.04815
#END
