
#######################################################################
#
#                 Cambridge Crystallographic Data Centre
#                                CCDC
#
#######################################################################
#
# If this CIF has been generated from an entry in the Cambridge
# Structural Database, then it will include bibliographic, chemical,
# crystal, experimental, refinement or atomic coordinate data resulting
# from the CCDC's data processing and validation procedures.
#
#######################################################################

data_CSD_CIF_MACUFR14
_audit_creation_date 2018-06-05
_audit_creation_method CSD-ConQuest-V1
_database_code_CSD MACUFR14
_database_code_depnum_ccdc_archive 'CCDC 1837741'
_chemical_formula_sum 'C5 H11 Cu1 N1 O6'
_chemical_formula_moiety
;
(C3 H3 Cu1 O6 1-)n,C2 H8 N1 1+
;
_journal_coden_Cambridge 1350
_journal_volume 20
_journal_year 2018
_journal_page_first 3512
_journal_name_full 'CrystEngComm '
loop_
_publ_author_name
"I.E.Collings"
"M.Bykov"
"E.Bykova"
"M.Hanfland"
"S.van Smaalen"
"L.Dubrovinsky"
"N.Dubrovinskaia"
_chemical_name_systematic
;
catena-[dimethylammonium tris(\m-formato)-copper(ii)]
;
_cell_volume    791.472
_exptl_crystal_colour 'blue'
_exptl_crystal_density_diffrn 2.053
_exptl_crystal_description 'block'
_diffrn_ambient_temperature 293
_diffrn_ambient_pressure 3110000.0
_diffrn_radiation_probe x-ray
_diffrn_source synchrotron
#These two values have been output from a single CSD field.
_refine_ls_R_factor_gt 0.0457
_refine_ls_wR_factor_gt 0.0457
_symmetry_cell_setting monoclinic
_symmetry_space_group_name_H-M 'I 2/a'
_symmetry_Int_Tables_number 15
loop_
_symmetry_equiv_pos_site_id
_symmetry_equiv_pos_as_xyz
1 x,y,z
2 1/2-x,y,-z
3 1/2+x,1/2+y,1/2+z
4 -x,1/2+y,1/2-z
5 -x,-y,-z
6 -1/2+x,-y,z
7 -1/2-x,-1/2-y,-1/2-z
8 x,-1/2-y,-1/2+z
_cell_length_a 11.16852(13)
_cell_length_b 8.4704(3)
_cell_length_c 8.3956(2)
_cell_angle_alpha 90
_cell_angle_beta 94.7845(18)
_cell_angle_gamma 90
_cell_formula_units_Z 4
loop_
_atom_type_symbol
_atom_type_radius_bond
C 0.68
H 0.23
Cu 1.32
N 0.68
O 0.68
loop_
_atom_site_label
_atom_site_type_symbol
_atom_site_fract_x
_atom_site_fract_y
_atom_site_fract_z
Cu1 Cu 0.50000 0.50000 0.50000
O1 O 0.3488(2) 0.6152(4) 0.5079(5)
O2 O 0.4222(3) 0.2223(5) 0.1147(5)
O3 O 0.4369(3) 0.4147(5) 0.2911(5)
C1 C 0.25000 0.5461(9) 0.50000
H1 H 0.25000 0.43630 0.50000
C2 C 0.4665(4) 0.2837(7) 0.2405(7)
H2 H 0.52587 0.22784 0.30091
N1 N 0.25000 0.4412(9) 0.00000
H3 H 0.183(5) 0.388(8) -0.040(8)
C3 C 0.1877(6) 0.5345(8) 0.1102(9)
H4 H 0.14813 0.46598 0.18026
H5 H 0.24429 0.59992 0.17214
H6 H 0.12917 0.59992 0.05178
O1A O 0.1512(2) 0.6152(4) 0.4921(5)
O2C O 0.5778(3) 0.7223(5) 0.3853(5)
O3C O 0.5631(3) 0.9147(5) 0.2089(5)
C2C C 0.5335(4) 0.7837(7) 0.2595(7)
H2C H 0.47413 0.72784 0.19909
Cu1A Cu 0.00000 0.50000 0.50000
Cu1C Cu 0.50000 0.00000 0.00000
Cu1C* Cu 0.50000 1.00000 0.00000
O1D O 0.6512(2) 0.3848(4) 0.4921(5)
O2G O 0.4222(3) 0.2777(5) 0.6147(5)
O3D O 0.5631(3) 0.5853(5) 0.7089(5)
H3A H 0.317(5) 0.388(8) 0.040(8)
C3A C 0.3123(6) 0.5345(8) -0.1102(9)
H4A H 0.35187 0.46598 -0.18026
H5A H 0.25571 0.59992 -0.17214
H6A H 0.37084 0.59992 -0.05178
#END
