
#######################################################################
#
#                 Cambridge Crystallographic Data Centre
#                                CCDC
#
#######################################################################
#
# If this CIF has been generated from an entry in the Cambridge
# Structural Database, then it will include bibliographic, chemical,
# crystal, experimental, refinement or atomic coordinate data resulting
# from the CCDC's data processing and validation procedures.
#
#######################################################################

data_CSD_CIF_MACUFR21
_audit_creation_date 2021-02-22
_audit_creation_method CSD-ConQuest-V1
_database_code_CSD MACUFR21
_database_code_depnum_ccdc_archive 'CCDC 1956237'
_chemical_formula_sum 'C5 H11 Cu1 N1 O6'
_chemical_formula_moiety
;
(C3 H3 Cu1 O6 1-)n,C2 H8 N1 1+
;
_journal_coden_Cambridge 1500
_journal_volume 11
_journal_year 2021
_journal_page_first 8178
_journal_name_full 'RSC Advances '
loop_
_publ_author_name
"M.Sebghati"
"A.Tarahhomi"
"M.S.Bozorgvar"
"D.G.Dumitrescu"
"A.van der Lee"
_chemical_name_systematic
;
catena-[dimethylammonium tris(\m-formato)-copper]
;
_cell_volume    876.408
_exptl_crystal_colour 'light blue'
_exptl_crystal_density_diffrn 1.854
_exptl_special_details
;
I2/a polymorph

;
_exptl_crystal_description 'prism'
_diffrn_ambient_temperature 100
_diffrn_radiation_probe x-ray
_diffrn_source synchrotron
#These two values have been output from a single CSD field.
_refine_ls_R_factor_gt 0.0734
_refine_ls_wR_factor_gt 0.0734
_symmetry_cell_setting monoclinic
_symmetry_space_group_name_H-M 'I 2/a'
_symmetry_Int_Tables_number 15
loop_
_symmetry_equiv_pos_site_id
_symmetry_equiv_pos_as_xyz
1 x,y,z
2 1/2-x,y,-z
3 1/2+x,1/2+y,1/2+z
4 -x,1/2+y,1/2-z
5 -x,-y,-z
6 -1/2+x,-y,z
7 -1/2-x,-1/2-y,-1/2-z
8 x,-1/2-y,-1/2+z
_cell_length_a 11.5393(16)
_cell_length_b 8.6391(6)
_cell_length_c 8.8358(9)
_cell_angle_alpha 90
_cell_angle_beta 95.746(11)
_cell_angle_gamma 90
_cell_formula_units_Z 4
loop_
_atom_type_symbol
_atom_type_radius_bond
C 0.68
H 0.23
Cu 1.32
N 0.68
O 0.68
loop_
_atom_site_label
_atom_site_type_symbol
_atom_site_fract_x
_atom_site_fract_y
_atom_site_fract_z
Cu1 Cu 0.50000 0.50000 0.00000
O1 O 0.3463(3) 0.3938(3) 0.0074(4)
O2 O 0.5717(3) 0.2320(3) 0.3797(4)
O3 O 0.5600(3) 0.4135(4) 0.2020(4)
C1 C 0.5279(4) 0.2871(5) 0.2588(5)
H1 H 0.46736 0.23275 0.20544
C2 C 0.25000 0.4625(8) 0.00000
H2 H 0.25000 0.57015 -0.00000
N1 N 0.75000 0.4331(6) 0.50000
H3 H 0.69628 0.37246 0.45110
C3 C 0.6955(5) 0.5271(6) 0.6110(7)
H4 H 0.63772 0.59333 0.55888
H5 H 0.75370 0.58920 0.66758
H6 H 0.65919 0.46059 0.67940
H7? H 0.69628 0.37246 0.45110
O1A O 0.1537(3) 0.3938(3) -0.0074(4)
O2C O 0.4283(3) 0.7320(3) 0.1203(4)
O3C O 0.4400(3) 0.9135(4) 0.2980(4)
C1C C 0.4721(4) 0.7871(5) 0.2412(5)
H1C H 0.53264 0.73276 0.29456
Cu1A Cu 0.00000 0.50000 0.00000
Cu1C Cu 0.50000 0.00000 0.50000
Cu1C* Cu 0.50000 1.00000 0.50000
O1D O 0.6537(3) 0.6062(3) -0.0074(4)
O2G O 0.5717(3) 0.2680(3) -0.1203(4)
O3D O 0.4400(3) 0.5865(4) -0.2020(4)
H3A H 0.80372 0.37246 0.54890
C3A C 0.8045(5) 0.5271(6) 0.3890(7)
H4A H 0.86228 0.59333 0.44112
H5A H 0.74630 0.58920 0.33242
H6A H 0.84081 0.46059 0.32060
#END
