
#######################################################################
#
#                 Cambridge Crystallographic Data Centre
#                                CCDC
#
#######################################################################
#
# If this CIF has been generated from an entry in the Cambridge
# Structural Database, then it will include bibliographic, chemical,
# crystal, experimental, refinement or atomic coordinate data resulting
# from the CCDC's data processing and validation procedures.
#
#######################################################################

data_CSD_CIF_MACUFR09
_audit_creation_date 2018-06-05
_audit_creation_method CSD-ConQuest-V1
_database_code_CSD MACUFR09
_database_code_depnum_ccdc_archive 'CCDC 1837736'
_chemical_formula_sum 'C5 H11 Cu1 N1 O6'
_chemical_formula_moiety
;
(C3 H3 Cu1 O6 1-)n,C2 H8 N1 1+
;
_journal_coden_Cambridge 1350
_journal_volume 20
_journal_year 2018
_journal_page_first 3512
_journal_name_full 'CrystEngComm '
loop_
_publ_author_name
"I.E.Collings"
"M.Bykov"
"E.Bykova"
"M.Hanfland"
"S.van Smaalen"
"L.Dubrovinsky"
"N.Dubrovinskaia"
_chemical_name_systematic
;
catena-[dimethylammonium tris(\m-formato)-copper(ii)]
;
_cell_volume    863.062
_exptl_crystal_colour 'blue'
_exptl_crystal_density_diffrn 1.883
_exptl_special_details
;
I2/a polymorph

;
_exptl_crystal_description 'block'
_diffrn_ambient_temperature 293
_diffrn_ambient_pressure 330000.0
_diffrn_radiation_probe x-ray
_diffrn_source synchrotron
#These two values have been output from a single CSD field.
_refine_ls_R_factor_gt 0.0335
_refine_ls_wR_factor_gt 0.0335
_symmetry_cell_setting monoclinic
_symmetry_space_group_name_H-M 'I 2/a'
_symmetry_Int_Tables_number 15
loop_
_symmetry_equiv_pos_site_id
_symmetry_equiv_pos_as_xyz
1 x,y,z
2 1/2-x,y,-z
3 1/2+x,1/2+y,1/2+z
4 -x,1/2+y,1/2-z
5 -x,-y,-z
6 -1/2+x,-y,z
7 -1/2-x,-1/2-y,-1/2-z
8 x,-1/2-y,-1/2+z
_cell_length_a 11.39538(18)
_cell_length_b 8.6694(4)
_cell_length_c 8.7825(4)
_cell_angle_alpha 90
_cell_angle_beta 95.884(2)
_cell_angle_gamma 90
_cell_formula_units_Z 4
loop_
_atom_type_symbol
_atom_type_radius_bond
C 0.68
H 0.23
Cu 1.32
N 0.68
O 0.68
loop_
_atom_site_label
_atom_site_type_symbol
_atom_site_fract_x
_atom_site_fract_y
_atom_site_fract_z
Cu1 Cu 0.50000 0.50000 0.50000
O1 O 0.34732(17) 0.6054(3) 0.5056(3)
O2 O 0.4273(2) 0.2313(4) 0.1218(4)
O3 O 0.4388(2) 0.4119(3) 0.3007(3)
C1 C 0.25000 0.5369(6) 0.50000
H1 H 0.25000 0.42962 0.50000
C2 C 0.4707(3) 0.2879(5) 0.2450(5)
H2 H 0.53166 0.23391 0.29986
N1 N 0.25000 0.4371(6) 0.00000
H3 H 0.202(4) 0.374(6) -0.046(6)
C3 C 0.1914(4) 0.5296(6) 0.1083(6)
H4 H 0.15449 0.46270 0.17638
H5 H 0.24840 0.59348 0.16638
H6 H 0.13255 0.59348 0.05349
O1A O 0.15268(17) 0.6054(3) 0.4944(3)
O2C O 0.5727(2) 0.7313(4) 0.3782(4)
O3C O 0.5612(2) 0.9119(3) 0.1993(3)
C2C C 0.5293(3) 0.7879(5) 0.2550(5)
H2C H 0.46834 0.73391 0.20014
Cu1A Cu 0.00000 0.50000 0.50000
Cu1C Cu 0.50000 0.00000 0.00000
Cu1C* Cu 0.50000 1.00000 0.00000
O1D O 0.65268(17) 0.3946(3) 0.4944(3)
O2G O 0.4273(2) 0.2687(4) 0.6218(4)
O3D O 0.5612(2) 0.5881(3) 0.6993(3)
H3A H 0.298(4) 0.374(6) 0.046(6)
C3A C 0.3086(4) 0.5296(6) -0.1083(6)
H4A H 0.34551 0.46270 -0.17638
H5A H 0.25160 0.59348 -0.16638
H6A H 0.36745 0.59348 -0.05349
#END
