
#######################################################################
#
#                 Cambridge Crystallographic Data Centre
#                                CCDC
#
#######################################################################
#
# If this CIF has been generated from an entry in the Cambridge
# Structural Database, then it will include bibliographic, chemical,
# crystal, experimental, refinement or atomic coordinate data resulting
# from the CCDC's data processing and validation procedures.
#
#######################################################################

data_CSD_CIF_MACUFR04
_audit_creation_date 2017-01-23
_audit_creation_method CSD-ConQuest-V1
_database_code_CSD MACUFR04
_database_code_depnum_ccdc_archive 'CCDC 1439349'
_chemical_formula_sum 'C5 H11 Cu1 N1 O6'
_chemical_formula_moiety
;
C2 H8 N1 1+,n(C3 H3 Cu1 O6 1-)
;
_journal_coden_Cambridge 1078
_journal_year 2016
_journal_name_full 'CSD Communication(Private Communication) '
loop_
_publ_author_name
"Xianqiang Huang"
"Chuansheng Cui"
_chemical_name_systematic
;
catena-[dimethylammonium tris(\m-formato)-copper(ii)]
;
_cell_volume   1375.056
_exptl_crystal_density_diffrn 1.773
_diffrn_ambient_temperature 296
_refine_special_details
;
The structure is disordered.

;
#These two values have been output from a single CSD field.
_refine_ls_R_factor_gt 0.0489
_refine_ls_wR_factor_gt 0.0489
_symmetry_cell_setting rhombohedral
_symmetry_space_group_name_H-M 'R -3 c'
_symmetry_Int_Tables_number 167
loop_
_symmetry_equiv_pos_site_id
_symmetry_equiv_pos_as_xyz
1 x,y,z
2 -y,x-y,z
3 -x+y,-x,z
4 y,x,1/2-z
5 -x,-x+y,1/2-z
6 x-y,-y,1/2-z
7 2/3+x,1/3+y,1/3+z
8 2/3-y,1/3+x-y,1/3+z
9 2/3-x+y,1/3-x,1/3+z
10 2/3+y,1/3+x,5/6-z
11 2/3-x,1/3-x+y,5/6-z
12 2/3+x-y,1/3-y,5/6-z
13 1/3+x,2/3+y,2/3+z
14 1/3-y,2/3+x-y,2/3+z
15 1/3-x+y,2/3-x,2/3+z
16 1/3+y,2/3+x,1/6-z
17 1/3-x,2/3-x+y,1/6-z
18 1/3+x-y,2/3-y,1/6-z
19 -x,-y,-z
20 y,-x+y,-z
21 x-y,x,-z
22 -y,-x,-1/2+z
23 x,x-y,-1/2+z
24 -x+y,y,-1/2+z
25 -2/3-x,-1/3-y,-1/3-z
26 -2/3+y,-1/3-x+y,-1/3-z
27 -2/3+x-y,-1/3+x,-1/3-z
28 -2/3-y,-1/3-x,-5/6+z
29 -2/3+x,-1/3+x-y,-5/6+z
30 -2/3-x+y,-1/3+y,-5/6+z
31 -1/3-x,-2/3-y,-2/3-z
32 -1/3+y,-2/3-x+y,-2/3-z
33 -1/3+x-y,-2/3+x,-2/3-z
34 -1/3-y,-2/3-x,-1/6+z
35 -1/3+x,-2/3+x-y,-1/6+z
36 -1/3-x+y,-2/3+y,-1/6+z
_cell_length_a 8.3286(3)
_cell_length_b 8.3286(3)
_cell_length_c 22.890(2)
_cell_angle_alpha 90
_cell_angle_beta 90
_cell_angle_gamma 120
_cell_formula_units_Z 6
loop_
_atom_type_symbol
_atom_type_radius_bond
C 0.68
H 0.23
Cu 1.32
N 0.68
O 0.68
loop_
_atom_site_label
_atom_site_type_symbol
_atom_site_fract_x
_atom_site_fract_y
_atom_site_fract_z
Cu1 Cu 0.00000 0.00000 0.00000
O1 O 0.2209(5) 0.2108(5) 0.05430(15)
C1 C 0.2152(9) 0.33330 0.08330
H1 H 0.10350 0.33330 0.08330
N1 N 0.585(3) 0.252(3) 0.08330
H2 H 0.47090 0.23570 0.08330
H3 H 0.57120 0.13530 0.08330
C2 C 0.66670 0.33330 0.0316(7)
H4 H 0.68080 0.45490 0.03000
H5 H 0.59140 0.26050 -0.00050
H6? H 0.78630 0.34310 0.02930
O1Q O 0.343433(500) 0.455867(500) 0.112367(150)
O1A O -0.2108(5) 0.0101(5) 0.05430(15)
C1A C -0.3333(9) -0.11810 0.08330
H1A H -0.33330 -0.22980 0.08330
O1O O -0.455867(500) -0.112433(500) 0.112367(150)
O1B O -0.0101(5) -0.2209(5) 0.05430(15)
C1B C 0.1181(9) -0.21520 0.08330
H1B H 0.22980 -0.10350 0.08330
O1P O 0.112433(500) -0.343433(500) 0.112367(150)
Cu1O Cu -0.66667 -0.33333 0.16667
Cu1O* Cu 0.33333 -0.33333 0.16667
Cu1O** Cu 0.33333 0.66667 0.16667
O1R O -0.2209(5) -0.2108(5) -0.05430(15)
O1S O 0.2108(5) -0.0101(5) -0.05430(15)
O1T O 0.0101(5) 0.2209(5) -0.05430(15)
H4B H 0.77410 0.31920 0.03000
C2O C 0.66663 0.33337 0.135067(700)
H4O H 0.78823 0.34747 0.13667
H5O H 0.59383 0.25807 0.16717
H4P H 0.65253 0.44077 0.13667
#END
