
#######################################################################
#
#                 Cambridge Crystallographic Data Centre
#                                CCDC
#
#######################################################################
#
# If this CIF has been generated from an entry in the Cambridge
# Structural Database, then it will include bibliographic, chemical,
# crystal, experimental, refinement or atomic coordinate data resulting
# from the CCDC's data processing and validation procedures.
#
#######################################################################

data_CSD_CIF_MACUFR11
_audit_creation_date 2018-06-05
_audit_creation_method CSD-ConQuest-V1
_database_code_CSD MACUFR11
_database_code_depnum_ccdc_archive 'CCDC 1837738'
_chemical_formula_sum 'C5 H11 Cu1 N1 O6'
_chemical_formula_moiety
;
(C3 H3 Cu1 O6 1-)n,C2 H8 N1 1+
;
_journal_coden_Cambridge 1350
_journal_volume 20
_journal_year 2018
_journal_page_first 3512
_journal_name_full 'CrystEngComm '
loop_
_publ_author_name
"I.E.Collings"
"M.Bykov"
"E.Bykova"
"M.Hanfland"
"S.van Smaalen"
"L.Dubrovinsky"
"N.Dubrovinskaia"
_chemical_name_systematic
;
catena-[dimethylammonium tris(\m-formato)-copper(ii)]
;
_cell_volume    836.072
_exptl_crystal_colour 'blue'
_exptl_crystal_density_diffrn 1.944
_exptl_crystal_description 'block'
_diffrn_ambient_temperature 293
_diffrn_ambient_pressure 1140000.0
_diffrn_radiation_probe x-ray
_diffrn_source synchrotron
#These two values have been output from a single CSD field.
_refine_ls_R_factor_gt 0.0337
_refine_ls_wR_factor_gt 0.0337
_symmetry_cell_setting monoclinic
_symmetry_space_group_name_H-M 'I 2/a'
_symmetry_Int_Tables_number 15
loop_
_symmetry_equiv_pos_site_id
_symmetry_equiv_pos_as_xyz
1 x,y,z
2 1/2-x,y,-z
3 1/2+x,1/2+y,1/2+z
4 -x,1/2+y,1/2-z
5 -x,-y,-z
6 -1/2+x,-y,z
7 -1/2-x,-1/2-y,-1/2-z
8 x,-1/2-y,-1/2+z
_cell_length_a 11.3229(5)
_cell_length_b 8.5761(8)
_cell_length_c 8.6487(8)
_cell_angle_alpha 90
_cell_angle_beta 95.432(5)
_cell_angle_gamma 90
_cell_formula_units_Z 4
loop_
_atom_type_symbol
_atom_type_radius_bond
C 0.68
H 0.23
Cu 1.32
N 0.68
O 0.68
loop_
_atom_site_label
_atom_site_type_symbol
_atom_site_fract_x
_atom_site_fract_y
_atom_site_fract_z
Cu1 Cu 0.50000 0.50000 0.50000
O1 O 0.34783(18) 0.6090(3) 0.5070(3)
O2 O 0.4256(2) 0.2274(4) 0.1198(4)
O3 O 0.4380(2) 0.4124(4) 0.2973(4)
C1 C 0.25000 0.5404(7) 0.50000
H1 H 0.25000 0.43201 0.50000
C2 C 0.4697(3) 0.2854(5) 0.2433(5)
H2 H 0.53041 0.23082 0.29962
N1 N 0.25000 0.4383(7) 0.00000
H3 H 0.193(4) 0.384(6) -0.044(6)
C3 C 0.1900(4) 0.5312(6) 0.1098(7)
H4 H 0.15245 0.46325 0.17854
H5 H 0.24688 0.59575 0.16906
H6 H 0.13117 0.59575 0.05415
O1A O 0.15217(18) 0.6090(3) 0.4930(3)
O2C O 0.5744(2) 0.7274(4) 0.3802(4)
O3C O 0.5620(2) 0.9124(4) 0.2027(4)
C2C C 0.5303(3) 0.7854(5) 0.2567(5)
H2C H 0.46959 0.73082 0.20038
Cu1A Cu 0.00000 0.50000 0.50000
Cu1C Cu 0.50000 0.00000 0.00000
Cu1C* Cu 0.50000 1.00000 0.00000
O1D O 0.65217(18) 0.3910(3) 0.4930(3)
O2G O 0.4256(2) 0.2726(4) 0.6198(4)
O3D O 0.5620(2) 0.5876(4) 0.7027(4)
H3A H 0.307(4) 0.384(6) 0.044(6)
C3A C 0.3100(4) 0.5312(6) -0.1098(7)
H4A H 0.34755 0.46325 -0.17854
H5A H 0.25312 0.59575 -0.16906
H6A H 0.36883 0.59575 -0.05415
#END
