
#######################################################################
#
#                 Cambridge Crystallographic Data Centre
#                                CCDC
#
#######################################################################
#
# If this CIF has been generated from an entry in the Cambridge
# Structural Database, then it will include bibliographic, chemical,
# crystal, experimental, refinement or atomic coordinate data resulting
# from the CCDC's data processing and validation procedures.
#
#######################################################################

data_CSD_CIF_MACUFR01
_audit_creation_date 2006-05-11
_audit_creation_method CSD-ConQuest-V1
_database_code_CSD MACUFR01
_database_code_depnum_ccdc_archive 'CCDC 298231'
_chemical_formula_sum 'C5 H11 Cu1 N1 O6'
_chemical_formula_moiety
;
(C3 H3 Cu1 O6 1-)n,n(C2 H8 N1 1+)
;
_journal_coden_Cambridge 9
_journal_volume 45
_journal_year 2006
_journal_page_first 977
_journal_name_full 'Inorg.Chem. '
loop_
_publ_author_name
"Deyuan Kong"
"J.Zon"
"J.McBee"
"A.Clearfield"
_chemical_name_systematic
;
catena-(dimethylammonium tris(\m~2~-formato)-copper)
;
_cell_volume    867.480
_exptl_special_details
;
monoclinic polymorph
Structure stated to be 2D polymeric copper centers connected by formic acid 
molecules and no further information is given in the paper. Formula sum given 
as C6 H6 Cu2 N8 O9 P3
;
_diffrn_ambient_temperature 110
#These two values have been output from a single CSD field.
_refine_ls_R_factor_gt 0.0183
_refine_ls_wR_factor_gt 0.0183
_symmetry_cell_setting monoclinic
_symmetry_space_group_name_H-M 'C 2/c'
_symmetry_Int_Tables_number 15
loop_
_symmetry_equiv_pos_site_id
_symmetry_equiv_pos_as_xyz
1 x,y,z
2 1/2+x,1/2+y,z
3 -x,y,1/2-z
4 1/2-x,1/2+y,1/2-z
5 -x,-y,-z
6 -1/2-x,-1/2-y,-z
7 x,-y,-1/2+z
8 -1/2+x,-1/2-y,-1/2+z
_cell_length_a 13.733(12)
_cell_length_b 8.659(8)
_cell_length_c 8.808(8)
_cell_angle_alpha 90
_cell_angle_beta 124.083(12)
_cell_angle_gamma 90
_cell_formula_units_Z 4
loop_
_atom_type_symbol
_atom_type_radius_bond
C 0.68
H 0.23
Cu 1.52
N 0.68
O 0.68
loop_
_atom_site_label
_atom_site_type_symbol
_atom_site_fract_x
_atom_site_fract_y
_atom_site_fract_z
Cu1 Cu 0.25000 0.25000 0.00000
O1 O 0.40255(8) 0.35625(11) 0.16034(13)
O2 O 0.18916(8) 0.33665(11) 0.13876(13)
O3 O 0.17745(8) 0.51775(11) 0.30684(13)
C1 C 0.22108(12) 0.46321(16) 0.22583(18)
C2 C 0.50000 0.2876(2) 0.25000
H1 H 0.50000 0.175(3) 0.25000
H2 H 0.2829(18) 0.522(2) 0.227(3)
C3 C 0.44405(14) 0.28072(19) 0.5809(2)
N1 N 0.50000 0.18532(19) 0.75000
H3 H 0.3879(18) 0.338(2) 0.582(3)
H4 H 0.5007(18) 0.345(2) 0.584(3)
H5 H 0.4117(19) 0.214(3) 0.481(3)
H6 H 0.4472(16) 0.128(2) 0.739(3)
Cu1C Cu 0.25000 0.75000 0.50000
Cu1B Cu 0.75000 0.25000 0.50000
Cu1C* Cu 0.25000 -0.25000 -0.50000
O1B O 0.59745(8) 0.35625(11) 0.33966(13)
O1E O 0.09745(8) 0.14375(11) -0.16034(13)
O2E O 0.31084(8) 0.16335(11) -0.13876(13)
O3E O 0.32255(8) -0.01775(11) -0.30684(13)
O3F O 0.17745(8) 0.48225(11) -0.19316(13)
O3C O 0.32255(8) 0.01775(11) 0.19316(13)
C1E C 0.27892(12) 0.03679(16) -0.22583(18)
H2E H 0.2171(18) -0.022(2) -0.227(3)
C3B C 0.55595(14) 0.28072(19) 0.9191(2)
H3B H 0.6121(18) 0.338(2) 0.918(3)
H4B H 0.4993(18) 0.345(2) 0.916(3)
H5B H 0.5883(19) 0.214(3) 1.019(3)
H6B H 0.5528(16) 0.128(2) 0.761(3)
#END
