
#######################################################################
#
#                 Cambridge Crystallographic Data Centre
#                                CCDC
#
#######################################################################
#
# If this CIF has been generated from an entry in the Cambridge
# Structural Database, then it will include bibliographic, chemical,
# crystal, experimental, refinement or atomic coordinate data resulting
# from the CCDC's data processing and validation procedures.
#
#######################################################################

data_CSD_CIF_MACUFR
_audit_creation_date 1974-01-30
_audit_creation_method CSD-ConQuest-V1
_database_code_CSD MACUFR
_database_code_depnum_ccdc_archive 'CCDC 1208952'
_chemical_formula_sum 'C5 H11 Cu1 N1 O6'
_chemical_formula_moiety
;
(C3 H3 Cu1 O6 1-)n,n(C2 H8 N1 1+)
;
_journal_coeditor_code "IUCr A10176"
_journal_coden_Cambridge 107
_journal_volume 29
_journal_year 1973
_journal_page_first 1752
_journal_name_full 'Acta Crystallogr.,Sect.B:Struct.Crystallogr.Cryst.Chem. '
loop_
_publ_author_name
"E.Sletten"
"L.H.Jensen"
_chemical_name_systematic
;
catena-(dimethylammonium tris(\m~2~-formato)-copper(ii))
;
_cell_volume    875.509
_exptl_crystal_density_diffrn 1.86
_exptl_special_details
;
monoclinic polymorph

;
_diffrn_ambient_temperature ?
_diffrn_special_details
;
The study was carried out at room temperature,in the range 283-303K

;
#These two values have been output from a single CSD field.
_refine_ls_R_factor_gt 0.017
_refine_ls_wR_factor_gt 0.017
_symmetry_cell_setting monoclinic
_symmetry_space_group_name_H-M 'I 2/c'
_symmetry_Int_Tables_number 15
loop_
_symmetry_equiv_pos_site_id
_symmetry_equiv_pos_as_xyz
1 x,y,z
2 1/2+x,1/2+y,1/2+z
3 -x,y,1/2-z
4 1/2-x,1/2+y,-z
5 -x,-y,-z
6 -1/2-x,-1/2-y,-1/2-z
7 x,-y,-1/2+z
8 -1/2+x,-1/2-y,z
_cell_length_a 11.4204(5)
_cell_length_b 8.7139(5)
_cell_length_c 8.8502(5)
_cell_angle_alpha 90
_cell_angle_beta 96.247(5)
_cell_angle_gamma 90
_cell_formula_units_Z 4
loop_
_atom_type_symbol
_atom_type_radius_bond
C 0.68
H 0.20
Cu 1.47
N 0.68
O 0.68
loop_
_atom_site_label
_atom_site_type_symbol
_atom_site_fract_x
_atom_site_fract_y
_atom_site_fract_z
Cu1 Cu 0.25000 0.25000 0.25000
C1 C 0.50000 0.21403 0.25000
C2 C 0.27831 0.53774 0.00318
H1 H 0.50000 0.32320 0.25000
H2 H 0.21600 0.48120 -0.05820
O1 O 0.40315 0.14722 0.24419
O2 O 0.32206 0.48315 0.12594
O3 O 0.31088 0.33920 0.44750
C3 C 0.55813 0.77864 0.14183
H3 H 0.61060 0.83230 0.19690
H4 H 0.49890 0.83530 0.09090
H5 H 0.58390 0.71400 0.08130
H6 H 0.44820 0.63390 0.19970
N1 N 0.50000 0.68522 0.25000
Cu1B Cu 0.75000 0.25000 0.25000
Cu1C Cu 0.25000 0.75000 -0.25000
Cu1C* Cu 0.25000 0.75000 0.75000
C2F C 0.27831 0.46226 0.50318
H2F H 0.21600 0.51880 0.44180
O1E O 0.09685 0.35278 0.25581
O1B O 0.59685 0.14722 0.25581
O2E O 0.17794 0.01685 0.37406
O2F O 0.32206 0.51685 0.62594
O3E O 0.18912 0.16080 0.05250
O3F O 0.31088 0.66080 -0.05250
C3B C 0.44187 0.77864 0.35817
H3B H 0.38940 0.83230 0.30310
H4B H 0.50110 0.83530 0.40910
H5B H 0.41610 0.71400 0.41870
H6B H 0.55180 0.63390 0.30030
#END
