
#######################################################################
#
#                 Cambridge Crystallographic Data Centre
#                                CCDC
#
#######################################################################
#
# If this CIF has been generated from an entry in the Cambridge
# Structural Database, then it will include bibliographic, chemical,
# crystal, experimental, refinement or atomic coordinate data resulting
# from the CCDC's data processing and validation procedures.
#
#######################################################################

data_CSD_CIF_MACUFR24
_audit_creation_date 2021-06-14
_audit_creation_method CSD-ConQuest-V1
_database_code_CSD MACUFR24
_database_code_depnum_ccdc_archive 'CCDC 2067547'
_chemical_formula_sum 'C5 H11 Cu1 N1 O6'
_chemical_formula_moiety
;
(C3 H3 Cu1 O6 1-)n,C2 H8 N1 1+
;
_journal_coden_Cambridge 1695
_journal_volume 9
_journal_year 2021
_journal_page_first 8051
_journal_name_full 'J.Mater.Chem.C '
loop_
_publ_author_name
"R.Scatena"
"M.Andrzejewski"
"R.D.Johnson"
"P.Macchi"
_chemical_name_systematic
;
catena-(dimethylammonium tris(\m~2~-formato)-copper(ii))
;
_cell_volume    808.484
_exptl_crystal_colour 'light blue'
_exptl_crystal_density_diffrn 2.01
_exptl_special_details
;
I2/a polymorph (alpha)

;
_exptl_crystal_description 'plate'
_diffrn_ambient_temperature 294
_diffrn_ambient_pressure 2230000.0
#These two values have been output from a single CSD field.
_refine_ls_R_factor_gt 0.0335
_refine_ls_wR_factor_gt 0.0335
_symmetry_cell_setting monoclinic
_symmetry_space_group_name_H-M 'I 2/a'
_symmetry_Int_Tables_number 15
loop_
_symmetry_equiv_pos_site_id
_symmetry_equiv_pos_as_xyz
1 x,y,z
2 1/2-x,y,-z
3 1/2+x,1/2+y,1/2+z
4 -x,1/2+y,1/2-z
5 -x,-y,-z
6 -1/2+x,-y,z
7 -1/2-x,-1/2-y,-1/2-z
8 x,-1/2-y,-1/2+z
_cell_length_a 8.5019(14)
_cell_length_b 8.5043(10)
_cell_length_c 11.2256(4)
_cell_angle_alpha 90
_cell_angle_beta 95.055(7)
_cell_angle_gamma 90
_cell_formula_units_Z 4
loop_
_atom_type_symbol
_atom_type_radius_bond
C 0.68
H 0.23
Cu 1.32
N 0.68
O 0.68
loop_
_atom_site_label
_atom_site_type_symbol
_atom_site_fract_x
_atom_site_fract_y
_atom_site_fract_z
Cu1 Cu 0.75000 0.75000 0.75000
O1 O 0.7570(8) 0.8627(7) 0.5984(4)
O2 O 0.3669(8) 0.4744(7) 0.6744(4)
O3 O 0.5438(8) 0.6631(8) 0.6879(4)
C1 C 0.75000 0.7927(14) 0.50000
H1 H 0.75000 0.68330 0.50000
C2 C 0.4897(12) 0.5348(11) 0.7178(6)
H2 H 0.54750 0.47970 0.77850
N1 N 0.25000 0.6898(12) 0.50000
H3 H 0.30350 0.62800 0.55330
C3 C 0.3618(14) 0.7828(11) 0.4390(7)
H4 H 0.30530 0.85250 0.38320
H5 H 0.42740 0.71420 0.39690
H6 H 0.42650 0.84320 0.49660
H7? H 0.30350 0.62800 0.55330
O1A O 0.7430(8) 0.8627(7) 0.4016(4)
O2C O 0.6331(8) 0.9744(7) 0.8256(4)
O3C O 0.4562(8) 1.1631(8) 0.8121(4)
C2C C 0.5103(12) 1.0348(11) 0.7822(6)
H2C H 0.45250 0.97970 0.72150
Cu1A Cu 0.75000 0.75000 0.25000
Cu1C Cu 0.25000 0.25000 0.75000
Cu1C* Cu 0.25000 1.25000 0.75000
O1F O 0.7430(8) 0.6373(7) 0.9016(4)
O2E O 0.8669(8) 0.5256(7) 0.6744(4)
O3F O 0.9562(8) 0.8369(8) 0.8121(4)
H3A H 0.19650 0.62800 0.44670
C3A C 0.1382(14) 0.7828(11) 0.5610(7)
H4A H 0.19470 0.85250 0.61680
H5A H 0.07260 0.71420 0.60310
H6A H 0.07350 0.84320 0.50340
#END
