
#######################################################################
#
#                 Cambridge Crystallographic Data Centre
#                                CCDC
#
#######################################################################
#
# If this CIF has been generated from an entry in the Cambridge
# Structural Database, then it will include bibliographic, chemical,
# crystal, experimental, refinement or atomic coordinate data resulting
# from the CCDC's data processing and validation procedures.
#
#######################################################################

data_CSD_CIF_MACUFR22
_audit_creation_date 2021-06-14
_audit_creation_method CSD-ConQuest-V1
_database_code_CSD MACUFR22
_database_code_depnum_ccdc_archive 'CCDC 2067545'
_chemical_formula_sum 'C5 H11 Cu1 N1 O6'
_chemical_formula_moiety
;
(C3 H3 Cu1 O6 1-)n,C2 H8 N1 1+
;
_journal_coden_Cambridge 1695
_journal_volume 9
_journal_year 2021
_journal_page_first 8051
_journal_name_full 'J.Mater.Chem.C '
loop_
_publ_author_name
"R.Scatena"
"M.Andrzejewski"
"R.D.Johnson"
"P.Macchi"
_chemical_name_systematic
;
catena-(dimethylammonium tris(\m~2~-formato)-copper(ii))
;
_cell_volume    872.933
_exptl_crystal_colour 'blue'
_exptl_crystal_density_diffrn 1.862
_exptl_special_details
;
I2/a polymorph (alpha)

;
_exptl_crystal_description 'prism'
_diffrn_ambient_temperature 298.1
#These two values have been output from a single CSD field.
_refine_ls_R_factor_gt 0.0236
_refine_ls_wR_factor_gt 0.0236
_symmetry_cell_setting monoclinic
_symmetry_space_group_name_H-M 'I 2/a'
_symmetry_Int_Tables_number 15
loop_
_symmetry_equiv_pos_site_id
_symmetry_equiv_pos_as_xyz
1 x,y,z
2 1/2-x,y,-z
3 1/2+x,1/2+y,1/2+z
4 -x,1/2+y,1/2-z
5 -x,-y,-z
6 -1/2+x,-y,z
7 -1/2-x,-1/2-y,-1/2-z
8 x,-1/2-y,-1/2+z
_cell_length_a 8.8330(4)
_cell_length_b 8.7093(4)
_cell_length_c 11.4145(5)
_cell_angle_alpha 90
_cell_angle_beta 96.224(4)
_cell_angle_gamma 90
_cell_formula_units_Z 4
loop_
_atom_type_symbol
_atom_type_radius_bond
C 0.68
H 0.23
Cu 1.32
N 0.68
O 0.68
loop_
_atom_site_label
_atom_site_type_symbol
_atom_site_fract_x
_atom_site_fract_y
_atom_site_fract_z
Cu1 Cu 0.25000 0.25000 0.75000
O1 O -0.12562(14) -0.01696(14) 0.67759(10)
O2 O 0.05249(13) 0.16134(13) 0.68894(10)
O3 O 0.25617(13) 0.35289(12) 0.59692(9)
C1 C 0.25000 0.2860(3) 0.50000
H1 H 0.25000 0.17920 0.50000
C2 C -0.00327(19) 0.03816(18) 0.72145(14)
H2 H 0.05100 -0.01550 0.78270
N1 N -0.25000 0.1859(3) 0.50000
C3 C -0.1417(3) 0.2787(3) 0.4421(2)
H3 H -0.07370 0.21230 0.40570
H4 H -0.19610 0.34230 0.38300
H5 H -0.08420 0.34230 0.49950
H6 H -0.292(3) 0.132(3) 0.4513(19)
O3A O 0.24383(13) 0.35289(12) 0.40308(9)
O1C O 0.12562(14) 0.48304(14) 0.82241(10)
O2C O -0.05249(13) 0.66134(13) 0.81106(10)
C2C C 0.00327(19) 0.53816(18) 0.77855(14)
H2C H -0.05100 0.48450 0.71730
Cu1A Cu 0.25000 0.25000 0.25000
Cu1C Cu -0.25000 -0.25000 0.75000
Cu1C* Cu -0.25000 0.75000 0.75000
O1E O 0.37438(14) 0.01696(14) 0.67759(10)
O2F O 0.44751(13) 0.33866(13) 0.81106(10)
O3F O 0.24383(13) 0.14711(12) 0.90308(9)
C3A C -0.3583(3) 0.2787(3) 0.5579(2)
H3A H -0.42630 0.21230 0.59430
H4A H -0.30390 0.34230 0.61700
H5A H -0.41580 0.34230 0.50050
H6A H -0.208(3) 0.132(3) 0.5487(19)
#END
