
#######################################################################
#
#                 Cambridge Crystallographic Data Centre
#                                CCDC
#
#######################################################################
#
# If this CIF has been generated from an entry in the Cambridge
# Structural Database, then it will include bibliographic, chemical,
# crystal, experimental, refinement or atomic coordinate data resulting
# from the CCDC's data processing and validation procedures.
#
#######################################################################

data_CSD_CIF_MACUFR25
_audit_creation_date 2021-06-14
_audit_creation_method CSD-ConQuest-V1
_database_code_CSD MACUFR25
_database_code_depnum_ccdc_archive 'CCDC 2067548'
_chemical_formula_sum 'C5 H11 Cu1 N1 O6'
_chemical_formula_moiety
;
(C3 H3 Cu1 O6 1-)n,C2 H8 N1 1+
;
_journal_coden_Cambridge 1695
_journal_volume 9
_journal_year 2021
_journal_page_first 8051
_journal_name_full 'J.Mater.Chem.C '
loop_
_publ_author_name
"R.Scatena"
"M.Andrzejewski"
"R.D.Johnson"
"P.Macchi"
_chemical_name_systematic
;
catena-(dimethylammonium tris(\m~2~-formato)-copper(ii))
;
_cell_volume    781.625
_exptl_crystal_colour 'light blue'
_exptl_crystal_density_diffrn 2.079
_exptl_special_details
;
I2/a polymorph (alpha)

;
_exptl_crystal_description 'plate'
_diffrn_ambient_temperature 293
_diffrn_ambient_pressure 3400000.0
#These two values have been output from a single CSD field.
_refine_ls_R_factor_gt 0.0434
_refine_ls_wR_factor_gt 0.0434
_symmetry_cell_setting monoclinic
_symmetry_space_group_name_H-M 'I 2/a'
_symmetry_Int_Tables_number 15
loop_
_symmetry_equiv_pos_site_id
_symmetry_equiv_pos_as_xyz
1 x,y,z
2 1/2-x,y,-z
3 1/2+x,1/2+y,1/2+z
4 -x,1/2+y,1/2-z
5 -x,-y,-z
6 -1/2+x,-y,z
7 -1/2-x,-1/2-y,-1/2-z
8 x,-1/2-y,-1/2+z
_cell_length_a 8.323(3)
_cell_length_b 8.4733(14)
_cell_length_c 11.1183(7)
_cell_angle_alpha 90
_cell_angle_beta 94.553(12)
_cell_angle_gamma 90
_cell_formula_units_Z 4
loop_
_atom_type_symbol
_atom_type_radius_bond
C 0.68
H 0.23
Cu 1.32
N 0.68
O 0.68
loop_
_atom_site_label
_atom_site_type_symbol
_atom_site_fract_x
_atom_site_fract_y
_atom_site_fract_z
Cu1 Cu 0.75000 0.75000 0.75000
O1 O 0.3624(12) 0.4710(8) 0.6716(5)
O2 O 0.7579(11) 0.8680(7) 0.5995(4)
C1 C 0.75000 0.7959(17) 0.50000
H1 H 0.75000 0.68620 0.50000
O3 O 0.5398(12) 0.6658(9) 0.6862(5)
C2 C 0.4902(17) 0.5329(12) 0.7175(8)
H2 H 0.55090 0.47780 0.77750
N1 N 0.25000 0.6913(15) 0.50000
H3 H 0.30560 0.62920 0.55280
C3 C 0.363(2) 0.7833(11) 0.4360(8)
H4 H 0.30510 0.84410 0.37390
H5 H 0.43670 0.71370 0.40030
H6 H 0.42190 0.85300 0.49150
H7? H 0.30560 0.62920 0.55280
O2A O 0.7421(11) 0.8680(7) 0.4005(4)
O1C O 0.6376(12) 0.9710(8) 0.8284(5)
O3C O 0.4602(12) 1.1658(9) 0.8138(5)
C2C C 0.5098(17) 1.0329(12) 0.7825(8)
H2C H 0.44910 0.97780 0.72250
Cu1A Cu 0.75000 0.75000 0.25000
Cu1C Cu 0.25000 0.25000 0.75000
Cu1C* Cu 0.25000 1.25000 0.75000
O1E O 0.8624(12) 0.5290(8) 0.6716(5)
O2F O 0.7421(11) 0.6320(7) 0.9005(4)
O3F O 0.9602(12) 0.8342(9) 0.8138(5)
H3A H 0.19440 0.62920 0.44720
C3A C 0.137(2) 0.7833(11) 0.5640(8)
H4A H 0.19490 0.84410 0.62610
H5A H 0.06330 0.71370 0.59970
H6A H 0.07810 0.85300 0.50850
#END
