
#######################################################################
#
#                 Cambridge Crystallographic Data Centre
#                                CCDC
#
#######################################################################
#
# If this CIF has been generated from an entry in the Cambridge
# Structural Database, then it will include bibliographic, chemical,
# crystal, experimental, refinement or atomic coordinate data resulting
# from the CCDC's data processing and validation procedures.
#
#######################################################################

data_CSD_CIF_MACUFR23
_audit_creation_date 2021-06-14
_audit_creation_method CSD-ConQuest-V1
_database_code_CSD MACUFR23
_database_code_depnum_ccdc_archive 'CCDC 2067546'
_chemical_formula_sum 'C5 H11 Cu1 N1 O6'
_chemical_formula_moiety
;
(C3 H3 Cu1 O6 1-)n,C2 H8 N1 1+
;
_journal_coden_Cambridge 1695
_journal_volume 9
_journal_year 2021
_journal_page_first 8051
_journal_name_full 'J.Mater.Chem.C '
loop_
_publ_author_name
"R.Scatena"
"M.Andrzejewski"
"R.D.Johnson"
"P.Macchi"
_chemical_name_systematic
;
catena-(dimethylammonium tris(\m~2~-formato)-copper(ii))
;
_cell_volume    842.049
_exptl_crystal_colour 'light blue'
_exptl_crystal_density_diffrn 1.93
_exptl_special_details
;
I2/a polymorph (alpha)

;
_exptl_crystal_description 'plate'
_diffrn_ambient_temperature 294
_diffrn_ambient_pressure 1000000.0
#These two values have been output from a single CSD field.
_refine_ls_R_factor_gt 0.0339
_refine_ls_wR_factor_gt 0.0339
_symmetry_cell_setting monoclinic
_symmetry_space_group_name_H-M 'I 2/a'
_symmetry_Int_Tables_number 15
loop_
_symmetry_equiv_pos_site_id
_symmetry_equiv_pos_as_xyz
1 x,y,z
2 1/2-x,y,-z
3 1/2+x,1/2+y,1/2+z
4 -x,1/2+y,1/2-z
5 -x,-y,-z
6 -1/2+x,-y,z
7 -1/2-x,-1/2-y,-1/2-z
8 x,-1/2-y,-1/2+z
_cell_length_a 8.6895(13)
_cell_length_b 8.5925(10)
_cell_length_c 11.3323(4)
_cell_angle_alpha 90
_cell_angle_beta 95.623(7)
_cell_angle_gamma 90
_cell_formula_units_Z 4
loop_
_atom_type_symbol
_atom_type_radius_bond
C 0.68
H 0.23
Cu 1.32
N 0.68
O 0.68
loop_
_atom_site_label
_atom_site_type_symbol
_atom_site_fract_x
_atom_site_fract_y
_atom_site_fract_z
Cu1 Cu 0.75000 0.75000 0.75000
O1 O 0.7564(7) 0.8570(7) 0.5974(3)
O2 O 0.3709(9) 0.4781(7) 0.6758(4)
O3 O 0.5495(8) 0.6632(8) 0.6893(4)
C1 C 0.75000 0.7895(14) 0.50000
H1 H 0.75000 0.68130 0.50000
C2 C 0.4941(12) 0.5368(11) 0.7191(6)
H2 H 0.55040 0.48140 0.77920
N1 N 0.25000 0.6859(12) 0.50000
H3 H 0.19830 0.62490 0.44650
C3 C 0.3605(14) 0.7798(10) 0.4412(7)
H4 H 0.30640 0.83840 0.37800
H5 H 0.43460 0.71270 0.40950
H6 H 0.41310 0.84990 0.49760
H7? H 0.19830 0.62490 0.44650
O1A O 0.7436(7) 0.8570(7) 0.4026(3)
O2C O 0.6291(9) 0.9781(7) 0.8242(4)
O3C O 0.4505(8) 1.1632(8) 0.8107(4)
C2C C 0.5059(12) 1.0368(11) 0.7809(6)
H2C H 0.44960 0.98140 0.72080
Cu1A Cu 0.75000 0.75000 0.25000
Cu1C Cu 0.25000 0.25000 0.75000
Cu1C* Cu 0.25000 1.25000 0.75000
O1F O 0.7436(7) 0.6430(7) 0.9026(3)
O2E O 0.8709(9) 0.5219(7) 0.6758(4)
O3F O 0.9505(8) 0.8368(8) 0.8107(4)
H3A H 0.30170 0.62490 0.55350
C3A C 0.1395(14) 0.7798(10) 0.5588(7)
H4A H 0.19360 0.83840 0.62200
H5A H 0.06540 0.71270 0.59050
H6A H 0.08690 0.84990 0.50240
#END
