
#######################################################################
#
#                 Cambridge Crystallographic Data Centre
#                                CCDC
#
#######################################################################
#
# If this CIF has been generated from an entry in the Cambridge
# Structural Database, then it will include bibliographic, chemical,
# crystal, experimental, refinement or atomic coordinate data resulting
# from the CCDC's data processing and validation procedures.
#
#######################################################################

data_CSD_CIF_MACUFR07
_audit_creation_date 2018-06-05
_audit_creation_method CSD-ConQuest-V1
_database_code_CSD MACUFR07
_database_code_depnum_ccdc_archive 'CCDC 1837743'
_chemical_formula_sum 'C5 H11 Cu1 N1 O6'
_chemical_formula_moiety
;
(C3 H3 Cu1 O6 1-)n,C2 H8 N1 1+
;
_journal_coden_Cambridge 1350
_journal_volume 20
_journal_year 2018
_journal_page_first 3512
_journal_name_full 'CrystEngComm '
loop_
_publ_author_name
"I.E.Collings"
"M.Bykov"
"E.Bykova"
"M.Hanfland"
"S.van Smaalen"
"L.Dubrovinsky"
"N.Dubrovinskaia"
_chemical_name_systematic
;
catena-[dimethylammonium tris(\m-formato)-copper(ii)]
;
_cell_volume    751.633
_exptl_crystal_colour 'blue'
_exptl_crystal_density_diffrn 2.162
_exptl_special_details
;
I2/a polymorph

;
_exptl_crystal_description 'block'
_diffrn_ambient_temperature 293
_diffrn_ambient_pressure 5320000.0
_diffrn_radiation_probe x-ray
_diffrn_source synchrotron
#These two values have been output from a single CSD field.
_refine_ls_R_factor_gt 0.0442
_refine_ls_wR_factor_gt 0.0442
_symmetry_cell_setting monoclinic
_symmetry_space_group_name_H-M 'I 2/a'
_symmetry_Int_Tables_number 15
loop_
_symmetry_equiv_pos_site_id
_symmetry_equiv_pos_as_xyz
1 x,y,z
2 1/2-x,y,-z
3 1/2+x,1/2+y,1/2+z
4 -x,1/2+y,1/2-z
5 -x,-y,-z
6 -1/2+x,-y,z
7 -1/2-x,-1/2-y,-1/2-z
8 x,-1/2-y,-1/2+z
_cell_length_a 10.9738(6)
_cell_length_b 8.4692(11)
_cell_length_c 8.1090(9)
_cell_angle_alpha 90
_cell_angle_beta 94.187(7)
_cell_angle_gamma 90
_cell_formula_units_Z 4
loop_
_atom_type_symbol
_atom_type_radius_bond
C 0.68
H 0.23
Cu 1.32
N 0.68
O 0.68
loop_
_atom_site_label
_atom_site_type_symbol
_atom_site_fract_x
_atom_site_fract_y
_atom_site_fract_z
Cu1 Cu 0.50000 0.50000 0.50000
O1 O 0.3501(3) 0.6218(5) 0.5072(5)
O2 O 0.4159(3) 0.2171(5) 0.1117(6)
O3 O 0.4344(3) 0.4152(5) 0.2867(6)
C1 C 0.25000 0.5522(8) 0.50000
H1 H 0.25000 0.44241 0.50000
C2 C 0.4627(4) 0.2820(6) 0.2383(7)
H2 H 0.52294 0.22705 0.30116
N1 N 0.25000 0.4456(10) 0.00000
H3 H 0.193(5) 0.357(9) -0.045(10)
C3 C 0.1811(6) 0.5377(9) 0.1085(10)
H4 H 0.13737 0.46870 0.17721
H5 H 0.23555 0.60312 0.17664
H6 H 0.12409 0.60312 0.04421
O1A O 0.1499(3) 0.6218(5) 0.4928(5)
O2C O 0.5841(3) 0.7171(5) 0.3883(6)
O3C O 0.5656(3) 0.9152(5) 0.2133(6)
C2C C 0.5373(4) 0.7820(6) 0.2617(7)
H2C H 0.47706 0.72705 0.19884
Cu1A Cu 0.00000 0.50000 0.50000
Cu1C Cu 0.50000 0.00000 0.00000
Cu1C* Cu 0.50000 1.00000 0.00000
O1D O 0.6499(3) 0.3782(5) 0.4928(5)
O2G O 0.4159(3) 0.2829(5) 0.6117(6)
O3D O 0.5656(3) 0.5848(5) 0.7133(6)
H3A H 0.307(5) 0.357(9) 0.045(10)
C3A C 0.3189(6) 0.5377(9) -0.1085(10)
H4A H 0.36263 0.46870 -0.17721
H5A H 0.26445 0.60312 -0.17664
H6A H 0.37591 0.60312 -0.04421
#END
