
#######################################################################
#
#                 Cambridge Crystallographic Data Centre
#                                CCDC
#
#######################################################################
#
# If this CIF has been generated from an entry in the Cambridge
# Structural Database, then it will include bibliographic, chemical,
# crystal, experimental, refinement or atomic coordinate data resulting
# from the CCDC's data processing and validation procedures.
#
#######################################################################

data_CSD_CIF_MACUFR08
_audit_creation_date 2018-06-05
_audit_creation_method CSD-ConQuest-V1
_database_code_CSD MACUFR08
_database_code_depnum_ccdc_archive 'CCDC 1837735'
_chemical_formula_sum 'C5 H11 Cu1 N1 O6'
_chemical_formula_moiety
;
(C3 H3 Cu1 O6 1-)n,C2 H8 N1 1+
;
_journal_coden_Cambridge 1350
_journal_volume 20
_journal_year 2018
_journal_page_first 3512
_journal_name_full 'CrystEngComm '
loop_
_publ_author_name
"I.E.Collings"
"M.Bykov"
"E.Bykova"
"M.Hanfland"
"S.van Smaalen"
"L.Dubrovinsky"
"N.Dubrovinskaia"
_chemical_name_systematic
;
catena-[dimethylammonium tris(\m-formato)-copper(ii)]
;
_cell_volume    880.786
_exptl_crystal_colour 'blue'
_exptl_crystal_density_diffrn 1.845
_exptl_special_details
;
I2/a polymorph

;
_exptl_crystal_description 'block'
_diffrn_ambient_temperature 293
_diffrn_radiation_probe x-ray
_diffrn_source synchrotron
#These two values have been output from a single CSD field.
_refine_ls_R_factor_gt 0.0442
_refine_ls_wR_factor_gt 0.0442
_symmetry_cell_setting monoclinic
_symmetry_space_group_name_H-M 'I 2/a'
_symmetry_Int_Tables_number 15
loop_
_symmetry_equiv_pos_site_id
_symmetry_equiv_pos_as_xyz
1 x,y,z
2 1/2-x,y,-z
3 1/2+x,1/2+y,1/2+z
4 -x,1/2+y,1/2-z
5 -x,-y,-z
6 -1/2+x,-y,z
7 -1/2-x,-1/2-y,-1/2-z
8 x,-1/2-y,-1/2+z
_cell_length_a 11.4292(9)
_cell_length_b 8.7331(16)
_cell_length_c 8.8760(14)
_cell_angle_alpha 90
_cell_angle_beta 96.18(1)
_cell_angle_gamma 90
_cell_formula_units_Z 4
loop_
_atom_type_symbol
_atom_type_radius_bond
C 0.68
H 0.23
Cu 1.32
N 0.68
O 0.68
loop_
_atom_site_label
_atom_site_type_symbol
_atom_site_fract_x
_atom_site_fract_y
_atom_site_fract_z
Cu1 Cu 0.50000 0.50000 0.50000
O1 O 0.3469(2) 0.6033(4) 0.5059(4)
O2 O 0.4275(3) 0.2329(4) 0.1246(4)
O3 O 0.4393(3) 0.4114(4) 0.3023(4)
C1 C 0.25000 0.5353(8) 0.50000
H1 H 0.25000 0.42880 0.50000
C2 C 0.4711(4) 0.2884(6) 0.2473(6)
H2 H 0.53162 0.23438 0.30196
N1 N 0.25000 0.4361(8) 0.00000
H3 H 0.192(4) 0.372(7) -0.056(7)
C3 C 0.1919(6) 0.5284(7) 0.1081(8)
H4 H 0.15553 0.46201 0.17565
H5 H 0.24907 0.59184 0.16542
H6 H 0.13290 0.59184 0.05403
O1A O 0.1531(2) 0.6033(4) 0.4941(4)
O2C O 0.5725(3) 0.7329(4) 0.3754(4)
O3C O 0.5607(3) 0.9114(4) 0.1977(4)
C2C C 0.5289(4) 0.7884(6) 0.2527(6)
H2C H 0.46838 0.73438 0.19804
Cu1A Cu 0.00000 0.50000 0.50000
Cu1C Cu 0.50000 0.00000 0.00000
Cu1C* Cu 0.50000 1.00000 0.00000
O1D O 0.6531(2) 0.3967(4) 0.4941(4)
O2G O 0.4275(3) 0.2671(4) 0.6246(4)
O3D O 0.5607(3) 0.5886(4) 0.6977(4)
H3A H 0.308(4) 0.372(7) 0.056(7)
C3A C 0.3081(6) 0.5284(7) -0.1081(8)
H4A H 0.34447 0.46201 -0.17565
H5A H 0.25093 0.59184 -0.16542
H6A H 0.36710 0.59184 -0.05403
#END
