
#######################################################################
#
#                 Cambridge Crystallographic Data Centre
#                                CCDC
#
#######################################################################
#
# If this CIF has been generated from an entry in the Cambridge
# Structural Database, then it will include bibliographic, chemical,
# crystal, experimental, refinement or atomic coordinate data resulting
# from the CCDC's data processing and validation procedures.
#
#######################################################################

data_CSD_CIF_MACUFR20
_audit_creation_date 2019-04-30
_audit_creation_method CSD-ConQuest-V1
_database_code_CSD MACUFR20
_database_code_depnum_ccdc_archive 'CCDC 1822448'
_chemical_formula_sum 'C5 H11 Cu1 N1 O6'
_chemical_formula_moiety
;
(C3 H3 Cu1 O6 1-)n,C2 H8 N1 1+
;
_journal_coden_Cambridge 119
_journal_volume 1189
_journal_year 2019
_journal_page_first 210
_journal_name_full 'J.Mol.Struct. '
loop_
_publ_author_name
"R.Colorado-Peralta"
"R.Pena-Rodriguez"
"M.A.Leyva-Ramirez"
"A.Flores-Parra"
"M.Sanchez"
"I.Hernandez-Ahuactzi"
"L.E.Chinas"
"D.J.Ramirez"
"J.M.Rivera"
_chemical_name_systematic
;
catena-[dimethylammonium tris(\m-formato)-copper(ii)]
;
_cell_volume    878.763
_exptl_crystal_colour 'green'
_exptl_crystal_density_diffrn 1.849
_exptl_crystal_description 'block'
_diffrn_ambient_temperature 130
#These two values have been output from a single CSD field.
_refine_ls_R_factor_gt 0.0226
_refine_ls_wR_factor_gt 0.0226
_symmetry_cell_setting monoclinic
_symmetry_space_group_name_H-M 'C 2/c'
_symmetry_Int_Tables_number 15
loop_
_symmetry_equiv_pos_site_id
_symmetry_equiv_pos_as_xyz
1 x,y,z
2 -x,y,1/2-z
3 1/2+x,1/2+y,z
4 1/2-x,1/2+y,1/2-z
5 -x,-y,-z
6 x,-y,-1/2+z
7 -1/2-x,-1/2-y,-z
8 -1/2+x,-1/2-y,-1/2+z
_cell_length_a 13.6663(17)
_cell_length_b 8.7307(12)
_cell_length_c 8.8613(9)
_cell_angle_alpha 90
_cell_angle_beta 123.784(4)
_cell_angle_gamma 90
_cell_formula_units_Z 4
loop_
_atom_type_symbol
_atom_type_radius_bond
C 0.68
H 0.23
Cu 1.32
N 0.68
O 0.68
loop_
_atom_site_label
_atom_site_type_symbol
_atom_site_fract_x
_atom_site_fract_y
_atom_site_fract_z
C1 C 0.00000 0.7145(4) 0.25000
C2 C 0.2786(2) 0.5380(3) 0.2755(3)
Cu1 Cu 0.25000 0.75000 0.50000
O1 O 0.31099(14) 0.66130(19) 0.3638(2)
O2 O 0.09687(13) 0.64713(17) 0.3410(2)
O3 O 0.32235(14) 0.48315(19) 0.1965(2)
H1 H 0.00000 0.827(5) 0.25000
H2 H 0.212(2) 0.479(3) 0.267(4)
C3 C 0.4421(4) 0.2213(4) 0.5834(5)
N1 N 0.50000 0.3147(4) 0.75000
H3 H 0.450(3) 0.374(3) 0.752(4)
H4 H 0.500(2) 0.154(3) 0.587(4)
H5 H 0.393(3) 0.170(4) 0.580(5)
H6 H 0.411(3) 0.285(4) 0.506(5)
O2A O -0.09687(13) 0.64713(17) 0.1590(2)
C2F C 0.2214(2) 0.9620(3) 0.7245(3)
O1F O 0.18901(14) 0.83870(19) 0.6362(2)
O3F O 0.17765(14) 1.01685(19) 0.8035(2)
H2F H 0.288(2) 1.021(3) 0.733(4)
Cu1A Cu -0.25000 0.75000 0.00000
Cu1C Cu 0.25000 0.25000 0.00000
Cu1C* Cu 0.25000 1.25000 1.00000
O2F O 0.40313(13) 0.85287(17) 0.6590(2)
O3C O 0.17765(14) 0.98315(19) 0.3035(2)
O3E O 0.32235(14) 0.51685(19) 0.6965(2)
C3A C 0.5579(4) 0.2213(4) 0.9166(5)
H3A H 0.550(3) 0.374(3) 0.748(4)
H4A H 0.500(2) 0.154(3) 0.913(4)
H5A H 0.607(3) 0.170(4) 0.920(5)
H6A H 0.589(3) 0.285(4) 0.994(5)
#END
