
#######################################################################
#
#                 Cambridge Crystallographic Data Centre
#                                CCDC
#
#######################################################################
#
# If this CIF has been generated from an entry in the Cambridge
# Structural Database, then it will include bibliographic, chemical,
# crystal, experimental, refinement or atomic coordinate data resulting
# from the CCDC's data processing and validation procedures.
#
#######################################################################

data_CSD_CIF_MACUFR13
_audit_creation_date 2018-06-05
_audit_creation_method CSD-ConQuest-V1
_database_code_CSD MACUFR13
_database_code_depnum_ccdc_archive 'CCDC 1837740'
_chemical_formula_sum 'C5 H11 Cu1 N1 O6'
_chemical_formula_moiety
;
(C3 H3 Cu1 O6 1-)n,C2 H8 N1 1+
;
_journal_coden_Cambridge 1350
_journal_volume 20
_journal_year 2018
_journal_page_first 3512
_journal_name_full 'CrystEngComm '
loop_
_publ_author_name
"I.E.Collings"
"M.Bykov"
"E.Bykova"
"M.Hanfland"
"S.van Smaalen"
"L.Dubrovinsky"
"N.Dubrovinskaia"
_chemical_name_systematic
;
catena-[dimethylammonium tris(\m-formato)-copper(ii)]
;
_cell_volume    805.766
_exptl_crystal_colour 'blue'
_exptl_crystal_density_diffrn 2.017
_exptl_crystal_description 'block'
_diffrn_ambient_temperature 293
_diffrn_ambient_pressure 2400000.0
_diffrn_radiation_probe x-ray
_diffrn_source synchrotron
#These two values have been output from a single CSD field.
_refine_ls_R_factor_gt 0.0401
_refine_ls_wR_factor_gt 0.0401
_symmetry_cell_setting monoclinic
_symmetry_space_group_name_H-M 'I 2/a'
_symmetry_Int_Tables_number 15
loop_
_symmetry_equiv_pos_site_id
_symmetry_equiv_pos_as_xyz
1 x,y,z
2 1/2-x,y,-z
3 1/2+x,1/2+y,1/2+z
4 -x,1/2+y,1/2-z
5 -x,-y,-z
6 -1/2+x,-y,z
7 -1/2-x,-1/2-y,-1/2-z
8 x,-1/2-y,-1/2+z
_cell_length_a 11.22268(13)
_cell_length_b 8.4953(3)
_cell_length_c 8.4836(2)
_cell_angle_alpha 90
_cell_angle_beta 94.9859(18)
_cell_angle_gamma 90
_cell_formula_units_Z 4
loop_
_atom_type_symbol
_atom_type_radius_bond
C 0.68
H 0.23
Cu 1.32
N 0.68
O 0.68
loop_
_atom_site_label
_atom_site_type_symbol
_atom_site_fract_x
_atom_site_fract_y
_atom_site_fract_z
Cu1 Cu 0.50000 0.50000 0.50000
O1 O 0.3484(2) 0.6133(4) 0.5076(4)
O2 O 0.4233(3) 0.2245(4) 0.1168(4)
O3 O 0.4376(3) 0.4142(5) 0.2932(4)
C1 C 0.25000 0.5439(8) 0.50000
H1 H 0.25000 0.43439 0.50000
C2 C 0.4677(4) 0.2845(6) 0.2410(6)
H2 H 0.52780 0.22897 0.29946
N1 N 0.25000 0.4407(9) 0.00000
H3 H 0.196(5) 0.371(7) -0.055(8)
C3 C 0.1887(5) 0.5334(7) 0.1102(7)
H4 H 0.15000 0.46471 0.17978
H5 H 0.24534 0.59861 0.17122
H6 H 0.12987 0.59861 0.05311
O1A O 0.1516(2) 0.6133(4) 0.4924(4)
O2C O 0.5767(3) 0.7245(4) 0.3832(4)
O3C O 0.5624(3) 0.9142(5) 0.2068(4)
C2C C 0.5323(4) 0.7845(6) 0.2590(6)
H2C H 0.47220 0.72897 0.20054
Cu1A Cu 0.00000 0.50000 0.50000
Cu1C Cu 0.50000 0.00000 0.00000
Cu1C* Cu 0.50000 1.00000 0.00000
O1D O 0.6516(2) 0.3867(4) 0.4924(4)
O2G O 0.4233(3) 0.2755(4) 0.6168(4)
O3D O 0.5624(3) 0.5858(5) 0.7068(4)
H3A H 0.304(5) 0.371(7) 0.055(8)
C3A C 0.3113(5) 0.5334(7) -0.1102(7)
H4A H 0.35000 0.46471 -0.17978
H5A H 0.25466 0.59861 -0.17122
H6A H 0.37013 0.59861 -0.05311
#END
