
#######################################################################
#
#                 Cambridge Crystallographic Data Centre
#                                CCDC
#
#######################################################################
#
# If this CIF has been generated from an entry in the Cambridge
# Structural Database, then it will include bibliographic, chemical,
# crystal, experimental, refinement or atomic coordinate data resulting
# from the CCDC's data processing and validation procedures.
#
#######################################################################

data_CSD_CIF_MACUFR10
_audit_creation_date 2018-06-05
_audit_creation_method CSD-ConQuest-V1
_database_code_CSD MACUFR10
_database_code_depnum_ccdc_archive 'CCDC 1837737'
_chemical_formula_sum 'C5 H11 Cu1 N1 O6'
_chemical_formula_moiety
;
(C3 H3 Cu1 O6 1-)n,C2 H8 N1 1+
;
_journal_coden_Cambridge 1350
_journal_volume 20
_journal_year 2018
_journal_page_first 3512
_journal_name_full 'CrystEngComm '
loop_
_publ_author_name
"I.E.Collings"
"M.Bykov"
"E.Bykova"
"M.Hanfland"
"S.van Smaalen"
"L.Dubrovinsky"
"N.Dubrovinskaia"
_chemical_name_systematic
;
catena-[dimethylammonium tris(\m-formato)-copper(ii)]
;
_cell_volume    849.711
_exptl_crystal_colour 'blue'
_exptl_crystal_density_diffrn 1.913
_exptl_special_details
;
I2/a polymorph

;
_exptl_crystal_description 'block'
_diffrn_ambient_temperature 293
_diffrn_ambient_pressure 700000.0
_diffrn_radiation_probe x-ray
_diffrn_source synchrotron
#These two values have been output from a single CSD field.
_refine_ls_R_factor_gt 0.033
_refine_ls_wR_factor_gt 0.033
_symmetry_cell_setting monoclinic
_symmetry_space_group_name_H-M 'I 2/a'
_symmetry_Int_Tables_number 15
loop_
_symmetry_equiv_pos_site_id
_symmetry_equiv_pos_as_xyz
1 x,y,z
2 1/2-x,y,-z
3 1/2+x,1/2+y,1/2+z
4 -x,1/2+y,1/2-z
5 -x,-y,-z
6 -1/2+x,-y,z
7 -1/2-x,-1/2-y,-1/2-z
8 x,-1/2-y,-1/2+z
_cell_length_a 11.3613(3)
_cell_length_b 8.6208(5)
_cell_length_c 8.7180(5)
_cell_angle_alpha 90
_cell_angle_beta 95.658(3)
_cell_angle_gamma 90
_cell_formula_units_Z 4
loop_
_atom_type_symbol
_atom_type_radius_bond
C 0.68
H 0.23
Cu 1.32
N 0.68
O 0.68
loop_
_atom_site_label
_atom_site_type_symbol
_atom_site_fract_x
_atom_site_fract_y
_atom_site_fract_z
Cu1 Cu 0.50000 0.50000 0.50000
O1 O 0.34761(17) 0.6072(3) 0.5062(3)
O2 O 0.4262(2) 0.2293(4) 0.1212(4)
O3 O 0.4385(2) 0.4116(3) 0.2990(3)
C1 C 0.25000 0.5385(6) 0.50000
H1 H 0.25000 0.43066 0.50000
C2 C 0.4699(3) 0.2867(5) 0.2433(5)
H2 H 0.53103 0.23251 0.29826
N1 N 0.25000 0.4382(6) 0.00000
H3 H 0.190(4) 0.373(5) -0.043(6)
C3 C 0.1913(4) 0.5311(6) 0.1087(6)
H4 H 0.15412 0.46395 0.17739
H5 H 0.24840 0.59533 0.16698
H6 H 0.13243 0.59533 0.05350
O1A O 0.15239(17) 0.6072(3) 0.4938(3)
O2C O 0.5738(2) 0.7293(4) 0.3788(4)
O3C O 0.5615(2) 0.9116(3) 0.2010(3)
C2C C 0.5301(3) 0.7867(5) 0.2567(5)
H2C H 0.46897 0.73251 0.20174
Cu1A Cu 0.00000 0.50000 0.50000
Cu1C Cu 0.50000 0.00000 0.00000
Cu1C* Cu 0.50000 1.00000 0.00000
O1D O 0.65239(17) 0.3928(3) 0.4938(3)
O2G O 0.4262(2) 0.2707(4) 0.6212(4)
O3D O 0.5615(2) 0.5884(3) 0.7010(3)
H3A H 0.310(4) 0.373(5) 0.043(6)
C3A C 0.3087(4) 0.5311(6) -0.1087(6)
H4A H 0.34588 0.46395 -0.17739
H5A H 0.25160 0.59533 -0.16698
H6A H 0.36757 0.59533 -0.05350
#END
