
#######################################################################
#
#                 Cambridge Crystallographic Data Centre
#                                CCDC
#
#######################################################################
#
# If this CIF has been generated from an entry in the Cambridge
# Structural Database, then it will include bibliographic, chemical,
# crystal, experimental, refinement or atomic coordinate data resulting
# from the CCDC's data processing and validation procedures.
#
#######################################################################

data_CSD_CIF_MAFZIE
_audit_creation_date 2011-03-31
_audit_creation_method CSD-ConQuest-V1
_database_code_CSD MAFZIE
_database_code_depnum_ccdc_archive 'CCDC 751707'
_chemical_formula_sum 'C22 H33 N1 O19 P2 Zn3'
_chemical_formula_moiety
;
(C16 H8 O15 P2 Zn3 2-)n,n(C6 H16 N1 1+),3n(H2 O1),n(H3 O1 1+)
;
_journal_coden_Cambridge 222
_journal_volume 39
_journal_year 2010
_journal_page_first 10712
_journal_name_full 'Dalton Trans. '
loop_
_publ_author_name
"Yun Ling"
"Tengbiao Liao"
"Zhenxia Chen"
"Yaming Zhou"
"Linhong Weng"
_chemical_name_systematic
;
catena-(triethylammonium oxonium 
(\m~6~-5-phosphonobenzene-1,3-dicarboxylato)-(\m~5~-5-phosphonobenzene-1,3-dic
arboxylato)-aqua-tri-zinc(ii) trihydrate)
;
_cell_volume   8452.616
_exptl_crystal_colour 'colorless'
_exptl_crystal_density_diffrn 1.354
_exptl_crystal_description 'rod'
_diffrn_ambient_temperature 293
_refine_special_details
;
O16 and O17 disordered over two sites with occupancies 0.60:0.40; O19 and O22 
disordered over two sites with occupancies 0.50:0.50.
;
#These two values have been output from a single CSD field.
_refine_ls_R_factor_gt 0.0596
_refine_ls_wR_factor_gt 0.0596
_symmetry_cell_setting orthorhombic
_symmetry_space_group_name_H-M 'P b c a'
_symmetry_Int_Tables_number 61
loop_
_symmetry_equiv_pos_site_id
_symmetry_equiv_pos_as_xyz
1 x,y,z
2 1/2-x,-y,1/2+z
3 1/2+x,1/2-y,-z
4 -x,1/2+y,1/2-z
5 -x,-y,-z
6 -1/2+x,y,-1/2-z
7 -1/2-x,-1/2+y,z
8 x,-1/2-y,-1/2+z
_cell_length_a 13.707(5)
_cell_length_b 17.121(7)
_cell_length_c 36.018(14)
_cell_angle_alpha 90
_cell_angle_beta 90
_cell_angle_gamma 90
_cell_formula_units_Z 8
loop_
_atom_type_symbol
_atom_type_radius_bond
C 0.68
H 0.23
N 0.68
O 0.68
P 1.05
Zn 1.22
loop_
_atom_site_label
_atom_site_type_symbol
_atom_site_fract_x
_atom_site_fract_y
_atom_site_fract_z
C1 C 1.1821(6) 0.6176(5) 0.8218(2)
C2 C 1.1889(6) 0.6409(5) 0.7850(2)
H1 H 1.15060 0.68230 0.77690
C3 C 1.2506(7) 0.6047(5) 0.7602(2)
C4 C 1.3105(6) 0.5449(5) 0.7728(2)
H2 H 1.35340 0.52060 0.75640
C5 C 1.3068(6) 0.5211(5) 0.8094(2)
C6 C 1.2415(6) 0.5576(5) 0.8337(2)
H3 H 1.23800 0.54120 0.85830
C7 C 1.2548(8) 0.6318(6) 0.7203(3)
C8 C 1.3690(7) 0.4544(5) 0.8222(3)
C9 C 0.7819(6) 0.8369(4) 0.9208(2)
C10 C 0.7446(6) 0.8103(5) 0.9550(2)
H4 H 0.76920 0.76490 0.96560
C11 C 0.6705(7) 0.8522(5) 0.9729(2)
C12 C 0.6350(7) 0.9199(5) 0.9570(2)
H5 H 0.58570 0.94770 0.96880
C13 C 0.6719(6) 0.9471(5) 0.9235(2)
C14 C 0.7446(6) 0.9055(4) 0.9060(2)
H6 H 0.76940 0.92390 0.88360
C15 C 0.6299(7) 0.8250(5) 1.0096(3)
C16 C 0.6343(7) 1.0213(5) 0.9078(3)
O1 O 0.9992(4) 0.6527(4) 0.83596(18)
O2 O 1.1264(5) 0.7521(4) 0.8485(2)
O3 O 1.1117(5) 0.6362(4) 0.89004(17)
O4 O 1.1976(7) 0.6808(6) 0.7104(2)
O5 O 1.3185(5) 0.6013(4) 0.70031(17)
O6 O 1.4215(7) 0.4200(5) 0.8007(2)
O7 O 1.3627(5) 0.4369(4) 0.85633(18)
O8 O 0.8183(4) 0.7273(3) 0.87134(16)
O9 O 0.9347(4) 0.7382(3) 0.92541(16)
O10 O 0.9349(4) 0.8407(3) 0.87547(17)
O11 O 0.6595(6) 0.7629(4) 1.0231(2)
O12 O 0.5679(5) 0.8677(4) 1.02381(16)
O13 O 0.5710(6) 1.0553(4) 0.92611(19)
O14 O 0.6656(5) 1.0438(4) 0.87714(17)
O15 O 1.1304(6) 0.8452(4) 0.9241(2)
P1 P 1.09793(17) 0.66740(13) 0.85140(6)
P2 P 0.87501(17) 0.78219(13) 0.89694(6)
Zn1 Zn 0.86464(7) 0.63506(5) 0.84690(2)
Zn2 Zn 1.01341(7) 0.64723(5) 0.92783(2)
Zn3 Zn 1.07369(8) 0.84166(6) 0.87205(3)
C17 C 0.5107(14) 0.4454(12) 0.7032(6)
H7 H 0.46000 0.40880 0.69740
H8 H 0.53860 0.46510 0.68060
H9 H 0.48390 0.48800 0.71720
C18 C 0.5907(16) 0.4043(14) 0.7262(6)
H10 H 0.62610 0.36980 0.70960
H11 H 0.63630 0.44410 0.73440
C19 C 0.6416(16) 0.3358(15) 0.7785(6)
H12 H 0.68920 0.30850 0.76340
H13 H 0.61720 0.29990 0.79710
C20 C 0.5413(14) 0.2295(12) 0.7312(6)
H14 H 0.57200 0.25060 0.70940
H15 H 0.48560 0.19900 0.72400
H16 H 0.58690 0.19690 0.74420
C21 C 0.5126(19) 0.2881(11) 0.7534(7)
H17 H 0.50930 0.26680 0.77830
H18 H 0.44620 0.30060 0.74630
C22 C 0.6869(17) 0.4024(12) 0.7963(5)
H19 H 0.72370 0.38510 0.81750
H20 H 0.63740 0.43840 0.80430
H21 H 0.72980 0.42790 0.77910
N1 N 0.5647(10) 0.3622(8) 0.7562(4)
O16 O 0.308(3) 0.926(2) 0.9762(11)
O17 O 0.3730(7) 0.2493(8) 0.6482(3)
O18 O 0.476(3) 0.083(2) 0.6040(11)
O19 O 0.524(3) 0.1909(16) 0.5432(10)
O20 O 0.6211(19) 0.251(2) 0.6158(7)
O21? O 0.245(2) 0.9638(14) 0.9437(6)
O22? O 0.5197(14) 0.1778(13) 0.5970(7)
O5E O 0.8185(5) 0.6013(4) 0.79969(17)
O7F O 1.1373(5) 0.9369(4) 0.85633(18)
O12B O 1.0679(5) 0.6323(4) 0.97619(16)
O13F O 0.9290(6) 0.5553(4) 0.92611(19)
O14F O 0.8344(5) 0.5438(4) 0.87714(17)
Zn1E Zn 1.36464(7) 0.63506(5) 0.65310(2)
Zn1F Zn 0.63536(7) 1.13506(5) 0.84690(2)
Zn2B Zn 0.51341(7) 0.85277(5) 1.07217(2)
Zn2F Zn 0.48659(7) 1.14723(5) 0.92783(2)
Zn3F Zn 1.42631(8) 0.34166(6) 0.87205(3)
#END
