
#######################################################################
#
#                 Cambridge Crystallographic Data Centre
#                                CCDC
#
#######################################################################
#
# If this CIF has been generated from an entry in the Cambridge
# Structural Database, then it will include bibliographic, chemical,
# crystal, experimental, refinement or atomic coordinate data resulting
# from the CCDC's data processing and validation procedures.
#
#######################################################################

data_CSD_CIF_MAFZUQ
_audit_creation_date 2011-03-31
_audit_creation_method CSD-ConQuest-V1
_database_code_CSD MAFZUQ
_database_code_depnum_ccdc_archive 'CCDC 776921'
_chemical_formula_sum 'C18 H19 N1 O16 P2 Zn3'
_chemical_formula_moiety
;
(C16 H6 O14 P2 Zn3 2-)n,n(C2 H7 N1),2n(H3 O1 1+)
;
_journal_coden_Cambridge 222
_journal_volume 39
_journal_year 2010
_journal_page_first 10712
_journal_name_full 'Dalton Trans. '
loop_
_publ_author_name
"Yun Ling"
"Tengbiao Liao"
"Zhenxia Chen"
"Yaming Zhou"
"Linhong Weng"
_chemical_name_systematic
;
catena-(bis(oxonium) 
bis(\m~6~-5-phosphonobenzene-1,3-dicarboxylato)-tri-zinc(ii) dimethylamine 
solvate)
;
_cell_volume   2512.500
_exptl_crystal_colour 'colorless'
_exptl_crystal_density_diffrn 2.018
_exptl_crystal_description 'block'
_diffrn_ambient_temperature 293
#These two values have been output from a single CSD field.
_refine_ls_R_factor_gt 0.0389
_refine_ls_wR_factor_gt 0.0389
_symmetry_cell_setting monoclinic
_symmetry_space_group_name_H-M 'C 2/c'
_symmetry_Int_Tables_number 15
loop_
_symmetry_equiv_pos_site_id
_symmetry_equiv_pos_as_xyz
1 x,y,z
2 -x,y,1/2-z
3 1/2+x,1/2+y,z
4 1/2-x,1/2+y,1/2-z
5 -x,-y,-z
6 x,-y,-1/2+z
7 -1/2-x,-1/2-y,-z
8 -1/2+x,-1/2-y,-1/2+z
_cell_length_a 26.918(12)
_cell_length_b 9.920(5)
_cell_length_c 10.161(5)
_cell_angle_alpha 90
_cell_angle_beta 112.179(6)
_cell_angle_gamma 90
_cell_formula_units_Z 4
loop_
_atom_type_symbol
_atom_type_radius_bond
C 0.68
H 0.23
N 0.68
O 0.68
P 1.05
Zn 1.22
loop_
_atom_site_label
_atom_site_type_symbol
_atom_site_fract_x
_atom_site_fract_y
_atom_site_fract_z
Zn1 Zn 0.00000 0.22811(7) -0.25000
Zn2 Zn 0.137007(18) 0.57870(5) 0.26844(5)
P1 P 0.09363(4) 0.37398(11) 0.01032(12)
O1 O 0.09113(11) 0.4480(3) 0.1391(3)
O2 O 0.03687(11) 0.3488(3) -0.0949(3)
C1 C 0.20195(17) 0.0673(5) 0.1544(6)
C2 C 0.12374(15) 0.2119(4) 0.0716(5)
C3 C 0.11786(15) -0.0142(5) 0.1557(5)
C4 C 0.09424(16) 0.1077(4) 0.1003(5)
H1 H 0.05800 0.12080 0.08190
C5 C 0.17213(17) -0.0351(5) 0.1832(6)
H2 H 0.18830 -0.11680 0.22050
C6 C 0.17817(16) 0.1899(5) 0.0995(5)
H3 H 0.19850 0.25780 0.08130
C7 C 0.26036(19) 0.0442(5) 0.1820(6)
O3 O 0.29082(12) 0.1437(4) 0.2052(5)
O4 O 0.27729(14) -0.0716(4) 0.1836(5)
C8 C 0.08592(16) -0.1243(4) 0.1868(5)
O5 O 0.04222(12) -0.0914(3) 0.1962(4)
O6 O 0.10260(13) -0.2420(3) 0.1990(4)
O7 O 0.12883(12) 0.4496(3) -0.0519(3)
N1 N 0.50000 0.1199(10) 0.75000
C9 C 0.4656(2) 0.2014(7) 0.6332(7)
H4 H 0.45940 0.28670 0.66880
H5 H 0.43210 0.15590 0.58670
H6 H 0.48270 0.21570 0.56670
H7 H 0.50000 0.049(9) 0.75000
O8 O 0.3073(6) 0.7552(10) 0.0174(13)
H8 H 0.33130 0.72530 0.09660
H9 H 0.30910 0.74790 -0.06660
H10 H 0.28010 0.78400 0.03480
Zn1D Zn 0.00000 -0.22811(7) -0.75000
Zn1D* Zn 0.00000 -0.22811(7) 0.25000
Zn2A Zn -0.137007(18) 0.57870(5) -0.76844(5)
Zn2* Zn 0.137007(18) -0.42130(5) 0.26844(5)
Zn2A* Zn -0.137007(18) -0.42130(5) -0.76844(5)
Zn2B Zn -0.362993(18) 0.07870(5) -0.73156(5)
Zn2C Zn 0.362993(18) 0.07870(5) 0.23156(5)
Zn2D Zn -0.137007(18) 0.42130(5) -0.26844(5)
Zn2E Zn 0.137007(18) 0.42130(5) -0.23156(5)
P1A P -0.09363(4) 0.37398(11) -0.51032(12)
O1A O -0.09113(11) 0.4480(3) -0.6391(3)
O2A O -0.03687(11) 0.3488(3) -0.4051(3)
C1A C -0.20195(17) 0.0673(5) -0.6544(6)
C2A C -0.12374(15) 0.2119(4) -0.5716(5)
C3A C -0.11786(15) -0.0142(5) -0.6557(5)
C4A C -0.09424(16) 0.1077(4) -0.6003(5)
H1A H -0.05800 0.12080 -0.58190
C5A C -0.17213(17) -0.0351(5) -0.6832(6)
H2A H -0.18830 -0.11680 -0.72050
C6A C -0.17817(16) 0.1899(5) -0.5995(5)
H3A H -0.19850 0.25780 -0.58130
C7A C -0.26036(19) 0.0442(5) -0.6820(6)
O3A O -0.29082(12) 0.1437(4) -0.7052(5)
O3B O -0.20918(12) 0.6437(4) -0.7948(5)
O3C O 0.20918(12) 0.6437(4) 0.2948(5)
O4A O -0.27729(14) -0.0716(4) -0.6836(5)
C8A C -0.08592(16) -0.1243(4) -0.6868(5)
O5A O -0.04222(12) -0.0914(3) -0.6962(4)
O5D O -0.04222(12) 0.0914(3) -0.1962(4)
O5E O 0.04222(12) 0.0914(3) -0.3038(4)
O6A O -0.10260(13) -0.2420(3) -0.6990(4)
O6* O 0.10260(13) 0.7580(3) 0.1990(4)
O6A* O -0.10260(13) 0.7580(3) -0.6990(4)
O7A O -0.12883(12) 0.4496(3) -0.4481(3)
O7D O -0.12883(12) 0.5504(3) -0.9481(3)
O7E O 0.12883(12) 0.5504(3) 0.4481(3)
C9A C 0.5344(2) 0.2014(7) 0.8668(7)
H4A H 0.54060 0.28670 0.83120
H5A H 0.56790 0.15590 0.91330
H6A H 0.51730 0.21570 0.93330
#END
