
#######################################################################
#
#                 Cambridge Crystallographic Data Centre
#                                CCDC
#
#######################################################################
#
# If this CIF has been generated from an entry in the Cambridge
# Structural Database, then it will include bibliographic, chemical,
# crystal, experimental, refinement or atomic coordinate data resulting
# from the CCDC's data processing and validation procedures.
#
#######################################################################

data_CSD_CIF_MAGBIH
_audit_creation_date 2011-03-31
_audit_creation_method CSD-ConQuest-V1
_database_code_CSD MAGBIH
_database_code_depnum_ccdc_archive 'CCDC 776924'
_chemical_formula_sum 'C40 H56 N4 O37 P4 Zn5'
_chemical_formula_moiety
;
(C32 H14 O28 P4 Zn5 4-)n,2n(C4 H12 N2 2+),9n(H2 O1)
;
_journal_coden_Cambridge 222
_journal_volume 39
_journal_year 2010
_journal_page_first 10712
_journal_name_full 'Dalton Trans. '
loop_
_publ_author_name
"Yun Ling"
"Tengbiao Liao"
"Zhenxia Chen"
"Yaming Zhou"
"Linhong Weng"
_chemical_name_systematic
;
catena-(bis(Piperazinediium) 
bis(\m~6~-5-phosphonobenzene-1,3-dicarboxylato)-bis(\m~4~-5-phosphono-3-carbox
ybenzoato)-penta-zinc(ii) nonahydrate)
;
_cell_volume   5636.824
_exptl_crystal_colour 'colorless'
_exptl_crystal_density_diffrn 1.921
_exptl_crystal_description 'block'
_diffrn_ambient_temperature 293
#These two values have been output from a single CSD field.
_refine_ls_R_factor_gt 0.0393
_refine_ls_wR_factor_gt 0.0393
_symmetry_cell_setting monoclinic
_symmetry_space_group_name_H-M 'C 2/c'
_symmetry_Int_Tables_number 15
loop_
_symmetry_equiv_pos_site_id
_symmetry_equiv_pos_as_xyz
1 x,y,z
2 -x,y,1/2-z
3 1/2+x,1/2+y,z
4 1/2-x,1/2+y,1/2-z
5 -x,-y,-z
6 x,-y,-1/2+z
7 -1/2-x,-1/2-y,-z
8 -1/2+x,-1/2-y,-1/2+z
_cell_length_a 28.54(2)
_cell_length_b 12.983(7)
_cell_length_c 15.834(9)
_cell_angle_alpha 90
_cell_angle_beta 106.104(13)
_cell_angle_gamma 90
_cell_formula_units_Z 4
loop_
_atom_type_symbol
_atom_type_radius_bond
C 0.68
H 0.23
N 0.68
O 0.68
P 1.05
Zn 1.22
loop_
_atom_site_label
_atom_site_type_symbol
_atom_site_fract_x
_atom_site_fract_y
_atom_site_fract_z
Zn1 Zn 0.50000 0.11321(6) 1.25000
Zn2 Zn 0.31811(2) 0.36395(4) 1.08244(3)
Zn3 Zn 0.30689(2) 0.10905(4) 1.06775(3)
C1 C 0.41965(19) 0.2115(4) 1.0026(3)
C2 C 0.43076(18) 0.1154(4) 0.9741(3)
H1 H 0.43070 0.05810 1.00930
C3 C 0.44184(19) 0.1026(4) 0.8954(3)
C4 C 0.4402(2) 0.1868(4) 0.8426(4)
H2 H 0.44710 0.17900 0.78890
C5 C 0.4286(2) 0.2833(4) 0.8677(3)
C6 C 0.41823(19) 0.2945(4) 0.9478(3)
H3 H 0.41020 0.35920 0.96470
C7 C 0.4554(2) -0.0026(4) 0.8687(4)
C8 C 0.4278(2) 0.3740(5) 0.8104(4)
C9 C 0.28622(18) 0.2531(3) 0.7974(3)
C10 C 0.28840(17) 0.1673(3) 0.7472(3)
H4 H 0.28360 0.10220 0.76790
C11 C 0.29762(18) 0.1773(3) 0.6660(3)
C12 C 0.30391(18) 0.2745(4) 0.6348(3)
H5 H 0.30950 0.28160 0.57990
C13 C 0.30195(18) 0.3611(3) 0.6845(3)
C14 C 0.29273(18) 0.3498(3) 0.7648(3)
H6 H 0.29080 0.40800 0.79790
C15 C 0.30083(19) 0.0837(4) 0.6127(3)
C16 C 0.30967(19) 0.4675(4) 0.6537(3)
C17 C 0.3426(2) 0.1909(5) 0.3827(4)
H7 H 0.31670 0.23230 0.39430
H8 H 0.32860 0.12540 0.35880
C18 C 0.3627(3) 0.2447(5) 0.3170(4)
H9 H 0.38600 0.20000 0.30050
H10 H 0.33650 0.25920 0.26450
C19 C 0.4067(3) 0.2689(5) 0.5028(5)
H11 H 0.43320 0.25240 0.55440
H12 H 0.38450 0.31530 0.52060
C20 C 0.4266(3) 0.3200(6) 0.4350(6)
H13 H 0.44220 0.38430 0.45840
H14 H 0.45100 0.27590 0.42160
N1 N 0.38061(18) 0.1732(4) 0.4651(3)
H15 H 0.40420 0.13270 0.45460
H16 H 0.37090 0.14210 0.50860
N2 N 0.3868(3) 0.3410(4) 0.3525(4)
H17 H 0.36920 0.38070 0.37980
H18 H 0.38280 0.37080 0.29930
O1 O 0.45856(13) 0.2116(3) 1.1757(2)
O2 O 0.38666(12) 0.3253(2) 1.1176(2)
O3 O 0.37623(12) 0.1297(2) 1.1167(2)
O4 O 0.44938(16) -0.0799(3) 0.9089(3)
O5 O 0.47273(16) -0.0030(3) 0.8042(3)
O6 O 0.43356(19) 0.3518(3) 0.7337(3)
O7 O 0.4231(2) 0.4605(3) 0.8323(3)
O8 O 0.29834(12) 0.3370(2) 0.95501(18)
O9 O 0.28850(12) 0.1414(2) 0.94277(18)
O10 O 0.21745(12) 0.2583(2) 0.88473(18)
O11 O 0.28876(13) -0.0014(2) 0.6390(2)
O12 O 0.31544(15) 0.0903(3) 0.5461(2)
O13 O 0.31593(14) 0.4787(2) 0.5780(2)
O14 O 0.31061(15) 0.5436(2) 0.7014(2)
O15 O 0.31623(19) 0.5682(4) 0.9126(3)
H19 H 0.34390 0.53460 0.93030
H20 H 0.30970 0.57520 0.85650
O16 O 0.42258(19) 0.0783(4) 0.6280(3)
H21 H 0.42010 -0.00640 0.61190
H22 H 0.45110 0.09350 0.67180
O17 O 0.5223(5) 0.3795(9) 0.2000(8)
O18 O 0.44388(17) 0.5005(3) 0.1291(3)
H23 H 0.45950 0.50430 0.09060
H24 H 0.42020 0.45760 0.11300
O19 O 0.50000 0.50000 0.00000
P1 P 0.40904(5) 0.21937(10) 1.10915(8)
P2 P 0.27331(5) 0.24619(9) 0.90248(7)
H25 H 0.434(3) 0.402(4) 0.698(4)
Zn1D Zn 0.50000 -0.11321(6) 0.75000
Zn1D* Zn 0.50000 -0.11321(6) 1.75000
Zn2A Zn 0.68189(2) 0.36395(4) 1.41756(3)
Zn2F Zn 0.18189(2) 0.13605(4) 0.91756(3)
Zn2E Zn 0.31811(2) 0.63605(4) 0.58244(3)
Zn2C Zn 0.18189(2) -0.13605(4) 1.41756(3)
Zn3A Zn 0.69311(2) 0.10905(4) 1.43225(3)
Zn3F Zn 0.19311(2) 0.39095(4) 0.93225(3)
Zn3E Zn 0.30689(2) -0.10905(4) 0.56775(3)
Zn3C Zn 0.19311(2) 0.60905(4) 1.43225(3)
C1A C 0.58035(19) 0.2115(4) 1.4974(3)
C2A C 0.56924(18) 0.1154(4) 1.5259(3)
H1A H 0.56930 0.05810 1.49070
C3A C 0.55816(19) 0.1026(4) 1.6046(3)
C4A C 0.5598(2) 0.1868(4) 1.6574(4)
H2A H 0.55290 0.17900 1.71110
C5A C 0.5714(2) 0.2833(4) 1.6323(3)
C6A C 0.58177(19) 0.2945(4) 1.5522(3)
H3A H 0.58980 0.35920 1.53530
C7A C 0.5446(2) -0.0026(4) 1.6313(4)
C8A C 0.5722(2) 0.3740(5) 1.6896(4)
C9F C 0.21378(18) 0.2469(3) 1.2026(3)
C10F C 0.21160(17) 0.3327(3) 1.2528(3)
H4F H 0.21640 0.39780 1.23210
C11F C 0.20238(18) 0.3227(3) 1.3340(3)
C12F C 0.19609(18) 0.2255(4) 1.3652(3)
H5F H 0.19050 0.21840 1.42010
C13F C 0.19805(18) 0.1389(3) 1.3155(3)
C14F C 0.20727(18) 0.1502(3) 1.2352(3)
H6F H 0.20920 0.09200 1.20210
C15F C 0.19917(19) 0.4163(4) 1.3873(3)
C16F C 0.19033(19) 0.0325(4) 1.3463(3)
O1A O 0.54144(13) 0.2116(3) 1.3243(2)
O2A O 0.61334(12) 0.3253(2) 1.3824(2)
O3A O 0.62377(12) 0.1297(2) 1.3833(2)
O4A O 0.55062(16) -0.0799(3) 1.5911(3)
O5A O 0.52727(16) -0.0030(3) 1.6958(3)
O5D O 0.52727(16) 0.0030(3) 1.1958(3)
O5E O 0.47273(16) 0.0030(3) 1.3042(3)
O6A O 0.56644(19) 0.3518(3) 1.7663(3)
O7A O 0.5769(2) 0.4605(3) 1.6677(3)
O8F O 0.20166(12) 0.1630(2) 1.04499(18)
O8A O 0.70166(12) 0.3370(2) 1.54499(18)
O9F O 0.21150(12) 0.3586(2) 1.05723(18)
O9A O 0.71150(12) 0.1414(2) 1.55723(18)
O10F O 0.28255(12) 0.2417(2) 1.11527(18)
O10G O 0.71745(12) 0.2417(2) 1.38473(18)
O11F O 0.21124(13) 0.5014(2) 1.3610(2)
O11E O 0.28876(13) 0.0014(2) 1.1390(2)
O11D O 0.71124(13) 0.0014(2) 1.3610(2)
O12F O 0.18456(15) 0.4097(3) 1.4539(2)
O13F O 0.18407(14) 0.0213(2) 1.4220(2)
O13E O 0.31593(14) 0.5213(2) 1.0780(2)
O13D O 0.68407(14) 0.5213(2) 1.4220(2)
O14F O 0.18939(15) -0.0436(2) 1.2986(2)
O14E O 0.31061(15) 0.4564(2) 1.2014(2)
O14D O 0.68939(15) 0.4564(2) 1.2986(2)
P1A P 0.59096(5) 0.21937(10) 1.39085(8)
P2F P 0.22669(5) 0.25381(9) 1.09752(7)
H25A H 0.566(3) 0.402(4) 1.802(4)
#END
