
#######################################################################
#
#                 Cambridge Crystallographic Data Centre
#                                CCDC
#
#######################################################################
#
# If this CIF has been generated from an entry in the Cambridge
# Structural Database, then it will include bibliographic, chemical,
# crystal, experimental, refinement or atomic coordinate data resulting
# from the CCDC's data processing and validation procedures.
#
#######################################################################

data_CSD_CIF_MAGBON
_audit_creation_date 2011-03-31
_audit_creation_method CSD-ConQuest-V1
_database_code_CSD MAGBON
_database_code_depnum_ccdc_archive 'CCDC 776925'
_chemical_formula_sum 'C20 H27 N1 O19 P2 Zn3'
_chemical_formula_moiety
;
(C16 H6 O14 P2 Zn3 2-)n,n(C4 H10 N1 1+),n(H3 O1 1+),4n(H2 O1)
;
_journal_coden_Cambridge 222
_journal_volume 39
_journal_year 2010
_journal_page_first 10712
_journal_name_full 'Dalton Trans. '
loop_
_publ_author_name
"Yun Ling"
"Tengbiao Liao"
"Zhenxia Chen"
"Yaming Zhou"
"Linhong Weng"
_chemical_name_systematic
;
catena-(pyrrolidinium oxonium 
bis(\m~6~-5-phosphonobenzene-1,3-dicarboxylato)-tri-zinc(ii) tetrahydrate)
;
_chemical_name_common
;
catena-(oxonium pyrrolidinium bis(mu!6$-5-phosphonoisophthalato)-tri-zinc 
tetrahydrate)
;
_cell_volume   7897.678
_exptl_crystal_colour 'colorless'
_exptl_crystal_density_diffrn 1.414
_exptl_special_details
;
We calculate 12% void space in the structure

;
_exptl_crystal_description 'rod-like'
_diffrn_ambient_temperature 293
#These two values have been output from a single CSD field.
_refine_ls_R_factor_gt 0.0558
_refine_ls_wR_factor_gt 0.0558
_symmetry_cell_setting tetragonal
_symmetry_space_group_name_H-M 'I -4 2 d'
_symmetry_Int_Tables_number 122
loop_
_symmetry_equiv_pos_site_id
_symmetry_equiv_pos_as_xyz
1 x,y,z
2 -x,-y,z
3 y,-x,-z
4 -y,x,-z
5 1/2-x,y,3/4-z
6 1/2+x,-y,3/4-z
7 1/2-y,-x,3/4+z
8 1/2+y,x,3/4+z
9 1/2+x,1/2+y,1/2+z
10 1/2-x,1/2-y,1/2+z
11 1/2+y,1/2-x,1/2-z
12 1/2-y,1/2+x,1/2-z
13 -x,1/2+y,1/4-z
14 x,1/2-y,1/4-z
15 -y,1/2-x,1/4+z
16 y,1/2+x,1/4+z
_cell_length_a 18.450(4)
_cell_length_b 18.450(4)
_cell_length_c 23.201(7)
_cell_angle_alpha 90
_cell_angle_beta 90
_cell_angle_gamma 90
_cell_formula_units_Z 8
loop_
_atom_type_symbol
_atom_type_radius_bond
C 0.68
H 0.23
N 0.68
O 0.68
P 1.05
Zn 1.22
loop_
_atom_site_label
_atom_site_type_symbol
_atom_site_fract_x
_atom_site_fract_y
_atom_site_fract_z
Zn1 Zn 0.75000 0.87295(6) 0.87500
Zn2 Zn 0.73032(4) 0.72482(4) 0.97313(3)
C1 C 0.5453(3) 0.7350(4) 0.8528(3)
C2 C 0.5029(4) 0.7311(4) 0.9035(3)
H1 H 0.52560 0.73260 0.93930
C3 C 0.4284(4) 0.7251(4) 0.9008(3)
C4 C 0.3946(3) 0.7247(4) 0.8484(3)
H2 H 0.34430 0.72140 0.84670
C5 C 0.4342(4) 0.7290(4) 0.7976(3)
C6 C 0.5090(4) 0.7334(4) 0.8006(3)
H3 H 0.53550 0.73540 0.76660
C7 C 0.3866(4) 0.7230(5) 0.9562(3)
C8 C 0.3948(3) 0.7283(5) 0.7410(3)
O1 O 0.6587(3) 0.8222(3) 0.8619(2)
O2 O 0.6636(3) 0.7024(3) 0.9135(2)
O3 O 0.6727(3) 0.7071(3) 0.8047(2)
O4 O 0.3177(3) 0.7214(4) 0.9509(2)
O5 O 0.4173(3) 0.7274(4) 1.0021(2)
O6 O 0.3292(3) 0.7203(4) 0.7424(2)
O7 O 0.4322(2) 0.7396(3) 0.69570(18)
P1 P 0.64134(9) 0.74269(11) 0.85834(7)
C9 C 0.5506(14) 0.787(2) 0.116(3)
H4 H 0.56940 0.79180 0.07760
H5 H 0.58080 0.81530 0.14220
C10 C 0.4770(14) 0.8125(18) 0.1188(12)
H6 H 0.47000 0.84470 0.15140
H7 H 0.46420 0.83800 0.08370
N1 N 0.4360(7) 0.75000 0.12500
H8 H 0.398(4) 0.734(6) 0.098(3)
O8 O 0.5619(16) 0.6636(18) 0.5768(10)
H9 H 0.56150 0.61970 0.56380
H10 H 0.60360 0.68290 0.56880
O9 O 0.5736(18) 0.9243(18) 0.7734(15)
H11 H 0.61030 0.89810 0.76430
H12 H 0.56800 0.92270 0.81020
O10 O 0.6488(16) 0.75000 0.62500
Zn1G Zn 0.37295 0.75000(6) 0.62500
Zn1C Zn 1.12705 0.75000(6) 1.12500
Zn2D Zn 0.76968(4) 0.72482(4) 0.77687(3)
Zn2C Zn 0.27518(4) 0.73032(4) 1.02687(3)
Zn2G Zn 0.22482(4) 0.73032(4) 0.72313(3)
Zn2G* Zn 1.22482(4) 0.73032(4) 0.72313(3)
Zn2C* Zn 1.27518(4) 0.73032(4) 1.02687(3)
C1D C 0.9547(3) 0.7350(4) 0.8972(3)
C2D C 0.9971(4) 0.7311(4) 0.8465(3)
H1D H 0.97440 0.73260 0.81070
C3D C 1.0716(4) 0.7251(4) 0.8492(3)
C4D C 1.1054(3) 0.7247(4) 0.9016(3)
H2D H 1.15570 0.72140 0.90330
C5D C 1.0658(4) 0.7290(4) 0.9524(3)
C6D C 0.9910(4) 0.7334(4) 0.9494(3)
H3D H 0.96450 0.73540 0.98340
C7D C 1.1134(4) 0.7230(5) 0.7938(3)
C8D C 1.1052(3) 0.7283(5) 1.0090(3)
O1D O 0.8413(3) 0.8222(3) 0.8881(2)
O2D O 0.8364(3) 0.7024(3) 0.8365(2)
O3D O 0.8273(3) 0.7071(3) 0.9453(2)
O4D O 1.1823(3) 0.7214(4) 0.7991(2)
O4B O 0.7214(3) 0.6823(4) 1.0491(2)
O4F O 0.7786(3) 0.6823(4) 0.7009(2)
O5D O 1.0827(3) 0.7274(4) 0.7479(2)
O6D O 1.1708(3) 0.7203(4) 1.0076(2)
O6O O 0.7203(3) 0.8292(4) 0.9924(2)
O6K O 0.7797(3) 0.8292(4) 0.7576(2)
O7D O 1.0678(2) 0.7396(3) 1.05430(18)
O7K O 0.7604(2) 0.9322(3) 0.80430(18)
O7O O 0.7396(2) 0.9322(3) 0.94570(18)
P1D P 0.85866(9) 0.74269(11) 0.89166(7)
C9M C 0.5506(14) 0.713(2) 0.134(3)
H4M H 0.56940 0.70820 0.17240
H5M H 0.58080 0.68470 0.10780
C10M C 0.4770(14) 0.6875(18) 0.1312(12)
H6M H 0.47000 0.65530 0.09860
H7M H 0.46420 0.66200 0.16630
H8M H 0.398(4) 0.766(6) 0.152(3)
#END
