
#######################################################################
#
#                 Cambridge Crystallographic Data Centre
#                                CCDC
#
#######################################################################
#
# If this CIF has been generated from an entry in the Cambridge
# Structural Database, then it will include bibliographic, chemical,
# crystal, experimental, refinement or atomic coordinate data resulting
# from the CCDC's data processing and validation procedures.
#
#######################################################################

data_CSD_CIF_MAGMOZ04
_audit_creation_date 2016-03-01
_audit_creation_method CSD-ConQuest-V1
_database_code_CSD MAGMOZ04
_database_code_depnum_ccdc_archive 'CCDC 1432722'
_chemical_formula_sum 'C5 H11 Cu1 N1 O6'
_chemical_formula_moiety
;
(C3 H3 Cu1 O6 1-)n,C2 H8 N1 1+
;
_journal_coden_Cambridge 179
_journal_volume 55
_journal_year 2016
_journal_page_first 2097
_journal_name_full 'Angew.Chem.,Int.Ed. '
loop_
_publ_author_name
"Ran Shang"
"Sa Chen"
"Bing-Wu Wang"
"Zhe-Ming Wang"
"Song Gao"
_chemical_name_systematic
;
catena-[ethylammonium tris(\m-formato)-copper]
;
_cell_volume    845.468
_exptl_crystal_colour 'blue'
_exptl_crystal_density_diffrn 1.922
_exptl_crystal_description 'column'
_diffrn_ambient_temperature 180
#These two values have been output from a single CSD field.
_refine_ls_R_factor_gt 0.0196
_refine_ls_wR_factor_gt 0.0196
_symmetry_cell_setting orthorhombic
_symmetry_space_group_name_H-M 'P n a 21'
_symmetry_Int_Tables_number 33
loop_
_symmetry_equiv_pos_site_id
_symmetry_equiv_pos_as_xyz
1 x,y,z
2 -x,-y,1/2+z
3 1/2+x,1/2-y,z
4 1/2-x,1/2+y,1/2+z
_cell_length_a 9.1422(2)
_cell_length_b 8.1016(2)
_cell_length_c 11.4150(2)
_cell_angle_alpha 90
_cell_angle_beta 90
_cell_angle_gamma 90
_cell_formula_units_Z 4
loop_
_atom_type_symbol
_atom_type_radius_bond
C 0.68
H 0.23
Cu 1.32
N 0.68
O 0.68
loop_
_atom_site_label
_atom_site_type_symbol
_atom_site_fract_x
_atom_site_fract_y
_atom_site_fract_z
Cu1 Cu 0.532166(16) 0.506397(17) 0.50037(5)
O1 O 0.29723(11) 0.38799(12) 0.56505(8)
O2 O 0.13125(11) 0.18742(11) 0.56545(8)
O3 O 0.43821(11) 0.70373(12) 0.43504(9)
O4 O 0.26210(11) 0.89308(11) 0.43293(9)
O5 O 0.53559(11) 0.62014(12) 0.65756(9)
O6 O 0.49564(12) 0.61415(13) 0.84817(8)
C1 C 0.24536(16) 0.25537(15) 0.52650(12)
H1 H 0.29530 0.20270 0.46390
C2 C 0.32241(17) 0.76747(16) 0.47388(11)
H2 H 0.27740 0.71600 0.53940
C3 C 0.49963(19) 0.54531(18) 0.75017(15)
H3 H 0.47450 0.43170 0.74520
N1 N 0.11040(17) 0.53079(17) 0.72883(13)
H4 H 0.14290 0.50020 0.80100
H5 H 0.10460 0.64280 0.72510
H6 H 0.17380 0.49370 0.67330
C4 C -0.03592(17) 0.4588(2) 0.70794(16)
H7 H -0.02770 0.33700 0.70490
H8 H -0.07330 0.49720 0.63120
C5 C -0.1411(2) 0.50587(19) 0.8013(2)
H9 H -0.16260 0.62410 0.79560
H10 H -0.09830 0.48190 0.87820
H11 H -0.23170 0.44270 0.79170
Cu1A Cu 0.467834(16) 0.493603(17) 1.00037(5)
Cu1B Cu 0.032166(16) -0.006397(17) 0.50037(5)
Cu1B* Cu 0.032166(16) 0.993603(17) 0.50037(5)
O2B O 0.63125(11) 0.31258(11) 0.56545(8)
O4B O 0.76210(11) 0.60692(11) 0.43293(9)
O6A O 0.50436(12) 0.38585(13) 0.34817(8)
#END
