
#######################################################################
#
#                 Cambridge Crystallographic Data Centre
#                                CCDC
#
#######################################################################
#
# If this CIF has been generated from an entry in the Cambridge
# Structural Database, then it will include bibliographic, chemical,
# crystal, experimental, refinement or atomic coordinate data resulting
# from the CCDC's data processing and validation procedures.
#
#######################################################################

data_CSD_CIF_MAGNEQ04
_audit_creation_date 2016-03-01
_audit_creation_method CSD-ConQuest-V1
_database_code_CSD MAGNEQ04
_database_code_depnum_ccdc_archive 'CCDC 1432730'
_chemical_formula_sum 'C5 H11 Cu1 N1 O6'
_chemical_formula_moiety
;
(C3 H3 Cu1 O6 1-)n,C2 H8 N1 1+
;
_journal_coden_Cambridge 179
_journal_volume 55
_journal_year 2016
_journal_page_first 2097
_journal_name_full 'Angew.Chem.,Int.Ed. '
loop_
_publ_author_name
"Ran Shang"
"Sa Chen"
"Bing-Wu Wang"
"Zhe-Ming Wang"
"Song Gao"
_chemical_name_systematic
;
catena-[ethylammonium bis(\m~2~-formato)-(formato)-copper(ii)]
;
_cell_volume    926.654
_exptl_crystal_colour 'blue'
_exptl_crystal_density_diffrn 1.754
_exptl_crystal_description 'column'
_diffrn_ambient_temperature 360
#These two values have been output from a single CSD field.
_refine_ls_R_factor_gt 0.0663
_refine_ls_wR_factor_gt 0.0663
_symmetry_cell_setting orthorhombic
_symmetry_space_group_name_H-M 'P 21 21 21'
_symmetry_Int_Tables_number 19
loop_
_symmetry_equiv_pos_site_id
_symmetry_equiv_pos_as_xyz
1 x,y,z
2 1/2-x,-y,1/2+z
3 -x,1/2+y,1/2-z
4 1/2+x,1/2-y,-z
_cell_length_a 10.141(4)
_cell_length_b 8.2329(14)
_cell_length_c 11.099(3)
_cell_angle_alpha 90
_cell_angle_beta 90
_cell_angle_gamma 90
_cell_formula_units_Z 4
loop_
_atom_type_symbol
_atom_type_radius_bond
C 0.68
H 0.23
Cu 1.32
N 0.68
O 0.68
loop_
_atom_site_label
_atom_site_type_symbol
_atom_site_fract_x
_atom_site_fract_y
_atom_site_fract_z
Cu1 Cu 0.20497(11) 0.00106(13) 0.26598(8)
O1 O 0.4633(10) 0.0553(9) 0.3278(9)
O2 O 0.3121(9) 0.1879(8) 0.2230(7)
O3 O 0.0146(8) 0.1025(7) 0.1845(7)
O4 O -0.1279(8) 0.3020(7) 0.1752(6)
O5 O 0.1833(9) 0.1035(7) 0.4276(6)
O6 O 0.2436(9) 0.1113(7) 0.6161(6)
C1 C 0.4248(13) 0.1732(13) 0.2683(11)
H1 H 0.48410 0.25780 0.25630
C2 C -0.0317(13) 0.2328(10) 0.2177(10)
H2 H 0.01050 0.28410 0.28170
C3 C 0.2299(12) 0.0400(11) 0.5185(8)
H3 H 0.25650 -0.06800 0.51370
C4 C 0.7651(16) -0.0164(18) 0.4571(12)
H4 H 0.79830 0.05090 0.39210
H5 H 0.74450 -0.12240 0.42390
C5 C 0.8696(19) -0.035(2) 0.5495(15)
H6 H 0.90190 0.07070 0.57210
H7 H 0.94070 -0.09810 0.51720
H8 H 0.83390 -0.08820 0.61910
N1 N 0.6499(12) 0.0530(9) 0.5025(9)
H9 H 0.61850 -0.00860 0.56180
H10 H 0.59020 0.06020 0.44400
H11 H 0.66760 0.15190 0.53080
Cu1A Cu 0.29503(11) -0.00106(13) 0.76598(8)
Cu1B Cu -0.20497(11) 0.50106(13) 0.23402(8)
O4B O 0.1279(8) -0.1980(7) 0.3248(6)
O6A O 0.2564(9) -0.1113(7) 0.1161(6)
#END
