
#######################################################################
#
#                 Cambridge Crystallographic Data Centre
#                                CCDC
#
#######################################################################
#
# If this CIF has been generated from an entry in the Cambridge
# Structural Database, then it will include bibliographic, chemical,
# crystal, experimental, refinement or atomic coordinate data resulting
# from the CCDC's data processing and validation procedures.
#
#######################################################################

data_CSD_CIF_MAHHAF
_audit_creation_date 2005-01-17
_audit_creation_method CSD-ConQuest-V1
_database_code_CSD MAHHAF
_database_code_depnum_ccdc_archive 'CCDC 248817'
_chemical_formula_sum 'C26 H44 N6 O36 Ti4'
_chemical_formula_moiety
;
(C14 O32 Ti4 6-)n,2n(C6 H18 N3 3+),4n(H2 O1)
;
_journal_coden_Cambridge 603
_journal_volume 23
_journal_year 2004
_journal_page_first 989
_journal_name_full 'Jiegou Huaxue(Chin.)(Chin.J.Struct.Chem.) '
loop_
_publ_author_name
"Qiao-Zhen Sun"
"Han-Hui Zhang"
"Chang-Cang Huang"
"Yong-Jing Wang"
"Rui-Qing Sun"
"Yi-Ping Chen"
"Yan-Ning Cao"
"Wen-Jun Guo"
_chemical_name_systematic
;
catena-(bis(N-(2-Ammonioethyl)piperazinedi-ium) 
(\m~2~-oxalato)-tetrakis(\m~2~-oxo)-hexakis(oxalato)-tetra-titanium 
tetrahydrate)
;
_cell_volume   1110.353
_exptl_crystal_colour 'colorless'
_exptl_crystal_density_diffrn 1.807
_exptl_crystal_description 'block'
_diffrn_ambient_temperature 293
#These two values have been output from a single CSD field.
_refine_ls_R_factor_gt 0.0463
_refine_ls_wR_factor_gt 0.0463
_symmetry_cell_setting triclinic
_symmetry_space_group_name_H-M 'P -1'
_symmetry_Int_Tables_number 2
loop_
_symmetry_equiv_pos_site_id
_symmetry_equiv_pos_as_xyz
1 x,y,z
2 -x,-y,-z
_cell_length_a 9.1437(6)
_cell_length_b 11.4991(10)
_cell_length_c 11.6975(8)
_cell_angle_alpha 96.2915(18)
_cell_angle_beta 107.998(3)
_cell_angle_gamma 104.276(4)
_cell_formula_units_Z 1
loop_
_atom_type_symbol
_atom_type_radius_bond
C 0.68
H 0.23
N 0.68
O 0.68
Ti 1.47
loop_
_atom_site_label
_atom_site_type_symbol
_atom_site_fract_x
_atom_site_fract_y
_atom_site_fract_z
Ti1 Ti -0.00071(6) 0.30256(5) 0.39759(5)
Ti2 Ti -0.30016(7) 0.44062(5) 0.37897(5)
O1 O 0.0450(3) 0.3850(2) 0.2675(2)
O2 O -0.4534(3) 0.5640(2) 0.3840(2)
O3 O -0.2722(3) 0.5026(2) 0.2332(2)
O4 O 0.1722(3) 0.2173(2) 0.3973(2)
O5 O -0.0353(3) 0.1820(2) 0.5041(2)
O6 O -0.1417(3) 0.1692(2) 0.2341(2)
O7 O -0.5980(3) 0.6125(2) 0.4958(2)
O8 O -0.1980(3) 0.3296(2) 0.3883(2)
O9 O -0.5025(3) 0.3323(2) 0.2413(2)
O10 O 0.1351(3) 0.4272(2) 0.5155(2)
O11 O -0.2284(4) 0.1430(3) 0.0298(2)
O12 O 0.3029(3) 0.0974(3) 0.4996(2)
O13 O 0.1018(4) 0.0885(3) 0.6372(3)
O14 O -0.6198(4) 0.2770(3) 0.0371(3)
O15 O -0.3495(4) 0.4575(3) 0.0299(3)
O16 O -0.0218(5) 0.3825(4) 0.0681(3)
C1 C -0.1448(4) 0.2032(3) 0.1337(3)
C2 C -0.3698(4) 0.4406(4) 0.1243(3)
C3 C 0.1987(4) 0.1493(3) 0.4767(3)
C4 C 0.0807(4) 0.1368(3) 0.5479(3)
C5 C -0.0306(5) 0.3340(4) 0.1542(4)
C6 C -0.5133(5) 0.3398(4) 0.1308(3)
C7 C -0.5137(4) 0.5509(3) 0.4645(3)
C8 C -0.2270(5) 0.3216(3) -0.2222(4)
H1 H -0.29690 0.34330 -0.29220
H2 H -0.20300 0.38440 -0.15100
C9 C -0.0735(5) 0.3256(4) -0.2433(4)
H3 H -0.09350 0.25690 -0.30790
H4 H -0.03840 0.40010 -0.27180
C10 C -0.4721(4) 0.2179(4) -0.1876(4)
H5 H -0.44430 0.28250 -0.11700
H6 H -0.53280 0.24280 -0.25960
C11 C -0.5750(5) 0.1025(5) -0.1707(4)
H7 H -0.51780 0.08020 -0.09580
H8 H -0.67300 0.11540 -0.16380
C12 C -0.4661(5) -0.0194(4) -0.2895(5)
H9 H -0.49440 -0.08430 -0.35990
H10 H -0.40830 -0.04490 -0.21690
C13 C -0.3598(4) 0.0964(3) -0.3053(4)
H11 H -0.26080 0.08250 -0.30890
H12 H -0.41400 0.11680 -0.38230
N1 N 0.0577(4) 0.3213(4) -0.1334(4)
H13 H 0.14570 0.32430 -0.15200
H14 H 0.02790 0.25210 -0.10790
H15 H 0.07860 0.38510 -0.07410
N2 N -0.6155(4) 0.0022(3) -0.2771(3)
H16 H -0.67160 0.02200 -0.34620
H17 H -0.67760 -0.06700 -0.26690
N3 N -0.3202(4) 0.2017(3) -0.2025(3)
H18 H -0.25990 0.18510 -0.13180
O17 O -0.0015(6) -0.0736(4) 0.1554(5)
O18 O 0.1607(4) 0.1527(4) 0.1411(4)
C7A C -0.4863(4) 0.4491(3) 0.5355(3)
O2A O -0.5466(3) 0.4360(2) 0.6160(2)
O7A O -0.4020(3) 0.3875(2) 0.5042(2)
Ti2A Ti 0.30016(7) 0.55938(5) 0.62103(5)
O10A O -0.1351(3) 0.5728(2) 0.4845(2)
O3A O 0.2722(3) 0.4974(2) 0.7668(2)
O9A O 0.5025(3) 0.6677(2) 0.7587(2)
O14A O 0.6198(4) 0.7230(3) 0.9629(3)
O15A O 0.3495(4) 0.5425(3) 0.9701(3)
C2A C 0.3698(4) 0.5594(4) 0.8757(3)
C6A C 0.5133(5) 0.6602(4) 0.8692(3)
O8A O 0.1980(3) 0.6704(2) 0.6117(2)
Ti1A Ti 0.00071(6) 0.69744(5) 0.60241(5)
O1A O -0.0450(3) 0.6150(2) 0.7325(2)
O6A O 0.1417(3) 0.8308(2) 0.7659(2)
O11A O 0.2284(4) 0.8570(3) 0.9702(2)
O16A O 0.0218(5) 0.6175(4) 0.9319(3)
C1A C 0.1448(4) 0.7968(3) 0.8663(3)
C5A C 0.0306(5) 0.6660(4) 0.8458(4)
O4A O -0.1722(3) 0.7827(2) 0.6027(2)
O5A O 0.0353(3) 0.8180(2) 0.4959(2)
O12A O -0.3029(3) 0.9026(3) 0.5004(2)
O13A O -0.1018(4) 0.9115(3) 0.3628(3)
C3A C -0.1987(4) 0.8507(3) 0.5233(3)
C4A C -0.0807(4) 0.8632(3) 0.4521(3)
Ti2A* Ti -0.69984(7) 0.55938(5) 0.62103(5)
O2A* O 0.4534(3) 0.4360(2) 0.6160(2)
O7* O 0.4020(3) 0.6125(2) 0.4958(2)
#END
