
#######################################################################
#
#                 Cambridge Crystallographic Data Centre
#                                CCDC
#
#######################################################################
#
# If this CIF has been generated from an entry in the Cambridge
# Structural Database, then it will include bibliographic, chemical,
# crystal, experimental, refinement or atomic coordinate data resulting
# from the CCDC's data processing and validation procedures.
#
#######################################################################

data_CSD_CIF_MAJCIN
_audit_creation_date 2020-12-08
_audit_creation_method CSD-ConQuest-V1
_database_code_CSD MAJCIN
_database_code_depnum_ccdc_archive 'CCDC 1973159'
_chemical_formula_sum 'C44 H29 Cu0.6 O16 Zr3'
_chemical_formula_moiety
;
(C44 H29 O16 Zr3 1-)n,0.5(Cu1 2+),0.1(Cu1)
;
_journal_coden_Cambridge 4
_journal_volume 142
_journal_year 2020
_journal_page_first 21169
_journal_name_full 'J.Am.Chem.Soc. '
loop_
_publ_author_name
"Ying Yang"
"Xuan Zhang"
"Siriluk Kanchanakungwankul"
"Zhiyong Lu"
"Hyunho Noh"
"Z.H.Syed"
"O.K.Farha"
"D.G.Truhlar"
"J.T.Hupp"
_chemical_name_systematic
;
catena-[copper(ii) copper 
(\m-hydroxido)-tris(\m-oxido)-(\m-4,4',4'',4'''-(pyrene-1,3,6,8-tetrayl)tetrab
enzoato)-diaqua-bis(hydroxido)-tri-zirconium(iv) unknown solvate]
;
_chemical_name_common
;
NU-1000-FF-Cu-SIM
;
_cell_volume  22702.490
_exptl_crystal_colour 'brown'
_exptl_crystal_density_diffrn 0.491
_exptl_special_details
;
Due to symmetry disorder and partial occupancy, the copper atoms have been 
separated from the zirconium cluster. A neutral copper atom has been included 
to achieve charge balance
;
_exptl_crystal_description 'rod'
_diffrn_ambient_temperature 200.0
_refine_special_details
;
Copper atoms (Cu1, Cu2) have partial occupancies of 0.2 and 0.1; Disordered 
solvent molecules were not modelled and the disordered density was taken into 
account using the MASK/OLEX2 procedure.
;
#These two values have been output from a single CSD field.
_refine_ls_R_factor_gt 0.095
_refine_ls_wR_factor_gt 0.095
_symmetry_cell_setting hexagonal
_symmetry_space_group_name_H-M 'P 6/m m m'
_symmetry_Int_Tables_number 191
loop_
_symmetry_equiv_pos_site_id
_symmetry_equiv_pos_as_xyz
1 x,y,z
2 -y,x-y,z
3 -x+y,-x,z
4 -x,-y,z
5 y,-x+y,z
6 x-y,x,z
7 y,x,-z
8 x-y,-y,-z
9 -x,-x+y,-z
10 -y,-x,-z
11 -x+y,y,-z
12 x,x-y,-z
13 -x,-y,-z
14 y,-x+y,-z
15 x-y,x,-z
16 x,y,-z
17 -y,x-y,-z
18 -x+y,-x,-z
19 -y,-x,z
20 -x+y,y,z
21 x,x-y,z
22 y,x,z
23 x-y,-y,z
24 -x,-x+y,z
_cell_length_a 40.142(2)
_cell_length_b 40.142(2)
_cell_length_c 16.2684(12)
_cell_angle_alpha 90
_cell_angle_beta 90
_cell_angle_gamma 120
_cell_formula_units_Z 6
loop_
_atom_type_symbol
_atom_type_radius_bond
C 0.68
H 0.23
Cu 1.32
O 0.68
Zr 1.75
loop_
_atom_site_label
_atom_site_type_symbol
_atom_site_fract_x
_atom_site_fract_y
_atom_site_fract_z
Zr1 Zr 0.46466(2) 0.53534(2) 0.50000
Zr2 Zr 0.54346(3) 0.54346(3) 0.60749(7)
O1 O 0.4151(2) 0.5198(2) 0.4195(4)
O2 O 0.48240(12) 0.51760(12) 0.6087(5)
O3 O 0.5274(3) 0.5623(3) 0.50000
O4 O 0.5420(3) 0.5420(3) 0.7372(6)
O5 O 0.5970(3) 0.5970(3) 0.6012(7)
O6 O 0.4092(2) 0.4694(3) 0.3481(5)
C1 C 0.3995(4) 0.4958(4) 0.3705(7)
C2 C 0.3670(4) 0.4945(5) 0.3183(7)
C3 C 0.3593(4) 0.5231(5) 0.3274(7)
C4 C 0.3477(4) 0.4677(5) 0.2615(8)
H1 H 0.37280 0.54290 0.36660
C5 C 0.3309(4) 0.5230(5) 0.2781(8)
C6 C 0.3189(4) 0.4686(5) 0.2130(8)
H2 H 0.35340 0.44760 0.25340
H3 H 0.32640 0.54390 0.28380
C7 C 0.3098(4) 0.4961(5) 0.2239(7)
H4 H 0.30590 0.44940 0.17220
C8 C 0.2793(3) 0.4990(5) 0.1734(6)
C9 C 0.2500(3) 0.5000(6) 0.2124(9)
C10 C 0.2801(3) 0.4995(5) 0.0886(6)
H5 H 0.25070 0.50130 0.27070
C11 C 0.3110(4) 0.5008(5) 0.0410(6)
C12 C 0.2494(3) 0.4988(7) 0.0464(8)
H6 H 0.33210 0.50170 0.06910
Cu1 Cu 0.5735(4) 0.6187(4) 0.50000
Cu2 Cu 0.4799(3) 0.5201(3) 0.7429(13)
O1J O 0.1047(2) 0.5198(2) -0.4195(4)
C1J C 0.0963(4) 0.4958(4) -0.3705(7)
C2J C 0.1275(4) 0.4945(5) -0.3183(7)
C3J C 0.1638(4) 0.5231(5) -0.3274(7)
C4J C 0.1200(4) 0.4677(5) -0.2615(8)
H1J H 0.17010 0.54290 -0.36660
C5J C 0.1921(4) 0.5230(5) -0.2781(8)
C6J C 0.1497(4) 0.4686(5) -0.2130(8)
H2J H 0.09420 0.44760 -0.25340
H3J H 0.21750 0.54390 -0.28380
C7J C 0.1863(4) 0.4961(5) -0.2239(7)
H4J H 0.14350 0.44940 -0.17220
C8J C 0.2197(3) 0.4990(5) -0.1734(6)
C9J C 0.2500(3) 0.5000(6) -0.2124(9)
C10J C 0.2194(3) 0.4995(5) -0.0886(6)
H5J H 0.25060 0.50130 -0.27070
C11J C 0.1898(4) 0.5008(5) -0.0410(6)
C12J C 0.2494(3) 0.4988(7) -0.0464(8)
H6J H 0.16960 0.50170 -0.06910
O6J O 0.0602(2) 0.4694(3) -0.3481(5)
O1O O 0.4151(2) 0.5198(2) -0.4195(4)
C1O C 0.3995(4) 0.4958(4) -0.3705(7)
C2O C 0.3670(4) 0.4945(5) -0.3183(7)
C3O C 0.3593(4) 0.5231(5) -0.3274(7)
C4O C 0.3477(4) 0.4677(5) -0.2615(8)
H1O H 0.37280 0.54290 -0.36660
C5O C 0.3309(4) 0.5230(5) -0.2781(8)
C6O C 0.3189(4) 0.4686(5) -0.2130(8)
H2O H 0.35340 0.44760 -0.25340
H3O H 0.32640 0.54390 -0.28380
C7O C 0.3098(4) 0.4961(5) -0.2239(7)
H4O H 0.30590 0.44940 -0.17220
C8O C 0.2793(3) 0.4990(5) -0.1734(6)
C10O C 0.2801(3) 0.4995(5) -0.0886(6)
C11O C 0.3110(4) 0.5008(5) -0.0410(6)
H6O H 0.33210 0.50170 -0.06910
O6O O 0.4092(2) 0.4694(3) -0.3481(5)
O1S O 0.1047(2) 0.5198(2) 0.4195(4)
C1S C 0.0963(4) 0.4958(4) 0.3705(7)
C2S C 0.1275(4) 0.4945(5) 0.3183(7)
C3S C 0.1638(4) 0.5231(5) 0.3274(7)
C4S C 0.1200(4) 0.4677(5) 0.2615(8)
H1S H 0.17010 0.54290 0.36660
C5S C 0.1921(4) 0.5230(5) 0.2781(8)
C6S C 0.1497(4) 0.4686(5) 0.2130(8)
H2S H 0.09420 0.44760 0.25340
H3S H 0.21750 0.54390 0.28380
C7S C 0.1863(4) 0.4961(5) 0.2239(7)
H4S H 0.14350 0.44940 0.17220
C8S C 0.2197(3) 0.4990(5) 0.1734(6)
C10S C 0.2194(3) 0.4995(5) 0.0886(6)
C11S C 0.1898(4) 0.5008(5) 0.0410(6)
H6S H 0.16960 0.50170 0.06910
O6S O 0.0602(2) 0.4694(3) 0.3481(5)
Zr2C Zr 0.45654(3) 0.45654(3) 0.60749(7)
O4C O 0.4580(3) 0.4580(3) 0.7372(6)
O5C O 0.4030(3) 0.4030(3) 0.6012(7)
O2I O 0.48240(12) 0.51760(12) 0.3913(5)
O3I O 0.4377(3) 0.4726(3) 0.50000
Zr1* Zr 0.46466(2) 0.53534(2) -0.50000
Zr1B Zr 0.07068(2) 0.53534(2) -0.50000
Zr1B* Zr 0.07068(2) 0.53534(2) 0.50000
Zr2B Zr 0.00000(3) 0.45654(3) -0.39251(7)
Zr2C* Zr 0.45654(3) 0.45654(3) -0.39251(7)
Zr2F Zr 0.54346(3) 0.54346(3) 0.39251(7)
Zr2G Zr 0.00000(3) 0.45654(3) 0.39251(7)
Zr2I Zr 0.45654(3) 0.45654(3) 0.39251(7)
O1I O 0.4802(2) 0.5849(2) 0.5805(4)
O1O* O 0.4151(2) 0.5198(2) 0.5805(4)
O1R O 0.4802(2) 0.5849(2) 0.4195(4)
O2C O 0.51760(12) 0.48240(12) 0.6087(5)
O3C O 0.4726(3) 0.4377(3) 0.50000
O3F O 0.5623(3) 0.5274(3) 0.50000
O6F O 0.4694(2) 0.4092(3) 0.6519(5)
O6I O 0.5306(2) 0.5908(3) 0.6519(5)
O6L O 0.5908(2) 0.5306(3) 0.6519(5)
O6O* O 0.4092(2) 0.4694(3) 0.6519(5)
#END
