
#######################################################################
#
#                 Cambridge Crystallographic Data Centre
#                                CCDC
#
#######################################################################
#
# If this CIF has been generated from an entry in the Cambridge
# Structural Database, then it will include bibliographic, chemical,
# crystal, experimental, refinement or atomic coordinate data resulting
# from the CCDC's data processing and validation procedures.
#
#######################################################################

data_CSD_CIF_MAJCEJ
_audit_creation_date 2020-12-08
_audit_creation_method CSD-ConQuest-V1
_database_code_CSD MAJCEJ
_database_code_depnum_ccdc_archive 'CCDC 1973158'
_chemical_formula_sum 'C44 H29 Cu0.5 O16 Zr3'
_chemical_formula_moiety
;
(C44 H29 O16 Zr3 1-)n,0.5(Cu1 2+)
;
_journal_coden_Cambridge 4
_journal_volume 142
_journal_year 2020
_journal_page_first 21169
_journal_name_full 'J.Am.Chem.Soc. '
loop_
_publ_author_name
"Ying Yang"
"Xuan Zhang"
"Siriluk Kanchanakungwankul"
"Zhiyong Lu"
"Hyunho Noh"
"Z.H.Syed"
"O.K.Farha"
"D.G.Truhlar"
"J.T.Hupp"
_chemical_name_systematic
;
catena-[hemi-copper(ii) 
(\m-hydroxido)-tris(\m-oxido)-(\m-4,4',4'',4'''-(pyrene-1,3,6,8-tetrayl)tetrab
enzoato)-diaqua-bis(hydroxido)-tri-zirconium(iv) unknown solvate]
;
_chemical_name_common
;
NU-1000-FF-Cu-SIM unknown solvate
;
_cell_volume  22472.149
_exptl_crystal_density_diffrn 0.493
_exptl_special_details
;
Due to symmetry disorder and partial occupancy, the copper atoms have been 
separated from the zirconium cluster
;
_exptl_crystal_description 'block'
_diffrn_ambient_temperature 200
_refine_special_details
;
Copper atoms (Cu1, Cu2) have partial occupancies of 0.15 and 0.1; Disordered 
solvent molecules were not modelled and the disordered density was taken into 
account using the MASK/OLEX2 procedure.
;
#These two values have been output from a single CSD field.
_refine_ls_R_factor_gt 0.0944
_refine_ls_wR_factor_gt 0.0944
_symmetry_cell_setting hexagonal
_symmetry_space_group_name_H-M 'P 6/m m m'
_symmetry_Int_Tables_number 191
loop_
_symmetry_equiv_pos_site_id
_symmetry_equiv_pos_as_xyz
1 x,y,z
2 -y,x-y,z
3 -x+y,-x,z
4 -x,-y,z
5 y,-x+y,z
6 x-y,x,z
7 y,x,-z
8 x-y,-y,-z
9 -x,-x+y,-z
10 -y,-x,-z
11 -x+y,y,-z
12 x,x-y,-z
13 -x,-y,-z
14 y,-x+y,-z
15 x-y,x,-z
16 x,y,-z
17 -y,x-y,-z
18 -x+y,-x,-z
19 -y,-x,z
20 -x+y,y,z
21 x,x-y,z
22 y,x,z
23 x-y,-y,z
24 -x,-x+y,z
_cell_length_a 40.051(3)
_cell_length_b 40.051(3)
_cell_length_c 16.1766(15)
_cell_angle_alpha 90
_cell_angle_beta 90
_cell_angle_gamma 120
_cell_formula_units_Z 6
loop_
_atom_type_symbol
_atom_type_radius_bond
C 0.68
H 0.23
Cu 1.32
O 0.68
Zr 1.75
loop_
_atom_site_label
_atom_site_type_symbol
_atom_site_fract_x
_atom_site_fract_y
_atom_site_fract_z
Zr1 Zr 0.46464(2) 0.53536(2) 0.50000
Zr2 Zr 0.54439(3) 0.54439(3) 0.39169(6)
O1 O 0.48248(11) 0.51752(11) 0.3927(5)
O2 O 0.5287(2) 0.5630(3) 0.50000
O3 O 0.41481(15) 0.51850(16) 0.4171(3)
O4 O 0.5405(2) 0.5405(2) 0.2573(5)
O5 O 0.5979(2) 0.5979(2) 0.4027(6)
O6 O 0.40888(17) 0.46796(19) 0.3483(4)
C1 C 0.3998(3) 0.4937(3) 0.3656(6)
C2 C 0.2459(3) 0.4919(5) 0.0463(8)
C3 C 0.3083(3) 0.4923(3) 0.2240(6)
C4 C 0.2768(3) 0.4920(4) 0.0877(6)
C5 C 0.3290(3) 0.5204(3) 0.2796(6)
H1 H 0.32440 0.54140 0.28550
C6 C 0.3571(3) 0.5192(3) 0.3282(6)
H2 H 0.36980 0.53790 0.37040
C7 C 0.3079(3) 0.4948(4) 0.0415(6)
H3 H 0.32950 0.49680 0.07000
C8 C 0.3661(3) 0.4922(3) 0.3159(5)
C9 C 0.2765(3) 0.4935(3) 0.1743(5)
C10 C 0.3171(3) 0.4622(4) 0.2147(7)
H4 H 0.30320 0.44180 0.17660
C11 C 0.3463(3) 0.4630(4) 0.2618(6)
H5 H 0.35250 0.44310 0.25630
C12 C 0.2470(2) 0.4941(5) 0.2130(8)
H6 H 0.24750 0.49490 0.27170
Cu1 Cu 0.5167(4) 0.4833(4) 0.2507(17)
Cu2 Cu 0.5731(6) 0.6224(6) 0.50000
O3J O 0.10369(15) 0.51850(16) -0.4171(3)
O6J O 0.05908(17) 0.46796(19) -0.3483(4)
C1J C 0.0939(3) 0.4937(3) -0.3656(6)
C2J C 0.2460(3) 0.4919(5) -0.0463(8)
C3J C 0.1840(3) 0.4923(3) -0.2240(6)
C4J C 0.2152(3) 0.4920(4) -0.0877(6)
C5J C 0.1914(3) 0.5204(3) -0.2796(6)
H1J H 0.21700 0.54140 -0.28550
C6J C 0.1621(3) 0.5192(3) -0.3282(6)
H2J H 0.16810 0.53790 -0.37040
C7J C 0.1869(3) 0.4948(4) -0.0415(6)
H3J H 0.16730 0.49680 -0.07000
C8J C 0.1261(3) 0.4922(3) -0.3159(5)
C9J C 0.2170(3) 0.4935(3) -0.1743(5)
C10J C 0.1451(3) 0.4622(4) -0.2147(7)
H4J H 0.13860 0.44180 -0.17660
C11J C 0.1167(3) 0.4630(4) -0.2618(6)
H5J H 0.09060 0.44310 -0.25630
C12J C 0.2471(2) 0.4941(5) -0.2130(8)
H6J H 0.24740 0.49490 -0.27170
O3O O 0.41481(15) 0.51850(16) -0.4171(3)
O6O O 0.40888(17) 0.46796(19) -0.3483(4)
C1O C 0.3998(3) 0.4937(3) -0.3656(6)
C3O C 0.3083(3) 0.4923(3) -0.2240(6)
C4O C 0.2768(3) 0.4920(4) -0.0877(6)
C5O C 0.3290(3) 0.5204(3) -0.2796(6)
H1O H 0.32440 0.54140 -0.28550
C6O C 0.3571(3) 0.5192(3) -0.3282(6)
H2O H 0.36980 0.53790 -0.37040
C7O C 0.3079(3) 0.4948(4) -0.0415(6)
H3O H 0.32950 0.49680 -0.07000
C8O C 0.3661(3) 0.4922(3) -0.3159(5)
C9O C 0.2765(3) 0.4935(3) -0.1743(5)
C10O C 0.3171(3) 0.4622(4) -0.2147(7)
H4O H 0.30320 0.44180 -0.17660
C11O C 0.3463(3) 0.4630(4) -0.2618(6)
H5O H 0.35250 0.44310 -0.25630
O3S O 0.10369(15) 0.51850(16) 0.4171(3)
O6S O 0.05908(17) 0.46796(19) 0.3483(4)
C1S C 0.0939(3) 0.4937(3) 0.3656(6)
C3S C 0.1840(3) 0.4923(3) 0.2240(6)
C4S C 0.2152(3) 0.4920(4) 0.0877(6)
C5S C 0.1914(3) 0.5204(3) 0.2796(6)
H1S H 0.21700 0.54140 0.28550
C6S C 0.1621(3) 0.5192(3) 0.3282(6)
H2S H 0.16810 0.53790 0.37040
C7S C 0.1869(3) 0.4948(4) 0.0415(6)
H3S H 0.16730 0.49680 0.07000
C8S C 0.1261(3) 0.4922(3) 0.3159(5)
C9S C 0.2170(3) 0.4935(3) 0.1743(5)
C10S C 0.1451(3) 0.4622(4) 0.2147(7)
H4S H 0.13860 0.44180 0.17660
C11S C 0.1167(3) 0.4630(4) 0.2618(6)
H5S H 0.09060 0.44310 0.25630
Zr2C Zr 0.45561(3) 0.45561(3) 0.39169(6)
O4C O 0.4595(2) 0.4595(2) 0.2573(5)
O5C O 0.4021(2) 0.4021(2) 0.4027(6)
O1I O 0.48248(11) 0.51752(11) 0.6073(5)
O2I O 0.4370(2) 0.4713(3) 0.50000
Zr1* Zr 0.46464(2) 0.53536(2) -0.50000
Zr1B Zr 0.07072(2) 0.53536(2) -0.50000
Zr1B* Zr 0.07072(2) 0.53536(2) 0.50000
Zr2B Zr 0.00000(3) 0.45561(3) 0.39169(6)
Zr2F Zr 0.54439(3) 0.54439(3) 0.60831(6)
Zr2G Zr 0.00000(3) 0.45561(3) -0.39169(6)
Zr2I Zr 0.45561(3) 0.45561(3) -0.39169(6)
Zr2I* Zr 0.45561(3) 0.45561(3) 0.60831(6)
O1C O 0.51752(11) 0.48248(11) 0.3927(5)
O2C O 0.4713(2) 0.4370(3) 0.50000
O2F O 0.5630(2) 0.5287(3) 0.50000
O3I O 0.48150(15) 0.58519(16) 0.5829(3)
O3O* O 0.41481(15) 0.51850(16) 0.5829(3)
O3R O 0.48150(15) 0.58519(16) 0.4171(3)
O6C O 0.59112(17) 0.53204(19) 0.3483(4)
O6R O 0.53204(17) 0.59112(19) 0.3483(4)
O6U O 0.46796(17) 0.40888(19) 0.3483(4)
#END
