
#######################################################################
#
#                 Cambridge Crystallographic Data Centre
#                                CCDC
#
#######################################################################
#
# If this CIF has been generated from an entry in the Cambridge
# Structural Database, then it will include bibliographic, chemical,
# crystal, experimental, refinement or atomic coordinate data resulting
# from the CCDC's data processing and validation procedures.
#
#######################################################################

data_CSD_CIF_MAJHEM
_audit_creation_date 2011-03-25
_audit_creation_method CSD-ConQuest-V1
_database_code_CSD MAJHEM
_database_code_depnum_ccdc_archive 'CCDC 772312'
_chemical_formula_sum 'C38 H38 Hg2 I5 N14 Na1 O6'
_chemical_formula_moiety
;
(C3 H7 N1 O1)2n,n(Hg2 I5 1-),n(C32 H24 N12 Na1 O4 1+)
;
_journal_coden_Cambridge 580
_journal_volume 29
_journal_year 2010
_journal_page_first 3081
_journal_name_full 'Polyhedron '
loop_
_publ_author_name
"Ta-Pin Tsai"
"Yen-Tsang Huang"
"U.Ray"
"Yin-Jui Cheng"
"Pei-Chi Cheng"
"Chia-Jun Wu"
"Jhy-Der Chen"
"Ju-Chun Wang"
_chemical_name_systematic
;
catena-(bis(\m~2~-N,N'-bis(2-Pyrimidinyl)-1,4-benzenedicarboxamide)-sodium 
(\m~2~-iodo)-tetrakis(iodo)-di-mercury(ii) dimethylformamide solvate)
;
_cell_volume   5123.193
_exptl_crystal_colour 'orange'
_exptl_crystal_density_diffrn 2.393
_exptl_crystal_description 'block'
_diffrn_ambient_temperature 296
_refine_special_details
;
C17,C18,C19 and C17',C18',C19' disordered over two sites with occupancies 
0.50:0.50.
;
#These two values have been output from a single CSD field.
_refine_ls_R_factor_gt 0.0405
_refine_ls_wR_factor_gt 0.0405
_symmetry_cell_setting monoclinic
_symmetry_space_group_name_H-M 'C 2/c'
_symmetry_Int_Tables_number 15
loop_
_symmetry_equiv_pos_site_id
_symmetry_equiv_pos_as_xyz
1 x,y,z
2 -x,y,1/2-z
3 1/2+x,1/2+y,z
4 1/2-x,1/2+y,1/2-z
5 -x,-y,-z
6 x,-y,-1/2+z
7 -1/2-x,-1/2-y,-z
8 -1/2+x,-1/2-y,-1/2+z
_cell_length_a 25.1769(10)
_cell_length_b 13.9751(6)
_cell_length_c 17.3360(6)
_cell_angle_alpha 90
_cell_angle_beta 122.869(2)
_cell_angle_gamma 90
_cell_formula_units_Z 4
loop_
_atom_type_symbol
_atom_type_radius_bond
C 0.68
H 0.23
Hg 1.32
I 1.40
N 0.68
Na 1.73
O 0.68
loop_
_atom_site_label
_atom_site_type_symbol
_atom_site_fract_x
_atom_site_fract_y
_atom_site_fract_z
Hg1 Hg 0.140991(14) 0.75110(2) 0.355638(17)
I1 I 0.15677(2) 0.78923(3) 0.22154(3)
I2 I 0.00000 0.74706(4) 0.25000
I3 I 0.17060(2) 0.70188(3) 0.51928(3)
Na1 Na 0.00000 0.75110(18) -0.25000
O1 O 0.05850(17) 0.6628(3) -0.1008(2)
O2 O 0.05489(15) 0.8386(2) -0.3073(2)
N1 N 0.08190(18) 0.6154(3) -0.2359(3)
N2 N 0.1368(2) 0.4666(3) -0.1857(3)
N3 N 0.0741(2) 0.5134(3) -0.1349(3)
H1 H 0.07120 0.45370 -0.12550
N4 N 0.08632(18) 0.8890(3) -0.1327(2)
N5 N 0.1333(2) 1.0432(3) -0.1001(3)
N6 N 0.07625(19) 0.9889(3) -0.2484(2)
H2 H 0.07580 1.04770 -0.26330
C1 C 0.1085(2) 0.6307(4) -0.2837(4)
H3 H 0.09810 0.68620 -0.31860
C2 C 0.1497(3) 0.5695(5) -0.2836(4)
H4 H 0.16860 0.58310 -0.31590
C3 C 0.1630(3) 0.4858(5) -0.2342(5)
H5 H 0.19060 0.44170 -0.23430
C4 C 0.0988(2) 0.5351(4) -0.1886(3)
C5 C 0.0544(2) 0.5767(4) -0.0961(3)
C6 C 0.0270(2) 0.5338(3) -0.0469(3)
C7 C 0.0027(2) 0.4422(4) -0.0624(3)
H6 H 0.00450 0.40260 -0.10400
C8 C 0.0244(2) 0.5910(4) 0.0163(3)
H7 H 0.04110 0.65250 0.02780
C9 C 0.1113(2) 0.8771(4) -0.0419(3)
H8 H 0.10320 0.82050 -0.02170
C10 C 0.1478(3) 0.9451(4) 0.0209(3)
H9 H 0.16570 0.93480 0.08330
C11 C 0.1574(3) 1.0286(4) -0.0099(3)
H10 H 0.18120 1.07660 0.03200
C12 C 0.1002(2) 0.9714(3) -0.1546(3)
C13 C 0.0538(2) 0.9240(4) -0.3177(3)
C14 C 0.02729(19) 0.9669(3) -0.4111(3)
C15 C 0.0021(2) 1.0571(3) -0.4338(3)
H11 H 0.00290 1.09580 -0.38950
C16 C 0.0245(2) 0.9091(3) -0.4773(3)
H12 H 0.04050 0.84720 -0.46250
O3 O 0.1995(3) 0.9349(5) 0.7114(4)
N7 N 0.2364(2) 0.8753(5) 0.8496(4)
C17 C 0.2060(5) 0.8627(6) 0.7572(5)
H13 H 0.19090 0.80320 0.72990
C18 C 0.2673(7) 0.9690(8) 0.8890(12)
H14 H 0.24770 1.01750 0.84250
H15 H 0.31140 0.96490 0.91100
H16 H 0.26280 0.98510 0.93900
C19 C 0.2394(8) 0.7839(8) 0.8964(11)
H17 H 0.25800 0.73490 0.87950
H18 H 0.19750 0.76510 0.87800
H19 H 0.26470 0.79310 0.96170
C20? C 0.2212(8) 0.9525(7) 0.7944(6)
C21? C 0.2732(9) 0.9146(18) 0.9454(8)
C22? C 0.2091(11) 0.7769(9) 0.8337(17)
H20? H 0.22640 1.01470 0.81650
H21? H 0.31620 0.92520 0.96390
H22? H 0.27210 0.86960 0.98640
H23? H 0.25470 0.97400 0.94720
H24? H 0.16950 0.77480 0.77540
H25? H 0.20240 0.76100 0.88160
H26? H 0.23790 0.73180 0.83380
Hg1A Hg -0.140991(14) 0.75110(2) 0.144362(17)
I1A I -0.15677(2) 0.78923(3) 0.27846(3)
I3A I -0.17060(2) 0.70188(3) -0.01928(3)
Na1D Na 0.00000 0.24890(18) 0.25000
Na1D* Na 0.00000 1.24890(18) -0.75000
O1D O -0.05850(17) 0.3372(3) 0.1008(2)
O1A O -0.05850(17) 0.6628(3) -0.3992(2)
O2D O -0.05489(15) 1.1614(2) -0.6927(2)
O2A O -0.05489(15) 0.8386(2) -0.1927(2)
N1D N -0.08190(18) 0.3846(3) 0.2359(3)
N1A N -0.08190(18) 0.6154(3) -0.2641(3)
N2D N -0.1368(2) 0.5334(3) 0.1857(3)
N3D N -0.0741(2) 0.4866(3) 0.1349(3)
H1D H -0.07120 0.54630 0.12550
N4D N -0.08632(18) 1.1110(3) -0.8673(2)
N4A N -0.08632(18) 0.8890(3) -0.3673(2)
N5D N -0.1333(2) 0.9568(3) -0.8999(3)
N6D N -0.07625(19) 1.0111(3) -0.7516(2)
H2D H -0.07580 0.95230 -0.73670
C1D C -0.1085(2) 0.3693(4) 0.2837(4)
H3D H -0.09810 0.31380 0.31860
C2D C -0.1497(3) 0.4305(5) 0.2836(4)
H4D H -0.16860 0.41690 0.31590
C3D C -0.1630(3) 0.5142(5) 0.2342(5)
H5D H -0.19060 0.55830 0.23430
C4D C -0.0988(2) 0.4649(4) 0.1886(3)
C5D C -0.0544(2) 0.4233(4) 0.0961(3)
C6D C -0.0270(2) 0.4662(3) 0.0469(3)
C7D C -0.0027(2) 0.5578(4) 0.0624(3)
H6D H -0.00450 0.59740 0.10400
C8D C -0.0244(2) 0.4090(4) -0.0163(3)
H7D H -0.04110 0.34750 -0.02780
C9D C -0.1113(2) 1.1229(4) -0.9581(3)
H8D H -0.10320 1.17950 -0.97830
C10D C -0.1478(3) 1.0549(4) -1.0209(3)
H9D H -0.16570 1.06520 -1.08330
C11D C -0.1574(3) 0.9714(4) -0.9901(3)
H10D H -0.18120 0.92340 -1.03200
C12D C -0.1002(2) 1.0286(3) -0.8454(3)
C13D C -0.0538(2) 1.0760(4) -0.6823(3)
C14D C -0.02729(19) 1.0331(3) -0.5889(3)
C15D C -0.0021(2) 0.9429(3) -0.5662(3)
H11D H -0.00290 0.90420 -0.61050
C16D C -0.0245(2) 1.0909(3) -0.5227(3)
H12D H -0.04050 1.15280 -0.53750
#END
