
#######################################################################
#
#                 Cambridge Crystallographic Data Centre
#                                CCDC
#
#######################################################################
#
# If this CIF has been generated from an entry in the Cambridge
# Structural Database, then it will include bibliographic, chemical,
# crystal, experimental, refinement or atomic coordinate data resulting
# from the CCDC's data processing and validation procedures.
#
#######################################################################

data_CSD_CIF_MAJHAI
_audit_creation_date 2011-03-25
_audit_creation_method CSD-ConQuest-V1
_database_code_CSD MAJHAI
_database_code_depnum_ccdc_archive 'CCDC 772311'
_chemical_formula_sum 'C38 H38 Br5 Hg2 N14 Na1 O6'
_chemical_formula_moiety
;
(C3 H7 N1 O1)2n,n(Br5 Hg2 1-),n(C32 H24 N12 Na1 O4 1+)
;
_journal_coden_Cambridge 580
_journal_volume 29
_journal_year 2010
_journal_page_first 3081
_journal_name_full 'Polyhedron '
loop_
_publ_author_name
"Ta-Pin Tsai"
"Yen-Tsang Huang"
"U.Ray"
"Yin-Jui Cheng"
"Pei-Chi Cheng"
"Chia-Jun Wu"
"Jhy-Der Chen"
"Ju-Chun Wang"
_chemical_name_systematic
;
catena-(bis(\m~2~-N,N'-bis(2-Pyrimidinyl)-1,4-benzenedicarboxamide)-sodium 
(\m~2~-bromo)-tetrabromo-di-mercury(ii) dimethylformamide solvate)
;
_cell_volume   4856.525
_exptl_crystal_colour 'colorless'
_exptl_crystal_density_diffrn 2.203
_exptl_crystal_description 'block'
_diffrn_ambient_temperature 296
_refine_special_details
;
C17,C18,C19,O3 and C17',C18',C19',O3' disordered over two sites with 
occupancies 0.75:0.25.
;
#These two values have been output from a single CSD field.
_refine_ls_R_factor_gt 0.033
_refine_ls_wR_factor_gt 0.033
_symmetry_cell_setting orthorhombic
_symmetry_space_group_name_H-M 'P b c n'
_symmetry_Int_Tables_number 60
loop_
_symmetry_equiv_pos_site_id
_symmetry_equiv_pos_as_xyz
1 x,y,z
2 1/2-x,1/2-y,1/2+z
3 -x,y,1/2-z
4 1/2+x,1/2-y,-z
5 -x,-y,-z
6 -1/2+x,-1/2+y,-1/2-z
7 x,-y,-1/2+z
8 -1/2-x,-1/2+y,z
_cell_length_a 13.6742(6)
_cell_length_b 17.2775(7)
_cell_length_c 20.5562(8)
_cell_angle_alpha 90
_cell_angle_beta 90
_cell_angle_gamma 90
_cell_formula_units_Z 4
loop_
_atom_type_symbol
_atom_type_radius_bond
C 0.68
H 0.23
Br 1.21
Hg 1.32
N 0.68
Na 1.71
O 0.68
loop_
_atom_site_label
_atom_site_type_symbol
_atom_site_fract_x
_atom_site_fract_y
_atom_site_fract_z
Hg1 Hg 0.501363(15) 0.046648(11) 0.609342(11)
Br1 Br 0.44984(4) -0.08319(4) 0.57759(3)
Br2 Br 0.54452(4) 0.18390(3) 0.60233(3)
Br3 Br 0.50000 0.03404(4) 0.75000
O1 O 0.9102(2) -0.05761(16) 0.81150(14)
O2 O 0.5872(2) -0.35844(16) 0.69007(14)
N1 N 0.7555(2) -0.0108(2) 0.82436(17)
H1 H 0.69480 -0.02250 0.81950
N2 N 0.7040(3) 0.0921(2) 0.88547(17)
N3 N 0.8606(3) 0.0947(2) 0.83514(16)
N4 N 0.7426(2) -0.4021(2) 0.67404(17)
H2 H 0.80310 -0.38860 0.67640
N5 N 0.6398(3) -0.5089(2) 0.66419(16)
N6 N 0.7997(3) -0.5066(2) 0.61786(17)
C1 C 0.7216(4) 0.1603(3) 0.9126(2)
H3 H 0.67420 0.18260 0.93900
C2 C 0.8081(4) 0.1986(3) 0.9026(2)
H4 H 0.82080 0.24600 0.92240
C3 C 0.8752(3) 0.1643(3) 0.8622(2)
H5 H 0.93310 0.19040 0.85330
C4 C 0.7759(3) 0.0624(3) 0.8494(2)
C5 C 0.8223(3) -0.0660(3) 0.8067(2)
C6 C 0.7795(3) -0.1394(2) 0.7798(2)
C7 C 0.6866(3) -0.1440(2) 0.7536(2)
H6 H 0.64550 -0.10120 0.75500
C8 C 0.6548(3) -0.2117(3) 0.7253(2)
H7 H 0.59200 -0.21480 0.70820
C9 C 0.7157(3) -0.2747(2) 0.7223(2)
C10 C 0.8101(3) -0.2712(2) 0.7489(2)
H8 H 0.85120 -0.31410 0.74790
C11 C 0.8405(3) -0.2025(3) 0.7765(2)
H9 H 0.90350 -0.19880 0.79320
C12 C 0.6750(4) -0.3480(3) 0.6937(2)
C13 C 0.7238(3) -0.4762(3) 0.6508(2)
C14 C 0.6280(3) -0.5802(3) 0.6391(2)
H10 H 0.56920 -0.60580 0.64640
C15 C 0.6985(3) -0.6165(3) 0.6032(2)
H11 H 0.68850 -0.66550 0.58590
C16 C 0.7849(3) -0.5774(3) 0.5938(2)
H12 H 0.83450 -0.60100 0.57000
N7 N 0.8655(4) -0.8720(3) 0.50543(19)
O3 O 0.8039(4) -0.7634(3) 0.5446(3)
C17 C 0.7900(5) -0.8294(4) 0.5239(3)
H13 H 0.72690 -0.84920 0.52140
C18 C 0.9686(5) -0.8510(7) 0.5074(5)
H14 H 0.97520 -0.79890 0.52310
H15 H 0.99580 -0.85460 0.46450
H16 H 1.00280 -0.88560 0.53600
C19 C 0.8475(7) -0.9519(4) 0.4824(4)
H17 H 0.77950 -0.96430 0.48740
H18 H 0.88620 -0.98740 0.50740
H19 H 0.86520 -0.95580 0.43730
Na1 Na 1.00000 0.04238(13) 0.75000
C20? C 0.8930(14) -0.8048(6) 0.5336(8)
C21? C 0.9591(13) -0.9163(16) 0.5008(13)
C22? C 0.7680(9) -0.8940(13) 0.4795(10)
H20? H 0.96060 -0.80320 0.53830
H21? H 0.94490 -0.97040 0.49570
H22? H 0.99660 -0.90860 0.53970
H23? H 0.99590 -0.89840 0.46400
H24? H 0.74460 -0.93900 0.50200
H25? H 0.77340 -0.90510 0.43390
H26? H 0.72300 -0.85200 0.48580
O4? O 0.8558(13) -0.7446(9) 0.5553(8)
Hg1B Hg 0.498637(15) 0.046648(11) 0.890658(11)
Br1B Br 0.55016(4) -0.08319(4) 0.92241(3)
Br2B Br 0.45548(4) 0.18390(3) 0.89767(3)
O1E O 1.4102(2) 0.44239(16) 0.68850(14)
O1B O 1.0898(2) -0.05761(16) 0.68850(14)
O2E O 1.0872(2) 0.14156(16) 0.80993(14)
O2G O 0.9128(2) 0.14156(16) 0.69007(14)
N1E N 1.2555(2) 0.4892(2) 0.67564(17)
H1E H 1.19480 0.47750 0.68050
N2E N 1.2040(3) 0.5921(2) 0.61453(17)
N3E N 1.3606(3) 0.5947(2) 0.66486(16)
N3B N 1.1394(3) 0.0947(2) 0.66486(16)
N4E N 1.2426(2) 0.0979(2) 0.82596(17)
H2E H 1.30310 0.11140 0.82360
N5E N 1.1398(3) -0.0089(2) 0.83581(16)
N5G N 0.8602(3) -0.0089(2) 0.66419(16)
N6E N 1.2997(3) -0.0066(2) 0.88214(17)
C1E C 1.2216(4) 0.6603(3) 0.5874(2)
H3E H 1.17420 0.68260 0.56100
C2E C 1.3081(4) 0.6986(3) 0.5974(2)
H4E H 1.32080 0.74600 0.57760
C3E C 1.3752(3) 0.6643(3) 0.6378(2)
H5E H 1.43310 0.69040 0.64670
C4E C 1.2759(3) 0.5624(3) 0.6506(2)
C5E C 1.3223(3) 0.4340(3) 0.6933(2)
C6E C 1.2795(3) 0.3606(2) 0.7202(2)
C7E C 1.1866(3) 0.3560(2) 0.7464(2)
H6E H 1.14550 0.39880 0.74500
C8E C 1.1548(3) 0.2883(3) 0.7747(2)
H7E H 1.09200 0.28520 0.79180
C9E C 1.2157(3) 0.2253(2) 0.7777(2)
C10E C 1.3101(3) 0.2288(2) 0.7511(2)
H8E H 1.35120 0.18590 0.75210
C11E C 1.3405(3) 0.2975(3) 0.7235(2)
H9E H 1.40350 0.30120 0.70680
C12E C 1.1750(4) 0.1520(3) 0.8063(2)
C13E C 1.2238(3) 0.0238(3) 0.8492(2)
C14E C 1.1280(3) -0.0802(3) 0.8609(2)
H10E H 1.06920 -0.10580 0.85360
C15E C 1.1985(3) -0.1165(3) 0.8968(2)
H11E H 1.18850 -0.16550 0.91410
C16E C 1.2849(3) -0.0774(3) 0.9062(2)
H12E H 1.33450 -0.10100 0.93000
Na1E Na 0.50000 -0.45762(13) 0.75000
Na1E* Na 1.50000 0.54238(13) 0.75000
#END
