
#######################################################################
#
#                 Cambridge Crystallographic Data Centre
#                                CCDC
#
#######################################################################
#
# If this CIF has been generated from an entry in the Cambridge
# Structural Database, then it will include bibliographic, chemical,
# crystal, experimental, refinement or atomic coordinate data resulting
# from the CCDC's data processing and validation procedures.
#
#######################################################################

data_CSD_CIF_MAJMOA05
_audit_creation_date 2018-03-07
_audit_creation_method CSD-ConQuest-V1
_database_code_CSD MAJMOA05
_database_code_depnum_ccdc_archive 'CCDC 1571858'
_chemical_formula_sum 'C4 H9 Co1 N1 O6'
_chemical_formula_moiety
;
(C3 H3 Co1 O6 1-)n,n(C1 H6 N1 1+)
;
_journal_coden_Cambridge 1220
_journal_volume 24
_journal_year 2018
_journal_page_first 388
_journal_name_full 'Chem.-Eur.J. '
loop_
_publ_author_name
"L.Mazzuca"
"L.Canadillas-Delgado"
"O.Fabelo"
"J.Alberto Rodriguez-Velamazan"
"J.Luzon"
"O.Vallcorba"
"V.Simonet"
"C.V.Colin"
"J.Rodriguez-Carvajal"
_chemical_name_systematic
;
catena-(methylammonium tris(\m-formato)-cobalt)
;
_cell_volume    799.336
_exptl_crystal_colour 'red'
_exptl_crystal_density_diffrn 1.878
_exptl_special_details
;
Pnma polymorph

;
_exptl_crystal_description 'prism'
_diffrn_ambient_temperature 293
_diffrn_radiation_probe x-ray
_diffrn_source synchrotron
#These two values have been output from a single CSD field.
_refine_ls_R_factor_gt 0.0289
_refine_ls_wR_factor_gt 0.0289
_symmetry_cell_setting orthorhombic
_symmetry_space_group_name_H-M 'P n m a'
_symmetry_Int_Tables_number 62
loop_
_symmetry_equiv_pos_site_id
_symmetry_equiv_pos_as_xyz
1 x,y,z
2 1/2-x,-y,1/2+z
3 1/2+x,1/2-y,1/2-z
4 -x,1/2+y,-z
5 -x,-y,-z
6 -1/2+x,y,-1/2-z
7 -1/2-x,-1/2+y,-1/2+z
8 x,-1/2-y,z
_cell_length_a 8.4077(1)
_cell_length_b 11.7215(4)
_cell_length_c 8.1109(1)
_cell_angle_alpha 90
_cell_angle_beta 90
_cell_angle_gamma 90
_cell_formula_units_Z 4
loop_
_atom_type_symbol
_atom_type_radius_bond
C 0.68
H 0.23
Co 1.26
N 0.68
O 0.68
loop_
_atom_site_label
_atom_site_type_symbol
_atom_site_fract_x
_atom_site_fract_y
_atom_site_fract_z
C1 C 0.72083(10) -0.02918(10) 0.28012(10)
H1 H 0.77590 0.02700 0.22270
C2 C 0.48792(12) 0.25000 0.05558(14)
H2 H 0.51330 0.25000 -0.05600
Co1 Co 0.50000 0.00000 0.00000
O1 O 0.59751(7) -0.06784(6) 0.21627(7)
O2 O 0.77647(7) -0.06066(6) 0.41703(7)
O3 O 0.47190(9) 0.15580(7) 0.12585(8)
C3 C 1.0825(3) 0.25000 -0.0217(3)
N1 N 0.9141(2) 0.25000 0.02871(18)
H3? H 0.86280 0.30560 -0.02380
H4? H 0.87030 0.18310 0.00340
H5? H 0.90760 0.26130 0.13700
H6? H 1.12580 0.17480 -0.00850
H7? H 1.14090 0.30270 0.04560
H8? H 1.09040 0.27250 -0.13520
O3G O 0.47190(9) 0.34420(7) 0.12585(8)
C1D C 0.27917(10) 0.02918(10) -0.28012(10)
H1D H 0.22410 -0.02700 -0.22270
O1D O 0.40249(7) 0.06784(6) -0.21627(7)
O2D O 0.22353(7) 0.06066(6) -0.41703(7)
Co1A Co 0.00000 0.00000 -0.50000
Co1A* Co 1.00000 0.00000 0.50000
Co1C Co 0.50000 0.50000 0.00000
O2A O 0.72353(7) 0.06066(6) -0.08297(7)
O2E O 0.27647(7) -0.06066(6) 0.08297(7)
O3D O 0.52810(9) -0.15580(7) -0.12585(8)
#END
