
#######################################################################
#
#                 Cambridge Crystallographic Data Centre
#                                CCDC
#
#######################################################################
#
# If this CIF has been generated from an entry in the Cambridge
# Structural Database, then it will include bibliographic, chemical,
# crystal, experimental, refinement or atomic coordinate data resulting
# from the CCDC's data processing and validation procedures.
#
#######################################################################

data_CSD_CIF_MAJMOA
_audit_creation_date 2005-01-17
_audit_creation_method CSD-ConQuest-V1
_database_code_CSD MAJMOA
_database_code_depnum_ccdc_archive 'CCDC 259018'
_chemical_formula_sum 'C4 H9 Co1 N1 O6'
_chemical_formula_moiety
;
(C3 H3 Co1 O6 1-)n,n(C1 H6 N1 1+)
;
_journal_coeditor_code "IUCr AV1205"
_journal_coden_Cambridge 591
_journal_volume 60
_journal_year 2004
_journal_page_first m631
_journal_name_full 'Acta Crystallogr.,Sect.C:Cryst.Struct.Commun. '
loop_
_publ_author_name
"M.Boca"
"I.Svoboda"
"F.Renz"
"H.Fuess"
_chemical_name_systematic
;
catena-(methylammonium tris(\m~2~-formato)-cobalt(ii))
;
_cell_volume    798.141
_exptl_crystal_colour 'brown'
_exptl_crystal_density_diffrn 1.881
_exptl_special_details
;
Pnma polymorph

;
_exptl_crystal_description 'cube'
_exptl_crystal_preparation 'methyl formamide'
_diffrn_ambient_temperature 300
#These two values have been output from a single CSD field.
_refine_ls_R_factor_gt 0.0494
_refine_ls_wR_factor_gt 0.0494
_symmetry_cell_setting orthorhombic
_symmetry_space_group_name_H-M 'P n m a'
_symmetry_Int_Tables_number 62
loop_
_symmetry_equiv_pos_site_id
_symmetry_equiv_pos_as_xyz
1 x,y,z
2 1/2-x,-y,1/2+z
3 1/2+x,1/2-y,1/2-z
4 -x,1/2+y,-z
5 -x,-y,-z
6 -1/2+x,y,-1/2-z
7 -1/2-x,-1/2+y,-1/2+z
8 x,-1/2-y,z
_cell_length_a 8.4069(9)
_cell_length_b 11.710(1)
_cell_length_c 8.1075(9)
_cell_angle_alpha 90
_cell_angle_beta 90
_cell_angle_gamma 90
_cell_formula_units_Z 4
loop_
_atom_type_symbol
_atom_type_radius_bond
C 0.68
H 0.23
Co 1.33
N 0.68
O 0.68
loop_
_atom_site_label
_atom_site_type_symbol
_atom_site_fract_x
_atom_site_fract_y
_atom_site_fract_z
C1 C 0.2788(5) 0.5293(4) 0.2195(5)
H1 H 0.235(5) 0.463(4) 0.272(5)
C2 C 0.0122(6) 0.25000 0.0550(8)
H2 H -0.009(6) 0.25000 -0.064(9)
O1 O 0.2231(3) 0.5606(2) 0.0834(3)
O2 O 0.4025(3) 0.5676(2) 0.2835(3)
O3 O 0.0283(3) 0.3440(2) 0.1260(3)
Co1 Co 0.00000 0.50000 0.00000
C3 C 0.4218(10) 0.25000 -0.0204(9)
H3 H 0.3710(17) 0.1870(4) 0.022(2)
H4 H 0.413(3) 0.25000 -0.1329(15)
N1 N 0.5835(7) 0.25000 0.0277(6)
H5 H 0.636(5) 0.187(3) 0.001(5)
H6 H 0.593(7) 0.25000 0.1368(17)
O3G O 0.0283(3) 0.1560(2) 0.1260(3)
C1D C -0.2788(5) 0.4707(4) -0.2195(5)
H1D H -0.235(5) 0.537(4) -0.272(5)
O1D O -0.2231(3) 0.4394(2) -0.0834(3)
O2D O -0.4025(3) 0.4324(2) -0.2835(3)
Co1E Co 0.50000 0.50000 0.50000
O2E O -0.0975(3) 0.5676(2) 0.2165(3)
O2A O 0.0975(3) 0.4324(2) -0.2165(3)
O3D O -0.0283(3) 0.6560(2) -0.1260(3)
Co1G Co 0.00000 0.00000 0.00000
Co1E* Co -0.50000 0.50000 -0.50000
H3G H 0.3710(17) 0.3130(4) 0.022(2)
H5G H 0.636(5) 0.313(3) 0.001(5)
#END
