
#######################################################################
#
#                 Cambridge Crystallographic Data Centre
#                                CCDC
#
#######################################################################
#
# If this CIF has been generated from an entry in the Cambridge
# Structural Database, then it will include bibliographic, chemical,
# crystal, experimental, refinement or atomic coordinate data resulting
# from the CCDC's data processing and validation procedures.
#
#######################################################################

data_CSD_CIF_MAJMOA03
_audit_creation_date 2018-03-07
_audit_creation_method CSD-ConQuest-V1
_database_code_CSD MAJMOA03
_database_code_depnum_ccdc_archive 'CCDC 1571855'
_chemical_formula_sum 'C4 H9 Co1 N1 O6'
_chemical_formula_moiety
;
(C3 H3 Co1 O6 1-)n,n(C1 H6 N1 1+)
;
_journal_coden_Cambridge 1220
_journal_volume 24
_journal_year 2018
_journal_page_first 388
_journal_name_full 'Chem.-Eur.J. '
loop_
_publ_author_name
"L.Mazzuca"
"L.Canadillas-Delgado"
"O.Fabelo"
"J.Alberto Rodriguez-Velamazan"
"J.Luzon"
"O.Vallcorba"
"V.Simonet"
"C.V.Colin"
"J.Rodriguez-Carvajal"
_chemical_name_systematic
;
catena-(methylammonium tris(\m-formato)-cobalt)
;
_cell_volume    797.399
_exptl_crystal_colour 'red'
_exptl_crystal_density_diffrn 1.883
_exptl_special_details
;
Pnma polymorph

;
_exptl_crystal_description 'prism'
_diffrn_ambient_temperature 293
_diffrn_radiation_probe 'neutron'
#These two values have been output from a single CSD field.
_refine_ls_R_factor_gt 0.0502
_refine_ls_wR_factor_gt 0.0502
_symmetry_cell_setting orthorhombic
_symmetry_space_group_name_H-M 'P n m a'
_symmetry_Int_Tables_number 62
loop_
_symmetry_equiv_pos_site_id
_symmetry_equiv_pos_as_xyz
1 x,y,z
2 1/2-x,-y,1/2+z
3 -x,1/2+y,-z
4 1/2+x,1/2-y,1/2-z
5 -x,-y,-z
6 -1/2+x,y,-1/2-z
7 x,-1/2-y,z
8 -1/2-x,-1/2+y,-1/2+z
_cell_length_a 8.3940(2)
_cell_length_b 11.7181(3)
_cell_length_c 8.1068(2)
_cell_angle_alpha 90
_cell_angle_beta 90
_cell_angle_gamma 90
_cell_formula_units_Z 4
loop_
_atom_type_symbol
_atom_type_radius_bond
C 0.68
H 0.23
Co 1.26
N 0.68
O 0.68
loop_
_atom_site_label
_atom_site_type_symbol
_atom_site_fract_x
_atom_site_fract_y
_atom_site_fract_z
C1 C 0.72074(7) -0.02930(5) 0.28009(7)
C2 C 0.48802(10) 0.25000 0.05531(9)
Co1 Co 0.50000 0.00000 0.00000
O1 O 0.59752(9) -0.06816(6) 0.21645(8)
O2 O 0.77640(8) -0.06056(6) 0.41681(8)
O3 O 0.47205(10) 0.15576(6) 0.12594(8)
H1 H 0.7870(4) 0.0356(3) 0.2132(3)
H2 H 0.5177(6) 0.25000 -0.0762(3)
C3 C 1.08215(17) 0.25000 -0.0226(2)
N1 N 0.91405(10) 0.25000 0.02924(9)
H3 H 0.9084(5) 0.25000 0.1558(4)
H4 H 0.8530(3) 0.32094(18) -0.0137(3)
H5? H 1.0872(8) 0.238(3) -0.1502(8)
H6? H 1.146(2) 0.1899(19) 0.044(3)
H7? H 1.132(3) 0.3325(17) 0.001(3)
O3F O 0.47205(10) 0.34424(6) 0.12594(8)
C1D C 0.27926(7) 0.02930(5) -0.28009(7)
O1D O 0.40248(9) 0.06816(6) -0.21645(8)
O2D O 0.22360(8) 0.06056(6) -0.41681(8)
H1D H 0.2130(4) -0.0356(3) -0.2132(3)
Co1A Co 0.00000 0.00000 -0.50000
Co1A* Co 1.00000 0.00000 0.50000
Co1B Co 0.50000 0.50000 0.00000
O2A O 0.72360(8) 0.06056(6) -0.08319(8)
O2E O 0.27640(8) -0.06056(6) 0.08319(8)
O3D O 0.52795(10) -0.15576(6) -0.12594(8)
H4F H 0.8530(3) 0.17906(18) -0.0137(3)
#END
