
#######################################################################
#
#                 Cambridge Crystallographic Data Centre
#                                CCDC
#
#######################################################################
#
# If this CIF has been generated from an entry in the Cambridge
# Structural Database, then it will include bibliographic, chemical,
# crystal, experimental, refinement or atomic coordinate data resulting
# from the CCDC's data processing and validation procedures.
#
#######################################################################

data_CSD_CIF_MAJMOA08
_audit_creation_date 2018-12-19
_audit_creation_method CSD-ConQuest-V1
_database_code_CSD MAJMOA08
_database_code_depnum_ccdc_archive 'CCDC 1874921'
_chemical_formula_sum 'C4 H9 Co1 N1 O6'
_chemical_formula_moiety
;
(C3 H3 Co1 O6 1-)n,C1 H6 N1 1+
;
_journal_coeditor_code "lt5013"
_journal_coden_Cambridge 1742
_journal_volume 6
_journal_year 2019
_journal_page_first 105
_journal_name_full 'IUCrJ '
loop_
_publ_author_name
"L.Canadillas-Delgado"
"L.Mazzuca"
"O.Fabelo"
"J.A.Rodriguez-Velamazan"
"J.Rodriguez-Carvajal"
_chemical_name_systematic
;
catena-(methylammonium tris(\m-formato)-cobalt(ii))
;
_cell_volume    784.053
_exptl_crystal_colour 'red'
_exptl_crystal_density_diffrn 1.915
_exptl_special_details
;
Pnma polymorph

;
_exptl_crystal_description 'prism'
_diffrn_ambient_temperature 106
_diffrn_radiation_probe 'neutron'
#These two values have been output from a single CSD field.
_refine_ls_R_factor_gt 0.0836
_refine_ls_wR_factor_gt 0.0836
_symmetry_cell_setting orthorhombic
_symmetry_space_group_name_H-M 'P n m a'
_symmetry_Int_Tables_number 62
loop_
_symmetry_equiv_pos_site_id
_symmetry_equiv_pos_as_xyz
1 x,y,z
2 1/2-x,-y,1/2+z
3 -x,1/2+y,-z
4 1/2+x,1/2-y,1/2-z
5 -x,-y,-z
6 -1/2+x,y,-1/2-z
7 x,-1/2-y,z
8 -1/2-x,-1/2+y,-1/2+z
_cell_length_a 8.2556(2)
_cell_length_b 11.6519(3)
_cell_length_c 8.1508(3)
_cell_angle_alpha 90
_cell_angle_beta 90
_cell_angle_gamma 90
_cell_formula_units_Z 4
loop_
_atom_type_symbol
_atom_type_radius_bond
C 0.68
H 0.23
Co 1.26
N 0.68
O 0.68
loop_
_atom_site_label
_atom_site_type_symbol
_atom_site_fract_x
_atom_site_fract_y
_atom_site_fract_z
Co1 Co 0.50000 0.00000 0.00000
O1 O 0.59580(13) -0.07083(9) -0.21413(13)
O2 O 0.77265(13) -0.05973(9) -0.41846(12)
O3 O 0.47451(14) 0.15486(9) -0.12793(12)
C1 C 0.71984(12) -0.02973(9) -0.27964(12)
C2 C 0.49064(17) 0.25000 -0.05694(17)
H1 H 0.7884(3) 0.0342(2) -0.2126(3)
H2 H 0.5192(5) 0.25000 0.0748(4)
N1 N 0.91509(12) 0.25000 -0.03026(13)
C3 C 1.08639(17) 0.25000 0.0242(2)
H3 H 0.9124(4) 0.25000 -0.1553(4)
H4 H 1.0895(4) 0.25000 0.1559(5)
H5 H 0.8547(3) 0.17859(19) 0.0128(3)
H6 H 1.1454(4) 0.3244(3) -0.0196(4)
O3F O 0.47451(14) 0.34514(9) -0.12793(12)
O1D O 0.40420(13) 0.07083(9) 0.21413(13)
O2D O 0.22735(13) 0.05973(9) 0.41846(12)
C1D C 0.28016(12) 0.02973(9) 0.27964(12)
H1D H 0.2116(3) -0.0342(2) 0.2126(3)
Co1A Co 0.00000 0.00000 0.50000
Co1A* Co 1.00000 0.00000 -0.50000
Co1B Co 0.50000 0.50000 0.00000
O2A O 0.72735(13) 0.05973(9) 0.08154(12)
O2E O 0.27265(13) -0.05973(9) -0.08154(12)
O3D O 0.52549(14) -0.15486(9) 0.12793(12)
H5F H 0.8547(3) 0.32141(19) 0.0128(3)
H6F H 1.1454(4) 0.1756(3) -0.0196(4)
#END
