
#######################################################################
#
#                 Cambridge Crystallographic Data Centre
#                                CCDC
#
#######################################################################
#
# If this CIF has been generated from an entry in the Cambridge
# Structural Database, then it will include bibliographic, chemical,
# crystal, experimental, refinement or atomic coordinate data resulting
# from the CCDC's data processing and validation procedures.
#
#######################################################################

data_CSD_CIF_MAJMOA10
_audit_creation_date 2020-11-16
_audit_creation_method CSD-ConQuest-V1
_database_code_CSD MAJMOA10
_database_code_depnum_ccdc_archive 'CCDC 1937183'
_chemical_formula_sum 'C4 H9 Co1 N1 O6'
_chemical_formula_moiety
;
C1 H6 N1 1+,n(C3 H3 Co1 O6 1-)
;
_journal_coden_Cambridge 1660
_journal_volume 36
_journal_year 2020
_journal_page_first 1907012
_journal_name_full 'Acta Physico-Chimica Sinica '
loop_
_publ_author_name
"Sa Chen"
"Ran Shang"
"Bingwu Wang"
"Zheming Wang"
"Song Gao"
_chemical_name_systematic
;
catena-[Methylammonium tris(\m~2~-formato-O,O')-cobalt(ii)]
;
_cell_volume    789.797
_exptl_crystal_colour 'pink'
_exptl_crystal_density_diffrn 1.901
_exptl_crystal_description 'block'
_diffrn_ambient_temperature 180
#These two values have been output from a single CSD field.
_refine_ls_R_factor_gt 0.0192
_refine_ls_wR_factor_gt 0.0192
_symmetry_cell_setting orthorhombic
_symmetry_space_group_name_H-M 'P n m a'
_symmetry_Int_Tables_number 62
loop_
_symmetry_equiv_pos_site_id
_symmetry_equiv_pos_as_xyz
1 x,y,z
2 1/2-x,-y,1/2+z
3 -x,1/2+y,-z
4 1/2+x,1/2-y,1/2-z
5 -x,-y,-z
6 -1/2+x,y,-1/2-z
7 x,-1/2-y,z
8 -1/2-x,-1/2+y,-1/2+z
_cell_length_a 8.3039(4)
_cell_length_b 11.6806(6)
_cell_length_c 8.1427(4)
_cell_angle_alpha 90
_cell_angle_beta 90
_cell_angle_gamma 90
_cell_formula_units_Z 4
loop_
_atom_type_symbol
_atom_type_radius_bond
C 0.68
H 0.23
Co 1.26
N 0.68
O 0.68
loop_
_atom_site_label
_atom_site_type_symbol
_atom_site_fract_x
_atom_site_fract_y
_atom_site_fract_z
Co1 Co 0.00000 0.50000 0.00000
O1 O 0.09669(10) 0.56978(7) 0.21474(10)
O2 O 0.27385(10) 0.55998(8) 0.41801(10)
O3 O -0.02630(11) 0.34469(7) 0.12704(11)
C1 C 0.22007(14) 0.52976(11) 0.27956(14)
H1 H 0.27770 0.47260 0.22100
C2 C -0.01047(19) 0.25000 0.0565(2)
H2 H 0.01510 0.25000 -0.05720
C3 C -0.0846(3) 0.75000 0.4771(3)
N1 N 0.0855(2) 0.75000 0.5298(2)
H3 H 0.088(3) 0.75000 0.6405(18)
H4 H 0.137(2) 0.6861(7) 0.4914(18)
H5 H -0.091(3) 0.75000 0.3587(18)
H6 H -0.135(2) 0.6829(7) 0.5191(18)
O3F O -0.02630(11) 0.15531(7) 0.12704(11)
O1D O -0.09669(10) 0.43022(7) -0.21474(10)
O2D O -0.27385(10) 0.44002(8) -0.41801(10)
C1D C -0.22007(14) 0.47024(11) -0.27956(14)
H1D H -0.27770 0.52740 -0.22100
Co1A Co -0.50000 0.50000 -0.50000
Co1A* Co 0.50000 0.50000 0.50000
Co1B Co 0.00000 0.00000 0.00000
O2A O 0.22615(10) 0.44002(8) -0.08199(10)
O2E O -0.22615(10) 0.55998(8) 0.08199(10)
O3D O 0.02630(11) 0.65531(7) -0.12704(11)
H4F H 0.137(2) 0.8139(7) 0.4914(18)
H6F H -0.135(2) 0.8171(7) 0.5191(18)
#END
