
#######################################################################
#
#                 Cambridge Crystallographic Data Centre
#                                CCDC
#
#######################################################################
#
# If this CIF has been generated from an entry in the Cambridge
# Structural Database, then it will include bibliographic, chemical,
# crystal, experimental, refinement or atomic coordinate data resulting
# from the CCDC's data processing and validation procedures.
#
#######################################################################

data_CSD_CIF_MAJMOA04
_audit_creation_date 2018-03-07
_audit_creation_method CSD-ConQuest-V1
_database_code_CSD MAJMOA04
_database_code_depnum_ccdc_archive 'CCDC 1571857'
_chemical_formula_sum 'C4 H9 Co1 N1 O6'
_chemical_formula_moiety
;
(C3 H3 Co1 O6 1-)n,n(C1 H6 N1 1+)
;
_journal_coden_Cambridge 1220
_journal_volume 24
_journal_year 2018
_journal_page_first 388
_journal_name_full 'Chem.-Eur.J. '
loop_
_publ_author_name
"L.Mazzuca"
"L.Canadillas-Delgado"
"O.Fabelo"
"J.Alberto Rodriguez-Velamazan"
"J.Luzon"
"O.Vallcorba"
"V.Simonet"
"C.V.Colin"
"J.Rodriguez-Carvajal"
_chemical_name_systematic
;
catena-(methylammonium tris(\m-formato)-cobalt)
;
_cell_volume    788.849
_exptl_crystal_colour 'red'
_exptl_crystal_density_diffrn 1.903
_exptl_special_details
;
P21/n polymorph

;
_exptl_crystal_description 'prism'
_diffrn_ambient_temperature 45
_diffrn_radiation_probe x-ray
_diffrn_source synchrotron
#These two values have been output from a single CSD field.
_refine_ls_R_factor_gt 0.0415
_refine_ls_wR_factor_gt 0.0415
_symmetry_cell_setting monoclinic
_symmetry_space_group_name_H-M 'P 21/n'
_symmetry_Int_Tables_number 14
loop_
_symmetry_equiv_pos_site_id
_symmetry_equiv_pos_as_xyz
1 x,y,z
2 1/2-x,1/2+y,1/2-z
3 -x,-y,-z
4 -1/2+x,-1/2-y,-1/2+z
_cell_length_a 8.1750(3)
_cell_length_b 8.2710(3)
_cell_length_c 11.6730(5)
_cell_angle_alpha 90
_cell_angle_beta 91.883(3)
_cell_angle_gamma 90
_cell_formula_units_Z 4
loop_
_atom_type_symbol
_atom_type_radius_bond
C 0.68
H 0.23
Co 1.26
N 0.68
O 0.68
loop_
_atom_site_label
_atom_site_type_symbol
_atom_site_fract_x
_atom_site_fract_y
_atom_site_fract_z
Co1 Co 0.00000 0.50000 0.00000
O1 O 0.2147(2) 0.4014(2) 0.07504(13)
O2 O -0.0851(2) 0.2732(2) -0.05869(13)
O3 O 0.1272(2) 0.5215(2) -0.15233(13)
C1 C 0.2813(3) 0.2805(3) 0.03141(18)
C2 C -0.2231(3) 0.2201(3) -0.02925(18)
C3 C 0.0572(3) 0.5090(3) -0.24874(18)
H1 H 0.22340 0.22570 -0.02650
O4 O 0.4223(2) 0.2281(2) 0.06094(13)
O5 O -0.2871(2) 0.0934(2) -0.06719(13)
H2 H -0.28020 0.27960 0.02400
H3 H -0.05370 0.48370 -0.25200
O6 O 0.1291(2) 0.5288(2) -0.34233(13)
Co2 Co 0.50000 0.00000 0.00000
N1 N 0.5304(2) 0.4159(2) 0.25692(16)
H4 H 0.63870 0.41310 0.26690
H5 H 0.50170 0.36640 0.19160
H6 H 0.48420 0.36600 0.31510
C4 C 0.4745(3) 0.5867(3) 0.2521(2)
H7 H 0.50540 0.64010 0.32250
H8 H 0.35760 0.58970 0.24120
H9 H 0.52440 0.64060 0.18930
O1B O -0.2147(2) 0.5986(2) -0.07504(13)
O2B O 0.0851(2) 0.7268(2) 0.05869(13)
O3B O -0.1272(2) 0.4785(2) 0.15233(13)
Co2* Co -0.50000 0.00000 0.00000
Co2A Co 0.00000 0.50000 -0.50000
#END
