
#######################################################################
#
#                 Cambridge Crystallographic Data Centre
#                                CCDC
#
#######################################################################
#
# If this CIF has been generated from an entry in the Cambridge
# Structural Database, then it will include bibliographic, chemical,
# crystal, experimental, refinement or atomic coordinate data resulting
# from the CCDC's data processing and validation procedures.
#
#######################################################################

data_CSD_CIF_MAKFIQ
_audit_creation_date 2016-03-01
_audit_creation_method CSD-ConQuest-V1
_database_code_CSD MAKFIQ
_database_code_depnum_ccdc_archive 'CCDC 1400776'
_chemical_formula_sum 'C57 H70 Eu3 N11 O36'
_chemical_formula_moiety
;
(C52 H25 Eu3 N9 O20 1-)n,n(C2 H8 N1 1+),15n(H2 O1),n(C3 H7 N1 O1)
;
_journal_coden_Cambridge 1147
_journal_volume 16
_journal_year 2016
_journal_page_first 2266
_journal_name_full 'Cryst.Growth Des. '
loop_
_publ_author_name
"Yan Yang"
"Feilong Jiang"
"Caiping Liu"
"Lian Chen"
"Yanli Gai"
"Jiandong Pang"
"Kongzhao Su"
"Xiuyan Wan"
"Maochun Hong"
_chemical_name_systematic
;
catena-[dimethylammonium 
tris(\m-5-(5-(4-carboxyphenyl)-1,2,4-triazol-3-yl)isophthalato)-(\m-formato)-e
uropium N,N-dimethylformamide pentadecahydrate]
;
_cell_volume   4028.570
_exptl_crystal_colour 'yellow'
_exptl_crystal_description 'block'
_diffrn_ambient_temperature 100
_refine_special_details
;
Disordered N,N-dimethylformamide solvent and water molecules were not 
modelled and the disordered density was taken into account using the 
SQUEEZE/PLATON procedure.
;
#These two values have been output from a single CSD field.
_refine_ls_R_factor_gt 0.0652
_refine_ls_wR_factor_gt 0.0652
_symmetry_cell_setting triclinic
_symmetry_space_group_name_H-M 'P -1'
_symmetry_Int_Tables_number 2
loop_
_symmetry_equiv_pos_site_id
_symmetry_equiv_pos_as_xyz
1 x,y,z
2 -x,-y,-z
_cell_length_a 15.1321(6)
_cell_length_b 16.9762(4)
_cell_length_c 17.0413(6)
_cell_angle_alpha 110.922(3)
_cell_angle_beta 93.255(3)
_cell_angle_gamma 97.511(3)
_cell_formula_units_Z 2
loop_
_atom_type_symbol
_atom_type_radius_bond
C 0.68
H 0.23
Eu 1.98
N 0.68
O 0.68
loop_
_atom_site_label
_atom_site_type_symbol
_atom_site_fract_x
_atom_site_fract_y
_atom_site_fract_z
Eu1 Eu 1.05785(3) 0.62127(2) 0.52860(2)
Eu2 Eu 0.94761(3) 0.97034(2) 0.88081(2)
Eu3 Eu 1.00793(3) 0.86027(2) 0.64410(2)
O1 O 1.9186(3) 1.2476(3) 1.3351(3)
O2 O 0.9261(3) 0.8344(3) 0.7505(3)
O3 O 1.8206(3) 1.0382(3) 0.9410(3)
O4 O 0.8813(4) 1.2759(3) 0.5242(3)
O5 O 1.9208(3) 1.0355(3) 1.0387(3)
O6 O 0.0565(3) 0.2869(3) 0.4668(3)
O7 O 1.0687(3) 0.9696(3) 0.7897(3)
O8 O 0.9207(3) 0.5372(3) 0.5355(3)
O9 O 0.8966(4) 1.0193(3) 0.7756(3)
O10 O 0.8141(3) 0.4372(3) 0.5395(3)
O11 O 0.9994(3) 1.5600(3) 1.3828(3)
O12 O 1.0748(4) 1.1500(4) 1.0727(3)
O13 O 1.0089(4) 1.1176(3) 0.9396(3)
O14 O 0.8036(3) 0.8683(3) 0.8086(3)
O15 O 0.1416(4) 0.1861(3) 0.4314(4)
O16 O 1.7986(3) 1.3043(3) 1.3706(3)
O17 O 0.9299(4) 1.1506(3) 0.4785(3)
O18 O 0.9299(4) 1.4258(3) 1.3550(3)
O19 O 1.1600(4) 0.9385(4) 0.6899(3)
O20 O 0.9570(4) 0.9849(3) 0.6534(3)
N1 N 1.5261(4) 1.1219(5) 1.0213(4)
C1 C 0.9593(6) 1.4855(4) 1.3329(4)
N2 N 0.5196(5) 0.5193(5) 0.6203(5)
C2 C 1.0458(5) 1.1697(5) 1.0130(4)
H1 H 1.05170 1.22900 1.02280
C3 C 0.9064(5) 1.1168(4) 0.7047(4)
C4 C 0.9028(5) 1.2111(4) 0.5354(4)
C5 C 1.7945(5) 1.2109(4) 1.2275(4)
C6 C 0.8953(5) 1.2013(4) 0.6182(4)
C7 C 0.8840(6) 1.2712(5) 0.6890(4)
H2 H 0.87660 1.32400 0.68410
C8 C 1.8032(5) 1.1181(5) 1.0834(4)
C9 C 0.8441(5) 0.8149(5) 0.7597(5)
C10 C 1.1485(5) 0.9767(4) 0.7657(4)
C11 C 0.9194(5) 1.0351(4) 0.7127(4)
C12 C 0.9079(5) 1.1253(4) 0.6273(4)
H3 H 0.91780 1.07840 0.57940
C13 C 0.8837(6) 1.2621(5) 0.7676(4)
C14 C 0.7996(5) 0.5821(5) 0.6163(5)
C15 C 0.8437(5) 0.6636(4) 0.6656(4)
H4 H 0.90690 0.67680 0.66770
C16 C 1.8382(5) 1.2568(4) 1.3158(4)
C17 C 0.7962(5) 0.7255(5) 0.7117(5)
C18 C 0.8926(5) 1.1854(4) 0.7753(4)
H5 H 0.88930 1.17930 0.82840
C19 C 1.8512(5) 1.0602(4) 1.0169(4)
C20 C 0.8480(5) 0.5155(4) 0.5611(4)
C21 C 1.8440(5) 1.1645(5) 1.1648(4)
H6 H 1.90580 1.16480 1.17830
C22 C 1.2269(5) 1.0265(5) 0.8291(5)
C23 C 0.1325(5) 0.2617(5) 0.4718(5)
C24 C 1.7146(5) 1.1209(5) 1.0634(5)
H7 H 1.68710 1.09030 1.00720
C25 C 0.7088(6) 0.5610(5) 0.6178(5)
H8 H 0.67880 0.50450 0.58650
C26 C 1.2129(5) 1.0830(5) 0.9095(5)
H9 H 1.15440 1.09560 0.92010
C27 C 0.2006(6) 0.4049(5) 0.5801(5)
H10 H 0.14200 0.41450 0.59380
C28 C 1.3137(6) 1.0149(6) 0.8128(5)
H11 H 1.32460 0.98070 0.75760
C29 C 1.7043(5) 1.2125(5) 1.2061(5)
H12 H 1.67030 1.24420 1.24800
C30 C 0.2983(6) 0.3096(5) 0.5093(6)
H13 H 0.30730 0.25450 0.47360
C31 C 0.2118(6) 0.3258(5) 0.5228(5)
C32 C 1.2836(6) 1.1204(5) 0.9734(5)
H14 H 1.27310 1.15580 1.02820
C33 C 0.7046(5) 0.7051(5) 0.7121(6)
H15 H 0.67180 0.74730 0.74420
C34 C 0.8792(7) 1.3388(5) 0.8452(5)
N3 N 1.4348(7) 1.1971(8) 1.1006(6)
C35 C 0.2717(6) 0.4697(6) 0.6175(6)
H16 H 0.26230 0.52420 0.65450
N4 N 0.8967(7) 1.3347(6) 0.9235(5)
C36 C 1.6643(6) 1.1679(6) 1.1241(5)
C37 C 0.6611(6) 0.6231(5) 0.6657(6)
C38 C 1.3846(6) 1.0519(6) 0.8753(6)
H17 H 1.44340 1.04110 0.86350
C39 C 0.3571(6) 0.4539(6) 0.6000(6)
N5 N 0.5070(6) 0.6484(6) 0.7044(8)
N6 N 1.5149(6) 1.2126(7) 1.1482(6)
C40 C 1.5701(6) 1.1686(7) 1.0989(6)
C41 C 0.5637(6) 0.5970(6) 0.6647(7)
N7 N 0.4246(6) 0.6014(6) 0.6885(8)
C42 C 1.3703(6) 1.1054(6) 0.9563(6)
C43 C 1.4442(6) 1.1408(7) 1.0249(6)
C44 C 0.4335(6) 0.5240(6) 0.6367(7)
N8 N 0.8624(8) 1.4109(7) 0.8489(7)
C45 C 0.3720(6) 0.3733(6) 0.5475(6)
H18 H 0.43120 0.36220 0.53810
C46 C 0.9400(8) 1.5353(7) 1.2115(7)
H19 H 0.95040 1.59330 1.24910
C47 C 0.9433(7) 1.4706(6) 1.2432(7)
C48 C 0.9223(9) 1.5163(7) 1.1282(6)
H20 H 0.92070 1.56180 1.10840
N9 N 0.8650(8) 1.4584(7) 0.9360(7)
C49 C 0.8870(9) 1.4135(8) 0.9757(7)
C50 C 0.9058(9) 1.4318(7) 1.0689(7)
C51 C 0.9227(11) 1.3861(7) 1.1868(7)
H21 H 0.91940 1.34140 1.20830
C52 C 0.9068(11) 1.3650(7) 1.0995(7)
H22 H 0.89690 1.30710 1.06170
N10 N 1.273(3) 1.419(2) 1.167(4)
C53 C 1.174(3) 1.386(4) 1.151(4)
C54 C 1.327(2) 1.351(3) 1.123(3)
Eu1* Eu 1.05785(3) 1.62127(2) 1.52860(2)
Eu1A Eu -0.05785(3) 0.37873(2) 0.47140(2)
Eu1A* Eu 0.94215(3) 0.37873(2) 0.47140(2)
Eu1A** Eu 0.94215(3) 1.37873(2) 0.47140(2)
Eu1A*** Eu 0.94215(3) 1.37873(2) 1.47140(2)
Eu1A**** Eu 1.94215(3) 1.37873(2) 1.47140(2)
Eu2* Eu 1.94761(3) 0.97034(2) 0.88081(2)
Eu2A Eu 1.05239(3) 1.02966(2) 1.11919(2)
Eu2A* Eu 2.05239(3) 1.02966(2) 1.11919(2)
Eu3A Eu -0.00793(3) 0.13973(2) 0.35590(2)
Eu3A* Eu 0.99207(3) 1.13973(2) 0.35590(2)
Eu3A** Eu 1.99207(3) 1.13973(2) 1.35590(2)
O1A O 1.0814(3) 0.7524(3) 0.6649(3)
O3* O 0.8206(3) 1.0382(3) 0.9410(3)
O4A O 1.1187(4) 0.7241(3) 0.4758(3)
O5* O 0.9208(3) 1.0355(3) 1.0387(3)
O5A O 1.0792(3) 0.9645(3) 0.9613(3)
O6A O 0.9435(3) 0.7131(3) 0.5332(3)
O8A O 1.0793(3) 0.4628(3) 0.4645(3)
O10A O 1.1859(3) 0.5628(3) 0.4605(3)
O11* O 0.9994(3) 0.5600(3) 0.3828(3)
O12A O 0.9252(4) 0.8500(4) 0.9273(3)
O15A O 0.8584(4) 0.8139(3) 0.5686(4)
O16A O 1.2014(3) 0.6957(3) 0.6294(3)
O17A O 1.0701(4) 0.8494(3) 0.5215(3)
O18A O 1.0701(4) 0.5742(3) 0.6450(3)
#END
