
#######################################################################
#
#                 Cambridge Crystallographic Data Centre
#                                CCDC
#
#######################################################################
#
# If this CIF has been generated from an entry in the Cambridge
# Structural Database, then it will include bibliographic, chemical,
# crystal, experimental, refinement or atomic coordinate data resulting
# from the CCDC's data processing and validation procedures.
#
#######################################################################

data_CSD_CIF_MAKFOW
_audit_creation_date 2016-03-01
_audit_creation_method CSD-ConQuest-V1
_database_code_CSD MAKFOW
_database_code_depnum_ccdc_archive 'CCDC 1400775'
_chemical_formula_sum 'C57 H70 Gd3 N11 O36'
_chemical_formula_moiety
;
(C52 H25 Gd3 N9 O20 1-)n,n(C2 H8 N1 1+),n(C3 H7 N1 O1),15n(H2 O1)
;
_journal_coden_Cambridge 1147
_journal_volume 16
_journal_year 2016
_journal_page_first 2266
_journal_name_full 'Cryst.Growth Des. '
loop_
_publ_author_name
"Yan Yang"
"Feilong Jiang"
"Caiping Liu"
"Lian Chen"
"Yanli Gai"
"Jiandong Pang"
"Kongzhao Su"
"Xiuyan Wan"
"Maochun Hong"
_chemical_name_systematic
;
catena-[dimethylammonium 
tris(\m-5-(5-(4-carboxyphenyl)-1,2,4-triazol-3-yl)isophthalato)-(\m-formato)-g
adolinium N,N-dimethylformamide pentadecahydrate]
;
_cell_volume   3942.296
_exptl_crystal_colour 'yellow'
_exptl_crystal_description 'block'
_diffrn_ambient_temperature 100
_refine_special_details
;
Disordered N,N-dimethylformamide solvent molecules and water molecules were 
not modelled and the disordered density was taken into account using the 
SQUEEZE/PLATON procedure.
;
#These two values have been output from a single CSD field.
_refine_ls_R_factor_gt 0.0806
_refine_ls_wR_factor_gt 0.0806
_symmetry_cell_setting triclinic
_symmetry_space_group_name_H-M 'P -1'
_symmetry_Int_Tables_number 2
loop_
_symmetry_equiv_pos_site_id
_symmetry_equiv_pos_as_xyz
1 x,y,z
2 -x,-y,-z
_cell_length_a 15.0975(5)
_cell_length_b 16.7752(7)
_cell_length_c 16.9014(7)
_cell_angle_alpha 110.493(4)
_cell_angle_beta 91.562(3)
_cell_angle_gamma 99.176(3)
_cell_formula_units_Z 2
loop_
_atom_type_symbol
_atom_type_radius_bond
C 0.68
H 0.23
Gd 1.96
N 0.68
O 0.68
loop_
_atom_site_label
_atom_site_type_symbol
_atom_site_fract_x
_atom_site_fract_y
_atom_site_fract_z
Gd1 Gd 0.55988(3) 0.12226(3) 0.02872(3)
Gd2 Gd 0.51499(3) 0.36249(3) 0.14630(3)
Gd3 Gd 0.45086(3) 0.47078(3) 0.38190(3)
O1 O 0.4355(5) 0.9253(4) 0.8568(4)
O2 O 0.5052(4) 1.0617(4) 0.8840(3)
O3 O 0.3735(4) 0.7749(4) 0.0242(3)
O4 O 0.4192(4) 0.6477(4) -0.0245(3)
O5 O 0.4665(5) 0.4870(4) 0.1552(4)
O6 O 0.4029(5) 0.5191(4) 0.2789(4)
O7 O 0.3076(4) 0.3686(4) 0.3131(4)
O8 O 0.4301(4) 0.3346(3) 0.2519(3)
O9 O 0.4209(4) 0.0365(4) 0.0323(4)
O10 O 0.3133(4) -0.0652(4) 0.0404(3)
O11 O -0.3659(5) -0.3176(4) -0.0728(4)
O12 O -0.4502(4) -0.2153(4) -0.0348(4)
O13 O 0.5849(4) 0.2546(3) 0.1640(3)
O14 O 0.7036(4) 0.1944(4) 0.1285(3)
O15 O 0.5775(4) 0.4653(4) 0.4610(3)
O16 O 0.6754(4) 0.4622(4) 0.5584(3)
O17 O 1.3329(4) 0.5580(4) 0.8097(3)
O18 O 1.4257(4) 0.5272(4) 0.7090(3)
O19 O 0.5131(4) 0.6179(4) 0.4389(4)
O20 O 0.5739(5) 0.6505(4) 0.5721(4)
N1 N 0.3991(8) 0.8357(6) 0.4232(6)
H1 H 0.41650 0.79350 0.43550
N2 N 0.3589(11) 0.9587(7) 0.4389(7)
N3 N 0.3551(10) 0.9099(7) 0.3514(6)
N4 N 0.0151(5) 0.0163(5) 0.1212(5)
H2 H 0.03580 -0.02920 0.08870
N5 N 0.0054(6) 0.1463(7) 0.2065(7)
N6 N -0.0802(6) 0.0989(7) 0.1895(7)
N7 N 0.9712(5) 0.3772(6) 0.4780(5)
H3 H 0.94910 0.41160 0.52220
N8 N 0.9846(6) 0.2896(7) 0.3506(5)
N9 N 1.0651(6) 0.3041(7) 0.3974(6)
C1 C 0.4667(7) 0.9867(5) 0.8350(5)
C2 C 0.4483(8) 0.9733(7) 0.7423(6)
C3 C 0.4425(10) 1.0390(7) 0.7123(7)
H4 H 0.45210 1.09740 0.75040
C4 C 0.4229(10) 1.0198(8) 0.6275(7)
H5 H 0.41900 1.06460 0.60610
C5 C 0.4087(9) 0.9351(7) 0.5736(6)
C6 C 0.4162(13) 0.8697(8) 0.6010(8)
H6 H 0.40840 0.81190 0.56180
C7 C 0.4354(12) 0.8875(8) 0.6869(8)
H7 H 0.43960 0.84210 0.70750
C8 C 0.3885(9) 0.9134(7) 0.4781(6)
C9 C 0.3780(9) 0.8361(6) 0.3473(6)
C10 C 0.3823(8) 0.7621(6) 0.2685(5)
C11 C 0.3786(7) 0.7694(6) 0.1894(5)
H8 H 0.36860 0.82180 0.18380
C12 C 0.3899(7) 0.6989(6) 0.1176(5)
C13 C 0.3943(6) 0.7088(5) 0.0335(4)
C14 C 0.4078(6) 0.6234(5) 0.1255(5)
H9 H 0.41910 0.57720 0.07720
C15 C 0.4092(6) 0.6160(5) 0.2055(5)
C16 C 0.4278(6) 0.5345(6) 0.2134(5)
C17 C 0.3960(7) 0.6847(6) 0.2767(5)
H10 H 0.39610 0.67910 0.33070
C18 C 0.3476(6) 0.3144(6) 0.2622(5)
C19 C 0.2987(6) 0.2249(5) 0.2135(5)
C20 C 0.2061(6) 0.2046(6) 0.2150(6)
H11 H 0.17410 0.24710 0.24830
C21 C 0.1599(6) 0.1207(6) 0.1670(6)
C22 C 0.2070(6) 0.0602(6) 0.1184(6)
H12 H 0.17580 0.00390 0.08500
C23 C 0.3003(6) 0.0805(5) 0.1175(5)
C24 C 0.3473(6) 0.0143(5) 0.0607(5)
C25 C 0.3457(6) 0.1625(6) 0.1657(5)
H13 H 0.40930 0.17620 0.16620
C26 C 0.0628(7) 0.0957(7) 0.1657(7)
C27 C -0.0705(7) 0.0218(6) 0.1374(6)
C28 C -0.1464(7) -0.0496(7) 0.1011(6)
C29 C -0.2336(7) -0.0344(7) 0.1200(6)
H14 H -0.24200 0.01940 0.16000
C30 C -0.3074(6) -0.0987(7) 0.0798(6)
H15 H -0.36640 -0.08870 0.09290
C31 C -0.2961(6) -0.1773(6) 0.0208(5)
C32 C -0.3746(6) -0.2421(6) -0.0301(5)
C33 C -0.2064(7) -0.1933(7) 0.0073(7)
H16 H -0.19700 -0.24880 -0.02820
C34 C -0.1347(7) -0.1295(7) 0.0452(7)
H17 H -0.07560 -0.13970 0.03310
C35 C 0.6640(5) 0.2429(5) 0.1824(5)
C36 C 0.7056(5) 0.2887(5) 0.2705(5)
C37 C 0.6555(6) 0.3360(5) 0.3348(5)
H18 H 0.59390 0.33610 0.32210
C38 C 0.6961(6) 0.3820(6) 0.4160(5)
C39 C 0.6475(6) 0.4393(5) 0.4818(5)
C40 C 0.7850(6) 0.3806(6) 0.4352(5)
H19 H 0.81230 0.41300 0.49100
C41 C 0.8348(6) 0.3340(6) 0.3759(5)
C42 C 0.7961(6) 0.2873(6) 0.2930(5)
H20 H 0.83070 0.25450 0.25180
C43 C 0.9280(7) 0.3319(7) 0.4002(6)
C44 C 1.0549(7) 0.3589(7) 0.4741(6)
C45 C 1.1247(7) 0.3921(7) 0.5440(6)
C46 C 1.1096(7) 0.4446(7) 0.6246(7)
H21 H 1.05050 0.45550 0.63600
C47 C 1.1790(6) 0.4814(6) 0.6887(6)
H22 H 1.16700 0.51500 0.74420
C48 C 1.2674(7) 0.4690(6) 0.6711(6)
C49 C 1.3451(6) 0.5198(5) 0.7337(5)
C50 C 1.2826(7) 0.4145(6) 0.5898(6)
H23 H 1.34160 0.40360 0.57820
C51 C 1.2129(7) 0.3771(6) 0.5272(6)
H24 H 1.22410 0.34110 0.47230
C52 C 0.5474(7) 0.6730(7) 0.5120(6)
H25 H 0.55330 0.73300 0.52150
N10 N 0.8495(12) 0.5215(16) 0.6824(13)
C53 C 0.9150(13) 0.4910(13) 0.6201(11)
C54 C 0.887(2) 0.559(2) 0.7724(12)
Gd1* Gd 0.55988(3) 1.12226(3) 1.02872(3)
Gd1A Gd -0.55988(3) -0.12226(3) -0.02872(3)
Gd1A* Gd 0.44012(3) -0.12226(3) -0.02872(3)
Gd1A** Gd 0.44012(3) 0.87774(3) -0.02872(3)
Gd1A*** Gd 0.44012(3) 0.87774(3) 0.97128(3)
Gd2A Gd -0.51499(3) -0.36249(3) -0.14630(3)
Gd2A* Gd 0.48501(3) 0.63751(3) -0.14630(3)
Gd2A** Gd 1.48501(3) 0.63751(3) 0.85370(3)
Gd3A Gd 0.54914(3) 0.52922(3) 0.61810(3)
Gd3A* Gd 1.54914(3) 0.52922(3) 0.61810(3)
O1A O 0.5645(5) 0.0747(4) 0.1432(4)
O2* O 0.5052(4) 0.0617(4) -0.1160(3)
O3A O 0.6265(4) 0.2251(4) -0.0242(3)
O4A O 0.5808(4) 0.3523(4) 0.0245(3)
O9A O 0.5791(4) -0.0365(4) -0.0323(4)
O10A O 0.6867(4) 0.0652(4) -0.0404(3)
O11A O 0.3659(5) 0.3176(4) 0.0728(4)
O12A O 0.4502(4) 0.2153(4) 0.0348(4)
O15A O 0.4225(4) 0.5347(4) 0.5390(3)
O16A O 0.3246(4) 0.5378(4) 0.4416(3)
O17A O 0.6671(4) 0.4420(4) 0.1903(3)
O18A O 0.5743(4) 0.4728(4) 0.2910(3)
O20A O 0.4261(5) 0.3495(4) 0.4279(4)
#END
