
#######################################################################
#
#                 Cambridge Crystallographic Data Centre
#                                CCDC
#
#######################################################################
#
# If this CIF has been generated from an entry in the Cambridge
# Structural Database, then it will include bibliographic, chemical,
# crystal, experimental, refinement or atomic coordinate data resulting
# from the CCDC's data processing and validation procedures.
#
#######################################################################

data_CSD_CIF_MAKGAJ
_audit_creation_date 2016-03-01
_audit_creation_method CSD-ConQuest-V1
_database_code_CSD MAKGAJ
_database_code_depnum_ccdc_archive 'CCDC 1400777'
_chemical_formula_sum 'C57 H70 Dy3 N11 O36'
_chemical_formula_moiety
;
(C52 H25 Dy3 N9 O20 1-)n,n(C2 H8 N1 1+),n(C3 H7 N1 O1),15n(H2 O1)
;
_journal_coden_Cambridge 1147
_journal_volume 16
_journal_year 2016
_journal_page_first 2266
_journal_name_full 'Cryst.Growth Des. '
loop_
_publ_author_name
"Yan Yang"
"Feilong Jiang"
"Caiping Liu"
"Lian Chen"
"Yanli Gai"
"Jiandong Pang"
"Kongzhao Su"
"Xiuyan Wan"
"Maochun Hong"
_chemical_name_systematic
;
catena-[dimethylammonium 
tris(\m-5-(5-(4-carboxyphenyl)-4H-1,2,4-triazol-3-yl)isophthalato)-(\m-formato
)-dysprosium N,N-dimethylformamide pentadecahydrate]
;
_cell_volume   3984.999
_exptl_crystal_colour 'yellow'
_exptl_crystal_description 'block'
_diffrn_ambient_temperature 100
_refine_special_details
;
Disordered N,N-dimethylformamide solvent molecules and water molecules were 
not modelled and the disordered density was taken into account using the 
SQUEEZE/PLATON procedure.
;
#These two values have been output from a single CSD field.
_refine_ls_R_factor_gt 0.045
_refine_ls_wR_factor_gt 0.045
_symmetry_cell_setting triclinic
_symmetry_space_group_name_H-M 'P -1'
_symmetry_Int_Tables_number 2
loop_
_symmetry_equiv_pos_site_id
_symmetry_equiv_pos_as_xyz
1 x,y,z
2 -x,-y,-z
_cell_length_a 15.1589(5)
_cell_length_b 16.8609(4)
_cell_length_c 16.9700(3)
_cell_angle_alpha 110.902(2)
_cell_angle_beta 92.490(2)
_cell_angle_gamma 98.552(2)
_cell_formula_units_Z 2
loop_
_atom_type_symbol
_atom_type_radius_bond
C 0.68
H 0.23
Dy 1.92
N 0.68
O 0.68
loop_
_atom_site_label
_atom_site_type_symbol
_atom_site_fract_x
_atom_site_fract_y
_atom_site_fract_z
Dy1 Dy 0.058442(18) 0.621894(16) 0.028394(15)
Dy2 Dy 0.012318(18) 0.861189(16) 0.145832(15)
Dy3 Dy -0.049843(18) 0.970716(17) 0.381339(15)
O1 O 0.9268(2) 1.0289(2) 0.70913(19)
O2 O 0.8357(3) 1.0608(2) 0.8094(2)
O3 O 0.2024(2) 0.6956(2) 0.1280(2)
O4 O 0.0821(2) 0.7534(2) 0.16426(19)
O5 O 0.0766(2) 0.9646(2) 0.4617(2)
O6 O 0.1750(2) 0.9625(2) 0.5600(2)
O7 O 0.0355(3) 1.0143(2) 0.8450(2)
O8 O 0.0972(3) 0.9803(2) 0.7221(2)
O9 O 0.0741(3) 0.8507(2) 1.02388(19)
O10 O 0.1213(2) 0.7240(2) 0.9749(2)
O11 O -0.0017(2) 0.4395(2) 0.1159(2)
O12 O 0.0667(3) 0.5754(2) 0.1422(2)
O13 O -0.1366(3) 0.8158(2) 0.0715(2)
O14 O -0.0526(2) 0.7146(2) 0.0346(2)
O15 O -0.8076(3) 0.1311(2) -0.3101(2)
O16 O -0.9300(2) 0.1644(2) -0.25123(19)
O17 O -0.9221(2) 0.4635(2) -0.0335(2)
O18 O -0.8157(2) 0.5647(2) -0.0396(2)
O19 O -0.0759(3) 0.8497(3) 0.4266(2)
O20 O -0.0126(3) 0.8825(2) 0.5597(2)
N1 N 0.4697(3) 0.8775(3) 0.4789(3)
H1 H 0.44850 0.91330 0.52240
N2 N 0.4805(4) 0.7859(5) 0.3532(4)
N3 N 0.5618(5) 0.8021(5) 0.3995(4)
N4 N 0.1372(5) 0.5433(4) 0.5621(3)
N5 N 0.1440(5) 0.5913(4) 0.6485(3)
N6 N 0.0989(5) 0.6660(3) 0.5765(3)
H2 H 0.08130 0.70820 0.56450
N7 N -0.5084(4) 0.3521(4) -0.2011(6)
N8 N -0.4224(4) 0.3982(4) -0.1831(6)
N9 N -0.5185(3) 0.4823(3) -0.1205(3)
H3 H -0.53950 0.52840 -0.08980
C1 C 0.8470(3) 1.0216(3) 0.7332(3)
C2 C 0.7689(4) 0.9714(3) 0.6701(3)
C3 C 0.7825(4) 0.9166(3) 0.5898(3)
H4 H 0.84120 0.90570 0.57820
C4 C 0.7120(4) 0.8780(4) 0.5268(3)
H5 H 0.72190 0.84080 0.47220
C5 C 0.6253(4) 0.8945(4) 0.5445(3)
C6 C 0.6118(4) 0.9469(4) 0.6254(4)
H6 H 0.55300 0.95690 0.63800
C7 C 0.6825(4) 0.9847(4) 0.6875(3)
H7 H 0.67230 1.02010 0.74280
C8 C 0.5517(4) 0.8580(5) 0.4754(4)
C9 C 0.4264(4) 0.8308(5) 0.4019(4)
C10 C 0.3337(4) 0.8317(4) 0.3770(3)
C11 C 0.2936(4) 0.7863(4) 0.2942(3)
H8 H 0.32720 0.75370 0.25240
C12 C 0.2038(3) 0.7887(3) 0.2725(3)
C13 C 0.1630(3) 0.7434(3) 0.1834(3)
C14 C 0.1541(3) 0.8350(3) 0.3348(3)
H9 H 0.09260 0.83460 0.32090
C15 C 0.1942(3) 0.8816(3) 0.4168(3)
C16 C 0.1469(3) 0.9385(3) 0.4831(3)
C17 C 0.2835(4) 0.8798(4) 0.4376(3)
H10 H 0.31070 0.91170 0.49380
C18 C 0.1005(3) 0.7904(3) 0.9662(3)
C19 C 0.1045(3) 0.7997(3) 0.8817(3)
C20 C 0.0907(3) 0.8756(3) 0.8742(3)
H11 H 0.08070 0.92230 0.92260
C21 C 0.0914(3) 0.8838(3) 0.7953(3)
C22 C 0.0734(3) 0.9661(3) 0.7872(3)
C23 C 0.1042(4) 0.8160(3) 0.7242(3)
H12 H 0.10490 0.82220 0.67080
C24 C 0.1163(4) 0.7372(3) 0.7313(3)
C25 C 0.1172(4) 0.7297(3) 0.8102(3)
H13 H 0.12640 0.67730 0.81570
C26 C 0.1214(4) 0.6651(4) 0.6536(3)
C27 C 0.1092(5) 0.5886(4) 0.5218(4)
C28 C 0.0916(5) 0.5675(4) 0.4294(4)
C29 C 0.0774(6) 0.4815(4) 0.3713(4)
H14 H 0.08000 0.43600 0.39150
C30 C 0.0597(5) 0.4626(4) 0.2859(4)
H15 H 0.05040 0.40450 0.24730
C31 C 0.0555(4) 0.5289(4) 0.2564(4)
C32 C 0.0382(4) 0.5136(3) 0.1651(3)
C33 C 0.0721(7) 0.6145(4) 0.3135(4)
H16 H 0.07180 0.66000 0.29290
C34 C 0.0888(6) 0.6335(5) 0.3998(4)
H17 H 0.09820 0.69170 0.43840
C35 C -0.1288(3) 0.7393(3) 0.0297(3)
C36 C -0.2078(4) 0.6767(3) -0.0215(3)
C37 C -0.1968(4) 0.5959(4) -0.0787(3)
H18 H -0.13810 0.58490 -0.09060
C38 C -0.2707(4) 0.5315(4) -0.1182(4)
H19 H -0.26260 0.47710 -0.15720
C39 C -0.3563(4) 0.5472(4) -0.1003(4)
C40 C -0.3675(4) 0.6294(4) -0.0456(4)
H20 H -0.42610 0.64140 -0.03540
C41 C -0.2938(4) 0.6927(4) -0.0068(4)
H21 H -0.30200 0.74790 0.03040
C42 C -0.4326(4) 0.4761(4) -0.1358(4)
C43 C -0.5641(4) 0.4035(4) -0.1622(4)
C44 C -0.6613(4) 0.3778(4) -0.1646(4)
C45 C -0.7054(4) 0.2959(4) -0.2117(4)
H22 H -0.67310 0.25360 -0.24440
C46 C -0.7989(3) 0.2748(3) -0.2113(3)
C47 C -0.8465(3) 0.1847(3) -0.2608(3)
C48 C -0.8458(3) 0.3370(3) -0.1650(3)
H23 H -0.90910 0.32320 -0.16670
C49 C -0.8015(4) 0.4196(3) -0.1160(3)
C50 C -0.8482(3) 0.4866(3) -0.0606(3)
C51 C -0.7092(4) 0.4395(3) -0.1168(3)
H24 H -0.67840 0.49610 -0.08420
C52 C -0.0483(4) 0.8302(4) 0.4875(3)
H25 H -0.05510 0.77050 0.47820
C53 C 0.173(4) 0.369(3) 0.475(3)
C54 C 0.166(4) 0.253(3) 0.330(3)
N10 N 0.225(2) 0.314(3) 0.409(3)
Dy1* Dy -0.941558(18) 0.621894(16) 0.028394(15)
Dy1** Dy 0.058442(18) 0.621894(16) 1.028394(15)
Dy1A Dy -1.058442(18) 0.378106(16) -0.028394(15)
Dy1A* Dy -0.058442(18) 0.378106(16) -0.028394(15)
Dy2* Dy 0.012318(18) 0.861189(16) 1.145832(15)
Dy2A Dy -1.012318(18) 0.138811(16) -0.145832(15)
Dy2A* Dy -0.012318(18) 1.138811(16) 0.854168(15)
Dy2A** Dy 0.987682(18) 1.138811(16) 0.854168(15)
Dy3A Dy -0.950157(18) 0.029284(17) -0.381339(15)
Dy3A* Dy 0.049843(18) 1.029284(17) 0.618661(15)
Dy3A** Dy 1.049843(18) 1.029284(17) 0.618661(15)
O1A O 0.0732(2) 0.9711(2) 0.29087(19)
O2A O 0.1643(3) 0.9392(2) 0.1906(2)
O5A O -0.0766(2) 1.0354(2) 0.5383(2)
O6A O -0.1750(2) 1.0375(2) 0.4400(2)
O7A O -0.0355(3) 0.9857(2) 0.1550(2)
O8A O -0.0972(3) 1.0197(2) 0.2779(2)
O9* O 0.0741(3) 0.8507(2) 0.02388(19)
O10* O 0.1213(2) 0.7240(2) -0.0251(2)
O11A O 0.0017(2) 0.5605(2) -0.1159(2)
O15A O -0.1924(3) 0.8689(2) 0.3101(2)
O16A O -0.0700(2) 0.8356(2) 0.25123(19)
O17* O 0.0779(2) 0.4635(2) -0.0335(2)
O17A O -0.0779(2) 0.5365(2) 0.0335(2)
O18* O 0.1843(2) 0.5647(2) -0.0396(2)
O20A O 0.0126(3) 1.1175(2) 0.4403(2)
#END
