
#######################################################################
#
#                 Cambridge Crystallographic Data Centre
#                                CCDC
#
#######################################################################
#
# If this CIF has been generated from an entry in the Cambridge
# Structural Database, then it will include bibliographic, chemical,
# crystal, experimental, refinement or atomic coordinate data resulting
# from the CCDC's data processing and validation procedures.
#
#######################################################################

data_CSD_CIF_MAKROG
_audit_creation_date 2005-08-04
_audit_creation_method CSD-ConQuest-V1
_database_code_CSD MAKROG
_database_code_depnum_ccdc_archive 'CCDC 269531'
_chemical_formula_sum 'C26 H28 Co3 N22 O8'
_chemical_formula_moiety
;
(C12 H8 Co3 N18 O4 4-)n,2n(C7 H10 N2 O2 2+)
;
_journal_coden_Cambridge 9
_journal_volume 44
_journal_year 2005
_journal_page_first 2169
_journal_name_full 'Inorg.Chem. '
loop_
_publ_author_name
"Hao-Ling Sun"
"Zhe-Ming Wang"
"Song Gao"
_chemical_name_systematic
;
catena-(hexakis(\m~2~-dicyanamido)-bis(\m~2~-aqua)-diaqua-tri-cobalt(ii) 
2,3,5-trimethylpyrazine dioxide)
;
_cell_volume   3787.861
_exptl_crystal_colour 'purple'
_exptl_crystal_density_diffrn 1.672
_exptl_crystal_description 'block'
_diffrn_ambient_temperature 293
#These two values have been output from a single CSD field.
_refine_ls_R_factor_gt 0.0532
_refine_ls_wR_factor_gt 0.0532
_symmetry_cell_setting monoclinic
_symmetry_space_group_name_H-M 'C 2/c'
_symmetry_Int_Tables_number 15
loop_
_symmetry_equiv_pos_site_id
_symmetry_equiv_pos_as_xyz
1 x,y,z
2 1/2+x,1/2+y,z
3 -x,y,1/2-z
4 1/2-x,1/2+y,1/2-z
5 -x,-y,-z
6 -1/2-x,-1/2-y,-z
7 x,-y,-1/2+z
8 -1/2+x,-1/2-y,-1/2+z
_cell_length_a 29.4769(10)
_cell_length_b 7.3735(2)
_cell_length_c 17.4631(7)
_cell_angle_alpha 90
_cell_angle_beta 93.652(1)
_cell_angle_gamma 90
_cell_formula_units_Z 4
loop_
_atom_type_symbol
_atom_type_radius_bond
C 0.68
H 0.23
Co 1.33
N 0.68
O 0.68
loop_
_atom_site_label
_atom_site_type_symbol
_atom_site_fract_x
_atom_site_fract_y
_atom_site_fract_z
Co1 Co -0.016650(16) 0.12129(6) 0.15231(3)
Co2 Co 0.25000 0.25000 0.00000
O1 O 0.00000 0.3270(4) 0.25000
O2 O 0.00000 -0.0683(4) 0.25000
O3 O 0.26935(9) -0.0158(4) 0.03634(15)
O4 O 0.44483(9) 0.1412(3) 0.27142(18)
O5 O 0.28884(9) 0.2228(4) 0.40772(16)
N1 N 0.05184(11) 0.1430(4) 0.13784(19)
N2 N 0.12981(12) 0.2501(6) 0.1497(2)
N3 N 0.19341(11) 0.2458(5) 0.0682(2)
N4 N -0.03452(12) 0.3311(5) 0.0802(2)
N5 N -0.05994(12) 0.6232(4) 0.0263(2)
N6 N -0.02822(12) 0.9114(4) 0.0756(2)
N7 N 0.41706(11) 0.5941(4) 0.18513(19)
N8 N 0.33521(12) 0.5396(6) 0.1870(2)
N9 N 0.28901(11) 0.3657(5) 0.0914(2)
N10 N 0.40574(11) 0.1622(4) 0.3038(2)
N11 N 0.32707(10) 0.2048(4) 0.37388(19)
C1 C 0.08890(13) 0.1899(5) 0.1382(2)
C2 C 0.16185(13) 0.2409(5) 0.1027(2)
C3 C -0.04463(13) 0.4717(6) 0.0575(2)
C4 C -0.04214(13) 0.7748(5) 0.0540(2)
C5 C 0.37864(14) 0.5634(5) 0.1836(2)
C6 C 0.31227(13) 0.4451(5) 0.1335(2)
C7 C 0.36612(13) 0.1208(5) 0.2642(2)
C8 C 0.36917(15) 0.0497(6) 0.1851(2)
H1 H 0.40040 0.04840 0.17240
H2 H 0.35190 0.12600 0.14950
H3 H 0.35720 -0.07140 0.18220
C9 C 0.32562(13) 0.1410(5) 0.2999(2)
C10 C 0.28062(14) 0.0915(6) 0.2637(3)
H4 H 0.25760 0.11650 0.29870
H5 H 0.28030 -0.03530 0.25130
H6 H 0.27480 0.16130 0.21770
C11 C 0.36720(14) 0.2496(5) 0.4122(2)
C12 C 0.36609(17) 0.3195(7) 0.4920(3)
H7 H 0.33520 0.32640 0.50590
H8 H 0.37950 0.43810 0.49500
H9 H 0.38290 0.23910 0.52650
C13 C 0.40592(13) 0.2252(5) 0.3763(2)
H10 H 0.43360 0.25260 0.40230
H11 H 0.02010 0.41130 0.23690
H12 H 0.02080 -0.14060 0.23790
H13 H 0.24860 -0.06880 0.06650
H14 H 0.27370 -0.07960 -0.01070
Co1E Co 0.516650(16) 0.37871(6) -0.15231(3)
Co1B Co 0.016650(16) 0.12129(6) 0.34769(3)
Co1* Co -0.016650(16) 1.12129(6) 0.15231(3)
Co1A Co 0.483350(16) 0.62129(6) 0.15231(3)
Co1D Co 0.016650(16) -0.12129(6) -0.15231(3)
Co1** Co -0.016650(16) -0.87871(6) 0.15231(3)
O1G O 0.50000 0.1730(4) -0.25000
O2G O 0.50000 0.5683(4) -0.25000
O3E O 0.23065(9) 0.5158(4) -0.03634(15)
N1E N 0.44816(11) 0.3570(4) -0.13784(19)
N2E N 0.37019(12) 0.2499(6) -0.1497(2)
N3E N 0.30659(11) 0.2542(5) -0.0682(2)
N4* N -0.03452(12) -0.6689(5) 0.0802(2)
N4E N 0.53452(12) 0.1689(5) -0.0802(2)
N5* N -0.05994(12) -0.3768(4) 0.0263(2)
N6* N -0.02822(12) -0.0886(4) 0.0756(2)
N6E N 0.52822(12) 0.5886(4) -0.0756(2)
N7E N 0.08294(11) -0.0941(4) -0.18513(19)
N7A N -0.08294(11) 0.0941(4) 0.18513(19)
N7D N 0.58294(11) 0.4059(4) -0.18513(19)
N8E N 0.16479(12) -0.0396(6) -0.1870(2)
N9E N 0.21099(11) 0.1343(5) -0.0914(2)
C1E C 0.41110(13) 0.3101(5) -0.1382(2)
C2E C 0.33815(13) 0.2591(5) -0.1027(2)
C3* C -0.04463(13) -0.5283(6) 0.0575(2)
C4* C -0.04214(13) -0.2252(5) 0.0540(2)
C5E C 0.12136(14) -0.0634(5) -0.1836(2)
C6E C 0.18773(13) 0.0549(5) -0.1335(2)
H11B H -0.02010 0.41130 0.26310
H11G H 0.52010 0.08870 -0.26310
H11E H 0.47990 0.08870 -0.23690
H12B H -0.02080 -0.14060 0.26210
H12G H 0.52080 0.64060 -0.26210
H12E H 0.47920 0.64060 -0.23790
H13E H 0.25140 0.56880 -0.06650
H14E H 0.22630 0.57960 0.01070
#END
