
#######################################################################
#
#                 Cambridge Crystallographic Data Centre
#                                CCDC
#
#######################################################################
#
# If this CIF has been generated from an entry in the Cambridge
# Structural Database, then it will include bibliographic, chemical,
# crystal, experimental, refinement or atomic coordinate data resulting
# from the CCDC's data processing and validation procedures.
#
#######################################################################

data_CSD_CIF_MAKRUM
_audit_creation_date 2005-08-04
_audit_creation_method CSD-ConQuest-V1
_database_code_CSD MAKRUM
_database_code_depnum_ccdc_archive 'CCDC 269532'
_chemical_formula_sum 'C20 H28 Co1 N10 O6'
_chemical_formula_moiety
;
(C4 H4 Co1 N6 O2 2-)n,2n(C8 H12 N2 O2 1+)
;
_journal_coden_Cambridge 9
_journal_volume 44
_journal_year 2005
_journal_page_first 2169
_journal_name_full 'Inorg.Chem. '
loop_
_publ_author_name
"Hao-Ling Sun"
"Zhe-Ming Wang"
"Song Gao"
_chemical_name_systematic
;
catena-(bis(\m~2~-Dicyanamido)-diaqua-cobalt(ii) 
bis(2,3,5,6-tetramethylpyrazine dioxide))
;
_cell_volume   1297.745
_exptl_crystal_colour 'deep red'
_exptl_crystal_density_diffrn 1.442
_exptl_crystal_description 'block'
_diffrn_ambient_temperature 293
#These two values have been output from a single CSD field.
_refine_ls_R_factor_gt 0.0481
_refine_ls_wR_factor_gt 0.0481
_symmetry_cell_setting monoclinic
_symmetry_space_group_name_H-M 'P 21/c'
_symmetry_Int_Tables_number 14
loop_
_symmetry_equiv_pos_site_id
_symmetry_equiv_pos_as_xyz
1 x,y,z
2 -x,1/2+y,1/2-z
3 -x,-y,-z
4 x,-1/2-y,-1/2+z
_cell_length_a 9.4739(3)
_cell_length_b 11.3876(3)
_cell_length_c 12.1778(3)
_cell_angle_alpha 90
_cell_angle_beta 98.967(1)
_cell_angle_gamma 90
_cell_formula_units_Z 2
loop_
_atom_type_symbol
_atom_type_radius_bond
C 0.68
H 0.23
Co 1.33
N 0.68
O 0.68
loop_
_atom_site_label
_atom_site_type_symbol
_atom_site_fract_x
_atom_site_fract_y
_atom_site_fract_z
Co1 Co 0.50000 0.00000 0.50000
C1 C 0.9035(4) 0.4928(3) 0.8075(3)
H1 H 0.98000 0.44260 0.84030
H2 H 0.82000 0.44640 0.78290
H3 H 0.88260 0.54890 0.86160
C2 C 1.0926(5) 0.7316(4) 0.4435(4)
H4 H 1.01500 0.77980 0.40920
H5 H 1.11800 0.67660 0.39000
H6 H 1.17350 0.78020 0.47010
O1 O 0.2800(2) 0.0314(2) 0.45926(18)
C3 C 0.9468(3) 0.5559(3) 0.7109(3)
C4 C 1.0483(4) 0.6667(3) 0.5382(3)
N1 N 0.5272(3) 0.1604(2) 0.5852(2)
N2 N 0.5748(5) 0.3531(3) 0.6682(3)
N3 N 0.5363(3) 0.4201(2) 0.8515(2)
N4 N 1.0802(3) 0.5322(3) 0.6878(2)
O2 O 1.1589(3) 0.4531(3) 0.7455(2)
C5 C 1.1336(3) 0.5891(3) 0.6043(3)
C6 C 1.2841(4) 0.5591(5) 0.5917(4)
H7 H 1.32190 0.50340 0.64790
H8 H 1.34140 0.62890 0.59950
H9 H 1.28540 0.52550 0.51950
N5 N 0.9131(3) 0.6882(2) 0.5591(2)
O3 O 0.8318(3) 0.7589(3) 0.4926(2)
C7 C 0.8617(3) 0.6349(3) 0.6453(3)
C8 C 0.7136(4) 0.6669(4) 0.6625(4)
H10 H 0.67460 0.72340 0.60750
H11 H 0.71640 0.69990 0.73530
H12 H 0.65470 0.59790 0.65560
C9 C 0.5468(3) 0.2475(3) 0.6295(2)
C10 C 0.5517(4) 0.3820(3) 0.7679(3)
H13 H 0.244(5) 0.027(4) 0.3819(17)
H14 H 0.253(5) 0.105(2) 0.485(3)
Co1C Co 0.50000 0.50000 1.00000
Co1C* Co 0.50000 -0.50000 0.00000
O1B O 0.7200(2) -0.0314(2) 0.54074(18)
N1B N 0.4728(3) -0.1604(2) 0.4148(2)
N2B N 0.4252(5) -0.3531(3) 0.3318(3)
N3B N 0.4637(3) -0.4201(2) 0.1485(2)
N3C N 0.5363(3) 0.0799(2) 0.3515(2)
N3A N 0.4637(3) -0.0799(2) 0.6485(2)
C9B C 0.4532(3) -0.2475(3) 0.3705(2)
C10B C 0.4483(4) -0.3820(3) 0.2321(3)
H13B H 0.756(5) -0.027(4) 0.6181(17)
H14B H 0.747(5) -0.105(2) 0.515(3)
#END
