
#######################################################################
#
#                 Cambridge Crystallographic Data Centre
#                                CCDC
#
#######################################################################
#
# If this CIF has been generated from an entry in the Cambridge
# Structural Database, then it will include bibliographic, chemical,
# crystal, experimental, refinement or atomic coordinate data resulting
# from the CCDC's data processing and validation procedures.
#
#######################################################################

data_CSD_CIF_MAPLEX
_audit_creation_date 2017-04-24
_audit_creation_method CSD-ConQuest-V1
_database_code_CSD MAPLEX
_database_code_depnum_ccdc_archive 'CCDC 1481266'
_chemical_formula_sum 'C23 H22 Eu1 N2 O10.5'
_chemical_formula_moiety
;
(C21 H11 Eu1 N1 O9 1-)n,C2 H8 N1 1+,1.5(H2 O1)
;
_journal_coden_Cambridge 1695
_journal_volume 5
_journal_year 2017
_journal_page_first 4511
_journal_name_full 'J.Mater.Chem.C '
loop_
_publ_author_name
"Yan Yang"
"Lian Chen"
"Feilong Jiang"
"Xiuyan Wan"
"Muxin Yu"
"Zhen Cao"
"Tan Jing"
"Maochun Hong"
_chemical_name_systematic
;
catena-[dimethylammonium 
(\m-2,2'-(pyridine-2,6-diyl)bis(benzene-1,4-dicarboxylato))-aqua-europium 
sesquihydrate]
;
_cell_volume   5123.060
_exptl_crystal_colour 'colorless'
_exptl_crystal_density_diffrn 1.481
_exptl_crystal_description 'block'
_diffrn_ambient_temperature 100
_refine_special_details
;
The SQUEEZE/PLATON program has been used to model some disorder.

;
#These two values have been output from a single CSD field.
_refine_ls_R_factor_gt 0.0316
_refine_ls_wR_factor_gt 0.0316
_symmetry_cell_setting monoclinic
_symmetry_space_group_name_H-M 'C 2/c'
_symmetry_Int_Tables_number 15
loop_
_symmetry_equiv_pos_site_id
_symmetry_equiv_pos_as_xyz
1 x,y,z
2 -x,y,1/2-z
3 1/2+x,1/2+y,z
4 1/2-x,1/2+y,1/2-z
5 -x,-y,-z
6 x,-y,-1/2+z
7 -1/2-x,-1/2-y,-z
8 -1/2+x,-1/2-y,-1/2+z
_cell_length_a 19.6675(3)
_cell_length_b 11.9457(2)
_cell_length_c 21.9773(4)
_cell_angle_alpha 90
_cell_angle_beta 97.166(2)
_cell_angle_gamma 90
_cell_formula_units_Z 8
loop_
_atom_type_symbol
_atom_type_radius_bond
C 0.68
H 0.23
Eu 1.98
N 0.68
O 0.68
loop_
_atom_site_label
_atom_site_type_symbol
_atom_site_fract_x
_atom_site_fract_y
_atom_site_fract_z
Eu1 Eu 0.331553(12) 0.32989(2) -0.025682(11)
O1 O 0.30013(17) 0.1561(3) 0.01561(14)
O2 O 0.17794(16) 0.1358(3) -0.08155(14)
O3 O 0.24169(17) 0.0007(3) 0.02346(16)
O4 O 0.26671(16) 0.2331(3) -0.10824(14)
O5 O 0.55136(17) -0.2787(3) -0.02269(16)
O6 O 0.39671(19) 0.5087(3) 0.01344(16)
C1 C 0.1643(3) 0.1732(4) -0.2889(2)
H1 H 0.15140 0.22860 -0.31920
O7 O 0.1515(2) -0.0712(3) -0.38567(15)
O8 O 0.58393(19) -0.2151(4) 0.06972(16)
C2 C 0.1883(3) -0.1816(4) -0.1545(2)
H2 H 0.14910 -0.19440 -0.18350
O9 O 0.09562(19) 0.0907(3) -0.40171(15)
C3 C 0.2184(2) 0.1665(4) -0.1186(2)
C4 C 0.4761(2) -0.1527(4) 0.0210(2)
C5 C 0.4201(3) -0.1750(4) -0.0230(2)
H3 H 0.42230 -0.23490 -0.05110
N1 N 0.2768(2) -0.0549(3) -0.11077(18)
C6 C 0.2998(2) -0.1363(4) -0.0716(2)
C7 C 0.1344(2) 0.0244(4) -0.3692(2)
C8 C 0.3591(2) -0.0186(4) 0.0139(2)
C9 C 0.2035(2) 0.1239(4) -0.1837(2)
C10 C 0.4163(3) 0.0044(4) 0.0570(2)
H4 H 0.41580 0.06750 0.08330
C11 C 0.5403(3) -0.2204(4) 0.0227(2)
C12 C 0.2011(2) 0.0105(4) -0.1988(2)
C13 C 0.2225(3) -0.0786(4) -0.1526(2)
C14 C 0.1801(2) -0.0203(4) -0.2598(2)
H5 H 0.17940 -0.09720 -0.27090
C15 C 0.4736(3) -0.0646(4) 0.0616(2)
H6 H 0.51110 -0.05120 0.09240
C16 C 0.1872(3) 0.2049(4) -0.2293(2)
H7 H 0.19200 0.28210 -0.21930
C17 C 0.2967(2) 0.0495(4) 0.0170(2)
C18 C 0.3605(2) -0.1091(4) -0.0258(2)
C19 C 0.2128(2) -0.2644(4) -0.1135(2)
H8 H 0.19070 -0.33510 -0.11380
C20 C 0.1602(2) 0.0603(4) -0.3045(2)
C21 C 0.2700(3) -0.2424(4) -0.0719(2)
H9 H 0.28880 -0.29860 -0.04410
Eu1C Eu 0.168447(12) -0.17011(2) -0.474318(11)
Eu1D Eu 0.668447(12) -0.32989(2) 0.025682(11)
Eu1F Eu 0.168447(12) 0.17011(2) 0.025682(11)
O1F O 0.19987(17) 0.3439(3) -0.01561(14)
O2F O 0.32206(16) 0.3642(3) 0.08155(14)
O3F O 0.25831(17) 0.4993(3) -0.02346(16)
O5D O 0.44864(17) 0.2787(3) 0.02269(16)
O7C O 0.3485(2) 0.4288(3) -0.11433(15)
O8D O 0.41607(19) 0.2151(4) -0.06972(16)
#END
