
#######################################################################
#
#                 Cambridge Crystallographic Data Centre
#                                CCDC
#
#######################################################################
#
# If this CIF has been generated from an entry in the Cambridge
# Structural Database, then it will include bibliographic, chemical,
# crystal, experimental, refinement or atomic coordinate data resulting
# from the CCDC's data processing and validation procedures.
#
#######################################################################

data_CSD_CIF_MAQYIP
_audit_creation_date 2017-04-25
_audit_creation_method CSD-ConQuest-V1
_database_code_CSD MAQYIP
_database_code_depnum_ccdc_archive 'CCDC 1527058'
_chemical_formula_sum 'C30 H44 N60 O3 Zn7'
_chemical_formula_moiety
;
(C20 H24 N56 Zn7 2-)n,2n(C5 H7 N2 1+),3n(H2 O1)
;
_journal_coden_Cambridge 580
_journal_volume 130
_journal_year 2017
_journal_page_first 136
_journal_name_full 'Polyhedron '
loop_
_publ_author_name
"F.A.Mautner"
"C.Berger"
"C.Gspan"
"B.Sudy"
"R.C.Fischer"
"S.S.Massoud"
_chemical_name_systematic
;
catena-(bis(3-aminopyridinium) 
tetradecakis(\m-azido)-tetrakis(3-aminopyridine)-diazido-hepta-zinc 
trihydrate)
;
_cell_volume   6490.990
_exptl_crystal_colour 'colorless'
_exptl_crystal_density_diffrn 1.79
_exptl_crystal_description 'prism'
_diffrn_ambient_temperature 100
_refine_special_details
;
O2 and O3 and O2 and O3 disordered over four sites with occupancies 
0.25:0.25:0.25:0.25.
;
#These two values have been output from a single CSD field.
_refine_ls_R_factor_gt 0.0303
_refine_ls_wR_factor_gt 0.0303
_symmetry_cell_setting monoclinic
_symmetry_space_group_name_H-M 'C 2/c'
_symmetry_Int_Tables_number 15
loop_
_symmetry_equiv_pos_site_id
_symmetry_equiv_pos_as_xyz
1 x,y,z
2 -x,y,1/2-z
3 1/2+x,1/2+y,z
4 1/2-x,1/2+y,1/2-z
5 -x,-y,-z
6 x,-y,-1/2+z
7 -1/2-x,-1/2-y,-z
8 -1/2+x,-1/2-y,-1/2+z
_cell_length_a 19.7510(9)
_cell_length_b 26.9814(11)
_cell_length_c 13.6877(12)
_cell_angle_alpha 90
_cell_angle_beta 117.143(1)
_cell_angle_gamma 90
_cell_formula_units_Z 4
loop_
_atom_type_symbol
_atom_type_radius_bond
C 0.68
H 0.23
N 0.68
O 0.68
Zn 1.22
loop_
_atom_site_label
_atom_site_type_symbol
_atom_site_fract_x
_atom_site_fract_y
_atom_site_fract_z
Zn1 Zn 0.670505(12) 0.716420(8) -0.054792(17)
Zn2 Zn 0.801350(12) 0.692265(8) 0.201578(17)
Zn3 Zn 0.698812(13) 0.585766(8) 0.027989(18)
Zn4 Zn 1.00000 0.722260(11) 0.25000
N1 N 0.79452(9) 0.70421(6) 0.03675(13)
N2 N 0.82600(9) 0.67135(6) 0.01058(13)
N3 N 0.85499(11) 0.63978(8) -0.01153(16)
N4 N 0.66824(9) 0.72873(6) -0.21175(13)
N5 N 0.68851(9) 0.69715(6) -0.25565(13)
N6 N 0.70554(11) 0.66697(7) -0.29978(15)
N7 N 0.68157(9) 0.70834(6) 0.10717(13)
N8 N 0.64899(9) 0.73571(7) 0.14194(13)
N9 N 0.61684(12) 0.76125(8) 0.17403(16)
N10 N 0.65236(9) 0.63869(6) -0.08490(13)
N11 N 0.60992(9) 0.62641(6) -0.17979(14)
N12 N 0.57040(11) 0.61652(7) -0.26881(15)
N13 N 0.77912(9) 0.61259(6) 0.17054(13)
N14 N 0.79575(9) 0.58435(6) 0.24879(14)
N15 N 0.81181(11) 0.55865(7) 0.32250(15)
N16 N 0.92372(9) 0.67848(6) 0.26704(13)
N17 N 0.94772(9) 0.63877(7) 0.31161(14)
N18 N 0.96886(12) 0.60154(8) 0.3533(2)
N19 N 0.94632(9) 0.76440(6) 0.11736(13)
N20 N 0.98251(9) 0.78256(6) 0.07450(13)
N21 N 1.01495(10) 0.79986(7) 0.03167(15)
N22 N 0.73635(11) 0.53260(7) -0.03660(16)
N23 N 0.71688(11) 0.49034(8) -0.04164(19)
N24 N 0.6995(2) 0.44962(9) -0.0501(3)
N25 N 0.79877(9) 0.69112(6) 0.35221(13)
N26 N 0.91887(11) 0.74106(9) 0.62483(15)
H1 H 0.9511(14) 0.7579(10) 0.608(2)
H2 H 0.9155(17) 0.7473(11) 0.6870(14)
C1 C 0.85494(11) 0.71428(8) 0.43697(16)
H3 H 0.89480 0.72880 0.42610
C2 C 0.85787(11) 0.71810(8) 0.54043(16)
C3 C 0.74106(12) 0.67229(8) 0.46730(17)
H4 H 0.70070 0.65730 0.47610
C4 C 0.79877(12) 0.69617(8) 0.55471(17)
H5 H 0.79840 0.69770 0.62380
C5 C 0.74186(12) 0.67016(8) 0.36654(17)
H6 H 0.70180 0.65370 0.30670
N27 N 0.61619(10) 0.55987(6) 0.06456(14)
N28 N 0.42716(13) 0.60034(9) 0.0173(2)
H7 H 0.3838(11) 0.5865(11) 0.010(3)
H8 H 0.4193(19) 0.6217(10) -0.0370(19)
C6 C 0.55070(12) 0.58530(8) 0.02793(17)
H9 H 0.54360 0.61320 -0.01810
C7 C 0.49259(13) 0.57249(8) 0.05455(18)
C8 C 0.50508(13) 0.53129(9) 0.12218(18)
H10 H 0.46720 0.52110 0.14260
C9 C 0.57208(13) 0.50546(9) 0.15920(18)
H11 H 0.58060 0.47750 0.20550
C10 C 0.62736(12) 0.52005(8) 0.12927(18)
H12 H 0.67340 0.50180 0.15460
N29 N 0.91822(12) 0.43620(8) 0.34279(16)
H13 H 0.8679(5) 0.4358(11) 0.320(2)
N30 N 1.08282(12) 0.51559(9) 0.4163(2)
H14 H 1.0640(18) 0.5466(6) 0.406(3)
H15 H 1.1335(5) 0.5188(13) 0.447(3)
C11 C 0.96043(13) 0.47692(9) 0.36237(19)
H16 H 0.93720 0.50860 0.35280
C12 C 1.03885(13) 0.47352(10) 0.39690(19)
C13 C 1.06977(15) 0.42579(11) 0.4092(2)
H17 H 1.12280 0.42170 0.43340
C14 C 1.02340(16) 0.38502(10) 0.3863(2)
H18 H 1.04470 0.35280 0.39370
C15 C 0.94620(16) 0.39009(10) 0.3525(2)
H19 H 0.91410 0.36190 0.33670
O1 O 0.76539(10) 0.43669(6) 0.27779(14)
H20 H 0.7631(17) 0.4426(11) 0.3366(14)
H21 H 0.7481(16) 0.4079(5) 0.257(2)
O2 O 0.4866(10) 0.6601(4) 0.245(2)
O3? O 0.4533(8) 0.6543(6) 0.2719(12)
Zn1A Zn 1.329495(12) 0.716420(8) 0.554792(17)
Zn2A Zn 1.198650(12) 0.692265(8) 0.298422(17)
Zn3A Zn 1.301188(13) 0.585766(8) 0.472011(18)
N1A N 1.20548(9) 0.70421(6) 0.46325(13)
N2A N 1.17400(9) 0.67135(6) 0.48942(13)
N3A N 1.14501(11) 0.63978(8) 0.51153(16)
N4A N 1.33176(9) 0.72873(6) 0.71175(13)
N5A N 1.31149(9) 0.69715(6) 0.75565(13)
N6A N 1.29446(11) 0.66697(7) 0.79978(15)
N7A N 1.31843(9) 0.70834(6) 0.39283(13)
N8A N 1.35101(9) 0.73571(7) 0.35806(13)
N9A N 1.38316(12) 0.76125(8) 0.32597(16)
N10A N 1.34764(9) 0.63869(6) 0.58490(13)
N11A N 1.39008(9) 0.62641(6) 0.67979(14)
N12A N 1.42960(11) 0.61652(7) 0.76881(15)
N13A N 1.22088(9) 0.61259(6) 0.32946(13)
N14A N 1.20425(9) 0.58435(6) 0.25121(14)
N15A N 1.18819(11) 0.55865(7) 0.17750(15)
N16A N 1.07628(9) 0.67848(6) 0.23296(13)
N17A N 1.05228(9) 0.63877(7) 0.18839(14)
N18A N 1.03114(12) 0.60154(8) 0.1467(2)
N19A N 1.05368(9) 0.76440(6) 0.38264(13)
N20A N 1.01749(9) 0.78256(6) 0.42550(13)
N21A N 0.98505(10) 0.79986(7) 0.46833(15)
N22A N 1.26365(11) 0.53260(7) 0.53660(16)
N23A N 1.28312(11) 0.49034(8) 0.54164(19)
N24A N 1.3005(2) 0.44962(9) 0.5501(3)
N25A N 1.20123(9) 0.69112(6) 0.14779(13)
N26A N 1.08113(11) 0.74106(9) -0.12483(15)
H1A H 1.0489(14) 0.7579(10) -0.108(2)
H2A H 1.0845(17) 0.7473(11) -0.1870(14)
C1A C 1.14506(11) 0.71428(8) 0.06303(16)
H3A H 1.10520 0.72880 0.07390
C2A C 1.14213(11) 0.71810(8) -0.04043(16)
C3A C 1.25894(12) 0.67229(8) 0.03270(17)
H4A H 1.29930 0.65730 0.02390
C4A C 1.20123(12) 0.69617(8) -0.05471(17)
H5A H 1.20160 0.69770 -0.12380
C5A C 1.25814(12) 0.67016(8) 0.13346(17)
H6A H 1.29820 0.65370 0.19330
N27A N 1.38381(10) 0.55987(6) 0.43544(14)
N28A N 1.57284(13) 0.60034(9) 0.4827(2)
H7A H 1.6162(11) 0.5865(11) 0.490(3)
H8A H 1.5807(19) 0.6217(10) 0.5370(19)
C6A C 1.44930(12) 0.58530(8) 0.47207(17)
H9A H 1.45640 0.61320 0.51810
C7A C 1.50741(13) 0.57249(8) 0.44545(18)
C8A C 1.49492(13) 0.53129(9) 0.37782(18)
H10A H 1.53280 0.52110 0.35740
C9A C 1.42792(13) 0.50546(9) 0.34080(18)
H11A H 1.41940 0.47750 0.29450
C10A C 1.37264(12) 0.52005(8) 0.37073(18)
H12A H 1.32660 0.50180 0.34540
Zn1F Zn 0.829495(12) 0.783580(8) 0.054792(17)
Zn1G Zn 1.170505(12) 0.783580(8) 0.445208(17)
Zn2F Zn 0.698650(12) 0.807735(8) -0.201578(17)
Zn2G Zn 1.301350(12) 0.807735(8) 0.701578(17)
N1F N 0.70548(9) 0.79579(6) -0.03675(13)
N1G N 1.29452(9) 0.79579(6) 0.53675(13)
N4F N 0.83176(9) 0.77127(6) 0.21175(13)
N4G N 1.16824(9) 0.77127(6) 0.28825(13)
N19F N 0.55368(9) 0.73560(6) -0.11736(13)
N19G N 1.44632(9) 0.73560(6) 0.61736(13)
#END
