
#######################################################################
#
#                 Cambridge Crystallographic Data Centre
#                                CCDC
#
#######################################################################
#
# If this CIF has been generated from an entry in the Cambridge
# Structural Database, then it will include bibliographic, chemical,
# crystal, experimental, refinement or atomic coordinate data resulting
# from the CCDC's data processing and validation procedures.
#
#######################################################################

data_CSD_CIF_MARREF
_audit_creation_date 2017-04-25
_audit_creation_method CSD-ConQuest-V1
_database_code_CSD MARREF
_database_code_depnum_ccdc_archive 'CCDC 847459'
_chemical_formula_sum 'C5 H14 La1 N2 O9 P1'
_chemical_formula_moiety
;
(C5 H8 La1 N1 O8 P1 1-)n,H4 N1 1+,H2 O1
;
_journal_coden_Cambridge 2148
_journal_volume 2
_journal_year 2014
_journal_page_first 94
_journal_name_full 'Frontiers in Chemistry '
loop_
_publ_author_name
"A.A.Ayi"
"T.L.Kinnibrugh"
"A.Clearfield"
_chemical_name_systematic
;
catena-[ammonium (\m-2,2'-[(phosphonatomethyl)imino]diacetato)-aqua-lanthanum 
monohydrate]
;
_cell_volume   1140.334
_exptl_crystal_colour 'colorless'
_exptl_crystal_density_diffrn 2.423
_exptl_crystal_description 'plate'
_diffrn_ambient_temperature 106
#These two values have been output from a single CSD field.
_refine_ls_R_factor_gt 0.0688
_refine_ls_wR_factor_gt 0.0688
_symmetry_cell_setting monoclinic
_symmetry_space_group_name_H-M 'P 21/c'
_symmetry_Int_Tables_number 14
loop_
_symmetry_equiv_pos_site_id
_symmetry_equiv_pos_as_xyz
1 x,y,z
2 -x,1/2+y,1/2-z
3 -x,-y,-z
4 x,-1/2-y,-1/2+z
_cell_length_a 7.059(4)
_cell_length_b 23.577(12)
_cell_length_c 6.871(3)
_cell_angle_alpha 90
_cell_angle_beta 94.292(6)
_cell_angle_gamma 90
_cell_formula_units_Z 4
loop_
_atom_type_symbol
_atom_type_radius_bond
C 0.68
H 0.23
La 2.07
N 0.68
O 0.68
P 1.05
loop_
_atom_site_label
_atom_site_type_symbol
_atom_site_fract_x
_atom_site_fract_y
_atom_site_fract_z
La1 La 0.23049(11) 0.97933(4) 0.83381(11)
O1 O 0.4262(12) 0.9993(4) 0.1852(13)
P1 P 0.2728(4) 0.97828(18) 0.3136(5)
N1 N 0.2377(16) 0.8893(5) 0.5641(16)
C1 C 0.344(2) 0.9088(6) 0.3953(19)
H1 H 0.32100 0.88170 0.28600
H2 H 0.48140 0.90890 0.43440
O2 O 0.0918(12) 0.9736(4) 0.1742(12)
C2 C -0.077(2) 0.8708(6) 0.674(2)
O3 O 0.2391(12) 1.0118(4) 0.4946(13)
C3 C 0.0374(18) 0.8794(6) 0.4956(19)
H3 H 0.02700 0.84540 0.41100
H4 H -0.01270 0.91240 0.41870
O4 O -0.2245(14) 0.8400(4) 0.6473(14)
C4 C 0.395(2) 0.8426(6) 0.867(2)
O5 O -0.0207(12) 0.8943(4) 0.8309(13)
C5 C 0.322(2) 0.8363(6) 0.6513(19)
H5 H 0.42830 0.82430 0.57510
H6 H 0.22450 0.80590 0.64050
O6 O 0.3984(13) 0.8914(4) 0.9440(13)
O7 O 0.4542(13) 0.7976(4) 0.9525(14)
O8 O 0.2599(13) 1.0873(4) 0.8828(13)
H7 H 0.30830 1.09410 0.99580
H8 H 0.27250 1.12230 0.84920
O9 O 0.0315(15) 0.7895(5) 0.0547(16)
H9 H -0.00460 0.79450 -0.06500
H10 H 0.14920 0.78210 0.05260
N2 N -0.3012(17) 0.7813(6) 0.2916(16)
H11 H -0.30900 0.74250 0.32870
H12 H -0.41320 0.78630 0.20760
H13 H -0.28560 0.80460 0.38420
H14 H -0.20390 0.78080 0.20290
La1* La 0.23049(11) 0.97933(4) -0.16619(11)
La1B La -0.23049(11) 1.02067(4) 0.16619(11)
La1B* La 0.76951(11) 1.02067(4) 0.16619(11)
O1* O 0.4262(12) 0.9993(4) 1.1852(13)
O1B O 0.5738(12) 1.0007(4) 0.8148(13)
O2* O 0.0918(12) 0.9736(4) 1.1742(12)
O2B O -0.0918(12) 1.0264(4) 0.8258(12)
#END
