
#######################################################################
#
#                 Cambridge Crystallographic Data Centre
#                                CCDC
#
#######################################################################
#
# If this CIF has been generated from an entry in the Cambridge
# Structural Database, then it will include bibliographic, chemical,
# crystal, experimental, refinement or atomic coordinate data resulting
# from the CCDC's data processing and validation procedures.
#
#######################################################################

data_CSD_CIF_MARRAB
_audit_creation_date 2017-04-25
_audit_creation_method CSD-ConQuest-V1
_database_code_CSD MARRAB
_database_code_depnum_ccdc_archive 'CCDC 847460'
_chemical_formula_sum 'C5 H10 N2 O7 P1 Yb1'
_chemical_formula_moiety
;
(C5 H6 N1 O7 P1 Yb1 1-)n,H4 N1 1+
;
_journal_coden_Cambridge 2148
_journal_volume 2
_journal_year 2014
_journal_page_first 94
_journal_name_full 'Frontiers in Chemistry '
loop_
_publ_author_name
"A.A.Ayi"
"T.L.Kinnibrugh"
"A.Clearfield"
_chemical_name_systematic
;
catena-[ammonium (\m-2,2'-[(phosphonatomethyl)imino]diacetato)-ytterbium]
;
_cell_volume   1026.107
_exptl_crystal_colour 'colorless'
_exptl_crystal_density_diffrn 2.681
_exptl_crystal_description 'Plate'
_diffrn_ambient_temperature 110
#These two values have been output from a single CSD field.
_refine_ls_R_factor_gt 0.0321
_refine_ls_wR_factor_gt 0.0321
_symmetry_cell_setting monoclinic
_symmetry_space_group_name_H-M 'P 21/c'
_symmetry_Int_Tables_number 14
loop_
_symmetry_equiv_pos_site_id
_symmetry_equiv_pos_as_xyz
1 x,y,z
2 -x,1/2+y,1/2-z
3 -x,-y,-z
4 x,-1/2-y,-1/2+z
_cell_length_a 9.181(3)
_cell_length_b 8.889(3)
_cell_length_c 12.827(4)
_cell_angle_alpha 90
_cell_angle_beta 101.414(3)
_cell_angle_gamma 90
_cell_formula_units_Z 4
loop_
_atom_type_symbol
_atom_type_radius_bond
C 0.68
H 0.23
N 0.68
O 0.68
P 1.05
Yb 1.87
loop_
_atom_site_label
_atom_site_type_symbol
_atom_site_fract_x
_atom_site_fract_y
_atom_site_fract_z
Yb1 Yb 0.43719(2) 0.255038(15) 0.399669(15)
P1 P 0.39213(12) 0.40976(10) 0.63298(8)
O1 O 0.4943(3) 0.3471(3) 0.5628(2)
C1 C 0.2066(5) 0.3782(5) 0.5553(4)
H1 H 0.13620 0.36200 0.60360
H2 H 0.17370 0.46790 0.51110
N1 N 0.2067(5) 0.2447(3) 0.4859(4)
O2 O 0.4101(3) 0.3260(3) 0.7371(2)
C2 C 0.2137(5) 0.1038(5) 0.5485(4)
H3 H 0.11170 0.06500 0.54500
H4 H 0.25730 0.12550 0.62390
C3 C 0.3063(5) -0.0158(4) 0.5074(3)
O3 O 0.4099(3) 0.5787(3) 0.6492(2)
O4 O 0.3317(3) -0.1360(3) 0.5598(2)
C4 C 0.0827(6) 0.2486(3) 0.3934(5)
H5 H -0.01120 0.27010 0.41750
H6 H 0.07290 0.14920 0.35780
O5 O 0.3610(3) 0.0163(3) 0.4267(2)
C5 C 0.1094(5) 0.3691(4) 0.3148(3)
O6 O 0.2436(3) 0.4106(3) 0.3214(2)
O7 O 0.0021(3) 0.4146(3) 0.2475(3)
N2 N 0.7405(6) 0.2459(3) 0.2184(4)
H7 H 0.82540 0.30430 0.21710
H8 H 0.74870 0.15220 0.23210
H9 H 0.71260 0.25800 0.15020
H10 H 0.68900 0.29060 0.26000
Yb1B Yb 0.56281(2) -0.255038(15) 0.600331(15)
Yb1B* Yb 0.56281(2) 0.744962(15) 0.600331(15)
Yb1C Yb 0.43719(2) 0.244962(15) 0.899669(15)
O2C O 0.4101(3) 0.1740(3) 0.2371(2)
O3B O 0.5901(3) 0.4213(3) 0.3508(2)
O4B O 0.6683(3) 0.1360(3) 0.4402(2)
#END
