
#######################################################################
#
#                 Cambridge Crystallographic Data Centre
#                                CCDC
#
#######################################################################
#
# If this CIF has been generated from an entry in the Cambridge
# Structural Database, then it will include bibliographic, chemical,
# crystal, experimental, refinement or atomic coordinate data resulting
# from the CCDC's data processing and validation procedures.
#
#######################################################################

data_CSD_CIF_MASCAK
_audit_creation_date 2000-09-12
_audit_creation_method CSD-ConQuest-V1
_database_code_CSD MASCAK
_database_code_depnum_ccdc_archive 'CCDC 128895'
_chemical_formula_sum 'C8 H18 K2 Mn1 O25 U1'
_chemical_formula_moiety
;
(K1 1+)2n,n(C8 H2 Mn1 O17 U1 2-),8n(H2 O1)
;
_journal_coden_Cambridge 9
_journal_volume 39
_journal_year 2000
_journal_page_first 1626
_journal_name_full 'Inorg.Chem. '
loop_
_publ_author_name
"K.P.Mortl"
"J.-P.Sutter"
"S.Golhen"
"L.Ouahab"
"O.Kahn"
_chemical_name_systematic
;
catena-(Di-potassium 
tetrakis(\m~2~-oxalato-O,O',O'',O''')-aqua-manganese(ii)-uranium(iv) 
octahydrate)
;
_cell_volume   1151.840
_exptl_crystal_colour 'green'
_exptl_crystal_density_diffrn 2.553
_diffrn_ambient_temperature ?
_diffrn_special_details
;
The study was carried out at room temperature,in the range 283-303K

;
#These two values have been output from a single CSD field.
_refine_ls_R_factor_gt 0.0199
_refine_ls_wR_factor_gt 0.0199
_symmetry_cell_setting monoclinic
_symmetry_space_group_name_H-M 'P 21'
_symmetry_Int_Tables_number 4
loop_
_symmetry_equiv_pos_site_id
_symmetry_equiv_pos_as_xyz
1 x,y,z
2 -x,1/2+y,-z
_cell_length_a 11.360(6)
_cell_length_b 8.9614(17)
_cell_length_c 11.405(9)
_cell_angle_alpha 90
_cell_angle_beta 97.22(9)
_cell_angle_gamma 90
_cell_formula_units_Z 2
loop_
_atom_type_symbol
_atom_type_radius_bond
C 0.68
K 1.33
Mn 1.35
O 0.68
U 1.58
loop_
_atom_site_label
_atom_site_type_symbol
_atom_site_fract_x
_atom_site_fract_y
_atom_site_fract_z
U1 U -0.785686(10) -0.30058(7) -0.782082(10)
Mn1 Mn -0.27449(10) -0.04719(11) -0.72769(11)
K1 K -0.76555(10) 0.2051(5) -0.77026(10)
K2 K -1.2768(2) -0.5462(3) -0.7197(2)
O1 O -0.6577(3) -0.0787(5) -0.7635(4)
O2 O -0.5787(3) -0.3548(5) -0.7524(4)
O3 O -0.4720(3) 0.0091(5) -0.7468(4)
O4 O -0.3913(3) -0.2695(5) -0.7423(4)
O5 O -0.9017(3) -0.0770(5) -0.7707(4)
O6 O -0.9689(4) -0.3440(5) -0.7051(4)
O7 O -1.0776(3) 0.0184(5) -0.7383(4)
O8 O -1.1535(3) -0.2592(5) -0.6980(4)
O9 O -0.7686(4) -0.5174(4) -0.6552(3)
O10 O -0.7402(4) -0.2411(5) -0.5778(3)
O11 O -0.7379(4) -0.6038(5) -0.4691(3)
O12 O -0.7220(4) -0.3235(4) -0.3901(4)
O13 O -0.7131(4) -0.3277(4) -1.1540(3)
O14 O -0.7403(4) -0.6094(5) -1.0789(3)
O15 O -0.7345(4) -0.2433(5) -0.9726(3)
O16 O -0.7616(4) -0.5195(5) -0.8987(3)
O17 O -0.9639(4) -0.3209(6) -0.9401(4)
O18 O -1.4218(6) -0.3277(6) -1.0595(6)
O19 O -0.5523(5) 0.2502(7) -0.6173(6)
O20 O -1.0079(5) 0.2852(7) -0.8347(5)
O21 O -0.8826(6) 0.1670(7) -0.5674(5)
O22 O -1.4769(5) -0.5510(7) -0.9055(6)
O23 O -1.0518(5) -0.5857(8) -0.5771(6)
O24 O -1.4022(6) -0.5061(7) -0.5241(5)
O25 O -1.1885(5) -0.4429(7) -0.9415(6)
C1 C -0.5468(4) -0.0923(6) -0.7519(4)
C2 C -0.4990(4) -0.2530(6) -0.7481(4)
C3 C -1.0486(5) -0.2426(7) -0.7125(4)
C4 C -1.0063(4) -0.0854(6) -0.7434(5)
C5 C -0.7477(4) -0.5024(6) -0.5436(4)
C6 C -0.7365(5) -0.3416(6) -0.4975(5)
C7 C -0.7289(5) -0.3464(7) -1.0492(5)
C8 C -0.7452(4) -0.5073(6) -1.0071(4)
O8* O -0.1535(3) -0.2592(5) -0.6980(4)
O7* O -0.0776(3) 0.0184(5) -0.7383(4)
O11A O -0.2621(4) -0.1038(5) -0.5309(3)
O12A O -0.2780(4) 0.1765(4) -0.6099(4)
O13A O -0.2869(4) 0.1723(4) -0.8460(3)
O14A O -0.2597(4) -0.1094(5) -0.9211(3)
Mn1* Mn -1.27449(10) -0.04719(11) -0.72769(11)
Mn1A Mn -0.72551(10) -0.54719(11) -0.27231(11)
Mn1A* Mn -0.72551(10) -0.54719(11) -1.27231(11)
#END
