
#######################################################################
#
#                 Cambridge Crystallographic Data Centre
#                                CCDC
#
#######################################################################
#
# If this CIF has been generated from an entry in the Cambridge
# Structural Database, then it will include bibliographic, chemical,
# crystal, experimental, refinement or atomic coordinate data resulting
# from the CCDC's data processing and validation procedures.
#
#######################################################################

data_CSD_CIF_MATCER
_audit_creation_date 2012-06-19
_audit_creation_method CSD-ConQuest-V1
_database_code_CSD MATCER
_database_code_depnum_ccdc_archive 'CCDC 837458'
_chemical_formula_sum 'C72 H54 Cu6 N18 O80 P2 W24'
_chemical_formula_moiety
;
(C72 H54 Cu6 N18 6+)n,2n(O40 P1 W12 3-)
;
_journal_coden_Cambridge 1350
_journal_volume 14
_journal_year 2012
_journal_page_first 3183
_journal_name_full 'CrystEngComm '
loop_
_publ_author_name
"Ying-Nan Chi"
"Feng-Yun Cui"
"Ai-Rui Jia"
"Xiao-Yu Ma"
"Chang-Wen Hu"
_chemical_name_systematic
;
catena-(nonakis(\m~2~-Quinoxaline)-hexa-copper(i) 
bis((\m~12~-phosphato)-tetracosakis(\m~2~-oxo)-dodecaoxo-dodeca-tungsten))
;
_cell_volume  18990.222
_exptl_crystal_colour 'red'
_exptl_crystal_density_diffrn 3.834
_exptl_crystal_description 'sheet'
_diffrn_ambient_temperature 298
#These two values have been output from a single CSD field.
_refine_ls_R_factor_gt 0.0455
_refine_ls_wR_factor_gt 0.0455
_symmetry_cell_setting rhombohedral
_symmetry_space_group_name_H-M 'R -3 m'
_symmetry_Int_Tables_number 166
loop_
_symmetry_equiv_pos_site_id
_symmetry_equiv_pos_as_xyz
1 x,y,z
2 -y,x-y,z
3 -x+y,-x,z
4 y,x,-z
5 x-y,-y,-z
6 -x,-x+y,-z
7 2/3+x,1/3+y,1/3+z
8 2/3-y,1/3+x-y,1/3+z
9 2/3-x+y,1/3-x,1/3+z
10 2/3+y,1/3+x,1/3-z
11 2/3+x-y,1/3-y,1/3-z
12 2/3-x,1/3-x+y,1/3-z
13 1/3+x,2/3+y,2/3+z
14 1/3-y,2/3+x-y,2/3+z
15 1/3-x+y,2/3-x,2/3+z
16 1/3+y,2/3+x,2/3-z
17 1/3+x-y,2/3-y,2/3-z
18 1/3-x,2/3-x+y,2/3-z
19 -x,-y,-z
20 y,-x+y,-z
21 x-y,x,-z
22 -y,-x,z
23 -x+y,y,z
24 x,x-y,z
25 -2/3-x,-1/3-y,-1/3-z
26 -2/3+y,-1/3-x+y,-1/3-z
27 -2/3+x-y,-1/3+x,-1/3-z
28 -2/3-y,-1/3-x,-1/3+z
29 -2/3-x+y,-1/3+y,-1/3+z
30 -2/3+x,-1/3+x-y,-1/3+z
31 -1/3-x,-2/3-y,-2/3-z
32 -1/3+y,-2/3-x+y,-2/3-z
33 -1/3+x-y,-2/3+x,-2/3-z
34 -1/3-y,-2/3-x,-2/3+z
35 -1/3-x+y,-2/3+y,-2/3+z
36 -1/3+x,-2/3+x-y,-2/3+z
_cell_length_a 20.303(3)
_cell_length_b 20.303(3)
_cell_length_c 53.196(11)
_cell_angle_alpha 90
_cell_angle_beta 90
_cell_angle_gamma 120
_cell_formula_units_Z 6
loop_
_atom_type_symbol
_atom_type_radius_bond
C 0.68
H 0.23
Cu 1.32
N 0.68
O 0.68
P 1.05
W 1.38
loop_
_atom_site_label
_atom_site_type_symbol
_atom_site_fract_x
_atom_site_fract_y
_atom_site_fract_z
Cu1 Cu 0.33322(6) 0.33500(6) 0.07733(3)
W1 W 0.060586(15) 0.12117(3) 0.068634(11)
W2 W 0.173175(18) 0.177698(19) 0.121401(8)
W3 W 0.11237(3) 0.056183(16) 0.178294(11)
W4 W 0.22054(3) 0.610270(16) 0.070262(12)
W5 W 0.511480(19) 0.67103(2) 0.013500(9)
W6 W 0.454690(17) 0.72734(3) -0.038940(13)
P1 P 0.00000 0.00000 0.12213(9)
P2 P 0.33330 0.66670 0.01424(10)
N1 N 0.2474(4) 0.3551(4) 0.07626(15)
N2 N 0.3365(4) 0.2382(4) 0.07375(16)
N3 N 0.4437(4) 0.4185(4) 0.07955(16)
O1 O 0.0407(2) 0.0815(5) 0.11324(18)
O2 O 0.00000 0.00000 0.1512(3)
O3 O 0.1560(3) 0.1810(3) 0.08625(12)
O4 O -0.0427(3) 0.0427(3) 0.06467(18)
O5 O 0.0816(3) 0.1631(6) 0.03986(19)
O6 O 0.1480(3) 0.1373(3) 0.15461(12)
O7 O 0.1123(2) 0.2246(5) 0.12590(19)
O8 O 0.1921(5) 0.0960(2) 0.11514(16)
O9 O 0.2625(3) 0.2548(3) 0.12498(15)
O10 O 0.0435(3) 0.0870(6) 0.19063(19)
O11 O 0.1824(6) 0.0912(3) 0.19945(18)
O12 O 0.33330 0.66670 0.0432(3)
O13 O 0.4149(5) 0.7074(2) 0.00561(19)
O14 O 0.1846(3) 0.5290(4) 0.04599(14)
O15 O 0.2904(3) 0.7096(3) 0.0827(2)
O16 O 0.1514(6) 0.5757(3) 0.09227(19)
O17 O 0.5143(3) 0.6916(4) -0.02149(14)
O18 O 0.4300(5) 0.5700(3) 0.0071(2)
O19 O 0.5560(3) 0.7780(5) 0.0191(2)
O20 O 0.5890(3) 0.6596(3) 0.01758(15)
O21 O 0.3769(3) 0.7538(3) -0.04273(19)
O22 O 0.4952(3) 0.7476(7) -0.0676(2)
C1 C 0.1985(5) 0.3275(5) 0.05807(19)
H1 H 0.20980 0.30650 0.04430
C2 C 0.2281(5) 0.3886(5) 0.0963(2)
C3 C 0.2790(6) 0.4244(6) 0.1164(2)
H2 H 0.32490 0.42470 0.11670
C4 C 0.2623(6) 0.4583(7) 0.1351(2)
H3 H 0.29680 0.48180 0.14820
C5 C 0.3617(5) 0.2148(5) 0.0929(2)
H4 H 0.38030 0.24580 0.10700
C6 C 0.3133(5) 0.1918(5) 0.0531(2)
C7 C 0.2890(5) 0.2134(5) 0.03160(19)
H5 H 0.29170 0.26050 0.03100
C8 C 0.2621(6) 0.1663(5) 0.0122(2)
H6 H 0.24300 0.17930 -0.00170
C9 C 0.4774(5) 0.4530(6) 0.0585(2)
H7 H 0.45490 0.43100 0.04320
C10 C 0.4808(5) 0.4498(5) 0.10191(19)
C11 C 0.4488(5) 0.4141(6) 0.1251(2)
H8 H 0.40320 0.36810 0.12530
C12 C 0.4846(6) 0.4469(6) 0.1472(2)
H9 H 0.46290 0.42320 0.16240
Cu1V Cu 0.00178(6) 0.33500(6) 0.07733(3)
Cu1W Cu 0.33322(6) -0.00178(6) 0.07733(3)
Cu1U Cu 0.66500(6) 0.66678(6) 0.07733(3)
Cu1B Cu 0.00178(6) -0.33322(6) 0.07733(3)
Cu1A Cu -0.33500(6) -0.00178(6) 0.07733(3)
Cu1A* Cu 0.66500(6) -0.00178(6) 0.07733(3)
Cu1A** Cu 0.66500(6) 0.99822(6) 0.07733(3)
Cu1B* Cu 1.00178(6) 0.66678(6) 0.07733(3)
Cu1W* Cu 1.33322(6) 0.99822(6) 0.07733(3)
W1A W -0.121170(15) -0.060584(30) 0.068634(11)
W1B W 0.060584(15) -0.060586(30) 0.068634(11)
W2A W -0.177698(18) -0.004523(19) 0.121401(8)
W2B W 0.004523(18) -0.173175(19) 0.121401(8)
W2V W 0.004523(18) 0.177698(19) 0.121401(8)
W2U W -0.177698(18) -0.173175(19) 0.121401(8)
W2W W 0.173175(18) -0.004523(19) 0.121401(8)
W3B W -0.056187(30) -0.112370(16) 0.178294(11)
W3A W -0.056183(30) 0.056187(16) 0.178294(11)
W4A W 0.38973(3) 0.610270(16) 0.070262(12)
W4B W 0.38973(3) 0.779460(16) 0.070262(12)
W5A W 0.328970(19) 0.84045(2) 0.013500(9)
W5B W 0.159550(19) 0.48852(2) 0.013500(9)
W5V W 0.159550(19) 0.67103(2) 0.013500(9)
W5W W 0.511480(19) 0.84045(2) 0.013500(9)
W5U W 0.328970(19) 0.48852(2) 0.013500(9)
W6A W 0.272660(17) 0.72735(3) -0.038940(13)
W6B W 0.272650(17) 0.54531(3) -0.038940(13)
N1V N 0.1077(4) 0.3551(4) 0.07626(15)
N1W N 0.2474(4) -0.1077(4) 0.07626(15)
N1B N 0.1077(4) -0.2474(4) 0.07626(15)
N1U N 0.6449(4) 0.7526(4) 0.07626(15)
N1A N 0.6449(4) 0.8923(4) 0.07626(15)
N1B* N 1.1077(4) 0.7526(4) 0.07626(15)
N1W* N 1.2474(4) 0.8923(4) 0.07626(15)
N2W N 0.3365(4) 0.0983(4) 0.07375(16)
N2V N -0.0983(4) 0.2382(4) 0.07375(16)
N2A N -0.2382(4) 0.0983(4) 0.07375(16)
N2U N 0.7618(4) 0.6635(4) 0.07375(16)
N2B N 0.9017(4) 0.6635(4) 0.07375(16)
N2W* N 1.3365(4) 1.0983(4) 0.07375(16)
N3U N 0.5815(4) 0.5563(4) 0.07955(16)
N3V N -0.0252(4) 0.4185(4) 0.07955(16)
N3W N 0.4437(4) 0.0252(4) 0.07955(16)
N3A N 0.5815(4) 0.0252(4) 0.07955(16)
N3B N 0.9748(4) 0.5563(4) 0.07955(16)
N3W* N 1.4437(4) 1.0252(4) 0.07955(16)
O1A O -0.0815(2) -0.0408(5) 0.11324(18)
O1B O 0.0408(2) -0.0407(5) 0.11324(18)
O3V O 0.0250(3) 0.1810(3) 0.08625(12)
O3A O -0.1810(3) -0.0250(3) 0.08625(12)
O3U O -0.1810(3) -0.1560(3) 0.08625(12)
O3B O 0.0250(3) -0.1560(3) 0.08625(12)
O3W O 0.1560(3) -0.0250(3) 0.08625(12)
O4B O 0.0854(3) 0.0427(3) 0.06467(18)
O4A O -0.0427(3) -0.0854(3) 0.06467(18)
O5A O -0.1631(3) -0.0815(6) 0.03986(19)
O5B O 0.0815(3) -0.0816(6) 0.03986(19)
O6W O 0.1480(3) 0.0107(3) 0.15461(12)
O6B O -0.0107(3) -0.1480(3) 0.15461(12)
O6U O -0.1373(3) -0.1480(3) 0.15461(12)
O6A O -0.1373(3) 0.0107(3) 0.15461(12)
O6V O -0.0107(3) 0.1373(3) 0.15461(12)
O7A O -0.2246(2) -0.1123(5) 0.12590(19)
O7B O 0.1123(2) -0.1123(5) 0.12590(19)
O8A O -0.0960(5) 0.0961(2) 0.11514(16)
O8B O -0.0961(5) -0.1921(2) 0.11514(16)
O9A O -0.2548(3) 0.0077(3) 0.12498(15)
O9B O -0.0077(3) -0.2625(3) 0.12498(15)
O9V O -0.0077(3) 0.2548(3) 0.12498(15)
O9U O -0.2548(3) -0.2625(3) 0.12498(15)
O9W O 0.2625(3) 0.0077(3) 0.12498(15)
O10B O 0.0435(3) -0.0435(6) 0.19063(19)
O10A O -0.0870(3) -0.0435(6) 0.19063(19)
O11B O -0.0912(6) -0.1824(3) 0.19945(18)
O11A O -0.0912(6) 0.0912(3) 0.19945(18)
O13A O 0.2926(5) 0.7075(2) 0.00561(19)
O13B O 0.2925(5) 0.5851(2) 0.00561(19)
O14W O 0.1846(3) 0.6556(4) 0.04599(14)
O14A O 0.4710(3) 0.6556(4) 0.04599(14)
O14V O 0.3444(3) 0.5290(4) 0.04599(14)
O14B O 0.3444(3) 0.8154(4) 0.04599(14)
O14U O 0.4710(3) 0.8154(4) 0.04599(14)
O15A O 0.2904(3) 0.5808(3) 0.0827(2)
O15B O 0.4192(3) 0.7096(3) 0.0827(2)
O16A O 0.4243(6) 0.5757(3) 0.09227(19)
O16B O 0.4243(6) 0.8486(3) 0.09227(19)
O17W O 0.5143(3) 0.8227(4) -0.02149(14)
O17A O 0.3084(3) 0.8227(4) -0.02149(14)
O17V O 0.1773(3) 0.6916(4) -0.02149(14)
O17B O 0.1773(3) 0.4857(4) -0.02149(14)
O17U O 0.3084(3) 0.4857(4) -0.02149(14)
O18A O 0.4300(5) 0.8600(3) 0.0071(2)
O18B O 0.1400(5) 0.5700(3) 0.0071(2)
O19A O 0.2220(3) 0.7780(5) 0.0191(2)
O19B O 0.2220(3) 0.4440(5) 0.0191(2)
O20A O 0.3404(3) 0.9294(3) 0.01758(15)
O20B O 0.0706(3) 0.4110(3) 0.01758(15)
O20V O 0.0706(3) 0.6596(3) 0.01758(15)
O20W O 0.5890(3) 0.9294(3) 0.01758(15)
O20U O 0.3404(3) 0.4110(3) 0.01758(15)
O21B O 0.3769(3) 0.6231(3) -0.04273(19)
O21A O 0.2462(3) 0.6231(3) -0.04273(19)
O22A O 0.2524(3) 0.7476(7) -0.0676(2)
O22B O 0.2524(3) 0.5048(7) -0.0676(2)
C1V C 0.1290(5) 0.3275(5) 0.05807(19)
C1W C 0.1985(5) -0.1290(5) 0.05807(19)
C1B C 0.1290(5) -0.1985(5) 0.05807(19)
C1U C 0.6725(5) 0.8015(5) 0.05807(19)
C1A C 0.6725(5) 0.8710(5) 0.05807(19)
C1B* C 1.1290(5) 0.8015(5) 0.05807(19)
C1W* C 1.1985(5) 0.8710(5) 0.05807(19)
H1V H 0.09670 0.30650 0.04430
H1W H 0.20980 -0.09670 0.04430
H1B H 0.09670 -0.20980 0.04430
H1U H 0.69350 0.79020 0.04430
H1A H 0.69350 0.90330 0.04430
H1B* H 1.09670 0.79020 0.04430
H1W* H 1.20980 0.90330 0.04430
C2V C 0.1605(5) 0.3886(5) 0.0963(2)
C2W C 0.2281(5) -0.1605(5) 0.0963(2)
C2B C 0.1605(5) -0.2281(5) 0.0963(2)
C2U C 0.6114(5) 0.7719(5) 0.0963(2)
C2A C 0.6114(5) 0.8395(5) 0.0963(2)
C2B* C 1.1605(5) 0.7719(5) 0.0963(2)
C2W* C 1.2281(5) 0.8395(5) 0.0963(2)
C3V C 0.1454(6) 0.4244(6) 0.1164(2)
C3W C 0.2790(6) -0.1454(6) 0.1164(2)
C3B C 0.1454(6) -0.2790(6) 0.1164(2)
C3U C 0.5756(6) 0.7210(6) 0.1164(2)
C3A C 0.5756(6) 0.8546(6) 0.1164(2)
C3B* C 1.1454(6) 0.7210(6) 0.1164(2)
C3W* C 1.2790(6) 0.8546(6) 0.1164(2)
H2V H 0.09980 0.42470 0.11670
H2W H 0.32490 -0.09980 0.11670
H2B H 0.09980 -0.32490 0.11670
H2U H 0.57530 0.67510 0.11670
H2A H 0.57530 0.90020 0.11670
H2B* H 1.09980 0.67510 0.11670
H2W* H 1.32490 0.90020 0.11670
C4V C 0.1960(6) 0.4583(7) 0.1351(2)
C4W C 0.2623(6) -0.1960(7) 0.1351(2)
C4B C 0.1960(6) -0.2623(7) 0.1351(2)
C4U C 0.5417(6) 0.7377(7) 0.1351(2)
C4A C 0.5417(6) 0.8040(7) 0.1351(2)
C4B* C 1.1960(6) 0.7377(7) 0.1351(2)
C4W* C 1.2623(6) 0.8040(7) 0.1351(2)
H3V H 0.18500 0.48180 0.14820
H3W H 0.29680 -0.18500 0.14820
H3B H 0.18500 -0.29680 0.14820
H3U H 0.51820 0.70320 0.14820
H3A H 0.51820 0.81500 0.14820
H3B* H 1.18500 0.70320 0.14820
H3W* H 1.29680 0.81500 0.14820
C5W C 0.3617(5) 0.1469(5) 0.0929(2)
C5V C -0.1469(5) 0.2148(5) 0.0929(2)
C5A C -0.2148(5) 0.1469(5) 0.0929(2)
C5U C 0.7852(5) 0.6383(5) 0.0929(2)
C5B C 0.8531(5) 0.6383(5) 0.0929(2)
H4W H 0.38030 0.13450 0.10700
H4V H -0.13450 0.24580 0.10700
H4A H -0.24580 0.13450 0.10700
H4U H 0.75420 0.61970 0.10700
H4B H 0.86550 0.61970 0.10700
C6W C 0.3133(5) 0.1215(5) 0.0531(2)
C6V C -0.1215(5) 0.1918(5) 0.0531(2)
C6A C -0.1918(5) 0.1215(5) 0.0531(2)
C6U C 0.8082(5) 0.6867(5) 0.0531(2)
C6B C 0.8785(5) 0.6867(5) 0.0531(2)
C7W C 0.2890(5) 0.0756(5) 0.03160(19)
C7V C -0.0756(5) 0.2134(5) 0.03160(19)
C7A C -0.2134(5) 0.0756(5) 0.03160(19)
C7U C 0.7866(5) 0.7110(5) 0.03160(19)
C7B C 0.9244(5) 0.7110(5) 0.03160(19)
H5W H 0.29170 0.03120 0.03100
H5V H -0.03120 0.26050 0.03100
H5A H -0.26050 0.03120 0.03100
H5U H 0.73950 0.70830 0.03100
H5B H 0.96880 0.70830 0.03100
C8W C 0.2621(6) 0.0958(5) 0.0122(2)
C8V C -0.0958(6) 0.1663(5) 0.0122(2)
C8A C -0.1663(6) 0.0958(5) 0.0122(2)
C8U C 0.8337(6) 0.7379(5) 0.0122(2)
C8B C 0.9042(6) 0.7379(5) 0.0122(2)
H6W H 0.24300 0.06370 -0.00170
H6V H -0.06370 0.17930 -0.00170
H6A H -0.17930 0.06370 -0.00170
H6U H 0.82070 0.75700 -0.00170
H6B H 0.93630 0.75700 -0.00170
C9U C 0.5470(5) 0.5226(6) 0.0585(2)
C9W C 0.4774(5) 0.0244(6) 0.0585(2)
C9A C 0.5470(5) 0.0244(6) 0.0585(2)
H7U H 0.56900 0.54510 0.04320
H7W H 0.45490 0.02390 0.04320
H7A H 0.56900 0.02390 0.04320
C10U C 0.5502(5) 0.5192(5) 0.10191(19)
C10W C 0.4808(5) 0.0310(5) 0.10191(19)
C10A C 0.5502(5) 0.0310(5) 0.10191(19)
C11U C 0.5859(5) 0.5512(6) 0.1251(2)
C11W C 0.4488(5) 0.0347(6) 0.1251(2)
C11A C 0.5859(5) 0.0347(6) 0.1251(2)
H8U H 0.63190 0.59680 0.12530
H8W H 0.40320 0.03510 0.12530
H8A H 0.63190 0.03510 0.12530
C12U C 0.5531(6) 0.5154(6) 0.1472(2)
C12W C 0.4846(6) 0.0377(6) 0.1472(2)
C12A C 0.5531(6) 0.0377(6) 0.1472(2)
H9U H 0.57680 0.53710 0.16240
H9W H 0.46290 0.03970 0.16240
H9A H 0.57680 0.03970 0.16240
#END
