
#######################################################################
#
#                 Cambridge Crystallographic Data Centre
#                                CCDC
#
#######################################################################
#
# If this CIF has been generated from an entry in the Cambridge
# Structural Database, then it will include bibliographic, chemical,
# crystal, experimental, refinement or atomic coordinate data resulting
# from the CCDC's data processing and validation procedures.
#
#######################################################################

data_CSD_CIF_MATCIV
_audit_creation_date 2012-06-19
_audit_creation_method CSD-ConQuest-V1
_database_code_CSD MATCIV
_database_code_depnum_ccdc_archive 'CCDC 837459'
_chemical_formula_sum 'C40 H32 Cu3 N10 O41 P1 W12'
_chemical_formula_moiety
;
(C40 H32 Cu3 N10 O1 3+)n,n(O40 P1 W12 3-)
;
_journal_coden_Cambridge 1350
_journal_volume 14
_journal_year 2012
_journal_page_first 3183
_journal_name_full 'CrystEngComm '
loop_
_publ_author_name
"Ying-Nan Chi"
"Feng-Yun Cui"
"Ai-Rui Jia"
"Xiao-Yu Ma"
"Chang-Wen Hu"
_chemical_name_systematic
;
catena-(pentakis(\m~2~-Quinoxaline)-aqua-tri-copper 
(\m~12~-phosphato)-tetracosakis(\m~2~-oxo)-dodecaoxo-dodeca-tungsten)
;
_cell_volume   6735.135
_exptl_crystal_colour 'red'
_exptl_crystal_density_diffrn 3.685
_exptl_crystal_description 'sheet'
_diffrn_ambient_temperature 296
_refine_special_details
;
The phosphate moiety is disordered by symmetry.

;
#These two values have been output from a single CSD field.
_refine_ls_R_factor_gt 0.0489
_refine_ls_wR_factor_gt 0.0489
_symmetry_cell_setting orthorhombic
_symmetry_space_group_name_H-M 'P c c n'
_symmetry_Int_Tables_number 56
loop_
_symmetry_equiv_pos_site_id
_symmetry_equiv_pos_as_xyz
1 x,y,z
2 1/2-x,1/2-y,z
3 -x,1/2+y,1/2-z
4 1/2+x,-y,1/2-z
5 -x,-y,-z
6 -1/2+x,-1/2+y,-z
7 x,-1/2-y,-1/2+z
8 -1/2-x,y,-1/2+z
_cell_length_a 16.9679(11)
_cell_length_b 18.5233(12)
_cell_length_c 21.4289(15)
_cell_angle_alpha 90
_cell_angle_beta 90
_cell_angle_gamma 90
_cell_formula_units_Z 4
loop_
_atom_type_symbol
_atom_type_radius_bond
C 0.68
H 0.23
Cu 1.32
N 0.68
O 0.68
P 1.05
W 1.41
loop_
_atom_site_label
_atom_site_type_symbol
_atom_site_fract_x
_atom_site_fract_y
_atom_site_fract_z
O1 O 0.4724(5) 0.8925(6) 0.2752(4)
O2 O 0.2895(5) 1.1057(5) 0.3458(4)
Cu1 Cu 0.75000 0.75000 0.14159(12)
C1 C 0.5920(8) 0.7610(7) 0.1797(6)
H1 H 0.60940 0.73020 0.21110
C2 C 0.5170(7) 0.7874(6) 0.1832(6)
H2 H 0.48560 0.77410 0.21680
C3 C 0.5322(6) 0.8457(5) 0.0903(5)
C4 C 0.6106(6) 0.8195(5) 0.0854(5)
C5 C 0.6564(7) 0.8350(7) 0.0339(5)
H3 H 0.70700 0.81610 0.03080
C6 C 0.6289(9) 0.8761(8) -0.0103(6)
H4 H 0.66100 0.88700 -0.04410
C7 C 0.5467(10) 0.9066(9) -0.0084(6)
H5 H 0.52720 0.93600 -0.04000
C8 C 0.5028(8) 0.8887(8) 0.0420(6)
H6 H 0.45130 0.90550 0.04460
C9 C 0.2886(9) 0.9994(9) 0.1910(6)
H7 H 0.25130 0.96290 0.19470
C10 C 0.2645(11) 1.0771(10) 0.1965(7)
H8 H 0.21220 1.08820 0.20520
C11 C 0.3879(14) 1.1146(9) 0.1803(7)
C12 C 0.4172(13) 1.0425(8) 0.1769(7)
C13 C 0.4957(13) 1.0256(9) 0.1711(7)
H9 H 0.51300 0.97800 0.17090
C14 C 0.5503(15) 1.0855(10) 0.1653(8)
H10 H 0.60440 1.07790 0.16290
C15 C 0.5178(15) 1.1571(10) 0.1636(8)
H11 H 0.55140 1.19580 0.15610
C16 C 0.4429(15) 1.1699(9) 0.1721(8)
H12 H 0.42560 1.21750 0.17280
C17 C 0.2758(7) 0.7790(6) 0.1131(6)
H13 H 0.29370 0.79700 0.07510
C18 C 0.2742(6) 0.7823(8) 0.2181(6)
C19 C 0.2934(9) 0.8156(10) 0.2758(7)
H14 H 0.32330 0.85760 0.27600
C20 C 0.2684(13) 0.7866(13) 0.3306(11)
H15 H 0.27420 0.81220 0.36770
Cu2 Cu 0.38926(10) 0.88339(9) 0.16332(9)
N1 N 0.6418(5) 0.7773(5) 0.1330(5)
N2 N 0.4877(6) 0.8309(5) 0.1407(5)
N3 N 0.3611(7) 0.9838(5) 0.1811(5)
N4 N 0.3126(10) 1.1267(9) 0.1897(8)
N5 N 0.3007(5) 0.8099(6) 0.1657(6)
O3 O 0.4175(6) 1.0344(6) 0.4953(5)
O4 O 0.4812(6) 1.0159(6) 0.4297(5)
O5 O 0.4399(7) 0.9441(6) 0.5222(5)
O6 O 0.4936(7) 1.0655(6) 0.5363(6)
O7 O 0.3112(7) 1.0591(5) 0.5569(4)
O8 O 0.3524(6) 1.1381(5) 0.4620(3)
O9 O 0.3172(6) 1.2081(5) 0.5736(5)
O10 O 0.4249(5) 1.1168(6) 0.6245(4)
O11 O 0.4680(5) 1.1935(5) 0.5283(4)
O12 O 0.4347(6) 0.8267(6) 0.5656(3)
O13 O 0.3852(5) 0.7391(4) 0.4692(5)
O14 O 0.4271(4) 0.8579(5) 0.3962(4)
O15 O 0.5417(6) 1.0123(5) 0.3344(6)
O16 O 0.3919(6) 0.9872(5) 0.3523(6)
O17 O 0.6576(6) 1.0652(6) 0.3989(4)
O18 O 0.4504(6) 1.1173(5) 0.3660(6)
O19 O 0.5920(6) 1.1511(5) 0.3065(4)
O20 O 0.3309(6) 0.8795(6) 0.4889(4)
O21 O 0.1995(4) 0.9488(5) 0.5380(4)
O22 O 0.2979(6) 1.0077(5) 0.4456(3)
O23 O 0.75000 0.75000 0.2539(8)
P1 P 0.50000 1.00000 0.50000
W1 W 0.37454(2) 1.14209(2) 0.549400(18)
W2 W 0.42315(2) 0.82209(2) 0.479455(18)
W3 W 0.48072(2) 0.92721(2) 0.347621(18)
W4 W 0.56182(3) 1.10272(2) 0.36826(2)
W5 W 0.29541(2) 0.96584(2) 0.524670(19)
W6 W 0.35699(2) 1.07171(2) 0.39528(2)
O1D O 0.5276(5) 1.1075(6) 0.7248(4)
O2D O 0.7105(5) 0.8943(5) 0.6542(4)
C1A C 0.9080(8) 0.7390(7) 0.1797(6)
H1A H 0.89060 0.76980 0.21110
C2A C 0.9830(7) 0.7126(6) 0.1832(6)
H2A H 1.01440 0.72590 0.21680
C3A C 0.9678(6) 0.6543(5) 0.0903(5)
C4A C 0.8894(6) 0.6805(5) 0.0854(5)
C5A C 0.8436(7) 0.6650(7) 0.0339(5)
H3A H 0.79300 0.68390 0.03080
C6A C 0.8711(9) 0.6239(8) -0.0103(6)
H4A H 0.83900 0.61300 -0.04410
C7A C 0.9533(10) 0.5934(9) -0.0084(6)
H5A H 0.97280 0.56400 -0.04000
C8A C 0.9972(8) 0.6113(8) 0.0420(6)
H6A H 1.04870 0.59450 0.04460
C9A C 1.2114(9) 0.5006(9) 0.1910(6)
H7A H 1.24870 0.53710 0.19470
C10A C 1.2355(11) 0.4229(10) 0.1965(7)
H8A H 1.28780 0.41180 0.20520
C11A C 1.1121(14) 0.3854(9) 0.1803(7)
C12A C 1.0828(13) 0.4575(8) 0.1769(7)
C13A C 1.0043(13) 0.4744(9) 0.1711(7)
H9A H 0.98700 0.52200 0.17090
C14A C 0.9497(15) 0.4145(10) 0.1653(8)
H10A H 0.89560 0.42210 0.16290
C15A C 0.9822(15) 0.3429(10) 0.1636(8)
H11A H 0.94860 0.30420 0.15610
C16A C 1.0571(15) 0.3301(9) 0.1721(8)
H12A H 1.07440 0.28250 0.17280
C17A C 0.2242(7) 0.7210(6) 0.1131(6)
H13A H 0.20630 0.70300 0.07510
C18A C 0.2258(6) 0.7177(8) 0.2181(6)
C19A C 0.2066(9) 0.6844(10) 0.2758(7)
H14A H 0.17670 0.64240 0.27600
C20A C 0.2316(13) 0.7134(13) 0.3306(11)
H15A H 0.22580 0.68780 0.36770
Cu2A Cu 1.11074(10) 0.61661(9) 0.16332(9)
Cu2A* Cu 0.11074(10) 0.61661(9) 0.16332(9)
N1A N 0.8582(5) 0.7227(5) 0.1330(5)
N2A N 1.0123(6) 0.6691(5) 0.1407(5)
N3A N 1.1389(7) 0.5162(5) 0.1811(5)
N4A N 1.1874(10) 0.3733(9) 0.1897(8)
N5A N 0.1993(5) 0.6901(6) 0.1657(6)
N5A* N 1.1993(5) 0.6901(6) 0.1657(6)
O3D O 0.5825(6) 0.9656(6) 0.5047(5)
O4D O 0.5188(6) 0.9841(6) 0.5703(5)
O5D O 0.5601(7) 1.0559(6) 0.4778(5)
O6D O 0.5064(7) 0.9345(6) 0.4637(6)
O7D O 0.6888(7) 0.9409(5) 0.4431(4)
O8D O 0.6476(6) 0.8619(5) 0.5380(3)
O9D O 0.6828(6) 0.7919(5) 0.4264(5)
O10D O 0.5751(5) 0.8832(6) 0.3755(4)
O11D O 0.5320(5) 0.8065(5) 0.4717(4)
O12D O 0.5653(6) 1.1733(6) 0.4344(3)
O13D O 0.6148(5) 1.2609(4) 0.5308(5)
O14D O 0.5729(4) 1.1421(5) 0.6038(4)
O15D O 0.4583(6) 0.9877(5) 0.6656(6)
O16D O 0.6081(6) 1.0128(5) 0.6477(6)
O17D O 0.3424(6) 0.9348(6) 0.6011(4)
O18D O 0.5496(6) 0.8827(5) 0.6340(6)
O19D O 0.4080(6) 0.8489(5) 0.6935(4)
O20D O 0.6691(6) 1.1205(6) 0.5111(4)
O21D O 0.8005(4) 1.0512(5) 0.4620(4)
O22D O 0.7021(6) 0.9923(5) 0.5544(3)
W1D W 0.62546(2) 0.85791(2) 0.450600(18)
W2D W 0.57685(2) 1.17791(2) 0.520545(18)
W3D W 0.51928(2) 1.07279(2) 0.652379(18)
W4D W 0.43818(3) 0.89728(2) 0.63174(2)
W5D W 0.70459(2) 1.03416(2) 0.475330(19)
W6D W 0.64301(2) 0.92829(2) 0.60472(2)
#END
