
#######################################################################
#
#                 Cambridge Crystallographic Data Centre
#                                CCDC
#
#######################################################################
#
# If this CIF has been generated from an entry in the Cambridge
# Structural Database, then it will include bibliographic, chemical,
# crystal, experimental, refinement or atomic coordinate data resulting
# from the CCDC's data processing and validation procedures.
#
#######################################################################

data_CSD_CIF_MATFIY
_audit_creation_date 2012-06-19
_audit_creation_method CSD-ConQuest-V1
_database_code_CSD MATFIY
_database_code_depnum_ccdc_archive 'CCDC 842540'
_chemical_formula_sum 'C30 H26 Ag7 N25 O41 Si1 W12'
_chemical_formula_moiety
;
(C30 H22 Ag7 N25 O1 2+)n,n(H4 O40 Si1 W12 2-)
;
_journal_coden_Cambridge 1350
_journal_volume 14
_journal_year 2012
_journal_page_first 3220
_journal_name_full 'CrystEngComm '
loop_
_publ_author_name
"Xiang Wang"
"Jun Peng"
"Ming-Guan Liu"
"Dan-Dan Wang"
"Cui-Li Meng"
"Yang Li"
"Zhen-Yu Shi"
_chemical_name_systematic
;
catena-(bis(\m~5~-5-(4-Pyridyl)tetrazolato)-bis(\m~3~-5-(4-pyridyl)tetrazolato
)-(\m~2~-5-(4-pyridyl)tetrazolato)-aqua-hepta-silver 
(\m~12~-silicato)-tetrakis(\m~2~-hydroxo)-icosakis(\m~2~-oxo)-dodecaoxo-dodeca
-tungsten)
;
_cell_volume   3522.826
_exptl_crystal_colour 'yellow'
_exptl_crystal_density_diffrn 4.125
_exptl_crystal_description 'block'
_diffrn_ambient_temperature 293
#These two values have been output from a single CSD field.
_refine_ls_R_factor_gt 0.0657
_refine_ls_wR_factor_gt 0.0657
_symmetry_cell_setting triclinic
_symmetry_space_group_name_H-M 'P -1'
_symmetry_Int_Tables_number 2
loop_
_symmetry_equiv_pos_site_id
_symmetry_equiv_pos_as_xyz
1 x,y,z
2 -x,-y,-z
_cell_length_a 12.068(5)
_cell_length_b 13.909(5)
_cell_length_c 22.742(5)
_cell_angle_alpha 95.902(5)
_cell_angle_beta 104.964(5)
_cell_angle_gamma 103.970(5)
_cell_formula_units_Z 2
loop_
_atom_type_symbol
_atom_type_radius_bond
C 0.68
H 0.23
Ag 1.45
N 0.68
O 0.68
Si 1.20
W 1.37
loop_
_atom_site_label
_atom_site_type_symbol
_atom_site_fract_x
_atom_site_fract_y
_atom_site_fract_z
W1 W 1.22065(8) 0.59780(6) 0.42672(3)
Si1 Si 1.2686(4) 0.6955(4) 0.29573(18)
O1 O 1.2380(11) 0.6638(10) 0.1465(5)
Ag1 Ag 1.3113(2) -0.16775(17) -0.06647(8)
N1 N 1.5312(16) -1.3101(15) -0.4236(7)
O2 O 2.270(3) -0.835(2) -0.1664(13)
W2 W 1.33307(7) 0.80021(7) 0.17063(3)
O3 O 1.4321(12) 0.5808(11) 0.2318(5)
Ag2 Ag 1.51264(14) -0.05722(13) 0.07947(7)
C1 C 2.244(3) 1.059(3) 0.5226(15)
H1 H 2.29090 1.06890 0.49570
W3 W 1.11226(7) 0.55402(7) 0.14777(3)
O4 O 1.0602(11) 0.8347(10) 0.3617(5)
Ag3 Ag 1.81736(17) 0.57572(13) 0.44031(7)
C2 C 1.7734(17) 0.2721(17) 0.3480(8)
H2 H 1.80160 0.21910 0.36120
W4 W 1.42185(8) 0.82224(7) 0.44809(3)
Ag4 Ag 2.14328(15) -0.98366(15) -0.14587(7)
O5 O 1.1642(12) 0.7534(11) 0.2939(5)
N2 N 1.9759(15) 0.7899(15) 0.4980(7)
C3 C 2.2152(18) -0.9197(16) 0.0101(8)
Ag5 Ag 1.97015(15) 0.15706(16) 0.30007(7)
W5 W 1.19871(8) 0.91702(6) 0.34474(3)
O6 O 1.4992(13) 0.8846(11) 0.3910(5)
N3 N 1.9042(16) 0.7164(15) 0.5690(7)
Ag6 Ag 2.39742(14) -0.87879(15) 0.17298(7)
W6 W 1.31715(7) 0.46508(6) 0.23866(3)
O7 O 1.1805(12) 0.3955(11) 0.2559(6)
N4 N 2.253(2) 1.130(2) 0.5653(13)
C4 C 1.6831(16) 0.1736(15) 0.2431(7)
W7 W 0.99587(7) 0.69431(7) 0.32688(3)
O8 O 1.4710(12) 0.7494(11) 0.1831(5)
C5 C 2.105(2) 1.0273(18) 0.6041(9)
H3 H 2.05890 1.01750 0.63140
W8 W 1.53837(7) 0.71078(7) 0.26007(4)
O9 O 1.0125(12) 0.4622(11) 0.1838(5)
N5 N 1.966(2) -0.7513(16) 0.0118(8)
C6 C 1.657(2) 0.338(2) 0.2748(9)
H4 H 1.60400 0.33170 0.23580
W9 W 1.05854(7) 0.45877(6) 0.27041(3)
O10 O 1.5765(13) 1.0426(12) 0.3341(7)
N6 N 1.5255(17) -0.1950(15) 0.0272(10)
C7 C 2.1309(18) -0.8605(16) 0.0155(8)
W10 W 1.48588(7) 0.92614(6) 0.31359(4)
O11 O 1.5294(12) 0.7387(10) 0.4508(5)
N7 N 1.459(2) -0.2326(16) -0.0317(9)
C8 C 2.070(2) -0.727(2) 0.0526(10)
H5 H 2.08760 -0.66850 0.08120
W11 W 1.48148(7) 0.60842(6) 0.39620(3)
O12 O 0.9554(15) 0.3541(12) 0.2730(6)
N8 N 1.7275(15) 0.0594(14) 0.1898(6)
W12 W 1.04551(7) 0.78578(7) 0.20237(3)
O13 O 1.3266(13) 0.8322(12) 0.0987(6)
N9 N 1.6195(15) 0.0591(14) 0.1640(7)
N10 N 1.7752(15) 0.1282(13) 0.2418(7)
O14 O 1.0991(12) 0.9066(11) 0.2612(6)
N11 N 1.8631(15) -1.0711(13) -0.1639(7)
O15 O 1.3749(14) 0.3701(11) 0.2211(6)
N12 N 2.3078(13) -0.9211(13) 0.0575(6)
O16 O 1.1952(14) 1.0321(13) 0.3779(6)
C9 C 1.504(2) -1.245(2) -0.3853(10)
H6 H 1.43050 -1.23130 -0.39690
N13 N 2.3565(16) -0.9893(13) 0.0376(6)
C10 C 1.637(2) -1.3272(19) -0.4088(9)
H7 H 1.65330 -1.37370 -0.43540
O17 O 0.8678(13) 0.6671(11) 0.3483(6)
N14 N 1.9482(15) -1.0815(14) -0.1884(7)
O18 O 1.3694(12) 0.7604(11) 0.2699(5)
C11 C 1.686(2) 0.427(2) 0.3156(10)
H8 H 1.65470 0.47950 0.30350
C12 C 1.5819(19) -1.2003(15) -0.3313(8)
H9 H 1.55740 -1.16270 -0.30340
O19 O 1.1668(14) 0.5433(12) 0.4792(6)
N15 N 1.7614(16) 0.4388(15) 0.3742(7)
N16 N 1.5893(13) 0.1312(13) 0.1950(6)
C13 C 1.7255(16) -1.2769(14) -0.3538(7)
H10 H 1.79960 -1.28980 -0.34380
O20 O 1.0372(13) 0.5087(12) 0.0715(6)
N17 N 1.7597(14) -1.1166(14) -0.2064(6)
C14 C 2.156(2) -0.7749(19) 0.0592(10)
H11 H 2.22730 -0.75210 0.09100
O21 O 1.6677(14) 0.6984(13) 0.2484(6)
N18 N 1.9073(17) 0.7099(16) 0.5095(8)
C15 C 1.9389(18) -0.8369(16) -0.0279(8)
H12 H 1.86260 -0.85950 -0.05570
O22 O 1.5908(14) 0.5574(12) 0.4313(6)
N19 N 2.3016(14) -1.0223(12) -0.0206(7)
C16 C 1.7009(19) 0.2587(17) 0.2884(9)
O23 O 1.3213(14) 0.7229(12) 0.4777(5)
N20 N 1.9009(14) -1.1371(13) -0.2460(7)
C17 C 1.8053(19) 0.3604(17) 0.3884(9)
H13 H 1.85910 0.36710 0.42710
O24 O 0.9396(12) 0.7311(12) 0.2476(5)
N21 N 2.2072(16) -0.9825(14) -0.0384(7)
C18 C 2.0982(18) 0.9530(16) 0.5572(8)
O25 O 1.2088(11) 0.5842(10) 0.2534(5)
N22 N 1.9781(14) 0.8074(13) 0.5955(7)
C19 C 2.0158(18) 0.8489(15) 0.5521(9)
O26 O 0.9531(13) 0.8200(11) 0.1450(6)
C20 C 2.0163(17) -0.8933(16) -0.0299(7)
H14 H 1.99550 -0.95080 -0.05970
O27 O 1.4976(14) 0.8998(13) 0.5139(6)
C21 C 2.161(2) 0.9664(19) 0.5179(11)
H15 H 2.15030 0.91360 0.48650
O28 O 1.3262(10) 0.6829(10) 0.3670(5)
C22 C 2.190(3) 1.122(2) 0.6067(13)
H16 H 2.20150 1.17750 0.63660
O29 O 1.1891(12) 0.8236(11) 0.1822(5)
C23 C 1.7003(13) -1.2068(12) -0.3140(6)
O30 O 1.1042(12) 0.6624(11) 0.3946(5)
C24 C 1.7835(16) -1.1581(15) -0.2562(8)
O31 O 1.0356(12) 0.6517(11) 0.1676(5)
O32 O 1.3946(14) 0.5081(11) 0.3270(6)
O33 O 1.2899(12) 0.8748(11) 0.4132(6)
O34 O 1.2215(11) 0.4704(11) 0.1582(5)
O35 O 1.4282(11) 0.9225(10) 0.2246(5)
O36 O 1.5529(12) 0.6792(11) 0.3417(5)
O37 O 1.5902(13) 0.8495(12) 0.2962(6)
O38 O 1.3355(11) 0.9480(11) 0.3171(5)
O39 O 0.9893(14) 0.5641(11) 0.2846(6)
O40 O 1.3689(12) 0.5603(11) 0.4392(5)
O41 O 1.1499(12) 0.5001(11) 0.3547(5)
N23 N 1.6022(17) -0.2502(15) 0.0455(9)
N24 N 1.4882(19) -0.3120(15) -0.0507(11)
C25 C 1.571(2) -0.323(2) -0.0036(13)
C26 C 1.628(2) -0.402(2) -0.0057(11)
C27 C 1.597(2) -0.4803(19) -0.0529(10)
H17 H 1.53860 -0.47970 -0.08840
C28 C 1.719(2) -0.403(2) 0.0454(10)
H18 H 1.74420 -0.35340 0.08060
C29 C 1.645(2) -0.5599(18) -0.0530(9)
H19 H 1.61550 -0.61340 -0.08610
C30 C 1.770(3) -0.482(3) 0.0407(14)
H20 H 1.83670 -0.47770 0.07350
N25 N 1.740(2) -0.5589(18) -0.0023(10)
Ag7 Ag 1.84607(18) -0.66096(15) 0.00332(8)
Ag1* Ag 2.3113(2) -1.16775(17) -0.06647(8)
Ag2* Ag 2.51264(14) -1.05722(13) 0.07947(7)
Ag4A Ag 1.85672(15) -0.01634(15) 0.14587(7)
Ag5A Ag 2.02985(15) -1.15706(16) -0.30007(7)
Ag5A* Ag 2.02985(15) 0.84294(16) 0.69993(7)
Ag6* Ag 1.39742(14) 0.12121(15) 0.17298(7)
Ag6A Ag 1.60258(14) -1.12121(15) -0.17298(7)
N8A N 2.2725(15) -1.0594(14) -0.1898(6)
N13* N 1.3565(16) 0.0107(13) 0.0376(6)
N16* N 2.5893(13) -0.8688(13) 0.1950(6)
N17A N 2.2403(14) -0.8834(14) 0.2064(6)
N19* N 1.3016(14) -0.0223(12) -0.0206(7)
N20A N 2.0991(14) 0.1371(13) 0.2460(7)
N22A N 2.0219(14) 0.1926(13) 0.4045(7)
#END
