
#######################################################################
#
#                 Cambridge Crystallographic Data Centre
#                                CCDC
#
#######################################################################
#
# If this CIF has been generated from an entry in the Cambridge
# Structural Database, then it will include bibliographic, chemical,
# crystal, experimental, refinement or atomic coordinate data resulting
# from the CCDC's data processing and validation procedures.
#
#######################################################################

data_CSD_CIF_MATHEV
_audit_creation_date 2005-11-10
_audit_creation_method CSD-ConQuest-V1
_database_code_CSD MATHEV
_database_code_depnum_ccdc_archive 'CCDC 280120'
_chemical_formula_sum 'C10 H14 Co4 N2 O18 P2'
_chemical_formula_moiety
;
(C6 H2 Co4 O18 P2 2-)n,n(C4 H12 N2 2+)
;
_journal_coden_Cambridge 208
_journal_volume 178
_journal_year 2005
_journal_page_first 2376
_journal_name_full 'J.Solid State Chem. '
loop_
_publ_author_name
"S.Mandal"
"S.Natarajan"
_chemical_name_systematic
;
catena-(Piperazinedi-ium 
bis(\m~4~-hydrogenphosphito)-(\m~4~-oxalato)-bis(\m~3~-oxalato)-tetra-cobalt(i
i))
;
_cell_volume   1007.292
_exptl_crystal_colour 'pink'
_exptl_crystal_density_diffrn 1.233
_exptl_crystal_description 'cubic'
_diffrn_ambient_temperature 293
#These two values have been output from a single CSD field.
_refine_ls_R_factor_gt 0.0293
_refine_ls_wR_factor_gt 0.0293
_symmetry_cell_setting monoclinic
_symmetry_space_group_name_H-M 'P 21/c'
_symmetry_Int_Tables_number 14
loop_
_symmetry_equiv_pos_site_id
_symmetry_equiv_pos_as_xyz
1 x,y,z
2 -x,1/2+y,1/2-z
3 -x,-y,-z
4 x,-1/2-y,-1/2+z
_cell_length_a 7.6146(15)
_cell_length_b 7.5144(14)
_cell_length_c 17.750(3)
_cell_angle_alpha 90
_cell_angle_beta 97.351(3)
_cell_angle_gamma 90
_cell_formula_units_Z 1
loop_
_atom_type_symbol
_atom_type_radius_bond
C 0.68
H 0.23
Co 1.33
N 0.68
O 0.68
P 1.05
loop_
_atom_site_label
_atom_site_type_symbol
_atom_site_fract_x
_atom_site_fract_y
_atom_site_fract_z
Co1 Co 0.37927(5) 0.44264(6) 0.13809(2)
Co2 Co 0.72532(5) 0.68016(6) 0.19338(2)
P1 P 0.55099(10) 0.06759(11) 0.18833(4)
H1 H 0.66280 0.13290 0.19910
O1 O 0.4282(3) 0.1803(3) 0.13365(13)
O2 O 0.2088(3) 0.6539(3) 0.12222(14)
O3 O 0.5988(3) 0.5342(3) 0.09315(12)
O4 O 0.4760(3) 0.0449(3) 0.26435(12)
O5 O 0.7025(3) 0.5901(3) -0.01676(13)
O6 O 0.1628(3) 0.3566(3) 0.20223(13)
O7 O 0.5926(3) -0.1071(3) 0.15336(13)
O8 O -0.0570(3) 0.7483(3) 0.14110(13)
O9 O -0.1007(3) 0.4651(3) 0.22607(15)
C1 C 0.5886(4) 0.5368(4) 0.02128(18)
C2 C 0.0401(4) 0.4711(4) 0.19715(18)
C3 C 0.0667(4) 0.6383(4) 0.14928(18)
C4 C 0.9580(6) 0.1440(6) 0.0485(2)
H2 H 0.98850 0.24800 0.02050
H3 H 0.91450 0.18420 0.09460
N1 N 0.8148(6) 0.0381(6) 0.0006(3)
H4 H 0.77950 -0.05270 0.02820
H5 H 0.72060 0.10840 -0.01340
C5 C 1.1160(5) 0.0324(5) 0.06792(19)
H6 H 1.08660 -0.06640 0.09920
H7 H 1.20760 0.10210 0.09740
Co1A Co 0.62073(5) 0.94264(6) 0.36191(2)
Co1A* Co 0.62073(5) -0.05736(6) 0.36191(2)
Co1B Co 0.62073(5) 0.55736(6) -0.13809(2)
Co2B Co 0.27468(5) 0.31984(6) -0.19338(2)
Co2A Co 0.27468(5) 0.18016(6) 0.30662(2)
Co2* Co 0.72532(5) -0.31984(6) 0.19338(2)
Co2** Co -0.27468(5) 0.68016(6) 0.19338(2)
Co2A* Co 1.27468(5) 1.18016(6) 0.30662(2)
P1A P 0.44901(10) 0.56759(11) 0.31167(4)
H1A H 0.33720 0.63290 0.30090
O1A O 0.5718(3) 0.6803(3) 0.36635(13)
O2A O 0.7912(3) 1.1539(3) 0.37778(14)
O3B O 0.4012(3) 0.4658(3) -0.09315(12)
O3A O 0.4012(3) 1.0342(3) 0.40685(12)
O4A O 0.5240(3) 0.5449(3) 0.23565(12)
O4* O 0.4760(3) 1.0449(3) 0.26435(12)
O4C O 0.4760(3) 0.4551(3) -0.23565(12)
O5B O 0.2975(3) 0.4099(3) 0.01676(13)
O5C O 0.7025(3) 0.9099(3) 0.48324(13)
O6A O 0.8372(3) 0.8566(3) 0.29777(13)
O6C O 0.1628(3) 0.1434(3) -0.29777(13)
O7A O 0.4074(3) 0.3929(3) 0.34664(13)
O7* O 0.5926(3) 0.8929(3) 0.15336(13)
O7B O 0.4074(3) 0.1071(3) -0.15336(13)
O8A O 1.0570(3) 1.2483(3) 0.35890(13)
O8* O 0.9430(3) 0.7483(3) 0.14110(13)
O8B O 0.0570(3) 0.2517(3) -0.14110(13)
O9A O 1.1007(3) 0.9651(3) 0.27393(15)
O9* O 0.8993(3) 0.4651(3) 0.22607(15)
O9B O 0.1007(3) 0.5349(3) -0.22607(15)
C1B C 0.4114(4) 0.4632(4) -0.02128(18)
C2A C 0.9599(4) 0.9711(4) 0.30285(18)
C3A C 0.9333(4) 1.1383(4) 0.35072(18)
C4B C 1.0420(6) -0.1440(6) -0.0485(2)
H2B H 1.01150 -0.24800 -0.02050
H3B H 1.08550 -0.18420 -0.09460
N1B N 1.1852(6) -0.0381(6) -0.0006(3)
H4B H 1.22050 0.05270 -0.02820
H5B H 1.27940 -0.10840 0.01340
C5B C 0.8840(5) -0.0324(5) -0.06792(19)
H6B H 0.91340 0.06640 -0.09920
H7B H 0.79240 -0.10210 -0.09740
#END
