
#######################################################################
#
#                 Cambridge Crystallographic Data Centre
#                                CCDC
#
#######################################################################
#
# If this CIF has been generated from an entry in the Cambridge
# Structural Database, then it will include bibliographic, chemical,
# crystal, experimental, refinement or atomic coordinate data resulting
# from the CCDC's data processing and validation procedures.
#
#######################################################################

data_CSD_CIF_MATMAW
_audit_creation_date 2005-11-10
_audit_creation_method CSD-ConQuest-V1
_database_code_CSD MATMAW
_database_code_depnum_ccdc_archive 'CCDC 280157'
_chemical_formula_sum 'C6 H13 Cd1 N1 O9'
_chemical_formula_moiety
;
(C6 H7 Cd1 O8 1-)n,n(H4 N1 1+),n(H2 O1)
;
_journal_coden_Cambridge 9
_journal_volume 44
_journal_year 2005
_journal_page_first 4818
_journal_name_full 'Inorg.Chem. '
loop_
_publ_author_name
"E.T.Kefalas"
"M.Dakanali"
"P.Panagiotidis"
"C.P.Raptopoulou"
"A.Terzis"
"T.Mavromoustakos"
"I.Kyrikou"
"N.Karligiano"
"A.Bino"
"A.Salifoglou"
_chemical_name_systematic
;
catena-(Ammonium (\m~3~-citrato)-aqua-cadmium(ii) monohydrate)
;
_cell_volume    542.271
_exptl_crystal_colour 'colorless'
_exptl_crystal_density_diffrn 2.178
_exptl_crystal_description 'parallelepiped'
_diffrn_ambient_temperature 298
#These two values have been output from a single CSD field.
_refine_ls_R_factor_gt 0.0264
_refine_ls_wR_factor_gt 0.0264
_symmetry_cell_setting monoclinic
_symmetry_space_group_name_H-M 'P 21'
_symmetry_Int_Tables_number 4
loop_
_symmetry_equiv_pos_site_id
_symmetry_equiv_pos_as_xyz
1 x,y,z
2 -x,1/2+y,-z
_cell_length_a 9.686(4)
_cell_length_b 8.484(4)
_cell_length_c 7.035(3)
_cell_angle_alpha 90
_cell_angle_beta 110.28(1)
_cell_angle_gamma 90
_cell_formula_units_Z 2
loop_
_atom_type_symbol
_atom_type_radius_bond
C 0.68
H 0.23
Cd 1.64
N 0.68
O 0.68
loop_
_atom_site_label
_atom_site_type_symbol
_atom_site_fract_x
_atom_site_fract_y
_atom_site_fract_z
Cd1 Cd -0.057182(16) -0.00019(5) 0.08832(2)
O1 O 0.1599(3) 0.0337(4) 0.3630(5)
O2 O 0.1790(3) -0.3593(3) 0.7219(3)
O3 O 0.1148(3) 0.0117(4) 0.9093(5)
O4 O 0.0177(3) -0.2183(3) 0.9187(4)
O5 O 0.2571(3) -0.4247(4) 1.1783(4)
O6 O -0.2350(3) -0.1957(3) 0.0953(4)
C1 C 0.1475(3) -0.0752(4) 0.4767(5)
C2 C 0.2743(3) -0.1051(4) 0.6726(4)
O7 O 0.0355(3) -0.1596(4) 0.4317(4)
C3 C 0.2324(3) -0.2122(3) 0.8200(4)
C4 C 0.1121(3) -0.1329(4) 0.8852(4)
C5 C 0.3703(3) -0.2424(4) 1.0069(5)
C6 C 0.3566(3) -0.3248(4) 1.1933(4)
O8 O 0.4529(4) -0.2898(4) 1.3586(4)
N1 N 0.7237(4) 0.8692(4) 0.4931(5)
O9 O 0.4120(4) 0.1263(4) 0.2477(5)
H1 H 0.116(6) -0.331(6) 0.619(8)
H2 H 0.308(4) -0.013(8) 0.734(6)
H3 H 0.333(7) -0.155(7) 0.622(10)
H4 H 0.425(5) -0.152(7) 1.059(7)
H5 H 0.445(6) -0.304(8) 0.973(9)
H6 H -0.308(6) -0.220(6) -0.026(8)
H7 H -0.186(8) -0.268(8) 0.111(10)
H8 H 0.641(9) 0.835(9) 0.438(12)
H9 H 0.748(11) 0.933(13) 0.410(16)
H10 H 0.735(7) 0.942(9) 0.591(11)
H11 H 0.784(7) 0.777(9) 0.564(9)
H12 H 0.331(7) 0.064(7) 0.232(9)
H13 H 0.468(8) 0.135(8) 0.351(11)
Cd1A Cd 0.057182(16) -0.50019(5) 0.91168(2)
Cd1* Cd -0.057182(16) -0.00019(5) 1.08832(2)
O2A O -0.1790(3) 0.1407(3) 0.2781(3)
O3* O 0.1148(3) 0.0117(4) -0.0907(5)
O4* O 0.0177(3) -0.2183(3) -0.0813(4)
O4A O -0.0177(3) 0.2817(3) 0.0813(4)
O5A O -0.2571(3) 0.0753(4) -0.1783(4)
H1A H -0.116(6) 0.169(6) 0.381(8)
#END
