
#######################################################################
#
#                 Cambridge Crystallographic Data Centre
#                                CCDC
#
#######################################################################
#
# If this CIF has been generated from an entry in the Cambridge
# Structural Database, then it will include bibliographic, chemical,
# crystal, experimental, refinement or atomic coordinate data resulting
# from the CCDC's data processing and validation procedures.
#
#######################################################################

data_CSD_CIF_MATWUC
_audit_creation_date 2017-04-26
_audit_creation_method CSD-ConQuest-V1
_database_code_CSD MATWUC
_database_code_depnum_ccdc_archive 'CCDC 1530814'
_chemical_formula_sum 'C38.5 H47.5 N10.5 O14.5 Zn2'
_chemical_formula_moiety
;
(C26 H15 N6 O11 Zn2 1-)n,n(C2 H8 N1 1+),3.5n(C3 H7 N1 O1)
;
_journal_coden_Cambridge 1350
_journal_volume 19
_journal_year 2017
_journal_page_first 2786
_journal_name_full 'CrystEngComm '
loop_
_publ_author_name
"Yue Dai"
"Huajun Zhou"
"Xue-Dan Song"
"Jian-Jun Zhang"
"Ce Hao"
"Ling Di"
"Yu-Xian Wang"
"Jun Ni"
"Hui-Long Wang"
_chemical_name_systematic
;
catena-(dimethylammonium 
(\m-5,5'-({6-[(4-carboxylatophenyl)amino]-1,3,5-triazine-2,4-diyl}diazanediyl)
bis(benzene-1,3-dicarboxylato))-aqua-di-zinc dimethylformamide solvate)
;
_cell_volume   4810.779
_exptl_crystal_colour 'colorless'
_exptl_crystal_description 'block'
_diffrn_ambient_temperature 293
_diffrn_special_details
;
twin

;
_refine_special_details
;
The cation and solvent molecules were taken into account using 
;
#These two values have been output from a single CSD field.
_refine_ls_R_factor_gt 0.038
_refine_ls_wR_factor_gt 0.038
_symmetry_cell_setting monoclinic
_symmetry_space_group_name_H-M 'C 2'
_symmetry_Int_Tables_number 5
loop_
_symmetry_equiv_pos_site_id
_symmetry_equiv_pos_as_xyz
1 x,y,z
2 -x,y,-z
3 1/2+x,1/2+y,z
4 1/2-x,1/2+y,-z
_cell_length_a 18.8984(18)
_cell_length_b 17.7031(18)
_cell_length_c 14.4754(14)
_cell_angle_alpha 90
_cell_angle_beta 96.602(2)
_cell_angle_gamma 90
_cell_formula_units_Z 4
loop_
_atom_type_symbol
_atom_type_radius_bond
C 0.68
H 0.23
N 0.68
O 0.68
Zn 1.22
loop_
_atom_site_label
_atom_site_type_symbol
_atom_site_fract_x
_atom_site_fract_y
_atom_site_fract_z
Zn1 Zn 0.29021(3) 0.24716(3) 0.07397(4)
Zn2 Zn 0.16559(3) 0.31171(3) -0.11686(4)
O1 O -0.0985(2) 0.3344(3) 0.2297(3)
O2 O -0.0347(2) 0.3230(3) 0.1157(3)
O3 O 0.25392(17) 0.3114(3) 0.8197(2)
O4 O 0.3235(2) 0.3064(3) 0.9556(2)
O5 O 0.6269(2) 0.2770(3) 0.8436(3)
O6 O 0.5706(2) 0.1929(3) 0.9208(3)
O7 O 0.1822(2) 0.4024(2) -0.0370(3)
O8 O 0.21228(17) 0.3221(2) 0.0787(2)
O9 O 0.2435(3) 0.6662(3) 0.0086(4)
O10 O 0.3412(2) 0.7002(2) 0.0973(3)
O11 O 0.2556(4) 0.1789(4) 0.1815(5)
N1 N 0.4126(2) 0.4174(3) 0.4503(3)
N2 N 0.3225(2) 0.3623(4) 0.5326(3)
N3 N 0.2927(2) 0.4128(3) 0.3784(3)
N4 N 0.4414(2) 0.3720(3) 0.5960(3)
N5 N 0.3809(2) 0.4697(3) 0.3099(3)
N6 N 0.2084(2) 0.3534(3) 0.4635(3)
C1 C 0.1499(3) 0.3525(6) 0.3943(4)
C2 C 0.1541(4) 0.3502(7) 0.3006(5)
H1 H 0.19830 0.35060 0.27840
C3 C 0.0933(3) 0.3474(6) 0.2393(4)
H2 H 0.09780 0.34900 0.17610
C4 C 0.0276(3) 0.3425(5) 0.2653(4)
C5 C 0.0213(3) 0.3555(5) 0.3634(4)
H3 H -0.02270 0.36190 0.38520
C6 C 0.0834(3) 0.3577(5) 0.4215(4)
H4 H 0.08010 0.36310 0.48480
C7 C -0.0379(3) 0.3336(4) 0.2003(4)
C8 C 0.4378(3) 0.3382(3) 0.6834(3)
C9 C 0.3772(3) 0.3369(4) 0.7282(4)
H5 H 0.33480 0.35650 0.69880
C10 C 0.3792(3) 0.3059(4) 0.8190(3)
C11 C 0.4412(3) 0.2738(3) 0.8604(3)
H6 H 0.44200 0.25030 0.91800
C12 C 0.5017(3) 0.2764(3) 0.8168(3)
C13 C 0.5009(3) 0.3102(4) 0.7274(3)
H7 H 0.54250 0.31340 0.69900
C14 C 0.3140(3) 0.3063(4) 0.8684(3)
C15 C 0.5710(3) 0.2466(4) 0.8637(3)
C16 C 0.3369(3) 0.4879(3) 0.2243(3)
C17 C 0.2951(3) 0.4311(3) 0.1788(3)
H8 H 0.29450 0.38270 0.20390
C18 C 0.2543(3) 0.4482(3) 0.0954(3)
C19 C 0.2542(3) 0.5202(3) 0.0585(4)
H9 H 0.22600 0.53150 0.00330
C20 C 0.2973(3) 0.5762(3) 0.1058(4)
C21 C 0.3384(3) 0.5585(3) 0.1888(3)
H10 H 0.36700 0.59530 0.22010
C22 C 0.2130(3) 0.3874(3) 0.0441(3)
C23 C 0.2943(3) 0.6538(3) 0.0665(4)
C24 C 0.2780(3) 0.3766(5) 0.4551(4)
C25 C 0.3881(3) 0.3857(4) 0.5249(3)
C26 C 0.3597(3) 0.4315(3) 0.3807(3)
Zn1* Zn 0.29021(3) 0.24716(3) 1.07397(4)
Zn1A Zn 0.70979(3) 0.24716(3) 0.92603(4)
Zn1C Zn 0.20979(3) 0.74716(3) -0.07397(4)
Zn2* Zn 0.16559(3) 0.31171(3) 0.88314(4)
Zn2A Zn -0.16559(3) 0.31171(3) 0.11686(4)
Zn2C Zn 0.33441(3) 0.81171(3) 0.11686(4)
O1A O 0.0985(2) 0.3344(3) -0.2297(3)
O2A O 0.0347(2) 0.3230(3) -0.1157(3)
O3* O 0.25392(17) 0.3114(3) -0.1803(2)
O4* O 0.3235(2) 0.3064(3) -0.0444(2)
O5A O 0.3731(2) 0.2770(3) 0.1564(3)
O9C O 0.2565(3) 0.1662(3) -0.0086(4)
O10C O 0.1588(2) 0.2002(2) -0.0973(3)
#END
