
#######################################################################
#
#                 Cambridge Crystallographic Data Centre
#                                CCDC
#
#######################################################################
#
# If this CIF has been generated from an entry in the Cambridge
# Structural Database, then it will include bibliographic, chemical,
# crystal, experimental, refinement or atomic coordinate data resulting
# from the CCDC's data processing and validation procedures.
#
#######################################################################

data_CSD_CIF_MAVFEV
_audit_creation_date 2005-11-10
_audit_creation_method CSD-ConQuest-V1
_database_code_CSD MAVFEV
_database_code_depnum_ccdc_archive 'CCDC 287467'
_chemical_formula_sum 'C12 H32 Eu2 N2 O24'
_chemical_formula_moiety
;
(C2 H8 N1 1+)2n,n(C8 H4 Eu2 O18 2-),6n(H2 O1)
;
_journal_coeditor_code "IUCr BT6728"
_journal_coden_Cambridge 1370
_journal_volume 61
_journal_year 2005
_journal_page_first m1912
_journal_name_full 'Acta Crystallogr.,Sect.E:Struct.Rep.Online '
loop_
_publ_author_name
"Yang-Yi Yang"
"Shao-Bo Zai"
"Wing-Tak Wong"
"Seik Weng Ng"
_chemical_name_systematic
;
catena-(bis(Dimethylammonium) 
tetrakis(\m~2~-oxalato-O,O',O'',O''')-diaqua-di-europium(iii) hexahydrate)
;
_cell_volume   1382.792
_exptl_crystal_colour 'colorless'
_exptl_crystal_density_diffrn 2.143
_exptl_crystal_description 'Block'
_diffrn_ambient_temperature 295
#These two values have been output from a single CSD field.
_refine_ls_R_factor_gt 0.026
_refine_ls_wR_factor_gt 0.026
_symmetry_cell_setting monoclinic
_symmetry_space_group_name_H-M 'P 21/n'
_symmetry_Int_Tables_number 14
loop_
_symmetry_equiv_pos_site_id
_symmetry_equiv_pos_as_xyz
1 x,y,z
2 1/2-x,1/2+y,1/2-z
3 -x,-y,-z
4 -1/2+x,-1/2-y,-1/2+z
_cell_length_a 9.674(1)
_cell_length_b 11.761(1)
_cell_length_c 12.315(2)
_cell_angle_alpha 90
_cell_angle_beta 99.285(2)
_cell_angle_gamma 90
_cell_formula_units_Z 2
loop_
_atom_type_symbol
_atom_type_radius_bond
C 0.68
H 0.23
Eu 1.99
N 0.68
O 0.68
loop_
_atom_site_label
_atom_site_type_symbol
_atom_site_fract_x
_atom_site_fract_y
_atom_site_fract_z
Eu1 Eu 0.71368(2) 0.51552(1) 0.33081(1)
O1 O 0.8070(3) 0.6409(2) 0.2055(2)
O2 O 0.8660(3) 0.8194(2) 0.1726(2)
O3 O 0.6396(3) 0.7159(2) 0.3435(2)
O4 O 0.6851(3) 0.8950(2) 0.3006(2)
O5 O 0.6813(3) 0.5115(2) 0.5224(2)
O6 O 0.5335(3) 0.4854(2) 0.6428(2)
O7 O 0.9160(3) 0.6182(2) 0.4341(2)
O8 O 1.1006(3) 0.6088(2) 0.5673(2)
O9 O 0.5452(3) 0.5236(3) 0.1537(2)
C1 C 0.8002(4) 0.7455(3) 0.2175(3)
C2 C 0.6990(4) 0.7897(3) 0.2946(3)
C3 C 0.5625(4) 0.4992(3) 0.5474(3)
C4 C 1.0046(4) 0.5657(3) 0.4997(3)
H1 H 0.514(5) 0.462(2) 0.122(3)
H2 H 0.572(4) 0.568(2) 0.107(2)
O10 O 0.4196(5) 0.3424(3) 0.0340(3)
H3 H 0.334(2) 0.355(4) 0.014(5)
H4 H 0.435(5) 0.273(1) 0.046(5)
O11 O 0.1705(6) 0.5038(4) 0.0076(3)
H5 H 0.160(6) 0.543(4) -0.051(3)
H6 H 0.121(6) 0.445(3) -0.001(5)
O12 O 0.0859(5) 0.2816(4) 0.0322(4)
H7 H 0.077(6) 0.253(5) -0.032(2)
H8 H 0.017(4) 0.262(5) 0.063(4)
N1 N 0.2682(5) 0.6312(4) 0.1956(4)
C5 C 0.1511(7) 0.6242(7) 0.2548(5)
C6 C 0.3064(8) 0.7458(6) 0.1680(5)
H9 H 0.252(5) 0.589(3) 0.139(2)
H10 H 0.338(4) 0.605(4) 0.240(3)
H11 H 0.17560 0.65990 0.32540
H12 H 0.12830 0.54590 0.26460
H13 H 0.07170 0.66230 0.21370
H14 H 0.22600 0.78350 0.12800
H15 H 0.37920 0.74240 0.12360
H16 H 0.33940 0.78710 0.23440
Eu1A Eu 0.78632(2) 0.01552(1) 0.16919(1)
Eu1A* Eu 0.78632(2) 1.01552(1) 0.16919(1)
Eu1B Eu 0.28632(2) 0.48448(1) 0.66919(1)
Eu1B* Eu 1.28632(2) 0.48448(1) 0.66919(1)
O1A O 0.6930(3) 0.1409(2) 0.2945(2)
O2A O 0.6340(3) 0.3194(2) 0.3274(2)
O2* O 0.8660(3) -0.1806(2) 0.1726(2)
O3A O 0.8604(3) 0.2159(2) 0.1565(2)
O4A O 0.8149(3) 0.3950(2) 0.1994(2)
O4* O 0.6851(3) -0.1050(2) 0.3006(2)
O5B O 0.3187(3) 0.4885(2) 0.4776(2)
O5A O 0.8187(3) 0.0115(2) -0.0224(2)
O6B O 0.4665(3) 0.5146(2) 0.3572(2)
O6C O 1.0335(3) 0.0146(2) 0.1428(2)
O7B O 1.0840(3) 0.3818(2) 0.5659(2)
O7A O 0.5840(3) 0.1182(2) 0.0659(2)
O8B O 0.8994(3) 0.3912(2) 0.4327(2)
O8C O 0.6006(3) -0.1088(2) 0.0673(2)
O9A O 0.9548(3) 0.0236(3) 0.3463(2)
C1A C 0.6998(4) 0.2455(3) 0.2825(3)
C2A C 0.8010(4) 0.2897(3) 0.2054(3)
C3B C 0.4375(4) 0.5008(3) 0.4526(3)
C4B C 0.9954(4) 0.4343(3) 0.5003(3)
H1A H 0.986(5) -0.038(2) 0.378(3)
H2A H 0.928(4) 0.068(2) 0.393(2)
#END
