
#######################################################################
#
#                 Cambridge Crystallographic Data Centre
#                                CCDC
#
#######################################################################
#
# If this CIF has been generated from an entry in the Cambridge
# Structural Database, then it will include bibliographic, chemical,
# crystal, experimental, refinement or atomic coordinate data resulting
# from the CCDC's data processing and validation procedures.
#
#######################################################################

data_CSD_CIF_MAWFEY
_audit_creation_date 2017-04-26
_audit_creation_method CSD-ConQuest-V1
_database_code_CSD MAWFEY
_database_code_depnum_ccdc_archive 'CCDC 1491371'
_chemical_formula_sum 'C72 H128 Mo12 N5 O45 P1 Zn4'
_chemical_formula_moiety
;
(C24 H18 Mo12 N2 O44 P1 Zn4 3-)n,n(H2 O1),3n(C16 H36 N1 1+)
;
_journal_coden_Cambridge 182
_journal_volume 53
_journal_year 2017
_journal_page_first 5204
_journal_name_full 'Chem.Commun. '
loop_
_publ_author_name
"Yuan-Yuan Wang"
"Mi Zhang"
"Shun-Li Li"
"Shu-Ran Zhang"
"Wei Xie"
"Jun-Sheng Qin"
"Zhong-Min Su"
"Ya-Qian Lan"
_chemical_name_systematic
;
catena-(tris(tetra-n-butylammonium) 
(\m-phosphato)-dodecakis(\m-oxo)-bis(\m-hydroxo)-bis(\m-4-(4-pyridyl)benzoato)
-decakis(\m-oxo)-dodecaoxo-dodeca-molybdenum-tetra-zinc unknown solvate 
monohydrate)
;
_chemical_name_common
;
NENU-507
;
_cell_volume  47284.722
_exptl_crystal_colour 'black'
_exptl_crystal_density_diffrn 1.811
_exptl_special_details
;
The hydrogens of the hydroxo groups were not located; we have assigned them 
arbitrarily
;
_exptl_crystal_description 'block'
_diffrn_ambient_temperature 293
_refine_special_details
;
The SQUEEZE/PLATON program was used to model some disordered solvent.

;
#These two values have been output from a single CSD field.
_refine_ls_R_factor_gt 0.075
_refine_ls_wR_factor_gt 0.075
_symmetry_cell_setting tetragonal
_symmetry_space_group_name_H-M 'I 41/a c d'
_symmetry_Int_Tables_number 142
loop_
_symmetry_equiv_pos_site_id
_symmetry_equiv_pos_as_xyz
1 x,y,z
2 1/2-x,-y,1/2+z
3 1/4-y,3/4+x,1/4+z
4 1/4+y,1/4-x,3/4+z
5 1/2-x,y,-z
6 x,-y,1/2-z
7 1/4+y,3/4+x,3/4-z
8 1/4-y,1/4-x,1/4-z
9 1/2+x,1/2+y,1/2+z
10 -x,1/2-y,z
11 3/4-y,1/4+x,3/4+z
12 3/4+y,3/4-x,1/4+z
13 -x,1/2+y,1/2-z
14 1/2+x,1/2-y,-z
15 3/4+y,1/4+x,1/4-z
16 3/4-y,3/4-x,3/4-z
17 -x,-y,-z
18 -1/2+x,y,-1/2-z
19 -1/4+y,-3/4-x,-1/4-z
20 -1/4-y,-1/4+x,-3/4-z
21 -1/2+x,-y,z
22 -x,y,-1/2+z
23 -1/4-y,-3/4-x,-3/4+z
24 -1/4+y,-1/4+x,-1/4+z
25 -1/2-x,-1/2-y,-1/2-z
26 x,-1/2+y,-z
27 -3/4+y,-1/4-x,-3/4-z
28 -3/4-y,-3/4+x,-1/4-z
29 x,-1/2-y,-1/2+z
30 -1/2-x,-1/2+y,z
31 -3/4-y,-1/4-x,-1/4+z
32 -3/4+y,-3/4+x,-3/4+z
_cell_length_a 29.4436(11)
_cell_length_b 29.4436(11)
_cell_length_c 54.543(4)
_cell_angle_alpha 90
_cell_angle_beta 90
_cell_angle_gamma 90
_cell_formula_units_Z 16
loop_
_atom_type_symbol
_atom_type_radius_bond
C 0.68
H 0.23
Mo 1.54
N 0.68
O 0.68
P 1.05
Zn 1.22
loop_
_atom_site_label
_atom_site_type_symbol
_atom_site_fract_x
_atom_site_fract_y
_atom_site_fract_z
O1 O 0.8007(2) 0.4106(2) 0.10722(10)
O2 O 0.8864(2) 0.4090(2) 0.10965(10)
O3 O 0.8484(2) 0.4629(2) 0.06917(12)
O4 O 0.8475(2) 0.3682(2) 0.06551(11)
O5 O 0.9385(2) 0.4651(2) 0.14589(11)
O6 O 0.7918(2) 0.5107(2) 0.10853(12)
O7 O 0.9017(2) 0.5099(2) 0.11461(12)
O8 O 0.8948(3) 0.3112(2) 0.10490(12)
O9 O 0.8816(2) 0.4920(2) 0.18125(11)
O10 O 0.7578(2) 0.4609(3) 0.07188(11)
O11 O 0.8395(2) 0.5420(2) 0.14593(13)
O12 O 0.9289(3) 0.5599(3) 0.15762(14)
O13 O 0.9791(2) 0.4101(3) 0.11300(13)
O14 O 0.8408(3) 0.2629(3) 0.06067(16)
O15 O 0.7441(3) 0.5565(3) 0.14837(15)
O16 O 0.9365(2) 0.4602(3) 0.07796(12)
O17 O 0.7962(3) 0.4215(3) 0.03024(12)
O18 O 0.9069(3) 0.4183(3) 0.03353(13)
O19 O 0.9370(2) 0.3667(3) 0.07359(12)
N1 N 0.8550(3) 0.0673(3) -0.07045(17)
O20 O 0.9979(3) 0.5022(3) 0.10851(15)
O21 O 0.9926(3) 0.3161(3) 0.10584(16)
C1 C 0.8731(5) 0.2226(5) 0.0281(2)
C2 C 0.8332(5) 0.2041(5) 0.0222(3)
H1 H 0.80710 0.21280 0.03060
O22 O 0.9070(5) 0.2869(5) 0.0485(3)
C3 C 0.8755(5) 0.2567(5) 0.0483(3)
C4 C 0.8616(5) 0.1320(4) -0.0328(2)
C5 C 0.8303(5) 0.1706(5) 0.0027(3)
H2 H 0.80400 0.15340 0.00090
C6 C 0.8662(5) 0.1642(5) -0.0129(3)
C7 C 0.8281(6) 0.1006(6) -0.0334(3)
H3 H 0.80650 0.10050 -0.02090
C8 C 0.8247(6) 0.0667(6) -0.0531(3)
H4 H 0.80150 0.04520 -0.05310
C9 C 0.9085(8) 0.2155(7) 0.0126(4)
H5 H 0.93640 0.22920 0.01570
C10 C 0.8840(7) 0.1338(7) -0.0525(4)
H6 H 0.90320 0.15840 -0.05500
C11 C 0.8812(7) 0.0985(7) -0.0716(4)
H7 H 0.90040 0.10050 -0.08510
C12 C 0.9028(8) 0.1867(7) -0.0086(4)
H8 H 0.92680 0.18420 -0.01970
Mo1 Mo 0.80364(3) 0.41714(3) 0.060310(14)
Mo2 Mo 0.77817(3) 0.51159(3) 0.143963(15)
Mo3 Mo 0.89314(3) 0.41548(3) 0.062915(14)
Mo4 Mo 0.94774(3) 0.35011(4) 0.109268(17)
Mo5 Mo 0.95346(3) 0.46646(3) 0.109604(16)
Mo6 Mo 0.89442(3) 0.51558(3) 0.151261(15)
Zn1 Zn 0.83976(4) 0.31166(4) 0.08474(2)
Zn2 Zn 0.85080(4) 0.51438(4) 0.09252(2)
P1 P 0.84180(7) 0.40820(7) 0.12500
N2 N 0.8877(4) 0.4158(4) 0.9586(2)
C13 C 0.8676(6) 0.4529(6) 0.9733(3)
H9 H 0.87420 0.44650 0.99040
H10 H 0.88350 0.48060 0.96910
C14 C 0.9342(6) 0.4047(6) 0.9678(3)
H11 H 0.94520 0.37820 0.95900
H12 H 0.93190 0.39640 0.98500
C15 C 0.8898(6) 0.4292(6) 0.9319(3)
H13 H 0.85880 0.43350 0.92640
H14 H 0.90460 0.45860 0.93100
C16 C 0.9690(6) 0.4421(6) 0.9653(3)
H15 H 0.95700 0.46970 0.97260
H16 H 0.97440 0.44800 0.94810
C17 C 1.0147(7) 0.4301(7) 0.9779(4)
H17 H 1.00930 0.42510 0.99520
H18 H 1.02610 0.40190 0.97100
C18 C 0.8055(7) 0.5068(7) 0.9795(4)
H19 H 0.82060 0.51290 0.99500
H20 H 0.77310 0.50620 0.98270
C19 C 0.8190(7) 0.4622(7) 0.9714(4)
H21 H 0.80980 0.45840 0.95450
H22 H 0.80270 0.43970 0.98110
C20 C 0.9079(7) 0.4225(7) 0.8894(4)
H23 H 0.87620 0.42830 0.88550
H24 H 0.92370 0.45140 0.88930
C21 C 1.0488(7) 0.4648(7) 0.9751(4)
H25 H 1.07630 0.45540 0.98310
H26 H 1.03820 0.49250 0.98240
H27 H 1.05460 0.46970 0.95800
C22 C 0.8567(7) 0.3744(7) 0.9612(4)
H28 H 0.82670 0.38240 0.95520
H29 H 0.86830 0.35030 0.95080
C23 C 0.9110(8) 0.4012(7) 0.9151(4)
H30 H 0.89660 0.37160 0.91500
H31 H 0.94260 0.39720 0.91960
C24 C 0.8523(7) 0.3572(7) 0.9858(4)
H32 H 0.84850 0.38250 0.99710
H33 H 0.87980 0.34130 0.99030
C25 C 0.8151(9) 0.5457(9) 0.9626(5)
H34 H 0.80470 0.57340 0.96990
H35 H 0.79950 0.54100 0.94730
H36 H 0.84710 0.54760 0.95960
C26 C 0.8058(11) 0.2901(10) 0.9714(5)
H37 H 0.77820 0.27450 0.97550
H38 H 0.83080 0.26930 0.97220
H39 H 0.80350 0.30230 0.95520
C27 C 0.813(1) 0.326(1) 0.9883(5)
H40 H 0.81490 0.31240 1.00450
H41 H 0.78580 0.34460 0.98810
C28 C 0.9267(13) 0.3942(13) 0.8715(7)
H42 H 0.92440 0.40850 0.85580
H43 H 0.91050 0.36590 0.87130
H44 H 0.95800 0.38870 0.87530
N3 N 0.6316(4) 0.6184(4) 0.12500
C29 C 0.6763(5) 0.6230(5) 0.1137(3)
H45 H 0.67930 0.59870 0.10180
H46 H 0.69880 0.61750 0.12630
C30 C 0.6887(7) 0.6658(7) 0.1012(4)
H47 H 0.66830 0.67010 0.08740
H48 H 0.68370 0.69070 0.11250
C31 C 0.5934(7) 0.6260(7) 0.1050(3)
H49 H 0.56400 0.62620 0.11310
H50 H 0.59780 0.65550 0.09750
C32 C 0.5931(9) 0.5900(8) 0.0852(5)
H51 H 0.57870 0.56210 0.09060
H52 H 0.62340 0.58340 0.07920
C33 C 0.5611(9) 0.6180(9) 0.0640(5)
H53 H 0.53250 0.62870 0.07060
H54 H 0.57740 0.64270 0.05620
C34 C 0.7512(13) 0.6385(12) 0.0766(6)
H55 H 0.78190 0.64770 0.07340
H56 H 0.73420 0.63860 0.06160
H57 H 0.75110 0.60840 0.08340
C35 C 0.7316(9) 0.6682(9) 0.0930(5)
H58 H 0.75080 0.66780 0.10740
H59 H 0.73490 0.69820 0.08580
C36 C 0.5559(13) 0.5809(11) 0.0487(7)
H60 H 0.53770 0.58940 0.03480
H61 H 0.54120 0.55680 0.05750
H62 H 0.58520 0.57090 0.04320
O23 O 0.00000 0.25000 0.0593(7)
O1G O 0.8394(2) 0.4493(2) 0.14278(10)
O2G O 0.8410(2) 0.3636(2) 0.14035(10)
O3G O 0.7871(2) 0.4016(2) 0.18083(12)
O4G O 0.8818(2) 0.4025(2) 0.18449(11)
O5G O 0.7849(2) 0.3115(2) 0.10411(11)
O6G O 0.7393(2) 0.4582(2) 0.14147(12)
O7G O 0.7401(2) 0.3483(2) 0.13539(12)
O8G O 0.9388(3) 0.3552(2) 0.14510(12)
O9G O 0.7580(2) 0.3684(2) 0.06875(11)
O10G O 0.7891(2) 0.4922(3) 0.17812(11)
O11G O 0.7080(2) 0.4105(2) 0.10407(13)
O12G O 0.6901(3) 0.3211(3) 0.09238(14)
O13G O 0.8399(2) 0.2709(3) 0.13700(13)
O14G O 0.9871(3) 0.4092(3) 0.18933(16)
O15G O 0.6935(3) 0.5059(3) 0.10163(15)
O16G O 0.7898(2) 0.3135(3) 0.17204(12)
O17G O 0.8285(3) 0.4538(3) 0.21976(12)
O18G O 0.8317(3) 0.3431(3) 0.21647(13)
O19G O 0.8833(2) 0.3130(3) 0.17641(12)
N1G N 1.1827(3) 0.3950(3) 0.32045(17)
O20G O 0.7478(3) 0.2521(3) 0.14149(15)
O21G O 0.9339(3) 0.2574(3) 0.14416(16)
C1G C 1.0274(5) 0.3769(5) 0.2219(2)
C2G C 1.0459(5) 0.4168(5) 0.2278(3)
H1G H 1.03720 0.44290 0.21940
O22G O 0.9631(5) 0.3430(5) 0.2015(3)
C3G C 0.9933(5) 0.3745(5) 0.2017(3)
C4G C 1.1180(5) 0.3884(4) 0.2828(2)
C5G C 1.0794(5) 0.4197(5) 0.2473(3)
H2G H 1.09660 0.44600 0.24910
C6G C 1.0858(5) 0.3838(5) 0.2629(3)
C7G C 1.1494(6) 0.4219(6) 0.2834(3)
H3G H 1.14950 0.44350 0.27090
C8G C 1.1833(6) 0.4253(6) 0.3031(3)
H4G H 1.20480 0.44850 0.30310
C9G C 1.0345(8) 0.3415(7) 0.2374(4)
H5G H 1.02080 0.31360 0.23430
C10G C 1.1162(7) 0.3660(7) 0.3025(4)
H6G H 1.09160 0.34680 0.30500
C11G C 1.1515(7) 0.3688(7) 0.3216(4)
H7G H 1.14950 0.34960 0.33510
C12G C 1.0633(8) 0.3472(7) 0.2586(4)
H8G H 1.06580 0.32320 0.26970
Mo1G Mo 0.83286(3) 0.44636(3) 0.189690(14)
Mo2G Mo 0.73841(3) 0.47183(3) 0.106037(15)
Mo3G Mo 0.83452(3) 0.35686(3) 0.187085(14)
Mo4G Mo 0.89989(3) 0.30226(4) 0.140732(17)
Mo5G Mo 0.78354(3) 0.29654(3) 0.140396(16)
Mo6G Mo 0.73442(3) 0.35558(3) 0.098739(15)
Zn1G Zn 0.93834(4) 0.41024(4) 0.16526(2)
Zn2G Zn 0.73562(4) 0.39920(4) 0.15748(2)
N1V N 0.6827(3) 0.3950(3) 0.17955(17)
N1Y N 0.8550(3) 0.5673(3) 0.07045(17)
Zn2V Zn 1.23562(4) 0.39920(4) 0.34252(2)
Zn2Y Zn 0.85080(4) 0.01438(4) -0.09252(2)
C29G C 0.6270(5) 0.5737(5) 0.1363(3)
H45G H 0.65130 0.57070 0.14820
H46G H 0.63250 0.55120 0.12370
C30G C 0.5842(7) 0.5613(7) 0.1488(4)
H47G H 0.57990 0.58170 0.16260
H48G H 0.55930 0.56630 0.13750
C31G C 0.6240(7) 0.6566(7) 0.1450(3)
H49G H 0.62380 0.68600 0.13690
H50G H 0.59450 0.65220 0.15250
C32G C 0.6600(9) 0.6569(8) 0.1648(5)
H51G H 0.68790 0.67130 0.15940
H52G H 0.66660 0.62660 0.17080
C33G C 0.6320(9) 0.6889(9) 0.1860(5)
H53G H 0.62130 0.71750 0.17940
H54G H 0.60730 0.67260 0.19380
C34G C 0.6115(13) 0.4988(12) 0.1734(6)
H55G H 0.60230 0.46810 0.17660
H56G H 0.61140 0.51580 0.18840
H57G H 0.64160 0.49890 0.16660
C35G C 0.5818(9) 0.5184(9) 0.1570(5)
H58G H 0.58220 0.49920 0.14260
H59G H 0.55180 0.51510 0.16420
C36G C 0.6691(13) 0.6941(11) 0.2013(7)
H60G H 0.66060 0.71230 0.21520
H61G H 0.69320 0.70880 0.19250
H62G H 0.67910 0.66480 0.20680
#END
