
#######################################################################
#
#                 Cambridge Crystallographic Data Centre
#                                CCDC
#
#######################################################################
#
# If this CIF has been generated from an entry in the Cambridge
# Structural Database, then it will include bibliographic, chemical,
# crystal, experimental, refinement or atomic coordinate data resulting
# from the CCDC's data processing and validation procedures.
#
#######################################################################

data_CSD_CIF_MAWFIC
_audit_creation_date 2017-04-26
_audit_creation_method CSD-ConQuest-V1
_database_code_CSD MAWFIC
_database_code_depnum_ccdc_archive 'CCDC 1491390'
_chemical_formula_sum 'C60 H118 Mo12 N5 O44 P1 Zn4'
_chemical_formula_moiety
;
(C12 H10 Mo12 N2 O44 P1 Zn4 3-)n,3n(C16 H36 N1 1+)
;
_journal_coden_Cambridge 182
_journal_volume 53
_journal_year 2017
_journal_page_first 5204
_journal_name_full 'Chem.Commun. '
loop_
_publ_author_name
"Yuan-Yuan Wang"
"Mi Zhang"
"Shun-Li Li"
"Shu-Ran Zhang"
"Wei Xie"
"Jun-Sheng Qin"
"Zhong-Min Su"
"Ya-Qian Lan"
_chemical_name_systematic
;
catena-(tris(tetra-n-butylammonium) 
(\m-phosphato)-dodecakis(\m-oxo)-bis(\m-hydroxo)-bis(\m-isonicotinato)-decakis
(\m-oxo)-dodecaoxo-dodeca-molybdenum-tetra-zinc unknown solvate)
;
_chemical_name_common
;
NENU-506
;
_cell_volume  20506.375
_exptl_crystal_colour 'black'
_exptl_crystal_density_diffrn 1.981
_exptl_special_details
;
The hydrogens of the hydroxo groups were not located; we have assigned them 
arbitrarily
;
_exptl_crystal_description 'block'
_diffrn_ambient_temperature 293
_refine_special_details
;
The SQUEEZE/PLATON program has been used to model some disorder.

;
#These two values have been output from a single CSD field.
_refine_ls_R_factor_gt 0.0832
_refine_ls_wR_factor_gt 0.0832
_symmetry_cell_setting orthorhombic
_symmetry_space_group_name_H-M 'P b c n'
_symmetry_Int_Tables_number 60
loop_
_symmetry_equiv_pos_site_id
_symmetry_equiv_pos_as_xyz
1 x,y,z
2 1/2-x,1/2-y,1/2+z
3 1/2+x,1/2-y,-z
4 -x,y,1/2-z
5 -x,-y,-z
6 -1/2+x,-1/2+y,-1/2-z
7 -1/2-x,-1/2+y,z
8 x,-y,-1/2+z
_cell_length_a 25.686(5)
_cell_length_b 31.770(5)
_cell_length_c 25.129(5)
_cell_angle_alpha 90
_cell_angle_beta 90
_cell_angle_gamma 90
_cell_formula_units_Z 8
loop_
_atom_type_symbol
_atom_type_radius_bond
C 0.68
H 0.23
Mo 1.54
N 0.68
O 0.68
P 1.05
Zn 1.22
loop_
_atom_site_label
_atom_site_type_symbol
_atom_site_fract_x
_atom_site_fract_y
_atom_site_fract_z
C1 C 0.125(3) 0.164(2) 0.139(3)
C2 C 0.0062(15) 0.2470(11) 0.3039(14)
H1 H 0.03550 0.26520 0.29590
H2 H -0.02470 0.26450 0.30400
C3 C 0.013(2) 0.2309(16) 0.357(2)
H3 H -0.02000 0.22290 0.37190
H4 H 0.03570 0.20630 0.35600
C4 C 0.0360(18) 0.2627(15) 0.3865(19)
H5 H 0.05290 0.28440 0.36560
H6 H 0.05820 0.25280 0.41510
C5 C -0.0271(19) 0.2751(15) 0.4061(19)
N1 N 0.00000 0.2099(16) 0.25000
C6 C 0.0433(17) 0.1817(15) 0.232(2)
H7 H 0.02930 0.16420 0.20390
H8 H 0.05100 0.16300 0.26170
C7 C 0.105(2) 0.2020(19) 0.209(2)
H9 H 0.10090 0.22290 0.18080
H10 H 0.12660 0.21270 0.23700
C8 C 0.124(3) 0.153(3) 0.185(3)
Mo1 Mo 0.19570(5) 0.02305(4) 0.40609(5)
Mo2 Mo 0.33500(4) 0.17227(4) 0.33934(5)
Mo3 Mo 0.20759(5) 0.19747(4) 0.36732(5)
Mo4 Mo 0.16164(4) 0.07993(4) 0.52642(5)
Mo5 Mo 0.29985(5) 0.22884(4) 0.45956(5)
Mo6 Mo 0.39511(4) 0.04403(4) 0.46300(5)
Mo7 Mo 0.29508(5) 0.01112(4) 0.38190(5)
Mo8 Mo 0.31215(5) 0.19319(4) 0.55378(5)
Mo9 Mo 0.36471(4) 0.09447(4) 0.56939(5)
Mo10 Mo 0.37327(4) 0.09513(4) 0.34472(5)
Mo11 Mo 0.23416(5) 0.10919(4) 0.59101(5)
Mo12 Mo 0.13532(4) 0.12010(4) 0.40217(5)
P1 P 0.27464(12) 0.11418(10) 0.45043(13)
Zn1 Zn 0.23562(6) 0.09949(5) 0.31447(7)
Zn2 Zn 0.27970(6) 0.01695(5) 0.52239(6)
Zn3 Zn 0.40608(6) 0.15316(5) 0.46173(6)
Zn4 Zn 0.18201(7) 0.18692(5) 0.50137(7)
C9 C 0.2517(6) 0.1063(5) 0.1988(6)
H11 H 0.27460 0.12760 0.20880
C10 C 0.2520(8) 0.0940(6) 0.1478(7)
H12 H 0.27400 0.10700 0.12350
C11 C 0.2189(5) 0.0613(5) 0.1313(6)
C12 C 0.1834(6) 0.0449(6) 0.1700(6)
H13 H 0.15950 0.02420 0.16090
C13 C 0.1856(6) 0.0606(5) 0.2211(7)
H14 H 0.16170 0.05040 0.24570
C14 C 0.2219(6) 0.0416(4) 0.0775(6)
C15 C 0.0817(6) 0.1998(6) 0.5502(8)
H15 H 0.08590 0.17180 0.56030
C16 C 0.0353(7) 0.2210(6) 0.5602(8)
H16 H 0.00820 0.20660 0.57670
C17 C 0.0283(6) 0.2614(5) 0.5469(6)
C18 C 0.0687(5) 0.2824(5) 0.5234(7)
H17 H 0.06620 0.31050 0.51340
C19 C 0.1133(6) 0.2593(5) 0.5153(7)
H18 H 0.14160 0.27350 0.50080
C20 C -0.0230(5) 0.2830(5) 0.5576(6)
N2 N 0.2199(4) 0.0896(4) 0.2374(5)
N3 N 0.1196(4) 0.2203(4) 0.5259(5)
O1 O 0.3484(3) 0.0416(2) 0.5268(3)
O2 O 0.3056(3) 0.0856(3) 0.6074(3)
O3 O 0.3669(3) 0.1516(3) 0.5778(4)
O4 O 0.2493(3) 0.2115(3) 0.5132(3)
O5 O 0.2769(3) 0.1565(2) 0.4194(3)
O6 O 0.3133(3) 0.0836(3) 0.4231(3)
O7 O 0.2886(3) 0.1237(3) 0.5085(3)
O8 O 0.2196(3) 0.0950(3) 0.4474(3)
O9 O 0.2042(4) 0.1020(3) 0.6490(4)
O10 O 0.0790(4) 0.1343(3) 0.3736(4)
O11 O 0.3296(4) 0.2349(3) 0.5898(4)
O12 O 0.1631(4) 0.2259(4) 0.3331(4)
O13 O 0.4184(3) 0.0695(3) 0.4016(3)
O14 O 0.3683(4) 0.1909(4) 0.2870(4)
O15 O 0.1685(4) -0.0223(3) 0.3833(4)
O16 O 0.1146(4) 0.0676(4) 0.5718(4)
O17 O 0.3152(4) 0.2786(3) 0.4733(5)
O18 O 0.3408(3) 0.2249(3) 0.3891(4)
O19 O 0.1163(4) 0.1085(3) 0.4704(4)
O20 O 0.2921(4) -0.0369(3) 0.3540(4)
O21 O 0.2656(3) 0.1637(3) 0.6015(4)
O22 O 0.3556(3) 0.0036(3) 0.4334(4)
O23 O 0.1440(4) 0.0653(3) 0.3796(4)
O24 O 0.2631(4) 0.1919(3) 0.3220(4)
O25 O 0.2356(3) 0.2355(3) 0.4130(4)
O26 O 0.2562(3) 0.0061(3) 0.4493(3)
O27 O 0.2267(3) 0.0560(3) 0.5521(3)
O28 O 0.4013(3) 0.1009(3) 0.4989(3)
O29 O 0.3865(3) 0.1463(3) 0.3864(3)
O30 O 0.3085(3) 0.1173(3) 0.3157(4)
O31 O 0.3555(3) 0.1944(2) 0.4902(3)
O32 O 0.1579(3) 0.0257(3) 0.4794(4)
O33 O 0.1889(3) 0.1382(3) 0.3470(3)
O34 O 0.1640(3) 0.1747(3) 0.4274(4)
O35 O 0.3429(4) 0.0393(3) 0.3375(4)
O36 O 0.2397(3) 0.0445(3) 0.3480(4)
O37 O 0.1813(3) 0.1372(3) 0.5456(4)
O38 O 0.4475(4) 0.0186(3) 0.4856(4)
O39 O 0.4127(4) 0.0770(3) 0.6093(4)
O40 O 0.4178(3) 0.0966(3) 0.2941(3)
O41 O 0.2692(4) 0.0338(3) 0.0634(4)
O42 O 0.1812(4) 0.0334(4) 0.0537(4)
O43 O -0.0565(4) 0.2641(3) 0.5825(4)
O44 O -0.0258(4) 0.3201(3) 0.5374(4)
C21 C 0.0342(6) 0.4080(6) 0.6566(8)
H19 H 0.00550 0.40520 0.63180
H20 H 0.01960 0.41610 0.69070
C22 C 0.0598(8) 0.3643(7) 0.6632(8)
H21 H 0.07730 0.35680 0.63030
H22 H 0.08590 0.36580 0.69100
C23 C 0.0236(9) 0.3324(6) 0.6763(9)
H23 H -0.00250 0.33130 0.64840
H24 H 0.00600 0.34040 0.70890
C24 C 0.0455(8) 0.2888(6) 0.6835(9)
H25 H 0.05180 0.27630 0.64930
H26 H 0.02100 0.27180 0.70290
H27 H 0.07750 0.29040 0.70300
C25 C 0.1067(6) 0.4553(5) 0.6805(6)
H28 H 0.12780 0.43060 0.68760
H29 H 0.08650 0.46070 0.71240
C26 C 0.1440(7) 0.4928(5) 0.6727(7)
H30 H 0.16480 0.48830 0.64100
H31 H 0.12400 0.51840 0.66780
C27 C 0.1790(7) 0.4976(5) 0.7197(7)
H32 H 0.15810 0.50330 0.75100
H33 H 0.19740 0.47130 0.72560
C28 C 0.2155(8) 0.5302(6) 0.7129(8)
H34 H 0.23190 0.52750 0.67870
H35 H 0.24140 0.52860 0.74030
H36 H 0.19810 0.55690 0.71490
C29 C 0.0987(7) 0.4337(6) 0.5865(7)
H37 H 0.11650 0.45900 0.57470
H38 H 0.12520 0.41300 0.59500
C30 C 0.0670(9) 0.4172(6) 0.5408(7)
H39 H 0.04150 0.43820 0.53050
H40 H 0.04840 0.39220 0.55210
C31 C 0.1010(9) 0.4066(7) 0.4933(10)
H41 H 0.12130 0.43110 0.48290
H42 H 0.12490 0.38400 0.50230
C32 C 0.0674(14) 0.3938(11) 0.4502(13)
H43 H 0.05060 0.36780 0.45940
H44 H 0.08780 0.38990 0.41850
H45 H 0.04160 0.41510 0.44410
C33 C 0.0328(6) 0.4830(6) 0.6254(8)
H46 H 0.05410 0.50540 0.61080
H47 H 0.00820 0.47480 0.59800
C34 C 0.0039(7) 0.4998(6) 0.6698(7)
H48 H 0.02790 0.51120 0.69580
H49 H -0.01570 0.47730 0.68660
C35 C -0.0330(9) 0.5338(7) 0.6520(9)
H50 H -0.01250 0.55700 0.63840
H51 H -0.05340 0.52290 0.62260
C36 C -0.0692(10) 0.5506(9) 0.6922(10)
H52 H -0.08420 0.52770 0.71200
H53 H -0.09630 0.56620 0.67490
H54 H -0.05060 0.56880 0.71610
N4 N 0.0693(4) 0.4441(4) 0.6371(5)
C37 C 0.2438(11) 0.1802(7) 0.8375(11)
H55 H 0.21870 0.19910 0.85360
H56 H 0.27800 0.19300 0.84100
C38 C 0.2433(12) 0.1378(7) 0.8682(14)
H57 H 0.26220 0.11660 0.84820
H58 H 0.20770 0.12810 0.87250
C39 C 0.2695(15) 0.1438(13) 0.9248(16)
H59 H 0.30700 0.14090 0.92210
H60 H 0.26170 0.17160 0.93870
C40 C 0.248(2) 0.1117(17) 0.9598(18)
H61 H 0.22080 0.09700 0.94190
H62 H 0.23490 0.12470 0.99140
H63 H 0.27540 0.09220 0.96920
C41 C 0.2713(10) 0.1531(8) 0.7484(11)
H64 H 0.26140 0.15320 0.71110
H65 H 0.27170 0.12400 0.76010
C42 C 0.3274(10) 0.1707(10) 0.7528(13)
H66 H 0.32900 0.19890 0.73790
H67 H 0.33790 0.17210 0.78980
C43 C 0.3620(12) 0.1426(9) 0.7235(11)
H68 H 0.34940 0.11800 0.70820
C44 C 0.4144(14) 0.1536(9) 0.7190(16)
H69 H 0.42180 0.16170 0.68300
H70 H 0.43560 0.12990 0.72850
H71 H 0.42190 0.17660 0.74250
C45 C 0.1782(11) 0.1545(9) 0.7713(12)
H72 H 0.18170 0.12650 0.78630
H73 H 0.17400 0.15070 0.73320
C46 C 0.1228(15) 0.1724(12) 0.7927(15)
C47 C 0.083(3) 0.142(2) 0.794(3)
C48 C 0.032(3) 0.132(2) 0.826(3)
C49 C 0.2279(9) 0.2201(7) 0.7581(9)
H74 H 0.26110 0.23360 0.76510
H75 H 0.20190 0.23480 0.77910
C50 C 0.2148(12) 0.2273(9) 0.6992(10)
H76 H 0.23850 0.21050 0.67790
H77 H 0.17990 0.21690 0.69270
C51 C 0.2178(11) 0.2725(9) 0.6802(12)
H78 H 0.22760 0.29460 0.70230
C52 C 0.2050(11) 0.2779(9) 0.6283(11)
H79 H 0.21630 0.25400 0.60810
H80 H 0.22160 0.30280 0.61490
H81 H 0.16790 0.28090 0.62520
N5 N 0.2312(8) 0.1756(7) 0.7786(9)
C53? C 0.074(3) 0.159(2) 0.761(3)
C54? C 0.031(2) 0.169(2) 0.804(3)
C1C C -0.125(3) 0.164(2) 0.361(3)
C2C C -0.0062(15) 0.2470(11) 0.1961(14)
H1C H -0.03550 0.26520 0.20410
H2C H 0.02470 0.26450 0.19600
C3C C -0.013(2) 0.2309(16) 0.143(2)
H3C H 0.02000 0.22290 0.12810
H4C H -0.03570 0.20630 0.14400
C4C C -0.0360(18) 0.2627(15) 0.1135(19)
H5C H -0.05290 0.28440 0.13440
H6C H -0.05820 0.25280 0.08490
C5C C 0.0271(19) 0.2751(15) 0.0939(19)
C6C C -0.0433(17) 0.1817(15) 0.268(2)
H7C H -0.02930 0.16420 0.29610
H8C H -0.05100 0.16300 0.23830
C7C C -0.105(2) 0.2020(19) 0.291(2)
H9C H -0.10090 0.22290 0.31920
H10C H -0.12660 0.21270 0.26300
C8C C -0.124(3) 0.153(3) 0.315(3)
Zn2G Zn 0.27970(6) -0.01695(5) 0.02239(6)
Zn3B Zn -0.09392(6) 0.34684(5) 0.53827(6)
O41G O 0.2692(4) -0.0338(3) 0.5634(4)
O44B O 0.4742(4) 0.1799(3) 0.4626(4)
#END
