
#######################################################################
#
#                 Cambridge Crystallographic Data Centre
#                                CCDC
#
#######################################################################
#
# If this CIF has been generated from an entry in the Cambridge
# Structural Database, then it will include bibliographic, chemical,
# crystal, experimental, refinement or atomic coordinate data resulting
# from the CCDC's data processing and validation procedures.
#
#######################################################################

data_CSD_CIF_MAWGOH
_audit_creation_date 2006-03-02
_audit_creation_method CSD-ConQuest-V1
_database_code_CSD MAWGOH
_database_code_depnum_ccdc_archive 'CCDC 289950'
_chemical_formula_sum 'C14 H18 Br4 Cu4 N2 O14'
_chemical_formula_moiety
;
(H12 Br2 Cu2 O6 2+)n,n(C14 H6 Br2 Cu2 N2 O8 2-)
;
_journal_coden_Cambridge 119
_journal_volume 779
_journal_year 2005
_journal_page_first 16
_journal_name_full 'J.Mol.Struct. '
loop_
_publ_author_name
"Chengyang Yue"
"Zhengzhong Lin"
"Lian Chen"
"Feilong Jiang"
"Maochun Hong"
_chemical_name_systematic
;
catena-(bis(\m~2~-bromo)-hexa-aqua-copper(ii) 
bis((\m~2~-bromo)-(pyridine-2,6-dicarboxylato)-copper(ii)))
;
_cell_volume    640.871
_exptl_crystal_colour 'green'
_exptl_crystal_density_diffrn 2.607
_diffrn_ambient_temperature 173
#These two values have been output from a single CSD field.
_refine_ls_R_factor_gt 0.0488
_refine_ls_wR_factor_gt 0.0488
_symmetry_cell_setting triclinic
_symmetry_space_group_name_H-M 'P -1'
_symmetry_Int_Tables_number 2
loop_
_symmetry_equiv_pos_site_id
_symmetry_equiv_pos_as_xyz
1 x,y,z
2 -x,-y,-z
_cell_length_a 8.1243(15)
_cell_length_b 9.3550(15)
_cell_length_c 10.053(3)
_cell_angle_alpha 114.696(5)
_cell_angle_beta 110.340(8)
_cell_angle_gamma 90.21
_cell_formula_units_Z 1
loop_
_atom_type_symbol
_atom_type_radius_bond
C 0.68
H 0.23
Br 1.21
Cu 1.52
N 0.68
O 0.68
loop_
_atom_site_label
_atom_site_type_symbol
_atom_site_fract_x
_atom_site_fract_y
_atom_site_fract_z
Br1 Br 0.40045(10) 0.13274(8) 0.40771(8)
Cu1 Cu 0.33839(11) 0.06554(10) 0.58796(9)
O1 O 0.5019(6) 0.2467(6) 0.7973(5)
O2 O 0.1309(6) -0.1193(6) 0.4306(5)
O3 O -0.0684(7) -0.2917(7) 0.4198(6)
O4 O 0.5741(7) 0.3447(6) 1.0565(5)
N1 N 0.2612(7) 0.0245(6) 0.7302(6)
C1 C 0.1352(8) -0.1002(8) 0.6722(7)
C2 C 0.4834(8) 0.2483(8) 0.9191(8)
C3 C 0.0576(9) -0.1802(8) 0.4943(7)
C4 C 0.3452(8) 0.1168(8) 0.8859(7)
C5 C 0.3059(9) 0.0813(9) 0.9930(8)
H1 H 0.36610 0.14540 1.10390
C6 C 0.0896(9) -0.1429(8) 0.7719(8)
H2 H 0.00100 -0.23340 0.73090
C7 C 0.1774(10) -0.0494(9) 0.9350(8)
H3 H 0.14830 -0.07600 1.00660
Br2 Br 0.24049(12) 0.44643(11) 0.27014(10)
Cu2 Cu 0.00000 0.50000 0.00000
Cu3 Cu 0.50000 0.50000 0.50000
O5 O -0.1371(7) 0.2803(5) -0.1344(5)
O6 O -0.1670(6) 0.5596(6) 0.1063(5)
O7 O 0.3468(8) 0.5391(8) 0.6217(7)
Br1A Br 0.59955(10) -0.13274(8) 0.59229(8)
Cu1A Cu 0.66161(11) -0.06554(10) 0.41204(9)
O1A O 0.4981(6) -0.2467(6) 0.2027(5)
O2A O 0.8691(6) 0.1193(6) 0.5694(5)
O3A O 1.0684(7) 0.2917(7) 0.5802(6)
O4A O 0.4259(7) -0.3447(6) -0.0565(5)
N1A N 0.7388(7) -0.0245(6) 0.2698(6)
C1A C 0.8648(8) 0.1002(8) 0.3278(7)
C2A C 0.5166(8) -0.2483(8) 0.0809(8)
C3A C 0.9424(9) 0.1802(8) 0.5057(7)
C4A C 0.6548(8) -0.1168(8) 0.1141(7)
C5A C 0.6941(9) -0.0813(9) 0.0070(8)
H1A H 0.63390 -0.14540 -0.10390
C6A C 0.9104(9) 0.1429(8) 0.2281(8)
H2A H 0.99900 0.23340 0.26910
C7A C 0.8226(10) 0.0494(9) 0.0650(8)
H3A H 0.85170 0.07600 -0.00660
Br2A Br -0.24049(12) 0.55357(11) -0.27014(10)
Br2A* Br 0.75951(12) 0.55357(11) 0.72986(10)
Cu2* Cu 1.00000 0.50000 1.00000
O5A O 0.1371(7) 0.7197(5) 0.1344(5)
O6A O 0.1670(6) 0.4404(6) -0.1063(5)
O7A O 0.6532(8) 0.4609(8) 0.3783(7)
#END
