
#######################################################################
#
#                 Cambridge Crystallographic Data Centre
#                                CCDC
#
#######################################################################
#
# If this CIF has been generated from an entry in the Cambridge
# Structural Database, then it will include bibliographic, chemical,
# crystal, experimental, refinement or atomic coordinate data resulting
# from the CCDC's data processing and validation procedures.
#
#######################################################################

data_CSD_CIF_MAWVEO01
_audit_creation_date 2017-04-27
_audit_creation_method CSD-ConQuest-V1
_database_code_CSD MAWVEO01
_database_code_depnum_ccdc_archive 'CCDC 1520956'
_chemical_formula_sum 'C10 H22 Cr1 K1 N2 O12'
_chemical_formula_moiety
;
(C6 H6 Cr1 K1 O12 2-)n,2n(C2 H8 N1 1+)
;
_journal_coden_Cambridge 1326
_journal_volume 19
_journal_year 2017
_journal_page_first 12156
_journal_name_full 'Phys.Chem.Chem.Phys.(PCCP) '
loop_
_publ_author_name
"M.Ptak"
"A.Gagor"
"A.Sieradzki"
"B.Bondzior"
"P.Deren"
"A.Ciupa"
"M.Trzebiatowska"
"M.Maczka"
_chemical_name_systematic
;
catena-(bis(dimethylammonium) hexakis(\m-formato)-chromium-potassium)
;
_cell_volume    502.270
_exptl_crystal_density_diffrn 1.499
_exptl_special_details
;
P-1 polymorph

;
_exptl_crystal_description 'prism'
_diffrn_ambient_temperature 79.9
_diffrn_special_details
;
twin

;
_refine_special_details
;
C11,C21,N1 and C12,C22,N2 disordered over two sites with occupancies 
0.549:0.451.
;
#These two values have been output from a single CSD field.
_refine_ls_R_factor_gt 0.1259
_refine_ls_wR_factor_gt 0.1259
_symmetry_cell_setting triclinic
_symmetry_space_group_name_H-M 'P -1'
_symmetry_Int_Tables_number 2
loop_
_symmetry_equiv_pos_site_id
_symmetry_equiv_pos_as_xyz
1 x,y,z
2 -x,-y,-z
_cell_length_a 8.559(8)
_cell_length_b 8.602(7)
_cell_length_c 9.156(7)
_cell_angle_alpha 63.07(10)
_cell_angle_beta 63.19(10)
_cell_angle_gamma 61.08(10)
_cell_formula_units_Z 1
loop_
_atom_type_symbol
_atom_type_radius_bond
C 0.68
H 0.23
Cr 1.39
K 2.03
N 0.68
O 0.68
loop_
_atom_site_label
_atom_site_type_symbol
_atom_site_fract_x
_atom_site_fract_y
_atom_site_fract_z
Cr1 Cr 0.50000 0.00000 0.50000
O1 O 0.3783(11) 0.0152(10) 0.3537(8)
O2 O 0.5173(11) 0.2485(10) 0.3553(8)
O3 O 0.7499(10) -0.120(1) 0.3542(8)
C1 C 0.2560(15) 0.1613(17) 0.2902(13)
C2 C 0.6647(16) 0.2916(16) 0.2915(15)
C3 C 0.7918(15) -0.2426(15) 0.2912(14)
O4 O 0.1713(13) 0.1707(11) 0.2049(9)
H1 H 0.22790 0.27050 0.30960
H2 H 0.77370 0.19710 0.31480
O5 O 0.6734(12) 0.4458(12) 0.2032(9)
H3 H 0.69500 -0.27720 0.31030
O6 O 0.9496(11) -0.3225(13) 0.2058(9)
K1 K 0.00000 0.50000 0.00000
C4 C 0.240(3) 0.706(3) 0.377(2)
H4 H 0.23450 0.58640 0.40590
H5 H 0.14860 0.76400 0.46410
H6 H 0.36270 0.69040 0.36860
C5 C 0.357(3) 0.818(3) 0.055(2)
H7 H 0.45990 0.82190 0.06710
H8 H 0.31670 0.92260 -0.03800
H9 H 0.39460 0.70460 0.03070
N1 N 0.203(2) 0.823(3) 0.2123(18)
H10 H 0.12040 0.79380 0.20600
H11 H 0.14810 0.94030 0.21460
C6? C 0.177(4) 0.705(3) 0.386(2)
H12? H 0.13610 0.82960 0.38930
H13? H 0.24810 0.61930 0.46510
H14? H 0.06960 0.67450 0.41780
C7? C 0.292(4) 0.817(4) 0.042(2)
H15? H 0.17530 0.92050 0.04700
H16? H 0.30530 0.75100 -0.02620
H17? H 0.39310 0.86250 -0.00870
N2? N 0.293(3) 0.695(3) 0.2120(19)
H18? H 0.40760 0.66590 0.21280
H19? H 0.29260 0.59200 0.21120
O2A O 0.4827(11) -0.2485(10) 0.6447(8)
O3A O 0.2501(10) 0.120(1) 0.6458(8)
O1A O 0.6217(11) -0.0152(10) 0.6463(8)
C2A C 0.3353(16) -0.2916(16) 0.7085(15)
H2A H 0.22630 -0.19710 0.68520
O5A O 0.3266(12) -0.4458(12) 0.7968(9)
K1* K 1.00000 0.50000 0.00000
K1** K 1.00000 -0.50000 0.00000
K1*** K 0.00000 -0.50000 1.00000
O4A O 0.8287(13) 0.8293(11) -0.2049(9)
O5A* O 1.3266(12) 0.5542(12) -0.2032(9)
O4* O 1.1713(13) 0.1707(11) 0.2049(9)
O6A O 1.0504(11) 0.3225(13) -0.2058(9)
O6* O 0.9496(11) 0.6775(13) 0.2058(9)
C1A C 0.7440(15) 0.8387(17) -0.2902(13)
C1* C 1.2560(15) 0.1613(17) 0.2902(13)
H1A H 0.77210 0.72950 -0.30960
O1A* O 0.6217(11) 0.9848(10) -0.3537(8)
O1* O 1.3783(11) 0.0152(10) 0.3537(8)
H1* H 1.22790 0.27050 0.30960
Cr1* Cr 0.50000 1.00000 -0.50000
Cr1** Cr 1.50000 0.00000 0.50000
#END
