
#######################################################################
#
#                 Cambridge Crystallographic Data Centre
#                                CCDC
#
#######################################################################
#
# If this CIF has been generated from an entry in the Cambridge
# Structural Database, then it will include bibliographic, chemical,
# crystal, experimental, refinement or atomic coordinate data resulting
# from the CCDC's data processing and validation procedures.
#
#######################################################################

data_CSD_CIF_MAWVIS11
_audit_creation_date 2020-11-11
_audit_creation_method CSD-ConQuest-V1
_database_code_CSD MAWVIS11
_database_code_depnum_ccdc_archive 'CCDC 1964397'
_chemical_formula_sum 'C10 H22 Cr1 K1 N2 O12'
_chemical_formula_moiety
;
(C6 H6 Cr1 K1 O12 2-)n,2(C2 H8 N1 1+)
;
_journal_coden_Cambridge 983
_journal_volume 124
_journal_year 2020
_journal_page_first 6337
_journal_name_full 'J.Phys.Chem.C '
loop_
_publ_author_name
"M.Ptak"
"K.L.Svane"
"I.E.Collings"
"W.Paraguassu"
_chemical_name_systematic
;
catena-[bis(ethylammonium) hexakis(\m-formato)-chromium(iii)-potassium]
;
_cell_volume    853.257
_exptl_crystal_colour 'dark blue'
_exptl_crystal_density_diffrn 1.765
_exptl_crystal_description 'block'
_diffrn_ambient_temperature 293
_diffrn_ambient_pressure 2250000.0
_diffrn_radiation_probe x-ray
_diffrn_source synchrotron
#These two values have been output from a single CSD field.
_refine_ls_R_factor_gt 0.0738
_refine_ls_wR_factor_gt 0.0738
_symmetry_cell_setting monoclinic
_symmetry_space_group_name_H-M 'P 21/n'
_symmetry_Int_Tables_number 14
loop_
_symmetry_equiv_pos_site_id
_symmetry_equiv_pos_as_xyz
1 x,y,z
2 1/2-x,1/2+y,1/2-z
3 -x,-y,-z
4 -1/2+x,-1/2-y,-1/2+z
_cell_length_a 8.2602(3)
_cell_length_b 8.4583(4)
_cell_length_c 12.225(4)
_cell_angle_alpha 90
_cell_angle_beta 87.413(11)
_cell_angle_gamma 90
_cell_formula_units_Z 2
loop_
_atom_type_symbol
_atom_type_radius_bond
C 0.68
H 0.23
Cr 1.39
K 2.03
N 0.68
O 0.68
loop_
_atom_site_label
_atom_site_type_symbol
_atom_site_fract_x
_atom_site_fract_y
_atom_site_fract_z
Cr1 Cr 0.50000 0.50000 0.50000
K1 K 0.50000 0.50000 1.00000
C1 C 0.7803(6) 0.3108(5) 0.4496(11)
H1 H 0.74337 0.25582 0.51173
C2 C 0.3345(6) 0.1962(5) 0.5028(9)
H2 H 0.27532 0.23709 0.44639
C3 C 0.5816(7) 0.4727(7) 0.7250(13)
H3 H 0.47502 0.43807 0.73418
O1 O 0.6927(4) 0.4207(4) 0.4173(7)
O2 O 0.9106(4) 0.2692(5) 0.4066(9)
O3 O 0.4404(4) 0.2834(3) 0.5428(6)
O4 O 0.3047(4) 0.0619(4) 0.5331(7)
O5 O 0.6316(5) 0.5117(4) 0.6273(9)
O6 O 0.6612(6) 0.4770(6) 0.8062(9)
N1 N 0.4840(6) -0.0590(7) 1.2769(11)
H4 H 0.49955 -0.11134 1.21419
H5 H 0.37866 -0.04014 1.28893
H6 H 0.52011 -0.11680 1.33157
C4 C 0.5720(7) 0.0909(8) 1.2706(13)
H7 H 0.54864 0.15300 1.33613
H8 H 0.68785 0.07173 1.26411
C5 C 0.5204(11) 0.1736(10) 1.1764(19)
H9 H 0.41225 0.21244 1.19034
H10 H 0.52228 0.10316 1.11480
H11 H 0.59210 0.26091 1.16073
C1B C 0.2197(6) 0.6892(5) 0.5504(11)
H1B H 0.25663 0.74418 0.48827
C2B C 0.6655(6) 0.8038(5) 0.4972(9)
H2B H 0.72468 0.76291 0.55361
C3B C 0.4184(7) 0.5273(7) 0.2750(13)
H3B H 0.52498 0.56193 0.26582
O1B O 0.3073(4) 0.5793(4) 0.5827(7)
O2B O 0.0894(4) 0.7308(5) 0.5934(9)
O3B O 0.5596(4) 0.7166(3) 0.4572(6)
O4B O 0.6953(4) 0.9381(4) 0.4669(7)
O5B O 0.3684(5) 0.4883(4) 0.3727(9)
O6B O 0.3388(6) 0.5230(6) 0.1938(9)
K1* K 0.50000 0.50000 0.00000
K1A K 0.00000 0.00000 0.50000
K1A* K 0.00000 1.00000 0.50000
K1A** K 1.00000 0.00000 0.50000
K1A*** K 1.00000 1.00000 0.50000
O2A O 0.5894(4) 0.7692(5) 1.0934(9)
O2C O 0.4106(4) 0.2308(5) 0.9066(9)
O4A O 0.1953(4) 0.5619(4) 0.9669(7)
O4C O 0.8047(4) 0.4381(4) 1.0331(7)
O6B* O 0.3388(6) 0.5230(6) 1.1938(9)
N1B N 0.5160(6) 1.0590(7) 0.7231(11)
H4B H 0.50045 1.11134 0.78581
H5B H 0.62134 1.04014 0.71107
H6B H 0.47989 1.11680 0.66843
C4B C 0.4280(7) 0.9091(8) 0.7294(13)
H7B H 0.45136 0.84700 0.66387
H8B H 0.31215 0.92827 0.73589
C5B C 0.4796(11) 0.8264(10) 0.8236(19)
H9B H 0.58775 0.78756 0.80966
H10B H 0.47772 0.89684 0.88520
H11B H 0.40790 0.73909 0.83927
#END
