
#######################################################################
#
#                 Cambridge Crystallographic Data Centre
#                                CCDC
#
#######################################################################
#
# If this CIF has been generated from an entry in the Cambridge
# Structural Database, then it will include bibliographic, chemical,
# crystal, experimental, refinement or atomic coordinate data resulting
# from the CCDC's data processing and validation procedures.
#
#######################################################################

data_CSD_CIF_MAWVIS05
_audit_creation_date 2020-11-11
_audit_creation_method CSD-ConQuest-V1
_database_code_CSD MAWVIS05
_database_code_depnum_ccdc_archive 'CCDC 1964399'
_chemical_formula_sum 'C10 H22 Cr1 K1 N2 O12'
_chemical_formula_moiety
;
(C6 H6 Cr1 K1 O12 2-)n,2(C2 H8 N1 1+)
;
_journal_coden_Cambridge 983
_journal_volume 124
_journal_year 2020
_journal_page_first 6337
_journal_name_full 'J.Phys.Chem.C '
loop_
_publ_author_name
"M.Ptak"
"K.L.Svane"
"I.E.Collings"
"W.Paraguassu"
_chemical_name_systematic
;
catena-[bis(ethylammonium) hexakis(\m-formato)-chromium(iii)-potassium]
;
_cell_volume    822.358
_exptl_crystal_colour 'dark blue'
_exptl_crystal_density_diffrn 1.831
_exptl_crystal_description 'block'
_diffrn_ambient_temperature 293
_diffrn_ambient_pressure 2980000.0
_diffrn_radiation_probe x-ray
_diffrn_source synchrotron
#These two values have been output from a single CSD field.
_refine_ls_R_factor_gt 0.1099
_refine_ls_wR_factor_gt 0.1099
_symmetry_cell_setting monoclinic
_symmetry_space_group_name_H-M 'P 21/n'
_symmetry_Int_Tables_number 14
loop_
_symmetry_equiv_pos_site_id
_symmetry_equiv_pos_as_xyz
1 x,y,z
2 1/2-x,1/2+y,1/2-z
3 -x,-y,-z
4 -1/2+x,-1/2-y,-1/2+z
_cell_length_a 8.2036(10)
_cell_length_b 8.1487(12)
_cell_length_c 12.344(12)
_cell_angle_alpha 90
_cell_angle_beta 94.74(3)
_cell_angle_gamma 90
_cell_formula_units_Z 2
loop_
_atom_type_symbol
_atom_type_radius_bond
C 0.68
H 0.23
Cr 1.39
K 2.03
N 0.68
O 0.68
loop_
_atom_site_label
_atom_site_type_symbol
_atom_site_fract_x
_atom_site_fract_y
_atom_site_fract_z
Cr1 Cr 0.50000 0.50000 0.50000
K1 K 0.50000 0.50000 1.00000
C1 C 0.7999(12) 0.3282(12) 0.473(2)
H1 H 0.76897 0.26603 0.53076
C2 C 0.3408(13) 0.1847(12) 0.5121(19)
H2 H 0.27075 0.22254 0.45442
C3 C 0.5819(14) 0.4830(13) 0.732(2)
H3 H 0.48647 0.42118 0.73050
O1 O 0.7026(8) 0.4397(9) 0.4321(12)
O2 O 0.9335(8) 0.3010(9) 0.4368(13)
O3 O 0.4634(7) 0.2732(9) 0.5449(11)
O4 O 0.3106(9) 0.0509(11) 0.5536(15)
O5 O 0.6272(8) 0.5324(8) 0.6392(14)
O6 O 0.6538(12) 0.5103(10) 0.8231(17)
N1 N 0.9726(11) 0.5519(13) 0.751(2)
H4 H 1.01513 0.59492 0.69298
H5 H 1.02668 0.58944 0.81105
H6 H 0.86771 0.58031 0.74996
C4 C 0.9862(12) 0.3695(13) 0.7471(19)
H7 H 0.95787 0.32543 0.81606
H8 H 0.90687 0.32819 0.69104
C5 C 1.1402(13) 0.3116(15) 0.727(2)
H9 H 1.14076 0.28357 0.65127
H10 H 1.16567 0.21606 0.77042
H11 H 1.22036 0.39522 0.74462
C1B C 0.2001(12) 0.6718(12) 0.527(2)
H1B H 0.23103 0.73396 0.46924
C2B C 0.6592(13) 0.8153(12) 0.4879(19)
H2B H 0.72925 0.77746 0.54558
C3B C 0.4181(14) 0.5170(13) 0.268(2)
H3B H 0.51353 0.57882 0.26950
O1B O 0.2974(8) 0.5603(9) 0.5679(12)
O2B O 0.0665(8) 0.6990(9) 0.5632(13)
O3B O 0.5366(7) 0.7268(9) 0.4551(11)
O4B O 0.6894(9) 0.9491(11) 0.4464(15)
O5B O 0.3728(8) 0.4676(8) 0.3608(14)
O6B O 0.3462(12) 0.4897(10) 0.1769(17)
K1* K 0.50000 0.50000 0.00000
K1A K 0.00000 0.00000 0.50000
K1A* K 0.00000 1.00000 0.50000
K1A** K 1.00000 0.00000 0.50000
K1A*** K 1.00000 1.00000 0.50000
O2A O 0.5665(8) 0.8010(9) 1.0632(13)
O2C O 0.4335(8) 0.1990(9) 0.9368(13)
O4A O 0.1894(9) 0.5509(11) 0.9464(15)
O4C O 0.8106(9) 0.4491(11) 1.0536(15)
O6B* O 0.3462(12) 0.4897(10) 1.1769(17)
#END
