
#######################################################################
#
#                 Cambridge Crystallographic Data Centre
#                                CCDC
#
#######################################################################
#
# If this CIF has been generated from an entry in the Cambridge
# Structural Database, then it will include bibliographic, chemical,
# crystal, experimental, refinement or atomic coordinate data resulting
# from the CCDC's data processing and validation procedures.
#
#######################################################################

data_CSD_CIF_MAWVIS
_audit_creation_date 2017-04-27
_audit_creation_method CSD-ConQuest-V1
_database_code_CSD MAWVIS
_database_code_depnum_ccdc_archive 'CCDC 1520955'
_chemical_formula_sum 'C10 H22 Cr1 K1 N2 O12'
_chemical_formula_moiety
;
(C6 H6 Cr1 K1 O12 2-)n,2n(C2 H8 N1 1+)
;
_journal_coden_Cambridge 1326
_journal_volume 19
_journal_year 2017
_journal_page_first 12156
_journal_name_full 'Phys.Chem.Chem.Phys.(PCCP) '
loop_
_publ_author_name
"M.Ptak"
"A.Gagor"
"A.Sieradzki"
"B.Bondzior"
"P.Deren"
"A.Ciupa"
"M.Trzebiatowska"
"M.Maczka"
_chemical_name_systematic
;
catena-(bis(ethylammonium) hexakis(\m-formato)-chromium-potassium)
;
_cell_volume    978.482
_exptl_crystal_density_diffrn 1.539
_exptl_crystal_description 'prism'
_diffrn_ambient_temperature 297
#These two values have been output from a single CSD field.
_refine_ls_R_factor_gt 0.0368
_refine_ls_wR_factor_gt 0.0368
_symmetry_cell_setting monoclinic
_symmetry_space_group_name_H-M 'P 21/n'
_symmetry_Int_Tables_number 14
loop_
_symmetry_equiv_pos_site_id
_symmetry_equiv_pos_as_xyz
1 x,y,z
2 1/2-x,1/2+y,1/2-z
3 -x,-y,-z
4 -1/2+x,-1/2-y,-1/2+z
_cell_length_a 8.0147(2)
_cell_length_b 9.8547(3)
_cell_length_c 12.3886(3)
_cell_angle_alpha 90
_cell_angle_beta 90.052(3)
_cell_angle_gamma 90
_cell_formula_units_Z 2
loop_
_atom_type_symbol
_atom_type_radius_bond
C 0.68
H 0.23
Cr 1.39
K 2.03
N 0.68
O 0.68
loop_
_atom_site_label
_atom_site_type_symbol
_atom_site_fract_x
_atom_site_fract_y
_atom_site_fract_z
Cr1 Cr 0.00000 0.00000 0.00000
K1 K 0.50000 0.50000 0.00000
O1 O 0.19686(19) 0.09089(17) -0.06114(13)
O2 O 0.3712(2) 0.46321(17) 0.36782(13)
O3 O 0.0756(2) -0.17140(16) -0.06492(13)
O4 O 0.3969(2) 0.2448(2) -0.06626(16)
O5 O 0.3429(2) 0.4441(2) 0.19145(14)
O6 O 0.2429(2) -0.3461(2) -0.08400(17)
C1 C 0.2768(3) 0.1896(3) -0.0235(2)
H1 H 0.24190 0.22400 0.04260
C2 C 0.4227(3) 0.4738(3) 0.2723(2)
H2 H 0.53010 0.50710 0.26240
C3 C 0.2057(3) -0.2370(3) -0.0428(2)
H3 H 0.27840 -0.20050 0.00800
N1 N -0.0018(3) 0.6007(2) -0.24844(18)
H4 H -0.10860 0.60620 -0.22920
H5 H 0.01540 0.65110 -0.30700
H6 H 0.06220 0.63080 -0.19480
C4 C 0.0412(5) 0.4569(4) -0.2724(3)
H7 H -0.02430 0.42550 -0.33330
H8 H 0.15820 0.45050 -0.29150
C5 C 0.0082(6) 0.3720(5) -0.1796(5)
H9 H 0.05150 0.41480 -0.11590
H10 H 0.06120 0.28550 -0.18940
H11 H -0.11000 0.35930 -0.17210
O1B O -0.19686(19) -0.09089(17) 0.06114(13)
O3B O -0.0756(2) 0.17140(16) 0.06492(13)
O4B O -0.3969(2) -0.2448(2) 0.06626(16)
O6B O -0.2429(2) 0.3461(2) 0.08400(17)
C1B C -0.2768(3) -0.1896(3) 0.0235(2)
H1B H -0.24190 -0.22400 -0.04260
C3B C -0.2057(3) 0.2370(3) 0.0428(2)
H3B H -0.27840 0.20050 -0.00800
O2C O -0.1288(2) 0.03679(17) -0.13218(13)
O5C O -0.1571(2) 0.0559(2) -0.30855(14)
C2C C -0.0773(3) 0.0262(3) -0.2277(2)
H2C H 0.03010 -0.00710 -0.23760
Cr1A Cr 0.50000 0.50000 0.50000
K1* K -0.50000 -0.50000 0.00000
K1** K -0.50000 0.50000 0.00000
K1*** K 0.50000 -0.50000 0.00000
K1A K 0.00000 0.00000 -0.50000
O2A O 0.1288(2) -0.03679(17) 0.13218(13)
O4B* O 0.6031(2) 0.7552(2) 0.06626(16)
O5B O 0.6571(2) 0.5559(2) -0.19145(14)
O6* O 0.2429(2) 0.6539(2) -0.08400(17)
O6B* O 0.7571(2) 0.3461(2) 0.08400(17)
#END
