
#######################################################################
#
#                 Cambridge Crystallographic Data Centre
#                                CCDC
#
#######################################################################
#
# If this CIF has been generated from an entry in the Cambridge
# Structural Database, then it will include bibliographic, chemical,
# crystal, experimental, refinement or atomic coordinate data resulting
# from the CCDC's data processing and validation procedures.
#
#######################################################################

data_CSD_CIF_MAWVIS03
_audit_creation_date 2020-11-11
_audit_creation_method CSD-ConQuest-V1
_database_code_CSD MAWVIS03
_database_code_depnum_ccdc_archive 'CCDC 1964392'
_chemical_formula_sum 'C10 H22 Cr1 K1 N2 O12'
_chemical_formula_moiety
;
(C6 H6 Cr1 K1 O12 2-)n,2(C2 H8 N1 1+)
;
_journal_coden_Cambridge 983
_journal_volume 124
_journal_year 2020
_journal_page_first 6337
_journal_name_full 'J.Phys.Chem.C '
loop_
_publ_author_name
"M.Ptak"
"K.L.Svane"
"I.E.Collings"
"W.Paraguassu"
_chemical_name_systematic
;
catena-[bis(ethylammonium) hexakis(\m-formato)-chromium(iii)-potassium]
;
_cell_volume    953.674
_exptl_crystal_colour 'dark blue'
_exptl_crystal_density_diffrn 1.579
_exptl_crystal_description 'block'
_diffrn_ambient_temperature 293
_diffrn_ambient_pressure 600000.0
_diffrn_radiation_probe x-ray
_diffrn_source synchrotron
#These two values have been output from a single CSD field.
_refine_ls_R_factor_gt 0.0609
_refine_ls_wR_factor_gt 0.0609
_symmetry_cell_setting monoclinic
_symmetry_space_group_name_H-M 'P 21/n'
_symmetry_Int_Tables_number 14
loop_
_symmetry_equiv_pos_site_id
_symmetry_equiv_pos_as_xyz
1 x,y,z
2 1/2-x,1/2+y,1/2-z
3 -x,-y,-z
4 -1/2+x,-1/2-y,-1/2+z
_cell_length_a 7.9900(5)
_cell_length_b 9.7226(6)
_cell_length_c 12.2765(5)
_cell_angle_alpha 90
_cell_angle_beta 90.240(5)
_cell_angle_gamma 90
_cell_formula_units_Z 2
loop_
_atom_type_symbol
_atom_type_radius_bond
C 0.68
H 0.23
Cr 1.39
K 2.03
N 0.68
O 0.68
loop_
_atom_site_label
_atom_site_type_symbol
_atom_site_fract_x
_atom_site_fract_y
_atom_site_fract_z
Cr1 Cr 0.50000 0.50000 0.50000
K1 K 0.50000 0.50000 1.00000
C1 C 0.7795(6) 0.3079(5) 0.4758(3)
H1 H 0.74405 0.27159 0.54191
C2 C 0.2929(6) 0.2597(5) 0.5425(3)
H2 H 0.22076 0.29658 0.49049
C3 C 0.5803(6) 0.5223(5) 0.7314(3)
H3 H 0.47446 0.48501 0.74199
O1 O 0.6983(4) 0.4095(3) 0.4377(2)
O2 O 0.9010(4) 0.2538(4) 0.4325(3)
O3 O 0.4247(4) 0.3251(3) 0.5645(2)
O4 O 0.2533(5) 0.1502(4) 0.5852(3)
O5 O 0.6299(4) 0.5357(3) 0.63370(19)
O6 O 0.6595(5) 0.5542(5) 0.8118(2)
N1 N 1.0028(5) 0.4015(5) 0.2474(3)
H4 H 0.98708 0.35052 0.30671
H5 H 1.10973 0.39695 0.22773
H6 H 0.93845 0.37009 0.19356
C4 C 0.9575(9) 0.5481(7) 0.2715(7)
H7 H 0.83880 0.55393 0.28694
H8 H 1.01818 0.57866 0.33565
C5 C 0.9946(14) 0.6325(13) 0.1859(12)
H9 H 0.93423 0.60277 0.12242
H10 H 1.11265 0.62892 0.17183
H11 H 0.96313 0.72516 0.20348
C1B C 0.2205(6) 0.6921(5) 0.5242(3)
H1B H 0.25595 0.72841 0.45809
C2B C 0.7071(6) 0.7403(5) 0.4575(3)
H2B H 0.77924 0.70342 0.50951
C3B C 0.4197(6) 0.4777(5) 0.2686(3)
H3B H 0.52554 0.51499 0.25801
O1B O 0.3017(4) 0.5905(3) 0.5623(2)
O2B O 0.0990(4) 0.7462(4) 0.5675(3)
O3B O 0.5753(4) 0.6749(3) 0.4355(2)
O4B O 0.7467(5) 0.8498(4) 0.4148(3)
O5B O 0.3701(4) 0.4643(3) 0.36630(19)
O6B O 0.3405(5) 0.4458(5) 0.1882(2)
K1* K 0.50000 0.50000 0.00000
K1A K 0.00000 0.00000 0.50000
K1A* K 0.00000 1.00000 0.50000
K1A** K 1.00000 0.00000 0.50000
K1A*** K 1.00000 1.00000 0.50000
O2A O 0.5990(4) 0.7538(4) 1.0675(3)
O2C O 0.4010(4) 0.2462(4) 0.9325(3)
O4A O 0.2467(5) 0.6502(4) 0.9148(3)
O4C O 0.7533(5) 0.3498(4) 1.0852(3)
O6B* O 0.3405(5) 0.4458(5) 1.1882(2)
#END
