
#######################################################################
#
#                 Cambridge Crystallographic Data Centre
#                                CCDC
#
#######################################################################
#
# If this CIF has been generated from an entry in the Cambridge
# Structural Database, then it will include bibliographic, chemical,
# crystal, experimental, refinement or atomic coordinate data resulting
# from the CCDC's data processing and validation procedures.
#
#######################################################################

data_CSD_CIF_MAWXIT
_audit_creation_date 2012-06-19
_audit_creation_method CSD-ConQuest-V1
_database_code_CSD MAWXIT
_database_code_depnum_ccdc_archive 'CCDC 875676'
_chemical_formula_sum 'C36 H26 In2 N6 Ni1 O1 Se5'
_chemical_formula_moiety
;
(C36 H24 N6 Ni1 2+)n,n(In2 Se5 2-),n(H2 O1)
;
_journal_coden_Cambridge 9
_journal_volume 50
_journal_year 2011
_journal_page_first 10872
_journal_name_full 'Inorg.Chem. '
loop_
_publ_author_name
"Xu Zhang"
"Zhi-Xin Lei"
"Wen Luo"
"Wen-Qin Mu"
"Xiang Zhang"
"Qin-Yu Zhu"
"Jie Dai"
_chemical_name_systematic
;
catena-[tris(1,10-Phenanthroline)-nickel(ii) 
\L-((\m~2~-diselenido)-tris(\m~2~-selenido)-di-indium) monohydrate]
;
_cell_volume   3837.563
_exptl_crystal_colour 'orange'
_exptl_crystal_density_diffrn 2.146
_exptl_crystal_description 'prism'
_diffrn_ambient_temperature 293
#These two values have been output from a single CSD field.
_refine_ls_R_factor_gt 0.0719
_refine_ls_wR_factor_gt 0.0719
loop_
_citation_database_id_CSD
_citation_special_details
MAWXEP "is a stereoisomer of this entry"
_symmetry_cell_setting orthorhombic
_symmetry_space_group_name_H-M 'P 21 21 21'
_symmetry_Int_Tables_number 19
loop_
_symmetry_equiv_pos_site_id
_symmetry_equiv_pos_as_xyz
1 x,y,z
2 1/2-x,-y,1/2+z
3 -x,1/2+y,1/2-z
4 1/2+x,1/2-y,-z
_cell_length_a 14.501(3)
_cell_length_b 14.584(3)
_cell_length_c 18.146(4)
_cell_angle_alpha 90
_cell_angle_beta 90
_cell_angle_gamma 90
_cell_formula_units_Z 4
loop_
_atom_type_symbol
_atom_type_radius_bond
C 0.68
H 0.23
In 1.42
N 0.68
Ni 1.24
O 0.68
Se 1.22
loop_
_atom_site_label
_atom_site_type_symbol
_atom_site_fract_x
_atom_site_fract_y
_atom_site_fract_z
In1 In -0.01942(7) 0.48020(6) 0.25200(5)
In2 In 0.00899(7) 0.71143(6) 0.23055(5)
Se1 Se -0.18292(10) 0.40778(10) 0.26358(10)
Se2 Se -0.09700(9) 0.84832(10) 0.2564(1)
Se3 Se -0.04617(11) 0.58694(9) 0.13863(8)
Se4 Se 0.03422(11) 0.60503(10) 0.34310(8)
Se5 Se -0.15354(10) 0.27829(10) 0.33763(8)
Ni1 Ni -0.02609(13) 0.15419(12) -0.16819(9)
N1 N 0.0566(9) 0.0699(7) -0.1003(6)
N2 N -0.1186(8) 0.0484(7) -0.1442(6)
N3 N 0.0137(7) 0.1016(7) -0.2715(6)
N4 N -0.1138(8) 0.2284(8) -0.2358(6)
N5 N 0.0719(7) 0.2586(7) -0.1693(6)
N6 N -0.0648(8) 0.2273(8) -0.0716(6)
C1 C 0.1457(11) 0.0815(10) -0.0826(9)
H1 H 0.18290 0.11980 -0.11070
C2 C 0.1827(14) 0.0350(12) -0.0207(10)
H2 H 0.24200 0.04840 -0.00450
C3 C 0.1321(13) -0.0284(13) 0.0145(10)
H3 H 0.15920 -0.06330 0.05140
C4 C 0.0405(11) -0.0427(10) -0.0031(8)
C5 C 0.0077(10) 0.0064(9) -0.0630(7)
C6 C -0.2035(10) 0.0362(11) -0.1709(8)
H4 H -0.22260 0.07040 -0.21140
C7 C -0.2652(11) -0.0275(11) -0.139(1)
H5 H -0.32550 -0.03220 -0.15600
C8 C -0.2359(10) -0.0805(11) -0.0846(9)
H6 H -0.27540 -0.12490 -0.06560
C9 C -0.1432(11) -0.0712(9) -0.0535(9)
C10 C -0.088(1) -0.0046(10) -0.0869(7)
C11 C -0.0216(13) -0.1075(11) 0.0331(9)
H7 H -0.00210 -0.14030 0.07420
C12 C -0.1085(13) -0.1192(10) 0.0060(8)
H8 H -0.14660 -0.16200 0.02880
C13 C 0.0780(11) 0.0419(9) -0.2861(8)
H9 H 0.10850 0.01240 -0.24770
C14 C 0.1024(11) 0.0210(12) -0.3617(9)
H10 H 0.14850 -0.02140 -0.37190
C15 C 0.0575(11) 0.0639(10) -0.4172(9)
H11 H 0.07140 0.04950 -0.46590
C16 C -0.0087(11) 0.1289(10) -0.4018(9)
C17 C -0.0299(8) 0.1442(9) -0.3288(7)
C18 C -0.1781(10) 0.2895(8) -0.2172(8)
H12 H -0.18790 0.30170 -0.16760
C19 C -0.2323(10) 0.3368(9) -0.2704(8)
H13 H -0.27920 0.37610 -0.25550
C20 C -0.2146(10) 0.3237(10) -0.3434(8)
H14 H -0.24710 0.35750 -0.37820
C21 C -0.1482(11) 0.2603(11) -0.3671(9)
C22 C -0.0973(9) 0.2144(11) -0.3093(7)
C23 C -0.0580(12) 0.1786(11) -0.4597(9)
H15 H -0.04330 0.16920 -0.50900
C24 C -0.1242(12) 0.2376(11) -0.4410(8)
H16 H -0.15700 0.26580 -0.47870
C25 C 0.1377(10) 0.2749(10) -0.2166(8)
H17 H 0.14040 0.23860 -0.25870
C26 C 0.2038(10) 0.3426(11) -0.2084(9)
H18 H 0.24880 0.35020 -0.24440
C27 C 0.2035(11) 0.3976(10) -0.1487(10)
H19 H 0.24680 0.44400 -0.14290
C28 C 0.1350(11) 0.3816(9) -0.0959(9)
C29 C 0.0699(10) 0.3113(9) -0.1068(8)
C30 C -0.1347(10) 0.2148(10) -0.0264(7)
H20 H -0.17930 0.17180 -0.03890
C31 C -0.1447(11) 0.2629(12) 0.0391(8)
H21 H -0.19370 0.25040 0.07060
C32 C -0.0831(12) 0.3275(12) 0.0562(9)
H22 H -0.09090 0.36190 0.09890
C33 C -0.0068(10) 0.3440(11) 0.0107(7)
C34 C -0.0023(10) 0.2931(9) -0.0554(7)
C35 C 0.1284(13) 0.4297(10) -0.0262(9)
H23 H 0.17170 0.47500 -0.01590
C36 C 0.0622(12) 0.4121(12) 0.0247(9)
H24 H 0.06160 0.44440 0.06890
O1 O -0.3375(8) 0.2880(9) -0.0878(6)
In1B In 0.01942(7) 0.98020(6) 0.24800(5)
In2B In -0.00899(7) 0.21143(6) 0.26945(5)
Se2B Se 0.09700(9) 0.34832(10) 0.2436(1)
Se5B Se 0.15354(10) 0.77829(10) 0.16237(8)
#END
