
#######################################################################
#
#                 Cambridge Crystallographic Data Centre
#                                CCDC
#
#######################################################################
#
# If this CIF has been generated from an entry in the Cambridge
# Structural Database, then it will include bibliographic, chemical,
# crystal, experimental, refinement or atomic coordinate data resulting
# from the CCDC's data processing and validation procedures.
#
#######################################################################

data_CSD_CIF_MAWXOZ
_audit_creation_date 2012-06-19
_audit_creation_method CSD-ConQuest-V1
_database_code_CSD MAWXOZ
_database_code_depnum_ccdc_archive 'CCDC 875677'
_chemical_formula_sum 'C36 H26 Fe1 In2 N6 O1 Se5'
_chemical_formula_moiety
;
(C36 H24 Fe1 N6 2+)n,n(In2 Se5 2-),n(H2 O1)
;
_journal_coden_Cambridge 9
_journal_volume 50
_journal_year 2011
_journal_page_first 10872
_journal_name_full 'Inorg.Chem. '
loop_
_publ_author_name
"Xu Zhang"
"Zhi-Xin Lei"
"Wen Luo"
"Wen-Qin Mu"
"Xiang Zhang"
"Qin-Yu Zhu"
"Jie Dai"
_chemical_name_systematic
;
catena-[tris(1,10-Phenanthroline)-iron(ii) 
\D-((\m~2~-diselenido)-tris(\m~2~-selenido)-di-indium) monohydrate]
;
_cell_volume   3792.723
_exptl_crystal_colour 'red'
_exptl_crystal_density_diffrn 2.166
_exptl_special_details
;
Isomorphous with the Ni analogue

;
_exptl_crystal_description 'prism'
_diffrn_ambient_temperature 293
#These two values have been output from a single CSD field.
_refine_ls_R_factor_gt 0.0801
_refine_ls_wR_factor_gt 0.0801
_symmetry_cell_setting orthorhombic
_symmetry_space_group_name_H-M 'P 21 21 21'
_symmetry_Int_Tables_number 19
loop_
_symmetry_equiv_pos_site_id
_symmetry_equiv_pos_as_xyz
1 x,y,z
2 1/2+x,1/2-y,-z
3 -x,1/2+y,1/2-z
4 1/2-x,-y,1/2+z
_cell_length_a 14.498(4)
_cell_length_b 14.654(4)
_cell_length_c 17.852(5)
_cell_angle_alpha 90
_cell_angle_beta 90
_cell_angle_gamma 90
_cell_formula_units_Z 4
loop_
_atom_type_symbol
_atom_type_radius_bond
C 0.68
H 0.23
Fe 1.52
In 1.42
N 0.68
O 0.68
Se 1.22
loop_
_atom_site_label
_atom_site_type_symbol
_atom_site_fract_x
_atom_site_fract_y
_atom_site_fract_z
In1 In 0.47963(8) -0.47689(7) 0.75271(7)
In2 In 0.51161(8) -0.70763(7) 0.73019(6)
Se1 Se 0.45269(14) -0.58419(11) 0.63799(9)
Se2 Se 0.40695(12) -0.84366(12) 0.75853(11)
Se3 Se 0.31578(13) -0.40661(12) 0.76716(11)
Se4 Se 0.34652(13) -0.27626(11) 0.84097(9)
Se5 Se 0.53861(14) -0.60030(11) 0.84367(9)
Fe1 Fe 0.47053(18) -0.15485(16) 0.33406(12)
N1 N 0.4349(9) -0.2197(9) 0.4268(7)
N2 N 0.5651(8) -0.2531(7) 0.3277(6)
N3 N 0.3856(9) -0.2264(8) 0.2701(7)
N4 N 0.5095(9) -0.1032(7) 0.2370(7)
N5 N 0.3818(9) -0.0567(7) 0.3564(7)
N6 N 0.5539(11) -0.0781(9) 0.3974(7)
C1 C 0.3650(12) -0.2092(11) 0.4750(9)
H1 H 0.32060 -0.16540 0.46430
C2 C 0.3550(14) -0.2595(12) 0.5396(9)
H2 H 0.30590 -0.24830 0.57180
C3 C 0.4151(14) -0.3233(13) 0.5556(10)
H3 H 0.40710 -0.35760 0.59900
C4 C 0.4904(13) -0.3416(12) 0.5096(9)
C5 C 0.4954(11) -0.2886(11) 0.4441(8)
C6 C 0.6259(11) -0.2684(10) 0.2767(9)
H4 H 0.62520 -0.23250 0.23370
C7 C 0.6937(11) -0.3375(11) 0.2831(9)
H5 H 0.73700 -0.34590 0.24530
C8 C 0.6947(11) -0.3921(11) 0.3458(9)
H6 H 0.73770 -0.43880 0.35040
C9 C 0.6310(12) -0.3764(10) 0.4019(9)
C10 C 0.5664(12) -0.3082(9) 0.3909(8)
C11 C 0.5593(13) -0.4109(12) 0.5212(9)
H7 H 0.55740 -0.44570 0.56470
C12 C 0.6247(15) -0.4261(13) 0.4720(9)
H8 H 0.66870 -0.47050 0.48250
C13 C 0.3220(12) -0.2872(10) 0.2899(9)
H9 H 0.31130 -0.29750 0.34060
C14 C 0.270(1) -0.3369(11) 0.2361(9)
H10 H 0.22610 -0.37930 0.25120
C15 C 0.2856(12) -0.3213(10) 0.1617(9)
H11 H 0.25280 -0.35420 0.12610
C16 C 0.3508(11) -0.2557(10) 0.1384(9)
C17 C 0.4014(12) -0.2101(11) 0.1947(8)
C18 C 0.5697(13) -0.0404(11) 0.2225(10)
H12 H 0.59580 -0.00900 0.26250
C19 C 0.5979(13) -0.0170(11) 0.1487(10)
H13 H 0.64350 0.02660 0.14100
C20 C 0.5571(15) -0.0594(13) 0.0897(11)
H14 H 0.57670 -0.04710 0.04110
C21 C 0.4862(13) -0.1209(11) 0.1020(9)
C22 C 0.4669(13) -0.1442(10) 0.1768(8)
C23 C 0.3736(12) -0.2351(10) 0.0624(8)
H15 H 0.34380 -0.26630 0.02400
C24 C 0.4374(14) -0.1714(11) 0.0450(9)
H16 H 0.45020 -0.15980 -0.00520
C25 C 0.2939(13) -0.0451(13) 0.3297(10)
H17 H 0.27290 -0.08180 0.29070
C26 C 0.2357(13) 0.0204(11) 0.3600(11)
H18 H 0.17590 0.02580 0.34180
C27 C 0.2644(13) 0.0764(11) 0.4154(9)
H19 H 0.22520 0.12110 0.43420
C28 C 0.3512(16) 0.0667(11) 0.4436(9)
C29 C 0.4103(13) 0.003(1) 0.4106(8)
C30 C 0.6396(14) -0.0849(12) 0.4172(10)
H20 H 0.67490 -0.12870 0.39260
C31 C 0.6846(13) -0.0322(13) 0.4724(9)
H21 H 0.74740 -0.03820 0.48160
C32 C 0.6327(13) 0.0266(12) 0.5106(10)
H22 H 0.65880 0.05860 0.55030
C33 C 0.5395(14) 0.0415(12) 0.4925(10)
C34 C 0.5056(14) -0.0132(12) 0.4343(8)
C35 C 0.3900(14) 0.1189(12) 0.5004(11)
H23 H 0.35280 0.16260 0.52320
C36 C 0.4783(14) 0.1109(10) 0.5251(9)
H24 H 0.50000 0.14930 0.56270
O1 O 0.1594(9) -0.2918(9) 0.4152(6)
In1B In 0.52037(8) -0.97689(7) 0.74729(7)
In2B In 0.48839(8) -0.20763(7) 0.76981(6)
Se2B Se 0.59305(12) -0.34366(12) 0.74147(11)
Se4B Se 0.65348(13) -0.77626(11) 0.65903(9)
#END
