
#######################################################################
#
#                 Cambridge Crystallographic Data Centre
#                                CCDC
#
#######################################################################
#
# If this CIF has been generated from an entry in the Cambridge
# Structural Database, then it will include bibliographic, chemical,
# crystal, experimental, refinement or atomic coordinate data resulting
# from the CCDC's data processing and validation procedures.
#
#######################################################################

data_CSD_CIF_MAWXEP
_audit_creation_date 2012-06-19
_audit_creation_method CSD-ConQuest-V1
_database_code_CSD MAWXEP
_database_code_depnum_ccdc_archive 'CCDC 875675'
_chemical_formula_sum 'C36 H26 In2 N6 Ni1 O1 Se5'
_chemical_formula_moiety
;
(C36 H24 N6 Ni1 2+)n,n(In2 Se5 2-),n(H2 O1)
;
_journal_coden_Cambridge 9
_journal_volume 50
_journal_year 2011
_journal_page_first 10872
_journal_name_full 'Inorg.Chem. '
loop_
_publ_author_name
"Xu Zhang"
"Zhi-Xin Lei"
"Wen Luo"
"Wen-Qin Mu"
"Xiang Zhang"
"Qin-Yu Zhu"
"Jie Dai"
_chemical_name_systematic
;
catena-[tris(1,10-Phenanthroline)-nickel(ii) 
\D-((\m~2~-diselenido)-tris(\m~2~-selenido)-di-indium) monohydrate]
;
_cell_volume   3831.403
_exptl_crystal_colour 'red'
_exptl_crystal_density_diffrn 2.153
_exptl_special_details
;
Isomorphous with the Fe analogue

;
_diffrn_ambient_temperature 223
#These two values have been output from a single CSD field.
_refine_ls_R_factor_gt 0.0768
_refine_ls_wR_factor_gt 0.0768
loop_
_citation_database_id_CSD
_citation_special_details
MAWXIT "is a stereoisomer of this entry"
_symmetry_cell_setting orthorhombic
_symmetry_space_group_name_H-M 'P 21 21 21'
_symmetry_Int_Tables_number 19
loop_
_symmetry_equiv_pos_site_id
_symmetry_equiv_pos_as_xyz
1 x,y,z
2 1/2+x,1/2-y,-z
3 -x,1/2+y,1/2-z
4 1/2-x,-y,1/2+z
_cell_length_a 14.4859(19)
_cell_length_b 14.583(2)
_cell_length_c 18.137(3)
_cell_angle_alpha 90
_cell_angle_beta 90
_cell_angle_gamma 90
_cell_formula_units_Z 4
loop_
_atom_type_symbol
_atom_type_radius_bond
C 0.68
H 0.23
In 1.42
N 0.68
Ni 1.24
O 0.68
Se 1.22
loop_
_atom_site_label
_atom_site_type_symbol
_atom_site_fract_x
_atom_site_fract_y
_atom_site_fract_z
In1 In 0.48056(8) -0.51986(7) 0.24803(7)
In2 In 0.50887(8) -0.28848(7) 0.26947(7)
Ni1 Ni 0.02584(14) -0.15443(15) 0.16822(12)
Se1 Se 0.34678(12) -0.72177(11) 0.16246(10)
Se2 Se 0.31704(11) -0.59192(12) 0.23645(12)
Se3 Se 0.53415(13) -0.39527(12) 0.15701(10)
Se4 Se 0.45401(12) -0.41297(11) 0.36125(10)
Se5 Se 0.40296(11) -0.15188(12) 0.24333(12)
N1 N -0.0132(8) -0.1024(8) 0.2710(7)
N2 N 0.1150(9) -0.2267(9) 0.2365(8)
N3 N -0.0733(9) -0.2581(9) 0.1698(8)
N4 N 0.0634(10) -0.2267(10) 0.0716(8)
N5 N -0.0580(9) -0.0697(10) 0.1017(8)
N6 N 0.119(1) -0.0465(10) 0.1445(9)
C1 C -0.0771(12) -0.0406(11) 0.2864(11)
H1 H -0.10660 -0.00910 0.24780
C2 C -0.1021(13) -0.0208(14) 0.3618(13)
H2 H -0.14820 0.02240 0.37270
C3 C -0.0572(15) -0.0663(13) 0.4170(11)
H3 H -0.07390 -0.05530 0.46630
C4 C 0.0111(12) -0.1271(12) 0.4021(10)
C5 C 0.0342(10) -0.1440(11) 0.3281(9)
C6 C 0.1796(11) -0.2885(11) 0.2162(10)
H4 H 0.19080 -0.29860 0.16580
C7 C 0.2319(11) -0.3395(12) 0.2706(11)
H5 H 0.27630 -0.38280 0.25590
C8 C 0.2158(12) -0.3237(12) 0.3418(11)
H6 H 0.25030 -0.35510 0.37770
C9 C 0.1468(12) -0.2595(12) 0.3643(11)
C10 C 0.0979(11) -0.2139(11) 0.3107(10)
C11 C 0.0594(14) -0.1765(14) 0.4585(12)
H7 H 0.04530 -0.16630 0.50840
C12 C 0.1270(14) -0.2392(14) 0.4392(12)
H8 H 0.16050 -0.26900 0.47660
C13 C -0.1382(12) -0.2779(13) 0.2185(12)
H9 H -0.13850 -0.24450 0.26280
C14 C -0.2057(13) -0.3442(13) 0.2091(11)
H10 H -0.25230 -0.35170 0.24460
C15 C -0.2041(14) -0.3982(13) 0.1481(13)
H11 H -0.24760 -0.44540 0.14230
C16 C -0.1366(12) -0.3828(11) 0.0936(11)
C17 C -0.0707(12) -0.3128(11) 0.1077(10)
C18 C 0.1327(13) -0.2136(13) 0.0248(11)
H12 H 0.17540 -0.16730 0.03660
C19 C 0.1481(13) -0.2631(13) -0.0416(9)
H13 H 0.19770 -0.25120 -0.07360
C20 C 0.0824(12) -0.3308(13) -0.0543(10)
H14 H 0.09010 -0.36910 -0.09550
C21 C 0.0067(10) -0.3451(13) -0.0099(9)
C22 C 0.0015(12) -0.2930(11) 0.0572(9)
C23 C -0.1271(14) -0.4288(11) 0.0263(11)
H15 H -0.17060 -0.47440 0.01510
C24 C -0.0577(14) -0.4120(12) -0.0256(10)
H16 H -0.05490 -0.44540 -0.06980
C25 C -0.1454(13) -0.0814(11) 0.0793(10)
H17 H -0.18280 -0.12470 0.10340
C26 C -0.1820(16) -0.0305(14) 0.0208(12)
H18 H -0.24410 -0.03870 0.00740
C27 C -0.1297(14) 0.0301(15) -0.0165(11)
H19 H -0.15480 0.06340 -0.05610
C28 C -0.0388(14) 0.0426(12) 0.0038(12)
C29 C -0.0066(12) -0.0071(11) 0.0648(9)
C30 C 0.2040(11) -0.0377(14) 0.1687(11)
H20 H 0.22500 -0.07630 0.20660
C31 C 0.2670(12) 0.0311(11) 0.1377(12)
H21 H 0.32800 0.03730 0.15450
C32 C 0.2340(13) 0.0826(14) 0.0861(13)
H22 H 0.27190 0.12990 0.06820
C33 C 0.1405(11) 0.0729(11) 0.053(1)
C34 C 0.0876(13) 0.0055(12) 0.0893(11)
C35 C 0.0224(13) 0.1038(11) -0.0293(10)
H23 H 0.00150 0.13620 -0.07080
C36 C 0.1064(9) 0.1195(9) -0.0070(7)
H24 H 0.14350 0.16240 -0.03180
O1 O 0.3351(9) -0.2863(9) 0.0860(7)
In1B In 0.51944(8) -0.01986(7) 0.25197(7)
In2B In 0.49113(8) -0.78848(7) 0.23053(7)
Se1B Se 0.65322(12) -0.22177(11) 0.33754(10)
Se5B Se 0.59704(11) -0.65188(12) 0.25667(12)
#END
