
#######################################################################
#
#                 Cambridge Crystallographic Data Centre
#                                CCDC
#
#######################################################################
#
# If this CIF has been generated from an entry in the Cambridge
# Structural Database, then it will include bibliographic, chemical,
# crystal, experimental, refinement or atomic coordinate data resulting
# from the CCDC's data processing and validation procedures.
#
#######################################################################

data_CSD_CIF_MAXHEA
_audit_creation_date 2012-06-01
_audit_creation_method CSD-ConQuest-V1
_database_code_CSD MAXHEA
_database_code_depnum_ccdc_archive 'CCDC 760610'
_chemical_formula_sum 'C2 H12 Ce1 N1 O9 P2'
_chemical_formula_moiety
;
(C2 H6 Ce1 O8 P2 1-)n,n(H4 N1 1+),n(H2 O1)
;
_journal_coden_Cambridge 1147
_journal_volume 11
_journal_year 2011
_journal_page_first 5346
_journal_name_full 'Cryst.Growth Des. '
loop_
_publ_author_name
"Da-Peng Dong"
"Lei Liu"
"Zhen-Gang Sun"
"Cheng-Qi Jiao"
"Zhong-Min Liu"
"Chao Li"
"Yan-Yu Zhu"
"Kai Chen"
"Cheng-Lin Wang"
_chemical_name_systematic
;
catena-(ammonium (\m~4~-1-hydroxyethylidene-diphosphonato)-aqua-cerium 
monohydrate)
;
_cell_volume    977.211
_exptl_crystal_colour 'colorless'
_exptl_crystal_density_diffrn 2.693
_exptl_crystal_description 'block'
_diffrn_ambient_temperature 275
#These two values have been output from a single CSD field.
_refine_ls_R_factor_gt 0.0329
_refine_ls_wR_factor_gt 0.0329
_symmetry_cell_setting orthorhombic
_symmetry_space_group_name_H-M 'P 21 21 21'
_symmetry_Int_Tables_number 19
loop_
_symmetry_equiv_pos_site_id
_symmetry_equiv_pos_as_xyz
1 x,y,z
2 1/2-x,-y,1/2+z
3 -x,1/2+y,1/2-z
4 1/2+x,1/2-y,-z
_cell_length_a 8.6912(11)
_cell_length_b 10.3935(13)
_cell_length_c 10.8180(13)
_cell_angle_alpha 90
_cell_angle_beta 90
_cell_angle_gamma 90
_cell_formula_units_Z 4
loop_
_atom_type_symbol
_atom_type_radius_bond
C 0.68
H 0.23
Ce 2.04
N 0.68
O 0.68
P 1.05
loop_
_atom_site_label
_atom_site_type_symbol
_atom_site_fract_x
_atom_site_fract_y
_atom_site_fract_z
Ce1 Ce -0.00765(5) 0.60131(3) 0.38733(3)
P1 P -0.1563(2) 0.4160(2) 0.10661(18)
P2 P 0.1940(2) 0.4184(2) 0.13898(16)
O1 O -0.1535(7) 0.5040(6) 0.2191(6)
O2 O -0.2788(6) 0.4583(5) 0.0153(5)
O3 O -0.1755(6) 0.2745(5) 0.1410(5)
O4 O 0.1786(7) 0.5299(6) 0.2304(5)
O5 O 0.1743(6) 0.2851(5) 0.1992(5)
O6 O 0.3417(6) 0.4294(5) 0.0649(5)
O7 O 0.0475(6) 0.3068(5) -0.0446(4)
H1 H -0.02050 0.30530 -0.10110
O8 O 0.0362(6) 0.3570(4) 0.4172(4)
H2 H 0.07650 0.32550 0.35230
H3 H -0.04970 0.31990 0.42920
O9 O 0.7848(7) 0.7523(6) 0.9018(5)
H4 H 0.87360 0.76800 0.87260
H5 H 0.73860 0.82270 0.91680
N1 N 0.4291(8) 0.1513(7) 0.3049(6)
H6 H 0.33960 0.14060 0.26430
H7 H 0.43830 0.09030 0.36340
H8 H 0.50790 0.14490 0.25130
H9 H 0.43050 0.22950 0.34060
C1 C 0.0319(9) 0.4252(6) 0.0296(6)
C2 C 0.0422(10) 0.5434(7) -0.0541(6)
H10 H -0.04380 0.54430 -0.10980
H11 H 0.13620 0.54030 -0.10070
H12 H 0.04070 0.62000 -0.00440
Ce1B Ce 0.00765(5) 0.10131(3) 0.11267(3)
Ce1A Ce -0.49235(5) 0.39869(3) -0.11267(3)
Ce1A* Ce 0.50765(5) 0.39869(3) -0.11267(3)
O2A O -0.2212(6) 0.5417(5) 0.5153(5)
O3B O 0.1755(6) 0.7745(5) 0.3590(5)
O5B O -0.1743(6) 0.7851(5) 0.3008(5)
O6A O 0.1583(6) 0.5706(5) 0.5649(5)
O7B O -0.0475(6) 0.8068(5) 0.5446(4)
H1B H 0.02050 0.80530 0.60110
#END
