
#######################################################################
#
#                 Cambridge Crystallographic Data Centre
#                                CCDC
#
#######################################################################
#
# If this CIF has been generated from an entry in the Cambridge
# Structural Database, then it will include bibliographic, chemical,
# crystal, experimental, refinement or atomic coordinate data resulting
# from the CCDC's data processing and validation procedures.
#
#######################################################################

data_CSD_CIF_MAXHOK
_audit_creation_date 2012-06-01
_audit_creation_method CSD-ConQuest-V1
_database_code_CSD MAXHOK
_database_code_depnum_ccdc_archive 'CCDC 760612'
_chemical_formula_sum 'C2 H12 N1 Nd1 O9 P2'
_chemical_formula_moiety
;
(C2 H6 Nd1 O8 P2 1-)n,n(H4 N1 1+),n(H2 O1)
;
_journal_coden_Cambridge 1147
_journal_volume 11
_journal_year 2011
_journal_page_first 5346
_journal_name_full 'Cryst.Growth Des. '
loop_
_publ_author_name
"Da-Peng Dong"
"Lei Liu"
"Zhen-Gang Sun"
"Cheng-Qi Jiao"
"Zhong-Min Liu"
"Chao Li"
"Yan-Yu Zhu"
"Kai Chen"
"Cheng-Lin Wang"
_chemical_name_systematic
;
catena-(ammonium (\m~4~-1-hydroxyethylidene-diphosphonato)-aqua-neodymium 
monohydrate)
;
_cell_volume    958.728
_exptl_crystal_colour 'purple'
_exptl_crystal_density_diffrn 2.773
_exptl_special_details
;
Absolute configuration

;
_exptl_crystal_description 'block'
_diffrn_ambient_temperature 293
#These two values have been output from a single CSD field.
_refine_ls_R_factor_gt 0.0386
_refine_ls_wR_factor_gt 0.0386
_symmetry_cell_setting orthorhombic
_symmetry_space_group_name_H-M 'P 21 21 21'
_symmetry_Int_Tables_number 19
loop_
_symmetry_equiv_pos_site_id
_symmetry_equiv_pos_as_xyz
1 x,y,z
2 1/2-x,-y,1/2+z
3 -x,1/2+y,1/2-z
4 1/2+x,1/2-y,-z
_cell_length_a 8.649(2)
_cell_length_b 10.323(3)
_cell_length_c 10.738(3)
_cell_angle_alpha 90
_cell_angle_beta 90
_cell_angle_gamma 90
_cell_formula_units_Z 4
loop_
_atom_type_symbol
_atom_type_radius_bond
C 0.68
H 0.23
N 0.68
Nd 2.01
O 0.68
P 1.05
loop_
_atom_site_label
_atom_site_type_symbol
_atom_site_fract_x
_atom_site_fract_y
_atom_site_fract_z
Nd1 Nd -0.50709(7) 0.39826(4) -0.38698(4)
P1 P -0.3065(3) 0.5817(3) -0.1383(2)
P2 P -0.6574(3) 0.5847(3) -0.1072(3)
O1 O -0.3242(9) 0.4706(8) -0.2305(8)
O2 O -0.3288(8) 0.7153(7) -0.1985(7)
O3 O -0.1581(7) 0.5699(6) -0.0641(6)
O4 O -0.7824(8) 0.5433(7) -0.0148(6)
O5 O -0.6742(8) 0.7265(7) -0.1425(6)
O6 O -0.6561(9) 0.4942(7) -0.2195(8)
O7 O -0.4567(7) 0.6950(6) 0.0458(6)
H1 H -0.36850 0.69810 0.07950
O8 O -0.4673(7) 0.6412(5) -0.4160(5)
H2 H -0.45990 0.67710 -0.34570
H3 H -0.38500 0.65370 -0.45680
O9 O -0.2162(8) 0.2542(7) -0.0939(8)
H4 H -0.28700 0.27120 -0.14560
H5 H -0.17390 0.18320 -0.11300
N1 N -0.4297(11) 0.1522(8) -0.8036(9)
H6 H -0.35780 0.20950 -0.82730
H7 H -0.51990 0.17150 -0.83990
H8 H -0.40030 0.07270 -0.82630
H9 H -0.44070 0.15530 -0.72090
C1 C -0.4684(10) 0.5747(7) -0.0294(8)
C2 C -0.4608(12) 0.4570(9) 0.0566(9)
H10 H -0.36130 0.45380 0.09610
H11 H -0.47640 0.37950 0.00880
H12 H -0.53990 0.46370 0.11900
Nd1B Nd -0.49291(7) 0.89826(4) -0.11302(4)
Nd1A Nd -0.99291(7) 0.60174(4) 0.11302(4)
Nd1A* Nd 0.00709(7) 0.60174(4) 0.11302(4)
O2B O -0.6712(8) 0.2153(7) -0.3015(7)
O3A O -0.3419(7) 0.4301(6) -0.5641(6)
O4A O -0.7176(8) 0.4567(7) -0.5148(6)
O5B O -0.3258(8) 0.2265(7) -0.3575(6)
O7B O -0.5433(7) 0.1950(6) -0.5458(6)
H1B H -0.63150 0.19810 -0.57950
#END
