
#######################################################################
#
#                 Cambridge Crystallographic Data Centre
#                                CCDC
#
#######################################################################
#
# If this CIF has been generated from an entry in the Cambridge
# Structural Database, then it will include bibliographic, chemical,
# crystal, experimental, refinement or atomic coordinate data resulting
# from the CCDC's data processing and validation procedures.
#
#######################################################################

data_CSD_CIF_MAXHIE
_audit_creation_date 2012-06-01
_audit_creation_method CSD-ConQuest-V1
_database_code_CSD MAXHIE
_database_code_depnum_ccdc_archive 'CCDC 760611'
_chemical_formula_sum 'C2 H12 N1 O9 P2 Pr1'
_chemical_formula_moiety
;
(C2 H6 O8 P2 Pr1 1-)n,n(H4 N1 1+),n(H2 O1)
;
_journal_coden_Cambridge 1147
_journal_volume 11
_journal_year 2011
_journal_page_first 5346
_journal_name_full 'Cryst.Growth Des. '
loop_
_publ_author_name
"Da-Peng Dong"
"Lei Liu"
"Zhen-Gang Sun"
"Cheng-Qi Jiao"
"Zhong-Min Liu"
"Chao Li"
"Yan-Yu Zhu"
"Kai Chen"
"Cheng-Lin Wang"
_chemical_name_systematic
;
catena-(ammonium (\m~4~-1-hydroxyethylidene-diphosphonato)-aqua-praseodymium 
monohydrate)
;
_cell_volume    967.097
_exptl_crystal_colour 'colorless'
_exptl_crystal_density_diffrn 2.726
_exptl_special_details
;
Absolute configuration

;
_exptl_crystal_description 'block'
_diffrn_ambient_temperature 293
#These two values have been output from a single CSD field.
_refine_ls_R_factor_gt 0.0436
_refine_ls_wR_factor_gt 0.0436
_symmetry_cell_setting orthorhombic
_symmetry_space_group_name_H-M 'P 21 21 21'
_symmetry_Int_Tables_number 19
loop_
_symmetry_equiv_pos_site_id
_symmetry_equiv_pos_as_xyz
1 x,y,z
2 1/2-x,-y,1/2+z
3 -x,1/2+y,1/2-z
4 1/2+x,1/2-y,-z
_cell_length_a 8.6544(16)
_cell_length_b 10.3809(18)
_cell_length_c 10.7646(19)
_cell_angle_alpha 90
_cell_angle_beta 90
_cell_angle_gamma 90
_cell_formula_units_Z 4
loop_
_atom_type_symbol
_atom_type_radius_bond
C 0.68
H 0.23
N 0.68
O 0.68
P 1.05
Pr 2.03
loop_
_atom_site_label
_atom_site_type_symbol
_atom_site_fract_x
_atom_site_fract_y
_atom_site_fract_z
Pr1 Pr -0.50720(9) 0.39847(4) -0.38654(4)
P1 P -0.3066(3) 0.5816(3) -0.1382(3)
P2 P -0.6576(3) 0.5857(3) -0.1075(3)
O1 O -0.3228(10) 0.4721(8) -0.2307(8)
O2 O -0.3291(10) 0.7153(8) -0.1974(7)
O3 O -0.1584(8) 0.5708(7) -0.0635(6)
O4 O -0.7805(9) 0.5448(7) -0.0156(6)
O5 O -0.6751(8) 0.7256(8) -0.1432(7)
O6 O -0.6546(10) 0.4971(9) -0.2208(9)
O7 O -0.4572(8) 0.6951(6) 0.0450(5)
H1 H -0.36900 0.69820 0.07870
O8 O -0.4669(9) 0.6434(5) -0.4167(5)
H2 H -0.45950 0.67920 -0.34630
H3 H -0.38460 0.65590 -0.45740
O9 O -0.2175(10) 0.2562(8) -0.0938(8)
H4 H -0.28830 0.27320 -0.14550
H5 H -0.17520 0.18520 -0.11290
N1 N -0.4304(12) 0.1514(8) -0.8044(8)
H6 H -0.35850 0.20860 -0.82800
H7 H -0.52060 0.17060 -0.84070
H8 H -0.40100 0.07180 -0.82710
H9 H -0.44140 0.15440 -0.72170
C1 C -0.4678(11) 0.5747(8) -0.0304(7)
C2 C -0.4594(12) 0.4575(8) 0.0549(8)
H10 H -0.35990 0.45450 0.09410
H11 H -0.47460 0.38060 0.00690
H12 H -0.53840 0.46370 0.11720
Pr1B Pr -0.49280(9) 0.89847(4) -0.11346(4)
Pr1A Pr -0.99280(9) 0.60153(4) 0.11346(4)
Pr1A* Pr 0.00720(9) 0.60153(4) 0.11346(4)
O2B O -0.6709(10) 0.2153(8) -0.3026(7)
O3A O -0.3416(8) 0.4292(7) -0.5635(6)
O4A O -0.7195(9) 0.4552(7) -0.5156(6)
O5B O -0.3249(8) 0.2256(8) -0.3568(7)
O7B O -0.5428(8) 0.1951(6) -0.5450(5)
H1B H -0.63100 0.19820 -0.57870
#END
