
#######################################################################
#
#                 Cambridge Crystallographic Data Centre
#                                CCDC
#
#######################################################################
#
# If this CIF has been generated from an entry in the Cambridge
# Structural Database, then it will include bibliographic, chemical,
# crystal, experimental, refinement or atomic coordinate data resulting
# from the CCDC's data processing and validation procedures.
#
#######################################################################

data_CSD_CIF_MAXLII
_audit_creation_date 2012-06-01
_audit_creation_method CSD-ConQuest-V1
_database_code_CSD MAXLII
_database_code_depnum_ccdc_archive 'CCDC 777237'
_chemical_formula_sum 'C48 H38 N8 O12.5 S4 Sm1'
_chemical_formula_moiety
;
(C48 H28 N8 O8 S4 Sm1 1-)n,n(H3 O1 1+),3.5n(H2 O1)
;
_journal_coden_Cambridge 155
_journal_volume 373
_journal_year 2011
_journal_page_first 270
_journal_name_full 'Inorg.Chim.Acta '
loop_
_publ_author_name
"Xiao-Juan Wang"
"Zhan-Guo Jiang"
"Jing Chen"
"Yun-Long Feng"
_chemical_name_systematic
;
catena-(oxonium 
bis(\m~2~-2,2'-disulfanediyldinicotinato)-bis(1,10-phenanthroline)-samarium 
hydrate)
;
_cell_volume   6277.749
_exptl_crystal_colour 'yellow'
_exptl_crystal_density_diffrn 1.274
_exptl_crystal_description 'block'
_diffrn_ambient_temperature 296
_refine_special_details
;
A water molecule is disordered.

;
#These two values have been output from a single CSD field.
_refine_ls_R_factor_gt 0.0686
_refine_ls_wR_factor_gt 0.0686
_symmetry_cell_setting monoclinic
_symmetry_space_group_name_H-M 'C 2/c'
_symmetry_Int_Tables_number 15
loop_
_symmetry_equiv_pos_site_id
_symmetry_equiv_pos_as_xyz
1 x,y,z
2 -x,y,1/2-z
3 1/2+x,1/2+y,z
4 1/2-x,1/2+y,1/2-z
5 -x,-y,-z
6 x,-y,-1/2+z
7 -1/2-x,-1/2-y,-z
8 -1/2+x,-1/2-y,-1/2+z
_cell_length_a 15.4249(9)
_cell_length_b 20.8456(9)
_cell_length_c 20.5195(15)
_cell_angle_alpha 90
_cell_angle_beta 107.921(5)
_cell_angle_gamma 90
_cell_formula_units_Z 4
loop_
_atom_type_symbol
_atom_type_radius_bond
C 0.68
H 0.23
N 0.68
O 0.68
S 1.02
Sm 1.98
loop_
_atom_site_label
_atom_site_type_symbol
_atom_site_fract_x
_atom_site_fract_y
_atom_site_fract_z
Sm1 Sm 0.00000 0.589170(19) 0.25000
S1 S 0.22205(14) 0.29624(10) 0.18037(10)
S2 S 0.20139(14) 0.39174(10) 0.17174(10)
N1 N 0.0492(4) 0.3446(3) 0.0812(3)
N2 N 0.2980(4) 0.3279(3) 0.0837(3)
N3 N -0.0878(4) 0.4810(3) 0.2083(3)
N4 N 0.0470(4) 0.6979(3) 0.2026(3)
O1 O 0.1762(5) 0.5249(3) 0.1420(4)
O2 O 0.0478(4) 0.5580(2) 0.1583(3)
O3 O 0.3608(4) 0.1200(3) 0.1762(3)
O4 O 0.2312(5) 0.1645(3) 0.1791(5)
C1 C 0.0889(6) 0.3977(4) 0.1120(4)
C2 C 0.0476(6) 0.4594(4) 0.1026(4)
C3 C -0.0417(6) 0.4623(4) 0.0587(4)
H1 H -0.07370 0.50080 0.05150
C4 C -0.0823(7) 0.4063(4) 0.0258(5)
H2 H -0.14150 0.40730 -0.00400
C5 C -0.0351(6) 0.3507(4) 0.0374(4)
H3 H -0.06270 0.31440 0.01350
C6 C 0.0934(6) 0.5175(3) 0.1364(4)
C7 C 0.2829(5) 0.2811(4) 0.1200(4)
C8 C 0.3156(5) 0.2186(4) 0.1164(4)
C9 C 0.3650(6) 0.2084(4) 0.0719(4)
H4 H 0.38970 0.16810 0.06940
C10 C 0.3777(6) 0.2547(6) 0.0329(4)
H5 H 0.40940 0.24790 0.00170
C11 C 0.3416(6) 0.3153(5) 0.0399(4)
H6 H 0.34930 0.34840 0.01170
C12 C 0.3006(6) 0.1644(4) 0.1592(5)
C13 C -0.0441(6) 0.4237(3) 0.2273(4)
C14 C -0.0871(8) 0.3644(4) 0.2031(6)
C15 C -0.1769(8) 0.3685(5) 0.1560(6)
H7 H -0.20700 0.33100 0.13730
C16 C -0.2182(8) 0.4238(5) 0.1383(6)
H8 H -0.27710 0.42540 0.10810
C17 C -0.1724(6) 0.4801(4) 0.1655(5)
H9 H -0.20260 0.51900 0.15320
C18 C -0.0377(7) 0.3058(4) 0.2303(7)
H10 H -0.06610 0.26660 0.21630
C19 C 0.0231(5) 0.7544(3) 0.2252(4)
C20 C 0.0437(6) 0.8141(3) 0.1996(4)
C21 C 0.0899(6) 0.8121(4) 0.1509(5)
H11 H 0.10380 0.85010 0.13250
C22 C 0.1153(6) 0.7536(5) 0.1296(5)
H12 H 0.14740 0.75180 0.09810
C23 C 0.0914(5) 0.6983(4) 0.1569(4)
H13 H 0.10750 0.65910 0.14230
C24 C 0.0190(8) 0.8726(4) 0.2276(5)
H14 H 0.03220 0.91170 0.21100
O5 O 0.4601(7) 0.2974(5) -0.1112(6)
H15 H 0.483(8) 0.316(7) -0.139(6)
H16 H 0.506(6) 0.279(7) -0.085(6)
O6 O -0.2484(9) 0.5380(5) -0.0421(6)
H17 H -0.208(7) 0.519(8) -0.054(7)
H18 H -0.293(6) 0.535(10) -0.077(5)
O7 O 0.172(2) 0.1352(17) 0.3074(17)
H19 H 0.16490 0.10270 0.27170
H20 H 0.21070 0.10820 0.32950
O8 O 0.618(2) 0.3474(13) -0.0154(11)
H21 H 0.67210 0.34690 0.02420
H22 H 0.60200 0.38940 -0.03590
O9 O -0.3885(14) 0.4795(14) -0.0100(15)
H23 H -0.43440 0.47240 -0.04480
H24 H -0.35880 0.51980 -0.01300
O10 O -0.419(3) 0.524(3) 0.098(3)
H25 H -0.38750 0.51580 0.06920
H26 H -0.44980 0.48010 0.09210
O11? O 0.731(3) 0.2755(16) -0.0308(18)
H27? H 0.77900 0.28010 0.00280
Sm1B Sm 0.50000 0.089170(19) 0.25000
Sm1B* Sm -0.50000 1.089170(19) 0.25000
S1B S -0.27795(14) 0.79624(10) 0.18037(10)
S2B S -0.29861(14) 0.89174(10) 0.17174(10)
N1B N -0.4508(4) 0.8446(3) 0.0812(3)
N2B N -0.2020(4) 0.8279(3) 0.0837(3)
N3A N 0.0878(4) 0.4810(3) 0.2917(3)
N4A N -0.0470(4) 0.6979(3) 0.2974(3)
O1B O -0.3238(5) 1.0249(3) 0.1420(4)
O2B O -0.4522(4) 1.0580(2) 0.1583(3)
O2A O -0.0478(4) 0.5580(2) 0.3417(3)
O3B O -0.1392(4) 0.6200(3) 0.1762(3)
O3C O 0.1392(4) 0.6200(3) 0.3238(3)
O4B O -0.2688(5) 0.6645(3) 0.1791(5)
C1B C -0.4111(6) 0.8977(4) 0.1120(4)
C2B C -0.4524(6) 0.9594(4) 0.1026(4)
C3B C -0.5417(6) 0.9623(4) 0.0587(4)
H1B H -0.57370 1.00080 0.05150
C4B C -0.5823(7) 0.9063(4) 0.0258(5)
H2B H -0.64150 0.90730 -0.00400
C5B C -0.5351(6) 0.8507(4) 0.0374(4)
H3B H -0.56270 0.81440 0.01350
C6B C -0.4066(6) 1.0175(3) 0.1364(4)
C7B C -0.2171(5) 0.7811(4) 0.1200(4)
C8B C -0.1844(5) 0.7186(4) 0.1164(4)
C9B C -0.1350(6) 0.7084(4) 0.0719(4)
H4B H -0.11030 0.66810 0.06940
C10B C -0.1223(6) 0.7547(6) 0.0329(4)
H5B H -0.09060 0.74790 0.00170
C11B C -0.1584(6) 0.8153(5) 0.0399(4)
H6B H -0.15070 0.84840 0.01170
C12B C -0.1994(6) 0.6644(4) 0.1592(5)
C13A C 0.0441(6) 0.4237(3) 0.2727(4)
C14A C 0.0871(8) 0.3644(4) 0.2969(6)
C15A C 0.1769(8) 0.3685(5) 0.3440(6)
H7A H 0.20700 0.33100 0.36270
C16A C 0.2182(8) 0.4238(5) 0.3617(6)
H8A H 0.27710 0.42540 0.39190
C17A C 0.1724(6) 0.4801(4) 0.3345(5)
H9A H 0.20260 0.51900 0.34680
C18A C 0.0377(7) 0.3058(4) 0.2697(7)
H10A H 0.06610 0.26660 0.28370
C19A C -0.0231(5) 0.7544(3) 0.2748(4)
C20A C -0.0437(6) 0.8141(3) 0.3004(4)
C21A C -0.0899(6) 0.8121(4) 0.3491(5)
H11A H -0.10380 0.85010 0.36750
C22A C -0.1153(6) 0.7536(5) 0.3704(5)
H12A H -0.14740 0.75180 0.40190
C23A C -0.0914(5) 0.6983(4) 0.3431(4)
H13A H -0.10750 0.65910 0.35770
C24A C -0.0190(8) 0.8726(4) 0.2724(5)
H14A H -0.03220 0.91170 0.28900
#END
