
#######################################################################
#
#                 Cambridge Crystallographic Data Centre
#                                CCDC
#
#######################################################################
#
# If this CIF has been generated from an entry in the Cambridge
# Structural Database, then it will include bibliographic, chemical,
# crystal, experimental, refinement or atomic coordinate data resulting
# from the CCDC's data processing and validation procedures.
#
#######################################################################

data_CSD_CIF_MAXLEE
_audit_creation_date 2012-06-01
_audit_creation_method CSD-ConQuest-V1
_database_code_CSD MAXLEE
_database_code_depnum_ccdc_archive 'CCDC 777236'
_chemical_formula_sum 'C48 H38 N8 Nd1 O12.5 S4'
_chemical_formula_moiety
;
(C48 H28 N8 Nd1 O8 S4 1-)n,n(H3 O1 1+),3.5n(H2 O1)
;
_journal_coden_Cambridge 155
_journal_volume 373
_journal_year 2011
_journal_page_first 270
_journal_name_full 'Inorg.Chim.Acta '
loop_
_publ_author_name
"Xiao-Juan Wang"
"Zhan-Guo Jiang"
"Jing Chen"
"Yun-Long Feng"
_chemical_name_systematic
;
catena-(oxonium 
bis(\m~2~-2,2'-disulfanediyldinicotinato)-bis(1,10-phenanthroline)-neodymium 
hydrate)
;
_cell_volume   6324.546
_exptl_crystal_colour 'yellow'
_exptl_crystal_density_diffrn 1.259
_exptl_crystal_description 'block'
_diffrn_ambient_temperature 296
_refine_special_details
;
A water molecule is disordered.

;
#These two values have been output from a single CSD field.
_refine_ls_R_factor_gt 0.0662
_refine_ls_wR_factor_gt 0.0662
_symmetry_cell_setting monoclinic
_symmetry_space_group_name_H-M 'C 2/c'
_symmetry_Int_Tables_number 15
loop_
_symmetry_equiv_pos_site_id
_symmetry_equiv_pos_as_xyz
1 x,y,z
2 -x,y,1/2-z
3 1/2+x,1/2+y,z
4 1/2-x,1/2+y,1/2-z
5 -x,-y,-z
6 x,-y,-1/2+z
7 -1/2-x,-1/2-y,-z
8 -1/2+x,-1/2-y,-1/2+z
_cell_length_a 15.618(4)
_cell_length_b 20.841(5)
_cell_length_c 20.455(8)
_cell_angle_alpha 90
_cell_angle_beta 108.21(2)
_cell_angle_gamma 90
_cell_formula_units_Z 4
loop_
_atom_type_symbol
_atom_type_radius_bond
C 0.68
H 0.23
N 0.68
Nd 2.01
O 0.68
S 1.02
loop_
_atom_site_label
_atom_site_type_symbol
_atom_site_fract_x
_atom_site_fract_y
_atom_site_fract_z
Nd1 Nd 0.00000 0.58817(2) 0.25000
S1 S 0.22227(13) 0.29570(9) 0.18093(10)
S2 S 0.20056(13) 0.39090(9) 0.17187(10)
N1 N 0.0503(4) 0.3428(3) 0.0826(3)
N2 N 0.2977(4) 0.3280(3) 0.0847(3)
N3 N -0.0867(3) 0.4786(3) 0.2083(3)
N4 N 0.0459(4) 0.6985(2) 0.2024(3)
O1 O 0.1750(4) 0.5240(3) 0.1402(4)
O2 O 0.0479(4) 0.5569(2) 0.1569(3)
O3 O 0.3598(3) 0.1190(3) 0.1759(3)
O4 O 0.2317(4) 0.1643(3) 0.1791(4)
C1 C 0.0890(5) 0.3956(4) 0.1121(4)
C2 C 0.0479(5) 0.4574(3) 0.1019(4)
C3 C -0.0413(5) 0.4605(4) 0.0574(4)
H1 H -0.07270 0.49920 0.04990
C4 C -0.0811(6) 0.4049(4) 0.0253(5)
H2 H -0.13950 0.40610 -0.00510
C5 C -0.0360(5) 0.3489(4) 0.0377(4)
H3 H -0.06440 0.31240 0.01480
C6 C 0.0937(5) 0.5162(4) 0.1363(4)
C7 C 0.2833(4) 0.2817(4) 0.1203(4)
C8 C 0.3151(5) 0.2175(3) 0.1167(4)
C9 C 0.3637(5) 0.2083(5) 0.0717(5)
H4 H 0.38730 0.16790 0.06830
C10 C 0.3776(6) 0.2562(5) 0.0328(5)
H5 H 0.40890 0.25020 0.00130
C11 C 0.3427(5) 0.3153(5) 0.0420(4)
H6 H 0.35200 0.34910 0.01540
C12 C 0.2996(6) 0.1636(4) 0.1596(5)
C13 C -0.0444(5) 0.4212(3) 0.2271(4)
C14 C -0.0862(6) 0.3612(4) 0.2036(5)
C15 C -0.1744(7) 0.3653(5) 0.1570(5)
H7 H -0.20480 0.32760 0.13970
C16 C -0.2168(6) 0.4223(5) 0.1365(6)
H8 H -0.27460 0.42390 0.10520
C17 C -0.1710(5) 0.4780(4) 0.1638(5)
H9 H -0.20000 0.51710 0.15060
C18 C -0.0397(6) 0.3032(4) 0.2294(6)
H10 H -0.06870 0.26420 0.21560
C19 C 0.0233(4) 0.7558(3) 0.2250(4)
C20 C 0.0428(5) 0.8143(3) 0.1995(4)
C21 C 0.0883(6) 0.8119(4) 0.1507(5)
H11 H 0.10300 0.84990 0.13290
C22 C 0.1118(6) 0.7542(5) 0.1287(5)
H12 H 0.14190 0.75250 0.09600
C23 C 0.0898(5) 0.6993(4) 0.1562(4)
H13 H 0.10650 0.66020 0.14180
C24 C 0.0198(7) 0.8733(3) 0.2267(5)
H14 H 0.03390 0.91220 0.21030
O5 O 0.4566(7) 0.2984(5) -0.1130(6)
H15 H 0.496(7) 0.295(7) -0.075(3)
H16 H 0.420(7) 0.323(6) -0.104(6)
O6 O -0.2471(7) 0.5386(5) -0.0420(5)
H17 H -0.210(7) 0.516(6) -0.053(6)
H18 H -0.290(6) 0.539(8) -0.079(4)
O7 O 0.191(2) 0.1312(16) 0.3087(15)
H19 H 0.18960 0.09100 0.27360
H20 H 0.22980 0.10420 0.33080
O8 O 0.6082(15) 0.3480(11) -0.0169(10)
H21 H 0.66190 0.34770 0.02300
H22 H 0.59210 0.39000 -0.03760
O9 O -0.3843(12) 0.4786(11) -0.0103(12)
H23 H -0.43020 0.47140 -0.04500
H24 H -0.35460 0.51880 -0.01320
O10 O -0.427(2) 0.5121(17) 0.1061(17)
H25 H -0.39480 0.50440 0.07680
H26 H -0.44160 0.47540 0.09430
O11? O 0.739(2) 0.2705(13) -0.0326(14)
H27? H 0.78660 0.27500 0.00110
Nd1B Nd 0.50000 0.08817(2) 0.25000
Nd1B* Nd -0.50000 0.08817(2) 0.25000
S1A S -0.22227(13) 0.29570(9) 0.31907(10)
S2A S -0.20056(13) 0.39090(9) 0.32813(10)
N1A N -0.0503(4) 0.3428(3) 0.4174(3)
N2A N -0.2977(4) 0.3280(3) 0.4153(3)
N3A N 0.0867(3) 0.4786(3) 0.2917(3)
N4A N -0.0459(4) 0.6985(2) 0.2976(3)
O1A O -0.1750(4) 0.5240(3) 0.3598(4)
O2A O -0.0479(4) 0.5569(2) 0.3431(3)
O3A O -0.3598(3) 0.1190(3) 0.3241(3)
O3B O -0.1402(3) 0.6190(3) 0.1759(3)
O3C O 0.1402(3) 0.6190(3) 0.3241(3)
O4A O -0.2317(4) 0.1643(3) 0.3209(4)
C1A C -0.0890(5) 0.3956(4) 0.3879(4)
C2A C -0.0479(5) 0.4574(3) 0.3981(4)
C3A C 0.0413(5) 0.4605(4) 0.4426(4)
H1A H 0.07270 0.49920 0.45010
C4A C 0.0811(6) 0.4049(4) 0.4747(5)
H2A H 0.13950 0.40610 0.50510
C5A C 0.0360(5) 0.3489(4) 0.4623(4)
H3A H 0.06440 0.31240 0.48520
C6A C -0.0937(5) 0.5162(4) 0.3637(4)
C7A C -0.2833(4) 0.2817(4) 0.3797(4)
C8A C -0.3151(5) 0.2175(3) 0.3833(4)
C9A C -0.3637(5) 0.2083(5) 0.4283(5)
H4A H -0.38730 0.16790 0.43170
C10A C -0.3776(6) 0.2562(5) 0.4672(5)
H5A H -0.40890 0.25020 0.49870
C11A C -0.3427(5) 0.3153(5) 0.4580(4)
H6A H -0.35200 0.34910 0.48460
C12A C -0.2996(6) 0.1636(4) 0.3404(5)
C13A C 0.0444(5) 0.4212(3) 0.2729(4)
C14A C 0.0862(6) 0.3612(4) 0.2964(5)
C15A C 0.1744(7) 0.3653(5) 0.3430(5)
H7A H 0.20480 0.32760 0.36030
C16A C 0.2168(6) 0.4223(5) 0.3635(6)
H8A H 0.27460 0.42390 0.39480
C17A C 0.1710(5) 0.4780(4) 0.3362(5)
H9A H 0.20000 0.51710 0.34940
C18A C 0.0397(6) 0.3032(4) 0.2706(6)
H10A H 0.06870 0.26420 0.28440
C19A C -0.0233(4) 0.7558(3) 0.2750(4)
C20A C -0.0428(5) 0.8143(3) 0.3005(4)
C21A C -0.0883(6) 0.8119(4) 0.3493(5)
H11A H -0.10300 0.84990 0.36710
C22A C -0.1118(6) 0.7542(5) 0.3713(5)
H12A H -0.14190 0.75250 0.40400
C23A C -0.0898(5) 0.6993(4) 0.3438(4)
H13A H -0.10650 0.66020 0.35820
C24A C -0.0198(7) 0.8733(3) 0.2733(5)
H14A H -0.03390 0.91220 0.28970
#END
