
#######################################################################
#
#                 Cambridge Crystallographic Data Centre
#                                CCDC
#
#######################################################################
#
# If this CIF has been generated from an entry in the Cambridge
# Structural Database, then it will include bibliographic, chemical,
# crystal, experimental, refinement or atomic coordinate data resulting
# from the CCDC's data processing and validation procedures.
#
#######################################################################

data_CSD_CIF_MAXLUU
_audit_creation_date 2012-06-01
_audit_creation_method CSD-ConQuest-V1
_database_code_CSD MAXLUU
_database_code_depnum_ccdc_archive 'CCDC 801234'
_chemical_formula_sum 'C48 H38 Eu1 N8 O12.5 S4'
_chemical_formula_moiety
;
(C48 H28 Eu1 N8 O8 S4 1-)n,n(H3 O1 1+),3.5n(H2 O1)
;
_journal_coden_Cambridge 155
_journal_volume 373
_journal_year 2011
_journal_page_first 270
_journal_name_full 'Inorg.Chim.Acta '
loop_
_publ_author_name
"Xiao-Juan Wang"
"Zhan-Guo Jiang"
"Jing Chen"
"Yun-Long Feng"
_chemical_name_systematic
;
catena-(oxonium 
bis(\m~2~-2,2'-disulfanediyldinicotinato)-bis(1,10-phenanthroline)-europium 
hydrate)
;
_cell_volume   6303.041
_exptl_crystal_colour 'yellow'
_exptl_crystal_density_diffrn 1.272
_exptl_crystal_description 'block'
_diffrn_ambient_temperature 296
_refine_special_details
;
O6W disordered by symmetry over two sites with occupancy 0.25.

;
#These two values have been output from a single CSD field.
_refine_ls_R_factor_gt 0.0503
_refine_ls_wR_factor_gt 0.0503
_symmetry_cell_setting monoclinic
_symmetry_space_group_name_H-M 'C 2/c'
_symmetry_Int_Tables_number 15
loop_
_symmetry_equiv_pos_site_id
_symmetry_equiv_pos_as_xyz
1 x,y,z
2 -x,y,1/2-z
3 1/2+x,1/2+y,z
4 1/2-x,1/2+y,1/2-z
5 -x,-y,-z
6 x,-y,-1/2+z
7 -1/2-x,-1/2-y,-z
8 -1/2+x,-1/2-y,-1/2+z
_cell_length_a 15.5097(13)
_cell_length_b 20.7884(13)
_cell_length_c 20.520(2)
_cell_angle_alpha 90
_cell_angle_beta 107.696(5)
_cell_angle_gamma 90
_cell_formula_units_Z 4
loop_
_atom_type_symbol
_atom_type_radius_bond
C 0.68
H 0.23
Eu 1.98
N 0.68
O 0.68
S 1.02
loop_
_atom_site_label
_atom_site_type_symbol
_atom_site_fract_x
_atom_site_fract_y
_atom_site_fract_z
Eu1 Eu 0.00000 0.588249(12) 0.25000
S1 S -0.22230(9) 0.29547(7) 0.31909(6)
S2 S -0.20028(9) 0.39125(7) 0.32830(7)
N1 N -0.0492(3) 0.3434(2) 0.4176(2)
N2 N -0.2966(3) 0.3276(2) 0.4166(2)
N3 N 0.0878(3) 0.48024(19) 0.2918(2)
N4 N -0.0452(3) 0.69686(18) 0.2977(2)
O1 O -0.1736(3) 0.5251(2) 0.3605(3)
O2 O -0.0467(3) 0.55699(17) 0.3415(2)
O3 O -0.3629(3) 0.11973(19) 0.3229(2)
O4 O -0.2328(3) 0.1631(3) 0.3207(4)
C1 C -0.0884(4) 0.3968(3) 0.3878(3)
C2 C -0.0467(3) 0.4581(2) 0.3982(2)
C3 C 0.0414(4) 0.4608(3) 0.4415(3)
H1 H 0.07290 0.49950 0.44860
C4 C 0.0821(5) 0.4049(3) 0.4742(3)
H2 H 0.14040 0.40600 0.50460
C5 C 0.0356(4) 0.3489(3) 0.4611(3)
H3 H 0.06370 0.31210 0.48330
C6 C -0.0932(4) 0.5171(3) 0.3637(3)
C7 C -0.2830(3) 0.2804(2) 0.3797(2)
C8 C -0.3166(3) 0.2173(3) 0.3825(3)
C9 C -0.3658(4) 0.2084(3) 0.4279(3)
H4 H -0.39070 0.16820 0.43090
C10 C -0.3782(4) 0.2564(4) 0.4675(3)
H5 H -0.40980 0.25030 0.49900
C11 C -0.3422(4) 0.3153(3) 0.4597(3)
H6 H -0.35070 0.34900 0.48690
C12 C -0.3022(4) 0.1629(3) 0.3398(3)
C13 C 0.0450(4) 0.4226(2) 0.2730(3)
C14 C 0.0876(5) 0.3633(3) 0.2971(3)
C15 C 0.1747(5) 0.3651(4) 0.3421(4)
H7 H 0.20430 0.32700 0.35930
C16 C 0.2168(5) 0.4222(4) 0.3609(5)
H8 H 0.27500 0.42380 0.39140
C17 C 0.1710(4) 0.4789(3) 0.3336(3)
H9 H 0.20120 0.51790 0.34580
C18 C 0.0395(5) 0.3039(3) 0.2714(5)
H10 H 0.06740 0.26480 0.28670
C19 C -0.0232(3) 0.7540(2) 0.2753(2)
C20 C -0.0442(4) 0.8128(2) 0.3007(3)
C21 C -0.0884(4) 0.8115(3) 0.3494(3)
H11 H -0.10170 0.84970 0.36780
C22 C -0.1131(4) 0.7535(3) 0.3711(3)
H12 H -0.14460 0.75190 0.40310
C23 C -0.0898(4) 0.6977(3) 0.3438(3)
H13 H -0.10630 0.65850 0.35840
C24 C -0.0195(6) 0.8719(3) 0.2736(4)
H14 H -0.03210 0.91100 0.29070
O5 O 0.4575(5) 0.2995(4) -0.1126(4)
H15 H 0.49820 0.29820 -0.07400
H16 H 0.41950 0.32630 -0.10620
H17 H 0.42960 0.26450 -0.12600
O6 O -0.2464(6) 0.5385(4) -0.0416(4)
H18 H -0.20760 0.51580 -0.05230
H19 H -0.29000 0.53850 -0.07900
O7 O 0.1905(14) 0.0938(8) 0.2825(10)
H20 H 0.16930 0.08520 0.31520
H21 H 0.23000 0.12260 0.28410
O8 O 0.6092(11) 0.3487(9) -0.0120(7)
H22 H 0.65620 0.34850 0.02280
H23 H 0.59500 0.38550 -0.03020
O9 O -0.3869(10) 0.4793(11) -0.0121(11)
H24 H -0.43280 0.47210 -0.04690
H25 H -0.36090 0.51460 -0.01470
O10 O -0.4285(18) 0.509(2) 0.0996(18)
H26 H -0.39410 0.51160 0.07480
H27 H -0.45210 0.47190 0.09420
O11? O 0.736(2) 0.2742(18) -0.0326(14)
H28? H 0.78380 0.27870 0.00110
H29? H 0.70940 0.30160 -0.06300
Eu1B Eu -0.50000 0.088249(12) 0.25000
Eu1B* Eu 0.50000 0.088249(12) 0.25000
S1A S 0.22230(9) 0.29547(7) 0.18091(6)
S2A S 0.20028(9) 0.39125(7) 0.17170(7)
N1A N 0.0492(3) 0.3434(2) 0.0824(2)
N2A N 0.2966(3) 0.3276(2) 0.0834(2)
N3A N -0.0878(3) 0.48024(19) 0.2082(2)
N4A N 0.0452(3) 0.69686(18) 0.2023(2)
O1A O 0.1736(3) 0.5251(2) 0.1395(3)
O2A O 0.0467(3) 0.55699(17) 0.1585(2)
O3A O 0.3629(3) 0.11973(19) 0.1771(2)
O3B O 0.1371(3) 0.61973(19) 0.3229(2)
O3C O -0.1371(3) 0.61973(19) 0.1771(2)
O4A O 0.2328(3) 0.1631(3) 0.1793(4)
C1A C 0.0884(4) 0.3968(3) 0.1122(3)
C2A C 0.0467(3) 0.4581(2) 0.1018(2)
C3A C -0.0414(4) 0.4608(3) 0.0585(3)
H1A H -0.07290 0.49950 0.05140
C4A C -0.0821(5) 0.4049(3) 0.0258(3)
H2A H -0.14040 0.40600 -0.00460
C5A C -0.0356(4) 0.3489(3) 0.0389(3)
H3A H -0.06370 0.31210 0.01670
C6A C 0.0932(4) 0.5171(3) 0.1363(3)
C7A C 0.2830(3) 0.2804(2) 0.1203(2)
C8A C 0.3166(3) 0.2173(3) 0.1175(3)
C9A C 0.3658(4) 0.2084(3) 0.0721(3)
H4A H 0.39070 0.16820 0.06910
C10A C 0.3782(4) 0.2564(4) 0.0325(3)
H5A H 0.40980 0.25030 0.00100
C11A C 0.3422(4) 0.3153(3) 0.0403(3)
H6A H 0.35070 0.34900 0.01310
C12A C 0.3022(4) 0.1629(3) 0.1602(3)
C13A C -0.0450(4) 0.4226(2) 0.2270(3)
C14A C -0.0876(5) 0.3633(3) 0.2029(3)
C15A C -0.1747(5) 0.3651(4) 0.1579(4)
H7A H -0.20430 0.32700 0.14070
C16A C -0.2168(5) 0.4222(4) 0.1391(5)
H8A H -0.27500 0.42380 0.10860
C17A C -0.1710(4) 0.4789(3) 0.1664(3)
H9A H -0.20120 0.51790 0.15420
C18A C -0.0395(5) 0.3039(3) 0.2286(5)
H10A H -0.06740 0.26480 0.21330
C19A C 0.0232(3) 0.7540(2) 0.2247(2)
C20A C 0.0442(4) 0.8128(2) 0.1993(3)
C21A C 0.0884(4) 0.8115(3) 0.1506(3)
H11A H 0.10170 0.84970 0.13220
C22A C 0.1131(4) 0.7535(3) 0.1289(3)
H12A H 0.14460 0.75190 0.09690
C23A C 0.0898(4) 0.6977(3) 0.1562(3)
H13A H 0.10630 0.65850 0.14160
C24A C 0.0195(6) 0.8719(3) 0.2264(4)
H14A H 0.03210 0.91100 0.20930
#END
