
#######################################################################
#
#                 Cambridge Crystallographic Data Centre
#                                CCDC
#
#######################################################################
#
# If this CIF has been generated from an entry in the Cambridge
# Structural Database, then it will include bibliographic, chemical,
# crystal, experimental, refinement or atomic coordinate data resulting
# from the CCDC's data processing and validation procedures.
#
#######################################################################

data_CSD_CIF_MAXLOO
_audit_creation_date 2012-06-01
_audit_creation_method CSD-ConQuest-V1
_database_code_CSD MAXLOO
_database_code_depnum_ccdc_archive 'CCDC 801233'
_chemical_formula_sum 'C48 H38 Dy1 N8 O12.5 S4'
_chemical_formula_moiety
;
(C48 H28 Dy1 N8 O8 S4 1-)n,n(H3 O1 1+),3.5n(H2 O1)
;
_journal_coden_Cambridge 155
_journal_volume 373
_journal_year 2011
_journal_page_first 270
_journal_name_full 'Inorg.Chim.Acta '
loop_
_publ_author_name
"Xiao-Juan Wang"
"Zhan-Guo Jiang"
"Jing Chen"
"Yun-Long Feng"
_chemical_name_systematic
;
catena-(oxonium 
bis(\m~2~-2,2'-disulfanediyldinicotinato)-bis(1,10-phenanthroline)-dysprosium 
hydrate)
;
_cell_volume   6277.160
_exptl_crystal_colour 'yellow'
_exptl_crystal_density_diffrn 1.288
_exptl_crystal_description 'block'
_diffrn_ambient_temperature 296
_refine_special_details
;
O6W disordered by symmetry over two sites with occupancy 0.25.

;
#These two values have been output from a single CSD field.
_refine_ls_R_factor_gt 0.0617
_refine_ls_wR_factor_gt 0.0617
_symmetry_cell_setting monoclinic
_symmetry_space_group_name_H-M 'C 2/c'
_symmetry_Int_Tables_number 15
loop_
_symmetry_equiv_pos_site_id
_symmetry_equiv_pos_as_xyz
1 x,y,z
2 -x,y,1/2-z
3 1/2+x,1/2+y,z
4 1/2-x,1/2+y,1/2-z
5 -x,-y,-z
6 x,-y,-1/2+z
7 -1/2-x,-1/2-y,-z
8 -1/2+x,-1/2-y,-1/2+z
_cell_length_a 15.4348(7)
_cell_length_b 20.7072(7)
_cell_length_c 20.5941(11)
_cell_angle_alpha 90
_cell_angle_beta 107.509(3)
_cell_angle_gamma 90
_cell_formula_units_Z 4
loop_
_atom_type_symbol
_atom_type_radius_bond
C 0.68
H 0.23
Dy 1.92
N 0.68
O 0.68
S 1.02
loop_
_atom_site_label
_atom_site_type_symbol
_atom_site_fract_x
_atom_site_fract_y
_atom_site_fract_z
Dy1 Dy 0.00000 0.588783(16) 0.25000
S1 S -0.22260(13) 0.29567(9) 0.31981(9)
S2 S -0.20051(13) 0.39162(10) 0.32872(9)
N1 N -0.0493(4) 0.3442(3) 0.4184(3)
N2 N -0.2967(4) 0.3277(3) 0.4172(3)
N3 N 0.0884(4) 0.4829(3) 0.2913(3)
N4 N -0.0451(4) 0.6958(2) 0.2976(3)
O1 O -0.1736(4) 0.5261(3) 0.3593(4)
O2 O -0.0467(3) 0.5572(2) 0.3395(3)
O3 O -0.3658(3) 0.1203(2) 0.3227(3)
O4 O -0.2342(4) 0.1632(3) 0.3197(4)
C1 C -0.0883(5) 0.3975(4) 0.3880(4)
C2 C -0.0466(5) 0.4594(3) 0.3972(3)
C3 C 0.0405(5) 0.4617(4) 0.4404(4)
H1 H 0.07260 0.50040 0.44730
C4 C 0.0807(7) 0.4055(4) 0.4740(5)
H2 H 0.13900 0.40680 0.50450
C5 C 0.0344(6) 0.3502(4) 0.4618(4)
H3 H 0.06210 0.31350 0.48490
C6 C -0.0926(5) 0.5170(3) 0.3626(4)
C7 C -0.2836(4) 0.2801(3) 0.3809(3)
C8 C -0.3183(5) 0.2178(3) 0.3832(3)
C9 C -0.3680(5) 0.2082(4) 0.4274(4)
H4 H -0.39470 0.16820 0.42910
C10 C -0.3782(6) 0.2547(5) 0.4672(4)
H5 H -0.40960 0.24800 0.49880
C11 C -0.3402(5) 0.3149(4) 0.4608(4)
H6 H -0.34650 0.34790 0.48970
C12 C -0.3040(6) 0.1632(4) 0.3402(5)
C13 C 0.0453(5) 0.4250(3) 0.2727(4)
C14 C 0.0883(7) 0.3659(4) 0.2971(5)
C15 C 0.1773(7) 0.3684(5) 0.3423(5)
H7 H 0.20780 0.33060 0.36000
C16 C 0.2166(7) 0.4246(5) 0.3593(6)
H8 H 0.27500 0.42660 0.38960
C17 C 0.1716(5) 0.4819(4) 0.3321(5)
H9 H 0.20230 0.52090 0.34360
C18 C 0.0377(7) 0.3061(4) 0.2700(7)
H10 H 0.06530 0.26660 0.28460
C19 C -0.0236(4) 0.7527(3) 0.2753(3)
C20 C -0.0434(5) 0.8119(3) 0.3000(4)
C21 C -0.0880(6) 0.8114(4) 0.3475(4)
H11 H -0.10160 0.85020 0.36500
C22 C -0.1144(6) 0.7517(4) 0.3707(4)
H12 H -0.14630 0.75050 0.40250
C23 C -0.0901(5) 0.6956(4) 0.3438(4)
H13 H -0.10580 0.65610 0.35860
C24 C -0.0207(8) 0.8709(4) 0.2731(5)
H14 H -0.03580 0.91000 0.28910
O5 O 0.4607(7) 0.2996(5) -0.1143(5)
H15 H 0.50130 0.29830 -0.07580
H16 H 0.42250 0.32650 -0.10790
H17 H 0.43270 0.26440 -0.12780
O6 O -0.2450(8) 0.5384(5) -0.0408(5)
H18 H -0.20610 0.51570 -0.05150
H19 H -0.28860 0.53840 -0.07820
O7 O 0.1875(16) 0.0929(9) 0.2798(11)
H20 H 0.16630 0.08420 0.31240
H21 H 0.22430 0.12440 0.28490
O8 O 0.6146(19) 0.3489(14) -0.0133(10)
H22 H 0.66170 0.34860 0.02160
H23 H 0.60050 0.38560 -0.03150
O9 O -0.3894(14) 0.4812(14) -0.0108(13)
H24 H -0.43530 0.47410 -0.04560
H25 H -0.36340 0.51650 -0.01350
O10 O -0.422(3) 0.513(3) 0.085(3)
H26 H -0.38730 0.51530 0.06030
H27 H -0.44540 0.47570 0.07970
O11? O 0.732(3) 0.283(3) -0.0274(15)
H28? H 0.77940 0.28780 0.00630
H29? H 0.70510 0.31070 -0.05780
Dy1B Dy -0.50000 0.088783(16) 0.25000
Dy1B* Dy 0.50000 0.088783(16) 0.25000
S1A S 0.22260(13) 0.29567(9) 0.18019(9)
S2A S 0.20051(13) 0.39162(10) 0.17128(9)
N1A N 0.0493(4) 0.3442(3) 0.0816(3)
N2A N 0.2967(4) 0.3277(3) 0.0828(3)
N3A N -0.0884(4) 0.4829(3) 0.2087(3)
N4A N 0.0451(4) 0.6958(2) 0.2024(3)
O1A O 0.1736(4) 0.5261(3) 0.1407(4)
O2A O 0.0467(3) 0.5572(2) 0.1605(3)
O3A O 0.3658(3) 0.1203(2) 0.1773(3)
O3B O 0.1342(3) 0.6203(2) 0.3227(3)
O3C O -0.1342(3) 0.6203(2) 0.1773(3)
O4A O 0.2342(4) 0.1632(3) 0.1803(4)
C1A C 0.0883(5) 0.3975(4) 0.1120(4)
C2A C 0.0466(5) 0.4594(3) 0.1028(3)
C3A C -0.0405(5) 0.4617(4) 0.0596(4)
H1A H -0.07260 0.50040 0.05270
C4A C -0.0807(7) 0.4055(4) 0.0260(5)
H2A H -0.13900 0.40680 -0.00450
C5A C -0.0344(6) 0.3502(4) 0.0382(4)
H3A H -0.06210 0.31350 0.01510
C6A C 0.0926(5) 0.5170(3) 0.1374(4)
C7A C 0.2836(4) 0.2801(3) 0.1191(3)
C8A C 0.3183(5) 0.2178(3) 0.1168(3)
C9A C 0.3680(5) 0.2082(4) 0.0726(4)
H4A H 0.39470 0.16820 0.07090
C10A C 0.3782(6) 0.2547(5) 0.0328(4)
H5A H 0.40960 0.24800 0.00120
C11A C 0.3402(5) 0.3149(4) 0.0392(4)
H6A H 0.34650 0.34790 0.01030
C12A C 0.3040(6) 0.1632(4) 0.1598(5)
C13A C -0.0453(5) 0.4250(3) 0.2273(4)
C14A C -0.0883(7) 0.3659(4) 0.2029(5)
C15A C -0.1773(7) 0.3684(5) 0.1577(5)
H7A H -0.20780 0.33060 0.14000
C16A C -0.2166(7) 0.4246(5) 0.1407(6)
H8A H -0.27500 0.42660 0.11040
C17A C -0.1716(5) 0.4819(4) 0.1679(5)
H9A H -0.20230 0.52090 0.15640
C18A C -0.0377(7) 0.3061(4) 0.2300(7)
H10A H -0.06530 0.26660 0.21540
C19A C 0.0236(4) 0.7527(3) 0.2247(3)
C20A C 0.0434(5) 0.8119(3) 0.2000(4)
C21A C 0.0880(6) 0.8114(4) 0.1525(4)
H11A H 0.10160 0.85020 0.13500
C22A C 0.1144(6) 0.7517(4) 0.1293(4)
H12A H 0.14630 0.75050 0.09750
C23A C 0.0901(5) 0.6956(4) 0.1562(4)
H13A H 0.10580 0.65610 0.14140
C24A C 0.0207(8) 0.8709(4) 0.2269(5)
H14A H 0.03580 0.91000 0.21090
#END
