
#######################################################################
#
#                 Cambridge Crystallographic Data Centre
#                                CCDC
#
#######################################################################
#
# If this CIF has been generated from an entry in the Cambridge
# Structural Database, then it will include bibliographic, chemical,
# crystal, experimental, refinement or atomic coordinate data resulting
# from the CCDC's data processing and validation procedures.
#
#######################################################################

data_CSD_CIF_MAXMAB
_audit_creation_date 2012-06-01
_audit_creation_method CSD-ConQuest-V1
_database_code_CSD MAXMAB
_database_code_depnum_ccdc_archive 'CCDC 801235'
_chemical_formula_sum 'C48 H38 N8 O12.5 S4 Tb1'
_chemical_formula_moiety
;
(C48 H28 N8 O8 S4 Tb1 1-)n,n(H3 O1 1+),3.5n(H2 O1)
;
_journal_coden_Cambridge 155
_journal_volume 373
_journal_year 2011
_journal_page_first 270
_journal_name_full 'Inorg.Chim.Acta '
loop_
_publ_author_name
"Xiao-Juan Wang"
"Zhan-Guo Jiang"
"Jing Chen"
"Yun-Long Feng"
_chemical_name_systematic
;
catena-(oxonium 
bis(\m~2~-2,2'-disulfanediyldinicotinato)-bis(1,10-phenanthroline)-terbium 
hydrate)
;
_cell_volume   6293.215
_exptl_crystal_colour 'yellow'
_exptl_crystal_density_diffrn 1.281
_exptl_crystal_description 'block'
_diffrn_ambient_temperature 296
_refine_special_details
;
O6W disordered by symmetry over two sites with occupancy 0.25.

;
#These two values have been output from a single CSD field.
_refine_ls_R_factor_gt 0.103
_refine_ls_wR_factor_gt 0.103
_symmetry_cell_setting monoclinic
_symmetry_space_group_name_H-M 'C 2/c'
_symmetry_Int_Tables_number 15
loop_
_symmetry_equiv_pos_site_id
_symmetry_equiv_pos_as_xyz
1 x,y,z
2 -x,y,1/2-z
3 1/2+x,1/2+y,z
4 1/2-x,1/2+y,1/2-z
5 -x,-y,-z
6 x,-y,-1/2+z
7 -1/2-x,-1/2-y,-z
8 -1/2+x,-1/2-y,-1/2+z
_cell_length_a 15.4639(6)
_cell_length_b 20.7895(6)
_cell_length_c 20.5303(7)
_cell_angle_alpha 90
_cell_angle_beta 107.544(3)
_cell_angle_gamma 90
_cell_formula_units_Z 4
loop_
_atom_type_symbol
_atom_type_radius_bond
C 0.68
H 0.23
N 0.68
O 0.68
S 1.02
Tb 1.94
loop_
_atom_site_label
_atom_site_type_symbol
_atom_site_fract_x
_atom_site_fract_y
_atom_site_fract_z
Tb1 Tb 0.00000 0.58849(3) 0.25000
S1 S -0.2222(2) 0.29545(16) 0.32072(18)
S2 S -0.2010(2) 0.39137(17) 0.32887(19)
N1 N -0.0490(8) 0.3446(5) 0.4196(6)
N2 N -0.2980(8) 0.3280(6) 0.4173(6)
N3 N 0.0870(7) 0.4822(5) 0.2897(6)
N4 N -0.0467(6) 0.6957(4) 0.2987(5)
O1 O -0.1737(8) 0.5248(5) 0.3590(7)
O2 O -0.0486(7) 0.5575(4) 0.3402(5)
O3 O -0.3644(6) 0.1196(4) 0.3247(6)
O4 O -0.2354(8) 0.1647(5) 0.3181(8)
C1 C -0.0887(9) 0.3981(6) 0.3893(7)
C2 C -0.0479(8) 0.4593(6) 0.3974(6)
C3 C 0.0409(9) 0.4608(6) 0.4411(7)
H1 H 0.07330 0.49920 0.44740
C4 C 0.0811(11) 0.4063(7) 0.4748(8)
H2 H 0.13930 0.40800 0.50540
C5 C 0.0354(11) 0.3505(7) 0.4629(8)
H3 H 0.06350 0.31400 0.48590
C6 C -0.0929(9) 0.5172(6) 0.3617(8)
C7 C -0.2828(8) 0.2799(6) 0.3817(7)
C8 C -0.3194(9) 0.2179(6) 0.3855(7)
C9 C -0.3669(9) 0.2080(7) 0.4288(8)
H4 H -0.39190 0.16770 0.43110
C10 C -0.3794(11) 0.2565(11) 0.4700(8)
H5 H -0.41110 0.25090 0.50150
C11 C -0.3411(9) 0.3145(8) 0.4608(8)
H6 H -0.34680 0.34790 0.48940
C12 C -0.3055(9) 0.1614(6) 0.3417(9)
C13 C 0.0458(10) 0.4251(6) 0.2735(8)
C14 C 0.0873(13) 0.3663(6) 0.2964(9)
C15 C 0.1799(12) 0.3703(7) 0.3463(9)
H7 H 0.20920 0.33320 0.36720
C16 C 0.2188(11) 0.4251(8) 0.3602(11)
H8 H 0.27880 0.42710 0.38750
C17 C 0.1713(9) 0.4832(7) 0.3345(8)
H9 H 0.19920 0.52250 0.34890
C18 C 0.0361(12) 0.3066(7) 0.2695(12)
H10 H 0.06320 0.26720 0.28470
C19 C -0.0240(7) 0.7532(5) 0.2743(6)
C20 C -0.0426(9) 0.8127(5) 0.2994(7)
C21 C -0.0891(11) 0.8097(7) 0.3456(8)
H11 H -0.10510 0.84820 0.36190
C22 C -0.1146(10) 0.7518(8) 0.3705(9)
H12 H -0.14620 0.75110 0.40250
C23 C -0.0894(9) 0.6962(7) 0.3440(8)
H13 H -0.10390 0.65690 0.35970
C24 C -0.0174(14) 0.8712(5) 0.2737(8)
H14 H -0.02710 0.91010 0.29270
O5 O 0.4609(13) 0.3005(9) -0.1119(11)
H15 H 0.50120 0.29710 -0.07300
H16 H 0.42350 0.32590 -0.10290
H17 H 0.43560 0.26420 -0.12260
O6 O -0.2438(13) 0.5375(9) -0.0401(9)
H18 H -0.20490 0.51470 -0.05080
H19 H -0.28740 0.53750 -0.07750
O7 O 0.1885(18) 0.0947(16) 0.276(2)
H20 H 0.18890 0.06440 0.24830
H21 H 0.16530 0.12400 0.29350
O8 O 0.632(6) 0.344(3) -0.018(2)
H22 H 0.67920 0.34420 0.01650
H23 H 0.61800 0.38120 -0.03660
O9 O -0.391(3) 0.479(3) -0.009(3)
H24 H -0.43650 0.47160 -0.04370
H25 H -0.36460 0.51410 -0.01150
O10 O -0.407(4) 0.512(5) 0.078(4)
H26 H -0.37660 0.51770 0.11930
H27 H -0.43020 0.47470 0.07220
O11? O 0.720(3) 0.282(2) -0.021(2)
H28? H 0.76810 0.28690 0.01240
H29? H 0.69380 0.30980 -0.05170
Tb1B Tb -0.50000 0.08849(3) 0.25000
Tb1B* Tb 0.50000 0.08849(3) 0.25000
S1A S 0.2222(2) 0.29545(16) 0.17928(18)
S2A S 0.2010(2) 0.39137(17) 0.17113(19)
N1A N 0.0490(8) 0.3446(5) 0.0804(6)
N2A N 0.2980(8) 0.3280(6) 0.0827(6)
N3A N -0.0870(7) 0.4822(5) 0.2103(6)
N4A N 0.0467(6) 0.6957(4) 0.2013(5)
O1A O 0.1737(8) 0.5248(5) 0.1410(7)
O2A O 0.0486(7) 0.5575(4) 0.1598(5)
O3A O 0.3644(6) 0.1196(4) 0.1753(6)
O3B O 0.1356(6) 0.6196(4) 0.3247(6)
O3C O -0.1356(6) 0.6196(4) 0.1753(6)
O4A O 0.2354(8) 0.1647(5) 0.1819(8)
C1A C 0.0887(9) 0.3981(6) 0.1107(7)
C2A C 0.0479(8) 0.4593(6) 0.1026(6)
C3A C -0.0409(9) 0.4608(6) 0.0589(7)
H1A H -0.07330 0.49920 0.05260
C4A C -0.0811(11) 0.4063(7) 0.0252(8)
H2A H -0.13930 0.40800 -0.00540
C5A C -0.0354(11) 0.3505(7) 0.0371(8)
H3A H -0.06350 0.31400 0.01410
C6A C 0.0929(9) 0.5172(6) 0.1383(8)
C7A C 0.2828(8) 0.2799(6) 0.1183(7)
C8A C 0.3194(9) 0.2179(6) 0.1145(7)
C9A C 0.3669(9) 0.2080(7) 0.0712(8)
H4A H 0.39190 0.16770 0.06890
C10A C 0.3794(11) 0.2565(11) 0.0300(8)
H5A H 0.41110 0.25090 -0.00150
C11A C 0.3411(9) 0.3145(8) 0.0392(8)
H6A H 0.34680 0.34790 0.01060
C12A C 0.3055(9) 0.1614(6) 0.1583(9)
C13A C -0.0458(10) 0.4251(6) 0.2265(8)
C14A C -0.0873(13) 0.3663(6) 0.2036(9)
C15A C -0.1799(12) 0.3703(7) 0.1537(9)
H7A H -0.20920 0.33320 0.13280
C16A C -0.2188(11) 0.4251(8) 0.1398(11)
H8A H -0.27880 0.42710 0.11250
C17A C -0.1713(9) 0.4832(7) 0.1655(8)
H9A H -0.19920 0.52250 0.15110
C18A C -0.0361(12) 0.3066(7) 0.2305(12)
H10A H -0.06320 0.26720 0.21530
C19A C 0.0240(7) 0.7532(5) 0.2257(6)
C20A C 0.0426(9) 0.8127(5) 0.2006(7)
C21A C 0.0891(11) 0.8097(7) 0.1544(8)
H11A H 0.10510 0.84820 0.13810
C22A C 0.1146(10) 0.7518(8) 0.1295(9)
H12A H 0.14620 0.75110 0.09750
C23A C 0.0894(9) 0.6962(7) 0.1560(8)
H13A H 0.10390 0.65690 0.14030
C24A C 0.0174(14) 0.8712(5) 0.2263(8)
H14A H 0.02710 0.91010 0.20730
#END
