
#######################################################################
#
#                 Cambridge Crystallographic Data Centre
#                                CCDC
#
#######################################################################
#
# If this CIF has been generated from an entry in the Cambridge
# Structural Database, then it will include bibliographic, chemical,
# crystal, experimental, refinement or atomic coordinate data resulting
# from the CCDC's data processing and validation procedures.
#
#######################################################################

data_CSD_CIF_MAYFUN
_audit_creation_date 2000-10-02
_audit_creation_method CSD-ConQuest-V1
_database_code_CSD MAYFUN
_database_code_depnum_ccdc_archive 'CCDC 144889; CCDC 391076'
_database_code_depnum_ccdc_fiz 'CSD 391076'
_chemical_formula_sum 'C9 H28 Fe4 N2 O34 P4'
_chemical_formula_moiety
;
(C3 H12 N2 2+)n,n(C6 H4 Fe4 O28 P4 2-),6n(H2 O1)
;
_journal_coden_Cambridge 1220
_journal_volume 6
_journal_year 2000
_journal_page_first 1168
_journal_name_full 'Chem.-Eur.J. '
loop_
_publ_author_name
"A.Choudhury"
"S.Natarajan"
"C.N.R.Rao"
_chemical_name_systematic
;
catena-[(1,3-Diammoniopropane) 
(tetrakis(\m~3~-orthophosphato)-tris(\m~2~-oxalato)-tetra-iron) hexahydrate]
;
_cell_volume   1650.919
_exptl_crystal_density_diffrn 2.152
_exptl_crystal_description 'plate'
_diffrn_ambient_temperature ?
_diffrn_special_details
;
The study was carried out at room temperature,in the range 283-303K

;
_refine_special_details
;
Amine C11 is disordered equally over two sites.

;
#These two values have been output from a single CSD field.
_refine_ls_R_factor_gt 0.0587
_refine_ls_wR_factor_gt 0.0587
_symmetry_cell_setting monoclinic
_symmetry_space_group_name_H-M 'P 21/n'
_symmetry_Int_Tables_number 14
loop_
_symmetry_equiv_pos_site_id
_symmetry_equiv_pos_as_xyz
1 x,y,z
2 1/2-x,1/2+y,1/2-z
3 -x,-y,-z
4 -1/2+x,-1/2-y,-1/2+z
_cell_length_a 9.2137(9)
_cell_length_b 15.2014(15)
_cell_length_c 12.0457(11)
_cell_angle_alpha 90
_cell_angle_beta 101.893(2)
_cell_angle_gamma 90
_cell_formula_units_Z 2
loop_
_atom_type_symbol
_atom_type_radius_bond
C 0.68
H 0.23
Fe 1.34
N 0.68
O 0.68
P 1.05
loop_
_atom_site_label
_atom_site_type_symbol
_atom_site_fract_x
_atom_site_fract_y
_atom_site_fract_z
P1 P 0.8945(2) 0.1073(2) 0.8908(2)
P2 P 0.4488(2) 0.0030(2) 0.8167(2)
O1 O 0.5195(7) 0.0829(4) 0.7747(5)
O2 O 0.8243(6) 0.1005(4) 0.7643(5)
O3 O 0.6001(7) 0.2432(4) 0.6906(5)
O4 O 0.6675(6) -0.0074(4) 0.5978(5)
O5 O 0.7383(6) 0.1693(4) 0.5436(5)
O6 O 0.4441(6) 0.1046(4) 0.5347(5)
O7 O 0.8153(7) 0.0521(4) 0.9634(5)
O8 O 0.3183(6) 0.0318(4) 0.8670(5)
O9 O 0.5578(6) -0.0532(4) 0.8981(5)
O10 O 1.0540(6) 0.0849(4) 0.8996(5)
O11 O 0.7936(7) 0.3031(4) 0.4834(5)
O12 O 0.6571(6) 0.3786(4) 0.6337(5)
O13 O 0.8828(8) 0.2041(4) 0.9319(6)
H1 H 0.9197(8) 0.2375(4) 0.8920(6)
O14 O 0.3830(7) -0.0540(4) 0.7100(5)
H2 H 0.3406(7) -0.0970(4) 0.7295(5)
C1 C 0.5648(10) -0.0324(6) 0.5183(8)
C2 C 0.7386(9) 0.2520(6) 0.5448(7)
C3 C 0.6578(9) 0.2957(6) 0.6311(7)
Fe1 Fe 0.63476(13) 0.11255(8) 0.66452(10)
Fe2 Fe 0.75220(13) -0.06193(8) 0.99795(10)
O15 O 1.5052(13) 0.2098(6) 1.2736(8)
O16 O 0.6432(11) 0.2231(8) 1.0239(10)
O17 O 1.3122(42) 0.2458(24) 0.7633(26)
N1 N 1.0318(15) -0.0363(9) 0.7045(11)
C4 C 1.00000 0.00000 0.50000
C5 C 1.0521(35) 0.0352(13) 0.6199(9)
C6? C 0.9926(33) -0.0744(10) 0.5874(12)
C1B C 0.4352(10) 0.0324(6) 0.4817(8)
Fe2B Fe 0.24780(13) 0.06193(8) 1.00205(10)
Fe2B* Fe 1.24780(13) 0.06193(8) 1.00205(10)
Fe2A Fe 0.74780(13) 0.43807(8) 0.50205(10)
O6B O 0.5559(6) -0.1046(4) 0.4653(5)
O8B O 0.6817(6) -0.0318(4) 1.1330(5)
O10B O 0.9460(6) -0.0849(4) 1.1004(5)
O11A O 0.7064(7) -0.1969(4) 1.0166(5)
O12A O 0.8429(6) -0.1214(4) 0.8663(5)
O4B O 0.3325(6) 0.0074(4) 0.4022(5)
Fe1B Fe 0.36524(13) -0.11255(8) 0.33548(10)
P2B P 0.5512(2) -0.0030(2) 1.1833(2)
P1B P 1.1055(2) -0.1073(2) 1.1092(2)
C2A C 0.7614(9) -0.2480(6) 0.9552(7)
C3A C 0.8422(9) -0.2043(6) 0.8689(7)
O1B O 0.4805(7) -0.0829(4) 1.2253(5)
O9B O 0.4422(6) 0.0532(4) 1.1019(5)
O14B O 0.6170(7) 0.0540(4) 1.2900(5)
O2B O 1.1757(6) -0.1005(4) 1.2357(5)
O7B O 1.1847(7) -0.0521(4) 1.0366(5)
O13B O 1.1172(8) -0.2041(4) 1.0681(6)
O5A O 0.7617(6) -0.3307(4) 0.9564(5)
O3A O 0.8999(7) -0.2568(4) 0.8094(5)
Fe1B* Fe 0.36524(13) -0.11255(8) 1.33548(10)
H2B H 0.6594(7) 0.0970(4) 1.2705(5)
Fe1B** Fe 1.36524(13) -0.11255(8) 1.33548(10)
H1B H 1.0803(8) -0.2375(4) 1.1080(6)
Fe1A Fe 0.86524(13) -0.38745(8) 0.83548(10)
O7B* O 0.1847(7) -0.0521(4) 1.0366(5)
O7A O 0.6847(7) 0.5521(4) 0.5366(5)
O8C O 0.8183(6) 0.4682(4) 0.3670(5)
O9A O 0.9422(6) 0.4468(4) 0.6019(5)
O10C O 0.5540(6) 0.4151(4) 0.3996(5)
O1B* O 0.4805(7) -0.0829(4) 0.2253(5)
O2B* O 0.1757(6) -0.1005(4) 0.2357(5)
O3B O 0.3999(7) -0.2432(4) 0.3094(5)
O5B O 0.2617(6) -0.1693(4) 0.4564(5)
C5B C 0.9479(35) -0.0352(13) 0.3801(9)
N1B N 0.9682(15) 0.0363(9) 0.2955(11)
#END
