
#######################################################################
#
#                 Cambridge Crystallographic Data Centre
#                                CCDC
#
#######################################################################
#
# If this CIF has been generated from an entry in the Cambridge
# Structural Database, then it will include bibliographic, chemical,
# crystal, experimental, refinement or atomic coordinate data resulting
# from the CCDC's data processing and validation procedures.
#
#######################################################################

data_CSD_CIF_MAYGAU
_audit_creation_date 2000-10-01
_audit_creation_method CSD-ConQuest-V1
_database_code_CSD MAYGAU
_database_code_depnum_ccdc_archive 'CCDC 144890'
_database_code_depnum_ccdc_fiz 'CSD 391077'
_chemical_formula_sum 'C9 H28 Fe4 N2 O35 P4'
_chemical_formula_moiety
;
(C6 H4 Fe4 O28 P4 2-)n,n(C3 H12 N2 O1 2+),6n(H2 O1)
;
_journal_coden_Cambridge 1220
_journal_volume 6
_journal_year 2000
_journal_page_first 1168
_journal_name_full 'Chem.-Eur.J. '
loop_
_publ_author_name
"A.Choudhury"
"S.Natarajan"
"C.N.R.Rao"
_chemical_name_systematic
;
catena-[(1,3-Diammonio-2-propanol) 
(tetrakis(\m~3~-orthophosphato)-tris(\m~2~-oxalato)-tetra-iron) hexahydrate]
;
_cell_volume   1650.489
_exptl_crystal_density_diffrn 2.152
_exptl_crystal_description 'plate'
_diffrn_ambient_temperature ?
_diffrn_special_details
;
The study was carried out at room temperature,in the range 283-303K

;
_refine_special_details
;
Propanol O20 is disordered equally over two sites. Water O400 is disordered 
over two sites with occupancies 0.53:0.47.
;
#These two values have been output from a single CSD field.
_refine_ls_R_factor_gt 0.083
_refine_ls_wR_factor_gt 0.083
_symmetry_cell_setting monoclinic
_symmetry_space_group_name_H-M 'P 21/n'
_symmetry_Int_Tables_number 14
loop_
_symmetry_equiv_pos_site_id
_symmetry_equiv_pos_as_xyz
1 x,y,z
2 1/2-x,1/2+y,1/2-z
3 -x,-y,-z
4 -1/2+x,-1/2-y,-1/2+z
_cell_length_a 9.2664(6)
_cell_length_b 15.2043(10)
_cell_length_c 11.9840(9)
_cell_angle_alpha 90
_cell_angle_beta 102.167(2)
_cell_angle_gamma 90
_cell_formula_units_Z 2
loop_
_atom_type_symbol
_atom_type_radius_bond
C 0.75
H 0.23
Fe 1.34
N 0.68
O 0.68
P 1.05
loop_
_atom_site_label
_atom_site_type_symbol
_atom_site_fract_x
_atom_site_fract_y
_atom_site_fract_z
O1 O 0.0080(25) 0.2911(10) 0.7736(14)
O2 O 0.6473(17) 0.2261(11) 1.0208(16)
O3 O 0.2133(59) 0.2126(37) 0.7259(47)
O4 O 0.5276(23) 0.4415(14) 1.0761(18)
N1 N 0.4631(26) 0.4731(16) 0.7944(22)
C1 C 0.50000 0.50000 1.00000
C2 C 0.5088(49) 0.4143(31) 0.8881(39)
P1 P 0.8945(4) 0.1080(2) 0.8904(3)
P2 P 0.4492(3) 0.0027(2) 0.8163(3)
O5 O 0.5184(10) 0.0838(6) 0.7735(8)
O6 O 0.8209(9) 0.1024(6) 0.7645(7)
O7 O 0.5996(9) 0.2454(5) 0.6903(7)
O8 O 0.6663(9) -0.0065(6) 0.5983(7)
O9 O 0.7381(10) 0.1705(5) 0.5442(8)
O10 O 0.4438(9) 0.1048(6) 0.5338(8)
O11 O 0.8194(10) 0.0523(6) 0.9648(7)
O12 O 0.3160(9) 0.0308(6) 0.8632(7)
O13 O 0.5565(9) -0.0520(6) 0.9011(7)
O14 O 1.0547(9) 0.0867(6) 0.8983(7)
O15 O 0.795(1) 0.3034(6) 0.4825(8)
O16 O 0.6590(9) 0.3782(5) 0.6332(7)
O17 O 0.8861(11) 0.2038(6) 0.9341(9)
H1 H 0.9225(11) 0.2375(6) 0.8942(9)
O18 O 0.3880(9) -0.0548(6) 0.7080(7)
H2 H 0.3457(9) -0.0981(6) 0.7265(7)
C3 C 0.5633(14) -0.0311(9) 0.5188(12)
C4 C 0.7382(13) 0.2538(9) 0.5444(10)
C5 C 0.6591(12) 0.2967(9) 0.6309(10)
Fe1 Fe 0.6320(2) 0.11428(12) 0.6652(2)
Fe2 Fe 0.7520(2) -0.06164(12) 0.9998(2)
O19? O 0.4197(39) 0.3034(18) 0.8266(29)
O4B O 0.4724(23) 0.5585(14) 0.9239(18)
C2B C 0.4912(49) 0.5857(31) 1.1119(39)
N1B N 0.5369(26) 0.5269(16) 1.2056(22)
Fe2B Fe 0.2480(2) 0.06164(12) 1.0002(2)
O11B O 0.1806(10) -0.0523(6) 1.0352(7)
P1B P 0.1055(4) -0.1080(2) 1.1096(3)
O6B O 0.1791(9) -0.1024(6) 1.2355(7)
Fe1B Fe 0.3680(2) -0.11428(12) 1.3348(2)
O5B O 0.4816(10) -0.0838(6) 1.2265(8)
P2B P 0.5508(3) -0.0027(2) 1.1837(3)
O12B O 0.6840(9) -0.0308(6) 1.1368(7)
Fe2B* Fe 1.2480(2) 0.06164(12) 1.0002(2)
O11B* O 1.1806(10) -0.0523(6) 1.0352(7)
O12* O 1.3160(9) 0.0308(6) 0.8632(7)
O13B O 1.4435(9) 0.0520(6) 1.0989(7)
P2B* P 1.5508(3) -0.0027(2) 1.1837(3)
O5B* O 1.4816(10) -0.0838(6) 1.2265(8)
O12B* O 1.6840(9) -0.0308(6) 1.1368(7)
O18B O 1.6120(9) 0.0548(6) 1.2920(7)
H2B H 1.6543(9) 0.0981(6) 1.2735(7)
O15C O 1.295(1) 0.1966(6) 0.9825(8)
C4C C 1.2382(13) 0.2462(9) 1.0444(10)
O9C O 1.2381(10) 0.3295(5) 1.0442(8)
Fe1C Fe 1.1320(2) 0.38572(12) 1.1652(2)
O5C O 1.0184(10) 0.4162(6) 1.2735(8)
P2C P 0.9492(3) 0.4973(2) 1.3163(3)
O12C O 0.8160(9) 0.4692(6) 1.3632(7)
Fe2A Fe 0.7480(2) 0.43836(12) 1.5002(2)
O11A O 0.6806(10) 0.5523(6) 1.5352(7)
P1A P 0.6055(4) 0.6080(2) 1.6096(3)
O6A O 0.6791(9) 0.6024(6) 1.7355(7)
Fe1A Fe 0.8680(2) 0.61428(12) 1.8348(2)
O5A O 0.9816(10) 0.5838(6) 1.7265(8)
P2A P 1.0508(3) 0.5027(2) 1.6837(3)
O12A O 1.1840(9) 0.5308(6) 1.6368(7)
Fe2C Fe 1.2520(2) 0.56164(12) 1.4998(2)
O11C O 1.3194(10) 0.4477(6) 1.4648(7)
P1C P 1.3945(4) 0.3920(2) 1.3904(3)
O6C O 1.3209(9) 0.3976(6) 1.2645(7)
O7C O 1.0996(9) 0.2546(5) 1.1903(7)
C5C C 1.1591(12) 0.2033(9) 1.1309(10)
O16C O 1.1590(9) 0.1218(5) 1.1332(7)
O8C O 1.1663(9) 0.5065(6) 1.0983(7)
C3C C 1.0633(14) 0.5311(9) 1.0188(12)
O10A O 1.0562(9) 0.6048(6) 0.9662(8)
Fe1A* Fe 0.8680(2) 0.61428(12) 0.8348(2)
O5A* O 0.9816(10) 0.5838(6) 0.7265(8)
O6A* O 0.6791(9) 0.6024(6) 0.7355(7)
O7A O 0.9004(9) 0.7454(5) 0.8097(7)
C5A C 0.8409(12) 0.7967(9) 0.8691(10)
O16A O 0.8410(9) 0.8782(5) 0.8668(7)
Fe2* Fe 0.7520(2) 0.93836(12) 0.9998(2)
O11* O 0.8194(10) 1.0523(6) 0.9648(7)
O12B** O 0.6840(9) 0.9692(6) 1.1368(7)
O13* O 0.5565(9) 0.9480(6) 0.9011(7)
P2* P 0.4492(3) 1.0027(2) 0.8163(3)
O5* O 0.5184(10) 1.0838(6) 0.7735(8)
O12** O 0.3160(9) 1.0308(6) 0.8632(7)
O18* O 0.3880(9) 0.9452(6) 0.7080(7)
H2* H 0.3457(9) 0.9019(6) 0.7265(7)
O14B O 0.9453(9) 0.9133(6) 1.1017(7)
P1B* P 1.1055(4) 0.8920(2) 1.1096(3)
O6B* O 1.1791(9) 0.8976(6) 1.2355(7)
O11B** O 1.1806(10) 0.9477(6) 1.0352(7)
O17B O 1.1139(11) 0.7962(6) 1.0659(9)
H1B H 1.0775(11) 0.7625(6) 1.1058(9)
O15A O 0.705(1) 0.8034(6) 1.0175(8)
C4A C 0.7618(13) 0.7538(9) 0.9556(10)
O9A O 0.7619(10) 0.6705(5) 0.9558(8)
O8A O 0.8337(9) 0.4935(6) 0.9017(7)
C3A C 0.9367(14) 0.4689(9) 0.9812(12)
O10C O 0.9438(9) 0.3952(6) 1.0338(8)
O14C O 1.5547(9) 0.4133(6) 1.3983(7)
Fe2A* Fe 1.7480(2) 0.43836(12) 1.5002(2)
O11A* O 1.6806(10) 0.5523(6) 1.5352(7)
O12C* O 1.8160(9) 0.4692(6) 1.3632(7)
O13A O 1.9435(9) 0.4480(6) 1.5989(7)
P2A* P 2.0508(3) 0.5027(2) 1.6837(3)
O5A** O 1.9816(10) 0.5838(6) 1.7265(8)
O12A* O 2.1840(9) 0.5308(6) 1.6368(7)
O18A O 2.1120(9) 0.4452(6) 1.7920(7)
H2A H 2.1543(9) 0.4019(6) 1.7735(7)
O15* O 1.795(1) 0.3034(6) 1.4825(8)
C4* C 1.7382(13) 0.2538(9) 1.5444(10)
O9* O 1.7381(10) 0.1705(5) 1.5442(8)
Fe1* Fe 1.6320(2) 0.11428(12) 1.6652(2)
O5** O 1.5184(10) 0.0838(6) 1.7735(8)
O6* O 1.8209(9) 0.1024(6) 1.7645(7)
O7* O 1.5996(9) 0.2454(5) 1.6903(7)
C5* C 1.6591(12) 0.2967(9) 1.6309(10)
O16* O 1.6590(9) 0.3782(5) 1.6332(7)
O8* O 1.6663(9) -0.0065(6) 1.5983(7)
C3* C 1.5633(14) -0.0311(9) 1.5188(12)
O10B O 1.5562(9) -0.1048(6) 1.4662(8)
Fe1B* Fe 1.3680(2) -0.11428(12) 1.3348(2)
O6B** O 1.1791(9) -0.1024(6) 1.2355(7)
O7B O 1.4004(9) -0.2454(5) 1.3097(7)
C5B C 1.3409(12) -0.2967(9) 1.3691(10)
O16B O 1.3410(9) -0.3782(5) 1.3668(7)
Fe2C* Fe 1.2520(2) -0.43836(12) 1.4998(2)
O11C* O 1.3194(10) -0.5523(6) 1.4648(7)
O12A** O 1.1840(9) -0.4692(6) 1.6368(7)
O13C O 1.0565(9) -0.4480(6) 1.4011(7)
P2C* P 0.9492(3) -0.5027(2) 1.3163(3)
O5C* O 1.0184(10) -0.5838(6) 1.2735(8)
O12C** O 0.8160(9) -0.5308(6) 1.3632(7)
O18C O 0.8880(9) -0.4452(6) 1.2080(7)
H2C H 0.8457(9) -0.4019(6) 1.2265(7)
O14A O 1.4453(9) -0.4133(6) 1.6017(7)
P1A* P 1.6055(4) -0.3920(2) 1.6096(3)
O6A** O 1.6791(9) -0.3976(6) 1.7355(7)
O11A** O 1.6806(10) -0.4477(6) 1.5352(7)
O17A O 1.6139(11) -0.2962(6) 1.5659(9)
H1A H 1.5775(11) -0.2625(6) 1.6058(9)
O15B O 1.205(1) -0.3034(6) 1.5175(8)
C4B C 1.2618(13) -0.2538(9) 1.4556(10)
O9B O 1.2619(10) -0.1705(5) 1.4558(8)
O8B O 1.3337(9) 0.0065(6) 1.4017(7)
C3B C 1.4367(14) 0.0311(9) 1.4812(12)
O10* O 1.4438(9) 0.1048(6) 1.5338(8)
O17C O 1.3861(11) 0.2962(6) 1.4341(9)
H1C H 1.4225(11) 0.2625(6) 1.3942(9)
O13C* O 1.0565(9) 0.5520(6) 1.4011(7)
O14A* O 1.4453(9) 0.5867(6) 1.6017(7)
O15B* O 1.205(1) 0.6966(6) 1.5175(8)
O16B* O 1.3410(9) 0.6218(5) 1.3668(7)
O13A* O 0.9435(9) 0.4480(6) 1.5989(7)
O18A* O 1.1120(9) 0.4452(6) 1.7920(7)
H2A* H 1.1543(9) 0.4019(6) 1.7735(7)
O7A* O 0.9004(9) 0.7454(5) 1.8097(7)
O8A* O 0.8337(9) 0.4935(6) 1.9017(7)
O9A* O 0.7619(10) 0.6705(5) 1.9558(8)
O10A* O 1.0562(9) 0.6048(6) 1.9662(8)
O14A** O 0.4453(9) 0.5867(6) 1.6017(7)
O17A* O 0.6139(11) 0.7038(6) 1.5659(9)
H1A* H 0.5775(11) 0.7375(6) 1.6058(9)
O14C* O 0.5547(9) 0.4133(6) 1.3983(7)
O15** O 0.795(1) 0.3034(6) 1.4825(8)
O16** O 0.6590(9) 0.3782(5) 1.6332(7)
O18C* O 0.8880(9) 0.5548(6) 1.2080(7)
H2C* H 0.8457(9) 0.5981(6) 1.2265(7)
O14B* O 0.9453(9) -0.0867(6) 1.1017(7)
O15A* O 0.705(1) -0.1966(6) 1.0175(8)
O16A* O 0.8410(9) -0.1218(5) 0.8668(7)
O13B* O 0.4435(9) 0.0520(6) 1.0989(7)
O18B* O 0.6120(9) 0.0548(6) 1.2920(7)
H2B* H 0.6543(9) 0.0981(6) 1.2735(7)
O7B* O 0.4004(9) -0.2454(5) 1.3097(7)
O8B* O 0.3337(9) 0.0065(6) 1.4017(7)
O9B* O 0.2619(10) -0.1705(5) 1.4558(8)
O10B* O 0.5562(9) -0.1048(6) 1.4662(8)
O14B** O -0.0547(9) -0.0867(6) 1.1017(7)
O17B* O 0.1139(11) -0.2038(6) 1.0659(9)
H1B* H 0.0775(11) -0.2375(6) 1.1058(9)
O14* O 0.0547(9) 0.0867(6) 0.8983(7)
O15C* O 0.295(1) 0.1966(6) 0.9825(8)
O16C* O 0.1590(9) 0.1218(5) 1.1332(7)
C3B* C 0.4367(14) 0.0311(9) 0.4812(12)
Fe2A** Fe 0.7480(2) 0.43836(12) 0.5002(2)
O10B** O 0.5562(9) -0.1048(6) 0.4662(8)
O8B** O 0.3337(9) 0.0065(6) 0.4017(7)
#END
