
#######################################################################
#
#                 Cambridge Crystallographic Data Centre
#                                CCDC
#
#######################################################################
#
# If this CIF has been generated from an entry in the Cambridge
# Structural Database, then it will include bibliographic, chemical,
# crystal, experimental, refinement or atomic coordinate data resulting
# from the CCDC's data processing and validation procedures.
#
#######################################################################

data_CSD_CIF_MAYNAC
_audit_creation_date 2006-03-02
_audit_creation_method CSD-ConQuest-V1
_database_code_CSD MAYNAC
_database_code_depnum_ccdc_archive 'CCDC 291732'
_chemical_formula_sum 'C38 H80 N6 Na2 O12 Se4 Tl2'
_chemical_formula_moiety
;
(C18 H36 N2 Na1 O6 1+)2n,n(Se4 Tl2 2-),n(C2 H8 N2)
;
_journal_coden_Cambridge 9
_journal_volume 44
_journal_year 2005
_journal_page_first 8770
_journal_name_full 'Inorg.Chem. '
loop_
_publ_author_name
"A.M.Pirani"
"H.P.A.Mercier"
"R.J.Suontamo"
"G.J.Schrobilgen"
"D.P.Santry"
"H.Borrmann"
_chemical_name_systematic
;
catena-(bis((4,7,13,16,21,24-hexaoxa-1,10-diazabicyclo(8.8.8)hexacosane)-sodiu
m) tetrakis(\m~2~-selenido)-di-thallium(iii))
;
_chemical_name_common
;
catena-(bis((2.2.2-Crypt)-sodium) tetrakis(mu!2$-selenido)-di-thallium(iii))
;
_cell_volume   5375.802
_exptl_crystal_density_diffrn 1.957
_exptl_special_details
;
anion is isostructural and isovalent with the In2Te4 analogue
The anions are stated to be noncommensurate with respect to the cations and 
solvent molecules
;
_diffrn_ambient_temperature 293
_refine_special_details
;
The solvent molecule is disordered over two positions with occupancy 
0.601:0.399.
;
#These two values have been output from a single CSD field.
_refine_ls_R_factor_gt 0.0447
_refine_ls_wR_factor_gt 0.0447
_symmetry_cell_setting monoclinic
_symmetry_space_group_name_H-M 'P 21/c'
_symmetry_Int_Tables_number 14
loop_
_symmetry_equiv_pos_site_id
_symmetry_equiv_pos_as_xyz
1 x,y,z
2 -x,1/2+y,1/2-z
3 -x,-y,-z
4 x,-1/2-y,-1/2+z
_cell_length_a 14.246(3)
_cell_length_b 14.360(3)
_cell_length_c 26.673(5)
_cell_angle_alpha 90
_cell_angle_beta 99.87(3)
_cell_angle_gamma 90
_cell_formula_units_Z 4
loop_
_atom_type_symbol
_atom_type_radius_bond
C 0.68
H 0.23
N 0.68
Na 1.87
O 0.68
Se 1.22
Tl 1.55
loop_
_atom_site_label
_atom_site_type_symbol
_atom_site_fract_x
_atom_site_fract_y
_atom_site_fract_z
Tl1 Tl 0.00583(2) 0.777724(19) 0.245631(12)
Tl2 Tl 0.00610(2) 1.027570(19) 0.250820(12)
Se1 Se 0.06865(6) 0.89696(5) 0.31970(3)
Se2 Se -0.03813(6) 0.90971(6) 0.17463(3)
Se3 Se -0.13086(6) 0.66012(6) 0.25964(3)
Se4 Se 0.12680(6) 0.64475(5) 0.22848(4)
Na1 Na -0.2010(3) 0.6768(3) -0.00377(13)
N1 N -0.2700(5) 0.5025(7) 0.0075(3)
C1 C -0.2223(7) 0.4415(8) -0.0241(5)
H1 H -0.25740 0.44200 -0.05860
H2 H -0.22270 0.37830 -0.01130
C2 C -0.1198(7) 0.4711(7) -0.0246(4)
H3 H -0.08410 0.46900 0.00980
H4 H -0.09060 0.42750 -0.04510
O1 O -0.1145(4) 0.5621(5) -0.0445(2)
C3 C -0.1320(7) 0.5671(8) -0.0997(3)
H5 H -0.19410 0.54140 -0.11340
H6 H -0.08390 0.53210 -0.11350
C4 C -0.1278(7) 0.6679(7) -0.1134(4)
H7 H -0.06570 0.69340 -0.09950
H8 H -0.13820 0.67520 -0.15010
O2 O -0.1995(5) 0.7153(5) -0.0929(3)
C5 C -0.2014(9) 0.8129(8) -0.1034(4)
H9 H -0.26360 0.83780 -0.10060
H10 H -0.19090 0.82310 -0.13800
C6 C -0.1259(11) 0.8632(9) -0.0668(5)
H11 H -0.06380 0.83920 -0.07060
H12 H -0.12760 0.92880 -0.07550
N2 N -0.1379(10) 0.8531(7) -0.0138(4)
C7 C -0.0465(13) 0.8627(8) 0.0206(5)
H13 H -0.05770 0.87970 0.05420
H14 H -0.00990 0.91230 0.00840
C8 C 0.0108(9) 0.7722(9) 0.0239(5)
H15 H 0.02240 0.75550 -0.00980
H16 H 0.07190 0.78160 0.04560
O3 O -0.0384(5) 0.6977(4) 0.0437(2)
C9 C -0.0392(8) 0.7035(7) 0.0973(4)
H17 H -0.06670 0.76240 0.10510
H18 H 0.02550 0.70030 0.11590
C10 C -0.0962(8) 0.6253(8) 0.1125(4)
H19 H -0.07030 0.56620 0.10370
H20 H -0.09510 0.62650 0.14900
O4 O -0.1912(5) 0.6365(5) 0.0860(2)
C11 C -0.2534(8) 0.5623(8) 0.0955(4)
H21 H -0.31880 0.58430 0.08920
H22 H -0.23800 0.54400 0.13100
C12 C -0.2446(8) 0.4783(8) 0.0621(4)
H23 H -0.17970 0.45510 0.06900
H24 H -0.28630 0.42910 0.07010
C13 C -0.3730(7) 0.5013(9) -0.0091(4)
H25 H -0.40400 0.52080 0.01880
H26 H -0.39340 0.43820 -0.01830
C14 C -0.4038(8) 0.5645(10) -0.0540(5)
H27 H -0.37460 0.54310 -0.08220
H28 H -0.47230 0.55960 -0.06420
O5 O -0.3802(6) 0.6573(7) -0.0448(4)
C15 C -0.441(1) 0.7115(14) -0.0206(6)
H29 H -0.45330 0.67930 0.00960
H30 H -0.50130 0.71970 -0.04330
C16 C -0.3986(11) 0.8045(13) -0.0058(7)
H31 H -0.39160 0.83930 -0.03610
H32 H -0.44050 0.83930 0.01240
O6 O -0.3118(8) 0.7936(8) 0.0243(4)
C17 C -0.2601(14) 0.8804(10) 0.0396(5)
H33 H -0.30460 0.92680 0.04770
H34 H -0.21350 0.86900 0.07000
C18 C -0.2113(17) 0.9165(11) -0.0004(6)
H35 H -0.18160 0.97550 0.01070
H36 H -0.25820 0.92830 -0.03070
Na2 Na -0.4684(2) 0.3755(2) 0.30661(15)
N3 N -0.6276(7) 0.4151(9) 0.2432(5)
C19 C -0.7093(9) 0.3782(11) 0.2574(4)
H37 H -0.72420 0.31970 0.23970
H38 H -0.76190 0.42050 0.24660
C20 C -0.7008(7) 0.3610(11) 0.3151(5)
H39 H -0.70520 0.42030 0.33200
H40 H -0.75430 0.32310 0.32100
O7 O -0.6143(6) 0.3159(6) 0.3376(3)
C21 C -0.6202(10) 0.2194(11) 0.3250(6)
H41 H -0.61910 0.21050 0.28910
H42 H -0.67860 0.19290 0.33280
C22 C -0.5358(9) 0.1745(11) 0.3564(6)
H43 H -0.53460 0.18770 0.39220
H44 H -0.53850 0.10760 0.35160
O8 O -0.4514(6) 0.2118(5) 0.3403(3)
C23 C -0.3742(9) 0.1808(9) 0.3734(7)
H45 H -0.36560 0.11460 0.36850
H46 H -0.38360 0.19090 0.40810
C24 C -0.2910(9) 0.2309(8) 0.3641(6)
H47 H -0.28190 0.21850 0.32950
H48 H -0.23570 0.20680 0.38670
N4 N -0.2947(6) 0.3310(7) 0.3710(3)
C25 C -0.2255(9) 0.3738(12) 0.3462(6)
H49 H -0.17260 0.39200 0.37230
H50 H -0.20190 0.32660 0.32560
C26 C -0.2497(9) 0.4482(15) 0.3165(11)
H51 H -0.19620 0.46390 0.29990
H52 H -0.25980 0.50030 0.33810
O9 O -0.3310(6) 0.4384(10) 0.2789(5)
C27 C -0.3181(11) 0.391(2) 0.2300(7)
H53 H -0.27520 0.42860 0.21360
H54 H -0.28830 0.33130 0.23800
C28 C -0.399(2) 0.379(3) 0.1975(12)
H55 H -0.38560 0.35080 0.16650
H56 H -0.42900 0.43900 0.18880
O10 O -0.463(1) 0.3206(8) 0.2192(4)
C29 C -0.532(4) 0.336(3) 0.1862(13)
H57 H -0.50870 0.37620 0.16190
H58 H -0.54620 0.27660 0.16890
C30 C -0.6087(13) 0.368(2) 0.1915(6)
H59 H -0.65470 0.31780 0.18410
H60 H -0.62530 0.41390 0.16490
C31 C -0.6272(15) 0.5192(13) 0.2441(12)
H61 H -0.61470 0.53850 0.21100
H62 H -0.69230 0.53760 0.24530
C32 C -0.578(2) 0.5680(14) 0.2746(8)
H63 H -0.61990 0.61170 0.28730
H64 H -0.53810 0.60430 0.25570
O11 O -0.517(1) 0.5319(7) 0.3174(4)
C33 C -0.5281(12) 0.5746(12) 0.3619(6)
H65 H -0.59310 0.59650 0.35960
H66 H -0.48580 0.62790 0.36810
C34 C -0.5056(9) 0.5066(11) 0.4045(5)
H67 H -0.50890 0.53700 0.43670
H68 H -0.55130 0.45590 0.39990
O12 O -0.4134(7) 0.4721(8) 0.4047(4)
C35 C -0.3887(8) 0.3915(9) 0.4348(5)
H69 H -0.43590 0.34290 0.42580
H70 H -0.38440 0.40590 0.47070
C36 C -0.2951(8) 0.3616(9) 0.4238(4)
H71 H -0.25060 0.41290 0.43140
H72 H -0.27190 0.31070 0.44650
N5 N -0.2102(11) 1.0827(11) 0.1320(6)
H73 H -0.27040 1.08990 0.13080
H74 H -0.18030 1.03980 0.15080
C37 C -0.1576(15) 1.1444(15) 0.1015(8)
H75 H -0.12930 1.10970 0.07660
H76 H -0.10890 1.18060 0.12280
C38 C -0.245(2) 1.208(2) 0.0751(11)
H77 H -0.22380 1.24750 0.04970
H78 H -0.29530 1.16810 0.05770
N6 N -0.2817(16) 1.2634(16) 0.1097(9)
H79 H -0.25740 1.26110 0.14150
H80 H -0.32880 1.30010 0.09940
N7? N -0.239(3) 1.202(3) 0.1433(14)
H81? H -0.19430 1.24240 0.15080
H82? H -0.27970 1.19340 0.16300
C39? C -0.245(5) 1.140(5) 0.092(3)
H83? H -0.23620 1.07350 0.09870
H84? H -0.30320 1.15010 0.06790
C40? C -0.158(2) 1.183(2) 0.0742(13)
H85? H -0.15300 1.16090 0.04040
H86? H -0.16530 1.25060 0.07250
N8? N -0.073(2) 1.160(2) 0.1094(12)
H87? H -0.07730 1.12530 0.13540
H88? H -0.01870 1.17940 0.10450
Tl2A Tl -0.00610(2) 0.527570(19) 0.249180(12)
Se3A Se 0.13086(6) 1.16012(6) 0.24036(3)
Se4A Se -0.12680(6) 1.14475(5) 0.27152(4)
#END
