
#######################################################################
#
#                 Cambridge Crystallographic Data Centre
#                                CCDC
#
#######################################################################
#
# If this CIF has been generated from an entry in the Cambridge
# Structural Database, then it will include bibliographic, chemical,
# crystal, experimental, refinement or atomic coordinate data resulting
# from the CCDC's data processing and validation procedures.
#
#######################################################################

data_CSD_CIF_MAZYER
_audit_creation_date 2000-10-02
_audit_creation_method CSD-ConQuest-V1
_database_code_CSD MAZYER
_database_code_depnum_ccdc_archive 'CCDC 147836'
_database_code_depnum_ccdc_journal 182/1668
_chemical_formula_sum 'C14 H10 Cd2 K2 N4 O16'
_chemical_formula_moiety
;
(C8 Cd2 O16 4-)n,2n(C3 H5 N2 1+),2n(K1 1+)
;
_journal_coden_Cambridge 182
_journal_year 2000
_journal_page_first 1251
_journal_name_full 'Chem.Commun. '
loop_
_publ_author_name
"P.A.Prasad"
"S.Neeraj"
"S.Natarajan"
"C.N.R.Rao"
_chemical_name_systematic
;
catena-(Imidazolium potassium bis(\m~2~-oxalato)-cadmium)
;
_cell_volume   2236.009
_exptl_crystal_colour 'colorless'
_exptl_crystal_density_diffrn 2.356
_exptl_crystal_description 'diamond-shaped'
_diffrn_ambient_temperature ?
_diffrn_special_details
;
The study was carried out at room temperature,in the range 283-303K

;
#These two values have been output from a single CSD field.
_refine_ls_R_factor_gt 0.0259
_refine_ls_wR_factor_gt 0.0259
_symmetry_cell_setting monoclinic
_symmetry_space_group_name_H-M 'C 2/c'
_symmetry_Int_Tables_number 15
loop_
_symmetry_equiv_pos_site_id
_symmetry_equiv_pos_as_xyz
1 x,y,z
2 1/2+x,1/2+y,z
3 x,-y,1/2+z
4 1/2+x,1/2-y,1/2+z
5 -x,-y,-z
6 -1/2-x,-1/2-y,-z
7 -x,y,-1/2-z
8 -1/2-x,-1/2+y,-1/2-z
_cell_length_a 13.0160(2)
_cell_length_b 11.2910(3)
_cell_length_c 15.7543(4)
_cell_angle_alpha 90
_cell_angle_beta 105.039(1)
_cell_angle_gamma 90
_cell_formula_units_Z 4
loop_
_atom_type_symbol
_atom_type_radius_bond
C 0.68
H 0.23
Cd 1.69
K 1.33
N 0.68
O 0.68
loop_
_atom_site_label
_atom_site_type_symbol
_atom_site_fract_x
_atom_site_fract_y
_atom_site_fract_z
Cd1 Cd -0.30210(2) 0.17712(2) -0.32564(2)
O1 O -0.3628(2) 0.1511(3) -0.2004(2)
O2 O -0.3592(2) 0.3756(3) -0.3294(2)
O3 O -0.1633(2) 0.4734(3) -0.1461(2)
O4 O -0.3671(2) 0.1885(2) -0.4836(2)
O5 O -0.1642(2) 0.2350(3) -0.3953(2)
O6 O -0.1801(2) 0.2989(2) -0.2141(2)
O7 O -0.3455(2) 0.5484(2) -0.2584(2)
O8 O -0.5015(2) 0.1497(3) -0.3616(2)
C1 C -0.4602(3) 0.1514(3) -0.2033(3)
C2 C -0.3144(3) 0.4463(3) -0.2703(3)
C3 C -0.2091(3) 0.4021(3) -0.2044(3)
C4 C -0.3087(3) 0.2366(3) -0.5258(3)
C5 C -0.6843(4) 0.3600(4) -0.5603(3)
H1 H -0.7286(4) 0.3318(4) -0.6126(3)
C6 C -0.5487(3) 0.3866(4) -0.4545(3)
H2 H -0.4796(3) 0.3808(4) -0.4190(3)
N1 N -0.5867(6) 0.3300(4) -0.5270(4)
H3 H -0.5519(6) 0.2797(4) -0.5497(4)
C7 C -0.6236(5) 0.4532(5) -0.4395(3)
H4 H -0.6187(5) 0.5023(5) -0.3912(3)
N2 N -0.7097(4) 0.4371(6) -0.5074(4)
H5 H -0.7703(4) 0.4713(6) -0.5147(4)
K1 K -0.50000 0.00000 -0.50000
K2 K 0.00000 0.21197(12) -0.25000
O8F O -0.4985(2) 0.1497(3) -0.1384(2)
Cd1F Cd -0.69790(2) 0.17712(2) -0.17436(2)
O1F O -0.6372(2) 0.1511(3) -0.2996(2)
C1F C -0.5398(3) 0.1514(3) -0.2967(3)
O7G O -0.1545(2) 0.0484(2) -0.2416(2)
Cd1G Cd -0.19790(2) 0.67712(2) -0.17436(2)
O3G O -0.3367(2) -0.0266(3) -0.3539(2)
O5E O -0.3358(2) 0.2650(3) -0.6047(2)
Cd1E Cd -0.19790(2) 0.32288(2) -0.67436(2)
O1E O -0.1372(2) 0.3489(3) -0.7996(2)
C1E C -0.0398(3) 0.3486(3) -0.7967(3)
O8C O -0.0015(2) 0.3503(3) -0.8616(2)
Cd1C Cd 0.19790(2) 0.32288(2) -0.82564(2)
O1C O 0.1372(2) 0.3489(3) -0.7004(2)
C1C C 0.0398(3) 0.3486(3) -0.7033(3)
O8E O 0.0015(2) 0.3503(3) -0.6384(2)
O2E O -0.1408(2) 0.1244(3) -0.6706(2)
O6E O -0.3199(2) 0.2011(2) -0.7859(2)
O3B O -0.1633(2) 0.5266(3) -0.6461(2)
O4E O -0.1329(2) 0.3115(2) -0.5164(2)
C4E C -0.1913(3) 0.2634(3) -0.4742(3)
O7B O -0.3455(2) 0.4516(2) -0.7584(2)
#END
