
#######################################################################
#
#                 Cambridge Crystallographic Data Centre
#                                CCDC
#
#######################################################################
#
# If this CIF has been generated from an entry in the Cambridge
# Structural Database, then it will include bibliographic, chemical,
# crystal, experimental, refinement or atomic coordinate data resulting
# from the CCDC's data processing and validation procedures.
#
#######################################################################

data_CSD_CIF_MECJEM
_audit_creation_date 2017-08-28
_audit_creation_method CSD-ConQuest-V1
_database_code_CSD MECJEM
_database_code_depnum_ccdc_archive 'CCDC 1551331'
_chemical_formula_sum 'C32 H24 N4 O16 S3 U2'
_chemical_formula_moiety
;
(C18 H6 O16 S3 U2 2-)n,C14 H18 N4 2+
;
_journal_coden_Cambridge 1147
_journal_volume 17
_journal_year 2017
_journal_page_first 5318
_journal_name_full 'Cryst.Growth Des. '
loop_
_publ_author_name
"S.J.Jennifer"
"A.K.Jana"
_chemical_name_systematic
;
 catena-[4,4'-(piperazine-1,4-diyl)di(pyridin-1-ium) 
tris(\m-thiophene-2,5-dicarboxylato)-tetraoxido-di-uranium(vi)]
;
_cell_volume   3598.274
_exptl_crystal_colour 'yellow'
_exptl_crystal_density_diffrn 2.386
_exptl_crystal_description 'plate'
_diffrn_ambient_temperature 293
#These two values have been output from a single CSD field.
_refine_ls_R_factor_gt 0.0395
_refine_ls_wR_factor_gt 0.0395
_symmetry_cell_setting orthorhombic
_symmetry_space_group_name_H-M 'P c c n'
_symmetry_Int_Tables_number 56
loop_
_symmetry_equiv_pos_site_id
_symmetry_equiv_pos_as_xyz
1 x,y,z
2 1/2-x,1/2-y,z
3 1/2+x,-y,1/2-z
4 -x,1/2+y,1/2-z
5 -x,-y,-z
6 -1/2+x,-1/2+y,-z
7 -1/2-x,y,-1/2+z
8 x,-1/2-y,-1/2+z
_cell_length_a 18.2950(5)
_cell_length_b 14.1382(4)
_cell_length_c 13.9113(4)
_cell_angle_alpha 90
_cell_angle_beta 90
_cell_angle_gamma 90
_cell_formula_units_Z 4
loop_
_atom_type_symbol
_atom_type_radius_bond
C 0.68
H 0.23
N 0.68
O 0.68
S 1.02
U 1.96
loop_
_atom_site_label
_atom_site_type_symbol
_atom_site_fract_x
_atom_site_fract_y
_atom_site_fract_z
C1 C 0.3569(3) 0.2282(4) 0.1942(3)
C2 C 0.4366(3) 0.2108(4) 0.2053(3)
C3 C 0.4894(3) 0.2773(4) 0.2239(4)
H1 H 0.48030 0.34180 0.22950
C4 C 0.5593(3) 0.2357(4) 0.2334(4)
H2 H 0.60190 0.26960 0.24550
C5 C 0.5567(3) 0.1392(4) 0.2226(3)
C6 C 0.6163(3) 0.0711(4) 0.2385(3)
C7 C 0.1767(3) 0.5863(4) 0.0588(4)
C8 C 0.2163(3) 0.6747(4) 0.0334(4)
C9 C 0.2302(3) 0.7070(5) -0.0572(4)
H3 H 0.21540 0.67600 -0.11280
O1 O 0.3047(2) 0.4516(3) 0.0836(3)
O2 O 0.2336(2) 0.4416(3) 0.3219(3)
O3 O 0.3307(2) 0.3052(3) 0.2236(3)
O4 O 0.31976(18) 0.1609(3) 0.1578(2)
O5 O 0.60418(19) -0.0166(2) 0.2376(3)
O6 O 0.67980(18) 0.1015(3) 0.2567(3)
O7 O 0.1837(2) 0.5543(2) 0.1454(3)
O8 O 0.1381(2) 0.5494(2) -0.0050(3)
S1 S 0.25000 0.75000 0.11939(13)
S2 S 0.47014(7) 0.09841(9) 0.19991(8)
U1 U 0.269250(9) 0.447892(13) 0.202354(13)
C10 C 0.0430(3) 0.1826(4) -0.0378(3)
C11 C 0.1180(3) 0.2046(4) -0.0530(4)
H4 H 0.15140 0.15610 -0.06320
C12 C 0.1415(3) 0.2962(4) -0.0527(4)
H5 H 0.19100 0.30920 -0.06040
C13 C 0.0217(3) 0.3517(4) -0.0322(4)
H6 H -0.01070 0.40220 -0.02780
C14 C -0.0048(3) 0.2622(4) -0.0292(4)
H7 H -0.05470 0.25240 -0.02150
C15 C 0.0621(3) 0.0095(4) -0.0608(4)
H8 H 0.11270 0.02820 -0.06880
H9 H 0.04470 -0.01440 -0.12200
C16 C -0.0574(3) 0.0679(4) -0.0135(4)
H10 H -0.08060 0.04700 -0.07250
H11 H -0.08330 0.12330 0.00930
N1 N 0.0932(3) 0.3690(3) -0.0415(3)
H12 H 0.10890 0.42640 -0.04030
N2 N 0.0185(2) 0.0926(3) -0.0330(3)
C7A C 0.3233(3) 0.9137(4) 0.0588(4)
C8A C 0.2837(3) 0.8253(4) 0.0334(4)
C9A C 0.2698(3) 0.7930(5) -0.0572(4)
H3A H 0.28460 0.82400 -0.11280
O7A O 0.3163(2) 0.9457(2) 0.1454(3)
O8A O 0.3619(2) 0.9506(2) -0.0050(3)
C1A C 0.1431(3) 0.2718(4) 0.1942(3)
C2A C 0.0634(3) 0.2892(4) 0.2053(3)
C3A C 0.0106(3) 0.2227(4) 0.2239(4)
H1A H 0.01970 0.15820 0.22950
C4A C -0.0593(3) 0.2643(4) 0.2334(4)
H2A H -0.10190 0.23040 0.24550
C5A C -0.0567(3) 0.3608(4) 0.2226(3)
C6A C -0.1163(3) 0.4289(4) 0.2385(3)
O1A O 0.1953(2) 0.0484(3) 0.0836(3)
O2A O 0.2664(2) 0.0584(3) 0.3219(3)
O3A O 0.1693(2) 0.1948(3) 0.2236(3)
O4A O 0.18024(18) 0.3391(3) 0.1578(2)
O5A O -0.10418(19) 0.5166(2) 0.2376(3)
O6A O -0.17980(18) 0.3985(3) 0.2567(3)
S2A S 0.02986(7) 0.40159(9) 0.19991(8)
U1A U 0.230750(9) 0.052108(13) 0.202354(13)
O5B O 0.10418(19) 0.0166(2) 0.2624(3)
O5C O 0.39582(19) 0.4834(2) 0.2624(3)
O6B O 0.17980(18) -0.1015(3) 0.2433(3)
O6C O 0.32020(18) 0.6015(3) 0.2433(3)
O7A* O 0.3163(2) -0.0543(2) 0.1454(3)
U1A* U 0.230750(9) 1.052108(13) 0.202354(13)
U1B U -0.230750(9) 0.552108(13) 0.297646(13)
U1C U 0.730750(9) -0.052108(13) 0.297646(13)
C10D C -0.0430(3) -0.1826(4) 0.0378(3)
C11D C -0.1180(3) -0.2046(4) 0.0530(4)
H4D H -0.15140 -0.15610 0.06320
C12D C -0.1415(3) -0.2962(4) 0.0527(4)
H5D H -0.19100 -0.30920 0.06040
C13D C -0.0217(3) -0.3517(4) 0.0322(4)
H6D H 0.01070 -0.40220 0.02780
C14D C 0.0048(3) -0.2622(4) 0.0292(4)
H7D H 0.05470 -0.25240 0.02150
C15D C -0.0621(3) -0.0095(4) 0.0608(4)
H8D H -0.11270 -0.02820 0.06880
H9D H -0.04470 0.01440 0.12200
C16D C 0.0574(3) -0.0679(4) 0.0135(4)
H10D H 0.08060 -0.04700 0.07250
H11D H 0.08330 -0.12330 -0.00930
N1D N -0.0932(3) -0.3690(3) 0.0415(3)
H12D H -0.10890 -0.42640 0.04030
N2D N -0.0185(2) -0.0926(3) 0.0330(3)
#END
