
#######################################################################
#
#                 Cambridge Crystallographic Data Centre
#                                CCDC
#
#######################################################################
#
# If this CIF has been generated from an entry in the Cambridge
# Structural Database, then it will include bibliographic, chemical,
# crystal, experimental, refinement or atomic coordinate data resulting
# from the CCDC's data processing and validation procedures.
#
#######################################################################

data_CSD_CIF_MEDVUN
_audit_creation_date 2006-06-13
_audit_creation_method CSD-ConQuest-V1
_database_code_CSD MEDVUN
_database_code_depnum_ccdc_archive 'CCDC 256238'
_chemical_formula_sum 'C42 H46 Co2 N10 O16'
_chemical_formula_moiety
;
(C14 H22 Co1 N4 O4 2+)n,n(C28 H20 Co1 N6 O10 2-),2n(H2 O1)
;
_journal_coden_Cambridge 29
_journal_volume 632
_journal_year 2006
_journal_page_first 689
_journal_name_full 'Z.Anorg.Allg.Chem. '
loop_
_publ_author_name
"Li-Li Wen"
"Zheng-Fang Tian"
"Jian-Guo Lin"
"Hui-Zhen Zhu"
"Qing-Jin Meng"
_chemical_name_systematic
;
catena-((\m~2~-1,4-bis(imidazolylmethyl)benzene)-tetra-aqua-cobalt(ii) 
(\m~2~-1,4-bis(imidazolylmethyl)benzene)-bis(pyridine-2,6-dicarboxylato 
N-oxide)-cobalt(ii) dihydrate)
;
_cell_volume   1114.578
_exptl_crystal_colour 'orange'
_exptl_crystal_density_diffrn 1.586
_exptl_special_details
;
antiferromagnetic

;
_exptl_crystal_description 'plate'
_diffrn_ambient_temperature 293
#These two values have been output from a single CSD field.
_refine_ls_R_factor_gt 0.043
_refine_ls_wR_factor_gt 0.043
_symmetry_cell_setting triclinic
_symmetry_space_group_name_H-M 'P -1'
_symmetry_Int_Tables_number 2
loop_
_symmetry_equiv_pos_site_id
_symmetry_equiv_pos_as_xyz
1 x,y,z
2 -x,-y,-z
_cell_length_a 8.777(2)
_cell_length_b 11.448(3)
_cell_length_c 12.602(3)
_cell_angle_alpha 109.90(1)
_cell_angle_beta 107.67(1)
_cell_angle_gamma 93.65(1)
_cell_formula_units_Z 1
loop_
_atom_type_symbol
_atom_type_radius_bond
C 0.68
H 0.23
Co 1.33
N 0.68
O 0.68
loop_
_atom_site_label
_atom_site_type_symbol
_atom_site_fract_x
_atom_site_fract_y
_atom_site_fract_z
O1 O 0.6292(2) 0.42297(18) 0.12506(16)
Co1 Co 0.00000 0.50000 0.50000
Co2 Co 0.50000 0.50000 0.00000
C1 C 0.0750(4) 0.3766(3) 0.2696(3)
H1 H -0.03240 0.37160 0.22380
C2 C 0.3278(4) 0.3569(3) 0.3175(3)
H2 H 0.42750 0.33680 0.31360
C3 C 0.2938(4) 0.4147(3) 0.4173(3)
H3 H 0.36780 0.44210 0.49540
C4 C 0.1582(5) 0.2634(3) 0.0962(3)
H4 H 0.26160 0.26650 0.08330
H5 H 0.09090 0.30540 0.04970
C5 C 0.0773(3) 0.1268(3) 0.0488(3)
C6 C 0.0274(4) 0.0575(3) -0.0732(3)
H6 H 0.04560 0.09570 -0.12370
C7 C 0.0482(4) 0.0667(3) 0.1218(3)
H7 H 0.08040 0.11120 0.20440
C8 C 0.1906(3) 0.1700(2) -0.3000(2)
C9 C 0.3350(3) 0.1413(2) -0.2156(2)
C10 C 0.3959(3) 0.0328(3) -0.2486(2)
H8 H 0.34960 -0.02680 -0.32680
C11 C 0.5247(3) 0.0118(3) -0.1681(3)
H9 H 0.56720 -0.06140 -0.19090
C12 C 0.5901(3) 0.1007(3) -0.0530(3)
H10 H 0.67600 0.08670 0.00330
C13 C 0.5287(3) 0.2104(2) -0.0197(2)
C14 C 0.6028(3) 0.3086(3) 0.1077(2)
C15 C 0.4099(3) 0.6323(3) 0.2266(3)
H11 H 0.51510 0.63900 0.27720
C16 C 0.1992(3) 0.5897(3) 0.0714(3)
H12 H 0.13050 0.55940 -0.00850
C17 C 0.1564(4) 0.6508(3) 0.1663(3)
H13 H 0.05470 0.67050 0.16440
C18 C 0.3054(4) 0.7470(3) 0.3912(3)
H14 H 0.35300 0.69860 0.43860
H15 H 0.19730 0.75350 0.39480
C19 C 0.4072(3) 0.8781(3) 0.4468(2)
C20 C 0.3448(3) 0.9765(3) 0.4194(3)
H16 H 0.23990 0.96120 0.36480
C21 C 0.5640(4) 0.9035(3) 0.5279(3)
H17 H 0.60780 0.83840 0.54720
N1 N 0.1339(3) 0.4275(2) 0.3875(2)
N2 N 0.1873(3) 0.3327(2) 0.2227(2)
N3 N 0.4025(2) 0.22855(19) -0.10245(18)
N4 N 0.3600(3) 0.5782(2) 0.1096(2)
N5 N 0.2909(3) 0.6782(2) 0.2658(2)
O2 O 0.1597(3) 0.4487(2) 0.63441(18)
H18 H 0.12370 0.37360 0.62440
H19 H 0.16380 0.49910 0.70310
O3 O 0.1615(2) 0.67723(18) 0.58373(17)
H20 H 0.12780 0.72470 0.54580
H21 H 0.16530 0.71190 0.65600
O4 O 0.6384(3) 0.2640(2) 0.18654(18)
O5 O 0.2251(2) 0.22752(19) -0.36068(18)
O6 O 0.0550(2) 0.1289(2) -0.3051(2)
O7 O 0.3389(2) 0.33278(16) -0.07378(16)
O8 O 0.9845(3) 0.8614(2) 0.5968(2)
H22 H 0.88390 0.86410 0.57050
H23 H 1.04010 0.93590 0.62740
O1A O 0.3708(2) 0.57703(18) -0.12506(16)
Co1* Co 0.00000 -0.50000 -0.50000
Co2* Co 0.50000 1.50000 1.00000
C1A C -0.0750(4) -0.3766(3) -0.2696(3)
H1A H 0.03240 -0.37160 -0.22380
C2A C -0.3278(4) -0.3569(3) -0.3175(3)
H2A H -0.42750 -0.33680 -0.31360
C3A C -0.2938(4) -0.4147(3) -0.4173(3)
H3A H -0.36780 -0.44210 -0.49540
C4A C -0.1582(5) -0.2634(3) -0.0962(3)
H4A H -0.26160 -0.26650 -0.08330
H5A H -0.09090 -0.30540 -0.04970
C5A C -0.0773(3) -0.1268(3) -0.0488(3)
C6A C -0.0274(4) -0.0575(3) 0.0732(3)
H6A H -0.04560 -0.09570 0.12370
C7A C -0.0482(4) -0.0667(3) -0.1218(3)
H7A H -0.08040 -0.11120 -0.20440
C8A C 0.8094(3) 0.8300(2) 0.3000(2)
C9A C 0.6650(3) 0.8587(2) 0.2156(2)
C10A C 0.6041(3) 0.9672(3) 0.2486(2)
H8A H 0.65040 1.02680 0.32680
C11A C 0.4753(3) 0.9882(3) 0.1681(3)
H9A H 0.43280 1.06140 0.19090
C12A C 0.4099(3) 0.8993(3) 0.0530(3)
H10A H 0.32400 0.91330 -0.00330
C13A C 0.4713(3) 0.7896(2) 0.0197(2)
C14A C 0.3972(3) 0.6914(3) -0.1077(2)
C15A C 0.5901(3) 1.3677(3) 0.7734(3)
H11A H 0.48490 1.36100 0.72280
C16A C 0.8008(3) 1.4103(3) 0.9286(3)
H12A H 0.86950 1.44060 1.00850
C17A C 0.8436(4) 1.3492(3) 0.8337(3)
H13A H 0.94530 1.32950 0.83560
C18A C 0.6946(4) 1.2530(3) 0.6088(3)
H14A H 0.64700 1.30140 0.56140
H15A H 0.80270 1.24650 0.60520
C19A C 0.5928(3) 1.1219(3) 0.5532(2)
C20A C 0.6552(3) 1.0235(3) 0.5806(3)
H16A H 0.76010 1.03880 0.63520
C21A C 0.4360(4) 1.0965(3) 0.4721(3)
H17A H 0.39220 1.16160 0.45280
N1A N -0.1339(3) -0.4275(2) -0.3875(2)
N1A* N -0.1339(3) 0.5725(2) 0.6125(2)
N2A N -0.1873(3) -0.3327(2) -0.2227(2)
N3A N 0.5975(2) 0.77145(19) 0.10245(18)
N4A N 0.6400(3) 1.4218(2) 0.8904(2)
N4A* N 0.6400(3) 0.4218(2) -0.1096(2)
N5A N 0.7091(3) 1.3218(2) 0.7342(2)
O2A O -0.1597(3) 0.5513(2) 0.36559(18)
H18A H -0.12370 0.62640 0.37560
H19A H -0.16380 0.50090 0.29690
O3A O -0.1615(2) 0.32277(18) 0.41627(17)
H20A H -0.12780 0.27530 0.45420
H21A H -0.16530 0.28810 0.34400
O4A O 0.3616(3) 0.7360(2) -0.18654(18)
O5A O 0.7749(2) 0.77248(19) 0.36068(18)
O6A O 0.9450(2) 0.8711(2) 0.3051(2)
O7A O 0.6611(2) 0.66722(16) 0.07378(16)
#END
