
#######################################################################
#
#                 Cambridge Crystallographic Data Centre
#                                CCDC
#
#######################################################################
#
# If this CIF has been generated from an entry in the Cambridge
# Structural Database, then it will include bibliographic, chemical,
# crystal, experimental, refinement or atomic coordinate data resulting
# from the CCDC's data processing and validation procedures.
#
#######################################################################

data_CSD_CIF_MEFCUY01
_audit_creation_date 2017-08-29
_audit_creation_method CSD-ConQuest-V1
_database_code_CSD MEFCUY01
_database_code_depnum_ccdc_archive 'CCDC 1537258'
_chemical_formula_sum 'C6 H14 Al1 N2 Na1 O12'
_chemical_formula_moiety
;
2(H4 N1 1+),n(C6 H6 Al1 Na1 O12 2-)
;
_journal_coden_Cambridge 1220
_journal_volume 23
_journal_year 2017
_journal_page_first 9857
_journal_name_full 'Chem.-Eur.J. '
loop_
_publ_author_name
"Yao Yu"
"Ran Shang"
"Sa Chen"
"Bin-Wu Wang"
"Zhe-Ming Wang"
"Song Gao"
_chemical_name_systematic
;
catena-[bis(Ammonium) hexakis(\m-formato)-aluminium(iii)-sodium]
;
_cell_volume   1146.284
_exptl_crystal_colour 'colorless'
_exptl_crystal_density_diffrn 1.548
_exptl_crystal_description 'block'
_diffrn_ambient_temperature 180
#These two values have been output from a single CSD field.
_refine_ls_R_factor_gt 0.0262
_refine_ls_wR_factor_gt 0.0262
_symmetry_cell_setting rhombohedral
_symmetry_space_group_name_H-M 'R -3'
_symmetry_Int_Tables_number 148
loop_
_symmetry_equiv_pos_site_id
_symmetry_equiv_pos_as_xyz
1 x,y,z
2 -y,x-y,z
3 -x+y,-x,z
4 2/3+x,1/3+y,1/3+z
5 2/3-y,1/3+x-y,1/3+z
6 2/3-x+y,1/3-x,1/3+z
7 1/3+x,2/3+y,2/3+z
8 1/3-y,2/3+x-y,2/3+z
9 1/3-x+y,2/3-x,2/3+z
10 -x,-y,-z
11 y,-x+y,-z
12 x-y,x,-z
13 -2/3-x,-1/3-y,-1/3-z
14 -2/3+y,-1/3-x+y,-1/3-z
15 -2/3+x-y,-1/3+x,-1/3-z
16 -1/3-x,-2/3-y,-2/3-z
17 -1/3+y,-2/3-x+y,-2/3-z
18 -1/3+x-y,-2/3+x,-2/3-z
_cell_length_a 7.8991(4)
_cell_length_b 7.8991(4)
_cell_length_c 21.2132(13)
_cell_angle_alpha 90
_cell_angle_beta 90
_cell_angle_gamma 120
_cell_formula_units_Z 3
loop_
_atom_type_symbol
_atom_type_radius_bond
C 0.68
H 0.23
Al 1.21
N 0.68
Na 1.66
O 0.68
loop_
_atom_site_label
_atom_site_type_symbol
_atom_site_fract_x
_atom_site_fract_y
_atom_site_fract_z
Al1 Al 0.00000 0.00000 0.00000
Na1 Na 0.33330 0.66670 0.16670
O1 O 0.21149(13) 0.16974(13) 0.05244(4)
O2 O 0.39110(14) 0.44449(14) 0.10564(5)
C1 C 0.2572(2) 0.34102(19) 0.06940(6)
H1 H 0.18190 0.39400 0.05280
N1 N 0.00000 0.00000 0.19000(11)
H2 H 0.00000 0.00000 0.1477(19)
H3 H 0.029(3) 0.123(3) 0.2037(10)
O1A O -0.16974(13) 0.04175(13) 0.05244(4)
O2A O -0.44449(14) -0.05339(14) 0.10564(5)
C1A C -0.34102(20) -0.08382(19) 0.06940(6)
H1A H -0.39400 -0.21210 0.05280
O1B O -0.04175(13) -0.21149(13) 0.05244(4)
O2B O 0.05339(14) -0.39110(14) 0.10564(5)
C1B C 0.08382(20) -0.25720(19) 0.06940(6)
H1B H 0.21210 -0.18190 0.05280
O1I O -0.21149(13) -0.16974(13) -0.05244(4)
O2I O -0.39110(14) -0.44449(14) -0.10564(5)
C1I C -0.2572(2) -0.34102(19) -0.06940(6)
H1I H -0.18190 -0.39400 -0.05280
O1J O 0.16974(13) -0.04175(13) -0.05244(4)
O2J O 0.44449(14) 0.05339(14) -0.10564(5)
C1J C 0.34102(20) 0.08382(19) -0.06940(6)
H1J H 0.39400 0.21210 -0.05280
O1K O 0.04175(13) 0.21149(13) -0.05244(4)
O2K O -0.05339(14) 0.39110(14) -0.10564(5)
C1K C -0.08382(20) 0.25720(19) -0.06940(6)
H1K H -0.21210 0.18190 -0.05280
Na1* Na -0.66670 -0.33330 0.16670
Na1** Na 0.33330 -0.33330 0.16670
Na1F Na -0.33337 -0.66663 -0.16663
Na1F* Na -0.33337 0.33337 -0.16663
Na1F** Na 0.66663 0.33337 -0.16663
O2A* O 0.55551(14) 0.94661(14) 0.10564(5)
O2B* O 0.05339(14) 0.60890(14) 0.10564(5)
O2O O 0.275567(140) 0.888843(140) 0.227693(50)
O2P O 0.111157(140) 0.386723(140) 0.227693(50)
O2Q O 0.613277(140) 0.724433(140) 0.227693(50)
H3A H -0.123(3) -0.094(3) 0.2037(10)
H3B H 0.094(3) -0.029(3) 0.2037(10)
#END
