
#######################################################################
#
#                 Cambridge Crystallographic Data Centre
#                                CCDC
#
#######################################################################
#
# If this CIF has been generated from an entry in the Cambridge
# Structural Database, then it will include bibliographic, chemical,
# crystal, experimental, refinement or atomic coordinate data resulting
# from the CCDC's data processing and validation procedures.
#
#######################################################################

data_CSD_CIF_MEFCUY03
_audit_creation_date 2017-08-29
_audit_creation_method CSD-ConQuest-V1
_database_code_CSD MEFCUY03
_database_code_depnum_ccdc_archive 'CCDC 1537260'
_chemical_formula_sum 'C6 H14 Al1 N2 Na1 O12'
_chemical_formula_moiety
;
2(H4 N1 1+),n(C6 H6 Al1 Na1 O12 2-)
;
_journal_coden_Cambridge 1220
_journal_volume 23
_journal_year 2017
_journal_page_first 9857
_journal_name_full 'Chem.-Eur.J. '
loop_
_publ_author_name
"Yao Yu"
"Ran Shang"
"Sa Chen"
"Bin-Wu Wang"
"Zhe-Ming Wang"
"Song Gao"
_chemical_name_systematic
;
catena-[bis(Ammonium) hexakis(\m-formato)-aluminium(iii)-sodium]
;
_cell_volume   1160.426
_exptl_crystal_colour 'colorless'
_exptl_crystal_density_diffrn 1.529
_exptl_crystal_description 'hexagonal plate'
_diffrn_ambient_temperature 410
#These two values have been output from a single CSD field.
_refine_ls_R_factor_gt 0.0311
_refine_ls_wR_factor_gt 0.0311
_symmetry_cell_setting rhombohedral
_symmetry_space_group_name_H-M 'R -3'
_symmetry_Int_Tables_number 148
loop_
_symmetry_equiv_pos_site_id
_symmetry_equiv_pos_as_xyz
1 x,y,z
2 -y,x-y,z
3 -x+y,-x,z
4 2/3+x,1/3+y,1/3+z
5 2/3-y,1/3+x-y,1/3+z
6 2/3-x+y,1/3-x,1/3+z
7 1/3+x,2/3+y,2/3+z
8 1/3-y,2/3+x-y,2/3+z
9 1/3-x+y,2/3-x,2/3+z
10 -x,-y,-z
11 y,-x+y,-z
12 x-y,x,-z
13 -2/3-x,-1/3-y,-1/3-z
14 -2/3+y,-1/3-x+y,-1/3-z
15 -2/3+x-y,-1/3+x,-1/3-z
16 -1/3-x,-2/3-y,-2/3-z
17 -1/3+y,-2/3-x+y,-2/3-z
18 -1/3+x-y,-2/3+x,-2/3-z
_cell_length_a 7.9010(4)
_cell_length_b 7.9010(4)
_cell_length_c 21.4646(13)
_cell_angle_alpha 90
_cell_angle_beta 90
_cell_angle_gamma 120
_cell_formula_units_Z 3
loop_
_atom_type_symbol
_atom_type_radius_bond
C 0.68
H 0.23
Al 1.21
N 0.68
Na 1.66
O 0.68
loop_
_atom_site_label
_atom_site_type_symbol
_atom_site_fract_x
_atom_site_fract_y
_atom_site_fract_z
Al1 Al 0.00000 0.00000 0.00000
Na1 Na 0.33330 0.66670 0.16670
O1 O 0.20964(15) 0.17173(15) 0.05210(5)
O2 O 0.38936(18) 0.44255(19) 0.10528(6)
C1 C 0.2611(3) 0.3423(2) 0.06832(8)
H1 H 0.19430 0.39890 0.05030
N1 N 0.00000 0.00000 0.18871(17)
H2 H 0.00000 0.00000 0.150(3)
H3 H 0.036(4) 0.126(4) 0.2036(13)
O1A O -0.17173(15) 0.03791(15) 0.05210(5)
O2A O -0.44255(18) -0.05319(19) 0.10528(6)
C1A C -0.3423(3) -0.0812(2) 0.06832(8)
H1A H -0.39890 -0.20460 0.05030
O1B O -0.03791(15) -0.20964(15) 0.05210(5)
O2B O 0.05319(18) -0.38936(19) 0.10528(6)
C1B C 0.0812(3) -0.2611(2) 0.06832(8)
H1B H 0.20460 -0.19430 0.05030
O1I O -0.20964(15) -0.17173(15) -0.05210(5)
O2I O -0.38936(18) -0.44255(19) -0.10528(6)
C1I C -0.2611(3) -0.3423(2) -0.06832(8)
H1I H -0.19430 -0.39890 -0.05030
O1J O 0.17173(15) -0.03791(15) -0.05210(5)
O2J O 0.44255(18) 0.05319(19) -0.10528(6)
C1J C 0.3423(3) 0.0812(2) -0.06832(8)
H1J H 0.39890 0.20460 -0.05030
O1K O 0.03791(15) 0.20964(15) -0.05210(5)
O2K O -0.05319(18) 0.38936(19) -0.10528(6)
C1K C -0.0812(3) 0.2611(2) -0.06832(8)
H1K H -0.20460 0.19430 -0.05030
Na1* Na -0.66670 -0.33330 0.16670
Na1** Na 0.33330 -0.33330 0.16670
Na1F Na -0.33337 -0.66663 -0.16663
Na1F* Na -0.33337 0.33337 -0.16663
Na1F** Na 0.66663 0.33337 -0.16663
O2A* O 0.55745(18) 0.94681(19) 0.10528(6)
O2B* O 0.05319(18) 0.61064(19) 0.10528(6)
O2O O 0.277307(180) 0.890783(190) 0.228053(60)
O2P O 0.109217(180) 0.386523(190) 0.228053(60)
O2Q O 0.613477(180) 0.722693(190) 0.228053(60)
H3A H -0.126(4) -0.090(4) 0.2036(13)
H3B H 0.090(4) -0.036(4) 0.2036(13)
#END
