
#######################################################################
#
#                 Cambridge Crystallographic Data Centre
#                                CCDC
#
#######################################################################
#
# If this CIF has been generated from an entry in the Cambridge
# Structural Database, then it will include bibliographic, chemical,
# crystal, experimental, refinement or atomic coordinate data resulting
# from the CCDC's data processing and validation procedures.
#
#######################################################################

data_CSD_CIF_MEFDOT03
_audit_creation_date 2017-08-29
_audit_creation_method CSD-ConQuest-V1
_database_code_CSD MEFDOT03
_database_code_depnum_ccdc_archive 'CCDC 1537264'
_chemical_formula_sum 'C6 H16 Al1 N4 Na1 O12'
_chemical_formula_moiety
;
2(H5 N2 1+),n(C6 H6 Al1 Na1 O12 2-)
;
_journal_coden_Cambridge 1220
_journal_volume 23
_journal_year 2017
_journal_page_first 9857
_journal_name_full 'Chem.-Eur.J. '
loop_
_publ_author_name
"Yao Yu"
"Ran Shang"
"Sa Chen"
"Bin-Wu Wang"
"Zhe-Ming Wang"
"Song Gao"
_chemical_name_systematic
;
catena-[bis(hydrazinium) hexakis(\m-formato)-aluminium(iii)-sodium(i)]
;
_cell_volume    805.615
_exptl_crystal_colour 'colorless'
_exptl_crystal_density_diffrn 1.592
_exptl_crystal_description 'block'
_diffrn_ambient_temperature 360
#These two values have been output from a single CSD field.
_refine_ls_R_factor_gt 0.0334
_refine_ls_wR_factor_gt 0.0334
_symmetry_cell_setting monoclinic
_symmetry_space_group_name_H-M 'P 21/n'
_symmetry_Int_Tables_number 14
loop_
_symmetry_equiv_pos_site_id
_symmetry_equiv_pos_as_xyz
1 x,y,z
2 1/2-x,1/2+y,1/2-z
3 -x,-y,-z
4 -1/2+x,-1/2-y,-1/2+z
_cell_length_a 7.7909(4)
_cell_length_b 8.7733(5)
_cell_length_c 11.7878(6)
_cell_angle_alpha 90
_cell_angle_beta 90.918(4)
_cell_angle_gamma 90
_cell_formula_units_Z 2
loop_
_atom_type_symbol
_atom_type_radius_bond
C 0.68
H 0.23
Al 1.21
N 0.68
Na 1.66
O 0.68
loop_
_atom_site_label
_atom_site_type_symbol
_atom_site_fract_x
_atom_site_fract_y
_atom_site_fract_z
Al1 Al 0.50000 0.00000 0.50000
Na1 Na 0.50000 0.00000 1.00000
O1 O 0.38136(15) -0.02526(14) 0.63767(9)
O2 O 0.35283(17) -0.0460(2) 0.82284(10)
O3 O 0.57891(15) 0.19047(14) 0.5548(1)
O4 O 0.73419(19) 0.39869(17) 0.56460(13)
O5 O 0.58718(17) 0.24416(17) 0.92253(13)
O6 O 0.79800(15) 0.41125(14) 0.93647(10)
C1 C 0.4386(2) -0.0271(2) 0.73783(14)
H1 H 0.55600 -0.01280 0.74840
C2 C 0.6906(3) 0.2791(2) 0.51937(17)
H2 H 0.74560 0.25210 0.45290
C3 C 0.7242(2) 0.2897(2) 0.96196(17)
H3 H 0.77840 0.22810 1.01590
N1 N 0.4957(2) 0.4410(2) 0.74156(14)
H4 H 0.56560 0.42040 0.68460
H5 H 0.38720 0.43180 0.71770
H6 H 0.51580 0.37600 0.79820
N2 N 0.5252(4) 0.5927(3) 0.7802(2)
H7 H 0.626(2) 0.596(2) 0.817(3)
H8 H 0.444(3) 0.617(2) 0.829(2)
O1B O 0.61864(15) 0.02526(14) 0.36233(9)
O2B O 0.64717(17) 0.0460(2) 0.17716(10)
O3B O 0.42109(15) -0.19047(14) 0.4452(1)
O4B O 0.26581(19) -0.39869(17) 0.43540(13)
C1B C 0.5614(2) 0.0271(2) 0.26217(14)
H1B H 0.44400 0.01280 0.25160
C2B C 0.3094(3) -0.2791(2) 0.48063(17)
H2B H 0.25440 -0.25210 0.54710
O5C O 0.08718(17) 0.25584(17) 0.42253(13)
O6C O 0.29800(15) 0.08875(14) 0.43647(10)
C3C C 0.2242(2) 0.2103(2) 0.46196(17)
H3C H 0.27840 0.27190 0.51590
Al1A Al 1.00000 0.50000 1.00000
Na1* Na 0.50000 0.00000 0.00000
Na1A Na 0.00000 -0.50000 0.50000
Na1A* Na 0.00000 0.50000 0.50000
Na1A** Na 1.00000 0.50000 0.50000
O2B* O 0.64717(17) 0.0460(2) 1.17716(10)
O4A O 0.76581(19) -0.10131(17) 0.93540(13)
O4C O 0.23419(19) 0.10131(17) 1.06460(13)
O5B O 0.41282(17) -0.24416(17) 1.07747(13)
O6A O 0.70200(15) -0.08875(14) 0.56353(10)
#END
