
#######################################################################
#
#                 Cambridge Crystallographic Data Centre
#                                CCDC
#
#######################################################################
#
# If this CIF has been generated from an entry in the Cambridge
# Structural Database, then it will include bibliographic, chemical,
# crystal, experimental, refinement or atomic coordinate data resulting
# from the CCDC's data processing and validation procedures.
#
#######################################################################

data_CSD_CIF_MEFFIP03
_audit_creation_date 2017-08-29
_audit_creation_method CSD-ConQuest-V1
_database_code_CSD MEFFIP03
_database_code_depnum_ccdc_archive 'CCDC 1537268'
_chemical_formula_sum 'C8 H18 Al1 N2 Na1 O12'
_chemical_formula_moiety
;
2(C1 H6 N1 1+),n(C6 H6 Al1 Na1 O12 2-)
;
_journal_coden_Cambridge 1220
_journal_volume 23
_journal_year 2017
_journal_page_first 9857
_journal_name_full 'Chem.-Eur.J. '
loop_
_publ_author_name
"Yao Yu"
"Ran Shang"
"Sa Chen"
"Bin-Wu Wang"
"Zhe-Ming Wang"
"Song Gao"
_chemical_name_systematic
;
catena-[bis(methanaminium) hexakis(\m-formato)-aluminium(iii)-sodium(i)]
;
_cell_volume    828.916
_exptl_crystal_colour 'colorless'
_exptl_crystal_density_diffrn 1.539
_exptl_crystal_description 'block'
_diffrn_ambient_temperature 360
#These two values have been output from a single CSD field.
_refine_ls_R_factor_gt 0.0351
_refine_ls_wR_factor_gt 0.0351
_symmetry_cell_setting monoclinic
_symmetry_space_group_name_H-M 'P 21/n'
_symmetry_Int_Tables_number 14
loop_
_symmetry_equiv_pos_site_id
_symmetry_equiv_pos_as_xyz
1 x,y,z
2 1/2-x,1/2+y,1/2-z
3 -x,-y,-z
4 -1/2+x,-1/2-y,-1/2+z
_cell_length_a 7.9689(4)
_cell_length_b 8.7685(6)
_cell_length_c 11.8640(7)
_cell_angle_alpha 90
_cell_angle_beta 90.819(5)
_cell_angle_gamma 90
_cell_formula_units_Z 2
loop_
_atom_type_symbol
_atom_type_radius_bond
C 0.68
H 0.23
Al 1.21
N 0.68
Na 1.66
O 0.68
loop_
_atom_site_label
_atom_site_type_symbol
_atom_site_fract_x
_atom_site_fract_y
_atom_site_fract_z
Al1 Al 0.50000 0.00000 0.50000
Na1 Na 0.50000 0.00000 1.00000
O1 O 0.38489(15) -0.02549(14) 0.63727(9)
O2 O 0.35704(17) -0.03923(18) 0.82166(10)
O3 O 0.57603(14) 0.19213(14) 0.55186(10)
O4 O 0.74533(18) 0.38927(16) 0.56728(12)
O5 O 0.59305(16) 0.24694(16) 0.92481(12)
O6 O 0.80366(14) 0.41044(14) 0.93615(10)
C1 C 0.4387(2) -0.0133(2) 0.73718(14)
H1 H 0.54930 0.01790 0.74760
C2 C 0.7046(2) 0.2670(2) 0.52593(16)
H2 H 0.77380 0.22610 0.47120
C3 C 0.7237(2) 0.2958(2) 0.96799(16)
H3 H 0.76680 0.24270 1.02980
N1 N 0.4911(2) 0.4339(2) 0.73856(14)
H4 H 0.51740 0.37900 0.79930
H5 H 0.55280 0.40330 0.68090
H6 H 0.38280 0.42150 0.72160
C4 C 0.5242(4) 0.5942(3) 0.7612(2)
H7 H 0.46440 0.62520 0.82700
H8 H 0.48780 0.65430 0.69780
H9 H 0.64240 0.60880 0.77380
O1B O 0.61511(15) 0.02549(14) 0.36273(9)
O2B O 0.64296(17) 0.03923(18) 0.17834(10)
O3B O 0.42397(14) -0.19213(14) 0.44814(10)
O4B O 0.25467(18) -0.38927(16) 0.43272(12)
C1B C 0.5613(2) 0.0133(2) 0.26282(14)
H1B H 0.45070 -0.01790 0.25240
C2B C 0.2954(2) -0.2670(2) 0.47407(16)
H2B H 0.22620 -0.22610 0.52880
O5C O 0.09305(16) 0.25306(16) 0.42481(12)
O6C O 0.30366(14) 0.08956(14) 0.43615(10)
C3C C 0.2237(2) 0.2042(2) 0.46799(16)
H3C H 0.26680 0.25730 0.52980
Al1A Al 1.00000 0.50000 1.00000
Na1* Na 0.50000 0.00000 0.00000
Na1A Na 0.00000 -0.50000 0.50000
Na1A* Na 0.00000 0.50000 0.50000
Na1A** Na 1.00000 0.50000 0.50000
O2B* O 0.64296(17) 0.03923(18) 1.17834(10)
O4A O 0.75467(18) -0.11073(16) 0.93272(12)
O4C O 0.24533(18) 0.11073(16) 1.06728(12)
O5B O 0.40695(16) -0.24694(16) 1.07519(12)
O6A O 0.69634(14) -0.08956(14) 0.56385(10)
#END
