
#######################################################################
#
#                 Cambridge Crystallographic Data Centre
#                                CCDC
#
#######################################################################
#
# If this CIF has been generated from an entry in the Cambridge
# Structural Database, then it will include bibliographic, chemical,
# crystal, experimental, refinement or atomic coordinate data resulting
# from the CCDC's data processing and validation procedures.
#
#######################################################################

data_CSD_CIF_MEFGEM01
_audit_creation_date 2017-08-29
_audit_creation_method CSD-ConQuest-V1
_database_code_CSD MEFGEM01
_database_code_depnum_ccdc_archive 'CCDC 1537270'
_chemical_formula_sum 'C8 H18 Al1 N6 Na1 O12'
_chemical_formula_moiety
;
2(C1 H6 N3 1+),n(C6 H6 Al1 Na1 O12 2-)
;
_journal_coden_Cambridge 1220
_journal_volume 23
_journal_year 2017
_journal_page_first 9857
_journal_name_full 'Chem.-Eur.J. '
loop_
_publ_author_name
"Yao Yu"
"Ran Shang"
"Sa Chen"
"Bin-Wu Wang"
"Zhe-Ming Wang"
"Song Gao"
_chemical_name_systematic
;
catena-[bis(guanidinium) hexakis(\m-formato)-aluminium(iii)-sodium(i)]
;
_cell_volume    890.691
_exptl_crystal_colour 'colorless'
_exptl_crystal_density_diffrn 1.642
_exptl_crystal_description 'block'
_diffrn_ambient_temperature 180
#These two values have been output from a single CSD field.
_refine_ls_R_factor_gt 0.032
_refine_ls_wR_factor_gt 0.032
_symmetry_cell_setting monoclinic
_symmetry_space_group_name_H-M 'P 2/n'
_symmetry_Int_Tables_number 13
loop_
_symmetry_equiv_pos_site_id
_symmetry_equiv_pos_as_xyz
1 x,y,z
2 1/2-x,y,1/2-z
3 -x,-y,-z
4 -1/2+x,-y,-1/2+z
_cell_length_a 9.0067(3)
_cell_length_b 8.3612(3)
_cell_length_c 11.8307(5)
_cell_angle_alpha 90
_cell_angle_beta 91.334(4)
_cell_angle_gamma 90
_cell_formula_units_Z 2
loop_
_atom_type_symbol
_atom_type_radius_bond
C 0.68
H 0.23
Al 1.21
N 0.68
Na 1.66
O 0.68
loop_
_atom_site_label
_atom_site_type_symbol
_atom_site_fract_x
_atom_site_fract_y
_atom_site_fract_z
Al1 Al 0.25000 0.25546(7) 0.25000
Na1 Na 0.25000 0.25357(9) 0.75000
O1 O 0.14184(11) 0.25241(12) 0.38569(9)
O2 O 0.12102(12) 0.25755(15) 0.57211(10)
O3 O 0.38703(12) 0.10866(13) 0.31354(9)
O4 O 0.58940(12) -0.03996(14) 0.30313(11)
O5 O 0.43056(13) 0.42063(15) 0.67264(11)
O6 O 0.62917(11) 0.57488(12) 0.69243(9)
C1 C 0.19344(17) 0.2656(2) 0.48625(14)
H1 H 0.29720 0.28320 0.49540
C2 C 0.46620(17) 0.00052(18) 0.26868(14)
H2 H 0.42640 -0.05240 0.20370
C3 C 0.49372(17) 0.54055(19) 0.70853(14)
H3 H 0.43730 0.61350 0.75170
C4 C 0.73922(18) 0.24089(18) 0.50573(14)
N1 N 0.81311(16) 0.15467(19) 0.43159(14)
H4 H 0.91080 0.15810 0.43150
H5 H 0.76450 0.09400 0.38250
N2 N 0.59285(16) 0.23532(17) 0.50542(13)
H6 H 0.54340 0.29240 0.55440
H7 H 0.54460 0.17450 0.45620
N3 N 0.81156(15) 0.33191(18) 0.57940(13)
H8 H 0.76220 0.38900 0.62840
H9 H 0.90920 0.33550 0.57950
O1A O 0.35816(11) 0.25241(12) 0.11431(9)
O2A O 0.37898(12) 0.25755(15) -0.07211(10)
O3A O 0.11297(12) 0.10866(13) 0.18646(9)
O4A O -0.08940(12) -0.03996(14) 0.19687(11)
C1A C 0.30656(17) 0.2656(2) 0.01375(14)
H1A H 0.20280 0.28320 0.00460
C2A C 0.03380(17) 0.00052(18) 0.23132(14)
H2A H 0.07360 -0.05240 0.29630
O5C O -0.06944(13) 0.57937(15) 0.17264(11)
O6C O 0.12917(11) 0.42512(12) 0.19243(9)
C3C C -0.00628(17) 0.45945(19) 0.20853(14)
H3C H -0.06270 0.38650 0.25170
Al1B Al 0.75000 0.74454(7) 0.75000
Na1* Na 0.25000 0.25357(9) -0.25000
Na1B Na -0.25000 -0.25357(9) 0.25000
Na1B* Na -0.25000 0.74643(9) 0.25000
Na1B** Na 0.75000 -0.25357(9) 0.25000
O2A* O 0.37898(12) 0.25755(15) 0.92789(10)
O4B O 0.41060(12) 0.03996(14) 0.69687(11)
O4C O 0.08940(12) 0.03996(14) 0.80313(11)
O5A O 0.06944(13) 0.42063(15) 0.82736(11)
O6B O 0.37083(11) 0.42512(12) 0.30757(9)
#END
