
#######################################################################
#
#                 Cambridge Crystallographic Data Centre
#                                CCDC
#
#######################################################################
#
# If this CIF has been generated from an entry in the Cambridge
# Structural Database, then it will include bibliographic, chemical,
# crystal, experimental, refinement or atomic coordinate data resulting
# from the CCDC's data processing and validation procedures.
#
#######################################################################

data_CSD_CIF_MEFGEM
_audit_creation_date 2017-08-29
_audit_creation_method CSD-ConQuest-V1
_database_code_CSD MEFGEM
_database_code_depnum_ccdc_archive 'CCDC 1537269'
_chemical_formula_sum 'C8 H18 Al1 N6 Na1 O12'
_chemical_formula_moiety
;
2(C1 H6 N3 1+),n(C6 H6 Al1 Na1 O12 2-)
;
_journal_coden_Cambridge 1220
_journal_volume 23
_journal_year 2017
_journal_page_first 9857
_journal_name_full 'Chem.-Eur.J. '
loop_
_publ_author_name
"Yao Yu"
"Ran Shang"
"Sa Chen"
"Bin-Wu Wang"
"Zhe-Ming Wang"
"Song Gao"
_chemical_name_systematic
;
catena-[bis(guanidinium) hexakis(\m-formato)-aluminium(iii)-sodium(i)]
;
_cell_volume    884.867
_exptl_crystal_colour 'colorless'
_exptl_crystal_density_diffrn 1.652
_exptl_crystal_description 'block'
_diffrn_ambient_temperature 100
#These two values have been output from a single CSD field.
_refine_ls_R_factor_gt 0.0312
_refine_ls_wR_factor_gt 0.0312
_symmetry_cell_setting monoclinic
_symmetry_space_group_name_H-M 'P 2/n'
_symmetry_Int_Tables_number 13
loop_
_symmetry_equiv_pos_site_id
_symmetry_equiv_pos_as_xyz
1 x,y,z
2 1/2-x,y,1/2-z
3 -x,-y,-z
4 -1/2+x,-y,-1/2+z
_cell_length_a 9.0072(3)
_cell_length_b 8.3279(3)
_cell_length_c 11.7993(4)
_cell_angle_alpha 90
_cell_angle_beta 91.252(4)
_cell_angle_gamma 90
_cell_formula_units_Z 2
loop_
_atom_type_symbol
_atom_type_radius_bond
C 0.68
H 0.23
Al 1.21
N 0.68
Na 1.66
O 0.68
loop_
_atom_site_label
_atom_site_type_symbol
_atom_site_fract_x
_atom_site_fract_y
_atom_site_fract_z
Al1 Al 0.25000 0.25410(6) 0.25000
Na1 Na 0.25000 0.25503(8) 0.75000
O1 O 0.14068(10) 0.25085(11) 0.38553(8)
O2 O 0.12017(11) 0.25847(12) 0.57280(8)
O3 O 0.38654(10) 0.10688(12) 0.31433(8)
O4 O 0.59004(11) -0.04166(12) 0.30304(8)
O5 O 0.42952(11) 0.42222(13) 0.67133(8)
O6 O 0.62971(10) 0.57524(11) 0.69203(8)
C1 C 0.19301(15) 0.26722(17) 0.48656(12)
H1 H 0.29640 0.28780 0.49540
C2 C 0.46638(15) -0.00107(16) 0.26836(11)
H2 H 0.42710 -0.05340 0.20280
C3 C 0.49301(15) 0.54294(17) 0.70750(11)
H3 H 0.43660 0.61730 0.74990
C4 C 0.73874(15) 0.23998(16) 0.50542(11)
N1 N 0.81296(14) 0.15298(16) 0.43135(11)
H4 H 0.76450 0.09160 0.38240
H5 H 0.91060 0.15670 0.43120
N2 N 0.59185(13) 0.23454(15) 0.50568(10)
H6 H 0.54270 0.29210 0.55490
H7 H 0.54340 0.17340 0.45660
N3 N 0.81132(13) 0.33227(15) 0.57945(10)
H8 H 0.76190 0.38970 0.62860
H9 H 0.90900 0.33610 0.57950
O1A O 0.35932(10) 0.25085(11) 0.11447(8)
O2A O 0.37983(11) 0.25847(12) -0.07280(8)
O3A O 0.11346(10) 0.10688(12) 0.18567(8)
O4A O -0.09004(11) -0.04166(12) 0.19696(8)
C1A C 0.30699(15) 0.26722(17) 0.01344(12)
H1A H 0.20360 0.28780 0.00460
C2A C 0.03362(15) -0.00107(16) 0.23164(11)
H2A H 0.07290 -0.05340 0.29720
O5C O -0.07048(11) 0.57778(13) 0.17133(8)
O6C O 0.12971(10) 0.42476(11) 0.19203(8)
C3C C -0.00699(15) 0.45706(17) 0.20750(11)
H3C H -0.06340 0.38270 0.24990
Al1B Al 0.75000 0.74590(6) 0.75000
Na1* Na 0.25000 0.25503(8) -0.25000
Na1B Na -0.25000 -0.25503(8) 0.25000
Na1B* Na -0.25000 0.74497(8) 0.25000
Na1B** Na 0.75000 -0.25503(8) 0.25000
O2A* O 0.37983(11) 0.25847(12) 0.92720(8)
O4B O 0.40996(11) 0.04166(12) 0.69696(8)
O4C O 0.09004(11) 0.04166(12) 0.80304(8)
O5A O 0.07048(11) 0.42222(13) 0.82867(8)
O6B O 0.37029(10) 0.42476(11) 0.30797(8)
#END
