
#######################################################################
#
#                 Cambridge Crystallographic Data Centre
#                                CCDC
#
#######################################################################
#
# If this CIF has been generated from an entry in the Cambridge
# Structural Database, then it will include bibliographic, chemical,
# crystal, experimental, refinement or atomic coordinate data resulting
# from the CCDC's data processing and validation procedures.
#
#######################################################################

data_CSD_CIF_MEFGEM02
_audit_creation_date 2017-08-29
_audit_creation_method CSD-ConQuest-V1
_database_code_CSD MEFGEM02
_database_code_depnum_ccdc_archive 'CCDC 1537271'
_chemical_formula_sum 'C8 H18 Al1 N6 Na1 O12'
_chemical_formula_moiety
;
2(C1 H6 N3 1+),n(C6 H6 Al1 Na1 O12 2-)
;
_journal_coden_Cambridge 1220
_journal_volume 23
_journal_year 2017
_journal_page_first 9857
_journal_name_full 'Chem.-Eur.J. '
loop_
_publ_author_name
"Yao Yu"
"Ran Shang"
"Sa Chen"
"Bin-Wu Wang"
"Zhe-Ming Wang"
"Song Gao"
_chemical_name_systematic
;
catena-[bis(guanidinium) hexakis(\m-formato)-aluminium(iii)-sodium(i)]
;
_cell_volume    902.306
_exptl_crystal_colour 'colorless'
_exptl_crystal_density_diffrn 1.62
_exptl_crystal_description 'block'
_diffrn_ambient_temperature 292
#These two values have been output from a single CSD field.
_refine_ls_R_factor_gt 0.0331
_refine_ls_wR_factor_gt 0.0331
_symmetry_cell_setting monoclinic
_symmetry_space_group_name_H-M 'P 2/n'
_symmetry_Int_Tables_number 13
loop_
_symmetry_equiv_pos_site_id
_symmetry_equiv_pos_as_xyz
1 x,y,z
2 1/2-x,y,1/2-z
3 -x,-y,-z
4 -1/2+x,-y,-1/2+z
_cell_length_a 9.0170(2)
_cell_length_b 8.4224(2)
_cell_length_c 11.8844(3)
_cell_angle_alpha 90
_cell_angle_beta 91.3534(10)
_cell_angle_gamma 90
_cell_formula_units_Z 2
loop_
_atom_type_symbol
_atom_type_radius_bond
C 0.68
H 0.23
Al 1.21
N 0.68
Na 1.66
O 0.68
loop_
_atom_site_label
_atom_site_type_symbol
_atom_site_fract_x
_atom_site_fract_y
_atom_site_fract_z
Al1 Al 0.25000 0.25798(6) 0.25000
Na1 Na 0.25000 0.25064(8) 0.75000
O1 O 0.14367(11) 0.2551(1) 0.38566(8)
O2 O 0.12265(12) 0.25618(13) 0.57090(9)
O3 O 0.38759(11) 0.11193(12) 0.31229(8)
O4 O 0.58830(11) -0.03737(13) 0.30275(10)
O5 O 0.43205(12) 0.41827(14) 0.67452(10)
O6 O 0.62867(10) 0.57343(12) 0.69315(8)
C1 C 0.19400(17) 0.26488(19) 0.48592(13)
H1 H 0.29570 0.28020 0.49520
C2 C 0.46593(16) 0.00348(17) 0.26926(13)
H2 H 0.42620 -0.04920 0.20670
C3 C 0.49472(16) 0.53751(18) 0.71008(13)
H3 H 0.43960 0.60740 0.75300
C4 C 0.73955(17) 0.24132(17) 0.50575(14)
N1 N 0.81335(15) 0.15650(18) 0.43232(13)
H4 H 0.76610 0.09780 0.38430
H5 H 0.90870 0.15990 0.43250
N2 N 0.59435(15) 0.23625(16) 0.50558(12)
H6 H 0.54630 0.29150 0.55350
H7 H 0.54700 0.17770 0.45760
N3 N 0.81190(14) 0.33092(18) 0.57916(12)
H8 H 0.76390 0.38620 0.62700
H9 H 0.90720 0.33430 0.57930
O1A O 0.35633(11) 0.2551(1) 0.11434(8)
O2A O 0.37735(12) 0.25618(13) -0.07090(9)
O3A O 0.11241(11) 0.11193(12) 0.18771(8)
O4A O -0.08830(11) -0.03737(13) 0.19725(10)
C1A C 0.30600(17) 0.26488(19) 0.01408(13)
H1A H 0.20430 0.28020 0.00480
C2A C 0.03407(16) 0.00348(17) 0.23074(13)
H2A H 0.07380 -0.04920 0.29330
O5C O -0.06795(12) 0.58173(14) 0.17452(10)
O6C O 0.12867(10) 0.42657(12) 0.19315(8)
C3C C -0.00528(16) 0.46249(18) 0.21008(13)
H3C H -0.06040 0.39260 0.25300
Al1B Al 0.75000 0.74202(6) 0.75000
Na1* Na 0.25000 0.25064(8) -0.25000
Na1B Na -0.25000 -0.25064(8) 0.25000
Na1B* Na -0.25000 0.74936(8) 0.25000
Na1B** Na 0.75000 -0.25064(8) 0.25000
O2A* O 0.37735(12) 0.25618(13) 0.92910(9)
O4B O 0.41170(11) 0.03737(13) 0.69725(10)
O4C O 0.08830(11) 0.03737(13) 0.80275(10)
O5A O 0.06795(12) 0.41827(14) 0.82548(10)
O6B O 0.37133(10) 0.42657(12) 0.30685(8)
#END
