
#######################################################################
#
#                 Cambridge Crystallographic Data Centre
#                                CCDC
#
#######################################################################
#
# If this CIF has been generated from an entry in the Cambridge
# Structural Database, then it will include bibliographic, chemical,
# crystal, experimental, refinement or atomic coordinate data resulting
# from the CCDC's data processing and validation procedures.
#
#######################################################################

data_CSD_CIF_MEFGEM03
_audit_creation_date 2017-08-29
_audit_creation_method CSD-ConQuest-V1
_database_code_CSD MEFGEM03
_database_code_depnum_ccdc_archive 'CCDC 1537272'
_chemical_formula_sum 'C8 H18 Al1 N6 Na1 O12'
_chemical_formula_moiety
;
2(C1 H6 N3 1+),n(C6 H6 Al1 Na1 O12 2-)
;
_journal_coden_Cambridge 1220
_journal_volume 23
_journal_year 2017
_journal_page_first 9857
_journal_name_full 'Chem.-Eur.J. '
loop_
_publ_author_name
"Yao Yu"
"Ran Shang"
"Sa Chen"
"Bin-Wu Wang"
"Zhe-Ming Wang"
"Song Gao"
_chemical_name_systematic
;
catena-[bis(guanidinium) hexakis(\m-formato)-aluminium(iii)-sodium(i)]
;
_cell_volume    908.876
_exptl_crystal_colour 'colorless'
_exptl_crystal_density_diffrn 1.609
_exptl_crystal_description 'block'
_diffrn_ambient_temperature 380
#These two values have been output from a single CSD field.
_refine_ls_R_factor_gt 0.0372
_refine_ls_wR_factor_gt 0.0372
_symmetry_cell_setting monoclinic
_symmetry_space_group_name_H-M 'P 2/n'
_symmetry_Int_Tables_number 13
loop_
_symmetry_equiv_pos_site_id
_symmetry_equiv_pos_as_xyz
1 x,y,z
2 1/2-x,y,1/2-z
3 -x,-y,-z
4 -1/2+x,-y,-1/2+z
_cell_length_a 9.0134(5)
_cell_length_b 8.4633(6)
_cell_length_c 11.9180(7)
_cell_angle_alpha 90
_cell_angle_beta 91.385(5)
_cell_angle_gamma 90
_cell_formula_units_Z 2
loop_
_atom_type_symbol
_atom_type_radius_bond
C 0.68
H 0.23
Al 1.21
N 0.68
Na 1.66
O 0.68
loop_
_atom_site_label
_atom_site_type_symbol
_atom_site_fract_x
_atom_site_fract_y
_atom_site_fract_z
Al1 Al 0.25000 0.26001(8) 0.25000
Na1 Na 0.25000 0.24866(11) 0.75000
O1 O 0.14497(14) 0.25693(14) 0.38585(10)
O2 O 0.12383(16) 0.25466(19) 0.57025(11)
O3 O 0.38795(14) 0.11414(16) 0.31128(10)
O4 O 0.58707(15) -0.03532(17) 0.30258(13)
O5 O 0.43295(16) 0.41686(19) 0.67600(13)
O6 O 0.62781(13) 0.57259(15) 0.69387(10)
C1 C 0.1948(2) 0.2642(3) 0.48566(16)
H1 H 0.29660 0.27830 0.49510
C2 C 0.4653(2) 0.0054(2) 0.26928(16)
H2 H 0.42490 -0.04770 0.20740
C3 C 0.4952(2) 0.5346(2) 0.71143(16)
H3 H 0.44020 0.60270 0.75540
C4 C 0.7403(2) 0.2416(2) 0.50604(17)
N1 N 0.8141(2) 0.1581(3) 0.43293(18)
H4 H 0.76700 0.10020 0.38460
H5 H 0.90950 0.16140 0.43340
N2 N 0.5950(2) 0.2369(2) 0.50554(15)
H6 H 0.54700 0.29140 0.55360
H7 H 0.54770 0.17930 0.45720
N3 N 0.8121(2) 0.3296(2) 0.57992(17)
H8 H 0.76380 0.38400 0.62780
H9 H 0.90750 0.33290 0.58040
O1A O 0.35503(14) 0.25693(14) 0.11415(10)
O2A O 0.37617(16) 0.25466(19) -0.07025(11)
O3A O 0.11205(14) 0.11414(16) 0.18872(10)
O4A O -0.08707(15) -0.03532(17) 0.19742(13)
C1A C 0.3052(2) 0.2642(3) 0.01434(16)
H1A H 0.20340 0.27830 0.00490
C2A C 0.0347(2) 0.0054(2) 0.23072(16)
H2A H 0.07510 -0.04770 0.29260
O5C O -0.06705(16) 0.58314(19) 0.17600(13)
O6C O 0.12781(13) 0.42741(15) 0.19387(10)
C3C C -0.0048(2) 0.4654(2) 0.21143(16)
H3C H -0.05980 0.39730 0.25540
Al1B Al 0.75000 0.73999(8) 0.75000
Na1* Na 0.25000 0.24866(11) -0.25000
Na1B Na -0.25000 -0.24866(11) 0.25000
Na1B* Na -0.25000 0.75134(11) 0.25000
Na1B** Na 0.75000 -0.24866(11) 0.25000
O2A* O 0.37617(16) 0.25466(19) 0.92975(11)
O4B O 0.41293(15) 0.03532(17) 0.69742(13)
O4C O 0.08707(15) 0.03532(17) 0.80258(13)
O5A O 0.06705(16) 0.41686(19) 0.82400(13)
O6B O 0.37219(13) 0.42741(15) 0.30613(10)
#END
