
#######################################################################
#
#                 Cambridge Crystallographic Data Centre
#                                CCDC
#
#######################################################################
#
# If this CIF has been generated from an entry in the Cambridge
# Structural Database, then it will include bibliographic, chemical,
# crystal, experimental, refinement or atomic coordinate data resulting
# from the CCDC's data processing and validation procedures.
#
#######################################################################

data_CSD_CIF_MEFHUC
_audit_creation_date 2012-09-26
_audit_creation_method CSD-ConQuest-V1
_database_code_CSD MEFHUC
_database_code_depnum_ccdc_archive 'CCDC 890248'
_chemical_formula_sum 'C123 H93 Cl18 N3 O42 Zn6'
_chemical_formula_moiety
;
(C117 H84 N3 O42 Zn6 3-)n,3n(H1 1+),6n(C1 H1 Cl3)
;
_journal_coden_Cambridge 182
_journal_volume 48
_journal_year 2012
_journal_page_first 9370
_journal_name_full 'Chem.Commun. '
loop_
_publ_author_name
"P.V.Dau"
"K.K.Tanabe"
"S.M.Cohen"
_chemical_name_systematic
;
catena-(tris(Unknown cation) 
(\m~6~-4,4',4''-(1,3,5-triphenylene)-tris(2-hydroxybenzoato))-tris(\m~5~-4,4',
4''-(1,3,5-triphenylene)-tris(2-hydroxybenzoato))-tris(\m~3~-hydroxo)-tris(N,N
-dimethylformamide)-hexa-zinc(ii) chloroform unknown solvate)
;
_chemical_name_common
;
MOF-177-OMe
;
_cell_volume  27211.784
_exptl_crystal_colour 'colorless'
_exptl_crystal_density_diffrn 1.209
_exptl_special_details
;
The charge balancing cations were not located and their identity is unclear. 
They have represented as H atoms in the 2D diagram for charge balance
;
_exptl_crystal_description 'hexagonal'
_diffrn_ambient_temperature 200
_refine_special_details
;
O12A and O12B disordered over two sites with occupancies 0.619:0.381; The 
SQUEEZE/PLATON program has been used to model the solvent molecules and the 
cations.
;
#These two values have been output from a single CSD field.
_refine_ls_R_factor_gt 0.1084
_refine_ls_wR_factor_gt 0.1084
_symmetry_cell_setting rhombohedral
_symmetry_space_group_name_H-M 'R -3'
_symmetry_Int_Tables_number 148
loop_
_symmetry_equiv_pos_site_id
_symmetry_equiv_pos_as_xyz
1 x,y,z
2 -y,x-y,z
3 -x+y,-x,z
4 2/3+x,1/3+y,1/3+z
5 2/3-y,1/3+x-y,1/3+z
6 2/3-x+y,1/3-x,1/3+z
7 1/3+x,2/3+y,2/3+z
8 1/3-y,2/3+x-y,2/3+z
9 1/3-x+y,2/3-x,2/3+z
10 -x,-y,-z
11 y,-x+y,-z
12 x-y,x,-z
13 -2/3-x,-1/3-y,-1/3-z
14 -2/3+y,-1/3-x+y,-1/3-z
15 -2/3+x-y,-1/3+x,-1/3-z
16 -1/3-x,-2/3-y,-2/3-z
17 -1/3+y,-2/3-x+y,-2/3-z
18 -1/3+x-y,-2/3+x,-2/3-z
_cell_length_a 36.061(3)
_cell_length_b 36.061(3)
_cell_length_c 24.163(3)
_cell_angle_alpha 90
_cell_angle_beta 90
_cell_angle_gamma 120
_cell_formula_units_Z 6
loop_
_atom_type_symbol
_atom_type_radius_bond
C 0.68
H 0.23
Cl 0.99
N 0.68
O 0.68
Zn 1.22
loop_
_atom_site_label
_atom_site_type_symbol
_atom_site_fract_x
_atom_site_fract_y
_atom_site_fract_z
O1 O 0.4615(2) 1.4059(2) 0.4857(3)
O2 O 0.52333(18) 1.08652(18) 0.4562(3)
O3 O 0.4630(2) 1.0663(2) 0.5317(3)
O4 O 0.49417(17) 1.00512(16) 0.5544(2)
O5 O 0.4150(2) 1.0153(2) 0.5874(3)
O6 O 0.5672(3) 1.08445(19) 0.3933(3)
O7 O 0.4280(2) 1.4239(2) 0.5476(3)
O8 O 0.3263(3) 1.2011(3) 0.9954(3)
O9 O 0.4383(3) 1.3738(3) 0.3640(5)
O10 O 0.3792(4) 1.1911(4) 1.0126(4)
O11 O 0.3758(3) 1.0353(2) 0.6601(4)
H1 H 0.38330 1.01970 0.64480
O12 O 0.3164(4) 1.2278(5) 0.9007(5)
H2 H 0.31380 1.22620 0.93450
O13 O 0.4715(3) 1.3419(3) 0.5013(4)
H3 H 0.47440 1.36320 0.48510
C1 C 0.6355(3) 1.2171(2) 0.3827(4)
H4 H 0.66030 1.23080 0.36130
C2 C 0.5769(2) 1.1516(2) 0.4182(3)
C3 C 0.5619(3) 1.1754(3) 0.4458(4)
C4 C 0.3994(3) 1.2120(3) 0.6293(4)
H5 H 0.40210 1.21140 0.59110
C5 C 0.4218(3) 1.0835(3) 0.5895(4)
C6 C 0.5545(3) 1.1044(3) 0.4235(3)
C7 C 0.6137(3) 1.1729(3) 0.3866(4)
C8 C 0.4392(4) 1.1249(3) 0.5665(4)
H6 H 0.45630 1.13200 0.53510
C9 C 0.4428(3) 1.3321(3) 0.5452(4)
C10 C 0.6445(2) 1.2882(2) 0.4090(3)
C11 C 0.6209(2) 1.2412(2) 0.4102(3)
C12 C 0.5834(3) 1.2190(3) 0.4422(4)
H7 H 0.57300 1.23430 0.46130
C13 C 0.4397(3) 1.3989(3) 0.5282(5)
C14 C 0.6888(2) 1.3108(2) 0.4082(4)
C15 C 0.4343(3) 1.0533(3) 0.5685(4)
C16 C 0.4311(4) 1.1549(3) 0.5902(4)
H8 H 0.44440 1.18250 0.57600
C17 C 0.4274(3) 1.3592(3) 0.5613(4)
C18 C 0.3944(3) 1.0743(3) 0.6336(4)
C19 C 0.3835(4) 1.2087(4) 0.7423(5)
C20 C 0.4342(3) 1.2970(3) 0.5753(4)
H9 H 0.44580 1.28030 0.56420
C21 C 0.4087(3) 1.2854(3) 0.6221(5)
C22 C 0.4040(4) 1.1448(3) 0.6340(4)
C23 C 0.3982(3) 1.2471(3) 0.6544(4)
C24 C 0.3966(3) 1.1784(4) 0.6614(5)
C25 C 0.3862(4) 1.1042(3) 0.6550(4)
H10 H 0.36780 1.09680 0.68510
C26 C 0.3883(3) 1.2437(4) 0.7101(5)
H11 H 0.38450 1.26480 0.72680
C27 C 0.3912(3) 1.3124(3) 0.6375(5)
H12 H 0.37350 1.30590 0.66830
C28 C 0.3877(4) 1.1763(4) 0.7152(4)
H13 H 0.38410 1.15280 0.73550
C29 C 0.4115(4) 1.3344(4) 0.3757(7)
H14 H 0.39980 1.32680 0.41090
N1 N 0.4013(4) 1.3059(5) 0.3378(7)
C30 C 0.3564(5) 1.1993(5) 0.9805(6)
C31 C 0.4013(3) 1.3477(3) 0.6055(6)
H15 H 0.38950 1.36460 0.61490
C32 C 0.3427(3) 1.2152(4) 0.8856(5)
C33 C 0.3647(4) 1.2022(4) 0.9173(6)
C34 C 0.3978(6) 1.1946(8) 0.8391(5)
H16 H 0.41690 1.18730 0.82350
C35 C 0.3916(4) 1.1894(6) 0.9003(8)
H17 H 0.40470 1.17870 0.92330
C36 C 0.3768(7) 1.2589(10) 0.3556(15)
H18 H 0.37140 1.24090 0.32380
H19 H 0.39350 1.25360 0.38200
H20 H 0.35010 1.25260 0.37210
C37 C 0.3499(5) 1.2191(6) 0.8257(6)
H21 H 0.33540 1.22820 0.80250
C38 C 0.3793(4) 1.2085(5) 0.8053(5)
O14 O 0.5256(3) 1.1558(3) 0.4792(5)
H22 H 0.51510 1.12970 0.47770
Cl1 Cl 0.2724(2) 0.7938(2) 0.6101(3)
Cl2 Cl 0.2197(2) 0.8074(2) 0.5373(3)
Cl3 Cl 0.1978(4) 0.7248(4) 0.5617(5)
Cl4 Cl 0.0762(2) 0.7381(2) 0.1825(2)
Cl5 Cl 0.0077(3) 0.6580(3) 0.1444(4)
Cl6 Cl 0.0876(4) 0.6645(4) 0.1943(5)
C39 C 0.2209(5) 0.7753(5) 0.5891(8)
H23 H 0.20390 0.77540 0.62060
C40 C 0.0459(9) 0.6766(9) 0.1973(12)
H24 H 0.03230 0.67010 0.23390
C41 C 0.4232(10) 1.3160(9) 0.2850(11)
H25 H 0.41130 1.29080 0.26230
H26 H 0.41990 1.33780 0.26670
H27 H 0.45310 1.32610 0.29090
Zn1 Zn 0.48233(3) 1.02922(3) 0.48560(4)
Zn2 Zn 0.46397(4) 1.43633(3) 0.40679(4)
H28? H 0.38600 0.87260 0.63940
O15? O 0.3714(6) 0.8466(5) 0.6440(8)
O1J O 0.4059(2) 0.9444(2) 0.5143(3)
O1K O 0.0556(2) 1.4615(2) 0.5143(3)
O1B O -0.0556(2) 0.5385(2) 0.4857(3)
O2A O 0.91348(18) 1.43681(18) 0.4562(3)
O2B O 0.56319(18) 1.47667(18) 0.4562(3)
O2I O 0.47667(18) 0.91348(18) 0.5438(3)
O3J O 0.0663(2) 0.6033(2) 0.4683(3)
O3K O 0.3967(2) 1.4630(2) 0.4683(3)
O3I O 0.5370(2) 0.9337(2) 0.4683(3)
O3A O 0.9337(2) 1.3967(2) 0.5317(3)
O4I O 0.50583(17) 0.99488(16) 0.4456(2)
O4K O 0.48905(17) 1.49417(16) 0.4456(2)
O4A O 0.99488(17) 1.48905(16) 0.5544(2)
O4J O 1.00512(17) 1.51095(16) 0.4456(2)
O4J* O 0.00512(17) 0.51095(16) 0.4456(2)
O5J O 0.0153(2) 0.6003(2) 0.4126(3)
O5K O 0.3997(2) 1.4150(2) 0.4126(3)
O6A O 0.91555(30) 1.48275(19) 0.3933(3)
O6B O 0.51725(30) 1.43280(19) 0.3933(3)
O6I O 0.4328(3) 0.91555(19) 0.6067(3)
O6A* O -0.08445(30) 0.48275(19) 0.3933(3)
O7J O 0.4239(2) 0.9959(2) 0.4524(3)
O7K O 0.0041(2) 1.4280(2) 0.4524(3)
O7A O 0.5761(2) 1.0041(2) 0.5476(3)
O7K* O 1.0041(2) 1.4280(2) 0.4524(3)
O8J O 0.2011(3) 0.8748(3) 0.0046(3)
O8K O 0.1252(3) 1.3263(3) 0.0046(3)
O8D O 0.465567(300) 1.458533(300) 0.328733(300)
O8N O 0.458533(300) 0.992967(300) 0.671267(300)
O8C O -0.007033(300) 0.534433(300) 0.328733(300)
O9J O 0.3738(3) 0.9355(3) 0.6360(5)
O9B O -0.0645(3) 0.5617(3) 0.3640(5)
O10J O 0.1911(4) 0.8119(4) -0.0126(4)
O10K O 0.1881(4) 1.3792(4) -0.0126(4)
O11J O 0.0353(3) 0.6595(2) 0.3399(4)
O11K O 0.3405(3) 1.3758(2) 0.3399(4)
H1J H 0.01970 0.63640 0.35520
H1K H 0.36360 1.38330 0.35520
O12J O 0.2278(4) 0.9114(5) 0.0993(5)
O12K O 0.0886(4) 1.3164(5) 0.0993(5)
H2J H 0.22620 0.91240 0.06550
H2K H 0.08760 1.31380 0.06550
O13J O 0.3419(3) 0.8704(3) 0.4987(4)
O13K O 0.1296(3) 1.4715(3) 0.4987(4)
H3J H 0.36320 0.88880 0.51490
H3K H 0.11120 1.47440 0.51490
C1A C 0.7829(3) 1.4184(2) 0.3827(4)
C1B C 0.5816(3) 1.3645(2) 0.3827(4)
H4A H 0.76920 1.42950 0.36130
H4B H 0.57050 1.33970 0.36130
C2A C 0.8484(2) 1.4253(2) 0.4182(3)
C2B C 0.5747(2) 1.4231(2) 0.4182(3)
C3A C 0.8246(3) 1.3865(3) 0.4458(4)
C3B C 0.6135(3) 1.4381(3) 0.4458(4)
C4J C 0.2120(3) 0.8126(3) 0.3707(4)
C4K C 0.1874(3) 1.3994(3) 0.3707(4)
H5J H 0.21140 0.80930 0.40890
H5K H 0.19070 1.40210 0.40890
C5J C 0.0835(3) 0.6617(3) 0.4105(4)
C5K C 0.3383(3) 1.4218(3) 0.4105(4)
C6A C 0.8956(3) 1.4501(3) 0.4235(3)
C6B C 0.5499(3) 1.4455(3) 0.4235(3)
C7A C 0.8271(3) 1.4408(3) 0.3866(4)
C7B C 0.5592(3) 1.3863(3) 0.3866(4)
C8J C 0.1249(4) 0.6857(3) 0.4335(4)
C8K C 0.3143(4) 1.4392(3) 0.4335(4)
H6J H 0.13200 0.67570 0.46490
H6K H 0.32430 1.45630 0.46490
C9J C 0.3321(3) 0.8893(3) 0.4548(4)
C9K C 0.1107(3) 1.4428(3) 0.4548(4)
C10A C 0.7118(2) 1.3563(2) 0.4090(3)
C10B C 0.6437(2) 1.3555(2) 0.4090(3)
C11A C 0.7588(2) 1.3797(2) 0.4102(3)
C11B C 0.6203(2) 1.3791(2) 0.4102(3)
C12A C 0.7810(3) 1.3644(3) 0.4422(4)
C12B C 0.6356(3) 1.4166(3) 0.4422(4)
H7A H 0.76570 1.33870 0.46130
H7B H 0.66130 1.42700 0.46130
C13J C 0.3989(3) 0.9592(3) 0.4718(5)
C13K C 0.0408(3) 1.4397(3) 0.4718(5)
C14A C 0.6892(2) 1.3780(2) 0.4082(4)
C14B C 0.6220(2) 1.3112(2) 0.4082(4)
C15J C 0.0533(3) 0.6190(3) 0.4315(4)
C15K C 0.3810(3) 1.4343(3) 0.4315(4)
C16J C 0.1549(4) 0.7238(3) 0.4098(4)
C16K C 0.2762(4) 1.4311(3) 0.4098(4)
H8J H 0.18250 0.73810 0.42400
H8K H 0.26190 1.44440 0.42400
C17J C 0.3592(3) 0.9318(3) 0.4387(4)
C17K C 0.0682(3) 1.4274(3) 0.4387(4)
C18J C 0.0743(3) 0.6799(3) 0.3664(4)
C18K C 0.3201(3) 1.3944(3) 0.3664(4)
C19J C 0.2087(4) 0.8252(4) 0.2577(5)
C19K C 0.1748(4) 1.3835(4) 0.2577(5)
C20J C 0.2970(3) 0.8628(3) 0.4247(4)
C20K C 0.1372(3) 1.4342(3) 0.4247(4)
H9J H 0.28030 0.83450 0.43580
H9K H 0.16550 1.44580 0.43580
C21J C 0.2854(3) 0.8767(3) 0.3779(5)
C21K C 0.1233(3) 1.4087(3) 0.3779(5)
C22J C 0.1448(4) 0.7408(3) 0.3660(4)
C22K C 0.2592(4) 1.4040(3) 0.3660(4)
C23J C 0.2471(3) 0.8489(3) 0.3456(4)
C23K C 0.1511(3) 1.3982(3) 0.3456(4)
C24J C 0.1784(3) 0.7818(4) 0.3386(5)
C24K C 0.2182(3) 1.3966(4) 0.3386(5)
C25J C 0.1042(4) 0.7180(3) 0.3450(4)
C25K C 0.2820(4) 1.3862(3) 0.3450(4)
H10J H 0.09680 0.72900 0.31490
H10K H 0.27100 1.36780 0.31490
C26J C 0.2437(3) 0.8554(4) 0.2899(5)
C26K C 0.1446(3) 1.3883(4) 0.2899(5)
H11J H 0.26480 0.88030 0.27320
H11K H 0.11970 1.38450 0.27320
C27J C 0.3124(3) 0.9212(3) 0.3625(5)
C27K C 0.0788(3) 1.3912(3) 0.3625(5)
H12J H 0.30590 0.93240 0.33170
H12K H 0.06760 1.37350 0.33170
C28J C 0.1763(4) 0.7886(4) 0.2848(4)
C28K C 0.2114(4) 1.3877(4) 0.2848(4)
H13J H 0.15280 0.76870 0.26450
H13K H 0.23130 1.38410 0.26450
C29J C 0.3344(4) 0.9229(4) 0.6243(7)
C29B C -0.0771(4) 0.5885(4) 0.3757(7)
H14J H 0.32680 0.92700 0.58910
H14B H -0.07300 0.60020 0.41090
N1J N 0.3059(4) 0.9046(5) 0.6622(7)
N1B N -0.0954(4) 0.5987(5) 0.3378(7)
C30J C 0.1993(5) 0.8429(5) 0.0195(6)
C30K C 0.1571(5) 1.3564(5) 0.0195(6)
C31J C 0.3477(3) 0.9464(3) 0.3945(6)
C31K C 0.0536(3) 1.4013(3) 0.3945(6)
H15J H 0.36460 0.97510 0.38510
H15K H 0.02490 1.38950 0.38510
C32J C 0.2152(3) 0.8725(4) 0.1144(5)
C32K C 0.1275(3) 1.3427(4) 0.1144(5)
C33J C 0.2022(4) 0.8375(4) 0.0827(6)
C33K C 0.1625(4) 1.3647(4) 0.0827(6)
C34J C 0.1946(6) 0.7968(8) 0.1609(5)
C34K C 0.2032(6) 1.3978(8) 0.1609(5)
H16J H 0.18730 0.77040 0.17650
H16K H 0.22960 1.41690 0.17650
C35J C 0.1894(4) 0.7978(6) 0.0997(8)
C35K C 0.2022(4) 1.3916(6) 0.0997(8)
H17J H 0.17870 0.77400 0.07670
H17K H 0.22600 1.40470 0.07670
C36J C 0.2589(7) 0.8821(10) 0.6444(15)
C36B C -0.1179(7) 0.6232(10) 0.3556(15)
H18J H 0.24090 0.86950 0.67620
H18B H -0.13050 0.62860 0.32380
H19J H 0.25360 0.86010 0.61800
H19B H -0.13990 0.60650 0.38200
H20J H 0.25260 0.90250 0.62790
H20B H -0.09750 0.64990 0.37210
C37J C 0.2191(5) 0.8692(6) 0.1743(6)
C37K C 0.1308(5) 1.3499(6) 0.1743(6)
H21J H 0.22820 0.89280 0.19750
H21K H 0.10720 1.33540 0.19750
C38J C 0.2085(4) 0.8292(5) 0.1947(5)
C38K C 0.1708(4) 1.3793(5) 0.1947(5)
O14A O 0.8442(3) 1.3698(3) 0.4792(5)
O14B O 0.6302(3) 1.4744(3) 0.4792(5)
H22A H 0.87030 1.38540 0.47770
H22B H 0.61460 1.48490 0.47770
C41J C 0.316(1) 0.8928(9) 0.7150(11)
C41B C -0.1072(10) 0.5768(9) 0.2850(11)
H25J H 0.29080 0.87950 0.73770
H25B H -0.12050 0.58870 0.26230
H26J H 0.33780 0.91790 0.73330
H26B H -0.08210 0.58010 0.26670
H27J H 0.32610 0.87300 0.70910
H27B H -0.12700 0.54690 0.29090
Zn1I Zn 0.51767(3) 0.97078(3) 0.51440(4)
Zn1A Zn 0.97078(3) 1.45311(3) 0.48560(4)
Zn1K Zn 0.45311(3) 1.48233(3) 0.51440(4)
Zn1B Zn 0.54689(3) 1.51767(3) 0.48560(4)
Zn1J Zn 0.02922(3) 0.54689(3) 0.51440(4)
Zn1A* Zn -0.02922(3) 1.45311(3) 0.48560(4)
Zn2J Zn 0.43633(4) 0.97236(3) 0.59321(4)
Zn2B Zn -0.02764(4) 0.53603(3) 0.40679(4)
Zn2A Zn 0.56367(4) 1.02764(3) 0.40679(4)
Zn2H Zn 0.305693(40) 1.202697(30) 1.073457(40)
Zn2B* Zn 0.97236(4) 1.53603(3) 0.40679(4)
Zn2O Zn 0.202697(40) 0.897003(30) -0.073457(40)
Zn2K Zn 0.02764(4) 1.46397(3) 0.59321(4)
Zn2P Zn 0.102997(40) 1.305693(30) -0.073457(40)
#END
