
#######################################################################
#
#                 Cambridge Crystallographic Data Centre
#                                CCDC
#
#######################################################################
#
# If this CIF has been generated from an entry in the Cambridge
# Structural Database, then it will include bibliographic, chemical,
# crystal, experimental, refinement or atomic coordinate data resulting
# from the CCDC's data processing and validation procedures.
#
#######################################################################

data_CSD_CIF_MEFKIU01
_audit_creation_date 2017-08-29
_audit_creation_method CSD-ConQuest-V1
_database_code_CSD MEFKIU01
_database_code_depnum_ccdc_archive 'CCDC 1537286'
_chemical_formula_sum 'C9 H18 Al1 N2 Na1 O12.5'
_chemical_formula_moiety
;
0.5(C6 H22 N4 4+),n(C6 H6 Al1 Na1 O12 2-),0.5(H2 O1)
;
_journal_coden_Cambridge 1220
_journal_volume 23
_journal_year 2017
_journal_page_first 9857
_journal_name_full 'Chem.-Eur.J. '
loop_
_publ_author_name
"Yao Yu"
"Ran Shang"
"Sa Chen"
"Bin-Wu Wang"
"Zhe-Ming Wang"
"Song Gao"
_chemical_name_systematic
;
catena-[hemikis(N,N'-bis(2-ammonioethyl)ethane-1,2-diaminium) 
hexakis(\m-formato)-aluminium(iii)-sodium(i) hemihydrate]
;
_cell_volume   1313.749
_exptl_crystal_colour 'colorless'
_exptl_crystal_density_diffrn 1.533
_exptl_crystal_description 'trigonal plate'
_diffrn_ambient_temperature 290
_refine_special_details
;
C4,C5,C6,N1,N2,O7 disordered by symmetry over two configurations with 
occupancy 0.50.
;
#These two values have been output from a single CSD field.
_refine_ls_R_factor_gt 0.0468
_refine_ls_wR_factor_gt 0.0468
_symmetry_cell_setting hexagonal
_symmetry_space_group_name_H-M 'P 32 1 2'
_symmetry_Int_Tables_number 153
loop_
_symmetry_equiv_pos_site_id
_symmetry_equiv_pos_as_xyz
1 x,y,z
2 -y,x-y,2/3+z
3 -x+y,-x,1/3+z
4 -y,-x,1/3-z
5 -x+y,y,2/3-z
6 x,x-y,-z
_cell_length_a 8.1821(4)
_cell_length_b 8.1821(4)
_cell_length_c 22.6596(15)
_cell_angle_alpha 90
_cell_angle_beta 90
_cell_angle_gamma 120
_cell_formula_units_Z 3
loop_
_atom_type_symbol
_atom_type_radius_bond
C 0.68
H 0.23
Al 1.21
N 0.68
Na 1.66
O 0.68
loop_
_atom_site_label
_atom_site_type_symbol
_atom_site_fract_x
_atom_site_fract_y
_atom_site_fract_z
Al1 Al 0.67094(6) 0.32906(6) 0.16670
Na1 Na -0.00855(17) -0.00428(9) 0.00000
O1 O 0.2233(3) 0.2170(3) 0.06543(11)
O2 O 0.4759(3) 0.3284(3) 0.12220(8)
O3 O -0.0033(4) 0.2525(3) -0.05335(11)
O4 O -0.1431(3) 0.3543(3) -0.11410(8)
O5 O -0.2634(3) -0.0314(3) 0.06268(11)
O6 O -0.3497(3) 0.1228(2) 0.12247(8)
C1 C 0.3444(5) 0.2054(4) 0.09129(15)
H1 H 0.34070 0.09030 0.08810
C2 C -0.1316(4) 0.2301(4) -0.08536(13)
H2 H -0.23210 0.10740 -0.08890
C3 C -0.2320(4) 0.1091(4) 0.09027(14)
H3 H -0.11180 0.21420 0.08730
N1 N 0.4018(8) 0.6471(7) 0.0925(3)
N2 N 0.3295(6) 0.7093(7) 0.0810(2)
C4 C 0.3131(11) 0.5957(11) 0.1335(3)
C5 C 0.2942(11) 0.6654(11) 0.1438(4)
O7 O 0.1670(9) 0.5835(5) 0.00000
C6? C 0.3272(8) 0.6094(10) 0.0275(3)
O1C O 0.7830(3) 0.7767(3) 0.267903(110)
O2C O 0.6716(3) 0.5241(3) 0.211133(80)
C1C C 0.7946(5) 0.6556(4) 0.242043(150)
H1C H 0.90970 0.65930 0.24523
O3E O 0.9967(4) 0.7442(3) 0.05335(11)
O4E O 0.8569(3) 0.5026(3) 0.11410(8)
C2E C 0.8684(4) 0.6383(4) 0.08536(13)
H2E H 0.76790 0.66050 0.08890
O5C O 1.0314(3) 0.2634(3) 0.270653(110)
O6C O 0.8772(3) 0.3497(2) 0.210863(80)
C3C C 0.8909(4) 0.2320(4) 0.243063(140)
H3C H 0.78580 0.11180 0.24603
Al1* Al -0.32906(6) 0.32906(6) 0.16670
Al1A Al -0.32906(6) 0.34188(6) -0.16663
Na1* Na 0.99145(17) 0.99572(9) 0.00000
Na1B Na 1.00427(17) 0.00855(9) 0.33333
Na1B* Na 1.00427(17) 1.00855(9) 0.33333
O1E O 0.2233(3) 0.0063(3) -0.06543(11)
O3E* O -0.0033(4) -0.2558(3) 0.05335(11)
O4B O 0.4974(3) 0.1431(3) 0.219233(80)
O5E O -0.2634(3) -0.2320(3) -0.06268(11)
O6* O 0.6503(3) 0.1228(2) 0.12247(8)
N1C N 0.3529(8) 0.5982(7) 0.240833(300)
N2C N 0.2907(6) 0.6705(7) 0.252333(200)
C4C C 0.4043(11) 0.6869(11) 0.199833(300)
C5C C 0.3346(11) 0.7058(11) 0.189533(400)
#END
