
#######################################################################
#
#                 Cambridge Crystallographic Data Centre
#                                CCDC
#
#######################################################################
#
# If this CIF has been generated from an entry in the Cambridge
# Structural Database, then it will include bibliographic, chemical,
# crystal, experimental, refinement or atomic coordinate data resulting
# from the CCDC's data processing and validation procedures.
#
#######################################################################

data_CSD_CIF_MEFKUG02
_audit_creation_date 2017-08-29
_audit_creation_method CSD-ConQuest-V1
_database_code_CSD MEFKUG02
_database_code_depnum_ccdc_archive 'CCDC 1537289'
_chemical_formula_sum 'C10 H20 Al1 N2 Na1 O12'
_chemical_formula_moiety
;
C4 H14 N2 2+,n(C6 H6 Al1 Na1 O12 2-)
;
_journal_coden_Cambridge 1220
_journal_volume 23
_journal_year 2017
_journal_page_first 9857
_journal_name_full 'Chem.-Eur.J. '
loop_
_publ_author_name
"Yao Yu"
"Ran Shang"
"Sa Chen"
"Bin-Wu Wang"
"Zhe-Ming Wang"
"Song Gao"
_chemical_name_systematic
;
catena-[(N,N'-dimethylethane-1,2-diaminium) 
hexakis(\m-formato)-aluminium(iii)-sodium(i)]
;
_cell_volume   1762.713
_exptl_crystal_colour 'colorless'
_exptl_crystal_density_diffrn 1.546
_exptl_special_details
;
low-temperature polymorph
phase transition around 328 K.

;
_exptl_crystal_description 'column'
_diffrn_ambient_temperature 293
#These two values have been output from a single CSD field.
_refine_ls_R_factor_gt 0.0376
_refine_ls_wR_factor_gt 0.0376
_symmetry_cell_setting monoclinic
_symmetry_space_group_name_H-M 'P 21/c'
_symmetry_Int_Tables_number 14
loop_
_symmetry_equiv_pos_site_id
_symmetry_equiv_pos_as_xyz
1 x,y,z
2 -x,1/2+y,1/2-z
3 -x,-y,-z
4 x,-1/2-y,-1/2+z
_cell_length_a 8.1388(2)
_cell_length_b 14.5283(3)
_cell_length_c 14.9101(4)
_cell_angle_alpha 90
_cell_angle_beta 91.0594(10)
_cell_angle_gamma 90
_cell_formula_units_Z 4
loop_
_atom_type_symbol
_atom_type_radius_bond
C 0.68
H 0.23
Al 1.21
N 0.68
Na 1.66
O 0.68
loop_
_atom_site_label
_atom_site_type_symbol
_atom_site_fract_x
_atom_site_fract_y
_atom_site_fract_z
Al1 Al 0.72879(6) 0.42108(4) 0.25540(4)
Na1 Na 0.22471(8) 0.25477(4) 0.00534(4)
O1 O 0.53794(14) 0.43121(8) 0.17996(8)
O2 O 0.32750(15) 0.38100(9) 0.09765(9)
O3 O 0.63205(14) 0.51833(8) 0.32065(8)
O4 O 0.62292(16) 0.64980(9) 0.39479(9)
O5 O 0.91679(15) 0.42266(8) 0.32957(8)
O6 O 1.10552(17) 0.36508(10) 0.4221(1)
O7 O 0.80802(15) 0.32151(8) 0.18502(8)
O8 O 0.98329(17) 0.24478(9) 0.10259(9)
O9 O 0.63231(15) 0.33117(8) 0.32793(9)
O10 O 0.45626(18) 0.25587(10) 0.4118(1)
O11 O 0.84421(14) 0.50561(8) 0.18137(8)
O12 O 0.89133(16) 0.62345(10) 0.0922(1)
C1 C 0.4595(2) 0.36999(13) 0.13794(13)
H1 H 0.50500 0.31130 0.13720
C2 C 0.6979(2) 0.58545(14) 0.36203(13)
H2 H 0.81180 0.58580 0.36790
C3 C 0.9908(2) 0.35778(14) 0.37114(14)
H3 H 0.95170 0.29850 0.36080
C4 C 0.9459(2) 0.31102(14) 0.14794(13)
H4 H 1.02390 0.35720 0.15600
C5 C 0.4954(2) 0.31751(14) 0.36303(14)
H5 H 0.41410 0.36060 0.34950
C6 C 0.8001(2) 0.57648(14) 0.13801(13)
H6 H 0.69060 0.59420 0.14110
C7 C 0.2754(3) 0.60028(17) 0.03976(14)
H7 H 0.24830 0.66450 0.03680
H8 H 0.22280 0.56860 -0.00940
H9 H 0.39230 0.59290 0.03630
C8 C 0.2833(2) 0.60940(14) 0.20515(13)
H10 H 0.24280 0.67220 0.20550
H11 H 0.40230 0.61170 0.20270
C9 C 0.2341(2) 0.56222(14) 0.29028(13)
H12 H 0.11580 0.55410 0.28990
H13 H 0.28440 0.50170 0.29310
C10 C 0.2563(3) 0.56827(17) 0.45583(15)
H14 H 0.14190 0.55330 0.46050
H15 H 0.28850 0.60810 0.50450
H16 H 0.32040 0.51280 0.45850
N1 N 0.21841(19) 0.56181(11) 0.12491(11)
H17 H 0.24790 0.50220 0.12790
H18 H 0.10790 0.56420 0.12520
N2 N 0.2843(2) 0.61536(11) 0.36971(11)
H19 H 0.22880 0.66900 0.36940
H20 H 0.39190 0.62870 0.36590
Na1* Na 1.22471(8) 0.25477(4) 0.00534(4)
Na1A Na 0.77529(8) 0.75477(4) 0.49466(4)
Na1B Na 0.77529(8) 0.74523(4) -0.00534(4)
Na1C Na 0.22471(8) 0.24523(4) 0.50534(4)
Na1C* Na 1.22471(8) 0.24523(4) 0.50534(4)
O4A O 0.37708(16) 0.14980(9) 0.10521(9)
O6C O 0.10552(17) 0.13492(10) -0.0779(1)
O8* O -0.01671(17) 0.24478(9) 0.10259(9)
O10C O 0.45626(18) 0.24413(10) -0.0882(1)
O12B O 0.10867(16) 0.37655(10) -0.0922(1)
#END
