
#######################################################################
#
#                 Cambridge Crystallographic Data Centre
#                                CCDC
#
#######################################################################
#
# If this CIF has been generated from an entry in the Cambridge
# Structural Database, then it will include bibliographic, chemical,
# crystal, experimental, refinement or atomic coordinate data resulting
# from the CCDC's data processing and validation procedures.
#
#######################################################################

data_CSD_CIF_MEFKIU
_audit_creation_date 2017-08-29
_audit_creation_method CSD-ConQuest-V1
_database_code_CSD MEFKIU
_database_code_depnum_ccdc_archive 'CCDC 1537285'
_chemical_formula_sum 'C9 H18 Al1 N2 Na1 O12.5'
_chemical_formula_moiety
;
0.5(C6 H22 N4 4+),n(C6 H6 Al1 Na1 O12 2-),0.5(H2 O1)
;
_journal_coden_Cambridge 1220
_journal_volume 23
_journal_year 2017
_journal_page_first 9857
_journal_name_full 'Chem.-Eur.J. '
loop_
_publ_author_name
"Yao Yu"
"Ran Shang"
"Sa Chen"
"Bin-Wu Wang"
"Zhe-Ming Wang"
"Song Gao"
_chemical_name_systematic
;
catena-[hemikis(N,N'-bis(2-ammonioethyl)ethane-1,2-diaminium) 
hexakis(\m-formato)-aluminium(iii)-sodium(i) hemihydrate]
;
_cell_volume   1308.472
_exptl_crystal_colour 'colorless'
_exptl_crystal_density_diffrn 1.539
_exptl_crystal_description 'trigonal plate'
_diffrn_ambient_temperature 180
_refine_special_details
;
C4,C5,C6,N1,N2,O7 disordered by symmetry over two configurations with 
occupancy 0.50.
;
#These two values have been output from a single CSD field.
_refine_ls_R_factor_gt 0.0428
_refine_ls_wR_factor_gt 0.0428
_symmetry_cell_setting hexagonal
_symmetry_space_group_name_H-M 'P 32 1 2'
_symmetry_Int_Tables_number 153
loop_
_symmetry_equiv_pos_site_id
_symmetry_equiv_pos_as_xyz
1 x,y,z
2 -y,x-y,2/3+z
3 -x+y,-x,1/3+z
4 -y,-x,1/3-z
5 -x+y,y,2/3-z
6 x,x-y,-z
_cell_length_a 8.1643(3)
_cell_length_b 8.1643(3)
_cell_length_c 22.6671(12)
_cell_angle_alpha 90
_cell_angle_beta 90
_cell_angle_gamma 120
_cell_formula_units_Z 3
loop_
_atom_type_symbol
_atom_type_radius_bond
C 0.68
H 0.23
Al 1.21
N 0.68
Na 1.66
O 0.68
loop_
_atom_site_label
_atom_site_type_symbol
_atom_site_fract_x
_atom_site_fract_y
_atom_site_fract_z
Al1 Al 0.67115(6) 0.32885(6) 0.16670
O1 O 0.4755(2) 0.3283(3) 0.12240(7)
O2 O 0.8570(2) 0.5013(3) 0.11383(7)
O3 O 0.8786(2) 0.3504(2) 0.21064(7)
C1 C 0.3428(4) 0.2024(4) 0.09162(13)
C2 C 0.8675(4) 0.6386(6) 0.08536(11)
C3 C 0.8912(3) 0.2313(3) 0.24301(11)
O4 O 0.2207(3) 0.2148(3) 0.06581(9)
H1 H 0.33930 0.08460 0.08860
O5 O 0.9962(4) 0.7443(5) 0.05285(9)
H2 H 0.76530 0.66210 0.08960
O6 O 1.0334(3) 0.2639(3) 0.27064(9)
H3 H 0.78350 0.10850 0.24610
Na1 Na -0.00979(15) -0.00490(7) 0.00000
N1 N 0.4023(6) 0.6464(6) 0.09282(19)
N2 N 0.3284(5) 0.7076(6) 0.0809(2)
C4 C 0.3101(8) 0.5940(8) 0.1338(2)
C5 C 0.2959(9) 0.6661(8) 0.1440(3)
O7 O 0.1661(7) 0.5830(4) 0.00000
C6? C 0.3262(7) 0.6075(7) 0.0273(2)
O1C O 0.6717(2) 0.5245(3) 0.210933(70)
O2C O 0.4987(2) 0.1430(3) 0.219503(70)
O3C O 0.6496(2) 0.1214(2) 0.122693(70)
C1C C 0.7976(4) 0.6572(4) 0.241713(130)
O4C O 0.7852(3) 0.7793(3) 0.267523(90)
H1C H 0.91540 0.66070 0.24473
Na1* Na 0.99021(15) 0.99510(7) 0.00000
Na1B Na 1.00489(15) 0.00979(7) 0.33333
Na1B* Na 1.00489(15) 1.00979(7) 0.33333
O4B O 0.9941(3) -0.2207(3) 0.399143(90)
O6D O 1.2305(3) 0.2639(3) 0.396027(90)
O5C O 1.2557(4) 0.0038(5) 0.280483(90)
O4C* O 0.7852(3) -0.2207(3) 0.267523(90)
O5B O 0.7481(4) 0.0038(5) 0.386183(90)
C1B C 0.8596(4) -0.3428(4) 0.424953(130)
C2B C 0.7711(4) 0.1325(6) 0.418693(110)
O1B O 0.8528(2) -0.4755(3) 0.455733(70)
H1B H 0.74530 -0.33930 0.42193
O2B O 0.6443(2) 0.1430(3) 0.447163(70)
H2B H 0.89680 0.23470 0.42293
Al1B Al 0.65770(6) -0.67115(6) 0.50003
Al1B* Al 0.65770(6) 0.32885(6) 0.50003
N1C N 0.3536(6) 0.5977(6) 0.240513(190)
N2C N 0.2924(5) 0.6716(6) 0.252433(200)
C4C C 0.4060(8) 0.6899(8) 0.199533(200)
C5C C 0.3339(9) 0.7041(8) 0.189333(300)
#END
