
#######################################################################
#
#                 Cambridge Crystallographic Data Centre
#                                CCDC
#
#######################################################################
#
# If this CIF has been generated from an entry in the Cambridge
# Structural Database, then it will include bibliographic, chemical,
# crystal, experimental, refinement or atomic coordinate data resulting
# from the CCDC's data processing and validation procedures.
#
#######################################################################

data_CSD_CIF_MEFLUH03
_audit_creation_date 2017-08-29
_audit_creation_method CSD-ConQuest-V1
_database_code_CSD MEFLUH03
_database_code_depnum_ccdc_archive 'CCDC 1537295'
_chemical_formula_sum 'C9 H18 Al1 N2 Na1 O12'
_chemical_formula_moiety
;
C3 H12 N2 2+,n(C6 H6 Al1 Na1 O12 2-)
;
_journal_coden_Cambridge 1220
_journal_volume 23
_journal_year 2017
_journal_page_first 9857
_journal_name_full 'Chem.-Eur.J. '
loop_
_publ_author_name
"Yao Yu"
"Ran Shang"
"Sa Chen"
"Bin-Wu Wang"
"Zhe-Ming Wang"
"Song Gao"
_chemical_name_systematic
;
catena-[(propane-1,3-diaminium) hexakis(\m-formato)-aluminium(iii)-sodium(i)]
;
_cell_volume   1679.243
_exptl_crystal_colour 'colorless'
_exptl_crystal_density_diffrn 1.567
_exptl_crystal_description 'block'
_diffrn_ambient_temperature 290
_refine_special_details
;
The structure is disordered.

;
#These two values have been output from a single CSD field.
_refine_ls_R_factor_gt 0.0452
_refine_ls_wR_factor_gt 0.0452
_symmetry_cell_setting monoclinic
_symmetry_space_group_name_H-M 'P 21/c'
_symmetry_Int_Tables_number 14
loop_
_symmetry_equiv_pos_site_id
_symmetry_equiv_pos_as_xyz
1 x,y,z
2 -x,1/2+y,1/2-z
3 -x,-y,-z
4 x,-1/2-y,-1/2+z
_cell_length_a 8.2471(2)
_cell_length_b 14.3585(4)
_cell_length_c 14.1812(4)
_cell_angle_alpha 90
_cell_angle_beta 90.386(3)
_cell_angle_gamma 90
_cell_formula_units_Z 4
loop_
_atom_type_symbol
_atom_type_radius_bond
C 0.68
H 0.23
Al 1.21
N 0.68
Na 1.66
O 0.68
loop_
_atom_site_label
_atom_site_type_symbol
_atom_site_fract_x
_atom_site_fract_y
_atom_site_fract_z
Al1 Al 0.73970(7) 0.42015(4) 0.26724(4)
Na1 Na 0.23928(9) 0.27448(6) 0.00520(5)
O1 O 0.55047(17) 0.43536(10) 0.19369(11)
O2 O 0.3499(2) 0.40312(12) 0.09537(13)
O3 O 0.65045(19) 0.50962(11) 0.35078(10)
O4 O 0.6211(2) 0.65024(12) 0.41184(13)
O5 O 0.92308(19) 0.41404(11) 0.34747(11)
O6 O 1.1342(2) 0.34952(14) 0.41781(14)
O7 O 0.81784(18) 0.32705(10) 0.18535(11)
O8 O 0.9981(3) 0.25831(14) 0.09456(15)
O9 O 0.65054(19) 0.32269(11) 0.34036(11)
O10 O 0.4892(2) 0.22481(11) 0.41241(13)
O11 O 0.85165(18) 0.51194(10) 0.19909(10)
O12 O 0.9143(2) 0.61603(13) 0.09175(14)
C1 C 0.4755(3) 0.38297(16) 0.13784(17)
H1 H 0.51840 0.32390 0.12770
C2 C 0.6944(3) 0.59180(17) 0.36868(19)
H2 H 0.79530 0.60940 0.34590
C3 C 1.0134(3) 0.34648(17) 0.36955(17)
H3 H 0.98370 0.28830 0.34620
C4 C 0.9494(3) 0.32299(17) 0.14028(18)
H4 H 1.01550 0.37550 0.14270
C5 C 0.5171(3) 0.29606(17) 0.36821(18)
H5 H 0.42880 0.33400 0.35420
C6 C 0.8197(3) 0.56389(18) 0.1317(2)
H6 H 0.71350 0.56310 0.10930
N1 N 0.2581(2) 0.59234(14) 0.13960(13)
H7 H 0.33600 0.61330 0.10200
H8 H 0.16580 0.62190 0.12640
H9 H 0.24470 0.53150 0.13050
C7 C 0.3053(4) 0.6101(2) 0.24202(19)
H10 H 0.41000 0.58200 0.25530
H11 H 0.31410 0.67660 0.25310
C8 C 0.1815(7) 0.5699(4) 0.3052(4)
H12 H 0.13910 0.51350 0.27660
H13 H 0.09240 0.61370 0.31050
C9 C 0.2449(8) 0.5463(4) 0.4060(4)
H14 H 0.16360 0.51250 0.44130
H15 H 0.34250 0.50870 0.40290
N2 N 0.2797(5) 0.6377(3) 0.4508(3)
H16 H 0.31940 0.62870 0.50850
H17 H 0.18850 0.67070 0.45420
H18 H 0.35180 0.66850 0.41640
N3? N 0.2581(2) 0.59234(14) 0.13960(13)
H19? H 0.31580 0.62930 0.10230
H20? H 0.15300 0.60420 0.13150
H21? H 0.27780 0.53310 0.12520
C10? C 0.3053(4) 0.6101(2) 0.24202(19)
H22? H 0.42030 0.59890 0.25130
H23? H 0.28210 0.67420 0.25890
C11? C 0.2076(13) 0.5444(7) 0.3023(5)
H24? H 0.25660 0.48300 0.30320
H25? H 0.09760 0.53910 0.27830
C12? C 0.2084(10) 0.5886(6) 0.4055(4)
H26? H 0.25320 0.65100 0.40690
H27? H 0.10200 0.58810 0.43420
N4? N 0.3202(7) 0.5181(4) 0.4477(4)
H28? H 0.33560 0.53080 0.50850
H29? H 0.41490 0.51980 0.41790
H30? H 0.27690 0.46160 0.44170
N5? N 0.2581(2) 0.59234(14) 0.13960(13)
H31? H 0.19480 0.62150 0.09790
H32? H 0.25640 0.53140 0.12820
H33? H 0.35910 0.61340 0.13470
C13? C 0.1966(13) 0.6106(7) 0.2382(5)
H34? H 0.22480 0.67330 0.25780
H35? H 0.07950 0.60430 0.23970
C14? C 0.2738(17) 0.5411(8) 0.3025(6)
H36? H 0.38250 0.52720 0.28110
H37? H 0.21150 0.48380 0.30190
C15? C 0.2807(14) 0.5804(11) 0.4027(7)
H38? H 0.35900 0.54570 0.43990
H39? H 0.31500 0.64500 0.40080
N6? N 0.1179(11) 0.5738(7) 0.4468(7)
H40? H 0.12190 0.59820 0.50440
H41? H 0.08850 0.51420 0.45050
H42? H 0.04600 0.60480 0.41190
N7? N 0.2581(2) 0.59234(14) 0.13960(13)
H43? H 0.26150 0.54890 0.09480
H44? H 0.34810 0.62650 0.13770
H45? H 0.17230 0.62890 0.13010
C16? C 0.245(3) 0.5459(12) 0.2355(7)
H46? H 0.13980 0.51630 0.24170
H47? H 0.32810 0.49850 0.24230
C17? C 0.266(3) 0.6196(13) 0.3098(8)
H48? H 0.20660 0.67480 0.29100
H49? H 0.38000 0.63610 0.31430
C18? C 0.2084(10) 0.5886(6) 0.4055(4)
H50? H 0.20170 0.64210 0.44700
H51? H 0.10060 0.56200 0.39950
N8? N 0.3202(7) 0.5181(4) 0.4477(4)
H52? H 0.27560 0.49420 0.49930
H53? H 0.41390 0.54510 0.46280
H54? H 0.33780 0.47280 0.40610
Na1* Na 1.23928(9) 0.27448(6) 0.00520(5)
Na1A Na 0.76072(9) 0.77448(6) 0.49480(5)
Na1B Na 0.76072(9) 0.72552(6) -0.00520(5)
Na1C Na 0.23928(9) 0.22552(6) 0.50520(5)
Na1C* Na 1.23928(9) 0.22552(6) 0.50520(5)
O4A O 0.3789(2) 0.15024(12) 0.08816(13)
O6C O 0.1342(2) 0.15048(14) -0.08219(14)
O8* O -0.0019(3) 0.25831(14) 0.09456(15)
O10C O 0.4892(2) 0.27519(11) -0.08759(13)
O12B O 0.0857(2) 0.38397(13) -0.09175(14)
#END
