
#######################################################################
#
#                 Cambridge Crystallographic Data Centre
#                                CCDC
#
#######################################################################
#
# If this CIF has been generated from an entry in the Cambridge
# Structural Database, then it will include bibliographic, chemical,
# crystal, experimental, refinement or atomic coordinate data resulting
# from the CCDC's data processing and validation procedures.
#
#######################################################################

data_CSD_CIF_MEFLUH02
_audit_creation_date 2017-08-29
_audit_creation_method CSD-ConQuest-V1
_database_code_CSD MEFLUH02
_database_code_depnum_ccdc_archive 'CCDC 1537294'
_chemical_formula_sum 'C9 H18 Al1 N2 Na1 O12'
_chemical_formula_moiety
;
C3 H12 N2 2+,n(C6 H6 Al1 Na1 O12 2-)
;
_journal_coden_Cambridge 1220
_journal_volume 23
_journal_year 2017
_journal_page_first 9857
_journal_name_full 'Chem.-Eur.J. '
loop_
_publ_author_name
"Yao Yu"
"Ran Shang"
"Sa Chen"
"Bin-Wu Wang"
"Zhe-Ming Wang"
"Song Gao"
_chemical_name_systematic
;
catena-[(propane-1,3-diaminium) hexakis(\m-formato)-aluminium(iii)-sodium(i)]
;
_cell_volume   1673.301
_exptl_crystal_colour 'colorless'
_exptl_crystal_density_diffrn 1.573
_exptl_crystal_description 'block'
_diffrn_ambient_temperature 220
_refine_special_details
;
C18,C19,N12 and C28,C29,N22 disordered over two sites with occupancies 
0.902:0.098.
;
#These two values have been output from a single CSD field.
_refine_ls_R_factor_gt 0.0359
_refine_ls_wR_factor_gt 0.0359
_symmetry_cell_setting monoclinic
_symmetry_space_group_name_H-M 'P 21/c'
_symmetry_Int_Tables_number 14
loop_
_symmetry_equiv_pos_site_id
_symmetry_equiv_pos_as_xyz
1 x,y,z
2 -x,1/2+y,1/2-z
3 -x,-y,-z
4 x,-1/2-y,-1/2+z
_cell_length_a 8.1783(2)
_cell_length_b 14.4588(3)
_cell_length_c 14.1509(3)
_cell_angle_alpha 90
_cell_angle_beta 90.280(2)
_cell_angle_gamma 90
_cell_formula_units_Z 4
loop_
_atom_type_symbol
_atom_type_radius_bond
C 0.68
H 0.23
Al 1.21
N 0.68
Na 1.66
O 0.68
loop_
_atom_site_label
_atom_site_type_symbol
_atom_site_fract_x
_atom_site_fract_y
_atom_site_fract_z
Al1 Al 0.72597(5) 0.42425(3) 0.27174(3)
Na1 Na 0.22541(7) 0.27665(4) 0.00625(4)
O1 O 0.53621(13) 0.43923(8) 0.19654(8)
O2 O 0.33555(15) 0.40546(9) 0.09690(9)
O3 O 0.63527(14) 0.51553(8) 0.35187(8)
O4 O 0.62078(15) 0.65820(8) 0.40919(9)
O5 O 0.90856(13) 0.41562(8) 0.35243(8)
O6 O 1.11887(16) 0.34763(9) 0.4229(1)
O7 O 0.80117(13) 0.33031(8) 0.18862(8)
O8 O 0.97806(17) 0.26274(9) 0.09327(10)
O9 O 0.63285(14) 0.32833(8) 0.34596(8)
O10 O 0.47512(15) 0.22367(8) 0.41239(9)
O11 O 0.84391(14) 0.51334(8) 0.20324(8)
O12 O 0.91642(15) 0.61752(9) 0.09733(10)
C1 C 0.4614(2) 0.38596(12) 0.14074(13)
H1 H 0.50520 0.32650 0.13180
C2 C 0.6970(2) 0.59192(12) 0.37800(12)
H2 H 0.81110 0.59830 0.37300
C3 C 0.9977(2) 0.34644(11) 0.37343(12)
H3 H 0.96660 0.28890 0.34810
C4 C 0.9376(2) 0.32538(12) 0.14647(13)
H4 H 1.01310 0.37340 0.15690
C5 C 0.4957(2) 0.29333(12) 0.36443(12)
H5 H 0.40240 0.32270 0.33970
C6 C 0.8160(2) 0.56596(13) 0.13530(14)
H6 H 0.70900 0.56640 0.11080
N1 N 0.26146(17) 0.59603(10) 0.14177(10)
H7 H 0.34250 0.61790 0.10520
H8 H 0.16810 0.62630 0.12820
H9 H 0.24790 0.53520 0.13070
C7 C 0.3047(2) 0.61067(11) 0.24387(11)
H10 H 0.29560 0.67650 0.25950
H11 H 0.41800 0.59140 0.25520
C8 C 0.1912(3) 0.55514(15) 0.30609(14)
H12 H 0.18330 0.49230 0.28060
H13 H 0.08190 0.58270 0.30270
C9 C 0.2419(2) 0.54899(14) 0.40888(13)
H14 H 0.15280 0.52110 0.44510
H15 H 0.33740 0.50840 0.41440
N2 N 0.2827(2) 0.64088(11) 0.45035(11)
H16 H 0.32330 0.63310 0.50910
H17 H 0.19180 0.67580 0.45290
H18 H 0.35770 0.66920 0.41410
H19? H 0.32200 0.63400 0.10560
H20? H 0.15470 0.60840 0.13270
H21? H 0.28180 0.53690 0.12580
H22? H 0.33070 0.67600 0.25470
H23? H 0.40140 0.57380 0.26020
C10? C 0.1634(15) 0.5825(14) 0.3053(7)
H24? H 0.13220 0.51870 0.29040
H25? H 0.06930 0.62240 0.29160
C11? C 0.2056(19) 0.5893(11) 0.4089(8)
H26? H 0.25190 0.65070 0.42140
H27? H 0.10490 0.58380 0.44570
N3? N 0.3232(17) 0.5182(9) 0.4419(10)
H28? H 0.34460 0.52680 0.50370
H29? H 0.41660 0.52300 0.40880
H30? H 0.27990 0.46160 0.43320
Na1* Na 1.22541(7) 0.27665(4) 0.00625(4)
Na1A Na 0.77459(7) 0.77665(4) 0.49375(4)
Na1B Na 0.77459(7) 0.72335(4) -0.00625(4)
Na1C Na 0.22541(7) 0.22335(4) 0.50625(4)
Na1C* Na 1.22541(7) 0.22335(4) 0.50625(4)
O4A O 0.37922(15) 0.15820(8) 0.09081(9)
O6C O 0.11887(16) 0.15237(9) -0.0771(1)
O8* O -0.02194(17) 0.26274(9) 0.09327(10)
O10C O 0.47512(15) 0.27633(8) -0.08761(9)
O12B O 0.08358(15) 0.38248(9) -0.09733(10)
#END
