
#######################################################################
#
#                 Cambridge Crystallographic Data Centre
#                                CCDC
#
#######################################################################
#
# If this CIF has been generated from an entry in the Cambridge
# Structural Database, then it will include bibliographic, chemical,
# crystal, experimental, refinement or atomic coordinate data resulting
# from the CCDC's data processing and validation procedures.
#
#######################################################################

data_CSD_CIF_MEFLUH04
_audit_creation_date 2017-08-29
_audit_creation_method CSD-ConQuest-V1
_database_code_CSD MEFLUH04
_database_code_depnum_ccdc_archive 'CCDC 1537296'
_chemical_formula_sum 'C9 H18 Al1 N2 Na1 O12'
_chemical_formula_moiety
;
C3 H12 N2 2+,n(C6 H6 Al1 Na1 O12 2-)
;
_journal_coden_Cambridge 1220
_journal_volume 23
_journal_year 2017
_journal_page_first 9857
_journal_name_full 'Chem.-Eur.J. '
loop_
_publ_author_name
"Yao Yu"
"Ran Shang"
"Sa Chen"
"Bin-Wu Wang"
"Zhe-Ming Wang"
"Song Gao"
_chemical_name_systematic
;
catena-[(propane-1,3-diaminium) hexakis(\m-formato)-aluminium(iii)-sodium(i)]
;
_cell_volume   1698.796
_exptl_crystal_colour 'colorless'
_exptl_crystal_density_diffrn 1.549
_exptl_crystal_description 'block'
_diffrn_ambient_temperature 400
_refine_special_details
;
The structure is disordered.

;
#These two values have been output from a single CSD field.
_refine_ls_R_factor_gt 0.046
_refine_ls_wR_factor_gt 0.046
_symmetry_cell_setting monoclinic
_symmetry_space_group_name_H-M 'P 21/c'
_symmetry_Int_Tables_number 14
loop_
_symmetry_equiv_pos_site_id
_symmetry_equiv_pos_as_xyz
1 x,y,z
2 -x,1/2+y,1/2-z
3 -x,-y,-z
4 x,-1/2-y,-1/2+z
_cell_length_a 8.3058(4)
_cell_length_b 14.3500(6)
_cell_length_c 14.2532(6)
_cell_angle_alpha 90
_cell_angle_beta 90.263(4)
_cell_angle_gamma 90
_cell_formula_units_Z 4
loop_
_atom_type_symbol
_atom_type_radius_bond
C 0.68
H 0.23
Al 1.21
N 0.68
Na 1.66
O 0.68
loop_
_atom_site_label
_atom_site_type_symbol
_atom_site_fract_x
_atom_site_fract_y
_atom_site_fract_z
Al1 Al 0.74509(7) 0.41788(4) 0.26438(4)
Na1 Na 0.24467(9) 0.27205(6) 0.00402(6)
O1 O 0.55630(18) 0.43232(11) 0.19184(12)
O2 O 0.3573(2) 0.40047(13) 0.09465(15)
O3 O 0.65683(19) 0.50655(11) 0.34911(11)
O4 O 0.6238(2) 0.64444(13) 0.41422(14)
O5 O 0.92851(19) 0.41326(11) 0.34380(12)
O6 O 1.1382(2) 0.35218(15) 0.41493(15)
O7 O 0.82495(18) 0.32543(11) 0.18303(12)
O8 O 1.0043(3) 0.25643(16) 0.09323(18)
O9 O 0.65773(19) 0.31966(11) 0.33678(12)
O10 O 0.4957(2) 0.22501(12) 0.41111(14)
O11 O 0.85337(18) 0.51065(11) 0.19604(11)
O12 O 0.9106(2) 0.61491(15) 0.08856(15)
C1 C 0.4818(3) 0.38088(18) 0.13616(19)
H1 H 0.52500 0.32210 0.12520
C2 C 0.6934(3) 0.58953(18) 0.3658(2)
H2 H 0.78620 0.61130 0.33690
C3 C 1.0190(3) 0.34722(18) 0.36696(19)
H3 H 0.99120 0.28840 0.34480
C4 C 0.9528(3) 0.32128(19) 0.1364(2)
H4 H 1.01490 0.37520 0.13520
C5 C 0.5265(3) 0.29599(18) 0.3678(2)
H5 H 0.44120 0.33670 0.35720
C6 C 0.8188(3) 0.5628(2) 0.1298(2)
H6 H 0.71230 0.56220 0.10940
N1 N 0.2530(3) 0.58834(16) 0.13803(16)
H7 H 0.32850 0.60840 0.09880
H8 H 0.16060 0.61740 0.12570
H9 H 0.23980 0.52720 0.13080
C7 C 0.3049(6) 0.6090(3) 0.2396(3)
H10 H 0.40610 0.57790 0.25310
H11 H 0.32080 0.67550 0.24760
C8 C 0.1811(10) 0.5763(7) 0.3047(5)
H12 H 0.12680 0.52310 0.27680
H13 H 0.10180 0.62520 0.31260
C9 C 0.2455(14) 0.5479(6) 0.4022(5)
H14 H 0.16580 0.51150 0.43570
H15 H 0.34290 0.51100 0.39630
N2 N 0.2795(8) 0.6364(5) 0.4523(5)
H16 H 0.31860 0.62380 0.50920
H17 H 0.18890 0.66910 0.45770
H18 H 0.35140 0.66930 0.42020
N3? N 0.2530(3) 0.58834(16) 0.13803(16)
H19? H 0.30850 0.62430 0.09900
H20? H 0.14830 0.60000 0.13140
H21? H 0.27210 0.52870 0.12490
C10? C 0.3049(6) 0.6090(3) 0.2396(3)
H22? H 0.41920 0.59750 0.24770
H23? H 0.28290 0.67350 0.25540
C11? C 0.2088(18) 0.5449(10) 0.3008(6)
H24? H 0.25660 0.48320 0.30180
H25? H 0.09910 0.53980 0.27760
C12? C 0.2113(11) 0.5889(7) 0.4014(5)
H26? H 0.25530 0.65150 0.40110
H27? H 0.10500 0.58960 0.42940
N4? N 0.3208(8) 0.5216(4) 0.4495(4)
H28? H 0.33160 0.53760 0.50950
H29? H 0.41680 0.52260 0.42200
H30? H 0.27940 0.46450 0.44560
N5? N 0.2530(3) 0.58834(16) 0.13803(16)
H31? H 0.19940 0.62330 0.09680
H32? H 0.23930 0.52840 0.12410
H33? H 0.35730 0.60230 0.13580
C13? C 0.1896(10) 0.6073(6) 0.2365(5)
H34? H 0.20900 0.67180 0.25360
H35? H 0.07460 0.59580 0.23880
C14? C 0.2748(13) 0.5445(7) 0.3021(5)
H36? H 0.38390 0.53450 0.28030
H37? H 0.22060 0.48470 0.30370
C15? C 0.2792(12) 0.5865(9) 0.4014(6)
H38? H 0.36350 0.55690 0.43820
H39? H 0.30210 0.65270 0.39800
N6? N 0.1210(9) 0.5713(6) 0.4466(6)
H40? H 0.12280 0.59530 0.50420
H41? H 0.10100 0.51050 0.44990
H42? H 0.04440 0.59910 0.41290
N7? N 0.2530(3) 0.58834(16) 0.13803(16)
H43? H 0.26470 0.54520 0.09370
H44? H 0.33670 0.62700 0.13690
H45? H 0.16280 0.62020 0.12750
C16? C 0.2439(17) 0.5410(8) 0.2345(6)
H46? H 0.13720 0.51550 0.24460
H47? H 0.32170 0.49070 0.23860
C17? C 0.2807(19) 0.6143(9) 0.3060(6)
H48? H 0.23590 0.67330 0.28540
H49? H 0.39650 0.62160 0.31160
C18? C 0.2113(11) 0.5889(7) 0.4014(5)
H50? H 0.19990 0.64460 0.43930
H51? H 0.10560 0.56120 0.39340
N8? N 0.3208(8) 0.5216(4) 0.4495(4)
H52? H 0.26830 0.49370 0.49600
H53? H 0.40560 0.55190 0.47260
H54? H 0.35390 0.47900 0.40850
Na1* Na 1.24467(9) 0.27205(6) 0.00402(6)
Na1A Na 0.75533(9) 0.77205(6) 0.49598(6)
Na1B Na 0.75533(9) 0.72795(6) -0.00402(6)
Na1C Na 0.24467(9) 0.22795(6) 0.50402(6)
Na1C* Na 1.24467(9) 0.22795(6) 0.50402(6)
O4A O 0.3762(2) 0.14444(13) 0.08578(14)
O6C O 0.1382(2) 0.14782(15) -0.08507(15)
O8* O 0.0043(3) 0.25643(16) 0.09323(18)
O10C O 0.4957(2) 0.27499(12) -0.08889(14)
O12B O 0.0894(2) 0.38509(15) -0.08856(15)
#END
