
#######################################################################
#
#                 Cambridge Crystallographic Data Centre
#                                CCDC
#
#######################################################################
#
# If this CIF has been generated from an entry in the Cambridge
# Structural Database, then it will include bibliographic, chemical,
# crystal, experimental, refinement or atomic coordinate data resulting
# from the CCDC's data processing and validation procedures.
#
#######################################################################

data_CSD_CIF_MEFMUI02
_audit_creation_date 2017-08-29
_audit_creation_method CSD-ConQuest-V1
_database_code_CSD MEFMUI02
_database_code_depnum_ccdc_archive 'CCDC 1537299'
_chemical_formula_sum 'C8 H16 Al1 N2 Na1 O12'
_chemical_formula_moiety
;
C2 H10 N2 2+,n(C6 H6 Al1 Na1 O12 2-)
;
_journal_coden_Cambridge 1220
_journal_volume 23
_journal_year 2017
_journal_page_first 9857
_journal_name_full 'Chem.-Eur.J. '
loop_
_publ_author_name
"Yao Yu"
"Ran Shang"
"Sa Chen"
"Bin-Wu Wang"
"Zhe-Ming Wang"
"Song Gao"
_chemical_name_systematic
;
catena-[(ethane-1,2-diaminium) 
tetrakis(\m-formato)-bis(formato)-aluminium(iii)-sodium]
;
_cell_volume    389.946
_exptl_crystal_colour 'colorless'
_exptl_crystal_density_diffrn 1.628
_exptl_crystal_description 'plate'
_diffrn_ambient_temperature 292
#These two values have been output from a single CSD field.
_refine_ls_R_factor_gt 0.0426
_refine_ls_wR_factor_gt 0.0426
_symmetry_cell_setting triclinic
_symmetry_space_group_name_H-M 'P -1'
_symmetry_Int_Tables_number 2
loop_
_symmetry_equiv_pos_site_id
_symmetry_equiv_pos_as_xyz
1 x,y,z
2 -x,-y,-z
_cell_length_a 6.5446(4)
_cell_length_b 7.9289(4)
_cell_length_c 8.0974(4)
_cell_angle_alpha 95.020(2)
_cell_angle_beta 91.567(2)
_cell_angle_gamma 111.018(3)
_cell_formula_units_Z 1
loop_
_atom_type_symbol
_atom_type_radius_bond
C 0.68
H 0.23
Al 1.21
N 0.68
Na 1.66
O 0.68
loop_
_atom_site_label
_atom_site_type_symbol
_atom_site_fract_x
_atom_site_fract_y
_atom_site_fract_z
Al1 Al 0.50000 0.50000 0.50000
Na1 Na 0.00000 0.00000 0.50000
O1 O 0.2498(2) 0.2928(2) 0.42011(17)
O2 O -0.0108(3) 0.1237(2) 0.2308(2)
O3 O 0.6138(2) 0.3447(2) 0.60482(17)
O4 O 0.7680(3) 0.1402(2) 0.6244(2)
O5 O 0.6365(2) 0.4705(2) 0.30327(17)
O6 O 0.8087(3) 0.5639(2) 0.0769(2)
C1 C 0.1485(4) 0.2626(3) 0.2773(3)
H1 H 0.19760 0.35050 0.20390
C2 C 0.6970(4) 0.2358(4) 0.5455(3)
H2 H 0.70640 0.22570 0.43090
C3 C 0.7338(4) 0.5915(3) 0.2092(3)
H3 H 0.74940 0.71060 0.24390
C4 C 0.5213(4) 0.0992(3) 0.0140(3)
H4 H 0.41690 0.12800 -0.05460
H5 H 0.50220 0.13150 0.12940
N1 N 0.7467(3) 0.2053(3) -0.0274(2)
H6 H 0.84180 0.17180 0.02920
H7 H 0.77480 0.32310 -0.00070
H8 H 0.75950 0.18490 -0.13580
O1A O -0.2498(2) -0.2928(2) 0.57989(17)
O2A O 0.0108(3) -0.1237(2) 0.7692(2)
C1A C -0.1485(4) -0.2626(3) 0.7227(3)
H1A H -0.19760 -0.35050 0.79610
O3A O 0.3862(2) 0.6553(2) 0.39518(17)
O4A O 0.2320(3) 0.8598(2) 0.3756(2)
C2A C 0.3030(4) 0.7642(4) 0.4545(3)
H2A H 0.29360 0.77430 0.56910
O5A O 0.3635(2) 0.5295(2) 0.69673(17)
O6A O 0.1913(3) 0.4361(2) 0.9231(2)
C3A C 0.2662(4) 0.4085(3) 0.7908(3)
H3A H 0.25060 0.28940 0.75610
Al1* Al -0.50000 -0.50000 0.50000
Na1* Na 0.00000 1.00000 0.50000
Na1** Na 1.00000 0.00000 0.50000
O1A* O 0.7502(2) 0.7072(2) 0.57989(17)
O4* O -0.2320(3) 0.1402(2) 0.6244(2)
O4A* O 0.2320(3) -0.1402(2) 0.3756(2)
C4A C 0.4787(4) -0.0992(3) -0.0140(3)
H4A H 0.58310 -0.12800 0.05460
H5A H 0.49780 -0.13150 -0.12940
N1A N 0.2533(3) -0.2053(3) 0.0274(2)
H6A H 0.15820 -0.17180 -0.02920
H7A H 0.22520 -0.32310 0.00070
H8A H 0.24050 -0.18490 0.13580
#END
