
#######################################################################
#
#                 Cambridge Crystallographic Data Centre
#                                CCDC
#
#######################################################################
#
# If this CIF has been generated from an entry in the Cambridge
# Structural Database, then it will include bibliographic, chemical,
# crystal, experimental, refinement or atomic coordinate data resulting
# from the CCDC's data processing and validation procedures.
#
#######################################################################

data_CSD_CIF_MEFMUI
_audit_creation_date 2017-08-29
_audit_creation_method CSD-ConQuest-V1
_database_code_CSD MEFMUI
_database_code_depnum_ccdc_archive 'CCDC 1537297'
_chemical_formula_sum 'C8 H16 Al1 N2 Na1 O12'
_chemical_formula_moiety
;
C2 H10 N2 2+,n(C6 H6 Al1 Na1 O12 2-)
;
_journal_coden_Cambridge 1220
_journal_volume 23
_journal_year 2017
_journal_page_first 9857
_journal_name_full 'Chem.-Eur.J. '
loop_
_publ_author_name
"Yao Yu"
"Ran Shang"
"Sa Chen"
"Bin-Wu Wang"
"Zhe-Ming Wang"
"Song Gao"
_chemical_name_systematic
;
catena-[(ethane-1,2-diaminium) 
tetrakis(\m-formato)-bis(formato)-aluminium(iii)-sodium]
;
_cell_volume    384.379
_exptl_crystal_colour 'colorless'
_exptl_crystal_density_diffrn 1.651
_exptl_crystal_description 'plate'
_diffrn_ambient_temperature 100
#These two values have been output from a single CSD field.
_refine_ls_R_factor_gt 0.0373
_refine_ls_wR_factor_gt 0.0373
_symmetry_cell_setting triclinic
_symmetry_space_group_name_H-M 'P -1'
_symmetry_Int_Tables_number 2
loop_
_symmetry_equiv_pos_site_id
_symmetry_equiv_pos_as_xyz
1 x,y,z
2 -x,-y,-z
_cell_length_a 6.4837(4)
_cell_length_b 7.9096(5)
_cell_length_c 8.0713(4)
_cell_angle_alpha 95.000(4)
_cell_angle_beta 91.416(5)
_cell_angle_gamma 110.956(6)
_cell_formula_units_Z 1
loop_
_atom_type_symbol
_atom_type_radius_bond
C 0.68
H 0.23
Al 1.21
N 0.68
Na 1.66
O 0.68
loop_
_atom_site_label
_atom_site_type_symbol
_atom_site_fract_x
_atom_site_fract_y
_atom_site_fract_z
Al1 Al 0.50000 0.50000 0.50000
Na1 Na 0.00000 0.00000 0.50000
O1 O 0.2488(2) 0.29097(18) 0.42199(16)
O2 O -0.0143(2) 0.12304(19) 0.23197(17)
O3 O 0.6171(2) 0.34690(18) 0.60726(16)
O4 O 0.7673(2) 0.1375(2) 0.62586(17)
O5 O 0.6380(2) 0.46987(18) 0.30273(16)
O6 O 0.8106(2) 0.56702(19) 0.07503(17)
C1 C 0.1484(3) 0.2610(3) 0.2778(2)
H1 H 0.20200 0.34980 0.20170
C2 C 0.6942(3) 0.2321(3) 0.5453(2)
H2 H 0.69640 0.21680 0.42740
C3 C 0.7354(3) 0.5932(3) 0.2096(2)
H3 H 0.75110 0.71470 0.24680
C4 C 0.5193(3) 0.1000(3) 0.0147(2)
H4 H 0.41110 0.12850 -0.05540
H5 H 0.49860 0.13190 0.13290
N1 N 0.7469(3) 0.2078(2) -0.0268(2)
H6 H 0.84540 0.17400 0.03130
H7 H 0.77450 0.32820 0.00070
H8 H 0.76080 0.18730 -0.13800
O1A O -0.2488(2) -0.29097(18) 0.57801(16)
O2A O 0.0143(2) -0.12304(19) 0.76803(17)
C1A C -0.1484(3) -0.2610(3) 0.7222(2)
H1A H -0.20200 -0.34980 0.79830
O3A O 0.3829(2) 0.65310(18) 0.39274(16)
O4A O 0.2327(2) 0.8625(2) 0.37414(17)
C2A C 0.3058(3) 0.7679(3) 0.4547(2)
H2A H 0.30360 0.78320 0.57260
O5A O 0.3620(2) 0.53013(18) 0.69727(16)
O6A O 0.1894(2) 0.43298(19) 0.92497(17)
C3A C 0.2646(3) 0.4068(3) 0.7904(2)
H3A H 0.24890 0.28530 0.75320
Al1* Al -0.50000 -0.50000 0.50000
Na1* Na 0.00000 1.00000 0.50000
Na1** Na 1.00000 0.00000 0.50000
O1A* O 0.7512(2) 0.70903(18) 0.57801(16)
O4* O -0.2327(2) 0.1375(2) 0.62586(17)
O4A* O 0.2327(2) -0.1375(2) 0.37414(17)
C4A C 0.4807(3) -0.1000(3) -0.0147(2)
H4A H 0.58890 -0.12850 0.05540
H5A H 0.50140 -0.13190 -0.13290
N1A N 0.2531(3) -0.2078(2) 0.0268(2)
H6A H 0.15460 -0.17400 -0.03130
H7A H 0.22550 -0.32820 -0.00070
H8A H 0.23920 -0.18730 0.13800
#END
