
#######################################################################
#
#                 Cambridge Crystallographic Data Centre
#                                CCDC
#
#######################################################################
#
# If this CIF has been generated from an entry in the Cambridge
# Structural Database, then it will include bibliographic, chemical,
# crystal, experimental, refinement or atomic coordinate data resulting
# from the CCDC's data processing and validation procedures.
#
#######################################################################

data_CSD_CIF_MEGNIX
_audit_creation_date 2012-12-11
_audit_creation_method CSD-ConQuest-V1
_database_code_CSD MEGNIX
_database_code_depnum_ccdc_archive 'CCDC 876521'
_chemical_formula_sum 'C46 H37 Cl1 La2 N2 O12'
_chemical_formula_moiety
;
(C36 H18 Cl1 La2 O12 1-)n,n(C10 H19 N2 1+)
;
_journal_coden_Cambridge 222
_journal_volume 41
_journal_year 2012
_journal_page_first 10576
_journal_name_full 'Dalton Trans. '
loop_
_publ_author_name
"Bin Tan"
"Zai-Lai Xie"
"Mei-Ling Feng"
"Bing Hu"
"Zhao-Feng Wu"
"Xiao-Ying Huang"
_chemical_name_systematic
;
catena-(1-hexyl-3-methylimidazolium 
tris(\m~4~-naphthalene-1,4-dicarboxylato)-(\m~2~-chloro)-di-lanthanum(iii))
;
_cell_volume   4328.427
_exptl_crystal_colour 'colorless'
_exptl_crystal_density_diffrn 1.723
_exptl_crystal_description 'block'
_diffrn_ambient_temperature 293
_refine_special_details
;
C37A,C38A,C39A,C40A,C41A,C42A,C43A,C44A,C45A,C46A,N1A, N2A and 
C37B,C38B,C39B,C40B,C41B,C42B,C43B,C44B,C45B,C46B,N1B,N2B disordered over two 
sites with occupancies 0.675:0.325.
;
#These two values have been output from a single CSD field.
_refine_ls_R_factor_gt 0.0241
_refine_ls_wR_factor_gt 0.0241
_symmetry_cell_setting monoclinic
_symmetry_space_group_name_H-M 'P 21/c'
_symmetry_Int_Tables_number 14
loop_
_symmetry_equiv_pos_site_id
_symmetry_equiv_pos_as_xyz
1 x,y,z
2 -x,1/2+y,1/2-z
3 -x,-y,-z
4 x,-1/2-y,-1/2+z
_cell_length_a 18.0824(2)
_cell_length_b 14.75579(17)
_cell_length_c 16.3179(2)
_cell_angle_alpha 90
_cell_angle_beta 96.2061(13)
_cell_angle_gamma 90
_cell_formula_units_Z 4
loop_
_atom_type_symbol
_atom_type_radius_bond
C 0.68
H 0.23
Cl 0.99
La 1.87
N 0.68
O 0.68
loop_
_atom_site_label
_atom_site_type_symbol
_atom_site_fract_x
_atom_site_fract_y
_atom_site_fract_z
La1 La 0.378838(9) 0.025318(10) -0.005352(10)
La2 La 0.115031(9) 0.014143(11) -0.000741(10)
Cl1 Cl 0.25217(4) -0.09004(5) 0.02433(6)
O1 O 0.44780(13) 0.13339(16) -0.08086(17)
O2 O 0.57030(13) 0.11322(15) -0.06261(17)
O3 O 0.31770(13) 0.13733(17) 0.07618(17)
O4 O 0.48169(15) 0.43149(17) -0.40321(16)
O5 O 0.19758(13) 0.14042(15) 0.03068(16)
O6 O 0.60354(15) 0.42808(18) -0.37698(16)
O7 O 0.28163(12) 0.43156(16) 0.38925(14)
O8 O 0.15934(12) 0.44684(15) 0.36510(13)
O9 O 0.06178(14) 0.10471(16) 0.10817(16)
O10 O -0.06244(13) 0.10751(16) 0.08897(16)
O11 O 0.00262(13) 0.41673(15) 0.43167(15)
O12 O -0.11360(13) 0.41230(18) 0.37657(17)
C1 C 0.51267(18) 0.1520(2) -0.0946(2)
C2 C 0.52136(17) 0.2244(2) -0.1583(2)
C3 C 0.47261(18) 0.2232(2) -0.2282(2)
H1 H 0.43500 0.17990 -0.23380
C4 C 0.47814(19) 0.2860(2) -0.2918(2)
H2 H 0.44380 0.28430 -0.33860
C5 C 0.53323(18) 0.3496(2) -0.2861(2)
C6 C 0.58374(17) 0.3563(2) -0.2124(2)
C7 C 0.57830(17) 0.2918(2) -0.1479(2)
C8 C 0.62894(19) 0.2986(2) -0.0758(2)
H3 H 0.62710 0.25600 -0.03410
C9 C 0.6801(2) 0.3659(3) -0.0664(2)
H4 H 0.71290 0.36900 -0.01850
C10 C 0.6839(2) 0.4306(3) -0.1282(2)
H5 H 0.71860 0.47720 -0.12050
C11 C 0.63765(19) 0.4262(2) -0.1991(2)
H6 H 0.64130 0.46970 -0.23980
C12 C 0.5397(2) 0.4080(2) -0.3600(2)
C13 C 0.25316(19) 0.1681(2) 0.0772(2)
C14 C 0.24180(18) 0.2395(2) 0.1398(2)
C15 C 0.28540(19) 0.2339(2) 0.2136(2)
H7 H 0.32170 0.18910 0.22040
C16 C 0.27769(19) 0.2925(2) 0.2787(2)
H8 H 0.30930 0.28690 0.32730
C17 C 0.22391(16) 0.3587(2) 0.2722(2)
C18 C 0.17720(16) 0.36899(19) 0.19663(19)
C19 C 0.18696(17) 0.3099(2) 0.1282(2)
C20 C 0.1438(2) 0.3255(2) 0.0527(2)
H9 H 0.15030 0.28840 0.00790
C21 C 0.0926(2) 0.3938(2) 0.0436(2)
H10 H 0.06500 0.40310 -0.00720
C22 C 0.0817(2) 0.4489(2) 0.1095(2)
H11 H 0.04610 0.49450 0.10270
C23 C 0.12211(17) 0.4380(2) 0.1845(2)
H12 H 0.11350 0.47590 0.22800
C24 C 0.22094(17) 0.4171(2) 0.34731(19)
C25 C 0.0000(2) 0.1365(2) 0.1202(2)
C26 C -0.00241(18) 0.2143(2) 0.1792(2)
C27 C 0.0357(2) 0.2077(2) 0.2560(2)
H13 H 0.06940 0.16060 0.26740
C28 C 0.0248(2) 0.2707(2) 0.3181(2)
H14 H 0.05180 0.26530 0.36970
C29 C -0.02497(18) 0.3400(2) 0.3033(2)
C30 C -0.06068(18) 0.3556(2) 0.2212(2)
C31 C -0.04955(18) 0.2910(2) 0.1591(2)
C32 C -0.0830(2) 0.3069(3) 0.0776(2)
H15 H -0.07750 0.26490 0.03620
C33 C -0.1229(3) 0.3833(3) 0.0604(3)
H16 H -0.14400 0.39350 0.00670
C34 C -0.1330(2) 0.4465(3) 0.1203(3)
H17 H -0.15990 0.49890 0.10610
C35 C -0.1042(2) 0.4333(2) 0.2001(3)
H18 H -0.11320 0.47530 0.24040
C36 C -0.04619(19) 0.3939(2) 0.3743(2)
N1 N 0.2373(4) -0.2640(4) 0.2755(4)
N2 N 0.3115(5) -0.1512(5) 0.2701(4)
C37 C 0.2776(5) -0.2698(5) 0.3468(4)
H19 H 0.27520 -0.31130 0.38930
C38 C 0.3293(5) -0.1899(5) 0.3408(4)
H20 H 0.36700 -0.17190 0.38070
C39 C 0.2538(8) -0.1987(8) 0.2299(5)
H21 H 0.23030 -0.18550 0.17770
C40 C 0.1798(4) -0.3348(4) 0.2517(6)
H22 H 0.13750 -0.30730 0.22080
H23 H 0.16480 -0.36260 0.30040
H24 H 0.20030 -0.38010 0.21840
C41 C 0.3423(6) -0.0701(6) 0.2338(6)
H25 H 0.37400 -0.08830 0.19240
H26 H 0.30200 -0.03370 0.20700
C42 C 0.3275(6) 0.0293(6) 0.3510(7)
H27 H 0.28700 0.05850 0.31710
H28 H 0.30750 -0.01450 0.38710
C43 C 0.3853(6) -0.0160(6) 0.2967(6)
H29 H 0.41330 0.03040 0.27120
H30 H 0.42000 -0.05400 0.33070
C44 C 0.3771(8) 0.0971(7) 0.3988(6)
H31 H 0.41200 0.11720 0.36140
H32 H 0.34560 0.14880 0.40700
C45 C 0.4226(8) 0.0820(8) 0.4801(7)
H33 H 0.42040 0.01840 0.49470
H34 H 0.47410 0.09680 0.47480
C46 C 0.3972(9) 0.1363(9) 0.5459(7)
H35 H 0.42600 0.12170 0.59710
H36 H 0.34570 0.12360 0.55020
H37 H 0.40310 0.19940 0.53390
C47? C 0.2311(9) -0.2975(10) 0.3099(8)
C48? C 0.2981(10) -0.2393(11) 0.3401(9)
C49? C 0.2522(16) -0.2089(17) 0.2179(12)
C50? C 0.1549(8) -0.3208(10) 0.1769(9)
C51? C 0.3486(10) -0.0976(10) 0.2665(12)
C52? C 0.3168(12) -0.0002(11) 0.2520(12)
C53? C 0.3807(13) 0.0372(15) 0.3141(12)
C54? C 0.3786(16) 0.0370(13) 0.4054(11)
C55? C 0.3521(13) 0.1117(18) 0.4647(16)
C56? C 0.4256(17) 0.150(2) 0.5107(17)
H38? H 0.20820 -0.34000 0.34090
H39? H 0.32920 -0.24510 0.38900
H40? H 0.24820 -0.18090 0.16660
H41? H 0.16360 -0.30730 0.12120
H42? H 0.10680 -0.29870 0.18690
H43? H 0.15700 -0.38510 0.18540
H44? H 0.37390 -0.11200 0.21870
H45? H 0.38680 -0.09340 0.31290
H46? H 0.31810 0.02160 0.19620
H47? H 0.26770 0.00780 0.26980
H48? H 0.42530 0.00430 0.30380
H49? H 0.38840 0.09960 0.29850
H50? H 0.42930 0.02340 0.42780
H51? H 0.34970 -0.01630 0.41600
H52? H 0.32420 0.15890 0.43360
H53? H 0.32100 0.08540 0.50340
H54? H 0.45780 0.16990 0.47110
H55? H 0.44990 0.10410 0.54520
H56? H 0.41420 0.20100 0.54420
N3? N 0.2116(7) -0.2771(8) 0.2334(7)
N4? N 0.302(1) -0.180(1) 0.2824(9)
La1B La 0.621162(9) -0.025318(10) 0.005352(10)
La1C La 0.378838(9) 0.474682(10) -0.505352(10)
La1A La 0.621162(9) 0.525318(10) -0.494648(10)
La1C* La 0.378838(9) 0.474682(10) 0.494648(10)
La2C La 0.115031(9) 0.485857(11) 0.499259(10)
La2B La -0.115031(9) -0.014143(11) 0.000741(10)
La2A La -0.115031(9) 0.514143(11) 0.500741(10)
O2B O 0.42970(13) -0.11322(15) 0.06261(17)
O4C O 0.48169(15) 0.06851(17) 0.09679(16)
O6A O 0.39646(15) -0.07192(18) -0.12302(16)
O7C O 0.28163(12) 0.06844(16) -0.11075(14)
O8C O 0.15934(12) 0.05316(15) -0.13490(13)
O10B O 0.06244(13) -0.10751(16) -0.08897(16)
O11A O -0.00262(13) -0.08327(15) 0.06833(15)
O11C O 0.00262(13) 0.08327(15) -0.06833(15)
O12A O 0.11360(13) -0.08770(18) 0.12343(17)
#END
