
#######################################################################
#
#                 Cambridge Crystallographic Data Centre
#                                CCDC
#
#######################################################################
#
# If this CIF has been generated from an entry in the Cambridge
# Structural Database, then it will include bibliographic, chemical,
# crystal, experimental, refinement or atomic coordinate data resulting
# from the CCDC's data processing and validation procedures.
#
#######################################################################

data_CSD_CIF_MEGNUJ
_audit_creation_date 2012-12-11
_audit_creation_method CSD-ConQuest-V1
_database_code_CSD MEGNUJ
_database_code_depnum_ccdc_archive 'CCDC 876523'
_chemical_formula_sum 'C46 H37 Cl1 N2 O12 Pr2'
_chemical_formula_moiety
;
(C36 H18 Cl1 O12 Pr2 1-)n,n(C10 H19 N2 1+)
;
_journal_coden_Cambridge 222
_journal_volume 41
_journal_year 2012
_journal_page_first 10576
_journal_name_full 'Dalton Trans. '
loop_
_publ_author_name
"Bin Tan"
"Zai-Lai Xie"
"Mei-Ling Feng"
"Bing Hu"
"Zhao-Feng Wu"
"Xiao-Ying Huang"
_chemical_name_systematic
;
catena-(1-hexyl-3-methylimidazolium 
tris(\m~4~-naphthalene-1,4-dicarboxylato)-(\m~2~-chloro)-di-praseodymium(iii))

;
_cell_volume   4262.420
_exptl_crystal_colour 'green'
_exptl_crystal_density_diffrn 1.756
_exptl_crystal_description 'block'
_diffrn_ambient_temperature 293
_refine_special_details
;
C37A,C38A,C39A,C40A,C41A,C42A,C43A,C44A,C45A,C46A,N1A, N2A and 
C37B,C38B,C39B,C40B,C41B,C42B,C43B,C44B,C45B,C46B,N1B,N2B disordered over two 
sites with occupancies 0.591:0.409.
;
#These two values have been output from a single CSD field.
_refine_ls_R_factor_gt 0.0279
_refine_ls_wR_factor_gt 0.0279
_symmetry_cell_setting monoclinic
_symmetry_space_group_name_H-M 'P 21/c'
_symmetry_Int_Tables_number 14
loop_
_symmetry_equiv_pos_site_id
_symmetry_equiv_pos_as_xyz
1 x,y,z
2 -x,1/2+y,1/2-z
3 -x,-y,-z
4 x,-1/2-y,-1/2+z
_cell_length_a 17.9610(2)
_cell_length_b 14.81098(16)
_cell_length_c 16.1045(2)
_cell_angle_alpha 90
_cell_angle_beta 95.7691(11)
_cell_angle_gamma 90
_cell_formula_units_Z 4
loop_
_atom_type_symbol
_atom_type_radius_bond
C 0.68
H 0.23
Cl 0.99
N 0.68
O 0.68
Pr 1.86
loop_
_atom_site_label
_atom_site_type_symbol
_atom_site_fract_x
_atom_site_fract_y
_atom_site_fract_z
Pr1 Pr 0.377902(9) 0.025015(12) -0.005443(10)
Pr2 Pr 0.115055(9) 0.012901(12) -0.001096(11)
Cl1 Cl 0.25169(4) -0.08769(6) 0.02308(6)
O1 O 0.44857(14) 0.13084(17) -0.07793(18)
O2 O 0.57177(14) 0.11176(17) -0.06045(18)
O3 O 0.31584(14) 0.13498(18) 0.07448(18)
O4 O 0.47458(15) 0.43213(19) -0.39967(18)
O5 O 0.19477(13) 0.13819(16) 0.02944(17)
O6 O 0.59832(16) 0.4324(2) -0.37776(17)
O7 O 0.28393(13) 0.43167(18) 0.38878(16)
O8 O 0.16061(13) 0.44961(17) 0.36610(14)
O9 O 0.06242(14) 0.09859(18) 0.10964(17)
O10 O -0.06251(14) 0.10510(18) 0.08921(17)
O11 O 0.00583(14) 0.41581(17) 0.43343(16)
O12 O -0.11191(14) 0.4096(2) 0.38053(18)
C1 C 0.5135(2) 0.1500(2) -0.0921(2)
C2 C 0.52137(19) 0.2227(2) -0.1567(2)
C3 C 0.4715(2) 0.2220(3) -0.2264(2)
H1 H 0.43380 0.17870 -0.23180
C4 C 0.4763(2) 0.2857(3) -0.2901(2)
H2 H 0.44160 0.28390 -0.33700
C5 C 0.53073(18) 0.3502(2) -0.2848(2)
C6 C 0.58239(18) 0.3560(2) -0.2115(2)
C7 C 0.57826(18) 0.2902(2) -0.1469(2)
C8 C 0.6303(2) 0.2962(3) -0.0746(2)
H3 H 0.62950 0.25310 -0.03270
C9 C 0.6813(2) 0.3642(3) -0.0659(3)
H4 H 0.71490 0.36710 -0.01810
C10 C 0.6838(2) 0.4300(3) -0.1281(3)
H5 H 0.71830 0.47690 -0.12080
C11 C 0.6363(2) 0.4260(3) -0.1987(2)
H6 H 0.63910 0.46980 -0.23970
C12 C 0.5345(2) 0.4099(2) -0.3586(2)
C13 C 0.2503(2) 0.1659(2) 0.0756(2)
C14 C 0.24016(19) 0.2374(2) 0.1399(2)
C15 C 0.2837(2) 0.2313(3) 0.2142(3)
H7 H 0.31940 0.18580 0.22150
C16 C 0.2763(2) 0.2908(3) 0.2792(2)
H8 H 0.30760 0.28490 0.32850
C17 C 0.22398(18) 0.3582(2) 0.2722(2)
C18 C 0.17722(17) 0.3687(2) 0.1956(2)
C19 C 0.18639(18) 0.3084(2) 0.1277(2)
C20 C 0.1432(2) 0.3237(3) 0.0509(2)
H9 H 0.14910 0.28600 0.00590
C21 C 0.0927(2) 0.3930(3) 0.0415(2)
H10 H 0.06500 0.40210 -0.00980
C22 C 0.0824(2) 0.4504(3) 0.1082(3)
H11 H 0.04740 0.49670 0.10150
C23 C 0.12332(19) 0.4386(2) 0.1829(2)
H12 H 0.11580 0.47720 0.22680
C24 C 0.22213(18) 0.4184(2) 0.3474(2)
C25 C 0.0006(2) 0.1322(2) 0.1214(2)
C26 C -0.00171(19) 0.2106(2) 0.1802(2)
C27 C 0.0370(2) 0.2039(3) 0.2582(3)
H13 H 0.07050 0.15670 0.26980
C28 C 0.0265(2) 0.2677(3) 0.3202(2)
H14 H 0.05360 0.26260 0.37230
C29 C -0.02306(19) 0.3371(3) 0.3051(2)
C30 C -0.0584(2) 0.3517(2) 0.2227(2)
C31 C -0.04777(19) 0.2872(2) 0.1598(2)
C32 C -0.0814(2) 0.3032(3) 0.0771(3)
H15 H -0.07560 0.26120 0.03520
C33 C -0.1214(3) 0.3787(3) 0.0594(3)
H16 H -0.14280 0.38870 0.00520
C34 C -0.1311(3) 0.4424(3) 0.1211(3)
H17 H -0.15870 0.49440 0.10710
C35 C -0.1014(2) 0.4304(3) 0.2013(3)
H18 H -0.10900 0.47330 0.24180
C36 C -0.0437(2) 0.3922(2) 0.3762(2)
N1 N 0.2369(6) -0.2681(7) 0.2801(5)
N2 N 0.3058(7) -0.1489(8) 0.2687(8)
C37 C 0.2885(6) -0.2648(7) 0.3476(6)
H19 H 0.29350 -0.30580 0.39150
C38 C 0.3331(7) -0.1879(8) 0.3389(7)
H20 H 0.37350 -0.16860 0.37520
C39 C 0.2539(9) -0.2048(9) 0.2276(9)
H21 H 0.23400 -0.19920 0.17230
C40 C 0.1820(6) -0.3371(7) 0.2607(7)
H22 H 0.13710 -0.31060 0.23390
H23 H 0.17110 -0.36650 0.31130
H24 H 0.20110 -0.38060 0.22410
C41 C 0.3323(6) -0.0617(7) 0.2341(7)
H25 H 0.28930 -0.02370 0.21770
H26 H 0.35690 -0.07440 0.18440
C42 C 0.3260(6) 0.0285(9) 0.3542(8)
H27 H 0.28350 0.05650 0.32230
H28 H 0.30890 -0.01660 0.39160
C43 C 0.3862(6) -0.0106(8) 0.2962(7)
H29 H 0.41230 0.03710 0.26970
H30 H 0.42210 -0.05040 0.32660
C44 C 0.3802(9) 0.0990(8) 0.4003(7)
H31 H 0.41500 0.11840 0.36170
H32 H 0.35080 0.15140 0.41260
C45 C 0.4244(8) 0.0711(9) 0.4788(8)
H33 H 0.47710 0.07090 0.46990
H34 H 0.41070 0.00980 0.49210
C46 C 0.4135(10) 0.1320(12) 0.5538(8)
H35 H 0.44590 0.11220 0.60140
H36 H 0.36240 0.12860 0.56620
H37 H 0.42540 0.19320 0.54070
C47? C 0.2615(9) -0.2801(10) 0.3313(9)
C48? C 0.3172(10) -0.2144(11) 0.3436(10)
C49? C 0.2484(13) -0.1935(14) 0.2257(13)
C50? C 0.1689(8) -0.3212(11) 0.2084(9)
C51? C 0.3594(8) -0.0881(8) 0.2491(12)
C52? C 0.3340(11) 0.0054(10) 0.276(1)
C53? C 0.3753(10) 0.0253(13) 0.3673(11)
C54? C 0.3329(9) 0.0879(13) 0.4215(11)
C55? C 0.3618(10) 0.1353(15) 0.4985(12)
C56? C 0.4478(10) 0.1404(18) 0.5153(14)
H38? H 0.25070 -0.32330 0.37030
H39? H 0.35080 -0.20580 0.39080
H40? H 0.22500 -0.16190 0.18050
H41? H 0.16300 -0.30060 0.15160
H42? H 0.12270 -0.31330 0.23280
H43? H 0.18230 -0.38400 0.20970
H44? H 0.35960 -0.08830 0.18890
H45? H 0.41050 -0.09780 0.27320
H46? H 0.28020 0.00640 0.27750
H47? H 0.34740 0.05100 0.23690
H48? H 0.38390 -0.03170 0.39630
H49? H 0.42380 0.05180 0.36120
H50? H 0.31200 0.13470 0.38410
H51? H 0.29080 0.05270 0.43660
H52? H 0.34260 0.10540 0.54550
H53? H 0.34220 0.19630 0.49620
H54? H 0.46900 0.15020 0.46360
H55? H 0.46650 0.08480 0.53980
H56? H 0.46140 0.18940 0.55280
N3? N 0.2257(10) -0.271(1) 0.2539(8)
N4? N 0.3121(11) -0.1667(12) 0.2734(12)
Pr1B Pr 0.622098(9) -0.025015(12) 0.005443(10)
Pr1C Pr 0.377902(9) 0.474985(12) -0.505443(10)
Pr1A Pr 0.622098(9) 0.525015(12) -0.494557(10)
Pr1C* Pr 0.377902(9) 0.474985(12) 0.494557(10)
Pr2C Pr 0.115055(9) 0.487099(12) 0.498904(11)
Pr2B Pr -0.115055(9) -0.012901(12) 0.001096(11)
Pr2A Pr -0.115055(9) 0.512901(12) 0.501096(11)
O2B O 0.42823(14) -0.11176(17) 0.06045(18)
O4C O 0.47458(15) 0.06787(19) 0.10033(18)
O6A O 0.40168(16) -0.0676(2) -0.12224(17)
O7C O 0.28393(13) 0.06833(18) -0.11122(16)
O8C O 0.16061(13) 0.05039(17) -0.13390(14)
O10B O 0.06251(14) -0.10510(18) -0.08921(17)
O11A O -0.00583(14) -0.08419(17) 0.06657(16)
O11C O 0.00583(14) 0.08419(17) -0.06657(16)
O12A O 0.11191(14) -0.0904(2) 0.11947(18)
#END
