
#######################################################################
#
#                 Cambridge Crystallographic Data Centre
#                                CCDC
#
#######################################################################
#
# If this CIF has been generated from an entry in the Cambridge
# Structural Database, then it will include bibliographic, chemical,
# crystal, experimental, refinement or atomic coordinate data resulting
# from the CCDC's data processing and validation procedures.
#
#######################################################################

data_CSD_CIF_MEGNOD
_audit_creation_date 2012-12-11
_audit_creation_method CSD-ConQuest-V1
_database_code_CSD MEGNOD
_database_code_depnum_ccdc_archive 'CCDC 876522'
_chemical_formula_sum 'C46 H37 Ce2 Cl1 N2 O12'
_chemical_formula_moiety
;
(C36 H18 Ce2 Cl1 O12 1-)n,n(C10 H19 N2 1+)
;
_journal_coden_Cambridge 222
_journal_volume 41
_journal_year 2012
_journal_page_first 10576
_journal_name_full 'Dalton Trans. '
loop_
_publ_author_name
"Bin Tan"
"Zai-Lai Xie"
"Mei-Ling Feng"
"Bing Hu"
"Zhao-Feng Wu"
"Xiao-Ying Huang"
_chemical_name_systematic
;
catena-(1-hexyl-3-methylimidazolium 
tris(\m~4~-naphthalene-1,4-dicarboxylato)-(\m~2~-chloro)-di-cerium(iii))
;
_cell_volume   4296.060
_exptl_crystal_colour 'yellow'
_exptl_crystal_density_diffrn 1.74
_exptl_crystal_description 'block'
_diffrn_ambient_temperature 293
_refine_special_details
;
C37A,C38A,C39A,C40A,C41A,C42A,C43A,C44A,C45A,C46A,N1A, N2A and 
C37B,C38B,C39B,C40B,C41B,C42B,C43B,C44B,C45B,C46B,N1B,N2B disordered over two 
sites with occupancies 0.562:0.438.
;
#These two values have been output from a single CSD field.
_refine_ls_R_factor_gt 0.0269
_refine_ls_wR_factor_gt 0.0269
_symmetry_cell_setting monoclinic
_symmetry_space_group_name_H-M 'P 21/c'
_symmetry_Int_Tables_number 14
loop_
_symmetry_equiv_pos_site_id
_symmetry_equiv_pos_as_xyz
1 x,y,z
2 -x,1/2+y,1/2-z
3 -x,-y,-z
4 x,-1/2-y,-1/2+z
_cell_length_a 18.0206(3)
_cell_length_b 14.8154(2)
_cell_length_c 16.1806(3)
_cell_angle_alpha 90
_cell_angle_beta 96.0266(14)
_cell_angle_gamma 90
_cell_formula_units_Z 4
loop_
_atom_type_symbol
_atom_type_radius_bond
C 0.68
H 0.23
Ce 1.86
Cl 0.99
N 0.68
O 0.68
loop_
_atom_site_label
_atom_site_type_symbol
_atom_site_fract_x
_atom_site_fract_y
_atom_site_fract_z
Ce1 Ce 0.378059(9) 0.025211(12) -0.005556(10)
Ce2 Ce 0.114910(9) 0.013498(12) -0.001187(11)
Cl1 Cl 0.25182(4) -0.08876(6) 0.02308(6)
O1 O 0.44827(13) 0.13195(19) -0.07843(18)
O2 O 0.57120(14) 0.11238(18) -0.06065(18)
O3 O 0.31588(14) 0.1357(2) 0.07472(19)
O4 O 0.47701(15) 0.4321(2) -0.40076(18)
O5 O 0.19574(13) 0.13934(18) 0.02984(17)
O6 O 0.59980(15) 0.4314(2) -0.37726(17)
O7 O 0.28305(13) 0.43157(19) 0.38866(16)
O8 O 0.16016(12) 0.44828(18) 0.36526(14)
O9 O 0.06214(14) 0.10088(19) 0.10954(17)
O10 O -0.06236(14) 0.10581(19) 0.08978(18)
O11 O 0.00408(14) 0.41606(18) 0.43284(16)
O12 O -0.11270(14) 0.4108(2) 0.37873(18)
C1 C 0.51324(18) 0.1507(2) -0.0928(2)
C2 C 0.52130(17) 0.2236(2) -0.1564(2)
C3 C 0.47212(19) 0.2227(3) -0.2270(2)
H1 H 0.43480 0.17920 -0.23260
C4 C 0.47662(19) 0.2857(3) -0.2906(2)
H2 H 0.44200 0.28380 -0.33750
C5 C 0.53120(18) 0.3498(2) -0.2847(2)
C6 C 0.58299(17) 0.3560(2) -0.2112(2)
C7 C 0.57832(17) 0.2909(2) -0.1470(2)
C8 C 0.6300(2) 0.2975(3) -0.0747(2)
H3 H 0.62890 0.25460 -0.03290
C9 C 0.6809(2) 0.3650(3) -0.0654(3)
H4 H 0.71410 0.36790 -0.01740
C10 C 0.6839(2) 0.4301(3) -0.1273(3)
H5 H 0.71860 0.47670 -0.11980
C11 C 0.6368(2) 0.4261(3) -0.1983(2)
H6 H 0.63970 0.46990 -0.23910
C12 C 0.5362(2) 0.4095(3) -0.3591(2)
C13 C 0.25128(19) 0.1670(2) 0.0758(2)
C14 C 0.24047(18) 0.2387(2) 0.1394(2)
C15 C 0.2843(2) 0.2319(3) 0.2136(3)
H7 H 0.32010 0.18650 0.22070
C16 C 0.2765(2) 0.2917(3) 0.2789(2)
H8 H 0.30770 0.28600 0.32820
C17 C 0.22375(17) 0.3585(2) 0.2719(2)
C18 C 0.17671(16) 0.3689(2) 0.1957(2)
C19 C 0.18616(17) 0.3091(2) 0.1279(2)
C20 C 0.1427(2) 0.3249(3) 0.0511(2)
H9 H 0.14870 0.28750 0.00610
C21 C 0.0927(2) 0.3933(3) 0.0417(2)
H10 H 0.06530 0.40270 -0.00960
C22 C 0.0819(2) 0.4496(3) 0.1083(3)
H11 H 0.04670 0.49560 0.10130
C23 C 0.12217(18) 0.4384(2) 0.1834(2)
H12 H 0.11400 0.47650 0.22720
C24 C 0.22129(17) 0.4179(2) 0.3472(2)
C25 C 0.0004(2) 0.1337(3) 0.1218(2)
C26 C -0.00218(18) 0.2117(2) 0.1799(2)
C27 C 0.0364(2) 0.2058(3) 0.2568(3)
H13 H 0.07050 0.15910 0.26810
C28 C 0.0257(2) 0.2689(3) 0.3194(2)
H14 H 0.05250 0.26350 0.37140
C29 C -0.02417(19) 0.3383(3) 0.3042(2)
C30 C -0.05941(19) 0.3531(2) 0.2220(2)
C31 C -0.04859(19) 0.2884(3) 0.1593(2)
C32 C -0.0818(2) 0.3040(3) 0.0774(2)
H15 H -0.07620 0.26180 0.03590
C33 C -0.1217(3) 0.3804(4) 0.0592(3)
H16 H -0.14250 0.39050 0.00490
C34 C -0.1319(3) 0.4433(4) 0.1200(3)
H17 H -0.15920 0.49530 0.10560
C35 C -0.1031(2) 0.4310(3) 0.2003(3)
H18 H -0.11180 0.47320 0.24070
C36 C -0.0454(2) 0.3928(3) 0.3749(2)
N1 N 0.2377(7) -0.2679(8) 0.2812(6)
N2 N 0.3064(9) -0.1503(10) 0.2671(9)
C37 C 0.2889(6) -0.2642(8) 0.3476(7)
H19 H 0.29390 -0.30460 0.39180
C38 C 0.3335(8) -0.1878(9) 0.3378(8)
H20 H 0.37380 -0.16790 0.37380
C39 C 0.2531(11) -0.2056(12) 0.2279(10)
H21 H 0.23170 -0.20020 0.17330
C40 C 0.1830(7) -0.3370(9) 0.2628(8)
H22 H 0.14970 -0.31960 0.21520
H23 H 0.15510 -0.34520 0.30970
H24 H 0.20740 -0.39250 0.25130
C41 C 0.3332(8) -0.0684(8) 0.2288(7)
H25 H 0.29150 -0.03130 0.20670
H26 H 0.36230 -0.08410 0.18370
C42 C 0.3265(8) 0.0294(9) 0.3517(9)
H27 H 0.28440 0.05590 0.31800
H28 H 0.30770 -0.01380 0.38960
C43 C 0.3802(8) -0.0189(9) 0.2947(8)
H29 H 0.41080 0.02540 0.27000
H30 H 0.41290 -0.06060 0.32730
C44 C 0.372(1) 0.1030(9) 0.4005(8)
H31 H 0.40280 0.13170 0.36240
H32 H 0.33690 0.14830 0.41570
C45 C 0.4229(9) 0.0797(11) 0.4794(9)
H33 H 0.41900 0.01590 0.49130
H34 H 0.47430 0.09260 0.47090
C46 C 0.4010(11) 0.1346(13) 0.5528(8)
H35 H 0.43160 0.11710 0.60240
H36 H 0.34950 0.12360 0.55980
H37 H 0.40810 0.19760 0.54250
C47? C 0.2634(8) -0.2786(10) 0.3330(9)
C48? C 0.3188(10) -0.2121(12) 0.3435(10)
C49? C 0.2514(15) -0.1936(15) 0.2245(13)
C50? C 0.1711(9) -0.3233(12) 0.2146(10)
C51? C 0.3588(8) -0.0877(8) 0.2540(11)
C52? C 0.3160(9) 0.0023(10) 0.2564(10)
C53? C 0.3854(10) 0.0281(13) 0.3166(10)
C54? C 0.3793(13) 0.0463(12) 0.4048(9)
C55? C 0.358(1) 0.1164(14) 0.4689(12)
C56? C 0.4320(13) 0.1466(17) 0.5219(12)
H38? H 0.25310 -0.32180 0.37190
H39? H 0.35320 -0.20350 0.38980
H40? H 0.23030 -0.16530 0.17630
H41? H 0.16080 -0.30340 0.15800
H42? H 0.12660 -0.31850 0.24220
H43? H 0.18740 -0.38500 0.21540
H44? H 0.37450 -0.09640 0.19910
H45? H 0.40310 -0.08530 0.29350
H46? H 0.26960 -0.00100 0.28160
H47? H 0.31050 0.03540 0.20440
H48? H 0.42150 -0.02030 0.31430
H49? H 0.40710 0.08140 0.29390
H50? H 0.42920 0.03040 0.42870
H51? H 0.34880 -0.00440 0.41850
H52? H 0.32380 0.08990 0.50460
H53? H 0.33390 0.16800 0.44070
H54? H 0.46840 0.16320 0.48540
H55? H 0.45080 0.09760 0.55680
H56? H 0.42180 0.19740 0.55580
N3? N 0.2279(10) -0.2686(10) 0.2560(8)
N4? N 0.3122(12) -0.1641(13) 0.2743(12)
Ce1B Ce 0.621941(9) -0.025211(12) 0.005556(10)
Ce1C Ce 0.378059(9) 0.474789(12) -0.505556(10)
Ce1A Ce 0.621941(9) 0.525211(12) -0.494444(10)
Ce1C* Ce 0.378059(9) 0.474789(12) 0.494444(10)
Ce2C Ce 0.114910(9) 0.486502(12) 0.498813(11)
Ce2B Ce -0.114910(9) -0.013498(12) 0.001187(11)
Ce2A Ce -0.114910(9) 0.513498(12) 0.501187(11)
O2B O 0.42880(14) -0.11238(18) 0.06065(18)
O4C O 0.47701(15) 0.0679(2) 0.09924(18)
O6A O 0.40020(15) -0.0686(2) -0.12274(17)
O7C O 0.28305(13) 0.06843(19) -0.11134(16)
O8C O 0.16016(12) 0.05172(18) -0.13474(14)
O10B O 0.06236(14) -0.10581(19) -0.08978(18)
O11A O -0.00408(14) -0.08394(18) 0.06716(16)
O11C O 0.00408(14) 0.08394(18) -0.06716(16)
O12A O 0.11270(14) -0.0892(2) 0.12127(18)
#END
