
#######################################################################
#
#                 Cambridge Crystallographic Data Centre
#                                CCDC
#
#######################################################################
#
# If this CIF has been generated from an entry in the Cambridge
# Structural Database, then it will include bibliographic, chemical,
# crystal, experimental, refinement or atomic coordinate data resulting
# from the CCDC's data processing and validation procedures.
#
#######################################################################

data_CSD_CIF_MEGPAR
_audit_creation_date 2012-12-11
_audit_creation_method CSD-ConQuest-V1
_database_code_CSD MEGPAR
_database_code_depnum_ccdc_archive 'CCDC 876524'
_chemical_formula_sum 'C46 H37 Cl1 N2 Nd2 O12'
_chemical_formula_moiety
;
(C36 H18 Cl1 Nd2 O12 1-)n,n(C10 H19 N2 1+)
;
_journal_coden_Cambridge 222
_journal_volume 41
_journal_year 2012
_journal_page_first 10576
_journal_name_full 'Dalton Trans. '
loop_
_publ_author_name
"Bin Tan"
"Zai-Lai Xie"
"Mei-Ling Feng"
"Bing Hu"
"Zhao-Feng Wu"
"Xiao-Ying Huang"
_chemical_name_systematic
;
catena-(1-hexyl-3-methylimidazolium 
tris(\m~4~-naphthalene-1,4-dicarboxylato)-(\m~2~-chloro)-di-neodymium(iii))
;
_cell_volume   4241.319
_exptl_crystal_colour 'purple'
_exptl_crystal_density_diffrn 1.775
_exptl_crystal_description 'block'
_diffrn_ambient_temperature 293
_refine_special_details
;
C37A,C38A,C39A,C40A,C41A,C42A,C43A,C44A,C45A,C46A,N1A, N2A and 
C37B,C38B,C39B,C40B,C41B,C42B,C43B,C44B,C45B,C46B,N1B,N2B disordered over two 
sites with occupancies 0.609:0.391.
;
#These two values have been output from a single CSD field.
_refine_ls_R_factor_gt 0.0252
_refine_ls_wR_factor_gt 0.0252
_symmetry_cell_setting monoclinic
_symmetry_space_group_name_H-M 'P 21/c'
_symmetry_Int_Tables_number 14
loop_
_symmetry_equiv_pos_site_id
_symmetry_equiv_pos_as_xyz
1 x,y,z
2 -x,1/2+y,1/2-z
3 -x,-y,-z
4 x,-1/2-y,-1/2+z
_cell_length_a 17.9082(4)
_cell_length_b 14.8189(3)
_cell_length_c 16.0623(4)
_cell_angle_alpha 90
_cell_angle_beta 95.729(2)
_cell_angle_gamma 90
_cell_formula_units_Z 4
loop_
_atom_type_symbol
_atom_type_radius_bond
C 0.68
H 0.23
Cl 0.99
N 0.68
Nd 1.85
O 0.68
loop_
_atom_site_label
_atom_site_type_symbol
_atom_site_fract_x
_atom_site_fract_y
_atom_site_fract_z
Nd1 Nd 0.377983(9) 0.024920(11) -0.005390(9)
Nd2 Nd 0.115198(9) 0.012618(11) -0.001139(9)
Cl1 Cl 0.25183(4) -0.08647(6) 0.02321(6)
O1 O 0.44890(14) 0.12933(17) -0.07751(16)
O2 O 0.57262(14) 0.11102(16) -0.06093(16)
O3 O 0.31539(14) 0.13322(17) 0.07478(16)
O4 O 0.47380(15) 0.43190(18) -0.39989(15)
O5 O 0.19436(13) 0.13749(15) 0.02984(15)
O6 O 0.59749(15) 0.43247(18) -0.37888(15)
O7 O 0.28491(13) 0.43100(17) 0.38873(14)
O8 O 0.16141(13) 0.45046(16) 0.36640(13)
O9 O 0.06233(14) 0.09641(17) 0.11002(15)
O10 O -0.06261(14) 0.10420(17) 0.08936(15)
O11 O 0.00765(13) 0.41510(17) 0.43403(14)
O12 O -0.11028(14) 0.40830(19) 0.38273(16)
C1 C 0.51406(19) 0.1489(2) -0.0924(2)
C2 C 0.52157(18) 0.2217(2) -0.1567(2)
C3 C 0.47162(19) 0.2209(2) -0.2267(2)
H1 H 0.43420 0.17720 -0.23240
C4 C 0.4759(2) 0.2853(2) -0.2900(2)
H2 H 0.44070 0.28380 -0.33670
C5 C 0.53015(18) 0.3497(2) -0.2849(2)
C6 C 0.58201(18) 0.3556(2) -0.2115(2)
C7 C 0.57819(18) 0.2897(2) -0.14731(19)
C8 C 0.6305(2) 0.2959(2) -0.0745(2)
H3 H 0.62970 0.25280 -0.03250
C9 C 0.6813(2) 0.3640(3) -0.0659(2)
H4 H 0.71520 0.36680 -0.01830
C10 C 0.6832(2) 0.4303(3) -0.1279(2)
H5 H 0.71760 0.47730 -0.12040
C11 C 0.6356(2) 0.4262(2) -0.1987(2)
H6 H 0.63790 0.47030 -0.23960
C12 C 0.5337(2) 0.4100(2) -0.3595(2)
C13 C 0.25031(19) 0.1650(2) 0.0761(2)
C14 C 0.23957(18) 0.2363(2) 0.1396(2)
C15 C 0.2833(2) 0.2297(3) 0.2148(2)
H7 H 0.31860 0.18370 0.22230
C16 C 0.2761(2) 0.2902(2) 0.2798(2)
H8 H 0.30740 0.28430 0.32920
C17 C 0.22434(17) 0.3576(2) 0.27271(19)
C18 C 0.17729(17) 0.3686(2) 0.19583(19)
C19 C 0.18651(18) 0.3075(2) 0.12819(19)
C20 C 0.1434(2) 0.3236(2) 0.0506(2)
H9 H 0.14960 0.28610 0.00540
C21 C 0.0932(2) 0.3930(3) 0.0410(2)
H10 H 0.06540 0.40220 -0.01040
C22 C 0.0833(2) 0.4505(2) 0.1085(2)
H11 H 0.04860 0.49730 0.10160
C23 C 0.12359(19) 0.4385(2) 0.1832(2)
H12 H 0.11590 0.47700 0.22730
C24 C 0.22248(18) 0.4183(2) 0.34792(18)
C25 C 0.0009(2) 0.1311(2) 0.1217(2)
C26 C -0.00128(18) 0.2088(2) 0.1801(2)
C27 C 0.0375(2) 0.2025(3) 0.2583(2)
H13 H 0.07090 0.15510 0.27000
C28 C 0.0275(2) 0.2664(3) 0.3207(2)
H14 H 0.05510 0.26120 0.37270
C29 C -0.02197(19) 0.3360(2) 0.3064(2)
C30 C -0.05744(19) 0.3509(2) 0.2232(2)
C31 C -0.04746(19) 0.2860(2) 0.1610(2)
C32 C -0.0808(2) 0.3024(3) 0.0775(2)
H15 H -0.07460 0.26080 0.03530
C33 C -0.1212(3) 0.3784(3) 0.0602(3)
H16 H -0.14330 0.38830 0.00600
C34 C -0.1303(2) 0.4420(3) 0.1219(3)
H17 H -0.15730 0.49440 0.10790
C35 C -0.1006(2) 0.4293(3) 0.2028(3)
H18 H -0.10850 0.47160 0.24380
C36 C -0.0423(2) 0.3908(2) 0.3775(2)
N1 N 0.2368(6) -0.2684(7) 0.2784(5)
N2 N 0.3061(8) -0.1490(8) 0.2687(8)
C37 C 0.2877(5) -0.2658(6) 0.3468(6)
H19 H 0.29250 -0.30740 0.39030
C38 C 0.3328(7) -0.1868(7) 0.3394(7)
H20 H 0.37230 -0.16660 0.37660
C39 C 0.2491(8) -0.1981(9) 0.2315(7)
H21 H 0.22240 -0.18460 0.18040
C40 C 0.1822(6) -0.3371(7) 0.2595(7)
H22 H 0.14490 -0.31600 0.21680
H23 H 0.15870 -0.35180 0.30890
H24 H 0.20610 -0.38990 0.23990
C41 C 0.3317(6) -0.0600(6) 0.2375(7)
H25 H 0.28820 -0.02140 0.22580
H26 H 0.35310 -0.07000 0.18500
C42 C 0.3294(6) 0.0279(8) 0.3564(8)
H27 H 0.28570 0.05380 0.32470
H28 H 0.31400 -0.01760 0.39460
C43 C 0.3895(6) -0.0102(8) 0.2971(7)
H29 H 0.41490 0.03750 0.26960
H30 H 0.42590 -0.05040 0.32630
C44 C 0.3811(8) 0.1016(8) 0.4024(7)
H31 H 0.41660 0.12180 0.36460
H32 H 0.35020 0.15290 0.41390
C45 C 0.4232(8) 0.0730(9) 0.4812(7)
H33 H 0.47620 0.07110 0.47340
H34 H 0.40790 0.01220 0.49420
C46 C 0.4124(10) 0.1342(11) 0.5558(8)
H35 H 0.44440 0.11430 0.60370
H36 H 0.36100 0.13150 0.56790
H37 H 0.42490 0.19510 0.54250
C47? C 0.2594(9) -0.2819(10) 0.3307(9)
C48? C 0.3171(11) -0.2159(11) 0.3421(10)
C49? C 0.2555(13) -0.2023(14) 0.2193(11)
C50? C 0.1676(9) -0.3216(11) 0.2079(10)
C51? C 0.3590(9) -0.0892(9) 0.2494(12)
C52? C 0.3340(11) 0.0034(11) 0.2793(10)
C53? C 0.3819(10) 0.0262(14) 0.3679(11)
C54? C 0.3381(10) 0.0812(14) 0.4266(11)
C55? C 0.3623(10) 0.1372(14) 0.4997(12)
C56? C 0.4485(10) 0.1431(18) 0.5205(15)
H38? H 0.24770 -0.32440 0.37000
H39? H 0.35230 -0.20900 0.38830
H40? H 0.24180 -0.18050 0.16570
H41? H 0.16480 -0.30550 0.14980
H42? H 0.12050 -0.30870 0.22920
H43? H 0.17840 -0.38490 0.21410
H44? H 0.35870 -0.08800 0.18900
H45? H 0.41020 -0.10030 0.27300
H46? H 0.28080 0.00240 0.28630
H47? H 0.34270 0.04930 0.23830
H48? H 0.39780 -0.03000 0.39530
H49? H 0.42670 0.05930 0.35720
H50? H 0.30740 0.12130 0.38970
H51? H 0.30340 0.03820 0.44720
H52? H 0.34050 0.11300 0.54790
H53? H 0.34260 0.19770 0.48990
H54? H 0.47180 0.15240 0.46980
H55? H 0.46670 0.08800 0.54650
H56? H 0.46050 0.19270 0.55790
N3? N 0.2243(10) -0.2721(11) 0.2525(8)
N4? N 0.3101(13) -0.1663(13) 0.2733(12)
Nd1B Nd 0.622017(9) -0.024920(11) 0.005390(9)
Nd1C Nd 0.377983(9) 0.475080(11) -0.505390(9)
Nd1A Nd 0.622017(9) 0.524920(11) -0.494610(9)
Nd1C* Nd 0.377983(9) 0.475080(11) 0.494610(9)
Nd2C Nd 0.115198(9) 0.487382(11) 0.498861(9)
Nd2B Nd -0.115198(9) -0.012618(11) 0.001139(9)
Nd2A Nd -0.115198(9) 0.512618(11) 0.501139(9)
O2B O 0.42738(14) -0.11102(16) 0.06093(16)
O4C O 0.47380(15) 0.06810(18) 0.10011(15)
O6A O 0.40251(15) -0.06753(18) -0.12112(15)
O7C O 0.28491(13) 0.06900(17) -0.11127(14)
O8C O 0.16141(13) 0.04954(16) -0.13360(13)
O10B O 0.06261(14) -0.10420(17) -0.08936(15)
O11A O -0.00765(13) -0.08490(17) 0.06597(14)
O11C O 0.00765(13) 0.08490(17) -0.06597(14)
O12A O 0.11028(14) -0.09170(19) 0.11727(16)
#END
