
#######################################################################
#
#                 Cambridge Crystallographic Data Centre
#                                CCDC
#
#######################################################################
#
# If this CIF has been generated from an entry in the Cambridge
# Structural Database, then it will include bibliographic, chemical,
# crystal, experimental, refinement or atomic coordinate data resulting
# from the CCDC's data processing and validation procedures.
#
#######################################################################

data_CSD_CIF_MEGPIZ
_audit_creation_date 2012-12-11
_audit_creation_method CSD-ConQuest-V1
_database_code_CSD MEGPIZ
_database_code_depnum_ccdc_archive 'CCDC 876526'
_chemical_formula_sum 'C46 H37 Cl1 Eu2 N2 O12'
_chemical_formula_moiety
;
(C36 H18 Cl1 Eu2 O12 1-)n,n(C10 H19 N2 1+)
;
_journal_coden_Cambridge 222
_journal_volume 41
_journal_year 2012
_journal_page_first 10576
_journal_name_full 'Dalton Trans. '
loop_
_publ_author_name
"Bin Tan"
"Zai-Lai Xie"
"Mei-Ling Feng"
"Bing Hu"
"Zhao-Feng Wu"
"Xiao-Ying Huang"
_chemical_name_systematic
;
catena-(1-hexyl-3-methylimidazolium 
tris(\m~4~-naphthalene-1,4-dicarboxylato)-(\m~2~-chloro)-di-europium(iii))
;
_cell_volume   4188.581
_exptl_crystal_colour 'yellow'
_exptl_crystal_density_diffrn 1.822
_exptl_crystal_description 'block'
_diffrn_ambient_temperature 293
_refine_special_details
;
C37A,C38A,C39A,C40A,C41A,C42A,C43A,C44A,C45A,C46A,N1A, N2A and 
C37B,C38B,C39B,C40B,C41B,C42B,C43B,C44B,C45B,C46B,N1B,N2B disordered over two 
sites with occupancies 0.667:0.333.
;
#These two values have been output from a single CSD field.
_refine_ls_R_factor_gt 0.0258
_refine_ls_wR_factor_gt 0.0258
_symmetry_cell_setting monoclinic
_symmetry_space_group_name_H-M 'P 21/c'
_symmetry_Int_Tables_number 14
loop_
_symmetry_equiv_pos_site_id
_symmetry_equiv_pos_as_xyz
1 x,y,z
2 -x,1/2+y,1/2-z
3 -x,-y,-z
4 x,-1/2-y,-1/2+z
_cell_length_a 17.7876(2)
_cell_length_b 14.81893(16)
_cell_length_c 15.94964(19)
_cell_angle_alpha 90
_cell_angle_beta 94.9429(11)
_cell_angle_gamma 90
_cell_formula_units_Z 4
loop_
_atom_type_symbol
_atom_type_radius_bond
C 0.68
H 0.23
Cl 0.99
Eu 1.86
N 0.68
O 0.77
loop_
_atom_site_label
_atom_site_type_symbol
_atom_site_fract_x
_atom_site_fract_y
_atom_site_fract_z
Eu1 Eu 0.378106(9) 0.024720(11) -0.004786(9)
Eu2 Eu 0.116139(9) 0.011984(11) -0.001158(9)
Cl1 Cl 0.25207(5) -0.08439(7) 0.02369(6)
O1 O 0.44934(15) 0.1257(2) -0.07738(18)
O2 O 0.57390(15) 0.10769(19) -0.06305(18)
O3 O 0.31539(15) 0.1308(2) 0.07393(18)
O4 O 0.47146(16) 0.4303(2) -0.40133(17)
O5 O 0.19324(14) 0.13517(17) 0.03079(16)
O6 O 0.59570(16) 0.4324(2) -0.38252(16)
O7 O 0.28800(14) 0.43033(19) 0.38978(15)
O8 O 0.16426(14) 0.45323(18) 0.36853(14)
O9 O 0.06173(15) 0.09084(19) 0.11054(16)
O10 O -0.06367(15) 0.10238(18) 0.08794(16)
O11 O 0.01392(15) 0.41254(19) 0.43511(15)
O12 O -0.10616(15) 0.4048(2) 0.38914(18)
C1 C 0.5145(2) 0.1456(3) -0.0933(2)
C2 C 0.5217(2) 0.2189(2) -0.1580(2)
C3 C 0.4715(2) 0.2175(3) -0.2283(2)
H1 H 0.43440 0.17320 -0.23370
C4 C 0.4753(2) 0.2818(3) -0.2919(2)
H2 H 0.44030 0.27970 -0.33870
C5 C 0.5293(2) 0.3476(3) -0.2868(2)
C6 C 0.58146(19) 0.3541(2) -0.2135(2)
C7 C 0.5782(2) 0.2878(3) -0.1489(2)
C8 C 0.6298(2) 0.2947(3) -0.0762(2)
H3 H 0.62930 0.25150 -0.03400
C9 C 0.6803(2) 0.3642(3) -0.0678(2)
H4 H 0.71410 0.36760 -0.02000
C10 C 0.6816(2) 0.4304(3) -0.1304(2)
H5 H 0.71570 0.47790 -0.12320
C11 C 0.6343(2) 0.4260(3) -0.2008(2)
H6 H 0.63610 0.47060 -0.24160
C12 C 0.5325(2) 0.4084(3) -0.3619(2)
C13 C 0.2498(2) 0.1625(3) 0.0762(2)
C14 C 0.2394(2) 0.2343(2) 0.1408(2)
C15 C 0.2831(2) 0.2272(3) 0.2156(2)
H7 H 0.31790 0.18030 0.22280
C16 C 0.2770(2) 0.2879(3) 0.2810(2)
H8 H 0.30820 0.28130 0.33060
C17 C 0.22584(19) 0.3576(2) 0.2740(2)
C18 C 0.17865(18) 0.3679(2) 0.19734(19)
C19 C 0.1867(2) 0.3067(2) 0.1288(2)
C20 C 0.1434(2) 0.3227(3) 0.0521(2)
H9 H 0.14870 0.28440 0.00680
C21 C 0.0940(2) 0.3931(3) 0.0427(2)
H10 H 0.06640 0.40250 -0.00880
C22 C 0.0850(2) 0.4507(3) 0.1097(2)
H11 H 0.05060 0.49800 0.10300
C23 C 0.1256(2) 0.4391(2) 0.1848(2)
H12 H 0.11860 0.47850 0.22880
C24 C 0.2252(2) 0.4194(2) 0.3494(2)
C25 C 0.0002(2) 0.1273(3) 0.1208(2)
C26 C -0.0009(2) 0.2053(3) 0.1806(2)
C27 C 0.0387(2) 0.1979(3) 0.2578(2)
H13 H 0.07160 0.14970 0.26840
C28 C 0.0304(2) 0.2618(3) 0.3215(2)
H14 H 0.05880 0.25620 0.37310
C29 C -0.0189(2) 0.3323(3) 0.3083(2)
C30 C -0.0559(2) 0.3478(3) 0.2254(2)
C31 C -0.0462(2) 0.2832(3) 0.1621(2)
C32 C -0.0810(2) 0.3005(3) 0.0793(2)
H15 H -0.07660 0.25850 0.03660
C33 C -0.1201(3) 0.3774(3) 0.0631(3)
H16 H -0.14160 0.38830 0.00890
C34 C -0.1288(3) 0.4403(3) 0.1257(3)
H17 H -0.15600 0.49290 0.11290
C35 C -0.0983(2) 0.4261(3) 0.2052(3)
H18 H -0.10540 0.46850 0.24680
C36 C -0.0381(2) 0.3876(3) 0.3813(2)
N1 N 0.2340(4) -0.2665(4) 0.2716(4)
N2 N 0.3051(4) -0.1519(5) 0.2692(4)
C37 C 0.2780(9) -0.2692(11) 0.3425(9)
H19 H 0.27650 -0.31180 0.38510
C38 C 0.3286(5) -0.1938(6) 0.3412(5)
H20 H 0.36800 -0.17790 0.38060
C39 C 0.2504(13) -0.1962(12) 0.2275(10)
H21 H 0.22720 -0.18030 0.17510
C40 C 0.1772(5) -0.3373(6) 0.2491(6)
H22 H 0.13770 -0.31280 0.21110
H23 H 0.15640 -0.35830 0.29910
H24 H 0.20080 -0.38670 0.22260
C41 C 0.3372(5) -0.0660(6) 0.2397(5)
H25 H 0.29500 -0.02760 0.22070
H26 H 0.36330 -0.08040 0.19040
C42 C 0.3906(5) -0.0094(7) 0.2970(6)
H27 H 0.41440 0.03790 0.26650
H28 H 0.42900 -0.04580 0.32780
C43 C 0.3302(5) 0.0304(7) 0.3574(6)
H29 H 0.28680 0.05780 0.32640
H30 H 0.31410 -0.01390 0.39690
C44 C 0.3860(7) 0.1006(7) 0.3991(5)
H31 H 0.42300 0.11420 0.35960
H32 H 0.35800 0.15570 0.40700
C45 C 0.4279(7) 0.0769(8) 0.4816(6)
H33 H 0.48150 0.08650 0.47860
H34 H 0.41990 0.01370 0.49420
C46 C 0.3996(9) 0.1357(9) 0.5507(7)
H35 H 0.42810 0.12260 0.60310
H36 H 0.34720 0.12330 0.55560
H37 H 0.40580 0.19810 0.53680
C47? C 0.2207(9) -0.3158(11) 0.3054(8)
C48? C 0.2867(19) -0.270(2) 0.3439(18)
C49? C 0.247(3) -0.206(2) 0.226(2)
C50? C 0.1547(9) -0.3222(11) 0.1639(9)
C51? C 0.3496(9) -0.1215(10) 0.3010(11)
C52? C 0.3398(12) -0.0162(11) 0.289(1)
C53? C 0.3818(11) 0.0192(14) 0.3761(11)
C54? C 0.338(1) 0.0807(14) 0.4329(12)
C55? C 0.3672(11) 0.1532(14) 0.4914(14)
C56? C 0.4512(11) 0.1386(19) 0.5221(16)
H38? H 0.19250 -0.36010 0.32970
H39? H 0.31620 -0.28510 0.39270
H40? H 0.24050 -0.16300 0.18310
H41? H 0.14990 -0.28390 0.11510
H42? H 0.10640 -0.32830 0.18590
H43? H 0.17240 -0.38060 0.14850
H44? H 0.38750 -0.13730 0.26330
H45? H 0.37450 -0.12750 0.35730
H46? H 0.28700 0.00120 0.28330
H47? H 0.36430 0.00550 0.24080
H48? H 0.39860 -0.03330 0.40890
H49? H 0.42670 0.05150 0.36280
H50? H 0.29970 0.10970 0.39510
H51? H 0.31120 0.03980 0.46720
H52? H 0.33750 0.15460 0.53960
H53? H 0.36150 0.21100 0.46310
H54? H 0.46780 0.18620 0.56020
H55? H 0.48100 0.13900 0.47470
H56? H 0.45700 0.08160 0.55050
N3? N 0.2090(8) -0.2819(8) 0.2287(8)
N4? N 0.2952(8) -0.2002(9) 0.2936(8)
Eu1B Eu 0.621894(9) -0.024720(11) 0.004786(9)
Eu1C Eu 0.378106(9) 0.475280(11) -0.504786(9)
Eu1A Eu 0.621894(9) 0.524720(11) -0.495214(9)
Eu1C* Eu 0.378106(9) 0.475280(11) 0.495214(9)
Eu2C Eu 0.116139(9) 0.488016(11) 0.498842(9)
Eu2B Eu -0.116139(9) -0.011984(11) 0.001158(9)
Eu2A Eu -0.116139(9) 0.511984(11) 0.501158(9)
O2B O 0.42610(15) -0.10769(19) 0.06305(18)
O4C O 0.47146(16) 0.0697(2) 0.09867(17)
O6A O 0.40430(16) -0.0676(2) -0.11748(16)
O7C O 0.28800(14) 0.06967(19) -0.11022(15)
O8C O 0.16426(14) 0.04677(18) -0.13147(14)
O10B O 0.06367(15) -0.10238(18) -0.08794(16)
O11A O -0.01392(15) -0.08746(19) 0.06489(15)
O11C O 0.01392(15) 0.08746(19) -0.06489(15)
O12A O 0.10616(15) -0.0952(2) 0.11086(18)
#END
