
#######################################################################
#
#                 Cambridge Crystallographic Data Centre
#                                CCDC
#
#######################################################################
#
# If this CIF has been generated from an entry in the Cambridge
# Structural Database, then it will include bibliographic, chemical,
# crystal, experimental, refinement or atomic coordinate data resulting
# from the CCDC's data processing and validation procedures.
#
#######################################################################

data_CSD_CIF_MEGPUL
_audit_creation_date 2012-12-11
_audit_creation_method CSD-ConQuest-V1
_database_code_CSD MEGPUL
_database_code_depnum_ccdc_archive 'CCDC 876528'
_chemical_formula_sum 'C46 H37 Cl1 N2 O12 Tb2'
_chemical_formula_moiety
;
(C36 H18 Cl1 O12 Tb2 1-)n,n(C10 H19 N2 1+)
;
_journal_coden_Cambridge 222
_journal_volume 41
_journal_year 2012
_journal_page_first 10576
_journal_name_full 'Dalton Trans. '
loop_
_publ_author_name
"Bin Tan"
"Zai-Lai Xie"
"Mei-Ling Feng"
"Bing Hu"
"Zhao-Feng Wu"
"Xiao-Ying Huang"
_chemical_name_systematic
;
catena-(1-hexyl-3-methylimidazolium 
tris(\m~4~-naphthalene-1,4-dicarboxylato)-(\m~2~-chloro)-di-terbium(iii))
;
_cell_volume   4152.783
_exptl_crystal_colour 'colorless'
_exptl_crystal_density_diffrn 1.86
_exptl_crystal_description 'block'
_diffrn_ambient_temperature 293
_refine_special_details
;
C37A,C38A,C39A,C40A,C41A,C42A,C43A,C44A,C45A,C46A,N1A, N2A and 
C37B,C38B,C39B,C40B,C41B,C42B,C43B,C44B,C45B,C46B,N1B,N2B disordered over two 
sites with occupancies 0.614:0.386.
;
#These two values have been output from a single CSD field.
_refine_ls_R_factor_gt 0.0316
_refine_ls_wR_factor_gt 0.0316
_symmetry_cell_setting monoclinic
_symmetry_space_group_name_H-M 'P 21/c'
_symmetry_Int_Tables_number 14
loop_
_symmetry_equiv_pos_site_id
_symmetry_equiv_pos_as_xyz
1 x,y,z
2 -x,1/2+y,1/2-z
3 -x,-y,-z
4 x,-1/2-y,-1/2+z
_cell_length_a 17.6908(5)
_cell_length_b 14.8181(5)
_cell_length_c 15.8924(5)
_cell_angle_alpha 90
_cell_angle_beta 94.582(3)
_cell_angle_gamma 90
_cell_formula_units_Z 4
loop_
_atom_type_symbol
_atom_type_radius_bond
C 0.68
H 0.23
Cl 0.99
N 0.68
O 0.84
Tb 1.85
loop_
_atom_site_label
_atom_site_type_symbol
_atom_site_fract_x
_atom_site_fract_y
_atom_site_fract_z
Tb1 Tb 0.378340(11) 0.024710(14) -0.004440(12)
Tb2 Tb 0.117106(11) 0.011779(14) -0.001262(12)
Cl1 Cl 0.25211(7) -0.08281(8) 0.02495(8)
O1 O 0.4500(2) 0.1229(3) -0.0777(2)
O2 O 0.5753(2) 0.1053(2) -0.0652(2)
O3 O 0.3153(2) 0.1289(3) 0.0736(2)
O4 O 0.4701(2) 0.4287(3) -0.4026(2)
O5 O 0.19270(19) 0.1337(2) 0.0315(2)
O6 O 0.5951(2) 0.4313(3) -0.3846(2)
O7 O 0.29041(19) 0.4298(2) 0.3902(2)
O8 O 0.16653(18) 0.4547(2) 0.36966(19)
O9 O 0.06161(19) 0.0866(2) 0.1104(2)
O10 O -0.06361(19) 0.1003(2) 0.0871(2)
O11 O 0.0187(2) 0.4098(3) 0.4353(2)
O12 O -0.1025(2) 0.4030(3) 0.3933(2)
C1 C 0.5153(3) 0.1425(3) -0.0949(3)
C2 C 0.5225(3) 0.2165(3) -0.1592(3)
C3 C 0.4719(3) 0.2144(4) -0.2287(3)
H1 H 0.43470 0.16990 -0.23330
C4 C 0.4752(3) 0.2786(4) -0.2935(3)
H2 H 0.44050 0.27570 -0.34050
C5 C 0.5290(3) 0.3454(3) -0.2885(3)
C6 C 0.5805(3) 0.3534(3) -0.2147(3)
C7 C 0.5779(3) 0.2866(3) -0.1504(3)
C8 C 0.6295(3) 0.2938(4) -0.0778(3)
H3 H 0.62980 0.25000 -0.03590
C9 C 0.6786(3) 0.3647(4) -0.0690(3)
H4 H 0.71170 0.36880 -0.02070
C10 C 0.6801(3) 0.4309(4) -0.1308(3)
H5 H 0.71370 0.47900 -0.12300
C11 C 0.6327(3) 0.4259(4) -0.2029(3)
H6 H 0.63460 0.47000 -0.24430
C12 C 0.5314(3) 0.4072(3) -0.3633(3)
C13 C 0.2497(3) 0.1611(3) 0.0771(3)
C14 C 0.2400(3) 0.2329(3) 0.1416(3)
C15 C 0.2832(3) 0.2255(4) 0.2164(3)
H7 H 0.31780 0.17820 0.22360
C16 C 0.2773(3) 0.2862(4) 0.2823(3)
H8 H 0.30800 0.27880 0.33210
C17 C 0.2267(2) 0.3574(3) 0.2752(3)
C18 C 0.1794(2) 0.3680(3) 0.1981(3)
C19 C 0.1875(3) 0.3066(3) 0.1302(3)
C20 C 0.1437(3) 0.3217(4) 0.0528(3)
H9 H 0.14830 0.28240 0.00790
C21 C 0.0947(3) 0.3930(4) 0.0432(3)
H10 H 0.06710 0.40250 -0.00830
C22 C 0.0861(3) 0.4516(4) 0.1105(3)
H11 H 0.05220 0.49950 0.10360
C23 C 0.1262(3) 0.4396(3) 0.1854(3)
H12 H 0.11900 0.47900 0.22970
C24 C 0.2277(3) 0.4195(3) 0.3508(3)
C25 C 0.0000(3) 0.1246(3) 0.1207(3)
C26 C -0.0008(3) 0.2028(3) 0.1807(3)
C27 C 0.0397(3) 0.1949(4) 0.2577(3)
H13 H 0.07300 0.14680 0.26730
C28 C 0.0316(3) 0.2581(4) 0.3223(3)
H14 H 0.05990 0.25170 0.37380
C29 C -0.0176(3) 0.3293(3) 0.3098(3)
C30 C -0.0547(3) 0.3456(3) 0.2279(3)
C31 C -0.0462(3) 0.2810(3) 0.1628(3)
C32 C -0.0811(3) 0.2988(4) 0.0805(3)
H15 H -0.07710 0.25690 0.03750
C33 C -0.1204(4) 0.3771(4) 0.0647(4)
H16 H -0.14240 0.38840 0.01060
C34 C -0.1280(3) 0.4405(4) 0.1287(4)
H17 H -0.15460 0.49380 0.11650
C35 C -0.0971(3) 0.4251(4) 0.2083(4)
H18 H -0.10390 0.46710 0.25050
C36 C -0.0347(3) 0.3854(3) 0.3842(3)
N1 N 0.2341(5) -0.2679(6) 0.2708(6)
N2 N 0.3010(5) -0.1480(6) 0.2706(6)
C37 C 0.2826(6) -0.2699(10) 0.3402(7)
H19 H 0.28630 -0.31520 0.38080
C38 C 0.3233(7) -0.1973(8) 0.3402(6)
H20 H 0.36150 -0.18140 0.38110
C39 C 0.2459(6) -0.1930(6) 0.2284(6)
H21 H 0.22000 -0.17530 0.17790
C40 C 0.1781(6) -0.3378(8) 0.2471(8)
H22 H 0.15080 -0.32190 0.19460
H23 H 0.14330 -0.34290 0.29020
H24 H 0.20340 -0.39450 0.24110
C41 C 0.3290(6) -0.0590(8) 0.2409(7)
H25 H 0.28530 -0.02000 0.23080
H26 H 0.34920 -0.06920 0.18670
C42 C 0.3496(7) 0.0406(10) 0.3713(8)
H27 H 0.32570 -0.00250 0.40670
H28 H 0.31350 0.08690 0.35200
C43 C 0.3886(7) -0.0067(9) 0.2954(7)
H29 H 0.41140 0.03880 0.26160
H30 H 0.42820 -0.04730 0.31780
C44 C 0.4264(7) 0.0817(10) 0.4161(7)
H31 H 0.46720 0.03960 0.40790
H32 H 0.43770 0.13700 0.38710
C45 C 0.4278(8) 0.1029(11) 0.5126(7)
H33 H 0.43150 0.04710 0.54470
H34 H 0.47170 0.13970 0.52980
C46 C 0.3540(9) 0.1539(12) 0.5308(10)
H35 H 0.35680 0.17190 0.58900
H36 H 0.31110 0.11500 0.51910
H37 H 0.34850 0.20650 0.49560
C47? C 0.2163(9) -0.3218(11) 0.3052(9)
C48? C 0.2686(10) -0.2739(11) 0.3459(12)
C49? C 0.2533(7) -0.2106(9) 0.2234(9)
C50? C 0.1522(9) -0.3150(12) 0.1612(10)
C51? C 0.3500(9) -0.1418(11) 0.3262(10)
C52? C 0.3591(13) -0.0822(11) 0.2489(10)
C53? C 0.3341(12) -0.0029(14) 0.3020(12)
C54? C 0.3849(13) 0.0232(14) 0.3847(13)
C55? C 0.3551(11) 0.1060(14) 0.4319(13)
C56? C 0.4141(15) 0.1530(16) 0.4924(16)
H38? H 0.19100 -0.37190 0.32420
H39? H 0.28790 -0.28440 0.40120
H40? H 0.25730 -0.17240 0.17760
H41? H 0.15400 -0.27740 0.11220
H42? H 0.10200 -0.31340 0.18030
H43? H 0.16460 -0.37590 0.14710
H44? H 0.39710 -0.17230 0.34400
H45? H 0.33400 -0.10640 0.37300
H46? H 0.41080 -0.07760 0.23310
H47? H 0.32420 -0.09640 0.20050
H48? H 0.28350 -0.01610 0.31820
H49? H 0.33010 0.05000 0.26590
H50? H 0.38770 -0.02820 0.42270
H51? H 0.43600 0.03590 0.36980
H52? H 0.33510 0.14960 0.39040
H53? H 0.31340 0.08660 0.46360
H54? H 0.45320 0.17800 0.46090
H55? H 0.43600 0.10990 0.53240
H56? H 0.39020 0.20040 0.52170
N3? N 0.2071(7) -0.2818(7) 0.2287(9)
N4? N 0.2909(7) -0.2072(9) 0.2968(9)
Tb1B Tb 0.621660(11) -0.024710(14) 0.004440(12)
Tb1C Tb 0.378340(11) 0.475290(14) -0.504440(12)
Tb1A Tb 0.621660(11) 0.524710(14) -0.495560(12)
Tb1C* Tb 0.378340(11) 0.475290(14) 0.495560(12)
Tb2C Tb 0.117106(11) 0.488221(14) 0.498738(12)
Tb2B Tb -0.117106(11) -0.011779(14) 0.001262(12)
Tb2A Tb -0.117106(11) 0.511779(14) 0.501262(12)
O2B O 0.4247(2) -0.1053(2) 0.0652(2)
O4C O 0.4701(2) 0.0713(3) 0.0974(2)
O6A O 0.4049(2) -0.0687(3) -0.1154(2)
O7C O 0.29041(19) 0.0702(2) -0.1098(2)
O8C O 0.16653(18) 0.0453(2) -0.13034(19)
O10B O 0.06361(19) -0.1003(2) -0.0871(2)
O11A O -0.0187(2) -0.0902(3) 0.0647(2)
O11C O 0.0187(2) 0.0902(3) -0.0647(2)
O12A O 0.1025(2) -0.0970(3) 0.1067(2)
#END
