
#######################################################################
#
#                 Cambridge Crystallographic Data Centre
#                                CCDC
#
#######################################################################
#
# If this CIF has been generated from an entry in the Cambridge
# Structural Database, then it will include bibliographic, chemical,
# crystal, experimental, refinement or atomic coordinate data resulting
# from the CCDC's data processing and validation procedures.
#
#######################################################################

data_CSD_CIF_MEGPOF
_audit_creation_date 2012-12-11
_audit_creation_method CSD-ConQuest-V1
_database_code_CSD MEGPOF
_database_code_depnum_ccdc_archive 'CCDC 876527'
_chemical_formula_sum 'C46 H37 Cl1 Gd2 N2 O12'
_chemical_formula_moiety
;
(C36 H18 Cl1 Gd2 O12 1-)n,n(C10 H19 N2 1+)
;
_journal_coden_Cambridge 222
_journal_volume 41
_journal_year 2012
_journal_page_first 10576
_journal_name_full 'Dalton Trans. '
loop_
_publ_author_name
"Bin Tan"
"Zai-Lai Xie"
"Mei-Ling Feng"
"Bing Hu"
"Zhao-Feng Wu"
"Xiao-Ying Huang"
_chemical_name_systematic
;
catena-(1-hexyl-3-methylimidazolium 
tris(\m~4~-naphthalene-1,4-dicarboxylato)-(\m~2~-chloro)-di-gadolinium(iii))
;
_cell_volume   4164.695
_exptl_crystal_colour 'colorless'
_exptl_crystal_density_diffrn 1.85
_exptl_crystal_description 'block'
_diffrn_ambient_temperature 293
_refine_special_details
;
C37A,C38A,C39A,C40A,C41A,C42A,C43A,C44A,C45A,C46A,N1A, N2A and 
C37B,C38B,C39B,C40B,C41B,C42B,C43B,C44B,C45B,C46B,N1B,N2B disordered over two 
sites with occupancies 0.644:0.356.
;
#These two values have been output from a single CSD field.
_refine_ls_R_factor_gt 0.0247
_refine_ls_wR_factor_gt 0.0247
_symmetry_cell_setting monoclinic
_symmetry_space_group_name_H-M 'P 21/c'
_symmetry_Int_Tables_number 14
loop_
_symmetry_equiv_pos_site_id
_symmetry_equiv_pos_as_xyz
1 x,y,z
2 -x,1/2+y,1/2-z
3 -x,-y,-z
4 x,-1/2-y,-1/2+z
_cell_length_a 17.7374(3)
_cell_length_b 14.7992(3)
_cell_length_c 15.9201(3)
_cell_angle_alpha 90
_cell_angle_beta 94.7447(17)
_cell_angle_gamma 90
_cell_formula_units_Z 4
loop_
_atom_type_symbol
_atom_type_radius_bond
C 0.68
H 0.23
Cl 0.99
Gd 1.85
N 0.68
O 0.81
loop_
_atom_site_label
_atom_site_type_symbol
_atom_site_fract_x
_atom_site_fract_y
_atom_site_fract_z
Gd1 Gd 0.378316(8) 0.024717(10) -0.004639(9)
Gd2 Gd 0.116458(8) 0.011929(11) -0.001180(9)
Cl1 Cl 0.25214(5) -0.08359(6) 0.02419(6)
O1 O 0.44968(15) 0.1243(2) -0.07737(18)
O2 O 0.57452(15) 0.1066(2) -0.06429(19)
O3 O 0.31538(15) 0.1297(2) 0.07397(18)
O4 O 0.47129(16) 0.4292(2) -0.40174(18)
O5 O 0.19317(14) 0.13442(18) 0.03118(17)
O6 O 0.59588(16) 0.4314(2) -0.38331(17)
O7 O 0.28888(14) 0.4299(2) 0.39017(15)
O8 O 0.16506(13) 0.45361(19) 0.36867(14)
O9 O 0.06179(14) 0.08915(19) 0.11054(16)
O10 O -0.06371(15) 0.10142(19) 0.08769(16)
O11 O 0.01549(15) 0.4114(2) 0.43510(16)
O12 O -0.10481(15) 0.4039(2) 0.39108(18)
C1 C 0.5148(2) 0.1440(3) -0.0942(2)
C2 C 0.52216(19) 0.2176(2) -0.1585(2)
C3 C 0.4713(2) 0.2159(3) -0.2290(2)
H1 H 0.43380 0.17180 -0.23400
C4 C 0.4757(2) 0.2801(3) -0.2932(2)
H2 H 0.44140 0.27730 -0.34060
C5 C 0.52903(19) 0.3465(3) -0.2877(2)
C6 C 0.58104(18) 0.3534(2) -0.2143(2)
C7 C 0.57807(19) 0.2870(3) -0.1495(2)
C8 C 0.6299(2) 0.2941(3) -0.0766(2)
H3 H 0.63010 0.25030 -0.03470
C9 C 0.6792(2) 0.3648(3) -0.0679(3)
H4 H 0.71220 0.36910 -0.01960
C10 C 0.6812(2) 0.4304(3) -0.1299(3)
H5 H 0.71520 0.47810 -0.12240
C11 C 0.6337(2) 0.4258(3) -0.2019(2)
H6 H 0.63580 0.47010 -0.24300
C12 C 0.5322(2) 0.4075(3) -0.3630(2)
C13 C 0.2499(2) 0.1618(3) 0.0769(2)
C14 C 0.23958(19) 0.2336(3) 0.1410(2)
C15 C 0.2830(2) 0.2261(3) 0.2164(2)
H7 H 0.31750 0.17880 0.22380
C16 C 0.2767(2) 0.2870(3) 0.2815(2)
H8 H 0.30770 0.28020 0.33120
C17 C 0.22597(18) 0.3569(2) 0.2747(2)
C18 C 0.17894(18) 0.3679(2) 0.1971(2)
C19 C 0.18690(18) 0.3064(2) 0.1297(2)
C20 C 0.1434(2) 0.3220(3) 0.0516(2)
H9 H 0.14880 0.28360 0.00620
C21 C 0.0943(2) 0.3922(3) 0.0428(2)
H10 H 0.06620 0.40120 -0.00850
C22 C 0.0853(2) 0.4509(3) 0.1094(2)
H11 H 0.05130 0.49860 0.10220
C23 C 0.1258(2) 0.4392(3) 0.1851(2)
H12 H 0.11850 0.47840 0.22940
C24 C 0.22604(19) 0.4189(2) 0.3501(2)
C25 C 0.0003(2) 0.1263(3) 0.1211(2)
C26 C -0.0009(2) 0.2044(3) 0.1809(2)
C27 C 0.0393(2) 0.1970(3) 0.2574(2)
H13 H 0.07300 0.14920 0.26730
C28 C 0.0308(2) 0.2603(3) 0.3215(2)
H14 H 0.05890 0.25410 0.37310
C29 C -0.0185(2) 0.3311(3) 0.3088(2)
C30 C -0.0553(2) 0.3467(3) 0.2268(2)
C31 C -0.04630(19) 0.2821(3) 0.1623(2)
C32 C -0.0810(2) 0.2994(3) 0.0799(2)
H15 H -0.07650 0.25760 0.03710
C33 C -0.1207(3) 0.3773(4) 0.0639(3)
H16 H -0.14270 0.38820 0.00980
C34 C -0.1288(3) 0.4406(3) 0.1267(3)
H17 H -0.15540 0.49360 0.11390
C35 C -0.0982(2) 0.4262(3) 0.2072(3)
H18 H -0.10540 0.46840 0.24910
C36 C -0.0366(2) 0.3866(3) 0.3825(2)
N1 N 0.2345(4) -0.2684(4) 0.2711(4)
N2 N 0.3025(4) -0.1495(5) 0.2698(4)
C37 C 0.2845(4) -0.2683(7) 0.3408(5)
H19 H 0.28820 -0.31290 0.38220
C38 C 0.3246(5) -0.1986(6) 0.3404(5)
H20 H 0.36290 -0.18300 0.38120
C39 C 0.2469(4) -0.1940(5) 0.2280(4)
H21 H 0.22100 -0.17630 0.17750
C40 C 0.1794(5) -0.3376(6) 0.2499(6)
H22 H 0.15160 -0.32280 0.19740
H23 H 0.14530 -0.34180 0.29340
H24 H 0.20460 -0.39450 0.24460
C41 C 0.3310(5) -0.0613(6) 0.2391(6)
H25 H 0.28730 -0.02300 0.22520
H26 H 0.35380 -0.07310 0.18680
C42 C 0.3426(6) 0.0374(8) 0.3685(7)
H27 H 0.30390 0.08000 0.34760
H28 H 0.32160 -0.00690 0.40500
C43 C 0.3871(6) -0.0073(7) 0.2951(6)
H29 H 0.40970 0.03950 0.26260
H30 H 0.42710 -0.04640 0.31930
C44 C 0.4169(6) 0.0850(8) 0.4104(6)
H31 H 0.45950 0.04970 0.39430
H32 H 0.42020 0.14350 0.38350
C45 C 0.4298(7) 0.1012(9) 0.5072(6)
H33 H 0.43640 0.04400 0.53670
H34 H 0.47470 0.13770 0.52010
C46 C 0.3599(8) 0.1501(10) 0.5338(9)
H35 H 0.36730 0.16540 0.59250
H36 H 0.31660 0.11140 0.52450
H37 H 0.35190 0.20430 0.50110
C47? C 0.2173(8) -0.3202(10) 0.3061(7)
C48? C 0.2681(8) -0.274(1) 0.3448(10)
C49? C 0.2534(6) -0.2098(8) 0.2215(7)
C50? C 0.1525(8) -0.3148(11) 0.1630(8)
C51? C 0.3495(7) -0.1462(9) 0.3280(9)
C52? C 0.3592(12) -0.0859(10) 0.2528(9)
C53? C 0.3328(11) -0.0005(12) 0.2968(11)
C54? C 0.3820(12) 0.0245(14) 0.3819(12)
C55? C 0.3483(11) 0.1008(14) 0.4323(12)
C56? C 0.4055(15) 0.1522(16) 0.4885(15)
H38? H 0.19210 -0.37000 0.32590
H39? H 0.28760 -0.28390 0.40000
H40? H 0.25740 -0.17180 0.17560
H41? H 0.15370 -0.27770 0.11370
H42? H 0.10280 -0.31280 0.18260
H43? H 0.16480 -0.37590 0.14950
H44? H 0.39580 -0.17850 0.34520
H45? H 0.33370 -0.11190 0.37540
H46? H 0.32620 -0.10250 0.20360
H47? H 0.41120 -0.08220 0.23870
H48? H 0.28060 -0.00880 0.30920
H49? H 0.33420 0.05000 0.25810
H50? H 0.38730 -0.02910 0.41700
H51? H 0.43220 0.04220 0.36830
H52? H 0.32230 0.14280 0.39320
H53? H 0.31100 0.07510 0.46670
H54? H 0.44360 0.17640 0.45540
H55? H 0.42870 0.11230 0.53070
H56? H 0.38080 0.20070 0.51540
N3? N 0.2072(6) -0.2812(6) 0.2286(7)
N4? N 0.2902(6) -0.2075(7) 0.2941(7)
Gd1B Gd 0.621684(8) -0.024717(10) 0.004639(9)
Gd1C Gd 0.378316(8) 0.475283(10) -0.504639(9)
Gd1A Gd 0.621684(8) 0.524717(10) -0.495361(9)
Gd1C* Gd 0.378316(8) 0.475283(10) 0.495361(9)
Gd2C Gd 0.116458(8) 0.488071(11) 0.498820(9)
Gd2B Gd -0.116458(8) -0.011929(11) 0.001180(9)
Gd2A Gd -0.116458(8) 0.511929(11) 0.501180(9)
O2B O 0.42548(15) -0.1066(2) 0.06429(19)
O4C O 0.47129(16) 0.0708(2) 0.09826(18)
O6A O 0.40412(16) -0.0686(2) -0.11669(17)
O7C O 0.28888(14) 0.0701(2) -0.10983(15)
O8C O 0.16506(13) 0.04639(19) -0.13133(14)
O10B O 0.06371(15) -0.10142(19) -0.08769(16)
O11A O -0.01549(15) -0.0886(2) 0.06490(16)
O11C O 0.01549(15) 0.0886(2) -0.06490(16)
O12A O 0.10481(15) -0.0961(2) 0.10892(18)
#END
