
#######################################################################
#
#                 Cambridge Crystallographic Data Centre
#                                CCDC
#
#######################################################################
#
# If this CIF has been generated from an entry in the Cambridge
# Structural Database, then it will include bibliographic, chemical,
# crystal, experimental, refinement or atomic coordinate data resulting
# from the CCDC's data processing and validation procedures.
#
#######################################################################

data_CSD_CIF_MEGPUM
_audit_creation_date 2017-08-29
_audit_creation_method CSD-ConQuest-V1
_database_code_CSD MEGPUM
_database_code_depnum_ccdc_archive 'CCDC 938723'
_chemical_formula_sum 'C44 H38 Ga2 N4 O16'
_chemical_formula_moiety
;
(C32 H16 Ga2 O16 2-)n,2(C6 H11 N2 1+)
;
_journal_coden_Cambridge 211
_journal_volume 68
_journal_year 2015
_journal_page_first 1765
_journal_name_full 'J.Coord.Chem. '
loop_
_publ_author_name
"Sa-Ying Li"
"Zhi-Hong Liu"
_chemical_name_systematic
;
catena-[bis(1-ethyl-3-methyl-1H-imidazol-3-ium) 
tetrakis(\m-terephthalato)-di-gallium]
;
_cell_volume   2301.065
_exptl_crystal_colour 'colorless'
_exptl_crystal_density_diffrn 1.47
_exptl_crystal_description 'block'
_diffrn_ambient_temperature 293
#These two values have been output from a single CSD field.
_refine_ls_R_factor_gt 0.0522
_refine_ls_wR_factor_gt 0.0522
_symmetry_cell_setting monoclinic
_symmetry_space_group_name_H-M 'P 21/c'
_symmetry_Int_Tables_number 14
loop_
_symmetry_equiv_pos_site_id
_symmetry_equiv_pos_as_xyz
1 x,y,z
2 -x,1/2+y,1/2-z
3 -x,-y,-z
4 x,-1/2-y,-1/2+z
_cell_length_a 6.8573(5)
_cell_length_b 31.1640(19)
_cell_length_c 11.1749(11)
_cell_angle_alpha 90
_cell_angle_beta 105.515(8)
_cell_angle_gamma 90
_cell_formula_units_Z 2
loop_
_atom_type_symbol
_atom_type_radius_bond
C 0.68
H 0.23
Ga 1.22
N 0.68
O 0.68
loop_
_atom_site_label
_atom_site_type_symbol
_atom_site_fract_x
_atom_site_fract_y
_atom_site_fract_z
Ga1 Ga 0.77971(6) 0.127414(12) 0.26478(4)
O1 O 0.5765(4) 0.16545(9) 0.1911(3)
O2 O 0.7671(6) 0.19189(12) 0.0777(4)
O3 O 0.6027(6) 0.07116(15) 0.0488(4)
O4 O 0.8942(5) 0.09178(9) 0.1714(3)
O5 O 0.9150(5) 0.06861(12) 0.4637(4)
O6 O 0.6292(4) 0.09273(9) 0.3407(3)
O7 O 0.0137(4) 0.34273(9) -0.1592(3)
O8 O -0.1512(5) 0.32303(11) -0.0233(4)
C1 C 0.6144(7) 0.19287(13) 0.1132(4)
C2 C 0.4562(6) 0.22665(12) 0.0708(4)
C3 C 0.4835(7) 0.25838(14) -0.0105(4)
H1 H 0.60150 0.25860 -0.03640
C4 C 0.3390(7) 0.28948(14) -0.0534(4)
H2 H 0.35920 0.31060 -0.10780
C5 C 0.1633(6) 0.28899(12) -0.0147(4)
C6 C 0.1360(7) 0.25810(15) 0.0684(4)
H3 H 0.01960 0.25830 0.09600
C7 C 0.2811(7) 0.22697(14) 0.1104(4)
H4 H 0.26140 0.20610 0.16550
C8 C 0.7823(7) 0.06699(15) 0.0879(4)
C9 C 0.8971(7) 0.03237(14) 0.0425(4)
C10 C 1.1029(7) 0.02745(15) 0.0915(5)
H5 H 1.17310 0.04600 0.15320
C11 C 0.7949(8) 0.00483(16) -0.0495(5)
H6 H 0.65620 0.00800 -0.08330
C12 C 0.7323(7) 0.06631(13) 0.4227(4)
C13 C 0.6101(6) 0.03255(13) 0.4638(4)
C14 C 0.4006(7) 0.03419(14) 0.4314(4)
H7 H 0.33360 0.05720 0.38520
C15 C 0.7088(7) -0.00202(15) 0.5330(4)
H8 H 0.84940 -0.00330 0.55530
C16 C -0.0053(7) 0.32039(13) -0.0655(4)
C17 C -0.424(2) 0.1631(5) 0.7662(15)
H9 H -0.42740 0.13410 0.73700
H10 H -0.53320 0.17900 0.71270
H11 H -0.43950 0.16320 0.84920
C18 C -0.2272(12) 0.1833(3) 0.7657(8)
H12 H -0.23160 0.19370 0.68320
H13 H -0.19910 0.20740 0.82270
C19 C -0.0071(10) 0.1240(2) 0.7301(6)
H14 H -0.06040 0.12210 0.64460
C20 C 0.2579(14) 0.0672(3) 0.7499(7)
H15 H 0.18090 0.05830 0.66890
H16 H 0.28120 0.04310 0.80520
H17 H 0.38540 0.07870 0.74490
C21 C 0.1763(9) 0.1134(2) 0.9184(6)
H18 H 0.27530 0.10270 0.98570
C22 C 0.0431(9) 0.1433(2) 0.9226(6)
H19 H 0.02860 0.15710 0.99350
N1 N -0.0691(7) 0.15031(18) 0.8047(4)
N2 N 0.1436(8) 0.10084(17) 0.7978(5)
O3B O 1.3973(6) -0.07116(15) -0.0488(4)
O4B O 1.1058(5) -0.09178(9) -0.1714(3)
C8B C 1.2177(7) -0.06699(15) -0.0879(4)
C9B C 1.1029(7) -0.03237(14) -0.0425(4)
C10B C 0.8971(7) -0.02745(15) -0.0915(5)
H5B H 0.82690 -0.04600 -0.15320
C11B C 1.2051(8) -0.00483(16) 0.0495(5)
H6B H 1.34380 -0.00800 0.08330
O5B O 0.0850(5) -0.06861(12) 0.5363(4)
O6B O 0.3708(4) -0.09273(9) 0.6593(3)
C12B C 0.2677(7) -0.06631(13) 0.5773(4)
C13B C 0.3899(6) -0.03255(13) 0.5362(4)
C14B C 0.5994(7) -0.03419(14) 0.5686(4)
H7B H 0.66640 -0.05720 0.61480
C15B C 0.2912(7) 0.00202(15) 0.4670(4)
H8B H 0.15060 0.00330 0.44470
Ga1B Ga 0.22029(6) -0.127414(12) 0.73522(4)
O1B O 0.4235(4) -0.16545(9) 0.8089(3)
O2B O 0.2329(6) -0.19189(12) 0.9223(4)
O7B O 0.9863(4) -0.34273(9) 1.1592(3)
O8B O 1.1512(5) -0.32303(11) 1.0233(4)
C1B C 0.3856(7) -0.19287(13) 0.8868(4)
C2B C 0.5438(6) -0.22665(12) 0.9292(4)
C3B C 0.5165(7) -0.25838(14) 1.0105(4)
H1B H 0.39850 -0.25860 1.03640
C4B C 0.6610(7) -0.28948(14) 1.0534(4)
H2B H 0.64080 -0.31060 1.10780
C5B C 0.8367(6) -0.28899(12) 1.0147(4)
C6B C 0.8640(7) -0.25810(15) 0.9316(4)
H3B H 0.98040 -0.25830 0.90400
C7B C 0.7189(7) -0.22697(14) 0.8896(4)
H4B H 0.73860 -0.20610 0.83450
C16B C 1.0053(7) -0.32039(13) 1.0655(4)
Ga1A Ga 1.22029(6) -0.372586(12) 1.23522(4)
Ga1B* Ga 1.22029(6) -0.127414(12) -0.26478(4)
Ga1C Ga -0.22029(6) 0.372586(12) -0.23522(4)
O4B* O 0.1058(5) -0.09178(9) 0.8286(3)
O7A O -0.0137(4) -0.15727(9) 0.6592(3)
O7C O 1.0137(4) 0.15727(9) 0.3408(3)
#END
