
#######################################################################
#
#                 Cambridge Crystallographic Data Centre
#                                CCDC
#
#######################################################################
#
# If this CIF has been generated from an entry in the Cambridge
# Structural Database, then it will include bibliographic, chemical,
# crystal, experimental, refinement or atomic coordinate data resulting
# from the CCDC's data processing and validation procedures.
#
#######################################################################

data_CSD_CIF_MEGPEV
_audit_creation_date 2012-12-11
_audit_creation_method CSD-ConQuest-V1
_database_code_CSD MEGPEV
_database_code_depnum_ccdc_archive 'CCDC 876525'
_chemical_formula_sum 'C46 H37 Cl1 N2 O12 Sm2'
_chemical_formula_moiety
;
(C36 H18 Cl1 O12 Sm2 1-)n,n(C10 H19 N2 1+)
;
_journal_coden_Cambridge 222
_journal_volume 41
_journal_year 2012
_journal_page_first 10576
_journal_name_full 'Dalton Trans. '
loop_
_publ_author_name
"Bin Tan"
"Zai-Lai Xie"
"Mei-Ling Feng"
"Bing Hu"
"Zhao-Feng Wu"
"Xiao-Ying Huang"
_chemical_name_systematic
;
catena-(1-hexyl-3-methylimidazolium 
tris(\m~4~-naphthalene-1,4-dicarboxylato)-(\m~2~-chloro)-di-samarium(iii))
;
_cell_volume   4203.356
_exptl_crystal_colour 'yellow'
_exptl_crystal_density_diffrn 1.811
_exptl_crystal_description 'block'
_diffrn_ambient_temperature 293
_refine_special_details
;
C37A,C38A,C39A,C40A,C41A,C42A,C43A,C44A,C45A,C46A,N1A, N2A and 
C37B,C38B,C39B,C40B,C41B,C42B,C43B,C44B,C45B,C46B,N1B,N2B disordered over two 
sites with occupancies 0.603:0.397.
;
#These two values have been output from a single CSD field.
_refine_ls_R_factor_gt 0.0351
_refine_ls_wR_factor_gt 0.0351
_symmetry_cell_setting monoclinic
_symmetry_space_group_name_H-M 'P 21/c'
_symmetry_Int_Tables_number 14
loop_
_symmetry_equiv_pos_site_id
_symmetry_equiv_pos_as_xyz
1 x,y,z
2 -x,1/2+y,1/2-z
3 -x,-y,-z
4 x,-1/2-y,-1/2+z
_cell_length_a 17.8177(4)
_cell_length_b 14.8107(3)
_cell_length_c 15.9935(4)
_cell_angle_alpha 90
_cell_angle_beta 95.176(2)
_cell_angle_gamma 90
_cell_formula_units_Z 4
loop_
_atom_type_symbol
_atom_type_radius_bond
C 0.68
H 0.23
Cl 0.99
N 0.68
O 0.72
Sm 1.87
loop_
_atom_site_label
_atom_site_type_symbol
_atom_site_fract_x
_atom_site_fract_y
_atom_site_fract_z
Sm1 Sm 0.378008(12) 0.024810(15) -0.005075(13)
Sm2 Sm 0.115786(12) 0.012169(15) -0.001149(14)
Cl1 Cl 0.25198(7) -0.08503(9) 0.02344(9)
O1 O 0.4492(2) 0.1269(3) -0.0775(3)
O2 O 0.5735(2) 0.1085(3) -0.0627(3)
O3 O 0.3152(2) 0.1309(3) 0.0739(3)
O4 O 0.4718(2) 0.4309(3) -0.4002(3)
O5 O 0.1936(2) 0.1358(2) 0.0303(2)
O6 O 0.5957(2) 0.4321(3) -0.3811(2)
O7 O 0.2867(2) 0.4302(3) 0.3891(2)
O8 O 0.1629(2) 0.4519(3) 0.3674(2)
O9 O 0.0621(2) 0.0927(3) 0.1102(2)
O10 O -0.0628(2) 0.1028(3) 0.0880(2)
O11 O 0.0115(2) 0.4133(3) 0.4347(2)
O12 O -0.1077(2) 0.4065(3) 0.3866(3)
C1 C 0.5143(3) 0.1462(3) -0.0929(3)
C2 C 0.5221(3) 0.2198(3) -0.1575(3)
C3 C 0.4715(3) 0.2181(4) -0.2269(4)
H1 H 0.43400 0.17420 -0.23180
C4 C 0.4759(3) 0.2826(4) -0.2915(3)
H2 H 0.44140 0.28010 -0.33870
C5 C 0.5294(3) 0.3481(3) -0.2861(3)
C6 C 0.5817(3) 0.3545(3) -0.2123(3)
C7 C 0.5782(3) 0.2884(3) -0.1484(3)
C8 C 0.6300(3) 0.2952(4) -0.0758(3)
H3 H 0.62930 0.25180 -0.03390
C9 C 0.6808(3) 0.3640(4) -0.0664(4)
H4 H 0.71430 0.36730 -0.01840
C10 C 0.6824(3) 0.4304(4) -0.1295(4)
H5 H 0.71670 0.47770 -0.12250
C11 C 0.6345(3) 0.4259(4) -0.2004(3)
H6 H 0.63630 0.47020 -0.24140
C12 C 0.5328(3) 0.4085(4) -0.3610(3)
C13 C 0.2500(3) 0.1629(4) 0.0760(3)
C14 C 0.2396(3) 0.2347(4) 0.1406(3)
C15 C 0.2827(3) 0.2278(4) 0.2155(4)
H7 H 0.31740 0.18090 0.22290
C16 C 0.2765(3) 0.2887(4) 0.2814(4)
H8 H 0.30750 0.28230 0.33100
C17 C 0.2254(3) 0.3573(3) 0.2736(3)
C18 C 0.1779(3) 0.3681(3) 0.1972(3)
C19 C 0.1866(3) 0.3068(3) 0.1284(3)
C20 C 0.1434(3) 0.3228(4) 0.0516(3)
H9 H 0.14890 0.28470 0.00640
C21 C 0.0938(4) 0.3926(4) 0.0421(4)
H10 H 0.06610 0.40150 -0.00940
C22 C 0.0841(3) 0.4508(4) 0.1088(4)
H11 H 0.05000 0.49830 0.10160
C23 C 0.1243(3) 0.4387(3) 0.1843(3)
H12 H 0.11650 0.47750 0.22840
C24 C 0.2243(3) 0.4186(3) 0.3495(3)
C25 C 0.0001(3) 0.1284(4) 0.1216(3)
C26 C -0.0006(3) 0.2068(4) 0.1807(3)
C27 C 0.0385(3) 0.1997(4) 0.2574(4)
H13 H 0.07210 0.15210 0.26800
C28 C 0.0288(3) 0.2635(4) 0.3216(3)
H14 H 0.05620 0.25770 0.37360
C29 C -0.0200(3) 0.3327(4) 0.3073(3)
C30 C -0.0560(3) 0.3486(4) 0.2253(3)
C31 C -0.0469(3) 0.2840(4) 0.1604(3)
C32 C -0.0811(4) 0.3007(4) 0.0790(4)
H15 H -0.07670 0.25820 0.03690
C33 C -0.1204(4) 0.3777(5) 0.0611(4)
H16 H -0.14140 0.38850 0.00670
C34 C -0.1295(4) 0.4411(5) 0.1243(5)
H17 H -0.15690 0.49340 0.11130
C35 C -0.0992(4) 0.4275(4) 0.2043(4)
H18 H -0.10660 0.47010 0.24560
C36 C -0.0398(3) 0.3887(4) 0.3803(3)
N1 N 0.2364(8) -0.2677(8) 0.2794(7)
N2 N 0.3046(10) -0.147(1) 0.2685(10)
C37 C 0.2867(8) -0.2662(9) 0.3464(8)
H19 H 0.29120 -0.30770 0.39030
C38 C 0.3326(9) -0.1881(10) 0.3373(8)
H20 H 0.37390 -0.16990 0.37290
C39 C 0.2525(12) -0.2034(12) 0.2276(12)
H21 H 0.23200 -0.19710 0.17230
C40 C 0.1810(8) -0.3377(9) 0.2564(10)
H22 H 0.13760 -0.31120 0.22590
H23 H 0.16630 -0.36620 0.30620
H24 H 0.20260 -0.38190 0.22180
C41 C 0.3274(10) -0.0583(10) 0.2352(10)
H25 H 0.28420 -0.01830 0.22820
H26 H 0.34670 -0.06640 0.18090
C42 C 0.3316(10) 0.0268(13) 0.3556(12)
H27 H 0.28740 0.04870 0.32170
H28 H 0.31560 -0.01770 0.39480
C43 C 0.3888(10) -0.0169(13) 0.2977(11)
H29 H 0.41930 0.02760 0.27200
H30 H 0.42070 -0.06220 0.32670
C44 C 0.3727(13) 0.1069(11) 0.4042(10)
H31 H 0.40060 0.14050 0.36520
H32 H 0.33480 0.14710 0.42330
C45 C 0.4271(11) 0.0808(15) 0.4801(12)
H33 H 0.47810 0.09220 0.46630
H34 H 0.42260 0.01640 0.48940
C46 C 0.4153(17) 0.1302(18) 0.5628(11)
H35 H 0.44940 0.10620 0.60720
H36 H 0.36430 0.12150 0.57620
H37 H 0.42480 0.19350 0.55640
C47? C 0.2572(13) -0.2854(13) 0.3285(12)
C48? C 0.3133(14) -0.2163(15) 0.3415(12)
C49? C 0.2466(19) -0.1932(18) 0.2234(18)
C50? C 0.1680(12) -0.3193(15) 0.2003(13)
C51? C 0.3559(13) -0.0866(13) 0.2521(17)
C52? C 0.352(2) 0.0102(16) 0.2870(14)
C53? C 0.3873(15) 0.030(2) 0.3784(15)
C54? C 0.3345(14) 0.077(2) 0.4377(16)
C55? C 0.3677(17) 0.149(2) 0.500(2)
C56? C 0.4545(17) 0.146(3) 0.520(2)
H38? H 0.24550 -0.33020 0.36590
H39? H 0.34660 -0.20860 0.38920
H40? H 0.22330 -0.16180 0.17780
H41? H 0.16060 -0.29130 0.14600
H42? H 0.12180 -0.31760 0.22680
H43? H 0.18330 -0.38090 0.19400
H44? H 0.34810 -0.08060 0.19160
H45? H 0.40780 -0.10570 0.26440
H46? H 0.29970 0.02770 0.28370
H47? H 0.37680 0.04970 0.24940
H48? H 0.40440 -0.02630 0.40400
H49? H 0.43130 0.06820 0.37500
H50? H 0.29360 0.10510 0.40270
H51? H 0.31240 0.03020 0.47000
H52? H 0.34440 0.14210 0.55190
H53? H 0.35410 0.20790 0.47720
H54? H 0.47840 0.15190 0.46860
H55? H 0.46860 0.08890 0.54570
H56? H 0.47010 0.19400 0.55720
N3? N 0.2256(12) -0.2714(12) 0.2512(11)
N4? N 0.3090(15) -0.1655(15) 0.2736(15)
Sm1B Sm 0.621992(12) -0.024810(15) 0.005075(13)
Sm1C Sm 0.378008(12) 0.475190(15) -0.505075(13)
Sm1A Sm 0.621992(12) 0.524810(15) -0.494925(13)
Sm1C* Sm 0.378008(12) 0.475190(15) 0.494925(13)
Sm2C Sm 0.115786(12) 0.487831(15) 0.498851(14)
Sm2B Sm -0.115786(12) -0.012169(15) 0.001149(14)
Sm2A Sm -0.115786(12) 0.512169(15) 0.501149(14)
O2B O 0.4265(2) -0.1085(3) 0.0627(3)
O4C O 0.4718(2) 0.0691(3) 0.0998(3)
O6A O 0.4043(2) -0.0679(3) -0.1189(2)
O7C O 0.2867(2) 0.0698(3) -0.1109(2)
O8C O 0.1629(2) 0.0481(3) -0.1326(2)
O10B O 0.0628(2) -0.1028(3) -0.0880(2)
O11A O -0.0115(2) -0.0867(3) 0.0653(2)
O11C O 0.0115(2) 0.0867(3) -0.0653(2)
O12A O 0.1077(2) -0.0935(3) 0.1134(3)
#END
