
#######################################################################
#
#                 Cambridge Crystallographic Data Centre
#                                CCDC
#
#######################################################################
#
# If this CIF has been generated from an entry in the Cambridge
# Structural Database, then it will include bibliographic, chemical,
# crystal, experimental, refinement or atomic coordinate data resulting
# from the CCDC's data processing and validation procedures.
#
#######################################################################

data_CSD_CIF_MEGQAS
_audit_creation_date 2012-12-11
_audit_creation_method CSD-ConQuest-V1
_database_code_CSD MEGQAS
_database_code_depnum_ccdc_archive 'CCDC 876529'
_chemical_formula_sum 'C46 H37 Cl1 Dy2 N2 O12'
_chemical_formula_moiety
;
(C36 H18 Cl1 Dy2 O12 1-)n,n(C10 H19 N2 1+)
;
_journal_coden_Cambridge 222
_journal_volume 41
_journal_year 2012
_journal_page_first 10576
_journal_name_full 'Dalton Trans. '
loop_
_publ_author_name
"Bin Tan"
"Zai-Lai Xie"
"Mei-Ling Feng"
"Bing Hu"
"Zhao-Feng Wu"
"Xiao-Ying Huang"
_chemical_name_systematic
;
catena-(1-hexyl-3-methylimidazolium 
tris(\m~4~-naphthalene-1,4-dicarboxylato)-(\m~2~-chloro)-di-dysprosium(iii))
;
_cell_volume   4124.912
_exptl_crystal_colour 'yellow'
_exptl_crystal_density_diffrn 1.884
_exptl_crystal_description 'block'
_diffrn_ambient_temperature 293
_refine_special_details
;
C37A,C38A,C39A,C40A,C41A,C42A,C43A,C44A,C45A,C46A,N1A, N2A and 
C37B,C38B,C39B,C40B,C41B,C42B,C43B,C44B,C45B,C46B,N1B,N2B disordered over two 
sites with occupancies 0.592:0.408.
;
#These two values have been output from a single CSD field.
_refine_ls_R_factor_gt 0.0245
_refine_ls_wR_factor_gt 0.0245
_symmetry_cell_setting monoclinic
_symmetry_space_group_name_H-M 'P 21/c'
_symmetry_Int_Tables_number 14
loop_
_symmetry_equiv_pos_site_id
_symmetry_equiv_pos_as_xyz
1 x,y,z
2 -x,1/2+y,1/2-z
3 -x,-y,-z
4 x,-1/2-y,-1/2+z
_cell_length_a 17.66597(18)
_cell_length_b 14.78124(14)
_cell_length_c 15.84149(16)
_cell_angle_alpha 90
_cell_angle_beta 94.3097(9)
_cell_angle_gamma 90
_cell_formula_units_Z 4
loop_
_atom_type_symbol
_atom_type_radius_bond
C 0.68
H 0.23
Cl 0.99
Dy 1.84
N 0.68
O 0.86
loop_
_atom_site_label
_atom_site_type_symbol
_atom_site_fract_x
_atom_site_fract_y
_atom_site_fract_z
Dy1 Dy 0.378438(9) 0.024605(10) -0.004156(9)
Dy2 Dy 0.117500(9) 0.011639(11) -0.001260(9)
Cl1 Cl 0.25226(5) -0.08217(6) 0.02562(6)
O1 O 0.45051(16) 0.12171(18) -0.07760(18)
O2 O 0.57552(15) 0.10445(18) -0.06563(17)
O3 O 0.31561(16) 0.12857(19) 0.07354(18)
O4 O 0.46946(16) 0.4280(2) -0.40278(18)
O5 O 0.19261(15) 0.13352(17) 0.03156(16)
O6 O 0.59467(16) 0.43058(19) -0.38618(17)
O7 O 0.29141(15) 0.42965(19) 0.39060(16)
O8 O 0.16738(14) 0.45585(17) 0.37016(14)
O9 O 0.06125(15) 0.08535(18) 0.11076(16)
O10 O -0.06410(15) 0.09984(18) 0.08676(16)
O11 O 0.02046(16) 0.40846(18) 0.43551(16)
O12 O -0.10127(16) 0.40216(18) 0.39529(17)
C1 C 0.5157(2) 0.1416(2) -0.0949(2)
C2 C 0.5225(2) 0.2155(2) -0.1598(2)
C3 C 0.4715(2) 0.2133(3) -0.2299(3)
H1 H 0.43430 0.16870 -0.23470
C4 C 0.4754(2) 0.2780(3) -0.2942(2)
H2 H 0.44090 0.27500 -0.34150
C5 C 0.5284(2) 0.3451(3) -0.2892(2)
C6 C 0.5804(2) 0.3526(2) -0.2160(2)
C7 C 0.5777(2) 0.2857(2) -0.1509(2)
C8 C 0.6293(2) 0.2936(3) -0.0786(2)
H3 H 0.62980 0.24940 -0.03680
C9 C 0.6784(2) 0.3649(3) -0.0690(3)
H4 H 0.71140 0.36900 -0.02060
C10 C 0.6793(2) 0.4311(3) -0.1310(3)
H5 H 0.71250 0.47980 -0.12330
C11 C 0.6320(2) 0.4258(3) -0.2037(2)
H6 H 0.63380 0.47030 -0.24500
C12 C 0.5311(2) 0.4065(3) -0.3644(2)
C13 C 0.2496(2) 0.1605(2) 0.0768(2)
C14 C 0.2398(2) 0.2324(2) 0.1418(2)
C15 C 0.2832(2) 0.2251(3) 0.2165(3)
H7 H 0.31730 0.17730 0.22370
C16 C 0.2781(2) 0.2863(3) 0.2821(2)
H8 H 0.30950 0.27950 0.33150
C17 C 0.2270(2) 0.3573(2) 0.2751(2)
C18 C 0.1799(2) 0.3677(2) 0.1984(2)
C19 C 0.1878(2) 0.3061(2) 0.1306(2)
C20 C 0.1441(2) 0.3219(3) 0.0529(2)
H9 H 0.14900 0.28290 0.00760
C21 C 0.0954(2) 0.3930(3) 0.0437(2)
H10 H 0.06760 0.40230 -0.00780
C22 C 0.0869(2) 0.4520(3) 0.1108(2)
H11 H 0.05300 0.50010 0.10400
C23 C 0.1271(2) 0.4400(2) 0.1857(2)
H12 H 0.12030 0.47980 0.22990
C24 C 0.2281(2) 0.4199(2) 0.3514(2)
C25 C 0.0002(2) 0.1230(2) 0.1204(2)
C26 C -0.0003(2) 0.2014(3) 0.1812(2)
C27 C 0.0403(2) 0.1931(3) 0.2576(2)
H13 H 0.07350 0.14470 0.26700
C28 C 0.0327(2) 0.2567(3) 0.3223(2)
H14 H 0.06110 0.25040 0.37370
C29 C -0.0166(2) 0.3283(3) 0.3100(2)
C30 C -0.0538(2) 0.3447(3) 0.2283(2)
C31 C -0.0456(2) 0.2799(2) 0.1637(2)
C32 C -0.0807(2) 0.2977(3) 0.0813(3)
H15 H -0.07680 0.25590 0.03800
C33 C -0.1200(3) 0.3764(3) 0.0662(3)
H16 H -0.14220 0.38780 0.01210
C34 C -0.1277(3) 0.4400(3) 0.1300(3)
H17 H -0.15410 0.49340 0.11790
C35 C -0.0969(2) 0.4245(3) 0.2097(3)
H18 H -0.10400 0.46610 0.25240
C36 C -0.0329(2) 0.3843(2) 0.3852(2)
N1 N 0.2330(5) -0.2682(5) 0.2703(5)
N2 N 0.3025(5) -0.1493(5) 0.2706(5)
C37 C 0.2817(8) -0.2690(12) 0.3411(8)
H19 H 0.28430 -0.31360 0.38260
C38 C 0.3228(6) -0.1991(7) 0.3410(6)
H20 H 0.36090 -0.18410 0.38230
C39 C 0.2498(15) -0.1955(13) 0.2266(11)
H21 H 0.22800 -0.17970 0.17340
C40 C 0.1791(6) -0.3380(6) 0.2470(7)
H22 H 0.15170 -0.32240 0.19440
H23 H 0.14420 -0.34420 0.29020
H24 H 0.20540 -0.39420 0.24060
C41 C 0.3233(6) -0.0537(6) 0.2472(7)
H25 H 0.27850 -0.01650 0.25090
H26 H 0.33460 -0.05430 0.18820
C42 C 0.3474(6) 0.0413(8) 0.3743(7)
H27 H 0.31000 0.08600 0.35440
H28 H 0.32490 -0.00260 0.41040
C43 C 0.3903(6) -0.0051(7) 0.2979(6)
H29 H 0.41350 0.04000 0.26370
H30 H 0.42870 -0.04790 0.31950
C44 C 0.4240(6) 0.0860(8) 0.4179(6)
H31 H 0.46570 0.04630 0.40640
H32 H 0.43210 0.14240 0.38860
C45 C 0.4316(6) 0.1070(9) 0.5150(6)
H33 H 0.43920 0.05190 0.54780
H34 H 0.47360 0.14780 0.52910
C46 C 0.3554(7) 0.1518(9) 0.5315(8)
H35 H 0.35650 0.17070 0.58960
H36 H 0.31490 0.10920 0.52000
H37 H 0.34730 0.20350 0.49530
C47? C 0.2183(8) -0.3210(9) 0.3056(7)
C48? C 0.2693(13) -0.2752(15) 0.3454(12)
C49? C 0.248(2) -0.2058(19) 0.2266(16)
C50? C 0.1552(8) -0.3174(9) 0.1611(8)
C51? C 0.3518(8) -0.1450(9) 0.3256(8)
C52? C 0.3583(10) -0.0794(9) 0.2521(8)
C53? C 0.3356(9) -0.0043(10) 0.3105(9)
C54? C 0.3924(9) 0.0279(11) 0.3861(10)
C55? C 0.3554(9) 0.1061(11) 0.4343(10)
C56? C 0.4120(12) 0.1524(12) 0.4955(12)
H38? H 0.19340 -0.37140 0.32530
H39? H 0.28950 -0.28680 0.40030
H40? H 0.24680 -0.16200 0.18430
H41? H 0.15660 -0.28020 0.11160
H42? H 0.10470 -0.31780 0.17950
H43? H 0.16990 -0.37800 0.14790
H44? H 0.39890 -0.17800 0.33760
H45? H 0.33950 -0.11310 0.37630
H46? H 0.40930 -0.07350 0.23400
H47? H 0.32190 -0.09030 0.20420
H48? H 0.28920 -0.02330 0.33450
H49? H 0.32290 0.04820 0.27560
H50? H 0.40430 -0.02220 0.42440
H51? H 0.43930 0.04880 0.36450
H52? H 0.33390 0.15000 0.39370
H53? H 0.31430 0.08190 0.46490
H54? H 0.45180 0.17810 0.46510
H55? H 0.43330 0.10910 0.53580
H56? H 0.38710 0.19950 0.52470
N3? N 0.2071(7) -0.2817(7) 0.2278(7)
N4? N 0.2901(7) -0.2066(8) 0.2962(7)
Dy1B Dy 0.621562(9) -0.024605(10) 0.004156(9)
Dy1C Dy 0.378438(9) 0.475395(10) -0.504156(9)
Dy1A Dy 0.621562(9) 0.524605(10) -0.495844(9)
Dy1C* Dy 0.378438(9) 0.475395(10) 0.495844(9)
Dy2C Dy 0.117500(9) 0.488361(11) 0.498740(9)
Dy2B Dy -0.117500(9) -0.011639(11) 0.001260(9)
Dy2A Dy -0.117500(9) 0.511639(11) 0.501260(9)
O2B O 0.42448(15) -0.10445(18) 0.06563(17)
O4C O 0.46946(16) 0.0720(2) 0.09722(18)
O6A O 0.40533(16) -0.06942(19) -0.11382(17)
O7C O 0.29141(15) 0.07035(19) -0.10940(16)
O8C O 0.16738(14) 0.04415(17) -0.12984(14)
O10B O 0.06410(15) -0.09984(18) -0.08676(16)
O11A O -0.02046(16) -0.09154(18) 0.06449(16)
O11C O 0.02046(16) 0.09154(18) -0.06449(16)
O12A O 0.10127(16) -0.09784(18) 0.10471(17)
#END
