
#######################################################################
#
#                 Cambridge Crystallographic Data Centre
#                                CCDC
#
#######################################################################
#
# If this CIF has been generated from an entry in the Cambridge
# Structural Database, then it will include bibliographic, chemical,
# crystal, experimental, refinement or atomic coordinate data resulting
# from the CCDC's data processing and validation procedures.
#
#######################################################################

data_CSD_CIF_MEGQAT
_audit_creation_date 2017-08-29
_audit_creation_method CSD-ConQuest-V1
_database_code_CSD MEGQAT
_database_code_depnum_ccdc_archive 'CCDC 966478'
_chemical_formula_sum 'C46 H42 Ga2 N4 O16'
_chemical_formula_moiety
;
(C32 H16 Ga2 O16 2-)n,2(C7 H13 N2 1+)
;
_journal_coden_Cambridge 211
_journal_volume 68
_journal_year 2015
_journal_page_first 1765
_journal_name_full 'J.Coord.Chem. '
loop_
_publ_author_name
"Sa-Ying Li"
"Zhi-Hong Liu"
_chemical_name_systematic
;
catena-[bis(3-methyl-1-propyl-1H-imidazol-3-ium) 
tetrakis(\m-terephthalato)-di-gallium]
;
_cell_volume   2320.944
_exptl_crystal_density_diffrn 1.497
_diffrn_ambient_temperature 293
#These two values have been output from a single CSD field.
_refine_ls_R_factor_gt 0.0396
_refine_ls_wR_factor_gt 0.0396
_symmetry_cell_setting monoclinic
_symmetry_space_group_name_H-M 'P 21/c'
_symmetry_Int_Tables_number 14
loop_
_symmetry_equiv_pos_site_id
_symmetry_equiv_pos_as_xyz
1 x,y,z
2 -x,1/2+y,1/2-z
3 -x,-y,-z
4 x,-1/2-y,-1/2+z
_cell_length_a 6.7957(4)
_cell_length_b 31.230(2)
_cell_length_c 11.3264(6)
_cell_angle_alpha 90
_cell_angle_beta 105.087(6)
_cell_angle_gamma 90
_cell_formula_units_Z 2
loop_
_atom_type_symbol
_atom_type_radius_bond
C 0.68
H 0.23
Ga 1.22
N 0.68
O 0.68
loop_
_atom_site_label
_atom_site_type_symbol
_atom_site_fract_x
_atom_site_fract_y
_atom_site_fract_z
N1 N 0.8592(6) 0.60094(14) 0.6996(4)
N2 N 1.0537(6) 0.65415(15) 0.6890(4)
C1 C 1.2029(9) 0.6892(2) 0.7237(6)
H1 H 1.22800 0.69480 0.80960
H2 H 1.14970 0.71450 0.67850
H3 H 1.32800 0.68110 0.70530
C2 C 1.0002(8) 0.62687(18) 0.7634(5)
H4 H 1.05340 0.62600 0.84770
C3 C 0.9438(8) 0.64511(18) 0.5723(5)
H5 H 0.95310 0.65900 0.50130
C4 C 0.8216(8) 0.61282(18) 0.5802(4)
H6 H 0.72620 0.60040 0.51510
C5 C 0.7575(9) 0.56628(19) 0.7486(5)
H7 H 0.84800 0.55560 0.82370
H8 H 0.72820 0.54290 0.69030
C6 C 0.5612(10) 0.5815(2) 0.7739(6)
H9 H 0.49560 0.55730 0.80150
H10 H 0.47100 0.59160 0.69790
C7 C 0.5870(11) 0.6178(2) 0.8706(6)
H11 H 0.68450 0.60920 0.94430
H12 H 0.45830 0.62340 0.88780
H13 H 0.63410 0.64330 0.83930
C8 C 0.3868(6) 0.80783(13) 0.8871(4)
C9 C 0.5448(6) 0.77366(12) 0.9289(3)
C10 C 0.5178(6) 0.74322(13) 1.0124(4)
H14 H 0.40020 0.74370 1.03980
C11 C 0.6642(6) 0.71211(13) 1.0553(3)
H15 H 0.64430 0.69160 1.11060
C12 C 0.8396(6) 0.71165(12) 1.0156(3)
C13 C 1.0080(6) 0.67985(13) 1.0644(4)
C14 C 0.8650(6) 0.74140(14) 0.9305(4)
H16 H 0.98140 0.74060 0.90190
C15 C 0.7186(6) 0.77243(13) 0.8876(4)
H17 H 0.73740 0.79250 0.83080
C16 C 0.2140(7) 0.93355(13) 0.9065(4)
C17 C 0.1011(6) 0.96782(12) 0.9544(3)
C18 C 0.2075(6) 0.99552(14) 1.0436(4)
H18 H 0.34790 0.99260 1.07340
C19 C -0.1076(6) 0.97265(13) 0.9113(4)
H19 H -0.18100 0.95420 0.85140
C20 C 0.2673(6) 0.93366(13) 0.5782(4)
C21 C 0.3891(6) 0.96741(12) 0.5377(3)
C22 C 0.2901(6) 1.00023(14) 0.4621(4)
H20 H 0.14860 1.00040 0.43610
C23 C 0.3989(6) 1.03245(13) 0.4252(4)
H21 H 0.33040 1.05430 0.37520
Ga1 Ga 0.22016(6) 0.872695(12) 0.73555(4)
O1 O 0.4235(4) 0.83433(9) 0.8071(2)
O2 O 0.2347(5) 0.80977(11) 0.9249(3)
O3 O 1.1510(5) 0.67572(10) 1.0198(3)
O4 O 0.3716(4) 0.90753(8) 0.6598(2)
O5 O 0.0840(5) 0.93072(10) 0.5372(3)
O6 O 0.0990(4) 0.90840(8) 0.8262(2)
O7 O 0.3975(5) 0.93032(12) 0.9397(3)
O8 O 0.9898(4) 0.65859(9) 1.1590(2)
C16B C -0.2140(7) 1.06645(13) 1.0935(4)
C17B C -0.1011(6) 1.03218(12) 1.0456(3)
C18B C -0.2075(6) 1.00448(14) 0.9564(4)
H18B H -0.34790 1.00740 0.92660
C19B C 0.1076(6) 1.02735(13) 1.0887(4)
H19B H 0.18100 1.04580 1.14860
O6B O -0.0990(4) 1.09160(8) 1.1738(2)
O7B O -0.3975(5) 1.06968(12) 1.0603(3)
C20B C 0.7327(6) 1.06634(13) 0.4218(4)
C21B C 0.6109(6) 1.03259(12) 0.4623(3)
C22B C 0.7099(6) 0.99977(14) 0.5379(4)
H20B H 0.85140 0.99960 0.56390
C23B C 0.6011(6) 0.96755(13) 0.5748(4)
H21B H 0.66960 0.94570 0.62480
O4B O 0.6284(4) 1.09247(8) 0.3402(2)
O5B O 0.9160(5) 1.06928(10) 0.4628(3)
C8B C -0.3868(6) 1.19217(13) 1.1129(4)
C9B C -0.5448(6) 1.22634(12) 1.0711(3)
C10B C -0.5178(6) 1.25678(13) 0.9876(4)
H14B H -0.40020 1.25630 0.96020
C11B C -0.6642(6) 1.28789(13) 0.9447(3)
H15B H -0.64430 1.30840 0.88940
C12B C -0.8396(6) 1.28835(12) 0.9844(3)
C13B C -1.0080(6) 1.32015(13) 0.9356(4)
C14B C -0.8650(6) 1.25860(14) 1.0695(4)
H16B H -0.98140 1.25940 1.09810
C15B C -0.7186(6) 1.22757(13) 1.1124(4)
H17B H -0.73740 1.20750 1.16920
Ga1B Ga -0.22016(6) 1.127305(12) 1.26445(4)
O1B O -0.4235(4) 1.16567(9) 1.1929(2)
O2B O -0.2347(5) 1.19023(11) 1.0751(3)
O3B O -1.1510(5) 1.32428(10) 0.9802(3)
O8B O -0.9898(4) 1.34141(9) 0.8410(2)
Ga1A Ga -1.22016(6) 1.372695(12) 0.76445(4)
Ga1B* Ga 0.77984(6) 1.127305(12) 0.26445(4)
Ga1C Ga 1.22016(6) 0.627305(12) 1.23555(4)
O4B* O -0.3716(4) 1.09247(8) 1.3402(2)
O8A O 0.0102(4) 1.15859(9) 1.3410(2)
O8C O -0.0102(4) 0.84141(9) 0.6590(2)
#END
