
#######################################################################
#
#                 Cambridge Crystallographic Data Centre
#                                CCDC
#
#######################################################################
#
# If this CIF has been generated from an entry in the Cambridge
# Structural Database, then it will include bibliographic, chemical,
# crystal, experimental, refinement or atomic coordinate data resulting
# from the CCDC's data processing and validation procedures.
#
#######################################################################

data_CSD_CIF_MEGQOG
_audit_creation_date 2012-12-11
_audit_creation_method CSD-ConQuest-V1
_database_code_CSD MEGQOG
_database_code_depnum_ccdc_archive 'CCDC 876532'
_chemical_formula_sum 'C46 H37 Cl1 N2 O12 Y2'
_chemical_formula_moiety
;
(C36 H18 Cl1 O12 Y2 1-)n,n(C10 H19 N2 1+)
;
_journal_coden_Cambridge 222
_journal_volume 41
_journal_year 2012
_journal_page_first 10576
_journal_name_full 'Dalton Trans. '
loop_
_publ_author_name
"Bin Tan"
"Zai-Lai Xie"
"Mei-Ling Feng"
"Bing Hu"
"Zhao-Feng Wu"
"Xiao-Ying Huang"
_chemical_name_systematic
;
catena-(1-hexyl-3-methylimidazolium 
tris(\m~4~-naphthalene-1,4-dicarboxylato)-(\m~2~-chloro)-di-yttrium(iii))
;
_cell_volume   4127.121
_exptl_crystal_colour 'colorless'
_exptl_crystal_density_diffrn 1.646
_exptl_crystal_description 'block'
_diffrn_ambient_temperature 293
_refine_special_details
;
C37A,C38A,C39A,C40A,C41A,C42A,C43A,C44A,C45A,C46A,N1A, N2A and 
C37B,C38B,C39B,C40B,C41B,C42B,C43B,C44B,C45B,C46B,N1B,N2B disordered over two 
sites with occupancies 0.515:0.485.
;
#These two values have been output from a single CSD field.
_refine_ls_R_factor_gt 0.0443
_refine_ls_wR_factor_gt 0.0443
_symmetry_cell_setting monoclinic
_symmetry_space_group_name_H-M 'P 21/c'
_symmetry_Int_Tables_number 14
loop_
_symmetry_equiv_pos_site_id
_symmetry_equiv_pos_as_xyz
1 x,y,z
2 -x,1/2+y,1/2-z
3 -x,-y,-z
4 x,-1/2-y,-1/2+z
_cell_length_a 17.6892(3)
_cell_length_b 14.7676(4)
_cell_length_c 15.8400(4)
_cell_angle_alpha 90
_cell_angle_beta 94.1242(19)
_cell_angle_gamma 90
_cell_formula_units_Z 4
loop_
_atom_type_symbol
_atom_type_radius_bond
C 0.68
H 0.23
Cl 0.99
N 0.68
O 0.84
Y 1.89
loop_
_atom_site_label
_atom_site_type_symbol
_atom_site_fract_x
_atom_site_fract_y
_atom_site_fract_z
Y1 Y 0.37866(2) 0.02467(3) -0.00389(3)
Y2 Y 0.11774(2) 0.01193(3) -0.00136(3)
Cl1 Cl 0.25234(5) -0.08147(8) 0.02692(8)
O1 O 0.45068(15) 0.1202(2) -0.0777(2)
O2 O 0.57641(15) 0.1030(2) -0.0672(2)
O3 O 0.31568(15) 0.1278(2) 0.0734(2)
O4 O 0.46850(17) 0.4266(3) -0.4040(2)
O5 O 0.19248(15) 0.1324(2) 0.0329(2)
O6 O 0.59417(16) 0.4301(3) -0.3882(2)
O7 O 0.29285(14) 0.4291(2) 0.39158(19)
O8 O 0.16853(14) 0.4564(2) 0.37114(18)
O9 O 0.06125(15) 0.0839(2) 0.10973(19)
O10 O -0.06494(15) 0.0994(2) 0.08571(19)
O11 O 0.02303(16) 0.4071(2) 0.4353(2)
O12 O -0.09926(15) 0.4023(2) 0.3970(2)
C1 C 0.5161(2) 0.1411(3) -0.0962(3)
C2 C 0.5222(2) 0.2144(3) -0.1608(3)
C3 C 0.4722(2) 0.2123(3) -0.2306(3)
H1 H 0.43520 0.16750 -0.23500
C4 C 0.4754(2) 0.2759(4) -0.2955(3)
H2 H 0.44110 0.27210 -0.34280
C5 C 0.5284(2) 0.3438(3) -0.2905(3)
C6 C 0.5798(2) 0.3511(3) -0.2177(3)
C7 C 0.5776(2) 0.2848(3) -0.1523(3)
C8 C 0.6282(2) 0.2940(4) -0.0793(3)
H3 H 0.62820 0.25070 -0.03670
C9 C 0.6768(3) 0.3656(4) -0.0707(3)
H4 H 0.71000 0.37020 -0.02260
C10 C 0.6774(2) 0.4320(4) -0.1332(3)
H5 H 0.70980 0.48140 -0.12570
C11 C 0.6312(2) 0.4254(3) -0.2047(3)
H6 H 0.63300 0.46980 -0.24620
C12 C 0.5309(2) 0.4051(3) -0.3660(3)
C13 C 0.2498(2) 0.1598(3) 0.0777(3)
C14 C 0.2405(2) 0.2324(3) 0.1419(3)
C15 C 0.2832(2) 0.2244(4) 0.2174(3)
H7 H 0.31680 0.17610 0.22490
C16 C 0.2781(2) 0.2861(3) 0.2828(3)
H8 H 0.30900 0.27910 0.33230
C17 C 0.2279(2) 0.3576(3) 0.2757(3)
C18 C 0.1807(2) 0.3675(3) 0.1997(3)
C19 C 0.1874(2) 0.3060(3) 0.1317(3)
C20 C 0.1446(2) 0.3212(3) 0.0540(3)
H9 H 0.14980 0.28250 0.00850
C21 C 0.0957(2) 0.3929(4) 0.0457(3)
H10 H 0.06780 0.40220 -0.00560
C22 C 0.0868(2) 0.4521(4) 0.1126(3)
H11 H 0.05290 0.50010 0.10570
C23 C 0.1274(2) 0.4403(3) 0.1879(3)
H12 H 0.12050 0.48000 0.23230
C24 C 0.2293(2) 0.4193(3) 0.3515(3)
C25 C -0.0002(2) 0.1230(3) 0.1204(3)
C26 C -0.0009(2) 0.2009(3) 0.1812(3)
C27 C 0.0400(2) 0.1927(4) 0.2572(3)
H13 H 0.07330 0.14430 0.26620
C28 C 0.0329(2) 0.2558(3) 0.3216(3)
H14 H 0.06170 0.24930 0.37270
C29 C -0.0163(2) 0.3273(3) 0.3101(3)
C30 C -0.0536(2) 0.3437(3) 0.2291(3)
C31 C -0.0463(2) 0.2793(3) 0.1641(3)
C32 C -0.0814(3) 0.2986(4) 0.0826(3)
H15 H -0.07810 0.25700 0.03890
C33 C -0.1200(3) 0.3774(4) 0.0679(4)
H16 H -0.14170 0.38940 0.01390
C34 C -0.1274(3) 0.4400(4) 0.1318(4)
H17 H -0.15430 0.49330 0.12050
C35 C -0.0956(2) 0.4238(4) 0.2114(3)
H18 H -0.10150 0.46570 0.25420
C36 C -0.0312(2) 0.3833(3) 0.3857(3)
N1 N 0.2332(6) -0.2669(7) 0.2720(6)
N2 N 0.3024(6) -0.1508(7) 0.2705(6)
C37 C 0.2722(10) -0.2664(11) 0.3454(9)
H19 H 0.26700 -0.30560 0.39050
C38 C 0.3237(7) -0.1942(9) 0.3418(7)
H20 H 0.36380 -0.17990 0.38070
C39 C 0.2472(15) -0.1967(14) 0.2262(12)
H21 H 0.22390 -0.18140 0.17370
C40 C 0.1800(6) -0.3388(8) 0.2445(9)
H22 H 0.14680 -0.31740 0.19820
H23 H 0.15070 -0.35570 0.29070
H24 H 0.20770 -0.39040 0.22660
C41 C 0.3367(9) -0.0715(10) 0.2386(9)
H25 H 0.29740 -0.03270 0.21250
H26 H 0.36980 -0.08900 0.19510
C42 C 0.3451(9) 0.0369(12) 0.375(1)
H27 H 0.33030 -0.00140 0.42080
H28 H 0.30120 0.07040 0.35190
C43 C 0.381(1) -0.0201(12) 0.305(1)
H29 H 0.41290 0.02120 0.27580
H30 H 0.41480 -0.06330 0.33440
C44 C 0.4123(11) 0.1036(12) 0.4065(9)
H31 H 0.45710 0.08730 0.37800
H32 H 0.39830 0.16470 0.38930
C45 C 0.4333(9) 0.1035(14) 0.5046(9)
H33 H 0.44220 0.04230 0.52540
H34 H 0.47830 0.13960 0.51870
C46 C 0.3636(11) 0.1453(14) 0.5423(12)
H35 H 0.37190 0.14760 0.60280
H36 H 0.31980 0.10900 0.52700
H37 H 0.35570 0.20550 0.52060
C47? C 0.2182(7) -0.3218(9) 0.3025(7)
C48? C 0.2812(11) -0.2780(11) 0.3441(11)
C49? C 0.2501(16) -0.2082(15) 0.2247(13)
C50? C 0.1557(6) -0.3140(9) 0.1595(8)
C51? C 0.3468(8) -0.1395(9) 0.3225(10)
C52? C 0.3301(11) -0.0481(11) 0.2759(11)
C53? C 0.3995(11) 0.0115(14) 0.3037(11)
C54? C 0.4068(11) 0.0315(12) 0.4001(10)
C55? C 0.3537(9) 0.1024(14) 0.4376(12)
C56? C 0.4039(13) 0.1597(14) 0.5006(13)
H38? H 0.19000 -0.36920 0.32280
H39? H 0.30930 -0.29650 0.39300
H40? H 0.25110 -0.16710 0.18030
H41? H 0.15750 -0.27480 0.11140
H42? H 0.10520 -0.31500 0.17790
H43? H 0.17020 -0.37420 0.14420
H44? H 0.39630 -0.16150 0.30920
H45? H 0.34810 -0.12970 0.38320
H46? H 0.32590 -0.05660 0.21500
H47? H 0.28360 -0.02120 0.29300
H48? H 0.39560 0.06850 0.27310
H49? H 0.44520 -0.01870 0.28830
H50? H 0.45850 0.05060 0.41470
H51? H 0.39960 -0.02530 0.42920
H52? H 0.33040 0.14040 0.39300
H53? H 0.31400 0.07240 0.46630
H54? H 0.44270 0.18920 0.47120
H55? H 0.42700 0.12120 0.54390
H56? H 0.37340 0.20450 0.52590
N3? N 0.2079(6) -0.2808(7) 0.2281(7)
N4? N 0.2913(6) -0.2057(8) 0.2988(7)
Y1B Y 0.62134(2) -0.02467(3) 0.00389(3)
Y1C Y 0.37866(2) 0.47533(3) -0.50389(3)
Y1A Y 0.62134(2) 0.52467(3) -0.49611(3)
Y1C* Y 0.37866(2) 0.47533(3) 0.49611(3)
Y2C Y 0.11774(2) 0.48807(3) 0.49864(3)
Y2B Y -0.11774(2) -0.01193(3) 0.00136(3)
Y2A Y -0.11774(2) 0.51193(3) 0.50136(3)
O2B O 0.42359(15) -0.1030(2) 0.0672(2)
O4C O 0.46850(17) 0.0734(3) 0.0960(2)
O6A O 0.40583(16) -0.0699(3) -0.1118(2)
O7C O 0.29285(14) 0.0709(2) -0.10842(19)
O8C O 0.16853(14) 0.0436(2) -0.12886(18)
O10B O 0.06494(15) -0.0994(2) -0.08571(19)
O11A O -0.02303(16) -0.0929(2) 0.0647(2)
O11C O 0.02303(16) 0.0929(2) -0.0647(2)
O12A O 0.09926(15) -0.0977(2) 0.1030(2)
#END
