
#######################################################################
#
#                 Cambridge Crystallographic Data Centre
#                                CCDC
#
#######################################################################
#
# If this CIF has been generated from an entry in the Cambridge
# Structural Database, then it will include bibliographic, chemical,
# crystal, experimental, refinement or atomic coordinate data resulting
# from the CCDC's data processing and validation procedures.
#
#######################################################################

data_CSD_CIF_MEGQEW
_audit_creation_date 2012-12-11
_audit_creation_method CSD-ConQuest-V1
_database_code_CSD MEGQEW
_database_code_depnum_ccdc_archive 'CCDC 876530'
_chemical_formula_sum 'C46 H37 Cl1 Ho2 N2 O12'
_chemical_formula_moiety
;
(C36 H18 Cl1 Ho2 O12 1-)n,n(C10 H19 N2 1+)
;
_journal_coden_Cambridge 222
_journal_volume 41
_journal_year 2012
_journal_page_first 10576
_journal_name_full 'Dalton Trans. '
loop_
_publ_author_name
"Bin Tan"
"Zai-Lai Xie"
"Mei-Ling Feng"
"Bing Hu"
"Zhao-Feng Wu"
"Xiao-Ying Huang"
_chemical_name_systematic
;
catena-(1-hexyl-3-methylimidazolium 
tris(\m~4~-naphthalene-1,4-dicarboxylato)-(\m~2~-chloro)-di-holmium(iii))
;
_cell_volume   4105.456
_exptl_crystal_colour 'yellow'
_exptl_crystal_density_diffrn 1.901
_exptl_crystal_description 'block'
_diffrn_ambient_temperature 293
_refine_special_details
;
C37A,C38A,C39A,C40A,C41A,C42A,C43A,C44A,C45A,C46A,N1A, N2A and 
C37B,C38B,C39B,C40B,C41B,C42B,C43B,C44B,C45B,C46B,N1B,N2B disordered over two 
sites with occupancies 0.572:0.428.
;
#These two values have been output from a single CSD field.
_refine_ls_R_factor_gt 0.0381
_refine_ls_wR_factor_gt 0.0381
_symmetry_cell_setting monoclinic
_symmetry_space_group_name_H-M 'P 21/c'
_symmetry_Int_Tables_number 14
loop_
_symmetry_equiv_pos_site_id
_symmetry_equiv_pos_as_xyz
1 x,y,z
2 -x,1/2+y,1/2-z
3 -x,-y,-z
4 x,-1/2-y,-1/2+z
_cell_length_a 17.6148(5)
_cell_length_b 14.7818(5)
_cell_length_c 15.8066(5)
_cell_angle_alpha 90
_cell_angle_beta 94.043(3)
_cell_angle_gamma 90
_cell_formula_units_Z 4
loop_
_atom_type_symbol
_atom_type_radius_bond
C 0.68
H 0.23
Cl 0.99
Ho 1.83
N 0.68
O 0.86
loop_
_atom_site_label
_atom_site_type_symbol
_atom_site_fract_x
_atom_site_fract_y
_atom_site_fract_z
Ho1 Ho 0.378560(14) 0.024631(18) -0.004114(16)
Ho2 Ho 0.117714(14) 0.011582(18) -0.001410(16)
Cl1 Cl 0.25239(8) -0.08141(11) 0.02619(11)
O1 O 0.4507(3) 0.1208(3) -0.0771(3)
O2 O 0.5765(2) 0.1038(3) -0.0660(3)
O3 O 0.3152(3) 0.1278(4) 0.0731(3)
O4 O 0.4683(3) 0.4273(4) -0.4032(3)
O5 O 0.1921(2) 0.1325(3) 0.0320(3)
O6 O 0.5944(3) 0.4307(4) -0.3875(3)
O7 O 0.2924(2) 0.4292(3) 0.3906(3)
O8 O 0.1683(2) 0.4569(3) 0.3708(2)
O9 O 0.0616(2) 0.0837(3) 0.1105(3)
O10 O -0.0641(2) 0.0991(3) 0.0870(3)
O11 O 0.0219(3) 0.4077(3) 0.4355(3)
O12 O -0.1001(3) 0.4013(3) 0.3966(3)
C1 C 0.5159(4) 0.1406(4) -0.0951(4)
C2 C 0.5224(3) 0.2145(4) -0.1594(4)
C3 C 0.4721(4) 0.2124(5) -0.2299(4)
H1 H 0.43520 0.16730 -0.23470
C4 C 0.4754(4) 0.2774(5) -0.2951(4)
H2 H 0.44090 0.27430 -0.34240
C5 C 0.5287(3) 0.3449(5) -0.2897(4)
C6 C 0.5803(3) 0.3523(4) -0.2161(4)
C7 C 0.5784(3) 0.2854(4) -0.1513(4)
C8 C 0.6295(4) 0.2931(5) -0.0781(4)
H3 H 0.63000 0.24890 -0.03620
C9 C 0.6780(4) 0.3654(5) -0.0690(5)
H4 H 0.71050 0.37050 -0.02020
C10 C 0.6792(4) 0.4308(5) -0.1313(5)
H5 H 0.71280 0.47910 -0.12390
C11 C 0.6315(4) 0.4258(5) -0.2042(4)
H6 H 0.63290 0.47060 -0.24540
C12 C 0.5305(4) 0.4068(5) -0.3650(4)
C13 C 0.2489(3) 0.1595(5) 0.0771(4)
C14 C 0.2402(3) 0.2323(4) 0.1414(4)
C15 C 0.2830(4) 0.2235(5) 0.2168(5)
H7 H 0.31610 0.17480 0.22430
C16 C 0.2782(4) 0.2855(5) 0.2824(4)
H8 H 0.30960 0.27860 0.33180
C17 C 0.2276(3) 0.3575(4) 0.2757(4)
C18 C 0.1806(3) 0.3680(4) 0.1986(4)
C19 C 0.1877(3) 0.3059(4) 0.1309(4)
C20 C 0.1441(4) 0.3215(5) 0.0528(4)
H9 H 0.14890 0.28230 0.00740
C21 C 0.0956(4) 0.3927(5) 0.0438(4)
H10 H 0.06750 0.40190 -0.00750
C22 C 0.0880(4) 0.4518(5) 0.1108(4)
H11 H 0.05490 0.50060 0.10370
C23 C 0.1273(3) 0.4400(4) 0.1857(4)
H12 H 0.11970 0.47960 0.23000
C24 C 0.2285(3) 0.4196(4) 0.3521(4)
C25 C -0.0005(4) 0.1224(5) 0.1201(4)
C26 C -0.0004(3) 0.2007(4) 0.1803(4)
C27 C 0.0403(4) 0.1917(5) 0.2579(4)
H13 H 0.07270 0.14250 0.26750
C28 C 0.0333(4) 0.2558(5) 0.3220(4)
H14 H 0.06230 0.24960 0.37320
C29 C -0.0157(3) 0.3278(4) 0.3104(4)
C30 C -0.0534(3) 0.3437(4) 0.2291(4)
C31 C -0.0455(3) 0.2794(4) 0.1636(4)
C32 C -0.0809(4) 0.2971(5) 0.0815(4)
H15 H -0.07720 0.25530 0.03800
C33 C -0.1205(5) 0.3759(6) 0.0671(5)
H16 H -0.14290 0.38730 0.01320
C34 C -0.1281(4) 0.4393(6) 0.1309(5)
H17 H -0.15510 0.49240 0.11920
C35 C -0.0958(4) 0.4234(5) 0.2107(5)
H18 H -0.10190 0.46550 0.25340
C36 C -0.0314(4) 0.3833(4) 0.3855(4)
N1 N 0.2334(8) -0.2687(9) 0.2704(8)
N2 N 0.2996(7) -0.1469(9) 0.2714(8)
C37 C 0.2824(9) -0.2710(14) 0.3403(10)
H19 H 0.28680 -0.31680 0.38070
C38 C 0.321(1) -0.1989(11) 0.3401(9)
H20 H 0.35900 -0.18350 0.38130
C39 C 0.2443(8) -0.1920(8) 0.2280(8)
H21 H 0.21820 -0.17360 0.17770
C40 C 0.1793(9) -0.3398(11) 0.2482(11)
H22 H 0.15140 -0.32500 0.19570
H23 H 0.14460 -0.34570 0.29210
H24 H 0.20590 -0.39580 0.24220
C41 C 0.3279(8) -0.0593(10) 0.2456(10)
H25 H 0.28360 -0.02040 0.23770
H26 H 0.34630 -0.06820 0.18990
C42 C 0.3591(9) 0.0538(14) 0.3708(10)
H27 H 0.33050 0.10620 0.34960
H28 H 0.32730 0.01770 0.40540
C43 C 0.3889(10) -0.0037(12) 0.2959(10)
H29 H 0.41220 0.03700 0.25710
H30 H 0.42820 -0.04440 0.31900
C44 C 0.4355(9) 0.0826(13) 0.4219(9)
H31 H 0.47120 0.03290 0.41970
H32 H 0.45670 0.13350 0.39290
C45 C 0.4302(9) 0.1093(15) 0.5165(9)
H33 H 0.47250 0.14870 0.53390
H34 H 0.43440 0.05520 0.55130
C46 C 0.3543(10) 0.1584(15) 0.5319(12)
H35 H 0.35500 0.17760 0.59000
H36 H 0.31240 0.11760 0.51990
H37 H 0.34850 0.21010 0.49540
C47? C 0.2174(12) -0.3222(14) 0.3077(11)
C48? C 0.2684(12) -0.2747(14) 0.3461(15)
C49? C 0.2554(9) -0.2094(11) 0.2238(11)
C50? C 0.1553(11) -0.3134(15) 0.1636(12)
C51? C 0.3509(10) -0.1431(13) 0.3279(12)
C52? C 0.3595(15) -0.0837(13) 0.2500(11)
C53? C 0.3296(13) -0.0093(16) 0.3068(13)
C54? C 0.3782(14) 0.0194(15) 0.3889(14)
C55? C 0.3489(12) 0.1009(15) 0.4386(15)
C56? C 0.4091(16) 0.1590(17) 0.4869(18)
H38? H 0.19200 -0.37230 0.32710
H39? H 0.28710 -0.28570 0.40160
H40? H 0.25970 -0.17120 0.17760
H41? H 0.15760 -0.27520 0.11470
H42? H 0.10480 -0.31190 0.18280
H43? H 0.16790 -0.37430 0.14890
H44? H 0.39820 -0.17370 0.34510
H45? H 0.33480 -0.10770 0.37510
H46? H 0.41160 -0.07520 0.23510
H47? H 0.32580 -0.09910 0.20090
H48? H 0.28020 -0.02870 0.32370
H49? H 0.32110 0.04440 0.27210
H50? H 0.38210 -0.03220 0.42680
H51? H 0.42920 0.03340 0.37330
H52? H 0.31960 0.13960 0.39890
H53? H 0.31440 0.07830 0.47880
H54? H 0.44500 0.18030 0.44850
H55? H 0.43510 0.12350 0.53080
H56? H 0.38500 0.20970 0.51180
N3? N 0.2092(8) -0.2813(9) 0.2307(12)
N4? N 0.2929(9) -0.2065(11) 0.2984(12)
Ho1B Ho 0.621440(14) -0.024631(18) 0.004114(16)
Ho1C Ho 0.378560(14) 0.475369(18) -0.504114(16)
Ho1A Ho 0.621440(14) 0.524631(18) -0.495886(16)
Ho1C* Ho 0.378560(14) 0.475369(18) 0.495886(16)
Ho2C Ho 0.117714(14) 0.488418(18) 0.498590(16)
Ho2B Ho -0.117714(14) -0.011582(18) 0.001410(16)
Ho2A Ho -0.117714(14) 0.511582(18) 0.501410(16)
O2B O 0.4235(2) -0.1038(3) 0.0660(3)
O4C O 0.4683(3) 0.0727(4) 0.0968(3)
O6A O 0.4056(3) -0.0693(4) -0.1125(3)
O7C O 0.2924(2) 0.0708(3) -0.1094(3)
O8C O 0.1683(2) 0.0431(3) -0.1292(2)
O10B O 0.0641(2) -0.0991(3) -0.0870(3)
O11A O -0.0219(3) -0.0923(3) 0.0645(3)
O11C O 0.0219(3) 0.0923(3) -0.0645(3)
O12A O 0.1001(3) -0.0987(3) 0.1034(3)
#END
