
#######################################################################
#
#                 Cambridge Crystallographic Data Centre
#                                CCDC
#
#######################################################################
#
# If this CIF has been generated from an entry in the Cambridge
# Structural Database, then it will include bibliographic, chemical,
# crystal, experimental, refinement or atomic coordinate data resulting
# from the CCDC's data processing and validation procedures.
#
#######################################################################

data_CSD_CIF_MEGQIA
_audit_creation_date 2012-12-11
_audit_creation_method CSD-ConQuest-V1
_database_code_CSD MEGQIA
_database_code_depnum_ccdc_archive 'CCDC 876531'
_chemical_formula_sum 'C46 H37 Cl1 Er2 N2 O12'
_chemical_formula_moiety
;
(C36 H18 Cl1 Er2 O12 1-)n,n(C10 H19 N2 1+)
;
_journal_coden_Cambridge 222
_journal_volume 41
_journal_year 2012
_journal_page_first 10576
_journal_name_full 'Dalton Trans. '
loop_
_publ_author_name
"Bin Tan"
"Zai-Lai Xie"
"Mei-Ling Feng"
"Bing Hu"
"Zhao-Feng Wu"
"Xiao-Ying Huang"
_chemical_name_systematic
;
catena-(1-hexyl-3-methylimidazolium 
tris(\m~4~-naphthalene-1,4-dicarboxylato)-(\m~2~-chloro)-di-erbium(iii))
;
_cell_volume   4103.217
_exptl_crystal_colour 'pink'
_exptl_crystal_density_diffrn 1.91
_exptl_crystal_description 'block'
_diffrn_ambient_temperature 293
_refine_special_details
;
C37A,C38A,C39A,C40A,C41A,C42A,C43A,C44A,C45A,C46A,N1A, N2A and 
C37B,C38B,C39B,C40B,C41B,C42B,C43B,C44B,C45B,C46B,N1B,N2B disordered over two 
sites with occupancies 0.555:0.445.
;
#These two values have been output from a single CSD field.
_refine_ls_R_factor_gt 0.0275
_refine_ls_wR_factor_gt 0.0275
_symmetry_cell_setting monoclinic
_symmetry_space_group_name_H-M 'P 21/c'
_symmetry_Int_Tables_number 14
loop_
_symmetry_equiv_pos_site_id
_symmetry_equiv_pos_as_xyz
1 x,y,z
2 -x,1/2+y,1/2-z
3 -x,-y,-z
4 x,-1/2-y,-1/2+z
_cell_length_a 17.6322(6)
_cell_length_b 14.7719(4)
_cell_length_c 15.7947(4)
_cell_angle_alpha 90
_cell_angle_beta 94.131(3)
_cell_angle_gamma 90
_cell_formula_units_Z 4
loop_
_atom_type_symbol
_atom_type_radius_bond
C 0.68
H 0.23
Cl 0.99
Er 1.88
N 0.68
O 0.81
loop_
_atom_site_label
_atom_site_type_symbol
_atom_site_fract_x
_atom_site_fract_y
_atom_site_fract_z
Er1 Er 0.378632(9) 0.024556(11) -0.003879(9)
Er2 Er 0.118025(9) 0.011599(11) -0.001425(9)
Cl1 Cl 0.25229(6) -0.08079(7) 0.02652(7)
O1 O 0.45074(17) 0.1194(2) -0.0770(2)
O2 O 0.57653(17) 0.1029(2) -0.06734(19)
O3 O 0.31528(17) 0.1271(2) 0.07309(19)
O4 O 0.46857(18) 0.4276(2) -0.40309(19)
O5 O 0.19216(16) 0.13220(19) 0.03231(18)
O6 O 0.59420(18) 0.4302(2) -0.38807(18)
O7 O 0.29287(16) 0.4295(2) 0.39110(17)
O8 O 0.16894(15) 0.45797(19) 0.37083(15)
O9 O 0.06152(17) 0.08290(19) 0.11017(17)
O10 O -0.06427(16) 0.09812(19) 0.08619(17)
O11 O 0.02362(16) 0.4073(2) 0.43571(17)
O12 O -0.09886(17) 0.4017(2) 0.39822(18)
C1 C 0.5168(2) 0.1395(3) -0.0958(3)
C2 C 0.5231(2) 0.2136(3) -0.1605(2)
C3 C 0.4721(2) 0.2115(3) -0.2310(3)
H1 H 0.43550 0.16620 -0.23590
C4 C 0.4747(2) 0.2764(3) -0.2952(3)
H2 H 0.43940 0.27370 -0.34190
C5 C 0.5282(2) 0.3440(3) -0.2907(2)
C6 C 0.5801(2) 0.3524(3) -0.2169(2)
C7 C 0.5777(2) 0.2853(3) -0.1517(2)
C8 C 0.6288(2) 0.2928(3) -0.0788(2)
H3 H 0.62950 0.24850 -0.03690
C9 C 0.6772(3) 0.3652(3) -0.0698(3)
H4 H 0.71020 0.36970 -0.02130
C10 C 0.6779(3) 0.4327(3) -0.1325(3)
H5 H 0.71020 0.48220 -0.12480
C11 C 0.6309(2) 0.4254(3) -0.2049(3)
H6 H 0.63260 0.46940 -0.24690
C12 C 0.5306(2) 0.4059(3) -0.3656(3)
C13 C 0.2490(2) 0.1595(3) 0.0773(3)
C14 C 0.2396(2) 0.2312(3) 0.1423(3)
C15 C 0.2831(3) 0.2230(3) 0.2176(3)
H7 H 0.31680 0.17470 0.22510
C16 C 0.2778(3) 0.2854(3) 0.2829(3)
H8 H 0.30890 0.27850 0.33260
C17 C 0.2278(2) 0.3573(3) 0.2759(2)
C18 C 0.1806(2) 0.3677(3) 0.1989(2)
C19 C 0.1877(2) 0.3057(3) 0.1312(2)
C20 C 0.1444(3) 0.3213(3) 0.0530(3)
H9 H 0.14940 0.28220 0.00760
C21 C 0.0956(3) 0.3932(3) 0.0440(3)
H10 H 0.06730 0.40230 -0.00730
C22 C 0.0878(3) 0.4527(3) 0.1112(3)
H11 H 0.05440 0.50140 0.10440
C23 C 0.1285(2) 0.4405(3) 0.1866(3)
H12 H 0.12220 0.48060 0.23090
C24 C 0.2293(2) 0.4205(3) 0.3517(2)
C25 C -0.0006(2) 0.1215(3) 0.1200(2)
C26 C -0.0010(2) 0.1995(3) 0.1811(2)
C27 C 0.0407(2) 0.1906(3) 0.2580(3)
H13 H 0.07340 0.14160 0.26710
C28 C 0.0340(3) 0.2548(3) 0.3223(3)
H14 H 0.06350 0.24870 0.37320
C29 C -0.0155(2) 0.3268(3) 0.3114(2)
C30 C -0.0533(2) 0.3433(3) 0.2301(3)
C31 C -0.0455(2) 0.2782(3) 0.1647(2)
C32 C -0.0810(3) 0.2965(3) 0.0823(3)
H15 H -0.07800 0.25440 0.03890
C33 C -0.1191(3) 0.3757(3) 0.0673(3)
H16 H -0.14010 0.38800 0.01280
C34 C -0.1276(3) 0.4390(3) 0.1318(3)
H17 H -0.15510 0.49190 0.12040
C35 C -0.0954(3) 0.4231(3) 0.2115(3)
H18 H -0.10130 0.46530 0.25420
C36 C -0.0309(2) 0.3828(3) 0.3866(2)
N1 N 0.2322(5) -0.2684(5) 0.2681(5)
N2 N 0.2987(5) -0.1464(6) 0.2728(5)
C37 C 0.2808(6) -0.2722(9) 0.3389(6)
H19 H 0.28480 -0.31890 0.37850
C38 C 0.3208(6) -0.1978(7) 0.3407(6)
H20 H 0.35860 -0.18260 0.38240
C39 C 0.2444(5) -0.1917(6) 0.2291(5)
H21 H 0.21890 -0.17230 0.17880
C40 C 0.1780(6) -0.3404(7) 0.2446(7)
H22 H 0.15020 -0.32530 0.19200
H23 H 0.14320 -0.34710 0.28830
H24 H 0.20480 -0.39620 0.23820
C41 C 0.3276(5) -0.0562(7) 0.2487(7)
H25 H 0.28400 -0.01590 0.24510
H26 H 0.34340 -0.06230 0.19140
C42 C 0.3534(6) 0.0443(9) 0.3770(7)
H27 H 0.31750 0.09090 0.35770
H28 H 0.32940 0.00170 0.41350
C43 C 0.3922(6) -0.0050(8) 0.2996(7)
H29 H 0.41500 0.03940 0.26390
H30 H 0.43140 -0.04680 0.32110
C44 C 0.4311(7) 0.0851(9) 0.4205(7)
H31 H 0.47150 0.04210 0.41260
H32 H 0.44290 0.14000 0.39050
C45 C 0.4314(7) 0.1075(10) 0.5166(7)
H33 H 0.47300 0.14810 0.53360
H34 H 0.43670 0.05280 0.55040
C46 C 0.3533(7) 0.154(1) 0.5280(9)
H35 H 0.35180 0.17440 0.58560
H36 H 0.31300 0.11130 0.51520
H37 H 0.34720 0.20480 0.49020
C47? C 0.2161(7) -0.3221(8) 0.3048(6)
C48? C 0.2682(8) -0.2733(9) 0.3465(9)
C49? C 0.2537(5) -0.2109(7) 0.2234(7)
C50? C 0.1544(7) -0.3146(9) 0.1589(7)
C51? C 0.3488(7) -0.1425(8) 0.3289(8)
C52? C 0.3584(10) -0.0798(8) 0.2544(8)
C53? C 0.3358(9) -0.0039(10) 0.3102(9)
C54? C 0.3937(9) 0.0265(11) 0.3856(10)
C55? C 0.3551(8) 0.1023(10) 0.4362(10)
C56? C 0.4126(11) 0.1525(11) 0.4939(11)
H38? H 0.19070 -0.37260 0.32360
H39? H 0.28680 -0.28350 0.40230
H40? H 0.25820 -0.17250 0.17740
H41? H 0.15670 -0.27640 0.11000
H42? H 0.10380 -0.31380 0.17760
H43? H 0.16760 -0.37550 0.14440
H44? H 0.39600 -0.17350 0.34560
H45? H 0.33230 -0.10930 0.37730
H46? H 0.41020 -0.07570 0.23780
H47? H 0.32280 -0.09090 0.20580
H48? H 0.28870 -0.02110 0.33410
H49? H 0.32480 0.04850 0.27430
H50? H 0.40670 -0.02460 0.42240
H51? H 0.44000 0.04930 0.36360
H52? H 0.32960 0.14460 0.39670
H53? H 0.31700 0.07540 0.46980
H54? H 0.45150 0.17680 0.46100
H55? H 0.43500 0.11160 0.53580
H56? H 0.38780 0.20090 0.52150
N3? N 0.2079(5) -0.2815(6) 0.2272(7)
N4? N 0.2908(5) -0.2062(7) 0.2969(7)
Er1B Er 0.621368(9) -0.024556(11) 0.003879(9)
Er1C Er 0.378632(9) 0.475444(11) -0.503879(9)
Er1A Er 0.621368(9) 0.524556(11) -0.496121(9)
Er1C* Er 0.378632(9) 0.475444(11) 0.496121(9)
Er2C Er 0.118025(9) 0.488401(11) 0.498575(9)
Er2B Er -0.118025(9) -0.011599(11) 0.001425(9)
Er2A Er -0.118025(9) 0.511599(11) 0.501425(9)
O2B O 0.42347(17) -0.1029(2) 0.06734(19)
O4C O 0.46857(18) 0.0724(2) 0.09691(19)
O6A O 0.40580(18) -0.0698(2) -0.11193(18)
O7C O 0.29287(16) 0.0705(2) -0.10890(17)
O8C O 0.16894(15) 0.04203(19) -0.12917(15)
O10B O 0.06427(16) -0.09812(19) -0.08619(17)
O11A O -0.02362(16) -0.0927(2) 0.06429(17)
O11C O 0.02362(16) 0.0927(2) -0.06429(17)
O12A O 0.09886(17) -0.0983(2) 0.10178(18)
#END
