
#######################################################################
#
#                 Cambridge Crystallographic Data Centre
#                                CCDC
#
#######################################################################
#
# If this CIF has been generated from an entry in the Cambridge
# Structural Database, then it will include bibliographic, chemical,
# crystal, experimental, refinement or atomic coordinate data resulting
# from the CCDC's data processing and validation procedures.
#
#######################################################################

data_CSD_CIF_MEJBOU
_audit_creation_date 2012-12-31
_audit_creation_method CSD-ConQuest-V1
_database_code_CSD MEJBOU
_database_code_depnum_ccdc_archive 'CCDC 842949'
_chemical_formula_sum 'C62 H83 Fe1 N2 O20 Ru3 S6'
_chemical_formula_moiety
;
(C8 H20 N1 1+)2n,n(C44 H33 Fe1 O16 Ru3 S6 2-),n(C2 H6 O2),2n(H2 O1)
;
_journal_coden_Cambridge 1220
_journal_volume 18
_journal_year 2012
_journal_page_first 11228
_journal_name_full 'Chem.-Eur.J. '
loop_
_publ_author_name
"S.L.-F.Chan"
"Song Gao"
"S.S.-Y.Chui"
"Lam Shek"
"Jie-Sheng Huang"
"Chi-Ming Che"
_chemical_name_systematic
;
catena-[bis(Tetraethylammonium) 
bis(\m~3~-2-sulfidobenzoato)-tetrakis(\m~2~-2-sulfidobenzoato)-diaqua-(2-hydro
xyethanolato)-iron-tri-ruthenium ethylene glycol solvate dihydrate]
;
_cell_volume  13647.611
_exptl_crystal_colour 'brown'
_exptl_crystal_density_diffrn 1.682
_exptl_crystal_description 'bar'
_diffrn_ambient_temperature 100
_refine_special_details
;
The structure is disordered.

;
#These two values have been output from a single CSD field.
_refine_ls_R_factor_gt 0.0502
_refine_ls_wR_factor_gt 0.0502
_symmetry_cell_setting orthorhombic
_symmetry_space_group_name_H-M 'P b c n'
_symmetry_Int_Tables_number 60
loop_
_symmetry_equiv_pos_site_id
_symmetry_equiv_pos_as_xyz
1 x,y,z
2 1/2-x,1/2-y,1/2+z
3 -x,y,1/2-z
4 1/2+x,1/2-y,-z
5 -x,-y,-z
6 -1/2+x,-1/2+y,-1/2-z
7 x,-y,-1/2+z
8 -1/2-x,-1/2+y,z
_cell_length_a 21.1373(5)
_cell_length_b 26.3031(7)
_cell_length_c 24.5471(6)
_cell_angle_alpha 90
_cell_angle_beta 90
_cell_angle_gamma 90
_cell_formula_units_Z 8
loop_
_atom_type_symbol
_atom_type_radius_bond
C 0.68
H 0.23
Fe 1.52
N 0.68
O 0.68
Ru 1.46
S 1.02
loop_
_atom_site_label
_atom_site_type_symbol
_atom_site_fract_x
_atom_site_fract_y
_atom_site_fract_z
Ru1 Ru 0.256319(17) 0.473680(14) 0.142995(16)
Ru2 Ru 0.254077(16) 0.576797(13) 0.129215(15)
Ru3 Ru 0.250178(15) 0.680701(14) 0.113118(16)
Fe1 Fe 0.17213(4) 0.32809(3) 0.12179(3)
S1 S 0.33361(5) 0.52642(4) 0.17466(5)
S2 S 0.25057(5) 0.51266(5) 0.06103(5)
S3 S 0.17880(5) 0.52489(4) 0.17774(5)
S4 S 0.17432(5) 0.62614(4) 0.08462(4)
S5 S 0.32792(5) 0.62854(4) 0.08084(5)
S6 S 0.25734(5) 0.64250(5) 0.19636(5)
O1 O 0.25977(17) 0.42984(14) 0.21450(16)
O2 O 0.2865(2) 0.40496(15) 0.29707(16)
O3 O 0.32402(17) 0.42276(13) 0.11328(15)
O4 O 0.42037(17) 0.40382(15) 0.08663(15)
O5 O 0.19012(16) 0.42009(13) 0.11692(14)
O6 O 0.09966(16) 0.38307(13) 0.10409(15)
O7 O 0.24703(14) 0.72020(13) 0.03904(15)
O8 O 0.24875(18) 0.73569(16) -0.04813(17)
O9 O 0.31518(15) 0.73745(12) 0.13443(14)
O10 O 0.40496(17) 0.77742(13) 0.14057(17)
O11 O 0.18406(16) 0.73340(12) 0.14237(13)
O12 O 0.12773(19) 0.77658(14) 0.20159(16)
O13 O 0.17694(17) 0.35008(14) 0.20560(15)
H1 H 0.20160 0.37500 0.20890
H2 H 0.19060 0.32500 0.22400
O14 O 0.26967(18) 0.32821(13) 0.11623(16)
H3 H 0.28430 0.30310 0.13320
H4 H 0.28630 0.35560 0.12550
C1 C 0.3243(2) 0.53020(19) 0.2467(2)
C2 C 0.2986(2) 0.4921(2) 0.2798(2)
C3 C 0.2930(3) 0.5014(2) 0.3361(2)
H5 H 0.27520 0.47590 0.35880
C4 C 0.3125(3) 0.5464(2) 0.3592(2)
H6 H 0.30620 0.55260 0.39690
C5 C 0.3416(3) 0.5830(2) 0.3266(2)
H7 H 0.35700 0.61360 0.34240
C6 C 0.3482(2) 0.5745(2) 0.2710(2)
H8 H 0.36930 0.59900 0.24920
C7 C 0.2807(2) 0.43911(19) 0.2620(2)
C8 C 0.3235(2) 0.50583(18) 0.0262(2)
C9 C 0.3714(2) 0.47000(18) 0.0377(2)
C10 C 0.4240(3) 0.4691(2) 0.0025(2)
H9 H 0.45680 0.44520 0.00920
C11 C 0.4294(3) 0.5015(2) -0.0411(2)
H10 H 0.46550 0.49970 -0.06400
C12 C 0.3824(3) 0.5366(2) -0.0516(2)
H11 H 0.38630 0.55940 -0.08150
C13 C 0.3296(2) 0.53852(19) -0.0183(2)
H12 H 0.29710 0.56240 -0.02590
C14 C 0.3722(2) 0.43005(18) 0.0825(2)
C15 C 0.1099(2) 0.51677(18) 0.13700(19)
C16 C 0.0951(2) 0.47272(18) 0.1068(2)
C17 C 0.0397(2) 0.47273(19) 0.0752(2)
H13 H 0.02910 0.44320 0.05480
C18 C 0.0004(2) 0.5146(2) 0.0731(2)
H14 H -0.03540 0.51460 0.04970
C19 C 0.0135(2) 0.55686(19) 0.1054(2)
H15 H -0.01440 0.58510 0.10550
C20 C 0.0672(2) 0.55753(19) 0.1374(2)
H16 H 0.07540 0.58610 0.15990
C21 C 0.1305(2) 0.42343(18) 0.10936(19)
C22 C 0.1794(2) 0.62042(18) 0.0125(2)
C23 C 0.2084(2) 0.65480(19) -0.0237(2)
C24 C 0.2081(3) 0.6428(2) -0.0795(2)
H17 H 0.22800 0.66540 -0.10430
C25 C 0.1802(3) 0.5996(2) -0.0992(2)
H18 H 0.18200 0.59210 -0.13710
C26 C 0.1494(3) 0.5669(2) -0.0640(2)
H19 H 0.12910 0.53730 -0.07760
C27 C 0.1482(2) 0.57772(19) -0.0087(2)
H20 H 0.12590 0.55580 0.01530
C28 C 0.2370(2) 0.7061(2) -0.0096(2)
C29 C 0.3970(2) 0.64087(19) 0.1205(2)
C30 C 0.4124(2) 0.68793(19) 0.1444(2)
C31 C 0.4703(3) 0.6923(2) 0.1718(2)
H21 H 0.48100 0.72370 0.18850
C32 C 0.5119(3) 0.6525(2) 0.1749(3)
H22 H 0.55040 0.65620 0.19450
C33 C 0.4978(3) 0.6069(2) 0.1495(3)
H23 H 0.52710 0.57960 0.15060
C34 C 0.4410(2) 0.60147(19) 0.1227(2)
H24 H 0.43150 0.57010 0.10520
C35 C 0.3754(2) 0.73607(19) 0.1393(2)
C36 C 0.1840(2) 0.64928(19) 0.23026(19)
C37 C 0.1710(3) 0.6125(2) 0.2699(2)
H25 H 0.20080 0.58610 0.27650
C38 C 0.1154(3) 0.6142(2) 0.2995(2)
H26 H 0.10650 0.58840 0.32550
C39 C 0.0728(3) 0.6530(2) 0.2914(3)
H27 H 0.03430 0.65380 0.31120
C40 C 0.0866(3) 0.6910(2) 0.2542(2)
H28 H 0.05780 0.71840 0.24980
C41 C 0.1420(2) 0.68986(19) 0.2228(2)
C42 C 0.1521(2) 0.73600(19) 0.1872(2)
O15 O 0.1720(3) 0.3049(2) 0.0368(2)
C43 C 0.1990(4) 0.3433(3) -0.0024(3)
H29 H 0.23090 0.36380 0.01740
H30 H 0.22150 0.32460 -0.03150
C44 C 0.1508(4) 0.3811(3) -0.0302(4)
H31 H 0.12620 0.40000 -0.00260
H32 H 0.17310 0.40570 -0.05400
O16 O 0.1101(3) 0.3476(2) -0.0620(2)
H33 H 0.13040 0.32160 -0.07120
O17 O 0.3634(2) 0.7501(2) -0.1026(2)
H34 H 0.35240 0.73430 -0.13170
H35 H 0.33530 0.74360 -0.07820
O18 O 0.3249(2) 0.69302(18) -0.19869(19)
H36 H 0.33910 0.70960 -0.22630
H37 H 0.33140 0.66130 -0.20490
O19 O 0.1800(3) 0.7905(2) -0.1270(2)
H38 H 0.19990 0.77420 -0.10310
O20 O 0.1994(3) 0.70739(19) -0.2048(2)
H39 H 0.23690 0.70220 -0.19490
C45 C 0.2182(4) 0.7944(3) -0.1755(3)
H40 H 0.26270 0.78620 -0.16660
H41 H 0.21680 0.82970 -0.18940
C46 C 0.1932(4) 0.7565(3) -0.2213(3)
H42 H 0.14810 0.76370 -0.22900
H43 H 0.21740 0.76180 -0.25530
N1 N 0.46392(19) 0.25949(15) 0.01257(15)
C47 C 0.4277(2) 0.2328(2) 0.05558(18)
H44 H 0.40000 0.20720 0.03810
H45 H 0.40000 0.25780 0.07410
C48 C 0.4689(3) 0.2058(2) 0.0990(2)
H46 H 0.44270 0.19720 0.13060
H47 H 0.50320 0.22860 0.11050
H48 H 0.48700 0.17470 0.08350
C49 C 0.5091(3) 0.2237(2) -0.0166(3)
H49 H 0.52630 0.24150 -0.04890
H50 H 0.54510 0.21640 0.00810
C50 C 0.4812(3) 0.1739(2) -0.0350(3)
H51 H 0.51360 0.15390 -0.05380
H52 H 0.44580 0.18040 -0.05980
H53 H 0.46590 0.15490 -0.00320
C51 C 0.4996(3) 0.3019(2) 0.0386(2)
H54 H 0.52870 0.28710 0.06590
H55 H 0.46900 0.32360 0.05840
C52 C 0.5378(4) 0.3355(3) 0.0012(3)
H56 H 0.53770 0.37040 0.01520
H57 H 0.51900 0.33500 -0.03540
H58 H 0.58130 0.32290 -0.00070
C53 C 0.4183(3) 0.2801(2) -0.0284(2)
H59 H 0.39370 0.25130 -0.04340
H60 H 0.44290 0.29500 -0.05880
C54 C 0.3719(3) 0.3200(2) -0.0079(3)
H61 H 0.34470 0.33110 -0.03800
H62 H 0.39530 0.34930 0.00640
H63 H 0.34570 0.30540 0.02110
N2 N 0.00000 0.3971(2) 0.25000
C55 C -0.0003(3) 0.3642(2) 0.1993(2)
H64 H -0.00120 0.38670 0.16700
H65 H 0.03980 0.34480 0.19800
C56 C -0.0546(3) 0.3271(2) 0.1950(3)
H66 H -0.05100 0.30800 0.16090
H67 H -0.09470 0.34580 0.19540
H68 H -0.05340 0.30360 0.22590
C57 C 0.0589(3) 0.4295(2) 0.2464(2)
H69 H 0.05760 0.44880 0.21170
H70 H 0.09620 0.40680 0.24480
C58 C 0.0685(3) 0.4670(2) 0.2927(2)
H71 H 0.10810 0.48570 0.28700
H72 H 0.07070 0.44850 0.32730
H73 H 0.03300 0.49090 0.29370
N3 N 0.50000 0.4026(2) 0.25000
C59 C 0.4524(5) 0.3695(4) 0.2789(4)
H74 H 0.42990 0.34810 0.25190
H75 H 0.42080 0.39120 0.29740
C60 C 0.4865(4) 0.3343(3) 0.3223(3)
H76 H 0.45520 0.31190 0.33950
H77 H 0.50650 0.35550 0.35020
H78 H 0.51880 0.31370 0.30410
C61 C 0.4638(5) 0.4346(4) 0.2096(4)
H79 H 0.43160 0.45540 0.22860
H80 H 0.44210 0.41260 0.18280
C62 C 0.5149(5) 0.4716(3) 0.1787(3)
H81 H 0.49310 0.49200 0.15120
H82 H 0.54740 0.45070 0.16120
H83 H 0.53490 0.49410 0.20550
C63? C 0.4646(5) 0.3706(4) 0.2092(4)
C64? C 0.4496(5) 0.4356(4) 0.2776(5)
Fe1G Fe 0.32787(4) 0.82809(3) 0.12179(3)
O9G O 0.18482(15) 0.23745(12) 0.13443(14)
O10G O 0.09504(17) 0.27742(13) 0.14057(17)
C55B C 0.0003(3) 0.3642(2) 0.3007(2)
H64B H 0.00120 0.38670 0.33300
H65B H -0.03980 0.34480 0.30200
C56B C 0.0546(3) 0.3271(2) 0.3050(3)
H66B H 0.05100 0.30800 0.33910
H67B H 0.09470 0.34580 0.30460
H68B H 0.05340 0.30360 0.27410
C57B C -0.0589(3) 0.4295(2) 0.2536(2)
H69B H -0.05760 0.44880 0.28830
H70B H -0.09620 0.40680 0.25520
C58B C -0.0685(3) 0.4670(2) 0.2073(2)
H71B H -0.10810 0.48570 0.21300
H72B H -0.07070 0.44850 0.17270
H73B H -0.03300 0.49090 0.20630
C59B C 0.5476(5) 0.3695(4) 0.2211(4)
H74B H 0.57010 0.34810 0.24810
H75B H 0.57920 0.39120 0.20260
C60B C 0.5135(4) 0.3343(3) 0.1777(3)
H76B H 0.54480 0.31190 0.16050
H77B H 0.49350 0.35550 0.14980
H78B H 0.48120 0.31370 0.19590
C61B C 0.5362(5) 0.4346(4) 0.2904(4)
H79B H 0.56840 0.45540 0.27140
H80B H 0.55790 0.41260 0.31720
C62B C 0.4851(5) 0.4716(3) 0.3213(3)
H81B H 0.50690 0.49200 0.34880
H82B H 0.45260 0.45070 0.33880
H83B H 0.46510 0.49410 0.29450
#END
