
#######################################################################
#
#                 Cambridge Crystallographic Data Centre
#                                CCDC
#
#######################################################################
#
# If this CIF has been generated from an entry in the Cambridge
# Structural Database, then it will include bibliographic, chemical,
# crystal, experimental, refinement or atomic coordinate data resulting
# from the CCDC's data processing and validation procedures.
#
#######################################################################

data_CSD_CIF_MEJBUA
_audit_creation_date 2012-12-31
_audit_creation_method CSD-ConQuest-V1
_database_code_CSD MEJBUA
_database_code_depnum_ccdc_archive 'CCDC 842950'
_chemical_formula_sum 'C56 H66 Mn3 N1 O23 Ru3 S6'
_chemical_formula_moiety
;
(C8 H20 N1 1+)n,n(C48 H36 Mn3 O18 Ru3 S6 1-),5n(H2 O1)
;
_journal_coden_Cambridge 1220
_journal_volume 18
_journal_year 2012
_journal_page_first 11228
_journal_name_full 'Chem.-Eur.J. '
loop_
_publ_author_name
"S.L.-F.Chan"
"Song Gao"
"S.S.-Y.Chui"
"Lam Shek"
"Jie-Sheng Huang"
"Chi-Ming Che"
_chemical_name_systematic
;
catena-[Tetraethylammonium 
hexakis(\m~3~-2-sulfidobenzoato)-tris(\m~2~-ethane-1,2-diolato)-tri-manganese-
tri-ruthenium pentahydrate]
;
_cell_volume   3327.897
_exptl_crystal_colour 'purple'
_exptl_crystal_description 'prism'
_diffrn_ambient_temperature 100
_refine_special_details
;
The tetra-ethylammonium cation is disordered by symmetry.

;
#These two values have been output from a single CSD field.
_refine_ls_R_factor_gt 0.0806
_refine_ls_wR_factor_gt 0.0806
_symmetry_cell_setting hexagonal
_symmetry_space_group_name_H-M 'P 63/m'
_symmetry_Int_Tables_number 176
loop_
_symmetry_equiv_pos_site_id
_symmetry_equiv_pos_as_xyz
1 x,y,z
2 -y,x-y,z
3 -x+y,-x,z
4 -x,-y,1/2+z
5 y,-x+y,1/2+z
6 x-y,x,1/2+z
7 -x,-y,-z
8 y,-x+y,-z
9 x-y,x,-z
10 x,y,-1/2-z
11 -y,x-y,-1/2-z
12 -x+y,-x,-1/2-z
_cell_length_a 12.1900(2)
_cell_length_b 12.1900(2)
_cell_length_c 25.8602(5)
_cell_angle_alpha 90
_cell_angle_beta 90
_cell_angle_gamma 120
_cell_formula_units_Z 2
loop_
_atom_type_symbol
_atom_type_radius_bond
C 0.61
H 0.23
Mn 1.26
N 0.68
O 0.81
Ru 1.46
S 1.02
loop_
_atom_site_label
_atom_site_type_symbol
_atom_site_fract_x
_atom_site_fract_y
_atom_site_fract_z
Ru1 Ru 0.00000 -1.00000 0.00000
Ru2 Ru 0.00000 -1.00000 0.10613(5)
Mn1 Mn 0.1570(8) -0.8144(9) 0.25000
S1 S 0.1619(2) -0.9850(2) 0.05706(8)
O1 O 0.1279(7) -0.8604(7) 0.1568(3)
O2 O 0.292(2) -0.706(2) 0.1903(6)
C1 C 0.2893(10) -0.8260(11) 0.0610(4)
C2 C 0.3781(10) -0.7908(12) 0.0210(4)
H1 H 0.36600 -0.84990 -0.00540
C3 C 0.4835(11) -0.6704(13) 0.0197(5)
H2 H 0.54400 -0.64730 -0.00730
C4 C 0.5002(13) -0.5829(14) 0.0583(5)
H3 H 0.56920 -0.49850 0.05670
C5 C 0.4175(13) -0.6197(13) 0.0978(5)
H4 H 0.43230 -0.56020 0.12450
C6 C 0.3103(12) -0.7412(12) 0.1018(4)
C7 C 0.2370(15) -0.7705(14) 0.1503(5)
O3 O 0.33330 -0.33330 0.25000
O4 O 0.33330 -0.33330 0.112(3)
O5 O 0.123(8) -0.585(7) 0.128(3)
O6 O -0.052(10) -0.660(7) 0.178(2)
N1 N 0.66670 -0.66670 0.25000
C8 C 0.5818(8) -0.6671(16) 0.21161(3)
C9 C 0.66670 -0.66670 0.16433(7)
C10? C 0.667(2) -0.5500(11) 0.25000
O7 O 0.281(2) -0.592(3) 0.25000
O8 O -0.021(3) -0.8626(18) 0.25000
C11 C 0.156(2) -0.6279(13) 0.25000
C12 C 0.0221(17) -0.736(2) 0.25000
Ru2F Ru 0.00000 -1.00000 -0.10613(5)
Mn1A Mn -0.1856(8) -1.0286(9) 0.25000
Mn1B Mn 0.0286(8) -1.1570(9) 0.25000
Mn1C Mn -0.1570(8) -1.1856(9) -0.25000
Mn1D Mn 0.1856(8) -0.9714(9) -0.25000
Mn1E Mn -0.0286(8) -0.8430(9) -0.25000
S1A S -0.0150(2) -0.8531(2) 0.05706(8)
S1B S -0.1469(2) -1.1619(2) 0.05706(8)
S1F S -0.1619(2) -1.0150(2) -0.05706(8)
S1G S 0.0150(2) -1.1469(2) -0.05706(8)
S1H S 0.1469(2) -0.8381(2) -0.05706(8)
O1A O -0.1396(7) -1.0117(7) 0.1568(3)
O1B O 0.0117(7) -1.1279(7) 0.1568(3)
O1F O -0.1279(7) -1.1396(7) -0.1568(3)
O1G O 0.1396(7) -0.9883(7) -0.1568(3)
O1H O -0.0117(7) -0.8721(7) -0.1568(3)
O1I O 0.1279(7) -0.8604(7) 0.3432(3)
O1J O -0.1396(7) -1.0117(7) 0.3432(3)
O1K O 0.0117(7) -1.1279(7) 0.3432(3)
O2A O -0.294(2) -1.002(2) 0.1903(6)
O2B O 0.002(2) -1.292(2) 0.1903(6)
O2F O -0.292(2) -1.294(2) -0.1903(6)
O2G O 0.294(2) -0.998(2) -0.1903(6)
O2H O -0.002(2) -0.708(2) -0.1903(6)
O2I O 0.292(2) -0.706(2) 0.3097(6)
O2J O -0.294(2) -1.002(2) 0.3097(6)
O2K O 0.002(2) -1.292(2) 0.3097(6)
C1A C -0.174(1) -0.8847(11) 0.0610(4)
C1B C -0.1153(10) -1.2893(11) 0.0610(4)
C1F C -0.2893(10) -1.1740(11) -0.0610(4)
C1G C 0.174(1) -1.1153(11) -0.0610(4)
C1H C 0.1153(10) -0.7107(11) -0.0610(4)
C2A C -0.2092(10) -0.8311(12) 0.0210(4)
C2B C -0.1689(10) -1.3781(12) 0.0210(4)
C2F C -0.3781(10) -1.2092(12) -0.0210(4)
C2G C 0.2092(10) -1.1689(12) -0.0210(4)
C2H C 0.1689(10) -0.6219(12) -0.0210(4)
H1A H -0.15010 -0.78410 -0.00540
H1B H -0.21590 -1.36600 -0.00540
H1F H -0.36600 -1.15010 0.00540
H1G H 0.15010 -1.21590 0.00540
H1H H 0.21590 -0.63400 0.00540
C3A C -0.3296(11) -0.8461(13) 0.0197(5)
C3B C -0.1539(11) -1.4835(13) 0.0197(5)
C3F C -0.4835(11) -1.3296(13) -0.0197(5)
C3G C 0.3296(11) -1.1539(13) -0.0197(5)
C3H C 0.1539(11) -0.5165(13) -0.0197(5)
H2A H -0.35270 -0.80870 -0.00730
H2B H -0.19130 -1.54400 -0.00730
H2F H -0.54400 -1.35270 0.00730
H2G H 0.35270 -1.19130 0.00730
H2H H 0.19130 -0.45600 0.00730
C4A C -0.4171(13) -0.9169(14) 0.0583(5)
C4B C -0.0831(13) -1.5002(14) 0.0583(5)
C4F C -0.5002(13) -1.4171(14) -0.0583(5)
C4G C 0.4171(13) -1.0831(14) -0.0583(5)
C4H C 0.0831(13) -0.4998(14) -0.0583(5)
H3A H -0.50150 -0.93230 0.05670
H3B H -0.06770 -1.56920 0.05670
H3F H -0.56920 -1.50150 -0.05670
H3G H 0.50150 -1.06770 -0.05670
H3H H 0.06770 -0.43080 -0.05670
C5A C -0.3803(13) -0.9628(13) 0.0978(5)
C5B C -0.0372(13) -1.4175(13) 0.0978(5)
C5F C -0.4175(13) -1.3803(13) -0.0978(5)
C5G C 0.3803(13) -1.0372(13) -0.0978(5)
C5H C 0.0372(13) -0.5825(13) -0.0978(5)
H4A H -0.43980 -1.00750 0.12450
H4B H 0.00750 -1.43230 0.12450
H4F H -0.43230 -1.43980 -0.12450
H4G H 0.43980 -0.99250 -0.12450
H4H H -0.00750 -0.56770 -0.12450
C6A C -0.2588(12) -0.9485(12) 0.1018(4)
C6B C -0.0515(12) -1.3103(12) 0.1018(4)
C6F C -0.3103(12) -1.2588(12) -0.1018(4)
C6G C 0.2588(12) -1.0515(12) -0.1018(4)
C6H C 0.0515(12) -0.6897(12) -0.1018(4)
C7A C -0.2295(15) -0.9925(14) 0.1503(5)
C7B C -0.0075(15) -1.2370(14) 0.1503(5)
C7F C -0.2370(15) -1.2295(14) -0.1503(5)
C7G C 0.2295(15) -1.0075(14) -0.1503(5)
C7H C 0.0075(15) -0.7630(14) -0.1503(5)
C8B C 0.7511(8) -0.5818(16) 0.21161(3)
C8A C 0.6671(8) -0.7511(16) 0.21161(3)
C8I C 0.5818(8) -0.6671(16) 0.28839(3)
C8K C 0.7511(8) -0.5818(16) 0.28839(3)
C8J C 0.6671(8) -0.7511(16) 0.28839(3)
C9I C 0.66670 -0.66670 0.33567(7)
O7B O 0.127(2) -1.281(3) 0.25000
O7A O -0.408(2) -1.127(3) 0.25000
O8B O 0.1584(30) -0.9790(18) 0.25000
O8A O -0.1374(30) -1.1584(18) 0.25000
C11B C 0.2161(20) -1.1560(13) 0.25000
C11A C -0.3721(20) -1.2161(13) 0.25000
C12B C 0.2419(17) -1.0221(20) 0.25000
C12A C -0.2640(17) -1.2419(20) 0.25000
#END
