
#######################################################################
#
#                 Cambridge Crystallographic Data Centre
#                                CCDC
#
#######################################################################
#
# If this CIF has been generated from an entry in the Cambridge
# Structural Database, then it will include bibliographic, chemical,
# crystal, experimental, refinement or atomic coordinate data resulting
# from the CCDC's data processing and validation procedures.
#
#######################################################################

data_CSD_CIF_MELGAM
_audit_creation_date 2006-10-24
_audit_creation_method CSD-ConQuest-V1
_database_code_CSD MELGAM
_database_code_depnum_ccdc_archive 'CCDC 617955'
_chemical_formula_sum 'C2 H4 Na2 O16 P2 V2'
_chemical_formula_moiety
;
(Na1 1+)2n,n(C2 O14 P2 V2 2-),2n(H2 O1)
;
_journal_coden_Cambridge 9
_journal_volume 45
_journal_year 2006
_journal_page_first 6034
_journal_name_full 'Inorg.Chem. '
loop_
_publ_author_name
"J.F.Colin"
"T.Bataille"
"S.E.Ashbrook"
"N.Audebrand"
"L.Le Polles"
"J.Y.Pivan"
"E.Le Fur"
_chemical_name_systematic
;
catena-(disodium bis(\m~3~-phosphato)-(\m~2~-oxalato)-dioxo-di-vanadium 
dihydrate)
;
_cell_volume    685.793
_exptl_special_details
;
powder data
23Na (spin I=3/2) solid state NMR was used to ascertain the correct space 
group
;
_diffrn_ambient_temperature ?
_diffrn_special_details
;
The study was carried out at room temperature,in the range 283-303K

;
#These two values have been output from a single CSD field.
_refine_ls_R_factor_gt 0.052
_refine_ls_wR_factor_gt 0.052
_symmetry_cell_setting monoclinic
_symmetry_space_group_name_H-M 'P 21'
_symmetry_Int_Tables_number 4
loop_
_symmetry_equiv_pos_site_id
_symmetry_equiv_pos_as_xyz
1 x,y,z
2 -x,1/2+y,-z
_cell_length_a 6.3534(1)
_cell_length_b 17.1614(3)
_cell_length_c 6.56320(11)
_cell_angle_alpha 90
_cell_angle_beta 106.5970(14)
_cell_angle_gamma 90
_cell_formula_units_Z 2
loop_
_atom_type_symbol
_atom_type_radius_bond
C 0.68
Na 0.97
O 0.67
P 1.05
V 1.30
loop_
_atom_site_label
_atom_site_type_symbol
_atom_site_fract_x
_atom_site_fract_y
_atom_site_fract_z
V1 V 0.7255(18) 0.6229(10) 0.8979(18)
V2 V 0.2778(18) 0.4473(10) 1.1092(17)
P1 P 0.803(2) 0.4675(10) 1.179(2)
P2 P 0.206(2) 0.6003(9) 0.8349(19)
O1 O 0.658(4) 0.5755(15) 0.700(4)
O2 O 0.324(4) 0.5230(14) 1.304(4)
O3 O 0.588(4) 0.4278(17) 1.120(4)
O4 O 0.757(6) 0.5559(13) 1.137(6)
O5 O 0.897(4) 0.4471(18) 1.438(3)
O6 O 0.925(4) 0.4336(19) 1.039(4)
O7 O 0.407(4) 0.6463(18) 0.908(4)
O8 O 0.228(6) 0.5148(13) 0.847(6)
O9 O 0.089(4) 0.6083(18) 0.601(3)
O10 O 0.034(4) 0.6272(19) 0.936(4)
C1 C 0.718(3) 0.7816(9) 0.7960(17)
C2 C 0.766(3) 0.7787(8) 1.0461(18)
O11 O 0.720(3) 0.8512(8) 0.727(3)
O12 O 0.683(4) 0.7186(9) 0.687(2)
O13 O 0.756(3) 0.7135(8) 1.124(3)
O14 O 0.802(3) 0.8460(8) 1.135(3)
O15 O 0.718(5) 0.3727(20) 0.692(6)
O16 O 0.282(3) 0.7062(13) 0.339(4)
Na1 Na 0.3337(14) 0.4194(7) 0.6247(15)
Na2 Na 0.6133(13) 0.6469(7) 0.3633(14)
V1* V -0.2745(18) 0.6229(10) 0.8979(18)
V2* V 1.2778(18) 0.4473(10) 1.1092(17)
V2A V 0.7222(18) 0.9473(10) 0.8908(17)
O6* O -0.075(4) 0.4336(19) 1.039(4)
O10* O 1.034(4) 0.6272(19) 0.936(4)
O11A O 0.280(3) 0.3512(8) 1.273(3)
O14A O 0.198(3) 0.3460(8) 0.865(3)
#END
