
#######################################################################
#
#                 Cambridge Crystallographic Data Centre
#                                CCDC
#
#######################################################################
#
# If this CIF has been generated from an entry in the Cambridge
# Structural Database, then it will include bibliographic, chemical,
# crystal, experimental, refinement or atomic coordinate data resulting
# from the CCDC's data processing and validation procedures.
#
#######################################################################

data_CSD_CIF_MELHOB
_audit_creation_date 2006-10-24
_audit_creation_method CSD-ConQuest-V1
_database_code_CSD MELHOB
_database_code_depnum_ccdc_archive 'CCDC 603578'
_chemical_formula_sum 'C12 H38 Cu14 I8 N30 O7'
_chemical_formula_moiety
;
(H3 O1 1+)2n,n(C12 H24 Cu14 I8 N30 O1 2-),4n(H2 O1)
;
_journal_coden_Cambridge 1295
_journal_volume 9
_journal_year 2006
_journal_page_first 819
_journal_name_full 'Inorg.Chem.Commun. '
loop_
_publ_author_name
"Quan-Guo Zhai"
"Can-Zhong Lu"
"Shu-Mei Chen"
"Xin-Jiang Xu"
"Wen-Bin Yang"
_chemical_name_systematic
;
catena-(bis(oxonium) 
hexakis(\m~3~-3,5-diamino-1,2,4-triazole-N,N',N'')-octakis(\m~3~-iodo)-(\m~2~-
oxo)-tetradeca-copper(i) tetrahydrate)
;
_cell_volume   3657.557
_exptl_crystal_colour 'yellow'
_exptl_crystal_density_diffrn 3.568
_exptl_crystal_description 'dodecahedron'
_diffrn_ambient_temperature 293
#These two values have been output from a single CSD field.
_refine_ls_R_factor_gt 0.0697
_refine_ls_wR_factor_gt 0.0697
_symmetry_cell_setting rhombohedral
_symmetry_space_group_name_H-M 'R -3'
_symmetry_Int_Tables_number 148
loop_
_symmetry_equiv_pos_site_id
_symmetry_equiv_pos_as_xyz
1 x,y,z
2 -y,x-y,z
3 -x+y,-x,z
4 2/3+x,1/3+y,1/3+z
5 2/3-y,1/3+x-y,1/3+z
6 2/3-x+y,1/3-x,1/3+z
7 1/3+x,2/3+y,2/3+z
8 1/3-y,2/3+x-y,2/3+z
9 1/3-x+y,2/3-x,2/3+z
10 -x,-y,-z
11 y,-x+y,-z
12 x-y,x,-z
13 -2/3-x,-1/3-y,-1/3-z
14 -2/3+y,-1/3-x+y,-1/3-z
15 -2/3+x-y,-1/3+x,-1/3-z
16 -1/3-x,-2/3-y,-2/3-z
17 -1/3+y,-2/3-x+y,-2/3-z
18 -1/3+x-y,-2/3+x,-2/3-z
_cell_length_a 15.4326(8)
_cell_length_b 15.4326(8)
_cell_length_c 17.7330(18)
_cell_angle_alpha 90
_cell_angle_beta 90
_cell_angle_gamma 120
_cell_formula_units_Z 3
loop_
_atom_type_symbol
_atom_type_radius_bond
C 0.68
H 0.23
Cu 1.36
I 1.40
N 0.68
O 0.68
loop_
_atom_site_label
_atom_site_type_symbol
_atom_site_fract_x
_atom_site_fract_y
_atom_site_fract_z
Cu1 Cu 0.42309(14) 0.51455(13) 0.32639(12)
Cu2 Cu 0.07886(15) 0.11417(13) 0.23686(13)
Cu3 Cu 0.00000 0.00000 0.1223(2)
I1 I 0.00000 0.00000 0.36619(8)
I2 I -0.03215(6) 0.15438(6) 0.15459(5)
C1 C 0.2413(8) 0.3319(8) 0.2685(7)
C2 C 0.3303(9) 0.3032(10) 0.3443(8)
N1 N 0.4055(11) 0.3163(12) 0.3932(10)
H1 H 0.40500 0.26510 0.41290
H2 H 0.45280 0.37560 0.40410
N2 N 0.3254(7) 0.3809(7) 0.3124(6)
N3 N 0.2568(8) 0.2160(8) 0.3254(7)
N4 N 0.2091(10) 0.3802(9) 0.2221(7)
H3 H 0.15720 0.34640 0.19430
H4 H 0.24070 0.44450 0.22050
N5 N 0.1975(7) 0.2332(7) 0.2747(6)
O1 O 0.4773(11) 0.2221(11) 0.3641(11)
O2 O 0.00000 0.00000 0.00000
Cu1A Cu -0.51455(14) -0.09146(13) 0.32639(12)
Cu1B Cu 0.09146(14) -0.42309(13) 0.32639(12)
Cu1N Cu 0.241873(140) 0.089757(130) 0.340277(120)
Cu1L Cu -0.089757(140) 0.152117(130) 0.340277(120)
Cu1M Cu -0.152117(140) -0.241873(130) 0.340277(120)
Cu1M* Cu 0.847883(140) 0.758127(130) 0.340277(120)
Cu1N* Cu -0.758127(140) 0.089757(130) 0.340277(120)
Cu1L* Cu -0.089757(140) -0.847883(130) 0.340277(120)
Cu2A Cu -0.11417(15) -0.03531(13) 0.23686(13)
Cu2B Cu 0.03531(15) -0.07886(13) 0.23686(13)
Cu2I Cu -0.07886(15) -0.11417(13) -0.23686(13)
Cu2J Cu 0.11417(15) 0.03531(13) -0.23686(13)
Cu2K Cu -0.03531(15) 0.07886(13) -0.23686(13)
Cu2M Cu 0.447503(150) 0.701977(130) 0.429807(130)
Cu2N Cu -0.701977(150) -0.254473(130) 0.429807(130)
Cu2L Cu 0.254473(150) -0.447503(130) 0.429807(130)
Cu3I Cu 0.00000 0.00000 -0.1223(2)
I1I I 0.00000 0.00000 -0.36619(8)
I2A I -0.15438(6) -0.18653(6) 0.15459(5)
I2B I 0.18653(6) 0.03215(6) 0.15459(5)
I2I I 0.03215(6) -0.15438(6) -0.15459(5)
I2J I 0.15438(6) 0.18653(6) -0.15459(5)
I2K I -0.18653(6) -0.03215(6) -0.15459(5)
C1A C -0.3319(8) -0.0906(8) 0.2685(7)
C1B C 0.0906(8) -0.2413(8) 0.2685(7)
C1M C 0.665233(800) 0.757267(800) 0.398167(700)
C1N C -0.757267(800) -0.092033(800) 0.398167(700)
C1L C 0.092033(800) -0.665233(800) 0.398167(700)
C2A C -0.3032(9) 0.0271(10) 0.3443(8)
C2B C -0.0271(9) -0.3303(10) 0.3443(8)
C2M C 0.636533(900) 0.639567(1000) 0.322367(800)
C2N C -0.639567(900) -0.003033(1000) 0.322367(800)
C2L C 0.003033(900) -0.636533(1000) 0.322367(800)
N1A N -0.3163(11) 0.0892(12) 0.3932(10)
N1B N -0.0892(11) -0.4055(12) 0.3932(10)
N1M N 0.649633(1100) 0.577467(1200) 0.273467(1000)
N1N N -0.577467(1100) 0.072167(1200) 0.273467(1000)
N1L N -0.072167(1100) -0.649633(1200) 0.273467(1000)
H1A H -0.26510 0.13990 0.41290
H1B H -0.13990 -0.40500 0.41290
H1M H 0.59843 0.52677 0.25377
H1N H -0.52677 0.07167 0.25377
H1L H -0.07167 -0.59843 0.25377
H2A H -0.37560 0.07720 0.40410
H2B H -0.07720 -0.45280 0.40410
H2M H 0.70893 0.58947 0.26257
H2N H -0.58947 0.11947 0.26257
H2L H -0.11947 -0.70893 0.26257
N2A N -0.3809(7) -0.0555(7) 0.3124(6)
N2B N 0.0555(7) -0.3254(7) 0.3124(6)
N2M N 0.714233(700) 0.722167(700) 0.354267(600)
N2N N -0.722167(700) -0.007933(700) 0.354267(600)
N2L N 0.007933(700) -0.714233(700) 0.354267(600)
N2N* N 0.277833(700) -0.007933(700) 0.354267(600)
N2L* N 0.007933(700) 0.285767(700) 0.354267(600)
N2M* N -0.285767(700) -0.277833(700) 0.354267(600)
N3A N -0.2160(8) 0.0408(8) 0.3254(7)
N3B N -0.0408(8) -0.2568(8) 0.3254(7)
N3M N 0.549333(800) 0.625867(800) 0.341267(700)
N3N N -0.625867(800) -0.076533(800) 0.341267(700)
N3L N 0.076533(800) -0.549333(800) 0.341267(700)
N4A N -0.3802(10) -0.1711(9) 0.2221(7)
N4B N 0.1711(10) -0.2091(9) 0.2221(7)
N4M N 0.713533(1000) 0.837767(900) 0.444567(700)
N4N N -0.837767(1000) -0.124233(900) 0.444567(700)
N4L N 0.124233(1000) -0.713533(900) 0.444567(700)
H3A H -0.34640 -0.18920 0.19430
H3B H 0.18920 -0.15720 0.19430
H3M H 0.67973 0.85587 0.47237
H3N H -0.85587 -0.17613 0.47237
H3L H 0.17613 -0.67973 0.47237
H4A H -0.44450 -0.20380 0.22050
H4B H 0.20380 -0.24070 0.22050
H4M H 0.77783 0.87047 0.44617
H4N H -0.87047 -0.09263 0.44617
H4L H 0.09263 -0.77783 0.44617
N5A N -0.2332(7) -0.0357(7) 0.2747(6)
N5B N 0.0357(7) -0.1975(7) 0.2747(6)
N5M N 0.566533(700) 0.702367(700) 0.391967(600)
N5N N -0.702367(700) -0.135833(700) 0.391967(600)
N5L N 0.135833(700) -0.566533(700) 0.391967(600)
N5I N -0.1975(7) -0.2332(7) -0.2747(6)
N5J N 0.2332(7) 0.0357(7) -0.2747(6)
N5K N -0.0357(7) 0.1975(7) -0.2747(6)
#END
