
#######################################################################
#
#                 Cambridge Crystallographic Data Centre
#                                CCDC
#
#######################################################################
#
# If this CIF has been generated from an entry in the Cambridge
# Structural Database, then it will include bibliographic, chemical,
# crystal, experimental, refinement or atomic coordinate data resulting
# from the CCDC's data processing and validation procedures.
#
#######################################################################

data_CSD_CIF_MEMGAN
_audit_creation_date 2006-10-24
_audit_creation_method CSD-ConQuest-V1
_database_code_CSD MEMGAN
_database_code_depnum_ccdc_archive 'CCDC 260215'
_chemical_formula_sum 'C13 H18 Cu1 N2 O10'
_chemical_formula_moiety
;
(C3 H12 N2 2+)n,n(C10 H2 Cu1 O8 2-),2n(H2 O1)
;
_journal_coden_Cambridge 1237
_journal_volume 70
_journal_year 2005
_journal_page_first 1441
_journal_name_full 'J.Serb.Chem.Soc. '
loop_
_publ_author_name
"D.Poleti"
"L.Karanovic"
_chemical_name_systematic
;
catena-(1,3-Propanediammonium 
(\m~4~-1,2,4,5-benzenetetracarboxylato)-copper(ii) dihydrate)
;
_cell_volume   1680.923
_exptl_crystal_colour 'dark blue'
_exptl_crystal_density_diffrn 1.683
_exptl_crystal_description 'octahedron-like'
_diffrn_ambient_temperature 298
_diffrn_special_details
;
refined as a racemic twin with components 1.5

;
#These two values have been output from a single CSD field.
_refine_ls_R_factor_gt 0.0301
_refine_ls_wR_factor_gt 0.0301
_symmetry_cell_setting orthorhombic
_symmetry_space_group_name_H-M 'C c 2 m'
_symmetry_Int_Tables_number 40
loop_
_symmetry_equiv_pos_site_id
_symmetry_equiv_pos_as_xyz
1 x,y,z
2 x,y,1/2-z
3 -x,y,1/2+z
4 -x,y,-z
5 1/2+x,1/2+y,z
6 1/2+x,1/2+y,1/2-z
7 1/2-x,1/2+y,1/2+z
8 1/2-x,1/2+y,-z
_cell_length_a 8.8871(14)
_cell_length_b 11.4931(19)
_cell_length_c 16.457(3)
_cell_angle_alpha 90
_cell_angle_beta 90
_cell_angle_gamma 90
_cell_formula_units_Z 4
loop_
_atom_type_symbol
_atom_type_radius_bond
C 0.68
H 0.23
Cu 1.52
N 0.68
O 0.68
loop_
_atom_site_label
_atom_site_type_symbol
_atom_site_fract_x
_atom_site_fract_y
_atom_site_fract_z
Cu1 Cu 0.00000 0.00191(17) 0.00000
O1 O 0.0156(4) -0.1149(5) 0.0892(3)
O2 O 0.2541(4) -0.1165(4) 0.0492(3)
O3 O 0.4711(5) -0.3845(5) 0.0865(3)
O4 O 0.2306(4) -0.3842(4) 0.0507(3)
O5 O 0.5513(3) 0.9154(4) 0.3903(2)
H1 H 0.45770 0.90520 0.37770
H2 H 0.56150 0.97200 0.41820
N1 N -0.2694(5) 0.2359(5) -0.10014(19)
H3 H -0.26010 0.19040 -0.05670
H4 H -0.35050 0.28060 -0.09470
H5 H -0.18810 0.28060 -0.10480
C1 C 0.1482(5) -0.1543(5) 0.25000(19)
H6 H 0.08560 -0.08940 0.25000
C2 C 0.1959(6) -0.2038(6) 0.1749(4)
C3 C 0.2947(6) -0.2987(6) 0.1777(4)
C4 C 0.3407(7) -0.3410(7) 0.25000
H7 H 0.40810 -0.40290 0.25000
C5 C 0.1545(7) -0.1430(6) 0.0985(4)
C6 C 0.3342(7) -0.3598(6) 0.0976(4)
C7 C -0.2652(10) 0.2303(9) -0.25000
H8 H -0.33670 0.29410 -0.25000
H9 H -0.16490 0.26360 -0.25000
C8 C -0.2855(5) 0.1618(5) -0.1748(3)
H10 H -0.21130 0.09990 -0.17330
H11 H -0.38450 0.12630 -0.17520
Cu1D Cu 0.50000 -0.49809(17) 0.00000
Cu1E Cu 0.50000 -0.49809(17) 0.50000
Cu1A Cu 0.00000 0.00191(17) 0.50000
O1A O 0.0156(4) -0.1149(5) 0.4108(3)
O1C O -0.0156(4) -0.1149(5) -0.0892(3)
O2A O 0.2541(4) -0.1165(4) 0.4508(3)
O3A O 0.4711(5) -0.3845(5) 0.4135(3)
O3D O -0.0289(5) 0.1155(5) 0.0865(3)
O3G O 0.0289(5) 0.1155(5) -0.0865(3)
O4A O 0.2306(4) -0.3842(4) 0.4493(3)
N1A N -0.2694(5) 0.2359(5) -0.39986(19)
H3A H -0.26010 0.19040 -0.44330
H4A H -0.35050 0.28060 -0.40530
H5A H -0.18810 0.28060 -0.39520
C2A C 0.1959(6) -0.2038(6) 0.3251(4)
C3A C 0.2947(6) -0.2987(6) 0.3223(4)
C5A C 0.1545(7) -0.1430(6) 0.4015(4)
C6A C 0.3342(7) -0.3598(6) 0.4024(4)
C8A C -0.2855(5) 0.1618(5) -0.3252(3)
H10A H -0.21130 0.09990 -0.32670
H11A H -0.38450 0.12630 -0.32480
#END
