
#######################################################################
#
#                 Cambridge Crystallographic Data Centre
#                                CCDC
#
#######################################################################
#
# If this CIF has been generated from an entry in the Cambridge
# Structural Database, then it will include bibliographic, chemical,
# crystal, experimental, refinement or atomic coordinate data resulting
# from the CCDC's data processing and validation procedures.
#
#######################################################################

data_CSD_CIF_MEPJOJ
_audit_creation_date 2018-01-07
_audit_creation_method CSD-ConQuest-V1
_database_code_CSD MEPJOJ
_database_code_depnum_ccdc_archive 'CCDC 1523158'
_chemical_formula_sum 'C16 H14 N3 Nd1 O9'
_chemical_formula_moiety
;
(C14 H8 N2 Nd1 O9 1-)n,0.5n(C4 H12 N2 2+)
;
_journal_coden_Cambridge 580
_journal_volume 142
_journal_year 2018
_journal_page_first 1
_journal_name_full 'Polyhedron '
loop_
_publ_author_name
"B.Ay"
"E.Yildiz"
"I.Kani"
_chemical_name_systematic
;
catena-(hemikis(piperazinedi-ium) 
bis(\m-pyridine-2,6-dicarboxylato)-aqua-neodymium)
;
_cell_volume    845.169
_exptl_crystal_colour 'violet'
_exptl_crystal_density_diffrn 2.096
_exptl_crystal_description 'square'
_diffrn_ambient_temperature 296
#These two values have been output from a single CSD field.
_refine_ls_R_factor_gt 0.018
_refine_ls_wR_factor_gt 0.018
_symmetry_cell_setting triclinic
_symmetry_space_group_name_H-M 'P -1'
_symmetry_Int_Tables_number 2
loop_
_symmetry_equiv_pos_site_id
_symmetry_equiv_pos_as_xyz
1 x,y,z
2 -x,-y,-z
_cell_length_a 6.9370(2)
_cell_length_b 10.8872(3)
_cell_length_c 12.3184(3)
_cell_angle_alpha 112.803(1)
_cell_angle_beta 95.746(1)
_cell_angle_gamma 95.029(1)
_cell_formula_units_Z 2
loop_
_atom_type_symbol
_atom_type_radius_bond
C 0.68
H 0.23
N 0.68
Nd 2.01
O 0.68
loop_
_atom_site_label
_atom_site_type_symbol
_atom_site_fract_x
_atom_site_fract_y
_atom_site_fract_z
Nd1 Nd 0.648562(13) 0.179153(9) 0.640823(8)
O1 O 0.3076(2) 0.21806(17) 0.58163(15)
O2 O 0.5764(3) 0.04279(16) 0.41971(15)
O3 O 0.7825(2) 0.20430(19) 0.84238(15)
O4 O 0.0015(2) 0.2347(2) 0.61882(17)
O5 O 0.7137(3) 0.42291(17) 0.73770(15)
O6 O 0.7571(4) 0.2505(3) 1.03244(18)
O7 O 0.7821(4) 0.62778(19) 0.73934(19)
N1 N 0.4302(3) 0.26449(18) 0.80445(16)
N2 N 0.6740(3) 0.30726(18) 0.50568(17)
O8 O 0.8479(3) -0.0144(2) 0.61944(19)
O9 O 0.5599(5) 0.0275(2) 0.2331(2)
C1 C 0.1805(3) 0.2483(2) 0.6509(2)
C2 C 0.2572(3) 0.2995(2) 0.7813(2)
C3 C 0.6532(3) 0.2419(2) 0.3883(2)
C4 C 0.4072(4) 0.3620(2) 1.0114(2)
H1 H 0.45950 0.37910 1.08920
C5 C 0.7446(3) 0.5046(2) 0.6890(2)
C6 C 0.7246(3) 0.4409(2) 0.5545(2)
C7 C 0.5034(3) 0.2934(2) 0.9170(2)
C8 C 0.6966(4) 0.2458(3) 0.9323(2)
C9 C 0.6831(4) 0.3067(3) 0.3126(2)
H2 H 0.66670 0.25910 0.23050
C10 C 0.7380(5) 0.4448(3) 0.3638(2)
H3 H 0.76160 0.49120 0.31600
C11 C 0.5925(5) 0.0920(3) 0.3403(2)
C12 C 0.2322(4) 0.4043(3) 0.9874(2)
H4 H 0.16800 0.45430 1.04930
C13 C 0.1528(4) 0.3716(3) 0.8696(2)
H5 H 0.03370 0.39730 0.85090
C14 C 0.7576(4) 0.5133(3) 0.4855(2)
H6 H 0.79230 0.60620 0.52060
C15 C 0.0718(3) 0.1401(2) 1.0609(2)
H7 H -0.04000 0.17980 1.04240
H8 H 0.17420 0.21260 1.11040
C16 C -0.0150(5) -0.0578(3) 0.8724(2)
H9 H -0.12860 -0.02270 0.84920
H10 H 0.03300 -0.11380 0.80060
N3 N 0.1427(5) 0.0578(3) 0.9486(3)
H11 H 0.299(8) 0.039(5) 0.969(5)
Nd1* Nd -0.351438(13) 0.179153(9) 0.640823(8)
Nd1A Nd 0.351438(13) -0.179153(9) 0.359177(8)
O2A O 0.4236(3) -0.04279(16) 0.58029(15)
O4* O 1.0015(2) 0.2347(2) 0.61882(17)
C15A C -0.0718(3) -0.1401(2) 0.9391(2)
H7A H 0.04000 -0.17980 0.95760
H8A H -0.17420 -0.21260 0.88960
C16A C 0.0150(5) 0.0578(3) 1.1276(2)
H9A H 0.12860 0.02270 1.15080
H10A H -0.03300 0.11380 1.19940
N3A N -0.1427(5) -0.0578(3) 1.0514(3)
H11A H -0.299(8) -0.039(5) 1.031(5)
#END
