
#######################################################################
#
#                 Cambridge Crystallographic Data Centre
#                                CCDC
#
#######################################################################
#
# If this CIF has been generated from an entry in the Cambridge
# Structural Database, then it will include bibliographic, chemical,
# crystal, experimental, refinement or atomic coordinate data resulting
# from the CCDC's data processing and validation procedures.
#
#######################################################################

data_CSD_CIF_MEPJUP
_audit_creation_date 2018-01-07
_audit_creation_method CSD-ConQuest-V1
_database_code_CSD MEPJUP
_database_code_depnum_ccdc_archive 'CCDC 1523159'
_chemical_formula_sum 'C16 H14 La1 N3 O9'
_chemical_formula_moiety
;
(C14 H8 La1 N2 O9 1-)n,0.5n(C4 H12 N2 2+)
;
_journal_coden_Cambridge 580
_journal_volume 142
_journal_year 2018
_journal_page_first 1
_journal_name_full 'Polyhedron '
loop_
_publ_author_name
"B.Ay"
"E.Yildiz"
"I.Kani"
_chemical_name_systematic
;
catena-(hemikis(piperazinedi-ium) 
bis(\m-pyridine-2,6-dicarboxylato)-aqua-lanthanum)
;
_cell_volume    864.204
_exptl_crystal_colour 'yellow'
_exptl_crystal_description 'square'
_diffrn_ambient_temperature 296
#These two values have been output from a single CSD field.
_refine_ls_R_factor_gt 0.0237
_refine_ls_wR_factor_gt 0.0237
_symmetry_cell_setting triclinic
_symmetry_space_group_name_H-M 'P -1'
_symmetry_Int_Tables_number 2
loop_
_symmetry_equiv_pos_site_id
_symmetry_equiv_pos_as_xyz
1 x,y,z
2 -x,-y,-z
_cell_length_a 7.0177(10)
_cell_length_b 10.9132(16)
_cell_length_c 12.4544(18)
_cell_angle_alpha 112.959(5)
_cell_angle_beta 96.256(5)
_cell_angle_gamma 95.013(5)
_cell_formula_units_Z 2
loop_
_atom_type_symbol
_atom_type_radius_bond
C 0.68
H 0.23
La 2.07
N 0.68
O 0.68
loop_
_atom_site_label
_atom_site_type_symbol
_atom_site_fract_x
_atom_site_fract_y
_atom_site_fract_z
La1 La 0.65300(2) 1.17999(2) 0.64478(2)
O1 O 0.3067(3) 1.2200(2) 0.58727(19)
O2 O 0.4234(3) 0.9541(2) 0.5792(2)
O3 O 0.7827(3) 1.2086(3) 0.8511(2)
N1 N 0.4324(4) 1.2681(2) 0.8103(2)
O4 O 0.8549(4) 0.9794(3) 0.6176(3)
O5 O 0.7162(4) 1.4295(2) 0.7378(2)
O6 O 1.0059(3) 1.2375(3) 0.6247(2)
N2 N 0.6758(3) 1.3108(2) 0.5070(2)
C1 C 0.1839(4) 1.2510(3) 0.6567(3)
C2 C 0.6953(5) 1.2478(3) 0.9386(3)
C3 C 0.2604(4) 1.3016(3) 0.7858(3)
C4 C 0.5043(4) 1.2959(3) 0.9222(3)
C5 C 0.5937(6) 1.0946(4) 0.3423(3)
C6 C 0.7445(4) 1.5095(3) 0.6885(3)
C7 C 0.7256(4) 1.4433(3) 0.5550(3)
C8 C 0.6557(5) 1.2440(3) 0.3896(3)
O7 O 0.7522(4) 1.2507(3) 1.0378(2)
C9 C 0.1556(5) 1.3724(3) 0.8725(3)
C10 C 0.4072(5) 1.3634(3) 1.0148(3)
O8 O 0.5598(7) 1.0287(3) 0.2353(3)
O9 O 0.7808(5) 1.6333(3) 0.7369(2)
C11 C 0.7576(6) 1.5154(4) 0.4856(4)
C12 C 0.6842(6) 1.3077(3) 0.3149(3)
C13 C 0.2336(5) 1.4053(3) 0.9901(3)
H1 H 0.03750 1.39720 0.85300
H2 H 0.45820 1.38020 1.09210
C14 C 0.7377(6) 1.4457(4) 0.3650(3)
H3 H 0.79160 1.60830 0.52010
H4 H 0.66800 1.25940 0.23360
H5 H 0.16950 1.45460 1.05100
H6 H 0.76030 1.49140 0.31720
C15 C 1.0696(4) 0.1410(3) 0.0625(3)
H7 H 1.17020 0.21440 0.11200
H8 H 0.95710 0.17940 0.04460
N3 N 1.0177(6) 0.0572(3) 0.1277(3)
C16 C 0.8610(6) -0.0602(4) 0.0494(4)
H9 H 0.83070 -0.11670 0.09090
H10 H 0.74410 -0.02590 0.03180
H11 H 0.978(6) 0.123(5) 0.208(4)
O2A O 0.5766(3) 1.0459(2) 0.4208(2)
La1A La 0.34700(2) 0.82001(2) 0.35522(2)
O6* O 0.0059(3) 1.2375(3) 0.6247(2)
La1* La -0.34700(2) 1.17999(2) 0.64478(2)
C15A C 0.9304(4) -0.1410(3) -0.0625(3)
H7A H 0.82980 -0.21440 -0.11200
H8A H 1.04290 -0.17940 -0.04460
N3A N 0.9823(6) -0.0572(3) -0.1277(3)
C16A C 1.1390(6) 0.0602(4) -0.0494(4)
H9A H 1.16930 0.11670 -0.09090
H10A H 1.25590 0.02590 -0.03180
H11A H 1.022(6) -0.123(5) -0.208(4)
#END
