
#######################################################################
#
#                 Cambridge Crystallographic Data Centre
#                                CCDC
#
#######################################################################
#
# If this CIF has been generated from an entry in the Cambridge
# Structural Database, then it will include bibliographic, chemical,
# crystal, experimental, refinement or atomic coordinate data resulting
# from the CCDC's data processing and validation procedures.
#
#######################################################################

data_CSD_CIF_MEPVEL
_audit_creation_date 2018-01-08
_audit_creation_method CSD-ConQuest-V1
_database_code_CSD MEPVEL
_database_code_depnum_ccdc_archive 'CCDC 1586968'
_chemical_formula_sum 'C21 H128 Co3 K2 Li1.5 N4.5 O134 P6 W24'
_chemical_formula_moiety
;
(C12 H36 Co3 O106 P6 W24 8-)n,4.5(C2 H8 N1 1+),28(H2 O1),2(K1 1+),1.5(Li1 1+)
;
_journal_coden_Cambridge 182
_journal_volume 54
_journal_year 2018
_journal_page_first 2216
_journal_name_full 'Chem.Commun. '
loop_
_publ_author_name
"Xiaofeng Yi"
"N.V.Izarova"
"P.Kogerler"
_chemical_name_systematic
;
catena-[dimethylammonium lithium di-potassium 
tetrakis(\m-phosphato)-bis(\m-phenylphosphonato)-bis(\m-hydroxo)-octatetracont
akis(\m-oxido)-dodeca-aqua-docosaoxo-tri-cobalt-tetracosa-tungsten 
octacosahydrate]
;
_cell_volume   6748.174
_exptl_crystal_colour 'pink'
_exptl_crystal_density_diffrn 3.667
_exptl_special_details
;
The anion H atoms have not been located and have been placed arbitrarily in 
the 2D diagram
;
_exptl_crystal_description 'block'
_diffrn_ambient_temperature 120
_refine_special_details
;
The structure is disordered. Due to disorder not all cations and solvent 
molecules were located.
;
#These two values have been output from a single CSD field.
_refine_ls_R_factor_gt 0.0422
_refine_ls_wR_factor_gt 0.0422
_symmetry_cell_setting monoclinic
_symmetry_space_group_name_H-M 'C 2'
_symmetry_Int_Tables_number 5
loop_
_symmetry_equiv_pos_site_id
_symmetry_equiv_pos_as_xyz
1 x,y,z
2 -x,y,-z
3 1/2+x,1/2+y,z
4 1/2-x,1/2+y,-z
_cell_length_a 26.212(2)
_cell_length_b 28.3669(6)
_cell_length_c 14.1580(11)
_cell_angle_alpha 90
_cell_angle_beta 140.132(16)
_cell_angle_gamma 90
_cell_formula_units_Z 2
loop_
_atom_type_symbol
_atom_type_radius_bond
C 0.68
H 0.23
Co 1.26
K 2.03
N 0.68
O 0.68
P 1.05
W 1.62
loop_
_atom_site_label
_atom_site_type_symbol
_atom_site_fract_x
_atom_site_fract_y
_atom_site_fract_z
W1 W 0.26056(5) -0.16809(3) 0.63456(9)
W2 W 0.33401(5) -0.16985(3) 0.95676(9)
W3 W 0.09263(4) -0.24783(3) 0.34552(8)
W4 W 0.30454(4) -0.29464(3) 0.66776(8)
W5 W 0.37925(4) -0.29657(3) 0.99534(8)
W6 W 0.24378(4) -0.25273(3) 0.99902(9)
W7 W 0.03590(4) -0.37574(3) 0.28241(8)
W8 W 0.24025(4) -0.41984(3) 0.60917(9)
W9 W 0.30910(4) -0.42014(3) 0.92730(9)
W10 W 0.17436(4) -0.37875(3) 0.92408(8)
W11 W 0.06780(5) -0.49250(3) 0.43700(9)
W12 W 0.13908(5) -0.49408(3) 0.75787(9)
P1 P 0.1944(3) -0.25111(17) 0.6955(5)
P2 P 0.1163(3) -0.38789(17) 0.6134(5)
P3 P 0.2130(3) -0.08527(19) 0.7173(6)
C1 C 0.2874(7) -0.0429(4) 0.7865(14)
C2 C 0.3385(8) -0.0226(5) 0.9248(13)
H1 H 0.33760 -0.03290 0.98740
C3 C 0.3910(7) 0.0126(4) 0.9716(12)
H2 H 0.42600 0.02640 1.06620
C4 C 0.3923(7) 0.0276(4) 0.8801(15)
H3 H 0.42820 0.05170 0.91200
C5 C 0.3412(8) 0.0074(5) 0.7417(14)
H4 H 0.34210 0.01770 0.67920
C6 C 0.2887(7) -0.0278(5) 0.6949(12)
H5 H 0.25380 -0.04170 0.60040
Co1 Co 0.0786(3) -0.17138(17) 0.8208(6)
Co2 Co 0.42490(16) -0.2764(1) 0.6165(3)
O1 O 0.0603(14) -0.1800(8) 0.646(3)
O2 O 0.1065(13) -0.1546(8) 0.997(3)
O3 O -0.0199(15) -0.1201(9) 0.680(3)
O4 O 0.1702(15) -0.1218(9) 0.912(3)
O5 O 0.4374(8) -0.2108(5) 0.6977(17)
O6 O 0.3258(8) -0.2513(5) 0.3993(17)
O7 O 0.4103(12) -0.3403(7) 0.528(2)
O8 O 0.5005(12) -0.2585(7) 0.612(2)
O9 O 0.2863(8) -0.1349(5) 0.5741(16)
O10 O 0.4123(8) -0.1376(5) 1.1128(16)
O11 O 0.0871(7) -0.2440(4) 0.2148(14)
O12 O 0.3530(7) -0.2971(5) 0.6278(14)
O13 O 0.4788(7) -0.3003(4) 1.1722(13)
O14 O 0.3116(7) -0.2530(4) 1.1875(14)
O15 O 0.0132(7) -0.3858(4) 0.1330(13)
O16 O 0.2821(8) -0.4439(5) 0.5682(16)
O17 O 0.3941(8) -0.4455(5) 1.0882(16)
O18 O 0.2240(7) -0.3923(4) 1.0970(14)
O19 O 0.2280(7) -0.2009(4) 0.7275(14)
O20 O 0.0641(8) -0.5379(5) 0.3548(15)
O21 O 0.1935(7) -0.1162(4) 0.6010(15)
O22 O 0.3388(7) -0.1469(4) 0.8353(15)
O23 O 0.0619(6) -0.3637(4) 0.4676(12)
O24 O 0.1811(8) -0.5403(5) 0.8757(16)
O25 O 0.1624(7) -0.1935(4) 0.4578(14)
O26 O 0.3123(7) -0.2226(4) 0.6873(14)
O27 O 0.1205(6) -0.2568(4) 0.5321(13)
O28 O 0.2027(6) -0.3912(4) 0.6973(13)
O29 O 0.2518(8) -0.1169(5) 0.8511(15)
O30 O 0.3836(7) -0.2255(4) 0.9958(14)
O31 O 0.2867(7) -0.1964(4) 0.9954(14)
O32 O 0.2616(7) -0.2856(4) 0.7593(13)
O33 O 0.0074(7) -0.2192(4) 0.2614(14)
O34 O 0.1182(6) -0.3630(4) 0.7100(12)
O35 O 0.1440(9) -0.0588(5) 0.6557(18)
O36 O 0.2033(6) -0.2822(4) 0.4921(13)
O37 O 0.0492(7) -0.3105(4) 0.2937(14)
O38 O 0.1765(6) -0.2577(4) 0.7736(12)
O39 O 0.0888(6) -0.4404(4) 0.5868(12)
O40 O 0.3947(7) -0.2926(5) 0.8814(13)
O41 O 0.2923(7) -0.3581(4) 0.6717(13)
O42 O 0.3257(7) -0.2866(4) 1.0296(13)
O43 O 0.3563(7) -0.3598(4) 0.9553(14)
O44 O 0.1650(7) -0.2219(4) 0.9352(14)
O45 O 0.1469(8) -0.3886(4) 0.4316(15)
O46 O 0.3204(7) -0.4383(4) 0.8116(15)
O47 O 0.1480(7) -0.4429(4) 0.8529(13)
O48 O 0.0331(7) -0.5020(4) 0.6463(13)
O49 O 0.1195(7) -0.5260(4) 0.6124(14)
O50 O 0.2010(7) -0.3148(4) 0.9601(14)
O51 O 0.0731(6) -0.3682(4) 0.8313(13)
O52 O 0.0276(7) -0.4414(4) 0.3136(13)
O53 O 0.1718(7) -0.4708(4) 0.5440(14)
O54 O 0.2667(7) -0.3907(4) 0.9735(13)
O55 O 0.2382(7) -0.4719(4) 0.8430(14)
K1 K -0.0332(4) -0.2861(3) 0.3576(9)
K2 K 0.4092(13) -0.3428(9) 0.326(2)
K3 K 0.1582(15) 0.0403(9) 0.687(3)
N1 N 0.50000 -0.1136(11) 1.00000
C7 C 0.5259(13) -0.0874(8) 1.120(3)
O56 O 0.4636(19) -0.4300(12) 0.372(4)
O57 O 0.1314(18) 0.0731(10) 0.476(4)
N2 N 0.50000 -0.3712(12) 1.00000
C8 C 0.5276(15) -0.4001(9) 1.119(3)
N3 N 0.1142(18) -0.3271(11) 0.137(4)
C9 C 0.1256(14) -0.2920(9) 0.073(3)
C10 C 0.1868(14) -0.3523(8) 0.267(3)
O58 O 0.446(2) -0.4933(13) 1.267(4)
O59 O 0.3802(19) -0.1328(11) 0.521(4)
O60 O 0.314(2) -0.1303(13) 1.226(4)
O61 O 0.00000 -0.1763(17) 0.00000
O62 O 0.4677(19) -0.1077(12) 1.365(4)
O63 O 0.2203(14) -0.1903(8) 0.311(3)
K4? K 0.50000 -0.2113(10) 1.00000
O64? O 0.487(3) -0.5503(19) 1.408(6)
W1A W -0.26056(5) -0.16809(3) 0.36544(9)
W2A W -0.33401(5) -0.16985(3) 0.04324(9)
W3A W -0.09263(4) -0.24783(3) 0.65448(8)
W4A W -0.30454(4) -0.29464(3) 0.33224(8)
W5A W -0.37925(4) -0.29657(3) 0.00466(8)
W6A W -0.24378(4) -0.25273(3) 0.00098(9)
W7A W -0.03590(4) -0.37574(3) 0.71759(8)
W8A W -0.24025(4) -0.41984(3) 0.39083(9)
W9A W -0.30910(4) -0.42014(3) 0.07270(9)
W10A W -0.17436(4) -0.37875(3) 0.07592(8)
W11A W -0.06780(5) -0.49250(3) 0.56300(9)
W12A W -0.13908(5) -0.49408(3) 0.24213(9)
P1A P -0.1944(3) -0.25111(17) 0.3045(5)
P2A P -0.1163(3) -0.38789(17) 0.3866(5)
P3A P -0.2130(3) -0.08527(19) 0.2827(6)
C1A C -0.2874(7) -0.0429(4) 0.2135(14)
C2A C -0.3385(8) -0.0226(5) 0.0752(13)
H1A H -0.33760 -0.03290 0.01260
C3A C -0.3910(7) 0.0126(4) 0.0284(12)
H2A H -0.42600 0.02640 -0.06620
C4A C -0.3923(7) 0.0276(4) 0.1199(15)
H3A H -0.42820 0.05170 0.08800
C5A C -0.3412(8) 0.0074(5) 0.2583(14)
H4A H -0.34210 0.01770 0.32080
C6A C -0.2887(7) -0.0278(5) 0.3051(12)
H5A H -0.25380 -0.04170 0.39960
O9A O -0.2863(8) -0.1349(5) 0.4259(16)
O10A O -0.4123(8) -0.1376(5) -0.1128(16)
O11A O -0.0871(7) -0.2440(4) 0.7852(14)
O12A O -0.3530(7) -0.2971(5) 0.3722(14)
O13A O -0.4788(7) -0.3003(4) -0.1722(13)
O14A O -0.3116(7) -0.2530(4) -0.1875(14)
O15A O -0.0132(7) -0.3858(4) 0.8670(13)
O16A O -0.2821(8) -0.4439(5) 0.4318(16)
O17A O -0.3941(8) -0.4455(5) -0.0882(16)
O18A O -0.2240(7) -0.3923(4) -0.0970(14)
O19A O -0.2280(7) -0.2009(4) 0.2725(14)
O20A O -0.0641(8) -0.5379(5) 0.6452(15)
O21A O -0.1935(7) -0.1162(4) 0.3990(15)
O22A O -0.3388(7) -0.1469(4) 0.1647(15)
O23A O -0.0619(6) -0.3637(4) 0.5324(12)
O24A O -0.1811(8) -0.5403(5) 0.1243(16)
O25A O -0.1624(7) -0.1935(4) 0.5422(14)
O26A O -0.3123(7) -0.2226(4) 0.3127(14)
O27A O -0.1205(6) -0.2568(4) 0.4679(13)
O28A O -0.2027(6) -0.3912(4) 0.3027(13)
O29A O -0.2518(8) -0.1169(5) 0.1489(15)
O30A O -0.3836(7) -0.2255(4) 0.0042(14)
O31A O -0.2867(7) -0.1964(4) 0.0046(14)
O32A O -0.2616(7) -0.2856(4) 0.2407(13)
O33A O -0.0074(7) -0.2192(4) 0.7386(14)
O34A O -0.1182(6) -0.3630(4) 0.2900(12)
O35A O -0.1440(9) -0.0588(5) 0.3443(18)
O36A O -0.2033(6) -0.2822(4) 0.5079(13)
O37A O -0.0492(7) -0.3105(4) 0.7063(14)
O38A O -0.1765(6) -0.2577(4) 0.2264(12)
O39A O -0.0888(6) -0.4404(4) 0.4132(12)
O40A O -0.3947(7) -0.2926(5) 0.1186(13)
O41A O -0.2923(7) -0.3581(4) 0.3283(13)
O42A O -0.3257(7) -0.2866(4) -0.0296(13)
O43A O -0.3563(7) -0.3598(4) 0.0447(14)
O44A O -0.1650(7) -0.2219(4) 0.0648(14)
O45A O -0.1469(8) -0.3886(4) 0.5684(15)
O46A O -0.3204(7) -0.4383(4) 0.1884(15)
O47A O -0.1480(7) -0.4429(4) 0.1471(13)
O48A O -0.0331(7) -0.5020(4) 0.3537(13)
O49A O -0.1195(7) -0.5260(4) 0.3876(14)
O50A O -0.2010(7) -0.3148(4) 0.0399(14)
O51A O -0.0731(6) -0.3682(4) 0.1687(13)
O52A O -0.0276(7) -0.4414(4) 0.6864(13)
O53A O -0.1718(7) -0.4708(4) 0.4560(14)
O54A O -0.2667(7) -0.3907(4) 0.0265(13)
O55A O -0.2382(7) -0.4719(4) 0.1570(14)
Co1A Co -0.0786(3) -0.17138(17) 0.1792(6)
Co2A Co -0.42490(16) -0.2764(1) 0.3835(3)
O1A O -0.0603(14) -0.1800(8) 0.354(3)
O2A O -0.1065(13) -0.1546(8) 0.003(3)
O3A O 0.0199(15) -0.1201(9) 0.320(3)
O4A O -0.1702(15) -0.1218(9) 0.088(3)
O5A O -0.4374(8) -0.2108(5) 0.3023(17)
O6A O -0.3258(8) -0.2513(5) 0.6007(17)
O7A O -0.4103(12) -0.3403(7) 0.472(2)
O8A O -0.5005(12) -0.2585(7) 0.388(2)
Co2* Co -0.57510(16) -0.2764(1) -0.3835(3)
Co2A* Co 0.57510(16) -0.2764(1) 1.3835(3)
O13* O -0.5212(7) -0.3003(4) 0.1722(13)
O13A* O 0.5212(7) -0.3003(4) 0.8278(13)
C7A C 0.4741(13) -0.0874(8) 0.880(3)
C8A C 0.4724(15) -0.4001(9) 0.881(3)
#END
