
#######################################################################
#
#                 Cambridge Crystallographic Data Centre
#                                CCDC
#
#######################################################################
#
# If this CIF has been generated from an entry in the Cambridge
# Structural Database, then it will include bibliographic, chemical,
# crystal, experimental, refinement or atomic coordinate data resulting
# from the CCDC's data processing and validation procedures.
#
#######################################################################

data_CSD_CIF_MEQLUS
_audit_creation_date 2018-01-08
_audit_creation_method CSD-ConQuest-V1
_database_code_CSD MEQLUS
_database_code_depnum_ccdc_archive 'CCDC 1815503'
_chemical_formula_sum 'C32 H76 N12 Na2 O35 P2'
_chemical_formula_moiety
;
(C20 H36 N10 Na2 O22 P2 2-)n,n(C12 H14 N2 2+),13n(H2 O1)
;
_journal_coden_Cambridge 1278
_journal_volume 118
_journal_year 2014
_journal_page_first 125
_journal_name_full 'J.Phys.Chem.B '
loop_
_publ_author_name
"A.S.Jalilov"
"S.Patwardhan"
"Arunoday Singh"
"T.Simeon"
"A.A.Sarjeant"
"G.C.Schatz"
"F.D.Lewis"
_chemical_name_systematic
;
catena-(methyl viologen bis(\m-2'-deoxyguanosine 
3'-monophosphate)-hexa-aqua-di-sodium tridecahydrate)
;
_cell_volume   2792.478
_exptl_crystal_colour 'orange'
_exptl_crystal_density_diffrn 1.542
_exptl_special_details
;
Absolute configuration

;
_exptl_crystal_description 'needle'
_diffrn_ambient_temperature 100.0
_diffrn_special_details
;
twin

;
#These two values have been output from a single CSD field.
_refine_ls_R_factor_gt 0.0703
_refine_ls_wR_factor_gt 0.0703
_symmetry_cell_setting monoclinic
_symmetry_space_group_name_H-M 'P 21'
_symmetry_Int_Tables_number 4
loop_
_symmetry_equiv_pos_site_id
_symmetry_equiv_pos_as_xyz
1 x,y,z
2 -x,1/2+y,-z
_cell_length_a 13.7459(6)
_cell_length_b 9.9617(4)
_cell_length_c 20.5301(10)
_cell_angle_alpha 90
_cell_angle_beta 96.623(3)
_cell_angle_gamma 90
_cell_formula_units_Z 2
loop_
_atom_type_symbol
_atom_type_radius_bond
C 0.68
H 0.23
N 0.68
Na 1.66
O 0.68
P 1.05
loop_
_atom_site_label
_atom_site_type_symbol
_atom_site_fract_x
_atom_site_fract_y
_atom_site_fract_z
P1 P 0.08802(13) 0.2355(2) 0.41827(10)
P2 P 0.27902(14) 1.1096(2) 1.03275(10)
Na1 Na -0.5214(2) 0.6899(3) 0.16420(16)
H1 H -0.490(5) 0.726(9) 0.288(4)
Na2 Na 0.3016(2) 0.6523(3) 0.52751(15)
O1 O 0.0856(4) 0.3849(6) 0.3891(3)
O2 O 0.1386(4) 0.1581(5) 0.3682(3)
O3 O -0.0176(4) 0.1900(6) 0.4183(3)
O4 O 0.1430(4) 0.2402(6) 0.4864(2)
O5 O 0.0630(4) 0.6451(5) 0.3380(3)
O6 O 0.1399(4) 0.7642(6) 0.5012(2)
O7 O 0.1698(4) 0.9057(6) 0.3890(3)
H2 H 0.162(5) 0.985(9) 0.386(4)
O8 O -0.3617(4) 0.7401(6) 0.1811(3)
O9 O -0.6481(5) 0.8421(7) 0.1551(3)
H3 H -0.663(8) 0.821(11) 0.196(2)
H4 H -0.606(7) 0.912(8) 0.161(5)
O10 O -0.5280(4) 0.4576(6) 0.1485(3)
H5 H -0.513(6) 0.382(5) 0.128(5)
H6 H -0.582(4) 0.440(8) 0.168(4)
O11 O -0.5415(6) 0.673(1) 0.2729(4)
H7 H -0.582(7) 0.676(15) 0.305(4)
O12 O 0.2696(3) 0.9629(6) 0.9956(3)
O13 O 0.3226(4) 1.2040(6) 0.9848(2)
O14 O 0.1743(4) 1.1428(6) 1.0409(3)
O15 O 0.3472(4) 1.0905(6) 1.0953(3)
O16 O 0.2754(4) 0.6961(5) 0.9424(2)
O17 O 0.4979(4) 0.6676(6) 1.0492(3)
O18 O 0.3783(4) 0.4553(6) 1.0186(2)
O19 O 0.2618(4) 0.6498(6) 0.6303(2)
O20 O 0.3356(5) 0.7513(9) 0.4289(4)
H8 H 0.350(9) 0.719(12) 0.390(3)
H9 H 0.297(8) 0.823(8) 0.419(5)
O21 O 0.4714(5) 0.6605(9) 0.5608(4)
H10 H 0.512(7) 0.597(7) 0.549(6)
H11 H 0.489(8) 0.738(5) 0.543(6)
O22 O 0.2950(4) 0.4195(6) 0.5095(3)
H12 H 0.338(5) 0.394(8) 0.543(3)
H13 H 0.251(5) 0.353(6) 0.503(4)
N1 N -0.0686(4) 0.7900(7) 0.3096(3)
N2 N -0.2317(4) 0.7736(7) 0.3134(3)
N3 N -0.0601(4) 0.7772(7) 0.1928(3)
N4 N -0.2197(4) 0.7516(7) 0.1346(3)
H14 H -0.25320 0.73920 0.09580
N5 N -0.0834(5) 0.7684(7) 0.0790(3)
H15 H -0.01990 0.77620 0.07790
H16 H -0.12300 0.76150 0.04230
C1 C 0.0583(6) 0.4945(8) 0.4280(4)
H17 H 0.08270 0.47890 0.47470
H18 H -0.01390 0.50230 0.42410
C2 C 0.1015(5) 0.6209(8) 0.4047(4)
H19 H 0.17440 0.61240 0.40810
C3 C 0.0740(5) 0.7436(8) 0.4432(3)
H20 H 0.00630 0.73140 0.45550
C4 C 0.0733(6) 0.8576(8) 0.3931(4)
H21 H 0.02790 0.93160 0.40270
C5 C 0.0362(6) 0.7824(8) 0.3282(4)
H22 H 0.07050 0.81960 0.29180
C6 C -0.1451(5) 0.7859(8) 0.3481(4)
H23 H -0.13610 0.79130 0.39460
C7 C -0.2110(5) 0.7704(8) 0.2470(4)
C8 C -0.1094(5) 0.7790(7) 0.2454(4)
C9 C -0.1199(5) 0.7668(8) 0.1367(4)
C10 C -0.2722(5) 0.7543(8) 0.1888(4)
H24 H 0.36400 0.38260 1.00760
N6 N 0.32127(8) 0.58109(16) 0.85102(6)
N7 N 0.39294(8) 0.61163(15) 0.75977(6)
N8 N 0.15047(8) 0.58418(13) 0.80661(6)
N9 N 0.13446(8) 0.61537(15) 0.69107(6)
H25 H 0.09250 0.62190 0.65550
N10 N -0.00144(8) 0.59360(15) 0.74520(6)
H26 H -0.03040 0.58270 0.78090
H27 H -0.03680 0.60220 0.70690
C11 C 0.35758(9) 0.8926(2) 0.98734(6)
H28 H 0.41090 0.92450 1.02020
H29 H 0.37660 0.91140 0.94320
C12 C 0.34466(8) 0.7466(2) 0.99502(6)
H30 H 0.32120 0.72690 1.03830
C13 C 0.43847(8) 0.6678(2) 0.98802(6)
H31 H 0.47460 0.71060 0.95390
C14 C 0.40119(8) 0.52890(18) 0.96442(5)
H32 H 0.44890 0.48090 0.93940
C15 C 0.30585(8) 0.57028(17) 0.91973(5)
H33 H 0.25360 0.50210 0.92430
C16 C 0.40765(8) 0.59510(17) 0.82369(6)
H34 H 0.47060 0.59300 0.84820
C17 C 0.29400(8) 0.60535(13) 0.74481(6)
C18 C 0.24796(8) 0.58895(14) 0.79963(6)
C19 C 0.09657(8) 0.59704(14) 0.74926(6)
C20 C 0.23406(8) 0.62462(14) 0.68319(6)
H35 H 0.10490 0.73720 0.53040
H36 H 0.54790 0.67440 1.04540
N11 N 0.3029(4) 0.9349(7) 0.7208(3)
N12 N -0.1166(5) 0.9426(7) 0.8818(3)
C21 C 0.39217(9) 0.92724(13) 0.68586(7)
H37 H 0.41760 0.83520 0.68810
H38 H 0.44220 0.98850 0.70670
H39 H 0.37530 0.95300 0.63990
C22 C 0.21501(10) 0.9491(2) 0.68586(7)
H40 H 0.21150 0.96060 0.63970
C23 C 0.12930(9) 0.9475(2) 0.71515(7)
H41 H 0.06740 0.95820 0.68980
C24 C 0.13632(8) 0.92953(14) 0.78328(6)
C25 C 0.23013(8) 0.9163(2) 0.81782(6)
H42 H 0.23670 0.90480 0.86410
C26 C 0.31050(8) 0.9195(2) 0.78652(6)
H43 H 0.37330 0.91090 0.81080
C27 C 0.04821(8) 0.92903(13) 0.81795(6)
C28 C -0.04593(8) 0.9117(2) 0.78313(6)
H44 H -0.05310 0.89690 0.73710
C29 C -0.12673(8) 0.9167(2) 0.81650(6)
H45 H -0.19000 0.90190 0.79380
C30 C -0.02837(9) 0.9572(2) 0.91698(7)
H46 H -0.02360 0.97290 0.96290
C31 C 0.05475(9) 0.9492(2) 0.88585(7)
H47 H 0.11720 0.95750 0.91060
C32 C -0.20553(8) 0.96031(14) 0.91551(6)
H48 H -0.22400 1.05540 0.91470
H49 H -0.19200 0.93000 0.96110
H50 H -0.25930 0.90730 0.89300
O23 O -0.28966(8) 0.45846(16) 0.72848(6)
H51 H -0.30420 0.40980 0.76300
H52 H -0.34730 0.48230 0.70600
O24 O -0.14465(8) 0.57063(14) 0.83183(6)
H53 H -0.17210 0.62280 0.86000
H54 H -0.09170 0.53660 0.85550
O25 O 0.04834(8) 0.60982(16) 0.93699(6)
H55 H 0.07940 0.53130 0.94110
H56 H 0.01000 0.60790 0.89860
O26 O -0.11429(8) 0.28484(14) 0.96034(6)
H57 H -0.13270 0.28360 1.00050
H58 H -0.11860 0.36930 0.94590
O27 O -0.28003(8) 0.8131(2) 0.68708(6)
H59 H -0.22620 0.76300 0.68600
H60 H -0.33160 0.75960 0.67610
O28 O 0.27620(8) 0.60446(19) 0.30105(6)
H61 H 0.32190 0.61250 0.27310
H62 H 0.21830 0.62050 0.27750
O29 O -0.15054(8) 0.22051(14) 0.80849(6)
H63 H -0.16740 0.28260 0.83650
H64 H -0.09080 0.19120 0.82390
O30 O 0.23567(10) 1.0157(2) 0.53639(8)
H65 H 0.18630 1.03820 0.55840
H66 H 0.22220 0.93810 0.51630
O31 O 0.39989(8) 0.30683(13) 0.62425(6)
H67 H 0.40090 0.27570 0.66550
H68 H 0.45160 0.26910 0.60810
O32 O 0.43237(12) 1.08601(18) 0.54468(10)
H69 H 0.36980 1.10490 0.55020
H70 H 0.42960 1.00290 0.52470
O33 O 0.42575(8) 0.39438(17) 0.41539(6)
H71 H 0.45640 0.33730 0.39030
H72 H 0.38620 0.34320 0.43680
O34 O -0.36093(8) 0.76887(18) 0.80202(5)
H73 H -0.33830 0.71130 0.83380
H74 H -0.31680 0.76800 0.77290
O35 O 0.52456(8) 0.52335(14) 0.67261(6)
H75 H 0.56000 0.45790 0.69380
H76 H 0.49450 0.56670 0.70300
Na1* Na 0.4786(2) 0.6899(3) 1.16420(16)
O17* O -0.5021(4) 0.6676(6) 0.0492(3)
#END
