
#######################################################################
#
#                 Cambridge Crystallographic Data Centre
#                                CCDC
#
#######################################################################
#
# If this CIF has been generated from an entry in the Cambridge
# Structural Database, then it will include bibliographic, chemical,
# crystal, experimental, refinement or atomic coordinate data resulting
# from the CCDC's data processing and validation procedures.
#
#######################################################################

data_CSD_CIF_MEQVAF
_audit_creation_date 2002-03-06
_audit_creation_method CSD-ConQuest-V1
_database_code_CSD MEQVAF
_database_code_depnum_ccdc_archive 'CCDC 151314'
_chemical_formula_sum 'C56 H104 Na4 O65 S8 Sc2'
_chemical_formula_moiety
;
(C56 H56 Na4 O40 S8 4-)n,n(H22 O12 Sc2 4+),13n(H2 O1)
;
_journal_coden_Cambridge 1220
_journal_volume 7
_journal_year 2001
_journal_page_first 3616
_journal_name_full 'Chem.-Eur.J. '
loop_
_publ_author_name
"H.R.Webb"
"M.J.Hardie"
"C.L.Raston"
_chemical_name_systematic
;
catena-(bis(\m~2~-Hydroxo)-deca-aqua-di-scandium(iii) 
bis(\m~4~-p-sulfonatocalix(4)arene-O,O',O'',O''')-octakis(\m~2~-aqua)-tetra-so
dium tridecahydrate)
;
_cell_volume   4484.382
_exptl_crystal_colour 'colorless'
_exptl_crystal_density_diffrn 1.671
_exptl_crystal_description 'petal shaped'
_diffrn_ambient_temperature 123
#These two values have been output from a single CSD field.
_refine_ls_R_factor_gt 0.0643
_refine_ls_wR_factor_gt 0.0643
_symmetry_cell_setting monoclinic
_symmetry_space_group_name_H-M 'C 2/m'
_symmetry_Int_Tables_number 12
loop_
_symmetry_equiv_pos_site_id
_symmetry_equiv_pos_as_xyz
1 x,y,z
2 1/2+x,1/2+y,z
3 x,-y,z
4 1/2+x,1/2-y,z
5 -x,-y,-z
6 -1/2-x,-1/2-y,-z
7 -x,y,-z
8 -1/2-x,-1/2+y,-z
_cell_length_a 18.4317(4)
_cell_length_b 26.0293(6)
_cell_length_c 10.9047(2)
_cell_angle_alpha 90
_cell_angle_beta 121.001(1)
_cell_angle_gamma 90
_cell_formula_units_Z 2
loop_
_atom_type_symbol
_atom_type_radius_bond
C 0.68
H 0.23
Na 1.34
O 0.86
S 1.02
Sc 1.44
loop_
_atom_site_label
_atom_site_type_symbol
_atom_site_fract_x
_atom_site_fract_y
_atom_site_fract_z
Sc1 Sc 0.42658(5) 0.00000 0.05163(8)
S1 S 0.19244(5) 0.39475(3) 0.42467(8)
Na1 Na 0.32966(13) 0.50000 0.5058(2)
O1 O 0.20255(17) 0.4076(1) 0.5624(3)
C1 C 0.51128(18) 0.27801(12) 0.8028(3)
S2 S 0.36932(5) 0.41258(3) 0.03344(10)
Na2 Na 0.50000 0.50000 0.50000
O2 O 0.10611(15) 0.38019(10) 0.3158(3)
C2 C 0.42332(18) 0.25646(12) 0.7491(3)
H1 H 0.40450 0.26580 0.81650
H2 H 0.42490 0.21850 0.74470
Na3 Na 0.50000 0.50000 1.00000
C3 C 0.36080(18) 0.27766(12) 0.6010(3)
O3 O 0.3166(3) 0.43395(14) 0.0848(6)
O4 O 0.3597(2) 0.50000 0.7554(4)
C4 C 0.31204(18) 0.32061(12) 0.5857(3)
H3 H 0.31760 0.33690 0.66810
O5 O 0.3244(3) 0.40977(15) -0.1185(4)
C5 C 0.25499(18) 0.33997(11) 0.4500(3)
O6 O 0.44922(15) 0.43909(9) 0.0950(3)
C6 C 0.24537(18) 0.31597(12) 0.3282(3)
H4 H 0.20540 0.32890 0.23610
O7 O 0.55108(13) 0.20118(8) 0.7385(2)
C7 C 0.29366(18) 0.27339(12) 0.3406(3)
O8 O 0.39826(14) 0.21292(9) 0.4817(2)
C8 C 0.35207(18) 0.25465(12) 0.4778(3)
O9 O 0.22419(16) 0.43582(9) 0.3731(3)
C9 C 0.28617(18) 0.24891(12) 0.2083(3)
H5 H 0.22820 0.25400 0.12540
H6 H 0.29690 0.21150 0.22370
O10 O 0.3588(3) 0.50000 0.3113(5)
C10 C 0.35025(18) 0.27333(11) 0.1777(3)
O11 O 0.4473(2) 0.43959(16) 0.6025(3)
C11 C 0.57216(19) 0.25071(12) 0.7882(3)
O12 O 0.3275(2) 0.00000 0.1121(3)
C12 C 0.33358(19) 0.32318(12) 0.1217(3)
H7 H 0.28140 0.33910 0.09660
O13 O 0.46833(17) 0.05984(10) 0.2144(3)
C13 C 0.39217(19) 0.34954(12) 0.1024(3)
O14 O 0.3384(3) 0.05970(14) -0.0867(3)
C14 C 0.53052(19) 0.32729(12) 0.8590(3)
H8 H 0.49040 0.34600 0.87110
O15 O 0.5511(3) 0.00000 0.1154(6)
O16 O 0.3448(3) 0.00000 0.3720(4)
O17 O 0.35258(16) 0.12043(10) 0.2555(3)
O18 O 0.42579(19) 0.15608(11) 0.0023(3)
O19 O 0.50000 0.6486(2) 0.50000
O20 O 0.50000 0.0463(6) 0.50000
C10F C 0.64975(18) 0.27333(11) 0.8223(3)
C9F C 0.71383(18) 0.24891(12) 0.7917(3)
C7F C 0.70634(18) 0.27339(12) 0.6594(3)
C6F C 0.75463(18) 0.31597(12) 0.6718(3)
C5F C 0.74501(18) 0.33997(11) 0.5500(3)
S1F S 0.80756(5) 0.39475(3) 0.57533(8)
O1F O 0.79745(17) 0.4076(1) 0.4376(3)
O2F O 0.89389(15) 0.38019(10) 0.6842(3)
O9F O 0.77581(16) 0.43582(9) 0.6269(3)
C4F C 0.68796(18) 0.32061(12) 0.4143(3)
C3F C 0.63920(18) 0.27766(12) 0.3990(3)
C2F C 0.57668(18) 0.25646(12) 0.2509(3)
C1F C 0.48872(18) 0.27801(12) 0.1972(3)
C11F C 0.42784(19) 0.25071(12) 0.2118(3)
O7F O 0.44892(13) 0.20118(8) 0.2615(2)
C14F C 0.46948(19) 0.32729(12) 0.1410(3)
H8F H 0.50960 0.34600 0.12890
H1F H 0.59550 0.26580 0.18350
H2F H 0.57510 0.21850 0.25530
C8F C 0.64793(18) 0.25465(12) 0.5222(3)
O8F O 0.60174(14) 0.21292(9) 0.5183(2)
H3F H 0.68240 0.33690 0.33190
H4F H 0.79460 0.32890 0.76390
H5F H 0.77180 0.25400 0.87460
H6F H 0.70310 0.21150 0.77630
C12F C 0.66642(19) 0.32318(12) 0.8783(3)
H7F H 0.71860 0.33910 0.90340
C13F C 0.60783(19) 0.34954(12) 0.8976(3)
S2F S 0.63068(5) 0.41258(3) 0.96656(10)
O3F O 0.6834(3) 0.43395(14) 0.9152(6)
O5F O 0.6756(3) 0.40977(15) 1.1185(4)
O6F O 0.55078(15) 0.43909(9) 0.9050(3)
O10D O 0.6412(3) 0.50000 0.6887(5)
O11B O 0.4473(2) 0.56041(16) 0.6025(3)
O11D O 0.5527(2) 0.56041(16) 0.3975(3)
O11F O 0.5527(2) 0.43959(16) 0.3975(3)
Na1D Na 0.67034(13) 0.50000 0.4942(2)
S1B S 0.19244(5) 0.60525(3) 0.42467(8)
O1B O 0.20255(17) 0.5924(1) 0.5624(3)
C1B C 0.51128(18) 0.72199(12) 0.8028(3)
S2B S 0.36932(5) 0.58742(3) 0.03344(10)
O2B O 0.10611(15) 0.61981(10) 0.3158(3)
C2B C 0.42332(18) 0.74354(12) 0.7491(3)
H1B H 0.40450 0.73420 0.81650
H2B H 0.42490 0.78150 0.74470
C3B C 0.36080(18) 0.72234(12) 0.6010(3)
O3B O 0.3166(3) 0.56605(14) 0.0848(6)
C4B C 0.31204(18) 0.67939(12) 0.5857(3)
H3B H 0.31760 0.66310 0.66810
O5B O 0.3244(3) 0.59023(15) -0.1185(4)
C5B C 0.25499(18) 0.66003(11) 0.4500(3)
O6B O 0.44922(15) 0.56091(9) 0.0950(3)
C6B C 0.24537(18) 0.68403(12) 0.3282(3)
H4B H 0.20540 0.67110 0.23610
O7B O 0.55108(13) 0.79882(8) 0.7385(2)
C7B C 0.29366(18) 0.72661(12) 0.3406(3)
O8B O 0.39826(14) 0.78708(9) 0.4817(2)
C8B C 0.35207(18) 0.74535(12) 0.4778(3)
O9B O 0.22419(16) 0.56418(9) 0.3731(3)
C9B C 0.28617(18) 0.75109(12) 0.2083(3)
H5B H 0.22820 0.74600 0.12540
H6B H 0.29690 0.78850 0.22370
C10B C 0.35025(18) 0.72667(11) 0.1777(3)
C11B C 0.57216(19) 0.74929(12) 0.7882(3)
C12B C 0.33358(19) 0.67682(12) 0.1217(3)
H7B H 0.28140 0.66090 0.09660
C13B C 0.39217(19) 0.65046(12) 0.1024(3)
C14B C 0.53052(19) 0.67271(12) 0.8590(3)
H8B H 0.49040 0.65400 0.87110
C10D C 0.64975(18) 0.72667(11) 0.8223(3)
C9D C 0.71383(18) 0.75109(12) 0.7917(3)
C7D C 0.70634(18) 0.72661(12) 0.6594(3)
C6D C 0.75463(18) 0.68403(12) 0.6718(3)
C5D C 0.74501(18) 0.66003(11) 0.5500(3)
S1D S 0.80756(5) 0.60525(3) 0.57533(8)
O1D O 0.79745(17) 0.5924(1) 0.4376(3)
O2D O 0.89389(15) 0.61981(10) 0.6842(3)
O9D O 0.77581(16) 0.56418(9) 0.6269(3)
C4D C 0.68796(18) 0.67939(12) 0.4143(3)
C3D C 0.63920(18) 0.72234(12) 0.3990(3)
C2D C 0.57668(18) 0.74354(12) 0.2509(3)
C1D C 0.48872(18) 0.72199(12) 0.1972(3)
C11D C 0.42784(19) 0.74929(12) 0.2118(3)
O7D O 0.44892(13) 0.79882(8) 0.2615(2)
C14D C 0.46948(19) 0.67271(12) 0.1410(3)
H8D H 0.50960 0.65400 0.12890
H1D H 0.59550 0.73420 0.18350
H2D H 0.57510 0.78150 0.25530
C8D C 0.64793(18) 0.74535(12) 0.5222(3)
O8D O 0.60174(14) 0.78708(9) 0.5183(2)
H3D H 0.68240 0.66310 0.33190
H4D H 0.79460 0.67110 0.76390
H5D H 0.77180 0.74600 0.87460
H6D H 0.70310 0.78850 0.77630
C12D C 0.66642(19) 0.67682(12) 0.8783(3)
H7D H 0.71860 0.66090 0.90340
C13D C 0.60783(19) 0.65046(12) 0.8976(3)
S2D S 0.63068(5) 0.58742(3) 0.96656(10)
O3D O 0.6834(3) 0.56605(14) 0.9152(6)
O5D O 0.6756(3) 0.59023(15) 1.1185(4)
O6D O 0.55078(15) 0.56091(9) 0.9050(3)
O4D O 0.6403(2) 0.50000 0.2446(4)
O13B O 0.46833(17) -0.05984(10) 0.2144(3)
O14B O 0.3384(3) -0.05970(14) -0.0867(3)
O15D O 0.4489(3) 0.00000 -0.1154(6)
Sc1D Sc 0.57342(5) 0.00000 -0.05163(8)
O12D O 0.6725(2) 0.00000 -0.1121(3)
O13D O 0.53167(17) -0.05984(10) -0.2144(3)
O13F O 0.53167(17) 0.05984(10) -0.2144(3)
O14D O 0.6616(3) -0.05970(14) 0.0867(3)
O14F O 0.6616(3) 0.05970(14) 0.0867(3)
O4D* O 0.6403(2) 0.50000 1.2446(4)
O6* O 0.44922(15) 0.43909(9) 1.0950(3)
O6B* O 0.44922(15) 0.56091(9) 1.0950(3)
Na3* Na 0.50000 0.50000 0.00000
#END
