
#######################################################################
#
#                 Cambridge Crystallographic Data Centre
#                                CCDC
#
#######################################################################
#
# If this CIF has been generated from an entry in the Cambridge
# Structural Database, then it will include bibliographic, chemical,
# crystal, experimental, refinement or atomic coordinate data resulting
# from the CCDC's data processing and validation procedures.
#
#######################################################################

data_CSD_CIF_MERBOD
_audit_creation_date 2018-01-09
_audit_creation_method CSD-ConQuest-V1
_database_code_CSD MERBOD
_database_code_depnum_ccdc_archive 'CCDC 1815610'
_chemical_formula_sum 'C26 H17 N4 O13 Tb1'
_chemical_formula_moiety
;
(C16 H8 N2 O13 Tb1 1-)n,C10 H9 N2 1+
;
_journal_coden_Cambridge 1078
_journal_year 2018
_journal_name_full 'CSD Communication(Private Communication) '
loop_
_publ_author_name
"Yixia Ren"
_chemical_name_systematic
;
catena-[4-(pyridin-2-yl)pyridin-1-ium 
bis(\m-2-nitrobenzene-1,4-dicarboxylato)-aqua-terbium(iii)]
;
_cell_volume   2612.897
_exptl_crystal_colour 'yellow'
_exptl_crystal_density_diffrn 1.913
_exptl_crystal_description 'block'
_diffrn_ambient_temperature 296
#These two values have been output from a single CSD field.
_refine_ls_R_factor_gt 0.0205
_refine_ls_wR_factor_gt 0.0205
_symmetry_cell_setting monoclinic
_symmetry_space_group_name_H-M 'P 21/n'
_symmetry_Int_Tables_number 14
loop_
_symmetry_equiv_pos_site_id
_symmetry_equiv_pos_as_xyz
1 x,y,z
2 1/2-x,1/2+y,1/2-z
3 -x,-y,-z
4 -1/2+x,-1/2-y,-1/2+z
_cell_length_a 11.7024(8)
_cell_length_b 14.5744(9)
_cell_length_c 15.8996(11)
_cell_angle_alpha 90
_cell_angle_beta 105.519(2)
_cell_angle_gamma 90
_cell_formula_units_Z 4
loop_
_atom_type_symbol
_atom_type_radius_bond
C 0.68
H 0.23
N 0.68
O 0.68
Tb 1.94
loop_
_atom_site_label
_atom_site_type_symbol
_atom_site_fract_x
_atom_site_fract_y
_atom_site_fract_z
Tb1 Tb -0.166107(9) 0.445001(7) 0.505654(6)
O1 O -0.13955(15) 0.59473(12) 0.57231(12)
O2 O -0.07798(16) 0.34242(12) 0.42319(12)
H1 H -0.0104(14) 0.359(2) 0.4190(19)
H2 H -0.080(3) 0.2847(7) 0.4178(19)
O3 O -0.32578(17) 0.55099(11) 0.53271(13)
O4 O -0.2784(2) 0.75766(14) 0.49115(12)
O5 O -0.3192(3) 0.88528(15) 0.54231(17)
O6 O -0.35268(18) 0.79819(12) 0.91550(12)
O7 O -0.31370(18) 0.91964(13) 0.84696(12)
O8 O -0.22927(16) 0.52782(15) 0.36712(12)
O9 O -0.03802(15) 0.54130(11) 0.42049(11)
O10 O -0.0873(2) 0.43144(14) 0.25212(15)
O11 O 0.0160(2) 0.46966(17) 0.16448(17)
O12 O -0.06124(19) 0.75949(14) 0.01684(13)
O13 O -0.16503(15) 0.86770(12) 0.06169(11)
C1 C -0.2457(2) 0.60172(16) 0.57603(15)
C2 C -0.2712(2) 0.66546(17) 0.64385(15)
C3 C -0.2738(2) 0.62727(18) 0.72296(16)
H3 H -0.26290 0.56440 0.73140
C4 C -0.2923(2) 0.68116(17) 0.78968(16)
H4 H -0.29380 0.65410 0.84230
C5 C -0.3085(2) 0.77454(16) 0.77900(15)
C6 C -0.3054(2) 0.81449(17) 0.70068(16)
H5 H -0.31440 0.87760 0.69290
C7 C -0.2888(2) 0.75969(17) 0.63437(15)
C8 C -0.3267(2) 0.83430(17) 0.85162(15)
C9 C -0.1320(2) 0.55664(15) 0.36166(17)
C10 C -0.1268(2) 0.61525(17) 0.28445(15)
C11 C -0.1641(2) 0.70563(18) 0.28221(16)
H6 H -0.19100 0.72860 0.32800
C12 C -0.1619(2) 0.76243(17) 0.21258(15)
H7 H -0.18910 0.82250 0.21160
C13 C -0.1196(2) 0.73057(17) 0.14446(15)
C14 C -0.0809(2) 0.64024(17) 0.14598(16)
H8 H -0.05240 0.61760 0.10080
C15 C -0.0853(2) 0.58471(17) 0.21487(16)
C16 C -0.1150(2) 0.79029(17) 0.06802(16)
N1 N -0.2942(2) 0.80359(16) 0.55031(15)
N2 N -0.0491(2) 0.48843(16) 0.21040(15)
C17 C -0.1160(3) 0.1185(2) 0.47461(19)
H9 H -0.11490 0.16180 0.51780
C18 C -0.1570(3) 0.0324(2) 0.4850(2)
H10 H -0.18310 0.01800 0.53380
C19 C -0.1586(3) -0.0319(2) 0.4222(2)
H11 H -0.18680 -0.09080 0.42690
C20 C -0.1174(3) -0.0072(2) 0.35143(19)
H12 H -0.11710 -0.05000 0.30810
C21 C -0.0770(2) 0.08045(19) 0.34522(16)
C22 C -0.0360(2) 0.11022(17) 0.26871(16)
C23 C -0.0313(2) 0.20214(19) 0.24796(17)
H13 H -0.04870 0.24680 0.28450
C24 C -0.0012(2) 0.2274(2) 0.17404(17)
H14 H 0.00140 0.28920 0.16010
C25 C 0.0240(2) 0.0749(2) 0.13973(19)
H15 H 0.04360 0.03210 0.10240
C26 C -0.0054(2) 0.04614(18) 0.21302(19)
H16 H -0.00510 -0.01610 0.22590
N3 N 0.02447(19) 0.16373(16) 0.12181(14)
H17 H 0.04190 0.18080 0.07500
N4 N -0.0775(2) 0.14403(15) 0.40648(14)
Tb1A Tb -0.333893(9) 0.945001(7) -0.005654(6)
Tb1A* Tb -0.333893(9) 0.945001(7) 0.994346(6)
Tb1B Tb 0.166107(9) 0.554999(7) 0.494346(6)
O6A O -0.14732(18) 0.29819(12) 0.58450(12)
O7A O -0.18630(18) 0.41964(13) 0.65304(12)
O9B O 0.03802(15) 0.45870(11) 0.57951(11)
O13A O -0.33497(15) 0.36770(12) 0.43831(11)
#END
