
#######################################################################
#
#                 Cambridge Crystallographic Data Centre
#                                CCDC
#
#######################################################################
#
# If this CIF has been generated from an entry in the Cambridge
# Structural Database, then it will include bibliographic, chemical,
# crystal, experimental, refinement or atomic coordinate data resulting
# from the CCDC's data processing and validation procedures.
#
#######################################################################

data_CSD_CIF_MESSUZ
_audit_creation_date 2007-02-13
_audit_creation_method CSD-ConQuest-V1
_database_code_CSD MESSUZ
_database_code_depnum_ccdc_archive 'CCDC 276975'
_chemical_formula_sum 'C32 H60 N8 O38 Zn4'
_chemical_formula_moiety
;
(C4 H12 N2 2+)4n,n(C16 O32 Zn4 8-),6n(H2 O1)
;
_journal_coden_Cambridge 179
_journal_volume 45
_journal_year 2006
_journal_page_first 281
_journal_name_full 'Angew.Chem.,Int.Ed. '
loop_
_publ_author_name
"M.Dan"
"C.N.R.Rao"
_chemical_name_systematic
;
catena-[tetrakis(Piperazinium) 
tetrakis(\m~2~-oxalato)-tetrakis(oxalato)-tetra-zinc hexahydrate]
;
_cell_volume   5292.795
_exptl_crystal_colour 'colorless'
_exptl_crystal_density_diffrn 1.79
_exptl_crystal_description 'Block'
_diffrn_ambient_temperature 293
#These two values have been output from a single CSD field.
_refine_ls_R_factor_gt 0.0457
_refine_ls_wR_factor_gt 0.0457
_symmetry_cell_setting monoclinic
_symmetry_space_group_name_H-M 'C 2/c'
_symmetry_Int_Tables_number 15
loop_
_symmetry_equiv_pos_site_id
_symmetry_equiv_pos_as_xyz
1 x,y,z
2 1/2+x,1/2+y,z
3 -x,y,1/2-z
4 1/2-x,1/2+y,1/2-z
5 -x,-y,-z
6 -1/2-x,-1/2-y,-z
7 x,-y,-1/2+z
8 -1/2+x,-1/2-y,-1/2+z
_cell_length_a 15.2706(3)
_cell_length_b 9.0584(1)
_cell_length_c 38.2638(1)
_cell_angle_alpha 90
_cell_angle_beta 90.4
_cell_angle_gamma 90
_cell_formula_units_Z 4
loop_
_atom_type_symbol
_atom_type_radius_bond
C 0.68
H 0.23
N 0.68
O 0.68
Zn 1.45
loop_
_atom_site_label
_atom_site_type_symbol
_atom_site_fract_x
_atom_site_fract_y
_atom_site_fract_z
Zn1 Zn 0.61099(4) 0.08860(7) 0.55291(2)
Zn2 Zn 0.56944(4) 0.24631(7) 0.68618(2)
O1 O 0.5609(2) 0.1625(4) 0.50477(10)
O2 O 0.5985(2) 0.0530(4) 0.6597(1)
O3 O 0.5128(3) 0.2956(4) 0.63754(10)
O4 O 0.5602(2) 0.4710(4) 0.69954(11)
O5 O 0.6099(2) 0.1874(5) 0.73786(10)
O6 O 0.4719(2) 0.0877(4) 0.46127(10)
O7 O 0.5505(2) 0.2012(4) 0.79091(9)
O8 O 0.6216(3) -0.0116(4) 0.6044(1)
O9 O 0.7066(2) 0.2546(4) 0.56387(11)
O10 O 0.6964(2) 0.3166(4) 0.67535(11)
O11 O 0.5283(2) 0.2221(4) 0.58224(9)
O12 O 0.7244(2) -0.0218(4) 0.54161(10)
C1 C 0.5468(4) 0.1921(6) 0.75808(15)
C2 C 0.5906(3) 0.0701(6) 0.62721(14)
O13 O 0.6369(3) 0.6787(5) 0.69564(14)
C3 C 0.7084(4) 0.4539(7) 0.6799(2)
C4 C 0.5391(3) 0.2074(6) 0.61464(14)
C5 C 0.5100(3) 0.0722(6) 0.49023(14)
C6 C 0.6285(4) 0.5432(6) 0.69306(15)
O14 O 0.3649(3) 0.1795(5) 0.54823(14)
C7 C 0.7915(3) -0.1650(6) 0.68877(14)
H1 H 0.7461(3) -0.2396(6) 0.68725(14)
H2 H 0.8455(3) -0.2135(6) 0.69577(14)
C8 C 0.5245(3) 0.6339(6) 0.56568(14)
H3 H 0.4646(3) 0.5998(6) 0.56815(14)
H4 H 0.5227(3) 0.7391(6) 0.56091(14)
C9 C 0.8433(3) 0.1378(6) 0.68270(13)
H5 H 0.7884(3) 0.1847(6) 0.67626(13)
H6 H 0.8879(3) 0.2139(6) 0.68411(13)
N1 N 0.8340(4) 0.0666(7) 0.7175(2)
H7 H 0.8172(4) 0.1343(7) 0.7333(2)
H8 H 0.8860(4) 0.0295(7) 0.7244(2)
C10 C 0.7069(3) 0.5645(5) 0.56612(13)
H9 H 0.7038(3) 0.4593(5) 0.57064(13)
H10 H 0.7681(3) 0.5913(5) 0.56405(13)
O15 O 0.7769(3) 0.5216(5) 0.67456(15)
N2 N 0.5728(4) 0.6083(7) 0.5992(2)
H11 H 0.5671(4) 0.5132(7) 0.6055(2)
H12 H 0.5495(4) 0.6648(7) 0.6161(2)
O16 O 0.8474(3) 0.2567(5) 0.58095(13)
O17 O 0.8668(3) -0.0170(5) 0.55367(13)
C11 C 0.7828(4) 0.1982(6) 0.56745(15)
C12 C 0.8675(4) 0.0304(7) 0.6555(2)
H13 H 0.9256(4) -0.0077(7) 0.6605(2)
H14 H 0.8690(4) 0.0796(7) 0.6330(2)
O18 O 0.9784(4) 0.3257(7) 0.6939(2)
N3 N 0.6607(4) 0.5983(8) 0.5331(2)
H15 H 0.6848(4) 0.5468(8) 0.5155(2)
H16 H 0.6660(4) 0.6951(8) 0.5282(2)
O19 O 0.8971(5) 0.4997(9) 0.6207(2)
C13 C 0.6682(4) 0.6449(7) 0.5953(2)
H17 H 0.6748(4) 0.7501(7) 0.5915(2)
H18 H 0.6991(4) 0.6196(7) 0.6167(2)
C14 C 0.7924(4) 0.0399(6) 0.55310(15)
N4 N 0.8033(4) -0.0962(7) 0.6539(2)
H19 H 0.7513(4) -0.0630(7) 0.6459(2)
H20 H 0.8229(4) -0.1646(7) 0.6388(2)
C15 C 0.7674(4) -0.0550(7) 0.7155(2)
H21 H 0.7633(4) -0.1030(7) 0.7381(2)
H22 H 0.7105(4) -0.0136(7) 0.7099(2)
C16 C 0.5647(4) 0.5583(8) 0.5363(2)
H23 H 0.5341(4) 0.5850(8) 0.5149(2)
H24 H 0.5591(4) 0.4525(8) 0.5394(2)
H25 H 0.3652(57) 0.2894(16) 0.5461(24)
H26 H 1.0368(32) 0.281(11) 0.6996(28)
H27 H 0.3627(60) 0.200(11) 0.5738(6)
H28 H 0.9145(30) 0.4067(31) 0.6327(11)
H29 H 0.8630(76) 0.491(16) 0.6428(19)
H30 H 0.9892(42) 0.3048(73) 0.6687(6)
Zn1D Zn 0.38901(4) -0.08860(7) 0.44709(2)
Zn2D Zn 0.43056(4) -0.24631(7) 0.31382(2)
Zn2B Zn 0.43056(4) 0.24631(7) 0.81382(2)
O1D O 0.4391(2) -0.1625(4) 0.49523(10)
O2D O 0.4015(2) -0.0530(4) 0.3403(1)
O3D O 0.4872(3) -0.2956(4) 0.36246(10)
O4D O 0.4398(2) -0.4710(4) 0.30046(11)
O5B O 0.3901(2) 0.1874(5) 0.76214(10)
O5D O 0.3901(2) -0.1874(5) 0.26214(10)
O6D O 0.5281(2) -0.0877(4) 0.53873(10)
O7B O 0.4495(2) 0.2012(4) 0.70909(9)
O7F O 0.5505(2) -0.2012(4) 0.29091(9)
O8D O 0.3784(3) 0.0116(4) 0.3956(1)
O9D O 0.2934(2) -0.2546(4) 0.43613(11)
O10D O 0.3036(2) -0.3166(4) 0.32465(11)
O11D O 0.4717(2) -0.2221(4) 0.41776(9)
O12D O 0.2756(2) 0.0218(4) 0.45839(10)
C1B C 0.4532(4) 0.1921(6) 0.74192(15)
C2D C 0.4094(3) -0.0701(6) 0.37279(14)
O13D O 0.3631(3) -0.6787(5) 0.30436(14)
C3D C 0.2916(4) -0.4539(7) 0.3201(2)
C4D C 0.4609(3) -0.2074(6) 0.38536(14)
C5D C 0.4900(3) -0.0722(6) 0.50977(14)
C6D C 0.3715(4) -0.5432(6) 0.30694(15)
O15D O 0.2231(3) -0.5216(5) 0.32544(15)
O16D O 0.1526(3) -0.2567(5) 0.41905(13)
O17D O 0.1332(3) 0.0170(5) 0.44633(13)
C11D C 0.2172(4) -0.1982(6) 0.43255(15)
C14D C 0.2076(4) -0.0399(6) 0.44690(15)
#END
