
#######################################################################
#
#                 Cambridge Crystallographic Data Centre
#                                CCDC
#
#######################################################################
#
# If this CIF has been generated from an entry in the Cambridge
# Structural Database, then it will include bibliographic, chemical,
# crystal, experimental, refinement or atomic coordinate data resulting
# from the CCDC's data processing and validation procedures.
#
#######################################################################

data_CSD_CIF_MESTAG
_audit_creation_date 2007-02-13
_audit_creation_method CSD-ConQuest-V1
_database_code_CSD MESTAG
_database_code_depnum_ccdc_archive 'CCDC 276977'
_chemical_formula_sum 'C10 H12 N2 O12 Zn2'
_chemical_formula_moiety
;
(C4 H12 N2 2+)n,n(C6 O12 Zn2 2-)
;
_journal_coden_Cambridge 179
_journal_volume 45
_journal_year 2006
_journal_page_first 281
_journal_name_full 'Angew.Chem.,Int.Ed. '
loop_
_publ_author_name
"M.Dan"
"C.N.R.Rao"
_chemical_name_systematic
;
catena-[Piperazinium 
(\m~4~-oxalato)-(\m~2~-oxalato-O,O',O'',O''')-(\m~2~-oxalato-O,O')-di-zinc]
;
_cell_volume    365.028
_exptl_crystal_colour 'colorless'
_exptl_crystal_density_diffrn 2.197
_exptl_crystal_description 'Block'
_diffrn_ambient_temperature 293
#These two values have been output from a single CSD field.
_refine_ls_R_factor_gt 0.0418
_refine_ls_wR_factor_gt 0.0418
_symmetry_cell_setting triclinic
_symmetry_space_group_name_H-M 'P -1'
_symmetry_Int_Tables_number 2
loop_
_symmetry_equiv_pos_site_id
_symmetry_equiv_pos_as_xyz
1 x,y,z
2 -x,-y,-z
_cell_length_a 5.8208(9)
_cell_length_b 7.6266(11)
_cell_length_c 8.5782(13)
_cell_angle_alpha 88.272(3)
_cell_angle_beta 73.81
_cell_angle_gamma 86.599(3)
_cell_formula_units_Z 1
loop_
_atom_type_symbol
_atom_type_radius_bond
C 0.68
H 0.23
N 0.68
O 0.68
Zn 1.45
loop_
_atom_site_label
_atom_site_type_symbol
_atom_site_fract_x
_atom_site_fract_y
_atom_site_fract_z
Zn1 Zn -0.91503(12) -0.17532(9) 0.09538(9)
O1 O -1.0285(7) -0.1115(6) 0.3331(5)
O2 O -0.7770(7) 0.0478(5) -0.0354(5)
O3 O -1.0510(7) -0.4160(5) 0.1931(5)
O4 O -1.1448(8) -0.6730(5) 0.1160(5)
O5 O -0.4521(7) 0.2076(5) -0.0926(5)
O6 O -0.7937(8) 0.1057(6) 0.3417(5)
C1 C -0.5643(10) 0.0757(8) -0.0379(7)
C2 C -1.0572(10) -0.5281(8) 0.0891(7)
C3 C -0.9471(11) 0.0004(8) 0.4061(7)
N1 N -0.3405(9) -0.3687(7) 0.5077(6)
H1 H -0.2994(9) -0.2800(7) 0.5595(6)
H2 H -0.2265(9) -0.3847(7) 0.4131(6)
C4 C -0.3519(11) -0.5309(9) 0.6081(8)
H3 H -0.4653(11) -0.5114(9) 0.7137(8)
H4 H -0.1958(11) -0.5611(9) 0.6242(8)
C5 C -0.5720(12) -0.3207(9) 0.4743(8)
H5 H -0.6929(12) -0.2943(9) 0.5754(8)
H6 H -0.5567(12) -0.2165(9) 0.4053(8)
Zn1A Zn -1.08497(12) 0.17532(9) 0.90462(9)
Zn1A* Zn -1.08497(12) 0.17532(9) -0.09538(9)
Zn1A** Zn -1.08497(12) -0.82468(9) -0.09538(9)
Zn1A*** Zn -0.08497(12) 0.17532(9) -0.09538(9)
Zn1* Zn 0.08497(12) -0.17532(9) 0.09538(9)
O1A O -0.9715(7) 0.1115(6) 0.6669(5)
O2A O -0.2230(7) -0.0478(5) 0.0354(5)
O2A* O -1.2230(7) -0.0478(5) 0.0354(5)
O2* O -0.7770(7) 0.0478(5) 0.9646(5)
O2A** O -1.2230(7) -0.0478(5) 1.0354(5)
O3A O -0.9490(7) -0.5840(5) -0.1931(5)
O3A* O -0.9490(7) 0.4160(5) 0.8069(5)
O4A O -0.8552(8) -0.3270(5) -0.1160(5)
O4* O -1.1448(8) 0.3270(5) 1.1160(5)
O5A O -0.5479(7) -0.2076(5) 0.0926(5)
O5* O -1.4521(7) 0.2076(5) 0.9074(5)
O6A O -1.2063(8) -0.1057(6) 0.6583(5)
C1A C -0.4357(10) -0.0757(8) 0.0379(7)
C2A C -0.9428(10) -0.4719(8) -0.0891(7)
C3A C -1.0529(11) -0.0004(8) 0.5939(7)
N1A N -0.6595(9) -0.6313(7) 0.4923(6)
H1A H -0.7006(9) -0.7200(7) 0.4405(6)
H2A H -0.7735(9) -0.6153(7) 0.5869(6)
C4A C -0.6481(11) -0.4691(9) 0.3919(8)
H3A H -0.5347(11) -0.4886(9) 0.2863(8)
H4A H -0.8042(11) -0.4389(9) 0.3758(8)
C5A C -0.4280(12) -0.6793(9) 0.5257(8)
H5A H -0.3071(12) -0.7057(9) 0.4246(8)
H6A H -0.4433(12) -0.7835(9) 0.5947(8)
#END
