
#######################################################################
#
#                 Cambridge Crystallographic Data Centre
#                                CCDC
#
#######################################################################
#
# If this CIF has been generated from an entry in the Cambridge
# Structural Database, then it will include bibliographic, chemical,
# crystal, experimental, refinement or atomic coordinate data resulting
# from the CCDC's data processing and validation procedures.
#
#######################################################################

data_CSD_CIF_METQOR
_audit_creation_date 2002-03-06
_audit_creation_method CSD-ConQuest-V1
_database_code_CSD METQOR
_database_code_depnum_ccdc_archive 'CCDC 169670'
_chemical_formula_sum 'C14 H30 Co1 N2 O16'
_chemical_formula_moiety
;
(C4 H12 N2 2+)n,n(C10 H10 Co1 O12 2-),4n(H2 O1)
;
_journal_coden_Cambridge 186
_journal_year 2002
_journal_page_first 34
_journal_name_full 'J.Chem.Soc.,Dalton Trans. '
loop_
_publ_author_name
"R.Murugavel"
"D.Krishnamurthy"
"M.Sathiyendiran"
_chemical_name_systematic
;
catena-[Piperazinedi-ium 
(\m~2~-1,2,4,5-benzenetetracarboxylato-O,O')-tetra-aqua-cobalt(ii) 
tetrahydrate]
;
_chemical_melting_point 533.15
_cell_volume    535.919
_exptl_crystal_colour 'pink-blue thermochromic'
_exptl_crystal_density_diffrn 1.677
_exptl_special_details
;
Melts above 533.15K
isomorphous with the nickel and zinc analogues
phase transition at color changes to blue at 115-118deg.C
;
_exptl_crystal_description 'rectangular blocks'
_diffrn_ambient_temperature 213
#These two values have been output from a single CSD field.
_refine_ls_R_factor_gt 0.0437
_refine_ls_wR_factor_gt 0.0437
_symmetry_cell_setting triclinic
_symmetry_space_group_name_H-M 'P -1'
_symmetry_Int_Tables_number 2
loop_
_symmetry_equiv_pos_site_id
_symmetry_equiv_pos_as_xyz
1 x,y,z
2 -x,-y,-z
_cell_length_a 6.8668(14)
_cell_length_b 9.1137(18)
_cell_length_c 9.6982(19)
_cell_angle_alpha 104.63(3)
_cell_angle_beta 98.04(3)
_cell_angle_gamma 109.66(3)
_cell_formula_units_Z 1
loop_
_atom_type_symbol
_atom_type_radius_bond
C 0.68
H 0.23
Co 1.33
N 0.68
O 0.68
loop_
_atom_site_label
_atom_site_type_symbol
_atom_site_fract_x
_atom_site_fract_y
_atom_site_fract_z
Co1 Co 0.00000 0.00000 0.00000
O1 O 0.2567(3) 0.1717(3) -0.0432(2)
O2 O 0.2038(3) -0.0978(3) 0.0871(2)
O3 O 0.0286(3) 0.1627(2) 0.2127(2)
O4 O 0.2740(6) 0.3972(3) 0.2162(5)
O5 O -0.3451(3) 0.2554(2) 0.1302(2)
O6 O -0.4640(3) 0.1262(3) 0.2880(2)
C1 C 0.2129(5) 0.5413(3) 0.4996(3)
C2 C 0.0573(5) 0.4126(3) 0.3823(3)
C3 C -0.1581(4) 0.3723(3) 0.3828(3)
C4 C 0.1265(5) 0.3187(4) 0.2606(4)
C5 C -0.3363(4) 0.2395(3) 0.2565(3)
H1 H 0.391(10) 0.183(7) 0.003(7)
H2 H 0.245(10) 0.252(8) -0.018(7)
H3 H 0.248(9) -0.143(7) 0.018(7)
H4 H 0.291(10) -0.034(8) 0.143(7)
H5 H 0.365(9) 0.568(7) 0.505(6)
O7 O 0.4073(4) -0.2681(3) 0.2666(3)
H6 H 0.388(10) -0.364(7) 0.246(7)
H7 H 0.315(9) -0.260(7) 0.210(6)
O8 O -0.1308(18) -0.4480(6) 0.0833(7)
H8 H -0.080(13) -0.497(9) 0.095(9)
H9 H -0.251(9) -0.485(9) 0.079(8)
N1 N -0.1736(4) -0.0497(3) 0.3726(3)
C6 C -0.0358(5) -0.1458(4) 0.3807(4)
C7 C -0.1848(5) 0.0355(4) 0.5230(4)
H10 H -0.123(9) 0.023(7) 0.326(7)
H11 H -0.316(10) -0.125(7) 0.320(7)
H12 H -0.025(9) -0.192(7) 0.282(7)
H13 H -0.105(9) -0.232(7) 0.422(7)
H14 H -0.269(9) 0.096(7) 0.513(6)
H15 H -0.256(9) -0.048(7) 0.569(6)
C3A C 0.1581(4) 0.6277(3) 0.6172(3)
C2A C -0.0573(5) 0.5874(3) 0.6177(3)
C1A C -0.2129(5) 0.4587(3) 0.5004(3)
H5A H -0.365(9) 0.432(7) 0.495(6)
C4A C -0.1265(5) 0.6813(4) 0.7394(4)
O3A O -0.0286(3) 0.8373(2) 0.7873(2)
O4A O -0.2740(6) 0.6028(3) 0.7838(5)
C5A C 0.3363(4) 0.7605(3) 0.7435(3)
O5A O 0.3451(3) 0.7446(2) 0.8698(2)
O6A O 0.4640(3) 0.8738(3) 0.7120(2)
O1A O -0.2567(3) -0.1717(3) 0.0432(2)
H1A H -0.391(10) -0.183(7) -0.003(7)
H2A H -0.245(10) -0.252(8) 0.018(7)
O2A O -0.2038(3) 0.0978(3) -0.0871(2)
H3A H -0.248(9) 0.143(7) -0.018(7)
H4A H -0.291(10) 0.034(8) -0.143(7)
O3A* O -0.0286(3) -0.1627(2) -0.2127(2)
Co1* Co 0.00000 1.00000 1.00000
C7A C 0.1848(5) -0.0355(4) 0.4770(4)
N1A N 0.1736(4) 0.0497(3) 0.6274(3)
C6A C 0.0358(5) 0.1458(4) 0.6193(4)
H12A H 0.025(9) 0.192(7) 0.718(7)
H13A H 0.105(9) 0.232(7) 0.578(7)
H10A H 0.123(9) -0.023(7) 0.674(7)
H11A H 0.316(10) 0.125(7) 0.680(7)
H14A H 0.269(9) -0.096(7) 0.487(6)
H15A H 0.256(9) 0.048(7) 0.431(6)
#END
