
#######################################################################
#
#                 Cambridge Crystallographic Data Centre
#                                CCDC
#
#######################################################################
#
# If this CIF has been generated from an entry in the Cambridge
# Structural Database, then it will include bibliographic, chemical,
# crystal, experimental, refinement or atomic coordinate data resulting
# from the CCDC's data processing and validation procedures.
#
#######################################################################

data_CSD_CIF_METRAE
_audit_creation_date 2002-03-06
_audit_creation_method CSD-ConQuest-V1
_database_code_CSD METRAE
_database_code_depnum_ccdc_archive 'CCDC 169672'
_chemical_formula_sum 'C14 H30 N2 O16 Zn1'
_chemical_formula_moiety
;
(C4 H12 N2 2+)n,n(C10 H10 O12 Zn1 2-),4n(H2 O1)
;
_journal_coden_Cambridge 186
_journal_year 2002
_journal_page_first 34
_journal_name_full 'J.Chem.Soc.,Dalton Trans. '
loop_
_publ_author_name
"R.Murugavel"
"D.Krishnamurthy"
"M.Sathiyendiran"
_chemical_name_systematic
;
catena-(Piperazinedi-ium 
(\m~2~-1,2,4,5-benzenetetracarboxylato-O,O')-tetra-aqua-zinc(ii) 
tetrahydrate)
;
_cell_volume    538.481
_exptl_crystal_colour 'colorless'
_exptl_crystal_density_diffrn 1.689
_exptl_special_details
;
isomorphous with the cobalt and nickel analogues

;
_exptl_crystal_description 'rectangular blocks'
_diffrn_ambient_temperature 293
#These two values have been output from a single CSD field.
_refine_ls_R_factor_gt 0.0343
_refine_ls_wR_factor_gt 0.0343
_symmetry_cell_setting triclinic
_symmetry_space_group_name_H-M 'P -1'
_symmetry_Int_Tables_number 2
loop_
_symmetry_equiv_pos_site_id
_symmetry_equiv_pos_as_xyz
1 x,y,z
2 -x,-y,-z
_cell_length_a 6.847(5)
_cell_length_b 9.122(1)
_cell_length_c 9.769(2)
_cell_angle_alpha 104.87(1)
_cell_angle_beta 98.16(3)
_cell_angle_gamma 109.45(3)
_cell_formula_units_Z 1
loop_
_atom_type_symbol
_atom_type_radius_bond
C 0.68
H 0.23
N 0.68
O 0.68
Zn 1.45
loop_
_atom_site_label
_atom_site_type_symbol
_atom_site_fract_x
_atom_site_fract_y
_atom_site_fract_z
Zn1 Zn 0.00000 0.00000 0.00000
O1 O 0.2557(3) 0.1729(2) -0.0429(2)
O2 O 0.2045(3) -0.0966(2) 0.08534(19)
O3 O 0.0296(3) 0.16174(19) 0.21539(17)
O4 O 0.2780(5) 0.3950(3) 0.2220(4)
O5 O -0.3446(3) 0.2553(2) 0.13180(18)
O6 O -0.4621(3) 0.1255(2) 0.2871(2)
C1 C 0.2132(4) 0.5405(3) 0.5012(3)
C2 C 0.0579(4) 0.4117(3) 0.3839(2)
C3 C -0.1575(4) 0.3720(3) 0.3829(2)
C4 C 0.1285(4) 0.3166(3) 0.2641(3)
C5 C -0.3356(4) 0.2388(3) 0.2568(3)
H1 H 0.391(8) 0.185(6) 0.009(6)
H2 H 0.249(8) 0.260(7) -0.022(6)
H3 H 0.247(8) -0.147(6) 0.012(6)
H4 H 0.304(8) -0.023(6) 0.148(6)
H5 H 0.363(8) 0.568(6) 0.510(5)
O7 O 0.4078(4) -0.2709(3) 0.2653(3)
H6 H 0.387(8) -0.374(7) 0.242(6)
H7 H 0.306(8) -0.270(6) 0.194(6)
O8 O -0.1365(17) -0.4505(5) 0.0807(6)
H8 H -0.107(12) -0.507(8) 0.080(8)
H9 H -0.254(9) -0.496(8) 0.068(7)
N1 N -0.1730(4) -0.0506(3) 0.3730(2)
C6 C -0.0320(5) -0.1442(4) 0.3809(3)
C7 C -0.1867(5) 0.0329(4) 0.5216(3)
H10 H -0.128(8) 0.020(6) 0.326(6)
H11 H -0.319(8) -0.137(6) 0.315(6)
H12 H -0.016(8) -0.199(6) 0.274(6)
H13 H -0.099(8) -0.232(6) 0.416(6)
H14 H -0.260(8) 0.097(6) 0.515(5)
H15 H -0.254(8) -0.053(6) 0.563(6)
C3A C 0.1575(4) 0.6280(3) 0.6171(2)
C2A C -0.0579(4) 0.5883(3) 0.6161(2)
C1A C -0.2132(4) 0.4595(3) 0.4988(3)
H5A H -0.363(8) 0.432(6) 0.490(5)
C4A C -0.1285(4) 0.6834(3) 0.7359(3)
O3A O -0.0296(3) 0.83826(19) 0.78461(17)
O4A O -0.2780(5) 0.6050(3) 0.7780(4)
C5A C 0.3356(4) 0.7612(3) 0.7432(3)
O5A O 0.3446(3) 0.7447(2) 0.86820(18)
O6A O 0.4621(3) 0.8745(2) 0.7129(2)
O1A O -0.2557(3) -0.1729(2) 0.0429(2)
H1A H -0.391(8) -0.185(6) -0.009(6)
H2A H -0.249(8) -0.260(7) 0.022(6)
O2A O -0.2045(3) 0.0966(2) -0.08534(19)
H3A H -0.247(8) 0.147(6) -0.012(6)
H4A H -0.304(8) 0.023(6) -0.148(6)
O3A* O -0.0296(3) -0.16174(19) -0.21539(17)
Zn1* Zn 0.00000 1.00000 1.00000
C7A C 0.1867(5) -0.0329(4) 0.4784(3)
N1A N 0.1730(4) 0.0506(3) 0.6270(2)
C6A C 0.0320(5) 0.1442(4) 0.6191(3)
H12A H 0.016(8) 0.199(6) 0.726(6)
H13A H 0.099(8) 0.232(6) 0.584(6)
H10A H 0.128(8) -0.020(6) 0.674(6)
H11A H 0.319(8) 0.137(6) 0.685(6)
H14A H 0.260(8) -0.097(6) 0.485(5)
H15A H 0.254(8) 0.053(6) 0.437(6)
#END
