
#######################################################################
#
#                 Cambridge Crystallographic Data Centre
#                                CCDC
#
#######################################################################
#
# If this CIF has been generated from an entry in the Cambridge
# Structural Database, then it will include bibliographic, chemical,
# crystal, experimental, refinement or atomic coordinate data resulting
# from the CCDC's data processing and validation procedures.
#
#######################################################################

data_CSD_CIF_MEXXAR
_audit_creation_date 2018-05-24
_audit_creation_method CSD-ConQuest-V1
_database_code_CSD MEXXAR
_database_code_depnum_ccdc_archive 'CCDC 1832971'
_chemical_formula_sum 'C46 H60 Mo14 N7 O43 P1 Ru1'
_chemical_formula_moiety
;
C30 H24 N6 Ru1 2+,n(Mo14 O43 P1 3-),C16 H36 N1 1+
;
_journal_coden_Cambridge 222
_journal_volume 47
_journal_year 2018
_journal_page_first 10636
_journal_name_full 'Dalton Trans. '
loop_
_publ_author_name
"W.Salomon"
"E.Riviere"
"X.Lopez"
"N.Suaud"
"P.Mialane"
"M.Haouas"
"Ali Saad"
"J.Marrot"
"A.Dolbecq"
_chemical_name_systematic
;
catena-[tris(2,2'-bipyridine)-ruthenium(ii) tetra-n-butylammonium 
(\m-phosphato)-pentacosakis(\m-oxo)-tetradecaoxo-hexa-molybdenum(v)-octa-molyb
denum(vi)]
;
_cell_volume   7958.011
_exptl_crystal_colour 'black'
_exptl_crystal_density_diffrn 2.399
_exptl_crystal_description 'parallelepiped'
_diffrn_ambient_temperature 293
#These two values have been output from a single CSD field.
_refine_ls_R_factor_gt 0.0634
_refine_ls_wR_factor_gt 0.0634
_symmetry_cell_setting monoclinic
_symmetry_space_group_name_H-M 'P 21/n'
_symmetry_Int_Tables_number 14
loop_
_symmetry_equiv_pos_site_id
_symmetry_equiv_pos_as_xyz
1 x,y,z
2 1/2-x,1/2+y,1/2-z
3 -x,-y,-z
4 -1/2+x,-1/2-y,-1/2+z
_cell_length_a 16.2786(8)
_cell_length_b 26.8916(14)
_cell_length_c 18.6653(9)
_cell_angle_alpha 90
_cell_angle_beta 103.107(1)
_cell_angle_gamma 90
_cell_formula_units_Z 4
loop_
_atom_type_symbol
_atom_type_radius_bond
C 0.68
H 0.23
Mo 1.54
N 0.68
O 0.68
P 1.05
Ru 1.46
loop_
_atom_site_label
_atom_site_type_symbol
_atom_site_fract_x
_atom_site_fract_y
_atom_site_fract_z
P1 P 0.08343(12) 0.20519(7) 0.74661(11)
Mo1 Mo -0.13884(4) 0.19909(3) 0.67869(4)
Mo2 Mo 0.16185(4) 0.30346(2) 0.86880(4)
Mo3 Mo -0.05244(4) 0.29627(3) 0.81125(4)
Mo4 Mo 0.30697(4) 0.20771(3) 0.81497(4)
Mo5 Mo 0.03679(4) 0.20389(3) 0.92624(4)
Mo6 Mo -0.00586(4) 0.30318(2) 0.62803(4)
Mo7 Mo 0.18158(4) 0.10813(3) 0.86551(4)
Mo8 Mo -0.00346(4) 0.10716(2) 0.62388(4)
Mo9 Mo 0.20862(4) 0.30510(3) 0.68623(4)
Mo10 Mo -0.04865(4) 0.10545(3) 0.79363(4)
Mo11 Mo 0.22653(4) 0.11405(3) 0.69617(4)
Mo12 Mo 0.12974(4) 0.21211(2) 0.56751(4)
Mo13 Mo -0.07258(5) 0.20516(3) 0.52630(4)
O1 O -0.0285(3) 0.1564(2) 0.8686(3)
O2 O 0.2003(3) 0.1663(2) 0.6231(3)
O3 O 0.1092(3) 0.09376(19) 0.6606(3)
O4 O 0.2812(3) 0.2546(2) 0.7409(3)
O5 O 0.0078(3) 0.16976(17) 0.7204(3)
O6 O -0.1416(3) 0.14312(19) 0.7370(3)
O7 O 0.0341(3) 0.16648(19) 0.5737(3)
O8 O 0.2387(3) 0.24764(19) 0.8669(3)
O9 O -0.1087(3) 0.1553(2) 0.5933(3)
O10 O 0.1417(4) 0.2029(2) 0.4820(3)
O11 O 0.0549(3) 0.32815(19) 0.8615(3)
O12 O 0.1775(3) 0.32191(19) 0.7789(3)
O13 O 0.2807(3) 0.1601(2) 0.8986(3)
O14 O 0.1632(3) 0.17278(18) 0.7719(3)
O15 O 0.0193(3) 0.25591(19) 0.5424(3)
O16 O 0.0972(3) 0.23947(18) 0.6849(3)
O17 O -0.0761(3) 0.24399(19) 0.6280(3)
O18 O -0.0243(3) 0.31809(19) 0.7188(3)
O19 O 0.1976(3) 0.2669(2) 0.5967(3)
O20 O 0.0713(3) 0.0902(2) 0.8282(3)
O21 O 0.1419(3) 0.25305(19) 0.9536(3)
O22 O -0.0432(3) 0.07674(19) 0.6978(3)
O23 O 0.0648(3) 0.23719(18) 0.8099(3)
O24 O 0.1374(3) 0.1644(2) 0.9170(3)
O25 O -0.0381(3) 0.2562(2) 0.9001(3)
O26 O 0.3155(3) 0.15406(19) 0.7551(3)
O27 O 0.2249(3) 0.08252(19) 0.7911(3)
O28 O -0.2410(4) 0.2082(2) 0.6391(4)
O29 O 0.2151(4) 0.0667(2) 0.9328(3)
O30 O -0.1182(3) 0.2442(2) 0.7549(3)
O31 O 0.2215(4) 0.3447(2) 0.9250(3)
O32 O -0.0691(3) 0.3433(2) 0.5726(3)
O33 O -0.1686(4) 0.2486(2) 0.4972(3)
O34 O -0.0328(4) 0.0663(2) 0.5557(3)
O35 O 0.0978(3) 0.33236(19) 0.6375(3)
O36 O 0.2808(4) 0.0731(2) 0.6577(3)
O37 O 0.2759(4) 0.3500(2) 0.6754(3)
O38 O 0.0264(4) 0.1909(2) 1.0113(3)
O39 O 0.4083(3) 0.2198(2) 0.8541(3)
O40 O -0.0974(4) 0.0603(2) 0.8289(3)
O41 O -0.0826(4) 0.1782(2) 0.4435(3)
O42 O -0.1242(4) 0.3383(2) 0.8233(3)
O43 O 0.2478(4) 0.1797(2) 1.0485(3)
Mo14 Mo 0.23954(5) 0.20652(3) 0.96696(4)
Ru1 Ru 0.58574(4) 0.08083(2) 0.75250(4)
N1 N 0.5203(4) 0.0265(3) 0.6881(4)
N2 N 0.6395(5) 0.0182(3) 0.8071(4)
C1 C 0.4612(6) 0.0332(4) 0.6250(5)
H1 H 0.44790 0.06540 0.60810
C2 C 0.4199(8) -0.0064(4) 0.5849(6)
H2 H 0.38090 -0.00060 0.54100
C3 C 0.4366(9) -0.0542(4) 0.6100(8)
H3 H 0.40890 -0.08120 0.58400
C4 C 0.4959(9) -0.0608(4) 0.6750(8)
H4 H 0.50810 -0.09280 0.69340
C5 C 0.5375(7) -0.0209(3) 0.7130(6)
C6 C 0.6053(6) -0.0256(3) 0.7794(6)
C7 C 0.6320(8) -0.0712(4) 0.8127(7)
H5 H 0.60630 -0.10090 0.79440
C8 C 0.6984(8) -0.0703(4) 0.8740(7)
H6 H 0.71900 -0.10000 0.89680
C9 C 0.7337(8) -0.0263(4) 0.9012(6)
H7 H 0.77810 -0.02560 0.94260
C10 C 0.7026(7) 0.0169(4) 0.8668(5)
H8 H 0.72660 0.04690 0.88590
N3 N 0.5325(4) 0.1383(3) 0.6851(4)
N4 N 0.6623(4) 0.0820(2) 0.6781(4)
C11 C 0.4670(6) 0.1663(4) 0.6935(6)
H9 H 0.44760 0.16300 0.73650
C12 C 0.4275(7) 0.1996(4) 0.6409(8)
H10 H 0.38060 0.21720 0.64760
C13 C 0.4572(8) 0.2071(5) 0.5786(8)
H11 H 0.43080 0.22900 0.54200
C14 C 0.5297(7) 0.1801(4) 0.5726(7)
H12 H 0.55380 0.18570 0.53270
C15 C 0.5647(6) 0.1457(3) 0.6243(5)
C16 C 0.6360(5) 0.1136(3) 0.6195(5)
C17 C 0.6769(6) 0.1139(3) 0.5624(5)
H13 H 0.65940 0.13600 0.52350
C18 C 0.7427(5) 0.0825(4) 0.5617(5)
H14 H 0.76970 0.08250 0.52290
C19 C 0.7676(6) 0.0509(4) 0.6208(6)
H15 H 0.81240 0.02920 0.62230
C20 C 0.7270(6) 0.0513(3) 0.6770(5)
H16 H 0.74480 0.02940 0.71610
N5 N 0.5110(4) 0.0822(3) 0.8289(4)
N6 N 0.6502(5) 0.1301(3) 0.8287(4)
C21 C 0.4415(5) 0.0545(3) 0.8259(5)
H17 H 0.41850 0.03700 0.78310
C22 C 0.4032(6) 0.0514(3) 0.8847(6)
H18 H 0.35690 0.03070 0.88230
C23 C 0.4341(7) 0.0792(4) 0.9463(6)
H19 H 0.40760 0.07920 0.98550
C24 C 0.5046(7) 0.1067(4) 0.9486(6)
H20 H 0.52800 0.12410 0.99150
C25 C 0.5424(6) 0.1099(3) 0.8909(5)
C26 C 0.6185(6) 0.1380(4) 0.8884(5)
C27 C 0.6575(7) 0.1693(4) 0.9427(7)
H21 H 0.63300 0.17510 0.98240
C28 C 0.7314(7) 0.1927(5) 0.9406(7)
H22 H 0.75960 0.21210 0.97970
C29 C 0.7625(7) 0.1866(4) 0.8789(7)
H23 H 0.81040 0.20360 0.87350
C30 C 0.7212(6) 0.1545(4) 0.8248(6)
H24 H 0.74360 0.14950 0.78370
N7 N 0.0027(7) -0.0825(3) 0.7117(5)
C31 C 0.0864(8) -0.0849(4) 0.6906(7)
H25 H 0.08240 -0.10960 0.65210
H26 H 0.12820 -0.09660 0.73290
C32 C 0.1189(9) -0.0359(5) 0.6637(7)
H27 H 0.08240 -0.02600 0.61730
H28 H 0.11850 -0.00970 0.69930
C33 C 0.2089(11) -0.0437(6) 0.6538(10)
H29 H 0.21180 -0.07490 0.62840
H30 H 0.22320 -0.01720 0.62360
C34 C 0.2718(10) -0.0445(5) 0.7264(10)
H31 H 0.26710 -0.01440 0.75280
H32 H 0.32780 -0.04700 0.71810
H33 H 0.26090 -0.07250 0.75460
C35 C -0.0171(12) -0.1355(5) 0.7266(9)
H34 H 0.02850 -0.14830 0.76500
H35 H -0.01820 -0.15480 0.68250
C36 C -0.0997(15) -0.1441(6) 0.7499(12)
H36 H -0.14760 -0.13190 0.71340
H37 H -0.09930 -0.12890 0.79710
C37 C -0.0998(17) -0.2023(8) 0.7547(18)
H38 H -0.10530 -0.21640 0.70600
H39 H -0.04700 -0.21370 0.78560
C38 C -0.165(2) -0.2173(11) 0.783(2)
H40 H -0.16920 -0.19600 0.82350
H41 H -0.15540 -0.25090 0.80060
H42 H -0.21630 -0.21570 0.74610
C39 C -0.0655(7) -0.0605(4) 0.6509(5)
H43 H -0.11810 -0.06060 0.66700
H44 H -0.05120 -0.02610 0.64380
C40 C -0.0795(9) -0.0867(5) 0.5782(7)
H45 H -0.08630 -0.12200 0.58530
H46 H -0.03070 -0.08200 0.55720
C41 C -0.1590(13) -0.0661(6) 0.5245(7)
H47 H -0.15700 -0.03010 0.52670
H48 H -0.15660 -0.07580 0.47490
C42 C -0.2399(10) -0.0824(7) 0.5378(10)
H49 H -0.23750 -0.08160 0.58960
H50 H -0.25150 -0.11570 0.51970
H51 H -0.28370 -0.06050 0.51280
C43 C 0.0065(9) -0.0508(5) 0.7778(6)
H52 H -0.04910 -0.05000 0.78830
H53 H 0.02040 -0.01710 0.76600
C44 C 0.0704(11) -0.0673(6) 0.8481(7)
C45 C 0.0525(13) -0.0422(6) 0.9157(8)
H54 H 0.06510 -0.00700 0.91430
H55 H -0.00700 -0.04550 0.91520
C46 C 0.1026(16) -0.0638(7) 0.9836(10)
H56 H 0.14900 -0.08210 0.97280
H57 H 0.06790 -0.08580 1.00460
H58 H 0.12390 -0.03770 1.01800
O33C O 0.3314(4) 0.2514(2) 0.9972(3)
Mo14C Mo -0.26046(5) 0.29348(3) 0.46696(4)
#END
