
#######################################################################
#
#                 Cambridge Crystallographic Data Centre
#                                CCDC
#
#######################################################################
#
# If this CIF has been generated from an entry in the Cambridge
# Structural Database, then it will include bibliographic, chemical,
# crystal, experimental, refinement or atomic coordinate data resulting
# from the CCDC's data processing and validation procedures.
#
#######################################################################

data_CSD_CIF_MIFHEO
_audit_creation_date 2002-05-09
_audit_creation_method CSD-ConQuest-V1
_database_code_CSD MIFHEO
_database_code_depnum_ccdc_archive 'CCDC 161594'
_chemical_formula_sum 'C52 H80 Cu2 Mn1 N6 O12'
_chemical_formula_moiety
;
(C16 H36 N1 1+)2n,n(C20 H8 Cu2 Mn1 N4 O12 2-)
;
_journal_coden_Cambridge 155
_journal_volume 326
_journal_year 2001
_journal_page_first 106
_journal_name_full 'Inorg.Chim.Acta '
loop_
_publ_author_name
"A.Neels"
"H.Stoeckli-Evans"
"S.A.Chavan"
"J.V.Yakhmi"
_chemical_name_systematic
;
catena-(bis(Tetrabutylammonium) 
(\m~3~-o-phenylene-bis(oxamato))-(\m~2~-o-phenylene-bis(oxamato))-di-copper(ii
)-manganese(ii))
;
_cell_volume   5643.609
_exptl_crystal_colour 'black'
_exptl_crystal_density_diffrn 1.369
_exptl_crystal_description 'block'
_diffrn_ambient_temperature 223
_refine_special_details
;
The two tetrabutylammonium cations are equally disordered over two sites.

;
#These two values have been output from a single CSD field.
_refine_ls_R_factor_gt 0.0379
_refine_ls_wR_factor_gt 0.0379
_symmetry_cell_setting orthorhombic
_symmetry_space_group_name_H-M 'P n a 21'
_symmetry_Int_Tables_number 33
loop_
_symmetry_equiv_pos_site_id
_symmetry_equiv_pos_as_xyz
1 x,y,z
2 -x,-y,1/2+z
3 1/2-x,1/2+y,1/2+z
4 1/2+x,1/2-y,z
_cell_length_a 35.737(2)
_cell_length_b 9.782(1)
_cell_length_c 16.144(1)
_cell_angle_alpha 90
_cell_angle_beta 90
_cell_angle_gamma 90
_cell_formula_units_Z 4
loop_
_atom_type_symbol
_atom_type_radius_bond
C 0.68
H 0.23
Cu 1.52
Mn 1.35
N 0.68
O 0.68
loop_
_atom_site_label
_atom_site_type_symbol
_atom_site_fract_x
_atom_site_fract_y
_atom_site_fract_z
Cu1 Cu 0.237496(11) 0.38323(4) 0.96934(3)
Cu2 Cu 0.033073(11) 0.19655(4) 0.65879(3)
Mn1 Mn 0.179181(13) 0.09405(5) 0.71579(3)
C1 C 0.22004(9) 0.1765(3) 0.8626(2)
C2 C 0.19816(10) 0.3062(3) 0.8360(2)
C3 C 0.28335(9) 0.4085(3) 1.1031(2)
C4 C 0.26480(9) 0.5491(3) 1.0877(2)
C5 C 0.26539(9) 0.1158(3) 0.9723(3)
C6 C 0.27352(10) -0.0218(3) 0.9547(2)
H1 H 0.26320 -0.06440 0.90770
C7 C 0.29678(11) -0.0931(4) 1.0072(3)
H2 H 0.30220 -0.18530 0.99570
C8 C 0.31242(11) -0.0323(4) 1.0766(3)
H3 H 0.32780 -0.08360 1.11220
C9 C 0.30538(10) 0.1041(3) 1.0935(2)
H4 H 0.31640 0.14690 1.13960
C10 C 0.28146(9) 0.1771(3) 1.0408(2)
C11 C 0.09811(9) 0.0930(3) 0.7221(2)
C12 C 0.10791(9) 0.1702(4) 0.6410(2)
C13 C -0.04077(10) 0.1932(4) 0.7055(3)
C14 C -0.03691(10) 0.2809(4) 0.6253(3)
C15 C 0.04149(10) 0.0358(4) 0.8018(2)
C16 C 0.05515(11) -0.0440(4) 0.8650(3)
H5 H 0.08090 -0.06370 0.86790
C17 C 0.03101(12) -0.0954(4) 0.9243(3)
H6 H 0.04050 -0.14770 0.96850
C18 C -0.00651(12) -0.0705(4) 0.9189(3)
H7 H -0.02260 -0.10840 0.95880
C19 C -0.02132(11) 0.0092(4) 0.8560(2)
H8 H -0.04720 0.02550 0.85370
C20 C 0.00243(10) 0.0656(3) 0.7960(2)
C21 C -0.13653(12) 0.0065(4) 0.5682(3)
H9 H -0.11430 0.05210 0.54570
H10 H -0.12970 -0.03090 0.62240
C22 C -0.14663(15) -0.1113(5) 0.5114(6)
H11 H -0.15720 -0.07100 0.46100
H12 H -0.16700 -0.16140 0.53850
H13? H -0.14450 -0.08640 0.45280
H14? H -0.17180 -0.14680 0.52240
C23? C -0.1143(3) -0.2168(12) 0.5377(10)
H15? H -0.09000 -0.18500 0.51740
H16? H -0.11310 -0.22450 0.59820
C24 C -0.1174(4) -0.2201(12) 0.4830(9)
H17 H -0.12330 -0.25630 0.42790
H18 H -0.09190 -0.18260 0.48270
C25 C -0.1221(6) -0.327(2) 0.5491(9)
H19 H -0.10580 -0.40400 0.53730
H20 H -0.14790 -0.35780 0.55000
H21 H -0.11560 -0.28850 0.60250
C26? C -0.1240(5) -0.3561(13) 0.4992(11)
H22? H -0.10480 -0.42210 0.51380
H23? H -0.12520 -0.34730 0.43940
H24? H -0.14800 -0.38690 0.52010
C27 C -0.20131(11) 0.0532(4) 0.6221(3)
H25 H -0.21090 -0.02050 0.58680
H26 H -0.22070 0.12390 0.62500
C28 C -0.19512(13) -0.0037(5) 0.7086(3)
H27 H -0.17510 -0.07190 0.70670
H28 H -0.18700 0.07050 0.74520
C29 C -0.22978(13) -0.0686(6) 0.7442(3)
H29 H -0.25020 -0.00160 0.74400
H30 H -0.23730 -0.14550 0.70900
C30 C -0.22384(16) -0.1188(6) 0.8307(4)
H31 H -0.24320 -0.18450 0.84460
H32 H -0.22500 -0.04230 0.86880
H33 H -0.19950 -0.16230 0.83470
C31 C -0.14953(11) 0.2251(4) 0.6345(3)
H34 H -0.14050 0.18320 0.68590
H35 H -0.12770 0.26240 0.60540
C32 C -0.17519(12) 0.3407(4) 0.6563(3)
H36 H -0.19850 0.30380 0.67910
H37 H -0.18140 0.39200 0.60600
C33 C -0.15774(15) 0.4362(5) 0.7186(4)
H38 H -0.13420 0.47220 0.69650
H39 H -0.15210 0.38600 0.76970
C34 C -0.18423(19) 0.5540(7) 0.7377(5)
H40 H -0.17570 0.60160 0.78690
H41 H -0.20920 0.51850 0.74720
H42 H -0.18470 0.61680 0.69130
C35 C -0.17985(11) 0.1713(4) 0.4980(3)
H43 H -0.19060 0.09640 0.46540
H44 H -0.19990 0.23740 0.50840
C36 C -0.15016(12) 0.2405(5) 0.4464(3)
H45 H -0.12780 0.18240 0.44370
H46 H -0.14310 0.32740 0.47220
C37 C -0.16476(13) 0.2668(4) 0.3589(3)
H47 H -0.17200 0.17950 0.33380
H48 H -0.18720 0.32430 0.36220
C38 C -0.13638(15) 0.3355(5) 0.3040(3)
H49 H -0.14550 0.33690 0.24750
H50 H -0.11300 0.28550 0.30640
H51 H -0.13240 0.42850 0.32290
C39 C 0.08029(15) 0.6825(5) 0.4182(4)
H52 H 0.08240 0.66740 0.35830
H53 H 0.07060 0.77530 0.42620
C40 C 0.11909(19) 0.6761(6) 0.4549(6)
H54 H 0.13150 0.59140 0.43780
H55 H 0.11760 0.67730 0.51550
C41 C 0.14297(17) 0.8090(6) 0.4219(4)
H56 H 0.16990 0.79140 0.42450
H57 H 0.13610 0.83220 0.36480
C42 C 0.1326(2) 0.9156(7) 0.4776(5)
H58 H 0.14790 0.99550 0.46730
H59 H 0.13630 0.88510 0.53420
H60 H 0.10640 0.93860 0.46930
C43 C 0.06802(13) 0.4376(4) 0.4554(3)
H61 H 0.09010 0.43960 0.49120
H62 H 0.04980 0.37570 0.48080
C44 C 0.07924(16) 0.3796(5) 0.3727(3)
H63 H 0.05680 0.36060 0.33990
H64 H 0.09430 0.44700 0.34260
C45 C 0.10138(14) 0.2503(5) 0.3831(3)
H65 H 0.08770 0.18860 0.42020
H66 H 0.12540 0.27220 0.40940
C46 C 0.10884(18) 0.1768(6) 0.3015(4)
H67 H 0.12370 0.09560 0.31180
H68 H 0.12230 0.23730 0.26430
H69 H 0.08520 0.15070 0.27640
C47 C 0.0406(2) 0.6150(6) 0.5402(3)
H70 H 0.06300 0.60940 0.57510
H71 H 0.02270 0.54660 0.56020
C48 C 0.0232(4) 0.7574(9) 0.5496(5)
H72 H 0.04030 0.82630 0.52690
H73 H -0.00030 0.76180 0.51850
C49 C 0.0157(4) 0.7881(9) 0.6413(6)
H74 H 0.03600 0.75340 0.67600
H75 H 0.01320 0.88670 0.65040
C50 C -0.0185(3) 0.7197(12) 0.6598(8)
H76 H -0.03770 0.78660 0.67210
H77 H -0.01490 0.66070 0.70750
H78 H -0.02610 0.66510 0.61260
C51 C 0.01869(13) 0.5869(5) 0.3953(3)
H79 H 0.02830 0.58150 0.33860
H80 H 0.00690 0.67670 0.40160
H81? H 0.02630 0.55160 0.34110
H82? H 0.01080 0.68210 0.38800
C52 C -0.0115(5) 0.479(2) 0.405(2)
H83 H -0.01470 0.45590 0.46380
H84 H -0.00420 0.39520 0.37560
C53? C -0.0163(5) 0.511(2) 0.4245(14)
H85? H -0.03190 0.57020 0.45890
H86? H -0.00930 0.43000 0.45700
C54 C -0.0493(3) 0.534(2) 0.3690(7)
H87 H -0.07080 0.48500 0.39190
H88 H -0.05220 0.63220 0.37930
C55? C -0.0380(6) 0.467(2) 0.345(2)
H89? H -0.02040 0.44010 0.30100
H90? H -0.05450 0.38940 0.35660
C56 C -0.0442(5) 0.5044(19) 0.2789(7)
H91 H -0.06690 0.52760 0.24920
H92 H -0.03870 0.40810 0.27140
H93 H -0.02360 0.55850 0.25750
C57? C -0.0600(5) 0.5875(14) 0.3191(17)
H94? H -0.07320 0.56720 0.26800
H95? H -0.04330 0.66440 0.31030
H96? H -0.07790 0.61010 0.36200
N1 N 0.24169(8) 0.2022(3) 0.92618(18)
N2 N 0.27121(8) 0.3171(3) 1.05110(18)
N3 N 0.06206(8) 0.0930(3) 0.73597(19)
N4 N -0.00737(8) 0.1477(3) 0.72866(19)
N5 N -0.16704(9) 0.1139(3) 0.5808(2)
N6 N 0.05115(12) 0.5809(3) 0.4528(2)
O1 O 0.20236(8) 0.4136(2) 0.87937(17)
O2 O 0.17802(7) 0.2959(3) 0.77356(16)
O3 O 0.21483(7) 0.0667(2) 0.82425(16)
O4 O 0.24132(7) 0.5572(2) 1.02734(16)
O5 O 0.27315(7) 0.6447(2) 1.13424(15)
O6 O 0.30726(6) 0.3988(2) 1.16002(16)
O7 O 0.08108(7) 0.2246(3) 0.60134(18)
O8 O 0.14130(7) 0.1731(2) 0.62087(15)
O9 O 0.12448(7) 0.0409(2) 0.76405(16)
O10 O -0.00366(7) 0.2949(3) 0.59512(17)
O11 O -0.06499(8) 0.3299(4) 0.5937(2)
O12 O -0.07150(8) 0.1745(3) 0.73873(19)
O5B O 0.22685(7) 0.1447(2) 0.63424(15)
O6B O 0.19274(6) -0.1012(2) 0.66002(16)
Mn1B Mn 0.320819(13) 0.59405(5) 1.21579(3)
#END
