
#######################################################################
#
#                 Cambridge Crystallographic Data Centre
#                                CCDC
#
#######################################################################
#
# If this CIF has been generated from an entry in the Cambridge
# Structural Database, then it will include bibliographic, chemical,
# crystal, experimental, refinement or atomic coordinate data resulting
# from the CCDC's data processing and validation procedures.
#
#######################################################################

data_CSD_CIF_MIFTUT
_audit_creation_date 2018-05-29
_audit_creation_method CSD-ConQuest-V1
_database_code_CSD MIFTUT
_database_code_depnum_ccdc_archive 'CCDC 1562235'
_chemical_formula_sum 'C182 H316 N52 O99 Zn9'
_chemical_formula_moiety
;
(C108 H48 N24 O50 Zn9 10-)n,10n(C2 H8 N1 1+),18n(C3 H7 N1 O1),31n(H2 O1)
;
_journal_coden_Cambridge 222
_journal_volume 47
_journal_year 2018
_journal_page_first 7934
_journal_name_full 'Dalton Trans. '
loop_
_publ_author_name
"Zheng Cui"
"Lei Zhou"
"Bowen Qin"
"B.Zhou"
"Xiaoying Zhang"
"Wenliang Li"
"Jingping Zhang"
_chemical_name_systematic
;
catena-((P)-decakis(dimethylammonium) 
bis(\m-oxo)-tetrakis(\m-5,5',5''-(1,3,5-triazine-2,4,6-triyltriazanediyl)tris(
benzene-1,3-dicarboxylato))-nona-zinc dimethylformamide solvate 
hentriacontahydrate)
;
_cell_volume  92024.614
_exptl_crystal_colour 'colorless'
_exptl_special_details
;
Luminescent

;
_exptl_crystal_description 'Octahedral'
_exptl_crystal_preparation 'Solvothermal'
_diffrn_ambient_temperature 173
_diffrn_special_details
;
twin

;
_refine_special_details
;
The SQUEEZE/PLATON program was used to take into account the cations and 
solvent molecules.
;
#These two values have been output from a single CSD field.
_refine_ls_R_factor_gt 0.0842
_refine_ls_wR_factor_gt 0.0842
_symmetry_cell_setting cubic
_symmetry_space_group_name_H-M 'F 41 3 2'
_symmetry_Int_Tables_number 210
loop_
_symmetry_equiv_pos_site_id
_symmetry_equiv_pos_as_xyz
1 x,y,z
2 -x,1/2-y,1/2+z
3 1/2-x,1/2+y,-z
4 1/2+x,-y,1/2-z
5 z,x,y
6 1/2+z,-x,1/2-y
7 -z,1/2-x,1/2+y
8 1/2-z,1/2+x,-y
9 y,z,x
10 1/2-y,1/2+z,-x
11 1/2+y,-z,1/2-x
12 -y,1/2-z,1/2+x
13 3/4+y,1/4+x,3/4-z
14 1/4-y,1/4-x,1/4-z
15 1/4+y,3/4-x,3/4+z
16 3/4-y,3/4+x,1/4+z
17 3/4+x,1/4+z,3/4-y
18 3/4-x,3/4+z,1/4+y
19 1/4-x,1/4-z,1/4-y
20 1/4+x,3/4-z,3/4+y
21 3/4+z,1/4+y,3/4-x
22 1/4+z,3/4-y,3/4+x
23 3/4-z,3/4+y,1/4+x
24 1/4-z,1/4-y,1/4-x
25 x,1/2+y,1/2+z
26 -x,-y,z
27 1/2-x,y,1/2-z
28 1/2+x,1/2-y,-z
29 z,1/2+x,1/2+y
30 1/2+z,1/2-x,-y
31 -z,-x,y
32 1/2-z,x,1/2-y
33 y,1/2+z,1/2+x
34 1/2-y,z,1/2-x
35 1/2+y,1/2-z,-x
36 -y,-z,x
37 3/4+y,3/4+x,1/4-z
38 1/4-y,3/4-x,3/4-z
39 1/4+y,1/4-x,1/4+z
40 3/4-y,1/4+x,3/4+z
41 3/4+x,3/4+z,1/4-y
42 3/4-x,1/4+z,3/4+y
43 1/4-x,3/4-z,3/4-y
44 1/4+x,1/4-z,1/4+y
45 3/4+z,3/4+y,1/4-x
46 1/4+z,1/4-y,1/4+x
47 3/4-z,1/4+y,3/4+x
48 1/4-z,3/4-y,3/4-x
49 1/2+x,y,1/2+z
50 1/2-x,1/2-y,z
51 -x,1/2+y,1/2-z
52 x,-y,-z
53 1/2+z,x,1/2+y
54 z,-x,-y
55 1/2-z,1/2-x,y
56 -z,1/2+x,1/2-y
57 1/2+y,z,1/2+x
58 -y,1/2+z,1/2-x
59 y,-z,-x
60 1/2-y,1/2-z,x
61 1/4+y,1/4+x,1/4-z
62 3/4-y,1/4-x,3/4-z
63 3/4+y,3/4-x,1/4+z
64 1/4-y,3/4+x,3/4+z
65 1/4+x,1/4+z,1/4-y
66 1/4-x,3/4+z,3/4+y
67 3/4-x,1/4-z,3/4-y
68 3/4+x,3/4-z,1/4+y
69 1/4+z,1/4+y,1/4-x
70 3/4+z,3/4-y,1/4+x
71 1/4-z,3/4+y,3/4+x
72 3/4-z,1/4-y,3/4-x
73 1/2+x,1/2+y,z
74 1/2-x,-y,1/2+z
75 -x,y,-z
76 x,1/2-y,1/2-z
77 1/2+z,1/2+x,y
78 z,1/2-x,1/2-y
79 1/2-z,-x,1/2+y
80 -z,x,-y
81 1/2+y,1/2+z,x
82 -y,z,-x
83 y,1/2-z,1/2-x
84 1/2-y,-z,1/2+x
85 1/4+y,3/4+x,3/4-z
86 3/4-y,3/4-x,1/4-z
87 3/4+y,1/4-x,3/4+z
88 1/4-y,1/4+x,1/4+z
89 1/4+x,3/4+z,3/4-y
90 1/4-x,1/4+z,1/4+y
91 3/4-x,3/4-z,1/4-y
92 3/4+x,1/4-z,3/4+y
93 1/4+z,3/4+y,3/4-x
94 3/4+z,1/4-y,3/4+x
95 1/4-z,1/4+y,1/4+x
96 3/4-z,3/4-y,1/4-x
_cell_length_a 45.1476(7)
_cell_length_b 45.1476(7)
_cell_length_c 45.1476(7)
_cell_angle_alpha 90
_cell_angle_beta 90
_cell_angle_gamma 90
_cell_formula_units_Z 16
loop_
_atom_type_symbol
_atom_type_radius_bond
C 0.68
H 0.23
N 0.68
O 0.68
Zn 1.22
loop_
_atom_site_label
_atom_site_type_symbol
_atom_site_fract_x
_atom_site_fract_y
_atom_site_fract_z
Zn1 Zn 0.50000 0.50000 0.23255(3)
Zn2 Zn 0.39710(4) 0.66089(4) 0.12550(4)
C1 C 0.5589(3) 0.5937(2) 0.0935(2)
C2 C 0.51454(13) 0.59776(15) 0.12700(14)
C3 C 0.48603(15) 0.60937(14) 0.12632(13)
H1 H 0.48070 0.62320 0.11140
C4 C 0.46536(12) 0.60068(16) 0.14741(15)
C5 C 0.47320(14) 0.58038(17) 0.16920(14)
H2 H 0.45910 0.57440 0.18360
C6 C 0.50170(16) 0.56877(15) 0.16988(13)
C7 C 0.52238(11) 0.57746(15) 0.14879(14)
H3 H 0.54190 0.56950 0.14930
C8 C 0.4362(3) 0.6138(3) 0.1476(3)
C9 C 0.5117(3) 0.5464(3) 0.1912(2)
C10 C 0.3544(2) 0.8207(3) 0.1814(2)
C11 C 0.39660(13) 0.78652(14) 0.18994(14)
C12 C 0.42393(15) 0.78713(15) 0.20410(15)
H4 H 0.42900 0.80340 0.21640
C13 C 0.44380(11) 0.76393(18) 0.20022(16)
C14 C 0.43634(12) 0.74013(15) 0.18217(16)
H5 H 0.44990 0.72430 0.17950
C15 C 0.40901(12) 0.73953(12) 0.16800(14)
C16 C 0.38914(10) 0.76273(15) 0.17189(13)
H6 H 0.37050 0.76230 0.16220
C17 C 0.4719(4) 0.7637(4) 0.2175(5)
C18 C 0.3998(2) 0.7146(3) 0.1495(2)
N1 N 0.5696(2) 0.60607(17) 0.0686(2)
N2 N 0.53312(19) 0.6065(2) 0.1038(2)
H7 H 0.52750 0.62260 0.09440
N3 N 0.3414(2) 0.84381(19) 0.1947(2)
N4 N 0.37917(19) 0.8092(2) 0.1950(2)
H8 H 0.38450 0.81950 0.21070
O1 O 0.43050(18) 0.63156(19) 0.1259(2)
O2 O 0.4173(2) 0.6032(2) 0.1670(2)
O3 O 0.48858(19) 0.53290(19) 0.20697(16)
O4 O 0.5354(2) 0.5385(2) 0.19405(16)
O5 O 0.4766(2) 0.7868(3) 0.2346(2)
O6 O 0.48958(18) 0.7455(3) 0.2161(3)
O7 O 0.41693(17) 0.69113(19) 0.15098(19)
O8 O 0.37612(19) 0.71366(18) 0.1344(2)
O9 O 0.36181(14) 0.63819(14) 0.13819(14)
C1FA C 0.5937(3) 0.5935(2) 0.0589(2)
C2FA C 0.59776(13) 0.62700(15) 0.01454(14)
C3FA C 0.60937(15) 0.62632(14) -0.01397(13)
H1FA H 0.62320 0.61140 -0.01930
C4FA C 0.60068(12) 0.64741(16) -0.03464(15)
C5FA C 0.58038(14) 0.66920(17) -0.02680(14)
H2FA H 0.57440 0.68360 -0.04090
C6FA C 0.56877(16) 0.66988(15) 0.00170(13)
C7FA C 0.57746(11) 0.64879(15) 0.02238(14)
H3FA H 0.56950 0.64930 0.04190
C8FA C 0.6138(3) 0.6476(3) -0.0638(3)
C9FA C 0.5464(3) 0.6912(3) 0.0117(2)
N1FA N 0.60607(20) 0.56860(17) 0.0696(2)
N2FA N 0.60650(19) 0.6038(2) 0.03312(20)
H7FA H 0.62260 0.59440 0.02750
O1FA O 0.63156(18) 0.62590(19) -0.0695(2)
O2FA O 0.6032(2) 0.6670(2) -0.0827(2)
O3FA O 0.53290(19) 0.70697(19) -0.01142(16)
O4FA O 0.5385(2) 0.69405(20) 0.03540(16)
C1ZA C 0.5935(3) 0.5589(2) 0.0937(2)
C2ZA C 0.62700(13) 0.51454(15) 0.09776(14)
C3ZA C 0.62632(15) 0.48603(14) 0.10937(13)
H1ZA H 0.61140 0.48070 0.12320
C4ZA C 0.64741(12) 0.46536(16) 0.10068(15)
C5ZA C 0.66920(14) 0.47320(17) 0.08038(14)
H2ZA H 0.68360 0.45910 0.07440
C6ZA C 0.66988(16) 0.50170(15) 0.06877(13)
C7ZA C 0.64879(11) 0.52238(15) 0.07746(14)
H3ZA H 0.64930 0.54190 0.06950
C8ZA C 0.6476(3) 0.4362(3) 0.1138(3)
C9ZA C 0.6912(3) 0.5117(3) 0.0464(2)
N1ZA N 0.5686(2) 0.56960(17) 0.10607(20)
N2ZA N 0.60380(19) 0.53312(20) 0.1065(2)
H7ZA H 0.59440 0.52750 0.12260
O1ZA O 0.62590(18) 0.43050(19) 0.13156(20)
O2ZA O 0.6670(2) 0.4173(2) 0.1032(2)
O3ZA O 0.70697(19) 0.48858(19) 0.03290(16)
O4ZA O 0.69405(20) 0.5354(2) 0.03850(16)
C10G C 0.3186(2) 0.8544(3) 0.1793(2)
C11G C 0.31006(13) 0.89660(14) 0.21348(14)
C12G C 0.29590(15) 0.92393(15) 0.21287(15)
H4G H 0.28360 0.92900 0.19660
C13G C 0.29978(11) 0.94380(18) 0.23607(16)
C14G C 0.31783(12) 0.93634(15) 0.25987(16)
H5G H 0.32050 0.94990 0.27570
C15G C 0.33200(12) 0.90901(12) 0.26047(14)
C16G C 0.32811(10) 0.88914(15) 0.23727(13)
H6G H 0.33780 0.87050 0.23770
C17G C 0.2825(4) 0.9719(4) 0.2363(5)
C18G C 0.3505(2) 0.8998(3) 0.2854(2)
N3G N 0.3053(2) 0.84140(19) 0.15619(20)
N4G N 0.30500(19) 0.87917(20) 0.1908(2)
H8G H 0.28930 0.88450 0.18050
O5G O 0.2654(2) 0.9766(3) 0.2132(2)
O6G O 0.28390(18) 0.98958(30) 0.2545(3)
O7G O 0.34902(17) 0.91693(19) 0.30887(19)
O8G O 0.36560(19) 0.87612(18) 0.28634(20)
C10J C 0.3207(2) 0.8186(3) 0.1456(2)
C11J C 0.28652(13) 0.81006(14) 0.10340(14)
C12J C 0.28713(15) 0.79590(15) 0.07607(15)
H4J H 0.30340 0.78360 0.07100
C13J C 0.26393(11) 0.79978(18) 0.05620(16)
C14J C 0.24013(12) 0.81783(15) 0.06366(16)
H5J H 0.22430 0.82050 0.05010
C15J C 0.23953(12) 0.83200(12) 0.09099(14)
C16J C 0.26273(10) 0.82811(15) 0.11086(13)
H6J H 0.26230 0.83780 0.12950
C17J C 0.2637(4) 0.7825(4) 0.0281(5)
C18J C 0.2146(2) 0.8505(3) 0.1002(2)
N3J N 0.34381(20) 0.80530(19) 0.1586(2)
N4J N 0.30920(19) 0.8050(2) 0.12083(20)
H8J H 0.31950 0.78930 0.11550
O5J O 0.2868(2) 0.7654(3) 0.0234(2)
O6J O 0.24550(18) 0.7839(3) 0.01042(30)
O7J O 0.19113(17) 0.84902(19) 0.08307(19)
O8J O 0.21366(19) 0.86560(18) 0.12388(20)
Zn1E Zn 0.73255 0.50000 0.00000(3)
Zn2E Zn 0.62550(4) 0.60290(4) -0.16089(4)
C1E C 0.5935(3) 0.4411(2) -0.0937(2)
C2E C 0.62700(13) 0.48546(15) -0.09776(14)
C3E C 0.62632(15) 0.51397(14) -0.10937(13)
H1E H 0.61140 0.51930 -0.12320
C4E C 0.64741(12) 0.53464(16) -0.10068(15)
C5E C 0.66920(14) 0.52680(17) -0.08038(14)
H2E H 0.68360 0.54090 -0.07440
C6E C 0.66988(16) 0.49830(15) -0.06877(13)
C7E C 0.64879(11) 0.47762(15) -0.07746(14)
H3E H 0.64930 0.45810 -0.06950
C8E C 0.6476(3) 0.5638(3) -0.1138(3)
C9E C 0.6912(3) 0.4883(3) -0.0464(2)
N1E N 0.5686(2) 0.43040(17) -0.10607(20)
N2E N 0.60380(19) 0.46688(20) -0.1065(2)
H7E H 0.59440 0.47250 -0.12260
O1E O 0.62590(18) 0.56950(19) -0.13156(20)
O2E O 0.6670(2) 0.5827(2) -0.1032(2)
O3E O 0.70697(19) 0.51142(19) -0.03290(16)
O4E O 0.69405(20) 0.4646(2) -0.03850(16)
O9E O 0.63819(14) 0.63819(14) -0.13819(14)
C1YA C 0.5589(3) 0.4063(2) -0.0935(2)
C2YA C 0.51454(13) 0.40224(15) -0.12700(14)
C3YA C 0.48603(15) 0.39063(14) -0.12632(13)
H1YA H 0.48070 0.37680 -0.11140
C4YA C 0.46536(12) 0.39932(16) -0.14741(15)
C5YA C 0.47320(14) 0.41962(17) -0.16920(14)
H2YA H 0.45910 0.42560 -0.18360
C6YA C 0.50170(16) 0.43123(15) -0.16988(13)
C7YA C 0.52238(11) 0.42254(15) -0.14879(14)
H3YA H 0.54190 0.43050 -0.14930
C8YA C 0.4362(3) 0.3862(3) -0.1476(3)
C9YA C 0.5117(3) 0.4536(3) -0.1912(2)
N1YA N 0.5696(2) 0.39393(17) -0.0686(2)
N2YA N 0.53312(19) 0.3935(2) -0.1038(2)
H7YA H 0.52750 0.37740 -0.09440
O1YA O 0.43050(18) 0.36844(19) -0.1259(2)
O2YA O 0.4173(2) 0.3968(2) -0.1670(2)
O3YA O 0.48858(19) 0.46710(19) -0.20697(16)
O4YA O 0.5354(2) 0.4615(2) -0.19405(16)
C1DC C 0.5937(3) 0.4065(2) -0.0589(2)
C2DC C 0.59776(13) 0.37300(15) -0.01454(14)
C3DC C 0.60937(15) 0.37368(14) 0.01397(13)
H1DC H 0.62320 0.38860 0.01930
C4DC C 0.60068(12) 0.35259(16) 0.03464(15)
C5DC C 0.58038(14) 0.33080(17) 0.02680(14)
H2DC H 0.57440 0.31640 0.04090
C6DC C 0.56877(16) 0.33012(15) -0.00170(13)
C7DC C 0.57746(11) 0.35121(15) -0.02238(14)
H3DC H 0.56950 0.35070 -0.04190
C8DC C 0.6138(3) 0.3524(3) 0.0638(3)
C9DC C 0.5464(3) 0.3088(3) -0.0117(2)
N1DC N 0.60607(20) 0.43140(17) -0.0696(2)
N2DC N 0.60650(19) 0.3962(2) -0.03312(20)
H7DC H 0.62260 0.40560 -0.02750
O1DC O 0.63156(18) 0.37410(19) 0.0695(2)
O2DC O 0.6032(2) 0.3330(2) 0.0827(2)
O3DC O 0.53290(19) 0.29303(19) 0.01142(16)
O4DC O 0.5385(2) 0.30595(20) -0.03540(16)
Zn1K Zn 0.50000 0.26745 0.00000(3)
Zn2Y Zn 0.60290(4) 0.33911(4) 0.12550(4)
Zn2EA Zn 0.37450(4) 0.39710(4) -0.16089(4)
Zn2FA Zn 0.66089(4) 0.62550(4) -0.10290(4)
C10NC C 0.4314(2) 0.5707(3) 0.3956(2)
C11NC C 0.43994(13) 0.53652(14) 0.35340(14)
C12NC C 0.45410(15) 0.53713(15) 0.32607(15)
H4NC H 0.46640 0.55340 0.32100
C13NC C 0.45022(11) 0.51393(18) 0.30620(16)
C14NC C 0.43217(12) 0.49013(15) 0.31366(16)
H5NC H 0.42950 0.47430 0.30010
C15NC C 0.41800(12) 0.48953(12) 0.34099(14)
C16NC C 0.42189(10) 0.51273(15) 0.36086(13)
H6NC H 0.41220 0.51230 0.37950
C17NC C 0.4675(4) 0.5137(4) 0.2781(5)
C18NC C 0.3995(2) 0.4646(3) 0.3502(2)
N3NC N 0.4447(2) 0.59381(19) 0.4086(2)
N4NC N 0.44500(19) 0.5592(2) 0.37083(20)
H8NC H 0.46070 0.56950 0.36550
O5NC O 0.4846(2) 0.5368(3) 0.2734(2)
O6NC O 0.46610(18) 0.4955(3) 0.26042(30)
O7NC O 0.40098(17) 0.44113(19) 0.33307(19)
O8NC O 0.38440(19) 0.46366(18) 0.37388(20)
C10IC C 0.4293(2) 0.6044(3) 0.4314(2)
C11IC C 0.46348(13) 0.64660(14) 0.43994(14)
C12IC C 0.46287(15) 0.67393(15) 0.45410(15)
H4IC H 0.44660 0.67900 0.46640
C13IC C 0.48607(11) 0.69380(18) 0.45022(16)
C14IC C 0.50987(12) 0.68634(15) 0.43217(16)
H5IC H 0.52570 0.69990 0.42950
C15IC C 0.51047(12) 0.65901(12) 0.41800(14)
C16IC C 0.48727(10) 0.63914(15) 0.42189(13)
H6IC H 0.48770 0.62050 0.41220
C17IC C 0.4863(4) 0.7219(4) 0.4675(5)
C18IC C 0.5354(2) 0.6498(3) 0.3995(2)
N3IC N 0.40619(20) 0.59140(19) 0.4447(2)
N4IC N 0.44080(19) 0.62917(20) 0.4450(2)
H8IC H 0.43050 0.63450 0.46070
O5IC O 0.4632(2) 0.7266(3) 0.4846(2)
O6IC O 0.50450(18) 0.73958(30) 0.4661(3)
O7IC O 0.55887(17) 0.66693(19) 0.40098(19)
O8IC O 0.53634(19) 0.62612(18) 0.3844(2)
C10LC C 0.3956(2) 0.5686(3) 0.4293(2)
C11LC C 0.35340(13) 0.56006(14) 0.46348(14)
C12LC C 0.32607(15) 0.54590(15) 0.46287(15)
H4LC H 0.32100 0.53360 0.44660
C13LC C 0.30620(11) 0.54978(18) 0.48607(16)
C14LC C 0.31366(12) 0.56783(15) 0.50987(16)
H5LC H 0.30010 0.57050 0.52570
C15LC C 0.34099(12) 0.58200(12) 0.51047(14)
C16LC C 0.36086(10) 0.57811(15) 0.48727(13)
H6LC H 0.37950 0.58780 0.48770
C17LC C 0.2781(4) 0.5325(4) 0.4863(5)
C18LC C 0.3502(2) 0.6005(3) 0.5354(2)
N3LC N 0.4086(2) 0.55530(19) 0.40619(20)
N4LC N 0.37083(19) 0.5550(2) 0.4408(2)
H8LC H 0.36550 0.53930 0.43050
O5LC O 0.2734(2) 0.5154(3) 0.4632(2)
O6LC O 0.26042(18) 0.5339(3) 0.5045(3)
O7LC O 0.33307(17) 0.59902(19) 0.55887(19)
O8LC O 0.37388(19) 0.61560(18) 0.53634(20)
Zn2ZB Zn 0.37450(4) 0.60290(4) 0.16089(4)
Zn1D Zn 0.23255 0.50000 0.50000(3)
Zn1FA Zn 0.50000 0.73255 0.00000(3)
Zn1IA Zn 0.50000 0.76745 0.50000(3)
Zn1MA Zn 0.25000 0.75000 -0.01745(3)
Zn1TA Zn 0.51745 0.75000 0.25000(3)
Zn1YA Zn 0.50000 0.50000 -0.23255(3)
Zn1NB Zn 0.25000 1.01745 0.25000(3)
Zn2G Zn 0.37450(4) 0.89710(4) 0.33911(4)
Zn2J Zn 0.16089(4) 0.87450(4) 0.10290(4)
Zn2YA Zn 0.39710(4) 0.33911(4) -0.12550(4)
Zn2ZA Zn 0.62550(4) 0.39710(4) 0.16089(4)
Zn2EB Zn 0.33911(4) 0.62550(4) 0.10290(4)
Zn2VB Zn 0.60290(4) 0.66089(4) -0.12550(4)
Zn2DC Zn 0.66089(4) 0.37450(4) 0.10290(4)
Zn2IC Zn 0.58911(4) 0.64710(4) 0.37550(4)
Zn2LC Zn 0.35290(4) 0.62450(4) 0.58911(4)
Zn2NC Zn 0.37550(4) 0.41089(4) 0.35290(4)
O1Y O 0.56950(18) 0.36844(19) 0.1259(2)
O1EA O 0.37410(18) 0.43050(19) -0.13156(20)
O1ZB O 0.37410(18) 0.56950(19) 0.13156(20)
O2EB O 0.3968(2) 0.6670(2) 0.0827(2)
O2VB O 0.5827(2) 0.6032(2) -0.1670(2)
O3K O 0.46710(19) 0.29303(19) -0.01142(16)
O3Y O 0.51142(19) 0.46710(19) 0.20697(16)
O5JA O 0.5368(2) 0.2266(3) 0.0154(2)
O5PA O 0.7734(2) 0.5154(3) -0.0368(2)
O5KB O 0.4632(2) 0.2266(3) -0.0154(2)
O5SB O 0.5154(2) 0.4632(3) 0.2734(2)
O5KC O 0.7734(2) 0.4846(3) 0.0368(2)
O6JA O 0.49550(18) 0.23958(30) 0.0339(3)
O6PA O 0.76042(18) 0.5339(3) 0.0045(3)
O6KB O 0.50450(18) 0.23958(30) -0.0339(3)
O6SB O 0.53390(18) 0.5045(3) 0.26042(30)
O6KC O 0.76042(18) 0.4661(3) -0.0045(3)
O7E O 0.65098(17) 0.58307(19) -0.19113(19)
O7Y O 0.58307(17) 0.30887(19) 0.15098(19)
O7EA O 0.34902(17) 0.41693(19) -0.19113(19)
O7FA O 0.69113(17) 0.65098(19) -0.08307(19)
O7ZB O 0.34902(17) 0.58307(19) 0.19113(19)
O9K O 0.36181(14) 0.36181(14) -0.13819(14)
O9Y O 0.63819(14) 0.36181(14) 0.13819(14)
#END
