
#######################################################################
#
#                 Cambridge Crystallographic Data Centre
#                                CCDC
#
#######################################################################
#
# If this CIF has been generated from an entry in the Cambridge
# Structural Database, then it will include bibliographic, chemical,
# crystal, experimental, refinement or atomic coordinate data resulting
# from the CCDC's data processing and validation procedures.
#
#######################################################################

data_CSD_CIF_MIFVAB
_audit_creation_date 2018-05-29
_audit_creation_method CSD-ConQuest-V1
_database_code_CSD MIFVAB
_database_code_depnum_ccdc_archive 'CCDC 1562236'
_chemical_formula_sum 'C188 H338 N54 O105 Zn9'
_chemical_formula_moiety
;
(C108 H48 N24 O50 Zn9 10-)n,10n(C2 H8 N1 1+),20n(C3 H7 N1 O1),35n(H2 O1)
;
_journal_coden_Cambridge 222
_journal_volume 47
_journal_year 2018
_journal_page_first 7934
_journal_name_full 'Dalton Trans. '
loop_
_publ_author_name
"Zheng Cui"
"Lei Zhou"
"Bowen Qin"
"B.Zhou"
"Xiaoying Zhang"
"Wenliang Li"
"Jingping Zhang"
_chemical_name_systematic
;
catena-((M)-decakis(dimethylammonium) 
bis(\m-oxo)-tetrakis(\m-5,5',5''-(1,3,5-triazine-2,4,6-triyltriazanediyl)tris(
benzene-1,3-dicarboxylato))-nona-zinc dimethylformamide solvate 
pentatriacontahydrate)
;
_cell_volume  91860.221
_exptl_crystal_colour 'colorless'
_exptl_special_details
;
Luminescent

;
_exptl_crystal_description 'Octahedral'
_exptl_crystal_preparation 'Solvothermal'
_diffrn_ambient_temperature 173
_diffrn_special_details
;
twin

;
_refine_special_details
;
The SQUEEZE/PLATON program was used to take into account the cations and 
solvent molecules.
;
#These two values have been output from a single CSD field.
_refine_ls_R_factor_gt 0.0754
_refine_ls_wR_factor_gt 0.0754
_symmetry_cell_setting cubic
_symmetry_space_group_name_H-M 'F 41 3 2'
_symmetry_Int_Tables_number 210
loop_
_symmetry_equiv_pos_site_id
_symmetry_equiv_pos_as_xyz
1 x,y,z
2 -x,1/2-y,1/2+z
3 1/2-x,1/2+y,-z
4 1/2+x,-y,1/2-z
5 z,x,y
6 1/2+z,-x,1/2-y
7 -z,1/2-x,1/2+y
8 1/2-z,1/2+x,-y
9 y,z,x
10 1/2-y,1/2+z,-x
11 1/2+y,-z,1/2-x
12 -y,1/2-z,1/2+x
13 3/4+y,1/4+x,3/4-z
14 1/4-y,1/4-x,1/4-z
15 1/4+y,3/4-x,3/4+z
16 3/4-y,3/4+x,1/4+z
17 3/4+x,1/4+z,3/4-y
18 3/4-x,3/4+z,1/4+y
19 1/4-x,1/4-z,1/4-y
20 1/4+x,3/4-z,3/4+y
21 3/4+z,1/4+y,3/4-x
22 1/4+z,3/4-y,3/4+x
23 3/4-z,3/4+y,1/4+x
24 1/4-z,1/4-y,1/4-x
25 x,1/2+y,1/2+z
26 -x,-y,z
27 1/2-x,y,1/2-z
28 1/2+x,1/2-y,-z
29 z,1/2+x,1/2+y
30 1/2+z,1/2-x,-y
31 -z,-x,y
32 1/2-z,x,1/2-y
33 y,1/2+z,1/2+x
34 1/2-y,z,1/2-x
35 1/2+y,1/2-z,-x
36 -y,-z,x
37 3/4+y,3/4+x,1/4-z
38 1/4-y,3/4-x,3/4-z
39 1/4+y,1/4-x,1/4+z
40 3/4-y,1/4+x,3/4+z
41 3/4+x,3/4+z,1/4-y
42 3/4-x,1/4+z,3/4+y
43 1/4-x,3/4-z,3/4-y
44 1/4+x,1/4-z,1/4+y
45 3/4+z,3/4+y,1/4-x
46 1/4+z,1/4-y,1/4+x
47 3/4-z,1/4+y,3/4+x
48 1/4-z,3/4-y,3/4-x
49 1/2+x,y,1/2+z
50 1/2-x,1/2-y,z
51 -x,1/2+y,1/2-z
52 x,-y,-z
53 1/2+z,x,1/2+y
54 z,-x,-y
55 1/2-z,1/2-x,y
56 -z,1/2+x,1/2-y
57 1/2+y,z,1/2+x
58 -y,1/2+z,1/2-x
59 y,-z,-x
60 1/2-y,1/2-z,x
61 1/4+y,1/4+x,1/4-z
62 3/4-y,1/4-x,3/4-z
63 3/4+y,3/4-x,1/4+z
64 1/4-y,3/4+x,3/4+z
65 1/4+x,1/4+z,1/4-y
66 1/4-x,3/4+z,3/4+y
67 3/4-x,1/4-z,3/4-y
68 3/4+x,3/4-z,1/4+y
69 1/4+z,1/4+y,1/4-x
70 3/4+z,3/4-y,1/4+x
71 1/4-z,3/4+y,3/4+x
72 3/4-z,1/4-y,3/4-x
73 1/2+x,1/2+y,z
74 1/2-x,-y,1/2+z
75 -x,y,-z
76 x,1/2-y,1/2-z
77 1/2+z,1/2+x,y
78 z,1/2-x,1/2-y
79 1/2-z,-x,1/2+y
80 -z,x,-y
81 1/2+y,1/2+z,x
82 -y,z,-x
83 y,1/2-z,1/2-x
84 1/2-y,-z,1/2+x
85 1/4+y,3/4+x,3/4-z
86 3/4-y,3/4-x,1/4-z
87 3/4+y,1/4-x,3/4+z
88 1/4-y,1/4+x,1/4+z
89 1/4+x,3/4+z,3/4-y
90 1/4-x,1/4+z,1/4+y
91 3/4-x,3/4-z,1/4-y
92 3/4+x,1/4-z,3/4+y
93 1/4+z,3/4+y,3/4-x
94 3/4+z,1/4-y,3/4+x
95 1/4-z,1/4+y,1/4+x
96 3/4-z,3/4-y,1/4-x
_cell_length_a 45.1207(6)
_cell_length_b 45.1207(6)
_cell_length_c 45.1207(6)
_cell_angle_alpha 90
_cell_angle_beta 90
_cell_angle_gamma 90
_cell_formula_units_Z 16
loop_
_atom_type_symbol
_atom_type_radius_bond
C 0.68
H 0.23
N 0.68
O 0.68
Zn 1.22
loop_
_atom_site_label
_atom_site_type_symbol
_atom_site_fract_x
_atom_site_fract_y
_atom_site_fract_z
Zn1 Zn 1.00000 0.00000 0.23274(3)
Zn2 Zn 0.83898(4) 0.10282(4) 0.12620(4)
C1 C 0.9067(3) -0.0580(3) 0.0939(2)
C2 C 0.90196(16) -0.01411(15) 0.12754(15)
C3 C 0.89001(14) 0.01428(17) 0.12733(14)
H1 H 0.87590 0.01960 0.11270
C4 C 0.89876(16) 0.03483(13) 0.14854(16)
C5 C 0.91945(17) 0.02700(16) 0.16997(14)
H2 H 0.92540 0.04100 0.18450
C6 C 0.93140(15) -0.00140(18) 0.17019(14)
C7 C 0.92266(17) -0.02195(13) 0.14897(17)
H3 H 0.93080 -0.04140 0.14910
C8 C 0.8861(3) 0.0643(3) 0.1477(3)
C9 C 0.9540(3) -0.0111(3) 0.1918(2)
C10 C 0.6787(3) 0.1452(2) 0.1812(3)
C11 C 0.71319(15) 0.10365(15) 0.19069(18)
C12 C 0.71271(16) 0.07674(17) 0.20567(18)
H4 H 0.69660 0.07200 0.21830
C13 C 0.73586(19) 0.05672(13) 0.20211(18)
C14 C 0.75948(16) 0.06362(14) 0.18358(18)
H5 H 0.77530 0.04990 0.18120
C15 C 0.75996(14) 0.09054(15) 0.16860(16)
C16 C 0.73681(16) 0.11055(12) 0.17216(16)
H6 H 0.73710 0.12890 0.16190
C17 C 0.7367(4) 0.0287(4) 0.2194(4)
C18 C 0.7848(3) 0.0994(3) 0.1500(3)
N1 N 0.9311(2) -0.0685(2) 0.10645(16)
N2 N 0.8939(2) -0.03352(18) 0.1046(2)
H7 H 0.87720 -0.02870 0.09570
N3 N 0.65603(19) 0.1584(2) 0.1949(2)
N4 N 0.6909(2) 0.1212(2) 0.1952(2)
H8 H 0.68100 0.11640 0.21130
O1 O 0.8680(2) 0.06901(18) 0.1273(2)
O2 O 0.89616(19) 0.08384(18) 0.16694(19)
O3 O 0.9658(2) 0.0108(2) 0.20786(16)
O4 O 0.9625(2) -0.0356(2) 0.19372(17)
O5 O 0.7138(3) 0.0239(3) 0.2363(3)
O6 O 0.7534(3) 0.01026(19) 0.2147(3)
O7 O 0.80816(18) 0.08271(17) 0.15160(19)
O8 O 0.78540(18) 0.1231(2) 0.1347(2)
O9 O 0.86121(13) 0.13879(13) 0.13879(13)
C1FB C 0.9420(3) -0.0939(3) 0.0933(2)
C2FB C 0.98589(16) -0.12754(15) 0.09804(15)
C3FB C 1.01428(14) -0.12733(17) 0.10999(14)
H1FB H 1.01960 -0.11270 0.12410
C4FB C 1.03483(16) -0.14854(13) 0.10124(16)
C5FB C 1.02700(17) -0.16997(16) 0.08055(14)
H2FB H 1.04100 -0.18450 0.07460
C6FB C 0.99860(15) -0.17019(18) 0.06860(14)
C7FB C 0.97805(17) -0.14897(13) 0.07734(17)
H3FB H 0.95860 -0.14910 0.06920
C8FB C 1.0643(3) -0.1477(3) 0.1139(3)
C9FB C 0.9889(3) -0.1918(3) 0.0460(2)
N1FB N 0.9315(2) -0.10645(20) 0.06890(16)
N2FB N 0.96648(20) -0.10460(18) 0.1061(2)
H7FB H 0.97130 -0.09570 0.12280
O1FB O 1.06901(20) -0.12730(18) 0.1320(2)
O2FB O 1.08384(19) -0.16694(18) 0.10384(19)
O3FB O 1.0108(2) -0.20786(20) 0.03420(16)
O4FB O 0.9644(2) -0.19372(20) 0.03750(17)
C1AC C 0.9061(3) -0.0933(3) 0.0580(2)
C2AC C 0.87246(16) -0.09804(15) 0.01411(15)
C3AC C 0.87267(14) -0.10999(17) -0.01428(14)
H1AC H 0.88730 -0.12410 -0.01960
C4AC C 0.85146(16) -0.10124(13) -0.03483(16)
C5AC C 0.83003(17) -0.08055(16) -0.02700(14)
H2AC H 0.81550 -0.07460 -0.04100
C6AC C 0.82981(15) -0.06860(18) 0.00140(14)
C7AC C 0.85103(17) -0.07734(13) 0.02195(17)
H3AC H 0.85090 -0.06920 0.04140
C8AC C 0.8523(3) -0.1139(3) -0.0643(3)
C9AC C 0.8082(3) -0.0460(3) 0.0111(2)
N1AC N 0.89355(20) -0.0689(2) 0.06850(16)
N2AC N 0.8954(2) -0.10610(18) 0.03352(20)
H7AC H 0.90430 -0.12280 0.02870
O1AC O 0.8727(2) -0.13200(18) -0.06901(20)
O2AC O 0.83306(19) -0.10384(18) -0.08384(19)
O3AC O 0.79214(20) -0.0342(2) -0.01080(16)
O4AC O 0.80628(20) -0.0375(2) 0.03560(17)
C10DB C 0.6452(3) 0.1812(2) 0.1787(3)
C11DB C 0.60365(15) 0.19069(15) 0.21319(18)
C12DB C 0.57674(16) 0.20567(17) 0.21271(18)
H4DB H 0.57200 0.21830 0.19660
C13DB C 0.55672(19) 0.20211(13) 0.23586(18)
C14DB C 0.56362(16) 0.18358(14) 0.25948(18)
H5DB H 0.54990 0.18120 0.27530
C15DB C 0.59054(14) 0.16860(15) 0.25996(16)
C16DB C 0.61055(16) 0.17216(12) 0.23681(16)
H6DB H 0.62890 0.16190 0.23710
C17DB C 0.5287(4) 0.2194(4) 0.2367(4)
C18DB C 0.5994(3) 0.1500(3) 0.2848(3)
N3DB N 0.65840(19) 0.1949(2) 0.15603(20)
N4DB N 0.6212(2) 0.1952(2) 0.1909(2)
H8DB H 0.61640 0.21130 0.18100
O5DB O 0.5239(3) 0.2363(3) 0.2138(3)
O6DB O 0.51026(30) 0.21470(19) 0.2534(3)
O7DB O 0.58271(18) 0.15160(17) 0.30816(19)
O8DB O 0.62310(18) 0.1347(2) 0.2854(2)
C10XB C 0.6812(3) 0.1787(2) 0.1452(3)
C11XB C 0.69069(15) 0.21319(15) 0.10365(18)
C12XB C 0.70567(16) 0.21271(17) 0.07674(18)
H4XB H 0.71830 0.19660 0.07200
C13XB C 0.70211(19) 0.23586(13) 0.05672(18)
C14XB C 0.68358(16) 0.25948(14) 0.06362(18)
H5XB H 0.68120 0.27530 0.04990
C15XB C 0.66860(14) 0.25996(15) 0.09054(16)
C16XB C 0.67216(16) 0.23681(12) 0.11055(16)
H6XB H 0.66190 0.23710 0.12890
C17XB C 0.7194(4) 0.2367(4) 0.0287(4)
C18XB C 0.6500(3) 0.2848(3) 0.0994(3)
N3XB N 0.69490(19) 0.15603(20) 0.1584(2)
N4XB N 0.6952(2) 0.1909(2) 0.1212(2)
H8XB H 0.71130 0.18100 0.11640
O5XB O 0.7363(3) 0.2138(3) 0.0239(3)
O6XB O 0.7147(3) 0.25340(19) 0.01026(30)
O7XB O 0.65160(18) 0.30816(17) 0.08271(19)
O8XB O 0.63470(18) 0.2854(2) 0.1231(2)
Zn1D Zn 1.23274 0.00000 0.00000(3)
Zn2D Zn 1.12620(4) -0.16102(4) 0.10282(4)
C1D C 1.0939(3) -0.0933(3) -0.0580(2)
C2D C 1.12754(16) -0.09804(15) -0.01411(15)
C3D C 1.12733(14) -0.10999(17) 0.01428(14)
H1D H 1.11270 -0.12410 0.01960
C4D C 1.14854(16) -0.10124(13) 0.03483(16)
C5D C 1.16997(17) -0.08055(16) 0.02700(14)
H2D H 1.18450 -0.07460 0.04100
C6D C 1.17019(15) -0.06860(18) -0.00140(14)
C7D C 1.14897(17) -0.07734(13) -0.02195(17)
H3D H 1.14910 -0.06920 -0.04140
C8D C 1.1477(3) -0.1139(3) 0.0643(3)
C9D C 1.1918(3) -0.0460(3) -0.0111(2)
N1D N 1.10645(20) -0.0689(2) -0.06850(16)
N2D N 1.1046(2) -0.10610(18) -0.03352(20)
H7D H 1.09570 -0.12280 -0.02870
O1D O 1.1273(2) -0.13200(18) 0.06901(20)
O2D O 1.16694(19) -0.10384(18) 0.08384(19)
O3D O 1.20786(20) -0.0342(2) 0.01080(16)
O4D O 1.19372(20) -0.0375(2) -0.03560(17)
O9D O 1.13879(13) -0.13879(13) 0.13879(13)
C1VB C 1.0933(3) -0.0580(3) -0.0939(2)
C2VB C 1.09804(16) -0.01411(15) -0.12754(15)
C3VB C 1.10999(14) 0.01428(17) -0.12733(14)
H1VB H 1.12410 0.01960 -0.11270
C4VB C 1.10124(16) 0.03483(13) -0.14854(16)
C5VB C 1.08055(17) 0.02700(16) -0.16997(14)
H2VB H 1.07460 0.04100 -0.18450
C6VB C 1.06860(15) -0.00140(18) -0.17019(14)
C7VB C 1.07734(17) -0.02195(13) -0.14897(17)
H3VB H 1.06920 -0.04140 -0.14910
C8VB C 1.1139(3) 0.0643(3) -0.1477(3)
C9VB C 1.0460(3) -0.0111(3) -0.1918(2)
N1VB N 1.0689(2) -0.0685(2) -0.10645(16)
N2VB N 1.1061(2) -0.03352(18) -0.1046(2)
H7VB H 1.12280 -0.02870 -0.09570
O1VB O 1.1320(2) 0.06901(18) -0.1273(2)
O2VB O 1.10384(19) 0.08384(18) -0.16694(19)
O3VB O 1.0342(2) 0.0108(2) -0.20786(16)
O4VB O 1.0375(2) -0.0356(2) -0.19372(17)
C1IA C 1.0580(3) -0.0939(3) -0.0933(2)
C2IA C 1.01411(16) -0.12754(15) -0.09804(15)
C3IA C 0.98572(14) -0.12733(17) -0.10999(14)
H1IA H 0.98040 -0.11270 -0.12410
C4IA C 0.96517(16) -0.14854(13) -0.10124(16)
C5IA C 0.97300(17) -0.16997(16) -0.08055(14)
H2IA H 0.95900 -0.18450 -0.07460
C6IA C 1.00140(15) -0.17019(18) -0.06860(14)
C7IA C 1.02195(17) -0.14897(13) -0.07734(17)
H3IA H 1.04140 -0.14910 -0.06920
C8IA C 0.9357(3) -0.1477(3) -0.1139(3)
C9IA C 1.0111(3) -0.1918(3) -0.0460(2)
N1IA N 1.0685(2) -0.10645(20) -0.06890(16)
N2IA N 1.03352(20) -0.10460(18) -0.1061(2)
H7IA H 1.02870 -0.09570 -0.12280
O1IA O 0.93099(20) -0.12730(18) -0.1320(2)
O2IA O 0.91616(19) -0.16694(18) -0.10384(19)
O3IA O 0.9892(2) -0.20786(20) -0.03420(16)
O4IA O 1.0356(2) -0.19372(20) -0.03750(17)
Zn2H Zn 1.10282(4) 0.12620(4) -0.16102(4)
Zn2Y Zn 1.16102(4) -0.10282(4) 0.12620(4)
Zn2DA Zn 0.87380(4) 0.16102(4) 0.10282(4)
C10DA C 0.8188(3) 0.3213(2) 0.1452(3)
C11DA C 0.80931(15) 0.28681(15) 0.10365(18)
C12DA C 0.79433(16) 0.28729(17) 0.07674(18)
H4DA H 0.78170 0.30340 0.07200
C13DA C 0.79789(19) 0.26414(13) 0.05672(18)
C14DA C 0.81642(16) 0.24052(14) 0.06362(18)
H5DA H 0.81880 0.22470 0.04990
C15DA C 0.83140(14) 0.24004(15) 0.09054(16)
C16DA C 0.82784(16) 0.26319(12) 0.11055(16)
H6DA H 0.83810 0.26290 0.12890
C17DA C 0.7806(4) 0.2633(4) 0.0287(4)
C18DA C 0.8500(3) 0.2152(3) 0.0994(3)
N3DA N 0.80510(19) 0.34397(20) 0.1584(2)
N4DA N 0.8048(2) 0.3091(2) 0.1212(2)
H8DA H 0.78870 0.31900 0.11640
O5DA O 0.7637(3) 0.2862(3) 0.0239(3)
O6DA O 0.7853(3) 0.24660(19) 0.01026(30)
O7DA O 0.84840(18) 0.19184(17) 0.08271(19)
O8DA O 0.86530(18) 0.2146(2) 0.1231(2)
C10WA C 0.8213(3) 0.3548(2) 0.1812(3)
C11WA C 0.78681(15) 0.39635(15) 0.19069(18)
C12WA C 0.78729(16) 0.42326(17) 0.20567(18)
H4WA H 0.80340 0.42800 0.21830
C13WA C 0.76414(19) 0.44328(13) 0.20211(18)
C14WA C 0.74052(16) 0.43638(14) 0.18358(18)
H5WA H 0.72470 0.45010 0.18120
C15WA C 0.74004(14) 0.40946(15) 0.16860(16)
C16WA C 0.76319(16) 0.38945(12) 0.17216(16)
H6WA H 0.76290 0.37110 0.16190
C17WA C 0.7633(4) 0.4713(4) 0.2194(4)
C18WA C 0.7152(3) 0.4006(3) 0.1500(3)
N3WA N 0.84397(19) 0.3416(2) 0.1949(2)
N4WA N 0.8091(2) 0.3788(2) 0.1952(2)
H8WA H 0.81900 0.38360 0.21130
O5WA O 0.7862(3) 0.4761(3) 0.2363(3)
O6WA O 0.7466(3) 0.48974(19) 0.2147(3)
O7WA O 0.69184(18) 0.41729(17) 0.15160(19)
O8WA O 0.71460(18) 0.3769(2) 0.1347(2)
C10K C 0.8548(3) 0.3188(2) 0.1787(3)
C11K C 0.89635(15) 0.30931(15) 0.21319(18)
C12K C 0.92326(16) 0.29433(17) 0.21271(18)
H4K H 0.92800 0.28170 0.19660
C13K C 0.94328(19) 0.29789(13) 0.23586(18)
C14K C 0.93638(16) 0.31642(14) 0.25948(18)
H5K H 0.95010 0.31880 0.27530
C15K C 0.90946(14) 0.33140(15) 0.25996(16)
C16K C 0.88945(16) 0.32784(12) 0.23681(16)
H6K H 0.87110 0.33810 0.23710
C17K C 0.9713(4) 0.2806(4) 0.2367(4)
C18K C 0.9006(3) 0.3500(3) 0.2848(3)
N3K N 0.84160(19) 0.3051(2) 0.15603(20)
N4K N 0.8788(2) 0.3048(2) 0.1909(2)
H8K H 0.88360 0.28870 0.18100
O5K O 0.9761(3) 0.2637(3) 0.2138(3)
O6K O 0.98974(30) 0.28530(19) 0.2534(3)
O7K O 0.91729(18) 0.34840(17) 0.30816(19)
O8K O 0.87690(18) 0.3653(2) 0.2854(2)
Zn2IA Zn 0.89718(4) -0.12620(4) -0.16102(4)
Zn1Q Zn 0.75000 -0.01726 0.25000(3)
Zn1W Zn 1.01726 0.25000 0.25000(3)
Zn1DA Zn 0.76726 0.00000 0.00000(3)
Zn1IA Zn 1.00000 -0.23274 0.00000(3)
Zn1MA Zn 0.75000 0.25000 -0.01726(3)
Zn1SA Zn 0.48274 0.25000 0.25000(3)
Zn1YA Zn 1.00000 0.00000 -0.23274(3)
Zn1OB Zn 0.75000 0.51726 0.25000(3)
Zn2K Zn 0.89718(4) 0.37380(4) 0.33898(4)
Zn2WA Zn 0.66102(4) 0.39718(4) 0.12620(4)
Zn2YA Zn 0.83898(4) -0.10282(4) -0.12620(4)
Zn2DB Zn 0.60282(4) 0.12620(4) 0.33898(4)
Zn2FB Zn 1.10282(4) -0.12620(4) 0.16102(4)
Zn2VB Zn 1.16102(4) 0.10282(4) -0.12620(4)
Zn2XB Zn 0.62620(4) 0.33898(4) 0.10282(4)
Zn2AC Zn 0.87380(4) -0.16102(4) -0.10282(4)
Zn2CC Zn 0.89718(4) 0.12620(4) 0.16102(4)
O1H O 1.06901(20) 0.12730(18) -0.1320(2)
O1Y O 1.1320(2) -0.06901(18) 0.1273(2)
O1DA O 0.8727(2) 0.13200(18) 0.06901(20)
O2DA O 0.83306(19) 0.10384(18) 0.08384(19)
O2YA O 0.89616(19) -0.08384(18) -0.16694(19)
O2CC O 0.91616(19) 0.16694(18) 0.10384(19)
O3Q O 0.7842(2) -0.04214(20) 0.26080(16)
O3Y O 1.0342(2) -0.0108(2) 0.20786(16)
O3NA O 0.7158(2) -0.04214(20) 0.23920(16)
O3AB O 1.20786(20) 0.0342(2) -0.01080(16)
O5N O 1.2739(3) 0.0362(3) -0.0137(3)
O5Q O 1.0362(3) -0.0137(3) 0.2739(3)
O5Z O 0.7862(3) 0.0239(3) 0.2637(3)
O5QA O 0.9638(3) 0.0137(3) 0.2739(3)
O5HB O 1.2739(3) -0.0362(3) 0.0137(3)
O6N O 1.26026(30) -0.00340(19) -0.0353(3)
O6Q O 0.9966(3) -0.03530(19) 0.26026(30)
O6Z O 0.7466(3) 0.01026(19) 0.2853(3)
O6QA O 1.0034(3) 0.03530(19) 0.26026(30)
O6HB O 1.26026(30) 0.00340(19) 0.0353(3)
O7D O 1.15160(18) -0.19184(17) 0.08271(19)
O7H O 1.08271(18) 0.15160(17) -0.19184(19)
O7Y O 1.19184(18) -0.08271(17) 0.15160(19)
O7IA O 0.91729(18) -0.15160(17) -0.19184(19)
O9H O 1.13879(13) 0.13879(13) -0.13879(13)
O9IA O 0.86121(13) -0.13879(13) -0.13879(13)
#END
