
#######################################################################
#
#                 Cambridge Crystallographic Data Centre
#                                CCDC
#
#######################################################################
#
# If this CIF has been generated from an entry in the Cambridge
# Structural Database, then it will include bibliographic, chemical,
# crystal, experimental, refinement or atomic coordinate data resulting
# from the CCDC's data processing and validation procedures.
#
#######################################################################

data_CSD_CIF_MIGPOJ
_audit_creation_date 2013-05-27
_audit_creation_method CSD-ConQuest-V1
_database_code_CSD MIGPOJ
_database_code_depnum_ccdc_archive 'CCDC 916425'
_chemical_formula_sum 'C39 H38 N6 O20 P4 U3'
_chemical_formula_moiety
;
(C24 H20 O18 P4 U3 2-)n,n(C15 H14 N6 2+),2n(H2 O1)
;
_journal_coden_Cambridge 9
_journal_volume 52
_journal_year 2013
_journal_page_first 2736
_journal_name_full 'Inorg.Chem. '
loop_
_publ_author_name
"Weiting Yang"
"Tao Tian"
"Hong-Yue Wu"
"Qing-Jiang Pan"
"Song Dang"
"Zhong-Ming Sun"
_chemical_name_systematic
;
catena-[1,1'-(5-(1H-Imidazol-1-yl)-1,3-phenylene)bis(1H-imidazol-3-ium) 
tetrakis(\m~3~-phenylphosphonato)-hexaoxo-tri-uranium dihydarte]
;
_cell_volume   1237.985
_exptl_crystal_density_diffrn 2.337
_diffrn_ambient_temperature 273
#These two values have been output from a single CSD field.
_refine_ls_R_factor_gt 0.0418
_refine_ls_wR_factor_gt 0.0418
_symmetry_cell_setting triclinic
_symmetry_space_group_name_H-M 'P 1'
_symmetry_Int_Tables_number 1
loop_
_symmetry_equiv_pos_site_id
_symmetry_equiv_pos_as_xyz
1 x,y,z
_cell_length_a 9.7096(12)
_cell_length_b 10.6095(14)
_cell_length_c 14.018(3)
_cell_angle_alpha 101.815(3)
_cell_angle_beta 93.434(3)
_cell_angle_gamma 117.157(2)
_cell_formula_units_Z 1
loop_
_atom_type_symbol
_atom_type_radius_bond
C 0.68
H 0.23
N 0.68
O 0.68
P 1.05
U 1.96
loop_
_atom_site_label
_atom_site_type_symbol
_atom_site_fract_x
_atom_site_fract_y
_atom_site_fract_z
U1 U 0.64346(7) 0.37945(7) 0.91539(4)
U2 U 0.32901(5) 0.83296(5) 0.93447(4)
U3 U -0.03286(6) -0.06161(5) 0.93497(4)
P1 P 0.3078(5) 0.1806(5) 1.0371(3)
P2 P 0.5546(6) 0.6440(5) 0.8424(3)
P3 P -0.0041(5) 0.5981(5) 0.8171(3)
P4 P -0.2613(6) 0.1267(5) 1.0106(3)
C1 C 0.361(2) 0.2164(18) 1.1685(12)
C2 C 0.511(2) 0.264(2) 1.2143(14)
H1 H 0.58900 0.27960 1.17600
C3 C 0.549(3) 0.288(2) 1.3135(14)
H2 H 0.65210 0.32020 1.34240
C4 C 0.433(3) 0.265(3) 1.3720(14)
H3 H 0.45660 0.27640 1.43950
C5 C 0.283(3) 0.225(2) 1.3300(12)
H4 H 0.20690 0.21610 1.36930
C6 C 0.246(2) 0.199(2) 1.2275(13)
H5 H 0.14370 0.16860 1.19840
C7 C 0.476(2) 0.616(2) 0.7156(12)
C8 C 0.359(3) 0.478(3) 0.6635(16)
H6 H 0.32080 0.40080 0.69350
C9 C 0.301(3) 0.456(3) 0.5655(16)
H7 H 0.22600 0.36290 0.52880
C10 C 0.350(3) 0.569(3) 0.5225(15)
H8 H 0.30650 0.55190 0.45730
C11 C 0.464(3) 0.708(3) 0.5735(14)
H9 H 0.50110 0.78330 0.54230
C12 C 0.524(2) 0.734(2) 0.6740(13)
H10 H 0.59480 0.82810 0.71150
C13 C -0.043(2) 0.6041(18) 0.6934(11)
C14 C -0.197(2) 0.568(2) 0.6545(12)
H11 H -0.27480 0.54210 0.69340
C15 C -0.233(3) 0.570(3) 0.5540(15)
H12 H -0.33480 0.54510 0.52670
C16 C -0.114(2) 0.610(2) 0.4989(13)
H13 H -0.13450 0.61440 0.43430
C17 C 0.031(2) 0.642(2) 0.5376(13)
H14 H 0.10910 0.66900 0.49900
C18 C 0.068(2) 0.638(2) 0.6310(12)
H15 H 0.16960 0.65810 0.65410
C19 C -0.161(2) 0.212(2) 1.1376(11)
C20 C -0.195(2) 0.128(2) 1.2066(15)
H16 H -0.26290 0.02780 1.18520
C21 C -0.131(3) 0.191(3) 1.3049(14)
H17 H -0.16140 0.13540 1.35040
C22 C -0.019(3) 0.341(3) 1.3369(14)
H18 H 0.02880 0.38400 1.40300
C23 C 0.021(3) 0.426(3) 1.2672(13)
H19 H 0.09530 0.52460 1.28650
C24 C -0.054(2) 0.358(2) 1.1686(14)
H20 H -0.03160 0.41360 1.12290
O1 O -0.0642(17) -0.1022(17) 1.0500(9)
O2 O 0.0036(16) -0.0257(15) 0.8190(8)
O3 O 0.7280(16) 0.7467(16) 0.8570(9)
O4 O -0.1786(16) 0.0542(14) 0.9522(8)
O5 O 0.0400(13) 0.7496(13) 0.8859(7)
O6 O 0.1622(14) 0.1939(14) 1.0162(8)
O7 O 0.4463(15) 0.2848(14) 1.0018(8)
O8 O 0.5408(15) 0.2327(14) 0.8073(8)
O9 O 0.7473(14) 0.5294(14) 1.0196(9)
O10 O 0.2922(15) 0.7756(15) 1.0427(8)
O11 O 0.3623(15) 0.8833(14) 0.8222(8)
O12 O 0.1477(15) 0.5861(14) 0.8341(8)
O13 O 0.2580(14) 0.0189(14) 0.9885(8)
O14 O 0.4735(15) 0.7039(13) 0.9140(7)
O15 O -0.4288(15) 0.0175(16) 1.0153(9)
O16 O -0.2587(16) 0.2507(16) 0.9720(8)
O17 O 0.5241(14) 0.4936(13) 0.8540(9)
O18 O -0.1506(14) 0.4740(14) 0.8336(8)
C25 C 1.039(2) 0.872(2) 0.3601(12)
C26 C 1.0297(19) 0.955(2) 0.4495(12)
H21 H 1.11860 1.01650 0.49780
C27 C 0.880(2) 0.941(2) 0.4634(12)
C28 C 0.751(2) 0.852(2) 0.3906(11)
H22 H 0.65290 0.84170 0.40120
C29 C 0.7647(19) 0.7801(18) 0.3042(11)
C30 C 0.911(2) 0.790(2) 0.2869(12)
H23 H 0.92010 0.74120 0.22640
C31 C 0.9664(19) 1.0793(19) 0.6401(12)
H24 H 1.04690 1.05790 0.65450
C32 C 0.800(3) 1.161(2) 0.6538(15)
H25 H 0.74570 1.20910 0.68080
C33 C 0.767(2) 1.081(3) 0.5622(14)
H26 H 0.68700 1.06350 0.51320
C34 C 1.308(2) 0.914(2) 0.4196(12)
H27 H 1.30530 0.93310 0.48700
C35 C 1.388(2) 0.884(2) 0.2805(15)
H28 H 1.45150 0.87900 0.23470
C36 C 1.240(2) 0.866(2) 0.2585(13)
H29 H 1.18440 0.84520 0.19600
C37 C 0.626(2) 0.7104(19) 0.1329(12)
H30 H 0.70960 0.77310 0.10750
C38 C 0.392(2) 0.551(2) 0.1479(13)
H31 H 0.28520 0.48470 0.13170
C39 C 0.481(2) 0.589(2) 0.2346(13)
H32 H 0.45030 0.55400 0.28970
N1 N 0.8725(19) 1.0292(17) 0.5514(10)
N2 N 0.9284(19) 1.1621(17) 0.7034(10)
N3 N 1.1897(16) 0.8843(18) 0.3478(9)
N4 N 1.4268(17) 0.911(2) 0.3807(11)
N5 N 0.6328(16) 0.6939(16) 0.2259(10)
N6 N 0.4824(17) 0.6230(17) 0.0848(10)
O19 O 0.2690(17) 0.0184(16) 0.6611(9)
O20 O 0.1166(18) 0.3237(17) 0.8665(10)
U1* U -0.35654(7) 0.37945(7) 0.91539(4)
U2* U -0.67099(5) -0.16704(5) 0.93447(4)
U2** U 0.32901(5) -0.16704(5) 0.93447(4)
U3* U -0.03286(6) 0.93839(5) 0.93497(4)
U3** U 0.96714(6) 0.93839(5) 0.93497(4)
O3* O -0.2720(16) -0.2533(16) 0.8570(9)
O5* O 0.0400(13) -0.2504(13) 0.8859(7)
O13* O 0.2580(14) 1.0189(14) 0.9885(8)
O15* O 0.5712(15) 1.0175(16) 1.0153(9)
O16* O 0.7413(16) 0.2507(16) 0.9720(8)
O18* O 0.8494(14) 0.4740(14) 0.8336(8)
#END
