
#######################################################################
#
#                 Cambridge Crystallographic Data Centre
#                                CCDC
#
#######################################################################
#
# If this CIF has been generated from an entry in the Cambridge
# Structural Database, then it will include bibliographic, chemical,
# crystal, experimental, refinement or atomic coordinate data resulting
# from the CCDC's data processing and validation procedures.
#
#######################################################################

data_CSD_CIF_MIGQOK
_audit_creation_date 2013-05-27
_audit_creation_method CSD-ConQuest-V1
_database_code_CSD MIGQOK
_database_code_depnum_ccdc_archive 'CCDC 916430'
_chemical_formula_sum 'C52 H32 N6 O19 S2 U2 Zn1'
_chemical_formula_moiety
;
(C36 H24 N6 Zn1 2+)n,n(C16 H6 O18 S2 U2 2-),n(H2 O1)
;
_journal_coden_Cambridge 9
_journal_volume 52
_journal_year 2013
_journal_page_first 2736
_journal_name_full 'Inorg.Chem. '
loop_
_publ_author_name
"Weiting Yang"
"Tao Tian"
"Hong-Yue Wu"
"Qing-Jiang Pan"
"Song Dang"
"Zhong-Ming Sun"
_chemical_name_systematic
;
catena-[tris(1,10-phenanthroline)-zinc 
bis(\m~3~-3-sulfonatobenzene-1,2-dicarboxylato)-tetraoxo-di-uranium 
monohydrate]
;
_cell_volume   2550.004
_exptl_crystal_colour 'yellow'
_exptl_crystal_density_diffrn 2.149
_exptl_crystal_description 'needle'
_diffrn_ambient_temperature 273
#These two values have been output from a single CSD field.
_refine_ls_R_factor_gt 0.0311
_refine_ls_wR_factor_gt 0.0311
_symmetry_cell_setting triclinic
_symmetry_space_group_name_H-M 'P -1'
_symmetry_Int_Tables_number 2
loop_
_symmetry_equiv_pos_site_id
_symmetry_equiv_pos_as_xyz
1 x,y,z
2 -x,-y,-z
_cell_length_a 12.8625(12)
_cell_length_b 13.1683(13)
_cell_length_c 17.2155(17)
_cell_angle_alpha 72.216(2)
_cell_angle_beta 71.658(2)
_cell_angle_gamma 71.066(1)
_cell_formula_units_Z 2
loop_
_atom_type_symbol
_atom_type_radius_bond
C 0.68
H 0.23
N 0.68
O 0.68
S 1.02
U 1.96
Zn 1.22
loop_
_atom_site_label
_atom_site_type_symbol
_atom_site_fract_x
_atom_site_fract_y
_atom_site_fract_z
U1 U 0.158389(16) 1.006009(16) 0.420304(12)
U2 U 0.371555(16) 0.938544(16) 0.091974(12)
S1 S -0.22808(12) 0.81347(13) 0.48440(9)
S2 S 0.72238(12) 1.18016(13) 0.03543(10)
O1 O 0.1058(3) 1.1380(3) 0.3632(2)
O2 O 0.2152(3) 0.8733(3) 0.4754(2)
O3 O 0.4708(3) 0.8271(3) 0.1358(2)
O4 O 0.2696(3) 1.0485(3) 0.0508(2)
O5 O -0.2275(3) 0.9161(3) 0.5040(2)
O6 O -0.3267(3) 0.8313(4) 0.4556(3)
O7 O -0.2064(4) 0.7183(4) 0.5516(3)
O8 O -0.0959(3) 1.0454(3) 0.3376(3)
O9 O -0.0204(3) 0.9601(3) 0.4492(2)
O10 O 0.1613(3) 0.9345(4) 0.3111(3)
O11 O 0.2243(3) 0.8671(3) 0.1974(2)
O12 O 0.3460(3) 1.0020(3) 0.3345(2)
O13 O 0.3470(3) 1.0224(3) 0.2009(2)
O14 O 0.4193(3) 1.2237(3) 0.0832(2)
O15 O 0.4955(3) 1.0623(3) 0.0435(2)
O16 O 0.6677(3) 1.1740(3) -0.0267(2)
O17 O 0.6881(4) 1.2902(3) 0.0475(3)
O18 O 0.8418(3) 1.1343(4) 0.0141(3)
C1 C -0.1098(5) 0.7893(5) 0.3985(3)
C2 C -0.0949(6) 0.6960(5) 0.3696(4)
H1 H -0.14720 0.65350 0.39360
C3 C -0.0024(6) 0.6665(6) 0.3054(5)
H2 H 0.00630 0.60510 0.28570
C4 C 0.0766(5) 0.7280(5) 0.2706(4)
H3 H 0.13850 0.70770 0.22760
C5 C 0.0645(5) 0.8189(5) 0.2990(3)
C6 C -0.0321(4) 0.8525(4) 0.3628(3)
C7 C 0.1590(4) 0.8745(5) 0.2664(3)
C8 C -0.0534(4) 0.9635(5) 0.3820(3)
C9 C 0.6662(4) 1.0950(4) 0.1304(3)
C10 C 0.7352(5) 1.0411(5) 0.1869(4)
H4 H 0.80820 1.04970 0.17310
C11 C 0.6960(5) 0.9757(5) 0.2625(4)
H5 H 0.74390 0.93720 0.29840
C12 C 0.5854(5) 0.9666(5) 0.2859(4)
H6 H 0.55830 0.92410 0.33810
C13 C 0.5159(4) 1.0207(4) 0.2313(3)
C14 C 0.5561(4) 1.0838(4) 0.1517(3)
C15 C 0.3957(4) 1.0117(4) 0.2569(3)
C16 C 0.4819(4) 1.1329(4) 0.0892(3)
Zn1 Zn 0.72771(5) 0.44935(5) 0.24023(4)
N1 N 0.6104(4) 0.4797(4) 0.1669(3)
N2 N 0.6540(4) 0.3102(4) 0.2971(3)
N3 N 0.8069(4) 0.5846(4) 0.1653(3)
N4 N 0.8872(4) 0.3661(4) 0.1752(3)
N5 N 0.5995(4) 0.5583(4) 0.3186(3)
N6 N 0.7980(4) 0.4207(4) 0.3488(3)
C17 C 0.5362(5) 0.4152(4) 0.2013(3)
C18 C 0.4389(5) 0.4334(5) 0.1734(4)
C19 C 0.3652(5) 0.3628(5) 0.2148(4)
H7 H 0.29960 0.37620 0.19730
C20 C 0.3881(5) 0.2767(5) 0.2790(4)
H8 H 0.33870 0.23130 0.30440
C21 C 0.4866(5) 0.2543(5) 0.3086(4)
C22 C 0.5599(5) 0.3245(4) 0.2706(3)
C23 C 0.5894(5) 0.5632(5) 0.1023(4)
H9 H 0.63890 0.60870 0.07820
C24 C 0.4967(6) 0.5855(5) 0.0693(4)
H10 H 0.48610 0.64340 0.02310
C25 C 0.4221(6) 0.5226(5) 0.1048(4)
H11 H 0.35900 0.53840 0.08360
C26 C 0.5163(5) 0.1648(5) 0.3739(4)
H12 H 0.47080 0.11570 0.39990
C27 C 0.6106(6) 0.1496(5) 0.3991(4)
H13 H 0.63070 0.09010 0.44220
C28 C 0.6781(5) 0.2251(5) 0.3593(4)
H14 H 0.74250 0.21470 0.37740
C29 C 0.9618(5) 0.4296(5) 0.1377(4)
C30 C 1.0787(5) 0.3852(6) 0.1052(4)
C31 C 1.1501(6) 0.4589(7) 0.0646(5)
H15 H 1.22680 0.43040 0.04320
C32 C 1.1101(6) 0.5666(7) 0.0566(4)
H16 H 1.15950 0.61190 0.03010
C33 C 0.9931(6) 0.6152(6) 0.0874(4)
C34 C 0.9188(5) 0.5469(5) 0.1303(4)
C35 C 0.9459(7) 0.7288(6) 0.0805(5)
H17 H 0.99180 0.77750 0.05380
C36 C 0.8340(7) 0.7681(5) 0.1126(5)
H18 H 0.80220 0.84360 0.10600
C37 C 0.7665(6) 0.6936(5) 0.1559(4)
H19 H 0.69030 0.72130 0.17900
C38 C 0.9259(5) 0.2583(5) 0.1807(4)
H20 H 0.87520 0.21410 0.20550
C39 C 1.0399(6) 0.2087(6) 0.1508(5)
H21 H 1.06390 0.13280 0.15570
C40 C 1.1147(6) 0.2702(6) 0.1150(5)
H22 H 1.19090 0.23670 0.09650
C41 C 0.6253(5) 0.5519(4) 0.3902(4)
C42 C 0.5548(5) 0.6160(5) 0.4481(4)
C43 C 0.5862(6) 0.6040(5) 0.5233(4)
H23 H 0.53870 0.64610 0.56160
C44 C 0.6819(6) 0.5342(5) 0.5401(4)
H24 H 0.69930 0.52780 0.59020
C45 C 0.7591(5) 0.4685(5) 0.4822(4)
C46 C 0.7299(5) 0.4793(4) 0.4068(4)
C47 C 0.8636(6) 0.4002(6) 0.4940(5)
H25 H 0.88660 0.39370 0.54180
C48 C 0.9312(6) 0.3435(6) 0.4351(5)
H26 H 1.00090 0.29690 0.44260
C49 C 0.8965(5) 0.3547(5) 0.3630(4)
H27 H 0.94410 0.31460 0.32350
C50 C 0.5046(5) 0.6303(5) 0.3009(4)
H28 H 0.48720 0.63510 0.25120
C51 C 0.4309(6) 0.6982(5) 0.3537(4)
H29 H 0.36600 0.74790 0.33930
C52 C 0.4555(6) 0.6910(5) 0.4276(5)
H30 H 0.40680 0.73540 0.46390
O19 O 0.9882(10) 0.0113(12) 0.8974(9)
U1A U -0.158389(16) 0.993991(16) 0.579696(12)
U2A U 0.628445(16) 1.061456(16) -0.091974(12)
O5A O 0.2275(3) 1.0839(3) 0.4960(2)
O9A O 0.0204(3) 1.0399(3) 0.5508(2)
O15A O 0.5045(3) 0.9377(3) -0.0435(2)
O16A O 0.3323(3) 0.8260(3) 0.0267(2)
#END
