
#######################################################################
#
#                 Cambridge Crystallographic Data Centre
#                                CCDC
#
#######################################################################
#
# If this CIF has been generated from an entry in the Cambridge
# Structural Database, then it will include bibliographic, chemical,
# crystal, experimental, refinement or atomic coordinate data resulting
# from the CCDC's data processing and validation procedures.
#
#######################################################################

data_CSD_CIF_MIGQIE
_audit_creation_date 2013-05-27
_audit_creation_method CSD-ConQuest-V1
_database_code_CSD MIGQIE
_database_code_depnum_ccdc_archive 'CCDC 916429'
_chemical_formula_sum 'C32 H28 N8 O14 S1 U2'
_chemical_formula_moiety
;
(C8 H4 O13 S1 U2 2-)n,2n(C12 H11 N4 1+),n(H2 O1)
;
_journal_coden_Cambridge 9
_journal_volume 52
_journal_year 2013
_journal_page_first 2736
_journal_name_full 'Inorg.Chem. '
loop_
_publ_author_name
"Weiting Yang"
"Tao Tian"
"Hong-Yue Wu"
"Qing-Jiang Pan"
"Song Dang"
"Zhong-Ming Sun"
_chemical_name_systematic
;
catena-[1-(4-(1H-Imidazol-1-yl)phenyl)-1H-imidazol-3-ium 
(\m~4~-3,5-dcarboxylatobenzenesulfonateo)-(\m~3~-oxo)-(\m~2~-hydroxo)-tetraoxo
-di-uranium monohydrate]
;
_cell_volume   3556.887
_exptl_crystal_colour 'yellow'
_exptl_crystal_density_diffrn 2.347
_exptl_crystal_description 'needle'
_diffrn_ambient_temperature 273
#These two values have been output from a single CSD field.
_refine_ls_R_factor_gt 0.04
_refine_ls_wR_factor_gt 0.04
_symmetry_cell_setting monoclinic
_symmetry_space_group_name_H-M 'P 21/n'
_symmetry_Int_Tables_number 14
loop_
_symmetry_equiv_pos_site_id
_symmetry_equiv_pos_as_xyz
1 x,y,z
2 1/2-x,1/2+y,1/2-z
3 -x,-y,-z
4 -1/2+x,-1/2-y,-1/2+z
_cell_length_a 13.6408(9)
_cell_length_b 20.8488(13)
_cell_length_c 13.9140(8)
_cell_angle_alpha 90
_cell_angle_beta 115.990(1)
_cell_angle_gamma 90
_cell_formula_units_Z 4
loop_
_atom_type_symbol
_atom_type_radius_bond
C 0.68
H 0.23
N 0.68
O 0.68
S 1.02
U 1.96
loop_
_atom_site_label
_atom_site_type_symbol
_atom_site_fract_x
_atom_site_fract_y
_atom_site_fract_z
U1 U 0.89759(2) 0.007355(16) 0.05315(2)
U2 U 1.17589(2) -0.014368(16) 0.27171(2)
S1 S 0.69878(17) 0.07930(11) 0.13368(16)
O1 O 0.8940(4) -0.0769(3) 0.0736(4)
O2 O 0.8941(4) 0.0912(3) 0.0371(4)
O3 O 1.1462(4) -0.0981(3) 0.2662(4)
O4 O 1.2182(5) 0.0672(3) 0.2886(4)
O5 O 1.0812(4) 0.0018(3) 0.0994(4)
O6 O 1.0018(4) 0.0143(3) 0.2431(4)
O7 O 0.7683(4) 0.0261(3) 0.1331(4)
O8 O 0.6155(4) 0.0958(3) 0.0286(4)
O9 O 0.7604(5) 0.1340(3) 0.1945(5)
O10 O 0.8064(4) 0.0130(3) 0.5392(4)
O11 O 0.6542(4) 0.0296(3) 0.5553(4)
O12 O 0.3161(4) -0.0390(3) 0.2230(4)
O13 O 0.2936(4) 0.0154(3) 0.0769(4)
C1 C 0.6308(6) 0.0491(4) 0.2081(6)
C2 C 0.5212(6) 0.0338(4) 0.1591(6)
H1 H 0.48200 0.03780 0.08540
C3 C 0.4695(6) 0.0124(4) 0.2194(5)
C4 C 0.5297(6) 0.0074(4) 0.3305(6)
H2 H 0.49560 -0.00580 0.37220
C5 C 0.6399(6) 0.0221(4) 0.3785(6)
C6 C 0.6913(6) 0.0417(4) 0.3158(6)
H3 H 0.76600 0.04960 0.34710
C7 C 0.3519(6) -0.0049(4) 0.1690(6)
C8 C 0.7048(6) 0.0201(4) 0.4994(6)
N1 N 0.4724(6) 0.2209(3) 0.4148(6)
N2 N 0.5904(7) 0.2580(4) 0.3620(7)
N3 N 0.1280(7) 0.1968(4) 0.5311(6)
N4 N -0.0066(8) 0.2195(5) 0.5717(8)
C9 C 0.3865(6) 0.2160(4) 0.4483(7)
C10 C 0.3563(8) 0.1587(5) 0.4683(9)
H4 H 0.39300 0.12230 0.46310
C11 C 0.2713(8) 0.1524(5) 0.4965(9)
H5 H 0.25130 0.11200 0.51000
C12 C 0.2179(7) 0.2046(5) 0.5043(7)
C13 C 0.2473(9) 0.2642(5) 0.4847(8)
H6 H 0.21040 0.30060 0.48980
C14 C 0.3331(9) 0.2694(5) 0.4569(9)
H7 H 0.35430 0.30960 0.44410
C15 C 0.5265(11) 0.1690(6) 0.4002(12)
H8 H 0.51620 0.12580 0.41010
C16 C 0.5987(11) 0.1952(6) 0.3677(11)
H9 H 0.64760 0.17160 0.35170
C17 C 0.5147(7) 0.2732(5) 0.3919(7)
H10 H 0.49320 0.31500 0.39660
C18 C 0.0711(8) 0.2431(5) 0.5502(8)
H11 H 0.08470 0.28670 0.54850
C19 C 0.0819(12) 0.1407(7) 0.5392(12)
H12 H 0.10300 0.09970 0.52960
C20 C 0.0005(12) 0.1558(7) 0.5634(14)
H13 H -0.04520 0.12610 0.57320
N5 N 0.6109(5) 0.8093(3) 0.2070(5)
N6 N 0.7545(7) 0.8120(4) 0.1769(7)
N7 N 0.2949(6) 0.7258(3) 0.3385(5)
N8 N 0.1600(6) 0.7283(4) 0.3820(6)
C21 C 0.3753(7) 0.7467(4) 0.3044(7)
C22 C 0.3858(8) 0.8091(5) 0.2885(9)
H14 H 0.34110 0.83900 0.29950
C23 C 0.4642(9) 0.8296(5) 0.2552(10)
H15 H 0.47100 0.87310 0.24390
C24 C 0.5291(7) 0.7870(4) 0.2397(7)
C25 C 0.5183(8) 0.7241(5) 0.2575(8)
H16 H 0.56420 0.69430 0.24840
C26 C 0.4408(8) 0.7032(5) 0.2890(8)
H17 H 0.43370 0.65970 0.29950
C27 C 0.6946(8) 0.7760(5) 0.2084(8)
H18 H 0.70890 0.73330 0.22870
C28 C 0.7075(9) 0.8712(5) 0.1560(9)
H19 H 0.73330 0.90690 0.13420
C29 C 0.6182(8) 0.8691(5) 0.1720(9)
H20 H 0.56950 0.90260 0.16120
C30 C 0.2200(7) 0.7629(5) 0.3464(8)
H21 H 0.21060 0.80640 0.32980
C31 C 0.2859(8) 0.6657(5) 0.3723(8)
H22 H 0.32900 0.63020 0.37700
C32 C 0.1997(8) 0.6687(5) 0.3979(8)
H23 H 0.17310 0.63450 0.42260
O14 O 1.024(3) -0.0033(16) 0.551(2)
U1B U 0.10241(2) -0.007355(16) -0.05315(2)
U1B* U 1.10241(2) -0.007355(16) -0.05315(2)
U2* U 0.17589(2) -0.014368(16) 0.27171(2)
U2B U 0.82411(2) 0.014368(16) 0.72829(2)
O5B O 0.9188(4) -0.0018(3) -0.0994(4)
O10B O 1.1936(4) -0.0130(3) 0.4608(4)
O11B O 1.3458(4) -0.0296(3) 0.4447(4)
O12* O 1.3161(4) -0.0390(3) 0.2230(4)
O13B O 0.7064(4) -0.0154(3) -0.0769(4)
#END
