
#######################################################################
#
#                 Cambridge Crystallographic Data Centre
#                                CCDC
#
#######################################################################
#
# If this CIF has been generated from an entry in the Cambridge
# Structural Database, then it will include bibliographic, chemical,
# crystal, experimental, refinement or atomic coordinate data resulting
# from the CCDC's data processing and validation procedures.
#
#######################################################################

data_CSD_CIF_MIHMIC
_audit_creation_date 2018-05-30
_audit_creation_method CSD-ConQuest-V1
_database_code_CSD MIHMIC
_database_code_depnum_ccdc_archive 'CCDC 1821218'
_chemical_formula_sum 'C72 H58 Bi2 N2 O19'
_chemical_formula_moiety
;
(C68 H40 Bi2 O18 2-)n,2(C2 H8 N1 1+),x(H2 O1)
;
_journal_coden_Cambridge 1147
_journal_volume 18
_journal_year 2018
_journal_page_first 4060
_journal_name_full 'Cryst.Growth Des. '
loop_
_publ_author_name
"M.Koppen"
"V.Meyer"
"Jonas Angstrom"
"A.Ken Inge"
"N.Stock"
_chemical_name_systematic
;
catena-[bis(dimethylammonium) 
bis(\m-1,2,4,5-tetrakis(4-carboxylatophenyl)benzene)-diaqua-di-bismuth(iii) 
unknown solvate hydrate]
;
_chemical_name_common
;
CAU-32
;
_cell_volume   4480.029
_exptl_crystal_description 'rod'
_diffrn_ambient_temperature 295
_refine_special_details
;
Disordered dimethylammonium cation, water and solvent molecules were not 
modelled and the disordered density was taken into account using the 
SQUEEZE/PLATON procedure.
;
#These two values have been output from a single CSD field.
_refine_ls_R_factor_gt 0.0716
_refine_ls_wR_factor_gt 0.0716
_symmetry_cell_setting monoclinic
_symmetry_space_group_name_H-M 'P 21/n'
_symmetry_Int_Tables_number 14
loop_
_symmetry_equiv_pos_site_id
_symmetry_equiv_pos_as_xyz
1 x,y,z
2 1/2-x,1/2+y,1/2-z
3 -x,-y,-z
4 -1/2+x,-1/2-y,-1/2+z
_cell_length_a 11.1877(11)
_cell_length_b 24.552(2)
_cell_length_c 16.3146(16)
_cell_angle_alpha 90
_cell_angle_beta 91.365(3)
_cell_angle_gamma 90
_cell_formula_units_Z 2
loop_
_atom_type_symbol
_atom_type_radius_bond
C 0.68
H 0.23
Bi 1.48
O 0.68
loop_
_atom_site_label
_atom_site_type_symbol
_atom_site_fract_x
_atom_site_fract_y
_atom_site_fract_z
Bi1 Bi 0.50492(3) 0.83744(2) 0.94131(2)
O1 O 0.0739(11) 0.3468(5) 1.4184(6)
O2 O -0.0159(10) 0.4148(3) 1.4639(4)
C1 C 0.0249(10) 0.3905(5) 1.4057(6)
C2 C 0.0209(9) 0.4147(4) 1.3229(6)
C3 C -0.0257(10) 0.4655(4) 1.3083(6)
H1 H -0.05360 0.48590 1.35190
C4 C -0.0319(9) 0.4867(4) 1.2305(5)
H2 H -0.06140 0.52180 1.22220
C5 C 0.0052(8) 0.4567(3) 1.1652(5)
C6 C 0.0524(10) 0.4059(4) 1.1792(6)
H3 H 0.07880 0.38540 1.13520
C7 C 0.0614(11) 0.3846(4) 1.2575(6)
H4 H 0.09460 0.35030 1.26620
C8 C -0.0031(8) 0.4788(3) 1.0797(5)
C9 C 0.0570(8) 0.5276(3) 1.0623(5)
H5 H 0.09520 0.54600 1.10530
C10 C 0.0620(8) 0.5491(3) 0.9855(5)
O3 O 0.3265(7) 0.7817(3) 0.9569(5)
O4 O 0.4718(8) 0.7289(3) 0.9185(6)
C11 C 0.3678(11) 0.7346(4) 0.9418(6)
C12 C 0.2868(9) 0.6878(4) 0.9525(6)
C13 C 0.1918(10) 0.6910(4) 1.0032(6)
H6 H 0.17680 0.72310 1.03130
C14 C 0.1178(9) 0.6464(4) 1.0127(6)
H7 H 0.05460 0.64890 1.04850
C15 C 0.1352(9) 0.5977(3) 0.9702(5)
C16 C 0.2310(8) 0.5959(4) 0.9173(6)
H8 H 0.24370 0.56460 0.88650
C17 C 0.3066(10) 0.6392(4) 0.9099(6)
H9 H 0.37210 0.63640 0.87620
O5 O 0.5775(7) 1.1676(3) 0.2000(4)
O6 O 0.6432(6) 1.1083(3) 0.1118(4)
C18 C 0.6457(9) 1.1283(4) 0.1836(6)
C19 C 0.7212(9) 1.1030(4) 0.2487(5)
C20 C 0.712(1) 1.1205(5) 0.3309(6)
H10 H 0.65920 1.14830 0.34390
C21 C 0.7814(9) 1.0963(5) 0.3918(6)
H11 H 0.77500 1.10780 0.44580
C22 C 0.8600(8) 1.0553(4) 0.3730(6)
C23 C 0.8683(9) 1.0376(5) 0.2928(6)
H12 H 0.92060 1.00960 0.28010
C24 C 0.7989(9) 1.0617(4) 0.2313(6)
H13 H 0.80520 1.04970 0.17750
C25 C 0.9344(8) 1.0295(4) 0.4395(6)
C26 C 0.8806(9) 1.0088(4) 0.5092(5)
H14 H 0.79890 1.01440 0.51460
C27 C 0.9409(9) 0.9802(4) 0.5716(6)
O7 O 0.6879(7) 0.8273(3) 0.8367(5)
O8 O 0.6159(6) 0.9076(3) 0.8730(4)
C28 C 0.6816(9) 0.8786(4) 0.8288(6)
C29 C 0.7511(9) 0.9056(4) 0.7627(5)
C30 C 0.8079(9) 0.8753(4) 0.7063(6)
H15 H 0.80420 0.83750 0.70970
C31 C 0.8703(10) 0.8984(4) 0.6446(6)
H16 H 0.90920 0.87670 0.60690
C32 C 0.8752(8) 0.9549(4) 0.6387(5)
C33 C 0.8172(9) 0.9855(5) 0.6965(5)
H17 H 0.82100 1.02330 0.69370
C34 C 0.7551(9) 0.9620(4) 0.7571(6)
H18 H 0.71530 0.98340 0.79470
O9 O 0.6835(16) 0.8066(10) 1.0497(12)
C9B C -0.0570(8) 0.4724(3) 0.9377(5)
H5B H -0.09520 0.45400 0.89470
C10B C -0.0620(8) 0.4509(3) 1.0145(5)
O3B O -0.3265(7) 0.2183(3) 1.0431(5)
O4B O -0.4718(8) 0.2711(3) 1.0815(6)
C11B C -0.3678(11) 0.2654(4) 1.0582(6)
C12B C -0.2868(9) 0.3122(4) 1.0475(6)
C13B C -0.1918(10) 0.3090(4) 0.9968(6)
H6B H -0.17680 0.27690 0.96870
C14B C -0.1178(9) 0.3536(4) 0.9873(6)
H7B H -0.05460 0.35110 0.95150
C15B C -0.1352(9) 0.4023(3) 1.0298(5)
C16B C -0.2310(8) 0.4041(4) 1.0827(6)
H8B H -0.24370 0.43540 1.11350
C17B C -0.3066(10) 0.3608(4) 1.0901(6)
H9B H -0.37210 0.36360 1.12380
O1B O -0.0739(11) 0.6532(5) 0.5816(6)
O2B O 0.0159(10) 0.5852(3) 0.5361(4)
C1B C -0.0249(10) 0.6095(5) 0.5943(6)
C2B C -0.0209(9) 0.5853(4) 0.6771(6)
C3B C 0.0257(10) 0.5345(4) 0.6917(6)
H1B H 0.05360 0.51410 0.64810
C4B C 0.0319(9) 0.5133(4) 0.7695(5)
H2B H 0.06140 0.47820 0.77780
C5B C -0.0052(8) 0.5433(3) 0.8348(5)
C6B C -0.0524(10) 0.5941(4) 0.8208(6)
H3B H -0.07880 0.61460 0.86480
C7B C -0.0614(11) 0.6154(4) 0.7425(6)
H4B H -0.09460 0.64970 0.73380
C8B C 0.0031(8) 0.5212(3) 0.9203(5)
C26B C 1.1194(9) 0.9912(4) 0.4908(5)
H14B H 1.20110 0.98560 0.48540
C27B C 1.0591(9) 1.0198(4) 0.4284(6)
O7B O 1.3121(7) 1.1727(3) 0.1633(5)
O8B O 1.3841(6) 1.0924(3) 0.1270(4)
C28B C 1.3184(9) 1.1214(4) 0.1712(6)
C29B C 1.2489(9) 1.0944(4) 0.2373(5)
C30B C 1.1921(9) 1.1247(4) 0.2937(6)
H15B H 1.19580 1.16250 0.29030
C31B C 1.1297(10) 1.1016(4) 0.3554(6)
H16B H 1.09080 1.12330 0.39310
C32B C 1.1248(8) 1.0451(4) 0.3613(5)
C33B C 1.1828(9) 1.0145(5) 0.3035(5)
H17B H 1.17900 0.97670 0.30630
C34B C 1.2449(9) 1.0380(4) 0.2429(6)
H18B H 1.28470 1.01660 0.20530
O5B O 1.4225(7) 0.8324(3) 0.8000(4)
O6B O 1.3568(6) 0.8917(3) 0.8882(4)
C18B C 1.3543(9) 0.8717(4) 0.8164(6)
C19B C 1.2788(9) 0.8970(4) 0.7513(5)
C20B C 1.288(1) 0.8795(5) 0.6691(6)
H10B H 1.34080 0.85170 0.65610
C21B C 1.2186(9) 0.9037(5) 0.6082(6)
H11B H 1.22500 0.89220 0.55420
C22B C 1.1400(8) 0.9447(4) 0.6270(6)
C23B C 1.1317(9) 0.9624(5) 0.7072(6)
H12B H 1.07940 0.99040 0.71990
C24B C 1.2011(9) 0.9383(4) 0.7687(6)
H13B H 1.19480 0.95030 0.82250
C25B C 1.0656(8) 0.9705(4) 0.5605(6)
Bi1B Bi -0.50492(3) 0.16256(2) 1.05869(2)
O9B O -0.6835(16) 0.1934(10) 0.9503(12)
Bi1* Bi 1.50492(3) 0.83744(2) 0.94131(2)
Bi1A Bi -0.00492(3) 0.33744(2) 1.55869(2)
Bi1B* Bi 0.49508(3) 1.16256(2) 0.05869(2)
Bi1B** Bi 1.49508(3) 1.16256(2) 0.05869(2)
Bi1C Bi 0.00492(3) 0.66256(2) 0.44131(2)
O1A O 0.4261(11) 0.8468(5) 1.0816(6)
O1C O -0.4261(11) 0.1532(5) 0.9184(6)
O2A O 0.5159(10) 0.9148(3) 1.0361(4)
O2C O -0.5159(10) 0.0852(3) 0.9639(4)
O5* O -0.4225(7) 0.1676(3) 1.2000(4)
O5B* O 0.4225(7) 0.8324(3) 0.8000(4)
O6* O -0.3568(6) 0.1083(3) 1.1118(4)
O6B* O 0.3568(6) 0.8917(3) 0.8882(4)
O7B* O -0.6879(7) 0.1727(3) 1.1633(5)
O8B* O -0.6159(6) 0.0924(3) 1.1270(4)
#END
