
#######################################################################
#
#                 Cambridge Crystallographic Data Centre
#                                CCDC
#
#######################################################################
#
# If this CIF has been generated from an entry in the Cambridge
# Structural Database, then it will include bibliographic, chemical,
# crystal, experimental, refinement or atomic coordinate data resulting
# from the CCDC's data processing and validation procedures.
#
#######################################################################

data_CSD_CIF_MIHMIA
_audit_creation_date 2007-12-05
_audit_creation_method CSD-ConQuest-V1
_database_code_CSD MIHMIA
_database_code_depnum_ccdc_archive 'CCDC 646675'
_chemical_formula_sum 'C52 H41.4 Co2 N6 O8.7'
_chemical_formula_moiety
;
(C48 H24 Co2 N4 O8 2-)n,2n(C2 H8 N1 1+),0.7n(H2 O1)
;
_journal_coden_Cambridge 9
_journal_volume 46
_journal_year 2007
_journal_page_first 5544
_journal_name_full 'Inorg.Chem. '
loop_
_publ_author_name
"S.Muniappan"
"S.Lipstman"
"S.George"
"I.Goldberg"
_chemical_name_systematic
;
catena-(bis(Dimethylammonium) 
(\m~5~-5,10,15,20-tetrakis(3-carboxylatophenyl)porphyrin)-di-cobalt hydrate)
;
_cell_volume   2154.550
_exptl_crystal_colour 'violet'
_exptl_crystal_density_diffrn 1.553
_exptl_crystal_description 'prism'
_diffrn_ambient_temperature 110
#These two values have been output from a single CSD field.
_refine_ls_R_factor_gt 0.066
_refine_ls_wR_factor_gt 0.066
_symmetry_cell_setting triclinic
_symmetry_space_group_name_H-M 'P -1'
_symmetry_Int_Tables_number 2
loop_
_symmetry_equiv_pos_site_id
_symmetry_equiv_pos_as_xyz
1 x,y,z
2 -x,-y,-z
_cell_length_a 9.0754(4)
_cell_length_b 14.5477(5)
_cell_length_c 17.2021(8)
_cell_angle_alpha 73.8877(18)
_cell_angle_beta 85.6121(18)
_cell_angle_gamma 81.146(3)
_cell_formula_units_Z 2
loop_
_atom_type_symbol
_atom_type_radius_bond
C 0.68
H 0.23
Co 1.33
N 0.68
O 0.68
loop_
_atom_site_label
_atom_site_type_symbol
_atom_site_fract_x
_atom_site_fract_y
_atom_site_fract_z
Co1 Co 0.73479(6) 0.09351(4) 0.48109(3)
Co2 Co 0.79658(7) -0.29679(4) 1.03750(3)
C1 C 0.9295(5) 0.1080(3) 0.6103(2)
C2 C 1.0313(5) 0.0487(3) 0.6705(2)
H1 H 1.09400 0.07070 0.70120
C3 C 1.0205(5) -0.0444(3) 0.6749(2)
H2 H 1.07460 -0.10020 0.70910
C4 C 0.9121(5) -0.0426(3) 0.6183(2)
C5 C 0.8607(5) -0.1252(3) 0.6097(2)
C6 C 0.7701(5) -0.1226(3) 0.5481(2)
C7 C 0.7273(5) -0.2071(3) 0.5344(2)
H3 H 0.74280 -0.27070 0.56940
C8 C 0.6606(5) -0.1797(3) 0.4625(2)
H4 H 0.62420 -0.22080 0.43630
C9 C 0.6551(5) -0.0766(3) 0.4330(2)
C10 C 0.6003(5) -0.0214(3) 0.3583(2)
C11 C 0.5868(4) 0.0788(3) 0.3349(2)
C12 C 0.5156(5) 0.1386(3) 0.2624(2)
H5 H 0.48280 0.11710 0.22020
C13 C 0.5044(5) 0.2312(3) 0.2660(2)
H6 H 0.45990 0.28680 0.22730
C14 C 0.5719(5) 0.2301(3) 0.3388(2)
C15 C 0.5786(5) 0.3115(3) 0.3645(2)
C16 C 0.6503(5) 0.3097(3) 0.4335(2)
C17 C 0.6611(5) 0.3941(3) 0.4597(2)
H7 H 0.61340 0.45780 0.43660
C18 C 0.7515(5) 0.3658(3) 0.5229(2)
H8 H 0.77970 0.40580 0.55280
C19 C 0.7976(5) 0.2630(3) 0.5369(2)
C20 C 0.8964(5) 0.2082(3) 0.5957(2)
N1 N 0.8614(4) 0.0509(2) 0.57547(19)
N2 N 0.7208(4) -0.0409(2) 0.48638(18)
N3 N 0.6250(4) 0.1358(2) 0.38108(19)
N4 N 0.7317(4) 0.2285(2) 0.48264(18)
C21 C 0.9063(5) -0.2193(3) 0.6715(2)
C22 C 0.8669(5) -0.2265(3) 0.7524(2)
H9 H 0.81050 -0.17300 0.76730
C23 C 0.9103(5) -0.3128(3) 0.8125(2)
C24 C 0.9923(5) -0.3914(3) 0.7907(2)
H10 H 1.02270 -0.44940 0.83110
C25 C 1.0294(5) -0.3847(3) 0.7099(2)
H11 H 1.08360 -0.43870 0.69480
C26 C 0.9877(5) -0.2991(3) 0.6504(2)
H12 H 1.01480 -0.29500 0.59520
C27 C 0.8726(5) -0.3160(3) 0.8990(2)
O1 O 0.7706(4) -0.2523(2) 0.91582(17)
O2 O 0.9405(4) -0.3780(2) 0.95543(17)
C28 C 0.5634(5) -0.0748(3) 0.3008(2)
C29 C 0.6432(5) -0.0678(3) 0.2276(2)
H13 H 0.71120 -0.02190 0.21070
C30 C 0.6251(5) -0.1269(3) 0.1785(2)
C31 C 0.5230(5) -0.1931(3) 0.2032(3)
H14 H 0.51030 -0.23420 0.17060
C32 C 0.4407(5) -0.1989(3) 0.2747(3)
H15 H 0.37160 -0.24410 0.29120
C33 C 0.4583(5) -0.1393(3) 0.3226(2)
H16 H 0.39830 -0.14220 0.37070
C34 C 0.7169(5) -0.1223(3) 0.1021(3)
O3 O 0.8174(5) -0.0687(3) 0.0848(2)
O4 O 0.6901(4) -0.1750(2) 0.05788(18)
C35 C 0.5074(5) 0.4072(3) 0.3134(2)
C36 C 0.5813(5) 0.4561(3) 0.2437(2)
H17 H 0.67880 0.43000 0.22940
C37 C 0.5118(5) 0.5437(3) 0.1945(2)
C38 C 0.3698(5) 0.5821(3) 0.2154(2)
H18 H 0.32200 0.64050 0.18130
C39 C 0.2971(5) 0.5354(3) 0.2861(3)
H19 H 0.20100 0.56260 0.30120
C40 C 0.3664(5) 0.4483(3) 0.3347(2)
H20 H 0.31670 0.41660 0.38300
C41 C 0.5944(5) 0.5976(3) 0.1213(2)
O5 O 0.5233(4) 0.6558(2) 0.06352(17)
O6 O 0.7370(3) 0.5857(2) 0.12071(17)
C42 C 0.9662(5) 0.2553(3) 0.6484(2)
C43 C 0.9376(5) 0.2293(3) 0.7319(2)
H21 H 0.87430 0.18160 0.75460
C44 C 0.9995(5) 0.2714(3) 0.7825(2)
C45 C 1.0963(5) 0.3394(3) 0.7492(2)
H22 H 1.14070 0.36810 0.78320
C46 C 1.1275(5) 0.3649(3) 0.6664(3)
H23 H 1.19420 0.41060 0.64400
C47 C 1.0621(5) 0.3243(3) 0.6158(2)
H24 H 1.08250 0.34340 0.55910
C48 C 0.9537(5) 0.2459(3) 0.8715(2)
O7 O 0.8593(4) 0.1899(2) 0.89637(18)
O8 O 1.0057(4) 0.2892(2) 0.91716(17)
C49 C 0.7438(6) 0.4601(4) 0.9724(4)
H25 H 0.64560 0.49270 0.98470
H26 H 0.76660 0.48140 0.91410
H27 H 0.81990 0.47610 1.00200
N5 N 0.7424(5) 0.3537(3) 0.9973(2)
H28 H 0.831(8) 0.319(4) 0.979(4)
H29 H 0.659(8) 0.339(4) 0.973(4)
C50 C 0.7119(7) 0.3150(5) 1.0848(3)
H30 H 0.79310 0.32440 1.11500
H31 H 0.70470 0.24590 1.09700
H32 H 0.61760 0.34910 1.10070
C51 C 0.7443(8) -0.0100(4) 0.8791(4)
H33 H 0.76320 0.01240 0.82050
H34 H 0.66650 0.03570 0.89620
H35 H 0.71130 -0.07380 0.89260
N6 N 0.8826(6) -0.0165(3) 0.9213(2)
H36 H 0.841(10) -0.031(5) 0.974(5)
H37 H 0.917(6) 0.043(4) 0.912(3)
C52 C 1.0072(7) -0.0858(4) 0.9012(3)
H38 H 0.97890 -0.15100 0.91770
H39 H 1.09590 -0.08470 0.92980
H40 H 1.02920 -0.06750 0.84270
O9 O 0.6203(7) 0.1371(4) 0.0146(4)
H41 H 0.54390 0.12070 0.06620
H42 H 0.54370 0.19400 -0.00330
Co2* Co 0.79658(7) -0.29679(4) 0.03750(3)
Co2** Co 0.79658(7) 0.70321(4) 0.03750(3)
Co2A Co 1.20342(7) 0.29679(4) 0.96250(3)
O4* O 0.6901(4) -0.1750(2) 1.05788(18)
O6* O 0.7370(3) -0.4143(2) 1.12071(17)
O8A O 0.9943(4) -0.2892(2) 1.08284(17)
#END
