
#######################################################################
#
#                 Cambridge Crystallographic Data Centre
#                                CCDC
#
#######################################################################
#
# If this CIF has been generated from an entry in the Cambridge
# Structural Database, then it will include bibliographic, chemical,
# crystal, experimental, refinement or atomic coordinate data resulting
# from the CCDC's data processing and validation procedures.
#
#######################################################################

data_CSD_CIF_MIJHOD
_audit_creation_date 2007-12-05
_audit_creation_method CSD-ConQuest-V1
_database_code_CSD MIJHOD
_database_code_depnum_ccdc_archive 'CCDC 635744'
_chemical_formula_sum 'C24 H32 Mg3 N2 O22'
_chemical_formula_moiety
;
(C20 H12 Mg3 O20 2-)n,2n(C2 H8 N1 1+),2n(H2 O1)
;
_journal_coden_Cambridge 1295
_journal_volume 10
_journal_year 2007
_journal_page_first 876
_journal_name_full 'Inorg.Chem.Commun. '
loop_
_publ_author_name
"Dao-Jun Zhang"
"Tian-You Song"
"Ping Zhang"
"Jing Shi"
"Ying Wang"
"Li Wang"
"Kui-Rong Ma"
"Wei-Rong Yin"
"Jie Zhao"
"Yong Fan"
"Jia-Ning Xu"
_chemical_name_systematic
;
catena-(bis(\m~5~-1,2,4,5-benzenetetracarboxylato)-tetra-aqua-tri-magnesium 
bis(dimethylammonium) dihydrate)
;
_cell_volume   3096.438
_exptl_crystal_colour 'colorless'
_exptl_crystal_density_diffrn 1.629
_exptl_special_details
;
photoluminescent

;
_exptl_crystal_description 'plate'
_diffrn_ambient_temperature 273
#These two values have been output from a single CSD field.
_refine_ls_R_factor_gt 0.0558
_refine_ls_wR_factor_gt 0.0558
_symmetry_cell_setting orthorhombic
_symmetry_space_group_name_H-M 'P b c n'
_symmetry_Int_Tables_number 60
loop_
_symmetry_equiv_pos_site_id
_symmetry_equiv_pos_as_xyz
1 x,y,z
2 1/2-x,1/2-y,1/2+z
3 -x,y,1/2-z
4 1/2+x,1/2-y,-z
5 -x,-y,-z
6 -1/2+x,-1/2+y,-1/2-z
7 x,-y,-1/2+z
8 -1/2-x,-1/2+y,z
_cell_length_a 18.8184(15)
_cell_length_b 9.4843(8)
_cell_length_c 17.3490(14)
_cell_angle_alpha 90
_cell_angle_beta 90
_cell_angle_gamma 90
_cell_formula_units_Z 4
loop_
_atom_type_symbol
_atom_type_radius_bond
C 0.68
H 0.23
Mg 1.10
N 0.68
O 0.68
loop_
_atom_site_label
_atom_site_type_symbol
_atom_site_fract_x
_atom_site_fract_y
_atom_site_fract_z
Mg1 Mg 0.25519(4) 0.26214(8) 0.30410(4)
Mg2 Mg 0.00000 0.07076(11) 0.25000
C1 C 0.15530(11) 0.3270(2) 0.12939(11)
C2 C 0.13021(12) 0.2719(2) 0.06019(12)
C3 C 0.15687(11) 0.3137(2) -0.01094(12)
C4 C 0.20973(11) 0.4174(2) -0.01307(12)
C5 C 0.23442(13) 0.4750(2) 0.05621(12)
C6 C 0.20901(11) 0.4290(2) 0.12728(12)
C7 C 0.24189(11) 0.4948(2) 0.19884(11)
C8 C 0.12174(12) 0.2744(2) 0.20313(12)
C9 C 0.12379(12) 0.2484(2) -0.08216(13)
C10 C 0.24360(11) 0.4714(2) -0.08673(12)
C11 C 0.0902(3) 0.2526(7) 0.5124(3)
H1 H 0.10450 0.32910 0.54520
H2 H 0.12150 0.17400 0.52010
H3 H 0.04250 0.22530 0.52490
C12 C 0.0470(2) 0.4107(4) 0.4103(3)
H4 H -0.00140 0.37890 0.41240
H5 H 0.05810 0.44060 0.35880
H6 H 0.05320 0.48840 0.44510
N1 N 0.09350(18) 0.2975(4) 0.4321(2)
H7 H 0.12170 0.25820 0.39950
O1 O 0.15421(8) 0.29130(18) 0.26554(9)
O2 O 0.06211(9) 0.2166(2) 0.19680(9)
O3 O 0.07130(12) 0.1711(3) -0.07167(11)
O4 O 0.14909(8) 0.27645(18) -0.14721(9)
O5 O 0.28609(8) 0.39157(16) -0.12112(9)
O6 O 0.22916(9) 0.59591(17) -0.10537(9)
O7 O 0.22080(9) 0.61501(17) 0.21697(9)
O8 O 0.28992(8) 0.42518(16) 0.23241(9)
O9 O 0.06186(11) -0.0823(2) 0.19068(14)
O10 O -0.07135(9) 0.0521(2) 0.15961(11)
O11 O 0.56550(18) 0.8715(4) 0.7885(3)
H8 H 0.0924(14) 0.201(3) 0.0622(13)
H9 H 0.2709(14) 0.544(3) 0.0542(13)
Mg1B Mg -0.25519(4) 0.26214(8) 0.19590(4)
Mg1A Mg 0.24481(4) 0.23786(8) -0.19590(4)
Mg1F Mg 0.25519(4) 0.73786(8) -0.19590(4)
Mg1G Mg 0.24481(4) 0.76214(8) 0.30410(4)
Mg1C Mg -0.24481(4) 0.23786(8) 0.69590(4)
Mg1D Mg -0.25519(4) 0.73786(8) 0.69590(4)
Mg1E Mg -0.24481(4) 0.76214(8) 0.19590(4)
C1B C -0.15530(11) 0.3270(2) 0.37061(11)
C2B C -0.13021(12) 0.2719(2) 0.43981(12)
C3B C -0.15687(11) 0.3137(2) 0.51094(12)
C4B C -0.20973(11) 0.4174(2) 0.51307(12)
C5B C -0.23442(13) 0.4750(2) 0.44379(12)
C6B C -0.20901(11) 0.4290(2) 0.37272(12)
C7B C -0.24189(11) 0.4948(2) 0.30116(11)
C8B C -0.12174(12) 0.2744(2) 0.29687(12)
C9B C -0.12379(12) 0.2484(2) 0.58216(13)
C10B C -0.24360(11) 0.4714(2) 0.58673(12)
O1B O -0.15421(8) 0.29130(18) 0.23446(9)
O2B O -0.06211(9) 0.2166(2) 0.30320(9)
O3B O -0.07130(12) 0.1711(3) 0.57167(11)
O4B O -0.14909(8) 0.27645(18) 0.64721(9)
O4A O 0.35091(8) 0.22355(18) 0.35279(9)
O4C O -0.35091(8) 0.22355(18) 0.14721(9)
O5B O -0.28609(8) 0.39157(16) 0.62112(9)
O5A O 0.21391(8) 0.10843(16) 0.37888(9)
O5C O -0.21391(8) 0.10843(16) 0.12112(9)
O6B O -0.22916(9) 0.59591(17) 0.60537(9)
O6F O 0.22916(9) 0.40409(17) 0.39463(9)
O6D O -0.22916(9) 0.40409(17) 0.10537(9)
O7B O -0.22080(9) 0.61501(17) 0.28303(9)
O7G O 0.27920(9) 0.11501(17) 0.21697(9)
O7E O -0.27920(9) 0.11501(17) 0.28303(9)
O8B O -0.28992(8) 0.42518(16) 0.26759(9)
O9B O -0.06186(11) -0.0823(2) 0.30932(14)
O10B O 0.07135(9) 0.0521(2) 0.34039(11)
H8B H -0.0924(14) 0.201(3) 0.4378(13)
H9B H -0.2709(14) 0.544(3) 0.4458(13)
#END
