
#######################################################################
#
#                 Cambridge Crystallographic Data Centre
#                                CCDC
#
#######################################################################
#
# If this CIF has been generated from an entry in the Cambridge
# Structural Database, then it will include bibliographic, chemical,
# crystal, experimental, refinement or atomic coordinate data resulting
# from the CCDC's data processing and validation procedures.
#
#######################################################################

data_CSD_CIF_MIKVOR
_audit_creation_date 2002-06-11
_audit_creation_method CSD-ConQuest-V1
_database_code_CSD MIKVOR
_chemical_formula_sum 'C64 H50 Cr2 Mn2 N2 O24 P2'
_chemical_formula_moiety
;
(C26 H25 N1 P1 1+)2n,n(C12 Cr2 Mn2 O24 2-)
;
_journal_coden_Cambridge 1096
_journal_volume 13
_journal_year 2001
_journal_page_first 441
_journal_name_full 'Chem.Mater. '
loop_
_publ_author_name
"P.G.Lacroix"
"I.Malfant"
"S.Benard"
"Pei Yu"
"E.Riviere"
"K.Nakatani"
_chemical_name_systematic
;
catena-(bis((4-(Dimethylamino)phenyl)triphenylphosphonium) 
hexakis(\m~2~-oxalato-O,O',O'',O''')-di-chromium(iii)-di-manganese(ii))
;
_cell_volume   3210.143
_exptl_crystal_density_diffrn 1.558
_exptl_crystal_description 'diamond'
_diffrn_ambient_temperature 160
#These two values have been output from a single CSD field.
_refine_ls_R_factor_gt 0.072
_refine_ls_wR_factor_gt 0.072
_symmetry_cell_setting monoclinic
_symmetry_space_group_name_H-M 'P 21'
_symmetry_Int_Tables_number 4
loop_
_symmetry_equiv_pos_site_id
_symmetry_equiv_pos_as_xyz
1 x,y,z
2 -x,1/2+y,-z
_cell_length_a 13.954(2)
_cell_length_b 16.297(2)
_cell_length_c 14.303(2)
_cell_angle_alpha 90
_cell_angle_beta 99.27(1)
_cell_angle_gamma 90
_cell_formula_units_Z 2
loop_
_atom_type_symbol
_atom_type_radius_bond
C 0.68
H 0.23
Cr 1.35
Mn 1.35
N 0.68
O 0.68
P 1.05
loop_
_atom_site_label
_atom_site_type_symbol
_atom_site_fract_x
_atom_site_fract_y
_atom_site_fract_z
Mn1 Mn 0.3713(3) 0.2787(2) 0.3667(3)
Mn2 Mn 0.1020(3) -0.1927(2) 0.1357(3)
Cr1 Cr 0.3993(3) -0.0499(2) 0.3631(3)
Cr2 Cr 0.1297(3) 0.4780(2) 0.1348(3)
O1 O 0.4187(13) 0.0465(10) 0.2811(11)
O2 O 0.3926(13) 0.0443(10) 0.4589(10)
O3 O 0.3544(11) 0.1743(9) 0.4545(13)
O4 O 0.3951(12) 0.1822(10) 0.2730(12)
O5 O 0.3586(12) 0.3617(10) 0.4719(12)
O6 O 0.2273(12) 0.2908(10) 0.3147(12)
O7 O 0.3783(13) 0.3786(10) 0.2792(12)
O8 O 0.5162(10) 0.2898(10) 0.4191(12)
O9 O 0.1244(11) 0.3823(10) 0.2315(13)
O10 O 0.2766(12) 0.4636(11) 0.1876(12)
O11 O 0.1382(13) 0.5731(10) 0.0496(11)
O12 O 0.6093(11) 0.3624(10) 0.5337(13)
O13 O 0.2443(11) -0.0468(10) 0.3325(11)
O14 O 0.4581(12) 0.4288(10) 0.5926(13)
O15 O 0.3737(11) -0.1300(8) 0.2478(13)
O16 O 0.1243(12) -0.1046(10) 0.2351(14)
O17 O 0.0838(13) 0.7079(12) 0.2262(13)
O18 O 0.2474(10) -0.2039(10) 0.1689(12)
O19 O 0.1022(13) 0.5690(11) 0.2200(12)
O20 O 0.0432(13) 0.3354(9) -0.0937(13)
O21 O -0.1155(13) 0.3987(9) -0.0354(13)
O22 O -0.0160(13) 0.4673(10) 0.0770(12)
O23 O 0.1387(12) 0.4027(9) 0.0179(13)
O24 O 0.1088(9) 0.7123(9) 0.0390(11)
C1 C 0.4004(19) 0.1123(19) 0.3113(19)
C2 C 0.3818(14) 0.1073(13) 0.4186(16)
C3 C 0.2088(18) 0.3519(16) 0.265(2)
C4 C 0.2969(17) 0.4013(13) 0.2422(15)
C5 C 0.5298(15) 0.3354(14) 0.4857(17)
C6 C 0.4422(18) 0.3806(14) 0.5267(16)
C7 C 0.2115(19) -0.1000(14) 0.2685(16)
C8 C 0.2838(16) -0.1542(14) 0.2222(17)
C9 C 0.0994(17) 0.6404(16) 0.1828(19)
C10 C 0.061(2) 0.3820(14) -0.022(2)
C11 C -0.0352(19) 0.4154(14) 0.0056(17)
C12 C 0.1162(17) 0.6378(13) 0.0855(19)
P1 P -0.0491(5) -0.0058(4) 0.4573(5)
N1 N 0.3140(17) -0.0224(15) 0.7391(17)
C13 C -0.1424(14) 0.0564(13) 0.4956(17)
C14 C -0.239(2) 0.0210(17) 0.480(2)
C15 C -0.3060(19) 0.076(2) 0.508(3)
C16 C -0.2911(17) 0.1494(15) 0.5411(19)
C17 C -0.1947(17) 0.1824(11) 0.5594(15)
C18 C -0.1258(17) 0.1324(12) 0.5345(16)
C19 C -0.0899(16) -0.1100(14) 0.433(2)
C20 C -0.0826(19) -0.1426(1) 0.342(2)
C21 C -0.103(2) -0.2365(14) 0.332(2)
C22 C -0.142(2) -0.2725(19) 0.401(2)
C23 C -0.1416(17) -0.2346(15) 0.4918(18)
C24 C -0.117(2) -0.1549(16) 0.500(2)
C25 C -0.0245(16) 0.0396(15) 0.3488(18)
C26 C -0.0967(19) 0.0371(15) 0.272(2)
C27 C -0.093(2) 0.082(2) 0.189(2)
C28 C -0.001(3) 0.1167(16) 0.185(2)
C29 C 0.071(2) 0.1215(17) 0.257(2)
C30 C 0.0505(18) 0.0771(15) 0.3353(17)
C31 C 0.0522(19) -0.0065(15) 0.5492(19)
C32 C 0.0582(18) 0.0156(12) 0.6407(18)
C33 C 0.1402(19) 0.0152(14) 0.705(2)
C34 C 0.2297(18) -0.0189(15) 0.6764(19)
C35 C 0.3051(15) 0.0110(17) 0.8432(16)
C36 C 0.4004(15) -0.0575(16) 0.720(2)
C37 C 0.2265(17) -0.0401(15) 0.5819(18)
C38 C 0.1404(19) -0.0361(17) 0.523(2)
P2 P 0.4503(5) 0.2619(4) -0.0435(5)
N2 N 0.8027(18) 0.2774(16) 0.2454(19)
C39 C 0.4646(18) 0.2111(16) -0.1510(19)
C40 C 0.3962(17) 0.2136(16) -0.2266(18)
C41 C 0.4133(19) 0.1832(16) -0.3174(19)
C42 C 0.4964(14) 0.1414(14) -0.3240(17)
C43 C 0.5669(16) 0.1388(13) -0.2446(19)
C44 C 0.5618(12) 0.1719(9) -0.1513(14)
C45 C 0.3538(15) 0.2056(12) -0.0010(14)
C46 C 0.2590(16) 0.2259(12) -0.0173(16)
C47 C 0.1805(19) 0.1789(14) 0.005(2)
C48 C 0.218(2) 0.0968(14) 0.045(2)
C49 C 0.3080(18) 0.0777(14) 0.0609(18)
C50 C 0.3840(19) 0.1262(14) 0.0360(19)
C51 C 0.4139(17) 0.3649(13) -0.0715(16)
C52 C 0.4188(18) 0.4068(16) -0.151(2)
C53 C 0.386(2) 0.4797(17) -0.167(2)
C54 C 0.3614(19) 0.5296(17) -0.096(2)
C55 C 0.3495(19) 0.4949(14) -0.017(2)
C56 C 0.3787(18) 0.4117(13) 0.0067(16)
C57 C 0.5560(15) 0.2627(15) 0.0395(15)
C58 C 0.5572(18) 0.2374(15) 0.1343(16)
C59 C 0.637(2) 0.2453(16) 0.2018(19)
C60 C 0.7258(19) 0.2714(14) 0.1816(19)
C61 C 0.824(2) 0.2492(17) 0.332(2)
C62 C 0.895(2) 0.3072(18) 0.214(2)
C63 C 0.7207(18) 0.3022(14) 0.088(2)
C64 C 0.6417(16) 0.2974(14) 0.0180(19)
H1 H -0.25410 -0.03110 0.45540
H2 H -0.36970 0.05720 0.50120
H3 H -0.34310 0.18100 0.55330
H4 H -0.18080 0.23400 0.58620
H5 H -0.06220 0.15130 0.54470
H6 H -0.06680 -0.11050 0.29330
H7 H -0.08990 -0.26590 0.27950
H8 H -0.16990 -0.32410 0.39010
H9 H -0.15790 -0.26390 0.54280
H10 H -0.11920 -0.12960 0.55750
H11 H -0.15070 0.00420 0.27440
H12 H -0.14600 0.08780 0.14080
H13 H 0.00930 0.13800 0.12700
H14 H 0.12820 0.15070 0.25640
H15 H 0.10130 0.07510 0.38600
H16 H 0.00130 0.03250 0.66090
H17 H 0.14060 0.03550 0.76630
H18 H 0.36290 -0.00280 0.88630
H19 H 0.24990 -0.01380 0.86430
H20 H 0.29710 0.06950 0.84120
H21 H 0.39020 -0.11490 0.70620
H22 H 0.45030 -0.05110 0.77380
H23 H 0.41970 -0.03070 0.66610
H24 H 0.28240 -0.05670 0.55960
H25 H 0.13860 -0.05370 0.46060
H26 H 0.33580 0.23540 -0.22110
H27 H 0.36750 0.19220 -0.37130
H28 H 0.50530 0.11560 -0.38000
H29 H 0.62460 0.11270 -0.25160
H30 H 0.61140 0.16920 -0.09950
H31 H 0.24340 0.27620 -0.04660
H32 H 0.11610 0.19580 -0.00300
H33 H 0.17310 0.05830 0.05950
H34 H 0.32480 0.02790 0.09090
H35 H 0.44800 0.10820 0.04300
H36 H 0.44790 0.38150 -0.19760
H37 H 0.37790 0.49990 -0.22830
H38 H 0.35370 0.58590 -0.10520
H39 H 0.32080 0.52510 0.02630
H40 H 0.37600 0.38880 0.06580
H41 H 0.50140 0.21450 0.15090
H42 H 0.63170 0.23270 0.26420
H43 H 0.78780 0.27900 0.37220
H44 H 0.89220 0.25590 0.35360
H45 H 0.80750 0.19210 0.33230
H46 H 0.90960 0.27300 0.16400
H47 H 0.94690 0.30490 0.26680
H48 H 0.88590 0.36280 0.19220
H49 H 0.77580 0.32790 0.07350
H50 H 0.64490 0.31670 -0.04260
O17* O 0.0838(13) -0.2921(12) 0.2262(13)
O20A O -0.0432(13) -0.1646(9) 0.0937(13)
O21A O 0.1155(13) -0.1013(9) 0.0354(13)
O24* O 0.1088(9) -0.2877(9) 0.0390(11)
O12A O 0.3907(11) -0.1376(10) 0.4663(13)
O14A O 0.5419(12) -0.0712(10) 0.4074(13)
Cr1A Cr 0.6007(3) 0.4501(2) 0.6369(3)
Mn2* Mn 0.1020(3) 0.8073(2) 0.1357(3)
Mn2A Mn -0.1020(3) 0.3073(2) -0.1357(3)
#END
