
#######################################################################
#
#                 Cambridge Crystallographic Data Centre
#                                CCDC
#
#######################################################################
#
# If this CIF has been generated from an entry in the Cambridge
# Structural Database, then it will include bibliographic, chemical,
# crystal, experimental, refinement or atomic coordinate data resulting
# from the CCDC's data processing and validation procedures.
#
#######################################################################

data_CSD_CIF_MILQUV
_audit_creation_date 2013-10-22
_audit_creation_method CSD-ConQuest-V1
_database_code_CSD MILQUV
_database_code_depnum_ccdc_archive 'CCDC 947844'
_chemical_formula_sum 'C72 H90 Cu3 Mo24 N36 O89 P2'
_chemical_formula_moiety
;
(C24 H24 Cu1 N12 2+)3n,9n(H2 O1),2n(Mo12 O40 P1 3-)
;
_journal_coden_Cambridge 1295
_journal_volume 37
_journal_year 2013
_journal_page_first 174
_journal_name_full 'Inorg.Chem.Commun. '
loop_
_publ_author_name
"Nan Wu"
"Ying Qin"
"Xin-Long Wang"
"Chao Qin"
"En-Bo Wang"
_chemical_name_systematic
;
catena-(tris(bis(\m~2~-1,4-bis(1,2,4-Triazol-1-ylmethyl)benzene)-copper(ii)) 
bis((\m~12~-phosphato)-tetracosakis(\m~2~-oxo)-dodecaoxo-dodeca-molybdenum) 
nonahydrate)
;
_cell_volume  11082.586
_exptl_crystal_colour 'blue'
_exptl_crystal_density_diffrn 2.445
_exptl_crystal_description 'block'
_diffrn_ambient_temperature 293
#These two values have been output from a single CSD field.
_refine_ls_R_factor_gt 0.0338
_refine_ls_wR_factor_gt 0.0338
_symmetry_cell_setting rhombohedral
_symmetry_space_group_name_H-M 'R -3'
_symmetry_Int_Tables_number 148
loop_
_symmetry_equiv_pos_site_id
_symmetry_equiv_pos_as_xyz
1 x,y,z
2 -y,x-y,z
3 -x+y,-x,z
4 2/3+x,1/3+y,1/3+z
5 2/3-y,1/3+x-y,1/3+z
6 2/3-x+y,1/3-x,1/3+z
7 1/3+x,2/3+y,2/3+z
8 1/3-y,2/3+x-y,2/3+z
9 1/3-x+y,2/3-x,2/3+z
10 -x,-y,-z
11 y,-x+y,-z
12 x-y,x,-z
13 -2/3-x,-1/3-y,-1/3-z
14 -2/3+y,-1/3-x+y,-1/3-z
15 -2/3+x-y,-1/3+x,-1/3-z
16 -1/3-x,-2/3-y,-2/3-z
17 -1/3+y,-2/3-x+y,-2/3-z
18 -1/3+x-y,-2/3+x,-2/3-z
_cell_length_a 18.531(5)
_cell_length_b 18.531(5)
_cell_length_c 37.266(5)
_cell_angle_alpha 90
_cell_angle_beta 90
_cell_angle_gamma 120
_cell_formula_units_Z 3
loop_
_atom_type_symbol
_atom_type_radius_bond
C 0.68
H 0.23
Cu 1.32
Mo 1.54
N 0.68
O 0.68
P 1.05
loop_
_atom_site_label
_atom_site_type_symbol
_atom_site_fract_x
_atom_site_fract_y
_atom_site_fract_z
Mo1 Mo 0.3524(6) 0.7816(6) 0.4519(3)
Mo2 Mo 0.5496(6) 0.7317(6) 0.3671(3)
Mo3 Mo 0.4919(6) 0.8793(6) 0.3745(3)
Mo4 Mo 0.4578(6) 0.7708(6) 0.2964(3)
P1 P 0.33330 0.66670 0.3728(14)
O1 O 0.33330 0.66670 0.414(4)
O2 O 0.294(5) 0.801(5) 0.418(2)
O3 O 0.420(4) 0.732(4) 0.359(2)
O4 O 0.546(5) 0.753(5) 0.320(2)
O5 O 0.502(5) 0.869(5) 0.322(2)
O6 O 0.571(5) 0.843(5) 0.379(2)
O7 O 0.385(5) 0.869(5) 0.363(2)
O8 O 0.264(5) 0.687(5) 0.471(2)
O9 O 0.450(5) 0.843(5) 0.420(2)
O10 O 0.353(5) 0.755(5) 0.291(2)
O11 O 0.501(6) 0.802(6) 0.256(3)
O12 O 0.645(5) 0.744(5) 0.373(3)
O13 O 0.552(5) 0.983(5) 0.379(3)
O14 O 0.379(6) 0.862(5) 0.484(3)
Cu1 Cu 0.50000 1.00000 0.50000
C1 C 0.858(8) 1.223(8) 0.390(4)
C2 C 0.799(8) 1.160(9) 0.369(4)
H1 H 0.78400 1.17340 0.34740
C3 C 0.761(8) 1.078(9) 0.380(4)
H2 H 0.72130 1.03680 0.36540
C4 C 0.780(8) 1.058(8) 0.413(4)
C5 C 0.839(9) 1.121(9) 0.434(5)
H3 H 0.85330 1.10790 0.45600
C6 C 0.877(9) 1.202(9) 0.423(4)
H4 H 0.91680 1.24310 0.43770
C7 C 0.904(9) 1.312(9) 0.377(4)
H5 H 0.95960 1.32620 0.36960
H6 H 0.87510 1.31780 0.35680
C8 C 0.738(8) 0.969(9) 0.426(5)
H7 H 0.71480 0.93120 0.40530
H8 H 0.77810 0.95800 0.43730
C9 C 0.969(8) 1.409(8) 0.430(4)
H9 H 1.01840 1.40870 0.43070
C10 C 0.871(9) 1.433(10) 0.440(4)
H10 H 0.84010 1.45410 0.45040
C11 C 0.580(8) 0.893(8) 0.491(4)
H11 H 0.54620 0.85460 0.50820
C12 C 0.634(8) 0.998(8) 0.456(4)
H12 H 0.64730 1.04690 0.44450
N1 N 0.946(7) 1.449(6) 0.452(3)
N2 N 0.847(9) 1.384(9) 0.412(4)
N3 N 0.911(7) 1.371(7) 0.405(3)
N4 N 0.576(6) 0.962(6) 0.482(3)
N5 N 0.637(7) 0.885(7) 0.473(4)
N6 N 0.671(6) 0.953(6) 0.451(3)
O15 O 0.686(10) 0.754(10) 0.463(5)
O16 O 0.481(18) 0.804(18) 0.173(9)
O3A O 0.268(4) 0.688(4) 0.359(2)
O3B O 0.312(4) 0.580(4) 0.359(2)
Mo1A Mo 0.2184(6) 0.5708(6) 0.4519(3)
Mo2A Mo 0.2683(6) 0.8179(6) 0.3671(3)
Mo3A Mo 0.1207(6) 0.6126(6) 0.3745(3)
Mo4A Mo 0.2292(6) 0.6870(6) 0.2964(3)
O2A O 0.199(5) 0.493(5) 0.418(2)
O4A O 0.247(5) 0.793(5) 0.320(2)
O5A O 0.131(5) 0.633(5) 0.322(2)
O6A O 0.157(5) 0.728(5) 0.379(2)
O7A O 0.131(5) 0.516(5) 0.363(2)
O8A O 0.313(5) 0.577(5) 0.471(2)
O9A O 0.157(5) 0.607(5) 0.420(2)
O10A O 0.245(5) 0.598(5) 0.291(2)
O11A O 0.198(6) 0.699(6) 0.256(3)
O12A O 0.256(5) 0.901(5) 0.373(3)
O13A O 0.017(5) 0.569(5) 0.379(3)
O14A O 0.138(6) 0.517(5) 0.484(3)
Mo1B Mo 0.4292(6) 0.6476(6) 0.4519(3)
Mo2B Mo 0.1821(6) 0.4504(6) 0.3671(3)
Mo3B Mo 0.3874(6) 0.5081(6) 0.3745(3)
Mo4B Mo 0.3130(6) 0.5422(6) 0.2964(3)
O2B O 0.507(5) 0.706(5) 0.418(2)
O4B O 0.207(5) 0.454(5) 0.320(2)
O5B O 0.367(5) 0.498(5) 0.322(2)
O6B O 0.272(5) 0.429(5) 0.379(2)
O7B O 0.484(5) 0.615(5) 0.363(2)
O8B O 0.423(5) 0.736(5) 0.471(2)
O9B O 0.393(5) 0.550(5) 0.420(2)
O10B O 0.402(5) 0.647(5) 0.291(2)
O11B O 0.301(6) 0.499(6) 0.256(3)
O12B O 0.099(5) 0.355(5) 0.373(3)
O13B O 0.431(5) 0.448(5) 0.379(3)
O14B O 0.483(6) 0.621(5) 0.484(3)
C1B C 0.365(8) 1.142(8) 0.390(4)
C2B C 0.361(8) 1.201(9) 0.369(4)
H1B H 0.38940 1.21600 0.34740
C3B C 0.317(8) 1.239(9) 0.380(4)
H2B H 0.31550 1.27870 0.36540
C4B C 0.278(8) 1.220(8) 0.413(4)
C5B C 0.282(9) 1.161(9) 0.434(5)
H3B H 0.25460 1.14670 0.45600
C6B C 0.325(9) 1.123(9) 0.423(4)
H4B H 0.32630 1.08320 0.43770
C7B C 0.408(9) 1.096(9) 0.377(4)
H5B H 0.36660 1.04040 0.36960
H6B H 0.44270 1.12490 0.35680
C8B C 0.231(8) 1.262(9) 0.426(5)
H7B H 0.21640 1.28520 0.40530
H8B H 0.17990 1.22190 0.43730
C9B C 0.440(8) 1.031(8) 0.430(4)
H9B H 0.39030 0.98160 0.43070
C10B C 0.562(9) 1.129(10) 0.440(4)
H10B H 0.61400 1.15990 0.45040
C11B C 0.313(8) 1.420(8) 0.491(4)
H11B H 0.30840 1.45380 0.50820
C12B C 0.364(8) 1.366(8) 0.456(4)
H12B H 0.39960 1.35270 0.44450
N1B N 0.503(7) 1.054(6) 0.452(3)
N2B N 0.537(9) 1.153(9) 0.412(4)
N3B N 0.460(7) 1.089(7) 0.405(3)
N4B N 0.386(6) 1.424(6) 0.482(3)
N5B N 0.248(7) 1.363(7) 0.473(4)
N6B N 0.282(6) 1.329(6) 0.451(3)
Cu1A Cu 1.00000 1.50000 0.50000
Cu1B Cu 0.50000 1.50000 0.50000
N1K N 0.497(7) 0.946(6) 0.548(3)
N4I N 0.424(6) 1.038(6) 0.518(3)
#END
