
#######################################################################
#
#                 Cambridge Crystallographic Data Centre
#                                CCDC
#
#######################################################################
#
# If this CIF has been generated from an entry in the Cambridge
# Structural Database, then it will include bibliographic, chemical,
# crystal, experimental, refinement or atomic coordinate data resulting
# from the CCDC's data processing and validation procedures.
#
#######################################################################

data_CSD_CIF_MILRAC
_audit_creation_date 2013-10-22
_audit_creation_method CSD-ConQuest-V1
_database_code_CSD MILRAC
_database_code_depnum_ccdc_archive 'CCDC 947845'
_chemical_formula_sum 'C72 H90 Cu3 N36 O89 P2 W24'
_chemical_formula_moiety
;
(C24 H24 Cu1 N12 2+)3n,9n(H2 O1),2n(O40 P1 W12 3-)
;
_journal_coden_Cambridge 1295
_journal_volume 37
_journal_year 2013
_journal_page_first 174
_journal_name_full 'Inorg.Chem.Commun. '
loop_
_publ_author_name
"Nan Wu"
"Ying Qin"
"Xin-Long Wang"
"Chao Qin"
"En-Bo Wang"
_chemical_name_systematic
;
catena-(tris(bis(\m~2~-1,4-bis(1,2,4-Triazol-1-ylmethyl)benzene)-copper(ii)) 
bis((\m~12~-phosphato)-tetracosakis(\m~2~-oxo)-dodecaoxo-dodeca-tungsten) 
nonahydrate)
;
_cell_volume  11253.082
_exptl_crystal_colour 'blue'
_exptl_crystal_density_diffrn 3.342
_exptl_crystal_description 'block'
_diffrn_ambient_temperature 296
#These two values have been output from a single CSD field.
_refine_ls_R_factor_gt 0.029
_refine_ls_wR_factor_gt 0.029
_symmetry_cell_setting rhombohedral
_symmetry_space_group_name_H-M 'R -3'
_symmetry_Int_Tables_number 148
loop_
_symmetry_equiv_pos_site_id
_symmetry_equiv_pos_as_xyz
1 x,y,z
2 -y,x-y,z
3 -x+y,-x,z
4 2/3+x,1/3+y,1/3+z
5 2/3-y,1/3+x-y,1/3+z
6 2/3-x+y,1/3-x,1/3+z
7 1/3+x,2/3+y,2/3+z
8 1/3-y,2/3+x-y,2/3+z
9 1/3-x+y,2/3-x,2/3+z
10 -x,-y,-z
11 y,-x+y,-z
12 x-y,x,-z
13 -2/3-x,-1/3-y,-1/3-z
14 -2/3+y,-1/3-x+y,-1/3-z
15 -2/3+x-y,-1/3+x,-1/3-z
16 -1/3-x,-2/3-y,-2/3-z
17 -1/3+y,-2/3-x+y,-2/3-z
18 -1/3+x-y,-2/3+x,-2/3-z
_cell_length_a 18.674(5)
_cell_length_b 18.674(5)
_cell_length_c 37.262(5)
_cell_angle_alpha 90
_cell_angle_beta 90
_cell_angle_gamma 120
_cell_formula_units_Z 3
loop_
_atom_type_symbol
_atom_type_radius_bond
C 0.68
H 0.23
Cu 1.32
N 0.68
O 0.68
P 1.05
W 1.62
loop_
_atom_site_label
_atom_site_type_symbol
_atom_site_fract_x
_atom_site_fract_y
_atom_site_fract_z
P1 P 1.00000 1.00000 0.20611(13)
W1 W 1.02703(3) 0.91030(2) 0.285243(12)
W2 W 0.93252(3) 0.78457(3) 0.203720(13)
W3 W 1.15526(3) 0.94236(3) 0.204878(12)
W4 W 0.90285(3) 0.87419(2) 0.129599(13)
O1 O 1.0503(4) 0.8556(4) 0.3171(2)
O2 O 0.8707(4) 0.8322(4) 0.0882(2)
O3 O 1.2155(4) 0.8996(4) 0.2099(2)
O4 O 1.00000 1.00000 0.2473(3)
O5 O 0.9611(4) 0.8286(4) 0.2519(2)
O6 O 0.8239(4) 0.7671(4) 0.2124(2)
O7 O 0.9118(4) 0.9789(4) 0.1250(2)
O8 O 0.9184(4) 0.6873(4) 0.2091(2)
O9 O 0.8015(4) 0.8347(4) 0.15465(19)
O10 O 0.9142(4) 0.7886(4) 0.1541(2)
O11 O 1.1154(4) 0.9392(4) 0.25222(19)
O12 O 0.9323(4) 0.9107(4) 0.3037(2)
O13 O 0.9356(4) 0.9145(4) 0.19233(19)
O14 O 1.0489(4) 0.8496(4) 0.1958(2)
Cu1 Cu 1.16670 0.83330 0.33330
C1 C 0.9810(6) 0.2285(6) 0.3240(3)
H1 H 0.97630 0.19150 0.34180
C2 C 1.0329(6) 0.3321(7) 0.2892(3)
H2 H 1.06960 0.38080 0.27740
C3 C 1.1036(7) 0.7409(7) 0.2633(3)
H3 H 1.05340 0.73970 0.26500
C4 C 1.2244(8) 0.7676(8) 0.2724(4)
H4 H 1.27690 0.78980 0.28240
C5 C 1.0690(7) 0.6445(7) 0.2108(3)
H5 H 1.10200 0.65060 0.18980
H6 H 1.02610 0.65680 0.20390
C6 C 1.0301(7) 0.5582(7) 0.2240(3)
C7 C 1.0316(8) 0.4969(7) 0.2032(3)
H7 H 1.06130 0.51140 0.18190
C8 C 0.9896(8) 0.4148(8) 0.2138(4)
H8 H 0.99130 0.37500 0.19950
C9 C 0.9457(7) 0.3919(7) 0.2451(4)
C10 C 0.9462(8) 0.4522(8) 0.2657(4)
H9 H 0.91890 0.43790 0.28770
C11 C 0.9861(8) 0.5338(8) 0.2551(4)
H10 H 0.98290 0.57280 0.26940
C12 C 0.9020(7) 0.3034(7) 0.2574(4)
H11 H 0.84980 0.29020 0.26840
H12 H 0.89040 0.26730 0.23680
N1 N 1.1651(6) 0.7806(5) 0.2855(3)
N2 N 1.2005(7) 0.7194(7) 0.2433(3)
N3 N 1.1213(6) 0.7032(6) 0.2384(3)
N4 N 1.0535(5) 0.2962(5) 0.3144(2)
N5 N 0.9175(6) 0.2217(6) 0.3050(3)
N6 N 0.9524(5) 0.2888(5) 0.2832(3)
O15 O 0.9115(7) 0.6498(7) 0.2978(3)
O16 O 0.803(1) 0.4848(10) 0.3257(5)
O13A O 1.0855(4) 1.0211(4) 0.19233(19)
O13B O 0.9789(4) 1.0644(4) 0.19233(19)
W1A W 1.08970(3) 1.11673(2) 0.285243(12)
W2A W 1.21543(3) 1.14795(3) 0.203720(13)
W3A W 1.05764(3) 1.21290(3) 0.204878(12)
W4A W 1.12581(3) 1.02866(2) 0.129599(13)
O1A O 1.1444(4) 1.1947(4) 0.3171(2)
O2A O 1.1678(4) 1.0385(4) 0.0882(2)
O3A O 1.1004(4) 1.3159(4) 0.2099(2)
O5A O 1.1714(4) 1.1325(4) 0.2519(2)
O6A O 1.2329(4) 1.0568(4) 0.2124(2)
O7A O 1.0211(4) 0.9329(4) 0.1250(2)
O8A O 1.3127(4) 1.2311(4) 0.2091(2)
O9A O 1.1653(4) 0.9668(4) 0.15465(19)
O10A O 1.2114(4) 1.1256(4) 0.1541(2)
O11A O 1.0608(4) 1.1762(4) 0.25222(19)
O12A O 1.0893(4) 1.0216(4) 0.3037(2)
O14A O 1.1504(4) 1.1993(4) 0.1958(2)
W1B W 0.88327(3) 0.97297(2) 0.285243(12)
W2B W 0.85205(3) 1.06748(3) 0.203720(13)
W3B W 0.78710(3) 0.84474(3) 0.204878(12)
W4B W 0.97134(3) 1.09715(2) 0.129599(13)
O1B O 0.8053(4) 0.9497(4) 0.3171(2)
O2B O 0.9615(4) 1.1293(4) 0.0882(2)
O3B O 0.6841(4) 0.7845(4) 0.2099(2)
O5B O 0.8675(4) 1.0389(4) 0.2519(2)
O6B O 0.9432(4) 1.1761(4) 0.2124(2)
O7B O 1.0671(4) 1.0882(4) 0.1250(2)
O8B O 0.7689(4) 1.0816(4) 0.2091(2)
O9B O 1.0332(4) 1.1985(4) 0.15465(19)
O10B O 0.8744(4) 1.0858(4) 0.1541(2)
O11B O 0.8238(4) 0.8846(4) 0.25222(19)
O12B O 0.9784(4) 1.0677(4) 0.3037(2)
O14B O 0.8007(4) 0.9511(4) 0.1958(2)
C1L C 1.352333(600) 1.438167(600) 0.342667(300)
H1L H 1.35703 1.47517 0.32487
C2L C 1.300433(600) 1.334567(700) 0.377467(300)
H2L H 1.26373 1.28587 0.38927
C3L C 1.229733(700) 0.925767(700) 0.403367(300)
H3L H 1.27993 0.92697 0.40167
C4L C 1.108933(800) 0.899067(800) 0.394267(400)
H4L H 1.05643 0.87687 0.38427
C5L C 1.264333(700) 1.022167(700) 0.455867(300)
H5L H 1.23133 1.01607 0.47687
H6L H 1.30723 1.00987 0.46277
C6L C 1.303233(700) 1.108467(700) 0.442667(300)
C7L C 1.301733(800) 1.169767(700) 0.463467(300)
H7L H 1.27203 1.15527 0.48477
C8L C 1.343733(800) 1.251867(800) 0.452867(400)
H8L H 1.34203 1.29167 0.46717
C9L C 1.387633(700) 1.274767(700) 0.421567(400)
C10L C 1.387133(800) 1.214467(800) 0.400967(400)
H9L H 1.41443 1.22877 0.37897
C11L C 1.347233(800) 1.132867(800) 0.411567(400)
H10L H 1.35043 1.09387 0.39727
C12L C 1.431333(700) 1.363267(700) 0.409267(400)
H11L H 1.48353 1.37647 0.39827
H12L H 1.44293 1.39937 0.42987
N1L N 1.168233(600) 0.886067(500) 0.381167(300)
N2L N 1.132833(700) 0.947267(700) 0.423367(300)
N3L N 1.212033(600) 0.963467(600) 0.428267(300)
N4L N 1.279833(500) 1.370467(500) 0.352267(200)
N5L N 1.415833(600) 1.444967(600) 0.361667(300)
N6L N 1.380933(500) 1.377867(500) 0.383467(300)
Cu1A Cu 1.16670 0.33340 0.33330
Cu1A* Cu 1.16670 1.33340 0.33330
N4B N 1.2427(5) 0.9465(5) 0.3144(2)
N4N N 1.090633(500) 0.720167(500) 0.352267(200)
#END
