
#######################################################################
#
#                 Cambridge Crystallographic Data Centre
#                                CCDC
#
#######################################################################
#
# If this CIF has been generated from an entry in the Cambridge
# Structural Database, then it will include bibliographic, chemical,
# crystal, experimental, refinement or atomic coordinate data resulting
# from the CCDC's data processing and validation procedures.
#
#######################################################################

data_CSD_CIF_MINFOH
_audit_creation_date 2018-10-31
_audit_creation_method CSD-ConQuest-V1
_database_code_CSD MINFOH
_database_code_depnum_ccdc_archive 'CCDC 1843273'
_chemical_formula_sum 'C66 H70 Co3 N4 O22'
_chemical_formula_moiety
;
(C48 H32 Co3 O20 2-)n,2(C9 H17 N2 1+),2(H2 O1)
;
_journal_coden_Cambridge 1147
_journal_volume 18
_journal_year 2018
_journal_page_first 7541
_journal_name_full 'Cryst.Growth Des. '
loop_
_publ_author_name
"Ya-Min Li"
"Xue-Fei Li"
"Ying-Ying Wu"
"D.L.Collins-Wildman"
"Sheng-Min Hu"
"Ying Liu"
"Hai-Yan Li"
"Xiao-Wei Zhao"
"Lin-Yu Jin"
"Dong-Bin Dang"
_chemical_name_systematic
;
catena-[bis(3-methyl-1-pentyl-1H-imidazol-3-ium) 
tetrakis(\m-naphthalene-1,4-dicarboxylato)-bis(\m-aqua)-diaqua-tri-cobalt(ii) 
dihydrate]
;
_cell_volume   3286.428
_exptl_crystal_colour 'red'
_exptl_crystal_density_diffrn 1.463
_exptl_crystal_description 'block'
_diffrn_ambient_temperature 296
#These two values have been output from a single CSD field.
_refine_ls_R_factor_gt 0.0534
_refine_ls_wR_factor_gt 0.0534
_symmetry_cell_setting monoclinic
_symmetry_space_group_name_H-M 'P 21/c'
_symmetry_Int_Tables_number 14
loop_
_symmetry_equiv_pos_site_id
_symmetry_equiv_pos_as_xyz
1 x,y,z
2 -x,1/2+y,1/2-z
3 -x,-y,-z
4 x,-1/2-y,-1/2+z
_cell_length_a 14.641(2)
_cell_length_b 16.195(2)
_cell_length_c 15.584(2)
_cell_angle_alpha 90
_cell_angle_beta 117.203(2)
_cell_angle_gamma 90
_cell_formula_units_Z 2
loop_
_atom_type_symbol
_atom_type_radius_bond
C 0.68
H 0.23
Co 1.26
N 0.68
O 0.68
loop_
_atom_site_label
_atom_site_type_symbol
_atom_site_fract_x
_atom_site_fract_y
_atom_site_fract_z
Co1 Co 0.50000 0.50000 0.50000
Co2 Co 0.25732(3) 0.48649(2) 0.49879(2)
O1 O 0.33729(16) 0.37964(13) 0.56086(16)
O2 O 0.16541(19) 0.47096(17) 0.57445(17)
O3 O 0.48930(17) 0.38899(14) 0.55981(18)
O4 O 0.14753(17) 0.41417(15) 0.39154(16)
O5 O 0.34020(15) 0.50257(13) 0.41549(14)
H1 H 0.314(4) 0.551(4) 0.383(4)
H2 H 0.310(3) 0.460(3) 0.371(3)
O6 O 0.2273(2) 0.3833(2) 0.3038(2)
O7 O -0.2264(2) 0.1266(2) 0.1698(2)
O8 O -0.17090(19) 0.09211(15) 0.06305(18)
O9 O 0.50432(17) 0.07153(16) 0.89073(17)
O10 O 0.65128(17) 0.05540(15) 0.88268(16)
C1 C 0.0130(2) 0.3183(2) 0.1655(2)
C2 C 0.0293(3) 0.3788(2) 0.1084(3)
H3 H 0.08120 0.41760 0.13810
C3 C -0.0298(4) 0.3814(3) 0.0104(3)
H4 H -0.01830 0.42180 -0.02590
C4 C -0.1084(3) 0.3224(3) -0.0353(3)
H5 H -0.14840 0.32420 -0.10180
C5 C -0.1260(3) 0.2634(2) 0.0164(2)
H6 H -0.17820 0.22520 -0.01520
C6 C -0.0660(2) 0.2584(2) 0.1187(2)
C7 C -0.0858(2) 0.1989(2) 0.1751(2)
C8 C -0.0300(3) 0.2002(2) 0.2733(2)
H7 H -0.04360 0.16150 0.31010
C9 C 0.0473(3) 0.2591(2) 0.3194(2)
H8 H 0.08420 0.25870 0.38630
C10 C 0.0698(2) 0.3170(2) 0.2682(2)
C11 C -0.1684(3) 0.1342(2) 0.1323(2)
C12 C 0.1551(2) 0.3770(2) 0.3242(2)
C13 C 0.3974(2) 0.20665(17) 0.6237(2)
C14 C 0.3017(2) 0.1981(2) 0.5389(2)
H9 H 0.27890 0.24020 0.49330
C15 C 0.2432(3) 0.1289(2) 0.5240(3)
H10 H 0.18210 0.12360 0.46730
C16 C 0.2741(3) 0.0654(2) 0.5930(3)
H11 H 0.23270 0.01920 0.58280
C17 C 0.3654(2) 0.07157(19) 0.6753(2)
H12 H 0.38530 0.02930 0.72070
C18 C 0.4299(2) 0.14104(17) 0.6926(2)
C19 C 0.5286(2) 0.14632(17) 0.7739(2)
C20 C 0.5921(2) 0.21138(19) 0.7824(2)
H13 H 0.65860 0.21200 0.83260
C21 C 0.5582(2) 0.27706(19) 0.7164(2)
H14 H 0.60210 0.32110 0.72440
C22 C 0.4615(2) 0.27715(17) 0.6405(2)
C23 C 0.4260(2) 0.35493(17) 0.5812(2)
C24 C 0.5641(2) 0.08498(17) 0.8560(2)
O11 O -0.0200(4) 0.3936(3) 0.4574(5)
N1 N 0.6539(4) 0.8243(2) 0.7125(3)
N2 N 0.5049(4) 0.8264(3) 0.5896(3)
C25 C 0.147(1) 0.9952(5) 0.2966(7)
H15 H 0.10310 1.01000 0.23070
H16 H 0.19030 1.04110 0.32950
H17 H 0.10580 0.98080 0.32770
C26 C 0.2127(7) 0.9223(6) 0.2996(6)
H18 H 0.16750 0.87720 0.26430
H19 H 0.25150 0.93740 0.26550
C27 C 0.2822(7) 0.8929(10) 0.3916(9)
H20 H 0.30190 0.94170 0.43220
H21 H 0.24030 0.86030 0.41230
C28 C 0.3631(8) 0.8528(7) 0.4189(6)
H22 H 0.41630 0.89320 0.43010
H23 H 0.35540 0.82070 0.36350
C29 C 0.4094(5) 0.7930(5) 0.5060(4)
H24 H 0.35820 0.78160 0.52760
H25 H 0.42600 0.74120 0.48510
C30 C 0.5188(6) 0.9010(4) 0.6332(5)
H26 H 0.47240 0.94460 0.61360
C31 C 0.6120(6) 0.9001(3) 0.7099(5)
H27 H 0.64230 0.94310 0.75330
C32 C 0.7550(5) 0.7971(3) 0.7863(5)
H28 H 0.76760 0.74170 0.77240
H29 H 0.75640 0.79850 0.84850
H30 H 0.80700 0.83310 0.78630
C33 C 0.5867(5) 0.7800(3) 0.6382(4)
H31 H 0.59580 0.72600 0.62330
Co2B Co 0.74268(3) 0.51351(2) 0.50121(2)
O1B O 0.66271(16) 0.62036(13) 0.43914(16)
O2B O 0.83459(19) 0.52904(17) 0.42555(17)
O3B O 0.51070(17) 0.61101(14) 0.44019(18)
O4B O 0.85247(17) 0.58583(15) 0.60846(16)
O5B O 0.65980(15) 0.49743(13) 0.58451(14)
H1B H 0.686(4) 0.449(4) 0.617(4)
H2B H 0.690(3) 0.540(3) 0.629(3)
O6B O 0.7727(2) 0.6167(2) 0.6962(2)
O7B O 1.2264(2) 0.8734(2) 0.8302(2)
O8B O 1.17090(19) 0.90789(15) 0.93695(18)
O9B O 0.49568(17) 0.92847(16) 0.10927(17)
O10B O 0.34872(17) 0.94460(15) 0.11732(16)
C1B C 0.9870(2) 0.6817(2) 0.8345(2)
C2B C 0.9707(3) 0.6212(2) 0.8916(3)
H3B H 0.91880 0.58240 0.86190
C3B C 1.0298(4) 0.6186(3) 0.9896(3)
H4B H 1.01830 0.57820 1.02590
C4B C 1.1084(3) 0.6776(3) 1.0353(3)
H5B H 1.14840 0.67580 1.10180
C5B C 1.1260(3) 0.7366(2) 0.9836(2)
H6B H 1.17820 0.77480 1.01520
C6B C 1.0660(2) 0.7416(2) 0.8813(2)
C7B C 1.0858(2) 0.8011(2) 0.8249(2)
C8B C 1.0300(3) 0.7998(2) 0.7267(2)
H7B H 1.04360 0.83850 0.68990
C9B C 0.9527(3) 0.7409(2) 0.6806(2)
H8B H 0.91580 0.74130 0.61370
C10B C 0.9302(2) 0.6830(2) 0.7318(2)
C11B C 1.1684(3) 0.8658(2) 0.8677(2)
C12B C 0.8449(2) 0.6230(2) 0.6758(2)
C13B C 0.6026(2) 0.79335(17) 0.3763(2)
C14B C 0.6983(2) 0.8019(2) 0.4611(2)
H9B H 0.72110 0.75980 0.50670
C15B C 0.7568(3) 0.8711(2) 0.4760(3)
H10B H 0.81790 0.87640 0.53270
C16B C 0.7259(3) 0.9346(2) 0.4070(3)
H11B H 0.76730 0.98080 0.41720
C17B C 0.6346(2) 0.92843(19) 0.3247(2)
H12B H 0.61470 0.97070 0.27930
C18B C 0.5701(2) 0.85896(17) 0.3074(2)
C19B C 0.4714(2) 0.85368(17) 0.2261(2)
C20B C 0.4079(2) 0.78862(19) 0.2176(2)
H13B H 0.34140 0.78800 0.16740
C21B C 0.4418(2) 0.72294(19) 0.2836(2)
H14B H 0.39790 0.67890 0.27560
C22B C 0.5385(2) 0.72285(17) 0.3595(2)
C23B C 0.5740(2) 0.64507(17) 0.4188(2)
C24B C 0.4359(2) 0.91502(17) 0.1440(2)
Co1A Co 0.50000 0.00000 1.00000
Co1A* Co 0.50000 1.00000 0.00000
Co2A Co -0.25732(3) -0.01351(2) 0.00121(2)
Co2A* Co 0.74268(3) -0.01351(2) 1.00121(2)
Co2C Co 0.25732(3) 1.01351(2) -0.00121(2)
Co2C* Co 1.25732(3) 1.01351(2) 0.99879(2)
O8A O 0.17090(19) 0.59211(15) 0.43695(18)
O8C O 0.82910(19) 0.40789(15) 0.56305(18)
O9A O 0.49568(17) 0.57153(16) 0.60927(17)
O9C O 0.50432(17) 0.42847(16) 0.39073(17)
O10A O 0.34872(17) 0.55540(15) 0.61732(16)
O10C O 0.65128(17) 0.44460(15) 0.38268(16)
#END
