
#######################################################################
#
#                 Cambridge Crystallographic Data Centre
#                                CCDC
#
#######################################################################
#
# If this CIF has been generated from an entry in the Cambridge
# Structural Database, then it will include bibliographic, chemical,
# crystal, experimental, refinement or atomic coordinate data resulting
# from the CCDC's data processing and validation procedures.
#
#######################################################################

data_CSD_CIF_MINFIB
_audit_creation_date 2018-10-31
_audit_creation_method CSD-ConQuest-V1
_database_code_CSD MINFIB
_database_code_depnum_ccdc_archive 'CCDC 1843272'
_chemical_formula_sum 'C70 H66 Mn4 N4 O21'
_chemical_formula_moiety
;
(C52 H30 Mn4 O20 2-)n,2(C9 H17 N2 1+),H2 O1
;
_journal_coden_Cambridge 1147
_journal_volume 18
_journal_year 2018
_journal_page_first 7541
_journal_name_full 'Cryst.Growth Des. '
loop_
_publ_author_name
"Ya-Min Li"
"Xue-Fei Li"
"Ying-Ying Wu"
"D.L.Collins-Wildman"
"Sheng-Min Hu"
"Ying Liu"
"Hai-Yan Li"
"Xiao-Wei Zhao"
"Lin-Yu Jin"
"Dong-Bin Dang"
_chemical_name_systematic
;
catena-[bis(3-methyl-1-pentyl-1H-imidazol-3-ium) 
tetrakis(\m-naphthalene-1,4-dicarboxylato)-bis(\m-acetato)-tetra-manganese(ii)
 monohydrate]
;
_cell_volume   3260.211
_exptl_crystal_colour 'yellow'
_exptl_crystal_density_diffrn 1.547
_exptl_crystal_description 'block'
_diffrn_ambient_temperature 293
#These two values have been output from a single CSD field.
_refine_ls_R_factor_gt 0.0367
_refine_ls_wR_factor_gt 0.0367
_symmetry_cell_setting monoclinic
_symmetry_space_group_name_H-M 'P 21/c'
_symmetry_Int_Tables_number 14
loop_
_symmetry_equiv_pos_site_id
_symmetry_equiv_pos_as_xyz
1 x,y,z
2 -x,1/2+y,1/2-z
3 -x,-y,-z
4 x,-1/2-y,-1/2+z
_cell_length_a 12.83963(11)
_cell_length_b 16.45208(18)
_cell_length_c 15.4674(2)
_cell_angle_alpha 90
_cell_angle_beta 93.7782(10)
_cell_angle_gamma 90
_cell_formula_units_Z 2
loop_
_atom_type_symbol
_atom_type_radius_bond
C 0.68
H 0.23
Mn 1.61
N 0.68
O 0.68
loop_
_atom_site_label
_atom_site_type_symbol
_atom_site_fract_x
_atom_site_fract_y
_atom_site_fract_z
Mn1 Mn 0.74391(2) 0.52137(2) 0.87885(2)
Mn2 Mn 1.00000 0.50000 1.00000
Mn3 Mn 0.50000 0.50000 1.00000
O1 O 0.33448(11) 0.52822(10) 1.00145(10)
O2 O 0.16919(11) 0.49782(10) 0.98873(10)
O3 O 1.01922(12) 0.10997(10) 0.57264(10)
O4 O 1.13787(11) 0.08418(10) 0.68275(10)
O5 O 0.80919(12) 0.40495(10) 0.84730(11)
O6 O 0.97882(12) 0.42834(10) 0.88445(10)
O7 O 0.38507(12) 0.98662(10) 0.70696(10)
O8 O 0.51684(12) 0.94548(10) 0.62873(10)
O9 O 0.67539(11) 0.63763(9) 0.90147(11)
O10 O 0.51340(12) 0.62236(9) 0.94436(10)
C1 C 0.24759(16) 0.53010(13) 0.95775(15)
C2 C 0.23668(18) 0.57138(16) 0.87154(16)
H1 H 0.16590 0.56670 0.84800
H2 H 0.28250 0.54610 0.83290
H3 H 0.25470 0.62780 0.87840
C3 C 1.01204(16) 0.18629(13) 0.70063(14)
C4 C 0.98405(16) 0.17266(13) 0.78710(14)
C5 C 0.99164(17) 0.09504(14) 0.82721(15)
H4 H 1.01630 0.05090 0.79700
C6 C 0.96283(18) 0.08494(15) 0.91023(16)
H5 H 0.96700 0.03370 0.93560
C7 C 0.92690(19) 0.15121(15) 0.95768(16)
H6 H 0.90880 0.14350 1.01430
C8 C 0.91841(18) 0.22664(14) 0.92100(15)
H7 H 0.89490 0.27000 0.95300
C9 C 0.94516(16) 0.23947(14) 0.83433(15)
C10 C 0.93718(17) 0.31715(14) 0.79470(15)
C11 C 0.9644(2) 0.32774(15) 0.71137(16)
H8 H 0.95930 0.37900 0.68600
C12 C 0.99995(19) 0.26140(15) 0.66379(16)
H9 H 1.01540 0.26890 0.60640
C13 C 1.05944(16) 0.12082(13) 0.64793(14)
C14 C 0.90534(17) 0.38981(13) 0.84677(14)
C15 C 0.49128(17) 0.87654(13) 0.75997(14)
C16 C 0.59254(17) 0.87522(14) 0.80418(15)
C17 C 0.66063(19) 0.94272(15) 0.80047(17)
H10 H 0.64100 0.98690 0.76560
C18 C 0.7547(2) 0.94396(17) 0.8472(2)
H11 H 0.79820 0.98890 0.84450
C19 C 0.78565(19) 0.87677(16) 0.89965(18)
H12 H 0.84920 0.87820 0.93210
C20 C 0.72314(18) 0.80971(15) 0.90321(16)
H13 H 0.74590 0.76530 0.93660
C21 C 0.62368(17) 0.80682(13) 0.85659(15)
C22 C 0.55166(17) 0.74063(13) 0.86390(15)
C23 C 0.45165(17) 0.74825(14) 0.82637(15)
H14 H 0.40310 0.70760 0.83530
C24 C 0.42093(17) 0.81614(14) 0.77479(15)
H15 H 0.35280 0.81990 0.75080
C25 C 0.46236(16) 0.94228(13) 0.69365(14)
C26 C 0.58272(17) 0.66043(13) 0.90709(14)
O11 O 0.6600(13) 0.1998(11) 0.4551(11)
N1 N 0.43473(16) 0.29195(16) 0.37418(15)
N2 N 0.28732(16) 0.23235(12) 0.35902(13)
C27 C 0.3693(2) 0.34249(17) 0.32561(18)
H16 H 0.38600 0.39310 0.30370
C28 C 0.2760(2) 0.30484(16) 0.31572(17)
H17 H 0.21600 0.32420 0.28550
C29 C 0.3831(2) 0.22609(17) 0.39298(17)
H18 H 0.41020 0.18220 0.42510
C30 C 0.5441(2) 0.3050(2) 0.4080(2)
H19 H 0.58830 0.31160 0.36000
H20 H 0.56830 0.25780 0.44110
C31 C 0.55222(19) 0.38036(17) 0.46566(17)
H21 H 0.53160 0.42770 0.43140
H22 H 0.50420 0.37500 0.51120
C32 C 0.6615(2) 0.3931(2) 0.5062(2)
H23 H 0.68210 0.34540 0.54000
H24 H 0.70920 0.39860 0.46050
C33 C 0.6712(2) 0.46693(19) 0.56390(19)
H25 H 0.65540 0.51480 0.52890
H26 H 0.61920 0.46330 0.60640
C34 C 0.7756(2) 0.4782(2) 0.6105(2)
H27 H 0.82800 0.48220 0.56920
H28 H 0.79070 0.43260 0.64800
H29 H 0.77540 0.52710 0.64440
C35 C 0.2033(3) 0.1724(2) 0.3666(2)
H30 H 0.15090 0.19470 0.40130
H31 H 0.23150 0.12390 0.39350
H32 H 0.17260 0.15960 0.31000
Mn1B Mn 0.25609(2) 0.47863(2) 1.12115(2)
O1B O 0.66552(11) 0.47178(10) 0.99855(10)
O2B O 0.83081(11) 0.50218(10) 1.01127(10)
O3B O -0.01922(12) 0.89003(10) 1.42736(10)
O4B O -0.13787(11) 0.91582(10) 1.31725(10)
O5B O 0.19081(12) 0.59505(10) 1.15270(11)
O6B O 0.02118(12) 0.57166(10) 1.11555(10)
O7B O 0.61493(12) 0.01338(10) 1.29304(10)
O8B O 0.48316(12) 0.05452(10) 1.37127(10)
O9B O 0.32461(11) 0.36237(9) 1.09853(11)
O10B O 0.48660(12) 0.37764(9) 1.05564(10)
C1B C 0.75241(16) 0.46990(13) 1.04225(15)
C2B C 0.76332(18) 0.42862(16) 1.12846(16)
H1B H 0.83410 0.43330 1.15200
H2B H 0.71750 0.45390 1.16710
H3B H 0.74530 0.37220 1.12160
C3B C -0.01204(16) 0.81371(13) 1.29937(14)
C4B C 0.01595(16) 0.82734(13) 1.21290(14)
C5B C 0.00836(17) 0.90496(14) 1.17279(15)
H4B H -0.01630 0.94910 1.20300
C6B C 0.03717(18) 0.91506(15) 1.08977(16)
H5B H 0.03300 0.96630 1.06440
C7B C 0.07310(19) 0.84879(15) 1.04232(16)
H6B H 0.09120 0.85650 0.98570
C8B C 0.08159(18) 0.77336(14) 1.07900(15)
H7B H 0.10510 0.73000 1.04700
C9B C 0.05484(16) 0.76053(14) 1.16567(15)
C10B C 0.06282(17) 0.68285(14) 1.20530(15)
C11B C 0.0356(2) 0.67226(15) 1.28863(16)
H8B H 0.04070 0.62100 1.31400
C12B C 0.00005(19) 0.73860(15) 1.33621(16)
H9B H -0.01540 0.73110 1.39360
C13B C -0.05944(16) 0.87918(13) 1.35207(14)
C14B C 0.09466(17) 0.61019(13) 1.15323(14)
C15B C 0.50872(17) 0.12346(13) 1.24003(14)
C16B C 0.40746(17) 0.12478(14) 1.19582(15)
C17B C 0.33937(19) 0.05728(15) 1.19953(17)
H10B H 0.35900 0.01310 1.23440
C18B C 0.2453(2) 0.05604(17) 1.1528(2)
H11B H 0.20180 0.01110 1.15550
C19B C 0.21435(19) 0.12323(16) 1.10035(18)
H12B H 0.15080 0.12180 1.06790
C20B C 0.27686(18) 0.19029(15) 1.09679(16)
H13B H 0.25410 0.23470 1.06340
C21B C 0.37632(17) 0.19318(13) 1.14341(15)
C22B C 0.44834(17) 0.25937(13) 1.13610(15)
C23B C 0.54835(17) 0.25175(14) 1.17363(15)
H14B H 0.59690 0.29240 1.16470
C24B C 0.57907(17) 0.18386(14) 1.22521(15)
H15B H 0.64720 0.18010 1.24920
C25B C 0.53764(16) 0.05772(13) 1.30635(14)
C26B C 0.41728(17) 0.33957(13) 1.09291(14)
Mn1A Mn 0.25609(2) 1.02137(2) 0.62115(2)
Mn1A* Mn 1.25609(2) 0.02137(2) 0.62115(2)
Mn1C Mn -0.25609(2) 0.97863(2) 1.37885(2)
Mn1C* Mn 0.74391(2) -0.02137(2) 1.37885(2)
Mn2* Mn 0.00000 0.50000 1.00000
Mn2A Mn 0.00000 1.00000 1.50000
Mn2A* Mn 1.00000 0.00000 0.50000
Mn3A Mn 0.50000 0.00000 1.50000
Mn3A* Mn 0.50000 1.00000 0.50000
O2* O 1.16919(11) 0.49782(10) 0.98873(10)
O3A O 0.98078(12) 0.60997(10) 0.92736(10)
O3C O 1.01922(12) 0.39003(10) 1.07264(10)
O4A O 0.86213(11) 0.58418(10) 0.81725(10)
O4C O 0.13787(11) 0.41582(10) 1.18275(10)
O6B* O 1.02118(12) 0.57166(10) 1.11555(10)
O7A O 0.61493(12) 0.48662(10) 0.79304(10)
O7C O 0.38507(12) 0.51338(10) 1.20696(10)
O8A O 0.48316(12) 0.44548(10) 0.87127(10)
O8C O 0.51684(12) 0.55452(10) 1.12873(10)
#END
