
#######################################################################
#
#                 Cambridge Crystallographic Data Centre
#                                CCDC
#
#######################################################################
#
# If this CIF has been generated from an entry in the Cambridge
# Structural Database, then it will include bibliographic, chemical,
# crystal, experimental, refinement or atomic coordinate data resulting
# from the CCDC's data processing and validation procedures.
#
#######################################################################

data_CSD_CIF_MIPTUB
_audit_creation_date 2008-02-26
_audit_creation_method CSD-ConQuest-V1
_database_code_CSD MIPTUB
_database_code_depnum_ccdc_archive 'CCDC 611333'
_chemical_formula_sum 'C40 H36 Cu3 N8 O42 P1 W12'
_chemical_formula_moiety
;
(C10 H8 Cu1 N2 1+)3n,n(O40 P1 W12 3-),n(C10 H8 N2),2n(H2 O1)
;
_journal_coden_Cambridge 119
_journal_volume 871
_journal_year 2007
_journal_page_first 85
_journal_name_full 'J.Mol.Struct. '
loop_
_publ_author_name
"Jingquan Sha"
"Jun Peng"
"Hongsheng Liu"
"Bo Xue"
"Jing Chen"
"Aixiang Tian"
"Baoxia Dong"
"Pengpeng Zhang"
_chemical_name_systematic
;
catena-(tris((\m~2~-4,4'-Bipyridine)-copper(i)) 
(\m~12~-phosphato)-tetracosakis(\m~2~-oxo)-dodecaoxo-dodeca-tungsten 
4,4'-bipyridine dihydrate)
;
_cell_volume   1583.999
_exptl_crystal_colour 'black'
_exptl_crystal_density_diffrn 3.905
_exptl_special_details
;
isomorphous with the silicon analogue

;
_exptl_crystal_description 'block'
_diffrn_ambient_temperature 273
_refine_special_details
;
The phosphate group is disordered.

;
#These two values have been output from a single CSD field.
_refine_ls_R_factor_gt 0.0578
_refine_ls_wR_factor_gt 0.0578
_symmetry_cell_setting triclinic
_symmetry_space_group_name_H-M 'P -1'
_symmetry_Int_Tables_number 2
loop_
_symmetry_equiv_pos_site_id
_symmetry_equiv_pos_as_xyz
1 x,y,z
2 -x,-y,-z
_cell_length_a 10.9200(8)
_cell_length_b 12.3981(9)
_cell_length_c 13.0399(9)
_cell_angle_alpha 113.355(1)
_cell_angle_beta 93.775(1)
_cell_angle_gamma 99.135(1)
_cell_formula_units_Z 1
loop_
_atom_type_symbol
_atom_type_radius_bond
C 0.68
H 0.23
Cu 1.52
N 0.68
O 0.68
P 1.05
W 1.37
loop_
_atom_site_label
_atom_site_type_symbol
_atom_site_fract_x
_atom_site_fract_y
_atom_site_fract_z
P1 P 1.00000 1.00000 0.50000
W1 W 0.70470(4) 1.05952(4) 0.58347(4)
W2 W 0.97281(5) 0.77465(5) 0.60523(5)
W3 W 0.75693(4) 0.98757(4) 0.29684(4)
W4 W 0.94766(6) 1.06915(5) 0.78392(4)
W5 W 0.73054(4) 0.76429(4) 0.40293(4)
W6 W 0.97336(5) 1.29506(4) 0.67777(4)
Cu1 Cu -0.01740(16) 0.2821(2) 0.1297(2)
Cu2 Cu 1.00000 0.50000 1.00000
O1 O 0.6709(13) 0.8892(9) 0.5123(8)
O2 O 0.9619(9) 0.6652(9) 0.6521(9)
O3 O 0.8033(14) 1.2176(12) 0.6330(12)
O4 O 0.9266(8) 1.1040(8) 0.9193(8)
O5 O 0.6922(10) 1.0585(10) 0.4356(10)
O6 O 0.6044(11) 0.6501(9) 0.3559(9)
O7 O 0.9610(9) 1.4353(9) 0.7630(9)
O8 O 0.7067(10) 0.8354(10) 0.3009(9)
O9 O 0.5695(11) 1.0908(10) 0.625(1)
O10 O 0.6417(12) 0.9825(10) 0.2027(8)
O11 O 0.9236(11) 0.8997(9) 0.7243(14)
O12 O 0.8493(12) 0.6863(16) 0.3154(10)
O13 O 0.8795(12) 0.9220(11) 0.2056(14)
O14 O 1.0305(11) 0.6954(12) 0.4641(11)
O15 O 0.9803(12) 1.2225(12) 0.7809(12)
O16 O 0.7834(13) 1.0511(13) 0.7134(13)
O17 O 0.9259(14) 1.0711(17) 0.5932(18)
O18 O 0.9481(14) 0.8664(13) 0.4681(11)
O19 O 0.8090(12) 0.7380(13) 0.5245(9)
O20 O 1.1438(11) 0.8561(9) 0.6592(14)
O21 O 0.8604(12) 0.9644(14) 0.4640(12)
O22 O 1.0324(12) 0.9730(12) 0.6041(13)
O23 O 0.597(3) 0.978(3) 0.819(3)
N1 N 0.3021(11) 0.7020(11) 0.5445(13)
N2 N 0.8248(11) 0.4963(16) 0.9941(12)
N3 N 0.1585(10) 0.2851(13) 0.1286(11)
N4 N 0.8065(10) 0.2802(11) 0.1324(11)
C1 C 0.3303(12) 0.5034(11) 0.4751(13)
H1 H 0.29760 0.42140 0.43970
C2 C 0.2527(15) 0.5821(13) 0.4907(14)
H2 H 0.16720 0.55480 0.46520
C3 C 0.4576(11) 0.544(1) 0.5112(10)
C4 C 0.4205(13) 0.7420(13) 0.5796(13)
H3 H 0.45070 0.82440 0.61440
C5 C 0.5024(11) 0.6672(11) 0.5672(11)
H4 H 0.58690 0.69790 0.59560
C6 C 0.7380(15) 0.3966(18) 0.9282(15)
H5 H 0.76410 0.32740 0.88290
C7 C 0.6091(13) 0.3964(15) 0.9272(15)
H6 H 0.55120 0.32800 0.87960
C8 C 0.5667(11) 0.4990(11) 0.998(1)
C9 C 0.6584(12) 0.5985(13) 1.0648(10)
H7 H 0.63540 0.66840 1.11270
C10 C 0.7837(13) 0.5943(16) 1.0605(13)
H8 H 0.84290 0.66270 1.10590
C11 C 0.2414(12) 0.3821(14) 0.1865(12)
H9 H 0.21400 0.45290 0.22470
C12 C 0.3709(11) 0.3848(12) 0.1938(11)
H10 H 0.42680 0.45580 0.23900
C13 C 0.4162(11) 0.2819(11) 0.1339(10)
C14 C 0.3250(12) 0.1792(13) 0.0698(12)
H11 H 0.34920 0.10810 0.02640
C15 C 0.1992(14) 0.1824(15) 0.0706(15)
H12 H 0.14030 0.11210 0.03000
C16 C 0.5506(11) 0.2789(11) 0.1346(10)
C17 C 0.6434(11) 0.3780(12) 0.2056(11)
H13 H 0.61920 0.44630 0.25540
C18 C 0.5908(13) 0.1818(13) 0.0618(14)
H14 H 0.53370 0.11290 0.01400
C19 C 0.7676(13) 0.3768(14) 0.2035(12)
H15 H 0.82640 0.44390 0.25200
C20 C 0.7206(13) 0.1882(16) 0.0604(18)
H16 H 0.74740 0.12460 0.00620
W1A W 1.29530(4) 0.94048(4) 0.41653(4)
W2A W 1.02719(5) 1.22535(5) 0.39477(5)
W3A W 1.24307(4) 1.01243(4) 0.70316(4)
W4A W 1.05234(6) 0.93085(5) 0.21608(4)
W5A W 1.26946(4) 1.23571(4) 0.59707(4)
W6A W 1.02664(5) 0.70494(4) 0.32223(4)
Cu1* Cu 0.98260(16) 0.2821(2) 0.1297(2)
Cu2* Cu 0.00000 0.50000 1.00000
O1A O 1.3291(13) 1.1108(9) 0.4877(8)
O2A O 1.0381(9) 1.3348(9) 0.3479(9)
O3A O 1.1967(14) 0.7824(12) 0.3670(12)
O4A O 1.0734(8) 0.8960(8) 0.0807(8)
O5A O 1.3078(10) 0.9415(10) 0.5644(10)
O6A O 1.3956(11) 1.3499(9) 0.6441(9)
O7A O 1.0390(9) 0.5647(9) 0.2370(9)
O8A O 1.2933(10) 1.1646(10) 0.6991(9)
O9A O 1.4305(11) 0.9092(10) 0.375(1)
O10A O 1.3583(12) 1.0175(10) 0.7973(8)
O11A O 1.0764(11) 1.1003(9) 0.2757(14)
O12A O 1.1507(12) 1.3137(16) 0.6846(10)
O13A O 1.1205(12) 1.0780(11) 0.7944(14)
O14A O 0.9695(11) 1.3046(12) 0.5359(11)
O15A O 1.0197(12) 0.7775(12) 0.2191(12)
O16A O 1.2166(13) 0.9489(13) 0.2866(13)
O17A O 1.0741(14) 0.9289(17) 0.4068(18)
O18A O 1.0519(14) 1.1336(13) 0.5319(11)
O19A O 1.1910(12) 1.2620(13) 0.4755(9)
O20A O 0.8562(11) 1.1439(9) 0.3408(14)
O21A O 1.1396(12) 1.0356(14) 0.5360(12)
O22A O 0.9676(12) 1.0270(12) 0.3959(13)
N1A N 0.6979(11) 0.2980(11) 0.4555(13)
N2A N 0.1752(11) 0.5037(16) 1.0059(12)
N2A* N 1.1752(11) 0.5037(16) 1.0059(12)
N4* N -0.1935(10) 0.2802(11) 0.1324(11)
C1A C 0.6697(12) 0.4966(11) 0.5249(13)
H1A H 0.70240 0.57860 0.56030
C2A C 0.7473(15) 0.4179(13) 0.5093(14)
H2A H 0.83280 0.44520 0.53480
C3A C 0.5424(11) 0.456(1) 0.4888(10)
C4A C 0.5795(13) 0.2580(13) 0.4204(13)
H3A H 0.54930 0.17560 0.38560
C5A C 0.4976(11) 0.3328(11) 0.4328(11)
H4A H 0.41310 0.30210 0.40440
C6A C 0.2620(15) 0.6034(18) 1.0718(15)
H5A H 0.23590 0.67260 1.11710
C7A C 0.3909(13) 0.6036(15) 1.0728(15)
H6A H 0.44880 0.67200 1.12040
C8A C 0.4333(11) 0.5010(11) 1.002(1)
C9A C 0.3416(12) 0.4015(13) 0.9352(10)
H7A H 0.36460 0.33160 0.88730
C10A C 0.2163(13) 0.4057(16) 0.9395(13)
H8A H 0.15710 0.33730 0.89410
#END
