
#######################################################################
#
#                 Cambridge Crystallographic Data Centre
#                                CCDC
#
#######################################################################
#
# If this CIF has been generated from an entry in the Cambridge
# Structural Database, then it will include bibliographic, chemical,
# crystal, experimental, refinement or atomic coordinate data resulting
# from the CCDC's data processing and validation procedures.
#
#######################################################################

data_CSD_CIF_MIPVAJ
_audit_creation_date 2008-02-26
_audit_creation_method CSD-ConQuest-V1
_database_code_CSD MIPVAJ
_database_code_depnum_ccdc_archive 'CCDC 626582'
_chemical_formula_sum 'C40 H37 Cu3 N8 O42 Si1 W12'
_chemical_formula_moiety
;
(C10 H8 Cu1 N2 1+)3n,n(H1 O40 Si1 W12 3-),n(C10 H8 N2),2n(H2 O1)
;
_journal_coden_Cambridge 119
_journal_volume 871
_journal_year 2007
_journal_page_first 85
_journal_name_full 'J.Mol.Struct. '
loop_
_publ_author_name
"Jingquan Sha"
"Jun Peng"
"Hongsheng Liu"
"Bo Xue"
"Jing Chen"
"Aixiang Tian"
"Baoxia Dong"
"Pengpeng Zhang"
_chemical_name_systematic
;
catena-(tris((\m~2~-4,4'-Bipyridine)-copper(i)) 
(\m~12~-silicato)-(\m~2~-hydroxo)-tricosakis(\m~2~-oxo)-dodecaoxo-dodeca-tungs
;
_cell_volume   1573.150
_exptl_crystal_colour 'black'
_exptl_crystal_density_diffrn 3.998
_exptl_special_details
;
isomorphous with the phosphorus analogue
The charge balance proton has not been located and has been arbitrarily 
assigned in the diagram
;
_exptl_crystal_description 'block'
_diffrn_ambient_temperature 293
_refine_special_details
;
The silicate group is disordered over two sites.

;
#These two values have been output from a single CSD field.
_refine_ls_R_factor_gt 0.0866
_refine_ls_wR_factor_gt 0.0866
_symmetry_cell_setting triclinic
_symmetry_space_group_name_H-M 'P -1'
_symmetry_Int_Tables_number 2
loop_
_symmetry_equiv_pos_site_id
_symmetry_equiv_pos_as_xyz
1 x,y,z
2 -x,-y,-z
_cell_length_a 10.881(3)
_cell_length_b 12.401(3)
_cell_length_c 13.025(3)
_cell_angle_alpha 113.822(4)
_cell_angle_beta 93.527(4)
_cell_angle_gamma 98.944(5)
_cell_formula_units_Z 1
loop_
_atom_type_symbol
_atom_type_radius_bond
C 0.68
H 0.23
Cu 1.52
N 0.68
O 0.68
Si 1.20
W 1.34
loop_
_atom_site_label
_atom_site_type_symbol
_atom_site_fract_x
_atom_site_fract_y
_atom_site_fract_z
Si1 Si 0.50000 0.00000 0.50000
Cu1 Cu 0.5183(4) -0.2856(5) -0.1312(5)
Cu2 Cu 0.50000 0.50000 0.00000
W1 W 0.52872(12) 0.22072(12) 0.39441(12)
W2 W 0.26104(11) -0.01357(11) 0.2986(1)
W3 W 0.55399(12) -0.07267(13) 0.21833(10)
W4 W 0.23266(10) -0.23121(11) 0.40533(10)
W5 W 0.47388(12) 0.29343(11) 0.67493(10)
W6 W 0.20754(11) 0.06203(12) 0.58172(11)
O1 O 0.465(2) 0.292(2) 0.531(2)
O2 O 0.213(3) -0.159(2) 0.305(2)
O3 O 0.720(3) -0.059(3) 0.286(2)
O4 O 0.356(4) -0.036(3) 0.464(3)
O5 O 0.577(4) -0.085(3) 0.404(3)
O6 O 0.521(3) -0.224(3) 0.219(3)
O7 O 0.578(2) 0.099(2) 0.276(3)
O8 O 0.462(3) 0.025(4) 0.386(3)
O9 O 0.354(3) 0.145(3) 0.334(3)
O10 O 0.196(2) 0.058(2) 0.435(2)
O11 O 0.145(2) -0.019(2) 0.2003(18)
O12 O 0.170(3) -0.111(2) 0.5122(19)
O13 O 0.301(3) 0.220(3) 0.637(3)
O14 O 0.376(2) -0.080(2) 0.200(3)
O15 O 0.350(3) -0.305(3) 0.319(2)
O16 O 0.077(2) 0.097(2) 0.628(2)
O17 O 0.105(2) -0.345(2) 0.360(2)
O18 O 0.465(2) 0.4335(19) 0.7562(19)
O19 O 0.577(2) -0.107(2) 0.0862(17)
O20 O 0.540(2) 0.329(2) 0.350(2)
O21 O 0.686(3) 0.253(3) 0.4738(19)
O22 O 0.442(3) -0.145(4) 0.466(3)
O23 O 0.088(3) 0.958(4) 0.811(3)
N1 N 0.205(3) 0.299(2) 0.458(3)
H1? H 0.25450 0.24940 0.45220
N2 N 0.345(2) -0.280(3) -0.125(2)
N3 N -0.306(2) -0.283(3) -0.135(3)
N4 N 0.675(2) 0.502(3) 0.002(3)
C1 C -0.048(3) -0.278(3) -0.134(2)
C2 C 0.084(3) 0.257(3) 0.419(3)
H2 H 0.05540 0.17460 0.38120
C3 C 0.250(3) 0.417(3) 0.507(3)
H3 H 0.33610 0.44510 0.53110
C4 C 0.767(4) 0.602(4) 0.071(3)
H4 H 0.74250 0.67130 0.12050
C5 C 0.174(3) 0.500(3) 0.523(2)
H5 H 0.20820 0.58210 0.55430
C6 C 0.891(3) 0.601(3) 0.068(3)
H6 H 0.94930 0.67060 0.11380
C7 C -0.220(4) -0.187(4) -0.072(4)
H7 H -0.24780 -0.11690 -0.02970
C8 C 0.254(3) -0.386(3) -0.190(2)
H8 H 0.28130 -0.45660 -0.23120
C9 C -0.263(3) -0.380(3) -0.203(3)
H9 H -0.32170 -0.44950 -0.24750
C10 C -0.143(3) -0.383(3) -0.208(3)
H10 H -0.11880 -0.45060 -0.25990
C11 C -0.092(3) -0.180(3) -0.063(3)
H11 H -0.03730 -0.11150 -0.01080
C12 C 0.180(3) -0.183(3) -0.074(2)
H12 H 0.15660 -0.10970 -0.03360
C13 C 0.298(3) -0.188(4) -0.070(3)
H13 H 0.35460 -0.11830 -0.02320
C14 C -0.004(3) 0.333(3) 0.432(2)
H14 H -0.08820 0.30090 0.40470
C15 C 0.935(2) 0.500(3) -0.002(2)
C16 C 0.086(3) -0.285(3) -0.138(2)
C17 C 0.840(3) 0.404(3) -0.066(2)
H15 H 0.86130 0.33200 -0.11400
C18 C 0.719(3) 0.409(4) -0.062(3)
H16 H 0.66140 0.34000 -0.10830
C19 C 0.042(3) 0.459(3) 0.490(2)
C20 C 0.129(3) -0.387(3) -0.194(3)
H17 H 0.07180 -0.45920 -0.23490
Cu1* Cu -0.4817(4) -0.2856(5) -0.1312(5)
Cu2* Cu 1.50000 0.50000 0.00000
W1A W 0.47128(12) -0.22072(12) 0.60559(12)
W2A W 0.73896(11) 0.01357(11) 0.7014(1)
W3A W 0.44601(12) 0.07267(13) 0.78167(10)
W4A W 0.76734(10) 0.23121(11) 0.59467(10)
W5A W 0.52612(12) -0.29343(11) 0.32507(10)
W6A W 0.79246(11) -0.06203(12) 0.41828(11)
O1A O 0.535(2) -0.292(2) 0.469(2)
O2A O 0.787(3) 0.159(2) 0.695(2)
O3A O 0.280(3) 0.059(3) 0.714(2)
O4A O 0.644(4) 0.036(3) 0.536(3)
O5A O 0.423(4) 0.085(3) 0.596(3)
O6A O 0.479(3) 0.224(3) 0.781(3)
O7A O 0.422(2) -0.099(2) 0.724(3)
O8A O 0.538(3) -0.025(4) 0.614(3)
O9A O 0.646(3) -0.145(3) 0.666(3)
O10A O 0.804(2) -0.058(2) 0.565(2)
O11A O 0.855(2) 0.019(2) 0.7997(18)
O12A O 0.830(3) 0.111(2) 0.4878(19)
O13A O 0.699(3) -0.220(3) 0.363(3)
O14A O 0.624(2) 0.080(2) 0.800(3)
O15A O 0.650(3) 0.305(3) 0.681(2)
O16A O 0.923(2) -0.097(2) 0.372(2)
O17A O 0.895(2) 0.345(2) 0.640(2)
O18A O 0.535(2) -0.4335(19) 0.2438(19)
O19A O 0.423(2) 0.107(2) 0.9138(17)
O20A O 0.460(2) -0.329(2) 0.650(2)
O21A O 0.314(3) -0.253(3) 0.5262(19)
O22A O 0.558(3) 0.145(4) 0.534(3)
N1A N -0.205(3) 0.701(2) 0.542(3)
N3* N 0.694(2) -0.283(3) -0.135(3)
N4A N 1.325(2) 0.498(3) -0.002(3)
N4A* N 0.325(2) 0.498(3) -0.002(3)
C2A C -0.084(3) 0.743(3) 0.581(3)
H2A H -0.05540 0.82540 0.61880
C3A C -0.250(3) 0.583(3) 0.493(3)
H3A H -0.33610 0.55490 0.46890
C4A C 1.233(4) 0.398(4) -0.071(3)
H4A H 1.25750 0.32870 -0.12050
C5A C -0.174(3) 0.500(3) 0.477(2)
H5A H -0.20820 0.41790 0.44570
C6A C 1.109(3) 0.399(3) -0.068(3)
H6A H 1.05070 0.32940 -0.11380
C14A C 0.004(3) 0.667(3) 0.568(2)
H14A H 0.08820 0.69910 0.59530
C15A C 1.065(2) 0.500(3) 0.002(2)
C17A C 1.160(3) 0.596(3) 0.066(2)
H15A H 1.13870 0.66800 0.11400
C18A C 1.281(3) 0.591(4) 0.062(3)
H16A H 1.33860 0.66000 0.10830
C19A C -0.042(3) 0.541(3) 0.510(2)
#END
