
#######################################################################
#
#                 Cambridge Crystallographic Data Centre
#                                CCDC
#
#######################################################################
#
# If this CIF has been generated from an entry in the Cambridge
# Structural Database, then it will include bibliographic, chemical,
# crystal, experimental, refinement or atomic coordinate data resulting
# from the CCDC's data processing and validation procedures.
#
#######################################################################

data_CSD_CIF_MIQKUT
_audit_creation_date 2008-02-26
_audit_creation_method CSD-ConQuest-V1
_database_code_CSD MIQKUT
_database_code_depnum_ccdc_archive 'CCDC 653391'
_chemical_formula_sum 'C15 H14 N2 O6 Zn1'
_chemical_formula_moiety
;
(C6 H11 N2 1+)n,n(C9 H3 O6 Zn1 1-)
;
_journal_coden_Cambridge 9
_journal_volume 46
_journal_year 2007
_journal_page_first 10670
_journal_name_full 'Inorg.Chem. '
loop_
_publ_author_name
"Ling Xu"
"Eun-Young Choi"
"Young-Uk Kwon"
_chemical_name_systematic
;
catena-(1-Ethyl-3-methylimidazolium 
(\m~4~-benzene-1,3,5-tricarboxylato)-zinc(ii))
;
_cell_volume   3077.823
_exptl_crystal_colour 'colorless'
_exptl_crystal_density_diffrn 1.669
_exptl_crystal_description 'block'
_diffrn_ambient_temperature 298
#These two values have been output from a single CSD field.
_refine_ls_R_factor_gt 0.093
_refine_ls_wR_factor_gt 0.093
_symmetry_cell_setting orthorhombic
_symmetry_space_group_name_H-M 'P b c a'
_symmetry_Int_Tables_number 61
loop_
_symmetry_equiv_pos_site_id
_symmetry_equiv_pos_as_xyz
1 x,y,z
2 1/2-x,-y,1/2+z
3 -x,1/2+y,1/2-z
4 1/2+x,1/2-y,-z
5 -x,-y,-z
6 -1/2+x,y,-1/2-z
7 x,-1/2-y,-1/2+z
8 -1/2-x,-1/2+y,z
_cell_length_a 15.3015(7)
_cell_length_b 16.1390(7)
_cell_length_c 12.4633(6)
_cell_angle_alpha 90
_cell_angle_beta 90
_cell_angle_gamma 90
_cell_formula_units_Z 8
loop_
_atom_type_symbol
_atom_type_radius_bond
C 0.68
H 0.23
N 0.76
O 0.68
Zn 1.42
loop_
_atom_site_label
_atom_site_type_symbol
_atom_site_fract_x
_atom_site_fract_y
_atom_site_fract_z
Zn1 Zn 0.01190(2) 0.411663(15) 0.903989(17)
C1 C -0.13715(8) 0.53790(6) 0.70463(7)
C2 C -0.21682(9) 0.52375(8) 0.65428(9)
H1 H -0.24380 0.47230 0.66020
C3 C -0.25619(10) 0.58648(10) 0.59509(12)
C4 C -0.21588(13) 0.66336(9) 0.58623(12)
H2 H -0.24220 0.70530 0.54660
C5 C -0.13620(13) 0.67751(7) 0.63658(11)
C6 C -0.09684(10) 0.61478(7) 0.69578(9)
H3 H -0.04350 0.62430 0.72950
C7 C -0.0975(2) 0.48071(15) 0.77343(18)
C8 C -0.35315(16) 0.55985(13) 0.53500(15)
C9 C -0.07607(19) 0.76329(16) 0.63521(15)
O1 O -0.1625(2) 0.42445(15) 0.79311(19)
O2 O -0.01546(13) 0.49034(11) 0.80564(13)
O3 O -0.40116(13) 0.61769(9) 0.49210(11)
O4 O -0.38177(12) 0.48444(9) 0.52653(11)
O5 O 0.01768(17) 0.76914(14) 0.66724(17)
O6 O -0.11908(15) 0.81777(11) 0.59835(14)
N1 N 0.2103(2) 0.30745(18) 1.12199(19)
C10 C 0.1089(3) 0.3171(3) 1.1072(2)
H4 H 0.08780 0.35910 1.15640
N2 N 0.0623(3) 0.2426(3) 1.1255(3)
C11 C 0.1385(3) 0.1945(3) 1.1479(3)
H5 H 0.13890 0.14950 1.09620
C12 C 0.2286(3) 0.2290(2) 1.1492(3)
H6 H 0.25500 0.22530 1.21970
C13 C 0.3740(5) 0.3631(15) 1.0473(10)
H7 H 0.41170 0.41000 1.05740
H8 H 0.35940 0.35810 0.97270
H9 H 0.40330 0.31370 1.07070
C14 C 0.2921(3) 0.3748(4) 1.1115(4)
H10 H 0.26610 0.42580 1.08560
H11 H 0.31110 0.38580 1.18440
C15 C -0.0515(5) 0.2118(5) 1.1243(5)
H12 H -0.05600 0.15400 1.14190
H13 H -0.07560 0.22110 1.05420
H14 H -0.08330 0.24390 1.17610
Zn1A Zn -0.51190(2) 0.588337(15) 0.403989(17)
Zn1E Zn -0.48810(2) 0.411663(15) 0.596011(17)
Zn1B Zn -0.01190(2) 0.911663(15) 0.596011(17)
O3A O -0.09884(13) 0.38231(9) 0.99210(11)
O4E O 0.11823(12) 0.48444(9) 0.97347(11)
O6B O 0.11908(15) 0.31777(11) 0.90165(14)
#END
