
#######################################################################
#
#                 Cambridge Crystallographic Data Centre
#                                CCDC
#
#######################################################################
#
# If this CIF has been generated from an entry in the Cambridge
# Structural Database, then it will include bibliographic, chemical,
# crystal, experimental, refinement or atomic coordinate data resulting
# from the CCDC's data processing and validation procedures.
#
#######################################################################

data_CSD_CIF_MIQLII
_audit_creation_date 2008-02-26
_audit_creation_method CSD-ConQuest-V1
_database_code_CSD MIQLII
_database_code_depnum_ccdc_archive 'CCDC 653394'
_chemical_formula_sum 'C18 H21 Br1 N2 O7 Zn2'
_chemical_formula_moiety
;
(C9 H17 N2 1+)n,n(C9 H4 Br1 O7 Zn2 1-)
;
_journal_coden_Cambridge 9
_journal_volume 46
_journal_year 2007
_journal_page_first 10670
_journal_name_full 'Inorg.Chem. '
loop_
_publ_author_name
"Ling Xu"
"Eun-Young Choi"
"Young-Uk Kwon"
_chemical_name_systematic
;
catena-((1-n-Pentyl-3-methylimidazolium) 
(\m~5~-benzene-1,3,5-tricarboxylato)-(\m~3~-hydroxo)-bromo-di-zinc)
;
_cell_volume   2229.329
_exptl_crystal_colour 'colorless'
_exptl_crystal_description 'block'
_diffrn_ambient_temperature 298
#These two values have been output from a single CSD field.
_refine_ls_R_factor_gt 0.0332
_refine_ls_wR_factor_gt 0.0332
_symmetry_cell_setting monoclinic
_symmetry_space_group_name_H-M 'P 21/n'
_symmetry_Int_Tables_number 14
loop_
_symmetry_equiv_pos_site_id
_symmetry_equiv_pos_as_xyz
1 x,y,z
2 1/2-x,1/2+y,1/2-z
3 -x,-y,-z
4 -1/2+x,-1/2-y,-1/2+z
_cell_length_a 10.2496(6)
_cell_length_b 13.4583(7)
_cell_length_c 16.2422(9)
_cell_angle_alpha 90
_cell_angle_beta 95.720(1)
_cell_angle_gamma 90
_cell_formula_units_Z 4
loop_
_atom_type_symbol
_atom_type_radius_bond
C 0.68
H 0.23
Br 1.21
N 0.68
O 0.68
Zn 1.37
loop_
_atom_site_label
_atom_site_type_symbol
_atom_site_fract_x
_atom_site_fract_y
_atom_site_fract_z
Zn1 Zn 0.124112(14) 0.531525(11) 0.455076(8)
Zn2 Zn -0.021671(15) 0.706084(12) 0.563998(10)
Br1 Br -0.02919(4) 0.855210(16) 0.491941(17)
C1 C 0.38127(13) 0.68391(10) 0.64135(8)
C2 C 0.38463(13) 0.75343(11) 0.70511(8)
H1 H 0.30650 0.77820 0.72140
C3 C 0.50282(13) 0.78611(10) 0.74461(8)
C4 C 0.61985(13) 0.74911(11) 0.71999(8)
H2 H 0.69960 0.77120 0.74590
C5 C 0.61738(12) 0.67906(10) 0.65662(8)
C6 C 0.49846(13) 0.64622(10) 0.61837(8)
H3 H 0.49700 0.59850 0.57690
C7 C 0.25295(13) 0.65277(11) 0.59696(8)
C8 C 0.50141(13) 0.85991(11) 0.81453(8)
C9 C 0.74264(13) 0.63949(11) 0.62785(8)
O1 O 0.25785(9) 0.59663(8) 0.53491(6)
O2 O 0.15135(10) 0.68432(9) 0.62476(7)
O3 O 0.39304(10) 0.88872(9) 0.83277(6)
O4 O 0.61188(9) 0.88770(8) 0.85001(6)
O5 O 0.84322(10) 0.69311(9) 0.64190(7)
O6 O 0.73561(9) 0.55792(8) 0.59133(6)
O7 O -0.04954(8) 0.59003(7) 0.49313(5)
N1 N 0.59615(15) 0.46984(13) 0.79201(10)
N2 N 0.48778(14) 0.41141(11) 0.68311(9)
C10 C 0.3876(6) 0.0268(3) 0.5995(3)
H4 H 0.34440 -0.03350 0.61290
H5 H 0.47120 0.01130 0.58080
H6 H 0.33460 0.06130 0.55650
C11 C 0.4058(5) 0.0873(2) 0.6699(3)
H7 H 0.45980 0.05160 0.71250
H8 H 0.32120 0.09840 0.69020
C12 C 0.4715(4) 0.1916(2) 0.6569(2)
H9 H 0.49430 0.22090 0.71100
H10 H 0.55280 0.18020 0.63250
C13 C 0.3951(3) 0.2649(2) 0.60574(16)
H11 H 0.31070 0.27280 0.62720
H12 H 0.37890 0.23850 0.55010
C14 C 0.4565(3) 0.36552(18) 0.60087(12)
H13 H 0.53640 0.35950 0.57390
H14 H 0.39710 0.40870 0.56720
C15 C 0.7062(2) 0.5013(2) 0.85063(18)
H15 H 0.78720 0.48580 0.82850
H16 H 0.70240 0.46710 0.90220
H17 H 0.70100 0.57160 0.85960
C16 C 0.60622(17) 0.42913(13) 0.71921(11)
H18 H 0.68430 0.41520 0.69690
C17 C 0.4664(2) 0.47872(17) 0.80317(13)
H19 H 0.43190 0.50560 0.84910
C18 C 0.39785(17) 0.44146(16) 0.73537(12)
H20 H 0.30710 0.43690 0.72560
Zn1C Zn 0.624112(14) 0.968475(11) 0.955076(8)
Zn1B Zn 0.875888(14) 0.468475(11) 0.544924(8)
Zn1B* Zn -0.124112(14) 0.468475(11) 0.544924(8)
Zn2* Zn 0.978329(15) 0.706084(12) 0.563998(10)
O4C O 0.11188(9) 0.61230(8) 0.35001(6)
O5* O -0.15678(10) 0.69311(9) 0.64190(7)
O6B O 0.26439(9) 0.44208(8) 0.40867(6)
O7B O 0.04954(8) 0.40997(7) 0.50687(5)
#END
