
#######################################################################
#
#                 Cambridge Crystallographic Data Centre
#                                CCDC
#
#######################################################################
#
# If this CIF has been generated from an entry in the Cambridge
# Structural Database, then it will include bibliographic, chemical,
# crystal, experimental, refinement or atomic coordinate data resulting
# from the CCDC's data processing and validation procedures.
#
#######################################################################

data_CSD_CIF_MIQLAA
_audit_creation_date 2008-02-26
_audit_creation_method CSD-ConQuest-V1
_database_code_CSD MIQLAA
_database_code_depnum_ccdc_archive 'CCDC 653392'
_chemical_formula_sum 'C16 H16 N2 O6 Zn1'
_chemical_formula_moiety
;
(C7 H13 N2 1+)n,n(C9 H3 O6 Zn1 1-)
;
_journal_coden_Cambridge 9
_journal_volume 46
_journal_year 2007
_journal_page_first 10670
_journal_name_full 'Inorg.Chem. '
loop_
_publ_author_name
"Ling Xu"
"Eun-Young Choi"
"Young-Uk Kwon"
_chemical_name_systematic
;
catena-(1-n-Propyl-3-methylimidazolium 
(\m~3~-benzene-1,3,5-tricarboxylato)-zinc(ii))
;
_cell_volume   3353.476
_exptl_crystal_colour 'colorless'
_exptl_crystal_density_diffrn 1.575
_exptl_crystal_description 'block'
_diffrn_ambient_temperature 298
#These two values have been output from a single CSD field.
_refine_ls_R_factor_gt 0.0789
_refine_ls_wR_factor_gt 0.0789
_symmetry_cell_setting orthorhombic
_symmetry_space_group_name_H-M 'P b c a'
_symmetry_Int_Tables_number 61
loop_
_symmetry_equiv_pos_site_id
_symmetry_equiv_pos_as_xyz
1 x,y,z
2 1/2-x,-y,1/2+z
3 -x,1/2+y,1/2-z
4 1/2+x,1/2-y,-z
5 -x,-y,-z
6 -1/2+x,y,-1/2-z
7 x,-1/2-y,-1/2+z
8 -1/2-x,-1/2+y,z
_cell_length_a 16.004(3)
_cell_length_b 12.588(3)
_cell_length_c 16.646(3)
_cell_angle_alpha 90
_cell_angle_beta 90
_cell_angle_gamma 90
_cell_formula_units_Z 8
loop_
_atom_type_symbol
_atom_type_radius_bond
C 0.68
H 0.23
N 0.77
O 0.68
Zn 1.45
loop_
_atom_site_label
_atom_site_type_symbol
_atom_site_fract_x
_atom_site_fract_y
_atom_site_fract_z
Zn1 Zn 0.081305(11) 0.399929(13) 0.499466(17)
C1 C 0.31303(16) 0.35946(17) 0.3716(2)
C2 C 0.36665(15) 0.30335(18) 0.4087(2)
H1 H 0.35750 0.27300 0.45890
C3 C 0.44139(15) 0.29250(17) 0.3649(2)
C4 C 0.46375(15) 0.34315(16) 0.2813(2)
H2 H 0.51690 0.33080 0.26070
C5 C 0.41070(15) 0.40362(17) 0.2370(2)
C6 C 0.33458(15) 0.40966(17) 0.2844(2)
H3 H 0.29150 0.44840 0.26110
C7 C 0.22730(16) 0.36892(17) 0.4202(2)
C8 C 0.49751(16) 0.22787(18) 0.4059(2)
C9 C 0.43520(14) 0.46283(18) 0.1497(2)
O1 O 0.21487(18) 0.3363(2) 0.50374(13)
O2 O 0.17838(12) 0.40847(16) 0.37316(17)
O3 O 0.47954(16) 0.19350(19) 0.49104(15)
O4 O 0.55901(13) 0.20869(18) 0.35820(18)
O5 O 0.50382(10) 0.47009(14) 0.12543(16)
O6 O 0.37692(12) 0.49922(14) 0.10539(14)
N1 N 0.2150(3) 0.3636(3) -0.0466(3)
N2 N 0.2828(3) 0.3839(3) -0.1961(3)
C10 C 0.4800(5) 0.4270(9) -0.3904(5)
H4 H 0.47380 0.39850 -0.44360
H5 H 0.52600 0.39260 -0.36400
H6 H 0.49070 0.50190 -0.39370
C11 C 0.3987(5) 0.4077(10) -0.3419(4)
H7 H 0.36230 0.45460 -0.37210
H8 H 0.38550 0.33770 -0.36280
C12 C 0.3479(4) 0.4020(4) -0.2660(3)
H9 H 0.35020 0.47810 -0.25730
H10 H 0.39450 0.37580 -0.23440
C13 C 0.2030(3) 0.3609(5) 0.0639(4)
H11 H 0.25110 0.39270 0.08850
H12 H 0.19770 0.28870 0.08170
H13 H 0.15390 0.40000 0.07880
C14 C 0.2802(3) 0.3914(3) -0.0969(3)
H14 H 0.32800 0.41740 -0.07210
C15 C 0.2094(3) 0.3451(3) -0.2154(3)
H15 H 0.18470 0.32650 -0.26400
C16 C 0.1783(5) 0.3422(7) -0.1234(4)
H16 H 0.12270 0.32140 -0.11910
Zn1C Zn 0.581305(11) 0.100071(13) 0.500534(17)
Zn1A Zn 0.418695(11) 0.600071(13) -0.000534(17)
O3C O -0.02046(16) 0.30650(19) 0.50896(15)
O6A O 0.12308(12) 0.50078(14) 0.60539(14)
#END
