
#######################################################################
#
#                 Cambridge Crystallographic Data Centre
#                                CCDC
#
#######################################################################
#
# If this CIF has been generated from an entry in the Cambridge
# Structural Database, then it will include bibliographic, chemical,
# crystal, experimental, refinement or atomic coordinate data resulting
# from the CCDC's data processing and validation procedures.
#
#######################################################################

data_CSD_CIF_MITSEO
_audit_creation_date 2008-06-05
_audit_creation_method CSD-ConQuest-V1
_database_code_CSD MITSEO
_database_code_depnum_ccdc_archive 'CCDC 602485'
_chemical_formula_sum 'C60 H82 Cd5 Cl4 N4 O26'
_chemical_formula_moiety
;
(H3 O1 1+)2n,4n(C6 H16 N1 1+),n(C36 H12 Cd5 Cl4 O24 6-)
;
_journal_coden_Cambridge 1147
_journal_volume 8
_journal_year 2008
_journal_page_first 319
_journal_name_full 'Cryst.Growth Des. '
loop_
_publ_author_name
"Qianrong Fang"
"Guangshan Zhu"
"Ming Xue"
"Zhuopeng Wang"
"Jinyu Sun"
"Shilun Qiu"
_chemical_name_systematic
;
catena-(tetrakis(triethylammonium) dioxonium 
tetrakis(\m~5~-benzene-1,3,5-tricarboxylato)-tetrachloro-penta-cadmium(ii))
;
_cell_volume   5134.467
_exptl_crystal_colour 'colorless'
_exptl_special_details
;
The described oxonium cations do not appear to have been modelled

;
_exptl_crystal_description 'block'
_diffrn_ambient_temperature 293
_refine_special_details
;
The oxonium cations do not appear to have been modelled and may have been 
taken into account with the SQUEEZE/PLATON proceedure.
;
#These two values have been output from a single CSD field.
_refine_ls_R_factor_gt 0.0379
_refine_ls_wR_factor_gt 0.0379
_symmetry_cell_setting tetragonal
_symmetry_space_group_name_H-M 'P 4 21 2'
_symmetry_Int_Tables_number 90
loop_
_symmetry_equiv_pos_site_id
_symmetry_equiv_pos_as_xyz
1 x,y,z
2 -x,-y,z
3 1/2-y,1/2+x,z
4 1/2+y,1/2-x,z
5 1/2-x,1/2+y,-z
6 1/2+x,1/2-y,-z
7 y,x,-z
8 -y,-x,-z
_cell_length_a 20.1824(14)
_cell_length_b 20.1824(14)
_cell_length_c 12.6052(18)
_cell_angle_alpha 90
_cell_angle_beta 90
_cell_angle_gamma 90
_cell_formula_units_Z 2
loop_
_atom_type_symbol
_atom_type_radius_bond
C 0.68
H 0.23
Cd 1.40
Cl 0.99
N 0.68
O 0.87
loop_
_atom_site_label
_atom_site_type_symbol
_atom_site_fract_x
_atom_site_fract_y
_atom_site_fract_z
Cd1 Cd 0.727615(16) 0.199761(16) 0.39967(3)
Cd2 Cd 1.00000 0.00000 0.00000
Cl1 Cl 0.69335(10) 0.15729(10) 0.22634(14)
N1 N 0.5184(3) 0.3188(3) 0.2202(5)
O1 O 0.84007(18) 0.2038(2) 0.3786(3)
O2 O 0.89251(17) 0.2586(2) 0.5063(4)
O3 O 0.9669(2) 0.0866(2) 0.1052(4)
O4 O 1.0730(2) 0.0732(2) 0.1280(3)
O5 O 1.19307(18) 0.2262(2) 0.3673(4)
O6 O 1.13847(19) 0.2767(2) 0.4985(4)
C1 C 0.8902(2) 0.2268(2) 0.4213(4)
C2 C 0.9565(2) 0.2124(3) 0.3708(4)
C3 C 0.9584(3) 0.1716(3) 0.2820(4)
H1 H 0.91900 0.15720 0.25150
C4 C 1.0186(3) 0.1522(3) 0.2382(4)
C5 C 1.0767(3) 0.1759(3) 0.2819(4)
H2 H 1.11700 0.16280 0.25330
C6 C 1.0760(2) 0.2195(3) 0.3688(4)
C7 C 1.0144(3) 0.2369(3) 0.4119(4)
H3 H 1.01290 0.26560 0.46960
C8 C 1.0201(3) 0.1009(3) 0.1509(4)
C9 C 1.1409(3) 0.2437(3) 0.4148(5)
C10 C 0.5588(4) 0.2672(3) 0.2742(7)
H4 H 0.59710 0.25780 0.23040
H5 H 0.57480 0.28540 0.34070
C11 C 0.5260(4) 0.2063(4) 0.2963(7)
H6 H 0.55610 0.17680 0.33160
H7 H 0.51150 0.18660 0.23100
H8 H 0.48840 0.21450 0.34100
C12 C 0.4643(5) 0.3417(5) 0.2889(10)
H9 H 0.44370 0.30430 0.32430
H10 H 0.43080 0.36420 0.24700
C13 C 0.4946(8) 0.3906(6) 0.3731(9)
H11 H 0.46010 0.40690 0.41850
H12 H 0.51530 0.42720 0.33720
H13 H 0.52710 0.36770 0.41490
C14 C 0.4906(5) 0.2926(5) 0.1136(9)
H14 H 0.46100 0.25590 0.12850
H15 H 0.46440 0.32740 0.08100
C15 C 0.5403(6) 0.2703(6) 0.0369(9)
H16 H 0.51860 0.25590 -0.02680
H17 H 0.56510 0.23420 0.06660
H18 H 0.56980 0.30630 0.02070
Cd1A Cd 1.272385(16) -0.199761(16) 0.39967(3)
Cd1F Cd 1.199761(16) -0.272385(16) -0.39967(3)
Cd1G Cd 0.800239(16) 0.272385(16) -0.39967(3)
Cd1G* Cd 0.800239(16) 0.272385(16) 0.60033(3)
Cd1B Cd 1.300239(16) 0.227615(16) 0.39967(3)
Cd1E Cd 1.227615(16) 0.300239(16) 0.60033(3)
Cd1F* Cd 1.199761(16) -0.272385(16) 0.60033(3)
Cd1C Cd 0.699761(16) -0.227615(16) 0.39967(3)
Cd1D Cd 0.772385(16) -0.300239(16) 0.60033(3)
Cd1A* Cd 1.272385(16) -0.199761(16) -0.60033(3)
Cd1E* Cd 1.227615(16) 0.300239(16) -0.39967(3)
Cd1B* Cd 1.300239(16) 0.227615(16) -0.60033(3)
Cd1* Cd 0.727615(16) 0.199761(16) -0.60033(3)
Cd1D* Cd 0.772385(16) -0.300239(16) -0.39967(3)
Cd1C* Cd 0.699761(16) -0.227615(16) -0.60033(3)
Cl1A Cl 1.30665(10) -0.15729(10) 0.22634(14)
Cl1F Cl 1.15729(10) -0.30665(10) -0.22634(14)
Cl1G Cl 0.84271(10) 0.30665(10) -0.22634(14)
O1A O 1.15993(18) -0.2038(2) 0.3786(3)
O1F O 1.20380(18) -0.15993(20) -0.3786(3)
O1G O 0.79620(18) 0.15993(20) -0.3786(3)
O2A O 1.10749(17) -0.2586(2) 0.5063(4)
O2F O 1.25860(17) -0.10749(20) -0.5063(4)
O2G O 0.74140(17) 0.10749(20) -0.5063(4)
O2G* O 0.74140(17) 0.10749(20) 0.4937(4)
O2F* O 1.25860(17) -0.10749(20) 0.4937(4)
O2A* O 1.10749(17) -0.2586(2) -0.4937(4)
O2* O 0.89251(17) 0.2586(2) -0.4937(4)
O3A O 1.0331(2) -0.0866(2) 0.1052(4)
O3F O 1.0866(2) -0.0331(2) -0.1052(4)
O3G O 0.9134(2) 0.0331(2) -0.1052(4)
O4A O 0.9270(2) -0.0732(2) 0.1280(3)
O4F O 1.0732(2) 0.0730(2) -0.1280(3)
O4G O 0.9268(2) -0.0730(2) -0.1280(3)
O5A O 0.80693(18) -0.2262(2) 0.3673(4)
O5F O 1.22620(18) 0.19307(20) -0.3673(4)
O5G O 0.77380(18) -0.19307(20) -0.3673(4)
O5C O 0.72620(18) 0.30693(20) 0.3673(4)
O5B O 1.27380(18) -0.30693(20) 0.3673(4)
O5D O 1.30693(18) -0.2738(2) -0.3673(4)
O5E O 0.69307(18) 0.2738(2) -0.3673(4)
O6A O 0.86153(19) -0.2767(2) 0.4985(4)
O6F O 1.27670(19) 0.13847(20) -0.4985(4)
O6G O 0.72330(19) -0.13847(20) -0.4985(4)
O6E O 0.63847(19) 0.2233(2) 0.5015(4)
O6D O 1.36153(19) -0.2233(2) 0.5015(4)
O6B O 1.22330(19) -0.36153(20) -0.5015(4)
O6C O 0.77670(19) 0.36153(20) -0.5015(4)
C1A C 1.1098(2) -0.2268(2) 0.4213(4)
C1F C 1.2268(2) -0.1098(2) -0.4213(4)
C1G C 0.7732(2) 0.1098(2) -0.4213(4)
C2A C 1.0435(2) -0.2124(3) 0.3708(4)
C2F C 1.2124(2) -0.0435(3) -0.3708(4)
C2G C 0.7876(2) 0.0435(3) -0.3708(4)
C3A C 1.0416(3) -0.1716(3) 0.2820(4)
C3F C 1.1716(3) -0.0416(3) -0.2820(4)
C3G C 0.8284(3) 0.0416(3) -0.2820(4)
H1A H 1.08100 -0.15720 0.25150
H1F H 1.15720 -0.08100 -0.25150
H1G H 0.84280 0.08100 -0.25150
C4A C 0.9814(3) -0.1522(3) 0.2382(4)
C4F C 1.1522(3) 0.0186(3) -0.2382(4)
C4G C 0.8478(3) -0.0186(3) -0.2382(4)
C5A C 0.9233(3) -0.1759(3) 0.2819(4)
C5F C 1.1759(3) 0.0767(3) -0.2819(4)
C5G C 0.8241(3) -0.0767(3) -0.2819(4)
H2A H 0.88300 -0.16280 0.25330
H2F H 1.16280 0.11700 -0.25330
H2G H 0.83720 -0.11700 -0.25330
C6A C 0.9240(2) -0.2195(3) 0.3688(4)
C6F C 1.2195(2) 0.0760(3) -0.3688(4)
C6G C 0.7805(2) -0.0760(3) -0.3688(4)
C7A C 0.9856(3) -0.2369(3) 0.4119(4)
C7F C 1.2369(3) 0.0144(3) -0.4119(4)
C7G C 0.7631(3) -0.0144(3) -0.4119(4)
H3A H 0.98710 -0.26560 0.46960
H3F H 1.26560 0.01290 -0.46960
H3G H 0.73440 -0.01290 -0.46960
C8A C 0.9799(3) -0.1009(3) 0.1509(4)
C8F C 1.1009(3) 0.0201(3) -0.1509(4)
C8G C 0.8991(3) -0.0201(3) -0.1509(4)
C9A C 0.8591(3) -0.2437(3) 0.4148(5)
C9F C 1.2437(3) 0.1409(3) -0.4148(5)
C9G C 0.7563(3) -0.1409(3) -0.4148(5)
#END
