
#######################################################################
#
#                 Cambridge Crystallographic Data Centre
#                                CCDC
#
#######################################################################
#
# If this CIF has been generated from an entry in the Cambridge
# Structural Database, then it will include bibliographic, chemical,
# crystal, experimental, refinement or atomic coordinate data resulting
# from the CCDC's data processing and validation procedures.
#
#######################################################################

data_CSD_CIF_MITSIS
_audit_creation_date 2008-06-05
_audit_creation_method CSD-ConQuest-V1
_database_code_CSD MITSIS
_database_code_depnum_ccdc_archive 'CCDC 602486'
_chemical_formula_sum 'C33 H33 Cd3 N1 O21'
_chemical_formula_moiety
;
(C6 H16 N1 1+)n,2n(H3 O1 1+),n(C27 H11 Cd3 O19 3-)
;
_journal_coden_Cambridge 1147
_journal_volume 8
_journal_year 2008
_journal_page_first 319
_journal_name_full 'Cryst.Growth Des. '
loop_
_publ_author_name
"Qianrong Fang"
"Guangshan Zhu"
"Ming Xue"
"Zhuopeng Wang"
"Jinyu Sun"
"Shilun Qiu"
_chemical_name_systematic
;
catena-(triethylammonium dioxonium 
(\m~5~-benzene-1,3,5-tricarboxylato)-(\m~4~-benzene-1,3,5-tricarboxylato)-(\m~
3~-benzene-1,3,5-tricarboxylato)-aqua-tri-cadmium(i))
;
_cell_volume   6618.982
_exptl_crystal_colour 'colorless'
_exptl_special_details
;
The oxonium cations are described but do not appear to have been modelled

;
_exptl_crystal_description 'block'
_diffrn_ambient_temperature 293
_refine_special_details
;
The oxonium cations do not appear to have been modelled and may have been 
taken into account using the SQUEEZE/PLATON proceedure.
;
#These two values have been output from a single CSD field.
_refine_ls_R_factor_gt 0.0573
_refine_ls_wR_factor_gt 0.0573
_symmetry_cell_setting monoclinic
_symmetry_space_group_name_H-M 'P 21/c'
_symmetry_Int_Tables_number 14
loop_
_symmetry_equiv_pos_site_id
_symmetry_equiv_pos_as_xyz
1 x,y,z
2 -x,1/2+y,1/2-z
3 -x,-y,-z
4 x,-1/2-y,-1/2+z
_cell_length_a 10.243(2)
_cell_length_b 36.485(8)
_cell_length_c 17.971(4)
_cell_angle_alpha 90
_cell_angle_beta 99.753(4)
_cell_angle_gamma 90
_cell_formula_units_Z 4
loop_
_atom_type_symbol
_atom_type_radius_bond
C 0.68
H 0.23
Cd 1.61
N 0.68
O 0.68
loop_
_atom_site_label
_atom_site_type_symbol
_atom_site_fract_x
_atom_site_fract_y
_atom_site_fract_z
Cd1 Cd 0.62550(3) 0.030608(10) 0.447297(19)
Cd2 Cd 0.84219(4) 0.004800(13) 0.99581(2)
Cd3 Cd 0.52492(5) 0.203076(12) 0.84699(3)
C1 C 0.6577(5) -0.01746(15) 0.5955(3)
C2 C 0.7951(4) -0.01690(14) 0.6413(3)
C3 C 0.8115(5) -0.01342(15) 0.7186(3)
H1 H 0.73720 -0.01170 0.74180
C4 C 0.9353(5) -0.01242(16) 0.7620(3)
C5 C 0.9526(6) -0.00957(19) 0.8468(3)
C6 C 1.0458(5) -0.01640(16) 0.7263(3)
H2 H 1.13030 -0.01690 0.75510
C7 C 1.0307(5) -0.01962(15) 0.6495(3)
C8 C 1.1507(5) -0.02384(16) 0.6126(3)
C9 C 0.9042(5) -0.01976(15) 0.6067(3)
H3 H 0.89360 -0.02180 0.55440
C10 C 0.5981(6) 0.10190(17) 0.4867(3)
C11 C 0.5786(6) 0.13920(16) 0.5149(3)
C12 C 0.5683(6) 0.14498(16) 0.5885(3)
H4 H 0.57870 0.12510 0.62150
C13 C 0.5428(7) 0.17948(15) 0.6166(4)
C14 C 0.5262(7) 0.18452(16) 0.6968(4)
C15 C 0.5329(8) 0.20896(17) 0.5667(4)
H5 H 0.51580 0.23220 0.58380
C16 C 0.5482(7) 0.20428(17) 0.4914(4)
C17 C 0.5408(7) 0.2367(2) 0.4404(4)
C18 C 0.5688(7) 0.16943(17) 0.4657(4)
H6 H 0.57620 0.16590 0.41530
C19 C 1.2824(8) 0.1773(2) 0.8716(5)
C20 C 1.1598(6) 0.15979(19) 0.8908(4)
C21 C 1.1653(6) 0.12516(19) 0.9223(4)
H7 H 1.24550 0.11260 0.93230
C22 C 1.0516(7) 0.1093(2) 0.9389(4)
C23 C 1.0572(12) 0.0706(3) 0.9695(4)
C24 C 0.9321(6) 0.1286(2) 0.9238(4)
H8 H 0.85550 0.11790 0.93520
C25 C 0.9258(6) 0.1621(2) 0.8933(4)
C26 C 0.7905(9) 0.1805(3) 0.8782(6)
C27 C 1.0361(7) 0.1787(2) 0.8737(5)
H9 H 1.03020 0.20150 0.85010
C28 C 0.4308(15) 0.0630(4) 0.6702(8)
H10 H 0.50400 0.06360 0.64240
H11 H 0.41430 0.03760 0.68100
C29 C 0.3256(19) 0.0760(5) 0.6265(10)
H12 H 0.30760 0.06160 0.58110
H13 H 0.34110 0.10100 0.61390
H14 H 0.25110 0.07480 0.65240
C30 C 0.3746(15) 0.0852(4) 0.7923(8)
H15 H 0.29750 0.09750 0.76450
H16 H 0.40570 0.09940 0.83760
C31 C 0.3341(16) 0.0448(4) 0.8154(9)
H17 H 0.26830 0.04650 0.84750
H18 H 0.41090 0.03240 0.84190
H19 H 0.29890 0.03120 0.77070
C32 C 0.6114(16) 0.0708(4) 0.7922(10)
H20 H 0.61890 0.08070 0.84280
H21 H 0.60760 0.04430 0.79680
C33 C 0.745(2) 0.0803(6) 0.7628(11)
H22 H 0.81930 0.07100 0.79790
H23 H 0.75360 0.10640 0.75850
H24 H 0.74460 0.06920 0.71430
O1 O 0.6438(3) -0.01815(10) 0.52507(19)
O2 O 0.5622(3) -0.01870(13) 0.6307(2)
O3 O 0.6133(5) 0.07562(11) 0.5337(2)
O4 O 0.6000(6) 0.09599(12) 0.4189(3)
O5 O 0.8493(5) -0.00460(15) 0.8743(2)
O6 O 1.0683(4) -0.01094(16) 0.8821(2)
O7 O 0.5193(6) 0.21596(12) 0.7220(3)
O8 O 0.5194(6) 0.15698(12) 0.7366(3)
O9 O 1.2770(7) 0.20576(17) 0.8356(4)
O10 O 1.3910(5) 0.16063(14) 0.8947(3)
O11 O 0.5323(6) 0.23206(13) 0.3701(3)
O12 O 0.5407(7) 0.26785(14) 0.4688(3)
O13 O 1.1384(4) -0.03435(14) 0.5460(2)
O14 O 1.2618(4) -0.01616(14) 0.6499(2)
O15 O 0.7818(8) 0.2105(3) 0.8457(6)
O16 O 0.6983(6) 0.1665(2) 0.8986(4)
O17 O 0.9458(7) 0.05789(18) 0.9790(4)
O18 O 1.1677(7) 0.05407(17) 0.9808(3)
O19 O 0.6157(5) 0.02325(16) 0.9916(3)
N1 N 0.4751(10) 0.0835(2) 0.7474(5)
Cd1B Cd 0.37450(3) -0.030608(10) 0.552703(19)
Cd1B* Cd 1.37450(3) -0.030608(10) 0.552703(19)
Cd2B Cd 1.15781(4) -0.004800(13) 1.00419(2)
Cd3* Cd 1.52492(5) 0.203076(12) 0.84699(3)
Cd3C Cd 0.52492(5) 0.296924(12) 0.34699(3)
O2B O 0.4378(3) 0.01870(13) 0.3693(2)
O6B O 0.9317(4) 0.01094(16) 1.1179(2)
O9* O 0.2770(7) 0.20576(17) 0.8356(4)
O10* O 0.3910(5) 0.16063(14) 0.8947(3)
O11C O 0.5323(6) 0.26794(13) 0.8701(3)
O12C O 0.5407(7) 0.23215(14) 0.9688(3)
O13B O 0.8616(4) 0.03435(14) 0.4540(2)
O14B O 0.7382(4) 0.01616(14) 0.3501(2)
O18B O 0.8323(7) -0.05407(17) 1.0192(3)
#END
