
#######################################################################
#
#                 Cambridge Crystallographic Data Centre
#                                CCDC
#
#######################################################################
#
# If this CIF has been generated from an entry in the Cambridge
# Structural Database, then it will include bibliographic, chemical,
# crystal, experimental, refinement or atomic coordinate data resulting
# from the CCDC's data processing and validation procedures.
#
#######################################################################

data_CSD_CIF_MITSAK
_audit_creation_date 2008-06-05
_audit_creation_method CSD-ConQuest-V1
_database_code_CSD MITSAK
_database_code_depnum_ccdc_archive 'CCDC 602484'
_chemical_formula_sum 'C68 H108 Cd4 N4 O36'
_chemical_formula_moiety
;
(C6 H14 N1 1+)4n,n(C36 H20 Cd4 O28 4-),4n(C2 H6 O1),4n(H2 O1)
;
_journal_coden_Cambridge 1147
_journal_volume 8
_journal_year 2008
_journal_page_first 319
_journal_name_full 'Cryst.Growth Des. '
loop_
_publ_author_name
"Qianrong Fang"
"Guangshan Zhu"
"Ming Xue"
"Zhuopeng Wang"
"Jinyu Sun"
"Shilun Qiu"
_chemical_name_systematic
;
catena-(tetrakis(cyclohexylammonium) 
tetrakis(\m~4~-benzene-1,3,5-tricarboxylato)-tetra-aqua-tetra-cadmium(ii) 
ethanol solvate tetrahydrate)
;
_cell_volume   3716.100
_exptl_crystal_colour 'colorless'
_exptl_crystal_description 'block'
_diffrn_ambient_temperature 293
_refine_special_details
;
The cations are disordered by symmetry.

;
#These two values have been output from a single CSD field.
_refine_ls_R_factor_gt 0.0923
_refine_ls_wR_factor_gt 0.0923
_symmetry_cell_setting monoclinic
_symmetry_space_group_name_H-M 'P 21/c'
_symmetry_Int_Tables_number 14
loop_
_symmetry_equiv_pos_site_id
_symmetry_equiv_pos_as_xyz
1 x,y,z
2 -x,1/2+y,1/2-z
3 -x,-y,-z
4 x,-1/2-y,-1/2+z
_cell_length_a 16.0984(16)
_cell_length_b 14.6070(14)
_cell_length_c 16.1257(16)
_cell_angle_alpha 90
_cell_angle_beta 101.479(2)
_cell_angle_gamma 90
_cell_formula_units_Z 2
loop_
_atom_type_symbol
_atom_type_radius_bond
C 0.68
H 0.23
Cd 1.59
N 0.68
O 0.68
loop_
_atom_site_label
_atom_site_type_symbol
_atom_site_fract_x
_atom_site_fract_y
_atom_site_fract_z
Cd1 Cd 0.457719(16) 0.931796(18) 0.391396(16)
Cd2 Cd 0.04233(2) 1.06734(3) 0.108630(19)
N1 N 0.5320(3) 0.6754(4) 0.3597(3)
N2 N 0.9666(4) 0.2055(4) 0.6449(4)
O1 O 0.14716(19) 1.0354(2) 0.23729(16)
O2 O 0.05373(18) 1.1449(2) 0.23592(17)
O3 O 0.40412(17) 1.0340(2) 0.47292(17)
O4 O 0.40564(15) 1.12585(19) 0.58346(16)
O5 O 0.1673(2) 1.3269(3) 0.59854(18)
O6 O 0.05363(19) 1.3274(3) 0.49656(19)
O7 O 0.44370(19) 0.8277(2) 0.50047(17)
O8 O 0.3303(2) 0.8274(3) 0.4005(2)
O9 O 0.4448(2) 0.6493(3) 0.7629(2)
O10 O 0.3529(2) 0.5405(3) 0.76468(19)
O11 O 0.0944(2) 0.6235(3) 0.41557(18)
O12 O 0.09422(19) 0.5372(3) 0.52400(19)
O13 O -0.0139(2) 0.9277(3) 0.1471(2)
O14 O 0.5112(2) 1.0709(2) 0.3506(2)
O15 O 0.6237(3) 0.1102(4) 0.2495(3)
O16 O 0.8795(3) 0.8580(4) 0.2554(3)
O17 O 0.8258(2) 0.1393(2) 0.6967(2)
O18 O 0.6738(2) 0.6334(3) 0.3023(2)
C1 C 0.1177(2) 1.1033(3) 0.2709(2)
C2 C 0.1665(3) 1.1336(3) 0.3601(2)
C3 C 0.1289(2) 1.2004(3) 0.4009(2)
H1 H 0.07680 1.22490 0.37510
C4 C 0.1679(3) 1.2304(3) 0.4785(2)
C5 C 0.2460(2) 1.1939(2) 0.5152(2)
H2 H 0.27380 1.21500 0.56780
C6 C 0.2836(2) 1.1259(2) 0.4744(2)
C7 C 0.2439(2) 1.0981(3) 0.3957(2)
H3 H 0.26950 1.05520 0.36630
C8 C 0.1291(3) 1.2989(3) 0.5314(3)
C9 C 0.3698(2) 1.0921(3) 0.5127(2)
C10 C 0.3717(3) 0.7984(3) 0.4721(2)
C11 C 0.3294(3) 0.7307(3) 0.5148(3)
C12 C 0.3718(3) 0.6994(4) 0.6019(3)
H4 H 0.42300 0.72590 0.62770
C13 C 0.3388(3) 0.6364(4) 0.6418(3)
C14 C 0.2597(3) 0.5976(4) 0.6064(3)
H5 H 0.23620 0.55250 0.63540
C15 C 0.2141(3) 0.6295(4) 0.5222(3)
C16 C 0.2537(3) 0.6915(3) 0.4844(3)
H6 H 0.22620 0.71010 0.43080
C17 C 0.3806(3) 0.6037(4) 0.7311(3)
C18 C 0.1284(3) 0.5918(3) 0.4867(3)
C19 C 0.5180(4) 0.6230(4) 0.4313(4)
C20 C 0.5969(4) 0.6338(5) 0.5069(4)
C21 C 0.5958(6) 0.5751(7) 0.5763(6)
C22 C 0.5076(4) 0.4574(6) 0.4795(5)
C23 C 0.5782(5) 0.4699(6) 0.5564(5)
C24 C 0.5183(4) 0.5135(6) 0.4075(4)
C25 C 0.9736(4) 0.1489(4) 0.5709(4)
C26 C 0.9046(5) 0.1639(4) 0.4933(4)
C27 C 0.9080(5) 0.1075(6) 0.4221(5)
C28 C 0.9872(5) 0.0494(5) 0.6009(5)
C29 C 0.9936(5) -0.0085(7) 0.5224(4)
C30 C 0.9159(5) 0.0090(5) 0.4559(4)
C31 C 0.6946(4) 0.1457(5) 0.2527(4)
C32 C 0.7654(4) 0.1136(5) 0.3176(3)
C33 C 0.8021(7) 0.8247(7) 0.2392(5)
C34 C 0.7327(4) 0.8561(4) 0.1822(4)
Cd1B Cd 0.542281(16) 1.068204(18) 0.608604(16)
Cd1C Cd 0.457719(16) 0.568204(18) 0.891396(16)
Cd1C* Cd 0.457719(16) 0.568204(18) -0.108604(16)
Cd2B Cd 0.95767(2) 0.93266(3) 0.891370(19)
Cd2C Cd 0.04233(2) 1.43266(3) 0.608630(19)
Cd2A Cd -0.04233(2) 0.56734(3) 0.391370(19)
Cd2C* Cd 0.04233(2) 0.43266(3) 0.608630(19)
Cd2A* Cd 0.95767(2) 0.56734(3) 0.391370(19)
Cd2B* Cd -0.04233(2) 0.93266(3) -0.108630(19)
N1B N 0.4680(3) 0.3246(4) 0.6403(3)
N2B N 1.0334(4) -0.2055(4) 0.3551(4)
O1B O 0.85284(19) 0.9646(2) 0.76271(16)
O2B O 0.94627(18) 0.8551(2) 0.76408(17)
O3B O 0.59588(17) 0.9660(2) 0.52708(17)
O4B O 0.59436(15) 0.87415(19) 0.41654(16)
O5B O 0.8327(2) 0.6731(3) 0.40146(18)
O5C O 0.1673(2) 1.1731(3) 0.09854(18)
O5A O 0.8327(2) 0.8269(3) 0.90146(18)
O6B O 0.94637(19) 0.6726(3) 0.50344(19)
O6C O 0.05363(19) 1.1726(3) -0.00344(19)
O6A O 0.94637(19) 0.8274(3) 1.00344(19)
O7C O 0.44370(19) 0.6723(2) 0.00047(17)
O7B O 0.55630(19) 1.1723(2) 0.49953(17)
O8C O 0.3303(2) 0.6726(3) -0.0995(2)
O8B O 0.6697(2) 1.1726(3) 0.5995(2)
O9C O 0.4448(2) 0.8507(3) 0.2629(2)
O9A O 0.5552(2) 1.1493(3) 0.7371(2)
O10C O 0.3529(2) 0.9595(3) 0.26468(19)
O10A O 0.6471(2) 1.0405(3) 0.73532(19)
O11C O 0.0944(2) 0.8765(3) -0.08443(18)
O11A O -0.0944(2) 1.1235(3) 0.08443(18)
O11C* O 1.0944(2) 0.8765(3) 0.91557(18)
O12C O 0.09422(19) 0.9628(3) 0.02400(19)
O12A O 0.90578(19) 1.0372(3) 0.97600(19)
O13B O 1.0139(2) 1.0723(3) 0.8529(2)
O14B O 0.4888(2) 0.9291(2) 0.6494(2)
C1B C 0.8823(2) 0.8967(3) 0.7291(2)
C2B C 0.8335(3) 0.8664(3) 0.6399(2)
C3B C 0.8711(2) 0.7996(3) 0.5991(2)
H1B H 0.92320 0.77510 0.62490
C4B C 0.8321(3) 0.7696(3) 0.5215(2)
C5B C 0.7540(2) 0.8061(2) 0.4848(2)
H2B H 0.72620 0.78500 0.43220
C6B C 0.7164(2) 0.8741(2) 0.5256(2)
C7B C 0.7561(2) 0.9019(3) 0.6043(2)
H3B H 0.73050 0.94480 0.63370
C8B C 0.8709(3) 0.7011(3) 0.4686(3)
C9B C 0.6302(2) 0.9079(3) 0.4873(2)
C10C C 0.3717(3) 0.7016(3) -0.0279(2)
C11C C 0.3294(3) 0.7693(3) 0.0148(3)
C12C C 0.3718(3) 0.8006(4) 0.1019(3)
H4C H 0.42300 0.77410 0.12770
C13C C 0.3388(3) 0.8636(4) 0.1418(3)
C14C C 0.2597(3) 0.9024(4) 0.1064(3)
H5C H 0.23620 0.94750 0.13540
C15C C 0.2141(3) 0.8705(4) 0.0222(3)
C16C C 0.2537(3) 0.8085(3) -0.0156(3)
H6C H 0.22620 0.78990 -0.06920
C17C C 0.3806(3) 0.8963(4) 0.2311(3)
C18C C 0.1284(3) 0.9082(3) -0.0133(3)
C19B C 0.4820(4) 0.3770(4) 0.5687(4)
C20B C 0.4031(4) 0.3662(5) 0.4931(4)
C21B C 0.4042(6) 0.4249(7) 0.4237(6)
C22B C 0.4924(4) 0.5426(6) 0.5205(5)
C23B C 0.4218(5) 0.5301(6) 0.4436(5)
C24B C 0.4817(4) 0.4865(6) 0.5925(4)
C25B C 1.0264(4) -0.1489(4) 0.4291(4)
C26B C 1.0954(5) -0.1639(4) 0.5067(4)
C27B C 1.0920(5) -0.1075(6) 0.5779(5)
C28B C 1.0128(5) -0.0494(5) 0.3991(5)
C29B C 1.0064(5) 0.0085(7) 0.4776(4)
C30B C 1.0841(5) -0.0090(5) 0.5441(4)
#END
