
#######################################################################
#
#                 Cambridge Crystallographic Data Centre
#                                CCDC
#
#######################################################################
#
# If this CIF has been generated from an entry in the Cambridge
# Structural Database, then it will include bibliographic, chemical,
# crystal, experimental, refinement or atomic coordinate data resulting
# from the CCDC's data processing and validation procedures.
#
#######################################################################

data_CSD_CIF_MITSUE
_audit_creation_date 2008-06-05
_audit_creation_method CSD-ConQuest-V1
_database_code_CSD MITSUE
_database_code_depnum_ccdc_archive 'CCDC 602488'
_chemical_formula_sum 'C18 H25 Cd1 N1 O6'
_chemical_formula_moiety
;
(C9 H22 N1 1+)n,n(C9 H3 Cd1 O6 1-)
;
_journal_coden_Cambridge 1147
_journal_volume 8
_journal_year 2008
_journal_page_first 319
_journal_name_full 'Cryst.Growth Des. '
loop_
_publ_author_name
"Qianrong Fang"
"Guangshan Zhu"
"Ming Xue"
"Zhuopeng Wang"
"Jinyu Sun"
"Shilun Qiu"
_chemical_name_systematic
;
catena-(tri-n-propylammonium (\m~4~-benzene-1,3,5-tricarboxylato)-cadmium(ii))
;
_cell_volume   1944.289
_exptl_crystal_colour 'colorless'
_exptl_crystal_density_diffrn 1.581
_exptl_crystal_description 'block'
_diffrn_ambient_temperature 293
#These two values have been output from a single CSD field.
_refine_ls_R_factor_gt 0.03
_refine_ls_wR_factor_gt 0.03
_symmetry_cell_setting monoclinic
_symmetry_space_group_name_H-M 'P 21/c'
_symmetry_Int_Tables_number 14
loop_
_symmetry_equiv_pos_site_id
_symmetry_equiv_pos_as_xyz
1 x,y,z
2 -x,1/2+y,1/2-z
3 -x,-y,-z
4 x,-1/2-y,-1/2+z
_cell_length_a 10.0355(5)
_cell_length_b 12.8190(6)
_cell_length_c 15.4797(7)
_cell_angle_alpha 90
_cell_angle_beta 102.486(1)
_cell_angle_gamma 90
_cell_formula_units_Z 4
loop_
_atom_type_symbol
_atom_type_radius_bond
C 0.60
H 0.23
Cd 1.69
N 0.68
O 0.68
loop_
_atom_site_label
_atom_site_type_symbol
_atom_site_fract_x
_atom_site_fract_y
_atom_site_fract_z
Cd1 Cd 0.178712(7) 0.966051(6) 0.091685(5)
O1 O 0.37865(8) 0.91392(7) 0.04833(5)
O2 O 0.34864(8) 0.84479(7) 0.17227(6)
O3 O 0.68834(10) 0.59953(9) 0.33390(7)
O4 O 0.87489(10) 0.56568(9) 0.29086(8)
O5 O 1.02586(7) 0.84566(7) 0.10373(6)
O6 O 0.87987(10) 0.96875(6) 0.04562(7)
C1 C 0.42126(11) 0.86164(9) 0.11735(8)
C2 C 0.56325(11) 0.81975(9) 0.13488(8)
C3 C 0.66295(10) 0.86377(10) 0.09504(7)
H1 H 0.63970 0.91740 0.05410
C4 C 0.79671(11) 0.82729(9) 0.11684(8)
C5 C 0.82932(11) 0.74369(9) 0.17529(8)
H2 H 0.91760 0.71710 0.18750
C6 C 0.73233(11) 0.69990(9) 0.21532(8)
C7 C 0.59954(12) 0.73883(9) 0.19510(8)
H3 H 0.53410 0.71020 0.22240
C8 C 0.76801(12) 0.61584(9) 0.28373(9)
C9 C 0.90688(11) 0.88357(9) 0.08424(8)
C10 C 0.55185(15) 0.26811(12) 0.10469(10)
H4 H 0.57110 0.25260 0.04730
H5 H 0.47750 0.22320 0.11250
C11 C 0.50669(19) 0.37908(14) 0.10528(13)
H6 H 0.57590 0.42430 0.09050
H7 H 0.49550 0.39750 0.16410
C12 C 0.3724(2) 0.39524(19) 0.03896(15)
H8 H 0.34520 0.46700 0.03990
H9 H 0.30350 0.35150 0.05440
H10 H 0.38380 0.37750 -0.01930
C13 C 0.80155(15) 0.29921(14) 0.16603(10)
H11 H 0.87270 0.28420 0.21780
H12 H 0.78340 0.37350 0.16610
C14 C 0.85532(17) 0.27375(18) 0.08444(12)
H13 H 0.87790 0.20020 0.08470
H14 H 0.78480 0.28750 0.03210
C15 C 0.98039(18) 0.3374(2) 0.08061(14)
H15 H 1.01200 0.31950 0.02830
H16 H 1.05080 0.32300 0.13190
H17 H 0.95790 0.41030 0.07920
C16 C 0.7889(2) 0.10671(17) 0.33868(15)
H18 H 0.86320 0.07450 0.37960
H19 H 0.70390 0.08260 0.35030
H20 H 0.79470 0.18110 0.34560
C17 C 0.7964(2) 0.07950(19) 0.24967(14)
H21 H 0.79100 0.00420 0.24390
H22 H 0.88490 0.10070 0.24020
C18 C 0.69014(17) 0.12570(12) 0.17930(11)
H23 H 0.60300 0.09700 0.18490
H24 H 0.70650 0.10210 0.12300
N1 N 0.67596(11) 0.24277(10) 0.17496(7)
Cd1A Cd 0.821288(7) 0.466051(6) 0.408315(5)
Cd1* Cd 1.178712(7) 0.966051(6) 0.091685(5)
Cd1B Cd 0.821288(7) 1.033949(6) -0.091685(5)
O3A O 0.31166(10) 1.09953(9) 0.16610(7)
O4A O 0.12511(10) 1.06568(9) 0.20914(8)
O5* O 0.02586(7) 0.84566(7) 0.10373(6)
O6B O 0.12013(10) 1.03125(6) -0.04562(7)
#END
