
#######################################################################
#
#                 Cambridge Crystallographic Data Centre
#                                CCDC
#
#######################################################################
#
# If this CIF has been generated from an entry in the Cambridge
# Structural Database, then it will include bibliographic, chemical,
# crystal, experimental, refinement or atomic coordinate data resulting
# from the CCDC's data processing and validation procedures.
#
#######################################################################

data_CSD_CIF_MITSOY
_audit_creation_date 2008-06-05
_audit_creation_method CSD-ConQuest-V1
_database_code_CSD MITSOY
_database_code_depnum_ccdc_archive 'CCDC 602487'
_chemical_formula_sum 'C18 H27 N1 O7 Zn1'
_chemical_formula_moiety
;
(C9 H22 N1 1+)n,n(C9 H5 O7 Zn1 1-)
;
_journal_coden_Cambridge 1147
_journal_volume 8
_journal_year 2008
_journal_page_first 319
_journal_name_full 'Cryst.Growth Des. '
loop_
_publ_author_name
"Qianrong Fang"
"Guangshan Zhu"
"Ming Xue"
"Zhuopeng Wang"
"Jinyu Sun"
"Shilun Qiu"
_chemical_name_systematic
;
catena-(tri-n-propylammonium 
(\m~3~-benzene-1,3,5-tricarboxylato)-aqua-zinc(ii))
;
_cell_volume   2150.929
_exptl_crystal_colour 'colorless'
_exptl_crystal_density_diffrn 1.333
_exptl_special_details
;
Space group published as P21/c, we have used P21/n from the deposited CIF

;
_exptl_crystal_description 'block'
_diffrn_ambient_temperature 293
#These two values have been output from a single CSD field.
_refine_ls_R_factor_gt 0.0505
_refine_ls_wR_factor_gt 0.0505
_symmetry_cell_setting monoclinic
_symmetry_space_group_name_H-M 'P 21/n'
_symmetry_Int_Tables_number 14
loop_
_symmetry_equiv_pos_site_id
_symmetry_equiv_pos_as_xyz
1 x,y,z
2 1/2-x,1/2+y,1/2-z
3 -x,-y,-z
4 -1/2+x,-1/2-y,-1/2+z
_cell_length_a 11.061(2)
_cell_length_b 16.136(3)
_cell_length_c 12.343(3)
_cell_angle_alpha 90
_cell_angle_beta 102.48(3)
_cell_angle_gamma 90
_cell_formula_units_Z 4
loop_
_atom_type_symbol
_atom_type_radius_bond
C 0.68
H 0.23
N 0.68
O 0.68
Zn 1.45
loop_
_atom_site_label
_atom_site_type_symbol
_atom_site_fract_x
_atom_site_fract_y
_atom_site_fract_z
Zn1 Zn 0.81157(4) 1.07957(3) 0.48202(3)
N1 N 0.4595(4) 0.1892(3) 0.2425(5)
O1 O 0.7196(3) 0.9884(2) 0.4016(3)
O2 O 0.8409(3) 0.9056(2) 0.3297(3)
O3 O 0.3266(3) 0.8862(2) 0.4556(2)
O4 O 0.2394(3) 0.7749(2) 0.3681(3)
O5 O 0.6525(3) 0.6658(2) 0.1125(3)
O6 O 0.4626(3) 0.6264(2) 0.1191(3)
O7 O 0.9401(2) 1.03491(19) 0.6015(2)
C1 C 0.7424(4) 0.9241(3) 0.3516(4)
C2 C 0.6350(4) 0.8656(3) 0.3200(3)
C3 C 0.6403(4) 0.8003(3) 0.2481(4)
H1 H 0.70950 0.79450 0.21740
C4 C 0.5447(4) 0.7439(3) 0.2212(3)
C5 C 0.4421(3) 0.7528(3) 0.2663(3)
H2 H 0.37710 0.71530 0.24780
C6 C 0.4347(4) 0.8175(3) 0.3394(3)
C7 C 0.5317(4) 0.8738(3) 0.3647(3)
H3 H 0.52680 0.91770 0.41250
C8 C 0.5526(4) 0.6725(3) 0.1450(4)
C9 C 0.3229(4) 0.8257(3) 0.3901(3)
C10 C 0.5219(7) 0.2578(5) 0.3164(8)
H4 H 0.59510 0.23540 0.36550
H5 H 0.54920 0.29960 0.27050
C11 C 0.4478(9) 0.2967(7) 0.3818(8)
H6 H 0.42700 0.25690 0.43370
H7 H 0.37130 0.31580 0.33420
C12 C 0.5144(13) 0.3693(7) 0.4450(8)
H8 H 0.46190 0.39490 0.48790
H9 H 0.53470 0.40890 0.39360
H10 H 0.58900 0.35030 0.49360
C13 C 0.4436(9) 0.1136(6) 0.3037(9)
H11 H 0.49650 0.07220 0.28090
H12 H 0.47910 0.12550 0.38110
C14 C 0.3327(14) 0.0750(8) 0.3020(12)
H13 H 0.28400 0.11290 0.33610
H14 H 0.35090 0.02760 0.35120
C15 C 0.2539(10) 0.0460(7) 0.2031(8)
H15 H 0.18080 0.02210 0.22030
H16 H 0.29640 0.00480 0.16940
H17 H 0.23100 0.09150 0.15270
C16 C 0.5604(13) 0.1672(11) 0.1752(9)
H18 H 0.63150 0.20310 0.19940
H19 H 0.58740 0.11060 0.19180
C17 C 0.5284(13) 0.1736(12) 0.0875(10)
H20 H 0.50820 0.23100 0.06870
H21 H 0.45450 0.14040 0.06240
C18 C 0.6371(14) 0.1426(12) 0.0285(10)
H22 H 0.60970 0.14710 -0.05060
H23 H 0.65700 0.08590 0.04810
H24 H 0.70930 0.17640 0.05280
Zn1B Zn 0.18843(4) 0.92043(3) 0.51798(3)
Zn1A Zn 0.68843(4) 0.57957(3) 0.01798(3)
O3B O 0.6734(3) 1.1138(2) 0.5444(2)
O5A O 0.8475(3) 1.1658(2) 0.3875(3)
#END
