
#######################################################################
#
#                 Cambridge Crystallographic Data Centre
#                                CCDC
#
#######################################################################
#
# If this CIF has been generated from an entry in the Cambridge
# Structural Database, then it will include bibliographic, chemical,
# crystal, experimental, refinement or atomic coordinate data resulting
# from the CCDC's data processing and validation procedures.
#
#######################################################################

data_CSD_CIF_MITYUM
_audit_creation_date 2019-02-26
_audit_creation_method CSD-ConQuest-V1
_database_code_CSD MITYUM
_database_code_depnum_ccdc_archive 'CCDC 1891066'
_chemical_formula_sum 'C36 H64 Cu4 Ge1 La0.5 N6 Na0.5 O72 W12'
_chemical_formula_moiety
;
(C36 H38 Cu4 Ge1 N6 O59 W12 2-)n,0.5n(La1 3+),0.5n(Na1 1+),13n(H2 O1)
;
_journal_coden_Cambridge 222
_journal_volume 48
_journal_year 2019
_journal_page_first 3730
_journal_name_full 'Dalton Trans. '
loop_
_publ_author_name
"Huijie Li"
"Peijun Gong"
"Jun Jiang"
"Yamin Li"
"Jingjing Pang"
"Lijuan Chen"
"Junwei Zhao"
_chemical_name_systematic
;
catena-(hemi-lanthanum hemi-sodium 
hentriacontakis(\m-oxo)-bis(\m-2-picolinato)-hepta-aqua-nonaoxo-tetrakis(2-pic
olinato)-tetra-copper-germanium-dodeca-tungsten tridecahydrate)
;
_cell_volume   8578.614
_exptl_crystal_colour 'mazarine'
_exptl_crystal_density_diffrn 3.366
_exptl_special_details
;
Due to disorder, we have represented the structure ionically

;
_exptl_crystal_description 'block'
_diffrn_ambient_temperature 296.1
_refine_special_details
;
The lanthanum and sodium atoms are disordered on the same site with equal 
occupancies.
;
#These two values have been output from a single CSD field.
_refine_ls_R_factor_gt 0.0502
_refine_ls_wR_factor_gt 0.0502
_symmetry_cell_setting monoclinic
_symmetry_space_group_name_H-M 'P 21/n'
_symmetry_Int_Tables_number 14
loop_
_symmetry_equiv_pos_site_id
_symmetry_equiv_pos_as_xyz
1 x,y,z
2 1/2-x,1/2+y,1/2-z
3 -x,-y,-z
4 -1/2+x,-1/2-y,-1/2+z
_cell_length_a 18.7617(9)
_cell_length_b 14.7533(7)
_cell_length_c 31.1104(15)
_cell_angle_alpha 90
_cell_angle_beta 94.991(1)
_cell_angle_gamma 90
_cell_formula_units_Z 4
loop_
_atom_type_symbol
_atom_type_radius_bond
C 0.68
H 0.23
Cu 1.32
Ge 1.17
La 2.07
N 0.68
Na 1.66
O 0.68
W 1.62
loop_
_atom_site_label
_atom_site_type_symbol
_atom_site_fract_x
_atom_site_fract_y
_atom_site_fract_z
W1 W 0.38168(3) -0.58257(4) -0.32433(2)
W2 W 0.39795(3) -0.56451(4) -0.16383(2)
W3 W 0.60489(3) -0.39704(4) -0.32518(2)
W4 W 0.45755(3) -0.72037(4) -0.24770(2)
W5 W 0.55533(3) -0.64063(4) -0.32485(2)
W6 W 0.44497(3) -0.34471(4) -0.16419(2)
W7 W 0.32394(3) -0.42595(4) -0.24016(2)
W8 W 0.63667(3) -0.40824(4) -0.16476(2)
W9 W 0.55172(3) -0.25591(4) -0.24981(2)
W10 W 0.43112(3) -0.33848(4) -0.32602(2)
W11 W 0.58988(3) -0.62762(4) -0.16308(2)
W12 W 0.68815(3) -0.55045(4) -0.24020(2)
Ge1 Ge 0.50506(7) -0.48836(9) -0.24472(5)
Cu1 Cu 0.59483(10) -0.72309(12) -0.04208(7)
Cu2 Cu 0.34676(11) -0.88790(16) -0.00556(7)
Cu3 Cu 0.48910(11) -0.99640(13) -0.23748(7)
Cu4 Cu 0.44035(12) -1.00866(18) -0.40257(8)
N1 N 0.5801(7) -0.5912(9) -0.0413(4)
N2 N 0.3395(7) -0.8824(9) -0.0686(5)
N3 N 0.3439(7) -0.8869(9) 0.0575(5)
N4 N 0.5801(7) -0.9299(9) -0.2327(5)
N5 N 0.3992(7) -1.0667(8) -0.2402(5)
N6 N 0.5432(7) -1.0396(9) -0.3883(4)
O1 O 0.5787(8) -0.7509(10) 0.0288(5)
O2 O 0.6248(6) -0.8500(7) -0.0507(4)
O3 O 0.2713(10) -0.7523(13) -0.0079(7)
O4 O 0.336(1) -0.9890(13) -0.4266(7)
O5 O 0.4287(9) -1.1490(11) -0.4441(6)
O6 O 0.4357(11) -0.8544(14) -0.3695(8)
O7 O 0.5963(6) -0.6995(7) -0.3629(4)
O8 O 0.7723(5) -0.5799(8) -0.2515(4)
O9 O 0.4380(6) -0.8304(7) -0.2370(4)
O10 O 0.5721(5) -0.1450(6) -0.2396(4)
O11 O 0.3116(6) -0.6021(7) -0.3616(4)
O12 O 0.6733(5) -0.6346(6) -0.1950(4)
O13 O 0.4604(5) -0.6302(6) -0.3542(3)
O14 O 0.3586(5) -0.6233(7) -0.1252(4)
O15 O 0.3517(5) -0.3402(6) -0.1957(3)
O16 O 0.3160(5) -0.5137(6) -0.1953(3)
O17 O 0.5186(5) -0.7400(6) -0.2929(3)
O18 O 0.4988(5) -0.5889(6) -0.1495(3)
O19 O 0.6152(5) -0.3212(6) -0.2094(3)
O20 O 0.3774(6) -0.2829(7) -0.3649(4)
O21 O 0.3818(5) -0.6932(7) -0.2922(3)
O22 O 0.5382(5) -0.6978(6) -0.2082(3)
O23 O 0.6625(6) -0.3756(7) -0.3631(4)
O24 O 0.5172(5) -0.3488(6) -0.3548(3)
O25 O 0.4806(5) -0.2791(6) -0.2096(4)
O26 O 0.6296(5) -0.6222(6) -0.2791(3)
O27 O 0.5826(5) -0.5120(6) -0.2118(3)
O28 O 0.6650(5) -0.4543(7) -0.2801(3)
O29 O 0.6316(5) -0.5217(6) -0.1339(3)
O30 O 0.4048(5) -0.6540(6) -0.2077(3)
O31 O 0.3366(5) -0.5220(6) -0.2794(3)
O32 O 0.4755(5) -0.2385(6) -0.2948(3)
O33 O 0.6115(5) -0.7059(6) -0.1231(3)
O34 O 0.5709(5) -0.5178(6) -0.3397(4)
O35 O 0.2353(6) -0.3971(8) -0.2511(4)
O36 O 0.5188(4) -0.3972(5) -0.2775(3)
O37 O 0.7097(5) -0.4593(6) -0.1963(3)
O38 O 0.4379(5) -0.4634(6) -0.2118(3)
O39 O 0.4814(5) -0.5815(6) -0.2769(3)
O40 O 0.4364(6) -0.2630(7) -0.1267(3)
O41 O 0.4107(5) -0.4624(6) -0.3388(4)
O42 O 0.3698(5) -0.3540(6) -0.2802(3)
O43 O 0.4119(5) -0.4487(7) -0.1336(3)
O44 O 0.5404(5) -0.3831(6) -0.1502(3)
O45 O 0.6146(5) -0.2837(6) -0.2935(3)
O46 O 0.6866(5) -0.3481(7) -0.1268(4)
O47 O 0.7640(7) -0.5717(10) -0.0080(6)
O48 O 0.6947(6) -0.6892(8) -0.0270(5)
O49 O 0.4966(5) -0.7536(8) -0.0631(4)
O50 O 0.4376(6) -0.8154(7) -0.0117(4)
O51 O 0.1850(7) -1.0150(9) 0.0402(5)
O52 O 0.2602(8) -0.9644(13) -0.0035(5)
O53 O 0.5019(7) -0.9936(8) -0.1761(4)
O54 O 0.5700(8) -0.9334(9) -0.1213(5)
O55 O 0.4726(6) -0.9992(7) -0.3012(4)
O56 O 0.3997(6) -1.0616(8) -0.3532(4)
O57 O 0.5791(8) -0.8863(10) -0.4702(5)
O58 O 0.4776(7) -0.9415(10) -0.4495(5)
C1 C 0.5205(12) -0.5431(12) -0.0518(6)
H1 H 0.47870 -0.57370 -0.06110
C2 C 0.5192(13) -0.4482(12) -0.0493(6)
H2 H 0.47700 -0.41620 -0.05600
C3 C 0.5803(13) -0.4050(13) -0.0369(8)
H3 H 0.58030 -0.34210 -0.03450
C4 C 0.6441(13) -0.4527(13) -0.0274(7)
H4 H 0.68720 -0.42300 -0.02000
C5 C 0.640(1) -0.5440(12) -0.0296(6)
C6 C 0.7062(9) -0.6067(12) -0.0195(7)
C7 C 0.291(1) -0.9196(12) -0.0964(6)
H5 H 0.25410 -0.95240 -0.08560
C8 C 0.2921(9) -0.9124(13) -0.1402(6)
H6 H 0.25610 -0.93840 -0.15860
C9 C 0.3481(9) -0.8655(12) -0.1570(6)
H7 H 0.35140 -0.86050 -0.18650
C10 C 0.3986(9) -0.8267(10) -0.1272(6)
H8 H 0.43650 -0.79430 -0.13700
C11 C 0.3935(8) -0.8355(10) -0.0836(5)
C12 C 0.4457(9) -0.7999(10) -0.0494(7)
C13 C 0.3907(11) -0.8473(11) 0.0877(6)
H9 H 0.43230 -0.82010 0.07980
C14 C 0.3756(14) -0.8482(12) 0.1296(7)
H10 H 0.40830 -0.82110 0.14980
C15 C 0.3180(15) -0.8848(15) 0.1436(8)
H11 H 0.30880 -0.88210 0.17240
C16 C 0.2720(12) -0.9274(18) 0.1130(9)
H12 H 0.23180 -0.95740 0.12130
C17 C 0.2851(10) -0.9258(14) 0.0705(7)
C18 C 0.2412(11) -0.966(2) 0.0347(9)
C19 C 0.6154(9) -0.8994(10) -0.2659(6)
H13 H 0.59820 -0.91420 -0.29400
C20 C 0.6746(10) -0.8482(11) -0.2596(9)
H14 H 0.69690 -0.82480 -0.28270
C21 C 0.7014(9) -0.8314(12) -0.2168(10)
H15 H 0.74370 -0.79910 -0.21110
C22 C 0.6641(10) -0.8633(12) -0.1830(9)
H16 H 0.68030 -0.85090 -0.15450
C23 C 0.6046(9) -0.9122(11) -0.1923(7)
C24 C 0.5548(11) -0.9477(11) -0.1595(6)
C25 C 0.5719(11) -1.0965(12) -0.3593(7)
H17 H 0.54250 -1.12890 -0.34220
C26 C 0.3055(9) -1.1470(12) -0.2149(7)
H18 H 0.28190 -1.16770 -0.19170
C27 C 0.2786(8) -1.1676(11) -0.2567(7)
H19 H 0.23760 -1.20280 -0.26190
C28 C 0.3131(8) -1.1355(10) -0.2892(6)
H20 H 0.29580 -1.14690 -0.31760
C29 C 0.3733(9) -1.0866(10) -0.2807(6)
C30 C 0.4188(9) -1.0436(10) -0.3140(6)
C31 C 0.3647(9) -1.0979(12) -0.2076(6)
H21 H 0.38220 -1.08520 -0.17930
C32 C 0.647(1) -1.1092(13) -0.3538(8)
H22 H 0.66790 -1.14820 -0.33290
C33 C 0.6874(9) -1.0615(15) -0.3805(8)
H23 H 0.73660 -1.07050 -0.37890
C34 C 0.6569(10) -1.0019(12) -0.4092(7)
H24 H 0.68540 -0.96780 -0.42620
C35 C 0.5851(9) -0.9913(12) -0.4134(6)
C36 C 0.5459(13) -0.9356(15) -0.4468(7)
O59 O 0.4266(7) -1.0232(9) -0.0077(5)
O60 O 0.0675(9) -1.2197(12) -0.0667(6)
O61 O 0.0910(9) -1.0178(11) -0.0523(6)
O62 O 0.0474(9) -1.0385(11) 0.0519(6)
O63 O 0.0413(9) -1.2268(12) 0.0653(6)
O64 O 0.2068(9) -1.2082(11) 0.0638(6)
O65 O 0.1102(9) -1.3336(12) 0.0051(7)
O66 O 0.2191(9) -1.1578(12) -0.0279(7)
O67 O -0.0404(6) -1.1579(15) -0.0245(8)
O68 O 0.9435(10) -0.4321(13) 0.4056(7)
O69 O 0.7339(9) 0.1654(12) 0.4155(7)
O70 O -0.1324(13) -1.1575(17) 0.0384(9)
O71 O -0.2022(11) -1.2784(14) -0.0619(8)
O72 O 0.7971(13) 0.3478(17) 0.1566(9)
La1 La 0.10428(11) -1.15596(13) 0.00745(7)
Na1? Na 0.10428(11) -1.15596(13) 0.00745(7)
Cu3* Cu 0.48910(11) 0.00360(13) -0.23748(7)
O10* O 0.5721(5) -1.1450(6) -0.2396(4)
#END
