
#######################################################################
#
#                 Cambridge Crystallographic Data Centre
#                                CCDC
#
#######################################################################
#
# If this CIF has been generated from an entry in the Cambridge
# Structural Database, then it will include bibliographic, chemical,
# crystal, experimental, refinement or atomic coordinate data resulting
# from the CCDC's data processing and validation procedures.
#
#######################################################################

data_CSD_CIF_MITZUN
_audit_creation_date 2019-02-26
_audit_creation_method CSD-ConQuest-V1
_database_code_CSD MITZUN
_database_code_depnum_ccdc_archive 'CCDC 1897188'
_chemical_formula_sum 'C18 H14 N1 O8 Tb1'
_chemical_formula_moiety
;
(C16 H6 O8 Tb1 1-)n,C2 H8 N1 1+
;
_journal_coden_Cambridge 222
_journal_volume 48
_journal_year 2019
_journal_page_first 3723
_journal_name_full 'Dalton Trans. '
loop_
_publ_author_name
"Yue Pan"
"Hai-Quan Su"
"En-Long Zhou"
"Hong-Zong Yin"
"Kui-Zhan Shao"
"Zhong-Min Su"
_chemical_name_systematic
;
catena-[dimethylammonium 
(\m-[1,1'-biphenyl]-3,3',5,5'-tetracarboxylato)-terbium(iii)]
;
_cell_volume   3804.403
_exptl_crystal_colour 'colorless'
_exptl_crystal_description 'block'
_diffrn_ambient_temperature 293.1
_diffrn_special_details
;
twin

;
_refine_special_details
;
Disordered cation molecules were not modelled and the disordered density was 
taken into account using the SQUEEZE/PLATON procedure.
;
#These two values have been output from a single CSD field.
_refine_ls_R_factor_gt 0.0293
_refine_ls_wR_factor_gt 0.0293
_symmetry_cell_setting hexagonal
_symmetry_space_group_name_H-M 'P 31 2 1'
_symmetry_Int_Tables_number 152
loop_
_symmetry_equiv_pos_site_id
_symmetry_equiv_pos_as_xyz
1 x,y,z
2 -y,x-y,1/3+z
3 -x+y,-x,2/3+z
4 y,x,-z
5 -x,-x+y,1/3-z
6 x-y,-y,2/3-z
_cell_length_a 13.825(5)
_cell_length_b 13.825(5)
_cell_length_c 22.984(5)
_cell_angle_alpha 90
_cell_angle_beta 90
_cell_angle_gamma 120
_cell_formula_units_Z 6
loop_
_atom_type_symbol
_atom_type_radius_bond
C 0.68
H 0.23
O 0.68
Tb 1.94
loop_
_atom_site_label
_atom_site_type_symbol
_atom_site_fract_x
_atom_site_fract_y
_atom_site_fract_z
Tb1 Tb -0.30509(3) 0.66650(3) -0.58970(2)
O1 O -0.2755(5) 0.8236(4) -0.5373(2)
O2 O -0.2664(4) 0.8807(4) -0.4459(2)
O3 O -0.0328(5) 1.1837(5) -0.6657(2)
O4 O -0.1240(5) 1.2751(5) -0.6735(2)
O5 O -0.5815(5) 1.1852(3) -0.32633(19)
O6 O -0.5109(5) 1.0767(5) -0.3247(2)
O7 O -0.3233(4) 1.5094(4) -0.5369(2)
O8 O -0.3965(4) 1.5219(4) -0.45240(19)
C1 C -0.2626(6) 0.8957(5) -0.4992(3)
C2 C -0.2441(6) 1.0053(6) -0.5216(3)
C3 C -0.2862(7) 1.0603(6) -0.4904(3)
H1 H -0.31870 1.03264 -0.45428
C4 C -0.1847(6) 1.0513(6) -0.5733(3)
H2 H -0.15348 1.01547 -0.59367
C5 C -0.1730(6) 1.1514(6) -0.5936(3)
C6 C -0.1053(7) 1.2056(7) -0.6486(3)
C7 C -0.2196(6) 1.2038(7) -0.5634(3)
H3 H -0.20997 1.27112 -0.57742
C8 C -0.2809(6) 1.1594(5) -0.5122(3)
C9 C -0.3348(7) 1.2144(6) -0.4795(3)
C10 C -0.3960(6) 1.1656(6) -0.4302(3)
H4 H -0.40233 1.09897 -0.41712
C11 C -0.4484(7) 1.2118(6) -0.3994(3)
C12 C -0.5173(7) 1.1544(7) -0.3472(3)
C13 C -0.4357(6) 1.3132(6) -0.4182(3)
H5 H -0.46796 1.34723 -0.39711
C14 C -0.3754(6) 1.3633(6) -0.4679(3)
C15 C -0.3638(6) 1.4743(6) -0.4875(3)
C16 C -0.3249(6) 1.3153(6) -0.4988(3)
H6 H -0.28447 1.34954 -0.53231
Tb1* Tb -0.30509(3) 1.66650(3) -0.58970(2)
Tb1A Tb -0.66650(3) 1.02841(3) -0.256367(20)
Tb1C Tb -0.33350(3) 0.69491(3) -0.41030(2)
Tb1C* Tb -0.33350(3) 1.69491(3) -0.41030(2)
Tb1E Tb 0.02841(3) 1.33350(3) -0.743633(20)
O2C O -0.1193(4) 0.7336(4) -0.5541(2)
O3E O -0.2165(5) 0.8163(5) -0.667633(200)
O4E O -0.3991(5) 0.7249(5) -0.659833(200)
O5B O -0.2333(5) 0.5815(3) -0.659663(190)
O6B O -0.4124(5) 0.5109(5) -0.658033(200)
O7* O -0.3233(4) 0.5094(4) -0.5369(2)
O8C O -0.4781(4) 0.6035(4) -0.54760(19)
#END
