
#######################################################################
#
#                 Cambridge Crystallographic Data Centre
#                                CCDC
#
#######################################################################
#
# If this CIF has been generated from an entry in the Cambridge
# Structural Database, then it will include bibliographic, chemical,
# crystal, experimental, refinement or atomic coordinate data resulting
# from the CCDC's data processing and validation procedures.
#
#######################################################################

data_CSD_CIF_MITZAT
_audit_creation_date 2019-02-26
_audit_creation_method CSD-ConQuest-V1
_database_code_CSD MITZAT
_database_code_depnum_ccdc_archive 'CCDC 1891065'
_chemical_formula_sum 'C36 H64 Ce0.5 Cu4 Ge1 N6 Na0.5 O72 W12'
_chemical_formula_moiety
;
(C36 H38 Cu4 Ge1 N6 O59 W12 2-)n,0.5n(Ce1 3+),0.5n(Na1 1+),13n(H2 O1)
;
_journal_coden_Cambridge 222
_journal_volume 48
_journal_year 2019
_journal_page_first 3730
_journal_name_full 'Dalton Trans. '
loop_
_publ_author_name
"Huijie Li"
"Peijun Gong"
"Jun Jiang"
"Yamin Li"
"Jingjing Pang"
"Lijuan Chen"
"Junwei Zhao"
_chemical_name_systematic
;
catena-(hemi-cerium hemi-sodium 
hentriacontakis(\m-oxo)-bis(\m-2-picolinato)-hepta-aqua-nonaoxo-tetrakis(2-pic
olinato)-tetra-copper-germanium-dodeca-tungsten tridecahydrate)
;
_cell_volume   8615.292
_exptl_crystal_colour 'mazarine'
_exptl_crystal_density_diffrn 3.352
_exptl_special_details
;
Due to disorder, we have represented the structure ionically

;
_exptl_crystal_description 'block'
_diffrn_ambient_temperature 296
_refine_special_details
;
The cerium and sodium atoms are disordered on the same site with equal 
occupancies.
;
#These two values have been output from a single CSD field.
_refine_ls_R_factor_gt 0.054
_refine_ls_wR_factor_gt 0.054
_symmetry_cell_setting monoclinic
_symmetry_space_group_name_H-M 'P 21/n'
_symmetry_Int_Tables_number 14
loop_
_symmetry_equiv_pos_site_id
_symmetry_equiv_pos_as_xyz
1 x,y,z
2 1/2-x,1/2+y,1/2-z
3 -x,-y,-z
4 -1/2+x,-1/2-y,-1/2+z
_cell_length_a 18.7986(7)
_cell_length_b 14.7548(4)
_cell_length_c 31.1802(12)
_cell_angle_alpha 90
_cell_angle_beta 95.018(1)
_cell_angle_gamma 90
_cell_formula_units_Z 4
loop_
_atom_type_symbol
_atom_type_radius_bond
C 0.68
H 0.23
Ce 2.04
Cu 1.32
Ge 1.17
N 0.68
Na 1.66
O 0.68
W 1.62
loop_
_atom_site_label
_atom_site_type_symbol
_atom_site_fract_x
_atom_site_fract_y
_atom_site_fract_z
W1 W 0.38176(4) -0.58254(5) -0.32405(2)
W2 W 0.39804(4) -0.56461(5) -0.16401(2)
W3 W 0.60478(4) -0.39723(5) -0.32498(2)
W4 W 0.45758(4) -0.72042(4) -0.24767(2)
W5 W 0.55490(4) -0.64061(5) -0.32476(2)
W6 W 0.44527(4) -0.34490(4) -0.16425(2)
W7 W 0.32424(3) -0.42566(5) -0.24017(2)
W8 W 0.63652(4) -0.40853(5) -0.16493(2)
W9 W 0.55174(4) -0.25613(4) -0.24980(2)
W10 W 0.43137(4) -0.33852(5) -0.32591(2)
W11 W 0.58965(3) -0.62776(4) -0.16315(2)
W12 W 0.68777(3) -0.55090(5) -0.24020(2)
Ge1 Ge 0.50533(8) -0.48839(10) -0.24463(5)
Cu1 Cu 0.59422(12) -0.72305(15) -0.04230(7)
Cu2 Cu 0.34674(14) -0.8876(2) -0.00537(8)
Cu3 Cu 0.48924(14) -0.99694(17) -0.23768(8)
Cu4 Cu 0.44065(15) -1.0101(2) -0.40283(9)
N1 N 0.5798(9) -0.5896(10) -0.0414(5)
N2 N 0.3397(8) -0.8831(11) -0.0688(5)
N3 N 0.3447(9) -0.8862(12) 0.0583(5)
N4 N 0.5784(8) -0.9306(11) -0.2340(6)
N5 N 0.3990(8) -1.0670(11) -0.2411(5)
N6 N 0.5419(9) -1.0400(11) -0.3887(5)
O1 O 0.5769(10) -0.7511(12) 0.0289(5)
O2 O 0.6248(8) -0.8500(9) -0.0512(4)
O3 O 0.2721(12) -0.7497(16) -0.0068(8)
O4 O 0.3385(13) -0.9907(17) -0.4258(8)
O5 O 0.4288(11) -1.1499(15) -0.4432(7)
O6 O 0.4353(15) -0.857(2) -0.3683(9)
O7 O 0.5954(7) -0.6989(9) -0.3622(4)
O8 O 0.7711(7) -0.5809(9) -0.2520(5)
O9 O 0.4378(7) -0.8295(8) -0.2361(4)
O10 O 0.5720(7) -0.1445(8) -0.2393(4)
O11 O 0.3126(7) -0.6022(10) -0.3615(4)
O12 O 0.6722(6) -0.6347(8) -0.1951(4)
O13 O 0.4593(6) -0.6293(8) -0.3536(4)
O14 O 0.3582(7) -0.6231(9) -0.1258(4)
O15 O 0.3516(6) -0.3394(8) -0.1963(4)
O16 O 0.3144(6) -0.5148(8) -0.1955(4)
O17 O 0.5183(7) -0.7410(8) -0.2931(4)
O18 O 0.4974(6) -0.5886(8) -0.1497(3)
O19 O 0.6160(6) -0.3220(8) -0.2094(4)
O20 O 0.3779(7) -0.2837(9) -0.3645(4)
O21 O 0.3810(6) -0.6941(8) -0.2926(4)
O22 O 0.5382(6) -0.6972(8) -0.2080(3)
O23 O 0.6623(7) -0.3762(9) -0.3628(4)
O24 O 0.5182(7) -0.3504(8) -0.3546(4)
O25 O 0.4806(6) -0.2783(8) -0.2104(4)
O26 O 0.6289(6) -0.6231(8) -0.2796(4)
O27 O 0.5820(5) -0.5126(7) -0.2123(3)
O28 O 0.6641(6) -0.4542(8) -0.2796(4)
O29 O 0.6306(6) -0.5228(8) -0.1345(4)
O30 O 0.4046(6) -0.6544(8) -0.2080(4)
O31 O 0.3364(6) -0.5233(8) -0.2797(4)
O32 O 0.4762(6) -0.2382(7) -0.2944(4)
O33 O 0.6105(6) -0.7065(8) -0.1239(4)
O34 O 0.5704(6) -0.5165(8) -0.3398(4)
O35 O 0.2368(6) -0.3978(9) -0.2512(4)
O36 O 0.5193(5) -0.3969(7) -0.2768(3)
O37 O 0.7099(6) -0.4588(9) -0.1965(4)
O38 O 0.4375(5) -0.4630(7) -0.2121(3)
O39 O 0.4814(6) -0.5816(7) -0.2766(4)
O40 O 0.4369(7) -0.2621(9) -0.1268(4)
O41 O 0.4106(6) -0.4620(8) -0.3393(3)
O42 O 0.3702(6) -0.3535(8) -0.2812(4)
O43 O 0.4112(6) -0.4489(8) -0.1345(4)
O44 O 0.5398(6) -0.3846(8) -0.1506(3)
O45 O 0.6137(6) -0.2838(8) -0.2944(4)
O46 O 0.6864(6) -0.3487(8) -0.1273(4)
O47 O 0.7632(9) -0.5725(12) -0.0089(6)
O48 O 0.6951(8) -0.6888(10) -0.0276(5)
O49 O 0.4974(6) -0.7535(9) -0.0637(4)
O50 O 0.4357(7) -0.8162(10) -0.0114(4)
O51 O 0.1884(9) -1.0188(11) 0.0394(5)
O52 O 0.2590(11) -0.9608(19) -0.0031(6)
O53 O 0.5008(8) -0.9936(10) -0.1754(4)
O54 O 0.5704(10) -0.9350(11) -0.1210(5)
O55 O 0.4738(8) -1.000(1) -0.3004(4)
O56 O 0.3988(7) -1.0633(10) -0.3515(5)
O57 O 0.5797(11) -0.8872(15) -0.4696(6)
O58 O 0.4780(9) -0.9426(13) -0.4503(5)
C1 C 0.5197(12) -0.5417(15) -0.0508(6)
H1 H 0.47700 -0.57200 -0.05830
C2 C 0.5202(15) -0.4498(15) -0.0496(6)
H2 H 0.47840 -0.41800 -0.05770
C3 C 0.5798(17) -0.4047(17) -0.0371(8)
H3 H 0.57940 -0.34180 -0.03550
C4 C 0.6410(16) -0.4516(16) -0.0267(8)
H4 H 0.68300 -0.42100 -0.01780
C5 C 0.6403(11) -0.5466(13) -0.0295(7)
C6 C 0.7047(11) -0.6055(16) -0.0207(7)
C7 C 0.2913(10) -0.9189(15) -0.0960(6)
H5 H 0.25450 -0.95100 -0.08490
C8 C 0.2908(12) -0.9128(16) -0.1395(7)
H6 H 0.25460 -0.93920 -0.15760
C9 C 0.3480(11) -0.8639(16) -0.1566(7)
H7 H 0.35040 -0.85720 -0.18610
C10 C 0.3999(9) -0.8270(13) -0.1270(6)
H8 H 0.43910 -0.79730 -0.13660
C11 C 0.3929(10) -0.8347(12) -0.0837(6)
C12 C 0.4452(10) -0.7987(12) -0.0492(7)
C13 C 0.3906(13) -0.8483(16) 0.0871(7)
H9 H 0.43200 -0.82190 0.07860
C14 C 0.3772(17) -0.8477(14) 0.1302(7)
H10 H 0.40890 -0.81700 0.14970
C15 C 0.322(2) -0.888(2) 0.1446(10)
H11 H 0.31630 -0.89130 0.17390
C16 C 0.2714(15) -0.928(2) 0.1122(12)
H12 H 0.22920 -0.95480 0.11930
C17 C 0.2888(14) -0.924(2) 0.0711(8)
C18 C 0.2399(16) -0.966(3) 0.034(1)
C19 C 0.614(1) -0.8992(12) -0.2666(8)
H13 H 0.59720 -0.91150 -0.29490
C20 C 0.6756(12) -0.8483(13) -0.2578(9)
H14 H 0.69980 -0.82540 -0.28020
C21 C 0.7017(13) -0.8314(15) -0.2142(10)
H15 H 0.74340 -0.79860 -0.20760
C22 C 0.6636(12) -0.8648(15) -0.1824(9)
H16 H 0.68050 -0.85510 -0.15390
C23 C 0.6046(9) -0.9096(12) -0.1907(8)
C24 C 0.5553(11) -0.9485(14) -0.1600(7)
C25 C 0.5741(12) -1.0955(16) -0.3591(8)
H17 H 0.54460 -1.12690 -0.34180
C26 C 0.3062(12) -1.1491(14) -0.2152(7)
H18 H 0.28420 -1.17270 -0.19210
C27 C 0.2781(11) -1.1662(15) -0.2575(9)
H19 H 0.23560 -1.19820 -0.26280
C28 C 0.3133(11) -1.1357(14) -0.2903(7)
H20 H 0.29670 -1.14850 -0.31860
C29 C 0.3751(9) -1.0849(12) -0.2813(6)
C30 C 0.4187(10) -1.0456(14) -0.3148(7)
C31 C 0.3649(12) -1.0984(14) -0.2084(8)
H21 H 0.38240 -1.08470 -0.18030
C32 C 0.6431(15) -1.1104(16) -0.3518(7)
H22 H 0.66160 -1.14990 -0.33040
C33 C 0.6865(13) -1.0640(17) -0.3778(9)
H23 H 0.73570 -1.07230 -0.37440
C34 C 0.6568(11) -1.0053(15) -0.4089(7)
H24 H 0.68570 -0.97450 -0.42670
C35 C 0.5870(12) -0.9933(14) -0.4130(7)
C36 C 0.5473(16) -0.9361(17) -0.4466(7)
O59 O 0.427(1) -1.0234(13) -0.0077(6)
Ce1 Ce 0.10578(13) -1.15639(16) 0.00760(7)
O60 O 0.0712(12) -1.2181(15) -0.0677(7)
O61 O 0.0884(11) -1.0193(14) -0.0496(7)
O62 O 0.0477(11) -1.0384(15) 0.0497(7)
O63 O 0.0398(12) -1.2249(15) 0.0671(7)
O64 O 0.2029(11) -1.2118(14) 0.0643(7)
O65 O 0.1093(11) -1.3303(14) 0.0046(7)
O66 O 0.2204(12) -1.1626(16) -0.0290(7)
O67 O -0.0349(18) -1.164(2) -0.0263(11)
O68 O 0.9443(13) -0.4319(17) 0.4059(8)
O69 O 0.7343(13) 0.1639(17) 0.4148(8)
O70 O -0.1320(15) -1.159(2) 0.0377(9)
O71 O -0.2032(12) -1.2803(16) -0.0618(8)
O72 O 0.8086(17) 0.350(2) 0.1608(11)
Na1? Na 0.10578(13) -1.15639(16) 0.00760(7)
Cu3* Cu 0.48924(14) 0.00306(17) -0.23768(8)
O10* O 0.5720(7) -1.1445(8) -0.2393(4)
#END
