
#######################################################################
#
#                 Cambridge Crystallographic Data Centre
#                                CCDC
#
#######################################################################
#
# If this CIF has been generated from an entry in the Cambridge
# Structural Database, then it will include bibliographic, chemical,
# crystal, experimental, refinement or atomic coordinate data resulting
# from the CCDC's data processing and validation procedures.
#
#######################################################################

data_CSD_CIF_MIWCOL
_audit_creation_date 2008-06-05
_audit_creation_method CSD-ConQuest-V1
_database_code_CSD MIWCOL
_database_code_depnum_ccdc_archive 'CCDC 650854'
_chemical_formula_sum 'C72 H218 B66 K2 N2 Na4 O12 Pd1 Sn6'
_chemical_formula_moiety
;
(C12 H28 N1 1+)2n,n(C40 H146 B66 K2 Na4 O10 Pd1 Sn6 2-),2n(C4 H8 O1)
;
_journal_coden_Cambridge 179
_journal_volume 47
_journal_year 2008
_journal_page_first 963
_journal_name_full 'Angew.Chem.,Int.Ed. '
loop_
_publ_author_name
"M.Kirchmann"
"K.Eichele"
"F.M.Schappacher"
"R.Pottgen"
"L.Wesemann"
_chemical_name_systematic
;
catena-[bis(tris(n-Butyl)ammonium) 
bis(\m~4~-1-stanna-closo-dodecaborato(11))-tetrakis(\m~3~-1-stanna-closo-dodec
aborato(11))-decakis(tetrahydrofuran)-palladium(iv)-di-potassium-tetra-sodium 
tetrahydrofuran solvate]
;
_cell_volume   7176.716
_exptl_crystal_colour 'red'
_exptl_crystal_density_diffrn 1.391
_exptl_crystal_description 'block'
_diffrn_ambient_temperature 173
#These two values have been output from a single CSD field.
_refine_ls_R_factor_gt 0.0674
_refine_ls_wR_factor_gt 0.0674
_symmetry_cell_setting monoclinic
_symmetry_space_group_name_H-M 'P 21/n'
_symmetry_Int_Tables_number 14
loop_
_symmetry_equiv_pos_site_id
_symmetry_equiv_pos_as_xyz
1 x,y,z
2 1/2-x,1/2+y,1/2-z
3 -x,-y,-z
4 -1/2+x,-1/2-y,-1/2+z
_cell_length_a 14.9184(8)
_cell_length_b 29.0382(16)
_cell_length_c 16.6765(9)
_cell_angle_alpha 90
_cell_angle_beta 96.581(4)
_cell_angle_gamma 90
_cell_formula_units_Z 2
loop_
_atom_type_symbol
_atom_type_radius_bond
C 0.68
H 0.01
B 0.90
K 2.19
N 0.68
Na 1.85
O 0.68
Pd 1.50
Sn 1.46
loop_
_atom_site_label
_atom_site_type_symbol
_atom_site_fract_x
_atom_site_fract_y
_atom_site_fract_z
C1 C 0.4799(12) 0.5667(6) 0.8041(9)
H1 H 0.54390 0.56230 0.80090
H2 H 0.46380 0.59770 0.78610
C2 C 0.4590(11) 0.5597(6) 0.8896(9)
H3 H 0.43420 0.58770 0.91010
H4 H 0.51310 0.55140 0.92440
C3 C 0.3915(11) 0.5216(6) 0.8861(10)
H5 H 0.34500 0.52790 0.92080
H6 H 0.42010 0.49250 0.90180
C4 C 0.3538(11) 0.5212(6) 0.8001(9)
H7 H 0.30540 0.54350 0.79050
H8 H 0.33020 0.49100 0.78480
C5 C 0.0769(12) 0.7551(6) 0.2512(10)
H9 H 0.10740 0.74840 0.20430
H10 H 0.01810 0.74050 0.24440
C6 C 0.0675(13) 0.8059(6) 0.2613(10)
H11 H 0.00530 0.81530 0.24700
H12 H 0.10500 0.82230 0.22690
C7 C 0.0966(12) 0.8163(6) 0.3471(10)
H13 H 0.13780 0.84220 0.35130
H14 H 0.04470 0.82430 0.37440
C8 C 0.1423(13) 0.7747(5) 0.3856(10)
H15 H 0.11520 0.76590 0.43340
H16 H 0.20600 0.78070 0.40080
C9 C 0.3861(10) 0.6365(6) 0.3563(11)
H17 H 0.37910 0.63620 0.41340
H18 H 0.42590 0.66160 0.34570
C10 C 0.4220(12) 0.5927(6) 0.3319(10)
H19 H 0.48470 0.59660 0.32300
H20 H 0.41940 0.57030 0.37460
C11 C 0.3703(11) 0.5759(6) 0.2577(10)
H21 H 0.34160 0.54660 0.26640
H22 H 0.40810 0.57260 0.21450
C12 C 0.3047(12) 0.6119(6) 0.2406(10)
H23 H 0.24620 0.59810 0.22440
H24 H 0.32080 0.63010 0.19560
C13 C -0.1698(19) 0.7447(9) 0.3283(16)
H25 H -0.11090 0.73250 0.32060
H26 H -0.20310 0.74910 0.27540
C14 C -0.158(2) 0.7904(9) 0.3700(16)
H27 H -0.11620 0.81020 0.34610
H28 H -0.21510 0.80620 0.37210
C15 C -0.119(2) 0.7718(9) 0.4520(16)
H29 H -0.14010 0.78930 0.49570
H30 H -0.05370 0.77190 0.45790
C16 C -0.1540(19) 0.7257(10) 0.4491(15)
H31 H -0.10330 0.70460 0.45490
H32 H -0.18670 0.72140 0.49560
C17 C -0.3892(15) 0.6109(7) 0.1718(12)
H33 H -0.34090 0.59070 0.15940
H34 H -0.43740 0.59310 0.19100
C18 C -0.4230(15) 0.6430(7) 0.1008(13)
H35 H -0.45940 0.62620 0.05860
H36 H -0.37280 0.65730 0.07810
C19 C -0.4772(14) 0.6775(8) 0.1377(12)
H37 H -0.49340 0.70330 0.10200
H38 H -0.53110 0.66430 0.15590
C20 C -0.4081(14) 0.6904(7) 0.2068(13)
H39 H -0.43730 0.70130 0.25230
H40 H -0.36890 0.71460 0.19070
C21 C 0.8665(15) 0.7108(9) 1.0415(13)
H41 H 0.81310 0.72990 1.03160
H42 H 0.85150 0.68080 1.06180
C22 C 0.9417(16) 0.7335(8) 1.0911(14)
H43 H 0.98780 0.71100 1.10890
H44 H 0.92030 0.74700 1.13850
C23 C 0.9808(17) 0.7699(8) 1.0430(13)
H45 H 0.93990 0.79570 1.03230
H46 H 1.03830 0.78090 1.06910
C24 C 0.9916(15) 0.7434(8) 0.9682(14)
H47 H 1.05110 0.72960 0.97040
H48 H 0.98090 0.76260 0.92040
C25 C 0.8461(8) 0.6006(5) 0.8522(9)
H49 H 0.79620 0.62200 0.84230
H50 H 0.85090 0.58410 0.80230
C26 C 0.8245(8) 0.5671(6) 0.9139(10)
H51 H 0.83920 0.58070 0.96690
H52 H 0.86220 0.54010 0.91090
C27 C 0.7276(8) 0.5522(5) 0.9051(11)
H53 H 0.69470 0.57030 0.94100
H54 H 0.70070 0.55770 0.85020
C28 C 0.7205(9) 0.5034(5) 0.9244(11)
H55 H 0.65820 0.49450 0.91890
H56 H 0.74690 0.49810 0.97880
H57 H 0.75200 0.48550 0.88800
C29 C 1.0108(7) 0.5967(4) 0.8987(7)
H58 H 0.99550 0.57630 0.94120
H59 H 1.02170 0.57760 0.85300
C30 C 1.0957(7) 0.6213(5) 0.9277(7)
H60 H 1.08340 0.64370 0.96820
H61 H 1.11690 0.63780 0.88300
C31 C 1.1677(8) 0.5892(6) 0.9631(8)
H62 H 1.18280 0.56830 0.92130
H63 H 1.14440 0.57100 1.00470
C32 C 1.2537(11) 0.6136(8) 0.9994(11)
H64 H 1.29750 0.59120 1.02030
H65 H 1.23990 0.63350 1.04240
H66 H 1.27760 0.63160 0.95850
C33 C 0.9433(8) 0.6575(5) 0.8033(7)
H67 H 0.95500 0.63800 0.75850
H68 H 0.99660 0.67620 0.81740
C34 C 0.8665(9) 0.6889(4) 0.7749(8)
H69 H 0.84170 0.70150 0.82150
H70 H 0.81950 0.67120 0.74410
C35 C 0.8937(12) 0.7281(6) 0.7234(10)
H71 H 0.92310 0.71570 0.67920
H72 H 0.93690 0.74740 0.75570
C36 C 0.8121(13) 0.7581(6) 0.6885(11)
H73 H 0.83300 0.78260 0.65690
H74 H 0.78310 0.77080 0.73210
H75 H 0.77000 0.73930 0.65520
B1 B 0.1201(7) 0.6109(3) 0.6711(6)
H76 H 0.09200 0.59170 0.71940
B2 B 0.2157(6) 0.5878(3) 0.6186(6)
H77 H 0.24770 0.55430 0.63380
B3 B 0.2056(6) 0.6139(3) 0.5141(7)
H78 H 0.23090 0.59660 0.46250
B4 B 0.1044(7) 0.6529(3) 0.5025(7)
H79 H 0.06590 0.66050 0.44380
B5 B 0.0504(7) 0.6506(3) 0.5999(6)
H80 H -0.02190 0.65670 0.60280
B6 B 0.1324(8) 0.6716(4) 0.6761(7)
H81 H 0.10980 0.69050 0.72740
B7 B 0.2303(7) 0.6352(4) 0.6871(7)
H82 H 0.27150 0.63070 0.74560
B8 B 0.2805(7) 0.6364(4) 0.5933(8)
H83 H 0.35350 0.63250 0.59110
B9 B 0.2154(7) 0.6741(4) 0.5270(7)
H84 H 0.24700 0.69470 0.48250
B10 B 0.1247(8) 0.6958(3) 0.5769(7)
H85 H 0.09750 0.73060 0.56410
B11 B 0.2317(7) 0.6875(4) 0.6328(7)
H86 H 0.27350 0.71660 0.65700
B12 B -0.2898(5) 0.5506(3) 0.4571(5)
H87 H -0.29020 0.53910 0.39420
B13 B -0.3053(5) 0.5097(3) 0.5427(5)
H88 H -0.31530 0.47250 0.53390
B14 B -0.2474(5) 0.5359(3) 0.6396(5)
H89 H -0.22120 0.51510 0.69220
B15 B -0.1948(6) 0.5917(3) 0.6129(6)
H90 H -0.13470 0.60600 0.64880
B16 B -0.2203(6) 0.6013(3) 0.5010(6)
H91 H -0.17630 0.62170 0.46600
B17 B -0.3402(6) 0.6035(4) 0.4799(6)
H92 H -0.37120 0.62510 0.43010
B18 B -0.3899(6) 0.5503(4) 0.5048(6)
H93 H -0.45310 0.53770 0.47160
B19 B -0.3638(6) 0.5414(4) 0.6114(6)
H94 H -0.41030 0.52290 0.64670
B20 B -0.2996(6) 0.5895(4) 0.6520(6)
H95 H -0.30480 0.60230 0.71340
B21 B -0.2841(6) 0.6286(3) 0.5704(6)
H96 H -0.27890 0.66610 0.57890
B22 B -0.3882(6) 0.5984(4) 0.5716(6)
H97 H -0.45050 0.61680 0.58130
B23 B 0.1440(7) 0.4320(4) 0.7340(6)
H98 H 0.20940 0.43180 0.70940
B24 B 0.0974(6) 0.4845(4) 0.7804(5)
H99 H 0.13360 0.51760 0.78520
B25 B -0.0292(6) 0.4802(4) 0.7670(5)
H100 H -0.07310 0.51080 0.76320
B26 B -0.0620(7) 0.4248(3) 0.7133(6)
H101 H -0.12670 0.42010 0.67540
B27 B 0.0460(8) 0.3947(3) 0.6932(6)
H102 H 0.05010 0.37070 0.64270
B28 B 0.1069(8) 0.3834(4) 0.7890(6)
H103 H 0.14970 0.35250 0.79780
B29 B 0.1376(7) 0.4370(4) 0.8401(6)
H104 H 0.20000 0.44050 0.88170
B30 B 0.0353(7) 0.4651(4) 0.8581(6)
H105 H 0.03200 0.48690 0.91170
B31 B -0.0575(7) 0.4297(4) 0.8188(6)
H106 H -0.12060 0.42860 0.84710
B32 B -0.0152(9) 0.3802(4) 0.7757(6)
H107 H -0.05120 0.34710 0.77530
B33 B 0.0421(8) 0.4036(4) 0.8655(6)
H108 H 0.04360 0.38550 0.92360
K1 K 0.41775(12) 0.54701(8) 0.59873(13)
Na1 Na 0.1626(4) 0.66089(15) 0.3458(3)
Na2 Na -0.2455(3) 0.63883(16) 0.3346(3)
O1 O 0.4275(7) 0.5331(4) 0.7537(7)
O2 O 0.1302(8) 0.7385(4) 0.3248(7)
O3 O 0.2979(8) 0.6415(4) 0.3076(7)
O4 O -0.2169(13) 0.7117(7) 0.3730(12)
O5 O -0.3566(10) 0.6489(5) 0.2283(9)
O6 O 0.9210(11) 0.7084(6) 0.9705(10)
Pd1 Pd 0.00000 0.50000 0.50000
Sn1 Sn 0.07454(3) 0.578573(17) 0.54599(3)
Sn2 Sn -0.15575(3) 0.530091(18) 0.53533(3)
Sn3 Sn 0.03583(3) 0.470028(19) 0.64798(3)
N1 N 0.9307(7) 0.6274(5) 0.8735(9)
H109 H 0.92240 0.64590 0.91610
C1B C -0.4799(12) 0.4333(6) 0.1959(9)
H1B H -0.54390 0.43770 0.19910
H2B H -0.46380 0.40230 0.21390
C2B C -0.4590(11) 0.4403(6) 0.1104(9)
H3B H -0.43420 0.41230 0.08990
H4B H -0.51310 0.44860 0.07560
C3B C -0.3915(11) 0.4784(6) 0.1139(10)
H5B H -0.34500 0.47210 0.07920
H6B H -0.42010 0.50750 0.09820
C4B C -0.3538(11) 0.4788(6) 0.1999(9)
H7B H -0.30540 0.45650 0.20950
H8B H -0.33020 0.50900 0.21520
C5B C -0.0769(12) 0.2449(6) 0.7488(10)
H9B H -0.10740 0.25160 0.79570
H10B H -0.01810 0.25950 0.75560
C6B C -0.0675(13) 0.1941(6) 0.7387(10)
H11B H -0.00530 0.18470 0.75300
H12B H -0.10500 0.17770 0.77310
C7B C -0.0966(12) 0.1837(6) 0.6529(10)
H13B H -0.13780 0.15780 0.64870
H14B H -0.04470 0.17570 0.62560
C8B C -0.1423(13) 0.2253(5) 0.6144(10)
H15B H -0.11520 0.23410 0.56660
H16B H -0.20600 0.21930 0.59920
C9B C -0.3861(10) 0.3635(6) 0.6437(11)
H17B H -0.37910 0.36380 0.58660
H18B H -0.42590 0.33840 0.65430
C10B C -0.4220(12) 0.4073(6) 0.6681(10)
H19B H -0.48470 0.40340 0.67700
H20B H -0.41940 0.42970 0.62540
C11B C -0.3703(11) 0.4241(6) 0.7423(10)
H21B H -0.34160 0.45340 0.73360
H22B H -0.40810 0.42740 0.78550
C12B C -0.3047(12) 0.3881(6) 0.7594(10)
H23B H -0.24620 0.40190 0.77560
H24B H -0.32080 0.36990 0.80440
C13B C 0.1698(19) 0.2553(9) 0.6717(16)
H25B H 0.11090 0.26750 0.67940
H26B H 0.20310 0.25090 0.72460
C14B C 0.158(2) 0.2096(9) 0.6300(16)
H27B H 0.11620 0.18980 0.65390
H28B H 0.21510 0.19380 0.62790
C15B C 0.119(2) 0.2282(9) 0.5480(16)
H29B H 0.14010 0.21070 0.50430
H30B H 0.05370 0.22810 0.54210
C16B C 0.1540(19) 0.2743(10) 0.5509(15)
H31B H 0.10330 0.29540 0.54510
H32B H 0.18670 0.27860 0.50440
C17B C 0.3892(15) 0.3891(7) 0.8282(12)
H33B H 0.34090 0.40930 0.84060
H34B H 0.43740 0.40690 0.80900
C18B C 0.4230(15) 0.3570(7) 0.8992(13)
H35B H 0.45940 0.37380 0.94140
H36B H 0.37280 0.34270 0.92190
C19B C 0.4772(14) 0.3225(8) 0.8623(12)
H37B H 0.49340 0.29670 0.89800
H38B H 0.53110 0.33570 0.84410
C20B C 0.4081(14) 0.3096(7) 0.7932(13)
H39B H 0.43730 0.29870 0.74770
H40B H 0.36890 0.28540 0.80930
B1B B -0.1201(7) 0.3891(3) 0.3289(6)
H76B H -0.09200 0.40830 0.28060
B2B B -0.2157(6) 0.4122(3) 0.3814(6)
H77B H -0.24770 0.44570 0.36620
B3B B -0.2056(6) 0.3861(3) 0.4859(7)
H78B H -0.23090 0.40340 0.53750
B4B B -0.1044(7) 0.3471(3) 0.4975(7)
H79B H -0.06590 0.33950 0.55620
B5B B -0.0504(7) 0.3494(3) 0.4001(6)
H80B H 0.02190 0.34330 0.39720
B6B B -0.1324(8) 0.3284(4) 0.3239(7)
H81B H -0.10980 0.30950 0.27260
B7B B -0.2303(7) 0.3648(4) 0.3129(7)
H82B H -0.27150 0.36930 0.25440
B8B B -0.2805(7) 0.3636(4) 0.4067(8)
H83B H -0.35350 0.36750 0.40890
B9B B -0.2154(7) 0.3259(4) 0.4730(7)
H84B H -0.24700 0.30530 0.51750
B10B B -0.1247(8) 0.3042(3) 0.4231(7)
H85B H -0.09750 0.26940 0.43590
B11B B -0.2317(7) 0.3125(4) 0.3672(7)
H86B H -0.27350 0.28340 0.34300
B12B B 0.2898(5) 0.4494(3) 0.5429(5)
H87B H 0.29020 0.46090 0.60580
B13B B 0.3053(5) 0.4903(3) 0.4573(5)
H88B H 0.31530 0.52750 0.46610
B14B B 0.2474(5) 0.4641(3) 0.3604(5)
H89B H 0.22120 0.48490 0.30780
B15B B 0.1948(6) 0.4083(3) 0.3871(6)
H90B H 0.13470 0.39400 0.35120
B16B B 0.2203(6) 0.3987(3) 0.4990(6)
H91B H 0.17630 0.37830 0.53400
B17B B 0.3402(6) 0.3965(4) 0.5201(6)
H92B H 0.37120 0.37490 0.56990
B18B B 0.3899(6) 0.4497(4) 0.4952(6)
B18* B 0.6101(6) 0.5503(4) 0.5048(6)
B18B* B -0.6101(6) 0.4497(4) 0.4952(6)
H93B H 0.45310 0.46230 0.52840
H93* H 0.54690 0.53770 0.47160
H93B* H -0.54690 0.46230 0.52840
B19B B 0.3638(6) 0.4586(4) 0.3886(6)
B19* B 0.6362(6) 0.5414(4) 0.6114(6)
B19B* B -0.6362(6) 0.4586(4) 0.3886(6)
H94B H 0.41030 0.47710 0.35330
H94* H 0.58970 0.52290 0.64670
H94B* H -0.58970 0.47710 0.35330
B20B B 0.2996(6) 0.4105(4) 0.3480(6)
H95B H 0.30480 0.39770 0.28660
B21B B 0.2841(6) 0.3714(3) 0.4296(6)
H96B H 0.27890 0.33390 0.42110
B22B B 0.3882(6) 0.4016(4) 0.4284(6)
B22* B 0.6118(6) 0.5984(4) 0.5716(6)
B22B* B -0.6118(6) 0.4016(4) 0.4284(6)
H97B H 0.45050 0.38320 0.41870
H97* H 0.54950 0.61680 0.58130
H97B* H -0.54950 0.38320 0.41870
B23B B -0.1440(7) 0.5680(4) 0.2660(6)
H98B H -0.20940 0.56820 0.29060
B24B B -0.0974(6) 0.5155(4) 0.2196(5)
H99B H -0.13360 0.48240 0.21480
B25B B 0.0292(6) 0.5198(4) 0.2330(5)
H100B H 0.07310 0.48920 0.23680
B26B B 0.0620(7) 0.5752(3) 0.2867(6)
H101B H 0.12670 0.57990 0.32460
B27B B -0.0460(8) 0.6053(3) 0.3068(6)
H102B H -0.05010 0.62930 0.35730
B28B B -0.1069(8) 0.6166(4) 0.2110(6)
H103B H -0.14970 0.64750 0.20220
B29B B -0.1376(7) 0.5630(4) 0.1599(6)
H104B H -0.20000 0.55950 0.11830
B30B B -0.0353(7) 0.5349(4) 0.1419(6)
H105B H -0.03200 0.51310 0.08830
B31B B 0.0575(7) 0.5703(4) 0.1812(6)
H106B H 0.12060 0.57140 0.15290
B32B B 0.0152(9) 0.6198(4) 0.2243(6)
H107B H 0.05120 0.65290 0.22470
B33B B -0.0421(8) 0.5964(4) 0.1345(6)
H108B H -0.04360 0.61450 0.07640
K1B K -0.41775(12) 0.45299(8) 0.40127(13)
K1* K -0.58225(12) 0.54701(8) 0.59873(13)
K1B* K 0.58225(12) 0.45299(8) 0.40127(13)
Na1B Na -0.1626(4) 0.33911(15) 0.6542(3)
Na2B Na 0.2455(3) 0.36117(16) 0.6654(3)
O1B O -0.4275(7) 0.4669(4) 0.2463(7)
O2B O -0.1302(8) 0.2615(4) 0.6752(7)
O3B O -0.2979(8) 0.3585(4) 0.6924(7)
O4B O 0.2169(13) 0.2883(7) 0.6270(12)
O5B O 0.3566(10) 0.3511(5) 0.7717(9)
Sn1B Sn -0.07454(3) 0.421427(17) 0.45401(3)
Sn2B Sn 0.15575(3) 0.469909(18) 0.46467(3)
Sn3B Sn -0.03583(3) 0.529972(19) 0.35202(3)
#END
