
#######################################################################
#
#                 Cambridge Crystallographic Data Centre
#                                CCDC
#
#######################################################################
#
# If this CIF has been generated from an entry in the Cambridge
# Structural Database, then it will include bibliographic, chemical,
# crystal, experimental, refinement or atomic coordinate data resulting
# from the CCDC's data processing and validation procedures.
#
#######################################################################

data_CSD_CIF_MIWCUR
_audit_creation_date 2008-06-05
_audit_creation_method CSD-ConQuest-V1
_database_code_CSD MIWCUR
_database_code_depnum_ccdc_archive 'CCDC 650855'
_chemical_formula_sum 'C72 H218 B66 K2 N2 Na4 O12 Pt1 Sn6'
_chemical_formula_moiety
;
(C12 H28 N1 1+)2n,n(C40 H146 B66 K2 Na4 O10 Pt1 Sn6 2-),2n(C4 H8 O1)
;
_journal_coden_Cambridge 179
_journal_volume 47
_journal_year 2008
_journal_page_first 963
_journal_name_full 'Angew.Chem.,Int.Ed. '
loop_
_publ_author_name
"M.Kirchmann"
"K.Eichele"
"F.M.Schappacher"
"R.Pottgen"
"L.Wesemann"
_chemical_name_systematic
;
catena-[bis(tris(n-Butyl)ammonium) 
bis(\m~4~-1-stanna-closo-dodecaborato(11))-tetrakis(\m~3~-1-stanna-closo-dodec
aborato(11))-decakis(tetrahydrofuran)-platinum(iv)-di-potassium-tetra-sodium 
tetrahydrofuran solvate]
;
_cell_volume   7159.813
_exptl_crystal_colour 'orange'
_exptl_crystal_density_diffrn 1.435
_exptl_crystal_description 'block'
_diffrn_ambient_temperature 173
#These two values have been output from a single CSD field.
_refine_ls_R_factor_gt 0.0578
_refine_ls_wR_factor_gt 0.0578
_symmetry_cell_setting monoclinic
_symmetry_space_group_name_H-M 'P 21/n'
_symmetry_Int_Tables_number 14
loop_
_symmetry_equiv_pos_site_id
_symmetry_equiv_pos_as_xyz
1 x,y,z
2 1/2-x,1/2+y,1/2-z
3 -x,-y,-z
4 -1/2+x,-1/2-y,-1/2+z
_cell_length_a 14.9048(8)
_cell_length_b 29.0561(10)
_cell_length_c 16.6484(15)
_cell_angle_alpha 90
_cell_angle_beta 96.765(4)
_cell_angle_gamma 90
_cell_formula_units_Z 2
loop_
_atom_type_symbol
_atom_type_radius_bond
C 0.68
H 0.01
B 0.92
K 2.17
N 0.68
Na 1.86
O 0.68
Pt 1.50
Sn 1.46
loop_
_atom_site_label
_atom_site_type_symbol
_atom_site_fract_x
_atom_site_fract_y
_atom_site_fract_z
Pt1 Pt 0.00000 0.50000 0.50000
Sn1 Sn -0.03777(3) 0.529048(18) 0.35106(3)
Sn2 Sn -0.15579(3) 0.530353(18) 0.53558(3)
Sn3 Sn -0.07447(3) 0.420848(17) 0.45646(3)
K1 K -0.41767(12) 0.45231(8) 0.40258(13)
Na1 Na -0.2473(3) 0.63884(16) 0.3319(2)
Na2 Na -0.1621(4) 0.34012(17) 0.6589(3)
B1 B -0.2896(5) 0.5503(3) 0.4573(5)
H1 H -0.28980 0.53810 0.39470
B2 B -0.1944(6) 0.5925(3) 0.6119(6)
H2 H -0.13450 0.60720 0.64780
B3 B -0.2463(5) 0.5370(3) 0.6391(5)
H3 H -0.21890 0.51660 0.69200
B4 B -0.2156(5) 0.4114(3) 0.3824(5)
H4 H -0.24810 0.44470 0.36650
B5 B -0.1042(7) 0.3471(3) 0.5016(6)
H5 H -0.06610 0.33990 0.56090
B6 B -0.3064(5) 0.5107(3) 0.5432(5)
H6 H -0.31790 0.47350 0.53520
B7 B -0.1009(7) 0.5137(4) 0.2198(5)
H7 H -0.13760 0.48080 0.21580
B8 B 0.0583(7) 0.5740(3) 0.2850(5)
H8 H 0.12320 0.57900 0.32280
O1 O -0.4281(8) 0.4651(4) 0.2474(7)
B9 B -0.0497(7) 0.3486(3) 0.4038(6)
H9 H 0.02270 0.34240 0.40140
B10 B -0.1463(7) 0.5670(3) 0.2643(5)
H10 H -0.21180 0.56760 0.28860
B11 B -0.2287(8) 0.3640(4) 0.3149(7)
H11 H -0.26920 0.36830 0.25570
O2 O -0.3596(9) 0.6486(5) 0.2263(8)
O3 O -0.2966(9) 0.3603(5) 0.6944(8)
B12 B -0.3890(6) 0.5506(4) 0.5045(6)
H12 H -0.45200 0.53790 0.47080
B13 B -0.2197(6) 0.6010(3) 0.4995(6)
H13 H -0.17550 0.62080 0.46390
B14 B -0.1392(8) 0.5617(4) 0.1589(6)
H14 H -0.20150 0.55830 0.11690
B15 B -0.2053(7) 0.3855(3) 0.4879(6)
H15 H -0.23120 0.40300 0.53900
B16 B -0.0375(8) 0.5332(4) 0.1405(6)
H16 H -0.03340 0.51130 0.08710
B17 B -0.2998(6) 0.5900(4) 0.6496(6)
H17 H -0.30530 0.60310 0.71080
B18 B -0.3634(6) 0.5425(4) 0.6115(6)
H18 H -0.40960 0.52450 0.64780
B19 B -0.2846(6) 0.6291(3) 0.5689(6)
H19 H -0.28000 0.66660 0.57710
B20 B -0.3406(7) 0.6039(4) 0.4781(6)
H20 H -0.37170 0.62550 0.42810
N1 N 0.9312(5) 0.6284(3) 0.8713(6)
H21 H 0.92290 0.64690 0.91390
B21 B -0.1316(7) 0.3279(3) 0.3282(6)
H22 H -0.10900 0.30880 0.27720
B22 B -0.2793(7) 0.3623(4) 0.4083(7)
H23 H -0.35270 0.36580 0.40960
B23 B -0.2145(8) 0.3258(4) 0.4759(7)
H24 H -0.24600 0.30540 0.52070
B24 B 0.0265(7) 0.5187(4) 0.2329(5)
H25 H 0.07070 0.48830 0.23740
B25 B -0.1234(7) 0.3037(3) 0.4273(6)
H26 H -0.09580 0.26900 0.44050
B26 B 0.0544(8) 0.5686(4) 0.1805(6)
H27 H 0.11790 0.56970 0.15290
C1 C 0.9449(8) 0.6587(5) 0.8001(7)
H28 H 0.99840 0.67740 0.81410
H29 H 0.95600 0.63930 0.75490
B27 B -0.0492(7) 0.6041(3) 0.3052(5)
H30 H -0.05330 0.62820 0.35560
B28 B -0.1194(6) 0.3880(3) 0.3312(5)
H31 H -0.09100 0.40670 0.28260
B29 B -0.1094(9) 0.6140(4) 0.2092(6)
H32 H -0.15230 0.64480 0.20000
B30 B -0.2314(7) 0.3121(4) 0.3717(7)
H33 H -0.27380 0.28290 0.34860
O4 O -0.1264(9) 0.2626(5) 0.6816(8)
B31 B -0.0470(8) 0.5938(4) 0.1328(6)
H34 H -0.04980 0.61120 0.07390
O5 O -0.2155(12) 0.7115(6) 0.3708(10)
B32 B -0.3881(6) 0.5981(4) 0.5707(6)
H35 H -0.45090 0.61600 0.58040
C2 C 1.0124(7) 0.5981(5) 0.8959(7)
H36 H 0.99730 0.57670 0.93690
H37 H 1.02500 0.58020 0.84940
C3 C 1.0960(8) 0.6235(6) 0.9280(8)
H38 H 1.08240 0.64450 0.97020
H39 H 1.11730 0.64150 0.88500
B33 B 0.0104(9) 0.6182(4) 0.2221(6)
H40 H 0.04530 0.65150 0.22160
C4 C 0.8673(10) 0.6896(5) 0.7738(8)
H41 H 0.84400 0.70230 0.82110
H42 H 0.81940 0.67190 0.74370
C5 C 0.8472(7) 0.6008(4) 0.8506(7)
H43 H 0.79680 0.62190 0.83950
H44 H 0.85270 0.58390 0.80110
C6 C 0.8259(9) 0.5680(8) 0.9127(10)
H45 H 0.83690 0.58280 0.96520
H46 H 0.86680 0.54210 0.91290
C7 C 0.8950(13) 0.7291(6) 0.7207(9)
H47 H 0.92450 0.71640 0.67680
H48 H 0.93820 0.74860 0.75270
C8 C 1.1698(8) 0.5901(6) 0.9622(8)
H49 H 1.18560 0.57010 0.91940
H50 H 1.14740 0.57110 1.00330
C9 C 0.7306(9) 0.5504(8) 0.9014(13)
H51 H 0.69300 0.57150 0.92780
H52 H 0.70920 0.55070 0.84410
C10 C -0.3568(11) 0.4782(7) 0.2000(9)
H53 H -0.30600 0.45730 0.21040
H54 H -0.33600 0.50910 0.21410
C11 C -0.3024(13) 0.3902(6) 0.7618(11)
H55 H -0.24360 0.40370 0.77810
H56 H -0.31920 0.37230 0.80690
C12 C 0.8135(14) 0.7584(6) 0.6853(10)
H57 H 0.83400 0.78260 0.65250
H58 H 0.78480 0.77160 0.72850
H59 H 0.77110 0.73930 0.65260
C13 C -0.0942(15) 0.1842(7) 0.6591(11)
H60 H -0.04190 0.17630 0.63240
H61 H -0.13540 0.15820 0.65520
C14 C -0.1399(15) 0.2258(6) 0.6212(12)
H62 H -0.11360 0.23430 0.57270
H63 H -0.20380 0.22000 0.60670
C15 C 1.2540(12) 0.6160(9) 0.9992(12)
H64 H 1.29960 0.59440 1.01980
H65 H 1.23870 0.63520 1.04250
H66 H 1.27640 0.63480 0.95850
C16 C -0.0664(15) 0.1964(7) 0.7454(11)
H67 H -0.10620 0.18130 0.77930
H68 H -0.00540 0.18550 0.76150
C17 C -0.3675(13) 0.4264(7) 0.7431(11)
H69 H -0.33870 0.45520 0.73170
H70 H -0.40480 0.43090 0.78640
O6 O 0.9222(12) 0.7080(6) 0.9727(10)
C18 C 0.8670(16) 0.7114(10) 1.0425(13)
H71 H 0.81410 0.73090 1.03150
H72 H 0.85080 0.68180 1.06340
C19 C -0.3938(12) 0.4762(6) 0.1149(10)
H73 H -0.34700 0.47000 0.08040
H74 H -0.42470 0.50450 0.09760
C20 C -0.4273(14) 0.6458(7) 0.0978(12)
H75 H -0.37890 0.66040 0.07290
H76 H -0.46560 0.62930 0.05630
C21 C -0.4777(12) 0.4286(6) 0.2000(9)
H77 H -0.54190 0.43080 0.20410
H78 H -0.45640 0.39850 0.21880
C22 C -0.3846(12) 0.3625(7) 0.6462(12)
H79 H -0.42300 0.33730 0.65940
H80 H -0.37850 0.36150 0.58880
C23 C -0.4802(13) 0.6808(7) 0.1353(11)
H81 H -0.53560 0.66850 0.15200
H82 H -0.49350 0.70750 0.10090
C24 C 0.7182(18) 0.5036(7) 0.9330(17)
H83 H 0.65600 0.49470 0.92120
H84 H 0.73480 0.50340 0.99050
H85 H 0.75560 0.48240 0.90790
C25 C -0.4209(13) 0.4067(7) 0.6686(11)
H86 H -0.48330 0.40270 0.67850
H87 H -0.41990 0.42820 0.62410
C26 C -0.4587(12) 0.4366(6) 0.1148(10)
H88 H -0.51430 0.44380 0.08080
H89 H -0.43260 0.40920 0.09380
C27 C -0.4103(13) 0.6906(7) 0.2056(12)
H90 H -0.36990 0.71470 0.19150
H91 H -0.43940 0.70100 0.25160
C28 C -0.1566(18) 0.7275(9) 0.4490(14)
H92 H -0.19460 0.72990 0.49230
H93 H -0.11110 0.70420 0.46450
C29 C -0.3873(14) 0.6119(6) 0.1656(11)
H94 H -0.43240 0.59120 0.18290
H95 H -0.33640 0.59440 0.15050
C30 C -0.0703(14) 0.2471(7) 0.7571(11)
H96 H -0.01040 0.26070 0.76180
H97 H -0.09880 0.25480 0.80480
C31 C 0.9438(17) 0.7342(9) 1.0929(15)
H98 H 0.98850 0.71140 1.11290
H99 H 0.92230 0.74940 1.13880
C32 C 0.9853(18) 0.7690(9) 1.0410(14)
H100 H 0.95060 0.79730 1.03710
H101 H 1.04700 0.77590 1.06300
C33 C 0.9826(17) 0.7467(8) 0.9615(14)
H102 H 0.95760 0.76690 0.91810
H103 H 1.04200 0.73630 0.95100
C34 C -0.1125(18) 0.7707(9) 0.4406(15)
H104 H -0.04940 0.76640 0.43360
H105 H -0.11670 0.79020 0.48740
C35 C -0.1758(18) 0.7459(8) 0.3245(15)
H106 H -0.21330 0.74980 0.27320
H107 H -0.11700 0.73520 0.31300
C36 C -0.1648(18) 0.7911(9) 0.3653(14)
H108 H -0.22170 0.80480 0.37530
H109 H -0.12950 0.81270 0.33750
Sn1B Sn 0.03777(3) 0.470952(18) 0.64894(3)
Sn2B Sn 0.15579(3) 0.469647(18) 0.46442(3)
Sn3B Sn 0.07447(3) 0.579152(17) 0.54354(3)
K1B K 0.41767(12) 0.54769(8) 0.59742(13)
K1B* K -0.58233(12) 0.54769(8) 0.59742(13)
K1* K 0.58233(12) 0.45231(8) 0.40258(13)
Na1B Na 0.2473(3) 0.36116(16) 0.6681(2)
Na2B Na 0.1621(4) 0.65988(17) 0.3411(3)
B1B B 0.2896(5) 0.4497(3) 0.5427(5)
H1B H 0.28980 0.46190 0.60530
B2B B 0.1944(6) 0.4075(3) 0.3881(6)
H2B H 0.13450 0.39280 0.35220
B3B B 0.2463(5) 0.4630(3) 0.3609(5)
H3B H 0.21890 0.48340 0.30800
B4B B 0.2156(5) 0.5886(3) 0.6176(5)
H4B H 0.24810 0.55530 0.63350
B5B B 0.1042(7) 0.6529(3) 0.4984(6)
H5B H 0.06610 0.66010 0.43910
B6B B 0.3064(5) 0.4893(3) 0.4568(5)
H6B H 0.31790 0.52650 0.46480
B7B B 0.1009(7) 0.4863(4) 0.7802(5)
H7B H 0.13760 0.51920 0.78420
B8B B -0.0583(7) 0.4260(3) 0.7150(5)
H8B H -0.12320 0.42100 0.67720
O1B O 0.4281(8) 0.5349(4) 0.7526(7)
B9B B 0.0497(7) 0.6514(3) 0.5962(6)
H9B H -0.02270 0.65760 0.59860
B10B B 0.1463(7) 0.4330(3) 0.7357(5)
H10B H 0.21180 0.43240 0.71140
B11B B 0.2287(8) 0.6360(4) 0.6851(7)
H11B H 0.26920 0.63170 0.74430
O2B O 0.3596(9) 0.3514(5) 0.7737(8)
O3B O 0.2966(9) 0.6397(5) 0.3056(8)
B12B B 0.3890(6) 0.4494(4) 0.4955(6)
B12B* B -0.6110(6) 0.4494(4) 0.4955(6)
B12* B 0.6110(6) 0.5506(4) 0.5045(6)
H12B H 0.45200 0.46210 0.52920
H12B* H -0.54800 0.46210 0.52920
H12* H 0.54800 0.53790 0.47080
B13B B 0.2197(6) 0.3990(3) 0.5005(6)
H13B H 0.17550 0.37920 0.53610
B14B B 0.1392(8) 0.4383(4) 0.8411(6)
H14B H 0.20150 0.44170 0.88310
B15B B 0.2053(7) 0.6145(3) 0.5121(6)
H15B H 0.23120 0.59700 0.46100
B16B B 0.0375(8) 0.4668(4) 0.8595(6)
H16B H 0.03340 0.48870 0.91290
B17B B 0.2998(6) 0.4100(4) 0.3504(6)
H17B H 0.30530 0.39690 0.28920
B18B B 0.3634(6) 0.4575(4) 0.3885(6)
B18B* B -0.6366(6) 0.4575(4) 0.3885(6)
B18* B 0.6366(6) 0.5425(4) 0.6115(6)
H18B H 0.40960 0.47550 0.35220
H18B* H -0.59040 0.47550 0.35220
H18* H 0.59040 0.52450 0.64780
B19B B 0.2846(6) 0.3709(3) 0.4311(6)
H19B H 0.28000 0.33340 0.42290
B20B B 0.3406(7) 0.3961(4) 0.5219(6)
H20B H 0.37170 0.37450 0.57190
B21B B 0.1316(7) 0.6721(3) 0.6718(6)
H22B H 0.10900 0.69120 0.72280
B22B B 0.2793(7) 0.6377(4) 0.5917(7)
H23B H 0.35270 0.63420 0.59040
B23B B 0.2145(8) 0.6742(4) 0.5241(7)
H24B H 0.24600 0.69460 0.47930
B24B B -0.0265(7) 0.4813(4) 0.7671(5)
H25B H -0.07070 0.51170 0.76260
B25B B 0.1234(7) 0.6963(3) 0.5727(6)
H26B H 0.09580 0.73100 0.55950
B26B B -0.0544(8) 0.4314(4) 0.8195(6)
H27B H -0.11790 0.43030 0.84710
B27B B 0.0492(7) 0.3959(3) 0.6948(5)
H30B H 0.05330 0.37180 0.64440
B28B B 0.1194(6) 0.6120(3) 0.6688(5)
H31B H 0.09100 0.59330 0.71740
B29B B 0.1094(9) 0.3860(4) 0.7908(6)
H32B H 0.15230 0.35520 0.80000
B30B B 0.2314(7) 0.6879(4) 0.6283(7)
H33B H 0.27380 0.71710 0.65140
O4B O 0.1264(9) 0.7374(5) 0.3184(8)
B31B B 0.0470(8) 0.4062(4) 0.8672(6)
H34B H 0.04980 0.38880 0.92610
O5B O 0.2155(12) 0.2885(6) 0.6292(10)
B32B B 0.3881(6) 0.4019(4) 0.4293(6)
B32B* B -0.6119(6) 0.4019(4) 0.4293(6)
B32* B 0.6119(6) 0.5981(4) 0.5707(6)
H35B H 0.45090 0.38400 0.41960
H35B* H -0.54910 0.38400 0.41960
H35* H 0.54910 0.61600 0.58040
B33B B -0.0104(9) 0.3818(4) 0.7779(6)
H40B H -0.04530 0.34850 0.77840
C10B C 0.3568(11) 0.5218(7) 0.8000(9)
H53B H 0.30600 0.54270 0.78960
H54B H 0.33600 0.49090 0.78590
C11B C 0.3024(13) 0.6098(6) 0.2382(11)
H55B H 0.24360 0.59630 0.22190
H56B H 0.31920 0.62770 0.19310
C13B C 0.0942(15) 0.8158(7) 0.3409(11)
H60B H 0.04190 0.82370 0.36760
H61B H 0.13540 0.84180 0.34480
C14B C 0.1399(15) 0.7742(6) 0.3788(12)
H62B H 0.11360 0.76570 0.42730
H63B H 0.20380 0.78000 0.39330
C16B C 0.0664(15) 0.8036(7) 0.2546(11)
H67B H 0.10620 0.81870 0.22070
H68B H 0.00540 0.81450 0.23850
C17B C 0.3675(13) 0.5736(7) 0.2569(11)
H69B H 0.33870 0.54480 0.26830
H70B H 0.40480 0.56910 0.21360
C19B C 0.3938(12) 0.5238(6) 0.8851(10)
H73B H 0.34700 0.53000 0.91960
H74B H 0.42470 0.49550 0.90240
C20B C 0.4273(14) 0.3542(7) 0.9022(12)
H75B H 0.37890 0.33960 0.92710
H76B H 0.46560 0.37070 0.94370
C21B C 0.4777(12) 0.5714(6) 0.8000(9)
H77B H 0.54190 0.56920 0.79590
H78B H 0.45640 0.60150 0.78120
C22B C 0.3846(12) 0.6375(7) 0.3538(12)
H79B H 0.42300 0.66270 0.34060
H80B H 0.37850 0.63850 0.41120
C23B C 0.4802(13) 0.3192(7) 0.8647(11)
H81B H 0.53560 0.33150 0.84800
H82B H 0.49350 0.29250 0.89910
C25B C 0.4209(13) 0.5933(7) 0.3314(11)
H86B H 0.48330 0.59730 0.32150
H87B H 0.41990 0.57180 0.37590
C26B C 0.4587(12) 0.5634(6) 0.8852(10)
H88B H 0.51430 0.55620 0.91920
H89B H 0.43260 0.59080 0.90620
C27B C 0.4103(13) 0.3094(7) 0.7944(12)
H90B H 0.36990 0.28530 0.80850
H91B H 0.43940 0.29900 0.74840
C28B C 0.1566(18) 0.2725(9) 0.5510(14)
H92B H 0.19460 0.27010 0.50770
H93B H 0.11110 0.29580 0.53550
C29B C 0.3873(14) 0.3881(6) 0.8344(11)
H94B H 0.43240 0.40880 0.81710
H95B H 0.33640 0.40560 0.84950
C30B C 0.0703(14) 0.7529(7) 0.2429(11)
H96B H 0.01040 0.73930 0.23820
H97B H 0.09880 0.74520 0.19520
C34B C 0.1125(18) 0.2293(9) 0.5594(15)
H104B H 0.04940 0.23360 0.56640
H105B H 0.11670 0.20980 0.51260
C35B C 0.1758(18) 0.2541(8) 0.6755(15)
H106B H 0.21330 0.25020 0.72680
H107B H 0.11700 0.26480 0.68700
C36B C 0.1648(18) 0.2089(9) 0.6347(14)
H108B H 0.22170 0.19520 0.62470
H109B H 0.12950 0.18730 0.66250
#END
