
#######################################################################
#
#                 Cambridge Crystallographic Data Centre
#                                CCDC
#
#######################################################################
#
# If this CIF has been generated from an entry in the Cambridge
# Structural Database, then it will include bibliographic, chemical,
# crystal, experimental, refinement or atomic coordinate data resulting
# from the CCDC's data processing and validation procedures.
#
#######################################################################

data_CSD_CIF_MIXGIM
_audit_creation_date 2019-02-27
_audit_creation_method CSD-ConQuest-V1
_database_code_CSD MIXGIM
_database_code_depnum_ccdc_archive 'CCDC 1869640'
_chemical_formula_sum 'C88 H160 Fe8 N4 S16'
_chemical_formula_moiety
;
(C24 H16 Fe8 S16 4-)n,4n(C16 H36 N1 1+)
;
_journal_coden_Cambridge 4
_journal_volume 141
_journal_year 2019
_journal_page_first 3940
_journal_name_full 'J.Am.Chem.Soc. '
loop_
_publ_author_name
"N.E.Horwitz"
"Jiaze Xie"
"A.S.Filatov"
"R.J.Papoular"
"W.E.Shepard"
"D.Z.Zee"
"M.P.Grahn"
"C.Gilder"
"J.S.Anderson"
_chemical_name_systematic
;
catena-(tetrakis(tetra-n-butylammonium) 
tetrakis(\m-benzene-1,4-dithiolato)-octakis(\m-sulfido)-octa-iron)
;
_cell_volume   2823.321
_exptl_crystal_colour 'black'
_exptl_crystal_density_diffrn 1.314
_exptl_special_details
;
powder data

;
_diffrn_ambient_temperature 298
_diffrn_radiation_probe x-ray
_diffrn_source synchrotron
#These two values have been output from a single CSD field.
_refine_ls_R_factor_gt 0.0943
_refine_ls_wR_factor_gt 0.0943
_symmetry_cell_setting tetragonal
_symmetry_space_group_name_H-M 'P 42 c m'
_symmetry_Int_Tables_number 101
loop_
_symmetry_equiv_pos_site_id
_symmetry_equiv_pos_as_xyz
1 x,y,z
2 -y,x,1/2+z
3 -x,-y,z
4 y,-x,1/2+z
5 -x,y,1/2+z
6 -y,-x,z
7 x,-y,1/2+z
8 y,x,z
_cell_length_a 11.92662(28)
_cell_length_b 11.92662
_cell_length_c 19.8484(5)
_cell_angle_alpha 90
_cell_angle_beta 90
_cell_angle_gamma 90
_cell_formula_units_Z 1
loop_
_atom_type_symbol
_atom_type_radius_bond
C 0.68
H 0.23
Fe 1.52
N 0.68
S 1.02
loop_
_atom_site_label
_atom_site_type_symbol
_atom_site_fract_x
_atom_site_fract_y
_atom_site_fract_z
Fe1 Fe 0.58200 0.41800 0.47290
S1 S 0.60650 0.60650 0.45760
S2 S 0.60720 0.39279 0.58660
S3 S 0.70750 0.29250 0.43140
Fe2 Fe 0.58200 0.58200 0.57140
C1 C 0.70750 0.29250 0.34170
S4 S 0.70750 0.70750 0.61290
C2 C 0.63660 0.36340 0.30690
C3 C 0.77840 0.22160 0.30690
C4 C 0.70750 0.70750 0.70260
C5 C 0.63660 0.36340 0.23740
H1 H 0.58360 0.41639 0.33289
C6 C 0.77840 0.22160 0.23740
H2 H 0.83139 0.16860 0.33289
H3 H 0.58360 0.41639 0.21140
H4 H 0.83139 0.16860 0.21140
C7 C 0.05390 0.58982 0.57732
C8 C -0.00670 0.64128 0.63618
C9 C 0.07680 0.64520 0.69408
C10 C 0.05630 0.74280 0.73971
C11 C 0.09389 0.45856 0.48870
C12 C 0.12242 0.33886 0.47405
C13 C 0.07349 0.30185 0.40744
C14 C 0.00014 0.20065 0.41368
N1 N 0.00000 0.50000 0.53484
H5 H 0.12920 0.55230 0.59900
H6 H 0.08510 0.65480 0.54493
H7 H -0.07570 0.58980 0.65035
H8 H -0.03310 0.72400 0.62420
H9 H 0.15900 0.65280 0.67240
H10 H 0.07300 0.56870 0.72180
H11 H 0.04110 0.81670 0.71050
H12 H 0.12810 0.75600 0.77110
H13 H -0.01510 0.72640 0.77090
H14 H 0.07830 0.49800 0.44024
H15 H 0.17001 0.49780 0.50730
H16 H 0.09650 0.28350 0.51315
H17 H 0.21237 0.33190 0.46990
H18 H 0.14150 0.28380 0.37374
H19 H 0.02610 0.37030 0.38696
H20 H 0.01400 0.16100 0.46150
H21 H 0.02000 0.14200 0.37500
H22 H -0.08610 0.22390 0.40900
S1B S 0.39350 0.39350 0.45760
Fe1B Fe 0.41800 0.58200 0.47290
Fe2B Fe 0.41800 0.41800 0.57140
S2B S 0.39280 0.60721 0.58660
S3B S 0.29250 0.70750 0.43140
S4B S 0.29250 0.29250 0.61290
C1B C 0.29250 0.70750 0.34170
C4B C 0.29250 0.29250 0.70260
C5A C 0.63660 0.63660 0.73740
C6A C 0.77840 0.77840 0.73740
C2B C 0.36340 0.63660 0.30690
C3B C 0.22160 0.77840 0.30690
C5C C 0.36340 0.36340 0.73740
C6C C 0.22160 0.22160 0.73740
C4C C 0.70750 0.29250 0.20260
C2A C 0.63660 0.63660 0.80690
H3A H 0.58361 0.58360 0.71140
C3A C 0.77840 0.77840 0.80690
H4A H 0.83140 0.83139 0.71140
C5B C 0.36340 0.63660 0.23740
H1B H 0.41640 0.58361 0.33289
C6B C 0.22160 0.77840 0.23740
H2B H 0.16861 0.83140 0.33289
C2C C 0.36340 0.36340 0.80690
H3C H 0.41639 0.41640 0.71140
C3C C 0.22160 0.22160 0.80690
H4C H 0.16860 0.16861 0.71140
S4C S 0.70750 0.29250 0.11290
C1A C 0.70750 0.70750 0.84170
H1A H 0.58361 0.58360 0.83289
H2A H 0.83140 0.83139 0.83289
C4A C 0.29250 0.70750 0.20260
H3B H 0.41640 0.58361 0.21140
H4B H 0.16861 0.83140 0.21140
C1C C 0.29250 0.29250 0.84170
H1C H 0.41639 0.41640 0.83289
H2C H 0.16860 0.16861 0.83289
Fe2C Fe 0.58200 0.41800 0.07140
S3A S 0.70750 0.70750 0.93140
S4A S 0.29250 0.70750 0.11290
S3C S 0.29250 0.29250 0.93140
Fe1A Fe 0.58200 0.58200 0.97290
Fe2A Fe 0.41800 0.58200 0.07140
Fe1C Fe 0.41800 0.41800 0.97290
S1C S 0.60650 0.39350 0.95760
S2A S 0.60721 0.60720 1.08660
S1A S 0.39350 0.60650 0.95760
S2C S 0.39279 0.39280 1.08660
Fe2C* Fe 0.58200 0.41800 1.07140
Fe2A* Fe 0.41800 0.58200 1.07140
S4C* S 0.70750 0.29250 1.11290
S4A* S 0.29250 0.70750 1.11290
C7B C -0.05390 0.41018 0.57732
C8B C 0.00670 0.35872 0.63618
C9B C -0.07680 0.35480 0.69408
C10B C -0.05630 0.25720 0.73971
C11B C -0.09389 0.54144 0.48870
C12B C -0.12242 0.66114 0.47405
C13B C -0.07349 0.69815 0.40744
C14B C -0.00014 0.79935 0.41368
H5B H -0.12920 0.44770 0.59900
H6B H -0.08510 0.34520 0.54493
H7B H 0.07570 0.41020 0.65035
H8B H 0.03310 0.27600 0.62420
H9B H -0.15900 0.34720 0.67240
H10B H -0.07300 0.43130 0.72180
H11B H -0.04110 0.18330 0.71050
H12B H -0.12810 0.24400 0.77110
H13B H 0.01510 0.27360 0.77090
H14B H -0.07830 0.50200 0.44024
H15B H -0.17001 0.50220 0.50730
H16B H -0.09650 0.71650 0.51315
H17B H -0.21237 0.66810 0.46990
H18B H -0.14150 0.71620 0.37374
H19B H -0.02610 0.62970 0.38696
H20B H -0.01400 0.83900 0.46150
H21B H -0.02000 0.85800 0.37500
H22B H 0.08610 0.77610 0.40900
#END
