
#######################################################################
#
#                 Cambridge Crystallographic Data Centre
#                                CCDC
#
#######################################################################
#
# If this CIF has been generated from an entry in the Cambridge
# Structural Database, then it will include bibliographic, chemical,
# crystal, experimental, refinement or atomic coordinate data resulting
# from the CCDC's data processing and validation procedures.
#
#######################################################################

data_CSD_CIF_MIXZOK
_audit_creation_date 2014-03-14
_audit_creation_method CSD-ConQuest-V1
_database_code_CSD MIXZOK
_database_code_depnum_ccdc_archive 'CCDC 851217'
_chemical_formula_sum 'C108 H155 N11 Ni3 O33'
_chemical_formula_moiety
;
(C66 H43 Ni3 O16 1-)n,C2 H8 N1 1+,10(C4 H9 N1 O1),7(H2 O1)
;
_journal_coden_Cambridge 127
_journal_volume 71
_journal_year 2013
_journal_page_first 1492
_journal_name_full 'Huaxue Xuebao(Chin.)(Acta Chim.Sinica) '
loop_
_publ_author_name
"Jia Jiangtao"
"Wang Lei"
"Zhao Qing"
"Sun Fuxing"
"Zhu Guangshan"
_chemical_name_systematic
;
catena-(dimethylammonium 
(\m-1,3,5-tris(3,5-bis(4-carboxyphenyl)phenyl)benzene)-(\m-hydroxo)-triaqua-tr
i-nickel N,N-dimethylacetamide solvate heptahydrate)
;
_chemical_name_common
;
JUC-105
;
_cell_volume   8895.557
_exptl_crystal_colour 'pale green'
_exptl_crystal_description 'polyhedra'
_diffrn_ambient_temperature 296
_refine_special_details
;
Disordered cations and solvent molecules were not modelled and the disordered 
density was taken into account using the SQUEEZE/PLATON procedure.
;
#These two values have been output from a single CSD field.
_refine_ls_R_factor_gt 0.103
_refine_ls_wR_factor_gt 0.103
_symmetry_cell_setting hexagonal
_symmetry_space_group_name_H-M 'P -6 2 c'
_symmetry_Int_Tables_number 190
loop_
_symmetry_equiv_pos_site_id
_symmetry_equiv_pos_as_xyz
1 x,y,z
2 -y,x-y,z
3 -x+y,-x,z
4 x,y,1/2-z
5 -y,x-y,1/2-z
6 -x+y,-x,1/2-z
7 y,x,-z
8 x-y,-y,-z
9 -x,-x+y,-z
10 y,x,1/2+z
11 x-y,-y,1/2+z
12 -x,-x+y,1/2+z
_cell_length_a 19.1786(7)
_cell_length_b 19.1786(7)
_cell_length_c 27.926(2)
_cell_angle_alpha 90
_cell_angle_beta 90
_cell_angle_gamma 120
_cell_formula_units_Z 2
loop_
_atom_type_symbol
_atom_type_radius_bond
C 0.68
H 0.23
Ni 1.24
O 0.68
loop_
_atom_site_label
_atom_site_type_symbol
_atom_site_fract_x
_atom_site_fract_y
_atom_site_fract_z
O1 O 0.5125(4) 0.9046(4) 0.75000
Ni1 Ni 0.41929(5) 0.78102(5) 0.75000
C1 C 0.2951(4) 0.7818(3) 0.68390(18)
C2 C 0.2802(4) 0.8265(4) 0.6442(2)
C3 C 0.2518(4) 0.9090(4) 0.5713(2)
C4 C 0.3280(4) 0.9374(5) 0.5895(3)
H1 H 0.37070 0.98460 0.57730
C5 C 0.2063(4) 0.7979(5) 0.6253(2)
H2 H 0.16440 0.74920 0.63640
C6 C 0.1907(4) 0.8380(5) 0.5902(3)
H3 H 0.13840 0.81730 0.57890
C7 C 0.3421(5) 0.8966(5) 0.6260(3)
H4 H 0.39390 0.91710 0.63810
O2 O 0.33330 0.66670 0.75000
O3 O 0.3659(3) 0.8126(3) 0.69829(17)
O4 O 0.2356(3) 0.7196(3) 0.69866(15)
C8 C 0.0708(4) 1.00000 0.50000
C9 C 0.2366(4) 0.9550(4) 0.5342(2)
C10 C 0.1506(4) 1.00000 0.50000
C11 C 0.1643(4) 0.9541(4) 0.5331(2)
H5 H 0.12420 0.92240 0.55490
C12 C 0.2932(5) 1.00000 0.50000
H6 H 0.34170 1.00000 0.50000
C13 C 0.00000 0.9276(4) 0.50000
H7 H 0.00000 0.87910 0.50000
C1A C 0.2182(4) 1.5133(3) 0.68390(18)
C2A C 0.1735(4) 1.4537(4) 0.6442(2)
C3A C 0.0910(4) 1.3428(4) 0.5713(2)
C4A C 0.0626(4) 1.3906(5) 0.5895(3)
H1A H 0.01540 1.38610 0.57730
C5A C 0.2021(4) 1.4084(5) 0.6253(2)
H2A H 0.25080 1.41520 0.63640
C6A C 0.1620(4) 1.3527(5) 0.5902(3)
H3A H 0.18270 1.32110 0.57890
C7A C 0.1034(5) 1.4455(5) 0.6260(3)
H4A H 0.08290 1.47680 0.63810
O3A O 0.1874(3) 1.5533(3) 0.69829(17)
O4A O 0.2804(3) 1.5160(3) 0.69866(15)
C8A C 0.0000(4) 1.07080 0.50000
C9A C 0.0450(4) 1.2816(4) 0.5342(2)
C10A C 0.0000(4) 1.15060 0.50000
C11A C 0.0459(4) 1.2102(4) 0.5331(2)
H5A H 0.07760 1.20180 0.55490
C12A C 0.0000(5) 1.29320 0.50000
H6A H 0.00000 1.34170 0.50000
C13A C 0.07240 1.0724(4) 0.50000
H7A H 0.12090 1.12090 0.50000
C1B C -0.5133(4) 0.7049(3) 0.68390(18)
C2B C -0.4537(4) 0.7198(4) 0.6442(2)
C3B C -0.3428(4) 0.7482(4) 0.5713(2)
C4B C -0.3906(4) 0.6720(5) 0.5895(3)
H1B H -0.38610 0.62930 0.57730
C5B C -0.4084(4) 0.7937(5) 0.6253(2)
H2B H -0.41520 0.83560 0.63640
C6B C -0.3527(4) 0.8093(5) 0.5902(3)
H3B H -0.32110 0.86160 0.57890
C7B C -0.4455(5) 0.6579(5) 0.6260(3)
H4B H -0.47680 0.60610 0.63810
O3B O -0.5533(3) 0.6341(3) 0.69829(17)
O4B O -0.5160(3) 0.7644(3) 0.69866(15)
C8B C -0.0708(4) 0.92920 0.50000
C9B C -0.2816(4) 0.7634(4) 0.5342(2)
C10B C -0.1506(4) 0.84940 0.50000
C11B C -0.2102(4) 0.8357(4) 0.5331(2)
H5B H -0.20180 0.87580 0.55490
C12B C -0.2932(5) 0.70680 0.50000
H6B H -0.34170 0.65830 0.50000
C13B C -0.07240 1.0000(4) 0.50000
H7B H -0.12090 1.00000 0.50000
C1F C -0.2182(4) 1.2951(3) 0.31610(18)
C2F C -0.1735(4) 1.2802(4) 0.3558(2)
C3F C -0.0910(4) 1.2518(4) 0.4287(2)
C4F C -0.0626(4) 1.3280(5) 0.4105(3)
H1F H -0.01540 1.37070 0.42270
C5F C -0.2021(4) 1.2063(5) 0.3747(2)
H2F H -0.25080 1.16440 0.36360
C6F C -0.1620(4) 1.1907(5) 0.4098(3)
H3F H -0.18270 1.13840 0.42110
C7F C -0.1034(5) 1.3421(5) 0.3740(3)
H4F H -0.08290 1.39390 0.36190
O3F O -0.1874(3) 1.3659(3) 0.30171(17)
O4F O -0.2804(3) 1.2356(3) 0.30134(15)
C9F C -0.0450(4) 1.2366(4) 0.4658(2)
C11F C -0.0459(4) 1.1643(4) 0.4669(2)
H5F H -0.07760 1.12420 0.44510
C1G C 0.5133(4) 1.2182(3) 0.31610(18)
C2G C 0.4537(4) 1.1735(4) 0.3558(2)
C3G C 0.3428(4) 1.0910(4) 0.4287(2)
C4G C 0.3906(4) 1.0626(5) 0.4105(3)
H1G H 0.38610 1.01540 0.42270
C5G C 0.4084(4) 1.2021(5) 0.3747(2)
H2G H 0.41520 1.25080 0.36360
C6G C 0.3527(4) 1.1620(5) 0.4098(3)
H3G H 0.32110 1.18270 0.42110
C7G C 0.4455(5) 1.1034(5) 0.3740(3)
H4G H 0.47680 1.08290 0.36190
O3G O 0.5533(3) 1.1874(3) 0.30171(17)
O4G O 0.5160(3) 1.2804(3) 0.30134(15)
C9G C 0.2816(4) 1.0450(4) 0.4658(2)
C11G C 0.2102(4) 1.0459(4) 0.4669(2)
H5G H 0.20180 1.07760 0.44510
C1H C -0.2951(4) 0.4867(3) 0.31610(18)
C2H C -0.2802(4) 0.5463(4) 0.3558(2)
C3H C -0.2518(4) 0.6572(4) 0.4287(2)
C4H C -0.3280(4) 0.6094(5) 0.4105(3)
H1H H -0.37070 0.61390 0.42270
C5H C -0.2063(4) 0.5916(5) 0.3747(2)
H2H H -0.16440 0.58480 0.36360
C6H C -0.1907(4) 0.6473(5) 0.4098(3)
H3H H -0.13840 0.67890 0.42110
C7H C -0.3421(5) 0.5545(5) 0.3740(3)
H4H H -0.39390 0.52320 0.36190
O3H O -0.3659(3) 0.4467(3) 0.30171(17)
O4H O -0.2356(3) 0.4840(3) 0.30134(15)
C9H C -0.2366(4) 0.7184(4) 0.4658(2)
C11H C -0.1643(4) 0.7898(4) 0.4669(2)
H5H H -0.12420 0.79820 0.44510
O1A O 0.0954(4) 0.6079(4) 0.75000
Ni1A Ni 0.21898(5) 0.63827(5) 0.75000
O1B O 0.3921(4) 0.4875(4) 0.75000
Ni1B Ni 0.36173(5) 0.58071(5) 0.75000
Ni1* Ni -0.58071(5) 0.78102(5) 0.75000
Ni1A* Ni 0.21898(5) 1.63827(5) 0.75000
Ni1B* Ni -0.63827(5) 0.58071(5) 0.75000
Ni1B** Ni 0.36173(5) 1.58071(5) 0.75000
Ni1F Ni -0.21898(5) 0.41929(5) 0.25000
Ni1F* Ni -0.21898(5) 1.41929(5) 0.25000
Ni1G Ni -0.36173(5) 1.21898(5) 0.25000
Ni1G* Ni 0.63827(5) 1.21898(5) 0.25000
Ni1H Ni -0.41929(5) 0.36173(5) 0.25000
Ni1H* Ni 0.58071(5) 1.36173(5) 0.25000
O3A* O 0.1874(3) 0.5533(3) 0.69829(17)
O3B* O 0.4467(3) 0.6341(3) 0.69829(17)
O3C O 0.3659(3) 0.8126(3) 0.80171(17)
O3D O 0.1874(3) 0.5533(3) 0.80171(17)
O3E O 0.4467(3) 0.6341(3) 0.80171(17)
O4A* O 0.2804(3) 0.5160(3) 0.69866(15)
O4B* O 0.4840(3) 0.7644(3) 0.69866(15)
O4C O 0.2356(3) 0.7196(3) 0.80134(15)
O4D O 0.2804(3) 0.5160(3) 0.80134(15)
O4E O 0.4840(3) 0.7644(3) 0.80134(15)
#END
