
#######################################################################
#
#                 Cambridge Crystallographic Data Centre
#                                CCDC
#
#######################################################################
#
# If this CIF has been generated from an entry in the Cambridge
# Structural Database, then it will include bibliographic, chemical,
# crystal, experimental, refinement or atomic coordinate data resulting
# from the CCDC's data processing and validation procedures.
#
#######################################################################

data_CSD_CIF_MIZKAI
_audit_creation_date 2008-10-10
_audit_creation_method CSD-ConQuest-V1
_database_code_CSD MIZKAI
_database_code_depnum_ccdc_archive 'CCDC 666003'
_chemical_formula_sum 'C42 H55 Cd3 N8 O20.5'
_chemical_formula_moiety
;
(C32 H20 Cd3 N4 O16 2-)n,2n(C2 H8 N1 1+),2n(C3 H7 N1 O1),2.5n(H2 O1)
;
_journal_coden_Cambridge 1350
_journal_volume 10
_journal_year 2008
_journal_page_first 753
_journal_name_full 'CrystEngComm '
loop_
_publ_author_name
"Xiao-Feng Wang"
"Yue-Biao Zhang"
"Xiao-Ning Cheng"
"Xiao-Ming Chen"
_chemical_name_systematic
;
catena-(bis(Dimethylammonium) 
bis(\m~4~-2-amino-1,4-benzenedicarboxylato-O,O',O'',O''')-(\m~4~-2-amino-1,4-b
enzenedicarboxylato-O,O,O',O'',O'',O''')-(\m~2~-2-amino-1,4-benzenedicarboxyla
to-O,O',O'',O''')-tri-cadmium dimethylformamide solvate hydrate)
;
_cell_volume   6394.163
_exptl_crystal_colour 'yellow'
_exptl_crystal_density_diffrn 1.39
_exptl_crystal_description 'block'
_diffrn_ambient_temperature 293
_refine_special_details
;
The amino groups of some of the ligands are disordered, some of them by 
symmetry. Some of the solvent molecules are also disordered.
;
#These two values have been output from a single CSD field.
_refine_ls_R_factor_gt 0.0556
_refine_ls_wR_factor_gt 0.0556
_symmetry_cell_setting monoclinic
_symmetry_space_group_name_H-M 'C 2/c'
_symmetry_Int_Tables_number 15
loop_
_symmetry_equiv_pos_site_id
_symmetry_equiv_pos_as_xyz
1 x,y,z
2 1/2+x,1/2+y,z
3 -x,y,1/2-z
4 1/2-x,1/2+y,1/2-z
5 -x,-y,-z
6 -1/2-x,-1/2-y,-z
7 x,-y,-1/2+z
8 -1/2+x,-1/2-y,-1/2+z
_cell_length_a 34.622(7)
_cell_length_b 10.432(2)
_cell_length_c 18.032(4)
_cell_angle_alpha 90
_cell_angle_beta 100.950(4)
_cell_angle_gamma 90
_cell_formula_units_Z 4
loop_
_atom_type_symbol
_atom_type_radius_bond
C 0.68
H 0.23
Cd 1.57
N 0.68
O 0.68
loop_
_atom_site_label
_atom_site_type_symbol
_atom_site_fract_x
_atom_site_fract_y
_atom_site_fract_z
Cd1 Cd 0.148539(11) 0.32777(4) 0.46249(2)
Cd2 Cd 0.25000 0.25000 0.50000
O1 O 0.15555(16) 0.2059(6) 0.5638(3)
O2 O 0.21347(16) 0.1231(5) 0.5539(3)
O3 O 0.14966(18) -0.1920(5) 0.8692(3)
O4 O 0.2132(2) -0.2284(6) 0.8838(3)
O5 O 0.17244(14) 0.5208(4) 0.4182(3)
O6 O 0.20975(11) 0.4273(3) 0.5161(3)
C1 C 0.18393(18) 0.0541(6) 0.6552(4)
C2 C 0.1524(2) 0.0592(8) 0.6922(4)
C3 C 0.1532(2) -0.0159(8) 0.7556(4)
H1 H 0.13130 -0.01260 0.78100
C4 C 0.18326(19) -0.0966(7) 0.7826(4)
C5 C 0.2155(2) -0.0991(7) 0.7456(4)
C6 C 0.21488(19) -0.0259(7) 0.6824(4)
H2 H 0.23650 -0.03140 0.65610
C7 C 0.1840(2) 0.1336(6) 0.5859(4)
C8 C 0.1824(2) -0.1765(7) 0.8510(4)
C9 C 0.22701(18) 0.6396(6) 0.4830(4)
C10 C 0.22117(19) 0.7448(6) 0.4342(4)
H3? H 0.20170 0.74100 0.38860
C11 C 0.25681(19) 0.6475(6) 0.5491(4)
H4 H 0.26110 0.57550 0.58280
C12 C 0.20192(18) 0.5212(6) 0.4709(4)
C13 C 0.0368(2) 0.4619(8) 0.4898(5)
C14 C 0.0783(2) 0.4180(8) 0.4828(5)
N1 N 0.1207(7) 0.149(2) 0.6697(19)
H5 H 0.11450 0.21080 0.62360
H6 H 0.09630 0.16720 0.69220
H7 H 0.23690 -0.15850 0.76400
N2? N 0.2467(4) -0.1881(12) 0.7632(9)
H8? H 0.24750 -0.24390 0.80150
H9? H 0.26650 -0.18600 0.73730
H10? H 0.13070 0.11530 0.67610
C15 C 0.0036(5) 0.3894(18) 0.4594(10)
H11? H 0.00630 0.31150 0.43250
C16 C 0.0333(5) 0.5729(18) 0.5287(11)
H12 H 0.05620 0.62270 0.54930
O7 O 0.0806(4) 0.3254(13) 0.4399(8)
O8 O 0.1074(4) 0.4781(13) 0.5159(8)
N3 N 0.0006(13) 0.284(3) 0.404(2)
H13 H -0.02210 0.25370 0.38380
H14 H 0.02150 0.25210 0.39200
C17? C 0.0048(5) 0.4369(18) 0.4312(11)
H15? H 0.00780 0.39320 0.38580
C18? C 0.0313(6) 0.5276(19) 0.5538(12)
H16? H 0.05410 0.54790 0.59110
O9? O 0.0822(4) 0.3671(14) 0.4194(8)
O10? O 0.1064(4) 0.4391(14) 0.5371(8)
N4? N 0.0015(13) 0.349(3) 0.3665(19)
H17? H -0.02130 0.32490 0.34270
H18? H 0.02230 0.32080 0.35250
N5 N 0.1401(8) 0.544(2) 0.6844(16)
H19 H 0.12860 0.52640 0.63640
H20 H 0.12630 0.60860 0.69990
C19 C 0.1811(8) 0.569(3) 0.6862(18)
H21 H 0.17880 0.64270 0.65370
H22 H 0.19380 0.59330 0.73630
H23 H 0.19630 0.50420 0.66730
C20 C 0.1298(8) 0.435(3) 0.7250(18)
H24 H 0.10220 0.41640 0.71910
H25 H 0.14300 0.36220 0.70830
H26 H 0.14050 0.45130 0.77720
N6 N 0.1046(8) 0.892(3) 0.5048(18)
O11 O 0.0660(13) 0.874(5) 0.595(2)
C21 C 0.0727(9) 0.925(4) 0.536(2)
H27 H 0.05560 0.98800 0.51270
C22 C 0.1328(10) 0.794(3) 0.5386(17)
H28? H 0.12410 0.75650 0.58120
H29? H 0.15810 0.83250 0.55480
H30? H 0.13450 0.72850 0.50190
C23 C 0.1123(9) 0.952(3) 0.4358(17)
H31? H 0.09090 1.00830 0.41560
H32? H 0.11480 0.88720 0.39930
H33? H 0.13630 1.00070 0.44730
N7? N 0.1166(6) 0.821(3) 0.4600(18)
O12? O 0.0917(12) 0.752(4) 0.342(2)
C24? C 0.1054(10) 0.722(3) 0.409(2)
H34? H 0.10800 0.63630 0.42410
C25? C 0.1123(9) 0.952(3) 0.4358(17)
H35 H 0.10410 0.95530 0.38190
H36 H 0.13710 0.99550 0.45000
H37 H 0.09300 0.99340 0.45930
C26? C 0.1328(10) 0.794(3) 0.5386(17)
H38 H 0.14150 0.70650 0.54380
H39 H 0.11290 0.80770 0.56840
H40 H 0.15460 0.85000 0.55580
N8 N 0.1941(4) 0.7400(12) 0.3634(7)
H41 H 0.18030 0.66790 0.34980
H42 H 0.19080 0.80870 0.33260
O13 O 0.0945(16) 0.706(4) 0.732(3)
H43 H 0.10020 0.69000 0.77940
H44 H 0.07080 0.73050 0.72790
O14? O 0.0534(13) 0.768(4) 0.784(2)
H45? H 0.05320 0.78370 0.83030
H46? H 0.03130 0.79200 0.75880
O15 O 0.00000 0.579(6) 0.25000
H47? H -0.01120 0.65100 0.24040
H48? H 0.02140 0.57790 0.23330
Cd1E Cd 0.351461(11) 0.17223(4) 0.53751(2)
Cd1F Cd 0.148539(11) -0.32777(4) 0.96249(2)
Cd1E* Cd 0.351461(11) 1.17223(4) 0.53751(2)
Cd1D Cd -0.148539(11) 0.67223(4) 0.53751(2)
Cd1C Cd 0.351461(11) 0.82777(4) 0.03751(2)
Cd2F Cd 0.25000 -0.25000 1.00000
Cd2* Cd 0.25000 1.25000 0.50000
Cd2F* Cd 0.25000 0.75000 0.00000
O1E O 0.34445(16) 0.2941(6) 0.4362(3)
O2E O 0.28653(16) 0.3769(5) 0.4461(3)
O3E O 0.35034(18) 0.6920(5) 0.1308(3)
O3F O 0.14966(18) 0.1920(5) 0.3692(3)
O3C O 0.35034(18) 0.3080(5) 0.6308(3)
O4E O 0.2868(2) 0.7284(6) 0.1162(3)
O4F O 0.2132(2) 0.2284(6) 0.3838(3)
O4C O 0.2868(2) 0.2716(6) 0.6162(3)
O5E O 0.32756(14) 0.9792(4) 0.5818(3)
O5E* O 0.32756(14) -0.0208(4) 0.5818(3)
O6E O 0.29025(11) 1.0727(3) 0.4839(3)
O6E* O 0.29025(11) 0.0727(3) 0.4839(3)
C1E C 0.31607(18) 0.4459(6) 0.3448(4)
C2E C 0.3476(2) 0.4408(8) 0.3078(4)
C3E C 0.3468(2) 0.5159(8) 0.2444(4)
H1E H 0.36870 0.51260 0.21900
C4E C 0.31674(19) 0.5966(7) 0.2174(4)
C5E C 0.2845(2) 0.5991(7) 0.2544(4)
C6E C 0.28512(19) 0.5259(7) 0.3176(4)
H2E H 0.26350 0.53140 0.34390
C7E C 0.3160(2) 0.3664(6) 0.4141(4)
C8E C 0.3176(2) 0.6765(7) 0.1490(4)
C9E C 0.27299(18) 0.8604(6) 0.5170(4)
C10E C 0.27883(19) 0.7552(6) 0.5658(4)
C11E C 0.24319(19) 0.8525(6) 0.4509(4)
H4E H 0.23890 0.92450 0.41720
C12E C 0.29808(18) 0.9788(6) 0.5291(4)
C13D C -0.0368(2) 0.5381(8) 0.5102(5)
C14D C -0.0783(2) 0.5820(8) 0.5172(5)
N1E N 0.3793(7) 0.351(2) 0.3303(19)
H5E H 0.38550 0.28920 0.37640
H6E H 0.40370 0.33280 0.30780
H7E H 0.26310 0.65850 0.23600
C15D C -0.0036(5) 0.6106(18) 0.5406(10)
C16D C -0.0333(5) 0.4271(18) 0.4713(11)
H12D H -0.05620 0.37730 0.45070
O7D O -0.0806(4) 0.6746(13) 0.5601(8)
O7E O 0.4194(4) 0.1746(13) 0.5601(8)
O8D O -0.1074(4) 0.5219(13) 0.4841(8)
O8E O 0.3926(4) 0.0219(13) 0.4841(8)
N3D N -0.0006(13) 0.716(3) 0.596(2)
H13D H 0.02210 0.74630 0.61620
H14D H -0.02150 0.74790 0.60800
N8E N 0.3059(4) 0.7600(12) 0.6366(7)
H41E H 0.31970 0.83210 0.65020
H42E H 0.30920 0.69130 0.66740
#END
