
#######################################################################
#
#                 Cambridge Crystallographic Data Centre
#                                CCDC
#
#######################################################################
#
# If this CIF has been generated from an entry in the Cambridge
# Structural Database, then it will include bibliographic, chemical,
# crystal, experimental, refinement or atomic coordinate data resulting
# from the CCDC's data processing and validation procedures.
#
#######################################################################

data_CSD_CIF_MOFJAV
_audit_creation_date 2019-03-04
_audit_creation_method CSD-ConQuest-V1
_database_code_CSD MOFJAV
_database_code_depnum_ccdc_archive 'CCDC 1848805'
_chemical_formula_sum 'C32 H27 Co3 N1 O16'
_chemical_formula_moiety
;
(C30 H19 Co3 O16 1-)n,n(C2 H8 N1 1+)
;
_journal_coden_Cambridge 179
_journal_volume 58
_journal_year 2019
_journal_page_first 4227
_journal_name_full 'Angew.Chem.,Int.Ed. '
loop_
_publ_author_name
"Wei Zhou"
"Dan-Dan Huang"
"Ya-Pan Wu"
"Jun Zhao"
"Tao Wu"
"Jian Zhang"
"Dong-Sheng Li"
"Chenghua Sun"
"Pingyun Feng"
"Xianhui Bu"
_chemical_name_systematic
;
catena-(dimethylammonium 
(\m-1,3,5-tris(3,5-dicarboxylatophenyl)benzene)-(\m-hydroxo)-triaqua-tri-cobal
t)
;
_chemical_name_common
;
CTGU-10a1
;
_cell_volume   2556.229
_exptl_crystal_colour 'pink'
_exptl_special_details
;
The cation was not modelled crystallographically

;
_exptl_crystal_description 'block'
_diffrn_ambient_temperature 293
#These two values have been output from a single CSD field.
_refine_ls_R_factor_gt 0.0791
_refine_ls_wR_factor_gt 0.0791
_symmetry_cell_setting hexagonal
_symmetry_space_group_name_H-M 'P -6 2 c'
_symmetry_Int_Tables_number 190
loop_
_symmetry_equiv_pos_site_id
_symmetry_equiv_pos_as_xyz
1 x,y,z
2 -y,x-y,z
3 -x+y,-x,z
4 x,y,1/2-z
5 -y,x-y,1/2-z
6 -x+y,-x,1/2-z
7 y,x,-z
8 x-y,-y,-z
9 -x,-x+y,-z
10 y,x,1/2+z
11 x-y,-y,1/2+z
12 -x,-x+y,1/2+z
_cell_length_a 14.5976(5)
_cell_length_b 14.5976(5)
_cell_length_c 13.8518(7)
_cell_angle_alpha 90
_cell_angle_beta 90
_cell_angle_gamma 120
_cell_formula_units_Z 2
loop_
_atom_type_symbol
_atom_type_radius_bond
C 0.68
H 0.23
Co 1.26
O 0.68
loop_
_atom_site_label
_atom_site_type_symbol
_atom_site_fract_x
_atom_site_fract_y
_atom_site_fract_z
Co1 Co 0.81129(13) 0.46463(13) 0.25000
O1 O 0.66670 0.33330 0.25000
O2 O 0.7683(5) 0.5378(6) 0.3549(6)
O3 O 0.5926(5) 0.4633(5) 0.3570(5)
C1 C 0.9045(8) 1.00000 0.50000
H1 H 0.84080 1.00000 0.50000
O4 O 0.9613(9) 0.6056(9) 0.25000
H2 H 0.99660 0.60440 0.29560
C2 C 0.7897(7) 0.7148(7) 0.4472(7)
H3 H 0.84740 0.72030 0.41350
C3 C 0.9039(7) 0.9039(7) 0.50000
C4 C 0.6951(7) 0.6214(7) 0.4436(6)
C5 C 0.6833(7) 0.5327(6) 0.3800(7)
C6 C 0.6108(9) 0.6108(9) 0.50000
H4 H 0.54710 0.54710 0.50000
C7 C 0.8016(8) 0.8016(8) 0.50000
O2A O 1.4622(5) 1.2305(6) 0.3549(6)
O3A O 1.5367(5) 1.1293(5) 0.3570(5)
C1A C 1.0000(8) 0.90450 0.50000
H1A H 1.00000 0.84080 0.50000
C2A C 1.2852(7) 1.0749(7) 0.4472(7)
H3A H 1.27970 1.12710 0.41350
C3A C 1.0961(7) 1.0000(7) 0.50000
C4A C 1.3786(7) 1.0737(7) 0.4436(6)
C5A C 1.4673(7) 1.1506(6) 0.3800(7)
C6A C 1.3892(9) 1.0000(9) 0.50000
H4A H 1.45290 1.00000 0.50000
C7A C 1.1984(8) 1.0000(8) 0.50000
O2B O 0.7695(5) 1.2317(6) 0.3549(6)
O3B O 0.8707(5) 1.4074(5) 0.3570(5)
C1B C 1.0955(8) 1.09550 0.50000
H1B H 1.15920 1.15920 0.50000
C2B C 0.9251(7) 1.2103(7) 0.4472(7)
H3B H 0.87290 1.15260 0.41350
C3B C 1.0000(7) 1.0961(7) 0.50000
C4B C 0.9263(7) 1.3049(7) 0.4436(6)
C5B C 0.8494(7) 1.3167(6) 0.3800(7)
C6B C 1.0000(9) 1.3892(9) 0.50000
H4B H 1.00000 1.45290 0.50000
C7B C 1.0000(8) 1.1984(8) 0.50000
O2F O 0.5378(5) 0.7683(6) 0.6451(6)
O3F O 0.4633(5) 0.5926(5) 0.6430(5)
C2F C 0.7148(7) 0.7897(7) 0.5528(7)
H3F H 0.72030 0.84740 0.58650
C4F C 0.6214(7) 0.6951(7) 0.5564(6)
C5F C 0.5327(7) 0.6833(6) 0.6200(7)
O2G O 1.2305(5) 1.4622(6) 0.6451(6)
O3G O 1.1293(5) 1.5367(5) 0.6430(5)
C2G C 1.0749(7) 1.2852(7) 0.5528(7)
H3G H 1.12710 1.27970 0.58650
C4G C 1.0737(7) 1.3786(7) 0.5564(6)
C5G C 1.1506(7) 1.4673(6) 0.6200(7)
O2H O 1.2317(5) 0.7695(6) 0.6451(6)
O3H O 1.4074(5) 0.8707(5) 0.6430(5)
C2H C 1.2103(7) 0.9251(7) 0.5528(7)
H3H H 1.15260 0.87290 0.58650
C4H C 1.3049(7) 0.9263(7) 0.5564(6)
C5H C 1.3167(7) 0.8494(6) 0.6200(7)
H2C H 0.99660 0.60440 0.20440
Co1A Co 0.53537(13) 0.34666(13) 0.25000
O4A O 0.3944(9) 0.3557(9) 0.25000
H2A H 0.39560 0.39220 0.29560
H2D H 0.39560 0.39220 0.20440
Co1B Co 0.65334(13) 0.18871(13) 0.25000
O4B O 0.6443(9) 0.0387(9) 0.25000
H2B H 0.60780 0.00340 0.29560
H2E H 0.60780 0.00340 0.20440
Co1* Co 0.81129(13) 1.46463(13) 0.25000
Co1A* Co 1.53537(13) 1.34666(13) 0.25000
Co1B* Co 0.65334(13) 1.18871(13) 0.25000
Co1B** Co 1.65334(13) 1.18871(13) 0.25000
Co1F Co 0.46463(13) 0.81129(13) 0.75000
Co1F* Co 1.46463(13) 0.81129(13) 0.75000
Co1G Co 0.34666(13) 0.53537(13) 0.75000
Co1G* Co 1.34666(13) 1.53537(13) 0.75000
Co1H Co 1.18871(13) 0.65334(13) 0.75000
Co1H* Co 1.18871(13) 1.65334(13) 0.75000
O2A* O 0.4622(5) 0.2305(6) 0.3549(6)
O2B* O 0.7695(5) 0.2317(6) 0.3549(6)
O2C O 0.7683(5) 0.5378(6) 0.1451(6)
O2D O 0.4622(5) 0.2305(6) 0.1451(6)
O2E O 0.7695(5) 0.2317(6) 0.1451(6)
O3A* O 0.5367(5) 0.1293(5) 0.3570(5)
O3B* O 0.8707(5) 0.4074(5) 0.3570(5)
O3C O 0.5926(5) 0.4633(5) 0.1430(5)
O3D O 0.5367(5) 0.1293(5) 0.1430(5)
O3E O 0.8707(5) 0.4074(5) 0.1430(5)
#END
