
#######################################################################
#
#                 Cambridge Crystallographic Data Centre
#                                CCDC
#
#######################################################################
#
# If this CIF has been generated from an entry in the Cambridge
# Structural Database, then it will include bibliographic, chemical,
# crystal, experimental, refinement or atomic coordinate data resulting
# from the CCDC's data processing and validation procedures.
#
#######################################################################

data_CSD_CIF_MOHMON
_audit_creation_date 2014-08-07
_audit_creation_method CSD-ConQuest-V1
_database_code_CSD MOHMON
_database_code_depnum_ccdc_archive 'CCDC 956337'
_chemical_formula_sum 'C6 H11 Cd2 Cl4 N3 O3'
_chemical_formula_moiety
;
(C5 H3 Cd2 Cl4 N2 O2 1-)n,H4 N1 1+,C1 H4 O1
;
_journal_coden_Cambridge 580
_journal_volume 80
_journal_year 2014
_journal_page_first 173
_journal_name_full 'Polyhedron '
loop_
_publ_author_name
"E.Colacio"
"A.Rodriguez-Dieguez"
_chemical_name_systematic
;
catena-[ammonium 
(\m~2~-pyrimidine-2-carboxylato)-tetrakis(\m~2~-chloro)-di-cadmium methanol 
solvate]
;
_cell_volume   2867.781
_exptl_crystal_colour 'white'
_exptl_crystal_density_diffrn 2.5
_exptl_crystal_description 'prismatic'
_diffrn_ambient_temperature 297
_refine_special_details
;
The SQUEEZE/PLATON program has been used to model some disordered cation and 
solvent molecules.
;
#These two values have been output from a single CSD field.
_refine_ls_R_factor_gt 0.0306
_refine_ls_wR_factor_gt 0.0306
_symmetry_cell_setting orthorhombic
_symmetry_space_group_name_H-M 'C m c m'
_symmetry_Int_Tables_number 63
loop_
_symmetry_equiv_pos_site_id
_symmetry_equiv_pos_as_xyz
1 x,y,z
2 -x,-y,1/2+z
3 -x,y,1/2-z
4 x,-y,-z
5 1/2+x,1/2+y,z
6 1/2-x,1/2-y,1/2+z
7 1/2-x,1/2+y,1/2-z
8 1/2+x,1/2-y,-z
9 -x,-y,-z
10 x,y,-1/2-z
11 x,-y,-1/2+z
12 -x,y,z
13 -1/2-x,-1/2-y,-z
14 -1/2+x,-1/2+y,-1/2-z
15 -1/2+x,-1/2-y,-1/2+z
16 -1/2-x,-1/2+y,z
_cell_length_a 15.1749(12)
_cell_length_b 6.9090(5)
_cell_length_c 27.353(2)
_cell_angle_alpha 90
_cell_angle_beta 90
_cell_angle_gamma 90
_cell_formula_units_Z 8
loop_
_atom_type_symbol
_atom_type_radius_bond
C 0.68
H 0.23
Cd 1.44
Cl 0.99
N 0.68
O 0.68
loop_
_atom_site_label
_atom_site_type_symbol
_atom_site_fract_x
_atom_site_fract_y
_atom_site_fract_z
Cd1 Cd 0.29795(2) 1.04274(5) 0.379425(12)
Cl1 Cl 0.18921(8) 0.85749(18) 0.43320(4)
Cl2 Cl 0.19960(7) 1.22990(18) 0.32135(4)
O1 O 0.42707(19) 1.1388(5) 0.33776(11)
C1 C 0.50000 1.0931(9) 0.3547(2)
C2 C 0.50000 0.9701(9) 0.4019(2)
N1 N 0.4223(2) 0.9198(5) 0.42036(12)
C3 C 0.4221(3) 0.8089(6) 0.46027(16)
H1 H 0.36860 0.76980 0.47360
C4 C 0.50000 0.7508(9) 0.4823(2)
H2 H 0.50000 0.67620 0.51060
O1K O 0.57293(19) 1.1388(5) 0.33776(11)
N1K N 0.5777(2) 0.9198(5) 0.42036(12)
C3K C 0.5779(3) 0.8089(6) 0.46027(16)
H1K H 0.63140 0.76980 0.47360
Cd1K Cd 0.70205(2) 1.04274(5) 0.379425(12)
Cl1K Cl 0.81079(8) 0.85749(18) 0.43320(4)
Cl2K Cl 0.80040(7) 1.22990(18) 0.32135(4)
Cd1D Cd 0.79795(2) 0.54274(5) 0.379425(12)
Cd1D* Cd 0.79795(2) 1.54274(5) 0.379425(12)
Cd1O Cd 0.20205(2) 0.54274(5) 0.379425(12)
Cd1O* Cd 0.20205(2) 1.54274(5) 0.379425(12)
Cl1D Cl 0.68921(8) 1.35749(18) 0.43320(4)
Cl1O Cl 0.31079(8) 1.35749(18) 0.43320(4)
Cl2D Cl 0.69960(7) 0.72990(18) 0.32135(4)
Cl2O Cl 0.30040(7) 0.72990(18) 0.32135(4)
#END
