
#######################################################################
#
#                 Cambridge Crystallographic Data Centre
#                                CCDC
#
#######################################################################
#
# If this CIF has been generated from an entry in the Cambridge
# Structural Database, then it will include bibliographic, chemical,
# crystal, experimental, refinement or atomic coordinate data resulting
# from the CCDC's data processing and validation procedures.
#
#######################################################################

data_CSD_CIF_MOJNIJ
_audit_creation_date 2009-02-24
_audit_creation_method CSD-ConQuest-V1
_database_code_CSD MOJNIJ
_database_code_depnum_ccdc_archive 'CCDC 664132'
_chemical_formula_sum 'C80 H76 Cu12 Ge2 N16 O76 W18'
_chemical_formula_moiety
;
(C20 H20 Cu2 N4 O2 4+)n,n(C60 H48 Cu10 Ge2 N12 O70 W18 4-),4n(H2 O1)
;
_journal_coden_Cambridge 1220
_journal_volume 14
_journal_year 2008
_journal_page_first 9223
_journal_name_full 'Chem.-Eur.J. '
loop_
_publ_author_name
"Jun-Wei Zhao"
"Chun-Mei Wang"
"Jie Zhang"
"Shou-Tian Zheng"
"Guo-Yu Yang"
_chemical_name_systematic
;
catena-(bis(\m~2~-aqua)-bis(2,2'-bipyridine)-copper(ii) 
bis(\m~12~-germanato)-dodecakis(\m~4~-oxo)-hexadecakis(\m~3~-oxo)-tetradecakis
(\m~2~-oxo)-tetrakis(\m~2~-2,2'-bipyridyl-3,3'-diyl)-tetrakis(2,2'-bipyridyl)-
octadecaoxo-diaqua-dodeca-copper(ii)-octadeca-tungsten tetrahydrate)
;
_cell_volume   7187.940
_exptl_crystal_colour 'blue'
_exptl_crystal_density_diffrn 3.093
_exptl_special_details
;
magnetic properties

;
_exptl_crystal_description 'parallelepiped'
_diffrn_ambient_temperature 293
_refine_special_details
;
One Cu and two pyridine rings are equally disordered over two sites and 
another Cu is disordered by symmetry.
;
#These two values have been output from a single CSD field.
_refine_ls_R_factor_gt 0.0685
_refine_ls_wR_factor_gt 0.0685
_symmetry_cell_setting monoclinic
_symmetry_space_group_name_H-M 'C 2/m'
_symmetry_Int_Tables_number 12
loop_
_symmetry_equiv_pos_site_id
_symmetry_equiv_pos_as_xyz
1 x,y,z
2 1/2+x,1/2+y,z
3 -x,y,-z
4 1/2-x,1/2+y,-z
5 -x,-y,-z
6 -1/2-x,-1/2-y,-z
7 x,-y,z
8 -1/2+x,-1/2-y,z
_cell_length_a 21.308(8)
_cell_length_b 22.250(7)
_cell_length_c 17.756(6)
_cell_angle_alpha 90
_cell_angle_beta 121.366(3)
_cell_angle_gamma 90
_cell_formula_units_Z 2
loop_
_atom_type_symbol
_atom_type_radius_bond
C 0.68
H 0.23
Cu 1.25
Ge 1.14
N 0.84
O 1.01
W 1.07
loop_
_atom_site_label
_atom_site_type_symbol
_atom_site_fract_x
_atom_site_fract_y
_atom_site_fract_z
Ge1 Ge 0.61197(15) 0.50000 0.18883(17)
W1 W 0.69427(4) 0.41627(4) 0.09367(5)
W2 W 0.78452(5) 0.41584(4) 0.31602(5)
W3 W 0.70176(7) 0.50000 0.42903(7)
W4 W 0.54154(5) 0.42449(4) 0.30593(6)
W5 W 0.62397(5) 0.34020(4) 0.19357(6)
Cu1 Cu 0.43545(18) 0.50000 0.0961(2)
Cu2 Cu 0.4491(3) 0.3488(2) 0.1159(3)
Cu3? Cu 0.3621(3) 0.5828(3) 0.1385(4)
Cu4 Cu 0.50000 0.57259(14) 0.00000
Cu5 Cu 0.7041(3) 0.3534(3) 0.4063(4)
Cu6 Cu 0.00000 -0.0653(2) 0.50000
O1 O 0.5090(13) 0.50000 0.3296(15)
O2 O 0.7289(9) 0.3447(7) 0.2947(11)
O3 O 0.4723(9) 0.4272(9) 0.1881(11)
O4 O 0.5044(9) 0.3753(9) 0.3446(11)
O5 O 0.7434(7) 0.4400(8) 0.3899(9)
O6 O 0.6114(10) 0.2654(7) 0.1991(11)
O7 O 0.6673(8) 0.3411(7) 0.1225(9)
O8 O 0.8701(9) 0.3893(8) 0.3944(11)
O9 O 0.5377(8) 0.3650(7) 0.1044(10)
O10 O 0.6036(9) 0.50000 0.2821(11)
O11 O 0.7159(9) 0.50000 0.1041(10)
O12 O 0.6637(7) 0.4368(6) 0.1957(8)
O13 O 0.7642(14) 0.50000 0.5406(13)
O14 O 0.7314(8) 0.3911(7) 0.0334(9)
O15 O 0.6336(9) 0.4396(8) 0.4193(9)
O16 O 0.7994(11) 0.50000 0.3137(12)
O17 O 0.6003(7) 0.4314(6) 0.0103(10)
O18 O 0.7874(7) 0.4052(7) 0.2134(9)
O19 O 0.6010(9) 0.3720(7) 0.2823(11)
O20 O 0.5249(10) 0.50000 0.0892(12)
O21 O 0.0699(12) 0.00000 0.5343(14)
O22 O 0.3470(11) 0.50000 0.1023(13)
O23 O 0.350(3) 0.50000 0.277(4)
O24 O 0.917(4) 0.434(4) 0.231(5)
C1 C 0.351(2) 0.2673(18) 0.108(3)
C2? C 0.311(2) 0.6972(19) 0.136(4)
C3 C 0.3009(19) 0.2396(13) 0.128(2)
H1 H 0.29250 0.19840 0.12030
C4 C 0.264(2) 0.2754(15) 0.158(3)
H2 H 0.22580 0.25920 0.16200
C5? C 0.359(3) 0.205(3) 0.120(4)
C6 C 0.2850(19) 0.3358(14) 0.182(2)
H3 H 0.26320 0.35840 0.20620
C7? C 0.416(3) 0.238(2) 0.124(3)
H4? H 0.45200 0.21920 0.11850
C8 C 0.339(2) 0.3620(17) 0.169(3)
H5 H 0.35210 0.40210 0.18250
C9? C 0.419(2) 0.299(2) 0.137(3)
C10 C 0.382(3) 0.236(2) 0.070(3)
C11? C 0.254(2) 0.6683(12) 0.139(3)
C12 C 0.376(2) 0.1679(13) 0.049(3)
H6 H 0.34930 0.14320 0.06430
C13? C 0.1952(19) 0.6880(12) 0.139(2)
H7? H 0.18590 0.72910 0.13600
C14 C 0.409(2) 0.1448(14) 0.011(3)
H8 H 0.40110 0.10470 -0.00640
C15? C 0.1496(17) 0.6493(12) 0.143(2)
H9? H 0.10950 0.66390 0.14450
C16 C 0.452(2) 0.1780(15) -0.004(2)
H10 H 0.47490 0.16150 -0.03120
C17? C 0.1605(18) 0.5823(12) 0.144(3)
H11? H 0.12830 0.55350 0.14230
C18 C 0.4623(19) 0.2342(14) 0.020(2)
H12? H 0.49490 0.25500 0.00980
C19? C 0.2217(15) 0.5710(11) 0.1471(19)
H13? H 0.23490 0.53080 0.16040
C20 C 0.7721(18) 0.2647(13) 0.514(2)
C21 C 0.7896(18) 0.3253(13) 0.512(2)
C22 C 0.8550(17) 0.3582(17) 0.556(3)
C23 C 0.907(3) 0.318(2) 0.617(3)
H14 H 0.95470 0.33100 0.65480
C24 C 0.890(2) 0.2556(17) 0.624(2)
C25 C -0.0407(9) -0.1873(7) 0.4719(9)
C26 C -0.0838(10) -0.2369(7) 0.4385(10)
H15 H -0.06250 -0.27490 0.44940
C27 C -0.1581(11) -0.2311(8) 0.3892(9)
H16 H -0.18760 -0.26500 0.36640
C28 C -0.1893(10) -0.1756(8) 0.3732(10)
H17 H -0.24010 -0.17160 0.33940
C29 C -0.1461(9) -0.1261(7) 0.4065(9)
H18 H -0.16740 -0.08810 0.39560
N1 N 0.3706(10) 0.3274(9) 0.1372(12)
N2 N 0.4311(17) 0.2677(11) 0.060(2)
N3? N 0.2734(18) 0.6023(13) 0.136(2)
N4 N 0.8285(19) 0.2302(16) 0.581(2)
N5 N -0.0718(9) -0.1319(6) 0.4559(8)
Ge1D Ge 0.38803(15) 0.50000 -0.18883(17)
W1F W 0.69427(4) 0.58373(4) 0.09367(5)
W1D W 0.30573(4) 0.58373(4) -0.09367(5)
W1B W 0.30573(4) 0.41627(4) -0.09367(5)
W2F W 0.78452(5) 0.58416(4) 0.31602(5)
W2D W 0.21548(5) 0.58416(4) -0.31602(5)
W2B W 0.21548(5) 0.41584(4) -0.31602(5)
W3D W 0.29824(7) 0.50000 -0.42903(7)
W4F W 0.54154(5) 0.57551(4) 0.30593(6)
W4D W 0.45846(5) 0.57551(4) -0.30593(6)
W4B W 0.45846(5) 0.42449(4) -0.30593(6)
W5F W 0.62397(5) 0.65980(4) 0.19357(6)
W5D W 0.37603(5) 0.65980(4) -0.19357(6)
W5B W 0.37603(5) 0.34020(4) -0.19357(6)
Cu1D Cu 0.56455(18) 0.50000 -0.0961(2)
Cu2F Cu 0.4491(3) 0.6512(2) 0.1159(3)
Cu2D Cu 0.5509(3) 0.6512(2) -0.1159(3)
Cu2B Cu 0.5509(3) 0.3488(2) -0.1159(3)
Cu4F Cu 0.50000 0.42741(14) 0.00000
Cu5F Cu 0.7041(3) 0.6466(3) 0.4063(4)
Cu5D Cu 0.2959(3) 0.6466(3) -0.4063(4)
Cu5B Cu 0.2959(3) 0.3534(3) -0.4063(4)
Cu5E Cu 0.7959(3) 0.1466(3) 0.5937(4)
Cu5C Cu 0.7959(3) 0.8534(3) 0.5937(4)
Cu5A Cu 0.2041(3) 0.8534(3) -0.5937(4)
Cu5G Cu 0.2041(3) 0.1466(3) -0.5937(4)
Cu6F Cu 0.00000 0.0653(2) 0.50000
O1D O 0.4910(13) 0.50000 -0.3296(15)
O2F O 0.7289(9) 0.6553(7) 0.2947(11)
O2D O 0.2711(9) 0.6553(7) -0.2947(11)
O2B O 0.2711(9) 0.3447(7) -0.2947(11)
O3F O 0.4723(9) 0.5728(9) 0.1881(11)
O3D O 0.5277(9) 0.5728(9) -0.1881(11)
O3B O 0.5277(9) 0.4272(9) -0.1881(11)
O4F O 0.5044(9) 0.6247(9) 0.3446(11)
O4D O 0.4956(9) 0.6247(9) -0.3446(11)
O4B O 0.4956(9) 0.3753(9) -0.3446(11)
O5F O 0.7434(7) 0.5600(8) 0.3899(9)
O5D O 0.2566(7) 0.5600(8) -0.3899(9)
O5B O 0.2566(7) 0.4400(8) -0.3899(9)
O6F O 0.6114(10) 0.7346(7) 0.1991(11)
O6D O 0.3886(10) 0.7346(7) -0.1991(11)
O6B O 0.3886(10) 0.2654(7) -0.1991(11)
O7F O 0.6673(8) 0.6589(7) 0.1225(9)
O7D O 0.3327(8) 0.6589(7) -0.1225(9)
O7B O 0.3327(8) 0.3411(7) -0.1225(9)
O8F O 0.8701(9) 0.6107(8) 0.3944(11)
O8D O 0.1299(9) 0.6107(8) -0.3944(11)
O8B O 0.1299(9) 0.3893(8) -0.3944(11)
O9F O 0.5377(8) 0.6350(7) 0.1044(10)
O9D O 0.4623(8) 0.6350(7) -0.1044(10)
O9B O 0.4623(8) 0.3650(7) -0.1044(10)
O10D O 0.3964(9) 0.50000 -0.2821(11)
O11D O 0.2841(9) 0.50000 -0.1041(10)
O12F O 0.6637(7) 0.5632(6) 0.1957(8)
O12D O 0.3363(7) 0.5632(6) -0.1957(8)
O12B O 0.3363(7) 0.4368(6) -0.1957(8)
O13D O 0.2358(14) 0.50000 -0.5406(13)
O14F O 0.7314(8) 0.6089(7) 0.0334(9)
O14D O 0.2686(8) 0.6089(7) -0.0334(9)
O14B O 0.2686(8) 0.3911(7) -0.0334(9)
O15F O 0.6336(9) 0.5604(8) 0.4193(9)
O15D O 0.3664(9) 0.5604(8) -0.4193(9)
O15B O 0.3664(9) 0.4396(8) -0.4193(9)
O16D O 0.2006(11) 0.50000 -0.3137(12)
O17D O 0.3997(7) 0.5686(6) -0.0103(10)
O17B O 0.3997(7) 0.4314(6) -0.0103(10)
O17F O 0.6003(7) 0.5686(6) 0.0103(10)
O18F O 0.7874(7) 0.5948(7) 0.2134(9)
O18D O 0.2126(7) 0.5948(7) -0.2134(9)
O18B O 0.2126(7) 0.4052(7) -0.2134(9)
O19F O 0.6010(9) 0.6280(7) 0.2823(11)
O19D O 0.3990(9) 0.6280(7) -0.2823(11)
O19B O 0.3990(9) 0.3720(7) -0.2823(11)
O20D O 0.4751(10) 0.50000 -0.0892(12)
O21D O -0.0699(12) 0.00000 0.4657(14)
O22D O 0.6530(11) 0.50000 -0.1023(13)
C1F C 0.351(2) 0.7327(18) 0.108(3)
C1D C 0.649(2) 0.7327(18) -0.108(3)
C1B C 0.649(2) 0.2673(18) -0.108(3)
C3F C 0.3009(19) 0.7604(13) 0.128(2)
C3D C 0.6991(19) 0.7604(13) -0.128(2)
C3B C 0.6991(19) 0.2396(13) -0.128(2)
H1F H 0.29250 0.80160 0.12030
H1D H 0.70750 0.80160 -0.12030
H1B H 0.70750 0.19840 -0.12030
C4F C 0.264(2) 0.7246(15) 0.158(3)
C4D C 0.736(2) 0.7246(15) -0.158(3)
C4B C 0.736(2) 0.2754(15) -0.158(3)
H2F H 0.22580 0.74080 0.16200
H2D H 0.77420 0.74080 -0.16200
H2B H 0.77420 0.25920 -0.16200
C6F C 0.2850(19) 0.6642(14) 0.182(2)
C6D C 0.7150(19) 0.6642(14) -0.182(2)
C6B C 0.7150(19) 0.3358(14) -0.182(2)
H3F H 0.26320 0.64160 0.20620
H3D H 0.73680 0.64160 -0.20620
H3B H 0.73680 0.35840 -0.20620
C8F C 0.339(2) 0.6380(17) 0.169(3)
C8D C 0.661(2) 0.6380(17) -0.169(3)
C8B C 0.661(2) 0.3620(17) -0.169(3)
H5F H 0.35210 0.59790 0.18250
H5D H 0.64790 0.59790 -0.18250
H5B H 0.64790 0.40210 -0.18250
C10F C 0.382(3) 0.764(2) 0.070(3)
C10D C 0.618(3) 0.764(2) -0.070(3)
C10B C 0.618(3) 0.236(2) -0.070(3)
C12F C 0.376(2) 0.8321(13) 0.049(3)
C12D C 0.624(2) 0.8321(13) -0.049(3)
C12B C 0.624(2) 0.1679(13) -0.049(3)
H6F H 0.34930 0.85680 0.06430
H6D H 0.65070 0.85680 -0.06430
H6B H 0.65070 0.14320 -0.06430
C14F C 0.409(2) 0.8552(14) 0.011(3)
C14D C 0.591(2) 0.8552(14) -0.011(3)
C14B C 0.591(2) 0.1448(14) -0.011(3)
H8F H 0.40110 0.89530 -0.00640
H8D H 0.59890 0.89530 0.00640
H8B H 0.59890 0.10470 0.00640
C16F C 0.452(2) 0.8220(15) -0.004(2)
C16D C 0.548(2) 0.8220(15) 0.004(2)
C16B C 0.548(2) 0.1780(15) 0.004(2)
H10F H 0.47490 0.83850 -0.03120
H10D H 0.52510 0.83850 0.03120
H10B H 0.52510 0.16150 0.03120
C18F C 0.4623(19) 0.7658(14) 0.020(2)
C18D C 0.5377(19) 0.7658(14) -0.020(2)
C18B C 0.5377(19) 0.2342(14) -0.020(2)
C20E C 0.7279(18) 0.2353(13) 0.486(2)
C20F C 0.7721(18) 0.7353(13) 0.514(2)
C20C C 0.7279(18) 0.7647(13) 0.486(2)
C20D C 0.2279(18) 0.7353(13) -0.514(2)
C20A C 0.2721(18) 0.7647(13) -0.486(2)
C20B C 0.2279(18) 0.2647(13) -0.514(2)
C20G C 0.2721(18) 0.2353(13) -0.486(2)
C21E C 0.7104(18) 0.1747(13) 0.488(2)
C21F C 0.7896(18) 0.6747(13) 0.512(2)
C21C C 0.7104(18) 0.8253(13) 0.488(2)
C21D C 0.2104(18) 0.6747(13) -0.512(2)
C21A C 0.2896(18) 0.8253(13) -0.488(2)
C21B C 0.2104(18) 0.3253(13) -0.512(2)
C21G C 0.2896(18) 0.1747(13) -0.488(2)
C22E C 0.6450(17) 0.1418(17) 0.444(3)
C22F C 0.8550(17) 0.6418(17) 0.556(3)
C22C C 0.6450(17) 0.8582(17) 0.444(3)
C22D C 0.1450(17) 0.6418(17) -0.556(3)
C22A C 0.3550(17) 0.8582(17) -0.444(3)
C22B C 0.1450(17) 0.3582(17) -0.556(3)
C22G C 0.3550(17) 0.1418(17) -0.444(3)
C23E C 0.593(3) 0.182(2) 0.383(3)
C23F C 0.907(3) 0.682(2) 0.617(3)
C23C C 0.593(3) 0.818(2) 0.383(3)
C23D C 0.093(3) 0.682(2) -0.617(3)
C23A C 0.407(3) 0.818(2) -0.383(3)
C23B C 0.093(3) 0.318(2) -0.617(3)
C23G C 0.407(3) 0.182(2) -0.383(3)
H14E H 0.54530 0.16900 0.34520
H14F H 0.95470 0.66900 0.65480
H14C H 0.54530 0.83100 0.34520
H14D H 0.04530 0.66900 -0.65480
H14A H 0.45470 0.83100 -0.34520
H14B H 0.04530 0.33100 -0.65480
H14G H 0.45470 0.16900 -0.34520
C24E C 0.610(2) 0.2444(17) 0.376(2)
C24F C 0.890(2) 0.7444(17) 0.624(2)
C24C C 0.610(2) 0.7556(17) 0.376(2)
C24D C 0.110(2) 0.7444(17) -0.624(2)
C24A C 0.390(2) 0.7556(17) -0.376(2)
C24B C 0.110(2) 0.2556(17) -0.624(2)
C24G C 0.390(2) 0.2444(17) -0.376(2)
C25B C 0.0407(9) -0.1873(7) 0.5281(9)
C25D C 0.0407(9) 0.1873(7) 0.5281(9)
C25F C -0.0407(9) 0.1873(7) 0.4719(9)
C26B C 0.0838(10) -0.2369(7) 0.5615(10)
C26D C 0.0838(10) 0.2369(7) 0.5615(10)
C26F C -0.0838(10) 0.2369(7) 0.4385(10)
H15B H 0.06250 -0.27490 0.55060
H15D H 0.06250 0.27490 0.55060
H15F H -0.06250 0.27490 0.44940
C27B C 0.1581(11) -0.2311(8) 0.6108(9)
C27D C 0.1581(11) 0.2311(8) 0.6108(9)
C27F C -0.1581(11) 0.2311(8) 0.3892(9)
H16B H 0.18760 -0.26500 0.63360
H16D H 0.18760 0.26500 0.63360
H16F H -0.18760 0.26500 0.36640
C28B C 0.1893(10) -0.1756(8) 0.6268(10)
C28D C 0.1893(10) 0.1756(8) 0.6268(10)
C28F C -0.1893(10) 0.1756(8) 0.3732(10)
H17B H 0.24010 -0.17160 0.66060
H17D H 0.24010 0.17160 0.66060
H17F H -0.24010 0.17160 0.33940
C29B C 0.1461(9) -0.1261(7) 0.5935(9)
C29D C 0.1461(9) 0.1261(7) 0.5935(9)
C29F C -0.1461(9) 0.1261(7) 0.4065(9)
H18B H 0.16740 -0.08810 0.60440
H18D H 0.16740 0.08810 0.60440
H18F H -0.16740 0.08810 0.39560
N1F N 0.3706(10) 0.6726(9) 0.1372(12)
N1D N 0.6294(10) 0.6726(9) -0.1372(12)
N1B N 0.6294(10) 0.3274(9) -0.1372(12)
N2F N 0.4311(17) 0.7323(11) 0.060(2)
N2D N 0.5689(17) 0.7323(11) -0.060(2)
N2B N 0.5689(17) 0.2677(11) -0.060(2)
N4E N 0.6715(19) 0.2698(16) 0.419(2)
N4F N 0.8285(19) 0.7698(16) 0.581(2)
N4C N 0.6715(19) 0.7302(16) 0.419(2)
N4D N 0.1715(19) 0.7698(16) -0.581(2)
N4A N 0.3285(19) 0.7302(16) -0.419(2)
N4B N 0.1715(19) 0.2302(16) -0.581(2)
N4G N 0.3285(19) 0.2698(16) -0.419(2)
N5B N 0.0718(9) -0.1319(6) 0.5441(8)
N5D N 0.0718(9) 0.1319(6) 0.5441(8)
N5F N -0.0718(9) 0.1319(6) 0.4559(8)
#END
