
#######################################################################
#
#                 Cambridge Crystallographic Data Centre
#                                CCDC
#
#######################################################################
#
# If this CIF has been generated from an entry in the Cambridge
# Structural Database, then it will include bibliographic, chemical,
# crystal, experimental, refinement or atomic coordinate data resulting
# from the CCDC's data processing and validation procedures.
#
#######################################################################

data_CSD_CIF_MOLCAS
_audit_creation_date 2009-02-24
_audit_creation_method CSD-ConQuest-V1
_database_code_CSD MOLCAS
_database_code_depnum_ccdc_archive 'CCDC 718107'
_chemical_formula_sum 'C34 H28 Co1 N4 O10'
_chemical_formula_moiety
;
(C12 H12 N2 2+)n,n(C22 H16 Co1 N2 O10 2-)
;
_journal_coeditor_code "IUCr FG3070"
_journal_coden_Cambridge 591
_journal_volume 65
_journal_year 2009
_journal_page_first m24
_journal_name_full 'Acta Crystallogr.,Sect.C:Cryst.Struct.Commun. '
loop_
_publ_author_name
"A.M.Atria"
"G.Corsini"
"A.Talamilla"
"M.T.Garland"
"R.Baggio"
_chemical_name_systematic
;
catena-(Ethene-1,2-bis(4-pyridinium) 
(\m~2~-2,5-dicarboxybenzene-1,4-dicarboxylato-O,O')-(\m~2~-1,2-bis(4-pyridyl)e
thene)-diaqua-cobalt(ii))
;
_cell_volume    756.414
_exptl_crystal_colour 'pink'
_exptl_crystal_density_diffrn 1.562
_exptl_special_details
;
isomorphous with the 1,2-bis(4-pyridyl)ethane analogue
The 1,2-bis(4-pyridyl)ethene is described as a solvent in the paper; the 
pyridine groups appear to be protonated and have been drawn as a dication
;
_exptl_crystal_description 'polyhedron'
_diffrn_ambient_temperature 150
#These two values have been output from a single CSD field.
_refine_ls_R_factor_gt 0.0298
_refine_ls_wR_factor_gt 0.0298
_symmetry_cell_setting triclinic
_symmetry_space_group_name_H-M 'P -1'
_symmetry_Int_Tables_number 2
loop_
_symmetry_equiv_pos_site_id
_symmetry_equiv_pos_as_xyz
1 x,y,z
2 -x,-y,-z
_cell_length_a 9.0283(2)
_cell_length_b 9.6152(2)
_cell_length_c 10.1064(3)
_cell_angle_alpha 93.1051(14)
_cell_angle_beta 113.8441(13)
_cell_angle_gamma 106.2234(14)
_cell_formula_units_Z 1
loop_
_atom_type_symbol
_atom_type_radius_bond
C 0.68
H 0.23
Co 1.33
N 0.68
O 0.68
loop_
_atom_site_label
_atom_site_type_symbol
_atom_site_fract_x
_atom_site_fract_y
_atom_site_fract_z
Co1 Co 1.00000 0.50000 0.50000
N1 N 1.01957(16) 0.65228(13) 0.67162(13)
C1 C 1.03383(19) 0.61342(16) 0.80048(16)
H1 H 1.03830 0.51740 0.81410
C2 C 1.0424(2) 0.70658(17) 0.91461(16)
H2 H 1.05670 0.67580 1.00550
C3 C 1.02991(19) 0.84579(16) 0.89522(16)
C4 C 1.0187(2) 0.88780(16) 0.76216(16)
H3 H 1.01360 0.98300 0.74530
C5 C 1.01496(19) 0.78910(16) 0.65568(16)
H4 H 1.00880 0.81950 0.56620
C6 C 1.0239(2) 0.94025(17) 1.01034(16)
H5 H 1.05600 0.91500 1.10520
N2 N 0.62629(16) 0.59521(14) 0.84960(14)
C7 C 0.5584(2) 0.68283(18) 0.76311(18)
H6 H 0.53300 0.66430 0.66170
C8 C 0.5238(2) 0.79944(18) 0.81624(18)
H7 H 0.47670 0.86040 0.75210
C9 C 0.55852(19) 0.82723(17) 0.96460(17)
C10 C 0.6294(2) 0.73470(18) 1.05249(17)
H8 H 0.65580 0.75000 1.15430
C11 C 0.6615(2) 0.62079(18) 0.99221(18)
H9 H 0.71010 0.55870 1.05390
C12 C 0.5236(2) 0.94623(18) 1.03210(18)
H10 H 0.53600 0.94620 1.13000
C13 C 0.65820(18) 0.11433(15) 0.55886(15)
C14 C 0.51484(18) 0.14047(15) 0.56273(15)
C15 C 0.64162(18) -0.02575(15) 0.49757(15)
H11 H 0.73970 -0.04360 0.49680
C16 C 0.82592(18) 0.23614(15) 0.60063(15)
C17 C 0.52051(18) 0.28671(16) 0.63096(16)
O1 O 0.81410(13) 0.34150(11) 0.53333(11)
O2 O 0.96182(13) 0.21851(12) 0.68884(12)
O3 O 0.65657(14) 0.35861(12) 0.74754(12)
H12 H 0.642(4) 0.485(3) 0.799(3)
O4 O 0.39350(15) 0.32596(13) 0.57317(14)
O5 O 1.19427(14) 0.43673(12) 0.66059(12)
H13 H 1.258(3) 0.410(3) 0.635(3)
H14 H 1.136(3) 0.361(3) 0.675(2)
Co1* Co 1.00000 1.50000 1.50000
Co1** Co 0.00000 -0.50000 0.50000
N1A N 0.98043(16) 1.34772(13) 1.32838(13)
N1A* N 0.98043(16) 0.34772(13) 0.32838(13)
C1A C 0.96617(19) 1.38658(16) 1.19952(16)
H1A H 0.96170 1.48260 1.18590
C2A C 0.9576(2) 1.29342(17) 1.08539(16)
H2A H 0.94330 1.32420 0.99450
C3A C 0.97009(19) 1.15421(16) 1.10478(16)
C4A C 0.9813(2) 1.11220(16) 1.23784(16)
H3A H 0.98640 1.01700 1.25470
C5A C 0.98504(19) 1.21090(16) 1.34432(16)
H4A H 0.99120 1.18050 1.43380
C6A C 0.9761(2) 1.05975(17) 0.98966(16)
H5A H 0.94400 1.08500 0.89480
N2A N 0.37371(16) 1.40479(14) 1.15040(14)
C7A C 0.4416(2) 1.31717(18) 1.23689(18)
H6A H 0.46700 1.33570 1.33830
C8A C 0.4762(2) 1.20056(18) 1.18376(18)
H7A H 0.52330 1.13960 1.24790
C9A C 0.44148(19) 1.17277(17) 1.03540(17)
C10A C 0.3706(2) 1.26530(18) 0.94751(17)
H8A H 0.34420 1.25000 0.84570
C11A C 0.3385(2) 1.37921(18) 1.00779(18)
H9A H 0.28990 1.44130 0.94610
C12A C 0.4764(2) 1.05377(18) 0.96790(18)
H10A H 0.46400 1.05380 0.87000
C13A C 0.34180(18) -0.11433(15) 0.44114(15)
C14A C 0.48516(18) -0.14047(15) 0.43727(15)
C15A C 0.35838(18) 0.02575(15) 0.50243(15)
H11A H 0.26030 0.04360 0.50320
C16A C 0.17408(18) -0.23614(15) 0.39937(15)
C17A C 0.47949(18) -0.28671(16) 0.36904(16)
O1A O 0.18590(13) -0.34150(11) 0.46667(11)
O1A* O 1.18590(13) 0.65850(11) 0.46667(11)
O2A O 0.03818(13) -0.21851(12) 0.31116(12)
O3A O 0.34343(14) -0.35861(12) 0.25246(12)
H12A H 0.358(4) 1.515(3) 1.201(3)
O4A O 0.60650(15) -0.32596(13) 0.42683(14)
O5A O 0.80573(14) 0.56327(12) 0.33941(12)
H13A H 0.742(3) 0.590(3) 0.365(3)
H14A H 0.864(3) 0.639(3) 0.325(2)
#END
