
#######################################################################
#
#                 Cambridge Crystallographic Data Centre
#                                CCDC
#
#######################################################################
#
# If this CIF has been generated from an entry in the Cambridge
# Structural Database, then it will include bibliographic, chemical,
# crystal, experimental, refinement or atomic coordinate data resulting
# from the CCDC's data processing and validation procedures.
#
#######################################################################

data_CSD_CIF_MOMRUC
_audit_creation_date 2009-06-23
_audit_creation_method CSD-ConQuest-V1
_database_code_CSD MOMRUC
_database_code_depnum_ccdc_archive 'CCDC 662906'
_chemical_formula_sum 'C22 H104 Co8 N22 O74 Si2 W18'
_chemical_formula_moiety
;
(C2 H10 N2 2+)n,n(C20 H82 Co8 N20 O68 Si2 W18 2-),6n(H2 O1)
;
_journal_coden_Cambridge 154
_journal_volume 61
_journal_year 2008
_journal_page_first 874
_journal_name_full 'Aust.J.Chem. '
loop_
_publ_author_name
"Yu Wang"
"Zhiming Zhang"
"Enbo Wang"
"Yanfei Qi"
"Song Chang"
_chemical_name_systematic
;
catena-(ethylenediammonium 
bis(\m~12~-silicato)-octakis(\m~3~-oxo)-hexatriacontakis(\m~2~-oxo)-bis(ethyle
nediammonium)-octakis(ethylenediamine)-hexadecaoxo-octa-cobalt(ii)-octadeca-tu
ngsten(vi) hexahydrate)
;
_cell_volume   2467.840
_exptl_crystal_colour 'red'
_exptl_crystal_density_diffrn 3.834
_exptl_crystal_description 'block'
_diffrn_ambient_temperature 293
_refine_special_details
;
Some water molecules are disordered.

;
#These two values have been output from a single CSD field.
_refine_ls_R_factor_gt 0.0377
_refine_ls_wR_factor_gt 0.0377
_symmetry_cell_setting triclinic
_symmetry_space_group_name_H-M 'P -1'
_symmetry_Int_Tables_number 2
loop_
_symmetry_equiv_pos_site_id
_symmetry_equiv_pos_as_xyz
1 x,y,z
2 -x,-y,-z
_cell_length_a 12.437(3)
_cell_length_b 13.592(3)
_cell_length_c 17.545(4)
_cell_angle_alpha 109.62(3)
_cell_angle_beta 93.83(3)
_cell_angle_gamma 114.49(3)
_cell_formula_units_Z 1
loop_
_atom_type_symbol
_atom_type_radius_bond
C 0.68
H 0.23
Co 1.35
N 0.68
O 0.97
Si 1.05
W 1.13
loop_
_atom_site_label
_atom_site_type_symbol
_atom_site_fract_x
_atom_site_fract_y
_atom_site_fract_z
Co1 Co 0.57640(15) -0.11501(15) 1.0749(1)
Co2 Co 0.61795(15) 0.03900(14) 0.96787(10)
Co3 Co 1.00000 0.50000 1.00000
Co4 Co 1.15386(18) 0.31857(18) 1.40239(12)
Co5 Co 0.50000 0.00000 1.50000
Si1 Si 0.6376(3) 0.1653(3) 1.1691(2)
W1 W 0.70049(4) 0.34820(4) 1.05978(3)
W2 W 0.41819(4) 0.25675(4) 1.13433(3)
W3 W 0.87202(5) 0.47596(4) 1.25742(3)
W4 W 0.58767(5) 0.38025(4) 1.33363(3)
W5 W 0.82318(5) 0.29110(5) 1.37990(3)
W6 W 0.37401(5) 0.08941(5) 1.24464(3)
W7 W 0.60361(5) 0.00365(5) 1.29464(3)
W8 W 0.90756(4) 0.26677(4) 1.10335(3)
W9 W 0.85673(5) 0.08297(5) 1.22489(3)
O1 O 0.5670(8) 0.3462(7) 1.1110(5)
O2 O 0.9044(8) 0.3764(8) 1.4823(6)
O3 O 0.6006(8) 0.4960(8) 1.4210(6)
O4 O 0.5540(9) -0.0830(8) 1.3517(6)
O5 O 0.6906(8) 0.4256(7) 1.0005(5)
O6 O 0.8566(6) 0.3529(5) 1.0435(6)
O7 O 0.7593(8) -0.0267(8) 1.1267(5)
O8 O 0.7409(7) 0.2742(7) 1.1525(5)
O9 O 0.7065(7) 0.1440(7) 1.2407(5)
O10 O 0.4897(7) 0.3836(7) 1.2489(5)
O11 O 0.9755(8) 0.0477(9) 1.2312(6)
O12 O 0.3130(7) 0.1672(7) 1.1879(5)
O13 O 0.5714(7) 0.0456(7) 1.0844(5)
O14 O 0.5400(8) 0.2058(7) 1.2079(5)
O15 O 1.0391(8) 0.2888(8) 1.0687(6)
O16 O 0.3259(8) 0.3048(8) 1.0978(6)
O17 O 0.9738(8) 0.6198(8) 1.3161(6)
O18 O 0.4517(7) 0.2548(7) 1.3389(5)
O19 O 0.5349(8) -0.0932(7) 1.1888(5)
O20 O 0.2488(8) 0.0279(8) 1.2820(6)
O21 O 0.7990(7) 0.1263(7) 1.0249(5)
O22 O 0.4886(8) 0.0639(8) 1.3041(5)
O23 O 0.7583(8) -0.0001(7) 1.2851(5)
O24 O 0.9258(8) 0.2038(8) 1.1826(6)
O25 O 0.6098(7) -0.1248(7) 0.9554(5)
O26 O 0.6534(8) 0.0227(8) 0.8533(5)
O27 O 0.9722(7) 0.4247(8) 1.1973(5)
O28 O 0.3931(7) -0.1956(7) 1.0121(5)
O29 O 0.9303(2) 0.2256(7) 1.3411(5)
O30 O 0.7159(8) 0.1553(8) 1.3930(5)
O31 O 0.6918(8) 0.3347(8) 1.3794(5)
O32 O 0.8054(7) 0.4906(7) 1.1647(5)
O33 O 0.7265(8) 0.4620(8) 1.2956(5)
O34 O 0.8859(7) 0.3985(7) 1.3267(5)
O35 O 0.094(3) 0.218(3) 0.730(2)
O36 O 0.1499(14) 0.1975(14) 0.9304(10)
O37? O 0.420(2) 0.298(2) 0.5009(16)
O38? O 0.505(2) 0.316(2) 0.6748(15)
O39? O 0.191(5) 0.155(5) 0.661(3)
O40 O 0.436(4) 0.282(4) 0.649(3)
O41? O 0.169(4) 0.090(5) 0.619(3)
O42 O 0.471(2) 0.317(2) 0.5135(15)
C1 C 0.6048(16) -0.2865(14) 1.1467(9)
H1 H 0.68530 -0.22260 1.17760
H2 H 0.54760 -0.27450 1.17900
C2 C 0.6026(17) -0.3979(14) 1.1399(10)
H3 H 0.52060 -0.46140 1.11270
H4 H 0.65570 -0.41290 1.10470
C3 C 0.842(2) 0.329(2) 0.8373(14)
H5 H 0.75570 0.27540 0.82250
H6 H 0.86490 0.33960 0.78780
C4 C 0.911(2) 0.2760(17) 0.8668(16)
H7 H 0.92570 0.22550 0.81940
H8 H 0.86230 0.22770 0.89400
C5 C 1.071(2) 0.221(2) 1.5192(15)
H9 H 0.98280 0.18070 1.50230
H10 H 1.09420 0.23640 1.57740
C6 C 1.114(2) 0.146(2) 1.4725(16)
H11 H 1.18780 0.15970 1.50640
H12 H 1.05390 0.06490 1.45730
C7 C 1.212(2) 0.4967(18) 1.3431(12)
H13 H 1.13370 0.48000 1.31340
H14 H 1.26800 0.57850 1.35580
C8 C 1.2549(18) 0.4237(15) 1.2889(15)
H15 H 1.23200 0.41480 1.23210
H16 H 1.34290 0.45980 1.30570
C9 C 0.7491(16) 0.0766(19) 1.5642(13)
H17 H 0.77560 0.06820 1.51270
H18 H 0.81000 0.08140 1.60480
C10 C 0.7341(17) 0.1834(17) 1.5952(12)
H19 H 0.80710 0.25060 1.59760
H20 H 0.72070 0.19870 1.65090
C11 C 0.0503(17) 0.0423(17) 1.0386(11)
H21 H 0.11960 0.09310 1.02390
H22 H 0.02290 0.09170 1.07720
N1 N 0.5752(11) -0.2783(10) 1.0670(7)
H23 H 0.50080 -0.33810 1.03830
H24 H 0.62860 -0.28910 1.03730
N2 N 0.6405(12) -0.3998(11) 1.2202(8)
H25 H 0.63680 -0.46960 1.21180
H26 H 0.59130 -0.38770 1.25260
H27 H 0.71660 -0.34320 1.24500
N3 N 0.8672(13) 0.4445(14) 0.9023(9)
H28 H 0.88790 0.49850 0.87990
H29 H 0.79890 0.43800 0.91950
N4 N 1.0267(14) 0.3674(11) 0.9253(9)
H30 H 1.05450 0.33760 0.95590
H31 H 1.08230 0.39420 0.89720
N5 N 1.1142(13) 0.3362(14) 1.5120(8)
H32 H 1.05600 0.35940 1.51650
H33 H 1.18070 0.39120 1.55310
N6 N 1.1404(13) 0.1646(14) 1.3961(9)
H34 H 1.21050 0.16260 1.38890
H35 H 1.08050 0.10570 1.35180
N7 N 1.1992(17) 0.4828(14) 1.4196(10)
H36 H 1.26990 0.53180 1.45840
H37 H 1.14150 0.50140 1.43790
N8 N 1.2005(13) 0.3068(12) 1.2935(9)
H38 H 1.13400 0.25650 1.25120
H39 H 1.25430 0.27810 1.28820
N9 N 0.6299(12) -0.0261(13) 1.5496(8)
H40 H 0.62810 -0.09290 1.51470
H41 H 0.61800 -0.03280 1.59810
N10 N 0.6297(12) 0.1661(12) 1.5388(8)
H42 H 0.60120 0.21580 1.56540
H43 H 0.65260 0.18150 1.49470
N11 N 0.0879(12) -0.0204(11) 1.0794(8)
H44 H 0.14660 0.03160 1.12520
H45 H 0.11540 -0.06400 1.04460
H46 H 0.02450 -0.06700 1.09290
Co1A Co 1.42360(15) 1.11501(15) 0.9251(1)
Co1A* Co 0.42360(15) 0.11501(15) 0.9251(1)
Co2A Co 1.38205(15) 0.96100(14) 1.03213(10)
Co2A* Co 0.38205(15) -0.03900(14) 1.03213(10)
Co2* Co 1.61795(15) 1.03900(14) 0.96787(10)
Co4A Co 0.84614(18) 0.68143(18) 0.59761(12)
Co5* Co 1.50000 1.00000 0.50000
Si1A Si 1.3624(3) 0.8347(3) 0.8309(2)
W1A W 1.29951(4) 0.65180(4) 0.94022(3)
W1A* W 0.29951(4) -0.34820(4) 0.94022(3)
W2A W 1.58181(4) 0.74325(4) 0.86567(3)
W2A* W 0.58181(4) -0.25675(4) 0.86567(3)
W3A W 1.12798(5) 0.52404(4) 0.74258(3)
W4A W 1.41233(5) 0.61975(4) 0.66637(3)
W5A W 1.17682(5) 0.70890(5) 0.62010(3)
W6A W 1.62599(5) 0.91059(5) 0.75536(3)
W6A* W 0.62599(5) -0.08941(5) 0.75536(3)
W7A W 1.39639(5) 0.99635(5) 0.70536(3)
W8A W 1.09244(4) 0.73323(4) 0.89665(3)
W9A W 1.14327(5) 0.91703(5) 0.77511(3)
O1A O 1.4330(8) 0.6538(7) 0.8890(5)
O2A O 1.0956(8) 0.6236(8) 0.5177(6)
O3A O 1.3994(8) 0.5040(8) 0.5790(6)
O4A O 1.4460(9) 1.0830(8) 0.6483(6)
O4A* O 0.4460(9) 0.0830(8) 1.6483(6)
O5A O 1.3094(8) 0.5744(7) 0.9995(5)
O6A O 1.1434(6) 0.6471(5) 0.9565(6)
O7A O 1.2407(8) 1.0267(8) 0.8733(5)
O8A O 1.2591(7) 0.7258(7) 0.8475(5)
O9A O 1.2935(7) 0.8560(7) 0.7593(5)
O10A O 1.5103(7) 0.6164(7) 0.7511(5)
O11A O 1.0245(8) 0.9523(9) 0.7688(6)
O12A O 1.6870(7) 0.8328(7) 0.8121(5)
O13A O 1.4286(7) 0.9544(7) 0.9156(5)
O13A* O 0.4286(7) -0.0456(7) 0.9156(5)
O13* O 1.5714(7) 1.0456(7) 1.0844(5)
O14A O 1.4600(8) 0.7942(7) 0.7921(5)
O15A O 0.9609(8) 0.7112(8) 0.9313(6)
O16A O 1.6741(8) 0.6952(8) 0.9022(6)
O17A O 1.0262(8) 0.3802(8) 0.6839(6)
O18A O 1.5483(7) 0.7452(7) 0.6611(5)
O19A O 1.4651(8) 1.0932(7) 0.8112(5)
O20A O 1.7512(8) 0.9721(8) 0.7180(6)
O21A O 1.2010(7) 0.8737(7) 0.9751(5)
O22A O 1.5114(8) 0.9361(8) 0.6959(5)
O23A O 1.2417(8) 1.0001(7) 0.7149(5)
O24A O 1.0742(8) 0.7962(8) 0.8174(6)
O25A O 0.3902(7) 0.1248(7) 1.0446(5)
O25A* O 1.3902(7) 1.1248(7) 1.0446(5)
O25* O 1.6098(7) 0.8752(7) 0.9554(5)
O26A O 0.3466(8) -0.0227(8) 1.1467(5)
O26A* O 1.3466(8) 0.9773(8) 1.1467(5)
O26* O 1.6534(8) 1.0227(8) 0.8533(5)
O27A O 1.0278(7) 0.5753(8) 0.8027(5)
O28A O 0.6069(7) 0.1956(7) 0.9879(5)
O28A* O 1.6069(7) 1.1956(7) 0.9879(5)
O28* O 1.3931(7) 0.8044(7) 1.0121(5)
O29A O 1.0697(2) 0.7744(7) 0.6589(5)
O30A O 1.2841(8) 0.8447(8) 0.6070(5)
O31A O 1.3082(8) 0.6653(8) 0.6206(5)
O32A O 1.1946(7) 0.5094(7) 0.8353(5)
O33A O 1.2735(8) 0.5380(8) 0.7044(5)
O34A O 1.1141(7) 0.6015(7) 0.6733(5)
C1A C 1.3952(16) 1.2865(14) 0.8533(9)
H1A H 1.31470 1.22260 0.82240
H2A H 1.45240 1.27450 0.82100
C2A C 1.3974(17) 1.3979(14) 0.8601(10)
H3A H 1.47940 1.46140 0.88730
H4A H 1.34430 1.41290 0.89530
C3A C 1.158(2) 0.671(2) 1.1627(14)
H5A H 1.24430 0.72460 1.17750
H6A H 1.13510 0.66040 1.21220
C4A C 1.089(2) 0.7240(17) 1.1332(16)
H7A H 1.07430 0.77450 1.18060
H8A H 1.13770 0.77230 1.10600
C5A C 0.929(2) 0.779(2) 0.4808(15)
H9A H 1.01720 0.81930 0.49770
H10A H 0.90580 0.76360 0.42260
C6A C 0.886(2) 0.854(2) 0.5275(16)
H11A H 0.81220 0.84030 0.49360
H12A H 0.94610 0.93510 0.54270
C7A C 0.788(2) 0.5033(18) 0.6569(12)
H13A H 0.86630 0.52000 0.68660
H14A H 0.73200 0.42150 0.64420
C8A C 0.7451(18) 0.5763(15) 0.7111(15)
H15A H 0.76800 0.58520 0.76790
H16A H 0.65710 0.54020 0.69430
C9A C 0.2509(16) -0.0766(19) 1.4358(13)
H17A H 0.22440 -0.06820 1.48730
H18A H 0.19000 -0.08140 1.39520
C10A C 0.2659(17) -0.1834(17) 1.4048(12)
H19A H 0.19290 -0.25060 1.40240
H20A H 0.27930 -0.19870 1.34910
C11A C -0.0503(17) -0.0423(17) 0.9614(11)
H21A H -0.11960 -0.09310 0.97610
H22A H -0.02290 -0.09170 0.92280
N1A N 1.4248(11) 1.2783(10) 0.9330(7)
H23A H 1.49920 1.33810 0.96170
H24A H 1.37140 1.28910 0.96270
N2A N 1.3595(12) 1.3998(11) 0.7798(8)
H25A H 1.36320 1.46960 0.78820
H26A H 1.40870 1.38770 0.74740
H27A H 1.28340 1.34320 0.75500
N3A N 1.1328(13) 0.5555(14) 1.0977(9)
H28A H 1.11210 0.50150 1.12010
H29A H 1.20110 0.56200 1.08050
N4A N 0.9733(14) 0.6326(11) 1.0747(9)
H30A H 0.94550 0.66240 1.04410
H31A H 0.91770 0.60580 1.10280
N5A N 0.8858(13) 0.6638(14) 0.4880(8)
H32A H 0.94400 0.64060 0.48350
H33A H 0.81930 0.60880 0.44690
N6A N 0.8596(13) 0.8354(14) 0.6039(9)
H34A H 0.78950 0.83740 0.61110
H35A H 0.91950 0.89430 0.64820
N7A N 0.8008(17) 0.5172(14) 0.5804(10)
H36A H 0.73010 0.46820 0.54160
H37A H 0.85850 0.49860 0.56210
N8A N 0.7995(13) 0.6932(12) 0.7065(9)
H38A H 0.86600 0.74350 0.74880
H39A H 0.74570 0.72190 0.71180
N9A N 0.3701(12) 0.0261(13) 1.4504(8)
H40A H 0.37190 0.09290 1.48530
H41A H 0.38200 0.03280 1.40190
N10A N 0.3703(12) -0.1661(12) 1.4612(8)
H42A H 0.39880 -0.21580 1.43460
H43A H 0.34740 -0.18150 1.50530
N11A N -0.0879(12) 0.0204(11) 0.9206(8)
H44A H -0.14660 -0.03160 0.87480
H45A H -0.11540 0.06400 0.95540
H46A H -0.02450 0.06700 0.90710
#END
