
#######################################################################
#
#                 Cambridge Crystallographic Data Centre
#                                CCDC
#
#######################################################################
#
# If this CIF has been generated from an entry in the Cambridge
# Structural Database, then it will include bibliographic, chemical,
# crystal, experimental, refinement or atomic coordinate data resulting
# from the CCDC's data processing and validation procedures.
#
#######################################################################

data_CSD_CIF_MOMZUJ
_audit_creation_date 2002-09-27
_audit_creation_method CSD-ConQuest-V1
_database_code_CSD MOMZUJ
_database_code_depnum_ccdc_archive 'CCDC 173765'
_chemical_formula_sum 'C6 H8 Fe1 K1 N3 O10'
_chemical_formula_moiety
;
(K1 1+)n,n(C6 H4 Fe1 N3 O8 1-),2n(H2 O1)
;
_journal_coden_Cambridge 186
_journal_year 2002
_journal_page_first 2710
_journal_name_full 'J.Chem.Soc.,Dalton Trans. '
loop_
_publ_author_name
"J.-R.Galan-Mascaros"
"J.-M.Clemente-Juan"
"K.R.Dunbar"
_chemical_name_systematic
;
catena-(Potassium 
(\m~2~-1,3,5-triazine-2,4,6-tricarboxylato-N,O,O',O'',O''')-diaqua-iron 
dihydrate)
;
_cell_volume    618.026
_exptl_crystal_density_diffrn 2.026
_diffrn_ambient_temperature 110
#These two values have been output from a single CSD field.
_refine_ls_R_factor_gt 0.0383
_refine_ls_wR_factor_gt 0.0383
_symmetry_cell_setting monoclinic
_symmetry_space_group_name_H-M 'P 2/c'
_symmetry_Int_Tables_number 13
loop_
_symmetry_equiv_pos_site_id
_symmetry_equiv_pos_as_xyz
1 x,y,z
2 x,-y,1/2+z
3 -x,-y,-z
4 -x,y,-1/2-z
_cell_length_a 7.0800(14)
_cell_length_b 8.828(2)
_cell_length_c 10.299(2)
_cell_angle_alpha 90
_cell_angle_beta 106.24(3)
_cell_angle_gamma 90
_cell_formula_units_Z 2
loop_
_atom_type_symbol
_atom_type_radius_bond
C 0.68
H 0.23
Fe 1.34
K 1.33
N 0.68
O 0.68
loop_
_atom_site_label
_atom_site_type_symbol
_atom_site_fract_x
_atom_site_fract_y
_atom_site_fract_z
Fe1 Fe 0.50000 -0.43403(5) 0.75000
K1 K 1.00000 -0.56645(8) 0.75000
N1 N 0.50000 -0.1939(3) 0.75000
N2 N 0.6088(3) 0.0368(2) 0.6802(2)
O1 O 0.7056(2) -0.35139(18) 0.62627(17)
O2 O 0.8010(3) -0.1424(2) 0.5344(2)
O3 O 0.3967(2) 0.34561(18) 0.81341(17)
O4 O 0.2522(3) -0.4540(2) 0.5791(2)
O5 O 0.1120(3) -0.2086(2) 0.4405(2)
C1 C 0.6026(3) -0.1141(2) 0.6831(2)
C2 C 0.50000 0.1060(4) 0.75000
C3 C 0.7160(3) -0.2094(3) 0.6072(3)
C4 C 0.50000 0.2796(4) 0.75000
H1 H 0.264(4) -0.507(4) 0.525(3)
H2 H 0.217(5) -0.377(4) 0.537(4)
H3 H 0.164(5) -0.147(4) 0.414(3)
H4 H 0.017(6) -0.166(4) 0.466(4)
N2C N 0.3912(3) 0.0368(2) 0.8198(2)
C1C C 0.3974(3) -0.1141(2) 0.8169(2)
C3C C 0.2840(3) -0.2094(3) 0.8928(3)
O1C O 0.2944(2) -0.35139(18) 0.87373(17)
O2C O 0.1990(3) -0.1424(2) 0.9656(2)
O3C O 0.6033(2) 0.34561(18) 0.68659(17)
O4C O 0.7478(3) -0.4540(2) 0.9209(2)
H1C H 0.736(4) -0.507(4) 0.975(3)
H2C H 0.783(5) -0.377(4) 0.963(4)
O3* O 0.3967(2) -0.65439(18) 0.81341(17)
O3C* O 0.6033(2) -0.65439(18) 0.68659(17)
Fe1* Fe 0.50000 0.56597(5) 0.75000
#END
