
#######################################################################
#
#                 Cambridge Crystallographic Data Centre
#                                CCDC
#
#######################################################################
#
# If this CIF has been generated from an entry in the Cambridge
# Structural Database, then it will include bibliographic, chemical,
# crystal, experimental, refinement or atomic coordinate data resulting
# from the CCDC's data processing and validation procedures.
#
#######################################################################

data_CSD_CIF_MOSKIR
_audit_creation_date 2019-11-14
_audit_creation_method CSD-ConQuest-V1
_database_code_CSD MOSKIR
_database_code_depnum_ccdc_archive 'CCDC 1954268'
_chemical_formula_sum 'C94 H100 Br2 In3 N3 O20'
_chemical_formula_moiety
;
(C70 H40 Br2 In3 O20 3-)n,3(C8 H20 N1 1+)
;
_journal_coden_Cambridge 1147
_journal_volume 19
_journal_year 2019
_journal_page_first 6053
_journal_name_full 'Cryst.Growth Des. '
loop_
_publ_author_name
"J.J.Mihaly"
"C.J.Tatebe"
"N.Amirmokhtari"
"M.J.DeSanto"
"M.Zeller"
"D.T.Genna"
_chemical_name_systematic
;
catena-[tris(tetraethylammonium) 
pentakis(\m-[1,1'-biphenyl]-4,4'-dicarboxylato)-dibromo-tri-indium unknown 
solvate]
;
_cell_volume   4989.027
_exptl_crystal_colour 'colorless'
_exptl_crystal_density_diffrn 1.309
_exptl_crystal_description 'needle'
_diffrn_ambient_temperature 150
_diffrn_special_details
;
twin

;
_refine_special_details
;
C40,C41,C42,C43 and C40B,C41B,C42B,C43B disordered over two sites with 
occupancies 0.56:0.44; The SQUEEZE/PLATON program has been used to model a 
disordered cation and solvent molecules.
;
#These two values have been output from a single CSD field.
_refine_ls_R_factor_gt 0.0998
_refine_ls_wR_factor_gt 0.0998
_symmetry_cell_setting orthorhombic
_symmetry_space_group_name_H-M 'P 2 2 21'
_symmetry_Int_Tables_number 17
loop_
_symmetry_equiv_pos_site_id
_symmetry_equiv_pos_as_xyz
1 x,y,z
2 -x,-y,1/2+z
3 x,-y,-z
4 -x,y,1/2-z
_cell_length_a 9.3894(19)
_cell_length_b 15.536(4)
_cell_length_c 34.201(7)
_cell_angle_alpha 90
_cell_angle_beta 90
_cell_angle_gamma 90
_cell_formula_units_Z 2
loop_
_atom_type_symbol
_atom_type_radius_bond
C 0.68
H 0.23
Br 1.21
In 1.42
N 0.68
O 0.68
loop_
_atom_site_label
_atom_site_type_symbol
_atom_site_fract_x
_atom_site_fract_y
_atom_site_fract_z
C1 C -0.9060(17) -0.1246(10) 0.3170(3)
C2 C -0.853(2) -0.1626(10) 0.3528(3)
C3 C -0.865(2) -0.2506(11) 0.3600(5)
H1 H -0.92210 -0.28590 0.34370
C4 C -0.787(3) -0.2880(13) 0.3934(5)
H2 H -0.77800 -0.34850 0.39630
C5 C -0.727(2) -0.2315(12) 0.4207(5)
C6 C -0.717(3) -0.1469(13) 0.4139(5)
H3 H -0.66470 -0.11200 0.43150
C7 C -0.783(2) -0.1080(12) 0.3811(5)
H4 H -0.78220 -0.04730 0.37790
C8 C -0.4441(17) -0.3688(11) 0.5568(3)
C9 C -0.515(2) -0.3364(11) 0.5221(4)
C10 C -0.507(2) -0.3765(11) 0.4854(4)
H5 H -0.45390 -0.42820 0.48340
C11 C -0.570(2) -0.3472(12) 0.4533(4)
H6 H -0.56230 -0.37850 0.42950
C12 C -0.648(3) -0.2706(13) 0.4544(5)
C13 C -0.660(2) -0.2273(15) 0.4914(5)
H7 H -0.71430 -0.17610 0.49380
C14 C -0.590(2) -0.2613(11) 0.5236(4)
H8 H -0.59420 -0.23100 0.54760
C15 C -0.7586(12) 0.0063(11) 0.2235(4)
C16 C -0.6378(14) 0.0539(11) 0.2083(5)
C17 C -0.644(2) 0.1446(14) 0.2024(7)
H9 H -0.73350 0.17140 0.20740
C18 C -0.528(2) 0.2014(15) 0.1893(8)
H10 H -0.53550 0.26180 0.18550
C19 C -0.3954(19) 0.1494(13) 0.1828(5)
C20 C -0.3848(19) 0.0648(13) 0.1893(5)
H11 H -0.29600 0.03650 0.18570
C21 C -0.510(2) 0.0149(13) 0.2021(5)
H12 H -0.50170 -0.04540 0.20610
C22 C 0.1161(12) 0.3383(7) 0.1316(4)
C23 C -0.0141(12) 0.2967(8) 0.1444(4)
C24 C -0.1529(18) 0.3026(12) 0.1259(5)
H13 H -0.16540 0.34330 0.10550
C25 C -0.269(2) 0.2513(14) 0.1366(6)
H14 H -0.35200 0.25240 0.12060
C26 C -0.2686(18) 0.1986(12) 0.1696(5)
C27 C -0.1379(17) 0.1929(11) 0.1903(6)
H15 H -0.12870 0.15630 0.21240
C28 C -0.0288(19) 0.2400(14) 0.1779(6)
H16 H 0.05390 0.23600 0.19380
C29 C 0.5743(12) 0.4669(11) 0.1596(4)
C30 C 0.6965(12) 0.4641(12) 0.1855(4)
C31 C 0.8336(17) 0.4988(11) 0.1742(5)
H17 H 0.84490 0.52180 0.14860
C32 C 0.9469(15) 0.4993(12) 0.1990(4)
H18 H 1.03400 0.52430 0.19070
C33 C 0.9385(14) 0.4643(9) 0.2365(4)
C34 C 0.8081(13) 0.4366(11) 0.2497(4)
H19 H 0.79590 0.42130 0.27640
C35 C 0.6927(14) 0.4311(12) 0.2236(4)
H20 H 0.60800 0.40360 0.23230
In1 In -1.00000 -0.06144(11) 0.25000
In2 In 0.33435(10) 0.43698(7) 0.12050(3)
O1 O -0.9151(13) -0.0435(8) 0.3129(3)
O2 O -0.9536(15) -0.1741(8) 0.2906(3)
O3 O -0.3800(11) -0.4416(8) 0.5555(2)
O4 O -0.4451(13) -0.3304(7) 0.5886(3)
O5 O -0.7661(9) -0.0583(8) 0.2257(2)
O6 O -0.8684(14) 0.0499(10) 0.2326(4)
O7 O 0.1032(13) 0.3783(10) 0.0998(4)
O8 O 0.2014(13) 0.3515(10) 0.1565(4)
O9 O 0.5772(10) 0.4926(8) 0.1273(3)
O10 O 0.4644(10) 0.4252(8) 0.1726(3)
Br1 Br 0.22444(19) 0.58507(11) 0.12604(5)
C36 C 0.370(2) 0.6475(14) 0.2436(7)
H21 H 0.39100 0.60840 0.22150
H22 H 0.35760 0.61130 0.26720
C37 C 0.2321(19) 0.6904(14) 0.2355(8)
H23 H 0.24370 0.73040 0.21350
H24 H 0.20130 0.72230 0.25870
H25 H 0.16040 0.64710 0.22880
C38 C 0.521(3) 0.7598(15) 0.2144(5)
H26 H 0.43650 0.79810 0.21250
H27 H 0.60360 0.79740 0.21950
C39 C 0.542(3) 0.7224(19) 0.1754(6)
H28 H 0.49260 0.75770 0.15590
H29 H 0.50330 0.66380 0.17490
H30 H 0.64380 0.72080 0.16940
N1 N 0.50000 0.7059(14) 0.25000
N2 N -0.031(2) 0.50000 0.00000
C40 C 0.063(3) 0.4490(19) -0.0271(8)
H31 H 0.01410 0.44610 -0.05270
H32 H 0.15110 0.48330 -0.03120
C41 C 0.109(6) 0.361(3) -0.0175(18)
H33 H 0.16890 0.33870 -0.03850
H34 H 0.16240 0.36180 0.00710
H35 H 0.02440 0.32440 -0.01450
C42 C -0.121(3) 0.4403(18) 0.0233(9)
H36 H -0.18000 0.40780 0.00430
H37 H -0.05610 0.39810 0.03550
C43 C -0.217(5) 0.469(4) 0.0538(13)
H38 H -0.26600 0.41960 0.06520
H39 H -0.16260 0.49910 0.07410
H40 H -0.28760 0.50880 0.04260
C44? C 0.062(4) 0.4290(15) 0.0153(11)
H41? H 0.16190 0.44560 0.01000
H42? H 0.05060 0.42820 0.04410
C45? C 0.045(10) 0.340(2) 0.002(2)
H43? H 0.11400 0.30300 0.01490
H44? H -0.05200 0.32020 0.00770
H45? H 0.06010 0.33770 -0.02660
C46? C -0.123(4) 0.534(2) 0.0321(6)
H46? H -0.08790 0.59300 0.03790
H47? H -0.21940 0.54090 0.02090
C47? C -0.140(7) 0.492(3) 0.0692(10)
H48? H -0.20490 0.52550 0.08570
H49? H -0.18010 0.43430 0.06510
H50? H -0.04740 0.48690 0.08220
C29C C 1.4257(12) 0.4669(11) 0.3404(4)
C30C C 1.3035(12) 0.4641(12) 0.3145(4)
C31C C 1.1664(17) 0.4988(11) 0.3258(5)
H17C H 1.15510 0.52180 0.35140
C32C C 1.0531(15) 0.4993(12) 0.3010(4)
H18C H 0.96600 0.52430 0.30930
C33C C 1.0615(14) 0.4643(9) 0.2635(4)
C34C C 1.1919(13) 0.4366(11) 0.2503(4)
H19C H 1.20410 0.42130 0.22360
C35C C 1.3073(14) 0.4311(12) 0.2764(4)
H20C H 1.39200 0.40360 0.26770
O9C O 1.4228(10) 0.4926(8) 0.3727(3)
O10C O 1.5356(10) 0.4252(8) 0.3274(3)
C1C C -1.0940(17) -0.1246(10) 0.1830(3)
C2C C -1.147(2) -0.1626(10) 0.1472(3)
C3C C -1.135(2) -0.2506(11) 0.1400(5)
H1C H -1.07790 -0.28590 0.15630
C4C C -1.213(3) -0.2880(13) 0.1066(5)
H2C H -1.22200 -0.34850 0.10370
C5C C -1.273(2) -0.2315(12) 0.0793(5)
C6C C -1.283(3) -0.1469(13) 0.0861(5)
H3C H -1.33530 -0.11200 0.06850
C7C C -1.217(2) -0.1080(12) 0.1189(5)
H4C H -1.21780 -0.04730 0.12210
C8C C -1.5559(17) -0.3688(11) -0.0568(3)
C9C C -1.485(2) -0.3364(11) -0.0221(4)
C10C C -1.493(2) -0.3765(11) 0.0146(4)
H5C H -1.54610 -0.42820 0.01660
C11C C -1.430(2) -0.3472(12) 0.0467(4)
H6C H -1.43770 -0.37850 0.07050
C12C C -1.352(3) -0.2706(13) 0.0456(5)
C13C C -1.340(2) -0.2273(15) 0.0086(5)
H7C H -1.28570 -0.17610 0.00620
C14C C -1.410(2) -0.2613(11) -0.0236(4)
H8C H -1.40580 -0.23100 -0.04760
C15C C -1.2414(12) 0.0063(11) 0.2765(4)
C16C C -1.3622(14) 0.0539(11) 0.2917(5)
C17C C -1.356(2) 0.1446(14) 0.2976(7)
H9C H -1.26650 0.17140 0.29260
C18C C -1.472(2) 0.2014(15) 0.3107(8)
H10C H -1.46450 0.26180 0.31450
C19C C -1.6046(19) 0.1494(13) 0.3172(5)
C20C C -1.6152(19) 0.0648(13) 0.3107(5)
H11C H -1.70400 0.03650 0.31430
C21C C -1.490(2) 0.0149(13) 0.2979(5)
H12C H -1.49830 -0.04540 0.29390
C22C C -2.1161(12) 0.3383(7) 0.3684(4)
C23C C -1.9859(12) 0.2967(8) 0.3556(4)
C24C C -1.8471(18) 0.3026(12) 0.3741(5)
H13C H -1.83460 0.34330 0.39450
C25C C -1.731(2) 0.2513(14) 0.3634(6)
H14C H -1.64800 0.25240 0.37940
C26C C -1.7314(18) 0.1986(12) 0.3304(5)
C27C C -1.8621(17) 0.1929(11) 0.3097(6)
H15C H -1.87130 0.15630 0.28760
C28C C -1.9712(19) 0.2400(14) 0.3221(6)
H16C H -2.05390 0.23600 0.30620
In2C In -2.33435(10) 0.43698(7) 0.37950(3)
O1C O -1.0849(13) -0.0435(8) 0.1871(3)
O2C O -1.0464(15) -0.1741(8) 0.2094(3)
O3C O -1.6200(11) -0.4416(8) -0.0555(2)
O4C O -1.5549(13) -0.3304(7) -0.0886(3)
O5C O -1.2339(9) -0.0583(8) 0.2743(2)
O6C O -1.1316(14) 0.0499(10) 0.2674(4)
O7C O -2.1032(13) 0.3783(10) 0.4002(4)
O8C O -2.2014(13) 0.3515(10) 0.3435(4)
Br1C Br -2.22444(19) 0.58507(11) 0.37396(5)
In2A In -0.33435(10) -0.43698(7) 0.62050(3)
In2B In -1.66565(10) -0.43698(7) -0.12050(3)
In2C* In 1.66565(10) 0.43698(7) 0.37950(3)
O3A O 0.3800(11) 0.4416(8) 0.0555(2)
O3B O -2.3800(11) 0.4416(8) 0.4445(2)
O4A O 0.4451(13) 0.3304(7) 0.0886(3)
O4B O -2.4451(13) 0.3304(7) 0.4114(3)
O9C* O -2.5772(10) 0.4926(8) 0.3727(3)
O10C* O -2.4644(10) 0.4252(8) 0.3274(3)
C36C C 0.630(2) 0.6475(14) 0.2564(7)
H21C H 0.60900 0.60840 0.27850
H22C H 0.64240 0.61130 0.23280
C37C C 0.7679(19) 0.6904(14) 0.2645(8)
H23C H 0.75630 0.73040 0.28650
H24C H 0.79870 0.72230 0.24130
H25C H 0.83960 0.64710 0.27120
C38C C 0.479(3) 0.7598(15) 0.2856(5)
H26C H 0.56350 0.79810 0.28750
H27C H 0.39640 0.79740 0.28050
C39C C 0.458(3) 0.7224(19) 0.3246(6)
H28C H 0.50740 0.75770 0.34410
H29C H 0.49670 0.66380 0.32510
H30C H 0.35620 0.72080 0.33060
C40B C 0.063(3) 0.5510(19) 0.0271(8)
H31B H 0.01410 0.55390 0.05270
H32B H 0.15110 0.51670 0.03120
C41B C 0.109(6) 0.639(3) 0.0175(18)
H33B H 0.16890 0.66130 0.03850
H34B H 0.16240 0.63820 -0.00710
H35B H 0.02440 0.67560 0.01450
C42B C -0.121(3) 0.5597(18) -0.0233(9)
H36B H -0.18000 0.59220 -0.00430
H37B H -0.05610 0.60190 -0.03550
C43B C -0.217(5) 0.531(4) -0.0538(13)
H38B H -0.26600 0.58040 -0.06520
H39B H -0.16260 0.50090 -0.07410
H40B H -0.28760 0.49120 -0.04260
#END
