
#######################################################################
#
#                 Cambridge Crystallographic Data Centre
#                                CCDC
#
#######################################################################
#
# If this CIF has been generated from an entry in the Cambridge
# Structural Database, then it will include bibliographic, chemical,
# crystal, experimental, refinement or atomic coordinate data resulting
# from the CCDC's data processing and validation procedures.
#
#######################################################################

data_CSD_CIF_MOTCIK
_audit_creation_date 2019-11-14
_audit_creation_method CSD-ConQuest-V1
_database_code_CSD MOTCIK
_database_code_depnum_ccdc_archive 'CCDC 1965793'
_chemical_formula_sum 'C48 H82 Eu4 K1 N8 Na2 O147 P5 W30'
_chemical_formula_moiety
;
(C48 H64 Eu4 N8 O138 P5 W30 3-)n,K1 1+,2(Na1 1+),9(H2 O1)
;
_journal_coden_Cambridge 1078
_journal_year 2019
_journal_name_full 'CSD Communication(Private Communication) '
loop_
_publ_author_name
"Xinlong Wang"
_chemical_name_systematic
;
catena-[di-sodium potassium 
pentakis(\m-phosphato)-heptakis(\m-pyridin-1-ium-4-carboxylato)-hexahexacontak
is(\m-oxido)-(pyridin-1-ium-4-carboxylato)-dodecakis(aqua)-tetracosakis(oxido)
-tricosa-tungsten-tetra-europium unknown solvate nonahydrate]
;
_cell_volume   7602.196
_exptl_crystal_colour 'green'
_exptl_crystal_density_diffrn 4.144
_exptl_crystal_description 'block'
_diffrn_ambient_temperature 298.1
_refine_special_details
;
Na0A,O1 and Na1A,O22W disordered over two sites with occupancies 0.5:0.5; The 
SQUEEZE/PLATON program has been used to model some disorder.
;
#These two values have been output from a single CSD field.
_refine_ls_R_factor_gt 0.0414
_refine_ls_wR_factor_gt 0.0414
_symmetry_cell_setting triclinic
_symmetry_space_group_name_H-M 'P -1'
_symmetry_Int_Tables_number 2
loop_
_symmetry_equiv_pos_site_id
_symmetry_equiv_pos_as_xyz
1 x,y,z
2 -x,-y,-z
_cell_length_a 17.812(4)
_cell_length_b 20.233(5)
_cell_length_c 22.035(5)
_cell_angle_alpha 101.447(12)
_cell_angle_beta 98.060(11)
_cell_angle_gamma 97.538(12)
_cell_formula_units_Z 2
loop_
_atom_type_symbol
_atom_type_radius_bond
C 0.68
H 0.23
Eu 1.98
K 2.03
N 0.68
Na 1.66
O 0.68
P 1.05
W 1.62
loop_
_atom_site_label
_atom_site_type_symbol
_atom_site_fract_x
_atom_site_fract_y
_atom_site_fract_z
W1 W 0.10772(4) 0.29375(3) 0.43290(3)
W2 W 0.26432(4) 0.19120(3) 0.45506(3)
W3 W 0.44208(4) 0.28466(3) 0.41975(3)
W4 W 0.39736(4) 0.44602(3) 0.37616(3)
W5 W 0.16217(4) 0.02618(3) 0.14885(3)
W6 W 0.34399(4) 0.11601(3) 0.11483(3)
W7 W 0.19115(4) 0.55729(3) 0.26724(3)
W8 W 0.29938(4) 0.27707(3) 0.07114(3)
W9 W 0.59361(4) 0.27084(3) 0.32426(3)
W10 W 0.19095(4) 0.45199(3) 0.38640(3)
W11 W 0.40007(4) 0.54626(3) 0.25630(3)
W12 W 0.55127(4) 0.43571(3) 0.27997(3)
W13 W -0.08161(4) 0.31163(3) 0.34770(3)
W14 W 0.09263(4) 0.28851(3) 0.08012(3)
W15 W 0.00635(4) 0.47107(3) 0.30002(3)
W16 W 0.50207(4) 0.11566(3) 0.37285(3)
W17 W 0.47034(4) 0.04485(3) 0.22044(3)
W18 W 0.31724(4) 0.02377(3) 0.40771(3)
W19 W -0.08201(4) 0.05599(3) 0.24362(3)
W20 W 0.00873(4) 0.13257(3) 0.12787(3)
W21 W 0.11052(4) 0.04013(3) 0.41390(3)
W22 W 0.07848(4) -0.04885(3) 0.26589(3)
W23 W -0.04659(4) 0.14662(3) 0.39049(3)
W24 W 0.54582(4) 0.20383(4) 0.17122(3)
W25 W 0.12476(4) 0.47526(3) 0.11969(3)
W26 W -0.13416(4) 0.21781(4) 0.20237(3)
W27 W -0.05209(4) 0.37808(4) 0.15444(3)
W28 W 0.28800(4) -0.04909(3) 0.25532(3)
W29 W 0.49636(4) 0.36677(4) 0.12789(3)
W30 W 0.33468(4) 0.46670(4) 0.10723(3)
Eu1 Eu 0.07869(5) 0.35786(4) 0.61580(4)
Eu2 Eu -0.23174(5) 0.38773(4) 0.45799(4)
Eu3 Eu 0.57131(6) -0.11612(5) 0.13848(5)
P1 P 0.4082(2) 0.1954(2) 0.26731(18)
P2 P 0.3590(2) 0.3721(2) 0.22041(18)
P3 P 0.0409(2) 0.2115(2) 0.28245(18)
P4 P 0.2112(2) 0.0956(2) 0.30525(18)
P5 P 0.1326(2) 0.3825(2) 0.23110(18)
O1 O -0.0643(6) 0.4500(6) 0.2228(5)
O2 O 0.3415(6) 0.4392(5) 0.2023(5)
O3 O 0.2921(6) 0.4351(5) 0.3879(5)
O4 O 0.5571(12) -0.1738(11) 0.0233(8)
O5 O 0.4048(6) 0.3634(5) 0.4050(5)
O6 O 0.5906(10) -0.0285(10) 0.0799(8)
O7 O 0.1748(6) 0.3810(5) 0.2956(5)
O8 O 0.4349(11) -0.1625(10) 0.1076(9)
O9 O 0.3466(6) 0.3735(5) 0.2873(5)
O10 O 0.0517(9) 0.2377(8) 0.6022(9)
O11 O 0.3819(6) 0.5125(5) 0.3284(5)
O12 O -0.0431(9) 0.3315(7) 0.6546(7)
O13 O 0.3459(6) 0.2512(5) 0.4402(5)
O14 O -0.0432(11) 0.2899(11) 0.5295(9)
O15 O 0.4287(6) 0.1284(5) 0.2848(5)
O16 O 0.0131(11) 0.4212(10) 0.5353(9)
O17 O 0.1639(6) 0.3726(5) 0.4149(5)
O18 O -0.1229(12) 0.3834(11) 0.5382(10)
O19 O -0.0575(6) 0.3895(6) 0.3214(5)
O20 O -0.0854(11) 0.4503(11) 0.4875(10)
O21 O 0.1977(6) 0.2574(5) 0.4439(5)
O22 O -0.3607(8) 0.4238(8) 0.4520(7)
O23 O 0.0054(6) 0.1466(5) 0.3015(5)
O24 O 0.1990(6) 0.1039(5) 0.2379(5)
O25 O 0.1051(6) 0.2515(5) 0.3348(5)
O26 O 0.1671(6) 0.4484(5) 0.2119(5)
O27 O 0.0690(6) 0.1916(5) 0.2209(5)
O28 O 0.2398(6) 0.4877(5) 0.1164(5)
O29 O 0.6231(6) 0.2372(6) 0.2464(5)
O30 O -0.1032(6) 0.3097(6) 0.1824(5)
O31 O 0.0463(6) 0.3870(5) 0.2355(5)
O32 O 0.5371(8) -0.1375(7) 0.2354(7)
O33 O 0.3161(6) -0.0538(6) 0.3415(5)
O34 O 0.3902(6) 0.0558(5) 0.1597(5)
O35 O 0.4841(6) 0.2331(5) 0.2535(5)
O36 O 0.1753(6) 0.1243(5) 0.4485(5)
O37 O 0.3002(6) 0.3735(5) 0.0741(5)
O38 O -0.0235(6) 0.2554(5) 0.2744(5)
O39 O 0.5246(7) 0.0519(6) 0.3031(5)
O40 O 0.3826(6) 0.2392(5) 0.3218(5)
O41 O 0.3030(6) 0.1912(6) 0.0901(5)
O42 O 0.5755(6) 0.1883(6) 0.3459(5)
O43 O 0.5328(6) 0.1127(6) 0.2019(5)
O44 O 0.3475(6) 0.1787(5) 0.2090(5)
O45 O 0.0770(6) 0.5277(5) 0.2760(5)
O46 O 0.0843(6) 0.4576(5) 0.3628(5)
O47 O 0.7649(8) -0.1769(8) 0.1699(7)
O48 O 0.0651(6) 0.2041(5) 0.1007(5)
O49 O 0.2441(6) 0.0779(6) 0.1244(5)
O50 O -0.2379(10) 0.2717(8) 0.4856(8)
O51 O -0.1605(6) 0.2687(6) 0.2768(5)
O52 O -0.3001(10) 0.3515(9) 0.5330(8)
O53 O 0.4215(6) 0.0583(6) 0.3855(5)
O54 O 0.4896(6) 0.5087(6) 0.2590(5)
O55 O 0.2757(6) 0.0516(5) 0.3142(5)
O56 O 0.4919(6) 0.4395(5) 0.3452(5)
O57 O 0.4350(6) 0.5014(5) 0.4477(5)
O58 O 0.1500(6) 0.5590(5) 0.1821(5)
O59 O 0.0131(6) 0.3239(6) 0.4015(5)
O60 O 0.4453(6) 0.3694(6) 0.2165(5)
O61 O 0.7335(8) -0.0846(8) 0.2860(7)
O62 O 0.2159(6) 0.0077(6) 0.4130(5)
O63 O 0.2355(6) 0.1647(5) 0.3514(5)
O64 O 0.0019(6) 0.3190(6) 0.1066(5)
O65 O 0.0920(6) -0.0145(5) 0.1942(5)
O66 O 0.0433(6) 0.2106(6) 0.4295(5)
O67 O -0.0367(6) 0.0746(5) 0.1747(5)
O68 O 0.1367(6) 0.0569(5) 0.3196(5)
O69 O -0.1096(6) 0.0758(5) 0.3266(5)
O70 O 0.3096(6) 0.3110(5) 0.1742(5)
O71 O 0.6222(8) -0.1961(8) 0.2724(7)
O72 O 0.3880(6) 0.5468(6) 0.1686(5)
O73 O 0.5700(6) 0.4236(6) 0.1952(5)
O74 O 0.1384(6) 0.3208(5) 0.1815(5)
O75 O 0.0973(6) 0.0880(5) 0.1317(5)
O76 O 0.1929(6) 0.2692(6) 0.0738(5)
O77 O 0.4675(6) 0.1942(5) 0.4120(5)
O78 O 0.2372(6) -0.0202(5) 0.1879(5)
O79 O 0.1267(6) 0.3832(5) 0.0823(5)
O80 O 0.0246(6) 0.0780(6) 0.3990(5)
O81 O 0.4478(6) 0.1666(6) 0.1260(5)
O82 O 0.4402(7) 0.4342(6) 0.1157(6)
O83 O 0.3213(6) 0.1182(5) 0.4429(5)
O84 O 0.0706(6) -0.0446(6) 0.3517(5)
O85 O 0.5276(6) 0.3051(5) 0.3780(5)
O86 O 0.5400(6) 0.2876(6) 0.1554(5)
O87 O 0.5840(6) 0.3571(5) 0.2933(5)
O88 O -0.0363(6) 0.0870(6) 0.0541(5)
O89 O 0.3837(6) -0.0125(6) 0.2478(5)
O90 O 0.1760(6) -0.0706(6) 0.2709(5)
O91 O -0.0915(6) 0.2164(6) 0.3699(5)
O92 O 0.0284(6) 0.4511(5) 0.1358(5)
O93 O -0.0687(6) 0.1868(6) 0.1446(5)
O94 O -0.1352(6) 0.1382(6) 0.2284(5)
O95 O 0.4091(6) 0.2990(6) 0.0888(5)
O96 O 0.2903(6) 0.5622(5) 0.2522(5)
O97 O -0.0148(6) -0.0009(5) 0.2625(5)
O98 O -0.0895(6) 0.1346(6) 0.4534(5)
O99 O 0.2107(6) 0.5190(5) 0.3372(5)
O100 O 0.2847(6) 0.2120(6) 0.5351(5)
O101 O 0.1325(7) -0.0339(6) 0.0798(5)
O102 O 0.0541(7) 0.2666(6) 0.0018(5)
O103 O 0.1065(6) 0.3314(6) 0.5111(5)
O104 O 0.5700(6) 0.1078(6) 0.4331(5)
O105 O 0.4920(6) 0.3159(6) 0.4941(5)
O106 O 0.0239(6) -0.1283(6) 0.2359(5)
O107 O -0.0366(6) 0.5328(6) 0.3422(5)
O108 O 0.5036(7) -0.0253(6) 0.1803(6)
O109 O 0.0952(7) 0.0097(6) 0.4786(5)
O110 O -0.1214(7) 0.3906(6) 0.0985(6)
O111 O 0.3447(6) 0.0700(6) 0.0400(5)
O112 O 0.1012(7) 0.5092(6) 0.0540(5)
O113 O 0.2922(6) 0.2541(6) -0.0090(5)
O114 O 0.4387(6) 0.6301(6) 0.2873(5)
O115 O -0.1618(6) -0.0011(6) 0.2063(6)
O116 O 0.2099(6) 0.5095(6) 0.4590(5)
O117 O -0.1428(7) 0.3387(6) 0.3997(6)
O118 O 0.6301(6) 0.4942(6) 0.3168(5)
O119 O 0.1885(6) 0.6404(5) 0.3003(5)
O120 O 0.3577(6) -0.0044(6) 0.4703(5)
O121 O -0.2221(7) 0.2016(6) 0.1538(6)
O122 O 0.3478(7) 0.4946(6) 0.0401(5)
O123 O 0.2878(7) -0.1342(6) 0.2232(5)
O124 O 0.6038(7) 0.1742(6) 0.1192(6)
O125 O -0.1789(7) 0.5513(6) 0.3652(6)
O126 O 0.5504(7) 0.3667(6) 0.0692(6)
O127 O 0.6840(6) 0.3049(6) 0.3707(5)
O128 O -0.2230(7) 0.4530(6) 0.3878(6)
O129 O 0.6933(8) -0.1250(7) 0.1093(7)
O130 O 0.6612(8) -0.0426(7) 0.2167(7)
N1 N 0.948(1) -0.0928(9) 0.0451(8)
H1 H 0.98721 -0.08135 0.02845
N2 N 0.7384(9) 0.1485(9) 0.3950(8)
H2 H 0.74741 0.18780 0.42063
N3 N 0.4929(10) -0.1285(9) 0.4519(8)
H3 H 0.47449 -0.12417 0.48623
N4 N -0.2915(12) 0.2109(11) 0.6858(10)
H4 H -0.28894 0.19823 0.72093
N5 N -0.2665(9) 0.3961(9) 0.1572(8)
H5 H -0.27778 0.37655 0.11789
C1 C 0.8179(12) -0.0948(11) 0.0483(10)
H6 H 0.77151 -0.08272 0.03297
C2 C -0.2296(11) 0.4572(10) 0.2816(9)
C3 C -0.2107(10) 0.4897(10) 0.3485(9)
C4 C 0.8227(12) -0.1276(11) 0.096(1)
C5 C 0.8932(12) -0.1417(11) 0.1179(10)
H7 H 0.89843 -0.16439 0.15070
C6 C 0.5444(12) -0.1481(11) 0.3394(10)
C7 C 0.7545(12) -0.1429(11) 0.1272(10)
C8 C -0.2488(10) 0.3867(10) 0.2596(9)
H8 H -0.25002 0.35855 0.28823
C9 C 0.8817(12) -0.0797(11) 0.0229(10)
H9 H 0.87747 -0.05926 -0.01144
C10 C -0.2327(11) 0.498(1) 0.2367(9)
H10 H -0.22312 0.54543 0.24901
C11 C 0.5681(12) -0.1619(11) 0.2769(10)
C12 C -0.2657(11) 0.3584(10) 0.1974(9)
H11 H -0.27688 0.31111 0.18376
C13 C 0.7135(12) 0.0290(11) 0.3152(10)
C14 C 0.7200(12) 0.0325(11) 0.377(1)
H12 H 0.71665 -0.00743 0.39201
C15 C 0.5616(12) -0.1843(11) 0.3837(10)
H13 H 0.59258 -0.21750 0.37542
C16 C 0.4765(12) -0.0875(11) 0.4131(10)
H14 H 0.44864 -0.05256 0.42422
C17 C 0.5361(12) -0.1748(11) 0.4392(10)
H15 H 0.54917 -0.20105 0.46806
C18 C 0.7153(11) 0.0887(10) 0.2905(10)
H16 H 0.70525 0.08724 0.24769
C19 C 0.5019(12) -0.0982(11) 0.3556(10)
H17 H 0.48958 -0.07074 0.32765
C20 C 0.7006(13) -0.0389(11) 0.2683(11)
C21 C 0.9566(13) -0.1230(11) 0.0921(10)
H18 H 1.00467 -0.13164 0.10793
C22 C -0.2504(11) 0.4653(10) 0.1734(10)
H19 H -0.25124 0.49072 0.14257
C23 C 0.7332(11) 0.1492(11) 0.3355(10)
H20 H 0.74158 0.19064 0.32330
C24 C -0.2743(16) 0.2974(14) 0.5300(13)
C25 C 0.7319(12) 0.0968(11) 0.4197(11)
H21 H 0.73472 0.10087 0.46276
C26 C -0.2414(16) 0.1914(13) 0.6483(12)
H22 H -0.21036 0.15996 0.65767
C27 C -0.2362(16) 0.2179(13) 0.5957(13)
H23 H -0.19961 0.20770 0.57055
C28 C -0.2851(16) 0.2583(14) 0.5829(13)
C29 C -0.3426(15) 0.2795(13) 0.6199(12)
H24 H -0.37445 0.31012 0.61002
C30 C -0.3458(16) 0.2495(13) 0.6719(13)
H25 H -0.38407 0.25576 0.69618
Eu4 Eu 0.24670(5) 0.19971(5) 0.73167(4)
O131 O 0.4178(10) 0.2389(9) 0.8675(8)
O132 O 0.1146(9) 0.1332(8) 0.7081(8)
O133 O 0.1929(7) 0.3113(6) 0.6230(6)
O134 O 0.1081(8) 0.3585(7) 0.7221(6)
O135 O 0.2924(7) 0.2865(6) 0.6817(6)
O136 O 0.1557(8) 0.2715(7) 0.7525(6)
O137 O 0.3264(9) 0.2863(8) 0.8155(8)
N6 N 0.4165(8) 0.4246(7) 0.5525(6)
H26 H 0.44778 0.44732 0.53477
N7 N 0.1184(11) 0.4182(10) 0.9489(9)
H27 H 0.11626 0.43704 0.98707
N8 N 0.4631(9) 0.4843(8) 0.9458(8)
C31 C 0.4799(10) 0.4312(9) 0.9717(8)
H28 H 0.50795 0.43962 1.01208
C32 C 0.4557(10) 0.3659(8) 0.9385(9)
H29 H 0.46721 0.32959 0.95620
C33 C 0.4148(8) 0.3537(8) 0.8794(8)
C34 C 0.3980(9) 0.4067(9) 0.8536(7)
H30 H 0.37002 0.39835 0.81313
C35 C 0.4222(10) 0.4720(8) 0.8867(8)
H31 H 0.41079 0.50833 0.86899
C36 C 0.4454(10) 0.3959(8) 0.5989(8)
H32 H 0.49824 0.40002 0.61101
C37 C 0.3962(10) 0.3608(9) 0.6278(8)
H33 H 0.41571 0.34116 0.66013
C38 C 0.3175(10) 0.3540(9) 0.6097(8)
C39 C 0.2638(11) 0.3137(9) 0.6405(8)
C40 C 0.1298(12) 0.3254(11) 0.7623(10)
C41 C 0.1251(13) 0.3580(11) 0.8288(9)
C42 C 0.3408(10) 0.4189(9) 0.5330(8)
H34 H 0.32268 0.43891 0.50050
C43 C 0.2900(11) 0.3832(9) 0.5613(8)
H35 H 0.23737 0.37878 0.54790
C44 C 0.1619(13) 0.3350(11) 0.8772(10)
H36 H 0.18787 0.29808 0.86915
C45 C 0.0818(12) 0.4101(11) 0.8417(10)
H37 H 0.05397 0.42413 0.80887
C46 C 0.1601(13) 0.3670(12) 0.9377(10)
H38 H 0.18747 0.35371 0.97111
C47 C 0.0803(13) 0.4402(12) 0.9019(10)
H39 H 0.05304 0.47614 0.91071
C48 C 0.3900(9) 0.2836(8) 0.8456(11)
O138 O 0.2064(10) 0.1565(8) 0.6189(7)
K1 K -0.3012(2) 0.1546(2) 0.0528(2)
Na1 Na 0.2066(8) 0.2140(7) 0.1912(7)
O139 O 0.2455(14) 0.2706(12) 0.3000(12)
O140 O -0.3047(15) 0.2726(13) 0.0605(11)
O141 O -0.1623(14) 0.1993(13) 0.0191(11)
O142 O -0.2110(14) 0.1005(13) 0.0130(11)
O143 O -0.2702(13) 0.0520(11) 0.1160(11)
O144 O -0.3116(16) 0.1585(15) -0.0485(13)
O145 O -0.4044(16) 0.0732(14) -0.0050(13)
Na2 Na 0.2669(10) -0.2425(7) 0.1541(7)
O146 O 0.0798(8) -0.1483(7) 0.4182(6)
O147 O 0.1134(11) 0.0356(9) 0.6043(8)
Na3? Na 0.2568(8) 0.2894(7) 0.3319(7)
O148? O 0.2197(13) 0.2314(12) 0.2249(11)
Eu1A Eu -0.07869(5) 0.64214(4) 0.38420(4)
Eu2* Eu 0.76826(5) 0.38773(4) 0.45799(4)
Eu2A Eu 0.23174(5) 0.61227(4) 0.54201(4)
Eu3A Eu 0.42869(6) 0.11612(5) 0.86152(5)
O47A O 0.2351(8) 0.1769(8) 0.8301(7)
O61A O 0.2665(8) 0.0846(8) 0.7140(7)
O71A O 0.3778(8) 0.1961(8) 0.7276(7)
O107A O 0.0366(6) 0.4672(6) 0.6578(5)
O116A O -0.2099(6) 0.4905(6) 0.5410(5)
O125A O 0.1789(7) 0.4487(6) 0.6348(6)
O127* O -0.3160(6) 0.3049(6) 0.3707(5)
Eu4A Eu 0.75330(5) -0.19971(5) 0.26833(4)
O131A O 0.5822(10) -0.2389(9) 0.1325(8)
#END
