
#######################################################################
#
#                 Cambridge Crystallographic Data Centre
#                                CCDC
#
#######################################################################
#
# If this CIF has been generated from an entry in the Cambridge
# Structural Database, then it will include bibliographic, chemical,
# crystal, experimental, refinement or atomic coordinate data resulting
# from the CCDC's data processing and validation procedures.
#
#######################################################################

data_CSD_CIF_MOTROD
_audit_creation_date 2009-09-28
_audit_creation_method CSD-ConQuest-V1
_database_code_CSD MOTROD
_database_code_depnum_ccdc_archive 'CCDC 678209'
_chemical_formula_sum 'C32 H30 Co3 F24 N4 O20'
_chemical_formula_moiety
;
(C6 H11 N2 1+)2n,n(C20 H8 Co3 F24 O20 2-)
;
_journal_coden_Cambridge 222
_journal_year 2009
_journal_page_first 1131
_journal_name_full 'Dalton Trans. '
loop_
_publ_author_name
"Z.Hulvey"
"D.S.Wragg"
"Zhuojia Lin"
"R.E.Morris"
"A.K.Cheetham"
_chemical_name_systematic
;
catena-(bis(1-Ethyl-3-methylimidazolium) 
tetrakis(\m~3~-hexafluoroglutarato-O,O',O'')-bis(\m~2~-aqua)-diaqua-tri-cobalt
(ii))
;
_cell_volume   4799.475
_exptl_crystal_colour 'purple'
_exptl_crystal_density_diffrn 1.97
_exptl_crystal_description 'block'
_diffrn_ambient_temperature 293
#These two values have been output from a single CSD field.
_refine_ls_R_factor_gt 0.0632
_refine_ls_wR_factor_gt 0.0632
_symmetry_cell_setting monoclinic
_symmetry_space_group_name_H-M 'P 21/c'
_symmetry_Int_Tables_number 14
loop_
_symmetry_equiv_pos_site_id
_symmetry_equiv_pos_as_xyz
1 x,y,z
2 -x,1/2+y,1/2-z
3 -x,-y,-z
4 x,-1/2-y,-1/2+z
_cell_length_a 17.841(10)
_cell_length_b 12.328(7)
_cell_length_c 22.472(12)
_cell_angle_alpha 90
_cell_angle_beta 103.821(9)
_cell_angle_gamma 90
_cell_formula_units_Z 4
loop_
_atom_type_symbol
_atom_type_radius_bond
C 0.68
H 0.23
Co 1.26
F 0.64
N 0.68
O 0.68
loop_
_atom_site_label
_atom_site_type_symbol
_atom_site_fract_x
_atom_site_fract_y
_atom_site_fract_z
Co1 Co 0.24690(4) 1.07606(5) 0.48959(3)
Co2 Co 0.24697(4) 0.78537(5) 0.49274(3)
Co3 Co 0.25128(4) 0.49383(5) 0.50950(3)
C1 C 0.3405(3) 0.9255(4) 0.4253(2)
C2 C 0.4061(3) 0.9202(4) 0.3912(2)
C3 C 0.4638(3) 0.8269(4) 0.4098(2)
C4 C 0.5356(3) 0.8252(4) 0.3825(2)
C5 C 0.6049(3) 0.8987(4) 0.4134(2)
C6 C 0.1144(3) 0.9284(4) 0.4271(2)
C7 C 0.0282(3) 0.9228(4) 0.3908(2)
C8 C -0.0185(3) 0.8293(4) 0.4095(2)
C9 C -0.1073(3) 0.8264(4) 0.3807(3)
C10 C -0.1583(3) 0.8988(4) 0.4115(2)
C11 C 0.1636(3) 0.6494(4) 0.5720(2)
C12 C 0.1068(3) 0.6587(4) 0.6132(2)
C13 C 0.0323(3) 0.5941(4) 0.5895(2)
C14 C -0.0364(3) 0.6186(4) 0.6172(2)
C15 C -0.1060(3) 0.5429(4) 0.5901(2)
C16 C 0.3778(3) 0.6513(4) 0.5705(2)
C17 C 0.4612(3) 0.6604(4) 0.6117(2)
C18 C 0.5201(3) 0.5937(4) 0.5867(2)
C19 C 0.6050(3) 0.6203(4) 0.6120(2)
C20 C 0.6594(3) 0.5435(4) 0.5870(2)
F1 F 0.44625(17) 1.0126(2) 0.39704(15)
F2 F 0.37101(17) 0.9074(3) 0.33040(13)
F3 F 0.42600(18) 0.7327(2) 0.39324(16)
F4 F 0.48891(17) 0.8290(3) 0.47134(14)
F5 F 0.51252(17) 0.8502(3) 0.32211(14)
F6 F 0.56113(16) 0.7213(2) 0.38500(15)
F7 F -0.00868(18) 1.0156(2) 0.39382(17)
F8 F 0.02868(18) 0.9088(3) 0.33034(14)
F9 F 0.01054(18) 0.7359(2) 0.39474(17)
F10 F -0.00838(18) 0.8335(3) 0.47059(15)
F11 F -0.12984(17) 0.7220(2) 0.38158(15)
F12 F -0.11838(17) 0.8551(3) 0.32082(14)
F13 F 0.08813(18) 0.7630(2) 0.62054(15)
F14 F 0.14126(17) 0.6220(3) 0.67056(13)
F15 F 0.00943(17) 0.6137(3) 0.52839(13)
F16 F 0.04818(18) 0.4882(2) 0.59741(15)
F17 F -0.05815(17) 0.7227(2) 0.60816(15)
F18 F -0.01328(17) 0.6028(3) 0.67873(13)
F19 F 0.48432(16) 0.7644(2) 0.61838(14)
F20 F 0.46135(17) 0.6237(3) 0.66910(13)
F21 F 0.50313(17) 0.6092(2) 0.52544(13)
F22 F 0.50907(17) 0.4887(2) 0.59736(14)
F23 F 0.61894(17) 0.7245(2) 0.59778(14)
F24 F 0.62067(17) 0.6137(3) 0.67398(13)
O1 O 0.2307(2) 1.2181(3) 0.43774(16)
H1 H 0.2663(16) 1.269(2) 0.436(2)
H2 H 0.1848(15) 1.254(4) 0.426(3)
O2 O 0.26346(19) 0.9323(3) 0.54377(15)
H3 H 0.3124(12) 0.9333(16) 0.5669(11)
H4 H 0.2318(17) 0.9353(16) 0.5689(11)
O3 O 0.2336(2) 0.6331(3) 0.44829(15)
H5 H 0.1860(12) 0.6238(16) 0.4244(11)
H6 H 0.2673(16) 0.6242(16) 0.4255(11)
O4 O 0.2665(2) 0.3492(3) 0.56127(17)
H7 H 0.2290(15) 0.303(2) 0.564(2)
H8 H 0.3094(16) 0.308(3) 0.568(2)
O5 O 0.3207(2) 1.0181(3) 0.43753(17)
O6 O 0.3128(2) 0.8366(3) 0.43410(17)
O7 O 0.6046(2) 0.9929(3) 0.39450(17)
O8 O 0.6546(2) 0.8522(3) 0.45450(16)
O9 O 0.1404(2) 1.0204(3) 0.44071(16)
O10 O 0.1466(2) 0.8394(3) 0.43538(17)
O11 O -0.1833(2) 0.8513(3) 0.45242(16)
O12 O -0.1692(2) 0.9926(3) 0.39272(17)
O13 O 0.1811(2) 0.7358(3) 0.55122(17)
O14 O 0.1855(2) 0.5553(3) 0.56528(16)
O15 O -0.1544(2) 0.5829(3) 0.54495(16)
O16 O -0.1068(2) 0.4536(3) 0.61443(17)
O17 O 0.3488(2) 0.7376(3) 0.54966(17)
O18 O 0.3515(2) 0.5577(3) 0.56486(16)
O19 O 0.6831(2) 0.5827(3) 0.54294(16)
O20 O 0.6723(2) 0.4551(3) 0.61156(17)
N1 N 0.2301(3) 0.6401(4) 0.2543(2)
N2 N 0.1132(3) 0.6605(3) 0.2611(2)
C21 C 0.1585(3) 0.6114(4) 0.2310(3)
H9 H 0.14220 0.56380 0.19840
C22 C 0.2319(3) 0.7098(4) 0.3021(2)
H10 H 0.27540 0.74180 0.32700
C23 C 0.1582(3) 0.7231(4) 0.3061(2)
H11 H 0.14120 0.76660 0.33400
C24 C 0.0298(3) 0.6479(5) 0.2506(3)
H12 H 0.00920 0.62150 0.20980
H13 H 0.00690 0.71680 0.25550
H14 H 0.01840 0.59720 0.27960
C25 C 0.2984(4) 0.6067(5) 0.2320(3)
H15 H 0.28620 0.54190 0.20700
H16 H 0.34080 0.58970 0.26660
C26 C 0.3221(4) 0.6962(5) 0.1947(3)
H17 H 0.27800 0.71970 0.16380
H18 H 0.36110 0.66990 0.17540
H19 H 0.34210 0.75610 0.22100
N3 N 0.2831(3) 0.1225(4) 0.2579(2)
N4 N 0.3969(3) 0.0990(4) 0.2427(2)
C27 C 0.3583(4) 0.1316(4) 0.2820(3)
H20 H 0.38030 0.15730 0.32120
C28 C 0.2742(3) 0.0803(4) 0.1999(3)
H21 H 0.22780 0.06450 0.17220
C29 C 0.3453(3) 0.0665(4) 0.1906(3)
H22 H 0.35720 0.03970 0.15530
C30 C 0.4811(4) 0.0977(5) 0.2526(3)
H23 H 0.49950 0.17040 0.25010
H24 H 0.49530 0.05360 0.22180
H25 H 0.50370 0.06840 0.29240
C31 C 0.2230(4) 0.1510(5) 0.2890(3)
H26 H 0.19170 0.20890 0.26670
H27 H 0.24680 0.17760 0.32980
C32 C 0.1727(4) 0.0567(6) 0.2939(3)
H28 H 0.14300 0.03730 0.25380
H29 H 0.13850 0.07570 0.31940
H30 H 0.20410 -0.00370 0.31160
Co1B Co 0.75310(4) 0.92394(5) 0.51041(3)
Co1B* Co -0.24690(4) 0.92394(5) 0.51041(3)
Co3B Co -0.25128(4) 0.50617(5) 0.49050(3)
Co3B* Co 0.74872(4) 0.50617(5) 0.49050(3)
O8B O 0.3454(2) 1.1478(3) 0.54550(16)
O11B O 0.1833(2) 1.1487(3) 0.54758(16)
O15B O 0.1544(2) 0.4171(3) 0.45505(16)
O19B O 0.3169(2) 0.4173(3) 0.45706(16)
#END
