
#######################################################################
#
#                 Cambridge Crystallographic Data Centre
#                                CCDC
#
#######################################################################
#
# If this CIF has been generated from an entry in the Cambridge
# Structural Database, then it will include bibliographic, chemical,
# crystal, experimental, refinement or atomic coordinate data resulting
# from the CCDC's data processing and validation procedures.
#
#######################################################################

data_CSD_CIF_MOTVOI
_audit_creation_date 2015-01-26
_audit_creation_method CSD-ConQuest-V1
_database_code_CSD MOTVOI
_database_code_depnum_ccdc_archive 'CCDC 1017739'
_chemical_formula_sum 'C80 H92 Eu3 N11 O38'
_chemical_formula_moiety
;
(C2 H8 N1 1+)3n,n(C70 H54 Eu3 N6 O34 3-),2n(C2 H3 N1),4n(H2 O1)
;
_journal_coden_Cambridge 440
_journal_volume 39
_journal_year 2015
_journal_page_first 2289
_journal_name_full 'New J.Chem. '
loop_
_publ_author_name
"Ao Li"
"Liang Li"
"Zhi Lin"
"Lin Song"
"Zi-Hao Wang"
"Qiang Chen"
"Tao Yang"
"Xin-Hui Zhou"
"Hong-Ping Xiao"
"Xiu-Ju Yin"
_chemical_name_systematic
;
catena-[tris(Dimethylammonium) 
tetrakis(\m~4~-9-hydroxy-9-methyl-9H-fluorene-2,7-dicarboxylato)-bis(N,N-dimet
hylformamide-O)-tetrakis(nitrato-O)-tri-europium acetonitrile solvate 
tetrahydrate]
;
_cell_volume   5261.631
_exptl_crystal_colour 'colorless'
_exptl_crystal_density_diffrn 1.434
_exptl_crystal_description 'block'
_diffrn_ambient_temperature 173
#These two values have been output from a single CSD field.
_refine_ls_R_factor_gt 0.0543
_refine_ls_wR_factor_gt 0.0543
_symmetry_cell_setting monoclinic
_symmetry_space_group_name_H-M 'P 21/n'
_symmetry_Int_Tables_number 14
loop_
_symmetry_equiv_pos_site_id
_symmetry_equiv_pos_as_xyz
1 x,y,z
2 1/2-x,1/2+y,1/2-z
3 -x,-y,-z
4 -1/2+x,-1/2-y,-1/2+z
_cell_length_a 15.4724(19)
_cell_length_b 14.1459(17)
_cell_length_c 24.040(2)
_cell_angle_alpha 90
_cell_angle_beta 90.188(2)
_cell_angle_gamma 90
_cell_formula_units_Z 2
loop_
_atom_type_symbol
_atom_type_radius_bond
C 0.68
H 0.23
Eu 1.98
N 0.68
O 0.68
loop_
_atom_site_label
_atom_site_type_symbol
_atom_site_fract_x
_atom_site_fract_y
_atom_site_fract_z
C1 C 0.3716(7) 1.0084(6) 0.4250(3)
C2 C 0.3357(5) 1.0533(6) 0.3730(3)
C3 C 0.3685(6) 1.1394(6) 0.3542(4)
H1 H 0.41250 1.17020 0.37510
C4 C 0.3398(5) 1.1787(6) 0.3082(4)
H2 H 0.36240 1.23800 0.29670
C5 C 0.2754(5) 1.1338(6) 0.2754(4)
C6 C 0.2425(5) 1.0479(6) 0.2952(3)
C7 C 0.2724(5) 1.0043(6) 0.3439(3)
H3 H 0.25070 0.94510 0.35620
C8 C 0.0740(6) 1.1751(7) 0.0778(3)
C9 C 0.1308(5) 1.1653(6) 0.1277(3)
C10 C 0.1891(6) 1.2337(6) 0.1413(3)
H4 H 0.19420 1.28660 0.11720
C11 C 0.2435(6) 1.2306(6) 0.1899(3)
H5 H 0.28540 1.27770 0.19790
C12 C 0.2303(5) 1.1572(6) 0.2221(3)
C13 C 0.1724(6) 1.0846(6) 0.2095(3)
C14 C 0.1214(6) 1.0872(6) 0.1646(3)
H6 H 0.08030 1.03870 0.15750
C15 C 0.1761(6) 1.0026(5) 0.2551(3)
C16 C 0.0908(6) 0.9982(7) 0.2826(4)
H7 H 0.09660 1.01890 0.32140
H8 H 0.06920 0.93310 0.28170
H9 H 0.05010 1.03970 0.26310
C17 C 0.4643(5) 0.6819(6) 0.5915(3)
C18 C 0.4165(5) 0.6868(6) 0.6448(3)
C19 C 0.3951(5) 0.7711(6) 0.6683(3)
H10 H 0.41160 0.82790 0.65010
C20 C 0.3499(6) 0.7766(6) 0.7179(3)
H11 H 0.34310 0.83570 0.73610
C21 C 0.3158(5) 0.6976(6) 0.7402(3)
C22 C 0.3415(5) 0.6072(6) 0.7182(3)
C23 C 0.3896(5) 0.6044(6) 0.6712(3)
H12 H 0.40530 0.54490 0.65590
C24 C 0.1057(6) 0.5725(6) 0.9193(3)
C25 C 0.1615(5) 0.6081(6) 0.8727(3)
C26 C 0.1672(6) 0.7068(6) 0.8655(4)
H13 H 0.13560 0.74830 0.88890
C27 C 0.2199(6) 0.7428(6) 0.8236(3)
H14 H 0.22460 0.80900 0.81790
C28 C 0.2656(5) 0.6795(6) 0.7898(3)
C29 C 0.2536(5) 0.5837(6) 0.7948(3)
C30 C 0.2022(5) 0.5483(6) 0.8387(3)
H15 H 0.19670 0.48200 0.84400
C31 C 0.2973(6) 0.5304(6) 0.7516(3)
C32 C 0.3636(6) 0.4543(7) 0.7700(3)
H16 H 0.33290 0.39980 0.78540
H17 H 0.40220 0.48090 0.79830
H18 H 0.39760 0.43420 0.73780
Eu1 Eu 0.44398(3) 0.87368(3) 0.508454(17)
Eu2 Eu 0.50000 0.50000 0.50000
N1 N 0.2564(5) 0.7509(6) 0.5225(3)
O1 O 0.3390(4) 0.9320(4) 0.4436(2)
O2 O 0.4374(4) 1.0420(4) 0.4512(2)
O3 O 0.0857(3) 1.2434(4) 0.0468(2)
O4 O 0.0225(5) 1.1122(5) 0.0657(2)
O5 O 0.2027(4) 0.9217(4) 0.2327(2)
H19 H 0.26420 0.91110 0.22500
O6 O 0.4891(3) 0.7576(4) 0.5700(2)
O7 O 0.4768(4) 0.6025(4) 0.5685(2)
O8 O 0.0502(4) 0.6278(4) 0.9401(2)
O9 O 0.1165(4) 0.4848(4) 0.9317(2)
O10 O 0.2364(4) 0.4905(4) 0.7174(2)
H20 H 0.26260 0.45790 0.68680
O11 O 0.3072(3) 0.8087(4) 0.5420(2)
O12 O 0.2034(4) 0.7143(4) 0.5553(2)
O13 O 0.2532(4) 0.7335(4) 0.4729(2)
C33 C 0.7000(6) 0.6749(8) 0.5632(4)
H21 H 0.70020 0.67060 0.60260
C34 C 0.7735(8) 0.7086(7) 0.4818(4)
H22 H 0.80250 0.64740 0.48590
H23 H 0.81390 0.75460 0.46600
H24 H 0.72350 0.70170 0.45700
C35 C 0.7803(6) 0.8321(6) 0.5606(4)
H25 H 0.73620 0.88160 0.55840
H26 H 0.83170 0.85200 0.53980
H27 H 0.79600 0.82120 0.59960
N2 N 0.7450(4) 0.7412(6) 0.5355(3)
O14 O 0.6537(4) 0.6140(4) 0.5302(2)
N3 N 0.2931(4) 0.5067(6) 0.5532(3)
O15 O 0.3032(4) 0.4178(5) 0.5485(2)
O16 O 0.3169(4) 0.5596(4) 0.5172(2)
O17 O 0.2527(3) 0.5379(4) 0.5991(2)
C36 C 0.3935(6) 0.8135(6) 0.1290(4)
C37 C 0.4691(6) 0.7854(7) 0.0997(4)
H28 H 0.49400 0.72920 0.11740
H29 H 0.51150 0.83680 0.10050
H30 H 0.45400 0.77070 0.06100
N4 N 0.3293(6) 0.8373(7) 0.1516(4)
C38 C 0.9287(10) 0.5292(12) 0.4599(6)
H31 H 0.96970 0.47810 0.45230
H32 H 0.87550 0.50250 0.47550
H33 H 0.95430 0.57340 0.48670
C39 C 0.9637(13) 0.6758(13) 0.4111(14)
H34 H 0.98000 0.68610 0.45010
H35 H 0.92940 0.72960 0.39780
H36 H 1.01590 0.66970 0.38850
N5 N 0.9077(11) 0.5813(10) 0.4061(8)
H37 H 0.84960 0.59480 0.40360
H38 H 0.92380 0.54640 0.37560
C40 C 0.4995(6) 0.7374(6) 0.2519(4)
H39 H 0.51630 0.74370 0.21280
H40 H 0.44950 0.69530 0.25480
H41 H 0.54790 0.71100 0.27330
C41 C 0.5415(6) 0.9042(7) 0.2638(4)
H42 H 0.58990 0.89620 0.28980
H43 H 0.51610 0.96710 0.26890
H44 H 0.56230 0.89780 0.22560
N6 N 0.4766(5) 0.8327(5) 0.2747(3)
H45 H 0.42500 0.85190 0.25920
H46 H 0.46880 0.82780 0.31250
O18 O 0.2055(11) 0.6155(10) 0.4602(7)
H47 H 0.16920 0.66030 0.45720
H48 H 0.22040 0.60940 0.49410
O19 O 0.8648(11) 0.8827(10) 0.4485(6)
H49 H 0.91600 0.86430 0.44160
H50 H 0.86570 0.94080 0.45770
O20 O -0.0026(9) 0.9018(12) 0.5623(6)
H51 H 0.00140 0.95620 0.57710
H52 H 0.01670 0.90400 0.52930
O21 O 0.9210(11) 0.3680(13) 0.6812(7)
H53 H 0.89940 0.42320 0.68170
H54 H 0.88760 0.33100 0.66350
O22 O 0.9910(12) 0.1439(13) 0.5592(8)
H55 H 0.97510 0.08990 0.57070
H56 H 0.98230 0.14780 0.52430
C1B C 0.6284(7) -0.0084(6) 0.5750(3)
C2B C 0.6643(5) -0.0533(6) 0.6270(3)
C3B C 0.6315(6) -0.1394(6) 0.6458(4)
H1B H 0.58750 -0.17020 0.62490
C4B C 0.6602(5) -0.1787(6) 0.6918(4)
H2B H 0.63760 -0.23800 0.70330
C5B C 0.7246(5) -0.1338(6) 0.7246(4)
C6B C 0.7575(5) -0.0479(6) 0.7048(3)
C7B C 0.7276(5) -0.0043(6) 0.6561(3)
H3B H 0.74930 0.05490 0.64380
C8B C 0.9260(6) -0.1751(7) 0.9222(3)
C9B C 0.8692(5) -0.1653(6) 0.8723(3)
C10B C 0.8109(6) -0.2337(6) 0.8587(3)
H4B H 0.80580 -0.28660 0.88280
C11B C 0.7565(6) -0.2306(6) 0.8101(3)
H5B H 0.71460 -0.27770 0.80210
C12B C 0.7697(5) -0.1572(6) 0.7779(3)
C13B C 0.8276(6) -0.0846(6) 0.7905(3)
C14B C 0.8786(6) -0.0872(6) 0.8354(3)
H6B H 0.91970 -0.03870 0.84250
C15B C 0.8239(6) -0.0026(5) 0.7449(3)
C16B C 0.9092(6) 0.0018(7) 0.7174(4)
H7B H 0.90340 -0.01890 0.67860
H8B H 0.93080 0.06690 0.71830
H9B H 0.94990 -0.03970 0.73690
C17B C 0.5357(5) 0.3181(6) 0.4085(3)
C18B C 0.5835(5) 0.3132(6) 0.3552(3)
C19B C 0.6049(5) 0.2289(6) 0.3317(3)
H10B H 0.58840 0.17210 0.34990
C20B C 0.6501(6) 0.2234(6) 0.2821(3)
H11B H 0.65690 0.16430 0.26390
C21B C 0.6842(5) 0.3024(6) 0.2598(3)
C22B C 0.6585(5) 0.3928(6) 0.2818(3)
C23B C 0.6104(5) 0.3956(6) 0.3288(3)
H12B H 0.59470 0.45510 0.34410
C24B C 0.8943(6) 0.4275(6) 0.0807(3)
C25B C 0.8385(5) 0.3919(6) 0.1273(3)
C26B C 0.8328(6) 0.2932(6) 0.1345(4)
H13B H 0.86440 0.25170 0.11110
C27B C 0.7801(6) 0.2572(6) 0.1764(3)
H14B H 0.77540 0.19100 0.18210
C28B C 0.7344(5) 0.3205(6) 0.2102(3)
C29B C 0.7464(5) 0.4163(6) 0.2052(3)
C30B C 0.7978(5) 0.4517(6) 0.1613(3)
H15B H 0.80330 0.51800 0.15600
C31B C 0.7027(6) 0.4696(6) 0.2484(3)
C32B C 0.6364(6) 0.5457(7) 0.2300(3)
H16B H 0.66710 0.60020 0.21460
H17B H 0.59780 0.51910 0.20170
H18B H 0.60240 0.56580 0.26220
Eu1B Eu 0.55602(3) 0.12632(3) 0.491546(17)
N1B N 0.7436(5) 0.2491(6) 0.4775(3)
O1B O 0.6610(4) 0.0680(4) 0.5564(2)
O2B O 0.5626(4) -0.0420(4) 0.5488(2)
O3B O 0.9143(3) -0.2434(4) 0.9532(2)
O4B O 0.9775(5) -0.1122(5) 0.9343(2)
O5B O 0.7973(4) 0.0783(4) 0.7673(2)
H19B H 0.73580 0.08890 0.77500
O6B O 0.5109(3) 0.2424(4) 0.4300(2)
O7B O 0.5232(4) 0.3975(4) 0.4315(2)
O8B O 0.9498(4) 0.3722(4) 0.0599(2)
O9B O 0.8835(4) 0.5152(4) 0.0683(2)
O10B O 0.7636(4) 0.5095(4) 0.2826(2)
H20B H 0.73740 0.54210 0.31320
O11B O 0.6928(3) 0.1913(4) 0.4580(2)
O12B O 0.7966(4) 0.2857(4) 0.4447(2)
O13B O 0.7468(4) 0.2665(4) 0.5271(2)
C33B C 0.3000(6) 0.3251(8) 0.4368(4)
H21B H 0.29980 0.32940 0.39740
C34B C 0.2265(8) 0.2914(7) 0.5182(4)
H22B H 0.19750 0.35260 0.51410
H23B H 0.18610 0.24540 0.53400
H24B H 0.27650 0.29830 0.54300
C35B C 0.2197(6) 0.1679(6) 0.4394(4)
H25B H 0.26380 0.11840 0.44160
H26B H 0.16830 0.14800 0.46020
H27B H 0.20400 0.17880 0.40040
N2B N 0.2550(4) 0.2588(6) 0.4645(3)
O14B O 0.3463(4) 0.3860(4) 0.4698(2)
N3B N 0.7069(4) 0.4933(6) 0.4468(3)
O15B O 0.6968(4) 0.5822(5) 0.4515(2)
O16B O 0.6831(4) 0.4404(4) 0.4828(2)
O17B O 0.7473(3) 0.4621(4) 0.4009(2)
Eu1* Eu 0.44398(3) -0.12632(3) 0.508454(17)
Eu1A Eu 0.05602(3) 0.37368(3) 0.991546(17)
Eu1A* Eu 0.05602(3) 1.37368(3) -0.008454(17)
Eu1A** Eu 1.05602(3) 0.37368(3) -0.008454(17)
Eu1B* Eu 0.55602(3) 1.12632(3) 0.491546(17)
Eu1C Eu -0.05602(3) 0.62632(3) 1.008454(17)
Eu1C* Eu 0.94398(3) -0.37368(3) 1.008454(17)
Eu1C** Eu 0.94398(3) 0.62632(3) 0.008454(17)
Eu2A Eu 0.00000 1.00000 0.00000
Eu2A* Eu 1.00000 0.00000 1.00000
O2* O 0.4374(4) 0.0420(4) 0.4512(2)
O2B* O 0.5626(4) 0.9580(4) 0.5488(2)
O3A O 0.4143(3) 0.7434(4) 0.4532(2)
O3C O 0.5857(3) 0.2566(4) 0.5468(2)
O4A O 0.4775(5) 0.6122(5) 0.4343(2)
O4C O 0.5225(5) 0.3878(5) 0.5657(2)
O8A O 0.4498(4) 0.1278(4) 0.5599(2)
O8C O 0.5502(4) 0.8722(4) 0.4401(2)
O9A O 0.3835(4) 0.9848(4) 0.5683(2)
O9C O 0.6165(4) 0.0152(4) 0.4317(2)
#END
