
#######################################################################
#
#                 Cambridge Crystallographic Data Centre
#                                CCDC
#
#######################################################################
#
# If this CIF has been generated from an entry in the Cambridge
# Structural Database, then it will include bibliographic, chemical,
# crystal, experimental, refinement or atomic coordinate data resulting
# from the CCDC's data processing and validation procedures.
#
#######################################################################

data_CSD_CIF_MOWNUI
_audit_creation_date 2009-09-28
_audit_creation_method CSD-ConQuest-V1
_database_code_CSD MOWNUI
_database_code_depnum_ccdc_archive 'CCDC 684933'
_chemical_formula_sum 'C30 H26 Ag2 N2 O4'
_chemical_formula_moiety
;
(C14 H18 Ag1 N2 1+)n,n(C16 H8 Ag1 O4 1-)
;
_journal_coden_Cambridge 29
_journal_volume 635
_journal_year 2009
_journal_page_first 523
_journal_name_full 'Z.Anorg.Allg.Chem. '
loop_
_publ_author_name
"Chun-Sen Liu"
"Jun-Jie Wang"
"Ze Chang"
"Li-Fen Yan"
"Tong-Liang Hu"
_chemical_name_systematic
;
catena-[bis(2,6-Dimethylpyridine-N)-silver(i) 
(\m~2~-anthracene-9,10-dicarboxylato-O,O')-silver(i)]
;
_cell_volume   2564.510
_exptl_crystal_colour 'yellow'
_exptl_crystal_density_diffrn 1.798
_exptl_special_details
;
blue luminescent emission
The deposited cif reports a diffraction temperature of 273 K. The authors 
report an intermolecular C-H...Ag interaction between the silver atom in the 
anionic chain and a hydrogen atom from the anthracene moiety of a 
neighbouring chain. The authors consider this weak intermolecular interaction 
as a special case of hydrogen bonding
;
_exptl_crystal_description 'block'
_diffrn_ambient_temperature 293
#These two values have been output from a single CSD field.
_refine_ls_R_factor_gt 0.0519
_refine_ls_wR_factor_gt 0.0519
_symmetry_cell_setting monoclinic
_symmetry_space_group_name_H-M 'C 2/c'
_symmetry_Int_Tables_number 15
loop_
_symmetry_equiv_pos_site_id
_symmetry_equiv_pos_as_xyz
1 x,y,z
2 -x,y,1/2-z
3 1/2+x,1/2+y,z
4 1/2-x,1/2+y,1/2-z
5 -x,-y,-z
6 x,-y,-1/2+z
7 -1/2-x,-1/2-y,-z
8 -1/2+x,-1/2-y,-1/2+z
_cell_length_a 14.4293(6)
_cell_length_b 10.8416(5)
_cell_length_c 16.3967(8)
_cell_angle_alpha 90
_cell_angle_beta 91.171(2)
_cell_angle_gamma 90
_cell_formula_units_Z 4
loop_
_atom_type_symbol
_atom_type_radius_bond
C 0.68
H 0.23
Ag 1.45
N 0.68
O 0.68
loop_
_atom_site_label
_atom_site_type_symbol
_atom_site_fract_x
_atom_site_fract_y
_atom_site_fract_z
Ag1 Ag 0.00000 0.14609(9) 0.25000
Ag2 Ag 0.00000 0.50000 0.50000
C1 C 0.1005(4) 0.2135(5) 0.1191(3)
C2 C 0.1782(4) 0.2339(5) 0.0568(3)
C3 C 0.1620(3) 0.2063(5) -0.0260(3)
C4 C 0.0746(4) 0.1595(6) -0.0547(4)
H1 H 0.02650 0.14880 -0.01850
C5 C 0.0616(5) 0.1303(6) -0.1352(4)
H2 H 0.00440 0.10040 -0.15340
C6 C 0.1324(5) 0.1448(6) -0.1903(4)
H3 H 0.12180 0.12420 -0.24470
C7 C 0.2651(4) 0.2777(5) 0.0833(3)
C8 C 0.2164(5) 0.1881(6) -0.1667(3)
H4 H 0.26280 0.19590 -0.20490
C9 C -0.1667(4) 0.5877(5) 0.3966(4)
C10 C -0.2563(5) 0.6213(6) 0.3787(4)
H5 H -0.27340 0.64050 0.32520
C11 C -0.3206(4) 0.6269(6) 0.4381(5)
H6 H -0.38150 0.64920 0.42550
C12 C -0.2943(4) 0.5990(6) 0.5172(5)
H7 H -0.33700 0.60270 0.55890
C13 C -0.2024(4) 0.5651(5) 0.5339(4)
C14 C -0.1703(5) 0.5363(7) 0.6183(4)
H8 H -0.10580 0.51460 0.61820
H9 H -0.20560 0.46840 0.63900
H10 H -0.17890 0.60720 0.65240
C15 C -0.0937(5) 0.5788(7) 0.3325(4)
H11 H -0.03590 0.55380 0.35740
H12 H -0.08620 0.65780 0.30700
H13 H -0.11240 0.51910 0.29210
N1 N -0.1402(3) 0.5604(4) 0.4741(3)
O1 O 0.0333(3) 0.2806(5) 0.1148(3)
O2 O 0.1150(3) 0.1292(5) 0.1686(3)
Ag1F Ag 0.50000 0.35391(9) -0.25000
C1F C 0.3995(4) 0.2865(5) -0.1191(3)
C2F C 0.3218(4) 0.2661(5) -0.0568(3)
C3F C 0.3380(3) 0.2937(5) 0.0260(3)
C4F C 0.4254(4) 0.3405(6) 0.0547(4)
H1F H 0.47350 0.35120 0.01850
C5F C 0.4384(5) 0.3697(6) 0.1352(4)
H2F H 0.49560 0.39960 0.15340
C6F C 0.3676(5) 0.3552(6) 0.1903(4)
H3F H 0.37820 0.37580 0.24470
C7F C 0.2349(4) 0.2223(5) -0.0833(3)
C8F C 0.2836(5) 0.3119(6) 0.1667(3)
H4F H 0.23720 0.30410 0.20490
C9D C 0.1667(4) 0.4123(5) 0.6034(4)
C10D C 0.2563(5) 0.3787(6) 0.6213(4)
H5D H 0.27340 0.35950 0.67480
C11D C 0.3206(4) 0.3731(6) 0.5619(5)
H6D H 0.38150 0.35080 0.57450
C12D C 0.2943(4) 0.4010(6) 0.4828(5)
H7D H 0.33700 0.39730 0.44110
C13D C 0.2024(4) 0.4349(5) 0.4661(4)
C14D C 0.1703(5) 0.4637(7) 0.3817(4)
H8D H 0.10580 0.48540 0.38180
H9D H 0.20560 0.53160 0.36100
H10D H 0.17890 0.39280 0.34760
C15D C 0.0937(5) 0.4212(7) 0.6675(4)
H11D H 0.03590 0.44620 0.64260
H12D H 0.08620 0.34220 0.69300
H13D H 0.11240 0.48090 0.70790
N1D N 0.1402(3) 0.4396(4) 0.5259(3)
O1F O 0.4667(3) 0.2194(5) -0.1148(3)
O2F O 0.3850(3) 0.3708(5) -0.1686(3)
O2A O -0.1150(3) 0.1292(5) 0.3314(3)
#END
