
#######################################################################
#
#                 Cambridge Crystallographic Data Centre
#                                CCDC
#
#######################################################################
#
# If this CIF has been generated from an entry in the Cambridge
# Structural Database, then it will include bibliographic, chemical,
# crystal, experimental, refinement or atomic coordinate data resulting
# from the CCDC's data processing and validation procedures.
#
#######################################################################

data_CSD_CIF_MOWQIZ
_audit_creation_date 2009-09-28
_audit_creation_method CSD-ConQuest-V1
_database_code_CSD MOWQIZ
_database_code_depnum_ccdc_archive 'CCDC 695257'
_chemical_formula_sum 'C20 H48 N4 Nd4 O42 S4'
_chemical_formula_moiety
;
(C6 H14 N2 2+)2n,n(C8 H16 Nd4 O40 S4 4-),2n(H2 O1)
;
_journal_coden_Cambridge 29
_journal_volume 635
_journal_year 2009
_journal_page_first 558
_journal_name_full 'Z.Anorg.Allg.Chem. '
loop_
_publ_author_name
"Ning Xu"
"Yan Xing"
"Xianchun Liu"
"Danhui Song"
"Ling Ma"
"Xiujuan Sun"
_chemical_name_systematic
;
catena-[bis(1,4-Diazoniabicyclo[2.2.2]octane) 
tetrakis(\m~2~-oxalato-O,O',O'',O''')-tetrakis(\m~2~-sulfato-O,O',O'')-octa-aq
ua-tetra-neodymium(iii) dihydrate]
;
_cell_volume   2256.048
_exptl_crystal_colour 'pink'
_exptl_crystal_density_diffrn 2.535
_exptl_special_details
;
luminescent

;
_exptl_crystal_description 'block'
_diffrn_ambient_temperature 293
#These two values have been output from a single CSD field.
_refine_ls_R_factor_gt 0.0374
_refine_ls_wR_factor_gt 0.0374
_symmetry_cell_setting monoclinic
_symmetry_space_group_name_H-M 'P 21/c'
_symmetry_Int_Tables_number 14
loop_
_symmetry_equiv_pos_site_id
_symmetry_equiv_pos_as_xyz
1 x,y,z
2 -x,1/2+y,1/2-z
3 -x,-y,-z
4 x,-1/2-y,-1/2+z
_cell_length_a 8.523(5)
_cell_length_b 28.628(5)
_cell_length_c 9.306(5)
_cell_angle_alpha 90
_cell_angle_beta 96.497(5)
_cell_angle_gamma 90
_cell_formula_units_Z 2
loop_
_atom_type_symbol
_atom_type_radius_bond
C 0.68
H 0.23
N 0.68
Nd 1.73
O 0.68
S 1.02
loop_
_atom_site_label
_atom_site_type_symbol
_atom_site_fract_x
_atom_site_fract_y
_atom_site_fract_z
C1 C 0.2331(6) 0.24424(16) 0.6021(6)
C2 C 0.3879(6) 0.26479(16) 0.6778(6)
C3 C 1.0334(6) 0.02549(16) 0.5051(6)
C4 C 1.0331(6) 0.02505(15) 1.0001(6)
C5 C 1.0945(7) -0.1566(2) 0.5363(7)
H1 H 1.13650 -0.12970 0.49020
H2 H 1.02340 -0.17310 0.46490
C6 C 1.2294(10) -0.1890(3) 0.5979(8)
H3 H 1.20050 -0.22130 0.57870
H4 H 1.32420 -0.18220 0.55300
C7 C 1.1271(8) -0.2011(2) 0.8256(7)
H5 H 1.13720 -0.19250 0.92710
H6 H 1.13000 -0.23490 0.81900
C8 C 0.9717(7) -0.1827(2) 0.7495(7)
H7 H 0.91910 -0.20690 0.68880
H8 H 0.90240 -0.17330 0.82020
C9 C 1.1101(8) -0.10813(19) 0.7515(7)
H9 H 1.11730 -0.07860 0.70140
H10 H 1.06440 -0.10230 0.84070
C10 C 1.2706(8) -0.1291(2) 0.7842(8)
H11 H 1.31050 -0.12340 0.88450
H12 H 1.34290 -0.11500 0.72340
O1 O 0.1740(5) 0.21034(13) 0.6616(4)
O2 O 0.4350(5) 0.24997(12) 0.8004(4)
O3 O 0.1733(5) 0.26405(12) 0.4879(4)
O4 O 0.4540(5) 0.29508(12) 0.6081(4)
O5 O 1.1212(5) 0.03761(12) 0.4130(4)
O6 O 1.1454(5) 0.03445(12) 1.0936(4)
O7 O 0.9883(4) 0.05059(12) 0.6045(4)
O8 O 0.9678(5) 0.05261(12) 0.9073(4)
N1 N 1.2580(6) -0.18072(17) 0.7559(6)
H13 H 1.35000 -0.19480 0.79150
N2 N 1.0089(6) -0.14142(16) 0.6588(5)
H14 H 0.91750 -0.12700 0.62370
O9 O 0.4487(5) 0.03309(12) 0.6460(4)
O10 O 0.5551(4) -0.04040(12) 0.7148(4)
O11 O 0.3297(6) 0.12630(16) 0.3957(5)
O12 O 0.3163(5) -0.03771(13) 0.5475(4)
O13 O 0.3028(5) -0.01738(14) 0.7931(4)
O14 O 0.5939(5) 0.14764(14) 0.8956(4)
O15 O 0.4987(5) 0.16504(13) 0.6540(4)
O16 O 0.7650(5) 0.18906(13) 0.7481(5)
O17 O 0.7105(5) 0.10822(12) 0.7047(4)
O18 O 0.6164(6) 0.04275(14) 0.9343(4)
O19 O 0.3164(6) 0.11598(15) 1.0731(5)
O20 O 0.2629(5) 0.09940(15) 0.7445(6)
O21 O 0.0396(5) 0.14877(13) 0.8838(5)
S1 S 0.40176(15) -0.01582(4) 0.67652(13)
S2 S 0.64471(15) 0.15272(4) 0.74903(14)
Nd1 Nd 0.74752(3) 0.024796(8) 0.71568(3)
Nd2 Nd 0.31929(3) 0.173873(8) 0.87168(3)
H15 H 0.279(7) 0.0884(10) 1.074(5)
H16 H 0.353(7) 0.1209(16) 1.161(3)
H17 H 0.374(7) 0.1340(16) 0.478(4)
H18 H 0.344(7) 0.0973(8) 0.388(5)
H19 H 0.632(7) 0.0302(15) 1.018(3)
H20 H 0.586(7) 0.0696(9) 0.945(5)
H21 H 0.171(3) 0.0859(11) 0.723(6)
H22 H 0.325(3) 0.0773(10) 0.723(6)
H23 H 0.010(6) 0.1206(8) 0.887(6)
H24 H -0.038(5) 0.1631(14) 0.839(6)
C1C C 0.2331(6) 0.25576(16) 1.1021(6)
C2C C 0.3879(6) 0.23521(16) 1.1778(6)
C3B C 0.9666(6) -0.02549(16) 0.4949(6)
C4B C 0.9669(6) -0.02505(15) 0.9999(6)
O1C O 0.1740(5) 0.28966(13) 1.1616(4)
O2C O 0.4350(5) 0.25003(12) 1.3004(4)
O3C O 0.1733(5) 0.23595(12) 0.9879(4)
O3* O 0.1733(5) 0.26405(12) 1.4879(4)
O4C O 0.4540(5) 0.20492(12) 1.1081(4)
O4* O 0.4540(5) 0.29508(12) 1.6081(4)
O5B O 0.8788(5) -0.03761(12) 0.5870(4)
O6B O 0.8546(5) -0.03445(12) 0.9064(4)
O6* O 1.1454(5) 0.03445(12) 0.0936(4)
O7B O 1.0117(4) -0.05059(12) 0.3955(4)
O8B O 1.0322(5) -0.05261(12) 1.0927(4)
O8B* O 1.0322(5) -0.05261(12) 0.0927(4)
O9B O 0.5513(5) -0.03309(12) 0.3540(4)
O9B* O 1.5513(5) -0.03309(12) 0.3540(4)
O10B O 0.4449(4) 0.04040(12) 0.2852(4)
O10B* O 1.4449(4) 0.04040(12) 0.2852(4)
O12B O 0.6837(5) 0.03771(13) 0.4525(4)
O12* O 1.3163(5) -0.03771(13) 0.5475(4)
O13B O 0.6972(5) 0.01738(14) 0.2069(4)
O14B O 1.4061(5) -0.14764(14) 0.1044(4)
O14C O 0.5939(5) 0.35236(14) 1.3956(4)
O15B O 1.5013(5) -0.16504(13) 0.3460(4)
O15C O 0.4987(5) 0.33496(13) 1.1540(4)
O16B O 1.2350(5) -0.18906(13) 0.2519(5)
O17B O 1.2895(5) -0.10822(12) 0.2953(4)
O18B O 1.3836(6) -0.04275(14) 0.0657(4)
O19C O 0.3164(6) 0.38402(15) 1.5731(5)
O20C O 0.2629(5) 0.40060(15) 1.2445(6)
O21C O 0.0396(5) 0.35123(13) 1.3838(5)
S1B S 0.59824(15) 0.01582(4) 0.32348(13)
S2B S 1.35529(15) -0.15272(4) 0.25097(14)
Nd1B Nd 1.25248(3) -0.024796(8) 0.28432(3)
Nd1B* Nd 1.25248(3) -0.024796(8) 1.28432(3)
Nd1B** Nd 0.25248(3) -0.024796(8) 0.28432(3)
Nd2C Nd 0.31929(3) 0.326127(8) 1.37168(3)
Nd2C* Nd 0.31929(3) 0.326127(8) 0.37168(3)
Nd2B Nd 1.68071(3) -0.173873(8) 0.12832(3)
H15C H 0.279(7) 0.4116(10) 1.574(5)
H16C H 0.353(7) 0.3791(16) 1.661(3)
H19B H 1.368(7) -0.0302(15) -0.018(3)
H20B H 1.414(7) -0.0696(9) 0.055(5)
H21C H 0.171(3) 0.4141(11) 1.223(6)
H22C H 0.325(3) 0.4227(10) 1.223(6)
H23C H 0.010(6) 0.3794(8) 1.387(6)
H24C H -0.038(5) 0.3369(14) 1.339(6)
#END
