
#######################################################################
#
#                 Cambridge Crystallographic Data Centre
#                                CCDC
#
#######################################################################
#
# If this CIF has been generated from an entry in the Cambridge
# Structural Database, then it will include bibliographic, chemical,
# crystal, experimental, refinement or atomic coordinate data resulting
# from the CCDC's data processing and validation procedures.
#
#######################################################################

data_CSD_CIF_MOXDIN01
_audit_creation_date 2009-09-28
_audit_creation_method CSD-ConQuest-V1
_database_code_CSD MOXDIN01
_database_code_depnum_ccdc_archive 'CCDC 692474'
_chemical_formula_sum 'C42 H46 Co3 N4 O18'
_chemical_formula_moiety
;
(C2 H8 N1 1+)2n,n(C32 H16 Co3 O16 2-),2n(C3 H7 N1 O1)
;
_journal_coden_Cambridge 1147
_journal_volume 9
_journal_year 2009
_journal_page_first 1066
_journal_name_full 'Cryst.Growth Des. '
loop_
_publ_author_name
"Feng Luo"
"Yun-xia Che"
"Ji-min Zheng"
_chemical_name_systematic
;
catena-[bis(Dimethylammonium) 
bis(\m~4~-1,4-benzenedicarboxylato-O,O',O'',O''')-(\m~4~-1,4-benzenedicarboxyl
ato-O,O,O',O')-(\m~2~-1,4-benzenedicarboxylato-O,O')-tri-cobalt(ii) 
dimethylformamide solvate]
;
_chemical_name_common
;
catena-[bis(N-Methylmethanaminium) 
bis(mu!4$-terephthalato-O,O',O'',O''')-(mu!4$-terephthalato-O,O,O',O')-(mu!2$-
terephthalato-O,O')-tri-cobalt(ii) dimethylformamide solvate]
;
_cell_volume   5893.545
_exptl_crystal_colour 'purple'
_exptl_special_details
;
magnetic properties

;
_exptl_crystal_description 'block'
_diffrn_ambient_temperature 113
_refine_special_details
;
The SQUEEZE/PLATON program has been used to model the dimethylammonium 
cations and dimethylformamide solvent molecules. Two voids of 1643 A$3! were 
each found to contain 374.5 electrons. We calculate the structure contains 
32% void space.
;
#These two values have been output from a single CSD field.
_refine_ls_R_factor_gt 0.0634
_refine_ls_wR_factor_gt 0.0634
_symmetry_cell_setting monoclinic
_symmetry_space_group_name_H-M 'C 2/c'
_symmetry_Int_Tables_number 15
loop_
_symmetry_equiv_pos_site_id
_symmetry_equiv_pos_as_xyz
1 x,y,z
2 -x,y,1/2-z
3 1/2+x,1/2+y,z
4 1/2-x,1/2+y,1/2-z
5 -x,-y,-z
6 x,-y,-1/2+z
7 -1/2-x,-1/2-y,-z
8 -1/2+x,-1/2-y,-1/2+z
_cell_length_a 32.997(7)
_cell_length_b 9.7187(19)
_cell_length_c 18.392(4)
_cell_angle_alpha 90
_cell_angle_beta 92.25(3)
_cell_angle_gamma 90
_cell_formula_units_Z 4
loop_
_atom_type_symbol
_atom_type_radius_bond
C 0.68
H 0.23
Co 1.26
O 0.68
loop_
_atom_site_label
_atom_site_type_symbol
_atom_site_fract_x
_atom_site_fract_y
_atom_site_fract_z
C1 C 0.19313(9) 0.1543(3) 0.37421(17)
C2 C 0.19053(10) 0.0771(4) 0.30302(17)
C3 C 0.15384(10) 0.0266(4) 0.27549(18)
H1 H 0.13000 0.03770 0.30210
C4 C 0.22539(10) 0.0612(4) 0.26368(19)
H2 H 0.25050 0.09660 0.28230
C5 C 0.2234(1) -0.0073(4) 0.19642(19)
H3 H 0.24720 -0.01880 0.16950
C6 C 0.18639(10) -0.0581(3) 0.16954(18)
C7 C 0.18474(10) -0.1308(3) 0.09787(17)
C8 C 0.29653(10) 0.0083(3) 0.04097(18)
C9 C 0.27161(10) 0.1339(3) 0.01948(18)
C10 C 0.25276(10) 0.1418(3) -0.04855(18)
H4 H 0.25500 0.06750 -0.08170
C11 C 0.26939(11) 0.2427(3) 0.0689(2)
H5 H 0.28280 0.23740 0.11540
C12 C 0.42062(12) -0.1230(4) 0.0124(2)
C13 C 0.46229(10) -0.0584(4) 0.0050(2)
C14 C 0.46562(12) 0.0769(5) -0.0073(3)
H6 H 0.44200 0.13280 -0.01150
C15 C 0.49533(14) -0.1362(5) 0.0138(3)
H7 H 0.49280 -0.23140 0.02460
C16 C 0.15209(11) -0.0399(4) 0.20934(19)
H8 H 0.12680 -0.07410 0.19060
Co1 Co 0.152290(12) -0.30032(4) -0.01291(2)
Co2 Co 0.25000 -0.25000 0.00000
O1 O 0.21434(7) -0.1175(2) 0.05675(12)
O2 O 0.15282(7) -0.1980(3) 0.08172(13)
O3 O 0.22735(7) 0.1844(2) 0.40013(12)
O4 O 0.15941(7) 0.1806(2) 0.40293(12)
O5 O 0.39012(9) -0.0501(3) 0.00420(18)
O6 O 0.41729(12) -0.2428(4) 0.0286(3)
O7 O 0.29609(6) -0.0930(2) -0.00492(12)
O8 O 0.31721(8) 0.0074(3) 0.09853(15)
C1F C 0.30687(9) -0.6543(3) -0.37421(17)
C2F C 0.30947(10) -0.5771(4) -0.30302(17)
C3F C 0.34616(10) -0.5266(4) -0.27549(18)
H1F H 0.37000 -0.53770 -0.30210
C4F C 0.27461(10) -0.5612(4) -0.26368(19)
H2F H 0.24950 -0.59660 -0.28230
C5F C 0.2766(1) -0.4927(4) -0.19642(19)
H3F H 0.25280 -0.48120 -0.16950
C6F C 0.31361(10) -0.4419(3) -0.16954(18)
C7F C 0.31526(10) -0.3692(3) -0.09787(17)
C8F C 0.20347(10) 0.4917(3) -0.04097(18)
C9F C 0.22839(10) 0.3661(3) -0.01948(18)
C10F C 0.24724(10) 0.3582(3) 0.04855(18)
H4F H 0.24500 0.43250 0.08170
C11F C 0.23061(11) 0.2573(3) -0.0689(2)
H5F H 0.21720 0.26260 -0.11540
C12D C 0.57938(12) 0.1230(4) -0.0124(2)
C13D C 0.53771(10) 0.0584(4) -0.0050(2)
C14D C 0.53438(12) -0.0769(5) 0.0073(3)
H6D H 0.55800 -0.13280 0.01150
C15D C 0.50467(14) 0.1362(5) -0.0138(3)
H7D H 0.50720 0.23140 -0.02460
C16F C 0.34791(11) -0.4601(4) -0.20934(19)
H8F H 0.37320 -0.42590 -0.19060
Co1F Co 0.347710(12) -0.19968(4) 0.01291(2)
Co1E Co 0.152290(12) 0.30032(4) 0.48709(2)
Co1C Co 0.347710(12) -0.80032(4) -0.48709(2)
Co1* Co 0.152290(12) 0.69968(4) -0.01291(2)
Co1B Co 0.652290(12) 0.19968(4) -0.01291(2)
Co2C Co 0.25000 0.25000 0.50000
Co2C* Co 0.25000 -0.75000 -0.50000
Co2* Co 0.25000 0.75000 0.00000
O1F O 0.28566(7) -0.3825(2) -0.05675(12)
O2F O 0.34718(7) -0.3020(3) -0.08172(13)
O3F O 0.27265(7) -0.6844(2) -0.40013(12)
O3C O 0.27265(7) -0.3156(2) 0.09987(12)
O3E O 0.22735(7) -0.1844(2) -0.09987(12)
O4F O 0.34059(7) -0.6806(2) -0.40293(12)
O4C O 0.34059(7) -0.3194(2) 0.09707(12)
O4E O 0.15941(7) -0.1806(2) -0.09707(12)
O5F O 0.10988(9) -0.4499(3) -0.00420(18)
O5D O 0.60988(9) 0.0501(3) -0.00420(18)
O6D O 0.58271(12) 0.2428(4) -0.0286(3)
O7F O 0.20391(6) 0.5930(2) 0.00492(12)
O7F* O 0.20391(6) -0.4070(2) 0.00492(12)
O8F O 0.18279(8) 0.4926(3) -0.09853(15)
#END
