
#######################################################################
#
#                 Cambridge Crystallographic Data Centre
#                                CCDC
#
#######################################################################
#
# If this CIF has been generated from an entry in the Cambridge
# Structural Database, then it will include bibliographic, chemical,
# crystal, experimental, refinement or atomic coordinate data resulting
# from the CCDC's data processing and validation procedures.
#
#######################################################################

data_CSD_CIF_MOXDOT
_audit_creation_date 2009-09-28
_audit_creation_method CSD-ConQuest-V1
_database_code_CSD MOXDOT
_database_code_depnum_ccdc_archive 'CCDC 692475'
_chemical_formula_sum 'C66.5 H66.5 Co3 N3.5 O19.5'
_chemical_formula_moiety
;
(C2 H8 N1 1+)2n,n(C56 H32 Co3 O16 2-),2n(C1 H4 O1),1.5n(C3 H7 N1 O1)
;
_journal_coden_Cambridge 1147
_journal_volume 9
_journal_year 2009
_journal_page_first 1066
_journal_name_full 'Cryst.Growth Des. '
loop_
_publ_author_name
"Feng Luo"
"Yun-xia Che"
"Ji-min Zheng"
_chemical_name_systematic
;
catena-[bis(Dimethylammonium) 
tris(\m~4~-4,4'-biphenyldicarboxylato-O,O',O'',O''')-(\m~2~-4,4'-biphenyldicar
boxylato-O,O')-tri-cobalt(ii) dimethylformamide methanol solvate]
;
_cell_volume   8210.288
_exptl_crystal_colour 'purple'
_exptl_special_details
;
magnetic properties
efflorescent

;
_exptl_crystal_description 'block'
_diffrn_ambient_temperature 294
_refine_special_details
;
The dimethylformamide solvent is disordered and was not modelled from the 
diffraction data. Its presence was confirmed from elemental and 
thermogravimetic analysis. We calculate the structure contains 13% void 
space. The authors state the cations and solvent molecules are badly 
disordered, which results in large R1 and wR2 values.
;
#These two values have been output from a single CSD field.
_refine_ls_R_factor_gt 0.2256
_refine_ls_wR_factor_gt 0.2256
_symmetry_cell_setting monoclinic
_symmetry_space_group_name_H-M 'P 2/c'
_symmetry_Int_Tables_number 13
loop_
_symmetry_equiv_pos_site_id
_symmetry_equiv_pos_as_xyz
1 x,y,z
2 -x,y,1/2-z
3 -x,-y,-z
4 x,-y,-1/2+z
_cell_length_a 22.55(1)
_cell_length_b 14.187(7)
_cell_length_c 25.681(12)
_cell_angle_alpha 90
_cell_angle_beta 92.096(9)
_cell_angle_gamma 90
_cell_formula_units_Z 4
loop_
_atom_type_symbol
_atom_type_radius_bond
C 0.68
H 0.23
Co 1.26
N 0.68
O 0.68
loop_
_atom_site_label
_atom_site_type_symbol
_atom_site_fract_x
_atom_site_fract_y
_atom_site_fract_z
C1 C -0.027996(8) 0.704146(14) 0.061763(7)
C2 C -0.130949(2) 0.689241(4) 0.023231(3)
H1 H -0.11600 0.66470 -0.00720
C3 C -0.191597(2) 0.704139(4) 0.026728(3)
H2 H -0.21720 0.68960 -0.00140
C4 C -0.214013(2) 0.740755(5) 0.072197(3)
C5 C -0.175782(3) 0.762474(7) 0.114170(3)
H3 H -0.19080 0.78700 0.14460
C6 C -0.115134(3) 0.747576(7) 0.110674(3)
H4 H -0.08960 0.76210 0.13880
C7 C -0.092717(2) 0.710960(5) 0.065204(3)
C8 C -0.403721(3) 0.789912(8) 0.067334(5)
C9 C -0.370584(2) 0.808180(6) 0.023876(5)
H5 H -0.38910 0.83130 -0.00640
C10 C -0.309764(2) 0.791852(5) 0.025740(4)
H6 H -0.28760 0.80410 -0.00330
C11 C -0.282082(2) 0.757261(6) 0.071062(4)
C12 C -0.315219(3) 0.738994(8) 0.114522(4)
H7 H -0.29670 0.71580 0.14480
C13 C -0.376038(3) 0.755319(9) 0.112659(5)
H8 H -0.39820 0.74310 0.14170
C14 C -0.471837(4) 0.788161(16) 0.065865(10)
C15 C 0.154580(6) 1.174360(11) 0.516290(5)
C16 C 0.154910(2) 1.123420(4) 0.464080(2)
C17 C 0.202760(2) 1.066420(4) 0.452380(2)
H9 H 0.23480 1.06070 0.47600
C18 C 0.202710(3) 1.017910(4) 0.405350(2)
H10 H 0.23470 0.97980 0.39750
C19 C 0.154820(3) 1.026400(4) 0.370030(2)
C20 C 0.106970(3) 1.083400(5) 0.381730(2)
H11 H 0.07490 1.08910 0.35810
C21 C 0.107020(2) 1.131910(4) 0.428760(2)
H12 H 0.07500 1.17010 0.43660
C22 C 0.156090(4) 0.970750(5) 0.321630(2)
C23 C 0.209740(4) 0.961600(6) 0.293640(2)
H13 H 0.24400 0.98930 0.30790
C24 C 0.213750(5) 0.915770(7) 0.248230(3)
H14 H 0.25000 0.90990 0.23250
C25 C 0.159990(6) 0.875430(7) 0.224160(3)
C26 C 0.106390(5) 0.890250(7) 0.248280(3)
H15 H 0.07170 0.86720 0.23220
C27 C 0.102470(4) 0.939630(6) 0.296940(2)
H16 H 0.06600 0.95070 0.31160
C28 C 0.161090(6) 0.821410(11) 0.173270(6)
C29 C 0.350770(6) -0.071770(9) 0.104540(6)
C30 C 0.321820(2) 0.024920(3) 0.111730(2)
C31 C 0.355690(2) 0.104330(3) 0.123870(2)
H17 H 0.39640 0.09870 0.12990
C32 C 0.328640(2) 0.192090(3) 0.126930(2)
H18 H 0.35130 0.24520 0.13510
C33 C 0.267720(2) 0.200450(3) 0.117850(2)
C34 C 0.233850(2) 0.121050(3) 0.105710(3)
H19 H 0.19310 0.12660 0.09960
C35 C 0.260900(2) 0.033290(3) 0.102650(2)
H20 H 0.23820 -0.01980 0.09450
C36 C 0.240050(3) 0.298720(3) 0.116110(3)
C37 C 0.272300(3) 0.376030(3) 0.101840(3)
H21 H 0.31230 0.36850 0.09530
C38 C 0.246560(4) 0.467060(3) 0.096710(4)
H22 H 0.26870 0.51850 0.08620
C39 C 0.189020(4) 0.476220(4) 0.107650(4)
C40 C 0.158250(3) 0.397010(4) 0.122800(5)
H23 H 0.11850 0.40440 0.13030
C41 C 0.181960(3) 0.308940(4) 0.127480(4)
H24 H 0.15940 0.25800 0.13800
C42 C 0.157660(6) 0.569780(9) 0.101680(6)
C43 C 0.354670(6) -0.66985(1) -0.328760(5)
C44 C 0.354880(2) -0.616510(4) -0.276850(2)
C45 C 0.405470(2) -0.608800(4) -0.244550(2)
H25 H 0.44090 -0.63590 -0.25440
C46 C 0.403090(3) -0.560610(4) -0.197550(2)
H26 H 0.43690 -0.55540 -0.17590
C47 C 0.350120(3) -0.520120(4) -0.182840(2)
C48 C 0.299530(3) -0.527840(4) -0.215140(2)
H27 H 0.26410 -0.50080 -0.20530
C49 C 0.301910(2) -0.576030(4) -0.262140(2)
H28 H 0.26810 -0.58120 -0.28380
C50 C 0.348250(4) -0.465390(5) -0.132870(2)
C51 C 0.297650(4) -0.468800(6) -0.103240(2)
H29 H 0.26410 -0.50160 -0.11510
C52 C 0.298610(5) -0.422570(7) -0.056170(2)
H30 H 0.26530 -0.42690 -0.03590
C53 C 0.346000(5) -0.370290(7) -0.037350(2)
C54 C 0.391810(5) -0.364810(6) -0.068980(3)
H31 H 0.42400 -0.32780 -0.05830
C55 C 0.394610(4) -0.411140(5) -0.117290(2)
H32 H 0.42750 -0.40450 -0.13780
C56 C 0.342080(6) -0.31542(1) 0.013030(5)
Co1 Co 0.091617(1) 0.716760(1) 0.092755(1)
Co2 Co 0.414710(1) -0.217220(1) 0.095610(1)
Co3 Co 0.253030(1) -0.250130(1) 0.095270(1)
O1 O 0.320630(4) -0.143230(7) 0.097420(4)
O2 O 0.405730(4) -0.074630(7) 0.107570(4)
O3 O 0.185770(5) 0.640410(6) 0.091110(4)
O4 O 0.102960(5) 0.575890(7) 0.104280(5)
O5 O 0.208880(5) 0.80370(1) 0.157960(4)
O6 O 0.112130(4) 0.792070(8) 0.156620(4)
O7 O 0.198100(5) 1.163270(8) 0.546990(4)
O8 O 0.109300(4) 1.220510(7) 0.525490(3)
O9 O 0.004307(5) 0.733388(8) 0.097057(4)
O10 O -0.008388(7) 0.655960(13) 0.024123(7)
O11 O 0.399450(4) -0.711180(7) -0.338690(3)
O12 O 0.307860(5) -0.663860(8) -0.356600(4)
O13 O 0.391700(5) -0.279160(8) 0.027050(4)
O14 O 0.296270(5) -0.31091(1) 0.033300(4)
O15 O -0.499073(4) 0.765996(9) 0.097200(5)
O16 O -0.491951(8) 0.851496(17) 0.027680(9)
C57 C 0.464698(7) 0.305058(7) 0.122200(4)
H33 H 0.50050 0.27300 0.11350
H34 H 0.43470 0.25960 0.12990
H35 H 0.47240 0.34430 0.15210
C58 C 0.427387(9) 0.474773(5) 0.076332(9)
H36 H 0.46290 0.51100 0.07250
H37 H 0.41020 0.49000 0.10890
H38 H 0.39960 0.48930 0.04830
N1 N 0.442725(7) 0.367406(6) 0.075133(5)
H39 H 0.47040 0.36120 0.05100
H40 H 0.40990 0.33870 0.06190
O17 O 0.446209(16) 0.91686(3) 0.928141(13)
C59 C 0.392345(18) 0.94930(2) 0.968616(11)
H41 H 0.40850 0.99190 0.99450
H42 H 0.37700 0.89440 0.98540
H43 H 0.36090 0.98000 0.94890
C60 C 0.042538(8) 0.192967(5) 0.101005(9)
H44 H 0.02080 0.18630 0.13220
H45 H 0.01820 0.22410 0.07480
H46 H 0.07760 0.22970 0.10830
O18 O 0.888104(17) 0.44146(2) 0.035447(10)
C61 C 0.948275(13) 0.40665(2) 0.069787(10)
H47 H 0.98270 0.41490 0.04930
H48 H 0.94430 0.34130 0.07880
H49 H 0.95250 0.44370 0.10100
N2 N 0.060477(7) 0.093638(6) 0.080986(6)
H50 H 0.09140 0.10350 0.06050
H51 H 0.03020 0.07490 0.05960
C62 C 0.077615(10) 0.005487(6) 0.114746(7)
H52 H 0.04350 -0.03430 0.11790
H53 H 0.09140 0.02550 0.14880
H54 H 0.10850 -0.02900 0.09840
Co1C Co 0.091617(1) 1.283240(1) 0.592755(1)
Co2C Co 0.414710(1) -0.782780(1) -0.404390(1)
Co2* Co -0.585290(1) 0.782780(1) 0.095610(1)
Co3* Co 0.253030(1) 0.749870(1) 0.095270(1)
Co3C Co 0.253030(1) 1.250130(1) 0.595270(1)
Co3C* Co 0.253030(1) -0.749870(1) -0.404730(1)
O3* O 0.185770(5) -0.359590(6) 0.091110(4)
O5* O 0.208880(5) -0.19630(1) 0.157960(4)
O7C O 0.198100(5) -0.163270(8) 0.046990(4)
O8C O 0.109300(4) 0.779490(7) 0.025490(3)
O11C O 0.399450(4) -0.288820(7) 0.161310(3)
O12C O 0.307860(5) -0.336140(8) 0.143400(4)
O15* O 0.500927(4) -0.234004(9) 0.097200(5)
#END
