
#######################################################################
#
#                 Cambridge Crystallographic Data Centre
#                                CCDC
#
#######################################################################
#
# If this CIF has been generated from an entry in the Cambridge
# Structural Database, then it will include bibliographic, chemical,
# crystal, experimental, refinement or atomic coordinate data resulting
# from the CCDC's data processing and validation procedures.
#
#######################################################################

data_CSD_CIF_MOXDEJ
_audit_creation_date 2009-09-28
_audit_creation_method CSD-ConQuest-V1
_database_code_CSD MOXDEJ
_database_code_depnum_ccdc_archive 'CCDC 642849 (not 642848 as published)'
_chemical_formula_sum 'C36 H34 Co3 N2 O17'
_chemical_formula_moiety
;
(C2 H8 N1 1+)2n,n(C32 H16 Co3 O16 2-),n(H2 O1)
;
_journal_coden_Cambridge 1147
_journal_volume 9
_journal_year 2009
_journal_page_first 1066
_journal_name_full 'Cryst.Growth Des. '
loop_
_publ_author_name
"Feng Luo"
"Yun-xia Che"
"Ji-min Zheng"
_chemical_name_systematic
;
catena-[bis(Dimethylammonium) 
bis(\m~4~-1,3-benzenedicarboxylato-O,O',O'',O''')-bis(\m~3~-1,3-benzenedicarbo
xylato-O,O,O',O'',O''')-tri-cobalt(ii) monohydrate]
;
_chemical_name_common
;
catena-[bis(N-Methylmethanaminiumm) 
bis(mu!4$-isophthalato-O,O',O'',O''')-bis(mu!3$-isophthalato-O,O,O',O'',O''')-
tri-cobalt(ii) monohydrate]
;
_cell_volume   1922.287
_exptl_crystal_colour 'red'
_exptl_crystal_density_diffrn 1.626
_exptl_special_details
;
magnetic properties

;
_exptl_crystal_description 'block'
_diffrn_ambient_temperature 293
#These two values have been output from a single CSD field.
_refine_ls_R_factor_gt 0.0322
_refine_ls_wR_factor_gt 0.0322
_symmetry_cell_setting monoclinic
_symmetry_space_group_name_H-M 'P 21/c'
_symmetry_Int_Tables_number 14
loop_
_symmetry_equiv_pos_site_id
_symmetry_equiv_pos_as_xyz
1 x,y,z
2 -x,1/2+y,1/2-z
3 -x,-y,-z
4 x,-1/2-y,-1/2+z
_cell_length_a 11.586(2)
_cell_length_b 14.543(3)
_cell_length_c 13.117(6)
_cell_angle_alpha 90
_cell_angle_beta 119.57(2)
_cell_angle_gamma 90
_cell_formula_units_Z 2
loop_
_atom_type_symbol
_atom_type_radius_bond
C 0.68
H 0.23
Co 1.26
N 0.68
O 0.68
loop_
_atom_site_label
_atom_site_type_symbol
_atom_site_fract_x
_atom_site_fract_y
_atom_site_fract_z
C1 C -0.0909(2) 0.33652(13) 0.27216(19)
H1 H -0.01090 0.33480 0.27170
C2 C -0.1574(2) 0.47116(13) 0.13606(18)
C3 C -0.3024(2) 0.40696(13) 0.21169(19)
H2 H -0.36530 0.45170 0.16900
C4 C 0.4428(2) -0.09949(14) 0.8157(2)
H3 H 0.49350 -0.09880 0.77850
C5 C -0.2345(2) 0.27613(14) 0.33982(19)
H4 H -0.25180 0.23310 0.38300
C6 C -0.1846(2) 0.40338(12) 0.20815(18)
C7 C 0.3059(2) 0.02504(14) 0.68065(19)
C8 C -0.1164(2) 0.27209(13) 0.33699(18)
C9 C 0.8616(4) 0.7778(3) 0.7951(3)
H5 H 0.93810 0.80380 0.79570
H6 H 0.81220 0.74200 0.72520
H7 H 0.88950 0.73910 0.86250
C10 C 0.8448(5) 0.9124(2) 0.9010(3)
H8 H 0.87310 0.87690 0.97110
H9 H 0.78460 0.95950 0.89690
H10 H 0.92060 0.94030 0.90220
C11 C -0.3266(2) 0.34429(14) 0.2784(2)
H11 H -0.40460 0.34790 0.28200
C12 C 0.5774(2) -0.23303(15) 0.9346(2)
C13 C -0.0169(2) 0.19782(13) 0.40286(17)
C14 C 0.3373(2) -0.03859(14) 0.7800(2)
C15 C 0.4734(2) -0.16130(15) 0.9061(2)
C16 C 0.2945(3) -0.0989(2) 0.9276(3)
H12 H 0.24560 -0.09810 0.96640
C17 C 0.2624(3) -0.03955(18) 0.8356(2)
H13 H 0.19030 -0.00010 0.81090
C18 C 0.3997(3) -0.16002(19) 0.9627(3)
H14 H 0.42050 -0.20020 1.02460
Co1 Co 0.26245(3) 0.136074(17) 0.51884(2)
Co2 Co 0.00000 0.00000 0.50000
N1 N 0.7774(3) 0.85196(16) 0.7980(2)
H15 H 0.74860 0.88620 0.73280
H16 H 0.70590 0.82690 0.79700
O1 O 0.10250(15) 0.21626(10) 0.43430(14)
O2 O -0.06026(15) 0.12532(9) 0.42216(14)
O3 O 0.19003(14) 0.05814(9) 0.62019(13)
O4 O 0.39445(16) 0.04817(12) 0.65792(16)
O5 O -0.06901(16) 0.45327(10) 0.11207(15)
O6 O -0.22684(17) 0.54374(10) 0.10759(15)
O7 O 0.62965(17) -0.24244(11) 0.87086(15)
O8 O 0.60975(17) -0.28639(11) 1.02025(16)
O9 O 0.4856(8) 0.6142(5) 0.1041(6)
C1B C 0.0909(2) -0.33652(13) 0.72784(19)
H1B H 0.01090 -0.33480 0.72830
C2B C 0.1574(2) -0.47116(13) 0.86394(18)
C3B C 0.3024(2) -0.40696(13) 0.78831(19)
H2B H 0.36530 -0.45170 0.83100
C4B C -0.4428(2) 0.09949(14) 0.1843(2)
H3B H -0.49350 0.09880 0.22150
C5B C 0.2345(2) -0.27613(14) 0.66018(19)
H4B H 0.25180 -0.23310 0.61700
C6B C 0.1846(2) -0.40338(12) 0.79185(18)
C7B C -0.3059(2) -0.02504(14) 0.31935(19)
C8B C 0.1164(2) -0.27209(13) 0.66301(18)
C11B C 0.3266(2) -0.34429(14) 0.7216(2)
H11B H 0.40460 -0.34790 0.71800
C12B C -0.5774(2) 0.23303(15) 0.0654(2)
C13B C 0.0169(2) -0.19782(13) 0.59714(17)
C14B C -0.3373(2) 0.03859(14) 0.2200(2)
C15B C -0.4734(2) 0.16130(15) 0.0939(2)
C16B C -0.2945(3) 0.0989(2) 0.0724(3)
H12B H -0.24560 0.09810 0.03360
C17B C -0.2624(3) 0.03955(18) 0.1644(2)
H13B H -0.19030 0.00010 0.18910
C18B C -0.3997(3) 0.16002(19) 0.0373(3)
H14B H -0.42050 0.20020 -0.02460
Co1B Co -0.26245(3) -0.136074(17) 0.48116(2)
Co1A Co -0.26245(3) 0.636074(17) -0.01884(2)
Co1A* Co 0.73755(3) -0.363926(17) 0.98116(2)
Co1C Co 0.26245(3) -0.636074(17) 1.01884(2)
Co1C* Co -0.73755(3) 0.363926(17) 0.01884(2)
Co2A Co 0.00000 0.50000 0.00000
Co2A* Co 0.00000 -0.50000 1.00000
O1B O -0.10250(15) -0.21626(10) 0.56570(14)
O2B O 0.06026(15) -0.12532(9) 0.57784(14)
O3B O -0.19003(14) -0.05814(9) 0.37981(13)
O4B O -0.39445(16) -0.04817(12) 0.34208(16)
O5B O 0.06901(16) -0.45327(10) 0.88793(15)
O5A O 0.06901(16) -0.04673(10) 0.38793(15)
O5C O -0.06901(16) 0.04673(10) 0.61207(15)
O6B O 0.22684(17) -0.54374(10) 0.89241(15)
O6A O 0.22684(17) 0.04374(10) 0.39241(15)
O6C O -0.22684(17) -0.04374(10) 0.60759(15)
O7B O -0.62965(17) 0.24244(11) 0.12914(15)
O7A O 0.37035(17) 0.25756(11) 0.62914(15)
O7C O -0.37035(17) -0.25756(11) 0.37086(15)
O8B O -0.60975(17) 0.28639(11) -0.02025(16)
O8A O 0.39025(17) 0.21361(11) 0.47975(16)
O8C O -0.39025(17) -0.21361(11) 0.52025(16)
#END
