
#######################################################################
#
#                 Cambridge Crystallographic Data Centre
#                                CCDC
#
#######################################################################
#
# If this CIF has been generated from an entry in the Cambridge
# Structural Database, then it will include bibliographic, chemical,
# crystal, experimental, refinement or atomic coordinate data resulting
# from the CCDC's data processing and validation procedures.
#
#######################################################################

data_CSD_CIF_MOXDIN
_audit_creation_date 2009-09-28
_audit_creation_method CSD-ConQuest-V1
_database_code_CSD MOXDIN
_database_code_depnum_ccdc_archive 'CCDC 692473'
_chemical_formula_sum 'C42 H46 Co3 N4 O18'
_chemical_formula_moiety
;
(C2 H8 N1 1+)2n,n(C32 H16 Co3 O16 2-),2n(C3 H7 N1 O1)
;
_journal_coden_Cambridge 1147
_journal_volume 9
_journal_year 2009
_journal_page_first 1066
_journal_name_full 'Cryst.Growth Des. '
loop_
_publ_author_name
"Feng Luo"
"Yun-xia Che"
"Ji-min Zheng"
_chemical_name_systematic
;
catena-[bis(Dimethylammonium) 
bis(\m~4~-1,4-benzenedicarboxylato-O,O',O'',O''')-(\m~4~-1,4-benzenedicarboxyl
ato-O,O,O',O')-(\m~2~-1,4-benzenedicarboxylato-O,O')-tri-cobalt(ii) 
dimethylformamide solvate]
;
_chemical_name_common
;
catena-[bis(N-Methylmethanaminium) 
bis(mu!4$-terephthalato-O,O',O'',O''')-(mu!4$-terephthalato-O,O,O',O')-(mu!2$-
terephthalato-O,O')-tri-cobalt(ii) dimethylformamide solvate]
;
_cell_volume   5893.545
_exptl_crystal_colour 'purple'
_exptl_special_details
;
magnetic properties

;
_exptl_crystal_description 'block'
_diffrn_ambient_temperature 113
_refine_special_details
;
The dimethylammonium cation has one carbon atom disordered over two sites 
with occupancies 0.60:0.40. The authors state the cations and solvent 
molecules are badly disordered, which results in large R1 and wR2 values.
;
#These two values have been output from a single CSD field.
_refine_ls_R_factor_gt 0.1182
_refine_ls_wR_factor_gt 0.1182
_symmetry_cell_setting monoclinic
_symmetry_space_group_name_H-M 'C 2/c'
_symmetry_Int_Tables_number 15
loop_
_symmetry_equiv_pos_site_id
_symmetry_equiv_pos_as_xyz
1 x,y,z
2 -x,y,1/2-z
3 1/2+x,1/2+y,z
4 1/2-x,1/2+y,1/2-z
5 -x,-y,-z
6 x,-y,-1/2+z
7 -1/2-x,-1/2-y,-z
8 -1/2+x,-1/2-y,-1/2+z
_cell_length_a 32.997(7)
_cell_length_b 9.7187(19)
_cell_length_c 18.392(4)
_cell_angle_alpha 90
_cell_angle_beta 92.25(3)
_cell_angle_gamma 90
_cell_formula_units_Z 4
loop_
_atom_type_symbol
_atom_type_radius_bond
C 0.68
H 0.23
Co 1.26
N 0.68
O 0.68
loop_
_atom_site_label
_atom_site_type_symbol
_atom_site_fract_x
_atom_site_fract_y
_atom_site_fract_z
C1 C 0.193040(6) 0.15454(2) 0.374350(11)
C2 C 0.190540(6) 0.07787(2) 0.302780(11)
C3 C 0.153690(7) 0.02643(2) 0.275430(11)
H1 H 0.12980 0.03710 0.30210
C4 C 0.225410(7) 0.06220(3) 0.263750(12)
H2 H 0.25050 0.09790 0.28240
C5 C 0.223410(7) -0.00691(2) 0.196330(12)
H3 H 0.24710 -0.01760 0.16920
C6 C 0.186560(7) -0.05932(2) 0.169770(12)
C7 C 0.185080(6) -0.13101(2) 0.097730(11)
C8 C 0.296430(6) 0.00830(2) 0.041070(11)
C9 C 0.271630(6) 0.133780(19) 0.019640(11)
C10 C 0.252620(6) 0.14158(2) -0.048750(12)
H4 H 0.25480 0.06700 -0.08180
C11 C 0.269490(7) 0.24294(2) 0.069350(12)
H5 H 0.28290 0.23760 0.11590
C12 C 0.420480(8) -0.12279(3) 0.012560(14)
C13 C 0.462290(6) -0.05884(3) 0.005290(13)
C14 C 0.465310(8) 0.07754(3) -0.00747(2)
H6 H 0.44180 0.13360 -0.01210
C15 C 0.495060(9) -0.13535(3) 0.01376(2)
H7 H 0.49240 -0.23060 0.02420
C16 C 0.152190(7) -0.04025(3) 0.209200(12)
H8 H 0.12690 -0.07390 0.19020
C17 C 0.06980(1) -0.93324(3) 0.92066(3)
H9 H 0.05060 -0.93570 0.96000
H10 H 0.07800 -1.02730 0.90880
H11 H 0.05680 -0.89020 0.87750
C18 C 0.11568(2) -0.86920(6) 1.023050(17)
H12 H 0.11480 -0.96610 1.03760
H13 H 0.09660 -0.81600 1.05150
H14 H 0.14320 -0.83340 1.03200
C19 C 0.105870(16) -0.74174(4) 0.888780(16)
H15 H 0.12780 -0.68100 0.90010
C20 C 0.089570(11) -0.54346(5) 0.67849(2)
C21 C 0.109250(13) -0.39564(4) 0.785990(16)
Co1 Co 0.152300(1) -0.300320(3) -0.012940(1)
Co2 Co 0.25000 -0.25000 0.00000
N1 N 0.104020(9) -0.85691(3) 0.943020(13)
N2 N 0.125430(7) -0.47275(3) 0.720430(14)
O1 O 0.214280(4) -0.117260(14) 0.056660(8)
O2 O 0.152830(4) -0.197850(16) 0.081820(8)
O3 O 0.227370(4) 0.184580(15) 0.399900(8)
O4 O 0.159520(4) 0.180210(15) 0.402900(8)
O5 O 0.389970(5) -0.05060(2) 0.004140(12)
O6 O 0.417300(7) -0.24245(3) 0.029150(18)
O7 O 0.296060(4) -0.092970(14) -0.005110(8)
O8 O 0.317140(5) 0.007410(17) 0.098510(9)
O9 O 0.086200(16) -0.70492(4) 0.832840(16)
C22? C 0.160860(11) -0.57280(5) 0.73198(3)
C1F C 0.306960(6) -0.65454(2) -0.374350(11)
C2F C 0.309460(6) -0.57787(2) -0.302780(11)
C3F C 0.346310(7) -0.52643(2) -0.275430(11)
H1F H 0.37020 -0.53710 -0.30210
C4F C 0.274590(7) -0.56220(3) -0.263750(12)
H2F H 0.24950 -0.59790 -0.28240
C5F C 0.276590(7) -0.49309(2) -0.196330(12)
H3F H 0.25290 -0.48240 -0.16920
C6F C 0.313440(7) -0.44068(2) -0.169770(12)
C7F C 0.314920(6) -0.36899(2) -0.097730(11)
C8F C 0.203570(6) 0.49170(2) -0.041070(11)
C9F C 0.228370(6) 0.366220(19) -0.019640(11)
C10F C 0.247380(6) 0.35842(2) 0.048750(12)
H4F H 0.24520 0.43300 0.08180
C11F C 0.230510(7) 0.25706(2) -0.069350(12)
H5F H 0.21710 0.26240 -0.11590
C12D C 0.579520(8) 0.12279(3) -0.012560(14)
C13D C 0.537710(6) 0.05884(3) -0.005290(13)
C14D C 0.534690(8) -0.07754(3) 0.00747(2)
H6D H 0.55820 -0.13360 0.01210
C15D C 0.504940(9) 0.13535(3) -0.01376(2)
H7D H 0.50760 0.23060 -0.02420
C16F C 0.347810(7) -0.45975(3) -0.209200(12)
H8F H 0.37310 -0.42610 -0.19020
Co1F Co 0.347700(1) -0.199680(3) 0.012940(1)
Co1* Co 0.152300(1) 0.699680(3) -0.012940(1)
Co1E Co 0.152300(1) 0.300320(3) 0.487060(1)
Co1C Co 0.347700(1) -0.800320(3) -0.487060(1)
Co1B Co 0.652300(1) 0.199680(3) -0.012940(1)
Co2* Co 0.25000 0.75000 0.00000
Co2C Co 0.25000 0.25000 0.50000
Co2C* Co 0.25000 -0.75000 -0.50000
O1F O 0.285720(4) -0.382740(14) -0.056660(8)
O2F O 0.347170(4) -0.302150(16) -0.081820(8)
O3F O 0.272630(4) -0.684580(15) -0.399900(8)
O3C O 0.272630(4) -0.315420(15) 0.100100(8)
O3E O 0.227370(4) -0.184580(15) -0.100100(8)
O4F O 0.340480(4) -0.680210(15) -0.402900(8)
O4C O 0.340480(4) -0.319790(15) 0.097100(8)
O4E O 0.159520(4) -0.180210(15) -0.097100(8)
O5F O 0.110030(5) -0.44940(2) -0.004140(12)
O5D O 0.610030(5) 0.05060(2) -0.004140(12)
O6D O 0.582700(7) 0.24245(3) -0.029150(18)
O7F O 0.203940(4) 0.592970(14) 0.005110(8)
O7F* O 0.203940(4) -0.407030(14) 0.005110(8)
O8F O 0.182860(5) 0.492590(17) -0.098510(9)
#END
