
#######################################################################
#
#                 Cambridge Crystallographic Data Centre
#                                CCDC
#
#######################################################################
#
# If this CIF has been generated from an entry in the Cambridge
# Structural Database, then it will include bibliographic, chemical,
# crystal, experimental, refinement or atomic coordinate data resulting
# from the CCDC's data processing and validation procedures.
#
#######################################################################

data_CSD_CIF_MOXDOT01
_audit_creation_date 2009-09-28
_audit_creation_method CSD-ConQuest-V1
_database_code_CSD MOXDOT01
_database_code_depnum_ccdc_archive 'CCDC 692476'
_chemical_formula_sum 'C66.5 H66.5 Co3 N3.5 O19.5'
_chemical_formula_moiety
;
(C2 H8 N1 1+)2n,n(C56 H32 Co3 O16 2-),2n(C1 H4 O1),1.5n(C3 H7 N1 O1)
;
_journal_coden_Cambridge 1147
_journal_volume 9
_journal_year 2009
_journal_page_first 1066
_journal_name_full 'Cryst.Growth Des. '
loop_
_publ_author_name
"Feng Luo"
"Yun-xia Che"
"Ji-min Zheng"
_chemical_name_systematic
;
catena-[bis(Dimethylammonium) 
tris(\m~4~-4,4'-biphenyldicarboxylato-O,O',O'',O''')-(\m~2~-4,4'-biphenyldicar
boxylato-O,O')-tri-cobalt(ii) dimethylformamide methanol solvate]
;
_cell_volume   8210.288
_exptl_crystal_colour 'purple'
_exptl_special_details
;
magnetic properties
efflorescent

;
_exptl_crystal_description 'block'
_diffrn_ambient_temperature 294
_refine_special_details
;
The SQUEEZE/PLATON program has been used to model the dimethylammonium 
cations and dimethylformamide and methanol solvent molecules. One void of 
4113 A$3! was found to contain 1096.7 electrons. We calculate the structure 
contains 27% void space.
;
#These two values have been output from a single CSD field.
_refine_ls_R_factor_gt 0.1401
_refine_ls_wR_factor_gt 0.1401
_symmetry_cell_setting monoclinic
_symmetry_space_group_name_H-M 'P 2/c'
_symmetry_Int_Tables_number 13
loop_
_symmetry_equiv_pos_site_id
_symmetry_equiv_pos_as_xyz
1 x,y,z
2 -x,y,1/2-z
3 -x,-y,-z
4 x,-y,-1/2+z
_cell_length_a 22.55(1)
_cell_length_b 14.187(7)
_cell_length_c 25.681(12)
_cell_angle_alpha 90
_cell_angle_beta 92.096(9)
_cell_angle_gamma 90
_cell_formula_units_Z 4
loop_
_atom_type_symbol
_atom_type_radius_bond
C 0.68
H 0.23
Co 1.26
O 0.68
loop_
_atom_site_label
_atom_site_type_symbol
_atom_site_fract_x
_atom_site_fract_y
_atom_site_fract_z
C1 C -0.027655(18) 0.70298(3) 0.061246(15)
C2 C -0.130923(5) 0.690070(8) 0.022962(6)
H1 H -0.11610 0.66570 -0.00760
C3 C -0.191537(5) 0.705007(9) 0.026709(6)
H2 H -0.21730 0.69070 -0.00130
C4 C -0.213714(5) 0.741401(12) 0.072329(7)
C5 C -0.175277(7) 0.762858(16) 0.114201(7)
H3 H -0.19010 0.78720 0.14470
C6 C -0.114663(6) 0.747922(15) 0.110454(6)
H4 H -0.08890 0.76230 0.13850
C7 C -0.092485(5) 0.711528(11) 0.064835(6)
C8 C -0.403392(6) 0.790764(18) 0.068251(12)
C9 C -0.370462(5) 0.809233(15) 0.024695(11)
H5 H -0.38910 0.83260 -0.00550
C10 C -0.309650(5) 0.792836(12) 0.026305(10)
H6 H -0.28760 0.80520 -0.00280
C11 C -0.281770(6) 0.757977(13) 0.071474(8)
C12 C -0.314700(7) 0.739509(18) 0.115032(9)
H7 H -0.29600 0.71620 0.14530
C13 C -0.375511(7) 0.75590(2) 0.113424(11)
H8 H -0.39750 0.74350 0.14260
C14 C -0.472042(12) 0.78881(3) 0.06567(2)
C15 C 0.154010(13) 1.17565(2) 0.516550(11)
C16 C 0.154860(5) 1.124270(9) 0.463850(4)
C17 C 0.202490(5) 1.066610(9) 0.452410(4)
H9 H 0.23430 1.06050 0.47620
C18 C 0.202500(6) 1.01805(1) 0.405400(4)
H10 H 0.23440 0.97950 0.39780
C19 C 0.154890(6) 1.02715(1) 0.369830(4)
C20 C 0.107260(6) 1.08482(1) 0.381270(4)
H11 H 0.07540 1.09090 0.35750
C21 C 0.107250(5) 1.133380(9) 0.428280(4)
H12 H 0.07540 1.17200 0.43590
C22 C 0.156200(8) 0.971440(12) 0.321460(5)
C23 C 0.210000(9) 0.961530(14) 0.293760(5)
H13 H 0.24430 0.98880 0.30820
C24 C 0.214080(11) 0.915600(16) 0.248390(6)
H14 H 0.25040 0.90920 0.23280
C25 C 0.160260(12) 0.875970(16) 0.224040(6)
C26 C 0.106560(11) 0.891550(15) 0.247870(6)
H15 H 0.07190 0.86900 0.23160
C27 C 0.102580(9) 0.941020(13) 0.296500(5)
H16 H 0.06610 0.95260 0.31100
C28 C 0.160650(14) 0.82206(2) 0.173100(13)
C29 C 0.350960(12) -0.070690(18) 0.105050(12)
C30 C 0.321730(4) 0.024780(7) 0.111380(4)
C31 C 0.355630(5) 0.104100(7) 0.123620(5)
H17 H 0.39640 0.09840 0.12970
C32 C 0.328610(5) 0.191880(7) 0.126760(5)
H18 H 0.35130 0.24500 0.13490
C33 C 0.267700(5) 0.200340(7) 0.117670(5)
C34 C 0.233800(5) 0.121010(7) 0.105440(6)
H19 H 0.19300 0.12670 0.09940
C35 C 0.260810(4) 0.033230(7) 0.102290(5)
H20 H 0.23810 -0.01980 0.09410
C36 C 0.240070(6) 0.298640(7) 0.116020(7)
C37 C 0.272360(7) 0.375960(7) 0.101850(7)
H21 H 0.31240 0.36840 0.09530
C38 C 0.246660(8) 0.467040(7) 0.096810(8)
H22 H 0.26880 0.51850 0.08630
C39 C 0.189120(8) 0.476210(8) 0.10774(1)
C40 C 0.158310(7) 0.396990(9) 0.12280(1)
H23 H 0.11860 0.40440 0.13030
C41 C 0.181980(6) 0.308870(8) 0.127390(9)
H24 H 0.15940 0.25790 0.13780
C42 C 0.158280(12) 0.568510(18) 0.102120(12)
C43 C 0.354070(11) -0.32937(2) 0.171860(11)
C44 C 0.354390(5) -0.382390(8) 0.223270(4)
C45 C 0.405250(5) -0.391650(9) 0.255100(4)
H25 H 0.44080 -0.36540 0.24500
C46 C 0.402940(5) -0.44017(1) 0.302000(4)
H26 H 0.43700 -0.44640 0.32330
C47 C 0.349760(6) -0.47943(1) 0.317080(4)
C48 C 0.298900(6) -0.47017(1) 0.285260(4)
H27 H 0.26330 -0.49640 0.29530
C49 C 0.301220(5) -0.421650(9) 0.238350(4)
H28 H 0.26720 -0.41550 0.21710
C50 C 0.347920(8) -0.534540(11) 0.366930(4)
C51 C 0.297720(8) -0.530090(13) 0.397040(5)
H29 H 0.26440 -0.49640 0.38560
C52 C 0.29877(1) -0.576740(15) 0.443990(5)
H30 H 0.26580 -0.57170 0.46450
C53 C 0.345820(11) -0.630370(15) 0.462230(5)
C54 C 0.391180(11) -0.636730(14) 0.430160(6)
H31 H 0.42310 -0.67470 0.44050
C55 C 0.393890(9) -0.590080(12) 0.381950(5)
H32 H 0.42640 -0.59740 0.36110
C56 C 0.341980(14) -0.68496(2) 0.51207(1)
Co1 Co 0.091650(2) 0.716605(3) 0.092776(1)
Co2 Co 0.414750(2) -0.217230(3) 0.095610(1)
Co3 Co 0.253000(2) -0.250040(3) 0.095250(1)
O1 O 0.32057(1) -0.143340(15) 0.096950(9)
O2 O 0.406080(9) -0.075600(15) 0.107780(9)
O3 O 0.18586(1) 0.640860(15) 0.091220(9)
O4 O 0.102900(11) 0.575880(16) 0.10525(1)
O5 O 0.20916(1) 0.80264(2) 0.15842(1)
O6 O 0.11219(1) 0.792380(17) 0.157070(8)
O7 O 0.197590(11) 1.164390(19) 0.54620(1)
O8 O 0.109640(9) 1.220370(16) 0.525560(8)
O9 O 0.004209(11) 0.732918(16) 0.097244(9)
O10 O -0.008795(14) 0.65678(3) 0.023826(15)
O11 O 0.399930(8) -0.290030(16) 0.161210(8)
O12 O 0.307740(11) -0.335700(19) 0.14352(1)
O13 O 0.390520(11) -0.720170(17) 0.527680(9)
O14 O 0.295270(12) -0.68778(2) 0.53338(1)
O15 O -0.498201(11) 0.76720(2) 0.099111(12)
O16 O -0.491527(15) 0.85002(3) 0.030055(19)
Co1C Co 0.091650(2) 1.283395(3) 0.592776(1)
Co2* Co -0.585250(2) 0.782770(3) 0.095610(1)
Co2C Co 0.414750(2) -0.782770(3) 0.595610(1)
Co3* Co 0.253000(2) 0.749960(3) 0.095250(1)
Co3C Co 0.253000(2) 1.250040(3) 0.595250(1)
Co3C* Co 0.253000(2) -0.749960(3) 0.595250(1)
O3* O 0.18586(1) -0.359140(15) 0.091220(9)
O5* O 0.20916(1) -0.19736(2) 0.15842(1)
O7C O 0.197590(11) -0.164390(19) 0.04620(1)
O8C O 0.109640(9) 0.779630(16) 0.025560(8)
O13C O 0.390520(11) -0.279830(17) 0.027680(9)
O14C O 0.295270(12) -0.31222(2) 0.03338(1)
O15* O 0.501799(11) -0.23280(2) 0.099111(12)
#END
