
#######################################################################
#
#                 Cambridge Crystallographic Data Centre
#                                CCDC
#
#######################################################################
#
# If this CIF has been generated from an entry in the Cambridge
# Structural Database, then it will include bibliographic, chemical,
# crystal, experimental, refinement or atomic coordinate data resulting
# from the CCDC's data processing and validation procedures.
#
#######################################################################

data_CSD_CIF_MOXNIY
_audit_creation_date 2015-01-27
_audit_creation_method CSD-ConQuest-V1
_database_code_CSD MOXNIY
_database_code_depnum_ccdc_archive 'CCDC 979649'
_chemical_formula_sum 'C30 H48 Mn2 N2 O11'
_chemical_formula_moiety
;
(C22 H31 Mn2 O10 1-)n,C8 H15 N2 1+,H2 O1
;
_journal_coden_Cambridge 367
_journal_volume 40
_journal_year 2014
_journal_page_first 904
_journal_name_full 'Koord.Khim.(Russ.)(Coord.Chem.) '
loop_
_publ_author_name
"L.Li"
"S.Chen"
"Y.J.Ning"
"Y.Bai"
"D.B.Dang"
_chemical_name_systematic
;
catena-[1-butyl-3-methyl-1H-imidazol-3-ium 
bis(\m-camphorato)-(\m-acetato)di-manganese monohydrate]
;
_cell_volume   3354.687
_exptl_crystal_colour 'yellow'
_exptl_crystal_density_diffrn 1.431
_exptl_crystal_description 'block'
_diffrn_ambient_temperature 296
_refine_special_details
;
C27,C28 and C27',C28' disordered over two sites with occupancies 0.50:0.50.

;
#These two values have been output from a single CSD field.
_refine_ls_R_factor_gt 0.036
_refine_ls_wR_factor_gt 0.036
_symmetry_cell_setting orthorhombic
_symmetry_space_group_name_H-M 'P 21 21 21'
_symmetry_Int_Tables_number 19
loop_
_symmetry_equiv_pos_site_id
_symmetry_equiv_pos_as_xyz
1 x,y,z
2 1/2-x,-y,1/2+z
3 -x,1/2+y,1/2-z
4 1/2+x,1/2-y,-z
_cell_length_a 13.085(6)
_cell_length_b 14.106(7)
_cell_length_c 18.175(9)
_cell_angle_alpha 90
_cell_angle_beta 90
_cell_angle_gamma 90
_cell_formula_units_Z 4
loop_
_atom_type_symbol
_atom_type_radius_bond
C 0.68
H 0.23
Mn 1.61
N 0.68
O 0.68
loop_
_atom_site_label
_atom_site_type_symbol
_atom_site_fract_x
_atom_site_fract_y
_atom_site_fract_z
Mn1 Mn 1.24024(3) 0.48619(4) 0.42018(2)
Mn2 Mn 1.28306(3) 0.51069(4) 0.58329(2)
O1 O 1.7250(2) 0.12754(19) 0.41538(18)
O2 O 1.7115(2) 0.14952(19) 0.53558(17)
O3 O 1.4273(2) 0.4567(2) 0.54645(16)
O4 O 1.39489(19) 0.4522(2) 0.42786(17)
C1 C 1.7088(2) 0.1785(3) 0.4702(3)
C2 C 1.4533(3) 0.4416(3) 0.4809(2)
C3 C 1.7447(4) 0.3154(4) 0.3900(3)
H1 H 1.72600 0.27750 0.34830
H2 H 1.81650 0.30840 0.39950
H3 H 1.72970 0.38080 0.38000
C4 C 1.6844(3) 0.2832(2) 0.4569(2)
C5 C 1.7134(3) 0.3441(3) 0.5230(3)
H4 H 1.70830 0.30750 0.56800
H5 H 1.78300 0.36700 0.51810
C6 C 1.6389(3) 0.4265(3) 0.5244(3)
H6 H 1.67440 0.48550 0.51460
H7 H 1.60650 0.43100 0.57220
C7 C 1.5592(3) 0.4081(3) 0.4653(2)
H8 H 1.58210 0.44120 0.42090
C8 C 1.5671(3) 0.3006(3) 0.4492(2)
C9 C 1.5245(4) 0.2736(4) 0.3730(3)
H9 H 1.53150 0.20650 0.36570
H10 H 1.56190 0.30680 0.33560
H11 H 1.45360 0.29070 0.37030
C10 C 1.5058(3) 0.2446(3) 0.5050(4)
H12 H 1.51180 0.17810 0.49450
H13 H 1.43530 0.26300 0.50240
H14 H 1.53150 0.25700 0.55350
O5 O 1.09796(19) 0.5308(2) 0.46069(15)
O6 O 1.13054(19) 0.5622(2) 0.57745(17)
O7 O 0.7850(2) 0.86842(17) 0.58180(17)
O8 O 0.8263(2) 0.85958(19) 0.46427(16)
C11 C 1.0726(3) 0.5598(3) 0.5225(2)
C12 C 0.8154(3) 0.8245(3) 0.5269(2)
C13 C 0.9173(3) 0.5264(3) 0.5935(2)
H15 H 0.92360 0.46170 0.57800
H16 H 0.84640 0.54140 0.60090
H17 H 0.95380 0.53530 0.63880
C14 C 0.9620(2) 0.5919(2) 0.53429(19)
C15 C 0.8981(3) 0.5855(3) 0.4644(2)
H18 H 0.94040 0.59750 0.42160
H19 H 0.86850 0.52280 0.45980
C16 C 0.8158(3) 0.6584(3) 0.4699(2)
H20 H 0.74980 0.62820 0.47630
H21 H 0.81370 0.69660 0.42550
C17 C 0.8407(3) 0.7196(2) 0.5357(2)
H22 H 0.79940 0.69600 0.57680
C18 C 0.9543(3) 0.6998(2) 0.5556(2)
C19 C 0.9764(4) 0.7211(4) 0.6341(3)
H23 H 0.96980 0.78810 0.64250
H24 H 1.04470 0.70150 0.64570
H25 H 0.92880 0.68770 0.66480
C20 C 1.0265(3) 0.7564(3) 0.5073(4)
H26 H 1.02230 0.82230 0.52020
H27 H 1.00760 0.74830 0.45660
H28 H 1.09510 0.73440 0.51450
O9 O 1.19626(19) 0.4629(2) 0.31228(13)
O10 O 1.18481(18) 0.46652(18) 0.19340(11)
C21 C 1.2346(2) 0.4813(2) 0.2503(2)
C22 C 1.3392(3) 0.5216(4) 0.2458(2)
H29 H 1.35750 0.53050 0.19510
H30 H 1.38680 0.47880 0.26850
H31 H 1.34100 0.58150 0.27090
N1 N 1.0627(4) 0.8031(3) 0.3095(3)
N2 N 0.9552(4) 0.7113(4) 0.2545(4)
C23 C 1.1044(6) 0.8898(5) 0.3422(5)
H32 H 1.05120 0.93630 0.34640
H33 H 1.15800 0.91400 0.31150
H34 H 1.13120 0.87580 0.39020
C24 C 0.9686(5) 0.7926(4) 0.2874(4)
H35 H 0.91740 0.83740 0.29430
C25 C 1.1099(5) 0.7247(5) 0.2927(5)
H36 H 1.17810 0.71160 0.30280
C26 C 1.0483(6) 0.6691(6) 0.2601(6)
H37 H 1.06440 0.60880 0.24290
C27 C 0.8632(18) 0.7055(16) 0.2089(8)
H38 H 0.83810 0.76820 0.19630
H39 H 0.87620 0.67050 0.16390
C28 C 0.7916(18) 0.656(2) 0.2555(15)
H40 H 0.79000 0.68980 0.30190
H41 H 0.82140 0.59430 0.26560
C29 C 0.6794(8) 0.6380(6) 0.2335(5)
H42 H 0.64010 0.69630 0.23560
H43 H 0.67510 0.61230 0.18410
C30 C 0.6423(7) 0.5701(5) 0.2870(4)
H44 H 0.57150 0.55670 0.27760
H45 H 0.64940 0.59600 0.33560
H46 H 0.68120 0.51260 0.28330
C31? C 0.8562(13) 0.6473(10) 0.2487(11)
H47? H 0.85710 0.61260 0.20260
H48? H 0.85570 0.60160 0.28860
C32? C 0.7624(14) 0.7068(8) 0.2525(12)
H49? H 0.76520 0.75840 0.21720
H50? H 0.75280 0.73280 0.30140
O11 O 1.0176(5) 0.9361(5) 0.1755(4)
H51 H 1.01060 0.96100 0.13320
H52 H 0.95880 0.93400 0.19540
Mn1C Mn 0.74024(3) 1.01381(4) 0.57982(2)
Mn1C* Mn 1.74024(3) 0.01381(4) 0.57982(2)
Mn2A Mn 1.21694(3) 0.48931(4) 0.08329(2)
Mn2C Mn 0.78306(3) 0.98931(4) 0.41671(2)
Mn2C* Mn 1.78306(3) -0.01069(4) 0.41671(2)
O1C O 1.2250(2) 0.37246(19) 0.58462(18)
O2C O 1.2115(2) 0.35048(19) 0.46442(17)
O7C O 1.2850(2) 0.63158(17) 0.41820(17)
O8C O 1.3263(2) 0.64042(19) 0.53573(16)
O10A O 1.31519(18) 0.53348(18) 0.69340(11)
#END
