
#######################################################################
#
#                 Cambridge Crystallographic Data Centre
#                                CCDC
#
#######################################################################
#
# If this CIF has been generated from an entry in the Cambridge
# Structural Database, then it will include bibliographic, chemical,
# crystal, experimental, refinement or atomic coordinate data resulting
# from the CCDC's data processing and validation procedures.
#
#######################################################################

data_CSD_CIF_MOXSIE
_audit_creation_date 2019-11-14
_audit_creation_method CSD-ConQuest-V1
_database_code_CSD MOXSIE
_database_code_depnum_ccdc_archive 'CCDC 1895829'
_chemical_formula_sum 'C21 H36 Cl4 Cu2 N2 O10'
_chemical_formula_moiety
;
C9 H17 N2 1+,n(C10 H15 Cu2 O10 1-),2(C1 H2 Cl2)
;
_journal_coden_Cambridge 9
_journal_volume 58
_journal_year 2019
_journal_page_first 16047
_journal_name_full 'Inorg.Chem. '
loop_
_publ_author_name
"N.Segaud"
"J.McMaster"
"G.van Koten"
"M.Albrecht"
_chemical_name_systematic
;
catena-[(1,3-di-isopropylimidazolium) pentakis(\m-acetato)-di-copper(ii) 
dichloromethane solvate]
;
_cell_volume   3358.327
_exptl_crystal_colour 'light green'
_exptl_crystal_density_diffrn 1.474
_exptl_crystal_description 'needle'
_diffrn_ambient_temperature 173
#These two values have been output from a single CSD field.
_refine_ls_R_factor_gt 0.0827
_refine_ls_wR_factor_gt 0.0827
_symmetry_cell_setting monoclinic
_symmetry_space_group_name_H-M 'P 21/c'
_symmetry_Int_Tables_number 14
loop_
_symmetry_equiv_pos_site_id
_symmetry_equiv_pos_as_xyz
1 x,y,z
2 -x,1/2+y,1/2-z
3 -x,-y,-z
4 x,-1/2-y,-1/2+z
_cell_length_a 16.6213(9)
_cell_length_b 17.8406(9)
_cell_length_c 11.3924(5)
_cell_angle_alpha 90
_cell_angle_beta 96.223(5)
_cell_angle_gamma 90
_cell_formula_units_Z 4
loop_
_atom_type_symbol
_atom_type_radius_bond
C 0.68
H 0.23
Cl 0.99
Cu 1.32
N 0.68
O 0.68
loop_
_atom_site_label
_atom_site_type_symbol
_atom_site_fract_x
_atom_site_fract_y
_atom_site_fract_z
Cu1 Cu 0.06829(5) 0.53689(5) 0.49568(7)
Cu2 Cu 0.43011(5) 0.53610(5) 0.48761(7)
O1 O 0.1816(3) 0.5851(3) 0.4720(4)
O2 O 0.3136(3) 0.5839(3) 0.4667(4)
O3 O 0.1107(3) 0.4337(3) 0.5021(5)
O4 O 0.4563(3) 0.5498(3) 0.6586(4)
O5 O 0.6091(3) 0.5667(3) 0.4943(4)
O6 O 0.5727(3) 0.4856(3) 0.6828(4)
O7 O -0.0424(3) 0.4750(3) 0.6763(4)
O8 O 0.0717(3) 0.5403(3) 0.6684(4)
O9 O -0.0038(3) 0.3697(3) 0.5105(5)
O10 O 0.4913(3) 0.6285(3) 0.4656(5)
C1 C 0.2512(5) 0.5673(4) 0.5154(6)
C2 C 0.0184(5) 0.5088(5) 0.7225(6)
C3 C 0.5299(6) 0.5469(5) 0.8493(7)
H1 H 0.56550 0.58930 0.86020
H2 H 0.55290 0.50540 0.89480
H3 H 0.47840 0.55950 0.87500
C4 C 0.5184(5) 0.5257(5) 0.7196(7)
C5 C 0.5671(5) 0.6257(5) 0.4770(7)
C6 C 0.2619(5) 0.5257(5) 0.6305(7)
H4 H 0.21840 0.53810 0.67590
H5 H 0.31250 0.53970 0.67370
H6 H 0.26170 0.47280 0.61550
C7 C 0.0283(6) 0.5143(7) 0.8560(7)
H7 H -0.01620 0.54190 0.88150
H8 H 0.07810 0.53970 0.88160
H9 H 0.02950 0.46490 0.88930
C8 C 0.0712(5) 0.3748(4) 0.5064(6)
C9 C 0.6133(6) 0.6990(5) 0.4714(9)
H10 H 0.64410 0.70820 0.54630
H11 H 0.57570 0.73930 0.45350
H12 H 0.64920 0.69570 0.41100
C10 C 0.1194(5) 0.3015(5) 0.5130(9)
H13 H 0.14020 0.29270 0.43880
H14 H 0.08480 0.26080 0.52990
H15 H 0.16360 0.30520 0.57440
Cl1 Cl 0.21450(19) 0.51563(19) 0.1296(3)
Cl2 Cl 0.2273(3) 0.3661(2) 0.2235(3)
C11 C 0.2288(6) 0.4612(5) 0.2597(8)
H16 H 0.28020 0.47380 0.30370
H17 H 0.18620 0.47200 0.30900
Cl3 Cl 0.3653(3) 0.3890(3) 0.8482(3)
Cl4 Cl 0.2002(4) 0.3470(4) 0.8227(6)
C12 C 0.2721(9) 0.3997(11) 0.8858(13)
H18 H 0.27430 0.39190 0.97040
H19 H 0.25650 0.45150 0.87070
N1 N 0.3057(5) 0.7843(4) 0.6914(7)
N2 N 0.1822(5) 0.7731(4) 0.7307(8)
C13 C 0.2510(6) 0.8086(5) 0.7585(8)
H20 H 0.25990 0.84520 0.81660
C14 C 0.2698(7) 0.7300(6) 0.6174(9)
H21 H 0.29410 0.70320 0.56070
C15 C 0.3900(6) 0.8105(5) 0.6932(8)
H22 H 0.39900 0.85100 0.75130
C16 C 0.4476(6) 0.7461(6) 0.7311(10)
H23 H 0.43790 0.72910 0.80830
H24 H 0.50250 0.76310 0.73300
H25 H 0.43860 0.70550 0.67590
C17 C 0.1944(7) 0.7230(6) 0.6422(11)
H26 H 0.15610 0.69000 0.60620
C18 C 0.0871(10) 0.7134(8) 0.8458(17)
H27 H 0.07270 0.67460 0.78890
H28 H 0.04260 0.72220 0.89120
H29 H 0.13370 0.69800 0.89740
C19 C 0.4034(7) 0.8406(6) 0.5746(10)
H30 H 0.39390 0.80170 0.51660
H31 H 0.45810 0.85810 0.57620
H32 H 0.36680 0.88140 0.55470
C20 C 0.0410(8) 0.8090(9) 0.6887(16)
H33 H 0.05490 0.85740 0.66020
H34 H -0.00990 0.81210 0.72100
H35 H 0.03670 0.77370 0.62470
C21 C 0.1059(8) 0.7834(7) 0.7836(14)
H36 H 0.11430 0.82340 0.84260
Cu1B Cu -0.06829(5) 0.46311(5) 0.50432(7)
Cu2B Cu 0.56989(5) 0.46390(5) 0.51239(7)
O5B O 0.3909(3) 0.4333(3) 0.5057(4)
O6B O 0.4273(3) 0.5144(3) 0.3172(4)
O7B O 0.0424(3) 0.5250(3) 0.3237(4)
O9B O 0.0038(3) 0.6303(3) 0.4895(5)
#END
