
#######################################################################
#
#                 Cambridge Crystallographic Data Centre
#                                CCDC
#
#######################################################################
#
# If this CIF has been generated from an entry in the Cambridge
# Structural Database, then it will include bibliographic, chemical,
# crystal, experimental, refinement or atomic coordinate data resulting
# from the CCDC's data processing and validation procedures.
#
#######################################################################

data_CSD_CIF_MOXSOK
_audit_creation_date 2019-11-14
_audit_creation_method CSD-ConQuest-V1
_database_code_CSD MOXSOK
_database_code_depnum_ccdc_archive 'CCDC 1895830'
_chemical_formula_sum 'C26 H42 Cu3 N4 O16'
_chemical_formula_moiety
;
2(C5 H9 N2 1+),n(C16 H24 Cu3 O16 2-)
;
_journal_coden_Cambridge 9
_journal_volume 58
_journal_year 2019
_journal_page_first 16047
_journal_name_full 'Inorg.Chem. '
loop_
_publ_author_name
"N.Segaud"
"J.McMaster"
"G.van Koten"
"M.Albrecht"
_chemical_name_systematic
;
catena-[bis(1,3-dimethylimidazolium) 
hexakis(\m-acetato)-bis(acetato)-tri-copper(ii)]
;
_cell_volume    876.923
_exptl_crystal_colour 'blue'
_exptl_crystal_density_diffrn 1.623
_exptl_crystal_description 'prism'
_diffrn_ambient_temperature 123
#These two values have been output from a single CSD field.
_refine_ls_R_factor_gt 0.0261
_refine_ls_wR_factor_gt 0.0261
_symmetry_cell_setting triclinic
_symmetry_space_group_name_H-M 'P -1'
_symmetry_Int_Tables_number 2
loop_
_symmetry_equiv_pos_site_id
_symmetry_equiv_pos_as_xyz
1 x,y,z
2 -x,-y,-z
_cell_length_a 8.5900(3)
_cell_length_b 9.0259(3)
_cell_length_c 12.4047(4)
_cell_angle_alpha 94.507(3)
_cell_angle_beta 94.617(3)
_cell_angle_gamma 112.873(3)
_cell_formula_units_Z 1
loop_
_atom_type_symbol
_atom_type_radius_bond
C 0.68
H 0.23
Cu 1.32
N 0.68
O 0.68
loop_
_atom_site_label
_atom_site_type_symbol
_atom_site_fract_x
_atom_site_fract_y
_atom_site_fract_z
C1 C 0.9793(3) 0.7449(2) 0.90985(16)
C2 C 1.0211(3) 0.8889(3) 0.84709(19)
H1 H 0.92469 0.87139 0.79251
H2 H 1.12209 0.90278 0.81062
H3 H 1.04376 0.98635 0.89728
C3 C 0.7866(2) 0.2753(2) 0.81427(15)
C4 C 0.9481(2) 0.2882(2) 0.76962(16)
H4 H 0.98119 0.20242 0.79322
H5 H 1.03860 0.39413 0.79660
H6 H 0.92983 0.27663 0.68986
C5 C 0.7164(2) 0.2318(2) 0.42011(15)
C6 C 0.8395(3) 0.3705(2) 0.37058(16)
H7 H 0.85229 0.33237 0.29697
H8 H 0.95024 0.41361 0.41556
H9 H 0.79617 0.45587 0.36693
C7 C 0.7066(3) -0.1398(2) 0.50937(16)
C8 C 0.8305(3) -0.2213(3) 0.51434(19)
H10 H 0.91924 -0.16776 0.57592
H11 H 0.88269 -0.21351 0.44648
H12 H 0.76978 -0.33559 0.52384
Cu1 Cu 1.00000 0.50000 1.00000
Cu2 Cu 0.56576(3) 0.07687(3) 0.59859(2)
O1 O 1.06046(17) 0.65406(16) 0.89308(11)
O2 O 0.8723(2) 0.71936(19) 0.97556(12)
O3 O 0.79441(17) 0.35129(16) 0.9069(1)
O4 O 0.64664(17) 0.18777(16) 0.76091(10)
O5 O 0.7234(2) 0.24493(17) 0.52259(11)
O6 O 0.61324(18) 0.11307(17) 0.35608(11)
O7 O 0.71417(18) -0.04483(17) 0.59141(11)
O8 O 0.6037(2) -0.17371(18) 0.42428(12)
C9 C 0.4058(2) 0.5558(2) 0.89105(16)
H13 H 0.34433 0.53945 0.95247
C10 C 0.5226(3) 0.5117(2) 0.74721(16)
H14 H 0.55671 0.45803 0.69067
C11 C 0.5607(3) 0.6717(3) 0.76499(16)
H15 H 0.62634 0.75211 0.72311
C12 C 0.4987(3) 0.8543(2) 0.90525(18)
H16 H 0.41441 0.83745 0.95678
H17 H 0.47660 0.91552 0.84840
H18 H 0.61311 0.91499 0.94394
C13 C 0.3516(3) 0.2666(2) 0.83725(18)
H19 H 0.27863 0.20699 0.77005
H20 H 0.28380 0.24775 0.89852
H21 H 0.44345 0.22903 0.85044
N1 N 0.4248(2) 0.4403(2) 0.82636(13)
N2 N 0.4868(2) 0.6970(2) 0.85534(13)
C3A C 0.2134(2) -0.2753(2) 0.18573(15)
C4A C 0.0519(2) -0.2882(2) 0.23038(16)
H4A H 0.01881 -0.20242 0.20678
H5A H -0.03860 -0.39413 0.20340
H6A H 0.07017 -0.27663 0.31014
C5A C 0.2836(2) -0.2318(2) 0.57989(15)
C6A C 0.1605(3) -0.3705(2) 0.62942(16)
H7A H 0.14771 -0.33237 0.70303
H8A H 0.04976 -0.41361 0.58444
H9A H 0.20383 -0.45587 0.63307
C7A C 0.2934(3) 0.1398(2) 0.49063(16)
C8A C 0.1695(3) 0.2213(3) 0.48566(19)
H10A H 0.08076 0.16776 0.42408
H11A H 0.11731 0.21351 0.55352
H12A H 0.23022 0.33559 0.47616
Cu2A Cu 0.43424(3) -0.07687(3) 0.40141(2)
O3A O 0.20559(17) -0.35129(16) 0.0931(1)
O4A O 0.35336(17) -0.18777(16) 0.23909(10)
O5A O 0.2766(2) -0.24493(17) 0.47741(11)
O6A O 0.38676(18) -0.11307(17) 0.64392(11)
O7A O 0.28583(18) 0.04483(17) 0.40859(11)
O8A O 0.3963(2) 0.17371(18) 0.57572(12)
C1A C 1.0207(3) 0.2551(2) 1.09015(16)
C2A C 0.9789(3) 0.1111(3) 1.15291(19)
H1A H 1.07531 0.12861 1.20749
H2A H 0.87791 0.09722 1.18938
H3A H 0.95624 0.01365 1.10271
O1A O 0.93954(17) 0.34594(16) 1.10692(11)
O2A O 1.1277(2) 0.28064(19) 1.02444(12)
Cu1* Cu 0.00000 -0.50000 0.00000
O3A* O 1.20559(17) 0.64871(16) 1.0931(1)
#END
