
#######################################################################
#
#                 Cambridge Crystallographic Data Centre
#                                CCDC
#
#######################################################################
#
# If this CIF has been generated from an entry in the Cambridge
# Structural Database, then it will include bibliographic, chemical,
# crystal, experimental, refinement or atomic coordinate data resulting
# from the CCDC's data processing and validation procedures.
#
#######################################################################

data_CSD_CIF_MOYFIR
_audit_creation_date 2015-01-28
_audit_creation_method CSD-ConQuest-V1
_database_code_CSD MOYFIR
_database_code_depnum_ccdc_archive 'CCDC 1026253'
_chemical_formula_sum 'C28 H46 Cr2 Cu2 Mo12 N8 O54'
_chemical_formula_moiety
;
(C14 H30 Cr2 Cu2 Mo12 N4 O52 2-)n,n(C14 H16 N4 O2 2+)
;
_journal_coden_Cambridge 1500
_journal_volume 5
_journal_year 2015
_journal_page_first 14020
_journal_name_full 'RSC Advances '
loop_
_publ_author_name
"Xiuli Wang"
"Zhihan Chang"
"Hongyan Lin"
"Aixiang Tian"
"Guocheng Liu"
"Juwen Zhang"
"Danna Liu"
_chemical_name_systematic
;
catena-(N,N'-Ethane-1,2-diyldinicotinamidedi-ium 
dodecakis(\m~3~-hydroxo)-(\m~2~-N,N'-ethane-1,2-diyldinicotinamide)-hexadecaki
s(\m~2~-oxo)-diaqua-icosaoxo-di-chromium-di-copper-dodeca-molybdenum)
;
_cell_volume   1546.230
_exptl_crystal_colour 'blue'
_exptl_crystal_density_diffrn 2.927
_exptl_crystal_description 'stick'
_diffrn_ambient_temperature 296
#These two values have been output from a single CSD field.
_refine_ls_R_factor_gt 0.0822
_refine_ls_wR_factor_gt 0.0822
_symmetry_cell_setting triclinic
_symmetry_space_group_name_H-M 'P -1'
_symmetry_Int_Tables_number 2
loop_
_symmetry_equiv_pos_site_id
_symmetry_equiv_pos_as_xyz
1 x,y,z
2 -x,-y,-z
_cell_length_a 6.8870(17)
_cell_length_b 10.112(3)
_cell_length_c 22.292(6)
_cell_angle_alpha 92.269(5)
_cell_angle_beta 94.582(4)
_cell_angle_gamma 90.228(4)
_cell_formula_units_Z 1
loop_
_atom_type_symbol
_atom_type_radius_bond
C 0.68
H 0.23
Cr 1.39
Cu 1.32
Mo 1.54
N 0.68
O 0.68
loop_
_atom_site_label
_atom_site_type_symbol
_atom_site_fract_x
_atom_site_fract_y
_atom_site_fract_z
Mo1 Mo 0.21240(19) 0.26864(13) 0.33239(6)
Cu1 Cu 0.8118(3) 0.9930(2) 0.17580(9)
Cr1 Cr 0.2840(6) 0.5275(4) 0.25384(19)
N1 N 0.7687(19) 0.9970(13) 0.0862(6)
O1 O 0.4356(15) 0.4004(10) 0.2968(5)
O2 O 0.9840(17) 1.1394(11) 0.1765(5)
C1 C 0.729(2) 1.1017(16) 0.0556(7)
H1 H 0.71120 1.18290 0.07540
Mo2 Mo 0.3760(2) 0.79350(14) 0.18359(6)
O3 O 0.0648(15) 0.4313(11) 0.2730(5)
C2 C 0.713(2) 1.0911(17) -0.0085(7)
H2 H 0.68020 1.16470 -0.03080
N2 N 0.814(2) 0.6268(15) 0.0007(7)
H3 H 0.74950 0.63520 0.03210
Mo3 Mo 0.08204(19) 0.81259(13) 0.29232(6)
O4 O 0.1466(15) 0.6608(10) 0.2131(5)
C3 C 0.745(3) 0.9715(18) -0.0371(8)
H4 H 0.73920 0.96420 -0.07890
Mo4 Mo 0.51322(19) 0.24850(13) 0.22401(6)
O5 O 0.3277(15) 0.4232(10) 0.1841(5)
C4 C 0.796(2) 0.8786(16) 0.0591(7)
H5 H 0.82080 0.80550 0.08250
C5 C 0.787(3) 0.8630(17) -0.0036(7)
Mo5 Mo 0.59943(19) 0.51423(14) 0.14877(6)
O6 O 0.2423(14) 0.6351(11) 0.3233(4)
O7 O 0.5129(15) 0.6239(10) 0.2356(5)
C6 C 0.831(2) 0.7317(17) -0.0311(7)
O8 O 0.1693(17) 0.4146(11) 0.3848(5)
C7 C 0.892(3) 0.5008(18) -0.0124(9)
H6 H 0.88260 0.48280 -0.05570
H7 H 0.81990 0.43280 0.00590
O9 O -0.1111(15) 0.6803(11) 0.3050(5)
O10 O 0.3292(15) 0.8555(11) 0.2628(4)
O11 O 0.4195(14) 0.6511(11) 0.1275(5)
O12 O 0.6919(15) 0.3869(10) 0.2058(5)
Mo6 Mo -0.01983(19) 0.54659(14) 0.36174(6)
O13 O 0.2702(16) 0.1985(11) 0.2532(5)
O14 O 0.3799(17) 0.1905(12) 0.3789(5)
O15 O 0.0026(18) 0.1843(13) 0.3352(6)
O16 O -0.2308(15) 0.4546(12) 0.3601(5)
O17 O -0.0036(17) 0.6407(11) 0.4268(5)
O18 O 0.1115(18) 0.8889(12) 0.3612(5)
O19 O -0.0652(16) 0.9158(11) 0.2481(5)
O20 O 0.1975(19) 0.8758(12) 0.1433(5)
O21 O 0.5913(18) 0.8801(12) 0.1783(5)
O22 O 0.8108(17) 0.6012(12) 0.1436(5)
O23 O 0.5724(19) 0.4201(13) 0.0847(5)
O24 O 0.488(2) 0.1632(12) 0.1564(6)
O25 O 0.6627(17) 0.1525(13) 0.2677(7)
O26 O 0.8885(18) 0.7235(12) -0.0826(5)
N3 N 0.787(3) 1.075(2) 0.4922(9)
H8 H 0.82320 1.12400 0.52350
N4 N 0.548(2) 0.6828(15) 0.5014(6)
H9 H 0.59190 0.72430 0.53400
C8 C 0.792(3) 1.1247(18) 0.4350(9)
H10 H 0.83760 1.20980 0.42970
C9 C 0.725(2) 0.9505(17) 0.4986(8)
H11 H 0.72580 0.91710 0.53690
C10 C 0.659(2) 0.8702(17) 0.4482(8)
C11 C 0.672(3) 0.924(2) 0.3928(8)
H12 H 0.63950 0.87190 0.35800
C12 C 0.729(2) 1.0463(16) 0.3884(7)
H13 H 0.72530 1.08050 0.35020
C13 C 0.582(3) 0.7341(19) 0.4489(9)
C14 C 0.439(3) 0.5592(19) 0.5061(9)
H14 H 0.32490 0.55790 0.47750
H15 H 0.39440 0.55540 0.54620
O27 O 0.5279(18) 0.6771(13) 0.4000(6)
N1A N 1.2313(19) 0.0030(13) -0.0862(6)
C1A C 1.271(2) -0.1017(16) -0.0556(7)
H1A H 1.28880 -0.18290 -0.07540
C2A C 1.287(2) -0.0911(17) 0.0085(7)
H2A H 1.31980 -0.16470 0.03080
N2A N 1.186(2) 0.3732(15) -0.0007(7)
H3A H 1.25050 0.36480 -0.03210
C3A C 1.255(3) 0.0285(18) 0.0371(8)
H4A H 1.26080 0.03580 0.07890
C4A C 1.204(2) 0.1214(16) -0.0591(7)
H5A H 1.17920 0.19450 -0.08250
C5A C 1.213(3) 0.1370(17) 0.0036(7)
C6A C 1.169(2) 0.2683(17) 0.0311(7)
C7A C 1.108(3) 0.4992(18) 0.0124(9)
H6A H 1.11740 0.51720 0.05570
H7A H 1.18010 0.56720 -0.00590
O26A O 1.1115(18) 0.2765(12) 0.0826(5)
Mo1A Mo 1.78760(19) 0.73136(13) -0.33239(6)
Cu1A Cu 1.1882(3) 0.0070(2) -0.17580(9)
Cr1A Cr 1.7160(6) 0.4725(4) -0.25384(19)
O1A O 1.5644(15) 0.5996(10) -0.2968(5)
O2A O 1.0160(17) -0.1394(11) -0.1765(5)
Mo2A Mo 1.6240(2) 0.20650(14) -0.18359(6)
O3A O 1.9352(15) 0.5687(11) -0.2730(5)
Mo3A Mo 1.91796(19) 0.18741(13) -0.29232(6)
O4A O 1.8534(15) 0.3392(10) -0.2131(5)
Mo4A Mo 1.48678(19) 0.75150(13) -0.22401(6)
O5A O 1.6723(15) 0.5768(10) -0.1841(5)
Mo5A Mo 1.40057(19) 0.48577(14) -0.14877(6)
O6A O 1.7577(14) 0.3649(11) -0.3233(4)
O7A O 1.4871(15) 0.3761(10) -0.2356(5)
O8A O 1.8307(17) 0.5854(11) -0.3848(5)
O9A O 2.1111(15) 0.3197(11) -0.3050(5)
O10A O 1.6708(15) 0.1445(11) -0.2628(4)
O11A O 1.5805(14) 0.3489(11) -0.1275(5)
O12A O 1.3081(15) 0.6131(10) -0.2058(5)
Mo6A Mo 2.01983(19) 0.45341(14) -0.36174(6)
O13A O 1.7298(16) 0.8015(11) -0.2532(5)
O14A O 1.6201(17) 0.8095(12) -0.3789(5)
O15A O 1.9974(18) 0.8157(13) -0.3352(6)
O16A O 2.2308(15) 0.5454(12) -0.3601(5)
O17A O 2.0036(17) 0.3593(11) -0.4268(5)
O18A O 1.8885(18) 0.1111(12) -0.3612(5)
O19A O 2.0652(16) 0.0842(11) -0.2481(5)
O20A O 1.8025(19) 0.1242(12) -0.1433(5)
O21A O 1.4087(18) 0.1199(12) -0.1783(5)
O22A O 1.1892(17) 0.3988(12) -0.1436(5)
O23A O 1.4276(19) 0.5799(13) -0.0847(5)
O24A O 1.512(2) 0.8368(12) -0.1564(6)
O25A O 1.3373(17) 0.8475(13) -0.2677(7)
Cu1* Cu -0.1882(3) 0.9930(2) 0.17580(9)
Cu1A* Cu 2.1882(3) 0.0070(2) -0.17580(9)
O19* O 0.9348(16) 0.9158(11) 0.2481(5)
O19A* O 1.0652(16) 0.0842(11) -0.2481(5)
N3A N 0.213(3) -0.075(2) 0.5078(9)
H8A H 0.17680 -0.12400 0.47650
N4A N 0.452(2) 0.3172(15) 0.4986(6)
H9A H 0.40810 0.27570 0.46600
C8A C 0.208(3) -0.1247(18) 0.5650(9)
H10A H 0.16240 -0.20980 0.57030
C9A C 0.275(2) 0.0495(17) 0.5014(8)
H11A H 0.27420 0.08290 0.46310
C10A C 0.341(2) 0.1298(17) 0.5518(8)
C11A C 0.328(3) 0.076(2) 0.6072(8)
H12A H 0.36050 0.12810 0.64200
C12A C 0.271(2) -0.0463(16) 0.6116(7)
H13A H 0.27470 -0.08050 0.64980
C13A C 0.418(3) 0.2659(19) 0.5511(9)
C14A C 0.561(3) 0.4408(19) 0.4939(9)
H14A H 0.67510 0.44210 0.52250
H15A H 0.60560 0.44460 0.45380
O27A O 0.4721(18) 0.3229(13) 0.6000(6)
#END
