
#######################################################################
#
#                 Cambridge Crystallographic Data Centre
#                                CCDC
#
#######################################################################
#
# If this CIF has been generated from an entry in the Cambridge
# Structural Database, then it will include bibliographic, chemical,
# crystal, experimental, refinement or atomic coordinate data resulting
# from the CCDC's data processing and validation procedures.
#
#######################################################################

data_CSD_CIF_MOYTUR
_audit_creation_date 2015-01-29
_audit_creation_method CSD-ConQuest-V1
_database_code_CSD MOYTUR
_database_code_depnum_ccdc_archive 'CCDC 1046124'
_chemical_formula_sum 'C88 H111 Cl1 N8 O43 Zn8'
_chemical_formula_moiety
;
(H3 O1 1+)3n,n(C88 H72 N8 O25 Zn8 2-),n(Cl1 1-),15n(H2 O1)
;
_journal_coden_Cambridge 211
_journal_volume 68
_journal_year 2015
_journal_page_first 2682
_journal_name_full 'J.Coord.Chem. '
loop_
_publ_author_name
"Lina Hao"
"Ying Lu"
"Zhenzhen He"
"Qing Lan"
"Enbo Wang"
_chemical_name_systematic
;
catena-[tris(Oxonium) 
(\m~4~-oxo)-tetrakis(\m~4~-3,3'-(cyclohexane-1,2-diylbis(azanylylidenemethanyl
ylidene))bis(4-oxidobenzoato))-octa-zinc chloride pentadecahydrate]
;
_cell_volume   5760.611
_exptl_crystal_colour 'purple'
_exptl_special_details
;
In order to achieve a charge-balanced structure it has been assumed some of 
the isolated oxygen atoms modelled are oxonium cations
;
_exptl_crystal_description 'block'
_diffrn_ambient_temperature 293
_refine_special_details
;
The structure is disordered.

;
#These two values have been output from a single CSD field.
_refine_ls_R_factor_gt 0.0993
_refine_ls_wR_factor_gt 0.0993
_symmetry_cell_setting orthorhombic
_symmetry_space_group_name_H-M 'P b a n'
_symmetry_Int_Tables_number 50
loop_
_symmetry_equiv_pos_site_id
_symmetry_equiv_pos_as_xyz
1 x,y,z
2 1/2-x,1/2-y,z
3 x,1/2-y,-z
4 1/2-x,y,-z
5 -x,-y,-z
6 -1/2+x,-1/2+y,-z
7 -x,-1/2+y,z
8 -1/2+x,-y,z
_cell_length_a 24.673(3)
_cell_length_b 24.911(3)
_cell_length_c 9.3725(12)
_cell_angle_alpha 90
_cell_angle_beta 90
_cell_angle_gamma 90
_cell_formula_units_Z 2
loop_
_atom_type_symbol
_atom_type_radius_bond
C 0.68
H 0.23
Cl 0.99
N 0.68
O 0.68
Zn 1.22
loop_
_atom_site_label
_atom_site_type_symbol
_atom_site_fract_x
_atom_site_fract_y
_atom_site_fract_z
Cl1 Cl 0.25000 0.25000 0.50000
Zn1 Zn 0.79174(4) -0.19768(3) 0.8888(1)
Zn2 Zn 0.50932(5) 0.06104(5) 0.63272(14)
O1 O 0.5839(3) 0.0421(3) 0.6041(7)
O2 O 0.5178(2) 0.1192(3) 0.5013(8)
O3 O 0.75000 -0.25000 1.00000
O4 O 0.7503(2) -0.1385(2) 0.7940(6)
O5 O 0.6816(2) -0.1512(2) 0.9486(7)
O6 O 0.3094(2) 0.2510(3) 0.3067(7)
O7 O 0.3699(3) 0.2852(3) 0.1694(7)
N1 N 0.4941(3) -0.0032(3) 0.7424(9)
N2 N 0.4322(3) 0.0724(3) 0.6550(9)
C1 C 0.4039(4) 0.1088(4) 0.5915(11)
H1 H 0.36700 0.10990 0.61110
C2 C 0.4240(4) 0.1467(4) 0.4963(11)
C3 C 0.3862(4) 0.1815(3) 0.4301(9)
H2 H 0.34970 0.17810 0.45310
C4 C 0.4015(3) 0.2201(4) 0.3329(10)
C5 C 0.4553(4) 0.2235(4) 0.2918(12)
H3 H 0.46580 0.24830 0.22290
C6 C 0.4926(4) 0.1907(4) 0.3521(13)
H4 H 0.52860 0.19490 0.32460
C7 C 0.4806(4) 0.1505(4) 0.4544(11)
C8 C 0.3569(4) 0.2532(3) 0.2672(10)
C9 C 0.5297(4) -0.0367(4) 0.7844(11)
H5 H 0.51740 -0.06420 0.84320
C10 C 0.5857(4) -0.0372(3) 0.7521(9)
C11 C 0.6193(3) -0.0779(3) 0.8059(9)
H6 H 0.60380 -0.10310 0.86670
C12 C 0.6727(3) -0.0831(3) 0.7755(9)
C13 C 0.6963(4) -0.0456(3) 0.6874(11)
H7 H 0.73300 -0.04890 0.66610
C14 C 0.6669(4) -0.0021(4) 0.6276(11)
C15 C 0.6102(4) 0.0018(4) 0.6615(11)
C16 C 0.7040(4) -0.1273(3) 0.8455(9)
C17 C 0.4082(3) 0.0387(3) 0.7670(14)
H8 H 0.41970 0.05310 0.85950
C18 C 0.3283(5) -0.0044(3) 0.8961(11)
H9 H 0.34020 0.01050 0.98640
H10 H 0.28930 -0.00910 0.89870
C19 C 0.3573(3) -0.0585(4) 0.8652(19)
H11 H 0.34740 -0.07060 0.77030
H12 H 0.34460 -0.08520 0.93280
C20 C 0.4351(5) -0.0173(3) 0.7477(11)
H13 H 0.42370 -0.03350 0.65730
C21 C 0.3451(3) 0.0325(5) 0.7701(13)
H14 H 0.32840 0.06750 0.78110
H15 H 0.33270 0.01710 0.68080
C22 C 0.4201(3) -0.0547(5) 0.8750(12)
H16 H 0.43680 -0.08970 0.86460
H17 H 0.43130 -0.03910 0.96520
O8 O 0.25000 0.3406(4) 0.50000
O9 O 0.4573(4) 0.3338(5) 0.0288(12)
O10 O 0.6319(9) 0.1391(9) 0.468(2)
O11 O 0.6383(13) 0.2022(12) 0.198(4)
O12 O 0.2707(14) -0.1370(16) 1.187(6)
O13 O 0.75000 0.25000 0.50000
C23? C 0.3628(4) -0.0346(8) 0.9419(10)
H18? H 0.34870 -0.06650 0.98830
H19? H 0.36950 -0.00710 1.01300
C24? C 0.4421(4) 0.0070(4) 0.8251(9)
H20? H 0.4598(8) 0.023(1) 0.9066(18)
C25? C 0.4008(4) 0.0207(4) 0.7075(10)
H21? H 0.410(2) -0.0111(8) 0.655(4)
C26? C 0.3247(5) -0.0146(4) 0.8245(16)
H22? H 0.28770 -0.01070 0.85780
H23? H 0.32550 -0.03750 0.74070
C27? C 0.3522(5) 0.0398(5) 0.798(2)
H24? H 0.36370 0.05660 0.88650
H25? H 0.32890 0.06420 0.74580
C28? C 0.4142(5) -0.0472(4) 0.854(2)
H26? H 0.43810 -0.07070 0.90780
H27? H 0.40460 -0.06470 0.76550
Zn1A Zn 0.70826(4) -0.30232(3) 0.8888(1)
Zn2A Zn 0.99068(5) -0.56104(5) 0.63272(14)
O1A O 0.9161(3) -0.5421(3) 0.6041(7)
O2A O 0.9822(2) -0.6192(3) 0.5013(8)
O4A O 0.7497(2) -0.3615(2) 0.7940(6)
O5A O 0.8184(2) -0.3488(2) 0.9486(7)
O6A O 1.1906(2) -0.7510(3) 0.3067(7)
O7A O 1.1301(3) -0.7852(3) 0.1694(7)
N1A N 1.0059(3) -0.4968(3) 0.7424(9)
N2A N 1.0678(3) -0.5724(3) 0.6550(9)
C1A C 1.0961(4) -0.6088(4) 0.5915(11)
H1A H 1.13300 -0.60990 0.61110
C2A C 1.0760(4) -0.6467(4) 0.4963(11)
C3A C 1.1138(4) -0.6815(3) 0.4301(9)
H2A H 1.15030 -0.67810 0.45310
C4A C 1.0985(3) -0.7201(4) 0.3329(10)
C5A C 1.0447(4) -0.7235(4) 0.2918(12)
H3A H 1.03420 -0.74830 0.22290
C6A C 1.0074(4) -0.6907(4) 0.3521(13)
H4A H 0.97140 -0.69490 0.32460
C7A C 1.0194(4) -0.6505(4) 0.4544(11)
C8A C 1.1431(4) -0.7532(3) 0.2672(10)
C9A C 0.9703(4) -0.4633(4) 0.7844(11)
H5A H 0.98260 -0.43580 0.84320
C10A C 0.9143(4) -0.4628(3) 0.7521(9)
C11A C 0.8807(3) -0.4221(3) 0.8059(9)
H6A H 0.89620 -0.39690 0.86670
C12A C 0.8273(3) -0.4169(3) 0.7755(9)
C13A C 0.8037(4) -0.4544(3) 0.6874(11)
H7A H 0.76700 -0.45110 0.66610
C14A C 0.8331(4) -0.4979(4) 0.6276(11)
C15A C 0.8898(4) -0.5018(4) 0.6615(11)
C16A C 0.7960(4) -0.3727(3) 0.8455(9)
C17A C 1.0918(3) -0.5387(3) 0.7670(14)
H8A H 1.08030 -0.55310 0.85950
C18A C 1.1717(5) -0.4956(3) 0.8961(11)
H9A H 1.15980 -0.51050 0.98640
H10A H 1.21070 -0.49090 0.89870
C19A C 1.1427(3) -0.4415(4) 0.8652(19)
H11A H 1.15260 -0.42940 0.77030
H12A H 1.15540 -0.41480 0.93280
C20A C 1.0649(5) -0.4827(3) 0.7477(11)
H13A H 1.07630 -0.46650 0.65730
C21A C 1.1549(3) -0.5325(5) 0.7701(13)
H14A H 1.17160 -0.56750 0.78110
H15A H 1.16730 -0.51710 0.68080
C22A C 1.0799(3) -0.4453(5) 0.8750(12)
H16A H 1.06320 -0.41030 0.86460
H17A H 1.06870 -0.46090 0.96520
Zn1B Zn 0.79174(4) -0.30232(3) 1.1112(1)
Zn2B Zn 0.50932(5) -0.56104(5) 1.36728(14)
O1B O 0.5839(3) -0.5421(3) 1.3959(7)
O2B O 0.5178(2) -0.6192(3) 1.4987(8)
O4B O 0.7503(2) -0.3615(2) 1.2060(6)
O5B O 0.6816(2) -0.3488(2) 1.0514(7)
O6B O 0.3094(2) -0.7510(3) 1.6933(7)
O7B O 0.3699(3) -0.7852(3) 1.8306(7)
N1B N 0.4941(3) -0.4968(3) 1.2576(9)
N2B N 0.4322(3) -0.5724(3) 1.3450(9)
C1B C 0.4039(4) -0.6088(4) 1.4085(11)
H1B H 0.36700 -0.60990 1.38890
C2B C 0.4240(4) -0.6467(4) 1.5037(11)
C3B C 0.3862(4) -0.6815(3) 1.5699(9)
H2B H 0.34970 -0.67810 1.54690
C4B C 0.4015(3) -0.7201(4) 1.6671(10)
C5B C 0.4553(4) -0.7235(4) 1.7082(12)
H3B H 0.46580 -0.74830 1.77710
C6B C 0.4926(4) -0.6907(4) 1.6479(13)
H4B H 0.52860 -0.69490 1.67540
C7B C 0.4806(4) -0.6505(4) 1.5456(11)
C8B C 0.3569(4) -0.7532(3) 1.7328(10)
C9B C 0.5297(4) -0.4633(4) 1.2156(11)
H5B H 0.51740 -0.43580 1.15680
C10B C 0.5857(4) -0.4628(3) 1.2479(9)
C11B C 0.6193(3) -0.4221(3) 1.1941(9)
H6B H 0.60380 -0.39690 1.13330
C12B C 0.6727(3) -0.4169(3) 1.2245(9)
C13B C 0.6963(4) -0.4544(3) 1.3126(11)
H7B H 0.73300 -0.45110 1.33390
C14B C 0.6669(4) -0.4979(4) 1.3724(11)
C15B C 0.6102(4) -0.5018(4) 1.3385(11)
C16B C 0.7040(4) -0.3727(3) 1.1545(9)
C17B C 0.4082(3) -0.5387(3) 1.2330(14)
H8B H 0.41970 -0.55310 1.14050
C18B C 0.3283(5) -0.4956(3) 1.1039(11)
H9B H 0.34020 -0.51050 1.01360
H10B H 0.28930 -0.49090 1.10130
C19B C 0.3573(3) -0.4415(4) 1.1348(19)
H11B H 0.34740 -0.42940 1.22970
H12B H 0.34460 -0.41480 1.06720
C20B C 0.4351(5) -0.4827(3) 1.2523(11)
H13B H 0.42370 -0.46650 1.34270
C21B C 0.3451(3) -0.5325(5) 1.2299(13)
H14B H 0.32840 -0.56750 1.21890
H15B H 0.33270 -0.51710 1.31920
C22B C 0.4201(3) -0.4453(5) 1.1250(12)
H16B H 0.43680 -0.41030 1.13540
H17B H 0.43130 -0.46090 1.03480
Zn1C Zn 0.70826(4) -0.19768(3) 1.1112(1)
Zn2C Zn 0.99068(5) 0.06104(5) 1.36728(14)
O1C O 0.9161(3) 0.0421(3) 1.3959(7)
O2C O 0.9822(2) 0.1192(3) 1.4987(8)
O4C O 0.7497(2) -0.1385(2) 1.2060(6)
O5C O 0.8184(2) -0.1512(2) 1.0514(7)
O6C O 1.1906(2) 0.2510(3) 1.6933(7)
O7C O 1.1301(3) 0.2852(3) 1.8306(7)
N1C N 1.0059(3) -0.0032(3) 1.2576(9)
N2C N 1.0678(3) 0.0724(3) 1.3450(9)
C1C C 1.0961(4) 0.1088(4) 1.4085(11)
H1C H 1.13300 0.10990 1.38890
C2C C 1.0760(4) 0.1467(4) 1.5037(11)
C3C C 1.1138(4) 0.1815(3) 1.5699(9)
H2C H 1.15030 0.17810 1.54690
C4C C 1.0985(3) 0.2201(4) 1.6671(10)
C5C C 1.0447(4) 0.2235(4) 1.7082(12)
H3C H 1.03420 0.24830 1.77710
C6C C 1.0074(4) 0.1907(4) 1.6479(13)
H4C H 0.97140 0.19490 1.67540
C7C C 1.0194(4) 0.1505(4) 1.5456(11)
C8C C 1.1431(4) 0.2532(3) 1.7328(10)
C9C C 0.9703(4) -0.0367(4) 1.2156(11)
H5C H 0.98260 -0.06420 1.15680
C10C C 0.9143(4) -0.0372(3) 1.2479(9)
C11C C 0.8807(3) -0.0779(3) 1.1941(9)
H6C H 0.89620 -0.10310 1.13330
C12C C 0.8273(3) -0.0831(3) 1.2245(9)
C13C C 0.8037(4) -0.0456(3) 1.3126(11)
H7C H 0.76700 -0.04890 1.33390
C14C C 0.8331(4) -0.0021(4) 1.3724(11)
C15C C 0.8898(4) 0.0018(4) 1.3385(11)
C16C C 0.7960(4) -0.1273(3) 1.1545(9)
C17C C 1.0918(3) 0.0387(3) 1.2330(14)
H8C H 1.08030 0.05310 1.14050
C18C C 1.1717(5) -0.0044(3) 1.1039(11)
H9C H 1.15980 0.01050 1.01360
H10C H 1.21070 -0.00910 1.10130
C19C C 1.1427(3) -0.0585(4) 1.1348(19)
H11C H 1.15260 -0.07060 1.22970
H12C H 1.15540 -0.08520 1.06720
C20C C 1.0649(5) -0.0173(3) 1.2523(11)
H13C H 1.07630 -0.03350 1.34270
C21C C 1.1549(3) 0.0325(5) 1.2299(13)
H14C H 1.17160 0.06750 1.21890
H15C H 1.16730 0.01710 1.31920
C22C C 1.0799(3) -0.0547(5) 1.1250(12)
H16C H 1.06320 -0.08970 1.13540
H17C H 1.06870 -0.03910 1.03480
Zn1D Zn 1.20826(4) -0.80232(3) 0.1112(1)
Zn1E Zn 0.29174(4) 0.30232(3) 0.1112(1)
Zn1F Zn 1.20826(4) 0.30232(3) 1.8888(1)
Zn1G Zn 0.29174(4) -0.80232(3) 1.8888(1)
O6D O 0.6906(2) -0.2510(3) 0.6933(7)
O6E O 0.8094(2) -0.2490(3) 0.6933(7)
O6F O 0.6906(2) -0.2490(3) 1.3067(7)
O6G O 0.8094(2) -0.2510(3) 1.3067(7)
O7D O 0.6301(3) -0.2852(3) 0.8306(7)
O7E O 0.8699(3) -0.2148(3) 0.8306(7)
O7F O 0.6301(3) -0.2148(3) 1.1694(7)
O7G O 0.8699(3) -0.2852(3) 1.1694(7)
#END
