
#######################################################################
#
#                 Cambridge Crystallographic Data Centre
#                                CCDC
#
#######################################################################
#
# If this CIF has been generated from an entry in the Cambridge
# Structural Database, then it will include bibliographic, chemical,
# crystal, experimental, refinement or atomic coordinate data resulting
# from the CCDC's data processing and validation procedures.
#
#######################################################################

data_CSD_CIF_MOYTIF
_audit_creation_date 2015-01-29
_audit_creation_method CSD-ConQuest-V1
_database_code_CSD MOYTIF
_database_code_depnum_ccdc_archive 'CCDC 1046122'
_chemical_formula_sum 'C56 H78 Co3 N8 O18'
_chemical_formula_moiety
;
(H3 O1 1+)2n,n(C56 H68 Co3 N8 O14 2-),2n(H2 O1)
;
_journal_coden_Cambridge 211
_journal_volume 68
_journal_year 2015
_journal_page_first 2682
_journal_name_full 'J.Coord.Chem. '
loop_
_publ_author_name
"Lina Hao"
"Ying Lu"
"Zhenzhen He"
"Qing Lan"
"Enbo Wang"
_chemical_name_systematic
;
catena-[bis(Oxonium) tetrakis(\m~2~- 
3-((2-aminocyclohexyl)carbonoimidoyl)-4-oxidobenzoato)-diaqua-tri-cobalt 
dihydrate]
;
_cell_volume   1581.922
_exptl_crystal_colour 'brown'
_exptl_crystal_density_diffrn 1.396
_exptl_crystal_description 'block'
_diffrn_ambient_temperature 293
_refine_special_details
;
The SQUEEZE/PLATON program has been used to model some disorder; the sum 
formula given in the deposited cif suggests additional oxonium/water 
molecules are present. The unit cell was found to contain a total void space 
of 376 A$3! holding 88 electrons.
;
#These two values have been output from a single CSD field.
_refine_ls_R_factor_gt 0.0602
_refine_ls_wR_factor_gt 0.0602
_symmetry_cell_setting triclinic
_symmetry_space_group_name_H-M 'P -1'
_symmetry_Int_Tables_number 2
loop_
_symmetry_equiv_pos_site_id
_symmetry_equiv_pos_as_xyz
1 x,y,z
2 -x,-y,-z
_cell_length_a 10.046(3)
_cell_length_b 12.364(4)
_cell_length_c 13.715(4)
_cell_angle_alpha 79.292(4)
_cell_angle_beta 71.928(4)
_cell_angle_gamma 80.862(4)
_cell_formula_units_Z 1
loop_
_atom_type_symbol
_atom_type_radius_bond
C 0.68
H 0.23
Co 1.26
N 0.68
O 0.68
loop_
_atom_site_label
_atom_site_type_symbol
_atom_site_fract_x
_atom_site_fract_y
_atom_site_fract_z
Co1 Co 1.00000 0.00000 0.00000
Co2 Co 0.50710(7) -0.35941(6) 0.69108(5)
O1 O 0.8954(4) -0.0776(3) 0.1490(3)
O2 O 0.7700(4) -0.1926(3) 0.1166(3)
O3 O 0.6857(4) -0.3306(3) 0.6023(3)
O4 O 0.8293(4) 0.1093(3) -0.0152(3)
O5 O 0.8309(4) 0.2532(3) 0.0620(3)
O6 O 0.5665(4) 0.4863(3) -0.3002(3)
O7 O 0.9336(4) -0.1167(3) -0.0698(3)
H1 H 0.859(4) -0.119(5) -0.018(3)
H2 H 1.010(3) -0.162(4) -0.078(5)
N1 N 0.3210(4) -0.3913(4) 0.7816(3)
H3 H 0.32490 -0.46180 0.81330
H4 H 0.29160 -0.34640 0.83060
N2 N 0.4343(4) -0.3747(3) 0.5824(3)
N3 N 0.4500(5) 0.7999(3) -0.3205(3)
H5 H 0.47340 0.83640 -0.38470
H6 H 0.35670 0.80680 -0.29430
N4 N 0.5702(4) 0.6613(3) -0.1965(3)
C1 C 0.2216(5) -0.3736(5) 0.7187(4)
H7 H 0.19990 -0.29370 0.70040
C2 C 0.0842(6) -0.4230(6) 0.7751(5)
H8 H 0.03480 -0.38750 0.83580
H9 H 0.10290 -0.50160 0.79760
C3 C -0.0062(6) -0.4044(7) 0.6997(6)
H10 H -0.09300 -0.43800 0.73360
H11 H -0.03060 -0.32550 0.68230
C4 C 0.0696(6) -0.4528(5) 0.6021(4)
H12 H 0.08460 -0.53270 0.61880
H13 H 0.01120 -0.43600 0.55550
C5 C 0.2089(5) -0.4089(5) 0.5484(4)
H14 H 0.19320 -0.33120 0.52140
H15 H 0.25850 -0.44830 0.49030
C6 C 0.2985(5) -0.4215(5) 0.6205(4)
H16 H 0.31930 -0.50120 0.64080
C7 C 0.4933(5) -0.3457(4) 0.4858(4)
H17 H 0.44740 -0.35650 0.43950
C8 C 0.6244(5) -0.2980(4) 0.4427(4)
C9 C 0.6641(5) -0.2576(4) 0.3362(4)
H18 H 0.60640 -0.26520 0.29690
C10 C 0.7847(5) -0.2073(4) 0.2879(4)
C11 C 0.8721(6) -0.2032(5) 0.3493(4)
H19 H 0.95600 -0.17140 0.31880
C12 C 0.8382(6) -0.2442(5) 0.4511(4)
H20 H 0.90090 -0.24110 0.48790
C13 C 0.7120(5) -0.2913(4) 0.5040(4)
C14 C 0.8190(6) -0.1560(4) 0.1771(4)
C15 C 0.5139(9) 0.8478(5) -0.2591(6)
H21 H 0.60710 0.85330 -0.30950
C16 C 0.4750(7) 0.9669(5) -0.2504(5)
H22 H 0.37470 0.97950 -0.21670
H23 H 0.49420 1.00920 -0.31940
C17 C 0.5541(9) 1.0078(6) -0.1898(7)
H24 H 0.63610 1.03860 -0.23920
H25 H 0.49430 1.06840 -0.15680
C18 C 0.6008(8) 0.9331(5) -0.1126(6)
H26 H 0.52990 0.94050 -0.04680
H27 H 0.68570 0.95790 -0.10880
C19 C 0.6317(7) 0.8129(5) -0.1213(5)
H28 H 0.73190 0.79650 -0.15300
H29 H 0.60830 0.77100 -0.05210
C20 C 0.5548(8) 0.7756(5) -0.1821(6)
H30 H 0.46260 0.77610 -0.12980
C21 C 0.6193(5) 0.5842(4) -0.1380(4)
H31 H 0.64060 0.60440 -0.08300
C22 C 0.6451(5) 0.4697(4) -0.1484(3)
C23 C 0.6218(5) 0.4277(4) -0.2309(4)
C24 C 0.6636(6) 0.3141(4) -0.2358(4)
H32 H 0.65350 0.28490 -0.29060
C25 C 0.7184(5) 0.2441(4) -0.1643(4)
H33 H 0.74120 0.16920 -0.17000
C26 C 0.7401(5) 0.2857(4) -0.0822(4)
C27 C 0.7038(5) 0.3960(4) -0.0766(4)
H34 H 0.71830 0.42420 -0.02280
C28 C 0.8046(5) 0.2102(4) -0.0063(4)
Co2A Co 1.49290(7) 0.35941(6) -0.69108(5)
O1A O 1.1046(4) 0.0776(3) -0.1490(3)
O2A O 1.2300(4) 0.1926(3) -0.1166(3)
O3A O 1.3143(4) 0.3306(3) -0.6023(3)
O4A O 1.1707(4) -0.1093(3) 0.0152(3)
O5A O 1.1691(4) -0.2532(3) -0.0620(3)
O6A O 1.4335(4) -0.4863(3) 0.3002(3)
O7A O 1.0664(4) 0.1167(3) 0.0698(3)
H1A H 1.141(4) 0.119(5) 0.018(3)
H2A H 0.990(3) 0.162(4) 0.078(5)
N1A N 1.6790(4) 0.3913(4) -0.7816(3)
H3A H 1.67510 0.46180 -0.81330
H4A H 1.70840 0.34640 -0.83060
N2A N 1.5657(4) 0.3747(3) -0.5824(3)
N3A N 1.5500(5) -0.7999(3) 0.3205(3)
H5A H 1.52660 -0.83640 0.38470
H6A H 1.64330 -0.80680 0.29430
N4A N 1.4298(4) -0.6613(3) 0.1965(3)
C1A C 1.7784(5) 0.3736(5) -0.7187(4)
H7A H 1.80010 0.29370 -0.70040
C2A C 1.9158(6) 0.4230(6) -0.7751(5)
H8A H 1.96520 0.38750 -0.83580
H9A H 1.89710 0.50160 -0.79760
C3A C 2.0062(6) 0.4044(7) -0.6997(6)
H10A H 2.09300 0.43800 -0.73360
H11A H 2.03060 0.32550 -0.68230
C4A C 1.9304(6) 0.4528(5) -0.6021(4)
H12A H 1.91540 0.53270 -0.61880
H13A H 1.98880 0.43600 -0.55550
C5A C 1.7911(5) 0.4089(5) -0.5484(4)
H14A H 1.80680 0.33120 -0.52140
H15A H 1.74150 0.44830 -0.49030
C6A C 1.7015(5) 0.4215(5) -0.6205(4)
H16A H 1.68070 0.50120 -0.64080
C7A C 1.5067(5) 0.3457(4) -0.4858(4)
H17A H 1.55260 0.35650 -0.43950
C8A C 1.3756(5) 0.2980(4) -0.4427(4)
C9A C 1.3359(5) 0.2576(4) -0.3362(4)
H18A H 1.39360 0.26520 -0.29690
C10A C 1.2153(5) 0.2073(4) -0.2879(4)
C11A C 1.1279(6) 0.2032(5) -0.3493(4)
H19A H 1.04400 0.17140 -0.31880
C12A C 1.1618(6) 0.2442(5) -0.4511(4)
H20A H 1.09910 0.24110 -0.48790
C13A C 1.2880(5) 0.2913(4) -0.5040(4)
C14A C 1.1810(6) 0.1560(4) -0.1771(4)
C15A C 1.4861(9) -0.8478(5) 0.2591(6)
H21A H 1.39290 -0.85330 0.30950
C16A C 1.5250(7) -0.9669(5) 0.2504(5)
H22A H 1.62530 -0.97950 0.21670
H23A H 1.50580 -1.00920 0.31940
C17A C 1.4459(9) -1.0078(6) 0.1898(7)
H24A H 1.36390 -1.03860 0.23920
H25A H 1.50570 -1.06840 0.15680
C18A C 1.3992(8) -0.9331(5) 0.1126(6)
H26A H 1.47010 -0.94050 0.04680
H27A H 1.31430 -0.95790 0.10880
C19A C 1.3683(7) -0.8129(5) 0.1213(5)
H28A H 1.26810 -0.79650 0.15300
H29A H 1.39170 -0.77100 0.05210
C20A C 1.4452(8) -0.7756(5) 0.1821(6)
H30A H 1.53740 -0.77610 0.12980
C21A C 1.3807(5) -0.5842(4) 0.1380(4)
H31A H 1.35940 -0.60440 0.08300
C22A C 1.3549(5) -0.4697(4) 0.1484(3)
C23A C 1.3782(5) -0.4277(4) 0.2309(4)
C24A C 1.3364(6) -0.3141(4) 0.2358(4)
H32A H 1.34650 -0.28490 0.29060
C25A C 1.2816(5) -0.2441(4) 0.1643(4)
H33A H 1.25880 -0.16920 0.17000
C26A C 1.2599(5) -0.2857(4) 0.0822(4)
C27A C 1.2962(5) -0.3960(4) 0.0766(4)
H34A H 1.28170 -0.42420 0.02280
C28A C 1.1954(5) -0.2102(4) 0.0063(4)
Co2* Co 0.50710(7) 0.64059(6) -0.30892(5)
Co2A* Co 1.49290(7) -0.64059(6) 0.30892(5)
O6* O 0.5665(4) -0.5137(3) 0.6998(3)
O6A* O 1.4335(4) 0.5137(3) -0.6998(3)
N3* N 0.4500(5) -0.2001(3) 0.6795(3)
N3A* N 1.5500(5) 0.2001(3) -0.6795(3)
N4* N 0.5702(4) -0.3387(3) 0.8035(3)
N4A* N 1.4298(4) 0.3387(3) -0.8035(3)
#END
