
#######################################################################
#
#                 Cambridge Crystallographic Data Centre
#                                CCDC
#
#######################################################################
#
# If this CIF has been generated from an entry in the Cambridge
# Structural Database, then it will include bibliographic, chemical,
# crystal, experimental, refinement or atomic coordinate data resulting
# from the CCDC's data processing and validation procedures.
#
#######################################################################

data_CSD_CIF_MUBBAP
_audit_creation_date 2019-11-15
_audit_creation_method CSD-ConQuest-V1
_database_code_CSD MUBBAP
_database_code_depnum_ccdc_archive 'CCDC 1954105'
_chemical_formula_sum 'C18 H14 In1 N3 O8'
_chemical_formula_moiety
;
(C16 H6 In1 N2 O8 1-)n,C2 H8 N1 1+
;
_journal_coden_Cambridge 1695
_journal_volume 7
_journal_year 2019
_journal_page_first 14897
_journal_name_full 'J.Mater.Chem.C '
loop_
_publ_author_name
"Yu-Hui Luo"
"A-Di Xie"
"Wen-Cheng Chen"
"Dong Shen"
"Dong-En Zhang"
"Zhi-Wei Tong"
"Chun-Sing Lee"
_chemical_name_systematic
;
catena-[dimethylammonium 
(\m-5,5'-diazenediyldi(benzene-1,3-dicarboxylato))-indium unknown solvate]
;
_cell_volume   4367.275
_exptl_crystal_colour 'yellow'
_exptl_crystal_density_diffrn 0.783
_exptl_crystal_description 'Octahedron'
_diffrn_ambient_temperature 296
_diffrn_special_details
;
twin

;
_refine_special_details
;
Disordered solvent molecules and dimethylammonium ions were not modelled and 
the disordered density was taken into account using the SQUEEZE/PLATON 
procedure.
;
#These two values have been output from a single CSD field.
_refine_ls_R_factor_gt 0.0583
_refine_ls_wR_factor_gt 0.0583
_symmetry_cell_setting tetragonal
_symmetry_space_group_name_H-M 'P 43 2 2'
_symmetry_Int_Tables_number 95
loop_
_symmetry_equiv_pos_site_id
_symmetry_equiv_pos_as_xyz
1 x,y,z
2 -y,x,3/4+z
3 -x,-y,1/2+z
4 y,-x,1/4+z
5 x,-y,1/2-z
6 y,x,1/4-z
7 -x,y,-z
8 -y,-x,3/4-z
_cell_length_a 9.9792(16)
_cell_length_b 9.9792(16)
_cell_length_c 43.855(14)
_cell_angle_alpha 90
_cell_angle_beta 90
_cell_angle_gamma 90
_cell_formula_units_Z 4
loop_
_atom_type_symbol
_atom_type_radius_bond
C 0.68
H 0.23
In 1.42
N 0.68
O 0.68
loop_
_atom_site_label
_atom_site_type_symbol
_atom_site_fract_x
_atom_site_fract_y
_atom_site_fract_z
In1 In 0.95299(6) 0.95299(6) 0.12500
O1 O 0.8084(6) 0.9584(10) 0.08782(14)
C1 C 0.5661(9) 0.9536(13) 0.0865(2)
C2 C 0.5723(7) 0.9552(13) 0.0544(2)
H1 H 0.65400 0.95620 0.04420
C3 C 0.4536(9) 0.9551(12) 0.03891(19)
O2 O 0.7057(6) 0.9601(11) 0.13124(15)
C4 C 0.4503(9) 0.9618(12) 0.1026(2)
H2 H 0.45110 0.97070 0.12370
N1 N 0.4424(7) 0.9525(11) 0.00619(18)
C5 C 0.3299(7) 0.9564(13) 0.08642(19)
C6 C 0.3302(9) 0.9507(14) 0.0555(2)
H3 H 0.24950 0.94390 0.04500
C7 C 0.7015(8) 0.9489(13) 0.1022(2)
O3 O 0.1901(7) 0.9460(11) 0.13031(15)
C8 C 0.1972(9) 0.9617(14) 0.1042(3)
O4 O 0.0968(5) 0.9495(7) 0.08642(14)
O1F O 0.1916(6) 0.9584(10) -0.08782(14)
C1F C 0.4339(9) 0.9536(13) -0.0865(2)
C2F C 0.4277(7) 0.9552(13) -0.0544(2)
H1F H 0.34600 0.95620 -0.04420
C3F C 0.5464(9) 0.9551(12) -0.03891(19)
O2F O 0.2943(6) 0.9601(11) -0.13124(15)
C4F C 0.5497(9) 0.9618(12) -0.1026(2)
H2F H 0.54890 0.97070 -0.12370
N1F N 0.5576(7) 0.9525(11) -0.00619(18)
C5F C 0.6701(7) 0.9564(13) -0.08642(19)
C6F C 0.6698(9) 0.9507(14) -0.0555(2)
H3F H 0.75050 0.94390 -0.04500
C7F C 0.2985(8) 0.9489(13) -0.1022(2)
O3F O 0.8099(7) 0.9460(11) -0.13031(15)
C8F C 0.8028(9) 0.9617(14) -0.1042(3)
O4F O 0.9032(5) 0.9495(7) -0.08642(14)
In1* In -0.04701(6) 0.95299(6) 0.12500
In1A In 0.04701(6) 0.95299(6) -0.12500
In1A* In 1.04701(6) 0.95299(6) -0.12500
O1E O 0.9584(6) 0.8084(10) 0.16218(14)
O2E O 0.9601(6) 0.7057(11) 0.11876(15)
O3* O 1.1901(7) 0.9460(11) 0.13031(15)
O3E O 0.9460(7) 1.1901(11) 0.11969(15)
O4* O 1.0968(5) 0.9495(7) 0.08642(14)
O4E O 0.9495(5) 1.0968(7) 0.16358(14)
#END
