
#######################################################################
#
#                 Cambridge Crystallographic Data Centre
#                                CCDC
#
#######################################################################
#
# If this CIF has been generated from an entry in the Cambridge
# Structural Database, then it will include bibliographic, chemical,
# crystal, experimental, refinement or atomic coordinate data resulting
# from the CCDC's data processing and validation procedures.
#
#######################################################################

data_CSD_CIF_MUBMII
_audit_creation_date 2019-11-15
_audit_creation_method CSD-ConQuest-V1
_database_code_CSD MUBMII
_database_code_depnum_ccdc_archive 'CCDC 1918009'
_chemical_formula_sum 'C16 H62 Co2 Mo7 N2 Na2 O46'
_chemical_formula_moiety
;
2(C8 H21 Co1 N1 O6 2+),n(H16 Mo7 Na2 O32 4-),2(H2 O1)
;
_journal_coden_Cambridge 9
_journal_volume 58
_journal_year 2019
_journal_page_first 14876
_journal_name_full 'Inorg.Chem. '
loop_
_publ_author_name
"Yin Zhang"
"Wei-Dong Yu"
"Bin Li"
"Zheng-Fan Chen"
"Jun Yan"
_chemical_name_systematic
;
catena-[bis(aqua-(2-(bis(2-hydroxyethyl)amino)-2-(hydroxymethyl)propane-1,3-di
ol)-cobalt(ii)) 
hexadecakis(\m-oxo)-octa-aqua-octa-oxo-hepta-molybdenum(vi)-di-sodium 
dihydrate]
;
_cell_volume   4925.417
_exptl_crystal_colour 'pink'
_exptl_crystal_density_diffrn 2.5
_exptl_crystal_description 'Block'
_diffrn_ambient_temperature 296
_refine_special_details
;
O25 and O25' disordered over two sites with occupancies 0.5:0.5.

;
#These two values have been output from a single CSD field.
_refine_ls_R_factor_gt 0.0218
_refine_ls_wR_factor_gt 0.0218
_symmetry_cell_setting monoclinic
_symmetry_space_group_name_H-M 'C 2/c'
_symmetry_Int_Tables_number 15
loop_
_symmetry_equiv_pos_site_id
_symmetry_equiv_pos_as_xyz
1 x,y,z
2 -x,y,1/2-z
3 1/2+x,1/2+y,z
4 1/2-x,1/2+y,1/2-z
5 -x,-y,-z
6 x,-y,-1/2+z
7 -1/2-x,-1/2-y,-z
8 -1/2+x,-1/2-y,-1/2+z
_cell_length_a 24.3412(6)
_cell_length_b 10.8077(3)
_cell_length_c 19.1245(5)
_cell_angle_alpha 90
_cell_angle_beta 101.766(1)
_cell_angle_gamma 90
_cell_formula_units_Z 4
loop_
_atom_type_symbol
_atom_type_radius_bond
C 0.68
H 0.23
Co 1.26
Mo 1.54
N 0.68
Na 1.66
O 0.68
loop_
_atom_site_label
_atom_site_type_symbol
_atom_site_fract_x
_atom_site_fract_y
_atom_site_fract_z
Mo1 Mo 0.00000 0.64894(3) 0.25000
Mo2 Mo 0.10543(2) 0.85120(2) 0.23673(2)
Mo3 Mo -0.00701(2) 0.84990(2) 0.11013(2)
Mo4 Mo 0.11791(2) 0.69267(2) 0.38058(2)
O1 O -0.05657(8) 0.70894(19) 0.07039(10)
O2 O -0.04822(9) 0.9703(2) 0.07423(12)
O3 O 0.03734(9) 0.8236(2) 0.05277(11)
O4 O 0.04183(8) 0.94090(18) 0.18485(10)
O5 O 0.04259(8) 0.70414(17) 0.1840(1)
O6 O 0.14292(9) 0.8317(2) 0.17090(12)
O7 O 0.13918(9) 0.9669(2) 0.28970(11)
O8 O 0.05441(7) 0.79804(18) 0.31134(9)
O9 O 0.04675(9) 0.54790(19) 0.30245(11)
O10 O 0.14190(8) 0.70480(19) 0.29081(10)
O11 O 0.16278(9) 0.7965(2) 0.42812(12)
O12 O 0.14362(9) 0.5483(2) 0.40888(12)
O13 O -0.15934(11) 1.0941(2) 0.07205(14)
O14 O -0.05559(11) 1.4060(2) 0.04931(13)
O15 O -0.01486(13) 1.1821(3) 0.16780(18)
H1 H 0.02390 1.17610 0.17270
H2 H -0.03060 1.18640 0.20810
Na1 Na -0.07458(7) 1.18678(13) 0.05012(8)
O16 O -0.15889(12) 1.3000(3) -0.04870(15)
H3 H -0.0830(15) 1.442(5) 0.062(3)
H4 H -0.0315(18) 1.456(4) 0.071(3)
H5 H -0.1836(17) 1.068(5) 0.0369(19)
H6 H -0.151(2) 1.035(3) 0.101(2)
H7 H -0.145(2) 1.259(5) -0.079(2)
H8 H -0.1929(8) 1.279(5) -0.063(3)
Co1 Co 0.11310(2) 0.40906(4) 0.13385(2)
O17 O 0.07674(9) 0.2624(2) 0.07122(11)
H9 H 0.05360 0.27780 0.02700
O18 O 0.16821(9) 0.4457(2) 0.06813(11)
H10 H 0.16260 0.51870 0.04200
O19 O 0.16586(9) 0.52062(19) 0.21357(11)
H11 H 0.17350 0.60480 0.21250
O20 O 0.08076(9) 0.3560(2) 0.22467(11)
H12 H 0.04420 0.35750 0.23230
O21 O 0.05279(9) 0.5314(2) 0.08982(11)
O22 O 0.22788(10) 0.2475(2) 0.37491(12)
N1 N 0.17281(10) 0.2756(2) 0.17624(12)
C1 C 0.11264(14) 0.1552(3) 0.08080(17)
H13 H 0.13830 0.15850 0.04810
H14 H 0.09030 0.08060 0.07100
C2 C 0.14528(13) 0.1538(3) 0.15715(16)
H15 H 0.12010 0.13580 0.18910
H16 H 0.17350 0.08930 0.16280
C3 C 0.22354(15) 0.4101(4) 0.1024(2)
H17 H 0.24000 0.47420 0.13570
H18 H 0.24660 0.40100 0.06700
C4 C 0.22251(13) 0.2896(3) 0.14195(17)
H19 H 0.22270 0.22180 0.10880
H20 H 0.25640 0.28350 0.17860
C5 C 0.12506(12) 0.3007(3) 0.27760(16)
H21 H 0.11610 0.21470 0.28450
H22 H 0.12770 0.34330 0.32280
C6 C 0.20267(13) 0.4417(3) 0.26231(16)
H23 H 0.20430 0.46950 0.31090
H24 H 0.24020 0.44600 0.25270
C7 C 0.18160(11) 0.3085(3) 0.25425(15)
C8 C 0.22353(12) 0.2215(3) 0.30097(16)
H25 H 0.21150 0.13650 0.29140
H26 H 0.26010 0.23070 0.28880
H27 H 0.050(2) 0.596(3) 0.114(3)
H28 H 0.055(2) 0.565(5) 0.0505(16)
H29 H 0.2073(19) 0.198(4) 0.392(3)
O23 O 0.2644(2) 0.4819(6) 0.4463(3)
O24? O 0.2519(3) 0.4552(7) 0.4580(4)
Mo2A Mo -0.10543(2) 0.85120(2) 0.26327(2)
Mo3A Mo 0.00701(2) 0.84990(2) 0.38987(2)
Mo4A Mo -0.11791(2) 0.69267(2) 0.11942(2)
O1A O 0.05657(8) 0.70894(19) 0.42961(10)
O2A O 0.04822(9) 0.9703(2) 0.42577(12)
O3A O -0.03734(9) 0.8236(2) 0.44723(11)
O4A O -0.04183(8) 0.94090(18) 0.31515(10)
O5A O -0.04259(8) 0.70414(17) 0.3160(1)
O6A O -0.14292(9) 0.8317(2) 0.32910(12)
O7A O -0.13918(9) 0.9669(2) 0.21030(11)
O8A O -0.05441(7) 0.79804(18) 0.18866(9)
O9A O -0.04675(9) 0.54790(19) 0.19755(11)
O10A O -0.14190(8) 0.70480(19) 0.20919(10)
O11A O -0.16278(9) 0.7965(2) 0.07188(12)
O12A O -0.14362(9) 0.5483(2) 0.09112(12)
O13A O 0.15934(11) 1.0941(2) 0.42795(14)
O14A O 0.05559(11) 1.4060(2) 0.45069(13)
O15A O 0.01486(13) 1.1821(3) 0.33220(18)
H1A H -0.02390 1.17610 0.32730
H2A H 0.03060 1.18640 0.29190
Na1A Na 0.07458(7) 1.18678(13) 0.44988(8)
O16A O 0.15889(12) 1.3000(3) 0.54870(15)
H3A H 0.0830(15) 1.442(5) 0.438(3)
H4A H 0.0315(18) 1.456(4) 0.429(3)
H5A H 0.1836(17) 1.068(5) 0.4631(19)
H6A H 0.151(2) 1.035(3) 0.399(2)
H7A H 0.145(2) 1.259(5) 0.579(2)
H8A H 0.1929(8) 1.279(5) 0.563(3)
O3D O -0.03734(9) 1.1764(2) -0.05277(11)
O3E O 0.03734(9) 1.1764(2) 0.55277(11)
Na1D Na 0.07458(7) 0.81322(13) -0.05012(8)
Na1E Na -0.07458(7) 0.81322(13) 0.55012(8)
#END
