
#######################################################################
#
#                 Cambridge Crystallographic Data Centre
#                                CCDC
#
#######################################################################
#
# If this CIF has been generated from an entry in the Cambridge
# Structural Database, then it will include bibliographic, chemical,
# crystal, experimental, refinement or atomic coordinate data resulting
# from the CCDC's data processing and validation procedures.
#
#######################################################################

data_CSD_CIF_MUDYEQ
_audit_creation_date 2010-06-29
_audit_creation_method CSD-ConQuest-V1
_database_code_CSD MUDYEQ
_database_code_depnum_ccdc_archive 'CCDC 709703'
_chemical_formula_sum 'C32 H78 Cr1 Mn2 Mo6 N4 Na1 O50'
_chemical_formula_moiety
;
(C32 H32 Mn2 N4 O6 2+)n,n(H10 Cr1 Mo6 Na1 O26 2-),18n(H2 O1)
;
_journal_coden_Cambridge 182
_journal_year 2009
_journal_page_first 5743
_journal_name_full 'Chem.Commun. '
loop_
_publ_author_name
"Qiong Wu"
"Yang-Guang Li"
"Yong-Hui Wang"
"R.Clerac"
"Ying Lu"
"En-Bo Wang"
_chemical_name_systematic
;
catena-(bis(\m~2~-N,N'-bis(salicylidene)ethylenediamine)-diaqua-di-manganese(i
ii) 
hexakis(\m~3~-hydroxo)-decakis(\m~2~-oxo)-diaqua-octaoxo-chromium-hexa-molybde
num-sodium octadecahydrate)
;
_cell_volume   1659.965
_exptl_crystal_colour 'brown'
_exptl_crystal_density_diffrn 2.08
_exptl_special_details
;
isostructural with the Al analogue

;
_exptl_crystal_description 'block'
_diffrn_ambient_temperature 150
_refine_special_details
;
O37 and O39A disordered over two sites with occupancies 0.72:0.28; O38 and 
O39A disordered over two sites with occupancies 0.70:0.28; O39 and O39A 
disordered over two sites with occupancies 0.72:0.28.
;
#These two values have been output from a single CSD field.
_refine_ls_R_factor_gt 0.0266
_refine_ls_wR_factor_gt 0.0266
_symmetry_cell_setting triclinic
_symmetry_space_group_name_H-M 'P -1'
_symmetry_Int_Tables_number 2
loop_
_symmetry_equiv_pos_site_id
_symmetry_equiv_pos_as_xyz
1 x,y,z
2 -x,-y,-z
_cell_length_a 10.896(2)
_cell_length_b 11.223(2)
_cell_length_c 15.417(3)
_cell_angle_alpha 105.47(3)
_cell_angle_beta 98.24(3)
_cell_angle_gamma 109.18(3)
_cell_formula_units_Z 1
loop_
_atom_type_symbol
_atom_type_radius_bond
C 0.68
H 0.23
Cr 1.39
Mn 1.43
Mo 1.39
N 0.68
Na 1.66
O 0.68
loop_
_atom_site_label
_atom_site_type_symbol
_atom_site_fract_x
_atom_site_fract_y
_atom_site_fract_z
Mo1 Mo 0.11101(3) 0.19851(3) 0.722757(18)
Mo2 Mo -0.20271(3) -0.02654(3) 0.639634(18)
Mo3 Mo -0.31793(3) -0.22336(3) 0.417120(19)
Cr1 Cr 0.00000 0.00000 0.50000
O1 O -0.1810(2) -0.0004(2) 0.50037(15)
H1 H -0.203(4) 0.060(3) 0.488(3)
O2 O 0.0006(2) -0.0202(2) 0.62303(15)
H2 H 0.027(4) -0.077(3) 0.636(2)
O3 O 0.0972(2) 0.1920(2) 0.57196(15)
H3 H 0.067(4) 0.247(3) 0.560(2)
O4 O -0.0784(2) 0.1602(2) 0.68989(15)
O5 O -0.1855(3) -0.0730(2) 0.73615(16)
O6 O -0.2682(2) -0.2030(2) 0.54754(15)
O7 O -0.3751(3) -0.3934(2) 0.37410(17)
O8 O 0.1277(3) 0.1521(3) 0.81969(16)
O9 O -0.3450(3) 0.0082(2) 0.63224(16)
O10 O 0.1671(3) 0.3687(2) 0.76260(17)
O11 O -0.4587(3) -0.1863(2) 0.41260(16)
O12 O 0.2666(2) 0.1725(2) 0.68614(15)
Na1 Na -0.50000 0.00000 0.50000
O13 O -0.6673(3) -0.1309(3) 0.55817(19)
H4 H -0.673(5) -0.2109(18) 0.542(2)
H5 H -0.660(5) -0.100(3) 0.6163(10)
Mn1 Mn 0.43332(5) 0.11451(5) 1.01925(3)
O14 O 0.2313(3) 0.1161(3) 0.98636(18)
H6 H 0.190(3) 0.114(4) 0.9346(13)
H7 H 0.186(3) 0.122(4) 1.0260(18)
O15 O 0.4709(2) 0.1652(2) 0.91620(15)
O16 O 0.3674(2) -0.0751(2) 0.95510(15)
N1 N 0.5175(3) 0.3023(3) 1.10413(18)
N2 N 0.4146(3) 0.0813(3) 1.13719(19)
C1 C 0.6017(4) 0.4017(3) 0.9923(2)
C2 C 0.5445(3) 0.2846(3) 0.9133(2)
C3 C 0.5669(4) 0.2942(4) 0.8275(3)
H8 H 0.52980 0.21650 0.77340
C4 C 0.6428(4) 0.4161(4) 0.8213(3)
H9 H 0.65560 0.42120 0.76250
C5 C 0.7008(4) 0.5314(4) 0.8994(3)
H10 H 0.75450 0.61400 0.89440
C6 C 0.6796(4) 0.5242(3) 0.9834(3)
H11 H 0.71790 0.60290 1.03680
C7 C 0.5811(4) 0.4046(3) 1.0828(2)
H12 H 0.61770 0.48930 1.13090
C8 C 0.2428(4) -0.1400(3) 1.0634(2)
C9 C 0.2609(3) -0.1589(3) 0.9726(2)
C10 C 0.1693(4) -0.2725(3) 0.9003(2)
H13 H 0.18120 -0.28880 0.83890
C11 C 0.0613(4) -0.3613(4) 0.9177(3)
H14 H -0.00110 -0.43750 0.86780
C12 C 0.0424(4) -0.3407(4) 1.0071(3)
H15 H -0.03300 -0.40140 1.01810
C13 C 0.1340(4) -0.2320(4) 1.0791(3)
H16 H 0.12310 -0.21910 1.14050
C14 C 0.3358(4) -0.0270(3) 1.1431(2)
H17 H 0.33780 -0.03450 1.20320
C15 C 0.4984(4) 0.3189(3) 1.1990(2)
H18 H 0.41100 0.32660 1.20200
H19 H 0.57090 0.40080 1.24450
C16 C 0.5022(4) 0.1956(3) 1.2204(2)
H20 H 0.59510 0.19840 1.23180
H21 H 0.46840 0.18940 1.27590
O17 O 0.0624(3) -0.2163(3) 0.65833(19)
H22 H 0.1391(19) -0.168(4) 0.696(2)
H23 H 0.012(3) -0.266(3) 0.682(2)
O18 O 0.0781(4) 0.1281(3) 1.1099(2)
H24 H 0.110(5) 0.102(4) 1.152(2)
H25 H 0.071(5) 0.202(3) 1.135(3)
O19 O 0.3664(3) 0.4272(3) 0.3996(2)
H26 H 0.349(4) 0.356(3) 0.414(3)
H27 H 0.4491(15) 0.463(4) 0.403(3)
O20 O 0.3172(3) -0.0232(3) 0.74104(17)
H28 H 0.363(4) 0.006(3) 0.7961(12)
H29 H 0.289(4) 0.033(3) 0.728(2)
O21 O 0.1263(3) 0.3753(3) 0.2772(2)
H30 H 0.204(2) 0.386(4) 0.306(3)
H31 H 0.114(4) 0.448(3) 0.290(3)
O22 O 0.3610(6) 0.6334(6) 0.5535(4)
O23 O 0.0311(5) -0.3459(5) 0.4738(4)
O24 O 0.2020(6) -0.3263(5) 0.3519(4)
O25 O -0.1831(5) -0.5647(4) 0.3336(3)
H32 H -0.186(6) -0.502(4) 0.311(3)
H33 H -0.127(5) -0.525(4) 0.388(2)
O26? O 0.1323(16) -0.3768(13) 0.3501(10)
Mo1A Mo -0.11101(3) -0.19851(3) 0.277243(18)
Mo2A Mo 0.20271(3) 0.02654(3) 0.360366(18)
Mo3A Mo 0.31793(3) 0.22336(3) 0.582880(19)
O1A O 0.1810(2) 0.0004(2) 0.49963(15)
H1A H 0.203(4) -0.060(3) 0.512(3)
O2A O -0.0006(2) 0.0202(2) 0.37697(15)
H2A H -0.027(4) 0.077(3) 0.364(2)
O3A O -0.0972(2) -0.1920(2) 0.42804(15)
H3A H -0.067(4) -0.247(3) 0.440(2)
O4A O 0.0784(2) -0.1602(2) 0.31011(15)
O5A O 0.1855(3) 0.0730(2) 0.26385(16)
O6A O 0.2682(2) 0.2030(2) 0.45246(15)
O7A O 0.3751(3) 0.3934(2) 0.62590(17)
O8A O -0.1277(3) -0.1521(3) 0.18031(16)
O9A O 0.3450(3) -0.0082(2) 0.36776(16)
O9A* O -0.6550(3) -0.0082(2) 0.36776(16)
O10A O -0.1671(3) -0.3687(2) 0.23740(17)
O11A O 0.4587(3) 0.1863(2) 0.58740(16)
O11A* O -0.5413(3) 0.1863(2) 0.58740(16)
O12A O -0.2666(2) -0.1725(2) 0.31386(15)
Na1* Na 0.50000 0.00000 0.50000
O13A O -0.3327(3) 0.1309(3) 0.44183(19)
H4A H -0.327(5) 0.2109(18) 0.458(2)
H5A H -0.340(5) 0.100(3) 0.3837(10)
Mn1A Mn 0.56668(5) -0.11451(5) 0.98075(3)
O14A O 0.7687(3) -0.1161(3) 1.01364(18)
H6A H 0.810(3) -0.114(4) 1.0654(13)
H7A H 0.814(3) -0.122(4) 0.9740(18)
O15A O 0.5291(2) -0.1652(2) 1.08380(15)
O16A O 0.6326(2) 0.0751(2) 1.04490(15)
N1A N 0.4825(3) -0.3023(3) 0.89587(18)
N2A N 0.5854(3) -0.0813(3) 0.86281(19)
C1A C 0.3983(4) -0.4017(3) 1.0077(2)
C2A C 0.4555(3) -0.2846(3) 1.0867(2)
C3A C 0.4331(4) -0.2942(4) 1.1725(3)
H8A H 0.47020 -0.21650 1.22660
C4A C 0.3572(4) -0.4161(4) 1.1787(3)
H9A H 0.34440 -0.42120 1.23750
C5A C 0.2992(4) -0.5314(4) 1.1006(3)
H10A H 0.24550 -0.61400 1.10560
C6A C 0.3204(4) -0.5242(3) 1.0166(3)
H11A H 0.28210 -0.60290 0.96320
C7A C 0.4189(4) -0.4046(3) 0.9172(2)
H12A H 0.38230 -0.48930 0.86910
C8A C 0.7572(4) 0.1400(3) 0.9366(2)
C9A C 0.7391(3) 0.1589(3) 1.0274(2)
C10A C 0.8307(4) 0.2725(3) 1.0997(2)
H13A H 0.81880 0.28880 1.16110
C11A C 0.9387(4) 0.3613(4) 1.0823(3)
H14A H 1.00110 0.43750 1.13220
C12A C 0.9576(4) 0.3407(4) 0.9929(3)
H15A H 1.03300 0.40140 0.98190
C13A C 0.8660(4) 0.2320(4) 0.9209(3)
H16A H 0.87690 0.21910 0.85950
C14A C 0.6642(4) 0.0270(3) 0.8569(2)
H17A H 0.66220 0.03450 0.79680
C15A C 0.5016(4) -0.3189(3) 0.8010(2)
H18A H 0.58900 -0.32660 0.79800
H19A H 0.42910 -0.40080 0.75550
C16A C 0.4978(4) -0.1956(3) 0.7796(2)
H20A H 0.40490 -0.19840 0.76820
H21A H 0.53160 -0.18940 0.72410
#END
