
#######################################################################
#
#                 Cambridge Crystallographic Data Centre
#                                CCDC
#
#######################################################################
#
# If this CIF has been generated from an entry in the Cambridge
# Structural Database, then it will include bibliographic, chemical,
# crystal, experimental, refinement or atomic coordinate data resulting
# from the CCDC's data processing and validation procedures.
#
#######################################################################

data_CSD_CIF_MUDYAM
_audit_creation_date 2010-06-29
_audit_creation_method CSD-ConQuest-V1
_database_code_CSD MUDYAM
_database_code_depnum_ccdc_archive 'CCDC 709702'
_chemical_formula_sum 'C32 H78 Al1 Mn2 Mo6 N4 Na1 O50'
_chemical_formula_moiety
;
(C32 H32 Mn2 N4 O6 2+)n,n(H10 Al1 Mo6 Na1 O26 2-),18n(H2 O1)
;
_journal_coden_Cambridge 182
_journal_year 2009
_journal_page_first 5743
_journal_name_full 'Chem.Commun. '
loop_
_publ_author_name
"Qiong Wu"
"Yang-Guang Li"
"Yong-Hui Wang"
"R.Clerac"
"Ying Lu"
"En-Bo Wang"
_chemical_name_systematic
;
catena-(bis(\m~2~-N,N'-bis(salicylidene)ethylenediamine)-diaqua-di-manganese(i
ii) 
hexakis(\m~3~-hydroxo)-decakis(\m~2~-oxo)-diaqua-octaoxo-aluminium-hexa-molybd
enum-sodium octadecahydrate)
;
_cell_volume   1650.468
_exptl_crystal_colour 'brown'
_exptl_crystal_density_diffrn 2.067
_exptl_special_details
;
isostructural with the Cr analogue

;
_exptl_crystal_description 'block'
_diffrn_ambient_temperature 150
_refine_special_details
;
O37 and O39A disordered over two sites with occupancies 0.70:0.26; O38 and 
O39A disordered over two sites with occupancies 0.73:0.26; O39 and O39A 
disordered over two sites with occupancies 0.74:0.26.
;
#These two values have been output from a single CSD field.
_refine_ls_R_factor_gt 0.047
_refine_ls_wR_factor_gt 0.047
_symmetry_cell_setting triclinic
_symmetry_space_group_name_H-M 'P -1'
_symmetry_Int_Tables_number 2
loop_
_symmetry_equiv_pos_site_id
_symmetry_equiv_pos_as_xyz
1 x,y,z
2 -x,-y,-z
_cell_length_a 10.860(2)
_cell_length_b 11.219(2)
_cell_length_c 15.377(3)
_cell_angle_alpha 105.62(3)
_cell_angle_beta 98.15(3)
_cell_angle_gamma 109.04(3)
_cell_formula_units_Z 1
loop_
_atom_type_symbol
_atom_type_radius_bond
C 0.68
H 0.23
Al 1.21
Mn 1.43
Mo 1.41
N 0.68
Na 1.94
O 0.68
loop_
_atom_site_label
_atom_site_type_symbol
_atom_site_fract_x
_atom_site_fract_y
_atom_site_fract_z
Mo1 Mo 0.70156(6) 0.52613(6) 0.36085(4)
Mo2 Mo 0.81632(6) 0.72235(6) 0.58255(4)
Mo3 Mo 0.61034(6) 0.69759(6) 0.72185(4)
Al1 Al 0.50000 0.50000 0.50000
O1 O 0.5929(5) 0.6848(4) 0.5690(3)
H1 H 0.555(6) 0.736(6) 0.557(5)
O2 O 0.4995(5) 0.5200(5) 0.3814(3)
H2 H 0.482(7) 0.582(5) 0.367(5)
O3 O 0.6750(5) 0.4995(4) 0.4994(3)
H3 H 0.690(7) 0.436(5) 0.512(5)
O4 O 0.8456(5) 0.4928(5) 0.3683(3)
O5 O 0.9574(5) 0.6853(5) 0.5865(3)
O6 O 0.5787(5) 0.3394(5) 0.3107(3)
O7 O 0.6264(5) 0.6509(5) 0.8190(3)
O8 O 0.6660(5) 0.8674(5) 0.7610(3)
O9 O 0.8723(5) 0.8925(5) 0.6264(3)
O10 O 0.7665(5) 0.6717(5) 0.6866(3)
O11 O 0.6822(5) 0.5711(5) 0.2643(3)
O12 O 0.7680(5) 0.7031(4) 0.4529(3)
Na1 Na 1.00000 0.50000 0.50000
O13 O 0.8327(6) 0.3702(6) 0.5574(4)
H4 H 0.848(8) 0.403(6) 0.6166(11)
H5 H 0.823(9) 0.288(3) 0.541(4)
Mn1 Mn 0.93307(10) 0.61446(10) 1.01953(7)
O14 O 0.7305(5) 0.6147(6) 0.9859(4)
H6 H 0.682(6) 0.629(8) 1.023(3)
H7 H 0.696(6) 0.612(8) 0.932(2)
O15 O 0.8674(4) 0.4247(4) 0.9553(3)
O16 O 0.9709(5) 0.6648(4) 0.9170(3)
N1 N 0.9153(6) 0.5820(6) 1.1374(4)
N2 N 1.0175(6) 0.8019(6) 1.1052(4)
C1 C 0.7605(7) 0.3405(7) 0.9726(5)
C2 C 0.6704(7) 0.2271(7) 0.9005(5)
H8 H 0.68360 0.21050 0.83930
C3 C 0.5622(8) 0.1385(8) 0.9171(6)
H9 H 0.50010 0.06270 0.86670
C4 C 0.5420(7) 0.1578(8) 1.0061(6)
H10 H 0.46600 0.09680 1.01650
C5 C 0.6338(7) 0.2668(8) 1.0792(5)
H11 H 0.62300 0.27880 1.14080
C6 C 0.7423(7) 0.3596(7) 1.0638(5)
C7 C 0.8345(7) 0.4717(7) 1.1438(5)
H12 H 0.83620 0.46430 1.20410
C8 C 1.0018(8) 0.6953(7) 1.2210(5)
H13 H 1.09510 0.69860 1.23270
H14 H 0.96740 0.68850 1.27650
C9 C 0.9970(8) 0.8190(7) 1.1998(5)
H15 H 0.90880 0.82580 1.20200
H16 H 1.06870 0.90120 1.24570
C10 C 1.0820(7) 0.9047(7) 1.0844(5)
H17 H 1.11990 0.98900 1.13320
C11 C 1.1013(7) 0.9026(7) 0.9935(5)
C12 C 1.1800(7) 1.0242(7) 0.9843(5)
H18 H 1.21900 1.10270 1.03790
C13 C 1.2014(7) 1.0318(8) 0.9007(6)
H19 H 1.25580 1.11410 0.89570
C14 C 1.1414(7) 0.9153(8) 0.8221(6)
H20 H 1.15280 0.92040 0.76290
C15 C 1.0668(7) 0.7945(7) 0.8279(5)
H21 H 1.02980 0.71670 0.77370
C16 C 1.0452(6) 0.7859(7) 0.9141(5)
O17 O 0.8681(5) 0.9270(6) 0.3998(4)
H22 H 0.857(6) 0.873(7) 0.430(5)
H23 H 0.946(4) 0.949(8) 0.390(6)
O18 O 0.8172(5) 0.4759(5) 0.7416(3)
H24 H 0.865(6) 0.515(5) 0.797(2)
H25 H 0.791(7) 0.528(5) 0.721(4)
O19 O 0.5784(7) 0.6290(7) 1.1105(4)
H26 H 0.595(9) 0.590(8) 1.148(4)
H27 H 0.544(9) 0.684(7) 1.133(5)
O20 O 0.6282(6) 0.8752(6) 0.2765(4)
H28 H 0.701(5) 0.880(7) 0.309(5)
H29 H 0.614(7) 0.946(5) 0.298(5)
O21 O 0.5620(5) 0.2840(6) 0.6574(4)
H30 H 0.502(4) 0.243(7) 0.680(4)
H31 H 0.637(3) 0.329(7) 0.698(3)
O22 O 0.5322(8) 0.1559(8) 0.4751(6)
O23 O 0.7035(9) 0.1725(9) 0.3520(6)
O24 O 0.8621(10) 1.1325(11) 0.5534(7)
O25 O 0.6815(8) 1.0629(7) 0.6649(6)
H32 H 0.733(9) 1.086(10) 0.630(7)
H33 H 0.691(10) 0.997(8) 0.679(8)
O26? O 0.802(3) 1.113(3) 0.549(3)
Mo1A Mo 0.29844(6) 0.47387(6) 0.63915(4)
Mo2A Mo 0.18368(6) 0.27765(6) 0.41745(4)
Mo3A Mo 0.38966(6) 0.30241(6) 0.27815(4)
O1A O 0.4071(5) 0.3152(4) 0.4310(3)
H1A H 0.445(6) 0.264(6) 0.443(5)
O2A O 0.5005(5) 0.4800(5) 0.6186(3)
H2A H 0.518(7) 0.418(5) 0.633(5)
O3A O 0.3250(5) 0.5005(4) 0.5006(3)
H3A H 0.310(7) 0.564(5) 0.488(5)
O4A O 0.1544(5) 0.5072(5) 0.6317(3)
O4A* O 1.1544(5) 0.5072(5) 0.6317(3)
O5A O 0.0426(5) 0.3147(5) 0.4135(3)
O5A* O 1.0426(5) 0.3147(5) 0.4135(3)
O6A O 0.4213(5) 0.6606(5) 0.6893(3)
O7A O 0.3736(5) 0.3491(5) 0.1810(3)
O8A O 0.3340(5) 0.1326(5) 0.2390(3)
O9A O 0.1277(5) 0.1075(5) 0.3736(3)
O10A O 0.2335(5) 0.3283(5) 0.3134(3)
O11A O 0.3178(5) 0.4289(5) 0.7357(3)
O12A O 0.2320(5) 0.2969(4) 0.5471(3)
Na1* Na 0.00000 0.50000 0.50000
O13A O 1.1673(6) 0.6298(6) 0.4426(4)
H4A H 1.152(8) 0.597(6) 0.3834(11)
H5A H 1.177(9) 0.712(3) 0.459(4)
Mn1A Mn 1.06693(10) 0.38554(10) 0.98047(7)
O14A O 1.2695(5) 0.3853(6) 1.0141(4)
H6A H 1.318(6) 0.371(8) 0.977(3)
H7A H 1.304(6) 0.388(8) 1.068(2)
O15A O 1.1326(4) 0.5753(4) 1.0447(3)
O16A O 1.0291(5) 0.3352(4) 1.0830(3)
N1A N 1.0847(6) 0.4180(6) 0.8626(4)
N2A N 0.9825(6) 0.1981(6) 0.8948(4)
C1A C 1.2395(7) 0.6595(7) 1.0274(5)
C2A C 1.3296(7) 0.7729(7) 1.0995(5)
H8A H 1.31640 0.78950 1.16070
C3A C 1.4378(8) 0.8615(8) 1.0829(6)
H9A H 1.49990 0.93730 1.13330
C4A C 1.4580(7) 0.8422(8) 0.9939(6)
H10A H 1.53400 0.90320 0.98350
C5A C 1.3662(7) 0.7332(8) 0.9208(5)
H11A H 1.37700 0.72120 0.85920
C6A C 1.2577(7) 0.6404(7) 0.9362(5)
C7A C 1.1655(7) 0.5283(7) 0.8562(5)
H12A H 1.16380 0.53570 0.79590
C8A C 0.9982(8) 0.3047(7) 0.7790(5)
H13A H 0.90490 0.30140 0.76730
H14A H 1.03260 0.31150 0.72350
C9A C 1.0030(8) 0.1810(7) 0.8002(5)
H15A H 1.09120 0.17420 0.79800
H16A H 0.93130 0.09880 0.75430
C10A C 0.9180(7) 0.0953(7) 0.9156(5)
H17A H 0.88010 0.01100 0.86680
C11A C 0.8987(7) 0.0974(7) 1.0065(5)
C12A C 0.8200(7) -0.0242(7) 1.0157(5)
H18A H 0.78100 -0.10270 0.96210
C13A C 0.7986(7) -0.0318(8) 1.0993(6)
H19A H 0.74420 -0.11410 1.10430
C14A C 0.8586(7) 0.0847(8) 1.1779(6)
H20A H 0.84720 0.07960 1.23710
C15A C 0.9332(7) 0.2055(7) 1.1721(5)
H21A H 0.97020 0.28330 1.22630
C16A C 0.9548(6) 0.2141(7) 1.0859(5)
#END
