
#######################################################################
#
#                 Cambridge Crystallographic Data Centre
#                                CCDC
#
#######################################################################
#
# If this CIF has been generated from an entry in the Cambridge
# Structural Database, then it will include bibliographic, chemical,
# crystal, experimental, refinement or atomic coordinate data resulting
# from the CCDC's data processing and validation procedures.
#
#######################################################################

data_CSD_CIF_MUFGIE
_audit_creation_date 2010-07-07
_audit_creation_method CSD-ConQuest-V1
_database_code_CSD MUFGIE
_database_code_depnum_ccdc_archive 'CCDC 734594'
_chemical_formula_sum 'C22 H20 Co2 N2 O11'
_chemical_formula_moiety
;
(C6 H11 N2 1+)n,n(C16 H9 Co2 O11 1-)
;
_journal_coden_Cambridge 1295
_journal_volume 12
_journal_year 2009
_journal_page_first 956
_journal_name_full 'Inorg.Chem.Commun. '
loop_
_publ_author_name
"Jian-Wei Ji"
"Wei Zhang"
"Guo-Xin Zhang"
"Zheng-Bo Han"
_chemical_name_systematic
;
catena-(1-Ethyl-3-methylimidazolium 
(\m~4~-5-hydroxyisophthalato)-(\m~3~-hydroxo)-(\m~3~-5-hydroxyisophthalato)-di
-cobalt(ii))
;
_cell_volume   1255.533
_exptl_crystal_colour 'purple'
_exptl_crystal_density_diffrn 1.604
_exptl_crystal_description 'block'
_diffrn_ambient_temperature 293
#These two values have been output from a single CSD field.
_refine_ls_R_factor_gt 0.0464
_refine_ls_wR_factor_gt 0.0464
_symmetry_cell_setting triclinic
_symmetry_space_group_name_H-M 'P -1'
_symmetry_Int_Tables_number 2
loop_
_symmetry_equiv_pos_site_id
_symmetry_equiv_pos_as_xyz
1 x,y,z
2 -x,-y,-z
_cell_length_a 10.1611(19)
_cell_length_b 10.868(2)
_cell_length_c 12.8264(17)
_cell_angle_alpha 90.714(14)
_cell_angle_beta 109.446(14)
_cell_angle_gamma 108.498(15)
_cell_formula_units_Z 2
loop_
_atom_type_symbol
_atom_type_radius_bond
C 0.68
H 0.23
Co 1.23
N 0.68
O 0.68
loop_
_atom_site_label
_atom_site_type_symbol
_atom_site_fract_x
_atom_site_fract_y
_atom_site_fract_z
Co1 Co 0.23837(5) 0.41011(5) 0.27719(4)
Co2 Co 0.50621(6) 0.36273(5) 0.47272(4)
C1 C 0.2454(4) 0.1415(4) 0.3186(3)
C2 C 0.1971(4) 0.0029(4) 0.2653(3)
C3 C 0.0866(5) -0.0379(4) 0.1611(4)
H1 H 0.04110 0.01970 0.12540
C4 C 0.0435(5) -0.1652(4) 0.1096(3)
C5 C 0.1127(5) -0.2503(4) 0.1622(3)
H2 H 0.08380 -0.33540 0.12820
C6 C 0.2255(4) -0.2080(4) 0.2661(3)
C7 C 0.2660(4) -0.0821(4) 0.3182(3)
H3 H 0.33950 -0.05490 0.38870
C8 C 0.3047(4) -0.2977(4) 0.3210(3)
C9 C -0.0234(4) 0.4043(4) 0.1872(3)
C10 C -0.1829(4) 0.3952(4) 0.1389(3)
C11 C -0.2560(5) 0.3770(4) 0.0249(4)
H4 H -0.20440 0.37760 -0.02300
C12 C -0.4066(4) 0.3578(4) -0.0182(3)
C13 C -0.4827(5) 0.3619(4) 0.0533(3)
H5 H -0.58350 0.35000 0.02440
C14 C -0.4086(4) 0.3838(4) 0.1669(3)
C15 C -0.2590(5) 0.3996(4) 0.2100(3)
H6 H -0.20940 0.41320 0.28680
C16 C -0.4881(4) 0.3919(4) 0.2459(3)
C17 C 0.269(2) 1.0377(15) 0.8535(18)
H7 H 0.35360 1.11830 0.87240
H8 H 0.17960 1.06030 0.82850
C18 C 0.3854(10) 0.9658(9) 0.7304(10)
H9 H 0.48350 1.01980 0.76600
C19 C 0.3341(8) 0.8832(7) 0.6365(8)
H10 H 0.38940 0.86790 0.59590
C20 C 0.1503(9) 0.8715(7) 0.6928(9)
H11 H 0.05560 0.84570 0.69640
C21 C 0.0875(11) 0.7242(12) 0.5189(8)
H12 H 0.14060 0.70980 0.47320
H13 H 0.00680 0.75100 0.47510
H14 H 0.04920 0.64460 0.54730
N1 N 0.2703(9) 0.9580(7) 0.7656(9)
N2 N 0.1880(7) 0.8266(6) 0.6121(6)
O1 O 0.3660(4) 0.1801(3) 0.3988(3)
O2 O 0.1634(3) 0.2066(2) 0.2800(2)
O3 O -0.0678(5) -0.2006(4) 0.0089(3)
H15 H -0.05720 -0.25660 -0.02770
O4 O 0.3096(3) -0.3868(3) 0.2602(2)
O5 O 0.3636(4) -0.2767(3) 0.4254(2)
O6 O 0.0445(3) 0.3904(3) 0.1240(3)
O7 O 0.0400(3) 0.4234(3) 0.2911(2)
O8 O -0.4837(3) 0.3349(4) -0.1303(2)
H16 H -0.42530 0.35230 -0.16370
O9 O -0.4146(4) 0.4034(4) 0.3483(3)
O10 O -0.6191(3) 0.3870(3) 0.2054(2)
O11 O 0.3532(3) 0.4491(3) 0.4444(2)
H17 H 0.28570 0.40980 0.48390
C22 C 0.275(2) 0.980(2) 0.9406(16)
H18 H 0.26860 1.03530 0.99660
H19 H 0.36640 0.96320 0.96860
H20 H 0.19300 0.89910 0.92170
Co1* Co 0.23837(5) -0.58989(5) 0.27719(4)
Co1** Co -0.76163(5) 0.41011(5) 0.27719(4)
Co2A Co 0.49379(6) -0.36273(5) 0.52728(4)
Co2* Co -0.49379(6) 0.36273(5) 0.47272(4)
Co2A* Co 0.49379(6) 0.63727(5) 0.52728(4)
O4* O 0.3096(3) 0.6132(3) 0.2602(2)
O5A O 0.6364(4) 0.2767(3) 0.5746(2)
O9* O 0.5854(4) 0.4034(4) 0.3483(3)
O10* O 0.3809(3) 0.3870(3) 0.2054(2)
O11A O 0.6468(3) 0.5509(3) 0.5556(2)
H17A H 0.71430 0.59020 0.51610
#END
