
#######################################################################
#
#                 Cambridge Crystallographic Data Centre
#                                CCDC
#
#######################################################################
#
# If this CIF has been generated from an entry in the Cambridge
# Structural Database, then it will include bibliographic, chemical,
# crystal, experimental, refinement or atomic coordinate data resulting
# from the CCDC's data processing and validation procedures.
#
#######################################################################

data_CSD_CIF_MUFNOS
_audit_creation_date 2015-05-29
_audit_creation_method CSD-ConQuest-V1
_database_code_CSD MUFNOS
_database_code_depnum_ccdc_archive 'CCDC 1041872'
_chemical_formula_sum 'C12 H50 Li7 N2 Na3 O89 Pr2 Sb2 W18'
_chemical_formula_moiety
;
(C12 H16 N2 O72 Pr2 Sb2 W18 10-)n,3(Na1 1+),17(H2 O1),7(Li1 1+)
;
_journal_coden_Cambridge 222
_journal_volume 44
_journal_year 2015
_journal_page_first 11429
_journal_name_full 'Dalton Trans. '
loop_
_publ_author_name
"Lu-Lu Li"
"Hua-Yan Han"
"Yong-Hui Wang"
"Hua-Qiao Tan"
"Hong-Ying Zang"
"Yang-Guang Li"
_chemical_name_systematic
;
catena-[tri-sodium hepta-lithium 
heptatetracontakis(\m-oxo)-bis(pyridine-2-carboxylato)-tetra-aqua-heptadecaoxo
-di-antimony-di-praseodymium-octadeca-tungsten heptadecahydrate]
;
_cell_volume  11349.786
_exptl_crystal_colour 'yellow'
_exptl_crystal_density_diffrn 3.277
_exptl_special_details
;
The authors state that in the final refinement, only partial Na+ cations can 
be assigned from the weak reflections. Thus, the SQUEEZE program were further 
used to remove the contributions of the weak reflections to the whole crystal 
data, and the new 1*.hkl were generated and used to further refine the  
crystal data. Based on the SQUEEZE calculation, elemental analysis and TG 
analysis, another 0.5 Na+, 7 Li+, and 17 H2O were directly added in the final 
molecular formula
;
_exptl_crystal_description 'block'
_diffrn_ambient_temperature 298
_diffrn_special_details
;
twin

;
_refine_special_details
;
O112 and O11A disordered over two sites with occupancies 0.5:0.5; The 
SQUEEZE/PLATON program has been used to model some disorder.
;
#These two values have been output from a single CSD field.
_refine_ls_R_factor_gt 0.0823
_refine_ls_wR_factor_gt 0.0823
_symmetry_cell_setting orthorhombic
_symmetry_space_group_name_H-M 'P 21 21 21'
_symmetry_Int_Tables_number 19
loop_
_symmetry_equiv_pos_site_id
_symmetry_equiv_pos_as_xyz
1 x,y,z
2 1/2-x,-y,1/2+z
3 -x,1/2+y,1/2-z
4 1/2+x,1/2-y,-z
_cell_length_a 18.333(4)
_cell_length_b 24.500(5)
_cell_length_c 25.269(5)
_cell_angle_alpha 90
_cell_angle_beta 90
_cell_angle_gamma 90
_cell_formula_units_Z 4
loop_
_atom_type_symbol
_atom_type_radius_bond
C 0.68
H 0.23
N 0.68
Na 1.66
O 0.68
Pr 2.03
Sb 1.39
W 1.62
loop_
_atom_site_label
_atom_site_type_symbol
_atom_site_fract_x
_atom_site_fract_y
_atom_site_fract_z
W1 W 0.74603(13) 0.24669(11) 1.00812(8)
W2 W 0.74301(14) 0.34955(11) 1.09311(8)
W3 W 0.60329(14) 0.33486(11) 1.01240(9)
W4 W 0.77296(15) 0.38970(11) 0.81333(9)
W5 W 0.45182(15) 0.06790(11) 1.13054(9)
W6 W 0.76230(14) 0.26646(11) 0.86605(9)
W7 W 0.67801(15) 0.47590(11) 1.02921(9)
W8 W 0.42742(14) 0.09322(11) 0.93087(8)
W9 W 0.61885(14) 0.35452(12) 0.86911(9)
W10 W 0.70097(16) 0.04924(13) 0.93607(11)
W11 W 0.68927(15) 0.49353(11) 0.89973(9)
W12 W 0.71886(16) 0.03295(14) 1.07874(11)
W13 W 0.56093(18) -0.00198(13) 0.86787(11)
W14 W 0.59934(18) -0.03530(14) 1.15293(11)
W15 W 0.47812(19) -0.11724(14) 0.93965(13)
W16 W 0.49398(19) -0.13117(14) 1.07053(14)
W17 W 0.6771(2) -0.08698(14) 0.92239(13)
W18 W 0.69508(19) -0.10364(14) 1.06606(15)
Sb1 Sb 0.7973(2) 0.37639(17) 0.95568(13)
Sb2 Sb 0.5532(2) 0.00453(19) 1.01456(15)
Pr1 Pr 0.58858(19) 0.16150(15) 1.02790(12)
Pr2 Pr 0.8493(2) 0.53891(17) 0.97837(13)
O1 O 0.5349(17) 0.0267(14) 1.1410(11)
O2 O 0.4952(17) 0.1158(14) 1.0930(11)
O3 O 0.4056(17) 0.0229(14) 1.0838(10)
O4 O 0.661(2) -0.093(2) 1.1403(17)
O5 O 0.533(2) 0.0060(19) 0.8046(13)
O6 O 0.743(2) 0.0343(19) 1.0020(15)
O7 O 0.498(2) -0.054(2) 0.8923(15)
O8 O 0.592(2) -0.040(2) 1.2187(16)
O9 O 0.7122(19) -0.0978(16) 0.9885(13)
O10 O 0.757(2) -0.042(2) 1.0838(15)
O11 O 0.748(2) 0.3541(17) 1.1590(13)
O12 O 0.402(2) -0.1124(18) 1.0790(14)
O13 O 0.383(2) -0.101(2) 0.9490(16)
O14 O 0.796(2) 0.0629(19) 1.1010(15)
O15 O 0.4932(17) -0.0614(14) 1.0114(12)
O16 O 0.737(2) -0.0239(19) 0.9147(14)
O17 O 0.786(2) 0.3129(17) 0.8032(13)
O18 O 0.493(2) -0.189(2) 1.1087(16)
O19 O 0.4894(19) -0.1620(16) 1.0004(14)
O20 O 0.5131(18) 0.0526(15) 0.9023(11)
O21 O 0.680(2) 0.0120(17) 1.1492(13)
O22 O 0.617(2) 0.4101(18) 1.0121(14)
O23 O 0.761(2) 0.2077(17) 0.8355(13)
O24 O 0.610(2) -0.0109(19) 0.9457(14)
O25 O 0.6287(19) 0.5262(16) 0.8591(11)
O26 O 0.654(2) 0.0875(19) 1.0734(16)
O27 O 0.631(2) -0.0614(18) 0.8566(15)
O28 O 0.611(2) -0.1308(18) 1.0560(14)
O29 O 0.849(2) 0.2754(19) 0.8836(15)
O30 O 0.6277(17) -0.0274(14) 1.0649(12)
O31 O 0.6423(19) 0.0438(16) 0.8715(13)
O32 O 0.3920(19) 0.0372(16) 0.9682(12)
O33 O 0.6282(17) 0.4249(14) 0.8942(10)
O34 O 0.524(2) -0.0809(19) 1.1195(15)
O35 O 0.7927(19) 0.4108(15) 0.7532(12)
O36 O 0.7476(16) 0.4565(13) 0.8488(10)
O37 O 0.6561(18) 0.2840(15) 0.8510(11)
O38 O 0.770(2) 0.0869(18) 0.9112(13)
O39 O 0.5126(17) 0.3273(14) 1.0275(12)
O40 O 0.6136(17) 0.5001(15) 1.0713(12)
O41 O 0.7520(16) 0.4484(14) 0.9629(9)
O42 O 0.5339(17) 0.3534(15) 0.8413(11)
O43 O 0.670(2) 0.3776(17) 0.8066(13)
O44 O 0.3446(18) 0.1381(15) 0.9308(13)
O45 O 0.7274(16) 0.1783(13) 1.0258(11)
O46 O 0.724(2) 0.4288(17) 1.0720(13)
O47 O 0.762(2) 0.5426(19) 0.9070(14)
O48 O 0.4771(17) 0.1298(14) 0.9759(11)
O49 O 0.6284(19) 0.2619(16) 1.0175(13)
O50 O 0.743(2) 0.5300(18) 1.0367(13)
O51 O 0.636(2) 0.5056(16) 0.9676(13)
O52 O 0.5963(16) 0.3289(13) 0.937(1)
O53 O 0.7268(16) 0.3374(13) 1.0027(10)
O54 O 0.8411(18) 0.2490(14) 1.0062(11)
O55 O 0.7268(19) 0.2449(15) 0.9306(13)
O56 O 0.7605(17) 0.2725(13) 1.0841(10)
O57 O 0.738(2) 0.3534(17) 0.8897(12)
O58 O 0.6398(18) 0.3382(15) 1.0876(11)
O59 O 0.3661(17) 0.1035(14) 1.1522(11)
O60 O 0.463(3) -0.167(2) 0.8974(17)
O61 O 0.6434(19) 0.0971(16) 0.9615(13)
O62 O 0.724(2) -0.1338(18) 0.8879(13)
O63 O 0.751(2) -0.157(2) 1.0833(16)
O64 O 0.589(2) -0.1218(19) 0.9375(15)
O65 O 0.616(2) 0.200(2) 1.1151(15)
O66 O 0.5789(19) 0.2059(16) 0.9322(14)
O67 O 0.4811(18) 0.2241(15) 1.0502(12)
O68 O 0.771(3) 0.639(2) 0.9777(17)
O69 O 0.486(2) 0.1010(16) 1.2056(12)
O70 O 0.538(3) 0.088(3) 1.282(2)
N1 N 0.4158(17) 0.0137(13) 1.2031(10)
C1 C 0.4377(18) 0.0284(12) 1.2540(13)
C2 C 0.419(2) -0.0042(15) 1.2971(9)
H1 H 0.43310 0.00550 1.33100
C3 C 0.377(2) -0.0515(14) 1.2892(11)
H2 H 0.36470 -0.07320 1.31800
C4 C 0.3556(18) -0.0662(12) 1.2383(13)
H3 H 0.32820 -0.09770 1.23310
C5 C 0.3747(17) -0.0336(14) 1.1952(9)
H4 H 0.36020 -0.04340 1.16120
C6 C 0.478(3) 0.0773(18) 1.2531(15)
O71 O 0.458(2) 0.1428(18) 0.8688(14)
O72 O 0.458(2) 0.160(2) 0.7767(14)
N2 N 0.3778(19) 0.0545(16) 0.8589(11)
C7 C 0.395(2) 0.0846(13) 0.8137(15)
C8 C 0.370(2) 0.0676(16) 0.7643(12)
H5 H 0.38100 0.08760 0.73420
C9 C 0.327(2) 0.0206(17) 0.7602(11)
H6 H 0.31000 0.00930 0.72730
C10 C 0.310(2) -0.0094(14) 0.8054(15)
H7 H 0.28130 -0.04070 0.80270
C11 C 0.335(2) 0.0075(15) 0.8548(11)
H8 H 0.32370 -0.01250 0.88500
C12 C 0.431(4) 0.135(2) 0.8198(15)
Na1 Na 0.484(3) 0.445(3) 0.942(2)
Na2 Na 0.464(3) 0.449(3) 1.073(2)
Na3 Na 0.967(4) 0.284(4) 0.814(3)
Na4 Na 0.876(4) 0.154(3) 0.922(3)
Na5 Na 0.627(4) 0.153(3) 0.835(2)
O73? O 0.484(4) 0.098(3) 1.302(2)
W2C W 0.24301(14) 0.15045(11) 0.90689(8)
W4C W 0.27296(15) 0.11030(11) 1.18667(9)
Pr2C Pr 0.3493(2) -0.03891(17) 1.02163(13)
O3C O 0.9056(17) 0.4771(14) 0.9162(10)
O12C O 0.902(2) 0.6124(18) 0.9210(14)
O13C O 0.883(2) 0.601(2) 1.0510(16)
O15C O 0.9932(17) 0.5614(14) 0.9886(12)
O32C O 0.8920(19) 0.4628(16) 1.0318(12)
O44C O 0.8446(18) 0.3619(15) 1.0692(13)
O59C O 0.8661(17) 0.3965(14) 0.8478(11)
#END
