
#######################################################################
#
#                 Cambridge Crystallographic Data Centre
#                                CCDC
#
#######################################################################
#
# If this CIF has been generated from an entry in the Cambridge
# Structural Database, then it will include bibliographic, chemical,
# crystal, experimental, refinement or atomic coordinate data resulting
# from the CCDC's data processing and validation procedures.
#
#######################################################################

data_CSD_CIF_MUGWIW
_audit_creation_date 2015-06-01
_audit_creation_method CSD-ConQuest-V1
_database_code_CSD MUGWIW
_database_code_depnum_ccdc_archive 'CCDC 1058265'
_chemical_formula_sum 'C10 H12 Cd1 N4 O2 S2'
_chemical_formula_moiety
;
(C4 H3 Cd1 N2 O2 S2 1-)n,n(C6 H9 N2 1+)
;
_journal_coden_Cambridge 222
_journal_volume 44
_journal_year 2015
_journal_page_first 11470
_journal_name_full 'Dalton Trans. '
loop_
_publ_author_name
"Bing Guo"
"Xiao Zhang"
"Jie-Hui Yu"
"Ji-Qing Xu"
_chemical_name_systematic
;
catena-[2-amino-6-methylpyridinium bis(\m-isothiocyanato)-(acetato)-cadmium]
;
_cell_volume   1539.029
_exptl_crystal_colour 'colorless'
_exptl_crystal_density_diffrn 1.712
_exptl_crystal_description 'needle'
_diffrn_ambient_temperature 293
#These two values have been output from a single CSD field.
_refine_ls_R_factor_gt 0.0221
_refine_ls_wR_factor_gt 0.0221
_symmetry_cell_setting monoclinic
_symmetry_space_group_name_H-M 'P 21/c'
_symmetry_Int_Tables_number 14
loop_
_symmetry_equiv_pos_site_id
_symmetry_equiv_pos_as_xyz
1 x,y,z
2 -x,1/2+y,1/2-z
3 -x,-y,-z
4 x,-1/2-y,-1/2+z
_cell_length_a 11.1025(7)
_cell_length_b 10.9745(5)
_cell_length_c 12.9968(6)
_cell_angle_alpha 90
_cell_angle_beta 103.624(4)
_cell_angle_gamma 90
_cell_formula_units_Z 4
loop_
_atom_type_symbol
_atom_type_radius_bond
C 0.68
H 0.23
Cd 1.44
N 0.68
O 0.68
S 1.02
loop_
_atom_site_label
_atom_site_type_symbol
_atom_site_fract_x
_atom_site_fract_y
_atom_site_fract_z
Cd1 Cd 0.728405(17) -0.494552(17) 0.425748(16)
S1 S 0.65817(8) -0.30161(7) 0.51266(8)
S2 S 0.84021(7) -0.66194(8) 0.55940(6)
O1 O 0.75130(19) -0.61546(17) 0.27468(16)
O2 O 0.64487(18) -0.44709(19) 0.24714(16)
N1 N 0.4517(2) -0.3924(2) 0.5751(2)
N2 N 1.0892(2) -0.6033(2) 0.5795(2)
C1 C 0.5356(3) -0.3569(2) 0.5478(2)
C2 C 0.9859(3) -0.6249(2) 0.5701(2)
C3 C 0.6870(2) -0.5401(2) 0.2123(2)
C4 C 0.6592(3) -0.5610(3) 0.0952(2)
H1 H 0.72150 -0.61300 0.07850
H2 H 0.65880 -0.48430 0.05960
H3 H 0.57940 -0.59900 0.07250
N3 N 0.1910(2) -0.36186(19) 0.17900(17)
H4 H 0.19000 -0.28350 0.18080
C5 C 0.0802(3) -0.4205(3) 0.1624(2)
C6 C 0.0822(4) -0.5445(3) 0.1610(3)
H5 H 0.00860 -0.58850 0.14910
C7 C 0.1952(4) -0.6049(3) 0.1774(3)
H6 H 0.19610 -0.68960 0.17820
C8 C 0.3041(3) -0.5441(3) 0.1923(3)
H7 H 0.37870 -0.58620 0.20190
C9 C 0.3018(3) -0.4168(2) 0.1929(2)
N4 N 0.4022(2) -0.3479(2) 0.2062(2)
H8 H 0.39560 -0.26990 0.20580
H9 H 0.47400 -0.38130 0.21510
C10 C -0.0324(3) -0.3431(3) 0.1469(3)
H10 H -0.00860 -0.25880 0.15160
H11 H -0.07590 -0.36140 0.20070
H12 H -0.08530 -0.35900 0.07840
Cd1B Cd 0.271595(17) -0.505448(17) 0.574252(16)
Cd1B* Cd 1.271595(17) -0.505448(17) 0.574252(16)
N1B N 0.5483(2) -0.6076(2) 0.4249(2)
N2B N 0.9108(2) -0.3967(2) 0.4205(2)
#END
