
#######################################################################
#
#                 Cambridge Crystallographic Data Centre
#                                CCDC
#
#######################################################################
#
# If this CIF has been generated from an entry in the Cambridge
# Structural Database, then it will include bibliographic, chemical,
# crystal, experimental, refinement or atomic coordinate data resulting
# from the CCDC's data processing and validation procedures.
#
#######################################################################

data_CSD_CIF_MUHPOV
_audit_creation_date 2010-06-29
_audit_creation_method CSD-ConQuest-V1
_database_code_CSD MUHPOV
_database_code_depnum_ccdc_archive 'CCDC 702067'
_chemical_formula_sum 'C8 H17 In2 N2 O13 P3'
_chemical_formula_moiety
;
(C6 H14 N2 2+)n,n(C2 H3 In2 O13 P3 2-)
;
_journal_coden_Cambridge 1295
_journal_volume 12
_journal_year 2009
_journal_page_first 1020
_journal_name_full 'Inorg.Chem.Commun. '
loop_
_publ_author_name
"Huiduan Li"
"Lirong Zhang"
"Li Liu"
"Tianchan Jiang"
"Yang Yu"
"Guanghua Li"
"Qisheng Huo"
"Yunling Liu"
_chemical_name_systematic
;
catena-[(1,4-Diazoniabicyclo[2.2.2]octane) 
bis(\m~3~-phosphonato-O,O',O'')-(\m~2~-oxalato-O,O',O'',O''')-(\m~2~-phosphona
to-O,O')-di-indium]
;
_cell_volume   1755.657
_exptl_crystal_colour 'colorless'
_exptl_crystal_density_diffrn 2.542
_exptl_crystal_description 'block'
_diffrn_ambient_temperature 298
#These two values have been output from a single CSD field.
_refine_ls_R_factor_gt 0.0282
_refine_ls_wR_factor_gt 0.0282
_symmetry_cell_setting orthorhombic
_symmetry_space_group_name_H-M 'P n a 21'
_symmetry_Int_Tables_number 33
loop_
_symmetry_equiv_pos_site_id
_symmetry_equiv_pos_as_xyz
1 x,y,z
2 -x,-y,1/2+z
3 1/2+x,1/2-y,z
4 1/2-x,1/2+y,1/2+z
_cell_length_a 12.4143(13)
_cell_length_b 7.7166(8)
_cell_length_c 18.327(2)
_cell_angle_alpha 90
_cell_angle_beta 90
_cell_angle_gamma 90
_cell_formula_units_Z 4
loop_
_atom_type_symbol
_atom_type_radius_bond
C 0.68
H 0.23
In 1.42
N 0.68
O 0.68
P 1.05
loop_
_atom_site_label
_atom_site_type_symbol
_atom_site_fract_x
_atom_site_fract_y
_atom_site_fract_z
In1 In 0.43362(4) 0.71118(5) 0.30351(2)
In2 In 0.62305(4) 0.28402(5) 0.45164(2)
P1 P 0.36540(16) 0.3706(2) 0.4059(1)
H1 H 0.382(11) 0.220(14) 0.366(8)
P2 P 0.19191(15) 0.8717(2) 0.35007(10)
H2 H 0.171(11) 0.729(9) 0.384(6)
P3 P 0.44711(17) 0.7486(2) 0.12234(10)
H3 H 0.541(5) 0.703(13) 0.098(7)
O1 O 0.3515(4) 0.4962(6) 0.3423(3)
O2 O 0.2903(4) 0.8647(6) 0.2999(3)
O3 O 0.4633(4) 0.8141(6) 0.4128(3)
O4 O 0.5180(4) 0.9602(6) 0.2836(2)
O5 O 0.0910(4) 0.9036(6) 0.3058(3)
O6 O 0.4263(4) 0.6499(7) 0.1928(3)
O7 O 0.4679(4) 0.4028(6) 0.4487(3)
O8 O 0.3692(4) 0.6821(7) 0.0640(3)
O9 O 0.2668(4) 0.3678(6) 0.4544(3)
O10 O 0.2053(4) 0.9979(6) 0.4131(3)
O11 O 0.5366(4) 1.0356(6) 0.4710(2)
O12 O 0.5924(4) 1.1812(6) 0.3416(3)
O13 O 0.4486(4) 0.9441(5) 0.1313(3)
N1 N 0.3716(5) -0.1442(8) 0.6328(4)
H4 H 0.42910 -0.07120 0.63460
N2 N 0.2134(6) -0.3457(7) 0.6280(4)
H5 H 0.15570 -0.41840 0.62670
C1 C 0.5109(6) 0.9564(9) 0.4147(4)
C2 C 0.5425(6) 1.0389(8) 0.3400(4)
C3 C 0.4061(8) -0.3256(11) 0.6528(6)
H6 H 0.42460 -0.33090 0.70420
H7 H 0.46900 -0.35850 0.62460
C4 C 0.3132(8) -0.4491(9) 0.6366(6)
H8 H 0.32780 -0.51340 0.59220
H9 H 0.30480 -0.53110 0.67630
C5 C 0.3235(8) -0.1437(12) 0.5581(5)
H10 H 0.37230 -0.19850 0.52380
H11 H 0.31090 -0.02560 0.54210
C6 C 0.2164(8) -0.2438(11) 0.5608(5)
H12 H 0.15640 -0.16330 0.55980
H13 H 0.21050 -0.31970 0.51880
C7 C 0.2873(7) -0.0866(11) 0.6856(5)
H14 H 0.25450 0.02000 0.66850
H15 H 0.31980 -0.06440 0.73280
C8 C 0.2027(8) -0.2257(10) 0.6926(5)
H16 H 0.13150 -0.17400 0.69340
H17 H 0.21300 -0.28970 0.73760
In1B In -0.06638(4) 0.78882(5) 0.30351(2)
In2A In 0.37695(4) 0.71598(5) -0.04836(2)
In2B In 0.12305(4) 0.21598(5) 0.45164(2)
In2B* In 0.12305(4) 1.21598(5) 0.45164(2)
In2* In 0.62305(4) 1.28402(5) 0.45164(2)
O5B O 0.5910(4) 0.5964(6) 0.3058(3)
O8A O 0.6308(4) 0.3179(7) 0.5640(3)
O9B O 0.7668(4) 0.1322(6) 0.4544(3)
O10B O 0.7053(4) 0.5021(6) 0.4131(3)
O11* O 0.5366(4) 0.0356(6) 0.4710(2)
O12* O 0.5924(4) 0.1812(6) 0.3416(3)
#END
