
#######################################################################
#
#                 Cambridge Crystallographic Data Centre
#                                CCDC
#
#######################################################################
#
# If this CIF has been generated from an entry in the Cambridge
# Structural Database, then it will include bibliographic, chemical,
# crystal, experimental, refinement or atomic coordinate data resulting
# from the CCDC's data processing and validation procedures.
#
#######################################################################

data_CSD_CIF_MUKDON01
_audit_creation_date 2015-10-16
_audit_creation_method CSD-ConQuest-V1
_database_code_CSD MUKDON01
_database_code_depnum_ccdc_archive 'CCDC 1431764'
_chemical_formula_sum 'C2 H2 K1 O9 S1 Tb1'
_chemical_formula_moiety
;
(C2 H2 O9 S1 Tb1 1-)n,K1 1+
;
_journal_coden_Cambridge 1370
_journal_volume 65
_journal_year 2009
_journal_page_first i48
_journal_name_full 'Acta Crystallogr.,Sect.E:Struct.Rep.Online '
loop_
_publ_author_name
"Ya-Guang Sun"
"Mei-yan Guo"
"Gang Xiong"
"Bing Jiang"
"Lei Wang"
_chemical_name_systematic
;
catena-[potassium (\m-oxalato)-(\m-sulfato)-aqua-terbium]
;
_cell_volume    747.747
_exptl_crystal_colour 'colorless'
_exptl_crystal_density_diffrn 3.554
_exptl_crystal_description 'block'
_diffrn_ambient_temperature 113
#These two values have been output from a single CSD field.
_refine_ls_R_factor_gt 0.0233
_refine_ls_wR_factor_gt 0.0233
_symmetry_cell_setting monoclinic
_symmetry_space_group_name_H-M 'P 21/c'
_symmetry_Int_Tables_number 14
loop_
_symmetry_equiv_pos_site_id
_symmetry_equiv_pos_as_xyz
1 x,y,z
2 -x,1/2+y,1/2-z
3 -x,-y,-z
4 x,-1/2-y,-1/2+z
_cell_length_a 6.5274(13)
_cell_length_b 8.5072(17)
_cell_length_c 14.591(4)
_cell_angle_alpha 90
_cell_angle_beta 112.65(3)
_cell_angle_gamma 90
_cell_formula_units_Z 4
loop_
_atom_type_symbol
_atom_type_radius_bond
C 0.68
H 0.23
K 2.03
O 0.68
S 1.02
Tb 1.94
loop_
_atom_site_label
_atom_site_type_symbol
_atom_site_fract_x
_atom_site_fract_y
_atom_site_fract_z
Tb1 Tb 0.33208(4) 0.24112(3) 0.086605(17)
S1 S 0.7406(2) 0.16467(15) -0.02448(9)
O1 O 0.2682(6) 0.1255(4) 0.2251(3)
O2 O 0.3956(6) -0.0554(4) 0.3443(2)
O3 O 0.7811(6) -0.0534(4) 0.3283(2)
O4 O 0.6523(6) 0.1083(4) 0.1984(3)
O5 O 0.5568(7) 0.2364(4) -0.0040(3)
O6 O 0.7540(6) -0.0053(4) -0.0015(3)
O7 O 0.9493(7) 0.2388(4) 0.0409(3)
O8 O 0.7035(7) 0.1876(5) -0.1285(3)
O9 O 0.1774(6) 0.4070(4) -0.0544(3)
H1 H 0.285(8) 0.475(6) -0.063(5)
H2 H 0.047(6) 0.448(9) -0.107(5)
C1 C 0.4137(9) 0.0364(6) 0.2801(4)
C2 C 0.6356(9) 0.0312(6) 0.2671(4)
K1 K 0.9670(2) -0.15405(14) 0.19899(9)
Tb1* Tb 1.33208(4) 0.24112(3) 0.086605(17)
Tb1A Tb 0.66792(4) -0.25888(3) 0.413395(17)
Tb1B Tb 0.66792(4) -0.24112(3) -0.086605(17)
O2A O 0.6044(6) 0.4446(4) 0.1557(2)
O3A O 0.2189(6) 0.4466(4) 0.1717(2)
O6B O 0.2460(6) 0.0053(4) 0.0015(3)
O7* O -0.0507(7) 0.2388(4) 0.0409(3)
#END
