
#######################################################################
#
#                 Cambridge Crystallographic Data Centre
#                                CCDC
#
#######################################################################
#
# If this CIF has been generated from an entry in the Cambridge
# Structural Database, then it will include bibliographic, chemical,
# crystal, experimental, refinement or atomic coordinate data resulting
# from the CCDC's data processing and validation procedures.
#
#######################################################################

data_CSD_CIF_MUKRIW02
_audit_creation_date 2020-03-27
_audit_creation_method CSD-ConQuest-V1
_database_code_CSD MUKRIW02
_database_code_depnum_ccdc_archive 'CCDC 1964931'
_chemical_formula_sum 'C28.35 H37.95 Br0.15 N5.3 O8.9 Ti1'
_chemical_formula_moiety
;
2(C2 H8 N1 1+),0.15(C16 H36 N1 1+),n(C21 H9 N3 O6 Ti1 2-),0.15(Br1 
1-),0.15(C3 H7 N1 O1),0.5(C1 H4 O1),2.25(H2 O1)
;
_journal_coden_Cambridge 1475
_journal_volume 11
_journal_year 2020
_journal_page_first 3978
_journal_name_full 'Chemical Science '
loop_
_publ_author_name
"Jing Cao"
"Wenjie Ma"
"Kangjie Lyu"
"Lin Zhuang"
"Hengjiang Cong"
"Hexiang Deng"
_chemical_name_systematic
;
catena-[bis(dimethylammonium) 
(\m-4,4',4''-(1,3,5-triazine-2,4,6-triyl)tri(benzene-1,2-diolato))-titanium 
(tetra-n-butylammonium bromide) N,N-dimethylformamide methanol solvate 
hydrate]
;
_chemical_name_common
;
MOF-217
;
_cell_volume   9423.613
_exptl_crystal_colour 'red'
_exptl_crystal_density_diffrn 0.63
_exptl_special_details
;
The authors report a formula of [Ti(TDHT) (Me2NH2)1.58 (DMF)0.15 (MeOH)0.5 
(NBu4Br)0.15 (H2O)2.25]. The framework contains both Ti3+ and Ti4+ cations, 
with the charge accounted for by a partial semiquinone radical nature of the 
catecholate ligand
;
_exptl_crystal_description 'block'
_diffrn_ambient_temperature 250.0
_refine_special_details
;
Disordered cation, anion and solvent molecules were modelled using the 
MASK/OLEX2 program.
;
#These two values have been output from a single CSD field.
_refine_ls_R_factor_gt 0.1083
_refine_ls_wR_factor_gt 0.1083
_symmetry_cell_setting cubic
_symmetry_space_group_name_H-M 'P a -3'
_symmetry_Int_Tables_number 205
loop_
_symmetry_equiv_pos_site_id
_symmetry_equiv_pos_as_xyz
1 x,y,z
2 1/2-x,-y,1/2+z
3 -x,1/2+y,1/2-z
4 1/2+x,1/2-y,-z
5 z,x,y
6 1/2+z,1/2-x,-y
7 1/2-z,-x,1/2+y
8 -z,1/2+x,1/2-y
9 y,z,x
10 -y,1/2+z,1/2-x
11 1/2+y,1/2-z,-x
12 1/2-y,-z,1/2+x
13 -x,-y,-z
14 -1/2+x,y,-1/2-z
15 x,-1/2-y,-1/2+z
16 -1/2-x,-1/2+y,z
17 -z,-x,-y
18 -1/2-z,-1/2+x,y
19 -1/2+z,x,-1/2-y
20 z,-1/2-x,-1/2+y
21 -y,-z,-x
22 y,-1/2-z,-1/2+x
23 -1/2-y,-1/2+z,x
24 -1/2+y,z,-1/2-x
_cell_length_a 21.1222(4)
_cell_length_b 21.1222(4)
_cell_length_c 21.1222(4)
_cell_angle_alpha 90
_cell_angle_beta 90
_cell_angle_gamma 90
_cell_formula_units_Z 8
loop_
_atom_type_symbol
_atom_type_radius_bond
C 0.68
H 0.23
N 0.68
O 0.68
Ti 1.60
loop_
_atom_site_label
_atom_site_type_symbol
_atom_site_fract_x
_atom_site_fract_y
_atom_site_fract_z
Ti1 Ti 0.68997(7) 0.81003(7) 0.18997(7)
O1 O 0.6232(2) 0.7800(3) 0.1358(2)
O2 O 0.6625(3) 0.7357(3) 0.2385(2)
N1 N 0.4284(4) 0.5686(4) 0.1479(3)
C1 C 0.4557(4) 0.6197(4) 0.1220(5)
C2 C 0.5114(4) 0.6472(4) 0.1534(4)
C3 C 0.5393(4) 0.7029(4) 0.1263(4)
H1 H 0.52294 0.72088 0.08965
C4 C 0.5912(4) 0.7288(4) 0.1564(4)
C5 C 0.6138(4) 0.7035(4) 0.2125(4)
C6 C 0.5854(4) 0.6485(5) 0.2377(4)
H2 H 0.60071 0.63107 0.27514
C7 C 0.5373(4) 0.6217(4) 0.2084(4)
H3 H 0.52012 0.58473 0.22498
O1F O 0.3642(2) 0.3768(3) 0.2800(2)
O2F O 0.2615(3) 0.3375(3) 0.2357(2)
N1F N 0.3521(4) 0.5716(4) 0.0686(3)
C1F C 0.3780(4) 0.5443(4) 0.1197(5)
C2F C 0.3466(4) 0.4886(4) 0.1472(4)
C3F C 0.3737(4) 0.4607(4) 0.2029(4)
H1F H 0.41035 0.47706 0.22088
C4F C 0.3436(4) 0.4088(4) 0.2288(4)
C5F C 0.2875(4) 0.3862(4) 0.2035(4)
C6F C 0.2623(4) 0.4146(5) 0.1485(4)
H2F H 0.22486 0.39929 0.13107
C7F C 0.2916(4) 0.4627(4) 0.1217(4)
H3F H 0.27502 0.47988 0.08473
O1I O 0.2200(2) 0.6358(3) -0.1232(2)
O2I O 0.2643(3) 0.7385(3) -0.1625(2)
N1I N 0.4314(4) 0.6479(4) 0.0716(3)
C1I C 0.3803(4) 0.6220(4) 0.0443(5)
C2I C 0.3528(4) 0.6534(4) -0.0114(4)
C3I C 0.2971(4) 0.6263(4) -0.0393(4)
H1I H 0.27912 0.58965 -0.02294
C4I C 0.2712(4) 0.6564(4) -0.0912(4)
C5I C 0.2965(4) 0.7125(4) -0.1138(4)
C6I C 0.3515(4) 0.7377(5) -0.0854(4)
H2I H 0.36893 0.77514 -0.10071
C7I C 0.3783(4) 0.7084(4) -0.0373(4)
H3I H 0.41527 0.72498 -0.02012
Ti1B Ti 0.31003(7) 0.31003(7) 0.31003(7)
Ti1C Ti 0.18997(7) 0.68997(7) -0.18997(7)
O1E O 0.6358(2) 0.8768(3) 0.2200(2)
O1K O 0.7200(2) 0.8642(3) 0.1232(2)
O2E O 0.7385(3) 0.8375(3) 0.2643(2)
O2K O 0.7643(3) 0.7615(3) 0.1625(2)
#END
