
#######################################################################
#
#                 Cambridge Crystallographic Data Centre
#                                CCDC
#
#######################################################################
#
# If this CIF has been generated from an entry in the Cambridge
# Structural Database, then it will include bibliographic, chemical,
# crystal, experimental, refinement or atomic coordinate data resulting
# from the CCDC's data processing and validation procedures.
#
#######################################################################

data_CSD_CIF_MUKRIW
_audit_creation_date 2020-03-27
_audit_creation_method CSD-ConQuest-V1
_database_code_CSD MUKRIW
_database_code_depnum_ccdc_archive 'CCDC 1964929'
_chemical_formula_sum 'C28.35 H37.95 Br0.15 N5.3 O8.9 Ti1'
_chemical_formula_moiety
;
2(C2 H8 N1 1+),0.15(C16 H36 N1 1+),n(C21 H9 N3 O6 Ti1 2-),0.15(Br1 
1-),0.15(C3 H7 N1 O1),0.5(C1 H4 O1),2.25(H2 O1)
;
_journal_coden_Cambridge 1475
_journal_volume 11
_journal_year 2020
_journal_page_first 3978
_journal_name_full 'Chemical Science '
loop_
_publ_author_name
"Jing Cao"
"Wenjie Ma"
"Kangjie Lyu"
"Lin Zhuang"
"Hengjiang Cong"
"Hexiang Deng"
_chemical_name_systematic
;
catena-[bis(dimethylammonium) 
(\m-4,4',4''-(1,3,5-triazine-2,4,6-triyl)tri(benzene-1,2-diolato))-titanium 
(tetra-n-butylammonium bromide) N,N-dimethylformamide methanol solvate 
hydrate]
;
_chemical_name_common
;
MOF-217
;
_cell_volume   9254.783
_exptl_crystal_colour 'red'
_exptl_special_details
;
The authors report a formula of [Ti(TDHT) (Me2NH2)1.58 (DMF)0.15 (MeOH)0.5 
(NBu4Br)0.15 (H2O)2.25]. The framework contains both Ti3+ and Ti4+ cations, 
with the charge accounted for by a partial semiquinone radical nature of the 
catecholate ligand
;
_exptl_crystal_description 'block'
_diffrn_ambient_temperature 100
_refine_special_details
;
Disordered cation, anion and solvent molecules were modelled using the 
MASK/OLEX2 program.
;
#These two values have been output from a single CSD field.
_refine_ls_R_factor_gt 0.114
_refine_ls_wR_factor_gt 0.114
_symmetry_cell_setting cubic
_symmetry_space_group_name_H-M 'P a -3'
_symmetry_Int_Tables_number 205
loop_
_symmetry_equiv_pos_site_id
_symmetry_equiv_pos_as_xyz
1 x,y,z
2 1/2-x,-y,1/2+z
3 -x,1/2+y,1/2-z
4 1/2+x,1/2-y,-z
5 z,x,y
6 1/2+z,1/2-x,-y
7 1/2-z,-x,1/2+y
8 -z,1/2+x,1/2-y
9 y,z,x
10 -y,1/2+z,1/2-x
11 1/2+y,1/2-z,-x
12 1/2-y,-z,1/2+x
13 -x,-y,-z
14 -1/2+x,y,-1/2-z
15 x,-1/2-y,-1/2+z
16 -1/2-x,-1/2+y,z
17 -z,-x,-y
18 -1/2-z,-1/2+x,y
19 -1/2+z,x,-1/2-y
20 z,-1/2-x,-1/2+y
21 -y,-z,-x
22 y,-1/2-z,-1/2+x
23 -1/2-y,-1/2+z,x
24 -1/2+y,z,-1/2-x
_cell_length_a 20.9953(3)
_cell_length_b 20.9953(3)
_cell_length_c 20.9953(3)
_cell_angle_alpha 90
_cell_angle_beta 90
_cell_angle_gamma 90
_cell_formula_units_Z 8
loop_
_atom_type_symbol
_atom_type_radius_bond
C 0.68
H 0.23
N 0.68
O 0.68
Ti 1.60
loop_
_atom_site_label
_atom_site_type_symbol
_atom_site_fract_x
_atom_site_fract_y
_atom_site_fract_z
Ti1 Ti 0.19443(6) 0.30557(6) 0.69443(6)
O1 O 0.2244(2) 0.36258(18) 0.6273(2)
O2 O 0.2703(2) 0.2595(2) 0.6666(2)
N1 N 0.3543(2) 0.4306(3) 0.4346(3)
C1 C 0.3824(3) 0.3783(3) 0.4575(3)
C2 C 0.3029(3) 0.3733(3) 0.5428(3)
H1 H 0.28583 0.41138 0.52787
C3 C 0.2755(3) 0.3422(3) 0.5945(3)
C4 C 0.3547(3) 0.3473(3) 0.5145(3)
C5 C 0.3022(4) 0.2855(3) 0.6163(3)
C6 C 0.3571(4) 0.2613(3) 0.5891(4)
H2 H 0.37621 0.22487 0.60559
C7 C 0.3834(3) 0.2923(3) 0.5369(3)
H3 H 0.41966 0.27628 0.51719
O1D O 0.6273(2) 0.22440(18) 0.36258(20)
O2D O 0.6666(2) 0.2703(2) 0.2595(2)
N1D N 0.4346(2) 0.3543(3) 0.4306(3)
C1D C 0.4575(3) 0.3824(3) 0.3783(3)
C2D C 0.5428(3) 0.3029(3) 0.3733(3)
H1D H 0.52787 0.28583 0.41138
C3D C 0.5945(3) 0.2755(3) 0.3422(3)
C4D C 0.5145(3) 0.3547(3) 0.3473(3)
C5D C 0.6163(4) 0.3022(3) 0.2855(3)
C6D C 0.5891(4) 0.3571(3) 0.2613(4)
H2D H 0.60559 0.37621 0.22487
C7D C 0.5369(3) 0.3834(3) 0.2923(3)
H3D H 0.51719 0.41966 0.27628
O1H O 0.36258(20) 0.62730(18) 0.2244(2)
O2H O 0.2595(2) 0.6666(2) 0.2703(2)
N1H N 0.4306(2) 0.4346(3) 0.3543(3)
C1H C 0.3783(3) 0.4575(3) 0.3824(3)
C2H C 0.3733(3) 0.5428(3) 0.3029(3)
H1H H 0.41138 0.52787 0.28583
C3H C 0.3422(3) 0.5945(3) 0.2755(3)
C4H C 0.3473(3) 0.5145(3) 0.3547(3)
C5H C 0.2855(4) 0.6163(3) 0.3022(3)
C6H C 0.2613(4) 0.5891(3) 0.3571(4)
H2H H 0.22487 0.60559 0.37621
C7H C 0.2923(3) 0.5369(3) 0.3834(3)
H3H H 0.27628 0.51719 0.41966
Ti1A Ti 0.30557(6) 0.69443(6) 0.19443(6)
Ti1C Ti 0.69443(6) 0.19443(6) 0.30557(6)
O1E O 0.1273(2) 0.27560(18) 0.63742(20)
O1K O 0.13742(20) 0.37270(18) 0.7244(2)
O2E O 0.1666(2) 0.2297(2) 0.7405(2)
O2K O 0.2405(2) 0.3334(2) 0.7703(2)
#END
