
#######################################################################
#
#                 Cambridge Crystallographic Data Centre
#                                CCDC
#
#######################################################################
#
# If this CIF has been generated from an entry in the Cambridge
# Structural Database, then it will include bibliographic, chemical,
# crystal, experimental, refinement or atomic coordinate data resulting
# from the CCDC's data processing and validation procedures.
#
#######################################################################

data_CSD_CIF_MUKRIW01
_audit_creation_date 2020-03-27
_audit_creation_method CSD-ConQuest-V1
_database_code_CSD MUKRIW01
_database_code_depnum_ccdc_archive 'CCDC 1964930'
_chemical_formula_sum 'C28.35 H37.95 Br0.15 N5.3 O8.9 Ti1'
_chemical_formula_moiety
;
2(C2 H8 N1 1+),0.15(C16 H36 N1 1+),n(C21 H9 N3 O6 Ti1 2-),0.15(Br1 
1-),0.15(C3 H7 N1 O1),0.5(C1 H4 O1),2.25(H2 O1)
;
_journal_coden_Cambridge 1475
_journal_volume 11
_journal_year 2020
_journal_page_first 3978
_journal_name_full 'Chemical Science '
loop_
_publ_author_name
"Jing Cao"
"Wenjie Ma"
"Kangjie Lyu"
"Lin Zhuang"
"Hengjiang Cong"
"Hexiang Deng"
_chemical_name_systematic
;
catena-[bis(dimethylammonium) 
(\m-4,4',4''-(1,3,5-triazine-2,4,6-triyl)tri(benzene-1,2-diolato))-titanium 
(tetra-n-butylammonium bromide) N,N-dimethylformamide methanol solvate 
hydrate]
;
_chemical_name_common
;
MOF-217
;
_cell_volume   9421.338
_exptl_crystal_colour 'red'
_exptl_crystal_density_diffrn 2.099
_exptl_special_details
;
The authors report a formula of [Ti(TDHT) (Me2NH2)1.58 (DMF)0.15 (MeOH)0.5 
(NBu4Br)0.15 (H2O)2.25]. The framework contains both Ti3+ and Ti4+ cations, 
with the charge accounted for by a partial semiquinone radical nature of the 
catecholate ligand
;
_exptl_crystal_description 'block'
_diffrn_ambient_temperature 200.0
_refine_special_details
;
Disordered cation, anion and solvent molecules were modelled using the 
MASK/OLEX2 program.
;
#These two values have been output from a single CSD field.
_refine_ls_R_factor_gt 0.1096
_refine_ls_wR_factor_gt 0.1096
_symmetry_cell_setting cubic
_symmetry_space_group_name_H-M 'P a -3'
_symmetry_Int_Tables_number 205
loop_
_symmetry_equiv_pos_site_id
_symmetry_equiv_pos_as_xyz
1 x,y,z
2 1/2-x,-y,1/2+z
3 -x,1/2+y,1/2-z
4 1/2+x,1/2-y,-z
5 z,x,y
6 1/2+z,1/2-x,-y
7 1/2-z,-x,1/2+y
8 -z,1/2+x,1/2-y
9 y,z,x
10 -y,1/2+z,1/2-x
11 1/2+y,1/2-z,-x
12 1/2-y,-z,1/2+x
13 -x,-y,-z
14 -1/2+x,y,-1/2-z
15 x,-1/2-y,-1/2+z
16 -1/2-x,-1/2+y,z
17 -z,-x,-y
18 -1/2-z,-1/2+x,y
19 -1/2+z,x,-1/2-y
20 z,-1/2-x,-1/2+y
21 -y,-z,-x
22 y,-1/2-z,-1/2+x
23 -1/2-y,-1/2+z,x
24 -1/2+y,z,-1/2-x
_cell_length_a 21.1205(3)
_cell_length_b 21.1205(3)
_cell_length_c 21.1205(3)
_cell_angle_alpha 90
_cell_angle_beta 90
_cell_angle_gamma 90
_cell_formula_units_Z 8
loop_
_atom_type_symbol
_atom_type_radius_bond
C 0.68
H 0.23
N 0.68
O 0.68
Ti 1.60
loop_
_atom_site_label
_atom_site_type_symbol
_atom_site_fract_x
_atom_site_fract_y
_atom_site_fract_z
Ti1 Ti 0.80841(5) 0.19159(5) 0.69159(5)
O1 O 0.7785(2) 0.13611(17) 0.6243(2)
O2 O 0.7335(2) 0.23846(19) 0.6640(2)
N1 N 0.6466(2) 0.0712(3) 0.4328(3)
C1 C 0.6191(3) 0.1214(3) 0.4565(3)
C2 C 0.7000(3) 0.1257(3) 0.5412(3)
H1 H 0.71758 0.08800 0.52666
C3 C 0.6471(3) 0.1520(3) 0.5114(3)
C4 C 0.7256(3) 0.1569(3) 0.5928(3)
C5 C 0.7007(3) 0.2125(3) 0.6148(3)
C6 C 0.6474(3) 0.2367(3) 0.5878(3)
H2 H 0.62878 0.27307 0.60433
C7 C 0.6213(3) 0.2074(3) 0.5365(3)
H3 H 0.58546 0.22475 0.51782
O1G O 0.3757(2) 0.27850(17) 0.36389(20)
O2G O 0.3360(2) 0.23350(19) 0.26154(20)
N1G N 0.5672(2) 0.1466(3) 0.4288(3)
C1G C 0.5435(3) 0.1191(3) 0.3786(3)
C2G C 0.4588(3) 0.2000(3) 0.3743(3)
H1G H 0.47334 0.21758 0.41200
C3G C 0.4886(3) 0.1471(3) 0.3480(3)
C4G C 0.4072(3) 0.2256(3) 0.3431(3)
C5G C 0.3852(3) 0.2007(3) 0.2875(3)
C6G C 0.4122(3) 0.1474(3) 0.2633(3)
H2G H 0.39567 0.12878 0.22693
C7G C 0.4635(3) 0.1213(3) 0.2926(3)
H3G H 0.48218 0.08546 0.27525
O1J O 0.63611(20) -0.12430(17) 0.2215(2)
O2J O 0.73846(20) -0.16400(19) 0.2665(2)
N1J N 0.5712(2) 0.0672(3) 0.3534(3)
C1J C 0.6214(3) 0.0435(3) 0.3809(3)
C2J C 0.6257(3) -0.0412(3) 0.3000(3)
H1J H 0.58800 -0.02666 0.28242
C3J C 0.6520(3) -0.0114(3) 0.3529(3)
C4J C 0.6569(3) -0.0928(3) 0.2744(3)
C5J C 0.7125(3) -0.1148(3) 0.2993(3)
C6J C 0.7367(3) -0.0878(3) 0.3526(3)
H2J H 0.77307 -0.10433 0.37122
C7J C 0.7074(3) -0.0365(3) 0.3787(3)
H3J H 0.72475 -0.01782 0.41454
Ti1A Ti 0.69159(5) -0.19159(5) 0.19159(5)
Ti1C Ti 0.30841(5) 0.30841(5) 0.30841(5)
O1F O 0.8757(2) 0.22150(17) 0.63611(20)
O1I O 0.86389(20) 0.12430(17) 0.7215(2)
O2F O 0.8360(2) 0.26650(19) 0.73846(20)
O2I O 0.76154(20) 0.16400(19) 0.7665(2)
#END
