
#######################################################################
#
#                 Cambridge Crystallographic Data Centre
#                                CCDC
#
#######################################################################
#
# If this CIF has been generated from an entry in the Cambridge
# Structural Database, then it will include bibliographic, chemical,
# crystal, experimental, refinement or atomic coordinate data resulting
# from the CCDC's data processing and validation procedures.
#
#######################################################################

data_CSD_CIF_MUMKAG
_audit_creation_date 2003-02-20
_audit_creation_method CSD-ConQuest-V1
_database_code_CSD MUMKAG
_database_code_depnum_ccdc_archive 'CCDC 191084'
_chemical_formula_sum 'C14 H16 Cl2 Mo2 N2 O8'
_chemical_formula_moiety
;
(C6 H8 N1 1+)2n,n(C2 Cl2 Mo2 O8 2-)
;
_journal_coden_Cambridge 186
_journal_year 2002
_journal_page_first 4582
_journal_name_full 'J.Chem.Soc.,Dalton Trans. '
loop_
_publ_author_name
"B.Modec"
"J.V.Brencic"
"D.Dolenc"
"J.Zubieta"
_chemical_name_systematic
;
catena-(bis(3-Methylpyridinium) 
(\m~2~-oxalato)-bis(\m~2~-oxo)-dichloro-dioxo-di-molybdenum(v))
;
_cell_volume   1910.391
_exptl_crystal_colour 'orange'
_exptl_crystal_density_diffrn 2.097
_exptl_crystal_description 'block'
_diffrn_ambient_temperature 150
#These two values have been output from a single CSD field.
_refine_ls_R_factor_gt 0.0208
_refine_ls_wR_factor_gt 0.0208
_symmetry_cell_setting monoclinic
_symmetry_space_group_name_H-M 'C 2/c'
_symmetry_Int_Tables_number 15
loop_
_symmetry_equiv_pos_site_id
_symmetry_equiv_pos_as_xyz
1 x,y,z
2 1/2+x,1/2+y,z
3 x,-y,1/2+z
4 1/2+x,1/2-y,1/2+z
5 -x,-y,-z
6 -1/2-x,-1/2-y,-z
7 -x,y,-1/2-z
8 -1/2-x,-1/2+y,-1/2-z
_cell_length_a 19.1863(2)
_cell_length_b 9.4007(2)
_cell_length_c 12.6223(2)
_cell_angle_alpha 90
_cell_angle_beta 122.9510(8)
_cell_angle_gamma 90
_cell_formula_units_Z 4
loop_
_atom_type_symbol
_atom_type_radius_bond
C 0.68
H 0.23
Cl 0.99
Mo 1.37
N 0.68
O 0.68
loop_
_atom_site_label
_atom_site_type_symbol
_atom_site_fract_x
_atom_site_fract_y
_atom_site_fract_z
Mo1 Mo 0.464879(11) 0.780146(19) 0.128963(16)
Cl1 Cl 0.32511(3) 0.83131(6) -0.05163(5)
O1 O 0.45903(10) 0.60489(17) 0.10058(15)
O2 O 0.42071(10) 0.81854(17) 0.23173(15)
O3 O 0.46981(10) 1.02383(17) 0.10558(14)
O4 O 0.49203(10) 1.18462(16) -0.00396(15)
C1 C 0.48872(13) 1.0600(2) 0.0296(2)
N1 N 0.19101(14) 0.4583(2) -0.1542(2)
H1 H 0.16560 0.53710 -0.16280
C2 C 0.14714(15) 0.3380(3) -0.1902(2)
H2 H 0.09060 0.34130 -0.22200
C3 C 0.18394(15) 0.2086(3) -0.1811(2)
C4 C 0.26912(16) 0.2096(2) -0.1302(2)
H3 H 0.29650 0.12460 -0.12190
C5 C 0.31361(15) 0.3360(3) -0.0918(2)
H4 H 0.37050 0.33580 -0.05730
C6 C 0.27286(16) 0.4617(3) -0.1051(2)
H5 H 0.30160 0.54750 -0.08050
C7 C 0.13198(17) 0.0758(3) -0.2287(3)
H6 H 0.16690 -0.00430 -0.21540
H7 H 0.09070 0.08560 -0.31720
H8 H 0.10520 0.06140 -0.18370
C1D C 0.51128(13) 0.9400(2) -0.0296(2)
O3D O 0.53019(10) 0.97617(17) -0.10558(14)
O4D O 0.50797(10) 0.81538(16) 0.00396(15)
O2F O 0.57929(10) 0.81854(17) 0.26827(15)
Mo1F Mo 0.535121(11) 0.780146(19) 0.371037(16)
Cl1F Cl 0.67489(3) 0.83131(6) 0.55163(5)
O1F O 0.54097(10) 0.60489(17) 0.39942(15)
Mo1D Mo 0.535121(11) 1.219854(19) -0.128963(16)
O3F O 0.53019(10) 1.02383(17) 0.39442(14)
O4B O 0.49203(10) 0.81538(16) 0.49604(15)
#END
