
#######################################################################
#
#                 Cambridge Crystallographic Data Centre
#                                CCDC
#
#######################################################################
#
# If this CIF has been generated from an entry in the Cambridge
# Structural Database, then it will include bibliographic, chemical,
# crystal, experimental, refinement or atomic coordinate data resulting
# from the CCDC's data processing and validation procedures.
#
#######################################################################

data_CSD_CIF_MUMKUC
_audit_creation_date 2015-06-03
_audit_creation_method CSD-ConQuest-V1
_database_code_CSD MUMKUC
_database_code_depnum_ccdc_archive 'CCDC 1054372'
_chemical_formula_sum 'C38 H34 Cl6 Cr1 Fe1 Mn1 N6 O14'
_chemical_formula_moiety
;
(C16 H28 Fe1 N4 O2 1+)n,n(C18 Cl6 Cr1 Mn1 O12 1-),2n(C2 H3 N1)
;
_journal_coden_Cambridge 1475
_journal_volume 6
_journal_year 2015
_journal_page_first 4665
_journal_name_full 'Chemical Science '
loop_
_publ_author_name
"A.Abherve"
"S.Manas-Valero"
"M.Clemente-Leon"
"E.Coronado"
_chemical_name_systematic
;
catena-((4,15-Dimethyl-5,8,11,14-tetra-azaoctadeca-2,4,14,16-tetraene-2,17-dio
lato)-iron(iii) 
tris(\m~2~-3,6-dichloro-2,5-dioxy-1,4-benzoquinone)-chromium(iii)-manganese(ii
) acetonitrile solvate)
;
_cell_volume   4576.599
_exptl_crystal_colour 'black'
_exptl_crystal_density_diffrn 1.704
_exptl_special_details
;
Magnetic properties

;
_exptl_crystal_description 'prism'
_diffrn_ambient_temperature 120
#These two values have been output from a single CSD field.
_refine_ls_R_factor_gt 0.0441
_refine_ls_wR_factor_gt 0.0441
_symmetry_cell_setting monoclinic
_symmetry_space_group_name_H-M 'C 2/c'
_symmetry_Int_Tables_number 15
loop_
_symmetry_equiv_pos_site_id
_symmetry_equiv_pos_as_xyz
1 x,y,z
2 -x,y,1/2-z
3 1/2+x,1/2+y,z
4 1/2-x,1/2+y,1/2-z
5 -x,-y,-z
6 x,-y,-1/2+z
7 -1/2-x,-1/2-y,-z
8 -1/2+x,-1/2-y,-1/2+z
_cell_length_a 14.2177(3)
_cell_length_b 22.9278(5)
_cell_length_c 14.5428(4)
_cell_angle_alpha 90
_cell_angle_beta 105.118(2)
_cell_angle_gamma 90
_cell_formula_units_Z 4
loop_
_atom_type_symbol
_atom_type_radius_bond
C 0.68
H 0.23
Cl 0.99
Cr 1.39
Fe 1.52
Mn 1.61
N 0.68
O 0.68
loop_
_atom_site_label
_atom_site_type_symbol
_atom_site_fract_x
_atom_site_fract_y
_atom_site_fract_z
C1 C 0.0145(2) 0.24131(14) 0.2033(2)
C2 C 0.0241(2) 0.29243(14) 0.1581(2)
C3 C 0.0106(2) 0.34606(14) 0.2007(2)
C4 C -0.1916(2) 0.08792(13) 0.2040(2)
C5 C -0.2890(2) 0.07946(15) 0.1610(2)
C6 C -0.3441(2) 0.04294(14) 0.2047(2)
C7 C -0.1425(2) 0.05799(13) 0.2971(2)
C8 C -0.1961(2) 0.02412(14) 0.3437(2)
C9 C -0.2948(2) 0.01349(14) 0.3005(2)
O1 O 0.02875(16) 0.19015(9) 0.17294(16)
O2 O 0.01499(16) 0.39482(10) 0.16447(16)
O3 O -0.13525(16) 0.12033(10) 0.17067(16)
O4 O -0.43309(16) 0.03178(10) 0.17150(17)
O5 O -0.05041(15) 0.06804(9) 0.32685(16)
O6 O -0.34935(16) -0.01821(10) 0.33412(16)
Cl1 Cl 0.05134(7) 0.29161(4) 0.04941(6)
Cl2 Cl -0.34425(6) 0.11325(4) 0.05523(7)
Cl3 Cl -0.14201(6) -0.00688(4) 0.45288(6)
Cr1 Cr 0.00000 0.12515(3) 0.25000
Mn1 Mn 0.00000 0.47096(3) 0.25000
C10 C 0.7813(3) 0.3195(2) 0.5985(3)
H1 H 0.82270 0.32420 0.55460
H2 H 0.77450 0.35720 0.62800
H3 H 0.71700 0.30540 0.56330
C11 C 0.8270(3) 0.27639(16) 0.6744(3)
C12 C 0.7829(3) 0.26275(19) 0.7437(3)
H4 H 0.72110 0.28010 0.73910
C13 C 0.8196(3) 0.22526(19) 0.8221(3)
C14 C 0.7540(3) 0.2140(3) 0.8873(4)
H5 H 0.78680 0.18750 0.93860
H6 H 0.69300 0.19620 0.85080
H7 H 0.73980 0.25090 0.91480
C15 C 0.9343(3) 0.16268(17) 0.9242(3)
H8 H 0.89130 0.12810 0.91740
H9 H 0.92870 0.18480 0.98100
C16 C 1.0391(3) 0.14347(17) 0.9365(3)
H10 H 1.08400 0.17530 0.96590
H11 H 1.05340 0.10910 0.97900
C17 C 1.0046(3) 0.07422(15) 0.8023(3)
H12 H 0.93930 0.07210 0.81440
H13 H 1.04290 0.04000 0.83240
N1 N 0.9041(2) 0.19959(12) 0.8388(2)
N2 N 1.0543(2) 0.12859(13) 0.8429(2)
H14 H 1.12570 0.12430 0.84950
O7 O 0.90923(18) 0.25490(11) 0.6676(2)
Fe1 Fe 1.00000 0.20210(3) 0.75000
N3 N 1.2530(3) 0.08418(18) 0.8430(3)
C18 C 1.3128(3) 0.07138(18) 0.9075(3)
C19 C 1.3919(3) 0.05475(18) 0.9909(3)
H15 H 1.44530 0.03700 0.96950
H16 H 1.36720 0.02660 1.02970
H17 H 1.41590 0.08950 1.02900
C1A C -0.0145(2) 0.24131(14) 0.2967(2)
C2A C -0.0241(2) 0.29243(14) 0.3419(2)
C3A C -0.0106(2) 0.34606(14) 0.2993(2)
O1A O -0.02875(16) 0.19015(9) 0.32706(16)
O2A O -0.01499(16) 0.39482(10) 0.33553(16)
Cl1A Cl -0.05134(7) 0.29161(4) 0.45059(6)
C4A C 0.1916(2) 0.08792(13) 0.2960(2)
C5A C 0.2890(2) 0.07946(15) 0.3390(2)
C6A C 0.3441(2) 0.04294(14) 0.2953(2)
C7A C 0.1425(2) 0.05799(13) 0.2029(2)
C8A C 0.1961(2) 0.02412(14) 0.1563(2)
C9A C 0.2948(2) 0.01349(14) 0.1995(2)
O3A O 0.13525(16) 0.12033(10) 0.32933(16)
O4A O 0.43309(16) 0.03178(10) 0.32850(17)
O5A O 0.05041(15) 0.06804(9) 0.17315(16)
O6A O 0.34935(16) -0.01821(10) 0.16588(16)
Cl2A Cl 0.34425(6) 0.11325(4) 0.44477(7)
Cl3A Cl 0.14201(6) -0.00688(4) 0.04712(6)
O4B O 0.06691(16) 0.53178(10) 0.17150(17)
O4C O -0.06691(16) 0.53178(10) 0.32850(17)
O6B O 0.15065(16) 0.48179(10) 0.33412(16)
O6C O -0.15065(16) 0.48179(10) 0.16588(16)
Mn1B Mn -0.50000 -0.02904(3) 0.25000
Mn1B* Mn 0.50000 -0.02904(3) 0.25000
C10A C 1.2187(3) 0.3195(2) 0.9015(3)
H1A H 1.17730 0.32420 0.94540
H2A H 1.22550 0.35720 0.87200
H3A H 1.28300 0.30540 0.93670
C11A C 1.1730(3) 0.27639(16) 0.8256(3)
C12A C 1.2171(3) 0.26275(19) 0.7563(3)
H4A H 1.27890 0.28010 0.76090
C13A C 1.1804(3) 0.22526(19) 0.6779(3)
C14A C 1.2460(3) 0.2140(3) 0.6127(4)
H5A H 1.21320 0.18750 0.56140
H6A H 1.30700 0.19620 0.64920
H7A H 1.26020 0.25090 0.58520
C15A C 1.0657(3) 0.16268(17) 0.5758(3)
H8A H 1.10870 0.12810 0.58260
H9A H 1.07130 0.18480 0.51900
C16A C 0.9609(3) 0.14347(17) 0.5635(3)
H10A H 0.91600 0.17530 0.53410
H11A H 0.94660 0.10910 0.52100
C17A C 0.9954(3) 0.07422(15) 0.6977(3)
H12A H 1.06070 0.07210 0.68560
H13A H 0.95710 0.04000 0.66760
N1A N 1.0959(2) 0.19959(12) 0.6612(2)
N2A N 0.9457(2) 0.12859(13) 0.6571(2)
H14A H 0.87430 0.12430 0.65050
O7A O 1.09077(18) 0.25490(11) 0.8324(2)
#END
