
#######################################################################
#
#                 Cambridge Crystallographic Data Centre
#                                CCDC
#
#######################################################################
#
# If this CIF has been generated from an entry in the Cambridge
# Structural Database, then it will include bibliographic, chemical,
# crystal, experimental, refinement or atomic coordinate data resulting
# from the CCDC's data processing and validation procedures.
#
#######################################################################

data_CSD_CIF_MUMLAJ
_audit_creation_date 2015-06-03
_audit_creation_method CSD-ConQuest-V1
_database_code_CSD MUMLAJ
_database_code_depnum_ccdc_archive 'CCDC 1054373'
_chemical_formula_sum 'C38 H34 Br6 Cr1 Fe1 Mn1 N6 O14'
_chemical_formula_moiety
;
C16 H28 Fe1 N4 O2 1+,n(C18 Br6 Cr1 Mn1 O12 1-),2(C2 H3 N1)
;
_journal_coden_Cambridge 1475
_journal_volume 6
_journal_year 2015
_journal_page_first 4665
_journal_name_full 'Chemical Science '
loop_
_publ_author_name
"A.Abherve"
"S.Manas-Valero"
"M.Clemente-Leon"
"E.Coronado"
_chemical_name_systematic
;
catena-((4,15-Dimethyl-5,8,11,14-tetra-azaoctadeca-2,4,14,16-tetraene-2,17-dio
lato)-iron(iii) 
tris(\m~2~-3,6-dibromo-2,5-dioxy-1,4-benzoquinone)-chromium(iii)-manganese(ii)
 acetonitrile solvate)
;
_cell_volume   4670.017
_exptl_crystal_colour 'black'
_exptl_crystal_density_diffrn 2.049
_exptl_crystal_description 'prism'
_diffrn_ambient_temperature 120
#These two values have been output from a single CSD field.
_refine_ls_R_factor_gt 0.0616
_refine_ls_wR_factor_gt 0.0616
_symmetry_cell_setting monoclinic
_symmetry_space_group_name_H-M 'C 2/c'
_symmetry_Int_Tables_number 15
loop_
_symmetry_equiv_pos_site_id
_symmetry_equiv_pos_as_xyz
1 x,y,z
2 -x,y,1/2-z
3 1/2+x,1/2+y,z
4 1/2-x,1/2+y,1/2-z
5 -x,-y,-z
6 x,-y,-1/2+z
7 -1/2-x,-1/2-y,-z
8 -1/2+x,-1/2-y,-1/2+z
_cell_length_a 14.1914(5)
_cell_length_b 23.0061(7)
_cell_length_c 14.7880(5)
_cell_angle_alpha 90
_cell_angle_beta 104.703(3)
_cell_angle_gamma 90
_cell_formula_units_Z 4
loop_
_atom_type_symbol
_atom_type_radius_bond
C 0.68
H 0.23
Br 1.21
Cr 1.39
Fe 1.52
Mn 1.61
N 0.68
O 0.68
loop_
_atom_site_label
_atom_site_type_symbol
_atom_site_fract_x
_atom_site_fract_y
_atom_site_fract_z
Br1 Br 0.84821(7) 0.61510(4) 0.44814(7)
C1 C 0.7893(5) 0.5783(3) 0.3361(5)
C2 C 0.6918(5) 0.5873(3) 0.2955(4)
C3 C 0.8447(5) 0.5418(3) 0.2948(5)
C4 C 0.6431(5) 0.5577(3) 0.2028(5)
O1 O 0.6351(3) 0.6194(2) 0.3278(3)
C5 C 0.7963(5) 0.5131(3) 0.1994(5)
O2 O 0.9338(3) 0.5305(2) 0.3272(3)
C6 C 0.6978(5) 0.5238(3) 0.1578(4)
O3 O 0.5513(3) 0.5674(2) 0.1739(3)
Cr1 Cr 0.50000 0.62446(6) 0.25000
O4 O 0.8508(3) 0.4810(2) 0.1669(3)
Mn1 Mn 1.00000 0.46963(6) 0.25000
Br2 Br 0.64101(6) 0.49094(4) 0.04123(6)
O5 O 0.5293(3) 0.6899(2) 0.1741(3)
O6 O 1.0162(3) 0.3940(2) 0.1670(3)
C7 C 0.5157(4) 0.7407(3) 0.2044(5)
C8 C 0.5273(5) 0.7920(3) 0.1609(4)
C9 C 0.5118(5) 0.8454(3) 0.2015(4)
Br3 Br 0.55784(7) 0.79079(4) 0.04628(6)
C10 C 0.8259(5) 0.7224(3) 0.1773(5)
C11 C 0.7801(6) 0.6793(4) 0.1031(6)
H1 H 0.82050 0.67530 0.05870
H2 H 0.71500 0.69280 0.07010
H3 H 0.77490 0.64150 0.13210
C12 C 0.7841(6) 0.7353(4) 0.2461(6)
H4 H 0.72350 0.71690 0.24320
C13 C 0.8195(5) 0.7734(4) 0.3235(5)
C14 C 0.7551(7) 0.7833(6) 0.3896(7)
H5 H 0.78750 0.81010 0.43930
H6 H 0.74310 0.74620 0.41720
H7 H 0.69290 0.80010 0.35500
C15 C 0.9343(6) 0.8361(3) 0.4223(6)
H8 H 0.92910 0.81410 0.47830
H9 H 0.89100 0.87040 0.41560
C16 C 1.0394(6) 0.8559(3) 0.4337(5)
H10 H 1.05310 0.89030 0.47520
H11 H 1.08470 0.82440 0.46260
C17 C 1.0048(6) 0.9242(3) 0.3021(5)
H12 H 1.04300 0.95840 0.33130
H13 H 0.93960 0.92620 0.31460
N1 N 0.9042(4) 0.7989(3) 0.3385(4)
N2 N 1.0542(5) 0.8706(3) 0.3411(4)
H14 H 1.12560 0.87500 0.34690
O7 O 0.9079(4) 0.7441(2) 0.1691(4)
Fe1 Fe 1.00000 0.79652(6) 0.25000
C18 C 0.6889(5) 0.9302(4) 0.0924(6)
C19 C 0.6110(6) 0.9473(4) 0.0101(5)
H15 H 0.59880 0.91550 -0.03550
H16 H 0.63110 0.98210 -0.01830
H17 H 0.55130 0.95560 0.02960
N3 N 0.7470(5) 0.9174(3) 0.1548(6)
O3A O 0.4487(3) 0.5674(2) 0.3261(3)
O1A O 0.3649(3) 0.6194(2) 0.1722(3)
O5A O 0.4707(3) 0.6899(2) 0.3259(3)
O6A O 0.9838(3) 0.3940(2) 0.3330(3)
O2A O 1.0662(3) 0.5305(2) 0.1728(3)
O4A O 1.1492(3) 0.4810(2) 0.3331(3)
C4A C 0.3569(5) 0.5577(3) 0.2972(5)
C2A C 0.3082(5) 0.5873(3) 0.2045(4)
C7A C 0.4843(4) 0.7407(3) 0.2956(5)
C6A C 0.3022(5) 0.5238(3) 0.3422(4)
C1A C 0.2107(5) 0.5783(3) 0.1639(5)
C8A C 0.4727(5) 0.7920(3) 0.3391(4)
C5A C 0.2037(5) 0.5131(3) 0.3006(5)
Br2A Br 0.35899(6) 0.49094(4) 0.45877(6)
C3A C 0.1553(5) 0.5418(3) 0.2052(5)
Br1A Br 0.15179(7) 0.61510(4) 0.05186(7)
Br3A Br 0.44216(7) 0.79079(4) 0.45372(6)
C9A C 0.4882(5) 0.8454(3) 0.2985(4)
O4A* O 0.1492(3) 0.4810(2) 0.3331(3)
O2A* O 0.0662(3) 0.5305(2) 0.1728(3)
O6B O 0.5162(3) 0.8940(2) 0.1670(3)
O6C O 0.4838(3) 0.8940(2) 0.3330(3)
Mn1* Mn 0.00000 0.46963(6) 0.25000
Mn1B Mn 0.50000 0.96963(6) 0.25000
C10A C 1.1741(5) 0.7224(3) 0.3227(5)
C11A C 1.2199(6) 0.6793(4) 0.3969(6)
H1A H 1.17950 0.67530 0.44130
H2A H 1.28500 0.69280 0.42990
H3A H 1.22510 0.64150 0.36790
C12A C 1.2159(6) 0.7353(4) 0.2539(6)
H4A H 1.27650 0.71690 0.25680
C13A C 1.1805(5) 0.7734(4) 0.1765(5)
C14A C 1.2449(7) 0.7833(6) 0.1104(7)
H5A H 1.21250 0.81010 0.06070
H6A H 1.25690 0.74620 0.08280
H7A H 1.30710 0.80010 0.14500
C15A C 1.0657(6) 0.8361(3) 0.0777(6)
H8A H 1.07090 0.81410 0.02170
H9A H 1.10900 0.87040 0.08440
C16A C 0.9606(6) 0.8559(3) 0.0663(5)
H10A H 0.94690 0.89030 0.02480
H11A H 0.91530 0.82440 0.03740
C17A C 0.9952(6) 0.9242(3) 0.1979(5)
H12A H 0.95700 0.95840 0.16870
H13A H 1.06040 0.92620 0.18540
N1A N 1.0958(4) 0.7989(3) 0.1615(4)
N2A N 0.9458(5) 0.8706(3) 0.1589(4)
H14A H 0.87440 0.87500 0.15310
O7A O 1.0921(4) 0.7441(2) 0.3309(4)
#END
