
#######################################################################
#
#                 Cambridge Crystallographic Data Centre
#                                CCDC
#
#######################################################################
#
# If this CIF has been generated from an entry in the Cambridge
# Structural Database, then it will include bibliographic, chemical,
# crystal, experimental, refinement or atomic coordinate data resulting
# from the CCDC's data processing and validation procedures.
#
#######################################################################

data_CSD_CIF_MUMLEN
_audit_creation_date 2015-06-03
_audit_creation_method CSD-ConQuest-V1
_database_code_CSD MUMLEN
_database_code_depnum_ccdc_archive 'CCDC 1054374'
_chemical_formula_sum 'C38 H34 Br6 Cr1 Ga1 Mn1 N6 O14'
_chemical_formula_moiety
;
(C16 H28 Ga1 N4 O2 1+)n,n(C18 Br6 Cr1 Mn1 O12 1-),2n(C2 H3 N1)
;
_journal_coden_Cambridge 1475
_journal_volume 6
_journal_year 2015
_journal_page_first 4665
_journal_name_full 'Chemical Science '
loop_
_publ_author_name
"A.Abherve"
"S.Manas-Valero"
"M.Clemente-Leon"
"E.Coronado"
_chemical_name_systematic
;
catena-((4,15-Dimethyl-5,8,11,14-tetra-azaoctadeca-2,4,14,16-tetraene-2,17-dio
lato)-gallium(iii) 
tris(\m~2~-3,6-dibromo-2,5-dioxy-1,4-benzoquinone)-chromium(iii)-manganese(ii)
 acetonitrile solvate)
;
_cell_volume   4709.684
_exptl_crystal_colour 'violet'
_exptl_crystal_density_diffrn 2.052
_exptl_crystal_description 'prism'
_diffrn_ambient_temperature 120
#These two values have been output from a single CSD field.
_refine_ls_R_factor_gt 0.0543
_refine_ls_wR_factor_gt 0.0543
_symmetry_cell_setting monoclinic
_symmetry_space_group_name_H-M 'C 2/c'
_symmetry_Int_Tables_number 15
loop_
_symmetry_equiv_pos_site_id
_symmetry_equiv_pos_as_xyz
1 x,y,z
2 -x,y,1/2-z
3 1/2+x,1/2+y,z
4 1/2-x,1/2+y,1/2-z
5 -x,-y,-z
6 x,-y,-1/2+z
7 -1/2-x,-1/2-y,-z
8 -1/2+x,-1/2-y,-1/2+z
_cell_length_a 14.1613(4)
_cell_length_b 23.0839(6)
_cell_length_c 14.8676(5)
_cell_angle_alpha 90
_cell_angle_beta 104.296(3)
_cell_angle_gamma 90
_cell_formula_units_Z 4
loop_
_atom_type_symbol
_atom_type_radius_bond
C 0.68
H 0.23
Br 1.21
Cr 1.39
Ga 1.22
Mn 1.61
N 0.68
O 0.68
loop_
_atom_site_label
_atom_site_type_symbol
_atom_site_fract_x
_atom_site_fract_y
_atom_site_fract_z
Br1 Br 0.15247(5) 0.38452(3) 0.55185(5)
C1 C 0.2109(5) 0.4216(3) 0.6641(4)
C2 C 0.1556(5) 0.4584(3) 0.7058(5)
C3 C 0.3088(5) 0.4128(3) 0.7052(5)
C4 C 0.2039(5) 0.4873(3) 0.8006(5)
O1 O 0.0668(3) 0.46993(19) 0.6731(3)
C5 C 0.3573(5) 0.4424(3) 0.7973(4)
O2 O 0.3652(3) 0.38024(19) 0.6730(3)
C6 C 0.3028(4) 0.4763(3) 0.8419(4)
O3 O 0.1490(3) 0.51861(19) 0.8326(3)
Mn1 Mn 0.00000 0.53113(6) 0.75000
O4 O 0.4489(3) 0.43246(18) 0.8258(3)
Cr1 Cr 0.50000 0.37540(6) 0.75000
Br2 Br 0.35926(5) 0.50926(3) 0.95839(5)
O5 O 0.0159(3) 0.60695(19) 0.6672(3)
O6 O 0.5302(3) 0.31075(18) 0.6748(3)
C7 C 0.5159(5) 0.2600(3) 0.7044(5)
C8 C 0.5278(5) 0.2086(3) 0.6620(4)
Br3 Br 0.55966(6) 0.20964(3) 0.54628(5)
C9 C 0.5111(5) 0.1552(3) 0.7015(5)
C10 C -0.1678(5) 0.7237(3) 0.1810(5)
C11 C -0.2108(6) 0.7380(3) 0.2491(5)
H1 H -0.27270 0.72110 0.24580
C12 C -0.1744(5) 0.7749(3) 0.3240(5)
C13 C -0.0558(5) 0.8362(3) 0.4223(5)
H2 H -0.05950 0.81360 0.47790
H3 H -0.09770 0.87090 0.41890
C14 C 0.0481(6) 0.8543(3) 0.4291(5)
H4 H 0.06450 0.88800 0.47110
H5 H 0.09260 0.82210 0.45570
C15 C 0.0104(6) 0.9237(3) 0.3005(5)
H6 H -0.05120 0.92680 0.32030
H7 H 0.05160 0.95750 0.32550
C16 C -0.2149(6) 0.6808(4) 0.1087(6)
H8 H -0.17460 0.67570 0.06440
H9 H -0.27950 0.69490 0.07590
H10 H -0.22160 0.64360 0.13830
C17 C -0.2367(6) 0.7853(4) 0.3926(6)
H11 H -0.20260 0.81180 0.44140
H12 H -0.24850 0.74840 0.42060
H13 H -0.29910 0.80250 0.36000
N1 N -0.0896(4) 0.8007(2) 0.3385(4)
N2 N 0.0617(4) 0.8694(2) 0.3376(4)
H14 H 0.13280 0.87290 0.34040
O7 O -0.0858(3) 0.7433(2) 0.1699(3)
Ga1 Ga 0.00000 0.79845(4) 0.25000
C18 C 0.3895(6) 0.9476(3) 0.4898(5)
H15 H 0.44900 0.92570 0.49110
H16 H 0.36770 0.93950 0.54620
H17 H 0.40270 0.98920 0.48660
C19 C 0.3140(6) 0.9308(3) 0.4092(6)
N3 N 0.2551(5) 0.9186(3) 0.3442(5)
O5A O -0.0159(3) 0.60695(19) 0.8328(3)
O1A O -0.0668(3) 0.46993(19) 0.8269(3)
O3A O -0.1490(3) 0.51861(19) 0.6674(3)
O2A O 0.6348(3) 0.38024(19) 0.8270(3)
O4A O 0.5511(3) 0.43246(18) 0.6742(3)
O6A O 0.4698(3) 0.31075(18) 0.8252(3)
C3A C 0.6912(5) 0.4128(3) 0.7948(5)
C5A C 0.6427(5) 0.4424(3) 0.7027(4)
C7A C 0.4841(5) 0.2600(3) 0.7956(5)
C1A C 0.7891(5) 0.4216(3) 0.8359(4)
C6A C 0.6972(4) 0.4763(3) 0.6581(4)
C8A C 0.4722(5) 0.2086(3) 0.8380(4)
C2A C 0.8444(5) 0.4584(3) 0.7942(5)
Br1A Br 0.84753(5) 0.38452(3) 0.94815(5)
C4A C 0.7961(5) 0.4873(3) 0.6994(5)
Br2A Br 0.64074(5) 0.50926(3) 0.54161(5)
C9A C 0.4889(5) 0.1552(3) 0.7985(5)
Br3A Br 0.44034(6) 0.20964(3) 0.95372(5)
O1A* O 0.9332(3) 0.46993(19) 0.8269(3)
O3A* O 0.8510(3) 0.51861(19) 0.6674(3)
O5B O 0.5159(3) 0.10695(19) 0.6672(3)
O5C O 0.4841(3) 0.10695(19) 0.8328(3)
Mn1* Mn 1.00000 0.53113(6) 0.75000
Mn1B Mn 0.50000 0.03113(6) 0.75000
C10A C 0.1678(5) 0.7237(3) 0.3190(5)
C11A C 0.2108(6) 0.7380(3) 0.2509(5)
H1A H 0.27270 0.72110 0.25420
C12A C 0.1744(5) 0.7749(3) 0.1760(5)
C13A C 0.0558(5) 0.8362(3) 0.0777(5)
H2A H 0.05950 0.81360 0.02210
H3A H 0.09770 0.87090 0.08110
C14A C -0.0481(6) 0.8543(3) 0.0709(5)
H4A H -0.06450 0.88800 0.02890
H5A H -0.09260 0.82210 0.04430
C15A C -0.0104(6) 0.9237(3) 0.1995(5)
H6A H 0.05120 0.92680 0.17970
H7A H -0.05160 0.95750 0.17450
C16A C 0.2149(6) 0.6808(4) 0.3913(6)
H8A H 0.17460 0.67570 0.43560
H9A H 0.27950 0.69490 0.42410
H10A H 0.22160 0.64360 0.36170
C17A C 0.2367(6) 0.7853(4) 0.1074(6)
H11A H 0.20260 0.81180 0.05860
H12A H 0.24850 0.74840 0.07940
H13A H 0.29910 0.80250 0.14000
N1A N 0.0896(4) 0.8007(2) 0.1615(4)
N2A N -0.0617(4) 0.8694(2) 0.1624(4)
H14A H -0.13280 0.87290 0.15960
O7A O 0.0858(3) 0.7433(2) 0.3301(3)
#END
