
#######################################################################
#
#                 Cambridge Crystallographic Data Centre
#                                CCDC
#
#######################################################################
#
# If this CIF has been generated from an entry in the Cambridge
# Structural Database, then it will include bibliographic, chemical,
# crystal, experimental, refinement or atomic coordinate data resulting
# from the CCDC's data processing and validation procedures.
#
#######################################################################

data_CSD_CIF_MUNKUC
_audit_creation_date 2010-07-16
_audit_creation_method CSD-ConQuest-V1
_database_code_CSD MUNKUC
_database_code_depnum_ccdc_archive 'CCDC 756990'
_chemical_formula_sum 'C120 H224 Ba4 O92 U8'
_chemical_formula_moiety
;
(C120 H176 Ba2 O68 U8 4-)n,2n(H16 Ba1 O8 2+),8n(H2 O1)
;
_journal_coden_Cambridge 1147
_journal_volume 9
_journal_year 2009
_journal_page_first 4592
_journal_name_full 'Cryst.Growth Des. '
loop_
_publ_author_name
"P.Thuery"
_chemical_name_systematic
;
catena-(bis(octaaqua-barium) 
octakis(\m~3~-(1R,3S)-(+)-camphorato)-tetrakis(\m~2~-(1R,3S)-(+)-camphorato)-t
etraaqua-hexadecaoxo-di-barium-octa-uranium octahydrate)
;
_cell_volume  10534.202
_exptl_crystal_colour 'light yellow'
_exptl_crystal_density_diffrn 1.763
_exptl_special_details
;
Absolute configuration

;
_exptl_crystal_description 'parallelepiped'
_diffrn_ambient_temperature 150
_refine_special_details
;
O17,O18 disordered by symmetry over two sites with occupancy 0.50.

;
#These two values have been output from a single CSD field.
_refine_ls_R_factor_gt 0.0499
_refine_ls_wR_factor_gt 0.0499
_symmetry_cell_setting tetragonal
_symmetry_space_group_name_H-M 'I 4'
_symmetry_Int_Tables_number 79
loop_
_symmetry_equiv_pos_site_id
_symmetry_equiv_pos_as_xyz
1 x,y,z
2 -x,-y,z
3 -y,x,z
4 y,-x,z
5 1/2+x,1/2+y,1/2+z
6 1/2-x,1/2-y,1/2+z
7 1/2-y,1/2+x,1/2+z
8 1/2+y,1/2-x,1/2+z
_cell_length_a 17.7501(5)
_cell_length_b 17.7501(5)
_cell_length_c 33.4349(12)
_cell_angle_alpha 90
_cell_angle_beta 90
_cell_angle_gamma 90
_cell_formula_units_Z 2
loop_
_atom_type_symbol
_atom_type_radius_bond
C 0.68
H 0.23
Ba 2.15
O 0.68
U 1.45
loop_
_atom_site_label
_atom_site_type_symbol
_atom_site_fract_x
_atom_site_fract_y
_atom_site_fract_z
U1 U 0.15306(3) 0.67635(3) 0.082330(12)
U2 U 0.14946(3) 0.67071(3) -0.196349(12)
Ba1 Ba 0.00000 0.50000 -0.13124(10)
Ba2 Ba 0.00000 0.00000 0.12354(6)
Ba3 Ba 0.50000 0.50000 0.27199(8)
O1 O 0.2207(6) 0.6505(7) 0.0469(3)
O2 O 0.0856(6) 0.7061(6) 0.1167(3)
O3 O 0.2182(7) 0.6434(7) -0.1616(3)
O4 O 0.0794(7) 0.6992(8) -0.2317(3)
O5 O 0.1062(7) 0.7682(6) 0.0347(3)
O6 O 0.0567(6) 0.6602(6) 0.0293(3)
O7 O 0.0525(6) 0.6501(6) -0.1436(3)
O8 O 0.0981(6) 0.7675(6) -0.1509(3)
O9 O 0.1055(5) 0.5467(5) 0.0818(3)
O10 O 0.1873(7) 0.5737(6) 0.1278(4)
O11 O 0.2876(6) 0.2552(6) 0.1284(4)
O12 O 0.2014(7) 0.2131(7) 0.0894(4)
O13 O -0.2050(7) 0.7926(6) -0.2055(4)
O14 O -0.2987(6) 0.7465(6) -0.2414(3)
O15 O -0.1868(7) 0.4331(7) -0.2398(3)
O16 O -0.0946(7) 0.4574(6) -0.1953(4)
O17 O 0.1522(10) 0.4716(10) -0.0987(6)
O18? O -0.0956(14) 0.5202(12) -0.0525(11)
O19 O 0.1491(11) 0.0154(12) 0.1539(6)
O20 O 0.0876(6) 0.0958(6) 0.0771(3)
O21 O 0.4608(10) 0.6375(10) 0.2306(6)
O22 O 0.3922(10) 0.5838(10) 0.3198(4)
O23 O 0.50000 0.00000 0.0116(5)
O24 O 0.4211(8) 0.3343(8) -0.2754(4)
O25 O 0.0829(9) 0.0310(8) 0.3875(5)
C1 C 0.0252(10) 0.748(1) -0.0222(4)
C2 C 0.0807(6) 0.7425(6) -0.0594(5)
C3 C 0.0205(7) 0.7466(8) -0.0941(4)
H1 H 0.00410 0.79870 -0.09820
C4 C -0.0450(8) 0.6986(9) -0.0800(4)
H2 H -0.04000 0.64730 -0.08970
H3 H -0.09240 0.71910 -0.08960
C5 C -0.0421(11) 0.7006(11) -0.0340(5)
H4 H -0.08800 0.72250 -0.02330
H5 H -0.03690 0.65000 -0.02340
C6 C 0.0637(8) 0.7255(8) 0.0172(5)
C7 C 0.0550(8) 0.7168(9) -0.1309(4)
C8 C 0.0021(9) 0.8343(8) -0.0154(4)
H6 H 0.04040 0.85900 0.00000
H7 H -0.04490 0.83660 -0.00130
H8 H -0.00300 0.85890 -0.04080
C9 C 0.1382(8) 0.8071(8) -0.0620(5)
H9 H 0.17240 0.80400 -0.03980
H10 H 0.11220 0.85460 -0.06120
H11 H 0.16590 0.80320 -0.08660
C10 C 0.1197(7) 0.6715(7) -0.0548(7)
H12 H 0.14970 0.67280 -0.03090
H13 H 0.15170 0.66320 -0.07750
H14 H 0.08360 0.63140 -0.05290
C11 C 0.1345(8) 0.4493(7) 0.1310(4)
C12 C 0.1617(8) 0.3866(8) 0.1029(4)
C13 C 0.1695(7) 0.3221(8) 0.1323(4)
H15 H 0.11790 0.30240 0.13170
C14 C 0.1926(13) 0.3508(10) 0.1736(5)
H16 H 0.16120 0.32940 0.19450
H17 H 0.24500 0.33940 0.17930
C15 C 0.1797(11) 0.4372(11) 0.1697(4)
H18 H 0.22760 0.46350 0.16820
H19 H 0.15190 0.45610 0.19260
C16 C 0.1412(11) 0.5271(8) 0.1139(4)
C17 C 0.2248(9) 0.2613(8) 0.1163(5)
C18 C 0.0582(7) 0.4306(12) 0.1384(5)
H20 H 0.02920 0.43840 0.11460
H21 H 0.05560 0.37860 0.14610
H22 H 0.03830 0.46140 0.15960
C19 C 0.2411(8) 0.4075(9) 0.0897(6)
H23 H 0.27030 0.42190 0.11260
H24 H 0.23870 0.44890 0.07120
H25 H 0.26420 0.36500 0.07690
C20 C 0.1170(14) 0.3547(15) 0.0675(4)
H26 H 0.14660 0.31720 0.05410
H27 H 0.10520 0.39460 0.04920
H28 H 0.07120 0.33240 0.07710
C21 C -0.1776(9) 0.6868(10) -0.2465(5)
C22 C -0.1653(10) 0.6207(10) -0.2175(4)
C23 C -0.1264(7) 0.5562(8) -0.2424(4)
H29 H -0.07200 0.56530 -0.24130
C24 C -0.1511(9) 0.5729(11) -0.2849(5)
H30 H -0.17980 0.53090 -0.29560
H31 H -0.10750 0.58080 -0.30190
C25 C -0.2001(11) 0.6442(15) -0.2839(7)
H32 H -0.19110 0.67480 -0.30750
H33 H -0.25310 0.63100 -0.28300
C26 C -0.2293(10) 0.7448(11) -0.2302(5)
C27 C -0.1402(8) 0.4801(10) -0.2239(5)
C28 C -0.0994(15) 0.7239(14) -0.2573(8)
H34 H -0.07540 0.74130 -0.23330
H35 H -0.10740 0.76580 -0.27500
H36 H -0.06790 0.68730 -0.27020
C29 C -0.1182(12) 0.6386(12) -0.1812(5)
H37 H -0.13820 0.68230 -0.16800
H38 H -0.06720 0.64850 -0.18940
H39 H -0.11890 0.59660 -0.16320
C30 C -0.2432(12) 0.5928(10) -0.1963(8)
H40 H -0.23270 0.55070 -0.17910
H41 H -0.27860 0.57790 -0.21650
H42 H -0.26400 0.63330 -0.18080
U1A U -0.15306(3) 0.32365(3) 0.082330(12)
U1C U -0.32365(3) 0.84694(3) 0.082330(12)
U1B U 0.32365(3) 0.15306(3) 0.082330(12)
U1C* U 0.67635(3) 0.84694(3) 0.082330(12)
U1B* U -0.67635(3) 0.15306(3) 0.082330(12)
U2A U -0.14946(3) 0.32929(3) -0.196349(12)
U2C U -0.32929(3) 0.85054(3) -0.196349(12)
U2B U 0.32929(3) 0.14946(3) -0.196349(12)
U2C* U 0.67071(3) 0.85054(3) -0.196349(12)
U2B* U -0.67071(3) 0.14946(3) -0.196349(12)
Ba1B Ba -0.50000 1.00000 -0.13124(10)
Ba1B* Ba 0.50000 1.00000 -0.13124(10)
Ba1B** Ba -0.50000 0.00000 -0.13124(10)
Ba1B*** Ba 0.50000 0.00000 -0.13124(10)
O1A O -0.2207(6) 0.3495(7) 0.0469(3)
O1C O -0.3495(6) 0.7793(7) 0.0469(3)
O1B O 0.3495(6) 0.2207(7) 0.0469(3)
O2A O -0.0856(6) 0.2939(6) 0.1167(3)
O2C O -0.2939(6) 0.9144(6) 0.1167(3)
O2B O 0.2939(6) 0.0856(6) 0.1167(3)
O3A O -0.2182(7) 0.3566(7) -0.1616(3)
O3C O -0.3566(7) 0.7818(7) -0.1616(3)
O3B O 0.3566(7) 0.2182(7) -0.1616(3)
O4A O -0.0794(7) 0.3008(8) -0.2317(3)
O4C O -0.3008(7) 0.9206(8) -0.2317(3)
O4B O 0.3008(7) 0.0794(8) -0.2317(3)
O5A O -0.1062(7) 0.2318(6) 0.0347(3)
O5C O -0.2318(7) 0.8938(6) 0.0347(3)
O5B O 0.2318(7) 0.1062(6) 0.0347(3)
O6A O -0.0567(6) 0.3398(6) 0.0293(3)
O6C O -0.3398(6) 0.9433(6) 0.0293(3)
O6B O 0.3398(6) 0.0567(6) 0.0293(3)
O7A O -0.0525(6) 0.3499(6) -0.1436(3)
O7C O -0.3499(6) 0.9475(6) -0.1436(3)
O7B O 0.3499(6) 0.0525(6) -0.1436(3)
O7B* O -0.6501(6) 1.0525(6) -0.1436(3)
O8A O -0.0981(6) 0.2325(6) -0.1509(3)
O8C O -0.2325(6) 0.9019(6) -0.1509(3)
O8B O 0.2325(6) 0.0981(6) -0.1509(3)
O9C O 0.5467(5) 0.8945(5) 0.0818(3)
O9A O -0.1055(5) 0.4533(5) 0.0818(3)
O9B O -0.5467(5) 0.1055(5) 0.0818(3)
O9C* O -0.4533(5) 0.8945(5) 0.0818(3)
O9B* O 0.4533(5) 0.1055(5) 0.0818(3)
O10C O 0.5737(7) 0.8127(6) 0.1278(4)
O10A O -0.1873(7) 0.4263(6) 0.1278(4)
O10B O -0.5737(7) 0.1873(6) 0.1278(4)
O10C* O -0.4263(7) 0.8127(6) 0.1278(4)
O10B* O 0.4263(7) 0.1873(6) 0.1278(4)
O11C O 0.2552(6) 0.7124(6) 0.1284(4)
O11A O -0.2876(6) 0.7448(6) 0.1284(4)
O11B O -0.2552(6) 0.2876(6) 0.1284(4)
O12C O 0.2131(7) 0.7986(7) 0.0894(4)
O12A O -0.2014(7) 0.7869(7) 0.0894(4)
O12B O -0.2131(7) 0.2014(7) 0.0894(4)
O13A O 0.2050(7) 0.2074(6) -0.2055(4)
O13B O 0.2074(7) 0.7950(6) -0.2055(4)
O13C O -0.2074(7) 0.2050(6) -0.2055(4)
O14A O 0.2987(6) 0.2535(6) -0.2414(3)
O14B O 0.2535(6) 0.7013(6) -0.2414(3)
O14C O -0.2535(6) 0.2987(6) -0.2414(3)
O15A O 0.1868(7) 0.5669(7) -0.2398(3)
O15B O 0.5669(7) 0.8132(7) -0.2398(3)
O15C O -0.5669(7) 0.1868(7) -0.2398(3)
O15B* O -0.4331(7) 0.8132(7) -0.2398(3)
O15C* O 0.4331(7) 0.1868(7) -0.2398(3)
O16A O 0.0946(7) 0.5426(6) -0.1953(4)
O16B O 0.5426(7) 0.9054(6) -0.1953(4)
O16C O -0.5426(7) 0.0946(6) -0.1953(4)
O16B* O -0.4574(7) 0.9054(6) -0.1953(4)
O16C* O 0.4574(7) 0.0946(6) -0.1953(4)
O16C** O -0.5426(7) 1.0946(6) -0.1953(4)
O17A O -0.1522(10) 0.5284(10) -0.0987(6)
O17C O -0.5284(10) 0.8478(10) -0.0987(6)
O17B O -0.4716(10) 1.1522(10) -0.0987(6)
O19A O -0.1491(11) -0.0154(12) 0.1539(6)
O19B O -0.0154(11) 0.1491(12) 0.1539(6)
O19C O 0.0154(11) -0.1491(12) 0.1539(6)
O20A O -0.0876(6) -0.0958(6) 0.0771(3)
O20B O -0.0958(6) 0.0876(6) 0.0771(3)
O20C O 0.0958(6) -0.0876(6) 0.0771(3)
O21A O 0.5392(10) 0.3625(10) 0.2306(6)
O21B O 0.3625(10) 0.4608(10) 0.2306(6)
O21C O 0.6375(10) 0.5392(10) 0.2306(6)
O22A O 0.6078(10) 0.4162(10) 0.3198(4)
O22B O 0.4162(10) 0.3922(10) 0.3198(4)
O22C O 0.5838(10) 0.6078(10) 0.3198(4)
C1A C -0.0252(10) 0.252(1) -0.0222(4)
C1C C -0.252(1) 0.9748(10) -0.0222(4)
C1B C 0.252(1) 0.0252(10) -0.0222(4)
C2A C -0.0807(6) 0.2575(6) -0.0594(5)
C2C C -0.2575(6) 0.9193(6) -0.0594(5)
C2B C 0.2575(6) 0.0807(6) -0.0594(5)
C3A C -0.0205(7) 0.2534(8) -0.0941(4)
C3C C -0.2534(7) 0.9795(8) -0.0941(4)
C3B C 0.2534(7) 0.0205(8) -0.0941(4)
H1A H -0.00410 0.20130 -0.09820
H1C H -0.20130 0.99590 -0.09820
H1B H 0.20130 0.00410 -0.09820
C4A C 0.0450(8) 0.3014(9) -0.0800(4)
C4C C -0.3014(8) 1.0450(9) -0.0800(4)
C4B C 0.3014(8) -0.0450(9) -0.0800(4)
H2A H 0.04000 0.35270 -0.08970
H2C H -0.35270 1.04000 -0.08970
H2B H 0.35270 -0.04000 -0.08970
H3A H 0.09240 0.28090 -0.08960
H3C H -0.28090 1.09240 -0.08960
H3B H 0.28090 -0.09240 -0.08960
C5A C 0.0421(11) 0.2994(11) -0.0340(5)
C5C C -0.2994(11) 1.0421(11) -0.0340(5)
C5B C 0.2994(11) -0.0421(11) -0.0340(5)
H4A H 0.08800 0.27750 -0.02330
H4C H -0.27750 1.08800 -0.02330
H4B H 0.27750 -0.08800 -0.02330
H5A H 0.03690 0.35000 -0.02340
H5C H -0.35000 1.03690 -0.02340
H5B H 0.35000 -0.03690 -0.02340
C6A C -0.0637(8) 0.2745(8) 0.0172(5)
C6C C -0.2745(8) 0.9363(8) 0.0172(5)
C6B C 0.2745(8) 0.0637(8) 0.0172(5)
C7A C -0.0550(8) 0.2832(9) -0.1309(4)
C7C C -0.2832(8) 0.9450(9) -0.1309(4)
C7B C 0.2832(8) 0.0550(9) -0.1309(4)
C8A C -0.0021(9) 0.1657(8) -0.0154(4)
C8C C -0.1657(9) 0.9979(8) -0.0154(4)
C8B C 0.1657(9) 0.0021(8) -0.0154(4)
H6A H -0.04040 0.14100 0.00000
H6C H -0.14100 0.95960 0.00000
H6B H 0.14100 0.04040 0.00000
H7A H 0.04490 0.16340 -0.00130
H7C H -0.16340 1.04490 -0.00130
H7B H 0.16340 -0.04490 -0.00130
H8A H 0.00300 0.14110 -0.04080
H8C H -0.14110 1.00300 -0.04080
H8B H 0.14110 -0.00300 -0.04080
C9A C -0.1382(8) 0.1929(8) -0.0620(5)
C9C C -0.1929(8) 0.8618(8) -0.0620(5)
C9B C 0.1929(8) 0.1382(8) -0.0620(5)
H9A H -0.17240 0.19600 -0.03980
H9C H -0.19600 0.82760 -0.03980
H9B H 0.19600 0.17240 -0.03980
H10A H -0.11220 0.14540 -0.06120
H10C H -0.14540 0.88780 -0.06120
H10B H 0.14540 0.11220 -0.06120
H11A H -0.16590 0.19680 -0.08660
H11C H -0.19680 0.83410 -0.08660
H11B H 0.19680 0.16590 -0.08660
C10A C -0.1197(7) 0.3285(7) -0.0548(7)
C10C C -0.3285(7) 0.8803(7) -0.0548(7)
C10B C 0.3285(7) 0.1197(7) -0.0548(7)
H12A H -0.14970 0.32720 -0.03090
H12C H -0.32720 0.85030 -0.03090
H12B H 0.32720 0.14970 -0.03090
H13A H -0.15170 0.33680 -0.07750
H13C H -0.33680 0.84830 -0.07750
H13B H 0.33680 0.15170 -0.07750
H14A H -0.08360 0.36860 -0.05290
H14C H -0.36860 0.91640 -0.05290
H14B H 0.36860 0.08360 -0.05290
C11C C 0.4493(8) 0.8655(7) 0.1310(4)
C11A C -0.1345(8) 0.5507(7) 0.1310(4)
C11B C -0.4493(8) 0.1345(7) 0.1310(4)
C12C C 0.3866(8) 0.8383(8) 0.1029(4)
C12A C -0.1617(8) 0.6134(8) 0.1029(4)
C12B C -0.3866(8) 0.1617(8) 0.1029(4)
C13C C 0.3221(7) 0.8305(8) 0.1323(4)
C13A C -0.1695(7) 0.6779(8) 0.1323(4)
C13B C -0.3221(7) 0.1695(8) 0.1323(4)
H15C H 0.30240 0.88210 0.13170
H15A H -0.11790 0.69760 0.13170
H15B H -0.30240 0.11790 0.13170
C14C C 0.3508(13) 0.8074(10) 0.1736(5)
C14A C -0.1926(13) 0.6492(10) 0.1736(5)
C14B C -0.3508(13) 0.1926(10) 0.1736(5)
H16C H 0.32940 0.83880 0.19450
H16A H -0.16120 0.67060 0.19450
H16B H -0.32940 0.16120 0.19450
H17C H 0.33940 0.75500 0.17930
H17A H -0.24500 0.66060 0.17930
H17B H -0.33940 0.24500 0.17930
C15C C 0.4372(11) 0.8203(11) 0.1697(4)
C15A C -0.1797(11) 0.5628(11) 0.1697(4)
C15B C -0.4372(11) 0.1797(11) 0.1697(4)
H18C H 0.46350 0.77240 0.16820
H18A H -0.22760 0.53650 0.16820
H18B H -0.46350 0.22760 0.16820
H19C H 0.45610 0.84810 0.19260
H19A H -0.15190 0.54390 0.19260
H19B H -0.45610 0.15190 0.19260
C16C C 0.5271(11) 0.8588(8) 0.1139(4)
C16A C -0.1412(11) 0.4729(8) 0.1139(4)
C16B C -0.5271(11) 0.1412(8) 0.1139(4)
C17C C 0.2613(9) 0.7752(8) 0.1163(5)
C17A C -0.2248(9) 0.7387(8) 0.1163(5)
C17B C -0.2613(9) 0.2248(8) 0.1163(5)
C18C C 0.4306(7) 0.9418(12) 0.1384(5)
C18A C -0.0582(7) 0.5694(12) 0.1384(5)
C18B C -0.4306(7) 0.0582(12) 0.1384(5)
H20C H 0.43840 0.97080 0.11460
H20A H -0.02920 0.56160 0.11460
H20B H -0.43840 0.02920 0.11460
H21C H 0.37860 0.94440 0.14610
H21A H -0.05560 0.62140 0.14610
H21B H -0.37860 0.05560 0.14610
H22C H 0.46140 0.96170 0.15960
H22A H -0.03830 0.53860 0.15960
H22B H -0.46140 0.03830 0.15960
C19C C 0.4075(8) 0.7589(9) 0.0897(6)
C19A C -0.2411(8) 0.5925(9) 0.0897(6)
C19B C -0.4075(8) 0.2411(9) 0.0897(6)
H23C H 0.42190 0.72970 0.11260
H23A H -0.27030 0.57810 0.11260
H23B H -0.42190 0.27030 0.11260
H24C H 0.44890 0.76130 0.07120
H24A H -0.23870 0.55110 0.07120
H24B H -0.44890 0.23870 0.07120
H25C H 0.36500 0.73580 0.07690
H25A H -0.26420 0.63500 0.07690
H25B H -0.36500 0.26420 0.07690
C20C C 0.3547(14) 0.8830(15) 0.0675(4)
C20A C -0.1170(14) 0.6453(15) 0.0675(4)
C20B C -0.3547(14) 0.1170(15) 0.0675(4)
H26C H 0.31720 0.85340 0.05410
H26A H -0.14660 0.68280 0.05410
H26B H -0.31720 0.14660 0.05410
H27C H 0.39460 0.89480 0.04920
H27A H -0.10520 0.60540 0.04920
H27B H -0.39460 0.10520 0.04920
H28C H 0.33240 0.92880 0.07710
H28A H -0.07120 0.66760 0.07710
H28B H -0.33240 0.07120 0.07710
C21A C 0.1776(9) 0.3132(10) -0.2465(5)
C21B C 0.3132(9) 0.8224(10) -0.2465(5)
C21C C -0.3132(9) 0.1776(10) -0.2465(5)
C22A C 0.1653(10) 0.3793(10) -0.2175(4)
C22B C 0.3793(10) 0.8347(10) -0.2175(4)
C22C C -0.3793(10) 0.1653(10) -0.2175(4)
C23A C 0.1264(7) 0.4438(8) -0.2424(4)
C23B C 0.4438(7) 0.8736(8) -0.2424(4)
C23C C -0.4438(7) 0.1264(8) -0.2424(4)
H29A H 0.07200 0.43470 -0.24130
H29B H 0.43470 0.92800 -0.24130
H29C H -0.43470 0.07200 -0.24130
C24A C 0.1511(9) 0.4271(11) -0.2849(5)
C24B C 0.4271(9) 0.8489(11) -0.2849(5)
C24C C -0.4271(9) 0.1511(11) -0.2849(5)
H30A H 0.17980 0.46910 -0.29560
H30B H 0.46910 0.82020 -0.29560
H30C H -0.46910 0.17980 -0.29560
H31A H 0.10750 0.41920 -0.30190
H31B H 0.41920 0.89250 -0.30190
H31C H -0.41920 0.10750 -0.30190
C25A C 0.2001(11) 0.3558(15) -0.2839(7)
C25B C 0.3558(11) 0.7999(15) -0.2839(7)
C25C C -0.3558(11) 0.2001(15) -0.2839(7)
H32A H 0.19110 0.32520 -0.30750
H32B H 0.32520 0.80890 -0.30750
H32C H -0.32520 0.19110 -0.30750
H33A H 0.25310 0.36900 -0.28300
H33B H 0.36900 0.74690 -0.28300
H33C H -0.36900 0.25310 -0.28300
C26A C 0.2293(10) 0.2552(11) -0.2302(5)
C26B C 0.2552(10) 0.7707(11) -0.2302(5)
C26C C -0.2552(10) 0.2293(11) -0.2302(5)
C27A C 0.1402(8) 0.5199(10) -0.2239(5)
C27B C 0.5199(8) 0.8598(10) -0.2239(5)
C27C C -0.5199(8) 0.1402(10) -0.2239(5)
C28A C 0.0994(15) 0.2761(14) -0.2573(8)
C28B C 0.2761(15) 0.9006(14) -0.2573(8)
C28C C -0.2761(15) 0.0994(14) -0.2573(8)
H34A H 0.07540 0.25870 -0.23330
H34B H 0.25870 0.92460 -0.23330
H34C H -0.25870 0.07540 -0.23330
H35A H 0.10740 0.23420 -0.27500
H35B H 0.23420 0.89260 -0.27500
H35C H -0.23420 0.10740 -0.27500
H36A H 0.06790 0.31270 -0.27020
H36B H 0.31270 0.93210 -0.27020
H36C H -0.31270 0.06790 -0.27020
C29A C 0.1182(12) 0.3614(12) -0.1812(5)
C29B C 0.3614(12) 0.8818(12) -0.1812(5)
C29C C -0.3614(12) 0.1182(12) -0.1812(5)
H37A H 0.13820 0.31770 -0.16800
H37B H 0.31770 0.86180 -0.16800
H37C H -0.31770 0.13820 -0.16800
H38A H 0.06720 0.35150 -0.18940
H38B H 0.35150 0.93280 -0.18940
H38C H -0.35150 0.06720 -0.18940
H39A H 0.11890 0.40340 -0.16320
H39B H 0.40340 0.88110 -0.16320
H39C H -0.40340 0.11890 -0.16320
C30A C 0.2432(12) 0.4072(10) -0.1963(8)
C30B C 0.4072(12) 0.7568(10) -0.1963(8)
C30C C -0.4072(12) 0.2432(10) -0.1963(8)
H40A H 0.23270 0.44930 -0.17910
H40B H 0.44930 0.76730 -0.17910
H40C H -0.44930 0.23270 -0.17910
H41A H 0.27860 0.42210 -0.21650
H41B H 0.42210 0.72140 -0.21650
H41C H -0.42210 0.27860 -0.21650
H42A H 0.26400 0.36670 -0.18080
H42B H 0.36670 0.73600 -0.18080
H42C H -0.36670 0.26400 -0.18080
#END
