
#######################################################################
#
#                 Cambridge Crystallographic Data Centre
#                                CCDC
#
#######################################################################
#
# If this CIF has been generated from an entry in the Cambridge
# Structural Database, then it will include bibliographic, chemical,
# crystal, experimental, refinement or atomic coordinate data resulting
# from the CCDC's data processing and validation procedures.
#
#######################################################################

data_CSD_CIF_MUPCUW
_audit_creation_date 2010-07-07
_audit_creation_method CSD-ConQuest-V1
_database_code_CSD MUPCUW
_database_code_depnum_ccdc_archive 'CCDC 685603'
_chemical_formula_sum 'C48 H48 Cu4 N8 O54 P3 W12'
_chemical_formula_moiety
;
(H3 O1 1+)2n,n(C48 H42 Cu4 N8 O52 P3 W12 2-)
;
_journal_coden_Cambridge 1147
_journal_volume 9
_journal_year 2009
_journal_page_first 4735
_journal_name_full 'Cryst.Growth Des. '
loop_
_publ_author_name
"Hongxun Yang"
"Shengping Guo"
"Jun Tao"
"Jingxiang Lin"
"Rong Cao"
_chemical_name_systematic
;
catena-(bis(oxonium) (\m~12~-phosphato)-bis(\m~4~-hydrogen 
phosphato)-hexacosakis(\m~2~-oxo)-tetraaqua-tetrakis(1,10-phenanthroline)-deca
oxo-tetra-copper-dodeca-tungsten)
;
_cell_volume   1904.668
_exptl_crystal_colour 'green'
_exptl_crystal_description 'prism'
_diffrn_ambient_temperature 293
_refine_special_details
;
The phosphate group is disordered by symmetry. The W atoms are mixed 
disordered with W:V occupancies 0.75:0.25, respectively. All the atoms are 
given as W atoms in the 2D diagram. The sum formula is (H3 O1 1+)2n,n(C48 H42 
Cu4 N8 O52 P3 V3 W9 2-).
;
#These two values have been output from a single CSD field.
_refine_ls_R_factor_gt 0.0813
_refine_ls_wR_factor_gt 0.0813
_symmetry_cell_setting triclinic
_symmetry_space_group_name_H-M 'P -1'
_symmetry_Int_Tables_number 2
loop_
_symmetry_equiv_pos_site_id
_symmetry_equiv_pos_as_xyz
1 x,y,z
2 -x,-y,-z
_cell_length_a 10.6710(6)
_cell_length_b 14.2402(2)
_cell_length_c 14.3715(1)
_cell_angle_alpha 61.139(5)
_cell_angle_beta 85.416(8)
_cell_angle_gamma 85.602(9)
_cell_formula_units_Z 1
loop_
_atom_type_symbol
_atom_type_radius_bond
C 0.68
H 0.23
Cu 1.53
N 0.68
O 0.80
P 1.05
V 1.53
W 1.31
loop_
_atom_site_label
_atom_site_type_symbol
_atom_site_fract_x
_atom_site_fract_y
_atom_site_fract_z
W1 W 0.95422(11) -0.21565(9) 0.26252(9)
W2 W 0.98091(11) 0.04938(9) 0.22024(9)
W3 W 1.24713(10) -0.09131(9) 0.17899(10)
W4 W 0.71113(10) -0.13212(9) 0.07767(9)
W5 W 0.72609(9) 0.12799(8) 0.05011(9)
W6 W 0.99010(11) -0.26614(8) 0.04319(9)
V1? V 0.95422(11) -0.21565(9) 0.26252(9)
V2? V 0.98091(11) 0.04938(9) 0.22024(9)
V3? V 1.24713(10) -0.09131(9) 0.17899(10)
V4? V 1.28887(10) 0.13212(9) -0.07767(9)
V5? V 0.72609(9) 0.12799(8) 0.05011(9)
V6? V 1.00990(11) 0.26614(8) -0.04319(9)
P1 P 1.00000 0.00000 0.00000
P2 P 0.6665(6) 0.0046(5) 0.4943(5)
Cu1 Cu 0.5292(3) 0.1524(2) 0.2814(3)
Cu2 Cu 0.5171(3) -0.1902(2) 0.5130(3)
N1 N 0.6408(19) -0.3218(16) 0.5832(16)
N2 N 0.403(2) -0.3030(16) 0.5291(16)
N3 N 0.628(2) 0.2816(16) 0.2395(17)
N4 N 0.3935(19) 0.2656(18) 0.2025(18)
C1 C 0.756(3) -0.328(3) 0.603(2)
H1 H 0.79100 -0.26450 0.58980
C2 C 0.213(3) -0.377(3) 0.520(2)
H2 H 0.13150 -0.36490 0.49610
C3 C 0.228(3) 0.440(3) 0.104(2)
H3 H 0.17310 0.49830 0.06780
C4 C 0.521(3) 0.571(3) 0.095(3)
H4 H 0.55030 0.63930 0.07140
C5 C 0.261(3) -0.478(2) 0.572(2)
H5 H 0.21260 -0.53530 0.58730
C6 C 0.805(3) 0.387(3) 0.221(3)
H6 H 0.88860 0.39050 0.23190
C7 C 0.406(3) 0.562(3) 0.077(3)
H7 H 0.35630 0.62370 0.03790
C8 C 0.453(4) -0.598(2) 0.660(2)
H8 H 0.41200 -0.66060 0.68020
C9 C 0.190(3) 0.339(3) 0.142(3)
H9 H 0.10760 0.32650 0.13600
C10 C 0.751(3) 0.284(3) 0.257(3)
H10 H 0.79930 0.22010 0.29190
C11 C 0.561(3) 0.374(2) 0.1898(19)
C12 C 0.432(3) 0.364(2) 0.1695(19)
C13 C 0.732(3) 0.478(3) 0.170(4)
H11 H 0.76620 0.54390 0.14600
C14 C 0.580(2) -0.4114(19) 0.6051(19)
C15 C 0.283(3) -0.292(2) 0.500(2)
H12 H 0.24600 -0.22270 0.46590
C16 C 0.575(3) -0.604(3) 0.682(3)
H13 H 0.61520 -0.67170 0.71440
C17 C 0.455(2) -0.4010(19) 0.5787(19)
C18 C 0.642(3) -0.518(2) 0.660(2)
C19 C 0.352(3) 0.455(2) 0.119(2)
C20 C 0.832(4) -0.415(3) 0.641(3)
H14 H 0.91850 -0.41280 0.64550
C21 C 0.770(4) -0.516(3) 0.676(2)
H15 H 0.81690 -0.58030 0.71000
C22 C 0.608(2) 0.475(2) 0.152(3)
C23 C 0.386(3) -0.496(2) 0.605(2)
C24 C 0.281(3) 0.251(3) 0.192(3)
H16 H 0.25670 0.18090 0.21800
O1 O 0.9685(17) 0.074(2) 0.3240(16)
O2 O 0.837(2) 0.248(2) -0.0213(18)
O3 O 0.4479(19) 0.0489(14) 0.2571(17)
H17? H 0.46580 0.08190 0.29000
O4 O 1.364(2) -0.1336(18) 0.2595(18)
O5 O 0.632(2) -0.1363(18) 0.3580(17)
H18? H 0.42880 0.17340 0.63830
H19 H 0.67560 -0.11900 0.30020
O6 O 1.024(2) 0.182(2) 0.1077(19)
O7 O 0.970(3) 0.153(2) 0.479(2)
H20 H 0.95740 0.11390 0.54610
H21 H 0.91880 0.20750 0.45720
H22 H 1.04490 0.17290 0.46520
O8 O 1.310(3) 0.0394(17) 0.0657(15)
O9 O 0.789(3) -0.193(2) 0.217(2)
O10 O 1.296(3) -0.1547(17) 0.0900(15)
O11 O 0.9843(18) -0.3897(15) 0.0618(19)
O12 O 0.578(2) -0.1958(19) 0.1165(18)
O13 O 0.813(2) 0.084(2) 0.1744(19)
O14 O 0.816(3) -0.233(2) 0.051(2)
O15 O 0.9333(18) -0.3155(17) 0.3850(15)
O16 O 0.598(2) 0.185(2) 0.0761(19)
O17 O 0.672(2) -0.011(2) 0.098(2)
O18 O 1.146(3) -0.001(3) 0.231(2)
O19 O 0.994(3) -0.290(3) 0.183(3)
O20 O 0.935(2) -0.0947(19) 0.286(3)
O21 O 1.131(3) -0.199(2) 0.254(2)
O22 O 0.939(3) -0.109(3) 0.062(2)
O23 O 0.858(3) 0.013(3) -0.007(3)
O24 O 1.035(2) -0.040(2) 0.122(2)
O25 O 0.946(3) 0.074(2) 0.044(2)
O26 O 0.8081(17) -0.0169(17) 0.5198(17)
H23 H 0.82140 -0.06320 0.49840
O27 O 0.6552(17) 0.0512(13) 0.3750(14)
O28 O 0.6081(16) -0.1054(14) 0.5578(14)
O29 O 0.6169(16) 0.0806(15) 0.5377(15)
W1A W 1.04578(11) 0.21565(9) -0.26252(9)
W2A W 1.01909(11) -0.04938(9) -0.22024(9)
W3A W 0.75287(10) 0.09131(9) -0.17899(10)
W4A W 1.28887(10) 0.13212(9) -0.07767(9)
W5A W 1.27391(9) -0.12799(8) -0.05011(9)
W6A W 1.00990(11) 0.26614(8) -0.04319(9)
P2A P 0.3335(6) -0.0046(5) 0.5057(5)
Cu1A Cu 1.4708(3) -0.1524(2) -0.2814(3)
Cu1A* Cu 0.4708(3) -0.1524(2) 0.7186(3)
Cu2A Cu 0.4829(3) 0.1902(2) 0.4870(3)
N1A N 0.3592(19) 0.3218(16) 0.4168(16)
N2A N 0.597(2) 0.3030(16) 0.4709(16)
N3A N 0.372(2) -0.2816(16) 0.7605(17)
N4A N 0.6065(19) -0.2656(18) 0.7975(18)
C1A C 0.244(3) 0.328(3) 0.397(2)
H1A H 0.20900 0.26450 0.41020
C2A C 0.787(3) 0.377(3) 0.480(2)
H2A H 0.86850 0.36490 0.50390
C3A C 0.772(3) -0.440(3) 0.896(2)
H3A H 0.82690 -0.49830 0.93220
C4A C 0.479(3) -0.571(3) 0.905(3)
H4A H 0.44970 -0.63930 0.92860
C5A C 0.739(3) 0.478(2) 0.428(2)
H5A H 0.78740 0.53530 0.41270
C6A C 0.195(3) -0.387(3) 0.779(3)
H6A H 0.11140 -0.39050 0.76810
C7A C 0.594(3) -0.562(3) 0.923(3)
H7A H 0.64370 -0.62370 0.96210
C8A C 0.547(4) 0.598(2) 0.340(2)
H8A H 0.58800 0.66060 0.31980
C9A C 0.810(3) -0.339(3) 0.858(3)
H9A H 0.89240 -0.32650 0.86400
C10A C 0.249(3) -0.284(3) 0.743(3)
H10A H 0.20070 -0.22010 0.70810
C11A C 0.439(3) -0.374(2) 0.8102(19)
C12A C 0.568(3) -0.364(2) 0.8305(19)
C13A C 0.268(3) -0.478(3) 0.830(4)
H11A H 0.23380 -0.54390 0.85400
C14A C 0.420(2) 0.4114(19) 0.3949(19)
C15A C 0.717(3) 0.292(2) 0.500(2)
H12A H 0.75400 0.22270 0.53410
C16A C 0.425(3) 0.604(3) 0.318(3)
H13A H 0.38480 0.67170 0.28560
C17A C 0.545(2) 0.4010(19) 0.4213(19)
C18A C 0.358(3) 0.518(2) 0.340(2)
C19A C 0.648(3) -0.455(2) 0.881(2)
C20A C 0.168(4) 0.415(3) 0.359(3)
H14A H 0.08150 0.41280 0.35450
C21A C 0.230(4) 0.516(3) 0.324(2)
H15A H 0.18310 0.58030 0.29000
C22A C 0.392(2) -0.475(2) 0.848(3)
C23A C 0.614(3) 0.496(2) 0.395(2)
C24A C 0.719(3) -0.251(3) 0.808(3)
H16A H 0.74330 -0.18090 0.78200
O1A O 1.0315(17) -0.074(2) -0.3240(16)
O2A O 1.163(2) -0.248(2) 0.0213(18)
O3A O 0.5521(19) -0.0489(14) 0.7429(17)
O4A O 0.636(2) 0.1336(18) -0.2595(18)
O5A O 0.368(2) 0.1363(18) 0.6420(17)
H19A H 0.32440 0.11900 0.69980
O6A O 0.976(2) -0.182(2) -0.1077(19)
O8A O 0.690(3) -0.0394(17) -0.0657(15)
O9A O 1.211(3) 0.193(2) -0.217(2)
O10A O 0.704(3) 0.1547(17) -0.0900(15)
O11A O 1.0157(18) 0.3897(15) -0.0618(19)
O12A O 1.422(2) 0.1958(19) -0.1165(18)
O13A O 1.187(2) -0.084(2) -0.1744(19)
O14A O 1.184(3) 0.233(2) -0.051(2)
O15A O 1.0667(18) 0.3155(17) -0.3850(15)
O16A O 1.402(2) -0.185(2) -0.0761(19)
O16A* O 0.402(2) -0.185(2) 0.9239(19)
O17A O 1.328(2) 0.011(2) -0.098(2)
O18A O 0.854(3) 0.001(3) -0.231(2)
O19A O 1.006(3) 0.290(3) -0.183(3)
O20A O 1.065(2) 0.0947(19) -0.286(3)
O21A O 0.869(3) 0.199(2) -0.254(2)
O22A O 1.061(3) 0.109(3) -0.062(2)
O23A O 1.142(3) -0.013(3) 0.007(3)
O24A O 0.965(2) 0.040(2) -0.122(2)
O25A O 1.054(3) -0.074(2) -0.044(2)
O26A O 0.1919(17) 0.0169(17) 0.4802(17)
H23A H 0.17860 0.06320 0.50160
O27A O 0.3448(17) -0.0512(13) 0.6250(14)
O28A O 0.3919(16) 0.1054(14) 0.4422(14)
O29A O 0.3831(16) -0.0806(15) 0.4623(15)
#END
