
#######################################################################
#
#                 Cambridge Crystallographic Data Centre
#                                CCDC
#
#######################################################################
#
# If this CIF has been generated from an entry in the Cambridge
# Structural Database, then it will include bibliographic, chemical,
# crystal, experimental, refinement or atomic coordinate data resulting
# from the CCDC's data processing and validation procedures.
#
#######################################################################

data_CSD_CIF_MUPKUF03
_audit_creation_date 2015-10-19
_audit_creation_method CSD-ConQuest-V1
_database_code_CSD MUPKUF03
_database_code_depnum_ccdc_archive 'CCDC 1420165'
_chemical_formula_sum 'C4 H9 Cd1 N3 O6'
_chemical_formula_moiety
;
(C3 H3 Cd1 O6 1-)n,n(C1 H6 N3 1+)
;
_journal_coden_Cambridge 222
_journal_volume 45
_journal_year 2016
_journal_page_first 4169
_journal_name_full 'Dalton Trans. '
loop_
_publ_author_name
"I.E.Collings"
"J.A.Hill"
"A.B.Cairns"
"R.I.Cooper"
"A.L.Thompson"
"J.E.Parker"
"C.C.Tang"
"A.L.Goodwin"
_chemical_name_systematic
;
catena-(Guanidinium tris(\m~2~-formato-O,O')-cadmium)
;
_cell_volume   1449.876
_exptl_crystal_colour 'colorless'
_exptl_crystal_density_diffrn 2.113
_exptl_crystal_description 'lath'
_diffrn_ambient_temperature 450
#These two values have been output from a single CSD field.
_refine_ls_R_factor_gt 0.0209
_refine_ls_wR_factor_gt 0.0209
_symmetry_cell_setting rhombohedral
_symmetry_space_group_name_H-M 'R -3 c'
_symmetry_Int_Tables_number 167
loop_
_symmetry_equiv_pos_site_id
_symmetry_equiv_pos_as_xyz
1 x,y,z
2 1/3+x,2/3+y,2/3+z
3 2/3+x,1/3+y,1/3+z
4 -y,x-y,z
5 1/3-y,2/3+x-y,2/3+z
6 2/3-y,1/3+x-y,1/3+z
7 -x+y,-x,z
8 1/3-x+y,2/3-x,2/3+z
9 2/3-x+y,1/3-x,1/3+z
10 x-y,-y,1/2-z
11 1/3+x-y,2/3-y,1/6-z
12 2/3+x-y,1/3-y,5/6-z
13 -x,-x+y,1/2-z
14 1/3-x,2/3-x+y,1/6-z
15 2/3-x,1/3-x+y,5/6-z
16 y,x,1/2-z
17 1/3+y,2/3+x,1/6-z
18 2/3+y,1/3+x,5/6-z
19 -x,-y,-z
20 -1/3-x,-2/3-y,-2/3-z
21 -2/3-x,-1/3-y,-1/3-z
22 y,-x+y,-z
23 -1/3+y,-2/3-x+y,-2/3-z
24 -2/3+y,-1/3-x+y,-1/3-z
25 x-y,x,-z
26 -1/3+x-y,-2/3+x,-2/3-z
27 -2/3+x-y,-1/3+x,-1/3-z
28 -x+y,y,-1/2+z
29 -1/3-x+y,-2/3+y,-1/6+z
30 -2/3-x+y,-1/3+y,-5/6+z
31 x,x-y,-1/2+z
32 -1/3+x,-2/3+x-y,-1/6+z
33 -2/3+x,-1/3+x-y,-5/6+z
34 -y,-x,-1/2+z
35 -1/3-y,-2/3-x,-1/6+z
36 -2/3-y,-1/3-x,-5/6+z
_cell_length_a 9.1803(4)
_cell_length_b 9.1803(4)
_cell_length_c 19.8649(9)
_cell_angle_alpha 90
_cell_angle_beta 90
_cell_angle_gamma 120
_cell_formula_units_Z 6
loop_
_atom_type_symbol
_atom_type_radius_bond
C 0.68
H 0.23
Cd 1.44
N 0.68
O 0.68
loop_
_atom_site_label
_atom_site_type_symbol
_atom_site_fract_x
_atom_site_fract_y
_atom_site_fract_z
Cd1 Cd 0.66670 0.33330 0.33330
O1 O 0.8832(3) 0.5404(3) 0.39387(13)
C1 C 0.8864(5) 0.66670 0.41670
H1 H 0.78180 0.66670 0.41670
C2 C 0.66670 0.33330 0.08330
N1 N 0.8096(5) 0.33330 0.08330
H2 H 0.80950 0.24040 0.08030
O1K O 1.009467(300) 0.792933(300) 0.439463(130)
O1T O 0.450133(300) 0.126267(300) 0.272797(130)
C1T C 0.446933(500) -0.00003 0.24997
H1T H 0.55153 -0.00003 0.24997
O1BA O 0.323867(300) -0.126267(300) 0.227203(130)
O1C O 0.4596(3) 0.3428(3) 0.39387(13)
C1C C 0.3333(5) 0.21970 0.41670
H1C H 0.33330 0.11510 0.41670
O1Q O 0.207067(300) 0.216533(300) 0.439463(130)
Cd1I Cd 0.33340 -0.33330 0.16670
Cd1CA Cd -0.00007 -0.00003 0.49997
Cd1CA* Cd 0.99993 0.99997 0.49997
O1W O 0.873733(300) 0.323867(300) 0.272797(130)
O1F O 0.6572(3) 0.1168(3) 0.39387(13)
O1Z O 0.676133(300) 0.549867(300) 0.272797(130)
N1C N 0.6667(5) 0.47630 0.08330
H2C H 0.75960 0.56910 0.08030
N1F N 0.5237(5) 0.19040 0.08330
H2F H 0.43090 0.19050 0.08030
H2J H 0.90243 0.42627 0.08637
H2M H 0.52383 0.09757 0.08637
H2P H 0.57373 0.47617 0.08637
#END
