
#######################################################################
#
#                 Cambridge Crystallographic Data Centre
#                                CCDC
#
#######################################################################
#
# If this CIF has been generated from an entry in the Cambridge
# Structural Database, then it will include bibliographic, chemical,
# crystal, experimental, refinement or atomic coordinate data resulting
# from the CCDC's data processing and validation procedures.
#
#######################################################################

data_CSD_CIF_MUQPUM
_audit_creation_date 2020-08-11
_audit_creation_method CSD-ConQuest-V1
_database_code_CSD MUQPUM
_database_code_depnum_ccdc_archive 'CCDC 1975280'
_chemical_formula_sum 'C12 H27 Cr1 Cu1 Mo6 N6 O30'
_chemical_formula_moiety
;
(C12 H18 Cr1 Cu1 Mo6 N6 O26 1-)n,3(H2 O1),H3 O1 1+
;
_journal_coden_Cambridge 155
_journal_volume 513
_journal_year 2020
_journal_page_first 119937
_journal_name_full 'Inorg.Chim.Acta '
loop_
_publ_author_name
"Zi-Wei Cui"
"Xiu-Li Wang"
"Hong-Yan Lin"
"Na Xu"
"Xiang Wang"
"Guo-Cheng Liu"
"Zhi-Han Chang"
_chemical_name_systematic
;
catena-[oxonium 
(\m-N,N'-(ethane-1,2-diyl)bis(pyrazine-2-carboxamide))-octakis(\m-oxo)-hexakis
(\m-hydroxido)-decaoxo-chromium-copper(ii)-hexa-molybdenum trihydrate]
;
_cell_volume    858.393
_exptl_crystal_colour 'blue'
_exptl_crystal_density_diffrn 2.746
_exptl_special_details
;
The authors added an extra proton for charge balancing

;
_exptl_crystal_description 'block'
_diffrn_ambient_temperature 296.1
#These two values have been output from a single CSD field.
_refine_ls_R_factor_gt 0.0225
_refine_ls_wR_factor_gt 0.0225
_symmetry_cell_setting triclinic
_symmetry_space_group_name_H-M 'P -1'
_symmetry_Int_Tables_number 2
loop_
_symmetry_equiv_pos_site_id
_symmetry_equiv_pos_as_xyz
1 x,y,z
2 -x,-y,-z
_cell_length_a 7.9084(5)
_cell_length_b 9.1378(6)
_cell_length_c 12.6858(8)
_cell_angle_alpha 103.652(1)
_cell_angle_beta 94.482(1)
_cell_angle_gamma 103.303(1)
_cell_formula_units_Z 1
loop_
_atom_type_symbol
_atom_type_radius_bond
C 0.68
H 0.23
Cr 1.39
Cu 1.32
Mo 1.54
N 0.68
O 0.68
loop_
_atom_site_label
_atom_site_type_symbol
_atom_site_fract_x
_atom_site_fract_y
_atom_site_fract_z
Mo1 Mo 0.50225(3) 0.12666(3) 0.77068(2)
Mo2 Mo 0.72947(3) -0.12529(3) 0.67702(2)
Mo3 Mo 0.73460(3) -0.25119(3) 0.40929(2)
Cu1 Cu 0.50000 0.50000 1.00000
Cr1 Cr 0.50000 0.00000 0.50000
O1 O 0.5360(2) 0.0865(2) 0.37229(14)
O2 O 0.4708(2) -0.2005(2) 0.38962(14)
O3 O 0.7283(2) 0.0850(2) 0.76020(15)
O4 O 0.6787(3) 0.6838(2) 0.99118(16)
O5 O 0.6679(3) -0.2935(2) 0.54404(15)
O6 O 0.7321(3) -0.1321(2) 0.29698(16)
O7 O 0.7425(2) -0.0158(2) 0.53021(15)
O8 O 0.9591(3) -0.2149(3) 0.43199(18)
O9 O 0.4202(3) 0.0198(3) 0.85598(17)
O10 O 0.5712(3) 0.3166(2) 0.84689(16)
O11 O 0.9527(3) -0.0970(3) 0.69851(19)
O12 O 0.6622(3) -0.4341(2) 0.32772(17)
O13 O 0.6499(3) -0.2288(3) 0.76439(17)
N1 N 0.6973(3) 0.4639(3) 1.08448(18)
N2 N 0.9489(3) 0.8363(3) 1.0666(2)
H1 H 1.04821 0.84545 1.10390
N3 N 0.9982(4) 0.4522(3) 1.2030(2)
C1 C 0.8215(4) 0.7080(3) 1.0514(2)
C2 C 0.7007(4) 0.3424(3) 1.1226(2)
H2 H 0.60052 0.26047 1.11007
C3 C 0.8447(4) 0.5822(3) 1.1037(2)
C4 C 0.9937(4) 0.5752(4) 1.1647(3)
H3 H 1.09316 0.65828 1.17932
C5 C 0.8535(4) 0.3362(4) 1.1814(3)
H4 H 0.85451 0.24844 1.20623
C6 C 0.9217(5) 0.9628(5) 1.0203(4)
H5 H 0.82512 0.92164 0.96063
H6 H 0.88953 1.04029 1.07608
O14 O 0.2442(3) -0.4582(3) 0.3921(2)
H7 H 0.32652 -0.38180 0.38867
H8 H 0.29618 -0.52540 0.40450
O15 O 0.8285(3) 0.3058(3) 0.4065(2)
H9 H 0.73321 0.23425 0.38862
H10 H 0.82035 0.35901 0.46973
O4A O 1.3213(3) 1.3162(2) 1.00882(16)
N1A N 1.3027(3) 1.5361(3) 0.91552(18)
N2A N 1.0511(3) 1.1637(3) 0.9334(2)
H1A H 0.95179 1.15455 0.89610
N3A N 1.0018(4) 1.5478(3) 0.7970(2)
C1A C 1.1785(4) 1.2920(3) 0.9486(2)
C2A C 1.2993(4) 1.6576(3) 0.8774(2)
H2A H 1.39948 1.73953 0.88993
C3A C 1.1553(4) 1.4178(3) 0.8963(2)
C4A C 1.0063(4) 1.4248(4) 0.8353(3)
H3A H 0.90684 1.34172 0.82068
C5A C 1.1465(4) 1.6638(4) 0.8186(3)
H4A H 1.14549 1.75156 0.79377
C6A C 1.0783(5) 1.0372(5) 0.9797(4)
H5A H 1.17488 1.07836 1.03937
H6A H 1.11047 0.95971 0.92392
Mo1A Mo 0.49775(3) -0.12666(3) 0.22932(2)
Mo2A Mo 0.27053(3) 0.12529(3) 0.32298(2)
Mo3A Mo 0.26540(3) 0.25119(3) 0.59071(2)
O1A O 0.4640(2) -0.0865(2) 0.62771(14)
O2A O 0.5292(2) 0.2005(2) 0.61038(14)
O3A O 0.2717(2) -0.0850(2) 0.23980(15)
O5A O 0.3321(3) 0.2935(2) 0.45596(15)
O6A O 0.2679(3) 0.1321(2) 0.70302(16)
O7A O 0.2575(2) 0.0158(2) 0.46979(15)
O8A O 0.0409(3) 0.2149(3) 0.56801(18)
O9A O 0.5798(3) -0.0198(3) 0.14402(17)
O10A O 0.4288(3) -0.3166(2) 0.15311(16)
O11A O 0.0473(3) 0.0970(3) 0.30149(19)
O12A O 0.3378(3) 0.4341(2) 0.67228(17)
O13A O 0.3501(3) 0.2288(3) 0.23561(17)
Cu1* Cu 0.50000 -0.50000 0.00000
Cu1** Cu 1.50000 1.50000 1.00000
O4A* O 0.3213(3) 0.3162(2) 1.00882(16)
O10A* O 0.4288(3) 0.6834(2) 1.15311(16)
N1A* N 0.3027(3) 0.5361(3) 0.91552(18)
#END
