
#######################################################################
#
#                 Cambridge Crystallographic Data Centre
#                                CCDC
#
#######################################################################
#
# If this CIF has been generated from an entry in the Cambridge
# Structural Database, then it will include bibliographic, chemical,
# crystal, experimental, refinement or atomic coordinate data resulting
# from the CCDC's data processing and validation procedures.
#
#######################################################################

data_CSD_CIF_MUQTAU
_audit_creation_date 2010-11-04
_audit_creation_method CSD-ConQuest-V1
_database_code_CSD MUQTAU
_database_code_depnum_ccdc_archive 'CCDC 754608'
_chemical_formula_sum 'C50 H42 Mn2 N10 O62 P2 W18'
_chemical_formula_moiety
;
(C20 H18 Mn1 N4 O62 P2 W18 2-)n,n(C30 H24 Mn1 N6 2+)
;
_journal_coden_Cambridge 211
_journal_volume 63
_journal_year 2010
_journal_page_first 1844
_journal_name_full 'J.Coord.Chem. '
loop_
_publ_author_name
"Qiang Wu"
"Xiao Fu"
"Junwei Zhao"
"Suzhi Li"
"Jingping Wang"
"Jingyang Niu"
_chemical_name_systematic
;
catena-(bis(\m~9~-phosphato)-bis(\m~2~-hydroxo)-hexatriacontakis(\m~2~-oxo)-bi
s(2,2'-bipyridine)-hexadecaoxo-manganese-octadeca-tungsten 
tris(2,2'-bipyridine)-manganese)
;
_cell_volume  10698.652
_exptl_crystal_colour 'orange'
_exptl_crystal_density_diffrn 3.261
_exptl_crystal_description 'block'
_diffrn_ambient_temperature 296
#These two values have been output from a single CSD field.
_refine_ls_R_factor_gt 0.0728
_refine_ls_wR_factor_gt 0.0728
_symmetry_cell_setting monoclinic
_symmetry_space_group_name_H-M 'P 21/n'
_symmetry_Int_Tables_number 14
loop_
_symmetry_equiv_pos_site_id
_symmetry_equiv_pos_as_xyz
1 x,y,z
2 1/2-x,1/2+y,1/2-z
3 -x,-y,-z
4 -1/2+x,-1/2-y,-1/2+z
_cell_length_a 16.1328(14)
_cell_length_b 21.1721(18)
_cell_length_c 31.700(3)
_cell_angle_alpha 90
_cell_angle_beta 98.852(2)
_cell_angle_gamma 90
_cell_formula_units_Z 4
loop_
_atom_type_symbol
_atom_type_radius_bond
C 0.68
H 0.23
Mn 1.61
N 0.68
O 0.68
P 1.05
W 1.36
loop_
_atom_site_label
_atom_site_type_symbol
_atom_site_fract_x
_atom_site_fract_y
_atom_site_fract_z
W1 W 1.65773(5) 0.36837(5) 0.24816(3)
W2 W 1.70272(5) 0.21566(5) 0.23013(3)
W3 W 1.72925(5) 0.32685(4) 0.15749(3)
W4 W 1.54351(5) 0.39928(4) 0.09123(3)
W5 W 1.47636(5) 0.44375(4) 0.18201(3)
W6 W 1.44001(5) 0.32605(5) 0.26182(3)
W7 W 1.48757(5) 0.17405(4) 0.24681(3)
W8 W 1.56321(5) 0.12402(4) 0.14843(3)
W9 W 1.59546(5) 0.23291(4) 0.07588(3)
W10 W 1.37466(5) 0.20728(5) 0.02099(3)
W11 W 1.32293(5) 0.37365(5) 0.03686(3)
W12 W 1.25567(5) 0.41678(4) 0.12804(3)
W13 W 1.22056(5) 0.29654(4) 0.20727(3)
W14 W 1.26772(5) 0.14527(4) 0.19148(3)
W15 W 1.34329(6) 0.09712(4) 0.09291(3)
W16 W 1.12313(5) 0.14955(5) 0.08869(3)
W17 W 1.15197(5) 0.25728(5) 0.01416(3)
W18 W 1.07956(5) 0.30396(4) 0.10356(3)
P1 P 1.5237(3) 0.2838(2) 0.16886(14)
P2 P 1.2913(3) 0.2568(2) 0.11152(15)
Mn1 Mn 0.1525(2) 0.29954(17) 0.39576(11)
Mn2 Mn 0.9064(2) 0.42073(17) 0.12055(11)
O1 O 1.7044(9) 0.4176(8) 0.2866(5)
O2 O 1.7759(10) 0.1705(8) 0.2588(5)
O3 O 1.8210(8) 0.3514(7) 0.1388(4)
O4 O 1.5847(10) 0.4450(8) 0.0563(5)
O5 O 1.4680(9) 0.5179(8) 0.2018(5)
O6 O 1.4198(10) 0.3620(8) 0.3074(5)
O7 O 1.4956(9) 0.1154(8) 0.2838(4)
O8 O 1.5999(10) 0.0503(8) 0.1534(5)
O9 O 1.6496(10) 0.2237(9) 0.0345(5)
O10 O 1.3901(9) 0.1967(9) -0.0304(5)
O11 O 1.3261(10) 0.4139(8) -0.0076(5)
O12 O 1.2086(9) 0.4856(7) 0.1374(5)
O13 O 1.1658(9) 0.3262(8) 0.2439(5)
O14 O 1.2417(9) 0.0794(7) 0.2184(5)
O15 O 1.3412(11) 0.0178(10) 0.0867(5)
O16 O 1.0564(10) 0.0863(7) 0.0839(5)
O17 O 1.1036(11) 0.2645(9) -0.0374(5)
O18 O 0.9859(9) 0.3389(7) 0.1090(5)
O19 O 1.6175(8) 0.2938(7) 0.1912(4)
O20 O 1.1982(8) 0.2458(7) 0.0885(4)
O21 O 1.4740(8) 0.2637(7) 0.2035(4)
O22 O 1.4945(8) 0.3464(7) 0.1482(4)
O23 O 1.5283(9) 0.2318(7) 0.1368(4)
O24 O 1.2907(9) 0.2423(7) 0.1580(4)
O25 O 1.3148(7) 0.3246(7) 0.1036(4)
O26 O 1.3462(7) 0.2105(7) 0.0912(4)
O27 O 1.7101(9) 0.2918(7) 0.2641(5)
O28 O 1.7363(8) 0.3779(8) 0.2077(5)
O29 O 1.7700(8) 0.2574(7) 0.1943(4)
O30 O 1.5830(9) 0.4223(7) 0.2111(4)
O31 O 1.6518(8) 0.3800(8) 0.1282(5)
O32 O 1.6852(8) 0.2646(7) 0.1158(4)
O33 O 1.6598(8) 0.1630(7) 0.1852(4)
O34 O 1.6049(8) 0.1950(6) 0.2538(4)
O35 O 1.5610(7) 0.3409(6) 0.2685(4)
O36 O 1.5228(8) 0.4636(7) 0.1315(5)
O37 O 1.4317(9) 0.3947(7) 0.2224(4)
O38 O 1.4651(8) 0.2423(8) 0.2820(4)
O39 O 1.5087(8) 0.1322(7) 0.1965(4)
O40 O 1.6122(8) 0.1523(7) 0.1005(4)
O41 O 1.5579(8) 0.3174(7) 0.0700(4)
O42 O 1.4309(8) 0.3987(7) 0.0659(4)
O43 O 1.4883(8) 0.2072(7) 0.0483(4)
O44 O 1.4604(8) 0.1084(7) 0.1134(4)
O45 O 1.3711(9) 0.1653(7) 0.2256(4)
O46 O 1.3315(8) 0.2997(7) 0.2403(5)
O47 O 1.3670(8) 0.4398(7) 0.1482(5)
O48 O 1.3244(8) 0.1089(7) 0.1508(4)
O49 O 1.2130(9) 0.2099(8) 0.2190(5)
O50 O 1.2497(8) 0.3698(7) 0.1774(5)
O51 O 1.2711(9) 0.4330(7) 0.0713(5)
O52 O 1.3737(8) 0.2989(7) 0.0259(4)
O53 O 1.3612(9) 0.1219(7) 0.0372(5)
O54 O 1.2526(8) 0.2175(7) 0.0082(4)
O55 O 1.2174(8) 0.3316(7) 0.0200(5)
O56 O 1.1504(9) 0.3742(7) 0.1049(4)
O57 O 1.1270(8) 0.2889(8) 0.1603(4)
O58 O 1.1706(8) 0.1455(7) 0.1467(4)
O59 O 1.2244(9) 0.1129(7) 0.0772(4)
O60 O 1.0730(8) 0.2984(7) 0.0428(4)
O61 O 1.0488(8) 0.2188(8) 0.0995(5)
O62 O 1.1075(9) 0.1806(7) 0.0303(5)
N1 N 0.2368(13) 0.3746(10) 0.3758(6)
N2 N 0.2649(14) 0.3036(12) 0.4463(8)
N3 N 0.0677(14) 0.3619(10) 0.4236(7)
N4 N 0.0443(14) 0.3215(13) 0.3447(7)
N5 N 0.0923(10) 0.2104(8) 0.4165(6)
N6 N 0.1989(11) 0.2187(10) 0.3617(7)
N7 N 0.9683(11) 0.4976(10) 0.0862(6)
N8 N 0.8357(13) 0.4250(11) 0.0545(7)
N9 N 0.9661(13) 0.4484(10) 0.1845(7)
N10 N 0.8186(14) 0.489(1) 0.1476(8)
C1 C 0.219(2) 0.4074(15) 0.341(1)
H1 H 0.17420 0.39400 0.32100
C2 C 0.257(2) 0.4549(15) 0.3328(11)
H2 H 0.24050 0.47730 0.30760
C3 C 0.3249(19) 0.4744(14) 0.3621(11)
H3 H 0.35550 0.51000 0.35670
C4 C 0.3457(17) 0.4422(14) 0.3973(9)
H4 H 0.39020 0.45510 0.41770
C5 C 0.3014(14) 0.3898(11) 0.4037(7)
C6 C 0.3212(17) 0.3490(15) 0.4424(9)
C7 C 0.3952(15) 0.3529(18) 0.4694(9)
H5 H 0.43520 0.38400 0.46710
C8 C 0.406(2) 0.307(2) 0.5001(13)
H6 H 0.45630 0.30440 0.51840
C9 C 0.351(3) 0.271(3) 0.5039(12)
H7 H 0.35970 0.24740 0.52900
C10 C 0.278(2) 0.2582(15) 0.4766(10)
H8 H 0.24240 0.22390 0.47890
C11 C 0.083(2) 0.3782(18) 0.4661(11)
H9 H 0.12990 0.36120 0.48330
C12 C 0.030(2) 0.4208(17) 0.4842(11)
H10 H 0.03970 0.43330 0.51260
C13 C -0.039(2) 0.442(2) 0.4556(13)
H11 H -0.07600 0.46890 0.46680
C14 C -0.059(2) 0.4281(17) 0.4127(11)
H12 H -0.10520 0.44400 0.39440
C15 C 0.0009(17) 0.3858(14) 0.4013(10)
C16 C -0.0117(17) 0.3631(14) 0.3560(9)
C17 C -0.080(2) 0.379(2) 0.3252(16)
H13 H -0.11970 0.40610 0.33400
C18 C -0.096(3) 0.359(3) 0.2847(14)
H14 H -0.14060 0.37260 0.26460
C19 C -0.035(3) 0.317(2) 0.2772(13)
H15 H -0.04210 0.29800 0.25030
C20 C 0.0330(18) 0.2995(16) 0.3040(9)
H16 H 0.07240 0.27270 0.29500
C21 C 0.0403(13) 0.2094(12) 0.4448(7)
H17 H 0.03040 0.24700 0.45840
C22 C -0.0010(17) 0.1544(13) 0.4557(9)
H18 H -0.03450 0.15410 0.47710
C23 C 0.0115(17) 0.1015(15) 0.4327(8)
H19 H -0.01660 0.06440 0.43730
C24 C 0.0627(16) 0.1024(12) 0.4041(9)
H20 H 0.06950 0.06590 0.38870
C25 C 0.1077(14) 0.1578(11) 0.3961(7)
C26 C 0.1692(13) 0.1608(11) 0.3665(7)
C27 C 0.1932(14) 0.1107(11) 0.3452(7)
H21 H 0.16870 0.07120 0.34710
C28 C 0.2553(17) 0.1196(13) 0.3204(8)
H22 H 0.27410 0.08510 0.30650
C29 C 0.2884(17) 0.1746(16) 0.3159(8)
H23 H 0.33110 0.17900 0.29950
C30 C 0.2594(15) 0.2269(14) 0.3358(8)
H24 H 0.28060 0.26690 0.33180
C31 C 1.0310(18) 0.5363(14) 0.1056(9)
H25 H 1.05740 0.52780 0.13320
C32 C 1.055(2) 0.589(2) 0.0834(12)
H26 H 1.10110 0.61230 0.09550
C33 C 1.0126(17) 0.6060(14) 0.0441(9)
H27 H 1.02590 0.64240 0.03020
C34 C 0.9463(18) 0.5643(16) 0.0261(9)
H28 H 0.91560 0.57280 -0.00060
C35 C 0.9285(14) 0.5124(12) 0.0480(8)
C36 C 0.8616(16) 0.4668(14) 0.0290(8)
C37 C 0.825(2) 0.4776(17) -0.0151(10)
C38 C 0.757(3) 0.430(2) -0.0278(13)
H29 H 0.73620 0.42640 -0.05680
C39 C 0.726(2) 0.395(2) -0.0025(12)
H30 H 0.67380 0.37720 -0.01110
C40 C 0.7704(16) 0.3827(14) 0.0402(9)
C41 C 1.048(2) 0.4361(17) 0.1994(11)
H31 H 1.08250 0.41740 0.18210
C42 C 1.080(3) 0.454(2) 0.2449(12)
H32 H 1.13360 0.44260 0.25750
C43 C 1.032(3) 0.484(2) 0.2655(17)
H33 H 1.05260 0.49660 0.29320
C44 C 0.953(3) 0.4995(16) 0.2501(11)
H34 H 0.92000 0.52090 0.26700
C45 C 0.9217(17) 0.4837(14) 0.2094(9)
C46 C 0.8394(16) 0.5020(13) 0.1894(9)
C47 C 0.779(2) 0.5315(17) 0.2110(11)
H35 H 0.78990 0.54110 0.24000
C48 C 0.703(2) 0.5452(19) 0.1858(12)
H36 H 0.65990 0.55800 0.20040
C49 C 0.684(3) 0.542(2) 0.1449(15)
H37 H 0.63550 0.56070 0.13040
C50 C 0.7423(17) 0.5090(14) 0.1228(10)
H38 H 0.73040 0.50100 0.09370
Mn2* Mn 1.9064(2) 0.42073(17) 0.12055(11)
O3* O 0.8210(8) 0.3514(7) 0.1388(4)
#END
