
#######################################################################
#
#                 Cambridge Crystallographic Data Centre
#                                CCDC
#
#######################################################################
#
# If this CIF has been generated from an entry in the Cambridge
# Structural Database, then it will include bibliographic, chemical,
# crystal, experimental, refinement or atomic coordinate data resulting
# from the CCDC's data processing and validation procedures.
#
#######################################################################

data_CSD_CIF_MUQYEE
_audit_creation_date 2015-10-20
_audit_creation_method CSD-ConQuest-V1
_database_code_CSD MUQYEE
_database_code_depnum_ccdc_archive 'CCDC 1039033'
_chemical_formula_sum 'C23.34 H34.01 In1 N1.67 O13'
_chemical_formula_moiety
;
(C16 H6 In1 O8 1-)n,n(C2 H8 N1 1+),1.33n(C2 H6 O1),3n(H2 O1),0.67n(C4 H9 N1 
O1)
;
_journal_coden_Cambridge 1350
_journal_volume 17
_journal_year 2015
_journal_page_first 8512
_journal_name_full 'CrystEngComm '
loop_
_publ_author_name
"Jinjie Qian"
"Panpan Yu"
"Kongzhao Su"
"Youqing Dong"
"Shaoming Huang"
"Maochun Hong"
_chemical_name_systematic
;
catena-(Dimethylammonium (\m~4~-biphenyl-3,3',5,5'-tetracarboxylato)-indium 
dimethylacetamide ethanol solvate trihydrate)
;
_chemical_name_common
;
InOF-12
;
_cell_volume   1822.424
_exptl_crystal_density_diffrn 0.804
_exptl_crystal_description 'prism'
_diffrn_ambient_temperature 173
_refine_special_details
;
The SQUEEZE/PLATON program has been used to model some disorder.

;
#These two values have been output from a single CSD field.
_refine_ls_R_factor_gt 0.0682
_refine_ls_wR_factor_gt 0.0682
_symmetry_cell_setting tetragonal
_symmetry_space_group_name_H-M 'P 42/m m c'
_symmetry_Int_Tables_number 131
loop_
_symmetry_equiv_pos_site_id
_symmetry_equiv_pos_as_xyz
1 x,y,z
2 -y,x,1/2+z
3 -x,-y,z
4 y,-x,1/2+z
5 x,-y,-z
6 -x,y,-z
7 y,x,1/2-z
8 -y,-x,1/2-z
9 -x,-y,-z
10 y,-x,-1/2-z
11 x,y,-z
12 -y,x,-1/2-z
13 -x,y,z
14 x,-y,z
15 -y,-x,-1/2+z
16 y,x,-1/2+z
_cell_length_a 9.9843(6)
_cell_length_b 9.9843(6)
_cell_length_c 18.2816(18)
_cell_angle_alpha 90
_cell_angle_beta 90
_cell_angle_gamma 90
_cell_formula_units_Z 2
loop_
_atom_type_symbol
_atom_type_radius_bond
C 0.68
H 0.23
In 1.42
O 0.68
loop_
_atom_site_label
_atom_site_type_symbol
_atom_site_fract_x
_atom_site_fract_y
_atom_site_fract_z
In1 In 0.50000 0.50000 0.25000
O1 O 0.3578(3) 0.50000 0.15746(19)
C1 C 0.00000 0.50000 0.1934(3)
H1 H 0.00000 0.50000 0.24540
C2 C 0.1200(4) 0.50000 0.1571(2)
C3 C 0.00000 0.50000 0.0408(3)
C4 C 0.2511(6) 0.50000 0.1965(4)
C5 C 0.1203(4) 0.50000 0.0794(3)
H2 H 0.20300 0.50000 0.05360
O2 O 0.2597(7) 0.50000 0.2631(3)
O1B O -0.3578(3) 0.50000 0.15746(19)
C2B C -0.1200(4) 0.50000 0.1571(2)
C4B C -0.2511(6) 0.50000 0.1965(4)
C5B C -0.1203(4) 0.50000 0.0794(3)
H2B H -0.20300 0.50000 0.05360
O2B O -0.2597(7) 0.50000 0.2631(3)
O1D O 0.3578(3) 0.50000 -0.15746(19)
C1D C 0.00000 0.50000 -0.1934(3)
H1D H 0.00000 0.50000 -0.24540
C2D C 0.1200(4) 0.50000 -0.1571(2)
C3D C 0.00000 0.50000 -0.0408(3)
C4D C 0.2511(6) 0.50000 -0.1965(4)
C5D C 0.1203(4) 0.50000 -0.0794(3)
H2D H 0.20300 0.50000 -0.05360
O2D O 0.2597(7) 0.50000 -0.2631(3)
O1E O -0.3578(3) 0.50000 -0.15746(19)
C2E C -0.1200(4) 0.50000 -0.1571(2)
C4E C -0.2511(6) 0.50000 -0.1965(4)
C5E C -0.1203(4) 0.50000 -0.0794(3)
H2E H -0.20300 0.50000 -0.05360
O2E O -0.2597(7) 0.50000 -0.2631(3)
In1* In -0.50000 0.50000 0.25000
In1A In -0.50000 0.50000 -0.25000
In1A* In 0.50000 0.50000 -0.25000
O1B* O 0.6422(3) 0.50000 0.15746(19)
O1F O 0.5000(3) 0.35780 0.34254(19)
O1G O 0.5000(3) 0.64220 0.34254(19)
O2B* O 0.7403(7) 0.50000 0.2631(3)
O2F O 0.5000(7) 0.25970 0.2369(3)
O2G O 0.5000(7) 0.74030 0.2369(3)
#END
