
#######################################################################
#
#                 Cambridge Crystallographic Data Centre
#                                CCDC
#
#######################################################################
#
# If this CIF has been generated from an entry in the Cambridge
# Structural Database, then it will include bibliographic, chemical,
# crystal, experimental, refinement or atomic coordinate data resulting
# from the CCDC's data processing and validation procedures.
#
#######################################################################

data_CSD_CIF_MURBEI
_audit_creation_date 2015-10-20
_audit_creation_method CSD-ConQuest-V1
_database_code_CSD MURBEI
_database_code_depnum_ccdc_archive 'CCDC 1039034'
_chemical_formula_sum 'C47.35 H57.37 In2 N4.67 O22.67'
_chemical_formula_moiety
;
(C32 H12 In2 O16 2-)n,2n(C6 H13 N2 1+),0.67n(C5 H11 N1 O1),6n(H2 O1)
;
_journal_coden_Cambridge 1350
_journal_volume 17
_journal_year 2015
_journal_page_first 8512
_journal_name_full 'CrystEngComm '
loop_
_publ_author_name
"Jinjie Qian"
"Panpan Yu"
"Kongzhao Su"
"Youqing Dong"
"Shaoming Huang"
"Maochun Hong"
_chemical_name_systematic
;
catena-[bis(4-aza-1-azoniabicyclo[2.2.2]octane) 
bis(\m-biphenyl-3,3',5,5'-tetracarboxylato)-di-indium N,N-diethylformamide 
solvate hexahydrate]
;
_chemical_name_common
;
InOF-13
;
_cell_volume   3354.177
_exptl_crystal_colour 'colorless'
_exptl_crystal_description 'bulk'
_diffrn_ambient_temperature 173
_refine_special_details
;
Disordered water and N,N-diethylformamide solvent molecules were not modelled 
and the disordered density was taken into account using the SQUEEZE/PLATON 
procedure.
;
#These two values have been output from a single CSD field.
_refine_ls_R_factor_gt 0.0417
_refine_ls_wR_factor_gt 0.0417
_symmetry_cell_setting orthorhombic
_symmetry_space_group_name_H-M 'P 21 21 2'
_symmetry_Int_Tables_number 18
loop_
_symmetry_equiv_pos_site_id
_symmetry_equiv_pos_as_xyz
1 x,y,z
2 -x,-y,z
3 1/2+x,1/2-y,-z
4 1/2-x,1/2+y,-z
_cell_length_a 19.7244(1)
_cell_length_b 17.0814(1)
_cell_length_c 9.9554(1)
_cell_angle_alpha 90
_cell_angle_beta 90
_cell_angle_gamma 90
_cell_formula_units_Z 2
loop_
_atom_type_symbol
_atom_type_radius_bond
C 0.68
H 0.23
In 1.42
N 0.68
O 0.68
loop_
_atom_site_label
_atom_site_type_symbol
_atom_site_fract_x
_atom_site_fract_y
_atom_site_fract_z
In1 In 0.181279(11) 0.840141(13) 0.91388(3)
O1 O 0.29948(14) 0.85524(16) 0.9265(4)
O2 O 0.22936(14) 0.95496(16) 0.9302(4)
O3 O 0.29863(15) 1.21519(16) 1.0695(4)
O4 O 0.40554(17) 1.24392(19) 1.1003(6)
O5 O 0.19374(16) 0.8345(2) 0.6838(3)
O6 O 0.11067(15) 0.90145(19) 0.7740(3)
O7 O 0.1971(2) 0.8341(3) 0.1587(3)
O8 O 0.1104(2) 0.8881(3) 0.0619(3)
H1 H 0.42350 0.90680 0.95170
H2 H 0.28210 1.07610 1.00780
H3 H 0.47990 1.12590 1.06540
H4 H 0.03950 0.96690 0.61400
H5 H 0.18330 0.84010 0.41750
H6 H 0.04180 0.95980 0.20820
C1 C 0.4639(2) 1.0119(3) 1.0096(6)
C2 C 0.4124(2) 0.9591(3) 0.9752(6)
C3 C 0.3459(2) 0.9828(3) 0.9754(5)
C4 C 0.3281(2) 1.0599(3) 1.0083(5)
C5 C 0.3796(2) 1.1121(3) 1.0416(5)
C6 C 0.4456(2) 1.0892(2) 1.0423(6)
C7 C 0.2892(2) 0.9273(2) 0.9391(5)
C8 C 0.3603(2) 1.1955(2) 1.0741(6)
C9 C 0.0296(3) 0.9736(4) 0.4137(5)
C10 C 0.0589(3) 0.9494(4) 0.5320(5)
C11 C 0.1161(3) 0.9003(3) 0.5384(5)
C12 C 0.1447(3) 0.8734(3) 0.4174(5)
C13 C 0.1152(3) 0.8969(4) 0.2994(5)
C14 C 0.0599(3) 0.9452(5) 0.2930(5)
C15 C 0.1422(2) 0.8766(3) 0.6725(4)
C16 C 0.1429(4) 0.8703(4) 0.1664(5)
N1 N 0.1100(4) 1.1775(4) 0.8342(7)
N2 N 0.0780(6) 1.1294(7) 1.0546(13)
H7 H 0.12380 1.19570 0.75050
H8 H 0.20300 1.20000 0.91340
H9 H 0.19540 1.11230 0.85790
C17 C 0.1719(4) 1.1546(5) 0.9073(9)
H10 H 0.03380 1.25960 0.85030
H11 H 0.10500 1.28970 0.91000
C18 C 0.0745(5) 1.2439(6) 0.9019(12)
H12 H 0.08510 1.07100 0.75200
H13 H 0.02120 1.12940 0.76490
C19 C 0.0633(6) 1.1112(6) 0.8092(13)
H14 H 0.07590 1.24620 1.11060
H15 H 0.00480 1.21640 1.05130
C20 C 0.0546(7) 1.2135(6) 1.0402(12)
H16 H 0.17430 1.16160 1.11460
H17 H 0.17060 1.07290 1.06060
C21 C 0.1539(6) 1.1269(9) 1.0460(13)
H18 H -0.00120 1.07590 0.95880
H19 H 0.06740 1.02580 0.95360
C22 C 0.0485(7) 1.0794(7) 0.9463(14)
O1A O 0.70052(14) 1.14476(16) 0.9265(4)
O2A O 0.77064(14) 1.04504(16) 0.9302(4)
O3A O 0.70137(15) 0.78481(16) 1.0695(4)
O4A O 0.59446(17) 0.75608(19) 1.1003(6)
H1A H 0.57650 1.09320 0.95170
H2A H 0.71790 0.92390 1.00780
H3A H 0.52010 0.87410 1.06540
C1A C 0.5361(2) 0.9881(3) 1.0096(6)
C2A C 0.5876(2) 1.0409(3) 0.9752(6)
C3A C 0.6541(2) 1.0172(3) 0.9754(5)
C4A C 0.6719(2) 0.9401(3) 1.0083(5)
C5A C 0.6204(2) 0.8879(3) 1.0416(5)
C6A C 0.5544(2) 0.9108(2) 1.0423(6)
C7A C 0.7108(2) 1.0727(2) 0.9391(5)
C8A C 0.6397(2) 0.8045(2) 1.0741(6)
O5A O -0.19374(16) 1.1655(2) 0.6838(3)
O6A O -0.11067(15) 1.09855(19) 0.7740(3)
O7A O -0.1971(2) 1.1659(3) 0.1587(3)
O8A O -0.1104(2) 1.1119(3) 0.0619(3)
H4A H -0.03950 1.03310 0.61400
H5A H -0.18330 1.15990 0.41750
H6A H -0.04180 1.04020 0.20820
C9A C -0.0296(3) 1.0264(4) 0.4137(5)
C10A C -0.0589(3) 1.0506(4) 0.5320(5)
C11A C -0.1161(3) 1.0997(3) 0.5384(5)
C12A C -0.1447(3) 1.1266(3) 0.4174(5)
C13A C -0.1152(3) 1.1031(4) 0.2994(5)
C14A C -0.0599(3) 1.0548(5) 0.2930(5)
C15A C -0.1422(2) 1.1234(3) 0.6725(4)
C16A C -0.1429(4) 1.1297(4) 0.1664(5)
In1A In -0.181279(11) 1.159859(13) 0.91388(3)
In1* In 0.181279(11) 0.840141(13) -0.08612(3)
In1A* In -0.181279(11) 1.159859(13) -0.08612(3)
In1A** In 0.818721(11) 1.159859(13) 0.91388(3)
In1B In 0.681279(11) 0.659859(13) 1.08612(3)
In1C In 0.318721(11) 1.340141(13) 1.08612(3)
O1A* O -0.29948(14) 1.14476(16) 0.9265(4)
O2A* O -0.22936(14) 1.04504(16) 0.9302(4)
O3B O -0.20137(15) 1.28481(16) 0.9305(4)
O3C O 0.20137(15) 0.71519(16) 0.9305(4)
O4B O -0.09446(17) 1.25608(19) 0.8997(6)
O4C O 0.09446(17) 0.74392(19) 0.8997(6)
O7* O 0.1971(2) 0.8341(3) 1.1587(3)
O7A* O -0.1971(2) 1.1659(3) 1.1587(3)
O8* O 0.1104(2) 0.8881(3) 1.0619(3)
O8A* O -0.1104(2) 1.1119(3) 1.0619(3)
#END
