
#######################################################################
#
#                 Cambridge Crystallographic Data Centre
#                                CCDC
#
#######################################################################
#
# If this CIF has been generated from an entry in the Cambridge
# Structural Database, then it will include bibliographic, chemical,
# crystal, experimental, refinement or atomic coordinate data resulting
# from the CCDC's data processing and validation procedures.
#
#######################################################################

data_CSD_CIF_MURTEZ
_audit_creation_date 2010-11-12
_audit_creation_method CSD-ConQuest-V1
_database_code_CSD MURTEZ
_database_code_depnum_ccdc_archive 'CCDC 768484'
_chemical_formula_sum 'C30 H36 Co2 N6 O20 S2'
_chemical_formula_moiety
;
(C10 H16 Co1 N2 O6 2+)n,n(C20 H20 Co1 N4 O14 S2 2-)
;
_journal_coden_Cambridge 155
_journal_volume 363
_journal_year 2010
_journal_page_first 2193
_journal_name_full 'Inorg.Chim.Acta '
loop_
_publ_author_name
"A.-C.Chamayou"
"C.Janiak"
_chemical_name_systematic
;
catena-((\m~2~-4,4'-bipyridine N,N'-dioxide)-tetraaqua-cobalt(ii) 
diaqua-bis(sulfato)-bis(4,4'-bipyridine N,N'-dioxide)-cobalt(ii))
;
_cell_volume    913.467
_exptl_crystal_colour 'red'
_exptl_crystal_density_diffrn 1.786
_exptl_crystal_description 'needle'
_diffrn_ambient_temperature 203
#These two values have been output from a single CSD field.
_refine_ls_R_factor_gt 0.0349
_refine_ls_wR_factor_gt 0.0349
_symmetry_cell_setting triclinic
_symmetry_space_group_name_H-M 'P -1'
_symmetry_Int_Tables_number 2
loop_
_symmetry_equiv_pos_site_id
_symmetry_equiv_pos_as_xyz
1 x,y,z
2 -x,-y,-z
_cell_length_a 9.2199(3)
_cell_length_b 10.4012(4)
_cell_length_c 10.7677(3)
_cell_angle_alpha 74.379(2)
_cell_angle_beta 76.648(3)
_cell_angle_gamma 68.213(2)
_cell_formula_units_Z 1
loop_
_atom_type_symbol
_atom_type_radius_bond
C 0.68
H 0.23
Co 1.26
N 0.68
O 0.68
S 1.02
loop_
_atom_site_label
_atom_site_type_symbol
_atom_site_fract_x
_atom_site_fract_y
_atom_site_fract_z
Co1 Co 1.00000 0.00000 1.00000
O1 O 0.8113(2) -0.04938(18) 0.96540(18)
O2 O 0.3854(2) 0.2436(2) 0.15267(19)
N1 N 0.7545(2) 0.0019(2) 0.8516(2)
N2 N 0.4430(2) 0.2115(2) 0.2627(2)
C1 C 0.6057(3) 0.0931(3) 0.8476(3)
H1 H 0.54530 0.12550 0.92310
C2 C 0.5423(3) 0.1386(3) 0.7336(3)
H2 H 0.43780 0.20050 0.73220
C3 C 0.6311(3) 0.0941(2) 0.6194(3)
C4 C 0.7859(3) 0.0020(3) 0.6280(3)
H3 H 0.85080 -0.02930 0.55350
C5 C 0.8435(3) -0.0426(3) 0.7441(3)
H4 H 0.94710 -0.10550 0.74850
C6 C 0.3491(3) 0.2517(3) 0.3722(3)
H5 H 0.24190 0.30490 0.36890
C7 C 0.4074(3) 0.2164(3) 0.4874(3)
H6 H 0.33970 0.24570 0.56180
C8 C 0.5659(3) 0.1376(2) 0.4955(3)
C9 C 0.6590(3) 0.0974(3) 0.3812(3)
H7 H 0.76660 0.04440 0.38230
C10 C 0.5975(3) 0.1334(3) 0.2673(3)
H8 H 0.66260 0.10380 0.19210
S1 S 0.98794(7) -0.22421(6) 1.28959(6)
O3 O 0.9446(2) -0.08481(18) 1.19800(17)
O4 O 1.1513(2) -0.31040(18) 1.24176(18)
O5 O 0.8792(2) -0.2996(2) 1.29031(19)
O6 O 0.9773(2) -0.20249(18) 1.41982(18)
O7 O 0.8346(2) 0.19799(19) 1.0180(2)
H9 H 0.820(3) 0.239(3) 0.942(3)
H10 H 0.856(4) 0.247(3) 1.048(3)
Co2 Co 0.00000 0.50000 1.00000
O8 O 0.09255(19) 0.64359(17) 0.85793(17)
N3 N 0.2051(2) 0.5981(2) 0.7607(2)
C11 C 0.1659(3) 0.6245(3) 0.6417(3)
H11 H 0.05970 0.66930 0.62900
C12 C 0.2795(3) 0.5867(3) 0.5388(3)
H12 H 0.25050 0.60660 0.45570
C13 C 0.4380(3) 0.5189(2) 0.5555(2)
C14 C 0.4729(3) 0.4908(3) 0.6812(3)
H13 H 0.57780 0.44370 0.69700
C15 C 0.3564(3) 0.5307(3) 0.7826(3)
H14 H 0.38180 0.51110 0.86700
O9 O -0.1507(2) 0.5190(2) 0.8778(2)
H15 H -0.236(4) 0.596(4) 0.865(3)
H16 H -0.149(4) 0.469(4) 0.826(4)
O10 O 0.1692(2) 0.32616(19) 0.9291(2)
H17 H 0.153(3) 0.317(3) 0.857(3)
H18 H 0.176(4) 0.255(3) 0.976(3)
O1A O 1.1887(2) 0.04938(18) 1.03460(18)
O2A O 1.6146(2) -0.2436(2) 1.84733(19)
N1A N 1.2455(2) -0.0019(2) 1.1484(2)
N2A N 1.5570(2) -0.2115(2) 1.7373(2)
C1A C 1.3943(3) -0.0931(3) 1.1524(3)
H1A H 1.45470 -0.12550 1.07690
C2A C 1.4577(3) -0.1386(3) 1.2664(3)
H2A H 1.56220 -0.20050 1.26780
C3A C 1.3689(3) -0.0941(2) 1.3806(3)
C4A C 1.2141(3) -0.0020(3) 1.3720(3)
H3A H 1.14920 0.02930 1.44650
C5A C 1.1565(3) 0.0426(3) 1.2559(3)
H4A H 1.05290 0.10550 1.25150
C6A C 1.6509(3) -0.2517(3) 1.6278(3)
H5A H 1.75810 -0.30490 1.63110
C7A C 1.5926(3) -0.2164(3) 1.5126(3)
H6A H 1.66030 -0.24570 1.43820
C8A C 1.4341(3) -0.1376(2) 1.5045(3)
C9A C 1.3410(3) -0.0974(3) 1.6188(3)
H7A H 1.23340 -0.04440 1.61770
C10A C 1.4025(3) -0.1334(3) 1.7327(3)
H8A H 1.33740 -0.10380 1.80790
S1A S 1.01206(7) 0.22421(6) 0.71041(6)
O3A O 1.0554(2) 0.08481(18) 0.80200(17)
O4A O 0.8487(2) 0.31040(18) 0.75824(18)
O5A O 1.1208(2) 0.2996(2) 0.70969(19)
O6A O 1.0227(2) 0.20249(18) 0.58018(18)
O7A O 1.1654(2) -0.19799(19) 0.9820(2)
H9A H 1.180(3) -0.239(3) 1.058(3)
H10A H 1.144(4) -0.247(3) 0.952(3)
Co2* Co 1.00000 0.50000 0.00000
O8A O 0.90745(19) 0.35641(17) 0.14207(17)
O8A* O -0.09255(19) 0.35641(17) 1.14207(17)
N3A N 0.7949(2) 0.4019(2) 0.2393(2)
C11A C 0.8341(3) 0.3755(3) 0.3583(3)
H11A H 0.94030 0.33070 0.37100
C12A C 0.7205(3) 0.4133(3) 0.4612(3)
H12A H 0.74950 0.39340 0.54430
C13A C 0.5620(3) 0.4811(2) 0.4445(2)
C14A C 0.5271(3) 0.5092(3) 0.3188(3)
H13A H 0.42220 0.55630 0.30300
C15A C 0.6436(3) 0.4693(3) 0.2174(3)
H14A H 0.61820 0.48890 0.13300
O9A O 0.1507(2) 0.4810(2) 1.1222(2)
H15A H 0.236(4) 0.404(4) 1.135(3)
H16A H 0.149(4) 0.531(4) 1.174(4)
O10A O -0.1692(2) 0.67384(19) 1.0709(2)
H17A H -0.153(3) 0.683(3) 1.143(3)
H18A H -0.176(4) 0.745(3) 1.024(3)
#END
