
#######################################################################
#
#                 Cambridge Crystallographic Data Centre
#                                CCDC
#
#######################################################################
#
# If this CIF has been generated from an entry in the Cambridge
# Structural Database, then it will include bibliographic, chemical,
# crystal, experimental, refinement or atomic coordinate data resulting
# from the CCDC's data processing and validation procedures.
#
#######################################################################

data_CSD_CIF_MUSTAY
_audit_creation_date 2020-08-12
_audit_creation_method CSD-ConQuest-V1
_database_code_CSD MUSTAY
_database_code_depnum_ccdc_archive 'CCDC 1839134'
_chemical_formula_sum 'C54 H99 N28 O10 Zn4'
_chemical_formula_moiety
;
(C32 H45 N24 O8 Zn4 2-)n,2(C8 H20 N1 1+),2(C3 H7 N1 O1)
;
_journal_coden_Cambridge 1147
_journal_volume 20
_journal_year 2020
_journal_page_first 5644
_journal_name_full 'Cryst.Growth Des. '
loop_
_publ_author_name
"Min-Yu Li"
"Fei Wang"
"Jian Zhang"
_chemical_name_systematic
;
catena-[bis(\m-1,2,2-trimethylcyclopentane-1,3-dicarboxylato)-hexakis(\m-5-met
hyl-tetrazolato)-tetra-zinc N,N-dimethylformamide solvate]
;
_chemical_name_common
;
catena-[bis(mu-d-camphorato)-hexakis(mu-5-methyl-tetrazolato)-tetra-zinc 
N,N-dimethylformamide solvate]; MOZ-51
;
_cell_volume   7811.412
_exptl_crystal_colour 'colorless'
_exptl_crystal_density_diffrn 1.203
_exptl_crystal_description 'prism'
_diffrn_ambient_temperature 293.1
_refine_special_details
;
The MASK/OLEX2 program has been used to model some disorder.

;
#These two values have been output from a single CSD field.
_refine_ls_R_factor_gt 0.0666
_refine_ls_wR_factor_gt 0.0666
_symmetry_cell_setting orthorhombic
_symmetry_space_group_name_H-M 'P 21 21 21'
_symmetry_Int_Tables_number 19
loop_
_symmetry_equiv_pos_site_id
_symmetry_equiv_pos_as_xyz
1 x,y,z
2 1/2-x,-y,1/2+z
3 1/2+x,1/2-y,-z
4 -x,1/2+y,1/2-z
_cell_length_a 16.6854(4)
_cell_length_b 16.7316(4)
_cell_length_c 27.9805(5)
_cell_angle_alpha 90
_cell_angle_beta 90
_cell_angle_gamma 90
_cell_formula_units_Z 4
loop_
_atom_type_symbol
_atom_type_radius_bond
C 0.68
H 0.23
N 0.68
O 0.68
Zn 1.22
loop_
_atom_site_label
_atom_site_type_symbol
_atom_site_fract_x
_atom_site_fract_y
_atom_site_fract_z
Zn1 Zn 0.17981(7) 0.56759(6) 0.90698(3)
Zn2 Zn 0.33779(7) 0.06970(7) 1.08598(3)
Zn3 Zn 0.18171(6) -0.06914(6) 0.90862(3)
Zn4 Zn 0.33979(6) 0.43085(7) 1.08348(3)
O1 O 0.2892(4) 0.0164(3) 1.14006(18)
N1 N 0.3628(5) 0.1857(4) 1.0947(2)
N2 N 0.3641(4) 0.3148(4) 1.0931(3)
N3 N 0.2887(4) 0.0494(4) 1.0221(2)
O2 O 0.2047(4) 0.5118(3) 0.6370(2)
O3 O 0.2033(4) 0.5270(4) 0.8438(2)
N4 N 0.2904(4) 0.4479(4) 1.0191(2)
N5 N 0.1776(5) 0.8151(4) 0.9219(3)
N6 N 0.1822(6) 0.6864(4) 0.9225(3)
O4 O 0.2937(4) 0.0250(3) 1.34633(19)
N7 N 0.2415(5) -0.0084(4) 0.9588(2)
N8 N 0.3183(6) 0.0881(5) 0.9828(2)
O5 O 0.3057(4) 0.5951(4) 0.6289(2)
N9 N 0.0624(5) 0.5362(5) 0.9181(3)
O6 O 0.1861(5) 0.0985(4) 1.1302(2)
N10 N 0.0661(4) -0.0390(4) 0.9192(2)
N11 N 0.3197(5) 0.4149(4) 0.9801(2)
N12 N 0.2400(4) 0.5058(4) 0.9571(2)
N13 N 0.2890(5) 0.4471(5) 0.9426(2)
O7 O 0.1894(4) 0.1009(4) 1.3551(2)
O8 O 0.3137(5) 0.6000(5) 0.8530(2)
C1 C 0.2740(6) 0.5524(6) 0.8300(3)
C2 C 0.2261(5) 0.0497(5) 1.3327(3)
C3 C 0.2720(5) 0.5413(5) 0.6516(3)
C4 C 0.2225(5) 0.0468(5) 1.1524(3)
C5 C 0.1967(6) -0.0643(6) 1.0386(3)
H1 H 0.21520 -0.11790 1.03350
H2 H 0.14070 -0.06090 1.03100
H3 H 0.20460 -0.04990 1.07150
N14 N 0.2907(5) 0.0517(4) 0.9448(2)
C6 C 0.3234(4) 0.2484(6) 1.0800(2)
C7 C 0.2399(5) 0.5066(5) 1.0046(3)
C8 C 0.2440(6) -0.0068(5) 1.0065(2)
C9 C 0.1766(3) 0.7494(5) 0.8961(2)
C10 C 0.1940(7) 0.5553(7) 1.0359(3)
H4 H 0.17410 0.52350 1.06180
H5 H 0.14980 0.57810 1.01860
H6 H 0.22720 0.59740 1.04820
C11 C 0.0072(5) 0.4971(4) 0.8947(3)
C12 C 0.0098(5) 0.0012(4) 0.8960(3)
N15 N 0.0345(6) -0.0525(7) 0.9642(3)
N16 N -0.0535(5) 0.4847(5) 0.9223(3)
C13 C 0.1946(5) 0.0126(5) 1.2866(3)
H7 H 0.19200 -0.04500 1.29290
C14 C 0.3084(6) 0.5166(6) 0.7834(3)
N17 N 0.4291(5) 0.2100(5) 1.1166(3)
C15 C 0.1900(5) 0.0135(5) 1.1991(3)
N18 N 0.0307(6) 0.5558(7) 0.9602(3)
N19 N -0.0393(6) 0.5283(6) 0.9629(3)
N20 N 0.4306(5) 0.2883(4) 1.1162(3)
N21 N -0.0553(4) 0.0132(4) 0.9244(2)
C16 C 0.3067(6) 0.5083(6) 0.6980(3)
H8 H 0.30240 0.45010 0.69480
C17 C 0.2870(7) 0.1053(6) 1.2408(3)
H9 H 0.24590 0.14500 1.23740
H10 H 0.32220 0.10730 1.21370
H11 H 0.31700 0.11540 1.26940
N22 N -0.0357(6) -0.0187(7) 0.9674(4)
C18 C 0.2053(7) 0.5983(6) 0.7391(3)
C19 C 0.0149(7) 0.4681(6) 0.8441(3)
H12 H 0.00350 0.51120 0.82250
H13 H -0.02230 0.42530 0.83870
H14 H 0.06850 0.44920 0.83880
C20 C 0.0139(6) 0.0274(7) 0.8457(3)
H15 H 0.06680 0.01780 0.83340
H16 H 0.00200 0.08340 0.84370
H17 H -0.02440 -0.00200 0.82710
C21 C 0.2478(6) 0.0210(6) 1.2439(4)
C22 C 0.2460(4) 0.2510(7) 1.0543(3)
H18 H 0.25440 0.23720 1.02140
H19 H 0.22390 0.30380 1.05630
H20 H 0.20950 0.21350 1.06850
N23 N 0.1593(7) 0.7853(5) 0.9648(3)
N24 N 0.2011(7) 0.7108(5) 0.9670(3)
C23 C 0.1703(9) 0.7478(7) 0.8438(3)
H21 H 0.13220 0.78720 0.83350
H22 H 0.15290 0.69580 0.83370
H23 H 0.22170 0.75930 0.83000
C24 C 0.3163(6) -0.0422(7) 1.2425(4)
H24 H 0.33280 -0.05440 1.27460
H25 H 0.36090 -0.02120 1.22490
H26 H 0.29720 -0.09000 1.22730
C25 C 0.1107(7) 0.0371(9) 1.2766(4)
H27 H 0.09570 0.08370 1.29520
H28 H 0.07340 -0.00600 1.28320
C26 C 0.1137(6) 0.0581(7) 1.2183(4)
H29 H 0.06580 0.03890 1.20230
H30 H 0.11830 0.11520 1.21320
C27 C 0.1674(8) -0.0735(7) 1.1944(4)
H31 H 0.11860 -0.07800 1.17640
H32 H 0.15970 -0.09610 1.22560
H33 H 0.20940 -0.10180 1.17820
C28 C 0.3832(6) 0.5618(9) 0.7644(4)
H34 H 0.43100 0.54860 0.78250
H35 H 0.37530 0.61930 0.76460
C29 C 0.3366(12) 0.4311(9) 0.7924(6)
H36 H 0.34930 0.42460 0.82560
H37 H 0.38340 0.42050 0.77350
H38 H 0.29480 0.39440 0.78370
C30 C 0.3868(9) 0.5224(10) 0.7045(6)
H39 H 0.43010 0.51420 0.68420
C31 C 0.1963(11) 0.4508(8) 0.7395(7)
H40 H 0.22880 0.41020 0.72490
H41 H 0.14750 0.45690 0.72170
H42 H 0.18400 0.43550 0.77180
C32 C 0.2430(6) 0.5316(8) 0.7398(4)
N25 N -0.0257(4) 0.7498(7) 1.0875(2)
C33 C -0.0218(9) 0.5988(6) 1.0809(4)
H43 H -0.03090 0.57350 1.05060
H44 H -0.07210 0.60640 1.09690
H45 H 0.01240 0.56570 1.10010
C34 C -0.0463(5) 0.7493(8) 1.1404(3)
H46 H -0.07760 0.79670 1.14730
H47 H -0.08010 0.70340 1.14670
C35 C 0.0242(8) 0.8248(7) 1.0756(5)
H48 H 0.07550 0.82060 1.09170
H49 H 0.03470 0.82540 1.04150
C36 C -0.0142(8) 0.9032(7) 1.0893(5)
H50 H -0.06840 0.90450 1.07770
H51 H 0.01550 0.94650 1.07550
H52 H -0.01430 0.90840 1.12350
C37 C 0.0187(8) 0.6806(7) 1.0729(5)
H53 H 0.06940 0.68060 1.08990
H54 H 0.03070 0.68580 1.03910
C38 C 0.0228(7) 0.7467(10) 1.1741(4)
H55 H 0.05140 0.69740 1.17000
H56 H 0.00350 0.75030 1.20630
H57 H 0.05810 0.79080 1.16760
C39 C -0.1070(7) 0.7539(11) 1.0629(4)
H58 H -0.13560 0.80060 1.07420
H59 H -0.13810 0.70710 1.07150
C40 C -0.0997(10) 0.7581(13) 1.0076(5)
H60 H -0.14580 0.73340 0.99330
H61 H -0.05210 0.73060 0.99750
H62 H -0.09680 0.81300 0.99770
N26 N -0.0174(4) 0.2476(7) 1.0970(3)
C41 C -0.0744(11) 0.1836(8) 1.1036(7)
H63 H -0.11790 0.18920 1.08080
H64 H -0.09680 0.18620 1.13550
C42 C 0.0412(7) 0.2604(9) 1.1373(4)
H65 H 0.07090 0.30910 1.13110
H66 H 0.07930 0.21660 1.13720
C43 C -0.0744(8) 0.3239(7) 1.1016(5)
H67 H -0.11490 0.32050 1.07680
H68 H -0.10170 0.32090 1.13210
C44 C -0.0330(14) 0.4076(11) 1.0979(8)
H69 H -0.00460 0.41140 1.06810
H70 H 0.00390 0.41410 1.12390
H71 H -0.07300 0.44880 1.09930
C45 C 0.0243(9) 0.2357(12) 1.0528(5)
H72 H 0.03710 0.17950 1.04920
H73 H 0.07430 0.26530 1.05340
C46 C 0.0043(12) 0.2661(11) 1.1867(6)
H74 H -0.03920 0.22880 1.18920
H75 H -0.01540 0.31940 1.19180
H76 H 0.04410 0.25390 1.21030
C47 C -0.0276(11) 0.2641(15) 1.0087(5)
H77 H 0.00730 0.27990 0.98310
H78 H -0.06030 0.30870 1.01800
H79 H -0.06120 0.22100 0.99820
C48 C -0.0321(12) 0.1016(9) 1.0962(7)
H80 H 0.00370 0.10500 1.06940
H81 H -0.07160 0.06110 1.09020
H82 H -0.00230 0.08810 1.12440
H83? H 0.12920 0.80630 0.98630
H84? H 0.22890 0.68890 0.98920
Zn2B Zn -0.16221(7) 0.43030(7) 0.91402(3)
Zn3* Zn 0.18171(6) 0.93086(6) 0.90862(3)
Zn3A Zn 0.31829(6) 0.06914(6) 1.40862(3)
Zn4A Zn 0.16021(6) 0.56915(7) 0.58348(3)
Zn4B Zn -0.16021(6) 0.06915(7) 0.91652(3)
O2A O 0.2953(4) 0.4882(3) 1.1370(2)
N5* N 0.1776(5) -0.1849(4) 0.9219(3)
O4A O 0.2063(4) -0.0250(3) 0.84633(19)
N16B N 0.4465(5) 0.0153(5) 1.0777(3)
N21B N 0.4447(4) 0.4868(4) 1.0756(2)
#END
