
#######################################################################
#
#                 Cambridge Crystallographic Data Centre
#                                CCDC
#
#######################################################################
#
# If this CIF has been generated from an entry in the Cambridge
# Structural Database, then it will include bibliographic, chemical,
# crystal, experimental, refinement or atomic coordinate data resulting
# from the CCDC's data processing and validation procedures.
#
#######################################################################

data_CSD_CIF_MUSVEE
_audit_creation_date 2020-08-12
_audit_creation_method CSD-ConQuest-V1
_database_code_CSD MUSVEE
_database_code_depnum_ccdc_archive 'CCDC 1986170'
_chemical_formula_sum 'C24 H20 N6 O7 Zn2'
_chemical_formula_moiety
;
(C22 H12 N5 O7 Zn2 1-)n,C2 H8 N1 1+
;
_journal_coden_Cambridge 1350
_journal_volume 22
_journal_year 2020
_journal_page_first 5941
_journal_name_full 'CrystEngComm '
loop_
_publ_author_name
"Xiao-Ting Liu"
"Si-Si Chen"
"Si-Miao Li"
"Hong-Xiang Nie"
"Yao-Qing Feng"
"Yi-Ning Fan"
"Mei-Hui Yu"
"Ze Chang"
"Xian-He Bu"
_chemical_name_systematic
;
catena-[dimethylammonium 
(\m-4-(pyrazol-1-id-4-yl)benzoato)-(\m-5-[(pyrazol-1-yl-4-carbonyl)amino]benze
ne-1,3-dicarboxylato)-di-zinc(ii)]
;
_cell_volume  12639.042
_exptl_crystal_density_diffrn 0.464
_exptl_crystal_description 'block'
_diffrn_ambient_temperature 273.1
_diffrn_special_details
;
twin

;
_refine_special_details
;
Disordered cation molecules were not modelled and the disordered density was 
taken into account using the SQUEEZE/PLATON procedure.
;
#These two values have been output from a single CSD field.
_refine_ls_R_factor_gt 0.0616
_refine_ls_wR_factor_gt 0.0616
_symmetry_cell_setting hexagonal
_symmetry_space_group_name_H-M 'P 32 2 1'
_symmetry_Int_Tables_number 154
loop_
_symmetry_equiv_pos_site_id
_symmetry_equiv_pos_as_xyz
1 x,y,z
2 -y,x-y,2/3+z
3 -x+y,-x,1/3+z
4 y,x,-z
5 x-y,-y,1/3-z
6 -x,-x+y,2/3-z
_cell_length_a 20.5369(12)
_cell_length_b 20.5369(12)
_cell_length_c 34.603(2)
_cell_angle_alpha 90
_cell_angle_beta 90
_cell_angle_gamma 120
_cell_formula_units_Z 6
loop_
_atom_type_symbol
_atom_type_radius_bond
C 0.68
H 0.23
N 0.68
O 0.68
Zn 1.22
loop_
_atom_site_label
_atom_site_type_symbol
_atom_site_fract_x
_atom_site_fract_y
_atom_site_fract_z
C1 C 0.4495(5) 1.2270(4) 0.2824(2)
H1 H 0.45220 1.23570 0.30890
C2 C 0.4199(6) 1.1507(4) 0.2659(2)
C3 C 0.4204(6) 1.1684(5) 0.22613(19)
H2 H 0.40240 1.13290 0.20640
C4 C 0.3997(6) 1.0843(6) 0.2863(3)
C5 C 0.3521(5) 0.9541(4) 0.2765(2)
C6 C 0.3019(5) 0.8869(5) 0.2514(2)
H3 H 0.28190 0.89530 0.22910
C7 C 0.2856(5) 0.8199(5) 0.25899(19)
C8 C 0.3160(6) 0.8033(5) 0.29238(19)
H4 H 0.30270 0.75380 0.29780
C9 C 0.3654(5) 0.8610(5) 0.3168(2)
C10 C 0.3826(6) 0.9345(5) 0.3084(2)
H5 H 0.41600 0.97280 0.32460
C11 C 0.2383(5) 0.7565(5) 0.2318(2)
C12 C 0.3945(5) 0.8417(6) 0.35086(19)
C13 C 0.3517(6) 0.7608(4) 0.5072(2)
H6 H 0.34700 0.74180 0.53210
C14 C 0.2956(5) 0.7536(5) 0.4884(2)
C15 C 0.3235(5) 0.7881(5) 0.4540(2)
H7 H 0.29530 0.79290 0.43430
C16 C 0.2163(5) 0.7148(6) 0.4987(2)
C17 C 0.1865(6) 0.6715(6) 0.5328(3)
H8 H 0.22050 0.66900 0.54960
C18 C 0.1133(5) 0.6336(6) 0.5428(2)
H9 H 0.09960 0.60970 0.56670
C19 C 0.0614(5) 0.6297(5) 0.5199(2)
C20 C 0.0857(6) 0.6707(7) 0.4846(2)
H10 H 0.04970 0.66920 0.46780
C21 C 0.1602(5) 0.7124(6) 0.4745(3)
H11 H 0.17360 0.73930 0.45140
C22 C -0.0214(6) 0.5839(6) 0.5288(2)
N1 N 0.4728(4) 1.2842(4) 0.25555(14)
N2 N 0.4499(4) 1.2426(4) 0.22044(13)
N3 N 0.3697(4) 1.0222(4) 0.26530(18)
N4 N 0.3959(4) 0.8136(4) 0.45257(17)
N5 N 0.4189(4) 0.7975(3) 0.48899(14)
O1 O 0.4043(4) 1.0827(3) 0.32272(16)
O2 O 0.2199(3) 0.7773(3) 0.20052(12)
O3 O 0.2186(4) 0.6909(3) 0.24006(13)
O4 O 0.4452(3) 0.9036(3) 0.37066(12)
O5 O 0.3858(4) 0.7797(4) 0.35878(14)
O6 O -0.0690(3) 0.5815(3) 0.50342(13)
O7 O -0.0385(3) 0.5516(3) 0.55958(13)
Zn1 Zn 0.17597(5) 0.69890(5) 0.16236(2)
Zn2 Zn 0.47745(5) 0.86699(5) 0.41353(2)
N1E N 0.5272(4) 0.8114(4) 0.411117(140)
N2D N 0.2073(4) 0.7574(4) 0.112893(130)
N5A N 0.2025(4) 0.6214(3) 0.155657(140)
O6E O 0.0690(3) 0.6505(3) 0.163247(130)
O7C O 0.5516(3) 0.9615(3) 0.44042(13)
Zn1B Zn 0.52293(5) 0.82403(5) 0.495693(20)
Zn1D Zn 0.47707(5) 1.30110(5) 0.170973(20)
Zn1E Zn -0.17597(5) 0.52293(5) 0.504307(20)
Zn2C Zn -0.13301(5) 0.47745(5) 0.58647(2)
Zn2E Zn 0.52255(5) 1.38954(5) 0.253137(20)
#END
