
#######################################################################
#
#                 Cambridge Crystallographic Data Centre
#                                CCDC
#
#######################################################################
#
# If this CIF has been generated from an entry in the Cambridge
# Structural Database, then it will include bibliographic, chemical,
# crystal, experimental, refinement or atomic coordinate data resulting
# from the CCDC's data processing and validation procedures.
#
#######################################################################

data_CSD_CIF_MUTSEC
_audit_creation_date 2020-08-13
_audit_creation_method CSD-ConQuest-V1
_database_code_CSD MUTSEC
_database_code_depnum_ccdc_archive 'CCDC 2023131'
_chemical_formula_sum 'C24 H28 Co4 Mo12 N4 Na3 O65.5 P8'
_chemical_formula_moiety
;
(C24 H25 Co4 Mo12 N4 O64 P8 3-)n,3(Na1 1+),1.5(H2 O1)
;
_journal_coden_Cambridge 1078
_journal_year 2020
_journal_name_full 'CSD Communication(Private Communication) '
loop_
_publ_author_name
"yaqi zhang"
_chemical_name_systematic
;
catena-[tri-sodium 
octakis(\m-phosphato)-heptadecakis(\m-oxo)-(\m-hydroxo)-bis(\m-4,4'-(ethene-1,
2-diyl)dipyridine)-dodecaoxo-diaqua-tetra-cobalt(ii)-dodeca-molybdenum(vi) 
hydrate unknown solvate]
;
_cell_volume   4860.030
_exptl_crystal_colour 'purple'
_exptl_crystal_description 'block'
_diffrn_ambient_temperature 296
_refine_special_details
;
The structure is disordered. Disordered solvent molecules were not modelled 
and the disordered density was taken into account using the SQUEEZE/PLATON 
procedure.
;
#These two values have been output from a single CSD field.
_refine_ls_R_factor_gt 0.0333
_refine_ls_wR_factor_gt 0.0333
_symmetry_cell_setting monoclinic
_symmetry_space_group_name_H-M 'C 2/m'
_symmetry_Int_Tables_number 12
loop_
_symmetry_equiv_pos_site_id
_symmetry_equiv_pos_as_xyz
1 x,y,z
2 -x,y,-z
3 1/2+x,1/2+y,z
4 1/2-x,1/2+y,-z
5 -x,-y,-z
6 x,-y,z
7 -1/2-x,-1/2-y,-z
8 -1/2+x,-1/2-y,z
_cell_length_a 26.052(3)
_cell_length_b 12.3754(13)
_cell_length_c 17.4547(19)
_cell_angle_alpha 90
_cell_angle_beta 120.2737(13)
_cell_angle_gamma 90
_cell_formula_units_Z 2
loop_
_atom_type_symbol
_atom_type_radius_bond
C 0.68
H 0.23
Co 1.26
Mo 1.54
N 0.68
Na 1.66
O 0.68
P 1.05
loop_
_atom_site_label
_atom_site_type_symbol
_atom_site_fract_x
_atom_site_fract_y
_atom_site_fract_z
Mo1 Mo 0.48009(2) 0.35904(3) -0.82287(2)
O1 O 0.53200(19) 0.50000 -0.7812(3)
O2 O 0.48305(13) 0.3714(3) -0.9333(2)
O3 O 0.41689(19) 0.50000 -0.8859(3)
O4 O 0.46274(15) 0.3975(3) -0.7239(2)
O5 O 0.40780(15) 0.2738(3) -0.8744(2)
O6 O 0.53523(16) 0.2713(3) -0.7634(2)
Mo2 Mo 0.42306(2) 0.25486(3) -0.97136(3)
Co1 Co 0.50000 0.50000 -1.00000
P1 P 0.35943(7) 0.50000 -0.97797(10)
P2 P 0.44158(7) 0.50000 -0.69698(11)
O7 O 0.40909(15) 0.2781(3) -1.0991(2)
O8 O 0.36014(14) 0.3994(3) -1.0292(2)
O9 O 0.46545(19) 0.1433(3) -0.9465(3)
O10 O 0.34227(17) 0.1778(3) -1.0362(3)
O11 O 0.58879(19) 0.50000 -0.8830(3)
O12 O 0.3054(2) 0.50000 -0.9670(3)
O13 O 0.4692(2) 0.50000 -0.5966(3)
O14 O 0.3744(2) 0.50000 -0.7404(3)
Mo3 Mo 0.34438(2) 0.39573(4) -1.17137(3)
Co2 Co 0.30371(4) 0.50000 -0.85481(6)
Co3 Co 0.50000 0.62246(19) -0.50000
O15 O 0.2828(2) 0.50000 -1.1952(3)
O16 O 0.33807(17) 0.3703(4) -1.2701(2)
O17 O 0.28376(16) 0.2850(3) -1.1781(3)
O18 O 0.2635(2) 0.3650(4) -0.8587(3)
N1 N 0.5929(4) 0.6273(7) -0.4717(7)
O19 O 0.5268(5) 0.7537(9) -0.4010(7)
P3 P 0.20618(7) 0.32794(13) -0.86395(10)
C1 C 0.6419(6) 0.6490(11) -0.3985(7)
C2 C 0.5919(4) 0.6357(10) -0.5460(8)
O20 O 0.1873(3) 0.4046(4) -0.8137(4)
H1 H 0.64375 0.63545 -0.34472
C3 C 0.6923(5) 0.6921(11) -0.3974(6)
H2 H 0.56637 0.59451 -0.59530
C4 C 0.6277(13) 0.703(2) -0.548(2)
H3 H 0.72626 0.71084 -0.34445
C5 C 0.6893(4) 0.7052(11) -0.4766(6)
H4 H 0.61470 0.75134 -0.59533
C6 C 0.7432(7) 0.7445(14) -0.4742(10)
H5 H 0.77273 0.76497 -0.41761
Na1 Na 0.1270(5) 0.3809(8) -0.7233(8)
O21 O 0.0655(8) 0.50000 -0.8723(16)
Na2 Na 0.2888(7) 0.1667(14) -0.9232(11)
O22 O 0.3744(12) 0.00000 -0.9093(19)
H6? H 0.55568 0.62879 -0.59847
C7? C 0.6442(7) 0.6552(19) -0.5514(10)
H7? H 0.64751 0.63620 -0.60025
Mo1E Mo 0.48009(2) 0.64096(3) -0.82287(2)
O4E O 0.46274(15) 0.6025(3) -0.7239(2)
O2E O 0.48305(13) 0.6286(3) -0.9333(2)
O5E O 0.40780(15) 0.7262(3) -0.8744(2)
O6E O 0.53523(16) 0.7287(3) -0.7634(2)
O2A O 0.51695(13) 0.3714(3) -1.0667(2)
O11A O 0.41121(19) 0.50000 -1.1170(3)
O2D O 0.51695(13) 0.6286(3) -1.0667(2)
O8E O 0.36014(14) 0.6006(3) -1.0292(2)
Mo2E Mo 0.42306(2) 0.74514(3) -0.97136(3)
Mo3A Mo 0.65562(2) 0.39573(4) -0.82863(3)
Mo3D Mo 0.65562(2) 0.60427(4) -0.82863(3)
Mo1A Mo 0.51991(2) 0.35904(3) -1.17713(2)
Mo2A Mo 0.57694(2) 0.25486(3) -1.02864(3)
Mo3E Mo 0.34438(2) 0.60427(4) -1.17137(3)
Mo1D Mo 0.51991(2) 0.64096(3) -1.17713(2)
Mo2D Mo 0.57694(2) 0.74514(3) -1.02864(3)
Co3D Co 0.50000 0.37754(19) -0.50000
O7E O 0.40909(15) 0.7219(3) -1.0991(2)
O9E O 0.46545(19) 0.8567(3) -0.9465(3)
O10E O 0.34227(17) 0.8222(3) -1.0362(3)
O7A O 0.59091(15) 0.2781(3) -0.9009(2)
O8A O 0.63986(14) 0.3994(3) -0.9708(2)
O15A O 0.7172(2) 0.50000 -0.8048(3)
O16A O 0.66193(17) 0.3703(4) -0.7299(2)
O17A O 0.71624(16) 0.2850(3) -0.8219(3)
O8D O 0.63986(14) 0.6006(3) -0.9708(2)
O7D O 0.59091(15) 0.7219(3) -0.9009(2)
O16D O 0.66193(17) 0.6297(4) -0.7299(2)
O17D O 0.71624(16) 0.7150(3) -0.8219(3)
O1A O 0.46800(19) 0.50000 -1.2188(3)
O3A O 0.58311(19) 0.50000 -1.1141(3)
O4A O 0.53726(15) 0.3975(3) -1.2761(2)
O5A O 0.59220(15) 0.2738(3) -1.1256(2)
O6A O 0.46477(16) 0.2713(3) -1.2366(2)
O9A O 0.53455(19) 0.1433(3) -1.0535(3)
O10A O 0.65773(17) 0.1778(3) -0.9638(3)
O16E O 0.33807(17) 0.6297(4) -1.2701(2)
O17E O 0.28376(16) 0.7150(3) -1.1781(3)
O4D O 0.53726(15) 0.6025(3) -1.2761(2)
O5D O 0.59220(15) 0.7262(3) -1.1256(2)
O6D O 0.46477(16) 0.7287(3) -1.2366(2)
O9D O 0.53455(19) 0.8567(3) -1.0535(3)
O10D O 0.65773(17) 0.8222(3) -0.9638(3)
O18E O 0.2635(2) 0.6350(4) -0.8587(3)
N1A N 0.4071(4) 0.6273(7) -0.5283(7)
O19A O 0.4732(5) 0.7537(9) -0.5990(7)
O13A O 0.5308(2) 0.50000 -0.4034(3)
O19E O 0.5268(5) 0.2463(9) -0.4010(7)
O19D O 0.4732(5) 0.2463(9) -0.5990(7)
N1D N 0.4071(4) 0.3727(7) -0.5283(7)
N1E N 0.5929(4) 0.3727(7) -0.4717(7)
P1A P 0.64057(7) 0.50000 -1.02203(10)
P2A P 0.55842(7) 0.50000 -1.30302(11)
P3E P 0.20618(7) 0.67206(13) -0.86395(10)
C1A C 0.3581(6) 0.6490(11) -0.6015(7)
C2A C 0.4081(4) 0.6357(10) -0.4540(8)
O12A O 0.6946(2) 0.50000 -1.0330(3)
O13A* O 0.5308(2) 0.50000 -1.4034(3)
O14A O 0.6256(2) 0.50000 -1.2596(3)
O10F O 0.15773(17) 0.3222(3) -0.9638(3)
O17F O 0.21624(16) 0.2150(3) -0.8219(3)
O10C O 0.15773(17) 0.6778(3) -0.9638(3)
O17C O 0.21624(16) 0.7850(3) -0.8219(3)
O20E O 0.1873(3) 0.5954(4) -0.8137(4)
H1A H 0.35625 0.63545 -0.65528
C3A C 0.3077(5) 0.6921(11) -0.6026(6)
H2A H 0.43363 0.59451 -0.40470
C4A C 0.3723(13) 0.703(2) -0.452(2)
Co2A Co 0.69629(4) 0.50000 -1.14519(6)
Co3* Co 0.50000 0.62246(19) -1.50000
Co3D* Co 0.50000 0.37754(19) -1.50000
Mo2F Mo 0.07694(2) 0.24514(3) -1.02864(3)
Mo3F Mo 0.15562(2) 0.10427(4) -0.82863(3)
Mo2C Mo 0.07694(2) 0.75486(3) -1.02864(3)
Mo3C Mo 0.15562(2) 0.89573(4) -0.82863(3)
H3A H 0.27374 0.71084 -0.65555
C5A C 0.3107(4) 0.7052(11) -0.5234(6)
H4A H 0.38530 0.75134 -0.40467
O18A O 0.7365(2) 0.3650(4) -1.1413(3)
O18D O 0.7365(2) 0.6350(4) -1.1413(3)
C6A C 0.2568(7) 0.7445(14) -0.5258(10)
P3A P 0.79382(7) 0.32794(13) -1.13605(10)
P3D P 0.79382(7) 0.67206(13) -1.13605(10)
C6F C 0.7568(7) 0.7555(14) -0.5258(10)
H5A H 0.22727 0.76497 -0.58239
C6G C 0.2432(7) 0.7555(14) -0.4742(10)
O10G O 0.84227(17) 0.3222(3) -1.0362(3)
O17G O 0.78376(16) 0.2150(3) -1.1781(3)
O20A O 0.8127(3) 0.4046(4) -1.1863(4)
O10B O 0.84227(17) 0.6778(3) -1.0362(3)
O17B O 0.78376(16) 0.7850(3) -1.1781(3)
O20D O 0.8127(3) 0.5954(4) -1.1863(4)
C5F C 0.8107(4) 0.7948(11) -0.5234(6)
H5F H 0.72727 0.73503 -0.58239
C5G C 0.1893(4) 0.7948(11) -0.4766(6)
H5G H 0.27273 0.73503 -0.41761
Mo2G Mo 0.92306(2) 0.24514(3) -0.97136(3)
Mo3G Mo 0.84438(2) 0.10427(4) -1.17137(3)
Mo2B Mo 0.92306(2) 0.75486(3) -0.97136(3)
Mo3B Mo 0.84438(2) 0.89573(4) -1.17137(3)
Co3F Co 1.00000 0.87754(19) -0.50000
C3F C 0.8077(5) 0.8079(11) -0.6026(6)
C4F C 0.8723(13) 0.797(2) -0.452(2)
C3G C 0.1923(5) 0.8079(11) -0.3974(6)
C4G C 0.1277(13) 0.797(2) -0.548(2)
N1F N 0.9071(4) 0.8727(7) -0.5283(7)
C1F C 0.8581(6) 0.8510(11) -0.6015(7)
H3F H 0.77374 0.78916 -0.65555
C2F C 0.9081(4) 0.8643(10) -0.4540(8)
H4F H 0.88530 0.74866 -0.40467
C1G C 0.1419(6) 0.8510(11) -0.3985(7)
H3G H 0.22626 0.78916 -0.34445
C2G C 0.0919(4) 0.8643(10) -0.5460(8)
H4G H 0.11470 0.74866 -0.59533
H1F H 0.85625 0.86455 -0.65528
H2F H 0.93363 0.90549 -0.40470
N1G N 0.0929(4) 0.8727(7) -0.4717(7)
H1G H 0.14375 0.86455 -0.34472
H2G H 0.06637 0.90549 -0.59530
Co3F* Co 0.00000 0.87754(19) -0.50000
#END
