
#######################################################################
#
#                 Cambridge Crystallographic Data Centre
#                                CCDC
#
#######################################################################
#
# If this CIF has been generated from an entry in the Cambridge
# Structural Database, then it will include bibliographic, chemical,
# crystal, experimental, refinement or atomic coordinate data resulting
# from the CCDC's data processing and validation procedures.
#
#######################################################################

data_CSD_CIF_MUVLUM
_audit_creation_date 2015-10-22
_audit_creation_method CSD-ConQuest-V1
_database_code_CSD MUVLUM
_database_code_depnum_ccdc_archive 'CCDC 1416214'
_chemical_formula_sum 'C76 H88 N12 O34 S6 Zn4'
_chemical_formula_moiety
;
(C56 H28 N4 O30 S6 Zn4 4-)n,4(C3 H7 N1 O1),4(C2 H8 N1 1+)
;
_journal_coden_Cambridge 208
_journal_volume 233
_journal_year 2016
_journal_page_first 143
_journal_name_full 'J.Solid State Chem. '
loop_
_publ_author_name
"Shu-Nan Sheng"
"Yi Han"
"Bin Wang"
"Cui Zhao"
"Fan Yang"
"Min-Jian Zhao"
"Ya-Bo Xie"
"Jian-Rong Li"
_chemical_name_systematic
;
catena-[tetrakis(dimethylammonium) 
tris(\m-4,8-disulfonatonaphthalene-2,6-dicarboxylato)-bis(\m-4,4'-bipyridine)-
tetra-zinc unknown solvate]
;
_cell_volume   2567.835
_exptl_crystal_colour 'colorless'
_exptl_crystal_density_diffrn 1.402
_exptl_crystal_description 'block'
_diffrn_ambient_temperature 100.0
_refine_special_details
;
The SQUEEZE/PLATON program has been used to model some disorder.

;
#These two values have been output from a single CSD field.
_refine_ls_R_factor_gt 0.0563
_refine_ls_wR_factor_gt 0.0563
_symmetry_cell_setting triclinic
_symmetry_space_group_name_H-M 'P -1'
_symmetry_Int_Tables_number 2
loop_
_symmetry_equiv_pos_site_id
_symmetry_equiv_pos_as_xyz
1 x,y,z
2 -x,-y,-z
_cell_length_a 12.6390(3)
_cell_length_b 13.9706(4)
_cell_length_c 16.2850(4)
_cell_angle_alpha 68.414(3)
_cell_angle_beta 83.532(2)
_cell_angle_gamma 73.825(2)
_cell_formula_units_Z 1
loop_
_atom_type_symbol
_atom_type_radius_bond
C 0.68
H 0.23
N 0.68
O 0.68
S 1.02
Zn 1.22
loop_
_atom_site_label
_atom_site_type_symbol
_atom_site_fract_x
_atom_site_fract_y
_atom_site_fract_z
Zn1 Zn 0.68077(3) 0.54891(3) 0.84100(3)
Zn2 Zn 0.63786(3) 0.74166(3) 0.92062(3)
S1 S 0.26386(6) 0.38358(6) 0.87002(6)
S2 S 0.06071(6) 0.86041(6) 0.93991(6)
S3 S 0.51554(10) 0.82020(7) 0.39793(7)
O1 O -0.17111(17) 0.52810(17) 0.87826(17)
O2 O -0.20567(18) 0.68120(18) 0.90207(17)
O3 O 0.1997(2) 0.3133(2) 0.8685(2)
O4 O 0.3200(2) 0.4280(2) 0.78764(17)
O5 O 0.34227(19) 0.33447(19) 0.94334(17)
O6 O -0.0026(2) 0.8176(2) 1.0189(2)
O7 O 0.1263(2) 0.9254(2) 0.9503(2)
O8 O -0.0049(2) 0.9102(2) 0.8606(2)
O9 O 0.53876(17) 0.57157(18) 0.90442(16)
O10 O 0.48959(18) 0.7200(2) 0.93747(18)
O11 O 0.6475(2) 0.65965(19) 0.72661(17)
O12 O 0.6117(2) 0.79014(19) 0.78203(17)
O13 O 0.5524(4) 0.7054(2) 0.4384(2)
O14 O 0.5843(3) 0.8663(3) 0.3251(2)
O15 O 0.3988(3) 0.8579(3) 0.3757(2)
N1 N 0.6827(2) 0.4067(2) 0.83693(19)
N2 N 0.6394(2) -0.1104(2) 0.9096(2)
C1 C 0.7236(3) -0.0957(3) 0.9434(3)
H1 H 0.77510 -0.15490 0.97790
C2 C -0.1418(2) 0.6008(2) 0.8914(2)
C3 C 0.7359(3) 0.0043(3) 0.9284(3)
H2 H 0.79470 0.01190 0.95280
C4 C -0.0209(2) 0.5906(2) 0.8946(2)
C5 C 0.1235(3) 0.6643(2) 0.9128(2)
C6 C 0.0580(3) 0.5018(2) 0.8850(2)
H3 H 0.03560 0.44830 0.87620
C7 C 0.3177(2) 0.5697(2) 0.9076(2)
H4 H 0.37130 0.51160 0.90160
C8 C 0.1679(3) 0.4942(2) 0.8887(2)
C9 C 0.2045(2) 0.5753(2) 0.9028(2)
C10 C 0.5762(3) 0.8357(3) 0.6311(2)
C11 C 0.0104(3) 0.6698(3) 0.9083(2)
H5 H -0.04300 0.72780 0.91480
C12 C 0.3485(2) 0.6494(3) 0.9211(2)
C13 C 0.2691(3) 0.7382(3) 0.9309(2)
H6 H 0.29120 0.79150 0.94030
C14 C 0.1587(3) 0.7459(3) 0.9266(2)
C15 C 0.4683(3) 0.6466(3) 0.9213(2)
C16 C 0.5664(3) -0.0246(3) 0.8592(2)
H7 H 0.50910 -0.03460 0.83480
C17 C 0.6600(3) 0.0938(2) 0.8766(2)
C18 C 0.5729(3) 0.0778(3) 0.8421(2)
H8 H 0.51980 0.13560 0.80780
C19 C 0.6695(3) 0.2026(2) 0.8596(2)
C20 C 0.7707(3) 0.2229(3) 0.8641(2)
H9 H 0.83510 0.16830 0.87440
C21 C 0.7736(3) 0.3248(3) 0.8532(2)
H10 H 0.84100 0.33740 0.85710
C22 C 0.5863(3) 0.3878(3) 0.8299(3)
H11 H 0.52340 0.44420 0.81760
C23 C 0.5766(3) 0.2882(3) 0.8400(3)
H12 H 0.50850 0.27830 0.83380
C24 C 0.6151(3) 0.7571(3) 0.7201(2)
C25 C 0.5683(3) 0.7998(3) 0.5618(3)
H13 H 0.59030 0.72730 0.57110
C26 C 0.5288(3) 0.8707(3) 0.4816(3)
C27 C 0.4961(3) 0.9821(3) 0.4651(2)
C28 C 0.5441(3) 0.9417(3) 0.6180(2)
H14 H 0.54860 0.96450 0.66410
O16 O 0.8258(7) 0.2279(7) 0.6501(5)
N3 N 0.7137(10) 0.3970(7) 0.6150(6)
C29 C 0.7317(10) 0.2946(7) 0.6353(6)
H15 H 0.67090 0.26790 0.63940
C30 C 0.8008(16) 0.4495(12) 0.6107(11)
H16 H 0.81140 0.44890 0.66830
H17 H 0.77980 0.52180 0.57050
H18 H 0.86820 0.41230 0.59030
C31 C 0.5954(14) 0.4647(9) 0.5987(7)
H19 H 0.57760 0.48420 0.53790
H20 H 0.58770 0.52790 0.61180
H21 H 0.54650 0.42480 0.63600
N4 N 0.1253(5) 0.1613(6) 0.8289(5)
H22 H 0.09850 0.13360 0.88370
H23 H 0.12120 0.23000 0.81910
C32 C 0.0565(7) 0.1578(8) 0.7676(6)
H24 H 0.09830 0.15440 0.71530
H25 H -0.00380 0.22060 0.75250
H26 H 0.02830 0.09590 0.79350
C33 C 0.2411(5) 0.1052(5) 0.8267(5)
H27 H 0.27260 0.13750 0.77010
H28 H 0.24710 0.03190 0.83630
H29 H 0.27990 0.10940 0.87210
N5 N 0.1418(5) 0.9855(7) 0.3512(4)
H30 H 0.15890 0.92500 0.33920
H31 H 0.17470 0.97060 0.40230
C34 C 0.1893(4) 1.0613(6) 0.2829(4)
H32 H 0.15310 1.08100 0.22810
H33 H 0.26630 1.03010 0.27690
H34 H 0.18010 1.12340 0.29800
C35 C 0.0251(7) 1.0145(12) 0.3653(7)
H35 H -0.01180 1.01270 0.31770
H36 H 0.00300 1.08500 0.36750
H37 H 0.00600 0.96510 0.42000
O17 O 0.2127(6) 0.971(1) 0.5165(5)
N6 N 0.2887(13) 0.8092(15) 0.6496(12)
C36 C 0.2572(11) 0.8733(13) 0.5507(9)
H38 H 0.27340 0.83480 0.51290
C37 C 0.2721(10) 0.8979(14) 0.6786(12)
H39 H 0.33820 0.89280 0.70560
H40 H 0.21250 0.89690 0.72080
H41 H 0.25470 0.96310 0.62880
C38 C 0.3411(14) 0.7003(14) 0.6626(12)
H42 H 0.32660 0.65670 0.72160
H43 H 0.41910 0.69140 0.65370
H44 H 0.31290 0.67960 0.62120
S3A S 0.48446(10) 1.17980(7) 0.60207(7)
O11A O 0.3525(2) 1.34035(19) 0.27339(17)
O12A O 0.3883(2) 1.20986(19) 0.21797(17)
O13A O 0.4476(4) 1.2946(2) 0.5616(2)
O14A O 0.4157(3) 1.1337(3) 0.6749(2)
O15A O 0.6012(3) 1.1421(3) 0.6243(2)
C10A C 0.4238(3) 1.1643(3) 0.3689(2)
C24A C 0.3849(3) 1.2429(3) 0.2799(2)
C25A C 0.4317(3) 1.2002(3) 0.4382(3)
H13A H 0.40970 1.27270 0.42890
C26A C 0.4712(3) 1.1293(3) 0.5184(3)
C27A C 0.5039(3) 1.0179(3) 0.5349(2)
C28A C 0.4559(3) 1.0583(3) 0.3820(2)
H14A H 0.45140 1.03550 0.33590
Zn1A Zn 0.31923(3) 0.45109(3) 1.15900(3)
Zn2A Zn 0.36214(3) 0.25834(3) 1.07938(3)
S1A S 0.73614(6) 0.61642(6) 1.12998(6)
S2A S 0.93929(6) 0.13959(6) 1.06009(6)
O1A O 1.17111(17) 0.47190(17) 1.12174(17)
O2A O 1.20567(18) 0.31880(18) 1.09793(17)
O3A O 0.8003(2) 0.6867(2) 1.1315(2)
O4A O 0.6800(2) 0.5720(2) 1.21236(17)
O5A O 0.65773(19) 0.66553(19) 1.05666(17)
O6A O 1.0026(2) 0.1824(2) 0.9811(2)
O7A O 0.8737(2) 0.0746(2) 1.0497(2)
O8A O 1.0049(2) 0.0898(2) 1.1394(2)
O9A O 0.46124(17) 0.42843(18) 1.09558(16)
O10A O 0.51041(18) 0.2800(2) 1.06253(18)
N1A N 0.3173(2) 0.5933(2) 1.16307(19)
N2A N 0.3606(2) 1.1104(2) 1.0904(2)
C1A C 0.2764(3) 1.0957(3) 1.0566(3)
H1A H 0.22490 1.15490 1.02210
C2A C 1.1418(2) 0.3992(2) 1.1086(2)
C3A C 0.2641(3) 0.9957(3) 1.0716(3)
H2A H 0.20530 0.98810 1.04720
C4A C 1.0209(2) 0.4094(2) 1.1054(2)
C5A C 0.8765(3) 0.3357(2) 1.0872(2)
C6A C 0.9420(3) 0.4982(2) 1.1150(2)
H3A H 0.96440 0.55170 1.12380
C7A C 0.6823(2) 0.4303(2) 1.0924(2)
H4A H 0.62870 0.48840 1.09840
C8A C 0.8321(3) 0.5058(2) 1.1113(2)
C9A C 0.7955(2) 0.4247(2) 1.0972(2)
C11A C 0.9896(3) 0.3302(3) 1.0917(2)
H5A H 1.04300 0.27220 1.08520
C12A C 0.6515(2) 0.3506(3) 1.0789(2)
C13A C 0.7309(3) 0.2618(3) 1.0691(2)
H6A H 0.70880 0.20850 1.05970
C14A C 0.8413(3) 0.2541(3) 1.0734(2)
C15A C 0.5317(3) 0.3534(3) 1.0787(2)
C16A C 0.4336(3) 1.0246(3) 1.1408(2)
H7A H 0.49090 1.03460 1.16520
C17A C 0.3400(3) 0.9062(2) 1.1234(2)
C18A C 0.4271(3) 0.9222(3) 1.1579(2)
H8A H 0.48020 0.86440 1.19220
C19A C 0.3305(3) 0.7974(2) 1.1404(2)
C20A C 0.2293(3) 0.7771(3) 1.1359(2)
H9A H 0.16490 0.83170 1.12560
C21A C 0.2264(3) 0.6752(3) 1.1468(2)
H10A H 0.15900 0.66260 1.14290
C22A C 0.4137(3) 0.6122(3) 1.1701(3)
H11A H 0.47660 0.55580 1.18240
C23A C 0.4234(3) 0.7118(3) 1.1600(3)
H12A H 0.49150 0.72170 1.16620
Zn1* Zn -0.31923(3) 0.54891(3) 0.84100(3)
Zn1A* Zn 0.31923(3) 1.45109(3) 0.15900(3)
Zn1A** Zn 1.31923(3) 0.45109(3) 1.15900(3)
Zn2* Zn -0.36214(3) 0.74166(3) 0.92062(3)
Zn2** Zn 0.63786(3) -0.25834(3) 0.92062(3)
Zn2A* Zn 0.36214(3) 1.25834(3) 0.07938(3)
Zn2A** Zn 0.36214(3) 1.25834(3) 1.07938(3)
Zn2A*** Zn 1.36214(3) 0.25834(3) 1.07938(3)
O1* O 0.82889(17) 0.52810(17) 0.87826(17)
O1A* O 0.17111(17) 0.47190(17) 1.12174(17)
O2* O 0.79433(18) 0.68120(18) 0.90207(17)
O2A* O 0.20567(18) 0.31880(18) 1.09793(17)
O11A* O 0.3525(2) 0.34035(19) 1.27339(17)
O12A* O 0.3883(2) 0.20986(19) 1.21797(17)
N2* N 0.6394(2) 0.8896(2) 0.9096(2)
N2A* N 0.3606(2) 0.1104(2) 1.0904(2)
#END
