
#######################################################################
#
#                 Cambridge Crystallographic Data Centre
#                                CCDC
#
#######################################################################
#
# If this CIF has been generated from an entry in the Cambridge
# Structural Database, then it will include bibliographic, chemical,
# crystal, experimental, refinement or atomic coordinate data resulting
# from the CCDC's data processing and validation procedures.
#
#######################################################################

data_CSD_CIF_MUWJUM
_audit_creation_date 2020-08-13
_audit_creation_method CSD-ConQuest-V1
_database_code_CSD MUWJUM
_database_code_depnum_ccdc_archive 'CCDC 1987752'
_chemical_formula_sum 'C24 H41.04 Lu2 Ni3 O38.52'
_chemical_formula_moiety
;
2(C12 H12 Lu1 Ni1 O15 1-)n,H12 Ni1 O6 2+,2.52(H2 O1)
;
_journal_coden_Cambridge 1350
_journal_volume 22
_journal_year 2020
_journal_page_first 5638
_journal_name_full 'CrystEngComm '
loop_
_publ_author_name
"F.Igoa"
"M.Romero"
"G.Peinado"
"J.Castiglioni"
"J.Gonzalez-Platas"
"R.Faccio"
"L.Suescun"
"C.Kremer"
"J.Torres"
_chemical_name_systematic
;
 catena-[hexa-aqua-nickel(ii) 
bis(tris(-2,2'-oxydiacetato)-lutetium(iii)-nickel(ii)) hydrate]
;
_cell_volume  16186.597
_exptl_crystal_colour 'light green'
_exptl_crystal_density_diffrn 2.408
_exptl_crystal_description 'cubic'
_diffrn_ambient_temperature 298
#These two values have been output from a single CSD field.
_refine_ls_R_factor_gt 0.0279
_refine_ls_wR_factor_gt 0.0279
_symmetry_cell_setting cubic
_symmetry_space_group_name_H-M 'F d -3 c'
_symmetry_Int_Tables_number 228
loop_
_symmetry_equiv_pos_site_id
_symmetry_equiv_pos_as_xyz
1 x,y,z
2 1/4-x,3/4-y,1/2+z
3 3/4-x,1/2+y,1/4-z
4 1/2+x,1/4-y,3/4-z
5 z,x,y
6 1/2+z,1/4-x,3/4-y
7 1/4-z,3/4-x,1/2+y
8 3/4-z,1/2+x,1/4-y
9 y,z,x
10 3/4-y,1/2+z,1/4-x
11 1/2+y,1/4-z,3/4-x
12 1/4-y,3/4-z,1/2+x
13 3/4+y,1/4+x,-z
14 1/2-y,1/2-x,1/2-z
15 1/4+y,-x,3/4+z
16 -y,3/4+x,1/4+z
17 3/4+x,1/4+z,-y
18 -x,3/4+z,1/4+y
19 1/2-x,1/2-z,1/2-y
20 1/4+x,-z,3/4+y
21 3/4+z,1/4+y,-x
22 1/4+z,-y,3/4+x
23 -z,3/4+y,1/4+x
24 1/2-z,1/2-y,1/2-x
25 x,1/2+y,1/2+z
26 1/4-x,1/4-y,z
27 3/4-x,y,3/4-z
28 1/2+x,3/4-y,1/4-z
29 z,1/2+x,1/2+y
30 1/2+z,3/4-x,1/4-y
31 1/4-z,1/4-x,y
32 3/4-z,x,3/4-y
33 y,1/2+z,1/2+x
34 3/4-y,z,3/4-x
35 1/2+y,3/4-z,1/4-x
36 1/4-y,1/4-z,x
37 3/4+y,3/4+x,1/2-z
38 1/2-y,-x,-z
39 1/4+y,1/2-x,1/4+z
40 -y,1/4+x,3/4+z
41 3/4+x,3/4+z,1/2-y
42 -x,1/4+z,3/4+y
43 1/2-x,-z,-y
44 1/4+x,1/2-z,1/4+y
45 3/4+z,3/4+y,1/2-x
46 1/4+z,1/2-y,1/4+x
47 -z,1/4+y,3/4+x
48 1/2-z,-y,-x
49 1/2+x,y,1/2+z
50 3/4-x,3/4-y,z
51 1/4-x,1/2+y,3/4-z
52 x,1/4-y,1/4-z
53 1/2+z,x,1/2+y
54 z,1/4-x,1/4-y
55 3/4-z,3/4-x,y
56 1/4-z,1/2+x,3/4-y
57 1/2+y,z,1/2+x
58 1/4-y,1/2+z,3/4-x
59 y,1/4-z,1/4-x
60 3/4-y,3/4-z,x
61 1/4+y,1/4+x,1/2-z
62 -y,1/2-x,-z
63 3/4+y,-x,1/4+z
64 1/2-y,3/4+x,3/4+z
65 1/4+x,1/4+z,1/2-y
66 1/2-x,3/4+z,3/4+y
67 -x,1/2-z,-y
68 3/4+x,-z,1/4+y
69 1/4+z,1/4+y,1/2-x
70 3/4+z,-y,1/4+x
71 1/2-z,3/4+y,3/4+x
72 -z,1/2-y,-x
73 1/2+x,1/2+y,z
74 3/4-x,1/4-y,1/2+z
75 1/4-x,y,1/4-z
76 x,3/4-y,3/4-z
77 1/2+z,1/2+x,y
78 z,3/4-x,3/4-y
79 3/4-z,1/4-x,1/2+y
80 1/4-z,x,1/4-y
81 1/2+y,1/2+z,x
82 1/4-y,z,1/4-x
83 y,3/4-z,3/4-x
84 3/4-y,1/4-z,1/2+x
85 1/4+y,3/4+x,-z
86 -y,-x,1/2-z
87 3/4+y,1/2-x,3/4+z
88 1/2-y,1/4+x,1/4+z
89 1/4+x,3/4+z,-y
90 1/2-x,1/4+z,1/4+y
91 -x,-z,1/2-y
92 3/4+x,1/2-z,3/4+y
93 1/4+z,3/4+y,-x
94 3/4+z,1/2-y,3/4+x
95 1/2-z,1/4+y,1/4+x
96 -z,-y,1/2-x
97 -x,-y,-z
98 -1/4+x,-3/4+y,-1/2-z
99 -3/4+x,-1/2-y,-1/4+z
100 -1/2-x,-1/4+y,-3/4+z
101 -z,-x,-y
102 -1/2-z,-1/4+x,-3/4+y
103 -1/4+z,-3/4+x,-1/2-y
104 -3/4+z,-1/2-x,-1/4+y
105 -y,-z,-x
106 -3/4+y,-1/2-z,-1/4+x
107 -1/2-y,-1/4+z,-3/4+x
108 -1/4+y,-3/4+z,-1/2-x
109 -3/4-y,-1/4-x,z
110 -1/2+y,-1/2+x,-1/2+z
111 -1/4-y,x,-3/4-z
112 y,-3/4-x,-1/4-z
113 -3/4-x,-1/4-z,y
114 x,-3/4-z,-1/4-y
115 -1/2+x,-1/2+z,-1/2+y
116 -1/4-x,z,-3/4-y
117 -3/4-z,-1/4-y,x
118 -1/4-z,y,-3/4-x
119 z,-3/4-y,-1/4-x
120 -1/2+z,-1/2+y,-1/2+x
121 -x,-1/2-y,-1/2-z
122 -1/4+x,-1/4+y,-z
123 -3/4+x,-y,-3/4+z
124 -1/2-x,-3/4+y,-1/4+z
125 -z,-1/2-x,-1/2-y
126 -1/2-z,-3/4+x,-1/4+y
127 -1/4+z,-1/4+x,-y
128 -3/4+z,-x,-3/4+y
129 -y,-1/2-z,-1/2-x
130 -3/4+y,-z,-3/4+x
131 -1/2-y,-3/4+z,-1/4+x
132 -1/4+y,-1/4+z,-x
133 -3/4-y,-3/4-x,-1/2+z
134 -1/2+y,x,z
135 -1/4-y,-1/2+x,-1/4-z
136 y,-1/4-x,-3/4-z
137 -3/4-x,-3/4-z,-1/2+y
138 x,-1/4-z,-3/4-y
139 -1/2+x,z,y
140 -1/4-x,-1/2+z,-1/4-y
141 -3/4-z,-3/4-y,-1/2+x
142 -1/4-z,-1/2+y,-1/4-x
143 z,-1/4-y,-3/4-x
144 -1/2+z,y,x
145 -1/2-x,-y,-1/2-z
146 -3/4+x,-3/4+y,-z
147 -1/4+x,-1/2-y,-3/4+z
148 -x,-1/4+y,-1/4+z
149 -1/2-z,-x,-1/2-y
150 -z,-1/4+x,-1/4+y
151 -3/4+z,-3/4+x,-y
152 -1/4+z,-1/2-x,-3/4+y
153 -1/2-y,-z,-1/2-x
154 -1/4+y,-1/2-z,-3/4+x
155 -y,-1/4+z,-1/4+x
156 -3/4+y,-3/4+z,-x
157 -1/4-y,-1/4-x,-1/2+z
158 y,-1/2+x,z
159 -3/4-y,x,-1/4-z
160 -1/2+y,-3/4-x,-3/4-z
161 -1/4-x,-1/4-z,-1/2+y
162 -1/2+x,-3/4-z,-3/4-y
163 x,-1/2+z,y
164 -3/4-x,z,-1/4-y
165 -1/4-z,-1/4-y,-1/2+x
166 -3/4-z,y,-1/4-x
167 -1/2+z,-3/4-y,-3/4-x
168 z,-1/2+y,x
169 -1/2-x,-1/2-y,-z
170 -3/4+x,-1/4+y,-1/2-z
171 -1/4+x,-y,-1/4+z
172 -x,-3/4+y,-3/4+z
173 -1/2-z,-1/2-x,-y
174 -z,-3/4+x,-3/4+y
175 -3/4+z,-1/4+x,-1/2-y
176 -1/4+z,-x,-1/4+y
177 -1/2-y,-1/2-z,-x
178 -1/4+y,-z,-1/4+x
179 -y,-3/4+z,-3/4+x
180 -3/4+y,-1/4+z,-1/2-x
181 -1/4-y,-3/4-x,z
182 y,x,-1/2+z
183 -3/4-y,-1/2+x,-3/4-z
184 -1/2+y,-1/4-x,-1/4-z
185 -1/4-x,-3/4-z,y
186 -1/2+x,-1/4-z,-1/4-y
187 x,z,-1/2+y
188 -3/4-x,-1/2+z,-3/4-y
189 -1/4-z,-3/4-y,x
190 -3/4-z,-1/2+y,-3/4-x
191 -1/2+z,-1/4-y,-1/4-x
192 z,y,-1/2+x
_cell_length_a 25.296(5)
_cell_length_b 25.296(5)
_cell_length_c 25.296(5)
_cell_angle_alpha 90
_cell_angle_beta 90
_cell_angle_gamma 90
_cell_formula_units_Z 16
loop_
_atom_type_symbol
_atom_type_radius_bond
C 0.68
H 0.23
Lu 1.87
Ni 1.24
O 0.68
loop_
_atom_site_label
_atom_site_type_symbol
_atom_site_fract_x
_atom_site_fract_y
_atom_site_fract_z
Lu1 Lu 0.50000 0.25000 0.50000
C1 C 0.49643(12) 0.37784(15) 0.50830(15)
C2 C 0.55508(14) 0.37132(14) 0.50230(16)
H1 H 0.5735(13) 0.3858(14) 0.5324(8)
H2 H 0.5681(15) 0.3872(14) 0.4702(7)
O1 O 0.46890(9) 0.33602(9) 0.50866(10)
Ni1 Ni 0.50000 0.50000 0.50000
O2 O 0.47677(9) 0.42275(9) 0.51321(9)
O3 O 0.56707(9) 0.31707(9) 0.50000
Ni2 Ni 0.37500 0.37500 0.37500
O4 O 0.37500 0.37500 0.45547(15)
H3 H 0.4011(3) 0.3718(18) 0.4747(7)
O5 O 0.37500 0.37500 0.5822(6)
C1FC C 0.62784(12) 0.24643(15) 0.49170(15)
C2FC C 0.62132(14) 0.30508(14) 0.49770(16)
H1FC H 0.6358(13) 0.3235(14) 0.4676(8)
H2FC H 0.6372(15) 0.3181(14) 0.5298(7)
O1FC O 0.58602(9) 0.21890(9) 0.49134(10)
O2FC O 0.67275(9) 0.22677(9) 0.48679(9)
C1GB C 0.37216(12) 0.24170(15) 0.49643(15)
C2GB C 0.37868(14) 0.24770(14) 0.55508(16)
H1GB H 0.3642(13) 0.2176(14) 0.5735(8)
H2GB H 0.3628(15) 0.2798(14) 0.5681(7)
O1GB O 0.41398(9) 0.24134(9) 0.4689(1)
O2GB O 0.32725(9) 0.23679(9) 0.47677(9)
O3Q O 0.43293(9) 0.25000(9) 0.56707
C1Q C 0.50357(12) 0.25830(15) 0.62784(15)
C2Q C 0.44492(14) 0.25230(14) 0.62132(16)
H1Q H 0.4265(13) 0.2824(14) 0.6358(8)
H2Q H 0.4319(15) 0.2202(14) 0.6372(7)
O1Q O 0.53110(9) 0.25866(9) 0.58602(10)
O2Q O 0.52323(9) 0.26321(9) 0.67275(9)
C1YB C 0.50830(12) 0.25357(15) 0.37216(15)
C2YB C 0.50230(14) 0.19492(14) 0.37868(16)
H1YB H 0.5324(13) 0.1765(14) 0.3642(8)
H2YB H 0.4702(15) 0.1819(14) 0.3628(7)
O1YB O 0.50866(9) 0.28110(9) 0.41398(10)
O2YB O 0.51321(9) 0.27323(9) 0.32725(9)
O3SB O 0.50000(9) 0.18293(9) 0.43293
C1SB C 0.49170(12) 0.12216(15) 0.50357(15)
C2SB C 0.49770(14) 0.12868(14) 0.44492(16)
H1SB H 0.4676(13) 0.1142(14) 0.4265(8)
H2SB H 0.5298(15) 0.1128(14) 0.4319(7)
O1SB O 0.49134(9) 0.16398(9) 0.5311(1)
O2SB O 0.48679(9) 0.07725(9) 0.52323(9)
Ni1O Ni 0.50000 0.25000 0.75000
Ni1WA Ni 0.25000 0.25000 0.50000
Ni1IB Ni 0.50000 0.00000 0.50000
Ni1WB Ni 0.50000 0.25000 0.25000
Ni1FC Ni 0.75000 0.25000 0.50000
O2D O 0.51321(9) 0.47677(9) 0.42275(9)
O2H O 0.42275(9) 0.51321(9) 0.47677(9)
O2RC O 0.52323(9) 0.57725(9) 0.48679(9)
O2VC O 0.48679(9) 0.52323(9) 0.57725(9)
O2ZC O 0.57725(9) 0.48679(9) 0.52323(9)
H3WA H 0.3489(3) 0.3782(18) 0.4747(7)
O4D O 0.45547 0.37500 0.37500(15)
H3D H 0.4747(3) 0.4011(18) 0.3718(7)
H3YB H 0.4747(3) 0.3489(18) 0.3782(7)
O4H O 0.37500 0.45547 0.37500(15)
H3H H 0.3718(3) 0.4747(18) 0.4011(7)
H3GA H 0.3782(3) 0.4747(18) 0.3489(7)
O4Z O 0.37500 0.37500 0.29453(15)
H3Z H 0.3489(3) 0.3718(18) 0.2753(7)
H3WB H 0.4011(3) 0.3782(18) 0.2753(7)
O4EA O 0.29453 0.37500 0.37500(15)
H3EA H 0.2753(3) 0.4011(18) 0.3782(7)
H3BB H 0.2753(3) 0.3489(18) 0.3718(7)
O4GB O 0.37500 0.29453 0.37500(15)
H3GB H 0.3782(3) 0.2753(18) 0.4011(7)
H3DC H 0.3718(3) 0.2753(18) 0.3489(7)
#END
