
#######################################################################
#
#                 Cambridge Crystallographic Data Centre
#                                CCDC
#
#######################################################################
#
# If this CIF has been generated from an entry in the Cambridge
# Structural Database, then it will include bibliographic, chemical,
# crystal, experimental, refinement or atomic coordinate data resulting
# from the CCDC's data processing and validation procedures.
#
#######################################################################

data_CSD_CIF_MUWQEB
_audit_creation_date 2010-11-04
_audit_creation_method CSD-ConQuest-V1
_database_code_CSD MUWQEB
_database_code_depnum_ccdc_archive 'CCDC 766493'
_chemical_formula_sum 'C274 H416 Cl3 Fe27 N214 O65 S32'
_chemical_formula_moiety
;
(C18 H42 Fe1 N6 O6 2+)3n,n(C144 H48 Cl3 Fe24 N192 6-),4n(C3 H7 N1 O1),32n(C2 
H6 O1 S1),11n(H2 O1)
;
_journal_coden_Cambridge 1475
_journal_volume 1
_journal_year 2010
_journal_page_first 184
_journal_name_full 'Chemical Science '
loop_
_publ_author_name
"K.Sumida"
"S.Horike"
"S.S.Kaye"
"Z.R.Herm"
"W.L.Queen"
"C.M.Brown"
"F.Grandjean"
"G.J.Long"
"A.Dailly"
"J.R.Long"
_chemical_name_systematic
;
catena-[tris(hexakis(Dimethylformamide)-iron) 
octakis(\m~6~-1,3,5-benzenetristetrazolato)-tris(\m~4~-chloro)-tetracosa-iron 
dimethylformamide dimethylsulfoxide solvate undecahydrate]
;
_chemical_melting_point 500
_cell_volume   6669.621
_exptl_crystal_colour 'colorless'
_exptl_special_details
;
Melts above 500K
air- and moisture-sensitive
Polymeric structure in which program limits have been exceeded. A complete 2D 
diagram is pending. Further details may be found in the paper and deposited 
cif. No reply to our request for powder data with the framework dosed with 
deuterium
;
_exptl_crystal_description 'block-shaped'
_diffrn_ambient_temperature 100
_refine_special_details
;
The SQUEEZE/PLATON program has been used to model some disordered solvent and 
charge-balancing cations. Two voids of 1043 and 3350 A$3! have been found to 
contain 287 and 1071 electrons respectively. The iron present as Fe4Cl 7+ 
moieties has been modelled with a coordinated oxygen atom. The formula given 
(based on elemental and TG analysis) requires this to be from either 
dimethylsulfoxide or a combination of water and dimethylsulfoxide. No further 
details are given in the paper.
;
#These two values have been output from a single CSD field.
_refine_ls_R_factor_gt 0.0353
_refine_ls_wR_factor_gt 0.0353
_symmetry_cell_setting cubic
_symmetry_space_group_name_H-M 'P m -3 m'
_symmetry_Int_Tables_number 221
loop_
_symmetry_equiv_pos_site_id
_symmetry_equiv_pos_as_xyz
1 x,y,z
2 -x,-y,z
3 -x,y,-z
4 x,-y,-z
5 z,x,y
6 z,-x,-y
7 -z,-x,y
8 -z,x,-y
9 y,z,x
10 -y,z,-x
11 y,-z,-x
12 -y,-z,x
13 y,x,-z
14 -y,-x,-z
15 y,-x,z
16 -y,x,z
17 x,z,-y
18 -x,z,y
19 -x,-z,-y
20 x,-z,y
21 z,y,-x
22 z,-y,x
23 -z,y,x
24 -z,-y,-x
25 -x,-y,-z
26 x,y,-z
27 x,-y,z
28 -x,y,z
29 -z,-x,-y
30 -z,x,y
31 z,x,-y
32 z,-x,y
33 -y,-z,-x
34 y,-z,x
35 -y,z,x
36 y,z,-x
37 -y,-x,z
38 y,x,z
39 -y,x,-z
40 y,-x,-z
41 -x,-z,y
42 x,-z,-y
43 x,z,y
44 -x,z,-y
45 -z,-y,x
46 -z,y,-x
47 z,-y,-x
48 z,y,x
_cell_length_a 18.8235(11)
_cell_length_b 18.8235(11)
_cell_length_c 18.8235(11)
_cell_angle_alpha 90
_cell_angle_beta 90
_cell_angle_gamma 90
_cell_formula_units_Z 1
loop_
_atom_type_symbol
_atom_type_radius_bond
C 0.68
H 0.23
Cl 0.99
Fe 1.52
N 0.68
O 0.68
loop_
_atom_site_label
_atom_site_type_symbol
_atom_site_fract_x
_atom_site_fract_y
_atom_site_fract_z
Fe1 Fe 0.85929(3) 0.00000 0.50000
Cl1 Cl 1.00000 0.00000 0.50000
N1 N 0.86917(8) -0.08129(8) 0.42169(8)
O1 O 0.75020(17) 0.00000 0.50000
N2 N 0.82542(8) -0.09125(8) 0.36667(8)
C1 C 0.85044(15) -0.24031(12) 0.24031(12)
H1 H 0.89190 -0.26070 0.26070
C2 C 0.85119(11) -0.14881(11) 0.33428(16)
C3 C 0.81997(12) -0.18003(12) 0.27058(16)
Fe1A Fe 1.14071(3) 0.00000 0.50000
Fe1L Fe 1.00000(3) -0.14071 0.50000
Fe1D Fe 0.50000(3) -0.14071 0.00000
Fe1T Fe 0.50000(3) 0.00000 0.14071
Fe1I Fe 1.00000(3) -0.50000 0.14071
Fe1P Fe 0.85929(3) -0.50000 0.00000
Fe1M Fe 1.00000(3) 0.14071 0.50000
Fe1T* Fe 1.50000(3) 0.00000 0.14071
Fe1D* Fe 1.50000(3) -0.14071 0.00000
Fe1Q Fe 1.14071(3) -0.50000 0.00000
N1KA N 0.91871(8) -0.13083(8) 0.42169(8)
N1G N 0.57831(8) -0.13083(8) 0.08129(8)
N1SA N 0.57831(8) -0.08129(8) 0.13083(8)
N1J N 0.91871(8) -0.42169(8) 0.13083(8)
N1OA N 0.86917(8) -0.42169(8) 0.08129(8)
N1C N 0.86917(8) 0.08129(8) 0.57831(8)
N1MA N 0.91871(8) 0.13083(8) 0.57831(8)
N1Y N 0.86917(8) -0.08129(8) 0.57831(8)
N1L N 0.91871(8) -0.13083(8) 0.57831(8)
N1Z N 0.86917(8) 0.08129(8) 0.42169(8)
N1N N 0.91871(8) 0.13083(8) 0.42169(8)
N1A N 1.13083(8) 0.08129(8) 0.42169(8)
N1JA N 1.08129(8) 0.13083(8) 0.42169(8)
N1B N 1.13083(8) -0.08129(8) 0.57831(8)
N1LA N 1.08129(8) -0.13083(8) 0.57831(8)
N1X N 1.13083(8) 0.08129(8) 0.57831(8)
N1M N 1.08129(8) 0.13083(8) 0.57831(8)
N1AA N 1.13083(8) -0.08129(8) 0.42169(8)
N1O N 1.08129(8) -0.13083(8) 0.42169(8)
N1DA N 1.42169(8) -0.13083(8) 0.08129(8)
N1T N 1.42169(8) -0.08129(8) 0.13083(8)
N1FA N 1.08129(8) -0.42169(8) 0.13083(8)
N1R N 1.13083(8) -0.42169(8) 0.08129(8)
O1A O 1.24980(17) 0.00000 0.50000
O1L O 1.00000(17) -0.24980 0.50000
O1M O 1.00000(17) 0.24980 0.50000
N2KA N 0.90875(8) -0.17458(8) 0.36667(8)
N2G N 0.63333(8) -0.17458(8) 0.09125(8)
N2SA N 0.63333(8) -0.09125(8) 0.17458(8)
N2J N 0.90875(8) -0.36667(8) 0.17458(8)
N2OA N 0.82542(8) -0.36667(8) 0.09125(8)
N2AA N 1.17458(8) -0.09125(8) 0.36667(8)
N2O N 1.09125(8) -0.17458(8) 0.36667(8)
N2DA N 1.36667(8) -0.17458(8) 0.09125(8)
N2T N 1.36667(8) -0.09125(8) 0.17458(8)
N2FA N 1.09125(8) -0.36667(8) 0.17458(8)
N2R N 1.17458(8) -0.36667(8) 0.09125(8)
C1J C 0.75969(15) -0.24031(12) 0.14956(12)
C1G C 0.75969(15) -0.14956(12) 0.24031(12)
C1R C 1.14956(15) -0.24031(12) 0.24031(12)
C1T C 1.24031(15) -0.24031(12) 0.14956(12)
C1O C 1.24031(15) -0.14956(12) 0.24031(12)
H1J H 0.73930 -0.26070 0.10810
H1G H 0.73930 -0.10810 0.26070
H1R H 1.10810 -0.26070 0.26070
H1T H 1.26070 -0.26070 0.10810
H1O H 1.26070 -0.10810 0.26070
C2G C 0.66572(11) -0.14881(11) 0.14881(16)
C2J C 0.85119(11) -0.33428(11) 0.14881(16)
C2O C 1.14881(11) -0.14881(11) 0.33428(16)
C2T C 1.33428(11) -0.14881(11) 0.14881(16)
C2R C 1.14881(11) -0.33428(11) 0.14881(16)
C3J C 0.81997(12) -0.27058(12) 0.18003(16)
C3G C 0.72942(12) -0.18003(12) 0.18003(16)
C3O C 1.18003(12) -0.18003(12) 0.27058(16)
C3R C 1.18003(12) -0.27058(12) 0.18003(16)
C3T C 1.27058(12) -0.18003(12) 0.18003(16)
#END
