
#######################################################################
#
#                 Cambridge Crystallographic Data Centre
#                                CCDC
#
#######################################################################
#
# If this CIF has been generated from an entry in the Cambridge
# Structural Database, then it will include bibliographic, chemical,
# crystal, experimental, refinement or atomic coordinate data resulting
# from the CCDC's data processing and validation procedures.
#
#######################################################################

data_CSD_CIF_MUYJIC
_audit_creation_date 2020-08-14
_audit_creation_method CSD-ConQuest-V1
_database_code_CSD MUYJIC
_database_code_depnum_ccdc_archive 'CCDC 2009032'
_chemical_formula_sum 'C93 H68 Co2 N3 O16'
_chemical_formula_moiety
;
(C67 H47 Co2 N2 O12 1-)n,0.5(C22 H18 N2 2+),C15 H12 O4
;
_journal_coden_Cambridge 1267
_journal_volume 235
_journal_year 2020
_journal_page_first 1209
_journal_name_full 'Z.Kristallogr.-New Cryst.Struct. '
loop_
_publ_author_name
"Qian-Qian Tang"
"Shi-Hui Li"
"Zhan-Quan Cheng"
_chemical_name_systematic
;
catena-[hemikis(4,4'-([1,1'-biphenyl]-4,4'-diyl)dipyridin-1-ium) 
(\m-4,4'-([1,1'-biphenyl]-4,4'-diyl)dipyridine)-(\m-5-carboxy-4'-methyl[1,1'-b
iphenyl]-3-carboxylato)-bis(\m-4'-methyl[1,1'-biphenyl]-3,5-dicarboxylato)-di-
cobalt(ii) 4'-methyl[1,1'-biphenyl]-3,5-dicarboxylic acid]
;
_cell_volume   3819.078
_exptl_crystal_colour 'red'
_exptl_crystal_density_diffrn 1.393
_exptl_crystal_description 'block'
_diffrn_ambient_temperature 293
#These two values have been output from a single CSD field.
_refine_ls_R_factor_gt 0.058
_refine_ls_wR_factor_gt 0.058
_symmetry_cell_setting triclinic
_symmetry_space_group_name_H-M 'P -1'
_symmetry_Int_Tables_number 2
loop_
_symmetry_equiv_pos_site_id
_symmetry_equiv_pos_as_xyz
1 x,y,z
2 -x,-y,-z
_cell_length_a 9.9281(4)
_cell_length_b 19.1304(8)
_cell_length_c 22.0724(10)
_cell_angle_alpha 66.036(4)
_cell_angle_beta 87.374(4)
_cell_angle_gamma 85.610(3)
_cell_formula_units_Z 2
loop_
_atom_type_symbol
_atom_type_radius_bond
C 0.68
H 0.23
Co 1.26
N 0.68
O 0.68
loop_
_atom_site_label
_atom_site_type_symbol
_atom_site_fract_x
_atom_site_fract_y
_atom_site_fract_z
Co1 Co 0.91716(4) 0.57489(2) 0.58513(2)
Co2 Co 1.11133(4) 0.68709(2) 0.63519(2)
N1 N 0.7788(3) 0.51376(14) 0.56577(12)
N2 N 0.1081(3) -0.19044(15) 0.60012(13)
O1 O 1.0543(2) 0.49457(13) 0.63187(11)
O2 O 1.1428(2) 0.56670(14) 0.67464(13)
O3 O 1.6211(2) 0.46766(16) 0.77252(13)
O4 O 1.6026(3) 0.35067(16) 0.85050(13)
O5 O 0.9822(2) 0.63692(13) 0.49588(11)
O6 O 1.0970(2) 0.70045(14) 0.53856(11)
O7 O 1.1258(3) 0.66494(16) 0.26412(13)
O8 O 1.2307(3) 0.77027(17) 0.20173(12)
H1 H 1.21870 0.75600 0.17210
O9 O 0.9276(2) 0.68500(13) 0.67523(11)
O10 O 0.8048(2) 0.61980(14) 0.63585(11)
O11 O 0.3208(2) 0.68052(14) 0.63836(11)
O12 O 0.2154(2) 0.67942(14) 0.72764(11)
C1 C 0.6832(3) 0.48056(19) 0.61067(17)
H2 H 0.67630 0.48970 0.64900
C2 C 0.5940(3) 0.43309(19) 0.60238(17)
H3 H 0.52890 0.41130 0.63500
C3 C 0.6005(3) 0.41765(17) 0.54609(15)
C4 C 0.6989(3) 0.45377(18) 0.49950(16)
H4 H 0.70680 0.44650 0.46030
C5 C 0.7850(3) 0.50014(18) 0.51058(16)
H5 H 0.85040 0.52310 0.47850
C6 C 0.5092(3) 0.36465(17) 0.53786(15)
C7 C 0.3922(3) 0.34447(19) 0.57578(17)
H6 H 0.36710 0.36770 0.60470
C8 C 0.3117(3) 0.29076(19) 0.57186(17)
H7 H 0.23300 0.27910 0.59760
C9 C 0.3461(3) 0.25367(18) 0.53000(16)
C10 C 0.4599(3) 0.27602(18) 0.49058(16)
H8 H 0.48330 0.25390 0.46070
C11 C 0.5408(3) 0.33024(18) 0.49386(16)
H9 H 0.61680 0.34380 0.46640
C12 C 0.2721(3) 0.18751(19) 0.53292(17)
C13 C 0.1979(4) 0.1448(2) 0.58876(19)
H10 H 0.18140 0.16280 0.62190
C14 C 0.1477(4) 0.0760(2) 0.5964(2)
H11 H 0.09740 0.04900 0.63420
C15 C 0.1715(4) 0.0471(2) 0.54840(18)
C16 C 0.2380(4) 0.0918(2) 0.49062(18)
H12 H 0.25070 0.07510 0.45660
C17 C 0.2857(4) 0.1611(2) 0.48281(18)
H13 H 0.32800 0.19060 0.44310
C18 C 0.1405(4) -0.0331(2) 0.56263(18)
C19 C 0.0356(4) -0.0700(2) 0.60351(18)
H14 H -0.02670 -0.04260 0.61960
C20 C 0.0218(3) -0.1474(2) 0.62082(17)
H15 H -0.05060 -0.17030 0.64800
C21 C 0.2077(4) -0.1549(2) 0.55893(17)
H16 H 0.26700 -0.18340 0.54260
C22 C 0.2269(4) -0.0780(2) 0.53932(18)
H17 H 0.29780 -0.05610 0.51040
C23 C 0.8205(3) 0.65734(18) 0.67039(15)
C24 C 0.7001(3) 0.66955(18) 0.70870(15)
C25 C 0.7137(3) 0.68874(19) 0.76243(16)
H18 H 0.79870 0.69780 0.77260
C26 C 0.6022(3) 0.6947(2) 0.80132(16)
C27 C 0.4751(3) 0.68693(19) 0.78104(16)
H19 H 0.39910 0.69050 0.80610
C28 C 0.4593(3) 0.67406(18) 0.72438(16)
C29 C 0.5726(3) 0.66196(18) 0.68999(16)
H20 H 0.56300 0.64870 0.65430
C30 C 0.6186(3) 0.7101(2) 0.86147(17)
C31 C 0.7373(4) 0.6905(2) 0.89584(18)
H21 H 0.80970 0.66860 0.88010
C32 C 0.7532(4) 0.7020(2) 0.95273(19)
H22 H 0.83510 0.68720 0.97470
C33 C 0.6497(4) 0.7351(3) 0.9772(2)
C34 C 0.5297(4) 0.7568(3) 0.9426(2)
H23 H 0.45860 0.78020 0.95790
C35 C 0.5135(4) 0.7442(2) 0.8859(2)
H24 H 0.43160 0.75870 0.86390
C36 C 0.3233(3) 0.67744(19) 0.69643(17)
C37 C 0.6662(5) 0.7488(3) 1.0397(2)
H25 H 0.74900 0.72310 1.06080
H26 H 0.59160 0.72920 1.06960
H27 H 0.66850 0.80280 1.02820
C38 C 1.1388(3) 0.50591(19) 0.66769(15)
C39 C 1.2386(3) 0.44104(18) 0.70418(15)
C40 C 1.2135(3) 0.36653(19) 0.71453(16)
H28 H 1.13570 0.35770 0.69750
C41 C 1.3027(3) 0.30460(19) 0.75001(17)
C42 C 1.4170(3) 0.32009(19) 0.77570(17)
H29 H 1.47690 0.27960 0.80020
C43 C 1.4441(3) 0.39424(19) 0.76573(16)
C44 C 1.3552(3) 0.45459(19) 0.72965(15)
H30 H 1.37320 0.50440 0.72230
C45 C 1.2789(4) 0.2252(2) 0.75975(19)
C46 C 1.1584(4) 0.1929(2) 0.7869(2)
H31 H 1.09020 0.22160 0.79850
C47 C 1.1389(6) 0.1168(3) 0.7971(3)
H32 H 1.05730 0.09590 0.81510
C48 C 1.2379(6) 0.0729(3) 0.7810(3)
C49 C 1.3564(5) 0.1045(2) 0.7537(2)
H33 H 1.42370 0.07580 0.74170
C50 C 1.3767(4) 0.1797(2) 0.7438(2)
H34 H 1.45880 0.19990 0.72600
C51 C 1.2149(7) -0.0098(3) 0.7932(3)
H35 H 1.12080 -0.01450 0.78850
H36 H 1.24240 -0.04320 0.83730
H37 H 1.26700 -0.02370 0.76160
C52 C 1.5661(3) 0.4055(2) 0.79842(17)
C53 C 1.0623(3) 0.68736(18) 0.49058(16)
C54 C 1.1188(3) 0.73360(18) 0.42351(15)
C55 C 1.1791(3) 0.80106(19) 0.41258(16)
H38 H 1.18290 0.81630 0.44740
C56 C 1.2334(4) 0.84605(19) 0.35170(17)
C57 C 1.2299(3) 0.8212(2) 0.30045(17)
H39 H 1.26540 0.85060 0.25890
C58 C 1.1736(3) 0.75237(19) 0.31116(16)
C59 C 1.1167(3) 0.70899(19) 0.37216(15)
H40 H 1.07750 0.66380 0.37880
C60 C 1.3005(4) 0.9169(2) 0.34262(17)
C61 C 1.3990(4) 0.9134(2) 0.38644(19)
H41 H 1.42260 0.86670 0.42100
C62 C 1.4627(4) 0.9777(2) 0.3798(2)
H42 H 1.52980 0.97310 0.40950
C63 C 1.4299(5) 1.0474(2) 0.3312(2)
C64 C 1.3310(5) 1.0517(3) 0.2874(2)
H43 H 1.30660 1.09870 0.25350
C65 C 1.2675(5) 0.9868(2) 0.2934(2)
H44 H 1.20130 0.99120 0.26340
C66 C 1.1736(4) 0.7235(2) 0.25749(17)
C67 C 1.5013(6) 1.1174(3) 0.3241(3)
H45 H 1.44210 1.16250 0.30370
H46 H 1.58120 1.12130 0.29700
H47 H 1.52600 1.11300 0.36710
N3 N -0.1488(4) 0.4747(2) 0.82217(17)
H48 H -0.22040 0.47210 0.80280
C68 C -0.0357(5) 0.4368(3) 0.8171(2)
H49 H -0.03470 0.40550 0.79400
C69 C 0.0815(4) 0.4427(3) 0.8456(2)
H50 H 0.15980 0.41480 0.84150
C70 C 0.0856(4) 0.4884(3) 0.8796(2)
C71 C -0.0353(5) 0.5250(3) 0.8851(3)
H51 H -0.03970 0.55630 0.90820
C72 C -0.1514(5) 0.5163(3) 0.8569(3)
H52 H -0.23260 0.54050 0.86280
C73 C 0.2084(4) 0.4954(3) 0.9118(2)
C74 C 0.3294(4) 0.4593(3) 0.9071(2)
H53 H 0.33650 0.43230 0.88020
C75 C 0.4427(4) 0.4613(3) 0.9409(2)
H54 H 0.52280 0.43520 0.93620
C76 C 0.4400(4) 0.5002(2) 0.9807(2)
C77 C 0.3222(5) 0.5383(3) 0.9836(3)
H55 H 0.31620 0.56700 1.00910
C78 C 0.2078(5) 0.5362(3) 0.9494(2)
H56 H 0.12890 0.56400 0.95260
O13 O 0.0073(4) 0.1995(2) 0.23041(16)
O14 O -0.1499(3) 0.2849(2) 0.17257(14)
H57 H -0.15980 0.29200 0.20670
O15 O -0.2447(3) 0.32085(17) -0.05447(13)
H58 H -0.29000 0.33450 -0.08800
O16 O -0.1473(4) 0.2398(2) -0.09362(14)
C79 C -0.0601(4) 0.2281(3) 0.18183(19)
C80 C -0.0416(4) 0.2069(2) 0.12410(17)
C81 C 0.0533(4) 0.1482(2) 0.12877(19)
H59 H 0.10210 0.12360 0.16750
C82 C 0.0775(4) 0.1250(2) 0.07689(19)
C83 C 0.0034(4) 0.1644(2) 0.01907(18)
H60 H 0.01800 0.15050 -0.01660
C84 C -0.0905(4) 0.2234(2) 0.01366(17)
C85 C -0.1144(4) 0.2447(2) 0.06654(17)
H61 H -0.17880 0.28400 0.06330
C86 C 0.1804(5) 0.0636(2) 0.0811(2)
C87 C 0.3040(5) 0.0572(3) 0.1082(2)
H62 H 0.32330 0.09120 0.12660
C88 C 0.4017(6) 0.0007(3) 0.1089(2)
H63 H 0.48570 -0.00200 0.12710
C89 C 0.3755(6) -0.0513(3) 0.0830(3)
C90 C 0.2540(6) -0.0460(3) 0.0571(3)
H64 H 0.23460 -0.08080 0.03970
C91 C 0.1566(6) 0.0105(3) 0.0557(3)
H65 H 0.07320 0.01270 0.03730
C92 C -0.1635(4) 0.2622(2) -0.05001(19)
C93 C 0.4835(7) -0.1111(3) 0.0813(3)
H66 H 0.48150 -0.11530 0.03950
H67 H 0.46670 -0.15970 0.11650
H68 H 0.57060 -0.09610 0.08680
Co2* Co 0.11133(4) -0.31291(2) 0.63519(2)
Co2** Co 0.11133(4) 0.68709(2) 0.63519(2)
N2* N 1.1081(3) 0.80956(15) 0.60012(13)
O11* O 1.3208(2) 0.68052(14) 0.63836(11)
O12* O 1.2154(2) 0.67942(14) 0.72764(11)
N3A N 1.1488(4) 0.5253(2) 1.17783(17)
H48A H 1.22040 0.52790 1.19720
C68A C 1.0357(5) 0.5632(3) 1.1829(2)
H49A H 1.03470 0.59450 1.20600
C69A C 0.9185(4) 0.5573(3) 1.1544(2)
H50A H 0.84020 0.58520 1.15850
C70A C 0.9144(4) 0.5116(3) 1.1204(2)
C71A C 1.0353(5) 0.4750(3) 1.1149(3)
H51A H 1.03970 0.44370 1.09180
C72A C 1.1514(5) 0.4837(3) 1.1431(3)
H52A H 1.23260 0.45950 1.13720
C73A C 0.7916(4) 0.5046(3) 1.0882(2)
C74A C 0.6706(4) 0.5407(3) 1.0929(2)
H53A H 0.66350 0.56770 1.11980
C75A C 0.5573(4) 0.5387(3) 1.0591(2)
H54A H 0.47720 0.56480 1.06380
C76A C 0.5600(4) 0.4998(2) 1.0193(2)
C77A C 0.6778(5) 0.4617(3) 1.0164(3)
H55A H 0.68380 0.43300 0.99090
C78A C 0.7922(5) 0.4638(3) 1.0506(2)
H56A H 0.87110 0.43600 1.04740
#END
