
#######################################################################
#
#                 Cambridge Crystallographic Data Centre
#                                CCDC
#
#######################################################################
#
# If this CIF has been generated from an entry in the Cambridge
# Structural Database, then it will include bibliographic, chemical,
# crystal, experimental, refinement or atomic coordinate data resulting
# from the CCDC's data processing and validation procedures.
#
#######################################################################

data_CSD_CIF_MUYVIO
_audit_creation_date 2020-08-14
_audit_creation_method CSD-ConQuest-V1
_database_code_CSD MUYVIO
_database_code_depnum_ccdc_archive 'CCDC 1991951'
_chemical_formula_sum 'C68 H60 N4 O24 Zn4'
_chemical_formula_moiety
;
(C60 H28 O24 Zn4 4-)n,4n(C2 H8 N1 1+)
;
_journal_coden_Cambridge 1295
_journal_volume 117
_journal_year 2020
_journal_page_first 107939
_journal_name_full 'Inorg.Chem.Commun. '
loop_
_publ_author_name
"Fan Yu"
"Bing-Qian Hu"
"Bao Li"
_chemical_name_systematic
;
catena-(tetrakis(dimethylammonium) 
tetrakis(\m-1,1'-biphenyl-3,4',5-tricarboxylato)-tetra-zinc)
;
_cell_volume   3651.158
_exptl_crystal_colour 'colorless'
_exptl_crystal_description 'block'
_diffrn_ambient_temperature 100
_refine_special_details
;
The SQUEEZE/PLATON program was used to model the disordered cations.

;
#These two values have been output from a single CSD field.
_refine_ls_R_factor_gt 0.0749
_refine_ls_wR_factor_gt 0.0749
_symmetry_cell_setting monoclinic
_symmetry_space_group_name_H-M 'P 21'
_symmetry_Int_Tables_number 4
loop_
_symmetry_equiv_pos_site_id
_symmetry_equiv_pos_as_xyz
1 x,y,z
2 -x,1/2+y,-z
_cell_length_a 13.6416(11)
_cell_length_b 16.8885(13)
_cell_length_c 16.1092(13)
_cell_angle_alpha 90
_cell_angle_beta 100.332(2)
_cell_angle_gamma 90
_cell_formula_units_Z 2
loop_
_atom_type_symbol
_atom_type_radius_bond
C 0.68
H 0.23
O 0.68
Zn 1.22
loop_
_atom_site_label
_atom_site_type_symbol
_atom_site_fract_x
_atom_site_fract_y
_atom_site_fract_z
Zn1 Zn 0.86884(9) 0.49450(7) 0.56175(8)
Zn2 Zn 0.14352(9) 1.00466(6) 0.94222(8)
Zn3 Zn 0.86683(9) 0.95426(6) 0.81506(8)
Zn4 Zn 0.13919(9) 0.45486(7) 0.69461(8)
O1 O 0.8201(5) 0.4008(4) 0.4960(4)
O2 O 0.1803(5) 0.9095(4) 1.0108(4)
O3 O 0.0858(5) 0.9571(5) 0.8302(4)
O4 O -0.0368(5) 0.8708(5) 0.8009(5)
O5 O 0.9237(5) 0.4555(6) 0.6781(4)
O6 O 0.9095(5) -0.0061(5) 0.4212(4)
O7 O 1.0499(5) 0.3737(5) 0.7294(5)
O8 O 0.0722(5) 0.5028(5) 1.0750(4)
O9 O 0.2571(6) 0.4008(5) 0.6681(5)
O10 O 0.1849(6) 0.5494(5) 0.7550(5)
O11 O 0.7444(6) 0.9129(5) 0.8459(5)
O12 O 0.8267(5) 0.0478(5) 0.7479(4)
O13 O 0.2510(6) 0.0451(5) 0.4101(5)
O14 O 0.7387(7) 0.8473(6) 0.7274(5)
O15 O -0.0499(6) 0.5900(5) 1.0455(5)
O16 O 0.2719(6) 0.3338(5) 0.7897(5)
O17 O 1.0391(6) 0.0730(5) 0.4716(5)
O18 O 0.7309(5) 0.5409(5) 1.0894(4)
O19 O 0.0401(5) 0.8808(4) 1.0576(4)
O20 O 0.2614(6) 0.1111(5) 0.5336(5)
C1 C 0.4496(7) 0.0797(6) 0.4050(6)
H1 H 0.41510 0.04330 0.36510
O21 O 0.7280(6) 0.6096(5) 0.9715(5)
C2 C 0.7087(7) 0.1710(6) 0.4615(6)
O22 O 0.9782(6) 0.3513(5) 0.5292(5)
C3 C 0.5322(7) 0.5769(6) 1.0944(6)
H2 H 0.56510 0.53880 1.13320
C4 C 0.9569(8) 0.3888(6) 0.7041(6)
C5 C 0.5971(7) 0.1530(7) 0.4578(6)
C6 C 0.0841(8) 0.7156(6) 1.0462(6)
H3 H 0.01680 0.72890 1.04790
C7 C 0.4467(7) 0.8576(6) 0.8500(6)
H4 H 0.41180 0.88260 0.88880
C8 C 0.5593(7) 0.3553(6) 0.6597(6)
H5 H 0.59230 0.38250 0.62100
C9 C 0.2965(7) 0.7839(6) 0.7950(6)
C10 C 0.0542(7) 0.8888(6) 0.8134(6)
C11 C 0.8505(8) 0.1802(7) 0.7202(7)
C12 C 0.3971(7) 0.8022(6) 0.7932(6)
C13 C 0.5541(7) 0.2547(6) 0.7651(6)
H6 H 0.58420 0.21220 0.79900
C14 C 0.3882(7) 0.6565(7) 1.0436(6)
C15 C 0.2809(7) 0.6778(6) 1.0435(5)
C16 C 0.2120(7) 0.6166(6) 1.0521(5)
H7 H 0.23380 0.56320 1.05920
C17 C 0.7746(7) 0.1095(6) 0.4503(5)
H8 H 0.74960 0.05790 0.43600
C18 C 0.7134(8) 0.2801(7) 0.7102(6)
C19 C 0.7837(7) 0.3386(7) 0.7058(6)
H9 H 0.76320 0.39240 0.70220
C20 C 0.7019(8) 0.8685(7) 0.7879(6)
C21 C 0.4525(8) 0.7644(7) 0.7380(6)
H10 H 0.42250 0.72460 0.70000
C22 C 0.6105(7) 0.2983(6) 0.7118(6)
C23 C 0.8752(7) 0.1240(6) 0.4599(6)
C24 C 0.3027(8) 0.3576(7) 0.7251(6)
C25 C 0.2503(8) 0.7535(7) 1.0356(6)
H11 H 0.29630 0.79360 1.02690
C26 C 0.2277(7) 0.8401(7) 0.8078(6)
H12 H 0.24930 0.89300 0.81960
C27 C 0.9118(7) 0.2003(6) 0.4752(6)
H13 H 0.98100 0.21080 0.48060
C28 C 0.1600(9) 0.6853(7) 0.7775(7)
C29 C 0.3994(7) 0.1167(6) 0.4629(6)
C30 C 0.0411(7) 0.5724(6) 1.0567(6)
C31 C 0.9457(7) 0.0614(6) 0.4507(6)
C32 C 0.5849(7) 0.6155(6) 1.0375(6)
C33 C 0.1134(8) 0.6354(7) 1.0501(7)
C34 C 0.7496(8) 0.1981(7) 0.7194(7)
H14 H 0.70430 0.15650 0.72490
C35 C 0.5986(7) 0.8430(7) 0.7937(6)
C36 C 0.5482(7) 0.0956(7) 0.4055(6)
H15 H 0.58320 0.06660 0.36950
C37 C 0.8855(7) 0.3202(6) 0.7067(6)
C38 C 0.2594(8) 0.7020(7) 0.7817(6)
H16 H 0.30460 0.66050 0.77610
C39 C 0.6863(7) 0.5899(6) 1.0312(6)
C40 C 0.4415(8) 0.6956(7) 0.9914(6)
H17 H 0.41010 0.73750 0.95740
C41 C 0.4571(8) 0.2754(7) 0.7660(6)
H18 H 0.42220 0.24820 0.80340
C42 C 0.5514(7) 0.7862(6) 0.7403(6)
H19 H 0.58790 0.76050 0.70300
C43 C 0.5476(8) 0.1926(7) 0.5116(7)
H20 H 0.58220 0.23260 0.54670
C44 C 0.4333(7) 0.5947(7) 1.0932(6)
H21 H 0.39590 0.56470 1.12650
C45 C 0.1516(7) 0.7749(6) 1.0399(6)
C46 C 0.2987(8) 0.0908(7) 0.4696(6)
C47 C 0.1253(7) 0.8215(6) 0.8039(6)
C48 C 0.4074(8) 0.3345(7) 0.7147(6)
C49 C 0.1209(7) 0.8613(6) 1.0381(6)
C50 C 0.4500(8) 0.1773(7) 0.5172(7)
H22 H 0.41730 0.20550 0.55540
C51 C 0.8451(7) 0.2607(6) 0.4826(6)
C52 C 0.7436(7) 0.2460(6) 0.4763(6)
H23 H 0.69910 0.28800 0.48230
C53 C 0.5378(7) 0.6769(6) 0.9863(6)
H24 H 0.57200 0.70470 0.94890
C54 C 0.8841(8) 0.0948(6) 0.7273(6)
C55 C 0.4594(7) 0.3742(7) 0.6625(6)
H25 H 0.42740 0.41530 0.62750
C56 C 0.1225(9) 0.6019(8) 0.7608(8)
C57 C 0.9181(8) 0.2418(7) 0.7151(6)
H26 H 0.98660 0.23000 0.71750
C58 C 0.5470(8) 0.8771(7) 0.8510(6)
H27 H 0.57960 0.91390 0.89130
C59 C 0.8865(7) 0.3416(6) 0.5071(6)
C60 C 0.0926(9) 0.7456(7) 0.7873(7)
H28 H 0.02370 0.73380 0.78240
O23 O 0.9667(8) 0.0783(6) 0.7094(10)
O24 O 0.0308(8) 0.5964(7) 0.7274(10)
Zn1A Zn 0.13116(9) -0.00550(7) 0.43825(8)
Zn1A* Zn 1.13116(9) -0.00550(7) 0.43825(8)
Zn2A Zn -0.14352(9) 0.50466(6) 1.05778(8)
Zn2A* Zn 0.85648(9) 0.50466(6) 1.05778(8)
Zn3* Zn -0.13317(9) 0.95426(6) 0.81506(8)
Zn3** Zn 0.86683(9) -0.04574(6) 0.81506(8)
Zn3A Zn 0.13317(9) 0.45426(6) 1.18494(8)
Zn4* Zn 1.13919(9) 0.45486(7) 0.69461(8)
Zn4A Zn 0.86081(9) -0.04514(7) 0.30539(8)
O4* O 0.9632(5) 0.8708(5) 0.8009(5)
O6A O 0.0905(5) 0.4939(5) 0.5788(4)
O7* O 0.0499(5) 0.3737(5) 0.7294(5)
O8A O 0.9278(5) 1.0028(5) 0.9250(4)
O12* O 0.8267(5) 1.0478(5) 0.7479(4)
O13A O 0.7490(6) 0.5451(5) 0.5899(5)
O15A O 0.0499(6) 1.0900(5) 0.9545(5)
O17A O 0.9609(6) 0.5730(5) 0.5284(5)
O18A O 0.2691(5) 1.0409(5) 0.9106(4)
#END
