
#######################################################################
#
#                 Cambridge Crystallographic Data Centre
#                                CCDC
#
#######################################################################
#
# If this CIF has been generated from an entry in the Cambridge
# Structural Database, then it will include bibliographic, chemical,
# crystal, experimental, refinement or atomic coordinate data resulting
# from the CCDC's data processing and validation procedures.
#
#######################################################################

data_CSD_CIF_MUZHUL
_audit_creation_date 2010-11-04
_audit_creation_method CSD-ConQuest-V1
_database_code_CSD MUZHUL
_database_code_depnum_ccdc_archive 'CCDC 723835'
_chemical_formula_sum 'C10 H8 O10 Zn1'
_chemical_formula_moiety
;
(C10 H2 O8 Zn1 2-)n,2n(H3 O1 1+)
;
_journal_coden_Cambridge 29
_journal_volume 636
_journal_year 2010
_journal_page_first 1133
_journal_name_full 'Z.Anorg.Allg.Chem. '
loop_
_publ_author_name
"D.Feng"
"Shuxia Liu"
"Wei Zhang"
"Ping Sun"
"Fengji Ma"
"Chundan Zhang"
_chemical_name_systematic
;
catena-(bis(Oxonium) (\m~4~-1,2,4,5-benzenetetracarboxylato)-zinc)
;
_cell_volume   1754.434
_exptl_crystal_colour 'colorless'
_exptl_crystal_density_diffrn 1.316
_exptl_crystal_description 'block'
_diffrn_ambient_temperature 283
_refine_special_details
;
The oxonium cation is disordered over two sites with occupancies 0.75:0.25.

;
#These two values have been output from a single CSD field.
_refine_ls_R_factor_gt 0.0602
_refine_ls_wR_factor_gt 0.0602
_symmetry_cell_setting monoclinic
_symmetry_space_group_name_H-M 'C 2/c'
_symmetry_Int_Tables_number 15
loop_
_symmetry_equiv_pos_site_id
_symmetry_equiv_pos_as_xyz
1 x,y,z
2 -x,y,1/2-z
3 1/2+x,1/2+y,z
4 1/2-x,1/2+y,1/2-z
5 -x,-y,-z
6 x,-y,-1/2+z
7 -1/2-x,-1/2-y,-z
8 -1/2+x,-1/2-y,-1/2+z
_cell_length_a 9.854(2)
_cell_length_b 10.925(2)
_cell_length_c 16.300(3)
_cell_angle_alpha 90
_cell_angle_beta 91.13(3)
_cell_angle_gamma 90
_cell_formula_units_Z 4
loop_
_atom_type_symbol
_atom_type_radius_bond
C 0.68
H 0.23
O 0.68
Zn 1.42
loop_
_atom_site_label
_atom_site_type_symbol
_atom_site_fract_x
_atom_site_fract_y
_atom_site_fract_z
Zn1 Zn 0.00000 0.97958(7) 0.25000
C1 C -0.3204(5) 1.2847(4) 0.0699(3)
C2 C -0.2150(5) 1.2013(4) 0.0773(3)
C3 C -0.3550(5) 1.3326(4) -0.0068(3)
H1 H -0.42610 1.38830 -0.01140
C4 C -0.3991(5) 1.3336(5) 0.1415(3)
C5 C -0.1760(6) 1.1426(5) 0.1585(3)
O1 O -0.0634(5) 1.0907(5) 0.1619(3)
O2 O -0.3440(4) 1.4139(3) 0.1855(2)
O3 O -0.5164(5) 1.3007(7) 0.1502(3)
O4 O -0.2571(6) 1.1478(5) 0.2142(3)
O5 O 0.2049(14) 0.2162(18) 0.1103(7)
O6? O 1.023(5) 0.440(3) 0.220(2)
Zn1B Zn -0.50000 1.47958(7) 0.25000
Zn1F Zn -0.50000 1.52042(7) -0.25000
Zn1D Zn 0.00000 1.02042(7) -0.25000
C1F C -0.1796(5) 1.2153(4) -0.0699(3)
C2F C -0.2850(5) 1.2987(4) -0.0773(3)
C3F C -0.1450(5) 1.1674(4) 0.0068(3)
H1F H -0.07390 1.11170 0.01140
C4F C -0.1009(5) 1.1664(5) -0.1415(3)
C5F C -0.3240(6) 1.3574(5) -0.1585(3)
O1F O -0.4366(5) 1.4093(5) -0.1619(3)
O1A O 0.0634(5) 1.0907(5) 0.3381(3)
O2F O -0.1560(4) 1.0861(3) -0.1855(2)
O2B O 0.1560(4) 0.9139(3) 0.1855(2)
O2C O -0.1560(4) 0.9139(3) 0.3145(2)
O3F O 0.0164(5) 1.1993(7) -0.1502(3)
O4F O -0.2429(6) 1.3522(5) -0.2142(3)
#END
