
#######################################################################
#
#                 Cambridge Crystallographic Data Centre
#                                CCDC
#
#######################################################################
#
# If this CIF has been generated from an entry in the Cambridge
# Structural Database, then it will include bibliographic, chemical,
# crystal, experimental, refinement or atomic coordinate data resulting
# from the CCDC's data processing and validation procedures.
#
#######################################################################

data_CSD_CIF_NABSEQ
_audit_creation_date 2011-02-28
_audit_creation_method CSD-ConQuest-V1
_database_code_CSD NABSEQ
_database_code_depnum_ccdc_archive 'CCDC 770955'
_chemical_formula_sum 'C24 H76 Cu2 N4 Na4 O44 P4'
_chemical_formula_moiety
;
(H32 Na4 O16 4+)n,2n(C12 H10 Cu1 N2 O8 P2 2-),12n(H2 O1)
;
_journal_coden_Cambridge 9
_journal_volume 49
_journal_year 2010
_journal_page_first 6790
_journal_name_full 'Inorg.Chem. '
loop_
_publ_author_name
"N.Marino"
"A.R.Vortherms"
"A.E.Hoffman"
"R.P.Doyle"
_chemical_name_systematic
;
catena-(octakis(\m~2~-Aqua)-octa-aqua-tetra-sodium 
bis(aqua-(1,10-phenanthroline)-(pyrophosphato)-copper) dodecahydrate)
;
_cell_volume   1446.734
_exptl_crystal_colour 'blue'
_exptl_crystal_density_diffrn 1.685
_exptl_crystal_description 'needle'
_diffrn_ambient_temperature 98
#These two values have been output from a single CSD field.
_refine_ls_R_factor_gt 0.038
_refine_ls_wR_factor_gt 0.038
_symmetry_cell_setting triclinic
_symmetry_space_group_name_H-M 'P -1'
_symmetry_Int_Tables_number 2
loop_
_symmetry_equiv_pos_site_id
_symmetry_equiv_pos_as_xyz
1 x,y,z
2 -x,-y,-z
_cell_length_a 6.9426(5)
_cell_length_b 10.9941(7)
_cell_length_c 19.4209(13)
_cell_angle_alpha 100.248(1)
_cell_angle_beta 90.574(1)
_cell_angle_gamma 97.102(1)
_cell_formula_units_Z 1
loop_
_atom_type_symbol
_atom_type_radius_bond
C 0.68
H 0.23
Cu 1.32
N 0.68
Na 1.45
O 0.68
P 1.05
loop_
_atom_site_label
_atom_site_type_symbol
_atom_site_fract_x
_atom_site_fract_y
_atom_site_fract_z
Cu1 Cu 0.14767(4) 0.54401(3) 0.196338(14)
O1 O 0.4584(3) 0.55461(17) 0.22756(10)
H1 H 0.564(3) 0.6189(19) 0.2313(19)
H2 H 0.526(4) 0.4854(17) 0.2163(19)
N1 N 0.1451(3) 0.3869(2) 0.12297(11)
N2 N 0.2146(3) 0.6248(2) 0.11231(11)
C1 C 0.1101(4) 0.2691(2) 0.13063(13)
H3 H 0.07590 0.25110 0.17530
C2 C 0.1216(4) 0.1695(2) 0.07491(14)
H4 H 0.09810 0.08600 0.08240
C3 C 0.1671(4) 0.1939(3) 0.00961(14)
H5 H 0.17490 0.12740 -0.02840
C4 C 0.2022(4) 0.3187(2) -0.00050(13)
C5 C 0.2472(4) 0.3556(3) -0.06643(13)
H6 H 0.25280 0.29350 -0.10690
C6 C 0.2819(4) 0.4774(3) -0.07180(13)
H7 H 0.31120 0.49920 -0.11610
C7 C 0.2753(3) 0.5744(2) -0.01190(13)
C8 C 0.3149(4) 0.7028(3) -0.01312(14)
H8 H 0.34750 0.73060 -0.05560
C9 C 0.3060(4) 0.7873(2) 0.04733(14)
H9 H 0.33560 0.87400 0.04730
C10 C 0.2525(4) 0.7447(2) 0.10952(13)
H10 H 0.24330 0.80410 0.15090
C11 C 0.2279(3) 0.5405(2) 0.05284(12)
C12 C 0.1906(3) 0.4116(2) 0.05845(13)
P1 P -0.07625(10) 0.48225(6) 0.32606(3)
P2 P -0.08369(9) 0.72932(6) 0.29102(3)
O2 O 0.0658(3) 0.44888(16) 0.26796(9)
O3 O -0.2377(3) 0.37829(18) 0.32536(10)
O4 O 0.0316(3) 0.52864(19) 0.39655(10)
O5 O -0.1795(2) 0.59643(16) 0.30831(9)
O6 O 0.1000(2) 0.70139(15) 0.25095(9)
O7 O -0.0370(3) 0.81856(16) 0.35877(9)
O8 O -0.2388(2) 0.76253(16) 0.24438(9)
Na1 Na 0.50000 0.50000 0.50000
Na2 Na 0.29264(14) 0.21064(9) 0.42939(5)
Na3 Na 0.50000 0.00000 0.50000
O9 O 0.4328(3) 0.58926(18) 0.39348(10)
H11 H 0.2969(15) 0.582(3) 0.3862(15)
H12 H 0.468(4) 0.572(3) 0.3461(7)
O10 O 0.1741(3) 0.39070(16) 0.48251(9)
H13 H 0.106(4) 0.431(3) 0.4528(13)
H14 H 0.097(4) 0.405(3) 0.5224(10)
O11 O 0.6218(3) 0.31835(16) 0.44933(9)
H15 H 0.711(4) 0.336(3) 0.4151(13)
H16 H 0.699(4) 0.276(3) 0.4748(15)
O12 O 0.0095(3) 0.07270(17) 0.40274(10)
H17 H -0.067(5) 0.094(3) 0.3670(13)
H18 H 0.002(5) -0.0139(11) 0.3855(16)
O13 O 0.3185(3) 0.28500(17) 0.31416(10)
H19 H 0.4463(19) 0.326(3) 0.3131(19)
H20 H 0.249(4) 0.346(2) 0.3008(19)
O14 O 0.3452(3) 0.17757(16) 0.54685(9)
H21 H 0.423(4) 0.250(2) 0.5712(15)
H22 H 0.245(3) 0.175(3) 0.5797(14)
O15 O 0.4753(3) 0.05052(16) 0.38876(9)
H23 H 0.580(4) 0.085(3) 0.3642(15)
H24 H 0.440(5) -0.0236(19) 0.3555(14)
O16 O 0.2069(3) -0.15162(17) 0.48092(9)
H25 H 0.128(4) -0.175(3) 0.4397(9)
H26 H 0.113(3) -0.125(3) 0.5129(12)
O17 O 0.2759(3) 0.05105(18) 0.22097(10)
H27 H 0.340(5) 0.001(2) 0.2463(15)
H28 H 0.294(5) 0.1260(17) 0.2542(13)
O18 O 0.7752(3) 0.13544(18) 0.30395(10)
H29 H 0.774(6) 0.2176(13) 0.2962(15)
H30 H 0.794(6) 0.097(2) 0.2572(8)
O19 O 0.5761(3) 0.0810(2) 0.12507(12)
H31 H 0.473(3) 0.054(3) 0.1519(16)
H32 H 0.673(3) 0.037(3) 0.1400(18)
O20 O -0.3746(4) 0.3387(2) 0.18843(12)
H33 H -0.387(5) 0.2501(11) 0.1743(15)
H34 H -0.328(5) 0.343(3) 0.2361(8)
O21 O 0.4246(3) 0.86515(16) 0.27504(10)
H35 H 0.535(3) 0.823(3) 0.2675(19)
H36 H 0.328(3) 0.7950(19) 0.2702(19)
O22 O 0.8797(3) 0.96682(18) 0.18275(10)
H37 H 1.0120(19) 0.985(3) 0.1969(18)
H38 H 0.848(4) 0.895(2) 0.2026(18)
Na2A Na 0.70736(14) 0.78936(9) 0.57061(5)
Na3* Na 0.50000 1.00000 0.50000
O9A O 0.5672(3) 0.41074(18) 0.60652(10)
H11A H 0.7031(15) 0.418(3) 0.6138(15)
H12A H 0.532(4) 0.428(3) 0.6539(7)
O10A O 0.8259(3) 0.60930(16) 0.51749(9)
H13A H 0.894(4) 0.569(3) 0.5472(13)
H14A H 0.903(4) 0.595(3) 0.4776(10)
O11A O 0.3782(3) 0.68165(16) 0.55067(9)
H15A H 0.289(4) 0.664(3) 0.5849(13)
H16A H 0.301(4) 0.724(3) 0.5252(15)
O12A O 0.9905(3) 0.92730(17) 0.59726(10)
H17A H 1.067(5) 0.906(3) 0.6330(13)
H18A H 0.998(5) 1.0139(11) 0.6145(16)
O13A O 0.6815(3) 0.71500(17) 0.68584(10)
H19A H 0.5537(19) 0.674(3) 0.6869(19)
H20A H 0.751(4) 0.654(2) 0.6992(19)
O14A O 0.6548(3) 0.82243(16) 0.45315(9)
O14A* O 0.6548(3) -0.17757(16) 0.45315(9)
H21A H 0.577(4) 0.750(2) 0.4288(15)
H21A* H 0.577(4) -0.250(2) 0.4288(15)
H22A H 0.755(3) 0.825(3) 0.4203(14)
H22A* H 0.755(3) -0.175(3) 0.4203(14)
O15A O 0.5247(3) 0.94948(16) 0.61124(9)
O15A* O 0.5247(3) -0.05052(16) 0.61124(9)
H23A H 0.420(4) 0.915(3) 0.6358(15)
H23A* H 0.420(4) -0.085(3) 0.6358(15)
H24A H 0.560(5) 1.0236(19) 0.6445(14)
H24A* H 0.560(5) 0.0236(19) 0.6445(14)
O16A O 0.7931(3) 0.15162(17) 0.51908(9)
H25A H 0.872(4) 0.175(3) 0.5603(9)
H26A H 0.887(3) 0.125(3) 0.4871(12)
#END
