
#######################################################################
#
#                 Cambridge Crystallographic Data Centre
#                                CCDC
#
#######################################################################
#
# If this CIF has been generated from an entry in the Cambridge
# Structural Database, then it will include bibliographic, chemical,
# crystal, experimental, refinement or atomic coordinate data resulting
# from the CCDC's data processing and validation procedures.
#
#######################################################################

data_CSD_CIF_NABYIZ
_audit_creation_date 2004-11-24
_audit_creation_method CSD-ConQuest-V1
_database_code_CSD NABYIZ
_database_code_depnum_ccdc_archive 'CCDC 213094'
_chemical_formula_sum 'C8 H10 F6 Fe2 N4 O4'
_chemical_formula_moiety
;
(C2 F6 Fe2 O4 2-)n,2n(C3 H5 N2 1+)
;
_journal_coden_Cambridge 198
_journal_volume 125
_journal_year 2004
_journal_page_first 923
_journal_name_full 'J.Fluorine Chem. '
loop_
_publ_author_name
"R.Leo"
"W.Massa"
"J.Pebler"
_chemical_name_systematic
;
catena-(bis(Imidazolium) 
bis(\m~2~-fluoro)-(\m~2~-oxalato)-tetrafluoro-di-iron(iii))
;
_cell_volume    741.094
_exptl_crystal_colour 'rose'
_exptl_crystal_density_diffrn 2.025
_exptl_crystal_description 'polyhedron'
_diffrn_ambient_temperature 223
#These two values have been output from a single CSD field.
_refine_ls_R_factor_gt 0.0251
_refine_ls_wR_factor_gt 0.0251
_symmetry_cell_setting orthorhombic
_symmetry_space_group_name_H-M 'P b a n'
_symmetry_Int_Tables_number 50
loop_
_symmetry_equiv_pos_site_id
_symmetry_equiv_pos_as_xyz
1 x,y,z
2 1/2+x,1/2+y,-z
3 1/2+x,-y,z
4 -x,1/2+y,z
5 -x,-y,-z
6 -1/2-x,-1/2-y,z
7 -1/2-x,y,-z
8 x,-1/2-y,-z
_cell_length_a 9.143(2)
_cell_length_b 20.837(6)
_cell_length_c 3.890(1)
_cell_angle_alpha 90
_cell_angle_beta 90
_cell_angle_gamma 90
_cell_formula_units_Z 2
loop_
_atom_type_symbol
_atom_type_radius_bond
C 0.68
H 0.23
F 0.64
Fe 1.34
N 0.68
O 0.68
loop_
_atom_site_label
_atom_site_type_symbol
_atom_site_fract_x
_atom_site_fract_y
_atom_site_fract_z
Fe1 Fe 0.25000 0.38098(3) 0.50000
F1 F 0.09723(15) 0.43925(8) 0.4996(4)
F2 F 0.25000 0.37588(12) 0.00000
C1 C 0.1651(3) 0.25000 0.50000
O1 O 0.10483(17) 0.30385(10) 0.5004(5)
N1 N 0.1491(3) 0.58228(15) 0.8643(7)
C2 C 0.1864(4) 0.6444(2) 0.9157(10)
C3 C 0.25000 0.5460(3) 1.00000
H1 H 0.25000 0.507(3) 1.00000
H2 H 0.082(4) 0.5698(17) 0.754(9)
H3 H 0.145(3) 0.6774(16) 0.828(9)
C1E C 0.3349(3) 0.25000 0.50000
O1E O 0.39517(17) 0.19615(10) 0.5004(5)
O1F O 0.39517(17) 0.30385(10) 0.4996(5)
O1G O 0.10483(17) 0.19615(10) 0.4996(5)
C2F C 0.3136(4) 0.6444(2) 1.0843(10)
N1F N 0.3509(3) 0.58228(15) 1.1357(7)
H2F H 0.418(4) 0.5698(17) 1.246(9)
H3F H 0.355(3) 0.6774(16) 1.172(9)
F1F F 0.40277(15) 0.43925(8) 0.5004(4)
F2* F 0.25000 0.37588(12) 1.00000
Fe1* Fe 0.25000 0.38098(3) 1.50000
F1* F 0.09723(15) 0.43925(8) 1.4996(4)
F1F* F 0.40277(15) 0.43925(8) 1.5004(4)
Fe1** Fe 0.25000 0.38098(3) -0.50000
Fe1E Fe 0.25000 0.11902(3) 0.50000
F2** F 0.25000 0.37588(12) 2.00000
O1* O 0.10483(17) 0.30385(10) 1.5004(5)
O1F* O 0.39517(17) 0.30385(10) 1.4996(5)
#END
