
#######################################################################
#
#                 Cambridge Crystallographic Data Centre
#                                CCDC
#
#######################################################################
#
# If this CIF has been generated from an entry in the Cambridge
# Structural Database, then it will include bibliographic, chemical,
# crystal, experimental, refinement or atomic coordinate data resulting
# from the CCDC's data processing and validation procedures.
#
#######################################################################

data_CSD_CIF_NABZUM
_audit_creation_date 2004-11-24
_audit_creation_method CSD-ConQuest-V1
_database_code_CSD NABZUM
_database_code_depnum_ccdc_archive 'CCDC 206294'
_chemical_formula_sum 'C34 H51 N2 Nd1 O25 S4'
_chemical_formula_moiety
;
(C28 H30 Nd1 O21 S4 1-)n,n(C6 H13 N2 1+),4n(H2 O1)
;
_journal_coden_Cambridge 1147
_journal_volume 4
_journal_year 2004
_journal_page_first 227
_journal_name_full 'Cryst.Growth Des. '
loop_
_publ_author_name
"S.J.Dalgarno"
"M.J.Hardie"
"C.L.Raston"
_chemical_name_systematic
;
catena-(1-Azonia-4-azabicyclo(2.2.2)octane 
(\m~3~-25,26,27,28-tetrahydroxy-5,11,17,23-tetrasulfonatocalix(4)arene)-pentaa
qua-neodymium(iii) clathrate tetrahydrate)
;
_cell_volume   4247.013
_exptl_crystal_colour 'purple'
_exptl_crystal_density_diffrn 1.815
_exptl_special_details
;
cone conformation

;
_exptl_crystal_description 'plate'
_diffrn_ambient_temperature 150
#These two values have been output from a single CSD field.
_refine_ls_R_factor_gt 0.0566
_refine_ls_wR_factor_gt 0.0566
_symmetry_cell_setting monoclinic
_symmetry_space_group_name_H-M 'P 21/n'
_symmetry_Int_Tables_number 14
loop_
_symmetry_equiv_pos_site_id
_symmetry_equiv_pos_as_xyz
1 x,y,z
2 1/2+x,1/2-y,1/2+z
3 -x,-y,-z
4 -1/2-x,-1/2+y,-1/2-z
_cell_length_a 12.4019(2)
_cell_length_b 11.7497(1)
_cell_length_c 29.2694(5)
_cell_angle_alpha 90
_cell_angle_beta 95.2780(1)
_cell_angle_gamma 90
_cell_formula_units_Z 4
loop_
_atom_type_symbol
_atom_type_radius_bond
C 0.68
H 0.23
N 0.68
Nd 1.71
O 0.68
S 1.02
loop_
_atom_site_label
_atom_site_type_symbol
_atom_site_fract_x
_atom_site_fract_y
_atom_site_fract_z
Nd1 Nd -0.80013(3) 0.22686(3) 0.167783(11)
S1 S -0.65546(13) -0.04594(13) 0.14429(5)
S2 S -0.04172(13) 0.12360(14) 0.16439(5)
S3 S 0.16819(14) -0.46156(13) 0.14245(6)
S4 S -0.40101(15) -0.66215(14) 0.15313(6)
O1 O -0.7415(4) -0.1284(4) 0.14215(19)
O2 O -0.6951(4) 0.0698(4) 0.13445(15)
O3 O -0.5867(4) -0.0479(4) 0.18788(16)
O4 O -0.3803(3) -0.1801(4) -0.00033(14)
H1 H -0.39330 -0.24790 -0.00810
O5 O -0.1193(4) 0.1054(4) 0.19726(15)
O6 O -0.0244(4) 0.2424(4) 0.15332(16)
O7 O 0.0661(4) 0.0725(4) 0.17829(15)
O8 O -0.1994(4) -0.0827(4) -0.01227(14)
H2 H -0.26420 -0.06370 -0.01920
O9 O 0.1607(5) -0.3828(4) 0.17920(17)
O10 O 0.2741(4) -0.4572(4) 0.12447(18)
O11 O 0.1384(4) -0.5776(4) 0.15352(17)
O12 O -0.1342(4) -0.3212(4) -0.01352(14)
H3 H -0.12060 -0.25370 -0.02050
O13 O -0.2963(5) -0.6982(7) 0.1741(2)
O14 O -0.4644(6) -0.7595(4) 0.1363(2)
O15 O -0.4588(4) -0.5925(4) 0.18344(16)
O16 O -0.3272(3) -0.3815(3) -0.00775(14)
H4 H -0.26730 -0.39870 -0.01710
O17 O -0.8764(4) 0.1875(4) 0.08830(14)
O18 O -0.8720(4) 0.2789(4) 0.24248(16)
O19 O -0.6553(4) 0.3342(5) 0.20846(17)
O20 O -0.6789(5) 0.3053(4) 0.11167(17)
O21 O -0.7213(4) 0.0997(4) 0.22986(16)
O22 O -0.9351(4) 0.1279(4) 0.30521(18)
O23 O -0.1107(6) 0.4306(5) 0.1940(2)
O24 O -0.3718(4) 0.0359(4) 0.19327(16)
O25 O -0.6001(4) 0.3479(4) 0.29743(16)
N1 N -0.2638(5) -0.1631(4) 0.18483(19)
N2 N -0.1889(5) -0.3610(5) 0.1857(2)
C1 C -0.5729(5) -0.0840(5) 0.1008(2)
C2 C -0.4989(5) -0.0069(5) 0.0850(2)
H5 H -0.49370 0.06790 0.09730
C3 C -0.4330(5) -0.0389(5) 0.0515(2)
C4 C -0.4413(5) -0.1508(5) 0.0339(2)
C5 C -0.5139(5) -0.2281(5) 0.0504(2)
C6 C -0.5787(5) -0.1939(5) 0.0842(2)
H6 H -0.62730 -0.24660 0.09590
C7 C -0.3529(5) 0.0466(5) 0.0347(2)
H7 H -0.35690 0.04330 0.00080
H8 H -0.37460 0.12420 0.04340
C8 C -0.2362(5) 0.0260(5) 0.0540(2)
C9 C -0.1975(5) 0.0740(5) 0.0953(2)
H9 H -0.24260 0.12210 0.11130
C10 C -0.0918(5) 0.0514(5) 0.1134(2)
C11 C -0.0247(5) -0.0212(5) 0.0915(2)
H10 H 0.04660 -0.03660 0.10480
C12 C -0.0624(5) -0.0717(5) 0.0496(2)
C13 C -0.1663(5) -0.0439(5) 0.0308(2)
C14 C 0.0128(5) -0.1512(5) 0.0262(2)
H11 H -0.00770 -0.15080 -0.00730
H12 H 0.08810 -0.12320 0.03160
C15 C 0.0070(5) -0.2729(5) 0.0441(2)
C16 C 0.0777(5) -0.3075(5) 0.0811(2)
H13 H 0.12940 -0.25540 0.09500
C17 C 0.0733(5) -0.4183(5) 0.0979(2)
C18 C -0.0048(5) -0.4940(5) 0.0792(2)
H14 H -0.00930 -0.56810 0.09200
C19 C -0.0764(5) -0.4621(5) 0.0420(2)
C20 C -0.0681(5) -0.3526(5) 0.0243(2)
C21 C -0.1634(5) -0.5436(5) 0.0224(2)
H15 H -0.17750 -0.53040 -0.01100
H16 H -0.13740 -0.62280 0.02700
C22 C -0.2670(5) -0.5289(5) 0.0446(2)
C23 C -0.2858(5) -0.5937(5) 0.0830(2)
H17 H -0.23480 -0.65000 0.09390
C24 C -0.3785(5) -0.5767(5) 0.1054(2)
C25 C -0.4557(5) -0.4967(5) 0.0889(2)
H18 H -0.51950 -0.48650 0.10410
C26 C -0.4400(5) -0.4321(5) 0.0505(2)
C27 C -0.3443(5) -0.4457(5) 0.0284(2)
C28 C -0.5262(5) -0.3479(5) 0.0313(2)
H19 H -0.52480 -0.34440 -0.00240
H20 H -0.59810 -0.37740 0.03770
C29 C -0.1527(7) -0.1622(6) 0.2091(3)
H21 H -0.15450 -0.12820 0.24000
H22 H -0.10390 -0.11580 0.19170
C30 C -0.1108(7) -0.2837(6) 0.2134(3)
H23 H -0.03830 -0.28870 0.20200
H24 H -0.10430 -0.30740 0.24600
C31 C -0.2937(6) -0.3612(6) 0.2057(3)
H25 H -0.28550 -0.39810 0.23620
H26 H -0.34740 -0.40520 0.18570
C32 C -0.3334(7) -0.2398(6) 0.2103(3)
H27 H -0.40990 -0.23360 0.19750
H28 H -0.32890 -0.21780 0.24310
C33 C -0.2593(7) -0.2034(6) 0.1372(2)
H29 H -0.21950 -0.14760 0.11980
H30 H -0.33360 -0.21080 0.12200
C34 C -0.2026(7) -0.3176(7) 0.1377(2)
H31 H -0.24610 -0.37210 0.11780
H32 H -0.13100 -0.30930 0.12560
H33 H -0.289(4) -0.091(2) 0.188(2)
O6* O -1.0244(4) 0.2424(4) 0.15332(16)
O7* O -0.9339(4) 0.0725(4) 0.17829(15)
O11* O -0.8616(4) 0.4224(4) 0.15352(17)
Nd1* Nd 0.19987(3) 0.22686(3) 0.167783(11)
Nd1** Nd 0.19987(3) -0.77314(3) 0.167783(11)
#END
