
#######################################################################
#
#                 Cambridge Crystallographic Data Centre
#                                CCDC
#
#######################################################################
#
# If this CIF has been generated from an entry in the Cambridge
# Structural Database, then it will include bibliographic, chemical,
# crystal, experimental, refinement or atomic coordinate data resulting
# from the CCDC's data processing and validation procedures.
#
#######################################################################

data_CSD_CIF_NACRES
_audit_creation_date 2020-11-11
_audit_creation_method CSD-ConQuest-V1
_database_code_CSD NACRES
_database_code_depnum_ccdc_archive 'CCDC 1986383'
_chemical_formula_sum 'C26.5 H33.5 Li1 N3.5 O7.5'
_chemical_formula_moiety
;
(C21 H12 Li1 N1 O6 2-)n,2(C2 H8 N1 1+),0.5(C3 H7 N1 O1),H2 O1
;
_journal_coden_Cambridge 1747
_journal_volume 8
_journal_year 2020
_journal_page_first 296
_journal_name_full 'Inorg.Chem.Front. '
loop_
_publ_author_name
"N.Seal"
"R.Goswami"
"Manpreet Singh"
"R.S.Pillai"
"S.Neogi"
_chemical_name_systematic
;
catena-[bis(dimethylammonium) (\m-4,4',4''-nitrilotribenzoato)-lithium 
N,N-dimethylformamide solvate monohydrate]
;
_cell_volume   6371.094
_exptl_crystal_colour 'colorless'
_exptl_crystal_description 'plate'
_diffrn_ambient_temperature 118.2
_refine_special_details
;
Disordered dimethylammonium ions and water and N,N-dimethylformamide solvent 
molecules were not modelled and the disordered density was taken into account 
using the MASK/OLEX2 procedure.
;
#These two values have been output from a single CSD field.
_refine_ls_R_factor_gt 0.096
_refine_ls_wR_factor_gt 0.096
_symmetry_cell_setting monoclinic
_symmetry_space_group_name_H-M 'C 2/c'
_symmetry_Int_Tables_number 15
loop_
_symmetry_equiv_pos_site_id
_symmetry_equiv_pos_as_xyz
1 x,y,z
2 -x,y,1/2-z
3 1/2+x,1/2+y,z
4 1/2-x,1/2+y,1/2-z
5 -x,-y,-z
6 x,-y,-1/2+z
7 -1/2-x,-1/2-y,-z
8 -1/2+x,-1/2-y,-1/2+z
_cell_length_a 15.8425(19)
_cell_length_b 24.624(3)
_cell_length_c 17.549(2)
_cell_angle_alpha 90
_cell_angle_beta 111.466(3)
_cell_angle_gamma 90
_cell_formula_units_Z 8
loop_
_atom_type_symbol
_atom_type_radius_bond
C 0.68
H 0.23
Li 1.28
N 0.68
O 0.68
loop_
_atom_site_label
_atom_site_type_symbol
_atom_site_fract_x
_atom_site_fract_y
_atom_site_fract_z
O1 O 0.4194(2) 0.61831(11) 0.66294(17)
O2 O 0.2684(2) 0.62268(10) 0.60060(18)
O3 O 0.6391(2) 0.28889(13) 0.46623(19)
N1 N 0.3358(2) 0.36682(12) 0.6025(2)
O4 O 0.6558(2) 0.22686(14) 0.56119(18)
O5 O 0.1390(2) 0.23543(12) 0.80590(19)
O6 O 0.0612(2) 0.20652(15) 0.68216(18)
C1 C 0.3398(2) 0.53647(14) 0.6273(2)
C2 C 0.4179(2) 0.50734(13) 0.6498(2)
H1 H 0.4743(2) 0.52586(13) 0.6710(2)
C3 C 0.4047(3) 0.33973(14) 0.5814(3)
C4 C 0.4173(2) 0.45004(12) 0.6425(2)
H2 H 0.4727(2) 0.43046(12) 0.6580(2)
C5 C 0.3444(3) 0.59698(14) 0.6312(2)
C6 C 0.5439(3) 0.29337(15) 0.5438(3)
C7 C 0.4421(3) 0.29244(14) 0.6176(2)
H3 H 0.4220(3) 0.27506(14) 0.6563(2)
C8 C 0.2814(3) 0.33498(14) 0.6361(3)
C9 C 0.3374(3) 0.42361(14) 0.6135(2)
C10 C 0.5038(2) 0.34097(15) 0.5057(3)
H4 H 0.5222(2) 0.35716(15) 0.4651(3)
C11 C 0.4380(3) 0.36424(15) 0.5268(3)
H5 H 0.4139(3) 0.39833(15) 0.5035(3)
C12 C 0.2561(3) 0.50593(16) 0.5946(3)
H6 H 0.1999(3) 0.52484(16) 0.5761(3)
C13 C 0.6168(3) 0.2676(2) 0.5223(3)
C14 C 0.2560(3) 0.45173(15) 0.5898(3)
H7 H 0.2002(3) 0.43249(15) 0.5701(3)
C15 C 0.5124(3) 0.26981(18) 0.5954(3)
H8 H 0.5380(3) 0.23608(18) 0.6190(3)
C16 C 0.1814(3) 0.26989(16) 0.6979(3)
C17 C 0.2438(3) 0.30505(14) 0.7498(3)
H9 H 0.2520(3) 0.30771(14) 0.8061(3)
C18 C 0.2172(3) 0.29814(15) 0.5834(3)
H10 H 0.2089(3) 0.29522(15) 0.5272(3)
C19 C 0.2936(3) 0.33614(16) 0.7163(3)
H11 H 0.3388(3) 0.35959(16) 0.7514(3)
C20 C 0.1182(4) 0.23520(18) 0.7287(3)
C21 C 0.1671(3) 0.26668(17) 0.6169(3)
H12 H 0.1223(3) 0.24260(17) 0.5829(3)
Li1 Li -0.0654(4) 0.1948(3) 0.6489(4)
O1B O -0.0806(2) 0.11831(11) 0.66294(17)
O3F O -0.1391(2) 0.21111(13) 0.53377(19)
O5A O -0.1390(2) 0.23543(12) 0.69410(19)
Li1A Li 0.0654(4) 0.1948(3) 0.8511(4)
Li1B Li 0.4346(4) 0.6948(3) 0.6489(4)
Li1F Li 0.5654(4) 0.3052(3) 0.3511(4)
#END
