
#######################################################################
#
#                 Cambridge Crystallographic Data Centre
#                                CCDC
#
#######################################################################
#
# If this CIF has been generated from an entry in the Cambridge
# Structural Database, then it will include bibliographic, chemical,
# crystal, experimental, refinement or atomic coordinate data resulting
# from the CCDC's data processing and validation procedures.
#
#######################################################################

data_CSD_CIF_NACVAS
_audit_creation_date 2020-11-11
_audit_creation_method CSD-ConQuest-V1
_database_code_CSD NACVAS
_database_code_depnum_ccdc_archive 'CCDC 2024497'
_chemical_formula_sum 'C38 H33 Ca1 N1 O9'
_chemical_formula_moiety
;
(C36 H25 Ca1 O9 1-)n,C2 H8 N1 1+
;
_journal_coden_Cambridge 1695
_journal_volume 8
_journal_year 2020
_journal_page_first 16784
_journal_name_full 'J.Mater.Chem.C '
loop_
_publ_author_name
"Zhao-Feng Wu"
"Zhi-Hua Fu"
"E.Velasco"
"Kai Xing"
"Hao Wang"
"Guo-Dong Zou"
"Xiao-Ying Huang"
"Jing Li"
_chemical_name_systematic
;
catena-[dimethylammonium 
(\m-1,2,4-tris(4-carboxylatophenyl)-5-(4-carboxyphenyl)-3,6-dimethylbenzene)-a
qua-calcium]
;
_cell_volume   6867.017
_exptl_crystal_colour 'colorless'
_exptl_crystal_density_diffrn 1.33
_exptl_crystal_description 'block'
_diffrn_ambient_temperature 100
#These two values have been output from a single CSD field.
_refine_ls_R_factor_gt 0.0441
_refine_ls_wR_factor_gt 0.0441
_symmetry_cell_setting orthorhombic
_symmetry_space_group_name_H-M 'P b c a'
_symmetry_Int_Tables_number 61
loop_
_symmetry_equiv_pos_site_id
_symmetry_equiv_pos_as_xyz
1 x,y,z
2 1/2-x,-y,1/2+z
3 -x,1/2+y,1/2-z
4 1/2+x,1/2-y,-z
5 -x,-y,-z
6 -1/2+x,y,-1/2-z
7 x,-1/2-y,-1/2+z
8 -1/2-x,-1/2+y,z
_cell_length_a 20.4667(15)
_cell_length_b 10.3556(7)
_cell_length_c 32.400(2)
_cell_angle_alpha 90
_cell_angle_beta 90
_cell_angle_gamma 90
_cell_formula_units_Z 8
loop_
_atom_type_symbol
_atom_type_radius_bond
C 0.68
H 0.23
Ca 1.76
N 0.68
O 0.68
loop_
_atom_site_label
_atom_site_type_symbol
_atom_site_fract_x
_atom_site_fract_y
_atom_site_fract_z
Ca1 Ca 0.60662(2) 0.82223(4) 0.50636(2)
O1 O 0.54750(7) 0.69168(14) 0.55053(4)
O2 O 0.47060(9) 0.54177(16) 0.54773(5)
O3 O 0.42729(7) 0.49865(13) 0.95418(4)
O4 O 0.51422(7) 0.62244(14) 0.96705(4)
O5 O 0.72386(7) -0.01654(15) 0.96747(4)
O6 O 0.81326(7) 0.10313(14) 0.96176(4)
O7 O 0.73757(8) 0.05934(15) 0.54001(5)
H1 H 0.7540(17) 0.046(3) 0.5114(11)
O8 O 0.80599(7) 0.22759(15) 0.54193(4)
O9 O 0.61125(7) 0.65335(14) 0.45900(4)
H2 H 0.57913 0.60235 0.45804
H3 H 0.64590 0.60752 0.45954
C1 C 0.51884(11) 0.59505(19) 0.56486(6)
C2 C 0.54188(10) 0.5375(2) 0.60516(6)
C3 C 0.50986(11) 0.4328(2) 0.62311(7)
H4 H 0.47248 0.39694 0.61005
C4 C 0.53225(12) 0.3808(2) 0.65995(7)
H5 H 0.50991 0.30973 0.67197
C5 C 0.58728(11) 0.4318(2) 0.67956(6)
C6 C 0.61921(11) 0.5360(2) 0.66136(6)
H6 H 0.65673 0.57184 0.67428
C7 C 0.59670(11) 0.5882(2) 0.62448(6)
H7 H 0.61904 0.65911 0.61239
C8 C 0.61147(11) 0.3772(2) 0.71973(6)
C9 C 0.58303(11) 0.4173(2) 0.75680(6)
C10 C 0.60737(11) 0.3662(2) 0.79407(6)
C11 C 0.65918(10) 0.2781(2) 0.79424(6)
C12 C 0.68719(11) 0.2372(2) 0.75669(6)
C13 C 0.66282(11) 0.2877(2) 0.71955(6)
C14 C 0.52842(13) 0.5158(2) 0.75700(7)
H8 H 0.53217 0.57024 0.78164
H9 H 0.48620 0.47121 0.75725
H10 H 0.53154 0.56985 0.73224
C15 C 0.74287(13) 0.1401(2) 0.75627(7)
H11 H 0.73780 0.08009 0.77946
H12 H 0.78461 0.18572 0.75882
H13 H 0.74208 0.09171 0.73028
C16 C 0.57625(10) 0.4092(2) 0.83366(6)
C17 C 0.60370(11) 0.5092(2) 0.85656(6)
H14 H 0.64376 0.54674 0.84789
C18 C 0.57301(10) 0.5545(2) 0.89200(6)
H15 H 0.59213 0.62303 0.90731
C19 C 0.51421(10) 0.49986(19) 0.90522(6)
C20 C 0.48634(11) 0.4013(2) 0.88201(6)
H16 H 0.44588 0.36464 0.89033
C21 C 0.51737(11) 0.3562(2) 0.84669(6)
H17 H 0.49808 0.28813 0.83125
C22 C 0.48285(10) 0.54271(19) 0.94492(6)
C23 C 0.68449(10) 0.2241(2) 0.83415(6)
C24 C 0.65328(11) 0.1203(2) 0.85305(6)
H18 H 0.61495 0.08502 0.84096
C25 C 0.67761(11) 0.0677(2) 0.88948(6)
H19 H 0.65546 -0.00267 0.90206
C26 C 0.73411(10) 0.11685(19) 0.90775(6)
C27 C 0.76504(11) 0.2211(2) 0.88912(6)
H20 H 0.80322 0.25664 0.90133
C28 C 0.74066(11) 0.2739(2) 0.85276(6)
H21 H 0.76257 0.34491 0.84039
C29 C 0.75966(10) 0.06423(19) 0.94830(6)
C30 C 0.69103(10) 0.2483(2) 0.67876(6)
C31 C 0.66220(11) 0.1498(2) 0.65578(6)
H22 H 0.62617 0.10347 0.66684
C32 C 0.68582(11) 0.1189(2) 0.61672(6)
H23 H 0.66601 0.05158 0.60125
C33 C 0.73859(10) 0.1869(2) 0.60033(6)
C34 C 0.76702(11) 0.2858(2) 0.62304(6)
H24 H 0.80250 0.33327 0.61176
C35 C 0.74385(11) 0.3155(2) 0.66210(6)
H25 H 0.76411 0.38225 0.67763
C36 C 0.76408(10) 0.15908(19) 0.55784(6)
N1 N 0.41537(10) 0.72871(19) 0.50202(6)
H26 H 0.4477(13) 0.782(3) 0.4927(8)
H27 H 0.4345(14) 0.662(3) 0.5180(9)
C37 C 0.37861(12) 0.6812(2) 0.46596(7)
H28 H 0.40771 0.63055 0.44822
H29 H 0.36132 0.75476 0.45038
H30 H 0.34237 0.62674 0.47532
C38 C 0.37515(13) 0.8013(2) 0.53178(7)
H31 H 0.40143 0.82216 0.55616
H32 H 0.33757 0.74863 0.54004
H33 H 0.35969 0.88131 0.51892
Ca1A Ca 0.89338(2) 0.17777(4) 1.00636(2)
Ca1B Ca 0.39338(2) 0.32223(4) 0.99364(2)
Ca1F Ca 0.60662(2) 0.67777(4) 1.00636(2)
Ca1G Ca 0.89338(2) 0.32223(4) 0.50636(2)
O3B O 0.57271(7) 0.99865(13) 0.54582(4)
O4F O 0.51422(7) 0.87756(14) 0.46705(4)
O6A O 0.68674(7) 0.89687(14) 0.46176(4)
O8G O 0.69401(7) 0.72759(15) 0.54193(4)
#END
