
#######################################################################
#
#                 Cambridge Crystallographic Data Centre
#                                CCDC
#
#######################################################################
#
# If this CIF has been generated from an entry in the Cambridge
# Structural Database, then it will include bibliographic, chemical,
# crystal, experimental, refinement or atomic coordinate data resulting
# from the CCDC's data processing and validation procedures.
#
#######################################################################

data_CSD_CIF_NAFBAY
_audit_creation_date 2004-11-24
_audit_creation_method CSD-ConQuest-V1
_database_code_CSD NAFBAY
_database_code_depnum_ccdc_archive 'CCDC 182790'
_chemical_formula_sum 'C12 H13 Cl1 Hg1 N4 O5'
_chemical_formula_moiety
;
(C5 H8 N3 1+)n,n(C7 H3 Cl1 Hg1 N1 O4 1-),n(H2 O1)
;
_journal_coden_Cambridge 119
_journal_volume 701
_journal_year 2004
_journal_page_first 49
_journal_name_full 'J.Mol.Struct. '
loop_
_publ_author_name
"A.Moghimi"
"A.Shokrollahi"
"M.Shamsipur"
"H.Aghabozorg"
"M.Ranjbar"
_chemical_name_systematic
;
catena-[(2,6-Diaminopyridinium) 
(\m~3~-pyridine-2,6-dicarboxylato)-chloro-mercury(ii) monohydrate]
;
_chemical_melting_point 533.15
_cell_volume    741.082
_exptl_crystal_colour 'colorless'
_exptl_crystal_density_diffrn 2.372
_exptl_special_details
;
Melting point range 533.15-535.15K

;
_exptl_crystal_description 'plate'
_diffrn_ambient_temperature 110
#These two values have been output from a single CSD field.
_refine_ls_R_factor_gt 0.0639
_refine_ls_wR_factor_gt 0.0639
_symmetry_cell_setting triclinic
_symmetry_space_group_name_H-M 'P -1'
_symmetry_Int_Tables_number 2
loop_
_symmetry_equiv_pos_site_id
_symmetry_equiv_pos_as_xyz
1 x,y,z
2 -x,-y,-z
_cell_length_a 7.078(2)
_cell_length_b 10.152(3)
_cell_length_c 10.784(3)
_cell_angle_alpha 96.107(6)
_cell_angle_beta 99.163(7)
_cell_angle_gamma 101.792(6)
_cell_formula_units_Z 2
loop_
_atom_type_symbol
_atom_type_radius_bond
C 0.68
H 0.23
Cl 0.96
Hg 1.72
N 0.68
O 0.77
loop_
_atom_site_label
_atom_site_type_symbol
_atom_site_fract_x
_atom_site_fract_y
_atom_site_fract_z
Hg1 Hg 0.00954(4) -0.25339(3) -0.12507(3)
Cl1 Cl 0.0128(3) -0.2808(2) -0.34007(19)
O1 O -0.2665(8) -0.5607(5) 0.0965(5)
O2 O -0.2030(7) -0.4650(5) -0.0747(5)
O3 O 0.2196(8) -0.0268(5) -0.0283(5)
N1 N 0.0171(8) -0.2319(5) 0.0808(5)
C1 C -0.1886(10) -0.4649(7) 0.0435(7)
C2 C -0.0721(10) -0.3380(7) 0.1326(7)
C3 C -0.0608(11) -0.3275(7) 0.2617(7)
H1 H -0.11720 -0.41290 0.29340
C4 C 0.0153(10) -0.2168(6) 0.3500(7)
H2 H 0.00460 -0.21400 0.44300
C5 C 0.1174(11) -0.0970(7) 0.2829(7)
H3 H 0.18800 -0.00770 0.33410
C6 C 0.1125(10) -0.1144(7) 0.1514(7)
C7 C 0.2097(10) 0.0021(7) 0.0886(8)
N2 N 0.4431(9) -0.3134(6) 0.2544(6)
H4 H 0.37220 -0.40110 0.20020
N3 N 0.3506(10) -0.4138(6) 0.4268(7)
H5 H 0.39720 -0.41570 0.51870
H6 H 0.30350 -0.45390 0.33660
N4 N 0.5232(9) -0.2294(6) 0.0738(7)
H7 H 0.57540 -0.14370 0.04080
H8 H 0.47160 -0.32650 0.03410
C8 C 0.4483(11) -0.3053(7) 0.3821(8)
C9 C 0.5465(11) -0.1830(7) 0.4604(7)
H9 H 0.55610 -0.17380 0.55510
C10 C 0.6292(11) -0.0762(7) 0.4032(8)
H10 H 0.69440 0.01170 0.45800
C11 C 0.6232(11) -0.0856(7) 0.2749(8)
H11 H 0.68290 -0.00490 0.23710
C12 C 0.5312(10) -0.2096(7) 0.1967(7)
O4 O 0.5057(8) -0.6326(5) 0.2873(6)
H12 H 0.60950 -0.61520 0.23470
H13 H 0.50270 -0.73140 0.28370
O5 O 0.2707(7) 0.1142(5) 0.1545(5)
Hg1A Hg -0.00954(4) -0.74661(3) 0.12507(3)
O1A O 0.2665(8) -0.4393(5) -0.0965(5)
Hg1A* Hg -0.00954(4) 0.25339(3) 0.12507(3)
O5A O -0.2707(7) -0.1142(5) -0.1545(5)
#END
