
#######################################################################
#
#                 Cambridge Crystallographic Data Centre
#                                CCDC
#
#######################################################################
#
# If this CIF has been generated from an entry in the Cambridge
# Structural Database, then it will include bibliographic, chemical,
# crystal, experimental, refinement or atomic coordinate data resulting
# from the CCDC's data processing and validation procedures.
#
#######################################################################

data_CSD_CIF_NAFCOQ
_audit_creation_date 2020-11-12
_audit_creation_method CSD-ConQuest-V1
_database_code_CSD NAFCOQ
_database_code_depnum_ccdc_archive 'CCDC 1894269'
_chemical_formula_sum 'C22 H32 I3 N3 O8 Pb2'
_chemical_formula_moiety
;
(C16 H8 I3 O8 Pb2 3-)n,3(C2 H8 N1 1+)
;
_journal_coden_Cambridge 1078
_journal_year 2020
_journal_name_full 'CSD Communication(Private Communication) '
loop_
_publ_author_name
"Chengdong Peng"
_chemical_name_systematic
;
catena-[tris(dimethylammonium) 
(\m-iodo)-bis(\m-terephthalato)-diiodo-di-lead(ii)]
;
_cell_volume   3328.060
_exptl_crystal_colour 'colorless'
_exptl_crystal_density_diffrn 2.518
_exptl_crystal_description 'needle-like'
_diffrn_ambient_temperature 293
#These two values have been output from a single CSD field.
_refine_ls_R_factor_gt 0.0277
_refine_ls_wR_factor_gt 0.0277
_symmetry_cell_setting tetragonal
_symmetry_space_group_name_H-M 'P 43 21 2'
_symmetry_Int_Tables_number 96
loop_
_symmetry_equiv_pos_site_id
_symmetry_equiv_pos_as_xyz
1 x,y,z
2 1/2-y,1/2+x,3/4+z
3 -x,-y,1/2+z
4 1/2+y,1/2-x,1/4+z
5 1/2+x,1/2-y,1/4-z
6 y,x,-z
7 1/2-x,1/2+y,3/4-z
8 -y,-x,1/2-z
_cell_length_a 13.9741(7)
_cell_length_b 13.9741(7)
_cell_length_c 17.0429(8)
_cell_angle_alpha 90
_cell_angle_beta 90
_cell_angle_gamma 90
_cell_formula_units_Z 4
loop_
_atom_type_symbol
_atom_type_radius_bond
C 0.68
H 0.23
I 1.40
N 0.68
O 0.68
Pb 1.46
loop_
_atom_site_label
_atom_site_type_symbol
_atom_site_fract_x
_atom_site_fract_y
_atom_site_fract_z
Pb1 Pb 0.36844(2) 0.41709(2) 0.178162(19)
I1 I 0.37759(6) 0.48030(5) 0.35400(4)
I2 I 0.33017(6) 0.33017(6) 0.00000
O1 O 0.4525(5) -0.2236(4) 0.3265(4)
O2 O 0.6065(4) -0.1984(4) 0.3034(4)
O3 O 0.3515(4) 0.2511(4) 0.2237(4)
O4 O 0.5043(4) 0.2728(5) 0.1909(4)
C1 C 0.4600(6) 0.1212(6) 0.2435(5)
C2 C 0.3898(6) 0.0655(6) 0.2780(5)
H1 H 0.32920 0.09110 0.28630
C3 C 0.4087(7) -0.0283(6) 0.3005(6)
H2 H 0.36110 -0.06470 0.32430
C4 C 0.4995(6) -0.0679(6) 0.2874(5)
C5 C 0.5703(7) -0.0124(7) 0.2530(6)
H3 H 0.63100 -0.03770 0.24440
C6 C 0.5491(7) 0.0835(7) 0.2310(6)
H4 H 0.59640 0.12100 0.20800
C7 C 0.4364(6) 0.2216(5) 0.2163(5)
C8 C 0.5188(6) -0.1709(6) 0.3067(5)
N1 N 0.1656(7) 0.1924(6) 0.1556(5)
H5 H 0.12090 0.22110 0.12580
H6 H 0.21170 0.23600 0.16500
C9 C 0.1221(8) 0.1677(10) 0.2296(7)
H7 H 0.09900 0.22460 0.25480
H8 H 0.16860 0.13720 0.26260
H9 H 0.06960 0.12470 0.22060
C10 C 0.2059(10) 0.1185(11) 0.1118(8)
H10 H 0.24240 0.14500 0.06940
H11 H 0.15590 0.07870 0.09110
H12 H 0.24700 0.08100 0.14480
N2 N 0.2190(6) 0.2190(6) 0.50000
H13 H 0.15910 0.22470 0.48120
C11 C 0.2816(11) 0.2274(12) 0.4364(9)
H14 H 0.31080 0.28950 0.43700
H15 H 0.24670 0.21920 0.38830
H16 H 0.33030 0.17910 0.44010
H17? H 0.15910 0.22470 0.48120
Pb1E Pb 0.41709(2) 0.36844(2) -0.178162(19)
I1E I 0.48030(6) 0.37759(5) -0.35400(4)
O1E O -0.2236(5) 0.4525(4) -0.3265(4)
O2E O -0.1984(4) 0.6065(4) -0.3034(4)
O3E O 0.2511(4) 0.3515(4) -0.2237(4)
O4E O 0.2728(4) 0.5043(5) -0.1909(4)
C1E C 0.1212(6) 0.4600(6) -0.2435(5)
C2E C 0.0655(6) 0.3898(6) -0.2780(5)
H1E H 0.09110 0.32920 -0.28630
C3E C -0.0283(7) 0.4087(6) -0.3005(6)
H2E H -0.06470 0.36110 -0.32430
C4E C -0.0679(6) 0.4995(6) -0.2874(5)
C5E C -0.0124(7) 0.5703(7) -0.2530(6)
H3E H -0.03770 0.63100 -0.24440
C6E C 0.0835(7) 0.5491(7) -0.2310(6)
H4E H 0.12100 0.59640 -0.20800
C7E C 0.2216(6) 0.4364(5) -0.2163(5)
C8E C -0.1709(6) 0.5188(6) -0.3067(5)
Pb1B Pb -0.36844(2) 0.58291(2) -0.321838(19)
Pb1G Pb 0.58291(2) -0.36844(2) 0.321838(19)
O1B O 0.5475(5) 0.2236(4) -0.1735(4)
O1G O 0.2236(5) 0.5475(4) 0.1735(4)
O2B O 0.3935(4) 0.1984(4) -0.1966(4)
O2G O 0.1984(4) 0.3935(4) 0.1966(4)
H13E H 0.22470 0.15910 0.51880
C11E C 0.2274(11) 0.2816(12) 0.5636(9)
H14E H 0.28950 0.31080 0.56300
H15E H 0.21920 0.24670 0.61170
H16E H 0.17910 0.33030 0.55990
#END
