
#######################################################################
#
#                 Cambridge Crystallographic Data Centre
#                                CCDC
#
#######################################################################
#
# If this CIF has been generated from an entry in the Cambridge
# Structural Database, then it will include bibliographic, chemical,
# crystal, experimental, refinement or atomic coordinate data resulting
# from the CCDC's data processing and validation procedures.
#
#######################################################################

data_CSD_CIF_NAFCEG
_audit_creation_date 2020-11-12
_audit_creation_method CSD-ConQuest-V1
_database_code_CSD NAFCEG
_database_code_depnum_ccdc_archive 'CCDC 1894263'
_chemical_formula_sum 'C22 H32 Cl3 N3 O8 Pb2'
_chemical_formula_moiety
;
(C16 H8 Cl3 O8 Pb2 3-)n,3(C2 H8 N1 1+)
;
_journal_coden_Cambridge 1078
_journal_year 2020
_journal_name_full 'CSD Communication(Private Communication) '
loop_
_publ_author_name
"Chengdong Peng"
_chemical_name_systematic
;
catena-[tris(dimethylammonium) 
(\m-chloro)-bis(\m-benzene-1,4-dicarboxylato)-dichloro-di-lead(ii) ]
;
_cell_volume   3034.959
_exptl_crystal_colour 'colorless'
_exptl_crystal_density_diffrn 2.161
_exptl_crystal_description 'rod'
_diffrn_ambient_temperature 295
#These two values have been output from a single CSD field.
_refine_ls_R_factor_gt 0.0252
_refine_ls_wR_factor_gt 0.0252
_symmetry_cell_setting tetragonal
_symmetry_space_group_name_H-M 'P 41 21 2'
_symmetry_Int_Tables_number 92
loop_
_symmetry_equiv_pos_site_id
_symmetry_equiv_pos_as_xyz
1 x,y,z
2 -x,-y,1/2+z
3 1/2-y,1/2+x,1/4+z
4 1/2+y,1/2-x,3/4+z
5 1/2-x,1/2+y,1/4-z
6 1/2+x,1/2-y,3/4-z
7 y,x,-z
8 -y,-x,1/2-z
_cell_length_a 13.7687(5)
_cell_length_b 13.7687(5)
_cell_length_c 16.0091(8)
_cell_angle_alpha 90
_cell_angle_beta 90
_cell_angle_gamma 90
_cell_formula_units_Z 4
loop_
_atom_type_symbol
_atom_type_radius_bond
C 0.68
H 0.23
Cl 0.99
N 0.68
O 0.68
Pb 1.46
loop_
_atom_site_label
_atom_site_type_symbol
_atom_site_fract_x
_atom_site_fract_y
_atom_site_fract_z
Pb1 Pb 0.125417(17) 0.077075(16) 0.326801(15)
Cl1 Cl 0.1166(2) 0.02041(19) 0.16244(13)
O1 O 0.7570(3) -0.1426(3) 0.2248(3)
C1 C 0.7253(5) -0.0580(5) 0.2169(4)
Cl2 Cl 0.16422(18) 0.16422(18) 0.50000
O2 O 0.7747(3) 0.0091(3) 0.1869(3)
C2 C 0.6232(5) -0.0365(4) 0.2449(4)
O3 O 0.2737(3) -0.0529(3) 0.3297(4)
C3 C 0.5669(5) -0.1091(5) 0.2797(4)
H1 H 0.59380 -0.17030 0.28800
C4 C 0.4725(5) -0.0926(5) 0.3021(5)
H2 H 0.43540 -0.14220 0.32520
O4 O 0.2967(3) 0.1034(3) 0.3045(3)
C5 C 0.4321(5) 0.0000(5) 0.2898(4)
C6 C 0.4898(5) 0.0736(5) 0.2594(4)
H3 H 0.46440 0.13590 0.25400
C7 C 0.5847(5) 0.0560(5) 0.2367(4)
H4 H 0.62290 0.10610 0.21590
C8 C 0.3268(5) 0.0179(5) 0.3097(4)
N1 N 0.3330(4) 0.3110(4) 0.3335(4)
H5 H 0.28420 0.27340 0.31470
H6 H 0.37390 0.27260 0.36230
C9 C 0.2935(7) 0.3810(8) 0.3894(5)
H7 H 0.26080 0.34840 0.43430
H8 H 0.24810 0.42150 0.36000
H9 H 0.34490 0.42040 0.41160
C10 C 0.3849(6) 0.3504(8) 0.2617(5)
H10 H 0.40890 0.29810 0.22790
H11 H 0.43840 0.38930 0.28080
H12 H 0.34160 0.38990 0.22920
N2 N 0.2281(5) -0.2281(5) 0.25000
H13 H 0.23490 -0.16660 0.26820
C11 C 0.2921(10) -0.243(1) 0.1817(8)
H14 H 0.27710 -0.19770 0.13800
H15 H 0.28470 -0.30800 0.16110
H16 H 0.35790 -0.23340 0.19980
H17? H 0.23490 -0.16660 0.26820
Pb1F Pb 0.077075(17) 0.125417(16) 0.673199(15)
Cl1F Cl 0.02041(20) 0.11660(19) 0.83756(13)
O1F O -0.1426(3) 0.7570(3) 0.7752(3)
C1F C -0.0580(5) 0.7253(5) 0.7831(4)
O2F O 0.0091(3) 0.7747(3) 0.8131(3)
C2F C -0.0365(5) 0.6232(4) 0.7551(4)
O3F O -0.0529(3) 0.2737(3) 0.6703(4)
C3F C -0.1091(5) 0.5669(5) 0.7203(4)
H1F H -0.17030 0.59380 0.71200
C4F C -0.0926(5) 0.4725(5) 0.6979(5)
H2F H -0.14220 0.43540 0.67480
O4F O 0.1034(3) 0.2967(3) 0.6955(3)
C5F C 0.0000(5) 0.4321(5) 0.7102(4)
C6F C 0.0736(5) 0.4898(5) 0.7406(4)
H3F H 0.13590 0.46440 0.74600
C7F C 0.0560(5) 0.5847(5) 0.7633(4)
H4F H 0.10610 0.62290 0.78410
C8F C 0.0179(5) 0.3268(5) 0.6903(4)
Pb1A Pb -0.125417(17) 0.922925(16) 0.826801(15)
Pb1G Pb 0.922925(17) -0.125417(16) 0.173199(15)
O1A O 0.2430(3) 0.1426(3) 0.7248(3)
O1G O 0.1426(3) 0.2430(3) 0.2752(3)
O2A O 0.2253(3) -0.0091(3) 0.6869(3)
O2G O -0.0091(3) 0.2253(3) 0.3131(3)
H13G H 0.16660 -0.23490 0.23180
C11G C 0.243(1) -0.2921(10) 0.3183(8)
H14G H 0.19770 -0.27710 0.36200
H15G H 0.30800 -0.28470 0.33890
H16G H 0.23340 -0.35790 0.30020
#END
