
#######################################################################
#
#                 Cambridge Crystallographic Data Centre
#                                CCDC
#
#######################################################################
#
# If this CIF has been generated from an entry in the Cambridge
# Structural Database, then it will include bibliographic, chemical,
# crystal, experimental, refinement or atomic coordinate data resulting
# from the CCDC's data processing and validation procedures.
#
#######################################################################

data_CSD_CIF_NAFGEI
_audit_creation_date 2011-03-04
_audit_creation_method CSD-ConQuest-V1
_database_code_CSD NAFGEI
_database_code_depnum_ccdc_archive 'CCDC 751494'
_chemical_formula_sum 'C48 H38 Mn1 N6 O14'
_chemical_formula_moiety
;
(C10 H9 N2 1+)2n,n(C28 H20 Mn1 N2 O14 2-)
;
_journal_coden_Cambridge 369
_journal_volume 35
_journal_year 2010
_journal_page_first 779
_journal_name_full 'Transition Met.Chem. '
loop_
_publ_author_name
"Fa-Nian Shi"
"M.S.Reis"
"P.Brandao"
"A.M.Souza"
"V.Felix"
"J.Rocha"
_chemical_name_systematic
;
catena-[bis(4,4'-Bipyridin-1-ium) 
(\m~2~-4,4'-bipyridine-N,N')-diaqua-bis(1-carboxybenzene-2,4-dicarboxylato-O)-
manganese(ii)]
;
_cell_volume   4469.564
_exptl_crystal_colour 'brown'
_exptl_crystal_density_diffrn 1.453
_exptl_crystal_description 'block'
_diffrn_ambient_temperature 150
#These two values have been output from a single CSD field.
_refine_ls_R_factor_gt 0.0351
_refine_ls_wR_factor_gt 0.0351
_symmetry_cell_setting monoclinic
_symmetry_space_group_name_H-M 'C 2/c'
_symmetry_Int_Tables_number 15
loop_
_symmetry_equiv_pos_site_id
_symmetry_equiv_pos_as_xyz
1 x,y,z
2 -x,y,1/2-z
3 1/2+x,1/2+y,z
4 1/2-x,1/2+y,1/2-z
5 -x,-y,-z
6 x,-y,-1/2+z
7 -1/2-x,-1/2-y,-z
8 -1/2+x,-1/2-y,-1/2+z
_cell_length_a 15.0525(2)
_cell_length_b 11.6831(2)
_cell_length_c 25.7620(5)
_cell_angle_alpha 90
_cell_angle_beta 99.408(1)
_cell_angle_gamma 90
_cell_formula_units_Z 4
loop_
_atom_type_symbol
_atom_type_radius_bond
C 0.68
H 0.23
Mn 1.61
N 0.68
O 0.68
loop_
_atom_site_label
_atom_site_type_symbol
_atom_site_fract_x
_atom_site_fract_y
_atom_site_fract_z
Mn1 Mn 0.00000 1.08850(3) 0.75000
O1 O -0.10159(9) 1.08095(11) 0.80171(5)
H1 H -0.1573(9) 1.0867(17) 0.7791(6)
H2 H -0.0983(13) 1.1344(15) 0.8288(6)
O2 O 0.11111(9) 1.09097(11) 0.81515(5)
O3 O 0.23545(9) 1.09065(13) 0.77775(5)
O4 O 0.21375(10) 1.28338(11) 0.87906(6)
H3 H 0.1811(14) 1.3527(13) 0.8808(9)
O5 O 0.15579(11) 1.23823(12) 0.95098(6)
O6 O 0.40350(12) 0.74555(12) 0.87461(6)
O7 O 0.38195(10) 0.71312(12) 0.95673(5)
C1 C -0.07661(14) 1.34330(16) 0.74580(8)
H4 H -0.13190 1.30250 0.74230
C2 C -0.07958(14) 1.46135(16) 0.74625(8)
H5 H -0.13560 1.50000 0.74400
C3 C 0.00000 1.5233(2) 0.75000
C4 C 0.00000 1.6506(2) 0.75000
C5 C -0.06971(14) 1.71303(17) 0.76571(8)
H6 H -0.11910 1.67470 0.77670
C6 C -0.06659(14) 1.83112(17) 0.76516(8)
H7 H -0.11480 1.87200 0.77620
C7 C 0.19468(13) 1.08025(15) 0.81586(7)
C8 C 0.24807(13) 1.04265(15) 0.86786(7)
C9 C 0.24511(13) 1.10027(15) 0.91533(7)
C10 C 0.28566(14) 1.05178(16) 0.96269(7)
H8 H 0.28460 1.09160 0.99470
C11 C 0.32763(14) 0.94596(16) 0.96357(7)
H9 H 0.35290 0.91210 0.99620
C12 C 0.33256(13) 0.88952(15) 0.91669(7)
C13 C 0.29378(13) 0.93949(15) 0.86918(7)
H10 H 0.29880 0.90200 0.83710
C14 C 0.19952(14) 1.21370(16) 0.91692(7)
C15 C 0.37623(14) 0.77468(16) 0.91517(7)
N1 N 0.00000 1.28308(19) 0.75000
N2 N 0.00000 1.89131(18) 0.75000
C16 C 0.41260(14) 0.41713(17) 0.95813(8)
H11 H 0.36660 0.42110 0.97930
C17 C 0.44672(14) 0.31191(17) 0.94792(8)
H12 H 0.42460 0.24440 0.96200
C18 C 0.51407(13) 0.30499(16) 0.91680(7)
C19 C 0.54351(14) 0.40684(16) 0.89730(8)
H13 H 0.58910 0.40560 0.87580
C20 C 0.50656(14) 0.50914(17) 0.90925(8)
H14 H 0.52740 0.57820 0.89590
C21 C 0.54828(16) -0.00848(18) 0.89146(9)
H15 H 0.51380 -0.07700 0.88840
C22 C 0.50611(15) 0.09272(17) 0.90069(9)
H16 H 0.44410 0.09300 0.90370
C23 C 0.55490(14) 0.19386(16) 0.90550(7)
C24 C 0.64442(15) 0.18706(18) 0.89997(9)
H17 H 0.68040 0.25420 0.90260
C25 C 0.68172(16) 0.08212(18) 0.89059(9)
H18 H 0.74340 0.07940 0.88680
N3 N 0.44203(12) 0.51402(14) 0.93918(6)
H19 H 0.4203(14) 0.5824(11) 0.9466(8)
N4 N 0.63495(12) -0.01496(14) 0.88661(7)
Mn1* Mn 0.00000 2.08850(3) 0.75000
O1A O 0.10159(9) 1.08095(11) 0.69829(5)
H1A H 0.1573(9) 1.0867(17) 0.7209(6)
H2A H 0.0983(13) 1.1344(15) 0.6712(6)
O2A O -0.11111(9) 1.09097(11) 0.68485(5)
O3A O -0.23545(9) 1.09065(13) 0.72225(5)
O4A O -0.21375(10) 1.28338(11) 0.62094(6)
H3A H -0.1811(14) 1.3527(13) 0.6192(9)
O5A O -0.15579(11) 1.23823(12) 0.54902(6)
O6A O -0.40350(12) 0.74555(12) 0.62539(6)
O7A O -0.38195(10) 0.71312(12) 0.54327(5)
C1A C 0.07661(14) 1.34330(16) 0.75420(8)
H4A H 0.13190 1.30250 0.75770
C2A C 0.07958(14) 1.46135(16) 0.75375(8)
H5A H 0.13560 1.50000 0.75600
C5A C 0.06971(14) 1.71303(17) 0.73429(8)
H6A H 0.11910 1.67470 0.72330
C6A C 0.06659(14) 1.83112(17) 0.73484(8)
H7A H 0.11480 1.87200 0.72380
C7A C -0.19468(13) 1.08025(15) 0.68414(7)
C8A C -0.24807(13) 1.04265(15) 0.63214(7)
C9A C -0.24511(13) 1.10027(15) 0.58467(7)
C10A C -0.28566(14) 1.05178(16) 0.53731(7)
H8A H -0.28460 1.09160 0.50530
C11A C -0.32763(14) 0.94596(16) 0.53643(7)
H9A H -0.35290 0.91210 0.50380
C12A C -0.33256(13) 0.88952(15) 0.58331(7)
C13A C -0.29378(13) 0.93949(15) 0.63082(7)
H10A H -0.29880 0.90200 0.66290
C14A C -0.19952(14) 1.21370(16) 0.58308(7)
C15A C -0.37623(14) 0.77468(16) 0.58483(7)
N2* N 0.00000 0.89131(18) 0.75000
#END
