
#######################################################################
#
#                 Cambridge Crystallographic Data Centre
#                                CCDC
#
#######################################################################
#
# If this CIF has been generated from an entry in the Cambridge
# Structural Database, then it will include bibliographic, chemical,
# crystal, experimental, refinement or atomic coordinate data resulting
# from the CCDC's data processing and validation procedures.
#
#######################################################################

data_CSD_CIF_NAFLIR
_audit_creation_date 2010-12-14
_audit_creation_method CSD-ConQuest-V1
_database_code_CSD NAFLIR
_database_code_depnum_ccdc_archive 'CCDC 800471'
_chemical_formula_sum 'C144 H183 Fe4 K4 N22 O18'
_chemical_formula_moiety
;
(C136 H165 Fe4 K4 N20 O16)n,2n(C4 H9 N1 O1)
;
_journal_coden_Cambridge 9
_journal_volume 49
_journal_year 2010
_journal_page_first 108
_journal_name_full 'Inorg.Chem. '
loop_
_publ_author_name
"P.Paraskevopoulou"
"Lin Ai"
"Qiuwen Wang"
"D.Pinnapareddy"
"R.Acharyya"
"R.Dinda"
"P.Das"
"R.Celenligil-Cetin"
"G.Floros"
"Y.Sanakis"
"A.Choudhury"
"N.P.Rath"
"P.Stavropoulos"
_chemical_name_systematic
;
catena-((\m~5~-N,N',N''-(Nitrilotri-2,1-phenylene)tris(2-methylpropanamide))-t
ris(\m~4~-N,N',N''-(nitrilotri-2,1-phenylene)tris(2-methylpropanamide))-bis(\m
~2~-N,N-dimethylformamide)-bis(N,N-dimethylformamide)-tetra-iron-tetra-potassi
um N,N-dimethylformamide solvate)
;
_cell_volume   7450.656
_exptl_crystal_colour 'light yellow'
_exptl_crystal_density_diffrn 1.289
_exptl_crystal_description 'prism'
_diffrn_ambient_temperature 130
#These two values have been output from a single CSD field.
_refine_ls_R_factor_gt 0.0786
_refine_ls_wR_factor_gt 0.0786
_symmetry_cell_setting triclinic
_symmetry_space_group_name_H-M 'P -1'
_symmetry_Int_Tables_number 2
loop_
_symmetry_equiv_pos_site_id
_symmetry_equiv_pos_as_xyz
1 x,y,z
2 -x,-y,-z
_cell_length_a 20.365(3)
_cell_length_b 20.450(3)
_cell_length_c 21.442(3)
_cell_angle_alpha 64.440(2)
_cell_angle_beta 81.256(2)
_cell_angle_gamma 67.663(2)
_cell_formula_units_Z 2
loop_
_atom_type_symbol
_atom_type_radius_bond
C 0.68
H 0.23
Fe 1.52
K 2.05
N 0.77
O 0.68
loop_
_atom_site_label
_atom_site_type_symbol
_atom_site_fract_x
_atom_site_fract_y
_atom_site_fract_z
Fe1 Fe 0.70016(4) -0.27929(4) 0.22424(4)
Fe2 Fe 0.89895(4) -0.29080(5) 0.17502(4)
Fe3 Fe 0.47213(4) -0.67813(4) 0.29302(4)
Fe4 Fe 0.67391(4) -0.77213(4) 0.23215(4)
K1 K 0.75266(7) -0.09047(8) 0.17187(7)
K2 K 0.62155(6) -0.58911(7) 0.27310(6)
K3 K 1.17663(7) -0.62944(8) 0.25126(8)
K4 K 1.22516(8) -0.84364(9) 0.34956(8)
O1 O 0.58299(18) -0.7061(2) 0.17979(17)
O2 O 0.54802(18) -0.7785(2) 0.34563(18)
O3 O 0.7261(2) 0.0319(2) 0.1858(2)
O4 O 0.69344(19) -0.6095(2) 0.17061(19)
O5 O 0.8399(2) -0.1164(2) 0.0807(2)
N1 N 0.5877(2) -0.2198(2) 0.1551(2)
C1 C 0.6035(3) -0.2704(3) 0.1202(3)
C2 C 0.6467(3) -0.3475(3) 0.1559(3)
N2 N 0.6763(2) -0.3676(3) 0.2194(2)
C3 C 0.6594(3) -0.3985(3) 0.1234(3)
H1 H 0.68660 -0.45180 0.14690
C4 C 0.6328(3) -0.3716(3) 0.0582(3)
H2 H 0.64240 -0.40680 0.03720
C5 C 0.5923(3) -0.2948(3) 0.0226(3)
H3 H 0.57490 -0.27700 -0.02270
C6 C 0.5774(3) -0.2437(3) 0.0539(3)
H4 H 0.54940 -0.19070 0.03000
C7 C 0.6822(3) -0.4364(3) 0.2719(3)
O6 O 0.6589(2) -0.4843(2) 0.2703(2)
C8 C 0.7205(3) -0.4572(3) 0.3373(3)
H5 H 0.72460 -0.40920 0.33550
C9 C 0.7936(4) -0.5142(5) 0.3388(4)
H6 H 0.81890 -0.52810 0.38070
H7 H 0.81950 -0.49100 0.29800
H8 H 0.79040 -0.56080 0.33890
C10 C 0.6777(5) -0.4880(6) 0.4001(4)
H9 H 0.70250 -0.50130 0.44210
H10 H 0.67230 -0.53440 0.40180
H11 H 0.63080 -0.44840 0.39700
C11 C 0.5388(3) -0.2309(3) 0.2110(3)
N3 N 0.6180(2) -0.2139(3) 0.2686(2)
C12 C 0.5551(3) -0.2270(3) 0.2699(3)
C13 C 0.5117(3) -0.2439(3) 0.3279(3)
H12 H 0.52210 -0.24200 0.36870
C14 C 0.4544(3) -0.2632(4) 0.3264(3)
H13 H 0.42560 -0.27460 0.36610
C15 C 0.4385(3) -0.2661(4) 0.2675(3)
H14 H 0.39850 -0.27890 0.26660
C16 C 0.4810(3) -0.2502(3) 0.2092(3)
H15 H 0.47030 -0.25250 0.16870
O7 O 0.67918(19) -0.1433(2) 0.2711(2)
C17 C 0.6213(3) -0.1529(3) 0.2765(3)
C18 C 0.5560(3) -0.0956(3) 0.2929(3)
H16 H 0.51340 -0.10660 0.28880
C19 C 0.5476(3) -0.0125(3) 0.2407(3)
H17 H 0.54450 -0.00800 0.19370
H18 H 0.58880 -0.00060 0.24450
H19 H 0.50430 0.02400 0.25060
C20 C 0.5612(3) -0.1055(4) 0.3673(3)
H20 H 0.56650 -0.15880 0.39930
H21 H 0.51800 -0.06970 0.37810
H22 H 0.60240 -0.09420 0.37190
C21 C 0.5913(3) -0.1440(3) 0.1156(3)
N4 N 0.7194(2) -0.2080(3) 0.1232(2)
C22 C 0.6591(3) -0.1401(3) 0.0937(3)
C23 C 0.6640(3) -0.0675(3) 0.0528(3)
H23 H 0.70880 -0.06360 0.03590
C24 C 0.6039(3) -0.0010(3) 0.0367(3)
H24 H 0.60790 0.04810 0.00840
C25 C 0.5386(3) -0.0054(3) 0.0611(3)
H25 H 0.49800 0.04060 0.05150
C26 C 0.5320(3) -0.0779(3) 0.1004(3)
H26 H 0.48680 -0.08140 0.11640
O8 O 0.83007(19) -0.2860(2) 0.11458(19)
C27 C 0.7719(3) -0.2329(3) 0.0860(3)
C28 C 0.7668(3) -0.2084(4) 0.0087(3)
H27 H 0.71860 -0.16860 -0.00770
C29 C 0.7739(3) -0.2774(4) -0.0050(3)
H28 H 0.73800 -0.29950 0.02120
H29 H 0.82130 -0.31660 0.00950
H30 H 0.76700 -0.26080 -0.05450
C30 C 0.8221(4) -0.1722(5) -0.0313(3)
H31 H 0.81700 -0.15730 -0.08080
H32 H 0.86980 -0.20990 -0.01530
H33 H 0.81480 -0.12620 -0.02330
N5 N 1.0016(2) -0.2992(3) 0.2420(2)
C31 C 1.0124(3) -0.3747(3) 0.2950(3)
N6 N 0.9777(2) -0.4035(3) 0.2097(2)
C32 C 1.0020(3) -0.4280(3) 0.2773(3)
C33 C 1.0118(3) -0.5031(3) 0.3294(3)
H34 H 1.00630 -0.54120 0.31860
C34 C 1.0294(3) -0.5210(4) 0.3966(3)
H35 H 1.03660 -0.57170 0.43130
C35 C 1.0368(3) -0.4660(4) 0.4135(3)
H36 H 1.04780 -0.47810 0.45960
C36 C 1.0277(3) -0.3932(4) 0.3621(3)
H37 H 1.03200 -0.35490 0.37330
O9 O 1.0616(2) -0.5100(3) 0.1975(2)
C37 C 1.0109(3) -0.4465(3) 0.1743(3)
C38 C 0.9837(3) -0.4149(4) 0.1015(3)
H38 H 0.95390 -0.35890 0.08710
C39 C 0.9370(4) -0.4581(5) 0.0998(5)
H39 H 0.89760 -0.45240 0.13190
H40 H 0.96550 -0.51310 0.11360
H41 H 0.91810 -0.43630 0.05280
C40 C 1.0467(4) -0.4217(5) 0.0518(4)
H42 H 1.07500 -0.39340 0.05430
H43 H 1.02870 -0.39960 0.00450
H44 H 1.07630 -0.47640 0.06510
C41 C 1.0214(3) -0.2392(3) 0.1185(3)
N7 N 0.9463(2) -0.2102(3) 0.1137(2)
C42 C 1.0503(3) -0.2903(3) 0.1851(3)
C43 C 1.1228(3) -0.3307(3) 0.1941(3)
H45 H 1.14230 -0.36470 0.23910
C44 C 1.1667(3) -0.3216(4) 0.1373(3)
H46 H 1.21620 -0.35030 0.14340
C45 C 1.1386(3) -0.2709(4) 0.0720(3)
H47 H 1.16920 -0.26390 0.03340
C46 C 1.0666(3) -0.2303(4) 0.0624(3)
H48 H 1.04780 -0.19600 0.01710
C47 C 0.9060(3) -0.1356(4) 0.0825(3)
C48 C 0.9368(3) -0.0706(4) 0.0502(3)
H49 H 0.98970 -0.09390 0.05560
C49 C 0.9083(4) -0.0175(4) 0.0876(4)
H50 H 0.92780 0.02420 0.06700
H51 H 0.92220 -0.04710 0.13650
H52 H 0.85640 0.00470 0.08340
C50 C 0.9175(4) -0.0272(4) -0.0268(4)
H53 H 0.93700 0.01460 -0.04780
H54 H 0.86580 -0.00520 -0.03250
H55 H 0.93750 -0.06310 -0.04940
C51 C 0.9667(3) -0.2353(3) 0.2602(3)
N8 N 0.8590(2) -0.2578(3) 0.2582(2)
C52 C 0.8936(3) -0.2189(3) 0.2737(3)
C53 C 0.8587(3) -0.1591(3) 0.2959(3)
H56? H 0.80940 -0.14670 0.30540
C54 C 0.8943(3) -0.1181(4) 0.3041(3)
H57 H 0.86950 -0.07820 0.31960
C55 C 0.9661(3) -0.1345(4) 0.2899(3)
H58 H 0.99030 -0.10550 0.29510
C56 C 1.0024(3) -0.1935(4) 0.2681(3)
H59 H 1.05170 -0.20530 0.25860
O10 O 0.78358(18) -0.3223(2) 0.28561(18)
C57 C 0.8190(3) -0.2942(3) 0.3035(3)
C58 C 0.8210(3) -0.3148(3) 0.3811(3)
H60 H 0.85520 -0.29500 0.38970
C59 C 0.8481(3) -0.4025(4) 0.4183(3)
H61 H 0.85000 -0.41760 0.46820
H62 H 0.89570 -0.42400 0.40200
H63 H 0.81590 -0.42270 0.40860
C60 C 0.7485(3) -0.2796(3) 0.4080(3)
H64 H 0.75220 -0.29420 0.45760
H65 H 0.71460 -0.29910 0.40030
H66 H 0.73190 -0.22310 0.38350
N9 N 0.3678(2) -0.5535(2) 0.2332(2)
C61 C 0.3446(3) -0.5745(3) 0.1866(3)
N10 N 0.3892(2) -0.7052(2) 0.2747(2)
C62 C 0.3525(3) -0.6526(3) 0.2109(3)
C63 C 0.3275(3) -0.6745(3) 0.1682(3)
H67 H 0.33220 -0.72710 0.18300
C64 C 0.2961(3) -0.6204(4) 0.1046(3)
H68 H 0.27910 -0.63620 0.07670
C65 C 0.2892(3) -0.5431(4) 0.0811(3)
H69 H 0.26740 -0.50630 0.03750
C66 C 0.3147(3) -0.5206(3) 0.1223(3)
H70 H 0.31160 -0.46830 0.10640
O11 O 1.29687(19) -0.7514(2) 0.3139(2)
C67 C 0.3577(3) -0.7528(3) 0.3205(3)
C68 C 0.4018(3) -0.8156(4) 0.3846(3)
H71 H 0.44050 -0.79920 0.38960
C69 C 0.3578(4) -0.8263(6) 0.4492(4)
H72 H 0.38770 -0.86710 0.48940
H73 H 0.31880 -0.84120 0.44500
H74 H 0.33830 -0.77760 0.45530
C70 C 0.4359(4) -0.8901(4) 0.3746(4)
H75 H 0.46430 -0.93070 0.41570
H76 H 0.46670 -0.88200 0.33410
H77 H 0.39890 -0.90590 0.36740
C71 C 0.3233(3) -0.5521(3) 0.2919(3)
N11 N 0.4314(2) -0.6192(3) 0.3568(2)
C72 C 0.3571(3) -0.5843(3) 0.3560(3)
C73 C 0.3145(3) -0.5862(3) 0.4137(3)
H78 H 0.33610 -0.60920 0.45810
C74 C 0.2412(3) -0.5552(4) 0.4074(3)
H79 H 0.21310 -0.55510 0.44710
C75 C 0.2084(3) -0.5242(3) 0.3438(3)
H80 H 0.15810 -0.50440 0.34010
C76 C 0.2494(3) -0.5220(3) 0.2856(3)
H81 H 0.22730 -0.50030 0.24160
O12 O 0.54254(19) -0.6328(2) 0.37498(19)
C77 C 0.4763(3) -0.6008(3) 0.3796(3)
C78 C 0.4524(3) -0.5407(3) 0.4096(3)
H82 H 0.39930 -0.51800 0.40840
C79 C 0.4788(4) -0.5788(4) 0.4846(3)
H83 H 0.46320 -0.53980 0.50390
H84 H 0.53080 -0.60120 0.48600
H85 H 0.45930 -0.61970 0.51190
C80 C 0.4817(4) -0.4770(4) 0.3673(3)
H86 H 0.46470 -0.45280 0.31940
H87 H 0.53370 -0.49890 0.36850
H88 H 0.46580 -0.43800 0.38660
C81 C 0.4032(3) -0.4980(3) 0.2041(2)
N12 N 0.5074(2) -0.6050(2) 0.2016(2)
C82 C 0.4729(3) -0.5249(3) 0.1829(3)
C83 C 0.5078(3) -0.4717(3) 0.1515(3)
H89 H 0.55490 -0.48820 0.13570
C84 C 0.4748(3) -0.3949(3) 0.1431(3)
H90 H 0.49920 -0.35940 0.12160
C85 C 0.4062(3) -0.3702(3) 0.1661(3)
H91 H 0.38360 -0.31810 0.16100
C86 C 0.3704(3) -0.4224(3) 0.1968(3)
H92 H 0.32340 -0.40590 0.21270
C87 C 0.5442(2) -0.6348(3) 0.1573(3)
C88 C 0.5358(3) -0.5896(3) 0.0790(3)
H93 H 0.50680 -0.53400 0.06820
C89 C 0.6077(3) -0.5947(3) 0.0438(3)
H94 H 0.63220 -0.57240 0.06090
H95 H 0.60040 -0.56590 -0.00630
H96 H 0.63660 -0.64910 0.05440
C90 C 0.4951(3) -0.6239(3) 0.0540(3)
H97 H 0.44940 -0.61970 0.07750
H98 H 0.52310 -0.67850 0.06460
H99 H 0.48680 -0.59530 0.00390
N13 N 0.7882(2) -0.8613(3) 0.3032(2)
C91 C 0.7708(3) -0.9306(3) 0.3380(3)
N14 N 0.7005(2) -0.8822(3) 0.2361(2)
C92 C 0.7287(3) -0.9426(3) 0.3013(3)
C93 C 0.7135(3) -1.0102(3) 0.3331(3)
H100 H 0.68590 -1.02060 0.30900
C94 C 0.7379(3) -1.0631(3) 0.3995(3)
H101 H 0.72570 -1.10830 0.42070
C95 C 0.7794(3) -1.0508(3) 0.4348(3)
H102 H 0.79650 -1.08790 0.48000
C96 C 0.7964(3) -0.9839(3) 0.4044(3)
H103 H 0.82490 -0.97470 0.42860
C97 C 0.7008(3) 0.0981(3) 0.1834(3)
C98 C 0.6675(3) 0.1650(3) 0.1157(3)
H104 H 0.65110 0.21470 0.12170
C99 C 0.7224(4) 0.1676(5) 0.0594(4)
H105 H 0.76280 0.17420 0.07250
H106 H 0.70130 0.21120 0.01600
H107 H 0.73880 0.11910 0.05330
C100 C 0.6038(4) 0.1547(4) 0.0974(5)
H108 H 0.58230 0.19770 0.05390
H109 H 0.56890 0.15400 0.13430
H110 H 0.61930 0.10570 0.09220
C101 C 0.7858(3) -0.8188(3) 0.3426(3)
N15 N 0.6581(2) -0.7749(2) 0.3339(2)
C102 C 0.7192(3) -0.7792(3) 0.3616(3)
C103 C 0.7150(3) -0.7396(3) 0.4021(3)
H111 H 0.66990 -0.71400 0.41660
C104 C 0.7755(3) -0.7372(3) 0.4214(3)
H112 H 0.77230 -0.71040 0.44920
C105 C 0.8409(3) -0.7744(4) 0.3997(3)
H113 H 0.88260 -0.77200 0.41180
C106 C 0.8461(3) -0.8152(3) 0.3602(3)
H114 H 0.89120 -0.84050 0.34540
C107 C 0.6061(3) -0.7942(3) 0.3725(3)
C108 C 0.6143(3) -0.8421(3) 0.4505(3)
H115 H 0.66350 -0.85400 0.46470
C109 C 0.6045(3) -0.9184(3) 0.4672(3)
H116 H 0.60970 -0.94980 0.51710
H117 H 0.64050 -0.94680 0.44310
H118 H 0.55710 -0.90770 0.45190
C110 C 0.5617(3) -0.7999(4) 0.4918(3)
H119 H 0.56830 -0.75110 0.48090
H120 H 0.57010 -0.83260 0.54130
H121 H 0.51310 -0.78910 0.47950
C111 C 0.8383(3) -0.8603(3) 0.2472(3)
N16 N 0.7572(2) -0.7327(3) 0.1847(2)
C112 C 0.8223(3) -0.7914(3) 0.1877(3)
C113 C 0.8676(3) -0.7915(4) 0.1318(3)
H122 H 0.85720 -0.74670 0.08950
C114 C 0.9267(3) -0.8549(4) 0.1367(3)
H123 H 0.95780 -0.85270 0.09860
C115 C 0.9416(3) -0.9225(4) 0.1971(4)
H124 H 0.98200 -0.96680 0.19970
C116 C 0.8980(3) -0.9251(3) 0.2529(3)
H125 H 0.90830 -0.97060 0.29480
C117 C 0.7528(3) -0.6605(3) 0.1718(3)
C118 C 0.8189(3) -0.6377(3) 0.1618(3)
H126 H 0.86220 -0.68450 0.16760
C119 C 0.8181(3) -0.5763(4) 0.0899(3)
H127 H 0.86030 -0.56210 0.08390
H128 H 0.77530 -0.53050 0.08320
H129 H 0.81830 -0.59640 0.05580
C120 C 0.8205(3) -0.6099(3) 0.2173(3)
H130 H 0.86240 -0.59540 0.21110
H131 H 0.82240 -0.65170 0.26320
H132 H 0.77750 -0.56490 0.21310
O13 O 0.7801(4) 0.0376(5) -0.1902(4)
C121 C 0.8009(5) 0.0871(6) -0.1856(4)
C122 C 0.8646(5) 0.1007(6) -0.2244(5)
H133 H 0.88220 0.06890 -0.25100
H134 H 0.90160 0.08670 -0.19180
H135 H 0.85200 0.15560 -0.25590
N17 N 0.7680(4) 0.1227(4) -0.1462(4)
C123 C 0.7074(5) 0.1044(6) -0.1050(5)
H136 H 0.69760 0.06680 -0.11550
H137 H 0.66540 0.15180 -0.11640
H138 H 0.71900 0.08230 -0.05570
C124 C 0.7899(6) 0.1777(6) -0.1373(7)
H139 H 0.83030 0.18510 -0.16730
H140 H 0.80390 0.15800 -0.08900
H141 H 0.75030 0.22740 -0.14980
O14 O 1.3155(3) -0.9603(3) 0.3243(3)
C125 C 1.3347(4) -0.9897(5) 0.2817(5)
C126 C 1.3415(4) -1.0712(4) 0.3024(5)
H142 H 1.32980 -1.09350 0.35130
H143 H 1.39030 -1.10110 0.29510
H144 H 1.30880 -1.07280 0.27430
N18 N 1.3487(3) -0.9486(4) 0.2156(4)
C127 C 1.3607(6) -0.9761(6) 0.1616(5)
H145 H 1.36140 -1.02940 0.18150
H146 H 1.40640 -0.97470 0.13990
H147 H 1.32260 -0.94280 0.12670
C128 C 1.3460(5) -0.8693(5) 0.1953(5)
H148 H 1.33750 -0.85750 0.23620
H149 H 1.30750 -0.83270 0.16150
H150 H 1.39130 -0.86460 0.17480
O15 O 1.1374(3) -0.9240(3) 0.4165(3)
C129 C 1.1413(4) -0.9905(5) 0.4262(4)
C130 C 1.2100(4) -1.0572(4) 0.4433(4)
H151 H 1.24820 -1.03980 0.44470
H152 H 1.22010 -1.07790 0.40790
H153 H 1.20670 -1.09770 0.48850
N19 N 1.0832(3) -1.0053(4) 0.4221(4)
C131 C 1.0167(5) -0.9416(6) 0.3995(6)
H154 H 1.02130 -0.89490 0.39780
H155 H 0.97940 -0.95410 0.43190
H156 H 1.00420 -0.93250 0.35330
C132 C 1.0840(6) -1.0790(5) 0.4271(5)
H157 H 1.13110 -1.11850 0.44280
H158 H 1.07310 -1.07330 0.38160
H159 H 1.04830 -1.09470 0.46030
O16 O 1.1671(3) -0.7482(3) 0.2218(3)
C133 C 1.1165(5) -0.7392(6) 0.1904(5)
C134 C 1.0757(8) -0.6591(7) 0.1427(7)
H160 H 1.09380 -0.62280 0.14650
H161 H 1.02540 -0.64630 0.15490
H162 H 1.08110 -0.65500 0.09510
N20 N 1.1021(4) -0.8006(6) 0.1950(5)
C135 C 1.1525(6) -0.8817(6) 0.2345(5)
H163 H 1.19100 -0.87930 0.25500
H164 H 1.17250 -0.90740 0.20290
H165 H 1.12690 -0.91110 0.27130
C136 C 1.0394(6) -0.7879(13) 0.1597(9)
H166 H 1.01270 -0.73220 0.13720
H167 H 1.00910 -0.81350 0.19350
H168 H 1.05430 -0.80950 0.12490
O17 O 0.8595(4) 0.2476(5) -0.4364(5)
C137 C 0.8202(7) 0.3035(8) -0.4254(8)
C138 C 0.8377(6) 0.3734(8) -0.4335(10)
H169 H 0.79620 0.40970 -0.42120
H170 H 0.85020 0.39930 -0.48160
H171 H 0.87780 0.35570 -0.40300
N21 N 0.7671(4) 0.3069(6) -0.3929(5)
C139 C 0.7393(7) 0.2371(7) -0.3821(7)
H172 H 0.77700 0.19810 -0.39510
H173 H 0.69720 0.25860 -0.41130
H174 H 0.72730 0.21290 -0.33350
C140 C 0.7118(7) 0.3654(7) -0.3735(10)
H175 H 0.72900 0.40670 -0.38030
H176 H 0.69990 0.34150 -0.32490
H177 H 0.66940 0.38730 -0.40250
O18 O 1.1218(3) -0.7170(3) 0.3639(3)
C141 C 1.0771(6) -0.7206(6) 0.4054(7)
C142 C 1.0010(6) -0.7144(11) 0.3801(14)
H178 H 0.96740 -0.71820 0.41830
H179 H 1.00950 -0.75680 0.36630
H180 H 0.98110 -0.66470 0.34080
N22 N 1.0678(10) -0.7280(6) 0.4563(8)
C143 C 1.1566(7) -0.7273(8) 0.4738(7)
H181 H 1.18410 -0.71740 0.43120
H182 H 1.18310 -0.77760 0.50950
H183 H 1.14810 -0.68650 0.48970
C144 C 1.0437(10) -0.7414(11) 0.5166(10)
H184 H 0.99640 -0.74400 0.51800
H185 H 1.04040 -0.69970 0.52940
H186 H 1.07540 -0.79080 0.54920
C67* C 1.3577(3) -0.7528(3) 0.3205(3)
O11* O 0.29687(19) -0.7514(2) 0.3139(2)
C97* C 0.7008(3) -0.9019(3) 0.1834(3)
N14* N 0.7005(2) 0.1178(3) 0.2361(2)
#END
