
#######################################################################
#
#                 Cambridge Crystallographic Data Centre
#                                CCDC
#
#######################################################################
#
# If this CIF has been generated from an entry in the Cambridge
# Structural Database, then it will include bibliographic, chemical,
# crystal, experimental, refinement or atomic coordinate data resulting
# from the CCDC's data processing and validation procedures.
#
#######################################################################

data_CSD_CIF_NAFPUJ
_audit_creation_date 2020-11-12
_audit_creation_method CSD-ConQuest-V1
_database_code_CSD NAFPUJ
_database_code_depnum_ccdc_archive 'CCDC 2013013'
_chemical_formula_sum 'C20 H22 Cd1 N4 O12'
_chemical_formula_moiety
;
(C16 H6 Cd1 N2 O12 2-)n,2(C2 H8 N1 1+)
;
_journal_coden_Cambridge 169
_journal_volume 225
_journal_year 2021
_journal_page_first 133
_journal_name_full 'Faraday Discuss. '
loop_
_publ_author_name
"D.Watkins"
"T.M.Roseveare"
"M.R.Warren"
"S.P.Thompson"
"A.J.Fletcher"
"L.Brammer"
_chemical_name_systematic
;
catena-[bis(dimethylammonium) 
bis(\m-2-nitrobenzene-1,4-dicarboxylato)-cadmium(ii) unknown solvate]
;
_chemical_name_common
;
SHF-81
;
_cell_volume   2298.619
_exptl_crystal_colour 'orange'
_exptl_crystal_density_diffrn 1.35
_exptl_special_details
;
Solvent removed by heating prior to study. Data collection under 20 bar CO2 
atmosphere
;
_exptl_crystal_description 'needle'
_exptl_crystal_preparation 'N,N-dimethylformamide'
_diffrn_ambient_temperature 298
_diffrn_ambient_pressure 2000.0
_diffrn_radiation_probe x-ray
_diffrn_source synchrotron
_diffrn_special_details
;
twin

;
#These two values have been output from a single CSD field.
_refine_ls_R_factor_gt 0.1232
_refine_ls_wR_factor_gt 0.1232
_symmetry_cell_setting hexagonal
_symmetry_space_group_name_H-M 'P 31 2 1'
_symmetry_Int_Tables_number 152
loop_
_symmetry_equiv_pos_site_id
_symmetry_equiv_pos_as_xyz
1 x,y,z
2 -y,x-y,1/3+z
3 -x+y,-x,2/3+z
4 x-y,-y,2/3-z
5 -x,-x+y,1/3-z
6 y,x,-z
_cell_length_a 14.366(3)
_cell_length_b 14.366(3)
_cell_length_c 12.8607(10)
_cell_angle_alpha 90
_cell_angle_beta 90
_cell_angle_gamma 120
_cell_formula_units_Z 3
loop_
_atom_type_symbol
_atom_type_radius_bond
C 0.68
H 0.23
Cd 1.44
N 0.68
O 0.68
loop_
_atom_site_label
_atom_site_type_symbol
_atom_site_fract_x
_atom_site_fract_y
_atom_site_fract_z
Cd1 Cd 0.00000 0.5202(5) 0.16667
O1 O -0.062(5) 0.602(4) 0.048(3)
C1 C -0.130(6) 0.524(5) 0.007(6)
C2 C -0.199(4) 0.502(4) -0.081(3)
C3 C -0.162(4) 0.586(4) -0.152(4)
C4 C -0.223(4) 0.579(4) -0.238(3)
H1 H -0.19810 0.63499 -0.28558
C5 C -0.323(4) 0.487(4) -0.253(3)
C6 C -0.361(3) 0.403(4) -0.183(3)
H2 H -0.42723 0.34166 -0.19272
C7 C -0.299(4) 0.410(4) -0.096(3)
H3 H -0.32409 0.35391 -0.04900
O2 O -0.377(4) 0.551(4) -0.400(4)
C8 C -0.378(5) 0.477(5) -0.351(4)
O3 O -0.464(5) 0.397(4) -0.364(3)
O4 O -0.130(5) 0.442(4) 0.027(4)
O5 O 0.007(5) 0.733(7) -0.163(7)
N1 N -0.080(4) 0.697(4) -0.121(5)
O6 O -0.115(7) 0.746(6) -0.071(8)
N2 N -0.161(7) 0.225(9) 0.016(7)
H4 H -0.13215 0.28373 0.05593
H5 H -0.22744 0.18346 0.03941
C9 C -0.172(9) 0.258(10) -0.075(9)
H6 H -0.21414 0.29237 -0.06879
H7 H -0.10248 0.30768 -0.10261
H8 H -0.20754 0.19714 -0.12081
C10 C -0.110(8) 0.176(9) 0.038(8)
H9 H -0.11478 0.16169 0.11174
H10 H -0.14059 0.10905 0.00099
H11 H -0.03553 0.21959 0.01919
O1D O 0.062(5) 0.664(4) 0.285333(3000)
C1D C 0.130(6) 0.654(5) 0.326333(6000)
C2D C 0.199(4) 0.701(4) 0.414333(3000)
C3D C 0.162(4) 0.748(4) 0.485333(4000)
C4D C 0.223(4) 0.802(4) 0.571333(3000)
H1D H 0.19810 0.83309 0.61891
C5D C 0.323(4) 0.810(4) 0.586333(3000)
C6D C 0.361(3) 0.764(4) 0.516333(3000)
H2D H 0.42723 0.76889 0.52605
C7D C 0.299(4) 0.709(4) 0.429333(3000)
H3D H 0.32409 0.67800 0.38233
O2D O 0.377(4) 0.928(4) 0.733333(4000)
C8D C 0.378(5) 0.855(5) 0.684333(4000)
O3D O 0.464(5) 0.861(4) 0.697333(3000)
O4D O 0.130(5) 0.572(4) 0.306333(4000)
O5D O -0.007(5) 0.726(7) 0.496333(7000)
N1D N 0.080(4) 0.777(4) 0.454333(5000)
O6D O 0.115(7) 0.861(6) 0.404333(8000)
Cd1A Cd -0.52020 0.4798(5) -0.50000
Cd1B Cd 0.52020 1.0000(5) 0.83333
O2B O -0.072(4) 0.377(4) 0.266667(4000)
O2C O 0.072(4) 0.449(4) 0.066667(4000)
O3B O -0.139(5) 0.464(4) 0.302667(3000)
O3C O 0.139(5) 0.603(4) 0.030667(3000)
#END
