
#######################################################################
#
#                 Cambridge Crystallographic Data Centre
#                                CCDC
#
#######################################################################
#
# If this CIF has been generated from an entry in the Cambridge
# Structural Database, then it will include bibliographic, chemical,
# crystal, experimental, refinement or atomic coordinate data resulting
# from the CCDC's data processing and validation procedures.
#
#######################################################################

data_CSD_CIF_NAFPUJ02
_audit_creation_date 2020-11-12
_audit_creation_method CSD-ConQuest-V1
_database_code_CSD NAFPUJ02
_database_code_depnum_ccdc_archive 'CCDC 2013019'
_chemical_formula_sum 'C20 H22 Cd1 N4 O12'
_chemical_formula_moiety
;
(C16 H6 Cd1 N2 O12 2-)n,2(C2 H8 N1 1+)
;
_journal_coden_Cambridge 169
_journal_volume 225
_journal_year 2021
_journal_page_first 133
_journal_name_full 'Faraday Discuss. '
loop_
_publ_author_name
"D.Watkins"
"T.M.Roseveare"
"M.R.Warren"
"S.P.Thompson"
"A.J.Fletcher"
"L.Brammer"
_chemical_name_systematic
;
catena-[bis(dimethylammonium) 
bis(\m-2-nitrobenzene-1,4-dicarboxylato)-cadmium(ii)]
;
_chemical_name_common
;
SHF-81
;
_cell_volume   2276.134
_exptl_crystal_colour 'orange'
_exptl_crystal_density_diffrn 1.363
_exptl_special_details
;
Solvent removed by heating prior to study. Data collection under 10 bar CO2 
atmosphere
;
_exptl_crystal_description 'needle'
_exptl_crystal_preparation 'N,N-dimethylformamide'
_diffrn_ambient_temperature 298
_diffrn_ambient_pressure 1000.0
_diffrn_radiation_probe x-ray
_diffrn_source synchrotron
_diffrn_special_details
;
twin

;
#These two values have been output from a single CSD field.
_refine_ls_R_factor_gt 0.0851
_refine_ls_wR_factor_gt 0.0851
_symmetry_cell_setting hexagonal
_symmetry_space_group_name_H-M 'P 31 2 1'
_symmetry_Int_Tables_number 152
loop_
_symmetry_equiv_pos_site_id
_symmetry_equiv_pos_as_xyz
1 x,y,z
2 -y,x-y,1/3+z
3 -x+y,-x,2/3+z
4 x-y,-y,2/3-z
5 -x,-x+y,1/3-z
6 y,x,-z
_cell_length_a 14.2180(12)
_cell_length_b 14.2180(12)
_cell_length_c 13.0014(6)
_cell_angle_alpha 90
_cell_angle_beta 90
_cell_angle_gamma 120
_cell_formula_units_Z 3
loop_
_atom_type_symbol
_atom_type_radius_bond
C 0.68
H 0.23
Cd 1.44
N 0.68
O 0.68
loop_
_atom_site_label
_atom_site_type_symbol
_atom_site_fract_x
_atom_site_fract_y
_atom_site_fract_z
Cd1 Cd 0.52604(16) 0.52604(16) 0.00000
C1 C 0.523(3) 0.647(2) -0.161(2)
O1 O 0.437(3) 0.568(3) -0.129(2)
C2 C 0.5129(16) 0.6985(17) -0.2590(13)
C3 C 0.4233(14) 0.7128(16) -0.2673(11)
H1 H 0.37060 0.68660 -0.21610
C4 C 0.4126(13) 0.7661(15) -0.3522(11)
H2 H 0.35260 0.77570 -0.35770
C5 C 0.4914(14) 0.8053(14) -0.4287(10)
C6 C 0.5810(15) 0.7911(19) -0.4204(14)
H3 H 0.63370 0.81730 -0.47160
C7 C 0.5917(15) 0.738(2) -0.3356(17)
O2 O 0.618(3) 0.686(2) -0.1199(17)
O3 O 0.3923(18) 0.8595(15) -0.5355(11)
O4 O 0.557(2) 0.922(2) -0.5712(16)
C8 C 0.473(3) 0.856(2) -0.5203(18)
N1 N 0.684(3) 0.728(4) -0.346(3)
O5 O 0.656(3) 0.618(4) -0.335(4)
O6 O 0.750(5) 0.770(6) -0.439(3)
N2 N 0.226(3) 0.390(4) -0.179(3)
H4 H 0.18110 0.41610 -0.17180
H5 H 0.29230 0.43810 -0.15720
C9 C 0.226(7) 0.356(6) -0.267(4)
H6 H 0.27860 0.33360 -0.27210
H7 H 0.24260 0.41330 -0.31630
H8 H 0.15490 0.29580 -0.28230
C10 C 0.179(8) 0.267(8) -0.128(4)
H9 H 0.11490 0.21530 -0.16520
H10 H 0.16010 0.26800 -0.05730
H11 H 0.23310 0.24600 -0.13270
C1E C 0.647(3) 0.523(2) -0.839(2)
O1E O 0.568(3) 0.437(3) -0.871(2)
C2E C 0.6985(16) 0.5129(17) -0.7410(13)
C3E C 0.7128(14) 0.4233(16) -0.7327(11)
H1E H 0.68660 0.37060 -0.78390
C4E C 0.7661(13) 0.4126(15) -0.6478(11)
H2E H 0.77570 0.35260 -0.64230
C5E C 0.8053(14) 0.4914(14) -0.5713(10)
C6E C 0.7911(15) 0.5810(19) -0.5796(14)
H3E H 0.81730 0.63370 -0.52840
C7E C 0.7380(15) 0.5917(20) -0.6644(17)
O2E O 0.686(3) 0.618(2) -0.8801(17)
O3E O 0.8595(18) 0.3923(15) -0.4645(11)
O4E O 0.922(2) 0.557(2) -0.4288(16)
C8E C 0.856(3) 0.473(2) -0.4797(18)
N1E N 0.728(3) 0.684(4) -0.654(3)
O5E O 0.618(3) 0.656(4) -0.665(4)
O6E O 0.770(5) 0.750(6) -0.561(3)
Cd1* Cd 0.52604(16) 0.52604(16) -1.00000
Cd1A Cd 0.47396(16) 1.00000(16) -0.66667
Cd1B Cd 1.00000(16) 0.47396(16) -0.33333
O1E* O 0.568(3) 0.437(3) 0.129(2)
O2E* O 0.686(3) 0.618(2) 0.1199(17)
O3B O 0.4672(18) 0.6077(15) 0.131167(1100)
O3D O 0.6077(18) 0.4672(15) -0.131167(1100)
O4B O 0.365(2) 0.443(2) 0.095467(1600)
O4D O 0.443(2) 0.365(2) -0.095467(1600)
#END
