
#######################################################################
#
#                 Cambridge Crystallographic Data Centre
#                                CCDC
#
#######################################################################
#
# If this CIF has been generated from an entry in the Cambridge
# Structural Database, then it will include bibliographic, chemical,
# crystal, experimental, refinement or atomic coordinate data resulting
# from the CCDC's data processing and validation procedures.
#
#######################################################################

data_CSD_CIF_NAFPIX
_audit_creation_date 2020-11-12
_audit_creation_method CSD-ConQuest-V1
_database_code_CSD NAFPIX
_database_code_depnum_ccdc_archive 'CCDC 2013011'
_chemical_formula_sum 'C20 H22 Cd1 N4 O12'
_chemical_formula_moiety
;
(C16 H6 Cd1 N2 O12 2-)n,2(C2 H8 N1 1+)
;
_journal_coden_Cambridge 169
_journal_volume 225
_journal_year 2021
_journal_page_first 133
_journal_name_full 'Faraday Discuss. '
loop_
_publ_author_name
"D.Watkins"
"T.M.Roseveare"
"M.R.Warren"
"S.P.Thompson"
"A.J.Fletcher"
"L.Brammer"
_chemical_name_systematic
;
catena-[bis(dimethylammonium) 
bis(\m-2-nitrobenzene-1,4-dicarboxylato)-cadmium(ii) unknown solvate]
;
_chemical_name_common
;
SHF-81
;
_cell_volume   2168.418
_exptl_crystal_colour 'orange yellow'
_exptl_crystal_density_diffrn 1.431
_exptl_crystal_description 'needle'
_exptl_crystal_preparation 'N,N-dimethylformamide'
_diffrn_ambient_temperature 195
_diffrn_special_details
;
twin

;
_refine_special_details
;
Disordered solvent molecules were not modelled and the disordered density was 
taken into account using the MASK/OLEX2 program.
;
#These two values have been output from a single CSD field.
_refine_ls_R_factor_gt 0.0629
_refine_ls_wR_factor_gt 0.0629
_symmetry_cell_setting hexagonal
_symmetry_space_group_name_H-M 'P 31 2 1'
_symmetry_Int_Tables_number 152
loop_
_symmetry_equiv_pos_site_id
_symmetry_equiv_pos_as_xyz
1 x,y,z
2 -y,x-y,1/3+z
3 -x+y,-x,2/3+z
4 x-y,-y,2/3-z
5 -x,-x+y,1/3-z
6 y,x,-z
_cell_length_a 13.7702(3)
_cell_length_b 13.7702(3)
_cell_length_c 13.2048(3)
_cell_angle_alpha 90
_cell_angle_beta 90
_cell_angle_gamma 120
_cell_formula_units_Z 3
loop_
_atom_type_symbol
_atom_type_radius_bond
C 0.68
H 0.23
Cd 1.44
N 0.68
O 0.68
loop_
_atom_site_label
_atom_site_type_symbol
_atom_site_fract_x
_atom_site_fract_y
_atom_site_fract_z
Cd1 Cd -0.52866(11) 0.00000 -0.16667
O1 O -0.6122(12) -0.1489(9) -0.0429(7)
C1 C -0.5283(19) -0.1408(16) -0.0333(13)
O2 O -0.451(2) -0.099(2) -0.0843(18)
C2 C -0.5102(10) -0.2028(12) 0.0601(7)
C3 C -0.5831(12) -0.2312(15) 0.1418(8)
H1 H -0.64576 -0.22017 0.13801
C4 C -0.5642(16) -0.2758(19) 0.2291(7)
H2 H -0.61404 -0.29522 0.28496
C5 C -0.4725(16) -0.2920(16) 0.2347(8)
C6 C -0.3996(11) -0.2636(13) 0.1530(11)
C7 C -0.4185(10) -0.2190(13) 0.0657(9)
H3 H -0.36865 -0.19963 0.00982
N1 N -0.310(2) -0.290(2) 0.142(2)
O3 O -0.331(2) -0.379(2) 0.164(2)
O4 O -0.211(2) -0.206(4) 0.109(3)
C8 C -0.484(4) -0.359(3) 0.3299(15)
O5 O -0.372(3) -0.309(2) 0.3732(16)
O6 O -0.563(3) -0.441(3) 0.3633(12)
C9 C -0.066(4) -0.257(3) 0.272(3)
H4 H -0.10204 -0.26866 0.20587
H5 H -0.05201 -0.18613 0.30099
H6 H 0.00588 -0.25577 0.26378
N2 N -0.154(2) -0.369(3) 0.3539(12)
H7 H -0.22024 -0.36979 0.35707
H8 H -0.16741 -0.43335 0.32311
C10 C -0.118(3) -0.374(7) 0.464(2)
H9 H -0.17766 -0.44102 0.49757
H10 H -0.04871 -0.37660 0.46401
H11 H -0.10660 -0.30696 0.50122
O1C O -0.4633(12) 0.1489(9) -0.290433(700)
C1C C -0.3875(19) 0.1408(16) -0.300033(1300)
O2C O -0.352(2) 0.099(2) -0.249033(1800)
C2C C -0.3074(10) 0.2028(12) -0.393433(700)
C3C C -0.3519(12) 0.2312(15) -0.475133(800)
H1C H -0.42559 0.22017 -0.47134
C4C C -0.2884(16) 0.2758(19) -0.562433(700)
H2C H -0.31881 0.29522 -0.61829
C5C C -0.1805(16) 0.2920(16) -0.568033(800)
C6C C -0.1360(11) 0.2636(13) -0.486333(1100)
C7C C -0.1995(10) 0.2190(13) -0.399033(900)
H3C H -0.16902 0.19963 -0.34315
N1C N -0.020(2) 0.290(2) -0.475333(2000)
O3C O 0.048(2) 0.379(2) -0.497333(2000)
O4C O -0.005(2) 0.206(4) -0.442333(3000)
C8C C -0.125(4) 0.359(3) -0.663233(1500)
O5C O -0.063(3) 0.309(2) -0.706533(1600)
O6C O -0.122(3) 0.441(3) -0.696633(1200)
Cd1A Cd 0.00000(11) 0.47134 -0.83333
Cd1B Cd -0.47134(11) -0.47134 0.50000
O5A O -0.691(3) -0.063(2) -0.293467(1600)
O5D O -0.628(3) 0.063(2) -0.039867(1600)
O6A O -0.559(3) -0.122(3) -0.303367(1200)
O6D O -0.437(3) 0.122(3) -0.029967(1200)
#END
