
#######################################################################
#
#                 Cambridge Crystallographic Data Centre
#                                CCDC
#
#######################################################################
#
# If this CIF has been generated from an entry in the Cambridge
# Structural Database, then it will include bibliographic, chemical,
# crystal, experimental, refinement or atomic coordinate data resulting
# from the CCDC's data processing and validation procedures.
#
#######################################################################

data_CSD_CIF_NAFPOD
_audit_creation_date 2020-11-12
_audit_creation_method CSD-ConQuest-V1
_database_code_CSD NAFPOD
_database_code_depnum_ccdc_archive 'CCDC 2013012'
_chemical_formula_sum 'C20 H22 Cd1 N4 O12'
_chemical_formula_moiety
;
(C16 H6 Cd1 N2 O12 2-)n,2(C2 H8 N1 1+)
;
_journal_coden_Cambridge 169
_journal_volume 225
_journal_year 2021
_journal_page_first 133
_journal_name_full 'Faraday Discuss. '
loop_
_publ_author_name
"D.Watkins"
"T.M.Roseveare"
"M.R.Warren"
"S.P.Thompson"
"A.J.Fletcher"
"L.Brammer"
_chemical_name_systematic
;
catena-[bis(dimethylammonium) 
bis(\m-2-nitrobenzene-1,4-dicarboxylato)-cadmium(ii)]
;
_chemical_name_common
;
SHF-81
;
_cell_volume   2209.891
_exptl_crystal_colour 'orange'
_exptl_crystal_density_diffrn 1.404
_exptl_special_details
;
Solvent removed by heating prior to data collection Data collection under 
vacuum
;
_exptl_crystal_description 'needle'
_exptl_crystal_preparation 'N,N-dimethylformamide'
_diffrn_ambient_temperature 298
_diffrn_radiation_probe x-ray
_diffrn_source synchrotron
_diffrn_special_details
;
twin

;
#These two values have been output from a single CSD field.
_refine_ls_R_factor_gt 0.0542
_refine_ls_wR_factor_gt 0.0542
_symmetry_cell_setting hexagonal
_symmetry_space_group_name_H-M 'P 31 2 1'
_symmetry_Int_Tables_number 152
loop_
_symmetry_equiv_pos_site_id
_symmetry_equiv_pos_as_xyz
1 x,y,z
2 -y,x-y,1/3+z
3 -x+y,-x,2/3+z
4 x-y,-y,2/3-z
5 -x,-x+y,1/3-z
6 y,x,-z
_cell_length_a 13.9484(7)
_cell_length_b 13.9484(7)
_cell_length_c 13.1157(4)
_cell_angle_alpha 90
_cell_angle_beta 90
_cell_angle_gamma 120
_cell_formula_units_Z 3
loop_
_atom_type_symbol
_atom_type_radius_bond
C 0.68
H 0.23
Cd 1.44
N 0.68
O 0.68
loop_
_atom_site_label
_atom_site_type_symbol
_atom_site_fract_x
_atom_site_fract_y
_atom_site_fract_z
Cd1 Cd 0.47065(8) 0.47065(8) 0.00000
O1 O 0.4320(16) 0.5538(16) 0.1316(10)
O2 O 0.3113(12) 0.3771(15) 0.1228(9)
C1 C 0.3480(17) 0.4675(18) 0.1652(11)
C2 C 0.2978(10) 0.4800(9) 0.2636(6)
C3 C 0.2799(11) 0.5694(9) 0.2686(6)
H1 H 0.30160 0.61940 0.21480
C4 C 0.2296(9) 0.5841(8) 0.3540(6)
H2 H 0.21770 0.64390 0.35740
C5 C 0.1972(9) 0.5094(8) 0.4344(5)
C6 C 0.215(1) 0.4200(8) 0.4294(7)
H3 H 0.19330 0.37000 0.48320
C7 C 0.2653(10) 0.4053(8) 0.3440(7)
O3 O 0.1465(9) 0.6139(10) 0.5404(7)
O4 O 0.0876(14) 0.4468(13) 0.5778(11)
C8 C 0.1424(12) 0.5273(14) 0.5248(10)
N1 N 0.278(2) 0.3115(19) 0.3468(19)
O5 O 0.384(2) 0.339(2) 0.3291(19)
O6 O 0.214(4) 0.226(3) 0.394(3)
N2 N 0.2316(19) 0.8428(18) 0.5194(18)
H4 H 0.19210 0.76940 0.51460
H5 H 0.29860 0.86580 0.49340
C9 C 0.239(4) 0.878(2) 0.623(3)
H6 H 0.27510 0.84670 0.66300
H7 H 0.16640 0.85240 0.64970
H8 H 0.28170 0.95690 0.62660
C10 C 0.175(4) 0.895(3) 0.465(2)
H9 H 0.22010 0.97410 0.46950
H10 H 0.10460 0.87120 0.49540
H11 H 0.16570 0.87320 0.39450
O1E O 0.5538(16) 0.4320(16) -0.1316(10)
O2E O 0.3771(12) 0.3113(15) -0.1228(9)
C1E C 0.4675(17) 0.3480(18) -0.1652(11)
C2E C 0.480(1) 0.2978(9) -0.2636(6)
C3E C 0.5694(11) 0.2799(9) -0.2686(6)
H1E H 0.61940 0.30160 -0.21480
C4E C 0.5841(9) 0.2296(8) -0.3540(6)
H2E H 0.64390 0.21770 -0.35740
C5E C 0.5094(9) 0.1972(8) -0.4344(5)
C6E C 0.420(1) 0.2150(8) -0.4294(7)
H3E H 0.37000 0.19330 -0.48320
C7E C 0.4053(10) 0.2653(8) -0.3440(7)
O3E O 0.6139(9) 0.1465(10) -0.5404(7)
O4E O 0.4468(14) 0.0876(13) -0.5778(11)
C8E C 0.5273(12) 0.1424(14) -0.5248(10)
N1E N 0.3115(20) 0.2780(19) -0.3468(19)
O5E O 0.339(2) 0.384(2) -0.3291(19)
O6E O 0.226(4) 0.214(3) -0.394(3)
Cd1A Cd 0.52935(8) 0.00000(8) -0.66667
Cd1B Cd 0.00000(8) 0.52935(8) 0.66667
O3A O 0.3861(9) 0.5326(10) -0.126267(700)
O3C O 0.5326(9) 0.3861(10) 0.126267(700)
O4A O 0.5532(14) 0.6408(13) -0.088867(1100)
O4C O 0.6408(14) 0.5532(13) 0.088867(1100)
#END
