
#######################################################################
#
#                 Cambridge Crystallographic Data Centre
#                                CCDC
#
#######################################################################
#
# If this CIF has been generated from an entry in the Cambridge
# Structural Database, then it will include bibliographic, chemical,
# crystal, experimental, refinement or atomic coordinate data resulting
# from the CCDC's data processing and validation procedures.
#
#######################################################################

data_CSD_CIF_NAFRAR01
_audit_creation_date 2020-11-12
_audit_creation_method CSD-ConQuest-V1
_database_code_CSD NAFRAR01
_database_code_depnum_ccdc_archive 'CCDC 2013016'
_chemical_formula_sum 'C20 H22 Cd1 N4 O12'
_chemical_formula_moiety
;
(C16 H6 Cd1 N2 O12 2-)n,2(C2 H8 N1 1+)
;
_journal_coden_Cambridge 169
_journal_volume 225
_journal_year 2021
_journal_page_first 133
_journal_name_full 'Faraday Discuss. '
loop_
_publ_author_name
"D.Watkins"
"T.M.Roseveare"
"M.R.Warren"
"S.P.Thompson"
"A.J.Fletcher"
"L.Brammer"
_chemical_name_systematic
;
catena-(bis(dimethylammonium) bis(\m~2~-2-nitroisophthalato)-cadmium(ii) 
unknown solvate)
;
_cell_volume   2451.960
_exptl_crystal_colour 'orange'
_exptl_crystal_density_diffrn 1.265
_exptl_crystal_description 'needle'
_exptl_crystal_preparation 'N,N-dimethylformamide'
_diffrn_ambient_temperature 100
_diffrn_special_details
;
twin

;
_refine_special_details
;
Disordered solvent molecules were not modelled and the disordered density was 
taken into account using the SQUEEZE/PLATON procedure.
;
#These two values have been output from a single CSD field.
_refine_ls_R_factor_gt 0.0449
_refine_ls_wR_factor_gt 0.0449
_symmetry_cell_setting hexagonal
_symmetry_space_group_name_H-M 'P 32 2 1'
_symmetry_Int_Tables_number 154
loop_
_symmetry_equiv_pos_site_id
_symmetry_equiv_pos_as_xyz
1 x,y,z
2 -y,x-y,2/3+z
3 -x+y,-x,1/3+z
4 x-y,-y,1/3-z
5 -x,-x+y,2/3-z
6 y,x,-z
_cell_length_a 14.8922(7)
_cell_length_b 14.8922(7)
_cell_length_c 12.7663(6)
_cell_angle_alpha 90
_cell_angle_beta 90
_cell_angle_gamma 120
_cell_formula_units_Z 3
loop_
_atom_type_symbol
_atom_type_radius_bond
C 0.68
H 0.23
Cd 1.44
N 0.68
O 0.68
loop_
_atom_site_label
_atom_site_type_symbol
_atom_site_fract_x
_atom_site_fract_y
_atom_site_fract_z
Cd1 Cd 0.4997(2) 0.4997(2) 0.00000
O1 O 0.4201(17) 0.3430(13) 0.1130(18)
O2 O 0.5935(17) 0.4385(17) 0.1191(15)
O3 O 0.5901(15) 0.1362(14) 0.5377(15)
O4 O 0.4252(14) 0.0689(11) 0.5569(14)
O5 O 0.291(3) 0.124(3) 0.155(3)
O6 O 0.2368(19) 0.175(3) 0.2907(19)
N1 N 0.3067(14) 0.1714(13) 0.2389(15)
C1 C 0.4971(15) 0.3702(13) 0.1525(15)
C2 C 0.4070(8) 0.2219(16) 0.2851(14)
C3 C 0.4985(13) 0.3043(13) 0.2465(11)
C4 C 0.5923(9) 0.3319(13) 0.2950(15)
H1 H 0.65351 0.38710 0.26927
C5 C 0.5947(8) 0.2771(15) 0.3821(14)
H2 H 0.65756 0.29558 0.41453
C6 C 0.5033(13) 0.1947(13) 0.4206(10)
C7 C 0.4094(8) 0.1670(13) 0.3721(14)
H3 H 0.34823 0.11187 0.39786
C8 C 0.5174(19) 0.1386(17) 0.5130(18)
N2 N 0.188(2) 0.364(3) 0.096(4)
H4 H 0.19409 0.41852 0.06200
H5 H 0.24685 0.36201 0.08763
C9 C 0.167(3) 0.368(2) 0.207(4)
H6 H 0.22275 0.42946 0.23750
H7 H 0.10341 0.36922 0.21417
H8 H 0.16057 0.30800 0.24194
C10 C 0.100(5) 0.269(4) 0.056(4)
H9 H 0.11003 0.26151 -0.01674
H10 H 0.09518 0.21047 0.09401
H11 H 0.03802 0.27169 0.06624
O1E O 0.3430(17) 0.4201(13) -0.1130(18)
O2E O 0.4385(17) 0.5935(17) -0.1191(15)
O3E O 0.1362(15) 0.5901(14) -0.5377(15)
O4E O 0.0689(14) 0.4252(11) -0.5569(14)
O5E O 0.124(3) 0.291(3) -0.155(3)
O6E O 0.1750(19) 0.2368(30) -0.2907(19)
N1E N 0.1714(14) 0.3067(13) -0.2389(15)
C1E C 0.3702(15) 0.4971(13) -0.1525(15)
C2E C 0.2219(8) 0.4070(16) -0.2851(14)
C3E C 0.3043(13) 0.4985(13) -0.2465(11)
C4E C 0.3319(9) 0.5923(13) -0.2950(15)
H1E H 0.38710 0.65351 -0.26927
C5E C 0.2771(8) 0.5947(15) -0.3821(14)
H2E H 0.29558 0.65756 -0.41453
C6E C 0.1947(13) 0.5033(13) -0.4206(10)
C7E C 0.1670(8) 0.4094(13) -0.3721(14)
H3E H 0.11187 0.34823 -0.39786
C8E C 0.1386(19) 0.5174(17) -0.5130(18)
Cd1A Cd 0.5003(2) 0.0000(2) 0.66667
Cd1B Cd 0.0000(2) 0.5003(2) -0.66667
O3B O 0.5461(15) 0.4099(14) -0.128967(1500)
O3D O 0.4099(15) 0.5461(14) 0.128967(1500)
O4B O 0.6437(14) 0.5748(11) -0.109767(1400)
O4D O 0.5748(14) 0.6437(11) 0.109767(1400)
#END
