
#######################################################################
#
#                 Cambridge Crystallographic Data Centre
#                                CCDC
#
#######################################################################
#
# If this CIF has been generated from an entry in the Cambridge
# Structural Database, then it will include bibliographic, chemical,
# crystal, experimental, refinement or atomic coordinate data resulting
# from the CCDC's data processing and validation procedures.
#
#######################################################################

data_CSD_CIF_NAFRAR03
_audit_creation_date 2020-11-12
_audit_creation_method CSD-ConQuest-V1
_database_code_CSD NAFRAR03
_database_code_depnum_ccdc_archive 'CCDC 2013023'
_chemical_formula_sum 'C20 H22 Cd1 N4 O12'
_chemical_formula_moiety
;
(C16 H6 Cd1 N2 O12 2-)n,2(C2 H8 N1 1+)
;
_journal_coden_Cambridge 169
_journal_volume 225
_journal_year 2021
_journal_page_first 133
_journal_name_full 'Faraday Discuss. '
loop_
_publ_author_name
"D.Watkins"
"T.M.Roseveare"
"M.R.Warren"
"S.P.Thompson"
"A.J.Fletcher"
"L.Brammer"
_chemical_name_systematic
;
catena-[bis(dimethylammonium) 
bis(\m-2-nitrobenzene-1,4-dicarboxylato)-cadmium(ii) unknown solvate]
;
_chemical_name_common
;
SHF-81-DMF
;
_cell_volume   2463.136
_exptl_crystal_colour 'orange'
_exptl_crystal_description 'needle'
_exptl_crystal_preparation 'N,N-dimethylformamide'
_diffrn_ambient_temperature 170
_diffrn_special_details
;
twin

;
_refine_special_details
;
Disordered dimethylammonium cation and solvent molecules were not modelled 
and the disordered density was taken into account using the SQUEEZE/PLATON 
procedure.
;
#These two values have been output from a single CSD field.
_refine_ls_R_factor_gt 0.0338
_refine_ls_wR_factor_gt 0.0338
_symmetry_cell_setting hexagonal
_symmetry_space_group_name_H-M 'P 31 2 1'
_symmetry_Int_Tables_number 152
loop_
_symmetry_equiv_pos_site_id
_symmetry_equiv_pos_as_xyz
1 x,y,z
2 -y,x-y,1/3+z
3 -x+y,-x,2/3+z
4 x-y,-y,2/3-z
5 -x,-x+y,1/3-z
6 y,x,-z
_cell_length_a 14.9689(4)
_cell_length_b 14.9689(4)
_cell_length_c 12.6934(4)
_cell_angle_alpha 90
_cell_angle_beta 90
_cell_angle_gamma 120
_cell_formula_units_Z 3
loop_
_atom_type_symbol
_atom_type_radius_bond
C 0.68
H 0.23
Cd 1.44
N 0.68
O 0.68
loop_
_atom_site_label
_atom_site_type_symbol
_atom_site_fract_x
_atom_site_fract_y
_atom_site_fract_z
Cd1 Cd -0.50022(13) -0.50022(13) 0.00000
O1 O -0.5775(12) -0.6440(12) -0.1145(11)
O2 O -0.4101(11) -0.5598(11) -0.1181(10)
C1 C -0.5025(15) -0.6321(14) -0.1561(13)
C2 C -0.4977(9) -0.6963(10) -0.2439(9)
C3 C -0.5891(6) -0.7781(12) -0.2820(12)
C4 C -0.5876(6) -0.8336(11) -0.3691(12)
H1 H -0.65012 -0.88952 -0.39519
C5 C -0.4946(9) -0.8073(11) -0.4181(9)
C6 C -0.4031(6) -0.7255(12) -0.3800(11)
H2 H -0.33951 -0.70750 -0.41343
C7 C -0.4046(6) -0.670(1) -0.2929(11)
H3 H -0.34211 -0.61410 -0.26679
O3 O -0.5719(11) -0.9261(9) -0.5563(11)
O4 O -0.4057(12) -0.8617(13) -0.5326(11)
C8 C -0.4844(13) -0.8655(16) -0.5148(15)
O5 O -0.701(3) -0.867(2) -0.144(3)
O6 O -0.750(2) -0.813(3) -0.275(2)
N1 N -0.6806(16) -0.8201(18) -0.2362(17)
O1E O -0.6440(12) -0.5775(12) 0.1145(11)
O2E O -0.5598(11) -0.4101(11) 0.1181(10)
C1E C -0.6321(15) -0.5025(14) 0.1561(13)
C2E C -0.6963(9) -0.4977(10) 0.2439(9)
C3E C -0.7781(6) -0.5891(12) 0.2820(12)
C4E C -0.8336(6) -0.5876(11) 0.3691(12)
H1E H -0.88952 -0.65012 0.39519
C5E C -0.8073(9) -0.4946(11) 0.4181(9)
C6E C -0.7255(6) -0.4031(12) 0.3800(11)
H2E H -0.70750 -0.33951 0.41343
C7E C -0.6700(6) -0.4046(10) 0.2929(11)
H3E H -0.61410 -0.34211 0.26679
O3E O -0.9261(11) -0.5719(9) 0.5563(11)
O4E O -0.8617(12) -0.4057(13) 0.5326(11)
C8E C -0.8655(13) -0.4844(16) 0.5148(15)
O5E O -0.867(3) -0.701(2) 0.144(3)
O6E O -0.813(2) -0.750(3) 0.275(2)
N1E N -0.8201(16) -0.6806(18) 0.2362(17)
Cd1A Cd -0.49978(13) -1.00000(13) -0.66667
Cd1B Cd -1.00000(13) -0.49978(13) 0.66667
O3B O -0.3542(11) -0.4281(9) 0.110367(1100)
O3D O -0.4281(11) -0.3542(9) -0.110367(1100)
O4B O -0.4560(12) -0.5943(13) 0.134067(1100)
O4D O -0.5943(12) -0.4560(13) -0.134067(1100)
#END
