
#######################################################################
#
#                 Cambridge Crystallographic Data Centre
#                                CCDC
#
#######################################################################
#
# If this CIF has been generated from an entry in the Cambridge
# Structural Database, then it will include bibliographic, chemical,
# crystal, experimental, refinement or atomic coordinate data resulting
# from the CCDC's data processing and validation procedures.
#
#######################################################################

data_CSD_CIF_NAGKEO
_audit_creation_date 2016-02-03
_audit_creation_method CSD-ConQuest-V1
_database_code_CSD NAGKEO
_database_code_depnum_ccdc_archive 'CCDC 1415618'
_chemical_formula_sum 'C45 H55 Br4 N5 O22 Zn3'
_chemical_formula_moiety
;
(C32 H12 Br4 O16 Zn3 2-)n,2(C2 H8 N1 1+),3(C3 H7 N1 O1),3(H2 O1)
;
_journal_coden_Cambridge 1350
_journal_volume 18
_journal_year 2016
_journal_page_first 1363
_journal_name_full 'CrystEngComm '
loop_
_publ_author_name
"De-Yun Ma"
"Liang Qin"
"Jia-Mei Lei"
"Yun-Qiu Liang"
"Wei-Jie Lin"
"Jing-Jing Yan"
"Wan-Qiu Ding"
"Hai-Fu Guo"
"Yun Ling"
_chemical_name_systematic
;
catena-[bis(dimethylammonium) tetrakis(\m-5-bromoisophthalato)-tri-zinc 
N,N-dimethylformamide solvate trihydrate]
;
_cell_volume  12902.353
_exptl_crystal_colour 'colorless'
_exptl_special_details
;
Published unit-cell dimensions differ slightly than those deposited

;
_exptl_crystal_description 'Block'
_diffrn_ambient_temperature 293
_refine_special_details
;
Disordered cation and solvent molecules were not modelled and the disordered 
density was taken into account using the SQUEEZE/PLATON procedure.
;
#These two values have been output from a single CSD field.
_refine_ls_R_factor_gt 0.0803
_refine_ls_wR_factor_gt 0.0803
_symmetry_cell_setting orthorhombic
_symmetry_space_group_name_H-M 'P b c a'
_symmetry_Int_Tables_number 61
loop_
_symmetry_equiv_pos_site_id
_symmetry_equiv_pos_as_xyz
1 x,y,z
2 1/2-x,-y,1/2+z
3 1/2+x,1/2-y,-z
4 -x,1/2+y,1/2-z
5 -x,-y,-z
6 -1/2+x,y,-1/2-z
7 -1/2-x,-1/2+y,z
8 x,-1/2-y,-1/2+z
_cell_length_a 20.892(10)
_cell_length_b 24.470(11)
_cell_length_c 25.238(11)
_cell_angle_alpha 90
_cell_angle_beta 90
_cell_angle_gamma 90
_cell_formula_units_Z 8
loop_
_atom_type_symbol
_atom_type_radius_bond
C 0.68
H 0.23
Br 1.21
O 0.68
Zn 1.22
loop_
_atom_site_label
_atom_site_type_symbol
_atom_site_fract_x
_atom_site_fract_y
_atom_site_fract_z
Br1 Br -0.18837(12) -0.41423(9) 0.06750(8)
Br2 Br -0.20046(7) -0.00043(6) -0.00981(6)
Br3 Br 0.22811(8) 0.24469(8) -0.13553(6)
Br4 Br -0.21991(10) 0.41054(8) 0.08519(7)
C1 C -0.1001(6) -0.3469(5) 0.1980(5)
C2 C -0.0581(5) -0.3089(5) 0.1741(5)
H1 H -0.03140 -0.28780 0.19540
C3 C -0.0559(6) -0.3024(5) 0.1203(5)
C4 C -0.0944(7) -0.3341(6) 0.0899(5)
H2 H -0.09220 -0.33150 0.05310
C5 C -0.1358(7) -0.3694(6) 0.1123(6)
C6 C -0.1383(7) -0.3770(5) 0.1651(6)
H3 H -0.16610 -0.40290 0.17920
C7 C -0.1034(8) -0.3529(6) 0.2578(5)
C8 C -0.0150(6) -0.2606(5) 0.0959(6)
C9 C 0.3460(6) 0.2908(5) 0.0456(6)
C10 C -0.1229(7) 0.3566(6) 0.2724(5)
C11 C 0.0029(6) -0.0999(5) 0.0685(5)
C12 C -0.0322(5) -0.0454(5) 0.0609(4)
C13 C -0.0066(6) 0.0028(5) 0.0762(4)
H4 H 0.03310 0.00360 0.09280
C14 C -0.0385(6) 0.0496(5) 0.0671(5)
C15 C -0.0940(6) 0.0483(6) 0.0411(5)
H5 H -0.11520 0.08090 0.03400
C16 C -0.1202(6) 0.0004(5) 0.0246(4)
C17 C -0.0889(6) -0.0469(5) 0.0334(4)
H6 H -0.10530 -0.07990 0.02110
C18 C -0.0123(7) 0.1058(7) 0.0844(5)
C19 C 0.1330(6) 0.2073(5) 0.0559(6)
C20 C 0.1866(6) 0.2260(5) 0.0231(5)
C21 C 0.2425(6) 0.2459(5) 0.0475(5)
H7 H 0.24560 0.24560 0.08430
C22 C 0.2918(6) 0.2657(5) 0.0182(5)
C23 C 0.2849(6) 0.2654(5) -0.0358(6)
H8 H 0.31720 0.28080 -0.05620
C24 C 0.2327(6) 0.2433(5) -0.0615(5)
C25 C 0.1841(6) 0.2259(5) -0.0314(5)
H9 H 0.14720 0.21320 -0.04790
C26 C -0.0353(6) 0.2658(5) 0.1097(5)
C27 C -0.0814(6) 0.3047(5) 0.1352(5)
C28 C -0.0816(6) 0.3108(5) 0.1911(5)
H10 H -0.05440 0.28980 0.21200
C29 C -0.1226(6) 0.3482(5) 0.2145(5)
C30 C -0.1640(7) 0.3772(6) 0.1823(6)
H11 H -0.19320 0.40150 0.19730
C31 C -0.1623(6) 0.3705(5) 0.1289(5)
C32 C -0.1222(6) 0.3344(5) 0.1042(5)
H12 H -0.12270 0.33030 0.06760
O1 O -0.1401(5) -0.3872(5) 0.2761(4)
O2 O -0.0677(4) -0.3223(3) 0.2835(3)
O3 O 0.0123(4) -0.2289(4) 0.1274(3)
O4 O -0.0119(4) -0.2578(3) 0.0466(3)
O5 O 0.3459(4) 0.2986(3) 0.0926(4)
O6 O 0.3942(4) 0.3021(4) 0.0151(4)
O7 O -0.0834(5) 0.3289(3) 0.2986(3)
O8 O -0.1650(5) 0.3859(4) 0.2935(4)
O9 O 0.0463(4) -0.1004(3) 0.1030(3)
O10 O -0.0138(4) -0.1404(3) 0.0410(3)
O11 O 0.0325(4) 0.1034(3) 0.1172(3)
O12 O -0.0370(4) 0.1451(4) 0.0648(3)
O13 O 0.1396(4) 0.1992(4) 0.1057(4)
O14 O 0.0802(5) 0.1966(4) 0.0316(3)
O15 O -0.0013(4) 0.2385(3) 0.1423(3)
O16 O -0.0351(4) 0.2621(3) 0.0621(3)
Zn1 Zn 0.05968(6) 0.17808(5) 0.13982(5)
Zn2 Zn 0.01187(11) -0.20145(10) -0.00860(9)
Zn3 Zn 0.07744(7) -0.17157(5) 0.12470(5)
O2C O 0.0677(4) 0.1777(3) 0.2165(3)
O5F O 0.1541(4) -0.2014(3) 0.0926(4)
O6F O 0.1058(4) -0.1979(4) 0.0151(4)
O7C O 0.0834(5) -0.1711(3) 0.2014(3)
O12D O 0.0370(4) -0.1451(4) -0.0648(3)
O14D O -0.0802(5) -0.1966(4) -0.0316(3)
O16D O 0.0351(4) -0.2621(3) -0.0621(3)
Zn1C Zn -0.05968(6) -0.32192(5) 0.36018(5)
Zn2D Zn -0.01187(11) 0.20145(10) 0.00860(9)
Zn2F Zn 0.48813(11) 0.29855(10) -0.00860(9)
Zn3C Zn -0.07744(7) 0.32843(5) 0.37530(5)
Zn3F Zn 0.42256(7) 0.32843(5) 0.12470(5)
#END
