
#######################################################################
#
#                 Cambridge Crystallographic Data Centre
#                                CCDC
#
#######################################################################
#
# If this CIF has been generated from an entry in the Cambridge
# Structural Database, then it will include bibliographic, chemical,
# crystal, experimental, refinement or atomic coordinate data resulting
# from the CCDC's data processing and validation procedures.
#
#######################################################################

data_CSD_CIF_NAHDIM
_audit_creation_date 2016-02-04
_audit_creation_method CSD-ConQuest-V1
_database_code_CSD NAHDIM
_database_code_depnum_ccdc_archive 'CCDC 1429649'
_chemical_formula_sum 'C184 H186 N2 O40 Zn4'
_chemical_formula_moiety
;
(C180 H170 O40 Zn4 2-)n,2n(C2 H8 N1 1+)
;
_journal_coden_Cambridge 1475
_journal_volume 7
_journal_year 2016
_journal_page_first 3085
_journal_name_full 'Chemical Science '
loop_
_publ_author_name
"P.Chandrasekhar"
"A.Mukhopadhyay"
"G.Savitha"
"J.N.Moorthy"
_chemical_name_systematic
;
catena-[bis(dimethylammonium) 
tris(\m-2,2',2'',2'''-(pyrene-1,3,6,8-tetrayltetrakis((3,5-dimethyl-4,1-phenyl
ene)oxy))tetrapropanoato)-tetraaqua-tetra-zinc]
;
_cell_volume  11940.297
_exptl_crystal_colour 'colorless'
_exptl_crystal_density_diffrn 0.923
_exptl_special_details
;
We calculate 38.01% void space in the structure

;
_exptl_crystal_description 'prism'
_diffrn_ambient_temperature 100
_diffrn_special_details
;
twin

;
#These two values have been output from a single CSD field.
_refine_ls_R_factor_gt 0.0871
_refine_ls_wR_factor_gt 0.0871
_symmetry_cell_setting monoclinic
_symmetry_space_group_name_H-M 'I 2'
_symmetry_Int_Tables_number 5
loop_
_symmetry_equiv_pos_site_id
_symmetry_equiv_pos_as_xyz
1 x,y,z
2 -x,y,-z
3 1/2+x,1/2+y,1/2+z
4 1/2-x,1/2+y,1/2-z
_cell_length_a 18.9677(16)
_cell_length_b 19.9186(17)
_cell_length_c 31.739(3)
_cell_angle_alpha 90
_cell_angle_beta 95.287(4)
_cell_angle_gamma 90
_cell_formula_units_Z 2
loop_
_atom_type_symbol
_atom_type_radius_bond
C 0.68
H 0.23
N 0.68
O 0.68
Zn 1.22
loop_
_atom_site_label
_atom_site_type_symbol
_atom_site_fract_x
_atom_site_fract_y
_atom_site_fract_z
Zn1 Zn 0.35819(5) -0.14103(8) 0.40850(3)
Zn2 Zn 1.1439(3) 0.0889(3) 0.17478(12)
O1 O 0.4258(4) -0.1776(6) 0.3323(3)
O2 O 0.4625(4) -0.1587(4) 0.3957(3)
O3 O 0.5607(3) -0.1852(4) 0.3137(3)
O4 O 0.2384(4) 0.2713(5) 0.0372(2)
O5 O 0.1672(4) 0.2600(5) 0.0896(2)
O6 O 0.2922(3) 0.1491(4) 0.05081(18)
O7 O 0.8828(5) 0.3992(5) -0.0351(3)
O8 O 0.7780(6) 0.4452(4) -0.0315(3)
O9 O 0.8192(5) 0.4784(5) 0.0544(2)
O10 O 1.1484(5) 0.0944(7) 0.2354(4)
O11 O 1.1130(5) 0.1996(8) 0.2426(3)
O12 O 1.0760(4) 0.1830(5) 0.3242(2)
O13 O 0.3098(4) -0.0812(5) 0.3692(2)
O14 O 0.2087(5) -0.1368(6) 0.3788(3)
O15 O 0.1252(4) -0.0422(4) 0.3330(2)
O16 O 0.2280(5) 0.4739(7) 0.3138(3)
O17 O 0.2845(6) 0.5540(6) 0.3461(3)
O18 O 0.0952(6) 0.5254(6) 0.3186(3)
O19 O 1.1419(5) 0.1824(4) 0.1629(3)
O20 O 1.0719(10) 0.0798(17) 0.1632(10)
C1 C 0.4696(8) -0.1737(8) 0.3602(4)
C2 C 0.5440(5) -0.2013(6) 0.3554(4)
H1 H 0.57860 -0.18080 0.37640
C3 C 0.5484(7) -0.2794(7) 0.3584(4)
H2 H 0.59610 -0.29360 0.35570
H3 H 0.51730 -0.29900 0.33620
H4 H 0.53440 -0.29370 0.38530
C4 C 0.5904(4) -0.1260(6) 0.3067(4)
C5 C 0.5823(5) -0.0679(5) 0.3310(3)
H5 H 0.55680 -0.06940 0.35460
C6 C 0.6123(5) -0.0095(5) 0.3195(3)
C7 C 0.6485(4) -0.0070(5) 0.2830(3)
C8 C 0.6551(5) -0.0637(5) 0.2573(3)
C9 C 0.6231(5) -0.1196(6) 0.2685(3)
H6 H 0.62220 -0.15630 0.25040
C10 C 0.6116(7) 0.0537(7) 0.3467(3)
H7 H 0.65880 0.06340 0.35860
H8 H 0.58160 0.04660 0.36910
H9 H 0.59390 0.09080 0.32950
C11 C 0.6935(6) -0.0636(5) 0.2182(2)
H10 H 0.69010 -0.10730 0.20540
H11 H 0.74240 -0.05270 0.22550
H12 H 0.67260 -0.03090 0.19860
C12 C 1.1310(9) 0.1493(11) 0.2599(6)
C13 C 1.1278(7) 0.1404(10) 0.3053(5)
H13 H 1.11900 0.09310 0.31150
C14 C 1.2001(7) 0.1610(9) 0.3256(5)
H14 H 1.23350 0.12560 0.32220
H15 H 1.19730 0.16930 0.35520
H16 H 1.21520 0.20110 0.31230
C15 C 1.0064(5) 0.1626(8) 0.3109(3)
C16 C 0.9900(7) 0.1103(8) 0.2848(4)
H17 H 1.02650 0.08500 0.27520
C17 C 0.9195(5) 0.0926(5) 0.2718(3)
C18 C 0.8678(4) 0.1376(6) 0.2874(3)
C19 C 0.8844(5) 0.1921(5) 0.3135(2)
C20 C 0.9547(4) 0.2025(6) 0.3248(2)
H18 H 0.96800 0.23810 0.34280
C21 C 0.9012(7) 0.0356(7) 0.2401(3)
H19 H 0.85090 0.02900 0.23690
H20 H 0.92410 -0.00500 0.25040
H21 H 0.91740 0.04720 0.21330
C22 C 0.8280(4) 0.2335(5) 0.3273(3)
H22 H 0.84590 0.26000 0.35120
H23 H 0.79030 0.20530 0.33510
H24 H 0.81040 0.26260 0.30460
C23 C 0.8377(10) 0.4334(11) -0.0173(4)
C24 C 0.8710(7) 0.4653(9) 0.0242(4)
H25 H 0.90980 0.43750 0.03710
C25 C 0.7835(6) 0.4240(7) 0.0731(3)
C26 C 0.7923(4) 0.3630(7) 0.0592(3)
H26 H 0.82230 0.35420 0.03830
C27 C 0.7524(4) 0.3088(5) 0.0780(3)
C28 C 0.7090(4) 0.3250(5) 0.1099(2)
C29 C 0.7039(4) 0.3909(6) 0.1219(3)
C30 C 0.7431(5) 0.4361(6) 0.1033(3)
H27 H 0.74130 0.48020 0.11280
C31 C 0.7589(6) 0.2339(7) 0.0638(4)
H28 H 0.75130 0.20480 0.08710
H29 H 0.80540 0.22630 0.05510
H30 H 0.72410 0.22480 0.04070
C32 C 0.6621(6) 0.4105(5) 0.1590(3)
H31 H 0.66880 0.45750 0.16500
H32 H 0.67860 0.38470 0.18350
H33 H 0.61270 0.40180 0.15180
C33 C 0.2096(6) 0.2396(6) 0.0633(3)
C34 C 0.2299(4) 0.1677(7) 0.0690(3)
H34 H 0.23450 0.15650 0.09920
C35 C 0.1750(6) 0.1217(10) 0.0454(5)
H35 H 0.12880 0.13210 0.05370
H36 H 0.18630 0.07570 0.05220
H37 H 0.17550 0.12830 0.01550
C36 C 0.3583(5) 0.1643(5) 0.0714(3)
C37 C 0.4135(5) 0.1383(5) 0.0571(3)
H38 H 0.40840 0.11140 0.03300
C38 C 0.4797(4) 0.1497(5) 0.0768(3)
C39 C 0.4863(4) 0.1946(4) 0.1108(2)
C40 C 0.4267(5) 0.2219(5) 0.1259(2)
C41 C 0.3608(5) 0.2056(6) 0.1063(3)
H39 H 0.31960 0.22210 0.11620
C42 C 0.5439(5) 0.1175(6) 0.0592(3)
H40 H 0.57600 0.10150 0.08220
H41 H 0.56740 0.15020 0.04330
H42 H 0.52870 0.08060 0.04120
C43 C 0.4343(5) 0.2714(5) 0.1659(3)
H43 H 0.40130 0.30780 0.16130
H44 H 0.48170 0.28900 0.16950
H45 H 0.42460 0.24720 0.19090
C44 C 0.6862(5) 0.0596(4) 0.2693(2)
C45 C 0.7536(4) 0.0731(4) 0.2855(2)
H46 H 0.77440 0.04780 0.30790
C46 C 0.7905(4) 0.1239(4) 0.2688(2)
C47 C 0.7627(4) 0.1651(5) 0.2354(2)
C48 C 0.8009(4) 0.2134(5) 0.2152(2)
H47 H 0.84810 0.22050 0.22490
C49 C 0.7727(4) 0.2495(4) 0.1830(2)
H48 H 0.79940 0.28290 0.17160
C50 C 0.7001(3) 0.2374(4) 0.1653(2)
C51 C 0.6693(4) 0.2737(4) 0.1287(2)
C52 C 0.6007(4) 0.2587(5) 0.1145(2)
H49 H 0.57960 0.28350 0.09190
C53 C 0.5589(4) 0.2073(4) 0.1320(2)
C54 C 0.5880(4) 0.1737(4) 0.1666(2)
C55 C 0.5518(4) 0.1222(4) 0.1856(2)
H50 H 0.50550 0.11280 0.17510
C56 C 0.5809(4) 0.0856(4) 0.2184(3)
H51 H 0.55440 0.05240 0.23020
C57 C 0.6536(4) 0.0979(4) 0.2355(2)
C58 C 0.6911(4) 0.1467(4) 0.2196(2)
C59 C 0.6596(4) 0.1888(4) 0.1836(2)
C60 C 0.2436(10) -0.0931(9) 0.3601(5)
C61 C 0.2044(8) -0.0399(7) 0.3295(3)
H52 H 0.22350 0.00530 0.33450
C62 C 0.2148(9) -0.0650(12) 0.2839(4)
H53 H 0.26330 -0.05900 0.27850
H54 H 0.18470 -0.03970 0.26370
H55 H 0.20260 -0.11170 0.28150
C63 C 0.1075(6) -0.0057(5) 0.3676(3)
C64 C 0.1551(6) 0.0176(5) 0.3993(3)
H56 H 0.20340 0.00950 0.39910
C65 C 0.1275(6) 0.0549(5) 0.4328(3)
C66 C 0.0553(4) 0.0673(4) 0.4319(2)
C67 C 0.0082(5) 0.0409(4) 0.3981(3)
C68 C 0.0346(6) 0.0032(5) 0.3684(3)
H57 H 0.00380 -0.01760 0.34800
C69 C 0.00000 0.0721(6) 0.50000
H58 H 0.00000 0.02540 0.50000
C70 C 0.0261(4) 0.1068(5) 0.4667(3)
C71 C -0.0693(5) 0.0561(5) 0.3973(2)
H59 H -0.09180 0.04800 0.36940
H60 H -0.07560 0.10230 0.40470
H61 H -0.09020 0.02770 0.41720
C72 C 0.1823(6) 0.0846(6) 0.4682(3)
H62 H 0.15730 0.10750 0.48890
H63 H 0.21310 0.11560 0.45570
H64 H 0.20990 0.04880 0.48160
C73 C 0.0270(4) 0.1800(4) 0.4663(2)
C74 C 0.00000 0.2116(6) 0.50000
C75 C 0.00000 0.2835(6) 0.50000
C76 C 0.0240(4) 0.3214(4) 0.4650(2)
C77 C 0.0479(4) 0.2800(5) 0.4318(3)
H65 H 0.06370 0.30210 0.40870
C78 C 0.0494(4) 0.2147(5) 0.4312(3)
H66 H 0.06490 0.19170 0.40830
C79 C 0.00000 0.4208(8) 0.50000
H67 H 0.00000 0.46740 0.50000
C80 C 0.0229(4) 0.3914(5) 0.4657(3)
C81 C 0.0432(5) 0.4262(5) 0.4282(3)
C82 C -0.0031(5) 0.4349(5) 0.3923(3)
C83 C 0.0149(6) 0.4637(5) 0.3546(3)
H68 H -0.01520 0.46030 0.32990
C84 C 0.0757(7) 0.4957(5) 0.3552(3)
C85 C 0.1241(7) 0.4940(6) 0.3914(4)
H69 H 0.16770 0.51500 0.39060
C86 C 0.1093(5) 0.4626(5) 0.4278(3)
C87 C 0.1614(6) 0.4565(7) 0.4696(4)
H70 H 0.20450 0.48010 0.46590
H71 H 0.17170 0.41000 0.47530
H72 H 0.13940 0.47560 0.49290
C88 C -0.0759(6) 0.4022(7) 0.3933(4)
H73 H -0.11050 0.42820 0.37640
H74 H -0.08830 0.40060 0.42190
H75 H -0.07460 0.35750 0.38210
C89 C 0.8977(9) 0.5389(10) 0.0158(4)
H76 H 0.90250 0.54440 -0.01390
H77 H 0.94270 0.54610 0.03150
H78 H 0.86410 0.57080 0.02450
C90 C 0.1508(8) 0.6052(9) 0.2774(4)
H79 H 0.13380 0.57560 0.25490
H80 H 0.19790 0.61970 0.27320
H81 H 0.12020 0.64360 0.27770
C91 C 0.2170(11) 0.5400(12) 0.3215(5)
C92 C 0.1517(9) 0.5693(10) 0.3186(4)
H82 H 0.14940 0.60200 0.34150
N1 N 0.1557(5) 0.8670(8) 0.4630(3)
H83 H 0.17230 0.82580 0.46840
H84 H 0.18810 0.89090 0.45100
C93 C 0.1346(7) 0.8989(11) 0.5013(4)
H85 H 0.14640 0.87010 0.52510
H86 H 0.08450 0.90680 0.49830
H87 H 0.15910 0.94090 0.50570
C94 C 0.0860(8) 0.8646(12) 0.4348(4)
H88 H 0.09550 0.85480 0.40620
H89 H 0.06260 0.90730 0.43560
H90 H 0.05610 0.83030 0.44470
O13A O -0.3098(4) -0.0812(5) 0.6308(2)
O14A O -0.2087(5) -0.1368(6) 0.6212(3)
O15A O -0.1252(4) -0.0422(4) 0.6670(2)
O16A O -0.2280(5) 0.4739(7) 0.6862(3)
O17A O -0.2845(6) 0.5540(6) 0.6539(3)
O18A O -0.0952(6) 0.5254(6) 0.6814(3)
C60A C -0.2436(10) -0.0931(9) 0.6399(5)
C61A C -0.2044(8) -0.0399(7) 0.6705(3)
H52A H -0.22350 0.00530 0.66550
C62A C -0.2148(9) -0.0650(12) 0.7161(4)
H53A H -0.26330 -0.05900 0.72150
H54A H -0.18470 -0.03970 0.73630
H55A H -0.20260 -0.11170 0.71850
C63A C -0.1075(6) -0.0057(5) 0.6324(3)
C64A C -0.1551(6) 0.0176(5) 0.6007(3)
H56A H -0.20340 0.00950 0.60090
C65A C -0.1275(6) 0.0549(5) 0.5672(3)
C66A C -0.0553(4) 0.0673(4) 0.5681(2)
C67A C -0.0082(5) 0.0409(4) 0.6019(3)
C68A C -0.0346(6) 0.0032(5) 0.6316(3)
H57A H -0.00380 -0.01760 0.65200
C70A C -0.0261(4) 0.1068(5) 0.5333(3)
C71A C 0.0693(5) 0.0561(5) 0.6027(2)
H59A H 0.09180 0.04800 0.63060
H60A H 0.07560 0.10230 0.59530
H61A H 0.09020 0.02770 0.58280
C72A C -0.1823(6) 0.0846(6) 0.5318(3)
H62A H -0.15730 0.10750 0.51110
H63A H -0.21310 0.11560 0.54430
H64A H -0.20990 0.04880 0.51840
C73A C -0.0270(4) 0.1800(4) 0.5337(2)
C76A C -0.0240(4) 0.3214(4) 0.5350(2)
C77A C -0.0479(4) 0.2800(5) 0.5682(3)
H65A H -0.06370 0.30210 0.59130
C78A C -0.0494(4) 0.2147(5) 0.5688(3)
H66A H -0.06490 0.19170 0.59170
C80A C -0.0229(4) 0.3914(5) 0.5343(3)
C81A C -0.0432(5) 0.4262(5) 0.5718(3)
C82A C 0.0031(5) 0.4349(5) 0.6077(3)
C83A C -0.0149(6) 0.4637(5) 0.6454(3)
H68A H 0.01520 0.46030 0.67010
C84A C -0.0757(7) 0.4957(5) 0.6448(3)
C85A C -0.1241(7) 0.4940(6) 0.6086(4)
H69A H -0.16770 0.51500 0.60940
C86A C -0.1093(5) 0.4626(5) 0.5722(3)
C87A C -0.1614(6) 0.4565(7) 0.5304(4)
H70A H -0.20450 0.48010 0.53410
H71A H -0.17170 0.41000 0.52470
H72A H -0.13940 0.47560 0.50710
C88A C 0.0759(6) 0.4022(7) 0.6067(4)
H73A H 0.11050 0.42820 0.62360
H74A H 0.08830 0.40060 0.57810
H75A H 0.07460 0.35750 0.61790
C90A C -0.1508(8) 0.6052(9) 0.7226(4)
H79A H -0.13380 0.57560 0.74510
H80A H -0.19790 0.61970 0.72680
H81A H -0.12020 0.64360 0.72230
C91A C -0.2170(11) 0.5400(12) 0.6785(5)
C92A C -0.1517(9) 0.5693(10) 0.6814(4)
H82A H -0.14940 0.60200 0.65850
Zn1A Zn -0.35819(5) -0.14103(8) 0.59150(3)
Zn2A Zn -1.1439(3) 0.0889(3) 0.82522(12)
O1A O -0.4258(4) -0.1776(6) 0.6677(3)
O2A O -0.4625(4) -0.1587(4) 0.6043(3)
O3A O -0.5607(3) -0.1852(4) 0.6863(3)
O4A O -0.2384(4) 0.2713(5) 0.9628(2)
O5A O -0.1672(4) 0.2600(5) 0.9104(2)
O6A O -0.2922(3) 0.1491(4) 0.94919(18)
O7A O -0.8828(5) 0.3992(5) 1.0351(3)
O8A O -0.7780(6) 0.4452(4) 1.0315(3)
O9A O -0.8192(5) 0.4784(5) 0.9456(2)
O10A O -1.1484(5) 0.0944(7) 0.7646(4)
O11A O -1.1130(5) 0.1996(8) 0.7574(3)
O12A O -1.0760(4) 0.1830(5) 0.6758(2)
O19A O -1.1419(5) 0.1824(4) 0.8371(3)
O20A O -1.0719(10) 0.0798(17) 0.8368(10)
C1A C -0.4696(8) -0.1737(8) 0.6398(4)
C2A C -0.5440(5) -0.2013(6) 0.6446(4)
H1A H -0.57860 -0.18080 0.62360
C3A C -0.5484(7) -0.2794(7) 0.6416(4)
H2A H -0.59610 -0.29360 0.64430
H3A H -0.51730 -0.29900 0.66380
H4A H -0.53440 -0.29370 0.61470
C4A C -0.5904(4) -0.1260(6) 0.6933(4)
C5A C -0.5823(5) -0.0679(5) 0.6690(3)
H5A H -0.55680 -0.06940 0.64540
C6A C -0.6123(5) -0.0095(5) 0.6805(3)
C7A C -0.6485(4) -0.0070(5) 0.7170(3)
C8A C -0.6551(5) -0.0637(5) 0.7427(3)
C9A C -0.6231(5) -0.1196(6) 0.7315(3)
H6A H -0.62220 -0.15630 0.74960
C10A C -0.6116(7) 0.0537(7) 0.6533(3)
H7A H -0.65880 0.06340 0.64140
H8A H -0.58160 0.04660 0.63090
H9A H -0.59390 0.09080 0.67050
C11A C -0.6935(6) -0.0636(5) 0.7818(2)
H10A H -0.69010 -0.10730 0.79460
H11A H -0.74240 -0.05270 0.77450
H12A H -0.67260 -0.03090 0.80140
C12A C -1.1310(9) 0.1493(11) 0.7401(6)
C13A C -1.1278(7) 0.1404(10) 0.6947(5)
H13A H -1.11900 0.09310 0.68850
C14A C -1.2001(7) 0.1610(9) 0.6744(5)
H14A H -1.23350 0.12560 0.67780
H15A H -1.19730 0.16930 0.64480
H16A H -1.21520 0.20110 0.68770
C15A C -1.0064(5) 0.1626(8) 0.6891(3)
C16A C -0.9900(7) 0.1103(8) 0.7152(4)
H17A H -1.02650 0.08500 0.72480
C17A C -0.9195(5) 0.0926(5) 0.7282(3)
C18A C -0.8678(4) 0.1376(6) 0.7126(3)
C19A C -0.8844(5) 0.1921(5) 0.6865(2)
C20A C -0.9547(4) 0.2025(6) 0.6752(2)
H18A H -0.96800 0.23810 0.65720
C21A C -0.9012(7) 0.0356(7) 0.7599(3)
H19A H -0.85090 0.02900 0.76310
H20A H -0.92410 -0.00500 0.74960
H21A H -0.91740 0.04720 0.78670
C22A C -0.8280(4) 0.2335(5) 0.6727(3)
H22A H -0.84590 0.26000 0.64880
H23A H -0.79030 0.20530 0.66490
H24A H -0.81040 0.26260 0.69540
C23A C -0.8377(10) 0.4334(11) 1.0173(4)
C24A C -0.8710(7) 0.4653(9) 0.9758(4)
H25A H -0.90980 0.43750 0.96290
C25A C -0.7835(6) 0.4240(7) 0.9269(3)
C26A C -0.7923(4) 0.3630(7) 0.9408(3)
H26A H -0.82230 0.35420 0.96170
C27A C -0.7524(4) 0.3088(5) 0.9220(3)
C28A C -0.7090(4) 0.3250(5) 0.8901(2)
C29A C -0.7039(4) 0.3909(6) 0.8781(3)
C30A C -0.7431(5) 0.4361(6) 0.8967(3)
H27A H -0.74130 0.48020 0.88720
C31A C -0.7589(6) 0.2339(7) 0.9362(4)
H28A H -0.75130 0.20480 0.91290
H29A H -0.80540 0.22630 0.94490
H30A H -0.72410 0.22480 0.95930
C32A C -0.6621(6) 0.4105(5) 0.8410(3)
H31A H -0.66880 0.45750 0.83500
H32A H -0.67860 0.38470 0.81650
H33A H -0.61270 0.40180 0.84820
C33A C -0.2096(6) 0.2396(6) 0.9367(3)
C34A C -0.2299(4) 0.1677(7) 0.9310(3)
H34A H -0.23450 0.15650 0.90080
C35A C -0.1750(6) 0.1217(10) 0.9546(5)
H35A H -0.12880 0.13210 0.94630
H36A H -0.18630 0.07570 0.94780
H37A H -0.17550 0.12830 0.98450
C36A C -0.3583(5) 0.1643(5) 0.9286(3)
C37A C -0.4135(5) 0.1383(5) 0.9429(3)
H38A H -0.40840 0.11140 0.96700
C38A C -0.4797(4) 0.1497(5) 0.9232(3)
C39A C -0.4863(4) 0.1946(4) 0.8892(2)
C40A C -0.4267(5) 0.2219(5) 0.8741(2)
C41A C -0.3608(5) 0.2056(6) 0.8937(3)
H39A H -0.31960 0.22210 0.88380
C42A C -0.5439(5) 0.1175(6) 0.9408(3)
H40A H -0.57600 0.10150 0.91780
H41A H -0.56740 0.15020 0.95670
H42A H -0.52870 0.08060 0.95880
C43A C -0.4343(5) 0.2714(5) 0.8341(3)
H43A H -0.40130 0.30780 0.83870
H44A H -0.48170 0.28900 0.83050
H45A H -0.42460 0.24720 0.80910
C44A C -0.6862(5) 0.0596(4) 0.7307(2)
C45A C -0.7536(4) 0.0731(4) 0.7145(2)
H46A H -0.77440 0.04780 0.69210
C46A C -0.7905(4) 0.1239(4) 0.7312(2)
C47A C -0.7627(4) 0.1651(5) 0.7646(2)
C48A C -0.8009(4) 0.2134(5) 0.7848(2)
H47A H -0.84810 0.22050 0.77510
C49A C -0.7727(4) 0.2495(4) 0.8170(2)
H48A H -0.79940 0.28290 0.82840
C50A C -0.7001(3) 0.2374(4) 0.8347(2)
C51A C -0.6693(4) 0.2737(4) 0.8713(2)
C52A C -0.6007(4) 0.2587(5) 0.8855(2)
H49A H -0.57960 0.28350 0.90810
C53A C -0.5589(4) 0.2073(4) 0.8680(2)
C54A C -0.5880(4) 0.1737(4) 0.8334(2)
C55A C -0.5518(4) 0.1222(4) 0.8144(2)
H50A H -0.50550 0.11280 0.82490
C56A C -0.5809(4) 0.0856(4) 0.7816(3)
H51A H -0.55440 0.05240 0.76980
C57A C -0.6536(4) 0.0979(4) 0.7645(2)
C58A C -0.6911(4) 0.1467(4) 0.7804(2)
C59A C -0.6596(4) 0.1888(4) 0.8164(2)
C89A C -0.8977(9) 0.5389(10) 0.9842(4)
H76A H -0.90250 0.54440 1.01390
H77A H -0.94270 0.54610 0.96850
H78A H -0.86410 0.57080 0.97550
Zn1B Zn -0.14181(5) 0.35897(8) 0.90850(3)
Zn1B* Zn 0.85819(5) 0.35897(8) -0.09150(3)
Zn1C Zn -0.85819(5) 0.35897(8) 1.09150(3)
Zn1C* Zn 0.14181(5) 0.35897(8) 0.09150(3)
Zn2B Zn -0.3561(3) 0.5889(3) 0.67478(12)
Zn2C Zn 0.3561(3) 0.5889(3) 0.32522(12)
O5B O -0.3328(4) -0.2400(5) 0.5896(2)
O5C O 0.3328(4) -0.2400(5) 0.4104(2)
O7B O 0.3828(5) -0.1008(5) 0.4649(3)
O7C O -0.3828(5) -0.1008(5) 0.5351(3)
O17B O -1.2155(6) 0.0540(6) 0.8461(3)
O17C O 1.2155(6) 0.0540(6) 0.1539(3)
#END
