
#######################################################################
#
#                 Cambridge Crystallographic Data Centre
#                                CCDC
#
#######################################################################
#
# If this CIF has been generated from an entry in the Cambridge
# Structural Database, then it will include bibliographic, chemical,
# crystal, experimental, refinement or atomic coordinate data resulting
# from the CCDC's data processing and validation procedures.
#
#######################################################################

data_CSD_CIF_NAHYAZ
_audit_creation_date 2016-02-05
_audit_creation_method CSD-ConQuest-V1
_database_code_CSD NAHYAZ
_database_code_depnum_ccdc_archive 'CCDC 1437894'
_chemical_formula_sum 'C53 H42 N8 Ni1 O21 S3 U2'
_chemical_formula_moiety
;
(C30 H24 N6 Ni1 2+)n,n(C18 H7 N1 O19 S3 U2 2-),n(C5 H9 N1 O1),n(H2 O1)
;
_journal_coden_Cambridge 1350
_journal_volume 18
_journal_year 2016
_journal_page_first 1550
_journal_name_full 'CrystEngComm '
loop_
_publ_author_name
"P.Thuery"
"J.Harrowfield"
_chemical_name_systematic
;
catena-[tris(2,2'-bipyridine)-nickel 
bis(\m-thiophene-2,5-dicarboxylato)-(hydrogen 
thiophene-2,5-dicarboxylato)-(nitrato)-tetraoxo-di-uranium 
1-methylpyrrolidin-2-one solvate monohydrate]
;
_cell_volume   3046.259
_exptl_crystal_colour 'light orange'
_exptl_crystal_density_diffrn 1.916
_exptl_crystal_description 'platelet'
_diffrn_ambient_temperature 150
_refine_special_details
;
O21,O22 and O22,O23 disordered over two sites with occupancies 0.3333:0.3333.

;
#These two values have been output from a single CSD field.
_refine_ls_R_factor_gt 0.0333
_refine_ls_wR_factor_gt 0.0333
_symmetry_cell_setting triclinic
_symmetry_space_group_name_H-M 'P -1'
_symmetry_Int_Tables_number 2
loop_
_symmetry_equiv_pos_site_id
_symmetry_equiv_pos_as_xyz
1 x,y,z
2 -x,-y,-z
_cell_length_a 13.8935(5)
_cell_length_b 14.0662(8)
_cell_length_c 18.2195(11)
_cell_angle_alpha 108.577(2)
_cell_angle_beta 110.263(3)
_cell_angle_gamma 97.592(3)
_cell_formula_units_Z 2
loop_
_atom_type_symbol
_atom_type_radius_bond
C 0.68
H 0.23
N 0.68
Ni 1.24
O 0.68
S 1.02
U 1.96
loop_
_atom_site_label
_atom_site_type_symbol
_atom_site_fract_x
_atom_site_fract_y
_atom_site_fract_z
U1 U 0.22104(2) 0.55626(2) 0.87835(2)
U2 U 0.78269(2) 0.75827(2) 0.63696(2)
S1 S 0.49351(11) 0.66012(10) 0.74858(9)
S2 S 0.00119(12) 0.16101(11) 0.75893(10)
S3 S 1.02042(12) 0.71014(12) 0.46463(11)
O1 O 0.1229(3) 0.6022(3) 0.8199(3)
O2 O 0.3227(4) 0.5174(3) 0.9425(3)
O3 O 0.6934(3) 0.7738(3) 0.5479(3)
O4 O 0.8730(3) 0.7425(3) 0.7253(3)
O5 O 0.3529(3) 0.6386(3) 0.8400(3)
O6 O 0.2638(3) 0.4751(3) 0.7578(3)
O7 O 0.6447(3) 0.5985(3) 0.6005(3)
O8 O 0.6470(3) 0.7452(3) 0.6936(3)
O9 O 0.1226(3) 0.3743(3) 0.7977(3)
O10 O 0.0858(4) 0.4575(3) 0.9047(3)
O11 O -0.2151(3) -0.0702(3) 0.7359(3)
O12 O -0.0990(3) -0.0686(3) 0.6791(3)
O13 O 0.9153(3) 0.7584(3) 0.5774(3)
O14 O 0.8097(3) 0.6033(3) 0.5373(3)
O15 O 1.1297(4) 0.5614(3) 0.3052(3)
H1 H 1.17980 0.58020 0.28280
O16 O 1.1648(3) 0.7325(3) 0.3790(3)
O17 O 0.2058(4) 0.6588(4) 1.0138(3)
O18 O 0.3173(3) 0.7398(3) 0.9811(3)
O19 O 0.3079(4) 0.8143(4) 1.1023(3)
N1 N 0.2778(4) 0.7411(4) 1.0354(4)
C1 C 0.3332(4) 0.5567(5) 0.7764(4)
C2 C 0.3939(4) 0.5528(4) 0.7225(4)
C3 C 0.3833(4) 0.4709(4) 0.6528(4)
H2 H 0.33180 0.40560 0.62910
C4 C 0.4570(4) 0.4940(4) 0.6199(4)
H3 H 0.46060 0.44600 0.57120
C5 C 0.5228(4) 0.5926(4) 0.6655(4)
C6 C 0.6083(5) 0.6481(5) 0.6519(4)
C7 C 0.0724(5) 0.3748(5) 0.8447(4)
C8 C -0.0004(5) 0.2762(5) 0.8281(4)
C9 C -0.0728(5) 0.2632(5) 0.8604(5)
H4 H -0.08380 0.31880 0.90000
C10 C -0.1303(5) 0.1576(5) 0.8288(5)
H5 H -0.18480 0.13410 0.84420
C11 C -0.0981(5) 0.0927(4) 0.7729(4)
C12 C -0.1397(4) -0.0211(4) 0.7274(4)
C13 C 0.8819(4) 0.6616(5) 0.5322(4)
C14 C 0.9312(4) 0.6208(4) 0.4723(4)
C15 C 0.9193(5) 0.5212(5) 0.4219(4)
H6 H 0.87260 0.46180 0.41740
C16 C 0.9861(5) 0.5162(5) 0.3759(4)
H7 H 0.98960 0.45320 0.33840
C17 C 1.0431(5) 0.6125(5) 0.3928(4)
C18 C 1.1189(5) 0.6429(5) 0.3585(4)
Ni1 Ni 0.38940(5) 0.96618(5) 0.70344(5)
N2 N 0.2908(4) 0.9031(4) 0.7489(3)
N3 N 0.4979(3) 0.9347(3) 0.7986(3)
N4 N 0.3796(4) 0.8284(3) 0.6119(3)
N5 N 0.4992(4) 1.0179(4) 0.6624(3)
N6 N 0.2724(4) 1.0074(4) 0.6213(3)
N7 N 0.3940(4) 1.1136(4) 0.7849(3)
C19 C 0.1841(5) 0.8880(5) 0.7191(4)
H8 H 0.14820 0.89760 0.66820
C20 C 0.1257(5) 0.8594(6) 0.7596(5)
H9 H 0.05060 0.84890 0.73730
C21 C 0.1789(6) 0.8464(7) 0.8333(6)
H10 H 0.13990 0.82500 0.86170
C22 C 0.2879(6) 0.8642(6) 0.8666(5)
H11 H 0.32540 0.85850 0.91890
C23 C 0.3417(5) 0.8907(4) 0.8210(4)
C24 C 0.4577(5) 0.9049(4) 0.8479(4)
C25 C 0.5224(5) 0.8880(5) 0.9182(4)
H12 H 0.49300 0.86880 0.95300
C26 C 0.6297(5) 0.8996(5) 0.9363(4)
H13 H 0.67540 0.88960 0.98430
C27 C 0.6682(5) 0.9254(5) 0.8841(4)
H14 H 0.74100 0.93150 0.89420
C28 C 0.6015(4) 0.9430(4) 0.8164(4)
H15 H 0.63020 0.96160 0.78090
C29 C 0.3171(5) 0.7341(4) 0.5889(4)
H16 H 0.27240 0.72750 0.61740
C30 C 0.3138(5) 0.6452(5) 0.5257(4)
H17 H 0.26870 0.57930 0.51180
C31 C 0.3766(5) 0.6546(5) 0.4843(4)
H18 H 0.37470 0.59520 0.43990
C32 C 0.4438(5) 0.7511(5) 0.5067(4)
H19 H 0.48840 0.75820 0.47820
C33 C 0.4447(4) 0.8375(4) 0.5718(4)
C34 C 0.5144(4) 0.9434(4) 0.6020(4)
C35 C 0.5909(5) 0.9681(5) 0.5737(4)
H20 H 0.60160 0.91510 0.53200
C36 C 0.6519(5) 1.0701(5) 0.6062(4)
H21 H 0.70510 1.08750 0.58740
C37 C 0.6346(5) 1.1453(5) 0.6655(4)
H22 H 0.67420 1.21610 0.68750
C38 C 0.5584(5) 1.1168(5) 0.6929(4)
H23 H 0.54740 1.16920 0.73490
C39 C 0.2151(5) 0.9511(5) 0.5394(4)
H24 H 0.22230 0.88300 0.51600
C40 C 0.1448(5) 0.9867(5) 0.4856(4)
H25 H 0.10570 0.94430 0.42680
C41 C 0.1334(5) 1.0846(6) 0.5199(5)
H26 H 0.08780 1.11200 0.48470
C42 C 0.1894(5) 1.1428(5) 0.6065(5)
H27 H 0.17940 1.20900 0.63180
C43 C 0.2596(5) 1.1039(5) 0.6558(4)
C44 C 0.3233(5) 1.1596(5) 0.7480(4)
C45 C 0.3103(5) 1.2524(5) 0.7958(5)
H28 H 0.26030 1.28410 0.76930
C46 C 0.3718(6) 1.2977(5) 0.8830(5)
H29 H 0.36350 1.36040 0.91690
C47 C 0.4446(5) 1.2513(5) 0.9200(4)
H30 H 0.48820 1.28240 0.97930
C48 C 0.4536(5) 1.1594(4) 0.8701(4)
H31 H 0.50320 1.12690 0.89610
O20 O 1.2777(5) 0.5955(4) 0.2529(4)
N8 N 1.3305(6) 0.4971(6) 0.1524(5)
C49 C 1.2635(8) 0.5131(7) 0.1914(6)
C50 C 1.1731(8) 0.4121(7) 0.1490(7)
H32 H 1.10580 0.42200 0.11400
H33 H 1.16180 0.38970 0.19240
C51 C 1.2095(8) 0.3302(6) 0.0926(7)
H34 H 1.14990 0.28690 0.03680
H35 H 1.23850 0.28440 0.12080
C52 C 1.2978(8) 0.3986(7) 0.0825(6)
H36 H 1.35820 0.36750 0.08560
H37 H 1.26910 0.40650 0.02750
C53 C 1.4112(8) 0.5828(7) 0.1704(6)
H38 H 1.37940 0.63060 0.14690
H39 H 1.45950 0.55890 0.14480
H40 H 1.45110 0.61900 0.23210
O21 O 0.9906(12) 0.1365(12) 0.0395(13)
O22? O 0.9734(9) 0.0297(12) 0.0229(8)
O23? O 0.9232(8) -0.0346(12) 0.0535(7)
U2* U -0.21731(2) -0.24173(2) 0.63696(2)
O11* O 0.7849(3) 0.9298(3) 0.7359(3)
O12* O 0.9010(3) 0.9314(3) 0.6791(3)
#END
