
#######################################################################
#
#                 Cambridge Crystallographic Data Centre
#                                CCDC
#
#######################################################################
#
# If this CIF has been generated from an entry in the Cambridge
# Structural Database, then it will include bibliographic, chemical,
# crystal, experimental, refinement or atomic coordinate data resulting
# from the CCDC's data processing and validation procedures.
#
#######################################################################

data_CSD_CIF_NAHYED
_audit_creation_date 2016-02-05
_audit_creation_method CSD-ConQuest-V1
_database_code_CSD NAHYED
_database_code_depnum_ccdc_archive 'CCDC 1437895'
_chemical_formula_sum 'C38 H56 Cl1 Co1 N8 O26 S4 U2'
_chemical_formula_moiety
;
(C24 H10 O20 S4 U2 2-)n,n(C14 H34 Co1 N8 3+),6n(H2 O1),n(Cl1 1-)
;
_journal_coden_Cambridge 1350
_journal_volume 18
_journal_year 2016
_journal_page_first 1550
_journal_name_full 'CrystEngComm '
loop_
_publ_author_name
"P.Thuery"
"J.Harrowfield"
_chemical_name_systematic
;
catena-[(3,6,10,13,16,19-hexaazabicyclo[6.6.6]icosane-1,8-diamine)-cobalt 
bis(\m-thiophene-2,5-dicarboxylato)-bis(hydrogen 
thiophene-2,5-dicarboxylato)-tetraoxo-di-uranium chloride hexahydrate]
;
_cell_volume   2724.407
_exptl_crystal_colour 'light yellow orange'
_exptl_crystal_density_diffrn 2.121
_exptl_crystal_description 'parallelepiped'
_diffrn_ambient_temperature 150
#These two values have been output from a single CSD field.
_refine_ls_R_factor_gt 0.0338
_refine_ls_wR_factor_gt 0.0338
_symmetry_cell_setting monoclinic
_symmetry_space_group_name_H-M 'P 21'
_symmetry_Int_Tables_number 4
loop_
_symmetry_equiv_pos_site_id
_symmetry_equiv_pos_as_xyz
1 x,y,z
2 -x,1/2+y,-z
_cell_length_a 10.8016(4)
_cell_length_b 20.4090(8)
_cell_length_c 12.8547(5)
_cell_angle_alpha 90
_cell_angle_beta 105.973(2)
_cell_angle_gamma 90
_cell_formula_units_Z 2
loop_
_atom_type_symbol
_atom_type_radius_bond
C 0.68
H 0.23
Cl 0.99
Co 1.26
N 0.68
O 0.68
S 1.02
U 1.96
loop_
_atom_site_label
_atom_site_type_symbol
_atom_site_fract_x
_atom_site_fract_y
_atom_site_fract_z
U1 U 0.52394(5) 0.36918(2) 0.22439(4)
U2 U 0.03812(4) 0.62845(2) 0.73694(3)
S1 S 0.2670(3) 0.48830(18) 0.4761(3)
S2 S 0.7622(3) 0.50825(19) -0.0254(3)
S3 S 0.4093(3) 0.1313(2) 0.3656(3)
S4 S -0.0850(3) 0.8674(2) 0.8670(3)
O1 O 0.6662(9) 0.3743(8) 0.3342(8)
O2 O 0.3828(9) 0.3659(7) 0.1152(7)
O3 O 0.1820(8) 0.6237(8) 0.8431(7)
O4 O -0.1049(8) 0.6333(6) 0.6302(6)
O5 O 0.3942(11) 0.4037(5) 0.3475(8)
O6 O 0.4638(10) 0.4829(7) 0.2603(8)
O7 O 0.1571(9) 0.6467(5) 0.6007(8)
O8 O 0.1263(11) 0.5437(6) 0.6342(9)
O9 O 0.6125(11) 0.4529(6) 0.1258(8)
O10 O 0.6483(9) 0.3499(5) 0.0955(8)
O11 O 0.9771(9) 0.5166(7) -0.2266(7)
O12 O 0.9094(10) 0.5953(5) -0.1394(8)
O13 O 0.5570(11) 0.2519(6) 0.1935(8)
O14 O 0.4507(12) 0.2729(6) 0.3103(9)
O15 O 0.3406(10) 0.0028(5) 0.4594(8)
O16 O 0.4262(10) -0.0608(5) 0.3551(8)
H1 H 0.40090 -0.09340 0.39150
O17 O -0.0218(11) 0.7240(5) 0.8344(8)
O18 O 0.0738(10) 0.7445(5) 0.7054(8)
O19 O -0.1660(11) 0.9946(6) 0.9463(10)
O20 O -0.0598(10) 1.0591(5) 0.8577(8)
H2 H -0.11180 1.08440 0.88300
C1 C 0.4011(13) 0.4640(8) 0.3257(11)
C2 C 0.3352(11) 0.5123(7) 0.3778(11)
C3 C 0.3245(13) 0.5759(8) 0.3567(11)
H3 H 0.35290 0.59630 0.30100
C4 C 0.2650(13) 0.6106(8) 0.4279(11)
H4 H 0.25290 0.65670 0.42710
C5 C 0.2283(12) 0.5690(7) 0.4964(10)
C6 C 0.1680(14) 0.5870(8) 0.5822(11)
C7 C 0.6635(14) 0.4093(7) 0.0772(11)
C8 C 0.7304(11) 0.4290(7) -0.0027(11)
C9 C 0.7817(11) 0.3848(7) -0.0637(10)
H5 H 0.77440 0.33840 -0.06140
C10 C 0.8447(12) 0.4187(7) -0.1282(11)
H6 H 0.88310 0.39710 -0.17690
C11 C 0.8473(12) 0.4857(7) -0.1162(10)
C12 C 0.9139(14) 0.5363(9) -0.1641(12)
C13 C 0.5009(18) 0.2306(10) 0.2622(14)
C14 C 0.4871(14) 0.1621(8) 0.2763(10)
C15 C 0.5366(13) 0.1124(8) 0.2274(10)
H7 H 0.58550 0.11960 0.17730
C16 C 0.5067(16) 0.0496(9) 0.2595(12)
H8 H 0.53040 0.00980 0.23160
C17 C 0.4396(13) 0.0526(7) 0.3355(10)
C18 C 0.3963(14) -0.0024(7) 0.3899(12)
C19 C 0.0159(15) 0.7648(8) 0.7744(10)
C20 C 0.0004(13) 0.8362(8) 0.7841(11)
C21 C 0.0465(12) 0.8845(9) 0.7315(10)
H9 H 0.09390 0.87620 0.68070
C22 C 0.0168(15) 0.9475(7) 0.7600(12)
H10 H 0.04280 0.98650 0.73160
C23 C -0.0537(12) 0.9467(7) 0.8331(11)
C24 C -0.1001(13) 1.0017(8) 0.8849(12)
Co1 Co 0.25428(18) 0.24889(12) 0.74711(13)
N1 N 0.0941(11) 0.2088(6) 0.6558(9)
H11 H 0.02520 0.21820 0.69210
N2 N 0.2146(11) 0.3242(6) 0.6481(8)
H12 H 0.26980 0.31760 0.59800
N3 N 0.3537(10) 0.2059(6) 0.6580(9)
H13 H 0.33540 0.23180 0.58940
N4 N 0.418(1) 0.2913(6) 0.8267(9)
H14 H 0.45520 0.26390 0.89240
N5 N 0.2820(12) 0.1738(6) 0.8473(9)
H15 H 0.37160 0.17840 0.89550
N6 N 0.1616(11) 0.2901(6) 0.8447(9)
H16 H 0.06800 0.28170 0.81070
N7 N 0.2042(12) 0.0345(6) 0.6467(10)
H17 H 0.28650 0.00990 0.67570
H18 H 0.18990 0.03230 0.57480
N8 N 0.2964(12) 0.4635(6) 0.8507(9)
H19 H 0.20640 0.48350 0.82690
H20 H 0.36620 0.46750 0.91860
C25 C 0.2251(13) 0.1038(7) 0.6795(10)
C26 C 0.0946(12) 0.1372(7) 0.640(1)
H21 H 0.05930 0.12790 0.56190
H22 H 0.03550 0.11720 0.67780
C27 C 0.0590(14) 0.2461(7) 0.5511(10)
H23 H 0.11300 0.23150 0.50440
H24 H -0.03250 0.23850 0.51210
C28 C 0.0816(13) 0.3171(7) 0.5784(11)
H25 H 0.07000 0.34310 0.51140
H26 H 0.01960 0.33290 0.61680
C29 C 0.2485(14) 0.3920(7) 0.6933(10)
H27 H 0.17540 0.42190 0.66250
H28 H 0.32390 0.40830 0.67120
C30 C 0.2796(13) 0.3932(6) 0.8163(10)
C31 C 0.3236(12) 0.1365(8) 0.6239(11)
H29 H 0.40440 0.11080 0.64240
H30 H 0.28700 0.13490 0.54440
C32 C 0.4932(12) 0.2154(7) 0.7115(12)
H31 H 0.54390 0.20890 0.65880
H32 H 0.52320 0.18360 0.77120
C33 C 0.5097(15) 0.2853(8) 0.7552(14)
H33 H 0.48700 0.31740 0.69510
H34 H 0.59980 0.29310 0.79800
C34 C 0.4117(13) 0.3592(7) 0.8651(11)
H35 H 0.47980 0.38540 0.84680
H36 H 0.42990 0.35870 0.94500
C35 C 0.2736(14) 0.1065(6) 0.7997(11)
H37 H 0.36030 0.08630 0.82190
H38 H 0.21630 0.07960 0.83090
C36 C 0.1950(16) 0.1822(7) 0.9174(11)
H39 H 0.22510 0.15510 0.98340
H40 H 0.10660 0.16820 0.87840
C37 C 0.1955(15) 0.2532(7) 0.9472(11)
H41 H 0.13170 0.26160 0.98820
H42 H 0.28170 0.26630 0.99250
C38 C 0.1751(13) 0.3633(8) 0.8588(11)
H43 H 0.19320 0.37360 0.93680
H44 H 0.09190 0.38400 0.82130
Cl1 Cl -0.1404(3) 0.25810(17) 0.7498(3)
O21 O 0.3915(14) 0.5803(8) 0.0779(14)
H45 H 0.42660 0.57620 0.15090
H46 H 0.37910 0.62530 0.08760
O22 O 0.9030(17) 0.4375(9) -0.4250(16)
H47 H 0.93350 0.46050 -0.35940
H48 H 0.81190 0.44400 -0.46320
O23 O 0.3497(10) -0.1685(6) 0.4347(8)
H49 H 0.27920 -0.18570 0.39260
H50 H 0.43020 -0.19320 0.43730
O24 O 0.5392(11) 0.1994(5) -0.0095(8)
O25 O -0.1384(15) 1.1644(6) 0.9397(10)
O26 O 0.3479(18) 0.2974(9) 0.4816(15)
O27 O 0.259(2) -0.2387(13) 0.5744(19)
U2* U 1.03812(4) 0.62845(2) -0.26306(3)
O11* O -0.0229(9) 0.5166(7) 0.7734(7)
O12* O -0.0906(10) 0.5953(5) 0.8606(8)
#END
