
#######################################################################
#
#                 Cambridge Crystallographic Data Centre
#                                CCDC
#
#######################################################################
#
# If this CIF has been generated from an entry in the Cambridge
# Structural Database, then it will include bibliographic, chemical,
# crystal, experimental, refinement or atomic coordinate data resulting
# from the CCDC's data processing and validation procedures.
#
#######################################################################

data_CSD_CIF_NAHYIH
_audit_creation_date 2016-02-05
_audit_creation_method CSD-ConQuest-V1
_database_code_CSD NAHYIH
_database_code_depnum_ccdc_archive 'CCDC 1437896'
_chemical_formula_sum 'C128 H96 Fe2 N18 O44 S6 U5'
_chemical_formula_moiety
;
(C36 H24 Fe1 N6 2+)2n,2n(C18 H6 O16 S3 U2 1-),n(C10 H18 N4 O10 U1 2-),2n(C5 
H9 N1 O1)
;
_journal_coden_Cambridge 1350
_journal_volume 18
_journal_year 2016
_journal_page_first 1550
_journal_name_full 'CrystEngComm '
loop_
_publ_author_name
"P.Thuery"
"J.Harrowfield"
_chemical_name_systematic
;
catena-[bis(tris(1,10-phenanthroline)-iron) 
bis(tris(\m-thiophene-2,5-dicarboxylato)-tetraoxo-di-uranium) 
bis(1-methylpyrrolidin-2-one)-bis(nitrato)-dioxo-uranium 
1-methylpyrrolidin-2-one solvate]
;
_cell_volume   3311.727
_exptl_crystal_colour 'dark red'
_exptl_crystal_density_diffrn 2.048
_exptl_crystal_description 'irregular'
_diffrn_ambient_temperature 150
#These two values have been output from a single CSD field.
_refine_ls_R_factor_gt 0.0519
_refine_ls_wR_factor_gt 0.0519
_symmetry_cell_setting triclinic
_symmetry_space_group_name_H-M 'P -1'
_symmetry_Int_Tables_number 2
loop_
_symmetry_equiv_pos_site_id
_symmetry_equiv_pos_as_xyz
1 x,y,z
2 -x,-y,-z
_cell_length_a 13.7311(8)
_cell_length_b 15.5105(9)
_cell_length_c 17.8862(9)
_cell_angle_alpha 68.574(3)
_cell_angle_beta 70.094(3)
_cell_angle_gamma 76.948(3)
_cell_formula_units_Z 1
loop_
_atom_type_symbol
_atom_type_radius_bond
C 0.68
H 0.23
Fe 1.52
N 0.68
O 0.68
S 1.02
U 1.96
loop_
_atom_site_label
_atom_site_type_symbol
_atom_site_fract_x
_atom_site_fract_y
_atom_site_fract_z
U1 U 0.36431(3) 0.24770(2) 1.06941(2)
U2 U 0.69678(3) 0.59197(2) 0.41716(2)
S1 S 0.52006(18) 0.41902(15) 0.73944(13)
S2 S 0.03710(18) 0.42251(15) 1.25028(13)
S3 S 0.54201(19) 0.92395(15) 0.23686(14)
O1 O 0.4527(5) 0.3000(4) 1.0872(4)
O2 O 0.2784(5) 0.1940(5) 1.0501(4)
O3 O 0.7672(5) 0.6576(4) 0.4390(4)
O4 O 0.6271(5) 0.5266(5) 0.3953(4)
O5 O 0.4540(5) 0.2977(4) 0.9184(4)
O6 O 0.3308(5) 0.3999(4) 0.9648(4)
O7 O 0.6406(5) 0.4937(4) 0.5623(4)
O8 O 0.5488(5) 0.6308(4) 0.5325(4)
O9 O 0.2111(5) 0.3479(4) 1.1272(4)
O10 O 0.2572(6) 0.2179(5) 1.2166(4)
O11 O -0.1420(6) 0.5386(5) 1.3233(4)
O12 O -0.1732(5) 0.4510(4) 1.4551(4)
O13 O 0.5939(5) 0.7384(4) 0.3567(4)
O14 O 0.7326(5) 0.6929(5) 0.2671(4)
O15 O 0.4219(5) 1.0998(4) 0.1648(4)
O16 O 0.5101(5) 1.1253(4) 0.0329(4)
C1 C 0.4037(7) 0.3794(6) 0.9054(6)
C2 C 0.4291(7) 0.4490(6) 0.8220(5)
C3 C 0.3935(8) 0.5420(7) 0.8000(6)
H1 H 0.34480 0.57170 0.83810
C4 C 0.4371(8) 0.5883(6) 0.7153(6)
H2 H 0.41970 0.65280 0.68910
C5 C 0.5074(7) 0.5312(6) 0.6740(6)
C6 C 0.5675(7) 0.5536(6) 0.5848(6)
C7 C 0.1992(8) 0.2936(7) 1.2019(6)
C8 C 0.1167(7) 0.3190(6) 1.2707(6)
C9 C 0.0921(8) 0.2712(7) 1.3547(6)
H3 H 0.12820 0.21270 1.37780
C10 C 0.0094(8) 0.3163(6) 1.4031(6)
H4 H -0.01660 0.29260 1.46240
C11 C -0.0299(8) 0.3992(6) 1.3545(6)
C12 C -0.1195(8) 0.4660(6) 1.3799(5)
C13 C 0.6538(8) 0.7496(7) 0.2820(6)
C14 C 0.6289(7) 0.8318(6) 0.2143(6)
C15 C 0.6666(7) 0.8461(6) 0.1286(6)
H5 H 0.71530 0.80290 0.10400
C16 C 0.6239(7) 0.9330(6) 0.0823(6)
H6 H 0.63980 0.95400 0.02300
C17 C 0.5575(7) 0.9834(6) 0.1316(5)
C18 C 0.4934(7) 1.0740(6) 0.1078(6)
U3 U 0.00000 0.00000 0.50000
O17 O 0.1043(8) 0.0453(6) 0.4128(6)
O18 O 0.099(1) -0.0326(7) 0.6052(7)
O19 O 0.0279(9) 0.1067(7) 0.5672(7)
O20 O 0.1134(10) 0.0692(8) 0.6591(8)
O21 O -0.1080(7) 0.1417(6) 0.4790(6)
N1 N 0.0824(11) 0.0495(9) 0.6119(8)
N2 N -0.2522(8) 0.2476(7) 0.4822(6)
C19 C -0.1865(10) 0.1831(8) 0.5183(8)
C20 C -0.2168(12) 0.1717(11) 0.6086(8)
H7 H -0.15680 0.17530 0.62560
H8 H -0.24450 0.11130 0.64260
C21 C -0.3018(13) 0.2538(10) 0.6181(9)
H9 H -0.35990 0.23330 0.66930
H10 H -0.27290 0.30450 0.62190
C22 C -0.3394(10) 0.2868(9) 0.5408(8)
H11 H -0.40510 0.26180 0.55230
H12 H -0.34990 0.35570 0.51890
C23 C -0.2455(13) 0.2716(11) 0.3940(8)
H13 H -0.17590 0.24900 0.36400
H14 H -0.25790 0.33950 0.36990
H15 H -0.29810 0.24250 0.38880
Fe1 Fe 0.13629(10) 0.74407(9) 0.10696(8)
N3 N 0.0820(6) 0.6973(5) 0.2312(5)
N4 N 0.2321(6) 0.6260(5) 0.1253(5)
N5 N 0.0382(6) 0.6861(5) 0.0870(4)
N6 N 0.1993(6) 0.7722(5) -0.0145(5)
N7 N 0.0399(6) 0.8610(5) 0.1017(5)
N8 N 0.2261(6) 0.8147(5) 0.1242(5)
C24 C 0.0080(7) 0.7366(7) 0.2843(6)
H16 H -0.03190 0.79300 0.26190
C25 C -0.0130(8) 0.6980(7) 0.3720(6)
H17 H -0.06460 0.72930 0.40750
C26 C 0.0409(8) 0.6156(7) 0.4057(6)
H18 H 0.02740 0.58910 0.46470
C27 C 0.1169(8) 0.5698(7) 0.3522(6)
C28 C 0.1364(7) 0.6153(6) 0.2653(6)
C29 C 0.2170(7) 0.5750(6) 0.2082(6)
C30 C 0.2739(8) 0.4915(7) 0.2376(6)
C31 C 0.2498(9) 0.4437(7) 0.3261(6)
H19 H 0.28510 0.38370 0.34630
C32 C 0.1779(9) 0.4830(7) 0.3807(6)
H20 H 0.16720 0.45280 0.43910
C33 C 0.3519(8) 0.4559(7) 0.1771(7)
H21 H 0.39300 0.39820 0.19400
C34 C 0.3672(8) 0.5050(6) 0.0945(6)
H22 H 0.41900 0.48130 0.05350
C35 C 0.3074(8) 0.5900(7) 0.0695(6)
H23 H 0.32000 0.62360 0.01150
C36 C -0.0472(8) 0.6466(6) 0.1393(6)
H24 H -0.06530 0.64200 0.19670
C37 C -0.1113(8) 0.6119(7) 0.1131(6)
H25 H -0.17250 0.58630 0.15240
C38 C -0.0864(8) 0.6145(7) 0.0312(6)
H26 H -0.12900 0.59040 0.01310
C39 C 0.0055(8) 0.6545(7) -0.0259(6)
C40 C 0.0632(8) 0.6908(6) 0.0038(6)
C41 C 0.1519(7) 0.7348(6) -0.0496(6)
C42 C 0.1881(8) 0.7407(6) -0.1352(6)
C43 C 0.1285(9) 0.7000(7) -0.1643(6)
H27 H 0.15170 0.70050 -0.22090
C44 C 0.0407(9) 0.6613(7) -0.1128(6)
H28 H 0.00160 0.63820 -0.13470
C45 C 0.2781(9) 0.7838(7) -0.1842(6)
H29 H 0.30530 0.78860 -0.24190
C46 C 0.3267(8) 0.8189(7) -0.1483(6)
H30 H 0.38890 0.84700 -0.18070
C47 C 0.2853(8) 0.8137(7) -0.0642(6)
H31 H 0.31910 0.84050 -0.04110
C48 C -0.0548(8) 0.8834(7) 0.0880(6)
H32 H -0.07730 0.84450 0.06810
C49 C -0.1203(8) 0.9618(7) 0.1023(7)
H33 H -0.18630 0.97600 0.09170
C50 C -0.0901(8) 1.0193(7) 0.1318(7)
H34 H -0.13610 1.07150 0.14360
C51 C 0.0089(8) 0.9999(7) 0.1439(6)
C52 C 0.0711(8) 0.9212(6) 0.1269(6)
C53 C 0.1712(7) 0.8954(6) 0.1401(5)
C54 C 0.2098(8) 0.9510(6) 0.1683(5)
C55 C 0.1463(8) 1.0313(7) 0.1851(6)
H35 H 0.17180 1.06900 0.20440
C56 C 0.0483(9) 1.0553(7) 0.1740(7)
H36 H 0.00630 1.10900 0.18630
C57 C 0.3109(8) 0.9221(7) 0.1779(6)
H37 H 0.34030 0.95710 0.19710
C58 C 0.3670(7) 0.8435(7) 0.1596(6)
H38 H 0.43610 0.82480 0.16410
C59 C 0.3209(7) 0.7909(6) 0.1339(6)
H39 H 0.35970 0.73560 0.12310
O22 O 0.4275(9) 0.8356(8) 0.6283(7)
N9 N 0.5952(13) 0.8685(14) 0.5782(9)
C60 C 0.5054(12) 0.8555(11) 0.5704(11)
C61 C 0.5198(14) 0.8737(11) 0.4780(9)
H40 H 0.46750 0.92450 0.45790
H41 H 0.51270 0.81690 0.46820
C62 C 0.6334(13) 0.9024(14) 0.4321(12)
H42 H 0.67360 0.86380 0.39560
H43 H 0.63100 0.96880 0.39720
C63 C 0.6831(16) 0.886(2) 0.5004(12)
H44 H 0.73740 0.83180 0.50270
H45 H 0.71500 0.94180 0.49140
C64 C 0.611(2) 0.852(2) 0.6573(13)
H46 H 0.64290 0.78780 0.67700
H47 H 0.54350 0.86120 0.69790
H48 H 0.65670 0.89550 0.65150
U1* U 0.36431(3) 1.24770(2) 0.06941(2)
U2* U -0.30322(3) 0.59197(2) 1.41716(2)
O11* O 0.8580(6) 0.5386(5) 0.3233(4)
O12* O 0.8268(5) 0.4510(4) 0.4551(4)
O15* O 0.4219(5) 0.0998(4) 1.1648(4)
O16* O 0.5101(5) 0.1253(4) 1.0329(4)
O17A O -0.1043(8) -0.0453(6) 0.5872(6)
O18A O -0.099(1) 0.0326(7) 0.3948(7)
O19A O -0.0279(9) -0.1067(7) 0.4328(7)
O20A O -0.1134(10) -0.0692(8) 0.3409(8)
O21A O 0.1080(7) -0.1417(6) 0.5210(6)
N1A N -0.0824(11) -0.0495(9) 0.3881(8)
N2A N 0.2522(8) -0.2476(7) 0.5178(6)
C19A C 0.1865(10) -0.1831(8) 0.4817(8)
C20A C 0.2168(12) -0.1717(11) 0.3914(8)
H7A H 0.15680 -0.17530 0.37440
H8A H 0.24450 -0.11130 0.35740
C21A C 0.3018(13) -0.2538(10) 0.3819(9)
H9A H 0.35990 -0.23330 0.33070
H10A H 0.27290 -0.30450 0.37810
C22A C 0.3394(10) -0.2868(9) 0.4592(8)
H11A H 0.40510 -0.26180 0.44770
H12A H 0.34990 -0.35570 0.48110
C23A C 0.2455(13) -0.2716(11) 0.6060(8)
H13A H 0.17590 -0.24900 0.63600
H14A H 0.25790 -0.33950 0.63010
H15A H 0.29810 -0.24250 0.61120
#END
