
#######################################################################
#
#                 Cambridge Crystallographic Data Centre
#                                CCDC
#
#######################################################################
#
# If this CIF has been generated from an entry in the Cambridge
# Structural Database, then it will include bibliographic, chemical,
# crystal, experimental, refinement or atomic coordinate data resulting
# from the CCDC's data processing and validation procedures.
#
#######################################################################

data_CSD_CIF_NAHYON
_audit_creation_date 2016-02-05
_audit_creation_method CSD-ConQuest-V1
_database_code_CSD NAHYON
_database_code_depnum_ccdc_archive 'CCDC 1437897'
_chemical_formula_sum 'C123 H87 N17 Ni2 O43 S6 U5'
_chemical_formula_moiety
;
(C36 H24 N6 Ni1 2+)2n,2n(C18 H6 O16 S3 U2 1-),n(C10 H18 N4 O10 U1 2-),n(C5 H9 
N1 O1)
;
_journal_coden_Cambridge 1350
_journal_volume 18
_journal_year 2016
_journal_page_first 1550
_journal_name_full 'CrystEngComm '
loop_
_publ_author_name
"P.Thuery"
"J.Harrowfield"
_chemical_name_systematic
;
catena-[bis(tris(1,10-phenanthroline)-nickel) 
bis(tris(\m-thiophene-2,5-dicarboxylato)-tetraoxo-di-uranium) 
bis(1-methylpyrrolidin-2-one)-bis(nitrato)-dioxo-uranium 
1-methylpyrrolidin-2-one solvate]
;
_cell_volume   3345.093
_exptl_crystal_colour 'light pink'
_exptl_crystal_density_diffrn 1.981
_exptl_crystal_description 'platelet'
_diffrn_ambient_temperature 150
#These two values have been output from a single CSD field.
_refine_ls_R_factor_gt 0.0685
_refine_ls_wR_factor_gt 0.0685
_symmetry_cell_setting triclinic
_symmetry_space_group_name_H-M 'P -1'
_symmetry_Int_Tables_number 2
loop_
_symmetry_equiv_pos_site_id
_symmetry_equiv_pos_as_xyz
1 x,y,z
2 -x,-y,-z
_cell_length_a 13.7804(3)
_cell_length_b 15.5944(3)
_cell_length_c 18.0932(4)
_cell_angle_alpha 67.6388(9)
_cell_angle_beta 69.3880(9)
_cell_angle_gamma 76.7394(11)
_cell_formula_units_Z 1
loop_
_atom_type_symbol
_atom_type_radius_bond
C 0.68
H 0.23
N 0.68
Ni 1.24
O 0.68
S 1.02
U 1.96
loop_
_atom_site_label
_atom_site_type_symbol
_atom_site_fract_x
_atom_site_fract_y
_atom_site_fract_z
U1 U 0.36668(3) 0.24738(3) 1.06867(3)
U2 U 0.69748(3) 0.58964(3) 0.41398(3)
S1 S 0.5239(2) 0.41678(19) 0.73803(17)
S2 S 0.0389(2) 0.4222(2) 1.24700(17)
S3 S 0.5419(2) 0.9226(2) 0.23594(18)
O1 O 0.4574(7) 0.3002(6) 1.0830(6)
O2 O 0.2800(6) 0.1926(6) 1.0533(5)
O3 O 0.7706(7) 0.6546(6) 0.4331(6)
O4 O 0.6240(7) 0.5243(6) 0.3957(6)
O5 O 0.4557(6) 0.2961(6) 0.9177(5)
O6 O 0.3323(6) 0.3980(6) 0.9630(5)
O7 O 0.6432(6) 0.4918(6) 0.5600(5)
O8 O 0.5524(7) 0.6287(6) 0.5297(5)
O9 O 0.2142(6) 0.3479(6) 1.1258(5)
O10 O 0.2617(7) 0.2200(6) 1.2168(5)
O11 O -0.1440(7) 0.5359(7) 1.3184(5)
O12 O -0.1741(7) 0.4494(6) 1.4504(5)
O13 O 0.5941(6) 0.7359(6) 0.3554(5)
O14 O 0.7289(7) 0.6905(6) 0.2645(5)
O15 O 0.4247(6) 1.1007(5) 0.1653(5)
O16 O 0.5101(6) 1.1248(5) 0.0328(5)
C1 C 0.4060(8) 0.3771(8) 0.9030(7)
C2 C 0.4317(9) 0.4460(8) 0.8210(7)
C3 C 0.3947(10) 0.5398(9) 0.7966(8)
H1 H 0.34440 0.56990 0.83320
C4 C 0.4407(10) 0.5851(9) 0.7112(7)
H2 H 0.42430 0.64940 0.68360
C5 C 0.5104(9) 0.5282(8) 0.6723(7)
C6 C 0.5707(9) 0.5498(9) 0.5834(8)
C7 C 0.2012(9) 0.2947(8) 1.2013(7)
C8 C 0.1186(9) 0.3197(8) 1.2688(8)
C9 C 0.0943(11) 0.2722(9) 1.3522(8)
H3 H 0.13130 0.21450 1.37580
C10 C 0.0092(10) 0.3163(8) 1.4006(8)
H4 H -0.01810 0.29200 1.45970
C11 C -0.0298(9) 0.3999(9) 1.3508(7)
C12 C -0.120(1) 0.4647(9) 1.3747(8)
C13 C 0.6518(9) 0.7475(8) 0.2808(8)
C14 C 0.6277(9) 0.8304(8) 0.2120(7)
C15 C 0.6653(9) 0.8448(8) 0.1281(8)
H5 H 0.71280 0.80140 0.10370
C16 C 0.6236(9) 0.9340(8) 0.0818(7)
H6 H 0.64050 0.95660 0.02250
C17 C 0.5570(9) 0.9829(8) 0.1317(7)
C18 C 0.4936(9) 1.0752(8) 0.1081(8)
U3 U 0.00000 0.00000 0.50000
O17 O 0.1008(12) 0.0455(10) 0.4099(11)
O18 O 0.0996(19) -0.0289(14) 0.6050(13)
O19 O 0.0243(16) 0.1076(12) 0.5694(15)
O20 O 0.118(2) 0.0743(17) 0.652(2)
O21 O -0.1100(11) 0.1407(10) 0.4781(9)
N1 N 0.086(2) 0.0538(19) 0.602(2)
N2 N -0.2530(13) 0.2466(11) 0.4841(10)
C19 C -0.1866(15) 0.1817(13) 0.5182(13)
C20 C -0.2162(18) 0.1719(18) 0.6053(12)
H7 H -0.15530 0.17550 0.62060
H8 H -0.24300 0.11090 0.64030
C21 C -0.300(2) 0.2503(16) 0.6191(14)
H9 H -0.27090 0.30150 0.62130
H10 H -0.35650 0.22800 0.67150
C22 C -0.3402(14) 0.2827(13) 0.5414(12)
H11 H -0.40450 0.25510 0.55420
H12 H -0.35320 0.35160 0.51910
C23 C -0.247(2) 0.2700(17) 0.3941(13)
H13 H -0.17820 0.24580 0.36440
H14 H -0.25720 0.33790 0.36830
H15 H -0.30120 0.24170 0.39090
Ni1 Ni 0.13534(12) 0.74525(11) 0.10647(10)
N3 N 0.0817(8) 0.6899(8) 0.2377(7)
N4 N 0.2370(8) 0.6210(7) 0.1277(6)
N5 N 0.0323(8) 0.6869(7) 0.0834(6)
N6 N 0.2021(8) 0.7716(7) -0.0222(6)
N7 N 0.0339(8) 0.8685(7) 0.1035(7)
N8 N 0.2249(8) 0.8249(7) 0.1222(6)
C24 C 0.0084(10) 0.7297(11) 0.2915(9)
H16 H -0.03250 0.78560 0.26970
C25 C -0.0091(11) 0.6918(12) 0.3773(9)
H17 H -0.05960 0.72210 0.41350
C26 C 0.0466(12) 0.6113(12) 0.4083(9)
H18 H 0.03550 0.58500 0.46700
C27 C 0.1216(11) 0.5649(10) 0.3550(9)
C28 C 0.1377(9) 0.6097(9) 0.2698(8)
C29 C 0.2187(10) 0.5701(9) 0.2098(8)
C30 C 0.2759(11) 0.4853(10) 0.2414(9)
C31 C 0.2519(12) 0.4389(10) 0.3304(10)
H19 H 0.28890 0.38000 0.35120
C32 C 0.1810(12) 0.4753(11) 0.3831(9)
H20 H 0.16770 0.44260 0.44130
C33 C 0.3556(11) 0.4504(10) 0.1821(10)
H21 H 0.39730 0.39330 0.19960
C34 C 0.3719(10) 0.5009(9) 0.0977(9)
H22 H 0.42370 0.47790 0.05660
C35 C 0.3123(11) 0.5849(9) 0.0741(9)
H23 H 0.32570 0.61910 0.01610
C36 C -0.0532(10) 0.6494(9) 0.1341(8)
H24 H -0.07390 0.64630 0.19090
C37 C -0.1160(9) 0.6134(9) 0.1081(9)
H25 H -0.17780 0.58760 0.14700
C38 C -0.0882(11) 0.6157(9) 0.0277(9)
H26 H -0.12950 0.59110 0.00970
C39 C 0.0042(10) 0.6557(9) -0.0290(8)
C40 C 0.0615(10) 0.6915(8) -0.0001(8)
C41 C 0.1532(9) 0.7336(8) -0.0534(8)
C42 C 0.1913(10) 0.7359(9) -0.1379(8)
C43 C 0.1306(13) 0.6963(11) -0.1656(10)
H27 H 0.15450 0.69630 -0.22170
C44 C 0.0421(12) 0.6599(10) -0.1150(9)
H28 H 0.00360 0.63640 -0.13620
C45 C 0.2811(11) 0.7767(10) -0.1876(8)
H29 H 0.30790 0.78010 -0.24460
C46 C 0.3332(10) 0.8134(9) -0.1542(8)
H30 H 0.39670 0.83980 -0.18740
C47 C 0.2897(10) 0.8103(9) -0.0707(8)
H31 H 0.32360 0.83650 -0.04810
C48 C -0.0632(11) 0.8893(9) 0.0962(9)
H32 H -0.08710 0.85010 0.07840
C49 C -0.1310(11) 0.9656(10) 0.1137(11)
H33 H -0.19850 0.97850 0.10650
C50 C -0.0982(12) 1.0218(10) 0.1415(10)
H34 H -0.14390 1.07330 0.15440
C51 C 0.0021(11) 1.0036(10) 0.1510(9)
C52 C 0.0652(9) 0.9245(8) 0.1308(8)
C53 C 0.1676(9) 0.9013(9) 0.1415(8)
C54 C 0.2057(9) 0.9556(9) 0.1689(8)
C55 C 0.1384(11) 1.0348(9) 0.1893(9)
H35 H 0.16260 1.07240 0.20840
C56 C 0.0413(11) 1.055(1) 0.181(1)
H36 H -0.00230 1.10620 0.19620
C57 C 0.3071(9) 0.9281(10) 0.1787(8)
H37 H 0.33540 0.96230 0.19850
C58 C 0.363(1) 0.8516(9) 0.1590(8)
H38 H 0.43140 0.83210 0.16460
C59 C 0.3202(9) 0.8020(9) 0.1308(8)
H39 H 0.36090 0.74910 0.11710
O22 O 0.4337(16) 0.8355(17) 0.6323(13)
N9 N 0.5957(18) 0.876(2) 0.5750(15)
C60 C 0.5101(18) 0.854(3) 0.5689(13)
C61 C 0.527(2) 0.865(3) 0.4782(14)
H40 H 0.47120 0.90960 0.45720
H41 H 0.52770 0.80450 0.47230
C62 C 0.632(2) 0.902(3) 0.4301(18)
H42 H 0.62390 0.96990 0.39850
H43 H 0.67510 0.86860 0.39070
C63 C 0.682(2) 0.884(3) 0.4986(15)
H44 H 0.73020 0.82640 0.50420
H45 H 0.72050 0.93690 0.48580
C64 C 0.617(3) 0.865(3) 0.6538(18)
H46 H 0.60200 0.80340 0.69450
H47 H 0.57350 0.91340 0.67710
H48 H 0.69110 0.87190 0.64130
U1* U 0.36668(3) 1.24738(3) 0.06867(3)
U2* U -0.30252(3) 0.58964(3) 1.41398(3)
O11* O 0.8560(7) 0.5359(7) 0.3184(5)
O12* O 0.8259(7) 0.4494(6) 0.4504(5)
O15* O 0.4247(6) 0.1007(5) 1.1653(5)
O16* O 0.5101(6) 0.1248(5) 1.0328(5)
O17A O -0.1008(12) -0.0455(10) 0.5901(11)
O18A O -0.0996(19) 0.0289(14) 0.3950(13)
O19A O -0.0243(16) -0.1076(12) 0.4306(15)
O20A O -0.118(2) -0.0743(17) 0.348(2)
O21A O 0.1100(11) -0.1407(10) 0.5219(9)
N1A N -0.086(2) -0.0538(19) 0.398(2)
N2A N 0.2530(13) -0.2466(11) 0.5159(10)
C19A C 0.1866(15) -0.1817(13) 0.4818(13)
C20A C 0.2162(18) -0.1719(18) 0.3947(12)
H7A H 0.15530 -0.17550 0.37940
H8A H 0.24300 -0.11090 0.35970
C21A C 0.300(2) -0.2503(16) 0.3809(14)
H9A H 0.27090 -0.30150 0.37870
H10A H 0.35650 -0.22800 0.32850
C22A C 0.3402(14) -0.2827(13) 0.4586(12)
H11A H 0.40450 -0.25510 0.44580
H12A H 0.35320 -0.35160 0.48090
C23A C 0.247(2) -0.2700(17) 0.6059(13)
H13A H 0.17820 -0.24580 0.63560
H14A H 0.25720 -0.33790 0.63170
H15A H 0.30120 -0.24170 0.60910
#END
