
#######################################################################
#
#                 Cambridge Crystallographic Data Centre
#                                CCDC
#
#######################################################################
#
# If this CIF has been generated from an entry in the Cambridge
# Structural Database, then it will include bibliographic, chemical,
# crystal, experimental, refinement or atomic coordinate data resulting
# from the CCDC's data processing and validation procedures.
#
#######################################################################

data_CSD_CIF_NAHZAA
_audit_creation_date 2016-02-05
_audit_creation_method CSD-ConQuest-V1
_database_code_CSD NAHZAA
_database_code_depnum_ccdc_archive 'CCDC 1437899'
_chemical_formula_sum 'C136 H104 Ag5 N21 O41 S6 U4'
_chemical_formula_moiety
;
(C36 H12 O32 S6 U4 4-)n,5n(C20 H16 Ag1 N4 1+),n(N1 O3 1-),6n(H2 O1)
;
_journal_coden_Cambridge 1350
_journal_volume 18
_journal_year 2016
_journal_page_first 1550
_journal_name_full 'CrystEngComm '
loop_
_publ_author_name
"P.Thuery"
"J.Harrowfield"
_chemical_name_systematic
;
catena-[pentakis(bis(2,2'-bipyridine)-silver) 
hexakis(\m-thiophene-2,5-dicarboxylato)-octaoxo-tetra-uranium nitrate 
hexahydrate]
;
_cell_volume  15699.083
_exptl_crystal_colour 'light yellow'
_exptl_crystal_density_diffrn 1.85
_exptl_crystal_description 'parallelepiped'
_diffrn_ambient_temperature 150
_diffrn_special_details
;
twin

;
#These two values have been output from a single CSD field.
_refine_ls_R_factor_gt 0.0446
_refine_ls_wR_factor_gt 0.0446
_symmetry_cell_setting orthorhombic
_symmetry_space_group_name_H-M 'P 21 21 21'
_symmetry_Int_Tables_number 19
loop_
_symmetry_equiv_pos_site_id
_symmetry_equiv_pos_as_xyz
1 x,y,z
2 1/2-x,-y,1/2+z
3 -x,1/2+y,1/2-z
4 1/2+x,1/2-y,-z
_cell_length_a 18.4849(2)
_cell_length_b 26.8834(6)
_cell_length_c 31.5917(8)
_cell_angle_alpha 90
_cell_angle_beta 90
_cell_angle_gamma 90
_cell_formula_units_Z 4
loop_
_atom_type_symbol
_atom_type_radius_bond
C 0.68
H 0.23
Ag 1.45
N 0.68
O 0.68
S 1.02
U 1.96
loop_
_atom_site_label
_atom_site_type_symbol
_atom_site_fract_x
_atom_site_fract_y
_atom_site_fract_z
U1 U 0.08577(2) 0.67056(2) 0.45736(2)
U2 U 0.06864(2) 0.32654(2) 0.30027(2)
U3 U 0.56933(2) 0.17995(2) 0.19655(2)
U4 U 0.56028(2) -0.16987(2) 0.04717(2)
S1 S 0.06954(17) 0.49303(12) 0.38473(10)
S2 S 0.34129(17) 0.75105(12) 0.48920(12)
S3 S 0.32414(18) 0.25566(12) 0.25316(11)
S4 S -0.17594(17) 0.25507(12) 0.23915(11)
S5 S 0.55706(16) 0.00755(11) 0.11601(10)
S6 S 0.31638(17) -0.25680(12) -0.00166(12)
O1 O 0.0703(5) 0.7082(3) 0.4133(3)
O2 O 0.1010(5) 0.6329(4) 0.5019(3)
O3 O 0.0782(5) 0.3723(3) 0.2597(3)
O4 O 0.0587(5) 0.2810(3) 0.3403(3)
O5 O 0.5596(5) 0.2231(3) 0.1543(3)
O6 O 0.5794(5) 0.1370(3) 0.2386(3)
O7 O 0.5665(5) -0.1310(3) 0.0021(3)
O8 O 0.5547(5) -0.2088(3) 0.0920(3)
O9 O 0.0995(5) 0.5966(3) 0.4129(3)
O10 O -0.0107(4) 0.6139(3) 0.4341(4)
O11 O -0.0268(4) 0.3793(3) 0.3326(3)
O12 O 0.0878(4) 0.3921(3) 0.3537(3)
O13 O 0.1915(4) 0.7201(3) 0.4760(3)
O14 O 0.2116(4) 0.6574(3) 0.4336(3)
O15 O 0.4654(5) 0.8070(4) 0.5171(4)
O16 O 0.5527(4) 0.7576(3) 0.4956(3)
O17 O 0.1957(4) 0.3379(3) 0.3216(3)
O18 O 0.1754(5) 0.2835(4) 0.2717(3)
O19 O 0.4481(5) 0.2019(4) 0.2196(3)
O20 O 0.5355(5) 0.2443(4) 0.2505(3)
O21 O 0.0334(5) 0.2650(3) 0.2446(3)
O22 O -0.0530(5) 0.3060(3) 0.2752(3)
O23 O -0.3245(5) 0.2261(3) 0.2202(3)
O24 O -0.3033(4) 0.1670(3) 0.1746(3)
O25 O 0.5843(4) 0.1085(3) 0.1481(3)
O26 O 0.4731(5) 0.1280(3) 0.1647(3)
O27 O 0.5784(5) -0.0955(3) 0.0900(3)
O28 O 0.4649(5) -0.1137(3) 0.0756(3)
O29 O 0.4380(5) -0.1977(3) 0.0276(3)
O30 O 0.5265(4) -0.2396(3) -0.0010(3)
O31 O 0.1660(4) -0.2838(3) -0.0211(3)
O32 O 0.1886(4) -0.3439(4) -0.0672(3)
C1 C 0.0338(6) 0.5845(5) 0.4156(5)
C2 C 0.0081(7) 0.5374(5) 0.3987(5)
C3 C -0.0631(7) 0.5227(5) 0.3915(4)
H1 H -0.10410 0.54300 0.39700
C4 C -0.0668(7) 0.4745(5) 0.3752(4)
H2 H -0.11080 0.45800 0.36850
C5 C 0.0012(6) 0.4535(5) 0.3701(4)
C6 C 0.0216(7) 0.4050(5) 0.3519(4)
C7 C 0.2335(6) 0.6936(4) 0.4559(5)
C8 C 0.3123(6) 0.7042(4) 0.4575(4)
C9 C 0.3686(6) 0.6797(5) 0.4384(4)
H3 H 0.36240 0.65320 0.41890
C10 C 0.4367(6) 0.6983(4) 0.4508(4)
H4 H 0.48160 0.68530 0.44120
C11 C 0.4302(6) 0.7377(4) 0.4785(4)
C12 C 0.4856(7) 0.7681(5) 0.4975(4)
C13 C 0.2179(7) 0.3064(5) 0.2954(4)
C14 C 0.2958(7) 0.2953(4) 0.2920(4)
C15 C 0.3522(6) 0.3154(4) 0.3158(4)
H5 H 0.34660 0.33960 0.33750
C16 C 0.4186(6) 0.2947(5) 0.3029(4)
H6 H 0.46340 0.30180 0.31630
C17 C 0.4120(6) 0.2637(4) 0.2695(4)
C18 C 0.4700(7) 0.2353(5) 0.2450(5)
C19 C -0.0321(6) 0.2738(4) 0.2505(4)
C20 C -0.0875(6) 0.2465(4) 0.2253(4)
C21 C -0.0802(6) 0.2144(5) 0.1920(5)
H7 H -0.03510 0.20670 0.17920
C22 C -0.1468(7) 0.1940(5) 0.1787(5)
H8 H -0.15190 0.17020 0.15670
C23 C -0.2020(7) 0.2130(4) 0.2013(4)
C24 C -0.2815(7) 0.2011(5) 0.1988(5)
C25 C 0.5181(6) 0.0989(5) 0.1482(4)
C26 C 0.4943(6) 0.0512(4) 0.1314(4)
C27 C 0.4246(7) 0.0330(4) 0.1281(4)
H9 H 0.38280 0.05180 0.13530
C28 C 0.4216(6) -0.0167(5) 0.1128(4)
H10 H 0.37830 -0.03480 0.10770
C29 C 0.4907(6) -0.0350(5) 0.1064(4)
C30 C 0.5119(6) -0.0824(5) 0.0903(4)
C31 C 0.4602(7) -0.2321(5) 0.0037(4)
C32 C 0.4040(7) -0.2610(5) -0.0180(4)
C33 C 0.4113(6) -0.2925(5) -0.0530(4)
H11 H 0.45630 -0.29940 -0.06630
C34 C 0.3439(6) -0.3132(5) -0.0664(4)
H12 H 0.33840 -0.33530 -0.08970
C35 C 0.2886(6) -0.2971(4) -0.0414(4)
C36 C 0.2097(6) -0.3091(5) -0.0428(4)
Ag1 Ag 1.03560(8) 0.50439(5) 0.13003(4)
N1 N 1.0590(8) 0.5939(5) 0.1296(4)
N2 N 0.9848(6) 0.4795(5) 0.0671(4)
N3 N 1.0449(7) 0.4151(5) 0.1248(4)
N4 N 1.0352(8) 0.5320(5) 0.1971(3)
C37 C 1.0235(9) 0.4993(4) 0.2305(5)
H13 H 1.01160 0.46550 0.22490
C38 C 1.0292(10) 0.5160(6) 0.2720(4)
H14 H 1.02130 0.49360 0.29480
C39 C 1.0467(10) 0.5654(7) 0.2801(3)
H15 H 1.05060 0.57680 0.30850
C40 C 1.0583(10) 0.5981(5) 0.2467(5)
H16 H 1.07020 0.63180 0.25220
C41 C 1.0526(9) 0.5813(5) 0.2052(4)
C42 C 1.0641(9) 0.6139(6) 0.1692(5)
C43 C 1.0728(9) 0.6652(7) 0.1739(6)
H17 H 1.07530 0.67970 0.20130
C44 C 1.0775(10) 0.6937(7) 0.1388(7)
H18 H 1.08300 0.72870 0.14150
C45 C 1.0745(9) 0.6727(6) 0.0999(6)
H19 H 1.07940 0.69230 0.07500
C46 C 1.0645(10) 0.6238(6) 0.0977(5)
H20 H 1.06100 0.60950 0.07030
C47 C 0.9596(9) 0.5120(8) 0.0386(5)
H21 H 0.95560 0.54580 0.04700
C48 C 0.9394(9) 0.5002(8) -0.0014(5)
H22 H 0.91920 0.52390 -0.02040
C49 C 0.9507(9) 0.4510(8) -0.0124(5)
H23 H 0.94020 0.44120 -0.04060
C50 C 0.9756(10) 0.4161(7) 0.0146(5)
H24 H 0.98210 0.38260 0.00590
C51 C 0.9913(7) 0.4312(6) 0.0555(5)
C52 C 1.0171(8) 0.3954(6) 0.0896(5)
C53 C 1.0089(10) 0.3441(6) 0.0844(6)
H25 H 0.98710 0.33030 0.05970
C54 C 1.0344(10) 0.3141(7) 0.1171(6)
H26 H 1.03270 0.27890 0.11440
C55 C 1.0614(10) 0.3349(8) 0.1526(6)
H27 H 1.07850 0.31470 0.17510
C56 C 1.0638(10) 0.3843(7) 0.1555(6)
H28 H 1.08010 0.39840 0.18140
Ag2 Ag 0.79375(7) 0.49672(4) 0.10836(4)
N5 N 0.8475(6) 0.5754(4) 0.1150(4)
N6 N 0.7703(6) 0.5397(4) 0.0469(4)
N7 N 0.8183(6) 0.4126(4) 0.0990(4)
N8 N 0.8046(7) 0.4612(4) 0.1757(4)
C57 C 0.8732(9) 0.5949(6) 0.1508(5)
H29 H 0.88170 0.57320 0.17400
C58 C 0.8886(9) 0.6462(7) 0.1562(6)
H30 H 0.90790 0.65860 0.18200
C59 C 0.8742(9) 0.6777(6) 0.1222(6)
H31 H 0.88190 0.71260 0.12430
C60 C 0.8483(7) 0.6563(5) 0.0850(5)
H32 H 0.84000 0.67690 0.06110
C61 C 0.8347(7) 0.6069(5) 0.0820(5)
C62 C 0.8054(6) 0.5834(4) 0.0431(4)
C63 C 0.8109(8) 0.6071(5) 0.0034(5)
H33 H 0.83410 0.63860 0.00140
C64 C 0.7834(9) 0.5855(6) -0.0324(5)
H34 H 0.78950 0.60040 -0.05940
C65 C 0.7463(8) 0.5413(6) -0.0277(5)
H35 H 0.72440 0.52590 -0.05160
C66 C 0.7410(7) 0.5193(5) 0.0122(5)
H36 H 0.71580 0.48860 0.01480
C67 C 0.8137(8) 0.3880(5) 0.0639(5)
H37 H 0.80700 0.40620 0.03840
C68 C 0.8181(8) 0.3374(5) 0.0615(6)
H38 H 0.81450 0.32100 0.03490
C69 C 0.8276(9) 0.3107(6) 0.0977(6)
H39 H 0.83190 0.27550 0.09650
C70 C 0.8307(8) 0.3340(5) 0.1345(6)
H40 H 0.83350 0.31520 0.15990
C71 C 0.8300(8) 0.3864(5) 0.1365(5)
C72 C 0.8330(9) 0.4139(6) 0.1749(5)
C73 C 0.8695(10) 0.3964(6) 0.2125(6)
H41 H 0.89520 0.36580 0.21170
C74 C 0.8677(12) 0.4232(6) 0.2492(6)
H42 H 0.88760 0.40940 0.27430
C75 C 0.8373(14) 0.4700(7) 0.2500(7)
H43 H 0.83620 0.48920 0.27520
C76 C 0.8085(13) 0.4878(7) 0.2126(7)
H44 H 0.79010 0.52080 0.21250
Ag3 Ag 0.62033(8) 0.51748(5) 0.12017(4)
N9 N 0.6580(7) 0.6002(5) 0.1195(4)
N10 N 0.5817(6) 0.5527(5) 0.0577(4)
C77 C 0.6885(10) 0.6239(7) 0.1519(6)
H45 H 0.70540 0.60510 0.17530
C78 C 0.6963(9) 0.6757(7) 0.1523(6)
H46 H 0.71840 0.69180 0.17570
C79 C 0.6722(11) 0.7023(6) 0.1193(7)
H47 H 0.67380 0.73760 0.12050
C80 C 0.6450(8) 0.6793(6) 0.0838(6)
H48 H 0.63270 0.69780 0.05920
C81 C 0.6361(8) 0.6272(6) 0.0851(5)
C82 C 0.6042(7) 0.6010(6) 0.0511(5)
C83 C 0.5952(10) 0.6245(9) 0.0083(6)
H49 H 0.60990 0.65780 0.00330
C84 C 0.5649(11) 0.5962(10) -0.0232(7)
H50 H 0.56000 0.60930 -0.05100
C85 C 0.5425(10) 0.5508(10) -0.0148(6)
H51 H 0.51890 0.53290 -0.03670
C86 C 0.5514(8) 0.5273(7) 0.0242(6)
H52 H 0.53660 0.49370 0.02770
N11 N 0.6363(7) 0.4376(5) 0.1300(6)
C87 C 0.6366(8) 0.4023(7) 0.0979(5)
H53 H 0.63800 0.41270 0.06910
C88 C 0.6348(8) 0.3520(6) 0.1078(6)
H54 H 0.63510 0.32790 0.08580
C89 C 0.6328(8) 0.3369(5) 0.1498(7)
H55 H 0.63160 0.30250 0.15660
C90 C 0.6325(9) 0.3721(7) 0.1820(5)
H56 H 0.63110 0.36180 0.21080
C91 C 0.6342(9) 0.4225(6) 0.1721(5)
N12 N 0.6082(10) 0.5007(10) 0.1921(5)
C92 C 0.6259(12) 0.4531(8) 0.2057(7)
C93 C 0.6425(12) 0.4446(7) 0.2481(8)
H57 H 0.65460 0.41210 0.25740
C94 C 0.6414(12) 0.4839(11) 0.2767(5)
H58 H 0.65280 0.47810 0.30560
C95 C 0.6237(12) 0.5315(9) 0.2631(7)
H59 H 0.62300 0.55830 0.28270
C96 C 0.6072(11) 0.5399(7) 0.2208(8)
H60 H 0.59510 0.57250 0.21140
Ag4 Ag 0.42279(9) 0.49966(5) 0.12752(4)
N13 N 0.4428(8) 0.5858(5) 0.1238(5)
N14 N 0.3831(7) 0.5273(5) 0.0633(4)
N15 N 0.4449(8) 0.4160(5) 0.1328(5)
N16 N 0.4157(7) 0.4769(5) 0.1982(4)
C97 C 0.4710(13) 0.6122(8) 0.1545(8)
H61 H 0.48810 0.59600 0.17920
C98 C 0.4764(12) 0.6648(9) 0.1510(8)
H62 H 0.49390 0.68420 0.17400
C99 C 0.4556(11) 0.6873(8) 0.1135(7)
H63 H 0.46000 0.72230 0.11000
C100 C 0.4297(9) 0.6594(6) 0.0830(6)
H64 H 0.41560 0.67510 0.05740
C101 C 0.4218(8) 0.6077(6) 0.0864(5)
C102 C 0.3914(8) 0.5736(6) 0.0536(5)
C103 C 0.3688(11) 0.5929(8) 0.0128(6)
H65 H 0.37150 0.62760 0.00720
C104 C 0.3446(11) 0.5623(10) -0.0163(6)
H66 H 0.32940 0.57480 -0.04290
C105 C 0.3413(9) 0.5114(8) -0.0081(6)
H67 H 0.32810 0.48780 -0.02910
C106 C 0.3586(8) 0.4981(8) 0.0326(6)
H68 H 0.35230 0.46400 0.03970
C107 C 0.4484(10) 0.3852(7) 0.1005(7)
H69 H 0.45430 0.39980 0.07340
C108 C 0.4442(8) 0.3316(6) 0.1017(6)
H70 H 0.44350 0.31170 0.07690
C109 C 0.4412(9) 0.3117(6) 0.1426(7)
H71 H 0.43950 0.27680 0.14680
C110 C 0.4408(10) 0.3435(6) 0.1761(6)
H72 H 0.44000 0.32990 0.20390
C111 C 0.4415(9) 0.3954(6) 0.1715(6)
C112 C 0.4366(12) 0.4292(6) 0.2053(5)
C113 C 0.4593(16) 0.4151(11) 0.2459(9)
H73 H 0.48160 0.38370 0.25030
C114 C 0.4480(18) 0.4502(11) 0.2827(10)
H74 H 0.45950 0.44220 0.31120
C115 C 0.4182(15) 0.4969(10) 0.2697(8)
H75 H 0.40500 0.51990 0.29120
C116 C 0.4074(10) 0.5105(7) 0.2295(6)
H76 H 0.39390 0.54370 0.22300
Ag5 Ag 0.22005(11) 0.48764(7) 0.14082(6)
N17 N 0.2151(10) 0.4952(7) 0.2150(5)
N18 N 0.2468(7) 0.5669(6) 0.1591(5)
N19 N 0.1790(7) 0.4787(6) 0.0704(5)
N20 N 0.2426(7) 0.4087(7) 0.1208(5)
C117 C 0.2051(13) 0.4551(9) 0.2452(8)
H77 H 0.19180 0.42340 0.23450
C118 C 0.2137(14) 0.4600(9) 0.2882(8)
H78 H 0.20300 0.43250 0.30590
C119 C 0.2378(16) 0.5048(9) 0.3068(10)
H79 H 0.24750 0.50900 0.33610
C120 C 0.2458(13) 0.5437(9) 0.2750(7)
H80 H 0.26080 0.57530 0.28510
C121 C 0.2337(11) 0.5396(8) 0.2301(6)
C122 C 0.2469(9) 0.5795(7) 0.2004(6)
C123 C 0.2614(11) 0.6275(8) 0.2123(7)
H81 H 0.26510 0.63530 0.24150
C124 C 0.2703(10) 0.6636(8) 0.1835(7)
H82 H 0.27980 0.69650 0.19320
C125 C 0.2661(9) 0.6548(8) 0.1383(7)
H83 H 0.27090 0.67960 0.11700
C126 C 0.2538(9) 0.6040(8) 0.1307(7)
H84 H 0.24980 0.59460 0.10180
C127 C 0.1599(9) 0.5146(8) 0.0450(8)
H85 H 0.15120 0.54640 0.05710
C128 C 0.1514(11) 0.5097(9) 0.0016(7)
H86 H 0.13540 0.53710 -0.01490
C129 C 0.1662(10) 0.4654(8) -0.0170(8)
H87 H 0.16330 0.46040 -0.04670
C130 C 0.1862(10) 0.4275(8) 0.0112(7)
H88 H 0.19550 0.39550 -0.00030
C131 C 0.1933(7) 0.4332(7) 0.0534(5)
C132 C 0.2166(9) 0.3940(7) 0.0833(6)
C133 C 0.2133(11) 0.3454(7) 0.0728(7)
H89 H 0.19480 0.33700 0.04560
C134 C 0.2344(12) 0.3082(9) 0.0981(7)
H90 H 0.23500 0.27450 0.08900
C135 C 0.255(1) 0.322(1) 0.1382(7)
H91 H 0.26500 0.29830 0.15980
C136 C 0.2606(10) 0.3741(9) 0.1456(7)
H92 H 0.28010 0.38390 0.17210
O33 O 0.2502(13) -0.0168(8) 0.1567(8)
O34 O 0.2025(12) 0.0569(8) 0.1711(6)
O35 O 0.2465(10) 0.0399(9) 0.1070(6)
N21 N 0.2371(16) 0.0284(8) 0.1458(7)
O36 O -0.1409(11) 0.6833(8) 0.4137(7)
H93 H -0.19120 0.68430 0.40460
H94 H -0.10560 0.69640 0.39540
O37 O -0.1340(9) 0.5831(6) 0.4928(7)
O38 O 0.2724(8) 0.5711(4) 0.3862(4)
O39 O 0.6200(6) 0.6764(5) 0.4499(4)
H95 H 0.61430 0.68810 0.42300
H96 H 0.65210 0.65120 0.45070
O40 O 0.1434(15) 0.1808(8) 0.2312(7)
H97 H 0.17700 0.16330 0.25150
H98 H 0.17250 0.19950 0.21080
O41 O 0.3583(11) 0.1990(6) 0.1345(6)
O42 O 0.2306(14) 0.1021(8) 0.2537(6)
O43 O 0.2564(11) 0.1147(10) 0.0452(7)
O44 O 0.0802(17) 0.1388(10) 0.1644(7)
U1C U 0.58577(2) 0.82944(2) 0.54264(2)
U3* U -0.43067(2) 0.17995(2) 0.19655(2)
U4C U 0.06028(2) -0.33013(2) -0.04717(2)
O15C O -0.0346(5) 0.6930(4) 0.4829(4)
O16C O 0.0527(4) 0.7424(3) 0.5044(3)
O23* O 0.6755(5) 0.2261(3) 0.2202(3)
O24* O 0.6967(4) 0.1670(3) 0.1746(3)
O31C O 0.6660(4) -0.2162(3) 0.0211(3)
O32C O 0.6886(4) -0.1561(4) 0.0672(3)
#END
