
#######################################################################
#
#                 Cambridge Crystallographic Data Centre
#                                CCDC
#
#######################################################################
#
# If this CIF has been generated from an entry in the Cambridge
# Structural Database, then it will include bibliographic, chemical,
# crystal, experimental, refinement or atomic coordinate data resulting
# from the CCDC's data processing and validation procedures.
#
#######################################################################

data_CSD_CIF_NAJZII
_audit_creation_date 2005-07-19
_audit_creation_method CSD-ConQuest-V1
_database_code_CSD NAJZII
_database_code_depnum_ccdc_archive 'CCDC 231329'
_chemical_formula_sum 'C54 H99 N12 Ni1.5 O46 P6 Zn7'
_chemical_formula_moiety
;
(C24 H42 N6 O30 P6 Zn7 1-)n,1.5n(C20 H20 N4 Ni1 O2),n(H3 O1 1+),12n(H2 O1)
;
_journal_coden_Cambridge 580
_journal_volume 24
_journal_year 2005
_journal_page_first 295
_journal_name_full 'Polyhedron '
loop_
_publ_author_name
"Chong Lei"
"Jiang-Gao Mao"
"Yan-Qiong Sun"
"Zhen-Chao Dong"
_chemical_name_systematic
;
catena-(Oxonium 
hexakis(\m~4~-N-(phosphonomethyl)-N-methylglycinato)-hepta-zinc(ii) 
sesquikis(bis(\m~2~-4,4'-bipyridine)-diaqua-nickel(ii)) dodecahydrate)
;
_cell_volume  11530.922
_exptl_crystal_colour 'green'
_exptl_crystal_density_diffrn 1.373
_exptl_crystal_description 'brick'
_diffrn_ambient_temperature 293
#These two values have been output from a single CSD field.
_refine_ls_R_factor_gt 0.057
_refine_ls_wR_factor_gt 0.057
_symmetry_cell_setting cubic
_symmetry_space_group_name_H-M 'P n -3'
_symmetry_Int_Tables_number 201
loop_
_symmetry_equiv_pos_site_id
_symmetry_equiv_pos_as_xyz
1 x,y,z
2 z,x,y
3 y,z,x
4 1/2-x,1/2-y,z
5 1/2-x,y,1/2-z
6 x,1/2-y,1/2-z
7 z,1/2-x,1/2-y
8 1/2-z,1/2-x,y
9 1/2-z,x,1/2-y
10 1/2-y,z,1/2-x
11 y,1/2-z,1/2-x
12 1/2-y,1/2-z,x
13 -x,-y,-z
14 -z,-x,-y
15 -y,-z,-x
16 -1/2+x,-1/2+y,-z
17 -1/2+x,-y,-1/2+z
18 -x,-1/2+y,-1/2+z
19 -z,-1/2+x,-1/2+y
20 -1/2+z,-1/2+x,-y
21 -1/2+z,-x,-1/2+y
22 -1/2+y,-z,-1/2+x
23 -y,-1/2+z,-1/2+x
24 -1/2+y,-1/2+z,-x
_cell_length_a 22.5920(11)
_cell_length_b 22.5920(11)
_cell_length_c 22.5920(11)
_cell_angle_alpha 90
_cell_angle_beta 90
_cell_angle_gamma 90
_cell_formula_units_Z 4
loop_
_atom_type_symbol
_atom_type_radius_bond
C 0.68
H 0.23
N 0.68
Ni 1.50
O 0.68
P 1.05
Zn 1.45
loop_
_atom_site_label
_atom_site_type_symbol
_atom_site_fract_x
_atom_site_fract_y
_atom_site_fract_z
Zn1 Zn 0.00000 0.50000 0.00000
Zn2 Zn -0.07483(4) 0.44238(4) 0.13408(4)
Ni1 Ni -0.25000 0.25000 0.25000
P1 P 0.02232(9) 0.54245(9) 0.13627(8)
N1 N -0.0419(3) 0.4785(3) 0.2154(3)
N2 N -0.25000 0.3446(3) 0.25000
N3 N -0.25000 0.25000 0.1565(3)
C1 C -0.0398(4) 0.4290(4) 0.2578(4)
H1 H -0.04560 0.44410 0.29760
H2 H -0.00100 0.41060 0.25620
C2 C -0.0871(3) 0.3824(4) 0.2445(4)
C3 C 0.0172(3) 0.5070(3) 0.2074(3)
H3 H 0.04800 0.47720 0.21070
H4 H 0.02340 0.53610 0.23830
C4 C -0.0856(4) 0.5226(4) 0.2356(4)
H5 H -0.07240 0.53990 0.27210
H6 H -0.12310 0.50360 0.24170
H7 H -0.08970 0.55300 0.20610
C5 C -0.2296(3) 0.3758(3) 0.2959(3)
H8 H -0.21470 0.35530 0.32830
C6 C -0.2296(4) 0.4360(3) 0.2976(3)
H9 H -0.21580 0.45570 0.33110
C7 C -0.25000 0.4677(4) 0.25000
C8 C -0.25000 0.53320 0.2500(4)
C9 C -0.2716(3) 0.5653(3) 0.2977(3)
H10 H -0.28620 0.54560 0.33080
C10 C -0.2037(3) 0.2715(3) 0.1257(3)
H11 H -0.17150 0.28680 0.14630
O1 O -0.1127(2) 0.3851(2) 0.1963(2)
O2 O -0.0941(3) 0.3433(3) 0.2832(3)
O3 O -0.0514(2) 0.3729(2) 0.0884(2)
O4 O -0.1390(2) 0.4885(2) 0.0998(2)
O5 O -0.0051(2) 0.4973(2) 0.0935(2)
O6 O 0.1022(5) 0.3978(5) 0.1022(5)
O7 O -0.1588(3) 0.25000 0.25000
O8 O 0.1626(9) 0.5312(10) 0.2294(10)
O9 O 0.1697(11) 0.4675(15) 0.1725(12)
O10 O -0.045(2) 0.339(2) 0.391(2)
O11 O -0.1185(14) 0.3837(14) 0.4031(14)
Zn2K Zn 0.05762(4) 0.36592(4) -0.07483(4)
Zn2F Zn 0.13408(4) 0.57483(4) 0.05762(4)
Zn2W Zn -0.05762(4) 0.63408(4) 0.07483(4)
Zn2R Zn -0.13408(4) 0.42517(4) -0.05762(4)
Zn2L Zn 0.07483(4) 0.55762(4) -0.13408(4)
Ni1U Ni -0.25000 0.75000 0.25000
Ni1R Ni -0.25000 0.25000 -0.25000
P1K P -0.04245(9) 0.36373(9) 0.02232(8)
P1F P 0.13627(9) 0.47768(9) -0.04245(8)
P1R P -0.13627(9) 0.52232(9) 0.04245(8)
P1L P -0.02232(9) 0.45755(9) -0.13627(8)
P1W P 0.04245(9) 0.63627(9) -0.02232(8)
N1K N 0.0215(3) 0.2846(3) -0.0419(3)
N1F N 0.2154(3) 0.5419(3) 0.0215(3)
N1W N -0.0215(3) 0.7154(3) 0.0419(3)
N1R N -0.2154(3) 0.4581(3) -0.0215(3)
N1L N 0.0419(3) 0.5215(3) -0.2154(3)
N2R N -0.25000 0.2500(3) -0.15540
N2C N -0.25000 0.1554(3) 0.25000
N3V N -0.25000 0.65650 0.2500(3)
N3D N -0.25000 0.25000 0.3435(3)
C1K C 0.0710(4) 0.2422(4) -0.0398(4)
C1F C 0.2578(4) 0.5398(4) 0.0710(4)
C1W C -0.0710(4) 0.7578(4) 0.0398(4)
C1R C -0.2578(4) 0.4602(4) -0.0710(4)
C1L C 0.0398(4) 0.5710(4) -0.2578(4)
H1K H 0.05590 0.20240 -0.04560
H1F H 0.29760 0.54560 0.05590
H1W H -0.05590 0.79760 0.04560
H1R H -0.29760 0.45440 -0.05590
H1L H 0.04560 0.55590 -0.29760
H2K H 0.08940 0.24380 -0.00100
H2F H 0.25620 0.50100 0.08940
H2W H -0.08940 0.75620 0.00100
H2R H -0.25620 0.49900 -0.08940
H2L H 0.00100 0.58940 -0.25620
C2K C 0.1176(3) 0.2555(4) -0.0871(4)
C2F C 0.2445(3) 0.5871(4) 0.1176(4)
C2W C -0.1176(3) 0.7445(4) 0.0871(4)
C2R C -0.2445(3) 0.4129(4) -0.1176(4)
C2L C 0.0871(3) 0.6176(4) -0.2445(4)
C3K C -0.0070(3) 0.2926(3) 0.0172(3)
C3F C 0.2074(3) 0.4828(3) -0.0070(3)
C3R C -0.2074(3) 0.5172(3) 0.0070(3)
C3L C -0.0172(3) 0.4930(3) -0.2074(3)
C3W C 0.0070(3) 0.7074(3) -0.0172(3)
H3W H -0.02280 0.71070 -0.04800
H3L H -0.04800 0.52280 -0.21070
H3R H -0.21070 0.54800 -0.02280
H3F H 0.21070 0.45200 0.02280
H3K H 0.02280 0.28930 0.04800
H4W H 0.03610 0.73830 -0.02340
H4L H -0.02340 0.46390 -0.23830
H4R H -0.23830 0.52340 0.03610
H4F H 0.23830 0.47660 -0.03610
H4K H -0.03610 0.26170 0.02340
C4K C -0.0226(4) 0.2644(4) -0.0856(4)
C4F C 0.2356(4) 0.5856(4) -0.0226(4)
C4R C -0.2356(4) 0.4144(4) 0.0226(4)
C4L C 0.0856(4) 0.4774(4) -0.2356(4)
C4W C 0.0226(4) 0.7356(4) 0.0856(4)
H5K H -0.03990 0.22790 -0.07240
H5F H 0.27210 0.57240 -0.03990
H5R H -0.27210 0.42760 0.03990
H5L H 0.07240 0.46010 -0.27210
H5W H 0.03990 0.77210 0.07240
H6K H -0.00360 0.25830 -0.12310
H6F H 0.24170 0.62310 -0.00360
H6R H -0.24170 0.37690 0.00360
H6L H 0.12310 0.49640 -0.24170
H6W H 0.00360 0.74170 0.12310
H7K H -0.05300 0.29390 -0.08970
H7F H 0.20610 0.58970 -0.05300
H7R H -0.20610 0.41030 0.05300
H7L H 0.08970 0.44700 -0.20610
H7W H 0.05300 0.70610 0.08970
C5D C -0.2704(3) 0.3758(3) 0.2041(3)
C5T C -0.2041(3) 0.2296(3) -0.1242(3)
C5R C -0.2959(3) 0.2704(3) -0.1242(3)
H8D H -0.28530 0.35530 0.17170
H8T H -0.17170 0.21470 -0.14470
H8R H -0.32830 0.28530 -0.14470
C6D C -0.2704(4) 0.4360(3) 0.2024(3)
C6T C -0.2024(4) 0.2296(3) -0.0640(3)
C6R C -0.2976(4) 0.2704(3) -0.0640(3)
H9D H -0.28420 0.45570 0.16890
H9T H -0.16890 0.21580 -0.04430
H9R H -0.33110 0.28420 -0.04430
C7R C -0.25000 0.2500(4) -0.03230
C8R C -0.25000 0.25000 0.0332(4)
C9T C -0.2023(3) 0.2716(3) 0.0653(3)
C9R C -0.2977(3) 0.2284(3) 0.0653(3)
C9D C -0.2284(3) 0.5653(3) 0.2023(3)
H10T H -0.16920 0.28620 0.04560
H10R H -0.33080 0.21380 0.04560
H10D H -0.21380 0.54560 0.16920
C10V C -0.2715(3) 0.6257(3) 0.2963(3)
C10C C -0.2963(3) 0.2285(3) 0.1257(3)
C10W C -0.2285(3) 0.6257(3) 0.2037(3)
H11C H -0.32850 0.21320 0.14630
H11W H -0.21320 0.64630 0.17150
H11V H -0.28680 0.64630 0.32850
O1K O 0.1149(2) 0.3037(2) -0.1127(2)
O1F O 0.1963(2) 0.6127(2) 0.1149(2)
O1W O -0.1149(2) 0.6963(2) 0.1127(2)
O1R O -0.1963(2) 0.3873(2) -0.1149(2)
O1L O 0.1127(2) 0.6149(2) -0.1963(2)
O2K O 0.1567(3) 0.2168(3) -0.0941(3)
O2F O 0.2832(3) 0.5941(3) 0.1567(3)
O2R O -0.2832(3) 0.4059(3) -0.1567(3)
O2L O 0.0941(3) 0.6567(3) -0.2832(3)
O2W O -0.1567(3) 0.7832(3) 0.0941(3)
O3K O 0.1271(2) 0.4116(2) -0.0514(2)
O3F O 0.0884(2) 0.5514(2) 0.1271(2)
O3W O -0.1271(2) 0.5884(2) 0.0514(2)
O3R O -0.0884(2) 0.4486(2) -0.1271(2)
O3L O 0.0514(2) 0.6271(2) -0.0884(2)
O4W O -0.0115(2) 0.5998(2) 0.1390(2)
O4F O 0.0998(2) 0.6390(2) 0.0115(2)
O4R O -0.0998(2) 0.3610(2) -0.0115(2)
O4L O 0.1390(2) 0.5115(2) -0.0998(2)
O4K O 0.0115(2) 0.4002(2) -0.1390(2)
O5F O 0.0935(2) 0.5051(2) 0.0027(2)
O5R O -0.0935(2) 0.4949(2) -0.0027(2)
O5K O 0.0027(2) 0.4065(2) -0.0051(2)
O5W O -0.0027(2) 0.5935(2) 0.0051(2)
O5L O 0.0051(2) 0.5027(2) -0.0935(2)
O7C O -0.3412(3) 0.25000 0.25000
#END
