
#######################################################################
#
#                 Cambridge Crystallographic Data Centre
#                                CCDC
#
#######################################################################
#
# If this CIF has been generated from an entry in the Cambridge
# Structural Database, then it will include bibliographic, chemical,
# crystal, experimental, refinement or atomic coordinate data resulting
# from the CCDC's data processing and validation procedures.
#
#######################################################################

data_CSD_CIF_NAKJUF
_audit_creation_date 2005-07-19
_audit_creation_method CSD-ConQuest-V1
_database_code_CSD NAKJUF
_database_code_depnum_ccdc_archive 'CCDC 227954'
_chemical_formula_sum 'C60 H66 N2 O8 S2 Sn2'
_chemical_formula_moiety
;
(C6 H16 N1 1+)2n,n(C48 H34 O8 S2 Sn2 2-)
;
_journal_coden_Cambridge 1389
_journal_volume 14
_journal_year 2004
_journal_page_first 161
_journal_name_full 'J.Inorg.Organomet.Polym. '
loop_
_publ_author_name
"Chunlin Ma"
"Jiafeng Sun"
"Linlin Qiu"
"Jichun Cui"
_chemical_name_systematic
;
catena-[bis(Triethylammonium) 
bis(\m~2~-thiophene-2,5-dicarboxylato)-hexaphenyl-di-tin]
;
_chemical_melting_point 473.15
_cell_volume   2922.426
_exptl_crystal_density_diffrn 1.414
_exptl_special_details
;
Melts above 473.15K

;
_exptl_crystal_preparation 'methanol'
_diffrn_ambient_temperature 293
#These two values have been output from a single CSD field.
_refine_ls_R_factor_gt 0.0404
_refine_ls_wR_factor_gt 0.0404
loop_
_citation_database_id_CSD
_citation_special_details
NAKJUF01 "is a reinterpretation of this cif"
_symmetry_cell_setting triclinic
_symmetry_space_group_name_H-M 'P 1'
_symmetry_Int_Tables_number 1
loop_
_symmetry_equiv_pos_site_id
_symmetry_equiv_pos_as_xyz
1 x,y,z
_cell_length_a 9.66(2)
_cell_length_b 18.35(4)
_cell_length_c 18.76(5)
_cell_angle_alpha 61.50(4)
_cell_angle_beta 90.00(4)
_cell_angle_gamma 89.89(4)
_cell_formula_units_Z 2
loop_
_atom_type_symbol
_atom_type_radius_bond
C 0.68
H 0.23
N 0.68
O 0.68
S 1.02
Sn 1.46
loop_
_atom_site_label
_atom_site_type_symbol
_atom_site_fract_x
_atom_site_fract_y
_atom_site_fract_z
Sn1 Sn 0.29267(5) 0.73029(4) 0.50366(4)
Sn2 Sn 0.78364(6) 0.77020(4) -0.00420(4)
Sn3 Sn 0.70692(6) 0.27017(4) 0.49598(4)
Sn4 Sn 1.19816(5) 0.23025(4) 1.00364(4)
N1 N 0.1065(9) 0.8419(5) 0.1998(5)
H1 H 0.03380 0.85430 0.16500
N2 N 0.8605(12) 0.4333(6) 0.0914(6)
H2 H 0.85060 0.48720 0.05270
N3 N 0.3831(9) 0.3420(6) 0.6997(5)
H3 H 0.45530 0.35530 0.66460
N4 N 0.6264(12) 0.9320(6) 0.5941(6)
H4 H 0.63660 0.98540 0.55440
O1 O 0.3993(6) 0.7823(4) 0.3817(4)
O2 O 0.5100(7) 0.8770(5) 0.4014(5)
O3 O 0.6870(6) 0.8093(4) 0.0814(4)
O4 O 0.8909(6) 0.8566(4) 0.0985(4)
O5 O 0.1836(6) 0.6731(4) 0.6194(4)
O6 O 0.2214(8) 0.7834(5) 0.6365(4)
O7 O -0.1304(6) 0.7279(4) 0.9116(4)
O8 O -0.1796(7) 0.5925(4) 0.9779(4)
O9 O 0.8049(6) 0.3102(5) 0.5808(4)
O10 O 0.6004(7) 0.3574(4) 0.5987(4)
O11 O 1.0930(6) 0.2816(4) 0.8811(4)
O12 O 0.9791(7) 0.3780(5) 0.9001(4)
O13 O 0.6212(7) 0.2275(4) 0.4117(4)
O14 O 0.6697(7) 0.0938(4) 0.4776(4)
O15 O 0.3070(6) 0.1721(4) 0.1206(4)
O16 O 0.2678(8) 0.2822(5) 0.1385(4)
S1 S 0.5744(2) 0.80020(15) 0.24236(16)
S2 S 0.0298(3) 0.73101(15) 0.77842(15)
S3 S 0.9158(2) 0.29985(16) 0.74252(16)
S4 S 0.4615(3) 0.23077(15) 0.27896(15)
C1 C 0.4893(10) 0.8389(6) 0.3632(6)
C2 C 0.5742(8) 0.8600(5) 0.2906(5)
C3 C 0.6661(9) 0.9238(6) 0.2546(6)
H5 H 0.68040 0.96320 0.27170
C4 C 0.7381(9) 0.9238(6) 0.1878(6)
H6 H 0.80370 0.96310 0.15660
C5 C 0.6997(8) 0.8603(6) 0.1756(5)
C6 C 0.7646(10) 0.8419(6) 0.1142(6)
C7 C 0.1680(9) 0.7138(6) 0.6596(6)
C8 C 0.0824(10) 0.6745(6) 0.7342(6)
C9 C 0.0369(9) 0.5930(6) 0.7779(6)
H7 H 0.05630 0.55240 0.76310
C10 C -0.0412(10) 0.5779(6) 0.8469(6)
H8 H -0.07910 0.52670 0.88230
C11 C -0.0549(9) 0.6467(5) 0.8558(5)
C12 C -0.1276(10) 0.6550(6) 0.9194(6)
C13 C 0.4925(10) 0.6960(6) 0.5616(6)
C14 C 0.5156(12) 0.6855(6) 0.6376(7)
H9 H 0.44620 0.69580 0.66600
C15 C 0.6478(17) 0.6585(7) 0.6719(9)
H10 H 0.66450 0.65120 0.72370
C16 C 0.7491(17) 0.6430(9) 0.6337(12)
H11 H 0.83540 0.62620 0.65820
C17 C 0.7273(12) 0.6516(8) 0.5604(11)
H12 H 0.79860 0.63980 0.53420
C18 C 0.5966(10) 0.6784(7) 0.5210(8)
H13 H 0.58150 0.68390 0.46970
C19 C 0.2117(8) 0.6324(5) 0.4850(6)
C20 C 0.0908(9) 0.5913(6) 0.5212(6)
H14 H 0.04500 0.60550 0.55640
C21 C 0.0348(11) 0.5295(6) 0.5072(7)
H15 H -0.04600 0.50200 0.53290
C22 C 0.1057(12) 0.5098(7) 0.4519(8)
H16 H 0.06830 0.47080 0.43920
C23 C 0.2241(12) 0.5464(7) 0.4184(8)
H17 H 0.27260 0.52920 0.38630
C24 C 0.2771(11) 0.6100(7) 0.4306(7)
H18 H 0.35610 0.63810 0.40270
C25 C 0.1528(9) 0.8333(6) 0.4546(6)
C26 C 0.1924(10) 0.9164(6) 0.4126(6)
H19 H 0.28550 0.93070 0.40780
C27 C 0.0909(13) 0.9776(8) 0.3780(7)
H20 H 0.11690 1.03310 0.35100
C28 C -0.0457(13) 0.9574(8) 0.3831(8)
H21 H -0.11130 0.99930 0.35850
C29 C -0.0885(11) 0.8768(8) 0.4237(7)
H22 H -0.18200 0.86340 0.42740
C30 C 0.0115(9) 0.8157(7) 0.4590(7)
H23 H -0.01660 0.76060 0.48680
C31 C 0.9081(10) 0.6818(6) 0.0929(6)
C32 C 0.8592(12) 0.6392(7) 0.1713(6)
H24 H 0.76960 0.64870 0.18310
C33 C 0.9433(15) 0.5822(8) 0.2325(8)
H25 H 0.90990 0.55230 0.28520
C34 C 1.0788(17) 0.5702(9) 0.2141(10)
H26 H 1.13520 0.53220 0.25530
C35 C 1.1290(13) 0.6112(9) 0.1401(10)
H27 H 1.21970 0.60280 0.12900
C36 C 1.0418(12) 0.6683(8) 0.0781(8)
H28 H 1.07640 0.69750 0.02560
C37 C 0.8565(9) 0.8924(6) -0.0898(6)
C38 C 0.9474(11) 0.9045(7) -0.1509(7)
H29 H 0.97830 0.85840 -0.15460
C39 C 0.9949(13) 0.9812(9) -0.2067(8)
H30 H 1.05530 0.98670 -0.24750
C40 C 0.9518(16) 1.0496(10) -0.2013(10)
H31 H 0.98400 1.10200 -0.23800
C41 C 0.8586(15) 1.0401(9) -0.1397(10)
H32 H 0.82840 1.08600 -0.13540
C42 C 0.8122(12) 0.9608(7) -0.0852(7)
H33 H 0.74970 0.95440 -0.04490
C43 C 0.5789(9) 0.7477(7) -0.0284(6)
C44 C 0.4853(14) 0.8073(9) -0.0604(10)
H34 H 0.50750 0.85910 -0.06610
C45 C 0.3501(17) 0.7963(17) -0.0871(11)
H35 H 0.29020 0.84110 -0.11320
C46 C 0.314(2) 0.724(2) -0.0743(15)
H36 H 0.22580 0.71560 -0.08830
C47 C 0.400(2) 0.6640(19) -0.042(2)
H37 H 0.37420 0.61250 -0.03580
C48 C 0.5295(16) 0.6725(11) -0.0168(15)
H38 H 0.58580 0.62590 0.00910
C49 C 0.7244(11) 0.3391(7) 0.6151(6)
C50 C 0.7906(8) 0.3596(6) 0.6747(5)
C51 C 0.7529(9) 0.4236(6) 0.6877(6)
H39 H 0.68680 0.46310 0.65680
C52 C 0.8248(9) 0.4239(5) 0.7534(6)
H40 H 0.81200 0.46460 0.76890
C53 C 0.9141(8) 0.3595(5) 0.7920(5)
C54 C 1.0014(10) 0.3389(6) 0.8629(6)
C55 C 0.6177(10) 0.1559(7) 0.4205(6)
C56 C 0.5428(9) 0.1471(5) 0.3551(5)
C57 C 0.5313(9) 0.0783(6) 0.3456(6)
H41 H 0.57160 0.02740 0.38000
C58 C 0.4519(9) 0.0936(5) 0.2779(6)
H42 H 0.43020 0.05330 0.26320
C59 C 0.410(1) 0.1727(6) 0.2363(6)
C60 C 0.3216(10) 0.2161(6) 0.1582(5)
C61 C 0.6334(10) 0.3908(6) 0.4116(6)
C62 C 0.5419(11) 0.4039(7) 0.3505(7)
H43 H 0.50770 0.35800 0.34750
C63 C 0.4973(13) 0.4833(9) 0.2921(9)
H44 H 0.43950 0.48980 0.24980
C64 C 0.5410(16) 0.5511(9) 0.2987(10)
H45 H 0.50870 0.60360 0.26220
C65 C 0.6294(13) 0.5422(8) 0.3571(10)
H46 H 0.66090 0.58820 0.36060
C66 C 0.6746(7) 0.4612(5) 0.4137(4)
H47 H 0.73550 0.45560 0.45440
C67 C 0.9138(7) 0.2464(5) 0.4738(4)
C68 C 0.9997(7) 0.3151(5) 0.4362(4)
H48 H 0.97010 0.36630 0.42930
C69 C 1.1321(15) 0.3095(12) 0.4109(11)
H49 H 1.19120 0.35490 0.39060
C70 C 1.1728(15) 0.2382(11) 0.4161(10)
H50 H 1.25750 0.23530 0.39390
C71 C 1.0933(19) 0.1692(13) 0.4532(13)
H51 H 1.12330 0.12020 0.45510
C72 C 0.9607(16) 0.171(1) 0.4902(12)
H52 H 0.91200 0.12280 0.52310
C73 C 0.5822(10) 0.1823(7) 0.5923(6)
C74 C 0.4471(11) 0.1658(7) 0.5797(8)
H53 H 0.41290 0.19340 0.52700
C75 C 0.3613(13) 0.1126(9) 0.6384(9)
H54 H 0.27070 0.10520 0.62630
C76 C 0.4095(15) 0.0713(9) 0.7136(11)
H55 H 0.35190 0.03460 0.75480
C77 C 0.5436(14) 0.0818(7) 0.7313(7)
H56 H 0.57710 0.05080 0.78390
C78 C 0.6305(11) 0.1395(7) 0.6703(7)
H57 H 0.71980 0.14850 0.68290
C79 C 1.2792(8) 0.1336(5) 0.9826(6)
C80 C 1.2129(11) 0.1087(6) 0.9321(7)
H58 H 1.13050 0.13450 0.90700
C81 C 1.2648(12) 0.0482(7) 0.9183(7)
H59 H 1.21810 0.03340 0.88370
C82 C 1.3849(13) 0.0085(7) 0.9544(7)
H60 H 1.41940 -0.03370 0.94520
C83 C 1.4544(11) 0.0315(6) 1.0043(8)
H61 H 1.53890 0.00660 1.02650
C84 C 1.4010(9) 0.0913(6) 1.0224(6)
H62 H 1.44480 0.10300 1.05990
C85 C 0.9996(10) 0.1977(6) 1.0615(6)
C86 C 0.8935(10) 0.1776(7) 1.0239(7)
H63 H 0.91250 0.18150 0.97360
C87 C 0.7669(13) 0.1532(8) 1.0539(10)
H64 H 0.69990 0.14320 1.02410
C88 C 0.7387(14) 0.1438(8) 1.1253(12)
H65 H 0.65010 0.12750 1.14620
C89 C 0.8386(17) 0.1576(7) 1.1720(9)
H66 H 0.81870 0.14960 1.22370
C90 C 0.9754(12) 0.1851(7) 1.1355(8)
H67 H 1.04540 0.19360 1.16470
C91 C 1.3365(9) 0.3337(5) 0.9550(5)
C92 C 1.2978(10) 0.4169(6) 0.9133(6)
H68 H 1.20490 0.43170 0.90910
C93 C 1.3984(13) 0.4776(7) 0.8781(8)
H69 H 1.37090 0.53280 0.85110
C94 C 1.5348(12) 0.4596(8) 0.8814(8)
H70 H 1.59960 0.50170 0.85650
C95 C 1.5772(11) 0.3761(8) 0.9233(8)
H71 H 1.67040 0.36220 0.92600
C96 C 1.4773(9) 0.3144(7) 0.9607(7)
H72 H 1.50510 0.25930 0.99000
C97 C 0.1991(13) 0.7818(8) 0.1931(8)
H73 H 0.14990 0.72990 0.21130
H74 H 0.27740 0.77140 0.22910
C98 C 0.2536(15) 0.810(1) 0.1070(9)
H75 H 0.31390 0.76820 0.10730
H76 H 0.30380 0.86090 0.08860
H77 H 0.17700 0.81850 0.07110
C99 C 0.198(2) 0.9163(11) 0.1745(15)
H78 H 0.27460 0.90330 0.21200
H79 H 0.23490 0.93410 0.12060
C100 C 0.1140(19) 0.9789(11) 0.1751(12)
H80 H 0.16650 1.02920 0.15590
H81 H 0.08310 0.96190 0.22950
H82 H 0.03530 0.98840 0.14050
C101 C 0.0559(13) 0.8059(8) 0.2858(7)
H83 H 0.00650 0.84880 0.29160
H84 H 0.13570 0.79020 0.32150
C102 C -0.0374(11) 0.7314(7) 0.3137(7)
H85 H -0.06350 0.71250 0.36920
H86 H 0.01070 0.68790 0.30940
H87 H -0.11900 0.74650 0.28040
C103 C 0.7430(16) 0.3895(10) 0.0812(11)
H88 H 0.75050 0.33140 0.12130
H89 H 0.75010 0.39270 0.02820
C104 C 0.6020(15) 0.4197(9) 0.0885(9)
H90 H 0.53270 0.38570 0.08220
H91 H 0.59040 0.47610 0.04700
H92 H 0.59260 0.41650 0.14080
C105 C 0.9946(16) 0.4051(8) 0.0741(8)
H93 H 0.98690 0.40400 0.02300
H94 H 1.01280 0.34900 0.11620
C106 C 1.1148(15) 0.4591(9) 0.0692(10)
H95 H 1.19780 0.43820 0.05730
H96 H 1.12540 0.45900 0.12020
H97 H 1.09820 0.51480 0.02710
C107 C 0.859(2) 0.4338(12) 0.1699(11)
H98 H 0.77370 0.45980 0.17360
H99 H 0.93500 0.46800 0.17050
C108 C 0.871(2) 0.3478(15) 0.2459(11)
H100 H 0.86750 0.35420 0.29380
H101 H 0.95700 0.32240 0.24450
H102 H 0.79550 0.31350 0.24670
C109 C 0.2917(13) 0.2813(9) 0.6924(9)
H103 H 0.21360 0.26980 0.72870
H104 H 0.34240 0.22990 0.71000
C110 C 0.2372(16) 0.3096(10) 0.6071(8)
H105 H 0.17860 0.26740 0.60710
H106 H 0.31360 0.31940 0.57100
H107 H 0.18500 0.35990 0.58950
C111 C 0.4365(13) 0.3051(8) 0.7859(6)
H108 H 0.35780 0.28990 0.82230
H109 H 0.48760 0.34750 0.79160
C112 C 0.5289(11) 0.2298(6) 0.8126(7)
H110 H 0.55840 0.21090 0.86750
H111 H 0.60840 0.24420 0.77780
H112 H 0.47840 0.18640 0.80940
C113 C 0.2890(18) 0.417(1) 0.6747(13)
H113 H 0.24700 0.43250 0.62240
H114 H 0.21590 0.40440 0.71430
C114 C 0.374(2) 0.4833(13) 0.6701(14)
H115 H 0.31780 0.53210 0.65320
H116 H 0.44640 0.49440 0.63150
H117 H 0.41290 0.46770 0.72240
C115 C 0.4929(15) 0.9047(8) 0.5755(9)
H118 H 0.47480 0.84830 0.61710
H119 H 0.50190 0.90410 0.52430
C116 C 0.3702(15) 0.9580(9) 0.5703(10)
H120 H 0.28850 0.93680 0.55750
H121 H 0.38610 1.01390 0.52880
H122 H 0.35770 0.95720 0.62150
C117 C 0.7451(16) 0.8871(10) 0.5836(11)
H123 H 0.73760 0.89030 0.53070
H124 H 0.73780 0.82910 0.62380
C118 C 0.8896(15) 0.9181(9) 0.5908(10)
H125 H 0.95900 0.88570 0.58210
H126 H 0.90080 0.91260 0.64400
H127 H 0.89920 0.97520 0.55090
C119 C 0.6358(19) 0.9361(11) 0.6694(9)
H128 H 0.56200 0.97130 0.67080
H129 H 0.72320 0.96140 0.67060
C120 C 0.626(2) 0.8513(13) 0.7448(13)
H130 H 0.63510 0.85770 0.79250
H131 H 0.69790 0.81590 0.74380
H132 H 0.53720 0.82710 0.74560
Sn2* Sn -0.21636(6) 0.77020(4) 0.99580(4)
Sn4* Sn 0.19816(5) 0.23025(4) 0.00364(4)
O7* O 0.8696(6) 0.7279(4) -0.0884(4)
O15* O 1.3070(6) 0.1721(4) 1.1206(4)
#END
