
#######################################################################
#
#                 Cambridge Crystallographic Data Centre
#                                CCDC
#
#######################################################################
#
# If this CIF has been generated from an entry in the Cambridge
# Structural Database, then it will include bibliographic, chemical,
# crystal, experimental, refinement or atomic coordinate data resulting
# from the CCDC's data processing and validation procedures.
#
#######################################################################

data_CSD_CIF_NAKJUF01
_audit_creation_date 2006-02-13
_audit_creation_method CSD-ConQuest-V1
_database_code_CSD NAKJUF01
_database_code_depnum_ccdc_archive 'CCDC 294014'
_chemical_formula_sum 'C60 H66 N2 O8 S2 Sn2'
_chemical_formula_moiety
;
(C6 H16 N1 1+)2n,n(C48 H34 O8 S2 Sn2 2-)
;
_journal_coeditor_code "IUCr TK6281"
_journal_coden_Cambridge 1370
_journal_volume 61
_journal_year 2005
_journal_page_first m2512
_journal_name_full 'Acta Crystallogr.,Sect.E:Struct.Rep.Online '
loop_
_publ_author_name
"S.W.Ng"
_chemical_name_systematic
;
catena-(bis(Triethylammonium) 
bis(\m~2~-thiophene-2,5-dicarboxylato)-hexaphenyl-di-tin(iv))
;
_cell_volume   2923.067
_exptl_crystal_colour 'colorless'
_exptl_crystal_density_diffrn 1.414
_exptl_crystal_description 'block'
_diffrn_ambient_temperature 295
_refine_special_details
;
There was some disorder of the cations, which was not resolved.

;
#These two values have been output from a single CSD field.
_refine_ls_R_factor_gt 0.041
_refine_ls_wR_factor_gt 0.041
loop_
_citation_database_id_CSD
_citation_special_details
NAKJUF "is reinterpreted by this entry"
_symmetry_cell_setting monoclinic
_symmetry_space_group_name_H-M 'P c'
_symmetry_Int_Tables_number 7
loop_
_symmetry_equiv_pos_site_id
_symmetry_equiv_pos_as_xyz
1 x,y,z
2 x,-y,1/2+z
_cell_length_a 18.354(4)
_cell_length_b 9.658(2)
_cell_length_c 18.982(3)
_cell_angle_alpha 90
_cell_angle_beta 119.69(2)
_cell_angle_gamma 90
_cell_formula_units_Z 2
loop_
_atom_type_symbol
_atom_type_radius_bond
C 0.68
H 0.23
N 0.68
O 0.68
S 1.02
Sn 1.46
loop_
_atom_site_label
_atom_site_type_symbol
_atom_site_fract_x
_atom_site_fract_y
_atom_site_fract_z
Sn1 Sn 0.50000(3) 0.54737(5) 0.50000(2)
Sn2 Sn 0.96781(3) 1.03827(5) 1.00773(3)
S1 S 0.69143(13) 0.8292(2) 0.76148(14)
S2 S 0.22403(13) 0.2842(2) 0.22456(13)
O1 O 0.5712(4) 0.6532(5) 0.6230(3)
O2 O 0.4553(4) 0.7658(6) 0.6025(4)
O3 O 0.8431(4) 0.9426(5) 0.9224(4)
O4 O 0.7786(4) 1.1445(6) 0.9049(4)
O5 O 0.4413(4) 0.4385(5) 0.3827(3)
O6 O 0.3139(4) 0.4765(8) 0.3661(4)
O7 O 0.0942(4) 0.1239(6) 0.0924(4)
O8 O 0.1636(4) 0.0751(7) 0.0269(4)
N1 N 0.6925(4) 1.3621(7) 0.8031(4)
H1 H 0.71490 1.28920 0.83770
N2 N 0.2095(5) 0.1153(8) -0.0870(5)
H2 H 0.19550 0.10360 -0.04760
C1 C 0.6183(3) 0.4659(5) 0.5204(3)
C2 C 0.6203(3) 0.3442(5) 0.4823(3)
H3 H 0.57060 0.29870 0.44750
C3 C 0.6966(4) 0.2904(5) 0.4963(4)
H4 H 0.69790 0.20890 0.47080
C4 C 0.7709(3) 0.3584(7) 0.5483(4)
H5 H 0.82190 0.32240 0.55770
C5 C 0.7689(3) 0.4802(7) 0.5864(4)
H6 H 0.81860 0.52570 0.62120
C6 C 0.6926(3) 0.5339(5) 0.5724(4)
H7 H 0.69130 0.61540 0.59790
C7 C 0.4772(4) 0.7471(5) 0.4428(4)
C8 C 0.5355(4) 0.8506(6) 0.4843(3)
H8 H 0.58040 0.83340 0.53580
C9 C 0.5268(5) 0.9799(5) 0.4488(5)
H9 H 0.56580 1.04920 0.47660
C10 C 0.4597(5) 1.0057(6) 0.3718(5)
H10 H 0.45380 1.09220 0.34800
C11 C 0.4013(4) 0.9021(8) 0.3303(4)
H11 H 0.35640 0.91930 0.27880
C12 C 0.4101(4) 0.7728(7) 0.3658(4)
H12 H 0.37100 0.70350 0.33800
C13 C 0.4457(4) 0.4064(4) 0.5493(3)
C14 C 0.4046(4) 0.4474(4) 0.5908(4)
H13 H 0.39480 0.54080 0.59450
C15 C 0.3784(4) 0.3487(6) 0.6267(4)
H14 H 0.35090 0.37610 0.65440
C16 C 0.3931(4) 0.2090(6) 0.6211(4)
H15 H 0.37550 0.14300 0.64510
C17 C 0.4341(4) 0.1681(4) 0.5796(4)
H16 H 0.44400 0.07460 0.57590
C18 C 0.4604(4) 0.2668(5) 0.5437(4)
H17 H 0.48790 0.23940 0.51590
C19 C 0.9591(4) 1.1644(5) 0.9103(3)
C20 C 0.9238(4) 1.1136(5) 0.8316(3)
H18 H 0.90390 1.02310 0.82030
C21 C 0.9182(4) 1.1979(7) 0.7698(3)
H19 H 0.89460 1.16390 0.71720
C22 C 0.9480(5) 1.3331(7) 0.7866(4)
H20 H 0.94430 1.38950 0.74530
C23 C 0.9833(5) 1.3839(5) 0.8653(4)
H21 H 1.00320 1.47440 0.87660
C24 C 0.9889(4) 1.2996(6) 0.9271(3)
H22 H 1.01250 1.33360 0.97970
C25 C 1.0143(5) 0.8319(6) 1.0321(4)
C26 C 1.0814(6) 0.7891(9) 1.0229(6)
H23 H 1.10370 0.84830 0.99980
C27 C 1.1153(6) 0.6577(11) 1.0482(8)
H24 H 1.16020 0.62900 1.04210
C28 C 1.0820(7) 0.5691(7) 1.0828(7)
H25 H 1.10460 0.48110 1.09970
C29 C 1.0149(8) 0.6119(8) 1.0920(6)
H26 H 0.99260 0.55260 1.11510
C30 C 0.9811(5) 0.7433(8) 1.0667(6)
H27 H 0.93620 0.77200 1.07280
C31 C 0.9308(4) 1.1118(6) 1.0941(4)
C32 C 0.9822(4) 1.2035(7) 1.1550(4)
H28 H 1.03230 1.23330 1.15900
C33 C 0.9587(5) 1.2508(7) 1.2101(4)
H29 H 0.99300 1.31210 1.25090
C34 C 0.8838(5) 1.2063(8) 1.2041(4)
H30 H 0.86810 1.23790 1.24090
C35 C 0.8324(4) 1.1146(8) 1.1432(5)
H31 H 0.78230 1.08480 1.13920
C36 C 0.8559(4) 1.0673(6) 1.0881(4)
H32 H 0.82160 1.00590 1.04730
C37 C 0.5315(5) 0.7442(8) 0.6401(5)
C38 C 0.5834(5) 0.8292(7) 0.7127(4)
C39 C 0.5559(5) 0.9209(8) 0.7492(5)
H33 H 0.49950 0.93460 0.73240
C40 C 0.6208(6) 0.9928(8) 0.8146(5)
H34 H 0.61160 1.05880 0.84490
C41 C 0.6993(5) 0.9556(7) 0.8290(5)
C42 C 0.7787(6) 1.0203(8) 0.8887(5)
C43 C 0.3597(5) 0.4244(8) 0.3439(5)
C44 C 0.3261(5) 0.3359(8) 0.2698(5)
C45 C 0.3626(5) 0.2929(8) 0.2258(5)
H35 H 0.41760 0.31430 0.24000
C46 C 0.3097(5) 0.2136(9) 0.1575(5)
H36 H 0.32620 0.17450 0.12280
C47 C 0.2313(5) 0.2003(8) 0.1476(4)
C48 C 0.1576(6) 0.1273(8) 0.0828(5)
C49 C 0.7612(6) 1.4533(11) 0.8081(6)
H37 H 0.73680 1.53080 0.77130
H38 H 0.79550 1.40110 0.79160
C50 C 0.8164(7) 1.5073(13) 0.8946(7)
H39 H 0.85920 1.56670 0.89620
H40 H 0.84210 1.43070 0.93080
H41 H 0.78250 1.55850 0.91100
C51 C 0.6412(6) 1.3109(10) 0.7174(5)
H42 H 0.62040 1.38970 0.68100
H43 H 0.59320 1.26010 0.71210
C52 C 0.6913(8) 1.2177(10) 0.6923(6)
H44 H 0.65630 1.18850 0.63710
H45 H 0.71060 1.13810 0.72700
H46 H 0.73860 1.26790 0.69680
C53 C 0.6392(9) 1.4477(14) 0.8261(11)
H47 H 0.67480 1.49190 0.87800
H48 H 0.61160 1.52000 0.78600
C54 C 0.5743(11) 1.362(2) 0.8319(13)
H49 H 0.54280 1.41980 0.84840
H50 H 0.60130 1.28980 0.87100
H51 H 0.53710 1.32220 0.77990
C55 C 0.1301(6) 0.1138(15) -0.1647(7)
H52 H 0.09570 0.19090 -0.16570
H53 H 0.10010 0.02910 -0.16830
C56 C 0.1422(12) 0.124(2) -0.2383(7)
H54 H 0.08860 0.12090 -0.28690
H55 H 0.17580 0.04730 -0.23810
H56 H 0.16990 0.20910 -0.23640
C57 C 0.2653(7) -0.0021(10) -0.0788(9)
H57 H 0.31600 0.00360 -0.02640
H58 H 0.28130 0.00570 -0.12030
C58 C 0.2244(9) -0.1422(10) -0.0864(9)
H59 H 0.26360 -0.21430 -0.07890
H60 H 0.17580 -0.15050 -0.13930
H61 H 0.20790 -0.15020 -0.04580
C59 C 0.2552(6) 0.2494(9) -0.0694(7)
H62 H 0.26940 0.26750 -0.11140
H63 H 0.30720 0.24150 -0.01830
C60 C 0.2057(9) 0.3706(10) -0.0646(9)
H64 H 0.23850 0.45360 -0.05300
H65 H 0.19250 0.35450 -0.02230
H66 H 0.15480 0.38060 -0.11550
Sn2* Sn -0.03219(3) 0.03827(5) 0.00773(3)
O7* O 1.0942(4) 1.1239(6) 1.0924(4)
#END
