
#######################################################################
#
#                 Cambridge Crystallographic Data Centre
#                                CCDC
#
#######################################################################
#
# If this CIF has been generated from an entry in the Cambridge
# Structural Database, then it will include bibliographic, chemical,
# crystal, experimental, refinement or atomic coordinate data resulting
# from the CCDC's data processing and validation procedures.
#
#######################################################################

data_CSD_CIF_NAKNOG
_audit_creation_date 2020-11-13
_audit_creation_method CSD-ConQuest-V1
_database_code_CSD NAKNOG
_database_code_depnum_ccdc_archive 'CCDC 2034206'
_chemical_formula_sum 'C20 H22 N2 O10 U1'
_chemical_formula_moiety
;
2(C2 H8 N1 1+),n(C16 H6 O10 U1 2-)
;
_journal_coden_Cambridge 9
_journal_volume 59
_journal_year 2020
_journal_page_first 17659
_journal_name_full 'Inorg.Chem. '
loop_
_publ_author_name
"Jun-Feng Qian"
"Wen-Jiang Tian"
"Song Yang"
"Zhong-Hua Sun"
"Le Chen"
"Mei-Jun Wei"
"Zhong Wu"
"Ming-Yang He"
"Zhi-Hui Zhang"
"Lei Mei"
_chemical_name_systematic
;
catena-[bis(dimethylammonium) 
(\m-biphenyl-2,2',6,6'-tetracarboxylato)-dioxo-uranium(vi)]
;
_cell_volume   2184.163
_exptl_crystal_colour 'yellow'
_exptl_crystal_density_diffrn 2.094
_exptl_crystal_description 'block'
_diffrn_ambient_temperature 170
#These two values have been output from a single CSD field.
_refine_ls_R_factor_gt 0.0157
_refine_ls_wR_factor_gt 0.0157
_symmetry_cell_setting monoclinic
_symmetry_space_group_name_H-M 'C 2/c'
_symmetry_Int_Tables_number 15
loop_
_symmetry_equiv_pos_site_id
_symmetry_equiv_pos_as_xyz
1 x,y,z
2 -x,y,1/2-z
3 1/2+x,1/2+y,z
4 1/2-x,1/2+y,1/2-z
5 -x,-y,-z
6 x,-y,-1/2+z
7 -1/2-x,-1/2-y,-z
8 -1/2+x,-1/2-y,-1/2+z
_cell_length_a 15.5552(5)
_cell_length_b 8.2380(2)
_cell_length_c 18.2882(6)
_cell_angle_alpha 90
_cell_angle_beta 111.251(1)
_cell_angle_gamma 90
_cell_formula_units_Z 4
loop_
_atom_type_symbol
_atom_type_radius_bond
C 0.68
H 0.23
N 0.68
O 0.68
U 1.96
loop_
_atom_site_label
_atom_site_type_symbol
_atom_site_fract_x
_atom_site_fract_y
_atom_site_fract_z
U1 U 0.50000 0.86467(2) 0.25000
O1 O 0.57732(13) 0.0700(2) 0.33318(11)
O2 O 0.41816(14) 0.6687(3) 0.16549(13)
O3 O 0.71277(13) 0.1861(3) 0.39354(12)
O4 O 0.58200(14) 0.8674(2) 0.20304(13)
C1 C 0.53650(18) 0.3675(3) 0.23203(16)
O5 O 0.38679(17) 0.5256(3) 0.05597(13)
C2 C 0.63894(19) 0.1770(3) 0.33653(16)
C3 C 0.62108(19) 0.2882(3) 0.26797(16)
C4 C 0.52283(19) 0.4580(3) 0.16402(17)
C5 C 0.4356(2) 0.5547(3) 0.12380(17)
C6 C 0.5920(2) 0.4666(4) 0.13243(18)
H1 H 0.58070 0.52210 0.08430
C7 C 0.6918(2) 0.3061(4) 0.23899(19)
H2 H 0.75030 0.25780 0.26580
C8 C 0.6770(2) 0.3948(4) 0.1708(2)
H3 H 0.72500 0.40610 0.15060
N1 N 0.82286(18) 0.4332(3) 0.47607(16)
H4 H 0.77780 0.37850 0.43790
H5 H 0.80810 0.43280 0.51990
C9 C 0.9118(2) 0.3464(4) 0.4934(2)
H6 H 0.92980 0.35090 0.44730
H7 H 0.90470 0.23290 0.50620
H8 H 0.95950 0.39820 0.53800
C10 C 0.8248(3) 0.6020(5) 0.4506(3)
H9 H 0.84190 0.60380 0.40400
H10 H 0.87010 0.66380 0.49290
H11 H 0.76360 0.65070 0.43790
O1A O 0.42268(13) 0.0700(2) 0.16682(11)
O2A O 0.58184(14) 0.6687(3) 0.33451(13)
O3A O 0.28723(13) 0.1861(3) 0.10646(12)
C1A C 0.46350(18) 0.3675(3) 0.26797(16)
O5A O 0.61321(17) 0.5256(3) 0.44403(13)
C2A C 0.36106(19) 0.1770(3) 0.16347(16)
C3A C 0.37892(19) 0.2882(3) 0.23203(16)
C4A C 0.47717(19) 0.4580(3) 0.33598(17)
C5A C 0.5644(2) 0.5547(3) 0.37620(17)
C6A C 0.4080(2) 0.4666(4) 0.36757(18)
H1A H 0.41930 0.52210 0.41570
C7A C 0.3082(2) 0.3061(4) 0.26101(19)
H2A H 0.24970 0.25780 0.23420
C8A C 0.3230(2) 0.3948(4) 0.3292(2)
H3A H 0.27500 0.40610 0.34940
O4A O 0.41800(14) 0.8674(2) 0.29696(13)
U1* U 0.50000 -0.13533(2) 0.25000
O1* O 0.57732(13) 1.0700(2) 0.33318(11)
O1A* O 0.42268(13) 1.0700(2) 0.16682(11)
#END
