
#######################################################################
#
#                 Cambridge Crystallographic Data Centre
#                                CCDC
#
#######################################################################
#
# If this CIF has been generated from an entry in the Cambridge
# Structural Database, then it will include bibliographic, chemical,
# crystal, experimental, refinement or atomic coordinate data resulting
# from the CCDC's data processing and validation procedures.
#
#######################################################################

data_CSD_CIF_NAKNIA
_audit_creation_date 2020-11-13
_audit_creation_method CSD-ConQuest-V1
_database_code_CSD NAKNIA
_database_code_depnum_ccdc_archive 'CCDC 2034205'
_chemical_formula_sum 'C42 H26 N2 O24 U3'
_chemical_formula_moiety
;
C10 H10 N2 2+,n(C32 H16 O24 U3 2-)
;
_journal_coden_Cambridge 9
_journal_volume 59
_journal_year 2020
_journal_page_first 17659
_journal_name_full 'Inorg.Chem. '
loop_
_publ_author_name
"Jun-Feng Qian"
"Wen-Jiang Tian"
"Song Yang"
"Zhong-Hua Sun"
"Le Chen"
"Mei-Jun Wei"
"Zhong Wu"
"Ming-Yang He"
"Zhi-Hui Zhang"
"Lei Mei"
_chemical_name_systematic
;
catena-[(4,4'-bipyridinium) 
bis(\m-biphenyl-2,2',6,6'-tetracarboxylato)-diaqua-hexa-oxo-tri-uranium(vi)]
;
_cell_volume   1074.990
_exptl_crystal_colour 'yellow'
_exptl_crystal_density_diffrn 2.559
_exptl_crystal_description 'stick'
_diffrn_ambient_temperature 298.3
#These two values have been output from a single CSD field.
_refine_ls_R_factor_gt 0.0239
_refine_ls_wR_factor_gt 0.0239
_symmetry_cell_setting triclinic
_symmetry_space_group_name_H-M 'P -1'
_symmetry_Int_Tables_number 2
loop_
_symmetry_equiv_pos_site_id
_symmetry_equiv_pos_as_xyz
1 x,y,z
2 -x,-y,-z
_cell_length_a 9.6707(8)
_cell_length_b 10.5286(9)
_cell_length_c 11.7306(10)
_cell_angle_alpha 80.345(4)
_cell_angle_beta 82.387(4)
_cell_angle_gamma 66.253(3)
_cell_formula_units_Z 1
loop_
_atom_type_symbol
_atom_type_radius_bond
C 0.68
H 0.23
N 0.68
O 0.68
U 1.96
loop_
_atom_site_label
_atom_site_type_symbol
_atom_site_fract_x
_atom_site_fract_y
_atom_site_fract_z
U1 U 0.54944(2) 0.22311(2) 0.55605(2)
O1 O 0.7057(5) 0.1331(4) 0.7244(3)
H1 H 0.76810 0.17250 0.71850
H2 H 0.76100 0.04700 0.72170
C1 C 0.5788(5) 0.4178(5) 0.1610(4)
H3 H 0.64180 0.46230 0.17010
U2 U 0.00000 0.50000 0.00000
O2 O 0.4067(3) 0.4311(3) 0.4455(2)
O3 O 0.3910(4) 0.2096(3) 0.6432(3)
O4 O 0.4715(3) 0.1396(3) 0.4070(3)
O5 O 0.7071(4) 0.2301(3) 0.4639(3)
O6 O 0.1471(4) 0.4913(4) -0.1084(3)
O7 O 0.4674(4) 0.5992(3) 0.3382(3)
O8 O 0.0860(4) 0.6217(4) 0.1000(3)
O9 O 0.1537(4) 0.2864(3) 0.0921(3)
O10 O 0.3207(4) 0.0219(3) 0.4283(3)
O11 O 0.3434(4) 0.0838(3) 0.1340(3)
C2 C 0.4584(5) 0.4233(4) 0.2429(4)
C3 C 0.0667(5) 0.2777(5) 0.4394(4)
H4 H 0.05770 0.20190 0.48850
C4 C 0.5121(5) 0.2801(5) 0.0532(4)
H5 H 0.53170 0.22990 -0.00920
C5 C 0.6046(5) 0.3466(5) 0.0665(4)
H6 H 0.68460 0.34350 0.01190
O12 O 0.1250(5) 0.7181(4) 0.2393(4)
C6 C 0.2192(5) 0.3781(4) 0.3054(4)
C7 C 0.3891(5) 0.2877(4) 0.1328(4)
C8 C 0.3601(5) 0.3615(4) 0.2278(4)
C9 C -0.0450(5) 0.5130(5) 0.3503(4)
H7 H -0.12920 0.59670 0.34090
C10 C -0.0585(5) 0.4004(5) 0.4231(4)
H8 H -0.15170 0.40760 0.46090
C11 C 0.2076(5) 0.2655(4) 0.3829(4)
C12 C 0.4417(5) 0.4903(4) 0.3496(4)
C13 C 0.0916(5) 0.5033(4) 0.2912(4)
C14 C 0.3427(5) 0.1340(4) 0.4067(4)
C15 C 0.2907(5) 0.2118(5) 0.1185(4)
C16 C 0.1032(5) 0.6248(5) 0.2057(4)
N1 N 0.7525(6) 0.0391(6) 0.2475(4)
C17 C 0.8585(7) 0.0911(7) 0.2372(5)
H9 H 0.86600 0.13650 0.29620
C18 C 0.7373(6) -0.0258(6) 0.1653(5)
H10 H 0.66000 -0.05860 0.17360
C19 C 0.9462(5) 0.0087(4) 0.0533(4)
C20 C 0.8351(6) -0.0445(5) 0.0681(4)
H11 H 0.82670 -0.09320 0.01190
C21 C 0.9564(6) 0.0783(6) 0.1409(5)
H12 H 1.02960 0.11600 0.13370
H13 H 0.700(7) 0.041(7) 0.304(6)
U1A U -0.54944(2) 0.77689(2) -0.55605(2)
O1A O -0.7057(5) 0.8669(4) -0.7244(3)
H1A H -0.76810 0.82750 -0.71850
H2A H -0.76100 0.95300 -0.72170
C1A C -0.5788(5) 0.5822(5) -0.1610(4)
H3A H -0.64180 0.53770 -0.17010
O2A O -0.4067(3) 0.5689(3) -0.4455(2)
O3A O -0.3910(4) 0.7904(3) -0.6432(3)
O4A O -0.4715(3) 0.8604(3) -0.4070(3)
O5A O -0.7071(4) 0.7699(3) -0.4639(3)
O6A O -0.1471(4) 0.5087(4) 0.1084(3)
O7A O -0.4674(4) 0.4008(3) -0.3382(3)
O8A O -0.0860(4) 0.3783(4) -0.1000(3)
O9A O -0.1537(4) 0.7136(3) -0.0921(3)
O10A O -0.3207(4) 0.9781(3) -0.4283(3)
O11A O -0.3434(4) 0.9162(3) -0.1340(3)
C2A C -0.4584(5) 0.5767(4) -0.2429(4)
C3A C -0.0667(5) 0.7223(5) -0.4394(4)
H4A H -0.05770 0.79810 -0.48850
C4A C -0.5121(5) 0.7199(5) -0.0532(4)
H5A H -0.53170 0.77010 0.00920
C5A C -0.6046(5) 0.6534(5) -0.0665(4)
H6A H -0.68460 0.65650 -0.01190
O12A O -0.1250(5) 0.2819(4) -0.2393(4)
C6A C -0.2192(5) 0.6219(4) -0.3054(4)
C7A C -0.3891(5) 0.7123(4) -0.1328(4)
C8A C -0.3601(5) 0.6385(4) -0.2278(4)
C9A C 0.0450(5) 0.4870(5) -0.3503(4)
H7A H 0.12920 0.40330 -0.34090
C10A C 0.0585(5) 0.5996(5) -0.4231(4)
H8A H 0.15170 0.59240 -0.46090
C11A C -0.2076(5) 0.7345(4) -0.3829(4)
C12A C -0.4417(5) 0.5097(4) -0.3496(4)
C13A C -0.0916(5) 0.4967(4) -0.2912(4)
C14A C -0.3427(5) 0.8660(4) -0.4067(4)
C15A C -0.2907(5) 0.7882(5) -0.1185(4)
C16A C -0.1032(5) 0.3752(5) -0.2057(4)
U1* U -0.45056(2) 0.22311(2) -0.44395(2)
U1** U -0.45056(2) 1.22311(2) -0.44395(2)
U1A* U 0.45056(2) -0.22311(2) 0.44395(2)
U1A** U 0.45056(2) 0.77689(2) 0.44395(2)
O7* O -0.5326(4) 0.5992(3) -0.6618(3)
O7A* O 0.5326(4) 0.4008(3) 0.6618(3)
O10* O -0.6793(4) 1.0219(3) -0.5717(3)
O10A* O 0.6793(4) -0.0219(3) 0.5717(3)
N1A N 1.2475(6) -0.0391(6) -0.2475(4)
C17A C 1.1415(7) -0.0911(7) -0.2372(5)
H9A H 1.13400 -0.13650 -0.29620
C18A C 1.2627(6) 0.0258(6) -0.1653(5)
H10A H 1.34000 0.05860 -0.17360
C19A C 1.0538(5) -0.0087(4) -0.0533(4)
C20A C 1.1649(6) 0.0445(5) -0.0681(4)
H11A H 1.17330 0.09320 -0.01190
C21A C 1.0436(6) -0.0783(6) -0.1409(5)
H12A H 0.97040 -0.11600 -0.13370
H13A H 1.300(7) -0.041(7) -0.304(6)
#END
