
#######################################################################
#
#                 Cambridge Crystallographic Data Centre
#                                CCDC
#
#######################################################################
#
# If this CIF has been generated from an entry in the Cambridge
# Structural Database, then it will include bibliographic, chemical,
# crystal, experimental, refinement or atomic coordinate data resulting
# from the CCDC's data processing and validation procedures.
#
#######################################################################

data_CSD_CIF_NALDUC
_audit_creation_date 2016-02-09
_audit_creation_method CSD-ConQuest-V1
_database_code_CSD NALDUC
_database_code_depnum_ccdc_archive 'CCDC 1442463'
_chemical_formula_sum 'C40 H72 Ag5 N8 O8 S16 Tb1 W4'
_chemical_formula_moiety
;
C40 H72 N8 O8 Tb1 3+,n(Ag5 S16 W4 3-)
;
_journal_coden_Cambridge 580
_journal_volume 109
_journal_year 2016
_journal_page_first 67
_journal_name_full 'Polyhedron '
loop_
_publ_author_name
"Jinfang Zhang"
"Yuhang Liu"
"Linpei Gong"
"Guozhi Xu"
"Chi Zhang"
_chemical_name_systematic
;
catena-[octakis(1-methylpyrrolidin-2-one)-terbium 
tetradecakis(\m-sulfido)-bis(sulfido)-penta-silver-tetra-tungsten]
;
_cell_volume   3696.730
_exptl_crystal_colour 'orange'
_exptl_crystal_density_diffrn 2.461
_exptl_crystal_description 'block'
_diffrn_ambient_temperature 150
#These two values have been output from a single CSD field.
_refine_ls_R_factor_gt 0.0253
_refine_ls_wR_factor_gt 0.0253
_symmetry_cell_setting monoclinic
_symmetry_space_group_name_H-M 'C 2'
_symmetry_Int_Tables_number 5
loop_
_symmetry_equiv_pos_site_id
_symmetry_equiv_pos_as_xyz
1 x,y,z
2 -x,y,-z
3 1/2+x,1/2+y,z
4 1/2-x,1/2+y,-z
_cell_length_a 20.6451(12)
_cell_length_b 16.3174(9)
_cell_length_c 12.8626(7)
_cell_angle_alpha 90
_cell_angle_beta 121.445(1)
_cell_angle_gamma 90
_cell_formula_units_Z 2
loop_
_atom_type_symbol
_atom_type_radius_bond
C 0.68
H 0.23
Ag 1.45
N 0.68
O 0.68
S 1.02
Tb 1.94
W 1.62
loop_
_atom_site_label
_atom_site_type_symbol
_atom_site_fract_x
_atom_site_fract_y
_atom_site_fract_z
Tb1 Tb 2.00000 0.99753(2) 2.00000
O1 O 1.8812(2) 1.0626(3) 1.9182(4)
O2 O 1.9099(2) 0.9267(3) 1.8105(4)
O3 O 2.0608(2) 0.9012(3) 1.9475(4)
O4 O 1.9893(2) 1.0871(3) 1.8490(4)
N1 N 1.8154(3) 1.1759(3) 1.8203(5)
N2 N 1.8740(4) 0.8315(4) 1.6619(5)
N3 N 2.1168(3) 0.7773(3) 1.9698(5)
N4 N 2.0514(3) 1.1415(4) 1.7608(5)
C1 C 1.8301(3) 1.0968(4) 1.8253(5)
C2 C 1.7757(3) 1.0570(4) 1.7041(5)
H1 H 1.74960 1.01120 1.71440
H2 H 1.80220 1.03770 1.66490
C3 C 1.7204(4) 1.1248(4) 1.6304(6)
H3 H 1.67050 1.11260 1.61650
H4 H 1.71620 1.13020 1.55200
C4 C 1.7508(4) 1.2040(4) 1.7031(6)
H5 H 1.76730 1.24180 1.66320
H6 H 1.71270 1.23050 1.71400
C5 C 1.8596(4) 1.2339(4) 1.9179(7)
H7 H 1.90570 1.20820 1.97930
H8 H 1.83070 1.25110 1.95310
H9 H 1.87160 1.28070 1.88580
C6 C 1.9094(4) 0.8976(5) 1.7217(6)
C7 C 1.9507(5) 0.9344(6) 1.6629(7)
H10 H 1.92690 0.98510 1.62110
H11 H 2.00360 0.94500 1.72350
C8 C 1.9438(6) 0.8691(7) 1.5728(8)
H12 H 1.93050 0.89360 1.49540
H13 H 1.99110 0.83920 1.60460
C9 C 1.8809(5) 0.8127(6) 1.5582(7)
H14 H 1.83370 0.82380 1.48240
H15 H 1.89450 0.75570 1.55930
C10 C 1.8243(5) 0.7863(6) 1.6854(8)
H16 H 1.82260 0.81130 1.75150
H17 H 1.84250 0.73110 1.70690
H18 H 1.77430 0.78600 1.61380
C11 C 2.1187(3) 0.8569(4) 1.9877(5)
C12 C 2.1984(3) 0.8866(4) 2.0565(8)
H19 H 2.20850 0.91700 2.12820
H20 H 2.20870 0.92160 2.00590
C13 C 2.2473(4) 0.8079(5) 2.0928(9)
H21 H 2.28770 0.81350 2.07580
H22 H 2.26960 0.79600 2.17870
C14 C 2.1920(4) 0.7412(5) 2.0146(7)
H23 H 2.19850 0.72690 1.94740
H24 H 2.19900 0.69240 2.06250
C15 C 2.0468(5) 0.7316(5) 1.8987(8)
H25 H 2.00590 0.76080 1.89700
H26 H 2.05200 0.67870 1.93500
H27 H 2.03610 0.72490 1.81710
C16 C 1.9948(4) 1.1375(4) 1.7817(6)
C17 C 1.9384(4) 1.2056(4) 1.7088(6)
H28 H 1.88710 1.18430 1.66230
H29 H 1.94020 1.24860 1.76240
C18 C 1.9633(4) 1.2373(5) 1.6261(7)
H30 H 1.96100 1.29670 1.62230
H31 H 1.93150 1.21560 1.54440
C19 C 2.0453(4) 1.2074(5) 1.6832(7)
H32 H 2.05500 1.18850 1.62100
H33 H 2.08100 1.25070 1.72970
C20 C 2.1172(4) 1.0890(5) 1.8213(7)
H34 H 2.11500 1.05670 1.88180
H35 H 2.16240 1.12190 1.85980
H36 H 2.11810 1.05340 1.76270
W1 W 1.583634(11) 0.986505(14) 1.764480(16)
W2 W 1.721030(11) 1.001192(14) 2.29789(2)
Ag1 Ag 1.50000 0.99638(6) 1.50000
Ag2 Ag 1.43329(2) 0.98543(4) 1.74436(4)
Ag3 Ag 1.65566(2) 0.98341(4) 2.03310(3)
S1 S 1.61241(9) 0.91231(10) 1.65194(14)
S2 S 1.49237(9) 1.07943(10) 1.65657(14)
S3 S 1.55107(8) 0.89752(10) 1.86343(13)
S4 S 1.68543(9) 1.05652(9) 1.88751(13)
S5 S 1.77007(9) 0.92149(11) 2.21646(14)
S6 S 1.62018(9) 1.0745(1) 2.15662(15)
S7 S 1.69313(10) 0.92259(14) 2.40894(16)
S8 S 1.80699(11) 1.08719(14) 2.41672(19)
O1A O 2.1188(2) 1.0626(3) 2.0818(4)
O2A O 2.0901(2) 0.9267(3) 2.1895(4)
O3A O 1.9392(2) 0.9012(3) 2.0525(4)
O4A O 2.0107(2) 1.0871(3) 2.1510(4)
N1A N 2.1846(3) 1.1759(3) 2.1797(5)
N2A N 2.1260(4) 0.8315(4) 2.3381(5)
N3A N 1.8832(3) 0.7773(3) 2.0302(5)
N4A N 1.9486(3) 1.1415(4) 2.2392(5)
C1A C 2.1699(3) 1.0968(4) 2.1747(5)
C2A C 2.2243(3) 1.0570(4) 2.2959(5)
H1A H 2.25040 1.01120 2.28560
H2A H 2.19780 1.03770 2.33510
C3A C 2.2796(4) 1.1248(4) 2.3696(6)
H3A H 2.32950 1.11260 2.38350
H4A H 2.28380 1.13020 2.44800
C4A C 2.2492(4) 1.2040(4) 2.2969(6)
H5A H 2.23270 1.24180 2.33680
H6A H 2.28730 1.23050 2.28600
C5A C 2.1404(4) 1.2339(4) 2.0821(7)
H7A H 2.09430 1.20820 2.02070
H8A H 2.16930 1.25110 2.04690
H9A H 2.12840 1.28070 2.11420
C6A C 2.0906(4) 0.8976(5) 2.2783(6)
C7A C 2.0493(5) 0.9344(6) 2.3371(7)
H10A H 2.07310 0.98510 2.37890
H11A H 1.99640 0.94500 2.27650
C8A C 2.0562(6) 0.8691(7) 2.4272(8)
H12A H 2.06950 0.89360 2.50460
H13A H 2.00890 0.83920 2.39540
C9A C 2.1191(5) 0.8127(6) 2.4418(7)
H14A H 2.16630 0.82380 2.51760
H15A H 2.10550 0.75570 2.44070
C10A C 2.1757(5) 0.7863(6) 2.3146(8)
H16A H 2.17740 0.81130 2.24850
H17A H 2.15750 0.73110 2.29310
H18A H 2.22570 0.78600 2.38620
C11A C 1.8813(3) 0.8569(4) 2.0123(5)
C12A C 1.8016(3) 0.8866(4) 1.9435(8)
H19A H 1.79150 0.91700 1.87180
H20A H 1.79130 0.92160 1.99410
C13A C 1.7527(4) 0.8079(5) 1.9072(9)
H21A H 1.71230 0.81350 1.92420
H22A H 1.73040 0.79600 1.82130
C14A C 1.8080(4) 0.7412(5) 1.9854(7)
H23A H 1.80150 0.72690 2.05260
H24A H 1.80100 0.69240 1.93750
C15A C 1.9532(5) 0.7316(5) 2.1013(8)
H25A H 1.99410 0.76080 2.10300
H26A H 1.94800 0.67870 2.06500
H27A H 1.96390 0.72490 2.18290
C16A C 2.0052(4) 1.1375(4) 2.2183(6)
C17A C 2.0616(4) 1.2056(4) 2.2912(6)
H28A H 2.11290 1.18430 2.33770
H29A H 2.05980 1.24860 2.23760
C18A C 2.0367(4) 1.2373(5) 2.3739(7)
H30A H 2.03900 1.29670 2.37770
H31A H 2.06850 1.21560 2.45560
C19A C 1.9547(4) 1.2074(5) 2.3168(7)
H32A H 1.94500 1.18850 2.37900
H33A H 1.91900 1.25070 2.27030
C20A C 1.8828(4) 1.0890(5) 2.1787(7)
H34A H 1.88500 1.05670 2.11820
H35A H 1.83760 1.12190 2.14020
H36A H 1.88190 1.05340 2.23730
W1A W 1.416366(11) 0.986505(14) 1.235520(16)
W2A W 1.278970(11) 1.001192(14) 0.70211(2)
Ag2A Ag 1.56671(2) 0.98543(4) 1.25564(4)
Ag3A Ag 1.34434(2) 0.98341(4) 0.96690(3)
S1A S 1.38759(9) 0.91231(10) 1.34806(14)
S2A S 1.50763(9) 1.07943(10) 1.34343(14)
S3A S 1.44893(8) 0.89752(10) 1.13657(13)
S4A S 1.31457(9) 1.05652(9) 1.11249(13)
S5A S 1.22993(9) 0.92149(11) 0.78354(14)
S6A S 1.37982(9) 1.0745(1) 0.84338(15)
S7A S 1.30687(10) 0.92259(14) 0.59106(16)
S8A S 1.19301(11) 1.08719(14) 0.58328(19)
Ag2* Ag 1.43329(2) 0.98543(4) 0.74436(4)
Ag2A* Ag 1.56671(2) 0.98543(4) 2.25564(4)
S6* S 1.62018(9) 1.0745(1) 1.15662(15)
S6A* S 1.37982(9) 1.0745(1) 1.84338(15)
S7* S 1.69313(10) 0.92259(14) 1.40894(16)
S7A* S 1.30687(10) 0.92259(14) 1.59106(16)
#END
