
#######################################################################
#
#                 Cambridge Crystallographic Data Centre
#                                CCDC
#
#######################################################################
#
# If this CIF has been generated from an entry in the Cambridge
# Structural Database, then it will include bibliographic, chemical,
# crystal, experimental, refinement or atomic coordinate data resulting
# from the CCDC's data processing and validation procedures.
#
#######################################################################

data_CSD_CIF_NANMAS
_audit_creation_date 2012-03-30
_audit_creation_method CSD-ConQuest-V1
_database_code_CSD NANMAS
_database_code_depnum_ccdc_archive 'CCDC 757810'
_chemical_formula_sum 'C24 H48 La2 Mg3 O42'
_chemical_formula_moiety
;
(C24 H24 La2 Mg2 O30 2-)n,n(H12 Mg1 O6 2+),6n(H2 O1)
;
_journal_coden_Cambridge 1290
_journal_year 2011
_journal_page_first 5299
_journal_name_full 'Eur.J.Inorg.Chem. '
loop_
_publ_author_name
"Yun Xu"
"Yun-Xia Che"
"Fang-Yi Cheng"
"Ji-Min Zheng"
_chemical_name_systematic
;
catena-(hexaaqua-magnesium 
hexakis(\m~3~-2,2'-oxydiacetato)-di-lanthanum(iii)-di-magnesium hexahydrate)
;
_cell_volume  17830.721
_exptl_crystal_colour 'colorless'
_exptl_crystal_density_diffrn 2.025
_exptl_crystal_description 'block'
_diffrn_ambient_temperature 298
#These two values have been output from a single CSD field.
_refine_ls_R_factor_gt 0.0454
_refine_ls_wR_factor_gt 0.0454
_symmetry_cell_setting cubic
_symmetry_space_group_name_H-M 'F d -3 c'
_symmetry_Int_Tables_number 228
loop_
_symmetry_equiv_pos_site_id
_symmetry_equiv_pos_as_xyz
1 x,y,z
2 1/4-x,3/4-y,1/2+z
3 3/4-x,1/2+y,1/4-z
4 1/2+x,1/4-y,3/4-z
5 z,x,y
6 1/2+z,1/4-x,3/4-y
7 1/4-z,3/4-x,1/2+y
8 3/4-z,1/2+x,1/4-y
9 y,z,x
10 3/4-y,1/2+z,1/4-x
11 1/2+y,1/4-z,3/4-x
12 1/4-y,3/4-z,1/2+x
13 3/4+y,1/4+x,-z
14 1/2-y,1/2-x,1/2-z
15 1/4+y,-x,3/4+z
16 -y,3/4+x,1/4+z
17 3/4+x,1/4+z,-y
18 -x,3/4+z,1/4+y
19 1/2-x,1/2-z,1/2-y
20 1/4+x,-z,3/4+y
21 3/4+z,1/4+y,-x
22 1/4+z,-y,3/4+x
23 -z,3/4+y,1/4+x
24 1/2-z,1/2-y,1/2-x
25 x,1/2+y,1/2+z
26 1/4-x,1/4-y,z
27 3/4-x,y,3/4-z
28 1/2+x,3/4-y,1/4-z
29 z,1/2+x,1/2+y
30 1/2+z,3/4-x,1/4-y
31 1/4-z,1/4-x,y
32 3/4-z,x,3/4-y
33 y,1/2+z,1/2+x
34 3/4-y,z,3/4-x
35 1/2+y,3/4-z,1/4-x
36 1/4-y,1/4-z,x
37 3/4+y,3/4+x,1/2-z
38 1/2-y,-x,-z
39 1/4+y,1/2-x,1/4+z
40 -y,1/4+x,3/4+z
41 3/4+x,3/4+z,1/2-y
42 -x,1/4+z,3/4+y
43 1/2-x,-z,-y
44 1/4+x,1/2-z,1/4+y
45 3/4+z,3/4+y,1/2-x
46 1/4+z,1/2-y,1/4+x
47 -z,1/4+y,3/4+x
48 1/2-z,-y,-x
49 1/2+x,y,1/2+z
50 3/4-x,3/4-y,z
51 1/4-x,1/2+y,3/4-z
52 x,1/4-y,1/4-z
53 1/2+z,x,1/2+y
54 z,1/4-x,1/4-y
55 3/4-z,3/4-x,y
56 1/4-z,1/2+x,3/4-y
57 1/2+y,z,1/2+x
58 1/4-y,1/2+z,3/4-x
59 y,1/4-z,1/4-x
60 3/4-y,3/4-z,x
61 1/4+y,1/4+x,1/2-z
62 -y,1/2-x,-z
63 3/4+y,-x,1/4+z
64 1/2-y,3/4+x,3/4+z
65 1/4+x,1/4+z,1/2-y
66 1/2-x,3/4+z,3/4+y
67 -x,1/2-z,-y
68 3/4+x,-z,1/4+y
69 1/4+z,1/4+y,1/2-x
70 3/4+z,-y,1/4+x
71 1/2-z,3/4+y,3/4+x
72 -z,1/2-y,-x
73 1/2+x,1/2+y,z
74 3/4-x,1/4-y,1/2+z
75 1/4-x,y,1/4-z
76 x,3/4-y,3/4-z
77 1/2+z,1/2+x,y
78 z,3/4-x,3/4-y
79 3/4-z,1/4-x,1/2+y
80 1/4-z,x,1/4-y
81 1/2+y,1/2+z,x
82 1/4-y,z,1/4-x
83 y,3/4-z,3/4-x
84 3/4-y,1/4-z,1/2+x
85 1/4+y,3/4+x,-z
86 -y,-x,1/2-z
87 3/4+y,1/2-x,3/4+z
88 1/2-y,1/4+x,1/4+z
89 1/4+x,3/4+z,-y
90 1/2-x,1/4+z,1/4+y
91 -x,-z,1/2-y
92 3/4+x,1/2-z,3/4+y
93 1/4+z,3/4+y,-x
94 3/4+z,1/2-y,3/4+x
95 1/2-z,1/4+y,1/4+x
96 -z,-y,1/2-x
97 -x,-y,-z
98 -1/4+x,-3/4+y,-1/2-z
99 -3/4+x,-1/2-y,-1/4+z
100 -1/2-x,-1/4+y,-3/4+z
101 -z,-x,-y
102 -1/2-z,-1/4+x,-3/4+y
103 -1/4+z,-3/4+x,-1/2-y
104 -3/4+z,-1/2-x,-1/4+y
105 -y,-z,-x
106 -3/4+y,-1/2-z,-1/4+x
107 -1/2-y,-1/4+z,-3/4+x
108 -1/4+y,-3/4+z,-1/2-x
109 -3/4-y,-1/4-x,z
110 -1/2+y,-1/2+x,-1/2+z
111 -1/4-y,x,-3/4-z
112 y,-3/4-x,-1/4-z
113 -3/4-x,-1/4-z,y
114 x,-3/4-z,-1/4-y
115 -1/2+x,-1/2+z,-1/2+y
116 -1/4-x,z,-3/4-y
117 -3/4-z,-1/4-y,x
118 -1/4-z,y,-3/4-x
119 z,-3/4-y,-1/4-x
120 -1/2+z,-1/2+y,-1/2+x
121 -x,-1/2-y,-1/2-z
122 -1/4+x,-1/4+y,-z
123 -3/4+x,-y,-3/4+z
124 -1/2-x,-3/4+y,-1/4+z
125 -z,-1/2-x,-1/2-y
126 -1/2-z,-3/4+x,-1/4+y
127 -1/4+z,-1/4+x,-y
128 -3/4+z,-x,-3/4+y
129 -y,-1/2-z,-1/2-x
130 -3/4+y,-z,-3/4+x
131 -1/2-y,-3/4+z,-1/4+x
132 -1/4+y,-1/4+z,-x
133 -3/4-y,-3/4-x,-1/2+z
134 -1/2+y,x,z
135 -1/4-y,-1/2+x,-1/4-z
136 y,-1/4-x,-3/4-z
137 -3/4-x,-3/4-z,-1/2+y
138 x,-1/4-z,-3/4-y
139 -1/2+x,z,y
140 -1/4-x,-1/2+z,-1/4-y
141 -3/4-z,-3/4-y,-1/2+x
142 -1/4-z,-1/2+y,-1/4-x
143 z,-1/4-y,-3/4-x
144 -1/2+z,y,x
145 -1/2-x,-y,-1/2-z
146 -3/4+x,-3/4+y,-z
147 -1/4+x,-1/2-y,-3/4+z
148 -x,-1/4+y,-1/4+z
149 -1/2-z,-x,-1/2-y
150 -z,-1/4+x,-1/4+y
151 -3/4+z,-3/4+x,-y
152 -1/4+z,-1/2-x,-3/4+y
153 -1/2-y,-z,-1/2-x
154 -1/4+y,-1/2-z,-3/4+x
155 -y,-1/4+z,-1/4+x
156 -3/4+y,-3/4+z,-x
157 -1/4-y,-1/4-x,-1/2+z
158 y,-1/2+x,z
159 -3/4-y,x,-1/4-z
160 -1/2+y,-3/4-x,-3/4-z
161 -1/4-x,-1/4-z,-1/2+y
162 -1/2+x,-3/4-z,-3/4-y
163 x,-1/2+z,y
164 -3/4-x,z,-1/4-y
165 -1/4-z,-1/4-y,-1/2+x
166 -3/4-z,y,-1/4-x
167 -1/2+z,-3/4-y,-3/4-x
168 z,-1/2+y,x
169 -1/2-x,-1/2-y,-z
170 -3/4+x,-1/4+y,-1/2-z
171 -1/4+x,-y,-1/4+z
172 -x,-3/4+y,-3/4+z
173 -1/2-z,-1/2-x,-y
174 -z,-3/4+x,-3/4+y
175 -3/4+z,-1/4+x,-1/2-y
176 -1/4+z,-x,-1/4+y
177 -1/2-y,-1/2-z,-x
178 -1/4+y,-z,-1/4+x
179 -y,-3/4+z,-3/4+x
180 -3/4+y,-1/4+z,-1/2-x
181 -1/4-y,-3/4-x,z
182 y,x,-1/2+z
183 -3/4-y,-1/2+x,-3/4-z
184 -1/2+y,-1/4-x,-1/4-z
185 -1/4-x,-3/4-z,y
186 -1/2+x,-1/4-z,-1/4-y
187 x,z,-1/2+y
188 -3/4-x,-1/2+z,-3/4-y
189 -1/4-z,-3/4-y,x
190 -3/4-z,-1/2+y,-3/4-x
191 -1/2+z,-1/4-y,-1/4-x
192 z,y,-1/2+x
_cell_length_a 26.125(3)
_cell_length_b 26.125(3)
_cell_length_c 26.125(3)
_cell_angle_alpha 90
_cell_angle_beta 90
_cell_angle_gamma 90
_cell_formula_units_Z 16
loop_
_atom_type_symbol
_atom_type_radius_bond
C 0.68
H 0.23
La 2.07
Mg 1.41
O 0.68
loop_
_atom_site_label
_atom_site_type_symbol
_atom_site_fract_x
_atom_site_fract_y
_atom_site_fract_z
C1 C 0.9967(3) 0.9429(2) 0.1283(2)
H1 H 0.96680 0.92630 0.11370
H2 H 1.02680 0.92990 0.11080
C2 C 0.99290(18) 0.99969(18) 0.1203(2)
La1 La 1.00000 1.00000 0.25000
Mg1 Mg 1.00000 1.00000 0.00000
O1 O 0.98855(15) 1.01632(16) 0.07618(16)
O2 O 0.99263(15) 1.02824(15) 0.15865(14)
O3 O 1.00000 0.93125(13) 0.18125(13)
Mg2 Mg 0.12500 0.12500 0.12500
O4 O 0.12500 0.0448(2) 0.12500
O5 O 0.12500 0.9217(6) 0.12500
C1Q C 1.0033(3) 0.8783(2) 0.1929(2)
C1FB C 0.9429(3) 1.1217(2) 0.2533(2)
C1QB C 0.8783(3) 1.0571(2) 0.2467(2)
C1AC C 1.1217(3) 0.9967(2) 0.3071(2)
C1GC C 1.0571(3) 1.0033(2) 0.3717(2)
C1D C 1.1283(3) 0.9967(2) -0.0571(2)
C1N C 1.1929(3) 1.0033(2) -0.1217(2)
C1H C 0.9429(3) 1.1283(2) -0.0033(2)
C1T C 0.8783(3) 1.1929(2) 0.0033(2)
C1RC C 1.0033(3) 1.0571(2) -0.1283(2)
C1ID C 0.9967(3) 1.1217(2) -0.1929(2)
H1Q H 1.03320 0.86370 0.17630
H1FB H 0.92630 1.13630 0.28320
H1QB H 0.86370 1.07370 0.21680
H1AC H 1.13630 0.96680 0.32370
H1GC H 1.07370 1.03320 0.38630
H1D H 1.11370 0.96680 -0.07370
H1N H 1.17630 1.03320 -0.13630
H1H H 0.92630 1.11370 -0.03320
H1T H 0.86370 1.17630 0.03320
H1RC H 1.03320 1.07370 -0.11370
H1ID H 0.96680 1.13630 -0.17630
H2Q H 0.97320 0.86080 0.17990
H2FB H 0.92990 1.13920 0.22320
H2QB H 0.86080 1.07010 0.27680
H2AC H 1.13920 1.02680 0.32010
H2GC H 1.07010 0.97320 0.38920
H2D H 1.11080 1.02680 -0.07010
H2N H 1.17990 0.97320 -0.13920
H2H H 0.92990 1.11080 0.02680
H2T H 0.86080 1.17990 -0.02680
H2RC H 0.97320 1.07010 -0.11080
H2ID H 1.02680 1.13920 -0.17990
C2Q C 1.00710(18) 0.87030(18) 0.24969(20)
C2FB C 0.99969(18) 1.12970(18) 0.2571(2)
C2QB C 0.87030(18) 1.00031(18) 0.2429(2)
C2AC C 1.12970(18) 0.99290(18) 0.25031(20)
C2GC C 1.00031(18) 1.00710(18) 0.3797(2)
C2D C 1.12030(18) 0.99290(18) -0.00031(20)
C2N C 1.24969(18) 1.00710(18) -0.1297(2)
C2H C 0.99969(18) 1.12030(18) -0.0071(2)
C2T C 0.87030(18) 1.24969(18) 0.0071(2)
C2RC C 1.00710(18) 1.00031(18) -0.1203(2)
C2ID C 0.99290(18) 1.12970(18) -0.24969(20)
La1D La 1.25000 1.00000 0.00000
La1H La 1.00000 1.25000 0.00000
La1RC La 1.00000 1.00000 -0.25000
Mg1O Mg 1.00000 0.75000 0.25000
Mg1YA Mg 1.00000 1.25000 0.25000
Mg1JB Mg 0.75000 1.00000 0.25000
Mg1VB Mg 1.25000 1.00000 0.25000
Mg1GC Mg 1.00000 1.00000 0.50000
Mg1N Mg 1.25000 1.00000 -0.25000
Mg1L Mg 0.75000 1.25000 0.00000
Mg1MA Mg 1.00000 1.25000 -0.25000
O1Q O 1.01145(15) 0.82618(16) 0.26632(16)
O1FB O 1.01632(15) 1.17382(16) 0.26145(16)
O1QB O 0.82618(15) 0.98368(16) 0.23855(16)
O1AC O 1.17382(15) 0.98855(16) 0.23368(16)
O1GC O 0.98368(15) 1.01145(16) 0.42382(16)
O1D O 1.07618(15) 0.98855(16) 0.01632(16)
O1N O 1.26632(15) 1.01145(16) -0.17382(16)
O1H O 1.01632(15) 1.07618(16) -0.01145(16)
O1T O 0.82618(15) 1.26632(16) 0.01145(16)
O1RC O 1.01145(15) 0.98368(16) -0.07618(16)
O1ID O 0.98855(15) 1.17382(16) -0.26632(16)
O1VC O 0.92382(15) 1.01145(16) -0.01632(16)
O1ZC O 0.98368(15) 0.92382(16) 0.01145(16)
O1V O 0.92382(15) 0.76632(16) 0.23855(16)
O1O O 0.98368(15) 0.73855(16) 0.32618(16)
O1GE O 0.98855(15) 0.67382(16) 0.23368(16)
O1LE O 1.07618(15) 0.73368(16) 0.26145(16)
O1EE O 1.01632(15) 0.76145(16) 0.17382(16)
O2Q O 1.00737(15) 0.90865(15) 0.27824(14)
O2FB O 1.02824(15) 1.09135(15) 0.25737(14)
O2QB O 0.90865(15) 0.97176(15) 0.24263(14)
O2AC O 1.09135(15) 0.99263(15) 0.22176(14)
O2GC O 0.97176(15) 1.00737(15) 0.34135(14)
O2D O 1.15865(15) 0.99263(15) 0.02824(14)
O2N O 1.27824(15) 1.00737(15) -0.09135(14)
O2H O 1.02824(15) 1.15865(15) -0.00737(14)
O2T O 0.90865(15) 1.27824(15) 0.00737(14)
O2RC O 1.00737(15) 0.97176(15) -0.15865(14)
O2ID O 0.99263(15) 1.09135(15) -0.27824(14)
O2VB O 1.25737(15) 1.02824(15) 0.09135(14)
O2JC O 1.24263(15) 0.90865(15) -0.02824(14)
O2IA O 1.22176(15) 1.09135(15) -0.00737(14)
O2UA O 1.34135(15) 0.97176(15) 0.00737(14)
O3FB O 0.93125 1.06875(13) 0.25000(13)
O3AC O 1.06875 1.00000(13) 0.31875(13)
O3D O 1.18125 1.00000(13) -0.06875(13)
O3H O 0.93125 1.18125(13) 0.00000(13)
O3RC O 1.00000 1.06875(13) -0.18125(13)
O3VB O 1.25000 0.93125(13) 0.06875(13)
O3IA O 1.31875 1.06875(13) 0.00000(13)
O4D O 0.12500 0.1250(2) 0.04480
O4H O 0.04480 0.1250(2) 0.12500
O4Y O 0.12500 0.2052(2) 0.12500
O4IA O 0.20520 0.1250(2) 0.12500
O4AB O 0.12500 0.1250(2) 0.20520
#END
