
#######################################################################
#
#                 Cambridge Crystallographic Data Centre
#                                CCDC
#
#######################################################################
#
# If this CIF has been generated from an entry in the Cambridge
# Structural Database, then it will include bibliographic, chemical,
# crystal, experimental, refinement or atomic coordinate data resulting
# from the CCDC's data processing and validation procedures.
#
#######################################################################

data_CSD_CIF_NANTII
_audit_creation_date 2017-03-20
_audit_creation_method CSD-ConQuest-V1
_database_code_CSD NANTII
_database_code_depnum_ccdc_archive 'CCDC 1528863'
_chemical_formula_sum 'C136 H191 Ce4 N23 O83 Si1 W12'
_chemical_formula_moiety
;
(C62 H82 Ce2 N10 O20 2+)2n,n(O40 Si1 W12 4-),3n(C4 H9 N1 O1)
;
_journal_coden_Cambridge 222
_journal_volume 46
_journal_year 2017
_journal_page_first 4898
_journal_name_full 'Dalton Trans. '
loop_
_publ_author_name
"Hai-Long Zhang"
"Jian-Zhen Liao"
"Wenbin Yang"
"Xiao-Yuan Wu"
"Can-Zhong Lu"
_chemical_name_systematic
;
catena-[bis((\m-5,5'-(1,3,6,8-tetraoxo-1,3,6,8-tetrahydrobenzo[lmn][3,8]phenan
throline-2,7-diyl)di(benzene-1,3-dicarboxylato))-octakis(N,N-dimethylacetamide
)-di-cerium(iii)) 
(\m-orthosilicato)-tetracosakis(\m-oxo)-dodecqoxo-dodeca-tungsten 
N,N-dimethylacetamide solvate]
;
_chemical_name_common
;
LONF-1
;
_cell_volume   9321.014
_exptl_crystal_colour 'yellow'
_exptl_crystal_description 'block'
_diffrn_ambient_temperature 123
_refine_special_details
;
Disordered N,N-dimethylacetamide solvent molecules were not modelled and the 
disordered density was taken into account using the SQUEEZE/PLATON procedure.
;
#These two values have been output from a single CSD field.
_refine_ls_R_factor_gt 0.0761
_refine_ls_wR_factor_gt 0.0761
_symmetry_cell_setting tetragonal
_symmetry_space_group_name_H-M 'P 42/n'
_symmetry_Int_Tables_number 86
loop_
_symmetry_equiv_pos_site_id
_symmetry_equiv_pos_as_xyz
1 x,y,z
2 -y,1/2+x,1/2+z
3 1/2-x,1/2-y,z
4 1/2+y,-x,1/2+z
5 -x,-y,-z
6 y,-1/2-x,-1/2-z
7 -1/2+x,-1/2+y,-z
8 -1/2-y,x,-1/2-z
_cell_length_a 23.714(3)
_cell_length_b 23.714(3)
_cell_length_c 16.575(3)
_cell_angle_alpha 90
_cell_angle_beta 90
_cell_angle_gamma 90
_cell_formula_units_Z 2
loop_
_atom_type_symbol
_atom_type_radius_bond
C 0.68
H 0.23
Ce 2.04
N 0.68
O 0.68
Si 1.20
W 1.62
loop_
_atom_site_label
_atom_site_type_symbol
_atom_site_fract_x
_atom_site_fract_y
_atom_site_fract_z
Ce1 Ce 0.37054(2) 0.64558(2) 0.08940(3)
O1 O 0.3369(3) 0.5571(3) 0.0289(4)
O2 O 0.3179(3) 0.6367(3) -0.0356(4)
O3 O 0.2027(4) 0.6282(3) -0.2887(5)
O4 O 0.1909(3) 0.5469(3) -0.3501(4)
O5 O 0.1599(3) 0.4030(3) -0.1394(5)
O6 O 0.3521(3) 0.3936(3) -0.1601(4)
O7 O 0.2816(3) 0.6364(4) 0.1463(6)
O8 O 0.3994(4) 0.5785(4) 0.1811(5)
O9 O 0.4435(3) 0.6201(4) 0.0032(5)
O10 O 0.3683(4) 0.7335(4) 0.0346(6)
C1 C 0.3158(5) 0.5826(5) -0.0303(6)
C2 C 0.2864(5) 0.5497(4) -0.0956(6)
C3 C 0.2629(4) 0.5771(4) -0.1592(6)
H1 H 0.26450 0.61710 -0.16200
C4 C 0.2081(5) 0.5752(4) -0.2897(6)
C5 C 0.2360(5) 0.5461(4) -0.2216(6)
C6 C 0.2337(5) 0.4892(4) -0.2169(6)
H2 H 0.21460 0.46850 -0.25770
C7 C 0.2595(5) 0.4600(4) -0.1516(6)
C8 C 0.2855(5) 0.4902(4) -0.0906(6)
H3 H 0.30230 0.47130 -0.04620
C9 C 0.2020(5) 0.3731(4) -0.1432(5)
C10 C 0.2013(4) 0.3106(4) -0.1430(5)
C11 C 0.2513(4) 0.2801(4) -0.1433(5)
C12 C 0.3037(4) 0.3072(4) -0.1446(5)
C13 C 0.3085(5) 0.3695(4) -0.1496(5)
C14 C 0.3534(4) 0.2752(4) -0.1437(5)
H4 H 0.38900 0.29370 -0.14460
C15 C 0.3510(4) 0.2146(4) -0.1414(5)
H5 H 0.38440 0.19270 -0.13890
C16 C 0.4938(7) 0.6119(8) -0.0201(10)
C17 C 0.5447(8) 0.6501(9) 0.0044(13)
H6 H 0.56680 0.63120 0.04640
H7 H 0.53060 0.68620 0.02500
H8 H 0.56860 0.65690 -0.04290
C18 C 0.5635(6) 0.5569(7) -0.0943(10)
H9 H 0.59160 0.57960 -0.06530
H10 H 0.56440 0.56660 -0.15180
H11 H 0.57220 0.51680 -0.08760
C19 C 0.4562(6) 0.5342(7) -0.0952(9)
H12 H 0.43540 0.51710 -0.05020
H13 H 0.47010 0.50440 -0.13100
H14 H 0.43100 0.55930 -0.12540
C20 C 0.4207(10) 0.5519(9) 0.2364(12)
C21 C 0.4871(9) 0.5730(9) 0.2611(11)
H15 H 0.48550 0.59820 0.30780
H16 H 0.50400 0.59290 0.21530
H17 H 0.51010 0.53990 0.27440
C22 C 0.4368(8) 0.4805(8) 0.3385(11)
H18 H 0.46330 0.45470 0.31220
H19 H 0.40980 0.45890 0.37070
H20 H 0.45770 0.50630 0.37380
C23 C 0.3471(9) 0.4923(8) 0.241(1)
H21 H 0.31630 0.51480 0.26370
H22 H 0.34240 0.45280 0.25690
H23 H 0.34650 0.49530 0.18210
C24 C 0.2373(9) 0.6112(9) 0.1790(14)
C25 C 0.2190(8) 0.5532(8) 0.1392(12)
H24 H 0.20470 0.52780 0.18110
H25 H 0.25160 0.53590 0.11250
H26 H 0.18920 0.56010 0.09930
C26 C 0.1661(8) 0.6059(8) 0.2867(14)
H27 H 0.17410 0.56720 0.30440
H28 H 0.13320 0.60570 0.25080
H29 H 0.15810 0.62950 0.33380
C27 C 0.2254(9) 0.6842(9) 0.2644(12)
H30 H 0.19130 0.70010 0.28880
H31 H 0.23540 0.70590 0.21620
H32 H 0.25640 0.68580 0.30330
C28 C 0.3588(5) 0.7762(8) -0.0031(11)
C29 C 0.2997(4) 0.8074(3) -0.0156(12)
H33 H 0.29040 0.80820 -0.07320
H34 H 0.30220 0.84600 0.00500
H35 H 0.27020 0.78690 0.01380
C30 C 0.3830(7) 0.8410(6) -0.1086(9)
H36 H 0.41720 0.86380 -0.11480
H37 H 0.35230 0.86470 -0.08800
H38 H 0.37210 0.82530 -0.16110
C31 C 0.4526(5) 0.7706(8) -0.0487(13)
H39 H 0.45550 0.74620 -0.00110
H40 H 0.48050 0.80090 -0.04470
H41 H 0.45980 0.74830 -0.09740
N1 N 0.2570(4) 0.3987(3) -0.1465(5)
N2 N 0.2155(7) 0.6287(8) 0.2430(11)
N3 N 0.4049(9) 0.5148(7) 0.2737(11)
N4 N 0.5069(5) 0.5687(5) -0.0616(8)
N5 N 0.3936(6) 0.7958(5) -0.0529(8)
Si1 Si 0.25000 0.25000 0.25000
W1 W 0.284703(19) 0.34895(2) 0.09902(2)
W2 W 0.19208(2) 0.387365(19) 0.24300(2)
W3 W 0.153624(18) 0.29426(2) 0.09866(2)
O11 O 0.2275(3) 0.3013(3) 0.1929(3)
O12 O 0.1526(3) 0.3405(3) 0.3180(4)
O13 O 0.2523(3) 0.3840(3) 0.3189(4)
O14 O 0.1641(4) 0.4529(3) 0.2630(5)
O15 O 0.2459(3) 0.4070(3) 0.1592(4)
O16 O 0.3166(3) 0.3902(4) 0.0274(4)
O17 O 0.3120(3) 0.2761(4) 0.0716(4)
O18 O 0.2145(3) 0.3328(3) 0.0457(4)
O19 O 0.1410(3) 0.3625(3) 0.1587(4)
O20 O 0.1013(3) 0.3003(4) 0.0278(4)
O1B O 0.1631(3) -0.0571(3) 0.0289(4)
O2B O 0.1821(3) -0.1367(3) -0.0356(4)
O3B O 0.2973(4) -0.1282(3) -0.2887(5)
O4B O 0.3091(3) -0.0469(3) -0.3501(4)
O5B O 0.3401(3) 0.0970(3) -0.1394(5)
O6B O 0.1479(3) 0.1064(3) -0.1601(4)
C1B C 0.1842(5) -0.0826(5) -0.0303(6)
C2B C 0.2136(5) -0.0497(4) -0.0956(6)
C3B C 0.2371(4) -0.0771(4) -0.1592(6)
H1B H 0.23550 -0.11710 -0.16200
C4B C 0.2919(5) -0.0752(4) -0.2897(6)
C5B C 0.2640(5) -0.0461(4) -0.2216(6)
C6B C 0.2663(5) 0.0108(4) -0.2169(6)
H2B H 0.28540 0.03150 -0.25770
C7B C 0.2405(5) 0.0400(4) -0.1516(6)
C8B C 0.2145(5) 0.0098(4) -0.0906(6)
H3B H 0.19770 0.02870 -0.04620
C9B C 0.2980(5) 0.1269(4) -0.1432(5)
C10B C 0.2987(4) 0.1894(4) -0.1430(5)
C11B C 0.2487(4) 0.2199(4) -0.1433(5)
C12B C 0.1963(4) 0.1928(4) -0.1446(5)
C13B C 0.1915(5) 0.1305(4) -0.1496(5)
C14B C 0.1466(4) 0.2248(4) -0.1437(5)
H4B H 0.11100 0.20630 -0.14460
C15B C 0.1490(4) 0.2854(4) -0.1414(5)
H5B H 0.11560 0.30730 -0.13890
N1B N 0.2430(4) 0.1013(3) -0.1465(5)
Ce1B Ce 0.12946(2) -0.14558(2) 0.08940(3)
O7B O 0.2184(3) -0.1364(4) 0.1463(6)
O8B O 0.1006(4) -0.0785(4) 0.1811(5)
O9B O 0.0565(3) -0.1201(4) 0.0032(5)
O10B O 0.1317(4) -0.2335(4) 0.0346(6)
C16B C 0.0062(7) -0.1119(8) -0.0201(10)
C17B C -0.0447(8) -0.1501(9) 0.0044(13)
H6B H -0.06680 -0.13120 0.04640
H7B H -0.03060 -0.18620 0.02500
H8B H -0.06860 -0.15690 -0.04290
C18B C -0.0635(6) -0.0569(7) -0.0943(10)
H9B H -0.09160 -0.07960 -0.06530
H10B H -0.06440 -0.06660 -0.15180
H11B H -0.07220 -0.01680 -0.08760
C19B C 0.0438(6) -0.0342(7) -0.0952(9)
H12B H 0.06460 -0.01710 -0.05020
H13B H 0.02990 -0.00440 -0.13100
H14B H 0.06900 -0.05930 -0.12540
C20B C 0.0793(10) -0.0519(9) 0.2364(12)
C21B C 0.0129(9) -0.0730(9) 0.2611(11)
H15B H 0.01450 -0.09820 0.30780
H16B H -0.00400 -0.09290 0.21530
H17B H -0.01010 -0.03990 0.27440
C22B C 0.0632(8) 0.0195(8) 0.3385(11)
H18B H 0.03670 0.04530 0.31220
H19B H 0.09020 0.04110 0.37070
H20B H 0.04230 -0.00630 0.37380
C23B C 0.1529(9) 0.0077(8) 0.241(1)
H21B H 0.18370 -0.01480 0.26370
H22B H 0.15760 0.04720 0.25690
H23B H 0.15350 0.00470 0.18210
C24B C 0.2627(9) -0.1112(9) 0.1790(14)
C25B C 0.2810(8) -0.0532(8) 0.1392(12)
H24B H 0.29530 -0.02780 0.18110
H25B H 0.24840 -0.03590 0.11250
H26B H 0.31080 -0.06010 0.09930
C26B C 0.3339(8) -0.1059(8) 0.2867(14)
H27B H 0.32590 -0.06720 0.30440
H28B H 0.36680 -0.10570 0.25080
H29B H 0.34190 -0.12950 0.33380
C27B C 0.2746(9) -0.1842(9) 0.2644(12)
H30B H 0.30870 -0.20010 0.28880
H31B H 0.26460 -0.20590 0.21620
H32B H 0.24360 -0.18580 0.30330
C28B C 0.1412(5) -0.2762(8) -0.0031(11)
C29B C 0.2003(4) -0.3074(3) -0.0156(12)
H33B H 0.20960 -0.30820 -0.07320
H34B H 0.19780 -0.34600 0.00500
H35B H 0.22980 -0.28690 0.01380
C30B C 0.1170(7) -0.3410(6) -0.1086(9)
H36B H 0.08280 -0.36380 -0.11480
H37B H 0.14770 -0.36470 -0.08800
H38B H 0.12790 -0.32530 -0.16110
C31B C 0.0474(5) -0.2706(8) -0.0487(13)
H39B H 0.04450 -0.24620 -0.00110
H40B H 0.01950 -0.30090 -0.04470
H41B H 0.04020 -0.24830 -0.09740
N2B N 0.2845(7) -0.1287(8) 0.2430(11)
N3B N 0.0951(9) -0.0148(7) 0.2737(11)
N4B N -0.0069(5) -0.0687(5) -0.0616(8)
N5B N 0.1064(6) -0.2958(5) -0.0529(8)
Ce1A Ce 0.35442(2) -0.12946(2) -0.41060(3)
Ce1C Ce 0.14558(2) 0.62946(2) -0.41060(3)
O3A O 0.3718(4) 0.7027(3) 0.2113(5)
O3C O 0.1282(4) -0.2027(3) 0.2113(5)
O4A O 0.4531(3) 0.6909(3) 0.1499(4)
O4C O 0.0469(3) -0.1909(3) 0.1499(4)
O11B O 0.2725(3) 0.1987(3) 0.1929(3)
O11E O 0.3013(3) 0.2725(3) 0.3071(3)
O11G O 0.1987(3) 0.2275(3) 0.3071(3)
W1B W 0.215297(19) 0.15105(2) 0.09902(2)
W2B W 0.30792(2) 0.112635(19) 0.24300(2)
W3B W 0.346376(18) 0.20574(2) 0.09866(2)
O12B O 0.3474(3) 0.1595(3) 0.3180(4)
O13B O 0.2477(3) 0.1160(3) 0.3189(4)
O14B O 0.3359(4) 0.0471(3) 0.2630(5)
O15B O 0.2541(3) 0.0930(3) 0.1592(4)
O16B O 0.1834(3) 0.1098(4) 0.0274(4)
O17B O 0.1880(3) 0.2239(4) 0.0716(4)
O18B O 0.2855(3) 0.1672(3) 0.0457(4)
O19B O 0.3590(3) 0.1375(3) 0.1587(4)
O20B O 0.3987(3) 0.1997(4) 0.0278(4)
W1E W 0.348950(19) 0.215297(20) 0.40098(2)
W2E W 0.387365(20) 0.307920(19) 0.25700(2)
W3E W 0.294260(18) 0.346376(20) 0.40134(2)
O12E O 0.3405(3) 0.3474(3) 0.1820(4)
O13E O 0.3840(3) 0.2477(3) 0.1811(4)
O14E O 0.4529(4) 0.3359(3) 0.2370(5)
O15E O 0.4070(3) 0.2541(3) 0.3408(4)
O16E O 0.3902(3) 0.1834(4) 0.4726(4)
O17E O 0.2761(3) 0.1880(4) 0.4284(4)
O18E O 0.3328(3) 0.2855(3) 0.4543(4)
O19E O 0.3625(3) 0.3590(3) 0.3413(4)
O20E O 0.3003(3) 0.3987(4) 0.4722(4)
W1G W 0.151050(19) 0.284703(20) 0.40098(2)
W2G W 0.112635(20) 0.192080(19) 0.25700(2)
W3G W 0.205740(18) 0.153624(20) 0.40134(2)
O12G O 0.1595(3) 0.1526(3) 0.1820(4)
O13G O 0.1160(3) 0.2523(3) 0.1811(4)
O14G O 0.0471(4) 0.1641(3) 0.2370(5)
O15G O 0.0930(3) 0.2459(3) 0.3408(4)
O16G O 0.1098(3) 0.3166(4) 0.4726(4)
O17G O 0.2239(3) 0.3120(4) 0.4284(4)
O18G O 0.1672(3) 0.2145(3) 0.4543(4)
O19G O 0.1375(3) 0.1410(3) 0.3413(4)
O20G O 0.1997(3) 0.1013(4) 0.4722(4)
#END
