
#######################################################################
#
#                 Cambridge Crystallographic Data Centre
#                                CCDC
#
#######################################################################
#
# If this CIF has been generated from an entry in the Cambridge
# Structural Database, then it will include bibliographic, chemical,
# crystal, experimental, refinement or atomic coordinate data resulting
# from the CCDC's data processing and validation procedures.
#
#######################################################################

data_CSD_CIF_NANYUX01
_audit_creation_date 2005-10-20
_audit_creation_method CSD-ConQuest-V1
_database_code_CSD NANYUX01
_database_code_depnum_ccdc_archive 'CCDC 250088'
_chemical_formula_sum 'C14 H18 N2 O7 Zn1'
_chemical_formula_moiety
;
(C9 H3 O6 Zn1 1-)n,n(C2 H8 N1 1+),n(C3 H7 N1 O1)
;
_journal_coden_Cambridge 1077
_journal_volume 19
_journal_year 2005
_journal_page_first 694
_journal_name_full 'Appl.Organomet.Chem. '
loop_
_publ_author_name
"Xiao-Jun Zhao"
"Jun Tao"
_chemical_name_systematic
;
catena-(dimethylammonium (\m~4~-benzene-1,3,5-tricarboxylato)-zinc 
dimethylformamide clathrate)
;
_cell_volume   1754.335
_exptl_crystal_colour 'colorless'
_exptl_crystal_density_diffrn 1.483
_exptl_crystal_description 'block'
_diffrn_ambient_temperature 296
#These two values have been output from a single CSD field.
_refine_ls_R_factor_gt 0.0398
_refine_ls_wR_factor_gt 0.0398
_symmetry_cell_setting monoclinic
_symmetry_space_group_name_H-M 'P 21/n'
_symmetry_Int_Tables_number 14
loop_
_symmetry_equiv_pos_site_id
_symmetry_equiv_pos_as_xyz
1 x,y,z
2 1/2-x,1/2+y,1/2-z
3 -x,-y,-z
4 -1/2+x,-1/2-y,-1/2+z
_cell_length_a 9.4469(4)
_cell_length_b 16.2456(7)
_cell_length_c 11.5176(8)
_cell_angle_alpha 90
_cell_angle_beta 97.027(1)
_cell_angle_gamma 90
_cell_formula_units_Z 4
loop_
_atom_type_symbol
_atom_type_radius_bond
C 0.68
H 0.23
N 0.68
O 0.68
Zn 1.45
loop_
_atom_site_label
_atom_site_type_symbol
_atom_site_fract_x
_atom_site_fract_y
_atom_site_fract_z
Zn1 Zn 0.63648(2) 0.079717(15) 0.45311(2)
O1 O 0.69815(19) -0.02020(12) 0.53983(18)
O2 O 0.54171(18) -0.06762(11) 0.65253(15)
O3 O 0.6902(2) -0.30761(19) 0.9054(3)
O4 O 0.9186(2) -0.33276(12) 0.94914(18)
O5 O 1.2620(2) -0.20310(14) 0.7124(2)
O6 O 1.20336(19) -0.08156(9) 0.63582(16)
C1 C 0.9928(3) -0.21475(15) 0.7944(2)
H1 H 1.06430 -0.24820 0.83160
C2 C 0.8534(3) -0.22491(16) 0.8175(2)
C3 C 1.0263(2) -0.15522(14) 0.7166(2)
C4 C 1.1755(2) -0.14735(15) 0.6869(2)
C5 C 0.7795(2) -0.11448(15) 0.6844(2)
C6 C 0.9190(2) -0.10488(15) 0.6623(2)
H2 H 0.94140 -0.06430 0.61050
C7 C 0.8150(3) -0.29253(18) 0.8977(3)
C8 C 0.7468(2) -0.17439(15) 0.7628(2)
H3 H 0.65320 -0.18070 0.77870
C9 C 0.6638(2) -0.06281(15) 0.6209(2)
O7 O 1.2889(6) 0.0247(3) 0.9479(5)
N1 N 1.3736(5) -0.0958(3) 1.0211(4)
C10 C 1.4366(9) -0.1740(4) 0.9982(6)
H4 H 1.43200 -0.18210 0.91520
H5 H 1.38550 -0.21730 1.03150
H6 H 1.53450 -0.17460 1.03250
C11 C 1.3671(11) -0.0738(4) 1.1384(6)
H7 H 1.32260 -0.02080 1.14140
H8 H 1.46190 -0.07150 1.17930
H9 H 1.31240 -0.11400 1.17470
C12 C 1.3400(7) -0.0448(4) 0.9344(6)
H10 H 1.35480 -0.06110 0.85940
N2 N 1.3585(8) -0.3581(3) 0.7093(5)
H11 H 1.33080 -0.30510 0.70940
H12 H 1.28900 -0.38560 0.66490
C13 C 1.4778(7) -0.3608(5) 0.6498(8)
H13 H 1.45240 -0.34220 0.57090
H14 H 1.51260 -0.41630 0.64910
H15 H 1.55080 -0.32570 0.68840
C14 C 1.3581(7) -0.3864(3) 0.8221(6)
H16 H 1.26330 -0.38280 0.84360
H17 H 1.42150 -0.35350 0.87450
H18 H 1.38910 -0.44270 0.82660
Zn1B Zn 0.36352(2) -0.079717(15) 0.54689(2)
Zn1A Zn 0.86352(2) -0.420283(15) 1.04689(2)
Zn1B* Zn 1.36352(2) -0.079717(15) 0.54689(2)
O2B O 0.45829(18) 0.06762(11) 0.34747(15)
O4A O 0.5814(2) 0.16724(12) 0.55086(18)
O6B O 0.79664(19) 0.08156(9) 0.36418(16)
#END
