
#######################################################################
#
#                 Cambridge Crystallographic Data Centre
#                                CCDC
#
#######################################################################
#
# If this CIF has been generated from an entry in the Cambridge
# Structural Database, then it will include bibliographic, chemical,
# crystal, experimental, refinement or atomic coordinate data resulting
# from the CCDC's data processing and validation procedures.
#
#######################################################################

data_CSD_CIF_NANYUX04
_audit_creation_date 2020-07-11
_audit_creation_method CSD-ConQuest-V1
_database_code_CSD NANYUX04
_database_code_depnum_ccdc_archive 'CCDC 1539458'
_chemical_formula_sum 'C14 H18 N2 O7 Zn1'
_chemical_formula_moiety
;
(C9 H3 O6 Zn1 1-)n,C3 H7 N1 O1,C2 H8 N1 1+
;
_journal_coden_Cambridge 119
_journal_volume 1223
_journal_year 2020
_journal_page_first 128871
_journal_name_full 'J.Mol.Struct. '
loop_
_publ_author_name
"Deng Linxin"
"Li Song"
_chemical_name_systematic
;
catena-[dimethylammonium (\m-benzene-1,3,5-tricarboxylato)-zinc 
N,N-dimethylformamide solvate]
;
_cell_volume   1795.696
_exptl_crystal_density_diffrn 1.449
_diffrn_ambient_temperature 298
#These two values have been output from a single CSD field.
_refine_ls_R_factor_gt 0.0456
_refine_ls_wR_factor_gt 0.0456
_symmetry_cell_setting monoclinic
_symmetry_space_group_name_H-M 'P 21/n'
_symmetry_Int_Tables_number 14
loop_
_symmetry_equiv_pos_site_id
_symmetry_equiv_pos_as_xyz
1 x,y,z
2 1/2-x,1/2+y,1/2-z
3 -x,-y,-z
4 -1/2+x,-1/2-y,-1/2+z
_cell_length_a 9.5077(5)
_cell_length_b 16.3950(16)
_cell_length_c 11.6119(9)
_cell_angle_alpha 90
_cell_angle_beta 97.220(1)
_cell_angle_gamma 90
_cell_formula_units_Z 4
loop_
_atom_type_symbol
_atom_type_radius_bond
C 0.68
H 0.23
N 0.68
O 0.68
Zn 1.22
loop_
_atom_site_label
_atom_site_type_symbol
_atom_site_fract_x
_atom_site_fract_y
_atom_site_fract_z
Zn1 Zn 0.36389(4) 0.42021(3) 0.54690(4)
O1 O 0.5420(3) 0.43250(16) 0.6525(2)
O2 O 0.6987(3) 0.48063(19) 0.5401(3)
O3 O 0.9191(3) 0.16711(19) 0.9492(3)
O4 O 0.6910(4) 0.1933(3) 0.9071(4)
O5 O 1.2039(3) 0.41816(16) 0.6353(2)
O6 O 1.2625(3) 0.2970(2) 0.7132(3)
C1 C 0.6646(4) 0.4375(2) 0.6211(3)
C2 C 0.8167(5) 0.2075(3) 0.8978(4)
C3 C 1.1760(4) 0.3525(3) 0.6868(3)
C4 C 0.7799(4) 0.3856(2) 0.6850(3)
C5 C 0.7480(4) 0.3262(2) 0.7634(3)
H1 H 0.65520 0.32040 0.77980
C6 C 0.8538(4) 0.2753(3) 0.8176(4)
C7 C 0.9919(4) 0.2857(3) 0.7943(3)
H2 H 1.06270 0.25230 0.83130
C8 C 1.0272(4) 0.3445(2) 0.7173(3)
C9 C 0.9198(4) 0.3949(2) 0.6625(3)
H3 H 0.94200 0.43490 0.61080
N1 N 0.6260(7) 0.5959(3) 0.9799(5)
O7 O 0.7101(8) 0.4754(4) 1.0538(6)
C10 C 0.6608(10) 0.5451(6) 1.0658(8)
H4 H 0.64790 0.56190 1.14020
C11 C 0.6355(12) 0.5740(5) 0.8631(8)
H5 H 0.68710 0.52380 0.86120
H6 H 0.68400 0.61630 0.82640
H7 H 0.54190 0.56720 0.82240
C12 C 0.5644(11) 0.6728(5) 1.0014(8)
H8 H 0.47100 0.67600 0.95920
H9 H 0.62200 0.71580 0.97640
H10 H 0.55860 0.67840 1.08290
N2 N 0.8541(10) 0.3603(4) 0.2079(7)
H11 H 0.78860 0.39080 0.16490
H12 H 0.82180 0.30870 0.20490
C13 C 0.9806(9) 0.3620(6) 0.1527(10)
H13 H 1.02890 0.41290 0.16960
H14 H 0.95620 0.35660 0.07030
H15 H 1.04130 0.31780 0.18130
C14 C 0.8602(9) 0.3871(5) 0.3246(8)
H16 H 0.92010 0.35110 0.37420
H17 H 0.76660 0.38690 0.34730
H18 H 0.89810 0.44140 0.33120
Zn1* Zn 1.36389(4) 0.42021(3) 0.54690(4)
Zn1B Zn 0.63611(4) 0.57979(3) 0.45310(4)
Zn1C Zn 0.86389(4) 0.07979(3) 1.04690(4)
O2B O 0.3013(3) 0.51937(19) 0.4599(3)
O3C O 0.4191(3) 0.33289(19) 0.4492(3)
O5* O 0.2039(3) 0.41816(16) 0.6353(2)
#END
