
#######################################################################
#
#                 Cambridge Crystallographic Data Centre
#                                CCDC
#
#######################################################################
#
# If this CIF has been generated from an entry in the Cambridge
# Structural Database, then it will include bibliographic, chemical,
# crystal, experimental, refinement or atomic coordinate data resulting
# from the CCDC's data processing and validation procedures.
#
#######################################################################

data_CSD_CIF_NANYUX
_audit_creation_date 2005-09-27
_audit_creation_method CSD-ConQuest-V1
_database_code_CSD NANYUX
_database_code_depnum_ccdc_archive 'CCDC 258251'
_chemical_formula_sum 'C14 H18 N2 O7 Zn1'
_chemical_formula_moiety
;
(C2 H8 N1 1+)n,n(C9 H3 O6 Zn1 1-),n(C3 H7 N1 O1)
;
_journal_coden_Cambridge 182
_journal_year 2005
_journal_page_first 2402
_journal_name_full 'Chem.Commun. '
loop_
_publ_author_name
"Linhua Xie"
"Shuxia Liu"
"Bo Gao"
"Chundan Zhang"
"Chunyan Sun"
"Dehui Li"
"Zhongmin Su"
_chemical_name_systematic
;
catena-(Dimethylammonium (\m~4~-benzene-1,3,5-tricarboxylato)-zinc 
dimethylformamide solvate)
;
_cell_volume   1651.903
_exptl_crystal_colour 'colorless'
_exptl_crystal_density_diffrn 1.575
_exptl_crystal_description 'block'
_diffrn_ambient_temperature 188
_refine_special_details
;
The solvent molecule is disordered over two sites with occupancies 
0.634:0.366.
;
#These two values have been output from a single CSD field.
_refine_ls_R_factor_gt 0.0462
_refine_ls_wR_factor_gt 0.0462
_symmetry_cell_setting monoclinic
_symmetry_space_group_name_H-M 'P 21/n'
_symmetry_Int_Tables_number 14
loop_
_symmetry_equiv_pos_site_id
_symmetry_equiv_pos_as_xyz
1 x,y,z
2 1/2-x,1/2+y,1/2-z
3 -x,-y,-z
4 -1/2+x,-1/2-y,-1/2+z
_cell_length_a 9.4550(6)
_cell_length_b 16.0074(11)
_cell_length_c 11.0347(7)
_cell_angle_alpha 90
_cell_angle_beta 98.466(1)
_cell_angle_gamma 90
_cell_formula_units_Z 4
loop_
_atom_type_symbol
_atom_type_radius_bond
C 0.68
H 0.23
N 0.68
O 0.68
Zn 1.45
loop_
_atom_site_label
_atom_site_type_symbol
_atom_site_fract_x
_atom_site_fract_y
_atom_site_fract_z
Zn1 Zn 0.13113(3) 0.07995(2) -0.06871(3)
O1 O 0.2030(2) -0.00498(17) 0.0554(2)
O2 O 0.0457(2) -0.04746(15) 0.1747(2)
O3 O 0.7056(2) -0.06788(13) 0.1548(2)
O4 O 0.7823(2) -0.16975(15) 0.2853(2)
O5 O 0.4233(3) -0.32157(15) 0.4863(2)
O6 O 0.2132(3) -0.2625(2) 0.4978(3)
C1 C 0.1696(3) -0.0443(2) 0.1446(3)
C2 C 0.6867(3) -0.12329(19) 0.2337(3)
C3 C 0.3282(4) -0.2652(2) 0.4589(3)
C4 C 0.2861(3) -0.09330(18) 0.2202(3)
C5 C 0.4269(3) -0.08377(19) 0.1982(3)
C6 C 0.5361(3) -0.13127(18) 0.2614(3)
C7 C 0.5037(3) -0.18917(19) 0.3475(3)
C8 C 0.3640(3) -0.1991(2) 0.3707(3)
C9 C 0.2548(3) -0.15034(19) 0.3072(3)
H1 H 0.446(4) -0.047(2) 0.139(3)
H2 H 0.585(4) -0.223(3) 0.396(4)
H3 H 0.162(4) -0.158(2) 0.323(3)
N1 N 0.1597(5) 0.3346(2) -0.2707(4)
C10 C 0.1023(6) 0.3572(3) -0.3994(5)
H4 H 0.08460 0.41620 -0.40470
H5 H 0.01460 0.32760 -0.42440
H6 H 0.17070 0.34240 -0.45200
C11 C 0.2993(6) 0.3733(3) -0.2295(5)
H7 H 0.36670 0.35520 -0.28120
H8 H 0.33240 0.35710 -0.14640
H9 H 0.29010 0.43300 -0.23390
H10 H 0.089(4) 0.345(3) -0.225(4)
H11 H 0.180(5) 0.270(3) -0.264(4)
O7 O 0.0182(4) 0.5925(2) -0.8744(4)
N2 N 0.2458(5) 0.5900(3) -0.9147(5)
C12 C 0.1121(7) 0.5545(5) -0.9249(7)
C13 C 0.2804(14) 0.6628(6) -0.8448(11)
C14 C 0.3556(9) 0.5394(6) -0.9635(8)
O8? O 0.0182(4) 0.5925(2) -0.8744(4)
N3? N 0.2458(5) 0.5900(3) -0.9147(5)
C15? C 0.1355(15) 0.6351(10) -0.8627(14)
C16? C 0.344(2) 0.6653(10) -0.899(2)
C17? C 0.264(3) 0.5174(11) -0.985(2)
Zn1B Zn -0.13113(3) -0.07995(2) 0.06871(3)
Zn1B* Zn 0.86887(3) -0.07995(2) 0.06871(3)
Zn1A Zn 0.36887(3) -0.42005(2) 0.56871(3)
O2B O -0.0457(2) 0.04746(15) -0.1747(2)
O3B O 0.2944(2) 0.06788(13) -0.1548(2)
O5A O 0.0767(3) 0.17843(15) 0.0137(2)
#END
