
#######################################################################
#
#                 Cambridge Crystallographic Data Centre
#                                CCDC
#
#######################################################################
#
# If this CIF has been generated from an entry in the Cambridge
# Structural Database, then it will include bibliographic, chemical,
# crystal, experimental, refinement or atomic coordinate data resulting
# from the CCDC's data processing and validation procedures.
#
#######################################################################

data_CSD_CIF_NANYUX02
_audit_creation_date 2012-09-04
_audit_creation_method CSD-ConQuest-V1
_database_code_CSD NANYUX02
_database_code_depnum_ccdc_archive 'CCDC 761990'
_chemical_formula_sum 'C14 H18 N2 O7 Zn1'
_chemical_formula_moiety
;
(C9 H3 O6 Zn1 1-)n,n(C2 H8 N1 1+),n(C3 H7 N1 O1)
;
_journal_coden_Cambridge 1487
_journal_volume 53
_journal_year 2010
_journal_page_first 2144
_journal_name_full 'Sci.China.Chem. '
loop_
_publ_author_name
"LinHua Xie"
"JianBin Lin"
"XiaoMin Liu"
"Wei Xue"
"WeiXiong Zhang"
"ShuXia Liu"
"JiePeng Zhang"
"XiaoMing Chen"
_chemical_name_systematic
;
catena-(dimethylammonium (\m~4~-benzene-1,3,5-tricarboxylato)-zinc 
N,N-dimethylformamide solvate)
;
_cell_volume   1771.385
_exptl_crystal_colour 'colorless'
_exptl_crystal_density_diffrn 1.469
_exptl_crystal_description 'block'
_diffrn_ambient_temperature 295
_refine_special_details
;
C10,C11,N1 and C10',C11',N1' disordered over two sites with occupancies 
0.749:0.251.
;
#These two values have been output from a single CSD field.
_refine_ls_R_factor_gt 0.0334
_refine_ls_wR_factor_gt 0.0334
_symmetry_cell_setting monoclinic
_symmetry_space_group_name_H-M 'P 21/n'
_symmetry_Int_Tables_number 14
loop_
_symmetry_equiv_pos_site_id
_symmetry_equiv_pos_as_xyz
1 x,y,z
2 1/2-x,1/2+y,1/2-z
3 -x,-y,-z
4 -1/2+x,-1/2-y,-1/2+z
_cell_length_a 9.4801(9)
_cell_length_b 16.3027(16)
_cell_length_c 11.5510(11)
_cell_angle_alpha 90
_cell_angle_beta 97.138(2)
_cell_angle_gamma 90
_cell_formula_units_Z 4
loop_
_atom_type_symbol
_atom_type_radius_bond
C 0.68
H 0.23
N 0.68
O 0.68
Zn 1.22
loop_
_atom_site_label
_atom_site_type_symbol
_atom_site_fract_x
_atom_site_fract_y
_atom_site_fract_z
Zn1 Zn -0.36373(2) 0.079722(14) 0.45291(2)
O1 O -0.20355(17) 0.08134(9) 0.36372(15)
O2 O -0.26279(19) 0.20285(12) 0.28722(19)
O3 O 0.0808(2) 0.33260(12) 0.05056(18)
O4 O 0.3093(2) 0.30703(17) 0.0936(2)
O5 O 0.45800(17) 0.06736(10) 0.34683(15)
O6 O 0.30166(19) 0.01976(11) 0.45998(17)
C1 C -0.1759(2) 0.14730(14) 0.3130(2)
C2 C 0.1844(3) 0.29223(17) 0.1023(2)
C3 C 0.3361(2) 0.06276(14) 0.3784(2)
C4 C -0.0265(2) 0.15501(14) 0.2829(2)
C5 C 0.0077(3) 0.21466(15) 0.2052(2)
H1 H -0.06350 0.24820 0.16830
C6 C 0.1464(3) 0.22488(15) 0.1821(2)
C7 C 0.2527(2) 0.17438(14) 0.2368(2)
H2 H 0.34600 0.18060 0.22100
C8 C 0.2200(2) 0.11456(14) 0.3151(2)
C9 C 0.0807(2) 0.10507(14) 0.3376(2)
H3 H 0.05870 0.06500 0.38970
N1 N 0.6557(7) 0.3609(3) 0.2968(5)
H4 H 0.71790 0.39460 0.33830
H5 H 0.69270 0.31000 0.30220
C10 C 0.5229(7) 0.3608(4) 0.3497(7)
H6 H 0.48550 0.41550 0.34950
H7 H 0.54100 0.34130 0.42860
H8 H 0.45500 0.32550 0.30570
C11 C 0.6409(7) 0.3861(3) 0.1762(5)
H9 H 0.57770 0.34920 0.13040
H10 H 0.73230 0.38520 0.14860
H11 H 0.60270 0.44070 0.16950
N2 N 0.6257(4) 0.0955(2) 0.9799(3)
O7 O 0.7097(5) -0.0250(2) 1.0543(4)
C12 C 0.6604(6) 0.0444(3) 1.0657(5)
H12 H 0.64730 0.06130 1.14050
C13 C 0.5628(8) 0.1733(3) 1.0018(5)
H13 H 0.55920 0.17950 1.08410
H14 H 0.46810 0.17570 0.96120
H15 H 0.61890 0.21660 0.97480
C14 C 0.6353(10) 0.0746(4) 0.8626(5)
H16 H 0.67160 0.01980 0.85890
H17 H 0.69830 0.11210 0.83060
H18 H 0.54280 0.07770 0.81850
C15? C 0.5229(7) 0.3608(4) 0.3497(7)
C16? C 0.6409(7) 0.3861(3) 0.1762(5)
H19? H 0.48710 0.31710 0.20540
H20? H 0.62050 0.29090 0.26810
H21? H 0.60130 0.38580 0.39750
H22? H 0.48880 0.31490 0.39030
H23? H 0.44780 0.40020 0.33310
H24? H 0.59130 0.43710 0.16180
H25? H 0.64640 0.35850 0.10350
H26? H 0.73510 0.39650 0.21420
N3? N 0.5654(17) 0.3352(8) 0.2502(12)
Zn1B Zn 0.36373(2) -0.079722(14) 0.54709(2)
Zn1* Zn 0.63627(2) 0.079722(14) 0.45291(2)
Zn1C Zn 0.13627(2) 0.420278(14) -0.04709(2)
O3C O -0.4192(2) 0.16740(12) 0.55056(18)
O5* O -0.54200(17) 0.06736(10) 0.34683(15)
O6B O -0.30166(19) -0.01976(11) 0.54002(17)
#END
