
#######################################################################
#
#                 Cambridge Crystallographic Data Centre
#                                CCDC
#
#######################################################################
#
# If this CIF has been generated from an entry in the Cambridge
# Structural Database, then it will include bibliographic, chemical,
# crystal, experimental, refinement or atomic coordinate data resulting
# from the CCDC's data processing and validation procedures.
#
#######################################################################

data_CSD_CIF_NAQQED
_audit_creation_date 2012-03-29
_audit_creation_method CSD-ConQuest-V1
_database_code_CSD NAQQED
_database_code_depnum_ccdc_archive 'CCDC 808295'
_chemical_formula_sum 'C28 H44 N4 O72 Si1 Tm4 W12'
_chemical_formula_moiety
;
(C28 H36 N4 O28 Tm4 4+)n,n(O40 Si1 W12 4-),4n(H2 O1)
;
_journal_coden_Cambridge 1290
_journal_year 2011
_journal_page_first 5397
_journal_name_full 'Eur.J.Inorg.Chem. '
loop_
_publ_author_name
"Suzhi Li"
"Dongdi Zhang"
"Yuanyuan Guo"
"Pengtao Ma"
"Junwei Zhao"
"Jingping Wang"
"Jingyang Niu"
_chemical_name_systematic
;
catena-(tetrakis(\m~3~-Pyridine-2,6-dicarboxylato-N,O,O',O'',O''')-dodeca-aqua
-tetra-thulium(iii) 
(\m~12~-silicato)-tetracosakis(\m~2~-oxo)-dodecaoxo-dodeca-tungsten 
tetrahydrate)
;
_cell_volume   7637.729
_exptl_crystal_colour 'colorless'
_exptl_crystal_density_diffrn 3.884
_exptl_crystal_description 'block'
_diffrn_ambient_temperature 296
#These two values have been output from a single CSD field.
_refine_ls_R_factor_gt 0.032
_refine_ls_wR_factor_gt 0.032
_symmetry_cell_setting tetragonal
_symmetry_space_group_name_H-M 'I 41/a'
_symmetry_Int_Tables_number 88
loop_
_symmetry_equiv_pos_site_id
_symmetry_equiv_pos_as_xyz
1 x,y,z
2 3/4-y,1/4+x,1/4+z
3 1/2-x,-y,1/2+z
4 3/4+y,3/4-x,3/4+z
5 1/2+x,1/2+y,1/2+z
6 1/4-y,3/4+x,3/4+z
7 -x,1/2-y,z
8 1/4+y,1/4-x,1/4+z
9 -x,-y,-z
10 -3/4+y,-1/4-x,-1/4-z
11 -1/2+x,y,-1/2-z
12 -3/4-y,-3/4+x,-3/4-z
13 -1/2-x,-1/2-y,-1/2-z
14 -1/4+y,-3/4-x,-3/4-z
15 x,-1/2+y,-z
16 -1/4-y,-1/4+x,-1/4-z
_cell_length_a 21.751(3)
_cell_length_b 21.751(3)
_cell_length_c 16.1438(15)
_cell_angle_alpha 90
_cell_angle_beta 90
_cell_angle_gamma 90
_cell_formula_units_Z 4
loop_
_atom_type_symbol
_atom_type_radius_bond
C 0.68
H 0.23
N 0.68
O 0.68
Si 1.20
Tm 1.90
W 1.40
loop_
_atom_site_label
_atom_site_type_symbol
_atom_site_fract_x
_atom_site_fract_y
_atom_site_fract_z
Tm1 Tm 0.11795(2) 0.08566(2) 0.12396(3)
O1 O 0.2238(4) 0.0734(3) 0.1536(4)
O2 O 0.2555(4) 0.1112(3) 0.2744(4)
O3 O 0.4403(4) 0.1159(4) 0.3677(4)
O4 O 0.5248(4) 0.0822(4) 0.3027(4)
O5 O 0.1124(4) -0.0098(4) 0.1880(5)
O6 O 0.1329(4) 0.1208(4) 0.2602(4)
O7 O 0.0389(4) 0.1017(5) 0.0299(5)
N1 N 0.3688(4) 0.0799(4) 0.2477(5)
C1 C 0.2642(5) 0.0846(5) 0.2051(7)
C2 C 0.3293(5) 0.0634(5) 0.1886(6)
C3 C 0.3470(6) 0.0308(6) 0.1212(7)
H1 H 0.31910 0.02010 0.08000
C4 C 0.4081(6) 0.0140(5) 0.1159(7)
H2 H 0.42140 -0.00950 0.07110
C5 C 0.4486(5) 0.0308(6) 0.1739(7)
H3 H 0.48990 0.01970 0.16990
C6 C 0.4276(5) 0.0646(5) 0.2391(6)
C7 C 0.4687(6) 0.0894(6) 0.3074(7)
W1 W 0.06902(2) 0.39516(2) 0.61714(3)
W2 W 0.10722(2) 0.29420(2) 0.46994(3)
W3 W -0.03268(2) 0.35805(2) 0.47034(3)
Si1 Si 0.00000 0.25000 0.62500
O8 O 0.1005(4) 0.4644(4) 0.6396(4)
O9 O 0.1634(4) 0.2968(4) 0.3959(4)
O10 O -0.0670(4) 0.4046(4) 0.3979(4)
O11 O 0.0030(4) 0.3948(3) 0.6951(4)
O12 O 0.1106(4) 0.3429(3) 0.6939(4)
O13 O 0.0127(4) 0.4193(3) 0.5318(4)
O14 O 0.1240(3) 0.3667(3) 0.5317(4)
O15 O 0.0424(4) 0.3374(4) 0.4162(4)
O16 O 0.0653(3) 0.2191(4) 0.4429(4)
O17 O 0.0261(3) 0.3044(3) 0.5671(4)
O18 O 0.1871(5) 0.0312(6) 0.4397(6)
Tm1E Tm 0.16434(2) -0.13205(2) -0.12604(3)
Tm1J Tm -0.38205(2) 0.08566(2) 0.37604(3)
Tm1G Tm 0.33566(2) 0.13205(2) 0.37396(3)
Tm1J* Tm 0.61795(2) 0.08566(2) 0.37604(3)
Tm1K Tm 0.16434(2) 0.36795(2) 0.12604(3)
Tm1M Tm -0.16434(2) 0.13205(2) 0.12604(3)
Tm1H Tm -0.11795(2) -0.08566(2) -0.12396(3)
Tm1C Tm -0.16434(2) -0.36795(2) -0.12604(3)
O1E O 0.1766(4) -0.0262(3) -0.0964(4)
O1J O -0.2762(4) 0.0734(3) 0.3464(4)
O1G O 0.3234(4) 0.0262(3) 0.4036(4)
O1M O -0.1766(4) 0.0262(3) 0.0964(4)
O2E O 0.1388(4) 0.0055(3) 0.0244(4)
O2J O -0.2445(4) 0.1112(3) 0.2256(4)
O2B O 0.2445(4) -0.1112(3) -0.2256(4)
O2M O -0.1388(4) -0.0055(3) -0.0244(4)
O3E O 0.1341(4) 0.1903(4) 0.1177(4)
O3J O -0.0597(4) 0.1159(4) 0.1323(4)
O3B O 0.0597(4) -0.1159(4) -0.1323(4)
O3M O -0.1341(4) -0.1903(4) -0.1177(4)
O4E O 0.1678(4) 0.2748(4) 0.0527(4)
O4J O 0.0248(4) 0.0822(4) 0.1973(4)
O4K O 0.1678(4) -0.2252(4) -0.0527(4)
O4I O 0.3322(4) 0.2252(4) 0.4473(4)
O4C O -0.1678(4) 0.2252(4) 0.0527(4)
O4M O -0.1678(4) -0.2748(4) -0.0527(4)
O5E O 0.2598(4) -0.1376(4) -0.0620(5)
O5G O 0.2402(4) 0.1376(4) 0.4380(5)
O5M O -0.2598(4) 0.1376(4) 0.0620(5)
O6E O 0.1292(4) -0.1171(4) 0.0102(4)
O6G O 0.3708(4) 0.1171(4) 0.5102(4)
O6M O -0.1292(4) 0.1171(4) -0.0102(4)
O7E O 0.1483(4) -0.2111(5) -0.2201(5)
O7G O 0.3517(4) 0.2111(5) 0.2799(5)
O7M O -0.1483(4) 0.2111(5) 0.2201(5)
N1E N 0.1701(4) 0.1188(4) -0.0023(5)
N1J N -0.1312(4) 0.0799(4) 0.2523(5)
N1B N 0.1312(4) -0.0799(4) -0.2523(5)
N1M N -0.1701(4) -0.1188(4) 0.0023(5)
C1E C 0.1654(5) 0.0142(5) -0.0449(7)
C1J C -0.2358(5) 0.0846(5) 0.2949(7)
C1M C -0.1654(5) -0.0142(5) 0.0449(7)
C2E C 0.1866(5) 0.0793(5) -0.0614(6)
C2J C -0.1707(5) 0.0634(5) 0.3114(6)
C2M C -0.1866(5) -0.0793(5) 0.0614(6)
C3E C 0.2192(6) 0.0970(6) -0.1288(7)
C3J C -0.1530(6) 0.0308(6) 0.3788(7)
C3M C -0.2192(6) -0.0970(6) 0.1288(7)
H1E H 0.22990 0.06910 -0.17000
H1J H -0.18090 0.02010 0.42000
H1M H -0.22990 -0.06910 0.17000
C4E C 0.2360(6) 0.1581(5) -0.1341(7)
C4J C -0.0919(6) 0.0140(5) 0.3841(7)
C4M C -0.2360(6) -0.1581(5) 0.1341(7)
H2E H 0.25950 0.17140 -0.17890
H2J H -0.07860 -0.00950 0.42890
H2M H -0.25950 -0.17140 0.17890
C5E C 0.2192(5) 0.1986(6) -0.0761(7)
C5J C -0.0514(5) 0.0308(6) 0.3261(7)
C5M C -0.2192(5) -0.1986(6) 0.0761(7)
H3E H 0.23030 0.23990 -0.08010
H3J H -0.01010 0.01970 0.33010
H3M H -0.23030 -0.23990 0.08010
C6E C 0.1854(5) 0.1776(5) -0.0109(6)
C6J C -0.0724(5) 0.0646(5) 0.2609(6)
C6M C -0.1854(5) -0.1776(5) 0.0109(6)
C7E C 0.1606(6) 0.2187(6) 0.0574(7)
C7J C -0.0313(6) 0.0894(6) 0.1926(7)
C7M C -0.1606(6) -0.2187(6) -0.0574(7)
W1F W -0.06902(2) 0.10484(2) 0.61714(3)
W1K W -0.14516(2) 0.31902(2) 0.63286(3)
W1M W 0.14516(2) 0.18098(2) 0.63286(3)
W2F W -0.10722(2) 0.20580(2) 0.46994(3)
W2K W -0.04420(2) 0.35722(2) 0.78006(3)
W2M W 0.04420(2) 0.14278(2) 0.78006(3)
W3F W 0.03268(2) 0.14195(2) 0.47034(3)
W3K W -0.10805(2) 0.21732(2) 0.77966(3)
W3M W 0.10805(2) 0.28268(2) 0.77966(3)
O8F O -0.1005(4) 0.0356(4) 0.6396(4)
O8K O -0.2144(4) 0.3505(4) 0.6104(4)
O8M O 0.2144(4) 0.1495(4) 0.6104(4)
O9F O -0.1634(4) 0.2032(4) 0.3959(4)
O9K O -0.0468(4) 0.4134(4) 0.8541(4)
O9M O 0.0468(4) 0.0866(4) 0.8541(4)
O10F O 0.0670(4) 0.0954(4) 0.3979(4)
O10K O -0.1546(4) 0.1830(4) 0.8521(4)
O10M O 0.1546(4) 0.3170(4) 0.8521(4)
O11M O 0.1448(4) 0.2470(3) 0.5549(4)
O11F O -0.0030(4) 0.1052(3) 0.6951(4)
O11K O -0.1448(4) 0.2530(3) 0.5549(4)
O12K O -0.0929(4) 0.3606(3) 0.5561(4)
O12F O -0.1106(4) 0.1571(3) 0.6939(4)
O12M O 0.0929(4) 0.1394(3) 0.5561(4)
O13F O -0.0127(4) 0.0807(3) 0.5318(4)
O13K O -0.1693(4) 0.2627(3) 0.7182(4)
O13M O 0.1693(4) 0.2373(3) 0.7182(4)
O14F O -0.1240(3) 0.1333(3) 0.5317(4)
O14K O -0.1167(3) 0.3740(3) 0.7183(4)
O14M O 0.1167(3) 0.1260(3) 0.7183(4)
O15F O -0.0424(4) 0.1626(4) 0.4162(4)
O15K O -0.0874(4) 0.2924(4) 0.8338(4)
O15M O 0.0874(4) 0.2076(4) 0.8338(4)
O16F O -0.0653(3) 0.2809(4) 0.4429(4)
O16K O 0.0309(3) 0.3153(4) 0.8071(4)
O16M O -0.0309(3) 0.1847(4) 0.8071(4)
O17F O -0.0261(3) 0.1956(3) 0.5671(4)
O17K O -0.0544(3) 0.2761(3) 0.6829(4)
O17M O 0.0544(3) 0.2239(3) 0.6829(4)
#END
