
#######################################################################
#
#                 Cambridge Crystallographic Data Centre
#                                CCDC
#
#######################################################################
#
# If this CIF has been generated from an entry in the Cambridge
# Structural Database, then it will include bibliographic, chemical,
# crystal, experimental, refinement or atomic coordinate data resulting
# from the CCDC's data processing and validation procedures.
#
#######################################################################

data_CSD_CIF_NAQQUT
_audit_creation_date 2012-03-29
_audit_creation_method CSD-ConQuest-V1
_database_code_CSD NAQQUT
_database_code_depnum_ccdc_archive 'CCDC 808298'
_chemical_formula_sum 'C28 H52 La4 N4 O76 Si1 W12'
_chemical_formula_moiety
;
(C28 H44 La4 N4 O32 4+)n,n(O40 Si1 W12 4-),4n(H2 O1)
;
_journal_coden_Cambridge 1290
_journal_year 2011
_journal_page_first 5397
_journal_name_full 'Eur.J.Inorg.Chem. '
loop_
_publ_author_name
"Suzhi Li"
"Dongdi Zhang"
"Yuanyuan Guo"
"Pengtao Ma"
"Junwei Zhao"
"Jingping Wang"
"Jingyang Niu"
_chemical_name_systematic
;
catena-(tetrakis(\m~3~-Pyridine-2,6-dicarboxylato-N,O,O',O'',O''')-hexadeca-aq
ua-tetra-lanthanum(iii) 
(\m~12~-silicato)-tetracosakis(\m~2~-oxo)-dodecaoxo-dodeca-tungsten 
tetrahydrate)
;
_cell_volume   8043.090
_exptl_crystal_colour 'colorless'
_exptl_crystal_density_diffrn 3.642
_exptl_crystal_description 'block'
_diffrn_ambient_temperature 296
#These two values have been output from a single CSD field.
_refine_ls_R_factor_gt 0.0247
_refine_ls_wR_factor_gt 0.0247
_symmetry_cell_setting tetragonal
_symmetry_space_group_name_H-M 'I 41/a'
_symmetry_Int_Tables_number 88
loop_
_symmetry_equiv_pos_site_id
_symmetry_equiv_pos_as_xyz
1 x,y,z
2 1/2-x,-y,1/2+z
3 3/4-y,1/4+x,1/4+z
4 3/4+y,3/4-x,3/4+z
5 1/2+x,1/2+y,1/2+z
6 -x,1/2-y,z
7 1/4-y,3/4+x,3/4+z
8 1/4+y,1/4-x,1/4+z
9 -x,-y,-z
10 -1/2+x,y,-1/2-z
11 -3/4+y,-1/4-x,-1/4-z
12 -3/4-y,-3/4+x,-3/4-z
13 -1/2-x,-1/2-y,-1/2-z
14 x,-1/2+y,-z
15 -1/4+y,-3/4-x,-3/4-z
16 -1/4-y,-1/4+x,-1/4-z
_cell_length_a 21.9285(8)
_cell_length_b 21.9285(8)
_cell_length_c 16.7265(12)
_cell_angle_alpha 90
_cell_angle_beta 90
_cell_angle_gamma 90
_cell_formula_units_Z 4
loop_
_atom_type_symbol
_atom_type_radius_bond
C 0.68
H 0.23
La 2.07
N 0.68
O 0.68
Si 1.20
W 1.40
loop_
_atom_site_label
_atom_site_type_symbol
_atom_site_fract_x
_atom_site_fract_y
_atom_site_fract_z
La1 La 1.322150(18) 0.358017(16) -0.13644(2)
O1 O 1.2485(2) 0.38900(19) -0.2445(2)
O2 O 1.2213(2) 0.43140(18) -0.3599(3)
O3 O 1.5153(3) 0.4242(2) -0.2013(3)
O4 O 1.4334(3) 0.3850(2) -0.1433(3)
O5 O 1.3721(3) 0.2720(2) -0.2189(3)
O6 O 1.3605(3) 0.3771(2) 0.0046(3)
O7 O 1.2231(3) 0.3797(3) -0.0548(4)
O8 O 1.2376(3) 0.2762(3) -0.1732(4)
N1 N 1.3629(2) 0.4172(2) -0.2640(3)
C1 C 1.4216(3) 0.4333(3) -0.2690(4)
C2 C 1.4442(3) 0.4670(3) -0.3318(4)
H1 H 1.48530 0.47750 -0.33360
C3 C 1.4054(3) 0.4850(3) -0.3919(4)
H2 H 1.41970 0.50790 -0.43470
C4 C 1.3443(3) 0.4681(3) -0.3873(4)
H3 H 1.31700 0.47880 -0.42760
C5 C 1.3252(2) 0.4353(2) -0.3221(3)
C6 C 1.2600(3) 0.4171(3) -0.3094(4)
C7 C 1.4596(3) 0.4127(3) -0.1999(4)
Si1 Si 1.00000 0.75000 -0.12500
W1 W 0.964094(11) 0.642930(11) 0.023964(15)
W2 W 1.104791(11) 0.703104(11) 0.023523(15)
W3 W 1.064630(11) 0.603199(11) -0.117116(15)
O9 O 0.9290(2) 0.59925(19) 0.0941(3)
O10 O 1.1608(2) 0.6985(2) 0.0936(3)
O11 O 1.0957(2) 0.53404(18) -0.1395(3)
O12 O 1.03927(19) 0.66201(17) 0.0773(2)
O13 O 1.11919(17) 0.62974(17) -0.0352(2)
O14 O 1.00816(18) 0.58197(17) -0.0347(2)
O15 O 0.93443(18) 0.72149(17) 0.0510(2)
O16 O 1.14323(17) 0.74861(17) -0.0582(2)
O17 O 0.90441(17) 0.64376(18) -0.0591(2)
O18 O 1.02449(16) 0.69503(16) -0.0689(2)
O19 O 1.1844(7) 0.4739(9) -0.0664(11)
O20 O 1.50000 0.25000 -0.2796(6)
La1B La 1.391983(18) 0.572150(16) 0.11356(2)
La1O La 1.391983(18) 0.072150(16) -0.11356(2)
La1C La 1.108017(18) 0.427850(16) -0.38644(2)
La1J La 1.608017(18) 0.427850(16) -0.11356(2)
La1M La 1.322150(18) 0.858017(16) 0.13644(2)
La1M* La 1.322150(18) -0.141983(16) 0.13644(2)
La1A La 1.177850(18) 0.641983(16) 0.36356(2)
La1K La 0.891983(18) 0.572150(16) 0.38644(2)
O1B O 1.3610(2) 0.49850(19) 0.0055(2)
O1O O 1.3610(2) -0.00150(19) -0.0055(2)
O1A O 1.2515(2) 0.61100(19) 0.2555(2)
O1C O 1.1390(2) 0.50150(19) -0.4945(2)
O2B O 1.3186(2) 0.47130(18) -0.1099(3)
O2O O 1.3186(2) -0.02870(18) 0.1099(3)
O2A O 1.2787(2) 0.56860(18) 0.1401(3)
O2L O 1.2787(2) 0.06860(18) -0.1401(3)
O3B O 1.3258(3) 0.7653(2) 0.0487(3)
O3O O 1.3258(3) 0.2653(2) -0.0487(3)
O3A O 0.9847(3) 0.5758(2) 0.2987(3)
O3H O 1.4847(3) 0.5758(2) 0.2013(3)
O3E O 1.4847(3) 0.0758(2) -0.2013(3)
O3I O 1.0153(3) 0.4242(2) -0.2987(3)
O4B O 1.3650(3) 0.6834(2) 0.1067(3)
O4O O 1.3650(3) 0.1834(2) -0.1067(3)
O4A O 1.0666(3) 0.6150(2) 0.3567(3)
O4C O 1.1350(3) 0.3166(2) -0.3933(3)
O5B O 1.4780(3) 0.6221(2) 0.0311(3)
O5O O 1.4780(3) 0.1221(2) -0.0311(3)
O5C O 1.0220(3) 0.3779(2) -0.4689(3)
O6B O 1.3729(3) 0.6105(2) 0.2546(3)
O6O O 1.3729(3) 0.1105(2) -0.2546(3)
O6C O 1.1271(3) 0.3895(2) -0.2454(3)
O7B O 1.3703(3) 0.4731(3) 0.1952(4)
O7O O 1.3703(3) -0.0269(3) -0.1952(4)
O7C O 1.1297(3) 0.5269(3) -0.3048(4)
O8B O 1.4738(3) 0.4876(3) 0.0768(4)
O8O O 1.4738(3) -0.0124(3) -0.0768(4)
O8C O 1.0262(3) 0.5124(3) -0.4232(4)
N1B N 1.3328(2) 0.6129(2) -0.0140(3)
N1O N 1.3328(2) 0.1129(2) 0.0140(3)
N1A N 1.1371(2) 0.5828(2) 0.2360(3)
N1C N 1.1672(2) 0.3871(2) -0.5140(3)
C1B C 1.3167(3) 0.6716(3) -0.0190(4)
C1O C 1.3167(3) 0.1716(3) 0.0190(4)
C1A C 1.0784(3) 0.5667(3) 0.2310(4)
C2B C 1.2830(3) 0.6942(3) -0.0818(4)
C2O C 1.2830(3) 0.1942(3) 0.0818(4)
C2A C 1.0558(3) 0.5330(3) 0.1682(4)
H1B H 1.27250 0.73530 -0.08360
H1O H 1.27250 0.23530 0.08360
H1A H 1.01470 0.52250 0.16640
C3B C 1.2650(3) 0.6554(3) -0.1419(4)
C3O C 1.2650(3) 0.1554(3) 0.1419(4)
C3A C 1.0946(3) 0.5150(3) 0.1081(4)
H2B H 1.24210 0.66970 -0.18470
H2O H 1.24210 0.16970 0.18470
H2A H 1.08030 0.49210 0.06530
C4B C 1.2819(3) 0.5943(3) -0.1373(4)
C4O C 1.2819(3) 0.0943(3) 0.1373(4)
C4A C 1.1557(3) 0.5319(3) 0.1127(4)
H3B H 1.27120 0.56700 -0.17760
H3O H 1.27120 0.06700 0.17760
H3A H 1.18300 0.52120 0.07240
C5B C 1.3147(2) 0.5752(2) -0.0721(3)
C5O C 1.3147(2) 0.0752(2) 0.0721(3)
C5A C 1.1748(2) 0.5647(2) 0.1779(3)
C6B C 1.3329(3) 0.5100(3) -0.0594(4)
C6O C 1.3329(3) 0.0100(3) 0.0594(4)
C6A C 1.2400(3) 0.5829(3) 0.1906(4)
C7B C 1.3373(3) 0.7096(3) 0.0501(4)
C7O C 1.3373(3) 0.2096(3) -0.0501(4)
C7A C 1.0404(3) 0.5873(3) 0.3001(4)
W1E W 1.035906(11) 0.857070(11) 0.023964(15)
W1J W 0.892930(11) 0.785906(11) -0.273964(15)
W1O W 1.107070(11) 0.714094(11) -0.273964(15)
W2E W 0.895209(11) 0.796896(11) 0.023523(15)
W2J W 0.953104(11) 0.645209(11) -0.273523(15)
W2O W 1.046896(11) 0.854791(11) -0.273523(15)
W3J W 0.853199(11) 0.685370(11) -0.132884(15)
W3E W 0.935370(11) 0.896801(11) -0.117116(15)
W3O W 1.146801(11) 0.814630(11) -0.132884(15)
O9E O 1.0710(2) 0.90075(19) 0.0941(3)
O9J O 0.84925(20) 0.82100(19) -0.3441(3)
O9O O 1.15075(20) 0.67900(19) -0.3441(3)
O10E O 0.8392(2) 0.8015(2) 0.0936(3)
O10J O 0.9485(2) 0.5892(2) -0.3436(3)
O10O O 1.0515(2) 0.9108(2) -0.3436(3)
O11J O 0.78404(20) 0.65430(18) -0.1105(3)
O11E O 0.9043(2) 0.96596(18) -0.1395(3)
O11O O 1.21596(20) 0.84570(18) -0.1105(3)
O12E O 0.96073(19) 0.83799(17) 0.0773(2)
O12J O 0.91201(19) 0.71073(17) -0.3273(2)
O12O O 1.08799(19) 0.78927(17) -0.3273(2)
O13E O 0.88081(17) 0.87026(17) -0.0352(2)
O13J O 0.87974(17) 0.63081(17) -0.2148(2)
O13O O 1.12026(17) 0.86919(17) -0.2148(2)
O14E O 0.99184(18) 0.91803(17) -0.0347(2)
O14J O 0.83197(18) 0.74184(17) -0.2153(2)
O14O O 1.16803(18) 0.75816(17) -0.2153(2)
O15E O 1.06557(18) 0.77851(17) 0.0510(2)
O15J O 0.97149(18) 0.81557(17) -0.3010(2)
O15O O 1.02851(18) 0.68443(17) -0.3010(2)
O16J O 0.99861(17) 0.60677(17) -0.1918(2)
O16E O 0.85677(17) 0.75139(17) -0.0582(2)
O16O O 1.00139(17) 0.89323(17) -0.1918(2)
O17O O 1.10624(17) 0.65441(18) -0.1909(2)
O17E O 1.09559(17) 0.85624(18) -0.0591(2)
O17J O 0.89376(17) 0.84559(18) -0.1909(2)
O18E O 0.97551(16) 0.80497(16) -0.0689(2)
O18J O 0.94503(16) 0.72551(16) -0.1811(2)
O18O O 1.05497(16) 0.77449(16) -0.1811(2)
#END
