
#######################################################################
#
#                 Cambridge Crystallographic Data Centre
#                                CCDC
#
#######################################################################
#
# If this CIF has been generated from an entry in the Cambridge
# Structural Database, then it will include bibliographic, chemical,
# crystal, experimental, refinement or atomic coordinate data resulting
# from the CCDC's data processing and validation procedures.
#
#######################################################################

data_CSD_CIF_NAQQIH
_audit_creation_date 2012-03-29
_audit_creation_method CSD-ConQuest-V1
_database_code_CSD NAQQIH
_database_code_depnum_ccdc_archive 'CCDC 808296'
_chemical_formula_sum 'C28 H44 N4 O72 Si1 W12 Y4'
_chemical_formula_moiety
;
(C28 H36 N4 O28 Y4 4+)n,n(O40 Si1 W12 4-),4n(H2 O1)
;
_journal_coden_Cambridge 1290
_journal_year 2011
_journal_page_first 5397
_journal_name_full 'Eur.J.Inorg.Chem. '
loop_
_publ_author_name
"Suzhi Li"
"Dongdi Zhang"
"Yuanyuan Guo"
"Pengtao Ma"
"Junwei Zhao"
"Jingping Wang"
"Jingyang Niu"
_chemical_name_systematic
;
catena-(tetrakis(\m~3~-Pyridine-2,6-dicarboxylato-N,O,O',O'',O''')-dodeca-aqua
-tetra-yttrium(iii) 
(\m~12~-silicato)-tetracosakis(\m~2~-oxo)-dodecaoxo-dodeca-tungsten 
tetrahydrate)
;
_cell_volume   7708.199
_exptl_crystal_colour 'colorless'
_exptl_crystal_density_diffrn 3.601
_exptl_crystal_description 'block'
_diffrn_ambient_temperature 296
#These two values have been output from a single CSD field.
_refine_ls_R_factor_gt 0.0489
_refine_ls_wR_factor_gt 0.0489
_symmetry_cell_setting tetragonal
_symmetry_space_group_name_H-M 'I 41/a'
_symmetry_Int_Tables_number 88
loop_
_symmetry_equiv_pos_site_id
_symmetry_equiv_pos_as_xyz
1 x,y,z
2 1/2-x,-y,1/2+z
3 3/4-y,1/4+x,1/4+z
4 3/4+y,3/4-x,3/4+z
5 1/2+x,1/2+y,1/2+z
6 -x,1/2-y,z
7 1/4-y,3/4+x,3/4+z
8 1/4+y,1/4-x,1/4+z
9 -x,-y,-z
10 -1/2+x,y,-1/2-z
11 -3/4+y,-1/4-x,-1/4-z
12 -3/4-y,-3/4+x,-3/4-z
13 -1/2-x,-1/2-y,-1/2-z
14 x,-1/2+y,-z
15 -1/4+y,-3/4-x,-3/4-z
16 -1/4-y,-1/4+x,-1/4-z
_cell_length_a 21.8154(9)
_cell_length_b 21.8154(9)
_cell_length_c 16.1967(12)
_cell_angle_alpha 90
_cell_angle_beta 90
_cell_angle_gamma 90
_cell_formula_units_Z 4
loop_
_atom_type_symbol
_atom_type_radius_bond
C 0.68
H 0.23
N 0.68
O 0.68
Si 1.20
W 1.34
Y 1.90
loop_
_atom_site_label
_atom_site_type_symbol
_atom_site_fract_x
_atom_site_fract_y
_atom_site_fract_z
Y1 Y 1.33502(7) 0.36759(6) -0.12623(8)
O1 O 1.2547(5) 0.3894(5) -0.2255(6)
O2 O 1.2238(5) 0.4275(5) -0.3462(6)
O3 O 1.5241(6) 0.4199(5) -0.1959(7)
O4 O 1.4419(6) 0.3857(5) -0.1328(7)
O5 O 1.3500(8) 0.2880(6) -0.2223(8)
O6 O 1.3705(5) 0.3831(5) 0.0106(7)
O7 O 1.2388(6) 0.3627(6) -0.0625(7)
N1 N 1.3686(5) 0.4202(5) -0.2526(7)
C1 C 1.4272(7) 0.4350(8) -0.2612(9)
C2 C 1.4492(7) 0.4692(7) -0.3288(9)
H1 H 1.49040 0.47940 -0.33410
C3 C 1.4064(7) 0.4868(7) -0.3867(9)
H2 H 1.41870 0.51060 -0.43130
C4 C 1.3450(8) 0.4697(8) -0.3798(10)
H3 H 1.31630 0.48000 -0.42000
C5 C 1.3292(7) 0.4370(7) -0.3111(9)
C6 C 1.2646(7) 0.4162(7) -0.2955(9)
C7 C 1.4675(7) 0.4123(7) -0.1923(9)
Si1 Si 1.00000 0.75000 -0.12500
W1 W 0.96737(3) 0.64206(3) 0.02915(3)
W2 W 1.10686(3) 0.70571(3) 0.02962(3)
W3 W 1.06872(3) 0.60509(3) -0.11694(3)
O8 O 0.9336(5) 0.5959(5) 0.1002(6)
O9 O 1.1626(5) 0.7028(5) 0.1039(6)
O10 O 1.1002(5) 0.5348(5) -0.1405(6)
O11 O 1.0426(4) 0.6629(5) 0.0831(6)
O12 O 1.1234(5) 0.6327(4) -0.0311(6)
O13 O 1.0122(5) 0.5816(5) -0.0323(6)
O14 O 0.9348(4) 0.7198(4) 0.0570(6)
O15 O 1.1439(4) 0.7526(5) -0.0561(6)
O16 O 0.9076(4) 0.6398(4) -0.0576(6)
O17 O 1.0261(4) 0.6956(4) -0.0676(6)
O18 O 1.1857(7) 0.4672(7) -0.0617(10)
Y1B Y 1.38241(7) 0.58502(6) 0.12377(8)
Y1O Y 1.38241(7) 0.08502(6) -0.12377(8)
Y1C Y 1.11759(7) 0.41498(6) -0.37623(8)
Y1J Y 1.61759(7) 0.41498(6) -0.12377(8)
Y1M Y 1.33502(7) 0.86759(6) 0.12623(8)
Y1M* Y 1.33502(7) -0.13241(6) 0.12623(8)
Y1A Y 1.16498(7) 0.63241(6) 0.37377(8)
Y1K Y 0.88241(7) 0.58502(6) 0.37623(8)
O1B O 1.3606(5) 0.5047(5) 0.0245(6)
O1O O 1.3606(5) 0.0047(5) -0.0245(6)
O1A O 1.2453(5) 0.6106(5) 0.2745(6)
O1C O 1.1394(5) 0.4953(5) -0.4755(6)
O2B O 1.3225(5) 0.4738(5) -0.0962(6)
O2O O 1.3225(5) -0.0262(5) 0.0962(6)
O2A O 1.2762(5) 0.5725(5) 0.1538(6)
O2L O 1.2762(5) 0.0725(5) -0.1538(6)
O3B O 1.3301(6) 0.7741(5) 0.0541(7)
O3O O 1.3301(6) 0.2741(5) -0.0541(7)
O3A O 0.9759(6) 0.5801(5) 0.3041(7)
O3H O 1.4759(6) 0.5801(5) 0.1959(7)
O3E O 1.4759(6) 0.0801(5) -0.1959(7)
O3I O 1.0241(6) 0.4199(5) -0.3041(7)
O4B O 1.3643(6) 0.6919(5) 0.1172(7)
O4O O 1.3643(6) 0.1919(5) -0.1172(7)
O4A O 1.0581(6) 0.6143(5) 0.3672(7)
O4C O 1.1357(6) 0.3081(5) -0.3828(7)
O5B O 1.4620(8) 0.6000(6) 0.0277(8)
O5O O 1.4620(8) 0.1000(6) -0.0277(8)
O5C O 1.0380(8) 0.4000(6) -0.4723(8)
O6B O 1.3669(5) 0.6205(5) 0.2606(7)
O6O O 1.3669(5) 0.1205(5) -0.2606(7)
O6C O 1.1331(5) 0.3795(5) -0.2394(7)
O7B O 1.3873(6) 0.4888(6) 0.1875(7)
O7O O 1.3873(6) -0.0112(6) -0.1875(7)
O7C O 1.1127(6) 0.5112(6) -0.3125(7)
N1B N 1.3298(5) 0.6186(5) -0.0026(7)
N1O N 1.3298(5) 0.1186(5) 0.0026(7)
N1A N 1.1314(5) 0.5798(5) 0.2474(7)
N1C N 1.1702(5) 0.3814(5) -0.5026(7)
C1B C 1.3150(7) 0.6772(8) -0.0112(9)
C1O C 1.3150(7) 0.1772(8) 0.0112(9)
C1A C 1.0728(7) 0.5650(8) 0.2388(9)
C2B C 1.2808(7) 0.6992(7) -0.0788(9)
C2O C 1.2808(7) 0.1992(7) 0.0788(9)
C2A C 1.0508(7) 0.5308(7) 0.1712(9)
H1B H 1.27060 0.74040 -0.08410
H1O H 1.27060 0.24040 0.08410
H1A H 1.00960 0.52060 0.16590
C3B C 1.2632(7) 0.6564(7) -0.1367(9)
C3O C 1.2632(7) 0.1564(7) 0.1367(9)
C3A C 1.0936(7) 0.5132(7) 0.1133(9)
H2B H 1.23940 0.66870 -0.18130
H2O H 1.23940 0.16870 0.18130
H2A H 1.08130 0.48940 0.06870
C4B C 1.2803(8) 0.5950(8) -0.1298(10)
C4O C 1.2803(8) 0.0950(8) 0.1298(10)
C4A C 1.1550(8) 0.5303(8) 0.1202(10)
H3B H 1.27000 0.56630 -0.17000
H3O H 1.27000 0.06630 0.17000
H3A H 1.18370 0.52000 0.08000
C5B C 1.3130(7) 0.5792(7) -0.0611(9)
C5O C 1.3130(7) 0.0792(7) 0.0611(9)
C5A C 1.1708(7) 0.5630(7) 0.1889(9)
C6B C 1.3338(7) 0.5146(7) -0.0455(9)
C6O C 1.3338(7) 0.0146(7) 0.0455(9)
C6A C 1.2354(7) 0.5838(7) 0.2045(9)
C7B C 1.3377(7) 0.7175(7) 0.0577(9)
C7O C 1.3377(7) 0.2175(7) -0.0577(9)
C7A C 1.0325(7) 0.5877(7) 0.3077(9)
W1E W 1.03263(3) 0.85794(3) 0.02915(3)
W1J W 0.89206(3) 0.78263(3) -0.27915(3)
W1O W 1.10794(3) 0.71737(3) -0.27915(3)
W2E W 0.89314(3) 0.79429(3) 0.02962(3)
W2J W 0.95571(3) 0.64314(3) -0.27962(3)
W2O W 1.04429(3) 0.85686(3) -0.27962(3)
W3J W 0.85509(3) 0.68128(3) -0.13306(3)
W3E W 0.93128(3) 0.89491(3) -0.11694(3)
W3O W 1.14491(3) 0.81872(3) -0.13306(3)
O8E O 1.0664(5) 0.9041(5) 0.1002(6)
O8J O 0.8459(5) 0.8164(5) -0.3502(6)
O8O O 1.1541(5) 0.6836(5) -0.3502(6)
O9E O 0.8374(5) 0.7972(5) 0.1039(6)
O9J O 0.9528(5) 0.5874(5) -0.3539(6)
O9O O 1.0472(5) 0.9126(5) -0.3539(6)
O10J O 0.7848(5) 0.6498(5) -0.1095(6)
O10E O 0.8998(5) 0.9652(5) -0.1405(6)
O10O O 1.2152(5) 0.8502(5) -0.1095(6)
O11E O 0.9574(4) 0.8371(5) 0.0831(6)
O11J O 0.9129(4) 0.7074(5) -0.3331(6)
O11O O 1.0871(4) 0.7926(5) -0.3331(6)
O12E O 0.8766(5) 0.8673(4) -0.0311(6)
O12J O 0.8827(5) 0.6266(4) -0.2189(6)
O12O O 1.1173(5) 0.8734(4) -0.2189(6)
O13E O 0.9878(5) 0.9184(5) -0.0323(6)
O13J O 0.8316(5) 0.7378(5) -0.2177(6)
O13O O 1.1684(5) 0.7622(5) -0.2177(6)
O14E O 1.0652(4) 0.7802(4) 0.0570(6)
O14J O 0.9698(4) 0.8152(4) -0.3070(6)
O14O O 1.0302(4) 0.6848(4) -0.3070(6)
O15J O 1.0026(4) 0.6061(5) -0.1939(6)
O15E O 0.8561(4) 0.7474(5) -0.0561(6)
O15O O 0.9974(4) 0.8939(5) -0.1939(6)
O16O O 1.1102(4) 0.6576(4) -0.1924(6)
O16E O 1.0924(4) 0.8602(4) -0.0576(6)
O16J O 0.8898(4) 0.8424(4) -0.1924(6)
O17E O 0.9739(4) 0.8044(4) -0.0676(6)
O17J O 0.9456(4) 0.7239(4) -0.1824(6)
O17O O 1.0544(4) 0.7761(4) -0.1824(6)
#END
