
#######################################################################
#
#                 Cambridge Crystallographic Data Centre
#                                CCDC
#
#######################################################################
#
# If this CIF has been generated from an entry in the Cambridge
# Structural Database, then it will include bibliographic, chemical,
# crystal, experimental, refinement or atomic coordinate data resulting
# from the CCDC's data processing and validation procedures.
#
#######################################################################

data_CSD_CIF_NAQRAA
_audit_creation_date 2012-03-29
_audit_creation_method CSD-ConQuest-V1
_database_code_CSD NAQRAA
_database_code_depnum_ccdc_archive 'CCDC 808299'
_chemical_formula_sum 'C28 H52 N4 O76 Si1 Sm4 W12'
_chemical_formula_moiety
;
(C28 H44 N4 O32 Sm4 4+)n,n(O40 Si1 W12 4-),4n(H2 O1)
;
_journal_coden_Cambridge 1290
_journal_year 2011
_journal_page_first 5397
_journal_name_full 'Eur.J.Inorg.Chem. '
loop_
_publ_author_name
"Suzhi Li"
"Dongdi Zhang"
"Yuanyuan Guo"
"Pengtao Ma"
"Junwei Zhao"
"Jingping Wang"
"Jingyang Niu"
_chemical_name_systematic
;
catena-(tetrakis(\m~3~-Pyridine-2,6-dicarboxylato-N,O,O',O'',O''')-hexadeca-aq
ua-tetra-samarium(iii) 
(\m~12~-silicato)-tetracosakis(\m~2~-oxo)-dodecaoxo-dodeca-tungsten 
tetrahydrate)
;
_cell_volume   7744.840
_exptl_crystal_colour 'yellow'
_exptl_crystal_density_diffrn 3.822
_exptl_crystal_description 'block'
_diffrn_ambient_temperature 296
#These two values have been output from a single CSD field.
_refine_ls_R_factor_gt 0.0311
_refine_ls_wR_factor_gt 0.0311
_symmetry_cell_setting tetragonal
_symmetry_space_group_name_H-M 'I 41/a'
_symmetry_Int_Tables_number 88
loop_
_symmetry_equiv_pos_site_id
_symmetry_equiv_pos_as_xyz
1 x,y,z
2 1/2-x,-y,1/2+z
3 3/4-y,1/4+x,1/4+z
4 3/4+y,3/4-x,3/4+z
5 1/2+x,1/2+y,1/2+z
6 -x,1/2-y,z
7 1/4-y,3/4+x,3/4+z
8 1/4+y,1/4-x,1/4+z
9 -x,-y,-z
10 -1/2+x,y,-1/2-z
11 -3/4+y,-1/4-x,-1/4-z
12 -3/4-y,-3/4+x,-3/4-z
13 -1/2-x,-1/2-y,-1/2-z
14 x,-1/2+y,-z
15 -1/4+y,-3/4-x,-3/4-z
16 -1/4-y,-1/4+x,-1/4-z
_cell_length_a 21.685(5)
_cell_length_b 21.685(5)
_cell_length_c 16.470(7)
_cell_angle_alpha 90
_cell_angle_beta 90
_cell_angle_gamma 90
_cell_formula_units_Z 4
loop_
_atom_type_symbol
_atom_type_radius_bond
C 0.68
H 0.23
N 0.68
O 0.68
Si 1.20
Sm 1.98
W 1.40
loop_
_atom_site_label
_atom_site_type_symbol
_atom_site_fract_x
_atom_site_fract_y
_atom_site_fract_z
Si1 Si 0.00000 0.75000 -0.12500
W1 W 0.03091(2) 0.64063(2) 0.02654(3)
W2 W 0.144760(19) 0.67743(2) -0.13277(3)
W3 W 0.10808(2) 0.79178(2) 0.02659(3)
O1 O 0.0633(4) 0.5939(4) 0.0988(5)
O2 O 0.2135(3) 0.6438(4) -0.1095(5)
O3 O 0.1641(4) 0.7942(4) 0.0989(5)
O4 O 0.0905(3) 0.6385(3) -0.0574(4)
O5 O 0.1453(3) 0.7438(3) -0.0560(4)
O6 O 0.0649(3) 0.7179(3) 0.0545(4)
O7 O -0.0434(3) 0.6633(3) 0.0807(4)
O8 O -0.0163(3) 0.5811(3) -0.0341(4)
O9 O 0.1143(3) 0.6243(3) -0.2171(4)
O10 O -0.0274(3) 0.6957(3) -0.0683(4)
Sm1 Sm -0.17274(3) 0.63680(3) 0.36747(3)
O11 O -0.2498(3) 0.6109(4) 0.2646(4)
O12 O -0.2784(3) 0.5686(4) 0.1456(4)
O13 O -0.0652(4) 0.6110(4) 0.3655(5)
O14 O 0.0186(4) 0.5708(5) 0.3051(5)
O15 O -0.2728(5) 0.6300(6) 0.4374(6)
O16 O -0.1417(6) 0.7195(5) 0.2776(7)
O17 O -0.1395(5) 0.6225(3) 0.5083(5)
O18 O -0.2573(7) 0.7194(7) 0.3231(9)
N1 N -0.1354(4) 0.5798(4) 0.2421(5)
C1 C -0.2387(5) 0.5829(5) 0.1982(7)
C2 C -0.1742(5) 0.5628(4) 0.1825(6)
C3 C -0.1538(5) 0.5311(5) 0.1162(6)
H1 H -0.18070 0.52150 0.07420
C4 C -0.0930(5) 0.5134(5) 0.1121(7)
H2 H -0.07920 0.49040 0.06800
C5 C -0.0528(5) 0.5295(5) 0.1721(7)
H3 H -0.01160 0.51770 0.17010
C6 C -0.0755(4) 0.5637(5) 0.2354(6)
C7 C -0.0370(5) 0.5826(6) 0.3067(8)
O19 O 0.00000 0.75000 0.2357(11)
O20 O -0.3151(13) 0.5345(13) 0.4431(17)
W1E W -0.03091(2) 0.85937(2) 0.02654(3)
W1J W -0.10937(2) 0.71909(2) -0.27654(3)
W1O W 0.10937(2) 0.78091(2) -0.27654(3)
W2J W -0.072570(19) 0.60524(2) -0.11723(3)
W2O W 0.072570(19) 0.89476(2) -0.11723(3)
W2E W -0.144760(19) 0.82257(2) -0.13277(3)
W3E W -0.10808(2) 0.70822(2) 0.02659(3)
W3O W -0.04178(2) 0.85808(2) -0.27659(3)
W3J W 0.04178(2) 0.64192(2) -0.27659(3)
O1E O -0.0633(4) 0.9061(4) 0.0988(5)
O1J O -0.1561(4) 0.6867(4) -0.3488(5)
O1O O 0.1561(4) 0.8133(4) -0.3488(5)
O2J O -0.1062(3) 0.5365(4) -0.1405(5)
O2O O 0.1062(3) 0.9635(4) -0.1405(5)
O2E O -0.2135(3) 0.8562(4) -0.1095(5)
O3E O -0.1641(4) 0.7058(4) 0.0989(5)
O3O O -0.0442(4) 0.9141(4) -0.3489(5)
O3J O 0.0442(4) 0.5859(4) -0.3489(5)
O4E O -0.0905(3) 0.8615(3) -0.0574(4)
O4J O -0.1115(3) 0.6595(3) -0.1926(4)
O4O O 0.1115(3) 0.8405(3) -0.1926(4)
O5J O -0.0062(3) 0.6047(3) -0.1940(4)
O5O O 0.0062(3) 0.8953(3) -0.1940(4)
O5E O -0.1453(3) 0.7562(3) -0.0560(4)
O6E O -0.0649(3) 0.7821(3) 0.0545(4)
O6J O -0.0321(3) 0.6851(3) -0.3045(4)
O6O O 0.0321(3) 0.8149(3) -0.3045(4)
O7E O 0.0434(3) 0.8367(3) 0.0807(4)
O7J O -0.0867(3) 0.7934(3) -0.3307(4)
O7O O 0.0867(3) 0.7066(3) -0.3307(4)
O8O O 0.1689(3) 0.7337(3) -0.2159(4)
O8E O 0.0163(3) 0.9189(3) -0.0341(4)
O8J O -0.1689(3) 0.7663(3) -0.2159(4)
O9O O 0.1257(3) 0.8643(3) -0.0329(4)
O9J O -0.1257(3) 0.6357(3) -0.0329(4)
O9E O -0.1143(3) 0.8757(3) -0.2171(4)
O10E O 0.0274(3) 0.8043(3) -0.0683(4)
O10J O -0.0543(3) 0.7774(3) -0.1817(4)
O10O O 0.0543(3) 0.7226(3) -0.1817(4)
Sm1G Sm -0.11320(3) 0.42274(3) 0.61747(3)
Sm1J Sm -0.11320(3) 0.92274(3) 0.38253(3)
Sm1F Sm -0.38680(3) 0.57726(3) 0.11747(3)
Sm1O Sm 0.11320(3) 0.57726(3) 0.38253(3)
Sm1M Sm -0.17274(3) 0.13680(3) 0.63253(3)
Sm1M* Sm -0.17274(3) 1.13680(3) 0.63253(3)
Sm1A Sm -0.32726(3) 0.36320(3) 0.86747(3)
Sm1N Sm -0.61320(3) 0.42274(3) 0.88253(3)
O11G O -0.1391(3) 0.4998(4) 0.5146(4)
O11J O -0.1391(3) 0.9998(4) 0.4854(4)
O11A O -0.2502(3) 0.3891(4) 0.7646(4)
O11F O -0.3609(3) 0.5002(4) 0.0146(4)
O12G O -0.1814(3) 0.5284(4) 0.3956(4)
O12J O -0.1814(3) 1.0284(4) 0.6044(4)
O12A O -0.2216(3) 0.4314(4) 0.6456(4)
O12L O -0.2216(3) 0.9314(4) 0.3544(4)
O13G O -0.1390(4) 0.3152(4) 0.6155(5)
O13J O -0.1390(4) 0.8152(4) 0.3845(5)
O13A O -0.4348(4) 0.3890(4) 0.8655(5)
O13F O -0.3610(4) 0.6848(4) 0.1155(5)
O14G O -0.1792(4) 0.2314(5) 0.5551(5)
O14J O -0.1792(4) 0.7314(5) 0.4449(5)
O14A O -0.5186(4) 0.4292(5) 0.8051(5)
O14H O -0.0186(4) 0.4292(5) 0.6949(5)
O14E O -0.0186(4) 0.9292(5) 0.3051(5)
O14I O -0.4814(4) 0.5708(5) 0.1949(5)
O15G O -0.1200(5) 0.5228(6) 0.6874(6)
O15J O -0.1200(5) 1.0228(6) 0.3126(6)
O15F O -0.3800(5) 0.4772(6) 0.1874(6)
O16G O -0.0305(6) 0.3917(5) 0.5276(7)
O16J O -0.0305(6) 0.8917(5) 0.4724(7)
O16F O -0.4695(6) 0.6083(5) 0.0276(7)
O17G O -0.1275(5) 0.3895(3) 0.7583(5)
O17J O -0.1275(5) 0.8895(3) 0.2417(5)
O17F O -0.3725(5) 0.6105(3) 0.2583(5)
O18G O -0.0306(7) 0.5073(7) 0.5731(9)
O18J O -0.0306(7) 1.0073(7) 0.4269(9)
O18F O -0.4694(7) 0.4927(7) 0.0731(9)
N1G N -0.1702(4) 0.3854(4) 0.4921(5)
N1J N -0.1702(4) 0.8854(4) 0.5079(5)
N1A N -0.3646(4) 0.4202(4) 0.7421(5)
N1F N -0.3298(4) 0.6146(4) -0.0079(5)
C1G C -0.1671(5) 0.4887(5) 0.4482(7)
C1J C -0.1671(5) 0.9887(5) 0.5518(7)
C1A C -0.2613(5) 0.4171(5) 0.6982(7)
C2G C -0.1872(5) 0.4242(4) 0.4325(6)
C2J C -0.1872(5) 0.9242(4) 0.5675(6)
C2A C -0.3258(5) 0.4372(4) 0.6825(6)
C3G C -0.2189(5) 0.4038(5) 0.3662(6)
C3J C -0.2189(5) 0.9038(5) 0.6338(6)
C3A C -0.3462(5) 0.4689(5) 0.6162(6)
H1G H -0.22850 0.43070 0.32420
H1J H -0.22850 0.93070 0.67580
H1A H -0.31930 0.47850 0.57420
C4G C -0.2366(5) 0.3430(5) 0.3621(7)
C4J C -0.2366(5) 0.8430(5) 0.6379(7)
C4A C -0.4070(5) 0.4866(5) 0.6121(7)
H2G H -0.25960 0.32920 0.31800
H2J H -0.25960 0.82920 0.68200
H2A H -0.42080 0.50960 0.56800
C5G C -0.2205(5) 0.3028(5) 0.4221(7)
C5J C -0.2205(5) 0.8028(5) 0.5779(7)
C5A C -0.4472(5) 0.4705(5) 0.6721(7)
H3G H -0.23230 0.26160 0.42010
H3J H -0.23230 0.76160 0.57990
H3A H -0.48840 0.48230 0.67010
C6G C -0.1863(4) 0.3255(5) 0.4854(6)
C6J C -0.1863(4) 0.8255(5) 0.5146(6)
C6A C -0.4245(4) 0.4363(5) 0.7354(6)
C7G C -0.1674(5) 0.2870(6) 0.5567(8)
C7J C -0.1674(5) 0.7870(6) 0.4433(8)
C7A C -0.4630(5) 0.4174(6) 0.8067(8)
#END
