
#######################################################################
#
#                 Cambridge Crystallographic Data Centre
#                                CCDC
#
#######################################################################
#
# If this CIF has been generated from an entry in the Cambridge
# Structural Database, then it will include bibliographic, chemical,
# crystal, experimental, refinement or atomic coordinate data resulting
# from the CCDC's data processing and validation procedures.
#
#######################################################################

data_CSD_CIF_NAQREE
_audit_creation_date 2012-03-29
_audit_creation_method CSD-ConQuest-V1
_database_code_CSD NAQREE
_database_code_depnum_ccdc_archive 'CCDC 808300'
_chemical_formula_sum 'C28 H52 Eu4 N4 O76 Si1 W12'
_chemical_formula_moiety
;
(C28 H44 Eu4 N4 O32 4+)n,n(O40 Si1 W12 4-),4n(H2 O1)
;
_journal_coden_Cambridge 1290
_journal_year 2011
_journal_page_first 5397
_journal_name_full 'Eur.J.Inorg.Chem. '
loop_
_publ_author_name
"Suzhi Li"
"Dongdi Zhang"
"Yuanyuan Guo"
"Pengtao Ma"
"Junwei Zhao"
"Jingping Wang"
"Jingyang Niu"
_chemical_name_systematic
;
catena-(tetrakis(\m~3~-Pyridine-2,6-dicarboxylato-N,O,O',O'',O''')-hexadeca-aq
ua-tetra-europium(iii) 
(\m~12~-silicato)-tetracosakis(\m~2~-oxo)-dodecaoxo-dodeca-tungsten 
tetrahydrate)
;
_cell_volume   7785.919
_exptl_crystal_colour 'colorless'
_exptl_crystal_density_diffrn 3.807
_exptl_crystal_description 'block'
_diffrn_ambient_temperature 296
#These two values have been output from a single CSD field.
_refine_ls_R_factor_gt 0.03
_refine_ls_wR_factor_gt 0.03
_symmetry_cell_setting tetragonal
_symmetry_space_group_name_H-M 'I 41/a'
_symmetry_Int_Tables_number 88
loop_
_symmetry_equiv_pos_site_id
_symmetry_equiv_pos_as_xyz
1 x,y,z
2 1/2-x,-y,1/2+z
3 3/4-y,1/4+x,1/4+z
4 3/4+y,3/4-x,3/4+z
5 1/2+x,1/2+y,1/2+z
6 -x,1/2-y,z
7 1/4-y,3/4+x,3/4+z
8 1/4+y,1/4-x,1/4+z
9 -x,-y,-z
10 -1/2+x,y,-1/2-z
11 -3/4+y,-1/4-x,-1/4-z
12 -3/4-y,-3/4+x,-3/4-z
13 -1/2-x,-1/2-y,-1/2-z
14 x,-1/2+y,-z
15 -1/4+y,-3/4-x,-3/4-z
16 -1/4-y,-1/4+x,-1/4-z
_cell_length_a 21.7777(7)
_cell_length_b 21.7777(7)
_cell_length_c 16.4167(10)
_cell_angle_alpha 90
_cell_angle_beta 90
_cell_angle_gamma 90
_cell_formula_units_Z 4
loop_
_atom_type_symbol
_atom_type_radius_bond
C 0.68
H 0.23
Eu 1.98
N 0.68
O 0.68
Si 1.20
W 1.41
loop_
_atom_site_label
_atom_site_type_symbol
_atom_site_fract_x
_atom_site_fract_y
_atom_site_fract_z
Si1 Si 0.00000 0.75000 -0.12500
W1 W 0.030797(18) 0.640808(17) 0.02708(2)
W2 W 0.144489(17) 0.677726(18) -0.13295(2)
W3 W 0.107928(18) 0.791895(18) 0.02731(2)
O1 O 0.0636(3) 0.5946(3) 0.0989(4)
O2 O 0.2130(3) 0.6436(4) -0.1097(5)
O3 O 0.1641(3) 0.7941(4) 0.1003(4)
O4 O 0.0906(3) 0.6385(3) -0.0567(4)
O5 O 0.1449(3) 0.7444(3) -0.0563(4)
O6 O 0.0647(3) 0.7180(3) 0.0547(4)
O7 O -0.0437(3) 0.6630(3) 0.0816(4)
O8 O -0.0160(3) 0.5813(3) -0.0338(4)
O9 O 0.1148(3) 0.6243(3) -0.2170(4)
O10 O -0.0278(3) 0.6957(3) -0.0680(3)
Eu1 Eu -0.17092(2) 0.63587(2) 0.36874(3)
O11 O -0.2483(3) 0.6101(3) 0.2666(4)
O12 O -0.2776(3) 0.5694(3) 0.1480(4)
O13 O -0.0639(3) 0.6101(4) 0.3662(5)
O14 O 0.0197(3) 0.5718(4) 0.3054(5)
O15 O -0.2702(4) 0.6336(6) 0.4366(6)
O16 O -0.1464(6) 0.7174(5) 0.2764(7)
O17 O -0.1367(4) 0.6213(3) 0.5079(4)
O18 O -0.2524(7) 0.7202(7) 0.3174(10)
N1 N -0.1341(4) 0.5796(3) 0.2432(5)
C1 C -0.2387(4) 0.5819(4) 0.1990(6)
C2 C -0.1728(4) 0.5636(4) 0.1846(6)
C3 C -0.1536(4) 0.5312(5) 0.1171(6)
H1 H -0.18120 0.52160 0.07580
C4 C -0.0933(5) 0.5131(4) 0.1114(6)
H2 H -0.07980 0.49000 0.06720
C5 C -0.0535(5) 0.5297(4) 0.1719(6)
H3 H -0.01230 0.51850 0.16890
C6 C -0.0744(4) 0.5628(4) 0.2368(6)
C7 C -0.0360(5) 0.5820(5) 0.3064(7)
O19 O 0.00000 0.75000 0.2405(12)
O20 O -0.3164(9) 0.5336(10) 0.4412(13)
W1E W -0.030797(18) 0.859192(17) 0.02708(2)
W1J W -0.109192(18) 0.719203(17) -0.27708(2)
W1O W 0.109192(18) 0.780797(17) -0.27708(2)
W2J W -0.072274(17) 0.605511(18) -0.11705(2)
W2O W 0.072274(17) 0.894489(18) -0.11705(2)
W2E W -0.144489(17) 0.822274(18) -0.13295(2)
W3E W -0.107928(18) 0.708105(18) 0.02731(2)
W3O W -0.041895(18) 0.857928(18) -0.27731(2)
W3J W 0.041895(18) 0.642072(18) -0.27731(2)
O1E O -0.0636(3) 0.9054(3) 0.0989(4)
O1J O -0.1554(3) 0.6864(3) -0.3489(4)
O1O O 0.1554(3) 0.8136(3) -0.3489(4)
O2J O -0.1064(3) 0.5370(4) -0.1403(5)
O2O O 0.1064(3) 0.9630(4) -0.1403(5)
O2E O -0.2130(3) 0.8564(4) -0.1097(5)
O3E O -0.1641(3) 0.7059(4) 0.1003(4)
O3O O -0.0441(3) 0.9141(4) -0.3503(4)
O3J O 0.0441(3) 0.5859(4) -0.3503(4)
O4E O -0.0906(3) 0.8615(3) -0.0567(4)
O4J O -0.1115(3) 0.6594(3) -0.1933(4)
O4O O 0.1115(3) 0.8406(3) -0.1933(4)
O5J O -0.0056(3) 0.6051(3) -0.1937(4)
O5O O 0.0056(3) 0.8949(3) -0.1937(4)
O5E O -0.1449(3) 0.7556(3) -0.0563(4)
O6E O -0.0647(3) 0.7820(3) 0.0547(4)
O6J O -0.0320(3) 0.6853(3) -0.3047(4)
O6O O 0.0320(3) 0.8147(3) -0.3047(4)
O7E O 0.0437(3) 0.8370(3) 0.0816(4)
O7J O -0.0870(3) 0.7937(3) -0.3316(4)
O7O O 0.0870(3) 0.7063(3) -0.3316(4)
O8O O 0.1687(3) 0.7340(3) -0.2162(4)
O8E O 0.0160(3) 0.9187(3) -0.0338(4)
O8J O -0.1687(3) 0.7660(3) -0.2162(4)
O9O O 0.1257(3) 0.8648(3) -0.0330(4)
O9J O -0.1257(3) 0.6352(3) -0.0330(4)
O9E O -0.1148(3) 0.8757(3) -0.2170(4)
O10E O 0.0278(3) 0.8043(3) -0.0680(3)
O10J O -0.0543(3) 0.7778(3) -0.1820(3)
O10O O 0.0543(3) 0.7222(3) -0.1820(3)
Eu1G Eu -0.11413(2) 0.42092(2) 0.61874(3)
Eu1J Eu -0.11413(2) 0.92092(2) 0.38126(3)
Eu1F Eu -0.38587(2) 0.57908(2) 0.11874(3)
Eu1O Eu 0.11413(2) 0.57908(2) 0.38126(3)
Eu1M Eu -0.17092(2) 0.13587(2) 0.63126(3)
Eu1M* Eu -0.17092(2) 1.13587(2) 0.63126(3)
Eu1A Eu -0.32908(2) 0.36413(2) 0.86874(3)
Eu1N Eu -0.61413(2) 0.42092(2) 0.88126(3)
O11G O -0.1399(3) 0.4983(3) 0.5166(4)
O11J O -0.1399(3) 0.9983(3) 0.4834(4)
O11A O -0.2517(3) 0.3899(3) 0.7666(4)
O11F O -0.3601(3) 0.5017(3) 0.0166(4)
O12G O -0.1806(3) 0.5276(3) 0.3980(4)
O12J O -0.1806(3) 1.0276(3) 0.6020(4)
O12A O -0.2224(3) 0.4306(3) 0.6480(4)
O12L O -0.2224(3) 0.9306(3) 0.3520(4)
O13G O -0.1399(3) 0.3139(4) 0.6162(5)
O13J O -0.1399(3) 0.8139(4) 0.3838(5)
O13A O -0.4361(3) 0.3899(4) 0.8662(5)
O13F O -0.3601(3) 0.6861(4) 0.1162(5)
O14G O -0.1782(3) 0.2303(4) 0.5554(5)
O14J O -0.1782(3) 0.7303(4) 0.4446(5)
O14A O -0.5197(3) 0.4282(4) 0.8054(5)
O14H O -0.0197(3) 0.4282(4) 0.6946(5)
O14E O -0.0197(3) 0.9282(4) 0.3054(5)
O14I O -0.4803(3) 0.5718(4) 0.1946(5)
O15G O -0.1164(4) 0.5202(6) 0.6866(6)
O15J O -0.1164(4) 1.0202(6) 0.3134(6)
O15F O -0.3836(4) 0.4798(6) 0.1866(6)
O16G O -0.0326(6) 0.3964(5) 0.5264(7)
O16J O -0.0326(6) 0.8964(5) 0.4736(7)
O16F O -0.4674(6) 0.6036(5) 0.0264(7)
O17G O -0.1287(4) 0.3867(3) 0.7579(4)
O17J O -0.1287(4) 0.8867(3) 0.2421(4)
O17F O -0.3713(4) 0.6133(3) 0.2579(4)
O18G O -0.0298(7) 0.5024(7) 0.5674(10)
O18J O -0.0298(7) 1.0024(7) 0.4326(10)
O18F O -0.4702(7) 0.4976(7) 0.0674(10)
N1G N -0.1704(4) 0.3841(3) 0.4932(5)
N1J N -0.1704(4) 0.8841(3) 0.5068(5)
N1A N -0.3659(4) 0.4204(3) 0.7432(5)
N1F N -0.3296(4) 0.6159(3) -0.0068(5)
C1G C -0.1681(4) 0.4887(4) 0.4490(6)
C1J C -0.1681(4) 0.9887(4) 0.5510(6)
C1A C -0.2613(4) 0.4181(4) 0.6990(6)
C2G C -0.1864(4) 0.4228(4) 0.4346(6)
C2J C -0.1864(4) 0.9228(4) 0.5654(6)
C2A C -0.3272(4) 0.4364(4) 0.6846(6)
C3G C -0.2188(4) 0.4036(5) 0.3671(6)
C3J C -0.2188(4) 0.9036(5) 0.6329(6)
C3A C -0.3464(4) 0.4688(5) 0.6171(6)
H1G H -0.22840 0.43120 0.32580
H1J H -0.22840 0.93120 0.67420
H1A H -0.31880 0.47840 0.57580
C4G C -0.2369(5) 0.3433(4) 0.3614(6)
C4J C -0.2369(5) 0.8433(4) 0.6386(6)
C4A C -0.4067(5) 0.4869(4) 0.6114(6)
H2G H -0.26000 0.32980 0.31720
H2J H -0.26000 0.82980 0.68280
H2A H -0.42020 0.51000 0.56720
C5G C -0.2203(5) 0.3035(4) 0.4219(6)
C5J C -0.2203(5) 0.8035(4) 0.5781(6)
C5A C -0.4465(5) 0.4703(4) 0.6719(6)
H3G H -0.23150 0.26230 0.41890
H3J H -0.23150 0.76230 0.58110
H3A H -0.48770 0.48150 0.66890
C6G C -0.1872(4) 0.3244(4) 0.4868(6)
C6J C -0.1872(4) 0.8244(4) 0.5132(6)
C6A C -0.4256(4) 0.4372(4) 0.7368(6)
C7G C -0.1680(5) 0.2860(5) 0.5564(7)
C7J C -0.1680(5) 0.7860(5) 0.4436(7)
C7A C -0.4640(5) 0.4180(5) 0.8064(7)
#END
