
#######################################################################
#
#                 Cambridge Crystallographic Data Centre
#                                CCDC
#
#######################################################################
#
# If this CIF has been generated from an entry in the Cambridge
# Structural Database, then it will include bibliographic, chemical,
# crystal, experimental, refinement or atomic coordinate data resulting
# from the CCDC's data processing and validation procedures.
#
#######################################################################

data_CSD_CIF_NASKEZ
_audit_creation_date 2012-04-10
_audit_creation_method CSD-ConQuest-V1
_database_code_CSD NASKEZ
_database_code_depnum_ccdc_archive 'CCDC 773565 (not 773564 as published)'
_chemical_formula_sum 'C34 H54 I1 Mn2 Mo6 N4 Na3 O39'
_chemical_formula_moiety
;
(Na1 1+)2n,2n(C17 H20 Mn1 N2 O4 1+),n(H4 I1 Mo6 Na1 O26 4-),5n(H2 O1)
;
_journal_coden_Cambridge 155
_journal_volume 382
_journal_year 2012
_journal_page_first 139
_journal_name_full 'Inorg.Chim.Acta '
loop_
_publ_author_name
"Qiong Wu"
"Shi-Wei Lin"
"Yang-Guang Li"
"En-Bo Wang"
_chemical_name_systematic
;
catena-[bis(Sodium) 
bis(diaqua-(2,2'-(ethane-1,2-diylbis(nitrilomethylylidene))diphenolato)-mangan
ese) 
(\m~6~-hexaoxoiodato)-decakis(\m~2~-oxo)-diaqua-octa-oxo-hexa-molybdenum-sodiu
m pentahydrate]
;
_cell_volume   1664.295
_exptl_crystal_colour 'brown'
_exptl_crystal_density_diffrn 1.998
_exptl_crystal_description 'block'
_diffrn_ambient_temperature 296
_refine_special_details
;
O7W and O10W and O11W disordered over three sites with occupancies 
0.50:0.30:0.20.
;
#These two values have been output from a single CSD field.
_refine_ls_R_factor_gt 0.0566
_refine_ls_wR_factor_gt 0.0566
_symmetry_cell_setting triclinic
_symmetry_space_group_name_H-M 'P -1'
_symmetry_Int_Tables_number 2
loop_
_symmetry_equiv_pos_site_id
_symmetry_equiv_pos_as_xyz
1 x,y,z
2 -x,-y,-z
_cell_length_a 10.152(2)
_cell_length_b 11.931(2)
_cell_length_c 14.552(3)
_cell_angle_alpha 92.31(3)
_cell_angle_beta 105.17(3)
_cell_angle_gamma 100.69(3)
_cell_formula_units_Z 1
loop_
_atom_type_symbol
_atom_type_radius_bond
C 0.68
H 0.23
I 1.40
Mn 1.57
Mo 1.41
N 0.68
Na 1.66
O 0.68
loop_
_atom_site_label
_atom_site_type_symbol
_atom_site_fract_x
_atom_site_fract_y
_atom_site_fract_z
Mn1 Mn 0.04501(11) -0.28751(9) -0.04167(8)
Mo1 Mo 0.61033(6) -0.98866(5) 0.30629(4)
Mo2 Mo 0.33890(8) -0.80317(6) 0.55514(5)
Mo3 Mo 0.44505(7) -0.79345(5) 0.35924(4)
I1 I 0.50000 -1.00000 0.50000
O1 O 0.4220(5) -0.9894(4) 0.3693(3)
O2 O 0.5340(5) -0.8393(4) 0.5152(3)
O3 O 0.6699(5) -1.0017(4) 0.4717(3)
O4 O 0.5175(6) -0.9972(5) 0.1895(4)
O5 O 0.1790(6) -0.3913(5) 0.0523(4)
O6 O 0.4296(6) -0.8506(4) 0.6751(4)
O7 O 0.6145(5) -0.8307(4) 0.3451(4)
O8 O 0.7807(6) -0.9711(5) 0.3062(5)
O9 O 0.5072(7) -0.6509(5) 0.3934(5)
O10 O 0.2927(5) -0.8173(4) 0.4171(4)
O11 O 0.3484(6) -0.8043(5) 0.2426(4)
O12 O -0.1280(6) -0.3647(4) -0.0256(4)
O13 O 0.4097(8) -0.6596(5) 0.5765(5)
O14 O 0.1723(8) -0.8197(7) 0.5646(5)
O15 O 0.0134(6) -0.3998(5) -0.1435(4)
N1 N 0.2204(7) -0.2035(5) -0.0721(5)
N2 N 0.0717(6) -0.1789(5) 0.0737(4)
O16 O -0.0703(7) -0.1684(5) -0.1344(5)
C1 C -0.1638(8) -0.2299(6) 0.0873(6)
C2 C 0.1065(8) -0.4363(6) -0.1775(5)
C3 C 0.2079(8) -0.0982(7) 0.1089(6)
H1 H 0.28170 -0.14080 0.12800
H2 H 0.20800 -0.05020 0.16430
C4 C -0.3524(8) -0.3744(7) -0.0114(7)
H3 H -0.38640 -0.43440 -0.05960
C5 C 0.2342(9) -0.0241(7) 0.0310(6)
H4 H 0.14740 -0.00440 -0.00390
H5 H 0.29900 0.04650 0.05990
C6 C 0.2397(8) -0.3658(7) -0.1712(5)
C7 C -0.0221(8) -0.1686(6) 0.1142(6)
H6 H 0.00390 -0.11520 0.16740
C8 C -0.3949(10) -0.2484(8) 0.1077(7)
H7 H -0.45500 -0.22540 0.13970
C9 C -0.2108(8) -0.3227(6) 0.0149(5)
C10 C 0.0731(10) -0.5455(7) -0.2256(6)
H8 H -0.01250 -0.59310 -0.23040
C11 C 0.2809(8) -0.2525(7) -0.1234(6)
H9 H 0.36280 -0.20900 -0.13090
C12 C -0.4431(9) -0.3357(8) 0.0350(7)
H10 H -0.53740 -0.36970 0.01620
C13 C -0.2575(9) -0.1964(7) 0.1319(6)
H11 H -0.22530 -0.13620 0.18000
C14 C 0.1702(12) -0.5831(8) -0.2670(6)
H12 H 0.14690 -0.65550 -0.30020
C15 C 0.2973(12) -0.5162(9) -0.2597(7)
H13 H 0.36030 -0.54390 -0.28620
C16 C 0.3328(10) -0.4075(8) -0.2130(6)
H14 H 0.41910 -0.36170 -0.20920
C17 C 0.2915(11) -0.0824(7) -0.0364(8)
H15 H 0.38880 -0.08130 -0.00530
H16 H 0.28850 -0.03820 -0.09110
Na1 Na 0.50000 -0.50000 0.50000
Na2 Na 0.3199(10) -0.3161(7) 0.2426(6)
O17 O 0.2731(13) -0.5539(9) 0.2524(9)
O18 O 0.166(2) -0.1846(18) 0.3278(15)
O19 O 0.084(2) -0.1422(18) 0.4609(15)
O20 O 0.715(2) -0.5085(17) 0.5648(15)
O21? O 0.9515(16) -0.0552(13) 0.7107(11)
O22 O 0.895(3) -0.331(2) 0.6639(18)
O23 O 0.973(3) -0.166(2) 0.6981(18)
Mo1A Mo 0.38967(6) -1.01134(5) 0.69371(4)
Mo2A Mo 0.66110(8) -1.19683(6) 0.44486(5)
Mo3A Mo 0.55495(7) -1.20655(5) 0.64076(4)
O1A O 0.5780(5) -1.0106(4) 0.6307(3)
O2A O 0.4660(5) -1.1607(4) 0.4848(3)
O3A O 0.3301(5) -0.9983(4) 0.5283(3)
O4A O 0.4825(6) -1.0028(5) 0.8105(4)
O6A O 0.5704(6) -1.1494(4) 0.3249(4)
O7A O 0.3855(5) -1.1693(4) 0.6549(4)
O8A O 0.2193(6) -1.0289(5) 0.6938(5)
O9A O 0.4928(7) -0.3491(5) 0.6066(5)
O9A* O 0.4928(7) -1.3491(5) 0.6066(5)
O10A O 0.7073(5) -1.1827(4) 0.5829(4)
O11A O 0.6516(6) -1.1957(5) 0.7574(4)
O13A O 0.5903(8) -0.3404(5) 0.4235(5)
O13A* O 0.5903(8) -1.3404(5) 0.4235(5)
O14A O 0.8277(8) -1.1803(7) 0.4354(5)
Na1* Na 0.50000 -1.50000 0.50000
O20A O 0.285(2) -0.4915(17) 0.4352(15)
#END
