
#######################################################################
#
#                 Cambridge Crystallographic Data Centre
#                                CCDC
#
#######################################################################
#
# If this CIF has been generated from an entry in the Cambridge
# Structural Database, then it will include bibliographic, chemical,
# crystal, experimental, refinement or atomic coordinate data resulting
# from the CCDC's data processing and validation procedures.
#
#######################################################################

data_CSD_CIF_NATCIX
_audit_creation_date 2017-03-23
_audit_creation_method CSD-ConQuest-V1
_database_code_CSD NATCIX
_database_code_depnum_ccdc_archive 'CCDC 1539853'
_chemical_formula_sum 'C64 H132 Cu4 N8 O34'
_chemical_formula_moiety
;
(C16 Cu4 O32 8-)n,8(C6 H16 N1 1+),2(H2 O1)
;
_journal_coden_Cambridge 1078
_journal_year 2017
_journal_name_full 'CSD Communication(Private Communication) '
loop_
_publ_author_name
"Bin Zhang"
_chemical_name_systematic
;
catena-(octakis(triethylammonium) 
tetrakis(\m-oxalato)-tetrakis(oxalato)-tetra-copper dihydrate)
;
_cell_volume   8277.891
_exptl_crystal_colour 'blue'
_exptl_crystal_density_diffrn 1.454
_exptl_crystal_description 'block'
_diffrn_ambient_temperature 110
#These two values have been output from a single CSD field.
_refine_ls_R_factor_gt 0.0608
_refine_ls_wR_factor_gt 0.0608
_symmetry_cell_setting monoclinic
_symmetry_space_group_name_H-M 'P 21/c'
_symmetry_Int_Tables_number 14
loop_
_symmetry_equiv_pos_site_id
_symmetry_equiv_pos_as_xyz
1 x,y,z
2 -x,1/2+y,1/2-z
3 -x,-y,-z
4 x,-1/2-y,-1/2+z
_cell_length_a 19.721(2)
_cell_length_b 17.5790(19)
_cell_length_c 30.185(3)
_cell_angle_alpha 90
_cell_angle_beta 127.716(17)
_cell_angle_gamma 90
_cell_formula_units_Z 4
loop_
_atom_type_symbol
_atom_type_radius_bond
C 0.68
H 0.23
Cu 1.32
N 0.68
O 0.68
loop_
_atom_site_label
_atom_site_type_symbol
_atom_site_fract_x
_atom_site_fract_y
_atom_site_fract_z
C1 C 0.0119(2) 0.28135(19) 1.16159(14)
C2 C 0.0536(2) 0.21267(19) 1.15411(14)
C3 C -0.2591(2) 0.28847(19) 0.98429(13)
C4 C 0.0256(2) 0.30616(18) 1.01414(13)
C5 C -0.0300(2) 0.23645(18) 0.98039(13)
C6 C -0.0249(2) 0.21045(18) 0.83529(14)
C7 C -0.0697(2) 0.28695(19) 0.82878(14)
C8 C 0.2361(2) 0.29004(18) 0.98085(13)
C9 C 0.2505(2) 0.21459(18) 1.01340(13)
C10 C 0.5109(2) 0.29096(18) 1.15907(13)
C11 C 0.5563(2) 0.21352(19) 1.16725(14)
C12 C 0.4541(2) 0.19665(18) 0.97570(13)
C13 C 0.5157(2) 0.26258(18) 1.01219(13)
C14 C 0.4381(2) 0.29558(19) 0.83883(14)
C15 C 0.4745(2) 0.2242(2) 0.83024(14)
C16 C -0.2566(2) 0.20810(18) 1.00809(13)
O1 O 0.01818(15) 0.19347(13) 1.10365(9)
O2 O -0.05363(15) 0.30939(13) 1.11598(10)
O3 O 0.11705(15) 0.18161(14) 1.19641(10)
O4 O 0.04536(16) 0.30429(15) 1.20947(10)
O5 O -0.18566(15) 0.17625(13) 1.03902(10)
O6 O -0.18902(14) 0.31444(13) 0.99718(9)
O7 O -0.08497(14) 0.21359(13) 0.98591(9)
O8 O 0.01312(15) 0.33844(13) 1.04495(10)
O9 O -0.01818(14) 0.20697(13) 0.94756(9)
O10 O 0.07906(14) 0.32605(13) 1.00556(10)
O11 O 0.04209(14) 0.19323(12) 0.88440(9)
O12 O -0.03124(15) 0.32940(13) 0.87089(10)
O13 O -0.05599(16) 0.17112(14) 0.7930(1)
O14 O -0.13960(16) 0.29950(15) 0.78235(10)
O15 O 0.16145(14) 0.31797(12) 0.95187(9)
O16 O 0.18762(14) 0.18799(13) 1.00815(9)
O17 O 0.29856(14) 0.31695(13) 0.98613(9)
O18 O 0.32467(14) 0.18617(13) 1.04229(9)
O19 O 0.44575(14) 0.30765(12) 1.10933(9)
O20 O 0.51878(14) 0.16985(13) 1.12533(9)
O21 O 0.54019(16) 0.33082(14) 1.20073(10)
O22 O 0.62560(17) 0.20235(15) 1.21389(10)
O23 O 0.50714(14) 0.29039(13) 1.04721(9)
O24 O 0.40199(14) 0.17758(13) 0.98577(10)
O25 O 0.57054(14) 0.28352(13) 1.00672(9)
O26 O 0.46082(16) 0.16677(13) 0.94145(10)
O27 O 0.47184(14) 0.31174(13) 0.88965(9)
O28 O 0.53586(15) 0.19118(13) 0.87425(9)
O29 O 0.37939(15) 0.33118(14) 0.79701(10)
O30 O 0.44099(16) 0.20426(14) 0.78114(10)
O31 O -0.32763(15) 0.18214(13) 0.99393(9)
O32 O -0.32984(14) 0.32112(13) 0.95388(9)
Cu1 Cu -0.08238(3) 0.25652(2) 1.04859(2)
Cu2 Cu 0.07079(2) 0.26173(2) 0.94802(2)
Cu3 Cu 0.41653(2) 0.23918(2) 1.04616(2)
Cu4 Cu 0.56766(3) 0.24318(2) 0.94334(2)
C17 C -0.0807(3) 0.5321(2) 0.84332(17)
H1 H -0.13160 0.54570 0.84080
H2 H -0.04910 0.57960 0.84920
C18 C -0.1096(3) 0.4964(2) 0.78917(18)
H3 H -0.14800 0.53150 0.75820
H4 H -0.14000 0.44890 0.78340
H5 H -0.05960 0.48560 0.79050
C19 C 0.0709(3) 0.4996(2) 0.92645(18)
H6 H 0.08050 0.55180 0.94160
H7 H 0.10440 0.46420 0.95860
C20 C 0.1030(3) 0.4949(2) 0.8927(2)
H8 H 0.07420 0.53330 0.86300
H9 H 0.09100 0.44420 0.87590
H10 H 0.16500 0.50400 0.91710
C21 C -0.0474(3) 0.4788(2) 0.93159(18)
H11 H -0.00140 0.45300 0.96680
H12 H -0.05160 0.53170 0.94100
C22 C -0.1296(3) 0.4393(3) 0.9070(2)
H13 H -0.17690 0.46970 0.87610
H14 H -0.13770 0.43280 0.93570
H15 H -0.12880 0.38940 0.89300
N1 N -0.0237(2) 0.48029(18) 0.89283(14)
H16 H -0.03160 0.42760 0.87790
C23 C 0.4183(2) 0.4752(2) 0.32307(16)
H17 H 0.46350 0.47350 0.31820
H18 H 0.40620 0.42220 0.32740
C24 C 0.3387(3) 0.5082(2) 0.27124(17)
H19 H 0.32630 0.48260 0.23820
H20 H 0.34720 0.56270 0.26930
H21 H 0.29040 0.50110 0.27230
C25 C 0.5412(2) 0.4915(2) 0.42394(16)
H22 H 0.56020 0.51850 0.45860
H23 H 0.53890 0.43640 0.43000
C26 C 0.6057(2) 0.5044(2) 0.41360(18)
H24 H 0.58920 0.47520 0.38070
H25 H 0.66240 0.48780 0.44640
H26 H 0.60760 0.55860 0.40700
C27 C 0.3922(3) 0.5110(2) 0.39089(17)
H27 H 0.39620 0.45870 0.40450
H28 H 0.33260 0.51900 0.35670
C28 C 0.4114(3) 0.5669(2) 0.43510(16)
H29 H 0.41360 0.61850 0.42370
H30 H 0.46680 0.55450 0.47070
H31 H 0.36640 0.56420 0.43960
N2 N 0.45202(18) 0.51842(17) 0.37609(12)
H32 H 0.45560 0.57340 0.36930
C29 C -0.2752(2) 0.1609(2) 0.67517(17)
H33 H -0.29520 0.18040 0.69620
H34 H -0.32560 0.15740 0.63520
C30 C -0.2377(3) 0.0823(3) 0.69647(18)
H35 H -0.22510 0.05980 0.67250
H36 H -0.27890 0.05010 0.69580
H37 H -0.18460 0.08590 0.73490
C31 C -0.1668(2) 0.1849(2) 0.65950(15)
H38 H -0.13160 0.14100 0.68310
H39 H -0.12750 0.22380 0.66290
C32 C -0.2270(2) 0.1593(2) 0.59943(15)
H40 H -0.26630 0.20090 0.57630
H41 H -0.25990 0.11530 0.59660
H42 H -0.19400 0.14510 0.58630
C33 C -0.2562(3) 0.2911(2) 0.65476(17)
H43 H -0.28140 0.30970 0.67280
H44 H -0.30370 0.28240 0.61460
C34 C -0.1968(3) 0.3516(3) 0.65993(18)
H45 H -0.17890 0.33720 0.63710
H46 H -0.14620 0.35620 0.69920
H47 H -0.22700 0.40040 0.64680
N3 N -0.21116(19) 0.21716(18) 0.68117(12)
H48 H -0.16650 0.22690 0.72210
C35 C 0.1852(2) 0.4699(2) 0.44963(15)
H49 H 0.21850 0.44560 0.48700
H50 H 0.19910 0.52480 0.45510
C36 C 0.2112(3) 0.4353(2) 0.41595(17)
H51 H 0.18210 0.46220 0.38020
H52 H 0.19500 0.38140 0.40890
H53 H 0.27340 0.43990 0.43700
C37 C 0.0384(2) 0.5147(2) 0.37290(15)
H54 H 0.05170 0.50760 0.34640
H55 H 0.05440 0.56730 0.38750
C38 C -0.0571(3) 0.5036(2) 0.34202(18)
H56 H -0.08910 0.53410 0.30770
H57 H -0.07220 0.51980 0.36600
H58 H -0.07160 0.44980 0.33240
C39 C 0.0712(2) 0.4623(2) 0.46208(15)
H59 H 0.01160 0.44480 0.44310
H60 H 0.10980 0.42660 0.49310
C40 C 0.0815(3) 0.5407(2) 0.48625(16)
H61 H 0.03570 0.57400 0.45710
H62 H 0.13720 0.56180 0.49990
H63 H 0.07840 0.53710 0.51730
N4 N 0.09077(17) 0.45956(16) 0.42077(12)
H64 H 0.07530 0.40740 0.40410
C41 C 0.4598(2) 0.5110(2) 0.12170(15)
H65 H 0.44920 0.50290 0.14950
H66 H 0.44630 0.56470 0.10940
C42 C 0.5540(2) 0.4958(2) 0.14929(17)
H67 H 0.56670 0.51140 0.12390
H68 H 0.56600 0.44140 0.15750
H69 H 0.58990 0.52490 0.18420
C43 C 0.3087(2) 0.4751(2) 0.04625(15)
H70 H 0.27180 0.45370 0.00790
H71 H 0.29870 0.53070 0.04350
C44 C 0.2847(2) 0.4398(2) 0.08069(16)
H72 H 0.22360 0.44820 0.06200
H73 H 0.31850 0.46340 0.11790
H74 H 0.29640 0.38510 0.08450
C45 C 0.4179(2) 0.4624(2) 0.02907(15)
H75 H 0.47480 0.43980 0.04560
H76 H 0.37420 0.43090 -0.00350
C46 C 0.4151(3) 0.5424(2) 0.00910(16)
H77 H 0.41610 0.54000 -0.02290
H78 H 0.46500 0.57110 0.03950
H79 H 0.36250 0.56780 -0.00220
N5 N 0.40178(17) 0.46016(16) 0.07226(11)
H80 H 0.41430 0.40700 0.08710
C47 C 0.2352(2) 0.6640(2) 0.67963(17)
H81 H 0.21680 0.68870 0.70010
H82 H 0.18500 0.66190 0.63950
C48 C 0.2644(3) 0.5839(3) 0.70128(18)
H83 H 0.27400 0.55650 0.67730
H84 H 0.22030 0.55770 0.70100
H85 H 0.31790 0.58550 0.73960
C49 C 0.3468(2) 0.6716(2) 0.66526(15)
H86 H 0.37660 0.62600 0.68860
H87 H 0.39050 0.70560 0.66960
C50 C 0.2844(3) 0.6475(2) 0.60443(15)
H88 H 0.24790 0.69070 0.58180
H89 H 0.24870 0.60570 0.60110
H90 H 0.31650 0.63060 0.59110
C51 C 0.2695(3) 0.7876(2) 0.66065(17)
H91 H 0.24610 0.81150 0.67850
H92 H 0.22160 0.78120 0.62030
C52 C 0.3360(4) 0.8403(3) 0.6670(2)
H93 H 0.35050 0.82260 0.64300
H94 H 0.38770 0.84020 0.70620
H95 H 0.31280 0.89200 0.65610
N6 N 0.30471(19) 0.71172(18) 0.68610(12)
H96 H 0.34980 0.72010 0.72720
C53 C 0.3913(3) 0.3351(2) 0.68355(17)
H97 H 0.36600 0.34390 0.64380
H98 H 0.43660 0.29600 0.69840
C54 C 0.4321(3) 0.4086(2) 0.71593(19)
H99 H 0.39060 0.45020 0.69680
H100 H 0.48250 0.42020 0.71790
H101 H 0.44950 0.40290 0.75390
C55 C 0.2559(2) 0.3628(2) 0.67240(15)
H102 H 0.28450 0.40620 0.69860
H103 H 0.21600 0.33960 0.67810
C56 C 0.2045(3) 0.3926(2) 0.61298(15)
H104 H 0.17640 0.35010 0.58660
H105 H 0.24290 0.41880 0.60760
H106 H 0.16100 0.42840 0.60630
C57 C 0.2871(2) 0.2333(2) 0.65360(15)
H107 H 0.33530 0.20010 0.66390
H108 H 0.25390 0.24580 0.61330
C58 C 0.2304(3) 0.1899(2) 0.66217(17)
H109 H 0.21710 0.14000 0.64410
H110 H 0.17720 0.21830 0.64560
H111 H 0.26000 0.18310 0.70240
N7 N 0.32251(18) 0.30505(16) 0.68672(12)
H112 H 0.35210 0.29060 0.72670
C59 C 0.2184(4) 0.2802(3) 1.3342(2)
H113 H 0.17370 0.31330 1.32940
H114 H 0.26150 0.27030 1.37480
C60 C 0.2586(4) 0.3207(3) 1.3162(2)
H115 H 0.31240 0.29540 1.32970
H116 H 0.27070 0.37260 1.33110
H117 H 0.22080 0.32250 1.27520
C61 C 0.2357(2) 0.1414(3) 1.31969(15)
H118 H 0.27450 0.15600 1.31070
H119 H 0.20100 0.09770 1.29560
C62 C 0.2895(3) 0.1163(3) 1.38032(17)
H120 H 0.32810 0.07530 1.38650
H121 H 0.25180 0.09800 1.38900
H122 H 0.32330 0.15950 1.40470
C63 C 0.1107(3) 0.1899(3) 1.31312(19)
H123 H 0.07600 0.23620 1.30410
H124 H 0.13890 0.17670 1.35280
C64 C 0.0527(3) 0.1257(4) 1.2763(2)
H125 H 0.03220 0.13460 1.23780
H126 H 0.00370 0.12310 1.27700
H127 H 0.08450 0.07770 1.29000
N8 N 0.1775(2) 0.20588(19) 1.30577(13)
H128 H 0.14570 0.21550 1.26480
O33 O 0.0251(2) 0.42481(17) 0.26490(13)
H129 H 0.027(3) 0.392(3) 0.244(2)
H130 H 0.003(3) 0.394(3) 0.280(2)
O34 O 0.45467(19) 0.42308(15) 0.22997(12)
H131 H 0.456(3) 0.387(3) 0.2520(19)
H132 H 0.488(3) 0.397(3) 0.2208(19)
O31* O 0.67237(15) 0.18214(13) 0.99393(9)
O32* O 0.67016(14) 0.32112(13) 0.95388(9)
Cu4* Cu -0.43234(3) 0.24318(2) 0.94334(2)
#END
