
#######################################################################
#
#                 Cambridge Crystallographic Data Centre
#                                CCDC
#
#######################################################################
#
# If this CIF has been generated from an entry in the Cambridge
# Structural Database, then it will include bibliographic, chemical,
# crystal, experimental, refinement or atomic coordinate data resulting
# from the CCDC's data processing and validation procedures.
#
#######################################################################

data_CSD_CIF_NATCIX01
_audit_creation_date 2017-03-23
_audit_creation_method CSD-ConQuest-V1
_database_code_CSD NATCIX01
_database_code_depnum_ccdc_archive 'CCDC 1539854'
_chemical_formula_sum 'C64 H132 Cu4 N8 O34'
_chemical_formula_moiety
;
(C16 Cu4 O32 8-)n,8(C6 H16 N1 1+),2(H2 O1)
;
_journal_coden_Cambridge 1078
_journal_year 2017
_journal_name_full 'CSD Communication(Private Communication) '
loop_
_publ_author_name
"Bin Zhang"
_chemical_name_systematic
;
catena-(octakis(triethylammonium) 
tetrakis(\m-oxalato)-tetrakis(oxalato)-tetra-copper dihydrate)
;
_cell_volume   8446.907
_exptl_crystal_colour 'blue'
_exptl_crystal_density_diffrn 1.425
_exptl_crystal_description 'block'
_diffrn_ambient_temperature 260
#These two values have been output from a single CSD field.
_refine_ls_R_factor_gt 0.0636
_refine_ls_wR_factor_gt 0.0636
_symmetry_cell_setting monoclinic
_symmetry_space_group_name_H-M 'C 2/c'
_symmetry_Int_Tables_number 15
loop_
_symmetry_equiv_pos_site_id
_symmetry_equiv_pos_as_xyz
1 x,y,z
2 -x,y,1/2-z
3 1/2+x,1/2+y,z
4 1/2-x,1/2+y,1/2-z
5 -x,-y,-z
6 x,-y,-1/2+z
7 -1/2-x,-1/2-y,-z
8 -1/2+x,-1/2-y,-1/2+z
_cell_length_a 19.966(3)
_cell_length_b 17.741(3)
_cell_length_c 23.868(3)
_cell_angle_alpha 90
_cell_angle_beta 92.42(3)
_cell_angle_gamma 90
_cell_formula_units_Z 4
loop_
_atom_type_symbol
_atom_type_radius_bond
C 0.68
H 0.23
Cu 1.32
N 0.68
O 0.68
loop_
_atom_site_label
_atom_site_type_symbol
_atom_site_fract_x
_atom_site_fract_y
_atom_site_fract_z
C1 C 0.14589(15) 0.79019(17) 0.15992(13)
C2 C 0.10893(18) 0.71434(19) 0.16817(14)
C3 C 0.24182(14) 0.78699(16) -0.01642(12)
C4 C 0.01591(15) 0.69526(16) -0.01911(12)
C5 C -0.00703(14) 0.76379(16) 0.01508(12)
C6 C -0.23967(14) 0.71053(17) 0.01194(12)
C7 C -0.10096(15) 0.79131(18) -0.15696(13)
C8 C -0.14654(15) 0.7215(2) -0.16452(14)
O1 O 0.15907(11) 0.80809(12) 0.11000(9)
O2 O 0.10038(13) 0.67335(12) 0.12576(9)
O3 O 0.16033(15) 0.82793(15) 0.20185(10)
O4 O 0.0903(2) 0.70074(18) 0.21575(12)
O5 O 0.28847(11) 0.81510(12) -0.04377(9)
O6 O 0.18469(11) 0.81331(13) -0.01345(9)
O7 O 0.07704(11) 0.67659(13) -0.01059(9)
O8 O 0.03703(11) 0.79400(12) 0.04715(9)
O9 O -0.02581(12) 0.66355(13) -0.05044(10)
O10 O -0.06662(10) 0.78503(12) 0.01046(9)
O11 O -0.08460(11) 0.80840(12) -0.10665(9)
O12 O -0.16522(11) 0.69166(13) -0.11941(9)
O13 O -0.08308(13) 0.82497(15) -0.19912(10)
O14 O -0.16190(15) 0.70072(17) -0.21257(10)
O15 O -0.18222(11) 0.68584(12) -0.00010(9)
O16 O -0.28039(11) 0.67757(13) 0.04110(9)
Cu1 Cu 0.12501(2) 0.74007(2) 0.04705(2)
Cu2 Cu -0.12736(2) 0.74368(2) -0.05151(2)
C9 C 0.2350(2) 0.9724(2) 0.04898(17)
H1 H 0.24250 1.02610 0.04490
H2 H 0.23300 0.95010 0.01180
C10 C 0.2927(2) 0.9384(3) 0.0829(2)
H3 H 0.33260 0.94090 0.06190
H4 H 0.28290 0.88670 0.09120
H5 H 0.29950 0.96600 0.11730
C11 C 0.1108(2) 0.9621(2) 0.03318(18)
H6 H 0.12060 0.92900 0.00220
H7 H 0.07130 0.94250 0.05060
C12 C 0.0954(3) 1.0390(2) 0.01069(19)
H8 H 0.06110 1.03560 -0.01860
H9 H 0.13520 1.06040 -0.00400
H10 H 0.08010 1.07040 0.04030
C13 C 0.1614(2) 1.0116(2) 0.12432(17)
H11 H 0.16150 1.06340 0.11120
H12 H 0.19940 1.00530 0.15060
C14 C 0.0975(3) 0.9972(3) 0.1544(2)
H13 H 0.05960 1.00510 0.12890
H14 H 0.09500 1.03110 0.18550
H15 H 0.09730 0.94610 0.16770
N1 N 0.16928(15) 0.96015(15) 0.07563(12)
H16 H 0.17070 0.90890 0.09090
C15 C 0.1277(3) 0.7281(3) -0.1591(2)
H17 H 0.13040 0.73840 -0.11920
H18 H 0.16660 0.69810 -0.16790
C16 C 0.0667(3) 0.6836(3) -0.1724(3)
H19 H 0.05860 0.68190 -0.21230
H20 H 0.02920 0.70670 -0.15540
H21 H 0.07260 0.63330 -0.15820
C17 C 0.2021(2) 0.8287(3) -0.1842(2)
H22 H 0.21370 0.83780 -0.14490
H23 H 0.23200 0.79010 -0.19730
C18 C 0.2128(3) 0.9002(5) -0.2167(3)
H24 H 0.19070 0.89620 -0.25300
H25 H 0.25990 0.90800 -0.22080
H26 H 0.19450 0.94210 -0.19690
C19 C 0.0797(2) 0.8572(3) -0.17539(16)
H27 H 0.03540 0.83610 -0.18270
H28 H 0.08420 0.90030 -0.20000
C20 C 0.0852(3) 0.8840(3) -0.11549(18)
H29 H 0.12810 0.90720 -0.10830
H30 H 0.08050 0.84180 -0.09070
H31 H 0.05040 0.92000 -0.10920
N2 N 0.13048(15) 0.79978(19) -0.18955(12)
H32 H 0.12200 0.78760 -0.22930
C21 C -0.1118(5) 0.7122(4) 0.1567(2)
H33 H -0.07130 0.68870 0.17220
H34 H -0.10640 0.71960 0.11690
C22 C -0.1714(5) 0.6595(4) 0.1650(3)
H35 H -0.15870 0.60860 0.15680
H36 H -0.20830 0.67430 0.14020
H37 H -0.18470 0.66270 0.20310
C23 C -0.0529(3) 0.8311(4) 0.1766(2)
H38 H -0.01610 0.80590 0.19680
H39 H -0.04230 0.83370 0.13730
C24 C -0.0609(4) 0.9105(5) 0.1997(3)
H40 H -0.09510 0.93670 0.17790
H41 H -0.01920 0.93720 0.19760
H42 H -0.07340 0.90780 0.23800
C25 C -0.1776(2) 0.8290(3) 0.16432(18)
H43 H -0.17930 0.87350 0.18780
H44 H -0.21820 0.80030 0.16950
C26 C -0.1761(3) 0.8534(4) 0.10402(19)
H45 H -0.14500 0.89430 0.10080
H46 H -0.22010 0.86960 0.09140
H47 H -0.16230 0.81180 0.08150
N3 N -0.12051(19) 0.7836(2) 0.18286(13)
H48 H -0.12490 0.77410 0.22300
C27 C 0.0765(5) 0.4732(4) 0.1618(4)
H49 H 0.03340 0.44800 0.16160
H50 H 0.11030 0.43480 0.15670
C28 C 0.0886(6) 0.5060(5) 0.2156(5)
H51 H 0.13500 0.51990 0.22020
H52 H 0.07780 0.47020 0.24400
H53 H 0.06110 0.55000 0.21900
C29 C 0.0130(5) 0.5217(4) 0.0807(7)
H54 H 0.02550 0.52320 0.04190
H55 H -0.00580 0.47200 0.08640
C30 C -0.0347(3) 0.5657(4) 0.0834(3)
H56 H -0.05830 0.55570 0.11680
H57 H -0.06450 0.55910 0.05120
H58 H -0.01830 0.61660 0.08440
C31 C 0.1303(6) 0.4994(4) 0.0734(3)
H59 H 0.12220 0.44750 0.06210
H60 H 0.12570 0.53040 0.04000
C32 C 0.1935(5) 0.5051(4) 0.0945(5)
H61 H 0.20360 0.55700 0.10240
H62 H 0.22390 0.48630 0.06760
H63 H 0.19830 0.47620 0.12840
N4 N 0.0764(2) 0.5229(2) 0.1140(2)
H64 H 0.08550 0.57440 0.12690
O17 O 0.00000 0.6056(3) 0.25000
O18 O 0.2693(2) 0.9226(2) 0.23235(18)
H65 H 0.291(3) 0.893(3) 0.253(3)
H66 H 0.231(4) 0.899(4) 0.224(3)
C3F C 0.25818(14) 0.71301(16) 0.01642(12)
O6F O 0.31531(11) 0.68669(13) 0.01345(9)
O5F O 0.21153(11) 0.68490(12) 0.04377(9)
C6F C -0.26033(14) 0.78947(17) -0.01194(12)
O15F O -0.31778(11) 0.81416(12) 0.00010(9)
O16F O -0.21961(11) 0.82243(13) -0.04110(9)
C1F C -0.64589(15) 0.70981(17) -0.15992(13)
C2F C -0.60893(18) 0.78566(19) -0.16817(14)
C4F C -0.51591(15) 0.80474(16) 0.01911(12)
C5F C -0.49297(14) 0.73621(16) -0.01508(12)
C7F C -0.39904(15) 0.70869(18) 0.15696(13)
C8F C -0.35346(15) 0.7785(2) 0.16452(14)
O1F O -0.65907(11) 0.69191(12) -0.11000(9)
O2F O -0.60038(13) 0.82665(12) -0.12576(9)
O3F O -0.66033(15) 0.67207(15) -0.20185(10)
O4F O -0.5903(2) 0.79926(18) -0.21575(12)
O7F O -0.57704(11) 0.82341(13) 0.01059(9)
O8F O -0.53703(11) 0.70600(12) -0.04715(9)
O9F O -0.47419(12) 0.83645(13) 0.05044(10)
O10F O -0.43338(10) 0.71497(12) -0.01046(9)
O11F O -0.41540(11) 0.69160(12) 0.10665(9)
O12F O -0.33478(11) 0.80834(13) 0.11941(9)
O13F O -0.41692(13) 0.67503(15) 0.19912(10)
O14F O -0.33810(15) 0.79928(17) 0.21257(10)
Cu1F Cu -0.62501(2) 0.75993(2) -0.04705(2)
Cu2F Cu -0.37264(2) 0.75632(2) 0.05151(2)
O5* O -0.71153(11) 0.81510(12) -0.04377(9)
O6F* O -0.68469(11) 0.68669(13) 0.01345(9)
Cu1F* Cu 0.37499(2) 0.75993(2) -0.04705(2)
#END
