
#######################################################################
#
#                 Cambridge Crystallographic Data Centre
#                                CCDC
#
#######################################################################
#
# If this CIF has been generated from an entry in the Cambridge
# Structural Database, then it will include bibliographic, chemical,
# crystal, experimental, refinement or atomic coordinate data resulting
# from the CCDC's data processing and validation procedures.
#
#######################################################################

data_CSD_CIF_NATFAS
_audit_creation_date 2017-03-23
_audit_creation_method CSD-ConQuest-V1
_database_code_CSD NATFAS
_database_code_depnum_ccdc_archive 'CCDC 1504825'
_chemical_formula_sum 'C48 H40 N4 O32 Zn6'
_chemical_formula_moiety
;
(C40 H8 O32 Zn6 4-)n,4(C2 H8 N1 1+)
;
_journal_coden_Cambridge 171
_journal_volume 16
_journal_year 2017
_journal_page_first 753
_journal_name_full 'Photochem.Photobiol.Sci. '
loop_
_publ_author_name
"Yu-Shuang Liu"
"Yu-Hui Luo"
"Li Li"
"Hong Zhang"
_chemical_name_systematic
;
catena-(tetrakis(dimethylammonium) 
tetrakis(\m-benzene-1,2,4,5-tetracarboxylato)-hexa-zinc)
;
_cell_volume   6863.051
_exptl_crystal_colour 'colorless'
_exptl_crystal_density_diffrn 1.526
_exptl_crystal_description 'block'
_diffrn_ambient_temperature 293.1
#These two values have been output from a single CSD field.
_refine_ls_R_factor_gt 0.0535
_refine_ls_wR_factor_gt 0.0535
_symmetry_cell_setting orthorhombic
_symmetry_space_group_name_H-M 'P n m a'
_symmetry_Int_Tables_number 62
loop_
_symmetry_equiv_pos_site_id
_symmetry_equiv_pos_as_xyz
1 x,y,z
2 1/2-x,-y,1/2+z
3 1/2+x,1/2-y,1/2-z
4 -x,1/2+y,-z
5 -x,-y,-z
6 -1/2+x,y,-1/2-z
7 -1/2-x,-1/2+y,-1/2+z
8 x,-1/2-y,z
_cell_length_a 14.3929(6)
_cell_length_b 17.8516(8)
_cell_length_c 26.7111(11)
_cell_angle_alpha 90
_cell_angle_beta 90
_cell_angle_gamma 90
_cell_formula_units_Z 4
loop_
_atom_type_symbol
_atom_type_radius_bond
C 0.68
H 0.23
N 0.68
O 0.68
Zn 1.22
loop_
_atom_site_label
_atom_site_type_symbol
_atom_site_fract_x
_atom_site_fract_y
_atom_site_fract_z
Zn1 Zn 0.56416(4) 0.47132(3) 0.70404(2)
Zn2 Zn 0.75417(4) 0.53592(3) 0.34199(2)
Zn3 Zn 0.86657(4) 0.45782(3) 0.44410(2)
O1 O 0.5426(3) 0.4966(3) 0.63409(13)
O2 O 0.4912(4) 0.3845(3) 0.61425(17)
O3 O 0.6656(3) 0.4959(3) 0.39668(13)
O4 O 0.8042(3) 0.4368(2) 0.32442(13)
O5 O 0.8822(3) 0.3876(2) 0.38887(14)
O6 O 0.7412(3) 0.4753(3) 0.46711(16)
O7 O 0.9193(3) 0.4013(2) 0.49837(13)
O8 O 1.0578(3) 0.4200(3) 0.4658(2)
O9 O 1.0827(3) 0.4471(2) 0.57753(16)
O10 O 1.2008(3) 0.3848(2) 0.61193(14)
O11 O 0.9463(3) 0.43349(19) 0.24126(13)
O12 O 0.8134(3) 0.4038(3) 0.20426(17)
O13 O 0.4806(2) 0.39065(19) 0.73022(13)
O14 O 0.3556(2) 0.44775(19) 0.70171(12)
O15 O 0.1605(2) 0.4225(2) 0.71520(14)
O16 O 0.1743(2) 0.4021(2) 0.79566(13)
C1 C 0.5095(4) 0.4507(4) 0.6041(2)
C2 C 0.5013(4) 0.4772(4) 0.55040(19)
C3 C 0.5793(4) 0.4749(4) 0.52131(19)
H1 H 0.63460 0.45910 0.53590
C4 C 0.5804(4) 0.4950(4) 0.47105(18)
C5 C 0.6690(4) 0.4880(3) 0.44238(19)
C6 C 0.8510(3) 0.3874(3) 0.34508(19)
C7 C 1.0053(4) 0.3871(3) 0.4939(2)
C8 C 1.0375(3) 0.3177(3) 0.5214(2)
C9 C 1.0961(4) 0.3175(3) 0.56182(19)
C10 C 1.1302(4) 0.3884(3) 0.5853(2)
C11 C 1.1255(5) 0.25000 0.5821(3)
H2 H 1.16520 0.25000 0.60960
C12 C 1.0087(5) 0.25000 0.5011(3)
H3 H 0.96940 0.25000 0.47350
C13 C 0.8687(3) 0.3180(3) 0.31526(17)
C14 C 0.8747(3) 0.3183(3) 0.26298(18)
C15 C 0.8763(4) 0.3907(3) 0.23377(19)
C16 C 0.8795(5) 0.25000 0.2374(3)
H4 H 0.88590 0.25000 0.20280
C17 C 0.8669(5) 0.25000 0.3402(3)
H5 H 0.86440 0.25000 0.37500
C18 C 0.3962(3) 0.3901(3) 0.71842(16)
C19 C 0.3434(3) 0.3184(3) 0.72577(17)
C20 C 0.2519(3) 0.3178(3) 0.74116(17)
C21 C 0.1931(3) 0.3869(3) 0.75098(19)
C22 C 0.2070(5) 0.25000 0.7499(3)
H6 H 0.14620 0.25000 0.76180
C23 C 0.3898(4) 0.25000 0.7197(2)
H7 H 0.45260 0.25000 0.71140
N1 N 1.1115(6) 0.5231(8) 0.3846(4)
H8 H 1.09630 0.57140 0.38450
H9 H 1.07870 0.50150 0.40890
C24 C 1.2043(9) 0.5180(14) 0.3975(5)
H10 H 1.22930 0.46900 0.39140
H11 H 1.20950 0.52970 0.43250
H12 H 1.23830 0.55430 0.37830
C25 C 1.0813(12) 0.4920(15) 0.3384(5)
H13 H 1.10560 0.52200 0.31160
H14 H 1.01470 0.49140 0.33670
H15 H 1.10450 0.44180 0.33550
N2 N 0.443(2) 0.25000 0.5581(11)
H16 H 0.47150 0.20950 0.57030
C26 C 0.351(2) 0.25000 0.5712(11)
C27 C 0.448(3) 0.25000 0.5036(12)
N3 N 0.635(2) 0.25000 0.2573(11)
H17 H 0.69370 0.25000 0.24630
H18 H 0.59590 0.25000 0.23160
C28 C 0.6147(10) 0.1834(11) 0.2972(6)
H19 H 0.64510 0.19540 0.32820
H20 H 0.64050 0.13810 0.28380
H21 H 0.54940 0.17670 0.30300
H22? H 0.47150 0.20950 0.57030
H23? H 0.49420 0.21480 0.49300
H24? H 0.46430 0.29920 0.49210
H25? H 0.38880 0.23600 0.48970
H26? H 0.32030 0.20750 0.55680
H27? H 0.32200 0.29520 0.55990
H28? H 0.34790 0.24720 0.60700
O1D O 0.4574(3) 0.5034(3) 0.36591(13)
O2D O 0.5088(4) 0.6155(3) 0.38575(17)
O3D O 0.3344(3) 0.5041(3) 0.60332(13)
O6D O 0.2588(3) 0.5247(3) 0.53289(16)
C1D C 0.4905(4) 0.5493(4) 0.3959(2)
C2D C 0.4987(4) 0.5228(4) 0.44960(19)
C3D C 0.4207(4) 0.5251(4) 0.47869(19)
H1D H 0.36540 0.54090 0.46410
C4D C 0.4196(4) 0.5050(4) 0.52895(18)
C5D C 0.3310(4) 0.5120(3) 0.55762(19)
O4G O 0.8042(3) 0.0632(2) 0.32442(13)
O5G O 0.8822(3) 0.1124(2) 0.38887(14)
O11G O 0.9463(3) 0.06651(19) 0.24126(13)
O12G O 0.8134(3) 0.0962(3) 0.20426(17)
C6G C 0.8510(3) 0.1126(3) 0.34508(19)
C13G C 0.8687(3) 0.1820(3) 0.31526(17)
C14G C 0.8747(3) 0.1817(3) 0.26298(18)
C15G C 0.8763(4) 0.1093(3) 0.23377(19)
O7G O 0.9193(3) 0.0987(2) 0.49837(13)
O8G O 1.0578(3) 0.0800(3) 0.4658(2)
O9G O 1.0827(3) 0.0529(2) 0.57753(16)
O10G O 1.2008(3) 0.1152(2) 0.61193(14)
C7G C 1.0053(4) 0.1129(3) 0.4939(2)
C8G C 1.0375(3) 0.1823(3) 0.5214(2)
C9G C 1.0961(4) 0.1825(3) 0.56182(19)
C10G C 1.1302(4) 0.1116(3) 0.5853(2)
O13G O 0.4806(2) 0.10935(19) 0.73022(13)
O14G O 0.3556(2) 0.05225(19) 0.70171(12)
O15G O 0.1605(2) 0.0775(2) 0.71520(14)
O16G O 0.1743(2) 0.0979(2) 0.79566(13)
C18G C 0.3962(3) 0.1099(3) 0.71842(16)
C19G C 0.3434(3) 0.1816(3) 0.72577(17)
C20G C 0.2519(3) 0.1822(3) 0.74116(17)
C21G C 0.1931(3) 0.1131(3) 0.75098(19)
Zn1D Zn 0.43584(4) 0.52868(3) 0.29596(2)
Zn2D Zn 0.24583(4) 0.46408(3) 0.65801(2)
Zn3D Zn 0.13343(4) 0.54218(3) 0.55590(2)
Zn1A Zn 0.93584(4) 0.52868(3) 0.20404(2)
Zn1B Zn 0.06416(4) 0.02868(3) 0.79596(2)
Zn1E Zn 0.06416(4) 0.47132(3) 0.79596(2)
Zn1F Zn 0.93584(4) -0.02868(3) 0.20404(2)
Zn1G Zn 0.56416(4) 0.02868(3) 0.70404(2)
Zn2C Zn 0.24583(4) 0.03592(3) 0.65801(2)
Zn2C* Zn 1.24583(4) 0.03592(3) 0.65801(2)
Zn2D* Zn 1.24583(4) 0.46408(3) 0.65801(2)
Zn2G Zn 0.75417(4) -0.03592(3) 0.34199(2)
Zn3C Zn 1.13343(4) -0.04218(3) 0.55590(2)
Zn3D* Zn 1.13343(4) 0.54218(3) 0.55590(2)
Zn3G Zn 0.86657(4) 0.04218(3) 0.44410(2)
O4D O 0.1958(3) 0.5632(2) 0.67558(13)
O5D O 0.1178(3) 0.6124(2) 0.61113(14)
O7D O 0.0807(3) 0.5987(2) 0.50163(13)
O9* O 0.0827(3) 0.4471(2) 0.57753(16)
O9D O 0.9173(3) 0.5529(2) 0.42247(16)
O10* O 0.2008(3) 0.3848(2) 0.61193(14)
O10D O 0.7992(3) 0.6152(2) 0.38807(14)
O11A O 0.5537(3) 0.56651(19) 0.74126(13)
O11E O 0.4463(3) 0.43349(19) 0.25874(13)
O13D O 0.5194(2) 0.60935(19) 0.26978(13)
O14D O 0.6444(2) 0.55225(19) 0.29829(12)
O15D O 0.8395(2) 0.5775(2) 0.28480(14)
O16A O 0.3257(2) 0.5979(2) 0.29566(13)
O16E O 0.6743(2) 0.4021(2) 0.70434(13)
H16G H 0.47150 0.29050 0.57030
C28G C 0.6147(10) 0.3166(11) 0.2972(6)
H19G H 0.64510 0.30460 0.32820
H20G H 0.64050 0.36190 0.28380
H21G H 0.54940 0.32330 0.30300
#END
