
#######################################################################
#
#                 Cambridge Crystallographic Data Centre
#                                CCDC
#
#######################################################################
#
# If this CIF has been generated from an entry in the Cambridge
# Structural Database, then it will include bibliographic, chemical,
# crystal, experimental, refinement or atomic coordinate data resulting
# from the CCDC's data processing and validation procedures.
#
#######################################################################

data_CSD_CIF_NATHUO
_audit_creation_date 2017-03-23
_audit_creation_method CSD-ConQuest-V1
_database_code_CSD NATHUO
_database_code_depnum_ccdc_archive 'CCDC 1526097'
_chemical_formula_sum 'C52 H34 F18 N2 O12 Zn2'
_chemical_formula_moiety
;
(C48 H18 F18 O12 Zn2 2-)n,2(C2 H8 N1 1+)
;
_journal_coden_Cambridge 1147
_journal_volume 17
_journal_year 2017
_journal_page_first 1476
_journal_name_full 'Cryst.Growth Des. '
loop_
_publ_author_name
"Cheng-Xia Chen"
"Zhang-Wen Wei"
"Qian-Feng Qiu"
"Yan-Zhong Fan"
"Chen-Chen Cao"
"Hai-Ping Wang"
"Ji-Jun Jiang"
"D.Fenske"
"Cheng-Yong Su"
_chemical_name_systematic
;
catena-(bis(dimethylammonium) 
tris(\m-3,3'-bis(trifluoromethyl)biphenyl-4,4'-dicarboxylate)-di-zinc unknown 
solvate)
;
_chemical_name_common
;
LIFM-38
;
_cell_volume   7773.344
_exptl_crystal_colour 'colorless'
_exptl_crystal_density_diffrn 1.155
_exptl_crystal_description 'Plate'
_exptl_crystal_preparation 'solvothermal reaction'
_diffrn_ambient_temperature 173
_refine_special_details
;
The SQUEEZE/PLATON program was used to take into account some disordered 
solvent.
;
#These two values have been output from a single CSD field.
_refine_ls_R_factor_gt 0.0339
_refine_ls_wR_factor_gt 0.0339
_symmetry_cell_setting orthorhombic
_symmetry_space_group_name_H-M 'A b a 2'
_symmetry_Int_Tables_number 41
loop_
_symmetry_equiv_pos_site_id
_symmetry_equiv_pos_as_xyz
1 x,y,z
2 -x,-y,z
3 1/2-x,y,1/2+z
4 1/2+x,-y,1/2+z
5 x,1/2+y,1/2+z
6 -x,1/2-y,1/2+z
7 1/2-x,1/2+y,z
8 1/2+x,1/2-y,z
_cell_length_a 7.8849(2)
_cell_length_b 36.8328(7)
_cell_length_c 26.7656(5)
_cell_angle_alpha 90
_cell_angle_beta 90
_cell_angle_gamma 90
_cell_formula_units_Z 4
loop_
_atom_type_symbol
_atom_type_radius_bond
C 0.68
H 0.23
F 0.64
N 0.68
O 0.68
Zn 1.22
loop_
_atom_site_label
_atom_site_type_symbol
_atom_site_fract_x
_atom_site_fract_y
_atom_site_fract_z
Zn1 Zn 0.86761(5) 0.20475(2) 0.13361(2)
F1 F 0.8657(6) 0.12807(9) -0.01253(15)
F2 F 1.0691(6) 0.14840(12) -0.05638(14)
F3 F 0.8610(7) 0.12251(9) -0.09237(15)
F4 F 0.3779(3) 0.33225(7) -0.23616(11)
F5 F 0.5854(4) 0.32216(7) -0.28660(9)
F6 F 0.6336(3) 0.33457(7) -0.20970(11)
F7 F 0.8957(6) 0.12190(9) 0.24015(14)
F8 F 1.1615(6) 0.11809(11) 0.2243(2)
F9 F 1.0350(9) 0.07635(10) 0.26734(16)
O1 O 0.7899(4) 0.21544(7) 0.0664(1)
O2 O 1.0094(4) 0.18668(11) 0.03393(12)
O3 O 0.2952(4) 0.28299(7) -0.31385(9)
O4 O 0.4410(3) 0.23839(7) -0.34922(9)
O5 O 0.9699(4) 0.15683(7) 0.14667(11)
O6 O 0.7123(5) 0.14195(8) 0.12192(17)
C1 C 0.8714(5) 0.20118(10) 0.03092(15)
C2 C 0.7891(5) 0.20499(9) -0.01995(13)
C3 C 0.8088(5) 0.18073(10) -0.05985(14)
C4 C 0.7408(5) 0.18875(10) -0.10645(13)
H1 H 0.75540 0.17200 -0.13310
C5 C 0.6514(4) 0.22086(10) -0.11494(13)
C6 C 0.6288(5) 0.24442(11) -0.07460(15)
H2 H 0.56640 0.26620 -0.07930
C7 C 0.6947(5) 0.23675(10) -0.02820(13)
H3 H 0.67620 0.25320 -0.00140
C8 C 0.9011(8) 0.14540(13) -0.0546(2)
C9 C 0.5877(4) 0.23012(10) -0.16537(13)
C10 C 0.5826(4) 0.26609(10) -0.18068(13)
H4 H 0.61970 0.28450 -0.15830
C11 C 0.5249(4) 0.27601(9) -0.22779(13)
C12 C 0.4726(4) 0.24934(9) -0.26109(12)
C13 C 0.4808(5) 0.21355(10) -0.24650(13)
H5 H 0.44970 0.19510 -0.26960
C14 C 0.5330(5) 0.20369(9) -0.19915(14)
H6 H 0.53170 0.17890 -0.18950
C15 C 0.5291(5) 0.31584(10) -0.24042(15)
C16 C 0.4009(4) 0.25726(9) -0.31217(13)
C17 C 0.8589(6) 0.1342(1) 0.1362(2)
C18 C 0.9059(7) 0.09406(10) 0.1391(2)
C19 C 0.9815(7) 0.07772(11) 0.1813(2)
C20 C 1.0181(7) 0.04087(12) 0.1801(2)
H7 H 1.06930 0.02960 0.20820
C21 C 0.9800(7) 0.02014(9) 0.1374(2)
C22 C 0.9185(11) 0.03734(13) 0.0965(2)
H8 H 0.90210 0.02400 0.06650
C23 C 0.8796(10) 0.07362(14) 0.0976(3)
H9 H 0.83310 0.08470 0.06860
C24 C 1.016(1) 0.09835(13) 0.2280(2)
N1 N 1.3086(6) 0.15841(14) 0.0674(3)
H10 H 1.32470 0.13860 0.08720
H11 H 1.19540 0.16060 0.06150
C25 C 1.3695(7) 0.1905(2) 0.0929(3)
H12 H 1.49290 0.18900 0.09670
H13 H 1.31650 0.19210 0.12590
H14 H 1.34040 0.21210 0.07330
C26 C 1.3964(16) 0.1534(4) 0.0209(5)
H15 H 1.41120 0.17690 0.00440
H16 H 1.33010 0.13730 -0.00080
H17 H 1.50770 0.14250 0.02720
F7A F 1.1043(6) -0.12190(9) 0.24015(14)
F8A F 0.8385(6) -0.11809(11) 0.2243(2)
F9A F 0.9650(9) -0.07635(10) 0.26734(16)
O5A O 1.0301(4) -0.15683(7) 0.14667(11)
O6A O 1.2877(5) -0.14195(8) 0.12192(17)
C17A C 1.1411(6) -0.1342(1) 0.1362(2)
C18A C 1.0941(7) -0.09406(10) 0.1391(2)
C19A C 1.0185(7) -0.07772(11) 0.1813(2)
C20A C 0.9819(7) -0.04087(12) 0.1801(2)
H7A H 0.93070 -0.02960 0.20820
C21A C 1.0200(7) -0.02014(9) 0.1374(2)
C22A C 1.0815(11) -0.03734(13) 0.0965(2)
H8A H 1.09790 -0.02400 0.06650
C23A C 1.1204(10) -0.07362(14) 0.0976(3)
H9A H 1.16690 -0.08470 0.06860
C24A C 0.984(1) -0.09835(13) 0.2280(2)
Zn1A Zn 1.13239(5) -0.20475(2) 0.13361(2)
F1A F 1.1343(6) -0.12807(9) -0.01253(15)
F2A F 0.9309(6) -0.14840(12) -0.05638(14)
F3A F 1.1390(7) -0.12251(9) -0.09237(15)
F4A F 1.6221(3) -0.33225(7) -0.23616(11)
F5A F 1.4146(4) -0.32216(7) -0.28660(9)
F6A F 1.3664(3) -0.33457(7) -0.20970(11)
O1A O 1.2101(4) -0.21544(7) 0.0664(1)
O2A O 0.9906(4) -0.18668(11) 0.03393(12)
O3A O 1.7048(4) -0.28299(7) -0.31385(9)
O4A O 1.5590(3) -0.23839(7) -0.34922(9)
C1A C 1.1286(5) -0.20118(10) 0.03092(15)
C2A C 1.2109(5) -0.20499(9) -0.01995(13)
C3A C 1.1912(5) -0.18073(10) -0.05985(14)
C4A C 1.2592(5) -0.18875(10) -0.10645(13)
H1A H 1.24460 -0.17200 -0.13310
C5A C 1.3486(4) -0.22086(10) -0.11494(13)
C6A C 1.3712(5) -0.24442(11) -0.07460(15)
H2A H 1.43360 -0.26620 -0.07930
C7A C 1.3053(5) -0.23675(10) -0.02820(13)
H3A H 1.32380 -0.25320 -0.00140
C8A C 1.0989(8) -0.14540(13) -0.0546(2)
C9A C 1.4123(4) -0.23012(10) -0.16537(13)
C10A C 1.4174(4) -0.26609(10) -0.18068(13)
H4A H 1.38030 -0.28450 -0.15830
C11A C 1.4751(4) -0.27601(9) -0.22779(13)
C12A C 1.5274(4) -0.24934(9) -0.26109(12)
C13A C 1.5192(5) -0.21355(10) -0.24650(13)
H5A H 1.55030 -0.19510 -0.26960
C14A C 1.4670(5) -0.20369(9) -0.19915(14)
H6A H 1.46830 -0.17890 -0.18950
C15A C 1.4709(5) -0.31584(10) -0.24042(15)
C16A C 1.5991(4) -0.25726(9) -0.31217(13)
Zn1B Zn 0.63239(5) 0.20475(2) -0.36639(2)
Zn1C Zn 1.36761(5) -0.20475(2) -0.36639(2)
Zn1D Zn 1.86761(5) -0.29525(2) -0.36639(2)
Zn1E Zn 0.13239(5) 0.29525(2) -0.36639(2)
O3D O 1.2952(4) -0.21701(7) 0.18615(9)
O3E O 0.7048(4) 0.21701(7) 0.18615(9)
O4B O 1.0590(3) 0.23839(7) 0.15078(9)
O4C O 0.9410(3) -0.23839(7) 0.15078(9)
#END
