
#######################################################################
#
#                 Cambridge Crystallographic Data Centre
#                                CCDC
#
#######################################################################
#
# If this CIF has been generated from an entry in the Cambridge
# Structural Database, then it will include bibliographic, chemical,
# crystal, experimental, refinement or atomic coordinate data resulting
# from the CCDC's data processing and validation procedures.
#
#######################################################################

data_CSD_CIF_NATYAK
_audit_creation_date 2012-04-10
_audit_creation_method CSD-ConQuest-V1
_database_code_CSD NATYAK
_database_code_depnum_ccdc_archive 'CCDC 735360'
_chemical_formula_sum 'C8 H9 Cu1 F8 N4 Ta1'
_chemical_formula_moiety
;
(C8 H9 Cu1 F2 N4 1+)n,n(F6 Ta1 1-)
;
_journal_coden_Cambridge 989
_journal_volume 159
_journal_year 2010
_journal_page_first 15
_journal_name_full 'J.Low Temp.Phys. '
loop_
_publ_author_name
"J.L.Manson"
"J.A.Schlueter"
"R.D.McDonald"
"J.Singleton"
_chemical_name_systematic
;
catena-((\m~2~-hydrogen difluoride)-bis(\m~2~-pyrazine)-copper(ii) 
hexafluorotantalate)
;
_cell_volume    646.386
_exptl_crystal_colour 'blue'
_exptl_crystal_density_diffrn 2.865
_exptl_crystal_description 'plate'
_diffrn_ambient_temperature 90
#These two values have been output from a single CSD field.
_refine_ls_R_factor_gt 0.0192
_refine_ls_wR_factor_gt 0.0192
_symmetry_cell_setting tetragonal
_symmetry_space_group_name_H-M 'P 4/n m m'
_symmetry_Int_Tables_number 129
loop_
_symmetry_equiv_pos_site_id
_symmetry_equiv_pos_as_xyz
1 x,y,z
2 1/2-x,1/2-y,z
3 1/2-y,x,z
4 y,1/2-x,z
5 -x,1/2+y,-z
6 1/2+x,-y,-z
7 1/2+y,1/2+x,-z
8 -y,-x,-z
9 -x,-y,-z
10 -1/2+x,-1/2+y,-z
11 -1/2+y,-x,-z
12 -y,-1/2+x,-z
13 x,-1/2-y,z
14 -1/2-x,y,z
15 -1/2-y,-1/2-x,z
16 y,x,z
_cell_length_a 9.7103(2)
_cell_length_b 9.7103(2)
_cell_length_c 6.8553(3)
_cell_angle_alpha 90
_cell_angle_beta 90
_cell_angle_gamma 90
_cell_formula_units_Z 2
loop_
_atom_type_symbol
_atom_type_radius_bond
C 0.68
H 0.23
Cu 1.32
F 0.64
N 0.68
Ta 1.61
loop_
_atom_site_label
_atom_site_type_symbol
_atom_site_fract_x
_atom_site_fract_y
_atom_site_fract_z
Cu1 Cu 0.75000 0.25000 0.00000
F1 F 0.75000 0.25000 -0.3340(3)
H1 H 0.75000 0.25000 -0.50000
N1 N 0.60128(15) 0.10128(15) 0.00000
C1 C 0.53543(18) 0.06574(17) 0.1644(2)
H2 H 0.55840 0.11060 0.28320
Ta1 Ta 0.25000 0.25000 0.55134(3)
F2 F 0.25000 0.25000 0.2761(6)
F3 F 0.25000 0.25000 0.8266(6)
F4 F 0.4458(2) 0.25000 0.5476(3)
Cu1* Cu 0.75000 0.25000 -1.00000
Cu1B Cu 0.25000 -0.25000 0.00000
Cu1B* Cu 1.25000 0.75000 0.00000
F1F F 0.75000 0.25000 -0.6660(3)
F1F* F 0.75000 0.25000 0.3340(3)
N1H N 0.39872(15) -0.10128(15) 0.00000
N1A N 0.89872(15) 0.39872(15) 0.00000
N1I N 1.10128(15) 0.60128(15) 0.00000
N1J N 0.60128(15) 0.39872(15) 0.00000
N1K N 0.89872(15) 0.10128(15) 0.00000
C1N C 0.43426(18) -0.03543(17) 0.1644(2)
C1H C 0.46457(18) -0.06574(17) -0.1644(2)
C1F C 0.56574(18) 0.03543(17) -0.1644(2)
C1A C 0.96457(18) 0.43426(17) 0.1644(2)
C1O C 1.06574(18) 0.53543(17) 0.1644(2)
C1I C 1.03543(18) 0.56574(17) -0.1644(2)
C1G C 0.93426(18) 0.46457(17) -0.1644(2)
H2F H 0.61060 0.05840 -0.28320
H2H H 0.44160 -0.11060 -0.28320
H2N H 0.38940 -0.05840 0.28320
H2A H 0.94160 0.38940 0.28320
H2G H 0.88940 0.44160 -0.28320
H2I H 1.05840 0.61060 -0.28320
H2O H 1.11060 0.55840 0.28320
F4A F 0.0542(2) 0.25000 0.5476(3)
F4B F 0.2500(2) 0.44580 0.5476(3)
F4C F 0.2500(2) 0.05420 0.5476(3)
#END
