
#######################################################################
#
#                 Cambridge Crystallographic Data Centre
#                                CCDC
#
#######################################################################
#
# If this CIF has been generated from an entry in the Cambridge
# Structural Database, then it will include bibliographic, chemical,
# crystal, experimental, refinement or atomic coordinate data resulting
# from the CCDC's data processing and validation procedures.
#
#######################################################################

data_CSD_CIF_NAVBIX
_audit_creation_date 2012-04-10
_audit_creation_method CSD-ConQuest-V1
_database_code_CSD NAVBIX
_database_code_depnum_ccdc_archive 'CCDC 772199'
_chemical_formula_sum 'C120 H106 Cd6 N18 Na2 O39'
_chemical_formula_moiety
;
(C120 H72 Cd6 N18 Na2 O24 4-)n,4n(H3 O1 1+),11n(H2 O1)
;
_journal_coden_Cambridge 214
_journal_volume 143
_journal_year 2012
_journal_page_first 421
_journal_name_full 'Monatsh.Chem. '
loop_
_publ_author_name
"Zhiqiang Wei"
"Shantang Yue"
"Ning Wang"
"Wenjing Liu"
"Yingliang Liu"
_chemical_name_systematic
;
catena-(tetrakis(oxonium) 
tris(\m~4~-biphenyl-4,4'-dicarboxylato)-hexakis(\m~3~-benzotriazolato)-tris(\m
~2~-biphenyl-4,4'-dicarboxylato)-hexa-cadmium-di-sodium undecahydrate)
;
_cell_volume   7457.926
_exptl_crystal_colour 'colorless'
_exptl_crystal_density_diffrn 1.399
_exptl_crystal_description 'block'
_diffrn_ambient_temperature 298
#These two values have been output from a single CSD field.
_refine_ls_R_factor_gt 0.0645
_refine_ls_wR_factor_gt 0.0645
_symmetry_cell_setting hexagonal
_symmetry_space_group_name_H-M 'P 63 2 2'
_symmetry_Int_Tables_number 182
loop_
_symmetry_equiv_pos_site_id
_symmetry_equiv_pos_as_xyz
1 x,y,z
2 -y,x-y,z
3 -x+y,-x,z
4 -x,-y,1/2+z
5 y,-x+y,1/2+z
6 x-y,x,1/2+z
7 y,x,-z
8 x-y,-y,-z
9 -x,-x+y,-z
10 -y,-x,1/2-z
11 -x+y,y,1/2-z
12 x,x-y,1/2-z
_cell_length_a 18.6150(8)
_cell_length_b 18.6150(8)
_cell_length_c 24.852(2)
_cell_angle_alpha 90
_cell_angle_beta 90
_cell_angle_gamma 120
_cell_formula_units_Z 2
loop_
_atom_type_symbol
_atom_type_radius_bond
C 0.68
H 0.23
Cd 1.48
N 0.68
Na 1.43
O 0.68
loop_
_atom_site_label
_atom_site_type_symbol
_atom_site_fract_x
_atom_site_fract_y
_atom_site_fract_z
Cd1 Cd 0.45199(3) 0.25915(4) 0.56295(2)
C1 C 0.1729(7) 0.1661(7) 0.6464(4)
H1 H 0.16400 0.15260 0.61000
C2 C 0.1957(6) 0.1982(6) 0.7520(4)
H2 H 0.20540 0.20950 0.78850
N1 N 0.5093(4) 0.1833(4) 0.5893(3)
C3 C 0.4140(7) 0.0624(7) 0.6499(3)
H3 H 0.37060 0.07340 0.65220
N2 N 0.5850(4) 0.2075(4) 0.5715(2)
C4 C 0.1181(5) 0.1708(5) 0.7323(3)
C5 C 0.4855(6) 0.1131(5) 0.6222(3)
C6 C 0.2482(6) 0.1973(6) 0.6656(4)
C7 C 0.2609(6) 0.2100(6) 0.7188(4)
H4 H 0.31290 0.22650 0.73340
C8 C 0.3194(7) 0.2196(6) 0.6294(4)
O1 O 0.3853(5) 0.2259(7) 0.6486(3)
O2 O 0.3181(5) 0.2379(6) 0.5828(3)
C9 C 0.5524(6) 0.0986(5) 0.6203(3)
C10 C 0.5471(8) 0.0281(6) 0.6456(4)
H5 H 0.58980 0.01600 0.64310
C11 C 0.1063(6) 0.1525(6) 0.6780(4)
H6 H 0.05390 0.13130 0.66290
C12 C 0.4102(8) -0.0047(8) 0.6739(5)
H7 H 0.36160 -0.04210 0.69160
C13 C 0.4781(9) -0.0204(7) 0.6732(5)
H8 H 0.47390 -0.06520 0.69240
N3 N 0.6129(4) 0.1587(4) 0.5892(3)
O3 O 0.5334(4) 0.2824(4) 0.4773(2)
O4 O 0.4007(4) 0.2332(5) 0.4768(2)
C14 C 0.4661(4) 0.2465(5) 0.3930(3)
C15 C 0.4657(5) 0.2535(5) 0.4537(3)
C16 C 0.4647(4) 0.2351(5) 0.2797(3)
C17 C 0.5312(4) 0.2460(4) 0.3104(3)
H9 H 0.57700 0.24920 0.29310
C18 C 0.3964(5) 0.2284(7) 0.3080(3)
H10 H 0.34940 0.21860 0.28890
C19 C 0.5325(4) 0.2519(5) 0.3642(3)
H11 H 0.57920 0.25990 0.38290
C20 C 0.3966(5) 0.2357(7) 0.3629(3)
H12 H 0.35140 0.23360 0.38030
Na1 Na 0.66670 0.33330 0.51493(13)
O5 O 0.2905(4) 0.2905(4) 0.50000
H13 H 0.2389(10) 0.272(3) 0.507(2)
O6 O 0.4718(8) 0.00000 0.50000
H14 H 0.472(3) 0.042(2) 0.4856(19)
O7 O 0.5799(12) 1.00000 0.50000
H15 H 0.579(4) 0.965(3) 0.477(2)
O8 O 0.1974(16) 1.00000 0.50000
H16 H 0.23(2) 0.99(2) 0.519(13)
Cd1B Cd 0.80716(3) 0.54801(4) 0.56295(2)
Cd1A Cd 0.74085(3) 0.19284(4) 0.56295(2)
Cd1K Cd 0.45199(3) 0.19284(4) -0.06295(2)
Cd1I Cd 0.74085(3) 0.54801(4) -0.06295(2)
Cd1J Cd 0.80716(3) 0.25915(4) -0.06295(2)
Cd1J* Cd -0.19284(3) 0.25915(4) 0.93705(2)
Cd1K* Cd 1.45199(3) 1.19284(4) 0.93705(2)
Cd1I* Cd 0.74085(3) -0.45199(4) 0.93705(2)
C1J C -0.0068(7) 0.1661(7) 0.8536(4)
C1B C 0.9932(7) 0.8271(7) 0.6464(4)
C1K C 1.1729(7) 1.0068(7) 0.8536(4)
C1A C 0.8339(7) 0.0068(7) 0.6464(4)
C1I C 0.8339(7) -0.1729(7) 0.8536(4)
H1J H -0.01140 0.15260 0.89000
H1B H 0.98860 0.83600 0.61000
H1K H 1.16400 1.01140 0.89000
H1A H 0.84740 0.01140 0.61000
H1I H 0.84740 -0.16400 0.89000
C2J C 0.0025(6) 0.1982(6) 0.7480(4)
C2B C 1.0025(6) 0.8043(6) 0.7520(4)
C2K C 1.1957(6) 0.9975(6) 0.7480(4)
C2A C 0.8018(6) -0.0025(6) 0.7520(4)
C2I C 0.8018(6) -0.1957(6) 0.7480(4)
H2J H 0.00410 0.20950 0.71150
H2B H 1.00410 0.79460 0.78850
H2K H 1.20540 0.99590 0.71150
H2A H 0.79050 -0.00410 0.78850
H2I H 0.79050 -0.20540 0.71150
N1B N 0.6740(4) 0.4907(4) 0.5893(3)
N1A N 0.8167(4) 0.3260(4) 0.5893(3)
N1K N 0.5093(4) 0.3260(4) -0.0893(3)
N1J N 0.6740(4) 0.1833(4) -0.0893(3)
N1I N 0.8167(4) 0.4907(4) -0.0893(3)
C3B C 0.6484(7) 0.5860(7) 0.6499(3)
C3A C 0.9376(7) 0.3516(7) 0.6499(3)
C3K C 0.4140(7) 0.3516(7) -0.1499(3)
C3J C 0.6484(7) 0.0624(7) -0.1499(3)
C3I C 0.9376(7) 0.5860(7) -0.1499(3)
H3B H 0.70280 0.62940 0.65220
H3A H 0.92660 0.29720 0.65220
H3K H 0.37060 0.29720 -0.15220
H3J H 0.70280 0.07340 -0.15220
H3I H 0.92660 0.62940 -0.15220
N2B N 0.6225(4) 0.4150(4) 0.5715(2)
N2A N 0.7925(4) 0.3775(4) 0.5715(2)
N2K N 0.5850(4) 0.3775(4) -0.0715(2)
N2J N 0.6225(4) 0.2075(4) -0.0715(2)
N2I N 0.7925(4) 0.4150(4) -0.0715(2)
C4J C 0.0527(5) 0.1708(5) 0.7677(3)
C4B C 1.0527(5) 0.8819(5) 0.7323(3)
C4K C 1.1181(5) 0.9473(5) 0.7677(3)
C4A C 0.8292(5) -0.0527(5) 0.7323(3)
C4I C 0.8292(5) -0.1181(5) 0.7677(3)
C5B C 0.6276(6) 0.5145(5) 0.6222(3)
C5A C 0.8869(6) 0.3724(5) 0.6222(3)
C5K C 0.4855(6) 0.3724(5) -0.1222(3)
C5J C 0.6276(6) 0.1131(5) -0.1222(3)
C5I C 0.8869(6) 0.5145(5) -0.1222(3)
C6J C -0.0509(6) 0.1973(6) 0.8344(4)
C6B C 0.9491(6) 0.7518(6) 0.6656(4)
C6K C 1.2482(6) 1.0509(6) 0.8344(4)
C6A C 0.8027(6) 0.0509(6) 0.6656(4)
C6I C 0.8027(6) -0.2482(6) 0.8344(4)
C7J C -0.0509(6) 0.2100(6) 0.7812(4)
C7B C 0.9491(6) 0.7391(6) 0.7188(4)
C7K C 1.2609(6) 1.0509(6) 0.7812(4)
C7A C 0.7900(6) 0.0509(6) 0.7188(4)
C7I C 0.7900(6) -0.2609(6) 0.7812(4)
H4J H -0.08640 0.22650 0.76660
H4B H 0.91360 0.68710 0.73340
H4K H 1.31290 1.08640 0.76660
H4A H 0.77350 0.08640 0.73340
H4I H 0.77350 -0.31290 0.76660
C8J C -0.0998(7) 0.2196(6) 0.8706(4)
C8B C 0.9002(7) 0.6806(6) 0.6294(4)
C8K C 1.3194(7) 1.0998(6) 0.8706(4)
C8A C 0.7804(7) 0.0998(6) 0.6294(4)
C8I C 0.7804(7) -0.3194(6) 0.8706(4)
O1J O -0.1594(5) 0.2259(7) 0.8514(3)
O1B O 0.8406(5) 0.6147(7) 0.6486(3)
O1K O 1.3853(5) 1.1594(7) 0.8514(3)
O1A O 0.7741(5) 0.1594(7) 0.6486(3)
O1I O 0.7741(5) -0.3853(7) 0.8514(3)
O1K* O 0.3853(5) 0.1594(7) -0.1486(3)
O1I* O 0.7741(5) 0.6147(7) -0.1486(3)
O1J* O 0.8406(5) 0.2259(7) -0.1486(3)
O2J O -0.0802(5) 0.2379(6) 0.9172(3)
O2B O 0.9198(5) 0.6819(6) 0.5828(3)
O2K O 1.3181(5) 1.0802(6) 0.9172(3)
O2A O 0.7621(5) 0.0802(6) 0.5828(3)
O2I O 0.7621(5) -0.3181(6) 0.9172(3)
O2K* O 0.3181(5) 0.0802(6) -0.0828(3)
O2I* O 0.7621(5) 0.6819(6) -0.0828(3)
O2J* O 0.9198(5) 0.2379(6) -0.0828(3)
C9B C 0.5462(6) 0.4476(5) 0.6203(3)
C9A C 0.9014(6) 0.4538(5) 0.6203(3)
C9K C 0.5524(6) 0.4538(5) -0.1203(3)
C9J C 0.5462(6) 0.0986(5) -0.1203(3)
C9I C 0.9014(6) 0.4476(5) -0.1203(3)
C10B C 0.4810(8) 0.4529(6) 0.6456(4)
C10A C 0.9719(8) 0.5190(6) 0.6456(4)
C10K C 0.5471(8) 0.5190(6) -0.1456(4)
C10J C 0.4810(8) 0.0281(6) -0.1456(4)
C10I C 0.9719(8) 0.4529(6) -0.1456(4)
H5B H 0.42620 0.41020 0.64310
H5A H 0.98400 0.57380 0.64310
H5K H 0.58980 0.57380 -0.14310
H5J H 0.42620 0.01600 -0.14310
H5I H 0.98400 0.41020 -0.14310
C11J C 0.0462(6) 0.1525(6) 0.8220(4)
C11B C 1.0462(6) 0.8937(6) 0.6780(4)
C11K C 1.1063(6) 0.9538(6) 0.8220(4)
C11A C 0.8475(6) -0.0462(6) 0.6780(4)
C11I C 0.8475(6) -0.1063(6) 0.8220(4)
H6J H 0.07740 0.13130 0.83710
H6B H 1.07740 0.94610 0.66290
H6K H 1.05390 0.92260 0.83710
H6A H 0.86870 -0.07740 0.66290
H6I H 0.86870 -0.05390 0.83710
C12B C 0.5851(8) 0.5898(8) 0.6739(5)
C12A C 1.0047(8) 0.4149(8) 0.6739(5)
C12K C 0.4102(8) 0.4149(8) -0.1739(5)
C12J C 0.5851(8) -0.0047(8) -0.1739(5)
C12I C 1.0047(8) 0.5898(8) -0.1739(5)
H7B H 0.59630 0.63840 0.69160
H7A H 1.04210 0.40370 0.69160
H7K H 0.36160 0.40370 -0.19160
H7J H 0.59630 -0.04210 -0.19160
H7I H 1.04210 0.63840 -0.19160
C13B C 0.5015(9) 0.5219(7) 0.6732(5)
C13A C 1.0204(9) 0.4985(7) 0.6732(5)
C13K C 0.4781(9) 0.4985(7) -0.1732(5)
C13J C 0.5015(9) -0.0204(7) -0.1732(5)
C13I C 1.0204(9) 0.5219(7) -0.1732(5)
H8B H 0.46090 0.52610 0.69240
H8A H 1.06520 0.53910 0.69240
H8K H 0.47390 0.53910 -0.19240
H8J H 0.46090 -0.06520 -0.19240
H8I H 1.06520 0.52610 -0.19240
N3B N 0.5458(4) 0.3871(4) 0.5892(3)
N3A N 0.8413(4) 0.4542(4) 0.5892(3)
N3K N 0.6129(4) 0.4542(4) -0.0892(3)
N3J N 0.5458(4) 0.1587(4) -0.0892(3)
N3I N 0.8413(4) 0.3871(4) -0.0892(3)
O3K O 0.5334(4) 0.2510(4) 0.0227(2)
O3B O 0.7490(4) 0.4666(4) 0.4773(2)
O3I O 0.7176(4) 0.4666(4) 0.0227(2)
O3A O 0.7176(4) 0.2510(4) 0.4773(2)
O3J O 0.7490(4) 0.2824(4) 0.0227(2)
O4K O 0.4007(4) 0.1675(5) 0.0232(2)
O4B O 0.8325(4) 0.5993(5) 0.4768(2)
O4I O 0.7668(4) 0.5993(5) 0.0232(2)
O4A O 0.7668(4) 0.1675(5) 0.4768(2)
O4J O 0.8325(4) 0.2332(5) 0.0232(2)
C14K C 0.4661(4) 0.2196(5) 0.1070(3)
C14B C 0.7804(4) 0.5339(5) 0.3930(3)
C14I C 0.7535(4) 0.5339(5) 0.1070(3)
C14A C 0.7535(4) 0.2196(5) 0.3930(3)
C14J C 0.7804(4) 0.2465(5) 0.1070(3)
C15K C 0.4657(5) 0.2122(5) 0.0463(3)
C15B C 0.7878(5) 0.5343(5) 0.4537(3)
C15I C 0.7465(5) 0.5343(5) 0.0463(3)
C15A C 0.7465(5) 0.2122(5) 0.4537(3)
C15J C 0.7878(5) 0.2535(5) 0.0463(3)
C16K C 0.4647(4) 0.2296(5) 0.2203(3)
C16B C 0.7704(4) 0.5353(5) 0.2797(3)
C16I C 0.7649(4) 0.5353(5) 0.2203(3)
C16A C 0.7649(4) 0.2296(5) 0.2797(3)
C16J C 0.7704(4) 0.2351(5) 0.2203(3)
C17K C 0.5312(4) 0.2852(4) 0.1896(3)
C17B C 0.7148(4) 0.4688(4) 0.3104(3)
C17I C 0.7540(4) 0.4688(4) 0.1896(3)
C17A C 0.7540(4) 0.2852(4) 0.3104(3)
C17J C 0.7148(4) 0.2460(4) 0.1896(3)
H9K H 0.57700 0.32780 0.20690
H9B H 0.67220 0.42300 0.29310
H9I H 0.75080 0.42300 0.20690
H9A H 0.75080 0.32780 0.29310
H9J H 0.67220 0.24920 0.20690
C18K C 0.3964(5) 0.1680(7) 0.1920(3)
C18B C 0.8320(5) 0.6036(7) 0.3080(3)
C18I C 0.7716(5) 0.6036(7) 0.1920(3)
C18A C 0.7716(5) 0.1680(7) 0.3080(3)
C18J C 0.8320(5) 0.2284(7) 0.1920(3)
H10K H 0.34940 0.13080 0.21110
H10B H 0.86920 0.65060 0.28890
H10I H 0.78140 0.65060 0.21110
H10A H 0.78140 0.13080 0.28890
H10J H 0.86920 0.21860 0.21110
C19K C 0.5325(4) 0.2806(5) 0.1358(3)
C19B C 0.7194(4) 0.4675(5) 0.3642(3)
C19I C 0.7481(4) 0.4675(5) 0.1358(3)
C19A C 0.7481(4) 0.2806(5) 0.3642(3)
C19J C 0.7194(4) 0.2519(5) 0.1358(3)
H11K H 0.57920 0.31930 0.11710
H11B H 0.68070 0.42080 0.38290
H11I H 0.74010 0.42080 0.11710
H11A H 0.74010 0.31930 0.38290
H11J H 0.68070 0.25990 0.11710
C20K C 0.3966(5) 0.1609(7) 0.1371(3)
C20B C 0.8391(5) 0.6034(7) 0.3629(3)
C20I C 0.7643(5) 0.6034(7) 0.1371(3)
C20A C 0.7643(5) 0.1609(7) 0.3629(3)
C20J C 0.8391(5) 0.2357(7) 0.1371(3)
H12K H 0.35140 0.11780 0.11970
H12B H 0.88220 0.64860 0.38030
H12I H 0.76640 0.64860 0.11970
H12A H 0.76640 0.11780 0.38030
H12J H 0.88220 0.23360 0.11970
Na1K Na 0.66670 0.33340 -0.01493(13)
H13F H 0.272(1) 0.2389(30) 0.493(2)
H14G H 0.430(3) -0.042(2) 0.5144(19)
H15G H 0.614(4) 1.035(3) 0.523(2)
H16G H 0.24(2) 1.01(2) 0.481(13)
#END
