
#######################################################################
#
#                 Cambridge Crystallographic Data Centre
#                                CCDC
#
#######################################################################
#
# If this CIF has been generated from an entry in the Cambridge
# Structural Database, then it will include bibliographic, chemical,
# crystal, experimental, refinement or atomic coordinate data resulting
# from the CCDC's data processing and validation procedures.
#
#######################################################################

data_CSD_CIF_NAVPEI
_audit_creation_date 2017-03-23
_audit_creation_method CSD-ConQuest-V1
_database_code_CSD NAVPEI
_database_code_depnum_ccdc_archive 'CCDC 1528739'
_chemical_formula_sum 'C114 H66 Hf6 O72'
_chemical_formula_moiety
;
(C114 H48 Hf6 O66 6-)n,6n(H3 O1 1+)
;
_journal_coden_Cambridge 1147
_journal_volume 17
_journal_year 2017
_journal_page_first 2140
_journal_name_full 'Cryst.Growth Des. '
loop_
_publ_author_name
"Hyungphil Chun"
"Dohyun Moon"
_chemical_name_systematic
;
catena-(hexakis(oxonium) 
hexakis(\m-2,5-dioxidoterephthalate)-hexakis(benzoato)-hexa-hafnium(iv))
;
_cell_volume  18448.501
_exptl_crystal_colour 'brown'
_exptl_special_details
;
The reported formula is C13.25 H5.75 Hf O8.25

;
_exptl_crystal_description 'hexagonal plate'
_diffrn_ambient_temperature 223
_diffrn_radiation_probe x-ray
_diffrn_source synchrotron
_diffrn_special_details
;
twin

;
_refine_special_details
;
The structure is disordered by symmetry. PLATON/SQUEEZE was used to take into 
account some disordered electron density. The oxonium cation is partially 
occupied, as is the benzoate ligand.
;
#These two values have been output from a single CSD field.
_refine_ls_R_factor_gt 0.0499
_refine_ls_wR_factor_gt 0.0499
_symmetry_cell_setting rhombohedral
_symmetry_space_group_name_H-M 'R -3'
_symmetry_Int_Tables_number 148
loop_
_symmetry_equiv_pos_site_id
_symmetry_equiv_pos_as_xyz
1 x,y,z
2 -y,x-y,z
3 -x+y,-x,z
4 2/3+x,1/3+y,1/3+z
5 2/3-y,1/3+x-y,1/3+z
6 2/3-x+y,1/3-x,1/3+z
7 1/3+x,2/3+y,2/3+z
8 1/3-y,2/3+x-y,2/3+z
9 1/3-x+y,2/3-x,2/3+z
10 -x,-y,-z
11 y,-x+y,-z
12 x-y,x,-z
13 -2/3-x,-1/3-y,-1/3-z
14 -2/3+y,-1/3-x+y,-1/3-z
15 -2/3+x-y,-1/3+x,-1/3-z
16 -1/3-x,-2/3-y,-2/3-z
17 -1/3+y,-2/3-x+y,-2/3-z
18 -1/3+x-y,-2/3+x,-2/3-z
_cell_length_a 19.677(3)
_cell_length_b 19.677(3)
_cell_length_c 55.019(11)
_cell_angle_alpha 90
_cell_angle_beta 90
_cell_angle_gamma 120
_cell_formula_units_Z 6
loop_
_atom_type_symbol
_atom_type_radius_bond
C 0.68
H 0.23
Hf 1.75
O 0.68
loop_
_atom_site_label
_atom_site_type_symbol
_atom_site_fract_x
_atom_site_fract_y
_atom_site_fract_z
Hf1 Hf 0.13093(2) 0.20557(2) 0.15507(2)
O1 O 0.1193(3) 0.1824(3) 0.19662(9)
O2 O 0.1262(3) 0.2889(2) 0.18142(8)
C1 C 0.1178(5) 0.2453(4) 0.20006(11)
C2 C 0.0978(5) 0.2641(4) 0.22454(12)
C3 C 0.1065(7) 0.2267(5) 0.24514(15)
H1 H 0.12600 0.19190 0.24410
C4 C 0.0836(7) 0.2455(7) 0.26762(16)
H2 H 0.08680 0.22080 0.28190
C5 C 0.0577(7) 0.2966(8) 0.26936(18)
H3 H 0.04980 0.31140 0.28490
C6 C 0.0419(6) 0.3289(6) 0.24898(19)
H4 H 0.01690 0.35880 0.25030
C7 C 0.0656(6) 0.3143(6) 0.22625(15)
H5 H 0.05980 0.33790 0.21220
Hf2 Hf 0.26151(2) 0.46394(2) 0.01459(2)
O3 O 0.2691(4) 0.4888(4) -0.02617(10)
O4 O 0.1825(4) 0.3760(3) -0.01203(9)
C8 C 0.2119(5) 0.4199(5) -0.03004(13)
C9 C 0.1968(7) 0.3899(7) -0.05477(18)
C10 C 0.2257(10) 0.4360(9) -0.07424(16)
H6 H 0.25510 0.48970 -0.07040
C11 C 0.2214(12) 0.4218(12) -0.0978(2)
H7 H 0.24740 0.45940 -0.11000
C12 C 0.1689(14) 0.3371(11) -0.1017(2)
H8 H 0.16170 0.31810 -0.11770
C13 C 0.1312(17) 0.2859(16) -0.0841(4)
H9 H 0.09660 0.23280 -0.08770
C14 C 0.1440(11) 0.3129(8) -0.05887(19)
H10 H 0.11670 0.27850 -0.04600
O5 O 0.1056(3) 0.1556(2) 0.12084(8)
O6 O 0.0669(6) 0.1239(4) 0.08222(13)
O7 O 0.1584(3) 0.3000(2) 0.13470(7)
O8 O 0.2960(3) 0.5162(3) 0.04920(8)
O9 O 0.3116(4) 0.5484(3) 0.08799(10)
O10 O 0.1943(3) 0.3703(2) 0.03641(7)
C15 C 0.1005(6) 0.1746(4) 0.09868(12)
C16 C 0.1412(5) 0.2586(4) 0.09227(12)
C17 C 0.1720(3) 0.3174(3) 0.11041(10)
C18 C 0.2139(3) 0.3920(3) 0.10331(10)
H11 H 0.23640 0.43160 0.11520
C19 C 0.2259(3) 0.4142(3) 0.0777(1)
C20 C 0.1905(4) 0.3573(3) 0.06041(10)
C21 C 0.1509(5) 0.2772(4) 0.06861(11)
H12 H 0.13110 0.23670 0.05700
C22 C 0.2769(4) 0.4952(4) 0.07221(14)
O11 O 0.1195(2) 0.0894(2) 0.15918(8)
O12 O 0.2440(2) 0.2367(2) 0.15836(8)
O13 O 0.1437(3) -0.0080(2) 0.15828(8)
C23 C 0.1670(3) 0.0642(3) 0.16029(9)
C24 C 0.2522(3) 0.1176(3) 0.16348(8)
C25 C 0.2846(2) 0.1993(3) 0.16277(9)
C26 C 0.3672(2) 0.2467(3) 0.16593(9)
H13 H 0.39000 0.30160 0.16530
O14 O 0.3658(2) 0.5800(2) 0.00954(7)
O15 O 0.3423(2) 0.4322(2) 0.01033(9)
O16 O 0.4866(2) 0.6752(4) 0.01255(11)
C27 C 0.4375(3) 0.6037(3) 0.00961(9)
C28 C 0.4683(3) 0.5494(3) 0.00477(9)
C29 C 0.4179(3) 0.4648(3) 0.00462(10)
C30 C 0.5497(3) 0.5798(3) -0.00009(11)
H14 H 0.58260 0.63460 -0.00010
O17 O 0.00000 0.00000 0.1191(2)
O18 O 0.33330 0.66670 0.0525(2)
O19 O 0.33330 0.66670 -0.0341(3)
O20 O 0.00000 0.00000 0.2047(5)
O21 O 0.33330 0.66670 0.16670
O22 O 0.00000 0.00000 0.0491(3)
O23 O 0.00000 0.00000 0.2463(5)
O11O O 0.547167(200) 0.243933(200) 0.174153(80)
O12O O 0.422667(200) 0.096633(200) 0.174973(80)
O13O O 0.522967(300) 0.341333(200) 0.175053(80)
C23O C 0.499667(300) 0.269133(300) 0.173043(90)
C24O C 0.414467(300) 0.215733(300) 0.169853(80)
C25O C 0.382067(200) 0.134033(300) 0.170563(90)
C26O C 0.299467(200) 0.086633(300) 0.167403(90)
H13O H 0.27667 0.03173 0.16803
O14I O 0.6342(2) 0.4200(2) -0.00954(7)
O15I O 0.6577(2) 0.5678(2) -0.01033(9)
O16I O 0.5134(2) 0.3248(4) -0.01255(11)
C27I C 0.5625(3) 0.3963(3) -0.00961(9)
C28I C 0.5317(3) 0.4506(3) -0.00477(9)
C29I C 0.5821(3) 0.5352(3) -0.00462(10)
C30I C 0.4503(3) 0.4202(3) 0.00009(11)
H14I H 0.41740 0.36540 0.00010
Hf1B Hf 0.07464(2) -0.13093(2) 0.15507(2)
O1B O 0.0631(3) -0.1193(3) 0.19662(9)
O2B O 0.1627(3) -0.1262(2) 0.18142(8)
C1B C 0.1275(5) -0.1178(4) 0.20006(11)
C2B C 0.1663(5) -0.0978(4) 0.22454(12)
C3B C 0.1202(7) -0.1065(5) 0.24514(15)
H1B H 0.06590 -0.12600 0.24410
C4B C 0.1619(7) -0.0836(7) 0.26762(16)
H2B H 0.13400 -0.08680 0.28190
C5B C 0.2389(7) -0.0577(8) 0.26936(18)
H3B H 0.26160 -0.04980 0.28490
C6B C 0.2870(6) -0.0419(6) 0.24898(19)
H4B H 0.34190 -0.01690 0.25030
C7B C 0.2487(6) -0.0656(6) 0.22625(15)
H5B H 0.27810 -0.05980 0.21220
Hf2B Hf 0.20243(2) -0.26151(2) 0.01459(2)
O3B O 0.2197(4) -0.2691(4) -0.02617(10)
O4B O 0.1935(4) -0.1825(3) -0.01203(9)
C8B C 0.2080(5) -0.2119(5) -0.03004(13)
C9B C 0.1931(7) -0.1968(7) -0.05477(18)
C10B C 0.2103(10) -0.2257(9) -0.07424(16)
H6B H 0.23460 -0.25510 -0.07040
C11B C 0.2004(12) -0.2214(12) -0.0978(2)
H7B H 0.21200 -0.24740 -0.11000
C12B C 0.1682(14) -0.1689(11) -0.1017(2)
H8B H 0.15640 -0.16170 -0.11770
C13B C 0.1547(17) -0.1312(16) -0.0841(4)
H9B H 0.13620 -0.09660 -0.08770
C14B C 0.1689(11) -0.1440(8) -0.05887(19)
H10B H 0.16180 -0.11670 -0.04600
O5B O 0.0500(3) -0.1056(2) 0.12084(8)
O6B O 0.0570(6) -0.0669(4) 0.08222(13)
O7B O 0.1416(3) -0.1584(2) 0.13470(7)
O8B O 0.2202(3) -0.2960(3) 0.04920(8)
O9B O 0.2368(4) -0.3116(3) 0.08799(10)
O10B O 0.1760(3) -0.1943(2) 0.03641(7)
C15B C 0.0741(6) -0.1005(4) 0.09868(12)
C16B C 0.1174(5) -0.1412(4) 0.09227(12)
C17B C 0.1454(3) -0.1720(3) 0.11041(10)
C18B C 0.1781(3) -0.2139(3) 0.10331(10)
H11B H 0.19520 -0.23640 0.11520
C19B C 0.1883(3) -0.2259(3) 0.0777(1)
C20B C 0.1668(4) -0.1905(3) 0.06041(10)
C21B C 0.1263(5) -0.1509(4) 0.06861(11)
H12B H 0.10560 -0.13110 0.05700
C22B C 0.2183(4) -0.2769(4) 0.07221(14)
Hf1O Hf 0.535737(20) 0.127763(20) 0.178263(20)
Hf1Q Hf 0.592027(20) 0.464263(20) 0.178263(20)
Hf2A Hf 0.53606(2) 0.79757(2) 0.01459(2)
Hf2I Hf 0.73849(2) 0.53606(2) -0.01459(2)
Hf2J Hf 0.46394(2) 0.20243(2) -0.01459(2)
O11B O -0.0301(2) -0.1195(2) 0.15918(8)
O12B O -0.0073(2) -0.2440(2) 0.15836(8)
O13A O 0.0080(3) 0.1517(2) 0.15828(8)
O14B O 0.2142(2) -0.3658(2) 0.00954(7)
O15B O 0.0899(2) -0.3423(2) 0.01033(9)
O16A O 0.3248(2) -0.1886(4) 0.01255(11)
O16B O 0.1886(2) 0.5134(4) 0.01255(11)
Hf1A Hf -0.20557(2) -0.07464(2) 0.15507(2)
O1A O -0.1824(3) -0.0631(3) 0.19662(9)
O2A O -0.2889(3) -0.1627(2) 0.18142(8)
O5A O -0.1556(3) -0.0500(2) 0.12084(8)
O7A O -0.3000(3) -0.1416(2) 0.13470(7)
O11A O -0.0894(2) 0.0301(2) 0.15918(8)
O12A O -0.2367(2) 0.0073(2) 0.15836(8)
O13B O -0.1517(3) -0.1437(2) 0.15828(8)
C1A C -0.2453(5) -0.1275(4) 0.20006(11)
C2A C -0.2641(5) -0.1663(4) 0.22454(12)
C3A C -0.2267(7) -0.1202(5) 0.24514(15)
C7A C -0.3143(6) -0.2487(6) 0.22625(15)
H1A H -0.19190 -0.06590 0.24410
C4A C -0.2455(7) -0.1619(7) 0.26762(16)
H2A H -0.22080 -0.13400 0.28190
C5A C -0.2966(7) -0.2389(8) 0.26936(18)
H3A H -0.31140 -0.26160 0.28490
C6A C -0.3289(6) -0.2870(6) 0.24898(19)
H4A H -0.35880 -0.34190 0.25030
H5A H -0.33790 -0.27810 0.21220
Hf2A* Hf -0.46394(2) -0.20243(2) 0.01459(2)
O3A O -0.4888(4) -0.2197(4) -0.02617(10)
O4A O -0.3760(4) -0.1935(3) -0.01203(9)
O8A O -0.5162(3) -0.2202(3) 0.04920(8)
O10A O -0.3703(3) -0.1760(2) 0.03641(7)
O14A O -0.5800(2) -0.2142(2) 0.00954(7)
O15A O -0.4322(2) -0.0899(2) 0.01033(9)
O16* O -0.5134(2) -0.3248(4) 0.01255(11)
C8A C -0.4199(5) -0.2080(5) -0.03004(13)
C9A C -0.3899(7) -0.1931(7) -0.05477(18)
C10A C -0.436(1) -0.2103(9) -0.07424(16)
C14A C -0.3129(11) -0.1689(8) -0.05887(19)
H6A H -0.48970 -0.23460 -0.07040
C11A C -0.4218(12) -0.2004(12) -0.0978(2)
H7A H -0.45940 -0.21200 -0.11000
C12A C -0.3371(14) -0.1682(11) -0.1017(2)
H8A H -0.31810 -0.15640 -0.11770
C13A C -0.2859(17) -0.1547(16) -0.0841(4)
H9A H -0.23280 -0.13620 -0.08770
H10A H -0.27850 -0.16180 -0.04600
C15A C -0.1746(6) -0.0741(4) 0.09868(12)
O6A O -0.1239(6) -0.0570(4) 0.08222(13)
C17A C -0.3174(3) -0.1454(3) 0.11041(10)
C22A C -0.4952(4) -0.2183(4) 0.07221(14)
O9A O -0.5484(4) -0.2368(3) 0.08799(10)
C20A C -0.3573(4) -0.1668(3) 0.06041(10)
C16A C -0.2586(5) -0.1174(4) 0.09227(12)
C21A C -0.2772(5) -0.1263(4) 0.06861(11)
C18A C -0.3920(3) -0.1781(3) 0.10331(10)
H11A H -0.43160 -0.19520 0.11520
C19A C -0.4142(3) -0.1883(3) 0.0777(1)
H12A H -0.23670 -0.10560 0.05700
C23A C -0.0642(3) 0.1028(3) 0.16029(9)
C25A C -0.1993(2) 0.0853(3) 0.16277(9)
C24A C -0.1176(3) 0.1346(3) 0.16348(8)
C26P C -0.086633(200) 0.212833(300) 0.167403(90)
C26A C -0.2467(2) 0.1205(3) 0.16593(9)
H13A H -0.30160 0.08840 0.16530
C24P C -0.215733(300) 0.198733(300) 0.169853(80)
C27A C -0.6037(3) -0.1662(3) 0.00961(9)
C29A C -0.4648(3) -0.0469(3) 0.00462(10)
O16A* O -0.6752(2) -0.1886(4) 0.01255(11)
Hf2B* Hf -0.79757(2) -0.26151(2) 0.01459(2)
C28A C -0.5494(3) -0.0811(3) 0.00477(9)
C30A C -0.5798(3) -0.0301(3) -0.00009(11)
C30J C -0.4202(3) 0.0301(3) 0.00009(11)
H14A H -0.63460 -0.05200 -0.00010
C29J C -0.5352(3) 0.0469(3) -0.00462(10)
O11P O -0.243933(200) 0.303233(200) 0.174153(80)
C23P C -0.269133(300) 0.230533(300) 0.173043(90)
Hf1P Hf -0.127763(20) 0.407973(20) 0.178263(20)
O12P O -0.096633(200) 0.326033(200) 0.174973(80)
C25P C -0.134033(200) 0.248033(300) 0.170563(90)
O13P O -0.341333(300) 0.181633(200) 0.175053(80)
Hf1O* Hf -0.464263(20) 0.127763(20) 0.178263(20)
H13P H -0.03173 0.24493 0.16803
O14J O -0.4200(2) 0.2142(2) -0.00954(7)
C27J C -0.3963(3) 0.1662(3) -0.00961(9)
Hf2J* Hf -0.53606(2) 0.20243(2) -0.01459(2)
O15J O -0.5678(2) 0.0899(2) -0.01033(9)
O16J O -0.3248(2) 0.1886(4) -0.01255(11)
Hf2K Hf -0.20243(2) 0.26151(2) -0.01459(2)
C28J C -0.4506(3) 0.0811(3) -0.00477(9)
H14J H -0.36540 0.05200 0.00010
C23B C -0.1028(3) -0.1670(3) 0.16029(9)
C25B C -0.0853(2) -0.2846(3) 0.16277(9)
C24B C -0.1346(3) -0.2522(3) 0.16348(8)
C26Q C -0.212833(200) -0.299467(300) 0.167403(90)
C26B C -0.1205(2) -0.3672(3) 0.16593(9)
H13B H -0.08840 -0.39000 0.16530
C24Q C -0.198733(300) -0.414467(300) 0.169853(80)
C27B C 0.1662(3) -0.4375(3) 0.00961(9)
C29B C 0.0469(3) -0.4179(3) 0.00462(10)
O16B* O 0.1886(2) -0.4866(4) 0.01255(11)
Hf2* Hf 0.26151(2) -0.53606(2) 0.01459(2)
C28B C 0.0811(3) -0.4683(3) 0.00477(9)
C30B C 0.0301(3) -0.5497(3) -0.00009(11)
C30K C -0.0301(3) -0.4503(3) 0.00009(11)
H14B H 0.05200 -0.58260 -0.00010
C29K C -0.0469(3) -0.5821(3) -0.00462(10)
O11Q O -0.303233(200) -0.547167(200) 0.174153(80)
C23Q C -0.230533(300) -0.499667(300) 0.173043(90)
Hf1Q* Hf -0.407973(20) -0.535737(20) 0.178263(20)
O12Q O -0.326033(200) -0.422667(200) 0.174973(80)
C25Q C -0.248033(200) -0.382067(300) 0.170563(90)
O13Q O -0.181633(300) -0.522967(200) 0.175053(80)
Hf1P* Hf -0.127763(20) -0.592027(20) 0.178263(20)
H13Q H -0.24493 -0.27667 0.16803
O14K O -0.2142(2) -0.6342(2) -0.00954(7)
C27K C -0.1662(3) -0.5625(3) -0.00961(9)
Hf2K* Hf -0.20243(2) -0.73849(2) -0.01459(2)
O15K O -0.0899(2) -0.6577(2) -0.01033(9)
O16K O -0.1886(2) -0.5134(4) -0.01255(11)
Hf2I* Hf -0.26151(2) -0.46394(2) -0.01459(2)
C28K C -0.0811(3) -0.5317(3) -0.00477(9)
H14K H -0.05200 -0.41740 0.00010
#END
