
#######################################################################
#
#                 Cambridge Crystallographic Data Centre
#                                CCDC
#
#######################################################################
#
# If this CIF has been generated from an entry in the Cambridge
# Structural Database, then it will include bibliographic, chemical,
# crystal, experimental, refinement or atomic coordinate data resulting
# from the CCDC's data processing and validation procedures.
#
#######################################################################

data_CSD_CIF_NAVPAE
_audit_creation_date 2017-03-23
_audit_creation_method CSD-ConQuest-V1
_database_code_CSD NAVPAE
_database_code_depnum_ccdc_archive 'CCDC 1528738'
_chemical_formula_sum 'C192.6 H149.4 N4.2 O112.2 Zr12'
_chemical_formula_moiety
;
(C180 H84 O96 Zr12 12-)n,4.2n(C3 H7 N1 O1),12n(H3 O1 1+)
;
_journal_coden_Cambridge 1147
_journal_volume 17
_journal_year 2017
_journal_page_first 2140
_journal_name_full 'Cryst.Growth Des. '
loop_
_publ_author_name
"Hyungphil Chun"
"Dohyun Moon"
_chemical_name_systematic
;
catena-(dodecakis(oxonium) 
dodecakis(\m-2,5-dioxidoterephthalate)-dodecakis(benzoato)-dodeca-zirconium(iv
) N,N-dimethylformamide solvate)
;
_cell_volume  18367.691
_exptl_crystal_colour 'yellow'
_exptl_special_details
;
The formula is reported as C14.88 H9.62 N0.35 O8.85 Zr. The formula reported 
in the paper appears to indicate that the oxonium cation is present at an 
occupancy of 0.83 with the benzoate also present at 0.83 occupancy
;
_exptl_crystal_description 'hexagonal block'
_diffrn_ambient_temperature 100
_diffrn_radiation_probe x-ray
_diffrn_source synchrotron
_diffrn_special_details
;
twin

;
_refine_special_details
;
The structure is disordered by symmetry. PLATON/SQUEEZE was used to take into 
account some disordered electron density. The oxonium cation is partially 
occupied, as is the benzoate ligand.
;
#These two values have been output from a single CSD field.
_refine_ls_R_factor_gt 0.0525
_refine_ls_wR_factor_gt 0.0525
_symmetry_cell_setting rhombohedral
_symmetry_space_group_name_H-M 'R -3'
_symmetry_Int_Tables_number 148
loop_
_symmetry_equiv_pos_site_id
_symmetry_equiv_pos_as_xyz
1 x,y,z
2 -y,x-y,z
3 -x+y,-x,z
4 2/3+x,1/3+y,1/3+z
5 2/3-y,1/3+x-y,1/3+z
6 2/3-x+y,1/3-x,1/3+z
7 1/3+x,2/3+y,2/3+z
8 1/3-y,2/3+x-y,2/3+z
9 1/3-x+y,2/3-x,2/3+z
10 -x,-y,-z
11 y,-x+y,-z
12 x-y,x,-z
13 -2/3-x,-1/3-y,-1/3-z
14 -2/3+y,-1/3-x+y,-1/3-z
15 -2/3+x-y,-1/3+x,-1/3-z
16 -1/3-x,-2/3-y,-2/3-z
17 -1/3+y,-2/3-x+y,-2/3-z
18 -1/3+x-y,-2/3+x,-2/3-z
_cell_length_a 19.677(3)
_cell_length_b 19.677(3)
_cell_length_c 54.778(11)
_cell_angle_alpha 90
_cell_angle_beta 90
_cell_angle_gamma 120
_cell_formula_units_Z 3
loop_
_atom_type_symbol
_atom_type_radius_bond
C 0.68
H 0.23
N 0.68
O 0.68
Zr 1.75
loop_
_atom_site_label
_atom_site_type_symbol
_atom_site_fract_x
_atom_site_fract_y
_atom_site_fract_z
Zr1 Zr 0.54074(2) 0.74292(2) 0.01046(2)
O1 O 0.52188(16) 0.73146(16) -0.03125(5)
O2 O 0.62525(13) 0.83341(15) -0.01588(4)
C1 C 0.58160(19) 0.7992(2) -0.03444(6)
C2 C 0.5987(2) 0.8396(2) -0.05851(6)
C3 C 0.6482(2) 0.9209(3) -0.06008(8)
H1 H 0.67260 0.95060 -0.04580
C4 C 0.6617(3) 0.9583(3) -0.08259(9)
H2 H 0.69200 1.01390 -0.08350
C5 C 0.6311(3) 0.9144(4) -0.10378(8)
H3 H 0.64350 0.93960 -0.11920
C6 C 0.5823(4) 0.8337(4) -0.10224(9)
H4 H 0.56070 0.80380 -0.11670
C7 C 0.5646(3) 0.7957(3) -0.07937(8)
H5 H 0.52980 0.74080 -0.07830
Zr2 Zr 0.79594(2) 0.86891(2) 0.15236(2)
O3 O 0.8209(2) 0.8883(2) 0.19357(6)
O4 O 0.70699(18) 0.8605(2) 0.17912(5)
C8 C 0.7516(3) 0.8721(3) 0.19740(6)
C9 C 0.7208(4) 0.8603(4) 0.22227(9)
C10 C 0.7726(5) 0.8760(5) 0.24214(9)
H6 H 0.82690 0.89590 0.23920
C11 C 0.7448(7) 0.8628(7) 0.26548(11)
H7 H 0.77970 0.87450 0.27880
C12 C 0.6695(8) 0.8339(7) 0.26935(13)
H8 H 0.65140 0.82480 0.28570
C13 C 0.6133(7) 0.8152(7) 0.25035(15)
H9 H 0.55910 0.79350 0.25390
C14 C 0.6412(5) 0.8301(5) 0.22616(12)
H10 H 0.60640 0.81970 0.21290
O5 O 0.63486(13) 0.81093(14) 0.03175(4)
O6 O 0.49006(15) 0.71684(19) 0.04529(5)
O7 O 0.45751(19) 0.7343(4) 0.08267(6)
O8 O 0.70434(14) 0.84446(15) 0.13040(4)
O9 O 0.84843(16) 0.88411(19) 0.11726(5)
O10 O 0.88270(17) 0.9072(2) 0.07856(5)
C15 C 0.65044(17) 0.81445(17) 0.05556(6)
C16 C 0.59228(19) 0.7878(2) 0.07352(6)
C17 C 0.61173(19) 0.7986(2) 0.09832(6)
H11 H 0.57090 0.78150 0.11010
C18 C 0.68937(18) 0.83378(19) 0.10630(6)
C19 C 0.74800(18) 0.85582(19) 0.08811(6)
C20 C 0.72813(18) 0.84723(18) 0.06306(6)
H12 H 0.76850 0.86410 0.05120
C21 C 0.5081(2) 0.7440(3) 0.06738(6)
C22 C 0.8308(2) 0.8843(2) 0.09434(6)
O11 O 0.57024(12) 0.65955(11) 0.00773(5)
O12 O 0.67443(18) 0.48288(13) -0.00681(5)
O13 O 0.57598(12) 0.36179(12) -0.00585(4)
C23 C 0.53479(14) 0.58242(14) 0.00360(5)
C24 C 0.58085(14) 0.54704(14) 0.00087(5)
H13 H 0.63640 0.57910 0.00140
C25 C 0.54827(14) 0.46651(14) -0.00254(4)
C26 C 0.60200(19) 0.43461(14) -0.00510(5)
O14 O 0.76511(12) 0.75646(12) 0.15713(5)
O15 O 1.00755(13) 0.85468(19) 0.15367(6)
O16 O 0.91213(13) 0.88045(12) 0.15778(4)
C27 C 0.79961(15) 0.71435(15) 0.16210(5)
C28 C 0.75258(16) 0.63445(15) 0.16726(6)
H14 H 0.69720 0.61220 0.16790
C29 C 0.88180(14) 0.74685(14) 0.16190(5)
C30 C 0.93634(15) 0.83242(22) 0.15727(5)
N1 N 0.9595(4) 0.7504(4) 0.05587(16)
C31 C 0.9656(5) 0.7978(6) 0.03827(18)
C32 C 0.9365(4) 0.7657(4) 0.08056(16)
H15 H 0.93380 0.72670 0.09220
H16 H 0.97570 0.81840 0.08610
H17 H 0.88510 0.76210 0.07950
C33 C 0.9835(4) 0.6880(4) 0.0517(2)
H18 H 0.97510 0.65780 0.06680
H19 H 0.95160 0.65260 0.03860
H20 H 1.03910 0.71370 0.04720
O17 O 0.9475(4) 0.8524(4) 0.04060(13)
H21 H 0.98440 0.79200 0.02290
H22 H 1.02150 1.04640 0.11940
O18 O 1.00000 1.00000 0.11504(15)
H23 H 0.31230 0.68900 0.05050
O19 O 0.33330 0.66670 0.04474(11)
O20 O 0.33330 0.66670 0.11706(17)
O21 O 0.33330 0.66670 -0.0384(3)
O22 O 1.00000 1.00000 0.1980(2)
O23 O 1.00000 1.00000 0.00000
O24? O 0.9949(4) 0.7813(6) 0.01281(17)
O11I O 0.42976(12) 0.34045(11) -0.00773(5)
O12I O 0.32557(18) 0.51712(13) 0.00681(5)
O13I O 0.42402(12) 0.63821(12) 0.00585(4)
C23I C 0.46521(14) 0.41758(14) -0.00360(5)
C24I C 0.41915(14) 0.45296(14) -0.00087(5)
H13I H 0.36360 0.42090 -0.00140
C25I C 0.45173(14) 0.53349(14) 0.00254(4)
C26I C 0.39800(19) 0.56539(14) 0.00510(5)
O14O O 0.901557(120) 0.576873(120) 0.176203(50)
O15O O 0.659117(130) 0.478653(190) 0.179663(60)
O16O O 0.754537(130) 0.452883(120) 0.175553(40)
C27O C 0.867057(150) 0.618983(150) 0.171233(50)
C28O C 0.914087(160) 0.698883(150) 0.166073(60)
H14O H 0.96947 0.72113 0.16543
C29O C 0.784867(140) 0.586483(140) 0.171433(50)
C30O C 0.730327(150) 0.500913(220) 0.176063(50)
Zr1K Zr 0.79782(2) 0.54074(2) -0.01046(2)
O1K O 0.79042(16) 0.52188(16) 0.03125(5)
O2K O 0.79184(13) 0.62525(15) 0.01588(4)
C1K C 0.78240(19) 0.5816(2) 0.03444(6)
C2K C 0.7591(2) 0.5987(2) 0.05851(6)
C3K C 0.7273(2) 0.6482(3) 0.06008(8)
H1K H 0.72200 0.67260 0.04580
C4K C 0.7034(3) 0.6617(3) 0.08259(9)
H2K H 0.67810 0.69200 0.08350
C5K C 0.7167(3) 0.6311(4) 0.10378(8)
H3K H 0.70390 0.64350 0.11920
C6K C 0.7486(4) 0.5823(4) 0.10224(9)
H4K H 0.75690 0.56070 0.11670
C7K C 0.7689(3) 0.5646(3) 0.07937(8)
H5K H 0.78900 0.52980 0.07830
Zr2K Zr 0.92703(2) 0.79594(2) -0.15236(2)
O3K O 0.9326(2) 0.8209(2) -0.19357(6)
O4K O 0.84649(18) 0.70699(20) -0.17912(5)
C8K C 0.8795(3) 0.7516(3) -0.19740(6)
C9K C 0.8605(4) 0.7208(4) -0.22227(9)
C10K C 0.8966(5) 0.7726(5) -0.24214(9)
H6K H 0.93100 0.82690 -0.23920
C11K C 0.8820(7) 0.7448(7) -0.26548(11)
H7K H 0.90520 0.77970 -0.27880
C12K C 0.8356(8) 0.6695(7) -0.26935(13)
H8K H 0.82660 0.65140 -0.28570
C13K C 0.7981(7) 0.6133(7) -0.25035(15)
H9K H 0.76560 0.55910 -0.25390
C14K C 0.8111(5) 0.6412(5) -0.22616(12)
H10K H 0.78670 0.60640 -0.21290
O5K O 0.82393(13) 0.63486(14) -0.03175(4)
O6K O 0.77322(15) 0.49006(19) -0.04529(5)
O7K O 0.72321(19) 0.45751(40) -0.08267(6)
O8K O 0.85988(14) 0.70434(15) -0.13040(4)
O9K O 0.96432(16) 0.84843(19) -0.11726(5)
O10K O 0.97550(17) 0.8827(2) -0.07856(5)
C15K C 0.83599(17) 0.65044(17) -0.05556(6)
C16K C 0.80448(19) 0.59228(20) -0.07352(6)
C17K C 0.81313(19) 0.61173(20) -0.09832(6)
H11K H 0.78940 0.57090 -0.11010
C18K C 0.85559(18) 0.68937(19) -0.10630(6)
C19K C 0.89218(18) 0.74800(19) -0.08811(6)
C20K C 0.88090(18) 0.72813(18) -0.06306(6)
H12K H 0.90440 0.76850 -0.05120
C21K C 0.7641(2) 0.5081(3) -0.06738(6)
C22K C 0.9465(2) 0.8308(2) -0.09434(6)
Zr1B Zr 0.20218(2) 0.45926(2) 0.01046(2)
Zr1I Zr 0.45926(2) 0.25708(2) -0.01046(2)
Zr2A Zr 1.13109(2) 0.92703(2) 0.15236(2)
Zr2O Zr 0.870727(20) 0.464423(20) 0.180973(20)
Zr2P Zr 0.535577(20) 0.406303(20) 0.180973(20)
O11K O 0.91069(12) 0.57024(11) -0.00773(5)
O12J O 0.48288(18) 0.80845(13) 0.00681(5)
O13B O 0.78581(12) 0.42402(12) -0.00585(4)
O14K O 1.00865(12) 0.76511(12) -0.15713(5)
O15B O 0.84713(13) 0.99245(19) 0.15367(6)
O15J O 0.85468(13) 0.84713(19) -0.15367(6)
O16K O 1.03168(13) 0.91213(12) -0.15778(4)
Zr1A Zr 1.25708(2) 0.79782(2) 0.01046(2)
O1A O 1.26854(16) 0.79042(16) -0.03125(5)
O2A O 1.16659(13) 0.79184(15) -0.01588(4)
O5A O 1.18907(13) 0.82393(14) 0.03175(4)
O6A O 1.28316(15) 0.77322(19) 0.04529(5)
O11A O 1.34045(12) 0.91069(11) 0.00773(5)
O13J O 1.36179(12) 0.78581(12) 0.00585(4)
O12K O 1.19155(18) 0.67443(13) 0.00681(5)
C1A C 1.20080(19) 0.7824(2) -0.03444(6)
C2A C 1.1604(2) 0.7591(2) -0.05851(6)
C3A C 1.0791(2) 0.7273(3) -0.06008(8)
C7A C 1.2043(3) 0.7689(3) -0.07937(8)
H1A H 1.04940 0.72200 -0.04580
C4A C 1.0417(3) 0.7034(3) -0.08259(9)
H2A H 0.98610 0.67810 -0.08350
C5A C 1.0856(3) 0.7167(4) -0.10378(8)
H3A H 1.06040 0.70390 -0.11920
C6A C 1.1663(4) 0.7486(4) -0.10224(9)
H4A H 1.19620 0.75690 -0.11670
H5A H 1.25920 0.78900 -0.07830
O3A O 1.1117(2) 0.9326(2) 0.19357(6)
O4A O 1.13950(18) 0.84649(20) 0.17912(5)
O8A O 1.15554(14) 0.85988(15) 0.13040(4)
O9A O 1.11589(16) 0.96432(19) 0.11726(5)
O14A O 1.24354(12) 1.00865(12) 0.15713(5)
O16A O 1.11955(13) 1.03168(12) 0.15778(4)
C8A C 1.1279(3) 0.8795(3) 0.19740(6)
C9A C 1.1397(4) 0.8605(4) 0.22227(9)
C10A C 1.1240(5) 0.8966(5) 0.24214(9)
C14A C 1.1699(5) 0.8111(5) 0.22616(12)
H6A H 1.10410 0.93100 0.23920
C11A C 1.1372(7) 0.8820(7) 0.26548(11)
H7A H 1.12550 0.90520 0.27880
C12A C 1.1661(8) 0.8356(7) 0.26935(13)
H8A H 1.17520 0.82660 0.28570
C13A C 1.1848(7) 0.7981(7) 0.25035(15)
H9A H 1.20650 0.76560 0.25390
H10A H 1.18030 0.78670 0.21290
C15A C 1.18555(17) 0.83599(17) 0.05556(6)
C21A C 1.2560(2) 0.7641(3) 0.06738(6)
O7A O 1.26570(19) 0.72321(40) 0.08267(6)
C18A C 1.16622(18) 0.85559(19) 0.10630(6)
C22A C 1.1157(2) 0.9465(2) 0.09434(6)
O10A O 1.09280(17) 0.9755(2) 0.07856(5)
C16A C 1.21220(19) 0.80448(20) 0.07352(6)
C20A C 1.15277(18) 0.88090(18) 0.06306(6)
C17A C 1.20140(19) 0.81313(20) 0.09832(6)
H11A H 1.21850 0.78940 0.11010
C19A C 1.14418(18) 0.89218(19) 0.08811(6)
H12A H 1.13590 0.90440 0.05120
C23A C 1.41758(14) 0.95237(14) 0.00360(5)
O12A O 1.51712(18) 1.19155(13) -0.00681(5)
C26A C 1.56539(19) 1.16739(14) -0.00510(5)
Zr1I* Zr 1.45926(2) 1.25708(2) -0.01046(2)
O13A O 1.63821(12) 1.21419(12) -0.00585(4)
Zr1J Zr 1.74292(2) 1.20218(2) -0.01046(2)
C24A C 1.45296(14) 1.03381(14) 0.00087(5)
C25J C 1.46651(14) 0.91824(14) 0.00254(4)
H13A H 1.42090 1.05730 0.00140
C25A C 1.53349(14) 1.08176(14) -0.00254(4)
C23J C 1.58242(14) 1.04763(14) -0.00360(5)
C27A C 1.28565(15) 1.08526(15) 0.16210(5)
O15A O 1.14532(13) 1.15287(19) 0.15367(6)
C30A C 1.16758(15) 1.10392(22) 0.15727(5)
Zr2B Zr 1.07297(2) 1.20406(2) 0.15236(2)
C28A C 1.36555(16) 1.11813(15) 0.16726(6)
C29A C 1.25315(14) 1.13495(14) 0.16190(5)
H14A H 1.38780 1.08500 0.16790
C29P C 1.413517(140) 1.198383(140) 0.171433(50)
C28P C 1.301117(160) 1.215203(150) 0.166073(60)
O11J O 1.65955(12) 1.08931(11) -0.00773(5)
O12J* O 1.48288(18) 0.80845(13) 0.00681(5)
C26J C 1.43461(19) 0.83261(14) 0.00510(5)
Zr1* Zr 1.54074(2) 0.74292(2) 0.01046(2)
C24J C 1.54704(14) 0.96619(14) -0.00087(5)
H13J H 1.57910 0.94270 -0.00140
O14P O 1.423127(120) 1.324683(120) 0.176203(50)
C27P C 1.381017(150) 1.248073(150) 0.171233(50)
Zr2P* Zr 1.535577(20) 1.406303(20) 0.180973(20)
O15P O 1.521347(130) 1.180463(190) 0.179663(60)
C30P C 1.499087(150) 1.229413(220) 0.176063(50)
Zr2Q Zr 1.593697(20) 1.129273(20) 0.180973(20)
O16P O 1.547117(130) 1.301653(120) 0.175553(40)
H14P H 1.27887 1.24833 0.16543
O1I O 1.47812(16) 1.26854(16) 0.03125(5)
O2I O 1.37475(13) 1.16659(15) 0.01588(4)
O5I O 1.36514(13) 1.18907(14) -0.03175(4)
O6I O 1.50994(15) 1.28316(19) -0.04529(5)
O11I* O 1.42976(12) 1.34045(11) -0.00773(5)
O13* O 1.57598(12) 1.36179(12) -0.00585(4)
C1I C 1.41840(19) 1.2008(2) 0.03444(6)
C2I C 1.4013(2) 1.1604(2) 0.05851(6)
C3I C 1.3518(2) 1.0791(3) 0.06008(8)
C7I C 1.4354(3) 1.2043(3) 0.07937(8)
H1I H 1.32740 1.04940 0.04580
C4I C 1.3383(3) 1.0417(3) 0.08259(9)
H2I H 1.30800 0.98610 0.08350
C5I C 1.3689(3) 1.0856(4) 0.10378(8)
H3I H 1.35650 1.06040 0.11920
C6I C 1.4177(4) 1.1663(4) 0.10224(9)
H4I H 1.43930 1.19620 0.11670
H5I H 1.47020 1.25920 0.07830
Zr2I Zr 1.20406(2) 1.13109(2) -0.15236(2)
O3I O 1.1791(2) 1.1117(2) -0.19357(6)
O4I O 1.29301(18) 1.1395(2) -0.17912(5)
O8I O 1.29566(14) 1.15554(15) -0.13040(4)
O9I O 1.15157(16) 1.11589(19) -0.11726(5)
O14I O 1.23489(12) 1.24354(12) -0.15713(5)
O15K O 1.15287(13) 1.00755(19) -0.15367(6)
O16I O 1.08787(13) 1.11955(12) -0.15778(4)
C8I C 1.2484(3) 1.1279(3) -0.19740(6)
C9I C 1.2792(4) 1.1397(4) -0.22227(9)
C10I C 1.2274(5) 1.1240(5) -0.24214(9)
C14I C 1.3588(5) 1.1699(5) -0.22616(12)
H6I H 1.17310 1.10410 -0.23920
C11I C 1.2552(7) 1.1372(7) -0.26548(11)
H7I H 1.22030 1.12550 -0.27880
C12I C 1.3305(8) 1.1661(7) -0.26935(13)
H8I H 1.34860 1.17520 -0.28570
C13I C 1.3867(7) 1.1848(7) -0.25035(15)
H9I H 1.44090 1.20650 -0.25390
H10I H 1.39360 1.18030 -0.21290
C15I C 1.34956(17) 1.18555(17) -0.05556(6)
C21I C 1.4919(2) 1.2560(3) -0.06738(6)
O7I O 1.54249(19) 1.2657(4) -0.08267(6)
C18I C 1.31063(18) 1.16622(19) -0.10630(6)
C22I C 1.1692(2) 1.1157(2) -0.09434(6)
O10I O 1.11730(17) 1.0928(2) -0.07856(5)
C16I C 1.40772(19) 1.2122(2) -0.07352(6)
C20I C 1.27187(18) 1.15277(18) -0.06306(6)
C17I C 1.38827(19) 1.2014(2) -0.09832(6)
H11I H 1.42910 1.21850 -0.11010
C19I C 1.25200(18) 1.14418(19) -0.08811(6)
H12I H 1.23150 1.13590 -0.05120
Zr1B* Zr 1.20218(2) 1.45926(2) 0.01046(2)
O1B O 1.20958(16) 1.47812(16) -0.03125(5)
O2B O 1.20816(13) 1.37475(15) -0.01588(4)
O5B O 1.17607(13) 1.36514(14) 0.03175(4)
O6B O 1.22678(15) 1.50994(19) 0.04529(5)
O11B O 1.08931(12) 1.42976(11) 0.00773(5)
O13K O 1.21419(12) 1.57598(12) 0.00585(4)
O12I* O 1.32557(18) 1.51712(13) 0.00681(5)
C1B C 1.21760(19) 1.4184(2) -0.03444(6)
C2B C 1.2409(2) 1.4013(2) -0.05851(6)
C3B C 1.2727(2) 1.3518(3) -0.06008(8)
C7B C 1.2311(3) 1.4354(3) -0.07937(8)
H1B H 1.27800 1.32740 -0.04580
C4B C 1.2966(3) 1.3383(3) -0.08259(9)
H2B H 1.32190 1.30800 -0.08350
C5B C 1.2833(3) 1.3689(4) -0.10378(8)
H3B H 1.29610 1.35650 -0.11920
C6B C 1.2514(4) 1.4177(4) -0.10224(9)
H4B H 1.24310 1.43930 -0.11670
H5B H 1.21100 1.47020 -0.07830
O3B O 1.0674(2) 1.1791(2) 0.19357(6)
O4B O 1.15351(18) 1.29301(20) 0.17912(5)
O8B O 1.14012(14) 1.29566(15) 0.13040(4)
O9B O 1.03568(16) 1.15157(19) 0.11726(5)
O14B O 0.99135(12) 1.23489(12) 0.15713(5)
O16B O 0.96832(13) 1.08787(12) 0.15778(4)
C8B C 1.1205(3) 1.2484(3) 0.19740(6)
C9B C 1.1395(4) 1.2792(4) 0.22227(9)
C10B C 1.1034(5) 1.2274(5) 0.24214(9)
C14B C 1.1889(5) 1.3588(5) 0.22616(12)
H6B H 1.06900 1.17310 0.23920
C11B C 1.1180(7) 1.2552(7) 0.26548(11)
H7B H 1.09480 1.22030 0.27880
C12B C 1.1644(8) 1.3305(7) 0.26935(13)
H8B H 1.17340 1.34860 0.28570
C13B C 1.2019(7) 1.3867(7) 0.25035(15)
H9B H 1.23440 1.44090 0.25390
H10B H 1.21330 1.39360 0.21290
C15B C 1.16401(17) 1.34956(17) 0.05556(6)
C21B C 1.2359(2) 1.4919(3) 0.06738(6)
O7B O 1.27679(19) 1.54249(40) 0.08267(6)
C18B C 1.14441(18) 1.31063(19) 0.10630(6)
C22B C 1.0535(2) 1.1692(2) 0.09434(6)
O10B O 1.02450(17) 1.1173(2) 0.07856(5)
C16B C 1.19552(19) 1.40772(20) 0.07352(6)
C20B C 1.11910(18) 1.27187(18) 0.06306(6)
C17B C 1.18687(19) 1.38827(20) 0.09832(6)
H11B H 1.21060 1.42910 0.11010
C19B C 1.10782(18) 1.25200(19) 0.08811(6)
H12B H 1.09560 1.23150 0.05120
C23B C 1.04763(14) 1.46521(14) 0.00360(5)
O12B O 0.80845(18) 1.32557(13) -0.00681(5)
C26B C 0.83261(19) 1.39800(14) -0.00510(5)
Zr1J* Zr 0.74292(2) 1.20218(2) -0.01046(2)
O13B* O 0.78581(12) 1.42402(12) -0.00585(4)
Zr1K* Zr 0.79782(2) 1.54074(2) -0.01046(2)
C24B C 0.96619(14) 1.41915(14) 0.00087(5)
C25K C 1.08176(14) 1.54827(14) 0.00254(4)
H13B H 0.94270 1.36360 0.00140
C25B C 0.91824(14) 1.45173(14) -0.00254(4)
C23K C 0.95237(14) 1.53479(14) -0.00360(5)
C27B C 0.91474(15) 1.20039(15) 0.16210(5)
C30B C 0.89608(15) 1.06366(22) 0.15727(5)
C28B C 0.88187(16) 1.24742(15) 0.16726(6)
C29B C 0.86505(14) 1.11820(14) 0.16190(5)
H14B H 0.91500 1.30280 0.16790
C29Q C 0.801617(140) 1.215133(140) 0.171433(50)
C28Q C 0.784797(160) 1.085913(150) 0.166073(60)
O11K* O 0.91069(12) 1.57024(11) -0.00773(5)
O12K* O 1.19155(18) 1.67443(13) 0.00681(5)
C26K C 1.16739(19) 1.60200(14) 0.00510(5)
Zr1A* Zr 1.25708(2) 1.79782(2) 0.01046(2)
C24K C 1.03381(14) 1.58085(14) -0.00087(5)
H13K H 1.05730 1.63640 -0.00140
O14Q O 0.675317(120) 1.098443(120) 0.176203(50)
C27Q C 0.751927(150) 1.132943(150) 0.171233(50)
Zr2Q* Zr 0.593697(20) 1.129273(20) 0.180973(20)
O15Q O 0.819537(130) 1.340883(190) 0.179663(60)
C30Q C 0.770587(150) 1.269673(220) 0.176063(50)
Zr2O* Zr 0.870727(20) 1.464423(20) 0.180973(20)
O16Q O 0.698347(130) 1.245463(120) 0.175553(40)
H14Q H 0.75167 1.03053 0.16543
O1J O 0.73146(16) 1.20958(16) 0.03125(5)
O2J O 0.83341(13) 1.20816(15) 0.01588(4)
O5J O 0.81093(13) 1.17607(14) -0.03175(4)
O6J O 0.71684(15) 1.22678(19) -0.04529(5)
O11J* O 0.65955(12) 1.08931(11) -0.00773(5)
O13A* O 0.63821(12) 1.21419(12) -0.00585(4)
C1J C 0.79920(19) 1.2176(2) 0.03444(6)
C2J C 0.8396(2) 1.2409(2) 0.05851(6)
C3J C 0.9209(2) 1.2727(3) 0.06008(8)
C7J C 0.7957(3) 1.2311(3) 0.07937(8)
H1J H 0.95060 1.27800 0.04580
C4J C 0.9583(3) 1.2966(3) 0.08259(9)
H2J H 1.01390 1.32190 0.08350
C5J C 0.9144(3) 1.2833(4) 0.10378(8)
H3J H 0.93960 1.29610 0.11920
C6J C 0.8337(4) 1.2514(4) 0.10224(9)
H4J H 0.80380 1.24310 0.11670
H5J H 0.74080 1.21100 0.07830
Zr2J Zr 0.86891(2) 1.07297(2) -0.15236(2)
O3J O 0.8883(2) 1.0674(2) -0.19357(6)
O4J O 0.86050(18) 1.15351(20) -0.17912(5)
O8J O 0.84446(14) 1.14012(15) -0.13040(4)
O9J O 0.88411(16) 1.03568(19) -0.11726(5)
O14J O 0.75646(12) 0.99135(12) -0.15713(5)
O15I O 0.99245(13) 1.14532(19) -0.15367(6)
O16J O 0.88045(13) 0.96832(12) -0.15778(4)
C8J C 0.8721(3) 1.1205(3) -0.19740(6)
C9J C 0.8603(4) 1.1395(4) -0.22227(9)
C10J C 0.8760(5) 1.1034(5) -0.24214(9)
C14J C 0.8301(5) 1.1889(5) -0.22616(12)
H6J H 0.89590 1.06900 -0.23920
C11J C 0.8628(7) 1.1180(7) -0.26548(11)
H7J H 0.87450 1.09480 -0.27880
C12J C 0.8339(8) 1.1644(7) -0.26935(13)
H8J H 0.82480 1.17340 -0.28570
C13J C 0.8152(7) 1.2019(7) -0.25035(15)
H9J H 0.79350 1.23440 -0.25390
H10J H 0.81970 1.21330 -0.21290
C15J C 0.81445(17) 1.16401(17) -0.05556(6)
C21J C 0.7440(2) 1.2359(3) -0.06738(6)
O7J O 0.73430(19) 1.27679(40) -0.08267(6)
C18J C 0.83378(18) 1.14441(19) -0.10630(6)
C22J C 0.8843(2) 1.0535(2) -0.09434(6)
O10J O 0.90720(17) 1.0245(2) -0.07856(5)
C16J C 0.78780(19) 1.19552(20) -0.07352(6)
C20J C 0.84723(18) 1.11910(18) -0.06306(6)
C17J C 0.79860(19) 1.18687(20) -0.09832(6)
H11J H 0.78150 1.21060 -0.11010
C19J C 0.85582(18) 1.10782(19) -0.08811(6)
H12J H 0.86410 1.09560 -0.05120
H22A H 0.95360 0.97510 0.11940
H22B H 1.02490 0.97850 0.11940
H23A H 0.31100 0.62330 0.05050
H23B H 0.37670 0.68770 0.05050
#END
