
#######################################################################
#
#                 Cambridge Crystallographic Data Centre
#                                CCDC
#
#######################################################################
#
# If this CIF has been generated from an entry in the Cambridge
# Structural Database, then it will include bibliographic, chemical,
# crystal, experimental, refinement or atomic coordinate data resulting
# from the CCDC's data processing and validation procedures.
#
#######################################################################

data_CSD_CIF_NAVWAL
_audit_creation_date 2017-03-24
_audit_creation_method CSD-ConQuest-V1
_database_code_CSD NAVWAL
_database_code_depnum_ccdc_archive 'CCDC 1540058'
_chemical_formula_sum 'C34 H84 Cu2 N4 O24'
_chemical_formula_moiety
;
(C8 Cu2 O16 4-)n,4n(C6 H16 N1 1+),2n(C1 H4 O1),6n(H2 O1)
;
_journal_coden_Cambridge 1078
_journal_year 2017
_journal_name_full 'CSD Communication(Private Communication) '
loop_
_publ_author_name
"Bin Zhang"
_chemical_name_systematic
;
catena-(tetrakis(di-isopropylammonium) bis(\m-oxalato)-bis(oxalato)-di-copper 
methanol solvate hexahydrate)
;
_cell_volume   1333.950
_exptl_crystal_colour 'blue'
_exptl_crystal_description 'plate'
_diffrn_ambient_temperature 173
_refine_special_details
;
O10 and O11 disordered over two sites with occupancies 0.61:0.39; O13 and O12 
disordered over two sites with occupancies 0.56:0.44.
;
#These two values have been output from a single CSD field.
_refine_ls_R_factor_gt 0.0904
_refine_ls_wR_factor_gt 0.0904
_symmetry_cell_setting triclinic
_symmetry_space_group_name_H-M 'P -1'
_symmetry_Int_Tables_number 2
loop_
_symmetry_equiv_pos_site_id
_symmetry_equiv_pos_as_xyz
1 x,y,z
2 -x,-y,-z
_cell_length_a 9.316(3)
_cell_length_b 12.875(3)
_cell_length_c 12.988(4)
_cell_angle_alpha 63.767(11)
_cell_angle_beta 87.54(2)
_cell_angle_gamma 73.539(18)
_cell_formula_units_Z 1
loop_
_atom_type_symbol
_atom_type_radius_bond
C 0.68
H 0.23
Cu 1.32
N 0.68
O 0.68
loop_
_atom_site_label
_atom_site_type_symbol
_atom_site_fract_x
_atom_site_fract_y
_atom_site_fract_z
Cu1 Cu 0.23343(6) 0.03202(5) 0.60363(5)
O1 O -0.0127(3) 0.1362(3) 0.5045(3)
O2 O -0.1845(3) 0.0864(3) 0.4358(3)
O3 O 0.3203(3) 0.1073(3) 0.4568(3)
O4 O 0.5189(4) 0.0912(3) 0.3564(3)
O5 O 0.2561(4) 0.1529(3) 0.6504(3)
O6 O 0.1532(4) -0.0342(3) 0.7527(3)
O7 O 0.1999(5) 0.2066(4) 0.7930(3)
O8 O 0.0704(4) 0.0209(3) 0.8906(3)
C1 C -0.0572(5) 0.0643(4) 0.4828(4)
C2 C 0.4553(5) 0.0573(4) 0.4455(4)
C3 C 0.2031(6) 0.1409(5) 0.7450(4)
C4 C 0.1368(5) 0.0334(4) 0.8033(4)
N1 N 0.7377(5) 0.3508(4) 0.4226(3)
H1 H 0.77240 0.41460 0.40510
H2 H 0.81830 0.28490 0.44350
C5 C 0.6489(7) 0.3344(5) 0.5271(5)
H3 H 0.57110 0.41100 0.50950
C6 C 0.5732(8) 0.2371(7) 0.5540(6)
H4 H 0.50620 0.25910 0.48870
H5 H 0.51710 0.22890 0.61950
H6 H 0.64800 0.16150 0.57090
C7 C 0.7563(9) 0.3066(7) 0.6264(6)
H7 H 0.70100 0.30650 0.69050
H8 H 0.80780 0.36730 0.60280
H9 H 0.82840 0.22850 0.64890
C8 C 0.6588(6) 0.3699(5) 0.3148(5)
H10 H 0.62430 0.29940 0.33150
C9 C 0.5230(7) 0.4828(6) 0.2722(6)
H11 H 0.47100 0.49140 0.20530
H12 H 0.55610 0.55290 0.25260
H13 H 0.45630 0.47520 0.33190
C10 C 0.7747(7) 0.3781(6) 0.2271(5)
H14 H 0.85640 0.30430 0.25700
H15 H 0.81220 0.44500 0.21250
H16 H 0.72850 0.39000 0.15650
N2 N 0.0879(4) 0.1499(4) 0.0205(3)
H17 H 0.11530 0.15720 -0.04910
H18 H 0.04250 0.09100 0.04870
C11 C 0.2282(6) 0.1075(6) 0.0977(5)
H19 H 0.28220 0.16850 0.06560
C12 C 0.1885(8) 0.0926(7) 0.2178(5)
H20 H 0.13720 0.17060 0.21370
H21 H 0.27900 0.05700 0.26900
H22 H 0.12450 0.04110 0.24610
C13 C 0.3265(7) -0.0102(6) 0.0994(6)
H23 H 0.27720 -0.07200 0.13500
H24 H 0.42140 -0.03500 0.14250
H25 H 0.34280 0.00220 0.02190
C14 C -0.0264(7) 0.2657(5) 0.0026(5)
H26 H -0.06640 0.25630 0.07620
C15 C 0.0464(9) 0.3677(6) -0.0404(6)
H27 H 0.11740 0.35350 0.01930
H28 H -0.02970 0.44350 -0.06060
H29 H 0.09730 0.37050 -0.10700
C16 C -0.1529(7) 0.2891(6) -0.0821(6)
H30 H -0.11390 0.29620 -0.15380
H31 H -0.22910 0.36290 -0.09510
H32 H -0.19570 0.22300 -0.05110
O9 O 0.3985(6) 0.2999(5) 0.1536(4)
C17 C 0.5077(10) 0.2911(9) 0.0764(6)
O10 O 0.2209(16) 0.3705(11) 0.4364(9)
O11 O 0.2128(8) 0.4283(5) 0.6173(5)
O12? O 0.117(3) 0.468(3) 0.4009(19)
O13? O 0.177(2) 0.3395(16) 0.2866(14)
O14? O 0.1370(16) 0.4017(12) 0.3434(13)
O1A O 0.0127(3) -0.1362(3) 0.4955(3)
O2A O 0.1845(3) -0.0864(3) 0.5642(3)
C1A C 0.0572(5) -0.0643(4) 0.5172(4)
O3A O 0.6797(3) -0.1073(3) 0.5432(3)
O4A O 0.4811(4) -0.0912(3) 0.6436(3)
C2A C 0.5447(5) -0.0573(4) 0.5545(4)
Cu1A Cu -0.23343(6) -0.03202(5) 0.39637(5)
O5A O -0.2561(4) -0.1529(3) 0.3496(3)
O6A O -0.1532(4) 0.0342(3) 0.2473(3)
O7A O -0.1999(5) -0.2066(4) 0.2070(3)
O8A O -0.0704(4) -0.0209(3) 0.1094(3)
C3A C -0.2031(6) -0.1409(5) 0.2550(4)
C4A C -0.1368(5) -0.0334(4) 0.1967(4)
Cu1A* Cu 0.76657(6) -0.03202(5) 0.39637(5)
O3A* O -0.3203(3) -0.1073(3) 0.5432(3)
O4* O -0.4811(4) 0.0912(3) 0.3564(3)
#END
