
#######################################################################
#
#                 Cambridge Crystallographic Data Centre
#                                CCDC
#
#######################################################################
#
# If this CIF has been generated from an entry in the Cambridge
# Structural Database, then it will include bibliographic, chemical,
# crystal, experimental, refinement or atomic coordinate data resulting
# from the CCDC's data processing and validation procedures.
#
#######################################################################

data_CSD_CIF_NAXLII
_audit_creation_date 2006-01-31
_audit_creation_method CSD-ConQuest-V1
_database_code_CSD NAXLII
_database_code_depnum_ccdc_archive 'CCDC 288031'
_chemical_formula_sum 'C72 H86 N16 O26 P6 Zn4'
_chemical_formula_moiety
;
(C54 H62 N12 O24 P6 Zn4 2-)n,2n(H2 O1),n(C18 H20 N4 2+)
;
_journal_coden_Cambridge 9
_journal_volume 44
_journal_year 2005
_journal_page_first 6998
_journal_name_full 'Inorg.Chem. '
loop_
_publ_author_name
"Jian Fan"
"B.E.Hanson"
_chemical_name_systematic
;
catena-(1,4-bis(N-benzimidazolium-1-yl)butane 
tris(\m~2~-1,4-bis(N-benzimidazolyl)butane-N,N')-tetrakis(\m~2~-hydrogenphosph
ato-O,O')-bis(dihydrogenphosphato-O)-tetrazinc dihydrate)
;
_cell_volume   2046.598
_exptl_crystal_colour 'colorless'
_exptl_crystal_density_diffrn 1.654
_exptl_crystal_description 'block'
_diffrn_ambient_temperature 100
_refine_special_details
;
One of the acyclic carbons in the uncoordinated 1, 
4-bis(N-benzimidazoyl)butane is disordered over two sites with occupancies of 
0.72:0.28.
;
#These two values have been output from a single CSD field.
_refine_ls_R_factor_gt 0.0613
_refine_ls_wR_factor_gt 0.0613
_symmetry_cell_setting triclinic
_symmetry_space_group_name_H-M 'P -1'
_symmetry_Int_Tables_number 2
loop_
_symmetry_equiv_pos_site_id
_symmetry_equiv_pos_as_xyz
1 x,y,z
2 -x,-y,-z
_cell_length_a 10.3187(10)
_cell_length_b 13.6651(14)
_cell_length_c 16.1419(16)
_cell_angle_alpha 102.047(8)
_cell_angle_beta 108.580(9)
_cell_angle_gamma 99.147(8)
_cell_formula_units_Z 1
loop_
_atom_type_symbol
_atom_type_radius_bond
C 0.68
H 0.23
N 0.68
O 0.68
P 1.05
Zn 1.45
loop_
_atom_site_label
_atom_site_type_symbol
_atom_site_fract_x
_atom_site_fract_y
_atom_site_fract_z
Zn1 Zn 0.71330(5) 0.25236(4) 1.23993(4)
Zn2 Zn 0.52480(5) 0.20680(4) 0.87462(4)
P1 P 0.46310(13) 0.24439(9) 1.05976(8)
P2 P 0.48359(13) 0.4148(1) 0.80423(8)
P3 P 0.62010(13) 0.01914(9) 1.17377(8)
O1 O 0.3493(3) 0.3086(2) 1.0395(2)
H1 H 0.36050 0.35920 1.05740
O2 O 0.6710(3) 0.4669(3) 1.0447(2)
O3 O 0.5532(3) 0.2847(2) 1.1603(2)
O4 O 0.3811(3) 0.1329(2) 1.0331(2)
O5 O 0.5529(3) 0.2601(2) 1.0023(2)
O6 O 0.3401(3) 0.4438(3) 0.7998(2)
H2 H 0.33520 0.46330 0.84710
O7 O 0.4879(4) 0.4166(3) 0.7087(2)
H3 H 0.49230 0.38570 0.67410
O8 O 0.6045(3) 0.4961(2) 0.8771(2)
O9 O 0.4739(4) 0.3065(3) 0.8109(2)
O10 O 0.6861(4) 0.0269(3) 1.0999(2)
O11 O 0.4618(3) 0.0199(3) 1.1342(2)
H4 H 0.43680 0.06460 1.09760
O12 O 0.6243(3) -0.0815(2) 1.1979(2)
O13 O 0.7026(3) 0.1141(2) 1.2536(2)
N1 N 0.8795(4) 0.3039(3) 1.2083(3)
N2 N 1.0153(4) 0.4116(3) 1.1676(3)
N3 N 0.7227(4) 0.1969(3) 0.8893(3)
N4 N 0.9340(4) 0.1705(3) 0.9550(3)
N5 N 0.7429(4) 0.3461(3) 1.3618(3)
N6 N 0.7341(4) 0.4784(3) 1.4651(3)
N7 N 0.4172(4) 0.2245(3) 0.6000(3)
H5 H 0.45860 0.28830 0.63370
N8 N 0.2820(4) 0.0647(3) 0.5500(3)
C1 C 0.8865(5) 0.3814(4) 1.1728(3)
H6 H 0.81080 0.41290 1.15300
C2 C 1.0481(5) 0.4937(4) 1.1244(3)
H7 H 1.15150 0.52160 1.14770
H8 H 1.00540 0.55070 1.14210
C3 C 0.9942(5) 0.4552(4) 1.0210(3)
H9 H 0.89460 0.41610 0.99800
H10 H 1.04980 0.40780 1.00270
C4 C 1.0966(5) 0.3488(4) 1.2028(3)
C5 C 1.0123(5) 0.2809(4) 1.2283(3)
C6 C 1.0599(5) 0.2027(4) 1.2636(3)
H11 H 1.00100 0.15540 1.27980
C7 C 1.1962(5) 0.1973(4) 1.2741(4)
H12 H 1.23240 0.14550 1.29840
C8 C 1.2831(5) 0.2670(4) 1.2494(3)
H13 H 1.37610 0.26060 1.25650
C9 C 1.2354(5) 0.3450(4) 1.2147(3)
H14 H 1.29470 0.39350 1.19980
C10 C 0.8062(5) 0.1725(4) 0.9579(3)
H15 H 0.77840 0.15750 1.00550
C11 C 1.0511(5) 0.1487(4) 1.0216(3)
H16 H 1.04090 0.16570 1.08160
H17 H 1.14030 0.19400 1.02730
C12 C 1.0603(5) 0.0370(4) 0.9974(4)
H18 H 1.06110 0.01780 0.93500
H19 H 1.15020 0.03040 1.03950
C13 C 0.9354(5) 0.1959(4) 0.8763(3)
C14 C 1.0403(5) 0.2074(4) 0.8399(4)
H20 H 1.13040 0.19580 0.86800
C15 C 1.0053(5) 0.2368(4) 0.7602(4)
H21 H 1.07430 0.24700 0.73340
C16 C 0.8716(5) 0.2520(4) 0.7174(3)
H22 H 0.85190 0.27050 0.66190
C17 C 0.7677(5) 0.2408(4) 0.7543(3)
H23 H 0.67760 0.25200 0.72590
C18 C 0.8019(5) 0.2120(4) 0.8353(3)
C19 C 0.6797(5) 0.4208(4) 1.3767(3)
H24 H 0.60460 0.43310 1.33100
C20 C 0.6861(5) 0.5661(4) 1.5051(3)
H25 H 0.65160 0.60290 1.45890
H26 H 0.76670 0.61480 1.55670
C21 C 0.5684(5) 0.5312(4) 1.5386(3)
H27 H 0.60010 0.48880 1.58040
H28 H 0.55010 0.59270 1.57350
C22 C 0.8413(5) 0.4377(4) 1.5102(3)
C23 C 0.9368(5) 0.4686(4) 1.6001(3)
H29 H 0.93200 0.52490 1.64400
C24 C 1.0385(5) 0.4137(4) 1.6222(3)
H30 H 1.10600 0.43320 1.68250
C25 C 1.0440(5) 0.3306(4) 1.5580(3)
H31 H 1.11520 0.29460 1.57570
C26 C 0.9478(5) 0.2983(4) 1.4683(3)
H32 H 0.95130 0.24090 1.42490
C27 C 0.8468(5) 0.3543(4) 1.4458(3)
C28 C 0.3286(5) 0.1558(4) 0.6149(4)
H33 H 0.30040 0.16900 0.66590
C29 C 0.1856(5) -0.0281(4) 0.5475(4)
H34 H 0.217(6) -0.035(4) 0.606(4)
H35 H 0.222(6) -0.081(5) 0.521(4)
C30? C 0.037(2) -0.0089(19) 0.543(2)
H36? H -0.02030 -0.06960 0.55050
H37? H 0.04930 0.05170 0.59340
C31 C 0.0327(8) -0.0409(7) 0.4807(8)
H38 H 0.03480 -0.03420 0.42120
H39 H -0.02520 -0.11030 0.47090
C32 C 0.3480(5) 0.0743(4) 0.4877(3)
C33 C 0.3439(5) 0.0058(4) 0.4099(3)
H40 H 0.28390 -0.06180 0.38700
C34 C 0.4301(5) 0.0400(4) 0.3676(4)
H41 H 0.43070 -0.00540 0.31450
C35 C 0.5184(5) 0.1406(4) 0.4005(3)
H42 H 0.57780 0.16150 0.36970
C36 C 0.5190(5) 0.2088(4) 0.4768(3)
H43 H 0.57770 0.27680 0.49880
C37 C 0.4319(5) 0.1759(4) 0.5211(3)
Zn1A Zn 1.28670(5) 0.74764(4) 0.76007(4)
Zn1A* Zn 0.28670(5) 0.74764(4) 1.76007(4)
Zn1A** Zn 0.28670(5) -0.25236(4) 0.76007(4)
Zn2A Zn 0.47520(5) -0.20680(4) 1.12538(4)
Zn2A* Zn 1.47520(5) -0.20680(4) 1.12538(4)
Zn2A** Zn 1.47520(5) 0.79320(4) 1.12538(4)
P1A P 1.53690(13) 0.75561(9) 0.94024(8)
P2A P 0.51641(13) -0.4148(1) 1.19577(8)
P3A P 0.37990(13) -0.01914(9) 0.82623(8)
O1A O 1.6507(3) 0.6914(2) 0.9605(2)
H1A H 1.63950 0.64080 0.94260
O3A O 1.4468(3) 0.7153(2) 0.8397(2)
O4A O 1.6189(3) 0.8671(2) 0.9669(2)
O5A O 1.4471(3) 0.7399(2) 0.9977(2)
O5A* O 0.4471(3) -0.2601(2) 0.9977(2)
O6A O 0.6599(3) -0.4438(3) 1.2002(2)
H2A H 0.66480 -0.46330 1.15290
O7A O 0.5121(4) -0.4166(3) 1.2913(2)
H3A H 0.50770 -0.38570 1.32590
O8A O 0.3955(3) -0.4961(2) 1.1229(2)
O9A O 0.5261(4) -0.3065(3) 1.1891(2)
O10A O 0.3139(4) -0.0269(3) 0.9001(2)
O11A O 0.5382(3) -0.0199(3) 0.8658(2)
H4A H 0.56320 -0.06460 0.90240
O12A O 0.3757(3) 0.0815(2) 0.8021(2)
O13A O 0.2974(3) -0.1141(2) 0.7464(2)
O13A* O 1.2974(3) 0.8859(2) 0.7464(2)
N1A N 1.1205(4) 0.6961(3) 0.7917(3)
N2A N 0.9847(4) 0.5884(3) 0.8324(3)
N3A N 1.2773(4) -0.1969(3) 1.1107(3)
N3A* N 0.2773(4) -0.1969(3) 1.1107(3)
N4A N 1.0660(4) -0.1705(3) 1.0450(3)
N5A N 0.2571(4) 0.6539(3) 1.6382(3)
N5A* N 1.2571(4) 0.6539(3) 0.6382(3)
N6A N 0.2659(4) 0.5216(3) 1.5349(3)
N7A N -0.4172(4) -0.2245(3) 0.4000(3)
H5A H -0.45860 -0.28830 0.36630
N8A N -0.2820(4) -0.0647(3) 0.4500(3)
C1A C 1.1135(5) 0.6186(4) 0.8272(3)
H6A H 1.18920 0.58710 0.84700
C2A C 0.9519(5) 0.5063(4) 0.8756(3)
H7A H 0.84850 0.47840 0.85230
H8A H 0.99460 0.44930 0.85790
C3A C 1.0058(5) 0.5448(4) 0.9790(3)
H9A H 1.10540 0.58390 1.00200
H10A H 0.95020 0.59220 0.99730
C4A C 0.9034(5) 0.6512(4) 0.7972(3)
C5A C 0.9877(5) 0.7191(4) 0.7717(3)
C6A C 0.9401(5) 0.7973(4) 0.7364(3)
H11A H 0.99900 0.84460 0.72020
C7A C 0.8038(5) 0.8027(4) 0.7259(4)
H12A H 0.76760 0.85450 0.70160
C8A C 0.7169(5) 0.7330(4) 0.7506(3)
H13A H 0.62390 0.73940 0.74350
C9A C 0.7646(5) 0.6550(4) 0.7853(3)
H14A H 0.70530 0.60650 0.80020
C10A C 1.1938(5) -0.1725(4) 1.0421(3)
H15A H 1.22160 -0.15750 0.99450
C11A C 0.9489(5) -0.1487(4) 0.9784(3)
H16A H 0.95910 -0.16570 0.91840
H17A H 0.85970 -0.19400 0.97270
C12A C 0.9397(5) -0.0370(4) 1.0026(4)
H18A H 0.93890 -0.01780 1.06500
H19A H 0.84980 -0.03040 0.96050
C13A C 1.0646(5) -0.1959(4) 1.1237(3)
C14A C 0.9597(5) -0.2074(4) 1.1601(4)
H20A H 0.86960 -0.19580 1.13200
C15A C 0.9947(5) -0.2368(4) 1.2398(4)
H21A H 0.92570 -0.24700 1.26660
C16A C 1.1284(5) -0.2520(4) 1.2826(3)
H22A H 1.14810 -0.27050 1.33810
C17A C 1.2323(5) -0.2408(4) 1.2457(3)
H23A H 1.32240 -0.25200 1.27410
C18A C 1.1981(5) -0.2120(4) 1.1647(3)
C19A C 0.3203(5) 0.5792(4) 1.6233(3)
H24A H 0.39540 0.56690 1.66900
C20A C 0.3139(5) 0.4339(4) 1.4949(3)
H25A H 0.34840 0.39710 1.54110
H26A H 0.23330 0.38520 1.44330
C21A C 0.4316(5) 0.4688(4) 1.4614(3)
H27A H 0.39990 0.51120 1.41960
H28A H 0.44990 0.40730 1.42650
C22A C 0.1587(5) 0.5623(4) 1.4898(3)
C23A C 0.0632(5) 0.5314(4) 1.3999(3)
H29A H 0.06800 0.47510 1.35600
C24A C -0.0385(5) 0.5863(4) 1.3778(3)
H30A H -0.10600 0.56680 1.31750
C25A C -0.0440(5) 0.6694(4) 1.4420(3)
H31A H -0.11520 0.70540 1.42430
C26A C 0.0522(5) 0.7017(4) 1.5317(3)
H32A H 0.04870 0.75910 1.57510
C27A C 0.1532(5) 0.6457(4) 1.5542(3)
C28A C -0.3286(5) -0.1558(4) 0.3851(4)
H33A H -0.30040 -0.16900 0.33410
C29A C -0.1856(5) 0.0281(4) 0.4525(4)
H34A H -0.217(6) 0.035(4) 0.394(4)
H35A H -0.222(6) 0.081(5) 0.479(4)
C31A C -0.0327(8) 0.0409(7) 0.5193(8)
H38A H -0.03480 0.03420 0.57880
H39A H 0.02520 0.11030 0.52910
C32A C -0.3480(5) -0.0743(4) 0.5123(3)
C33A C -0.3439(5) -0.0058(4) 0.5901(3)
H40A H -0.28390 0.06180 0.61300
C34A C -0.4301(5) -0.0400(4) 0.6324(4)
H41A H -0.43070 0.00540 0.68550
C35A C -0.5184(5) -0.1406(4) 0.5995(3)
H42A H -0.57780 -0.16150 0.63030
C36A C -0.5190(5) -0.2088(4) 0.5232(3)
H43A H -0.57770 -0.27680 0.50120
C37A C -0.4319(5) -0.1759(4) 0.4789(3)
#END
