
#######################################################################
#
#                 Cambridge Crystallographic Data Centre
#                                CCDC
#
#######################################################################
#
# If this CIF has been generated from an entry in the Cambridge
# Structural Database, then it will include bibliographic, chemical,
# crystal, experimental, refinement or atomic coordinate data resulting
# from the CCDC's data processing and validation procedures.
#
#######################################################################

data_CSD_CIF_NAYJEE
_audit_creation_date 2012-10-16
_audit_creation_method CSD-ConQuest-V1
_database_code_CSD NAYJEE
_database_code_depnum_ccdc_archive 'CCDC 865038'
_chemical_formula_sum 'C62 H63 Cd1 Fe1 N7 O12'
_chemical_formula_moiety
;
(C48 H27 Cd1 Fe1 N4 O9 1-)n,n(C4 H12 N1 1+),n(H2 O1),2n(C5 H11 N1 O1)
;
_journal_coden_Cambridge 222
_journal_volume 41
_journal_year 2012
_journal_page_first 7855
_journal_name_full 'Dalton Trans. '
loop_
_publ_author_name
"N.C.Smythe"
"D.P.Butler"
"C.E.Moore"
"W.R.McGowan"
"A.L.Rheingold"
"L.G.Beauvais"
_chemical_name_systematic
;
catena-[Diethylammonium 
(\m~4~-5-(carboxyphenyl)-10,15,20-tris(4-carboxylatophenyl)porphyrinato)-aqua-
cadmium-iron diethylformamide solvate monohydrate]
;
_cell_volume  11660.784
_exptl_crystal_colour 'purple brown'
_exptl_crystal_description 'irregular blocks'
_diffrn_ambient_temperature 100.2
_refine_special_details
;
The SQUEEZE/PLATON program has been used to model the disordered cation and 
solvent molecules.
;
#These two values have been output from a single CSD field.
_refine_ls_R_factor_gt 0.1441
_refine_ls_wR_factor_gt 0.1441
_symmetry_cell_setting orthorhombic
_symmetry_space_group_name_H-M 'P b c a'
_symmetry_Int_Tables_number 61
loop_
_symmetry_equiv_pos_site_id
_symmetry_equiv_pos_as_xyz
1 x,y,z
2 1/2-x,-y,1/2+z
3 -x,1/2+y,1/2-z
4 1/2+x,1/2-y,-z
5 -x,-y,-z
6 -1/2+x,y,-1/2-z
7 x,-1/2-y,-1/2+z
8 -1/2-x,-1/2+y,z
_cell_length_a 30.1121(14)
_cell_length_b 9.2525(4)
_cell_length_c 41.8531(15)
_cell_angle_alpha 90
_cell_angle_beta 90
_cell_angle_gamma 90
_cell_formula_units_Z 8
loop_
_atom_type_symbol
_atom_type_radius_bond
C 0.68
H 0.23
Cd 1.44
Fe 1.52
N 0.68
O 0.68
loop_
_atom_site_label
_atom_site_type_symbol
_atom_site_fract_x
_atom_site_fract_y
_atom_site_fract_z
C1 C 0.7719(5) 0.4967(17) 0.2495(3)
H1 H 0.75800 0.40520 0.25180
C2 C 0.7725(5) 0.5633(17) 0.2197(3)
H2 H 0.75770 0.51770 0.20240
C3 C 0.7912(4) 0.5614(13) 0.2755(2)
C4 C 0.7922(4) 0.4810(13) 0.3064(3)
C5 C 0.8116(4) 0.6942(14) 0.2710(3)
H3 H 0.82440 0.74280 0.28880
C6 C 0.8135(4) 0.7562(13) 0.2413(3)
H4 H 0.82880 0.84530 0.23890
C7 C 0.7939(4) 0.6938(12) 0.2144(3)
C8 C 0.4828(8) 0.309(2) 0.3717(5)
O1 O 0.4668(5) 0.3098(17) 0.3450(5)
O2 O 0.4661(5) 0.3170(15) 0.3966(4)
C9 C 0.6285(2) 0.2714(11) 0.37367(18)
C10 C 0.6056(3) 0.3008(12) 0.40177(16)
H5 H 0.62140 0.31340 0.42120
C11 C 0.5595(3) 0.3116(13) 0.4014(2)
H6 H 0.54390 0.33170 0.42060
C12 C 0.5364(2) 0.2931(13) 0.3730(3)
C13 C 0.5593(3) 0.2638(12) 0.3449(2)
H7 H 0.54350 0.25110 0.32540
C14 C 0.6053(3) 0.2529(12) 0.34522(15)
H8 H 0.62100 0.23280 0.32600
Cd1 Cd 0.81350(3) -0.34535(9) 0.621330(17)
Fe1 Fe 0.79230(6) 0.2695(2) 0.37398(4)
O3 O 0.8186(3) -0.3659(9) 0.56196(19)
O4 O 0.8180(3) 0.8759(10) 0.1787(2)
O5 O 0.7811(3) 0.6966(10) 0.15938(18)
N1 N 0.7457(3) 0.3673(9) 0.3475(2)
N2 N 0.8386(3) 0.3518(11) 0.3452(2)
O6 O 0.7805(3) -0.1966(11) 0.58432(19)
N3 N 0.7461(3) 0.1742(10) 0.3984(2)
N4 N 0.8379(3) 0.1901(9) 0.4020(2)
C15 C 0.7908(4) 0.0553(12) 0.4397(2)
C16 C 0.7015(4) 0.3716(11) 0.3542(2)
C17 C 0.7116(4) 0.5387(12) 0.3162(2)
H9 H 0.70780 0.61430 0.30110
C18 C 0.6782(4) 0.2698(13) 0.3735(2)
C19 C 0.7010(4) 0.1686(13) 0.3921(3)
C20 C 0.7968(4) 0.7581(12) 0.1830(3)
C21 C 0.8840(4) 0.3357(16) 0.3478(3)
C22 C 0.9554(2) 0.2961(9) 0.3763(2)
C23 C 0.9811(3) 0.1722(7) 0.3732(2)
H10 H 0.96720 0.08080 0.37060
C24 C 1.0272(3) 0.1822(7) 0.3739(2)
H11 H 1.04480 0.09750 0.37180
C25 C 1.0475(2) 0.3160(9) 0.3777(2)
C26 C 1.0217(3) 0.4399(7) 0.3809(2)
H12 H 1.03560 0.53130 0.38350
C27 C 0.9757(3) 0.4299(7) 0.3802(2)
H13 H 0.95810 0.51460 0.38230
C28 C 0.9062(4) 0.2821(14) 0.3757(3)
C29 C 0.7914(3) -0.0333(8) 0.46998(13)
C30 C 0.7734(4) 0.0315(8) 0.49703(17)
H14 H 0.76010 0.12430 0.49550
C31 C 0.7750(4) -0.0396(9) 0.52628(14)
H15 H 0.76280 0.00470 0.54480
C32 C 0.7946(3) -0.1753(8) 0.52847(13)
C33 C 0.8125(3) -0.2401(7) 0.50142(17)
H16 H 0.82580 -0.33290 0.50290
C34 C 0.8109(3) -0.1691(8) 0.47217(14)
H17 H 0.82310 -0.21330 0.45370
C35 C 0.7976(4) -0.2513(15) 0.5600(3)
C36 C 0.8321(4) 0.1161(15) 0.4296(3)
C37 C 0.6803(4) 0.4798(14) 0.3351(3)
H18 H 0.64980 0.50540 0.33570
C38 C 0.8839(4) 0.2189(16) 0.4008(3)
C39 C 0.7520(4) 0.4630(13) 0.3238(2)
C40 C 0.8322(4) 0.4216(14) 0.3170(3)
C41 C 0.6793(4) 0.0597(13) 0.4113(3)
H19 H 0.64870 0.03450 0.41100
C42 C 0.7115(4) 0.0007(13) 0.4300(3)
H20 H 0.70730 -0.07310 0.44550
C43 C 0.8741(4) 0.4389(16) 0.3006(3)
H21 H 0.87860 0.47950 0.28000
C44 C 0.9047(4) 0.3874(16) 0.3197(3)
H22 H 0.93570 0.38520 0.31540
C45 C 0.7520(4) 0.0673(12) 0.4225(3)
C46 C 0.9035(5) 0.1689(15) 0.4303(3)
H23 H 0.93380 0.17930 0.43620
C47 C 0.8733(4) 0.1081(15) 0.4473(3)
H24 H 0.87720 0.06560 0.46780
O7 O 1.1197(3) 0.2162(10) 0.37689(18)
O8 O 1.1150(3) 0.4483(10) 0.37956(17)
C48 C 1.0977(5) 0.3266(12) 0.3783(3)
O9 O 0.7732(5) -0.5463(17) 0.6213(2)
Cd1F Cd 0.81350(3) 0.84535(9) 0.121330(17)
Cd1D Cd 1.18650(3) 0.34535(9) 0.378670(17)
O4F O 0.8180(3) -0.3759(10) 0.6787(2)
O5F O 0.7811(3) -0.1966(10) 0.65938(18)
O7D O 0.8803(3) -0.2162(10) 0.62311(18)
O8D O 0.8850(3) -0.4483(10) 0.62044(17)
#END
