
#######################################################################
#
#                 Cambridge Crystallographic Data Centre
#                                CCDC
#
#######################################################################
#
# If this CIF has been generated from an entry in the Cambridge
# Structural Database, then it will include bibliographic, chemical,
# crystal, experimental, refinement or atomic coordinate data resulting
# from the CCDC's data processing and validation procedures.
#
#######################################################################

data_CSD_CIF_NAYJUU
_audit_creation_date 2012-10-16
_audit_creation_method CSD-ConQuest-V1
_database_code_CSD NAYJUU
_database_code_depnum_ccdc_archive 'CCDC 865041'
_chemical_formula_sum 'C62 H63 Cd1 N7 O12 Zn1'
_chemical_formula_moiety
;
(C48 H27 Cd1 N4 O9 Zn1 1-)n,n(C4 H12 N1 1+),n(H2 O1),2n(C5 H11 N1 O1)
;
_journal_coden_Cambridge 222
_journal_volume 41
_journal_year 2012
_journal_page_first 7855
_journal_name_full 'Dalton Trans. '
loop_
_publ_author_name
"N.C.Smythe"
"D.P.Butler"
"C.E.Moore"
"W.R.McGowan"
"A.L.Rheingold"
"L.G.Beauvais"
_chemical_name_systematic
;
catena-[Diethylammonium 
(\m~4~-5-(carboxyphenyl)-10,15,20-tris(4-carboxylatophenyl)porphyrinato)-aqua-
cadmium-zinc diethylformamide solvate monohydrate]
;
_cell_volume   5835.568
_exptl_crystal_colour 'purple'
_exptl_crystal_description 'irregular blocks'
_diffrn_ambient_temperature 100.2
_refine_special_details
;
The SQUEEZE/PLATON program has been used to model the disordered cation and 
solvent molecules.
;
#These two values have been output from a single CSD field.
_refine_ls_R_factor_gt 0.1157
_refine_ls_wR_factor_gt 0.1157
_symmetry_cell_setting monoclinic
_symmetry_space_group_name_H-M 'P 21/n'
_symmetry_Int_Tables_number 14
loop_
_symmetry_equiv_pos_site_id
_symmetry_equiv_pos_as_xyz
1 x,y,z
2 1/2-x,1/2+y,1/2-z
3 -x,-y,-z
4 -1/2+x,-1/2-y,-1/2+z
_cell_length_a 18.255(4)
_cell_length_b 9.3888(19)
_cell_length_c 34.534(7)
_cell_angle_alpha 90
_cell_angle_beta 99.624(6)
_cell_angle_gamma 90
_cell_formula_units_Z 4
loop_
_atom_type_symbol
_atom_type_radius_bond
C 0.68
H 0.23
Cd 1.44
N 0.68
O 0.68
Zn 1.22
loop_
_atom_site_label
_atom_site_type_symbol
_atom_site_fract_x
_atom_site_fract_y
_atom_site_fract_z
C1 C 0.0923(9) 0.0678(14) 0.3674(5)
H1 H 0.07180 -0.02420 0.36140
C2 C 0.1607(9) 0.0800(13) 0.3902(5)
H2 H 0.18720 -0.00370 0.39950
C3 C 0.0826(9) 0.3124(13) 0.3621(4)
H3 H 0.05570 0.39560 0.35270
C4 C 0.1916(8) 0.2098(13) 0.3999(4)
C5 C 0.0531(9) 0.1850(13) 0.3531(4)
C6 C 0.1553(10) 0.3258(15) 0.3858(4)
H4 H 0.17690 0.41720 0.39130
C7 C 0.6208(8) -0.2585(14) 0.2888(3)
C8 C 0.5938(8) -0.1873(11) 0.3225(3)
O1 O 0.6711(6) -0.2019(10) 0.2752(2)
Cd1 Cd 0.65547(5) -0.34643(9) 0.21871(2)
Zn1 Zn 0.44090(11) 0.2492(2) 0.48083(5)
C9 C 0.5598(8) 0.3552(15) 0.5481(3)
C10 C 0.6038(8) 0.1608(14) 0.5077(3)
C11 C 0.3737(7) 0.4619(12) 0.5467(3)
C12 C 0.3259(9) 0.1695(15) 0.4088(4)
C13 C 0.5088(7) 0.0333(12) 0.4147(3)
C14 C 0.6149(7) 0.2554(13) 0.5390(3)
C15 C 0.6256(7) -0.0066(14) 0.4639(4)
H5 H 0.64730 -0.08120 0.45110
C16 C 0.4381(8) 0.0846(13) 0.4051(4)
C17 C 0.5715(9) 0.4641(15) 0.5783(4)
H6 H 0.61780 0.49040 0.59340
C18 C 0.6553(8) 0.0565(15) 0.4989(4)
H7 H 0.70190 0.03440 0.51450
C19 C 0.5052(7) 0.5210(14) 0.5811(3)
H8 H 0.49610 0.59540 0.59830
C20 C 0.2138(10) 0.3457(18) 0.4795(5)
H9 H 0.16230 0.33180 0.47010
C21 C 0.273(1) 0.3003(15) 0.4605(4)
C22 C 0.4491(8) 0.4465(14) 0.5524(3)
C23 C 0.3204(7) 0.4054(14) 0.5166(4)
C24 C 0.2673(8) 0.2239(15) 0.4244(4)
C25 C 0.5580(8) 0.0594(12) 0.4509(3)
C26 C 0.3903(9) 0.0668(16) 0.3667(4)
H10 H 0.40510 0.02930 0.34370
C27 C 0.2431(9) 0.4126(17) 0.5136(4)
H11 H 0.21630 0.45590 0.53180
C28 C 0.3215(10) 0.113(2) 0.3701(5)
H12 H 0.27850 0.10910 0.35040
N1 N 0.4867(6) 0.3491(11) 0.5325(3)
N2 N 0.3398(6) 0.3301(11) 0.4849(3)
N3 N 0.3978(6) 0.1542(11) 0.4286(3)
N4 N 0.5427(6) 0.158(1) 0.4789(3)
C29 C 0.5412(7) -0.0472(13) 0.3844(3)
C30 C 0.5353(7) -0.2429(12) 0.3377(3)
H13 H 0.51200 -0.32750 0.32670
C31 C 0.5090(8) -0.1772(12) 0.3694(4)
H14 H 0.47010 -0.21970 0.38050
C32 C 0.6274(9) -0.0655(16) 0.3398(4)
H15 H 0.66950 -0.02740 0.33060
C33 C 0.601(1) 0.0006(15) 0.3696(4)
H16 H 0.62550 0.08400 0.38070
C34 C 0.3049(9) 0.6726(12) 0.5694(3)
H17 H 0.30090 0.71330 0.54400
C35 C 0.3429(7) 0.5462(14) 0.5779(3)
C36 C 0.2779(8) 0.6883(13) 0.6347(3)
C37 C 0.2721(7) 0.7411(11) 0.5984(3)
H18 H 0.24520 0.82690 0.59210
C38 C 0.3206(9) 0.5667(16) 0.6437(4)
H19 H 0.32890 0.53040 0.66970
C39 C 0.3503(10) 0.4998(17) 0.6152(4)
H20 H 0.37800 0.41520 0.62200
C40 C 0.2411(7) 0.7612(14) 0.6650(3)
O2 O 0.2041(6) 0.8691(10) 0.6563(2)
O3 O 0.2469(5) 0.7064(11) 0.6983(2)
C41 C -0.0226(8) 0.1736(12) 0.3274(4)
O4 O -0.0545(6) 0.2849(10) 0.3152(3)
O5 O -0.0479(5) 0.0512(8) 0.3180(2)
C42 C 0.6877(8) 0.2650(13) 0.5637(4)
C43 C 0.6982(10) 0.2501(19) 0.6051(4)
H21 H 0.65720 0.22470 0.61730
C44 C 0.7538(9) 0.2883(18) 0.5482(4)
H22 H 0.75090 0.29890 0.52060
C45 C 0.8300(11) 0.2966(16) 0.6124(6)
C46 C 0.822(1) 0.296(2) 0.5718(6)
H23 H 0.86520 0.30110 0.56000
C47 C 0.7670(11) 0.2718(16) 0.6279(6)
H24 H 0.77070 0.26930 0.65570
C48 C 0.9072(12) 0.3058(16) 0.6359(7)
O6 O 0.9619(8) 0.3137(14) 0.6238(6)
O7 O 0.9092(10) 0.3069(15) 0.6717(6)
O8 O 0.5885(6) -0.3658(10) 0.2746(3)
O9 O 0.7153(8) -0.5469(14) 0.2385(3)
H25 H 0.741(14) -0.597(13) 0.225(4)
H26 H 0.708(13) -0.598(13) 0.258(5)
Cd1C Cd 0.15547(5) 0.84643(9) 0.71871(2)
Cd1A Cd -0.15547(5) 0.15357(9) 0.28129(2)
O2C O 0.7041(6) -0.3691(10) 0.1563(2)
O3C O 0.7469(5) -0.2064(11) 0.1983(2)
O4A O 0.5545(6) -0.2151(10) 0.1848(3)
O5A O 0.5479(5) -0.4488(8) 0.1820(2)
#END
