
#######################################################################
#
#                 Cambridge Crystallographic Data Centre
#                                CCDC
#
#######################################################################
#
# If this CIF has been generated from an entry in the Cambridge
# Structural Database, then it will include bibliographic, chemical,
# crystal, experimental, refinement or atomic coordinate data resulting
# from the CCDC's data processing and validation procedures.
#
#######################################################################

data_CSD_CIF_NAYJII
_audit_creation_date 2012-10-16
_audit_creation_method CSD-ConQuest-V1
_database_code_CSD NAYJII
_database_code_depnum_ccdc_archive 'CCDC 865039'
_chemical_formula_sum 'C124 H126 Cd2 N14 Ni2 O24'
_chemical_formula_moiety
;
(C96 H54 Cd2 N8 Ni2 O18 2-)n,2n(C4 H12 N1 1+),2n(H2 O1),4n(C5 H11 N1 O1)
;
_journal_coden_Cambridge 222
_journal_volume 41
_journal_year 2012
_journal_page_first 7855
_journal_name_full 'Dalton Trans. '
loop_
_publ_author_name
"N.C.Smythe"
"D.P.Butler"
"C.E.Moore"
"W.R.McGowan"
"A.L.Rheingold"
"L.G.Beauvais"
_chemical_name_systematic
;
catena-[bis(Diethylammonium) 
bis(\m~4~-5-(carboxyphenyl)-10,15,20-tris(4-carboxylatophenyl)porphyrinato)-di
aqua-di-cadmium-di-nickel diethylformamide solvate dihydrate]
;
_cell_volume  23224.471
_exptl_crystal_colour 'purple red'
_exptl_crystal_description 'irregular blocks'
_diffrn_ambient_temperature 100
_refine_special_details
;
The SQUEEZE/PLATON program has been used to model the disordered cation and 
solvent molecules.
;
#These two values have been output from a single CSD field.
_refine_ls_R_factor_gt 0.1341
_refine_ls_wR_factor_gt 0.1341
_symmetry_cell_setting orthorhombic
_symmetry_space_group_name_H-M 'P b c a'
_symmetry_Int_Tables_number 61
loop_
_symmetry_equiv_pos_site_id
_symmetry_equiv_pos_as_xyz
1 x,y,z
2 1/2-x,-y,1/2+z
3 -x,1/2+y,1/2-z
4 1/2+x,1/2-y,-z
5 -x,-y,-z
6 -1/2+x,y,-1/2-z
7 x,-1/2-y,-1/2+z
8 -1/2-x,-1/2+y,z
_cell_length_a 59.431(2)
_cell_length_b 9.3517(4)
_cell_length_c 41.7871(17)
_cell_angle_alpha 90
_cell_angle_beta 90
_cell_angle_gamma 90
_cell_formula_units_Z 8
loop_
_atom_type_symbol
_atom_type_radius_bond
C 0.68
H 0.23
Cd 1.44
N 0.68
Ni 1.24
O 0.68
loop_
_atom_site_label
_atom_site_type_symbol
_atom_site_fract_x
_atom_site_fract_y
_atom_site_fract_z
C1 C 0.01799(18) 1.4600(11) 0.4356(2)
C2 C 0.03874(17) 1.4086(10) 0.4455(2)
C3 C 0.06052(18) 1.4250(11) 0.4293(2)
H1 H 0.06280 1.46470 0.40870
C4 C 0.07673(19) 1.3736(12) 0.4490(3)
H2 H 0.09240 1.36970 0.44480
C5 C 0.06530(18) 1.3254(10) 0.4779(3)
C6 C 0.0776(2) 1.2763(12) 0.5042(2)
C7 C 0.06493(19) 1.2087(11) 0.5303(3)
C8 C 0.07656(18) 1.1673(11) 0.5607(3)
H3 H 0.09180 1.18490 0.56640
C9 C 0.06089(18) 1.1004(11) 0.5779(2)
H4 H 0.06320 1.05930 0.59840
C10 C 0.03946(17) 1.0999(10) 0.5601(2)
C11 C 0.01957(17) 1.0345(11) 0.5690(2)
C12 C -0.00119(17) 1.0519(10) 0.55279(19)
C13 C -0.02148(17) 0.9799(10) 0.5595(2)
H5 H -0.02310 0.90560 0.57480
C14 C -0.03798(17) 1.031(1) 0.5413(2)
H6 H -0.05330 1.00300 0.54110
C15 C -0.02719(16) 1.1389(11) 0.5220(2)
C16 C -0.0398(2) 1.2302(11) 0.50145(19)
C17 C -0.02825(17) 1.3304(11) 0.4813(2)
C18 C -0.03958(17) 1.4356(11) 0.4606(2)
H7 H -0.05520 1.45800 0.46010
C19 C -0.02327(17) 1.4932(9) 0.44248(19)
H8 H -0.02560 1.56500 0.42670
C20 C -0.00262(17) 1.4330(9) 0.44999(18)
C21 C 0.13891(11) 1.1782(6) 0.5049(2)
H9 H 0.14820 1.09560 0.50440
C22 C 0.14858(9) 1.3135(8) 0.5057(2)
C23 C 0.13497(12) 1.4344(6) 0.5064(2)
H10 H 0.14160 1.52680 0.50700
C24 C 0.11169(11) 1.4199(6) 0.5064(2)
H11 H 0.10240 1.50250 0.50690
C25 C 0.10202(9) 1.2846(7) 0.5056(2)
C26 C 0.11563(12) 1.1638(5) 0.5048(2)
H12 H 0.10900 1.07130 0.50430
C27 C 0.17389(18) 1.3262(11) 0.5054(3)
C28 C 0.01977(16) 0.9504(10) 0.5996(2)
C29 C 0.03366(17) 0.833(1) 0.60381(19)
H13 H 0.04250 0.80030 0.58640
C30 C 0.03487(17) 0.7630(9) 0.6326(2)
H14 H 0.04440 0.68180 0.63480
C31 C 0.02244(15) 0.8093(10) 0.6585(2)
C32 C 0.00880(19) 0.9228(12) 0.6541(2)
H15 H 0.00010 0.95490 0.67180
C33 C 0.00670(19) 0.9945(12) 0.6258(2)
H16 H -0.00340 1.07270 0.62390
C34 C 0.02464(16) 0.7345(10) 0.6904(2)
C35 C -0.07693(11) 1.2481(8) 0.52890(11)
H17 H -0.06930 1.26710 0.54840
C36 C -0.10029(11) 1.2406(8) 0.52839(14)
H18 H -0.10860 1.25450 0.54750
C37 C -0.11146(8) 1.2127(8) 0.49984(17)
C38 C -0.09929(11) 1.1922(8) 0.47181(13)
H19 H -0.10690 1.17320 0.45230
C39 C -0.07593(10) 1.1997(8) 0.47233(11)
H20 H -0.06760 1.18580 0.45320
C40 C -0.06475(8) 1.2276(7) 0.50087(14)
C41 C -0.1361(3) 1.2014(13) 0.4993(4)
C42 C 0.23181(17) 0.9524(10) 0.6868(2)
C43 C 0.21065(17) 0.8905(10) 0.6964(3)
C44 C 0.19020(19) 0.8968(11) 0.6774(3)
H21 H 0.18850 0.93430 0.65640
C45 C 0.1740(2) 0.8370(11) 0.6963(3)
H22 H 0.15850 0.82760 0.69100
C46 C 0.18453(19) 0.7905(11) 0.7257(3)
C47 C 0.17392(19) 0.7275(9) 0.7520(3)
C48 C 0.1845(2) 0.6724(10) 0.7787(3)
C49 C 0.1730(2) 0.6234(12) 0.8075(3)
H23 H 0.15730 0.62670 0.81150
C50 C 0.18942(18) 0.5711(12) 0.8277(3)
H24 H 0.18740 0.53400 0.84870
C51 C 0.21039(18) 0.5845(11) 0.8103(2)
C52 C 0.23083(16) 0.5265(9) 0.8210(2)
C53 C 0.25146(18) 0.5461(11) 0.8055(2)
C54 C 0.27216(18) 0.4745(11) 0.8142(2)
H25 H 0.27420 0.40320 0.83010
C55 C 0.28827(19) 0.5321(11) 0.7944(3)
H26 H 0.30370 0.50530 0.79390
C56 C 0.27783(17) 0.6411(11) 0.7742(2)
C57 C 0.28937(19) 0.7353(10) 0.7542(2)
C58 C 0.27824(18) 0.8313(11) 0.7339(2)
C59 C 0.28942(19) 0.9355(11) 0.7142(2)
H27 H 0.30500 0.95750 0.71440
C60 C 0.27318(19) 0.9983(11) 0.6947(3)
H28 H 0.27540 1.07150 0.67930
C61 C 0.2519(2) 0.9278(11) 0.7030(2)
C62 C 0.23123(17) 1.0359(10) 0.6571(2)
C63 C 0.21781(18) 1.1575(10) 0.6534(2)
H29 H 0.20940 1.19180 0.67110
C64 C 0.21659(16) 1.2274(11) 0.6250(2)
H30 H 0.20720 1.30930 0.62350
C65 C 0.22840(19) 1.1848(12) 0.5981(2)
C66 C 0.2425(2) 1.0655(14) 0.6018(3)
H31 H 0.25110 1.03260 0.58410
C67 C 0.2442(2) 0.9952(13) 0.6307(3)
H32 H 0.25440 0.91740 0.63280
C68 C 0.22655(19) 1.2577(12) 0.5673(2)
C69 C 0.14832(8) 0.7143(7) 0.75078(18)
C70 C 0.13509(11) 0.8369(5) 0.75101(19)
H33 H 0.14200 0.92860 0.75110
C71 C 0.11178(10) 0.8254(5) 0.75107(19)
H34 H 0.10270 0.90920 0.75120
C72 C 0.10169(8) 0.6913(6) 0.75091(17)
C73 C 0.11492(11) 0.5687(5) 0.7507(2)
H35 H 0.10800 0.47710 0.75060
C74 C 0.13823(11) 0.5802(5) 0.7506(2)
H36 H 0.14730 0.49650 0.75050
C75 C 0.0767(2) 0.6804(11) 0.7521(2)
C76 C 0.23145(18) 0.4454(11) 0.8512(2)
C77 C 0.21837(18) 0.3203(9) 0.8558(3)
H37 H 0.21030 0.28120 0.83820
C78 C 0.21703(19) 0.2534(11) 0.8854(2)
H38 H 0.20780 0.17120 0.88760
C79 C 0.22880(17) 0.3032(10) 0.9118(2)
C80 C 0.2415(2) 0.4207(14) 0.9075(3)
H39 H 0.24930 0.45860 0.92540
C81 C 0.2437(2) 0.4907(13) 0.8778(2)
H40 H 0.25360 0.56970 0.87590
C82 C 0.3141(2) 0.7291(11) 0.7539(2)
C83 C 0.3267(2) 0.7495(12) 0.7826(2)
H41 H 0.31900 0.77150 0.80200
C84 C 0.3500(2) 0.7377(13) 0.7828(3)
H42 H 0.35790 0.74920 0.80240
C85 C 0.3621(2) 0.7089(11) 0.7544(3)
C86 C 0.3498(2) 0.6963(12) 0.7257(3)
H43 H 0.35760 0.68080 0.70620
C87 C 0.3263(2) 0.7058(13) 0.7253(3)
H44 H 0.31850 0.69660 0.70560
C88 C 0.3868(3) 0.7014(14) 0.7534(3)
C89 C 0.2270(2) 0.2320(16) 0.9428(2)
C90 C 0.02333(17) 1.7547(10) 0.3129(2)
C91 C 0.01777(17) 1.5443(10) 0.40466(19)
C92 C 0.00606(19) 1.4912(12) 0.3778(2)
H45 H -0.00300 1.40780 0.37960
C93 C 0.00782(18) 1.5608(12) 0.3492(2)
H46 H -0.00010 1.52430 0.33130
C94 C 0.02039(17) 1.6792(10) 0.34555(19)
C95 C 0.03223(17) 1.7361(9) 0.3726(2)
H47 H 0.04120 1.81970 0.37080
C96 C 0.03011(16) 1.6659(9) 0.40121(18)
H48 H 0.03760 1.70370 0.41940
Cd1 Cd 0.218770(14) 1.34783(8) 0.50515(2)
Cd2 Cd 0.031272(13) 0.65387(7) 0.752591(15)
Ni1 Ni 0.01913(7) 1.2473(4) 0.50223(9)
Ni2 Ni 0.23106(8) 0.7407(5) 0.75373(10)
N1 N -0.00473(13) 1.1490(8) 0.52868(15)
N2 N 0.04307(14) 1.1721(8) 0.53127(17)
N3 N 0.04271(14) 1.3405(8) 0.47464(17)
N4 N -0.00549(13) 1.3364(8) 0.47434(16)
N5 N 0.20741(15) 0.8220(8) 0.7245(2)
N6 N 0.20716(13) 0.6503(8) 0.7819(2)
N7 N 0.25486(14) 0.6447(8) 0.7806(2)
N8 N 0.25519(15) 0.8317(9) 0.7277(2)
O1 O 0.01359(13) 0.7857(8) 0.71402(15)
O2 O 0.03616(12) 0.6265(7) 0.69306(14)
O3 O 0.18534(14) 1.2133(8) 0.5044(2)
O4 O 0.18250(12) 1.4506(7) 0.50591(19)
O5 O -0.14648(14) 1.195(1) 0.4722(3)
O6 O -0.14671(14) 1.2047(11) 0.5249(3)
O7 O 0.06750(12) 0.5542(6) 0.75206(14)
O8 O 0.06449(12) 0.7891(7) 0.75247(16)
O9 O 0.21432(14) 1.3659(7) 0.56436(17)
O10 O 0.23727(13) 1.2083(9) 0.54269(17)
O11 O 0.39681(15) 0.6933(9) 0.7281(3)
O12 O 0.39651(17) 0.6965(11) 0.7794(3)
O13 O 0.23631(15) 0.2935(10) 0.96649(17)
O14 O 0.21487(15) 0.1218(8) 0.94649(19)
O15 O 0.23814(16) 1.551(1) 0.5046(2)
H49 H 0.23460 1.60940 0.48750
H50 H 0.23580 1.60450 0.52270
O16 O 0.03371(12) 1.8667(7) 0.31115(13)
O17 O 0.01272(13) 1.7005(9) 0.28937(15)
O18 O 0.01222(16) 0.4472(9) 0.75036(16)
H51 H 0.01810 0.38460 0.76360
H52 H -0.00180 0.46290 0.75590
Cd1F Cd 0.218770(14) 0.15217(8) 1.00515(2)
Cd2F Cd 0.031272(13) 1.84613(7) 0.252591(15)
O13F O 0.23631(15) 1.2065(10) 0.46649(17)
O14F O 0.21487(15) 1.3782(8) 0.44649(19)
O16F O 0.03371(12) 0.6333(7) 0.81115(13)
O17F O 0.01272(13) 0.7995(9) 0.78937(15)
#END
