
#######################################################################
#
#                 Cambridge Crystallographic Data Centre
#                                CCDC
#
#######################################################################
#
# If this CIF has been generated from an entry in the Cambridge
# Structural Database, then it will include bibliographic, chemical,
# crystal, experimental, refinement or atomic coordinate data resulting
# from the CCDC's data processing and validation procedures.
#
#######################################################################

data_CSD_CIF_NAYKAB
_audit_creation_date 2012-10-16
_audit_creation_method CSD-ConQuest-V1
_database_code_CSD NAYKAB
_database_code_depnum_ccdc_archive 'CCDC 865042'
_chemical_formula_sum 'C119 H113 Cd2 Fe2 N13 O23'
_chemical_formula_moiety
;
(C96 H50 Cd2 Fe2 N8 O17 2-)n,2n(C4 H12 N1 1+),3n(C5 H11 N1 O1),3n(H2 O1)
;
_journal_coden_Cambridge 222
_journal_volume 41
_journal_year 2012
_journal_page_first 7855
_journal_name_full 'Dalton Trans. '
loop_
_publ_author_name
"N.C.Smythe"
"D.P.Butler"
"C.E.Moore"
"W.R.McGowan"
"A.L.Rheingold"
"L.G.Beauvais"
_chemical_name_systematic
;
catena-[bis(Diethylammonium) 
(\m~4~-5-(carboxyphenyl)-10,15,20-tris(4-carboxylatophenyl)porphyrinato)-(mU~2
~-oxo)-di-cadmium-di-iron diethylformamide solvate trihydrate]
;
_cell_volume  22032.710
_exptl_crystal_colour 'purple'
_exptl_crystal_description 'plates'
_diffrn_ambient_temperature 100.2
_refine_special_details
;
The SQUEEZE/PLATON program has been used to model the disordered cations and 
solvent molecules.
;
#These two values have been output from a single CSD field.
_refine_ls_R_factor_gt 0.1182
_refine_ls_wR_factor_gt 0.1182
_symmetry_cell_setting tetragonal
_symmetry_space_group_name_H-M 'I 41/a'
_symmetry_Int_Tables_number 88
loop_
_symmetry_equiv_pos_site_id
_symmetry_equiv_pos_as_xyz
1 x,y,z
2 1/2-x,-y,1/2+z
3 3/4-y,1/4+x,1/4+z
4 3/4+y,3/4-x,3/4+z
5 1/2+x,1/2+y,1/2+z
6 -x,1/2-y,z
7 1/4-y,3/4+x,3/4+z
8 1/4+y,1/4-x,1/4+z
9 -x,-y,-z
10 -1/2+x,y,-1/2-z
11 -3/4+y,-1/4-x,-1/4-z
12 -3/4-y,-3/4+x,-3/4-z
13 -1/2-x,-1/2-y,-1/2-z
14 x,-1/2+y,-z
15 -1/4+y,-3/4-x,-3/4-z
16 -1/4-y,-1/4+x,-1/4-z
_cell_length_a 18.967(2)
_cell_length_b 18.967(2)
_cell_length_c 61.245(15)
_cell_angle_alpha 90
_cell_angle_beta 90
_cell_angle_gamma 90
_cell_formula_units_Z 8
loop_
_atom_type_symbol
_atom_type_radius_bond
C 0.68
H 0.23
Cd 1.49
Fe 1.47
N 0.68
O 0.68
loop_
_atom_site_label
_atom_site_type_symbol
_atom_site_fract_x
_atom_site_fract_y
_atom_site_fract_z
C1 C -0.1145(17) 0.6654(13) 0.0383(4)
C2 C -0.0462(10) 0.6369(9) 0.0370(3)
C3 C -0.0030(12) 0.6217(11) 0.0554(3)
H1 H -0.01410 0.62930 0.07040
C4 C 0.0563(12) 0.5944(10) 0.0472(3)
H2 H 0.09560 0.57840 0.05550
C5 C 0.0503(11) 0.5937(9) 0.0240(3)
C6 C 0.1005(10) 0.5669(9) 0.0095(3)
C7 C 0.0929(11) 0.5632(9) -0.0134(3)
C8 C 0.1372(10) 0.5268(9) -0.0280(4)
H3 H 0.17660 0.49860 -0.02410
C9 C 0.1149(11) 0.5385(10) -0.0484(3)
H4 H 0.13530 0.52090 -0.06140
C10 C 0.0524(9) 0.5840(8) -0.0465(3)
C11 C 0.0154(10) 0.6084(9) -0.0646(3)
C12 C -0.0453(10) 0.6464(9) -0.0630(3)
C13 C -0.0868(12) 0.6731(10) -0.0808(3)
H5 H -0.07520 0.66920 -0.09580
C14 C -0.1439(10) 0.7041(10) -0.0728(3)
H6 H -0.18030 0.72600 -0.08100
C15 C -0.1403(10) 0.6984(9) -0.0492(3)
C16 C -0.1927(10) 0.7194(9) -0.0351(3)
C17 C -0.1946(10) 0.7093(10) -0.0128(4)
C18 C -0.2467(10) 0.7306(10) 0.0021(3)
H7 H -0.29030 0.75210 -0.00170
C19 C -0.226(1) 0.7163(9) 0.0221(4)
H8 H -0.25150 0.72480 0.03520
C20 C -0.1583(10) 0.6856(10) 0.0202(3)
C21 C -0.1414(15) 0.6789(13) 0.0610(4)
C22 C -0.1785(14) 0.6285(13) 0.0715(3)
H9 H -0.18970 0.58630 0.06390
C23 C -0.2011(14) 0.6360(13) 0.0931(3)
H10 H -0.22710 0.60010 0.10030
C24 C -0.1834(15) 0.6988(13) 0.1035(4)
C25 C -0.1581(14) 0.7512(13) 0.0918(4)
H11 H -0.15650 0.79760 0.09760
C26 C -0.1345(14) 0.7380(13) 0.0713(3)
H12 H -0.11080 0.77520 0.06400
C27 C -0.2026(18) 0.7055(14) 0.1294(5)
C28 C 0.1692(11) 0.542(1) 0.0187(3)
C29 C 0.1700(11) 0.4839(9) 0.0337(3)
H13 H 0.12800 0.45870 0.03690
C30 C 0.2320(12) 0.4657(10) 0.0432(3)
H14 H 0.23300 0.42780 0.05330
C31 C 0.2944(11) 0.5016(11) 0.0383(3)
C32 C 0.2931(12) 0.5541(12) 0.0231(3)
H15 H 0.33600 0.57650 0.01920
C33 C 0.2314(11) 0.5758(11) 0.0132(4)
H16 H 0.23160 0.61300 0.00280
C34 C 0.3602(12) 0.4828(13) 0.0513(4)
C35 C -0.2542(9) 0.7614(12) -0.0437(3)
C36 C -0.3195(12) 0.7270(11) -0.0473(3)
H17 H -0.32440 0.67770 -0.04520
C37 C -0.3761(10) 0.7678(12) -0.0542(3)
H18 H -0.42060 0.74640 -0.05680
C38 C -0.3679(12) 0.8385(11) -0.0572(3)
C39 C -0.3026(12) 0.8717(11) -0.0539(3)
H19 H -0.29710 0.92080 -0.05640
C40 C -0.2478(10) 0.8320(12) -0.0471(3)
H20 H -0.20350 0.85400 -0.04460
C41 C -0.4326(13) 0.8837(14) -0.0638(3)
C42 C 0.0475(12) 0.5907(10) -0.0867(3)
C43 C 0.1126(12) 0.6176(11) -0.0926(4)
H21 H 0.13460 0.65140 -0.08340
C44 C 0.1458(11) 0.5968(12) -0.1112(4)
H22 H 0.18920 0.61790 -0.11530
C45 C 0.1164(13) 0.5450(12) -0.1240(3)
C46 C 0.0496(14) 0.5215(11) -0.1193(3)
H23 H 0.02710 0.48980 -0.12910
C47 C 0.0136(11) 0.5430(11) -0.1003(4)
H24 H -0.03210 0.52550 -0.09700
C48 C 0.1573(16) 0.5164(14) -0.1434(3)
Cd1 Cd -0.22938(8) 0.72234(8) 0.17166(2)
Fe1 Fe -0.03684(14) 0.66462(14) -0.01236(4)
N1 N -0.1378(8) 0.6801(7) -0.0008(2)
N2 N -0.0133(8) 0.6212(7) 0.0180(2)
N3 N 0.0395(8) 0.5974(7) -0.0251(3)
N4 N -0.0802(8) 0.6639(7) -0.0437(2)
O1 O -0.2388(14) 0.6618(16) 0.1369(4)
O2 O -0.1970(15) 0.7617(13) 0.1362(3)
O3 O 0.3581(7) 0.4467(7) 0.0677(2)
O4 O 0.4159(9) 0.5095(11) 0.0443(3)
O5 O -0.4873(8) 0.8543(8) -0.0704(2)
O6 O -0.4255(7) 0.949(1) -0.0625(2)
O7 O 0.00000 0.75000 -0.0109(2)
O8 O 0.1251(8) 0.4664(8) -0.1541(2)
O9 O 0.214(1) 0.5377(9) -0.1479(3)
C1K C -0.4154(17) 0.1355(13) 0.2117(4)
C2K C -0.3869(10) 0.2038(9) 0.2130(3)
C3K C -0.3717(12) 0.2470(11) 0.1946(3)
H1K H -0.37930 0.23590 0.17960
C4K C -0.3444(12) 0.3063(10) 0.2028(3)
H2K H -0.32840 0.34560 0.19450
C5K C -0.3437(11) 0.3003(9) 0.2260(3)
C6K C -0.3169(10) 0.3505(9) 0.2405(3)
C7K C -0.3132(11) 0.3429(9) 0.2634(3)
C8K C -0.2768(10) 0.3872(9) 0.2780(4)
H3K H -0.24860 0.42660 0.27410
C9K C -0.2885(11) 0.3649(10) 0.2984(3)
H4K H -0.27090 0.38530 0.31140
C10K C -0.3340(9) 0.3024(8) 0.2965(3)
C11K C -0.3584(10) 0.2654(9) 0.3146(3)
C12K C -0.3964(10) 0.2047(9) 0.3130(3)
C13K C -0.4231(12) 0.1632(10) 0.3308(3)
H5K H -0.41920 0.17480 0.34580
C14K C -0.4541(10) 0.1061(10) 0.3228(3)
H6K H -0.47600 0.06970 0.33100
C15K C -0.4484(10) 0.1097(9) 0.2992(3)
C16K C -0.4694(10) 0.0573(9) 0.2851(3)
C17K C -0.4593(10) 0.0554(10) 0.2628(4)
C18K C -0.4806(10) 0.0033(10) 0.2479(3)
H7K H -0.50210 -0.04030 0.25170
C19K C -0.4663(10) 0.0240(9) 0.2279(4)
H8K H -0.47480 -0.00150 0.21480
C20K C -0.4356(10) 0.0917(10) 0.2298(3)
C21K C -0.4289(15) 0.1086(13) 0.1890(4)
C22K C -0.3785(14) 0.0715(13) 0.1785(3)
H9K H -0.33630 0.06030 0.18610
C23K C -0.3860(14) 0.0489(13) 0.1569(3)
H10K H -0.35010 0.02290 0.14970
C24K C -0.4488(15) 0.0666(13) 0.1465(4)
C25K C -0.5012(14) 0.0919(13) 0.1582(4)
H11K H -0.54760 0.09350 0.15240
C26K C -0.4880(14) 0.1155(13) 0.1787(3)
H12K H -0.52520 0.13920 0.18600
C27K C -0.4555(18) 0.0474(14) 0.1206(5)
C28K C -0.2920(11) 0.4192(10) 0.2313(3)
C29K C -0.2339(11) 0.4200(9) 0.2163(3)
H13K H -0.20870 0.37800 0.21310
C30K C -0.2157(12) 0.482(1) 0.2068(3)
H14K H -0.17780 0.48300 0.19670
C31K C -0.2516(11) 0.5444(11) 0.2117(3)
C32K C -0.3041(12) 0.5431(12) 0.2269(3)
H15K H -0.32650 0.58600 0.23080
C33K C -0.3258(11) 0.4814(11) 0.2368(4)
H16K H -0.36300 0.48160 0.24720
C34K C -0.2328(12) 0.6102(13) 0.1987(4)
C35K C -0.5114(9) -0.0042(12) 0.2937(3)
C36K C -0.4770(12) -0.0695(11) 0.2973(3)
H17K H -0.42770 -0.07440 0.29520
C37K C -0.5178(10) -0.1261(12) 0.3042(3)
H18K H -0.49640 -0.17060 0.30680
C38K C -0.5885(12) -0.1179(11) 0.3072(3)
C39K C -0.6217(12) -0.0526(11) 0.3039(3)
H19K H -0.67080 -0.04710 0.30640
C40K C -0.582(1) 0.0022(12) 0.2971(3)
H20K H -0.60400 0.04650 0.29460
C41K C -0.6337(13) -0.1826(14) 0.3138(3)
C42K C -0.3407(12) 0.2975(10) 0.3367(3)
C43K C -0.3676(12) 0.3626(11) 0.3426(4)
H21K H -0.40140 0.38460 0.33340
C44K C -0.3468(11) 0.3958(12) 0.3612(4)
H22K H -0.36790 0.43920 0.36530
C45K C -0.2950(13) 0.3664(12) 0.3740(3)
C46K C -0.2715(14) 0.2996(11) 0.3693(3)
H23K H -0.23980 0.27710 0.37910
C47K C -0.2930(11) 0.2636(11) 0.3503(4)
H24K H -0.27550 0.21790 0.34700
C48K C -0.2664(16) 0.4073(14) 0.3934(3)
Cd1K Cd -0.47234(8) 0.02062(8) 0.07834(2)
Cd1N Cd 0.47234(8) 0.47938(8) 0.07834(2)
Cd1C Cd -0.52766(8) 0.97938(8) -0.07834(2)
Cd1I Cd -0.72938(8) -0.27766(8) 0.32834(2)
Fe1K Fe -0.41462(14) 0.21316(14) 0.26236(4)
Fe1E Fe 0.03684(14) 0.83538(14) -0.01236(4)
N1K N -0.4301(8) 0.1122(7) 0.2508(2)
N2K N -0.3712(8) 0.2367(7) 0.2320(2)
N3K N -0.3474(8) 0.2895(7) 0.2751(3)
N4K N -0.4139(8) 0.1698(7) 0.2937(2)
O1K O -0.4118(14) 0.0112(16) 0.1131(4)
O2K O -0.5117(15) 0.0530(13) 0.1138(3)
O3K O -0.1967(7) 0.6081(7) 0.1823(2)
O3E O -0.3581(7) 0.0533(7) 0.0677(2)
O4K O -0.2595(9) 0.6659(11) 0.2057(3)
O4E O -0.4159(9) -0.0095(11) 0.0443(3)
O5K O -0.6043(8) -0.2373(8) 0.3204(2)
O5B O -0.1043(8) 0.7627(8) 0.1796(2)
O5H O -0.5127(8) 0.1457(8) 0.0704(2)
O6K O -0.6990(7) -0.1755(10) 0.3125(2)
O6B O -0.1990(7) 0.8245(10) 0.1875(2)
O6H O -0.5745(7) 0.051(1) 0.0625(2)
O7K O -0.50000 0.25000 0.2609(2)
O8K O -0.2164(8) 0.3751(8) 0.4041(2)
O9K O -0.2877(10) 0.4640(9) 0.3979(3)
#END
