
#######################################################################
#
#                 Cambridge Crystallographic Data Centre
#                                CCDC
#
#######################################################################
#
# If this CIF has been generated from an entry in the Cambridge
# Structural Database, then it will include bibliographic, chemical,
# crystal, experimental, refinement or atomic coordinate data resulting
# from the CCDC's data processing and validation procedures.
#
#######################################################################

data_CSD_CIF_NEDVOJ
_audit_creation_date 2012-10-03
_audit_creation_method CSD-ConQuest-V1
_database_code_CSD NEDVOJ
_database_code_depnum_ccdc_archive 'CCDC 873429'
_chemical_formula_sum 'C97 H127 Mn3 N11 O33'
_chemical_formula_moiety
;
(C66 H48 Mn3 O24 2-)n,2n(C2 H8 N1 1+),9n(C3 H7 N1 O1)
;
_journal_coden_Cambridge 4
_journal_volume 134
_journal_year 2012
_journal_page_first 9581
_journal_name_full 'J.Am.Chem.Soc. '
loop_
_publ_author_name
"Jian Tian"
"L.V.Saraf"
"B.Schwenzer"
"S.M.Taylor"
"E.K.Brechin"
"Jun Liu"
"S.J.Dalgarno"
"P.K.Thallapally"
_chemical_name_systematic
;
catena-(bis(dimethylammonium) 
bis(\m~7~-4-(3-(4-carboxylatophenoxy)-2,2-bis[(4-carboxylatophenoxy)methyl]pro
poxy)benzoato)-tri-manganese N,N-dimethylformamide solvate)
;
_cell_volume   2671.498
_exptl_crystal_colour 'colorless'
_exptl_crystal_description 'block'
_diffrn_ambient_temperature 100
_refine_special_details
;
C10,C11,C12,C13,C15,C8,C9,O4 and C14,C2,C3,C4,C5,C6, C7,O3 disordered over 
two sites with occupancies 0.60:0.40. The disordered N,N-dimethylformamide 
solvent molecules were not modelled and the disordered den sity was taken 
into account using the SQUEEZE/PLATON procedure.
;
#These two values have been output from a single CSD field.
_refine_ls_R_factor_gt 0.0677
_refine_ls_wR_factor_gt 0.0677
_symmetry_cell_setting triclinic
_symmetry_space_group_name_H-M 'P -1'
_symmetry_Int_Tables_number 2
loop_
_symmetry_equiv_pos_site_id
_symmetry_equiv_pos_as_xyz
1 x,y,z
2 -x,-y,-z
_cell_length_a 11.7258(4)
_cell_length_b 15.4489(6)
_cell_length_c 16.7107(6)
_cell_angle_alpha 106.787(2)
_cell_angle_beta 98.064(2)
_cell_angle_gamma 107.788(2)
_cell_formula_units_Z 1
loop_
_atom_type_symbol
_atom_type_radius_bond
C 0.68
H 0.23
Mn 1.61
N 0.68
O 0.68
loop_
_atom_site_label
_atom_site_type_symbol
_atom_site_fract_x
_atom_site_fract_y
_atom_site_fract_z
Mn1 Mn 1.50000 1.00000 0.00000
O1 O 1.5153(2) 1.0717(2) 0.13407(14)
N1 N 0.9669(4) 1.0532(3) -0.1211(3)
C1 C 1.6080(4) 1.1363(3) 0.1918(2)
Mn2 Mn 1.81984(4) 1.11946(4) 0.10077(3)
O2 O 1.7172(2) 1.15688(19) 0.18700(15)
O3 O 1.5023(4) 1.3005(4) 0.5030(2)
O4 O 1.8543(2) 1.99552(18) 1.00368(15)
O5 O 1.6722(2) 1.96953(16) 1.03299(13)
O6 O 1.5551(3) 1.5547(2) 0.7592(2)
O7 O 1.6146(3) 1.13307(19) 0.99440(17)
C2 C 1.5843(9) 1.1806(5) 0.2744(6)
O8 O 1.8171(2) 1.19120(18) 1.01034(16)
C3 C 1.6778(10) 1.2534(8) 0.3432(8)
H1 H 1.75980 1.27380 0.33650
O9 O 1.6395(2) 1.3650(2) 0.73772(17)
C4 C 1.6551(7) 1.2977(5) 0.4217(5)
H2 H 1.71970 1.34720 0.46840
O10 O 0.9343(2) 1.08203(19) 0.20155(16)
C5 C 1.5360(6) 1.2664(5) 0.4281(4)
O11 O 0.9832(2) 1.23005(18) 0.19939(15)
C6 C 1.4386(7) 1.1931(5) 0.3615(4)
H3 H 1.35690 1.17310 0.36890
O12 O 1.3174(3) 1.3176(2) 0.56752(19)
C7 C 1.4643(7) 1.1498(5) 0.2838(4)
H4 H 1.39980 1.09940 0.23760
C8 C 1.5832(12) 1.3753(13) 0.5702(10)
H5 H 1.62430 1.42750 0.54920
H6 H 1.64760 1.35410 0.59410
C9 C 1.7445(3) 1.9397(3) 0.9921(2)
C10 C 1.6980(3) 1.8371(3) 0.9311(2)
C11 C 1.7721(4) 1.8045(3) 0.8817(2)
H7 H 1.85360 1.84680 0.88800
C12 C 1.7273(4) 1.7095(3) 0.8227(3)
H8 H 1.77730 1.68700 0.78800
C13 C 1.6092(4) 1.6488(3) 0.8154(3)
C14 C 1.5367(4) 1.6805(3) 0.8667(3)
H9 H 1.45670 1.63730 0.86260
C15 C 1.5804(4) 1.7750(3) 0.9238(2)
H10 H 1.52990 1.79730 0.95790
C16 C 1.6126(4) 1.5210(3) 0.6937(2)
H11 H 1.69600 1.52460 0.71970
H12 H 1.62100 1.56090 0.65640
C17 C 1.7080(3) 1.1817(3) 0.9770(2)
C18 C 1.6902(3) 1.2312(3) 0.9148(2)
C19 C 1.5713(4) 1.2215(3) 0.8786(3)
H13 H 1.50330 1.18370 0.89390
C20 C 1.5502(4) 1.2664(3) 0.8202(3)
H14 H 1.46880 1.26150 0.79720
C21 C 1.6501(4) 1.3186(3) 0.7958(2)
C22 C 1.7679(4) 1.3262(3) 0.8300(3)
H15 H 1.83570 1.36140 0.81270
C23 C 1.7878(3) 1.2830(3) 0.8888(3)
H16 H 1.86960 1.28870 0.91210
C24 C 1.5179(4) 1.3568(3) 0.7009(2)
H17 H 1.47910 1.38170 0.74690
H18 H 1.46600 1.28810 0.66720
C25 C 0.9937(3) 1.1723(3) 0.2375(2)
C26 C 1.0763(3) 1.2115(3) 0.3262(2)
C27 C 1.1275(3) 1.3107(3) 0.3707(2)
H19 H 1.10860 1.35360 0.34490
C28 C 1.2057(4) 1.3478(3) 0.4522(2)
H20 H 1.23770 1.41580 0.48290
C29 C 1.2374(4) 1.2879(3) 0.4891(2)
C30 C 1.1846(4) 1.1873(3) 0.4459(3)
H21 H 1.20410 1.14490 0.47200
C31 C 1.1045(4) 1.1503(3) 0.3657(3)
H22 H 1.06800 1.08190 0.33680
C32 C 1.4022(4) 1.4141(3) 0.6043(2)
H23 H 1.37330 1.45160 0.65030
H24 H 1.40700 1.44440 0.55950
C33 C 1.5302(3) 1.4173(2) 0.64207(19)
C34 C 1.0371(5) 1.1547(5) -0.0893(4)
H25 H 1.04490 1.17760 -0.13790
H26 H 1.11960 1.16730 -0.05550
H27 H 0.99510 1.18920 -0.05250
C35 C 0.8459(6) 1.0269(4) -0.1820(3)
H28 H 0.79130 1.05130 -0.15020
H29 H 0.80770 0.95610 -0.20940
H30 H 0.85920 1.05610 -0.22640
C36? C 1.6000(18) 1.379(2) 0.5732(14)
C37? C 1.5945(14) 1.2079(8) 0.2748(9)
C38? C 1.6980(15) 1.2595(12) 0.3425(13)
C39? C 1.6872(11) 1.3223(8) 0.4189(7)
C40? C 1.5706(10) 1.3313(7) 0.4245(6)
C41? C 1.4687(10) 1.2771(7) 0.3549(5)
C42? C 1.4798(10) 1.2172(7) 0.2807(6)
H31? H 1.69010 1.41600 0.59460
H32? H 1.58530 1.30940 0.56270
H33? H 1.77510 1.25300 0.33800
H34? H 1.75740 1.35860 0.46660
H35? H 1.39050 1.28170 0.35880
H36? H 1.40970 1.18160 0.23290
O13? O 1.5546(6) 1.3905(5) 0.4978(4)
Mn1* Mn 1.50000 0.00000 -1.00000
Mn1** Mn 1.50000 1.00000 -1.00000
Mn1*** Mn 1.50000 1.00000 1.00000
Mn1**** Mn 1.50000 2.00000 1.00000
O1A O 1.4847(2) 0.9283(2) -0.13407(14)
C1A C 1.3920(4) 0.8637(3) -0.1918(2)
Mn2A Mn 1.18016(4) 0.88054(4) -0.10077(3)
Mn2* Mn 0.81984(4) 1.11946(4) 0.10077(3)
Mn2** Mn 1.81984(4) 1.11946(4) 1.10077(3)
Mn2*** Mn 1.81984(4) 2.11946(4) 1.10077(3)
Mn2A* Mn 1.18016(4) -0.11946(4) -1.10077(3)
Mn2A** Mn 1.18016(4) 0.88054(4) -1.10077(3)
Mn2A*** Mn 2.18016(4) 0.88054(4) -0.10077(3)
O2A O 1.2828(2) 0.84312(19) -0.18700(15)
O3A O 1.4977(4) 0.6995(4) -0.5030(2)
O4A O 1.1457(2) 0.00448(18) -1.00368(15)
O4* O 1.8543(2) 0.99552(18) 0.00368(15)
O4A* O 1.1457(2) 1.00448(18) -0.00368(15)
O5A O 1.3278(2) 0.03047(16) -1.03299(13)
O5* O 1.6722(2) 0.96953(16) 0.03299(13)
O5A* O 1.3278(2) 1.03047(16) -0.03299(13)
O6A O 1.4449(3) 0.4453(2) -0.7592(2)
O7A O 1.3854(3) 0.86693(19) -0.99440(17)
O7* O 1.6146(3) 1.13307(19) -0.00560(17)
O7A* O 1.3854(3) 0.86693(19) 0.00560(17)
C2A C 1.4157(9) 0.8194(5) -0.2744(6)
O8A O 1.1829(2) 0.80880(18) -1.01034(16)
O8* O 1.8171(2) 1.19120(18) 0.01034(16)
O8A* O 1.1829(2) 0.80880(18) -0.01034(16)
C3A C 1.3222(10) 0.7466(8) -0.3432(8)
H1A H 1.24020 0.72620 -0.33650
O9A O 1.3605(2) 0.6350(2) -0.73772(17)
C4A C 1.3449(7) 0.7023(5) -0.4217(5)
H2A H 1.28030 0.65280 -0.46840
O10A O 2.0657(2) 0.91797(19) -0.20155(16)
O10* O 1.9343(2) 1.08203(19) 0.20155(16)
O10A* O 1.0657(2) 0.91797(19) -0.20155(16)
C5A C 1.4640(6) 0.7336(5) -0.4281(4)
O11A O 2.0168(2) 0.76995(18) -0.19939(15)
O11* O 1.9832(2) 1.23005(18) 0.19939(15)
O11A* O 1.0168(2) 0.76995(18) -0.19939(15)
C6A C 1.5614(7) 0.8069(5) -0.3615(4)
H3A H 1.64310 0.82690 -0.36890
O12A O 1.6826(3) 0.6824(2) -0.56752(19)
C7A C 1.5357(7) 0.8502(5) -0.2838(4)
H4A H 1.60020 0.90060 -0.23760
C8A C 1.4168(12) 0.6247(13) -0.5702(10)
H5A H 1.37570 0.57250 -0.54920
H6A H 1.35240 0.64590 -0.59410
C9A C 1.2555(3) 0.0603(3) -0.9921(2)
C10A C 1.3020(3) 0.1629(3) -0.9311(2)
C11A C 1.2279(4) 0.1955(3) -0.8817(2)
H7A H 1.14640 0.15320 -0.88800
C12A C 1.2727(4) 0.2905(3) -0.8227(3)
H8A H 1.22270 0.31300 -0.78800
C13A C 1.3908(4) 0.3512(3) -0.8154(3)
C14A C 1.4633(4) 0.3195(3) -0.8667(3)
H9A H 1.54330 0.36270 -0.86260
C15A C 1.4196(4) 0.2250(3) -0.9238(2)
H10A H 1.47010 0.20270 -0.95790
C16A C 1.3874(4) 0.4790(3) -0.6937(2)
H11A H 1.30400 0.47540 -0.71970
H12A H 1.37900 0.43910 -0.65640
C17A C 1.2920(3) 0.8183(3) -0.9770(2)
C18A C 1.3098(3) 0.7688(3) -0.9148(2)
C19A C 1.4287(4) 0.7785(3) -0.8786(3)
H13A H 1.49670 0.81630 -0.89390
C20A C 1.4498(4) 0.7336(3) -0.8202(3)
H14A H 1.53120 0.73850 -0.79720
C21A C 1.3499(4) 0.6814(3) -0.7958(2)
C22A C 1.2321(4) 0.6738(3) -0.8300(3)
H15A H 1.16430 0.63860 -0.81270
C23A C 1.2122(3) 0.7170(3) -0.8888(3)
H16A H 1.13040 0.71130 -0.91210
C24A C 1.4821(4) 0.6432(3) -0.7009(2)
H17A H 1.52090 0.61830 -0.74690
H18A H 1.53400 0.71190 -0.66720
C25A C 2.0063(3) 0.8277(3) -0.2375(2)
C26A C 1.9237(3) 0.7885(3) -0.3262(2)
C27A C 1.8725(3) 0.6893(3) -0.3707(2)
H19A H 1.89140 0.64640 -0.34490
C28A C 1.7943(4) 0.6522(3) -0.4522(2)
H20A H 1.76230 0.58420 -0.48290
C29A C 1.7626(4) 0.7121(3) -0.4891(2)
C30A C 1.8154(4) 0.8127(3) -0.4459(3)
H21A H 1.79590 0.85510 -0.47200
C31A C 1.8955(4) 0.8497(3) -0.3657(3)
H22A H 1.93200 0.91810 -0.33680
C32A C 1.5978(4) 0.5859(3) -0.6043(2)
H23A H 1.62670 0.54840 -0.65030
H24A H 1.59300 0.55560 -0.55950
C33A C 1.4698(3) 0.5827(2) -0.64207(19)
#END
