
#######################################################################
#
#                 Cambridge Crystallographic Data Centre
#                                CCDC
#
#######################################################################
#
# If this CIF has been generated from an entry in the Cambridge
# Structural Database, then it will include bibliographic, chemical,
# crystal, experimental, refinement or atomic coordinate data resulting
# from the CCDC's data processing and validation procedures.
#
#######################################################################

data_CSD_CIF_NEFJUF
_audit_creation_date 2012-10-16
_audit_creation_method CSD-ConQuest-V1
_database_code_CSD NEFJUF
_database_code_depnum_ccdc_archive 'CCDC 853097'
_chemical_formula_sum 'C122 H136 Cr2 Mn6 N24 O24'
_chemical_formula_moiety
;
(C46 H32 Cr2 Mn2 N16 O4 4-)n,4n(C19 H24 Mn1 N2 O4 1+),4n(H2 O1)
;
_journal_coden_Cambridge 440
_journal_volume 36
_journal_year 2012
_journal_page_first 1180
_journal_name_full 'New J.Chem. '
loop_
_publ_author_name
"Xiaoping Shen"
"Qian Zhang"
"Hongbo Zhou"
"Hu Zhou"
"Aihua Yuan"
_chemical_name_systematic
;
catena-(tetrakis(Dimethanol-bis(N,N'-(1,2-propylene)bis(salicylideneiminato))-
manganese(iii)) 
tetrakis(\m~2~-cyano)-octacyano-bis(N,N'-(1,2-propylene)bis(salicylideneiminat
o))-di-chromium(iii)-di-manganese(iii) tetrahydrate)
;
_cell_volume   3260.761
_exptl_crystal_colour 'black'
_exptl_crystal_density_diffrn 1.404
_exptl_crystal_description 'block'
_diffrn_ambient_temperature 291
_refine_special_details
;
O13 and O14 disordered over two sites with occupancies 0.50:0.50.

;
#These two values have been output from a single CSD field.
_refine_ls_R_factor_gt 0.0534
_refine_ls_wR_factor_gt 0.0534
_symmetry_cell_setting triclinic
_symmetry_space_group_name_H-M 'P -1'
_symmetry_Int_Tables_number 2
loop_
_symmetry_equiv_pos_site_id
_symmetry_equiv_pos_as_xyz
1 x,y,z
2 -x,-y,-z
_cell_length_a 10.4784(14)
_cell_length_b 17.878(2)
_cell_length_c 18.9670(18)
_cell_angle_alpha 71.198(1)
_cell_angle_beta 87.749(3)
_cell_angle_gamma 76.002(2)
_cell_formula_units_Z 1
loop_
_atom_type_symbol
_atom_type_radius_bond
C 0.68
H 0.23
Cr 1.39
Mn 1.58
N 0.68
O 0.68
loop_
_atom_site_label
_atom_site_type_symbol
_atom_site_fract_x
_atom_site_fract_y
_atom_site_fract_z
C1 C 0.4574(3) 0.36208(19) 0.30037(17)
C2 C 0.5920(3) 0.3414(2) 0.31661(18)
H1 H 0.63880 0.38160 0.30310
C3 C 0.6567(4) 0.2613(2) 0.3528(2)
H2 H 0.74670 0.24770 0.36380
C4 C 0.5859(3) 0.2011(2) 0.37276(19)
H3 H 0.62870 0.14720 0.39710
C5 C 0.4506(3) 0.2224(2) 0.3560(2)
H4 H 0.40340 0.18240 0.36900
C6 C 0.3860(3) 0.30297(19) 0.31987(16)
C7 C 0.2457(3) 0.3156(2) 0.30850(18)
H5 H 0.20920 0.27070 0.32220
C8 C 0.0315(3) 0.39852(19) 0.26136(19)
H6 H 0.02620 0.40430 0.20830
C9 C -0.0473(3) 0.4771(2) 0.26868(18)
H7 H -0.13060 0.49390 0.24070
H8 H -0.06520 0.47070 0.32060
C10 C -0.0302(3) 0.61737(18) 0.21184(15)
H9 H -0.12170 0.63150 0.20850
C11 C 0.0373(3) 0.68142(19) 0.18717(17)
C12 C -0.0464(3) 0.76128(19) 0.15737(17)
H10 H -0.13730 0.76900 0.15460
C13 C 0.0108(3) 0.8269(2) 0.13261(17)
H11 H -0.04290 0.87930 0.11390
C14 C 0.1456(3) 0.8164(2) 0.13516(18)
H12 H 0.18150 0.86140 0.11750
C15 C 0.2291(3) 0.73798(19) 0.16427(18)
H13 H 0.31990 0.73110 0.16650
C16 C 0.1738(3) 0.6695(2) 0.19024(16)
C17 C -0.0348(3) 0.33121(19) 0.30154(19)
H14 H 0.00310 0.28380 0.28760
H15 H -0.12720 0.34880 0.28820
H16 H -0.02240 0.31830 0.35440
C18 C 0.1403(3) 0.48976(18) 0.42164(16)
C19 C -0.1332(3) 0.5714(2) 0.41445(17)
C20 C -0.0472(3) 0.39568(19) 0.49123(15)
C21 C 0.1359(3) 0.49573(17) 0.07913(16)
C22 C -0.0546(3) 0.4024(2) 0.07496(17)
C23 C -0.1429(3) 0.5753(2) 0.04130(19)
C24 C 0.5192(3) 0.8671(2) 0.43646(19)
C25 C 0.5610(3) 0.9328(2) 0.44439(18)
H17 H 0.50340 0.98410 0.43150
C26 C 0.6850(3) 0.9221(2) 0.47065(18)
H18 H 0.71100 0.96740 0.47340
C27 C 0.7733(3) 0.8483(2) 0.49323(19)
H19 H 0.85720 0.84340 0.51130
C28 C 0.7354(3) 0.7799(2) 0.48873(17)
H20 H 0.79350 0.72870 0.50440
C29 C 0.6069(3) 0.7898(2) 0.45982(19)
C30 C 0.5717(3) 0.71499(19) 0.46148(17)
H21 H 0.63150 0.66560 0.48390
C31 C 0.4457(3) 0.6311(2) 0.44006(19)
H22 H 0.53100 0.59670 0.43410
C32 C 0.3515(3) 0.6427(2) 0.37590(19)
H23 H 0.39980 0.64330 0.33110
H24 H 0.30780 0.59840 0.38820
C33 C 0.1295(3) 0.7303(2) 0.34635(17)
H25 H 0.10350 0.68400 0.34680
C34 C 0.0302(3) 0.8065(2) 0.32668(18)
C35 C -0.0977(3) 0.8002(2) 0.31756(18)
H26 H -0.11660 0.74970 0.32720
C36 C -0.1958(3) 0.8715(2) 0.29371(19)
H27 H -0.28190 0.86840 0.28790
C37 C -0.1692(3) 0.9475(2) 0.27818(18)
H28 H -0.23680 0.99440 0.26130
C38 C -0.0397(3) 0.9537(2) 0.28803(18)
H29 H -0.02020 1.00430 0.27610
C39 C 0.0593(3) 0.8811(2) 0.31642(18)
C40 C 0.4020(3) 0.59673(19) 0.51453(18)
H30 H 0.47320 0.58320 0.55030
H31 H 0.37410 0.54840 0.51770
H32 H 0.32970 0.63580 0.52490
C41 C 0.4209(3) 0.8796(2) 0.21318(18)
H33 H 0.32990 0.90790 0.21010
H34 H 0.43890 0.85810 0.17260
H35 H 0.47510 0.91670 0.21050
C42 C 0.1264(3) 0.87811(19) 0.49870(18)
H36 H 0.19130 0.90930 0.49180
H37 H 0.09810 0.86670 0.54900
H38 H 0.05230 0.90860 0.46480
C43 C 0.4640(3) 0.1354(2) 0.19748(18)
C44 C 0.4291(3) 0.0665(2) 0.25163(18)
H39 H 0.49230 0.01850 0.27360
C45 C 0.2970(3) 0.0743(2) 0.27005(18)
H40 H 0.27210 0.03020 0.30410
C46 C 0.2010(3) 0.14701(19) 0.23850(19)
H41 H 0.11450 0.15020 0.25290
C47 C 0.2314(3) 0.2128(2) 0.18743(19)
H42 H 0.16630 0.26000 0.16590
C48 C 0.3651(3) 0.20816(19) 0.16742(19)
C49 C 0.3947(3) 0.2816(2) 0.11617(17)
H43 H 0.32710 0.32880 0.10250
C50 C 0.5258(3) 0.3649(2) 0.03889(18)
H44 H 0.44130 0.39650 0.01270
C51 C 0.6249(3) 0.3486(2) -0.01821(19)
H45 H 0.66300 0.39500 -0.03970
H46 H 0.58220 0.33940 -0.05800
C52 C 0.8546(3) 0.2688(2) 0.00682(18)
H47 H 0.87700 0.31410 -0.02680
C53 C 0.9573(3) 0.1972(2) 0.03950(19)
C54 C 1.0867(3) 0.2055(2) 0.02149(17)
H48 H 1.10090 0.25580 -0.00650
C55 C 1.1895(3) 0.13968(19) 0.04528(17)
H49 H 1.27460 0.14540 0.03420
C56 C 1.1694(3) 0.0623(2) 0.08671(18)
H50 H 1.24110 0.01750 0.10130
C57 C 1.0439(3) 0.0525(2) 0.10584(18)
H51 H 1.03130 0.00160 0.13350
C58 C 0.9346(3) 0.1214(2) 0.08250(19)
C59 C 0.5657(3) 0.4110(2) 0.08546(19)
H52 H 0.52930 0.39560 0.13380
H53 H 0.53320 0.46850 0.06120
H54 H 0.66000 0.39810 0.09090
C60 C 0.6041(3) 0.05944(19) 0.03301(19)
H55 H 0.69620 0.03780 0.04640
H56 H 0.58440 0.04810 -0.01100
H57 H 0.55360 0.03460 0.07320
C61 C 0.8662(4) 0.1716(2) 0.2292(2)
H58 H 0.90360 0.19450 0.26030
H59 H 0.93380 0.14990 0.20050
H60 H 0.82840 0.12880 0.25980
Cr1 Cr 0.00000 0.50000 0.50000
Cr2 Cr 0.00000 0.50000 0.00000
Mn1 Mn 0.66407(5) 0.19216(3) 0.10117(3)
Mn2 Mn 0.32111(5) 0.80841(3) 0.38044(3)
Mn3 Mn 0.22274(4) 0.49356(3) 0.24863(3)
N1 N 0.1684(3) 0.38853(16) 0.27948(15)
N2 N 0.0303(2) 0.53901(16) 0.23914(15)
N3 N 0.2090(3) 0.48477(17) 0.37291(15)
N4 N -0.2066(3) 0.61417(16) 0.36532(15)
N5 N -0.0679(3) 0.33622(15) 0.48746(15)
N6 N 0.7316(2) 0.27326(16) 0.02196(14)
N7 N -0.0873(2) 0.34837(15) 0.11889(14)
N8 N -0.2208(3) 0.61572(17) 0.06350(15)
N9 N 0.4629(3) 0.71374(16) 0.43367(15)
N10 N 0.2528(3) 0.72160(16) 0.36350(15)
N11 N 0.5091(3) 0.28584(16) 0.08806(14)
N12 N 0.2034(2) 0.49387(17) 0.12505(15)
O1 O 0.40251(19) 0.44118(13) 0.26118(12)
O2 O 0.2578(2) 0.59676(13) 0.21833(12)
O3 O 0.3974(2) 0.88000(13) 0.40868(12)
O4 O 0.1819(2) 0.89090(13) 0.32460(12)
O5 O 0.4486(2) 0.81559(13) 0.28094(12)
H61 H 0.45410 0.77200 0.27090
O6 O 0.1907(2) 0.79158(13) 0.48239(12)
H62 H 0.12870 0.77150 0.47510
O7 O 0.5891(2) 0.12509(13) 0.18045(12)
O8 O 0.8165(2) 0.11029(14) 0.10210(13)
O9 O 0.5673(2) 0.15633(13) 0.01693(12)
H63 H 0.47260 0.17570 0.01760
O10 O 0.7733(2) 0.22907(14) 0.18362(12)
H64 H 0.80750 0.26740 0.15830
O11 O 0.0826(5) 0.0668(3) 0.3971(3)
H65 H 0.07300 0.05190 0.35970
H66 H 0.12720 0.10260 0.38530
O12 O 0.6148(4) 0.7502(3) 0.0963(2)
H67 H 0.59600 0.70520 0.11990
H68 H 0.64730 0.76740 0.12660
O13 O 0.5848(4) 0.5436(3) 0.2222(3)
H69 H 0.57280 0.57240 0.17640
H70 H 0.57290 0.57460 0.24890
H71? H 0.68160 0.69880 0.22850
H72? H 0.60490 0.64280 0.24110
O14? O 0.6132(4) 0.6856(2) 0.2490(2)
C1A C -0.4574(3) 0.63792(19) 0.69963(17)
C2A C -0.5920(3) 0.6586(2) 0.68339(18)
H1A H -0.63880 0.61840 0.69690
C3A C -0.6567(4) 0.7387(2) 0.6472(2)
H2A H -0.74670 0.75230 0.63620
C4A C -0.5859(3) 0.7989(2) 0.62724(19)
H3A H -0.62870 0.85280 0.60290
C5A C -0.4506(3) 0.7776(2) 0.6440(2)
H4A H -0.40340 0.81760 0.63100
C6A C -0.3860(3) 0.69703(19) 0.68013(16)
C7A C -0.2457(3) 0.6844(2) 0.69150(18)
H5A H -0.20920 0.72930 0.67780
C8A C -0.0315(3) 0.60148(19) 0.73864(19)
H6A H -0.02620 0.59570 0.79170
C9A C 0.0473(3) 0.5229(2) 0.73132(18)
H7A H 0.13060 0.50610 0.75930
H8A H 0.06520 0.52930 0.67940
C10A C 0.0302(3) 0.38263(18) 0.78816(15)
H9A H 0.12170 0.36850 0.79150
C11A C -0.0373(3) 0.31858(19) 0.81283(17)
C12A C 0.0464(3) 0.23872(19) 0.84263(17)
H10A H 0.13730 0.23100 0.84540
C13A C -0.0108(3) 0.1731(2) 0.86739(17)
H11A H 0.04290 0.12070 0.88610
C14A C -0.1456(3) 0.1836(2) 0.86484(18)
H12A H -0.18150 0.13860 0.88250
C15A C -0.2291(3) 0.26202(19) 0.83573(18)
H13A H -0.31990 0.26890 0.83350
C16A C -0.1738(3) 0.3305(2) 0.80976(16)
C17A C 0.0348(3) 0.66879(19) 0.69846(19)
H14A H -0.00310 0.71620 0.71240
H15A H 0.12720 0.65120 0.71180
H16A H 0.02240 0.68170 0.64560
C18A C -0.1403(3) 0.51024(18) 0.57836(16)
C19A C 0.1332(3) 0.4286(2) 0.58555(17)
C20A C 0.0472(3) 0.60432(19) 0.50877(15)
C21A C -0.1359(3) 0.50427(17) 0.92087(16)
C21A* C -0.1359(3) 0.50427(17) -0.07913(16)
C22A C 0.0546(3) 0.5976(2) -0.07496(17)
C23A C 0.1429(3) 0.4247(2) -0.04130(19)
Cr2* Cr 0.00000 0.50000 1.00000
Mn3A Mn -0.22274(4) 0.50644(3) 0.75137(3)
N1A N -0.1684(3) 0.61147(16) 0.72052(15)
N2A N -0.0303(2) 0.46099(16) 0.76086(15)
N3A N -0.2090(3) 0.51523(17) 0.62709(15)
N4A N 0.2066(3) 0.38583(16) 0.63468(15)
N5A N 0.0679(3) 0.66378(15) 0.51254(15)
N7A N 0.0873(2) 0.65163(15) -0.11889(14)
N8A N 0.2208(3) 0.38428(17) -0.06350(15)
N12A N -0.2034(2) 0.50613(17) 0.87495(15)
O1A O -0.40251(19) 0.55882(13) 0.73882(12)
O2A O -0.2578(2) 0.40324(13) 0.78167(12)
#END
