
#######################################################################
#
#                 Cambridge Crystallographic Data Centre
#                                CCDC
#
#######################################################################
#
# If this CIF has been generated from an entry in the Cambridge
# Structural Database, then it will include bibliographic, chemical,
# crystal, experimental, refinement or atomic coordinate data resulting
# from the CCDC's data processing and validation procedures.
#
#######################################################################

data_CSD_CIF_NEFKIV
_audit_creation_date 2017-08-09
_audit_creation_method CSD-ConQuest-V1
_database_code_CSD NEFKIV
_database_code_depnum_ccdc_archive 'CCDC 1567635'
_chemical_formula_sum 'C20 H32 N2 O30 U4'
_chemical_formula_moiety
;
(C12 H4 O28 U4 2-)n,2(C4 H12 N1 1+),2(H2 O1)
;
_journal_coden_Cambridge 179
_journal_volume 56
_journal_year 2017
_journal_page_first 7500
_journal_name_full 'Angew.Chem.,Int.Ed. '
loop_
_publ_author_name
"Jian Xie"
"Yaxing Wang"
"Wei Liu"
"Xuemiao Yin"
"Lanhua Chen"
"Youming Zou"
"Juan Diwu"
"Zhifang Chai"
"T.E.Albrecht-Schmitt"
"Guokui Liu"
"Shuao Wang"
_chemical_name_systematic
;
catena-(bis(tetramethylammonium) 
tetrakis(\m-oxalato)-(\m-succinato)-octaoxo-tetra-uranium dihydrate)
;
_cell_volume   1948.791
_exptl_crystal_colour 'yellow'
_exptl_crystal_density_diffrn 2.946
_exptl_special_details
;
gamma-ray irradiated
Light-sensitive

;
_exptl_crystal_description 'Block'
_diffrn_ambient_temperature 213
#These two values have been output from a single CSD field.
_refine_ls_R_factor_gt 0.0337
_refine_ls_wR_factor_gt 0.0337
_symmetry_cell_setting monoclinic
_symmetry_space_group_name_H-M 'P 21/n'
_symmetry_Int_Tables_number 14
loop_
_symmetry_equiv_pos_site_id
_symmetry_equiv_pos_as_xyz
1 x,y,z
2 1/2-x,1/2+y,1/2-z
3 -x,-y,-z
4 -1/2+x,-1/2-y,-1/2+z
_cell_length_a 10.4819(9)
_cell_length_b 9.4001(9)
_cell_length_c 19.9690(17)
_cell_angle_alpha 90
_cell_angle_beta 97.921(3)
_cell_angle_gamma 90
_cell_formula_units_Z 2
loop_
_atom_type_symbol
_atom_type_radius_bond
C 0.68
H 0.23
N 0.68
O 0.68
U 1.96
loop_
_atom_site_label
_atom_site_type_symbol
_atom_site_fract_x
_atom_site_fract_y
_atom_site_fract_z
U1 U 0.34555(3) 0.77137(3) 0.03053(2)
U2 U 0.26360(3) 0.75916(3) 0.33538(2)
O1 O 0.5719(5) 0.7448(5) 0.0211(3)
O2 O 0.4460(5) 0.7467(6) 0.1462(3)
O3 O 0.5369(5) 0.7389(6) -0.1547(3)
O4 O 0.1634(5) 0.7699(6) 0.2198(3)
O5 O 0.7207(5) 0.7338(5) -0.0487(3)
O6 O 0.3895(5) 0.7776(6) -0.0854(3)
O7 O 0.2745(5) 0.9477(6) 0.3358(3)
O8 O 0.1911(5) 0.7718(6) 0.1107(3)
O9 O 0.4160(5) 0.7429(6) 0.2547(3)
O10 O 0.4678(5) 0.7411(6) 0.4003(3)
O11 O 0.3684(5) 0.9566(6) 0.0386(3)
O12 O 0.2499(6) 0.5725(6) 0.3334(3)
O13 O 0.6464(6) 0.6912(7) 0.4651(3)
O14 O 0.3281(6) 0.5856(6) 0.0234(3)
C1 C 0.2299(7) 0.7651(7) 0.1720(4)
C2 C 0.3751(8) 0.7502(7) 0.1917(4)
C3 C 0.6088(7) 0.7439(7) -0.0358(4)
C4 C 0.5041(8) 0.7547(8) -0.0969(4)
C5 C 0.5281(7) 0.6671(9) 0.4460(4)
C6 C 0.4591(9) 0.548(1) 0.4771(5)
H1 H 0.39530 0.58980 0.50210
H2 H 0.41320 0.49150 0.44090
N1 N -0.1649(7) 0.6041(8) 0.1586(4)
C7 C -0.0839(9) 0.5384(10) 0.2172(5)
H3 H -0.07350 0.43880 0.20870
H4 H -0.00100 0.58360 0.22390
H5 H -0.12480 0.55020 0.25700
C8 C -0.2922(9) 0.5307(11) 0.1486(5)
H6 H -0.27960 0.43090 0.14170
H7 H -0.33430 0.54420 0.18790
H8 H -0.34460 0.56980 0.10970
C9 C -0.1838(12) 0.7566(10) 0.1691(7)
H9 H -0.23650 0.79570 0.13030
H10 H -0.22550 0.77030 0.20850
H11 H -0.10180 0.80370 0.17530
C10 C -0.1016(11) 0.5834(13) 0.0953(6)
H12 H -0.08900 0.48360 0.08810
H13 H -0.15600 0.62230 0.05700
H14 H -0.01990 0.63110 0.10060
O15 O 0.6787(9) 0.6260(14) 0.3074(5)
O10B O 0.5322(5) 0.2589(6) 0.5997(3)
C5B C 0.4719(7) 0.3329(9) 0.5540(4)
C6B C 0.5409(9) 0.452(1) 0.5229(5)
H1B H 0.60470 0.41020 0.49790
H2B H 0.58680 0.50850 0.55910
O13B O 0.3536(6) 0.3088(7) 0.5349(3)
U1B U 0.65445(3) 0.22863(3) 0.96947(2)
U2B U 0.73640(3) 0.24084(3) 0.66462(2)
O1B O 0.4281(5) 0.2552(5) 0.9789(3)
O2B O 0.5540(5) 0.2533(6) 0.8538(3)
O3B O 0.4631(5) 0.2611(6) 1.1547(3)
O4B O 0.8366(5) 0.2301(6) 0.7802(3)
O5B O 0.2793(5) 0.2662(5) 1.0487(3)
O6B O 0.6105(5) 0.2224(6) 1.0854(3)
O7B O 0.7255(5) 0.0523(6) 0.6642(3)
O8B O 0.8089(5) 0.2282(6) 0.8893(3)
O9B O 0.5840(5) 0.2571(6) 0.7453(3)
O11B O 0.6316(5) 0.0434(6) 0.9614(3)
O12B O 0.7501(6) 0.4275(6) 0.6666(3)
O14B O 0.6719(6) 0.4144(6) 0.9766(3)
C1B C 0.7701(7) 0.2349(7) 0.8280(4)
C2B C 0.6249(8) 0.2498(7) 0.8083(4)
C3B C 0.3912(7) 0.2561(7) 1.0358(4)
C4B C 0.4959(8) 0.2453(8) 1.0969(4)
U1A U 0.15445(3) 0.27137(3) 0.46947(2)
U1C U 0.84555(3) 0.72863(3) 0.53053(2)
U2A U 0.23640(3) 0.25916(3) 1.16462(2)
U2C U 0.76360(3) 0.74084(3) -0.16462(2)
O3A O 0.9631(5) 0.2389(6) 0.6547(3)
O3C O 0.0369(5) 0.7611(6) 0.3453(3)
O5A O 0.7793(5) 0.2338(5) 0.5487(3)
O5C O 0.2207(5) 0.7662(5) 0.4513(3)
O13A O 0.8536(6) 0.1912(7) 1.0349(3)
O13C O 0.1464(6) 0.8088(7) -0.0349(3)
#END
