
#######################################################################
#
#                 Cambridge Crystallographic Data Centre
#                                CCDC
#
#######################################################################
#
# If this CIF has been generated from an entry in the Cambridge
# Structural Database, then it will include bibliographic, chemical,
# crystal, experimental, refinement or atomic coordinate data resulting
# from the CCDC's data processing and validation procedures.
#
#######################################################################

data_CSD_CIF_NEHKUI
_audit_creation_date 2012-09-12
_audit_creation_method CSD-ConQuest-V1
_database_code_CSD NEHKUI
_database_code_depnum_ccdc_archive 'CCDC 883810'
_chemical_formula_sum 'C44 H30 N2 O16 Zn3'
_chemical_formula_moiety
;
(C12 H14 N2 2+)n,n(C32 H16 O16 Zn3 2-)
;
_journal_coden_Cambridge 182
_journal_volume 48
_journal_year 2012
_journal_page_first 8114
_journal_name_full 'Chem.Commun. '
loop_
_publ_author_name
"Yu Zheng"
"Zhiyong Fu"
"Hengjun Chen"
"Changchun Liu"
"Shijun Liao"
"Jingcao Dai"
_chemical_name_systematic
;
catena-(1,1'-dimethyl-4,4'-bipyridinium 
bis(\m~4~-isophthalato)-bis(\m~3~-isophthalato)-tri-zinc(ii))
;
_cell_volume   1004.271
_exptl_crystal_colour 'yellow'
_exptl_crystal_density_diffrn 1.718
_exptl_crystal_description 'block'
_diffrn_ambient_temperature 298
#These two values have been output from a single CSD field.
_refine_ls_R_factor_gt 0.031
_refine_ls_wR_factor_gt 0.031
_symmetry_cell_setting triclinic
_symmetry_space_group_name_H-M 'P -1'
_symmetry_Int_Tables_number 2
loop_
_symmetry_equiv_pos_site_id
_symmetry_equiv_pos_as_xyz
1 x,y,z
2 -x,-y,-z
_cell_length_a 9.5200(19)
_cell_length_b 10.160(2)
_cell_length_c 11.490(2)
_cell_angle_alpha 102.50(3)
_cell_angle_beta 110.19(3)
_cell_angle_gamma 94.42(3)
_cell_formula_units_Z 1
loop_
_atom_type_symbol
_atom_type_radius_bond
C 0.68
H 0.23
N 0.68
O 0.68
Zn 1.47
loop_
_atom_site_label
_atom_site_type_symbol
_atom_site_fract_x
_atom_site_fract_y
_atom_site_fract_z
N1 N 0.2937(3) 0.6012(3) 0.3022(3)
Zn1 Zn 0.67792(4) -0.73292(3) 0.25371(3)
Zn2 Zn 0.50000 0.00000 0.00000
O1 O 0.6812(3) -0.5099(2) 0.2029(2)
O2 O 0.7700(3) -0.55548(19) 0.39038(19)
O3 O 0.6083(2) -0.0409(2) 0.18051(17)
O4 O 0.7036(3) 0.13197(19) 0.35853(18)
O5 O 0.8408(2) 0.2315(2) 0.18576(18)
O6 O 0.6912(2) 0.0931(2) -0.00550(18)
O7 O 1.4744(2) 0.19866(19) 0.11231(18)
O8 O 1.4097(3) 0.3070(3) 0.26969(19)
C1 C 0.7776(3) -0.3223(3) 0.3866(3)
C2 C 0.8691(4) -0.2733(3) 0.5159(3)
H1 H 0.91300 -0.33340 0.56290
C3 C 0.8943(5) -0.1364(3) 0.5737(3)
H2 H 0.95620 -0.10380 0.66000
C4 C 0.8291(5) -0.0464(3) 0.5058(3)
H3 H 0.84490 0.04590 0.54720
C5 C 0.7399(4) -0.0923(3) 0.3760(3)
C6 C 0.7162(3) -0.2300(3) 0.3179(2)
H4 H 0.65770 -0.26190 0.23070
C7 C 0.7407(3) -0.4714(3) 0.3211(3)
C8 C 0.6769(3) 0.0073(3) 0.2980(3)
C9 C 0.9444(3) 0.1682(3) 0.0268(2)
C10 C 1.0937(3) 0.2051(3) 0.1122(2)
H5 H 1.11480 0.22860 0.20010
C11 C 1.2121(3) 0.2075(3) 0.0681(2)
C12 C 1.1792(3) 0.1815(3) -0.0636(3)
H6 H 1.25760 0.18650 -0.09410
C13 C 1.0301(3) 0.1482(3) -0.1490(3)
H7 H 1.00860 0.13290 -0.23660
C14 C 0.9133(3) 0.1376(3) -0.1047(3)
H8 H 0.81360 0.10990 -0.16280
C15 C 0.8157(3) 0.1634(3) 0.0728(3)
C16 C 1.3742(3) 0.2399(3) 0.1586(3)
C17 C 0.3255(4) 0.5856(4) 0.1952(3)
H9 H 0.42600 0.60160 0.20220
C18 C 0.2124(4) 0.5466(4) 0.0763(3)
H10 H 0.23640 0.53710 0.00330
C19 C 0.1513(4) 0.5742(4) 0.2930(3)
H11 H 0.13070 0.58330 0.36750
C20 C 0.0347(4) 0.5335(3) 0.1773(3)
H12 H -0.06410 0.51380 0.17330
C21 C 0.0629(4) 0.5211(3) 0.0639(3)
C22 C 0.4180(5) 0.6453(6) 0.4296(4)
H13 H 0.37650 0.65060 0.49540
H14 H 0.47140 0.73360 0.43950
H15 H 0.48680 0.58050 0.43680
N1A N -0.2937(3) 0.3988(3) -0.3022(3)
Zn1A Zn 0.32208(4) 0.73292(3) -0.25371(3)
Zn1* Zn 0.67792(4) 0.26708(3) 0.25371(3)
Zn1** Zn 1.67792(4) 0.26708(3) 0.25371(3)
Zn1A* Zn 0.32208(4) -0.26708(3) -0.25371(3)
Zn1A** Zn -0.67792(4) -0.26708(3) -0.25371(3)
Zn2* Zn 1.50000 0.00000 0.00000
Zn2** Zn -0.50000 0.00000 0.00000
O1A O 0.3188(3) 0.5099(2) -0.2029(2)
O2A O 0.2300(3) 0.55548(19) -0.39038(19)
O3A O 0.3917(2) 0.0409(2) -0.18051(17)
O4A O 0.2964(3) -0.13197(19) -0.35853(18)
O4* O 0.7036(3) -0.86803(19) 0.35853(18)
O4A* O 0.2964(3) 0.86803(19) -0.35853(18)
O5A O 0.1592(2) -0.2315(2) -0.18576(18)
O5* O 0.8408(2) -0.7685(2) 0.18576(18)
O5A* O 0.1592(2) 0.7685(2) -0.18576(18)
O6A O 0.3088(2) -0.0931(2) 0.00550(18)
O7A O -0.4744(2) -0.19866(19) -0.11231(18)
O7* O 0.4744(2) -0.80134(19) 0.11231(18)
O7** O 0.4744(2) 0.19866(19) 0.11231(18)
O7A* O 0.5256(2) -0.19866(19) -0.11231(18)
O7A** O 0.5256(2) 0.80134(19) -0.11231(18)
O8A O -0.4097(3) -0.3070(3) -0.26969(19)
C1A C 0.2224(3) 0.3223(3) -0.3866(3)
C2A C 0.1309(4) 0.2733(3) -0.5159(3)
H1A H 0.08700 0.33340 -0.56290
C3A C 0.1057(5) 0.1364(3) -0.5737(3)
H2A H 0.04380 0.10380 -0.66000
C4A C 0.1709(5) 0.0464(3) -0.5058(3)
H3A H 0.15510 -0.04590 -0.54720
C5A C 0.2601(4) 0.0923(3) -0.3760(3)
C6A C 0.2838(3) 0.2300(3) -0.3179(2)
H4A H 0.34230 0.26190 -0.23070
C7A C 0.2593(3) 0.4714(3) -0.3211(3)
C8A C 0.3231(3) -0.0073(3) -0.2980(3)
C9A C 0.0556(3) -0.1682(3) -0.0268(2)
C10A C -0.0937(3) -0.2051(3) -0.1122(2)
H5A H -0.11480 -0.22860 -0.20010
C11A C -0.2121(3) -0.2075(3) -0.0681(2)
C12A C -0.1792(3) -0.1815(3) 0.0636(3)
H6A H -0.25760 -0.18650 0.09410
C13A C -0.0301(3) -0.1482(3) 0.1490(3)
H7A H -0.00860 -0.13290 0.23660
C14A C 0.0867(3) -0.1376(3) 0.1047(3)
H8A H 0.18640 -0.10990 0.16280
C15A C 0.1843(3) -0.1634(3) -0.0728(3)
C16A C -0.3742(3) -0.2399(3) -0.1586(3)
C17A C -0.3255(4) 0.4144(4) -0.1952(3)
H9A H -0.42600 0.39840 -0.20220
C18A C -0.2124(4) 0.4534(4) -0.0763(3)
H10A H -0.23640 0.46290 -0.00330
C19A C -0.1513(4) 0.4258(4) -0.2930(3)
H11A H -0.13070 0.41670 -0.36750
C20A C -0.0347(4) 0.4665(3) -0.1773(3)
H12A H 0.06410 0.48620 -0.17330
C21A C -0.0629(4) 0.4789(3) -0.0639(3)
C22A C -0.4180(5) 0.3547(6) -0.4296(4)
H13A H -0.37650 0.34940 -0.49540
H14A H -0.47140 0.26640 -0.43950
H15A H -0.48680 0.41950 -0.43680
#END
