
#######################################################################
#
#                 Cambridge Crystallographic Data Centre
#                                CCDC
#
#######################################################################
#
# If this CIF has been generated from an entry in the Cambridge
# Structural Database, then it will include bibliographic, chemical,
# crystal, experimental, refinement or atomic coordinate data resulting
# from the CCDC's data processing and validation procedures.
#
#######################################################################

data_CSD_CIF_NEHMET
_audit_creation_date 2006-08-31
_audit_creation_method CSD-ConQuest-V1
_database_code_CSD NEHMET
_database_code_depnum_ccdc_archive 'CCDC 271161'
_chemical_formula_sum 'C15 H14 Cd1 N2 O6'
_chemical_formula_moiety
;
(C9 H3 Cd1 O6 1-)n,n(C6 H11 N2 1+)
;
_journal_coden_Cambridge 1147
_journal_volume 6
_journal_year 2006
_journal_page_first 1062
_journal_name_full 'Cryst.Growth Des. '
loop_
_publ_author_name
"Ju-Hsiou Liao"
"Pei-Chi Wu"
"Wei-Chia Huang"
_chemical_name_systematic
;
catena-(1-Ethyl-3-methylimidazolium 
(\m~4~-benzene-1,3,5-tricarboxylato)-cadmium)
;
_cell_volume   3181.911
_exptl_crystal_colour 'colorless'
_exptl_crystal_density_diffrn 1.798
_exptl_crystal_description 'chunky'
_diffrn_ambient_temperature 298
#These two values have been output from a single CSD field.
_refine_ls_R_factor_gt 0.0715
_refine_ls_wR_factor_gt 0.0715
_symmetry_cell_setting orthorhombic
_symmetry_space_group_name_H-M 'P b c a'
_symmetry_Int_Tables_number 61
loop_
_symmetry_equiv_pos_site_id
_symmetry_equiv_pos_as_xyz
1 x,y,z
2 1/2-x,-y,1/2+z
3 -x,1/2+y,1/2-z
4 1/2+x,1/2-y,-z
5 -x,-y,-z
6 -1/2+x,y,-1/2-z
7 x,-1/2-y,-1/2+z
8 -1/2-x,-1/2+y,z
_cell_length_a 15.1129(15)
_cell_length_b 12.4966(11)
_cell_length_c 16.8480(16)
_cell_angle_alpha 90
_cell_angle_beta 90
_cell_angle_gamma 90
_cell_formula_units_Z 8
loop_
_atom_type_symbol
_atom_type_radius_bond
C 0.68
H 0.23
Cd 1.55
N 0.68
O 0.68
loop_
_atom_site_label
_atom_site_type_symbol
_atom_site_fract_x
_atom_site_fract_y
_atom_site_fract_z
Cd1 Cd 0.10359(3) 1.01264(3) 0.42593(2)
O1 O 0.2086(4) 0.8651(4) 0.4512(3)
O2 O 0.2030(4) 1.0068(4) 0.5257(3)
O3 O 0.4807(3) 0.6243(3) 0.5056(2)
O4 O 0.4980(3) 0.5847(4) 0.6330(3)
O5 O 0.4047(4) 0.8488(4) 0.8344(3)
O6 O 0.3255(3) 0.9872(4) 0.7979(3)
N1 N 0.1228(6) 0.9021(10) 0.7913(9)
N2 N 0.1204(5) 0.7758(7) 0.7056(6)
C1 C 0.2320(4) 0.9158(5) 0.5102(4)
C2 C 0.2976(4) 0.8671(5) 0.5666(3)
C3 C 0.3479(4) 0.7792(5) 0.5459(4)
H1 H 0.34430 0.75230 0.49450
C4 C 0.4643(4) 0.6397(5) 0.5775(4)
C5 C 0.4045(4) 0.7296(5) 0.6009(4)
C6 C 0.4075(4) 0.7690(4) 0.6783(3)
H2 H 0.44360 0.73600 0.71570
C7 C 0.3618(4) 0.9006(5) 0.7838(4)
C8 C 0.3571(4) 0.8572(5) 0.7000(3)
C9 C 0.3039(4) 0.9069(5) 0.6439(4)
H3 H 0.27200 0.96770 0.65790
C10 C 0.1087(10) 0.7125(12) 0.6332(9)
H4 H 0.08970 0.75840 0.59080
H5 H 0.06480 0.65820 0.64210
H6 H 0.16380 0.67940 0.61910
C11 C 0.1005(6) 0.8807(10) 0.7158(9)
H7 H 0.07670 0.92760 0.67860
C12 C 0.1525(7) 0.7424(10) 0.7775(8)
H8 H 0.17060 0.67280 0.78840
C13 C 0.1546(8) 0.8211(12) 0.8291(10)
H9 H 0.17450 0.81890 0.88130
C14 C 0.1148(10) 1.0145(14) 0.8310(13)
H10 H 0.07900 1.06260 0.79910
H11 H 0.17250 1.04640 0.83960
C15 C 0.0677(15) 0.987(2) 0.9125(14)
H12 H 0.00790 0.96490 0.90250
H13 H 0.06760 1.04910 0.94590
H14 H 0.09910 0.93010 0.93840
Cd1G Cd 0.39641(3) 0.51264(3) 0.42593(2)
Cd1C Cd 0.60359(3) 0.48736(3) 0.57407(2)
Cd1A Cd 0.39641(3) 0.98736(3) 0.92593(2)
O3G O 0.0193(3) 1.1243(3) 0.5056(2)
O4C O -0.0020(3) 0.9153(4) 0.3670(3)
O5A O 0.0953(4) 1.1512(4) 0.3344(3)
O6A O 0.1745(3) 1.0128(4) 0.2979(3)
#END
