
#######################################################################
#
#                 Cambridge Crystallographic Data Centre
#                                CCDC
#
#######################################################################
#
# If this CIF has been generated from an entry in the Cambridge
# Structural Database, then it will include bibliographic, chemical,
# crystal, experimental, refinement or atomic coordinate data resulting
# from the CCDC's data processing and validation procedures.
#
#######################################################################

data_CSD_CIF_NEKMUN
_audit_creation_date 2013-04-24
_audit_creation_method CSD-ConQuest-V1
_database_code_CSD NEKMUN
_database_code_depnum_ccdc_archive 'CCDC 896110'
_chemical_formula_sum 'C38 H35 Co2 N1 O14'
_chemical_formula_moiety
;
(C8 H20 N1 1+)n,n(C30 H15 Co2 O14 1-)
;
_journal_coden_Cambridge 580
_journal_volume 50
_journal_year 2013
_journal_page_first 169
_journal_name_full 'Polyhedron '
loop_
_publ_author_name
"R.Mishra"
"M.Ahmad"
"M.R.Tripathi"
"R.J.Butcher"
_chemical_name_systematic
;
catena-(Tetraethylammonium(\m~5~-5-(2-carboxyphenoxy)isophthalato)-(\m~4~-5-(2
-carboxyphenoxy)isophthalato)-di-cobalt)
;
_cell_volume   3647.672
_exptl_crystal_colour 'red'
_exptl_crystal_density_diffrn 1.543
_exptl_crystal_description 'block'
_diffrn_ambient_temperature 100
_refine_special_details
;
The SQUEEZE/PLATON program has been used to model some disorder.

;
#These two values have been output from a single CSD field.
_refine_ls_R_factor_gt 0.0524
_refine_ls_wR_factor_gt 0.0524
_symmetry_cell_setting monoclinic
_symmetry_space_group_name_H-M 'P 21/c'
_symmetry_Int_Tables_number 14
loop_
_symmetry_equiv_pos_site_id
_symmetry_equiv_pos_as_xyz
1 x,y,z
2 -x,1/2+y,1/2-z
3 -x,-y,-z
4 x,-1/2-y,-1/2+z
_cell_length_a 19.936(5)
_cell_length_b 10.251(4)
_cell_length_c 17.910(5)
_cell_angle_alpha 90
_cell_angle_beta 94.734(2)
_cell_angle_gamma 90
_cell_formula_units_Z 4
loop_
_atom_type_symbol
_atom_type_radius_bond
C 0.68
H 0.23
Co 1.41
N 0.68
O 0.68
loop_
_atom_site_label
_atom_site_type_symbol
_atom_site_fract_x
_atom_site_fract_y
_atom_site_fract_z
Co1 Co 0.85554(2) 0.25313(5) -0.06492(3)
Co2 Co 0.75209(2) 0.45256(5) -0.16475(3)
O1 O 0.77057(13) 0.2561(3) -0.01211(15)
O2 O 0.69552(12) 0.3653(3) -0.08909(14)
O3 O 0.70467(12) 0.1128(3) 0.23735(14)
O4 O 0.59436(13) 0.1166(3) 0.25543(16)
O5 O 0.48205(12) 0.3556(2) 0.03765(14)
O6 O 0.41492(14) 0.4558(3) 0.14499(17)
O7 O 0.31088(12) 0.3837(2) 0.15873(14)
O8 O 0.90395(12) 0.1206(2) 0.00233(13)
O9 O 0.83788(13) 0.0327(3) -0.08805(14)
O10 O 0.81129(13) -0.4495(3) -0.08460(15)
O11 O 0.89248(13) -0.5740(2) -0.02645(14)
O12 O 1.03797(12) -0.2482(2) 0.12392(13)
O13 O 1.17173(12) -0.3088(2) 0.17075(13)
O14 O 1.16099(13) -0.4822(3) 0.24049(14)
N1 N 0.74258(16) 0.6063(3) 0.19737(18)
C1 C 0.71398(19) 0.3062(4) -0.0297(2)
C2 C 0.66187(19) 0.2916(4) 0.0273(2)
C3 C 0.59636(19) 0.3345(4) 0.0079(2)
H1 H 0.58550 0.37590 -0.03770
C4 C 0.54762(18) 0.3142(4) 0.0579(2)
C5 C 0.56315(19) 0.2539(4) 0.1263(2)
H2 H 0.52990 0.24160 0.15900
C6 C 0.62873(19) 0.2116(4) 0.1460(2)
C7 C 0.6784(2) 0.2300(4) 0.0953(2)
H3 H 0.72210 0.20090 0.10730
C8 C 0.64421(19) 0.1405(4) 0.2190(2)
C9 C 0.43423(19) 0.2579(4) 0.0359(2)
C10 C 0.4427(2) 0.1471(4) -0.0072(2)
H4 H 0.48230 0.13600 -0.03050
C11 C 0.3929(2) 0.0538(4) -0.0154(2)
H5 H 0.39980 -0.02160 -0.04270
C12 C 0.3328(2) 0.0713(4) 0.0165(2)
H6 H 0.29850 0.00990 0.00930
C13 C 0.32424(19) 0.1811(4) 0.0594(2)
H7 H 0.28350 0.19370 0.08020
C14 C 0.37536(19) 0.2740(4) 0.0722(2)
C15 C 0.36532(19) 0.3797(4) 0.1282(2)
C16 C 0.87883(18) 0.0203(4) -0.0323(2)
C17 C 0.90295(18) -0.1101(4) -0.0040(2)
C18 C 0.95606(18) -0.1178(4) 0.0507(2)
H8 H 0.97560 -0.04250 0.07170
C19 C 0.97956(18) -0.2398(4) 0.0738(2)
C20 C 0.95113(19) -0.3538(4) 0.0449(2)
H9 H 0.96780 -0.43460 0.06120
C21 C 0.89708(18) -0.3453(4) -0.0091(2)
C22 C 0.87384(18) -0.2238(4) -0.0338(2)
H10 H 0.83830 -0.21850 -0.07070
C23 C 0.86415(19) -0.4655(4) -0.0429(2)
C24 C 1.02929(19) -0.2496(4) 0.2006(2)
C25 C 0.97593(18) -0.1879(4) 0.2305(2)
H11 H 0.94430 -0.14260 0.19940
C26 C 0.96995(19) -0.1941(4) 0.3071(2)
H12 H 0.93380 -0.15340 0.32700
C27 C 1.0167(2) -0.2597(4) 0.3543(2)
H13 H 1.01220 -0.26300 0.40550
C28 C 1.07138(19) -0.3216(4) 0.3237(2)
H14 H 1.10310 -0.36640 0.35490
C29 C 1.07813(18) -0.3158(4) 0.2469(2)
C30 C 1.13912(19) -0.3755(4) 0.2178(2)
C31 C 0.7927(2) 0.5166(4) 0.1643(3)
H15 H 0.79850 0.54480 0.11360
H16 H 0.77410 0.42920 0.16160
C32 C 0.8613(2) 0.5115(5) 0.2078(3)
H17 H 0.88040 0.59750 0.21080
H18 H 0.89040 0.45440 0.18280
H19 H 0.85660 0.47930 0.25750
C33 C 0.7677(2) 0.7460(4) 0.2027(2)
H20 H 0.73260 0.80000 0.22090
H21 H 0.80610 0.74950 0.23960
C34 C 0.7882(2) 0.8040(5) 0.1307(2)
H22 H 0.82770 0.76060 0.11620
H23 H 0.79750 0.89530 0.13780
H24 H 0.75220 0.79320 0.09200
C35 C 0.7314(2) 0.5669(4) 0.2771(2)
H25 H 0.70100 0.62950 0.29700
H26 H 0.77400 0.57280 0.30710
C36 C 0.7028(2) 0.4307(4) 0.2864(2)
H27 H 0.65790 0.42680 0.26260
H28 H 0.70190 0.41140 0.33870
H29 H 0.73050 0.36800 0.26360
C37 C 0.6775(2) 0.5966(5) 0.1468(2)
H30 H 0.68590 0.62850 0.09750
H31 H 0.66520 0.50530 0.14170
C38 C 0.6186(3) 0.6707(6) 0.1737(3)
H32 H 0.61020 0.64120 0.22290
H33 H 0.57940 0.65570 0.14000
H34 H 0.62880 0.76220 0.17530
H35 H 0.416(3) 0.506(7) 0.184(4)
Co1* Co 0.85554(2) -0.74687(5) -0.06492(3)
Co1B Co 1.14446(2) -0.25313(5) 0.06492(3)
Co2C Co 0.75209(2) 0.04744(5) 0.33525(3)
Co2B Co 0.24791(2) 0.54744(5) 0.16475(3)
Co2* Co 0.75209(2) -0.54744(5) -0.16475(3)
Co2B* Co 1.24791(2) -0.45256(5) 0.16475(3)
O3C O 0.70467(12) 0.3872(3) -0.26265(14)
O7B O 0.68912(12) 0.6163(2) -0.15873(14)
O10* O 0.81129(13) 0.5505(3) -0.08460(15)
O11* O 0.89248(13) 0.4260(2) -0.02645(14)
O12B O 0.96203(12) 0.2482(2) -0.12392(13)
O13B O 0.82827(12) 0.3088(2) -0.17075(13)
O14B O 0.83901(13) 0.4822(3) -0.24049(14)
#END
