
#######################################################################
#
#                 Cambridge Crystallographic Data Centre
#                                CCDC
#
#######################################################################
#
# If this CIF has been generated from an entry in the Cambridge
# Structural Database, then it will include bibliographic, chemical,
# crystal, experimental, refinement or atomic coordinate data resulting
# from the CCDC's data processing and validation procedures.
#
#######################################################################

data_CSD_CIF_NELVEG
_audit_creation_date 2006-11-27
_audit_creation_method CSD-ConQuest-V1
_database_code_CSD NELVEG
_database_code_depnum_ccdc_archive 'CCDC 299887'
_chemical_formula_sum 'C11 H28 N2 O18 P6 Zn4'
_chemical_formula_moiety
;
(C6 H14 O18 P6 Zn4 2-)n,n(C5 H14 N2 2+)
;
_journal_coden_Cambridge 9
_journal_volume 45
_journal_year 2006
_journal_page_first 5254
_journal_name_full 'Inorg.Chem. '
loop_
_publ_author_name
"Ruibiao Fu"
"Xihe Huang"
"Shengmin Hu"
"Shengchang Xiang"
"Xintao Wu"
_chemical_name_systematic
;
catena-(2-Methylpiperazine-di-ium 
bis(\m~6~-ethane-1,2-diphosphonato)-(\m~4~-ethane-1,2-bis(hydrogenphosphonato)
)-tetra-zinc(ii))
;
_cell_volume   1413.336
_exptl_crystal_colour 'colorless'
_exptl_crystal_density_diffrn 2.171
_exptl_crystal_description 'prism'
_diffrn_ambient_temperature 130.15
_refine_special_details
;
Cations have imposed disorder.

;
#These two values have been output from a single CSD field.
_refine_ls_R_factor_gt 0.0507
_refine_ls_wR_factor_gt 0.0507
_symmetry_cell_setting monoclinic
_symmetry_space_group_name_H-M 'P 21/c'
_symmetry_Int_Tables_number 14
loop_
_symmetry_equiv_pos_site_id
_symmetry_equiv_pos_as_xyz
1 x,y,z
2 -x,1/2+y,1/2-z
3 -x,-y,-z
4 x,-1/2-y,-1/2+z
_cell_length_a 8.5989(17)
_cell_length_b 17.044(2)
_cell_length_c 10.165(2)
_cell_angle_alpha 90
_cell_angle_beta 108.434(9)
_cell_angle_gamma 90
_cell_formula_units_Z 2
loop_
_atom_type_symbol
_atom_type_radius_bond
C 0.68
H 0.23
N 0.68
O 0.68
P 1.05
Zn 1.45
loop_
_atom_site_label
_atom_site_type_symbol
_atom_site_fract_x
_atom_site_fract_y
_atom_site_fract_z
Zn1 Zn 0.10572(7) 0.17166(3) 0.92118(5)
Zn2 Zn 0.12258(7) -0.16836(3) 0.82182(6)
P1 P 0.24102(15) -0.00352(7) 0.99165(13)
P2 P -0.23586(15) 0.24774(7) 0.89456(12)
P3 P -0.77556(15) 0.26095(7) 0.71489(12)
O1 O 0.2750(4) -0.0431(2) 1.1369(4)
H1 H 0.22690 -0.08530 1.12770
O2 O 0.1878(5) -0.0621(2) 0.8760(4)
O3 O 0.1245(4) 0.0638(2) 0.9754(4)
O4 O -0.1828(4) 0.32653(18) 0.8498(3)
O5 O -0.1342(4) 0.18014(19) 0.8633(3)
O6 O -0.2270(4) 0.2496(2) 1.0467(3)
O7 O -0.8862(4) 0.32357(19) 0.7437(3)
O8 O -0.8119(4) 0.17902(19) 0.7627(3)
O9 O -0.7843(4) 0.2546(2) 0.5633(3)
C1 C 0.4374(6) 0.0330(3) 0.9970(6)
H2 H 0.42540 0.06500 0.91540
H3 H 0.47930 0.06640 1.07780
C2 C -0.4442(6) 0.2288(3) 0.7913(5)
H4 H -0.45140 0.23060 0.69420
H5 H -0.47320 0.17610 0.81110
C3 C -0.5697(6) 0.2861(3) 0.8150(5)
H6 H -0.54540 0.33870 0.79020
H7 H -0.56030 0.28630 0.91260
C4 C -0.0806(9) 0.0316(4) 0.5931(7)
H8 H -0.16140 0.06660 0.60980
H9 H -0.02600 0.00400 0.67880
C5 C -0.1654(10) -0.0271(5) 0.4810(9)
H10 H -0.20610 0.00550 0.39770
C6 C -0.291(3) -0.0559(11) 0.494(2)
H11 H -0.35880 -0.01490 0.51080
H12 H -0.34980 -0.08310 0.40990
H13 H -0.26280 -0.09200 0.56990
N1 N 0.0413(7) 0.0779(3) 0.5502(5)
H14 H 0.09220 0.11160 0.61850
H15 H -0.01110 0.10630 0.47440
Zn1B Zn 0.89428(7) -0.17166(3) 1.07882(5)
Zn1* Zn -0.89428(7) 0.17166(3) 0.92118(5)
Zn1C Zn -0.89428(7) 0.32834(3) 0.42118(5)
Zn1** Zn 1.10572(7) 0.17166(3) 0.92118(5)
Zn1C* Zn 0.10572(7) 0.32834(3) 0.42118(5)
Zn2B Zn 0.87742(7) 0.16836(3) 1.17818(6)
Zn2A Zn -0.12258(7) 0.33164(3) 0.67818(6)
Zn2B* Zn -0.12258(7) 0.16836(3) 1.17818(6)
Zn2A* Zn -1.12258(7) 0.33164(3) 0.67818(6)
Zn2A** Zn 0.87742(7) 0.33164(3) 0.67818(6)
P1B P 0.75898(15) 0.00352(7) 1.00835(13)
P2* P 0.76414(15) 0.24774(7) 0.89456(12)
P3* P 0.22444(15) 0.26095(7) 0.71489(12)
O1B O 0.7250(4) 0.0431(2) 0.8631(4)
H1B H 0.77310 0.08530 0.87230
O2B O 0.8122(5) 0.0621(2) 1.1240(4)
O3B O 0.8755(4) -0.0638(2) 1.0246(4)
O4* O 0.8172(4) 0.32653(18) 0.8498(3)
O4A O 0.1828(4) -0.17347(18) 0.6502(3)
O4C O 0.8172(4) 0.17347(18) 1.3498(3)
O5* O 0.8658(4) 0.18014(19) 0.8633(3)
O5B O 1.1342(4) -0.18014(19) 1.1367(3)
O6* O 0.7730(4) 0.2496(2) 1.0467(3)
O6B O 0.2270(4) -0.2496(2) 0.9533(3)
O7* O 0.1138(4) 0.32357(19) 0.7437(3)
O7A O -0.1138(4) -0.17643(19) 0.7563(3)
O7C O 1.1138(4) 0.17643(19) 1.2437(3)
O8* O 0.1881(4) 0.17902(19) 0.7627(3)
O8B O 0.8119(4) -0.17902(19) 1.2373(3)
O9* O 0.2157(4) 0.2546(2) 0.5633(3)
O9C O 0.2157(4) 0.2454(2) 1.0633(3)
O9A O 0.7843(4) -0.2454(2) 0.9367(3)
C1B C 0.5626(6) -0.0330(3) 1.0030(6)
H2B H 0.57460 -0.06500 1.08460
H3B H 0.52070 -0.06640 0.92220
C2* C 0.5558(6) 0.2288(3) 0.7913(5)
H4* H 0.54860 0.23060 0.69420
H5* H 0.52680 0.17610 0.81110
C3* C 0.4303(6) 0.2861(3) 0.8150(5)
H6* H 0.45460 0.33870 0.79020
H7* H 0.43970 0.28630 0.91260
C4B C 0.0806(9) -0.0316(4) 0.4069(7)
H8B H 0.16140 -0.06660 0.39020
H9B H 0.02600 -0.00400 0.32120
C5B C 0.1654(10) 0.0271(5) 0.5190(9)
H10B H 0.20610 -0.00550 0.60230
C6B C 0.291(3) 0.0559(11) 0.506(2)
H11B H 0.35880 0.01490 0.48920
H12B H 0.34980 0.08310 0.59010
H13B H 0.26280 0.09200 0.43010
N1B N -0.0413(7) -0.0779(3) 0.4498(5)
H14B H -0.09220 -0.11160 0.38150
H15B H 0.01110 -0.10630 0.52560
#END
