
#######################################################################
#
#                 Cambridge Crystallographic Data Centre
#                                CCDC
#
#######################################################################
#
# If this CIF has been generated from an entry in the Cambridge
# Structural Database, then it will include bibliographic, chemical,
# crystal, experimental, refinement or atomic coordinate data resulting
# from the CCDC's data processing and validation procedures.
#
#######################################################################

data_CSD_CIF_NENZUC
_audit_creation_date 2006-11-27
_audit_creation_method CSD-ConQuest-V1
_database_code_CSD NENZUC
_database_code_depnum_ccdc_archive 'CCDC 294631'
_chemical_formula_sum 'C16 H32 Be2 Cl10 O8 Sb2'
_chemical_formula_moiety
;
(C8 H16 Be1 Cl1 O4 1+)2n,n(Cl8 Sb2 2-)
;
_journal_coden_Cambridge 29
_journal_volume 632
_journal_year 2006
_journal_page_first 1681
_journal_name_full 'Z.Anorg.Allg.Chem. '
loop_
_publ_author_name
"B.Neumuller"
"K.Dehnicke"
_chemical_name_systematic
;
catena-(bis(Chloro-(12-crown-4)-beryllium) 
bis(\m~2~-chloro)-hexachloro-di-antimony)
;
_cell_volume   3311.702
_exptl_crystal_colour 'colorless'
_exptl_crystal_density_diffrn 1.942
_exptl_crystal_description 'plates'
_diffrn_ambient_temperature 173
_refine_special_details
;
The crown ether moieties are disordered, one with occupancies 0.6:0.4, the 
other with occupancies 0.7:0.3.
;
#These two values have been output from a single CSD field.
_refine_ls_R_factor_gt 0.0301
_refine_ls_wR_factor_gt 0.0301
_symmetry_cell_setting monoclinic
_symmetry_space_group_name_H-M 'P 21/c'
_symmetry_Int_Tables_number 14
loop_
_symmetry_equiv_pos_site_id
_symmetry_equiv_pos_as_xyz
1 x,y,z
2 -x,1/2+y,1/2-z
3 -x,-y,-z
4 x,-1/2-y,-1/2+z
_cell_length_a 11.164(2)
_cell_length_b 17.354(2)
_cell_length_c 17.098(3)
_cell_angle_alpha 90
_cell_angle_beta 91.31(1)
_cell_angle_gamma 90
_cell_formula_units_Z 4
loop_
_atom_type_symbol
_atom_type_radius_bond
C 0.68
H 0.23
Be 1.19
Cl 0.99
O 0.68
Sb 1.65
loop_
_atom_site_label
_atom_site_type_symbol
_atom_site_fract_x
_atom_site_fract_y
_atom_site_fract_z
Sb1 Sb -0.18614(3) -0.23793(2) 0.811681(18)
Sb2 Sb 0.17499(3) -0.25454(2) 0.573470(17)
Cl1 Cl 0.23867(13) -0.41958(7) 1.02646(7)
Cl2 Cl -0.25779(14) -0.07495(8) 1.27016(9)
Cl3 Cl -0.36456(10) -0.24812(9) 0.89510(6)
Cl4 Cl -0.18397(15) -0.10073(8) 0.82793(9)
Cl5 Cl -0.31781(15) -0.22127(8) 0.69886(8)
Cl6 Cl 0.15046(14) -0.38873(7) 0.60670(8)
Cl7 Cl 0.31440(13) -0.28968(8) 0.47210(7)
Cl8 Cl 0.34603(10) -0.24421(9) 0.66420(7)
Cl9 Cl 0.01291(14) -0.22669(8) 0.71064(8)
Cl10 Cl -0.01816(13) -0.23725(8) 0.95222(8)
Be1 Be 0.2400(6) -0.4714(4) 0.9230(4)
Be2 Be -0.2822(8) -0.0322(5) 1.1640(5)
O1 O 0.0873(5) -0.4589(3) 0.8817(3)
C1 C 0.0325(8) -0.5315(5) 0.8699(5)
H1 H 0.05200 -0.55140 0.81940
H2 H -0.05310 -0.52790 0.87330
C2 C 0.0844(13) -0.5835(8) 0.9295(7)
H3 H 0.07080 -0.63750 0.92070
H4 H 0.05920 -0.56880 0.98070
O2 O 0.2150(7) -0.5660(5) 0.9235(6)
C3 C 0.3042(10) -0.6069(6) 0.9668(6)
H5 H 0.29390 -0.66140 0.95920
H6 H 0.30150 -0.59500 1.02160
C4 C 0.4218(10) -0.5752(7) 0.9324(7)
H7 H 0.42840 -0.59370 0.87980
H8 H 0.49160 -0.59060 0.96220
O3 O 0.4107(5) -0.5020(4) 0.9302(3)
C5 C 0.4733(11) -0.4663(6) 0.8676(6)
H9 H 0.47260 -0.49840 0.82190
H10 H 0.55480 -0.45660 0.88390
C6 C 0.4110(9) -0.3938(6) 0.8501(7)
H11 H 0.43570 -0.37000 0.80240
H12 H 0.42350 -0.35820 0.89250
O4 O 0.2861(7) -0.4177(4) 0.8463(4)
C7 C 0.1971(9) -0.3607(5) 0.8248(5)
H13 H 0.21700 -0.33670 0.77620
H14 H 0.18860 -0.32180 0.86420
C8 C 0.0852(12) -0.4096(6) 0.8159(7)
H15 H 0.01470 -0.37790 0.81600
H16 H 0.08560 -0.43880 0.76830
O5? O 0.0817(10) -0.5156(7) 0.9293(6)
C9? C 0.009(2) -0.4931(12) 0.8597(11)
H17? H -0.07370 -0.48870 0.87230
H18? H 0.01770 -0.53010 0.81840
C10? C 0.058(2) -0.4136(18) 0.8346(19)
H19? H 0.03120 -0.37440 0.86980
H20? H 0.03670 -0.39980 0.78170
O6? O 0.1882(16) -0.4271(7) 0.8446(8)
C11? C 0.266(2) -0.3638(13) 0.8252(13)
H21? H 0.26080 -0.32290 0.86280
H22? H 0.24090 -0.34410 0.77510
C12? C 0.377(3) -0.3892(16) 0.8223(18)
H23? H 0.43210 -0.34740 0.83070
H24? H 0.39260 -0.41310 0.77290
O7? O 0.3977(14) -0.4497(10) 0.8868(9)
C13? C 0.4584(19) -0.5183(11) 0.8777(13)
H25? H 0.54300 -0.50970 0.88390
H26? H 0.44170 -0.53610 0.82540
C14? C 0.407(2) -0.5944(14) 0.9442(14)
H27? H 0.43010 -0.58260 0.99720
H28? H 0.42500 -0.64690 0.93150
O8? O 0.2819(16) -0.5641(12) 0.9247(11)
C15? C 0.2152(18) -0.6115(11) 0.9756(11)
H29? H 0.21810 -0.59500 1.02920
H30? H 0.23170 -0.66570 0.97150
C16? C 0.095(3) -0.5953(14) 0.9449(16)
H31? H 0.08980 -0.61540 0.89260
H32? H 0.02740 -0.61380 0.97300
O9 O -0.4816(11) -0.0143(6) 1.1674(6)
C17 C -0.5362(10) -0.0621(7) 1.1116(6)
H33 H -0.54970 -0.03440 1.06360
H34 H -0.61160 -0.08140 1.12910
C18 C -0.4475(8) -0.1260(5) 1.0980(6)
H35 H -0.45750 -0.14950 1.04750
H36 H -0.45240 -0.16450 1.13820
O10 O -0.3380(8) -0.0848(5) 1.0855(5)
C19 C -0.2311(12) -0.1292(6) 1.0603(6)
H37 H -0.27200 -0.13420 1.01050
H38 H -0.21040 -0.17960 1.07930
C20 C -0.1484(9) -0.0673(6) 1.0439(5)
H39 H -0.16060 -0.02540 1.00800
H40 H -0.07960 -0.09680 1.02930
O11 O -0.1491(6) -0.0233(4) 1.1147(4)
C21 C -0.1073(10) 0.0549(6) 1.1104(7)
H41 H -0.12970 0.07170 1.05860
H42 H -0.02300 0.06330 1.11840
C22 C -0.1785(11) 0.0995(6) 1.1702(7)
H43 H -0.17650 0.15400 1.16080
H44 H -0.14900 0.08910 1.22230
O12 O -0.2984(9) 0.0667(6) 1.1568(6)
C23 C -0.3957(13) 0.1051(6) 1.1975(7)
H45 H -0.39550 0.15940 1.18690
H46 H -0.38920 0.09680 1.25290
C24 C -0.5043(10) 0.0658(6) 1.1635(7)
H47 H -0.57430 0.07890 1.19220
H48 H -0.51660 0.08110 1.10990
O13? O -0.3466(11) -0.0842(7) 1.1110(7)
C25? C -0.4820(17) -0.0921(11) 1.1104(10)
H49? H -0.48030 -0.11760 1.16020
H50? H -0.52890 -0.12260 1.07420
C26? C -0.525(2) -0.0117(12) 1.1257(13)
H51? H -0.61020 -0.01460 1.13300
H52? H -0.51020 0.01890 1.08020
O14? O -0.4714(15) 0.0167(10) 1.1924(9)
C27? C -0.4520(17) 0.0986(9) 1.1885(10)
H53? H -0.50280 0.12460 1.22450
H54? H -0.46720 0.11880 1.13690
C28? C -0.3240(14) 0.1093(7) 1.2111(8)
H55? H -0.31100 0.09460 1.26480
H56? H -0.29960 0.16200 1.20510
O15? O -0.2566(12) 0.0592(8) 1.1631(9)
C29? C -0.1326(15) 0.0797(9) 1.1467(10)
H57? H -0.08350 0.07600 1.19340
H58? H -0.12630 0.13070 1.12550
C30? C -0.0959(16) 0.0194(8) 1.0886(10)
H59? H -0.01220 0.00670 1.09020
H60? H -0.12300 0.03130 1.03630
O16? O -0.1363(10) -0.0510(6) 1.1254(6)
C31? C -0.1500(13) -0.1168(9) 1.0737(11)
H61? H -0.13100 -0.15250 1.11510
H62? H -0.09290 -0.12380 1.03320
C32? C -0.2836(12) -0.1200(9) 1.0473(8)
H63? H -0.27940 -0.11660 0.99140
H64? H -0.30080 -0.17290 1.05910
Sb2C Sb 0.17499(3) -0.24546(2) 1.073470(17)
Cl10C Cl -0.01816(13) -0.26275(8) 0.45222(8)
#END
