
#######################################################################
#
#                 Cambridge Crystallographic Data Centre
#                                CCDC
#
#######################################################################
#
# If this CIF has been generated from an entry in the Cambridge
# Structural Database, then it will include bibliographic, chemical,
# crystal, experimental, refinement or atomic coordinate data resulting
# from the CCDC's data processing and validation procedures.
#
#######################################################################

data_CSD_CIF_NEPGAT
_audit_creation_date 2017-12-05
_audit_creation_method CSD-ConQuest-V1
_database_code_CSD NEPGAT
_database_code_depnum_ccdc_archive 'CCDC 1577458'
_chemical_formula_sum 'C10 H25 Mg0.5 O16 U1'
_chemical_formula_moiety
;
(C10 H13 O10 U1 1-)n,0.5(H12 Mg1 O6 2+),3(H2 O1)
;
_journal_coden_Cambridge 580
_journal_volume 141
_journal_year 2018
_journal_page_first 147
_journal_name_full 'Polyhedron '
loop_
_publ_author_name
"S.A.Novikov"
"L.B.Serezhkina"
"M.S.Grigoriev"
"V.N.Serezhkin"
_chemical_name_systematic
;
catena-[hemikis(hexaaqua-magnesium) (\m-pentanedioato)-(hydrogen 
pentanedioato)-dioxo-uranium trihydrate]
;
_cell_volume    987.059
_exptl_crystal_density_diffrn 2.192
_diffrn_ambient_temperature 100
#These two values have been output from a single CSD field.
_refine_ls_R_factor_gt 0.0336
_refine_ls_wR_factor_gt 0.0336
_symmetry_cell_setting triclinic
_symmetry_space_group_name_H-M 'P -1'
_symmetry_Int_Tables_number 2
loop_
_symmetry_equiv_pos_site_id
_symmetry_equiv_pos_as_xyz
1 x,y,z
2 -x,-y,-z
_cell_length_a 8.6588(2)
_cell_length_b 9.9824(3)
_cell_length_c 11.9098(3)
_cell_angle_alpha 105.098(2)
_cell_angle_beta 95.861(2)
_cell_angle_gamma 91.646(2)
_cell_formula_units_Z 2
loop_
_atom_type_symbol
_atom_type_radius_bond
C 0.68
H 0.23
Mg 1.41
O 0.68
U 1.96
loop_
_atom_site_label
_atom_site_type_symbol
_atom_site_fract_x
_atom_site_fract_y
_atom_site_fract_z
U1 U 0.64482(2) 0.60728(2) 0.33715(2)
O1 O 0.4901(4) 0.6252(3) 0.4241(3)
O2 O 0.8003(4) 0.5904(4) 0.2498(3)
O3 O 0.8070(4) 0.5220(3) 0.4809(3)
O4 O 0.6641(4) 0.3659(3) 0.3453(3)
O5 O 0.7814(4) -0.2027(3) 0.4922(3)
O6 O 0.6475(4) -0.1419(3) 0.3499(3)
O7 O 0.4730(4) 0.4401(3) 0.1810(3)
O8 O 0.4676(4) 0.6563(3) 0.1781(3)
O9 O -0.0323(4) 0.8400(4) 0.0335(3)
O10 O 0.0161(4) 0.9305(4) 0.2254(3)
H1 H -0.029(6) 0.988(5) 0.197(5)
C1 C 0.7597(5) 0.3954(5) 0.4375(4)
C2 C 0.8183(5) 0.2860(5) 0.4927(4)
H2 H 0.79930 0.31200 0.57600
H3 H 0.93210 0.28320 0.49020
C3 C 0.7438(6) 0.1418(5) 0.4346(4)
H4 H 0.62980 0.14770 0.42090
H5 H 0.78250 0.10610 0.35760
C4 C 0.7785(7) 0.0411(5) 0.5080(4)
H6 H 0.89130 0.05000 0.53490
H7 H 0.72250 0.06760 0.57820
C5 C 0.7343(6) -0.1074(5) 0.4458(4)
C6 C 0.4073(5) 0.5331(5) 0.1429(4)
C7 C 0.2611(5) 0.4996(5) 0.0598(4)
H8 H 0.18840 0.44280 0.09010
H9 H 0.28660 0.44220 -0.01650
C8 C 0.1777(5) 0.6264(5) 0.0395(4)
H10 H 0.25130 0.68620 0.01310
H11 H 0.09080 0.59430 -0.02370
C9 C 0.1142(6) 0.7119(5) 0.1486(4)
H12 H 0.04450 0.65080 0.17710
H13 H 0.20180 0.74730 0.21060
C10 C 0.0268(6) 0.8316(5) 0.1286(4)
Mg1 Mg 0.50000 0.00000 0.00000
O11 O 0.6016(4) 0.1806(3) 0.1052(3)
H14 H 0.551(4) 0.249(4) 0.133(4)
H15 H 0.693(3) 0.197(5) 0.137(4)
O12 O 0.5572(4) -0.0997(4) 0.1287(3)
H16 H 0.586(6) -0.068(5) 0.2018(19)
H17 H 0.510(6) -0.177(3) 0.122(4)
O13 O 0.2910(4) 0.0497(4) 0.0670(3)
H18 H 0.213(4) 0.079(5) 0.034(3)
H19 H 0.302(6) 0.092(5) 0.1378(18)
O14 O 0.9293(6) 0.6034(4) 0.7149(3)
H20 H 0.902(7) 0.576(7) 0.643(2)
H21 H 1.007(6) 0.561(7) 0.731(5)
O15 O 0.3495(4) 0.1998(4) 0.2965(3)
O16 O 0.0889(4) 0.8412(4) -0.1741(3)
H22 H 0.036(6) 0.772(4) -0.218(3)
H23 H 0.065(6) 0.852(5) -0.106(2)
U1* U 0.64482(2) -0.39272(2) 0.33715(2)
O5* O 0.7814(4) 0.7973(3) 0.4922(3)
O6* O 0.6475(4) 0.8581(3) 0.3499(3)
O11A O 0.3984(4) -0.1806(3) -0.1052(3)
H14A H 0.449(4) -0.249(4) -0.133(4)
H15A H 0.307(3) -0.197(5) -0.137(4)
O12A O 0.4428(4) 0.0997(4) -0.1287(3)
H16A H 0.414(6) 0.068(5) -0.2018(19)
H17A H 0.490(6) 0.177(3) -0.122(4)
O13A O 0.7090(4) -0.0497(4) -0.0670(3)
H18A H 0.787(4) -0.079(5) -0.034(3)
H19A H 0.698(6) -0.092(5) -0.1378(18)
#END
