
#######################################################################
#
#                 Cambridge Crystallographic Data Centre
#                                CCDC
#
#######################################################################
#
# If this CIF has been generated from an entry in the Cambridge
# Structural Database, then it will include bibliographic, chemical,
# crystal, experimental, refinement or atomic coordinate data resulting
# from the CCDC's data processing and validation procedures.
#
#######################################################################

data_CSD_CIF_NEPJOK
_audit_creation_date 2017-12-05
_audit_creation_method CSD-ConQuest-V1
_database_code_CSD NEPJOK
_database_code_depnum_ccdc_archive 'CCDC 1509934'
_chemical_formula_sum 'C60 H48 Br12 Cu8 N12 Ru2'
_chemical_formula_moiety
;
2(C30 H24 N6 Ru1 2+),n(Br12 Cu8 4-)
;
_journal_coden_Cambridge 1220
_journal_volume 23
_journal_year 2017
_journal_page_first 14547
_journal_name_full 'Chem.-Eur.J. '
loop_
_publ_author_name
"Xiao-Wu Lei"
"Cheng-Yang Yue"
"Jun-Chao Wei"
"Rui-Qing Li"
"Fu-Qi Mi"
"Yan Li"
"Lu Gao"
"Quan-Xiu Liu"
_chemical_name_systematic
;
catena-[bis(tris(2,2'-bipyridine)-ruthenium(ii)) 
dodecakis(\m-bromo)-octa-copper(i)]
;
_cell_volume  10610.579
_exptl_crystal_colour 'red'
_exptl_crystal_density_diffrn 2.447
_exptl_crystal_description 'block'
_diffrn_ambient_temperature 293
#These two values have been output from a single CSD field.
_refine_ls_R_factor_gt 0.0297
_refine_ls_wR_factor_gt 0.0297
_symmetry_cell_setting rhombohedral
_symmetry_space_group_name_H-M 'R -3 c'
_symmetry_Int_Tables_number 167
loop_
_symmetry_equiv_pos_site_id
_symmetry_equiv_pos_as_xyz
1 x,y,z
2 -y,x-y,z
3 -x+y,-x,z
4 y,x,1/2-z
5 x-y,-y,1/2-z
6 -x,-x+y,1/2-z
7 2/3+x,1/3+y,1/3+z
8 2/3-y,1/3+x-y,1/3+z
9 2/3-x+y,1/3-x,1/3+z
10 2/3+y,1/3+x,5/6-z
11 2/3+x-y,1/3-y,5/6-z
12 2/3-x,1/3-x+y,5/6-z
13 1/3+x,2/3+y,2/3+z
14 1/3-y,2/3+x-y,2/3+z
15 1/3-x+y,2/3-x,2/3+z
16 1/3+y,2/3+x,1/6-z
17 1/3+x-y,2/3-y,1/6-z
18 1/3-x,2/3-x+y,1/6-z
19 -x,-y,-z
20 y,-x+y,-z
21 x-y,x,-z
22 -y,-x,-1/2+z
23 -x+y,y,-1/2+z
24 x,x-y,-1/2+z
25 -2/3-x,-1/3-y,-1/3-z
26 -2/3+y,-1/3-x+y,-1/3-z
27 -2/3+x-y,-1/3+x,-1/3-z
28 -2/3-y,-1/3-x,-5/6+z
29 -2/3-x+y,-1/3+y,-5/6+z
30 -2/3+x,-1/3+x-y,-5/6+z
31 -1/3-x,-2/3-y,-2/3-z
32 -1/3+y,-2/3-x+y,-2/3-z
33 -1/3+x-y,-2/3+x,-2/3-z
34 -1/3-y,-2/3-x,-1/6+z
35 -1/3-x+y,-2/3+y,-1/6+z
36 -1/3+x,-2/3+x-y,-1/6+z
_cell_length_a 14.1357(6)
_cell_length_b 14.1357(6)
_cell_length_c 61.316(5)
_cell_angle_alpha 90
_cell_angle_beta 90
_cell_angle_gamma 120
_cell_formula_units_Z 6
loop_
_atom_type_symbol
_atom_type_radius_bond
C 0.68
H 0.23
Br 1.21
Cu 1.32
N 0.68
Ru 1.46
loop_
_atom_site_label
_atom_site_type_symbol
_atom_site_fract_x
_atom_site_fract_y
_atom_site_fract_z
Ru1 Ru 1.33330 -0.33330 0.229962(13)
N1 N 1.2697(3) -0.2514(5) 0.24638(8)
N2 N 1.1906(4) -0.3840(4) 0.21305(7)
C1 C 1.3153(5) -0.1848(7) 0.26362(9)
H1 H 1.37720 -0.18020 0.27000
C2 C 1.0511(6) -0.4925(5) 0.18739(11)
H2 H 1.02520 -0.54610 0.17660
C3 C 1.1776(4) -0.2588(4) 0.23749(9)
C4 C 1.0309(5) -0.3668(5) 0.20964(10)
H3 H 0.99110 -0.33370 0.21390
C5 C 1.1504(5) -0.4594(5) 0.19735(10)
H4 H 1.19110 -0.49110 0.19290
C6 C 1.1304(4) -0.3376(4) 0.21944(9)
C7 C 1.1367(5) -0.1951(5) 0.24518(10)
H5 H 1.07640 -0.19800 0.23850
C8 C 1.2730(5) -0.1235(7) 0.27215(10)
H6 H 1.30510 -0.07970 0.28430
C9 C 1.1843(6) -0.1274(8) 0.26268(11)
H7 H 1.15630 -0.08470 0.26800
C10 C 0.9919(5) -0.4454(6) 0.19355(11)
H8 H 0.92510 -0.46610 0.18690
Br1 Br 0.86298(5) -0.56058(5) 0.137238(10)
Br2 Br 0.66670 -0.66670 0.08330
Br3 Br 0.66670 -0.66670 0.189292(18)
Cu1 Cu 0.66670 -0.66670 0.12293(3)
Cu2 Cu 0.72884(8) -0.52328(9) 0.15851(2)
Br4 Br 0.83330 -0.33330 0.16670
N1A N 1.2514(3) -0.4789(5) 0.24638(8)
N2A N 1.3840(4) -0.4254(4) 0.21305(7)
C1A C 1.1848(5) -0.4999(7) 0.26362(9)
H1A H 1.18020 -0.44260 0.27000
C2A C 1.4925(6) -0.4564(5) 0.18739(11)
H2A H 1.54610 -0.42870 0.17660
C3A C 1.2588(4) -0.5636(4) 0.23749(9)
C4A C 1.3668(5) -0.6023(5) 0.20964(10)
H3A H 1.33370 -0.67520 0.21390
C5A C 1.4594(5) -0.3902(5) 0.19735(10)
H4A H 1.49110 -0.31780 0.19290
C6A C 1.3376(4) -0.5320(4) 0.21944(9)
C7A C 1.1951(5) -0.6682(5) 0.24518(10)
H5A H 1.19800 -0.72560 0.23850
C8A C 1.1235(5) -0.6035(7) 0.27215(10)
H6A H 1.07970 -0.61520 0.28430
C9A C 1.1274(6) -0.6883(8) 0.26268(11)
H7A H 1.08470 -0.75900 0.26800
C10A C 1.4454(5) -0.5627(6) 0.19355(11)
H8A H 1.46610 -0.60880 0.18690
N1B N 1.4789(3) -0.2697(5) 0.24638(8)
N2B N 1.4254(4) -0.1906(4) 0.21305(7)
C1B C 1.4999(5) -0.3153(7) 0.26362(9)
H1B H 1.44260 -0.37720 0.27000
C2B C 1.4564(6) -0.0511(5) 0.18739(11)
H2B H 1.42870 -0.02520 0.17660
C3B C 1.5636(4) -0.1776(4) 0.23749(9)
C4B C 1.6023(5) -0.0309(5) 0.20964(10)
H3B H 1.67520 0.00890 0.21390
C5B C 1.3902(5) -0.1504(5) 0.19735(10)
H4B H 1.31780 -0.19110 0.19290
C6B C 1.5320(4) -0.1304(4) 0.21944(9)
C7B C 1.6682(5) -0.1367(5) 0.24518(10)
H5B H 1.72560 -0.07640 0.23850
C8B C 1.6035(5) -0.2730(7) 0.27215(10)
H6B H 1.61520 -0.30510 0.28430
C9B C 1.6883(6) -0.1843(8) 0.26268(11)
H7B H 1.75900 -0.15630 0.26800
C10B C 1.5627(5) 0.0081(6) 0.19355(11)
H8B H 1.60880 0.07490 0.18690
Br1A Br 0.56058(5) -0.57644(5) 0.137238(10)
Cu2A Cu 0.52328(8) -0.74788(9) 0.15851(2)
Br4A Br 0.33330 -0.83340 0.16670
Br1B Br 0.57644(5) -0.86298(5) 0.137238(10)
Cu2B Cu 0.74788(8) -0.72884(9) 0.15851(2)
Br4B Br 0.83340 -0.83330 0.16670
Br1O Br 0.772753(50) -0.470353(50) 0.029429(10)
Br3O Br 0.66663 -0.66663 -0.022625(18)
Cu1O Cu 0.66663 -0.66663 0.043737(30)
Cu2O Cu 0.810053(80) -0.604493(90) 0.008157(20)
Br1P Br 0.756893(50) -0.772753(50) 0.029429(10)
Cu2P Cu 0.585453(80) -0.810053(90) 0.008157(20)
Br1Q Br 0.470353(50) -0.756893(50) 0.029429(10)
Cu2Q Cu 0.604493(80) -0.585453(90) 0.008157(20)
Cu2DA Cu 0.937827(80) -0.143387(90) 0.174823(20)
Cu2EA Cu 0.143387(80) -0.918787(90) 0.174823(20)
Cu2FA Cu 0.918787(80) -0.937827(90) 0.174823(20)
Br4O Br 1.00003 -0.50003 -0.00003
Br4P Br 0.49993 -1.00003 -0.00003
Br4Q Br 0.50003 -0.49993 -0.00003
#END
