
#######################################################################
#
#                 Cambridge Crystallographic Data Centre
#                                CCDC
#
#######################################################################
#
# If this CIF has been generated from an entry in the Cambridge
# Structural Database, then it will include bibliographic, chemical,
# crystal, experimental, refinement or atomic coordinate data resulting
# from the CCDC's data processing and validation procedures.
#
#######################################################################

data_CSD_CIF_NEPKAX
_audit_creation_date 2017-12-05
_audit_creation_method CSD-ConQuest-V1
_database_code_CSD NEPKAX
_database_code_depnum_ccdc_archive 'CCDC 1509936'
_chemical_formula_sum 'C60 H48 Br12 Co2 Cu8 N12'
_chemical_formula_moiety
;
2(C30 H24 Co1 N6 2+),n(Br12 Cu8 4-)
;
_journal_coden_Cambridge 1220
_journal_volume 23
_journal_year 2017
_journal_page_first 14547
_journal_name_full 'Chem.-Eur.J. '
loop_
_publ_author_name
"Xiao-Wu Lei"
"Cheng-Yang Yue"
"Jun-Chao Wei"
"Rui-Qing Li"
"Fu-Qi Mi"
"Yan Li"
"Lu Gao"
"Quan-Xiu Liu"
_chemical_name_systematic
;
catena-[bis(tris(2,2'-bipyridine)-cobalt(ii)) 
dodecakis(\m-bromo)-octa-copper(i)]
;
_cell_volume  10757.182
_exptl_crystal_colour 'orange'
_exptl_crystal_density_diffrn 2.336
_exptl_crystal_description 'block'
_diffrn_ambient_temperature 296
#These two values have been output from a single CSD field.
_refine_ls_R_factor_gt 0.0421
_refine_ls_wR_factor_gt 0.0421
_symmetry_cell_setting rhombohedral
_symmetry_space_group_name_H-M 'R -3 c'
_symmetry_Int_Tables_number 167
loop_
_symmetry_equiv_pos_site_id
_symmetry_equiv_pos_as_xyz
1 x,y,z
2 -y,x-y,z
3 -x+y,-x,z
4 y,x,1/2-z
5 x-y,-y,1/2-z
6 -x,-x+y,1/2-z
7 2/3+x,1/3+y,1/3+z
8 2/3-y,1/3+x-y,1/3+z
9 2/3-x+y,1/3-x,1/3+z
10 2/3+y,1/3+x,5/6-z
11 2/3+x-y,1/3-y,5/6-z
12 2/3-x,1/3-x+y,5/6-z
13 1/3+x,2/3+y,2/3+z
14 1/3-y,2/3+x-y,2/3+z
15 1/3-x+y,2/3-x,2/3+z
16 1/3+y,2/3+x,1/6-z
17 1/3+x-y,2/3-y,1/6-z
18 1/3-x,2/3-x+y,1/6-z
19 -x,-y,-z
20 y,-x+y,-z
21 x-y,x,-z
22 -y,-x,-1/2+z
23 -x+y,y,-1/2+z
24 x,x-y,-1/2+z
25 -2/3-x,-1/3-y,-1/3-z
26 -2/3+y,-1/3-x+y,-1/3-z
27 -2/3+x-y,-1/3+x,-1/3-z
28 -2/3-y,-1/3-x,-5/6+z
29 -2/3-x+y,-1/3+y,-5/6+z
30 -2/3+x,-1/3+x-y,-5/6+z
31 -1/3-x,-2/3-y,-2/3-z
32 -1/3+y,-2/3-x+y,-2/3-z
33 -1/3+x-y,-2/3+x,-2/3-z
34 -1/3-y,-2/3-x,-1/6+z
35 -1/3-x+y,-2/3+y,-1/6+z
36 -1/3+x,-2/3+x-y,-1/6+z
_cell_length_a 14.2034(13)
_cell_length_b 14.2034(13)
_cell_length_c 61.572(6)
_cell_angle_alpha 90
_cell_angle_beta 90
_cell_angle_gamma 120
_cell_formula_units_Z 6
loop_
_atom_type_symbol
_atom_type_radius_bond
C 0.68
H 0.23
Br 1.21
Co 1.26
Cu 1.32
N 0.68
loop_
_atom_site_label
_atom_site_type_symbol
_atom_site_fract_x
_atom_site_fract_y
_atom_site_fract_z
Br1 Br 0.33330 0.66670 0.022142(15)
Br2 Br 0.33330 0.66670 -0.08330
Br3 Br 0.52850(5) 0.77171(4) -0.029343(9)
Cu1 Cu 0.33330 0.66670 -0.04372(2)
Br4 Br 0.50000 1.00000 0.00000
Cu2 Cu 0.39653(7) 0.81076(8) -0.008231(17)
Co1 Co 1.00000 1.00000 -0.064096(19)
N1 N 0.8517(4) 0.9315(3) -0.08079(7)
N2 N 0.9047(4) 0.8547(6) -0.04651(7)
C1 C 0.8288(5) 0.9756(5) -0.09782(9)
H1 H 0.88560 1.03610 -0.10450
C2 C 0.6632(4) 0.8017(5) -0.07804(9)
H2 H 0.60680 0.74300 -0.07080
C3 C 0.7689(4) 0.8428(4) -0.07115(8)
C4 C 0.6411(5) 0.8479(5) -0.0957(1)
H3 H 0.57020 0.82000 -0.10060
C5 C 0.9404(5) 0.8156(7) -0.03074(10)
H4 H 1.01200 0.85720 -0.02610
C6 C 0.7256(5) 0.9355(5) -0.10585(9)
H5 H 0.71310 0.96710 -0.11790
C7 C 0.8010(4) 0.7955(6) -0.05308(8)
C8 C 0.7306(5) 0.6953(7) -0.04362(11)
H6 H 0.65880 0.65530 -0.04820
C9 C 0.8750(6) 0.7156(8) -0.02111(12)
H7 H 0.90280 0.68920 -0.01060
C10 C 0.7684(6) 0.6562(8) -0.02741(11)
H8 H 0.72200 0.59010 -0.02080
Br3A Br 0.22829(5) 0.75679(4) -0.029343(9)
Br4A Br 0.00000 0.50000 0.00000
Cu2A Cu 0.18924(7) 0.58577(8) -0.008231(17)
Br3B Br 0.24321(5) 0.47150(4) -0.029343(9)
Br4B Br 0.50000 0.50000 0.00000
Cu2B Cu 0.41423(7) 0.60347(8) -0.008231(17)
Br1I Br 0.33337 0.66663 -0.188809(15)
Br3I Br 0.438377(50) 0.861833(40) -0.137324(9)
Cu1I Cu 0.33337 0.66663 -0.122947(20)
Cu2I Cu 0.477427(70) 0.729863(80) -0.158436(17)
Br3J Br 0.423457(50) 0.561623(40) -0.137324(9)
Cu2J Cu 0.252437(70) 0.522573(80) -0.158436(17)
Br3K Br 0.138167(50) 0.576543(40) -0.137324(9)
Cu2K Cu 0.270137(70) 0.747563(80) -0.158436(17)
Br4I Br 0.66667 0.83333 -0.16667
Br4J Br 0.16667 0.33333 -0.16667
Br4K Br 0.16667 0.83333 -0.16667
Cu2R Cu 0.60347(7) 1.18924(8) 0.008231(17)
Cu2S Cu -0.18924(7) 0.41423(8) 0.008231(17)
Cu2T Cu 0.58577(7) 0.39653(8) 0.008231(17)
N1A N 1.0685(4) 0.9202(3) -0.08079(7)
N2A N 1.1453(4) 1.0500(6) -0.04651(7)
C1A C 1.0244(5) 0.8532(5) -0.09782(9)
H1A H 0.96390 0.84950 -0.10450
C2A C 1.1983(4) 0.8615(5) -0.07804(9)
H2A H 1.25700 0.86380 -0.07080
C3A C 1.1572(4) 0.9261(4) -0.07115(8)
C4A C 1.1521(5) 0.7932(5) -0.0957(1)
H3A H 1.18000 0.75020 -0.10060
C5A C 1.1844(5) 1.1248(7) -0.03074(10)
H4A H 1.14280 1.15480 -0.02610
C6A C 1.0645(5) 0.7901(5) -0.10585(9)
H5A H 1.03290 0.74600 -0.11790
C7A C 1.2045(4) 1.0055(6) -0.05308(8)
C8A C 1.3047(5) 1.0353(7) -0.04362(11)
H6A H 1.34470 1.00350 -0.04820
C9A C 1.2844(6) 1.1594(8) -0.02111(12)
H7A H 1.31080 1.21360 -0.01060
C10A C 1.3438(6) 1.1122(8) -0.02741(11)
H8A H 1.40990 1.13190 -0.02080
N1B N 1.0798(4) 1.1483(3) -0.08079(7)
N2B N 0.9500(4) 1.0953(6) -0.04651(7)
C1B C 1.1468(5) 1.1712(5) -0.09782(9)
H1B H 1.15050 1.11440 -0.10450
C2B C 1.1385(4) 1.3368(5) -0.07804(9)
H2B H 1.13620 1.39320 -0.07080
C3B C 1.0739(4) 1.2311(4) -0.07115(8)
C4B C 1.2068(5) 1.3589(5) -0.0957(1)
H3B H 1.24980 1.42980 -0.10060
C5B C 0.8752(5) 1.0596(7) -0.03074(10)
H4B H 0.84520 0.98800 -0.02610
C6B C 1.2099(5) 1.2744(5) -0.10585(9)
H5B H 1.25400 1.28690 -0.11790
C7B C 0.9945(4) 1.1990(6) -0.05308(8)
C8B C 0.9647(5) 1.2694(7) -0.04362(11)
H6B H 0.99650 1.34120 -0.04820
C9B C 0.8406(6) 1.1250(8) -0.02111(12)
H7B H 0.78640 1.09720 -0.01060
C10B C 0.8878(6) 1.2316(8) -0.02741(11)
H8B H 0.86810 1.27800 -0.02080
#END
