
#######################################################################
#
#                 Cambridge Crystallographic Data Centre
#                                CCDC
#
#######################################################################
#
# If this CIF has been generated from an entry in the Cambridge
# Structural Database, then it will include bibliographic, chemical,
# crystal, experimental, refinement or atomic coordinate data resulting
# from the CCDC's data processing and validation procedures.
#
#######################################################################

data_CSD_CIF_NEPKEB
_audit_creation_date 2017-12-05
_audit_creation_method CSD-ConQuest-V1
_database_code_CSD NEPKEB
_database_code_depnum_ccdc_archive 'CCDC 1509937'
_chemical_formula_sum 'C60 H48 Br12 Cu8 N12 Ni2'
_chemical_formula_moiety
;
2(C30 H24 N6 Ni1 2+),n(Br12 Cu8 4-)
;
_journal_coden_Cambridge 1220
_journal_volume 23
_journal_year 2017
_journal_page_first 14547
_journal_name_full 'Chem.-Eur.J. '
loop_
_publ_author_name
"Xiao-Wu Lei"
"Cheng-Yang Yue"
"Jun-Chao Wei"
"Rui-Qing Li"
"Fu-Qi Mi"
"Yan Li"
"Lu Gao"
"Quan-Xiu Liu"
_chemical_name_systematic
;
catena-[bis(tris(2,2'-bipyridine)-nickel(ii)) 
dodecakis(\m-bromo)-octa-copper(i)]
;
_cell_volume  10707.312
_exptl_crystal_colour 'orange'
_exptl_crystal_density_diffrn 2.347
_exptl_crystal_description 'prism'
_diffrn_ambient_temperature 293
#These two values have been output from a single CSD field.
_refine_ls_R_factor_gt 0.0469
_refine_ls_wR_factor_gt 0.0469
_symmetry_cell_setting rhombohedral
_symmetry_space_group_name_H-M 'R -3 c'
_symmetry_Int_Tables_number 167
loop_
_symmetry_equiv_pos_site_id
_symmetry_equiv_pos_as_xyz
1 x,y,z
2 -y,x-y,z
3 -x+y,-x,z
4 y,x,1/2-z
5 x-y,-y,1/2-z
6 -x,-x+y,1/2-z
7 2/3+x,1/3+y,1/3+z
8 2/3-y,1/3+x-y,1/3+z
9 2/3-x+y,1/3-x,1/3+z
10 2/3+y,1/3+x,5/6-z
11 2/3+x-y,1/3-y,5/6-z
12 2/3-x,1/3-x+y,5/6-z
13 1/3+x,2/3+y,2/3+z
14 1/3-y,2/3+x-y,2/3+z
15 1/3-x+y,2/3-x,2/3+z
16 1/3+y,2/3+x,1/6-z
17 1/3+x-y,2/3-y,1/6-z
18 1/3-x,2/3-x+y,1/6-z
19 -x,-y,-z
20 y,-x+y,-z
21 x-y,x,-z
22 -y,-x,-1/2+z
23 -x+y,y,-1/2+z
24 x,x-y,-1/2+z
25 -2/3-x,-1/3-y,-1/3-z
26 -2/3+y,-1/3-x+y,-1/3-z
27 -2/3+x-y,-1/3+x,-1/3-z
28 -2/3-y,-1/3-x,-5/6+z
29 -2/3-x+y,-1/3+y,-5/6+z
30 -2/3+x,-1/3+x-y,-5/6+z
31 -1/3-x,-2/3-y,-2/3-z
32 -1/3+y,-2/3-x+y,-2/3-z
33 -1/3+x-y,-2/3+x,-2/3-z
34 -1/3-y,-2/3-x,-1/6+z
35 -1/3-x+y,-2/3+y,-1/6+z
36 -1/3+x,-2/3+x-y,-1/6+z
_cell_length_a 14.1500(3)
_cell_length_b 14.1500(3)
_cell_length_c 61.750(3)
_cell_angle_alpha 90
_cell_angle_beta 90
_cell_angle_gamma 120
_cell_formula_units_Z 6
loop_
_atom_type_symbol
_atom_type_radius_bond
C 0.68
H 0.23
Br 1.21
Cu 1.32
N 0.68
Ni 1.24
loop_
_atom_site_label
_atom_site_type_symbol
_atom_site_fract_x
_atom_site_fract_y
_atom_site_fract_z
Br1 Br -0.47049(5) -0.24377(4) -0.029576(9)
Br2 Br -0.66670 -0.33330 -0.08330
Br3 Br -0.66670 -0.33330 0.022106(15)
Cu1 Cu -0.66670 -0.33330 -0.04380(2)
Cu2 Cu -0.60520(7) -0.41552(7) -0.008307(18)
Br4 Br -0.50000 -0.50000 0.00000
Ni1 Ni 0.00000 0.00000 0.063688(17)
N1 N -0.0791(3) 0.0663(3) 0.08037(7)
N2 N 0.0491(3) 0.1420(3) 0.04614(7)
C1 C -0.1455(4) 0.0224(4) 0.09776(8)
H1 H -0.14880 -0.03810 0.10440
C2 C 0.1231(5) 0.1819(5) 0.03003(9)
H2 H 0.15240 0.13990 0.02510
C3 C -0.1389(4) 0.1968(4) 0.07842(8)
H3 H -0.13760 0.25550 0.07130
C4 C -0.2052(4) 0.1510(5) 0.09595(9)
H4 H -0.24800 0.17910 0.10100
C5 C -0.0736(4) 0.1562(4) 0.07115(7)
C6 C 0.0053(4) 0.2030(4) 0.05299(7)
C7 C -0.2080(5) 0.0634(5) 0.10593(8)
H5 H -0.25160 0.03210 0.11810
C8 C 0.1569(5) 0.2812(6) 0.02071(10)
H6 H 0.21030 0.30710 0.01000
C9 C 0.0349(5) 0.3030(4) 0.04374(9)
H7 H 0.00380 0.34370 0.04850
C10 C 0.1118(5) 0.3419(5) 0.02717(9)
H8 H 0.13210 0.40860 0.02060
Br1A Br -0.75623(5) -0.22672(4) -0.029576(9)
Cu2A Cu -0.58448(7) -0.18968(7) -0.008307(18)
Br4A Br -0.50000 0.00000 0.00000
Br1B Br -0.77328(5) -0.52951(4) -0.029576(9)
Cu2B Cu -0.81032(7) -0.39480(7) -0.008307(18)
Br4B Br -1.00000 -0.50000 0.00000
Br1I Br -0.577103(50) -0.137157(40) -0.137091(9)
Br3I Br -0.66663 -0.33337 -0.188773(15)
Cu1I Cu -0.66663 -0.33337 -0.122867(20)
Cu2I Cu -0.748853(70) -0.271867(70) -0.158360(18)
Br1J Br -0.560053(50) -0.422897(40) -0.137091(9)
Cu2J Cu -0.523013(70) -0.251147(70) -0.158360(18)
Br1K Br -0.862843(50) -0.439947(40) -0.137091(9)
Cu2K Cu -0.728133(70) -0.476987(70) -0.158360(18)
Cu2R Cu -0.39480(7) -0.58448(7) 0.008307(18)
Cu2S Cu -0.41552(7) 0.18968(7) 0.008307(18)
Cu2T Cu -1.18968(7) -0.60520(7) 0.008307(18)
Br4I Br -0.83333 -0.16667 -0.16667
Br4J Br -0.33333 -0.16667 -0.16667
Br4K Br -0.83333 -0.66667 -0.16667
N1A N -0.0663(3) -0.1454(3) 0.08037(7)
N2A N -0.1420(3) -0.0929(3) 0.04614(7)
C1A C -0.0224(4) -0.1679(4) 0.09776(8)
H1A H 0.03810 -0.11070 0.10440
C2A C -0.1819(5) -0.0588(5) 0.03003(9)
H2A H -0.13990 0.01250 0.02510
C3A C -0.1968(4) -0.3357(4) 0.07842(8)
H3A H -0.25550 -0.39310 0.07130
C4A C -0.1510(4) -0.3562(5) 0.09595(9)
H4A H -0.17910 -0.42710 0.10100
C5A C -0.1562(4) -0.2298(4) 0.07115(7)
C6A C -0.2030(4) -0.1977(4) 0.05299(7)
C7A C -0.0634(5) -0.2714(5) 0.10593(8)
H5A H -0.03210 -0.28370 0.11810
C8A C -0.2812(5) -0.1243(6) 0.02071(10)
H6A H -0.30710 -0.09680 0.01000
C9A C -0.3030(5) -0.2681(4) 0.04374(9)
H7A H -0.34370 -0.33990 0.04850
C10A C -0.3419(5) -0.2301(5) 0.02717(9)
H8A H -0.40860 -0.27650 0.02060
N1B N 0.1454(3) 0.0791(3) 0.08037(7)
N2B N 0.0929(3) -0.0491(3) 0.04614(7)
C1B C 0.1679(4) 0.1455(4) 0.09776(8)
H1B H 0.11070 0.14880 0.10440
C2B C 0.0588(5) -0.1231(5) 0.03003(9)
H2B H -0.01250 -0.15240 0.02510
C3B C 0.3357(4) 0.1389(4) 0.07842(8)
H3B H 0.39310 0.13760 0.07130
C4B C 0.3562(4) 0.2052(5) 0.09595(9)
H4B H 0.42710 0.24800 0.10100
C5B C 0.2298(4) 0.0736(4) 0.07115(7)
C6B C 0.1977(4) -0.0053(4) 0.05299(7)
C7B C 0.2714(5) 0.2080(5) 0.10593(8)
H5B H 0.28370 0.25160 0.11810
C8B C 0.1243(5) -0.1569(6) 0.02071(10)
H6B H 0.09680 -0.21030 0.01000
C9B C 0.2681(5) -0.0349(4) 0.04374(9)
H7B H 0.33990 -0.00380 0.04850
C10B C 0.2301(5) -0.1118(5) 0.02717(9)
H8B H 0.27650 -0.13210 0.02060
#END
