
#######################################################################
#
#                 Cambridge Crystallographic Data Centre
#                                CCDC
#
#######################################################################
#
# If this CIF has been generated from an entry in the Cambridge
# Structural Database, then it will include bibliographic, chemical,
# crystal, experimental, refinement or atomic coordinate data resulting
# from the CCDC's data processing and validation procedures.
#
#######################################################################

data_CSD_CIF_NEQDES
_audit_creation_date 2001-11-12
_audit_creation_method CSD-ConQuest-V1
_database_code_CSD NEQDES
_database_code_depnum_ccdc_archive 'CCDC 172299'
_chemical_formula_sum 'C8 H28 N2 O16 P4 Zn2'
_chemical_formula_moiety
;
(C4 H14 N2 2+)n,n(C4 H10 O14 P4 Zn2 2-),2n(H2 O1)
;
_journal_coden_Cambridge 9
_journal_volume 40
_journal_year 2001
_journal_page_first 5024
_journal_name_full 'Inorg.Chem. '
loop_
_publ_author_name
"Hui-Hua Song"
"Li-Min Zheng"
"Zheming Wang"
"Chun-Hua Yan"
"Xin-Quan Xin"
_chemical_name_systematic
;
catena-(1,4-Butanediammonium 
bis(\m~3~-1-hydroxyethylidenediphosphato)-di-zinc dihydrate)
;
_cell_volume   1071.069
_exptl_crystal_colour 'colorless'
_exptl_crystal_density_diffrn 2.056
_exptl_special_details
;
isostructural with the 1,5-pentylenediammonium analogue and the iron analogue

;
_exptl_crystal_description 'column'
_diffrn_ambient_temperature 293
#These two values have been output from a single CSD field.
_refine_ls_R_factor_gt 0.0296
_refine_ls_wR_factor_gt 0.0296
_symmetry_cell_setting monoclinic
_symmetry_space_group_name_H-M 'P 21/n'
_symmetry_Int_Tables_number 14
loop_
_symmetry_equiv_pos_site_id
_symmetry_equiv_pos_as_xyz
1 x,y,z
2 1/2+x,1/2-y,1/2+z
3 -x,-y,-z
4 -1/2-x,-1/2+y,-1/2-z
_cell_length_a 5.4970(3)
_cell_length_b 12.1041(6)
_cell_length_c 16.2814(12)
_cell_angle_alpha 90
_cell_angle_beta 98.619(5)
_cell_angle_gamma 90
_cell_formula_units_Z 2
loop_
_atom_type_symbol
_atom_type_radius_bond
C 0.68
H 0.23
N 0.68
O 0.68
P 1.05
Zn 1.45
loop_
_atom_site_label
_atom_site_type_symbol
_atom_site_fract_x
_atom_site_fract_y
_atom_site_fract_z
Zn1 Zn -0.70848(6) 0.56206(3) 0.421620(18)
P1 P -0.20717(12) 0.42101(5) 0.38210(4)
P2 P -0.25883(12) 0.66553(5) 0.35514(4)
O1 O -0.3490(4) 0.43739(16) 0.45382(12)
O2 O 0.2696(5) 0.3572(2) 0.1932(2)
H1 H 0.141(9) 0.320(4) 0.195(3)
H2 H 0.388(8) 0.302(4) 0.187(3)
O3 O 0.0685(4) 0.43041(15) 0.40059(13)
O4 O -0.2806(4) 0.30651(16) 0.34369(12)
H3 H -0.210(12) 0.287(6) 0.295(5)
O5 O -0.4297(3) 0.67465(15) 0.42013(11)
O6 O 0.0129(4) 0.67444(16) 0.38670(13)
O7 O -0.3412(4) 0.75222(17) 0.28786(13)
O8 O -0.5908(4) 0.52311(17) 0.29642(13)
H4 H -0.628(7) 0.469(3) 0.270(2)
N1 N 0.3305(6) 0.2300(2) 0.42610(17)
H5 H 0.433(9) 0.241(4) 0.390(3)
H6 H 0.220(8) 0.269(4) 0.406(3)
H7 H 0.354(9) 0.268(4) 0.482(3)
C1 C -0.3241(5) 0.5291(2) 0.30734(16)
C2 C -0.2267(6) 0.5227(3) 0.22466(17)
H8 H -0.041(7) 0.530(3) 0.236(2)
H9 H -0.304(7) 0.581(3) 0.182(2)
H10 H -0.275(8) 0.456(3) 0.200(3)
C3 C 0.2914(6) 0.1106(3) 0.4406(2)
H11 H 0.159(8) 0.102(4) 0.467(3)
H12 H 0.264(9) 0.068(4) 0.390(3)
C4 C 0.5206(7) 0.0605(2) 0.4886(2)
H13 H 0.573(8) 0.106(3) 0.537(3)
H14 H 0.677(8) 0.061(3) 0.456(3)
Zn1* Zn 0.29152(6) 0.56206(3) 0.421620(18)
Zn1B Zn -0.29152(6) 0.43794(3) 0.578380(18)
O1B O -0.6510(4) 0.56261(16) 0.54618(12)
O3* O -0.9315(4) 0.43041(15) 0.40059(13)
O6* O -0.9871(4) 0.67444(16) 0.38670(13)
O3B O -0.0685(4) 0.56959(15) 0.59941(13)
O5B O -0.5703(3) 0.32535(15) 0.57987(11)
P2B P -0.74117(12) 0.33447(5) 0.64486(4)
O6B O -1.0129(4) 0.32556(16) 0.61330(13)
Zn1B* Zn -1.29152(6) 0.43794(3) 0.578380(18)
O3B* O -1.0685(4) 0.56959(15) 0.59941(13)
O7B O -0.6588(4) 0.24778(17) 0.71214(13)
C1B C -0.6759(5) 0.4709(2) 0.69266(16)
O6B* O -0.0129(4) 0.32556(16) 0.61330(13)
O8B O -0.4092(4) 0.47689(17) 0.70358(13)
C4B C 0.4794(7) -0.0605(2) 0.5114(2)
C3B C 0.7086(6) -0.1106(3) 0.5594(2)
N1B N 0.6695(6) -0.2300(2) 0.57390(17)
H5B H 0.567(9) -0.241(4) 0.610(3)
H6B H 0.780(8) -0.269(4) 0.594(3)
H7B H 0.646(9) -0.268(4) 0.518(3)
H11B H 0.841(8) -0.102(4) 0.533(3)
H12B H 0.736(9) -0.068(4) 0.610(3)
H13B H 0.427(8) -0.106(3) 0.463(3)
H14B H 0.323(8) -0.061(3) 0.544(3)
H4B H -0.372(7) 0.531(3) 0.730(2)
P1B P -0.79283(12) 0.57899(5) 0.61790(4)
C2B C -0.7733(6) 0.4773(3) 0.77534(17)
H8B H -0.959(7) 0.470(3) 0.764(2)
H9B H -0.696(7) 0.419(3) 0.818(2)
H10B H -0.725(8) 0.544(3) 0.800(3)
O4B O -0.7194(4) 0.69349(16) 0.65631(12)
H3B H -0.790(12) 0.713(6) 0.705(5)
#END
