
#######################################################################
#
#                 Cambridge Crystallographic Data Centre
#                                CCDC
#
#######################################################################
#
# If this CIF has been generated from an entry in the Cambridge
# Structural Database, then it will include bibliographic, chemical,
# crystal, experimental, refinement or atomic coordinate data resulting
# from the CCDC's data processing and validation procedures.
#
#######################################################################

data_CSD_CIF_NEQDOC
_audit_creation_date 2001-11-12
_audit_creation_method CSD-ConQuest-V1
_database_code_CSD NEQDOC
_database_code_depnum_ccdc_archive 'CCDC 172301'
_chemical_formula_sum 'C20 H64 N4 O32 P8 Zn4'
_chemical_formula_moiety
;
(C6 H18 N2 2+)2n,n(C4 H10 O14 P4 Zn2 2-),n(C4 H10 O14 P4 Zn2 2-),4n(H2 O1)
;
_journal_coden_Cambridge 9
_journal_volume 40
_journal_year 2001
_journal_page_first 5024
_journal_name_full 'Inorg.Chem. '
loop_
_publ_author_name
"Hui-Hua Song"
"Li-Min Zheng"
"Zheming Wang"
"Chun-Hua Yan"
"Xin-Quan Xin"
_chemical_name_systematic
;
catena-(bis(1,6-Hexanediammonium) 
bis(bis(\m~3~-1-hydroxyethylidenediphosphato)-di-zinc) tetrahydrate)
;
_cell_volume   1217.112
_exptl_crystal_colour 'colorless'
_exptl_crystal_density_diffrn 1.885
_exptl_crystal_description 'column'
_diffrn_ambient_temperature 293
_refine_special_details
;
The structure is disordered.

;
#These two values have been output from a single CSD field.
_refine_ls_R_factor_gt 0.0375
_refine_ls_wR_factor_gt 0.0375
_symmetry_cell_setting triclinic
_symmetry_space_group_name_H-M 'P -1'
_symmetry_Int_Tables_number 2
loop_
_symmetry_equiv_pos_site_id
_symmetry_equiv_pos_as_xyz
1 x,y,z
2 -x,-y,-z
_cell_length_a 5.4785(2)
_cell_length_b 14.1940(5)
_cell_length_c 16.0682(6)
_cell_angle_alpha 81.9822(19)
_cell_angle_beta 89.4348(17)
_cell_angle_gamma 79.679(2)
_cell_formula_units_Z 1
loop_
_atom_type_symbol
_atom_type_radius_bond
C 0.68
H 0.23
N 0.68
O 0.68
P 1.05
Zn 1.45
loop_
_atom_site_label
_atom_site_type_symbol
_atom_site_fract_x
_atom_site_fract_y
_atom_site_fract_z
Zn1 Zn 0.64412(6) 0.04252(3) 0.07681(2)
P1 P 0.19035(13) -0.08381(5) 0.12214(5)
P2 P 0.12421(13) 0.12582(6) 0.14166(5)
O1 O 0.3600(4) -0.06003(15) 0.04973(13)
O2 O -0.0820(4) -0.07248(15) 0.10060(14)
O3 O 0.2919(4) -0.18646(15) 0.16617(14)
O4 O 0.3171(4) 0.14102(15) 0.07567(13)
O5 O -0.1419(4) 0.13723(16) 0.11299(14)
O6 O 0.1375(4) 0.19551(17) 0.20828(15)
H1 H 0.26220 0.21980 0.20070
O7 O 0.4910(4) -0.00303(17) 0.20659(14)
H2 H 0.548(8) -0.047(3) 0.232(3)
C1 C 0.2262(5) 0.0022(2) 0.19479(18)
C2 C 0.0969(6) -0.0172(3) 0.2784(2)
H3 H 0.14050 -0.08450 0.30050
H4 H -0.07960 -0.00020 0.26980
H5 H 0.14850 0.02100 0.31750
Zn2 Zn 0.71340(6) -0.40877(3) 0.44212(2)
P3 P 0.20793(14) -0.35592(6) 0.34458(5)
P4 P 0.48300(14) -0.56871(6) 0.37126(5)
O8 O 0.4397(4) -0.32458(16) 0.37390(15)
O9 O 1.0249(4) -0.37034(17) 0.41322(14)
O10 O 0.0775(4) -0.28014(18) 0.27247(15)
H6 H 0.18230 -0.25740 0.24330
O11 O 0.7015(4) -0.53178(16) 0.40482(15)
O12 O 0.3026(4) -0.59617(17) 0.43985(14)
O13 O 0.5729(4) -0.65277(17) 0.32402(15)
O14 O 0.0763(5) -0.5007(2) 0.27384(17)
H7 H -0.00050 -0.51690 0.31590
C3 C 0.3010(6) -0.4693(2) 0.2987(2)
C4 C 0.4511(7) -0.4490(3) 0.2207(2)
H8 H 0.49000 -0.50640 0.19420
H9 H 0.60210 -0.42990 0.23600
H10 H 0.35640 -0.39800 0.18230
O15 O -0.3454(5) -0.15876(18) 0.32118(18)
H11 H -0.181(3) -0.191(2) 0.311(3)
H12 H -0.439(6) -0.2096(19) 0.334(3)
O16 O -0.4968(5) -0.7185(2) 0.17961(18)
H13 H -0.433(8) -0.7817(12) 0.210(2)
H14 H -0.463(9) -0.675(2) 0.218(2)
N1 N 0.2535(5) 0.2429(2) -0.0873(2)
H15 H 0.16700 0.21380 -0.11920
H16 H 0.28180 0.20740 -0.03700
H17 H 0.39750 0.24930 -0.11160
C5 C 0.1121(14) 0.3388(5) -0.0776(5)
H18 H -0.04520 0.33160 -0.05160
H19 H 0.07740 0.37670 -0.13270
C6 C 0.2517(14) 0.3918(5) -0.0247(5)
H20 H 0.41640 0.39200 -0.04740
H21 H 0.27070 0.35700 0.03190
C7 C 0.1252(14) 0.4963(5) -0.0206(5)
H22 H 0.228(7) 0.5258(16) 0.013(3)
H23 H 0.116(10) 0.5311(14) -0.0774(11)
N2 N -0.9490(5) -0.7308(2) 0.3758(2)
H24 H -0.88060 -0.68740 0.39790
H25 H -1.10890 -0.70730 0.36460
H26 H -0.87220 -0.74350 0.32850
C8 C -0.9247(7) -0.8210(3) 0.4364(2)
H27 H -1.02700 -0.86320 0.41750
H28 H -0.98380 -0.80540 0.49080
C9 C -0.6576(7) -0.8729(3) 0.4450(3)
H29 H -0.55970 -0.83390 0.47080
H30 H -0.59210 -0.88040 0.38950
C10 C -0.6320(7) -0.9723(3) 0.4979(3)
H31 H -0.68720 -0.96430 0.55450
H32 H -0.73910 -1.00960 0.47430
C11? C 1.215(2) 1.3391(7) -0.0623(8)
H33? H 1.21360 1.38620 -0.11230
H34? H 1.35490 1.34360 -0.02740
C12? C 0.9817(18) 1.3650(7) -0.0154(7)
H35? H 0.95980 1.31090 0.02620
H36? H 0.84090 1.37900 -0.05410
C13? C 0.993(2) 1.4538(8) 0.0283(7)
H37? H 1.101(5) 1.457(6) 0.075(3)
H38? H 0.925(9) 1.395(2) 0.039(5)
O1A O 0.6400(4) 0.06003(15) -0.04973(13)
O2* O 0.9180(4) -0.07248(15) 0.10060(14)
O5* O 0.8581(4) 0.13723(16) 0.11299(14)
Zn1A Zn 0.35588(6) -0.04252(3) -0.07681(2)
P1A P 0.80965(13) 0.08381(5) -0.12214(5)
Zn1* Zn -0.35588(6) 0.04252(3) 0.07681(2)
O2A O 1.0820(4) 0.07248(15) -0.10060(14)
O3A O 0.7081(4) 0.18646(15) -0.16617(14)
C1A C 0.7738(5) -0.0022(2) -0.19479(18)
Zn1A* Zn 1.35588(6) -0.04252(3) -0.07681(2)
P2A P 0.87579(13) -0.12582(6) -0.14166(5)
O7A O 0.5090(4) 0.00303(17) -0.20659(14)
C2A C 0.9031(6) 0.0172(3) -0.2784(2)
O4A O 0.6829(4) -0.14102(15) -0.07567(13)
O5A O 1.1419(4) -0.13723(16) -0.11299(14)
O6A O 0.8625(4) -0.19551(17) -0.20828(15)
H2A H 0.452(8) 0.047(3) -0.232(3)
H3A H 0.85950 0.08450 -0.30050
H4A H 1.07960 0.00020 -0.26980
H5A H 0.85150 -0.02100 -0.31750
H1A H 0.73780 -0.21980 -0.20070
O2A* O 0.0820(4) 0.07248(15) -0.10060(14)
O5A* O 0.1419(4) -0.13723(16) -0.11299(14)
O9* O 0.0249(4) -0.37034(17) 0.41322(14)
O12A O 0.6974(4) -0.40383(17) 0.56015(14)
P3* P 1.20793(14) -0.35592(6) 0.34458(5)
Zn2* Zn -0.28660(6) -0.40877(3) 0.44212(2)
Zn2A Zn 0.28660(6) -0.59123(3) 0.55788(2)
O8* O 1.4397(4) -0.32458(16) 0.37390(15)
O10* O 1.0775(4) -0.28014(18) 0.27247(15)
C3* C 1.3010(6) -0.4693(2) 0.2987(2)
Zn2** Zn 1.71340(6) -0.40877(3) 0.44212(2)
H6* H 1.18230 -0.25740 0.24330
P4* P 1.48300(14) -0.56871(6) 0.37126(5)
O14* O 1.0763(5) -0.5007(2) 0.27384(17)
C4* C 1.4511(7) -0.4490(3) 0.2207(2)
O11* O 1.7015(4) -0.53178(16) 0.40482(15)
O12* O 1.3026(4) -0.59617(17) 0.43985(14)
O13* O 1.5729(4) -0.65277(17) 0.32402(15)
H7* H 0.99950 -0.51690 0.31590
H8* H 1.49000 -0.50640 0.19420
H9* H 1.60210 -0.42990 0.23600
H10* H 1.35640 -0.39800 0.18230
Zn2A* Zn 1.28660(6) -0.59123(3) 0.55788(2)
O9** O 2.0249(4) -0.37034(17) 0.41322(14)
O12A* O 1.6974(4) -0.40383(17) 0.56015(14)
C7A C -0.1252(14) 0.5037(5) 0.0206(5)
C6A C -0.2517(14) 0.6082(5) 0.0247(5)
H22A H -0.228(7) 0.4742(16) -0.013(3)
H23A H -0.116(10) 0.4689(14) 0.0774(11)
C5A C -0.1121(14) 0.6612(5) 0.0776(5)
H20A H -0.41640 0.60800 0.04740
H21A H -0.27070 0.64300 -0.03190
N1A N -0.2535(5) 0.7571(2) 0.0873(2)
H18A H 0.04520 0.66840 0.05160
H19A H -0.07740 0.62330 0.13270
H15A H -0.16700 0.78620 0.11920
H16A H -0.28180 0.79260 0.03700
H17A H -0.39750 0.75070 0.11160
C10A C -0.3680(7) -1.0277(3) 0.5021(3)
C9A C -0.3424(7) -1.1271(3) 0.5550(3)
H31A H -0.31280 -1.03570 0.44550
H32A H -0.26090 -0.99040 0.52570
C8A C -0.0753(7) -1.1790(3) 0.5636(2)
H29A H -0.44030 -1.16610 0.52920
H30A H -0.40790 -1.11960 0.61050
N2A N -0.0510(5) -1.2692(2) 0.6242(2)
H27A H 0.02700 -1.13680 0.58250
H28A H -0.01620 -1.19460 0.50920
H24A H -0.11940 -1.31260 0.60210
H25A H 0.10890 -1.29270 0.63540
H26A H -0.12780 -1.25650 0.67150
#END
