
#######################################################################
#
#                 Cambridge Crystallographic Data Centre
#                                CCDC
#
#######################################################################
#
# If this CIF has been generated from an entry in the Cambridge
# Structural Database, then it will include bibliographic, chemical,
# crystal, experimental, refinement or atomic coordinate data resulting
# from the CCDC's data processing and validation procedures.
#
#######################################################################

data_CSD_CIF_NEQDIW
_audit_creation_date 2001-11-12
_audit_creation_method CSD-ConQuest-V1
_database_code_CSD NEQDIW
_database_code_depnum_ccdc_archive 'CCDC 172300'
_chemical_formula_sum 'C9 H30 N2 O16 P4 Zn2'
_chemical_formula_moiety
;
(C5 H16 N2 2+)n,n(C4 H10 O14 P4 Zn2 2-),2n(H2 O1)
;
_journal_coden_Cambridge 9
_journal_volume 40
_journal_year 2001
_journal_page_first 5024
_journal_name_full 'Inorg.Chem. '
loop_
_publ_author_name
"Hui-Hua Song"
"Li-Min Zheng"
"Zheming Wang"
"Chun-Hua Yan"
"Xin-Quan Xin"
_chemical_name_systematic
;
catena-(1,5-Pentylenediammonium 
bis(\m~3~-1-hydroxyethylidenediphosphato)-di-zinc dihydrate)
;
_cell_volume   1111.023
_exptl_crystal_colour 'colorless'
_exptl_crystal_density_diffrn 2.024
_exptl_special_details
;
isostructural with the 1,4-butanediammonium analogue

;
_exptl_crystal_description 'column'
_diffrn_ambient_temperature 293
_refine_special_details
;
The cation is equally disordered over four sites.

;
#These two values have been output from a single CSD field.
_refine_ls_R_factor_gt 0.0392
_refine_ls_wR_factor_gt 0.0392
_symmetry_cell_setting monoclinic
_symmetry_space_group_name_H-M 'P 21/n'
_symmetry_Int_Tables_number 14
loop_
_symmetry_equiv_pos_site_id
_symmetry_equiv_pos_as_xyz
1 x,y,z
2 1/2+x,1/2-y,1/2+z
3 -x,-y,-z
4 -1/2-x,-1/2+y,-1/2-z
_cell_length_a 5.5251(2)
_cell_length_b 12.5968(3)
_cell_length_c 16.1705(5)
_cell_angle_alpha 90
_cell_angle_beta 99.1821(16)
_cell_angle_gamma 90
_cell_formula_units_Z 2
loop_
_atom_type_symbol
_atom_type_radius_bond
C 0.68
H 0.23
N 0.68
O 0.68
P 1.05
Zn 1.45
loop_
_atom_site_label
_atom_site_type_symbol
_atom_site_fract_x
_atom_site_fract_y
_atom_site_fract_z
Zn1 Zn 0.78377(5) 0.43789(2) -0.081400(17)
P1 P 0.23033(11) 0.34479(5) -0.15245(4)
P2 P -0.70793(11) 0.57888(5) -0.11671(4)
O1 O 0.5012(3) 0.33394(14) -0.12035(13)
O2 O 0.0609(3) 0.33397(13) -0.08735(11)
O3 O -0.8566(4) 0.26570(16) -0.22310(13)
H1 H -0.76040 0.26590 -0.25680
O4 O -0.4325(3) 0.56688(13) -0.09918(12)
O5 O -0.8458(3) 0.56234(13) -0.04383(11)
O6 O -0.7781(3) 0.69060(14) -0.15319(11)
O7 O -1.0953(3) 0.48695(15) -0.20670(12)
H2 H -1.124(6) 0.539(2) -0.2361(19)
O8 O 0.2293(4) 0.3427(2) 0.3031(2)
H3 H 0.382(5) 0.310(3) 0.300(3)
H4 H 0.124(6) 0.287(3) 0.312(3)
C1 C -0.8304(4) 0.47945(18) -0.19521(14)
C2 C -0.7317(5) 0.4931(2) -0.27755(16)
H5 H -0.77210 0.56270 -0.29970
H6 H -0.55680 0.48440 -0.26770
H7 H -0.80410 0.44070 -0.31700
N1 N 0.1771(5) 0.24659(19) 0.07143(17)
H8 H 0.27370 0.29030 0.10510
H9 H 0.05140 0.22680 0.09610
H10 H 0.12110 0.27970 0.02360
C3 C 0.316(2) 0.1537(8) 0.0542(9)
H11 H 0.38230 0.12060 0.10720
H12 H 0.45300 0.17670 0.02810
C4 C 0.174(3) 0.0708(10) -0.0013(9)
H13 H 0.11240 0.10350 -0.05480
H14 H 0.28740 0.01530 -0.01150
C5 C -0.037(5) 0.020(2) 0.0312(19)
C6? C 1.209(2) 0.1305(7) 0.0645(10)
H15? H 1.24890 0.09880 0.11970
H16? H 1.34100 0.11490 0.03320
C7? C 0.969(2) 0.0872(9) 0.0192(10)
H17? H 0.84610 0.09590 0.05550
H18? H 0.91830 0.13050 -0.03020
C8? C 0.967(5) -0.0262(14) -0.008(2)
C9? C 1.083(3) 0.1359(7) 0.0638(9)
H19? H 1.07100 0.10970 0.11940
H20? H 0.91940 0.13680 0.03170
C10? C 1.235(2) 0.0607(9) 0.0236(10)
H21? H 1.38280 0.04590 0.06290
H22? H 1.28390 0.09560 -0.02450
C11? C 1.117(5) -0.0434(15) -0.005(2)
C12? C 1.298(2) 0.1475(7) 0.0896(10)
H23? H 1.33190 0.14030 0.15010
H24? H 1.45550 0.15200 0.07040
C13? C 1.178(3) 0.0474(8) 0.0553(10)
H25? H 1.14000 0.00670 0.10250
H26? H 1.29970 0.00720 0.03130
C14? C 0.950(5) 0.051(2) -0.0089(18)
Zn1B Zn 0.21623(5) 0.56211(2) 0.081400(17)
O5B O 0.8458(3) 0.43766(13) 0.04383(11)
Zn1B* Zn -0.78377(5) 0.56211(2) 0.081400(17)
Zn1* Zn -0.21623(5) 0.43789(2) -0.081400(17)
O1* O -0.4988(3) 0.33394(14) -0.12035(13)
P1* P -0.76967(11) 0.34479(5) -0.15245(4)
O2* O -0.9391(3) 0.33397(13) -0.08735(11)
Zn1** Zn -1.21623(5) 0.43789(2) -0.081400(17)
O5B* O -0.1542(3) 0.43766(13) 0.04383(11)
O7* O -0.0953(3) 0.48695(15) -0.20670(12)
O3* O 0.1434(4) 0.26570(16) -0.22310(13)
H1* H 0.23960 0.26590 -0.25680
C1* C 0.1696(4) 0.47945(18) -0.19521(14)
O2** O 1.0609(3) 0.33397(13) -0.08735(11)
O4* O 0.5675(3) 0.56688(13) -0.09918(12)
O7** O 0.9047(3) 0.48695(15) -0.20670(12)
O5* O 0.1542(3) 0.56234(13) -0.04383(11)
C4B C -0.174(3) -0.0708(10) 0.0013(9)
C3B C -0.316(2) -0.1537(8) -0.0542(9)
N1B N -0.1771(5) -0.24659(19) -0.07143(17)
H8B H -0.27370 -0.29030 -0.10510
H9B H -0.05140 -0.22680 -0.09610
H10B H -0.12110 -0.27970 -0.02360
H11B H -0.38230 -0.12060 -0.10720
H12B H -0.45300 -0.17670 -0.02810
H13B H -0.11240 -0.10350 0.05480
H14B H -0.28740 -0.01530 0.01150
C5B C 0.037(5) -0.020(2) -0.0312(19)
P2* P 0.29207(11) 0.57888(5) -0.11671(4)
C2* C 0.2683(5) 0.4931(2) -0.27755(16)
H5* H 0.22790 0.56270 -0.29970
H6* H 0.44320 0.48440 -0.26770
H7* H 0.19590 0.44070 -0.31700
H2* H -0.124(6) 0.539(2) -0.2361(19)
O6* O 0.2219(3) 0.69060(14) -0.15319(11)
H2** H 0.876(6) 0.539(2) -0.2361(19)
#END
