
#######################################################################
#
#                 Cambridge Crystallographic Data Centre
#                                CCDC
#
#######################################################################
#
# If this CIF has been generated from an entry in the Cambridge
# Structural Database, then it will include bibliographic, chemical,
# crystal, experimental, refinement or atomic coordinate data resulting
# from the CCDC's data processing and validation procedures.
#
#######################################################################

data_CSD_CIF_NESREK
_audit_creation_date 2013-04-04
_audit_creation_method CSD-ConQuest-V1
_database_code_CSD NESREK
_database_code_depnum_ccdc_archive 'CCDC 868337'
_chemical_formula_sum 'C40 H89 Co10 N12 Na1 O55'
_chemical_formula_moiety
;
(C30 H43 Co9 N12 O37 1-)n,H12 Co1 O6 2+,2(C5 H9 O2 1-),H12 Na1 O6 1+,2(H2 O1)
;
_journal_coden_Cambridge 182
_journal_volume 49
_journal_year 2013
_journal_page_first 871
_journal_name_full 'Chem.Commun. '
loop_
_publ_author_name
"Song-De Han"
"Wei-Chao Song"
"Jiong-Peng Zhao"
"Qian Yang"
"Sui-Jun Liu"
"Yue Li"
"Xian-He Bu"
_chemical_name_systematic
;
catena-[hexa-aqua-cobalt hexa-aqua-sodium 
bis(\m-2,2',2'',2''',2'''',2'''''-(1,3,5-triazine-2,4,6-triyltrinitrilo)hexaac
etato)-heptakis(\m-hydroxo)-hexa-aqua-nona-cobalt di-pivalate dihydrate]
;
_cell_volume   5797.899
_exptl_crystal_colour 'pink'
_exptl_crystal_density_diffrn 1.932
_exptl_crystal_description 'prism'
_diffrn_ambient_temperature 113
_refine_special_details
;
O7,O8 disordered by symmetry over three sites with occupancy 0.33; 
O1W,O1W,O1W,O1W,O1W,O1W disordered by symmetry over two sites with occupancy 
0.50. [Co(H2O)6][Co9(OH)7(H2O)7(TTHA)2][Na(H2O)6][(Me)3CCOO]2,2H2O.
;
#These two values have been output from a single CSD field.
_refine_ls_R_factor_gt 0.0411
_refine_ls_wR_factor_gt 0.0411
_symmetry_cell_setting rhombohedral
_symmetry_space_group_name_H-M 'R -3 m'
_symmetry_Int_Tables_number 166
loop_
_symmetry_equiv_pos_site_id
_symmetry_equiv_pos_as_xyz
1 x,y,z
2 -y,x-y,z
3 -x+y,-x,z
4 y,x,-z
5 -x,-x+y,-z
6 x-y,-y,-z
7 2/3+x,1/3+y,1/3+z
8 2/3-y,1/3+x-y,1/3+z
9 2/3-x+y,1/3-x,1/3+z
10 2/3+y,1/3+x,1/3-z
11 2/3-x,1/3-x+y,1/3-z
12 2/3+x-y,1/3-y,1/3-z
13 1/3+x,2/3+y,2/3+z
14 1/3-y,2/3+x-y,2/3+z
15 1/3-x+y,2/3-x,2/3+z
16 1/3+y,2/3+x,2/3-z
17 1/3-x,2/3-x+y,2/3-z
18 1/3+x-y,2/3-y,2/3-z
19 -x,-y,-z
20 y,-x+y,-z
21 x-y,x,-z
22 -y,-x,z
23 x,x-y,z
24 -x+y,y,z
25 -2/3-x,-1/3-y,-1/3-z
26 -2/3+y,-1/3-x+y,-1/3-z
27 -2/3+x-y,-1/3+x,-1/3-z
28 -2/3-y,-1/3-x,-1/3+z
29 -2/3+x,-1/3+x-y,-1/3+z
30 -2/3-x+y,-1/3+y,-1/3+z
31 -1/3-x,-2/3-y,-2/3-z
32 -1/3+y,-2/3-x+y,-2/3-z
33 -1/3+x-y,-2/3+x,-2/3-z
34 -1/3-y,-2/3-x,-2/3+z
35 -1/3+x,-2/3+x-y,-2/3+z
36 -1/3-x+y,-2/3+y,-2/3+z
_cell_length_a 12.9495(13)
_cell_length_b 12.9495(13)
_cell_length_c 39.924(9)
_cell_angle_alpha 90
_cell_angle_beta 90
_cell_angle_gamma 120
_cell_formula_units_Z 3
loop_
_atom_type_symbol
_atom_type_radius_bond
C 0.68
H 0.23
Co 1.23
N 0.68
Na 1.20
O 0.63
loop_
_atom_site_label
_atom_site_type_symbol
_atom_site_fract_x
_atom_site_fract_y
_atom_site_fract_z
C1 C 0.2753(4) 0.7247(4) -0.08116(11)
C2 C 0.2803(4) 0.9129(3) -0.09029(8)
H1 H 0.22300 0.93740 -0.09610
H2 H 0.32810 0.92360 -0.11010
C3 C 0.3619(4) 0.9966(3) -0.06332(8)
Co1 Co 0.74655(4) 1.25345(3) -0.040600(15)
Co2 Co 0.50000 1.00000 0.00000
N1 N 0.39510(25) 0.79020(18) -0.08104(10)
N2 N 0.21440(44) 0.7856(4) -0.08229(10)
O1 O 0.66670 1.33340 -0.06627(16)
O2 O 0.58900(34) 1.1779(3) -0.01184(10)
O3 O 0.3604(2) 0.9582(3) -0.03428(6)
O4 O 0.4259(2) 1.1035(3) -0.07256(6)
O5 O 0.82039(21) 1.17961(15) -0.00693(8)
H3 H 0.600(5) 1.200(2) 0.0034(14)
H4 H 0.66670 1.33330 -0.084(3)
Co3 Co 0.00000 0.00000 0.00000
O6 O 0.0265(7) -0.1128(6) 0.03206(12)
Na1 Na 0.33330 0.66670 0.16670
O7 O 0.2450(8) 0.4899(7) 0.20146(19)
O8 O 0.1732(7) 0.3464(14) 0.1350(3)
C4 C 0.9358(9) 1.0641(4) 0.16075(18)
C5 C 1.00000 1.00000 0.1478(2)
C6 C 1.00000 1.00000 0.1099(3)
O9 O 1.0578(6) 1.1156(12) 0.0990(3)
H5? H 0.85130 1.01240 0.15880
O10? O 0.9599(6) 0.9199(11) 0.0912(3)
H6? H 0.95980 1.13500 0.14780
H7? H 0.95630 1.08530 0.18380
C1A C 0.2753(4) 0.5506(4) -0.08116(11)
C2A C 0.0871(4) 0.3674(3) -0.09029(8)
H1A H 0.06260 0.28560 -0.09610
H2A H 0.07640 0.40450 -0.11010
C3A C 0.0034(4) 0.3653(3) -0.06332(8)
N1A N 0.20980(25) 0.60490(18) -0.08104(10)
N2A N 0.21440(44) 0.4288(4) -0.08229(10)
O3A O 0.0418(2) 0.4022(3) -0.03428(6)
O4A O -0.1035(2) 0.3224(3) -0.07256(6)
C1B C 0.4494(4) 0.7247(4) -0.08116(11)
C2B C 0.6326(4) 0.7197(3) -0.09029(8)
H1B H 0.71440 0.77700 -0.09610
H2B H 0.59550 0.67190 -0.11010
C3B C 0.6347(4) 0.6381(3) -0.06332(8)
N1B N 0.39510(25) 0.60490(18) -0.08104(10)
N2B N 0.57120(44) 0.7856(4) -0.08229(10)
O3B O 0.5978(2) 0.6396(3) -0.03428(6)
O4B O 0.6776(2) 0.5741(3) -0.07256(6)
C2U C 0.0871(4) 0.7197(3) -0.09029(8)
H1U H 0.06260 0.77700 -0.09610
H2U H 0.07640 0.67190 -0.11010
C3U C 0.0034(4) 0.6381(3) -0.06332(8)
O3U O 0.0418(2) 0.6396(3) -0.03428(6)
O4U O -0.1035(2) 0.5741(3) -0.07256(6)
C2V C 0.2803(4) 0.3674(3) -0.09029(8)
H1V H 0.22300 0.28560 -0.09610
H2V H 0.32810 0.40450 -0.11010
C3V C 0.3619(4) 0.3653(3) -0.06332(8)
O3V O 0.3604(2) 0.4022(3) -0.03428(6)
O4V O 0.4259(2) 0.3224(3) -0.07256(6)
C2W C 0.6326(4) 0.9129(3) -0.09029(8)
H1W H 0.71440 0.93740 -0.09610
H2W H 0.59550 0.92360 -0.11010
C3W C 0.6347(4) 0.9966(3) -0.06332(8)
O3W O 0.5978(2) 0.9582(3) -0.03428(6)
O4W O 0.6776(2) 1.1035(3) -0.07256(6)
Co1A Co -0.25345(4) 0.49310(3) -0.040600(15)
Co2A Co 0.00000 0.50000 0.00000
O1* O -0.33330 0.33340 -0.06627(16)
O2A O -0.17790(34) 0.4111(3) -0.01184(10)
O5A O -0.17961(21) 0.64078(15) -0.00693(8)
H3A H -0.200(5) 0.400(2) 0.0034(14)
H4* H -0.33330 0.33330 -0.084(3)
C1B* C -0.5506(4) 0.7247(4) -0.08116(11)
C2B* C -0.3674(4) 0.7197(3) -0.09029(8)
H1B* H -0.28560 0.77700 -0.09610
H2B* H -0.40450 0.67190 -0.11010
C3B* C -0.3653(4) 0.6381(3) -0.06332(8)
Co1B Co -0.49310(4) 0.25345(3) -0.040600(15)
Co2B Co -0.50000 0.50000 0.00000
N1B* N -0.60490(25) 0.60490(18) -0.08104(10)
N2B* N -0.42880(44) 0.7856(4) -0.08229(10)
O2B O -0.41110(34) 0.4110(3) -0.01184(10)
O3B* O -0.4022(2) 0.6396(3) -0.03428(6)
O4B* O -0.3224(2) 0.5741(3) -0.07256(6)
O5B O -0.64078(21) 0.17961(15) -0.00693(8)
H3B H -0.400(5) 0.400(2) 0.0034(14)
C1* C -0.7247(4) 0.7247(4) -0.08116(11)
C2* C -0.7197(4) 0.9129(3) -0.09029(8)
H1* H -0.77700 0.93740 -0.09610
H2* H -0.67190 0.92360 -0.11010
C3* C -0.6381(4) 0.9966(3) -0.06332(8)
N1* N -0.60490(25) 0.79020(18) -0.08104(10)
N2* N -0.78560(44) 0.7856(4) -0.08229(10)
O3* O -0.6396(2) 0.9582(3) -0.03428(6)
O4* O -0.5741(2) 1.1035(3) -0.07256(6)
C1A* C -0.7247(4) 0.5506(4) -0.08116(11)
C2A* C -0.9129(4) 0.3674(3) -0.09029(8)
H1A* H -0.93740 0.28560 -0.09610
H2A* H -0.92360 0.40450 -0.11010
C3A* C -0.9966(4) 0.3653(3) -0.06332(8)
N1A* N -0.79020(25) 0.60490(18) -0.08104(10)
N2A* N -0.78560(44) 0.4288(4) -0.08229(10)
O3A* O -0.9582(2) 0.4022(3) -0.03428(6)
O4A* O -1.1035(2) 0.3224(3) -0.07256(6)
C2W* C -0.3674(4) 0.9129(3) -0.09029(8)
H1W* H -0.28560 0.93740 -0.09610
H2W* H -0.40450 0.92360 -0.11010
C3W* C -0.3653(4) 0.9966(3) -0.06332(8)
O3W* O -0.4022(2) 0.9582(3) -0.03428(6)
O4W* O -0.3224(2) 1.1035(3) -0.07256(6)
C2U* C -0.9129(4) 0.7197(3) -0.09029(8)
H1U* H -0.93740 0.77700 -0.09610
H2U* H -0.92360 0.67190 -0.11010
C3U* C -0.9966(4) 0.6381(3) -0.06332(8)
O3U* O -0.9582(2) 0.6396(3) -0.03428(6)
O4U* O -1.1035(2) 0.5741(3) -0.07256(6)
C2V* C -0.7197(4) 0.3674(3) -0.09029(8)
H1V* H -0.77700 0.28560 -0.09610
H2V* H -0.67190 0.40450 -0.11010
C3V* C -0.6381(4) 0.3653(3) -0.06332(8)
O3V* O -0.6396(2) 0.4022(3) -0.03428(6)
O4V* O -0.5741(2) 0.3224(3) -0.07256(6)
Co1D Co 0.25345(4) 0.50690(3) 0.040600(15)
O2C O 0.17790(34) 0.5890(3) 0.01184(10)
O5D O 0.17961(21) 0.35922(15) 0.00693(8)
H3C H 0.200(5) 0.600(2) -0.0034(14)
Co1E Co -0.50690(4) 0.74655(3) 0.040600(15)
O2D O -0.58900(34) 0.5889(3) 0.01184(10)
O5E O -0.35922(21) 0.82039(15) 0.00693(8)
H3D H -0.600(5) 0.600(2) -0.0034(14)
Co1B* Co 0.50690(4) 1.25345(3) -0.040600(15)
O5B* O 0.35922(21) 1.17961(15) -0.00693(8)
Co1* Co -1.25345(4) 0.25345(3) -0.040600(15)
Co1** Co -0.25345(4) 0.25345(3) -0.040600(15)
Co1*** Co -0.25345(4) 1.25345(3) -0.040600(15)
Co1A* Co -1.25345(4) 0.49310(3) -0.040600(15)
Co1A** Co 0.74655(4) 0.49310(3) -0.040600(15)
Co1A*** Co 0.74655(4) 1.49310(3) -0.040600(15)
Co1B** Co -0.49310(4) 1.25345(3) -0.040600(15)
Co1B*** Co 0.50690(4) 0.25345(3) -0.040600(15)
Co1C Co 0.25345(4) 0.74655(3) 0.040600(15)
Co1D* Co -0.74655(4) 0.50690(3) 0.040600(15)
Co2* Co -0.50000 1.00000 0.00000
Co2A* Co -1.00000 0.50000 0.00000
Co2B* Co 0.50000 0.50000 0.00000
O1C O -0.66660 0.66670 0.06627(16)
O1C* O 0.33340 0.66670 0.06627(16)
O2* O -0.41100(34) 0.1779(3) -0.01184(10)
O2A* O 0.82210(34) 1.4111(3) -0.01184(10)
O2B* O 0.58890(34) 1.4110(3) -0.01184(10)
O2D* O 0.41100(34) 0.5889(3) 0.01184(10)
O2E O -0.58890(34) 0.8221(3) 0.01184(10)
O2E* O 0.41110(34) 0.8221(3) 0.01184(10)
O3C O -0.0418(2) 0.3604(3) 0.03428(6)
O3D O -0.3604(2) 0.5978(3) 0.03428(6)
O3E O 0.4022(2) 1.0418(3) 0.03428(6)
O3R O 0.6396(2) 1.0418(3) 0.03428(6)
O3S O -0.0418(2) 0.5978(3) 0.03428(6)
O3T O -0.5978(2) 0.3604(3) 0.03428(6)
O4** O -0.5741(2) 0.1035(3) -0.07256(6)
O4A** O 0.8965(2) 1.3224(3) -0.07256(6)
O4C O 0.1035(2) 0.4259(3) 0.07256(6)
O4D O -0.4259(2) 0.6776(3) 0.07256(6)
O4R O -0.4259(2) 0.8965(3) 0.07256(6)
O4T O 0.3224(2) 0.4259(3) 0.07256(6)
O4V** O 0.4259(2) 1.3224(3) -0.07256(6)
O6U O 0.1128(7) -0.0265(6) 0.03206(12)
O6A O 0.1128(7) 0.1393(6) 0.03206(12)
O6V O 0.0265(7) 0.1393(6) 0.03206(12)
O6B O -0.1393(7) -0.0265(6) 0.03206(12)
O6W O -0.1393(7) -0.1128(6) 0.03206(12)
O6C O -0.1128(7) 0.0265(6) -0.03206(12)
O6R O -0.0265(7) 0.1128(6) -0.03206(12)
O6D O -0.0265(7) -0.1393(6) -0.03206(12)
O6S O -0.1128(7) -0.1393(6) -0.03206(12)
O6E O 0.1393(7) 0.1128(6) -0.03206(12)
O6T O 0.1393(7) 0.0265(6) -0.03206(12)
O7A O 0.5101(8) 0.7551(7) 0.20146(19)
O7B O 0.2449(8) 0.7550(7) 0.20146(19)
O7I O 0.156567(800) 0.578333(700) 0.131873(190)
O7J O 0.421667(800) 0.578233(700) 0.131873(190)
O7K O 0.421767(800) 0.843433(700) 0.131873(190)
C4A C 0.9359(9) 0.8717(4) 0.16075(18)
O9A O 0.8844(6) 0.9422(12) 0.0990(3)
C4B C 1.1283(9) 1.0642(4) 0.16075(18)
O9B O 1.0578(6) 0.9422(12) 0.0990(3)
#END
