
#######################################################################
#
#                 Cambridge Crystallographic Data Centre
#                                CCDC
#
#######################################################################
#
# If this CIF has been generated from an entry in the Cambridge
# Structural Database, then it will include bibliographic, chemical,
# crystal, experimental, refinement or atomic coordinate data resulting
# from the CCDC's data processing and validation procedures.
#
#######################################################################

data_CSD_CIF_NESVAK
_audit_creation_date 2013-04-04
_audit_creation_method CSD-ConQuest-V1
_database_code_CSD NESVAK
_database_code_depnum_ccdc_archive 'CCDC 872213'
_chemical_formula_sum 'C40 H59.5 Cd3 N7.5 O20.5'
_chemical_formula_moiety
;
(C2 H8 N1 1+)n,n(C24 H12 Cd3 N3 O13 1-),3.5n(C4 H9 N1 O1),4n(H2 O1)
;
_journal_coden_Cambridge 1699
_journal_volume 1
_journal_year 2013
_journal_page_first 495
_journal_name_full 'J.Mater.Chem.A '
loop_
_publ_author_name
"Yun-Wu Li"
"Jian-Rong Li"
"Li-Fu Wang"
"Bo-Yu Zhou"
"Qiang Chen"
"Xian-He Bu"
_chemical_name_systematic
;
catena-(Dimethylammonium 
(bis(\m~5~-1,3,5-benzenetricarboxylato)-(\m~3~-benzotriazolato)-aqua-tri-cadmi
um) dimethylacetamide solvate tetrahydrate)
;
_cell_volume  26568.546
_exptl_crystal_colour 'colorless'
_exptl_crystal_description 'block'
_diffrn_ambient_temperature 160
_refine_special_details
;
The disordered counter ion was not modelled and the disordered density was 
taken into account using the SQUEEZE/PLATON procedure.
;
#These two values have been output from a single CSD field.
_refine_ls_R_factor_gt 0.0387
_refine_ls_wR_factor_gt 0.0387
_symmetry_cell_setting rhombohedral
_symmetry_space_group_name_H-M 'R 3 c'
_symmetry_Int_Tables_number 161
loop_
_symmetry_equiv_pos_site_id
_symmetry_equiv_pos_as_xyz
1 x,y,z
2 -y,x-y,z
3 -x+y,-x,z
4 -y,-x,1/2+z
5 x,x-y,1/2+z
6 -x+y,y,1/2+z
7 2/3+x,1/3+y,1/3+z
8 2/3-y,1/3+x-y,1/3+z
9 2/3-x+y,1/3-x,1/3+z
10 2/3-y,1/3-x,5/6+z
11 2/3+x,1/3+x-y,5/6+z
12 2/3-x+y,1/3+y,5/6+z
13 1/3+x,2/3+y,2/3+z
14 1/3-y,2/3+x-y,2/3+z
15 1/3-x+y,2/3-x,2/3+z
16 1/3-y,2/3-x,1/6+z
17 1/3+x,2/3+x-y,1/6+z
18 1/3-x+y,2/3+y,1/6+z
_cell_length_a 21.5221(15)
_cell_length_b 21.5221(15)
_cell_length_c 66.232(8)
_cell_angle_alpha 90
_cell_angle_beta 90
_cell_angle_gamma 120
_cell_formula_units_Z 18
loop_
_atom_type_symbol
_atom_type_radius_bond
C 0.66
H 0.23
Cd 1.57
N 0.68
O 0.68
loop_
_atom_site_label
_atom_site_type_symbol
_atom_site_fract_x
_atom_site_fract_y
_atom_site_fract_z
O1 O 0.66670 0.33330 0.85547(18)
O2 O 0.66670 0.33330 0.70307(10)
O3 O 0.66670 0.33330 0.64901(11)
O4 O 0.33330 0.66670 0.84765(18)
O5 O 0.7596(9) 0.5167(10) 0.7379(3)
N1 N 0.6245(9) 0.4684(10) 0.7352(4)
C1 C 0.6965(9) 0.5201(10) 0.7416(3)
C2 C 0.6853(11) 0.5766(10) 0.7502(3)
H1 H 0.63390 0.56020 0.75040
H2 H 0.71020 0.62000 0.74190
H3 H 0.70440 0.58730 0.76400
C3 C 0.5539(9) 0.4566(11) 0.7407(3)
H4 H 0.51700 0.41650 0.73290
H5 H 0.55150 0.50000 0.73790
H6 H 0.54570 0.44530 0.75520
C4 C 0.6289(7) 0.4113(7) 0.7249(2)
H7 H 0.58110 0.37530 0.72010
H8 H 0.64710 0.38880 0.73420
H9 H 0.66150 0.43120 0.71330
Cd1 Cd 0.65336(2) 0.52449(2) 0.862178(6)
Cd2 Cd 0.63383(2) 0.59825(3) 0.815669(6)
Cd3 Cd 0.33525(2) 0.37355(2) 0.741487(6)
O6 O 0.5599(2) 0.4935(2) 0.83250(6)
O7 O 0.5813(3) 0.4160(2) 0.84839(6)
O8 O 0.4060(2) 0.4065(2) 0.76997(7)
O9 O 0.3861(3) 0.3053(3) 0.75663(7)
O10 O 0.3997(4) 0.1292(3) 0.80265(10)
O11 O 0.4380(4) 0.1579(3) 0.83307(8)
O12 O 0.7259(3) 0.4909(3) 0.87608(7)
O13 O 0.7455(2) 0.5912(2) 0.89054(7)
O14 O 0.9204(2) 0.4203(2) 0.88935(7)
O15 O 0.9072(3) 0.3894(3) 0.92174(7)
O16 O 0.8920(3) 0.6588(3) 0.95518(9)
O17 O 0.9527(3) 0.6090(3) 0.96227(8)
N2 N 0.6481(4) 0.6594(3) 0.84452(8)
N3 N 0.6563(3) 0.6306(2) 0.86090(8)
N4 N 0.6651(4) 0.6713(3) 0.87756(8)
C5 C 0.5513(4) 0.4322(3) 0.83503(9)
C6 C 0.5009(3) 0.3736(3) 0.82059(9)
C7 C 0.4778(3) 0.3885(3) 0.80284(9)
H10 H 0.49040 0.43660 0.79990
C8 C 0.4373(3) 0.3358(3) 0.78954(9)
C9 C 0.4184(4) 0.2653(3) 0.79404(9)
H11 H 0.38850 0.22840 0.78490
C10 C 0.4417(4) 0.2466(3) 0.81159(10)
C11 C 0.4820(3) 0.3037(3) 0.82521(9)
H12 H 0.49630 0.29370 0.83780
C12 C 0.4082(3) 0.3507(3) 0.77071(9)
C13 C 0.4246(4) 0.1752(3) 0.81621(10)
C14 C 0.7552(3) 0.5388(4) 0.88917(9)
C15 C 0.8090(3) 0.5330(4) 0.90291(10)
C16 C 0.8342(3) 0.4859(4) 0.89801(10)
H13 H 0.82180 0.46100 0.88550
C17 C 0.8777(3) 0.4759(3) 0.91175(10)
C18 C 0.9000(4) 0.5157(4) 0.92932(9)
H14 H 0.92980 0.50840 0.93840
C19 C 0.8798(4) 0.5665(4) 0.93406(10)
C20 C 0.8319(3) 0.5751(4) 0.92125(8)
H15 H 0.81530 0.60730 0.92460
C21 C 0.9058(4) 0.6108(4) 0.9524(1)
C22 C 0.9041(3) 0.4244(4) 0.90685(11)
C23 C 0.6369(5) 0.7153(4) 0.85055(11)
C24 C 0.6438(5) 0.7200(4) 0.87141(11)
C25 C 0.6392(5) 0.7737(5) 0.88170(12)
H16 H 0.64390 0.77690 0.89600
C26 C 0.6278(5) 0.8228(5) 0.87113(14)
H17 H 0.62460 0.85960 0.87820
C27 C 0.6209(5) 0.8181(5) 0.85027(15)
H18 H 0.61310 0.85170 0.84300
C28 C 0.6255(5) 0.7644(5) 0.83998(12)
H19 H 0.62080 0.76120 0.82570
O18 O 0.2301(4) 0.2686(4) 0.75067(11)
C29? C 0.6830(7) 0.7329(4) 0.84848(14)
C30? C 0.6938(6) 0.7413(4) 0.86922(13)
C31? C 0.7200(6) 0.8086(5) 0.87794(11)
H20? H 0.72740 0.81430 0.89210
C32? C 0.7355(7) 0.8675(4) 0.86592(16)
H21? H 0.75340 0.91350 0.87190
C33? C 0.7247(7) 0.8592(5) 0.84518(15)
H22? H 0.73530 0.89950 0.83700
C34? C 0.6985(7) 0.7919(6) 0.83645(11)
H23? H 0.69110 0.78620 0.82230
O19? O 0.66670 0.33330 0.8645(3)
Cd1A Cd 0.47551(2) 0.12887(2) 0.862178(6)
Cd1B Cd 0.87113(2) 0.34664(2) 0.862178(6)
Cd2A Cd 0.40175(2) 0.03558(3) 0.815669(6)
Cd2P Cd 0.967163(20) 0.702247(30) 0.982336(6)
Cd3P Cd 0.668583(20) 0.628367(20) 0.908154(6)
Cd3O Cd 0.959783(20) 0.331417(20) 0.908154(6)
O10B O 0.7295(4) 0.6003(3) 0.80265(10)
O11B O 0.7199(4) 0.5620(3) 0.83307(8)
O13J O 0.412167(200) 0.487633(200) 0.723873(70)
O14A O 0.5797(2) 0.5001(2) 0.88935(7)
O15I O 0.277267(300) 0.426133(300) 0.755073(70)
O16J O 0.558667(300) 0.566533(300) 0.788513(90)
O17J O 0.619367(300) 0.677033(300) 0.795603(80)
N4J N 0.331767(400) 0.327133(300) 0.710893(80)
#END
