
#######################################################################
#
#                 Cambridge Crystallographic Data Centre
#                                CCDC
#
#######################################################################
#
# If this CIF has been generated from an entry in the Cambridge
# Structural Database, then it will include bibliographic, chemical,
# crystal, experimental, refinement or atomic coordinate data resulting
# from the CCDC's data processing and validation procedures.
#
#######################################################################

data_CSD_CIF_NETYIV01
_audit_creation_date 2015-05-14
_audit_creation_method CSD-ConQuest-V1
_database_code_CSD NETYIV01
_database_code_depnum_ccdc_archive 'CCDC 970133'
_chemical_formula_sum 'C64 H48 Cl1 Cu4 Mo8 N12 O26'
_chemical_formula_moiety
;
(C24 H16 Cu1 N4 2+)n,n(Mo8 O26 4-),n(C40 H32 Cl1 Cu3 N8 2+)
;
_journal_coden_Cambridge 155
_journal_volume 433
_journal_year 2015
_journal_page_first 21
_journal_name_full 'Inorg.Chim.Acta '
loop_
_publ_author_name
"M.Najafi"
"A.Abbasi"
"M.Masteri-Farahani"
"V.H.N.Rodrigues"
_chemical_name_systematic
;
catena-((\m~3~-Chloro)-tetrakis(\m~2~-4,4'-bipyridine)-tri-copper(i) 
bis(1,10-phenanthroline)-copper(ii) 
bis(\m~5~-oxo)-tetrakis(\m~3~-oxo)-hexakis(\m~2~-oxo)-tetradecaoxo-octa-molybd
enum)
;
_cell_volume   7217.935
_exptl_crystal_density_diffrn 2.262
_diffrn_ambient_temperature 295
#These two values have been output from a single CSD field.
_refine_ls_R_factor_gt 0.0332
_refine_ls_wR_factor_gt 0.0332
_symmetry_cell_setting monoclinic
_symmetry_space_group_name_H-M 'C 2/c'
_symmetry_Int_Tables_number 15
loop_
_symmetry_equiv_pos_site_id
_symmetry_equiv_pos_as_xyz
1 x,y,z
2 -x,y,1/2-z
3 1/2+x,1/2+y,z
4 1/2-x,1/2+y,1/2-z
5 -x,-y,-z
6 x,-y,-1/2+z
7 -1/2-x,-1/2-y,-z
8 -1/2+x,-1/2-y,-1/2+z
_cell_length_a 19.7595(7)
_cell_length_b 17.5176(7)
_cell_length_c 22.1610(8)
_cell_angle_alpha 90
_cell_angle_beta 109.7859(19)
_cell_angle_gamma 90
_cell_formula_units_Z 4
loop_
_atom_type_symbol
_atom_type_radius_bond
C 0.68
H 0.23
Cl 0.99
Cu 1.32
Mo 1.54
N 0.68
O 0.68
loop_
_atom_site_label
_atom_site_type_symbol
_atom_site_fract_x
_atom_site_fract_y
_atom_site_fract_z
Mo1 Mo 0.212406(17) 0.173189(18) 0.446427(15)
O1 O 0.15269(13) 0.16421(14) 0.37153(12)
O2 O 0.14753(12) 0.18729(13) 0.49469(11)
O3 O 0.23942(13) 0.08033(13) 0.47121(12)
O4 O 0.20825(12) 0.29740(13) 0.45213(11)
O5 O 0.29824(13) 0.20320(13) 0.42804(12)
Mo2 Mo 0.212642(18) 0.188640(18) 0.602961(15)
Mo3 Mo 0.103836(18) 0.291741(19) 0.476126(17)
Mo4 Mo 0.322049(18) 0.066683(19) 0.573093(16)
O6 O 0.27509(14) 0.20637(15) 0.67558(12)
O7 O 0.13497(14) 0.17746(15) 0.61860(12)
O8 O 0.23379(13) 0.08492(14) 0.58941(12)
O9 O 0.11818(13) 0.39866(14) 0.47337(13)
O10 O 0.05165(14) 0.27304(16) 0.39930(13)
O11 O 0.04723(15) 0.28897(15) 0.51867(15)
O12 O 0.37909(14) 0.08146(17) 0.64983(13)
O13 O 0.32104(15) -0.02908(15) 0.56170(13)
N1 N 0.4786(2) 0.0220(3) 0.8135(3)
C1 C 0.5034(3) -0.0480(4) 0.8305(4)
H1 H 0.52870 -0.07320 0.80790
C2 C 0.4913(5) -0.0847(6) 0.8836(5)
H2 H 0.50750 -0.13420 0.89520
C3 C 0.4558(6) -0.0462(7) 0.9167(5)
H3 H 0.44840 -0.06960 0.95150
C4 C 0.4307(4) 0.0262(6) 0.9003(4)
C5 C 0.3939(5) 0.0721(7) 0.9317(4)
H4 H 0.38340 0.05060 0.96580
C6 C 0.3730(4) 0.1450(7) 0.9156(4)
H5 H 0.34870 0.17200 0.93810
C7 C 0.3887(3) 0.1800(5) 0.8636(3)
C8 C 0.3704(3) 0.2538(5) 0.8410(4)
H6 H 0.34730 0.28520 0.86170
C9 C 0.3851(3) 0.2808(4) 0.7905(3)
H7 H 0.37130 0.32990 0.77530
C10 C 0.4213(3) 0.2340(3) 0.7612(2)
H8 H 0.43110 0.25280 0.72580
N2 N 0.44258(19) 0.1642(2) 0.78088(17)
C11 C 0.4253(3) 0.1365(4) 0.8302(2)
C12 C 0.4458(3) 0.0608(4) 0.8480(3)
Cu1 Cu 0.50000 0.09166(5) 0.75000
Cu2 Cu -0.13276(3) -0.17932(3) 1.16592(3)
C13 C -0.2902(2) 0.0967(2) 1.31732(19)
H9 H -0.27040 0.05670 1.34540
C14 C -0.3154(2) 0.1607(2) 1.3390(2)
H10 H -0.31160 0.16270 1.38190
N3 N -0.3451(2) 0.22034(19) 1.30140(16)
C15 C -0.3513(2) 0.2145(2) 1.24002(19)
H11 H -0.37410 0.25380 1.21250
C16 C -0.3257(2) 0.1531(2) 1.2147(2)
H12 H -0.32960 0.15290 1.17170
C17 C -0.2940(2) 0.0916(2) 1.2542(2)
C18 C -0.2614(2) 0.0269(2) 1.23086(18)
C19 C -0.2234(2) 0.0396(2) 1.1896(2)
H13 H -0.22080 0.08850 1.17420
C20 C -0.1895(3) -0.0201(2) 1.1715(2)
H14 H -0.16310 -0.00960 1.14490
N4 N -0.19227(18) -0.09242(19) 1.18988(16)
C21 C -0.2313(2) -0.1043(2) 1.22786(19)
H15 H -0.23570 -0.15420 1.24030
C22 C -0.2655(2) -0.0474(2) 1.25000(18)
H16 H -0.29080 -0.05910 1.27730
C23 C -0.5944(2) 0.4994(2) 1.89100(19)
H17 H -0.63210 0.52280 1.90010
C24 C -0.6602(2) 0.3931(3) 2.0403(2)
H18 H -0.70520 0.40320 2.04320
C25 C -0.6444(2) 0.4224(3) 1.9890(2)
C26 C -0.5786(2) 0.4079(2) 1.98208(18)
C27 C -0.5593(2) 0.4385(2) 1.92743(18)
C28 C -0.5046(2) 0.4065(3) 1.9101(2)
H19 H -0.47830 0.36580 1.93350
C29 C -0.5509(3) 0.3367(2) 2.0788(2)
H20 H -0.51800 0.30670 2.10970
C30 C -0.5313(2) 0.3630(2) 2.0292(2)
Cl1 Cl -0.50000 0.33427(9) 2.25000
C31 C -0.4888(3) 0.4344(3) 1.8583(2)
N5 N -0.52289(18) 0.49392(19) 1.82322(15)
H21 H -0.48630 0.35090 2.02700
C32 C -0.5743(2) 0.5258(2) 1.8413(2)
N6 N -0.6140(2) 0.3507(2) 2.08621(16)
Cu3 Cu -0.50000 0.53255(5) 1.75000
H22 H -0.59790 0.56850 1.81890
H23 H -0.45270 0.41070 1.84710
H24 H -0.67820 0.45220 1.95870
O4F O 0.29175(12) 0.20260(13) 0.54787(11)
Mo2F Mo 0.287358(18) 0.311360(18) 0.397039(15)
Mo1F Mo 0.287594(17) 0.326811(18) 0.553573(15)
Mo4F Mo 0.177951(18) 0.433317(19) 0.426907(16)
Mo3F Mo 0.396164(18) 0.208259(19) 0.523874(17)
O5F O 0.20176(13) 0.29680(13) 0.57196(12)
O9F O 0.38182(13) 0.10134(14) 0.52663(13)
O6F O 0.22491(14) 0.29363(15) 0.32442(12)
O7F O 0.36503(14) 0.32254(15) 0.38140(12)
O8F O 0.26621(13) 0.41508(14) 0.41059(12)
O2F O 0.35247(12) 0.31271(13) 0.50531(11)
O1F O 0.34731(13) 0.33579(14) 0.62847(12)
O3F O 0.26058(13) 0.41967(13) 0.52879(12)
O12F O 0.12091(14) 0.41854(17) 0.35017(13)
O13F O 0.17896(15) 0.52908(15) 0.43830(13)
O10F O 0.44835(14) 0.22696(16) 0.60070(13)
O11F O 0.45277(15) 0.21103(15) 0.48133(15)
N1A N 0.5214(2) 0.0220(3) 0.6865(3)
C1A C 0.4966(3) -0.0480(4) 0.6695(4)
H1A H 0.47130 -0.07320 0.69210
C2A C 0.5087(5) -0.0847(6) 0.6164(5)
H2A H 0.49250 -0.13420 0.60480
C3A C 0.5442(6) -0.0462(7) 0.5833(5)
H3A H 0.55160 -0.06960 0.54850
C4A C 0.5693(4) 0.0262(6) 0.5997(4)
C5A C 0.6061(5) 0.0721(7) 0.5683(4)
H4A H 0.61660 0.05060 0.53420
C6A C 0.6270(4) 0.1450(7) 0.5844(4)
H5A H 0.65130 0.17200 0.56190
C7A C 0.6113(3) 0.1800(5) 0.6364(3)
C8A C 0.6296(3) 0.2538(5) 0.6590(4)
H6A H 0.65270 0.28520 0.63830
C9A C 0.6149(3) 0.2808(4) 0.7095(3)
H7A H 0.62870 0.32990 0.72470
C10A C 0.5787(3) 0.2340(3) 0.7388(2)
H8A H 0.56890 0.25280 0.77420
N2A N 0.55742(19) 0.1642(2) 0.71912(17)
C11A C 0.5747(3) 0.1365(4) 0.6698(2)
C12A C 0.5542(3) 0.0608(4) 0.6520(3)
Cu2C Cu -0.36724(3) 0.32068(3) 1.33408(3)
C14C C -0.1846(2) 0.6607(2) 1.1610(2)
N3C N -0.1549(2) 0.72034(19) 1.19860(16)
C15C C -0.1487(2) 0.7145(2) 1.25998(19)
N4B N -0.69227(18) 0.40758(19) 2.18988(16)
C16C C -0.1743(2) 0.6531(2) 1.2853(2)
C20C C -0.3105(3) 0.4799(2) 1.3285(2)
H14C H -0.33690 0.49040 1.35510
Cu2* Cu -0.13276(3) 0.82068(3) 1.16592(3)
N4C N -0.30773(18) 0.40758(19) 1.31012(16)
C13C C -0.2098(2) 0.5967(2) 1.18268(19)
C27A C -0.4407(2) 0.4385(2) 1.57257(18)
C23A C -0.4056(2) 0.4994(2) 1.60900(19)
C17C C -0.2060(2) 0.5916(2) 1.2458(2)
Cu2B Cu -0.63276(3) 0.32068(3) 2.16592(3)
N3A N -0.6549(2) 0.22034(19) 2.19860(16)
H11C H -0.12590 0.75380 1.28750
H12C H -0.17040 0.65290 1.32830
H9C H -0.22960 0.55670 1.15460
Cl1D Cl -0.50000 0.66573(9) 1.75000
H17A H -0.36790 0.52280 1.59990
C21C C -0.2687(2) 0.3957(2) 1.27214(19)
H15C H -0.26430 0.34580 1.25970
C22C C -0.2345(2) 0.4526(2) 1.25000(18)
H16C H -0.20920 0.44090 1.22270
N5A N -0.47711(18) 0.49392(19) 1.67678(15)
C32A C -0.4257(2) 0.5258(2) 1.6587(2)
C18C C -0.2386(2) 0.5269(2) 1.26914(18)
C19C C -0.2766(2) 0.5396(2) 1.3104(2)
H13C H -0.27920 0.58850 1.32580
H10C H -0.18840 0.66270 1.11810
C28A C -0.4954(2) 0.4065(3) 1.5899(2)
H19A H -0.52170 0.36580 1.56650
C26A C -0.4214(2) 0.4079(2) 1.51792(18)
Cu2G Cu -0.63276(3) 0.67932(3) 1.66592(3)
H22A H -0.40210 0.56850 1.68110
Cu2F Cu -0.36724(3) 0.67932(3) 1.83408(3)
N6A N -0.3860(2) 0.3507(2) 1.41379(16)
C29A C -0.4491(3) 0.3367(2) 1.4212(2)
H20A H -0.48200 0.30670 1.39030
C30A C -0.4687(2) 0.3630(2) 1.4708(2)
C25A C -0.3556(2) 0.4224(3) 1.5110(2)
H24A H -0.32180 0.45220 1.54130
C24A C -0.3398(2) 0.3931(3) 1.4597(2)
Cl1* Cl -0.50000 0.33427(9) 1.25000
H21A H -0.51370 0.35090 1.47300
C31A C -0.5112(3) 0.4344(3) 1.6417(2)
H23A H -0.54730 0.41070 1.65290
H18A H -0.29480 0.40320 1.45680
#END
