
#######################################################################
#
#                 Cambridge Crystallographic Data Centre
#                                CCDC
#
#######################################################################
#
# If this CIF has been generated from an entry in the Cambridge
# Structural Database, then it will include bibliographic, chemical,
# crystal, experimental, refinement or atomic coordinate data resulting
# from the CCDC's data processing and validation procedures.
#
#######################################################################

data_CSD_CIF_NETYIV
_audit_creation_date 2007-03-09
_audit_creation_method CSD-ConQuest-V1
_database_code_CSD NETYIV
_database_code_depnum_ccdc_archive 'CCDC 600763'
_chemical_formula_sum 'C64 H48 Cl1 Cu4 Mo8 N12 O26'
_chemical_formula_moiety
;
(C24 H16 Cu1 N4 2+)n,n(Mo8 O26 4-),n(C40 H32 Cl1 Cu3 N8 2+)
;
_journal_coden_Cambridge 1290
_journal_year 2006
_journal_page_first 4541
_journal_name_full 'Eur.J.Inorg.Chem. '
loop_
_publ_author_name
"Hua Jin"
"Yanfei Qi"
"Enbo Wang"
"Yangguang Li"
"Chao Qin"
"Xinlong Wang"
"Song Chang"
_chemical_name_systematic
;
catena-((\m~3~-Chloro)-tetrakis(\m~2~-4,4'-bipyridine)-tri-copper(i) 
bis(1,10-phenanthroline)-copper(ii) 
bis(\m~5~-oxo)-tetrakis(\m~3~-oxo)-hexakis(\m~2~-oxo)-tetradecaoxo-octa-molybd
enum)
;
_cell_volume   7201.694
_exptl_crystal_colour 'dark green'
_exptl_crystal_density_diffrn 2.264
_exptl_crystal_description 'block'
_diffrn_ambient_temperature 293
#These two values have been output from a single CSD field.
_refine_ls_R_factor_gt 0.0278
_refine_ls_wR_factor_gt 0.0278
_symmetry_cell_setting monoclinic
_symmetry_space_group_name_H-M 'C 2/c'
_symmetry_Int_Tables_number 15
loop_
_symmetry_equiv_pos_site_id
_symmetry_equiv_pos_as_xyz
1 x,y,z
2 1/2+x,1/2+y,z
3 -x,y,1/2-z
4 1/2-x,1/2+y,1/2-z
5 -x,-y,-z
6 -1/2-x,-1/2-y,-z
7 x,-y,-1/2+z
8 -1/2+x,-1/2-y,-1/2+z
_cell_length_a 19.748(4)
_cell_length_b 17.494(4)
_cell_length_c 22.160(4)
_cell_angle_alpha 90
_cell_angle_beta 109.83(3)
_cell_angle_gamma 90
_cell_formula_units_Z 4
loop_
_atom_type_symbol
_atom_type_radius_bond
C 0.68
H 0.23
Cl 0.99
Cu 1.52
Mo 1.39
N 0.68
O 0.68
loop_
_atom_site_label
_atom_site_type_symbol
_atom_site_fract_x
_atom_site_fract_y
_atom_site_fract_z
Cu1 Cu 0.50000 -0.09161(4) 0.25000
N1 N 0.55743(16) -0.1646(2) 0.21924(14)
C1 C 0.5751(2) -0.1364(3) 0.16954(18)
C2 C 0.5782(2) -0.2341(3) 0.23854(19)
H1 H 0.56830 -0.25340 0.27380
C3 C 0.6117(3) -0.1798(4) 0.1367(2)
C4 C 0.5542(2) -0.0607(3) 0.1518(2)
C5 C 0.6146(3) -0.2806(4) 0.2085(3)
H2 H 0.62830 -0.32990 0.22340
C6 C 0.6295(3) -0.2537(5) 0.1581(3)
H3 H 0.65230 -0.28520 0.13710
C7 C 0.5688(3) -0.0274(5) 0.0990(3)
C8 C 0.4965(3) 0.0488(4) 0.1692(4)
H4 H 0.47200 0.07490 0.19200
C9 C 0.6270(4) -0.1439(7) 0.0843(3)
H5 H 0.65150 -0.17100 0.06210
C10 C 0.5091(4) 0.0842(5) 0.1157(4)
H6 H 0.49280 0.13370 0.10390
C11 C 0.6062(5) -0.0722(6) 0.0675(3)
H7 H 0.61680 -0.05070 0.03330
C12 C 0.5447(5) 0.0463(6) 0.0821(4)
H8 H 0.55290 0.07000 0.04760
N2 N 0.5204(2) -0.0219(2) 0.1859(2)
Mo1 Mo 0.212276(12) 0.173261(13) 0.446386(10)
Mo2 Mo 0.287372(13) 0.311268(14) 0.397021(11)
Mo3 Mo 0.178009(13) 0.433240(15) 0.426981(12)
Mo4 Mo 0.396170(13) 0.208190(14) 0.523900(12)
O1 O 0.29842(10) 0.20300(11) 0.42830(9)
O2 O 0.20835(10) 0.29765(11) 0.45192(9)
O3 O 0.11823(11) 0.39914(12) 0.47344(11)
O4 O 0.23952(11) 0.08010(11) 0.47113(9)
O5 O 0.14752(10) 0.18712(10) 0.49468(9)
O6 O 0.26601(11) 0.41491(11) 0.41063(9)
O7 O 0.15230(11) 0.16404(12) 0.37118(9)
O8 O 0.36546(12) 0.32262(12) 0.38155(11)
O9 O 0.22453(12) 0.29346(13) 0.32405(10)
O10 O 0.44836(12) 0.22692(14) 0.60088(12)
O11 O 0.12084(13) 0.41856(15) 0.35043(11)
O12 O 0.17885(13) 0.52944(13) 0.43810(12)
O13 O 0.45279(13) 0.21082(14) 0.48115(13)
Cu2 Cu 0.00000 1.03269(4) 0.75000
Cu3 Cu 0.13266(3) 0.82063(3) 0.33404(2)
N3 N 0.15507(17) 0.72043(16) 0.30149(13)
N4 N 0.02252(14) 0.99372(16) 0.67653(12)
C13 C 0.20633(18) 0.59223(18) 0.25420(15)
C14 C 0.1742(2) 0.65294(19) 0.21447(15)
H9 H 0.16980 0.65230 0.17140
N5 N 0.30780(15) 0.40774(15) 0.18978(13)
C15 C 0.26878(17) 0.39500(18) 0.22801(14)
H10 H 0.26450 0.34490 0.24030
N6 N 0.11413(16) 0.85060(17) 0.41390(12)
C16 C 0.05916(16) 0.93854(17) 0.57265(14)
C17 C 0.2772(2) 0.5407(2) 0.18994(18)
C18 C 0.1487(2) 0.71409(19) 0.23952(15)
H11 H 0.12580 0.75330 0.21180
C19 C 0.23455(17) 0.45198(17) 0.25026(14)
C20 C 0.23876(18) 0.52706(18) 0.23087(15)
C21 C 0.0744(2) 1.0264(2) 0.65878(17)
H12 H 0.09820 1.06890 0.68150
C22 C 0.1847(2) 0.6604(2) 0.33924(16)
H13 H 0.18850 0.66230 0.38220
C23 C 0.07841(16) 0.90792(17) 0.51767(14)
C24 C 0.09415(19) 1.0000(2) 0.60851(16)
H14 H 0.13130 1.02370 0.59880
C25 C 0.2095(2) 0.59650(19) 0.31735(15)
H15 H 0.22860 0.55600 0.34510
C26 C 0.0505(2) 0.8360(2) 0.42050(17)
H16 H 0.01770 0.80590 0.38960
C27 C -0.0105(2) 0.9342(2) 0.6423(2)
H17 H -0.04610 0.91000 0.65400
C28 C 0.03082(19) 0.8632(2) 0.47090(16)
H18 H -0.01420 0.85140 0.47320
C29 C 0.16073(19) 0.8937(2) 0.46014(16)
H19 H 0.20580 0.90380 0.45740
C30 C 0.0046(2) 0.9057(2) 0.59025(19)
H20 H -0.02160 0.86470 0.56710
C31 C 0.14433(18) 0.9232(2) 0.51116(16)
H21 H 0.17770 0.95360 0.54130
C32 C 0.3110(2) 0.4802(2) 0.17139(17)
H22 H 0.33740 0.49050 0.14470
Cl1 Cl 0.00000 1.16589(7) 0.75000
N1B N 0.44257(16) -0.1646(2) 0.28076(14)
C1B C 0.4249(2) -0.1364(3) 0.33046(18)
C2B C 0.4218(2) -0.2341(3) 0.26146(19)
H1B H 0.43170 -0.25340 0.22620
C3B C 0.3883(3) -0.1798(4) 0.3633(2)
C4B C 0.4458(2) -0.0607(3) 0.3482(2)
C5B C 0.3854(3) -0.2806(4) 0.2915(3)
H2B H 0.37170 -0.32990 0.27660
C6B C 0.3705(3) -0.2537(5) 0.3419(3)
H3B H 0.34770 -0.28520 0.36290
C7B C 0.4312(3) -0.0274(5) 0.4010(3)
C8B C 0.5035(3) 0.0488(4) 0.3308(4)
H4B H 0.52800 0.07490 0.30800
C9B C 0.3730(4) -0.1439(7) 0.4157(3)
H5B H 0.34850 -0.17100 0.43790
C10B C 0.4909(4) 0.0842(5) 0.3843(4)
H6B H 0.50720 0.13370 0.39610
C11B C 0.3938(5) -0.0722(6) 0.4325(3)
H7B H 0.38320 -0.05070 0.46670
C12B C 0.4553(5) 0.0463(6) 0.4179(4)
H8B H 0.44710 0.07000 0.45240
N2B N 0.4796(2) -0.0219(2) 0.3141(2)
Mo1E Mo 0.287724(12) 0.326739(13) 0.553614(10)
Mo2E Mo 0.212628(13) 0.188732(14) 0.602979(11)
Mo3E Mo 0.321991(13) 0.066760(15) 0.573019(12)
Mo4E Mo 0.103830(13) 0.291810(14) 0.476100(12)
O1E O 0.20158(10) 0.29700(11) 0.57170(9)
O2E O 0.29165(10) 0.20235(11) 0.54808(9)
O3E O 0.38177(11) 0.10086(12) 0.52656(11)
O4E O 0.26048(11) 0.41990(11) 0.52887(9)
O5E O 0.35248(10) 0.31288(10) 0.50532(9)
O6E O 0.23399(11) 0.08509(11) 0.58937(9)
O7E O 0.34770(11) 0.33596(12) 0.62882(9)
O8E O 0.13454(12) 0.17738(12) 0.61845(11)
O9E O 0.27547(12) 0.20654(13) 0.67595(10)
O10E O 0.05164(12) 0.27308(14) 0.39912(12)
O11E O 0.37916(13) 0.08144(15) 0.64957(11)
O12E O 0.32115(13) -0.02944(13) 0.56190(12)
O13E O 0.04721(13) 0.28918(14) 0.51885(13)
Cu3B Cu -0.13266(3) 0.82063(3) 1.16596(2)
Cu3C Cu 0.36734(3) 0.32063(3) 0.16596(2)
Cu3F Cu 0.13266(3) 1.17937(3) 0.83404(2)
Cu3D Cu -0.13266(3) 1.17937(3) 0.66596(2)
Cu3C* Cu 0.36734(3) 1.32063(3) 0.16596(2)
N3C N 0.34493(17) 1.22043(16) 0.19851(13)
N3B N -0.15507(17) 0.72043(16) 1.19851(13)
N4B N -0.02252(14) 0.99372(16) 0.82347(12)
C13C C 0.29367(18) 1.09223(18) 0.24580(15)
C14C C 0.3258(2) 1.15294(19) 0.28553(15)
H9C H 0.33020 1.15230 0.32860
N5C N 0.19220(15) 0.90774(15) 0.31022(13)
N5A N -0.19220(15) 0.90774(15) 1.18978(13)
C15C C 0.23122(17) 0.89500(18) 0.27199(14)
H10C H 0.23550 0.84490 0.25970
N6B N -0.11413(16) 0.85060(17) 1.08610(12)
C16B C -0.05916(16) 0.93854(17) 0.92735(14)
C17C C 0.2228(2) 1.0407(2) 0.31006(18)
C18C C 0.3513(2) 1.21409(19) 0.26048(15)
H11C H 0.37420 1.25330 0.28820
C19C C 0.26545(17) 0.95198(17) 0.24974(14)
C20C C 0.26124(18) 1.02706(18) 0.26913(15)
C21B C -0.0744(2) 1.0264(2) 0.84122(17)
H12B H -0.09820 1.06890 0.81850
C22C C 0.3153(2) 1.1604(2) 0.16076(16)
H13C H 0.31150 1.16230 0.11780
C23B C -0.07841(16) 0.90792(17) 0.98233(14)
C24B C -0.09415(19) 1.0000(2) 0.89149(16)
H14B H -0.13130 1.02370 0.90120
C25C C 0.2905(2) 1.09650(19) 0.18265(15)
H15C H 0.27140 1.05600 0.15490
C26B C -0.0505(2) 0.8360(2) 1.07950(17)
H16B H -0.01770 0.80590 1.11040
C27B C 0.0105(2) 0.9342(2) 0.8577(2)
H17B H 0.04610 0.91000 0.84600
C28B C -0.03082(19) 0.8632(2) 1.02910(16)
H18B H 0.01420 0.85140 1.02680
C29B C -0.16073(19) 0.8937(2) 1.03986(16)
H19B H -0.20580 0.90380 1.04260
C30B C -0.0046(2) 0.9057(2) 0.90975(19)
H20B H 0.02160 0.86470 0.93290
C31B C -0.14433(18) 0.9232(2) 0.98884(16)
H21B H -0.17770 0.95360 0.95870
C32C C 0.1890(2) 0.9802(2) 0.32861(17)
H22C H 0.16260 0.99050 0.35530
Cl1F Cl 0.00000 0.83411(7) 0.25000
Cl1F* Cl 0.00000 0.83411(7) 1.25000
#END
