
#######################################################################
#
#                 Cambridge Crystallographic Data Centre
#                                CCDC
#
#######################################################################
#
# If this CIF has been generated from an entry in the Cambridge
# Structural Database, then it will include bibliographic, chemical,
# crystal, experimental, refinement or atomic coordinate data resulting
# from the CCDC's data processing and validation procedures.
#
#######################################################################

data_CSD_CIF_NEYGUU
_audit_creation_date 2007-06-20
_audit_creation_method CSD-ConQuest-V1
_database_code_CSD NEYGUU
_database_code_depnum_ccdc_archive 'CCDC 611335'
_chemical_formula_sum 'C72 H70 N12 O73 P2 W18 Zn3'
_chemical_formula_moiety
;
(C48 H34 N8 O63 P2 W18 Zn2 2-)n,n(C24 H20 N4 O2 Zn1 2+),8n(H2 O1)
;
_journal_coden_Cambridge 119
_journal_volume 832
_journal_year 2007
_journal_page_first 117
_journal_name_full 'J.Mol.Struct. '
loop_
_publ_author_name
"Aixiang Tian"
"Zhangang Han"
"Jun Peng"
"Baoxia Dong"
"Jingquan Sha"
"Bin Li"
_chemical_name_systematic
;
catena-(Diaqua-bis(1,10-phenanthroline)-zinc 
bis(\m~9~-phosphato)-nonatriacontakis(\m~2~-oxo)-aqua-tetrakis(1,10-phenanthro
line)-pentadecaoxo-di-zinc-octadeca-tungsten octahydrate)
;
_cell_volume   5564.619
_exptl_crystal_colour 'yellow'
_exptl_crystal_density_diffrn 3.471
_exptl_special_details
;
photoluminescent

;
_exptl_crystal_description 'block'
_diffrn_ambient_temperature 293
_refine_special_details
;
Two water molecules are equally disordered over two sites.

;
#These two values have been output from a single CSD field.
_refine_ls_R_factor_gt 0.0371
_refine_ls_wR_factor_gt 0.0371
_symmetry_cell_setting triclinic
_symmetry_space_group_name_H-M 'P -1'
_symmetry_Int_Tables_number 2
loop_
_symmetry_equiv_pos_site_id
_symmetry_equiv_pos_as_xyz
1 x,y,z
2 -x,-y,-z
_cell_length_a 14.1898(9)
_cell_length_b 16.2417(11)
_cell_length_c 25.9000(17)
_cell_angle_alpha 77.300(1)
_cell_angle_beta 88.602(1)
_cell_angle_gamma 73.036(1)
_cell_formula_units_Z 2
loop_
_atom_type_symbol
_atom_type_radius_bond
C 0.68
H 0.23
N 0.68
O 0.68
P 1.05
W 1.37
Zn 1.45
loop_
_atom_site_label
_atom_site_type_symbol
_atom_site_fract_x
_atom_site_fract_y
_atom_site_fract_z
P1 P 0.22277(18) 1.26473(15) -0.21282(9)
P2 P 0.09602(17) 1.52385(14) -0.23891(9)
W1 W -0.11860(3) 1.48751(2) -0.278834(16)
W2 W 0.44478(3) 1.30187(3) -0.179114(16)
W3 W -0.07059(3) 1.48599(3) -0.139225(16)
W4 W 0.39530(3) 1.30713(3) -0.306652(16)
W5 W 0.16270(3) 1.27578(3) -0.346062(16)
W6 W 0.04237(3) 1.52162(2) -0.371612(15)
W7 W 0.27541(3) 1.55095(2) -0.333030(16)
W8 W 0.26632(3) 1.26132(3) -0.078641(16)
W9 W 0.00014(3) 1.24198(3) -0.253364(16)
W10 W -0.12478(3) 1.69576(2) -0.240009(16)
W11 W 0.32422(3) 1.54765(3) -0.205639(16)
W12 W 0.35741(3) 1.08671(2) -0.266807(16)
W13 W 0.04338(3) 1.72816(2) -0.331048(15)
W14 W 0.14639(3) 1.50577(2) -0.103735(15)
W15 W 0.08967(3) 1.72065(2) -0.201664(16)
W16 W 0.05006(3) 1.24116(3) -0.114820(16)
W17 W 0.19335(3) 1.05435(2) -0.173881(17)
W18 W 0.40907(3) 1.07946(3) -0.138698(16)
O1 O 0.1791(5) 1.2852(4) -0.1607(3)
O2 O -0.4364(6) 1.4838(5) -0.2781(3)
O3 O 0.2732(5) 1.1628(4) -0.2027(2)
O4 O 0.0698(5) 1.0043(5) -0.5963(3)
O5 O 0.3031(5) 1.3097(4) -0.2297(3)
O6 O 0.2352(6) 1.0647(5) -0.6354(3)
O7 O 0.1429(5) 1.2881(4) -0.2565(2)
O8 O 0.3372(9) 1.4496(8) 0.0338(5)
O9 O 0.0466(5) 1.6269(4) -0.2494(3)
O10 O -0.0198(7) 0.9169(6) -0.6477(4)
O11 O 0.0440(5) 1.4890(4) -0.2772(3)
O12 O 0.3882(6) 1.1050(6) -0.6888(3)
O13 O 0.2042(4) 1.5107(4) -0.2510(3)
O14 O 0.2498(15) 1.7302(14) 0.0823(8)
O15 O 0.0806(5) 1.4856(4) -0.1810(3)
O16 O 0.4253(8) 1.4248(7) -0.0587(4)
O17 O 0.1505(5) 0.9629(4) -0.1560(3)
O18 O 0.1410(7) 1.0640(5) -0.7285(4)
O19 O 0.1050(5) 1.8034(4) -0.1736(3)
O20 O -0.3363(16) 1.4209(15) -0.1868(9)
O21 O 0.0500(5) 1.2390(4) -0.3232(3)
O22 O 0.3942(12) 1.5558(10) 0.0887(6)
O23 O -0.2423(5) 1.4995(4) -0.2904(3)
O24 O -0.0640(12) 1.0482(10) -0.7334(6)
O25 O 0.0298(5) 1.8143(4) -0.3856(3)
O26? O -0.2997(17) 1.3839(15) -0.1955(9)
O27 O -0.1721(5) 1.4880(4) -0.1030(3)
O28? O -0.027(2) 1.0212(19) -0.7501(12)
O29 O -0.0040(5) 1.2593(4) -0.1833(3)
O30 O -0.2433(5) 1.7626(4) -0.2390(3)
O31 O 0.5024(5) 1.0093(4) -0.0970(3)
O32 O 0.1772(5) 1.5279(4) -0.0463(3)
O33 O 0.2488(5) 1.1596(4) -0.3122(3)
O34 O 0.1671(5) 1.2570(4) -0.4085(3)
O35 O 0.3162(5) 1.2438(4) -0.0165(3)
O36 O 0.3333(5) 1.5824(4) -0.3888(3)
O37 O 0.0938(5) 1.6313(4) -0.1430(3)
O38 O -0.0332(5) 1.2013(5) -0.0760(3)
O39 O -0.0868(5) 1.7555(4) -0.3060(3)
O40 O 0.4222(5) 1.0163(4) -0.3045(3)
O41 O 0.1772(5) 1.5153(4) -0.3615(3)
O42 O -0.1066(5) 1.4618(4) -0.2038(3)
O43 O 0.1776(5) 1.6604(4) -0.3333(3)
O44 O 0.0254(5) 1.5485(4) -0.4385(3)
O45 O 0.0113(5) 1.5093(4) -0.0914(2)
O46 O -0.0525(5) 1.7543(4) -0.2061(3)
O47 O -0.0859(5) 1.5189(4) -0.3511(3)
O48 O 0.0846(5) 1.3964(4) -0.3609(3)
O49 O 0.2755(5) 1.3141(4) -0.3400(3)
O50 O 0.4828(5) 1.2973(4) -0.2490(3)
O51 O 0.3533(5) 1.4315(4) -0.3139(3)
O52 O 0.3575(5) 1.3063(4) -0.1218(3)
O53 O 0.3956(5) 1.4268(4) -0.2006(3)
O54 O 0.1285(5) 1.1274(4) -0.1286(3)
O55 O -0.0986(5) 1.2034(4) -0.2567(3)
O56 O 0.2201(5) 1.6569(4) -0.2136(3)
O57 O 0.4748(5) 1.3020(4) -0.3573(3)
O58 O 0.5544(5) 1.2928(5) -0.1497(3)
O59 O 0.1486(5) 1.2289(4) -0.0623(3)
O60 O 0.4111(5) 1.1827(4) -0.2842(3)
O61 O -0.1094(5) 1.6084(4) -0.1763(3)
O62 O 0.3505(5) 1.5740(4) -0.2791(3)
O63 O 0.0942(5) 1.1292(4) -0.2255(3)
O64 O 0.4408(5) 1.0429(4) -0.2032(3)
O65 O 0.1880(5) 1.3835(4) -0.0856(3)
O66 O -0.0045(5) 1.3629(4) -0.1175(3)
O67 O 0.4570(5) 1.1767(4) -0.1645(3)
O68 O 0.3314(5) 1.1507(4) -0.0933(3)
O69 O 0.2736(5) 1.0227(4) -0.2316(3)
O70 O 0.4137(5) 1.5793(4) -0.1807(3)
O71 O 0.3110(5) 1.0167(4) -0.1312(3)
O72 O 0.0148(5) 1.6404(4) -0.3609(3)
O73 O 0.2581(5) 1.5092(4) -0.1439(3)
O74 O -0.0636(5) 1.3678(4) -0.2772(3)
O75 O 0.0787(5) 1.7786(4) -0.2770(3)
O76 O -0.1409(5) 1.6099(4) -0.2748(3)
Zn1 Zn 0.0979(1) 0.86553(8) -0.09843(6)
Zn2 Zn -0.39438(9) 1.59002(8) -0.32435(5)
Zn3 Zn 0.22685(9) 0.94597(8) -0.58285(5)
C1 C 0.2827(11) 0.7036(8) -0.0889(5)
H1 H 0.24620 0.68140 -0.10870
C2 C 0.3802(12) 0.6557(10) -0.0745(6)
H2 H 0.40820 0.60160 -0.08350
C3 C 0.4336(12) 0.6903(14) -0.0469(6)
H3 H 0.49990 0.66040 -0.03850
C4 C 0.3921(10) 0.769(1) -0.0307(5)
C5 C 0.2920(8) 0.8122(8) -0.0452(4)
C6 C 0.4421(14) 0.8154(17) -0.0005(7)
H4 H 0.50930 0.79240 0.00830
C7 C 0.3900(17) 0.8896(15) 0.0138(8)
H5 H 0.42190 0.91490 0.03410
C8 C 0.2894(14) 0.9311(11) -0.0005(6)
C9 C 0.2406(10) 0.8923(8) -0.0305(5)
C10 C 0.2364(19) 1.0125(12) 0.0126(5)
H6 H 0.26600 1.04190 0.03120
C11 C 0.1392(16) 1.0445(11) -0.0042(5)
H7 H 0.10140 1.09610 0.00500
C12 C 0.0957(12) 1.0066(8) -0.0327(6)
H8 H 0.03030 1.03420 -0.04450
C13 C 0.0431(9) 0.7017(7) -0.0317(4)
H9 H 0.10680 0.68270 -0.01660
C14 C -0.0144(10) 0.6470(7) -0.0187(5)
H10 H 0.00960 0.59280 0.00490
C15 C -0.1064(11) 0.6718(8) -0.0404(5)
H11 H -0.14550 0.63390 -0.03290
C16 C -0.1428(9) 0.7550(8) -0.0742(5)
C17 C -0.0780(8) 0.8083(7) -0.0852(4)
C18 C -0.2407(12) 0.7904(11) -0.0966(6)
H12 H -0.28270 0.75500 -0.09110
C19 C -0.2738(11) 0.8723(12) -0.1251(6)
H13 H -0.33850 0.89270 -0.13880
C20 C -0.1121(8) 0.8960(8) -0.1162(4)
C21 C -0.2133(11) 0.9305(11) -0.1356(5)
C22 C -0.244(1) 1.0200(11) -0.1608(6)
H14 H -0.30880 1.04610 -0.17380
C23 C -0.1798(11) 1.0698(11) -0.1665(7)
H15 H -0.20110 1.13010 -0.18150
C24 C -0.0829(10) 1.0283(9) -0.1496(6)
H16 H -0.03870 1.06150 -0.15620
C25 C -0.3513(8) 1.6207(7) -0.2124(4)
H17 H -0.29340 1.57450 -0.21040
C26 C -0.3754(10) 1.6595(8) -0.1691(5)
H18 H -0.33350 1.63950 -0.13910
C27 C -0.4608(10) 1.7274(8) -0.1706(5)
H19 H -0.47590 1.75510 -0.14240
C28 C -0.5247(9) 1.7539(7) -0.2154(5)
C29 C -0.4947(8) 1.7125(7) -0.2581(4)
C30 C -0.6188(10) 1.8208(8) -0.2207(6)
H20 H -0.63930 1.84820 -0.19270
C31 C -0.6768(10) 1.8445(9) -0.2634(5)
H21 H -0.73600 1.88900 -0.26510
C32 C -0.5575(8) 1.7364(7) -0.3044(5)
C33 C -0.651(1) 1.8030(7) -0.3083(5)
C34 C -0.707(1) 1.8224(7) -0.3532(6)
H22 H -0.76810 1.86500 -0.35670
C35 C -0.6759(10) 1.7809(8) -0.3934(6)
H23 H -0.71570 1.79350 -0.42380
C36 C -0.5820(8) 1.7183(7) -0.3881(5)
H24 H -0.55860 1.69330 -0.41670
C37 C -0.4418(9) 1.4695(7) -0.3951(5)
H25 H -0.48330 1.45450 -0.36870
C38 C -0.4305(8) 1.4299(7) -0.4374(4)
H26 H -0.46300 1.38840 -0.43910
C39 C -0.3706(8) 1.4522(7) -0.4775(4)
H27 H -0.36440 1.42780 -0.50710
C40 C -0.3352(8) 1.5495(7) -0.4295(4)
C41 C -0.3195(8) 1.5121(6) -0.4728(4)
C42 C -0.2503(8) 1.5348(7) -0.5106(4)
H28 H -0.23930 1.50940 -0.53990
C43 C -0.2020(9) 1.5908(7) -0.5050(4)
H29 H -0.15610 1.60240 -0.52960
C44 C -0.2860(8) 1.6144(6) -0.4235(4)
C45 C -0.2200(8) 1.6352(7) -0.4602(4)
C46 C -0.1761(8) 1.6998(6) -0.4537(4)
H30 H -0.13020 1.71470 -0.47740
C47 C -0.2008(8) 1.7395(7) -0.4133(4)
H31 H -0.17530 1.78470 -0.40980
C48 C -0.2658(7) 1.7123(6) -0.3760(4)
H32 H -0.28040 1.73920 -0.34740
C49 C 0.4584(9) 0.8374(8) -0.5735(5)
H33 H 0.44850 0.82280 -0.60530
C50 C 0.5521(9) 0.8032(8) -0.5490(5)
H34 H 0.60270 0.76630 -0.56400
C51 C 0.5687(9) 0.8245(7) -0.5027(5)
H35 H 0.63040 0.80040 -0.48530
C52 C 0.4927(8) 0.8829(7) -0.4813(5)
C53 C 0.3996(8) 0.9122(6) -0.5093(4)
C54 C 0.5028(9) 0.9117(8) -0.4352(4)
H36 H 0.56330 0.89040 -0.41650
C55 C 0.4278(10) 0.9692(8) -0.4168(5)
H37 H 0.43790 0.98860 -0.38680
C56 C 0.3165(8) 0.9716(7) -0.4883(4)
C57 C 0.3330(9) 1.0004(7) -0.4435(4)
C58 C 0.2519(9) 1.0596(7) -0.4249(4)
H38 H 0.25880 1.08010 -0.39480
C59 C 0.1625(9) 1.0858(8) -0.4526(5)
H39 H 0.10840 1.12550 -0.44180
C60 C 0.1538(9) 1.0529(8) -0.4966(5)
H40 H 0.09270 1.07050 -0.51450
C61 C 0.3096(8) 0.8925(7) -0.6857(4)
H41 H 0.32490 0.94570 -0.69360
C62 C 0.3390(7) 0.8343(7) -0.7201(4)
H42 H 0.37470 0.84810 -0.74970
C63 C 0.3145(7) 0.7584(7) -0.7096(4)
H43 H 0.33400 0.71940 -0.73200
C64 C 0.2602(8) 0.7376(7) -0.6656(4)
C65 C 0.2378(7) 0.7970(6) -0.6315(4)
C66 C 0.2245(8) 0.6626(7) -0.6531(5)
H44 H 0.23950 0.62270 -0.67510
C67 C 0.1705(8) 0.6471(8) -0.6112(5)
H45 H 0.14490 0.59940 -0.60590
C68 C 0.1878(8) 0.7763(6) -0.5843(4)
C69 C 0.1521(8) 0.7025(7) -0.5752(4)
C70 C 0.0997(8) 0.6866(7) -0.5282(5)
H46 H 0.07460 0.63860 -0.52060
C71 C 0.0867(9) 0.7423(8) -0.4941(5)
H47 H 0.05220 0.73290 -0.46340
C72 C 0.1270(8) 0.8151(7) -0.5066(4)
H48 H 0.11850 0.85240 -0.48310
N1 N 0.2392(7) 0.7802(6) -0.0755(4)
N2 N 0.1440(8) 0.9279(6) -0.0454(4)
N3 N -0.0476(7) 0.9433(6) -0.1244(4)
N4 N 0.0140(7) 0.7806(5) -0.0645(3)
N5 N -0.4094(6) 1.6478(5) -0.2572(3)
N6 N -0.5268(7) 1.6940(6) -0.3451(4)
N7 N -0.3067(6) 1.6508(5) -0.3795(3)
N8 N -0.3963(6) 1.5284(5) -0.3900(3)
N9 N 0.3824(6) 0.8896(6) -0.5541(3)
N10 N 0.2294(6) 0.9968(5) -0.5145(4)
N11 N 0.1754(6) 0.8318(6) -0.5496(3)
N12 N 0.2611(7) 0.8741(5) -0.6426(3)
O19* O 0.1050(5) 0.8034(4) -0.1736(3)
Zn1* Zn 0.0979(1) 1.86553(8) -0.09843(6)
#END
