
#######################################################################
#
#                 Cambridge Crystallographic Data Centre
#                                CCDC
#
#######################################################################
#
# If this CIF has been generated from an entry in the Cambridge
# Structural Database, then it will include bibliographic, chemical,
# crystal, experimental, refinement or atomic coordinate data resulting
# from the CCDC's data processing and validation procedures.
#
#######################################################################

data_CSD_CIF_NEYHAB
_audit_creation_date 2007-06-20
_audit_creation_method CSD-ConQuest-V1
_database_code_CSD NEYHAB
_database_code_depnum_ccdc_archive 'CCDC 611336'
_chemical_formula_sum 'C60 H58 Cd3 N10 O71 P2 W18'
_chemical_formula_moiety
;
(C24 H20 Cd1 N4 O2 2+)n,n(C36 H30 Cd2 N6 O65 P2 W18 2-),4n(H2 O1)
;
_journal_coden_Cambridge 119
_journal_volume 832
_journal_year 2007
_journal_page_first 117
_journal_name_full 'J.Mol.Struct. '
loop_
_publ_author_name
"Aixiang Tian"
"Zhangang Han"
"Jun Peng"
"Baoxia Dong"
"Jingquan Sha"
"Bin Li"
_chemical_name_systematic
;
catena-(Diaqua-bis(1,10-phenanthroline)-cadmium 
bis(\m~9~-phosphato)-nonatriacontakis(\m~2~-oxo)-triaqua-tris(1,10-phenanthrol
ine)-pentadecaoxo-di-cadmium-octadeca-tungsten tetrahydrate)
;
_cell_volume   5314.837
_exptl_crystal_colour 'yellow'
_exptl_crystal_density_diffrn 3.59
_exptl_special_details
;
photoluminescent

;
_exptl_crystal_description 'block'
_diffrn_ambient_temperature 293
_refine_special_details
;
A water molecule is disordered over two sites with occupancies of 0.6:0.4.

;
#These two values have been output from a single CSD field.
_refine_ls_R_factor_gt 0.0579
_refine_ls_wR_factor_gt 0.0579
_symmetry_cell_setting triclinic
_symmetry_space_group_name_H-M 'P -1'
_symmetry_Int_Tables_number 2
loop_
_symmetry_equiv_pos_site_id
_symmetry_equiv_pos_as_xyz
1 x,y,z
2 -x,-y,-z
_cell_length_a 13.2333(7)
_cell_length_b 15.5654(9)
_cell_length_c 27.6077(16)
_cell_angle_alpha 97.166(1)
_cell_angle_beta 100.176(1)
_cell_angle_gamma 105.140(1)
_cell_formula_units_Z 2
loop_
_atom_type_symbol
_atom_type_radius_bond
C 0.68
H 0.23
Cd 1.69
N 0.68
O 0.68
P 1.05
W 1.37
loop_
_atom_site_label
_atom_site_type_symbol
_atom_site_fract_x
_atom_site_fract_y
_atom_site_fract_z
P1 P 0.3740(3) -0.0158(2) 0.74836(16)
P2 P 0.1809(3) -0.2640(2) 0.73169(17)
W1 W 0.15937(5) 0.04627(4) 0.68264(3)
W2 W 0.31791(5) -0.03382(4) 0.61747(3)
W3 W 0.20400(5) 0.06130(4) 0.81881(3)
W4 W 0.13569(5) -0.26994(4) 0.60000(3)
W5 W 0.35448(5) -0.34157(4) 0.66881(3)
W6 W 0.53917(5) -0.10677(4) 0.68409(3)
W7 W -0.02183(5) -0.19103(4) 0.66639(3)
W8 W 0.58394(5) -0.09021(4) 0.80930(3)
W9 W 0.02423(5) -0.17487(4) 0.80322(3)
W10 W 0.40347(5) -0.32653(4) 0.79371(3)
W11 W 0.55701(5) 0.13642(4) 0.69883(3)
W12 W 0.12321(5) -0.46635(4) 0.77991(3)
W13 W 0.40689(5) -0.00376(5) 0.87892(3)
W14 W 0.39630(5) 0.21798(4) 0.76379(3)
W15 W 0.22642(6) -0.24087(5) 0.86309(3)
W16 W -0.08252(5) -0.39945(4) 0.72054(3)
W17 W 0.60125(5) 0.15197(4) 0.82442(3)
W18 W 0.07389(5) -0.47912(4) 0.65383(3)
O1 O 0.4521(8) 0.0834(7) 0.7549(5)
O2 O 0.3591(15) -0.5794(11) 0.6862(6)
O3 O 0.4452(8) -0.0789(7) 0.7458(4)
O4 O 0.6034(12) -0.4109(11) 0.6780(9)
O5 O 0.3248(8) -0.0205(7) 0.7941(4)
O6 O 0.5758(13) -0.6073(9) 0.6862(7)
O7 O 0.2898(8) -0.0320(7) 0.6999(5)
O8 O 0.0486(16) 0.3950(13) -0.0107(10)
O9 O 0.1037(7) -0.3640(6) 0.7252(4)
O10 O 0.1189(15) 0.3004(12) 0.0896(8)
O11 O 0.1398(8) -0.2216(7) 0.6868(5)
O12 O 0.7210(19) -0.2926(16) 0.8311(10)
O13 O 0.1742(8) -0.2119(7) 0.7822(5)
O14 O 0.1617(17) -0.6911(12) 0.6806(10)
O15 O 0.2921(8) -0.2739(7) 0.7323(4)
O16 O -0.2190(8) -0.4445(8) 0.7160(6)
O17 O 0.713(2) -0.252(2) 0.7375(16)
O18 O 0.2700(8) -0.2916(7) 0.6252(5)
O19 O 0.731(3) -0.609(2) 0.7817(16)
O20 O 0.7124(10) 0.2166(8) 0.8683(6)
O21 O 0.1155(9) -0.5500(7) 0.8142(5)
O22 O 0.0434(10) -0.5725(8) 0.6081(5)
O23 O 0.3790(9) 0.3237(7) 0.7695(5)
O24 O 0.3015(9) 0.0602(8) 0.8786(5)
O25 O 0.1280(8) 0.1213(7) 0.8437(5)
O26 O 0.4294(9) 0.0726(7) 0.6496(5)
O27 O 0.6369(9) 0.1907(7) 0.6629(5)
O28 O -0.0778(8) -0.3128(7) 0.6777(5)
O29 O 0.2809(9) 0.1510(7) 0.7102(5)
O30 O 0.6241(9) -0.1244(8) 0.6455(4)
O31 O 0.4064(8) -0.4025(7) 0.6282(4)
O32 O 0.4202(9) -0.3715(7) 0.7279(6)
O33 O 0.6276(8) 0.0375(7) 0.8141(5)
O34 O 0.4843(9) -0.3722(7) 0.8316(4)
O35 O 0.3444(9) -0.2673(7) 0.8399(5)
O36 O 0.1451(8) 0.0398(7) 0.7491(4)
O37 O 0.1179(8) -0.3034(7) 0.5384(5)
O38 O 0.2506(10) -0.2601(9) 0.9229(6)
O39 O 0.0711(8) -0.3867(7) 0.6174(5)
O40 O 0.4626(8) -0.2302(7) 0.6819(5)
O41 O 0.0685(9) 0.1016(8) 0.6608(5)
O42 O 0.6915(9) -0.0989(8) 0.8496(5)
O43 O 0.1468(9) -0.3637(7) 0.8305(5)
O44 O 0.3025(9) -0.1154(7) 0.8745(5)
O45 O 0.4209(8) -0.0978(6) 0.6388(4)
O46 O 0.2110(8) 0.0266(7) 0.6238(5)
O47 O 0.5042(8) 0.0993(7) 0.8627(5)
O48 O 0.1207(9) -0.0578(7) 0.8213(5)
O49 O -0.1441(8) -0.1734(7) 0.6438(5)
O50 O 0.0664(8) -0.0751(7) 0.6638(4)
O51 O 0.3278(8) -0.0294(7) 0.5574(5)
O52 O 0.4876(8) 0.2275(7) 0.7163(4)
O53 O 0.4934(9) -0.0702(8) 0.8519(4)
O54 O 0.0073(8) -0.2396(7) 0.6050(5)
O55 O -0.0840(9) -0.1556(8) 0.8242(6)
O56 O 0.6260(8) -0.1054(7) 0.7461(5)
O57 O 0.2100(8) -0.1463(7) 0.6060(4)
O58 O 0.4611(10) 0.0165(8) 0.9410(5)
O59 O 0.0995(9) -0.5310(7) 0.7143(6)
O60 O -0.0256(9) -0.4698(8) 0.7656(5)
O61 O -0.0455(9) -0.3019(7) 0.7729(5)
O62 O 0.3106(8) 0.1615(7) 0.8054(5)
O63 O -0.0024(8) -0.1561(6) 0.7349(4)
O64 O -0.0634(9) -0.4814(7) 0.6654(5)
O65 O 0.5232(10) 0.2387(7) 0.8162(5)
O66 O 0.5041(8) -0.2153(7) 0.7938(5)
O67 O 0.5869(8) 0.0232(6) 0.6967(5)
O68 O 0.2267(9) -0.4359(7) 0.6653(5)
O69 O 0.6474(8) 0.1762(7) 0.7640(4)
O70 O 0.0941(8) -0.2124(7) 0.8591(5)
O71 O 0.2722(8) -0.4235(6) 0.7828(4)
Cd1 Cd 0.16871(13) 0.31253(9) 0.01560(7)
Cd2 Cd 0.47802(12) -0.53243(9) 0.63612(6)
Cd3 Cd 0.78181(9) -0.06312(8) 0.61167(5)
N1 N 0.8406(11) 0.0137(9) 0.6922(6)
N2 N 0.8135(10) 0.0894(9) 0.6079(5)
N3 N 0.8548(12) -0.1001(9) 0.5438(6)
N4 N 0.6490(11) -0.1027(9) 0.5404(6)
N5 N 0.5586(12) -0.5736(10) 0.5727(8)
N6 N 0.3488(11) -0.5797(9) 0.5645(6)
N7 N 0.2532(14) 0.3624(10) -0.0480(7)
N8 N 0.3036(14) 0.4466(10) 0.0493(7)
N9 N 0.2520(14) 0.2002(11) 0.0263(8)
N10 N 0.0500(12) 0.1801(9) -0.0310(7)
C1 C 0.8512(12) -0.0209(12) 0.7313(7)
H1 H 0.83910 -0.08320 0.72770
C2 C 0.8810(14) 0.0317(13) 0.7807(7)
H2 H 0.88820 0.00410 0.80860
C3 C 0.8989(14) 0.1238(13) 0.7862(9)
H3 H 0.91810 0.15950 0.81780
C4 C 0.8877(14) 0.1620(13) 0.7440(8)
C5 C 0.8594(12) 0.1057(12) 0.6961(8)
C6 C 0.9063(15) 0.2569(12) 0.7471(9)
H4 H 0.92950 0.29420 0.77840
C7 C 0.8909(16) 0.2940(13) 0.7057(10)
H5 H 0.89840 0.35560 0.70920
C8 C 0.8634(13) 0.2402(10) 0.6565(8)
C9 C 0.8436(13) 0.1481(11) 0.6517(7)
C10 C 0.8488(13) 0.2744(11) 0.6131(7)
H6 H 0.86030 0.33630 0.61450
C11 C 0.8177(13) 0.2174(12) 0.5683(9)
H7 H 0.80720 0.24050 0.53900
C12 C 0.8012(14) 0.1239(12) 0.5658(9)
H8 H 0.78170 0.08580 0.53480
C13 C 0.9580(15) -0.0948(13) 0.5457(8)
H9 H 1.00800 -0.06950 0.57560
C14 C 0.9925(15) -0.1272(14) 0.5031(9)
H10 H 1.06470 -0.12250 0.50490
C15 C 0.9210(15) -0.1642(13) 0.4607(8)
H11 H 0.94380 -0.18610 0.43290
C16 C 0.8108(13) -0.1714(10) 0.4564(7)
C17 C 0.7802(12) -0.1383(10) 0.5001(7)
C18 C 0.7291(16) -0.2101(12) 0.4105(9)
H12 H 0.74820 -0.23170 0.38160
C19 C 0.6271(15) -0.2144(11) 0.4101(7)
H13 H 0.57500 -0.24170 0.38100
C20 C 0.5959(15) -0.1774(11) 0.4541(7)
C21 C 0.6716(13) -0.1399(11) 0.4978(6)
C22 C 0.4897(14) -0.1748(11) 0.4519(7)
H14 H 0.43680 -0.20000 0.42290
C23 C 0.4669(16) -0.1341(12) 0.4937(9)
H15 H 0.39820 -0.12910 0.49290
C24 C 0.5469(14) -0.0996(12) 0.5381(8)
H16 H 0.52910 -0.07400 0.56650
C25 C 0.6620(18) -0.5711(14) 0.5756(10)
H17 H 0.70940 -0.54900 0.60660
C26 C 0.7026(18) -0.6000(14) 0.5348(10)
H18 H 0.77460 -0.59780 0.53870
C27 C 0.631(2) -0.6326(14) 0.4880(11)
H19 H 0.65540 -0.65210 0.46030
C28 C 0.5228(17) -0.6356(13) 0.4829(9)
C29 C 0.4901(16) -0.6045(11) 0.5273(8)
C30 C 0.4484(19) -0.6710(13) 0.4381(9)
H20 H 0.46960 -0.69530 0.41040
C31 C 0.3444(19) -0.6708(14) 0.4341(10)
H21 H 0.29680 -0.69440 0.40340
C32 C 0.3048(17) -0.6359(12) 0.4750(8)
C33 C 0.3820(16) -0.6082(11) 0.5221(9)
C34 C 0.2012(15) -0.6341(13) 0.4729(8)
H22 H 0.15170 -0.65040 0.44250
C35 C 0.1713(14) -0.6080(12) 0.5163(8)
H23 H 0.10070 -0.60860 0.51600
C36 C 0.2487(13) -0.5806(11) 0.5609(8)
H24 H 0.22790 -0.56170 0.58990
C37 C 0.229(2) 0.3180(15) -0.0949(9)
H25 H 0.18120 0.26010 -0.10320
C38 C 0.2737(17) 0.3569(14) -0.1313(9)
H26 H 0.26350 0.32210 -0.16260
C39 C 0.3328(16) 0.4456(15) -0.1220(9)
H27 H 0.35580 0.47330 -0.14770
C40 C 0.3578(16) 0.4935(15) -0.0737(8)
C41 C 0.3177(16) 0.4483(12) -0.0352(8)
C42 C 0.4226(17) 0.5843(14) -0.0613(10)
H28 H 0.44580 0.61550 -0.08580
C43 C 0.4502(17) 0.6249(15) -0.0119(10)
H29 H 0.49610 0.68360 -0.00330
C44 C 0.4120(16) 0.5816(13) 0.0283(10)
C45 C 0.3448(15) 0.4943(12) 0.0156(8)
C46 C 0.4390(18) 0.6235(13) 0.0806(11)
H30 H 0.48280 0.68280 0.09070
C47 C 0.403(2) 0.5792(15) 0.1128(9)
H31 H 0.42070 0.60590 0.14640
C48 C 0.333(2) 0.4849(16) 0.0965(10)
H32 H 0.30850 0.45240 0.12030
C49 C 0.3495(16) 0.2089(14) 0.0505(10)
H33 H 0.39000 0.26600 0.06830
C50 C 0.3959(18) 0.1408(18) 0.0516(10)
H34 H 0.46500 0.15080 0.07030
C51 C 0.3393(18) 0.0579(16) 0.0249(9)
H35 H 0.37040 0.01080 0.02490
C52 C 0.2365(15) 0.0421(13) -0.0025(8)
C53 C 0.1973(16) 0.1177(13) -0.0014(8)
C54 C 0.1714(17) -0.0432(16) -0.0319(8)
H36 H 0.20030 -0.09160 -0.03430
C55 C 0.0707(16) -0.0555(12) -0.0559(9)
H37 H 0.02830 -0.11310 -0.07200
C56 C 0.0276(17) 0.0193(13) -0.0572(9)
C57 C 0.0875(14) 0.1067(11) -0.0301(7)
C58 C -0.0790(16) 0.0111(13) -0.0845(8)
H38 H -0.12220 -0.04540 -0.10180
C59 C -0.1167(14) 0.0806(13) -0.0857(8)
H39 H -0.18440 0.07490 -0.10460
C60 C -0.0505(16) 0.1655(14) -0.0568(8)
H40 H -0.07910 0.21410 -0.05580
O72 O 0.037(3) 0.428(2) 0.1216(15)
O73? O 0.117(5) 0.549(4) -0.046(2)
O74 O 0.406(3) 0.494(3) 0.2248(17)
O49* O 0.8559(8) -0.1734(7) 0.6438(5)
Cd3* Cd -0.21819(9) -0.06312(8) 0.61167(5)
#END
