
#######################################################################
#
#                 Cambridge Crystallographic Data Centre
#                                CCDC
#
#######################################################################
#
# If this CIF has been generated from an entry in the Cambridge
# Structural Database, then it will include bibliographic, chemical,
# crystal, experimental, refinement or atomic coordinate data resulting
# from the CCDC's data processing and validation procedures.
#
#######################################################################

data_CSD_CIF_NEYJIM
_audit_creation_date 2013-05-23
_audit_creation_method CSD-ConQuest-V1
_database_code_CSD NEYJIM
_database_code_depnum_ccdc_archive 'CCDC 873824'
_chemical_formula_sum 'C24 H26 Cl1 Cu5 Mo12 N12 O41 P1'
_chemical_formula_moiety
;
(C24 H24 Cl1 Cu5 N12 4+)n,n(Mo12 O40 P1 4-),n(H2 O1)
;
_journal_coden_Cambridge 222
_journal_volume 42
_journal_year 2013
_journal_page_first 7586
_journal_name_full 'Dalton Trans. '
loop_
_publ_author_name
"Ming-Li Qi"
"Kai Yu"
"Zhan-Hua Su"
"Chun-Xiao Wang"
"Chun-Mei Wang"
"Bai-Bin Zhou"
"Chun-Cheng Zhu"
_chemical_name_systematic
;
catena-((\m~3~-Chloro)-hexakis(\m~2~-pyrazine)-penta-copper 
(\m~12~-phosphato)-tetracosakis(\m~2~-oxo)-dodecaoxo-dodeca-molybdenum 
monohydrate)
;
_cell_volume   2887.948
_exptl_crystal_density_diffrn 3.149
_exptl_special_details
;
Atom O40 in the cif appears to be wrongly assigned as an oxygen; we have 
re-assigned this as a nitrogen
;
_exptl_crystal_description 'block'
_diffrn_ambient_temperature 273
_refine_special_details
;
The phosphate moieties of the anions are disordered by symmetry.

;
#These two values have been output from a single CSD field.
_refine_ls_R_factor_gt 0.0511
_refine_ls_wR_factor_gt 0.0511
_symmetry_cell_setting triclinic
_symmetry_space_group_name_H-M 'P -1'
_symmetry_Int_Tables_number 2
loop_
_symmetry_equiv_pos_site_id
_symmetry_equiv_pos_as_xyz
1 x,y,z
2 -x,-y,-z
_cell_length_a 11.6554(8)
_cell_length_b 13.4045(9)
_cell_length_c 20.6797(13)
_cell_angle_alpha 89.141(1)
_cell_angle_beta 76.439(1)
_cell_angle_gamma 67.332(1)
_cell_formula_units_Z 2
loop_
_atom_type_symbol
_atom_type_radius_bond
C 0.68
H 0.23
Cl 0.99
Cu 1.32
Mo 1.54
N 0.68
O 0.68
P 1.05
loop_
_atom_site_label
_atom_site_type_symbol
_atom_site_fract_x
_atom_site_fract_y
_atom_site_fract_z
Mo1 Mo 0.54561(7) 0.54779(5) 0.32775(3)
Mo2 Mo 0.24697(6) 0.69742(5) 0.61991(3)
Mo3 Mo 0.27321(6) 0.73129(5) 0.44659(3)
Mo4 Mo 0.50094(7) 0.76416(5) 0.52492(3)
Mo5 Mo 0.29466(7) 0.46387(6) 0.40893(3)
Mo6 Mo 0.76982(6) 0.55529(6) 0.41578(3)
P1 P 0.50000 0.50000 0.50000
O1 O 0.4177(7) 0.4835(6) 0.3430(4)
O2 O 0.8917(6) 0.5874(5) 0.3770(3)
O3 O 0.3868(7) 0.7930(7) 0.4716(3)
O4 O 0.4989(7) 0.8860(5) 0.5400(3)
O5 O 0.1248(6) 0.7899(6) 0.6745(3)
O6 O 0.4112(7) 0.6780(6) 0.3673(4)
O7 O 0.3627(8) 0.7625(8) 0.5993(3)
O8 O 0.5979(9) 0.4818(8) 0.4328(5)
O9 O 0.1955(6) 0.4471(5) 0.3664(3)
O10 O 0.2000(9) 0.4701(7) 0.5000(3)
O11 O 0.6648(8) 0.3974(6) 0.3255(5)
O12 O 0.6042(8) 0.6780(8) 0.5850(3)
O13 O 0.6678(8) 0.5882(5) 0.3503(5)
O14 O 0.1724(8) 0.5900(6) 0.6099(5)
O15 O 0.2188(7) 0.6228(6) 0.4275(4)
O16 O 0.5636(8) 0.5670(5) 0.2469(3)
O17 O 0.1979(9) 0.7411(8) 0.5373(3)
O18 O 0.6458(9) 0.7022(8) 0.4561(5)
O19 O 0.1706(6) 0.8389(6) 0.4212(4)
O20 O 0.4336(9) 0.5457(8) 0.4449(5)
O21 O 0.4135(9) 0.4335(8) 0.4930(5)
O22 O 0.5879(9) 0.3810(8) 0.4840(5)
Cu1 Cu -0.01278(11) 0.18932(9) -0.21901(5)
Cu2 Cu -0.20719(11) 0.35418(11) 0.10793(5)
Cu3 Cu 0.03400(12) -0.30832(11) -0.62742(6)
Cu4 Cu -0.37125(11) -0.02131(10) -0.34534(6)
Cu5 Cu 0.18503(12) 0.43489(11) 0.26498(7)
N1 N -0.1201(7) 0.3824(6) 0.1727(3)
N2 N -0.3822(7) 0.3573(6) 0.1492(4)
N3 N -0.2717(7) 0.0459(5) -0.3050(3)
N4 N 0.0405(7) 0.4159(6) 0.2434(3)
C1 C -0.2514(8) 0.1789(7) -0.2406(4)
H1 H -0.29210 0.24480 -0.21470
C2 C -0.0645(8) 0.2036(7) -0.0100(4)
H2 H -0.04640 0.15130 0.02040
N5 N -0.1250(7) 0.1253(5) -0.2496(3)
C3 C 0.0396(8) 0.3175(8) 0.2332(4)
H3 H 0.09500 0.25810 0.24960
C4 C -0.0410(8) 0.3026(7) 0.1991(4)
H4 H -0.04010 0.23340 0.19430
C5 C -0.0464(9) 0.4979(8) 0.2208(4)
H5 H -0.05310 0.56830 0.22880
C6 C -0.0749(8) 0.0298(7) -0.2854(4)
H6 H 0.01210 -0.01250 -0.29130
C7 C -0.4829(10) 0.4133(9) 0.1240(5)
H7 H -0.46870 0.44210 0.08320
C8 C -0.1023(11) 0.3456(8) -0.1012(5)
H8 H -0.11290 0.39740 -0.13220
C9 C -0.1247(9) 0.4819(7) 0.1867(4)
H9 H -0.18370 0.54170 0.17250
C10 C -0.3231(8) 0.1397(6) -0.2685(4)
H10 H -0.41070 0.18040 -0.26150
C11 C -0.1437(12) 0.3796(8) -0.0342(5)
H11 H -0.18420 0.45350 -0.02120
C12 C -0.1460(8) -0.0085(7) -0.3139(4)
H12 H -0.10560 -0.07420 -0.34010
C13 C -0.4085(8) 0.3138(6) 0.2055(4)
H13 H -0.34130 0.27210 0.22390
N6 N -0.1274(7) 0.3092(6) 0.0130(3)
C14 C -0.0265(8) 0.1714(7) -0.0771(4)
H14 H 0.01560 0.09770 -0.09060
N7 N -0.0476(7) 0.2409(6) -0.1232(3)
N8 N 0.1750(6) 0.1232(6) -0.2694(3)
N9 N -0.0757(7) -0.2293(6) -0.5441(4)
N10 N 0.4427(7) 0.0359(6) -0.3214(4)
N11 N -0.2474(7) -0.1152(6) -0.4258(4)
N12 N -0.6322(7) 0.3880(7) 0.2155(4)
C15 C -0.5323(8) 0.3281(7) 0.2382(4)
H15 H -0.54560 0.29450 0.27730
C16 C 0.3688(9) 0.1384(8) -0.3284(4)
H16 H 0.40740 0.18230 -0.35100
C17 C 0.2366(8) 0.1815(7) -0.3032(4)
H17 H 0.18940 0.25290 -0.30990
C18 C 0.2490(9) 0.0211(8) -0.2627(5)
H18 H 0.21060 -0.02240 -0.23930
C19 C -0.1686(10) -0.2183(8) -0.4285(5)
H19 H -0.17140 -0.25360 -0.38950
C20 C -0.0821(10) -0.2760(8) -0.4867(5)
H20 H -0.02810 -0.34800 -0.48570
C21 C -0.6037(10) 0.4287(10) 0.1564(5)
H21 H -0.67040 0.46900 0.13740
C22 C 0.3777(9) -0.0221(8) -0.2884(6)
H22 H 0.42350 -0.09460 -0.28320
C23 C -0.2372(11) -0.0686(9) -0.4832(5)
H23 H -0.28820 0.00440 -0.48360
C24 C -0.1535(12) -0.1251(9) -0.5417(5)
H24 H -0.15110 -0.08970 -0.58070
Cl1 Cl 0.1210(2) -0.36190(16) -0.73146(10)
O23 O -0.3102(14) 0.5478(12) 0.0936(7)
Mo7 Mo -0.56385(7) -0.23587(5) 0.04344(3)
Mo8 Mo -0.35959(7) -0.16485(6) 0.12072(4)
Mo9 Mo -0.25333(7) -0.26367(5) -0.05057(3)
Mo10 Mo -0.70224(7) -0.07144(6) -0.07731(4)
Mo11 Mo -0.39280(8) -0.09946(6) -0.17157(3)
Mo12 Mo -0.80921(7) 0.02750(6) 0.09357(3)
P2 P -0.50000 0.00000 0.00000
O24 O -0.3434(6) -0.1461(5) -0.2521(3)
O25 O -0.9534(6) 0.0419(5) 0.1392(3)
O26 O -0.4004(6) -0.2975(8) -0.0168(3)
O27 O -0.1399(7) -0.3862(6) -0.0749(4)
O28 O -0.8174(7) -0.0023(6) 0.0053(3)
O29 O -0.6344(7) -0.1947(7) -0.0315(3)
O30 O -0.5444(7) -0.1251(6) -0.1441(5)
O31 O -0.1597(10) -0.1739(7) -0.0724(4)
O32 O -0.2500(6) -0.2454(7) 0.0405(3)
O33 O -0.5940(9) -0.3453(6) 0.0640(4)
O34 O -0.4803(6) -0.2232(7) 0.1098(3)
O35 O -0.3116(10) -0.2248(8) -0.1293(4)
O36 O -0.7948(6) -0.1061(5) -0.1155(3)
O37 O -0.5023(8) -0.0464(6) 0.1762(5)
O38 O -0.2959(7) -0.2406(7) 0.1776(3)
O39 O -0.4479(10) -0.1136(8) 0.0187(5)
O40 O -0.2636(10) -0.0537(8) -0.1622(4)
O41 O -0.7146(8) -0.1218(7) 0.0948(3)
O42 O -0.2743(8) -0.0679(6) 0.1064(5)
O43 O -0.3790(11) -0.0709(9) -0.0539(5)
O44 O -0.4023(10) 0.0522(9) -0.0120(5)
O45 O -0.5461(10) 0.0025(8) -0.0671(5)
O8A O 0.4021(9) 0.5182(8) 0.5672(5)
O20A O 0.5664(9) 0.4543(8) 0.5551(5)
O21A O 0.5865(9) 0.5665(8) 0.5070(5)
O22A O 0.4121(9) 0.6190(8) 0.5160(5)
Mo1A Mo 0.45439(7) 0.45221(5) 0.67225(3)
Mo2A Mo 0.75303(6) 0.30258(5) 0.38009(3)
Mo3A Mo 0.72679(6) 0.26871(5) 0.55341(3)
Mo4A Mo 0.49906(7) 0.23584(5) 0.47508(3)
Mo5A Mo 0.70534(7) 0.53613(6) 0.59107(3)
Mo6A Mo 0.23018(6) 0.44471(6) 0.58422(3)
O1A O 0.5823(7) 0.5165(6) 0.6570(4)
O2A O 0.1083(6) 0.4126(5) 0.6230(3)
O3A O 0.6132(7) 0.2070(7) 0.5284(3)
O4A O 0.5011(7) 0.1140(5) 0.4600(3)
O5A O 0.8752(6) 0.2101(6) 0.3255(3)
O6A O 0.5888(7) 0.3220(6) 0.6327(4)
O7A O 0.6373(8) 0.2375(8) 0.4007(3)
O9A O 0.8045(6) 0.5529(5) 0.6336(3)
O10A O 0.8000(9) 0.5299(7) 0.5000(3)
O11A O 0.3352(8) 0.6026(6) 0.6745(5)
O12A O 0.3958(8) 0.3220(8) 0.4150(3)
O13A O 0.3322(8) 0.4118(5) 0.6497(5)
O14A O 0.8276(8) 0.4100(6) 0.3901(5)
O15A O 0.7812(7) 0.3772(6) 0.5725(4)
O16A O 0.4364(8) 0.4330(5) 0.7531(3)
O17A O 0.8021(9) 0.2589(8) 0.4627(3)
O18A O 0.3542(9) 0.2978(8) 0.5439(5)
O19A O 0.8294(6) 0.1611(6) 0.5788(4)
Cu1A Cu 0.01278(11) -0.18932(9) -0.78099(5)
Cu4* Cu 0.62875(11) -0.02131(10) -0.34534(6)
Cu5* Cu -0.81497(12) 0.43489(11) 0.26498(7)
Cu5** Cu 0.18503(12) -0.56511(11) -0.73502(7)
N10* N -0.5573(7) 0.0359(6) -0.3214(4)
N12* N 0.3678(7) 0.3880(7) 0.2155(4)
Cl1* Cl 0.1210(2) 0.63810(16) 0.26854(10)
Cl1A Cl -0.1210(2) 0.36190(16) -0.26854(10)
O39A O -0.5521(10) 0.1136(8) -0.0187(5)
O43A O -0.6210(11) 0.0709(9) 0.0539(5)
O44A O -0.5977(10) -0.0522(9) 0.0120(5)
O45A O -0.4539(10) -0.0025(8) 0.0671(5)
Mo7A Mo -0.43615(7) 0.23587(5) -0.04344(3)
Mo8A Mo -0.64041(7) 0.16485(6) -0.12072(4)
Mo9A Mo -0.74667(7) 0.26367(5) 0.05057(3)
Mo10A Mo -0.29776(7) 0.07144(6) 0.07731(4)
Mo11A Mo -0.60720(8) 0.09946(6) 0.17157(3)
Mo12A Mo -0.19079(7) -0.02750(6) -0.09357(3)
O24A O -0.6566(6) 0.1461(5) 0.2521(3)
O25A O -0.0466(6) -0.0419(5) -0.1392(3)
O26A O -0.5996(6) 0.2975(8) 0.0168(3)
O27A O -0.8601(7) 0.3862(6) 0.0749(4)
O28A O -0.1826(7) 0.0023(6) -0.0053(3)
O29A O -0.3656(7) 0.1947(7) 0.0315(3)
O30A O -0.4556(7) 0.1251(6) 0.1441(5)
O31A O -0.8403(10) 0.1739(7) 0.0724(4)
O32A O -0.7500(6) 0.2454(7) -0.0405(3)
O33A O -0.4060(9) 0.3453(6) -0.0640(4)
O34A O -0.5197(6) 0.2232(7) -0.1098(3)
O35A O -0.6884(10) 0.2248(8) 0.1293(4)
O36A O -0.2052(6) 0.1061(5) 0.1155(3)
O37A O -0.4977(8) 0.0464(6) -0.1762(5)
O38A O -0.7041(7) 0.2406(7) -0.1776(3)
O40A O -0.7364(10) 0.0537(8) 0.1622(4)
O41A O -0.2854(8) 0.1218(7) -0.0948(3)
O42A O -0.7257(8) 0.0679(6) -0.1064(5)
#END
