
#######################################################################
#
#                 Cambridge Crystallographic Data Centre
#                                CCDC
#
#######################################################################
#
# If this CIF has been generated from an entry in the Cambridge
# Structural Database, then it will include bibliographic, chemical,
# crystal, experimental, refinement or atomic coordinate data resulting
# from the CCDC's data processing and validation procedures.
#
#######################################################################

data_CSD_CIF_NEYJOS
_audit_creation_date 2013-05-23
_audit_creation_method CSD-ConQuest-V1
_database_code_CSD NEYJOS
_database_code_depnum_ccdc_archive 'CCDC 873823'
_chemical_formula_sum 'C12 H12 Cu3 Mo12 N6 O40 P1'
_chemical_formula_moiety
;
(C4 H4 Cu1 N2 1+)3n,n(Mo12 O40 P1 3-)
;
_journal_coden_Cambridge 222
_journal_volume 42
_journal_year 2013
_journal_page_first 7586
_journal_name_full 'Dalton Trans. '
loop_
_publ_author_name
"Ming-Li Qi"
"Kai Yu"
"Zhan-Hua Su"
"Chun-Xiao Wang"
"Chun-Mei Wang"
"Bai-Bin Zhou"
"Chun-Cheng Zhu"
_chemical_name_systematic
;
catena-[tris((\m~2~-Pyrazine)-copper) 
(\m~12~-phosphato)-tetracosakis(\m~2~-oxo)-dodecaoxo-dodeca-molybdenum]
;
_cell_volume  17704.889
_exptl_crystal_density_diffrn 3.381
_exptl_crystal_description 'block'
_diffrn_ambient_temperature 273
_refine_special_details
;
The structure is disordered by symmetry.

;
#These two values have been output from a single CSD field.
_refine_ls_R_factor_gt 0.0611
_refine_ls_wR_factor_gt 0.0611
_symmetry_cell_setting cubic
_symmetry_space_group_name_H-M 'I a -3 d'
_symmetry_Int_Tables_number 230
loop_
_symmetry_equiv_pos_site_id
_symmetry_equiv_pos_as_xyz
1 x,y,z
2 1/2-x,-y,1/2+z
3 -x,1/2+y,1/2-z
4 1/2+x,1/2-y,-z
5 z,x,y
6 1/2+z,1/2-x,-y
7 1/2-z,-x,1/2+y
8 -z,1/2+x,1/2-y
9 y,z,x
10 -y,1/2+z,1/2-x
11 1/2+y,1/2-z,-x
12 1/2-y,-z,1/2+x
13 3/4+y,1/4+x,1/4-z
14 3/4-y,3/4-x,3/4-z
15 1/4+y,1/4-x,3/4+z
16 1/4-y,3/4+x,1/4+z
17 3/4+x,1/4+z,1/4-y
18 1/4-x,3/4+z,1/4+y
19 3/4-x,3/4-z,3/4-y
20 1/4+x,1/4-z,3/4+y
21 3/4+z,1/4+y,1/4-x
22 1/4+z,1/4-y,3/4+x
23 1/4-z,3/4+y,1/4+x
24 3/4-z,3/4-y,3/4-x
25 1/2+x,1/2+y,1/2+z
26 -x,1/2-y,z
27 1/2-x,y,-z
28 x,-y,1/2-z
29 1/2+z,1/2+x,1/2+y
30 z,-x,1/2-y
31 -z,1/2-x,y
32 1/2-z,x,-y
33 1/2+y,1/2+z,1/2+x
34 1/2-y,z,-x
35 y,-z,1/2-x
36 -y,1/2-z,x
37 1/4+y,3/4+x,3/4-z
38 1/4-y,1/4-x,1/4-z
39 3/4+y,3/4-x,1/4+z
40 3/4-y,1/4+x,3/4+z
41 1/4+x,3/4+z,3/4-y
42 3/4-x,1/4+z,3/4+y
43 1/4-x,1/4-z,1/4-y
44 3/4+x,3/4-z,1/4+y
45 1/4+z,3/4+y,3/4-x
46 3/4+z,3/4-y,1/4+x
47 3/4-z,1/4+y,3/4+x
48 1/4-z,1/4-y,1/4-x
49 -x,-y,-z
50 -1/2+x,y,-1/2-z
51 x,-1/2-y,-1/2+z
52 -1/2-x,-1/2+y,z
53 -z,-x,-y
54 -1/2-z,-1/2+x,y
55 -1/2+z,x,-1/2-y
56 z,-1/2-x,-1/2+y
57 -y,-z,-x
58 y,-1/2-z,-1/2+x
59 -1/2-y,-1/2+z,x
60 -1/2+y,z,-1/2-x
61 -3/4-y,-1/4-x,-1/4+z
62 -3/4+y,-3/4+x,-3/4+z
63 -1/4-y,-1/4+x,-3/4-z
64 -1/4+y,-3/4-x,-1/4-z
65 -3/4-x,-1/4-z,-1/4+y
66 -1/4+x,-3/4-z,-1/4-y
67 -3/4+x,-3/4+z,-3/4+y
68 -1/4-x,-1/4+z,-3/4-y
69 -3/4-z,-1/4-y,-1/4+x
70 -1/4-z,-1/4+y,-3/4-x
71 -1/4+z,-3/4-y,-1/4-x
72 -3/4+z,-3/4+y,-3/4+x
73 -1/2-x,-1/2-y,-1/2-z
74 x,-1/2+y,-z
75 -1/2+x,-y,z
76 -x,y,-1/2+z
77 -1/2-z,-1/2-x,-1/2-y
78 -z,x,-1/2+y
79 z,-1/2+x,-y
80 -1/2+z,-x,y
81 -1/2-y,-1/2-z,-1/2-x
82 -1/2+y,-z,x
83 -y,z,-1/2+x
84 y,-1/2+z,-x
85 -1/4-y,-3/4-x,-3/4+z
86 -1/4+y,-1/4+x,-1/4+z
87 -3/4-y,-3/4+x,-1/4-z
88 -3/4+y,-1/4-x,-3/4-z
89 -1/4-x,-3/4-z,-3/4+y
90 -3/4+x,-1/4-z,-3/4-y
91 -1/4+x,-1/4+z,-1/4+y
92 -3/4-x,-3/4+z,-1/4-y
93 -1/4-z,-3/4-y,-3/4+x
94 -3/4-z,-3/4+y,-1/4-x
95 -3/4+z,-1/4-y,-3/4-x
96 -1/4+z,-1/4+y,-1/4+x
_cell_length_a 26.0634(5)
_cell_length_b 26.0634(5)
_cell_length_c 26.0634(5)
_cell_angle_alpha 90
_cell_angle_beta 90
_cell_angle_gamma 90
_cell_formula_units_Z 16
loop_
_atom_type_symbol
_atom_type_radius_bond
C 0.68
H 0.23
Cu 1.32
Mo 1.54
N 0.68
O 0.68
P 1.05
loop_
_atom_site_label
_atom_site_type_symbol
_atom_site_fract_x
_atom_site_fract_y
_atom_site_fract_z
O1 O 0.3988(4) 0.9027(4) -0.0150(3)
O2 O 0.4407(4) 0.8974(4) 0.0751(3)
O3 O 0.4232(5) 1.1150(5) -0.0326(5)
O4 O 0.3593(4) 0.9949(3) 0.0106(4)
O5 O 0.4639(4) 1.0361(4) -0.0361(4)
O6 O 0.3342(3) 0.9089(4) 0.0670(3)
Mo1 Mo 0.38599(3) 0.93808(3) 0.04423(3)
Mo2 Mo 0.38037(3) 1.06462(3) -0.00861(4)
P1 P 0.50000 1.00000 0.00000
O7 O 0.3225(3) 1.0911(3) -0.0111(3)
O8 O 0.5283(5) 1.0511(5) -0.0061(5)
Cu1 Cu 0.25000 1.01006(16) 0.00000
N1 N 0.2464(4) 1.0079(4) 0.0728(3)
C1 C 0.2754(5) 1.0384(5) 0.1011(4)
H1 H 0.29690 1.06210 0.08540
C2 C 0.2739(5) 1.0351(5) 0.1550(4)
H2 H 0.29570 1.05530 0.17470
O8E O 0.4939(5) 0.9717(5) -0.0511(5)
O8K O 0.4489(5) 1.0061(5) 0.0283(5)
O5VA O 0.5361(4) 0.9639(4) 0.0361(4)
O8VA O 0.4717(5) 0.9489(5) 0.0061(5)
O8AB O 0.5061(5) 1.0283(5) 0.0511(5)
O8GB O 0.5511(5) 0.9939(5) -0.0283(5)
O1E O 0.4850(4) 1.1012(4) 0.0973(3)
O2E O 0.5751(4) 1.0593(4) 0.1026(3)
O3E O 0.4674(5) 1.0768(5) -0.1150(5)
O4E O 0.5106(4) 1.1407(3) 0.0051(4)
O6E O 0.5670(3) 1.1658(4) 0.0911(3)
Mo1E Mo 0.54423(3) 1.11401(3) 0.06192(3)
Mo2E Mo 0.49139(3) 1.11963(3) -0.06462(4)
O7E O 0.4889(3) 1.1775(3) -0.0911(3)
O1K O 0.5973(4) 1.0150(4) -0.1012(3)
O2K O 0.6026(4) 0.9249(4) -0.0593(3)
O3K O 0.3850(5) 1.0326(5) -0.0768(5)
O4K O 0.5051(4) 0.9894(3) -0.1407(4)
O6K O 0.5911(3) 0.9330(4) -0.1658(3)
Mo1K Mo 0.56192(3) 0.95577(3) -0.11401(3)
Mo2K Mo 0.43538(3) 1.00861(3) -0.11963(4)
O7K O 0.4089(3) 1.0111(3) -0.1775(3)
O1VA O 0.6012(4) 1.0973(4) 0.0150(3)
O2VA O 0.5593(4) 1.1026(4) -0.0751(3)
O3VA O 0.5768(5) 0.8850(5) 0.0326(5)
O4VA O 0.6407(4) 1.0051(3) -0.0106(4)
O6VA O 0.6658(3) 1.0911(4) -0.0670(3)
Mo1VA Mo 0.61401(3) 1.06192(3) -0.04423(3)
Mo2VA Mo 0.61963(3) 0.93538(3) 0.00861(4)
O7VA O 0.6775(3) 0.9089(3) 0.0111(3)
O1AB O 0.5150(4) 0.8988(4) -0.0973(3)
O2AB O 0.4249(4) 0.9407(4) -0.1026(3)
O3AB O 0.5326(5) 0.9232(5) 0.1150(5)
O4AB O 0.4894(4) 0.8593(3) -0.0051(4)
O6AB O 0.4330(3) 0.8342(4) -0.0911(3)
Mo1AB Mo 0.45577(3) 0.88599(3) -0.06192(3)
Mo2AB Mo 0.50861(3) 0.88037(3) 0.06462(4)
O7AB O 0.5111(3) 0.8225(3) 0.0911(3)
O1GB O 0.4027(4) 0.9850(4) 0.1012(3)
O2GB O 0.3974(4) 1.0751(4) 0.0593(3)
O3GB O 0.6150(5) 0.9674(5) 0.0768(5)
O4GB O 0.4949(4) 1.0106(3) 0.1407(4)
O6GB O 0.4089(3) 1.0670(4) 0.1658(3)
Mo1GB Mo 0.43808(3) 1.04423(3) 0.11401(3)
Mo2GB Mo 0.56462(3) 0.99139(3) 0.11963(4)
O7GB O 0.5911(3) 0.9889(3) 0.1775(3)
N1KA N 0.2421(4) 1.0036(4) 0.1772(3)
C1KA C 0.2116(5) 0.9746(5) 0.1489(4)
H1KA H 0.18790 0.95310 0.16460
C2KA C 0.2149(5) 0.9761(5) 0.0950(4)
H2KA H 0.19470 0.95430 0.07530
Cu1O Cu 0.23994 1.00000(16) 0.25000
N1Z N 0.2536(4) 1.0079(4) -0.0728(3)
#END
