
#######################################################################
#
#                 Cambridge Crystallographic Data Centre
#                                CCDC
#
#######################################################################
#
# If this CIF has been generated from an entry in the Cambridge
# Structural Database, then it will include bibliographic, chemical,
# crystal, experimental, refinement or atomic coordinate data resulting
# from the CCDC's data processing and validation procedures.
#
#######################################################################

data_CSD_CIF_NIBLIW
_audit_creation_date 2018-04-27
_audit_creation_method CSD-ConQuest-V1
_database_code_CSD NIBLIW
_database_code_depnum_ccdc_archive 'CCDC 1814414'
_chemical_formula_sum 'C12 H48 Co2 N4 O21 P4'
_chemical_formula_moiety
;
C8 H26 N4 4+,n(C4 H12 Co2 O16 P4 4-),5(H2 O1)
;
_journal_coden_Cambridge 1147
_journal_volume 18
_journal_year 2018
_journal_page_first 3477
_journal_name_full 'Cryst.Growth Des. '
loop_
_publ_author_name
"Yu-Juan Ma"
"Song-De Han"
"Ying Mu"
"Jie Pan"
"Jin-Hua Li"
"Guo-Ming Wang"
_chemical_name_systematic
;
catena-[(N^1^,N^1'^-(ethane-1,2-diyl)di(propane-1,3-diaminium)) 
bis(\m-1-hydroxyethylidenediphosphonate)-di-aqua-di-cobalt(ii) pentahydrate]
;
_cell_volume   2882.320
_exptl_crystal_colour 'purple'
_exptl_crystal_density_diffrn 1.904
_exptl_crystal_description 'block'
_diffrn_ambient_temperature 293
#These two values have been output from a single CSD field.
_refine_ls_R_factor_gt 0.0435
_refine_ls_wR_factor_gt 0.0435
_symmetry_cell_setting monoclinic
_symmetry_space_group_name_H-M 'P 21/c'
_symmetry_Int_Tables_number 14
loop_
_symmetry_equiv_pos_site_id
_symmetry_equiv_pos_as_xyz
1 x,y,z
2 -x,1/2+y,1/2-z
3 -x,-y,-z
4 x,-1/2-y,-1/2+z
_cell_length_a 10.5158(6)
_cell_length_b 18.9596(11)
_cell_length_c 14.9538(9)
_cell_angle_alpha 90
_cell_angle_beta 104.814(6)
_cell_angle_gamma 90
_cell_formula_units_Z 4
loop_
_atom_type_symbol
_atom_type_radius_bond
C 0.68
H 0.23
Co 1.26
N 0.68
O 0.68
P 1.05
loop_
_atom_site_label
_atom_site_type_symbol
_atom_site_fract_x
_atom_site_fract_y
_atom_site_fract_z
C1 C -0.1193(4) 0.3970(2) 0.1548(3)
C2 C -0.1828(4) 0.3821(2) 0.0530(3)
H1 H -0.27660 0.38586 0.04145
H2 H -0.16002 0.33529 0.03799
H3 H -0.15163 0.41565 0.01549
C3 C 0.2211(4) 0.4244(2) 0.5766(3)
C4 C 0.3293(4) 0.4517(3) 0.6563(3)
H4 H 0.40774 0.45910 0.63592
H5 H 0.34651 0.41790 0.70572
H6 H 0.30222 0.49554 0.67787
Co1 Co 0.03529(5) 0.41205(3) 0.39009(4)
Co2 Co 0.09240(5) 0.25496(3) 0.65710(4)
O1 O -0.1234(3) 0.35194(15) 0.32425(19)
O2 O -0.2973(3) 0.30410(16) 0.1918(2)
O3 O -0.0635(3) 0.26400(15) 0.2141(2)
O4 O 0.1174(3) 0.41828(15) 0.2760(2)
O5 O 0.1121(3) 0.34986(15) 0.1288(2)
O6 O 0.0720(3) 0.47901(16) 0.1198(2)
O7 O 0.0625(3) 0.36317(14) 0.67409(19)
O8 O -0.0383(2) 0.41592(14) 0.51410(19)
O9 O 0.0512(3) 0.49380(14) 0.65265(19)
O10 O 0.2541(3) 0.28263(15) 0.6047(2)
O11 O 0.1566(3) 0.32840(15) 0.4429(2)
O12 O 0.3987(3) 0.34482(16) 0.5195(2)
O13 O -0.1801(3) 0.46190(15) 0.1758(2)
H7 H -0.12712 0.47700 0.23416
O14 O 0.2014(3) 0.47109(15) 0.4963(2)
H8 H 0.14533 0.51129 0.49194
O15 O -0.0424(3) 0.26839(16) 0.5203(2)
H9 H -0.09188 0.23415 0.47924
H10 H -0.06819 0.30991 0.48468
O16 O 0.2256(3) 0.24326(17) 0.7923(2)
H11 H 0.30900 0.26456 0.81766
H12 H 0.21885 0.21565 0.84376
P1 P -0.15216(10) 0.32368(6) 0.22586(7)
P2 P 0.05820(11) 0.41164(6) 0.17221(7)
P3 P 0.06337(9) 0.42324(5) 0.60717(7)
P4 P 0.26171(10) 0.33835(5) 0.53393(7)
C5 C -0.2714(5) 0.1070(3) 0.1352(4)
H13 H -0.27069 0.15762 0.12576
H14 H -0.18611 0.08878 0.13296
C6 C -0.2923(5) 0.0926(3) 0.2282(3)
H15 H -0.27969 0.04269 0.24169
H16 H -0.38228 0.10436 0.22774
C7 C -0.2008(4) 0.1338(2) 0.3025(3)
H17 H -0.20706 0.18335 0.28590
H18 H -0.22750 0.12869 0.35967
C8 C 0.0268(4) 0.1535(2) 0.3914(3)
H19 H -0.00601 0.15218 0.44637
H20 H 0.02310 0.20211 0.37065
C9 C 0.1675(4) 0.1301(3) 0.4169(3)
H21 H 0.19617 0.12306 0.36079
H22 H 0.22137 0.16709 0.45238
C10 C 0.3299(5) 0.0459(3) 0.5076(4)
H23 H 0.37227 0.04697 0.45707
H24 H 0.33710 -0.00173 0.53207
C11 C 0.4004(7) 0.0958(4) 0.5824(5)
H25 H 0.46780 0.12038 0.56077
H26 H 0.33796 0.13085 0.59197
C12 C 0.4584(12) 0.0649(5) 0.6662(5)
H27 H 0.52295 0.03109 0.65683
H28 H 0.39149 0.03894 0.68655
N1 N -0.3724(4) 0.0754(2) 0.0606(3)
H29 H -0.37857 0.02957 0.07156
H30 H -0.35096 0.08123 0.00722
H31 H -0.44935 0.09616 0.05745
N2 N -0.0621(3) 0.11054(19) 0.3180(3)
H32 H -0.03750 0.11461 0.26556
H33 H -0.05557 0.06533 0.33457
N3 N 0.1883(4) 0.0642(2) 0.4714(3)
H34 H 0.14756 0.02900 0.43606
H35 H 0.15201 0.06868 0.51876
N4 N 0.5211(9) 0.1116(4) 0.7378(4)
H36 H 0.60554 0.11583 0.73825
H37 H 0.51468 0.09456 0.79194
H38 H 0.48248 0.15365 0.72824
O17 O 0.3789(3) 0.4285(2) 0.3652(3)
O18 O 0.6808(4) 0.3490(2) 0.4142(3)
O19 O 0.4939(8) 0.1397(5) 0.3781(5)
O20 O 0.5794(4) 0.2420(2) 0.5142(3)
O21 O 0.4857(5) 0.2656(3) 0.7351(3)
Co1B Co -0.03529(5) 0.58795(3) 0.60991(4)
Co2C Co 0.09240(5) 0.24504(3) 0.15710(4)
O3C O -0.0635(3) 0.23600(15) 0.7141(2)
O5C O 0.1121(3) 0.15014(15) 0.6288(2)
O9B O -0.0512(3) 0.50620(14) 0.34735(19)
#END
