
#######################################################################
#
#                 Cambridge Crystallographic Data Centre
#                                CCDC
#
#######################################################################
#
# If this CIF has been generated from an entry in the Cambridge
# Structural Database, then it will include bibliographic, chemical,
# crystal, experimental, refinement or atomic coordinate data resulting
# from the CCDC's data processing and validation procedures.
#
#######################################################################

data_CSD_CIF_NIDFOW
_audit_creation_date 2007-06-20
_audit_creation_method CSD-ConQuest-V1
_database_code_CSD NIDFOW
_database_code_depnum_ccdc_archive 'CCDC 644307'
_chemical_formula_sum 'C16 H24 N2 O14 U2'
_chemical_formula_moiety
;
(C6 H14 N2 2+)n,n(C10 H10 O14 U2 2-)
;
_journal_coden_Cambridge 9
_journal_volume 46
_journal_year 2007
_journal_page_first 2307
_journal_name_full 'Inorg.Chem. '
loop_
_publ_author_name
"P.Thuery"
_chemical_name_systematic
;
catena-(1,4-Diazoniobicyclo(2.2.2)octane 
bis(\m~3~-2-hydroxy-2-methylbutanedioato)-tetraoxo-di-uranium)
;
_cell_volume   1184.473
_exptl_crystal_colour 'light yellow'
_exptl_crystal_density_diffrn 2.648
_exptl_crystal_description 'parallelepiped'
_diffrn_ambient_temperature 100
#These two values have been output from a single CSD field.
_refine_ls_R_factor_gt 0.0442
_refine_ls_wR_factor_gt 0.0442
_symmetry_cell_setting monoclinic
_symmetry_space_group_name_H-M 'P 21'
_symmetry_Int_Tables_number 4
loop_
_symmetry_equiv_pos_site_id
_symmetry_equiv_pos_as_xyz
1 x,y,z
2 -x,1/2+y,-z
_cell_length_a 8.3086(4)
_cell_length_b 10.3366(3)
_cell_length_c 14.0153(7)
_cell_angle_alpha 90
_cell_angle_beta 100.247(3)
_cell_angle_gamma 90
_cell_formula_units_Z 2
loop_
_atom_type_symbol
_atom_type_radius_bond
C 0.68
H 0.23
N 0.68
O 0.68
U 1.46
loop_
_atom_site_label
_atom_site_type_symbol
_atom_site_fract_x
_atom_site_fract_y
_atom_site_fract_z
U1 U 0.75497(5) 0.26252(5) 0.70106(3)
U2 U 1.20775(6) 0.22831(5) 0.82855(3)
O1 O 0.7084(14) 0.0953(8) 0.7179(8)
O2 O 0.7895(13) 0.4300(12) 0.6814(8)
O3 O 1.2093(12) 0.0545(11) 0.8508(9)
O4 O 1.2192(14) 0.3935(9) 0.8058(9)
O5 O 1.0210(11) 0.2088(11) 0.6770(7)
O6 O 0.7707(11) 0.2201(12) 0.5374(7)
O7 O 0.9106(12) 0.1999(11) 0.4195(7)
O8 O 1.3594(13) 0.1784(12) 0.7076(8)
O9 O 1.4809(12) 0.2907(11) 0.6052(7)
O10 O 0.9337(10) 0.2519(11) 0.8533(6)
O11 O 1.1850(11) 0.2585(12) 0.9925(7)
O12 O 1.0420(11) 0.2567(11) 1.1108(7)
O13 O 0.6005(12) 0.3368(11) 0.8156(7)
O14 O 0.4814(10) 0.2471(13) 0.9276(7)
N1 N 0.6165(13) 0.2251(14) 0.3125(7)
H1 H 0.71680 0.22190 0.35680
N2 N 0.3465(13) 0.2584(14) 0.2044(7)
H2 H 0.23860 0.28310 0.16950
C1 C 1.0562(17) 0.1793(14) 0.5846(9)
C2 C 0.9016(17) 0.2021(14) 0.5070(11)
C3 C 1.1917(16) 0.2654(18) 0.5617(11)
H3 H 1.15960 0.35510 0.56610
H4 H 1.20600 0.24940 0.49550
C4 C 1.3539(15) 0.2438(16) 0.6291(9)
C5 C 1.090(2) 0.0350(16) 0.5772(12)
H5 H 1.18680 0.01270 0.62260
H6 H 1.10590 0.01490 0.51270
H7 H 0.99880 -0.01340 0.59180
C6 C 0.8992(16) 0.2225(15) 0.9459(9)
C7 C 1.0523(16) 0.2478(16) 1.0228(9)
C8 C 0.7591(15) 0.3119(14) 0.9710(9)
H8 H 0.74130 0.29240 1.03600
H9 H 0.79270 0.40160 0.96970
C9 C 0.6013(19) 0.2930(15) 0.9002(11)
C10 C 0.8529(17) 0.0826(15) 0.9565(11)
H10 H 0.74540 0.06740 0.91990
H11 H 0.85370 0.06360 1.02360
H12 H 0.93010 0.02770 0.93260
C11 C 0.6395(19) 0.3083(18) 0.2287(14)
H13 H 0.69590 0.26030 0.18510
H14 H 0.70460 0.38370 0.25160
C12 C 0.4681(19) 0.3507(15) 0.1751(12)
H15 H 0.44470 0.43840 0.19310
H16 H 0.46350 0.34760 0.10550
C13 C 0.547(2) 0.1005(18) 0.2779(17)
H17 H 0.50710 0.05510 0.32970
H18 H 0.62910 0.04730 0.25580
C14 C 0.404(2) 0.1274(16) 0.1930(13)
H19 H 0.44090 0.11890 0.13150
H20 H 0.31590 0.06610 0.19440
C15 C 0.500(2) 0.296(2) 0.3668(13)
H21 H 0.50140 0.25680 0.42970
H22 H 0.53240 0.38600 0.37640
C16 C 0.3299(19) 0.287(2) 0.3060(11)
H23 H 0.26820 0.21910 0.33070
H24 H 0.27210 0.36820 0.30880
U1* U 1.75497(5) 0.26252(5) 0.70106(3)
U2* U 0.20775(6) 0.22831(5) 0.82855(3)
O9* O 0.4809(12) 0.2907(11) 0.6052(7)
O14* O 1.4814(10) 0.2471(13) 0.9276(7)
#END
