
#######################################################################
#
#                 Cambridge Crystallographic Data Centre
#                                CCDC
#
#######################################################################
#
# If this CIF has been generated from an entry in the Cambridge
# Structural Database, then it will include bibliographic, chemical,
# crystal, experimental, refinement or atomic coordinate data resulting
# from the CCDC's data processing and validation procedures.
#
#######################################################################

data_CSD_CIF_NIDGIR
_audit_creation_date 2007-06-20
_audit_creation_method CSD-ConQuest-V1
_database_code_CSD NIDGIR
_database_code_depnum_ccdc_archive 'CCDC 644310'
_chemical_formula_sum 'C32 H38 N4 O23 U2'
_chemical_formula_moiety
;
(C10 H10 N2 2+)2n,n(C12 H8 O18 U2 4-),5n(H2 O1)
;
_journal_coden_Cambridge 9
_journal_volume 46
_journal_year 2007
_journal_page_first 2307
_journal_name_full 'Inorg.Chem. '
loop_
_publ_author_name
"P.Thuery"
_chemical_name_systematic
;
catena-(2,2'-Bipyridinium 
bis(\m~3~-2-hydroxy-1,2,3-propane-tricarboxylato)-tetraoxo-di-uranium 
pentahydrate)
;
_cell_volume   4071.597
_exptl_crystal_colour 'light yellow'
_exptl_crystal_density_diffrn 2.158
_exptl_crystal_description 'needle'
_diffrn_ambient_temperature 100
_refine_special_details
;
A water molecule is equally disordered over two sites by symmetry.

;
#These two values have been output from a single CSD field.
_refine_ls_R_factor_gt 0.0402
_refine_ls_wR_factor_gt 0.0402
_symmetry_cell_setting monoclinic
_symmetry_space_group_name_H-M 'C 2/c'
_symmetry_Int_Tables_number 15
loop_
_symmetry_equiv_pos_site_id
_symmetry_equiv_pos_as_xyz
1 x,y,z
2 1/2+x,1/2+y,z
3 -x,y,1/2-z
4 1/2-x,1/2+y,1/2-z
5 -x,-y,-z
6 -1/2-x,-1/2-y,-z
7 x,-y,-1/2+z
8 -1/2+x,-1/2-y,-1/2+z
_cell_length_a 17.3514(15)
_cell_length_b 17.2886(17)
_cell_length_c 15.4500(11)
_cell_angle_alpha 90
_cell_angle_beta 118.538(5)
_cell_angle_gamma 90
_cell_formula_units_Z 4
loop_
_atom_type_symbol
_atom_type_radius_bond
C 0.68
H 0.23
N 0.68
O 0.68
U 1.47
loop_
_atom_site_label
_atom_site_type_symbol
_atom_site_fract_x
_atom_site_fract_y
_atom_site_fract_z
U1 U 0.370870(17) 0.285460(19) 0.18355(2)
O1 O 0.3614(3) 0.3868(4) 0.1892(4)
O2 O 0.3769(3) 0.1814(4) 0.1748(4)
O3 O 0.5007(3) 0.2900(3) 0.3372(4)
O4 O 0.3451(3) 0.2696(4) 0.3184(4)
O5 O 0.3889(4) 0.2733(4) 0.4799(4)
O6 O 0.3207(3) 0.3004(3) 0.0145(4)
O7 O 0.2851(3) 0.2262(3) -0.1171(4)
O8 O 0.5119(5) 0.4264(5) -0.0862(6)
O9 O 0.3749(4) 0.3953(5) -0.1200(5)
O10 O 0.0755(6) 0.2364(6) -0.6698(6)
O11 O 0.2968(5) 0.3258(6) -0.3018(6)
O12? O -0.0480(9) 0.0339(9) -0.7637(10)
N1 N 0.1492(7) 0.4712(6) -0.0787(7)
H1 H 0.12480 0.42130 -0.08890
N2 N -0.0291(7) 0.4524(7) -0.1379(8)
C1 C 0.4976(5) 0.2996(5) 0.4271(6)
C2 C 0.4032(5) 0.2783(5) 0.4101(7)
C3 C 0.5630(5) 0.2457(6) 0.5082(6)
H2 H 0.54870 0.19280 0.48510
H3 H 0.55450 0.25090 0.56560
C4 C 0.3408(5) 0.2591(6) -0.0402(6)
C5 C 0.4872(5) 0.3866(5) 0.0465(6)
H4 H 0.54180 0.41400 0.08550
H5 H 0.44470 0.40610 0.06490
C6 C 0.4558(6) 0.4045(6) -0.0593(7)
C7 C 0.2391(9) 0.4813(9) -0.0435(10)
H6 H 0.27520 0.43820 -0.02960
C8 C 0.2748(8) 0.5542(9) -0.0291(9)
H7 H 0.33460 0.56070 -0.00650
C9 C 0.2220(9) 0.6160(8) -0.0482(10)
H8 H 0.24500 0.66570 -0.03870
C10 C 0.1336(7) 0.6050(6) -0.0819(8)
H9 H 0.09790 0.64830 -0.09570
C11 C 0.0967(5) 0.5350(6) -0.0958(6)
C12 C 0.0035(6) 0.5260(6) -0.1301(7)
C13 C -0.0461(7) 0.5903(7) -0.1546(8)
H10 H -0.02200 0.63890 -0.15190
C14 C -0.135(1) 0.5814(10) -0.1843(11)
H11 H -0.17090 0.62490 -0.20080
C15 C -0.1696(8) 0.5114(9) -0.1895(9)
H12 H -0.22860 0.50650 -0.20650
C16 C -0.1175(9) 0.4463(9) -0.1695(10)
H13 H -0.14280 0.39760 -0.17750
U1E U 0.129130(17) 0.214540(19) -0.18355(2)
U1B U 0.629130(17) 0.285460(19) 0.31645(2)
U1G U 0.870870(17) 0.214540(19) 0.68355(2)
O1B O 0.6386(3) 0.3868(4) 0.3108(4)
O2B O 0.6231(3) 0.1814(4) 0.3252(4)
O3B O 0.4993(3) 0.2900(3) 0.1628(4)
O4B O 0.6549(3) 0.2696(4) 0.1816(4)
O5B O 0.6111(4) 0.2733(4) 0.0201(4)
O6B O 0.6793(3) 0.3004(3) 0.4855(4)
O7G O 0.7851(3) 0.2738(3) 0.3829(4)
O7B O 0.7149(3) 0.2262(3) 0.6171(4)
O7E O 0.2149(3) 0.2738(3) 0.1171(4)
O8B O 0.4881(5) 0.4264(5) 0.5862(6)
O9B O 0.6251(4) 0.3953(5) 0.6200(5)
C1B C 0.5024(5) 0.2996(5) 0.0729(6)
C2B C 0.5968(5) 0.2783(5) 0.0899(7)
C3B C 0.4370(5) 0.2457(6) -0.0082(6)
H2B H 0.45130 0.19280 0.01490
H3B H 0.44550 0.25090 -0.06560
C4B C 0.6592(5) 0.2591(6) 0.5402(6)
C5B C 0.5128(5) 0.3866(5) 0.4535(6)
H4B H 0.45820 0.41400 0.41450
H5B H 0.55530 0.40610 0.43510
C6B C 0.5442(6) 0.4045(6) 0.5593(7)
#END
