
#######################################################################
#
#                 Cambridge Crystallographic Data Centre
#                                CCDC
#
#######################################################################
#
# If this CIF has been generated from an entry in the Cambridge
# Structural Database, then it will include bibliographic, chemical,
# crystal, experimental, refinement or atomic coordinate data resulting
# from the CCDC's data processing and validation procedures.
#
#######################################################################

data_CSD_CIF_NIDGAJ
_audit_creation_date 2007-06-20
_audit_creation_method CSD-ConQuest-V1
_database_code_CSD NIDGAJ
_database_code_depnum_ccdc_archive 'CCDC 644308'
_chemical_formula_sum 'C22 H20 N2 O18 U2'
_chemical_formula_moiety
;
(C10 H10 N2 2+)n,n(C12 H10 O18 U2 2-)
;
_journal_coden_Cambridge 9
_journal_volume 46
_journal_year 2007
_journal_page_first 2307
_journal_name_full 'Inorg.Chem. '
loop_
_publ_author_name
"P.Thuery"
_chemical_name_systematic
;
catena-(4,4'-Bipyridinium 
bis(\m~3~-2-hydroxy-3-carboxy-propane-1,2-dicarboxylato)-tetraoxo-di-uranium)
;
_cell_volume    656.069
_exptl_crystal_colour 'light yellow'
_exptl_crystal_density_diffrn 2.725
_exptl_crystal_description 'parallelepiped'
_diffrn_ambient_temperature 100
#These two values have been output from a single CSD field.
_refine_ls_R_factor_gt 0.0157
_refine_ls_wR_factor_gt 0.0157
_symmetry_cell_setting triclinic
_symmetry_space_group_name_H-M 'P -1'
_symmetry_Int_Tables_number 2
loop_
_symmetry_equiv_pos_site_id
_symmetry_equiv_pos_as_xyz
1 x,y,z
2 -x,-y,-z
_cell_length_a 7.3131(5)
_cell_length_b 8.5411(3)
_cell_length_c 11.2793(7)
_cell_angle_alpha 97.375(4)
_cell_angle_beta 98.767(3)
_cell_angle_gamma 106.632(4)
_cell_formula_units_Z 1
loop_
_atom_type_symbol
_atom_type_radius_bond
C 0.68
H 0.23
N 0.68
O 0.68
U 1.47
loop_
_atom_site_label
_atom_site_type_symbol
_atom_site_fract_x
_atom_site_fract_y
_atom_site_fract_z
U1 U 0.622483(17) 0.744370(14) 0.545672(11)
O1 O 0.7876(4) 0.7478(3) 0.4449(2)
O2 O 0.4578(4) 0.7501(3) 0.6458(2)
O3 O 0.6248(3) 0.4801(3) 0.5898(2)
O4 O 0.8685(4) 0.7594(3) 0.7107(2)
O5 O 1.0469(4) 0.6449(3) 0.8261(2)
O6 O 0.5406(3) 0.1336(3) 0.5938(2)
O7 O 0.7956(3) 0.0418(3) 0.6305(2)
O8 O 0.7546(4) 0.4623(3) 1.0073(2)
H1 H 0.82430 0.41800 1.07110
O9 O 0.8081(4) 0.2562(3) 0.8882(2)
N1 N 1.1170(4) 0.1187(4) 0.8566(3)
H2 H 1.00550 0.14330 0.82110
C1 C 0.7520(5) 0.4626(4) 0.6914(3)
C2 C 0.9067(5) 0.6343(4) 0.7466(3)
C3 C 0.8537(5) 0.3363(4) 0.6514(3)
H3 H 0.90420 0.36290 0.57930
H4 H 0.96340 0.34680 0.71550
C4 C 0.7221(5) 0.1585(4) 0.6235(3)
C5 C 0.6354(5) 0.4227(4) 0.7938(3)
H5 H 0.60090 0.51990 0.82390
H6 H 0.51520 0.33370 0.75890
C6 C 0.7427(5) 0.3723(4) 0.9004(3)
C7 C 1.1645(6) 0.1510(5) 0.9790(4)
H7 H 1.09480 0.20290 1.02420
C8 C 1.3155(5) 0.1073(5) 1.0366(4)
H8 H 1.34940 0.13070 1.12130
C9 C 1.4205(5) 0.0274(4) 0.9694(3)
C10 C 1.3674(5) 0.0004(4) 0.8424(3)
H9 H 1.43610 -0.04860 0.79440
C11 C 1.2130(5) 0.0464(5) 0.7878(4)
H10 H 1.17640 0.02680 0.70330
U1A U 0.377517(17) 0.255630(14) 0.454328(11)
U1* U 0.622483(17) -0.255630(14) 0.545672(11)
U1A* U 0.377517(17) 1.255630(14) 0.454328(11)
O1A O 0.2124(4) 0.2522(3) 0.5551(2)
O2A O 0.5422(4) 0.2499(3) 0.3542(2)
O3A O 0.3752(3) 0.5199(3) 0.4102(2)
O4A O 0.1315(4) 0.2406(3) 0.2893(2)
O5A O -0.0469(4) 0.3551(3) 0.1739(2)
O6A O 0.4594(3) 0.8664(3) 0.4062(2)
O7A O 0.2044(3) 0.9582(3) 0.3695(2)
O7* O 0.7956(3) 1.0418(3) 0.6305(2)
O7A* O 0.2044(3) -0.0418(3) 0.3695(2)
O8A O 0.2454(4) 0.5377(3) -0.0073(2)
H1A H 0.17570 0.58200 -0.07110
O9A O 0.1919(4) 0.7438(3) 0.1118(2)
N1A N 1.8830(4) -0.1187(4) 1.1434(3)
H2A H 1.99450 -0.14330 1.17890
C1A C 0.2480(5) 0.5374(4) 0.3086(3)
C2A C 0.0933(5) 0.3657(4) 0.2534(3)
C3A C 0.1463(5) 0.6637(4) 0.3486(3)
H3A H 0.09580 0.63710 0.42070
H4A H 0.03660 0.65320 0.28450
C4A C 0.2779(5) 0.8415(4) 0.3765(3)
C5A C 0.3646(5) 0.5773(4) 0.2062(3)
H5A H 0.39910 0.48010 0.17610
H6A H 0.48480 0.66630 0.24110
C6A C 0.2573(5) 0.6277(4) 0.0996(3)
C7A C 1.8355(6) -0.1510(5) 1.0210(4)
H7A H 1.90520 -0.20290 0.97580
C8A C 1.6845(5) -0.1073(5) 0.9634(4)
H8A H 1.65060 -0.13070 0.87870
C9A C 1.5795(5) -0.0274(4) 1.0306(3)
C10A C 1.6326(5) -0.0004(4) 1.1576(3)
H9A H 1.56390 0.04860 1.20560
C11A C 1.7870(5) -0.0464(5) 1.2122(4)
H10A H 1.82360 -0.02680 1.29670
#END
