
#######################################################################
#
#                 Cambridge Crystallographic Data Centre
#                                CCDC
#
#######################################################################
#
# If this CIF has been generated from an entry in the Cambridge
# Structural Database, then it will include bibliographic, chemical,
# crystal, experimental, refinement or atomic coordinate data resulting
# from the CCDC's data processing and validation procedures.
#
#######################################################################

data_CSD_CIF_NIDGOX
_audit_creation_date 2007-06-19
_audit_creation_method CSD-ConQuest-V1
_database_code_CSD NIDGOX
_database_code_depnum_ccdc_archive 'CCDC 644311'
_chemical_formula_sum 'C30 H56 N2 O28 U2'
_chemical_formula_moiety
;
(C18 H38 N2 O6 2+)n,n(C12 H10 O18 U2 2-),4n(H2 O1)
;
_journal_coden_Cambridge 9
_journal_volume 46
_journal_year 2007
_journal_page_first 2307
_journal_name_full 'Inorg.Chem. '
loop_
_publ_author_name
"P.Thuery"
_chemical_name_systematic
;
catena-(4,7,13,16,21,24-Hexaoxa-1,10-diazoniobicyclo(8.8.8)hexacosane 
bis(\m~3~-2-hydroxy-3-carboxypropane-1,2-dicarboxylato)-tetraoxo-di-uranium 
tetrahydrate)
;
_chemical_name_common
;
catena-(dihydrogen (2,2,2-cryptand) 
bis(mu!3$-2-hydroxy-3-carboxypropane-1,2-dicarboxylato)-tetraoxo-di-uranium 
tetrahydrate)
;
_cell_volume   4285.093
_exptl_crystal_colour 'light yellow'
_exptl_crystal_density_diffrn 2.122
_exptl_crystal_description 'needle'
_diffrn_ambient_temperature 100
_refine_special_details
;
Two water molecules are equally disordered over two sites.

;
#These two values have been output from a single CSD field.
_refine_ls_R_factor_gt 0.0586
_refine_ls_wR_factor_gt 0.0586
_symmetry_cell_setting monoclinic
_symmetry_space_group_name_H-M 'C 2/c'
_symmetry_Int_Tables_number 15
loop_
_symmetry_equiv_pos_site_id
_symmetry_equiv_pos_as_xyz
1 x,y,z
2 1/2+x,1/2+y,z
3 -x,y,1/2-z
4 1/2-x,1/2+y,1/2-z
5 -x,-y,-z
6 -1/2-x,-1/2-y,-z
7 x,-y,-1/2+z
8 -1/2+x,-1/2-y,-1/2+z
_cell_length_a 16.4966(10)
_cell_length_b 20.177(3)
_cell_length_c 14.2793(15)
_cell_angle_alpha 90
_cell_angle_beta 115.634(6)
_cell_angle_gamma 90
_cell_formula_units_Z 4
loop_
_atom_type_symbol
_atom_type_radius_bond
C 0.68
H 0.23
N 0.68
O 0.68
U 1.46
loop_
_atom_site_label
_atom_site_type_symbol
_atom_site_fract_x
_atom_site_fract_y
_atom_site_fract_z
U1 U 0.13166(3) 0.28718(2) 0.31235(3)
O1 O 0.1196(6) 0.2007(5) 0.3200(6)
O2 O 0.1479(5) 0.3733(5) 0.3053(6)
O3 O -0.0007(5) 0.2952(4) 0.1565(6)
O4 O 0.1545(6) 0.2744(5) 0.1598(7)
O5 O 0.1157(5) 0.3022(5) -0.0037(7)
O6 O -0.1835(5) 0.3013(4) 0.0071(6)
O7 O -0.2092(5) 0.2336(5) -0.1249(6)
O8 O -0.0771(8) 0.4067(6) -0.1330(8)
O9 O 0.0562(8) 0.4516(7) -0.0426(9)
C1 C 0.0047(7) 0.3126(6) 0.0638(8)
C2 C 0.0987(8) 0.2957(6) 0.0741(9)
C3 C -0.0614(8) 0.2688(6) -0.0315(9)
H1 H -0.05870 0.28490 -0.09410
H2 H -0.03960 0.22350 -0.02060
C4 C -0.1583(7) 0.2685(7) -0.0491(9)
C5 C -0.0114(7) 0.3880(6) 0.0464(9)
H3 H -0.07000 0.39770 0.04350
H4 H 0.03280 0.41030 0.10720
C6 C -0.0079(9) 0.4179(8) -0.0448(11)
O10 O 0.0914(12) -0.1254(9) 0.2590(14)
O11 O 0.1048(10) 0.0509(9) 0.1566(15)
O12 O 0.0849(10) 0.0459(8) 0.4411(12)
N1 N 0.1963(11) -0.0086(9) 0.3581(14)
C7 C 0.2329(17) -0.0731(9) 0.3964(19)
H5 H 0.24060 -0.07730 0.46740
H6 H 0.29200 -0.07630 0.39740
C8 C 0.1793(14) -0.1274(10) 0.337(3)
H7 H 0.21450 -0.14830 0.30590
H8 H 0.17790 -0.15860 0.38810
C9 C 0.0404(11) -0.1789(11) 0.2662(19)
H9 H 0.05490 -0.21610 0.23320
H10 H 0.06410 -0.18970 0.33950
C10 C 0.239(2) 0.0155(11) 0.2942(19)
H11 H 0.24530 -0.02170 0.25510
H12 H 0.29870 0.03050 0.34020
C11 C 0.1935(12) 0.0694(13) 0.2202(15)
H13 H 0.19400 0.10960 0.25780
H14 H 0.22520 0.07820 0.17790
C12 C 0.0531(16) 0.1034(14) 0.101(3)
H15 H 0.08470 0.12560 0.06590
H16 H 0.04700 0.13470 0.14860
C13 C 0.2196(18) 0.0337(12) 0.4485(15)
H17 H 0.23100 0.07650 0.42580
H18 H 0.27790 0.01750 0.49750
C14 C 0.1742(11) 0.050(2) 0.5131(18)
H19 H 0.18810 0.01800 0.56890
H20 H 0.18950 0.09410 0.54230
C15 C -0.0318(14) 0.0866(16) 0.027(2)
H21 H -0.02540 0.06440 -0.02980
H22 H -0.06480 0.12730 -0.00070
O13 O 0.00000 -0.0108(14) 0.25000
O14 O 0.2380(12) 0.3216(8) -0.0865(19)
O15 O 0.129(1) 0.4320(11) -0.1761(13)
O16? O 0.0967(18) 0.4886(15) -0.203(2)
U1B U -0.13166(3) 0.28718(2) 0.18765(3)
U1G U -0.36834(3) 0.21282(2) -0.18765(3)
U1E U 0.36834(3) 0.21282(2) 0.68765(3)
O1B O -0.1196(6) 0.2007(5) 0.1800(6)
O2B O -0.1479(5) 0.3733(5) 0.1947(6)
O3B O 0.0007(5) 0.2952(4) 0.3435(6)
O4B O -0.1545(6) 0.2744(5) 0.3402(7)
O5B O -0.1157(5) 0.3022(5) 0.5037(7)
O6B O 0.1835(5) 0.3013(4) 0.4929(6)
O7B O 0.2092(5) 0.2336(5) 0.6249(6)
O7G O 0.2908(5) 0.2664(5) 0.3751(6)
O7E O -0.2908(5) 0.2664(5) 0.1249(6)
O8B O 0.0771(8) 0.4067(6) 0.6330(8)
O9B O -0.0562(8) 0.4516(7) 0.5426(9)
C1B C -0.0047(7) 0.3126(6) 0.4362(8)
C2B C -0.0987(8) 0.2957(6) 0.4259(9)
C3B C 0.0614(8) 0.2688(6) 0.5315(9)
H1B H 0.05870 0.28490 0.59410
H2B H 0.03960 0.22350 0.52060
C4B C 0.1583(7) 0.2685(7) 0.5491(9)
C5B C 0.0114(7) 0.3880(6) 0.4536(9)
H3B H 0.07000 0.39770 0.45650
H4B H -0.03280 0.41030 0.39280
C6B C 0.0079(9) 0.4179(8) 0.5448(11)
O10B O -0.0914(12) -0.1254(9) 0.2410(14)
O11B O -0.1048(10) 0.0509(9) 0.3434(15)
O12B O -0.0849(10) 0.0459(8) 0.0589(12)
N1B N -0.1963(11) -0.0086(9) 0.1419(14)
C7B C -0.2329(17) -0.0731(9) 0.1036(19)
H5B H -0.24060 -0.07730 0.03260
H6B H -0.29200 -0.07630 0.10260
C8B C -0.1793(14) -0.1274(10) 0.163(3)
H7B H -0.21450 -0.14830 0.19410
H8B H -0.17790 -0.15860 0.11190
C9B C -0.0404(11) -0.1789(11) 0.2338(19)
H9B H -0.05490 -0.21610 0.26680
H10B H -0.06410 -0.18970 0.16050
C10B C -0.239(2) 0.0155(11) 0.2058(19)
H11B H -0.24530 -0.02170 0.24490
H12B H -0.29870 0.03050 0.15980
C11B C -0.1935(12) 0.0694(13) 0.2798(15)
H13B H -0.19400 0.10960 0.24220
H14B H -0.22520 0.07820 0.32210
C12B C -0.0531(16) 0.1034(14) 0.399(3)
H15B H -0.08470 0.12560 0.43410
H16B H -0.04700 0.13470 0.35140
C13B C -0.2196(18) 0.0337(12) 0.0515(15)
H17B H -0.23100 0.07650 0.07420
H18B H -0.27790 0.01750 0.00250
C14B C -0.1742(11) 0.050(2) -0.0131(18)
H19B H -0.18810 0.01800 -0.06890
H20B H -0.18950 0.09410 -0.04230
C15B C 0.0318(14) 0.0866(16) 0.473(2)
H21B H 0.02540 0.06440 0.52980
H22B H 0.06480 0.12730 0.50070
#END
