
#######################################################################
#
#                 Cambridge Crystallographic Data Centre
#                                CCDC
#
#######################################################################
#
# If this CIF has been generated from an entry in the Cambridge
# Structural Database, then it will include bibliographic, chemical,
# crystal, experimental, refinement or atomic coordinate data resulting
# from the CCDC's data processing and validation procedures.
#
#######################################################################

data_CSD_CIF_NIFNUN
_audit_creation_date 2013-05-24
_audit_creation_method CSD-ConQuest-V1
_database_code_CSD NIFNUN
_database_code_depnum_ccdc_archive 'CCDC 868991'
_chemical_formula_sum 'C12 H11 Ag1 N2 O5 S1'
_chemical_formula_moiety
;
(C7 H4 Ag1 O5 S1 1-)n,n(C5 H7 N2 1+)
;
_journal_coden_Cambridge 119
_journal_volume 1039
_journal_year 2013
_journal_page_first 1
_journal_name_full 'J.Mol.Struct. '
loop_
_publ_author_name
"Xiao-Feng Zheng"
"Long-Guan Zhu"
_chemical_name_systematic
;
catena-(4-aminopyridinium (\m~4~-4-sulfonatobenzoato)-silver(i))
;
_cell_volume    636.606
_exptl_crystal_density_diffrn 2.103
_diffrn_ambient_temperature 295
#These two values have been output from a single CSD field.
_refine_ls_R_factor_gt 0.0257
_refine_ls_wR_factor_gt 0.0257
_symmetry_cell_setting triclinic
_symmetry_space_group_name_H-M 'P -1'
_symmetry_Int_Tables_number 2
loop_
_symmetry_equiv_pos_site_id
_symmetry_equiv_pos_as_xyz
1 x,y,z
2 -x,-y,-z
_cell_length_a 6.0178(3)
_cell_length_b 7.4969(4)
_cell_length_c 14.5404(9)
_cell_angle_alpha 76.205(5)
_cell_angle_beta 87.845(4)
_cell_angle_gamma 89.788(4)
_cell_formula_units_Z 2
loop_
_atom_type_symbol
_atom_type_radius_bond
C 0.68
H 0.23
Ag 1.45
N 0.68
O 0.68
S 1.02
loop_
_atom_site_label
_atom_site_type_symbol
_atom_site_fract_x
_atom_site_fract_y
_atom_site_fract_z
Ag1 Ag -0.21694(4) 0.42216(3) 1.036734(17)
O1 O 0.3665(3) 0.3108(3) 1.03140(14)
O2 O 0.0285(3) 0.2029(3) 1.08372(16)
S1 S 0.53922(11) -0.57189(9) 1.26910(5)
C1 C 0.4551(4) -0.3548(3) 1.20145(17)
O3 O 0.7360(3) -0.6235(3) 1.22057(15)
C2 C 0.1793(4) -0.1546(4) 1.11919(18)
H1 H 0.03830 -0.13690 1.09450
C3 C 0.6004(4) -0.2078(4) 1.18979(19)
H2 H 0.74240 -0.22620 1.21340
O4 O 0.3542(4) -0.6961(3) 1.27409(17)
O5 O 0.5873(4) -0.5436(3) 1.36169(14)
C4 C 0.2450(4) -0.3301(4) 1.16455(19)
H3 H 0.14950 -0.42970 1.17020
C5 C 0.3215(4) -0.0046(3) 1.11004(17)
C6 C 0.5354(4) -0.0336(4) 1.14328(19)
H4 H 0.63490 0.06420 1.13420
C7 C 0.2336(4) 0.1851(4) 1.07126(17)
C8 C -0.1399(5) -0.7951(4) 1.5782(2)
H5 H -0.27080 -0.72900 1.56530
C9 C -0.1243(6) -0.9245(4) 1.6592(2)
H6 H -0.24710 -0.94930 1.70110
C10 C 0.0435(5) -0.7594(4) 1.51224(19)
C11 C 0.2410(5) -0.8548(4) 1.5406(2)
H7 H 0.36940 -0.82990 1.50210
N1 N 0.0284(4) -0.6441(4) 1.42800(17)
H8 H 0.14130 -0.62560 1.38880
H9 H -0.09440 -0.58770 1.41260
C12 C 0.2444(6) -0.9823(4) 1.6236(2)
H10 H 0.37510 -1.04590 1.64100
N2 N 0.0636(5) -1.0188(4) 1.68128(18)
H11 H 0.06780 -1.10340 1.73290
Ag1* Ag 0.78306(4) -0.57784(3) 1.036734(17)
Ag1** Ag 0.78306(4) 0.42216(3) 1.036734(17)
Ag1A Ag 0.21694(4) 0.57784(3) 0.963266(17)
O1* O -0.6335(3) 0.3108(3) 1.03140(14)
O1A O -0.3665(3) 0.6892(3) 0.96860(14)
O3* O -0.2640(3) 0.3765(3) 1.22057(15)
#END
