
#######################################################################
#
#                 Cambridge Crystallographic Data Centre
#                                CCDC
#
#######################################################################
#
# If this CIF has been generated from an entry in the Cambridge
# Structural Database, then it will include bibliographic, chemical,
# crystal, experimental, refinement or atomic coordinate data resulting
# from the CCDC's data processing and validation procedures.
#
#######################################################################

data_CSD_CIF_NIFSIG
_audit_creation_date 2013-05-24
_audit_creation_method CSD-ConQuest-V1
_database_code_CSD NIFSIG
_database_code_depnum_ccdc_archive 'CCDC 868828'
_chemical_formula_sum 'C84 H128 Cu6 Mn4 N16 O74'
_chemical_formula_moiety
;
(C60 H40 Cu6 Mn4 N12 O44 4-)n,2n(C12 H14 N2 2+),30n(H2 O1)
;
_journal_coden_Cambridge 1089
_journal_volume 24
_journal_year 2012
_journal_page_first 5625
_journal_name_full 'Adv.Mater. '
loop_
_publ_author_name
"J.Ferrando-Soria"
"H.Khajavi"
"P.Serra-Crespo"
"J.Gascon"
"F.Kapteijn"
"M.Julve"
"F.Lloret"
"J.Pasan"
"C.Ruiz-Perez"
"Y.Journaux"
"E.Pardo"
_chemical_name_systematic
;
catena-(bis(1,1'-dimethyl-4,4'-bipyridinium) 
hexakis(\m~4~-N,N'-(1,3-phenylene)-bis(oxamato))-octaaqua-hexa-copper(ii)-tetr
;
_cell_volume   7414.604
_exptl_crystal_colour 'green'
_exptl_crystal_density_diffrn 1.413
_exptl_crystal_description 'needle'
_diffrn_ambient_temperature 100
_diffrn_radiation_probe x-ray
_diffrn_source synchrotron
_refine_special_details
;
O14X,O16X,O7X and O14W,O16W,O7W disordered over two sites with occupancies 
0.50:0.25; O25W and O25X and O25Y disordered over three sites with 
occupancies 0.33:0.33:0.33.
;
#These two values have been output from a single CSD field.
_refine_ls_R_factor_gt 0.0974
_refine_ls_wR_factor_gt 0.0974
_symmetry_cell_setting monoclinic
_symmetry_space_group_name_H-M 'P 21/m'
_symmetry_Int_Tables_number 11
loop_
_symmetry_equiv_pos_site_id
_symmetry_equiv_pos_as_xyz
1 x,y,z
2 -x,1/2+y,-z
3 -x,-y,-z
4 x,-1/2-y,z
_cell_length_a 18.3610(18)
_cell_length_b 25.271(5)
_cell_length_c 18.3882(19)
_cell_angle_alpha 90
_cell_angle_beta 119.655(9)
_cell_angle_gamma 90
_cell_formula_units_Z 2
loop_
_atom_type_symbol
_atom_type_radius_bond
C 0.68
H 0.23
Cu 1.32
Mn 1.61
N 0.68
O 0.68
loop_
_atom_site_label
_atom_site_type_symbol
_atom_site_fract_x
_atom_site_fract_y
_atom_site_fract_z
C1 C 0.1901(5) 0.6336(3) 0.5260(5)
C2 C 0.2395(5) 0.5834(3) 0.5621(5)
C3 C 0.1549(5) 0.7020(3) 0.4289(5)
C4 C 0.0742(6) 0.7027(3) 0.3598(6)
H1 H 0.04720 0.67110 0.33510
C5 C 0.0353(9) 0.75000 0.3286(10)
H2 H -0.01970 0.75000 0.28460
C6 C 0.1943(7) 0.75000 0.4633(7)
H3 H 0.24780 0.75000 0.50980
C7 C 0.3577(5) 0.6339(3) 0.3550(5)
C8 C 0.3901(5) 0.5814(3) 0.3972(5)
C9 C 0.2606(5) 0.7027(3) 0.3246(5)
C10 C 0.1833(7) 0.7028(3) 0.2509(6)
H4 H 0.15720 0.67110 0.22620
C11 C 0.1461(12) 0.75000 0.2154(11)
H5 H 0.09470 0.75000 0.16630
C12 C 0.2978(7) 0.75000 0.3593(7)
H6 H 0.34980 0.75000 0.40790
C13 C 1.0023(5) 0.6342(3) 0.6457(5)
C14 C 0.9934(5) 0.5816(3) 0.6024(5)
C15 C 0.9365(5) 0.7027(3) 0.6778(5)
C16 C 0.9302(8) 0.7030(4) 0.7493(6)
H7 H 0.92830 0.67110 0.77360
C17 C 0.9266(15) 0.75000 0.7852(10)
H8 H 0.92180 0.75000 0.83330
C18 C 0.9387(7) 0.75000 0.6420(7)
H9 H 0.94170 0.75000 0.59300
C19 C 0.6643(5) 0.6337(3) 0.4748(5)
C20 C 0.6782(5) 0.5831(3) 0.4381(5)
C21 C 0.7264(5) 0.7018(3) 0.5721(5)
C22 C 0.7134(6) 0.7022(3) 0.6398(6)
H10 H 0.70850 0.67050 0.66260
C23 C 0.7077(12) 0.75000 0.6742(10)
H11 H 0.69990 0.75000 0.72050
C24 C 0.7310(7) 0.75000 0.5376(7)
H12 H 0.73730 0.75000 0.49040
C25 C 0.3121(5) 0.6344(3) -0.1664(5)
C26 C 0.2776(5) 0.5812(3) -0.1569(5)
C27 C 0.4084(5) 0.7025(3) -0.1050(5)
C28 C 0.4801(6) 0.7024(3) -0.1142(6)
H13 H 0.50370 0.67070 -0.11790
C29 C 0.5152(9) 0.75000 -0.1176(10)
H14 H 0.56330 0.75000 -0.12230
C30 C 0.3744(8) 0.75000 -0.1009(7)
H15 H 0.32680 0.75000 -0.09530
C31 C 0.4788(5) 0.6341(3) 0.1667(5)
C32 C 0.4358(5) 0.5810(3) 0.1569(5)
C33 C 0.5145(6) 0.7029(3) 0.1056(5)
C34 C 0.5941(6) 0.7026(3) 0.1136(6)
H16 H 0.62050 0.67080 0.11580
C35 C 0.6331(10) 0.75000 0.1182(10)
H17 H 0.68660 0.75000 0.12460
C36 C 0.4742(7) 0.75000 0.1013(7)
H18 H 0.42100 0.75000 0.09560
N1 N 0.1972(4) 0.6540(2) 0.4642(4)
N2 N 0.2967(4) 0.6534(2) 0.3634(4)
N3 N 0.9331(4) 0.6530(2) 0.6376(4)
N4 N 0.7334(4) 0.6543(2) 0.5363(4)
N5 N 0.3732(4) 0.6531(2) -0.0991(4)
N6 N 0.4731(4) 0.6528(2) 0.1001(4)
Mn1 Mn 0.50086(7) 0.61036(4) 0.33208(8)
Mn2 Mn 0.16863(7) 0.61072(4) -0.33034(8)
Cu1 Cu 0.26799(6) 0.60848(4) 0.43485(6)
Cu2 Cu 0.83349(6) 0.60873(4) 0.56526(6)
Cu3 Cu 0.40124(8) 0.60853(4) 0.00043(7)
O1 O 0.1470(3) 0.65194(19) 0.5580(3)
O2 O 0.2390(3) 0.56376(19) 0.6252(3)
O3 O 0.2789(4) 0.5648(2) 0.5285(4)
O4 O 0.3916(3) 0.6536(2) 0.3147(3)
O5 O 0.4518(3) 0.56086(19) 0.3945(3)
O6 O 0.3568(4) 0.5616(2) 0.4377(4)
O7 O 1.0761(3) 0.65317(19) 0.6874(3)
O8 O 1.0572(3) 0.5616(2) 0.6060(3)
O9 O 0.9195(3) 0.5623(2) 0.5622(4)
O10 O 0.5901(3) 0.65147(19) 0.4427(3)
O11 O 0.6156(3) 0.56362(19) 0.3759(3)
O12 O 0.7513(3) 0.5652(2) 0.4710(4)
O13 O 0.2759(3) 0.6538(2) -0.2418(3)
O14 O 0.2178(3) 0.5609(2) -0.2188(3)
O15 O 0.3154(4) 0.5611(2) -0.0840(4)
O16 O 0.5187(4) 0.6536(2) 0.2423(3)
O17 O 0.4397(4) 0.5603(2) 0.2210(3)
O18 O 0.4002(4) 0.5610(2) 0.0853(4)
O19 O 0.1657(4) 0.5563(3) 0.3339(4)
O20 O 0.8305(4) 0.5559(3) 0.6657(4)
O21 O 0.5073(4) 0.5553(2) 0.0002(4)
O22 O 0.2706(10) 0.6616(7) 0.0014(10)
C37 C 0.8422(6) 0.5535(3) 0.3604(7)
H19 H 0.78560 0.54100 0.32870
H20 H 0.86830 0.53810 0.41540
H21 H 0.87290 0.54340 0.33280
C38 C 0.9144(5) 0.6375(3) 0.4091(5)
H22 H 0.96480 0.61910 0.43470
C39 C 0.9146(5) 0.6920(3) 0.4145(6)
H23 H 0.96530 0.70980 0.44450
C40 C 0.8406(5) 0.7207(3) 0.3761(5)
C41 C 0.7674(5) 0.6914(3) 0.3356(6)
H24 H 0.71600 0.70880 0.31130
C42 C 0.7688(5) 0.6377(3) 0.3303(6)
H25 H 0.71880 0.61910 0.30100
N7 N 0.8422(5) 0.6111(2) 0.3673(5)
C43 C 0.4794(6) 0.5527(3) 0.6369(7)
H26 H 0.45350 0.54020 0.66800
H27 H 0.53730 0.54230 0.66490
H28 H 0.45120 0.53780 0.58170
C44 C 0.5053(5) 0.6377(3) 0.5906(5)
H29 H 0.53070 0.61920 0.56550
C45 C 0.5013(5) 0.6916(3) 0.5852(6)
H30 H 0.52380 0.70910 0.55640
C46 C 0.4637(5) 0.7209(3) 0.6222(5)
C47 C 0.4301(6) 0.6912(3) 0.6631(6)
H31 H 0.40290 0.70840 0.68760
C48 C 0.4367(6) 0.6376(3) 0.6674(6)
H32 H 0.41530 0.61890 0.69610
N8 N 0.4736(4) 0.6111(2) 0.6311(5)
O23 O 0.5171(5) 0.75000 0.4389(6)
O24 O 0.6019(5) 0.75000 0.3131(5)
O25 O 0.3775(8) 0.75000 0.2316(8)
O26? O 0.289(2) 0.6910(13) 0.1452(14)
O27 O 0.255(3) 0.75000 0.078(3)
O28 O 0.3063(10) 0.4994(8) 0.2065(13)
O29 O 0.6326(4) 0.4997(3) 0.2648(4)
O30 O 0.388(2) 0.3791(17) 0.191(2)
O31 O 0.1677(14) 0.5634(8) 0.1821(11)
O32 O 1.1450(9) 0.75000 0.7694(9)
O33? O 1.1401(14) 0.6922(12) 0.8564(14)
O34 O 1.174(3) 0.75000 0.923(2)
O35 O 0.0749(5) 0.75000 0.5592(5)
O36? O -0.187(5) 0.692(2) 0.114(6)
O37 O -0.153(5) 0.639(2) 0.200(2)
O38 O 0.6494(7) 0.5627(4) 0.1525(6)
O39 O -0.0240(17) 0.6992(18) -0.002(2)
O40 O 0.248(2) 0.495(2) -0.0019(17)
O41 O -0.0405(18) 0.5002(13) -0.0755(12)
O42 O -0.0179(13) 0.5638(7) -0.1822(11)
O43 O 0.0984(10) 0.5022(7) -0.2010(12)
O44 O 0.2884(5) 0.75000 -0.3126(5)
O45 O 0.5025(9) 0.4364(5) 0.1536(6)
O46 O 0.3922(10) 0.4564(5) 0.4568(10)
O47? O 0.2962(10) 0.4286(6) 0.2937(11)
O48? O 0.344(1) 0.4489(5) 0.3967(12)
O49 O -0.0073(13) 0.5718(6) 0.2893(13)
O50 O 0.9398(6) 0.4531(3) 0.5639(13)
C1C C 0.1901(5) 0.8664(3) 0.5260(5)
C2C C 0.2395(5) 0.9166(3) 0.5621(5)
C3C C 0.1549(5) 0.7980(3) 0.4289(5)
C4C C 0.0742(6) 0.7973(3) 0.3598(6)
H1C H 0.04720 0.82890 0.33510
N1C N 0.1972(4) 0.8460(2) 0.4642(4)
O1C O 0.1470(3) 0.84806(19) 0.5580(3)
O2C O 0.2390(3) 0.93624(19) 0.6252(3)
O3C O 0.2789(4) 0.9352(2) 0.5285(4)
C7C C 0.3577(5) 0.8661(3) 0.3550(5)
C8C C 0.3901(5) 0.9186(3) 0.3972(5)
C9C C 0.2606(5) 0.7973(3) 0.3246(5)
C10C C 0.1833(7) 0.7972(3) 0.2509(6)
H4C H 0.15720 0.82890 0.22620
N2C N 0.2967(4) 0.8466(2) 0.3634(4)
O4C O 0.3916(3) 0.8464(2) 0.3147(3)
O5C O 0.4518(3) 0.93914(19) 0.3945(3)
O6C O 0.3568(4) 0.9384(2) 0.4377(4)
C13C C 1.0023(5) 0.8658(3) 0.6457(5)
C14C C 0.9934(5) 0.9184(3) 0.6024(5)
C15C C 0.9365(5) 0.7973(3) 0.6778(5)
C16C C 0.9302(8) 0.7970(4) 0.7493(6)
H7C H 0.92830 0.82890 0.77360
N3C N 0.9331(4) 0.8470(2) 0.6376(4)
O7C O 1.0761(3) 0.84683(19) 0.6874(3)
O8C O 1.0572(3) 0.9384(2) 0.6060(3)
O9C O 0.9195(3) 0.9377(2) 0.5622(4)
C19C C 0.6643(5) 0.8663(3) 0.4748(5)
C20C C 0.6782(5) 0.9169(3) 0.4381(5)
C21C C 0.7264(5) 0.7982(3) 0.5721(5)
C22C C 0.7134(6) 0.7978(3) 0.6398(6)
H10C H 0.70850 0.82950 0.66260
N4C N 0.7334(4) 0.8457(2) 0.5363(4)
O10C O 0.5901(3) 0.84853(19) 0.4427(3)
O11C O 0.6156(3) 0.93638(19) 0.3759(3)
O12C O 0.7513(3) 0.9348(2) 0.4710(4)
C25C C 0.3121(5) 0.8656(3) -0.1664(5)
C26C C 0.2776(5) 0.9188(3) -0.1569(5)
C27C C 0.4084(5) 0.7975(3) -0.1050(5)
C28C C 0.4801(6) 0.7976(3) -0.1142(6)
H13C H 0.50370 0.82930 -0.11790
N5C N 0.3732(4) 0.8469(2) -0.0991(4)
O13C O 0.2759(3) 0.8462(2) -0.2418(3)
O14C O 0.2178(3) 0.9391(2) -0.2188(3)
O15C O 0.3154(4) 0.9389(2) -0.0840(4)
C31C C 0.4788(5) 0.8659(3) 0.1667(5)
C32C C 0.4358(5) 0.9190(3) 0.1569(5)
C33C C 0.5145(6) 0.7971(3) 0.1056(5)
C34C C 0.5941(6) 0.7974(3) 0.1136(6)
H16C H 0.62050 0.82920 0.11580
N6C N 0.4731(4) 0.8472(2) 0.1001(4)
O16C O 0.5187(4) 0.8464(2) 0.2423(3)
O17C O 0.4397(4) 0.9397(2) 0.2210(3)
O18C O 0.4002(4) 0.9390(2) 0.0853(4)
Mn1C Mn 0.50086(7) 0.88964(4) 0.33208(8)
Mn2C Mn 0.16863(7) 0.88928(4) -0.33034(8)
Cu1C Cu 0.26799(6) 0.89152(4) 0.43485(6)
Cu2C Cu 0.83349(6) 0.89127(4) 0.56526(6)
Cu3C Cu 0.40124(8) 0.89147(4) 0.00043(7)
O19C O 0.1657(4) 0.9437(3) 0.3339(4)
O20C O 0.8305(4) 0.9441(3) 0.6657(4)
O21C O 0.5073(4) 0.9447(2) 0.0002(4)
O22C O 0.2706(10) 0.8384(7) 0.0014(10)
Mn2* Mn 0.16863(7) 0.61072(4) 0.66966(8)
Mn2** Mn 1.16863(7) 0.61072(4) 0.66966(8)
Mn2C* Mn 0.16863(7) 0.88928(4) 0.66966(8)
Mn2C** Mn 1.16863(7) 0.88928(4) 0.66966(8)
O1* O 0.1470(3) 0.65194(19) -0.4420(3)
O1C* O 0.1470(3) 0.84806(19) -0.4420(3)
O2* O 0.2390(3) 0.56376(19) -0.3748(3)
O2C* O 0.2390(3) 0.93624(19) -0.3748(3)
O7* O 0.0761(3) 0.65317(19) -0.3126(3)
O7C* O 0.0761(3) 0.84683(19) -0.3126(3)
O8* O 0.0572(3) 0.5616(2) -0.3940(3)
O8C* O 0.0572(3) 0.9384(2) -0.3940(3)
C37C C 0.8422(6) 0.9465(3) 0.3604(7)
H19C H 0.78560 0.95900 0.32870
H20C H 0.86830 0.96190 0.41540
H21C H 0.87290 0.95660 0.33280
C38C C 0.9144(5) 0.8625(3) 0.4091(5)
H22C H 0.96480 0.88090 0.43470
C39C C 0.9146(5) 0.8080(3) 0.4145(6)
H23C H 0.96530 0.79020 0.44450
C40C C 0.8406(5) 0.7793(3) 0.3761(5)
C41C C 0.7674(5) 0.8086(3) 0.3356(6)
H24C H 0.71600 0.79120 0.31130
C42C C 0.7688(5) 0.8623(3) 0.3303(6)
H25C H 0.71880 0.88090 0.30100
N7C N 0.8422(5) 0.8889(2) 0.3673(5)
C43C C 0.4794(6) 0.9473(3) 0.6369(7)
H26C H 0.45350 0.95980 0.66800
H27C H 0.53730 0.95770 0.66490
H28C H 0.45120 0.96220 0.58170
C44C C 0.5053(5) 0.8623(3) 0.5906(5)
H29C H 0.53070 0.88080 0.56550
C45C C 0.5013(5) 0.8084(3) 0.5852(6)
H30C H 0.52380 0.79090 0.55640
C46C C 0.4637(5) 0.7791(3) 0.6222(5)
C47C C 0.4301(6) 0.8088(3) 0.6631(6)
H31C H 0.40290 0.79160 0.68760
C48C C 0.4367(6) 0.8624(3) 0.6674(6)
H32C H 0.41530 0.88110 0.69610
N8C N 0.4736(4) 0.8889(2) 0.6311(5)
#END
