
#######################################################################
#
#                 Cambridge Crystallographic Data Centre
#                                CCDC
#
#######################################################################
#
# If this CIF has been generated from an entry in the Cambridge
# Structural Database, then it will include bibliographic, chemical,
# crystal, experimental, refinement or atomic coordinate data resulting
# from the CCDC's data processing and validation procedures.
#
#######################################################################

data_CSD_CIF_NIHQED
_audit_creation_date 2018-09-25
_audit_creation_method CSD-ConQuest-V1
_database_code_CSD NIHQED
_database_code_depnum_ccdc_archive 'CCDC 1869691'
_chemical_formula_sum 'C37 H47 Cl6 Mn2 N3 O13'
_chemical_formula_moiety
;
(C18 Cl6 Mn2 O12 2-)n,2n(C8 H20 N1 1+),n(C3 H7 N1 O1)
;
_journal_coden_Cambridge 4
_journal_volume 140
_journal_year 2018
_journal_page_first 11444
_journal_name_full 'J.Am.Chem.Soc. '
loop_
_publ_author_name
"Lujia Liu"
"Liang Li"
"J.A.DeGayner"
"P.H.Winegar"
"Yu Fang"
"T.David Harris"
_chemical_name_systematic
;
catena-(bis(tetraethylammonium) 
tris(\m-3,6-dichloro-2,5-dioxy-1,4-benzoquinone)-di-manganese(ii) 
dimethylformamide solvate)
;
_cell_volume   1747.410
_exptl_crystal_colour 'brown'
_exptl_crystal_description 'block'
_diffrn_ambient_temperature 100.0
_refine_special_details
;
The cation is disordered by symmetry. The MASK/OLEX2 program was used to 
model some disordered dimethylformamide solvent.
;
#These two values have been output from a single CSD field.
_refine_ls_R_factor_gt 0.068
_refine_ls_wR_factor_gt 0.068
_symmetry_cell_setting hexagonal
_symmetry_space_group_name_H-M 'P -3 1 m'
_symmetry_Int_Tables_number 162
loop_
_symmetry_equiv_pos_site_id
_symmetry_equiv_pos_as_xyz
1 x,y,z
2 -y,x-y,z
3 -x+y,-x,z
4 -y,-x,-z
5 -x+y,y,-z
6 x,x-y,-z
7 -x,-y,-z
8 y,-x+y,-z
9 x-y,x,-z
10 y,x,z
11 x-y,-y,z
12 -x,-x+y,z
_cell_length_a 14.0315(12)
_cell_length_b 14.0315(12)
_cell_length_c 10.2484(17)
_cell_angle_alpha 90
_cell_angle_beta 90
_cell_angle_gamma 120
_cell_formula_units_Z 1
loop_
_atom_type_symbol
_atom_type_radius_bond
C 0.68
H 0.23
Cl 0.99
Mn 1.61
N 0.68
O 0.68
loop_
_atom_site_label
_atom_site_type_symbol
_atom_site_fract_x
_atom_site_fract_y
_atom_site_fract_z
Mn1 Mn 0.66670 0.33330 1.00000
Cl1 Cl 0.38091(18) 0.00000 0.7359(2)
O1 O 0.5481(3) 0.1924(3) 0.8903(3)
C1 C 0.5203(4) 0.0990(4) 0.9355(5)
C2 C 0.4471(6) 0.00000 0.8789(7)
N1 N 0.66670 0.33330 0.50000
C3 C 0.6356(9) 0.488(1) 0.4037(17)
H1 H 0.64760 0.53200 0.32480
H2 H 0.55660 0.44550 0.42270
H3 H 0.67410 0.53680 0.47730
C4 C 0.6800(9) 0.4092(10) 0.3823(11)
H4 H 0.75910 0.45330 0.36050
H5 H 0.64190 0.36220 0.30600
C5 C 0.7174(12) 0.2630(12) 0.454(2)
H6 H 0.67780 0.22190 0.37440
H7 H 0.79500 0.31310 0.42900
C6 C 0.7136(13) 0.1805(10) 0.555(3)
H8 H 0.74710 0.13960 0.51840
H9 H 0.75440 0.22030 0.63330
H10 H 0.63690 0.12890 0.57870
Cl1D Cl 0.61909(18) 0.00000 1.2641(2)
O1D O 0.6443(3) 0.1924(3) 1.1097(3)
C1D C 0.5787(4) 0.0990(4) 1.0645(5)
C2D C 0.5529(6) 0.00000 1.1211(7)
O1F O 0.4519(3) -0.1924(3) 1.1097(3)
C1F C 0.4797(4) -0.0990(4) 1.0645(5)
O1J O 0.3557(3) -0.1924(3) 0.8903(3)
C1J C 0.4213(4) -0.0990(4) 0.9355(5)
Cl1A Cl 1.00000(18) 0.38091 0.7359(2)
O1A O 0.8076(3) 0.3557(3) 0.8903(3)
C1A C 0.9010(4) 0.4213(4) 0.9355(5)
C2A C 1.0000(6) 0.44710 0.8789(7)
Cl1C Cl 1.00000(18) 0.61909 1.2641(2)
O1C O 0.8076(3) 0.4519(3) 1.1097(3)
C1C C 0.9010(4) 0.4797(4) 1.0645(5)
C2C C 1.0000(6) 0.55290 1.1211(7)
O1G O 1.1924(3) 0.6443(3) 1.1097(3)
C1G C 1.0990(4) 0.5787(4) 1.0645(5)
O1I O 1.1924(3) 0.5481(3) 0.8903(3)
C1I C 1.0990(4) 0.5203(4) 0.9355(5)
Cl1B Cl 0.61909(18) 0.61909 0.7359(2)
O1B O 0.6443(3) 0.4519(3) 0.8903(3)
C1B C 0.5787(4) 0.4797(4) 0.9355(5)
C2B C 0.5529(6) 0.55290 0.8789(7)
Cl1E Cl 0.38091(18) 0.38091 1.2641(2)
O1E O 0.5481(3) 0.3557(3) 1.1097(3)
C1E C 0.5203(4) 0.4213(4) 1.0645(5)
C2E C 0.4471(6) 0.44710 1.1211(7)
O1H O 0.3557(3) 0.5481(3) 1.1097(3)
C1H C 0.4213(4) 0.5203(4) 1.0645(5)
O1K O 0.4519(3) 0.6443(3) 0.8903(3)
C1K C 0.4797(4) 0.5787(4) 0.9355(5)
Mn1F Mn 0.33330 -0.33330 1.00000
Mn1F* Mn 0.33330 0.66670 1.00000
Mn1F** Mn 1.33330 0.66670 1.00000
O1G* O 0.1924(3) -0.3557(3) 1.1097(3)
O1H* O 0.3557(3) -0.4519(3) 1.1097(3)
O1I* O 0.1924(3) -0.4519(3) 0.8903(3)
O1K* O 0.4519(3) -0.3557(3) 0.8903(3)
C3A C 0.5120(9) 0.1476(10) 0.4037(17)
H1A H 0.46800 0.11560 0.32480
H2A H 0.55450 0.11110 0.42270
H3A H 0.46320 0.13730 0.47730
C4A C 0.5908(9) 0.2708(10) 0.3823(11)
H4A H 0.54670 0.30580 0.36050
H5A H 0.63780 0.27970 0.30600
C5A C 0.7370(12) 0.4544(12) 0.454(2)
H6A H 0.77810 0.45590 0.37440
H7A H 0.68690 0.48190 0.42900
C6A C 0.8195(13) 0.5331(10) 0.555(3)
H8A H 0.86040 0.60750 0.51840
H9A H 0.77970 0.53410 0.63330
H10A H 0.87110 0.50800 0.57870
C3B C 0.8524(9) 0.3644(10) 0.4037(17)
H1B H 0.88440 0.35240 0.32480
H2B H 0.88890 0.44340 0.42270
H3B H 0.86270 0.32590 0.47730
C4B C 0.7292(9) 0.320(1) 0.3823(11)
H4B H 0.69420 0.24090 0.36050
H5B H 0.72030 0.35810 0.30600
C5B C 0.5456(12) 0.2826(12) 0.454(2)
H6B H 0.54410 0.32220 0.37440
H7B H 0.51810 0.20500 0.42900
C6B C 0.4669(13) 0.2864(10) 0.555(3)
H8B H 0.39250 0.25290 0.51840
H9B H 0.46590 0.24560 0.63330
H10B H 0.49200 0.36310 0.57870
C3C C 0.5120(9) 0.3644(10) 0.5963(17)
H1C H 0.46800 0.35240 0.67520
H2C H 0.55450 0.44340 0.57730
H3C H 0.46320 0.32590 0.52270
C4C C 0.5908(9) 0.320(1) 0.6177(11)
H4C H 0.54670 0.24090 0.63950
H5C H 0.63780 0.35810 0.69400
C5C C 0.7370(12) 0.2826(12) 0.546(2)
H6C H 0.77810 0.32220 0.62560
H7C H 0.68690 0.20500 0.57100
C6C C 0.8195(13) 0.2864(10) 0.445(3)
H8C H 0.86040 0.25290 0.48160
H9C H 0.77970 0.24560 0.36670
H10C H 0.87110 0.36310 0.42130
C3D C 0.8524(9) 0.488(1) 0.5963(17)
H1D H 0.88440 0.53200 0.67520
H2D H 0.88890 0.44550 0.57730
H3D H 0.86270 0.53680 0.52270
C4D C 0.7292(9) 0.4092(10) 0.6177(11)
H4D H 0.69420 0.45330 0.63950
H5D H 0.72030 0.36220 0.69400
C5D C 0.5456(12) 0.2630(12) 0.546(2)
H6D H 0.54410 0.22190 0.62560
H7D H 0.51810 0.31310 0.57100
C6D C 0.4669(13) 0.1805(10) 0.445(3)
H8D H 0.39250 0.13960 0.48160
H9D H 0.46590 0.22030 0.36670
H10D H 0.49200 0.12890 0.42130
C3E C 0.6356(9) 0.1476(10) 0.5963(17)
H1E H 0.64760 0.11560 0.67520
H2E H 0.55660 0.11110 0.57730
H3E H 0.67410 0.13730 0.52270
C4E C 0.6800(9) 0.2708(10) 0.6177(11)
H4E H 0.75910 0.30580 0.63950
H5E H 0.64190 0.27970 0.69400
C5E C 0.7174(12) 0.4544(12) 0.546(2)
H6E H 0.67780 0.45590 0.62560
H7E H 0.79500 0.48190 0.57100
C6E C 0.7136(13) 0.5331(10) 0.445(3)
H8E H 0.74710 0.60750 0.48160
H9E H 0.75440 0.53410 0.36670
H10E H 0.63690 0.50800 0.42130
#END
