
#######################################################################
#
#                 Cambridge Crystallographic Data Centre
#                                CCDC
#
#######################################################################
#
# If this CIF has been generated from an entry in the Cambridge
# Structural Database, then it will include bibliographic, chemical,
# crystal, experimental, refinement or atomic coordinate data resulting
# from the CCDC's data processing and validation procedures.
#
#######################################################################

data_CSD_CIF_NIHQUT
_audit_creation_date 2018-09-25
_audit_creation_method CSD-ConQuest-V1
_database_code_CSD NIHQUT
_database_code_depnum_ccdc_archive 'CCDC 1869694'
_chemical_formula_sum 'C37 H47 Cl6 Co2 N3 O13'
_chemical_formula_moiety
;
(C18 Cl6 Co2 O12 2-)n,2n(C8 H20 N1 1+),n(C3 H7 N1 O1)
;
_journal_coden_Cambridge 4
_journal_volume 140
_journal_year 2018
_journal_page_first 11444
_journal_name_full 'J.Am.Chem.Soc. '
loop_
_publ_author_name
"Lujia Liu"
"Liang Li"
"J.A.DeGayner"
"P.H.Winegar"
"Yu Fang"
"T.David Harris"
_chemical_name_systematic
;
catena-(tetraethylammonium 
tris(\m-3,6-dichloro-2,5-dioxy-1,4-benzoquinone)-di-cobalt(ii) 
dimethylformamide solvate)
;
_cell_volume   1655.405
_exptl_crystal_colour 'brown'
_exptl_crystal_density_diffrn 1.002
_exptl_crystal_description 'block'
_diffrn_ambient_temperature 100.0
_refine_special_details
;
The cation is disordered by symmetry. The MASK/OLEX2 program was used to 
model some disordered dimethylformamide solvent.
;
#These two values have been output from a single CSD field.
_refine_ls_R_factor_gt 0.0789
_refine_ls_wR_factor_gt 0.0789
_symmetry_cell_setting hexagonal
_symmetry_space_group_name_H-M 'P -3 1 m'
_symmetry_Int_Tables_number 162
loop_
_symmetry_equiv_pos_site_id
_symmetry_equiv_pos_as_xyz
1 x,y,z
2 -y,x-y,z
3 -x+y,-x,z
4 -y,-x,-z
5 -x+y,y,-z
6 x,x-y,-z
7 -x,-y,-z
8 y,-x+y,-z
9 x-y,x,-z
10 y,x,z
11 x-y,-y,z
12 -x,-x+y,z
_cell_length_a 13.7048(7)
_cell_length_b 13.7048(7)
_cell_length_c 10.1772(10)
_cell_angle_alpha 90
_cell_angle_beta 90
_cell_angle_gamma 120
_cell_formula_units_Z 1
loop_
_atom_type_symbol
_atom_type_radius_bond
C 0.68
H 0.23
Cl 0.99
Co 1.26
N 0.68
O 0.68
loop_
_atom_site_label
_atom_site_type_symbol
_atom_site_fract_x
_atom_site_fract_y
_atom_site_fract_z
Co1 Co 0.33330 0.66670 0.00000
Cl1 Cl 0.3710(2) 1.00000 0.2599(3)
O1 O 0.3476(4) 0.8013(4) 0.1076(4)
C1 C 0.4413(6) 1.00000 0.1187(9)
C2 C 0.4182(5) 0.8984(6) 0.0629(6)
N1 N 0.33330 0.66670 0.50000
C3 C 0.2797(11) 0.6924(8) 0.3796(11)
H1 H 0.31650 0.77510 0.36870
H2 H 0.29560 0.66150 0.29970
C4 C 0.1517(11) 0.6439(8) 0.3903(15)
H3 H 0.11240 0.56820 0.35190
H4 H 0.13060 0.69280 0.34290
H5 H 0.13060 0.63980 0.48300
C5 C 0.4617(9) 0.7217(10) 0.4720(16)
H6 H 0.47220 0.68990 0.38940
H7 H 0.49310 0.80350 0.45840
C6 C 0.5288(13) 0.7045(10) 0.5819(18)
H8 H 0.56480 0.77180 0.63750
H9 H 0.58670 0.69150 0.54290
H10 H 0.47770 0.63920 0.63530
Cl1D Cl 0.6290(2) 1.00000 -0.2599(3)
O1D O 0.4537(4) 0.8013(4) -0.1076(4)
C1D C 0.5587(6) 1.00000 -0.1187(9)
C2D C 0.4802(5) 0.8984(6) -0.0629(6)
O1F O 0.6524(4) 1.1987(4) -0.1076(4)
C2F C 0.5818(5) 1.1016(6) -0.0629(6)
O1J O 0.5463(4) 1.1987(4) 0.1076(4)
C2J C 0.5198(5) 1.1016(6) 0.0629(6)
Cl1A Cl 0.0000(2) 0.37100 0.2599(3)
O1A O 0.1987(4) 0.5463(4) 0.1076(4)
C1A C 0.0000(6) 0.44130 0.1187(9)
C2A C 0.1016(5) 0.5198(6) 0.0629(6)
Cl1C Cl 0.0000(2) 0.62900 -0.2599(3)
O1C O 0.1987(4) 0.6524(4) -0.1076(4)
C1C C 0.0000(6) 0.55870 -0.1187(9)
C2C C 0.1016(5) 0.5818(6) -0.0629(6)
O1G O -0.1987(4) 0.4537(4) -0.1076(4)
C2G C -0.1016(5) 0.4802(6) -0.0629(6)
O1I O -0.1987(4) 0.3476(4) 0.1076(4)
C2I C -0.1016(5) 0.4182(6) 0.0629(6)
Cl1B Cl 0.6290(2) 0.62900 0.2599(3)
O1B O 0.4537(4) 0.6524(4) 0.1076(4)
C1B C 0.5587(6) 0.55870 0.1187(9)
C2B C 0.4802(5) 0.5818(6) 0.0629(6)
Cl1E Cl 0.3710(2) 0.37100 -0.2599(3)
O1E O 0.3476(4) 0.5463(4) -0.1076(4)
C1E C 0.4413(6) 0.44130 -0.1187(9)
C2E C 0.4182(5) 0.5198(6) -0.0629(6)
O1H O 0.5463(4) 0.3476(4) -0.1076(4)
C2H C 0.5198(5) 0.4182(6) -0.0629(6)
O1K O 0.6524(4) 0.4537(4) 0.1076(4)
C2K C 0.5818(5) 0.4802(6) 0.0629(6)
Co1F Co 0.66670 1.33330 0.00000
Co1F* Co -0.33330 0.33330 0.00000
Co1F** Co 0.66670 0.33330 0.00000
O1G* O 0.8013(4) 1.4537(4) -0.1076(4)
O1H* O 0.5463(4) 1.3476(4) -0.1076(4)
O1I* O 0.8013(4) 1.3476(4) 0.1076(4)
O1K* O 0.6524(4) 1.4537(4) 0.1076(4)
C3A C 0.3076(11) 0.5873(8) 0.3796(11)
H1A H 0.22490 0.54140 0.36870
H2A H 0.33850 0.63410 0.29970
C4A C 0.3561(11) 0.5078(8) 0.3903(15)
H3A H 0.43180 0.54420 0.35190
H4A H 0.30720 0.43780 0.34290
H5A H 0.36020 0.49080 0.48300
C5A C 0.2783(9) 0.740(1) 0.4720(16)
H6A H 0.31010 0.78230 0.38940
H7A H 0.19650 0.68960 0.45840
C6A C 0.2955(13) 0.8243(10) 0.5819(18)
H8A H 0.22820 0.79300 0.63750
H9A H 0.30850 0.89520 0.54290
H10A H 0.36080 0.83850 0.63530
C3B C 0.4127(11) 0.7203(8) 0.3796(11)
H1B H 0.45860 0.68350 0.36870
H2B H 0.36590 0.70440 0.29970
C4B C 0.4922(11) 0.8483(8) 0.3903(15)
H3B H 0.45580 0.88760 0.35190
H4B H 0.56220 0.86940 0.34290
H5B H 0.50920 0.86940 0.48300
C5B C 0.2600(9) 0.5383(10) 0.4720(16)
H6B H 0.21770 0.52780 0.38940
H7B H 0.31040 0.50690 0.45840
C6B C 0.1757(13) 0.4712(10) 0.5819(18)
H8B H 0.20700 0.43520 0.63750
H9B H 0.10480 0.41330 0.54290
H10B H 0.16150 0.52230 0.63530
C3C C 0.3076(11) 0.7203(8) 0.6204(11)
H1C H 0.22490 0.68350 0.63130
H2C H 0.33850 0.70440 0.70030
C4C C 0.3561(11) 0.8483(8) 0.6097(15)
H3C H 0.43180 0.88760 0.64810
H4C H 0.30720 0.86940 0.65710
H5C H 0.36020 0.86940 0.51700
C5C C 0.2783(9) 0.5383(10) 0.5280(16)
H6C H 0.31010 0.52780 0.61060
H7C H 0.19650 0.50690 0.54160
C6C C 0.2955(13) 0.4712(10) 0.4181(18)
H8C H 0.22820 0.43520 0.36250
H9C H 0.30850 0.41330 0.45710
H10C H 0.36080 0.52230 0.36470
C3D C 0.4127(11) 0.6924(8) 0.6204(11)
H1D H 0.45860 0.77510 0.63130
H2D H 0.36590 0.66150 0.70030
C4D C 0.4922(11) 0.6439(8) 0.6097(15)
H3D H 0.45580 0.56820 0.64810
H4D H 0.56220 0.69280 0.65710
H5D H 0.50920 0.63980 0.51700
C5D C 0.2600(9) 0.7217(10) 0.5280(16)
H6D H 0.21770 0.68990 0.61060
H7D H 0.31040 0.80350 0.54160
C6D C 0.1757(13) 0.7045(10) 0.4181(18)
H8D H 0.20700 0.77180 0.36250
H9D H 0.10480 0.69150 0.45710
H10D H 0.16150 0.63920 0.36470
C3E C 0.2797(11) 0.5873(8) 0.6204(11)
H1E H 0.31650 0.54140 0.63130
H2E H 0.29560 0.63410 0.70030
C4E C 0.1517(11) 0.5078(8) 0.6097(15)
H3E H 0.11240 0.54420 0.64810
H4E H 0.13060 0.43780 0.65710
H5E H 0.13060 0.49080 0.51700
C5E C 0.4617(9) 0.740(1) 0.5280(16)
H6E H 0.47220 0.78230 0.61060
H7E H 0.49310 0.68960 0.54160
C6E C 0.5288(13) 0.8243(10) 0.4181(18)
H8E H 0.56480 0.79300 0.36250
H9E H 0.58670 0.89520 0.45710
H10E H 0.47770 0.83850 0.36470
#END
