
#######################################################################
#
#                 Cambridge Crystallographic Data Centre
#                                CCDC
#
#######################################################################
#
# If this CIF has been generated from an entry in the Cambridge
# Structural Database, then it will include bibliographic, chemical,
# crystal, experimental, refinement or atomic coordinate data resulting
# from the CCDC's data processing and validation procedures.
#
#######################################################################

data_CSD_CIF_NIHQON
_audit_creation_date 2018-09-25
_audit_creation_method CSD-ConQuest-V1
_database_code_CSD NIHQON
_database_code_depnum_ccdc_archive 'CCDC 1869693'
_chemical_formula_sum 'C39 H49 Cl6 N7 O19 Zn3'
_chemical_formula_moiety
;
(C18 Cl6 O12 Zn2 2-)n,n(C18 H42 N6 O6 Zn1 2+),n(C3 H7 N1 O1)
;
_journal_coden_Cambridge 4
_journal_volume 140
_journal_year 2018
_journal_page_first 11444
_journal_name_full 'J.Am.Chem.Soc. '
loop_
_publ_author_name
"Lujia Liu"
"Liang Li"
"J.A.DeGayner"
"P.H.Winegar"
"Yu Fang"
"T.David Harris"
_chemical_name_systematic
;
catena-(hexakis(dimethylformamide)-zinc(ii) 
tris(\m-3,6-dichloro-2,5-dioxy-1,4-benzoquinone)-di-zinc(ii) 
dimethylformamide solvate)
;
_cell_volume   1563.774
_exptl_crystal_colour 'violet'
_exptl_crystal_description 'block'
_diffrn_ambient_temperature 100.0
_refine_special_details
;
The cation is disordered by symmetry. The MASK/OLEX2 program was used to 
model some disordered dimethylformamide solvent.
;
#These two values have been output from a single CSD field.
_refine_ls_R_factor_gt 0.1393
_refine_ls_wR_factor_gt 0.1393
_symmetry_cell_setting hexagonal
_symmetry_space_group_name_H-M 'P -3 1 m'
_symmetry_Int_Tables_number 162
loop_
_symmetry_equiv_pos_site_id
_symmetry_equiv_pos_as_xyz
1 x,y,z
2 -y,x-y,z
3 -x+y,-x,z
4 -y,-x,-z
5 -x+y,y,-z
6 x,x-y,-z
7 -x,-y,-z
8 y,-x+y,-z
9 x-y,x,-z
10 y,x,z
11 x-y,-y,z
12 -x,-x+y,z
_cell_length_a 13.729(2)
_cell_length_b 13.729(2)
_cell_length_c 9.580(4)
_cell_angle_alpha 90
_cell_angle_beta 90
_cell_angle_gamma 120
_cell_formula_units_Z 1
loop_
_atom_type_symbol
_atom_type_radius_bond
C 0.68
H 0.23
Cl 0.99
N 0.68
O 0.68
Zn 1.22
loop_
_atom_site_label
_atom_site_type_symbol
_atom_site_fract_x
_atom_site_fract_y
_atom_site_fract_z
Cl1 Cl 1.3789(4) 1.3789(4) 0.2845(6)
O1 O 1.5488(6) 1.3519(6) 0.1194(9)
C1 C 1.5223(8) 1.4198(8) 0.0697(12)
C2 C 1.4470(11) 1.4470(11) 0.1305(18)
Zn1 Zn 1.66670 1.33330 0.00000
Zn2 Zn 1.00000 1.00000 0.50000
O2 O 1.030(4) 1.104(3) 0.407(3)
C3 C 1.026(4) 1.184(2) 0.353(3)
H1 H 0.96470 1.19290 0.37620
N1 N 1.099(4) 1.256(2) 0.268(3)
C4 C 1.196(4) 1.247(4) 0.229(5)
H2 H 1.26240 1.31880 0.23640
H3 H 1.18710 1.21960 0.13510
H4 H 1.20160 1.19460 0.29100
C5 C 1.093(6) 1.351(3) 0.211(5)
H5 H 1.02600 1.34880 0.24520
H6 H 1.08990 1.34590 0.11120
H7 H 1.15760 1.41940 0.23960
Cl1C Cl 1.6211(4) 1.6211(4) -0.2845(6)
O1C O 1.6481(6) 1.4512(6) -0.1194(9)
C1C C 1.5802(8) 1.4777(8) -0.0697(12)
C2C C 1.5530(11) 1.5530(11) -0.1305(18)
O1F O 1.4512(6) 1.6481(6) -0.1194(9)
C1F C 1.4777(8) 1.5802(8) -0.0697(12)
O1I O 1.3519(6) 1.5488(6) 0.1194(9)
C1I C 1.4198(8) 1.5223(8) 0.0697(12)
Cl1A Cl 1.6211(4) 1.0000(4) 0.2845(6)
O1A O 1.6481(6) 1.1969(6) 0.1194(9)
C1A C 1.5802(8) 1.1025(8) 0.0697(12)
C2A C 1.5530(11) 1.0000(11) 0.1305(18)
Cl1E Cl 1.3789(4) 1.0000(4) -0.2845(6)
O1E O 1.5488(6) 1.1969(6) -0.1194(9)
C1E C 1.5223(8) 1.1025(8) -0.0697(12)
C2E C 1.4470(11) 1.0000(11) -0.1305(18)
O1G O 1.3519(6) 0.8031(6) -0.1194(9)
C1G C 1.4198(8) 0.8975(8) -0.0697(12)
O1K O 1.4512(6) 0.8031(6) 0.1194(9)
C1K C 1.4777(8) 0.8975(8) 0.0697(12)
Cl1B Cl 2.0000(4) 1.6211(4) 0.2845(6)
O1B O 1.8031(6) 1.4512(6) 0.1194(9)
C1B C 1.8975(8) 1.4777(8) 0.0697(12)
C2B C 2.0000(11) 1.5530(11) 0.1305(18)
Cl1D Cl 2.0000(4) 1.3789(4) -0.2845(6)
O1D O 1.8031(6) 1.3519(6) -0.1194(9)
C1D C 1.8975(8) 1.4198(8) -0.0697(12)
C2D C 2.0000(11) 1.4470(11) -0.1305(18)
O1H O 2.1969(6) 1.5488(6) -0.1194(9)
C1H C 2.1025(8) 1.5223(8) -0.0697(12)
O1J O 2.1969(6) 1.6481(6) 0.1194(9)
C1J C 2.1025(8) 1.5802(8) 0.0697(12)
Zn1F Zn 1.33330 1.66670 0.00000
O1G* O 1.3519(6) 1.8031(6) -0.1194(9)
O1H* O 1.1969(6) 1.5488(6) -0.1194(9)
O1J* O 1.1969(6) 1.6481(6) 0.1194(9)
O1K* O 1.4512(6) 1.8031(6) 0.1194(9)
Zn1F* Zn 1.33330 0.66670 0.00000
Zn1F** Zn 2.33330 1.66670 0.00000
O2I O 1.104(4) 1.030(3) 0.407(3)
C3I C 1.184(4) 1.026(2) 0.353(3)
H1I H 1.19290 0.96470 0.37620
N1I N 1.256(4) 1.099(2) 0.268(3)
C4I C 1.247(4) 1.196(4) 0.229(5)
H2I H 1.31880 1.26240 0.23640
H3I H 1.21960 1.18710 0.13510
H4I H 1.19460 1.20160 0.29100
C5I C 1.351(6) 1.093(3) 0.211(5)
H5I H 1.34880 1.02600 0.24520
H6I H 1.34590 1.08990 0.11120
H7I H 1.41940 1.15760 0.23960
O2K O 0.970(4) 1.074(3) 0.407(3)
C3K C 0.974(4) 1.158(2) 0.353(3)
H1K H 1.03530 1.22820 0.37620
N1K N 0.901(4) 1.157(2) 0.268(3)
C4K C 0.804(4) 1.051(4) 0.229(5)
H2K H 0.73760 1.05640 0.23640
H3K H 0.81290 1.03250 0.13510
H4K H 0.79840 0.99300 0.29100
C5K C 0.907(6) 1.258(3) 0.211(5)
H5K H 0.97400 1.32280 0.24520
H6K H 0.91010 1.25600 0.11120
H7K H 0.84240 1.26180 0.23960
O2A O 0.896(4) 0.926(3) 0.407(3)
C3A C 0.816(4) 0.842(2) 0.353(3)
H1A H 0.80710 0.77180 0.37620
N1A N 0.744(4) 0.843(2) 0.268(3)
C4A C 0.753(4) 0.949(4) 0.229(5)
H2A H 0.68120 0.94360 0.23640
H3A H 0.78040 0.96750 0.13510
H4A H 0.80540 1.00700 0.29100
C5A C 0.649(6) 0.742(3) 0.211(5)
H5A H 0.65120 0.67720 0.24520
H6A H 0.65410 0.74400 0.11120
H7A H 0.58060 0.73820 0.23960
O2B O 1.074(4) 0.970(3) 0.407(3)
C3B C 1.158(4) 0.974(2) 0.353(3)
H1B H 1.22820 1.03530 0.37620
N1B N 1.157(4) 0.901(2) 0.268(3)
C4B C 1.051(4) 0.804(4) 0.229(5)
H2B H 1.05640 0.73760 0.23640
H3B H 1.03250 0.81290 0.13510
H4B H 0.99300 0.79840 0.29100
C5B C 1.258(6) 0.907(3) 0.211(5)
H5B H 1.32280 0.97400 0.24520
H6B H 1.25600 0.91010 0.11120
H7B H 1.26180 0.84240 0.23960
O2J O 0.926(4) 0.896(3) 0.407(3)
C3J C 0.842(4) 0.816(2) 0.353(3)
H1J H 0.77180 0.80710 0.37620
N1J N 0.843(4) 0.744(2) 0.268(3)
C4J C 0.949(4) 0.753(4) 0.229(5)
H2J H 0.94360 0.68120 0.23640
H3J H 0.96750 0.78040 0.13510
H4J H 1.00700 0.80540 0.29100
C5J C 0.742(6) 0.649(3) 0.211(5)
H5J H 0.67720 0.65120 0.24520
H6J H 0.74400 0.65410 0.11120
H7J H 0.73820 0.58060 0.23960
O2C O 0.896(4) 0.970(3) 0.593(3)
C3C C 0.816(4) 0.974(2) 0.647(3)
H1C H 0.80710 1.03530 0.62380
N1C N 0.744(4) 0.901(2) 0.732(3)
C4C C 0.753(4) 0.804(4) 0.771(5)
H2C H 0.68120 0.73760 0.76360
H3C H 0.78040 0.81290 0.86490
H4C H 0.80540 0.79840 0.70900
C5C C 0.649(6) 0.907(3) 0.789(5)
H5C H 0.65120 0.97400 0.75480
H6C H 0.65410 0.91010 0.88880
H7C H 0.58060 0.84240 0.76040
O2F O 0.970(4) 0.896(3) 0.593(3)
C3F C 0.974(4) 0.816(2) 0.647(3)
H1F H 1.03530 0.80710 0.62380
N1F N 0.901(4) 0.744(2) 0.732(3)
C4F C 0.804(4) 0.753(4) 0.771(5)
H2F H 0.73760 0.68120 0.76360
H3F H 0.81290 0.78040 0.86490
H4F H 0.79840 0.80540 0.70900
C5F C 0.907(6) 0.649(3) 0.789(5)
H5F H 0.97400 0.65120 0.75480
H6F H 0.91010 0.65410 0.88880
H7F H 0.84240 0.58060 0.76040
O2H O 0.926(4) 1.030(3) 0.593(3)
C3H C 0.842(4) 1.026(2) 0.647(3)
H1H H 0.77180 0.96470 0.62380
N1H N 0.843(4) 1.099(2) 0.732(3)
C4H C 0.949(4) 1.196(4) 0.771(5)
H2H H 0.94360 1.26240 0.76360
H3H H 0.96750 1.18710 0.86490
H4H H 1.00700 1.20160 0.70900
C5H C 0.742(6) 1.093(3) 0.789(5)
H5H H 0.67720 1.02600 0.75480
H6H H 0.74400 1.08990 0.88880
H7H H 0.73820 1.15760 0.76040
O2D O 1.074(4) 1.104(3) 0.593(3)
C3D C 1.158(4) 1.184(2) 0.647(3)
H1D H 1.22820 1.19290 0.62380
N1D N 1.157(4) 1.256(2) 0.732(3)
C4D C 1.051(4) 1.247(4) 0.771(5)
H2D H 1.05640 1.31880 0.76360
H3D H 1.03250 1.21960 0.86490
H4D H 0.99300 1.19460 0.70900
C5D C 1.258(6) 1.351(3) 0.789(5)
H5D H 1.32280 1.34880 0.75480
H6D H 1.25600 1.34590 0.88880
H7D H 1.26180 1.41940 0.76040
O2E O 1.030(4) 0.926(3) 0.593(3)
C3E C 1.026(4) 0.842(2) 0.647(3)
H1E H 0.96470 0.77180 0.62380
N1E N 1.099(4) 0.843(2) 0.732(3)
C4E C 1.196(4) 0.949(4) 0.771(5)
H2E H 1.26240 0.94360 0.76360
H3E H 1.18710 0.96750 0.86490
H4E H 1.20160 1.00700 0.70900
C5E C 1.093(6) 0.742(3) 0.789(5)
H5E H 1.02600 0.67720 0.75480
H6E H 1.08990 0.74400 0.88880
H7E H 1.15760 0.73820 0.76040
O2G O 1.104(4) 1.074(3) 0.593(3)
C3G C 1.184(4) 1.158(2) 0.647(3)
H1G H 1.19290 1.22820 0.62380
N1G N 1.256(4) 1.157(2) 0.732(3)
C4G C 1.247(4) 1.051(4) 0.771(5)
H2G H 1.31880 1.05640 0.76360
H3G H 1.21960 1.03250 0.86490
H4G H 1.19460 0.99300 0.70900
C5G C 1.351(6) 1.258(3) 0.789(5)
H5G H 1.34880 1.32280 0.75480
H6G H 1.34590 1.25600 0.88880
H7G H 1.41940 1.26180 0.76040
#END
