
#######################################################################
#
#                 Cambridge Crystallographic Data Centre
#                                CCDC
#
#######################################################################
#
# If this CIF has been generated from an entry in the Cambridge
# Structural Database, then it will include bibliographic, chemical,
# crystal, experimental, refinement or atomic coordinate data resulting
# from the CCDC's data processing and validation procedures.
#
#######################################################################

data_CSD_CIF_NIHWIK
_audit_creation_date 1998-05-22
_audit_creation_method CSD-ConQuest-V1
_database_code_CSD NIHWIK
_chemical_formula_sum 'C26 H20 Cl1 O5 P1 V1'
_chemical_formula_moiety
;
(C2 Cl1 O5 V1 1-)n,n(C24 H20 P1 1+)
;
_journal_coden_Cambridge 155
_journal_volume 250
_journal_year 1996
_journal_page_first 303
_journal_name_full 'Inorg.Chim.Acta '
loop_
_publ_author_name
"J.Salta"
"C.J.O'Connor"
"S.Li"
"J.Zubieta"
_chemical_name_systematic
;
catena-(Tetraphenylphosphonium (\m~2~-oxalato)-chloro-oxo-vanadium(iv))
;
_cell_volume   2358.689
_exptl_crystal_colour 'green'
_exptl_crystal_density_diffrn 1.492
_exptl_special_details
;
Absolute configuration
No reply from authors to request for further data

;
_exptl_crystal_description 'cubic'
_diffrn_ambient_temperature ?
_diffrn_special_details
;
The study was carried out at room temperature,in the range 283-303K

;
#These two values have been output from a single CSD field.
_refine_ls_R_factor_gt 0.0452
_refine_ls_wR_factor_gt 0.0452
_symmetry_cell_setting tetragonal
_symmetry_space_group_name_H-M 'P 43'
_symmetry_Int_Tables_number 78
loop_
_symmetry_equiv_pos_site_id
_symmetry_equiv_pos_as_xyz
1 x,y,z
2 -y,x,3/4+z
3 -x,-y,1/2+z
4 y,-x,1/4+z
_cell_length_a 12.145(2)
_cell_length_b 12.145(2)
_cell_length_c 15.991(3)
_cell_angle_alpha 90
_cell_angle_beta 90
_cell_angle_gamma 90
_cell_formula_units_Z 4
loop_
_atom_type_symbol
_atom_type_radius_bond
C 0.68
Cl 0.99
O 0.68
P 1.05
V 1.31
loop_
_atom_site_label
_atom_site_type_symbol
_atom_site_fract_x
_atom_site_fract_y
_atom_site_fract_z
V1 V 0.5643(1) 0.2913(1) 0.02060
Cl1 Cl 0.2463(2) 0.2500(2) 0.2620(2)
P1 P 0.8969(2) 0.7114(2) 0.1460(2)
O1 O 0.1713(5) 0.4894(5) 0.2687(4)
O2 O 0.4188(5) 0.3773(5) 0.0378(3)
O3 O 0.3163(6) 0.4419(5) 0.1424(4)
O4 O 0.5751(5) 0.3226(5) 0.1452(4)
O5 O 0.4692(5) 0.3784(5) 0.2513(4)
C1 C 0.3983(8) 0.3984(7) 0.1139(6)
C2 C 0.4890(8) 0.3629(7) 0.1765(6)
C3 C 0.9553(8) 0.6081(7) 0.0795(6)
C4 C 0.8846(7) 0.5556(7) 0.0217(6)
C5 C 0.9258(8) 0.4757(8) -0.0291(7)
C6 C 1.0349(8) 0.4464(9) -0.0255(7)
C7 C 1.1038(8) 0.4985(8) 0.0300(7)
C8 C 1.0630(8) 0.5796(8) 0.0834(6)
C9 C 0.8131(8) 0.6478(8) 0.2267(6)
C10 C 0.7724(8) 0.5398(8) 0.2147(7)
C11 C 0.7107(8) 0.4932(8) 0.2785(7)
C12 C 0.6854(9) 0.5529(9) 0.3499(7)
C13 C 0.7240(8) 0.6581(9) 0.3603(7)
C14 C 0.7897(9) 0.7043(9) 0.2999(7)
C15 C 0.8153(8) 0.8016(8) 0.0847(6)
C16 C 0.7352(9) 0.8683(9) 0.1208(7)
C17 C 0.6802(10) 0.9466(10) 0.0748(8)
C18 C 0.7002(10) 0.9599(9) -0.0085(8)
C19 C 0.7774(10) 0.8927(10) -0.0466(9)
C20 C 0.8373(10) 0.8188(9) 0.0005(7)
C21 C 1.0034(8) 0.7901(8) 0.1974(7)
C22 C 1.0225(9) 0.8988(9) 0.1757(7)
C23 C 1.1061(9) 0.9559(10) 0.2175(7)
C24 C 1.166(1) 0.9032(9) 0.2768(8)
C25 C 1.1493(9) 0.7973(9) 0.2984(7)
C26 C 1.0671(8) 0.7383(9) 0.2579(7)
V1C V 0.2913(1) 0.4357(1) 0.27060
O2C O 0.3773(5) 0.5812(5) 0.2878(3)
O4C O 0.3226(5) 0.4249(5) 0.3952(4)
#END
