
#######################################################################
#
#                 Cambridge Crystallographic Data Centre
#                                CCDC
#
#######################################################################
#
# If this CIF has been generated from an entry in the Cambridge
# Structural Database, then it will include bibliographic, chemical,
# crystal, experimental, refinement or atomic coordinate data resulting
# from the CCDC's data processing and validation procedures.
#
#######################################################################

data_CSD_CIF_NILGOG
_audit_creation_date 2013-09-27
_audit_creation_method CSD-ConQuest-V1
_database_code_CSD NILGOG
_database_code_depnum_ccdc_archive 'CCDC 931765'
_chemical_formula_sum 'C42 H48 Co1 N12 O42 V1 W12'
_chemical_formula_moiety
;
(C28 H28 Co1 N8 O40 V1 W12 2-)n,n(C14 H16 N4 2+),2n(H2 O1)
;
_journal_coden_Cambridge 222
_journal_volume 42
_journal_year 2013
_journal_page_first 16602
_journal_name_full 'Dalton Trans. '
loop_
_publ_author_name
"Qing Lan"
"Jun Zhang"
"Zhi-Ming Zhang"
"Ying Lu"
"En-Bo Wang"
_chemical_name_systematic
;
catena-(1,4-bis(Imidazol-3-ium-1-ylmethyl)benzene 
tetrakis(\m~4~-oxo)-bis(\m~2~-1,4-bis(imidazol-1-ylmethyl)benzene)-hexacosakis
(\m~2~-oxo)-decaoxo-cobalt-dodeca-tungsten-vanadium dihydrate)
;
_cell_volume   8002.812
_exptl_crystal_colour 'brown'
_exptl_crystal_density_diffrn 3.078
_exptl_crystal_description 'block'
_diffrn_ambient_temperature 293
_refine_special_details
;
One of the methylene bridges of the free ligand is disordered over two 
positions with equal occupancies.
;
#These two values have been output from a single CSD field.
_refine_ls_R_factor_gt 0.0784
_refine_ls_wR_factor_gt 0.0784
_symmetry_cell_setting orthorhombic
_symmetry_space_group_name_H-M 'P b c n'
_symmetry_Int_Tables_number 60
loop_
_symmetry_equiv_pos_site_id
_symmetry_equiv_pos_as_xyz
1 x,y,z
2 1/2-x,1/2-y,1/2+z
3 1/2+x,1/2-y,-z
4 -x,y,1/2-z
5 -x,-y,-z
6 -1/2+x,-1/2+y,-1/2-z
7 -1/2-x,-1/2+y,z
8 x,-y,-1/2+z
_cell_length_a 22.024(4)
_cell_length_b 15.065(3)
_cell_length_c 24.120(5)
_cell_angle_alpha 90
_cell_angle_beta 90
_cell_angle_gamma 90
_cell_formula_units_Z 4
loop_
_atom_type_symbol
_atom_type_radius_bond
C 0.68
H 0.23
Co 1.26
N 0.68
O 0.68
V 1.53
W 1.62
loop_
_atom_site_label
_atom_site_type_symbol
_atom_site_fract_x
_atom_site_fract_y
_atom_site_fract_z
Co1 Co 0.50000 0.00000 0.50000
V1 V 0.50000 -0.2660(5) 0.25000
W1 W 0.51995(5) -0.10120(6) 0.35111(4)
W2 W 0.61188(5) -0.10160(7) 0.24136(5)
W3 W 0.62609(5) -0.25855(7) 0.33905(5)
W4 W 0.49140(5) -0.43230(7) 0.14839(4)
W5 W 0.59691(5) -0.27565(7) 0.13469(4)
W6 W 0.61176(5) -0.43128(7) 0.23194(5)
O1 O 0.6434(7) -0.3642(11) 0.1711(6)
O2 O 0.6646(8) -0.0233(11) 0.2222(7)
O3 O 0.4683(7) -0.1925(10) 0.3754(6)
O4 O 0.6404(7) -0.3385(11) 0.2802(7)
O5 O 0.4326(7) -0.3402(10) 0.1351(6)
O6 O 0.6602(7) -0.1682(10) 0.2921(7)
O7 O 0.5874(7) -0.1663(10) 0.3804(7)
O8 O 0.5756(7) -0.0404(10) 0.3043(7)
O9 O 0.5471(7) -0.2043(10) 0.2835(6)
O10 O 0.5139(7) -0.0295(11) 0.4057(7)
O11 O 0.4570(7) -0.0676(11) 0.3032(7)
O12 O 0.5458(8) -0.3649(11) 0.1035(7)
O13 O 0.4415(8) -0.4632(11) 0.2110(7)
O14 O 0.5588(7) -0.4913(10) 0.1803(7)
O15 O 0.6257(7) -0.1921(10) 0.1885(6)
O16 O 0.4700(9) -0.5082(13) 0.1007(7)
O17 O 0.6432(8) -0.2539(11) 0.0794(7)
O18 O 0.5371(7) -0.3281(10) 0.2065(6)
O19 O 0.6853(9) -0.2799(13) 0.3820(8)
O20 O 0.6674(8) -0.5085(12) 0.2383(7)
N1 N 0.4067(9) 0.0035(14) 0.4863(9)
N2 N 0.3207(9) -0.0193(15) 0.4395(10)
N3 N -0.0033(9) -0.3644(13) 0.4789(9)
N4 N 0.0175(9) -0.2228(13) 0.4763(9)
C1 C 0.1738(12) -0.0169(19) 0.4249(12)
H1 H 0.18130 0.03950 0.41080
C2 C 0.1041(11) -0.1182(15) 0.4689(11)
C3 C -0.0117(12) -0.2446(17) 0.428(1)
H2 H -0.02180 -0.20590 0.39940
C4 C 0.0205(13) -0.2976(19) 0.5070(12)
H3 H 0.03680 -0.30150 0.54250
C5 C 0.1163(12) -0.036(2) 0.4485(13)
H4 H 0.08660 0.00760 0.44990
C6 C 0.3789(11) -0.0459(18) 0.4477(11)
H5 H 0.39720 -0.09250 0.42880
C7 C 0.0433(14) -0.1388(17) 0.4948(13)
H6 H 0.04790 -0.14040 0.53480
H7 H 0.01520 -0.09130 0.48600
C8 C 0.2174(11) -0.079(2) 0.4227(11)
C9 C -0.0228(13) -0.3304(19) 0.4296(13)
H8 H -0.04120 -0.36280 0.40150
C10 C 0.1491(13) -0.183(2) 0.4665(12)
H9 H 0.14150 -0.23970 0.48050
C11 C 0.2050(12) -0.1637(18) 0.4433(12)
H10 H 0.23460 -0.20750 0.44140
C12 C 0.2794(12) -0.057(2) 0.3982(12)
H11 H 0.29720 -0.11120 0.38330
H12 H 0.27450 -0.01570 0.36790
C13 C 0.3119(12) 0.053(2) 0.4755(15)
H13 H 0.27690 0.08710 0.47940
C14 C 0.3641(14) 0.063(2) 0.5027(14)
H14 H 0.37060 0.10610 0.52980
N5 N 0.252(1) 0.2345(14) 0.2771(8)
N6 N 0.3430(14) 0.224(2) 0.3074(13)
C15 C 0.277(2) 0.308(3) 0.2861(19)
C16 C 0.289(2) 0.165(3) 0.293(2)
C17 C 0.336(2) 0.301(3) 0.310(3)
C18 C 0.4594(18) 0.216(2) 0.2869(16)
C19 C 0.476(2) 0.311(2) 0.279(2)
C20 C 0.475(3) 0.137(2) 0.263(3)
C21 C 0.419(2) 0.246(5) 0.3363(19)
O21 O -0.237(4) 0.514(6) -0.132(4)
O22 O -0.315(3) 0.505(5) -0.106(3)
O23 O -0.181(3) 0.417(4) -0.111(3)
C22? C 0.408(3) 0.185(5) 0.326(3)
W1C W 0.48005(5) -0.10120(6) 0.14889(4)
W2C W 0.38812(5) -0.10160(7) 0.25864(5)
W3C W 0.37391(5) -0.25855(7) 0.16095(5)
W4C W 0.50860(5) -0.43230(7) 0.35161(4)
W5C W 0.40309(5) -0.27565(7) 0.36531(4)
W6C W 0.38824(5) -0.43128(7) 0.26806(5)
O1C O 0.3566(7) -0.3642(11) 0.3289(6)
O2C O 0.3354(8) -0.0233(11) 0.2778(7)
O3C O 0.5317(7) -0.1925(10) 0.1246(6)
O4C O 0.3596(7) -0.3385(11) 0.2198(7)
O5C O 0.5674(7) -0.3402(10) 0.3649(6)
O6C O 0.3398(7) -0.1682(10) 0.2079(7)
O7C O 0.4126(7) -0.1663(10) 0.1196(7)
O8C O 0.4244(7) -0.0404(10) 0.1957(7)
O9C O 0.4529(7) -0.2043(10) 0.2165(6)
O10C O 0.4861(7) -0.0295(11) 0.0943(7)
O11C O 0.5430(7) -0.0676(11) 0.1968(7)
O12C O 0.4542(8) -0.3649(11) 0.3965(7)
O13C O 0.5585(8) -0.4632(11) 0.2890(7)
O14C O 0.4412(7) -0.4913(10) 0.3197(7)
O15C O 0.3743(7) -0.1921(10) 0.3115(6)
O16C O 0.5300(9) -0.5082(13) 0.3993(7)
O17C O 0.3568(8) -0.2539(11) 0.4206(7)
O18C O 0.4629(7) -0.3281(10) 0.2935(6)
O19C O 0.3147(9) -0.2799(13) 0.1180(8)
O20C O 0.3326(8) -0.5085(12) 0.2617(7)
N1D N 0.5933(9) -0.0035(14) 0.5137(9)
N2D N 0.6793(9) 0.0193(15) 0.5605(10)
N3D N 1.0033(9) 0.3644(13) 0.5211(9)
N4D N 0.9825(9) 0.2228(13) 0.5237(9)
C1D C 0.8262(12) 0.0169(19) 0.5751(12)
H1D H 0.81870 -0.03950 0.58920
C2D C 0.8959(11) 0.1182(15) 0.5311(11)
C3D C 1.0117(12) 0.2446(17) 0.572(1)
H2D H 1.02180 0.20590 0.60060
C4D C 0.9795(13) 0.2976(19) 0.4930(12)
H3D H 0.96320 0.30150 0.45750
C5D C 0.8837(12) 0.036(2) 0.5515(13)
H4D H 0.91340 -0.00760 0.55010
C6D C 0.6211(11) 0.0459(18) 0.5523(11)
H5D H 0.60280 0.09250 0.57120
C7D C 0.9567(14) 0.1388(17) 0.5052(13)
H6D H 0.95210 0.14040 0.46520
H7D H 0.98480 0.09130 0.51400
C8D C 0.7826(11) 0.079(2) 0.5773(11)
C9D C 1.0228(13) 0.3304(19) 0.5704(13)
H8D H 1.04120 0.36280 0.59850
C10D C 0.8509(13) 0.183(2) 0.5335(12)
H9D H 0.85850 0.23970 0.51950
C11D C 0.7950(12) 0.1637(18) 0.5567(12)
H10D H 0.76540 0.20750 0.55860
C12D C 0.7206(12) 0.057(2) 0.6018(12)
H11D H 0.70280 0.11120 0.61670
H12D H 0.72550 0.01570 0.63210
C13D C 0.6881(12) -0.053(2) 0.5245(15)
H13D H 0.72310 -0.08710 0.52060
C14D C 0.6359(14) -0.063(2) 0.4973(14)
H14D H 0.62940 -0.10610 0.47020
Co1B Co 0.00000 -0.50000 0.50000
Co1B* Co 1.00000 0.50000 0.50000
Co1C Co 0.50000 0.00000 0.00000
O10D O 0.4861(7) 0.0295(11) 0.5943(7)
N3B N 0.4967(9) -0.1356(13) 0.5211(9)
N3F N 0.5033(9) 0.1356(13) 0.4789(9)
N5C N 0.748(1) 0.2345(14) 0.2229(8)
N6C N 0.6570(14) 0.224(2) 0.1926(13)
C15C C 0.723(2) 0.308(3) 0.2139(19)
C16C C 0.711(2) 0.165(3) 0.207(2)
C17C C 0.664(2) 0.301(3) 0.190(3)
C18C C 0.5406(18) 0.216(2) 0.2131(16)
C19C C 0.524(2) 0.311(2) 0.221(2)
C20C C 0.525(3) 0.137(2) 0.237(3)
C21C C 0.581(2) 0.246(5) 0.1637(19)
#END
