
#######################################################################
#
#                 Cambridge Crystallographic Data Centre
#                                CCDC
#
#######################################################################
#
# If this CIF has been generated from an entry in the Cambridge
# Structural Database, then it will include bibliographic, chemical,
# crystal, experimental, refinement or atomic coordinate data resulting
# from the CCDC's data processing and validation procedures.
#
#######################################################################

data_CSD_CIF_NILGIA
_audit_creation_date 2013-09-27
_audit_creation_method CSD-ConQuest-V1
_database_code_CSD NILGIA
_database_code_depnum_ccdc_archive 'CCDC 931764'
_chemical_formula_sum 'C42 H46 N12 Ni1 O41 V1 W12'
_chemical_formula_moiety
;
(C28 H28 N8 Ni1 O40 V1 W12 2-)n,n(C14 H16 N4 2+),n(H2 O1)
;
_journal_coden_Cambridge 222
_journal_volume 42
_journal_year 2013
_journal_page_first 16602
_journal_name_full 'Dalton Trans. '
loop_
_publ_author_name
"Qing Lan"
"Jun Zhang"
"Zhi-Ming Zhang"
"Ying Lu"
"En-Bo Wang"
_chemical_name_systematic
;
catena-(1,4-bis(Imidazol-3-ium-1-ylmethyl)benzene 
tetrakis(\m~4~-oxo)-bis(\m~2~-1,4-bis(imidazol-1-ylmethyl)benzene)-hexacosakis
(\m~2~-oxo)-decaoxo-nickel-dodeca-tungsten-vanadium monohydrate)
;
_cell_volume   7920.000
_exptl_crystal_colour 'brown'
_exptl_crystal_density_diffrn 3.095
_exptl_crystal_description 'block'
_diffrn_ambient_temperature 293
_refine_special_details
;
One of the methylene bridges of the free ligand is disordered over two 
positions with equal occupancies.
;
#These two values have been output from a single CSD field.
_refine_ls_R_factor_gt 0.0671
_refine_ls_wR_factor_gt 0.0671
_symmetry_cell_setting orthorhombic
_symmetry_space_group_name_H-M 'P b c n'
_symmetry_Int_Tables_number 60
loop_
_symmetry_equiv_pos_site_id
_symmetry_equiv_pos_as_xyz
1 x,y,z
2 1/2-x,1/2-y,1/2+z
3 1/2+x,1/2-y,-z
4 -x,y,1/2-z
5 -x,-y,-z
6 -1/2+x,-1/2+y,-1/2-z
7 -1/2-x,-1/2+y,z
8 x,-y,-1/2+z
_cell_length_a 22.000(4)
_cell_length_b 15.000(3)
_cell_length_c 24.000(5)
_cell_angle_alpha 90
_cell_angle_beta 90
_cell_angle_gamma 90
_cell_formula_units_Z 4
loop_
_atom_type_symbol
_atom_type_radius_bond
C 0.68
H 0.23
N 0.68
Ni 1.24
O 0.68
V 1.53
W 1.62
loop_
_atom_site_label
_atom_site_type_symbol
_atom_site_fract_x
_atom_site_fract_y
_atom_site_fract_z
W1 W 0.88891(4) 0.60022(5) 0.25829(3)
W2 W 0.98028(4) 0.60077(5) 0.14752(3)
W3 W 0.87410(4) 0.75727(5) 0.16044(3)
W4 W 1.09738(4) 0.77473(5) 0.13452(3)
W5 W 0.99182(4) 0.93075(6) 0.14754(3)
W6 W 1.11132(4) 0.93056(5) 0.23197(4)
V1 V 1.00000 0.7643(4) 0.25000
Ni1 Ni 1.00000 0.50000 0.00000
O1 O 0.9703(7) 1.0063(10) 0.0989(6)
O2 O 0.8152(7) 0.778(1) 0.1177(6)
O3 O 1.1675(7) 1.0057(10) 0.2394(6)
O4 O 1.1437(6) 0.7534(9) 0.0793(5)
O5 O 0.9426(6) 0.9612(9) 0.2106(6)
O6 O 1.0590(6) 0.9912(9) 0.1802(6)
O7 O 0.9531(5) 0.7020(8) 0.2160(5)
O8 O 1.0370(5) 0.8267(8) 0.2070(5)
O9 O 0.9871(5) 0.5304(9) 0.0916(5)
O10 O 0.9570(5) 0.5669(8) 0.3028(5)
O11 O 0.8361(6) 0.5227(9) 0.2774(6)
O12 O 1.0476(6) 0.8635(8) 0.1024(5)
O13 O 0.9245(5) 0.5404(8) 0.1953(5)
O14 O 0.8390(5) 0.6679(8) 0.2067(5)
O15 O 0.9136(5) 0.6669(8) 0.1186(5)
O16 O 0.8736(5) 0.6910(8) 0.3117(5)
O17 O 1.0325(5) 0.6928(8) 0.1235(5)
O18 O 0.9324(6) 0.8393(9) 0.1342(5)
O19 O 1.1436(5) 0.8644(8) 0.1703(5)
O20 O 0.8588(6) 0.8394(9) 0.2196(5)
N1 N 0.9073(7) 0.5033(11) -0.0138(7)
N2 N 0.8204(7) 0.4795(11) -0.0602(7)
N3 N 0.5171(7) 0.2754(11) -0.0258(7)
N4 N 0.4968(7) 0.1343(10) -0.0226(6)
C1 C 0.8797(9) 0.4549(15) -0.0522(9)
H1 H 0.89860 0.40900 -0.07180
C2 C 0.7810(9) 0.4432(15) -0.1000(9)
H2 H 0.79900 0.38920 -0.11500
H3 H 0.77640 0.48520 -0.13040
C3 C 0.8654(10) 0.5627(16) 0.0046(12)
H4 H 0.87160 0.60430 0.03280
C4 C 0.8128(10) 0.5518(16) -0.0245(10)
H5 H 0.77790 0.58650 -0.02120
C5 C 0.6045(8) 0.3794(13) -0.0324(8)
C6 C 0.5203(10) 0.1989(15) 0.0061(8)
H6 H 0.53640 0.19450 0.04180
C7 C 0.4894(10) 0.2528(15) -0.0737(9)
H7 H 0.47960 0.29060 -0.10300
C8 C 0.5431(10) 0.3598(15) -0.0057(9)
H8 H 0.54790 0.35690 0.03440
H9 H 0.51520 0.40810 -0.01400
C9 C 0.6165(10) 0.4629(15) -0.0525(10)
H10 H 0.58640 0.50640 -0.05140
C10 C 0.7187(9) 0.4213(16) -0.0763(9)
C11 C 0.6740(9) 0.4836(15) -0.0748(9)
H11 H 0.68140 0.54050 -0.08860
C12 C 0.7066(10) 0.3375(14) -0.0564(9)
H12 H 0.73650 0.29370 -0.05760
C13 C 0.6501(9) 0.3177(14) -0.0346(9)
H13 H 0.64290 0.26070 -0.02100
C14 C 0.4789(10) 0.1674(15) -0.0708(9)
H14 H 0.46110 0.13400 -0.09900
N5 N 0.2506(8) 0.7672(13) 0.2229(9)
N6 N 0.3455(9) 0.7765(13) 0.1906(10)
C15 C 0.2826(10) 0.6887(13) 0.2157(15)
H15 H 0.26640 0.63630 0.23000
C16 C 0.2951(18) 0.831(3) 0.2050(17)
H16 H 0.29180 0.89230 0.20330
C17 C 0.4769(14) 0.841(2) 0.2347(14)
H17 H 0.45860 0.89610 0.22780
C18 C 0.3378(12) 0.6847(13) 0.1880(15)
C19 C 0.4497(18) 0.764(2) 0.2093(18)
C20 C 0.478(2) 0.687(3) 0.235(2)
H18 H 0.46140 0.63140 0.22680
C21 C 0.4016(11) 0.812(2) 0.1728(17)
H19 H 0.40300 0.87580 0.17880
H20 H 0.40820 0.79970 0.13360
O21 O 0.815(3) 1.000(4) 0.103(2)
C22? C 0.4050(18) 0.711(3) 0.1758(17)
W1C W 1.11109(4) 0.60022(5) 0.24171(3)
W2C W 1.01972(4) 0.60077(5) 0.35248(3)
W3C W 1.12590(4) 0.75727(5) 0.33956(3)
W4C W 0.90262(4) 0.77473(5) 0.36548(3)
W5C W 1.00818(4) 0.93075(6) 0.35246(3)
W6C W 0.88868(4) 0.93056(5) 0.26803(4)
O1C O 1.0297(7) 1.0063(10) 0.4011(6)
O2C O 1.1848(7) 0.778(1) 0.3823(6)
O3C O 0.8325(7) 1.0057(10) 0.2606(6)
O4C O 0.8563(6) 0.7534(9) 0.4207(5)
O5C O 1.0574(6) 0.9612(9) 0.2894(6)
O6C O 0.9410(6) 0.9912(9) 0.3198(6)
O7C O 1.0469(5) 0.7020(8) 0.2840(5)
O8C O 0.9630(5) 0.8267(8) 0.2930(5)
O9C O 1.0129(5) 0.5304(9) 0.4084(5)
O10C O 1.0430(5) 0.5669(8) 0.1972(5)
O11C O 1.1639(6) 0.5227(9) 0.2226(6)
O12C O 0.9524(6) 0.8635(8) 0.3976(5)
O13C O 1.0755(5) 0.5404(8) 0.3047(5)
O14C O 1.1610(5) 0.6679(8) 0.2933(5)
O15C O 1.0864(5) 0.6669(8) 0.3814(5)
O16C O 1.1264(5) 0.6910(8) 0.1883(5)
O17C O 0.9675(5) 0.6928(8) 0.3765(5)
O18C O 1.0676(6) 0.8393(9) 0.3658(5)
O19C O 0.8564(5) 0.8644(8) 0.3297(5)
O20C O 1.1412(6) 0.8394(9) 0.2804(5)
N1D N 1.0927(7) 0.4967(11) 0.0138(7)
N2D N 1.1796(7) 0.5205(11) 0.0602(7)
N3D N 1.4829(7) 0.7246(11) 0.0258(7)
N4D N 1.5032(7) 0.8657(10) 0.0226(6)
C1D C 1.1203(9) 0.5451(15) 0.0522(9)
H1D H 1.10140 0.59100 0.07180
C2D C 1.2190(9) 0.5568(15) 0.1000(9)
H2D H 1.20100 0.61080 0.11500
H3D H 1.22360 0.51480 0.13040
C3D C 1.1346(10) 0.4373(16) -0.0046(12)
H4D H 1.12840 0.39570 -0.03280
C4D C 1.1872(10) 0.4482(16) 0.0245(10)
H5D H 1.22210 0.41350 0.02120
C5D C 1.3955(8) 0.6206(13) 0.0324(8)
C6D C 1.4797(10) 0.8011(15) -0.0061(8)
H6D H 1.46360 0.80550 -0.04180
C7D C 1.5106(10) 0.7472(15) 0.0737(9)
H7D H 1.52040 0.70940 0.10300
C8D C 1.4569(10) 0.6402(15) 0.0057(9)
H8D H 1.45210 0.64310 -0.03440
H9D H 1.48480 0.59190 0.01400
C9D C 1.3835(10) 0.5371(15) 0.0525(10)
H10D H 1.41360 0.49360 0.05140
C10D C 1.2813(9) 0.5787(16) 0.0763(9)
C11D C 1.3260(9) 0.5164(15) 0.0748(9)
H11D H 1.31860 0.45950 0.08860
C12D C 1.2934(10) 0.6625(14) 0.0564(9)
H12D H 1.26350 0.70630 0.05760
C13D C 1.3499(9) 0.6823(14) 0.0346(9)
H13D H 1.35710 0.73930 0.02100
C14D C 1.5211(10) 0.8326(15) 0.0708(9)
H14D H 1.53890 0.86600 0.09900
Ni1B Ni 0.50000 0.00000 0.00000
Ni1B* Ni 1.50000 1.00000 0.00000
Ni1C Ni 1.00000 0.50000 0.50000
O9D O 1.0129(5) 0.4696(9) -0.0916(5)
N4B N 0.9968(7) 0.3657(10) 0.0226(6)
N4F N 1.0032(7) 0.6343(10) -0.0226(6)
N5C N 0.7494(8) 0.7672(13) 0.2771(9)
N6C N 0.6545(9) 0.7765(13) 0.3094(10)
C15C C 0.7174(10) 0.6887(13) 0.2843(15)
H15C H 0.73360 0.63630 0.27000
C16C C 0.7049(18) 0.831(3) 0.2950(17)
H16C H 0.70820 0.89230 0.29670
C17C C 0.5231(14) 0.841(2) 0.2653(14)
H17C H 0.54140 0.89610 0.27220
C18C C 0.6622(12) 0.6847(13) 0.3120(15)
C19C C 0.5503(18) 0.764(2) 0.2907(18)
C20C C 0.522(2) 0.687(3) 0.265(2)
H18C H 0.53860 0.63140 0.27320
C21C C 0.5984(11) 0.812(2) 0.3272(17)
H19C H 0.59700 0.87580 0.32120
H20C H 0.59180 0.79970 0.36640
#END
