
#######################################################################
#
#                 Cambridge Crystallographic Data Centre
#                                CCDC
#
#######################################################################
#
# If this CIF has been generated from an entry in the Cambridge
# Structural Database, then it will include bibliographic, chemical,
# crystal, experimental, refinement or atomic coordinate data resulting
# from the CCDC's data processing and validation procedures.
#
#######################################################################

data_CSD_CIF_NIMFOF
_audit_creation_date 2008-01-25
_audit_creation_method CSD-ConQuest-V1
_database_code_CSD NIMFOF
_database_code_depnum_ccdc_archive 'CCDC 648975'
_chemical_formula_sum 'C30 H63 Cl8 Hg4 N12 O9.5'
_chemical_formula_moiety
;
(C15 H30 Cl1 Hg1 N6 O4 1+)2n,n(Cl6 Hg2 2-),1.5n(H2 O1)
;
_journal_coden_Cambridge 29
_journal_volume 633
_journal_year 2007
_journal_page_first 1900
_journal_name_full 'Z.Anorg.Allg.Chem. '
loop_
_publ_author_name
"K.Krot"
"A.L.Llamas-Saiz"
"N.Vembu"
"K.B.Nolan"
_chemical_name_systematic
;
catena-(bis(chloro-(N,N,N',N'-tetrakis(N-methylcarbamoylmethyl)ethane-1,2-diam
ine)-mercury(ii)) tetrakis(\m~2~-chloro)-dichloro-di-mercury(ii) 
sesquihydrate)
;
_cell_volume   2568.174
_exptl_crystal_density_diffrn 2.366
_diffrn_ambient_temperature 293
#These two values have been output from a single CSD field.
_refine_ls_R_factor_gt 0.0358
_refine_ls_wR_factor_gt 0.0358
_symmetry_cell_setting triclinic
_symmetry_space_group_name_H-M 'P -1'
_symmetry_Int_Tables_number 2
loop_
_symmetry_equiv_pos_site_id
_symmetry_equiv_pos_as_xyz
1 x,y,z
2 -x,-y,-z
_cell_length_a 7.6705(14)
_cell_length_b 18.490(3)
_cell_length_c 18.947(3)
_cell_angle_alpha 106.753(3)
_cell_angle_beta 91.397(3)
_cell_angle_gamma 92.736(3)
_cell_formula_units_Z 2
loop_
_atom_type_symbol
_atom_type_radius_bond
C 0.68
H 0.23
Cl 0.99
Hg 1.70
N 0.68
O 0.68
loop_
_atom_site_label
_atom_site_type_symbol
_atom_site_fract_x
_atom_site_fract_y
_atom_site_fract_z
Hg1 Hg 0.00987(4) 0.330458(18) 0.119146(18)
Cl1 Cl 0.1401(3) 0.42340(13) 0.22169(12)
N1 N -0.0813(10) 0.2381(4) 0.0131(4)
C1 C -0.2270(12) 0.1909(5) 0.0301(5)
H1 H -0.17660 0.15810 0.05670
C2 C -0.3562(11) 0.2393(5) 0.0803(5)
H2 H -0.40370 0.27390 0.05590
H3 H -0.45220 0.20670 0.08800
N2 N -0.2774(9) 0.2830(4) 0.1524(4)
C3 C 0.0720(12) 0.1913(5) -0.0137(5)
H4 H 0.15510 0.21980 -0.03460
H5 H 0.03260 0.14570 -0.05190
C4 C 0.1604(14) 0.1702(5) 0.0498(5)
O1 O 0.1778(9) 0.2153(4) 0.1112(3)
N3 N 0.2230(12) 0.1018(5) 0.0320(5)
C5 C 0.3123(14) 0.0725(6) 0.0866(6)
H6 H 0.32580 0.11140 0.13280
H7 H 0.42520 0.05680 0.06960
H8 H 0.24430 0.03000 0.09300
C6 C -0.3339(14) 0.1402(6) -0.0361(6)
H9 H -0.40330 0.17080 -0.05770
H10 H -0.40910 0.10530 -0.02030
H11 H -0.25670 0.11260 -0.07190
C7 C -0.1341(11) 0.2766(5) -0.0423(5)
H12 H -0.25150 0.29330 -0.03290
H13 H -0.13610 0.24070 -0.09110
C8 C -0.0126(12) 0.3439(5) -0.0407(5)
O2 O 0.1084(8) 0.3678(3) 0.0054(3)
N4 N -0.0532(10) 0.3766(4) -0.0932(4)
C9 C 0.0387(12) 0.4454(5) -0.0992(5)
H14 H 0.12610 0.46250 -0.06000
H15 H -0.04300 0.48390 -0.09570
H16 H 0.09350 0.43500 -0.14580
C10 C -0.3718(11) 0.3512(5) 0.1840(5)
H17 H -0.31890 0.37830 0.23190
H18 H -0.49190 0.33660 0.19110
C11 C -0.3696(12) 0.4031(5) 0.1346(5)
O3 O -0.2409(8) 0.4076(3) 0.0971(3)
N5 N -0.5129(10) 0.4383(4) 0.1324(4)
C12 C -0.5312(12) 0.4932(5) 0.0905(5)
H19 H -0.53130 0.54320 0.12400
H20 H -0.63910 0.48180 0.06170
H21 H -0.43530 0.49030 0.05840
Hg2 Hg 0.55813(4) 0.667881(18) 0.385296(18)
Cl2 Cl 0.6512(3) 0.57378(12) 0.28219(12)
N6 N 0.4899(9) 0.7633(4) 0.4876(4)
C13 C 0.3538(11) 0.8092(5) 0.4654(5)
H22 H 0.41240 0.84100 0.43870
C14 C 0.2133(12) 0.7599(5) 0.4138(5)
H23 H 0.15550 0.72680 0.43850
H24 H 0.12670 0.79190 0.40250
N7 N 0.2826(9) 0.7135(4) 0.3442(4)
C15 C -0.2736(12) 0.2363(5) 0.2038(5)
H25 H -0.24890 0.18500 0.17670
H26 H -0.38780 0.23470 0.22430
C16 C -0.1386(12) 0.2661(5) 0.2660(5)
O4 O -0.1725(9) 0.3122(4) 0.3249(3)
N8 N 0.0186(10) 0.2406(4) 0.2523(4)
C17 C 0.1697(12) 0.2669(6) 0.3044(6)
H27 H 0.16530 0.32020 0.32790
H28 H 0.27570 0.25730 0.27820
H29 H 0.16660 0.24040 0.34120
C18 C 0.4262(12) 0.7279(5) 0.5438(4)
H30 H 0.30300 0.71320 0.53370
H31 H 0.43870 0.76490 0.59210
C19 C 0.5251(11) 0.6586(5) 0.5451(5)
O5 O 0.6406(8) 0.6334(3) 0.5013(3)
N9 N 0.4743(10) 0.6277(4) 0.5967(4)
C20 C 0.5460(12) 0.5578(5) 0.6046(5)
H32 H 0.47520 0.51480 0.57560
H33 H 0.54620 0.55870 0.65550
H34 H 0.66340 0.55450 0.58800
C21 C 0.2645(14) 0.8614(6) 0.5295(5)
H35 H 0.20230 0.83180 0.55590
H36 H 0.18400 0.89050 0.51110
H37 H 0.35060 0.89490 0.56210
C22 C 0.6522(11) 0.8109(5) 0.5151(5)
H38 H 0.73270 0.78310 0.53620
H39 H 0.62530 0.85600 0.55350
C23 C 0.7369(12) 0.8332(5) 0.4517(5)
O6 O 0.7558(8) 0.7846(4) 0.3923(3)
N10 N 0.7903(11) 0.9059(4) 0.4643(4)
C24 C 0.8659(13) 0.9345(5) 0.4072(5)
H40 H 0.93140 0.89610 0.37540
H41 H 0.94200 0.97830 0.42970
H42 H 0.77420 0.94800 0.37890
C25 C 0.1701(11) 0.6442(5) 0.3118(5)
H43 H 0.21650 0.61540 0.26560
H44 H 0.05340 0.65770 0.30160
C26 C 0.1625(12) 0.5968(5) 0.3649(5)
O7 O 0.2925(8) 0.5919(3) 0.4038(3)
N11 N 0.0107(10) 0.5605(4) 0.3664(4)
C27 C -0.0216(12) 0.5076(5) 0.4082(5)
H45 H -0.02210 0.45690 0.37590
H46 H -0.13270 0.51590 0.43050
H47 H 0.06870 0.51480 0.44600
C28 C 0.3033(12) 0.7585(5) 0.2911(5)
H48 H 0.34750 0.80930 0.31770
H49 H 0.18950 0.76210 0.26930
C29 C 0.4257(12) 0.7251(5) 0.2298(5)
O8 O 0.3737(9) 0.6819(4) 0.1703(3)
N12 N 0.5927(11) 0.7473(5) 0.2467(4)
C30 C 0.7332(12) 0.7201(6) 0.1949(6)
H50 H 0.80330 0.68720 0.21310
H51 H 0.80510 0.76260 0.19090
H52 H 0.68230 0.69310 0.14730
Hg3 Hg -0.31772(5) 0.007556(19) -0.278126(19)
Cl3 Cl -0.1000(3) 0.10208(12) -0.20975(13)
Cl4 Cl -0.4971(3) -0.10354(12) -0.27646(12)
Cl5 Cl -0.3785(3) 0.02979(13) -0.39988(12)
Hg4 Hg 0.18549(5) -0.00993(2) -0.231640(19)
Cl6 Cl -0.6027(3) 0.09422(13) -0.20440(14)
Cl7 Cl -0.0130(3) -0.08674(13) -0.32473(13)
Cl8 Cl 0.1455(4) -0.04166(14) -0.11255(14)
O9 O 0.4500(17) 0.3180(9) -0.0333(7)
O10 O 1.0049(14) 0.6817(7) 0.5339(6)
H53 H 0.357(6) 0.354(3) -0.023(8)
H54 H 0.513(15) 0.326(7) -0.067(7)
H55 H 1.02(2) 0.676(9) 0.574(10)
H56 H 0.908(11) 0.657(8) 0.519(8)
H57 H 0.147(10) 0.076(5) -0.001(4)
H58 H -0.139(9) 0.357(5) -0.124(4)
H59 H -0.603(13) 0.427(6) 0.157(6)
H60 H 0.051(13) 0.207(4) 0.214(3)
H61 H 0.381(13) 0.643(6) 0.620(6)
H62 H 0.753(13) 0.931(5) 0.507(3)
H63 H -0.058(14) 0.563(6) 0.335(6)
H64 H 0.634(13) 0.773(5) 0.290(3)
Cl4* Cl 0.5029(3) -0.10354(12) -0.27646(12)
Hg4* Hg -0.81451(5) -0.00993(2) -0.231640(19)
Cl6* Cl 0.3973(3) 0.09422(13) -0.20440(14)
#END
