
#######################################################################
#
#                 Cambridge Crystallographic Data Centre
#                                CCDC
#
#######################################################################
#
# If this CIF has been generated from an entry in the Cambridge
# Structural Database, then it will include bibliographic, chemical,
# crystal, experimental, refinement or atomic coordinate data resulting
# from the CCDC's data processing and validation procedures.
#
#######################################################################

data_CSD_CIF_NIMQAB
_audit_creation_date 1998-06-02
_audit_creation_method CSD-ConQuest-V1
_database_code_CSD NIMQAB
_database_code_depnum_ccdc_archive 'CCDC 100167'
_database_code_depnum_ccdc_journal 182/551
_chemical_formula_sum 'C26 H30 Fe1 Mn2 O12'
_chemical_formula_moiety
;
(C20 H30 Fe1 1+)n,n(C6 Mn2 O12 1-)
;
_journal_coden_Cambridge 182
_journal_year 1997
_journal_page_first 1727
_journal_name_full 'Chem.Commun. '
loop_
_publ_author_name
"M.Clemente-Leon"
"E.Coronado"
"J.-R.Galan-Mascaros"
"C.J.Gomez-Garcia"
_chemical_name_systematic
;
catena-(Decamethyl-ferrocenium tris(\m~2~-oxalato)-iron(iii)-manganese(ii))
;
_chemical_melting_point 600
_cell_volume   1429.023
_exptl_crystal_colour 'dark green'
_exptl_crystal_density_diffrn 1.63
_diffrn_ambient_temperature ?
_diffrn_special_details
;
The study was carried out at room temperature,in the range 283-303K

;
_refine_special_details
;
The Mn1 site is disordered with Fe1 located in the same crystallographic 
position with s.o.f. of 0.5 where there are alternating Fe and Mn atoms 
corresponding to the space group symmetry.
;
#These two values have been output from a single CSD field.
_refine_ls_R_factor_gt 0.0348
_refine_ls_wR_factor_gt 0.0348
_symmetry_cell_setting monoclinic
_symmetry_space_group_name_H-M 'C 2/m'
_symmetry_Int_Tables_number 12
loop_
_symmetry_equiv_pos_site_id
_symmetry_equiv_pos_as_xyz
1 x,y,z
2 -x,y,-z
3 1/2+x,1/2+y,z
4 1/2-x,1/2+y,-z
5 -x,-y,-z
6 x,-y,z
7 -1/2-x,-1/2-y,-z
8 -1/2+x,-1/2-y,z
_cell_length_a 9.0645(8)
_cell_length_b 17.143(3)
_cell_length_c 9.215(4)
_cell_angle_alpha 90
_cell_angle_beta 93.66(2)
_cell_angle_gamma 90
_cell_formula_units_Z 2
loop_
_atom_type_symbol
_atom_type_radius_bond
C 0.68
H 0.23
Fe 1.34
Mn 1.35
O 0.68
loop_
_atom_site_label
_atom_site_type_symbol
_atom_site_fract_x
_atom_site_fract_y
_atom_site_fract_z
O1 O 0.8148(3) 0.32159(12) 0.6218(2)
O2 O 0.6192(3) 0.24245(11) 0.6290(2)
O3 O 1.0788(3) 0.43461(12) 0.6267(2)
C1 C 0.7321(5) 0.50000 0.9909(5)
C2 C 0.6121(4) 0.5412(2) 1.1892(3)
C3 C 0.6857(4) 0.5669(2) 1.0659(3)
C4 C 0.8182(8) 0.50000 0.8561(7)
C5 C 0.5515(6) 0.5933(3) 1.3017(5)
C6 C 0.7182(8) 0.6500(3) 1.0282(7)
C7 C 0.4538(4) 0.00000 0.4268(4)
C8 C 0.7318(3) 0.26861(14) 0.5738(3)
Mn1 Mn 1.00000 0.34027(3) 0.50000
Fe1? Fe 1.00000 0.34027(3) 0.50000
Fe2 Fe 0.50000 0.50000 1.00000
H1 H 0.923(8) 0.50000 0.889(7)
H2 H 0.781(8) 0.540(4) 0.792(7)
H3 H 0.601(7) 0.597(3) 1.381(6)
H4 H 0.525(7) 0.643(3) 1.267(6)
H5 H 0.463(6) 0.569(3) 1.329(5)
H6 H 0.653(6) 0.679(3) 1.077(6)
H7 H 0.722(8) 0.655(4) 0.925(8)
H8 H 0.802(8) 0.662(4) 1.063(8)
Mn1F Mn 0.50000 0.15973(3) 0.50000
O1F O 0.6852(3) 0.17841(12) 0.3782(2)
C8F C 0.7682(3) 0.23139(14) 0.4262(3)
O2F O 0.8808(3) 0.25755(11) 0.3710(2)
O1A O 1.1852(3) 0.32159(12) 0.3782(2)
C8A C 1.2682(3) 0.26861(14) 0.4262(3)
O2A O 1.3808(3) 0.24245(11) 0.3710(2)
Mn1G Mn 1.50000 0.15973(3) 0.50000
O1G O 1.3148(3) 0.17841(12) 0.6218(2)
C8G C 1.2318(3) 0.23139(14) 0.5738(3)
O2G O 1.1192(3) 0.25755(11) 0.6290(2)
O3A O 0.9212(3) 0.43461(12) 0.3733(2)
O3F O 0.4212(3) 0.06539(12) 0.3733(2)
O3G O 0.5788(3) 0.06539(12) 0.6267(2)
C7A C 0.5462(4) 0.00000 0.5732(4)
C2E C 0.6121(4) 0.4588(2) 1.1892(3)
C3E C 0.6857(4) 0.4331(2) 1.0659(3)
H2E H 0.781(8) 0.460(4) 0.792(7)
C1A C 0.2679(5) 0.50000 1.0091(5)
C3A C 0.3143(4) 0.5669(2) 0.9341(3)
C2A C 0.3879(4) 0.5412(2) 0.8108(3)
C2D C 0.3879(4) 0.4588(2) 0.8108(3)
C5A C 0.4485(6) 0.5933(3) 0.6983(5)
H3A H 0.399(7) 0.597(3) 0.619(6)
H4A H 0.475(7) 0.643(3) 0.733(6)
H5A H 0.537(6) 0.569(3) 0.671(5)
C3D C 0.3143(4) 0.4331(2) 0.9341(3)
C4A C 0.1818(8) 0.50000 1.1439(7)
H1A H 0.077(8) 0.50000 1.111(7)
H2A H 0.219(8) 0.540(4) 1.208(7)
H2D H 0.219(8) 0.460(4) 1.208(7)
C6D C 0.2818(8) 0.3500(3) 0.9718(7)
H6D H 0.347(6) 0.321(3) 0.923(6)
H7D H 0.278(8) 0.345(4) 1.075(8)
H8D H 0.198(8) 0.338(4) 0.937(8)
C5E C 0.5515(6) 0.4067(3) 1.3017(5)
H3E H 0.601(7) 0.403(3) 1.381(6)
H4E H 0.525(7) 0.357(3) 1.267(6)
H5E H 0.463(6) 0.431(3) 1.329(5)
C6A C 0.2818(8) 0.6500(3) 0.9718(7)
H6A H 0.347(6) 0.679(3) 0.923(6)
H7A H 0.278(8) 0.655(4) 1.075(8)
H8A H 0.198(8) 0.662(4) 0.937(8)
C6E C 0.7182(8) 0.3500(3) 1.0282(7)
H6E H 0.653(6) 0.321(3) 1.077(6)
H7E H 0.722(8) 0.345(4) 0.925(8)
H8E H 0.802(8) 0.338(4) 1.063(8)
C5D C 0.4485(6) 0.4067(3) 0.6983(5)
H3D H 0.399(7) 0.403(3) 0.619(6)
H4D H 0.475(7) 0.357(3) 0.733(6)
H5D H 0.537(6) 0.431(3) 0.671(5)
O3B O 0.5788(3) -0.06539(12) 0.6267(2)
Mn1B Mn 0.50000 -0.15973(3) 0.50000
O3C O 0.4212(3) -0.06539(12) 0.3733(2)
#END
