
#######################################################################
#
#                 Cambridge Crystallographic Data Centre
#                                CCDC
#
#######################################################################
#
# If this CIF has been generated from an entry in the Cambridge
# Structural Database, then it will include bibliographic, chemical,
# crystal, experimental, refinement or atomic coordinate data resulting
# from the CCDC's data processing and validation procedures.
#
#######################################################################

data_CSD_CIF_NINVIQ
_audit_creation_date 2008-01-25
_audit_creation_method CSD-ConQuest-V1
_database_code_CSD NINVIQ
_database_code_depnum_ccdc_archive 'CCDC 665197'
_chemical_formula_sum 'C15 H17 Cl1 Fe1 N2 O6'
_chemical_formula_moiety
;
(C9 H4 Cl1 Fe1 O6 1-)n,n(C6 H13 N2 1+)
;
_journal_coden_Cambridge 9
_journal_volume 46
_journal_year 2007
_journal_page_first 7782
_journal_name_full 'Inorg.Chem. '
loop_
_publ_author_name
"Linhua Xie"
"Shuxia Liu"
"Chaoying Gao"
"Ruige Cao"
"Jianfang Cao"
"Chunyan Sun"
"Zhongmin Su"
_chemical_name_systematic
;
catena-(1-Azonia-4-azabicyclo(2.2.2)octane 
(\m~3~-5-carboxybenzene-1,3-dicarboxylato)-chloro-iron(ii))
;
_cell_volume   1632.620
_exptl_crystal_colour 'bright orange'
_exptl_crystal_density_diffrn 1.679
_exptl_crystal_description 'block'
_diffrn_ambient_temperature 293
#These two values have been output from a single CSD field.
_refine_ls_R_factor_gt 0.0286
_refine_ls_wR_factor_gt 0.0286
_symmetry_cell_setting monoclinic
_symmetry_space_group_name_H-M 'P 21/n'
_symmetry_Int_Tables_number 14
loop_
_symmetry_equiv_pos_site_id
_symmetry_equiv_pos_as_xyz
1 x,y,z
2 1/2-x,1/2+y,1/2-z
3 -x,-y,-z
4 -1/2+x,-1/2-y,-1/2+z
_cell_length_a 9.7827(4)
_cell_length_b 18.9260(8)
_cell_length_c 9.8318(4)
_cell_angle_alpha 90
_cell_angle_beta 116.249(1)
_cell_angle_gamma 90
_cell_formula_units_Z 4
loop_
_atom_type_symbol
_atom_type_radius_bond
C 0.68
H 0.23
Cl 0.99
Fe 1.34
N 0.68
O 0.68
loop_
_atom_site_label
_atom_site_type_symbol
_atom_site_fract_x
_atom_site_fract_y
_atom_site_fract_z
Fe1 Fe 1.02081(3) 0.081939(14) 0.34939(3)
Cl1 Cl 1.14677(8) 0.09020(4) 0.20121(7)
O1 O 0.99103(18) 0.17660(7) 0.41474(16)
O2 O 0.85433(19) 0.20395(8) 0.17224(16)
O3 O 0.65370(17) 0.45607(8) 0.05531(16)
O4 O 1.0647(2) 0.33754(9) 0.81647(18)
O5 O 0.64492(18) 0.51355(8) 0.24850(17)
O6 O 1.03168(19) 0.45361(8) 0.77326(17)
N1 N 0.1962(2) 0.35757(9) 0.11131(19)
N2 N 0.3418(2) 0.35453(10) 0.3951(2)
C1 C 0.9108(2) 0.21909(10) 0.3081(2)
C2 C 0.8910(2) 0.29142(10) 0.3594(2)
C3 C 0.9618(2) 0.3081(1) 0.5134(2)
C4 C 0.9468(2) 0.37508(10) 0.5627(2)
C5 C 0.8613(2) 0.42564(11) 0.4578(2)
C6 C 0.7893(2) 0.40957(10) 0.3037(2)
C7 C 0.8050(2) 0.34242(10) 0.2549(2)
C8 C 1.0191(2) 0.39387(11) 0.7276(2)
C9 C 0.6895(2) 0.46361(10) 0.1930(2)
C10 C 0.3551(3) 0.37791(16) 0.1578(3)
C11 C 0.1921(4) 0.28585(13) 0.1679(3)
C12 C 0.2804(4) 0.28221(13) 0.3396(3)
C13 C 0.2148(3) 0.40634(15) 0.3514(3)
C14 C 0.1284(4) 0.40758(17) 0.1787(3)
C15 C 0.4465(3) 0.3764(2) 0.3296(3)
H1 H 0.754(3) 0.3314(11) 0.150(3)
H2 H 1.021(3) 0.2741(12) 0.585(3)
H3 H 0.852(3) 0.4718(12) 0.490(3)
H4 H 0.389(3) 0.3517(12) 0.490(3)
H5 H 0.350(3) 0.4246(15) 0.118(3)
H6 H 0.398(3) 0.3464(15) 0.112(3)
H7 H 0.261(3) 0.4525(16) 0.387(3)
H8 H 0.152(4) 0.3923(16) 0.397(3)
H9 H 0.371(3) 0.2530(15) 0.367(3)
H10 H 0.223(4) 0.2666(16) 0.387(4)
H11 H 0.239(4) 0.2532(16) 0.125(4)
H12 H 0.083(3) 0.2754(15) 0.135(3)
H13 H 0.025(5) 0.3928(19) 0.149(4)
H14 H 0.135(4) 0.4532(18) 0.139(4)
H15 H 0.483(4) 0.4246(17) 0.372(4)
H16 H 0.530(4) 0.3446(16) 0.364(3)
H17 H 1.095(4) 0.3499(17) 0.904(4)
Fe1C Fe 0.52081(3) 0.418061(14) -0.15061(3)
Fe1A Fe 0.47919(3) 0.581939(14) 0.15061(3)
O3C O 1.15370(17) 0.04393(8) 0.55531(16)
O5A O 0.85508(18) 0.01355(8) 0.25150(17)
#END
