
#######################################################################
#
#                 Cambridge Crystallographic Data Centre
#                                CCDC
#
#######################################################################
#
# If this CIF has been generated from an entry in the Cambridge
# Structural Database, then it will include bibliographic, chemical,
# crystal, experimental, refinement or atomic coordinate data resulting
# from the CCDC's data processing and validation procedures.
#
#######################################################################

data_CSD_CIF_NIPNUW
_audit_creation_date 2008-01-25
_audit_creation_method CSD-ConQuest-V1
_database_code_CSD NIPNUW
_database_code_depnum_ccdc_archive 'CCDC 628770'
_chemical_formula_sum 'C36 H48 Cl6 Fe2 K2 N20 O24'
_chemical_formula_moiety
;
(C18 H24 Fe1 N10 2+)2n,n(Cl6 K2 O24 4-)
;
_journal_coden_Cambridge 222
_journal_year 2007
_journal_page_first 4132
_journal_name_full 'Dalton Trans. '
loop_
_publ_author_name
"G.Brewer"
"R.J.Butcher"
"C.Viragh"
"G.White"
_chemical_name_systematic
;
catena-(bis(tris(2-(2-Imidazolylmethylene)aminoethyl)amine)-iron(ii) 
hexakis(\m~2~-perchlorato)-di-potassium)
;
_cell_volume   1424.248
_exptl_crystal_colour 'dark red'
_exptl_crystal_density_diffrn 1.804
_exptl_special_details
;
magnetic properties

;
_exptl_crystal_description 'hexagonal plate'
_diffrn_ambient_temperature 296
#These two values have been output from a single CSD field.
_refine_ls_R_factor_gt 0.0245
_refine_ls_wR_factor_gt 0.0245
_symmetry_cell_setting hexagonal
_symmetry_space_group_name_H-M 'P -3'
_symmetry_Int_Tables_number 147
loop_
_symmetry_equiv_pos_site_id
_symmetry_equiv_pos_as_xyz
1 x,y,z
2 -y,x-y,z
3 -x+y,-x,z
4 -x,-y,-z
5 y,-x+y,-z
6 x-y,x,-z
_cell_length_a 13.389(2)
_cell_length_b 13.389(2)
_cell_length_c 9.174(3)
_cell_angle_alpha 90
_cell_angle_beta 90
_cell_angle_gamma 120
_cell_formula_units_Z 1
loop_
_atom_type_symbol
_atom_type_radius_bond
C 0.68
H 0.23
Cl 0.99
Fe 1.34
K 1.96
N 0.68
O 0.68
loop_
_atom_site_label
_atom_site_type_symbol
_atom_site_fract_x
_atom_site_fract_y
_atom_site_fract_z
Fe1 Fe 0.66670 0.33330 0.13773(3)
K1 K 1.00000 0.00000 0.00000
K2 K 1.00000 0.00000 -0.50000
Cl1 Cl 0.84481(2) -0.23069(2) -0.25597(3)
O1 O 0.89598(9) -0.23770(9) -0.38958(11)
O2 O 0.91026(11) -0.23629(10) -0.13617(11)
O3 O 0.84971(9) -0.12072(8) -0.25009(12)
O4 O 0.72801(9) -0.32124(9) -0.24754(14)
N1 N 0.66670 0.33330 -0.2274(2)
N2 N 0.53240(9) 0.31838(9) 0.03209(10)
N3 N 0.54526(8) 0.21362(8) 0.25563(10)
N4 N 0.36133(10) 0.11308(10) 0.30555(13)
H1 H 0.28810 0.08590 0.30000
C1 C 0.56377(13) 0.34035(14) -0.23357(14)
H2 H 0.49940 0.26420 -0.25450
H3 H 0.57030 0.39030 -0.31400
C2 C 0.53648(12) 0.38542(13) -0.09520(13)
H4 H 0.59500 0.46550 -0.08060
H5 H 0.46270 0.38180 -0.10640
C3 C 0.43419(10) 0.25064(12) 0.09011(14)
H6 H 0.36510 0.24140 0.05440
C4 C 0.44126(10) 0.19066(11) 0.21509(13)
C5 C 0.41661(13) 0.08519(13) 0.40711(16)
H7 H 0.38290 0.03330 0.48360
C6 C 0.53087(11) 0.14770(11) 0.37565(14)
H8 H 0.58960 0.14580 0.42740
K2* K 1.00000 0.00000 0.50000
Cl1A Cl 1.23069(2) 0.07550(2) -0.25597(3)
Cl1B Cl 0.92450(2) 0.15519(2) -0.25597(3)
Cl1C Cl 1.15519(2) 0.23069(2) 0.25597(3)
Cl1D Cl 0.76931(2) -0.07550(2) 0.25597(3)
Cl1E Cl 1.07550(2) -0.15519(2) 0.25597(3)
O1A O 1.23770(9) 0.13368(9) -0.38958(11)
O1B O 0.86632(9) 0.10402(9) -0.38958(11)
O1C O 1.10402(9) 0.23770(9) 0.38958(11)
O1D O 0.76230(9) -0.13368(9) 0.38958(11)
O1E O 1.13368(9) -0.10402(9) 0.38958(11)
O1C* O 1.10402(9) 0.23770(9) -0.61042(11)
O1D* O 0.76230(9) -0.13368(9) -0.61042(11)
O1E* O 1.13368(9) -0.10402(9) -0.61042(11)
O2A O 1.23629(11) 0.14655(10) -0.13617(11)
O2B O 0.85345(11) 0.08974(10) -0.13617(11)
O2C O 1.08974(11) 0.23629(10) 0.13617(11)
O2D O 0.76371(11) -0.14655(10) 0.13617(11)
O2E O 1.14655(11) -0.08974(10) 0.13617(11)
O3A O 1.12072(9) -0.02957(8) -0.25009(12)
O3B O 1.02957(9) 0.15029(8) -0.25009(12)
O3C O 1.15029(9) 0.12072(8) 0.25009(12)
O3D O 0.87928(9) 0.02957(8) 0.25009(12)
O3E O 0.97043(9) -0.15029(8) 0.25009(12)
O3C* O 1.15029(9) 0.12072(8) -0.74991(12)
O3D* O 0.87928(9) 0.02957(8) -0.74991(12)
O3E* O 0.97043(9) -0.15029(8) -0.74991(12)
O4A O 1.32124(9) 0.04925(9) -0.24754(14)
O4B O 0.95075(9) 0.27199(9) -0.24754(14)
O4C O 1.27199(9) 0.32124(9) 0.24754(14)
O4D O 0.67876(9) -0.04925(9) 0.24754(14)
O4E O 1.04925(9) -0.27199(9) 0.24754(14)
N2A N 0.68162(9) 0.21402(9) 0.03209(10)
N2B N 0.78598(9) 0.46760(9) 0.03209(10)
N3A N 0.78638(8) 0.33164(8) 0.25563(10)
N3B N 0.66836(8) 0.45474(8) 0.25563(10)
N4A N 0.88692(10) 0.24825(10) 0.30555(13)
N4B N 0.75175(10) 0.63867(10) 0.30555(13)
H1A H 0.91410 0.20220 0.30000
H1B H 0.79780 0.71190 0.30000
C1A C 0.65965(13) 0.22342(14) -0.23357(14)
C1B C 0.77658(13) 0.43623(14) -0.23357(14)
H2A H 0.73580 0.23520 -0.25450
H2B H 0.76480 0.50060 -0.25450
H3A H 0.60970 0.18000 -0.31400
H3B H 0.82000 0.42970 -0.31400
C2A C 0.61458(12) 0.15106(13) -0.09520(13)
C2B C 0.84894(12) 0.46352(13) -0.09520(13)
H4A H 0.53450 0.12950 -0.08060
H4B H 0.87050 0.40500 -0.08060
H5A H 0.61820 0.08090 -0.10640
H5B H 0.91910 0.53730 -0.10640
C3A C 0.74936(10) 0.18355(12) 0.09011(14)
C3B C 0.81645(10) 0.56581(12) 0.09011(14)
H6A H 0.75860 0.12370 0.05440
H6B H 0.87630 0.63490 0.05440
C4A C 0.80934(10) 0.25060(11) 0.21509(13)
C4B C 0.7494(1) 0.55874(11) 0.21509(13)
C5A C 0.91481(13) 0.33142(13) 0.40711(16)
C5B C 0.66858(13) 0.58339(13) 0.40711(16)
H7A H 0.96670 0.34960 0.48360
H7B H 0.65040 0.61710 0.48360
C6A C 0.85230(11) 0.38317(11) 0.37565(14)
C6B C 0.61683(11) 0.46913(11) 0.37565(14)
H8A H 0.85420 0.44380 0.42740
H8B H 0.55620 0.41040 0.42740
#END
