
#######################################################################
#
#                 Cambridge Crystallographic Data Centre
#                                CCDC
#
#######################################################################
#
# If this CIF has been generated from an entry in the Cambridge
# Structural Database, then it will include bibliographic, chemical,
# crystal, experimental, refinement or atomic coordinate data resulting
# from the CCDC's data processing and validation procedures.
#
#######################################################################

data_CSD_CIF_NIPPOS
_audit_creation_date 2008-01-25
_audit_creation_method CSD-ConQuest-V1
_database_code_CSD NIPPOS
_database_code_depnum_ccdc_archive 'CCDC 635168'
_chemical_formula_sum 'C36 H48 Cl6 Cs2 Fe2 N20 O24'
_chemical_formula_moiety
;
(C18 H24 Fe1 N10 2+)2n,n(Cl6 Cs2 O24 4-)
;
_journal_coden_Cambridge 222
_journal_year 2007
_journal_page_first 4132
_journal_name_full 'Dalton Trans. '
loop_
_publ_author_name
"G.Brewer"
"R.J.Butcher"
"C.Viragh"
"G.White"
_chemical_name_systematic
;
catena-(bis(tris(2-(2-Imidazolylmethylene)aminoethyl)amine)-iron(ii) 
hexakis(\m~2~-perchlorato)-di-cesium)
;
_cell_volume   1506.519
_exptl_crystal_colour 'dark red'
_exptl_crystal_density_diffrn 1.913
_exptl_special_details
;
magnetic properties

;
_exptl_crystal_description 'hexagonal'
_diffrn_ambient_temperature 173
#These two values have been output from a single CSD field.
_refine_ls_R_factor_gt 0.0381
_refine_ls_wR_factor_gt 0.0381
_symmetry_cell_setting hexagonal
_symmetry_space_group_name_H-M 'P -3'
_symmetry_Int_Tables_number 147
loop_
_symmetry_equiv_pos_site_id
_symmetry_equiv_pos_as_xyz
1 x,y,z
2 -y,x-y,z
3 -x+y,-x,z
4 -x,-y,-z
5 y,-x+y,-z
6 x-y,x,-z
_cell_length_a 13.5022(13)
_cell_length_b 13.5022(13)
_cell_length_c 9.5419(13)
_cell_angle_alpha 90
_cell_angle_beta 90
_cell_angle_gamma 120
_cell_formula_units_Z 1
loop_
_atom_type_symbol
_atom_type_radius_bond
C 0.68
H 0.23
Cl 0.99
Cs 2.17
Fe 1.34
N 0.68
O 0.68
loop_
_atom_site_label
_atom_site_type_symbol
_atom_site_fract_x
_atom_site_fract_y
_atom_site_fract_z
Cs1 Cs -1.00000 0.00000 0.00000
Cs2 Cs -1.00000 0.00000 -0.50000
Fe1 Fe -0.66670 -0.33330 -0.35285(6)
Cl1 Cl -0.75540(6) 0.07276(6) -0.24243(8)
O1 O -0.86574(19) -0.03172(19) -0.2477(2)
O2 O -0.7461(2) 0.1313(2) -0.1132(3)
O3 O -0.7503(2) 0.1458(2) -0.3557(3)
O4 O -0.6661(2) 0.0457(3) -0.2526(4)
N1 N -0.66670 -0.33330 -0.7077(5)
N2 N -0.6886(2) -0.21880(19) -0.4563(2)
N3 N -0.78877(19) -0.33710(19) -0.2384(2)
N4 N -0.8984(3) -0.2631(3) -0.1934(3)
H1 H -0.93060 -0.22050 -0.20100
C1 C -0.6636(3) -0.2250(3) -0.7135(3)
H2 H -0.74140 -0.23950 -0.73550
H3 H -0.61280 -0.17940 -0.79140
C2 C -0.6225(3) -0.1538(3) -0.5791(3)
H4 H -0.54070 -0.12860 -0.56400
H5 H -0.62950 -0.08460 -0.58990
C3 C -0.7610(3) -0.1942(3) -0.4022(3)
H6 H -0.77530 -0.13710 -0.43900
C4 C -0.8182(2) -0.2614(3) -0.2807(3)
C5 C -0.9202(3) -0.3422(3) -0.0925(4)
H7 H -0.97230 -0.36150 -0.01670
C6 C -0.8526(3) -0.3890(3) -0.1210(3)
H8 H -0.85030 -0.44750 -0.06830
Cs2* Cs -1.00000 0.00000 0.50000
Cl1A Cl -1.07276(6) 0.17184(6) -0.24243(8)
Cl1B Cl -1.17184(6) -0.24460(6) -0.24243(8)
Cl1C Cl -1.24460(6) -0.07276(6) 0.24243(8)
Cl1D Cl -0.92724(6) -0.17184(6) 0.24243(8)
Cl1E Cl -0.82816(6) 0.24460(6) 0.24243(8)
O1A O -0.96828(19) 0.16598(19) -0.2477(2)
O1B O -1.16598(19) -0.13426(19) -0.2477(2)
O1C O -1.13426(19) 0.03172(19) 0.2477(2)
O1D O -1.03172(19) -0.16598(19) 0.2477(2)
O1E O -0.83402(19) 0.13426(19) 0.2477(2)
O1C* O -1.13426(19) 0.03172(19) -0.7523(2)
O1D* O -1.03172(19) -0.16598(19) -0.7523(2)
O1E* O -0.83402(19) 0.13426(19) -0.7523(2)
O2A O -1.1313(2) 0.1226(2) -0.1132(3)
O2B O -1.1226(2) -0.2539(2) -0.1132(3)
O2C O -1.2539(2) -0.1313(2) 0.1132(3)
O2D O -0.8687(2) -0.1226(2) 0.1132(3)
O2E O -0.8774(2) 0.2539(2) 0.1132(3)
O3A O -1.1458(2) 0.1039(2) -0.3557(3)
O3B O -1.1039(2) -0.2497(2) -0.3557(3)
O3C O -1.2497(2) -0.1458(2) 0.3557(3)
O3D O -0.8542(2) -0.1039(2) 0.3557(3)
O3E O -0.8961(2) 0.2497(2) 0.3557(3)
O3C* O -1.2497(2) -0.1458(2) -0.6443(3)
O3D* O -0.8542(2) -0.1039(2) -0.6443(3)
O3E* O -0.8961(2) 0.2497(2) -0.6443(3)
O4A O -1.0457(2) 0.2882(3) -0.2526(4)
O4B O -1.2882(2) -0.3339(3) -0.2526(4)
O4C O -1.3339(2) -0.0457(3) 0.2526(4)
O4D O -0.9543(2) -0.2882(3) 0.2526(4)
O4E O -0.7118(2) 0.3339(3) 0.2526(4)
N2A N -0.7812(2) -0.46980(19) -0.4563(2)
N2B N -0.5302(2) -0.31140(19) -0.4563(2)
N3A N -0.66290(19) -0.45167(19) -0.2384(2)
N3B N -0.54833(19) -0.21123(19) -0.2384(2)
N4A N -0.7369(3) -0.6353(3) -0.1934(3)
N4B N -0.3647(3) -0.1016(3) -0.1934(3)
H1A H -0.77950 -0.71010 -0.20100
H1B H -0.28990 -0.06940 -0.20100
C1A C -0.7750(3) -0.4386(3) -0.7135(3)
C1B C -0.5614(3) -0.3364(3) -0.7135(3)
H2A H -0.76050 -0.50190 -0.73550
H2B H -0.49810 -0.25860 -0.73550
H3A H -0.82060 -0.43340 -0.79140
H3B H -0.56660 -0.38720 -0.79140
C2A C -0.8462(3) -0.4687(3) -0.5791(3)
C2B C -0.5313(3) -0.3775(3) -0.5791(3)
H4A H -0.87140 -0.41210 -0.56400
H4B H -0.58790 -0.45930 -0.56400
H5A H -0.91540 -0.54490 -0.58990
H5B H -0.45510 -0.37050 -0.58990
C3A C -0.8058(3) -0.5668(3) -0.4022(3)
C3B C -0.4332(3) -0.2390(3) -0.4022(3)
H6A H -0.86290 -0.63820 -0.43900
H6B H -0.36180 -0.22470 -0.43900
C4A C -0.7386(2) -0.5568(3) -0.2807(3)
C4B C -0.4432(2) -0.1818(3) -0.2807(3)
C5A C -0.6578(3) -0.5780(3) -0.0925(4)
C5B C -0.4220(3) -0.0798(3) -0.0925(4)
H7A H -0.63850 -0.61080 -0.01670
H7B H -0.38920 -0.02770 -0.01670
C6A C -0.6110(3) -0.4636(3) -0.1210(3)
C6B C -0.5364(3) -0.1474(3) -0.1210(3)
H8A H -0.55250 -0.40280 -0.06830
H8B H -0.59720 -0.14970 -0.06830
#END
