
#######################################################################
#
#                 Cambridge Crystallographic Data Centre
#                                CCDC
#
#######################################################################
#
# If this CIF has been generated from an entry in the Cambridge
# Structural Database, then it will include bibliographic, chemical,
# crystal, experimental, refinement or atomic coordinate data resulting
# from the CCDC's data processing and validation procedures.
#
#######################################################################

data_CSD_CIF_NIPPAE
_audit_creation_date 2008-01-25
_audit_creation_method CSD-ConQuest-V1
_database_code_CSD NIPPAE
_database_code_depnum_ccdc_archive 'CCDC 630381'
_chemical_formula_sum 'C36 H48 Cl6 Fe2 N20 O24 Rb2'
_chemical_formula_moiety
;
(C18 H24 Fe1 N10 2+)2n,n(Cl6 O24 Rb2 4-)
;
_journal_coden_Cambridge 222
_journal_year 2007
_journal_page_first 4132
_journal_name_full 'Dalton Trans. '
loop_
_publ_author_name
"G.Brewer"
"R.J.Butcher"
"C.Viragh"
"G.White"
_chemical_name_systematic
;
catena-(bis(tris(2-(2-Imidazolylmethylene)aminoethyl)amine)-iron(ii) 
hexakis(\m~2~-perchlorato)-di-rubidium)
;
_cell_volume   1469.944
_exptl_crystal_colour 'dark red'
_exptl_crystal_density_diffrn 1.853
_exptl_special_details
;
magnetic properties

;
_exptl_crystal_description 'chunk'
_diffrn_ambient_temperature 173
#These two values have been output from a single CSD field.
_refine_ls_R_factor_gt 0.0233
_refine_ls_wR_factor_gt 0.0233
_symmetry_cell_setting hexagonal
_symmetry_space_group_name_H-M 'P -3'
_symmetry_Int_Tables_number 147
loop_
_symmetry_equiv_pos_site_id
_symmetry_equiv_pos_as_xyz
1 x,y,z
2 -y,x-y,z
3 -x+y,-x,z
4 -x,-y,-z
5 y,-x+y,-z
6 x-y,x,-z
_cell_length_a 13.4744(8)
_cell_length_b 13.4744(8)
_cell_length_c 9.3487(11)
_cell_angle_alpha 90
_cell_angle_beta 90
_cell_angle_gamma 120
_cell_formula_units_Z 1
loop_
_atom_type_symbol
_atom_type_radius_bond
C 0.68
H 0.23
Cl 0.99
Fe 1.34
N 0.68
O 0.68
Rb 2.05
loop_
_atom_site_label
_atom_site_type_symbol
_atom_site_fract_x
_atom_site_fract_y
_atom_site_fract_z
Fe1 Fe 0.33330 0.66670 0.35743(3)
Rb1 Rb 1.00000 1.00000 0.00000
Rb2 Rb 1.00000 1.00000 0.50000
Cl1 Cl 0.83852(3) 1.07455(3) 0.24369(4)
O1 O 0.84357(10) 0.96950(9) 0.24920(12)
O2 O 0.88853(11) 1.13301(10) 0.11176(12)
O3 O 0.90488(12) 1.14644(11) 0.36081(13)
O4 O 0.72184(11) 1.04814(12) 0.25344(16)
N1 N 0.33330 0.66670 0.7186(2)
N2 N 0.46877(10) 0.78363(10) 0.46217(12)
N3 N 0.45336(9) 0.66585(10) 0.24078(12)
N4 N 0.63701(12) 0.74511(14) 0.19246(17)
H1 H 0.701(2) 0.786(2) 0.198(3)
C1 C 0.43744(15) 0.77565(15) 0.72442(16)
H2 H 0.50180 0.76230 0.74590
H3 H 0.43160 0.82050 0.80460
C2 C 0.46607(14) 0.84761(13) 0.58737(15)
H4 H 0.40790 0.87100 0.57240
H5 H 0.54160 0.91790 0.59840
C3 C 0.56667(12) 0.81163(13) 0.40565(16)
H6 H 0.63750 0.87090 0.44220
C4 C 0.55807(12) 0.74436(13) 0.28196(15)
C5 C 0.46633(13) 0.61433(13) 0.12125(16)
H7 H 0.40600 0.55430 0.06830
C6 C 0.58090(15) 0.66390(16) 0.09094(19)
H8 H 0.61450 0.64510 0.01390
Rb2* Rb 1.00000 1.00000 -0.50000
Cl1A Cl 0.92545(3) 0.76397(3) 0.24369(4)
Cl1B Cl 1.23603(3) 1.16148(3) 0.24369(4)
Cl1C Cl 1.16148(3) 0.92545(3) -0.24369(4)
Cl1D Cl 1.07455(3) 1.23603(3) -0.24369(4)
Cl1E Cl 0.76397(3) 0.83852(3) -0.24369(4)
O1A O 1.0305(1) 0.87407(9) 0.24920(12)
O1B O 1.12593(10) 1.15643(9) 0.24920(12)
O1C O 1.15643(10) 1.03050(9) -0.24920(12)
O1D O 0.9695(1) 1.12593(9) -0.24920(12)
O1E O 0.87407(10) 0.84357(9) -0.24920(12)
O1C* O 1.15643(10) 1.03050(9) 0.75080(12)
O1D* O 0.9695(1) 1.12593(9) 0.75080(12)
O1E* O 0.87407(10) 0.84357(9) 0.75080(12)
O2A O 0.86699(11) 0.75552(10) 0.11176(12)
O2B O 1.24448(11) 1.11147(10) 0.11176(12)
O2C O 1.11147(11) 0.86699(10) -0.11176(12)
O2D O 1.13301(11) 1.24448(10) -0.11176(12)
O2E O 0.75552(11) 0.88853(10) -0.11176(12)
O3A O 0.85356(12) 0.75844(11) 0.36081(13)
O3B O 1.24156(12) 1.09512(11) 0.36081(13)
O3C O 1.09512(12) 0.85356(11) -0.36081(13)
O3D O 1.14644(12) 1.24156(11) -0.36081(13)
O3E O 0.75844(12) 0.90488(11) -0.36081(13)
O3C* O 1.09512(12) 0.85356(11) 0.63919(13)
O3D* O 1.14644(12) 1.24156(11) 0.63919(13)
O3E* O 0.75844(12) 0.90488(11) 0.63919(13)
O4A O 0.95186(11) 0.67370(12) 0.25344(16)
O4B O 1.32630(11) 1.27816(12) 0.25344(16)
O4C O 1.27816(11) 0.95186(12) -0.25344(16)
O4D O 1.04814(11) 1.32630(12) -0.25344(16)
O4E O 0.67370(11) 0.72184(12) -0.25344(16)
N2A N 0.21637(10) 0.68514(10) 0.46217(12)
N2B N 0.31486(10) 0.53123(10) 0.46217(12)
N3A N 0.33415(9) 0.78751(10) 0.24078(12)
N3B N 0.21249(9) 0.54664(10) 0.24078(12)
N4A N 0.25489(12) 0.89190(14) 0.19246(17)
N4B N 0.10810(12) 0.36299(14) 0.19246(17)
H1A H 0.214(2) 0.915(2) 0.198(3)
H1B H 0.085(2) 0.299(2) 0.198(3)
C1A C 0.22435(15) 0.66179(15) 0.72442(16)
C1B C 0.33821(15) 0.56256(15) 0.72442(16)
H2A H 0.23770 0.73950 0.74590
H2B H 0.26050 0.49820 0.74590
H3A H 0.17950 0.61110 0.80460
H3B H 0.38890 0.56840 0.80460
C2A C 0.15239(14) 0.61846(13) 0.58737(15)
C2B C 0.38154(14) 0.53393(13) 0.58737(15)
H4A H 0.12900 0.53690 0.57240
H4B H 0.46310 0.59210 0.57240
H5A H 0.08210 0.62370 0.59840
H5B H 0.37630 0.45840 0.59840
C3A C 0.18837(12) 0.75504(13) 0.40565(16)
C3B C 0.24496(12) 0.43333(13) 0.40565(16)
H6A H 0.12910 0.76660 0.44220
H6B H 0.23340 0.36250 0.44220
C4A C 0.25564(12) 0.81371(13) 0.28196(15)
C4B C 0.18629(12) 0.44193(13) 0.28196(15)
C5A C 0.38567(13) 0.85200(13) 0.12125(16)
C5B C 0.14800(13) 0.53367(13) 0.12125(16)
H7A H 0.44570 0.85170 0.06830
H7B H 0.14830 0.59400 0.06830
C6A C 0.33610(15) 0.91700(16) 0.09094(19)
C6B C 0.08300(15) 0.41910(16) 0.09094(19)
H8A H 0.35490 0.96940 0.01390
H8B H 0.03060 0.38550 0.01390
#END
