
#######################################################################
#
#                 Cambridge Crystallographic Data Centre
#                                CCDC
#
#######################################################################
#
# If this CIF has been generated from an entry in the Cambridge
# Structural Database, then it will include bibliographic, chemical,
# crystal, experimental, refinement or atomic coordinate data resulting
# from the CCDC's data processing and validation procedures.
#
#######################################################################

data_CSD_CIF_NIQSEO
_audit_creation_date 2018-10-02
_audit_creation_method CSD-ConQuest-V1
_database_code_CSD NIQSEO
_database_code_depnum_ccdc_archive 'CCDC 1870958'
_chemical_formula_sum 'C58 H70 Gd1 N2 O26 P1 S4'
_chemical_formula_moiety
;
(C28 H31 Gd1 O22 S4 2-)n,n(C24 H20 P1 1+),n(C6 H11 N2 1+),4n(H2 O1)
;
_journal_coden_Cambridge 1078
_journal_year 2018
_journal_name_full 'CSD Communication(Private Communication) '
loop_
_publ_author_name
"B.W.Skelton"
"Irene Ling"
"C.L.Raston"
_chemical_name_systematic
;
catena-(1-ethyl-3-methyl-1H-imidazol-3-ium tetraphenylphosphonium 
(\m-5,11,17,23-tetrasulfonato-25,26,27-trihydroxy-28-oxycalix(4)arene)-hexa-aq
ua-gadolinium(iii) tetrahydrate)
;
_cell_volume   3162.206
_exptl_crystal_colour 'colorless'
_exptl_crystal_density_diffrn 1.604
_exptl_crystal_description 'plate'
_diffrn_ambient_temperature 100
#These two values have been output from a single CSD field.
_refine_ls_R_factor_gt 0.0341
_refine_ls_wR_factor_gt 0.0341
_symmetry_cell_setting triclinic
_symmetry_space_group_name_H-M 'P -1'
_symmetry_Int_Tables_number 2
loop_
_symmetry_equiv_pos_site_id
_symmetry_equiv_pos_as_xyz
1 x,y,z
2 -x,-y,-z
_cell_length_a 12.3006(2)
_cell_length_b 12.6696(2)
_cell_length_c 21.5093(3)
_cell_angle_alpha 74.615(1)
_cell_angle_beta 78.166(1)
_cell_angle_gamma 88.287(1)
_cell_formula_units_Z 2
loop_
_atom_type_symbol
_atom_type_radius_bond
C 0.68
H 0.23
Gd 1.96
N 0.68
O 0.68
P 1.05
S 1.02
loop_
_atom_site_label
_atom_site_type_symbol
_atom_site_fract_x
_atom_site_fract_y
_atom_site_fract_z
Gd1 Gd 0.810901(4) 0.508509(4) 0.909223(2)
O1 O 1.10768(9) 0.21927(8) 0.60231(5)
H1 H 1.134(3) 0.1580(17) 0.6106(17)
C1 C 1.03698(9) 0.23373(9) 0.65672(5)
C2 C 0.95789(9) 0.15167(8) 0.69572(5)
C3 C 0.88017(9) 0.17339(8) 0.74756(5)
H2 H 0.82580 0.11910 0.77360
C4 C 0.88233(9) 0.27522(8) 0.76117(5)
S1 S 0.77222(2) 0.30519(2) 0.820354(14)
O2 O 0.80346(8) 0.41042(7) 0.82989(4)
O3 O 0.76310(8) 0.21611(7) 0.88029(5)
O4 O 0.67376(8) 0.31614(8) 0.79147(5)
C5 C 0.96400(9) 0.35394(8) 0.72481(6)
H3 H 0.96630 0.42170 0.73560
C6 C 1.04274(9) 0.33399(8) 0.67250(5)
C7 C 1.13625(9) 0.41636(9) 0.63542(6)
H4 H 1.10800 0.49160 0.62990
H5 H 1.16440 0.40550 0.59110
O5 O 1.19627(7) 0.02761(7) 0.63502(4)
C8 C 1.15062(9) -0.04008(8) 0.69359(5)
C9 C 1.21784(9) -0.11586(8) 0.72889(6)
C10 C 1.17138(9) -0.18283(8) 0.79083(6)
H6 H 1.21590 -0.23420 0.81460
C11 C 1.05944(9) -0.17435(8) 0.81792(6)
S2 S 1.00099(2) -0.26288(2) 0.894256(14)
O6 O 0.94942(7) -0.35319(7) 0.87837(5)
O7 O 0.91680(8) -0.20295(7) 0.92938(5)
O8 O 1.09106(8) -0.29954(8) 0.92872(5)
C12 C 0.99095(9) -0.10385(8) 0.78232(6)
H7 H 0.91410 -0.10130 0.80070
C13 C 1.03534(9) -0.03733(8) 0.71988(5)
C14 C 0.95920(9) 0.03969(8) 0.68283(6)
H8 H 0.98430 0.04760 0.63500
H9 H 0.88280 0.00770 0.69640
O9 O 1.37399(8) 0.10452(7) 0.64081(5)
H10 H 1.330(2) 0.077(4) 0.628(2)
C15 C 1.42432(9) 0.05934(8) 0.69120(5)
C16 C 1.49004(9) 0.12583(8) 0.71315(5)
C17 C 1.55004(9) 0.07657(8) 0.76138(5)
H11 H 1.59470 0.12070 0.77630
C18 C 1.54513(9) -0.03679(8) 0.78790(5)
S3 S 1.63683(2) -0.10188(2) 0.838633(14)
O10 O 1.68612(9) -0.01859(8) 0.85976(5)
O11 O 1.71808(8) -0.15476(8) 0.79698(5)
O12 O 1.56985(8) -0.18488(7) 0.89388(5)
C19 C 1.47665(9) -0.10164(8) 0.76791(6)
H12 H 1.47210 -0.17860 0.78680
C20 C 1.41505(9) -0.05485(8) 0.72058(5)
C21 C 1.33988(9) -0.12573(9) 0.70008(6)
H13 H 1.36090 -0.20310 0.71430
H14 H 1.35130 -0.10480 0.65140
O13 O 1.33927(8) 0.31160(8) 0.59960(5)
H15 H 1.360(3) 0.2479(16) 0.6055(17)
C22 C 1.32477(9) 0.34234(8) 0.65646(5)
C23 C 1.23009(9) 0.40247(8) 0.67296(5)
C24 C 1.22070(9) 0.44558(9) 0.72715(6)
H16 H 1.15830 0.48800 0.73820
C25 C 1.30193(9) 0.42704(9) 0.76518(6)
S4 S 1.29013(2) 0.48973(2) 0.830308(14)
O14 O 1.18588(8) 0.54749(8) 0.83286(5)
O15 O 1.38679(8) 0.56493(9) 0.81391(5)
O16 O 1.29058(10) 0.40175(8) 0.89014(5)
C26 C 1.39186(9) 0.36074(9) 0.75134(6)
H17 H 1.44490 0.34550 0.77880
C27 C 1.40373(9) 0.31705(8) 0.69734(5)
C28 C 1.50384(9) 0.24862(8) 0.68133(6)
H18 H 1.56730 0.27620 0.69480
H19 H 1.52350 0.26050 0.63290
O17 O 0.98879(8) 0.42779(8) 0.89415(6)
H20 H 1.046(2) 0.464(2) 0.8758(15)
H21 H 1.004(3) 0.3638(15) 0.9038(15)
O18 O 0.74895(8) 0.62702(7) 0.81821(5)
O19 O 0.78368(8) 0.31767(7) 0.97476(5)
H22 H 0.823(2) 0.291(2) 1.0005(13)
H23 H 0.785(2) 0.2811(18) 0.9494(11)
O20 O 0.61837(8) 0.46381(8) 0.94570(5)
H24 H 0.575(2) 0.5101(19) 0.9358(15)
H25 H 0.601(3) 0.432(2) 0.9853(9)
O21 O 0.72703(8) 0.66785(7) 0.94634(5)
H26 H 0.7767(19) 0.7123(19) 0.9441(13)
H27 H 0.6725(18) 0.699(2) 0.9353(14)
O22 O 0.83648(9) 0.50370(8) 1.01564(5)
H28 H 0.7959(19) 0.5360(19) 1.0396(11)
H29 H 0.858(2) 0.4524(17) 1.0411(11)
N1 N 1.32202(11) 0.09598(10) 0.92872(6)
C29 C 1.26390(12) 0.15597(11) 0.88714(7)
H30 H 1.25180 0.23220 0.88060
N2 N 1.22534(11) 0.09215(10) 0.85598(6)
C30 C 1.26038(17) -0.01259(13) 0.87829(10)
H31 H 1.24440 -0.07480 0.86460
C31 C 1.32212(18) -0.01049(14) 0.92361(10)
H32 H 1.35830 -0.07060 0.94720
C32 C 1.37984(13) 0.13945(14) 0.97055(8)
H33 H 1.37290 0.08550 1.01400
H34 H 1.34400 0.20750 0.97770
C33 C 1.50119(15) 0.16362(19) 0.93986(10)
H35 H 1.53720 0.09610 0.93360
H36 H 1.53680 0.19250 0.96890
H37 H 1.50840 0.21790 0.89710
C34 C 1.15773(15) 0.12845(15) 0.80609(9)
H38 H 1.14140 0.20610 0.80110
H39 H 1.08800 0.08530 0.81980
H40 H 1.19840 0.11830 0.76400
P1 P 0.24839(2) 0.75811(2) 0.520635(14)
C35 C 0.27252(9) 0.66418(9) 0.47015(5)
C36 C 0.33946(11) 0.57429(10) 0.48694(6)
H41 H 0.37310 0.56460 0.52400
C37 C 0.35686(12) 0.49898(11) 0.44924(7)
H42 H 0.40120 0.43700 0.46100
C38 C 0.30900(11) 0.51494(11) 0.39420(7)
H43 H 0.32330 0.46540 0.36740
C39 C 0.24024(11) 0.60317(11) 0.37825(6)
H44 H 0.20630 0.61230 0.34130
C40 C 0.2211(1) 0.67789(10) 0.41618(6)
H45 H 0.17360 0.73760 0.40560
C41 C 0.23020(9) 0.89301(9) 0.47168(6)
C42 C 0.28893(10) 0.92891(9) 0.40641(6)
H46 H 0.33840 0.88140 0.38760
C43 C 0.27442(11) 1.03438(10) 0.36931(6)
H47 H 0.31350 1.05910 0.32490
C44 C 0.20215(11) 1.10368(10) 0.39764(7)
H48 H 0.19080 1.17510 0.37200
C45 C 0.14656(12) 1.06932(11) 0.46304(8)
H49 H 0.09940 1.11800 0.48220
C46 C 0.16005(11) 0.96355(10) 0.50048(7)
H50 H 0.12200 0.93960 0.54510
C47 C 0.12307(9) 0.71541(9) 0.58118(6)
C48 C 0.03348(10) 0.67962(10) 0.56022(7)
H51 H 0.04010 0.67970 0.51540
C49 C -0.06504(11) 0.64401(11) 0.60524(8)
H52 H -0.12590 0.61990 0.59110
C50 C -0.07501(12) 0.64355(11) 0.67116(8)
H53 H -0.14190 0.61740 0.70200
C51 C 0.01298(13) 0.68144(11) 0.69187(7)
H54 H 0.00560 0.68230 0.73660
C52 C 0.11188(12) 0.71809(10) 0.64680(6)
H55 H 0.17160 0.74490 0.66070
C53 C 0.36671(9) 0.75672(9) 0.55755(6)
C54 C 0.37755(10) 0.67216(9) 0.61289(6)
H56 H 0.31970 0.61840 0.63290
C55 C 0.47319(11) 0.66721(10) 0.63837(6)
H57 H 0.48070 0.61050 0.67620
C56 C 0.55785(12) 0.74541(11) 0.60847(8)
H58 H 0.62290 0.74230 0.62620
C57 C 0.54815(12) 0.82843(12) 0.55272(8)
H59 H 0.60700 0.88090 0.53220
C58 C 0.45253(11) 0.83476(10) 0.52702(7)
H60 H 0.44560 0.89150 0.48910
O23 O 0.61304(9) 0.53917(9) 0.76031(5)
H61 H 0.5478(15) 0.546(2) 0.7761(14)
H62 H 0.627(3) 0.4746(15) 0.7707(15)
O24 O 1.02091(11) 0.20678(9) 0.94143(6)
H63 H 1.037(3) 0.198(3) 0.9778(12)
H64 H 0.985(2) 0.153(2) 0.9395(17)
O25 O 0.53833(8) 0.38268(8) 1.08128(5)
H65 H 0.565(2) 0.392(2) 1.1109(11)
H66 H 0.514(2) 0.3198(16) 1.0929(15)
O26 O 0.89815(15) 0.03504(11) 0.92343(9)
H67 H 0.896(3) -0.0284(17) 0.9206(18)
H68 H 0.847(2) 0.063(3) 0.9050(18)
Gd1* Gd 0.810901(4) -0.491491(4) 0.909223(2)
O6* O 0.94942(7) 0.64681(7) 0.87837(5)
#END
