
#######################################################################
#
#                 Cambridge Crystallographic Data Centre
#                                CCDC
#
#######################################################################
#
# If this CIF has been generated from an entry in the Cambridge
# Structural Database, then it will include bibliographic, chemical,
# crystal, experimental, refinement or atomic coordinate data resulting
# from the CCDC's data processing and validation procedures.
#
#######################################################################

data_CSD_CIF_NIQWUH
_audit_creation_date 2013-10-01
_audit_creation_method CSD-ConQuest-V1
_database_code_CSD NIQWUH
_database_code_depnum_ccdc_archive 'CCDC 917846'
_chemical_formula_sum 'C14 H17 Mo1 N3 O8'
_chemical_formula_moiety
;
(C12 H7 Mo1 N2 O7 1-)n,C2 H8 N1 1+,H2 O1
;
_journal_coden_Cambridge 9
_journal_volume 52
_journal_year 2013
_journal_page_first 4618
_journal_name_full 'Inorg.Chem. '
loop_
_publ_author_name
"T.R.Amarante"
"P.Neves"
"A.A.Valente"
"F.A.A.Paz"
"A.N.Fitch"
"M.Pillinger"
"I.S.Goncalves"
_chemical_name_systematic
;
catena-[dimethylammonium 
(\m~2~-oxo)-(5'-carboxy-2,2'-bipyridine-5-carboxylate)-dioxo-molybdenum(vi) 
monohydrate]
;
_cell_volume    818.965
_exptl_crystal_colour 'white'
_exptl_crystal_density_diffrn 1.83
_exptl_special_details
;
powder data

;
_exptl_crystal_description 'Powder'
_diffrn_ambient_temperature 100
_diffrn_radiation_probe x-ray
_diffrn_source synchrotron
#These two values have been output from a single CSD field.
_refine_ls_R_factor_gt 0.0886
_refine_ls_wR_factor_gt 0.0886
_symmetry_cell_setting monoclinic
_symmetry_space_group_name_H-M 'P c'
_symmetry_Int_Tables_number 7
loop_
_symmetry_equiv_pos_site_id
_symmetry_equiv_pos_as_xyz
1 x,y,z
2 x,-y,1/2+z
_cell_length_a 8.40330(4)
_cell_length_b 13.69246(6)
_cell_length_c 7.24076(2)
_cell_angle_alpha 90
_cell_angle_beta 100.5825(4)
_cell_angle_gamma 90
_cell_formula_units_Z 2
loop_
_atom_type_symbol
_atom_type_radius_bond
C 0.68
H 0.23
Mo 1.54
N 0.68
O 0.68
loop_
_atom_site_label
_atom_site_type_symbol
_atom_site_fract_x
_atom_site_fract_y
_atom_site_fract_z
Mo1 Mo 1.0335(17) 0.0017(3) 0.8329(15)
O1 O 0.992(2) 0.0163(14) 1.0867(16)
O2 O 1.146(3) -0.1014(16) 0.888(4)
O3 O 1.170(3) 0.0909(17) 0.847(4)
N1 N 0.784(4) -0.0657(18) 0.808(4)
N2 N 0.822(4) 0.125(2) 0.785(4)
C1 C 0.773(5) -0.164(3) 0.805(6)
H1 H 0.87(4) -0.199(20) 0.82(4)
C2 C 0.624(5) -0.2142(8) 0.773(6)
C3 C 0.484(4) -0.157(3) 0.730(6)
H2 H 0.38(3) -0.188(18) 0.70(4)
C4 C 0.495(5) -0.056(2) 0.728(5)
H3 H 0.40(2) -0.018(18) 0.70(3)
C5 C 0.647(4) -0.012(3) 0.769(4)
C6 C 0.668(5) 0.096(2) 0.769(5)
C7 C 0.541(5) 0.162(3) 0.761(6)
H4 H 0.43(3) 0.141(20) 0.76(4)
C8 C 0.576(5) 0.261(3) 0.765(6)
H5 H 0.49(3) 0.308(13) 0.76(3)
C9 C 0.733(5) 0.2934(10) 0.776(5)
C10 C 0.856(5) 0.222(3) 0.789(6)
H6 H 0.96(3) 0.241(14) 0.80(4)
C11 C 0.6027(10) -0.3217(6) 0.767(5)
C12 C 0.7708(16) 0.3980(6) 0.755(5)
O4 O 0.4651(10) -0.3654(11) 0.729(3)
O5 O 0.7363(10) -0.3667(12) 0.810(3)
O6 O 0.6601(16) 0.4576(12) 0.772(4)
H7 H 0.70(2) 0.517(17) 0.79(4)
O7 O 0.9145(12) 0.4229(14) 0.744(4)
O8 O 0.327(3) 0.5365(16) 0.384(4)
N3 N 0.095(4) 0.381(3) 0.379(6)
H8 H 0.13(3) 0.438(18) 0.43(4)
H9 H -0.01(3) 0.37(2) 0.39(4)
C13 C 0.095(4) 0.378(3) 0.184(6)
H10 H 0.07(3) 0.311(15) 0.14(4)
H11 H 0.20(3) 0.397(17) 0.16(4)
H12 H 0.01(3) 0.422(15) 0.12(5)
C14 C 0.197(5) 0.307(3) 0.486(6)
H13 H 0.31(3) 0.325(17) 0.50(3)
H14 H 0.17(3) 0.301(19) 0.61(3)
H15 H 0.18(3) 0.243(19) 0.42(4)
Mo1A Mo 1.0335(17) -0.0017(3) 1.3329(15)
O1A O 0.992(2) -0.0163(14) 0.5867(16)
#END
