
#######################################################################
#
#                 Cambridge Crystallographic Data Centre
#                                CCDC
#
#######################################################################
#
# If this CIF has been generated from an entry in the Cambridge
# Structural Database, then it will include bibliographic, chemical,
# crystal, experimental, refinement or atomic coordinate data resulting
# from the CCDC's data processing and validation procedures.
#
#######################################################################

data_CSD_CIF_NIQWUG
_audit_creation_date 2008-01-25
_audit_creation_method CSD-ConQuest-V1
_database_code_CSD NIQWUG
_database_code_depnum_ccdc_archive 'CCDC 604089'
_chemical_formula_sum 'C20 H12 Cu2 N6 O8'
_chemical_formula_moiety
;
(C10 H10 N2 2+)n,n(C10 H2 Cu2 N4 O8 2-)
;
_journal_coeditor_code "IUCr HY2090"
_journal_coden_Cambridge 1370
_journal_volume 63
_journal_year 2007
_journal_page_first m2908
_journal_name_full 'Acta Crystallogr.,Sect.E:Struct.Rep.Online '
loop_
_publ_author_name
"Qing-Qing Dou"
"Yong-Ke He"
"Li-Tian Zhang"
"Zheng-Bo Han"
_chemical_name_systematic
;
catena-[4,4'-Bipyridinium 
bis(\m~3~-pyrazole-3,5-dicarboxylato-N,N',O,O',O')-di-copper(ii)]
;
_cell_volume    948.783
_exptl_crystal_colour 'black'
_exptl_crystal_density_diffrn 2.07
_exptl_crystal_description 'block'
_diffrn_ambient_temperature 293
#These two values have been output from a single CSD field.
_refine_ls_R_factor_gt 0.0253
_refine_ls_wR_factor_gt 0.0253
_symmetry_cell_setting monoclinic
_symmetry_space_group_name_H-M 'P 21/c'
_symmetry_Int_Tables_number 14
loop_
_symmetry_equiv_pos_site_id
_symmetry_equiv_pos_as_xyz
1 x,y,z
2 -x,1/2+y,1/2-z
3 -x,-y,-z
4 x,-1/2-y,-1/2+z
_cell_length_a 8.1582(18)
_cell_length_b 6.3620(12)
_cell_length_c 18.679(3)
_cell_angle_alpha 90
_cell_angle_beta 101.862(15)
_cell_angle_gamma 90
_cell_formula_units_Z 2
loop_
_atom_type_symbol
_atom_type_radius_bond
C 0.68
H 0.23
Cu 1.49
N 0.68
O 0.87
loop_
_atom_site_label
_atom_site_type_symbol
_atom_site_fract_x
_atom_site_fract_y
_atom_site_fract_z
Cu1 Cu 0.11209(3) 0.72576(4) 0.501800(11)
C1 C 0.3356(2) 0.7260(3) 0.63644(10)
C2 C 0.2373(2) 0.9262(3) 0.63423(9)
C3 C 0.2260(2) 1.1011(3) 0.67817(9)
H1 H 0.28430 1.12660 0.72560
C4 C 0.1067(2) 1.2288(3) 0.63437(10)
C5 C 0.0225(2) 1.4354(3) 0.63753(9)
C6 C 0.3833(3) 1.7140(3) 0.85036(11)
H2 H 0.40110 1.82920 0.82230
C7 C 0.4729(3) 1.6925(3) 0.92106(11)
H3 H 0.54940 1.79560 0.94130
C8 C 0.4491(2) 1.5165(3) 0.96242(9)
C9 C 0.3284(2) 1.3702(3) 0.9308(1)
H4 H 0.30780 1.25250 0.95710
C10 C 0.2399(3) 1.4006(4) 0.86062(10)
H5 H 0.15840 1.30430 0.83960
N1 N 0.1315(2) 0.9517(2) 0.56971(8)
N2 N 0.0535(2) 1.1346(2) 0.56948(8)
N3 N 0.2707(2) 1.5681(3) 0.82268(8)
H6 H 0.21580 1.58260 0.77850
O1 O 0.29805(16) 0.6162(2) 0.57641(7)
O2 O 0.44127(18) 0.6763(3) 0.69028(8)
O3 O -0.07916(17) 1.4892(2) 0.57719(7)
O4 O 0.04633(18) 1.5447(2) 0.69333(7)
Cu1B Cu -0.11209(3) 1.27424(4) 0.498200(11)
Cu1* Cu 0.11209(3) 1.72576(4) 0.501800(11)
Cu1B* Cu -0.11209(3) 0.27424(4) 0.498200(11)
C1B C -0.3356(2) 1.2740(3) 0.36356(10)
C2B C -0.2373(2) 1.0738(3) 0.36577(9)
C3B C -0.2260(2) 0.8989(3) 0.32183(9)
H1B H -0.28430 0.87340 0.27440
C4B C -0.1067(2) 0.7712(3) 0.36563(10)
C5B C -0.0225(2) 0.5646(3) 0.36247(9)
C6B C 0.6167(3) 1.2860(3) 1.14964(11)
H2B H 0.59890 1.17080 1.17770
C7B C 0.5271(3) 1.3075(3) 1.07894(11)
H3B H 0.45060 1.20440 1.05870
C8B C 0.5509(2) 1.4835(3) 1.03758(9)
C9B C 0.6716(2) 1.6298(3) 1.0692(1)
H4B H 0.69220 1.74750 1.04290
C10B C 0.7601(3) 1.5994(4) 1.13938(10)
H5B H 0.84160 1.69570 1.16040
N1B N -0.1315(2) 1.0483(2) 0.43029(8)
N2B N -0.0535(2) 0.8654(2) 0.43052(8)
N3B N 0.7293(2) 1.4319(3) 1.17732(8)
H6B H 0.78420 1.41740 1.22150
O1B O -0.29805(16) 1.3838(2) 0.42359(7)
O2B O -0.44127(18) 1.3237(3) 0.30972(8)
O3B O 0.07916(17) 0.5108(2) 0.42281(7)
O3* O -0.07916(17) 0.4892(2) 0.57719(7)
O3B* O 0.07916(17) 1.5108(2) 0.42281(7)
O4B O -0.04633(18) 0.4553(2) 0.30667(7)
#END
