
#######################################################################
#
#                 Cambridge Crystallographic Data Centre
#                                CCDC
#
#######################################################################
#
# If this CIF has been generated from an entry in the Cambridge
# Structural Database, then it will include bibliographic, chemical,
# crystal, experimental, refinement or atomic coordinate data resulting
# from the CCDC's data processing and validation procedures.
#
#######################################################################

data_CSD_CIF_NIRTAM
_audit_creation_date 2018-10-02
_audit_creation_method CSD-ConQuest-V1
_database_code_CSD NIRTAM
_database_code_depnum_ccdc_archive 'CCDC 1837670'
_chemical_formula_sum 'C15 H11 Mn1 N1 O10'
_chemical_formula_moiety
;
(C15 H6 Mn1 N1 O8 1-)n,H3 O1 1+,H2 O1
;
_journal_coden_Cambridge 155
_journal_volume 484
_journal_year 2019
_journal_page_first 414
_journal_name_full 'Inorg.Chim.Acta '
loop_
_publ_author_name
"Hong Huang"
"Wei Gao"
"Feng Liu"
"Xiu-Mei Zhang"
"Jie-Ping Liu"
_chemical_name_systematic
;
catena-[oxonium (\m-2'-nitro[1,1'-biphenyl]-3,4',5-tricarboxylato)-manganese 
monohydrate]
;
_cell_volume    823.662
_exptl_crystal_colour 'colorless'
_exptl_crystal_density_diffrn 1.694
_exptl_crystal_description 'block'
_diffrn_ambient_temperature 293
#These two values have been output from a single CSD field.
_refine_ls_R_factor_gt 0.031
_refine_ls_wR_factor_gt 0.031
_symmetry_cell_setting triclinic
_symmetry_space_group_name_H-M 'P -1'
_symmetry_Int_Tables_number 2
loop_
_symmetry_equiv_pos_site_id
_symmetry_equiv_pos_as_xyz
1 x,y,z
2 -x,-y,-z
_cell_length_a 7.9386(11)
_cell_length_b 8.8178(13)
_cell_length_c 13.1958(18)
_cell_angle_alpha 98.607(5)
_cell_angle_beta 106.013(4)
_cell_angle_gamma 106.710(5)
_cell_formula_units_Z 2
loop_
_atom_type_symbol
_atom_type_radius_bond
C 0.68
H 0.23
Mn 1.61
N 0.68
O 0.68
loop_
_atom_site_label
_atom_site_type_symbol
_atom_site_fract_x
_atom_site_fract_y
_atom_site_fract_z
Mn1 Mn 1.20779(3) 0.91806(3) 0.94884(2)
O1 O 0.98818(18) 0.69199(16) 0.93960(11)
O2 O 1.06255(18) 0.66935(17) 0.79078(12)
O3 O 0.57749(17) 0.17985(15) 0.98332(9)
O4 O 0.32708(16) 0.02724(16) 0.84058(10)
O5 O 0.1927(3) 0.3656(3) 0.59412(14)
O6 O -0.0399(2) 0.1582(3) 0.48470(16)
O7 O 0.01269(17) -0.00731(16) 0.12461(10)
O8 O 0.29568(17) 0.07094(17) 0.10928(10)
N1 N 0.1245(2) 0.2452(2) 0.51750(13)
C1 C 0.9589(2) 0.6177(2) 0.84340(14)
C2 C 0.7883(2) 0.4666(2) 0.79177(13)
C3 C 0.7179(2) 0.3744(2) 0.85705(13)
H1 H 0.78090 0.40260 0.93170
C4 C 0.5535(2) 0.24002(19) 0.81136(13)
C5 C 0.4572(2) 0.2004(2) 0.69999(13)
H2 H 0.34470 0.11320 0.66980
C6 C 0.5281(2) 0.2905(2) 0.63356(13)
C7 C 0.6960(2) 0.4226(2) 0.67989(14)
H3 H 0.74630 0.48120 0.63580
C8 C 0.4812(2) 0.1412(2) 0.88332(13)
C9 C 0.4359(2) 0.2410(2) 0.51351(13)
C10 C 0.2457(2) 0.2060(2) 0.45873(13)
C11 C 0.1628(2) 0.1434(2) 0.34725(13)
H4 H 0.03470 0.11590 0.31430
C12 C 0.2741(2) 0.1224(2) 0.28527(13)
C13 C 0.4651(2) 0.1614(2) 0.33662(14)
H5 H 0.54070 0.15060 0.29530
C14 C 0.5430(2) 0.2162(2) 0.44884(14)
H6 H 0.66980 0.23710 0.48200
C15 C 0.1865(2) 0.0575(2) 0.16372(13)
O9 O 0.7727(3) -0.3422(2) 1.0771(2)
H7 H 0.838(6) -0.347(5) 1.038(3)
H8 H 0.822(6) -0.252(5) 1.115(3)
O10 O 0.3897(3) -0.4118(2) 0.83169(17)
H9 H 0.407(5) -0.460(4) 0.7731(18)
H10 H 0.481(4) -0.322(3) 0.875(2)
H11 H 0.344(5) -0.483(4) 0.867(3)
Mn1* Mn 0.20779(3) -0.08194(3) -0.05116(2)
Mn1** Mn 0.20779(3) -0.08194(3) 0.94884(2)
Mn1A Mn -0.20779(3) 0.08194(3) 0.05116(2)
Mn1A* Mn 0.79221(3) 0.08194(3) 1.05116(2)
O3A O 1.42251(17) 0.82015(15) 1.01668(9)
O4* O 1.32708(16) 1.02724(16) 0.84058(10)
O7A O 0.98731(17) 1.00731(16) 0.87539(10)
O8* O 1.29568(17) 1.07094(17) 1.10928(10)
#END
