
#######################################################################
#
#                 Cambridge Crystallographic Data Centre
#                                CCDC
#
#######################################################################
#
# If this CIF has been generated from an entry in the Cambridge
# Structural Database, then it will include bibliographic, chemical,
# crystal, experimental, refinement or atomic coordinate data resulting
# from the CCDC's data processing and validation procedures.
#
#######################################################################

data_CSD_CIF_NISDOK
_audit_creation_date 2013-10-02
_audit_creation_method CSD-ConQuest-V1
_database_code_CSD NISDOK
_database_code_depnum_ccdc_archive 'CCDC 841903'
_chemical_formula_sum 'C46 H44 N6 O21 S2 Zn3'
_chemical_formula_moiety
;
(C36 H26 N4 O16 S2 Zn2 2-)n,(C10 H16 N2 O4 Zn1 2+)n,H2 O1
;
_journal_coden_Cambridge 208
_journal_volume 205
_journal_year 2013
_journal_page_first 71
_journal_name_full 'J.Solid State Chem. '
loop_
_publ_author_name
"Shan-Shan Xiao"
"Xin-Xin Li"
"Xiang-Jun Zheng"
"Tian-Jing Jia"
"Lin-Pei Jin"
_chemical_name_systematic
;
catena-(bis(\m~2~-4,4'-Bipyridine)-bis(\m~2~-2-sulfoterephthalic 
diacid)-aqua-di-zinc (\m~2~-4,4'-bipyridine)-tetraaqua-zinc monohydrate)
;
_cell_volume   1326.058
_exptl_crystal_density_diffrn 1.598
_diffrn_ambient_temperature 293
_refine_special_details
;
O1B,O2B,O3B and O1A,O2A,O3A disordered over two sites with occupancies 
0.716:0.284.
;
#These two values have been output from a single CSD field.
_refine_ls_R_factor_gt 0.0483
_refine_ls_wR_factor_gt 0.0483
_symmetry_cell_setting triclinic
_symmetry_space_group_name_H-M 'P -1'
_symmetry_Int_Tables_number 2
loop_
_symmetry_equiv_pos_site_id
_symmetry_equiv_pos_as_xyz
1 x,y,z
2 -x,-y,-z
_cell_length_a 7.5103(1)
_cell_length_b 11.2490(2)
_cell_length_c 16.5318(3)
_cell_angle_alpha 88.787(1)
_cell_angle_beta 85.200(1)
_cell_angle_gamma 72.326(1)
_cell_formula_units_Z 1
loop_
_atom_type_symbol
_atom_type_radius_bond
C 0.68
H 0.23
N 0.68
O 0.68
S 1.02
Zn 1.22
loop_
_atom_site_label
_atom_site_type_symbol
_atom_site_fract_x
_atom_site_fract_y
_atom_site_fract_z
C1 C 0.2555(6) 0.2586(4) 1.0689(3)
H1 H 0.30140 0.22350 1.11730
C2 C 0.1357(6) 0.3791(4) 1.0707(3)
H2 H 0.10300 0.42280 1.11950
C3 C 0.0638(5) 0.4353(3) 1.0002(2)
C4 C 0.1183(7) 0.3637(4) 0.9311(3)
H3 H 0.07490 0.39650 0.88180
C5 C 0.2362(7) 0.2443(4) 0.9341(3)
H4 H 0.26770 0.19810 0.88620
N1 N 0.3088(4) 0.1900(3) 1.0013(2)
O1 O 0.2701(4) -0.0696(3) 0.98928(19)
H5 H 0.181(5) -0.029(5) 0.954(2)
H6 H 0.212(6) -0.075(5) 1.0404(15)
O2 O 0.5296(4) 0.0106(3) 0.87401(17)
H7 H 0.520(6) -0.047(4) 0.835(2)
H8 H 0.622(5) 0.046(4) 0.854(3)
Zn1 Zn 0.50000 0.00000 1.00000
C6 C 0.5039(7) 0.4854(4) 0.8151(3)
H9 H 0.55830 0.43340 0.77100
C7 C 0.5542(7) 0.4437(4) 0.8908(3)
H10 H 0.63950 0.36520 0.89730
C8 C 0.4760(5) 0.5202(4) 0.9580(2)
C9 C 0.3477(6) 0.6338(4) 0.9431(3)
H11 H 0.29030 0.68740 0.98620
C10 C 0.3042(6) 0.6685(4) 0.8655(3)
H12 H 0.21700 0.74570 0.85740
C11 C 0.6493(7) 0.6768(5) 0.5889(4)
H13 H 0.59770 0.76000 0.60440
C12 C 0.8221(7) 0.6412(5) 0.5459(4)
H14 H 0.88280 0.70070 0.53270
C13 C 0.9062(5) 0.5202(4) 0.5222(2)
C14 C 0.8051(7) 0.4396(5) 0.5425(3)
H15 H 0.85390 0.35610 0.52740
C15 C 0.6320(7) 0.4809(4) 0.5849(3)
H16 H 0.56710 0.42350 0.59720
C16 C 0.1358(6) 0.4425(3) 0.6994(2)
C17 C 0.1813(5) 0.3024(4) 0.6992(2)
C18 C 0.3500(7) 0.2269(4) 0.6654(3)
H17 H 0.43350 0.26250 0.63720
C19 C 0.3972(7) 0.0983(4) 0.6726(4)
H18 H 0.51300 0.04910 0.65010
C20 C 0.2757(6) 0.0414(4) 0.7128(2)
C21 C 0.3455(6) -0.0997(4) 0.7217(3)
C22 C 0.1034(5) 0.1179(3) 0.7459(2)
C23 C 0.0562(5) 0.2458(3) 0.7390(2)
H19 H -0.06010 0.29520 0.76100
N2 N 0.3816(5) 0.5961(3) 0.8009(2)
N3 N 0.5523(5) 0.5980(3) 0.6095(2)
O3 O 0.0561(8) -0.0347(6) 0.8581(3)
O4 O -0.1233(7) -0.0184(5) 0.7451(4)
O5 O -0.1944(13) 0.1487(7) 0.8421(6)
O6 O 0.0195(5) 0.7270(3) 0.7010(3)
H20 H -0.057(7) 0.808(2) 0.713(4)
H21 H -0.048(7) 0.671(4) 0.718(4)
O7 O 0.2564(4) 0.4856(3) 0.66190(17)
O8 O -0.0128(4) 0.5049(3) 0.7371(2)
O9 O 0.2846(4) -0.1616(3) 0.6752(2)
O10 O 0.4660(5) -0.1436(3) 0.7698(2)
S1 S -0.05461(15) 0.0531(1) 0.80411(7)
Zn2 Zn 0.30492(6) 0.65253(4) 0.68630(3)
O11? O -0.0025(17) 0.0676(16) 0.8924(8)
O12? O -0.029(2) -0.0637(13) 0.7905(10)
O13? O -0.2419(17) 0.1529(14) 0.8054(8)
O14 O 0.890(4) 0.123(3) 0.4850(17)
C1A C -0.2555(6) 0.7414(4) 0.9311(3)
H1A H -0.30140 0.77650 0.88270
C2A C -0.1357(6) 0.6209(4) 0.9293(3)
H2A H -0.10300 0.57720 0.88050
C3A C -0.0638(5) 0.5647(3) 0.9998(2)
C4A C -0.1183(7) 0.6363(4) 1.0689(3)
H3A H -0.07490 0.60350 1.11820
C5A C -0.2362(7) 0.7557(4) 1.0659(3)
H4A H -0.26770 0.80190 1.11380
N1A N -0.3088(4) 0.8100(3) 0.9987(2)
O1A O 0.7299(4) 0.0696(3) 1.01072(19)
H5A H 0.819(5) 0.029(5) 1.046(2)
H6A H 0.788(6) 0.075(5) 0.9596(15)
O2A O 0.4704(4) -0.0106(3) 1.12599(17)
H7A H 0.480(6) 0.047(4) 1.165(2)
H8A H 0.378(5) -0.046(4) 1.146(3)
N1A* N 0.6912(4) -0.1900(3) 0.9987(2)
Zn1* Zn -0.50000 1.00000 1.00000
C6A C 0.4961(7) 0.5146(4) 1.1849(3)
H9A H 0.44170 0.56660 1.22900
C7A C 0.4458(7) 0.5563(4) 1.1092(3)
H10A H 0.36050 0.63480 1.10270
C8A C 0.5240(5) 0.4798(4) 1.0420(2)
C9A C 0.6523(6) 0.3662(4) 1.0569(3)
H11A H 0.70970 0.31260 1.01380
C10A C 0.6958(6) 0.3315(4) 1.1345(3)
H12A H 0.78300 0.25430 1.14260
N2A N 0.6184(5) 0.4039(3) 1.1991(2)
C11A C 1.3507(7) 0.3232(5) 0.4111(4)
H13A H 1.40230 0.24000 0.39560
C12A C 1.1779(7) 0.3588(5) 0.4541(4)
H14A H 1.11720 0.29930 0.46730
C13A C 1.0938(5) 0.4798(4) 0.4778(2)
C14A C 1.1949(7) 0.5604(5) 0.4575(3)
H15A H 1.14610 0.64390 0.47260
C15A C 1.3680(7) 0.5191(4) 0.4151(3)
H16A H 1.43290 0.57650 0.40280
N3A N 1.4477(5) 0.4020(3) 0.3905(2)
C16A C 0.8642(6) 0.5575(3) 1.3006(2)
C17A C 0.8187(5) 0.6976(4) 1.3008(2)
C18A C 0.6500(7) 0.7731(4) 1.3346(3)
H17A H 0.56650 0.73750 1.36280
C19A C 0.6028(7) 0.9017(4) 1.3274(4)
H18A H 0.48700 0.95090 1.34990
C20A C 0.7243(6) 0.9586(4) 1.2872(2)
C21A C 0.6545(6) 1.0997(4) 1.2783(3)
C22A C 0.8966(5) 0.8821(3) 1.2541(2)
C23A C 0.9438(5) 0.7542(3) 1.2610(2)
H19A H 1.06010 0.70480 1.23900
O3A O 0.9439(8) 1.0347(6) 1.1419(3)
O4A O 1.1233(7) 1.0184(5) 1.2549(4)
O5A O 1.1944(13) 0.8513(7) 1.1579(6)
O6A O 0.9805(5) 0.2730(3) 1.2990(3)
H20A H 1.057(7) 0.192(2) 1.287(4)
H21A H 1.048(7) 0.329(4) 1.282(4)
O7A O 0.7436(4) 0.5144(3) 1.33810(17)
O8A O 1.0128(4) 0.4951(3) 1.2629(2)
O9A O 0.7154(4) 1.1616(3) 1.3248(2)
O10A O 0.5340(5) 1.1436(3) 1.2302(2)
S1A S 1.05461(15) 0.9469(1) 1.19589(7)
Zn2A Zn 0.69508(6) 0.34747(4) 1.31370(3)
N3A* N 0.4477(5) 0.4020(3) 1.3905(2)
O9* O 0.2846(4) 0.8384(3) 0.6752(2)
O9A* O 0.7154(4) 0.1616(3) 1.3248(2)
Zn2* Zn 0.30492(6) -0.34747(4) 0.68630(3)
Zn2A* Zn 0.69508(6) 1.34747(4) 1.31370(3)
Zn2A** Zn 1.69508(6) 0.34747(4) 0.31370(3)
#END
