
#######################################################################
#
#                 Cambridge Crystallographic Data Centre
#                                CCDC
#
#######################################################################
#
# If this CIF has been generated from an entry in the Cambridge
# Structural Database, then it will include bibliographic, chemical,
# crystal, experimental, refinement or atomic coordinate data resulting
# from the CCDC's data processing and validation procedures.
#
#######################################################################

data_CSD_CIF_NISPIP
_audit_creation_date 2008-04-11
_audit_creation_method CSD-ConQuest-V1
_database_code_CSD NISPIP
_database_code_depnum_ccdc_archive 'CCDC 634100'
_chemical_formula_sum 'C9 H12 N1 O5 P1 Zn1'
_chemical_formula_moiety
;
(C2 H8 N1 1+)n,n(C7 H4 O5 P1 Zn1 1-)
;
_journal_coden_Cambridge 920
_journal_volume 2
_journal_year 2007
_journal_page_first 1549
_journal_name_full 'Chem.Asian J. '
loop_
_publ_author_name
"Zhenxia Chen"
"Yaming Zhou"
"Linhong Weng"
"Chao Yuan"
"Dongyuan Zhao"
_chemical_name_systematic
;
catena-(dimethylammonium (\m~4~-4-phosphonatobenzoato)-zinc(ii))
;
_cell_volume   2291.917
_exptl_crystal_colour 'colorless'
_exptl_crystal_density_diffrn 1.8
_exptl_crystal_description 'columnar'
_diffrn_ambient_temperature 293
#These two values have been output from a single CSD field.
_refine_ls_R_factor_gt 0.035
_refine_ls_wR_factor_gt 0.035
_symmetry_cell_setting monoclinic
_symmetry_space_group_name_H-M 'C 2/c'
_symmetry_Int_Tables_number 15
loop_
_symmetry_equiv_pos_site_id
_symmetry_equiv_pos_as_xyz
1 x,y,z
2 1/2+x,1/2+y,z
3 -x,y,1/2-z
4 1/2-x,1/2+y,1/2-z
5 -x,-y,-z
6 -1/2-x,-1/2-y,-z
7 x,-y,-1/2+z
8 -1/2+x,-1/2-y,-1/2+z
_cell_length_a 22.071(8)
_cell_length_b 5.4007(19)
_cell_length_c 20.256(7)
_cell_angle_alpha 90
_cell_angle_beta 108.335(4)
_cell_angle_gamma 90
_cell_formula_units_Z 8
loop_
_atom_type_symbol
_atom_type_radius_bond
C 0.68
H 0.23
N 0.68
O 0.68
P 1.05
Zn 1.45
loop_
_atom_site_label
_atom_site_type_symbol
_atom_site_fract_x
_atom_site_fract_y
_atom_site_fract_z
Zn1 Zn 0.196231(16) 0.54972(7) 0.040434(17)
P1 P 0.27379(4) 1.04456(15) 0.09652(4)
O1 O 0.21318(10) 0.8895(4) 0.07137(10)
O2 O 0.32237(10) 0.9729(4) 0.05982(10)
O3 O 0.26014(10) 1.3219(4) 0.09259(10)
C1 C 0.31223(13) 0.9807(5) 0.18825(14)
C2 C 0.34735(15) 0.7639(6) 0.21011(15)
H1 H 0.35100 0.64980 0.17720
C3 C 0.37696(16) 0.7165(6) 0.28023(16)
H2 H 0.40080 0.57260 0.29380
C4 C 0.37107(14) 0.8846(6) 0.33074(14)
C5 C 0.33568(15) 1.0974(6) 0.30935(15)
H3 H 0.33130 1.20960 0.34240
C6 C 0.30652(14) 1.1460(6) 0.23897(15)
H4 H 0.28290 1.29050 0.22560
C7 C 0.40481(14) 0.8280(6) 0.40646(15)
O4 O 0.38938(10) 0.9549(4) 0.45314(10)
O5 O 0.44802(12) 0.6721(5) 0.42226(12)
N1 N 0.04089(12) 0.1859(5) 0.92428(13)
H5 H 0.05530 0.29790 0.95860
H6 H 0.00400 0.12430 0.92730
C8 C 0.02820(19) 0.3121(8) 0.85670(18)
H7 H -0.00280 0.44070 0.85280
H8 H 0.01200 0.19460 0.81980
H9 H 0.06710 0.38320 0.85360
C9 C 0.08776(17) -0.0169(7) 0.9351(2)
H10 H 0.09360 -0.09190 0.97960
H11 H 0.12770 0.04800 0.93340
H12 H 0.07240 -0.13880 0.89920
Zn1E Zn 0.303769(16) 0.95028(7) -0.040434(17)
Zn1* Zn 0.196231(16) 1.54972(7) 0.040434(17)
Zn1C Zn 0.303769(16) 1.04972(7) 0.459566(17)
O2E O 0.17763(10) 0.5271(4) -0.05982(10)
O3* O 0.26014(10) 0.3219(4) 0.09259(10)
O4C O 0.11062(10) 0.4549(4) 0.04686(10)
#END
