
#######################################################################
#
#                 Cambridge Crystallographic Data Centre
#                                CCDC
#
#######################################################################
#
# If this CIF has been generated from an entry in the Cambridge
# Structural Database, then it will include bibliographic, chemical,
# crystal, experimental, refinement or atomic coordinate data resulting
# from the CCDC's data processing and validation procedures.
#
#######################################################################

data_CSD_CIF_NISPUD
_audit_creation_date 2019-02-01
_audit_creation_method CSD-ConQuest-V1
_database_code_CSD NISPUD
_database_code_depnum_ccdc_archive 'CCDC 1884929'
_chemical_formula_sum 'C54 H40 Ag1 N2 O8 P1 Rh2'
_chemical_formula_moiety
;
(C30 H20 Ag1 N2 O8 Rh2 1-)n,C24 H20 P1 1+
;
_journal_coden_Cambridge 1530
_journal_volume 11
_journal_year 2019
_journal_page_first 111
_journal_name_full 'Polymers '
loop_
_publ_author_name
"P.Cruz"
"E.Fernandez-Bartolome"
"M.Cortijo"
"P.Delgado-Martinez"
"R.Gonzalez-Prieto"
"J.L.Priego"
"M.Rosario Torres"
"R.Jimenez-Aparicio"
_chemical_name_systematic
;
catena-[tetraphenylphosphanium 
bis(\m-cyano)-tetrakis(\m-benzoato)-di-rhodium(ii)-silver(i)]
;
_cell_volume   2541.639
_exptl_crystal_colour 'pink'
_exptl_crystal_density_diffrn 1.554
_exptl_crystal_description 'prismatic'
_diffrn_ambient_temperature 296.1
#These two values have been output from a single CSD field.
_refine_ls_R_factor_gt 0.0587
_refine_ls_wR_factor_gt 0.0587
_symmetry_cell_setting triclinic
_symmetry_space_group_name_H-M 'P -1'
_symmetry_Int_Tables_number 2
loop_
_symmetry_equiv_pos_site_id
_symmetry_equiv_pos_as_xyz
1 x,y,z
2 -x,-y,-z
_cell_length_a 12.2802(9)
_cell_length_b 13.3534(9)
_cell_length_c 17.3652(12)
_cell_angle_alpha 83.105(1)
_cell_angle_beta 83.373(1)
_cell_angle_gamma 64.333(1)
_cell_formula_units_Z 2
loop_
_atom_type_symbol
_atom_type_radius_bond
C 0.68
H 0.23
Ag 1.45
N 0.68
O 0.68
P 1.05
Rh 1.42
loop_
_atom_site_label
_atom_site_type_symbol
_atom_site_fract_x
_atom_site_fract_y
_atom_site_fract_z
C1 C 0.1129(9) 0.7094(8) 0.3091(6)
C2 C -0.2143(8) 0.5647(7) 0.4499(5)
C3 C -0.3428(9) 0.6138(7) 0.4279(6)
C4 C -0.4295(11) 0.6027(13) 0.4792(9)
H1 H -0.40990 0.56280 0.52720
C5 C -0.5492(13) 0.6528(16) 0.4581(11)
H2 H -0.60950 0.64730 0.49360
C6 C -0.5802(12) 0.7079(12) 0.3894(11)
H3 H -0.66070 0.73990 0.37730
C7 C -0.4956(11) 0.717(1) 0.3382(8)
H4 H -0.51640 0.75440 0.28960
C8 C -0.3764(9) 0.6710(8) 0.3571(7)
H5 H -0.31790 0.67890 0.32110
C9 C 0.1103(8) 0.3265(7) 0.4200(5)
C10 C 0.1875(9) 0.2246(8) 0.3770(6)
C11 C 0.2036(9) 0.2297(9) 0.2981(6)
H6 H 0.17000 0.29850 0.26980
C12 C 0.2688(10) 0.1349(10) 0.2592(7)
H7 H 0.27910 0.14040 0.20520
C13 C 0.3183(12) 0.0332(11) 0.2994(8)
H8 H 0.36120 -0.03090 0.27320
C14 C 0.3039(13) 0.0263(10) 0.3794(9)
H9 H 0.33890 -0.04280 0.40710
C15 C 0.2381(10) 0.1211(8) 0.4196(7)
H10 H 0.22790 0.11580 0.47360
C16 C 0.2412(10) 0.8975(9) 0.1574(6)
C17 C 0.3775(9) 1.0367(7) -0.1219(5)
C18 C 0.3115(8) 1.0518(7) -0.1920(5)
C19 C 0.3543(12) 1.0789(12) -0.2642(6)
H11 H 0.42590 1.08790 -0.27020
C20 C 0.2901(15) 1.0927(15) -0.3282(8)
H12 H 0.31990 1.11030 -0.37700
C21 C 0.1857(13) 1.0813(12) -0.3217(8)
H13 H 0.14150 1.09420 -0.36480
C22 C 0.1465(11) 1.0501(10) -0.2498(8)
H14 H 0.07800 1.03630 -0.24510
C23 C 0.2053(9) 1.0386(9) -0.1844(7)
H15 H 0.17400 1.02220 -0.13570
C24 C 0.3959(11) 1.2081(7) 0.0308(6)
N1 N 0.0766(7) 0.6584(6) 0.3528(4)
N2 N 0.2877(7) 0.9396(7) 0.1165(4)
O1 O -0.1433(5) 0.5993(5) 0.4089(3)
O2 O 0.1007(5) 0.4196(5) 0.3854(3)
O3 O 0.3302(6) 1.0152(5) -0.0568(4)
O4 O 0.3429(6) 1.1471(5) 0.0596(4)
O5 O 0.4753(5) 1.0481(5) -0.1320(3)
O6 O 0.4906(7) 1.1788(5) -0.0133(4)
O7 O -0.1869(5) 0.4939(5) 0.5079(3)
O8 O 0.0635(5) 0.3117(4) 0.4862(3)
Rh1 Rh 0.02349(6) 0.55625(5) 0.44734(4)
Rh2 Rh 0.42221(6) 0.98286(6) 0.04004(4)
Ag1 Ag 0.17402(8) 0.80463(7) 0.23364(5)
C25 C 0.3437(12) 1.3250(8) 0.0496(6)
C26 C 0.2269(11) 1.3736(13) 0.0844(8)
H16 H 0.18200 1.33200 0.09610
C27 C 0.1771(11) 1.4843(14) 0.1017(9)
H17 H 0.09900 1.51690 0.12500
C28 C 0.2442(17) 1.5465(8) 0.0841(9)
H18 H 0.21090 1.62060 0.09570
C29 C 0.3610(16) 1.4978(11) 0.0493(8)
H19 H 0.40590 1.53940 0.03760
C30 C 0.4107(9) 1.3871(11) 0.0320(6)
H20 H 0.48890 1.35450 0.00870
C31 C 0.8417(10) 0.2605(9) 0.1339(8)
C32 C 0.9621(12) 0.2226(11) 0.1092(10)
H21 H 1.01400 0.23390 0.13850
C33 C 1.0092(14) 0.1672(12) 0.0406(10)
H22 H 1.09010 0.14500 0.02290
C34 C 0.9310(15) 0.1474(9) 0.0011(8)
H23 H 0.95960 0.11030 -0.04410
C35 C 0.8125(13) 0.1809(10) 0.0267(7)
H24 H 0.76070 0.16670 -0.00080
C36 C 0.7699(11) 0.2355(8) 0.0928(7)
H25 H 0.68920 0.25630 0.11050
C37 C 0.8617(9) 0.2528(9) 0.3041(8)
C38 C 0.8216(11) 0.2994(10) 0.3755(8)
H26 H 0.76140 0.37170 0.37780
C39 C 0.8710(12) 0.2386(12) 0.4424(9)
H27 H 0.84360 0.26890 0.49030
C40 C 0.9600(16) 0.1342(12) 0.4378(10)
H28 H 0.99330 0.09340 0.48330
C41 C 1.0037(14) 0.0855(12) 0.3669(11)
H29 H 1.06590 0.01410 0.36480
C42 C 0.9525(12) 0.1460(11) 0.3008(9)
H30 H 0.97900 0.11490 0.25320
P1 P 0.7882(3) 0.3337(3) 0.2200(2)
C43 C 0.6298(9) 0.3600(11) 0.2430(6)
C44 C 0.6005(11) 0.2706(8) 0.2649(6)
H31 H 0.66020 0.19800 0.26260
C45 C 0.4820(13) 0.2896(11) 0.2901(7)
H32 H 0.46240 0.22970 0.30470
C46 C 0.3929(9) 0.3981(14) 0.2935(7)
H33 H 0.31360 0.41080 0.31030
C47 C 0.4222(11) 0.4875(9) 0.2716(8)
H34 H 0.36250 0.56010 0.27390
C48 C 0.5406(14) 0.4685(9) 0.2464(7)
H35 H 0.56020 0.52840 0.23180
C49 C 0.8114(9) 0.4560(8) 0.2056(6)
C50 C 0.7552(9) 0.5350(11) 0.1460(6)
H36 H 0.70220 0.52500 0.11680
C51 C 0.7781(11) 0.6289(9) 0.1301(6)
H37 H 0.74050 0.68170 0.09020
C52 C 0.8573(10) 0.6437(6) 0.1737(6)
H38 H 0.87270 0.70650 0.16300
C53 C 0.9135(7) 0.5647(7) 0.2333(5)
H39 H 0.96650 0.57470 0.26250
C54 C 0.8906(7) 0.4708(6) 0.2492(4)
H40 H 0.92820 0.41800 0.28910
O5A O 0.5247(5) 0.9519(5) 0.1320(3)
O6A O 0.5094(7) 0.8212(5) 0.0133(4)
O7A O 0.1869(5) 0.5061(5) 0.4921(3)
O8A O -0.0635(5) 0.6883(4) 0.5138(3)
Rh1A Rh -0.02349(6) 0.44375(5) 0.55266(4)
Rh2A Rh 0.57779(6) 1.01714(6) -0.04004(4)
#END
