
#######################################################################
#
#                 Cambridge Crystallographic Data Centre
#                                CCDC
#
#######################################################################
#
# If this CIF has been generated from an entry in the Cambridge
# Structural Database, then it will include bibliographic, chemical,
# crystal, experimental, refinement or atomic coordinate data resulting
# from the CCDC's data processing and validation procedures.
#
#######################################################################

data_CSD_CIF_NISPIR
_audit_creation_date 2019-02-01
_audit_creation_method CSD-ConQuest-V1
_database_code_CSD NISPIR
_database_code_depnum_ccdc_archive 'CCDC 1884927'
_chemical_formula_sum 'C36 H36 Ag1 Cl4 N2 O8 P1 Rh2'
_chemical_formula_moiety
;
C24 H20 P1 1+,(C10 H12 Ag1 N2 O8 Rh2 1-)n,2(C1 H2 Cl2)
;
_journal_coden_Cambridge 1530
_journal_volume 11
_journal_year 2019
_journal_page_first 111
_journal_name_full 'Polymers '
loop_
_publ_author_name
"P.Cruz"
"E.Fernandez-Bartolome"
"M.Cortijo"
"P.Delgado-Martinez"
"R.Gonzalez-Prieto"
"J.L.Priego"
"M.Rosario Torres"
"R.Jimenez-Aparicio"
_chemical_name_systematic
;
catena-[tetraphenylphosphanium 
bis(\m-cyano)-tetrakis(\m-acetato)-di-rhodium(ii)-silver(i) dichloromethane 
unknown solvate]
;
_cell_volume   2358.491
_exptl_crystal_colour 'pink'
_exptl_crystal_density_diffrn 1.565
_exptl_crystal_description 'prismatic'
_diffrn_ambient_temperature 293
_refine_special_details
;
Disordered solvent molecules were not modelled and the disordered density was 
taken into account using the SQUEEZE/PLATON procedure.
;
#These two values have been output from a single CSD field.
_refine_ls_R_factor_gt 0.0396
_refine_ls_wR_factor_gt 0.0396
_symmetry_cell_setting triclinic
_symmetry_space_group_name_H-M 'P -1'
_symmetry_Int_Tables_number 2
loop_
_symmetry_equiv_pos_site_id
_symmetry_equiv_pos_as_xyz
1 x,y,z
2 -x,-y,-z
_cell_length_a 13.1180(12)
_cell_length_b 13.6197(13)
_cell_length_c 13.6949(13)
_cell_angle_alpha 87.033(2)
_cell_angle_beta 78.278(2)
_cell_angle_gamma 79.928(2)
_cell_formula_units_Z 2
loop_
_atom_type_symbol
_atom_type_radius_bond
C 0.68
H 0.23
Ag 1.45
Cl 0.99
N 0.68
O 0.68
P 1.05
Rh 1.42
loop_
_atom_site_label
_atom_site_type_symbol
_atom_site_fract_x
_atom_site_fract_y
_atom_site_fract_z
Ag1 Ag 0.59794(3) 0.67069(3) 0.71863(3)
C1 C 1.1462(4) 0.5648(4) 0.5576(4)
C2 C 1.1775(5) 0.5089(5) 0.4616(4)
H1 H 1.14690 0.44910 0.46920
H2 H 1.25300 0.49170 0.44470
H3 H 1.15250 0.55000 0.40940
C3 C 1.0472(4) 0.7689(4) 0.8854(4)
C4 C 1.0179(5) 0.8274(5) 0.9808(4)
H4 H 1.03860 0.89180 0.96810
H5 H 1.05370 0.79220 1.03010
H6 H 0.94300 0.83530 1.00490
C5 C 1.1152(4) 0.8305(4) 0.6174(4)
C6 C 1.1255(5) 0.9250(5) 0.5581(5)
H7 H 1.19000 0.94630 0.56370
H8 H 1.06670 0.97580 0.58330
H9 H 1.12630 0.91350 0.48940
C7 C 1.0833(4) 0.4988(4) 0.8245(4)
C8 C 1.0760(5) 0.4008(5) 0.8808(5)
H10 H 1.14260 0.35690 0.86470
H11 H 1.02190 0.37080 0.86220
H12 H 1.05900 0.41270 0.95120
C9 C 0.7525(4) 0.6894(4) 0.7068(4)
C10 C 0.4443(4) 0.6484(4) 0.7296(4)
N1 N 0.8372(3) 0.6922(3) 0.7064(3)
N2 N 0.3599(3) 0.6426(3) 0.7326(3)
O1 O 1.0495(2) 0.5950(2) 0.5903(2)
O2 O 1.2217(2) 0.5787(2) 0.5978(2)
O3 O 1.1443(3) 0.7359(3) 0.8553(2)
O4 O 0.9718(3) 0.7561(3) 0.8454(2)
O5 O 1.1971(2) 0.7852(2) 0.6455(2)
O6 O 1.0262(2) 0.8029(2) 0.6340(3)
O7 O 0.9998(3) 0.5461(3) 0.8006(3)
O8 O 1.1721(3) 0.5267(2) 0.8066(3)
Rh1 Rh 1.00609(3) 0.67552(3) 0.71744(3)
Rh2 Rh 1.18953(3) 0.65580(3) 0.72692(3)
C11 C 0.5396(4) 0.2965(3) 0.7151(3)
C12 C 0.4385(5) 0.3510(4) 0.7202(4)
H13 H 0.39130 0.35970 0.78090
C13 C 0.4094(5) 0.3925(5) 0.6317(5)
H14 H 0.34280 0.43040 0.63350
C14 C 0.4792(5) 0.3771(5) 0.5431(4)
H15 H 0.45860 0.40350 0.48480
C15 C 0.5770(5) 0.3248(5) 0.5380(4)
H16 H 0.62370 0.31630 0.47690
C16 C 0.6079(4) 0.2835(5) 0.6244(4)
H17 H 0.67530 0.24670 0.62100
C17 C 0.6482(4) 0.3357(4) 0.8738(4)
C18 C 0.7112(4) 0.3904(4) 0.8070(4)
H18 H 0.71040 0.38960 0.73930
C19 C 0.7743(5) 0.4456(5) 0.8398(5)
H19 H 0.81750 0.48120 0.79430
C20 C 0.7742(5) 0.4488(4) 0.9399(5)
H20 H 0.81830 0.48580 0.96170
C21 C 0.7104(5) 0.3983(5) 1.0077(4)
H21 H 0.70900 0.40320 1.07540
C22 C 0.6477(4) 0.3398(4) 0.9760(4)
H22 H 0.60570 0.30350 1.02190
C23 C 0.6733(4) 0.1350(4) 0.7986(4)
C24 C 0.7675(4) 0.1185(5) 0.8312(5)
H23 H 0.78300 0.16540 0.87050
C25 C 0.8393(5) 0.0321(6) 0.8057(6)
H24 H 0.90290 0.02150 0.82780
C26 C 0.8182(6) -0.0363(6) 0.7495(6)
H25 H 0.86770 -0.09360 0.73250
C27 C 0.7224(7) -0.0229(5) 0.7161(5)
H26 H 0.70770 -0.07090 0.67750
C28 C 0.6501(5) 0.0637(4) 0.7420(4)
H27 H 0.58580 0.07380 0.72110
C29 C 0.4695(4) 0.2266(4) 0.9200(3)
C30 C 0.4455(4) 0.1317(4) 0.9382(4)
H28 H 0.49010 0.07780 0.90490
C31 C 0.3560(5) 0.1167(5) 1.0052(5)
H29 H 0.34070 0.05240 1.01670
C32 C 0.2900(5) 0.1933(5) 1.0543(5)
H30 H 0.22980 0.18200 1.09950
C33 C 0.3124(5) 0.2883(5) 1.0371(4)
H31 H 0.26610 0.34180 1.06950
C34 C 0.4032(5) 0.3048(4) 0.9719(4)
H32 H 0.41960 0.36880 0.96300
P1 P 0.58156(10) 0.24870(9) 0.82791(9)
C35 C 0.9323(8) 0.7413(10) 0.4339(8)
H33 H 0.95090 0.67230 0.45420
H34 H 0.92040 0.78150 0.49280
Cl1 Cl 1.0358(3) 0.7728(3) 0.3539(3)
Cl2 Cl 0.8201(3) 0.7532(4) 0.3948(3)
C36 C 0.3110(5) 0.8878(5) 0.7969(7)
H35 H 0.33060 0.87750 0.72550
H36 H 0.27830 0.83200 0.82690
Cl3 Cl 0.4245(2) 0.88977(17) 0.8436(2)
Cl4 Cl 0.2194(3) 0.9974(2) 0.8197(3)
N2* N 1.3599(3) 0.6426(3) 0.7326(3)
Rh2* Rh 0.18953(3) 0.65580(3) 0.72692(3)
#END
