
#######################################################################
#
#                 Cambridge Crystallographic Data Centre
#                                CCDC
#
#######################################################################
#
# If this CIF has been generated from an entry in the Cambridge
# Structural Database, then it will include bibliographic, chemical,
# crystal, experimental, refinement or atomic coordinate data resulting
# from the CCDC's data processing and validation procedures.
#
#######################################################################

data_CSD_CIF_NISPEN
_audit_creation_date 2019-02-01
_audit_creation_method CSD-ConQuest-V1
_database_code_CSD NISPEN
_database_code_depnum_ccdc_archive 'CCDC 1884926'
_chemical_formula_sum 'C34 H32 Ag1 N2 O8 P1 Rh2'
_chemical_formula_moiety
;
C24 H20 P1 1+,(C10 H12 Ag1 N2 O8 Rh2 1-)n
;
_journal_coden_Cambridge 1530
_journal_volume 11
_journal_year 2019
_journal_page_first 111
_journal_name_full 'Polymers '
loop_
_publ_author_name
"P.Cruz"
"E.Fernandez-Bartolome"
"M.Cortijo"
"P.Delgado-Martinez"
"R.Gonzalez-Prieto"
"J.L.Priego"
"M.Rosario Torres"
"R.Jimenez-Aparicio"
_chemical_name_systematic
;
catena-[tetraphenylphosphanium 
bis(\m-cyano)-tetrakis(\m-acetato)-di-rhodium(ii)-silver(i)]
;
_cell_volume   3620.162
_exptl_crystal_colour 'pink'
_exptl_crystal_density_diffrn 1.727
_exptl_crystal_description 'thin'
_diffrn_ambient_temperature 296
#These two values have been output from a single CSD field.
_refine_ls_R_factor_gt 0.0494
_refine_ls_wR_factor_gt 0.0494
_symmetry_cell_setting monoclinic
_symmetry_space_group_name_H-M 'P 21/n'
_symmetry_Int_Tables_number 14
loop_
_symmetry_equiv_pos_site_id
_symmetry_equiv_pos_as_xyz
1 x,y,z
2 1/2-x,1/2+y,1/2-z
3 -x,-y,-z
4 -1/2+x,-1/2-y,-1/2+z
_cell_length_a 11.7168(8)
_cell_length_b 26.3945(17)
_cell_length_c 11.7290(8)
_cell_angle_alpha 90
_cell_angle_beta 93.595(1)
_cell_angle_gamma 90
_cell_formula_units_Z 4
loop_
_atom_type_symbol
_atom_type_radius_bond
C 0.68
H 0.23
Ag 1.45
N 0.68
O 0.68
P 1.05
Rh 1.42
loop_
_atom_site_label
_atom_site_type_symbol
_atom_site_fract_x
_atom_site_fract_y
_atom_site_fract_z
Ag1 Ag 0.74409(7) 0.77894(3) 0.23346(8)
C1 C 0.7477(9) 0.8547(4) 0.2213(9)
C2 C 0.7456(9) 0.7019(4) 0.2443(9)
C3 C 0.6778(7) 1.0266(3) 0.4474(8)
C4 C 0.6362(9) 1.0251(4) 0.5661(9)
H1 H 0.68410 1.04620 0.61550
H2 H 0.63930 0.99090 0.59400
H3 H 0.55890 1.03710 0.56450
C5 C 0.8214(7) 1.0316(3) 0.0349(7)
C6 C 0.8702(9) 1.0339(4) -0.0820(8)
H4 H 0.95140 1.03880 -0.07310
H5 H 0.83590 1.06150 -0.12480
H6 H 0.85400 1.00270 -0.12200
C7 C 0.9604(8) 1.0294(4) 0.3240(8)
C8 C 1.0811(8) 1.0298(5) 0.3733(9)
H7 H 1.12470 1.05390 0.33290
H8 H 1.11380 0.99660 0.36600
H9 H 1.08250 1.03890 0.45250
C9 C 0.5356(8) 1.0276(4) 0.1644(8)
C10 C 0.4114(8) 1.0261(4) 0.1248(10)
H10 H 0.36780 1.04460 0.17760
H11 H 0.38580 0.99160 0.12100
H12 H 0.40130 1.04130 0.05040
N1 N 0.7515(7) 0.9000(3) 0.2277(7)
N2 N 0.7497(7) 0.6588(3) 0.2530(6)
O1 O 0.6929(5) 1.0694(2) 0.4040(5)
O2 O 0.6944(5) 0.9840(2) 0.3999(5)
O3 O 0.8084(5) 0.9882(2) 0.0778(5)
O4 O 0.7995(5) 1.0737(2) 0.0805(5)
O5 O 0.9132(5) 1.0721(2) 0.3047(5)
O6 O 0.9150(5) 0.9862(2) 0.3038(5)
O7 O 0.5792(5) 1.0705(2) 0.1825(5)
O8 O 0.5842(5) 0.9851(2) 0.1765(5)
Rh1 Rh 0.74688(6) 1.07431(2) 0.24305(6)
Rh2 Rh 0.75010(6) 0.98320(2) 0.23866(6)
C11 C 0.3656(9) 0.7224(4) 0.3729(8)
C12 C 0.2646(9) 0.7013(4) 0.4046(9)
H13 H 0.19850 0.72080 0.40380
C13 C 0.2625(11) 0.6511(4) 0.4374(10)
H14 H 0.19450 0.63670 0.45820
C14 C 0.3577(12) 0.6233(5) 0.4392(11)
H15 H 0.35580 0.58990 0.46390
C15 C 0.4582(14) 0.6430(5) 0.4055(12)
H16 H 0.52270 0.62260 0.40440
C16 C 0.4642(10) 0.6926(5) 0.3733(11)
H17 H 0.53280 0.70630 0.35210
C17 C 0.4778(8) 0.8153(4) 0.4461(8)
C18 C 0.4808(11) 0.7970(6) 0.5568(10)
H18 H 0.43130 0.77110 0.57480
C19 C 0.5548(12) 0.8162(6) 0.6396(10)
H19 H 0.55370 0.80460 0.71440
C20 C 0.6319(13) 0.8533(6) 0.6114(12)
H20 H 0.68490 0.86550 0.66720
C21 C 0.6313(11) 0.8716(5) 0.5065(13)
H21 H 0.68330 0.89670 0.48940
C22 C 0.5524(10) 0.8535(4) 0.4201(10)
H22 H 0.55070 0.86710 0.34680
C23 C 0.4183(10) 0.7984(4) 0.1988(9)
C24 C 0.4432(11) 0.7596(5) 0.1272(10)
H23 H 0.44580 0.72640 0.15330
C25 C 0.4647(13) 0.7709(7) 0.0139(12)
H24 H 0.48260 0.74480 -0.03530
C26 C 0.4595(12) 0.8201(8) -0.0254(12)
H25 H 0.47270 0.82680 -0.10130
C27 C 0.4353(12) 0.8588(6) 0.0450(11)
H26 H 0.43190 0.89180 0.01730
C28 C 0.4159(11) 0.8493(5) 0.1572(10)
H27 H 0.40130 0.87600 0.20610
C29 C 0.2387(9) 0.8182(4) 0.3475(9)
C30 C 0.2097(9) 0.8419(4) 0.4456(9)
H28 H 0.26150 0.84290 0.50900
C31 C 0.1008(11) 0.8650(5) 0.4503(12)
H29 H 0.07940 0.88060 0.51680
C32 C 0.0302(10) 0.8637(5) 0.3570(13)
H30 H -0.04040 0.87970 0.35910
C33 C 0.0565(10) 0.8400(6) 0.2581(12)
H31 H 0.00380 0.83960 0.19550
C34 C 0.1614(10) 0.8169(5) 0.252(1)
H32 H 0.18040 0.80070 0.18540
P1 P 0.3767(2) 0.78888(10) 0.3412(2)
N2A N 0.7503(7) 1.1588(3) 0.2470(6)
Rh1A Rh 0.75312(6) 0.57431(2) 0.25695(6)
#END
