
#######################################################################
#
#                 Cambridge Crystallographic Data Centre
#                                CCDC
#
#######################################################################
#
# If this CIF has been generated from an entry in the Cambridge
# Structural Database, then it will include bibliographic, chemical,
# crystal, experimental, refinement or atomic coordinate data resulting
# from the CCDC's data processing and validation procedures.
#
#######################################################################

data_CSD_CIF_NISQAK
_audit_creation_date 2019-02-01
_audit_creation_method CSD-ConQuest-V1
_database_code_CSD NISQAK
_database_code_depnum_ccdc_archive 'CCDC 1884930'
_chemical_formula_sum 'C42 H48 Ag1 N2 O12 P1 Rh2'
_chemical_formula_moiety
;
(C18 H28 Ag1 N2 O12 Rh2 1-)n,C24 H20 P1 1+
;
_journal_coden_Cambridge 1530
_journal_volume 11
_journal_year 2019
_journal_page_first 111
_journal_name_full 'Polymers '
loop_
_publ_author_name
"P.Cruz"
"E.Fernandez-Bartolome"
"M.Cortijo"
"P.Delgado-Martinez"
"R.Gonzalez-Prieto"
"J.L.Priego"
"M.Rosario Torres"
"R.Jimenez-Aparicio"
_chemical_name_systematic
;
catena-[tetraphenylphosphanium 
bis(\m-cyano)-tetrakis(\m-ethoxyacetato)-di-rhodium(ii)-silver(i)]
;
_cell_volume   4600.625
_exptl_crystal_colour 'violet'
_exptl_crystal_density_diffrn 1.613
_exptl_crystal_description 'prismatic'
_diffrn_ambient_temperature 293
#These two values have been output from a single CSD field.
_refine_ls_R_factor_gt 0.0379
_refine_ls_wR_factor_gt 0.0379
_symmetry_cell_setting monoclinic
_symmetry_space_group_name_H-M 'P 21/c'
_symmetry_Int_Tables_number 14
loop_
_symmetry_equiv_pos_site_id
_symmetry_equiv_pos_as_xyz
1 x,y,z
2 -x,1/2+y,1/2-z
3 -x,-y,-z
4 x,-1/2-y,-1/2+z
_cell_length_a 13.1982(13)
_cell_length_b 22.201(2)
_cell_length_c 16.9090(17)
_cell_angle_alpha 90
_cell_angle_beta 111.788(2)
_cell_angle_gamma 90
_cell_formula_units_Z 4
loop_
_atom_type_symbol
_atom_type_radius_bond
C 0.68
H 0.23
Ag 1.45
N 0.68
O 0.68
P 1.05
Rh 1.42
loop_
_atom_site_label
_atom_site_type_symbol
_atom_site_fract_x
_atom_site_fract_y
_atom_site_fract_z
Ag1 Ag 0.50328(3) 0.25621(2) 0.16308(3)
Rh1 Rh 0.90496(3) 0.19212(2) 0.36680(2)
Rh2 Rh 1.09279(3) 0.19158(2) 0.46408(2)
O1 O 0.8734(3) 0.13047(15) 0.4450(2)
O2 O 1.0505(3) 0.12776(15) 0.5331(2)
O3 O 0.9484(3) 0.25253(16) 0.2940(2)
O4 O 1.1219(3) 0.25456(16) 0.3878(2)
O5 O 0.9462(3) 0.12526(15) 0.3004(2)
O6 O 1.1222(3) 0.12759(16) 0.3896(2)
O7 O 0.8783(3) 0.25985(16) 0.4388(2)
O8 O 1.0517(3) 0.25668(16) 0.5322(2)
O9 O 0.8225(3) 0.05075(17) 0.5503(2)
O10 O 1.1857(4) 0.31966(19) 0.2811(3)
O11 O 0.9924(3) 0.0435(2) 0.2034(3)
O12 O 0.8297(4) 0.35072(19) 0.5275(3)
N1 N 0.7326(3) 0.20012(19) 0.2764(3)
N2 N 1.2676(3) 0.19391(19) 0.5518(3)
C1 C 0.6503(4) 0.2179(3) 0.2348(3)
C2 C 1.3545(4) 0.2076(3) 0.5917(3)
C3 C 0.9517(4) 0.1134(2) 0.5098(3)
C4 C 0.9307(5) 0.0696(3) 0.5714(4)
H1 H 0.97570 0.03420 0.57610
H2 H 0.95490 0.08840 0.62720
C5 C 0.7920(5) 0.0046(3) 0.4886(4)
H3 H 0.84860 -0.02590 0.50250
H4 H 0.78130 0.02090 0.43280
C6 C 0.6887(5) -0.0220(3) 0.4888(4)
H5 H 0.70080 -0.03870 0.54390
H6 H 0.66460 -0.05310 0.44650
H7 H 0.63390 0.00880 0.47610
C7 C 1.0469(5) 0.2687(2) 0.3188(3)
C8 C 1.0744(5) 0.3091(3) 0.2582(4)
H8 H 1.04630 0.29120 0.20190
H9 H 1.03770 0.34740 0.25490
C9 C 1.2465(7) 0.2701(4) 0.2662(5)
H10 H 1.22860 0.26510 0.20550
H11 H 1.22810 0.23320 0.28840
C10 C 1.3649(7) 0.2831(4) 0.3094(6)
H12 H 1.37970 0.32340 0.29630
H13 H 1.40620 0.25520 0.28990
H14 H 1.38530 0.27900 0.36980
C11 C 1.0441(4) 0.1098(2) 0.3242(3)
C12 C 1.0787(4) 0.0656(3) 0.2717(4)
H15 H 1.12970 0.08520 0.25090
H16 H 1.11630 0.03230 0.30760
C13 C 1.0238(6) 0.0048(4) 0.1510(5)
H17 H 1.06340 -0.02920 0.18440
H18 H 1.07240 0.02610 0.12950
C14 C 0.9317(8) -0.0168(5) 0.0809(6)
H19 H 0.88950 -0.04330 0.10160
H20 H 0.95630 -0.03840 0.04220
H21 H 0.88740 0.01660 0.05190
C15 C 0.9555(5) 0.2770(2) 0.5041(3)
C16 C 0.9367(6) 0.3276(3) 0.5569(4)
H22 H 0.95480 0.31320 0.61470
H23 H 0.98640 0.36020 0.55890
C17 C 0.7582(7) 0.3184(4) 0.5559(6)
H24 H 0.78330 0.32010 0.61760
H25 H 0.75560 0.27650 0.53900
C18 C 0.6465(7) 0.3461(5) 0.5170(6)
H26 H 0.64750 0.38570 0.54020
H27 H 0.59460 0.32150 0.52960
H28 H 0.62620 0.34890 0.45640
P1 P 0.45642(11) 0.03318(6) 0.23477(8)
C19 C 0.3759(4) -0.0290(2) 0.2450(3)
C20 C 0.3148(5) -0.0626(3) 0.1737(4)
H29 H 0.31100 -0.05070 0.12000
C21 C 0.2606(5) -0.1130(3) 0.1820(5)
H30 H 0.22230 -0.13580 0.13410
C22 C 0.2618(5) -0.1304(3) 0.2600(4)
H31 H 0.22330 -0.16440 0.26480
C23 C 0.3192(5) -0.0979(3) 0.3301(4)
H32 H 0.31930 -0.10930 0.38300
C24 C 0.3777(5) -0.0477(3) 0.3234(4)
H33 H 0.41850 -0.02630 0.37220
C25 C 0.4779(4) 0.0852(2) 0.3199(3)
C26 C 0.3929(5) 0.1006(3) 0.3467(4)
H34 H 0.32460 0.08310 0.31990
C27 C 0.4075(6) 0.1403(3) 0.4107(4)
H35 H 0.34990 0.15010 0.42750
C28 C 0.5078(6) 0.1660(3) 0.4503(4)
H36 H 0.51830 0.19240 0.49530
C29 C 0.5935(5) 0.1537(3) 0.4252(4)
H37 H 0.66080 0.17230 0.45160
C30 C 0.5771(4) 0.1130(2) 0.3597(3)
H38 H 0.63450 0.10410 0.34220
C31 C 0.5860(4) 0.0063(2) 0.2382(3)
C32 C 0.6514(4) 0.0453(3) 0.2126(3)
H39 H 0.62540 0.08290 0.18970
C33 C 0.7553(5) 0.0271(3) 0.2222(4)
H40 H 0.79960 0.05230 0.20510
C34 C 0.7926(5) -0.0274(3) 0.2564(4)
H41 H 0.86240 -0.03940 0.26180
C35 C 0.7300(5) -0.0653(3) 0.2832(4)
H42 H 0.75780 -0.10220 0.30760
C36 C 0.6258(4) -0.0485(2) 0.2737(3)
H43 H 0.58250 -0.07410 0.29130
C37 C 0.3902(4) 0.0694(2) 0.1343(3)
C38 C 0.3197(5) 0.1176(3) 0.1269(4)
H44 H 0.30740 0.13160 0.17430
C39 C 0.2685(6) 0.1445(3) 0.0486(5)
H45 H 0.22070 0.17640 0.04330
C40 C 0.2871(6) 0.1247(4) -0.0210(5)
H46 H 0.25290 0.14370 -0.07320
C41 C 0.3546(6) 0.0778(4) -0.0153(4)
H47 H 0.36610 0.06440 -0.06340
C42 C 0.4070(5) 0.0496(3) 0.0625(4)
H48 H 0.45340 0.01720 0.06640
Ag1C Ag 1.50328(3) 0.24379(2) 0.66308(3)
C2C C 0.3545(4) 0.2924(3) 0.0917(3)
#END
