
#######################################################################
#
#                 Cambridge Crystallographic Data Centre
#                                CCDC
#
#######################################################################
#
# If this CIF has been generated from an entry in the Cambridge
# Structural Database, then it will include bibliographic, chemical,
# crystal, experimental, refinement or atomic coordinate data resulting
# from the CCDC's data processing and validation procedures.
#
#######################################################################

data_CSD_CIF_NIWPIU
_audit_creation_date 2014-02-07
_audit_creation_method CSD-ConQuest-V1
_database_code_CSD NIWPIU
_database_code_depnum_ccdc_archive 'CCDC 949604'
_chemical_formula_sum 'C3 H7 Mg1 N1 O6'
_chemical_formula_moiety
;
(H4 N1 1+)n,n(C3 H3 Mg1 O6 1-)
;
_journal_coden_Cambridge 9
_journal_volume 53
_journal_year 2014
_journal_page_first 787
_journal_name_full 'Inorg.Chem. '
loop_
_publ_author_name
"M.Maczka"
"A.Pietraszko"
"B.Macalik"
"K.Hermanowicz"
_chemical_name_systematic
;
catena-[Ammonium tris(\m~2~-formato)-magnesium(ii)]
;
_cell_volume    377.776
_exptl_crystal_colour 'colorless'
_exptl_crystal_density_diffrn 1.56
_exptl_crystal_description 'plate'
_diffrn_ambient_temperature 295
#These two values have been output from a single CSD field.
_refine_ls_R_factor_gt 0.0379
_refine_ls_wR_factor_gt 0.0379
_symmetry_cell_setting hexagonal
_symmetry_space_group_name_H-M 'P 63 2 2'
_symmetry_Int_Tables_number 182
loop_
_symmetry_equiv_pos_site_id
_symmetry_equiv_pos_as_xyz
1 x,y,z
2 x,x-y,1/2-z
3 -x+y,y,1/2-z
4 -y,-x,1/2-z
5 x-y,x,1/2+z
6 y,-x+y,1/2+z
7 -x,-y,1/2+z
8 -x,-x+y,-z
9 x-y,-y,-z
10 y,x,-z
11 -x+y,-x,z
12 -y,x-y,z
_cell_length_a 7.283(1)
_cell_length_b 7.283(1)
_cell_length_c 8.2240(16)
_cell_angle_alpha 90
_cell_angle_beta 90
_cell_angle_gamma 120
_cell_formula_units_Z 2
loop_
_atom_type_symbol
_atom_type_radius_bond
C 0.68
H 0.23
Mg 1.41
N 0.68
O 0.68
loop_
_atom_site_label
_atom_site_type_symbol
_atom_site_fract_x
_atom_site_fract_y
_atom_site_fract_z
Mg1 Mg 0.66670 0.33330 0.75000
O1 O 0.89048(8) 0.31001(9) 0.89430(6)
C1 C 1.00000 0.43983(18) 1.00000
H1 H 1.00000 0.587(3) 1.00000
N1 N 1.00000 0.00000 0.75000
H2? H 0.978(2) 0.0951(17) 0.8155(12)
O1G O 1.10952(8) 0.41953(9) 1.10570(6)
O1A O 0.89048(8) 0.58047(9) 0.60570(6)
C1A C 1.00000 0.56017(18) 0.50000
H1A H 1.00000 0.413(3) 0.50000
O1F O 1.10952(8) 0.68999(9) 0.39430(6)
O1B O 0.41953(8) 0.31001(9) 0.60570(6)
C1B C 0.43983 0.43983(18) 0.50000
H1B H 0.58700 0.587(3) 0.50000
O1E O 0.31001(8) 0.41953(9) 0.39430(6)
Mg1D Mg 0.33340 0.66670 0.25000
Mg1D* Mg 1.33340 0.66670 0.25000
Mg1D** Mg 1.33340 0.66670 1.25000
O1C O 0.68999(8) 0.10952(9) 0.60570(6)
O1J O 0.41953(8) 0.10952(9) 0.89430(6)
O1K O 0.68999(8) 0.58047(9) 0.89430(6)
#END
