
#######################################################################
#
#                 Cambridge Crystallographic Data Centre
#                                CCDC
#
#######################################################################
#
# If this CIF has been generated from an entry in the Cambridge
# Structural Database, then it will include bibliographic, chemical,
# crystal, experimental, refinement or atomic coordinate data resulting
# from the CCDC's data processing and validation procedures.
#
#######################################################################

data_CSD_CIF_NIWYID
_audit_creation_date 2014-02-07
_audit_creation_method CSD-ConQuest-V1
_database_code_CSD NIWYID
_database_code_depnum_ccdc_archive 'CCDC 985782'
_chemical_formula_sum 'C78 H86 N4 O36 Zn5'
_chemical_formula_moiety
;
(C54 H22 O36 Zn5 4-)n,4n(C6 H16 N1 1+)
;
_journal_coden_Cambridge 9
_journal_volume 53
_journal_year 2014
_journal_page_first 691
_journal_name_full 'Inorg.Chem. '
loop_
_publ_author_name
"Junkuo Gao"
"Kaiqi Ye"
"Ling Yang"
"Wei-Wei Xiong"
"Ling Ye"
"Yue Wang"
"Qichun Zhang"
_chemical_name_systematic
;
catena-[tetrakis(triethylammonium) 
tetrakis(\m-5-carboxybenzene-1,3-dicarboxylato)-bis(\m-benzene-1,3,5-tricarbox
ylato)-penta-zinc(ii)]
;
_chemical_name_common
;
NTU-Z9
;
_cell_volume   4174.316
_exptl_crystal_colour 'colorless'
_exptl_crystal_description 'block'
_diffrn_ambient_temperature 293
#These two values have been output from a single CSD field.
_refine_ls_R_factor_gt 0.047
_refine_ls_wR_factor_gt 0.047
_symmetry_cell_setting monoclinic
_symmetry_space_group_name_H-M 'P 21/c'
_symmetry_Int_Tables_number 14
loop_
_symmetry_equiv_pos_site_id
_symmetry_equiv_pos_as_xyz
1 x,y,z
2 -x,1/2+y,1/2-z
3 -x,-y,-z
4 x,-1/2-y,-1/2+z
_cell_length_a 13.871(3)
_cell_length_b 19.994(4)
_cell_length_c 15.102(3)
_cell_angle_alpha 90
_cell_angle_beta 94.69(3)
_cell_angle_gamma 90
_cell_formula_units_Z 2
loop_
_atom_type_symbol
_atom_type_radius_bond
C 0.68
H 0.23
N 0.68
O 0.68
Zn 1.22
loop_
_atom_site_label
_atom_site_type_symbol
_atom_site_fract_x
_atom_site_fract_y
_atom_site_fract_z
Zn1 Zn 0.00000 0.00000 0.00000
Zn2 Zn -0.06754(3) 0.159901(19) -0.05534(3)
Zn3 Zn 0.44623(3) 0.437357(19) 0.07008(3)
O1 O 0.41624(18) 0.44121(12) -0.06139(17)
O2 O 0.1097(2) 0.65565(12) 0.43626(18)
O3 O 0.10706(18) 0.06699(11) 0.03493(18)
O4 O 0.07863(18) 0.75248(12) 0.11750(18)
O5 O 0.41777(19) 0.54710(12) -0.11041(18)
O6 O 0.07477(19) 0.16754(12) -0.02770(19)
O7 O 0.43214(19) 0.34163(12) 0.09345(18)
O8 O 0.3612(2) 0.51038(13) 0.09846(18)
O9 O 0.2229(2) 0.74490(13) 0.06342(18)
O10 O 0.4504(2) 0.03083(14) 0.1729(2)
O11 O 0.27390(19) 0.36094(12) 0.07398(19)
O12 O 0.3923(2) 0.47662(12) 0.23868(19)
O13 O 0.1004(2) 0.54398(13) 0.42190(19)
C1 C 0.2229(3) 0.15316(17) 0.0577(2)
O14 O 0.0689(2) 0.31414(15) -0.2682(2)
C2 C 0.2350(3) 0.55832(17) 0.2867(2)
C3 C 0.3444(3) 0.32278(17) 0.0856(2)
C4 C 0.1624(3) 0.72463(17) 0.1130(2)
O15 O 0.0502(2) 0.56076(13) -0.38519(18)
C5 C 0.1226(3) 0.60133(17) 0.3966(2)
O16 O 0.0760(3) 0.32669(17) -0.1204(2)
C6 C 0.0949(3) 0.34526(19) -0.2017(3)
O17 O 0.1827(2) 0.61827(14) -0.3534(2)
C7 C 0.2857(3) 0.47886(17) -0.1596(2)
C8 C 0.2336(3) 0.42028(18) -0.1489(3)
C9 C 0.3497(3) 0.51337(16) 0.1812(2)
C10 C 0.1490(3) 0.40935(18) -0.2040(3)
C11 C 0.1462(3) 0.66130(17) 0.2545(2)
C12 C 0.3803(3) 0.49014(17) -0.1055(2)
C13 C 0.2520(3) 0.52671(17) -0.2226(2)
C14 C 0.3805(3) 0.13727(18) 0.1348(3)
C15 C 0.2406(3) 0.22139(17) 0.0545(3)
C16 C 0.3269(3) 0.24812(17) 0.0908(2)
C17 C 0.1673(3) 0.51572(17) -0.2748(2)
C18 C 0.1269(2) 0.12658(17) 0.0185(2)
C19 C 0.4604(3) 0.09646(18) 0.1819(3)
O18 O 0.5282(3) 0.12237(16) 0.2229(3)
C20 C 0.1155(3) 0.45664(18) -0.2672(3)
C21 C 0.2939(3) 0.11041(18) 0.0986(3)
C22 C 0.2769(3) 0.56467(16) 0.2064(2)
C23 C 0.2517(3) 0.61741(17) 0.1486(3)
C24 C 0.1861(3) 0.66606(17) 0.1729(2)
C25 C 0.1689(3) 0.60692(16) 0.3106(2)
C26 C 0.3971(3) 0.20610(17) 0.1310(3)
C27 C 0.1326(3) 0.56755(18) -0.3423(2)
H1 H 0.289(3) 0.570(2) -0.225(3)
H2 H 0.258(3) 0.386(2) -0.107(3)
H3 H 0.454(3) 0.2284(19) 0.157(3)
H4 H 0.061(4) 0.447(2) -0.306(3)
H5 H 0.282(4) 0.066(2) 0.097(3)
H6 H 0.190(4) 0.251(2) 0.027(3)
H7 H 0.502(4) 0.011(3) 0.200(4)
H8 H 0.031(6) 0.292(4) -0.112(6)
N1 N 0.1014(3) 0.13199(18) 0.6547(3)
C28 C 0.0250(3) 0.1724(2) 0.6020(3)
H9 H 0.02590 0.16070 0.53970
H10 H 0.04170 0.21940 0.60790
C29 C 0.0849(4) 0.0559(3) 0.6442(5)
H11 H 0.12610 0.03260 0.68910
H12 H 0.01820 0.04570 0.65410
C30 C 0.1059(5) 0.0308(3) 0.5539(6)
H13 H 0.09470 -0.01650 0.55070
H14 H 0.17210 0.04000 0.54420
H15 H 0.06420 0.05300 0.50920
C31 C 0.2137(5) 0.1506(4) 0.7894(4)
H16 H 0.21640 0.16400 0.85060
H17 H 0.25220 0.18060 0.75730
H18 H 0.23840 0.10590 0.78550
C32 C -0.0768(4) 0.1628(3) 0.6293(4)
H19 H -0.12080 0.18990 0.59240
H20 H -0.07930 0.17590 0.69030
H21 H -0.09490 0.11660 0.62260
C33 C 0.1118(5) 0.1527(3) 0.7506(4)
H22 H 0.08710 0.19780 0.75570
H23 H 0.07300 0.12330 0.78430
N2 N 0.5940(3) 0.2036(2) 0.8893(3)
C34 C 0.6341(6) 0.1070(6) 0.9887(7)
H24 H 0.60990 0.08080 1.03530
H25 H 0.69460 0.12700 1.00960
H26 H 0.64340 0.07870 0.93870
C35 C 0.6375(4) 0.2060(3) 0.7321(4)
H27 H 0.62640 0.18380 0.67580
H28 H 0.70520 0.20450 0.75120
H29 H 0.61700 0.25180 0.72610
C36 C 0.5810(4) 0.1716(2) 0.7996(4)
H30 H 0.51290 0.17210 0.77900
H31 H 0.60140 0.12520 0.80450
C37 C 0.4347(4) 0.2675(3) 0.8768(4)
H32 H 0.40890 0.31190 0.87970
H33 H 0.40880 0.24010 0.92140
H34 H 0.41720 0.24880 0.81920
C38 C 0.5432(4) 0.2700(3) 0.8927(4)
H35 H 0.55970 0.28990 0.95060
H36 H 0.56790 0.29930 0.84860
C39 C 0.5658(5) 0.1584(4) 0.9623(6)
H37 H 0.55570 0.18570 1.01390
H38 H 0.50450 0.13750 0.94320
Zn2B Zn 0.06754(3) -0.159901(19) 0.05534(3)
Zn3B Zn -0.44623(3) -0.437357(19) -0.07008(3)
O1B O -0.41624(18) -0.44121(12) 0.06139(17)
O2B O -0.1097(2) -0.65565(12) -0.43626(18)
O3B O -0.10706(18) -0.06699(11) -0.03493(18)
O4B O -0.07863(18) -0.75248(12) -0.11750(18)
O5B O -0.41777(19) -0.54710(12) 0.11041(18)
O6B O -0.07477(19) -0.16754(12) 0.02770(19)
O7B O -0.43214(19) -0.34163(12) -0.09345(18)
O8B O -0.3612(2) -0.51038(13) -0.09846(18)
O9B O -0.2229(2) -0.74490(13) -0.06342(18)
O10B O -0.4504(2) -0.03083(14) -0.1729(2)
O11B O -0.27390(19) -0.36094(12) -0.07398(19)
O12B O -0.3923(2) -0.47662(12) -0.23868(19)
O13B O -0.1004(2) -0.54398(13) -0.42190(19)
C1B C -0.2229(3) -0.15316(17) -0.0577(2)
O14B O -0.0689(2) -0.31414(15) 0.2682(2)
C2B C -0.2350(3) -0.55832(17) -0.2867(2)
C3B C -0.3444(3) -0.32278(17) -0.0856(2)
C4B C -0.1624(3) -0.72463(17) -0.1130(2)
O15B O -0.0502(2) -0.56076(13) 0.38519(18)
C5B C -0.1226(3) -0.60133(17) -0.3966(2)
O16B O -0.0760(3) -0.32669(17) 0.1204(2)
C6B C -0.0949(3) -0.34526(19) 0.2017(3)
O17B O -0.1827(2) -0.61827(14) 0.3534(2)
C7B C -0.2857(3) -0.47886(17) 0.1596(2)
C8B C -0.2336(3) -0.42028(18) 0.1489(3)
C9B C -0.3497(3) -0.51337(16) -0.1812(2)
C10B C -0.1490(3) -0.40935(18) 0.2040(3)
C11B C -0.1462(3) -0.66130(17) -0.2545(2)
C12B C -0.3803(3) -0.49014(17) 0.1055(2)
C13B C -0.2520(3) -0.52671(17) 0.2226(2)
C14B C -0.3805(3) -0.13727(18) -0.1348(3)
C15B C -0.2406(3) -0.22139(17) -0.0545(3)
C16B C -0.3269(3) -0.24812(17) -0.0908(2)
C17B C -0.1673(3) -0.51572(17) 0.2748(2)
C18B C -0.1269(2) -0.12658(17) -0.0185(2)
C19B C -0.4604(3) -0.09646(18) -0.1819(3)
O18B O -0.5282(3) -0.12237(16) -0.2229(3)
C20B C -0.1155(3) -0.45664(18) 0.2672(3)
C21B C -0.2939(3) -0.11041(18) -0.0986(3)
C22B C -0.2769(3) -0.56467(16) -0.2064(2)
C23B C -0.2517(3) -0.61741(17) -0.1486(3)
C24B C -0.1861(3) -0.66606(17) -0.1729(2)
C25B C -0.1689(3) -0.60692(16) -0.3106(2)
C26B C -0.3971(3) -0.20610(17) -0.1310(3)
C27B C -0.1326(3) -0.56755(18) 0.3423(2)
H1B H -0.289(3) -0.570(2) 0.225(3)
H2B H -0.258(3) -0.386(2) 0.107(3)
H3B H -0.454(3) -0.2284(19) -0.157(3)
H4B H -0.061(4) -0.447(2) 0.306(3)
H5B H -0.282(4) -0.066(2) -0.097(3)
H6B H -0.190(4) -0.251(2) -0.027(3)
H7B H -0.502(4) -0.011(3) -0.200(4)
H8B H -0.031(6) -0.292(4) 0.112(6)
Zn1A Zn 0.00000 -0.50000 -0.50000
Zn1A* Zn 0.00000 -0.50000 0.50000
Zn1A** Zn 0.00000 0.50000 -0.50000
Zn1A*** Zn 0.00000 0.50000 0.50000
Zn2* Zn -0.06754(3) -0.840099(19) -0.05534(3)
Zn2A Zn 0.06754(3) 0.659901(19) -0.44466(3)
Zn2A* Zn 0.06754(3) 0.659901(19) 0.55534(3)
Zn2B* Zn 0.06754(3) 0.840099(19) 0.05534(3)
Zn2C Zn -0.06754(3) -0.659901(19) -0.55534(3)
Zn2C* Zn -0.06754(3) -0.659901(19) 0.44466(3)
Zn3* Zn -0.55377(3) -0.562643(19) 0.07008(3)
Zn3B* Zn 0.55377(3) 0.562643(19) -0.07008(3)
O2A O -0.1097(2) 0.15565(12) 0.06374(18)
O2C O 0.1097(2) -0.15565(12) -0.06374(18)
O4* O 0.07863(18) -0.24752(12) 0.11750(18)
O4B* O -0.07863(18) 0.24752(12) -0.11750(18)
O5* O -0.58223(19) -0.45290(12) -0.11041(18)
O5B* O 0.58223(19) 0.45290(12) 0.11041(18)
O13A O -0.1004(2) 0.04398(13) 0.07810(19)
O13C O 0.1004(2) -0.04398(13) -0.07810(19)
O15A O -0.0502(2) 0.06076(13) -0.11481(18)
O15C O 0.0502(2) -0.06076(13) 0.11481(18)
O17A O -0.1827(2) 0.11827(14) -0.1466(2)
O17C O 0.1827(2) -0.11827(14) 0.1466(2)
#END
