
#######################################################################
#
#                 Cambridge Crystallographic Data Centre
#                                CCDC
#
#######################################################################
#
# If this CIF has been generated from an entry in the Cambridge
# Structural Database, then it will include bibliographic, chemical,
# crystal, experimental, refinement or atomic coordinate data resulting
# from the CCDC's data processing and validation procedures.
#
#######################################################################

data_CSD_CIF_NIWZIE03
_audit_creation_date 2013-12-17
_audit_creation_method CSD-ConQuest-V1
_database_code_CSD NIWZIE03
_database_code_depnum_ccdc_archive 'CCDC 958239'
_chemical_formula_sum 'C3 H7 Mg1 N1 O6'
_chemical_formula_moiety
;
(C3 H3 Mg1 O6 1-)n,n(H4 N1 1+)
;
_journal_coden_Cambridge 1220
_journal_volume 20
_journal_year 2014
_journal_page_first 1146
_journal_name_full 'Chem.-Eur.J. '
loop_
_publ_author_name
"Ran Shang"
"Guan-Cheng Xu"
"Zhe-Ming Wang"
"Song Gao"
_chemical_name_systematic
;
catena-(Ammonium tris(\m~2~-formato)-magnesium)
;
_cell_volume   1116.009
_exptl_crystal_colour 'colorless'
_exptl_crystal_density_diffrn 1.584
_exptl_special_details
;
Moisture-sensitive

;
_exptl_crystal_description 'hexagonal block'
_diffrn_ambient_temperature 93
#These two values have been output from a single CSD field.
_refine_ls_R_factor_gt 0.0376
_refine_ls_wR_factor_gt 0.0376
_symmetry_cell_setting hexagonal
_symmetry_space_group_name_H-M 'P 63'
_symmetry_Int_Tables_number 173
loop_
_symmetry_equiv_pos_site_id
_symmetry_equiv_pos_as_xyz
1 x,y,z
2 -y,x-y,z
3 -x+y,-x,z
4 -x,-y,1/2+z
5 y,-x+y,1/2+z
6 x-y,x,1/2+z
_cell_length_a 12.4851(2)
_cell_length_b 12.4851(2)
_cell_length_c 8.2671(1)
_cell_angle_alpha 90
_cell_angle_beta 90
_cell_angle_gamma 120
_cell_formula_units_Z 6
loop_
_atom_type_symbol
_atom_type_radius_bond
C 0.68
H 0.23
Mg 1.41
N 0.68
O 0.68
loop_
_atom_site_label
_atom_site_type_symbol
_atom_site_fract_x
_atom_site_fract_y
_atom_site_fract_z
Mg1 Mg 0.33591(5) 0.33076(5) 0.58638(12)
O1 O 0.42151(12) 0.26009(12) 0.44254(15)
O2 O 0.42679(12) 0.15347(12) 0.22922(16)
O3 O 0.39948(12) 0.48618(11) 0.43805(15)
O4 O 0.50435(11) 0.59979(12) 0.22526(14)
O5 O 0.17461(11) 0.23588(11) 0.45104(14)
O6 O 0.07209(12) 0.24861(12) 0.23765(15)
C1 C 0.37308(18) 0.1880(2) 0.3245(3)
H1 H 0.28740 0.15700 0.30650
C2 C 0.47026(17) 0.51063(17) 0.3185(3)
H2 H 0.50050 0.45570 0.29760
C3 C 0.13720(17) 0.29278(15) 0.3619(3)
H3 H 0.16010 0.37510 0.39120
N1 N 0.66670 0.33330 0.5360(4)
H4 H 0.5886(8) 0.309(2) 0.5005(13)
H5 H 0.66670 0.33330 0.6462(7)
N2 N 0.33330 0.66670 0.5323(4)
H6 H 0.355(2) 0.6108(18) 0.4965(13)
H7 H 0.33330 0.66670 0.6427(7)
N3 N 0.00000 0.00000 0.1422(4)
H8 H 0.024(2) 0.0782(8) 0.1772(13)
H9 H 0.00000 0.00000 0.0318(7)
Mg1C Mg 0.66409(5) 0.66924(5) 0.08638(12)
Mg1D Mg 0.33076(5) -0.00515(5) 0.08638(12)
Mg1E Mg 0.00515(5) 0.33591(5) 0.08638(12)
O2E O 0.27332(12) 0.42679(12) 0.72922(16)
O4C O 0.49565(11) 0.40021(12) 0.72526(14)
O6D O 0.24861(12) 0.17652(12) 0.73765(15)
H4A H 0.6910(8) 0.2796(20) 0.5005(13)
H4B H 0.7204(8) 0.4114(20) 0.5005(13)
H6A H 0.3892(20) 0.7442(18) 0.4965(13)
H6B H 0.2558(20) 0.6450(18) 0.4965(13)
H8A H -0.0782(20) -0.0542(8) 0.1772(13)
H8B H 0.0542(20) -0.0240(8) 0.1772(13)
#END
