
#######################################################################
#
#                 Cambridge Crystallographic Data Centre
#                                CCDC
#
#######################################################################
#
# If this CIF has been generated from an entry in the Cambridge
# Structural Database, then it will include bibliographic, chemical,
# crystal, experimental, refinement or atomic coordinate data resulting
# from the CCDC's data processing and validation procedures.
#
#######################################################################

data_CSD_CIF_NIWZIE
_audit_creation_date 2014-02-07
_audit_creation_method CSD-ConQuest-V1
_database_code_CSD NIWZIE
_database_code_depnum_ccdc_archive 'CCDC 949534'
_chemical_formula_sum 'C3 H7 Mg1 N1 O6'
_chemical_formula_moiety
;
(H4 N1 1+)n,n(C3 H3 Mg1 O6 1-)
;
_journal_coden_Cambridge 9
_journal_volume 53
_journal_year 2014
_journal_page_first 787
_journal_name_full 'Inorg.Chem. '
loop_
_publ_author_name
"M.Maczka"
"A.Pietraszko"
"B.Macalik"
"K.Hermanowicz"
_chemical_name_systematic
;
catena-[Ammonium tris(\m~2~-formato)-magnesium]
;
_cell_volume   1117.259
_exptl_crystal_density_diffrn 1.582
_exptl_special_details
;
Phase transition at 255 K

;
_exptl_crystal_description 'plate'
_diffrn_ambient_temperature 120
#These two values have been output from a single CSD field.
_refine_ls_R_factor_gt 0.0371
_refine_ls_wR_factor_gt 0.0371
_symmetry_cell_setting hexagonal
_symmetry_space_group_name_H-M 'P 63'
_symmetry_Int_Tables_number 173
loop_
_symmetry_equiv_pos_site_id
_symmetry_equiv_pos_as_xyz
1 x,y,z
2 -y,x-y,z
3 -x+y,-x,z
4 -x,-y,1/2+z
5 y,-x+y,1/2+z
6 x-y,x,1/2+z
_cell_length_a 12.4967(18)
_cell_length_b 12.4967(18)
_cell_length_c 8.2610(16)
_cell_angle_alpha 90
_cell_angle_beta 90
_cell_angle_gamma 120
_cell_formula_units_Z 6
loop_
_atom_type_symbol
_atom_type_radius_bond
C 0.68
H 0.23
Mg 1.41
N 0.68
O 0.68
loop_
_atom_site_label
_atom_site_type_symbol
_atom_site_fract_x
_atom_site_fract_y
_atom_site_fract_z
Mg1 Mg -0.00484(2) 0.33088(2) 0.43448(4)
O1 O 0.08718(4) 0.48642(4) 0.28585(5)
O2 O 0.09485(4) 0.59947(4) 0.07353(5)
O3 O -0.07237(4) 0.17640(4) 0.58582(6)
O4 O 0.15362(4) 0.42644(4) 0.57734(6)
O5 O -0.17497(6) 0.06112(4) 0.79832(6)
O6 O 0.26052(4) 0.42172(6) 0.79061(6)
C1 C -0.13694(6) 0.15606(6) 0.71127(8)
C2 C 0.18676(7) 0.37321(7) 0.67507(9)
C3 C 0.04062(6) 0.51109(6) 0.16767(9)
H1 H -0.0442(7) 0.4634(8) 0.1639(11)
H2 H 0.1587(8) 0.2825(8) 0.6637(12)
H3 H -0.1770(8) 0.2067(8) 0.7247(11)
N1 N 0.33330 0.66670 0.38350(15)
H4 H 0.33330 0.66670 0.4999(9)
H5 H 0.3883(5) 0.6437(6) 0.3485(11)
N2 N -0.33330 0.33330 0.38710(15)
H6 H -0.33330 0.33330 0.5003(9)
H7 H -0.3068(9) 0.4118(6) 0.3616(12)
N3 N 0.00000 0.00000 0.49331(12)
H8 H 0.00000 0.00000 0.3784(11)
H9 H -0.0513(11) -0.0831(6) 0.5034(14)
Mg1C Mg 0.00484(2) 0.66912(2) -0.06552(4)
Mg1D Mg 0.33088(2) 0.33572(2) 0.93448(4)
Mg1E Mg -0.33572(2) -0.00484(2) 0.93448(4)
O2C O -0.09485(4) 0.40053(4) 0.57353(5)
O5D O 0.06112(6) 0.23609(4) 0.29832(6)
O6E O -0.16120(4) 0.26052(6) 0.29061(6)
H5A H 0.3563(5) 0.7446(6) 0.3485(11)
H5B H 0.2554(5) 0.6117(6) 0.3485(11)
H7A H -0.4118(9) 0.2814(6) 0.3616(12)
H7B H -0.2814(9) 0.3068(6) 0.3616(12)
H9A H 0.0831(11) 0.0318(6) 0.5034(14)
H9B H -0.0318(11) 0.0513(6) 0.5034(14)
#END
