
#######################################################################
#
#                 Cambridge Crystallographic Data Centre
#                                CCDC
#
#######################################################################
#
# If this CIF has been generated from an entry in the Cambridge
# Structural Database, then it will include bibliographic, chemical,
# crystal, experimental, refinement or atomic coordinate data resulting
# from the CCDC's data processing and validation procedures.
#
#######################################################################

data_CSD_CIF_NIWZIE10
_audit_creation_date 2017-02-10
_audit_creation_method CSD-ConQuest-V1
_database_code_CSD NIWZIE10
_database_code_depnum_ccdc_archive 'CCDC 958246'
_chemical_formula_sum 'C3 H7 Mg1 N1 O6'
_chemical_formula_moiety
;
H4 N1 1+,n(C3 H3 Mg1 O6 1-)
;
_journal_coden_Cambridge 1220
_journal_volume 20
_journal_year 2014
_journal_page_first 1146
_journal_name_full 'Chem.-Eur.J. '
loop_
_publ_author_name
"Ran Shang"
"Guan-Cheng Xu"
"Zhe-Ming Wang"
"Song Gao"
_chemical_name_systematic
;
catena-[ammonium tris(\m-formato)-magnesium(ii)]
;
_cell_volume   1124.933
_exptl_crystal_colour 'colorless'
_exptl_crystal_density_diffrn 1.571
_exptl_crystal_description 'hexagonal block'
_diffrn_ambient_temperature 254
_refine_special_details
;
N11 and N12 disordered over two sites with occupancies 0.50:0.50; N21 and N22 
disordered over two sites with occupancies 0.50:0.50; N31 and N32 disordered 
over two sites with occupancies 0.50:0.50.
;
#These two values have been output from a single CSD field.
_refine_ls_R_factor_gt 0.0289
_refine_ls_wR_factor_gt 0.0289
_symmetry_cell_setting hexagonal
_symmetry_space_group_name_H-M 'P 63'
_symmetry_Int_Tables_number 173
loop_
_symmetry_equiv_pos_site_id
_symmetry_equiv_pos_as_xyz
1 x,y,z
2 -y,x-y,z
3 -x+y,-x,z
4 -x,-y,1/2+z
5 y,-x+y,1/2+z
6 x-y,x,1/2+z
_cell_length_a 12.5720(3)
_cell_length_b 12.5720(3)
_cell_length_c 8.2184(2)
_cell_angle_alpha 90
_cell_angle_beta 90
_cell_angle_gamma 120
_cell_formula_units_Z 6
loop_
_atom_type_symbol
_atom_type_radius_bond
C 0.68
H 0.23
Mg 1.41
N 0.68
O 0.68
loop_
_atom_site_label
_atom_site_type_symbol
_atom_site_fract_x
_atom_site_fract_y
_atom_site_fract_z
Mg1 Mg 0.33402(5) 0.33274(5) 0.58666(11)
O1 O 0.42331(12) 0.26519(12) 0.44191(15)
O2 O 0.42395(11) 0.15618(11) 0.22978(14)
O3 O 0.40022(12) 0.48946(11) 0.44121(15)
O4 O 0.50832(11) 0.59961(12) 0.22919(14)
O5 O 0.17599(11) 0.24136(12) 0.44338(13)
O6 O 0.06814(11) 0.24438(11) 0.23118(13)
C1 C 0.37318(18) 0.18678(19) 0.3347(3)
H1 H 0.28780 0.14600 0.33210
C2 C 0.47762(19) 0.51740(19) 0.3321(3)
H2 H 0.51710 0.47160 0.32680
C3 C 0.14461(18) 0.29339(18) 0.3419(3)
H3 H 0.18250 0.37840 0.34960
N1 N 0.66670 0.33330 0.6219(8)
H4 H 0.595(2) 0.324(5) 0.5888(15)
H5 H 0.66670 0.33330 0.7309(10)
N2? N 0.66670 0.33330 0.535(1)
H6? H 0.5923(14) 0.313(5) 0.4986(16)
H7? H 0.66670 0.33330 0.6433(12)
N3 N 0.33330 0.66670 0.6231(8)
H8 H 0.351(5) 0.609(3) 0.5899(15)
H9 H 0.33330 0.66670 0.732(1)
N4? N 0.33330 0.66670 0.5347(10)
H10? H 0.352(5) 0.611(3) 0.4989(16)
H11? H 0.33330 0.66670 0.6431(12)
N5 N 0.00000 0.00000 0.1379(10)
H12 H 0.031(4) 0.0759(9) 0.1753(17)
H13 H 0.00000 0.00000 0.0299(12)
N6? N 0.00000 0.00000 0.0812(11)
H14? H -0.010(5) 0.063(3) 0.1122(16)
H15? H 0.00000 0.00000 -0.0282(12)
Mg1C Mg 0.66598(5) 0.66726(5) 0.08666(11)
Mg1D Mg 0.33274(5) -0.00128(5) 0.08666(11)
Mg1E Mg 0.00128(5) 0.33402(5) 0.08666(11)
O2E O 0.26777(11) 0.42395(11) 0.72978(14)
O4C O 0.49168(11) 0.40039(12) 0.72919(14)
O6D O 0.24438(11) 0.17624(11) 0.73118(13)
H4A H 0.676(2) 0.271(5) 0.5888(15)
H4B H 0.729(2) 0.405(5) 0.5888(15)
H8A H 0.391(5) 0.742(3) 0.5899(15)
H8B H 0.258(5) 0.649(3) 0.5899(15)
H12A H -0.0759(40) -0.0449(9) 0.1753(17)
H12B H 0.0449(40) -0.0310(9) 0.1753(17)
#END
