
#######################################################################
#
#                 Cambridge Crystallographic Data Centre
#                                CCDC
#
#######################################################################
#
# If this CIF has been generated from an entry in the Cambridge
# Structural Database, then it will include bibliographic, chemical,
# crystal, experimental, refinement or atomic coordinate data resulting
# from the CCDC's data processing and validation procedures.
#
#######################################################################

data_CSD_CIF_NIWZIE17
_audit_creation_date 2017-02-10
_audit_creation_method CSD-ConQuest-V1
_database_code_CSD NIWZIE17
_database_code_depnum_ccdc_archive 'CCDC 958253'
_chemical_formula_sum 'C3 H7 Mg1 N1 O6'
_chemical_formula_moiety
;
H4 N1 1+,n(C3 H3 Mg1 O6 1-)
;
_journal_coden_Cambridge 1220
_journal_volume 20
_journal_year 2014
_journal_page_first 1146
_journal_name_full 'Chem.-Eur.J. '
loop_
_publ_author_name
"Ran Shang"
"Guan-Cheng Xu"
"Zhe-Ming Wang"
"Song Gao"
_chemical_name_systematic
;
catena-[ammonium tris(\m-formato)-magnesium(ii)]
;
_cell_volume    377.515
_exptl_crystal_colour 'colorless'
_exptl_crystal_density_diffrn 1.561
_exptl_crystal_description 'hexagonal block'
_diffrn_ambient_temperature 375
_refine_special_details
;
N1 disordered by symmetry over two configurations with occupancy 0.50.

;
#These two values have been output from a single CSD field.
_refine_ls_R_factor_gt 0.0249
_refine_ls_wR_factor_gt 0.0249
_symmetry_cell_setting hexagonal
_symmetry_space_group_name_H-M 'P 63 2 2'
_symmetry_Int_Tables_number 182
loop_
_symmetry_equiv_pos_site_id
_symmetry_equiv_pos_as_xyz
1 x,y,z
2 -y,x-y,z
3 -x+y,-x,z
4 -x,-y,1/2+z
5 y,-x+y,1/2+z
6 x-y,x,1/2+z
7 y,x,-z
8 x-y,-y,-z
9 -x,-x+y,-z
10 -y,-x,1/2-z
11 -x+y,y,1/2-z
12 x,x-y,1/2-z
_cell_length_a 7.2835(2)
_cell_length_b 7.2835(2)
_cell_length_c 8.2172(3)
_cell_angle_alpha 90
_cell_angle_beta 90
_cell_angle_gamma 120
_cell_formula_units_Z 2
loop_
_atom_type_symbol
_atom_type_radius_bond
C 0.68
H 0.23
Mg 1.41
N 0.68
O 0.68
loop_
_atom_site_label
_atom_site_type_symbol
_atom_site_fract_x
_atom_site_fract_y
_atom_site_fract_z
Mg1 Mg 0.66670 0.33330 0.75000
O1 O 0.89071(13) 0.31048(14) 0.89425(9)
C1 C 1.00000 0.4390(2) 1.00000
H1 H 1.00000 0.56670 1.00000
N1 N 1.00000 0.00000 0.7774(11)
H2 H 0.960(6) 0.091(5) 0.8125(16)
H3 H 1.00000 0.00000 0.6690(12)
O1H O 1.10929(13) 0.41977(14) 1.10575(9)
O1A O 0.68952(13) 0.58023(14) 0.89425(9)
C1A C 0.56100 0.5610(2) 1.00000
H1A H 0.43330 0.43330 1.00000
O1G O 0.58023(13) 0.68952(14) 1.10575(9)
O1B O 0.41977(13) 0.10929(14) 0.89425(9)
C1B C 0.43900 0.0000(2) 1.00000
H1B H 0.56670 0.00000 1.00000
O1F O 0.31048(13) -0.10929(14) 1.10575(9)
Mg1C Mg 0.33330 -0.33330 1.25000
Mg1C* Mg 0.33330 0.66670 1.25000
Mg1C** Mg 1.33330 0.66670 1.25000
O1I O 0.68952(13) 0.10929(14) 0.60575(9)
O1J O 0.41977(13) 0.31048(14) 0.60575(9)
O1K O 0.89071(13) 0.58023(14) 0.60575(9)
H2A H 0.909(6) -0.131(5) 0.8125(16)
H2B H 1.131(6) 0.040(5) 0.8125(16)
N1I N 1.00000 0.00000 0.7226(11)
H2I H 0.909(6) 0.040(5) 0.6875(16)
H3I H 1.00000 0.00000 0.8310(12)
H2J H 1.131(6) 0.091(5) 0.6875(16)
H2K H 0.960(6) -0.131(5) 0.6875(16)
#END
