
#######################################################################
#
#                 Cambridge Crystallographic Data Centre
#                                CCDC
#
#######################################################################
#
# If this CIF has been generated from an entry in the Cambridge
# Structural Database, then it will include bibliographic, chemical,
# crystal, experimental, refinement or atomic coordinate data resulting
# from the CCDC's data processing and validation procedures.
#
#######################################################################

data_CSD_CIF_NIWZIE19
_audit_creation_date 2017-02-10
_audit_creation_method CSD-ConQuest-V1
_database_code_CSD NIWZIE19
_database_code_depnum_ccdc_archive 'CCDC 901260'
_chemical_formula_sum 'C3 H7 Mg1 N1 O6'
_chemical_formula_moiety
;
(C3 H3 Mg1 O6 1-)n,H4 N1 1+
;
_journal_coden_Cambridge 1078
_journal_year 2016
_journal_name_full 'CSD Communication(Private Communication) '
loop_
_publ_author_name
"Ran Shang"
"Zhe-Ming Wang"
"Song Gao"
_chemical_name_systematic
;
catena-[ammonium tris(\m-formato)-magnesium]
;
_cell_volume   1120.622
_exptl_crystal_colour 'colorless'
_exptl_crystal_density_diffrn 1.577
_exptl_crystal_description 'hexagonal bipyramid'
_diffrn_ambient_temperature 110
#These two values have been output from a single CSD field.
_refine_ls_R_factor_gt 0.042
_refine_ls_wR_factor_gt 0.042
_symmetry_cell_setting hexagonal
_symmetry_space_group_name_H-M 'P 63'
_symmetry_Int_Tables_number 173
loop_
_symmetry_equiv_pos_site_id
_symmetry_equiv_pos_as_xyz
1 x,y,z
2 -y,x-y,z
3 -x+y,-x,z
4 -x,-y,1/2+z
5 y,-x+y,1/2+z
6 x-y,x,1/2+z
_cell_length_a 12.5108(3)
_cell_length_b 12.5108(3)
_cell_length_c 8.2672(3)
_cell_angle_alpha 90
_cell_angle_beta 90
_cell_angle_gamma 120
_cell_formula_units_Z 6
loop_
_atom_type_symbol
_atom_type_radius_bond
C 0.68
H 0.23
Mg 1.41
N 0.68
O 0.68
loop_
_atom_site_label
_atom_site_type_symbol
_atom_site_fract_x
_atom_site_fract_y
_atom_site_fract_z
Mg1 Mg 0.33565(7) 0.33100(7) 0.5865(2)
O1 O 0.42204(16) 0.26091(16) 0.4425(2)
O2 O 0.42668(16) 0.15393(16) 0.2289(2)
O3 O 0.39967(17) 0.48709(15) 0.43798(19)
O4 O 0.50470(15) 0.59988(16) 0.2252(2)
O5 O 0.17470(15) 0.23634(16) 0.4495(2)
O6 O 0.07170(16) 0.24822(16) 0.2367(2)
C1 C 0.3737(3) 0.1879(3) 0.3267(5)
H1 H 0.28750 0.15480 0.31160
C2 C 0.4706(3) 0.5115(3) 0.3195(5)
H2 H 0.50130 0.45700 0.29980
C3 C 0.1372(3) 0.2927(2) 0.3613(4)
H3 H 0.15980 0.37480 0.39080
N1 N 0.66670 0.33330 0.5396(7)
H4 H 0.5896(17) 0.310(3) 0.506(3)
H5 H 0.66670 0.33330 0.650(3)
N2 N 0.33330 0.66670 0.5348(7)
H6 H 0.355(3) 0.608(2) 0.506(3)
H7 H 0.33330 0.66670 0.650(3)
N3 N 0.00000 0.00000 0.1436(7)
H8 H 0.026(2) 0.0851(14) 0.165(3)
H9 H 0.00000 0.00000 0.030(3)
Mg1C Mg 0.66435(7) 0.66900(7) 0.0865(2)
Mg1D Mg 0.33100(7) -0.00465(7) 0.0865(2)
Mg1E Mg 0.00465(7) 0.33565(7) 0.0865(2)
O2E O 0.27275(16) 0.42668(16) 0.7289(2)
O4C O 0.49530(15) 0.40012(16) 0.7252(2)
O6D O 0.24822(16) 0.17652(16) 0.7367(2)
H4A H 0.6900(17) 0.2796(30) 0.506(3)
H4B H 0.7204(17) 0.4104(30) 0.506(3)
H6A H 0.392(3) 0.747(2) 0.506(3)
H6B H 0.253(3) 0.645(2) 0.506(3)
H8A H -0.0851(20) -0.0591(14) 0.165(3)
H8B H 0.0591(20) -0.0260(14) 0.165(3)
#END
