
#######################################################################
#
#                 Cambridge Crystallographic Data Centre
#                                CCDC
#
#######################################################################
#
# If this CIF has been generated from an entry in the Cambridge
# Structural Database, then it will include bibliographic, chemical,
# crystal, experimental, refinement or atomic coordinate data resulting
# from the CCDC's data processing and validation procedures.
#
#######################################################################

data_CSD_CIF_NIWZIE09
_audit_creation_date 2017-02-10
_audit_creation_method CSD-ConQuest-V1
_database_code_CSD NIWZIE09
_database_code_depnum_ccdc_archive 'CCDC 958245'
_chemical_formula_sum 'C3 H7 Mg1 N1 O6'
_chemical_formula_moiety
;
H4 N1 1+,n(C3 H3 Mg1 O6 1-)
;
_journal_coden_Cambridge 1220
_journal_volume 20
_journal_year 2014
_journal_page_first 1146
_journal_name_full 'Chem.-Eur.J. '
loop_
_publ_author_name
"Ran Shang"
"Guan-Cheng Xu"
"Zhe-Ming Wang"
"Song Gao"
_chemical_name_systematic
;
catena-[ammonium tris(\m-formato)-magnesium(ii)]
;
_cell_volume   1124.888
_exptl_crystal_colour 'colorless'
_exptl_crystal_density_diffrn 1.571
_exptl_crystal_description 'hexagonal block'
_diffrn_ambient_temperature 250
_refine_special_details
;
N11 and N12 disordered over two sites with occupancies 0.50:0.50; N21 and N22 
disordered over two sites with occupancies 0.50:0.50.
;
#These two values have been output from a single CSD field.
_refine_ls_R_factor_gt 0.0316
_refine_ls_wR_factor_gt 0.0316
_symmetry_cell_setting hexagonal
_symmetry_space_group_name_H-M 'P 63'
_symmetry_Int_Tables_number 173
loop_
_symmetry_equiv_pos_site_id
_symmetry_equiv_pos_as_xyz
1 x,y,z
2 -y,x-y,z
3 -x+y,-x,z
4 -x,-y,1/2+z
5 y,-x+y,1/2+z
6 x-y,x,1/2+z
_cell_length_a 12.5693(3)
_cell_length_b 12.5693(3)
_cell_length_c 8.2216(2)
_cell_angle_alpha 90
_cell_angle_beta 90
_cell_angle_gamma 120
_cell_formula_units_Z 6
loop_
_atom_type_symbol
_atom_type_radius_bond
C 0.68
H 0.23
Mg 1.41
N 0.68
O 0.68
loop_
_atom_site_label
_atom_site_type_symbol
_atom_site_fract_x
_atom_site_fract_y
_atom_site_fract_z
Mg1 Mg 0.33431(5) 0.33230(5) 0.58747(11)
O1 O 0.42331(11) 0.26452(11) 0.44207(14)
O2 O 0.42420(11) 0.15567(11) 0.22998(14)
O3 O 0.40028(11) 0.48903(11) 0.44095(14)
O4 O 0.50766(11) 0.59967(11) 0.22888(14)
O5 O 0.17606(11) 0.24059(11) 0.44463(13)
O6 O 0.06923(11) 0.24535(11) 0.23241(13)
C1 C 0.37303(17) 0.18661(19) 0.3339(3)
H1 H 0.28680 0.14650 0.32980
C2 C 0.47645(19) 0.51604(18) 0.3299(3)
H2 H 0.51440 0.46810 0.32150
C3 C 0.14338(18) 0.29332(17) 0.3466(3)
H3 H 0.17820 0.37860 0.35960
N1 N 0.66670 0.33330 0.6123(8)
H4 H 0.595(2) 0.328(4) 0.5800(15)
H5 H 0.66670 0.33330 0.7228(10)
N2? N 0.66670 0.33330 0.5339(10)
H6? H 0.5904(10) 0.306(4) 0.4960(16)
H7? H 0.66670 0.33330 0.6432(11)
N3 N 0.33330 0.66670 0.6146(8)
H8 H 0.335(4) 0.599(2) 0.5820(15)
H9 H 0.33330 0.66670 0.7249(10)
N4? N 0.33330 0.66670 0.5325(10)
H10? H 0.360(4) 0.617(3) 0.4957(16)
H11? H 0.33330 0.66670 0.6419(11)
N5 N 0.00000 0.00000 0.1240(6)
H12 H 0.019(2) 0.0756(9) 0.1578(13)
H13 H 0.00000 0.00000 0.0139(8)
Mg1C Mg 0.66569(5) 0.66770(5) 0.08747(11)
Mg1D Mg 0.33230(5) -0.00201(5) 0.08747(11)
Mg1E Mg 0.00201(5) 0.33431(5) 0.08747(11)
O2E O 0.26853(11) 0.42420(11) 0.72998(14)
O4C O 0.49234(11) 0.40033(11) 0.72888(14)
O6D O 0.24535(11) 0.17612(11) 0.73241(13)
H4A H 0.672(2) 0.267(4) 0.5800(15)
H4B H 0.733(2) 0.405(4) 0.5800(15)
H8A H 0.401(4) 0.736(2) 0.5820(15)
H8B H 0.264(4) 0.665(2) 0.5820(15)
H12A H -0.0756(20) -0.0566(9) 0.1578(13)
H12B H 0.0566(20) -0.0190(9) 0.1578(13)
#END
