
#######################################################################
#
#                 Cambridge Crystallographic Data Centre
#                                CCDC
#
#######################################################################
#
# If this CIF has been generated from an entry in the Cambridge
# Structural Database, then it will include bibliographic, chemical,
# crystal, experimental, refinement or atomic coordinate data resulting
# from the CCDC's data processing and validation procedures.
#
#######################################################################

data_CSD_CIF_NIWZIE08
_audit_creation_date 2017-02-10
_audit_creation_method CSD-ConQuest-V1
_database_code_CSD NIWZIE08
_database_code_depnum_ccdc_archive 'CCDC 958244'
_chemical_formula_sum 'C3 H7 Mg1 N1 O6'
_chemical_formula_moiety
;
H4 N1 1+,n(C3 H3 Mg1 O6 1-)
;
_journal_coden_Cambridge 1220
_journal_volume 20
_journal_year 2014
_journal_page_first 1146
_journal_name_full 'Chem.-Eur.J. '
loop_
_publ_author_name
"Ran Shang"
"Guan-Cheng Xu"
"Zhe-Ming Wang"
"Song Gao"
_chemical_name_systematic
;
catena-[ammonium tris(\m-formato)-magnesium(ii)]
;
_cell_volume   1124.107
_exptl_crystal_colour 'colorless'
_exptl_crystal_density_diffrn 1.572
_exptl_crystal_description 'hexagonal block'
_diffrn_ambient_temperature 240
_refine_special_details
;
N11 and N12 disordered over two sites with occupancies 0.50:0.50; N21 and N22 
disordered over two sites with occupancies 0.50:0.50.
;
#These two values have been output from a single CSD field.
_refine_ls_R_factor_gt 0.0329
_refine_ls_wR_factor_gt 0.0329
_symmetry_cell_setting hexagonal
_symmetry_space_group_name_H-M 'P 63'
_symmetry_Int_Tables_number 173
loop_
_symmetry_equiv_pos_site_id
_symmetry_equiv_pos_as_xyz
1 x,y,z
2 -y,x-y,z
3 -x+y,-x,z
4 -x,-y,1/2+z
5 y,-x+y,1/2+z
6 x-y,x,1/2+z
_cell_length_a 12.5615(2)
_cell_length_b 12.5615(2)
_cell_length_c 8.2261(2)
_cell_angle_alpha 90
_cell_angle_beta 90
_cell_angle_gamma 120
_cell_formula_units_Z 6
loop_
_atom_type_symbol
_atom_type_radius_bond
C 0.68
H 0.23
Mg 1.41
N 0.68
O 0.68
loop_
_atom_site_label
_atom_site_type_symbol
_atom_site_fract_x
_atom_site_fract_y
_atom_site_fract_z
Mg1 Mg 0.33471(5) 0.33195(5) 0.58695(12)
O1 O 0.42318(11) 0.26361(11) 0.44203(13)
O2 O 0.42455(11) 0.15511(11) 0.22950(14)
O3 O 0.40022(11) 0.48848(11) 0.44025(13)
O4 O 0.50699(11) 0.59985(11) 0.22828(13)
O5 O 0.17585(11) 0.23945(11) 0.44538(14)
O6 O 0.07013(11) 0.24622(11) 0.23334(14)
C1 C 0.37337(17) 0.18643(19) 0.3334(3)
H1 H 0.28710 0.14690 0.32850
C2 C 0.47492(18) 0.51499(18) 0.3282(3)
H2 H 0.51130 0.46570 0.31740
C3 C 0.14150(18) 0.29329(17) 0.3523(3)
H3 H 0.17140 0.37720 0.37220
N1 N 0.66670 0.33330 0.5980(9)
H4 H 0.5904(13) 0.312(4) 0.5630(16)
H5 H 0.66670 0.33330 0.7077(11)
N2? N 0.66670 0.33330 0.5292(9)
H6? H 0.5909(12) 0.311(4) 0.4923(16)
H7? H 0.66670 0.33330 0.6385(11)
N3 N 0.33330 0.66670 0.5959(11)
H8 H 0.349(5) 0.608(3) 0.5619(17)
H9 H 0.33330 0.66670 0.7058(12)
N4? N 0.33330 0.66670 0.5282(11)
H10? H 0.356(4) 0.614(3) 0.4915(17)
H11? H 0.33330 0.66670 0.6377(12)
N5 N 0.00000 0.00000 0.1347(6)
H12 H 0.0203(19) 0.0759(8) 0.1697(13)
H13 H 0.00000 0.00000 0.0249(9)
Mg1C Mg 0.66529(5) 0.66805(5) 0.08695(12)
Mg1D Mg 0.33195(5) -0.00276(5) 0.08695(12)
Mg1E Mg 0.00276(5) 0.33471(5) 0.08695(12)
O2E O 0.26944(11) 0.42455(11) 0.72950(14)
O4C O 0.49301(11) 0.40015(11) 0.72828(13)
O6D O 0.24622(11) 0.17609(11) 0.73334(14)
H4A H 0.6880(13) 0.2784(40) 0.5630(16)
H4B H 0.7216(13) 0.4096(40) 0.5630(16)
H8A H 0.392(5) 0.741(3) 0.5619(17)
H8B H 0.259(5) 0.651(3) 0.5619(17)
H12A H -0.0759(19) -0.0556(8) 0.1697(13)
H12B H 0.0556(19) -0.0203(8) 0.1697(13)
#END
