
#######################################################################
#
#                 Cambridge Crystallographic Data Centre
#                                CCDC
#
#######################################################################
#
# If this CIF has been generated from an entry in the Cambridge
# Structural Database, then it will include bibliographic, chemical,
# crystal, experimental, refinement or atomic coordinate data resulting
# from the CCDC's data processing and validation procedures.
#
#######################################################################

data_CSD_CIF_NIWZIE02
_audit_creation_date 2014-02-07
_audit_creation_method CSD-ConQuest-V1
_database_code_CSD NIWZIE02
_database_code_depnum_ccdc_archive 'CCDC 949532'
_chemical_formula_sum 'C3 H7 Mg1 N1 O6'
_chemical_formula_moiety
;
(H4 N1 1+)n,n(C3 H3 Mg1 O6 1-)
;
_journal_coden_Cambridge 9
_journal_volume 53
_journal_year 2014
_journal_page_first 787
_journal_name_full 'Inorg.Chem. '
loop_
_publ_author_name
"M.Maczka"
"A.Pietraszko"
"B.Macalik"
"K.Hermanowicz"
_chemical_name_systematic
;
catena-[Ammonium tris(\m~2~-formato)-magnesium]
;
_cell_volume   1124.299
_exptl_crystal_density_diffrn 1.572
_exptl_special_details
;
Phase transition at 255 K

;
_exptl_crystal_description 'plate'
_diffrn_ambient_temperature 248
#These two values have been output from a single CSD field.
_refine_ls_R_factor_gt 0.0303
_refine_ls_wR_factor_gt 0.0303
_symmetry_cell_setting hexagonal
_symmetry_space_group_name_H-M 'P 63'
_symmetry_Int_Tables_number 173
loop_
_symmetry_equiv_pos_site_id
_symmetry_equiv_pos_as_xyz
1 x,y,z
2 -y,x-y,z
3 -x+y,-x,z
4 -x,-y,1/2+z
5 y,-x+y,1/2+z
6 x-y,x,1/2+z
_cell_length_a 12.5680(18)
_cell_length_b 12.5680(18)
_cell_length_c 8.2190(16)
_cell_angle_alpha 90
_cell_angle_beta 90
_cell_angle_gamma 120
_cell_formula_units_Z 6
loop_
_atom_type_symbol
_atom_type_radius_bond
C 0.68
H 0.23
Mg 1.41
N 0.68
O 0.68
loop_
_atom_site_label
_atom_site_type_symbol
_atom_site_fract_x
_atom_site_fract_y
_atom_site_fract_z
Mg1 Mg -0.002524(18) 0.33193(2) 0.43444(3)
O1 O 0.08815(3) 0.48854(3) 0.28796(4)
O2 O 0.09242(3) 0.59988(3) 0.07625(4)
O3 O -0.07026(3) 0.17613(3) 0.58085(5)
O4 O 0.15490(3) 0.42447(3) 0.57782(5)
O5 O -0.17622(4) 0.06359(3) 0.79291(5)
O6 O 0.26357(3) 0.42267(4) 0.78986(5)
C1 C -0.14227(5) 0.15054(5) 0.69897(7)
C2 C 0.18554(6) 0.37320(5) 0.68141(7)
C3 C 0.04034(5) 0.51463(5) 0.17489(7)
H1 H -0.0445(6) 0.4724(5) 0.1768(7)
H2 H 0.1577(6) 0.2873(7) 0.6736(8)
H3 H -0.1817(6) 0.2002(6) 0.7050(8)
N1 N 0.33330 0.66670 0.40927(19)
H4 H 0.33330 0.66670 0.5096(9)
H5 H 0.3867(5) 0.6467(6) 0.3593(9)
N2 N -0.33330 0.33330 0.41234(19)
H6 H -0.33330 0.33330 0.5101(9)
H7 H -0.3070(8) 0.4120(5) 0.3781(10)
N3 N 0.00000 0.00000 0.48233(11)
H8 H 0.00000 0.00000 0.3716(8)
H9 H -0.0555(9) -0.0842(5) 0.4818(9)
Mg1C Mg 0.002524(18) 0.66807(2) -0.06556(3)
Mg1D Mg 0.331930(18) 0.334454(20) 0.93444(3)
Mg1E Mg -0.334454(18) -0.002524(20) 0.93444(3)
O2C O -0.09242(3) 0.40012(3) 0.57625(4)
O5D O 0.06359(4) 0.23981(3) 0.29291(5)
O6E O -0.15910(3) 0.26357(4) 0.28986(5)
H5A H 0.3533(5) 0.7400(6) 0.3593(9)
H5B H 0.2600(5) 0.6133(6) 0.3593(9)
H7A H -0.4120(8) 0.2810(5) 0.3781(10)
H7B H -0.2810(8) 0.3070(5) 0.3781(10)
H9A H 0.0842(9) 0.0287(5) 0.4818(9)
H9B H -0.0287(9) 0.0555(5) 0.4818(9)
#END
