
#######################################################################
#
#                 Cambridge Crystallographic Data Centre
#                                CCDC
#
#######################################################################
#
# If this CIF has been generated from an entry in the Cambridge
# Structural Database, then it will include bibliographic, chemical,
# crystal, experimental, refinement or atomic coordinate data resulting
# from the CCDC's data processing and validation procedures.
#
#######################################################################

data_CSD_CIF_NIWZIE11
_audit_creation_date 2017-02-10
_audit_creation_method CSD-ConQuest-V1
_database_code_CSD NIWZIE11
_database_code_depnum_ccdc_archive 'CCDC 958247'
_chemical_formula_sum 'C3 H7 Mg1 N1 O6'
_chemical_formula_moiety
;
H4 N1 1+,n(C3 H3 Mg1 O6 1-)
;
_journal_coden_Cambridge 1220
_journal_volume 20
_journal_year 2014
_journal_page_first 1146
_journal_name_full 'Chem.-Eur.J. '
loop_
_publ_author_name
"Ran Shang"
"Guan-Cheng Xu"
"Zhe-Ming Wang"
"Song Gao"
_chemical_name_systematic
;
catena-[ammonium tris(\m-formato)-magnesium(ii)]
;
_cell_volume    375.062
_exptl_crystal_colour 'colorless'
_exptl_crystal_density_diffrn 1.571
_exptl_crystal_description 'hexagonal block'
_diffrn_ambient_temperature 260
_refine_special_details
;
N1 disordered by symmetry over two configurations with occupancy 0.50.

;
#These two values have been output from a single CSD field.
_refine_ls_R_factor_gt 0.0215
_refine_ls_wR_factor_gt 0.0215
_symmetry_cell_setting hexagonal
_symmetry_space_group_name_H-M 'P 63 2 2'
_symmetry_Int_Tables_number 182
loop_
_symmetry_equiv_pos_site_id
_symmetry_equiv_pos_as_xyz
1 x,y,z
2 -y,x-y,z
3 -x+y,-x,z
4 -x,-y,1/2+z
5 y,-x+y,1/2+z
6 x-y,x,1/2+z
7 y,x,-z
8 x-y,-y,-z
9 -x,-x+y,-z
10 -y,-x,1/2-z
11 -x+y,y,1/2-z
12 x,x-y,1/2-z
_cell_length_a 7.2605(2)
_cell_length_b 7.2605(2)
_cell_length_c 8.2156(2)
_cell_angle_alpha 90
_cell_angle_beta 90
_cell_angle_gamma 120
_cell_formula_units_Z 2
loop_
_atom_type_symbol
_atom_type_radius_bond
C 0.68
H 0.23
Mg 1.41
N 0.68
O 0.68
loop_
_atom_site_label
_atom_site_type_symbol
_atom_site_fract_x
_atom_site_fract_y
_atom_site_fract_z
Mg1 Mg 0.66670 0.33330 0.75000
O1 O 0.89073(11) 0.31009(13) 0.89398(9)
C1 C 1.00000 0.4402(2) 1.00000
H1 H 1.00000 0.56830 1.00000
N1 N 1.00000 0.00000 0.7872(4)
H2 H 0.966(6) 0.096(4) 0.8217(13)
H3 H 1.00000 0.00000 0.6786(7)
O1H O 1.10927(11) 0.41936(13) 1.10602(9)
O1A O 0.68991(11) 0.58064(13) 0.89398(9)
C1A C 0.55980 0.5598(2) 1.00000
H1A H 0.43170 0.43170 1.00000
O1G O 0.58064(11) 0.68991(13) 1.10602(9)
O1B O 0.41936(11) 0.10927(13) 0.89398(9)
C1B C 0.44020 0.0000(2) 1.00000
H1B H 0.56830 0.00000 1.00000
O1F O 0.31009(11) -0.10927(13) 1.10602(9)
Mg1C Mg 0.33330 -0.33330 1.25000
Mg1C* Mg 0.33330 0.66670 1.25000
Mg1C** Mg 1.33330 0.66670 1.25000
O1I O 0.68991(11) 0.10927(13) 0.60602(9)
O1J O 0.41936(11) 0.31009(13) 0.60602(9)
O1K O 0.89073(11) 0.58064(13) 0.60602(9)
H2A H 0.904(6) -0.130(4) 0.8217(13)
H2B H 1.130(6) 0.034(4) 0.8217(13)
N1I N 1.00000 0.00000 0.7128(4)
H2I H 0.904(6) 0.034(4) 0.6783(13)
H3I H 1.00000 0.00000 0.8214(7)
H2J H 1.130(6) 0.096(4) 0.6783(13)
H2K H 0.966(6) -0.130(4) 0.6783(13)
#END
