
#######################################################################
#
#                 Cambridge Crystallographic Data Centre
#                                CCDC
#
#######################################################################
#
# If this CIF has been generated from an entry in the Cambridge
# Structural Database, then it will include bibliographic, chemical,
# crystal, experimental, refinement or atomic coordinate data resulting
# from the CCDC's data processing and validation procedures.
#
#######################################################################

data_CSD_CIF_NIWZIE04
_audit_creation_date 2017-02-10
_audit_creation_method CSD-ConQuest-V1
_database_code_CSD NIWZIE04
_database_code_depnum_ccdc_archive 'CCDC 958240'
_chemical_formula_sum 'C3 H7 Mg1 N1 O6'
_chemical_formula_moiety
;
H4 N1 1+,n(C3 H3 Mg1 O6 1-)
;
_journal_coden_Cambridge 1220
_journal_volume 20
_journal_year 2014
_journal_page_first 1146
_journal_name_full 'Chem.-Eur.J. '
loop_
_publ_author_name
"Ran Shang"
"Guan-Cheng Xu"
"Zhe-Ming Wang"
"Song Gao"
_chemical_name_systematic
;
catena-[ammonium tris(\m-formato)-magnesium(ii)]
;
_cell_volume   1117.727
_exptl_crystal_colour 'colorless'
_exptl_crystal_density_diffrn 1.581
_exptl_special_details
;
Moisture-sensitive

;
_exptl_crystal_description 'hexagonal block'
_diffrn_ambient_temperature 140
#These two values have been output from a single CSD field.
_refine_ls_R_factor_gt 0.0336
_refine_ls_wR_factor_gt 0.0336
_symmetry_cell_setting hexagonal
_symmetry_space_group_name_H-M 'P 63'
_symmetry_Int_Tables_number 173
loop_
_symmetry_equiv_pos_site_id
_symmetry_equiv_pos_as_xyz
1 x,y,z
2 -y,x-y,z
3 -x+y,-x,z
4 -x,-y,1/2+z
5 y,-x+y,1/2+z
6 x-y,x,1/2+z
_cell_length_a 12.5028(2)
_cell_length_b 12.5028(2)
_cell_length_c 8.2564(2)
_cell_angle_alpha 90
_cell_angle_beta 90
_cell_angle_gamma 120
_cell_formula_units_Z 6
loop_
_atom_type_symbol
_atom_type_radius_bond
C 0.68
H 0.23
Mg 1.41
N 0.68
O 0.68
loop_
_atom_site_label
_atom_site_type_symbol
_atom_site_fract_x
_atom_site_fract_y
_atom_site_fract_z
Mg1 Mg 0.33573(4) 0.33092(4) 0.58645(11)
O1 O 0.42194(11) 0.26090(11) 0.44251(13)
O2 O 0.42615(11) 0.15359(11) 0.22940(14)
O3 O 0.39947(11) 0.48643(10) 0.43847(13)
O4 O 0.50476(10) 0.59965(11) 0.22581(13)
O5 O 0.17496(10) 0.23647(10) 0.44993(13)
O6 O 0.07201(11) 0.24838(10) 0.23690(13)
C1 C 0.37306(16) 0.18728(18) 0.3262(3)
H1 H 0.28690 0.15420 0.31100
C2 C 0.47104(16) 0.51132(16) 0.3201(3)
H2 H 0.50240 0.45720 0.30080
C3 C 0.13780(16) 0.29288(14) 0.3604(2)
H3 H 0.16150 0.37540 0.38880
N1 N 0.66670 0.33330 0.5370(4)
H4 H 0.5889(8) 0.309(2) 0.5014(13)
H5 H 0.66670 0.33330 0.6473(7)
N2 N 0.33330 0.66670 0.5339(4)
H6 H 0.355(2) 0.6111(16) 0.4982(13)
H7 H 0.33330 0.66670 0.6444(7)
N3 N 0.00000 0.00000 0.1414(4)
H8 H 0.0256(18) 0.0788(7) 0.1757(12)
H9 H 0.00000 0.00000 0.0307(7)
Mg1C Mg 0.66427(4) 0.66908(4) 0.08645(11)
Mg1D Mg 0.33092(4) -0.00481(4) 0.08645(11)
Mg1E Mg 0.00481(4) 0.33573(4) 0.08645(11)
O2E O 0.27256(11) 0.42615(11) 0.72940(14)
O4C O 0.49524(10) 0.40035(11) 0.72581(13)
O6D O 0.24838(11) 0.17637(10) 0.73690(13)
H4A H 0.6910(8) 0.2799(20) 0.5014(13)
H4B H 0.7201(8) 0.4111(20) 0.5014(13)
H6A H 0.3889(20) 0.7439(16) 0.4982(13)
H6B H 0.2561(20) 0.6450(16) 0.4982(13)
H8A H -0.0788(18) -0.0532(7) 0.1757(12)
H8B H 0.0532(18) -0.0256(7) 0.1757(12)
#END
