
#######################################################################
#
#                 Cambridge Crystallographic Data Centre
#                                CCDC
#
#######################################################################
#
# If this CIF has been generated from an entry in the Cambridge
# Structural Database, then it will include bibliographic, chemical,
# crystal, experimental, refinement or atomic coordinate data resulting
# from the CCDC's data processing and validation procedures.
#
#######################################################################

data_CSD_CIF_NIXCIH
_audit_creation_date 2008-08-15
_audit_creation_method CSD-ConQuest-V1
_database_code_CSD NIXCIH
_database_code_depnum_ccdc_archive 'CCDC 602524'
_chemical_formula_sum 'C2 H6 La1 Na2 O8.5 P2'
_chemical_formula_moiety
;
(C2 H5 La1 O8 P2 2-)n,2n(Na1 1+),0.5n(H2 O1)
;
_journal_coden_Cambridge 4
_journal_volume 130
_journal_year 2008
_journal_page_first 150
_journal_name_full 'J.Am.Chem.Soc. '
loop_
_publ_author_name
"F.N.Shi"
"L.Cunha-Silva"
"R.A.Sa Ferreira"
"L.Mafra"
"T.Trindade"
"L.D.Carlos"
"F.A.A.Paz"
"J.Rocha"
_chemical_name_systematic
;
catena-(Di-sodium (\m~4~-1-oxyethylidenediphosphonato)-aqua-lanthanum(iii) 
hemihydrate)
;
_chemical_name_common
;
catena-(Di-sodium (mu!4$-etidronate)-aqua-lanthanum(iii) hemihydrate)
;
_cell_volume   1002.305
_exptl_crystal_colour 'colorless'
_exptl_crystal_density_diffrn 2.736
_exptl_special_details
;
isostructural with the yttrium, cerium, neodymium, europium, gadolinium, 
terbium and erbium analogues
;
_exptl_crystal_description 'Prism'
_diffrn_ambient_temperature 100
_refine_special_details
;
The sodium cation is disordered over two positions with occupancies 
0.60:0.40. The uncoordinated water molecule is disordered by symmetry.
;
#These two values have been output from a single CSD field.
_refine_ls_R_factor_gt 0.0282
_refine_ls_wR_factor_gt 0.0282
_symmetry_cell_setting orthorhombic
_symmetry_space_group_name_H-M 'P n m a'
_symmetry_Int_Tables_number 62
loop_
_symmetry_equiv_pos_site_id
_symmetry_equiv_pos_as_xyz
1 x,y,z
2 1/2-x,-y,1/2+z
3 -x,1/2+y,-z
4 1/2+x,1/2-y,1/2-z
5 -x,-y,-z
6 -1/2+x,y,-1/2-z
7 x,-1/2-y,z
8 -1/2-x,-1/2+y,-1/2+z
_cell_length_a 10.755(2)
_cell_length_b 8.8470(18)
_cell_length_c 10.534(2)
_cell_angle_alpha 90
_cell_angle_beta 90
_cell_angle_gamma 90
_cell_formula_units_Z 4
loop_
_atom_type_symbol
_atom_type_radius_bond
C 0.68
H 0.23
La 1.87
Na 0.90
O 0.46
P 1.05
loop_
_atom_site_label
_atom_site_type_symbol
_atom_site_fract_x
_atom_site_fract_y
_atom_site_fract_z
La1 La 0.35880(3) 0.25000 0.11401(3)
O1 O 0.5339(3) 0.0802(4) 0.1872(3)
O2 O 0.6807(4) -0.0562(5) 0.0392(4)
O3 O 0.7676(3) 0.0831(4) 0.2244(4)
O4 O 0.5578(4) 0.25000 -0.0445(4)
P1 P 0.66329(10) 0.07672(15) 0.12737(12)
O5 O 0.1137(5) 0.25000 0.0771(6)
H1 H 0.087(8) 0.1623(6) 0.121(5)
C1 C 0.6719(6) 0.25000 0.0314(6)
C2 C 0.7856(6) 0.25000 -0.0551(7)
H2 H 0.86130 0.25000 -0.00330
H3 H 0.78430 0.34040 -0.10880
H4 H 0.78430 0.15960 -0.10880
Na1 Na 0.4252(7) 0.877(1) 0.2625(8)
Na2? Na 0.9245(6) 0.8838(11) 0.1555(8)
O6? O 0.9640(15) 0.963(2) 0.0090(19)
La1D La 0.64120(3) -0.25000 -0.11401(3)
La1E La 0.85880(3) 0.25000 0.38599(3)
La1D* La 0.64120(3) 0.75000 -0.11401(3)
O1F O 0.5339(3) 0.4198(4) 0.1872(3)
O2F O 0.6807(4) 0.5562(5) 0.0392(4)
O2D O 0.3193(4) 0.0562(5) -0.0392(4)
O2B O 0.3193(4) 0.4438(5) -0.0392(4)
O3F O 0.7676(3) 0.4169(4) 0.2244(4)
O3E O 0.2676(3) 0.0831(4) 0.2756(4)
O3C O 0.2676(3) 0.4169(4) 0.2756(4)
P1F P 0.66329(10) 0.42328(15) 0.12737(12)
H1F H 0.087(8) 0.3377(6) 0.121(5)
#END
