
#######################################################################
#
#                 Cambridge Crystallographic Data Centre
#                                CCDC
#
#######################################################################
#
# If this CIF has been generated from an entry in the Cambridge
# Structural Database, then it will include bibliographic, chemical,
# crystal, experimental, refinement or atomic coordinate data resulting
# from the CCDC's data processing and validation procedures.
#
#######################################################################

data_CSD_CIF_NIYCUV
_audit_creation_date 2014-02-07
_audit_creation_method CSD-ConQuest-V1
_database_code_CSD NIYCUV
_database_code_depnum_ccdc_archive 'CCDC 978067'
_chemical_formula_sum 'C14 H20 N2 O14 U2'
_chemical_formula_moiety
;
(C10 H2 O13 U2 2-)n,2n(C2 H8 N1 1+),n(H2 O1)
;
_journal_coden_Cambridge 1290
_journal_year 2014
_journal_page_first 1322
_journal_name_full 'Eur.J.Inorg.Chem. '
loop_
_publ_author_name
"I.Mihalcea"
"N.Henry"
"T.Loiseau"
_chemical_name_systematic
;
catena-[bis(dimethylammonium) 
(\m~5~-2,4,5-tricarboxybenzoato)-bis(\m~2~-oxido)-tetraoxo-di-uranium 
monohydrate]
;
_cell_volume   2181.922
_exptl_crystal_colour 'yellow'
_exptl_crystal_density_diffrn 2.789
_exptl_crystal_description 'block'
_diffrn_ambient_temperature 293
#These two values have been output from a single CSD field.
_refine_ls_R_factor_gt 0.0308
_refine_ls_wR_factor_gt 0.0308
_symmetry_cell_setting monoclinic
_symmetry_space_group_name_H-M 'P 21/c'
_symmetry_Int_Tables_number 14
loop_
_symmetry_equiv_pos_site_id
_symmetry_equiv_pos_as_xyz
1 x,y,z
2 -x,1/2+y,1/2-z
3 -x,-y,-z
4 x,-1/2-y,-1/2+z
_cell_length_a 13.5546(3)
_cell_length_b 14.6026(3)
_cell_length_c 11.7865(4)
_cell_angle_alpha 90
_cell_angle_beta 110.728(1)
_cell_angle_gamma 90
_cell_formula_units_Z 4
loop_
_atom_type_symbol
_atom_type_radius_bond
C 0.68
H 0.23
N 0.68
O 0.68
U 1.96
loop_
_atom_site_label
_atom_site_type_symbol
_atom_site_fract_x
_atom_site_fract_y
_atom_site_fract_z
U1 U 0.50196(2) 0.01980(2) 0.34723(2)
U2 U 0.22281(2) 0.01971(2) 0.39147(2)
O1 O 0.2175(4) 0.1411(4) 0.3890(5)
O2 O 0.2216(4) -0.0994(4) 0.3932(5)
O3 O 0.5258(4) 0.1385(4) 0.3784(5)
O4 O 0.4771(4) -0.0964(4) 0.3060(5)
O5 O 0.0376(4) 0.0122(4) 0.3084(5)
O6 O -0.1448(4) -0.0308(4) 0.4422(5)
O7 O -0.1558(5) -0.0055(5) -0.1608(5)
O8 O -0.4871(4) -0.0521(4) -0.1421(4)
O9 O -0.3175(4) -0.0529(4) -0.2263(5)
O10 O 0.3964(4) 0.0134(4) 0.4591(5)
C1 C -0.1427(5) 0.0115(5) 0.1983(6)
C2 C -0.0469(6) 0.0554(6) 0.2913(7)
O11 O -0.0567(4) 0.1275(4) 0.3363(5)
O12 O -0.3141(4) -0.0030(4) 0.3689(5)
C3 C -0.3145(5) -0.0594(5) 0.1362(6)
C4 C -0.2297(6) -0.0212(5) 0.2257(6)
C5 C -0.3202(5) -0.0615(5) 0.0159(6)
C6 C -0.1470(6) 0.0071(5) 0.0782(6)
C7 C -0.2361(6) -0.0277(5) -0.0120(6)
C8 C -0.2360(6) -0.0269(6) -0.1404(6)
C9 C -0.2281(6) -0.0171(5) 0.3531(7)
C10 C -0.4178(6) -0.1074(6) -0.0753(7)
O13 O -0.4242(4) -0.1906(4) -0.0701(5)
H1 H -0.37107 -0.08508 0.15697
H2 H -0.08831 0.02819 0.05781
N1 N 0.0564(5) 0.2245(5) 0.5341(6)
C11 C 0.0293(10) 0.3110(7) 0.4647(9)
C12 C 0.0021(9) 0.2135(8) 0.6216(11)
H3 H 0.06824 0.31514 0.41086
H4 H -0.04491 0.31201 0.41835
H5 H 0.04702 0.36186 0.51979
H6 H 0.00740 0.15091 0.64799
H7 H 0.03444 0.25259 0.69020
H8 H -0.07083 0.22978 0.58355
H9 H 0.04123 0.17843 0.48408
H10 H 0.12423 0.22187 0.57209
N2 N 0.3765(5) 0.7527(5) 0.3932(6)
C13 C 0.3056(7) 0.7386(7) 0.2662(8)
C14 C 0.3588(9) 0.6857(7) 0.4780(9)
H11 H 0.31179 0.78945 0.21759
H12 H 0.32482 0.68317 0.23541
H13 H 0.23405 0.73397 0.26325
H14 H 0.41953 0.68392 0.55131
H15 H 0.29807 0.70364 0.49673
H16 H 0.34709 0.62616 0.44122
H17 H 0.44181 0.74948 0.39728
H18 H 0.36827 0.80788 0.41604
O14 O 0.2756(5) 0.2339(5) 0.6735(6)
U1* U -0.49804(2) 0.01980(2) 0.34723(2)
U1B U -0.50196(2) -0.01980(2) -0.34723(2)
U1B* U 0.49804(2) -0.01980(2) 0.65277(2)
U2B U -0.22281(2) -0.01971(2) -0.39147(2)
U2B* U -0.22281(2) -0.01971(2) 0.60853(2)
O6B O 0.1448(4) 0.0308(4) 0.5578(5)
O7B O 0.1558(5) 0.0055(5) 0.1608(5)
O8B O 0.4871(4) 0.0521(4) 0.1421(4)
O9B O 0.3175(4) 0.0529(4) 0.2263(5)
O10B O 0.6036(4) -0.0134(4) 0.5409(5)
O12* O 0.6859(4) -0.0030(4) 0.3689(5)
O12B O 0.3141(4) 0.0030(4) 0.6311(5)
#END
