
#######################################################################
#
#                 Cambridge Crystallographic Data Centre
#                                CCDC
#
#######################################################################
#
# If this CIF has been generated from an entry in the Cambridge
# Structural Database, then it will include bibliographic, chemical,
# crystal, experimental, refinement or atomic coordinate data resulting
# from the CCDC's data processing and validation procedures.
#
#######################################################################

data_CSD_CIF_NIYCIJ
_audit_creation_date 2014-02-07
_audit_creation_method CSD-ConQuest-V1
_database_code_CSD NIYCIJ
_database_code_depnum_ccdc_archive 'CCDC 978065'
_chemical_formula_sum 'C35 H35 N2 O25.5 U3'
_chemical_formula_moiety
;
(C3 H12 N2 2+)n,n(C32 H20 O24 U3 2-),1.5n(H2 O1)
;
_journal_coden_Cambridge 1290
_journal_year 2014
_journal_page_first 1322
_journal_name_full 'Eur.J.Inorg.Chem. '
loop_
_publ_author_name
"I.Mihalcea"
"N.Henry"
"T.Loiseau"
_chemical_name_systematic
;
catena-[1,3-Diammoniopropane 
tetrakis(\m~2~-isophthalato)-diaqua-hexaoxo-tri-uranium sesquihydrate]
;
_cell_volume   1089.446
_exptl_crystal_colour 'yellow'
_exptl_crystal_density_diffrn 2.44
_exptl_crystal_description 'needle'
_diffrn_ambient_temperature 293
_refine_special_details
;
C3 and C1 disordered over two sites with occupancies 0.50:0.50.

;
#These two values have been output from a single CSD field.
_refine_ls_R_factor_gt 0.0376
_refine_ls_wR_factor_gt 0.0376
_symmetry_cell_setting triclinic
_symmetry_space_group_name_H-M 'P -1'
_symmetry_Int_Tables_number 2
loop_
_symmetry_equiv_pos_site_id
_symmetry_equiv_pos_as_xyz
1 x,y,z
2 -x,-y,-z
_cell_length_a 8.1419(13)
_cell_length_b 9.9280(17)
_cell_length_c 14.644(2)
_cell_angle_alpha 97.922(9)
_cell_angle_beta 105.281(9)
_cell_angle_gamma 102.720(9)
_cell_formula_units_Z 1
loop_
_atom_type_symbol
_atom_type_radius_bond
C 0.68
H 0.23
N 0.68
O 0.68
U 1.96
loop_
_atom_site_label
_atom_site_type_symbol
_atom_site_fract_x
_atom_site_fract_y
_atom_site_fract_z
U1 U 0.50000 1.00000 0.00000
U2 U 0.87101(5) 0.68091(3) 0.62705(2)
O1 O 1.0948(9) 0.7191(7) 0.6332(5)
O2 O 0.9539(10) 0.5886(6) 0.7767(4)
O3 O 0.9496(9) -0.1358(6) 0.7771(4)
O4 O 0.8650(9) 0.4330(6) 0.6399(4)
O5 O 0.7742(9) 0.5251(6) 0.4651(4)
O6 O 0.6481(9) 0.6471(7) 0.6218(5)
O7 O 0.8804(10) -0.0649(7) 0.6410(5)
O8 O 0.8026(13) 0.7493(7) 0.4703(5)
O9 O 0.6095(9) 0.9184(7) 0.1538(5)
O10 O 0.6639(10) 0.9494(7) -0.0448(5)
O11 O 0.7352(10) 1.1770(7) 0.1288(5)
O12 O 0.4231(10) 0.7601(7) 0.0308(5)
C1 C 0.6630(12) 0.5963(9) 0.3152(6)
C2 C 0.9221(12) 0.4621(9) 0.7328(6)
C3 C 0.9523(12) 0.3480(8) 0.7861(6)
C4 C 1.0022(14) 0.1373(10) 0.8866(7)
H1 H 1.01630 0.06570 0.92030
C5 C 0.9561(12) 0.1071(9) 0.7871(6)
C6 C 0.9279(11) -0.0375(9) 0.7320(6)
C7 C 0.5971(13) 0.4574(9) 0.2628(7)
H2 H 0.61620 0.38390 0.29360
C8 C 0.6380(12) 0.7046(10) 0.2683(6)
H3 H 0.68370 0.79740 0.30290
C9 C 1.0057(15) 0.3791(10) 0.8875(7)
H4 H 1.02600 0.47070 0.92120
C10 C 0.9316(12) 0.2146(9) 0.7370(7)
H5 H 0.90110 0.19540 0.66980
C11 C 0.7509(14) 0.6223(9) 0.4203(7)
C12 C 0.5243(13) 0.7922(10) 0.1159(7)
C13 C 0.5462(13) 0.6781(9) 0.1710(7)
C14 C 0.4737(13) 0.5378(10) 0.1199(7)
H6 H 0.40530 0.51840 0.05540
C15 C 0.5035(14) 0.4278(10) 0.1652(7)
H7 H 0.46110 0.33510 0.13040
C16 C 1.0279(16) 0.2719(10) 0.9370(7)
H8 H 1.06010 0.29080 1.00430
N1 N 0.3546(11) 0.7752(9) 0.5334(6)
C17 C 0.50000 1.00000 0.50000
C18 C 0.363(3) 0.918(2) 0.5450(18)
C19? C 0.468(2) 0.854(2) 0.4785(14)
O13 O 0.4625(17) 0.0950(13) 0.2665(9)
O14 O 0.151(4) 0.973(3) 0.546(2)
U2A U 0.12899(5) 1.31909(3) -0.62705(2)
O1A O -0.0948(9) 1.2809(7) -0.6332(5)
O2A O 0.0461(10) 1.4114(6) -0.7767(4)
O3A O 0.0504(9) 2.1358(6) -0.7771(4)
O4A O 0.1350(9) 1.5670(6) -0.6399(4)
O5A O 0.2258(9) 1.4749(6) -0.4651(4)
O6A O 0.3519(9) 1.3529(7) -0.6218(5)
O7A O 0.1196(10) 2.0649(7) -0.6410(5)
O8A O 0.1974(13) 1.2507(7) -0.4703(5)
O9A O 0.3905(9) 1.0816(7) -0.1538(5)
O10A O 0.3361(10) 1.0506(7) 0.0448(5)
O11A O 0.2648(10) 0.8230(7) -0.1288(5)
O12A O 0.5769(10) 1.2399(7) -0.0308(5)
C1A C 0.3370(12) 1.4037(9) -0.3152(6)
C2A C 0.0779(12) 1.5379(9) -0.7328(6)
C3A C 0.0477(12) 1.6520(8) -0.7861(6)
C4A C -0.0022(14) 1.8627(10) -0.8866(7)
H1A H -0.01630 1.93430 -0.92030
C5A C 0.0439(12) 1.8929(9) -0.7871(6)
C6A C 0.0721(11) 2.0375(9) -0.7320(6)
C7A C 0.4029(13) 1.5426(9) -0.2628(7)
H2A H 0.38380 1.61610 -0.29360
C8A C 0.3620(12) 1.2954(10) -0.2683(6)
H3A H 0.31630 1.20260 -0.30290
C9A C -0.0057(15) 1.6209(10) -0.8875(7)
H4A H -0.02600 1.52930 -0.92120
C10A C 0.0684(12) 1.7854(9) -0.7370(7)
H5A H 0.09890 1.80460 -0.66980
C11A C 0.2491(14) 1.3777(9) -0.4203(7)
C12A C 0.4757(13) 1.2078(10) -0.1159(7)
C13A C 0.4538(13) 1.3219(9) -0.1710(7)
C14A C 0.5263(13) 1.4622(10) -0.1199(7)
H6A H 0.59470 1.48160 -0.05540
C15A C 0.4965(14) 1.5722(10) -0.1652(7)
H7A H 0.53890 1.66490 -0.13040
C16A C -0.0279(16) 1.7281(10) -0.9370(7)
H8A H -0.06010 1.70920 -1.00430
U2* U 0.87101(5) -0.31909(3) 0.62705(2)
U2A* U 0.12899(5) 2.31909(3) -0.62705(2)
O3* O 0.9496(9) 0.8642(6) 0.7771(4)
O3A* O 0.0504(9) 1.1358(6) -0.7771(4)
O7* O 0.8804(10) 0.9351(7) 0.6410(5)
O7A* O 0.1196(10) 1.0649(7) -0.6410(5)
N1A N 0.6454(11) 1.2248(9) 0.4666(6)
C18A C 0.637(3) 1.082(2) 0.4550(18)
#END
