
#######################################################################
#
#                 Cambridge Crystallographic Data Centre
#                                CCDC
#
#######################################################################
#
# If this CIF has been generated from an entry in the Cambridge
# Structural Database, then it will include bibliographic, chemical,
# crystal, experimental, refinement or atomic coordinate data resulting
# from the CCDC's data processing and validation procedures.
#
#######################################################################

data_CSD_CIF_NIYCOP
_audit_creation_date 2014-02-07
_audit_creation_method CSD-ConQuest-V1
_database_code_CSD NIYCOP
_database_code_depnum_ccdc_archive 'CCDC 978066'
_chemical_formula_sum 'C27 H32 N2 O20 U2'
_chemical_formula_moiety
;
(C24 H12 O16 U2 2-)n,n(C3 H12 N2 2+),4n(H2 O1)
;
_journal_coden_Cambridge 1290
_journal_year 2014
_journal_page_first 1322
_journal_name_full 'Eur.J.Inorg.Chem. '
loop_
_publ_author_name
"I.Mihalcea"
"N.Henry"
"T.Loiseau"
_chemical_name_systematic
;
catena-[propane-1,3-diaminium tris(\m~2~-isophthalato)-tetraoxo-di-uranium 
tetrahydrate]
;
_cell_volume   3336.634
_exptl_crystal_colour 'yellow'
_exptl_crystal_density_diffrn 2.35
_exptl_crystal_description 'needle'
_diffrn_ambient_temperature 293
#These two values have been output from a single CSD field.
_refine_ls_R_factor_gt 0.0277
_refine_ls_wR_factor_gt 0.0277
_symmetry_cell_setting orthorhombic
_symmetry_space_group_name_H-M 'C 2 2 21'
_symmetry_Int_Tables_number 20
loop_
_symmetry_equiv_pos_site_id
_symmetry_equiv_pos_as_xyz
1 x,y,z
2 -x,-y,1/2+z
3 -x,y,1/2-z
4 x,-y,-z
5 1/2+x,1/2+y,z
6 1/2-x,1/2-y,1/2+z
7 1/2-x,1/2+y,1/2-z
8 1/2+x,1/2-y,-z
_cell_length_a 8.3339(3)
_cell_length_b 18.0840(7)
_cell_length_c 22.1394(9)
_cell_angle_alpha 90
_cell_angle_beta 90
_cell_angle_gamma 90
_cell_formula_units_Z 4
loop_
_atom_type_symbol
_atom_type_radius_bond
C 0.68
H 0.23
N 0.68
O 0.68
U 1.96
loop_
_atom_site_label
_atom_site_type_symbol
_atom_site_fract_x
_atom_site_fract_y
_atom_site_fract_z
U1 U 0.028911(19) 0.099544(8) 0.628933(7)
O1 O 0.1252(5) 0.0819(2) 0.69842(17)
O2 O -0.0635(4) 0.11611(19) 0.55826(16)
O3 O -0.0779(4) -0.02742(16) 0.62714(19)
O4 O -0.2507(4) 0.0941(2) 0.67336(15)
O5 O -0.3373(4) -0.27821(17) 0.61890(19)
O6 O -0.1173(4) 0.1985(2) 0.67698(17)
O7 O -0.1989(5) -0.37297(18) 0.58812(17)
O8 O 0.1631(4) -0.01294(19) 0.58853(18)
C1 C 0.0443(6) -0.0549(2) 0.6019(2)
C2 C -0.2423(6) 0.1622(3) 0.6900(2)
C3 C -0.2082(6) -0.3040(3) 0.5982(2)
C4 C -0.3752(6) 0.1992(3) 0.7225(2)
C5 C 0.0512(6) -0.1351(2) 0.5864(2)
C6 C -0.0704(5) -0.2555(2) 0.5842(2)
C7 C -0.50000 0.1606(3) 0.75000
H1 H -0.50000 0.10910 0.75000
C8 C -0.0798(6) -0.1802(2) 0.5975(2)
H2 H -0.17330 -0.16050 0.61380
C9 C 0.1889(6) -0.1648(3) 0.5605(2)
H3 H 0.27470 -0.13390 0.55120
C10 C -0.3751(7) 0.2758(3) 0.7233(2)
H4 H -0.29060 0.30170 0.70580
C11 C 0.0693(6) -0.2836(2) 0.5598(2)
H5 H 0.07580 -0.33380 0.55080
C12 C 0.1998(7) -0.2384(3) 0.5486(2)
H6 H 0.29420 -0.25820 0.53300
C13 C -0.50000 0.3140(4) 0.75000
H7 H -0.50000 0.36540 0.75000
N1 N 0.5182(7) 1.0017(3) 0.6112(2)
H8 H 0.43680 1.03310 0.60680
H9 H 0.58410 1.01820 0.63980
H10 H 0.48070 0.95750 0.62160
C14 C 0.6051(8) 0.9957(4) 0.5544(4)
H11 H 0.66240 0.94900 0.55380
H12 H 0.68400 1.03500 0.55240
C15 C 0.4998(9) 1.00000 0.50000
H13 H 0.43170 1.04340 0.50230
H14? H 0.43170 1.04340 0.50230
O9 O 0.5255(10) 0.8567(3) 0.6638(3)
O10 O 0.8068(13) 0.4525(5) 0.7415(5)
O4B O -0.7493(4) 0.0941(2) 0.82664(15)
O6B O -0.8827(4) 0.1985(2) 0.82302(17)
C2B C -0.7577(6) 0.1622(3) 0.8100(2)
C4B C -0.6248(6) 0.1992(3) 0.7775(2)
C10B C -0.6249(7) 0.2758(3) 0.7767(2)
H4B H -0.70940 0.30170 0.79420
U1B U -1.028911(19) 0.099544(8) 0.871067(7)
O1B O -1.1252(5) 0.0819(2) 0.80158(17)
O2B O -0.9365(4) 0.11611(19) 0.94174(16)
O3B O -0.9221(4) -0.02742(16) 0.87286(19)
O5B O -0.6627(4) -0.27821(17) 0.88110(19)
O7B O -0.8011(5) -0.37297(18) 0.91188(17)
O8B O -1.1631(4) -0.01294(19) 0.91147(18)
C1B C -1.0443(6) -0.0549(2) 0.8981(2)
C3B C -0.7918(6) -0.3040(3) 0.9018(2)
C5B C -1.0512(6) -0.1351(2) 0.9136(2)
C6B C -0.9296(5) -0.2555(2) 0.9158(2)
C8B C -0.9202(6) -0.1802(2) 0.9025(2)
H2B H -0.82670 -0.16050 0.88620
C9B C -1.1889(6) -0.1648(3) 0.9395(2)
H3B H -1.27470 -0.13390 0.94880
C11B C -1.0693(6) -0.2836(2) 0.9402(2)
H5B H -1.07580 -0.33380 0.94920
C12B C -1.1998(7) -0.2384(3) 0.9514(2)
H6B H -1.29420 -0.25820 0.96700
U1D U -0.471089(19) -0.400456(8) 0.628933(7)
U1F U -0.528911(19) -0.400456(8) 0.871067(7)
O5D O 0.1627(4) 0.22179(17) 0.61890(19)
O5F O -1.1627(4) 0.22179(17) 0.88110(19)
O7D O 0.3011(5) 0.12703(18) 0.58812(17)
O7F O -1.3011(5) 0.12703(18) 0.91188(17)
H13C H 0.43170 0.95660 0.49770
N1C N 0.5182(7) 0.9983(3) 0.3888(2)
H8C H 0.43680 0.96690 0.39320
H9C H 0.58410 0.98180 0.36020
H10C H 0.48070 1.04250 0.37840
C14C C 0.6051(8) 1.0043(4) 0.4456(4)
H11C H 0.66240 1.05100 0.44620
H12C H 0.68400 0.96500 0.44760
#END
