
#######################################################################
#
#                 Cambridge Crystallographic Data Centre
#                                CCDC
#
#######################################################################
#
# If this CIF has been generated from an entry in the Cambridge
# Structural Database, then it will include bibliographic, chemical,
# crystal, experimental, refinement or atomic coordinate data resulting
# from the CCDC's data processing and validation procedures.
#
#######################################################################

data_CSD_CIF_NIYDAC
_audit_creation_date 2014-02-07
_audit_creation_method CSD-ConQuest-V1
_database_code_CSD NIYDAC
_database_code_depnum_ccdc_archive 'CCDC 978068'
_chemical_formula_sum 'C14 H18 N2 O10 U1'
_chemical_formula_moiety
;
(C10 H2 O10 U1 2-)n,2n(C2 H8 N1 1+)
;
_journal_coden_Cambridge 1290
_journal_year 2014
_journal_page_first 1322
_journal_name_full 'Eur.J.Inorg.Chem. '
loop_
_publ_author_name
"I.Mihalcea"
"N.Henry"
"T.Loiseau"
_chemical_name_systematic
;
catena-[bis(dimethylammonium) (\m~4~-2,4,5-tricarboxybenzoato)-dioxo-uranium]
;
_cell_volume    915.593
_exptl_crystal_colour 'yellow'
_exptl_crystal_density_diffrn 2.22
_exptl_crystal_description 'plate'
_diffrn_ambient_temperature 293
#These two values have been output from a single CSD field.
_refine_ls_R_factor_gt 0.0418
_refine_ls_wR_factor_gt 0.0418
_symmetry_cell_setting monoclinic
_symmetry_space_group_name_H-M 'P 21/n'
_symmetry_Int_Tables_number 14
loop_
_symmetry_equiv_pos_site_id
_symmetry_equiv_pos_as_xyz
1 x,y,z
2 1/2-x,1/2+y,1/2-z
3 -x,-y,-z
4 -1/2+x,-1/2-y,-1/2+z
_cell_length_a 7.2181(6)
_cell_length_b 13.6858(11)
_cell_length_c 9.2779(7)
_cell_angle_alpha 90
_cell_angle_beta 92.580(2)
_cell_angle_gamma 90
_cell_formula_units_Z 2
loop_
_atom_type_symbol
_atom_type_radius_bond
C 0.68
H 0.23
N 0.68
O 0.68
U 1.96
loop_
_atom_site_label
_atom_site_type_symbol
_atom_site_fract_x
_atom_site_fract_y
_atom_site_fract_z
U1 U 0.00000 0.00000 0.00000
O1 O 0.0820(6) -0.0275(3) 0.2647(4)
O2 O 0.3155(6) -0.0174(3) 0.1238(4)
C1 C 0.3837(8) -0.0142(5) 0.3785(5)
C2 C 0.2515(8) -0.0198(4) 0.2504(6)
C3 C 0.5747(8) -0.0177(4) 0.3644(5)
C4 C 0.3096(8) 0.0080(7) 0.5122(5)
O3 O 0.0219(7) 0.1243(3) 0.0184(5)
O4 O 0.7463(6) 0.0258(3) 0.1617(4)
O5 O 0.6665(7) -0.1309(4) 0.1944(5)
C5 C 0.6666(10) -0.0454(5) 0.2249(7)
H1 H 0.17820 0.01649 0.51851
N1 N 0.4832(9) -0.1842(5) -0.0604(6)
C6 C 0.3710(14) -0.2551(6) 0.0111(10)
C7 C 0.5762(14) -0.2267(6) -0.1855(9)
H2 H 0.35795 -0.23574 0.10953
H3 H 0.25083 -0.25867 -0.03731
H4 H 0.42977 -0.31796 0.00847
H5 H 0.63295 -0.17536 -0.23861
H6 H 0.66952 -0.27220 -0.15167
H7 H 0.48627 -0.25988 -0.24717
H8 H 0.56628 -0.16065 0.00088
H9 H 0.41411 -0.13529 -0.08930
O1B O 0.9180(6) 0.0275(3) 0.7353(4)
O2B O 0.6845(6) 0.0174(3) 0.8762(4)
C1B C 0.6163(8) 0.0142(5) 0.6215(5)
C2B C 0.7485(8) 0.0198(4) 0.7496(6)
C3B C 0.4253(8) 0.0177(4) 0.6356(5)
C4B C 0.6904(8) -0.0080(7) 0.4878(5)
O4B O 0.2537(6) -0.0258(3) 0.8383(4)
O5B O 0.3335(7) 0.1309(4) 0.8056(5)
C5B C 0.3334(10) 0.0454(5) 0.7751(7)
H1B H 0.82180 -0.01649 0.48149
O3B O -0.0219(7) -0.1243(3) -0.0184(5)
U1* U 0.00000 0.00000 1.00000
U1** U 1.00000 0.00000 0.00000
U1*** U 1.00000 0.00000 1.00000
O1B* O -0.0820(6) 0.0275(3) -0.2647(4)
O2B* O -0.3155(6) 0.0174(3) -0.1238(4)
O4* O -0.2537(6) 0.0258(3) 0.1617(4)
O4B* O 0.2537(6) -0.0258(3) -0.1617(4)
#END
