
#######################################################################
#
#                 Cambridge Crystallographic Data Centre
#                                CCDC
#
#######################################################################
#
# If this CIF has been generated from an entry in the Cambridge
# Structural Database, then it will include bibliographic, chemical,
# crystal, experimental, refinement or atomic coordinate data resulting
# from the CCDC's data processing and validation procedures.
#
#######################################################################

data_CSD_CIF_NODKAT
_audit_creation_date 2008-12-16
_audit_creation_method CSD-ConQuest-V1
_database_code_CSD NODKAT
_database_code_depnum_ccdc_archive 'CCDC 671541'
_chemical_formula_sum 'C26 H39 In1 N2 O8'
_chemical_formula_moiety
;
(C6 H11 N2 1+)n,n(C20 H28 In1 O8 1-)
;
_journal_coden_Cambridge 179
_journal_volume 47
_journal_year 2008
_journal_page_first 5434
_journal_name_full 'Angew.Chem.,Int.Ed. '
loop_
_publ_author_name
"Jian Zhang"
"Shumei Chen"
"Xianhui Bu"
_chemical_name_systematic
;
catena-(1-Ethyl-3-methylimidazolium bis(\m~2~-D-camphorato-O,O')-indium)
;
_cell_volume   2827.756
_exptl_crystal_colour 'colorless'
_exptl_crystal_density_diffrn 1.462
_diffrn_ambient_temperature 293
#These two values have been output from a single CSD field.
_refine_ls_R_factor_gt 0.038
_refine_ls_wR_factor_gt 0.038
_symmetry_cell_setting orthorhombic
_symmetry_space_group_name_H-M 'P 21 21 21'
_symmetry_Int_Tables_number 19
loop_
_symmetry_equiv_pos_site_id
_symmetry_equiv_pos_as_xyz
1 x,y,z
2 1/2-x,-y,1/2+z
3 -x,1/2+y,1/2-z
4 1/2+x,1/2-y,-z
_cell_length_a 12.3398(2)
_cell_length_b 13.4958(3)
_cell_length_c 16.9799(3)
_cell_angle_alpha 90
_cell_angle_beta 90
_cell_angle_gamma 90
_cell_formula_units_Z 4
loop_
_atom_type_symbol
_atom_type_radius_bond
C 0.68
H 0.23
In 1.51
N 0.68
O 0.68
loop_
_atom_site_label
_atom_site_type_symbol
_atom_site_fract_x
_atom_site_fract_y
_atom_site_fract_z
In1 In 0.28603(3) 0.10486(3) 1.130983(18)
O1 O 0.2707(3) 0.2850(2) 1.10412(17)
O2 O 0.3055(3) 0.1707(3) 1.01572(17)
O3 O 0.6362(3) 0.4846(3) 0.92970(19)
O4 O 0.6149(2) 0.3725(3) 0.83737(19)
O5 O 0.3782(3) -0.0261(2) 1.07369(18)
O6 O 0.2958(3) -0.0464(2) 1.18728(17)
O7 O 0.6808(3) -0.3389(2) 1.24442(16)
O8 O 0.5467(3) -0.3588(2) 1.32717(18)
C1 C 0.3126(4) 0.3410(4) 0.9721(3)
C2 C 0.4268(4) 0.3893(4) 0.9861(3)
C3 C 0.4543(4) 0.4340(4) 0.9045(3)
H1 H 0.43180 0.50360 0.90460
C4 C 0.3847(4) 0.3781(5) 0.8424(2)
H2 H 0.33420 0.42290 0.81700
H3 H 0.43050 0.34830 0.80240
C5 C 0.3249(4) 0.2993(4) 0.8885(3)
H4 H 0.36590 0.23800 0.88930
H5 H 0.25440 0.28650 0.86530
C6 C 0.2215(4) 0.4166(4) 0.9738(3)
H6 H 0.15380 0.38400 0.96360
H7 H 0.23410 0.46600 0.93420
H8 H 0.21900 0.44750 1.02470
C7 C 0.5107(4) 0.3107(4) 1.0114(3)
H9 H 0.49120 0.28450 1.06200
H10 H 0.58120 0.34050 1.01440
H11 H 0.51190 0.25790 0.97340
C8 C 0.4265(5) 0.4673(4) 1.0495(3)
H12 H 0.41060 0.43700 1.09940
H13 H 0.37240 0.51620 1.03780
H14 H 0.49640 0.49840 1.05190
C9 C 0.2928(4) 0.2613(4) 1.0350(3)
C10 C 0.5766(5) 0.4303(4) 0.8890(3)
C11 C 0.3865(4) -0.1898(3) 1.1315(3)
C12 C 0.5018(4) -0.2016(4) 1.1704(3)
C13 C 0.5011(4) -0.3131(4) 1.1937(3)
H15 H 0.52380 -0.35040 1.14710
C14 C 0.3834(4) -0.3424(4) 1.2107(3)
H16 H 0.36360 -0.40110 1.18110
H17 H 0.37330 -0.35570 1.26640
C15 C 0.3156(4) -0.2542(4) 1.1852(3)
H18 H 0.29250 -0.21650 1.23080
H19 H 0.25170 -0.27650 1.15700
C16 C 0.3825(5) -0.2293(4) 1.0471(3)
H20 H 0.42830 -0.18940 1.01410
H21 H 0.30940 -0.22650 1.02800
H22 H 0.40750 -0.29660 1.04630
C17 C 0.5948(4) -0.1745(5) 1.1152(3)
H23 H 0.59130 -0.10520 1.10290
H24 H 0.58900 -0.21250 1.06760
H25 H 0.66270 -0.18890 1.14040
C18 C 0.5114(5) -0.1382(4) 1.2446(3)
H26 H 0.45370 -0.15460 1.28020
H27 H 0.50670 -0.06940 1.23060
H28 H 0.57980 -0.15080 1.26950
C19 C 0.3519(4) -0.0816(3) 1.1307(3)
C20 C 0.5806(4) -0.3380(3) 1.2589(3)
C21 C 0.4111(5) 0.0776(4) 0.7841(3)
H29 H 0.36400 0.07980 0.74150
C22 C 0.5548(4) 0.0959(5) 0.8579(3)
H30 H 0.62430 0.11300 0.87430
C23 C 0.4794(5) 0.0487(4) 0.9011(3)
H31 H 0.48640 0.02780 0.95310
C24 C 0.5763(6) 0.1647(5) 0.7236(4)
H32 H 0.62040 0.21590 0.74750
H33 H 0.62420 0.11710 0.69870
C25 C 0.5055(6) 0.2082(5) 0.6650(4)
H34 H 0.54830 0.24180 0.62600
H35 H 0.45770 0.25470 0.68990
H36 H 0.46370 0.15700 0.64020
C26 C 0.2849(4) -0.0056(4) 0.8784(3)
H37 H 0.23550 -0.00600 0.83470
H38 H 0.25510 0.03350 0.92030
H39 H 0.29610 -0.07230 0.89640
N1 N 0.5108(4) 0.1144(4) 0.7851(3)
N2 N 0.3892(4) 0.0372(3) 0.8533(3)
In1C In 0.78603(3) 0.39514(3) 0.869017(18)
In1B In 0.71397(3) -0.39514(3) 1.369017(18)
O3C O 0.1362(3) 0.0154(3) 1.07030(19)
O4C O 0.1149(2) 0.1275(3) 1.16263(19)
O7B O 0.3192(3) 0.1611(2) 1.25558(16)
O8B O 0.4533(3) 0.1412(2) 1.17283(18)
#END
