
#######################################################################
#
#                 Cambridge Crystallographic Data Centre
#                                CCDC
#
#######################################################################
#
# If this CIF has been generated from an entry in the Cambridge
# Structural Database, then it will include bibliographic, chemical,
# crystal, experimental, refinement or atomic coordinate data resulting
# from the CCDC's data processing and validation procedures.
#
#######################################################################

data_CSD_CIF_NODKUN
_audit_creation_date 2008-12-16
_audit_creation_method CSD-ConQuest-V1
_database_code_CSD NODKUN
_database_code_depnum_ccdc_archive 'CCDC 671556'
_chemical_formula_sum 'C50 H61 In1 N6 O19 S2'
_chemical_formula_moiety
;
(C6 H11 N2 1+)3n,n(C28 H16 In1 O10 1-),2n(C2 H5 O4 S1 1-),n(H2 O1)
;
_journal_coden_Cambridge 179
_journal_volume 47
_journal_year 2008
_journal_page_first 5434
_journal_name_full 'Angew.Chem.,Int.Ed. '
loop_
_publ_author_name
"Jian Zhang"
"Shumei Chen"
"Xianhui Bu"
_chemical_name_systematic
;
catena-(tris(1-Ethyl-3-methylimidazolium) 
bis(\m~2~-4,4'-oxybis(benzoato)-O,O',O'',O''')-indium bis(ethyl sulfate) 
monohydrate)
;
_cell_volume   5447.767
_exptl_crystal_colour 'colorless'
_exptl_crystal_density_diffrn 1.498
_exptl_special_details
;
All three angles in the cell data have been quoted as 90.00, for a monoclinic 
cell
;
_diffrn_ambient_temperature 293
#These two values have been output from a single CSD field.
_refine_ls_R_factor_gt 0.0426
_refine_ls_wR_factor_gt 0.0426
_symmetry_cell_setting monoclinic
_symmetry_space_group_name_H-M 'C c'
_symmetry_Int_Tables_number 9
loop_
_symmetry_equiv_pos_site_id
_symmetry_equiv_pos_as_xyz
1 x,y,z
2 x,-y,1/2+z
3 1/2+x,1/2+y,z
4 1/2+x,1/2-y,1/2+z
_cell_length_a 22.7480(18)
_cell_length_b 15.8466(12)
_cell_length_c 15.1126(12)
_cell_angle_alpha 90
_cell_angle_beta 90
_cell_angle_gamma 90
_cell_formula_units_Z 4
loop_
_atom_type_symbol
_atom_type_radius_bond
C 0.68
H 0.23
In 1.55
N 0.68
O 0.68
S 0.96
loop_
_atom_site_label
_atom_site_type_symbol
_atom_site_fract_x
_atom_site_fract_y
_atom_site_fract_z
In1 In 1.171013(17) 1.60203(2) -0.133084(18)
O1 O 1.13170(19) 1.7015(2) -0.2269(3)
O2 O 0.5224(7) 0.5101(9) 0.2985(10)
O3 O 1.11024(18) 1.6714(3) -0.0385(3)
O4 O 0.70119(19) 1.9602(3) -0.1449(3)
O5 O 0.73672(19) 1.8020(3) -0.5764(3)
O6 O 1.14635(17) 1.5719(3) -0.2743(3)
O7 O 1.07655(17) 1.5589(2) -0.1057(3)
O8 O 0.7609(2) 1.8756(3) -0.6911(3)
O9 O 0.70414(19) 2.0257(3) -0.0166(3)
O10 O 1.01125(18) 1.7182(3) -0.6085(2)
O11 O 0.84266(19) 1.6902(3) 0.0832(3)
O12 O 0.7794(4) 0.4527(4) 0.1834(5)
O13 O 0.7752(3) 0.3134(4) 0.2522(4)
O14 O 0.8433(3) 0.3453(3) 0.1352(4)
O15 O 0.8559(3) 0.4018(4) 0.2831(4)
O16 O 0.5438(6) 0.5955(5) 0.5528(12)
O17 O 0.5695(4) 0.4795(7) 0.4665(9)
O18 O 0.5687(4) 0.4676(5) 0.6171(8)
O19 O 0.4796(3) 0.4757(4) 0.5464(5)
C1 C 1.0092(3) 1.6375(4) -0.0172(4)
C2 C 0.8360(3) 1.7913(3) -0.6258(4)
C3 C 0.8776(3) 1.8144(4) -0.6903(4)
H1 H 0.86600 1.84670 -0.73860
C4 C 0.7754(3) 1.8240(4) -0.6313(4)
C5 C 1.0977(2) 1.6665(4) -0.3727(3)
C6 C 1.0747(3) 1.7459(4) -0.3878(4)
H2 H 1.07960 1.78790 -0.34540
C7 C 1.0379(2) 1.7006(4) -0.5279(4)
C8 C 0.9946(3) 1.7187(3) 0.0131(4)
H3 H 1.02260 1.76140 0.01040
C9 C 1.0619(3) 1.6225(4) -0.5167(4)
H4 H 1.05820 1.58180 -0.56070
C10 C 0.8336(4) 1.0338(5) 0.2332(5)
H5 H 0.81320 0.98500 0.24810
C11 C 1.0445(3) 1.7640(4) -0.4651(4)
H6 H 1.02890 1.81750 -0.47480
C12 C 1.0923(4) 1.6040(4) -0.4375(5)
H7 H 1.10860 1.55080 -0.42860
C13 C 0.9532(3) 1.7424(4) -0.6103(4)
C14 C 0.9666(3) 1.5747(4) -0.0115(4)
H8 H 0.97560 1.52040 -0.03040
C15 C 1.1265(2) 1.6458(4) -0.2872(4)
C16 C 0.8534(3) 1.7440(4) -0.5553(4)
H9 H 0.82590 1.72780 -0.51310
C17 C 0.8980(2) 1.6729(4) 0.0495(4)
C18 C 0.9109(3) 1.5918(4) 0.0219(5)
H10 H 0.88280 1.54940 0.02570
C19 C 0.7485(3) 1.8889(4) -0.0265(4)
C20 C 0.7777(3) 1.8324(4) -0.0801(4)
H11 H 0.77500 1.83860 -0.14110
C21 C 0.9402(3) 1.7362(4) 0.0464(4)
H12 H 0.93140 1.79010 0.06690
C22 C 0.8105(3) 1.7674(4) -0.0466(4)
H13 H 0.83110 1.73140 -0.08410
C23 C 0.9126(3) 1.7191(4) -0.5453(4)
H14 H 0.92440 1.68770 -0.49640
C24 C 0.9355(3) 1.7895(4) -0.6827(4)
H15 H 0.96260 1.80440 -0.72600
C25 C 0.7822(3) 1.8103(4) 0.1010(4)
H16 H 0.78310 1.80180 0.16180
C26 C 0.8124(3) 1.7564(4) 0.0453(4)
C27 C 0.7505(3) 1.8770(4) 0.0661(4)
H17 H 0.73060 1.91390 0.10350
C28 C 0.7164(3) 1.9622(4) -0.0634(4)
C29 C 0.6829(4) 0.6647(5) 0.5586(5)
H18 H 0.65120 0.70360 0.54930
H19 H 0.71720 0.69490 0.57790
H20 H 0.67180 0.62430 0.60290
C30 C 0.6721(4) 0.5749(6) 0.2472(6)
H21 H 0.63120 0.59150 0.24210
H22 H 0.67540 0.51660 0.22820
C31 C 0.7353(4) 0.5382(5) 0.3799(5)
H23 H 0.75930 0.49870 0.35210
C32 C 0.7383(4) 0.5615(5) 0.4653(5)
H24 H 0.76410 0.54100 0.50800
C33 C 0.6688(4) 0.6328(5) 0.4005(5)
H25 H 0.63850 0.67100 0.39050
C34 C 0.9574(5) 1.1767(7) 0.2145(6)
H26 H 0.98900 1.13740 0.20220
H27 H 0.95690 1.21830 0.16740
C35 C 0.8524(5) 1.1599(6) 0.1808(5)
H28 H 0.84760 1.21260 0.15480
C36 C 0.8900(4) 1.0494(6) 0.2493(5)
H29 H 0.91670 1.01440 0.27810
C37 C 1.0680(3) 1.6204(4) -0.0556(4)
C38 C 1.0971(4) 1.3745(6) -0.3028(6)
H30 H 1.10330 1.36700 -0.36590
H31 H 1.12530 1.41610 -0.28240
C39 C 1.1695(5) 1.1738(6) -0.0801(7)
H32 H 1.18870 1.21950 -0.05010
H33 H 1.19830 1.13320 -0.09870
H34 H 1.14210 1.14730 -0.04060
C40 C 1.1050(4) 1.1640(5) -0.2181(7)
H35 H 1.09670 1.10660 -0.21640
C41 C 1.0864(4) 1.2185(6) -0.2803(6)
H36 H 1.06250 1.20650 -0.32860
C42 C 1.0378(4) 1.4083(5) -0.2891(5)
H37 H 1.03370 1.46050 -0.32070
H38 H 1.03160 1.41790 -0.22710
H39 H 1.00940 1.36840 -0.31050
C43 C 1.1393(3) 1.2864(4) -0.1851(5)
H40 H 1.15860 1.33010 -0.15600
C44 C 0.7506(5) 1.1159(6) 0.1616(7)
H41 H 0.74780 1.17020 0.13400
H42 H 0.72470 1.11360 0.21160
H43 H 0.73990 1.07290 0.11990
C45 C 0.9695(5) 1.2192(8) 0.2977(7)
H44 H 1.00640 1.24820 0.29370
H45 H 0.97120 1.17830 0.34450
H46 H 0.93880 1.25910 0.30980
C46 C 0.7096(4) 0.6306(6) 0.1881(6)
H47 H 0.69650 0.62550 0.12800
H48 H 0.75000 0.61320 0.19210
H49 H 0.70620 0.68830 0.20680
C47 C 0.3820(4) 0.4805(8) 0.4942(7)
H50 H 0.36100 0.50560 0.44590
H51 H 0.36640 0.50100 0.54920
H52 H 0.37790 0.42020 0.49180
C48 C 0.4396(7) 0.5011(12) 0.4884(12)
H53 H 0.45280 0.48190 0.43080
H54 H 0.44140 0.56220 0.48730
C49 C 0.9024(4) 0.4618(7) 0.2582(7)
H55 H 0.90800 0.46120 0.19460
H56 H 0.93920 0.44580 0.28600
C50 C 0.8846(6) 0.5496(7) 0.2882(9)
H57 H 0.91500 0.58910 0.27290
H58 H 0.87910 0.54970 0.35120
H59 H 0.84860 0.56550 0.25960
S1 S 0.81001(10) 0.37645(12) 0.20796(12)
S2 S 0.54366(11) 0.51644(14) 0.55110(19)
N1 N 0.6912(3) 0.5822(4) 0.3415(4)
N2 N 0.6958(3) 0.6212(4) 0.4766(4)
N3 N 0.9009(3) 1.1301(5) 0.2136(5)
N4 N 0.8112(3) 1.1019(3) 0.1912(4)
N5 N 1.1378(3) 1.2067(4) -0.1583(5)
N6 N 1.1095(3) 1.2944(4) -0.2584(4)
In1B In 0.671013(17) 2.10203(2) -0.133084(18)
In1C In 0.671013(17) 1.89797(2) -0.633084(18)
O4B O 1.20119(19) 1.4602(3) -0.1449(3)
O5C O 1.23672(19) 1.6980(3) -0.0764(3)
O8C O 1.2609(2) 1.6244(3) -0.1911(3)
O9B O 1.20414(19) 1.5257(3) -0.0166(3)
#END
