
#######################################################################
#
#                 Cambridge Crystallographic Data Centre
#                                CCDC
#
#######################################################################
#
# If this CIF has been generated from an entry in the Cambridge
# Structural Database, then it will include bibliographic, chemical,
# crystal, experimental, refinement or atomic coordinate data resulting
# from the CCDC's data processing and validation procedures.
#
#######################################################################

data_CSD_CIF_NODPAA
_audit_creation_date 2019-02-08
_audit_creation_method CSD-ConQuest-V1
_database_code_CSD NODPAA
_database_code_depnum_ccdc_archive 'CCDC 1037625'
_chemical_formula_sum 'C84 H104 N6 O30 Zn2'
_chemical_formula_moiety
;
2(C2 H8 N1 1+),C2 H10 N2 2+,2n(C36 H28 O12 Zn1 2-),2(C3 H7 N1 O1),4(H2 O1)
;
_journal_coden_Cambridge 1220
_journal_volume 21
_journal_year 2015
_journal_page_first 6052
_journal_name_full 'Chem.-Eur.J. '
loop_
_publ_author_name
"Eunji Lee"
"Huiyeong Ju"
"Youngjin Kang"
"Shim Sung Lee"
"K.-M.Park"
_chemical_name_systematic
;
catena-[bis(dimethylammonium) ethane-1,2-diammonium 
bis((\m-2,2',2'',2'''-[pentacyclo[19.3.1.1^3,7^.1^9,13^.1^15,19^]octacosa-1(25
),3(28),4,6,9(27),10,12,15(26),16,18,21,23-dodecaene-25,26,27,28-tetrayltetrak
is(oxy)]tetraacetato)-zinc(ii)) N,N-dimethylformamide solvate tetrahydrate]
;
_chemical_name_common
;
catena-[bis(dimethylammonium) ethane-1,2-diammonium 
bis((mu-25,26,27,28-tetrakis(oxidoacetato)calix(4)arene)-zinc(ii)) 
N,N-dimethylformamide solvate tetrahydrate]
;
_cell_volume   2119.516
_exptl_crystal_colour 'colorless'
_exptl_crystal_density_diffrn 1.417
_exptl_crystal_description 'plate'
_diffrn_ambient_temperature 173
_refine_special_details
;
O1W,O2W and O1W',O2W' disordered over two sites with occupancies 0.50:0.50.

;
#These two values have been output from a single CSD field.
_refine_ls_R_factor_gt 0.0499
_refine_ls_wR_factor_gt 0.0499
_symmetry_cell_setting triclinic
_symmetry_space_group_name_H-M 'P -1'
_symmetry_Int_Tables_number 2
loop_
_symmetry_equiv_pos_site_id
_symmetry_equiv_pos_as_xyz
1 x,y,z
2 -x,-y,-z
_cell_length_a 13.1666(4)
_cell_length_b 13.7904(4)
_cell_length_c 14.4801(4)
_cell_angle_alpha 113.767(1)
_cell_angle_beta 111.255(1)
_cell_angle_gamma 97.615(1)
_cell_formula_units_Z 1
loop_
_atom_type_symbol
_atom_type_radius_bond
C 0.68
H 0.23
N 0.68
O 0.68
Zn 1.22
loop_
_atom_site_label
_atom_site_type_symbol
_atom_site_fract_x
_atom_site_fract_y
_atom_site_fract_z
Zn1 Zn 0.77268(2) -0.12654(2) 0.72186(2)
O1 O 0.87507(15) 0.25298(13) 0.76024(14)
O2 O 0.87809(15) 0.03221(14) 0.82176(15)
O3 O 0.73927(17) 0.05104(18) 0.69605(19)
O4 O 0.81519(14) 0.53558(13) 0.70306(14)
O5 O 0.83864(15) 0.82829(14) 0.83798(14)
O6 O 0.8744(2) 0.71951(16) 0.91525(16)
O7 O 0.62260(13) 0.20504(13) 0.38796(13)
O8 O 0.39300(14) 0.16810(14) 0.32314(14)
O9 O 0.34534(17) 0.0502(2) 0.14497(17)
O10 O 1.01048(14) 0.25958(13) 0.51551(14)
O11 O 1.22795(14) 0.20623(15) 0.42586(14)
O12 O 1.03958(16) 0.15283(19) 0.32101(15)
C1 C 0.9635(2) 0.34341(19) 0.78841(19)
C2 C 1.0530(2) 0.3230(2) 0.7613(2)
C3 C 1.1400(2) 0.4154(2) 0.7908(2)
H1 H 1.20340 0.40440 0.77620
C4 C 1.1357(3) 0.5231(2) 0.8411(2)
H2 H 1.19550 0.58500 0.85990
C5 C 1.0447(2) 0.5404(2) 0.8640(2)
H3 H 1.04130 0.61420 0.89680
C6 C 0.9577(2) 0.45116(19) 0.83977(19)
C7 C 0.7230(2) 0.45995(18) 0.68909(19)
C8 C 0.7436(2) 0.4297(2) 0.7739(2)
C9 C 0.6503(3) 0.3610(2) 0.7669(2)
H4 H 0.66180 0.34030 0.82410
C10 C 0.5406(3) 0.3222(3) 0.6772(2)
H5 H 0.47660 0.28050 0.67650
C11 C 0.5252(2) 0.3447(2) 0.5892(2)
H6 H 0.45080 0.31490 0.52630
C12 C 0.6172(2) 0.41028(19) 0.59085(19)
C13 C 0.69998(18) 0.29434(18) 0.39974(18)
C14 C 0.68910(19) 0.40067(19) 0.44590(18)
C15 C 0.7619(2) 0.4872(2) 0.4504(2)
H7 H 0.75440 0.55970 0.47890
C16 C 0.8452(2) 0.4698(2) 0.4141(2)
H8 H 0.89390 0.52980 0.41740
C17 C 0.8568(2) 0.3646(2) 0.3729(2)
H9 H 0.91520 0.35350 0.34980
C18 C 0.78471(19) 0.27469(19) 0.36450(18)
C19 C 0.9335(2) 0.16802(18) 0.4983(2)
C20 C 0.8296(2) 0.11393(19) 0.3977(2)
C21 C 0.7553(2) 0.0150(2) 0.3739(2)
H10 H 0.68600 -0.02520 0.30440
C22 C 0.7818(2) -0.0248(2) 0.4506(3)
H11 H 0.73270 -0.09390 0.43210
C23 C 0.8795(2) 0.0358(2) 0.5539(3)
H12 H 0.89480 0.00980 0.60750
C24 C 0.9564(2) 0.1346(2) 0.5813(2)
C25 C 0.8619(2) 0.4722(2) 0.87186(19)
H13 H 0.85860 0.43670 0.91850
H14 H 0.88210 0.55400 0.91990
C26 C 0.59913(19) 0.42211(19) 0.48671(18)
H15 H 0.52260 0.36930 0.42400
H16 H 0.59780 0.49890 0.50380
C27 C 0.8001(2) 0.16041(19) 0.3171(2)
H17 H 0.72790 0.10680 0.24800
H18 H 0.86190 0.16590 0.29420
C28 C 1.0547(2) 0.2047(2) 0.7002(2)
H19 H 1.12860 0.20870 0.69640
H20 H 1.05120 0.16700 0.74510
C29 C 0.9023(2) 0.2142(2) 0.8413(2)
H21 H 0.88260 0.25710 0.90220
H22 H 0.98580 0.22510 0.87630
C30 C 0.8336(2) 0.0909(2) 0.7808(2)
C31 C 0.8026(2) 0.63933(19) 0.7126(2)
H23 H 0.72030 0.62630 0.66630
H24 H 0.84680 0.66510 0.67950
C32 C 0.8416(2) 0.73312(19) 0.8325(2)
C33 C 0.5417(2) 0.1266(2) 0.2724(2)
H25 H 0.55130 0.05220 0.25460
H26 H 0.56020 0.15000 0.22250
C34 C 0.4170(2) 0.1151(2) 0.2449(2)
C35 C 1.11937(19) 0.24763(19) 0.52484(19)
H27 H 1.13760 0.19920 0.55940
H28 H 1.17950 0.32230 0.57700
C36 C 1.1251(2) 0.19819(19) 0.4130(2)
N1 N 0.6286(2) 0.1226(2) 0.5500(2)
H29 H 0.67670 0.10820 0.60350
H30 H 0.61970 0.18690 0.59760
H31 H 0.65600 0.14060 0.51450
C37 C 0.5203(3) 0.0253(4) 0.4708(4)
H32 H 0.45940 0.05010 0.43160
H33 H 0.53350 -0.03240 0.41230
N2 N 0.8933(2) 0.9891(2) 1.0594(2)
H34 H 0.87260 0.94310 0.99110
H35 H 0.97250 0.99510 1.10370
C38 C 0.8848(3) 1.0989(3) 1.0740(2)
H36 H 0.80340 1.09280 1.03850
H37 H 0.92470 1.12390 1.03810
H38 H 0.92050 1.15330 1.15520
C39 C 0.8233(3) 0.9350(3) 1.0956(3)
H39 H 0.85450 0.97770 1.17830
H40 H 0.82530 0.85840 1.07320
H41 H 0.74350 0.93300 1.05940
O13 O 0.4168(7) -0.0424(8) -0.0179(6)
O14? O 0.4150(8) -0.1074(7) 0.0108(8)
O15 O 0.4329(10) -0.1466(8) 0.1984(9)
O16? O 0.498(1) -0.1846(10) 0.1749(9)
N3 N 0.5458(5) 0.6445(5) 0.9254(6)
O17 O 0.6041(19) 0.655(2) 1.0852(11)
C40 C 0.6283(9) 0.6307(9) 1.0017(10)
H42 H 0.69160 0.60800 0.99550
C41 C 0.462(2) 0.702(2) 0.934(2)
H43 H 0.39320 0.66610 0.86060
H44 H 0.49590 0.78070 0.95700
H45 H 0.44100 0.69820 0.99130
C42 C 0.5614(12) 0.6328(11) 0.8272(11)
H46 H 0.64390 0.65850 0.84970
H47 H 0.52360 0.67810 0.79800
H48 H 0.52720 0.55390 0.76790
Zn1* Zn 0.77268(2) 0.87346(2) 0.72186(2)
Zn1A Zn 0.22732(2) 0.12654(2) 0.27814(2)
Zn1A* Zn 1.22732(2) 0.12654(2) 0.27814(2)
O5* O 0.83864(15) -0.17171(14) 0.83798(14)
O8A O 0.60700(14) -0.16810(14) 0.67686(14)
O11A O 0.77205(14) -0.20623(15) 0.57414(14)
N1A N 0.3714(2) -0.1226(2) 0.4500(2)
H29A H 0.32330 -0.10820 0.39650
H30A H 0.38030 -0.18690 0.40240
H31A H 0.34400 -0.14060 0.48550
C37A C 0.4797(3) -0.0253(4) 0.5292(4)
H32A H 0.54060 -0.05010 0.56840
H33A H 0.46650 0.03240 0.58770
#END
