
#######################################################################
#
#                 Cambridge Crystallographic Data Centre
#                                CCDC
#
#######################################################################
#
# If this CIF has been generated from an entry in the Cambridge
# Structural Database, then it will include bibliographic, chemical,
# crystal, experimental, refinement or atomic coordinate data resulting
# from the CCDC's data processing and validation procedures.
#
#######################################################################

data_CSD_CIF_NOFDUI
_audit_creation_date 2008-12-16
_audit_creation_method CSD-ConQuest-V1
_database_code_CSD NOFDUI
_database_code_depnum_ccdc_archive 'CCDC 697803'
_chemical_formula_sum 'C28 H42 Co2 N2 O10'
_chemical_formula_moiety
;
(C6 H11 N2 1+)n,n(C22 H31 Co2 O10 1-)
;
_journal_coden_Cambridge 9
_journal_volume 47
_journal_year 2008
_journal_page_first 5567
_journal_name_full 'Inorg.Chem. '
loop_
_publ_author_name
"Shumei Chen"
"Jian Zhang"
"Xianhui Bu"
_chemical_name_systematic
;
catena-(1-Ethyl-3-methylimidazolium 
bis(\m~4~-D-camphorato)-(\m~2~-acetato)-di-cobalt(ii))
;
_cell_volume   3143.333
_exptl_crystal_colour 'purple'
_exptl_crystal_density_diffrn 1.446
_exptl_special_details
;
Absolute configuration

;
_diffrn_ambient_temperature 293
#These two values have been output from a single CSD field.
_refine_ls_R_factor_gt 0.0628
_refine_ls_wR_factor_gt 0.0628
_symmetry_cell_setting orthorhombic
_symmetry_space_group_name_H-M 'P 21 21 21'
_symmetry_Int_Tables_number 19
loop_
_symmetry_equiv_pos_site_id
_symmetry_equiv_pos_as_xyz
1 x,y,z
2 1/2-x,-y,1/2+z
3 -x,1/2+y,1/2-z
4 1/2+x,1/2-y,-z
_cell_length_a 13.3346(10)
_cell_length_b 13.4613(9)
_cell_length_c 17.5115(10)
_cell_angle_alpha 90
_cell_angle_beta 90
_cell_angle_gamma 90
_cell_formula_units_Z 4
loop_
_atom_type_symbol
_atom_type_radius_bond
C 0.68
H 0.23
Co 1.19
N 0.68
O 0.68
loop_
_atom_site_label
_atom_site_type_symbol
_atom_site_fract_x
_atom_site_fract_y
_atom_site_fract_z
Co1 Co -0.26694(8) -0.49008(9) -0.42598(4)
Co2 Co -0.23426(8) -0.50893(9) -0.58387(4)
O1 O -0.4035(4) -0.5283(5) -0.4699(3)
O2 O -0.3789(5) -0.5585(5) -0.5932(3)
O3 O -0.6944(5) -0.8490(5) -0.4494(3)
O4 O -0.7311(5) -0.8624(4) -0.5746(3)
O5 O -0.2934(5) -0.3477(5) -0.4561(3)
O6 O -0.2844(5) -0.3657(5) -0.5812(3)
O7 O -0.6200(5) -0.0432(5) -0.5777(3)
O8 O -0.5967(5) -0.0381(5) -0.4522(3)
O9 O -0.3137(4) -0.4752(4) -0.1923(2)
O10 O -0.3131(4) -0.4779(5) -0.3170(2)
C1 C -0.5462(7) -0.5807(6) -0.5448(4)
C2 C -0.5568(7) -0.6963(7) -0.5535(5)
C3 C -0.6687(7) -0.7084(7) -0.5303(4)
H1 H -0.70970 -0.68160 -0.57190
C4 C -0.6826(7) -0.6392(6) -0.4602(4)
H2 H -0.75080 -0.61430 -0.45770
H3 H -0.66770 -0.67420 -0.41310
C5 C -0.6098(7) -0.5558(7) -0.4726(5)
H4 H -0.56650 -0.54870 -0.42850
H5 H -0.64570 -0.49390 -0.48010
C6 C -0.5850(6) -0.5230(7) -0.6117(5)
H6 H -0.57720 -0.45320 -0.60200
H7 H -0.65460 -0.53790 -0.61930
H8 H -0.54780 -0.54080 -0.65660
C7 C -0.5373(10) -0.7326(10) -0.6345(6)
H9 H -0.57970 -0.69720 -0.66950
H10 H -0.55160 -0.80240 -0.63760
H11 H -0.46830 -0.72120 -0.64750
C8 C -0.4838(9) -0.7563(9) -0.4995(9)
H12 H -0.49190 -0.73380 -0.44780
H13 H -0.41570 -0.74580 -0.51540
H14 H -0.49940 -0.82590 -0.50240
C9 C -0.4312(7) -0.5529(6) -0.5320(5)
C10 C -0.7011(7) -0.8139(7) -0.5173(4)
C11 C -0.3263(6) -0.2054(6) -0.5339(4)
C12 C -0.4426(7) -0.1919(7) -0.5497(5)
C13 C -0.4571(7) -0.0788(7) -0.5328(4)
H15 H -0.43180 -0.04190 -0.57700
C14 C -0.3885(8) -0.0564(9) -0.4662(5)
H16 H -0.42680 -0.05050 -0.41930
H17 H -0.35250 0.00520 -0.47470
C15 C -0.3146(8) -0.1450(8) -0.4614(5)
H18 H -0.24630 -0.12100 -0.45680
H19 H -0.32980 -0.18560 -0.41710
C16 C -0.2652(8) -0.1627(7) -0.6002(5)
H20 H -0.19500 -0.17130 -0.59010
H21 H -0.27970 -0.09320 -0.60560
H22 H -0.28260 -0.19670 -0.64650
C17 C -0.4720(9) -0.2208(10) -0.6321(5)
H23 H -0.54260 -0.21060 -0.63910
H24 H -0.45620 -0.28950 -0.64070
H25 H -0.43550 -0.18030 -0.66760
C18 C -0.5040(6) -0.250(1) -0.4983(10)
H26 H -0.57360 -0.23960 -0.51010
H27 H -0.49130 -0.22980 -0.44660
H28 H -0.48810 -0.31920 -0.50400
C19 C -0.3001(7) -0.3162(7) -0.5219(4)
C20 C -0.5635(7) -0.0516(7) -0.5225(5)
C21 C -0.1726(6) -0.5487(6) -0.2560(5)
H29 H -0.15220 -0.55880 -0.30800
H30 H -0.17850 -0.61180 -0.23080
H31 H -0.12340 -0.50880 -0.23020
C22 C -0.2702(5) -0.4974(5) -0.2546(3)
C23 C 0.615(2) -0.837(2) -0.2898(17)
H32 H 0.68420 -0.84670 -0.30340
H33 H 0.57280 -0.86590 -0.32800
H34 H 0.60200 -0.86710 -0.24130
C24 C 0.5969(13) -0.7415(11) -0.2855(9)
H35 H 0.61240 -0.71250 -0.33480
H36 H 0.64360 -0.71330 -0.24890
C25 C 0.4091(10) -0.7626(9) -0.2746(9)
H37 H 0.40540 -0.82710 -0.29320
C26 C 0.3702(11) -0.6128(7) -0.248(1)
H38 H 0.33180 -0.55550 -0.24270
C27 C 0.4705(10) -0.6164(9) -0.2513(10)
H39 H 0.51470 -0.56350 -0.24590
C28 C 0.2262(9) -0.7361(9) -0.2535(9)
H40 H 0.22150 -0.80730 -0.25530
H41 H 0.19340 -0.70840 -0.29740
H42 H 0.19430 -0.71210 -0.20790
N1 N 0.4932(8) -0.7075(8) -0.2634(12)
N2 N 0.3344(6) -0.7059(6) -0.2535(6)
Co1C Co -0.76694(8) -1.00992(9) -0.57402(4)
Co1C* Co -0.76694(8) -0.00992(9) -0.57402(4)
Co2A Co -0.26574(8) -0.49107(9) -0.08387(4)
Co2C Co -0.73426(8) -0.99107(9) -0.41613(4)
Co2C* Co -0.73426(8) 0.00893(9) -0.41613(4)
O3C O -0.1944(5) -0.6510(5) -0.5506(3)
O4C O -0.2311(5) -0.6376(4) -0.4254(3)
O7C O -0.1200(5) -0.4568(5) -0.4223(3)
O8C O -0.0967(5) -0.4619(5) -0.5478(3)
O9A O -0.1863(4) -0.5248(4) -0.6923(2)
#END
