
#######################################################################
#
#                 Cambridge Crystallographic Data Centre
#                                CCDC
#
#######################################################################
#
# If this CIF has been generated from an entry in the Cambridge
# Structural Database, then it will include bibliographic, chemical,
# crystal, experimental, refinement or atomic coordinate data resulting
# from the CCDC's data processing and validation procedures.
#
#######################################################################

data_CSD_CIF_NOFHOI
_audit_creation_date 2019-06-19
_audit_creation_method CSD-ConQuest-V1
_database_code_CSD NOFHOI
_database_code_depnum_ccdc_archive 'CCDC 1555576'
_chemical_formula_sum 'C17 H15 Dy1 N4 O10'
_chemical_formula_moiety
;
(C14 H10 Dy1 N2 O10 1-)n,C3 H5 N2 1+
;
_journal_coden_Cambridge 603
_journal_volume 38
_journal_year 2019
_journal_page_first 977
_journal_name_full 'Jiegou Huaxue(Chin.)(Chin.J.Struct.Chem.) '
loop_
_publ_author_name
"Yan-Mei Chen"
"Lian Li"
"Lei Qiu"
"Qing Li"
"Wan-Ju Zhang"
_chemical_name_systematic
;
catena-[1H-imidazol-3-ium 
bis(\m-pyridine-2,5-dicarboxylato)-diaqua-dysprosium(iii)]
;
_cell_volume    988.937
_exptl_crystal_colour 'colorless'
_exptl_crystal_density_diffrn 2.008
_exptl_crystal_description 'block'
_diffrn_ambient_temperature 293
#These two values have been output from a single CSD field.
_refine_ls_R_factor_gt 0.0216
_refine_ls_wR_factor_gt 0.0216
_symmetry_cell_setting triclinic
_symmetry_space_group_name_H-M 'P -1'
_symmetry_Int_Tables_number 2
loop_
_symmetry_equiv_pos_site_id
_symmetry_equiv_pos_as_xyz
1 x,y,z
2 -x,-y,-z
_cell_length_a 9.3996(6)
_cell_length_b 10.6547(7)
_cell_length_c 11.1441(7)
_cell_angle_alpha 64.088(1)
_cell_angle_beta 80.275(1)
_cell_angle_gamma 87.407(1)
_cell_formula_units_Z 2
loop_
_atom_type_symbol
_atom_type_radius_bond
C 0.68
H 0.23
Dy 1.92
N 0.68
O 0.68
loop_
_atom_site_label
_atom_site_type_symbol
_atom_site_fract_x
_atom_site_fract_y
_atom_site_fract_z
Dy1 Dy 0.192650(15) 0.106530(15) 0.222030(14)
O1 O 0.1674(2) 0.1417(3) 0.4200(2)
O2 O 0.9437(2) 0.1496(3) 0.2365(2)
O3 O 0.8370(3) 0.0840(3) 0.1081(3)
O4 O 0.0778(3) -0.1033(3) 0.3891(3)
H1 H 0.12970 -0.16880 0.39400
H2 H -0.00010 -0.11630 0.44490
O5 O 0.2542(4) 0.5648(3) -0.0069(3)
O6 O 0.1903(3) 0.3456(2) 0.1392(2)
O7 O 0.2565(3) 0.2268(4) 0.5429(3)
O8 O 0.1134(3) 0.0546(3) 0.0590(3)
H3 H 0.02220 0.06090 0.06550
H4 H 0.15770 0.03340 -0.00230
N1 N 0.4313(3) 0.1361(3) 0.2884(3)
N2 N 0.3610(3) 0.2442(3) -0.0068(3)
C1 C 0.5642(3) 0.1212(4) 0.2299(3)
H5 H 0.57250 0.09710 0.15830
C2 C 0.8347(4) 0.1232(4) 0.1992(3)
C3 C 0.6892(3) 0.1401(3) 0.2709(3)
C4 C 0.2689(4) 0.1820(3) 0.4570(3)
C5 C 0.4209(3) 0.1711(3) 0.3919(3)
C6 C 0.3664(4) 0.3821(4) -0.0506(3)
C7 C 0.5403(4) 0.1922(4) 0.4386(3)
H6 H 0.52950 0.21720 0.50970
C8 C 0.4489(4) 0.1904(4) -0.0790(3)
H7 H 0.44320 0.09460 -0.05150
C9 C 0.2617(4) 0.4367(4) 0.0332(4)
C10 C 0.6762(4) 0.1756(4) 0.3780(3)
H8 H 0.75810 0.18810 0.40870
C11 C 0.5480(4) 0.2698(4) -0.1926(3)
C12 C 0.6511(4) 0.2017(4) -0.2632(3)
C13 C 0.5534(5) 0.4133(4) -0.2354(4)
H9 H 0.61850 0.47030 -0.31100
O9 O 0.7268(3) 0.2801(3) -0.3723(3)
O10 O 0.6555(3) 0.0710(2) -0.2065(2)
C14 C 0.4601(5) 0.4697(4) -0.1634(4)
H10 H 0.46050 0.56560 -0.19070
N3 N 0.0919(4) 0.3428(4) 0.6855(3)
H11 H 0.12810 0.29230 0.64590
C15 C 0.0512(6) 0.5173(5) 0.7370(6)
H12 H 0.05520 0.60370 0.73830
N4 N -0.0426(4) 0.4092(4) 0.8191(4)
H13 H -0.10910 0.40880 0.88260
C16 C -0.0163(5) 0.3063(4) 0.7866(4)
H14 H -0.06610 0.22050 0.82830
C17 C 0.1366(6) 0.4749(5) 0.6542(6)
H15 H 0.21270 0.52630 0.58740
Dy1* Dy 1.192650(15) 0.106530(15) 0.222030(14)
Dy1A Dy 0.807350(15) -0.106530(15) -0.222030(14)
O2* O -0.0563(2) 0.1496(3) 0.2365(2)
O10A O 0.3445(3) -0.0710(2) 0.2065(2)
#END
