
#######################################################################
#
#                 Cambridge Crystallographic Data Centre
#                                CCDC
#
#######################################################################
#
# If this CIF has been generated from an entry in the Cambridge
# Structural Database, then it will include bibliographic, chemical,
# crystal, experimental, refinement or atomic coordinate data resulting
# from the CCDC's data processing and validation procedures.
#
#######################################################################

data_CSD_CIF_NOQLOV
_audit_creation_date 2009-05-21
_audit_creation_method CSD-ConQuest-V1
_database_code_CSD NOQLOV
_database_code_depnum_ccdc_archive 'CCDC 726243'
_chemical_formula_sum 'C5 H9 In1 N1 O10'
_chemical_formula_moiety
;
(C4 In1 O8 1-)n,0.5n(C2 H10 N2 2+),2n(H2 O1)
;
_journal_coeditor_code "IUCr LH2779"
_journal_coden_Cambridge 1370
_journal_volume 65
_journal_year 2009
_journal_page_first m394
_journal_name_full 'Acta Crystallogr.,Sect.E:Struct.Rep.Online '
loop_
_publ_author_name
"Qiaozhen Sun"
"Yang Liu"
"Hongwu Li"
"Zhi Luo"
_chemical_name_systematic
;
catena-(hemikis(Ethylenediammonium) 
bis(\m~2~-oxalato-O,O',O'',O''')-indium(iii) dihydrate)
;
_cell_volume   4278.478
_exptl_crystal_colour 'colorless'
_exptl_crystal_density_diffrn 2.223
_exptl_crystal_description 'block'
_diffrn_ambient_temperature 293
#These two values have been output from a single CSD field.
_refine_ls_R_factor_gt 0.018
_refine_ls_wR_factor_gt 0.018
_symmetry_cell_setting orthorhombic
_symmetry_space_group_name_H-M 'F d d 2'
_symmetry_Int_Tables_number 43
loop_
_symmetry_equiv_pos_site_id
_symmetry_equiv_pos_as_xyz
1 x,y,z
2 -x,-y,z
3 1/4+x,1/4-y,1/4+z
4 1/4-x,1/4+y,1/4+z
5 x,1/2+y,1/2+z
6 -x,1/2-y,1/2+z
7 1/4+x,3/4-y,3/4+z
8 1/4-x,3/4+y,3/4+z
9 1/2+x,y,1/2+z
10 1/2-x,-y,1/2+z
11 3/4+x,1/4-y,3/4+z
12 3/4-x,1/4+y,3/4+z
13 1/2+x,1/2+y,z
14 1/2-x,1/2-y,z
15 3/4+x,3/4-y,1/4+z
16 3/4-x,3/4+y,1/4+z
_cell_length_a 15.8498(4)
_cell_length_b 31.1643(8)
_cell_length_c 8.6618(2)
_cell_angle_alpha 90
_cell_angle_beta 90
_cell_angle_gamma 90
_cell_formula_units_Z 16
loop_
_atom_type_symbol
_atom_type_radius_bond
C 0.68
H 0.23
In 1.63
N 0.68
O 0.68
loop_
_atom_site_label
_atom_site_type_symbol
_atom_site_fract_x
_atom_site_fract_y
_atom_site_fract_z
In1 In 0.013694(15) 0.314689(7) 0.33266(6)
O1 O -0.06449(17) 0.27864(9) 0.1683(4)
O2 O 0.10165(19) 0.26861(9) 0.1750(4)
O3 O 0.04152(19) 0.35822(9) 0.1416(3)
O4 O 0.14920(17) 0.34173(8) 0.3713(3)
C1 C -0.0334(2) 0.25113(11) 0.0817(7)
C2 C 0.0620(2) 0.24552(11) 0.0823(7)
C3 C 0.1128(2) 0.37559(10) 0.1357(4)
C4 C 0.1740(2) 0.36645(11) 0.2696(5)
O5 O -0.07692(18) 0.22769(9) -0.0061(3)
O6 O 0.09025(18) 0.21856(9) -0.0112(4)
O7 O 0.13838(16) 0.39927(8) 0.0302(3)
O8 O 0.24530(18) 0.38498(9) 0.2625(4)
C5 C 0.2294(3) 0.2715(2) -0.2277(8)
H1 H 0.16870 0.26760 -0.22750
H2 H 0.24440 0.28640 -0.13320
N1 N 0.2527(3) 0.29883(17) -0.3608(6)
H3 H 0.30350 0.29130 -0.39490
H4 H 0.25340 0.32620 -0.33160
H5 H 0.21500 0.29540 -0.43600
O9 O 0.25000 0.25000 0.3570(7)
H6 H 0.29380 0.24450 0.30400
O10 O 0.0119(6) 0.3117(3) -0.173(3)
H7 H 0.01880 0.28480 -0.18470
H8 H 0.00100 0.31730 -0.07930
O11 O 0.1418(3) 0.36723(19) -0.2928(7)
H9 H 0.11230 0.37880 -0.36320
H10 H 0.15420 0.38570 -0.22440
In1E In -0.013694(15) 0.185311(7) -0.16734(6)
In1F In 0.263694(15) 0.435311(7) 0.08266(6)
O5E O 0.07692(18) 0.27231(9) 0.4939(3)
O6E O -0.09025(18) 0.28144(9) 0.4888(4)
O7N O -0.11162(16) 0.35073(8) 0.2802(3)
O8N O -0.00470(18) 0.36502(9) 0.5125(4)
C5M C 0.2706(3) 0.2285(2) -0.2277(8)
H1M H 0.33130 0.23240 -0.22750
H2M H 0.25560 0.21360 -0.13320
N1M N 0.2473(3) 0.20117(17) -0.3608(6)
H3M H 0.19650 0.20870 -0.39490
H4M H 0.24660 0.17380 -0.33160
H5M H 0.28500 0.20460 -0.43600
H6M H 0.20620 0.25550 0.30400
#END
