
#######################################################################
#
#                 Cambridge Crystallographic Data Centre
#                                CCDC
#
#######################################################################
#
# If this CIF has been generated from an entry in the Cambridge
# Structural Database, then it will include bibliographic, chemical,
# crystal, experimental, refinement or atomic coordinate data resulting
# from the CCDC's data processing and validation procedures.
#
#######################################################################

data_CSD_CIF_NOSHAG
_audit_creation_date 2014-12-10
_audit_creation_method CSD-ConQuest-V1
_database_code_CSD NOSHAG
_database_code_depnum_ccdc_archive 'CCDC 1018018'
_chemical_formula_sum 'C20 H38 N2 O19 P4 U1'
_chemical_formula_moiety
;
(C12 H14 O19 P4 U1 2-)n,2(C4 H12 N1 1+)
;
_journal_coden_Cambridge 1290
_journal_year 2015
_journal_page_first 340
_journal_name_full 'Eur.J.Inorg.Chem. '
loop_
_publ_author_name
"P.O.Adelani"
"N.A.Martinez"
"N.D.Cook"
"P.C.Burns"
_chemical_name_systematic
;
catena-[bis(tetramethylammonium) 
bis(\m~2~-(2,5-dihydroxybenzene-1,4-diyl)bis(hydrogen 
(phosphonato)))-aqua-dioxo-uranium]
;
_cell_volume   6324.352
_exptl_crystal_colour 'yellow'
_exptl_crystal_density_diffrn 2.03
_exptl_special_details
;
Luminescent

;
_exptl_crystal_description 'tablet'
_exptl_crystal_preparation 'Hydrothermal'
_diffrn_ambient_temperature 100
#These two values have been output from a single CSD field.
_refine_ls_R_factor_gt 0.0229
_refine_ls_wR_factor_gt 0.0229
_symmetry_cell_setting orthorhombic
_symmetry_space_group_name_H-M 'F d d 2'
_symmetry_Int_Tables_number 43
loop_
_symmetry_equiv_pos_site_id
_symmetry_equiv_pos_as_xyz
1 x,y,z
2 -x,-y,z
3 1/4+x,1/4-y,1/4+z
4 1/4-x,1/4+y,1/4+z
5 x,1/2+y,1/2+z
6 -x,1/2-y,1/2+z
7 1/4+x,3/4-y,3/4+z
8 1/4-x,3/4+y,3/4+z
9 1/2+x,y,1/2+z
10 1/2-x,-y,1/2+z
11 3/4+x,1/4-y,3/4+z
12 3/4-x,1/4+y,3/4+z
13 1/2+x,1/2+y,z
14 1/2-x,1/2-y,z
15 3/4+x,3/4-y,1/4+z
16 3/4-x,3/4+y,1/4+z
_cell_length_a 15.9217(13)
_cell_length_b 46.458(3)
_cell_length_c 8.5500(6)
_cell_angle_alpha 90
_cell_angle_beta 90
_cell_angle_gamma 90
_cell_formula_units_Z 8
loop_
_atom_type_symbol
_atom_type_radius_bond
C 0.68
H 0.23
N 0.68
O 0.68
P 1.05
U 1.96
loop_
_atom_site_label
_atom_site_type_symbol
_atom_site_fract_x
_atom_site_fract_y
_atom_site_fract_z
U1 U 0.25000 0.75000 0.31293(3)
P1 P 0.25642(7) 0.69846(3) 0.65492(13)
P2 P 0.65490(7) 0.67892(2) 0.68750(14)
O1 O 0.14686(18) 0.76424(7) 0.3153(4)
O2 O 0.22800(19) 0.72197(7) 0.5451(4)
O3 O 0.2185(2) 0.66879(7) 0.5996(4)
O4 O 0.23201(19) 0.70288(7) 0.8224(6)
O5 O 0.68889(19) 0.66568(7) 0.5310(4)
O6 O 0.66857(18) 0.65772(6) 0.8172(4)
O7 O 0.6962(2) 0.70788(7) 0.7144(4)
O8 O 0.3995(2) 0.74530(7) 0.6917(5)
H1 H 0.35990 0.74930 0.63080
O9 O 0.5234(2) 0.63528(7) 0.6200(5)
H2 H 0.48520 0.62320 0.60380
O10 O 0.25000 0.75000 0.0221(6)
C1 C 0.3692(3) 0.69431(10) 0.6441(5)
C2 C 0.4028(3) 0.66688(10) 0.6288(5)
H3 H 0.36610 0.65110 0.61200
C3 C 0.4889(3) 0.66196(10) 0.6376(6)
C4 C 0.5438(3) 0.68498(9) 0.6631(5)
C5 C 0.5105(3) 0.71265(10) 0.6749(6)
H4 H 0.54740 0.72850 0.68840
C6 C 0.4243(3) 0.71743(10) 0.6672(6)
N1 N 0.4641(3) 0.66914(10) 0.1401(5)
C7 C 0.4608(8) 0.69547(17) 0.0402(12)
H5 H 0.44100 0.71180 0.10280
H6 H 0.42220 0.69220 -0.04720
H7 H 0.51700 0.69970 -0.00040
C8 C 0.4937(6) 0.64541(15) 0.0396(15)
H8 H 0.49760 0.62770 0.10140
H9 H 0.54920 0.65020 -0.00290
H10 H 0.45400 0.64260 -0.04660
C9 C 0.5240(6) 0.6761(2) 0.2637(12)
H11 H 0.53130 0.65940 0.33220
H12 H 0.50270 0.69240 0.32510
H13 H 0.57810 0.68130 0.21700
C10 C 0.3857(5) 0.66242(19) 0.2144(11)
H14 H 0.39180 0.64470 0.27570
H15 H 0.34230 0.65970 0.13450
H16 H 0.36950 0.67830 0.28370
P1M P 0.24358(7) 0.80154(3) 0.65492(13)
P2M P -0.15490(7) 0.82108(2) 0.68750(14)
O1M O 0.35314(18) 0.73576(7) 0.3153(4)
O2M O 0.27200(19) 0.77803(7) 0.5451(4)
O3M O 0.2815(2) 0.83121(7) 0.5996(4)
O4M O 0.26799(19) 0.79712(7) 0.8224(6)
O5M O -0.18889(19) 0.83432(7) 0.5310(4)
O6M O -0.16857(18) 0.84228(6) 0.8172(4)
O7M O -0.1962(2) 0.79212(7) 0.7144(4)
O8M O 0.1005(2) 0.75470(7) 0.6917(5)
H1M H 0.14010 0.75070 0.63080
O9M O -0.0234(2) 0.86472(7) 0.6200(5)
H2M H 0.01480 0.87680 0.60380
C1M C 0.1308(3) 0.80569(10) 0.6441(5)
C2M C 0.0972(3) 0.83312(10) 0.6288(5)
H3M H 0.13390 0.84890 0.61200
C3M C 0.0111(3) 0.83804(10) 0.6376(6)
C4M C -0.0438(3) 0.81502(9) 0.6631(5)
C5M C -0.0105(3) 0.78735(10) 0.6749(6)
H4M H -0.04740 0.77150 0.68840
C6M C 0.0757(3) 0.78257(10) 0.6672(6)
U1E U -0.25000 0.75000 0.81293(3)
U1E* U 0.75000 0.75000 0.81293(3)
O7E O 0.3038(2) 0.79212(7) 0.2144(4)
O7H O 0.1962(2) 0.70788(7) 0.2144(4)
#END
