
#######################################################################
#
#                 Cambridge Crystallographic Data Centre
#                                CCDC
#
#######################################################################
#
# If this CIF has been generated from an entry in the Cambridge
# Structural Database, then it will include bibliographic, chemical,
# crystal, experimental, refinement or atomic coordinate data resulting
# from the CCDC's data processing and validation procedures.
#
#######################################################################

data_CSD_CIF_NOTFOT
_audit_creation_date 2014-12-11
_audit_creation_method CSD-ConQuest-V1
_database_code_CSD NOTFOT
_database_code_depnum_ccdc_archive 'CCDC 940564'
_chemical_formula_sum 'C30 H20 N2 O16 S3 U2'
_chemical_formula_moiety
;
(C12 H14 N2 2+)n,n(C18 H6 O16 S3 U2 2-)
;
_journal_coden_Cambridge 1147
_journal_volume 15
_journal_year 2015
_journal_page_first 10
_journal_name_full 'Cryst.Growth Des. '
loop_
_publ_author_name
"Hao-Hong Li"
"Xian-Hua Zeng"
"Hong-Yan Wu"
"Xiang Jie"
"Shou-Tian Zheng"
"Zhi-Rong Chen"
_chemical_name_systematic
;
catena-[(1,1'-Dimethyl-4,4'-bipyridinium) 
tris(\m~2~-thiophene-2,5-dicarboxylato)-tetra-oxo-di-uranium]
;
_cell_volume   3532.889
_exptl_crystal_colour 'yellow'
_exptl_crystal_density_diffrn 2.325
_exptl_crystal_description 'Block'
_diffrn_ambient_temperature 293
#These two values have been output from a single CSD field.
_refine_ls_R_factor_gt 0.0304
_refine_ls_wR_factor_gt 0.0304
_symmetry_cell_setting monoclinic
_symmetry_space_group_name_H-M 'C 2/c'
_symmetry_Int_Tables_number 15
loop_
_symmetry_equiv_pos_site_id
_symmetry_equiv_pos_as_xyz
1 x,y,z
2 -x,y,1/2-z
3 1/2+x,1/2+y,z
4 1/2-x,1/2+y,1/2-z
5 -x,-y,-z
6 x,-y,-1/2+z
7 -1/2-x,-1/2-y,-z
8 -1/2+x,-1/2-y,-1/2+z
_cell_length_a 12.420(3)
_cell_length_b 18.132(4)
_cell_length_c 16.188(3)
_cell_angle_alpha 90
_cell_angle_beta 104.28(3)
_cell_angle_gamma 90
_cell_formula_units_Z 4
loop_
_atom_type_symbol
_atom_type_radius_bond
C 0.68
H 0.23
N 0.68
O 0.68
S 1.02
U 1.96
loop_
_atom_site_label
_atom_site_type_symbol
_atom_site_fract_x
_atom_site_fract_y
_atom_site_fract_z
U1 U 0.606258(18) 0.18380(1) 0.093431(12)
S1 S 0.50000 0.18797(10) -0.25000
S2 S 0.69106(15) 0.43337(8) 0.26431(9)
O1 O 0.5966(4) 0.3063(2) 0.1546(2)
O2 O 0.6624(4) 0.2183(2) 0.2463(2)
O3 O 0.8731(3) 0.5531(2) 0.4491(2)
O4 O 0.8075(4) 0.5783(2) 0.3126(2)
O5 O 0.5573(3) 0.16312(17) -0.0635(2)
O6 O 0.5278(3) 0.27635(18) -0.0238(2)
O7 O 0.7407(3) 0.2049(2) 0.0827(3)
O8 O 0.4709(3) 0.1620(2) 0.1019(3)
C1 C 0.6460(5) 0.2850(3) 0.2302(4)
C2 C 0.6956(5) 0.3419(3) 0.2934(3)
C3 C 0.7591(6) 0.3318(3) 0.3752(4)
H1 H 0.76990 0.28620 0.40250
C4 C 0.8057(5) 0.3981(3) 0.4131(3)
H2 H 0.85130 0.40090 0.46810
C5 C 0.7773(5) 0.4580(3) 0.3609(3)
C6 C 0.8206(5) 0.5341(3) 0.3743(3)
C7 C 0.5341(5) 0.2309(3) -0.0822(3)
C8 C 0.5127(5) 0.2534(3) -0.1725(3)
C9 C 0.5079(6) 0.3225(3) -0.2050(3)
H3 H 0.51420 0.36510 -0.17220
N1 N 0.7831(4) 0.5036(2) 0.1050(3)
C10 C 0.9025(5) 0.5018(3) 0.1508(4)
H4 H 0.93110 0.45280 0.14840
H5 H 0.91050 0.51580 0.20910
H6 H 0.94320 0.53560 0.12420
C11 C 0.7231(5) 0.5659(3) 0.0988(4)
H7 H 0.75620 0.60920 0.12360
C12 C 0.6125(5) 0.5657(3) 0.0555(4)
H8 H 0.57250 0.60950 0.04890
C13 C 0.5603(4) 0.5010(3) 0.0217(3)
C14 C 0.6245(4) 0.4370(3) 0.0295(3)
H9 H 0.59240 0.39280 0.00690
C15 C 0.7360(5) 0.4395(3) 0.0710(3)
H10 H 0.77900 0.39700 0.07560
O5A O 0.4427(3) 0.16312(17) -0.4365(2)
O6A O 0.4722(3) 0.27635(18) -0.4762(2)
C7A C 0.4659(5) 0.2309(3) -0.4178(3)
C8A C 0.4873(5) 0.2534(3) -0.3275(3)
C9A C 0.4921(6) 0.3225(3) -0.2950(3)
H3A H 0.48580 0.36510 -0.32780
U1A U 0.393742(18) 0.18380(1) -0.593431(12)
S2A S 0.30894(15) 0.43337(8) -0.76431(9)
O1A O 0.4034(4) 0.3063(2) -0.6546(2)
O2A O 0.3376(4) 0.2183(2) -0.7463(2)
O3A O 0.1269(3) 0.5531(2) -0.9491(2)
O4A O 0.1925(4) 0.5783(2) -0.8126(2)
O7A O 0.2593(3) 0.2049(2) -0.5827(3)
O8A O 0.5291(3) 0.1620(2) -0.6019(3)
C1A C 0.3540(5) 0.2850(3) -0.7302(4)
C2A C 0.3044(5) 0.3419(3) -0.7934(3)
C3A C 0.2409(6) 0.3318(3) -0.8752(4)
H1A H 0.23010 0.28620 -0.90250
C4A C 0.1943(5) 0.3981(3) -0.9131(3)
H2A H 0.14870 0.40090 -0.96810
C5A C 0.2227(5) 0.4580(3) -0.8609(3)
C6A C 0.1794(5) 0.5341(3) -0.8743(3)
U1B U 0.106258(18) 0.68380(1) -0.906569(12)
U1C U 0.893742(18) 0.68380(1) 0.406569(12)
O3B O 0.3731(3) 0.0531(2) -0.5509(2)
O3C O 0.6269(3) 0.0531(2) 0.0509(2)
O4B O 0.3075(4) 0.0783(2) -0.6874(2)
O4C O 0.6925(4) 0.0783(2) 0.1874(2)
N1D N 0.2169(4) 0.4964(2) -0.1050(3)
C10D C 0.0975(5) 0.4982(3) -0.1508(4)
H4D H 0.06890 0.54720 -0.14840
H5D H 0.08950 0.48420 -0.20910
H6D H 0.05680 0.46440 -0.12420
C11D C 0.2769(5) 0.4341(3) -0.0988(4)
H7D H 0.24380 0.39080 -0.12360
C12D C 0.3875(5) 0.4343(3) -0.0555(4)
H8D H 0.42750 0.39050 -0.04890
C13D C 0.4397(4) 0.4990(3) -0.0217(3)
C14D C 0.3755(4) 0.5630(3) -0.0295(3)
H9D H 0.40760 0.60720 -0.00690
C15D C 0.2640(5) 0.5605(3) -0.0710(3)
H10D H 0.22100 0.60300 -0.07560
#END
