
#######################################################################
#
#                 Cambridge Crystallographic Data Centre
#                                CCDC
#
#######################################################################
#
# If this CIF has been generated from an entry in the Cambridge
# Structural Database, then it will include bibliographic, chemical,
# crystal, experimental, refinement or atomic coordinate data resulting
# from the CCDC's data processing and validation procedures.
#
#######################################################################

data_CSD_CIF_NOTQES
_audit_creation_date 2002-03-14
_audit_creation_method CSD-ConQuest-V1
_database_code_CSD NOTQES
_database_code_depnum_ccdc_archive 'CCDC 176131'
_chemical_formula_sum 'C4 H36 B20 Cu2 N2'
_chemical_formula_moiety
;
(H20 B20 Cu2 2-)n,2n(C2 H8 N1 1+)
;
_journal_coden_Cambridge 93
_journal_volume 378
_journal_year 2001
_journal_page_first 351
_journal_name_full 'Dokl.Akad.Nauk SSSR(Russ.)(Proc.Nat.Acad.Sci.USSR) '
loop_
_publ_author_name
"E.A.Malinina"
"K.Yu.Zhizhin"
"L.V.Goeva"
"I.N.Polyakova"
"N.T.Kuznetsov"
_chemical_name_systematic
;
catena-(Dimethylammonium bis(\m~2~-closo-decaborate(10))-di-copper(i))
;
_chemical_name_common
;
catena-(Dimethylammonium bis(mu!2$-closo-decaborato)-di-copper(i))
;
_cell_volume   2338.609
_exptl_crystal_colour 'colorless'
_exptl_crystal_density_diffrn 1.294
_exptl_crystal_description 'needle'
_diffrn_ambient_temperature 295
#These two values have been output from a single CSD field.
_refine_ls_R_factor_gt 0.051
_refine_ls_wR_factor_gt 0.051
_symmetry_cell_setting triclinic
_symmetry_space_group_name_H-M 'P -1'
_symmetry_Int_Tables_number 2
loop_
_symmetry_equiv_pos_site_id
_symmetry_equiv_pos_as_xyz
1 x,y,z
2 -x,-y,-z
_cell_length_a 12.838(4)
_cell_length_b 13.421(5)
_cell_length_c 14.889(6)
_cell_angle_alpha 65.80(3)
_cell_angle_beta 89.32(3)
_cell_angle_gamma 88.09(3)
_cell_formula_units_Z 4
loop_
_atom_type_symbol
_atom_type_radius_bond
C 0.68
H 0.23
B 0.83
Cu 1.52
N 0.68
loop_
_atom_site_label
_atom_site_type_symbol
_atom_site_fract_x
_atom_site_fract_y
_atom_site_fract_z
Cu1 Cu -0.06512(8) -0.43873(7) 0.24334(8)
Cu2 Cu -0.04716(9) -0.92028(8) 0.19809(9)
B1 B -0.0157(7) -0.7481(6) 0.1429(6)
H1 H -0.01690 -0.79880 0.10440
B2 B -0.0450(7) -0.6185(6) 0.3176(6)
H2 H -0.04210 -0.58370 0.36400
B3 B -0.0690(6) -0.5691(6) 0.1954(7)
H3 H -0.08280 -0.49240 0.14630
B4 B 0.0611(7) -0.6275(6) 0.2492(6)
H4 H 0.12510 -0.59000 0.26060
B5 B -0.0026(6) -0.7480(6) 0.3368(7)
H5 H 0.01290 -0.79440 0.40850
B6 B -0.1326(7) -0.6879(6) 0.2823(6)
H6 H -0.21930 -0.68390 0.30570
B7 B 0.0210(6) -0.6264(6) 0.1334(7)
H7 H 0.05620 -0.56580 0.07290
B8 B 0.0650(7) -0.7532(6) 0.2339(7)
H8 H 0.14130 -0.79730 0.24000
B9 B -0.0702(7) -0.7956(7) 0.2573(7)
H9 H -0.10200 -0.88460 0.29110
B10 B -0.1179(7) -0.6714(6) 0.1568(6)
H10 H -0.18430 -0.65140 0.10030
B11 B -0.1177(7) -0.3065(7) 0.2819(7)
H11 H -0.14900 -0.38460 0.31120
B12 B 0.0517(7) -0.0681(7) 0.2101(8)
H12 H 0.09500 0.00240 0.19250
B13 B -0.0807(7) -0.0761(6) 0.1991(7)
H13 H -0.11870 -0.00210 0.16910
B14 B 0.0138(6) -0.1387(6) 0.1450(7)
H14 H 0.03040 -0.12280 0.07090
B15 B 0.0839(7) -0.2034(6) 0.2636(6)
H15 H 0.16410 -0.23530 0.28340
B16 B -0.0094(7) -0.1389(7) 0.3182(7)
H16 H -0.00170 -0.12330 0.37800
B17 B -0.1154(7) -0.1914(6) 0.1781(7)
H17 H -0.17080 -0.18150 0.11880
B18 B 0.0002(7) -0.2816(7) 0.2234(7)
H18 H 0.03760 -0.33410 0.19090
B19 B -0.0175(7) -0.2817(7) 0.3446(7)
H19 H 0.00750 -0.33240 0.41420
B20 B -0.1323(6) -0.1912(6) 0.2999(6)
H20 H -0.18390 -0.18440 0.35890
Cu3 Cu -0.47379(9) -0.71255(7) 0.30407(8)
Cu4 Cu -0.43777(8) -0.19050(7) 0.25440(8)
B21 B -0.4654(7) -0.3023(6) 0.1818(6)
H21 H -0.45170 -0.21580 0.13500
B22 B -0.5056(7) -0.5851(7) 0.3574(6)
H22 H -0.52350 -0.66680 0.41320
B23 B -0.4540(7) -0.5353(7) 0.2436(7)
H23 H -0.41980 -0.57660 0.19930
B24 B -0.5862(7) -0.4994(7) 0.2670(6)
H24 H -0.67460 -0.51050 0.25470
B25 B -0.5372(6) -0.4681(6) 0.3678(6)
H25 H -0.57340 -0.46370 0.43340
B26 B -0.4028(6) -0.5081(6) 0.3448(6)
H26 H -0.32710 -0.53570 0.39380
B27 B -0.5123(6) -0.4059(6) 0.1611(6)
H27 H -0.55440 -0.38630 0.08540
B28 B -0.5726(7) -0.3602(7) 0.2503(6)
H28 H -0.63800 -0.29940 0.23960
B29 B -0.4423(6) -0.3651(6) 0.3052(6)
H29 H -0.42410 -0.32530 0.34830
B30 B -0.3840(7) -0.4141(7) 0.2158(7)
H30 H -0.29810 -0.40500 0.18950
B31 B -0.5709(7) -0.8435(7) 0.2872(7)
H31 H -0.61490 -0.77390 0.30290
B32 B -0.3960(7) -1.0254(7) 0.2201(7)
H32 H -0.35190 -1.07460 0.19720
B33 B -0.5146(6) -1.0475(6) 0.2763(6)
H33 H -0.56520 -1.12460 0.29150
B34 B -0.4023(6) -1.0086(6) 0.3283(7)
H34 H -0.35360 -1.04490 0.38770
B35 B -0.3792(7) -0.8958(6) 0.2057(6)
H35 H -0.30950 -0.85690 0.16820
B36 B -0.4916(6) -0.9369(6) 0.1538(7)
H36 H -0.50260 -0.92470 0.08260
B37 B -0.5344(6) -0.9769(6) 0.3537(6)
H37 H -0.56330 -1.01470 0.43060
B38 B -0.4405(6) -0.8699(6) 0.3058(6)
H38 H -0.37970 -0.82150 0.33150
B39 B -0.5023(6) -0.8196(6) 0.1813(7)
H39 H -0.50600 -0.73900 0.11200
B40 B -0.5963(6) -0.9259(6) 0.2323(6)
H40 H -0.67050 -0.92860 0.20860
N1 N -0.7308(5) -0.6783(6) 0.0873(5)
H41 H -0.78440 -0.67340 0.12720
H42 H -0.67670 -0.72120 0.13010
C1 C -0.6892(7) -0.5703(6) 0.0348(6)
H43 H -0.63430 -0.57610 0.01150
H44 H -0.68730 -0.52960 0.07480
H45 H -0.73900 -0.52630 -0.02080
C2 C -0.7556(7) -0.7343(7) 0.0228(6)
H46 H -0.77710 -0.80460 0.05520
H47 H -0.80670 -0.68910 -0.02670
H48 H -0.69160 -0.73500 -0.01730
N2 N -0.2409(8) -0.3826(7) 0.5078(7)
H49 H -0.31540 -0.39850 0.52110
H50 H -0.24240 -0.36030 0.43920
C3 C -0.1854(6) -0.4821(7) 0.5558(7)
H51 H -0.19180 -0.51080 0.62070
H52 H -0.11270 -0.46990 0.53640
H53 H -0.20590 -0.53860 0.53150
C4 C -0.2369(8) -0.2959(7) 0.5418(6)
H54 H -0.16810 -0.29360 0.56540
H55 H -0.28300 -0.31610 0.59730
H56 H -0.25370 -0.23460 0.50330
N3 N -0.6780(6) -0.1758(6) 0.0332(5)
H57 H -0.65610 -0.15360 -0.03120
H58 H -0.61930 -0.21300 0.06920
C5 C -0.7611(6) -0.2489(7) 0.0459(7)
H59 H -0.73610 -0.31370 0.03500
H60 H -0.77880 -0.28160 0.11890
H61 H -0.81860 -0.21740 0.01050
C6 C -0.7040(7) -0.0758(7) 0.0490(7)
H62 H -0.74970 -0.03210 0.00430
H63 H -0.63880 -0.03870 0.05090
H64 H -0.73070 -0.10000 0.11790
N4 N -0.2246(7) 0.0985(10) 0.5945(7)
H65 H -0.17440 0.10270 0.63700
H66 H -0.27790 0.06420 0.63370
C7 C -0.1865(8) 0.0403(10) 0.5343(8)
H67 H -0.22940 0.05130 0.48450
H68 H -0.18150 -0.04060 0.58100
H69 H -0.11420 0.05790 0.51660
C8 C -0.2569(10) 0.2081(9) 0.5355(8)
H70 H -0.30770 0.20950 0.48820
H71 H -0.19710 0.24610 0.50040
H72 H -0.28870 0.24800 0.57910
B13* B -0.0807(7) -1.0761(6) 0.1991(7)
Cu2* Cu -0.04716(9) 0.07972(8) 0.19809(9)
B12* B 0.0517(7) -1.0681(7) 0.2101(8)
H12* H 0.09500 -0.99760 0.19250
H13* H -0.11870 -1.00210 0.16910
B33* B -0.5146(6) -0.0475(6) 0.2763(6)
Cu4* Cu -0.43777(8) -1.19050(7) 0.25440(8)
B32* B -0.3960(7) -0.0254(7) 0.2201(7)
H32* H -0.35190 -0.07460 0.19720
H33* H -0.56520 -0.12460 0.29150
#END
