
#######################################################################
#
#                 Cambridge Crystallographic Data Centre
#                                CCDC
#
#######################################################################
#
# If this CIF has been generated from an entry in the Cambridge
# Structural Database, then it will include bibliographic, chemical,
# crystal, experimental, refinement or atomic coordinate data resulting
# from the CCDC's data processing and validation procedures.
#
#######################################################################

data_CSD_CIF_NOWGOX
_audit_creation_date 2014-12-15
_audit_creation_method CSD-ConQuest-V1
_database_code_CSD NOWGOX
_database_code_depnum_ccdc_archive 'CCDC 902082'
_chemical_formula_sum 'C24 H26 Ag6 Mo12 N20 O44 Si1'
_chemical_formula_moiety
;
(Mo12 O40 Si1 4-)n,2n(C12 H9 Ag3 N10 2+),4n(H2 O1)
;
_journal_coden_Cambridge 580
_journal_volume 87
_journal_year 2015
_journal_page_first 329
_journal_name_full 'Polyhedron '
loop_
_publ_author_name
"Ming-Xing Yang"
"Shen Lin"
"Li-Juan Chen"
"Xiao-Hua Chen"
"Xiu-Hong Yang"
"Jing Guo"
_chemical_name_systematic
;
catena-(bis((\m~5~-5-(3-Pyridyl)tetrazolato)-(\m~3~-5-(3-pyridyl)-1H-tetrazole
)-tri-silver) 
(\m~12~-silicato)-tetracosakis(\m~2~-oxo)-dodecaoxo-dodeca-molybdenum 
tetrahydrate)
;
_cell_volume   1601.225
_exptl_crystal_colour 'yellow'
_exptl_crystal_density_diffrn 3.233
_exptl_crystal_description 'sheet'
_diffrn_ambient_temperature 293
_refine_special_details
;
O1,O2,O3,O8 disordered by symmetry over two configurations with occupancy 
0.50.
;
#These two values have been output from a single CSD field.
_refine_ls_R_factor_gt 0.0678
_refine_ls_wR_factor_gt 0.0678
_symmetry_cell_setting triclinic
_symmetry_space_group_name_H-M 'P -1'
_symmetry_Int_Tables_number 2
loop_
_symmetry_equiv_pos_site_id
_symmetry_equiv_pos_as_xyz
1 x,y,z
2 -x,-y,-z
_cell_length_a 10.198(4)
_cell_length_b 12.929(6)
_cell_length_c 13.409(5)
_cell_angle_alpha 77.404(12)
_cell_angle_beta 68.402(12)
_cell_angle_gamma 82.169(14)
_cell_formula_units_Z 1
loop_
_atom_type_symbol
_atom_type_radius_bond
C 0.68
H 0.23
Ag 1.45
Mo 1.54
N 0.68
O 0.68
Si 1.20
loop_
_atom_site_label
_atom_site_type_symbol
_atom_site_fract_x
_atom_site_fract_y
_atom_site_fract_z
Ag1 Ag -0.64519(9) -0.52351(8) 0.65262(7)
Ag2 Ag -0.74983(11) -0.49527(9) 0.95735(8)
Ag3 Ag -0.99311(9) -0.55317(9) 0.63337(7)
N1 N -0.9577(11) -0.6495(8) 0.9548(7)
H1 H -0.98730 -0.67230 1.02410
N2 N -0.8615(10) -0.5781(8) 0.8962(7)
N3 N -0.8462(8) -0.5618(7) 0.7925(6)
N4 N -0.9336(9) -0.6227(7) 0.7806(7)
N5 N -1.2296(15) -0.8990(11) 1.0331(12)
N6 N -0.7989(8) -0.4741(7) 0.3844(6)
N7 N -0.8009(8) -0.4992(6) 0.4882(6)
N8 N -0.6739(9) -0.4951(7) 0.4879(6)
N9 N -0.5856(8) -0.4645(6) 0.3846(6)
N10 N -0.6478(10) -0.4242(7) 0.0368(7)
C1 C -1.1496(15) -0.8166(11) 1.0095(12)
H2 H -1.13450 -0.79450 1.06570
C2 C -1.2551(19) -0.9336(11) 0.9496(19)
H3 H -1.31030 -0.99070 0.96490
C3 C -1.1969(13) -0.8814(10) 0.8471(13)
H4 H -1.21370 -0.90220 0.79100
C4 C -1.1145(12) -0.7995(9) 0.8231(10)
H5 H -1.07400 -0.76640 0.75090
C5 C -1.0894(11) -0.7644(8) 0.9041(9)
C6 C -0.9968(11) -0.6768(8) 0.8791(8)
C7 C -0.5526(12) -0.3490(9) -0.0134(8)
H6 H -0.53110 -0.32420 -0.08780
C8 C -0.6781(11) -0.4579(8) 0.1447(8)
H7 H -0.74110 -0.51110 0.18010
C9 C -0.4862(13) -0.3077(9) 0.0403(8)
H8 H -0.41840 -0.25840 0.00210
C10 C -0.5212(11) -0.3401(8) 0.1511(9)
H9 H -0.48000 -0.31130 0.18940
C11 C -0.6207(10) -0.4176(7) 0.2054(7)
C12 C -0.6662(10) -0.4522(7) 0.3241(7)
Mo1 Mo -0.84781(10) -0.05107(9) 0.68304(9)
Mo2 Mo -0.5711(1) -0.25164(7) 0.66598(7)
Mo3 Mo -0.34490(12) -0.13895(8) 0.28304(9)
Mo4 Mo -0.39767(11) -0.07141(7) 0.73168(8)
Mo5 Mo -0.21942(11) -0.19176(7) 0.50182(8)
Mo6 Mo -0.70276(11) -0.17038(8) 0.44998(10)
Si1 Si -0.50000 0.00000 0.50000
O1 O -0.6511(13) 0.0592(10) 0.5724(10)
O2 O -0.4476(13) -0.0935(9) 0.5710(11)
O3 O -0.6130(13) -0.0940(9) 0.5603(10)
O4 O -0.5540(14) 0.0189(11) 0.7808(12)
O5 O -0.2629(14) -0.2173(10) 0.3787(10)
O6 O -0.3468(10) -0.1048(10) 0.8384(7)
O7 O -0.2074(14) -0.0313(10) 0.2444(10)
O8 O -0.4673(14) 0.0411(10) 0.5964(11)
O9 O -0.2872(14) 0.0519(10) 0.6549(11)
O10 O -0.2463(10) -0.1445(9) 0.6272(8)
O11 O -0.8393(12) -0.1156(9) 0.5618(9)
O12 O -0.5120(12) -0.2032(9) 0.3491(10)
O13 O -1.0103(9) -0.0744(8) 0.7670(8)
O14 O -0.1209(14) -0.0786(10) 0.4118(10)
O15 O -0.3852(10) -0.2782(8) 0.5860(8)
O16 O -0.6104(11) -0.3663(6) 0.7528(7)
O17 O -0.2740(9) -0.1940(7) 0.1731(7)
O18 O -0.6371(12) -0.2671(10) 0.5590(9)
O19 O -0.5108(9) -0.1821(8) 0.7570(8)
O20 O -0.7891(9) -0.2521(6) 0.4220(7)
O21 O -0.0924(10) -0.2864(7) 0.499(1)
O22 O -0.7500(12) -0.1697(11) 0.7285(9)
O23 O -0.970(2) -0.3567(17) 0.6748(18)
O24 O -1.149(2) -0.3288(17) 0.8524(19)
Ag1A Ag -0.35481(9) -0.47649(8) 0.34738(7)
Ag2* Ag -0.74983(11) -0.49527(9) -0.04265(8)
Ag3A Ag -1.00689(9) -0.44683(9) 0.36663(7)
N6A N -1.2011(8) -0.5259(7) 0.6156(6)
N9A N -0.4144(8) -0.5355(6) 0.6154(6)
N10* N -0.6478(10) -0.4242(7) 1.0368(7)
O1A O -0.3489(13) -0.0592(10) 0.4276(10)
O2A O -0.5524(13) 0.0935(9) 0.4290(11)
O3A O -0.3870(13) 0.0940(9) 0.4397(10)
O8A O -0.5327(14) -0.0411(10) 0.4036(11)
Mo1A Mo -0.15219(10) 0.05107(9) 0.31696(9)
Mo2A Mo -0.4289(1) 0.25164(7) 0.33402(7)
Mo3A Mo -0.65510(12) 0.13895(8) 0.71696(9)
Mo4A Mo -0.60233(11) 0.07141(7) 0.26832(8)
Mo5A Mo -0.78058(11) 0.19176(7) 0.49818(8)
Mo6A Mo -0.29724(11) 0.17038(8) 0.55002(10)
O4A O -0.4460(14) -0.0189(11) 0.2192(12)
O5A O -0.7371(14) 0.2173(10) 0.6213(10)
O6A O -0.6532(10) 0.1048(10) 0.1616(7)
O7A O -0.7926(14) 0.0313(10) 0.7556(10)
O9A O -0.7128(14) -0.0519(10) 0.3451(11)
O10A O -0.7537(10) 0.1445(9) 0.3728(8)
O11A O -0.1607(12) 0.1156(9) 0.4382(9)
O12A O -0.4880(12) 0.2032(9) 0.6509(10)
O13A O 0.0103(9) 0.0744(8) 0.2330(8)
O14A O -0.8791(14) 0.0786(10) 0.5882(10)
O15A O -0.6148(10) 0.2782(8) 0.4140(8)
O16A O -0.3896(11) 0.3663(6) 0.2472(7)
O17A O -0.7260(9) 0.1940(7) 0.8269(7)
O18A O -0.3629(12) 0.2671(10) 0.4410(9)
O19A O -0.4892(9) 0.1821(8) 0.2430(8)
O20A O -0.2109(9) 0.2521(6) 0.5780(7)
O21A O -0.9076(10) 0.2864(7) 0.501(1)
O22A O -0.2500(12) 0.1697(11) 0.2715(9)
#END
