
#######################################################################
#
#                 Cambridge Crystallographic Data Centre
#                                CCDC
#
#######################################################################
#
# If this CIF has been generated from an entry in the Cambridge
# Structural Database, then it will include bibliographic, chemical,
# crystal, experimental, refinement or atomic coordinate data resulting
# from the CCDC's data processing and validation procedures.
#
#######################################################################

data_CSD_CIF_NOWXOP
_audit_creation_date 2019-10-21
_audit_creation_method CSD-ConQuest-V1
_database_code_CSD NOWXOP
_database_code_depnum_ccdc_archive 'CCDC 1896990'
_chemical_formula_sum 'C21 H25 In1 N4 O9'
_chemical_formula_moiety
;
C2 H8 N1 1+,n(C16 H10 In1 N2 O8 1-),C3 H7 N1 O1
;
_journal_coden_Cambridge 920
_journal_volume 14
_journal_year 2019
_journal_page_first 3552
_journal_name_full 'Chem.Asian J. '
loop_
_publ_author_name
"B.Zhou"
"Tengwu Zeng"
"Zhao-Lin Shi"
"Gen Zhang"
"S.Horike"
"Yue-Biao Zhang"
_chemical_name_systematic
;
catena-[dimethylammonium bis(\m-2-aminobenzene-1,4-dicarboxylato)-indium(iii) 
N,N-dimethylformamide solvate]
;
_cell_volume  12955.561
_exptl_crystal_colour 'colorless'
_exptl_crystal_description 'block'
_diffrn_ambient_temperature 150
_refine_special_details
;
The structure is disordered. Disordered solvent molecules were not modelled 
and the disordered density was taken into account using the SQUEEZE/PLATON 
procedure.
;
#These two values have been output from a single CSD field.
_refine_ls_R_factor_gt 0.0439
_refine_ls_wR_factor_gt 0.0439
_symmetry_cell_setting orthorhombic
_symmetry_space_group_name_H-M 'F d d d'
_symmetry_Int_Tables_number 70
loop_
_symmetry_equiv_pos_site_id
_symmetry_equiv_pos_as_xyz
1 x,y,z
2 3/4-x,3/4-y,z
3 3/4-x,y,3/4-z
4 x,3/4-y,3/4-z
5 x,1/2+y,1/2+z
6 3/4-x,1/4-y,1/2+z
7 3/4-x,1/2+y,1/4-z
8 x,1/4-y,1/4-z
9 1/2+x,y,1/2+z
10 1/4-x,3/4-y,1/2+z
11 1/4-x,y,1/4-z
12 1/2+x,3/4-y,1/4-z
13 1/2+x,1/2+y,z
14 1/4-x,1/4-y,z
15 1/4-x,1/2+y,3/4-z
16 1/2+x,1/4-y,3/4-z
17 -x,-y,-z
18 -3/4+x,-3/4+y,-z
19 -3/4+x,-y,-3/4+z
20 -x,-3/4+y,-3/4+z
21 -x,-1/2-y,-1/2-z
22 -3/4+x,-1/4+y,-1/2-z
23 -3/4+x,-1/2-y,-1/4+z
24 -x,-1/4+y,-1/4+z
25 -1/2-x,-y,-1/2-z
26 -1/4+x,-3/4+y,-1/2-z
27 -1/4+x,-y,-1/4+z
28 -1/2-x,-3/4+y,-1/4+z
29 -1/2-x,-1/2-y,-z
30 -1/4+x,-1/4+y,-z
31 -1/4+x,-1/2-y,-3/4+z
32 -1/2-x,-1/4+y,-3/4+z
_cell_length_a 15.3486(6)
_cell_length_b 27.1623(9)
_cell_length_c 31.0757(10)
_cell_angle_alpha 90
_cell_angle_beta 90
_cell_angle_gamma 90
_cell_formula_units_Z 16
loop_
_atom_type_symbol
_atom_type_radius_bond
C 0.68
H 0.23
In 1.42
N 0.68
O 0.68
loop_
_atom_site_label
_atom_site_type_symbol
_atom_site_fract_x
_atom_site_fract_y
_atom_site_fract_z
In1 In 0.62500 0.62500 0.43463(2)
O1 O 0.6466(2) 0.68590(13) 0.48295(10)
O2 O 0.51330(19) 0.66136(11) 0.47070(9)
O3 O 0.3546(2) 0.81780(11) 0.63237(9)
O4 O 0.48807(19) 0.83809(10) 0.64860(8)
N1 N 0.6822(5) 0.7502(4) 0.5450(3)
H1 H 0.70660 0.72900 0.52730
H2 H 0.71490 0.77010 0.56040
C1 C 0.5657(3) 0.68822(16) 0.49140(13)
C2 C 0.5336(3) 0.72207(16) 0.52564(13)
C3 C 0.5902(6) 0.7521(7) 0.5487(6)
C4 C 0.5547(8) 0.7844(11) 0.5791(10)
H3 H 0.59020 0.80870 0.59270
C5 C 0.4681(2) 0.78198(15) 0.59040(13)
C6 C 0.4120(7) 0.7511(8) 0.5681(7)
H4 H 0.35340 0.74620 0.57840
C7 C 0.4458(6) 0.7216(6) 0.5353(5)
H5 H 0.41150 0.69330 0.52600
C8 C 0.4353(3) 0.81441(14) 0.62574(12)
C9 C 0.4721(17) 0.7807(12) 0.4141(12)
H6 H 0.46260 0.75230 0.39530
H7 H 0.44460 0.77460 0.44210
H8 H 0.44660 0.81010 0.40100
N2 N 0.5611(17) 0.7878(10) 0.4199(10)
H9 H 0.58380 0.79110 0.39300
H10 H 0.58200 0.75890 0.43040
C10 C 0.601(2) 0.8260(12) 0.4456(12)
H11 H 0.66460 0.82270 0.44410
H12 H 0.58390 0.85830 0.43440
H13 H 0.58190 0.82280 0.47550
N3? N 0.6693(5) 0.7710(3) 0.5282(3)
H14? H 0.69010 0.75620 0.50520
H15? H 0.70010 0.79390 0.54110
C11? C 0.5865(6) 0.7580(6) 0.5442(5)
H16? H 0.59110 0.80840 0.59220
C12? C 0.5531(8) 0.7862(10) 0.5780(9)
H17? H 0.35170 0.75010 0.57500
C13? C 0.4131(7) 0.7483(7) 0.5706(6)
H18? H 0.40780 0.70090 0.51930
C14? C 0.4476(6) 0.7176(5) 0.5388(5)
H19? H 0.08290 0.76940 0.61430
C15? C 0.158(4) 0.8194(15) 0.5883(9)
H20? H 0.17870 0.79430 0.56820
H21? H 0.11380 0.84000 0.57410
H22? H 0.20650 0.84000 0.59770
N4? N 0.12500 0.7895(14) 0.62500
H23? H 0.08290 0.76940 0.61430
C16? C 0.148(3) 0.8032(15) 0.5957(9)
H24? H 0.20610 0.80010 0.58320
H25? H 0.11850 0.77110 0.59490
H26? H 0.11380 0.82710 0.57900
N5? N 0.1587(17) 0.8128(11) 0.6413(9)
H27? H 0.19420 0.79050 0.65430
H28? H 0.18990 0.84130 0.63990
C17? C 0.081(3) 0.8125(19) 0.6690(13)
H29? H 0.10740 0.82320 0.69610
H30? H 0.04240 0.83830 0.65810
H31? H 0.04720 0.78240 0.67390
O1M O 0.6034(2) 0.56410(13) 0.48295(10)
O2M O 0.73670(19) 0.58864(11) 0.47070(9)
O3M O 0.8954(2) 0.43220(11) 0.63237(9)
O4M O 0.76193(19) 0.41191(10) 0.64860(8)
N1M N 0.5678(5) 0.4998(4) 0.5450(3)
H1M H 0.54340 0.52100 0.52730
H2M H 0.53510 0.47990 0.56040
C1M C 0.6843(3) 0.56178(16) 0.49140(13)
C2M C 0.7164(3) 0.52793(16) 0.52564(13)
C3M C 0.6598(6) 0.4979(7) 0.5487(6)
C4M C 0.6953(8) 0.4656(11) 0.5791(10)
H3M H 0.65980 0.44130 0.59270
C5M C 0.7819(2) 0.46802(15) 0.59040(13)
C6M C 0.8380(7) 0.4989(8) 0.5681(7)
H4M H 0.89660 0.50380 0.57840
C7M C 0.8042(6) 0.5284(6) 0.5353(5)
H5M H 0.83850 0.55670 0.52600
C8M C 0.8147(3) 0.43559(14) 0.62574(12)
In1R In 0.87500 0.37500 0.68463(2)
In1S In 0.37500 0.87500 0.68463(2)
O3V O 0.6046(2) 0.68220(11) 0.38237(9)
O3W O 0.6454(2) 0.56780(11) 0.38237(9)
O4V O 0.73807(19) 0.66191(10) 0.39860(8)
O4W O 0.51193(19) 0.58809(10) 0.39860(8)
#END
