
#######################################################################
#
#                 Cambridge Crystallographic Data Centre
#                                CCDC
#
#######################################################################
#
# If this CIF has been generated from an entry in the Cambridge
# Structural Database, then it will include bibliographic, chemical,
# crystal, experimental, refinement or atomic coordinate data resulting
# from the CCDC's data processing and validation procedures.
#
#######################################################################

data_CSD_CIF_NOWYAC
_audit_creation_date 2019-10-21
_audit_creation_method CSD-ConQuest-V1
_database_code_CSD NOWYAC
_database_code_depnum_ccdc_archive 'CCDC 1896992'
_chemical_formula_sum 'C19 H22 In1 N3 O9'
_chemical_formula_moiety
;
C2 H8 N1 1+,n(C16 H10 In1 N2 O8 1-),C1 H4 O1
;
_journal_coden_Cambridge 920
_journal_volume 14
_journal_year 2019
_journal_page_first 3552
_journal_name_full 'Chem.Asian J. '
loop_
_publ_author_name
"B.Zhou"
"Tengwu Zeng"
"Zhao-Lin Shi"
"Gen Zhang"
"S.Horike"
"Yue-Biao Zhang"
_chemical_name_systematic
;
catena-[dimethylammonium bis(\m-2-aminobenzene-1,4-dicarboxylato)-indium(iii) 
methanol solvate]
;
_cell_volume  12802.230
_exptl_crystal_colour 'colorless'
_exptl_crystal_description 'block'
_diffrn_ambient_temperature 149.7
_refine_special_details
;
The structure is disordered. Disordered solvent molecules were not modelled 
and the disordered density was taken into account using the SQUEEZE/PLATON 
procedure.
;
#These two values have been output from a single CSD field.
_refine_ls_R_factor_gt 0.1254
_refine_ls_wR_factor_gt 0.1254
_symmetry_cell_setting orthorhombic
_symmetry_space_group_name_H-M 'F d d d'
_symmetry_Int_Tables_number 70
loop_
_symmetry_equiv_pos_site_id
_symmetry_equiv_pos_as_xyz
1 x,y,z
2 1/4-x,1/4-y,z
3 x,1/4-y,1/4-z
4 1/4-x,y,1/4-z
5 x,1/2+y,1/2+z
6 1/4-x,3/4-y,1/2+z
7 x,3/4-y,3/4-z
8 1/4-x,1/2+y,3/4-z
9 1/2+x,y,1/2+z
10 3/4-x,1/4-y,1/2+z
11 1/2+x,1/4-y,3/4-z
12 3/4-x,y,3/4-z
13 1/2+x,1/2+y,z
14 3/4-x,3/4-y,z
15 1/2+x,3/4-y,1/4-z
16 3/4-x,1/2+y,1/4-z
17 -x,-y,-z
18 -1/4+x,-1/4+y,-z
19 -x,-1/4+y,-1/4+z
20 -1/4+x,-y,-1/4+z
21 -x,-1/2-y,-1/2-z
22 -1/4+x,-3/4+y,-1/2-z
23 -x,-3/4+y,-3/4+z
24 -1/4+x,-1/2-y,-3/4+z
25 -1/2-x,-y,-1/2-z
26 -3/4+x,-1/4+y,-1/2-z
27 -1/2-x,-1/4+y,-3/4+z
28 -3/4+x,-y,-3/4+z
29 -1/2-x,-1/2-y,-z
30 -3/4+x,-3/4+y,-z
31 -1/2-x,-3/4+y,-1/4+z
32 -3/4+x,-1/2-y,-1/4+z
_cell_length_a 14.982(3)
_cell_length_b 27.325(5)
_cell_length_c 31.272(6)
_cell_angle_alpha 90
_cell_angle_beta 90
_cell_angle_gamma 90
_cell_formula_units_Z 16
loop_
_atom_type_symbol
_atom_type_radius_bond
C 0.68
H 0.23
In 1.42
N 0.68
O 0.68
loop_
_atom_site_label
_atom_site_type_symbol
_atom_site_fract_x
_atom_site_fract_y
_atom_site_fract_z
In1 In 0.12500 0.12500 0.42605(4)
O1 O 0.3973(6) -0.0675(4) 0.6251(3)
O2 O 0.1048(7) 0.0659(4) 0.4739(3)
O3 O 0.2588(7) -0.0889(4) 0.6388(3)
O4 O 0.2414(7) 0.0893(4) 0.4615(3)
C1 C 0.1868(8) 0.0640(5) 0.4830(4)
C2 C 0.2813(7) -0.0309(5) 0.5829(4)
C3 C 0.3332(9) 0.0075(6) 0.5681(5)
H1 H 0.38940 0.01410 0.58100
C4 C 0.2178(7) 0.0287(4) 0.5171(3)
C5 C 0.3153(8) -0.0629(5) 0.6185(4)
C6 C 0.1982(10) -0.0410(7) 0.5645(6)
H2 H 0.16440 -0.06850 0.57370
C7 C 0.1653(10) -0.0101(7) 0.5324(6)
C8 C 0.3028(10) 0.0366(7) 0.5343(6)
H3 H 0.33980 0.06180 0.52300
N1 N 0.0783(11) -0.0213(8) 0.5126(6)
H4 H 0.04780 -0.04710 0.52100
H5 H 0.05690 -0.00220 0.49240
C9 C 0.108(3) -0.1971(15) 0.6208(14)
H6 H 0.09250 -0.19180 0.65090
H7 H 0.05360 -0.19950 0.60370
H8 H 0.14250 -0.22740 0.61810
N2 N 0.162(2) -0.1554(13) 0.6053(10)
H9 H 0.21180 -0.15310 0.62220
H10 H 0.13030 -0.12750 0.60900
C10 C 0.192(3) -0.1573(17) 0.5602(11)
H11 H 0.22750 -0.12800 0.55370
H12 H 0.22910 -0.18650 0.55580
H13 H 0.14020 -0.15860 0.54140
C11? C 0.3096(9) 0.0230(6) 0.5231(5)
H14? H 0.35030 0.03870 0.50430
C12? C 0.1574(8) 0.0058(8) 0.5448(6)
C13? C 0.1898(9) -0.0246(8) 0.5771(6)
H15? H 0.14910 -0.04120 0.59540
C14? C 0.3418(9) -0.0058(8) 0.5566(6)
H16? H 0.40420 -0.00840 0.56160
N3? N 0.0603(10) 0.0118(9) 0.5385(6)
H17? H 0.02250 -0.00380 0.55520
H18? H 0.04020 0.03100 0.51800
O1A O -0.1473(6) 0.3175(4) 0.6251(3)
O2A O 0.1452(7) 0.1841(4) 0.4739(3)
O3A O -0.0088(7) 0.3389(4) 0.6388(3)
O4A O 0.0086(7) 0.1607(4) 0.4615(3)
C1A C 0.0632(8) 0.1860(5) 0.4830(4)
C2A C -0.0313(7) 0.2809(5) 0.5829(4)
C3A C -0.0832(9) 0.2425(6) 0.5681(5)
H1A H -0.13940 0.23590 0.58100
C4A C 0.0322(7) 0.2213(4) 0.5171(3)
C5A C -0.0653(8) 0.3129(5) 0.6185(4)
C6A C 0.0518(10) 0.2910(7) 0.5645(6)
H2A H 0.08560 0.31850 0.57370
C7A C 0.0847(10) 0.2601(7) 0.5324(6)
C8A C -0.0528(10) 0.2134(7) 0.5343(6)
H3A H -0.08980 0.18820 0.52300
N1A N 0.1717(11) 0.2713(8) 0.5126(6)
H4A H 0.20220 0.29710 0.52100
H5A H 0.19310 0.25220 0.49240
In1V In -0.12500 0.37500 0.67605(4)
In1Z In 0.37500 -0.12500 0.67605(4)
O1S O 0.1473(6) 0.0675(4) 0.3751(3)
O1DA O 0.1027(6) 0.1825(4) 0.3751(3)
O3S O 0.0088(7) 0.0889(4) 0.3888(3)
O3DA O 0.2412(7) 0.1611(4) 0.3888(3)
C9C C 0.142(3) -0.1971(15) 0.6292(14)
H6C H 0.15750 -0.19180 0.59910
H7C H 0.19640 -0.19950 0.64630
H8C H 0.10750 -0.22740 0.63190
N2C N 0.088(2) -0.1554(13) 0.6447(10)
H9C H 0.03820 -0.15310 0.62780
H10C H 0.11970 -0.12750 0.64100
C10C C 0.058(3) -0.1573(17) 0.6898(11)
H11C H 0.02250 -0.12800 0.69630
H12C H 0.02090 -0.18650 0.69420
H13C H 0.10980 -0.15860 0.70860
#END
