
#######################################################################
#
#                 Cambridge Crystallographic Data Centre
#                                CCDC
#
#######################################################################
#
# If this CIF has been generated from an entry in the Cambridge
# Structural Database, then it will include bibliographic, chemical,
# crystal, experimental, refinement or atomic coordinate data resulting
# from the CCDC's data processing and validation procedures.
#
#######################################################################

data_CSD_CIF_NOYJET
_audit_creation_date 2019-10-22
_audit_creation_method CSD-ConQuest-V1
_database_code_CSD NOYJET
_database_code_depnum_ccdc_archive 'CCDC 1920186'
_chemical_formula_sum 'C50 H64 Eu1 N9 O8'
_chemical_formula_moiety
;
(C46 H46 Eu1 N8 O5 1-)n,2(C2 H6 O1),H4 N1 1+,H2 O1
;
_journal_coden_Cambridge 1290
_journal_volume 2020
_journal_year 2019
_journal_page_first 94
_journal_name_full 'Eur.J.Inorg.Chem. '
loop_
_publ_author_name
"R.Z.H.Phe"
"B.W.Skelton"
"M.Massi"
"M.Ogden"
_chemical_name_systematic
;
catena-[ammonium 
(\m-5,11,17,23-tetra(prop-2-en-1-yl)-26,28-bis[(tetrazol-1-id-5-yl)methoxy]pen
tacyclo[19.3.1.1^3,7^.1^9,13^.1^15,19^]octacosa-1(25),3(28),4,6,9(27),10,12,15
(26),16,18,21,23-dodecaene-25,27-bis(olato))-(ethanol)-europium ethanol 
solvate monohydrate]
;
_cell_volume   4964.451
_exptl_crystal_colour 'orange'
_exptl_crystal_density_diffrn 1.433
_exptl_crystal_description 'needle'
_diffrn_ambient_temperature 100
#These two values have been output from a single CSD field.
_refine_ls_R_factor_gt 0.0706
_refine_ls_wR_factor_gt 0.0706
_symmetry_cell_setting monoclinic
_symmetry_space_group_name_H-M 'C c'
_symmetry_Int_Tables_number 9
loop_
_symmetry_equiv_pos_site_id
_symmetry_equiv_pos_as_xyz
1 x,y,z
2 x,-y,1/2+z
3 1/2+x,1/2+y,z
4 1/2+x,1/2-y,1/2+z
_cell_length_a 23.4393(14)
_cell_length_b 22.1593(12)
_cell_length_c 9.7424(5)
_cell_angle_alpha 90
_cell_angle_beta 101.163(5)
_cell_angle_gamma 90
_cell_formula_units_Z 4
loop_
_atom_type_symbol
_atom_type_radius_bond
C 0.68
H 0.23
Eu 1.98
N 0.68
O 0.68
loop_
_atom_site_label
_atom_site_type_symbol
_atom_site_fract_x
_atom_site_fract_y
_atom_site_fract_z
Eu1 Eu 0.49017(4) 0.37999(3) 0.49816(6)
O1 O 0.4992(4) 0.3103(4) 0.2888(9)
C1 C 0.4508(7) 0.2954(7) 0.1770(17)
H1 H 0.45060 0.25160 0.15630
H2 H 0.45370 0.31790 0.09090
C2 C 0.3967(6) 0.3128(6) 0.2274(15)
N1 N 0.3976(5) 0.3441(5) 0.3408(12)
N2 N 0.3410(5) 0.3554(6) 0.3463(12)
N3 N 0.3096(5) 0.3293(6) 0.2382(14)
N4 N 0.3431(5) 0.3013(6) 0.1579(14)
C3 C 0.5475(6) 0.2718(6) 0.2934(13)
C4 C 0.5972(7) 0.2949(7) 0.2550(16)
C5 C 0.6442(7) 0.2550(7) 0.2622(15)
H3 H 0.67810 0.26880 0.23210
C6 C 0.6434(7) 0.1966(7) 0.3107(17)
C7 C 0.6963(10) 0.1571(8) 0.321(3)
H4 H 0.72640 0.18070 0.28570
H5 H 0.71150 0.14910 0.42130
C8 C 0.6905(14) 0.1009(12) 0.250(4)
H6 H 0.71640 0.06880 0.28280
C9 C 0.6499(14) 0.0934(14) 0.142(3)
H7 H 0.62400 0.12560 0.10940
H8 H 0.64590 0.05580 0.09440
C10 C 0.5931(7) 0.1769(6) 0.3546(16)
H9 H 0.59190 0.13690 0.38870
C11 C 0.5448(6) 0.2138(6) 0.3501(14)
C12 C 0.4940(7) 0.1909(7) 0.4112(15)
H10 H 0.48210 0.15090 0.37020
H11 H 0.46070 0.21870 0.38400
O2 O 0.5792(4) 0.3975(5) 0.4712(10)
C13 C 0.6321(5) 0.4101(6) 0.4518(14)
C14 C 0.6732(6) 0.4406(6) 0.5553(15)
C15 C 0.7282(6) 0.4505(7) 0.5299(17)
H12 H 0.75560 0.47060 0.59960
C16 C 0.7454(6) 0.4329(7) 0.4087(17)
C17 C 0.8076(7) 0.4444(9) 0.391(2)
H13 H 0.81760 0.48720 0.41230
H14 H 0.81040 0.43710 0.29180
C18 C 0.8511(7) 0.404(1) 0.485(2)
H15 H 0.85290 0.40680 0.58330
C19 C 0.8859(9) 0.3660(11) 0.441(3)
H16 H 0.88530 0.36200 0.34390
H17 H 0.91190 0.34220 0.50660
C20 C 0.7046(6) 0.4031(7) 0.3093(17)
H18 H 0.71570 0.39030 0.22520
C21 C 0.6483(6) 0.3913(6) 0.3274(15)
C22 C 0.6042(6) 0.3593(7) 0.2156(14)
H19 H 0.56630 0.38020 0.20420
H20 H 0.61740 0.36110 0.12510
O3 O 0.5476(4) 0.4060(4) 0.7479(9)
C23 C 0.5338(7) 0.4548(7) 0.8327(16)
H21 H 0.56970 0.47650 0.87610
H22 H 0.51500 0.43900 0.90820
C24 C 0.4933(8) 0.4965(8) 0.7405(19)
N5 N 0.4744(4) 0.4830(5) 0.6061(11)
N6 N 0.4402(5) 0.5286(5) 0.5546(12)
N7 N 0.4391(5) 0.5676(6) 0.6520(13)
N8 N 0.4738(5) 0.5473(5) 0.7745(11)
C25 C 0.6005(6) 0.3771(6) 0.7999(14)
C26 C 0.5985(7) 0.3211(7) 0.8664(16)
C27 C 0.6510(7) 0.2923(7) 0.9208(15)
H23 H 0.65090 0.25410 0.96520
C28 C 0.7039(7) 0.3194(8) 0.9101(15)
C29 C 0.7606(7) 0.2864(9) 0.9700(19)
H24 H 0.75290 0.25580 1.03810
H25 H 0.77430 0.26500 0.89320
C30 C 0.8062(9) 0.3264(12) 1.039(3)
H26 H 0.80240 0.34190 1.12730
C31 C 0.8524(11) 0.3434(15) 0.990(4)
H27 H 0.85820 0.32920 0.90200
H28 H 0.87990 0.37000 1.04360
C32 C 0.7038(6) 0.3745(7) 0.8404(16)
H29 H 0.73970 0.39280 0.83340
C33 C 0.6526(7) 0.4029(7) 0.7816(16)
C34 C 0.6556(6) 0.4577(6) 0.6902(14)
H30 H 0.61710 0.47770 0.66970
H31 H 0.68400 0.48690 0.74120
O4 O 0.5214(4) 0.2918(4) 0.5863(9)
C35 C 0.5195(6) 0.2378(6) 0.6463(15)
C36 C 0.5079(7) 0.1852(7) 0.5711(18)
C37 C 0.5075(7) 0.1298(6) 0.6361(17)
H32 H 0.50090 0.09430 0.58060
C38 C 0.5167(7) 0.1249(6) 0.7818(18)
C39 C 0.5180(9) 0.0637(8) 0.852(2)
H33 H 0.55820 0.04790 0.86510
H34 H 0.50890 0.06950 0.94610
C40 C 0.4784(12) 0.0176(10) 0.778(3)
H35 H 0.43810 0.02690 0.75990
C41 C 0.4934(14) -0.0345(10) 0.737(3)
H36 H 0.53330 -0.04580 0.75270
H37 H 0.46460 -0.06140 0.68960
C42 C 0.5268(7) 0.1782(7) 0.8578(16)
H38 H 0.53200 0.17630 0.95690
C43 C 0.5296(6) 0.2332(7) 0.7957(14)
C44 C 0.5403(7) 0.2910(8) 0.8798(17)
H39 H 0.54070 0.28200 0.97950
H40 H 0.50800 0.31950 0.84690
O5 O 0.4204(4) 0.3660(4) 0.6539(10)
H41 H 0.413(8) 0.400(3) 0.682(18)
C45 C 0.3842(7) 0.3126(8) 0.6562(19)
H42 H 0.40180 0.27850 0.61380
H43 H 0.34540 0.32040 0.59800
C46 C 0.377(1) 0.2951(10) 0.799(2)
H44 H 0.41410 0.28010 0.85190
H45 H 0.34750 0.26330 0.79210
H46 H 0.36460 0.33030 0.84640
O6 O 0.3688(6) 0.5525(6) 0.2844(13)
H47 H 0.39530 0.53560 0.34180
C47 C 0.3256(9) 0.5098(11) 0.231(2)
H48 H 0.29470 0.51030 0.28680
H49 H 0.34290 0.46880 0.23700
C48 C 0.2997(10) 0.5239(12) 0.080(2)
H50 H 0.27650 0.56090 0.07540
H51 H 0.27480 0.49040 0.03900
H52 H 0.33100 0.52970 0.02750
O7 O 0.6897(5) 0.1715(6) 0.7001(15)
H53 H 0.72200 0.16340 0.67940
C49 C 0.6759(9) 0.1282(9) 0.789(3)
H54 H 0.63920 0.13970 0.81750
H55 H 0.70680 0.12720 0.87390
C50 C 0.6693(17) 0.0671(12) 0.727(4)
H56 H 0.64210 0.06850 0.63730
H57 H 0.65420 0.03980 0.79090
H58 H 0.70720 0.05250 0.71310
N9 N 0.6475(5) 0.2782(6) 0.5909(13)
H59 H 0.665(5) 0.282(6) 0.525(9)
H60 H 0.653(6) 0.244(3) 0.626(13)
H61 H 0.6116(16) 0.283(6) 0.561(13)
H62 H 0.659(6) 0.304(4) 0.652(10)
O8 O 0.7594(6) 0.2810(6) 0.5120(18)
H63 H 0.772(9) 0.313(6) 0.49(3)
H64 H 0.786(7) 0.259(9) 0.55(3)
Eu1A Eu 0.49017(4) 0.62001(3) 0.99816(6)
N8A N 0.4738(5) 0.4527(5) 0.2745(11)
#END
