
#######################################################################
#
#                 Cambridge Crystallographic Data Centre
#                                CCDC
#
#######################################################################
#
# If this CIF has been generated from an entry in the Cambridge
# Structural Database, then it will include bibliographic, chemical,
# crystal, experimental, refinement or atomic coordinate data resulting
# from the CCDC's data processing and validation procedures.
#
#######################################################################

data_CSD_CIF_NOZDEO
_audit_creation_date 2019-10-23
_audit_creation_method CSD-ConQuest-V1
_database_code_CSD NOZDEO
_database_code_depnum_ccdc_archive 'CCDC 1902062'
_chemical_formula_sum 'C24 H26 Cl3 Cu17 N36 O41 P1 W12'
_chemical_formula_moiety
;
(C8 H10 Cl1 Cu6 N12 O1 2+)n,n(C8 H8 Cl1 Cu6 N12 1+),n(C8 H8 Cl1 Cu5 N12),O40 
P1 W12 3-
;
_journal_coden_Cambridge 1440
_journal_volume 11
_journal_year 2019
_journal_page_first 37908
_journal_name_full 'ACS Applied Materials and Interfaces '
loop_
_publ_author_name
"Shenzhen Chang"
"Haiyan An"
"Yanhong Chen"
"Yujiao Hou"
"Jie Zhang"
"Qingshan Zhu"
_chemical_name_systematic
;
catena-[((\m-chloro)-tetrakis(\m-1,2,4-triazolyl)-aqua-copper(ii)-penta-copper
(i)) ((\m-chloro)-tetrakis(\m-1,2,4-triazolyl)-hexa-copper(i)) 
((\m-chloro)-tetrakis(\m-1,2,4-triazolyl)-penta-copper(i)) 
(\m-phosphato)-tetracosakis(\m-oxo)-dodeca-oxo-dodeca-tungsten]
;
_cell_volume   8108.068
_exptl_crystal_colour 'black'
_exptl_crystal_density_diffrn 4.013
_exptl_crystal_description 'block'
_diffrn_ambient_temperature 100
_diffrn_special_details
;
twin

;
_refine_special_details
;
The structure is disordered.

;
#These two values have been output from a single CSD field.
_refine_ls_R_factor_gt 0.0337
_refine_ls_wR_factor_gt 0.0337
_symmetry_cell_setting monoclinic
_symmetry_space_group_name_H-M 'C 2/c'
_symmetry_Int_Tables_number 15
loop_
_symmetry_equiv_pos_site_id
_symmetry_equiv_pos_as_xyz
1 x,y,z
2 -x,y,1/2-z
3 1/2+x,1/2+y,z
4 1/2-x,1/2+y,1/2-z
5 -x,-y,-z
6 x,-y,-1/2+z
7 -1/2-x,-1/2-y,-z
8 -1/2+x,-1/2-y,-1/2+z
_cell_length_a 20.880(3)
_cell_length_b 20.543(3)
_cell_length_c 20.654(3)
_cell_angle_alpha 90
_cell_angle_beta 113.765(3)
_cell_angle_gamma 90
_cell_formula_units_Z 4
loop_
_atom_type_symbol
_atom_type_radius_bond
C 0.68
H 0.23
Cl 0.99
Cu 1.32
N 0.68
O 0.68
P 1.05
W 1.62
loop_
_atom_site_label
_atom_site_type_symbol
_atom_site_fract_x
_atom_site_fract_y
_atom_site_fract_z
W1 W 0.40214(2) 0.96185(2) 0.29231(2)
O1 O 0.3674(4) 0.9049(4) 0.3281(4)
O2 O 0.4295(3) 1.0272(3) 0.3618(4)
O3 O 0.3904(4) 0.9196(3) 0.2046(4)
O4 O 0.4978(4) 0.9375(3) 0.3271(4)
O5 O 0.4345(3) 1.0397(3) 0.2228(4)
O6 O 0.3210(3) 1.0108(3) 0.2380(4)
W2 W 0.49855(2) 1.08688(2) 0.42167(2)
W3 W 0.40541(2) 0.95882(2) 0.12791(2)
P1 P 0.50000 1.08245(15) 0.25000
W4 W 0.31331(2) 1.07782(2) 0.16905(3)
O7 O 0.4292(3) 1.1538(3) 0.3860(4)
O8 O 0.5686(4) 1.1548(3) 0.4442(4)
O9 O 0.5000(4) 1.0743(3) 0.5034(4)
O10 O 0.4994(3) 1.1261(3) 0.3103(3)
O11 O 0.5657(3) 1.0268(3) 0.4175(3)
O12 O 0.3223(4) 1.0099(3) 0.1103(4)
O13 O 0.3746(4) 0.9012(4) 0.0646(4)
O14 O 0.3476(3) 1.1390(3) 0.1227(4)
O15 O 0.2257(4) 1.0923(4) 0.1338(5)
O16 O 0.3468(3) 1.1369(3) 0.2475(4)
W5 W 0.40962(2) 1.20209(2) 0.30178(3)
W6 W 0.58725(2) 1.20653(2) 0.37522(2)
O17 O 0.4981(4) 1.2454(3) 0.3509(4)
O18 O 0.4159(4) 1.2263(3) 0.2150(4)
O19 O 0.3545(4) 1.2592(4) 0.3088(4)
O20 O 0.6410(4) 1.2648(4) 0.4277(4)
Cu1 Cu 0.76338(8) 0.90703(6) 0.57487(8)
Cu2 Cu 0.88666(7) 0.78645(7) 0.58321(8)
Cu3 Cu 1.00607(8) 0.90932(7) 0.59138(8)
Cu4 Cu 0.88579(7) 1.02922(7) 0.57687(8)
Cu5 Cu 1.13780(7) 1.15628(7) 0.58147(8)
Cl1 Cl 0.8690(4) 0.9090(3) 0.5469(4)
N1 N 0.7458(4) 0.9986(4) 0.5686(5)
N2 N 0.7918(4) 1.0440(4) 0.5641(5)
N3 N 0.6947(5) 1.0933(5) 0.5523(7)
N4 N 0.7980(4) 0.7685(4) 0.5840(4)
N5 N 0.7489(4) 0.8159(4) 0.5782(5)
N6 N 0.7013(4) 0.7198(4) 0.5781(4)
N7 N 1.0223(4) 0.8191(4) 0.5829(5)
N8 N 0.9747(4) 0.7698(4) 0.5786(4)
N9 N 1.0670(6) 0.7258(5) 0.5723(6)
N10 N 0.9766(5) 1.0478(4) 0.5845(5)
N11 N 1.0248(4) 0.9987(4) 0.5878(4)
N12 N 1.0734(5) 1.0944(4) 0.5866(5)
C1 C 0.7585(6) 1.1001(6) 0.5545(7)
H1 H 0.77760 1.13980 0.54980
C2 C 0.6885(6) 1.0292(6) 0.5610(6)
H2 H 0.64870 1.00930 0.56150
C3 C 0.6921(5) 0.7844(5) 0.5732(5)
H3 H 0.65030 0.80480 0.56690
C4 C 0.7675(5) 0.7135(5) 0.5840(5)
H4 H 0.78940 0.67340 0.58770
C5 C 1.0030(6) 0.7156(5) 0.5728(6)
H5 H 0.98230 0.67500 0.56940
C6 C 1.0754(6) 0.7899(6) 0.5784(6)
H6 H 1.11490 0.81140 0.57930
C7 C 1.0802(6) 1.0290(5) 0.5881(6)
H7 H 1.12000 1.00770 0.58930
C8 C 1.0092(6) 1.1029(5) 0.5854(6)
H8 H 0.98970 1.14360 0.58510
Cu6 Cu 1.13348(14) 0.66191(14) 0.56850(16)
O21 O 1.2109(9) 0.7391(10) 0.5799(11)
N13 N 0.8169(4) 0.7372(4) 0.7552(4)
Cu7 Cu 0.74625(6) 1.17386(6) 0.73858(8)
N14 N 0.8096(4) 1.1102(4) 0.7324(5)
C9 C 0.8751(5) 1.1174(4) 0.7352(5)
N15 N 0.8625(4) 0.8331(4) 0.7481(4)
C10 C 0.8078(5) 0.8026(5) 0.7494(5)
H9 H 0.89540 1.15770 0.73500
N16 N 0.9108(4) 0.7849(4) 0.7505(4)
C11 C 0.8811(5) 0.7295(5) 0.7548(5)
C12 C 0.8030(5) 1.0454(5) 0.7348(6)
H10 H 0.76320 1.02470 0.73450
Cu8 Cu 1.00000 0.80193(8) 0.75000
Cl2 Cl 0.9920(4) 0.9230(2) 0.7259(3)
Cu9 Cu 0.87683(6) 0.92357(5) 0.74076(7)
N17 N 0.8599(4) 1.0141(4) 0.7377(4)
H11 H 0.76720 0.82360 0.74660
N18 N 0.9070(4) 1.0620(4) 0.7382(4)
Cu10 Cu 1.00000 1.04513(8) 0.75000
H12 H 0.90220 0.68910 0.75740
O5A O 0.5655(3) 1.0397(3) 0.2772(4)
O10A O 0.5006(3) 1.1261(3) 0.1897(3)
W1A W 0.59786(2) 0.96185(2) 0.20769(2)
O1A O 0.6326(4) 0.9049(4) 0.1719(4)
O2A O 0.5705(3) 1.0272(3) 0.1382(4)
O3A O 0.6096(4) 0.9196(3) 0.2954(4)
O4A O 0.5022(4) 0.9375(3) 0.1729(4)
O6A O 0.6790(3) 1.0108(3) 0.2620(4)
W2A W 0.50145(2) 1.08688(2) 0.07833(2)
W3A W 0.59459(2) 0.95882(2) 0.37209(2)
W4A W 0.68669(2) 1.07782(2) 0.33095(3)
O7A O 0.5708(3) 1.1538(3) 0.1140(4)
O8A O 0.4314(4) 1.1548(3) 0.0558(4)
O9A O 0.5000(4) 1.0743(3) -0.0034(4)
O11A O 0.4343(3) 1.0268(3) 0.0825(3)
O12A O 0.6777(4) 1.0099(3) 0.3897(4)
O13A O 0.6254(4) 0.9012(4) 0.4354(4)
O14A O 0.6524(3) 1.1390(3) 0.3773(4)
O15A O 0.7743(4) 1.0923(4) 0.3662(5)
O16A O 0.6532(3) 1.1369(3) 0.2525(4)
W5A W 0.59038(2) 1.20209(2) 0.19822(3)
W6A W 0.41275(2) 1.20653(2) 0.12478(2)
O17A O 0.5019(4) 1.2454(3) 0.1491(4)
O18A O 0.5841(4) 1.2263(3) 0.2850(4)
O19A O 0.6455(4) 1.2592(4) 0.1912(4)
O20A O 0.3590(4) 1.2648(4) 0.0723(4)
Cu5B Cu 0.63780(7) 0.65628(7) 0.58147(8)
N6B N 1.2013(4) 1.2198(4) 0.5781(4)
Cl2A Cl 1.0080(4) 0.9230(2) 0.7741(3)
N13A N 1.1831(4) 0.7372(4) 0.7448(4)
Cu7A Cu 1.25375(6) 1.17386(6) 0.76142(8)
N14A N 1.1904(4) 1.1102(4) 0.7676(5)
C9A C 1.1249(5) 1.1174(4) 0.7648(5)
N15A N 1.1375(4) 0.8331(4) 0.7519(4)
C10A C 1.1922(5) 0.8026(5) 0.7506(5)
H9A H 1.10460 1.15770 0.76500
N16A N 1.0892(4) 0.7849(4) 0.7495(4)
C11A C 1.1189(5) 0.7295(5) 0.7452(5)
C12A C 1.1970(5) 1.0454(5) 0.7652(6)
H10A H 1.23680 1.02470 0.76550
Cu9A Cu 1.12317(6) 0.92357(5) 0.75924(7)
N17A N 1.1401(4) 1.0141(4) 0.7623(4)
H11A H 1.23280 0.82360 0.75340
N18A N 1.0930(4) 1.0620(4) 0.7618(4)
H12A H 1.09780 0.68910 0.74260
N13B N 1.3169(4) 1.2372(4) 0.7552(4)
N13C N 0.6831(4) 1.2372(4) 0.7448(4)
Cu7B Cu 1.24625(6) 0.67386(6) 0.73858(8)
Cu7C Cu 0.75375(6) 0.67386(6) 0.76142(8)
#END
