
#######################################################################
#
#                 Cambridge Crystallographic Data Centre
#                                CCDC
#
#######################################################################
#
# If this CIF has been generated from an entry in the Cambridge
# Structural Database, then it will include bibliographic, chemical,
# crystal, experimental, refinement or atomic coordinate data resulting
# from the CCDC's data processing and validation procedures.
#
#######################################################################

data_CSD_CIF_NOZZOT
_audit_creation_date 2014-12-17
_audit_creation_method CSD-ConQuest-V1
_database_code_CSD NOZZOT
_database_code_depnum_ccdc_archive 'CCDC 1032924'
_chemical_formula_sum 'C80 H90 Cd4 N6 O24 Si2'
_chemical_formula_moiety
;
(C56 H32 Cd3 O16 Si2 2-)n,n(C16 H40 Cd1 N4 O6 2+),2n(C4 H9 N1 O1)
;
_journal_coden_Cambridge 1350
_journal_volume 17
_journal_year 2015
_journal_page_first 996
_journal_name_full 'CrystEngComm '
loop_
_publ_author_name
"Muwei Zhang"
"M.Bosch"
"Hong-Cai Zhou"
_chemical_name_systematic
;
catena-(Diaqua-tetrakis(dimethylacetamide)-cadmium 
bis(\m~7~-tetrakis(4-carboxylatophenyl)silane)-tri-cadmium dimethylacetamide 
solvate)
;
_chemical_name_common
;
PCN-514-DMA complex
;
_cell_volume   2190.585
_exptl_crystal_colour 'colorless'
_exptl_crystal_density_diffrn 1.535
_exptl_special_details
;
Moisture-sensitive

;
_exptl_crystal_description 'block'
_diffrn_ambient_temperature 110
#These two values have been output from a single CSD field.
_refine_ls_R_factor_gt 0.0239
_refine_ls_wR_factor_gt 0.0239
_symmetry_cell_setting triclinic
_symmetry_space_group_name_H-M 'P -1'
_symmetry_Int_Tables_number 2
loop_
_symmetry_equiv_pos_site_id
_symmetry_equiv_pos_as_xyz
1 x,y,z
2 -x,-y,-z
_cell_length_a 14.0970(19)
_cell_length_b 14.2015(19)
_cell_length_c 14.2649(19)
_cell_angle_alpha 115.663(1)
_cell_angle_beta 113.627(1)
_cell_angle_gamma 97.603(2)
_cell_formula_units_Z 1
loop_
_atom_type_symbol
_atom_type_radius_bond
C 0.68
H 0.23
Cd 1.44
N 0.68
O 0.68
Si 1.20
loop_
_atom_site_label
_atom_site_type_symbol
_atom_site_fract_x
_atom_site_fract_y
_atom_site_fract_z
Cd1 Cd 0.005654(11) 0.886635(12) 0.186954(12)
Cd2 Cd 0.00000 1.00000 0.00000
Si1 Si 0.26351(4) 1.64836(4) 0.68439(5)
O1 O 0.01879(14) 1.72021(13) 1.03279(15)
O2 O 0.07789(12) 1.89195(12) 1.07076(12)
O3 O 0.82670(12) 1.81659(14) 1.05562(14)
O4 O 0.82871(13) 1.90796(14) 0.96122(16)
C1 C 0.42041(16) 1.70440(17) 0.77459(18)
O5 O 0.05978(14) 1.06926(13) 0.31534(15)
C2 C 0.20702(16) 1.68322(17) 0.78868(18)
C3 C 0.11823(17) 1.75135(17) 0.94104(18)
C4 C 0.21825(17) 1.71808(17) 0.59739(18)
C5 C 0.06714(17) 1.78778(17) 1.01858(18)
O6 O 0.04866(16) 1.12317(14) 0.18642(14)
C6 C 0.11887(17) 1.26359(17) 0.38777(18)
C7 C 0.17116(17) 1.29775(17) 0.50902(19)
H1 H 0.17700 1.24350 0.53090
C8 C 0.07148(17) 1.14149(18) 0.28816(19)
C9 C 0.20681(16) 1.49352(16) 0.56958(18)
C10 C 0.21494(17) 1.41127(17) 0.59847(18)
H2 H 0.25120 1.43360 0.68110
C11 C 0.15384(18) 1.45668(18) 0.44663(19)
H3 H 0.14670 1.51020 0.42390
C12 C 0.09533(18) 1.63781(18) 0.8669(2)
H4 H 0.05050 1.58310 0.86860
C13 C 0.11160(18) 1.34369(18) 0.35748(19)
H5 H 0.07730 1.32100 0.27480
C14 C 0.18635(18) 1.83108(18) 0.9408(2)
H6 H 0.20250 1.90880 0.99150
O7 O -0.00997(13) 1.82558(14) 0.31114(15)
O8 O 0.14915(13) 1.86110(15) 0.31622(15)
C15 C 0.13478(18) 1.79134(18) 0.43725(19)
C16 C 0.78161(17) 1.84429(17) 0.98083(19)
C17 C 0.65567(16) 1.79502(17) 0.90902(18)
C18 C 0.08806(18) 1.82805(18) 0.3495(2)
C19 C 0.48078(18) 1.81625(18) 0.8225(2)
H7 H 0.44150 1.86350 0.81120
C20 C 0.48164(18) 1.63926(18) 0.7976(2)
H8 H 0.44340 1.56260 0.76570
C21 C 0.13805(18) 1.60437(17) 0.79031(19)
H9 H 0.12000 1.52650 0.73810
C22 C 0.59619(18) 1.86039(18) 0.8862(2)
H10 H 0.63480 1.93580 0.91430
C23 C 0.11346(19) 1.7258(2) 0.5600(2)
H11 H 0.06940 1.70590 0.58920
C24 C 0.28055(17) 1.74965(19) 0.5536(2)
H12 H 0.35270 1.74610 0.57830
C25 C 0.23994(18) 1.78613(19) 0.4747(2)
H13 H 0.28430 1.80750 0.44650
C26 C 0.59769(18) 1.68473(18) 0.8664(2)
H14 H 0.63740 1.64000 0.88440
C27 C 0.23080(19) 1.79729(18) 0.8665(2)
H15 H 0.27860 1.85270 0.86830
C28 C 0.07227(19) 1.7618(2) 0.4811(2)
H16 H 0.00050 1.76630 0.45690
Cd3 Cd 0.50000 2.00000 0.50000
O9 O 0.65780(14) 2.12426(15) 0.67740(16)
O10 O 0.49927(13) 1.85212(14) 0.52806(16)
O11 O 0.39620(15) 2.05682(15) 0.58708(16)
C29 C 0.57025(19) 1.8191(2) 0.5774(2)
N1 N 0.3131(2) 2.0859(2) 0.6968(2)
N2 N 0.54576(18) 1.70936(18) 0.5328(2)
C30 C 0.3976(2) 2.0698(2) 0.6801(2)
C31 C 0.6174(3) 1.6611(3) 0.5888(3)
H17 H 0.57750 1.61720 0.60810
H18 H 0.68520 1.72170 0.66340
H19 H 0.63740 1.61200 0.53250
C32 C 0.6828(2) 1.9017(2) 0.6852(3)
H20 H 0.68080 1.97740 0.71970
H21 H 0.73820 1.90020 0.66010
H22 H 0.70300 1.88150 0.74620
C33 C 0.4938(3) 2.0670(3) 0.7748(3)
H23 H 0.54390 2.14410 0.84210
H24 H 0.53450 2.02870 0.73930
H25 H 0.46560 2.02650 0.80480
C34 C 0.2170(3) 2.0888(3) 0.6078(3)
H26 H 0.22570 2.07480 0.53870
H27 H 0.21190 2.16290 0.64500
H28 H 0.14890 2.03080 0.58000
C35 C 0.4408(3) 1.6272(2) 0.4207(3)
H29 H 0.40390 1.66520 0.38270
H30 H 0.39230 1.59140 0.43900
H31 H 0.45610 1.56980 0.36520
C36 C 0.3066(5) 2.0981(5) 0.8004(4)
H32 H 0.38050 2.14390 0.87370
H33 H 0.28090 2.02370 0.78770
H34 H 0.25410 2.13500 0.80970
H35 H 0.659(3) 2.188(3) 0.721(3)
H36 H 0.722(3) 2.137(3) 0.685(3)
O12 O 0.34938(17) 1.68068(17) 1.18150(19)
N3 N 0.2686(2) 1.5123(2) 1.0104(2)
C37 C 0.2677(2) 1.5893(2) 1.1050(3)
C38 C 0.1695(3) 1.5665(3) 1.1199(3)
H37 H 0.19240 1.61400 1.20530
H38 H 0.14100 1.48720 1.09300
H39 H 0.11090 1.58330 1.07100
C39 C 0.3638(3) 1.5381(3) 0.9959(4)
H40 H 0.35140 1.57710 0.95230
H41 H 0.37210 1.46810 0.94980
H42 H 0.43160 1.58650 1.07580
C40 C 0.1745(3) 1.4065(2) 0.9108(3)
H43 H 0.19960 1.34340 0.89980
H44 H 0.14550 1.40690 0.83610
H45 H 0.11560 1.39860 0.93000
Cd1A Cd -0.005654(11) 1.113365(12) -0.186954(12)
Si1A Si -0.26351(4) 0.35164(4) -0.68439(5)
O1A O -0.01879(14) 0.27979(13) -1.03279(15)
O2A O -0.07789(12) 0.10805(12) -1.07076(12)
O3A O -0.82670(12) 0.18341(14) -1.05562(14)
O4A O -0.82871(13) 0.09204(14) -0.96122(16)
C1A C -0.42041(16) 0.29560(17) -0.77459(18)
O5A O -0.05978(14) 0.93074(13) -0.31534(15)
C2A C -0.20702(16) 0.31678(17) -0.78868(18)
C3A C -0.11823(17) 0.24865(17) -0.94104(18)
C4A C -0.21825(17) 0.28192(17) -0.59739(18)
C5A C -0.06714(17) 0.21222(17) -1.01858(18)
O6A O -0.04866(16) 0.87683(14) -0.18642(14)
C6A C -0.11887(17) 0.73641(17) -0.38777(18)
C7A C -0.17116(17) 0.70225(17) -0.50902(19)
H1A H -0.17700 0.75650 -0.53090
C8A C -0.07148(17) 0.85851(18) -0.28816(19)
C9A C -0.20681(16) 0.50648(16) -0.56958(18)
C10A C -0.21494(17) 0.58873(17) -0.59847(18)
H2A H -0.25120 0.56640 -0.68110
C11A C -0.15384(18) 0.54332(18) -0.44663(19)
H3A H -0.14670 0.48980 -0.42390
C12A C -0.09533(18) 0.36219(18) -0.8669(2)
H4A H -0.05050 0.41690 -0.86860
C13A C -0.11160(18) 0.65631(18) -0.35748(19)
H5A H -0.07730 0.67900 -0.27480
C14A C -0.18635(18) 0.16892(18) -0.9408(2)
H6A H -0.20250 0.09120 -0.99150
O7A O 0.00997(13) 0.17442(14) -0.31114(15)
O8A O -0.14915(13) 0.13890(15) -0.31622(15)
C15A C -0.13478(18) 0.20866(18) -0.43725(19)
C16A C -0.78161(17) 0.15571(17) -0.98083(19)
C17A C -0.65567(16) 0.20498(17) -0.90902(18)
C18A C -0.08806(18) 0.17195(18) -0.3495(2)
C19A C -0.48078(18) 0.18375(18) -0.8225(2)
H7A H -0.44150 0.13650 -0.81120
C20A C -0.48164(18) 0.36074(18) -0.7976(2)
H8A H -0.44340 0.43740 -0.76570
C21A C -0.13805(18) 0.39563(17) -0.79031(19)
H9A H -0.12000 0.47350 -0.73810
C22A C -0.59619(18) 0.13961(18) -0.8862(2)
H10A H -0.63480 0.06420 -0.91430
C23A C -0.11346(19) 0.2742(2) -0.5600(2)
H11A H -0.06940 0.29410 -0.58920
C24A C -0.28055(17) 0.25035(19) -0.5536(2)
H12A H -0.35270 0.25390 -0.57830
C25A C -0.23994(18) 0.21387(19) -0.4747(2)
H13A H -0.28430 0.19250 -0.44650
C26A C -0.59769(18) 0.31527(18) -0.8664(2)
H14A H -0.63740 0.36000 -0.88440
C27A C -0.23080(19) 0.20271(18) -0.8665(2)
H15A H -0.27860 0.14730 -0.86830
C28A C -0.07227(19) 0.2382(2) -0.4811(2)
H16A H -0.00050 0.23370 -0.45690
Cd1* Cd 0.005654(11) 1.886635(12) 0.186954(12)
Cd1** Cd 0.005654(11) 1.886635(12) 1.186954(12)
Cd1*** Cd 1.005654(11) 1.886635(12) 1.186954(12)
Cd1A* Cd -1.005654(11) 0.113365(12) -1.186954(12)
Cd1A** Cd -0.005654(11) 0.113365(12) -1.186954(12)
Cd1A*** Cd -0.005654(11) 0.113365(12) -0.186954(12)
Cd2* Cd -1.00000 0.00000 -1.00000
Cd2** Cd 0.00000 0.00000 -1.00000
Cd2*** Cd 0.00000 2.00000 1.00000
Cd2**** Cd 1.00000 2.00000 1.00000
O1* O 0.01879(14) 0.72021(13) 0.03279(15)
O1A* O -0.01879(14) 1.27979(13) -0.03279(15)
O2* O 0.07789(12) 0.89195(12) 0.07076(12)
O2A* O -0.07789(12) 1.10805(12) -0.07076(12)
O3* O -0.17330(12) 0.81659(14) 0.05562(14)
O3A* O 0.17330(12) 1.18341(14) -0.05562(14)
O4* O -0.17129(13) 0.90796(14) -0.03878(16)
O4A* O 0.17129(13) 1.09204(14) 0.03878(16)
O7* O -0.00997(13) 0.82558(14) 0.31114(15)
O7A* O 0.00997(13) 1.17442(14) -0.31114(15)
O8* O 0.14915(13) 0.86110(15) 0.31622(15)
O8A* O -0.14915(13) 1.13890(15) -0.31622(15)
O9A O 0.34220(14) 1.87574(15) 0.32260(16)
O10A O 0.50073(13) 2.14788(14) 0.47194(16)
O11A O 0.60380(15) 1.94318(15) 0.41292(16)
C29A C 0.42975(19) 2.1809(2) 0.4226(2)
N1A N 0.6869(2) 1.9141(2) 0.3032(2)
N2A N 0.45424(18) 2.29064(18) 0.4672(2)
C30A C 0.6024(2) 1.9302(2) 0.3199(2)
C31A C 0.3826(3) 2.3389(3) 0.4112(3)
H17A H 0.42250 2.38280 0.39190
H18A H 0.31480 2.27830 0.33660
H19A H 0.36260 2.38800 0.46750
C32A C 0.3172(2) 2.0983(2) 0.3148(3)
H20A H 0.31920 2.02260 0.28030
H21A H 0.26180 2.09980 0.33990
H22A H 0.29700 2.11850 0.25380
C33A C 0.5062(3) 1.9330(3) 0.2252(3)
H23A H 0.45610 1.85590 0.15790
H24A H 0.46550 1.97130 0.26070
H25A H 0.53440 1.97350 0.19520
C34A C 0.7830(3) 1.9112(3) 0.3922(3)
H26A H 0.77430 1.92520 0.46130
H27A H 0.78810 1.83710 0.35500
H28A H 0.85110 1.96920 0.42000
C35A C 0.5592(3) 2.3728(2) 0.5793(3)
H29A H 0.59610 2.33480 0.61730
H30A H 0.60770 2.40860 0.56100
H31A H 0.54390 2.43020 0.63480
C36A C 0.6934(5) 1.9019(5) 0.1996(4)
H32A H 0.61950 1.85610 0.12630
H33A H 0.71910 1.97630 0.21230
H34A H 0.74590 1.86500 0.19030
H35A H 0.341(3) 1.812(3) 0.279(3)
H36A H 0.278(3) 1.863(3) 0.315(3)
#END
