
#######################################################################
#
#                 Cambridge Crystallographic Data Centre
#                                CCDC
#
#######################################################################
#
# If this CIF has been generated from an entry in the Cambridge
# Structural Database, then it will include bibliographic, chemical,
# crystal, experimental, refinement or atomic coordinate data resulting
# from the CCDC's data processing and validation procedures.
#
#######################################################################

data_CSD_CIF_NUCPEI
_audit_creation_date 2015-04-27
_audit_creation_method CSD-ConQuest-V1
_database_code_CSD NUCPEI
_database_code_depnum_ccdc_archive 'CCDC 1033728'
_chemical_formula_sum 'C65 H75 N7 O28 Zn4'
_chemical_formula_moiety
;
(C46 H22 O22 Zn4 2-)n,5(C3 H7 N1 O1),2(C2 H8 N1 1+),H2 O1
;
_journal_coden_Cambridge 1747
_journal_volume 2
_journal_year 2015
_journal_page_first 550
_journal_name_full 'Inorg.Chem.Front. '
loop_
_publ_author_name
"Bo Liu"
"Ya-Hui Jiang"
"Zhi-Sen Li"
"Lei Hou"
"Yao-Yu Wang"
_chemical_name_systematic
;
catena-[bis(dimethylammonium) 
bis(\m-1,1':3',1''-terphenyl-3,3'',4',5,5''-pentacarboxylato)-sesquiaqua-tetra
;
_cell_volume   7360.630
_exptl_crystal_density_diffrn 1.493
_exptl_special_details
;
One of the bonded water molecules is half occupancy. This is reflected in the 
name but could not be represented in the 2D Diagram
;
_diffrn_ambient_temperature 293
#These two values have been output from a single CSD field.
_refine_ls_R_factor_gt 0.0684
_refine_ls_wR_factor_gt 0.0684
_symmetry_cell_setting monoclinic
_symmetry_space_group_name_H-M 'P 21/n'
_symmetry_Int_Tables_number 14
loop_
_symmetry_equiv_pos_site_id
_symmetry_equiv_pos_as_xyz
1 x,y,z
2 1/2-x,1/2+y,1/2-z
3 -x,-y,-z
4 -1/2+x,-1/2-y,-1/2+z
_cell_length_a 14.123(4)
_cell_length_b 33.380(9)
_cell_length_c 16.833(3)
_cell_angle_alpha 90
_cell_angle_beta 111.943(16)
_cell_angle_gamma 90
_cell_formula_units_Z 4
loop_
_atom_type_symbol
_atom_type_radius_bond
C 0.68
H 0.23
N 0.68
O 0.68
Zn 1.22
loop_
_atom_site_label
_atom_site_type_symbol
_atom_site_fract_x
_atom_site_fract_y
_atom_site_fract_z
Zn1 Zn 0.69052(5) 0.941990(18) 0.67795(4)
Zn2 Zn 0.90514(5) 0.912624(18) 0.64925(4)
Zn3 Zn 0.83236(5) 0.635058(18) 0.59789(4)
Zn4 Zn 1.00422(5) 0.71182(2) 0.58505(5)
C1 C 0.1894(4) 0.72205(19) 0.6118(5)
C2 C 0.2971(4) 0.73364(17) 0.6284(4)
C3 C 0.3495(4) 0.71109(18) 0.5912(4)
H1 H 0.31790 0.68890 0.55850
C4 C 0.4485(4) 0.72030(19) 0.6009(4)
H2 H 0.48270 0.70480 0.57420
C5 C 0.4963(4) 0.75262(17) 0.6503(4)
C6 C 0.4436(4) 0.77458(16) 0.6910(4)
H3 H 0.47670 0.79560 0.72700
C7 C 0.3438(4) 0.76605(16) 0.6794(4)
C8 C 0.2918(4) 0.79280(16) 0.7218(4)
C9 C 0.2008(4) 0.81203(16) 0.6743(4)
H4 H 0.17000 0.80690 0.61590
C10 C 0.3358(4) 0.80053(16) 0.8081(4)
H5 H 0.39680 0.78800 0.84070
C11 C 0.2909(4) 0.82644(16) 0.8469(4)
C12 C 0.3358(4) 0.83251(18) 0.9423(4)
C13 C 0.2013(4) 0.84586(17) 0.7990(4)
H6 H 0.17170 0.86380 0.82520
C14 C 0.1555(4) 0.83851(16) 0.7118(4)
C15 C 0.0564(4) 0.85786(17) 0.6603(4)
C16 C 0.6003(4) 0.76487(16) 0.6585(4)
C17 C 0.6258(4) 0.80511(16) 0.6666(4)
H7 H 0.57850 0.82380 0.66960
C18 C 0.7206(4) 0.81800(17) 0.6703(4)
C19 C 0.7930(4) 0.79007(16) 0.6695(4)
H8 H 0.85780 0.79820 0.67420
C20 C 0.7669(4) 0.74964(16) 0.6617(4)
C21 C 0.6721(4) 0.73778(17) 0.6559(4)
H9 H 0.65570 0.71070 0.65010
C22 C 0.7453(4) 0.86153(17) 0.6764(4)
C23 C 0.8433(4) 0.71911(17) 0.6556(4)
C24 C 1.1125(4) 1.01794(16) 0.2503(4)
C25 C 1.0693(4) 0.97908(15) 0.2091(3)
C26 C 1.1282(4) 0.95369(16) 0.1803(3)
H10 H 1.19420 0.96110 0.18690
C27 C 1.0895(4) 0.91810(15) 0.1426(4)
C28 C 0.9909(4) 0.90700(16) 0.1339(4)
H11 H 0.96510 0.88240 0.10920
C29 C 0.9311(4) 0.93182(16) 0.1611(4)
C30 C 0.9727(4) 0.96804(16) 0.1999(4)
H12 H 0.93400 0.98490 0.21970
C31 C 1.1524(4) 0.88989(16) 0.1114(4)
C32 C 0.8257(4) 0.92066(16) 0.1521(4)
C33 C 0.7631(4) 0.89705(17) 0.0840(4)
H13 H 0.78640 0.88890 0.04160
C34 C 0.6681(5) 0.88584(19) 0.0794(4)
H14 H 0.62910 0.86870 0.03590
C35 C 0.6289(4) 0.89984(18) 0.1392(4)
C36 C 0.6871(4) 0.92460(16) 0.2056(4)
C37 C 0.7861(4) 0.93384(16) 0.2117(4)
H15 H 0.82710 0.94940 0.25740
C38 C 0.5280(5) 0.8825(2) 0.1358(4)
C39 C 0.6532(4) 0.94112(16) 0.2726(4)
C40 C 0.7094(4) 0.93469(16) 0.3583(4)
H16 H 0.76790 0.91890 0.37420
C41 C 0.6801(4) 0.95131(16) 0.4211(3)
C42 C 0.5961(4) 0.97640(16) 0.3970(4)
H17 H 0.57750 0.98860 0.43870
C43 C 0.5395(4) 0.98349(17) 0.3115(4)
C44 C 0.5686(4) 0.96573(17) 0.2507(4)
H18 H 0.53030 0.97040 0.19310
C45 C 0.4503(5) 1.0109(2) 0.2848(4)
C46 C 0.7389(5) 0.94231(17) 0.5134(4)
O1 O 0.1338(3) 0.70836(15) 0.5389(3)
O2 O 0.1522(3) 0.72641(15) 0.6680(3)
O3 O -0.0025(3) 0.84232(14) 0.5958(3)
O4 O 0.0394(3) 0.89096(12) 0.6902(3)
O5 O 0.2858(3) 0.85259(15) 0.9755(3)
O6 O 0.4210(4) 0.81733(16) 0.9819(3)
O7 O 0.6745(3) 0.88515(13) 0.6699(4)
O8 O 0.8336(3) 0.87144(12) 0.6887(3)
O9 O 0.9213(3) 0.73197(13) 0.6489(4)
O10 O 0.8204(3) 0.68327(12) 0.6586(3)
O11 O 1.0645(3) 1.03688(12) 0.2872(3)
O12 O 1.1950(3) 1.02894(14) 0.2458(3)
O13 O 1.2411(3) 0.90242(11) 0.1217(3)
O14 O 1.1162(3) 0.85787(13) 0.0807(3)
O15 O 0.5291(5) 0.84631(18) 0.1557(4)
O16 O 0.4509(4) 0.90205(19) 0.1114(4)
O17 O 0.3949(5) 1.0134(3) 0.2096(4)
O18 O 0.4344(3) 1.02835(14) 0.3447(3)
O19 O 0.7041(4) 0.95534(16) 0.5659(3)
O20 O 0.8195(3) 0.92345(15) 0.5314(3)
O21 O 0.9705(4) 0.76754(14) 0.5200(3)
H19 H 0.98300 0.76570 0.46780
H20 H 1.01310 0.78800 0.55580
O22 O 0.6888(13) 0.9176(4) 0.8069(9)
H21 H 0.62750 0.92660 0.81340
H22 H 0.68970 0.88890 0.80590
C47 C 1.0131(13) 0.8172(5) 0.8881(11)
H23 H 0.98910 0.79140 0.89750
H24 H 1.08010 0.82180 0.93020
H25 H 1.01560 0.81800 0.83190
C48 C 0.9696(14) 0.8909(5) 0.8924(10)
H26 H 0.92290 0.90660 0.90870
H27 H 0.96430 0.89840 0.83580
H28 H 1.03800 0.89550 0.93210
C49 C 0.8557(12) 0.8340(5) 0.897(1)
H29 H 0.84320 0.80660 0.89620
N1 N 0.9448(11) 0.8486(4) 0.8933(7)
O23 O 0.7921(10) 0.8589(4) 0.9014(8)
C50 C 0.9769(13) 0.6061(5) 0.9882(9)
H30 H 1.04450 0.59500 1.01040
H31 H 0.93350 0.59100 1.00940
H32 H 0.97910 0.63350 1.00630
C51 C 0.8530(12) 0.5808(5) 0.8422(12)
H33 H 0.85990 0.57690 0.78810
H34 H 0.79020 0.59460 0.83330
H35 H 0.85240 0.55520 0.86820
C52 C 0.9808(12) 0.6247(5) 0.8538(11)
H36 H 0.95690 0.62190 0.79450
N2 N 0.9380(7) 0.6043(3) 0.8980(6)
O24 O 1.0552(11) 0.6483(4) 0.8917(9)
C53 C 0.6029(18) 0.6560(7) 0.7974(16)
H37 H 0.55330 0.64390 0.81630
H38 H 0.65500 0.63680 0.80120
H39 H 0.57020 0.66470 0.73910
C54 C 0.7653(14) 0.6961(8) 0.8822(17)
H40 H 0.77960 0.72250 0.86720
H41 H 0.79060 0.67660 0.85300
H42 H 0.79800 0.69240 0.94290
C55 C 0.6031(12) 0.7146(7) 0.8971(15)
H43 H 0.64080 0.73280 0.93860
N3 N 0.6509(15) 0.6919(6) 0.8539(11)
O25 O 0.5070(11) 0.7105(4) 0.8799(8)
C56 C 0.504(2) 0.5593(9) 0.973(2)
H44 H 0.51410 0.55310 1.03110
H45 H 0.47980 0.53590 0.93790
H46 H 0.45380 0.58030 0.95240
C57 C 0.655(2) 0.5351(8) 0.9723(18)
H47 H 0.72610 0.54130 0.99020
H48 H 0.63170 0.52260 0.91700
H49 H 0.64420 0.51730 1.01290
C58 C 0.6482(18) 0.6043(9) 0.987(2)
H50 H 0.60430 0.62570 0.98190
N4 N 0.5974(19) 0.5717(7) 0.9671(15)
O26 O 0.7415(16) 0.6170(6) 1.0118(13)
C59 C 0.9268(19) 0.6017(8) 0.2081(18)
H51 H 0.98340 0.61620 0.24790
H52 H 0.87630 0.62030 0.17360
H53 H 0.95010 0.58550 0.17190
C60 C 0.7821(16) 0.5599(7) 0.2125(14)
H54 H 0.79100 0.53140 0.21830
H55 H 0.76050 0.56710 0.15320
H56 H 0.73120 0.56820 0.23420
C61 C 0.9267(17) 0.5755(10) 0.3466(13)
H57 H 0.99460 0.58300 0.37360
N5 N 0.8819(16) 0.5820(6) 0.2575(12)
O27 O 0.882(2) 0.5598(10) 0.3958(14)
O28 O 0.6013(9) 0.8305(3) 0.8748(6)
N6 N 0.2891(18) 0.9784(7) 1.0208(15)
H58 H 0.26030 0.96830 0.96750
H59 H 0.31030 0.95760 1.05730
C62 C 0.3832(19) 1.0038(9) 1.0262(17)
H60 H 0.36530 1.03100 1.03210
H61 H 0.39330 1.00080 0.97310
H62 H 0.44510 0.99700 1.07300
C63 C 0.211(2) 1.0009(10) 1.0410(19)
H63 H 0.21380 0.99920 1.09880
H64 H 0.14900 0.98860 1.00310
H65 H 0.21190 1.02850 1.02540
N7 N 0.1761(11) 0.6936(4) 0.8368(9)
H66 H 0.14520 0.69890 0.78050
H67 H 0.13620 0.67620 0.85080
C64 C 0.2784(14) 0.6728(6) 0.8510(14)
H68 H 0.32270 0.69140 0.83860
H69 H 0.26850 0.64970 0.81460
H70 H 0.30870 0.66460 0.90990
C65 C 0.1810(19) 0.7323(6) 0.8859(16)
H71 H 0.19810 0.72690 0.94560
H72 H 0.11360 0.74350 0.86200
H73 H 0.22910 0.75100 0.87910
Zn1B Zn 0.30948(5) 1.058010(18) 0.32205(4)
Zn1B* Zn 1.30948(5) 1.058010(18) 0.32205(4)
Zn2* Zn -0.09486(5) 0.912624(18) 0.64925(4)
Zn2B Zn 1.09486(5) 1.087376(18) 0.35075(4)
Zn3C Zn 0.33236(5) 0.864942(18) 0.09789(4)
Zn3C* Zn 0.33236(5) 0.864942(18) 1.09789(4)
Zn3C** Zn 1.33236(5) 0.864942(18) 0.09789(4)
Zn4* Zn 0.00422(5) 0.71182(2) 0.58505(5)
Zn4C Zn 0.50422(5) 0.78818(2) 0.08505(5)
Zn4C* Zn 0.50422(5) 0.78818(2) 1.08505(5)
O1* O 1.1338(3) 0.70836(15) 0.5389(3)
O2* O 1.1522(3) 0.72641(15) 0.6680(3)
O4* O 1.0394(3) 0.89096(12) 0.6902(3)
O5C O 0.7858(3) 0.64741(15) 0.4755(3)
O6C O 0.9210(4) 0.68267(16) 0.4819(3)
O11B O 0.9355(3) 0.96312(12) 0.7128(3)
O12B O 0.8050(3) 0.97106(14) 0.7542(3)
O13C O 0.7411(3) 0.59758(11) 0.6217(3)
O15C O 1.0291(5) 0.65369(18) 0.6557(4)
O16C O 0.9509(4) 0.59795(19) 0.6114(4)
O18B O 0.5656(3) 0.97165(14) 0.6553(3)
#END
