
#######################################################################
#
#                 Cambridge Crystallographic Data Centre
#                                CCDC
#
#######################################################################
#
# If this CIF has been generated from an entry in the Cambridge
# Structural Database, then it will include bibliographic, chemical,
# crystal, experimental, refinement or atomic coordinate data resulting
# from the CCDC's data processing and validation procedures.
#
#######################################################################

data_CSD_CIF_NUCRUZ
_audit_creation_date 2010-04-23
_audit_creation_method CSD-ConQuest-V1
_database_code_CSD NUCRUZ
_database_code_depnum_ccdc_archive 'CCDC 717558'
_chemical_formula_sum 'C14 H14 Br1 Cl1 La1 N3 O6'
_chemical_formula_moiety
;
(C6 H11 N2 1+)n,n(C8 H3 Br1 Cl1 La1 N1 O6 1-)
;
_journal_coden_Cambridge 1350
_journal_volume 11
_journal_year 2009
_journal_page_first 1522
_journal_name_full 'CrystEngComm '
loop_
_publ_author_name
"Wen-Xian Chen"
"Yan-Ping Ren"
"La-Sheng Long"
"Rong-Bin Huang"
"Lan-Sun Zheng"
_chemical_name_systematic
;
catena-[(1-Ethyl-3-methyl-imidazolium) 
(\m~4~-5-nitrobenzene-1,3-dicarboxylato-O,O,O',O'',O'',O''')-(\m~2~-chloro)-br
omo-lanthanum(iii)]
;
_chemical_name_common
;
catena-[(1-Ethyl-3-methyl-imidazolium) 
(mu!4$-5-nitroisophthalato-O,O,O',O'',O'',O''')-(mu!2$-chloro)-bromo-lanthanum
(iii)]
;
_cell_volume   1822.935
_exptl_crystal_colour 'colorless'
_exptl_crystal_density_diffrn 2.094
_exptl_crystal_description 'needle'
_diffrn_ambient_temperature 123
_diffrn_special_details
;
racemic twin

;
_refine_special_details
;
The ethyl and methyl substituents of the imidazolium cation are disordered 
with equal occupancy over the two nitrogen positions. This has been modelled 
by including a terminal ethyl carbon atom with half occupancy on both the 1 
and 3 positions of the imidazolium.
;
#These two values have been output from a single CSD field.
_refine_ls_R_factor_gt 0.0546
_refine_ls_wR_factor_gt 0.0546
_symmetry_cell_setting orthorhombic
_symmetry_space_group_name_H-M 'P c a 21'
_symmetry_Int_Tables_number 29
loop_
_symmetry_equiv_pos_site_id
_symmetry_equiv_pos_as_xyz
1 x,y,z
2 -x,-y,1/2+z
3 1/2+x,-y,z
4 1/2-x,y,1/2+z
_cell_length_a 24.509(6)
_cell_length_b 9.835(2)
_cell_length_c 7.5626(19)
_cell_angle_alpha 90
_cell_angle_beta 90
_cell_angle_gamma 90
_cell_formula_units_Z 4
loop_
_atom_type_symbol
_atom_type_radius_bond
C 0.68
H 0.23
Br 1.21
Cl 0.99
La 1.86
N 0.68
O 0.68
loop_
_atom_site_label
_atom_site_type_symbol
_atom_site_fract_x
_atom_site_fract_y
_atom_site_fract_z
La1 La 0.216079(18) -0.28565(4) 0.13688(10)
Br1 Br 0.09749(5) -0.28523(13) 0.19803(19)
Cl1 Cl 0.17567(11) -0.2922(3) -0.2161(4)
O1 O 0.2832(3) -1.1434(7) -0.0845(9)
O2 O 0.2208(3) -1.0342(7) 0.0595(11)
O3 O 0.2232(3) -0.5367(7) 0.0654(11)
O4 O 0.2848(3) -0.4207(7) -0.0837(9)
O5 O 0.4460(4) -0.6852(10) -0.2741(18)
O6 O 0.4415(3) -0.8944(10) -0.3072(16)
N1 N 0.4241(4) -0.7893(10) -0.2538(15)
N2 N 0.4204(4) 0.1161(12) -0.7116(18)
N3 N 0.4276(5) 0.3319(14) -0.7130(17)
C1 C 0.2930(4) -0.9101(11) -0.0665(14)
C2 C 0.2692(4) -0.7876(9) -0.0243(14)
H1 H 0.23510 -0.78730 0.03580
C3 C 0.2933(4) -0.6655(9) -0.0667(13)
C4 C 0.3447(5) -0.6654(10) -0.1400(14)
H2 H 0.36290 -0.58260 -0.16640
C5 C 0.3685(4) -0.7873(10) -0.1734(16)
C6 C 0.3427(4) -0.9112(11) -0.1444(14)
H3 H 0.35950 -0.99430 -0.17830
C7 C 0.2628(4) -1.0371(11) -0.0284(13)
C8 C 0.2654(4) -0.5336(9) -0.0282(13)
C9 C 0.4535(6) 0.2169(16) -0.740(2)
H4 H 0.49060 0.20870 -0.77420
C10 C 0.3718(5) 0.1702(16) -0.661(2)
H5 H 0.34000 0.12010 -0.62980
C11 C 0.3760(6) 0.2992(16) -0.662(2)
H6 H 0.34800 0.36180 -0.63180
C12 C 0.4338(8) -0.031(2) -0.719(3)
H7 H 0.47130 -0.04380 -0.67300
H8 H 0.40860 -0.08010 -0.63890
C13 C 0.4498(7) 0.4682(18) -0.734(3)
H9 H 0.43510 0.52620 -0.63860
H10 H 0.48980 0.46340 -0.71850
H11 H 0.44080 0.50320 -0.84930
C14 C 0.4308(12) -0.082(3) -0.869(7)
H12 H 0.44030 -0.17860 -0.86270
H13 H 0.45620 -0.03520 -0.94860
H14 H 0.39350 -0.07220 -0.91410
C15? C 0.4403(11) 0.525(2) -0.877(5)
H15? H 0.43080 -0.06330 -0.83780
H16? H 0.45720 0.61480 -0.87810
H17? H 0.40080 0.53370 -0.89300
H18? H 0.45540 0.46970 -0.97370
La1C La 0.283921(18) -0.28565(4) -0.36312(10)
La1C* La 0.283921(18) -1.28565(4) -0.36312(10)
La1* La 0.216079(18) -1.28565(4) 0.13688(10)
Cl1C Cl 0.32433(11) -0.2922(3) 0.2839(4)
O1C O 0.2168(3) -0.1434(7) 0.4155(9)
O1* O 0.2832(3) -0.1434(7) -0.0845(9)
O2* O 0.2208(3) -0.0342(7) 0.0595(11)
O4C O 0.2152(3) -0.4207(7) 0.4163(9)
#END
