
#######################################################################
#
#                 Cambridge Crystallographic Data Centre
#                                CCDC
#
#######################################################################
#
# If this CIF has been generated from an entry in the Cambridge
# Structural Database, then it will include bibliographic, chemical,
# crystal, experimental, refinement or atomic coordinate data resulting
# from the CCDC's data processing and validation procedures.
#
#######################################################################

data_CSD_CIF_NUCROT
_audit_creation_date 2010-04-23
_audit_creation_method CSD-ConQuest-V1
_database_code_CSD NUCROT
_database_code_depnum_ccdc_archive 'CCDC 717557'
_chemical_formula_sum 'C38 H52 Co1 La2 N4 O24 S4'
_chemical_formula_moiety
;
(C6 H11 N2 1+)2n,n(C26 H30 Co1 La2 O24 S4 2-)
;
_journal_coden_Cambridge 1350
_journal_volume 11
_journal_year 2009
_journal_page_first 1522
_journal_name_full 'CrystEngComm '
loop_
_publ_author_name
"Wen-Xian Chen"
"Yan-Ping Ren"
"La-Sheng Long"
"Rong-Bin Huang"
"Lan-Sun Zheng"
_chemical_name_systematic
;
catena-[bis(1-Ethyl-3-methyl-imidazolium) 
bis(\m~3~-acetato-O,O,O',O')-bis(\m~3~-5-methylbenzene-1,3-dicarboxylato-O,O',
O'',O''')-tetrakis(\m~2~-methanesulfonato-O,O')-cobalt(ii)-di-lanthanum(iii)]
;
_chemical_name_common
;
catena-[bis(1-Ethyl-3-methyl-imidazolium) 
bis(mu!3$-acetato-O,O,O',O')-bis(mu!3$-5-methylisophthalato-O,O',O'',O''')-tet
rakis(mu!2$-methanesulfonato-O,O')-cobalt(ii)-di-lanthanum(iii)]
;
_cell_volume   1337.207
_exptl_crystal_colour 'pink'
_exptl_crystal_density_diffrn 1.756
_exptl_crystal_description 'block'
_diffrn_ambient_temperature 293
#These two values have been output from a single CSD field.
_refine_ls_R_factor_gt 0.0426
_refine_ls_wR_factor_gt 0.0426
_symmetry_cell_setting triclinic
_symmetry_space_group_name_H-M 'P -1'
_symmetry_Int_Tables_number 2
loop_
_symmetry_equiv_pos_site_id
_symmetry_equiv_pos_as_xyz
1 x,y,z
2 -x,-y,-z
_cell_length_a 10.444(2)
_cell_length_b 11.213(2)
_cell_length_c 12.233(2)
_cell_angle_alpha 79.66(3)
_cell_angle_beta 71.61(3)
_cell_angle_gamma 87.54(3)
_cell_formula_units_Z 1
loop_
_atom_type_symbol
_atom_type_radius_bond
C 0.68
H 0.23
Co 1.26
La 1.86
N 0.68
O 0.68
S 1.02
loop_
_atom_site_label
_atom_site_type_symbol
_atom_site_fract_x
_atom_site_fract_y
_atom_site_fract_z
La1 La 1.57604(3) 0.93872(3) -0.35322(2)
Co1 Co 1.00000 1.00000 0.50000
S1 S 1.48851(18) 1.26610(14) -0.45554(14)
S2 S 0.86930(16) 0.74099(14) 0.66938(14)
O1 O 1.4062(4) 0.7726(4) -0.2006(3)
O2 O 1.4449(5) 0.9367(4) -0.1408(4)
O3 O 1.0742(4) 0.8873(4) 0.3784(3)
O4 O 1.2806(4) 0.9595(4) 0.2760(4)
O5 O 0.7278(4) 0.7763(4) 0.7034(4)
O6 O 0.8981(6) 0.6556(6) 0.7591(5)
O7 O 0.9602(4) 0.8452(4) 0.6309(4)
O8 O 1.5197(6) 1.1638(4) -0.3757(4)
O9 O 1.4215(5) 1.2268(4) -0.5316(4)
O10 O 1.4162(6) 1.3591(4) -0.3949(5)
O11 O 1.1941(4) 1.0165(4) 0.5222(3)
O12 O 1.3667(4) 0.9673(4) 0.5834(3)
N1 N 0.4911(6) 0.4251(5) 0.8262(5)
N2 N 0.3630(6) 0.2824(5) 0.9480(5)
C1 C 1.2810(5) 0.7980(5) -0.0043(5)
C2 C 1.2827(5) 0.8524(5) 0.0880(4)
H1 H 1.35190 0.90670 0.07830
C3 C 1.1816(5) 0.8269(5) 0.1956(5)
C4 C 1.0813(5) 0.7414(5) 0.2090(5)
H2 H 1.01360 0.72330 0.28060
C5 C 1.0802(6) 0.6835(5) 0.1188(5)
C6 C 1.1803(6) 0.7125(5) 0.0113(5)
H3 H 1.18020 0.67490 -0.05050
C7 C 1.3849(6) 0.8367(5) -0.1232(4)
C8 C 1.1791(5) 0.8947(5) 0.2906(5)
C9 C 0.9698(7) 0.5907(6) 0.1378(6)
H4 H 0.95840 0.58520 0.06400
H5 H 0.88670 0.61530 0.18910
H6 H 0.99470 0.51300 0.17220
C10 C 1.6443(9) 1.3291(8) -0.5495(8)
H7 H 1.62890 1.39710 -0.60360
H8 H 1.69480 1.26910 -0.59190
H9 H 1.69430 1.35550 -0.50420
C11 C 0.8928(10) 0.6717(8) 0.5448(8)
H10 H 0.98450 0.64590 0.51780
H11 H 0.87360 0.72910 0.48380
H12 H 0.83310 0.60280 0.56550
C12 C 1.2421(5) 0.9858(5) 0.6061(5)
C13 C 1.1541(7) 0.9728(9) 0.7303(6)
H13 H 1.16480 0.89350 0.77140
H14 H 1.06160 0.98330 0.73270
H15 H 1.17920 1.03310 0.76670
C14 C 0.4631(7) 0.3076(6) 0.8492(6)
H16 H 0.50710 0.25150 0.80310
C15 C 0.3247(8) 0.3883(7) 0.9897(7)
H17 H 0.25670 0.39660 1.05830
C16 C 0.4030(8) 0.4777(6) 0.9137(7)
H18 H 0.39880 0.55960 0.91890
C17 C 0.6004(10) 0.4871(9) 0.7278(8)
H19 H 0.68260 0.44350 0.72250
H20 H 0.61160 0.56790 0.73970
H21 H 0.57860 0.49080 0.65670
C18 C 0.3050(8) 0.1606(6) 1.0031(6)
H22 H 0.30730 0.14330 1.08310
H23 H 0.36000 0.10100 0.96140
C19 C 0.1629(10) 0.1485(9) 1.0035(10)
H24 H 0.12980 0.06770 1.03970
H25 H 0.16020 0.16430 0.92450
H26 H 0.10740 0.20570 1.04660
La1A La 0.42396(3) 1.06128(3) 1.35322(2)
La1A* La 1.42396(3) 1.06128(3) 0.35322(2)
La1* La 0.57604(3) 0.93872(3) 0.64678(2)
La1A** La 1.42396(3) 1.06128(3) -0.64678(2)
La1** La 1.57604(3) 0.93872(3) 0.64678(2)
La1A*** La 0.42396(3) 1.06128(3) 0.35322(2)
S1A S 1.51149(18) 0.73390(14) -0.54446(14)
S2A S 1.13070(16) 1.25901(14) 0.33062(14)
O1A O 0.5938(4) 1.2274(4) 1.2006(3)
O2A O 0.5551(5) 1.0633(4) 1.1408(4)
O3A O 0.9258(4) 1.1127(4) 0.6216(3)
O4A O 0.7194(4) 1.0405(4) 0.7240(4)
O4A* O 1.7194(4) 1.0405(4) -0.2760(4)
O4* O 0.2806(4) 0.9595(4) 1.2760(4)
O5A O 1.2722(4) 1.2237(4) 0.2966(4)
O5* O 1.7278(4) 0.7763(4) -0.2966(4)
O5A* O 0.2722(4) 1.2237(4) 1.2966(4)
O6A O 1.1019(6) 1.3444(6) 0.2409(5)
O7A O 1.0398(4) 1.1548(4) 0.3691(4)
O8A O 1.4803(6) 0.8362(4) -0.6243(4)
O8A* O 0.4803(6) 0.8362(4) 1.3757(4)
O9A O 1.5785(5) 0.7732(4) -0.4684(4)
O9* O 0.4215(5) 1.2268(4) 1.4684(4)
O10A O 1.5838(6) 0.6409(4) -0.6051(5)
O11A O 0.8059(4) 0.9835(4) 0.4778(3)
O11A* O 1.8059(4) 0.9835(4) -0.5222(3)
O11* O 0.1941(4) 1.0165(4) 1.5222(3)
O12A O 0.6333(4) 1.0327(4) 0.4166(3)
O12* O 1.3667(4) 0.9673(4) -0.4166(3)
O12A* O 1.6333(4) 1.0327(4) -0.5834(3)
O12A** O 0.6333(4) 1.0327(4) 1.4166(3)
O12** O 0.3667(4) 0.9673(4) 1.5834(3)
C1A C 0.7190(5) 1.2020(5) 1.0043(5)
C2A C 0.7173(5) 1.1476(5) 0.9120(4)
H1A H 0.64810 1.09330 0.92170
C3A C 0.8184(5) 1.1731(5) 0.8044(5)
C4A C 0.9187(5) 1.2586(5) 0.7910(5)
H2A H 0.98640 1.27670 0.71940
C5A C 0.9198(6) 1.3165(5) 0.8812(5)
C6A C 0.8197(6) 1.2875(5) 0.9887(5)
H3A H 0.81980 1.32510 1.05050
C7A C 0.6151(6) 1.1633(5) 1.1232(4)
C8A C 0.8209(5) 1.1053(5) 0.7094(5)
C9A C 1.0302(7) 1.4093(6) 0.8622(6)
H4A H 1.04160 1.41480 0.93600
H5A H 1.11330 1.38470 0.81090
H6A H 1.00530 1.48700 0.82780
C10A C 1.3557(9) 0.6709(8) -0.4505(8)
H7A H 1.37110 0.60290 -0.39640
H8A H 1.30520 0.73090 -0.40810
H9A H 1.30570 0.64450 -0.49580
C11A C 1.1072(10) 1.3283(8) 0.4552(8)
H10A H 1.01550 1.35410 0.48220
H11A H 1.12640 1.27090 0.51620
H12A H 1.16690 1.39720 0.43450
C12A C 0.7579(5) 1.0142(5) 0.3939(5)
C13A C 0.8459(7) 1.0272(9) 0.2697(6)
H13A H 0.83520 1.10650 0.22860
H14A H 0.93840 1.01670 0.26730
H15A H 0.82080 0.96690 0.23330
#END
