
#######################################################################
#
#                 Cambridge Crystallographic Data Centre
#                                CCDC
#
#######################################################################
#
# If this CIF has been generated from an entry in the Cambridge
# Structural Database, then it will include bibliographic, chemical,
# crystal, experimental, refinement or atomic coordinate data resulting
# from the CCDC's data processing and validation procedures.
#
#######################################################################

data_CSD_CIF_NUDNUW03
_audit_creation_date 2013-06-17
_audit_creation_method CSD-ConQuest-V1
_database_code_CSD NUDNUW03
_database_code_depnum_ccdc_archive 'CCDC 945082'
_chemical_formula_sum 'C24 H42 Fe6 N3 O36'
_chemical_formula_moiety
;
(C18 H18 Fe6 O36 3-)n,3n(C2 H8 N1 1+)
;
_journal_coden_Cambridge 4
_journal_volume 134
_journal_year 2012
_journal_page_first 19772
_journal_name_full 'J.Am.Chem.Soc. '
loop_
_publ_author_name
"L.Canadillas-Delgado"
"O.Fabelo"
"J.Alberto Rodriguez-Velamazan"
"M.-H.Lemee-Cailleau"
"S.A.Mason"
"E.Pardo"
"F.Lloret"
"Jiong-Peng Zhao"
"Xian-He Bu"
"V.Simonet"
"C.V.Colin"
"J.Rodriguez-Carvajal"
_chemical_name_systematic
;
catena-[tris(dimethylammonium) 
octadecakis(\m~2~-formato)-tri-iron(ii)-tri-iron(iii)]
;
_cell_volume   7298.286
_exptl_crystal_colour 'black'
_exptl_crystal_density_diffrn 1.752
_exptl_special_details
;
R-3c rhombohedral polymorph
Undergoes a phase-transition around 155 K

;
_exptl_crystal_description 'Prism'
_diffrn_ambient_temperature 45
_diffrn_radiation_probe 'neutron'
_diffrn_special_details
;
monochromatic data

;
#These two values have been output from a single CSD field.
_refine_ls_R_factor_gt 0.037
_refine_ls_wR_factor_gt 0.037
_symmetry_cell_setting rhombohedral
_symmetry_space_group_name_H-M 'R -3 c'
_symmetry_Int_Tables_number 167
loop_
_symmetry_equiv_pos_site_id
_symmetry_equiv_pos_as_xyz
1 x,y,z
2 -y,x-y,z
3 y,x,1/2-z
4 -x+y,-x,z
5 -x,-x+y,1/2-z
6 x-y,-y,1/2-z
7 2/3+x,1/3+y,1/3+z
8 2/3-y,1/3+x-y,1/3+z
9 2/3+y,1/3+x,5/6-z
10 2/3-x+y,1/3-x,1/3+z
11 2/3-x,1/3-x+y,5/6-z
12 2/3+x-y,1/3-y,5/6-z
13 1/3+x,2/3+y,2/3+z
14 1/3-y,2/3+x-y,2/3+z
15 1/3+y,2/3+x,1/6-z
16 1/3-x+y,2/3-x,2/3+z
17 1/3-x,2/3-x+y,1/6-z
18 1/3+x-y,2/3-y,1/6-z
19 -x,-y,-z
20 y,-x+y,-z
21 -y,-x,-1/2+z
22 x-y,x,-z
23 x,x-y,-1/2+z
24 -x+y,y,-1/2+z
25 -2/3-x,-1/3-y,-1/3-z
26 -2/3+y,-1/3-x+y,-1/3-z
27 -2/3-y,-1/3-x,-5/6+z
28 -2/3+x-y,-1/3+x,-1/3-z
29 -2/3+x,-1/3+x-y,-5/6+z
30 -2/3-x+y,-1/3+y,-5/6+z
31 -1/3-x,-2/3-y,-2/3-z
32 -1/3+y,-2/3-x+y,-2/3-z
33 -1/3-y,-2/3-x,-1/6+z
34 -1/3+x-y,-2/3+x,-2/3-z
35 -1/3+x,-2/3+x-y,-1/6+z
36 -1/3-x+y,-2/3+y,-1/6+z
_cell_length_a 14.2600(17)
_cell_length_b 14.2600(17)
_cell_length_c 41.443(8)
_cell_angle_alpha 90
_cell_angle_beta 90
_cell_angle_gamma 120
_cell_formula_units_Z 6
loop_
_atom_type_symbol
_atom_type_radius_bond
C 0.68
H 0.23
Fe 1.52
N 0.68
O 0.68
loop_
_atom_site_label
_atom_site_type_symbol
_atom_site_fract_x
_atom_site_fract_y
_atom_site_fract_z
Fe1 Fe 0.34066(4) 0.00733(4) 0.08330
Fe2 Fe 0.00000 0.00000 0.00000
Fe3 Fe 0.66670 0.33330 0.169378(16)
O1 O 0.48904(6) 0.07524(6) 0.109287(18)
O2 O 0.20262(6) -0.06330(6) 0.054234(19)
O3 O 0.41922(6) -0.05852(6) 0.054880(19)
O4 O 0.06701(6) -0.06739(6) 0.027125(17)
O5 O 0.41034(6) -0.19876(6) 0.028997(17)
O6 O 0.61306(6) 0.20170(6) 0.140734(17)
C1 C 0.51809(5) 0.14947(5) 0.129494(15)
C2 C 0.36734(5) -0.14764(5) 0.041223(16)
C3 C 0.16058(5) -0.01777(5) 0.039571(16)
H1 H 0.45815(15) 0.17033(18) 0.13817(5)
H2 H 0.27887(15) -0.18520(18) 0.03954(6)
H3 H 0.20634(18) 0.07060(15) 0.03712(7)
N1 N 0.38514(7) 0.33330 0.08330
C4 C 0.32780(12) 0.33255(10) 0.05313(7)
H4 H 0.46124(18) 0.4004(2) 0.08423(9)
H5 H 0.2481(3) 0.2616(3) 0.05292(16)
H6 H 0.3731(4) 0.3309(3) 0.03243(14)
H7 H 0.3226(3) 0.4057(3) 0.05223(17)
Fe1A Fe -0.00733(4) 0.33333(4) 0.08330
O1A O -0.07524(6) 0.41380(6) 0.109287(18)
O2A O 0.06330(6) 0.26592(6) 0.054234(19)
O3A O 0.05852(6) 0.47774(6) 0.054880(19)
O4A O 0.06739(6) 0.13440(6) 0.027125(17)
O5A O 0.19876(6) 0.60910(6) 0.028997(17)
O6A O -0.20170(6) 0.41136(6) 0.140734(17)
C1A C -0.14947(5) 0.36862(5) 0.129494(15)
C2A C 0.14764(5) 0.51498(5) 0.041223(16)
C3A C 0.01777(5) 0.17835(5) 0.039571(16)
H1A H -0.17033(15) 0.28782(18) 0.13817(5)
H2A H 0.18520(15) 0.46407(18) 0.03954(6)
H3A H -0.07060(18) 0.13574(15) 0.03712(7)
Fe1C Fe -0.33333(4) -0.34066(4) 0.08330
O1C O -0.41380(6) -0.48904(6) 0.109287(18)
O2C O -0.26592(6) -0.20262(6) 0.054234(19)
O3C O -0.47774(6) -0.41922(6) 0.054880(19)
O4C O -0.13440(6) -0.06701(6) 0.027125(17)
O5C O -0.60910(6) -0.41034(6) 0.028997(17)
O6C O -0.41136(6) -0.61306(6) 0.140734(17)
C1C C -0.36862(5) -0.51809(5) 0.129494(15)
C2C C -0.51498(5) -0.36734(5) 0.041223(16)
C3C C -0.17835(5) -0.16058(5) 0.039571(16)
H1C H -0.28782(15) -0.45815(18) 0.13817(5)
H2C H -0.46407(15) -0.27887(18) 0.03954(6)
H3C H -0.13574(18) -0.20634(15) 0.03712(7)
O2R O -0.20262(6) 0.06330(6) -0.054234(19)
O4R O -0.06701(6) 0.06739(6) -0.027125(17)
C3R C -0.16058(5) 0.01777(5) -0.039571(16)
H3R H -0.20634(18) -0.07060(15) -0.03712(7)
O2S O -0.06330(6) -0.26592(6) -0.054234(19)
O4S O -0.06739(6) -0.13440(6) -0.027125(17)
C3S C -0.01777(5) -0.17835(5) -0.039571(16)
H3S H 0.07060(18) -0.13574(15) -0.03712(7)
O2U O 0.26592(6) 0.20262(6) -0.054234(19)
O4U O 0.13440(6) 0.06701(6) -0.027125(17)
C3U C 0.17835(5) 0.16058(5) -0.039571(16)
H3U H 0.13574(18) 0.20634(15) -0.03712(7)
Fe3N Fe 0.66663 0.33337 -0.002711(16)
O1N O 0.408573(60) 0.155707(60) 0.057380(18)
O6N O 0.535033(60) 0.279727(60) 0.025933(17)
C1N C 0.482803(50) 0.184757(50) 0.037173(15)
H1N H 0.503663(150) 0.124817(180) 0.028497(50)
O3N O 0.274813(60) 0.085887(60) 0.111787(19)
O5N O 0.134573(60) 0.077007(60) 0.137670(17)
C2N C 0.185693(50) 0.034007(50) 0.125444(16)
H2N H 0.148133(150) -0.054463(180) 0.127127(60)
O1A* O 0.92476(6) 0.41380(6) 0.109287(18)
O6A* O 0.79830(6) 0.41136(6) 0.140734(17)
C1A* C 0.85053(5) 0.36862(5) 0.129494(15)
H1A* H 0.82967(15) 0.28782(18) 0.13817(5)
O3CA O 0.855593(60) 0.608147(60) 0.221547(19)
O5CA O 0.724233(60) 0.467907(60) 0.195664(17)
C2CA C 0.818353(50) 0.519027(50) 0.207890(16)
H2CA H 0.869263(150) 0.481467(180) 0.206207(60)
O1C* O 0.58620(6) 0.51096(6) 0.109287(18)
O6C* O 0.58864(6) 0.38694(6) 0.140734(17)
C1C* C 0.63138(5) 0.48191(5) 0.129494(15)
H1C* H 0.71218(15) 0.54185(18) 0.13817(5)
O3BA O 0.752553(60) 0.144407(60) 0.221547(19)
O5BA O 0.743673(60) 0.275767(60) 0.195664(17)
C2BA C 0.700673(50) 0.181647(50) 0.207890(16)
H2BA H 0.612203(150) 0.130737(180) 0.206207(60)
Fe1A* Fe 0.99267(4) 0.33333(4) 0.08330
Fe1C* Fe 0.66667(4) 0.65934(4) 0.08330
Fe1R Fe -0.34066(4) -0.00733(4) -0.08330
Fe1S Fe 0.00733(4) -0.33333(4) -0.08330
Fe1U Fe 0.33333(4) 0.34066(4) -0.08330
Fe1EA Fe 0.673997(40) 0.000003(40) 0.25003
Fe1GA Fe 0.999997(40) 0.673993(40) 0.25003
Fe3* Fe -0.33330 -0.66670 0.169378(16)
Fe3** Fe -0.33330 0.33330 0.169378(16)
Fe3DA Fe -0.00003 0.00003 0.163955(16)
Fe3FA Fe -0.66663 -0.33337 0.002711(16)
Fe3FA* Fe 0.33337 -0.33337 0.002711(16)
Fe3FA** Fe 0.33337 0.66663 0.002711(16)
O1P O -0.155707(60) 0.252867(60) 0.057380(18)
O1Q O -0.252867(60) -0.408573(60) 0.057380(18)
O2N O 0.270033(60) -0.130713(60) 0.112433(19)
O2P O 0.130713(60) 0.400747(60) 0.112433(19)
O2Q O -0.400747(60) -0.270033(60) 0.112433(19)
O3P O -0.085887(60) 0.188927(60) 0.111787(19)
O3Q O -0.188927(60) -0.274813(60) 0.111787(19)
O5R O 0.58966(6) 0.19876(6) -0.028997(17)
O5S O 0.80124(6) 0.39090(6) -0.028997(17)
O5U O 0.60910(6) 0.41034(6) -0.028997(17)
O5Z O 0.532093(60) 0.256327(60) 0.195664(17)
O6P O 0.720273(60) 0.255307(60) 0.025933(17)
O6Q O 0.744693(60) 0.464967(60) 0.025933(17)
C4Q C 0.328583(120) 0.334117(100) 0.113537(70)
H4Q H 0.394173(180) 0.266267(200) 0.082437(90)
H5Q H 0.319833(300) 0.405067(300) 0.113747(160)
H6Q H 0.375533(400) 0.335767(300) 0.134237(140)
H7Q H 0.250233(300) 0.260967(300) 0.114437(170)
#END
