
#######################################################################
#
#                 Cambridge Crystallographic Data Centre
#                                CCDC
#
#######################################################################
#
# If this CIF has been generated from an entry in the Cambridge
# Structural Database, then it will include bibliographic, chemical,
# crystal, experimental, refinement or atomic coordinate data resulting
# from the CCDC's data processing and validation procedures.
#
#######################################################################

data_CSD_CIF_NUDNUW06
_audit_creation_date 2016-06-21
_audit_creation_method CSD-ConQuest-V1
_database_code_CSD NUDNUW06
_database_code_depnum_ccdc_archive 'CCDC 1450892'
_chemical_formula_sum 'C24 H42 Fe6 N3 O36'
_chemical_formula_moiety
;
(C18 H18 Fe6 O36 3-)n,3n(C2 H8 N1 1+)
;
_journal_coden_Cambridge 1326
_journal_volume 18
_journal_year 2016
_journal_page_first 8462
_journal_name_full 'Phys.Chem.Chem.Phys.(PCCP) '
loop_
_publ_author_name
"A.Sieradzki"
"S.Pawlus"
"S.N.Tripathy"
"A.Gagor"
"A.Ciupa"
"M.Maczka"
"M.Paluch"
_chemical_name_systematic
;
catena-[tris(dimethylammonium) 
octadecakis(\m~2~-formato)-tri-iron(ii)-tri-iron(iii)]
;
_cell_volume   7335.689
_exptl_crystal_density_diffrn 1.744
_exptl_special_details
;
R-3c rhombohedral polymorph

;
_exptl_crystal_description 'column'
_diffrn_ambient_temperature 125.0
_refine_special_details
;
The structure is disordered.

;
#These two values have been output from a single CSD field.
_refine_ls_R_factor_gt 0.0245
_refine_ls_wR_factor_gt 0.0245
_symmetry_cell_setting rhombohedral
_symmetry_space_group_name_H-M 'R -3 c'
_symmetry_Int_Tables_number 167
loop_
_symmetry_equiv_pos_site_id
_symmetry_equiv_pos_as_xyz
1 x,y,z
2 -y,x-y,z
3 -x+y,-x,z
4 y,x,1/2-z
5 x-y,-y,1/2-z
6 -x,-x+y,1/2-z
7 2/3+x,1/3+y,1/3+z
8 2/3-y,1/3+x-y,1/3+z
9 2/3-x+y,1/3-x,1/3+z
10 2/3+y,1/3+x,5/6-z
11 2/3+x-y,1/3-y,5/6-z
12 2/3-x,1/3-x+y,5/6-z
13 1/3+x,2/3+y,2/3+z
14 1/3-y,2/3+x-y,2/3+z
15 1/3-x+y,2/3-x,2/3+z
16 1/3+y,2/3+x,1/6-z
17 1/3+x-y,2/3-y,1/6-z
18 1/3-x,2/3-x+y,1/6-z
19 -x,-y,-z
20 y,-x+y,-z
21 x-y,x,-z
22 -y,-x,-1/2+z
23 -x+y,y,-1/2+z
24 x,x-y,-1/2+z
25 -2/3-x,-1/3-y,-1/3-z
26 -2/3+y,-1/3-x+y,-1/3-z
27 -2/3+x-y,-1/3+x,-1/3-z
28 -2/3-y,-1/3-x,-5/6+z
29 -2/3-x+y,-1/3+y,-5/6+z
30 -2/3+x,-1/3+x-y,-5/6+z
31 -1/3-x,-2/3-y,-2/3-z
32 -1/3+y,-2/3-x+y,-2/3-z
33 -1/3+x-y,-2/3+x,-2/3-z
34 -1/3-y,-2/3-x,-1/6+z
35 -1/3-x+y,-2/3+y,-1/6+z
36 -1/3+x,-2/3+x-y,-1/6+z
_cell_length_a 14.2896(5)
_cell_length_b 14.2896(5)
_cell_length_c 41.4830(15)
_cell_angle_alpha 90
_cell_angle_beta 90
_cell_angle_gamma 120
_cell_formula_units_Z 6
loop_
_atom_type_symbol
_atom_type_radius_bond
C 0.68
H 0.23
Fe 1.52
N 0.68
O 0.68
loop_
_atom_site_label
_atom_site_type_symbol
_atom_site_fract_x
_atom_site_fract_y
_atom_site_fract_z
Fe1 Fe -0.00679(2) 0.33330 0.08330
Fe2 Fe 0.00000 0.00000 0.00000
Fe3 Fe -0.33330 0.33330 -0.00242(2)
O1 O 0.05940(9) 0.47759(10) 0.05482(3)
O2 O -0.15522(10) 0.25324(9) 0.05737(3)
O3 O 0.19888(9) 0.60869(9) 0.02881(3)
O4 O 0.06365(9) 0.26553(10) 0.05442(3)
O5 O -0.27911(9) 0.25591(9) 0.02603(2)
O6 O 0.06732(9) 0.13440(9) 0.02707(3)
C1 C 0.01890(15) 0.17878(14) 0.03965(4)
H1 H -0.05590 0.14370 0.03770
C2 C -0.18477(14) 0.29850(15) 0.03750(4)
H2 H -0.13440 0.36780 0.03070
C3 C 0.14809(14) 0.51524(14) 0.04105(4)
H3 H 0.17930 0.47180 0.03960
H4 H -0.04460 0.55320 0.07210
N1 N -0.0515(4) 0.6152(4) 0.08330
C4 C 0.0037(4) 0.6720(4) 0.05432(15)
H5? H -0.11720 0.60750 0.08360
H6? H 0.01320 0.74350 0.05470
H7? H -0.03860 0.63360 0.03580
H8? H 0.07300 0.67670 0.05320
H9? H -0.00390 0.73090 0.03840
H10? H 0.08750 0.68620 0.09890
H11? H 0.08890 0.69780 0.07180
H12? H -0.04550 0.61620 0.02330
H13? H 0.07120 0.68010 0.03790
C5? C 0.0192(6) 0.6839(6) 0.0979(2)
C6? C -0.0020(5) 0.6648(5) 0.0401(2)
N2? N -0.0439(5) 0.6158(5) 0.07104(17)
H14? H -0.11170 0.60170 0.07290
H15? H -0.01210 0.64720 0.04900
Fe1A Fe -0.33330(2) -0.34009 0.08330
O1A O -0.47759(9) -0.41819(10) 0.05482(3)
O2A O -0.25324(10) -0.40846(9) 0.05737(3)
O3A O -0.60869(9) -0.40981(9) 0.02881(3)
O4A O -0.26553(9) -0.20188(10) 0.05442(3)
O5A O -0.25591(9) -0.53502(9) 0.02603(2)
O6A O -0.13440(9) -0.06708(9) 0.02707(3)
C1A C -0.17878(15) -0.15988(14) 0.03965(4)
H1A H -0.14370 -0.19960 0.03770
C2A C -0.29850(14) -0.48327(15) 0.03750(4)
H2A H -0.36780 -0.50220 0.03070
C3A C -0.51524(14) -0.36715(14) 0.04105(4)
H3A H -0.47180 -0.29250 0.03960
Fe1B Fe -0.65991(2) 0.00679 0.08330
O1B O -0.58181(9) -0.0594(1) 0.05482(3)
O2B O -0.59154(10) 0.15522(9) 0.05737(3)
O3B O -0.59019(9) -0.19888(9) 0.02881(3)
O4B O -0.79812(9) -0.06365(10) 0.05442(3)
O5B O -0.46498(9) 0.27911(9) 0.02603(2)
O6B O -0.93292(9) -0.06732(9) 0.02707(3)
C1B C -0.84012(15) -0.01890(14) 0.03965(4)
H1B H -0.80040 0.05590 0.03770
C2B C -0.51673(14) 0.18477(15) 0.03750(4)
H2B H -0.49780 0.13440 0.03070
C3B C -0.63285(14) -0.14809(14) 0.04105(4)
H3B H -0.70750 -0.17930 0.03960
O4R O -0.06365(9) -0.26553(10) -0.05442(3)
O6R O -0.06732(9) -0.13440(9) -0.02707(3)
C1R C -0.01890(15) -0.17878(14) -0.03965(4)
H1R H 0.05590 -0.14370 -0.03770
O1S O -0.52241(9) 0.41819(10) -0.05482(3)
O3S O -0.39131(9) 0.40981(9) -0.02881(3)
C3S C -0.48476(14) 0.36715(14) -0.04105(4)
H3S H -0.52820 0.29250 -0.03960
O1T O -0.41819(9) 0.0594(1) -0.05482(3)
O3T O -0.40981(9) 0.19888(9) -0.02881(3)
O4T O -0.20188(9) 0.06365(10) -0.05442(3)
O6T O -0.06708(9) 0.06732(9) -0.02707(3)
C1T C -0.15988(15) 0.01890(14) -0.03965(4)
H1T H -0.19960 -0.05590 -0.03770
C3T C -0.36715(14) 0.14809(14) -0.04105(4)
H3T H -0.29250 0.17930 -0.03960
Fe3O Fe -0.33337 0.33337 0.169087(20)
O2P O -0.075127(100) 0.413427(90) 0.109297(30)
O5P O -0.201687(90) 0.410757(90) 0.140637(20)
C2P C -0.149937(140) 0.368167(150) 0.129167(40)
H2P H -0.16887 0.29887 0.13597
O1P O -0.084857(90) 0.189077(100) 0.111847(30)
O3P O -0.076477(90) 0.057977(90) 0.137857(30)
C3P C -0.033817(140) 0.151427(140) 0.125617(40)
H3P H 0.04083 0.19487 0.12707
O2A* O -0.25324(10) 0.59154(9) 0.05737(3)
O5A* O -0.25591(9) 0.46498(9) 0.02603(2)
C2A* C -0.29850(14) 0.51673(15) 0.03750(4)
H2A* H -0.36780 0.49780 0.03070
O4P O 0.131453(90) 0.401137(100) 0.112247(30)
O6P O 0.266253(90) 0.532267(90) 0.139597(30)
C1P C 0.173453(150) 0.487887(140) 0.127017(40)
H1P H 0.13373 0.52297 0.12897
O2O O -0.413427(100) -0.488553(90) 0.109297(30)
O5O O -0.410757(90) -0.612443(90) 0.140637(20)
C2O C -0.368167(140) -0.518103(150) 0.129167(40)
H2O H -0.29887 -0.46773 0.13597
Fe1A* Fe -0.33330(2) 0.65991 0.08330
Fe1R Fe 0.00679(2) -0.33330 -0.08330
Fe1S Fe -0.66670(2) 0.34009 -0.08330
Fe1T Fe -0.34009(2) -0.00679 -0.08330
Fe2* Fe -1.00000 0.00000 0.00000
Fe2O Fe 0.33333 0.66667 0.16667
Fe3* Fe -0.33330 -0.66670 -0.00242(2)
Fe3O* Fe -0.33337 -0.66663 0.169087(20)
Fe3R Fe -0.66670 -0.33330 0.00242(2)
Fe3R* Fe 0.33330 0.66670 0.00242(2)
Fe3AA Fe 0.00003 -0.00003 0.164247(20)
O1O O -0.189077(90) -0.273933(100) 0.111847(30)
O1Q O -0.726067(90) 0.084857(100) 0.111847(30)
O2Q O -0.511447(100) 0.075127(90) 0.109297(30)
O3R O -0.19888(9) 0.39131(9) -0.02881(3)
O3AA O -0.275357(90) 0.467787(90) 0.195477(30)
O3BA O -0.256857(90) 0.275357(90) 0.195477(30)
O3CA O -0.467787(90) 0.256857(90) 0.195477(30)
O4O O -0.401137(90) -0.269683(100) 0.112247(30)
O4Q O -0.730317(90) -0.131453(100) 0.112247(30)
O5O* O -0.410757(90) 0.387557(90) 0.140637(20)
O5Q O -0.387557(90) 0.201687(90) 0.140637(20)
O6B* O 0.06708(9) -0.06732(9) 0.02707(3)
O6S O 0.13440(9) 0.06708(9) -0.02707(3)
H4O H -0.11347 0.62207 0.09457
C4O C 0.005333(400) 0.670367(400) 0.112347(150)
#END
