
#######################################################################
#
#                 Cambridge Crystallographic Data Centre
#                                CCDC
#
#######################################################################
#
# If this CIF has been generated from an entry in the Cambridge
# Structural Database, then it will include bibliographic, chemical,
# crystal, experimental, refinement or atomic coordinate data resulting
# from the CCDC's data processing and validation procedures.
#
#######################################################################

data_CSD_CIF_NUDNUW12
_audit_creation_date 2019-09-10
_audit_creation_method CSD-ConQuest-V1
_database_code_CSD NUDNUW12
_database_code_depnum_ccdc_archive 'CCDC 1892965'
_chemical_formula_sum 'C24 H42 Fe6 N3 O36'
_chemical_formula_moiety
;
(C18 H18 Fe6 O36 3-)n,3(C2 H8 N1 1+)
;
_journal_coden_Cambridge 9
_journal_volume 58
_journal_year 2019
_journal_page_first 11773
_journal_name_full 'Inorg.Chem. '
loop_
_publ_author_name
"S.Sobczak"
"A.Katrusiak"
_chemical_name_systematic
;
catena-[tris(dimethylammonium) 
octadecakis(\m-formato)-tri-iron(iii)-tri-iron(ii)]
;
_cell_volume   4140.025
_exptl_crystal_colour 'black'
_exptl_crystal_density_diffrn 2.055
_exptl_crystal_description 'block'
_diffrn_ambient_temperature 293
_diffrn_ambient_pressure 2000000.0
#These two values have been output from a single CSD field.
_refine_ls_R_factor_gt 0.1256
_refine_ls_wR_factor_gt 0.1256
_symmetry_cell_setting monoclinic
_symmetry_space_group_name_H-M 'P 21/c'
_symmetry_Int_Tables_number 14
loop_
_symmetry_equiv_pos_site_id
_symmetry_equiv_pos_as_xyz
1 x,y,z
2 -x,1/2+y,1/2-z
3 -x,-y,-z
4 x,-1/2-y,-1/2+z
_cell_length_a 8.306(5)
_cell_length_b 14.022(2)
_cell_length_c 35.556(10)
_cell_angle_alpha 90
_cell_angle_beta 91.30(4)
_cell_angle_gamma 90
_cell_formula_units_Z 4
loop_
_atom_type_symbol
_atom_type_radius_bond
C 0.68
H 0.23
Fe 1.52
N 0.68
O 0.68
loop_
_atom_site_label
_atom_site_type_symbol
_atom_site_fract_x
_atom_site_fract_y
_atom_site_fract_z
Fe1 Fe 0.1820(8) 0.2642(2) 0.33293(13)
Fe2 Fe 0.2309(6) 0.24712(17) 0.49678(10)
Fe3 Fe -0.2605(6) 0.4342(2) 0.25602(12)
Fe4 Fe 0.7209(9) 0.0960(2) 0.40548(14)
Fe5 Fe 0.2685(8) 0.5933(2) 0.41071(14)
Fe6 Fe 0.7421(8) 0.7882(2) 0.32556(13)
O1 O 0.301(5) 0.3523(12) 0.5298(8)
O2 O 0.125(4) 0.3522(11) 0.4653(5)
O3 O 0.097(4) 0.3695(10) 0.3047(6)
O4 O 0.376(5) 0.9478(15) 0.2994(8)
O5 O 0.380(4) 0.2622(11) 0.3030(6)
O6 O 0.264(4) 0.3622(11) 0.3687(6)
O7 O 0.134(3) 0.4905(11) 0.4401(5)
O8 O -0.405(4) 0.6869(10) 0.3001(5)
O9 O 0.892(4) 0.7684(12) 0.2832(6)
O10 O 0.266(4) 0.1569(11) 0.3637(6)
O11 O 0.039(3) 0.2358(9) 0.5273(5)
O12 O 0.432(3) 0.2621(9) 0.4671(5)
O13 O -0.136(4) 0.4504(12) 0.3104(6)
O14 O 0.384(4) 0.5000(11) 0.3743(6)
O15 O 0.583(4) 0.7936(11) 0.3680(6)
O16 O 0.366(3) 0.0142(11) 0.5584(5)
O17 O -0.420(4) 0.5400(12) 0.2775(6)
C1 C 0.965(6) 0.8364(17) 0.2727(8)
H1 H 0.91690 0.89610 0.27100
O18 O 1.158(5) 0.1473(12) 0.4636(8)
O19 O 0.347(4) 0.1503(10) 0.5292(6)
C2 C 0.001(6) 0.4292(17) 0.3206(10)
H2 H 0.04010 0.45920 0.34230
O20 O -0.012(5) 0.2629(14) 0.3648(7)
O21 O 0.369(4) 0.7161(11) 0.3882(6)
O22 O 0.530(4) 0.4300(12) 0.5538(6)
C3 C -0.042(6) 0.3075(19) 0.5414(9)
H3 H 0.00720 0.36710 0.54230
O23 O 0.073(5) 0.6085(13) 0.3796(7)
C4 C -0.147(6) 0.2437(17) 0.3511(11)
H4 H -0.16450 0.25290 0.32540
O24 O -0.173(4) 0.3005(11) 0.5530(6)
O25 O 0.600(4) 0.3249(11) 0.2771(6)
O26 O 0.611(4) 0.8814(11) 0.2995(5)
O27 O 0.930(5) 0.0848(13) 0.4287(7)
O28 O 0.653(4) 0.2008(11) 0.4441(6)
O29 O 0.096(4) 0.0406(12) 0.2652(6)
C5 C 0.522(6) 0.1929(18) 0.4578(9)
H5 H 0.48350 0.13140 0.46190
C6 C 0.393(6) 0.4198(17) 0.3622(9)
H6 H 0.48280 0.39850 0.34930
C7 C 0.905(6) 0.9681(19) 0.3532(9)
H7 H 0.99720 1.00570 0.35250
O30 O 0.908(4) 0.8856(13) 0.3443(7)
O31 O 0.074(4) 0.1698(10) 0.2988(6)
C8 C 0.517(6) 0.7217(18) 0.3752(9)
H8 H 0.57250 0.66500 0.37140
O32 O 0.767(4) 1.0035(13) 0.3641(7)
O33 O 1.114(4) 0.8235(10) 0.2637(6)
C9 C 0.168(6) 0.1089(17) 0.2829(9)
H9 H 0.27980 0.11420 0.28420
C10 C 0.453(6) 0.3250(17) 0.2845(9)
H10 H 0.39190 0.37610 0.27550
O34 O 0.486(5) 0.0797(13) 0.3897(7)
C11 C 0.492(7) 0.927(2) 0.3162(12)
H11 H 0.50210 0.94160 0.34160
O35 O -0.255(4) 0.2137(13) 0.3695(6)
C12 C -0.339(7) 0.602(2) 0.2976(11)
H12 H -0.24060 0.58670 0.30930
C13 C 0.299(6) 0.0820(19) 0.5452(10)
H13 H 0.18810 0.08110 0.54800
C14 C 0.194(6) 0.4150(16) 0.4513(9)
H14 H 0.30370 0.40720 0.44830
C15 C 0.442(9) 0.148(3) 0.3774(13)
H15 H 0.51130 0.19960 0.37530
C16 C -0.021(7) 0.680(2) 0.3624(12)
H16 H 0.03890 0.73450 0.35710
O36 O -0.153(6) 0.6875(15) 0.3534(9)
C17 C 0.438(7) 0.3600(18) 0.5365(10)
H17 H 0.49780 0.30820 0.52850
C18 C 1.026(8) 0.154(2) 0.4439(12)
H18 H 0.99050 0.21550 0.43950
N1 N 0.293(4) 0.6563(13) 0.2589(6)
H19 H 0.40400 0.67520 0.26310
H20 H 0.22920 0.71370 0.25510
C19 C 0.235(7) 0.605(2) 0.2927(9)
H21 H 0.24260 0.64650 0.31420
H22 H 0.30070 0.54960 0.29720
H23 H 0.12520 0.58600 0.28860
C20 C 0.280(7) 0.5930(18) 0.2226(9)
H24 H 0.18020 0.55840 0.22240
H25 H 0.36830 0.54890 0.22240
H26 H 0.28340 0.63300 0.20070
C21 C 0.207(9) -0.080(2) 0.3964(15)
H27 H 0.19870 -0.01330 0.39050
H28 H 0.10320 -0.10350 0.40350
H29 H 0.24260 -0.11420 0.37480
C22 C 0.278(8) -0.074(2) 0.4651(12)
H30 H 0.37070 -0.08170 0.48160
H31 H 0.19540 -0.11750 0.47240
H32 H 0.23920 -0.00980 0.46680
N2 N 0.322(6) -0.0934(16) 0.4275(10)
H33 H 0.35740 -0.15930 0.42670
H34 H 0.41530 -0.05430 0.42230
N3 N 0.304(7) 0.5813(19) 0.5704(10)
H35 H 0.40420 0.54540 0.57080
H36 H 0.33310 0.64680 0.57630
C23 C 0.219(10) 0.549(2) 0.5994(12)
H37 H 0.11460 0.57900 0.59890
H38 H 0.27430 0.56500 0.62260
H39 H 0.20680 0.48150 0.59750
C24 C 0.246(7) 0.581(2) 0.5315(11)
H40 H 0.32780 0.60690 0.51570
H41 H 0.15090 0.61980 0.52930
H42 H 0.22160 0.51710 0.52390
Fe2* Fe 1.2309(6) 0.24712(17) 0.49678(10)
Fe3* Fe 0.7395(6) 0.4342(2) 0.25602(12)
Fe3A Fe 0.2605(6) -0.0658(2) 0.24398(12)
Fe3A* Fe 0.2605(6) 0.9342(2) 0.24398(12)
Fe3A** Fe 1.2605(6) 0.9342(2) 0.24398(12)
Fe4* Fe -0.2791(9) 0.0960(2) 0.40548(14)
Fe4** Fe 0.7209(9) 1.0960(2) 0.40548(14)
Fe4B Fe 0.2791(9) -0.0960(2) 0.59452(14)
Fe5B Fe -0.2685(8) 0.4067(2) 0.58929(14)
Fe5B* Fe 0.7315(8) 0.4067(2) 0.58929(14)
Fe6* Fe -0.2579(8) 0.7882(2) 0.32556(13)
O4A O -0.376(5) 0.4478(15) 0.2006(8)
O8* O 0.595(4) 0.6869(10) 0.3001(5)
O16B O 0.634(3) -0.0142(11) 0.4416(5)
O18* O 0.158(5) 0.1473(12) 0.4636(8)
O22B O 0.470(4) 0.5700(12) 0.4462(6)
O24B O 0.173(4) 0.6995(11) 0.4470(6)
O25* O -0.400(4) 0.3249(11) 0.2771(6)
O29A O -0.096(4) 0.5406(12) 0.2348(6)
O32* O 0.767(4) 0.0035(13) 0.3641(7)
O33A O -0.114(4) 0.3235(10) 0.2363(6)
O35* O 0.745(4) 0.2137(13) 0.3695(6)
O36* O 0.847(6) 0.6875(15) 0.3534(9)
#END
