
#######################################################################
#
#                 Cambridge Crystallographic Data Centre
#                                CCDC
#
#######################################################################
#
# If this CIF has been generated from an entry in the Cambridge
# Structural Database, then it will include bibliographic, chemical,
# crystal, experimental, refinement or atomic coordinate data resulting
# from the CCDC's data processing and validation procedures.
#
#######################################################################

data_CSD_CIF_NUDNUW13
_audit_creation_date 2019-08-22
_audit_creation_method CSD-ConQuest-V1
_database_code_CSD NUDNUW13
_database_code_depnum_ccdc_archive 'CCDC 1892948'
_chemical_formula_sum 'C8 H14 Fe2 N1 O12'
_chemical_formula_moiety
;
(C6 H6 Fe2 O12 1-)n,n(C2 H8 N1 1+)
;
_journal_coden_Cambridge 9
_journal_volume 58
_journal_year 2019
_journal_page_first 11773
_journal_name_full 'Inorg.Chem. '
loop_
_publ_author_name
"S.Sobczak"
"A.Katrusiak"
_chemical_name_systematic
;
catena-(dimethylammonium hexakis(\m-formato)-iron(ii)-iron(iii))
;
_cell_volume    782.824
_exptl_crystal_colour 'black'
_exptl_special_details
;
P-31c polymorph

;
_exptl_crystal_description 'block'
_diffrn_ambient_temperature 293
_diffrn_ambient_pressure 1100000.0
_refine_special_details
;
The cation is disordered by symmetry.

;
#These two values have been output from a single CSD field.
_refine_ls_R_factor_gt 0.1013
_refine_ls_wR_factor_gt 0.1013
_symmetry_cell_setting hexagonal
_symmetry_space_group_name_H-M 'P -3 1 c'
_symmetry_Int_Tables_number 163
loop_
_symmetry_equiv_pos_site_id
_symmetry_equiv_pos_as_xyz
1 x,y,z
2 -y,x-y,z
3 -x+y,-x,z
4 -y,-x,1/2-z
5 -x+y,y,1/2-z
6 x,x-y,1/2-z
7 -x,-y,-z
8 y,-x+y,-z
9 x-y,x,-z
10 y,x,-1/2+z
11 x-y,-y,-1/2+z
12 -x,-x+y,-1/2+z
_cell_length_a 8.2357(16)
_cell_length_b 8.2357(16)
_cell_length_c 13.327(2)
_cell_angle_alpha 90
_cell_angle_beta 90
_cell_angle_gamma 120
_cell_formula_units_Z 2
loop_
_atom_type_symbol
_atom_type_radius_bond
C 0.68
H 0.23
Fe 1.52
N 0.68
O 0.68
loop_
_atom_site_label
_atom_site_type_symbol
_atom_site_fract_x
_atom_site_fract_y
_atom_site_fract_z
Fe1 Fe 0.66667 0.33333 0.25000
O1 O 0.880(5) 0.303(5) 0.178(2)
Fe2 Fe 1.00000 0.00000 0.00000
O2 O 0.975(5) 0.145(6) 0.0905(16)
C1 C 0.859(9) 0.178(8) 0.124(3)
H1 H 0.73606 0.09404 0.10533
N1 N 1.281(6) 0.608(6) 0.239(3)
C2 C 1.362(8) 0.534(10) 0.174(3)
O1A O 0.697(5) -0.423(5) 0.178(2)
O2A O 0.855(5) -0.170(6) 0.0905(16)
C1A C 0.822(9) -0.319(8) 0.124(3)
H1A H 0.90596 -0.35798 0.10533
O1A* O 0.697(5) 0.577(5) 0.178(2)
O2A* O 0.855(5) 0.830(6) 0.0905(16)
C1A* C 0.822(9) 0.681(8) 0.124(3)
H1A* H 0.90596 0.64202 0.10533
O1B O 0.423(5) 0.120(5) 0.178(2)
O2B O 0.170(5) 0.025(6) 0.0905(16)
C1B C 0.319(9) 0.141(8) 0.124(3)
H1B H 0.35798 0.26394 0.10533
O1B* O 1.423(5) 0.120(5) 0.178(2)
O2B* O 1.170(5) 0.025(6) 0.0905(16)
C1B* C 1.319(9) 0.141(8) 0.124(3)
H1B* H 1.35798 0.26394 0.10533
O1C O 0.697(5) 0.120(5) 0.322(2)
O2C O 0.855(5) 0.025(6) 0.4095(16)
C1C C 0.822(9) 0.141(8) 0.376(3)
H1C H 0.90596 0.26394 0.39467
Fe1* Fe 0.66667 -0.66667 0.25000
Fe1** Fe 1.66667 0.33333 0.25000
O1D O 0.423(5) 0.303(5) 0.322(2)
O1E O 0.880(5) 0.577(5) 0.322(2)
Fe2* Fe 0.00000 0.00000 0.00000
Fe2** Fe 1.00000 1.00000 0.00000
Fe2C Fe 1.00000 0.00000 0.50000
O2F O 1.025(5) -0.145(6) -0.0905(16)
O2G O 1.145(5) 0.170(6) -0.0905(16)
O2H O 0.830(5) -0.025(6) -0.0905(16)
N1A N 1.392(6) 0.673(6) 0.239(3)
C2A C 1.466(8) 0.828(10) 0.174(3)
N1B N 1.327(6) 0.719(6) 0.239(3)
C2B C 1.172(8) 0.638(10) 0.174(3)
N1C N 1.392(6) 0.719(6) 0.261(3)
C2C C 1.466(8) 0.638(10) 0.326(3)
N1D N 1.327(6) 0.608(6) 0.261(3)
C2D C 1.172(8) 0.534(10) 0.326(3)
N1E N 1.281(6) 0.673(6) 0.261(3)
C2E C 1.362(8) 0.828(10) 0.326(3)
#END
