
#######################################################################
#
#                 Cambridge Crystallographic Data Centre
#                                CCDC
#
#######################################################################
#
# If this CIF has been generated from an entry in the Cambridge
# Structural Database, then it will include bibliographic, chemical,
# crystal, experimental, refinement or atomic coordinate data resulting
# from the CCDC's data processing and validation procedures.
#
#######################################################################

data_CSD_CIF_NUDNUW08
_audit_creation_date 2016-06-21
_audit_creation_method CSD-ConQuest-V1
_database_code_CSD NUDNUW08
_database_code_depnum_ccdc_archive 'CCDC 1450894'
_chemical_formula_sum 'C24 H42 Fe6 N3 O36'
_chemical_formula_moiety
;
(C18 H18 Fe6 O36 3-)n,3(C2 H8 N1 1+)
;
_journal_coden_Cambridge 1326
_journal_volume 18
_journal_year 2016
_journal_page_first 8462
_journal_name_full 'Phys.Chem.Chem.Phys.(PCCP) '
loop_
_publ_author_name
"A.Sieradzki"
"S.Pawlus"
"S.N.Tripathy"
"A.Gagor"
"A.Ciupa"
"M.Maczka"
"M.Paluch"
_chemical_name_systematic
;
catena-[tris(dimethylammonium) 
octadecakis(\m~2~-formato)-tri-iron(ii)-tri-iron(iii)]
;
_cell_volume   7354.849
_exptl_crystal_density_diffrn 1.739
_exptl_special_details
;
R-3c rhombohedral polymorph

;
_exptl_crystal_description 'column'
_diffrn_ambient_temperature 150.0
_refine_special_details
;
The structure is disordered.

;
#These two values have been output from a single CSD field.
_refine_ls_R_factor_gt 0.0297
_refine_ls_wR_factor_gt 0.0297
_symmetry_cell_setting rhombohedral
_symmetry_space_group_name_H-M 'R -3 c'
_symmetry_Int_Tables_number 167
loop_
_symmetry_equiv_pos_site_id
_symmetry_equiv_pos_as_xyz
1 x,y,z
2 -y,x-y,z
3 -x+y,-x,z
4 y,x,1/2-z
5 x-y,-y,1/2-z
6 -x,-x+y,1/2-z
7 2/3+x,1/3+y,1/3+z
8 2/3-y,1/3+x-y,1/3+z
9 2/3-x+y,1/3-x,1/3+z
10 2/3+y,1/3+x,5/6-z
11 2/3+x-y,1/3-y,5/6-z
12 2/3-x,1/3-x+y,5/6-z
13 1/3+x,2/3+y,2/3+z
14 1/3-y,2/3+x-y,2/3+z
15 1/3-x+y,2/3-x,2/3+z
16 1/3+y,2/3+x,1/6-z
17 1/3+x-y,2/3-y,1/6-z
18 1/3-x,2/3-x+y,1/6-z
19 -x,-y,-z
20 y,-x+y,-z
21 x-y,x,-z
22 -y,-x,-1/2+z
23 -x+y,y,-1/2+z
24 x,x-y,-1/2+z
25 -2/3-x,-1/3-y,-1/3-z
26 -2/3+y,-1/3-x+y,-1/3-z
27 -2/3+x-y,-1/3+x,-1/3-z
28 -2/3-y,-1/3-x,-5/6+z
29 -2/3-x+y,-1/3+y,-5/6+z
30 -2/3+x,-1/3+x-y,-5/6+z
31 -1/3-x,-2/3-y,-2/3-z
32 -1/3+y,-2/3-x+y,-2/3-z
33 -1/3+x-y,-2/3+x,-2/3-z
34 -1/3-y,-2/3-x,-1/6+z
35 -1/3-x+y,-2/3+y,-1/6+z
36 -1/3+x,-2/3+x-y,-1/6+z
_cell_length_a 14.2991(5)
_cell_length_b 14.2991(5)
_cell_length_c 41.5361(13)
_cell_angle_alpha 90
_cell_angle_beta 90
_cell_angle_gamma 120
_cell_formula_units_Z 6
loop_
_atom_type_symbol
_atom_type_radius_bond
C 0.68
H 0.23
Fe 1.52
N 0.68
O 0.68
loop_
_atom_site_label
_atom_site_type_symbol
_atom_site_fract_x
_atom_site_fract_y
_atom_site_fract_z
Fe1 Fe -0.00550(3) 0.33330 0.08330
O1 O 0.06098(11) 0.47715(11) 0.05487(3)
O2 O -0.15335(12) 0.25390(11) 0.05717(3)
O3 O 0.13358(16) 0.40137(11) 0.11207(3)
C1 C 0.14856(16) 0.51478(16) 0.04077(4)
C2 C -0.18380(16) 0.29946(17) 0.03792(4)
C3 C 0.17467(23) 0.48730(16) 0.12696(4)
O4 O 0.19897(11) 0.60792(10) 0.02847(3)
H1 H 0.17960 0.47130 0.03910
O5 O -0.27778(11) 0.25694(11) 0.02628(3)
H2 H -0.13410 0.36960 0.03170
O6 O 0.26721(16) 0.53252(11) 0.13956(3)
H3 H 0.13420 0.52160 0.12910
Fe2 Fe 0.33330 0.66670 0.00193(2)
Fe3 Fe 0.33330 0.66670 0.16670
H4 H -0.10860 0.60450 0.07220
N1 N -0.0519(6) 0.6148(6) 0.08340
C4 C 0.0049(5) 0.6708(5) 0.11215(17)
H5? H -0.11760 0.60720 0.08350
H6? H 0.01070 0.74180 0.05430
H7? H -0.03590 0.63160 0.03600
H8? H 0.07470 0.67920 0.05410
N2? N -0.0410(7) 0.6181(7) 0.0700(2)
H9? H 0.03190 0.75510 0.09480
C5? C 0.0220(7) 0.6838(7) 0.0969(2)
H10? H 0.09110 0.68800 0.09710
H11? H 0.02640 0.74130 0.12860
H12? H 0.05670 0.65020 0.13080
C6? C -0.0012(6) 0.6649(6) 0.1276(2)
H13? H -0.01540 0.65190 0.11660
H14? H -0.05490 0.62940 0.14400
H15? H -0.11150 0.62430 0.09590
Fe1A Fe 0.66670(3) 0.66120 0.08330
O1A O 0.52285(11) 0.58383(11) 0.05487(3)
O2A O 0.74610(12) 0.59275(11) 0.05717(3)
O3A O 0.59863(16) 0.73221(11) 0.11207(3)
C1A C 0.48522(16) 0.63378(16) 0.04077(4)
C2A C 0.70054(16) 0.51674(17) 0.03792(4)
C3A C 0.51270(23) 0.68737(16) 0.12696(4)
O4A O 0.39208(11) 0.59105(10) 0.02847(3)
H1A H 0.52870 0.70830 0.03910
O5A O 0.74306(11) 0.46528(11) 0.02628(3)
H2A H 0.63040 0.49630 0.03170
O6A O 0.46748(16) 0.73469(11) 0.13956(3)
H3A H 0.47840 0.61260 0.12910
Fe1B Fe 0.33880(3) 1.00550 0.08330
O1B O 0.41617(11) 0.93902(11) 0.05487(3)
O2B O 0.40725(12) 1.15335(11) 0.05717(3)
O3B O 0.26779(16) 0.86642(11) 0.11207(3)
C1B C 0.36622(16) 0.85144(16) 0.04077(4)
C2B C 0.48326(16) 1.18380(17) 0.03792(4)
C3B C 0.31263(23) 0.82533(16) 0.12696(4)
O4B O 0.40895(11) 0.80103(10) 0.02847(3)
H1B H 0.29170 0.82040 0.03910
O5B O 0.53472(11) 1.27778(11) 0.02628(3)
H2B H 0.50370 1.13410 0.03170
O6B O 0.26531(16) 0.73279(11) 0.13956(3)
H3B H 0.38740 0.86580 0.12910
O1R O -0.06098(11) 0.52285(11) -0.05487(3)
O2R O 0.15335(12) 0.74610(11) -0.05717(3)
C1R C -0.14856(16) 0.48522(16) -0.04077(4)
C2R C 0.18380(16) 0.70054(17) -0.03792(4)
O4R O -0.19897(11) 0.39208(10) -0.02847(3)
H1R H -0.17960 0.52870 -0.03910
O5R O 0.27778(11) 0.74306(11) -0.02628(3)
H2R H 0.13410 0.63040 -0.03170
Fe2R Fe -0.33330 0.33330 -0.00193(2)
O1S O -0.52285(11) 0.41617(11) -0.05487(3)
C1S C -0.48522(16) 0.36622(16) -0.04077(4)
O4S O -0.39208(11) 0.40895(10) -0.02847(3)
H1S H -0.52870 0.29170 -0.03910
O1T O -0.41617(11) 0.06098(11) -0.05487(3)
C1T C -0.36622(16) 0.14856(16) -0.04077(4)
O4T O -0.40895(11) 0.19897(10) -0.02847(3)
H1T H -0.29170 0.17960 -0.03910
O3P O 0.065543(160) 0.265297(110) 0.054597(30)
C3P C 0.020703(230) 0.179367(160) 0.039707(40)
O6P O 0.068023(160) 0.134147(110) 0.027107(30)
H3P H -0.05407 0.14507 0.03757
O2P O -0.073917(120) 0.412767(110) 0.109497(30)
C2P C -0.149927(160) 0.367207(170) 0.128747(40)
O5P O -0.201387(110) 0.409727(110) 0.140387(30)
H2P H -0.17037 0.29707 0.13497
O3EA O 0.068037(160) 0.601123(110) 0.221263(30)
C3EA C 0.153967(230) 0.645963(160) 0.206373(40)
O6EA O 0.199187(160) 0.598643(110) 0.193773(30)
H3EA H 0.18827 0.72073 0.20423
O2T O 0.59275(12) 0.84665(11) -0.05717(3)
C2T C 0.51674(16) 0.81620(17) -0.03792(4)
O5T O 0.46528(11) 0.72222(11) -0.02628(3)
H2T H 0.49630 0.86590 -0.03170
O3FA O 0.398877(160) 0.466913(110) 0.221263(30)
C3FA C 0.354037(230) 0.508003(160) 0.206373(40)
O6FA O 0.401357(160) 0.600543(110) 0.193773(30)
H3FA H 0.27927 0.46753 0.20423
Fe1R Fe 0.00550(3) 0.66670 -0.08330
Fe1S Fe -0.66670(3) 0.33880 -0.08330
Fe1T Fe -0.33880(3) -0.00550 -0.08330
Fe1T* Fe 0.66120(3) 0.99450 -0.08330
Fe1EA Fe -0.000033(30) 0.67213 0.25003
Fe1FA Fe 0.327867(30) 0.32783 0.25003
O1O O 0.810483(110) 0.727647(110) 0.111797(30)
O1P O -0.082837(110) 0.189517(110) 0.111797(30)
O1Q O 0.272353(110) 1.082837(110) 0.111797(30)
O2O O 0.587233(120) 0.513317(110) 0.109497(30)
O2Q O 0.486683(120) 1.073917(110) 0.109497(30)
O3O O 0.734703(160) 0.800247(110) 0.054597(30)
O3Q O 0.199753(160) 0.934457(110) 0.054597(30)
O5A* O -0.25694(11) 0.46528(11) 0.02628(3)
O5B* O -0.46528(11) 0.27778(11) 0.02628(3)
O5S O 0.25694(11) 0.53472(11) -0.02628(3)
O6DA O 0.399457(160) 0.800813(110) 0.193773(30)
Fe2R* Fe 0.66670 0.33330 -0.00193(2)
Fe2R** Fe 0.66670 1.33330 -0.00193(2)
Fe2AA Fe -0.33337 0.33337 0.168597(20)
Fe3O Fe 0.00003 -0.00003 -0.00003
H4O H -0.06217 0.55807 0.09447
C4O C 0.004133(500) 0.671567(500) 0.054517(170)
#END
