
#######################################################################
#
#                 Cambridge Crystallographic Data Centre
#                                CCDC
#
#######################################################################
#
# If this CIF has been generated from an entry in the Cambridge
# Structural Database, then it will include bibliographic, chemical,
# crystal, experimental, refinement or atomic coordinate data resulting
# from the CCDC's data processing and validation procedures.
#
#######################################################################

data_CSD_CIF_NUDNUW07
_audit_creation_date 2016-06-21
_audit_creation_method CSD-ConQuest-V1
_database_code_CSD NUDNUW07
_database_code_depnum_ccdc_archive 'CCDC 1450893'
_chemical_formula_sum 'C24 H42 Fe6 N3 O36'
_chemical_formula_moiety
;
(C18 H18 Fe6 O36 3-)n,3n(C2 H8 N1 1+)
;
_journal_coden_Cambridge 1326
_journal_volume 18
_journal_year 2016
_journal_page_first 8462
_journal_name_full 'Phys.Chem.Chem.Phys.(PCCP) '
loop_
_publ_author_name
"A.Sieradzki"
"S.Pawlus"
"S.N.Tripathy"
"A.Gagor"
"A.Ciupa"
"M.Maczka"
"M.Paluch"
_chemical_name_systematic
;
catena-[tris(dimethylammonium) 
octadecakis(\m~2~-formato)-tri-iron(ii)-tri-iron(iii)]
;
_cell_volume   7341.304
_exptl_crystal_density_diffrn 1.742
_exptl_special_details
;
R-3c rhombohedral polymorph

;
_exptl_crystal_description 'column'
_diffrn_ambient_temperature 140.0
_refine_special_details
;
The structure is disordered.

;
#These two values have been output from a single CSD field.
_refine_ls_R_factor_gt 0.0258
_refine_ls_wR_factor_gt 0.0258
_symmetry_cell_setting rhombohedral
_symmetry_space_group_name_H-M 'R -3 c'
_symmetry_Int_Tables_number 167
loop_
_symmetry_equiv_pos_site_id
_symmetry_equiv_pos_as_xyz
1 x,y,z
2 -y,x-y,z
3 -x+y,-x,z
4 y,x,1/2-z
5 x-y,-y,1/2-z
6 -x,-x+y,1/2-z
7 2/3+x,1/3+y,1/3+z
8 2/3-y,1/3+x-y,1/3+z
9 2/3-x+y,1/3-x,1/3+z
10 2/3+y,1/3+x,5/6-z
11 2/3+x-y,1/3-y,5/6-z
12 2/3-x,1/3-x+y,5/6-z
13 1/3+x,2/3+y,2/3+z
14 1/3-y,2/3+x-y,2/3+z
15 1/3-x+y,2/3-x,2/3+z
16 1/3+y,2/3+x,1/6-z
17 1/3+x-y,2/3-y,1/6-z
18 1/3-x,2/3-x+y,1/6-z
19 -x,-y,-z
20 y,-x+y,-z
21 x-y,x,-z
22 -y,-x,-1/2+z
23 -x+y,y,-1/2+z
24 x,x-y,-1/2+z
25 -2/3-x,-1/3-y,-1/3-z
26 -2/3+y,-1/3-x+y,-1/3-z
27 -2/3+x-y,-1/3+x,-1/3-z
28 -2/3-y,-1/3-x,-5/6+z
29 -2/3-x+y,-1/3+y,-5/6+z
30 -2/3+x,-1/3+x-y,-5/6+z
31 -1/3-x,-2/3-y,-2/3-z
32 -1/3+y,-2/3-x+y,-2/3-z
33 -1/3+x-y,-2/3+x,-2/3-z
34 -1/3-y,-2/3-x,-1/6+z
35 -1/3-x+y,-2/3+y,-1/6+z
36 -1/3+x,-2/3+x-y,-1/6+z
_cell_length_a 14.2909(5)
_cell_length_b 14.2909(5)
_cell_length_c 41.5072(16)
_cell_angle_alpha 90
_cell_angle_beta 90
_cell_angle_gamma 120
_cell_formula_units_Z 6
loop_
_atom_type_symbol
_atom_type_radius_bond
C 0.68
H 0.23
Fe 1.52
N 0.68
O 0.68
loop_
_atom_site_label
_atom_site_type_symbol
_atom_site_fract_x
_atom_site_fract_y
_atom_site_fract_z
Fe1 Fe -0.00627(2) 0.33330 0.08330
Fe2 Fe 0.00000 0.00000 0.00000
Fe3 Fe -0.33330 0.33330 -0.00222(2)
O1 O 0.06012(10) 0.47742(10) 0.05485(3)
O2 O -0.15449(10) 0.25352(10) 0.05732(3)
O3 O 0.19887(9) 0.60841(9) 0.02863(2)
O4 O 0.06443(10) 0.26534(10) 0.05447(3)
O5 O -0.27848(9) 0.25655(9) 0.02612(2)
O6 O 0.06753(9) 0.13406(9) 0.02710(2)
C1 C 0.01950(15) 0.17871(14) 0.03971(4)
H1 H -0.05530 0.14380 0.03770
C2 C -0.18420(14) 0.29889(15) 0.03766(4)
H2 H -0.13390 0.36840 0.03100
C3 C 0.14826(14) 0.51493(14) 0.04093(4)
H3 H 0.17940 0.47150 0.03940
H4 H -0.04280 0.55420 0.07130
N1 N -0.0517(5) 0.6150(5) 0.08330
C4 C 0.0044(4) 0.6716(4) 0.05449(15)
H5? H -0.11740 0.60740 0.08340
H6? H 0.01030 0.74150 0.05410
H7? H -0.03510 0.63100 0.03590
H8? H 0.07540 0.67990 0.05430
N2? N -0.0424(6) 0.6166(6) 0.07052(17)
C5? C 0.0212(6) 0.6838(6) 0.0972(2)
H9? H 0.01100 0.73580 0.13010
H10? H -0.04810 0.61760 0.14360
H11? H 0.06660 0.66520 0.12800
C6? C -0.0027(5) 0.6656(5) 0.0397(2)
H12? H 0.08810 0.69700 0.07180
H13? H 0.02210 0.75740 0.06950
H14? H -0.01540 0.65250 0.11710
H15? H -0.06460 0.55640 0.09400
Fe1A Fe -0.33330(2) -0.33957 0.08330
O1A O -0.47742(10) -0.4173(1) 0.05485(3)
O2A O -0.25352(10) -0.40801(10) 0.05732(3)
O3A O -0.60841(9) -0.40954(9) 0.02863(2)
O4A O -0.26534(10) -0.20091(10) 0.05447(3)
O5A O -0.25655(9) -0.53503(9) 0.02612(2)
O6A O -0.13406(9) -0.06653(9) 0.02710(2)
C1A C -0.17871(15) -0.15921(14) 0.03971(4)
H1A H -0.14380 -0.19910 0.03770
C2A C -0.29889(14) -0.48309(15) 0.03766(4)
H2A H -0.36840 -0.50230 0.03100
C3A C -0.51493(14) -0.36667(14) 0.04093(4)
H3A H -0.47150 -0.29210 0.03940
Fe1B Fe -0.66043(2) 0.00627 0.08330
O1B O -0.5827(1) -0.06012(10) 0.05485(3)
O2B O -0.59199(10) 0.15449(10) 0.05732(3)
O3B O -0.59046(9) -0.19887(9) 0.02863(2)
O4B O -0.79909(10) -0.06443(10) 0.05447(3)
O5B O -0.46497(9) 0.27848(9) 0.02612(2)
O6B O -0.93347(9) -0.06753(9) 0.02710(2)
C1B C -0.84079(15) -0.01950(14) 0.03971(4)
H1B H -0.80090 0.05530 0.03770
C2B C -0.51691(14) 0.18420(15) 0.03766(4)
H2B H -0.49770 0.13390 0.03100
C3B C -0.63333(14) -0.14826(14) 0.04093(4)
H3B H -0.70790 -0.17940 0.03940
O4R O -0.06443(10) -0.26534(10) -0.05447(3)
O6R O -0.06753(9) -0.13406(9) -0.02710(2)
C1R C -0.01950(15) -0.17871(14) -0.03971(4)
H1R H 0.05530 -0.14380 -0.03770
O1S O -0.52258(10) 0.4173(1) -0.05485(3)
O3S O -0.39159(9) 0.40954(9) -0.02863(2)
C3S C -0.48507(14) 0.36667(14) -0.04093(4)
H3S H -0.52850 0.29210 -0.03940
O1T O -0.4173(1) 0.06012(10) -0.05485(3)
O3T O -0.40954(9) 0.19887(9) -0.02863(2)
O4T O -0.20091(10) 0.06443(10) -0.05447(3)
O6T O -0.06653(9) 0.06753(9) -0.02710(2)
C1T C -0.15921(15) 0.01950(14) -0.03971(4)
H1T H -0.19910 -0.05530 -0.03770
C3T C -0.36667(14) 0.14826(14) -0.04093(4)
H3T H -0.29210 0.17940 -0.03940
Fe3O Fe -0.33337 0.33337 0.168887(20)
O2P O -0.074677(100) 0.413147(100) 0.109347(30)
O5P O -0.201697(90) 0.410117(90) 0.140547(20)
C2P C -0.149757(140) 0.367777(150) 0.129007(40)
H2P H -0.16897 0.29827 0.13567
O1P O -0.083967(100) 0.189247(100) 0.111817(30)
O3P O -0.076207(90) 0.058257(90) 0.138037(20)
C3P C -0.033337(140) 0.151737(140) 0.125737(40)
H3P H 0.04123 0.19517 0.12727
O2A* O -0.25352(10) 0.59199(10) 0.05732(3)
O5A* O -0.25655(9) 0.46497(9) 0.02612(2)
C2A* C -0.29889(14) 0.51691(15) 0.03766(4)
H2A* H -0.36840 0.49770 0.03100
O4P O 0.132423(100) 0.401327(100) 0.112197(30)
O6P O 0.266803(90) 0.532607(90) 0.139567(20)
C1P C 0.174123(150) 0.487957(140) 0.126957(40)
H1P H 0.13423 0.52287 0.12897
O2O O -0.413147(100) -0.487823(100) 0.109347(30)
O5O O -0.410117(90) -0.611813(90) 0.140547(20)
C2O C -0.367777(140) -0.517533(150) 0.129007(40)
H2O H -0.29827 -0.46723 0.13567
Fe1A* Fe -0.33330(2) 0.66043 0.08330
Fe1R Fe 0.00627(2) -0.33330 -0.08330
Fe1S Fe -0.66670(2) 0.33957 -0.08330
Fe1T Fe -0.33957(2) -0.00627 -0.08330
Fe2* Fe -1.00000 0.00000 0.00000
Fe2O Fe 0.33333 0.66667 0.16667
Fe3* Fe -0.33330 -0.66670 -0.00222(2)
Fe3O* Fe -0.33337 -0.66663 0.168887(20)
Fe3R Fe -0.66670 -0.33330 0.00222(2)
Fe3R* Fe 0.33330 0.66670 0.00222(2)
Fe3AA Fe 0.00003 -0.00003 0.164447(20)
O1O O -0.189247(100) -0.273213(100) 0.111817(30)
O1Q O -0.726787(100) 0.083967(100) 0.111817(30)
O2Q O -0.512177(100) 0.074677(100) 0.109347(30)
O3R O -0.19887(9) 0.39159(9) -0.02863(2)
O3AA O -0.275077(90) 0.467797(90) 0.195297(20)
O3BA O -0.257127(90) 0.275077(90) 0.195297(20)
O3CA O -0.467797(90) 0.257127(90) 0.195297(20)
O4O O -0.401327(100) -0.268903(100) 0.112197(30)
O4Q O -0.731097(100) -0.132423(100) 0.112197(30)
O5O* O -0.410117(90) 0.388187(90) 0.140547(20)
O5Q O -0.388187(90) 0.201697(90) 0.140547(20)
O6B* O 0.06653(9) -0.06753(9) 0.02710(2)
O6S O 0.13406(9) 0.06653(9) -0.02710(2)
H4O H -0.11247 0.62387 0.09537
C4O C 0.004933(400) 0.671067(400) 0.112177(150)
#END
