
#######################################################################
#
#                 Cambridge Crystallographic Data Centre
#                                CCDC
#
#######################################################################
#
# If this CIF has been generated from an entry in the Cambridge
# Structural Database, then it will include bibliographic, chemical,
# crystal, experimental, refinement or atomic coordinate data resulting
# from the CCDC's data processing and validation procedures.
#
#######################################################################

data_CSD_CIF_NUDNUW15
_audit_creation_date 2019-08-22
_audit_creation_method CSD-ConQuest-V1
_database_code_CSD NUDNUW15
_database_code_depnum_ccdc_archive 'CCDC 1892947'
_chemical_formula_sum 'C8 H14 Fe2 N1 O12'
_chemical_formula_moiety
;
(C6 H6 Fe2 O12 1-)n,n(C2 H8 N1 1+)
;
_journal_coden_Cambridge 9
_journal_volume 58
_journal_year 2019
_journal_page_first 11773
_journal_name_full 'Inorg.Chem. '
loop_
_publ_author_name
"S.Sobczak"
"A.Katrusiak"
_chemical_name_systematic
;
catena-(dimethylammonium hexakis(\m-formato)-iron(ii)-iron(iii))
;
_cell_volume    784.142
_exptl_crystal_colour 'black'
_exptl_crystal_density_diffrn 1.815
_exptl_special_details
;
P-31c polymorph

;
_exptl_crystal_description 'block'
_diffrn_ambient_temperature 293
_diffrn_ambient_pressure 1000000.0
_refine_special_details
;
The cation is disordered by symmetry.

;
#These two values have been output from a single CSD field.
_refine_ls_R_factor_gt 0.0482
_refine_ls_wR_factor_gt 0.0482
_symmetry_cell_setting hexagonal
_symmetry_space_group_name_H-M 'P -3 1 c'
_symmetry_Int_Tables_number 163
loop_
_symmetry_equiv_pos_site_id
_symmetry_equiv_pos_as_xyz
1 x,y,z
2 -y,x-y,z
3 -x+y,-x,z
4 -y,-x,1/2-z
5 -x+y,y,1/2-z
6 x,x-y,1/2-z
7 -x,-y,-z
8 y,-x+y,-z
9 x-y,x,-z
10 y,x,-1/2+z
11 x-y,-y,-1/2+z
12 -x,-x+y,-1/2+z
_cell_length_a 8.2238(14)
_cell_length_b 8.2238(14)
_cell_length_c 13.3881(17)
_cell_angle_alpha 90
_cell_angle_beta 90
_cell_angle_gamma 120
_cell_formula_units_Z 2
loop_
_atom_type_symbol
_atom_type_radius_bond
C 0.68
H 0.23
Fe 1.52
N 0.68
O 0.68
loop_
_atom_site_label
_atom_site_type_symbol
_atom_site_fract_x
_atom_site_fract_y
_atom_site_fract_z
Fe1 Fe 0.66670 0.33330 0.25000
Fe2 Fe 1.00000 0.00000 0.00000
O1 O 0.8895(6) 0.3466(7) 0.1650(2)
C1 C 0.8784(10) 0.2135(10) 0.1200(3)
O2 O 1.0168(6) 0.2068(5) 0.0836(2)
H1 H 0.751(10) 0.106(9) 0.096(3)
C2 C 1.33330 0.66670 0.117(4)
N1 N 1.274(6) 0.706(6) 0.206(2)
O1A O 0.6534(6) -0.4571(7) 0.1650(2)
C1A C 0.7865(10) -0.3351(10) 0.1200(3)
O2A O 0.7932(6) -0.1900(5) 0.0836(2)
H1A H 0.894(10) -0.355(9) 0.096(3)
O1A* O 0.6534(6) 0.5429(7) 0.1650(2)
C1A* C 0.7865(10) 0.6649(10) 0.1200(3)
O2A* O 0.7932(6) 0.8100(5) 0.0836(2)
H1A* H 0.894(10) 0.645(9) 0.096(3)
O1B O 0.4571(6) 0.1105(7) 0.1650(2)
C1B C 0.3351(10) 0.1216(10) 0.1200(3)
O2B O 0.1900(6) -0.0168(5) 0.0836(2)
H1B H 0.355(10) 0.249(9) 0.096(3)
O1B* O 1.4571(6) 0.1105(7) 0.1650(2)
C1B* C 1.3351(10) 0.1216(10) 0.1200(3)
O2B* O 1.1900(6) -0.0168(5) 0.0836(2)
H1B* H 1.355(10) 0.249(9) 0.096(3)
O1C O 0.6534(6) 0.1105(7) 0.3350(2)
C1C C 0.7865(10) 0.1216(10) 0.3800(3)
O2C O 0.7932(6) -0.0168(5) 0.4164(2)
H1C H 0.894(10) 0.249(9) 0.404(3)
Fe1* Fe 0.66670 -0.66670 0.25000
Fe1** Fe 1.66670 0.33330 0.25000
Fe2* Fe 0.00000 0.00000 0.00000
Fe2** Fe 1.00000 1.00000 0.00000
Fe2C Fe 1.00000 0.00000 0.50000
O1D O 0.4571(6) 0.3466(7) 0.3350(2)
O1E O 0.8895(6) 0.5429(7) 0.3350(2)
O2F O 0.9832(6) -0.2068(5) -0.0836(2)
O2G O 1.2068(6) 0.1900(5) -0.0836(2)
O2H O 0.8100(6) 0.0168(5) -0.0836(2)
N1A N 1.294(6) 0.568(6) 0.206(2)
N1B N 1.432(6) 0.726(6) 0.206(2)
C2C C 1.33330 0.66670 0.383(4)
N1C N 1.294(6) 0.726(6) 0.294(2)
N1D N 1.432(6) 0.706(6) 0.294(2)
N1E N 1.274(6) 0.568(6) 0.294(2)
#END
