
#######################################################################
#
#                 Cambridge Crystallographic Data Centre
#                                CCDC
#
#######################################################################
#
# If this CIF has been generated from an entry in the Cambridge
# Structural Database, then it will include bibliographic, chemical,
# crystal, experimental, refinement or atomic coordinate data resulting
# from the CCDC's data processing and validation procedures.
#
#######################################################################

data_CSD_CIF_NUDNUW05
_audit_creation_date 2013-06-17
_audit_creation_method CSD-ConQuest-V1
_database_code_CSD NUDNUW05
_database_code_depnum_ccdc_archive 'CCDC 945084'
_chemical_formula_sum 'C8 H14 Fe2 N1 O12'
_chemical_formula_moiety
;
(C6 H6 Fe2 O12 1-)n,n(C2 H8 N1 1+)
;
_journal_coden_Cambridge 4
_journal_volume 134
_journal_year 2012
_journal_page_first 19772
_journal_name_full 'J.Am.Chem.Soc. '
loop_
_publ_author_name
"L.Canadillas-Delgado"
"O.Fabelo"
"J.Alberto Rodriguez-Velamazan"
"M.-H.Lemee-Cailleau"
"S.A.Mason"
"E.Pardo"
"F.Lloret"
"Jiong-Peng Zhao"
"Xian-He Bu"
"V.Simonet"
"C.V.Colin"
"J.Rodriguez-Carvajal"
_chemical_name_systematic
;
catena-[hexakis(\m~2~-Formato)-iron(ii)-iron(iii)]
;
_cell_volume    816.323
_exptl_crystal_colour 'black'
_exptl_crystal_density_diffrn 1.741
_exptl_special_details
;
P-31c trigonal polymorph
Undergoes a phase-transition around 155 K

;
_exptl_crystal_description 'Prism'
_diffrn_ambient_temperature 175
_diffrn_radiation_probe 'neutron'
_diffrn_special_details
;
monochromatic data

;
_refine_special_details
;
N1 disordered by symmetry over three sites with occupancy 0.33.

;
#These two values have been output from a single CSD field.
_refine_ls_R_factor_gt 0.0389
_refine_ls_wR_factor_gt 0.0389
_symmetry_cell_setting hexagonal
_symmetry_space_group_name_H-M 'P -3 1 c'
_symmetry_Int_Tables_number 163
loop_
_symmetry_equiv_pos_site_id
_symmetry_equiv_pos_as_xyz
1 x,y,z
2 -y,x-y,z
3 -y,-x,1/2-z
4 -x+y,-x,z
5 x,x-y,1/2-z
6 -x+y,y,1/2-z
7 -x,-y,-z
8 y,-x+y,-z
9 y,x,-1/2+z
10 x-y,x,-z
11 -x,-x+y,-1/2+z
12 x-y,-y,-1/2+z
_cell_length_a 8.2485(2)
_cell_length_b 8.2485(2)
_cell_length_c 13.8542(5)
_cell_angle_alpha 90
_cell_angle_beta 90
_cell_angle_gamma 120
_cell_formula_units_Z 2
loop_
_atom_type_symbol
_atom_type_radius_bond
C 0.68
H 0.23
Fe 1.52
N 0.68
O 0.68
loop_
_atom_site_label
_atom_site_type_symbol
_atom_site_fract_x
_atom_site_fract_y
_atom_site_fract_z
Fe1 Fe 0.66670 0.33330 0.25000
Fe2 Fe 1.00000 0.00000 0.00000
O1 O 0.88612(15) 0.34192(15) 0.16643(9)
O2 O 1.01242(13) 0.20642(13) 0.08177(7)
C1 C 0.87479(11) 0.21091(12) 0.11835(6)
H1 H 0.7371(4) 0.0913(5) 0.1050(3)
C2 C 1.33330 0.66670 0.1570(8)
N1 N 1.2798(3) 0.5595(5) 0.25000
H2 H 1.1417(18) 0.4789(19) 0.2453(18)
H3 H 1.2653(15) 0.5329(13) 0.1369(14)
O1A O 0.65808(15) -0.45580(15) 0.16643(9)
O2A O 0.79358(13) -0.19400(13) 0.08177(7)
C1A C 0.78909(11) -0.33612(12) 0.11835(6)
H1A H 0.9087(4) -0.3542(5) 0.1050(3)
O1A* O 0.65808(15) 0.54420(15) 0.16643(9)
O2A* O 0.79358(13) 0.80600(13) 0.08177(7)
C1A* C 0.78909(11) 0.66388(12) 0.11835(6)
H1A* H 0.9087(4) 0.6458(5) 0.1050(3)
O1B O 0.65808(15) 0.11388(15) 0.33357(9)
O2B O 0.79358(13) -0.01242(13) 0.41823(7)
C1B C 0.78909(11) 0.12521(12) 0.38165(6)
H1B H 0.9087(4) 0.2629(5) 0.3950(3)
O1C O 0.45580(15) 0.11388(15) 0.16643(9)
O2C O 0.19400(13) -0.01242(13) 0.08177(7)
C1C C 0.33612(11) 0.12521(12) 0.11835(6)
H1C H 0.3542(4) 0.2629(5) 0.1050(3)
O1C* O 1.45580(15) 0.11388(15) 0.16643(9)
O2C* O 1.19400(13) -0.01242(13) 0.08177(7)
C1C* C 1.33612(11) 0.12521(12) 0.11835(6)
H1C* H 1.3542(4) 0.2629(5) 0.1050(3)
Fe1* Fe 0.66670 -0.66670 0.25000
Fe1** Fe 1.66670 0.33330 0.25000
Fe2* Fe 0.00000 0.00000 0.00000
Fe2** Fe 1.00000 1.00000 0.00000
Fe2B Fe 1.00000 0.00000 0.50000
O1D O 0.88612(15) 0.54420(15) 0.33357(9)
O1E O 0.45580(15) 0.34192(15) 0.33357(9)
O2F O 0.98758(13) -0.20642(13) -0.08177(7)
O2G O 1.20642(13) 0.19400(13) -0.08177(7)
O2I O 0.80600(13) 0.01242(13) -0.08177(7)
N1A N 1.4405(3) 0.7203(5) 0.25000
H2A H 1.5211(18) 0.6628(19) 0.2453(18)
H3A H 1.4671(15) 0.7324(13) 0.1369(14)
C2B C 1.33330 0.66670 0.3430(8)
H2B H 1.5211(18) 0.8583(19) 0.2547(18)
H3B H 1.4671(15) 0.7347(13) 0.3631(14)
N1C N 1.2797(3) 0.7202(5) 0.25000
H2C H 1.3372(18) 0.8583(19) 0.2453(18)
H3C H 1.2676(15) 0.7347(13) 0.1369(14)
H2D H 1.1417(18) 0.6628(19) 0.2547(18)
H3D H 1.2653(15) 0.7324(13) 0.3631(14)
H2E H 1.3372(18) 0.4789(19) 0.2547(18)
H3E H 1.2676(15) 0.5329(13) 0.3631(14)
#END
