
#######################################################################
#
#                 Cambridge Crystallographic Data Centre
#                                CCDC
#
#######################################################################
#
# If this CIF has been generated from an entry in the Cambridge
# Structural Database, then it will include bibliographic, chemical,
# crystal, experimental, refinement or atomic coordinate data resulting
# from the CCDC's data processing and validation procedures.
#
#######################################################################

data_CSD_CIF_NUDNUW11
_audit_creation_date 2019-09-10
_audit_creation_method CSD-ConQuest-V1
_database_code_CSD NUDNUW11
_database_code_depnum_ccdc_archive 'CCDC 1892964'
_chemical_formula_sum 'C24 H42 Fe6 N3 O36'
_chemical_formula_moiety
;
(C18 H18 Fe6 O36 3-)n,3n(C2 H8 N1 1+)
;
_journal_coden_Cambridge 9
_journal_volume 58
_journal_year 2019
_journal_page_first 11773
_journal_name_full 'Inorg.Chem. '
loop_
_publ_author_name
"S.Sobczak"
"A.Katrusiak"
_chemical_name_systematic
;
catena-(tris(dimethylammonium) 
octadecakis(\m-formato)-tri-iron(ii)-tri-iron(iii))
;
_cell_volume   4256.128
_exptl_crystal_colour 'black'
_exptl_special_details
;
P21/c polymorph

;
_exptl_crystal_description 'block'
_diffrn_ambient_temperature 293
_diffrn_ambient_pressure 1500000.0
#These two values have been output from a single CSD field.
_refine_ls_R_factor_gt 0.1565
_refine_ls_wR_factor_gt 0.1565
_symmetry_cell_setting monoclinic
_symmetry_space_group_name_H-M 'P 21/c'
_symmetry_Int_Tables_number 14
loop_
_symmetry_equiv_pos_site_id
_symmetry_equiv_pos_as_xyz
1 x,y,z
2 -x,1/2+y,1/2-z
3 -x,-y,-z
4 x,-1/2-y,-1/2+z
_cell_length_a 8.353(3)
_cell_length_b 14.119(3)
_cell_length_c 36.091(3)
_cell_angle_alpha 90
_cell_angle_beta 90.681(12)
_cell_angle_gamma 90
_cell_formula_units_Z 4
loop_
_atom_type_symbol
_atom_type_radius_bond
C 0.68
H 0.23
Fe 1.52
N 0.68
O 0.68
loop_
_atom_site_label
_atom_site_type_symbol
_atom_site_fract_x
_atom_site_fract_y
_atom_site_fract_z
Fe1 Fe 0.1841(6) 0.2635(2) 0.33265(9)
Fe2 Fe 0.2317(5) 0.24738(19) 0.49687(7)
Fe3 Fe -0.2624(6) 0.4332(3) 0.25568(9)
Fe4 Fe 0.7173(6) 0.0943(2) 0.40606(8)
Fe5 Fe 0.2653(6) 0.5926(2) 0.41047(8)
Fe6 Fe 0.7418(6) 0.7851(2) 0.32542(9)
O1 O 0.316(3) 0.3498(10) 0.5298(4)
O2 O 0.134(3) 0.3505(11) 0.4666(4)
O3 O 0.094(3) 0.3681(11) 0.3050(4)
O4 O 0.373(3) 0.9469(12) 0.2973(4)
O5 O 0.380(3) 0.2638(11) 0.3039(5)
O6 O 0.272(3) 0.3618(13) 0.3685(4)
O7 O 0.133(3) 0.4925(11) 0.4388(4)
O8 O -0.398(3) 0.6837(12) 0.3000(4)
O9 O 0.890(3) 0.7700(13) 0.2847(5)
O10 O 0.265(4) 0.1568(13) 0.3653(5)
O11 O 0.044(3) 0.2393(11) 0.5268(4)
O12 O 0.427(3) 0.2589(11) 0.4679(4)
O13 O -0.140(3) 0.4447(11) 0.3076(4)
O14 O 0.399(3) 0.5001(13) 0.3772(4)
O15 O 0.591(3) 0.7888(11) 0.3677(4)
O16 O 0.360(3) 0.0134(12) 0.5580(5)
O17 O -0.416(3) 0.5407(11) 0.2763(4)
C1 C 0.981(5) 0.8291(19) 0.2707(5)
H1 H 0.93528 0.88837 0.26653
O18 O 1.148(3) 0.1476(11) 0.4631(5)
O19 O 0.340(3) 0.1489(11) 0.5274(4)
C2 C 0.008(5) 0.4286(19) 0.3202(6)
H2 H 0.04708 0.46266 0.34037
O20 O -0.009(3) 0.2571(12) 0.3644(4)
O21 O 0.381(4) 0.7146(13) 0.3901(5)
O22 O 0.525(3) 0.4285(12) 0.5535(4)
C3 C -0.039(5) 0.3059(19) 0.5404(6)
H3 H 0.00834 0.36556 0.54095
O23 O 0.065(3) 0.6070(12) 0.3775(4)
C4 C -0.144(5) 0.240(2) 0.3511(7)
H4 H -0.16219 0.25264 0.32606
O24 O -0.177(3) 0.2999(11) 0.5532(5)
O25 O 0.589(3) 0.3212(12) 0.2750(5)
O26 O 0.608(3) 0.8784(13) 0.2996(4)
O27 O 0.946(3) 0.0853(11) 0.4293(5)
O28 O 0.653(4) 0.2026(13) 0.4437(5)
O29 O 0.106(3) 0.0405(11) 0.2644(4)
C5 C 0.516(5) 0.195(2) 0.4588(6)
H5 H 0.48026 0.13330 0.46322
C6 C 0.379(6) 0.420(2) 0.3625(8)
H6 H 0.45378 0.40317 0.34487
C7 C 0.890(6) 0.967(2) 0.3523(7)
H7 H 0.97330 1.00982 0.34890
O30 O 0.899(3) 0.8841(13) 0.3430(5)
O31 O 0.079(3) 0.1665(11) 0.2999(4)
C8 C 0.510(5) 0.7157(19) 0.3759(8)
H8 H 0.55520 0.65736 0.37034
O32 O 0.757(4) 0.9921(15) 0.3670(5)
O33 O 1.119(3) 0.8221(11) 0.2615(4)
C9 C 0.157(5) 0.1088(19) 0.2822(7)
H9 H 0.26686 0.11761 0.28224
C10 C 0.442(5) 0.3207(16) 0.2831(7)
H10 H 0.37692 0.36694 0.27245
O34 O 0.472(3) 0.0809(11) 0.3890(4)
C11 C 0.502(6) 0.927(2) 0.3137(8)
H11 H 0.51929 0.94984 0.33761
O35 O -0.254(4) 0.2073(16) 0.3687(6)
C12 C -0.349(4) 0.6030(17) 0.2958(6)
H12 H -0.25455 0.58637 0.30804
C13 C 0.277(5) 0.0824(18) 0.5446(6)
H13 H 0.16700 0.08249 0.54797
C14 C 0.203(5) 0.4165(17) 0.4521(6)
H14 H 0.31400 0.41271 0.45027
C15 C 0.403(6) 0.148(2) 0.3703(8)
H15 H 0.46895 0.19334 0.35990
C16 C -0.008(5) 0.6771(19) 0.3645(7)
H16 H 0.05404 0.73119 0.36219
O36 O -0.139(4) 0.6868(14) 0.3548(5)
C17 C 0.468(5) 0.3567(19) 0.5394(7)
H17 H 0.53533 0.30525 0.53524
C18 C 1.018(5) 0.1531(18) 0.4435(7)
H18 H 0.97491 0.21313 0.43966
N1 N 0.287(4) 0.6552(15) 0.2597(6)
H19 H 0.38675 0.67230 0.26528
H20 H 0.23073 0.70791 0.25574
C19 C 0.219(5) 0.606(2) 0.2919(7)
H21 H 0.25068 0.54056 0.29143
H22 H 0.10470 0.61035 0.29099
H23 H 0.25879 0.63490 0.31428
C20 C 0.289(6) 0.600(2) 0.2244(8)
H24 H 0.35453 0.63161 0.20668
H25 H 0.18189 0.59388 0.21473
H26 H 0.33198 0.53770 0.22919
C21 C 0.199(6) -0.077(2) 0.3996(9)
H27 H 0.24328 -0.09538 0.37627
H28 H 0.17329 -0.01068 0.39902
H29 H 0.10426 -0.11300 0.40425
C22 C 0.273(6) -0.0788(19) 0.4653(8)
H30 H 0.24022 -0.01439 0.46896
H31 H 0.36705 -0.09149 0.48006
H32 H 0.18862 -0.12074 0.47243
N2 N 0.309(5) -0.0933(18) 0.4271(6)
H33 H 0.40237 -0.11312 0.42123
N3 N 0.291(4) 0.5858(17) 0.5693(6)
H34 H 0.37465 0.62033 0.57317
C23 C 0.243(6) 0.552(2) 0.5997(8)
H35 H 0.29990 0.49436 0.60500
H36 H 0.13068 0.53928 0.59788
H37 H 0.26317 0.59696 0.61916
C24 C 0.253(6) 0.5851(18) 0.5315(7)
H38 H 0.33068 0.62178 0.51828
H39 H 0.14866 0.61206 0.52768
H40 H 0.25376 0.52114 0.52250
Fe2* Fe 1.2317(5) 0.24738(19) 0.49687(7)
Fe3* Fe 0.7376(6) 0.4332(3) 0.25568(9)
Fe3A Fe 0.2624(6) -0.0668(3) 0.24432(9)
Fe3A* Fe 0.2624(6) 0.9332(3) 0.24432(9)
Fe3A** Fe 1.2624(6) 0.9332(3) 0.24432(9)
Fe4* Fe -0.2827(6) 0.0943(2) 0.40606(8)
Fe4** Fe 0.7173(6) 1.0943(2) 0.40606(8)
Fe4B Fe 0.2827(6) -0.0943(2) 0.59394(8)
Fe5B Fe -0.2653(6) 0.4074(2) 0.58953(8)
Fe5B* Fe 0.7347(6) 0.4074(2) 0.58953(8)
Fe6* Fe -0.2582(6) 0.7851(2) 0.32542(9)
O4A O -0.373(3) 0.4469(12) 0.2027(4)
O8* O 0.602(3) 0.6837(12) 0.3000(4)
O16B O 0.640(3) -0.0134(12) 0.4420(5)
O18* O 0.148(3) 0.1476(11) 0.4631(5)
O22B O 0.475(3) 0.5715(12) 0.4465(4)
O24B O 0.177(3) 0.7001(11) 0.4468(5)
O25* O -0.411(3) 0.3212(12) 0.2750(5)
O29A O -0.106(3) 0.5405(11) 0.2356(4)
O32* O 0.757(4) -0.0079(15) 0.3670(5)
O33A O -0.119(3) 0.3221(11) 0.2385(4)
O35* O 0.746(4) 0.2073(16) 0.3687(6)
O36* O 0.861(4) 0.6868(14) 0.3548(5)
#END
