
#######################################################################
#
#                 Cambridge Crystallographic Data Centre
#                                CCDC
#
#######################################################################
#
# If this CIF has been generated from an entry in the Cambridge
# Structural Database, then it will include bibliographic, chemical,
# crystal, experimental, refinement or atomic coordinate data resulting
# from the CCDC's data processing and validation procedures.
#
#######################################################################

data_CSD_CIF_NUDNUW14
_audit_creation_date 2019-08-22
_audit_creation_method CSD-ConQuest-V1
_database_code_CSD NUDNUW14
_database_code_depnum_ccdc_archive 'CCDC 1892949'
_chemical_formula_sum 'C8 H14 Fe2 N1 O12'
_chemical_formula_moiety
;
(C6 H6 Fe2 O12 1-)n,n(C2 H8 N1 1+)
;
_journal_coden_Cambridge 9
_journal_volume 58
_journal_year 2019
_journal_page_first 11773
_journal_name_full 'Inorg.Chem. '
loop_
_publ_author_name
"S.Sobczak"
"A.Katrusiak"
_chemical_name_systematic
;
catena-(dimethylammonium hexakis(\m-formato)-iron(ii)-iron(iii))
;
_cell_volume    779.505
_exptl_crystal_colour 'black'
_exptl_special_details
;
P-31c polymorph

;
_exptl_crystal_description 'block'
_diffrn_ambient_temperature 293
_diffrn_ambient_pressure 1250000.0
_refine_special_details
;
The cation is disordered by symmetry.

;
#These two values have been output from a single CSD field.
_refine_ls_R_factor_gt 0.0348
_refine_ls_wR_factor_gt 0.0348
_symmetry_cell_setting hexagonal
_symmetry_space_group_name_H-M 'P -3 1 c'
_symmetry_Int_Tables_number 163
loop_
_symmetry_equiv_pos_site_id
_symmetry_equiv_pos_as_xyz
1 x,y,z
2 -y,x-y,z
3 -x+y,-x,z
4 -y,-x,1/2-z
5 -x+y,y,1/2-z
6 x,x-y,1/2-z
7 -x,-y,-z
8 y,-x+y,-z
9 x-y,x,-z
10 y,x,-1/2+z
11 x-y,-y,-1/2+z
12 -x,-x+y,-1/2+z
_cell_length_a 8.2675(5)
_cell_length_b 8.2675(5)
_cell_length_c 13.1686(5)
_cell_angle_alpha 90
_cell_angle_beta 90
_cell_angle_gamma 120
_cell_formula_units_Z 2
loop_
_atom_type_symbol
_atom_type_radius_bond
C 0.68
H 0.23
Fe 1.52
N 0.68
O 0.68
loop_
_atom_site_label
_atom_site_type_symbol
_atom_site_fract_x
_atom_site_fract_y
_atom_site_fract_z
Fe1 Fe 0.33330 0.66670 0.75000
Fe2 Fe 0.00000 1.00000 1.00000
O1 O 0.3487(4) 0.8884(5) 0.8362(2)
C1 C 0.2170(6) 0.8814(6) 0.8814(2)
H1 H 0.11370 0.76370 0.89200
O2 O 0.2080(4) 1.0182(4) 0.91482(18)
C2 C 0.66670 1.33330 0.8667(18)
N1 N 0.562(5) 1.281(2) 0.75000
O1A O 0.1116(4) 0.4603(5) 0.8362(2)
C1A C 0.1186(6) 0.3356(6) 0.8814(2)
H1A H 0.23630 0.35000 0.89200
O2A O -0.0182(4) 0.1898(4) 0.91482(18)
O1A* O 0.1116(4) 1.4603(5) 0.8362(2)
C1A* C 0.1186(6) 1.3356(6) 0.8814(2)
H1A* H 0.23630 1.35000 0.89200
O2A* O -0.0182(4) 1.1898(4) 0.91482(18)
O1B O -0.4603(4) 0.6513(5) 0.8362(2)
C1B C -0.3356(6) 0.7830(6) 0.8814(2)
H1B H -0.35000 0.88630 0.89200
O2B O -0.1898(4) 0.7920(4) 0.91482(18)
O1B* O 0.5397(4) 0.6513(5) 0.8362(2)
C1B* C 0.6644(6) 0.7830(6) 0.8814(2)
H1B* H 0.65000 0.88630 0.89200
O2B* O 0.8102(4) 0.7920(4) 0.91482(18)
O1C O 0.1116(4) 0.6513(5) 0.6638(2)
C1C C 0.1186(6) 0.7830(6) 0.6186(2)
H1C H 0.23630 0.88630 0.60800
O2C O -0.0182(4) 0.7920(4) 0.58518(18)
Fe1* Fe -0.66670 0.66670 0.75000
Fe1** Fe 0.33330 1.66670 0.75000
Fe2* Fe 0.00000 0.00000 1.00000
Fe2** Fe 1.00000 1.00000 1.00000
Fe2C Fe 0.00000 1.00000 0.50000
O1D O 0.5397(4) 0.8884(5) 0.6638(2)
O1E O 0.3487(4) 0.4603(5) 0.6638(2)
O2F O -0.2080(4) 0.9818(4) 1.08518(18)
O2G O 0.0182(4) 0.8102(4) 1.08518(18)
O2H O 0.1898(4) 1.2080(4) 1.08518(18)
N1A N 0.719(5) 1.281(2) 0.75000
N1B N 0.719(5) 1.438(2) 0.75000
C2C C 0.66670 1.33330 0.6333(18)
#END
