
#######################################################################
#
#                 Cambridge Crystallographic Data Centre
#                                CCDC
#
#######################################################################
#
# If this CIF has been generated from an entry in the Cambridge
# Structural Database, then it will include bibliographic, chemical,
# crystal, experimental, refinement or atomic coordinate data resulting
# from the CCDC's data processing and validation procedures.
#
#######################################################################

data_CSD_CIF_NUDPAE12
_audit_creation_date 2018-06-05
_audit_creation_method CSD-ConQuest-V1
_database_code_CSD NUDPAE12
_database_code_depnum_ccdc_archive 'CCDC 1837763'
_chemical_formula_sum 'C20 H44 Fe4 N4 O24'
_chemical_formula_moiety
;
(C12 H12 Fe4 O24 4-)n,4(C2 H8 N1 1+)
;
_journal_coden_Cambridge 1350
_journal_volume 20
_journal_year 2018
_journal_page_first 3512
_journal_name_full 'CrystEngComm '
loop_
_publ_author_name
"I.E.Collings"
"M.Bykov"
"E.Bykova"
"M.Hanfland"
"S.van Smaalen"
"L.Dubrovinsky"
"N.Dubrovinskaia"
_chemical_name_systematic
;
catena-[tetrakis(dimethylammonium) dodecakis(\m-formato)-tetra-iron(ii)]
;
_cell_volume    699.524
_exptl_crystal_colour 'colorless'
_exptl_crystal_density_diffrn 2.251
_exptl_crystal_description 'block'
_diffrn_ambient_temperature 293
_diffrn_ambient_pressure 7870000.0
_diffrn_radiation_probe x-ray
_diffrn_source synchrotron
_diffrn_special_details
;
twin

;
#These two values have been output from a single CSD field.
_refine_ls_R_factor_gt 0.079
_refine_ls_wR_factor_gt 0.079
_symmetry_cell_setting triclinic
_symmetry_space_group_name_H-M 'P 1'
_symmetry_Int_Tables_number 1
loop_
_symmetry_equiv_pos_site_id
_symmetry_equiv_pos_as_xyz
1 x,y,z
_cell_length_a 10.763(11)
_cell_length_b 8.256(7)
_cell_length_c 7.985(6)
_cell_angle_alpha 90.26(6)
_cell_angle_beta 91.72(9)
_cell_angle_gamma 99.47(10)
_cell_formula_units_Z 1
loop_
_atom_type_symbol
_atom_type_radius_bond
C 0.68
H 0.23
Fe 1.52
N 0.68
O 0.68
loop_
_atom_site_label
_atom_site_type_symbol
_atom_site_fract_x
_atom_site_fract_y
_atom_site_fract_z
Fe1 Fe 0.0328(9) 0.5383(9) 0.4713(9)
Fe2 Fe 0.4885(11) 0.0015(10) 1.0488(10)
Fe3 Fe 0.5052(11) 0.4993(9) 0.5456(10)
Fe4 Fe 0.0136(9) 0.0400(9) 0.9754(10)
O1 O 0.326(4) 0.360(4) 0.647(3)
O2 O 0.597(4) 0.108(4) 0.261(4)
O3 O 0.128(5) 0.733(4) 0.324(5)
O4 O 0.007(4) 0.847(4) 0.787(4)
O5 O 0.400(5) 0.816(4) 0.182(5)
O6 O 0.426(4) 0.626(4) 0.372(5)
O7 O 0.500(4) 0.325(4) 0.366(4)
O8 O 0.645(4) -0.132(4) 1.042(4)
O9 O 0.499(4) 0.656(3) 0.742(4)
O10 O -0.056(4) 0.412(4) 0.267(4)
O11 O 0.174(3) 0.183(4) 0.912(3)
O12 O 0.175(3) 0.432(4) 0.457(4)
O13 O 0.600(4) 0.356(4) 0.707(4)
O14 O 0.415(4) 0.875(4) 0.830(5)
O15 O 0.116(4) 0.678(4) 0.679(5)
O16 O 0.846(4) -0.107(4) 1.036(4)
O17 O 0.890(4) 0.656(4) 0.488(4)
O18 O 0.030(4) 0.238(4) 0.161(4)
O19 O 0.117(4) 0.912(4) 0.137(5)
O20 O 0.589(4) 0.228(3) 0.925(4)
O21 O -0.082(4) 0.153(4) 0.797(4)
O22 O -0.056(4) 0.347(3) 0.589(4)
O23 O 0.313(3) 0.109(4) 1.051(4)
O24 O 0.679(4) 0.622(4) 0.501(4)
C1 C 0.237(6) 0.398(5) 0.577(6)
H1 H 0.18452 0.40885 0.66519
C2 C 0.752(7) -0.034(7) 1.029(8)
H2 H 0.75847 0.07891 1.01551
C3 C 0.116(5) 0.804(5) 0.775(6)
H3 H 0.18805 0.85778 0.83120
C4 C 0.443(6) 0.743(6) 0.310(6)
H4 H 0.50873 0.81312 0.36522
C5 C 0.566(5) 0.225(6) 0.352(7)
H5 H 0.61796 0.23337 0.44708
C6 C 0.434(5) 0.758(6) 0.752(6)
H6 H 0.37366 0.73862 0.66580
C7 C 0.273(6) 0.124(5) 0.898(5)
H7 H 0.30975 0.09610 0.80030
C8 C 0.569(6) 0.227(6) 0.777(6)
H8 H 0.53128 0.13257 0.71948
C9 C -0.077(6) 0.295(6) 0.178(6)
H9 H -0.15470 0.25071 0.12844
C10 C 0.056(6) 0.772(6) 0.230(5)
H10 H -0.02758 0.72152 0.21532
C11 C -0.030(6) 0.285(6) 0.730(6)
H11 H 0.03624 0.34561 0.79170
C12 C 0.779(8) 0.578(8) 0.488(8)
H12 H 0.77413 0.46508 0.47653
C13 C 0.116(5) 0.061(6) 0.489(7)
H13 H 0.06176 0.13274 0.44409
H14 H 0.07881 -0.05095 0.46645
H15 H 0.12751 0.07865 0.60754
C14 C 0.308(5) -0.021(5) 0.490(6)
H16 H 0.39156 -0.00893 0.44733
H17 H 0.31379 -0.00121 0.60924
H18 H 0.26509 -0.13082 0.46815
N1 N 0.239(4) 0.096(4) 0.409(5)
H19 H 0.23107 0.07940 0.29921
H20 H 0.27614 0.19935 0.42980
C15 C 0.178(5) 0.539(6) 0.022(6)
H21 H 0.10562 0.53830 0.08842
H22 H 0.21340 0.65028 -0.00462
H23 H 0.15440 0.47825 -0.08027
C16 C 0.393(5) 0.452(6) 0.034(7)
H24 H 0.44521 0.40035 0.10887
H25 H 0.37656 0.38839 -0.06779
H26 H 0.43556 0.56042 0.00785
N2 N 0.272(4) 0.464(4) 0.114(5)
H27 H 0.23575 0.36300 0.14068
H28 H 0.28962 0.52009 0.20976
C17 C 0.697(4) 1.018(4) 0.627(5)
H29 H 0.68886 0.99311 0.74442
H30 H 0.71397 1.13448 0.61318
H31 H 0.61925 0.97371 0.56839
C18 C 0.816(6) 0.979(5) 0.377(4)
H32 H 0.88237 0.93258 0.32782
H33 H 0.73703 0.93536 0.32047
H34 H 0.83175 1.09613 0.36525
N3 N 0.809(4) 0.937(4) 0.555(4)
H35 H 0.88117 0.97696 0.60837
H36 H 0.79383 0.82872 0.56708
C19 C 0.690(6) 0.547(5) 1.111(4)
H37 H 0.60216 0.53008 1.13499
H38 H 0.72626 0.45411 1.14944
H39 H 0.73219 0.64444 1.16718
C20 C 0.834(4) 0.589(4) 0.892(5)
H40 H 0.83661 0.59880 0.77264
H41 H 0.87853 0.68707 0.94425
H42 H 0.87260 0.49674 0.92650
N4 N 0.704(4) 0.563(4) 0.942(4)
H43 H 0.66877 0.64726 0.90763
H44 H 0.66333 0.47282 0.89137
Fe1* Fe 1.0328(9) 0.5383(9) 0.4713(9)
Fe2* Fe 0.4885(11) 0.0015(10) 0.0488(10)
Fe2** Fe 0.4885(11) 1.0015(10) 0.0488(10)
Fe2*** Fe 0.4885(11) 1.0015(10) 1.0488(10)
Fe4* Fe 0.0136(9) 0.0400(9) -0.0246(10)
Fe4** Fe 0.0136(9) 1.0400(9) -0.0246(10)
Fe4*** Fe 0.0136(9) 1.0400(9) 0.9754(10)
Fe4**** Fe 1.0136(9) 0.0400(9) 0.9754(10)
O2* O 0.597(4) 0.108(4) 1.261(4)
O4* O 0.007(4) -0.153(4) 0.787(4)
O5* O 0.400(5) -0.184(4) 1.182(5)
O14* O 0.415(4) -0.125(4) 0.830(5)
O16* O -0.154(4) -0.107(4) 1.036(4)
O17* O -0.110(4) 0.656(4) 0.488(4)
O18* O 0.030(4) 0.238(4) 1.161(4)
O19* O 0.117(4) -0.088(4) 1.137(5)
#END
