
#######################################################################
#
#                 Cambridge Crystallographic Data Centre
#                                CCDC
#
#######################################################################
#
# If this CIF has been generated from an entry in the Cambridge
# Structural Database, then it will include bibliographic, chemical,
# crystal, experimental, refinement or atomic coordinate data resulting
# from the CCDC's data processing and validation procedures.
#
#######################################################################

data_CSD_CIF_NUDPAE
_audit_creation_date 2010-05-04
_audit_creation_method CSD-ConQuest-V1
_database_code_CSD NUDPAE
_database_code_depnum_ccdc_archive 'CCDC 744908'
_chemical_formula_sum 'C5 H11 Fe1 N1 O6'
_chemical_formula_moiety
;
(C2 H8 N1 1+)n,n(C3 H3 Fe1 O6 1-)
;
_journal_coden_Cambridge 4
_journal_volume 131
_journal_year 2009
_journal_page_first 7516
_journal_name_full 'J.Am.Chem.Soc. '
loop_
_publ_author_name
"K.S.Hagen"
"S.G.Naik"
"Boi Hanh Huynh"
"A.Masello"
"G.Christou"
_chemical_name_systematic
;
catena-((Dimethylammonium)-tris(\m~2~-formato-O,O')-iron(ii))
;
_cell_volume   1314.209
_exptl_crystal_colour 'colorless'
_exptl_crystal_density_diffrn 1.827
_exptl_special_details
;
isomorphous with the zinc and cobalt analogues

;
_exptl_crystal_description 'block'
_diffrn_ambient_temperature 173
_refine_special_details
;
The nitrogen atom of the cation is equally disordered over three sites.

;
#These two values have been output from a single CSD field.
_refine_ls_R_factor_gt 0.0199
_refine_ls_wR_factor_gt 0.0199
_symmetry_cell_setting rhombohedral
_symmetry_space_group_name_H-M 'R -3 c'
_symmetry_Int_Tables_number 167
loop_
_symmetry_equiv_pos_site_id
_symmetry_equiv_pos_as_xyz
1 x,y,z
2 -y,x-y,z
3 -x+y,-x,z
4 y,x,1/2-z
5 x-y,-y,1/2-z
6 -x,-x+y,1/2-z
7 2/3+x,1/3+y,1/3+z
8 2/3-y,1/3+x-y,1/3+z
9 2/3-x+y,1/3-x,1/3+z
10 2/3+y,1/3+x,5/6-z
11 2/3+x-y,1/3-y,5/6-z
12 2/3-x,1/3-x+y,5/6-z
13 1/3+x,2/3+y,2/3+z
14 1/3-y,2/3+x-y,2/3+z
15 1/3-x+y,2/3-x,2/3+z
16 1/3+y,2/3+x,1/6-z
17 1/3+x-y,2/3-y,1/6-z
18 1/3-x,2/3-x+y,1/6-z
19 -x,-y,-z
20 y,-x+y,-z
21 x-y,x,-z
22 -y,-x,-1/2+z
23 -x+y,y,-1/2+z
24 x,x-y,-1/2+z
25 -2/3-x,-1/3-y,-1/3-z
26 -2/3+y,-1/3-x+y,-1/3-z
27 -2/3+x-y,-1/3+x,-1/3-z
28 -2/3-y,-1/3-x,-5/6+z
29 -2/3-x+y,-1/3+y,-5/6+z
30 -2/3+x,-1/3+x-y,-5/6+z
31 -1/3-x,-2/3-y,-2/3-z
32 -1/3+y,-2/3-x+y,-2/3-z
33 -1/3+x-y,-2/3+x,-2/3-z
34 -1/3-y,-2/3-x,-1/6+z
35 -1/3-x+y,-2/3+y,-1/6+z
36 -1/3+x,-2/3+x-y,-1/6+z
_cell_length_a 8.2310(5)
_cell_length_b 8.2310(5)
_cell_length_c 22.399(3)
_cell_angle_alpha 90
_cell_angle_beta 90
_cell_angle_gamma 120
_cell_formula_units_Z 6
loop_
_atom_type_symbol
_atom_type_radius_bond
C 0.68
H 0.23
Fe 1.52
N 0.68
O 0.68
loop_
_atom_site_label
_atom_site_type_symbol
_atom_site_fract_x
_atom_site_fract_y
_atom_site_fract_z
C1 C 0.00000 0.00000 0.30452(10)
H1 H 0.01620 0.12180 0.31250
N1 N 0.0870(4) 0.00000 0.25000
H2 H 0.21940 0.11140 0.25410
Fe1 Fe 0.00000 0.00000 0.00000
O1 O 0.01201(9) -0.20692(16) -0.05440(3)
C2 C -0.12100(15) -0.33330 -0.08330
H3 H -0.23760 -0.33330 -0.08330
C1C C 0.00000 0.00000 0.19548(10)
H1C H 0.12180 0.01620 0.18750
H1A H -0.12180 -0.10560 0.31250
H1B H 0.10560 -0.01620 0.31250
H1D H -0.10560 -0.12180 0.18750
H1E H -0.01620 0.10560 0.18750
N1A N 0.0000(4) 0.08700 0.25000
N1B N -0.0870(4) -0.08700 0.25000
H2B H -0.10800 -0.21940 0.25410
H2E H -0.21940 -0.10800 0.24590
H2C H 0.11140 0.21940 0.24590
H2A H -0.11140 0.10800 0.25410
H2D H 0.10800 -0.11140 0.24590
Fe1I Fe -0.33333 -0.66667 -0.16667
Fe1I* Fe 0.66667 0.33333 -0.16667
Fe1O Fe 0.33333 0.66667 0.16667
O1J O -0.114403(90) -0.459747(160) -0.112267(30)
O1A O 0.20692(9) 0.21893(16) -0.05440(3)
O1I O 0.459747(90) 0.345343(160) -0.112267(30)
O1R O -0.01201(9) 0.20692(16) 0.05440(3)
O1BA O 0.114403(90) 0.459747(160) 0.112267(30)
O1T O 0.21893(9) 0.01201(16) 0.05440(3)
O1S O -0.20692(9) -0.21893(16) 0.05440(3)
O1B O -0.21893(9) -0.01201(16) -0.05440(3)
C2A C 0.33330(15) 0.21230 -0.08330
C2R C 0.12100(15) 0.33330 0.08330
H3A H 0.33330 0.09570 -0.08330
H3R H 0.23760 0.33330 0.08330
#END
