
#######################################################################
#
#                 Cambridge Crystallographic Data Centre
#                                CCDC
#
#######################################################################
#
# If this CIF has been generated from an entry in the Cambridge
# Structural Database, then it will include bibliographic, chemical,
# crystal, experimental, refinement or atomic coordinate data resulting
# from the CCDC's data processing and validation procedures.
#
#######################################################################

data_CSD_CIF_NUDPAE07
_audit_creation_date 2018-06-05
_audit_creation_method CSD-ConQuest-V1
_database_code_CSD NUDPAE07
_database_code_depnum_ccdc_archive 'CCDC 1837758'
_chemical_formula_sum 'C5 H11 Fe1 N1 O6'
_chemical_formula_moiety
;
(C3 H3 Fe1 O6 1-)n,C2 H8 N1 1+
;
_journal_coden_Cambridge 1350
_journal_volume 20
_journal_year 2018
_journal_page_first 3512
_journal_name_full 'CrystEngComm '
loop_
_publ_author_name
"I.E.Collings"
"M.Bykov"
"E.Bykova"
"M.Hanfland"
"S.van Smaalen"
"L.Dubrovinsky"
"N.Dubrovinskaia"
_chemical_name_systematic
;
catena-[dimethylammonium tris(\m-formato)-iron(ii)]
;
_cell_volume   1176.492
_exptl_crystal_colour 'colorless'
_exptl_crystal_density_diffrn 2.007
_exptl_crystal_description 'block'
_diffrn_ambient_temperature 293
_diffrn_ambient_pressure 3940000.0
_diffrn_radiation_probe x-ray
_diffrn_source synchrotron
_refine_special_details
;
N1 disordered by symmetry over three configurations with occupancy 0.3333.

;
#These two values have been output from a single CSD field.
_refine_ls_R_factor_gt 0.0522
_refine_ls_wR_factor_gt 0.0522
_symmetry_cell_setting rhombohedral
_symmetry_space_group_name_H-M 'R -3 c'
_symmetry_Int_Tables_number 167
loop_
_symmetry_equiv_pos_site_id
_symmetry_equiv_pos_as_xyz
1 x,y,z
2 -y,x-y,z
3 -x+y,-x,z
4 y,x,1/2-z
5 x-y,-y,1/2-z
6 -x,-x+y,1/2-z
7 2/3+x,1/3+y,1/3+z
8 2/3-y,1/3+x-y,1/3+z
9 2/3-x+y,1/3-x,1/3+z
10 2/3+y,1/3+x,5/6-z
11 2/3+x-y,1/3-y,5/6-z
12 2/3-x,1/3-x+y,5/6-z
13 1/3+x,2/3+y,2/3+z
14 1/3-y,2/3+x-y,2/3+z
15 1/3-x+y,2/3-x,2/3+z
16 1/3+y,2/3+x,1/6-z
17 1/3+x-y,2/3-y,1/6-z
18 1/3-x,2/3-x+y,1/6-z
19 -x,-y,-z
20 y,-x+y,-z
21 x-y,x,-z
22 -y,-x,-1/2+z
23 -x+y,y,-1/2+z
24 x,x-y,-1/2+z
25 -2/3-x,-1/3-y,-1/3-z
26 -2/3+y,-1/3-x+y,-1/3-z
27 -2/3+x-y,-1/3+x,-1/3-z
28 -2/3-y,-1/3-x,-5/6+z
29 -2/3-x+y,-1/3+y,-5/6+z
30 -2/3+x,-1/3+x-y,-5/6+z
31 -1/3-x,-2/3-y,-2/3-z
32 -1/3+y,-2/3-x+y,-2/3-z
33 -1/3+x-y,-2/3+x,-2/3-z
34 -1/3-y,-2/3-x,-1/6+z
35 -1/3-x+y,-2/3+y,-1/6+z
36 -1/3+x,-2/3+x-y,-1/6+z
_cell_length_a 8.0225(6)
_cell_length_b 8.0225(6)
_cell_length_c 21.1076(16)
_cell_angle_alpha 90
_cell_angle_beta 90
_cell_angle_gamma 120
_cell_formula_units_Z 6
loop_
_atom_type_symbol
_atom_type_radius_bond
C 0.68
H 0.23
Fe 1.52
N 0.68
O 0.68
loop_
_atom_site_label
_atom_site_type_symbol
_atom_site_fract_x
_atom_site_fract_y
_atom_site_fract_z
Fe1 Fe 0.66667 0.33333 0.33333
O1 O 0.8671(5) 0.3060(5) 0.27780(15)
C1 C 1.00000 0.4437(8) 0.25000
H1 H 1.00000 0.55964 0.25000
N1 N 0.745(2) 0.33333 0.08333
H2 H 0.781(10) 0.245(10) 0.091(10)
C2 C 0.66667 0.33333 0.0263(5)
H3 H 0.544(6) 0.252(8) -0.006(3)
O1E O 1.1329(5) 0.4389(5) 0.22220(15)
O1A O 0.6940(5) 0.5611(5) 0.27780(15)
C1A C 0.55630 0.5563(8) 0.25000
H1A H 0.44036 0.44036 0.25000
O1D O 0.5611(5) 0.6940(5) 0.22220(15)
O1B O 0.4389(5) 0.1329(5) 0.27780(15)
C1B C 0.44370 0.0000(8) 0.25000
H1B H 0.55964 -0.00000 0.25000
O1C O 0.3060(5) -0.1329(5) 0.22220(15)
Fe1C Fe 0.33333 -0.33333 0.16667
Fe1C* Fe 0.33333 0.66667 0.16667
Fe1C** Fe 1.33333 0.66667 0.16667
O1X O 0.466233(500) 0.360667(500) 0.388867(150)
O1Y O 0.639333(500) 0.105567(500) 0.388867(150)
O1Z O 0.894433(500) 0.533767(500) 0.388867(150)
N1A N 0.666667(2000) 0.41167 0.08333
H2A H 0.755(10) 0.536(10) 0.091(10)
H3A H 0.748(6) 0.292(8) -0.006(3)
N1B N 0.588333(2000) 0.25500 0.08333
H2B H 0.464(10) 0.219(10) 0.091(10)
H3B H 0.708(6) 0.456(8) -0.006(3)
H2O H 0.578333(10000) 0.447667(10000) 0.075667(10000)
C2O C 0.66667 0.33333 0.140367(500)
H3O H 0.585333(6000) 0.210667(8000) 0.172667(3000)
H2P H 0.869333(10000) 0.421667(10000) 0.075667(10000)
H3P H 0.625333(6000) 0.414667(8000) 0.172667(3000)
H2Q H 0.552333(10000) 0.130667(10000) 0.075667(10000)
H3Q H 0.789333(6000) 0.374667(8000) 0.172667(3000)
#END
