
#######################################################################
#
#                 Cambridge Crystallographic Data Centre
#                                CCDC
#
#######################################################################
#
# If this CIF has been generated from an entry in the Cambridge
# Structural Database, then it will include bibliographic, chemical,
# crystal, experimental, refinement or atomic coordinate data resulting
# from the CCDC's data processing and validation procedures.
#
#######################################################################

data_CSD_CIF_NUDPAE01
_audit_creation_date 2010-10-20
_audit_creation_method CSD-ConQuest-V1
_database_code_CSD NUDPAE01
_database_code_depnum_ccdc_archive 'CCDC 780885'
_chemical_formula_sum 'C5 H11 Fe1 N1 O6'
_chemical_formula_moiety
;
(C2 H8 N1 1+)n,n(C3 H3 Fe1 O6 1-)
;
_journal_coden_Cambridge 4
_journal_volume 131
_journal_year 2009
_journal_page_first 13625
_journal_name_full 'J.Am.Chem.Soc. '
loop_
_publ_author_name
"P.Jain"
"V.Ramachandran"
"R.J.Clarke"
"Hai Dong Zhou"
"B.H.Toby"
"N.S.Dalal"
"H.W.Kroto"
"A.K.Cheetham"
_chemical_name_systematic
;
catena-[Dimethylammonium tris(\m~2~-formato-O,O')-iron(ii)]
;
_cell_volume   1325.991
_exptl_crystal_colour 'colorless'
_exptl_crystal_density_diffrn 1.765
_exptl_crystal_description 'cube'
_diffrn_ambient_temperature 273
_refine_special_details
;
The nitrogen atom of the dimethylammonium cation is disordered by symmetry 
over three sites with occupancy 0.33.
;
#These two values have been output from a single CSD field.
_refine_ls_R_factor_gt 0.0403
_refine_ls_wR_factor_gt 0.0403
_symmetry_cell_setting rhombohedral
_symmetry_space_group_name_H-M 'R -3 c'
_symmetry_Int_Tables_number 167
loop_
_symmetry_equiv_pos_site_id
_symmetry_equiv_pos_as_xyz
1 x,y,z
2 -y,x-y,z
3 -x+y,-x,z
4 y,x,1/2-z
5 x-y,-y,1/2-z
6 -x,-x+y,1/2-z
7 2/3+x,1/3+y,1/3+z
8 2/3-y,1/3+x-y,1/3+z
9 2/3-x+y,1/3-x,1/3+z
10 2/3+y,1/3+x,5/6-z
11 2/3+x-y,1/3-y,5/6-z
12 2/3-x,1/3-x+y,5/6-z
13 1/3+x,2/3+y,2/3+z
14 1/3-y,2/3+x-y,2/3+z
15 1/3-x+y,2/3-x,2/3+z
16 1/3+y,2/3+x,1/6-z
17 1/3+x-y,2/3-y,1/6-z
18 1/3-x,2/3-x+y,1/6-z
19 -x,-y,-z
20 y,-x+y,-z
21 x-y,x,-z
22 -y,-x,-1/2+z
23 -x+y,y,-1/2+z
24 x,x-y,-1/2+z
25 -2/3-x,-1/3-y,-1/3-z
26 -2/3+y,-1/3-x+y,-1/3-z
27 -2/3+x-y,-1/3+x,-1/3-z
28 -2/3-y,-1/3-x,-5/6+z
29 -2/3-x+y,-1/3+y,-5/6+z
30 -2/3+x,-1/3+x-y,-5/6+z
31 -1/3-x,-2/3-y,-2/3-z
32 -1/3+y,-2/3-x+y,-2/3-z
33 -1/3+x-y,-2/3+x,-2/3-z
34 -1/3-y,-2/3-x,-1/6+z
35 -1/3-x+y,-2/3+y,-1/6+z
36 -1/3+x,-2/3+x-y,-1/6+z
_cell_length_a 8.241(2)
_cell_length_b 8.241(2)
_cell_length_c 22.545(6)
_cell_angle_alpha 90
_cell_angle_beta 90
_cell_angle_gamma 120
_cell_formula_units_Z 6
loop_
_atom_type_symbol
_atom_type_radius_bond
C 0.68
H 0.23
Fe 1.52
N 0.68
O 0.68
loop_
_atom_site_label
_atom_site_type_symbol
_atom_site_fract_x
_atom_site_fract_y
_atom_site_fract_z
C1 C 0.66660 0.33340 0.1370(3)
N1 N 0.5804(14) 0.2471(14) 0.08330
H1 H 0.545(10) 0.237(21) 0.155(3)
Fe1 Fe 0.00000 1.00000 0.00000
O1 O 0.2086(3) 0.9916(3) -0.05427(11)
C2 C 0.3333(8) 1.1217(6) -0.08330
H2 H 0.334(10) 1.231(14) -0.08340
C1O C 0.66673 0.33327 0.029667(300)
N1P N 0.666633(1400) 0.419567(1400) 0.08337
N1A N 0.7529(14) 0.3333(14) 0.08330
H1O H 0.570333(10000) 0.211667(21000) 0.011667(3000)
H1P H 0.641333(10000) 0.429667(21000) 0.011667(3000)
H1Q H 0.788333(10000) 0.358667(21000) 0.011667(3000)
H1A H 0.763(10) 0.308(21) 0.155(3)
H1B H 0.692(10) 0.455(21) 0.155(3)
Fe1I Fe 0.66667 1.33333 -0.16667
Fe1I* Fe -0.33333 1.33333 -0.16667
Fe1I** Fe -0.33333 0.33333 -0.16667
O1K O 0.458067(300) 1.116333(300) -0.112397(110)
O1A O 0.0084(3) 1.2170(3) -0.05427(11)
O1J O -0.116333(300) 1.341733(300) -0.112397(110)
O1B O -0.2170(3) 0.7914(3) -0.05427(11)
O1I O -0.341733(300) 0.541933(300) -0.112397(110)
O1R O -0.2086(3) 1.0084(3) 0.05427(11)
O1S O -0.0084(3) 0.7830(3) 0.05427(11)
O1T O 0.2170(3) 1.2086(3) 0.05427(11)
C2A C -0.1217(8) 1.2116(6) -0.08330
C2B C -0.2116(8) 0.6667(6) -0.08330
H2A H -0.231(10) 1.103(14) -0.08340
H2B H -0.103(10) 0.666(14) -0.08340
#END
