
#######################################################################
#
#                 Cambridge Crystallographic Data Centre
#                                CCDC
#
#######################################################################
#
# If this CIF has been generated from an entry in the Cambridge
# Structural Database, then it will include bibliographic, chemical,
# crystal, experimental, refinement or atomic coordinate data resulting
# from the CCDC's data processing and validation procedures.
#
#######################################################################

data_CSD_CIF_NUDPAE15
_audit_creation_date 2019-08-22
_audit_creation_method CSD-ConQuest-V1
_database_code_CSD NUDPAE15
_database_code_depnum_ccdc_archive 'CCDC 1892972'
_chemical_formula_sum 'C5 H11 Fe1 N1 O6'
_chemical_formula_moiety
;
(C3 H3 Fe1 O6 1-)n,C2 H8 N1 1+
;
_journal_coden_Cambridge 9
_journal_volume 58
_journal_year 2019
_journal_page_first 11773
_journal_name_full 'Inorg.Chem. '
loop_
_publ_author_name
"S.Sobczak"
"A.Katrusiak"
_chemical_name_systematic
;
catena-[dimethylammonium tris(\m-formato)-iron(ii)]
;
_cell_volume   1237.585
_exptl_crystal_colour 'colorless'
_exptl_crystal_description 'block'
_diffrn_ambient_temperature 293
_diffrn_ambient_pressure 2000000.0
_refine_special_details
;
N1 disordered by symmetry over three configurations with occupancy 0.3333.

;
#These two values have been output from a single CSD field.
_refine_ls_R_factor_gt 0.0934
_refine_ls_wR_factor_gt 0.0934
_symmetry_cell_setting rhombohedral
_symmetry_space_group_name_H-M 'R -3 c'
_symmetry_Int_Tables_number 167
loop_
_symmetry_equiv_pos_site_id
_symmetry_equiv_pos_as_xyz
1 x,y,z
2 -y,x-y,z
3 -x+y,-x,z
4 x-y,-y,1/2-z
5 -x,-x+y,1/2-z
6 y,x,1/2-z
7 2/3+x,1/3+y,1/3+z
8 2/3-y,1/3+x-y,1/3+z
9 2/3-x+y,1/3-x,1/3+z
10 2/3+x-y,1/3-y,5/6-z
11 2/3-x,1/3-x+y,5/6-z
12 2/3+y,1/3+x,5/6-z
13 1/3+x,2/3+y,2/3+z
14 1/3-y,2/3+x-y,2/3+z
15 1/3-x+y,2/3-x,2/3+z
16 1/3+x-y,2/3-y,1/6-z
17 1/3-x,2/3-x+y,1/6-z
18 1/3+y,2/3+x,1/6-z
19 -x,-y,-z
20 y,-x+y,-z
21 x-y,x,-z
22 -x+y,y,-1/2+z
23 x,x-y,-1/2+z
24 -y,-x,-1/2+z
25 -2/3-x,-1/3-y,-1/3-z
26 -2/3+y,-1/3-x+y,-1/3-z
27 -2/3+x-y,-1/3+x,-1/3-z
28 -2/3-x+y,-1/3+y,-5/6+z
29 -2/3+x,-1/3+x-y,-5/6+z
30 -2/3-y,-1/3-x,-5/6+z
31 -1/3-x,-2/3-y,-2/3-z
32 -1/3+y,-2/3-x+y,-2/3-z
33 -1/3+x-y,-2/3+x,-2/3-z
34 -1/3-x+y,-2/3+y,-1/6+z
35 -1/3+x,-2/3+x-y,-1/6+z
36 -1/3-y,-2/3-x,-1/6+z
_cell_length_a 8.119(2)
_cell_length_b 8.119(2)
_cell_length_c 21.679(4)
_cell_angle_alpha 90
_cell_angle_beta 90
_cell_angle_gamma 120
_cell_formula_units_Z 6
loop_
_atom_type_symbol
_atom_type_radius_bond
C 0.68
H 0.23
Fe 1.52
N 0.68
O 0.68
loop_
_atom_site_label
_atom_site_type_symbol
_atom_site_fract_x
_atom_site_fract_y
_atom_site_fract_z
Fe1 Fe 1.00000 0.00000 0.00000
O1 O 1.0163(9) 0.2184(9) -0.0558(3)
C1 C 0.879(2) 0.212(2) -0.08330
H1 H 0.76430 0.09760 -0.08330
C2 C 0.66670 0.33330 0.0138(13)
N1 N 0.577(5) 0.244(5) 0.08330
O1K O 0.885067(900) 0.349633(900) -0.110867(300)
O1A O 0.7816(9) -0.2021(9) -0.0558(3)
C1A C 0.788(2) -0.333(2) -0.08330
H1A H 0.90240 -0.33330 -0.08330
O1J O 0.650367(900) -0.464567(900) -0.110867(300)
O1B O 1.2021(9) -0.0163(9) -0.0558(3)
C1B C 1.333(2) 0.121(2) -0.08330
H1B H 1.33330 0.23570 -0.08330
O1I O 1.464567(900) 0.114933(900) -0.110867(300)
Fe1I Fe 0.66667 -0.66667 -0.16667
Fe1I* Fe 0.66667 0.33333 -0.16667
Fe1I** Fe 1.66667 0.33333 -0.16667
O1R O 0.9837(9) -0.2184(9) 0.0558(3)
O1S O 1.2184(9) 0.2021(9) 0.0558(3)
O1T O 0.7979(9) 0.0163(9) 0.0558(3)
N1A N 0.756(5) 0.333(5) 0.08330
N1B N 0.667(5) 0.423(5) 0.08330
C2O C 0.66673 0.33337 0.152867(1300)
#END
