
#######################################################################
#
#                 Cambridge Crystallographic Data Centre
#                                CCDC
#
#######################################################################
#
# If this CIF has been generated from an entry in the Cambridge
# Structural Database, then it will include bibliographic, chemical,
# crystal, experimental, refinement or atomic coordinate data resulting
# from the CCDC's data processing and validation procedures.
#
#######################################################################

data_CSD_CIF_NUDPAE10
_audit_creation_date 2018-06-05
_audit_creation_method CSD-ConQuest-V1
_database_code_CSD NUDPAE10
_database_code_depnum_ccdc_archive 'CCDC 1837761'
_chemical_formula_sum 'C5 H11 Fe1 N1 O6'
_chemical_formula_moiety
;
(C3 H3 Fe1 O6 1-)n,C2 H8 N1 1+
;
_journal_coden_Cambridge 1350
_journal_volume 20
_journal_year 2018
_journal_page_first 3512
_journal_name_full 'CrystEngComm '
loop_
_publ_author_name
"I.E.Collings"
"M.Bykov"
"E.Bykova"
"M.Hanfland"
"S.van Smaalen"
"L.Dubrovinsky"
"N.Dubrovinskaia"
_chemical_name_systematic
;
catena-[dimethylammonium tris(\m-formato)-iron(ii)]
;
_cell_volume   1137.906
_exptl_crystal_colour 'colorless'
_exptl_crystal_density_diffrn 2.075
_exptl_crystal_description 'block'
_diffrn_ambient_temperature 293
_diffrn_ambient_pressure 6020000.0
_diffrn_radiation_probe x-ray
_diffrn_source synchrotron
_refine_special_details
;
N1 disordered by symmetry over three configurations with occupancy 0.3333.

;
#These two values have been output from a single CSD field.
_refine_ls_R_factor_gt 0.0421
_refine_ls_wR_factor_gt 0.0421
_symmetry_cell_setting rhombohedral
_symmetry_space_group_name_H-M 'R -3 c'
_symmetry_Int_Tables_number 167
loop_
_symmetry_equiv_pos_site_id
_symmetry_equiv_pos_as_xyz
1 x,y,z
2 -y,x-y,z
3 -x+y,-x,z
4 y,x,1/2-z
5 x-y,-y,1/2-z
6 -x,-x+y,1/2-z
7 2/3+x,1/3+y,1/3+z
8 2/3-y,1/3+x-y,1/3+z
9 2/3-x+y,1/3-x,1/3+z
10 2/3+y,1/3+x,5/6-z
11 2/3+x-y,1/3-y,5/6-z
12 2/3-x,1/3-x+y,5/6-z
13 1/3+x,2/3+y,2/3+z
14 1/3-y,2/3+x-y,2/3+z
15 1/3-x+y,2/3-x,2/3+z
16 1/3+y,2/3+x,1/6-z
17 1/3+x-y,2/3-y,1/6-z
18 1/3-x,2/3-x+y,1/6-z
19 -x,-y,-z
20 y,-x+y,-z
21 x-y,x,-z
22 -y,-x,-1/2+z
23 -x+y,y,-1/2+z
24 x,x-y,-1/2+z
25 -2/3-x,-1/3-y,-1/3-z
26 -2/3+y,-1/3-x+y,-1/3-z
27 -2/3+x-y,-1/3+x,-1/3-z
28 -2/3-y,-1/3-x,-5/6+z
29 -2/3-x+y,-1/3+y,-5/6+z
30 -2/3+x,-1/3+x-y,-5/6+z
31 -1/3-x,-2/3-y,-2/3-z
32 -1/3+y,-2/3-x+y,-2/3-z
33 -1/3+x-y,-2/3+x,-2/3-z
34 -1/3-y,-2/3-x,-1/6+z
35 -1/3-x+y,-2/3+y,-1/6+z
36 -1/3+x,-2/3+x-y,-1/6+z
_cell_length_a 7.9763(6)
_cell_length_b 7.9763(6)
_cell_length_c 20.6525(12)
_cell_angle_alpha 90
_cell_angle_beta 90
_cell_angle_gamma 120
_cell_formula_units_Z 6
loop_
_atom_type_symbol
_atom_type_radius_bond
C 0.68
H 0.23
Fe 1.52
N 0.68
O 0.68
loop_
_atom_site_label
_atom_site_type_symbol
_atom_site_fract_x
_atom_site_fract_y
_atom_site_fract_z
Fe1 Fe 0.66667 0.33333 0.33333
O1 O 0.8642(3) 0.2999(3) 0.27740(11)
C1 C 1.00000 0.4401(6) 0.25000
H1 H 1.00000 0.55669 0.25000
N1 N 0.7404(17) 0.33333 0.08333
H2 H 0.776(9) 0.243(7) 0.084(8)
C2 C 0.66667 0.33333 0.0254(3)
H3 H 0.564(6) 0.183(3) 0.013(3)
O1E O 1.1358(3) 0.4357(3) 0.22260(11)
O1A O 0.7001(3) 0.5643(3) 0.27740(11)
C1A C 0.55990 0.5599(6) 0.25000
H1A H 0.44331 0.44332 0.25000
O1D O 0.5643(3) 0.7001(3) 0.22260(11)
O1B O 0.4357(3) 0.1358(3) 0.27740(11)
C1B C 0.44010 0.0000(6) 0.25000
H1B H 0.55668 -0.00000 0.25000
O1C O 0.2999(3) -0.1358(3) 0.22260(11)
Fe1C Fe 0.33333 -0.33333 0.16667
Fe1C* Fe 0.33333 0.66667 0.16667
Fe1C** Fe 1.33333 0.66667 0.16667
O1X O 0.469133(300) 0.366767(300) 0.389267(110)
O1Y O 0.633233(300) 0.102367(300) 0.389267(110)
O1Z O 0.897633(300) 0.530867(300) 0.389267(110)
N1A N 0.666667(1700) 0.40707 0.08333
H2A H 0.757(9) 0.533(7) 0.084(8)
H3A H 0.817(6) 0.381(3) 0.013(3)
N1B N 0.592933(1700) 0.25960 0.08333
H2B H 0.467(9) 0.224(7) 0.084(8)
H3B H 0.619(6) 0.436(3) 0.013(3)
H2O H 0.576333(9000) 0.442667(7000) 0.082667(8000)
C2O C 0.66667 0.33333 0.141267(300)
H3O H 0.516333(6000) 0.230667(3000) 0.153667(3000)
H2P H 0.866333(9000) 0.423667(7000) 0.082667(8000)
H3P H 0.714333(6000) 0.483667(3000) 0.153667(3000)
H2Q H 0.557333(9000) 0.133667(7000) 0.082667(8000)
H3Q H 0.769333(6000) 0.285667(3000) 0.153667(3000)
#END
