
#######################################################################
#
#                 Cambridge Crystallographic Data Centre
#                                CCDC
#
#######################################################################
#
# If this CIF has been generated from an entry in the Cambridge
# Structural Database, then it will include bibliographic, chemical,
# crystal, experimental, refinement or atomic coordinate data resulting
# from the CCDC's data processing and validation procedures.
#
#######################################################################

data_CSD_CIF_NUDPAE02
_audit_creation_date 2016-02-11
_audit_creation_method CSD-ConQuest-V1
_database_code_CSD NUDPAE02
_database_code_depnum_ccdc_archive 'CCDC 1452921'
_chemical_formula_sum 'C5 H11 Fe1 N1 O6'
_chemical_formula_moiety
;
(C3 H3 Fe1 O6 1-)n,C2 H8 N1 1+
;
_journal_coden_Cambridge 4
_journal_volume 138
_journal_year 2016
_journal_page_first 782
_journal_name_full 'J.Am.Chem.Soc. '
loop_
_publ_author_name
"Ying Tian"
"Shipeng Shen"
"Junzhuang Cong"
"Liqin Yan"
"Shouguo Wang"
"Young Sun"
_chemical_name_systematic
;
catena-(Dimethylammonium tris(\m-formato)-iron(ii))
;
_cell_volume   1325.991
_diffrn_ambient_temperature ?
_diffrn_special_details
;
The study was carried out at room temperature,in the range 283-303K

;
_refine_special_details
;
N disordered by symmetry over three configurations with occupancy 0.3300.

;
_symmetry_cell_setting rhombohedral
_symmetry_space_group_name_H-M 'R -3 c'
_symmetry_Int_Tables_number 167
loop_
_symmetry_equiv_pos_site_id
_symmetry_equiv_pos_as_xyz
1 x,y,z
2 2/3+x,1/3+y,1/3+z
3 1/3+x,2/3+y,2/3+z
4 -x,-x+y,1/2-z
5 2/3-x,1/3-x+y,5/6-z
6 1/3-x,2/3-x+y,1/6-z
7 y,x,1/2-z
8 2/3+y,1/3+x,5/6-z
9 1/3+y,2/3+x,1/6-z
10 -y,x-y,z
11 2/3-y,1/3+x-y,1/3+z
12 1/3-y,2/3+x-y,2/3+z
13 x-y,-y,1/2-z
14 2/3+x-y,1/3-y,5/6-z
15 1/3+x-y,2/3-y,1/6-z
16 -x+y,-x,z
17 2/3-x+y,1/3-x,1/3+z
18 1/3-x+y,2/3-x,2/3+z
19 -x,-y,-z
20 -2/3-x,-1/3-y,-1/3-z
21 -1/3-x,-2/3-y,-2/3-z
22 x,x-y,-1/2+z
23 -2/3+x,-1/3+x-y,-5/6+z
24 -1/3+x,-2/3+x-y,-1/6+z
25 -y,-x,-1/2+z
26 -2/3-y,-1/3-x,-5/6+z
27 -1/3-y,-2/3-x,-1/6+z
28 y,-x+y,-z
29 -2/3+y,-1/3-x+y,-1/3-z
30 -1/3+y,-2/3-x+y,-2/3-z
31 -x+y,y,-1/2+z
32 -2/3-x+y,-1/3+y,-5/6+z
33 -1/3-x+y,-2/3+y,-1/6+z
34 x-y,x,-z
35 -2/3+x-y,-1/3+x,-1/3-z
36 -1/3+x-y,-2/3+x,-2/3-z
_cell_length_a 8.241(2)
_cell_length_b 8.241
_cell_length_c 22.545(6)
_cell_angle_alpha 90
_cell_angle_beta 90
_cell_angle_gamma 120
_cell_formula_units_Z 6
loop_
_atom_type_symbol
_atom_type_radius_bond
C 0.68
H 0.23
Fe 1.52
N 0.68
O 0.68
loop_
_atom_site_label
_atom_site_type_symbol
_atom_site_fract_x
_atom_site_fract_y
_atom_site_fract_z
C1 C 0.12170 0.78840 0.08330
H1 H 0.23100 0.89800 0.08330
O1 O -0.00840 0.78300 0.05430
Fe1 Fe 0.00000 1.00000 0.00000
C2 C 0.66670 0.33330 0.02970
H2 H 0.78800 0.35800 0.01200
N1 N 0.58040 0.24710 0.08330
O1H O 0.11633 0.65827 0.11237
C1R C -0.12170 1.21160 -0.08330
H1R H -0.23100 1.10200 -0.08330
O1R O 0.00840 1.21700 -0.05430
O1Z O -0.11633 1.34173 -0.11237
C1W C -0.21163 0.66663 -0.08337
H1W H -0.10233 0.66633 -0.08337
O1AA O -0.21700 0.79140 -0.05430
O1W O -0.34173 0.54193 -0.11237
O1I O 0.21700 1.20860 0.05430
O1GA O 0.20860 0.99160 -0.05430
O1O O -0.20860 1.00840 0.05430
Fe1W Fe -0.33333 0.33333 -0.16667
Fe1W* Fe -0.33333 1.33333 -0.16667
Fe1V Fe 0.33333 0.66667 0.16667
C2E C 0.66663 0.33327 0.13697
H2E H 0.54533 0.23667 0.15467
N1E N 0.75293 0.33337 0.08337
H2H H 0.69133 0.45467 0.15467
H2I H 0.64200 0.43000 0.01200
H2N H 0.76333 0.30867 0.15467
N1N N 0.66663 0.41957 0.08337
H2O H 0.57000 0.21200 0.01200
#END
