
#######################################################################
#
#                 Cambridge Crystallographic Data Centre
#                                CCDC
#
#######################################################################
#
# If this CIF has been generated from an entry in the Cambridge
# Structural Database, then it will include bibliographic, chemical,
# crystal, experimental, refinement or atomic coordinate data resulting
# from the CCDC's data processing and validation procedures.
#
#######################################################################

data_CSD_CIF_NUDPAE03
_audit_creation_date 2018-06-05
_audit_creation_method CSD-ConQuest-V1
_database_code_CSD NUDPAE03
_database_code_depnum_ccdc_archive 'CCDC 1837754'
_chemical_formula_sum 'C5 H11 Fe1 N1 O6'
_chemical_formula_moiety
;
(C3 H3 Fe1 O6 1-)n,C2 H8 N1 1+
;
_journal_coden_Cambridge 1350
_journal_volume 20
_journal_year 2018
_journal_page_first 3512
_journal_name_full 'CrystEngComm '
loop_
_publ_author_name
"I.E.Collings"
"M.Bykov"
"E.Bykova"
"M.Hanfland"
"S.van Smaalen"
"L.Dubrovinsky"
"N.Dubrovinskaia"
_chemical_name_systematic
;
catena-[dimethylammonium tris(\m-formato)-iron(ii)]
;
_cell_volume   1329.364
_exptl_crystal_colour 'colorless'
_exptl_crystal_density_diffrn 1.776
_exptl_crystal_description 'block'
_diffrn_ambient_temperature 293
_diffrn_radiation_probe x-ray
_diffrn_source synchrotron
_refine_special_details
;
N1 disordered by symmetry over three configurations with occupancy 0.3333.

;
#These two values have been output from a single CSD field.
_refine_ls_R_factor_gt 0.0394
_refine_ls_wR_factor_gt 0.0394
_symmetry_cell_setting rhombohedral
_symmetry_space_group_name_H-M 'R -3 c'
_symmetry_Int_Tables_number 167
loop_
_symmetry_equiv_pos_site_id
_symmetry_equiv_pos_as_xyz
1 x,y,z
2 -y,x-y,z
3 -x+y,-x,z
4 y,x,1/2-z
5 x-y,-y,1/2-z
6 -x,-x+y,1/2-z
7 2/3+x,1/3+y,1/3+z
8 2/3-y,1/3+x-y,1/3+z
9 2/3-x+y,1/3-x,1/3+z
10 2/3+y,1/3+x,5/6-z
11 2/3+x-y,1/3-y,5/6-z
12 2/3-x,1/3-x+y,5/6-z
13 1/3+x,2/3+y,2/3+z
14 1/3-y,2/3+x-y,2/3+z
15 1/3-x+y,2/3-x,2/3+z
16 1/3+y,2/3+x,1/6-z
17 1/3+x-y,2/3-y,1/6-z
18 1/3-x,2/3-x+y,1/6-z
19 -x,-y,-z
20 y,-x+y,-z
21 x-y,x,-z
22 -y,-x,-1/2+z
23 -x+y,y,-1/2+z
24 x,x-y,-1/2+z
25 -2/3-x,-1/3-y,-1/3-z
26 -2/3+y,-1/3-x+y,-1/3-z
27 -2/3+x-y,-1/3+x,-1/3-z
28 -2/3-y,-1/3-x,-5/6+z
29 -2/3-x+y,-1/3+y,-5/6+z
30 -2/3+x,-1/3+x-y,-5/6+z
31 -1/3-x,-2/3-y,-2/3-z
32 -1/3+y,-2/3-x+y,-2/3-z
33 -1/3+x-y,-2/3+x,-2/3-z
34 -1/3-y,-2/3-x,-1/6+z
35 -1/3-x+y,-2/3+y,-1/6+z
36 -1/3+x,-2/3+x-y,-1/6+z
_cell_length_a 8.25785(19)
_cell_length_b 8.25785(19)
_cell_length_c 22.5102(6)
_cell_angle_alpha 90
_cell_angle_beta 90
_cell_angle_gamma 120
_cell_formula_units_Z 6
loop_
_atom_type_symbol
_atom_type_radius_bond
C 0.68
H 0.23
Fe 1.52
N 0.68
O 0.68
loop_
_atom_site_label
_atom_site_type_symbol
_atom_site_fract_x
_atom_site_fract_y
_atom_site_fract_z
Fe1 Fe 0.66667 0.33333 0.33333
O1 O 0.8753(3) 0.3247(3) 0.27909(11)
C1 C 1.00000 0.4552(6) 0.25000
H1 H 1.00000 0.56779 0.25000
N1 N 0.7548(17) 0.33333 0.08333
H2 H 0.786(9) 0.244(7) 0.081(8)
C2 C 0.66667 0.33333 0.0297(4)
H3 H 0.575(6) 0.205(4) 0.0056(19)
O1E O 1.1247(3) 0.4494(3) 0.22091(11)
O1A O 0.6753(3) 0.5506(3) 0.27909(11)
C1A C 0.54480 0.5448(6) 0.25000
H1A H 0.43221 0.43221 0.25000
O1D O 0.5506(3) 0.6753(3) 0.22091(11)
O1B O 0.4494(3) 0.1247(3) 0.27909(11)
C1B C 0.45520 0.0000(6) 0.25000
H1B H 0.56779 0.00000 0.25000
O1C O 0.3247(3) -0.1247(3) 0.22091(11)
Fe1C Fe 0.33333 -0.33333 0.16667
Fe1C* Fe 0.33333 0.66667 0.16667
Fe1C** Fe 1.33333 0.66667 0.16667
O1X O 0.458033(300) 0.341967(300) 0.387577(110)
O1Y O 0.658033(300) 0.116067(300) 0.387577(110)
O1Z O 0.883933(300) 0.541967(300) 0.387577(110)
N1A N 0.666667(1700) 0.42147 0.08333
H2A H 0.756(9) 0.542(7) 0.081(8)
H3A H 0.795(6) 0.370(4) 0.0056(19)
N1B N 0.578533(1700) 0.24520 0.08333
H2B H 0.458(9) 0.214(7) 0.081(8)
H3B H 0.630(6) 0.425(4) 0.0056(19)
H2O H 0.577333(9000) 0.452667(7000) 0.085667(8000)
C2O C 0.66667 0.33333 0.136967(400)
H3O H 0.538333(6000) 0.241667(4000) 0.161067(1900)
H2P H 0.875333(9000) 0.422667(7000) 0.085667(8000)
H3P H 0.703333(6000) 0.461667(4000) 0.161067(1900)
H2Q H 0.547333(9000) 0.124667(7000) 0.085667(8000)
H3Q H 0.758333(6000) 0.296667(4000) 0.161067(1900)
#END
