
#######################################################################
#
#                 Cambridge Crystallographic Data Centre
#                                CCDC
#
#######################################################################
#
# If this CIF has been generated from an entry in the Cambridge
# Structural Database, then it will include bibliographic, chemical,
# crystal, experimental, refinement or atomic coordinate data resulting
# from the CCDC's data processing and validation procedures.
#
#######################################################################

data_CSD_CIF_NUFBOH
_audit_creation_date 2015-04-28
_audit_creation_method CSD-ConQuest-V1
_database_code_CSD NUFBOH
_database_code_depnum_ccdc_archive 'CCDC 1026111'
_chemical_formula_sum 'C34 H44 N4 O17 Zn2'
_chemical_formula_moiety
;
(C24 H10 O13 Zn2 2-)n,2n(C3 H7 N1 O1),2n(C2 H8 N1 1+),2n(H2 O1)
;
_journal_coden_Cambridge 1350
_journal_volume 17
_journal_year 2015
_journal_page_first 3829
_journal_name_full 'CrystEngComm '
loop_
_publ_author_name
"Xiu-Yan Wan"
"Fei-Long Jiang"
"Lian Chen"
"Jie Pan"
"Kang Zhou"
"Kong-Zhao Su"
"Jian-Dong Pang"
"Guang-Xun Lyu"
"Mao-Chun Hong"
_chemical_name_systematic
;
catena-[bis(dimethylammonium) 
(\m-aqua)-(\m-1,1':4',1''-terphenyl-2',3,3'',5,5',5''-hexacarboxylato)-di-zinc
 N,N-dimethylformamide solvate dihydrate]
;
_cell_volume   3705.223
_exptl_crystal_colour 'colorless'
_exptl_crystal_density_diffrn 1.627
_exptl_crystal_description 'block'
_diffrn_ambient_temperature 100
#These two values have been output from a single CSD field.
_refine_ls_R_factor_gt 0.0548
_refine_ls_wR_factor_gt 0.0548
_symmetry_cell_setting monoclinic
_symmetry_space_group_name_H-M 'C 2/c'
_symmetry_Int_Tables_number 15
loop_
_symmetry_equiv_pos_site_id
_symmetry_equiv_pos_as_xyz
1 x,y,z
2 -x,y,1/2-z
3 1/2+x,1/2+y,z
4 1/2-x,1/2+y,1/2-z
5 -x,-y,-z
6 x,-y,-1/2+z
7 -1/2-x,-1/2-y,-z
8 -1/2+x,-1/2-y,-1/2+z
_cell_length_a 18.3439(3)
_cell_length_b 8.8090(1)
_cell_length_c 23.4388(4)
_cell_angle_alpha 90
_cell_angle_beta 101.965(2)
_cell_angle_gamma 90
_cell_formula_units_Z 4
loop_
_atom_type_symbol
_atom_type_radius_bond
C 0.68
H 0.23
N 0.68
O 0.68
Zn 1.22
loop_
_atom_site_label
_atom_site_type_symbol
_atom_site_fract_x
_atom_site_fract_y
_atom_site_fract_z
Zn1 Zn 0.42347(2) 0.70336(5) 0.696656(17)
O1 O 0.43929(14) -0.1784(3) 0.62234(10)
O2 O 0.50000 0.8441(4) 0.75000
O3 O 0.59560(13) 0.5951(3) 0.72867(10)
O4 O 0.81566(12) 0.1297(3) 0.65266(11)
C1 C 0.54861(18) 0.2997(4) 0.61971(14)
H1 H 0.49600 0.31050 0.60950
O5 O 0.82419(12) 0.3501(3) 0.69756(10)
O6 O 0.48394(13) 0.5275(3) 0.67640(11)
O7 O 0.53326(16) -0.0265(3) 0.66152(11)
C2 C 0.58351(18) 0.1875(4) 0.59322(13)
C3 C 0.48864(17) -0.0828(4) 0.61909(13)
C4 C 0.66772(17) 0.3799(4) 0.67584(14)
H2 H 0.69650 0.44580 0.70390
C5 C 0.55379(18) 0.5164(4) 0.69109(14)
C6 C 0.66076(18) 0.1722(4) 0.60808(14)
H3 H 0.68480 0.09640 0.58980
C7 C 0.70286(18) 0.2676(4) 0.64967(14)
C8 C 0.54369(17) 0.1181(4) 0.48919(14)
H4 H 0.57410 0.20000 0.48170
C9 C 0.59032(18) 0.3964(4) 0.66109(14)
C10 C 0.53959(17) 0.0871(4) 0.54692(14)
C11 C 0.49489(17) -0.0341(4) 0.55792(13)
C12 C 0.78591(18) 0.2476(4) 0.66721(14)
H5 H 0.490(3) 0.911(7) 0.778(3)
C13 C 0.6058(3) 0.8008(5) 0.2945(2)
H6 H 0.60610 0.82190 0.25350
H7 H 0.56570 0.85870 0.30620
H8 H 0.59770 0.69210 0.29950
N1 N 0.6778(2) 0.8455(5) 0.33106(18)
H9 H 0.67510 0.83680 0.36970
H10 H 0.68680 0.94580 0.32400
C14 C 0.7417(3) 0.7522(6) 0.3204(2)
H11 H 0.74660 0.76470 0.27980
H12 H 0.73270 0.64500 0.32780
H13 H 0.78770 0.78560 0.34650
C15 C 0.6526(3) 0.7843(6) 0.4867(2)
H14 H 0.64140 0.85180 0.51530
N2 N 0.6365(2) 0.6407(5) 0.49265(17)
O8 O 0.6807(3) 0.8416(6) 0.4484(2)
C16 C 0.6522(4) 0.5284(7) 0.4513(3)
H15 H 0.67810 0.57720 0.42360
H16 H 0.60530 0.48420 0.43010
H17 H 0.68370 0.44810 0.47230
C17 C 0.6061(4) 0.5877(8) 0.5405(3)
H18 H 0.60210 0.67260 0.56660
H19 H 0.63880 0.50960 0.56180
H20 H 0.55650 0.54450 0.52570
O9 O 0.7886(10) 0.383(2) 0.5448(8)
O1D O 0.56071(14) 0.1784(3) 0.37766(10)
O3D O 0.40440(13) -0.5951(3) 0.27133(10)
O4D O 0.18434(12) -0.1297(3) 0.34734(11)
C1D C 0.45139(18) -0.2997(4) 0.38029(14)
H1D H 0.50400 -0.31050 0.39050
O5D O 0.17581(12) -0.3501(3) 0.30244(10)
O6D O 0.51606(13) -0.5275(3) 0.32360(11)
O7D O 0.46674(16) 0.0265(3) 0.33848(11)
C2D C 0.41649(18) -0.1875(4) 0.40678(13)
C3D C 0.51136(17) 0.0828(4) 0.38091(13)
C4D C 0.33228(17) -0.3799(4) 0.32416(14)
H2D H 0.30350 -0.44580 0.29610
C5D C 0.44621(18) -0.5164(4) 0.30891(14)
C6D C 0.33924(18) -0.1722(4) 0.39192(14)
H3D H 0.31520 -0.09640 0.41020
C7D C 0.29714(18) -0.2676(4) 0.35033(14)
C8D C 0.45631(17) -0.1181(4) 0.51081(14)
H4D H 0.42590 -0.20000 0.51830
C9D C 0.40968(18) -0.3964(4) 0.33891(14)
C10D C 0.46041(17) -0.0871(4) 0.45308(14)
C11D C 0.50511(17) 0.0341(4) 0.44208(13)
C12D C 0.21409(18) -0.2476(4) 0.33279(14)
H5A H 0.510(3) 0.911(7) 0.722(3)
Zn1A Zn 0.57653(2) 0.70336(5) 0.803344(17)
Zn1* Zn 0.42347(2) -0.29664(5) 0.696656(17)
Zn1B Zn 0.92347(2) 0.20336(5) 0.696656(17)
Zn1D Zn 0.57653(2) -0.70336(5) 0.303344(17)
Zn1D* Zn 0.57653(2) 0.29664(5) 0.303344(17)
Zn1E Zn 0.42347(2) -0.70336(5) 0.196656(17)
Zn1F Zn 0.07653(2) -0.20336(5) 0.303344(17)
O1* O 0.43929(14) 0.8216(3) 0.62234(10)
O1A O 0.56071(14) 0.8216(3) 0.87766(10)
O3A O 0.40440(13) 0.5951(3) 0.77133(10)
O4B O 0.31566(12) 0.6297(3) 0.65266(11)
O4C O 0.68434(12) 0.6297(3) 0.84734(11)
O5B O 0.32419(12) 0.8501(3) 0.69756(10)
O5C O 0.67581(12) 0.8501(3) 0.80244(10)
O6A O 0.51606(13) 0.5275(3) 0.82360(11)
#END
