
#######################################################################
#
#                 Cambridge Crystallographic Data Centre
#                                CCDC
#
#######################################################################
#
# If this CIF has been generated from an entry in the Cambridge
# Structural Database, then it will include bibliographic, chemical,
# crystal, experimental, refinement or atomic coordinate data resulting
# from the CCDC's data processing and validation procedures.
#
#######################################################################

data_CSD_CIF_NUFBEX
_audit_creation_date 2015-04-28
_audit_creation_method CSD-ConQuest-V1
_database_code_CSD NUFBEX
_database_code_depnum_ccdc_archive 'CCDC 1026109'
_chemical_formula_sum 'C52 H72 N2 O44 Zn5'
_chemical_formula_moiety
;
(C48 H24 O28 Zn5 2-)n,2n(C2 H8 N1 1+),16n(H2 O1)
;
_journal_coden_Cambridge 1350
_journal_volume 17
_journal_year 2015
_journal_page_first 3829
_journal_name_full 'CrystEngComm '
loop_
_publ_author_name
"Xiu-Yan Wan"
"Fei-Long Jiang"
"Lian Chen"
"Jie Pan"
"Kang Zhou"
"Kong-Zhao Su"
"Jian-Dong Pang"
"Guang-Xun Lyu"
"Mao-Chun Hong"
_chemical_name_systematic
;
catena-[bis(dimethylammonium) 
bis(\m-1,1':4',1''-terphenyl-2',3,3'',5,5',5''-hexacarboxylato)-tetraaqua-pent
a-zinc hexadecahydrate]
;
_cell_volume   1758.096
_exptl_crystal_colour 'colorless'
_exptl_special_details
;
Luminescent
The dimethylammmonium cations are described in the paper but have not been 
modelled; it is unclear whether these were accounted for with the SQUEEZE 
procedure
;
_exptl_crystal_description 'block'
_diffrn_ambient_temperature 100
_refine_special_details
;
Disordered water solvent molecules were not modelled and the disordered 
density was taken into account using the SQUEEZE/PLATON procedure.
;
#These two values have been output from a single CSD field.
_refine_ls_R_factor_gt 0.0465
_refine_ls_wR_factor_gt 0.0465
_symmetry_cell_setting triclinic
_symmetry_space_group_name_H-M 'P -1'
_symmetry_Int_Tables_number 2
loop_
_symmetry_equiv_pos_site_id
_symmetry_equiv_pos_as_xyz
1 x,y,z
2 -x,-y,-z
_cell_length_a 9.3789(3)
_cell_length_b 10.9247(4)
_cell_length_c 18.8993(6)
_cell_angle_alpha 104.858(3)
_cell_angle_beta 94.314(2)
_cell_angle_gamma 107.714(3)
_cell_formula_units_Z 1
loop_
_atom_type_symbol
_atom_type_radius_bond
C 0.68
H 0.23
O 0.68
Zn 1.22
loop_
_atom_site_label
_atom_site_type_symbol
_atom_site_fract_x
_atom_site_fract_y
_atom_site_fract_z
Zn1 Zn 1.00000 1.00000 0.00000
Zn2 Zn 1.31589(4) 1.03581(4) 0.137863(19)
Zn3 Zn 1.04421(5) 1.36595(5) -0.23207(3)
O1 O 0.9727(2) 0.9969(2) 0.10852(10)
O2 O 1.2100(2) 1.1528(2) 0.03254(12)
O3 O 1.4269(2) 1.1380(2) 0.07846(13)
O4 O 1.1737(2) 1.0806(2) 0.20025(12)
C1 C 1.5918(3) 1.3018(3) 0.00147(15)
H1 H 1.64610 1.27850 0.03750
C2 C 1.3498(3) 1.1744(3) 0.03552(15)
C3 C 1.5889(3) 1.4171(3) -0.09106(16)
H2 H 1.64130 1.47270 -0.11870
C4 C 1.0310(3) 1.0328(3) 0.17492(15)
C5 C 1.6712(3) 1.3835(3) -0.03877(15)
C6 C 0.7774(3) 1.0081(3) 0.21318(15)
H3 H 0.74140 1.01250 0.16590
C7 C 1.3537(3) 1.2875(3) -0.06395(16)
H4 H 1.24590 1.25320 -0.07320
C8 C 0.9276(3) 1.0183(3) 0.23127(15)
C9 C 1.4340(3) 1.2546(3) -0.01077(15)
C10 C 1.8403(3) 1.4394(3) -0.02190(15)
C11 C 0.6800(3) 0.9915(3) 0.26416(16)
C12 C 0.9815(3) 1.0155(4) 0.30125(17)
H5 H 1.08540 1.02640 0.31410
C13 C 1.4309(3) 1.3699(3) -0.10317(16)
O5 O 1.9107(2) 1.15832(18) 0.01810(11)
O6 O 1.7894(2) 1.15586(19) -0.08923(11)
O7 O 0.4975(2) 1.0447(3) 0.19886(13)
O8 O 1.1974(3) 1.3703(3) -0.15792(15)
O9 O 0.4174(3) 0.9156(4) 0.27200(16)
C14 C 1.9305(3) 1.3647(3) -0.00736(15)
C15 C 1.9124(3) 1.5744(3) -0.01514(15)
H6 H 1.85370 1.62650 -0.02600
C16 C 1.8712(3) 1.2142(3) -0.02589(15)
O10 O 0.9265(3) 0.7332(3) 0.32803(16)
O11 O 0.8555(3) 1.2702(4) -0.20279(16)
C17 C 1.3405(4) 1.4104(4) -0.15678(19)
O12 O 1.4051(3) 1.4772(4) -0.1953(2)
C18 C 0.5182(3) 0.9816(4) 0.24468(17)
C19 C 0.7326(3) 0.9852(4) 0.33414(17)
H7 H 0.66520 0.97310 0.36880
C20 C 0.8836(4) 0.9967(4) 0.35269(17)
C21 C 0.9405(4) 0.9947(4) 0.42801(18)
O13 O 1.0357(5) 1.5405(4) -0.2369(3)
C22 C 1.0835(4) 0.9198(5) 0.5103(2)
H8 H 1.14180 0.86490 0.51690
C23 C 1.0252(4) 0.9108(5) 0.4384(2)
O14 O 1.1726(4) 0.7957(5) 0.37184(18)
C24 C 1.0454(5) 0.8065(5) 0.3752(2)
H9 H 0.889(6) 1.205(4) -0.220(2)
H10 H 0.823(6) 1.270(4) -0.1614(15)
O1A O 1.0273(2) 1.0031(2) 0.89148(10)
O4A O 0.8263(2) 0.9194(2) 0.79975(12)
C4A C 0.9690(3) 0.9672(3) 0.82508(15)
C6A C 1.2226(3) 0.9919(3) 0.78682(15)
H3A H 1.25860 0.98750 0.83410
C8A C 1.0724(3) 0.9817(3) 0.76873(15)
C11A C 1.3200(3) 1.0085(3) 0.73584(16)
C12A C 1.0185(3) 0.9845(4) 0.69875(17)
H5A H 0.91460 0.97360 0.68590
O7A O 1.5025(2) 0.9553(3) 0.80114(13)
O9A O 1.5826(3) 1.0844(4) 0.72800(16)
O10A O 1.0735(3) 1.2668(3) 0.67197(16)
C18A C 1.4818(3) 1.0184(4) 0.75532(17)
C19A C 1.2674(3) 1.0148(4) 0.66586(17)
H7A H 1.33480 1.02690 0.63120
C20A C 1.1164(4) 1.0033(4) 0.64731(17)
C21A C 1.0595(4) 1.0053(4) 0.57199(18)
C22A C 0.9165(4) 1.0802(5) 0.4897(2)
H8A H 0.85820 1.13510 0.48310
C23A C 0.9748(4) 1.0892(5) 0.5616(2)
O14A O 0.8274(4) 1.2043(5) 0.62816(18)
C24A C 0.9546(5) 1.1935(5) 0.6248(2)
O2A O 2.7900(2) 1.8472(2) -0.03254(12)
O3A O 2.5731(2) 1.8620(2) -0.07846(13)
C1A C 2.4082(3) 1.6982(3) -0.00147(15)
H1A H 2.35390 1.72150 -0.03750
C2A C 2.6502(3) 1.8256(3) -0.03552(15)
C3A C 2.4111(3) 1.5829(3) 0.09106(16)
H2A H 2.35870 1.52730 0.11870
C5A C 2.3288(3) 1.6165(3) 0.03877(15)
C7A C 2.6463(3) 1.7125(3) 0.06395(16)
H4A H 2.75410 1.74680 0.07320
C9A C 2.5660(3) 1.7454(3) 0.01077(15)
C10A C 2.1597(3) 1.5606(3) 0.02190(15)
C13A C 2.5691(3) 1.6301(3) 0.10317(16)
O8A O 2.8026(3) 1.6297(3) 0.15792(15)
C14A C 2.0695(3) 1.6353(3) 0.00736(15)
C15A C 2.0876(3) 1.4256(3) 0.01514(15)
H6A H 2.14630 1.37350 0.02600
C16A C 2.1288(3) 1.7858(3) 0.02589(15)
C17A C 2.6595(4) 1.5896(4) 0.15678(19)
O12A O 2.5949(3) 1.5228(4) 0.1953(2)
O5A O 2.0893(2) 1.84168(18) -0.01810(11)
O6A O 2.2106(2) 1.84414(19) 0.08923(11)
Zn3A Zn 0.95579(5) 0.63405(5) 0.23207(3)
O11A O 1.1445(3) 0.7298(4) 0.20279(16)
O13A O 0.9643(5) 0.4595(4) 0.2369(3)
H9A H 1.111(6) 0.795(4) 0.220(2)
H10A H 1.177(6) 0.730(4) 0.1614(15)
Zn2A Zn 1.68411(4) 0.96419(4) -0.137863(19)
Zn1* Zn 1.00000 1.00000 1.00000
Zn1** Zn 2.00000 1.00000 0.00000
Zn1*** Zn 2.00000 2.00000 0.00000
Zn1**** Zn 3.00000 2.00000 0.00000
Zn2* Zn 0.31589(4) 1.03581(4) 0.137863(19)
Zn2** Zn 2.31589(4) 2.03581(4) 0.137863(19)
Zn2A* Zn 0.68411(4) 0.96419(4) 0.862137(19)
Zn2A** Zn 1.68411(4) 0.96419(4) 0.862137(19)
Zn2A*** Zn 2.68411(4) 1.96419(4) -0.137863(19)
Zn3* Zn 1.04421(5) 1.36595(5) 0.76793(3)
Zn3A* Zn 2.95579(5) 1.63405(5) 0.23207(3)
O1A* O 1.0273(2) 1.0031(2) -0.10852(10)
O2A* O 0.7900(2) 0.8472(2) -0.03254(12)
O3A* O 1.5731(2) 0.8620(2) -0.07846(13)
O4A* O 1.8263(2) 0.9194(2) -0.20025(12)
O5* O 0.9107(2) 1.15832(18) 0.01810(11)
O5A* O 1.0893(2) 0.84168(18) -0.01810(11)
O6A* O 1.2106(2) 0.84414(19) 0.08923(11)
O7* O 1.4975(2) 1.0447(3) 0.19886(13)
O7A* O 1.5025(2) 0.9553(3) -0.19886(13)
O8A* O 0.8026(3) 0.6297(3) 0.15792(15)
O10A* O 1.0735(3) 1.2668(3) -0.32803(16)
#END
