
#######################################################################
#
#                 Cambridge Crystallographic Data Centre
#                                CCDC
#
#######################################################################
#
# If this CIF has been generated from an entry in the Cambridge
# Structural Database, then it will include bibliographic, chemical,
# crystal, experimental, refinement or atomic coordinate data resulting
# from the CCDC's data processing and validation procedures.
#
#######################################################################

data_CSD_CIF_NUFTOY
_audit_creation_date 2010-05-26
_audit_creation_method CSD-ConQuest-V1
_database_code_CSD NUFTOY
_database_code_depnum_ccdc_archive 'CCDC 646877'
_chemical_formula_sum 'C33 H39 In1 N2 O11'
_chemical_formula_moiety
;
(C4 H12 N1 1+)n,n(C24 H12 In1 O8 1-),n(C5 H11 N1 O1),2n(H2 O1)
;
_journal_coden_Cambridge 182
_journal_year 2009
_journal_page_first 4953
_journal_name_full 'Chem.Commun. '
loop_
_publ_author_name
"Seong Huh"
"Tae-Hwan Kwon"
"Noejung Park"
"Sung-Jin Kim"
"Youngmee Kim"
_chemical_name_systematic
;
catena-(Diethylammonium bis(\m~2~-2,6-naphthalenedicarboxylato)-indium(iii) 
diethylformamide solvate dihydrate)
;
_cell_volume   8347.656
_exptl_crystal_colour 'pale yellow'
_exptl_crystal_density_diffrn 1.193
_exptl_crystal_description 'needle'
_diffrn_ambient_temperature 170
_refine_special_details
;
The SQUEEZE/PLATON program has been used to model some disorder associated 
with solvent.
;
#These two values have been output from a single CSD field.
_refine_ls_R_factor_gt 0.0998
_refine_ls_wR_factor_gt 0.0998
_symmetry_cell_setting tetragonal
_symmetry_space_group_name_H-M 'P 4/n'
_symmetry_Int_Tables_number 85
loop_
_symmetry_equiv_pos_site_id
_symmetry_equiv_pos_as_xyz
1 x,y,z
2 1/2-x,1/2-y,z
3 1/2-y,x,z
4 y,1/2-x,z
5 -x,-y,-z
6 -1/2+x,-1/2+y,-z
7 -1/2+y,-x,-z
8 -y,-1/2+x,-z
_cell_length_a 31.745(3)
_cell_length_b 31.745(3)
_cell_length_c 8.2835(15)
_cell_angle_alpha 90
_cell_angle_beta 90
_cell_angle_gamma 90
_cell_formula_units_Z 8
loop_
_atom_type_symbol
_atom_type_radius_bond
C 0.68
H 0.23
In 1.46
N 0.68
O 0.68
loop_
_atom_site_label
_atom_site_type_symbol
_atom_site_fract_x
_atom_site_fract_y
_atom_site_fract_z
In1 In 0.53458(2) 0.69304(2) 1.09690(8)
O1 O 0.5879(2) 0.6472(2) 1.0719(9)
O2 O 0.5705(2) 0.6850(2) 0.8635(8)
O3 O 0.7974(2) 0.5595(2) 0.3676(8)
O4 O 0.7609(2) 0.5827(2) 0.1632(9)
O5 O 0.5097(2) 0.7503(2) 0.9560(9)
O6 O 0.4847(2) 0.7358(2) 1.1935(9)
O7 O 0.3590(2) 0.9955(2) 0.7980(9)
O8 O 0.3408(2) 0.9833(2) 1.0469(9)
C1 C 0.5949(3) 0.6591(3) 0.9310(12)
C2 C 0.6327(3) 0.6442(3) 0.8436(13)
C3 C 0.6390(4) 0.6563(3) 0.6900(13)
H1 H 0.62030 0.67530 0.64350
C4 C 0.6731(3) 0.6411(3) 0.5967(13)
C5 C 0.6796(4) 0.6519(4) 0.4337(14)
H2 H 0.66180 0.67160 0.38630
C6 C 0.7103(4) 0.6349(4) 0.3441(14)
H3 H 0.71380 0.64250 0.23640
C7 C 0.7378(3) 0.6048(3) 0.4191(13)
C8 C 0.7346(3) 0.5949(3) 0.5774(12)
H4 H 0.75400 0.57660 0.62400
C9 C 0.7014(3) 0.6126(3) 0.6740(13)
C10 C 0.6951(3) 0.6017(4) 0.8331(13)
H5 H 0.71420 0.58380 0.88350
C11 C 0.6615(3) 0.6165(3) 0.9184(13)
H6 H 0.65760 0.60840 1.02530
C12 C 0.7676(3) 0.5819(3) 0.3124(14)
C13 C 0.4859(4) 0.7588(3) 1.0710(13)
C14 C 0.4598(4) 0.7978(3) 1.0641(14)
C15 C 0.4309(3) 0.8074(4) 1.1922(15)
H7 H 0.42790 0.78880 1.27820
C16 C 0.4082(4) 0.8429(4) 1.1884(14)
H8 H 0.39000 0.84870 1.27340
C17 C 0.4111(4) 0.8713(4) 1.0610(13)
C18 C 0.3872(3) 0.9095(3) 1.0551(13)
H9 H 0.36910 0.91610 1.13970
C19 C 0.3906(4) 0.9359(3) 0.9299(13)
C20 C 0.4182(3) 0.9276(3) 0.7994(13)
H10 H 0.41960 0.94580 0.71160
C21 C 0.4426(3) 0.8928(3) 0.8049(14)
H11 H 0.46170 0.88780 0.72200
C22 C 0.4396(3) 0.8637(3) 0.9349(13)
C23 C 0.4630(4) 0.8261(3) 0.9427(13)
H12 H 0.48190 0.82040 0.85950
C24 C 0.3619(3) 0.9739(3) 0.9238(14)
N1 N 0.5041(3) 0.6744(3) 0.6057(11)
H13 H 0.52410 0.68280 0.53580
H14 H 0.51360 0.67940 0.70630
C25 C 0.4972(6) 0.6296(5) 0.5864(17)
H15 H 0.48260 0.62460 0.48520
H16 H 0.47910 0.61970 0.67290
C26 C 0.5375(5) 0.6044(5) 0.588(2)
H17 H 0.55750 0.61710 0.51580
H18 H 0.53180 0.57610 0.55340
H19 H 0.54890 0.60400 0.69520
C27 C 0.4655(5) 0.6989(6) 0.5778(19)
H20 H 0.44440 0.69170 0.65820
H21 H 0.45410 0.69240 0.47200
C28 C 0.4759(6) 0.7460(6) 0.5884(19)
H22 H 0.45050 0.76170 0.60880
H23 H 0.48810 0.75520 0.48840
H24 H 0.49550 0.75070 0.67480
N2 N 0.5685(4) 0.5167(3) 0.2845(14)
C29 C 0.5409(6) 0.4933(6) 0.3635(19)
O9 O 0.5523(6) 0.4640(5) 0.4552(17)
C30 C 0.5530(6) 0.5486(4) 0.179(2)
H25 H 0.56780 0.57460 0.20230
H26 H 0.52340 0.55320 0.20290
C31 C 0.5572(7) 0.5396(6) 0.007(2)
H27 H 0.58640 0.54040 -0.02240
H28 H 0.54190 0.56020 -0.05380
H29 H 0.54600 0.51210 -0.01500
C32 C 0.6152(5) 0.5104(5) 0.307(3)
H30 H 0.62050 0.48150 0.34020
H31 H 0.62950 0.51510 0.20550
C33 C 0.6316(6) 0.5383(7) 0.426(3)
H32 H 0.63110 0.56660 0.38480
H33 H 0.66010 0.53050 0.45040
H34 H 0.61480 0.53660 0.52180
O10 O 0.3490(13) 0.6831(13) 0.330(5)
O11 O 0.3615(14) 0.7126(15) 0.005(6)
In1B In 0.80696(2) 0.53458(2) 0.09690(8)
In1G In 0.30696(2) 1.03458(2) 0.90310(8)
O3C O 0.5595(2) 0.7026(2) 1.3676(8)
O4C O 0.5827(2) 0.7391(2) 1.1632(9)
O7F O 0.4955(2) 0.6410(2) 1.2020(9)
O8F O 0.4833(2) 0.6592(2) 0.9531(9)
#END
