
#######################################################################
#
#                 Cambridge Crystallographic Data Centre
#                                CCDC
#
#######################################################################
#
# If this CIF has been generated from an entry in the Cambridge
# Structural Database, then it will include bibliographic, chemical,
# crystal, experimental, refinement or atomic coordinate data resulting
# from the CCDC's data processing and validation procedures.
#
#######################################################################

data_CSD_CIF_NUGHIJ
_audit_creation_date 2020-02-26
_audit_creation_method CSD-ConQuest-V1
_database_code_CSD NUGHIJ
_database_code_depnum_ccdc_archive 'CCDC 1968999'
_chemical_formula_sum 'C60 H44 I10 N12 Ni2 Pb3'
_chemical_formula_moiety
;
(C30 H22 N6 Ni1 2+)2n,n(I6 Pb2 2-),n(I4 Pb1 2-)
;
_journal_coden_Cambridge 1350
_journal_volume 22
_journal_year 2020
_journal_page_first 1904
_journal_name_full 'CrystEngComm '
loop_
_publ_author_name
"Yongli Zhang"
"Meixiu Zang"
"Hang Yin"
"Peng Liu"
"Yeming Xian"
"Wenzhe Li"
_chemical_name_systematic
;
catena-(bis(2,2':6',2''-terpyridine)-nickel(ii) hexakis(\m-iodo)-di-lead(ii)  
tetrakis(iodo)-lead(ii))
;
_cell_volume   7534.475
_exptl_crystal_density_diffrn 2.593
_diffrn_ambient_temperature 293
#These two values have been output from a single CSD field.
_refine_ls_R_factor_gt 0.0474
_refine_ls_wR_factor_gt 0.0474
_symmetry_cell_setting orthorhombic
_symmetry_space_group_name_H-M 'P c a 21'
_symmetry_Int_Tables_number 29
loop_
_symmetry_equiv_pos_site_id
_symmetry_equiv_pos_as_xyz
1 x,y,z
2 -x,-y,1/2+z
3 1/2+x,-y,z
4 1/2-x,y,1/2+z
_cell_length_a 22.3909(6)
_cell_length_b 8.5089(2)
_cell_length_c 39.5465(9)
_cell_angle_alpha 90
_cell_angle_beta 90
_cell_angle_gamma 90
_cell_formula_units_Z 4
loop_
_atom_type_symbol
_atom_type_radius_bond
C 0.68
H 0.23
I 1.40
N 0.68
Ni 1.24
Pb 1.46
loop_
_atom_site_label
_atom_site_type_symbol
_atom_site_fract_x
_atom_site_fract_y
_atom_site_fract_z
Pb1 Pb 0.76150(4) 0.23746(12) 0.29232(3)
Pb2 Pb 0.75971(4) 0.73794(12) 0.29146(3)
I1 I 0.73897(8) 0.49434(19) 0.35357(4)
I2 I 0.66099(7) 0.9879(2) 0.31358(4)
I3 I 0.85932(7) 0.4903(2) 0.26965(4)
I4 I 0.78483(8) -0.00537(19) 0.22998(4)
I5 I 0.84616(8) 0.0008(2) 0.33365(5)
I6 I 0.67441(8) 0.4992(2) 0.25060(5)
Pb3 Pb 0.31839(6) 1.25627(16) 0.54162(4)
I7 I 0.39369(10) 1.2910(3) 0.47127(5)
I8 I 0.37865(10) 1.2052(3) 0.61021(7)
I9 I 0.25681(11) 0.9517(3) 0.53366(7)
I10 I 0.21470(17) 1.4639(4) 0.55949(7)
Ni1 Ni 0.52719(14) 0.7074(3) 0.65465(7)
N1 N 0.4383(8) 0.755(2) 0.6535(5)
N2 N 0.5214(11) 0.480(3) 0.6748(6)
N3 N 0.5123(8) 0.794(2) 0.7029(5)
N4 N 0.5036(12) 0.646(2) 0.6050(5)
N5 N 0.6133(9) 0.652(2) 0.6568(5)
C1 C 0.4144(11) 0.807(3) 0.6815(6)
N6 N 0.5711(9) 0.913(2) 0.6377(5)
C2 C 0.5503(12) 0.801(3) 0.7277(7)
H1 H 0.58986 0.77542 0.72325
C3 C 0.5351(12) 0.844(3) 0.7610(6)
H2 H 0.56366 0.85078 0.77805
C4 C 0.5767(17) 0.273(3) 0.7008(8)
H3 H 0.61297 0.22562 0.70602
C5 C 0.4731(15) 0.409(3) 0.6847(8)
H4 H 0.43702 0.45593 0.67880
C6 C 0.6664(17) 1.013(4) 0.6212(9)
H5 H 0.70755 0.99956 0.61957
C7 C 0.5446(13) 1.047(3) 0.6272(6)
H6 H 0.50335 1.05853 0.62875
C8 C 0.640(2) 1.145(5) 0.6114(9)
H7 H 0.66319 1.22471 0.60227
C9 C 0.4541(11) 0.825(3) 0.7099(6)
C10 C 0.6303(13) 0.897(3) 0.6337(7)
C11 C 0.6260(13) 0.510(3) 0.6710(7)
C12 C 0.4086(15) 0.718(4) 0.6263(7)
C13 C 0.5758(15) 0.416(3) 0.6821(7)
C14 C 0.4455(16) 0.660(3) 0.5986(8)
C15 C 0.5419(18) 0.587(3) 0.5823(7)
H8 H 0.58210 0.57544 0.58766
C16 C 0.525(2) 0.206(4) 0.7112(9)
H9 H 0.52681 0.11483 0.72407
C17 C 0.7264(15) 0.568(5) 0.6644(9)
H10 H 0.76644 0.54131 0.66680
C18 C 0.4367(13) 0.865(3) 0.7413(7)
H11 H 0.39665 0.88497 0.74566
C19 C 0.7141(14) 0.713(4) 0.6501(8)
H12 H 0.74368 0.78234 0.64279
C20 C 0.6539(12) 0.746(4) 0.6475(7)
C21 C 0.578(2) 1.167(3) 0.6143(7)
H13 H 0.56092 1.26065 0.60759
C22 C 0.462(3) 0.553(5) 0.5427(10)
H14 H 0.44697 0.51992 0.52192
C23 C 0.4778(15) 0.876(4) 0.7668(8)
H15 H 0.46560 0.90490 0.78840
C24 C 0.6839(18) 0.459(5) 0.6758(9)
H16 H 0.69374 0.36242 0.68548
C25 C 0.3516(12) 0.832(3) 0.6821(9)
H17 H 0.33205 0.86786 0.70142
C26 C 0.470(2) 0.267(4) 0.7035(9)
H18 H 0.43427 0.22070 0.70988
C27 C 0.3222(13) 0.802(4) 0.6533(10)
H19 H 0.28146 0.82321 0.65303
C28 C 0.3462(17) 0.744(4) 0.6246(9)
H20 H 0.32366 0.72235 0.60540
C29 C 0.520(2) 0.542(4) 0.5492(9)
H21 H 0.54588 0.50482 0.53276
C30 C 0.4236(18) 0.615(4) 0.5674(9)
H22 H 0.38313 0.62540 0.56278
Ni2 Ni 0.55086(13) 0.7876(3) 0.43080(7)
N7 N 0.5344(8) 0.702(2) 0.3821(5)
N8 N 0.5879(9) 0.577(2) 0.4483(5)
N9 N 0.4634(8) 0.756(2) 0.4333(5)
N10 N 0.6367(10) 0.836(3) 0.4271(5)
N11 N 0.5328(9) 0.861(2) 0.4806(5)
C31 C 0.4750(11) 0.675(3) 0.3770(6)
N12 N 0.5509(13) 1.017(2) 0.4106(6)
C32 C 0.6542(16) 0.968(4) 0.4136(8)
C33 C 0.4746(12) 0.869(3) 0.4881(6)
C34 C 0.6752(13) 0.722(5) 0.4372(7)
C35 C 0.4340(11) 0.804(3) 0.4614(8)
C36 C 0.589(2) 0.322(4) 0.4739(8)
H23 H 0.56699 0.23636 0.48163
C37 C 0.5714(12) 0.688(3) 0.3565(6)
H24 H 0.61150 0.71115 0.36001
C38 C 0.3417(12) 0.726(3) 0.4355(8)
H25 H 0.30049 0.71397 0.43642
C39 C 0.4343(11) 0.703(3) 0.4061(6)
C40 C 0.4961(19) 0.978(4) 0.5410(9)
H26 H 0.48391 1.01789 0.56185
C41 C 0.604(2) 1.071(3) 0.4035(7)
C42 C 0.7533(17) 0.891(8) 0.4200(13)
H27 H 0.79388 0.91138 0.41744
C43 C 0.3724(14) 0.789(3) 0.4630(8)
H28 H 0.35178 0.82155 0.48223
C44 C 0.5552(13) 0.968(3) 0.5343(7)
H29 H 0.58392 1.00129 0.54973
C45 C 0.5701(12) 0.909(3) 0.5043(6)
H30 H 0.61064 0.90107 0.49959
C46 C 0.714(2) 0.994(6) 0.4104(10)
H31 H 0.72731 1.08757 0.40101
C47 C 0.4529(14) 0.931(3) 0.5178(7)
H32 H 0.41224 0.94148 0.52200
C48 C 0.608(2) 1.215(4) 0.3850(9)
H33 H 0.64487 1.25232 0.37853
C49 C 0.6492(13) 0.580(4) 0.4498(6)
C50 C 0.3730(11) 0.682(3) 0.4064(7)
H34 H 0.35333 0.63918 0.38780
C51 C 0.4955(15) 0.611(4) 0.3185(8)
H35 H 0.48235 0.58268 0.29709
C52 C 0.7345(17) 0.752(5) 0.4339(9)
H36 H 0.76238 0.67796 0.44108
C53 C 0.646(3) 0.324(6) 0.4767(10)
H37 H 0.66613 0.23943 0.48654
C54 C 0.5542(13) 0.640(3) 0.3251(7)
H38 H 0.58250 0.62801 0.30810
C55 C 0.5603(14) 0.453(3) 0.4589(7)
H39 H 0.51896 0.44910 0.45652
C56 C 0.4555(12) 0.625(3) 0.3464(7)
H40 H 0.41539 0.60061 0.34344
C57 C 0.5023(19) 1.097(4) 0.4018(8)
H41 H 0.46476 1.05837 0.40743
C58 C 0.6789(19) 0.453(6) 0.4647(10)
H42 H 0.72026 0.45471 0.46667
C59 C 0.561(4) 1.296(5) 0.3770(13)
H43 H 0.56405 1.39308 0.36640
C60 C 0.507(3) 1.233(5) 0.3846(12)
H44 H 0.47291 1.28553 0.37789
Pb1* Pb 0.76150(4) 1.23746(12) 0.29232(3)
Pb2* Pb 0.75971(4) -0.26206(12) 0.29146(3)
I2* I 0.66099(7) -0.0121(2) 0.31358(4)
I4* I 0.78483(8) 0.99463(19) 0.22998(4)
I5* I 0.84616(8) 1.0008(2) 0.33365(5)
#END
