
#######################################################################
#
#                 Cambridge Crystallographic Data Centre
#                                CCDC
#
#######################################################################
#
# If this CIF has been generated from an entry in the Cambridge
# Structural Database, then it will include bibliographic, chemical,
# crystal, experimental, refinement or atomic coordinate data resulting
# from the CCDC's data processing and validation procedures.
#
#######################################################################

data_CSD_CIF_NUGHOP
_audit_creation_date 2020-02-26
_audit_creation_method CSD-ConQuest-V1
_database_code_CSD NUGHOP
_database_code_depnum_ccdc_archive 'CCDC 1969000'
_chemical_formula_sum 'C90 H66 I18 N18 Ni3 Pb6'
_chemical_formula_moiety
;
(C30 H22 N6 Ni1 2+)3n,2n(I9 Pb3 3-)
;
_journal_coden_Cambridge 1350
_journal_volume 22
_journal_year 2020
_journal_page_first 1904
_journal_name_full 'CrystEngComm '
loop_
_publ_author_name
"Yongli Zhang"
"Meixiu Zang"
"Hang Yin"
"Peng Liu"
"Yeming Xian"
"Wenzhe Li"
_chemical_name_systematic
;
catena-(tris(bis(2,2':6',2''-terpyridine)-nickel(ii)) 
bis(nonakis(\m-iodo)-tri-lead(ii)))
;
_cell_volume  24823.493
_exptl_crystal_density_diffrn 2.731
_diffrn_ambient_temperature 100
#These two values have been output from a single CSD field.
_refine_ls_R_factor_gt 0.0176
_refine_ls_wR_factor_gt 0.0176
_symmetry_cell_setting cubic
_symmetry_space_group_name_H-M 'I -4 3 d'
_symmetry_Int_Tables_number 220
loop_
_symmetry_equiv_pos_site_id
_symmetry_equiv_pos_as_xyz
1 x,y,z
2 1/2-x,-y,1/2+z
3 -x,1/2+y,1/2-z
4 1/2+x,1/2-y,-z
5 z,x,y
6 1/2+z,1/2-x,-y
7 1/2-z,-x,1/2+y
8 -z,1/2+x,1/2-y
9 y,z,x
10 -y,1/2+z,1/2-x
11 1/2+y,1/2-z,-x
12 1/2-y,-z,1/2+x
13 1/4+y,1/4+x,1/4+z
14 1/4-y,3/4-x,3/4+z
15 3/4+y,1/4-x,3/4-z
16 3/4-y,3/4+x,1/4-z
17 1/4+x,1/4+z,1/4+y
18 3/4-x,3/4+z,1/4-y
19 1/4-x,3/4-z,3/4+y
20 3/4+x,1/4-z,3/4-y
21 1/4+z,1/4+y,1/4+x
22 3/4+z,1/4-y,3/4-x
23 3/4-z,3/4+y,1/4-x
24 1/4-z,3/4-y,3/4+x
25 1/2+x,1/2+y,1/2+z
26 -x,1/2-y,z
27 1/2-x,y,-z
28 x,-y,1/2-z
29 1/2+z,1/2+x,1/2+y
30 z,-x,1/2-y
31 -z,1/2-x,y
32 1/2-z,x,-y
33 1/2+y,1/2+z,1/2+x
34 1/2-y,z,-x
35 y,-z,1/2-x
36 -y,1/2-z,x
37 3/4+y,3/4+x,3/4+z
38 3/4-y,1/4-x,1/4+z
39 1/4+y,3/4-x,1/4-z
40 1/4-y,1/4+x,3/4-z
41 3/4+x,3/4+z,3/4+y
42 1/4-x,1/4+z,3/4-y
43 3/4-x,1/4-z,1/4+y
44 1/4+x,3/4-z,1/4-y
45 3/4+z,3/4+y,3/4+x
46 1/4+z,3/4-y,1/4-x
47 1/4-z,1/4+y,3/4-x
48 3/4-z,1/4-y,1/4+x
_cell_length_a 29.1712(2)
_cell_length_b 29.1712(2)
_cell_length_c 29.1712(2)
_cell_angle_alpha 90
_cell_angle_beta 90
_cell_angle_gamma 90
_cell_formula_units_Z 8
loop_
_atom_type_symbol
_atom_type_radius_bond
C 0.68
H 0.23
I 1.40
N 0.68
Ni 1.24
Pb 1.46
loop_
_atom_site_label
_atom_site_type_symbol
_atom_site_fract_x
_atom_site_fract_y
_atom_site_fract_z
Pb1 Pb -0.09359(2) 0.59359(2) 0.40641(2)
Pb2 Pb -0.01211(2) 0.51211(2) 0.48789(2)
Pb3 Pb 0.06996(2) 0.43004(2) 0.56996(2)
I1 I -0.12689(2) 0.58244(2) 0.29994(2)
I2 I 0.09548(2) 0.52209(2) 0.51756(2)
I3 I -0.11325(2) 0.49430(2) 0.44895(2)
Ni1 Ni 0.12500 0.50000 0.25000
N1 N 0.0572(2) 0.50000 0.25000
N2 N 0.11078(18) 0.56784(18) 0.26818(18)
C1 C 0.1411(2) 0.6013(2) 0.2770(2)
H1 H 0.17217 0.59453 0.27516
C2 C 0.0661(2) 0.5783(2) 0.2707(2)
C3 C 0.0352(2) 0.5388(2) 0.2600(2)
C4 C -0.0125(2) 0.5397(2) 0.2604(2)
H2 H -0.02818 0.56652 0.26758
C5 C 0.0823(2) 0.6550(3) 0.2912(2)
H3 H 0.07249 0.68438 0.29870
C6 C -0.0358(3) 0.50000 0.25000
H4 H -0.06768 0.50000 0.25000
C7 C 0.1282(2) 0.6456(2) 0.2887(3)
H5 H 0.15001 0.66814 0.29459
C8 C 0.0509(2) 0.6213(2) 0.2826(2)
H6 H 0.01968 0.62731 0.28491
Ni2 Ni 0.25000 0.62500 0.50000
N3 N 0.21260(18) 0.61128(18) 0.55979(18)
N4 N 0.25000 0.5576(3) 0.50000
C9 C 0.1848(2) 0.5507(3) 0.6071(2)
H7 H 0.18097 0.51941 0.61215
C10 C 0.2079(2) 0.5662(2) 0.5682(2)
C11 C 0.1730(3) 0.6280(3) 0.6294(3)
H8 H 0.16201 0.64978 0.64994
C12 C 0.2283(2) 0.5352(2) 0.5334(2)
C13 C 0.25000 0.4642(3) 0.50000
H9 H 0.25000 0.43229 0.50000
C14 C 0.1952(3) 0.6412(3) 0.5895(2)
H10 H 0.19795 0.67230 0.58318
C15 C 0.2270(2) 0.4879(2) 0.5337(2)
H11 H 0.21075 0.47231 0.55633
C16 C 0.1676(3) 0.5822(3) 0.6380(3)
H12 H 0.15259 0.57243 0.66434
I1E I -0.20006(2) 0.62689(2) 0.41756(2)
I2E I 0.01756(2) 0.40452(2) 0.47791(2)
I3E I -0.05105(2) 0.61325(2) 0.50570(2)
I1K I -0.08244(2) 0.70006(2) 0.37311(2)
I2K I -0.02209(2) 0.48244(2) 0.59548(2)
I3K I 0.00570(2) 0.55105(2) 0.38675(2)
Pb3M Pb -0.18004(2) 0.68004(2) 0.31996(2)
I1KA I 0.16756(2) 0.37689(2) 0.54994(2)
I1QA I 0.12311(2) 0.45006(2) 0.66756(2)
I1RA I 0.04994(2) 0.33244(2) 0.62311(2)
N2AA N 0.11078(18) 0.43216(18) 0.23182(18)
C1AA C 0.1411(2) 0.3987(2) 0.2230(2)
H1AA H 0.17217 0.40547 0.22484
C2AA C 0.0661(2) 0.4217(2) 0.2293(2)
C3AA C 0.0352(2) 0.4612(2) 0.2400(2)
C4AA C -0.0125(2) 0.4603(2) 0.2396(2)
H2AA H -0.02818 0.43348 0.23242
C5AA C 0.0823(2) 0.3450(3) 0.2088(2)
H3AA H 0.07249 0.31562 0.20130
C7AA C 0.1282(2) 0.3544(2) 0.2113(3)
H5AA H 0.15001 0.33186 0.20541
C8AA C 0.0509(2) 0.3787(2) 0.2174(2)
H6AA H 0.01968 0.37269 0.21509
N1R N 0.1928(2) 0.50000 0.25000
N2R N 0.13922(18) 0.48182(18) 0.31784(18)
C1R C 0.1089(2) 0.4730(2) 0.3513(2)
H1R H 0.07783 0.47484 0.34453
C2R C 0.1839(2) 0.4793(2) 0.3283(2)
C3R C 0.2148(2) 0.4900(2) 0.2888(2)
C4R C 0.2625(2) 0.4896(2) 0.2897(2)
H2R H 0.27818 0.48242 0.31652
C5R C 0.1677(2) 0.4588(3) 0.4050(2)
H3R H 0.17751 0.45130 0.43438
C6R C 0.2858(3) 0.50000 0.25000
H4R H 0.31768 0.50000 0.25000
C7R C 0.1218(2) 0.4613(2) 0.3956(3)
H5R H 0.09999 0.45541 0.41814
C8R C 0.1991(2) 0.4674(2) 0.3713(2)
H6R H 0.23032 0.46509 0.37731
N2OA N 0.13922(18) 0.51818(18) 0.18216(18)
C1OA C 0.1089(2) 0.5270(2) 0.1487(2)
H1OA H 0.07783 0.52516 0.15547
C2OA C 0.1839(2) 0.5207(2) 0.1717(2)
C3OA C 0.2148(2) 0.5100(2) 0.2112(2)
C4OA C 0.2625(2) 0.5104(2) 0.2103(2)
H2OA H 0.27818 0.51758 0.18348
C5OA C 0.1677(2) 0.5412(3) 0.0950(2)
H3OA H 0.17751 0.54870 0.06562
C7OA C 0.1218(2) 0.5387(2) 0.1044(3)
H5OA H 0.09999 0.54459 0.08186
C8OA C 0.1991(2) 0.5326(2) 0.1287(2)
H6OA H 0.23032 0.53491 0.12269
N3Z N 0.28740(18) 0.61128(18) 0.44021(18)
C9Z C 0.3152(2) 0.5507(3) 0.3929(2)
H7Z H 0.31903 0.51941 0.38785
C10Z C 0.2921(2) 0.5662(2) 0.4318(2)
C11Z C 0.3270(3) 0.6280(3) 0.3706(3)
H8Z H 0.33799 0.64978 0.35006
C12Z C 0.2717(2) 0.5352(2) 0.4666(2)
C14Z C 0.3048(3) 0.6412(3) 0.4105(2)
H10Z H 0.30205 0.67230 0.41682
C15Z C 0.2730(2) 0.4879(2) 0.4663(2)
H11Z H 0.28925 0.47231 0.44367
C16Z C 0.3324(3) 0.5822(3) 0.3620(3)
H12Z H 0.34741 0.57243 0.33566
N3U N 0.30979(18) 0.63872(18) 0.53740(18)
N4U N 0.25000 0.6924(3) 0.50000
C9U C 0.3571(2) 0.6993(3) 0.5652(2)
H7U H 0.36215 0.73059 0.56903
C10U C 0.3182(2) 0.6838(2) 0.5421(2)
C11U C 0.3794(3) 0.6220(3) 0.5770(3)
H8U H 0.39994 0.60022 0.58799
C12U C 0.2834(2) 0.7148(2) 0.5217(2)
C13U C 0.25000 0.7858(3) 0.50000
H9U H 0.25000 0.81771 0.50000
C14U C 0.3395(3) 0.6088(3) 0.5548(2)
H10U H 0.33318 0.57770 0.55205
C15U C 0.2837(2) 0.7621(2) 0.5230(2)
H11U H 0.30633 0.77769 0.53925
C16U C 0.3880(3) 0.6678(3) 0.5824(3)
H12U H 0.41434 0.67757 0.59741
N3UA N 0.19021(18) 0.63872(18) 0.46260(18)
C9UA C 0.1429(2) 0.6993(3) 0.4348(2)
H7UA H 0.13785 0.73059 0.43097
C10UA C 0.1818(2) 0.6838(2) 0.4579(2)
C11UA C 0.1206(3) 0.6220(3) 0.4230(3)
H8UA H 0.10006 0.60022 0.41201
C12UA C 0.2166(2) 0.7148(2) 0.4783(2)
C14UA C 0.1605(3) 0.6088(3) 0.4452(2)
H10UA H 0.16682 0.57770 0.44795
C15UA C 0.2163(2) 0.7621(2) 0.4770(2)
H11UA H 0.19367 0.77769 0.46075
C16UA C 0.1120(3) 0.6678(3) 0.4176(3)
H12UA H 0.08566 0.67757 0.40259
#END
