
#######################################################################
#
#                 Cambridge Crystallographic Data Centre
#                                CCDC
#
#######################################################################
#
# If this CIF has been generated from an entry in the Cambridge
# Structural Database, then it will include bibliographic, chemical,
# crystal, experimental, refinement or atomic coordinate data resulting
# from the CCDC's data processing and validation procedures.
#
#######################################################################

data_CSD_CIF_NUHTOC
_audit_creation_date 2020-02-27
_audit_creation_method CSD-ConQuest-V1
_database_code_CSD NUHTOC
_database_code_depnum_ccdc_archive 'CCDC 1920847'
_chemical_formula_sum 'C78 H92 Cd4 N14 O2 S8'
_chemical_formula_moiety
;
(C64 H32 Cd2 S8 4-)n,2(C6 H24 Cd1 N6 2+),C2 H8 N2,2(H2 O1)
;
_journal_coden_Cambridge 1350
_journal_volume 21
_journal_year 2019
_journal_page_first 4255
_journal_name_full 'CrystEngComm '
loop_
_publ_author_name
"M.Roy"
"A.A.Lonardo"
"D.N.K.Pham"
"A.Kreider-Mueller"
"J.A.Golen"
"D.R.Manke"
_chemical_name_systematic
;
catena-[bis(tris(ethane-1,2-diamine)-cadmium) 
tetrakis(\m-pyrene-1,6-dithiolato)-di-cadmium ethane-1,2-diamine dihydrate]
;
_cell_volume   1976.195
_exptl_crystal_colour 'white'
_exptl_crystal_density_diffrn 1.65
_exptl_crystal_description 'NEEDLE'
_diffrn_ambient_temperature 200
_refine_special_details
;
N1,N2 and N1A,N2A disordered over two sites with occupancies 0.614:0.386; 
N3,N4 and N3A,N4A disordered over two sites with occupancies 0.825:0.175.
;
#These two values have been output from a single CSD field.
_refine_ls_R_factor_gt 0.0556
_refine_ls_wR_factor_gt 0.0556
_symmetry_cell_setting triclinic
_symmetry_space_group_name_H-M 'P -1'
_symmetry_Int_Tables_number 2
loop_
_symmetry_equiv_pos_site_id
_symmetry_equiv_pos_as_xyz
1 x,y,z
2 -x,-y,-z
_cell_length_a 9.8509(5)
_cell_length_b 9.8882(5)
_cell_length_c 20.8551(9)
_cell_angle_alpha 87.846(2)
_cell_angle_beta 81.167(2)
_cell_angle_gamma 79.911(2)
_cell_formula_units_Z 1
loop_
_atom_type_symbol
_atom_type_radius_bond
C 0.68
H 0.23
Cd 1.44
N 0.68
O 0.68
S 1.02
loop_
_atom_site_label
_atom_site_type_symbol
_atom_site_fract_x
_atom_site_fract_y
_atom_site_fract_z
Cd1 Cd 0.22780(5) 0.36204(5) 0.74259(2)
S1 S 0.3570(2) 0.2911(3) 0.63250(9)
S2 S -0.0637(2) 0.4133(2) 0.25937(11)
S3 S 0.0865(2) 0.1801(2) 0.79166(9)
S4 S 0.44539(18) 0.37906(19) 0.79278(8)
C1 C 0.2289(9) 0.2842(11) 0.5827(3)
C2 C 0.1288(11) 0.1999(14) 0.6001(4)
H1 H 0.12740 0.15110 0.64020
C3 C 0.0335(10) 0.1857(14) 0.5611(4)
H2 H -0.03450 0.12960 0.57560
C4 C 0.0320(9) 0.2502(11) 0.5010(4)
C5 C -0.0649(10) 0.2352(13) 0.4584(4)
H3 H -0.13190 0.17720 0.47130
C6 C -0.0643(9) 0.3001(11) 0.4010(4)
H4 H -0.13190 0.28840 0.37470
C7 C 0.0350(8) 0.3864(8) 0.3784(4)
C8 C 0.0432(8) 0.4497(8) 0.3166(4)
C9 C 0.1436(10) 0.5336(9) 0.2974(5)
H5 H 0.14910 0.57580 0.25560
C10 C 0.2351(10) 0.5556(9) 0.3389(5)
H6 H 0.30180 0.61340 0.32500
C11 C 0.2314(9) 0.4952(8) 0.4003(4)
C12 C 0.3259(10) 0.5131(9) 0.4432(5)
H7 H 0.39280 0.57130 0.43070
C13 C 0.3219(9) 0.4478(9) 0.5022(4)
H8 H 0.38460 0.46390 0.53040
C14 C 0.2268(8) 0.3565(9) 0.5228(4)
C15 C 0.1293(8) 0.3389(9) 0.4814(3)
C16 C 0.1308(7) 0.4073(8) 0.4212(4)
C17 C 0.0829(7) 0.1704(7) 0.8762(3)
C18 C 0.1258(7) 0.2707(7) 0.9098(3)
H9 H 0.15700 0.34650 0.88640
C19 C 0.1243(7) 0.2632(7) 0.9764(3)
H10 H 0.15670 0.33250 0.99730
C20 C 0.0764(6) 0.1568(7) 1.0130(3)
C21 C 0.0647(7) 0.1498(7) 1.0826(3)
H11 H 0.09480 0.21890 1.10460
C22 C 0.0129(7) 0.0489(7) 1.1172(3)
H12 H 0.00660 0.04910 1.16320
C23 C 0.0277(6) 0.0540(7) 0.9816(3)
C24 C 0.0333(6) 0.0597(7) 0.9128(3)
C25 C 0.4029(7) 0.4646(7) 0.8675(3)
C26 C 0.4915(6) 0.4380(6) 0.9160(3)
C27 C 0.6179(7) 0.3398(7) 0.9079(3)
H13 H 0.64330 0.28880 0.86890
C28 C 0.7016(7) 0.3176(7) 0.9534(3)
H14 H 0.78560 0.25280 0.94540
C29 C 0.4548(6) 0.5118(6) 0.9756(3)
C30 C 0.3318(7) 0.6113(7) 0.9860(3)
C31 C 0.2486(7) 0.6364(7) 0.9373(3)
H15 H 0.16630 0.70370 0.94360
C32 C 0.2840(7) 0.5644(7) 0.8795(3)
H16 H 0.22500 0.58400 0.84710
Cd2 Cd 0.44729(5) 0.10585(5) 0.22665(3)
N1 N 0.6814(12) 0.1198(13) 0.2309(6)
H17 H 0.73790 0.03830 0.22020
H18 H 0.71010 0.18640 0.20340
N2 N 0.3864(10) -0.0820(9) 0.2885(4)
H19 H 0.43970 -0.16110 0.27190
H20 H 0.40120 -0.07420 0.33010
N3 N 0.2000(8) 0.1290(9) 0.2369(5)
H21 H 0.16020 0.21860 0.24350
H22 H 0.17560 0.10120 0.19980
N4 N 0.5517(10) -0.0424(8) 0.1378(4)
H23 H 0.63360 -0.09240 0.14660
H24 H 0.49390 -0.10150 0.13150
N5 N 0.4295(7) 0.2412(7) 0.1319(3)
H25 H 0.34310 0.29380 0.13480
H26 H 0.49370 0.29810 0.12720
N6 N 0.4339(14) 0.2398(17) 0.3152(7)
H27 H 0.37420 0.31980 0.31080
H28 H 0.39870 0.19560 0.35140
C33 C 0.6827(13) 0.1561(14) 0.3023(7)
H29 H 0.66950 0.07500 0.33040
H30 H 0.77440 0.17990 0.30660
C34 C 0.5724(14) 0.2716(13) 0.3237(7)
H31 H 0.58970 0.35490 0.29810
H32 H 0.57290 0.29020 0.37000
C35 C 0.2312(12) -0.0858(12) 0.2872(6)
H33 H 0.22150 -0.12780 0.24610
H34 H 0.19680 -0.14430 0.32350
C36 C 0.1499(11) 0.0443(12) 0.2923(6)
H35 H 0.15710 0.08680 0.33360
H36 H 0.05090 0.03770 0.29180
C37 C 0.5769(9) 0.0414(10) 0.0797(4)
H37 H 0.59460 -0.01720 0.04080
H38 H 0.66040 0.08360 0.08100
C38 C 0.4535(9) 0.1513(9) 0.0756(4)
H39 H 0.46990 0.20580 0.03520
H40 H 0.37000 0.10900 0.07420
N7? N 0.633(3) 0.034(4) 0.2901(13)
H41? H 0.60080 -0.00610 0.32800
H42? H 0.70250 -0.02690 0.26770
N8? N 0.487(5) 0.307(2) 0.2815(16)
H43? H 0.52390 0.36490 0.25140
H44? H 0.40470 0.35200 0.30190
N9? N 0.317(5) -0.070(4) 0.223(2)
H45? H 0.26030 -0.05020 0.19200
H46? H 0.37550 -0.15080 0.21210
N10? N 0.253(4) 0.149(4) 0.310(2)
H47? H 0.27880 0.12850 0.35000
H48? H 0.21000 0.23820 0.30950
H49? H 0.73950 0.18350 0.26210
H50? H 0.74440 0.13580 0.33590
H51? H 0.51860 0.24650 0.36520
H52? H 0.61540 0.35140 0.33180
H53? H 0.17400 -0.15860 0.28690
H54? H 0.28930 -0.10480 0.32230
H55? H 0.06880 0.04540 0.32690
H56? H 0.11540 0.07250 0.25080
O1 O 0.1588(8) 0.4366(7) 0.1307(4)
H57 H 0.10930 0.43230 0.16880
H58 H 0.17770 0.51910 0.12370
N11 N 0.3747(16) 0.0112(18) 0.4396(5)
H59 H 0.36470 -0.07580 0.44740
H60 H 0.29820 0.06520 0.45820
C39 C 0.4929(19) 0.035(2) 0.4688(6)
H61 H 0.48480 0.13490 0.47500
H62 H 0.57920 0.00470 0.43810
S3A S -0.0865(2) -0.1801(2) 1.20834(9)
C17A C -0.0829(7) -0.1704(7) 1.1238(3)
C18A C -0.1258(7) -0.2707(7) 1.0902(3)
H9A H -0.15700 -0.34650 1.11360
C19A C -0.1243(7) -0.2632(7) 1.0236(3)
H10A H -0.15670 -0.33250 1.00270
C20A C -0.0764(6) -0.1568(7) 0.9870(3)
C21A C -0.0647(7) -0.1498(7) 0.9174(3)
H11A H -0.09480 -0.21890 0.89540
C22A C -0.0129(7) -0.0489(7) 0.8828(3)
H12A H -0.00660 -0.04910 0.83680
C23A C -0.0277(6) -0.0540(7) 1.0184(3)
C24A C -0.0333(6) -0.0597(7) 1.0872(3)
S4A S 0.55461(18) 0.62094(19) 1.20722(8)
C25A C 0.5971(7) 0.5354(7) 1.1325(3)
C26A C 0.5085(6) 0.5620(6) 1.0840(3)
C27A C 0.3821(7) 0.6602(7) 1.0921(3)
H13A H 0.35670 0.71120 1.13110
C28A C 0.2984(7) 0.6824(7) 1.0466(3)
H14A H 0.21440 0.74720 1.05460
C29A C 0.5452(6) 0.4882(6) 1.0244(3)
C30A C 0.6682(7) 0.3887(7) 1.0140(3)
C31A C 0.7514(7) 0.3636(7) 1.0627(3)
H15A H 0.83370 0.29630 1.05640
C32A C 0.7160(7) 0.4356(7) 1.1205(3)
H16A H 0.77500 0.41600 1.15290
Cd1A Cd -0.22780(5) -0.36204(5) 1.25741(2)
S1A S -0.3570(2) -0.2911(3) 1.36750(9)
S2A S 0.0637(2) -0.4133(2) 1.74063(11)
C1A C -0.2289(9) -0.2842(11) 1.4173(3)
C2A C -0.1288(11) -0.1999(14) 1.3999(4)
H1A H -0.12740 -0.15110 1.35980
C3A C -0.0335(10) -0.1857(14) 1.4389(4)
H2A H 0.03450 -0.12960 1.42440
C4A C -0.0320(9) -0.2502(11) 1.4990(4)
C5A C 0.0649(10) -0.2352(13) 1.5416(4)
H3A H 0.13190 -0.17720 1.52870
C6A C 0.0643(9) -0.3001(11) 1.5990(4)
H4A H 0.13190 -0.28840 1.62530
C7A C -0.0350(8) -0.3864(8) 1.6216(4)
C8A C -0.0432(8) -0.4497(8) 1.6834(4)
C9A C -0.1436(10) -0.5336(9) 1.7026(5)
H5A H -0.14910 -0.57580 1.74440
C10A C -0.2351(10) -0.5556(9) 1.6611(5)
H6A H -0.30180 -0.61340 1.67500
C11A C -0.2314(9) -0.4952(8) 1.5997(4)
C12A C -0.3259(10) -0.5131(9) 1.5568(5)
H7A H -0.39280 -0.57130 1.56930
C13A C -0.3219(9) -0.4478(9) 1.4978(4)
H8A H -0.38460 -0.46390 1.46960
C14A C -0.2268(8) -0.3565(9) 1.4772(4)
C15A C -0.1293(8) -0.3389(9) 1.5186(3)
C16A C -0.1308(7) -0.4073(8) 1.5788(4)
Cd1* Cd 0.22780(5) -0.63796(5) 1.74259(2)
Cd1A* Cd -0.22780(5) 0.63796(5) 0.25741(2)
Cd1A** Cd 0.77220(5) 0.63796(5) 1.25741(2)
S2* S -0.0637(2) -0.5867(2) 1.25937(11)
S2A* S 0.0637(2) 0.5867(2) 0.74063(11)
S4A* S -0.44539(18) -0.37906(19) 1.20722(8)
N11A N 0.6253(16) -0.0112(18) 0.5604(5)
H59A H 0.63530 0.07580 0.55260
H60A H 0.70180 -0.06520 0.54180
C39A C 0.5071(19) -0.035(2) 0.5312(6)
H61A H 0.51520 -0.13490 0.52500
H62A H 0.42080 -0.00470 0.56190
#END
