
#######################################################################
#
#                 Cambridge Crystallographic Data Centre
#                                CCDC
#
#######################################################################
#
# If this CIF has been generated from an entry in the Cambridge
# Structural Database, then it will include bibliographic, chemical,
# crystal, experimental, refinement or atomic coordinate data resulting
# from the CCDC's data processing and validation procedures.
#
#######################################################################

data_CSD_CIF_NUHWUJ
_audit_creation_date 2010-04-23
_audit_creation_method CSD-ConQuest-V1
_database_code_CSD NUHWUJ
_database_code_depnum_ccdc_archive 'CCDC 697977'
_chemical_formula_sum 'C30 H46 Cu2 N20 O30 V10'
_chemical_formula_moiety
;
(C3 H5 N2 1+)2n,n(C24 H32 Cu2 N16 O28 V10 2-),2n(H2 O1)
;
_journal_coden_Cambridge 1350
_journal_volume 11
_journal_year 2009
_journal_page_first 625
_journal_name_full 'CrystEngComm '
loop_
_publ_author_name
"J.Thomas"
"M.Agarwal"
"A.Ramanan"
"N.Chernova"
"M.S.Whittingham"
_chemical_name_systematic
;
catena-[bis(1H-Pyrazol-2-ium) 
bis(\m~6~-oxo)-tetrakis(\m~3~-oxo)-octadecakis(\m~2~-oxo)-tetra-oxo-octakis(py
razole-N^2^)-di-copper(ii)-deca-vanadium(v) dihydrate]
;
_cell_volume   1434.677
_exptl_crystal_colour 'red'
_exptl_crystal_density_diffrn 2.083
_exptl_special_details
;
magnetic study

;
_exptl_crystal_description 'rod'
_diffrn_ambient_temperature 273
#These two values have been output from a single CSD field.
_refine_ls_R_factor_gt 0.0552
_refine_ls_wR_factor_gt 0.0552
_symmetry_cell_setting triclinic
_symmetry_space_group_name_H-M 'P -1'
_symmetry_Int_Tables_number 2
loop_
_symmetry_equiv_pos_site_id
_symmetry_equiv_pos_as_xyz
1 x,y,z
2 -x,-y,-z
_cell_length_a 11.582(2)
_cell_length_b 11.659(1)
_cell_length_c 12.451(2)
_cell_angle_alpha 114.660(3)
_cell_angle_beta 107.439(2)
_cell_angle_gamma 91.639(3)
_cell_formula_units_Z 1
loop_
_atom_type_symbol
_atom_type_radius_bond
C 0.68
H 0.23
Cu 1.41
N 0.68
O 0.68
V 1.29
loop_
_atom_site_label
_atom_site_type_symbol
_atom_site_fract_x
_atom_site_fract_y
_atom_site_fract_z
Cu1 Cu 0.50000 0.50000 1.00000
O1 O 0.4813(3) 0.3448(3) 0.7825(3)
V1 V 0.54258(8) 0.23071(8) 0.70487(8)
V2 V 0.47978(8) -0.06723(8) 0.58750(8)
V3 V 0.73829(8) 0.07488(8) 0.77596(8)
V4 V 0.71625(8) -0.08703(8) 0.49635(8)
V5 V 0.76981(8) 0.21113(9) 0.62063(9)
O2 O 0.6681(3) 0.3137(3) 0.6921(3)
O3 O 0.6374(3) 0.1955(3) 0.8277(3)
O4 O 0.6094(3) 0.0590(3) 0.5876(3)
O5 O 0.4110(3) 0.0826(3) 0.6477(3)
O6 O 0.4436(3) 0.1917(3) 0.5251(3)
O7 O 0.6450(3) 0.1759(3) 0.4543(3)
O8 O 0.5775(3) -0.0539(3) 0.7226(3)
O9 O 0.8164(3) 0.0698(4) 0.9036(3)
O10 O 0.8113(3) 0.0511(4) 0.5271(3)
O11 O 0.7786(4) -0.2036(4) 0.4264(4)
O12 O 0.8735(4) 0.3110(4) 0.6308(4)
O13 O 0.7759(3) -0.0677(3) 0.6598(3)
O14 O 0.8363(3) 0.1866(3) 0.7634(3)
Cu2 Cu 1.00000 0.00000 1.00000
N1 N 0.4992(4) 0.6369(4) 0.9427(4)
N2 N 0.4416(5) 0.7375(5) 0.9723(5)
H1 H 0.40030 0.75540 1.02260
N3 N 0.3156(4) 0.4619(4) 0.9398(4)
N4 N 0.2563(5) 0.3471(5) 0.8427(5)
H2 H 0.29220 0.29140 0.79970
N5 N 0.9193(4) -0.1824(4) 0.8881(4)
N6 N 0.8346(5) -0.2309(5) 0.7729(5)
H3 H 0.80830 -0.18790 0.73160
N7 N 1.0824(4) 0.0015(4) 0.8779(4)
N8 N 1.0310(4) -0.0247(5) 0.7563(4)
H4 H 0.95310 -0.04340 0.71610
N9 N 0.2478(7) 0.5299(7) 0.6051(7)
H5 H 0.31020 0.50620 0.58320
N10 N 0.1695(7) 0.4590(7) 0.6227(7)
H6 H 0.17270 0.38150 0.61200
C1 C 0.4568(7) 0.8066(7) 0.9132(7)
H7 H 0.42640 0.88160 0.92070
C2 C 0.5236(7) 0.7490(7) 0.8411(7)
H8 H 0.54710 0.77380 0.78770
C3 C 0.5500(7) 0.6442(7) 0.8637(7)
H9 H 0.59720 0.58670 0.82790
C4 C 0.1358(6) 0.3302(7) 0.8213(7)
H10 H 0.07780 0.25860 0.75900
C5 C 0.1144(6) 0.4344(7) 0.9055(7)
H11 H 0.03870 0.45020 0.91450
C6 C 0.2274(6) 0.5159(7) 0.9779(6)
H12 H 0.23920 0.59690 1.04390
C7 C 0.7967(7) -0.3566(6) 0.7313(6)
H13 H 0.73810 -0.41090 0.65390
C8 C 0.8573(7) -0.3900(6) 0.8197(6)
H14 H 0.85020 -0.47140 0.81600
C9 C 0.9332(7) -0.2788(6) 0.9186(7)
H15 H 0.98570 -0.27260 0.99460
C10 C 1.1155(6) -0.0181(7) 0.7060(6)
H16 H 1.10040 -0.03230 0.62330
C11 C 1.2271(6) 0.0127(7) 0.7953(6)
H17 H 1.30360 0.02330 0.78740
C12 C 1.2028(5) 0.0249(6) 0.9006(6)
H18 H 1.26290 0.04690 0.97820
C13 C 0.0867(9) 0.5253(10) 0.6589(10)
H19 H 0.02270 0.49690 0.67740
C14 C 0.1118(9) 0.6436(9) 0.6644(10)
H20 H 0.06930 0.71110 0.68840
C15 C 0.2136(8) 0.6423(8) 0.6268(8)
H21 H 0.25080 0.70840 0.61850
O15 O 0.5585(6) 0.5657(5) 0.4562(6)
Cu1* Cu 0.50000 -0.50000 0.00000
O1A O 0.5187(3) -0.3448(3) 0.2175(3)
O1A* O 0.5187(3) 0.6552(3) 1.2175(3)
V1A V 0.45742(8) -0.23071(8) 0.29513(8)
V2A V 0.52022(8) 0.06723(8) 0.41250(8)
V3A V 0.26171(8) -0.07488(8) 0.22404(8)
V4A V 0.28375(8) 0.08703(8) 0.50365(8)
V5A V 0.23019(8) -0.21113(9) 0.37937(9)
O2A O 0.3319(3) -0.3137(3) 0.3079(3)
O3A O 0.3626(3) -0.1955(3) 0.1723(3)
O4A O 0.3906(3) -0.0590(3) 0.4124(3)
O5A O 0.5890(3) -0.0826(3) 0.3523(3)
O6A O 0.5564(3) -0.1917(3) 0.4749(3)
O7A O 0.3550(3) -0.1759(3) 0.5457(3)
O8A O 0.4225(3) 0.0539(3) 0.2774(3)
O9A O 0.1836(3) -0.0698(4) 0.0964(3)
O9A* O 1.1836(3) -0.0698(4) 1.0964(3)
O10A O 0.1887(3) -0.0511(4) 0.4729(3)
O11A O 0.2214(4) 0.2036(4) 0.5736(4)
O12A O 0.1265(4) -0.3110(4) 0.3692(4)
O13A O 0.2241(3) 0.0677(3) 0.3402(3)
O14A O 0.1637(3) -0.1866(3) 0.2366(3)
Cu2* Cu 0.00000 0.00000 0.00000
N1A N 0.5008(4) 0.3631(4) 1.0573(4)
N2A N 0.5584(5) 0.2625(5) 1.0277(5)
H1A H 0.59970 0.24460 0.97740
N3A N 0.6844(4) 0.5381(4) 1.0602(4)
N4A N 0.7437(5) 0.6529(5) 1.1573(5)
H2A H 0.70780 0.70860 1.20030
N5A N 1.0807(4) 0.1824(4) 1.1119(4)
N6A N 1.1654(5) 0.2309(5) 1.2271(5)
H3A H 1.19170 0.18790 1.26840
N7A N 0.9176(4) -0.0015(4) 1.1221(4)
N8A N 0.9690(4) 0.0247(5) 1.2437(4)
H4A H 1.04690 0.04340 1.28390
C1A C 0.5432(7) 0.1934(7) 1.0868(7)
H7A H 0.57360 0.11840 1.07930
C2A C 0.4764(7) 0.2510(7) 1.1589(7)
H8A H 0.45290 0.22620 1.21230
C3A C 0.4500(7) 0.3558(7) 1.1363(7)
H9A H 0.40280 0.41330 1.17210
C4A C 0.8642(6) 0.6698(7) 1.1787(7)
H10A H 0.92220 0.74140 1.24100
C5A C 0.8856(6) 0.5656(7) 1.0945(7)
H11A H 0.96130 0.54980 1.08550
C6A C 0.7726(6) 0.4841(7) 1.0221(6)
H12A H 0.76080 0.40310 0.95610
C7A C 1.2033(7) 0.3566(6) 1.2687(6)
H13A H 1.26190 0.41090 1.34610
C8A C 1.1427(7) 0.3900(6) 1.1803(6)
H14A H 1.14980 0.47140 1.18400
C9A C 1.0668(7) 0.2788(6) 1.0814(7)
H15A H 1.01430 0.27260 1.00540
C10A C 0.8845(6) 0.0181(7) 1.2940(6)
H16A H 0.89960 0.03230 1.37670
C11A C 0.7729(6) -0.0127(7) 1.2047(6)
H17A H 0.69640 -0.02330 1.21260
C12A C 0.7972(5) -0.0249(6) 1.0994(6)
H18A H 0.73710 -0.04690 1.02180
#END
