
#######################################################################
#
#                 Cambridge Crystallographic Data Centre
#                                CCDC
#
#######################################################################
#
# If this CIF has been generated from an entry in the Cambridge
# Structural Database, then it will include bibliographic, chemical,
# crystal, experimental, refinement or atomic coordinate data resulting
# from the CCDC's data processing and validation procedures.
#
#######################################################################

data_CSD_CIF_NUHWOD
_audit_creation_date 2010-04-23
_audit_creation_method CSD-ConQuest-V1
_database_code_CSD NUHWOD
_database_code_depnum_ccdc_archive 'CCDC 640902'
_chemical_formula_sum 'C30 H40 Cu3 N20 O28 V10'
_chemical_formula_moiety
;
(C12 H16 Cu1 N8 2+)n,n(C18 H24 Cu2 N12 O28 V10 2-)
;
_journal_coden_Cambridge 1350
_journal_volume 11
_journal_year 2009
_journal_page_first 625
_journal_name_full 'CrystEngComm '
loop_
_publ_author_name
"J.Thomas"
"M.Agarwal"
"A.Ramanan"
"N.Chernova"
"M.S.Whittingham"
_chemical_name_systematic
;
catena-[tetrakis(Pyrazole-N^2^)-copper(ii) 
bis(\m~6~-oxo)-hexakis(\m~3~-oxo)-tetradecakis(\m~2~-oxo)-hexa-oxo-hexakis(pyr
azole-N^2^)-di-copper(ii)-deca-vanadium(v)]
;
_cell_volume   1422.565
_exptl_crystal_colour 'green'
_exptl_crystal_density_diffrn 2.135
_exptl_special_details
;
magnetic study

;
_exptl_crystal_description 'block'
_diffrn_ambient_temperature 273
#These two values have been output from a single CSD field.
_refine_ls_R_factor_gt 0.0501
_refine_ls_wR_factor_gt 0.0501
_symmetry_cell_setting triclinic
_symmetry_space_group_name_H-M 'P -1'
_symmetry_Int_Tables_number 2
loop_
_symmetry_equiv_pos_site_id
_symmetry_equiv_pos_as_xyz
1 x,y,z
2 -x,-y,-z
_cell_length_a 11.6713(16)
_cell_length_b 11.9766(16)
_cell_length_c 12.9000(17)
_cell_angle_alpha 100.226(2)
_cell_angle_beta 105.549(3)
_cell_angle_gamma 118.571(2)
_cell_formula_units_Z 1
loop_
_atom_type_symbol
_atom_type_radius_bond
C 0.68
H 0.23
Cu 1.32
N 0.68
O 0.68
V 1.31
loop_
_atom_site_label
_atom_site_type_symbol
_atom_site_fract_x
_atom_site_fract_y
_atom_site_fract_z
V1 V 1.01837(6) 1.03491(6) 0.30009(5)
V2 V 1.00198(6) 0.86374(5) 0.46487(5)
V3 V 1.27677(6) 1.29140(6) 0.50517(5)
V4 V 1.26522(6) 1.13577(6) 0.67674(5)
V5 V 1.27942(6) 1.03332(6) 0.43972(5)
O1 O 1.1498(2) 0.9901(2) 0.2973(2)
O2 O 0.9359(3) 1.0005(3) 0.1664(2)
O3 O 1.1481(2) 1.2164(2) 0.3543(2)
O4 O 1.1239(2) 1.0694(2) 0.48990(18)
O5 O 0.8968(2) 0.8548(2) 0.31445(18)
O6 O 0.8960(2) 1.0615(2) 0.36820(19)
O7 O 1.1242(2) 0.8483(2) 0.4321(2)
O8 O 0.8780(2) 0.7077(2) 0.4549(2)
O9 O 1.3764(3) 1.4483(3) 0.5245(2)
O10 O 1.3459(2) 1.2971(2) 0.6603(2)
O11 O 1.3548(3) 1.1709(3) 0.8098(2)
O12 O 1.3823(3) 0.9942(3) 0.4058(2)
O13 O 1.3509(2) 1.0698(2) 0.60386(19)
O14 O 1.3725(2) 1.2153(2) 0.4679(2)
Cu1 Cu 1.49161(4) 0.93687(4) 0.30133(4)
Cu2 Cu 0.50000 0.50000 0.00000
N1 N 1.3535(3) 0.7407(3) 0.2713(3)
N2 N 1.3673(4) 0.6794(4) 0.3465(3)
H1 H 1.43730 0.71980 0.41320
N3 N 1.3591(3) 0.9244(3) 0.1558(3)
N4 N 1.2359(4) 0.9160(4) 0.1345(3)
H2 H 1.19900 0.91600 0.18400
N5 N 1.6255(3) 1.1331(3) 0.3332(3)
N6 N 1.7627(3) 1.1934(3) 0.3477(3)
H3 H 1.80430 1.15100 0.34220
N7 N 0.3973(4) 0.3967(3) 0.0828(3)
N8 N 0.4474(4) 0.4362(3) 0.1986(3)
H4 H 0.52470 0.51280 0.24530
N9 N 0.6701(4) 0.5042(4) 0.0901(3)
N10 N 0.7998(4) 0.6053(4) 0.1697(3)
H5 H 0.82360 0.68700 0.20140
C1 C 1.2603(5) 0.5486(5) 0.3062(5)
H6 H 1.24780 0.48780 0.34470
C2 C 1.1739(5) 0.5212(5) 0.1993(5)
H7 H 1.09070 0.43790 0.14890
C3 C 1.2335(5) 0.6417(5) 0.1796(4)
H8 H 1.19570 0.65280 0.11190
C4 C 1.3760(5) 0.9198(5) 0.0578(4)
H9 H 1.45280 0.92280 0.04650
C5 C 1.2657(6) 0.9100(5) -0.0249(4)
H10 H 1.25380 0.90600 -0.10000
C6 C 1.1776(5) 0.9075(5) 0.0268(4)
H11 H 1.09250 0.90120 -0.00670
C7 C 1.6036(5) 1.2337(5) 0.3468(5)
H12 H 1.51730 1.22250 0.34100
C8 C 1.7254(6) 1.3548(5) 0.3702(5)
H13 H 1.73770 1.43950 0.38280
C9 C 1.8258(5) 1.3261(5) 0.3715(5)
H14 H 1.92070 1.38830 0.38630
C10 C 0.3626(4) 0.3419(4) 0.2314(4)
H15 H 0.37510 0.34790 0.30690
C11 C 0.2540(5) 0.2350(5) 0.1340(4)
H16 H 0.17910 0.15290 0.12940
C12 C 0.2779(5) 0.2732(5) 0.0438(4)
H17 H 0.21890 0.22020 -0.03380
C13 C 0.8870(6) 0.5638(5) 0.1934(5)
H18 H 0.98220 0.61690 0.24570
C14 C 0.8125(7) 0.4300(6) 0.1279(5)
H19 H 0.84550 0.37300 0.12610
C15 C 0.6777(6) 0.3963(5) 0.0643(5)
H20 H 0.60270 0.31030 0.01080
V1A V 0.98163(6) 0.96509(6) 0.69991(5)
V2A V 0.99802(6) 1.13626(5) 0.53513(5)
V3A V 0.72323(6) 0.70860(6) 0.49483(5)
V4A V 0.73478(6) 0.86423(6) 0.32326(5)
V5A V 0.72058(6) 0.96668(6) 0.56028(5)
O1A O 0.8502(2) 1.0099(2) 0.7027(2)
O2A O 1.0641(3) 0.9995(3) 0.8336(2)
O3A O 0.8519(2) 0.7836(2) 0.6457(2)
O4A O 0.8761(2) 0.9306(2) 0.51010(18)
O5A O 1.1032(2) 1.1452(2) 0.68555(18)
O6A O 1.1040(2) 0.9385(2) 0.63180(19)
O7A O 0.8758(2) 1.1517(2) 0.5679(2)
O8A O 1.1220(2) 1.2923(2) 0.5451(2)
O9A O 0.6236(3) 0.5517(3) 0.4755(2)
O10A O 0.6541(2) 0.7029(2) 0.3397(2)
O11A O 0.6452(3) 0.8291(3) 0.1902(2)
O12A O 0.6177(3) 1.0058(3) 0.5942(2)
O12A* O 1.6177(3) 1.0058(3) 0.5942(2)
O13A O 0.6491(2) 0.9302(2) 0.39614(19)
O13A* O 1.6491(2) 0.9302(2) 0.39614(19)
O14A O 0.6275(2) 0.7847(2) 0.5321(2)
Cu1A Cu 1.50839(4) 1.06313(4) 0.69867(4)
Cu1* Cu 0.49161(4) 0.93687(4) 0.30133(4)
Cu1A* Cu 0.50839(4) 1.06313(4) 0.69867(4)
N1A N 1.6465(3) 1.2593(3) 0.7287(3)
N2A N 1.6327(4) 1.3206(4) 0.6535(3)
H1A H 1.56270 1.28020 0.58680
N3A N 1.6409(3) 1.0756(3) 0.8442(3)
N4A N 1.7641(4) 1.0840(4) 0.8655(3)
H2A H 1.80100 1.08400 0.81600
N5A N 1.3745(3) 0.8669(3) 0.6668(3)
N6A N 1.2373(3) 0.8066(3) 0.6523(3)
H3A H 1.19570 0.84900 0.65780
N7A N 0.6027(4) 0.6033(3) -0.0828(3)
N8A N 0.5526(4) 0.5638(3) -0.1986(3)
H4A H 0.47530 0.48720 -0.24530
N9A N 0.3299(4) 0.4958(4) -0.0901(3)
N10A N 0.2002(4) 0.3947(4) -0.1697(3)
H5A H 0.17640 0.31300 -0.20140
C1A C 1.7397(5) 1.4514(5) 0.6938(5)
H6A H 1.75220 1.51220 0.65530
C2A C 1.8261(5) 1.4788(5) 0.8007(5)
H7A H 1.90930 1.56210 0.85110
C3A C 1.7665(5) 1.3583(5) 0.8204(4)
H8A H 1.80430 1.34720 0.88810
C4A C 1.6240(5) 1.0802(5) 0.9422(4)
H9A H 1.54720 1.07720 0.95350
C5A C 1.7343(6) 1.0900(5) 1.0249(4)
H10A H 1.74620 1.09400 1.10000
C6A C 1.8224(5) 1.0925(5) 0.9732(4)
H11A H 1.90750 1.09880 1.00670
C7A C 1.3964(5) 0.7663(5) 0.6532(5)
H12A H 1.48270 0.77750 0.65900
C8A C 1.2746(6) 0.6452(5) 0.6298(5)
H13A H 1.26230 0.56050 0.61720
C9A C 1.1742(5) 0.6739(5) 0.6285(5)
H14A H 1.07930 0.61170 0.61370
C10A C 0.6374(4) 0.6581(4) -0.2314(4)
H15A H 0.62490 0.65210 -0.30690
C11A C 0.7460(5) 0.7650(5) -0.1340(4)
H16A H 0.82090 0.84710 -0.12940
C12A C 0.7221(5) 0.7268(5) -0.0438(4)
H17A H 0.78110 0.77980 0.03380
C13A C 0.1130(6) 0.4362(5) -0.1934(5)
H18A H 0.01780 0.38310 -0.24570
C14A C 0.1875(7) 0.5700(6) -0.1279(5)
H19A H 0.15450 0.62700 -0.12610
C15A C 0.3223(6) 0.6037(5) -0.0643(5)
H20A H 0.39730 0.68970 -0.01080
#END
