
#######################################################################
#
#                 Cambridge Crystallographic Data Centre
#                                CCDC
#
#######################################################################
#
# If this CIF has been generated from an entry in the Cambridge
# Structural Database, then it will include bibliographic, chemical,
# crystal, experimental, refinement or atomic coordinate data resulting
# from the CCDC's data processing and validation procedures.
#
#######################################################################

data_CSD_CIF_NUHXEU
_audit_creation_date 2010-04-23
_audit_creation_method CSD-ConQuest-V1
_database_code_CSD NUHXEU
_database_code_depnum_ccdc_archive 'CCDC 686608'
_chemical_formula_sum 'C84 H84.8 N10 Na1 O38.9 S8'
_chemical_formula_moiety
;
(H3 O1 1+)7n,n(C24 H12 Na1 O26 S8 7-),5n(C12 H8 N2),5.9n(H2 O1)
;
_journal_coden_Cambridge 1350
_journal_volume 11
_journal_year 2009
_journal_page_first 597
_journal_name_full 'CrystEngComm '
loop_
_publ_author_name
"Y.F.Bi"
"W.P.Liao"
"X.F.Wang"
"Y.L.Li"
"Z.M.Su"
"Y.B.Liu"
"H.J.Zhang"
"D.Q.Li"
_chemical_name_systematic
;
catena-[heptakis(Oxonium) 
(\m~3~-2,2,8,8,14,14,20,20-octaoxo-2,8,14,20-tetrathia-25,26,27,28-tetra-oxido
calix(4)arene-5,11,17,23-tetrasulfonato)-diaqua-sodium(i) 1,10-phenathroline 
solvate hydrate]
;
_cell_volume   4849.072
_exptl_crystal_colour 'colorless'
_exptl_crystal_density_diffrn 1.459
_exptl_special_details
;
The calixarene adopts the partial cone conformation
The formula given in the paper includes seven protons, required for charge 
balance. These do not appear to have been located from the cif data, and the 
paper does not give details to their location. The charge balancing has been 
achieved by arbitrarily assigning seven oxonium cations. The paper also 
suggests the sodium cation is coordinated by three water molecules, only two 
water appear to be within bonding range from the cif data
;
_exptl_crystal_description 'plate'
_diffrn_ambient_temperature 150
_refine_special_details
;
Two of the five independent 1,10-phenanthroline molecules are disordered by 
symmetry. Several solvent water molecule positions are disordered.
;
#These two values have been output from a single CSD field.
_refine_ls_R_factor_gt 0.1092
_refine_ls_wR_factor_gt 0.1092
_symmetry_cell_setting triclinic
_symmetry_space_group_name_H-M 'P -1'
_symmetry_Int_Tables_number 2
loop_
_symmetry_equiv_pos_site_id
_symmetry_equiv_pos_as_xyz
1 x,y,z
2 -x,-y,-z
_cell_length_a 14.5485(16)
_cell_length_b 17.3505(19)
_cell_length_c 21.267(2)
_cell_angle_alpha 79.390(2)
_cell_angle_beta 72.937(2)
_cell_angle_gamma 71.767(2)
_cell_formula_units_Z 2
loop_
_atom_type_symbol
_atom_type_radius_bond
C 0.68
H 0.23
N 0.68
Na 1.75
O 0.68
S 1.02
loop_
_atom_site_label
_atom_site_type_symbol
_atom_site_fract_x
_atom_site_fract_y
_atom_site_fract_z
Na1 Na -0.24289(19) 0.59701(17) -0.11564(12)
S1 S -0.68766(12) 0.7019(1) -0.16981(8)
S2 S -0.53146(13) 0.54779(11) -0.40075(8)
S3 S -0.63916(17) 0.27598(12) -0.26304(10)
S4 S -0.83280(12) 0.44071(10) -0.04245(7)
S5 S -0.28670(12) 0.60167(11) -0.27636(8)
S6 S -0.29072(18) 0.24411(15) -0.45310(12)
S7 S -0.49426(17) 0.19202(13) -0.04395(15)
S8 S -1.05573(14) 0.69418(12) -0.16797(9)
O1 O -0.6972(4) 0.6220(5) -0.2799(3)
O2 O -0.6556(3) 0.4559(3) -0.2947(2)
O3 O -0.7816(4) 0.4233(3) -0.1859(2)
O4 O -0.6814(3) 0.5408(3) -0.0824(2)
O5 O -0.2856(4) 0.5927(3) -0.2079(2)
O6 O -0.2217(3) 0.5315(3) -0.3111(2)
O7 O -0.2718(4) 0.6795(3) -0.3115(2)
O8 O -0.2274(4) 0.2946(4) -0.4877(3)
O9 O -0.3204(5) 0.2083(4) -0.4978(4)
O10 O -0.2562(6) 0.1813(6) -0.4046(4)
O11 O -0.4262(5) 0.1336(4) -0.0877(4)
O12 O -0.5586(5) 0.1577(4) 0.0133(3)
O13 O -0.4477(7) 0.2394(5) -0.0225(6)
O14 O -1.1225(4) 0.7467(3) -0.1182(3)
O15 O -1.0939(3) 0.6280(3) -0.1713(2)
O16 O -1.0275(4) 0.7383(4) -0.2323(3)
O17 O -0.6481(3) 0.7081(3) -0.1168(2)
O18 O -0.7274(3) 0.7774(3) -0.2060(2)
O19 O -0.4510(4) 0.5639(3) -0.4544(2)
O20 O -0.6330(3) 0.5853(3) -0.4067(2)
O21 O -0.5952(5) 0.1899(3) -0.2627(3)
O22 O -0.7371(4) 0.3101(4) -0.2739(3)
O23 O -0.8145(3) 0.4404(3) 0.0207(2)
O24 O -0.9166(3) 0.4143(3) -0.0423(2)
O25 O -0.3642(4) 0.5363(3) -0.0437(2)
O26 O -0.3267(6) 0.7412(4) -0.1121(4)
C1 C -0.5862(5) 0.6440(4) -0.2283(3)
C2 C -0.4912(5) 0.6393(4) -0.2259(3)
H1 H -0.48110 0.65990 -0.19080
C3 C -0.4093(5) 0.6039(4) -0.2760(3)
C4 C -0.4242(5) 0.5745(4) -0.3265(3)
H2 H -0.36830 0.54960 -0.35980
C5 C -0.5204(5) 0.5807(4) -0.3298(3)
C6 C -0.6040(5) 0.6155(4) -0.2803(3)
C7 C -0.5082(5) 0.4406(4) -0.3836(3)
C8 C -0.4212(5) 0.3911(5) -0.4208(3)
H3 H -0.37640 0.41460 -0.45510
C9 C -0.4011(6) 0.3073(5) -0.4072(4)
C10 C -0.4684(6) 0.2726(4) -0.3588(3)
H4 H -0.45540 0.21490 -0.35090
C11 C -0.5555(5) 0.3229(4) -0.3217(3)
C12 C -0.5785(5) 0.4098(4) -0.3314(3)
C13 C -0.6418(6) 0.3027(4) -0.1852(3)
C14 C -0.5731(6) 0.2491(5) -0.1526(4)
H5 H -0.52310 0.20510 -0.17380
C15 C -0.5788(5) 0.2606(4) -0.0893(4)
C16 C -0.6550(5) 0.3221(4) -0.0564(4)
H6 H -0.65920 0.32860 -0.01220
C17 C -0.7248(5) 0.3738(4) -0.0889(3)
C18 C -0.7169(5) 0.3677(4) -0.1555(3)
C19 C -0.8433(5) 0.5382(4) -0.0855(3)
C20 C -0.9302(5) 0.5734(4) -0.1057(3)
H7 H -0.98090 0.54590 -0.09420
C21 C -0.9440(5) 0.6486(4) -0.1429(3)
C22 C -0.8670(5) 0.6865(4) -0.1616(3)
H8 H -0.87400 0.73710 -0.18850
C23 C -0.7803(5) 0.6496(4) -0.1405(3)
C24 C -0.7617(5) 0.5750(4) -0.1008(3)
N1 N -0.1651(4) 0.4283(4) -0.1367(3)
N2 N -0.3578(4) 0.4432(3) -0.1382(3)
C25 C -0.0704(6) 0.4161(5) -0.1357(4)
H9 H -0.05860 0.43880 -0.10240
C26 C 0.0120(6) 0.3727(5) -0.1798(5)
H10 H 0.07770 0.36590 -0.17610
C27 C -0.0026(6) 0.3395(5) -0.2291(4)
H11 H 0.05290 0.31070 -0.26050
C28 C -0.1252(6) 0.3170(5) -0.2803(4)
H12 H -0.07220 0.28820 -0.31310
C29 C -0.2200(7) 0.3259(5) -0.2815(4)
H13 H -0.23300 0.30350 -0.31440
C30 C -0.4026(6) 0.3808(5) -0.2300(4)
H14 H -0.41890 0.35800 -0.26120
C31 C -0.4769(6) 0.4234(5) -0.1841(4)
H15 H -0.54490 0.43220 -0.18360
C32 C -0.4513(5) 0.4544(4) -0.1371(3)
H16 H -0.50270 0.48400 -0.10400
C33 C -0.2792(5) 0.4015(4) -0.1852(3)
C34 C -0.3009(6) 0.3691(4) -0.2328(3)
C35 C -0.1009(5) 0.3488(4) -0.2321(4)
C36 C -0.1793(5) 0.3939(4) -0.1839(3)
N3 N -0.1534(6) 0.8715(5) 0.1328(4)
N4 N 0.0168(7) 0.8631(4) 0.1657(4)
C37 C -0.2367(9) 0.8771(6) 0.1169(6)
H17 H -0.29840 0.90660 0.14310
C38 C -0.2382(8) 0.8417(6) 0.0634(6)
H18 H -0.29860 0.84870 0.05170
C39 C -0.1443(8) 0.7944(6) 0.0272(5)
H19 H -0.14190 0.76770 -0.00870
C40 C 0.0371(8) 0.7446(5) 0.0084(4)
H20 H 0.04150 0.71650 -0.02720
C41 C 0.1206(7) 0.7421(5) 0.0230(4)
H21 H 0.18320 0.71290 -0.00250
C42 C 0.2044(7) 0.7815(5) 0.0939(5)
H22 H 0.26870 0.75380 0.06930
C43 C 0.1949(9) 0.8204(6) 0.1461(5)
H23 H 0.25240 0.82020 0.15880
C44 C 0.0999(10) 0.8606(6) 0.1808(5)
H24 H 0.09430 0.88770 0.21730
C45 C 0.0262(6) 0.8247(5) 0.1142(3)
C46 C 0.1182(7) 0.7827(5) 0.0768(4)
C47 C -0.0583(7) 0.7875(5) 0.0441(4)
C48 C -0.0634(6) 0.8286(5) 0.0983(4)
N5 N -0.0200(4) 0.5020(4) 0.6539(3)
N6 N -0.0521(5) 0.4153(4) 0.5731(3)
C49 C -0.0085(6) 0.5441(5) 0.6962(4)
H25 H -0.06400 0.56590 0.73100
C50 C 0.0828(7) 0.5562(7) 0.6901(5)
H26 H 0.09010 0.58650 0.72040
C51 C 0.1611(7) 0.5255(7) 0.6416(5)
H27 H 0.22430 0.53320 0.63820
C52 C 0.2313(7) 0.4491(6) 0.5416(5)
H28 H 0.29560 0.45580 0.53600
C53 C 0.2165(6) 0.4092(6) 0.4988(5)
H29 H 0.27040 0.38940 0.46250
C54 C 0.1006(8) 0.3509(5) 0.4648(4)
H30 H 0.15180 0.32870 0.42810
C55 C 0.0098(8) 0.3405(5) 0.4775(4)
H31 H -0.00430 0.31130 0.44950
C56 C -0.0660(7) 0.3729(5) 0.5329(4)
H32 H -0.12980 0.36370 0.54140
C57 C 0.0401(5) 0.4258(4) 0.5600(3)
C58 C 0.1201(6) 0.3954(5) 0.5065(4)
C59 C 0.1515(6) 0.4813(6) 0.5950(4)
C60 C 0.0574(5) 0.4698(4) 0.6031(4)
N7? N -0.0988(7) 1.0625(5) 0.0621(4)
N8? N -0.1067(7) 1.0005(5) -0.0276(4)
C61? C -0.2002(8) 1.0935(5) 0.0797(5)
C62? C -0.2576(8) 1.0799(6) 0.0425(5)
C63? C -0.2097(10) 1.0345(6) -0.0100(5)
C64? C -0.0521(7) 1.0158(4) 0.0086(4)
C65? C -0.068(2) 0.9570(13) -0.0863(10)
C66? C 0.0376(19) 0.9262(11) -0.1027(9)
C67? C 0.0988(7) 0.9375(5) -0.0621(4)
C68? C 0.1067(7) 0.9995(5) 0.0276(4)
N9? N 0.4280(9) 0.0146(5) 0.5862(6)
N10? N 0.4082(8) -0.0320(5) 0.4732(6)
C69? C 0.5601(12) -0.0364(7) 0.3568(7)
C70? C 0.4728(12) -0.0553(7) 0.3596(7)
C71? C 0.3949(11) -0.0529(6) 0.4171(7)
C72? C 0.4925(10) -0.0108(5) 0.4707(5)
C73? C 0.3294(17) -0.0306(12) 0.5429(11)
C74? C 0.3347(15) -0.0080(11) 0.5944(9)
C75? C 0.5720(9) -0.0146(5) 0.4138(6)
C76? C 0.5918(8) 0.0320(5) 0.5268(6)
N11 N 0.3731(10) 0.1590(8) 0.3872(7)
N12 N 0.2049(10) 0.1482(8) 0.4909(6)
C77 C 0.4514(13) 0.1613(10) 0.3339(8)
C78 C 0.5303(12) 0.1929(10) 0.3428(8)
C79 C 0.5147(13) 0.2134(10) 0.4015(9)
C80 C 0.4152(12) 0.2389(10) 0.5250(8)
C81 C 0.3430(13) 0.2302(10) 0.5689(8)
C82 C 0.1838(13) 0.1856(10) 0.6087(8)
C83 C 0.1149(13) 0.1625(10) 0.5939(7)
C84 C 0.1269(13) 0.1376(10) 0.5309(7)
C85 C 0.2848(13) 0.1752(10) 0.4946(8)
C86 C 0.2712(13) 0.2039(10) 0.5599(8)
C87 C 0.3584(13) 0.1826(10) 0.4467(9)
C88 C 0.4459(13) 0.2158(10) 0.4531(8)
O27 O 0.5627(4) 0.3793(3) 0.0119(3)
O28 O 0.1009(10) 0.2510(8) 0.3379(6)
O29 O 0.3686(10) 0.0245(8) 0.0954(7)
O30 O 0.5174(10) 0.1844(8) 0.1623(6)
O31 O 0.3657(11) 0.1929(9) 0.2183(7)
O32? O 0.5834(15) 0.0176(13) 0.2010(9)
O33 O 0.5503(14) 0.0696(13) 0.1863(9)
O34 O 0.7586(12) 0.2431(9) 0.3633(7)
O35? O 0.2992(18) 0.0528(14) 0.2699(12)
O36 O 0.2789(13) 0.0887(11) 0.3234(9)
O37 O 0.1581(12) 0.0866(10) 0.1594(8)
O38 O 0.4002(12) -0.0168(9) 0.2226(8)
O39 O 0.3237(13) 0.8485(10) 0.2587(8)
O40 O 0.189(2) 0.8652(18) 0.3043(15)
O41 O 0.2303(11) 0.0455(9) 0.7684(7)
O42? O 0.1215(12) 0.0577(9) 0.7446(8)
O43 O 0.2950(13) -0.0609(11) 0.7669(9)
O44 O 0.2237(12) 0.2233(9) 0.2547(8)
O45 O 0.5241(12) 0.0068(10) 0.0757(8)
O46 O 0.2558(16) -0.0576(12) 0.5576(10)
O47 O -0.0367(11) 1.1032(9) 0.1446(7)
O48? O 0.1677(18) 0.0901(15) 0.3920(12)
O49? O 0.8338(17) 0.2862(13) 0.3709(11)
Na1* Na -1.24289(19) 0.59701(17) -0.11564(12)
Na1A Na -0.75711(19) 0.40299(17) 0.11564(12)
O15* O -0.0939(3) 0.6280(3) -0.1713(2)
O23A O -0.1855(3) 0.5596(3) -0.0207(2)
#END
