
#######################################################################
#
#                 Cambridge Crystallographic Data Centre
#                                CCDC
#
#######################################################################
#
# If this CIF has been generated from an entry in the Cambridge
# Structural Database, then it will include bibliographic, chemical,
# crystal, experimental, refinement or atomic coordinate data resulting
# from the CCDC's data processing and validation procedures.
#
#######################################################################

data_CSD_CIF_NUKCEC
_audit_creation_date 2010-05-14
_audit_creation_method CSD-ConQuest-V1
_database_code_CSD NUKCEC
_database_code_depnum_ccdc_archive 'CCDC 698484'
_chemical_formula_sum 'C66 H52 Cl2 O8 P2 Zn2'
_chemical_formula_moiety
;
(C25 H22 P1 1+)2n,n(C16 H8 Cl2 O8 Zn2 2-)
;
_journal_coden_Cambridge 155
_journal_volume 362
_journal_year 2009
_journal_page_first 3901
_journal_name_full 'Inorg.Chim.Acta '
loop_
_publ_author_name
"Yun-Xia Lian"
"Guo-Dong Yang"
"Zhi-Yong Fu"
"Xiao-Li Wang"
"Li Liu"
"Jing-Cao Dai"
_chemical_name_systematic
;
catena-(bis(benzyltriphenylphosphonium) 
(\m~4~-terephthalato)-(\m~2~-terephthalato)-dichloro-di-zinc)
;
_cell_volume   1413.381
_exptl_crystal_colour 'primrose'
_exptl_crystal_density_diffrn 1.453
_exptl_crystal_description 'block-like'
_diffrn_ambient_temperature 173
#These two values have been output from a single CSD field.
_refine_ls_R_factor_gt 0.0321
_refine_ls_wR_factor_gt 0.0321
_symmetry_cell_setting triclinic
_symmetry_space_group_name_H-M 'P -1'
_symmetry_Int_Tables_number 2
loop_
_symmetry_equiv_pos_site_id
_symmetry_equiv_pos_as_xyz
1 x,y,z
2 -x,-y,-z
_cell_length_a 9.4989(10)
_cell_length_b 12.6502(14)
_cell_length_c 12.8862(14)
_cell_angle_alpha 84.965(2)
_cell_angle_beta 68.730(1)
_cell_angle_gamma 78.415(1)
_cell_formula_units_Z 1
loop_
_atom_type_symbol
_atom_type_radius_bond
C 0.68
H 0.23
Cl 0.99
O 0.68
P 1.05
Zn 1.22
loop_
_atom_site_label
_atom_site_type_symbol
_atom_site_fract_x
_atom_site_fract_y
_atom_site_fract_z
Zn1 Zn 0.62798(2) 0.367715(16) 0.404443(16)
Cl1 Cl 0.73060(6) 0.19466(4) 0.42844(4)
P1 P 0.12198(5) 0.90731(4) 0.24197(4)
O1 O 0.40877(14) 0.38827(11) 0.42526(11)
O2 O 0.37852(14) 0.56218(10) 0.4594(1)
O3 O 0.67962(17) 0.37063(12) 0.17770(12)
O4 O 0.76718(16) 0.44454(12) 0.28686(11)
C1 C 0.0948(2) 0.39901(16) 0.47860(17)
H1 H 0.15940 0.33010 0.46390
C2 C 0.1571(2) 0.49007(15) 0.47825(15)
C3 C 0.0618(2) 0.59094(16) 0.49958(17)
H2 H 0.10390 0.65310 0.49920
C4 C 0.3262(2) 0.48004(15) 0.45380(14)
C5 C 1.0076(2) 0.50287(15) 0.10550(15)
H3 H 1.01350 0.50440 0.17740
C6 C 0.8892(2) 0.46267(14) 0.09228(15)
C7 C 0.8827(2) 0.45927(15) -0.01315(16)
H4 H 0.80270 0.43080 -0.02230
C8 C 0.7685(2) 0.42182(15) 0.19198(15)
C9 C -0.0534(2) 0.85520(15) 0.29454(15)
C10 C -0.0633(2) 0.76178(19) 0.24963(19)
H5 H 0.02320 0.72560 0.19190
C11 C -0.1988(2) 0.72157(19) 0.2890(2)
H6 H -0.20560 0.65850 0.25750
C12 C -0.3237(2) 0.77279(17) 0.37358(17)
H7 H -0.41690 0.74550 0.39950
C13 C -0.3142(2) 0.86336(19) 0.42081(18)
H8 H -0.40000 0.89710 0.48060
C14 C -0.1804(2) 0.90541(17) 0.38172(18)
H9 H -0.17480 0.96840 0.41410
C15 C 0.2776(2) 0.79828(15) 0.18373(15)
C16 C 0.3220(2) 0.77388(16) 0.07146(16)
H10 H 0.27700 0.81940 0.02480
C17 C 0.4311(2) 0.68364(17) 0.02824(17)
H11 H 0.46120 0.66670 -0.04800
C18 C 0.4964(2) 0.61811(18) 0.09665(18)
H12 H 0.57140 0.55590 0.06700
C19 C 0.4540(2) 0.64198(18) 0.20787(18)
H13 H 0.50100 0.59690 0.25360
C20 C 0.3431(2) 0.73151(17) 0.25262(16)
H14 H 0.31200 0.74730 0.32930
C21 C 0.1212(2) 1.01181(15) 0.13870(15)
C22 C 0.2611(2) 1.03704(18) 0.06566(18)
H15 H 0.35530 0.99140 0.06200
C23 C 0.2609(3) 1.12883(19) -0.0010(2)
H16 H 0.35520 1.14560 -0.05190
C24 C 0.1243(3) 1.19614(19) 0.0061(2)
H17 H 0.12530 1.26010 -0.03850
C25 C -0.0135(3) 1.17148(18) 0.0774(2)
H18 H -0.10710 1.21770 0.08080
C26 C -0.0158(2) 1.07901(17) 0.14452(18)
H19 H -0.11080 1.06210 0.19400
C27 C 0.1427(2) 0.96889(17) 0.35630(16)
H20 H 0.04350 1.01440 0.39850
H21 H 0.16780 0.91140 0.40740
C28 C 0.2661(2) 1.03721(17) 0.31763(16)
C29 C 0.4183(3) 0.9903(2) 0.2951(2)
H22 H 0.44600 0.91470 0.30530
C30 C 0.5310(3) 1.0542(3) 0.2574(2)
H23 H 0.63560 1.02150 0.24160
C31 C 0.4942(4) 1.1625(2) 0.2427(2)
H24 H 0.57240 1.20520 0.21690
C32 C 0.3424(4) 1.2101(2) 0.2657(2)
H25 H 0.31590 1.28590 0.25620
C33 C 0.2275(3) 1.14742(19) 0.3027(2)
H26 H 0.12320 1.18040 0.31760
Zn1A Zn -0.62798(2) 0.632285(16) 0.595557(16)
Zn1A* Zn 0.37202(2) 0.632285(16) 0.595557(16)
Zn1* Zn -0.37202(2) 0.367715(16) 0.404443(16)
Zn1A** Zn 1.37202(2) 0.632285(16) -0.404443(16)
Cl1A Cl -0.73060(6) 0.80534(4) 0.57156(4)
O1A O -0.40877(14) 0.61173(11) 0.57474(11)
O2A O -0.37852(14) 0.43782(10) 0.5406(1)
O2A* O 0.62148(14) 0.43782(10) 0.5406(1)
O2* O -0.62148(14) 0.56218(10) 0.4594(1)
O3A O 1.32038(17) 0.62937(12) -0.17770(12)
O4A O 1.23282(16) 0.55546(12) -0.28686(11)
O4A* O -0.76718(16) 0.55546(12) 0.71314(11)
C1A C -0.0948(2) 0.60099(16) 0.52140(17)
H1A H -0.15940 0.66990 0.53610
C2A C -0.1571(2) 0.50993(15) 0.52175(15)
C3A C -0.0618(2) 0.40906(16) 0.50042(17)
H2A H -0.10390 0.34690 0.50080
C4A C -0.3262(2) 0.51996(15) 0.54620(14)
C5A C 0.9924(2) 0.49713(15) -0.10550(15)
H3A H 0.98650 0.49560 -0.17740
C6A C 1.1108(2) 0.53733(14) -0.09228(15)
C7A C 1.1173(2) 0.54073(15) 0.01315(16)
H4A H 1.19730 0.56920 0.02230
C8A C 1.2315(2) 0.57818(15) -0.19198(15)
#END
