
#######################################################################
#
#                 Cambridge Crystallographic Data Centre
#                                CCDC
#
#######################################################################
#
# If this CIF has been generated from an entry in the Cambridge
# Structural Database, then it will include bibliographic, chemical,
# crystal, experimental, refinement or atomic coordinate data resulting
# from the CCDC's data processing and validation procedures.
#
#######################################################################

data_CSD_CIF_NULMOX
_audit_creation_date 2010-05-14
_audit_creation_method CSD-ConQuest-V1
_database_code_CSD NULMOX
_database_code_depnum_ccdc_archive 'CCDC 680491'
_chemical_formula_sum 'C192 H360 Cu12 Mo6 N96 O12'
_chemical_formula_moiety
;
(C12 H32 Cu1 N4 O2 2+)3n,n(C156 H252 Cu9 Mo6 N84 6-),6n(H2 O1)
;
_journal_coden_Cambridge 1220
_journal_volume 15
_journal_year 2009
_journal_page_first 7648
_journal_name_full 'Chem.-Eur.J. '
loop_
_publ_author_name
"Ying Wang"
"Tian-Wei Wang"
"Hong-Ping Xiao"
"Yi-Zhi Li"
"You Song"
"Xiao-Zeng You"
_chemical_name_systematic
;
catena-(tris(Diaqua-bis(cyclohexane-1,2-diamine)-copper(ii)) 
octadecakis(\m~2~-cyano)-octadecakis(cyclohexane-1,2-diamine)-triacontacyano-n
ona-copper(ii)-hexa-molybdenum(iv) hexahydrate)
;
_cell_volume  20172.237
_exptl_crystal_density_diffrn 1.369
_diffrn_ambient_temperature 273
#These two values have been output from a single CSD field.
_refine_ls_R_factor_gt 0.0601
_refine_ls_wR_factor_gt 0.0601
_symmetry_cell_setting rhombohedral
_symmetry_space_group_name_H-M 'R -3'
_symmetry_Int_Tables_number 148
loop_
_symmetry_equiv_pos_site_id
_symmetry_equiv_pos_as_xyz
1 x,y,z
2 -y,x-y,z
3 -x+y,-x,z
4 2/3+x,1/3+y,1/3+z
5 2/3-y,1/3+x-y,1/3+z
6 2/3-x+y,1/3-x,1/3+z
7 1/3+x,2/3+y,2/3+z
8 1/3-y,2/3+x-y,2/3+z
9 1/3-x+y,2/3-x,2/3+z
10 -x,-y,-z
11 y,-x+y,-z
12 x-y,x,-z
13 -2/3-x,-1/3-y,-1/3-z
14 -2/3+y,-1/3-x+y,-1/3-z
15 -2/3+x-y,-1/3+x,-1/3-z
16 -1/3-x,-2/3-y,-2/3-z
17 -1/3+y,-2/3-x+y,-2/3-z
18 -1/3+x-y,-2/3+x,-2/3-z
_cell_length_a 29.241(1)
_cell_length_b 29.241(1)
_cell_length_c 27.242(3)
_cell_angle_alpha 90
_cell_angle_beta 90
_cell_angle_gamma 120
_cell_formula_units_Z 3
loop_
_atom_type_symbol
_atom_type_radius_bond
C 0.68
H 0.23
Cu 1.60
Mo 1.54
N 0.68
O 0.68
loop_
_atom_site_label
_atom_site_type_symbol
_atom_site_fract_x
_atom_site_fract_y
_atom_site_fract_z
C1 C 0.22989(18) 0.09713(19) 0.70576(18)
H1 H 0.23060 0.06580 0.69420
C2 C 0.18816(18) 0.07683(19) 0.74446(17)
H2 H 0.18660 0.10560 0.76070
H3 H 0.19440 0.05640 0.76880
C3 C 0.13764(19) 0.0422(2) 0.71571(18)
H4 H 0.10780 0.02840 0.73810
H5 H 0.13930 0.01230 0.70220
C4 C 0.12818(19) 0.07149(18) 0.67362(17)
H6 H 0.09280 0.05080 0.66030
H7 H 0.13360 0.10550 0.68440
C5 C 0.16997(18) 0.0779(2) 0.63622(17)
H8 H 0.17060 0.04530 0.63180
H9 H 0.16440 0.08980 0.60470
C6 C 0.21995(19) 0.1199(2) 0.66065(18)
H10 H 0.21600 0.15030 0.66950
Cu1 Cu 0.33330 0.16670 0.66670
N1 N 0.28461(15) 0.13340(17) 0.72345(14)
H11 H 0.29580 0.11520 0.74170
H12 H 0.28480 0.15870 0.74250
N2 N 0.26587(14) 0.13716(15) 0.62551(13)
H13 H 0.26770 0.16210 0.60500
H14 H 0.26170 0.10950 0.60750
O1 O 0.3364(4) 0.2565(5) 0.6799(4)
H15 H 0.36070 0.28630 0.69020
H16 H 0.30980 0.24510 0.69880
O2 O 0.4233(4) 0.0889(4) 0.6765(4)
H17 H 0.41010 0.08220 0.64780
H18 H 0.39870 0.07590 0.69770
O3 O 0.4705(3) 0.0580(3) 0.3703(3)
H19 H 0.44880 0.02680 0.36080
H20 H 0.46560 0.08000 0.35390
O4 O 0.2518(3) 0.1964(3) 0.2953(2)
H21 H 0.24940 0.19800 0.26430
H22 H 0.22130 0.17670 0.30740
O5 O 0.66670 0.33330 0.14534(19)
O6 O 0.66670 0.33330 0.33333(19)
C7 C 0.32327(18) 0.03741(18) 0.46291(18)
C8 C 0.37601(19) 0.07183(19) 0.54038(18)
C9 C 0.3890(2) 0.00449(17) 0.48294(17)
C10 C 0.36874(19) -0.00819(19) 0.58158(17)
C11 C 0.31187(19) -0.0855(2) 0.51270(18)
C12 C 0.26528(19) -0.06235(18) 0.57743(17)
C13 C 0.2532(2) -0.0563(2) 0.48050(18)
C14 C 0.2740(2) 0.0225(2) 0.54838(18)
C15 C 0.43732(19) 0.2133(2) 0.42330(19)
H23 H 0.43840 0.24500 0.41010
C16 C 0.49024(18) 0.22946(19) 0.44716(18)
H24 H 0.48990 0.19820 0.45960
H25 H 0.49540 0.25250 0.47480
C17 C 0.53675(19) 0.25832(19) 0.41097(17)
H26 H 0.53820 0.29020 0.39890
H27 H 0.56990 0.26800 0.42730
C18 C 0.52780(19) 0.2207(2) 0.36841(17)
H28 H 0.52860 0.18990 0.38050
H29 H 0.55580 0.23820 0.34440
C19 C 0.47423(17) 0.20358(19) 0.34422(16)
H30 H 0.46890 0.17970 0.31730
H31 H 0.47440 0.23440 0.33070
C20 C 0.42823(19) 0.17596(19) 0.38110(18)
H32 H 0.42820 0.14470 0.39410
C21 C 0.22507(18) 0.12007(19) 0.44988(16)
H33 H 0.22990 0.15390 0.43840
C22 C 0.17933(17) 0.09551(19) 0.48685(17)
H34 H 0.17610 0.06280 0.49890
H35 H 0.18830 0.11930 0.51460
C23 C 0.12558(19) 0.0837(2) 0.46718(18)
H36 H 0.12570 0.11610 0.45930
H37 H 0.09800 0.06400 0.49100
C24 C 0.11752(19) 0.0508(2) 0.42099(18)
H38 H 0.11280 0.01680 0.43070
H39 H 0.08530 0.04450 0.40490
C25 C 0.16227(18) 0.0758(2) 0.38439(18)
H40 H 0.16660 0.10930 0.37350
H41 H 0.15380 0.05300 0.35590
C26 C 0.2145(2) 0.0847(2) 0.40769(17)
H42 H 0.21090 0.05110 0.41850
C27 C 0.46834(19) -0.10674(18) 0.46964(17)
H43 H 0.49790 -0.10580 0.48750
C28 C 0.44987(19) -0.15128(18) 0.43341(18)
H44 H 0.42520 -0.14990 0.41060
H45 H 0.47980 -0.14780 0.41480
C29 C 0.4234(2) -0.20353(19) 0.46010(18)
H46 H 0.40650 -0.23180 0.43630
H47 H 0.45010 -0.20800 0.47700
C30 C 0.38267(19) -0.20796(18) 0.49694(18)
H48 H 0.35400 -0.20740 0.47960
H49 H 0.36830 -0.24150 0.51390
C31 C 0.4054(2) -0.16352(18) 0.53457(17)
H50 H 0.43250 -0.16520 0.55380
H51 H 0.37790 -0.16710 0.55670
C32 C 0.4286(2) -0.11195(19) 0.50828(18)
H52 H 0.39940 -0.11200 0.49060
Cu2 Cu 0.32599(2) 0.14502(2) 0.41555(2)
Cu3 Cu 0.50000 0.00000 0.50000
Mo1 Mo 0.320980(17) -0.008850(18) 0.524620(16)
N3 N 0.32374(16) 0.06076(17) 0.42900(15)
N4 N 0.40831(17) 0.11579(16) 0.55190(15)
N5 N 0.42587(17) 0.01222(16) 0.46048(16)
N6 N 0.39559(15) -0.00875(16) 0.61271(16)
N7 N 0.30359(16) -0.12971(16) 0.50923(15)
N8 N 0.23559(17) -0.09380(17) 0.60598(15)
N9 N 0.21592(16) -0.08379(16) 0.45672(14)
N10 N 0.25006(16) 0.04274(15) 0.56341(14)
N11 N 0.38984(14) 0.18550(16) 0.45681(14)
H53 H 0.38660 0.20930 0.47510
H54 H 0.39390 0.16350 0.47710
N12 N 0.37503(15) 0.15933(15) 0.36042(14)
H55 H 0.36390 0.13010 0.34200
H56 H 0.37640 0.18510 0.34130
N13 N 0.27464(15) 0.12862(16) 0.47354(13)
H57 H 0.26920 0.09950 0.48970
H58 H 0.28720 0.15590 0.49470
N14 N 0.25767(15) 0.11058(15) 0.37006(14)
H59 H 0.25480 0.13530 0.35280
H60 H 0.25780 0.08670 0.34930
N15 N 0.49013(16) -0.05238(15) 0.44562(14)
H61 H 0.52120 -0.04270 0.43090
H62 H 0.46740 -0.05330 0.42290
N16 N 0.45184(15) -0.06359(15) 0.54204(14)
H63 H 0.42590 -0.05950 0.55520
H64 H 0.47030 -0.06740 0.56650
H65? H 0.64120 0.33900 0.14050
H66? H 0.66940 0.32050 0.11830
H67? H 0.65720 0.31430 0.35910
H68? H 0.63960 0.32660 0.31650
C1O C 0.436777(180) 0.236203(190) 0.627573(180)
H1O H 0.43607 0.26753 0.63913
C2O C 0.478507(180) 0.256503(190) 0.588873(170)
H2O H 0.48007 0.22773 0.57263
H3O H 0.47227 0.27693 0.56453
C3O C 0.529027(190) 0.291133(200) 0.617623(180)
H4O H 0.55887 0.30493 0.59523
H5O H 0.52737 0.32103 0.63113
C4O C 0.538487(190) 0.261843(180) 0.659713(170)
H6O H 0.57387 0.28253 0.67303
H7O H 0.53307 0.22783 0.64893
C5O C 0.496697(180) 0.255433(200) 0.697113(170)
H8O H 0.49607 0.28803 0.70153
H9O H 0.50227 0.24353 0.72863
C6O C 0.446717(190) 0.213433(200) 0.672683(180)
H10O H 0.45067 0.18303 0.66383
N1O N 0.382057(150) 0.199933(170) 0.609883(140)
H11O H 0.37087 0.21813 0.59163
H12O H 0.38187 0.17463 0.59083
N2O N 0.400797(140) 0.196173(150) 0.707823(130)
H13O H 0.39897 0.17123 0.72833
H14O H 0.40497 0.22383 0.72583
O1O O 0.330267(400) 0.076833(500) 0.653433(400)
H15O H 0.30597 0.04703 0.64313
H16O H 0.35687 0.08823 0.63453
C7I C 0.67673(18) -0.03741(18) 0.53709(18)
C7J C 0.03741(18) -0.28586(18) 0.53709(18)
C7A C 0.96259(18) 0.28586(18) 0.46291(18)
C7K C 0.28586(18) 0.32327(18) 0.53709(18)
C7B C 0.71414(18) -0.32327(18) 0.46291(18)
C8I C 0.62399(19) -0.07183(19) 0.45962(18)
C8J C 0.07183(19) -0.30418(19) 0.45962(18)
C8A C 0.92817(19) 0.30418(19) 0.54038(18)
C8K C 0.30418(19) 0.37601(19) 0.45962(18)
C8B C 0.69582(19) -0.37601(19) 0.54038(18)
C9I C 0.6110(2) -0.00449(17) 0.51706(17)
C9J C 0.00449(20) -0.38451(17) 0.51706(17)
C9A C 0.99551(20) 0.38451(17) 0.48294(17)
C9K C 0.38451(20) 0.38900(17) 0.51706(17)
C9B C 0.61549(20) -0.38900(17) 0.48294(17)
C10I C 0.63126(19) 0.00819(19) 0.41842(17)
C10J C -0.00819(19) -0.37693(19) 0.41842(17)
C10A C 1.00819(19) 0.37693(19) 0.58158(17)
C10K C 0.37693(19) 0.36874(19) 0.41842(17)
C10B C 0.62307(19) -0.36874(19) 0.58158(17)
C11I C 0.68813(19) 0.0855(2) 0.48730(18)
C11J C -0.08550(19) -0.39737(20) 0.48730(18)
C11A C 1.08550(19) 0.39737(20) 0.51270(18)
C11K C 0.39737(19) 0.31187(20) 0.48730(18)
C11B C 0.60263(19) -0.31187(20) 0.51270(18)
C12I C 0.73472(19) 0.06235(18) 0.42257(17)
C12K C 0.32763(19) 0.26528(18) 0.42257(17)
C12B C 0.67237(19) -0.26528(18) 0.57743(17)
C12J C -0.06235(19) -0.32763(18) 0.42257(17)
C12A C 1.06235(19) 0.32763(18) 0.57743(17)
C13I C 0.7468(2) 0.0563(2) 0.51950(18)
C13J C -0.0563(2) -0.3095(2) 0.51950(18)
C13A C 1.0563(2) 0.3095(2) 0.48050(18)
C13K C 0.3095(2) 0.2532(2) 0.51950(18)
C13B C 0.6905(2) -0.2532(2) 0.48050(18)
C14I C 0.7260(2) -0.0225(2) 0.45162(18)
C14J C 0.0225(2) -0.2515(2) 0.45162(18)
C14A C 0.9775(2) 0.2515(2) 0.54838(18)
C14K C 0.2515(2) 0.2740(2) 0.45162(18)
C14B C 0.7485(2) -0.2740(2) 0.54838(18)
C15I C 0.56268(19) -0.2133(2) 0.57670(19)
C15J C 0.21330(19) -0.22402(20) 0.57670(19)
C15A C 0.78670(19) 0.22402(20) 0.42330(19)
C15K C 0.22402(19) 0.43732(20) 0.57670(19)
C15B C 0.77598(19) -0.43732(20) 0.42330(19)
H23I H 0.56160 -0.24500 0.58990
H23J H 0.24500 -0.19340 0.58990
H23A H 0.75500 0.19340 0.41010
H23K H 0.19340 0.43840 0.58990
H23B H 0.80660 -0.43840 0.41010
C16I C 0.50976(18) -0.22946(19) 0.55284(18)
C16J C 0.22946(18) -0.26078(19) 0.55284(18)
C16A C 0.77054(18) 0.26078(19) 0.44716(18)
C16K C 0.26078(18) 0.49024(19) 0.55284(18)
C16B C 0.73922(18) -0.49024(19) 0.44716(18)
H24I H 0.51010 -0.19820 0.54040
H24J H 0.19820 -0.29170 0.54040
H24A H 0.80180 0.29170 0.45960
H24K H 0.29170 0.48990 0.54040
H24B H 0.70830 -0.48990 0.45960
H25I H 0.50460 -0.25250 0.52520
H25J H 0.25250 -0.24290 0.52520
H25A H 0.74750 0.24290 0.47480
H25K H 0.24290 0.49540 0.52520
H25B H 0.75710 -0.49540 0.47480
C17I C 0.46325(19) -0.25832(19) 0.58903(17)
C17J C 0.25832(19) -0.27843(19) 0.58903(17)
C17A C 0.74168(19) 0.27843(19) 0.41097(17)
C17K C 0.27843(19) 0.53675(19) 0.58903(17)
C17B C 0.72157(19) -0.53675(19) 0.41097(17)
H26I H 0.46180 -0.29020 0.60110
H26J H 0.29020 -0.24800 0.60110
H26A H 0.70980 0.24800 0.39890
H26K H 0.24800 0.53820 0.60110
H26B H 0.75200 -0.53820 0.39890
H27I H 0.43010 -0.26800 0.57270
H27J H 0.26800 -0.30190 0.57270
H27A H 0.73200 0.30190 0.42730
H27K H 0.30190 0.56990 0.57270
H27B H 0.69810 -0.56990 0.42730
C18I C 0.47220(19) -0.2207(2) 0.63159(17)
C18J C 0.22070(19) -0.3071(2) 0.63159(17)
C18A C 0.77930(19) 0.3071(2) 0.36841(17)
C18K C 0.30710(19) 0.5278(2) 0.63159(17)
C18B C 0.69290(19) -0.5278(2) 0.36841(17)
H28I H 0.47140 -0.18990 0.61950
H28J H 0.18990 -0.33870 0.61950
H28A H 0.81010 0.33870 0.38050
H28K H 0.33870 0.52860 0.61950
H28B H 0.66130 -0.52860 0.38050
H29I H 0.44420 -0.23820 0.65560
H29J H 0.23820 -0.31760 0.65560
H29A H 0.76180 0.31760 0.34440
H29K H 0.31760 0.55580 0.65560
H29B H 0.68240 -0.55580 0.34440
C19I C 0.52577(17) -0.20358(19) 0.65578(16)
C19J C 0.20358(17) -0.27065(19) 0.65578(16)
C19A C 0.79642(17) 0.27065(19) 0.34422(16)
C19K C 0.27065(17) 0.47423(19) 0.65578(16)
C19B C 0.72935(17) -0.47423(19) 0.34422(16)
H30I H 0.53110 -0.17970 0.68270
H30J H 0.17970 -0.28920 0.68270
H30A H 0.82030 0.28920 0.31730
H30K H 0.28920 0.46890 0.68270
H30B H 0.71080 -0.46890 0.31730
H31I H 0.52560 -0.23440 0.66930
H31J H 0.23440 -0.24000 0.66930
H31A H 0.76560 0.24000 0.33070
H31K H 0.24000 0.47440 0.66930
H31B H 0.76000 -0.47440 0.33070
C20I C 0.57177(19) -0.17596(19) 0.61890(18)
C20J C 0.17596(19) -0.25227(19) 0.61890(18)
C20A C 0.82404(19) 0.25227(19) 0.38110(18)
C20K C 0.25227(19) 0.42823(19) 0.61890(18)
C20B C 0.74773(19) -0.42823(19) 0.38110(18)
H32I H 0.57180 -0.14470 0.60590
H32J H 0.14470 -0.28350 0.60590
H32A H 0.85530 0.28350 0.39410
H32K H 0.28350 0.42820 0.60590
H32B H 0.71650 -0.42820 0.39410
C21I C 0.77493(18) -0.12007(19) 0.55012(16)
C21J C 0.12007(18) -0.10500(19) 0.55012(16)
C21A C 0.87993(18) 0.10500(19) 0.44988(16)
C21K C 0.10500(18) 0.22507(19) 0.55012(16)
C21B C 0.89500(18) -0.22507(19) 0.44988(16)
H33I H 0.77010 -0.15390 0.56160
H33J H 0.15390 -0.07600 0.56160
H33A H 0.84610 0.07600 0.43840
H33K H 0.07600 0.22990 0.56160
H33B H 0.92400 -0.22990 0.43840
C22I C 0.82067(17) -0.09551(19) 0.51315(17)
C22J C 0.09551(17) -0.08382(19) 0.51315(17)
C22A C 0.90449(17) 0.08382(19) 0.48685(17)
C22K C 0.08382(17) 0.17933(19) 0.51315(17)
C22B C 0.91618(17) -0.17933(19) 0.48685(17)
H34I H 0.82390 -0.06280 0.50110
H34J H 0.06280 -0.11330 0.50110
H34A H 0.93720 0.11330 0.49890
H34K H 0.11330 0.17610 0.50110
H34B H 0.88670 -0.17610 0.49890
H35I H 0.81170 -0.11930 0.48540
H35J H 0.11930 -0.06900 0.48540
H35A H 0.88070 0.06900 0.51460
H35K H 0.06900 0.18830 0.48540
H35B H 0.93100 -0.18830 0.51460
C23I C 0.87442(19) -0.0837(2) 0.53282(18)
C23J C 0.08370(19) -0.04188(20) 0.53282(18)
C23A C 0.91630(19) 0.04188(20) 0.46718(18)
C23K C 0.04188(19) 0.12558(20) 0.53282(18)
C23B C 0.95812(19) -0.12558(20) 0.46718(18)
H36I H 0.87430 -0.11610 0.54070
H36J H 0.11610 -0.00960 0.54070
H36A H 0.88390 0.00960 0.45930
H36K H 0.00960 0.12570 0.54070
H36B H 0.99040 -0.12570 0.45930
H37I H 0.90200 -0.06400 0.50900
H37J H 0.06400 -0.03400 0.50900
H37A H 0.93600 0.03400 0.49100
H37K H 0.03400 0.09800 0.50900
H37B H 0.96600 -0.09800 0.49100
C24I C 0.88248(19) -0.0508(2) 0.57901(18)
C24J C 0.05080(19) -0.06672(20) 0.57901(18)
C24A C 0.94920(19) 0.06672(20) 0.42099(18)
C24K C 0.06672(19) 0.11752(20) 0.57901(18)
C24B C 0.93328(19) -0.11752(20) 0.42099(18)
H38I H 0.88720 -0.01680 0.56930
H38J H 0.01680 -0.09600 0.56930
H38A H 0.98320 0.09600 0.43070
H38K H 0.09600 0.11280 0.56930
H38B H 0.90400 -0.11280 0.43070
H39I H 0.91470 -0.04450 0.59510
H39J H 0.04450 -0.04080 0.59510
H39A H 0.95550 0.04080 0.40490
H39K H 0.04080 0.08530 0.59510
H39B H 0.95920 -0.08530 0.40490
C25I C 0.83773(18) -0.0758(2) 0.61561(18)
C25J C 0.07580(18) -0.08647(20) 0.61561(18)
C25A C 0.92420(18) 0.08647(20) 0.38439(18)
C25K C 0.08647(18) 0.16227(20) 0.61561(18)
C25B C 0.91353(18) -0.16227(20) 0.38439(18)
H40I H 0.83340 -0.10930 0.62650
H40J H 0.10930 -0.05730 0.62650
H40A H 0.89070 0.05730 0.37350
H40K H 0.05730 0.16660 0.62650
H40B H 0.94270 -0.16660 0.37350
H41I H 0.84620 -0.05300 0.64410
H41J H 0.05300 -0.10080 0.64410
H41A H 0.94700 0.10080 0.35590
H41K H 0.10080 0.15380 0.64410
H41B H 0.89920 -0.15380 0.35590
C26I C 0.7855(2) -0.0847(2) 0.59231(17)
C26J C 0.0847(2) -0.1298(2) 0.59231(17)
C26A C 0.9153(2) 0.1298(2) 0.40769(17)
C26K C 0.1298(2) 0.2145(2) 0.59231(17)
C26B C 0.8702(2) -0.2145(2) 0.40769(17)
H42I H 0.78910 -0.05110 0.58150
H42J H 0.05110 -0.15980 0.58150
H42A H 0.94890 0.15980 0.41850
H42K H 0.15980 0.21090 0.58150
H42B H 0.84020 -0.21090 0.41850
C27I C 0.53166(19) 0.10674(18) 0.53036(17)
C27J C -0.10674(19) -0.57508(18) 0.53036(17)
C27A C 0.10674(19) -0.42492(18) 0.46964(17)
C27A* C 1.10674(19) 0.57508(18) 0.46964(17)
C27J* C 0.89326(19) 0.42492(18) 0.53036(17)
H43I H 0.50210 0.10580 0.51250
H43J H -0.10580 -0.60370 0.51250
H43A H 0.10580 -0.39630 0.48750
H43A* H 1.10580 0.60370 0.48750
H43J* H 0.89420 0.39630 0.51250
C28I C 0.55013(19) 0.15128(18) 0.56659(18)
C28J C -0.15128(19) -0.60115(18) 0.56659(18)
C28A C 0.15128(19) -0.39885(18) 0.43341(18)
C28A* C 1.15128(19) 0.60115(18) 0.43341(18)
C28J* C 0.84872(19) 0.39885(18) 0.56659(18)
H44I H 0.57480 0.14990 0.58940
H44J H -0.14990 -0.57510 0.58940
H44A H 0.14990 -0.42490 0.41060
H44A* H 1.14990 0.57510 0.41060
H44J* H 0.85010 0.42490 0.58940
H45I H 0.52020 0.14780 0.58520
H45J H -0.14780 -0.62760 0.58520
H45A H 0.14780 -0.37240 0.41480
H45A* H 1.14780 0.62760 0.41480
H45J* H 0.85220 0.37240 0.58520
C29I C 0.5766(2) 0.20353(19) 0.53990(18)
C29J C -0.20353(20) -0.62693(19) 0.53990(18)
C29A C 0.20353(20) -0.37307(19) 0.46010(18)
C29A* C 1.20353(20) 0.62693(19) 0.46010(18)
C29J* C 0.79647(20) 0.37307(19) 0.53990(18)
H46I H 0.59350 0.23180 0.56370
H46J H -0.23180 -0.63830 0.56370
H46A H 0.23180 -0.36170 0.43630
H46A* H 1.23180 0.63830 0.43630
H46J* H 0.76820 0.36170 0.56370
H47I H 0.54990 0.20800 0.52300
H47J H -0.20800 -0.65810 0.52300
H47A H 0.20800 -0.34190 0.47700
H47A* H 1.20800 0.65810 0.47700
H47J* H 0.79200 0.34190 0.52300
C30I C 0.61733(19) 0.20796(18) 0.50306(18)
C30J C -0.20796(19) -0.59063(18) 0.50306(18)
C30A C 0.20796(19) -0.40937(18) 0.49694(18)
C30A* C 1.20796(19) 0.59063(18) 0.49694(18)
C30J* C 0.79204(19) 0.40937(18) 0.50306(18)
H48I H 0.64600 0.20740 0.52040
H48J H -0.20740 -0.56140 0.52040
H48A H 0.20740 -0.43860 0.47960
H48A* H 1.20740 0.56140 0.47960
H48J* H 0.79260 0.43860 0.52040
H49I H 0.63170 0.24150 0.48610
H49J H -0.24150 -0.60980 0.48610
H49A H 0.24150 -0.39020 0.51390
H49A* H 1.24150 0.60980 0.51390
H49J* H 0.75850 0.39020 0.48610
C31I C 0.5946(2) 0.16352(18) 0.46543(17)
C31J C -0.16352(20) -0.56892(18) 0.46543(17)
C31A C 0.16352(20) -0.43108(18) 0.53457(17)
C31A* C 1.16352(20) 0.56892(18) 0.53457(17)
C31J* C 0.83648(20) 0.43108(18) 0.46543(17)
H50I H 0.56750 0.16520 0.44620
H50J H -0.16520 -0.59770 0.44620
H50A H 0.16520 -0.40230 0.55380
H50A* H 1.16520 0.59770 0.55380
H50J* H 0.83480 0.40230 0.44620
H51I H 0.62210 0.16710 0.44330
H51J H -0.16710 -0.54500 0.44330
H51A H 0.16710 -0.45500 0.55670
H51A* H 1.16710 0.54500 0.55670
H51J* H 0.83290 0.45500 0.44330
C32I C 0.5714(2) 0.11195(19) 0.49172(18)
C32J C -0.11195(20) -0.54055(19) 0.49172(18)
C32A C 0.11195(20) -0.45945(19) 0.50828(18)
C32A* C 1.11195(20) 0.54055(19) 0.50828(18)
C32J* C 0.88805(20) 0.45945(19) 0.49172(18)
H52I H 0.60060 0.11200 0.50940
H52J H -0.11200 -0.51140 0.50940
H52A H 0.11200 -0.48860 0.49060
H52A* H 1.11200 0.51140 0.49060
H52J* H 0.88800 0.48860 0.50940
Cu2I Cu 0.67401(2) -0.14502(2) 0.58445(2)
Cu2J Cu 0.14502(2) -0.18097(2) 0.58445(2)
Cu2A Cu 0.85498(2) 0.18097(2) 0.41555(2)
Cu2K Cu 0.18097(2) 0.32599(2) 0.58445(2)
Cu2B Cu 0.81903(2) -0.32599(2) 0.41555(2)
Cu2B* Cu -0.18097(2) -0.32599(2) 0.41555(2)
Cu2K* Cu 1.18097(2) 0.32599(2) 0.58445(2)
Cu3A Cu 0.00000 -0.50000 0.50000
Cu3A* Cu 1.00000 0.50000 0.50000
Cu3B Cu 0.50000 0.50000 0.50000
Cu3B* Cu 0.50000 -0.50000 0.50000
Mo1I Mo 0.679020(17) 0.008850(18) 0.475380(16)
Mo1J Mo -0.008850(17) -0.329830(18) 0.475380(16)
Mo1A Mo 1.008850(17) 0.329830(18) 0.524620(16)
Mo1K Mo 0.329830(17) 0.320980(18) 0.475380(16)
Mo1B Mo 0.670170(17) -0.320980(18) 0.524620(16)
N3I N 0.67626(16) -0.06076(17) 0.57100(15)
N3J N 0.06076(16) -0.26298(17) 0.57100(15)
N3A N 0.93924(16) 0.26298(17) 0.42900(15)
N3K N 0.26298(16) 0.32374(17) 0.57100(15)
N3B N 0.73702(16) -0.32374(17) 0.42900(15)
N4I N 0.59169(17) -0.11579(16) 0.44810(15)
N4J N 0.11579(17) -0.29252(16) 0.44810(15)
N4A N 0.88421(17) 0.29252(16) 0.55190(15)
N4K N 0.29252(17) 0.40831(16) 0.44810(15)
N4B N 0.70748(17) -0.40831(16) 0.55190(15)
N5I N 0.57413(17) -0.01222(16) 0.53952(16)
N5J N 0.01222(17) -0.41365(16) 0.53952(16)
N5A N 0.98778(17) 0.41365(16) 0.46048(16)
N5K N 0.41365(17) 0.42587(16) 0.53952(16)
N5B N 0.58635(17) -0.42587(16) 0.46048(16)
N5A* N -0.01222(17) -0.58635(16) 0.46048(16)
N5J* N 1.01222(17) 0.58635(16) 0.53952(16)
N6I N 0.60441(15) 0.00875(16) 0.38729(16)
N6J N -0.00875(15) -0.40434(16) 0.38729(16)
N6A N 1.00875(15) 0.40434(16) 0.61271(16)
N6K N 0.40434(15) 0.39559(16) 0.38729(16)
N6B N 0.59566(15) -0.39559(16) 0.61271(16)
N7I N 0.69641(16) 0.12971(16) 0.49077(15)
N7J N -0.12971(16) -0.43330(16) 0.49077(15)
N7A N 1.12971(16) 0.43330(16) 0.50923(15)
N7K N 0.43330(16) 0.30359(16) 0.49077(15)
N7B N 0.56670(16) -0.30359(16) 0.50923(15)
N8I N 0.76441(17) 0.09380(17) 0.39402(15)
N8K N 0.32939(17) 0.23559(17) 0.39402(15)
N8B N 0.67061(17) -0.23559(17) 0.60598(15)
N8J N -0.09380(17) -0.32939(17) 0.39402(15)
N8A N 1.09380(17) 0.32939(17) 0.60598(15)
N8A* N 0.09380(17) 0.32939(17) 0.60598(15)
N8J* N 0.90620(17) -0.32939(17) 0.39402(15)
N9I N 0.78408(16) 0.08379(16) 0.54328(14)
N9J N -0.08379(16) -0.29971(16) 0.54328(14)
N9A N 1.08379(16) 0.29971(16) 0.45672(14)
N9K N 0.29971(16) 0.21592(16) 0.54328(14)
N9B N 0.70029(16) -0.21592(16) 0.45672(14)
N10I N 0.74994(16) -0.04274(15) 0.43659(14)
N10J N 0.04274(16) -0.20732(15) 0.43659(14)
N10A N 0.95726(16) 0.20732(15) 0.56341(14)
N10K N 0.20732(16) 0.25006(15) 0.43659(14)
N10B N 0.79268(16) -0.25006(15) 0.56341(14)
N11I N 0.61016(14) -0.18550(16) 0.54319(14)
N11J N 0.18550(14) -0.20434(16) 0.54319(14)
N11A N 0.81450(14) 0.20434(16) 0.45681(14)
N11K N 0.20434(14) 0.38984(16) 0.54319(14)
N11B N 0.79566(14) -0.38984(16) 0.45681(14)
H53I H 0.61340 -0.20930 0.52490
H53J H 0.20930 -0.17730 0.52490
H53A H 0.79070 0.17730 0.47510
H53K H 0.17730 0.38660 0.52490
H53B H 0.82270 -0.38660 0.47510
H54I H 0.60610 -0.16350 0.52290
H54J H 0.16350 -0.23040 0.52290
H54A H 0.83650 0.23040 0.47710
H54K H 0.23040 0.39390 0.52290
H54B H 0.76960 -0.39390 0.47710
N12I N 0.62497(15) -0.15933(15) 0.63958(14)
N12J N 0.15933(15) -0.21570(15) 0.63958(14)
N12A N 0.84067(15) 0.21570(15) 0.36042(14)
N12K N 0.21570(15) 0.37503(15) 0.63958(14)
N12B N 0.78430(15) -0.37503(15) 0.36042(14)
H55I H 0.63610 -0.13010 0.65800
H55J H 0.13010 -0.23380 0.65800
H55A H 0.86990 0.23380 0.34200
H55K H 0.23380 0.36390 0.65800
H55B H 0.76620 -0.36390 0.34200
H56I H 0.62360 -0.18510 0.65870
H56J H 0.18510 -0.19130 0.65870
H56A H 0.81490 0.19130 0.34130
H56K H 0.19130 0.37640 0.65870
H56B H 0.80870 -0.37640 0.34130
N13I N 0.72536(15) -0.12862(16) 0.52646(13)
N13J N 0.12862(15) -0.14602(16) 0.52646(13)
N13A N 0.87138(15) 0.14602(16) 0.47354(13)
N13K N 0.14602(15) 0.27464(16) 0.52646(13)
N13B N 0.85398(15) -0.27464(16) 0.47354(13)
H57I H 0.73080 -0.09950 0.51030
H57J H 0.09950 -0.16970 0.51030
H57A H 0.90050 0.16970 0.48970
H57K H 0.16970 0.26920 0.51030
H57B H 0.83030 -0.26920 0.48970
H58I H 0.71280 -0.15590 0.50530
H58J H 0.15590 -0.13130 0.50530
H58A H 0.84410 0.13130 0.49470
H58K H 0.13130 0.28720 0.50530
H58B H 0.86870 -0.28720 0.49470
N14I N 0.74233(15) -0.11058(15) 0.62994(14)
N14J N 0.11058(15) -0.14709(15) 0.62994(14)
N14A N 0.88942(15) 0.14709(15) 0.37006(14)
N14K N 0.14709(15) 0.25767(15) 0.62994(14)
N14B N 0.85291(15) -0.25767(15) 0.37006(14)
H59I H 0.74520 -0.13530 0.64720
H59J H 0.13530 -0.11950 0.64720
H59A H 0.86470 0.11950 0.35280
H59K H 0.11950 0.25480 0.64720
H59B H 0.88050 -0.25480 0.35280
H60I H 0.74220 -0.08670 0.65070
H60J H 0.08670 -0.17110 0.65070
H60A H 0.91330 0.17110 0.34930
H60K H 0.17110 0.25780 0.65070
H60B H 0.82890 -0.25780 0.34930
N15I N 0.50987(16) 0.05238(15) 0.55438(14)
N15J N -0.05238(16) -0.54251(15) 0.55438(14)
N15A N 0.05238(16) -0.45749(15) 0.44562(14)
N15A* N 1.05238(16) 0.54251(15) 0.44562(14)
N15J* N 0.94762(16) 0.45749(15) 0.55438(14)
H61I H 0.47880 0.04270 0.56910
H61J H -0.04270 -0.56390 0.56910
H61A H 0.04270 -0.43610 0.43090
H61A* H 1.04270 0.56390 0.43090
H61J* H 0.95730 0.43610 0.56910
H62I H 0.53260 0.05330 0.57710
H62J H -0.05330 -0.52070 0.57710
H62A H 0.05330 -0.47930 0.42290
H62A* H 1.05330 0.52070 0.42290
H62J* H 0.94670 0.47930 0.57710
N16I N 0.54816(15) 0.06359(15) 0.45796(14)
N16J N -0.06359(15) -0.51543(15) 0.45796(14)
N16A N 0.06359(15) -0.48457(15) 0.54204(14)
N16A* N 1.06359(15) 0.51543(15) 0.54204(14)
N16J* N 0.93641(15) 0.48457(15) 0.45796(14)
H63I H 0.57410 0.05950 0.44480
H63J H -0.05950 -0.48540 0.44480
H63A H 0.05950 -0.51460 0.55520
H63A* H 1.05950 0.48540 0.55520
H63J* H 0.94050 0.51460 0.44480
H64I H 0.52970 0.06740 0.43350
H64J H -0.06740 -0.53770 0.43350
H64A H 0.06740 -0.46230 0.56650
H64A* H 1.06740 0.53770 0.56650
H64J* H 0.93260 0.46230 0.43350
#END
