
#######################################################################
#
#                 Cambridge Crystallographic Data Centre
#                                CCDC
#
#######################################################################
#
# If this CIF has been generated from an entry in the Cambridge
# Structural Database, then it will include bibliographic, chemical,
# crystal, experimental, refinement or atomic coordinate data resulting
# from the CCDC's data processing and validation procedures.
#
#######################################################################

data_CSD_CIF_NUNDOR
_audit_creation_date 2015-05-04
_audit_creation_method CSD-ConQuest-V1
_database_code_CSD NUNDOR
_database_code_depnum_ccdc_archive 'CCDC 1063098'
_chemical_formula_sum 'C152 H300 Cu2 I2 Mn2 Mo12 N14 O52'
_chemical_formula_moiety
;
(C36 H40 Cu2 I2 Mn2 Mo12 N4 O48 6-)n,6(C16 H36 N1 1+),4(C5 H11 N1 O1)
;
_journal_coden_Cambridge 179
_journal_volume 55
_journal_year 2016
_journal_page_first 6462
_journal_name_full 'Angew.Chem.,Int.Ed. '
loop_
_publ_author_name
"Xin-Xiong Li"
"Yang-Xin Wang"
"Rui-Hu Wang"
"Cai-Yan Cui"
"Chong-Bin Tian"
"Guo-Yu Yang"
_chemical_name_systematic
;
catena-(hexakis(tetrabutylammonium) 
tetrakis(\m-2-(oxymethyl)-2-(pyridin-4-yl)-1,3-propanediolato)-dodecakis(\m-ox
o)-bis(\m-iodo)-tetracosaoxo-di-copper-di-manganese-dodeca-molybdenum 
N,N-diethylformamide solvate)
;
_cell_volume  10192.417
_exptl_crystal_colour 'yellow'
_exptl_crystal_density_diffrn 1.563
_exptl_crystal_description 'lamellar'
_diffrn_ambient_temperature 173
_refine_special_details
;
Disordered solvent molecules were not modelled and the disordered density was 
taken into account using the SQUEEZE/PLATON procedure.
;
#These two values have been output from a single CSD field.
_refine_ls_R_factor_gt 0.0723
_refine_ls_wR_factor_gt 0.0723
_symmetry_cell_setting monoclinic
_symmetry_space_group_name_H-M 'P 21/m'
_symmetry_Int_Tables_number 11
loop_
_symmetry_equiv_pos_site_id
_symmetry_equiv_pos_as_xyz
1 x,y,z
2 -x,1/2+y,-z
3 -x,-y,-z
4 x,-1/2-y,z
_cell_length_a 14.603(2)
_cell_length_b 27.207(4)
_cell_length_c 25.725(4)
_cell_angle_alpha 90
_cell_angle_beta 94.259(3)
_cell_angle_gamma 90
_cell_formula_units_Z 2
loop_
_atom_type_symbol
_atom_type_radius_bond
C 0.68
H 0.23
Cu 1.32
I 1.40
Mn 1.61
Mo 1.54
N 0.68
O 0.68
loop_
_atom_site_label
_atom_site_type_symbol
_atom_site_fract_x
_atom_site_fract_y
_atom_site_fract_z
I1 I 1.38295(4) 0.25000 0.29621(3)
Cu1 Cu 1.24375(6) 0.29814(3) 0.24774(3)
I2 I 1.11154(5) 0.25000 0.19390(3)
N1 N 1.1847(4) 0.33794(18) 0.3041(2)
N2 N 1.3016(4) 0.3439(3) 0.1964(3)
C1 C 1.2347(5) 0.3645(3) 0.3396(3)
C2 C 1.0945(5) 0.3401(3) 0.3097(3)
C3 C 1.2570(8) 0.3792(6) 0.1700(7)
C4 C 1.3906(6) 0.3444(4) 0.1882(4)
H1 H 1.29960 0.36160 0.34000
C5 C 1.2007(4) 0.3953(3) 0.3754(3)
C6 C 1.0559(5) 0.3676(3) 0.3459(3)
H2 H 1.05500 0.32100 0.28670
H3 H 1.19470 0.38570 0.17610
C7 C 1.2994(6) 0.4069(6) 0.1337(6)
C8 C 1.4352(6) 0.3727(4) 0.1539(3)
H4 H 1.42810 0.32220 0.20890
C9 C 1.1085(4) 0.39757(18) 0.3803(2)
H5 H 1.24130 0.41520 0.39690
H6 H 0.99120 0.36660 0.34790
C10 C 1.3851(4) 0.4052(3) 0.1235(3)
H7 H 1.26170 0.42970 0.11410
H8 H 1.49960 0.36960 0.15150
C11 C 1.0699(3) 0.43147(18) 0.4210(2)
C12 C 1.4230(4) 0.4370(3) 0.0811(2)
C13 C 1.1164(4) 0.41660(19) 0.4744(2)
C14 C 0.9642(4) 0.42530(19) 0.4204(2)
C15 C 1.0946(4) 0.48424(17) 0.4041(2)
C16 C 1.4171(5) 0.4893(3) 0.0996(2)
C17 C 1.5224(5) 0.4218(3) 0.0759(3)
C18 C 1.3652(5) 0.4286(3) 0.0309(3)
O1 O 1.0901(2) 0.44706(13) 0.51740(14)
H9 H 1.10060 0.38200 0.48160
H10 H 1.18380 0.41850 0.47280
O2 O 0.9198(2) 0.45562(12) 0.45670(13)
H11 H 0.93710 0.43260 0.38490
H12 H 0.95060 0.39050 0.42790
O3 O 1.0656(2) 0.52233(12) 0.43808(14)
H13 H 1.16200 0.48640 0.40240
H14 H 1.06600 0.49020 0.36850
O4 O 1.4518(3) 0.52601(16) 0.06604(15)
H15 H 1.35200 0.49690 0.10440
H16 H 1.45140 0.49190 0.13420
O5 O 1.5684(3) 0.44934(16) 0.03796(14)
H17 H 1.55700 0.42560 0.11020
H18 H 1.52370 0.38660 0.06640
O6 O 1.3919(3) 0.45606(16) -0.01370(15)
H19 H 1.36700 0.39310 0.02230
H20 H 1.30080 0.43700 0.03660
Mn1 Mn 1.00000 0.50000 0.50000
Mo1 Mo 1.20117(3) 0.49051(2) 0.57061(2)
Mo2 Mo 1.03001(3) 0.412014(17) 0.59260(2)
Mo3 Mo 0.82708(3) 0.421570(18) 0.52194(2)
Mn2 Mn 1.50000 0.50000 0.00000
Mo4 Mo 1.35979(4) 0.59104(2) 0.03208(2)
Mo5 Mo 1.57211(5) 0.58253(3) 0.09229(3)
Mo6 Mo 1.71179(4) 0.49150(3) 0.06030(3)
O7 O 1.2272(2) 0.51776(14) 0.50542(16)
O8 O 1.1072(2) 0.46699(14) 0.61389(14)
O9 O 1.2738(3) 0.44206(19) 0.57090(19)
O10 O 1.2514(3) 0.5324(2) 0.61291(17)
O11 O 0.9401(3) 0.38785(12) 0.54073(15)
O12 O 0.9771(4) 0.40507(17) 0.64802(17)
O13 O 1.1052(3) 0.36493(17) 0.59190(19)
O14 O 0.7688(3) 0.41504(16) 0.57694(18)
O15 O 0.7788(3) 0.37991(16) 0.47865(19)
O16 O 1.2842(3) 0.53762(17) 0.00704(17)
O17 O 1.3146(4) 0.6036(2) 0.0888(2)
O18 O 1.3184(4) 0.6369(2) -0.0076(2)
O19 O 1.4837(3) 0.61492(17) 0.04532(19)
O20 O 1.6612(4) 0.6231(3) 0.0894(3)
O21 O 1.5319(5) 0.5922(2) 0.1505(2)
O22 O 1.6336(4) 0.5224(2) 0.10806(18)
O23 O 1.7526(4) 0.4446(2) 0.0998(2)
O24 O 1.7991(4) 0.5337(3) 0.0594(3)
N3 N 0.7651(7) 0.5485(5) 0.2470(4)
C19 C 0.6733(9) 0.5208(6) 0.2319(7)
H21 H 0.62740 0.54600 0.22020
H22 H 0.68380 0.50040 0.20090
C20 C 0.7423(11) 0.5813(6) 0.2896(6)
H23 H 0.79810 0.60110 0.29870
H24 H 0.73390 0.55980 0.31990
C21 C 0.6606(10) 0.6179(6) 0.2866(6)
H25 H 0.66740 0.64020 0.25680
H26 H 0.60330 0.59900 0.27900
C22 C 0.7881(14) 0.5824(7) 0.2016(8)
H27 H 0.73330 0.60330 0.19360
H28 H 0.79310 0.56080 0.17100
C23 C 0.6504(11) 0.6468(6) 0.3312(6)
H29 H 0.70940 0.66370 0.34050
H30 H 0.63840 0.62460 0.36050
C24 C 0.8493(14) 0.5176(8) 0.2649(8)
H31 H 0.90590 0.53760 0.26520
H32 H 0.84340 0.50460 0.30050
C25 C 0.5451(17) 0.4721(8) 0.2484(10)
H33 H 0.55450 0.45300 0.21650
H34 H 0.50710 0.50090 0.23740
C26 C 0.6314(15) 0.4901(8) 0.2674(8)
H35 H 0.67250 0.46190 0.27620
H36 H 0.62430 0.50870 0.29990
C27 C 0.8720(19) 0.6172(10) 0.2033(10)
H37 H 0.86980 0.63860 0.23440
H38 H 0.92820 0.59690 0.20850
C28 C 0.8813(18) 0.6484(10) 0.1585(10)
H39 H 0.85150 0.63380 0.12630
H40 H 0.85550 0.68160 0.16370
C29 C 0.8518(19) 0.4799(10) 0.2296(11)
H41 H 0.83650 0.49110 0.19340
H42 H 0.81130 0.45230 0.23790
C30 C 0.4843(16) 0.4383(9) 0.2847(9)
H43 H 0.43340 0.42340 0.26320
H44 H 0.45980 0.45870 0.31190
H45 H 0.52300 0.41230 0.30110
C31 C 0.960(2) 0.4663(10) 0.2403(14)
H46 H 0.99950 0.48900 0.22180
H47 H 0.97950 0.46640 0.27800
C32 C 0.5773(15) 0.6839(7) 0.3265(8)
H48 H 0.57510 0.70150 0.35960
H49 H 0.51820 0.66780 0.31770
H50 H 0.58990 0.70730 0.29890
C33 C 0.9604(18) 0.4114(10) 0.216(1)
H51 H 1.02050 0.39620 0.22450
H52 H 0.94850 0.41320 0.17810
H53 H 0.91260 0.39160 0.23080
C34 C 0.9774(14) 0.6498(7) 0.1572(7)
H54 H 0.99360 0.66930 0.12720
H55 H 1.00090 0.61630 0.15430
H56 H 1.00450 0.66490 0.18940
Cu1C Cu 1.24375(6) 0.20186(3) 0.24774(3)
Mo1B Mo 0.79883(3) 0.50949(2) 0.42939(2)
Mo2B Mo 0.96999(3) 0.587986(17) 0.40740(2)
Mo3B Mo 1.17292(3) 0.578430(18) 0.47806(2)
Mo4B Mo 1.64021(4) 0.40896(2) -0.03208(2)
Mo6B Mo 1.28821(4) 0.50850(3) -0.06030(3)
Mo5B Mo 1.42789(5) 0.41747(3) -0.09229(3)
O3B O 0.9344(2) 0.47767(12) 0.56192(14)
O2B O 1.0802(2) 0.54438(12) 0.54330(13)
O1B O 0.9099(2) 0.55294(13) 0.48260(14)
O7B O 0.7728(2) 0.48224(14) 0.49458(16)
O8B O 0.8928(2) 0.53301(14) 0.38611(14)
O9B O 0.7262(3) 0.55794(19) 0.42910(19)
O10B O 0.7486(3) 0.4676(2) 0.38709(17)
O12B O 1.0229(4) 0.59493(17) 0.35198(17)
O13B O 0.8948(3) 0.63507(17) 0.40810(19)
O11B O 1.0599(3) 0.61215(12) 0.45927(15)
O14B O 1.2312(3) 0.58496(16) 0.42306(18)
O15B O 1.2212(3) 0.62009(16) 0.52135(19)
O4B O 1.5482(3) 0.47399(16) -0.06604(15)
O5B O 1.4316(3) 0.55066(16) -0.03796(14)
O6B O 1.6081(3) 0.54394(16) 0.01370(15)
O16B O 1.7158(3) 0.46238(17) -0.00704(17)
O17B O 1.6854(4) 0.3964(2) -0.0888(2)
O18B O 1.6816(4) 0.3631(2) 0.0076(2)
O19B O 1.5163(3) 0.38508(17) -0.04532(19)
O22B O 1.3664(4) 0.4776(2) -0.10806(18)
O23B O 1.2474(4) 0.5554(2) -0.0998(2)
O24B O 1.2009(4) 0.4663(3) -0.0594(3)
O20B O 1.3388(4) 0.3769(3) -0.0894(3)
O21B O 1.4681(5) 0.4078(2) -0.1505(2)
C15B C 0.9054(4) 0.51576(17) 0.5959(2)
C14B C 1.0358(4) 0.57470(19) 0.5796(2)
C13B C 0.8836(4) 0.58340(19) 0.5256(2)
C16B C 1.5829(5) 0.5107(3) -0.0996(2)
C17B C 1.4776(5) 0.5782(3) -0.0759(3)
C18B C 1.6348(5) 0.5714(3) -0.0309(3)
C11B C 0.9301(3) 0.56853(18) 0.5790(2)
H13B H 0.83800 0.51360 0.59760
H14B H 0.93400 0.50980 0.63150
H11B H 1.06290 0.56740 0.61510
H12B H 1.04940 0.60950 0.57210
H9B H 0.89940 0.61800 0.51840
H10B H 0.81620 0.58150 0.52720
C12B C 1.5770(4) 0.5630(3) -0.0811(2)
H15B H 1.64800 0.50310 -0.10440
H16B H 1.54860 0.50810 -0.13420
H17B H 1.44300 0.57440 -0.11020
H18B H 1.47630 0.61340 -0.06640
H19B H 1.63300 0.60690 -0.02230
H20B H 1.69920 0.56300 -0.03660
C9B C 0.8915(4) 0.60243(18) 0.6197(2)
C10B C 1.6149(4) 0.5948(3) -0.1235(3)
C6B C 0.9441(5) 0.6324(3) 0.6541(3)
C5B C 0.7993(4) 0.6047(3) 0.6246(3)
C8B C 1.5648(6) 0.6273(4) -0.1539(3)
C7B C 1.7006(6) 0.5931(6) -0.1337(6)
H6B H 1.00880 0.63340 0.65210
C2B C 0.9055(5) 0.6599(3) 0.6903(3)
C1B C 0.7653(5) 0.6355(3) 0.6604(3)
H5B H 0.75870 0.58480 0.60310
H8B H 1.50040 0.63040 -0.15150
C4B C 1.6094(6) 0.6556(4) -0.1882(4)
C3B C 1.7430(8) 0.6208(6) -0.1700(7)
H7B H 1.73830 0.57030 -0.11410
N1B N 0.8153(4) 0.66206(18) 0.6959(2)
H2B H 0.94500 0.67900 0.71330
H1B H 0.70040 0.63840 0.66000
N2B N 1.6984(4) 0.6561(3) -0.1964(3)
H4B H 1.57190 0.67780 -0.20890
H3B H 1.80530 0.61430 -0.17610
Cu1B Cu 0.75625(6) 0.70186(3) 0.75226(3)
Cu1B* Cu 1.75625(6) 0.70186(3) -0.24774(3)
I1A I 0.61705(4) 0.75000 0.70379(3)
I2A I 0.88846(5) 0.75000 0.80610(3)
N2B* N 0.6984(4) 0.6561(3) 0.8036(3)
#END
