
#######################################################################
#
#                 Cambridge Crystallographic Data Centre
#                                CCDC
#
#######################################################################
#
# If this CIF has been generated from an entry in the Cambridge
# Structural Database, then it will include bibliographic, chemical,
# crystal, experimental, refinement or atomic coordinate data resulting
# from the CCDC's data processing and validation procedures.
#
#######################################################################

data_CSD_CIF_NUQKIW
_audit_creation_date 2020-07-16
_audit_creation_method CSD-ConQuest-V1
_database_code_CSD NUQKIW
_database_code_depnum_ccdc_archive 'CCDC 1978723'
_chemical_formula_sum 'C144 H161 N27 O49 S3 Zn6'
_chemical_formula_moiety
;
(C120 H78 N18 O38 S2 Zn6 4-)n,6(C2 H8 N1 1+),O4 S1 2-,3(C3 H7 N1 O1),3(C1 H4 
O1),H2 O1
;
_journal_coden_Cambridge 1147
_journal_volume 20
_journal_year 2020
_journal_page_first 5120
_journal_name_full 'Cryst.Growth Des. '
loop_
_publ_author_name
"Bowen Qin"
"Xiaoying Zhang"
"Jingping Zhang"
_chemical_name_systematic
;
catena-[hexakis(dimethylammonium) 
hexakis(\m-4,4'-oxydibenzoato)-tris(\m-3,5-bis(pyridin-4-yl)-4H-1,2,4-triazol-
4-amine)-bis(\m-sulfato)-hexa-zinc(ii) sulfate methanol N,N-dimethylformamide 
solvate monohydrate]
;
_cell_volume   8379.145
_exptl_crystal_colour 'colorless'
_exptl_crystal_density_diffrn 1.402
_exptl_special_details
;
Luminescent

;
_exptl_crystal_description 'rod'
_diffrn_ambient_temperature 293
_refine_special_details
;
Disordered N,N-dimethylformamide and methanol solvent molecules were not 
modelled and the disordered density was taken into account using the 
SQUEEZE/PLATON procedure.
;
#These two values have been output from a single CSD field.
_refine_ls_R_factor_gt 0.0583
_refine_ls_wR_factor_gt 0.0583
_symmetry_cell_setting hexagonal
_symmetry_space_group_name_H-M 'P -3'
_symmetry_Int_Tables_number 147
loop_
_symmetry_equiv_pos_site_id
_symmetry_equiv_pos_as_xyz
1 x,y,z
2 -y,x-y,z
3 -x+y,-x,z
4 -x,-y,-z
5 y,-x+y,-z
6 x-y,x,-z
_cell_length_a 18.7253(3)
_cell_length_b 18.7253(3)
_cell_length_c 27.5938(9)
_cell_angle_alpha 90
_cell_angle_beta 90
_cell_angle_gamma 120
_cell_formula_units_Z 2
loop_
_atom_type_symbol
_atom_type_radius_bond
C 0.68
H 0.23
N 0.68
O 0.68
S 1.02
Zn 1.22
loop_
_atom_site_label
_atom_site_type_symbol
_atom_site_fract_x
_atom_site_fract_y
_atom_site_fract_z
Zn1 Zn 0.54089(3) 0.38579(3) 0.36703(2)
Zn2 Zn 0.54178(3) 0.38535(3) -0.15945(2)
C1 C 0.5227(4) 0.4094(3) 0.26204(18)
H1 H 0.52080 0.45490 0.27400
C2 C 0.5281(3) 0.2923(3) 0.27627(17)
H2 H 0.52970 0.25490 0.29780
C3 C 0.5279(4) 0.2784(3) 0.22821(17)
H3 H 0.53020 0.23250 0.21760
C4 C 0.5216(4) 0.3993(3) 0.21299(17)
H4 H 0.51930 0.43720 0.19220
C5 C 0.5241(3) 0.3312(3) 0.19455(15)
C6 C 0.5250(3) 0.3123(3) 0.14306(16)
C7 C 0.5257(3) 0.3124(3) 0.06483(16)
C8 C 0.5260(3) 0.3324(3) 0.01286(16)
C9 C 0.5157(5) 0.2732(4) -0.0202(2)
H5 H 0.50590 0.22190 -0.00980
C10 C 0.5361(4) 0.4054(4) -0.00507(19)
H6 H 0.54040 0.44640 0.01580
C11 C 0.5200(5) 0.2905(4) -0.0692(2)
H7 H 0.51390 0.25010 -0.09110
C12 C 0.5399(4) 0.4168(4) -0.05433(19)
H8 H 0.54830 0.46700 -0.06600
C13 C 0.3942(3) 0.3544(4) 0.38791(18)
C14 C 0.3030(3) 0.3076(3) 0.39861(17)
C15 C 0.2621(3) 0.2233(3) 0.4085(2)
H9 H 0.29220 0.19610 0.41070
C16 C 0.2577(3) 0.3469(3) 0.3964(2)
H10 H 0.28410 0.40320 0.39000
C17 C 0.1779(3) 0.1795(3) 0.4150(2)
H11 H 0.15110 0.12320 0.42120
C18 C 0.1749(3) 0.3048(3) 0.4034(2)
H12 H 0.14550 0.33270 0.40230
C19 C 0.1336(3) 0.2207(3) 0.4123(2)
C20 C 0.0051(3) 0.2138(3) 0.4149(2)
C21 C -0.0142(4) 0.2428(4) 0.4559(2)
H13 H 0.00010 0.23290 0.48640
C22 C -0.0191(3) 0.2246(3) 0.3702(2)
H14 H -0.00750 0.20320 0.34280
C23 C -0.0545(3) 0.2860(4) 0.4512(2)
H15 H -0.06830 0.30500 0.47880
C24 C -0.0605(3) 0.2669(4) 0.36586(19)
H16 H -0.07900 0.27240 0.33560
C25 C -0.0754(3) 0.3020(3) 0.40615(18)
C26 C -0.1106(3) 0.3579(3) 0.4019(2)
C27 C 0.3919(3) 0.3525(3) -0.17818(19)
C28 C 0.3037(3) 0.3094(3) -0.1943(2)
C29 C 0.2648(3) 0.2293(4) -0.2122(2)
H17 H 0.29450 0.20180 -0.21530
C30 C 0.2587(4) 0.3485(4) -0.1909(3)
H18 H 0.28380 0.40200 -0.17880
C31 C 0.1830(4) 0.1901(4) -0.2254(2)
H19 H 0.15740 0.13620 -0.23690
C32 C 0.1777(4) 0.3109(4) -0.2048(3)
H20 H 0.14870 0.33920 -0.20300
C33 C 0.1395(4) 0.2308(4) -0.2215(3)
C34 C 0.0122(4) 0.2278(4) -0.2269(3)
C35 C -0.0139(4) 0.2303(4) -0.1806(3)
H21 H -0.00380 0.20360 -0.15530
C36 C -0.0034(4) 0.2648(4) -0.2644(2)
H22 H 0.01340 0.26130 -0.29560
C37 C -0.0550(4) 0.2728(4) -0.1723(2)
H23 H -0.07400 0.27400 -0.14140
C38 C -0.0442(3) 0.3075(4) -0.2559(2)
H24 H -0.05560 0.33230 -0.28160
C39 C -0.0684(3) 0.3139(3) -0.20993(19)
C40 C -0.1046(3) 0.3683(3) -0.1999(2)
N1 N 0.5263(2) 0.3572(2) 0.29394(13)
N2 N 0.5323(3) 0.3606(3) -0.08624(14)
N3 N 0.5285(3) 0.2479(3) 0.12859(15)
N4 N 0.5284(4) 0.2474(3) 0.07899(15)
N5 N 0.5217(4) 0.4300(3) 0.10092(17)
H25 H 0.559(4) 0.470(3) 0.116(3)
H26 H 0.475(2) 0.409(5) 0.114(3)
N6 N 0.5221(3) 0.3553(2) 0.10367(12)
O1 O 0.4336(2) 0.3182(3) 0.39803(15)
O2 O 0.4252(3) 0.4205(3) 0.36717(18)
O3 O 0.0495(2) 0.1724(2) 0.4195(2)
O4 O -0.1242(3) 0.3873(3) 0.43829(15)
O5 O -0.1219(2) 0.3749(2) 0.35921(14)
O6 O 0.4323(2) 0.3171(2) -0.18729(14)
O7 O 0.4210(3) 0.4178(3) -0.15641(16)
O8 O 0.0572(2) 0.1872(3) -0.2346(2)
O9 O -0.1149(2) 0.3802(2) -0.15581(14)
O10 O -0.1207(2) 0.4012(2) -0.23365(14)
O11 O 0.5852(2) 0.3146(2) 0.38750(16)
O12 O 0.66670 0.33330 0.45434(19)
O13 O 0.5851(2) 0.3137(2) -0.18114(14)
O14 O 0.66670 0.33330 -0.2512(2)
S1 S 0.66670 0.33330 0.40488(6)
S2 S 0.66670 0.33330 -0.19922(6)
C41 C 0.7230(5) 0.2020(5) 0.5040(3)
H27 H 0.75000 0.21720 0.53490
H28 H 0.75110 0.24700 0.48170
H29 H 0.72420 0.15450 0.49180
C42 C 0.5826(6) 0.1120(5) 0.5379(3)
H30 H 0.58530 0.06470 0.52700
H31 H 0.52730 0.10180 0.53440
H32 H 0.59870 0.12250 0.57130
N7 N 0.6375(3) 0.1825(3) 0.50921(17)
H33 H 0.63800 0.22640 0.52190
H34 H 0.61600 0.17540 0.47960
C43 C 0.4827(5) 0.3847(5) 0.6800(3)
H35 H 0.45070 0.35510 0.65230
H36 H 0.52190 0.44030 0.67090
H37 H 0.44680 0.38540 0.70460
C44 C 0.4725(4) 0.2561(4) 0.7096(2)
H38 H 0.42970 0.24960 0.73150
H39 H 0.50400 0.23420 0.72430
H40 H 0.44820 0.22700 0.68010
N8 N 0.5267(3) 0.3439(3) 0.69902(14)
H41 H 0.55310 0.36940 0.72600
H42 H 0.56430 0.34910 0.67750
O15 O 0.7386(6) 0.3404(9) 0.6255(3)
O16 O 0.66670 0.33330 0.5578(2)
S3 S 0.66670 0.33330 0.60700(7)
O11A O 0.6854(2) 0.2706(2) 0.38750(16)
O11B O 0.7294(2) 0.4148(2) 0.38750(16)
O13A O 0.6863(2) 0.2714(2) -0.18114(14)
O13B O 0.7286(2) 0.4149(2) -0.18114(14)
Zn1A Zn 0.61421(3) 0.15510(3) 0.36703(2)
Zn2A Zn 0.61465(3) 0.15643(3) -0.15945(2)
C1A C 0.5906(4) 0.1133(3) 0.26204(18)
H1A H 0.54510 0.06590 0.27400
C2A C 0.7077(3) 0.2358(3) 0.27627(17)
H2A H 0.74510 0.27480 0.29780
C3A C 0.7216(4) 0.2495(3) 0.22821(17)
H3A H 0.76750 0.29770 0.21760
C4A C 0.6007(4) 0.1223(3) 0.21299(17)
H4A H 0.56280 0.08210 0.19220
C5A C 0.6688(3) 0.1929(3) 0.19455(15)
C6A C 0.6877(3) 0.2127(3) 0.14306(16)
C7A C 0.6876(3) 0.2133(3) 0.06483(16)
C8A C 0.6676(3) 0.1936(3) 0.01286(16)
C9A C 0.7268(5) 0.2425(4) -0.0202(2)
H5A H 0.77810 0.28400 -0.00980
C10A C 0.5946(4) 0.1307(4) -0.00507(19)
H6A H 0.55360 0.09400 0.01580
C11A C 0.7095(5) 0.2295(4) -0.0692(2)
H7A H 0.74990 0.26380 -0.09110
C12A C 0.5832(4) 0.1231(4) -0.05433(19)
H8A H 0.53300 0.08130 -0.06600
C13A C 0.6456(3) 0.0398(4) 0.38791(18)
C14A C 0.6924(3) -0.0046(3) 0.39861(17)
C15A C 0.7767(3) 0.0388(3) 0.4085(2)
H9A H 0.80390 0.09610 0.41070
C16A C 0.6531(3) -0.0892(3) 0.3964(2)
H10A H 0.59680 -0.11910 0.39000
C17A C 0.8205(3) -0.0016(3) 0.4150(2)
H11A H 0.87680 0.02790 0.42120
C18A C 0.6952(3) -0.1299(3) 0.4034(2)
H12A H 0.66730 -0.18720 0.40230
C19A C 0.7793(3) -0.0871(3) 0.4123(2)
C20A C 0.7862(3) -0.2087(3) 0.4149(2)
C21A C 0.7572(4) -0.2570(4) 0.4559(2)
H13A H 0.76710 -0.23280 0.48640
C22A C 0.7754(3) -0.2437(3) 0.3702(2)
H14A H 0.79680 -0.21070 0.34280
C23A C 0.7140(3) -0.3405(4) 0.4512(2)
H15A H 0.69500 -0.37330 0.47880
C24A C 0.7331(3) -0.3274(4) 0.36586(19)
H16A H 0.72760 -0.35140 0.33560
C25A C 0.6980(3) -0.3774(3) 0.40615(18)
C26A C 0.6421(3) -0.4685(3) 0.4019(2)
C27A C 0.6475(3) 0.0394(3) -0.17818(19)
C28A C 0.6906(3) -0.0057(3) -0.1943(2)
C29A C 0.7707(3) 0.0355(4) -0.2122(2)
H17A H 0.79820 0.09270 -0.21530
C30A C 0.6515(4) -0.0898(4) -0.1909(3)
H18A H 0.59800 -0.11820 -0.17880
C31A C 0.8099(4) -0.0071(4) -0.2254(2)
H19A H 0.86380 0.02120 -0.23690
C32A C 0.6891(4) -0.1332(4) -0.2048(3)
H20A H 0.66080 -0.19050 -0.20300
C33A C 0.7692(4) -0.0913(4) -0.2215(3)
C34A C 0.7722(4) -0.2156(4) -0.2269(3)
C35A C 0.7697(4) -0.2442(4) -0.1806(3)
H21A H 0.79640 -0.20740 -0.15530
C36A C 0.7352(4) -0.2682(4) -0.2644(2)
H22A H 0.73870 -0.24790 -0.29560
C37A C 0.7272(4) -0.3278(4) -0.1723(2)
H23A H 0.72600 -0.34800 -0.14140
C38A C 0.6925(3) -0.3517(4) -0.2559(2)
H24A H 0.66770 -0.38790 -0.28160
C39A C 0.6861(3) -0.3823(3) -0.20993(19)
C40A C 0.6317(3) -0.4729(3) -0.1999(2)
N1A N 0.6428(2) 0.1691(2) 0.29394(13)
N2A N 0.6394(3) 0.1717(3) -0.08624(14)
N3A N 0.7521(3) 0.2806(3) 0.12859(15)
N4A N 0.7526(4) 0.2810(3) 0.07899(15)
N5A N 0.5700(4) 0.0917(3) 0.10092(17)
H25A H 0.530(4) 0.089(3) 0.116(3)
H26A H 0.591(2) 0.066(5) 0.114(3)
N6A N 0.6447(3) 0.1668(2) 0.10367(12)
O1A O 0.6818(2) 0.1154(3) 0.39803(15)
O2A O 0.5795(3) 0.0047(3) 0.36717(18)
O3A O 0.8276(2) -0.1229(2) 0.4195(2)
O4A O 0.6127(3) -0.5115(3) 0.43829(15)
O5A O 0.6251(2) -0.4968(2) 0.35921(14)
O6A O 0.6829(2) 0.1152(2) -0.18729(14)
O7A O 0.5822(3) 0.0032(3) -0.15641(16)
O8A O 0.8128(2) -0.1300(3) -0.2346(2)
O9A O 0.6198(2) -0.4951(2) -0.15581(14)
O10A O 0.5988(2) -0.5219(2) -0.23365(14)
Zn1B Zn -0.15510(3) -0.54089(3) 0.36703(2)
Zn2B Zn -0.15643(3) -0.54178(3) -0.15945(2)
C1B C -0.1133(4) -0.5227(3) 0.26204(18)
H1B H -0.06590 -0.52080 0.27400
C2B C -0.2358(3) -0.5281(3) 0.27627(17)
H2B H -0.27480 -0.52970 0.29780
C3B C -0.2495(4) -0.5279(3) 0.22821(17)
H3B H -0.29770 -0.53020 0.21760
C4B C -0.1223(4) -0.5216(3) 0.21299(17)
H4B H -0.08210 -0.51930 0.19220
C5B C -0.1929(3) -0.5241(3) 0.19455(15)
C6B C -0.2127(3) -0.5250(3) 0.14306(16)
C7B C -0.2133(3) -0.5257(3) 0.06483(16)
C8B C -0.1936(3) -0.5260(3) 0.01286(16)
C9B C -0.2425(5) -0.5157(4) -0.0202(2)
H5B H -0.28400 -0.50590 -0.00980
C10B C -0.1307(4) -0.5361(4) -0.00507(19)
H6B H -0.09400 -0.54040 0.01580
C11B C -0.2295(5) -0.5200(4) -0.0692(2)
H7B H -0.26380 -0.51390 -0.09110
C12B C -0.1231(4) -0.5399(4) -0.05433(19)
H8B H -0.08130 -0.54830 -0.06600
C13B C -0.0398(3) -0.3942(4) 0.38791(18)
C14B C 0.0046(3) -0.3030(3) 0.39861(17)
C15B C -0.0388(3) -0.2621(3) 0.4085(2)
H9B H -0.09610 -0.29220 0.41070
C16B C 0.0892(3) -0.2577(3) 0.3964(2)
H10B H 0.11910 -0.28410 0.39000
C17B C 0.0016(3) -0.1779(3) 0.4150(2)
H11B H -0.02790 -0.15110 0.42120
C18B C 0.1299(3) -0.1749(3) 0.4034(2)
H12B H 0.18720 -0.14550 0.40230
C19B C 0.0871(3) -0.1336(3) 0.4123(2)
C20B C 0.2087(3) -0.0051(3) 0.4149(2)
C21B C 0.2570(4) 0.0142(4) 0.4559(2)
H13B H 0.23280 -0.00010 0.48640
C22B C 0.2437(3) 0.0191(3) 0.3702(2)
H14B H 0.21070 0.00750 0.34280
C23B C 0.3405(3) 0.0545(4) 0.4512(2)
H15B H 0.37330 0.06830 0.47880
C24B C 0.3274(3) 0.0605(4) 0.36586(19)
H16B H 0.35140 0.07900 0.33560
C25B C 0.3774(3) 0.0754(3) 0.40615(18)
C26B C 0.4685(3) 0.1106(3) 0.4019(2)
C27B C -0.0394(3) -0.3919(3) -0.17818(19)
C28B C 0.0057(3) -0.3037(3) -0.1943(2)
C29B C -0.0355(3) -0.2648(4) -0.2122(2)
H17B H -0.09270 -0.29450 -0.21530
C30B C 0.0898(4) -0.2587(4) -0.1909(3)
H18B H 0.11820 -0.28380 -0.17880
C31B C 0.0071(4) -0.1830(4) -0.2254(2)
H19B H -0.02120 -0.15740 -0.23690
C32B C 0.1332(4) -0.1777(4) -0.2048(3)
H20B H 0.19050 -0.14870 -0.20300
C33B C 0.0913(4) -0.1395(4) -0.2215(3)
C34B C 0.2156(4) -0.0122(4) -0.2269(3)
C35B C 0.2442(4) 0.0139(4) -0.1806(3)
H21B H 0.20740 0.00380 -0.15530
C36B C 0.2682(4) 0.0034(4) -0.2644(2)
H22B H 0.24790 -0.01340 -0.29560
C37B C 0.3278(4) 0.0550(4) -0.1723(2)
H23B H 0.34800 0.07400 -0.14140
C38B C 0.3517(3) 0.0442(4) -0.2559(2)
H24B H 0.38790 0.05560 -0.28160
C39B C 0.3823(3) 0.0684(3) -0.20993(19)
C40B C 0.4729(3) 0.1046(3) -0.1999(2)
N1B N -0.1691(2) -0.5263(2) 0.29394(13)
N2B N -0.1717(3) -0.5323(3) -0.08624(14)
N3B N -0.2806(3) -0.5285(3) 0.12859(15)
N4B N -0.2810(4) -0.5284(3) 0.07899(15)
N5B N -0.0917(4) -0.5217(3) 0.10092(17)
H25B H -0.089(4) -0.559(3) 0.116(3)
H26B H -0.066(2) -0.475(5) 0.114(3)
N6B N -0.1668(3) -0.5221(2) 0.10367(12)
O1B O -0.1154(2) -0.4336(3) 0.39803(15)
O2B O -0.0047(3) -0.4252(3) 0.36717(18)
O3B O 0.1229(2) -0.0495(2) 0.4195(2)
O4B O 0.5115(3) 0.1242(3) 0.43829(15)
O5B O 0.4968(2) 0.1219(2) 0.35921(14)
O6B O -0.1152(2) -0.4323(2) -0.18729(14)
O7B O -0.0032(3) -0.4210(3) -0.15641(16)
O8B O 0.1300(2) -0.0572(3) -0.2346(2)
O9B O 0.4951(2) 0.1149(2) -0.15581(14)
O10B O 0.5219(2) 0.1207(2) -0.23365(14)
Zn1* Zn 0.54089(3) -0.61421(3) 0.36703(2)
Zn1B* Zn -0.15510(3) 0.45911(3) 0.36703(2)
Zn1B** Zn 0.84490(3) 0.45911(3) 0.36703(2)
Zn2* Zn 0.54178(3) -0.61465(3) -0.15945(2)
Zn2B* Zn -0.15643(3) 0.45822(3) -0.15945(2)
Zn2B** Zn 0.84357(3) 0.45822(3) -0.15945(2)
O5* O -0.1219(2) -0.6251(2) 0.35921(14)
O5A* O 0.6251(2) 0.5032(2) 0.35921(14)
O9* O -0.1149(2) -0.6198(2) -0.15581(14)
O9A* O 0.6198(2) 0.5049(2) -0.15581(14)
O10* O -0.1207(2) -0.5988(2) -0.23365(14)
O10A* O 0.5988(2) 0.4781(2) -0.23365(14)
O11B* O -0.2706(2) -0.5852(2) 0.38750(16)
O13B* O -0.2714(2) -0.5851(2) -0.18114(14)
O15A O 0.6596(6) 0.3982(9) 0.6255(3)
O15B O 0.6018(6) 0.2614(9) 0.6255(3)
#END
