
#######################################################################
#
#                 Cambridge Crystallographic Data Centre
#                                CCDC
#
#######################################################################
#
# If this CIF has been generated from an entry in the Cambridge
# Structural Database, then it will include bibliographic, chemical,
# crystal, experimental, refinement or atomic coordinate data resulting
# from the CCDC's data processing and validation procedures.
#
#######################################################################

data_CSD_CIF_NUQKOC
_audit_creation_date 2020-07-16
_audit_creation_method CSD-ConQuest-V1
_database_code_CSD NUQKOC
_database_code_depnum_ccdc_archive 'CCDC 1978724'
_chemical_formula_sum 'C148 H175 Co6 N27 O52 S3'
_chemical_formula_moiety
;
(C120 H78 Co6 N18 O38 S2 4-)n,6(C2 H8 N1 1+),O4 S1 2-,3(C4 H9 N1 O1),2(C2 H6 
O1),5(H2 O1)
;
_journal_coden_Cambridge 1147
_journal_volume 20
_journal_year 2020
_journal_page_first 5120
_journal_name_full 'Cryst.Growth Des. '
loop_
_publ_author_name
"Bowen Qin"
"Xiaoying Zhang"
"Jingping Zhang"
_chemical_name_systematic
;
catena-[hexakis(dimethylammonium) 
hexakis(\m-4,4'-oxydibenzoato)-tris(\m-3,5-bis(pyridin-4-yl)-4H-1,2,4-triazol-
4-amine)-bis(\m-sulfato)-hexa-cobalt(ii) sulfate ethanol 
N,N-dimethylacetamide solvate pentahydrate]
;
_cell_volume   8267.307
_exptl_crystal_colour 'purple'
_exptl_special_details
;
Magnetic properties

;
_exptl_crystal_description 'rod'
_diffrn_ambient_temperature 293
_refine_special_details
;
Disordered solvent molecules were not modelled and the disordered density was 
taken into account using the SQUEEZE/PLATON procedure.
;
#These two values have been output from a single CSD field.
_refine_ls_R_factor_gt 0.1139
_refine_ls_wR_factor_gt 0.1139
_symmetry_cell_setting hexagonal
_symmetry_space_group_name_H-M 'P -3'
_symmetry_Int_Tables_number 147
loop_
_symmetry_equiv_pos_site_id
_symmetry_equiv_pos_as_xyz
1 x,y,z
2 -y,x-y,z
3 -x+y,-x,z
4 -x,-y,-z
5 y,-x+y,-z
6 x-y,x,-z
_cell_length_a 18.7648(8)
_cell_length_b 18.7648(8)
_cell_length_c 27.111(2)
_cell_angle_alpha 90
_cell_angle_beta 90
_cell_angle_gamma 120
_cell_formula_units_Z 2
loop_
_atom_type_symbol
_atom_type_radius_bond
C 0.68
H 0.23
Co 1.26
N 0.68
O 0.68
S 1.02
loop_
_atom_site_label
_atom_site_type_symbol
_atom_site_fract_x
_atom_site_fract_y
_atom_site_fract_z
Co1 Co 0.55406(7) 0.40759(7) 0.62853(4)
Co2 Co 0.62501(7) 0.46989(7) 1.16107(4)
C1 C 0.6153(6) 1.0993(8) 1.1999(4)
C2 C 0.6682(6) 1.0643(8) 1.2135(3)
C3 C 0.7190(8) 1.0590(11) 1.1778(4)
H1 H 0.72190 1.08030 1.14640
C4 C 0.6657(7) 1.0319(9) 1.2594(4)
H2 H 0.63450 1.03750 1.28410
C5 C 0.6663(6) 0.6182(6) 1.1811(3)
C6 C 0.7017(6) 0.7042(6) 1.1970(3)
C7 C 0.7787(6) 0.7477(6) 1.2183(4)
H3 H 0.81000 0.72220 1.22260
C8 C 0.8105(7) 0.8287(6) 1.2336(4)
H4 H 0.86250 0.85690 1.24780
C9 C 0.7654(7) 0.8671(6) 1.2276(4)
C10 C 0.6872(7) 0.8238(7) 1.2073(5)
H5 H 0.65520 0.84860 1.20490
C11 C 0.6565(7) 0.7445(7) 1.1907(5)
H6 H 0.60550 0.71750 1.17530
C12 C 0.7573(7) 0.9872(6) 1.2351(4)
C13 C 0.7653(8) 1.0219(7) 1.1890(5)
H7 H 0.80110 1.02050 1.16580
C14 C 0.7070(7) 0.9923(7) 1.2696(4)
H8 H 0.70130 0.96820 1.30040
C15 C 0.5959(9) 0.4773(10) 1.0550(4)
H9 H 0.54990 0.47730 1.06790
C16 C 0.6042(9) 0.4776(10) 1.0039(4)
H10 H 0.56420 0.47780 0.98360
C17 C 0.6698(7) 0.4777(7) 0.9837(4)
C18 C 0.7273(8) 0.4794(10) 1.0171(4)
H11 H 0.77530 0.48260 1.00530
C19 C 0.7141(8) 0.4766(10) 1.0670(4)
H12 H 0.75190 0.47430 1.08810
C20 C 0.6849(7) 0.4774(7) 0.9311(4)
C21 C 0.6736(6) 0.4708(6) 0.8514(3)
C22 C 0.5664(6) 0.4457(7) 0.7849(3)
H13 H 0.52790 0.44070 0.80830
C23 C 0.6450(6) 0.4652(6) 0.8000(3)
C24 C 0.7007(6) 0.4746(8) 0.7629(3)
H14 H 0.75420 0.48730 0.77040
C25 C 0.6727(7) 0.4640(8) 0.7139(3)
H15 H 0.71080 0.47420 0.68900
C26 C 0.5449(7) 0.4338(7) 0.7364(4)
H16 H 0.49150 0.42000 0.72780
C27 C 0.8005(6) 0.9473(5) 0.5876(4)
C28 C 0.6164(5) 0.5562(5) 0.6053(3)
C29 C 0.6719(5) 0.6451(5) 0.5981(3)
C30 C 0.6408(5) 0.6988(6) 0.6003(4)
H17 H 0.58490 0.67800 0.60610
C31 C 0.6917(5) 0.7820(6) 0.5942(4)
H18 H 0.67010 0.81710 0.59360
C32 C 0.7761(5) 0.8133(5) 0.5888(3)
C33 C 0.8068(5) 0.7604(6) 0.5875(3)
H19 H 0.86320 0.78160 0.58460
C34 C 0.7556(6) 0.6772(5) 0.5905(4)
H20 H 0.77690 0.64200 0.58750
C35 C 0.6790(5) 1.0855(8) 0.6013(3)
C36 C 0.7271(5) 1.0431(7) 0.5968(3)
C37 C 0.7546(6) 1.0203(8) 0.6375(3)
H21 H 0.74860 1.03800 0.66850
C38 C 0.7406(6) 1.0203(8) 0.5498(3)
H22 H 0.72590 1.03800 0.52150
C39 C 0.7755(7) 0.9721(9) 0.5462(4)
H23 H 0.78280 0.95550 0.51520
C40 C 0.7902(7) 0.9732(9) 0.6340(4)
H24 H 0.80770 0.95820 0.66230
N1 N 0.6495(5) 0.4771(5) 1.0861(3)
N2 N 0.5565(8) 0.469(1) 0.8978(4)
H25 H 0.587(10) 0.519(3) 0.904(7)
H26 H 0.510(2) 0.442(9) 0.9097(9)
N3 N 0.6342(5) 0.4719(5) 0.8936(3)
N4 N 0.7499(6) 0.4789(7) 0.9140(3)
N5 N 0.7439(6) 0.4758(6) 0.8631(3)
N6 N 0.5972(5) 0.4411(5) 0.7005(3)
O1 O 0.6883(4) 0.4145(4) 1.1817(3)
O2 O 0.6021(4) 0.5837(4) 1.1556(3)
O3 O 0.7030(4) 0.5795(4) 1.1934(3)
O4 O 0.6061(4) 1.1106(6) 1.1544(3)
O5 O 0.5798(4) 1.1170(6) 1.2324(2)
O6 O 0.6659(4) 1.1019(6) 0.6458(3)
O7 O 0.6514(4) 1.1060(6) 0.5658(3)
O8 O 0.6436(4) 0.5083(4) 0.5931(2)
O9 O 0.5485(4) 0.5290(4) 0.6255(3)
O10 O 0.5912(4) 0.3267(4) 0.6165(3)
O11 O 0.8316(4) 0.8951(4) 0.5839(3)
O12 O 0.66670 0.33330 0.5501(4)
O13 O 0.66670 0.33330 1.2519(4)
O14 O 0.8002(5) 0.9461(5) 1.2440(3)
S1 S 0.66670 0.33330 0.59708(12)
S2 S 0.66670 0.33330 1.19926(12)
C41 C 0.7574(6) 0.5267(6) 0.2945(4)
H27 H 0.76980 0.56990 0.27110
H28 H 0.77570 0.49090 0.28170
H29 H 0.78510 0.55030 0.32500
C42 C 0.6370(8) 0.5305(8) 0.3226(4)
H30 H 0.63590 0.52740 0.35800
H31 H 0.58220 0.51010 0.31040
H32 H 0.67120 0.58670 0.31250
N7 N 0.6702(4) 0.4806(4) 0.3027(3)
H33 H 0.65900 0.43980 0.32360
H34 H 0.64510 0.45840 0.27430
C43 C 0.5826(9) 0.4656(10) 0.4715(5)
H35 H 0.58640 0.51790 0.47760
H36 H 0.53260 0.42260 0.48570
H37 H 0.58230 0.45700 0.43660
C44 C 0.7385(8) 0.5302(8) 0.4774(6)
H38 H 0.73960 0.53270 0.44200
H39 H 0.77910 0.51730 0.48880
H40 H 0.75020 0.58240 0.49050
N8 N 0.6548(6) 0.4648(5) 0.4943(3)
H41 H 0.65000 0.41590 0.48840
H42 H 0.65200 0.46930 0.52680
O15 O 0.6392(7) 0.2512(5) 0.3760(3)
O16 O 0.66670 0.33330 0.4442(4)
S3 S 0.66670 0.33330 0.39464(12)
O1A O 0.5855(4) 0.2738(4) 1.1817(3)
O1B O 0.7262(4) 0.3117(4) 1.1817(3)
O10A O 0.6733(4) 0.2645(4) 0.6165(3)
O10B O 0.7355(4) 0.4088(4) 0.6165(3)
Co1A Co 0.59241(7) 0.14647(7) 0.62853(4)
Co2A Co 0.53011(7) 0.15512(7) 1.16107(4)
C1A C -0.0993(6) -0.4840(8) 1.1999(4)
C2A C -0.0643(6) -0.3961(8) 1.2135(3)
C3A C -0.0590(8) -0.3400(11) 1.1778(4)
H1A H -0.08030 -0.35840 1.14640
C4A C -0.0319(7) -0.3662(9) 1.2594(4)
H2A H -0.03750 -0.40300 1.28410
C5A C 0.3818(6) 0.0481(6) 1.1811(3)
C6A C 0.2958(6) -0.0025(6) 1.1970(3)
C7A C 0.2523(6) 0.0310(6) 1.2183(4)
H3A H 0.27780 0.08780 1.22260
C8A C 0.1713(7) -0.0182(6) 1.2336(4)
H4A H 0.14310 0.00560 1.24780
C9A C 0.1329(7) -0.1017(6) 1.2276(4)
C10A C 0.1762(7) -0.1366(7) 1.2073(5)
H5A H 0.15140 -0.19340 1.20490
C11A C 0.2555(7) -0.0880(7) 1.1907(5)
H6A H 0.28250 -0.11200 1.17530
C12A C 0.0128(7) -0.2299(6) 1.2351(4)
C13A C -0.0219(8) -0.2566(7) 1.1890(5)
H7A H -0.02050 -0.21940 1.16580
C14A C 0.0077(7) -0.2853(7) 1.2696(4)
H8A H 0.03180 -0.26690 1.30040
C15A C 0.5227(9) 0.1186(10) 1.0550(4)
H9A H 0.52270 0.07260 1.06790
C16A C 0.5224(9) 0.1266(10) 1.0039(4)
H10A H 0.52220 0.08640 0.98360
C17A C 0.5223(7) 0.1921(7) 0.9837(4)
C18A C 0.5206(8) 0.2479(10) 1.0171(4)
H11A H 0.51740 0.29270 1.00530
C19A C 0.5234(8) 0.2375(10) 1.0670(4)
H12A H 0.52570 0.27760 1.08810
C20A C 0.5226(7) 0.2075(7) 0.9311(4)
C21A C 0.5292(6) 0.2028(6) 0.8514(3)
C22A C 0.5543(6) 0.1207(7) 0.7849(3)
H13A H 0.55930 0.08720 0.80830
C23A C 0.5348(6) 0.1798(6) 0.8000(3)
C24A C 0.5254(6) 0.2261(8) 0.7629(3)
H14A H 0.51270 0.26690 0.77040
C25A C 0.5360(7) 0.2087(8) 0.7139(3)
H15A H 0.52580 0.23660 0.68900
C26A C 0.5662(7) 0.1111(7) 0.7364(4)
H16A H 0.58000 0.07150 0.72780
C27A C 0.0527(6) -0.1468(5) 0.5876(4)
C28A C 0.4438(5) 0.0602(5) 0.6053(3)
C29A C 0.3549(5) 0.0268(5) 0.5981(3)
C30A C 0.3012(5) -0.0580(6) 0.6003(4)
H17A H 0.32200 -0.09310 0.60610
C31A C 0.2180(5) -0.0903(6) 0.5942(4)
H18A H 0.18290 -0.14700 0.59360
C32A C 0.1867(5) -0.0372(5) 0.5888(3)
C33A C 0.2396(5) 0.0464(6) 0.5875(3)
H19A H 0.21840 0.08160 0.58460
C34A C 0.3228(6) 0.0784(5) 0.5905(4)
H20A H 0.35800 0.13490 0.58750
C35A C -0.0855(5) -0.4065(8) 0.6013(3)
C36A C -0.0431(5) -0.3160(7) 0.5968(3)
C37A C -0.0203(6) -0.2657(8) 0.6375(3)
H21A H -0.03800 -0.28940 0.66850
C38A C -0.0203(6) -0.2797(8) 0.5498(3)
H22A H -0.03800 -0.31210 0.52150
C39A C 0.0279(7) -0.1966(9) 0.5462(4)
H23A H 0.04450 -0.17270 0.51520
C40A C 0.0268(7) -0.1830(9) 0.6340(4)
H24A H 0.04180 -0.15050 0.66230
N1A N 0.5229(5) 0.1724(5) 1.0861(3)
N2A N 0.5310(8) 0.0875(10) 0.8978(4)
H25A H 0.481(10) 0.068(3) 0.904(7)
H26A H 0.558(2) 0.068(9) 0.9097(9)
N3A N 0.5281(5) 0.1623(5) 0.8936(3)
N4A N 0.5211(6) 0.2710(7) 0.9140(3)
N5A N 0.5242(6) 0.2681(6) 0.8631(3)
N6A N 0.5589(5) 0.1561(5) 0.7005(3)
O2A O 0.4163(4) 0.0184(4) 1.1556(3)
O3A O 0.4205(4) 0.1235(4) 1.1934(3)
O4A O -0.1106(4) -0.5045(6) 1.1544(3)
O5A O -0.1170(4) -0.5372(6) 1.2324(2)
O6A O -0.1019(4) -0.4360(6) 0.6458(3)
O7A O -0.1060(4) -0.4546(6) 0.5658(3)
O8A O 0.4917(4) 0.1353(4) 0.5931(2)
O9A O 0.4710(4) 0.0195(4) 0.6255(3)
O11A O 0.1049(4) -0.0635(4) 0.5839(3)
O14A O 0.0539(5) -0.1459(5) 1.2440(3)
Co1B Co -0.14647(7) 0.44594(7) 0.62853(4)
Co2B Co -0.15512(7) 0.37499(7) 1.16107(4)
C1B C 0.4840(6) 0.3847(8) 1.1999(4)
C2B C 0.3961(6) 0.3318(8) 1.2135(3)
C3B C 0.3400(8) 0.2810(11) 1.1778(4)
H1B H 0.35840 0.27810 1.14640
C4B C 0.3662(7) 0.3343(9) 1.2594(4)
H2B H 0.40300 0.36550 1.28410
C5B C -0.0481(6) 0.3337(6) 1.1811(3)
C6B C 0.0025(6) 0.2983(6) 1.1970(3)
C7B C -0.0310(6) 0.2213(6) 1.2183(4)
H3B H -0.08780 0.19000 1.22260
C8B C 0.0182(7) 0.1895(6) 1.2336(4)
H4B H -0.00560 0.13750 1.24780
C9B C 0.1017(7) 0.2346(6) 1.2276(4)
C10B C 0.1366(7) 0.3128(7) 1.2073(5)
H5B H 0.19340 0.34480 1.20490
C11B C 0.0880(7) 0.3435(7) 1.1907(5)
H6B H 0.11200 0.39450 1.17530
C12B C 0.2299(7) 0.2427(6) 1.2351(4)
C13B C 0.2566(8) 0.2347(7) 1.1890(5)
H7B H 0.21940 0.19890 1.16580
C14B C 0.2853(7) 0.2930(7) 1.2696(4)
H8B H 0.26690 0.29870 1.30040
C15B C -0.1186(9) 0.4041(10) 1.0550(4)
H9B H -0.07260 0.45010 1.06790
C16B C -0.1266(9) 0.3958(10) 1.0039(4)
H10B H -0.08640 0.43580 0.98360
C17B C -0.1921(7) 0.3302(7) 0.9837(4)
C18B C -0.2479(8) 0.2727(10) 1.0171(4)
H11B H -0.29270 0.22470 1.00530
C19B C -0.2375(8) 0.2859(10) 1.0670(4)
H12B H -0.27760 0.24810 1.08810
C20B C -0.2075(7) 0.3151(7) 0.9311(4)
C21B C -0.2028(6) 0.3264(6) 0.8514(3)
C22B C -0.1207(6) 0.4336(7) 0.7849(3)
H13B H -0.08720 0.47210 0.80830
C23B C -0.1798(6) 0.3550(6) 0.8000(3)
C24B C -0.2261(6) 0.2993(8) 0.7629(3)
H14B H -0.26690 0.24580 0.77040
C25B C -0.2087(7) 0.3273(8) 0.7139(3)
H15B H -0.23660 0.28920 0.68900
C26B C -0.1111(7) 0.4551(7) 0.7364(4)
H16B H -0.07150 0.50850 0.72780
C27B C 0.1468(6) 0.1995(5) 0.5876(4)
C28B C -0.0602(5) 0.3836(5) 0.6053(3)
C29B C -0.0268(5) 0.3281(5) 0.5981(3)
C30B C 0.0580(5) 0.3592(6) 0.6003(4)
H17B H 0.09310 0.41510 0.60610
C31B C 0.0903(5) 0.3083(6) 0.5942(4)
H18B H 0.14700 0.32990 0.59360
C32B C 0.0372(5) 0.2239(5) 0.5888(3)
C33B C -0.0464(5) 0.1932(6) 0.5875(3)
H19B H -0.08160 0.13680 0.58460
C34B C -0.0784(6) 0.2444(5) 0.5905(4)
H20B H -0.13490 0.22310 0.58750
C35B C 0.4065(5) 0.3210(8) 0.6013(3)
C36B C 0.3160(5) 0.2729(7) 0.5968(3)
C37B C 0.2657(6) 0.2454(8) 0.6375(3)
H21B H 0.28940 0.25140 0.66850
C38B C 0.2797(6) 0.2594(8) 0.5498(3)
H22B H 0.31210 0.27410 0.52150
C39B C 0.1966(7) 0.2245(9) 0.5462(4)
H23B H 0.17270 0.21720 0.51520
C40B C 0.1830(7) 0.2098(9) 0.6340(4)
H24B H 0.15050 0.19230 0.66230
N1B N -0.1724(5) 0.3505(5) 1.0861(3)
N2B N -0.0875(8) 0.4435(10) 0.8978(4)
H25B H -0.068(10) 0.413(3) 0.904(7)
H26B H -0.068(2) 0.490(9) 0.9097(9)
N3B N -0.1623(5) 0.3658(5) 0.8936(3)
N4B N -0.2710(6) 0.2501(7) 0.9140(3)
N5B N -0.2681(6) 0.2561(6) 0.8631(3)
N6B N -0.1561(5) 0.4028(5) 0.7005(3)
O2B O -0.0184(4) 0.3979(4) 1.1556(3)
O3B O -0.1235(4) 0.2970(4) 1.1934(3)
O4B O 0.5045(4) 0.3939(6) 1.1544(3)
O5B O 0.5372(4) 0.4202(6) 1.2324(2)
O6B O 0.4360(4) 0.3341(6) 0.6458(3)
O7B O 0.4546(4) 0.3486(6) 0.5658(3)
O8B O -0.1353(4) 0.3564(4) 0.5931(2)
O9B O -0.0195(4) 0.4515(4) 0.6255(3)
O11B O 0.0635(4) 0.1684(4) 0.5839(3)
O14B O 0.1459(5) 0.1998(5) 1.2440(3)
Co1A* Co 0.59241(7) 1.14647(7) 0.62853(4)
Co1B* Co -0.14647(7) -0.55406(7) 0.62853(4)
Co1B** Co 0.85353(7) 0.44594(7) 0.62853(4)
Co2A* Co 0.53011(7) 1.15512(7) 1.16107(4)
Co2B* Co -0.15512(7) -0.62501(7) 1.16107(4)
Co2B** Co 0.84488(7) 0.37499(7) 1.16107(4)
O1B* O -0.2738(4) 0.3117(4) 1.1817(3)
O4* O 0.6061(4) 0.1106(6) 1.1544(3)
O4A* O -0.1106(4) 0.4955(6) 1.1544(3)
O5* O 0.5798(4) 0.1170(6) 1.2324(2)
O5A* O -0.1170(4) 0.4628(6) 1.2324(2)
O6* O 0.6659(4) 0.1019(6) 0.6458(3)
O6A* O -0.1019(4) 0.5640(6) 0.6458(3)
O7* O 0.6514(4) 0.1060(6) 0.5658(3)
O7A* O -0.1060(4) 0.5454(6) 0.5658(3)
O10B* O -0.2645(4) 0.4088(4) 0.6165(3)
O15A O 0.7488(7) 0.3880(5) 0.3760(3)
O15B O 0.6120(7) 0.3608(5) 0.3760(3)
#END
