
#######################################################################
#
#                 Cambridge Crystallographic Data Centre
#                                CCDC
#
#######################################################################
#
# If this CIF has been generated from an entry in the Cambridge
# Structural Database, then it will include bibliographic, chemical,
# crystal, experimental, refinement or atomic coordinate data resulting
# from the CCDC's data processing and validation procedures.
#
#######################################################################

data_CSD_CIF_NUQWAZ04
_audit_creation_date 2015-09-26
_audit_creation_method CSD-ConQuest-V1
_database_code_CSD NUQWAZ04
_database_code_depnum_ccdc_archive 'CCDC 1400268'
_chemical_formula_sum 'C3.15 H8.15 Mn1 N1.85 O6'
_chemical_formula_moiety
;
(H5 N2 1+)0.85n,0.15n(C1 H6 N1 1+),n(C3 H3 Mn1 O6 1-)
;
_journal_coden_Cambridge 179
_journal_volume 54
_journal_year 2015
_journal_page_first 11093
_journal_name_full 'Angew.Chem.,Int.Ed. '
loop_
_publ_author_name
"Sa Chen"
"Ran Shang"
"Bing-Wu Wang"
"Zhe-Ming Wang"
"Song Gao"
_chemical_name_systematic
;
catena-[(Hydrazinium methylammonium) tris(\m~2~-formato)-manganese]
;
_cell_volume    834.888
_exptl_crystal_colour 'colorless'
_exptl_crystal_density_diffrn 1.773
_exptl_special_details
;
high-temperature polymorph
second-order ferro- to paraelectric phase transition above 330 K
;
_exptl_crystal_description 'rectangular block'
_diffrn_ambient_temperature 340
_refine_special_details
;
The cation is modelled with mixed hydrazinium:methylammonium occupancy. The 
sum formula is C3.15 H8.15 Mn N1.85 O6.
;
#These two values have been output from a single CSD field.
_refine_ls_R_factor_gt 0.0363
_refine_ls_wR_factor_gt 0.0363
_symmetry_cell_setting orthorhombic
_symmetry_space_group_name_H-M 'P n m a'
_symmetry_Int_Tables_number 62
loop_
_symmetry_equiv_pos_site_id
_symmetry_equiv_pos_as_xyz
1 x,y,z
2 1/2-x,-y,1/2+z
3 1/2+x,1/2-y,1/2-z
4 -x,1/2+y,-z
5 -x,-y,-z
6 -1/2+x,y,-1/2-z
7 -1/2-x,-1/2+y,-1/2+z
8 x,-1/2-y,z
_cell_length_a 8.8464(5)
_cell_length_b 11.8827(7)
_cell_length_c 7.9423(4)
_cell_angle_alpha 90
_cell_angle_beta 90
_cell_angle_gamma 90
_cell_formula_units_Z 4
loop_
_atom_type_symbol
_atom_type_radius_bond
C 0.68
H 0.23
Mn 1.61
N 0.68
O 0.68
loop_
_atom_site_label
_atom_site_type_symbol
_atom_site_fract_x
_atom_site_fract_y
_atom_site_fract_z
Mn1 Mn 0.50000 0.00000 0.50000
O1 O 0.4631(2) 0.15725(16) 0.3634(3)
O2 O 0.4020(2) 0.06905(17) 0.7299(2)
O3 O 0.2180(2) 0.06783(18) 0.9187(3)
C1 C 0.4713(5) 0.25000 0.4338(6)
H1 H 0.48480 0.25000 0.55000
C2 C 0.2818(4) 0.0342(3) 0.7885(4)
H2 H 0.23390 -0.02310 0.72930
N1 N 0.4266(5) 0.25000 1.0128(5)
N2 N 0.5792(7) 0.2784(5) 0.9799(9)
C3? C 0.5792(7) 0.2784(5) 0.9799(9)
H3? H 0.3668(11) 0.3098(12) 0.998(6)
H4? H 0.396(2) 0.195(3) 0.943(4)
H5? H 0.4160(15) 0.226(4) 1.119(2)
H6? H 0.6393(8) 0.25000 1.0598(15)
H7? H 0.5908(9) 0.3529(3) 0.9773(14)
H8? H 0.6081(12) 0.25000 0.8806(12)
O1G O 0.4631(2) 0.34275(16) 0.3634(3)
O2D O 0.5980(2) -0.06905(17) 0.2701(2)
O3D O 0.7820(2) -0.06783(18) 0.0813(3)
C2D C 0.7182(4) -0.0342(3) 0.2115(4)
H2D H 0.76610 0.02310 0.27070
Mn1A Mn 0.00000 0.00000 1.00000
Mn1A* Mn 1.00000 0.00000 0.00000
Mn1C Mn 0.50000 0.50000 0.50000
O1D O 0.5369(2) -0.15725(16) 0.6366(3)
O3A O 0.2820(2) -0.06783(18) 0.4187(3)
O3E O 0.7180(2) 0.06783(18) 0.5813(3)
N2G N 0.5792(7) 0.2216(5) 0.9799(9)
#END
