
#######################################################################
#
#                 Cambridge Crystallographic Data Centre
#                                CCDC
#
#######################################################################
#
# If this CIF has been generated from an entry in the Cambridge
# Structural Database, then it will include bibliographic, chemical,
# crystal, experimental, refinement or atomic coordinate data resulting
# from the CCDC's data processing and validation procedures.
#
#######################################################################

data_CSD_CIF_NUTJAO
_audit_creation_date 2010-10-12
_audit_creation_method CSD-ConQuest-V1
_database_code_CSD NUTJAO
_database_code_depnum_ccdc_archive 'CCDC 720034'
_chemical_formula_sum 'C60 H72 Mo12 N12 Ni6 O80 P8'
_chemical_formula_moiety
;
(C40 H40 Mo12 N8 Ni5 O72 P8 2-)n,n(C20 H20 N4 Ni1 O2 2+),6n(H2 O1)
;
_journal_coden_Cambridge 211
_journal_volume 63
_journal_year 2010
_journal_page_first 776
_journal_name_full 'J.Coord.Chem. '
loop_
_publ_author_name
"Zhifeng Zhao"
"Baibin Zhou"
"Zhanhua Su"
_chemical_name_systematic
;
catena-(diaqua-bis(2,2'-bipyridine)-nickel 
bis(\m~7~-phosphato)-bis(\m~3~-monohydrogen 
phosphato)-bis(\m~3~-phosphato)-dodecakis(\m~3~-oxo)-bis(\m~2~-monohydrogen 
phosphato)-dodecakis(\m~2~-oxo)-tetrakis(2,2'-bipyridine)-diaqua-tetradecaoxo-
penta-nickel-dodeca-molybdenum hexahydrate)
;
_cell_volume   5804.849
_exptl_crystal_colour 'green'
_exptl_crystal_density_diffrn 2.286
_exptl_special_details
;
Large structure in which program limits have been exceeded. A full set of 
coordinates are available from the deposited CIF. Our representation of the 
structure is just a guide and a full 2D diagram and a compound name are 
pending
;
_exptl_crystal_description 'block'
_diffrn_ambient_temperature 273
_refine_special_details
;
The structure is disordered.

;
#These two values have been output from a single CSD field.
_refine_ls_R_factor_gt 0.046
_refine_ls_wR_factor_gt 0.046
_symmetry_cell_setting triclinic
_symmetry_space_group_name_H-M 'P -1'
_symmetry_Int_Tables_number 2
loop_
_symmetry_equiv_pos_site_id
_symmetry_equiv_pos_as_xyz
1 x,y,z
2 -x,-y,-z
_cell_length_a 17.0459(9)
_cell_length_b 19.2643(11)
_cell_length_c 19.9357(11)
_cell_angle_alpha 86.946(1)
_cell_angle_beta 79.950(1)
_cell_angle_gamma 64.267(1)
_cell_formula_units_Z 2
loop_
_atom_type_symbol
_atom_type_radius_bond
C 0.68
H 0.23
Mo 1.11
N 0.68
Ni 1.24
O 0.68
P 1.05
loop_
_atom_site_label
_atom_site_type_symbol
_atom_site_fract_x
_atom_site_fract_y
_atom_site_fract_z
Mo1 Mo 0.16118(3) 0.08193(3) 1.03426(2)
Mo2 Mo -0.00103(3) 0.18299(2) 1.06826(2)
Mo3 Mo -0.15827(3) 0.20596(2) 0.96457(2)
Mo4 Mo -0.10816(3) 0.12246(2) 0.85213(2)
Mo5 Mo 0.10988(3) -0.02043(2) 0.81189(2)
Mo6 Mo 0.22423(3) -0.03754(2) 0.88943(2)
Mo7 Mo -0.09759(3) 0.37154(2) 0.59495(2)
Mo8 Mo 0.02572(3) 0.29189(2) 0.49489(2)
Mo9 Mo 0.22194(3) 0.31675(2) 0.46466(2)
Mo10 Mo 0.24094(3) 0.41307(2) 0.53883(2)
Mo11 Mo 0.07054(3) 0.52156(2) 0.67009(2)
Mo12 Mo -0.07689(3) 0.50908(2) 0.69226(2)
Ni1 Ni 0.00000 0.00000 1.00000
Ni2 Ni 0.09833(11) 0.23750(9) 0.75928(7)
Ni3 Ni 0.41738(5) 0.48545(4) 0.70865(4)
Ni4 Ni 0.25493(5) -0.02532(4) 0.45260(4)
Ni5 Ni 0.00000 0.50000 0.50000
P1 P 0.06137(8) 0.14986(7) 0.89508(6)
P2 P 0.33765(9) 0.05990(9) 0.91655(8)
P3 P -0.12995(11) 0.35355(9) 1.01344(9)
P4 P 0.02463(9) 0.11865(8) 0.71026(7)
P5 P -0.11081(9) 0.36650(8) 0.76101(7)
P6 P 0.10282(9) 0.33906(7) 0.62621(6)
P7 P 0.22249(10) 0.14687(7) 0.49427(7)
P8 P 0.27554(9) 0.41376(8) 0.69909(8)
O1 O 0.1924(3) 0.0597(3) 1.1109(2)
O2 O 0.2193(2) -0.0310(2) 0.99444(19)
O3 O 0.2757(3) 0.0889(3) 0.9857(2)
O4 O 0.1064(3) 0.1940(2) 1.03300(19)
O5 O 0.0490(2) 0.0719(2) 1.04691(18)
O6 O -0.0104(3) 0.1838(2) 1.1534(2)
O7 O -0.0665(3) 0.3009(2) 1.0587(2)
O8 O -0.1247(2) 0.1855(2) 1.06258(18)
O9 O -0.2650(3) 0.2235(2) 0.9848(2)
O10 O -0.1812(3) 0.3182(2) 0.9850(2)
O11 O -0.0986(2) 0.0933(2) 0.94871(18)
O12 O -0.1410(3) 0.2308(2) 0.86944(18)
O13 O -0.0140(2) 0.1899(2) 0.95521(18)
O14 O -0.2009(3) 0.1180(2) 0.8412(2)
O15 O -0.0678(3) 0.1433(2) 0.75244(19)
O16 O -0.0247(2) 0.0049(2) 0.82931(18)
O17 O 0.0320(2) 0.10426(19) 0.85191(17)
O18 O 0.1497(3) -0.1104(2) 0.7792(2)
O19 O 0.0836(3) 0.0336(2) 0.72080(18)
O20 O 0.2103(2) 0.0040(2) 0.79911(18)
O21 O 0.1055(2) -0.0366(2) 0.91109(18)
O22 O 0.2893(3) -0.1322(2) 0.8771(2)
O23 O 0.3225(3) -0.0027(2) 0.8850(2)
O24 O 0.1420(2) 0.0905(2) 0.92416(18)
O25 O 0.4307(3) 0.0376(3) 0.9243(3)
O26 O 0.3087(3) 0.1302(3) 0.8662(3)
O27 O -0.0799(5) 0.3819(4) 0.9554(4)
O28 O -0.1998(4) 0.4256(3) 1.0571(4)
O29 O 0.0830(3) 0.2095(2) 0.85311(19)
O30 O 0.0153(3) 0.1241(2) 0.63242(19)
O31 O 0.0694(3) 0.1688(2) 0.7209(2)
O32 O 0.2205(4) 0.1672(5) 0.7551(3)
O33 O 0.1233(5) 0.3199(4) 0.7991(3)
O34 O -0.0211(3) 0.3146(2) 0.7771(2)
O35 O 0.1355(3) 0.2720(2) 0.6738(2)
O36 O 0.0023(2) 0.38577(19) 0.64509(18)
O37 O 0.1446(2) 0.3959(2) 0.62671(18)
O38 O 0.1241(2) 0.30575(19) 0.55280(18)
O39 O -0.0368(2) 0.40428(19) 0.51499(18)
O40 O -0.0168(3) 0.2624(2) 0.58314(19)
O41 O -0.1910(3) 0.3822(2) 0.5692(2)
O42 O -0.1513(2) 0.4875(2) 0.63039(18)
O43 O -0.0324(3) 0.2785(2) 0.4413(2)
O44 O 0.1252(3) 0.1817(2) 0.4867(2)
O45 O 0.1162(2) 0.3166(2) 0.42435(18)
O46 O 0.2655(3) 0.1995(2) 0.4657(2)
O47 O 0.2866(3) 0.3170(2) 0.3909(2)
O48 O 0.2923(2) 0.3017(2) 0.5355(2)
O49 O 0.1470(2) 0.4276(2) 0.48637(18)
O50 O 0.3117(3) 0.4373(2) 0.4848(2)
O51 O 0.3059(2) 0.4028(2) 0.6218(2)
O52 O 0.1569(2) 0.5226(2) 0.58111(19)
O53 O 0.1815(3) 0.4772(2) 0.7176(2)
O54 O 0.0362(3) 0.6126(2) 0.6958(2)
O55 O -0.0117(2) 0.5295(2) 0.60777(18)
O56 O 0.0201(3) 0.4748(2) 0.74326(19)
O57 O -0.1484(3) 0.5976(2) 0.7221(2)
O58 O -0.1275(2) 0.4512(2) 0.76122(19)
O59 O -0.1835(3) 0.3623(2) 0.8189(2)
O60 O -0.1280(3) 0.3446(2) 0.6942(2)
O61 O 0.2741(3) 0.3362(3) 0.7283(2)
O62 O 0.3393(3) 0.4284(2) 0.7328(2)
O63 O 0.2259(3) 0.1383(2) 0.5742(2)
O64 O 0.2758(3) 0.0682(2) 0.4630(2)
O65 O 0.1698(4) -0.0038(3) 0.5500(3)
O66 O 0.4342(3) 0.4573(3) 0.6022(3)
C1 C 0.4986(5) 0.5997(4) 0.6768(4)
H1 H 0.44390 0.63440 0.66670
C2 C 0.5615(5) 0.6266(4) 0.6812(5)
H2 H 0.54910 0.67820 0.67460
C3 C 0.6427(5) 0.5745(4) 0.6958(4)
H3 H 0.68570 0.59090 0.69970
C4 C 0.6594(4) 0.4984(4) 0.7045(4)
H4 H 0.71410 0.46250 0.71350
C5 C 0.5937(4) 0.4755(4) 0.6996(3)
C6 C 0.6054(4) 0.3948(4) 0.7091(3)
C7 C 0.6870(4) 0.3326(4) 0.7112(4)
H5 H 0.73810 0.34010 0.70610
C8 C 0.6910(5) 0.2603(4) 0.7209(4)
H6 H 0.74480 0.21810 0.72260
C9 C 0.6152(5) 0.2508(4) 0.7279(5)
H7 H 0.61700 0.20200 0.73420
C10 C 0.5359(5) 0.3142(4) 0.7256(4)
H8 H 0.48460 0.30710 0.73070
C11 C 0.4522(5) 0.5003(4) 0.8527(4)
H9 H 0.49140 0.44830 0.84830
C12 C 0.4517(6) 0.5434(5) 0.9057(4)
H10 H 0.49100 0.52100 0.93610
C13 C 0.3928(6) 0.6195(6) 0.9133(4)
H11 H 0.39170 0.64930 0.94900
C14 C 0.3354(5) 0.6517(5) 0.8677(4)
H12 H 0.29480 0.70320 0.87210
C15 C 0.3395(4) 0.6053(4) 0.8149(3)
C16 C 0.2821(4) 0.6344(4) 0.7625(4)
C17 C 0.2056(5) 0.7025(4) 0.7710(4)
H13 H 0.18960 0.73350 0.80980
C18 C 0.1530(5) 0.7237(5) 0.7206(5)
H14 H 0.10070 0.76880 0.72560
C19 C 0.1790(5) 0.6776(4) 0.6635(4)
H15 H 0.14500 0.69080 0.62900
C20 C 0.2571(4) 0.6107(4) 0.6582(4)
H16 H 0.27470 0.57930 0.61940
C21 C 0.4276(4) -0.0723(4) 0.5072(3)
H17 H 0.41730 -0.02090 0.50240
C22 C 0.5052(5) -0.1239(5) 0.5267(4)
H18 H 0.54740 -0.10780 0.53360
C23 C 0.5196(5) -0.1986(5) 0.5359(5)
H19 H 0.57110 -0.23390 0.55040
C24 C 0.4570(5) -0.2216(4) 0.5233(5)
H20 H 0.46600 -0.27260 0.52870
C25 C 0.3805(4) -0.1673(3) 0.5026(3)
C26 C 0.3105(5) -0.1860(4) 0.4872(4)
C27 C 0.3033(8) -0.2541(5) 0.5052(6)
H21 H 0.34500 -0.29150 0.52800
C28 C 0.2352(8) -0.2661(6) 0.4894(6)
H22 H 0.23110 -0.31190 0.50100
C29 C 0.1742(7) -0.2118(5) 0.4570(5)
H23 H 0.12750 -0.21910 0.44600
C30 C 0.1833(5) -0.1452(4) 0.4408(4)
H24 H 0.14190 -0.10780 0.41770
C31 C 0.4123(5) -0.0739(5) 0.3347(4)
H25 H 0.44690 -0.09510 0.36840
C32 C 0.4551(7) -0.0764(6) 0.2681(4)
H26 H 0.51640 -0.09920 0.25720
C33 C 0.4027(7) -0.0437(6) 0.2188(5)
H27 H 0.42860 -0.04310 0.17380
C34 C 0.3133(7) -0.0123(6) 0.2364(4)
H28 H 0.27800 0.00950 0.20320
C35 C 0.2738(5) -0.0127(4) 0.3048(3)
C36 C 0.1782(5) 0.0204(4) 0.3293(4)
C37 C 0.1164(6) 0.0422(5) 0.2857(5)
H29 H 0.13460 0.03540 0.23880
C38 C 0.0285(6) 0.0739(5) 0.3130(5)
H30 H -0.01380 0.08780 0.28490
C39 C 0.0040(6) 0.0849(5) 0.3811(6)
H31 H -0.05570 0.10920 0.39970
C40 C 0.0662(5) 0.0607(4) 0.4233(5)
H32 H 0.04800 0.06690 0.47030
N1 N 0.5139(3) 0.5265(3) 0.6865(3)
N2 N 0.5301(3) 0.3852(3) 0.7163(3)
N3 N 0.3976(3) 0.5311(3) 0.8071(3)
N4 N 0.3081(3) 0.5892(3) 0.7059(3)
N5 N 0.3657(3) -0.0938(3) 0.4949(2)
N6 N 0.2482(4) -0.1308(3) 0.4563(3)
N7 N 0.3256(4) -0.0431(3) 0.3530(3)
N8 N 0.1529(4) 0.0282(3) 0.3977(3)
Ni6 Ni 0.62580(5) 0.80677(5) 0.90306(4)
O67 O 0.5939(3) 0.9243(3) 0.9189(2)
O68 O 0.7045(3) 0.7832(3) 0.9793(3)
C41 C 0.8154(5) 0.7726(5) 0.8334(4)
H33 H 0.82990 0.76250 0.87690
C42 C 0.8811(5) 0.7642(5) 0.7798(4)
H34 H 0.93900 0.74810 0.78670
C43 C 0.8603(5) 0.7799(5) 0.7150(4)
H35 H 0.90360 0.77480 0.67760
C44 C 0.7740(5) 0.8033(4) 0.7075(4)
H36 H 0.75840 0.81390 0.66440
C45 C 0.7108(4) 0.8111(4) 0.7631(3)
C46 C 0.6167(4) 0.8338(4) 0.7595(3)
C47 C 0.5829(6) 0.8564(7) 0.6994(4)
H37 H 0.61890 0.85740 0.65890
C48 C 0.4946(6) 0.8772(10) 0.7017(5)
H38 H 0.46960 0.89440 0.66250
C49 C 0.4426(6) 0.8728(9) 0.7614(5)
H39 H 0.38320 0.88520 0.76270
C50 C 0.4806(5) 0.8498(6) 0.8191(4)
H40 H 0.44620 0.84640 0.85970
C51 C 0.7118(6) 0.6333(5) 0.8674(4)
H41 H 0.74500 0.64500 0.83030
C52 C 0.7304(7) 0.5573(5) 0.8789(6)
H42 H 0.77500 0.51850 0.85020
C53 C 0.6814(7) 0.5397(5) 0.9342(5)
H43 H 0.69330 0.48870 0.94380
C54 C 0.6157(6) 0.5978(4) 0.9742(4)
H44 H 0.58190 0.58700 1.01140
C55 C 0.5992(4) 0.6741(4) 0.9591(3)
C56 C 0.5269(4) 0.7411(4) 0.9991(3)
C57 C 0.4693(5) 0.7342(5) 1.0539(4)
H45 H 0.47640 0.68560 1.06900
C58 C 0.4011(5) 0.7994(5) 1.0861(4)
H46 H 0.36100 0.79540 1.12250
C59 C 0.3934(4) 0.8696(4) 1.0640(3)
H47 H 0.34790 0.91440 1.08500
C60 C 0.4537(4) 0.8736(4) 1.0102(3)
H48 H 0.44830 0.92200 0.99570
N9 N 0.7312(3) 0.7946(3) 0.8265(3)
N10 N 0.5656(4) 0.8322(4) 0.8182(3)
N11 N 0.6485(4) 0.6913(3) 0.9069(3)
N12 N 0.5202(3) 0.8109(3) 0.9777(3)
O69 O 0.3529(6) 0.2103(5) 0.6463(4)
O70 O 0.3967(6) 0.5476(6) 0.4782(5)
O71 O 0.6412(4) 0.3766(5) 0.8971(5)
O72 O 0.0257(3) 0.3328(2) 0.8845(2)
O73 O 0.3449(7) 0.3758(7) 0.8691(5)
O74 O 0.2894(6) 0.0002(9) 0.6609(5)
O75 O 0.3974(10) 0.2146(7) 0.8560(7)
O76 O 0.8651(9) 0.4746(10) 0.1427(6)
O77 O 0.7508(12) 0.1157(10) 0.3610(6)
O78 O 0.2044(13) 0.3682(10) 0.9833(11)
O79 O 0.977(3) 0.500(3) 0.8882(12)
O80 O 0.406(2) 0.0609(17) 0.6425(14)
O81 O 0.668(2) 0.2114(18) 0.308(3)
O82? O 0.1002(6) 0.3118(4) 0.9480(4)
Mo1A Mo -0.16118(3) -0.08193(3) 0.96574(2)
Mo2A Mo 0.00103(3) -0.18299(2) 0.93174(2)
Mo3A Mo 0.15827(3) -0.20596(2) 1.03543(2)
Mo4A Mo 0.10816(3) -0.12246(2) 1.14787(2)
Mo5A Mo -0.10988(3) 0.02043(2) 1.18811(2)
Mo6A Mo -0.22423(3) 0.03754(2) 1.11057(2)
Mo7A Mo 0.09759(3) 0.62846(2) 0.40505(2)
Mo8A Mo -0.02572(3) 0.70811(2) 0.50511(2)
Mo9A Mo -0.22194(3) 0.68325(2) 0.53534(2)
Mo10A Mo -0.24094(3) 0.58693(2) 0.46117(2)
Mo11A Mo -0.07054(3) 0.47844(2) 0.32991(2)
Mo12A Mo 0.07689(3) 0.49092(2) 0.30774(2)
O5A O -0.0490(2) -0.0719(2) 0.95309(18)
O11A O 0.0986(2) -0.0933(2) 1.05129(18)
O21A O -0.1055(2) 0.0366(2) 1.08891(18)
O39A O 0.0368(2) 0.59572(19) 0.48501(18)
O49A O -0.1470(2) 0.5724(2) 0.51363(18)
O55A O 0.0117(2) 0.4705(2) 0.39223(18)
#END
