
#######################################################################
#
#                 Cambridge Crystallographic Data Centre
#                                CCDC
#
#######################################################################
#
# If this CIF has been generated from an entry in the Cambridge
# Structural Database, then it will include bibliographic, chemical,
# crystal, experimental, refinement or atomic coordinate data resulting
# from the CCDC's data processing and validation procedures.
#
#######################################################################

data_CSD_CIF_NUVWOR
_audit_creation_date 2010-10-20
_audit_creation_method CSD-ConQuest-V1
_database_code_CSD NUVWOR
_database_code_depnum_ccdc_archive 'CCDC 289452'
_chemical_formula_sum 'C24 H42 La2 Mn3 O39'
_chemical_formula_moiety
;
(C24 H24 La2 Mn2 O30 2-)n,n(H12 Mn1 O6 2+),3n(H2 O1)
;
_journal_coden_Cambridge 1350
_journal_volume 12
_journal_year 2010
_journal_page_first 1086
_journal_name_full 'CrystEngComm '
loop_
_publ_author_name
"Ying Wang"
"Zhen-Jie Zhang"
"Wei Shi"
"Peng Cheng"
"Dai-Zheng Liao"
"Shi-Ping Yan"
_chemical_name_systematic
;
catena-(hexakis(\m~3~-2,2'-oxydiacetato)-di-lanthanum-di-manganese trihydrate)
;
_cell_volume  17519.884
_exptl_crystal_colour 'colorless'
_exptl_crystal_density_diffrn 2.119
_exptl_crystal_description 'block'
_diffrn_ambient_temperature 293
#These two values have been output from a single CSD field.
_refine_ls_R_factor_gt 0.0409
_refine_ls_wR_factor_gt 0.0409
_symmetry_cell_setting cubic
_symmetry_space_group_name_H-M 'F d -3 c'
_symmetry_Int_Tables_number 228
loop_
_symmetry_equiv_pos_site_id
_symmetry_equiv_pos_as_xyz
1 x,y,z
2 1/4-x,3/4-y,1/2+z
3 3/4-x,1/2+y,1/4-z
4 1/2+x,1/4-y,3/4-z
5 z,x,y
6 1/2+z,1/4-x,3/4-y
7 1/4-z,3/4-x,1/2+y
8 3/4-z,1/2+x,1/4-y
9 y,z,x
10 3/4-y,1/2+z,1/4-x
11 1/2+y,1/4-z,3/4-x
12 1/4-y,3/4-z,1/2+x
13 3/4+y,1/4+x,-z
14 1/2-y,1/2-x,1/2-z
15 1/4+y,-x,3/4+z
16 -y,3/4+x,1/4+z
17 3/4+x,1/4+z,-y
18 -x,3/4+z,1/4+y
19 1/2-x,1/2-z,1/2-y
20 1/4+x,-z,3/4+y
21 3/4+z,1/4+y,-x
22 1/4+z,-y,3/4+x
23 -z,3/4+y,1/4+x
24 1/2-z,1/2-y,1/2-x
25 x,1/2+y,1/2+z
26 1/4-x,1/4-y,z
27 3/4-x,y,3/4-z
28 1/2+x,3/4-y,1/4-z
29 z,1/2+x,1/2+y
30 1/2+z,3/4-x,1/4-y
31 1/4-z,1/4-x,y
32 3/4-z,x,3/4-y
33 y,1/2+z,1/2+x
34 3/4-y,z,3/4-x
35 1/2+y,3/4-z,1/4-x
36 1/4-y,1/4-z,x
37 3/4+y,3/4+x,1/2-z
38 1/2-y,-x,-z
39 1/4+y,1/2-x,1/4+z
40 -y,1/4+x,3/4+z
41 3/4+x,3/4+z,1/2-y
42 -x,1/4+z,3/4+y
43 1/2-x,-z,-y
44 1/4+x,1/2-z,1/4+y
45 3/4+z,3/4+y,1/2-x
46 1/4+z,1/2-y,1/4+x
47 -z,1/4+y,3/4+x
48 1/2-z,-y,-x
49 1/2+x,y,1/2+z
50 3/4-x,3/4-y,z
51 1/4-x,1/2+y,3/4-z
52 x,1/4-y,1/4-z
53 1/2+z,x,1/2+y
54 z,1/4-x,1/4-y
55 3/4-z,3/4-x,y
56 1/4-z,1/2+x,3/4-y
57 1/2+y,z,1/2+x
58 1/4-y,1/2+z,3/4-x
59 y,1/4-z,1/4-x
60 3/4-y,3/4-z,x
61 1/4+y,1/4+x,1/2-z
62 -y,1/2-x,-z
63 3/4+y,-x,1/4+z
64 1/2-y,3/4+x,3/4+z
65 1/4+x,1/4+z,1/2-y
66 1/2-x,3/4+z,3/4+y
67 -x,1/2-z,-y
68 3/4+x,-z,1/4+y
69 1/4+z,1/4+y,1/2-x
70 3/4+z,-y,1/4+x
71 1/2-z,3/4+y,3/4+x
72 -z,1/2-y,-x
73 1/2+x,1/2+y,z
74 3/4-x,1/4-y,1/2+z
75 1/4-x,y,1/4-z
76 x,3/4-y,3/4-z
77 1/2+z,1/2+x,y
78 z,3/4-x,3/4-y
79 3/4-z,1/4-x,1/2+y
80 1/4-z,x,1/4-y
81 1/2+y,1/2+z,x
82 1/4-y,z,1/4-x
83 y,3/4-z,3/4-x
84 3/4-y,1/4-z,1/2+x
85 1/4+y,3/4+x,-z
86 -y,-x,1/2-z
87 3/4+y,1/2-x,3/4+z
88 1/2-y,1/4+x,1/4+z
89 1/4+x,3/4+z,-y
90 1/2-x,1/4+z,1/4+y
91 -x,-z,1/2-y
92 3/4+x,1/2-z,3/4+y
93 1/4+z,3/4+y,-x
94 3/4+z,1/2-y,3/4+x
95 1/2-z,1/4+y,1/4+x
96 -z,-y,1/2-x
97 -x,-y,-z
98 -1/4+x,-3/4+y,-1/2-z
99 -3/4+x,-1/2-y,-1/4+z
100 -1/2-x,-1/4+y,-3/4+z
101 -z,-x,-y
102 -1/2-z,-1/4+x,-3/4+y
103 -1/4+z,-3/4+x,-1/2-y
104 -3/4+z,-1/2-x,-1/4+y
105 -y,-z,-x
106 -3/4+y,-1/2-z,-1/4+x
107 -1/2-y,-1/4+z,-3/4+x
108 -1/4+y,-3/4+z,-1/2-x
109 -3/4-y,-1/4-x,z
110 -1/2+y,-1/2+x,-1/2+z
111 -1/4-y,x,-3/4-z
112 y,-3/4-x,-1/4-z
113 -3/4-x,-1/4-z,y
114 x,-3/4-z,-1/4-y
115 -1/2+x,-1/2+z,-1/2+y
116 -1/4-x,z,-3/4-y
117 -3/4-z,-1/4-y,x
118 -1/4-z,y,-3/4-x
119 z,-3/4-y,-1/4-x
120 -1/2+z,-1/2+y,-1/2+x
121 -x,-1/2-y,-1/2-z
122 -1/4+x,-1/4+y,-z
123 -3/4+x,-y,-3/4+z
124 -1/2-x,-3/4+y,-1/4+z
125 -z,-1/2-x,-1/2-y
126 -1/2-z,-3/4+x,-1/4+y
127 -1/4+z,-1/4+x,-y
128 -3/4+z,-x,-3/4+y
129 -y,-1/2-z,-1/2-x
130 -3/4+y,-z,-3/4+x
131 -1/2-y,-3/4+z,-1/4+x
132 -1/4+y,-1/4+z,-x
133 -3/4-y,-3/4-x,-1/2+z
134 -1/2+y,x,z
135 -1/4-y,-1/2+x,-1/4-z
136 y,-1/4-x,-3/4-z
137 -3/4-x,-3/4-z,-1/2+y
138 x,-1/4-z,-3/4-y
139 -1/2+x,z,y
140 -1/4-x,-1/2+z,-1/4-y
141 -3/4-z,-3/4-y,-1/2+x
142 -1/4-z,-1/2+y,-1/4-x
143 z,-1/4-y,-3/4-x
144 -1/2+z,y,x
145 -1/2-x,-y,-1/2-z
146 -3/4+x,-3/4+y,-z
147 -1/4+x,-1/2-y,-3/4+z
148 -x,-1/4+y,-1/4+z
149 -1/2-z,-x,-1/2-y
150 -z,-1/4+x,-1/4+y
151 -3/4+z,-3/4+x,-y
152 -1/4+z,-1/2-x,-3/4+y
153 -1/2-y,-z,-1/2-x
154 -1/4+y,-1/2-z,-3/4+x
155 -y,-1/4+z,-1/4+x
156 -3/4+y,-3/4+z,-x
157 -1/4-y,-1/4-x,-1/2+z
158 y,-1/2+x,z
159 -3/4-y,x,-1/4-z
160 -1/2+y,-3/4-x,-3/4-z
161 -1/4-x,-1/4-z,-1/2+y
162 -1/2+x,-3/4-z,-3/4-y
163 x,-1/2+z,y
164 -3/4-x,z,-1/4-y
165 -1/4-z,-1/4-y,-1/2+x
166 -3/4-z,y,-1/4-x
167 -1/2+z,-3/4-y,-3/4-x
168 z,-1/2+y,x
169 -1/2-x,-1/2-y,-z
170 -3/4+x,-1/4+y,-1/2-z
171 -1/4+x,-y,-1/4+z
172 -x,-3/4+y,-3/4+z
173 -1/2-z,-1/2-x,-y
174 -z,-3/4+x,-3/4+y
175 -3/4+z,-1/4+x,-1/2-y
176 -1/4+z,-x,-1/4+y
177 -1/2-y,-1/2-z,-x
178 -1/4+y,-z,-1/4+x
179 -y,-3/4+z,-3/4+x
180 -3/4+y,-1/4+z,-1/2-x
181 -1/4-y,-3/4-x,z
182 y,x,-1/2+z
183 -3/4-y,-1/2+x,-3/4-z
184 -1/2+y,-1/4-x,-1/4-z
185 -1/4-x,-3/4-z,y
186 -1/2+x,-1/4-z,-1/4-y
187 x,z,-1/2+y
188 -3/4-x,-1/2+z,-3/4-y
189 -1/4-z,-3/4-y,x
190 -3/4-z,-1/2+y,-3/4-x
191 -1/2+z,-1/4-y,-1/4-x
192 z,y,-1/2+x
_cell_length_a 25.9723(6)
_cell_length_b 25.9723(6)
_cell_length_c 25.9723(6)
_cell_angle_alpha 90
_cell_angle_beta 90
_cell_angle_gamma 90
_cell_formula_units_Z 16
loop_
_atom_type_symbol
_atom_type_radius_bond
C 0.68
H 0.23
La 2.08
Mn 1.61
O 0.68
loop_
_atom_site_label
_atom_site_type_symbol
_atom_site_fract_x
_atom_site_fract_y
_atom_site_fract_z
La1 La 0.00000 0.00000 0.75000
Mn1 Mn 0.00000 0.00000 1.00000
Mn2 Mn 0.62500 0.62500 0.12500
O1 O -0.0298(2) 0.0086(2) 0.8365(2)
O2 O -0.0199(2) 0.0138(2) 0.9203(2)
O3 O 0.0662(2) 0.00000 0.8162(2)
O4 O 0.7077(4) 0.62500 0.12500
H1 H 0.73390 0.61410 0.10830
C1 C -0.0014(3) 0.0088(3) 0.8760(4)
C2 C 0.0556(3) 0.0032(4) 0.8697(3)
H2 H 0.07320 0.03260 0.88460
H3 H 0.06750 -0.02770 0.88700
O5 O 0.62500 0.3256(10) 0.12500
La1D La -0.25000 0.00000 1.00000
La1H La 0.00000 -0.25000 1.00000
La1RC La 0.00000 0.00000 1.25000
Mn1N Mn 0.25000 0.00000 0.75000
Mn1Z Mn -0.25000 0.00000 0.75000
Mn1MA Mn 0.00000 0.25000 0.75000
Mn1WB Mn 0.00000 -0.25000 0.75000
Mn1GC Mn 0.00000 0.00000 0.50000
Mn1L Mn -0.25000 0.25000 1.00000
Mn1O Mn 0.00000 -0.25000 1.25000
Mn1JB Mn -0.25000 0.00000 1.25000
O1U O 0.0865(2) -0.0086(2) 0.7202(2)
O1EA O -0.0865(2) -0.0298(2) 0.7414(2)
O1OA O 0.0298(2) 0.0865(2) 0.7586(2)
O1DC O 0.0086(2) -0.0865(2) 0.7798(2)
O1GC O -0.0086(2) 0.0298(2) 0.6635(2)
O1D O -0.1635(2) -0.0298(2) 1.0086(2)
O1P O -0.2798(2) 0.0865(2) 0.9914(2)
O1H O 0.0086(2) -0.1635(2) 0.9702(2)
O1O O -0.0086(2) -0.2798(2) 1.0865(2)
O1RC O 0.0298(2) -0.0086(2) 1.1635(2)
O1MD O -0.0865(2) 0.0086(2) 1.2798(2)
O1GB O -0.2586(2) -0.0865(2) 0.9702(2)
O1JB O -0.2414(2) 0.0298(2) 1.0865(2)
O1Z O -0.2202(2) 0.0086(2) 0.9135(2)
O1UA O -0.3365(2) -0.0086(2) 1.0298(2)
O2U O 0.1703(2) -0.0138(2) 0.7301(2)
O2EA O -0.1703(2) -0.0199(2) 0.7362(2)
O2OA O 0.0199(2) 0.1703(2) 0.7638(2)
O2DC O 0.0138(2) -0.1703(2) 0.7699(2)
O2GC O -0.0138(2) 0.0199(2) 0.5797(2)
O2D O -0.0797(2) -0.0199(2) 1.0138(2)
O2P O -0.2699(2) 0.1703(2) 0.9862(2)
O2H O 0.0138(2) -0.0797(2) 0.9801(2)
O2O O -0.0138(2) -0.2699(2) 1.1703(2)
O2RC O 0.0199(2) -0.0138(2) 1.0797(2)
O2MD O -0.1703(2) 0.0138(2) 1.2699(2)
O2VC O 0.0797(2) 0.0199(2) 0.9862(2)
O2ZC O -0.0138(2) 0.0797(2) 1.0199(2)
O2N O 0.2638(2) 0.0199(2) 0.6703(2)
O2S O 0.2301(2) 0.0797(2) 0.7638(2)
O2IF O 0.3297(2) 0.0138(2) 0.7699(2)
O2BF O 0.2362(2) -0.0199(2) 0.8297(2)
O2GF O 0.2699(2) -0.0797(2) 0.7362(2)
O3EA O -0.0662(2) 0.06620 0.7500(2)
O3DC O 0.0000(2) -0.06620 0.6838(2)
O3D O -0.1838(2) 0.06620 1.0000(2)
O3H O 0.0000(2) -0.18380 1.0662(2)
O3RC O -0.0662(2) 0.00000 1.1838(2)
O3GB O -0.2500(2) -0.06620 1.0662(2)
O3Z O -0.3162(2) 0.00000 0.9338(2)
O4E O 0.6250(4) 0.54230 0.12500
O4K O 0.6250(4) 0.62500 0.20770
O4Y O 0.5423(4) 0.62500 0.12500
O4EA O 0.6250(4) 0.70770 0.12500
O4EB O 0.6250(4) 0.62500 0.04230
H1YA H 0.73390 0.63590 0.14170
H1E H 0.60830 0.51610 0.13590
H1ZB H 0.64170 0.51610 0.11410
H1K H 0.63590 0.64170 0.23390
H1FA H 0.61410 0.60830 0.23390
H1Y H 0.51610 0.63590 0.10830
H1VB H 0.51610 0.61410 0.14170
H1EA H 0.64170 0.73390 0.13590
H1ZA H 0.60830 0.73390 0.11410
H1EB H 0.63590 0.60830 0.01610
H1DC H 0.61410 0.64170 0.01610
C1U C 0.1260(3) -0.0088(3) 0.7486(4)
C1EA C -0.1260(3) -0.0014(3) 0.7412(4)
C1OA C 0.0014(3) 0.1260(3) 0.7588(4)
C1DC C 0.0088(3) -0.1260(3) 0.7514(4)
C1GC C -0.0088(3) 0.0014(3) 0.6240(4)
C1D C -0.1240(3) -0.0014(3) 1.0088(4)
C1P C -0.2514(3) 0.1260(3) 0.9912(4)
C1H C 0.0088(3) -0.1240(3) 0.9986(4)
C1O C -0.0088(3) -0.2514(3) 1.1260(4)
C1RC C 0.0014(3) -0.0088(3) 1.1240(4)
C1MD C -0.1260(3) 0.0088(3) 1.2514(4)
C2U C 0.1197(3) -0.0032(4) 0.8056(3)
C2EA C -0.1197(3) 0.0556(4) 0.7468(3)
C2OA C -0.0556(3) 0.1197(4) 0.7532(3)
C2DC C 0.0032(3) -0.1197(4) 0.6944(3)
C2GC C -0.0032(3) -0.0556(4) 0.6303(3)
C2D C -0.1303(3) 0.0556(4) 1.0032(3)
C2P C -0.1944(3) 0.1197(4) 0.9968(3)
C2H C 0.0032(3) -0.1303(4) 1.0556(3)
C2O C -0.0032(3) -0.1944(4) 1.1197(3)
C2RC C -0.0556(3) -0.0032(4) 1.1303(3)
C2MD C -0.1197(3) 0.0032(4) 1.1944(3)
H2U H 0.13460 -0.03260 0.82320
H2EA H -0.13460 0.07320 0.71740
H2OA H -0.07320 0.13460 0.78260
H2DC H 0.03260 -0.13460 0.67680
H2GC H -0.03260 -0.07320 0.61540
H2D H -0.11540 0.07320 1.03260
H2P H -0.17680 0.13460 0.96740
H2H H 0.03260 -0.11540 1.07320
H2O H -0.03260 -0.17680 1.13460
H2RC H -0.07320 -0.03260 1.11540
H2MD H -0.13460 0.03260 1.17680
H3U H 0.13700 0.02770 0.81750
H3EA H -0.13700 0.06750 0.77770
H3OA H -0.06750 0.13700 0.72230
H3DC H -0.02770 -0.13700 0.68250
H3GC H 0.02770 -0.06750 0.61300
H3D H -0.11300 0.06750 0.97230
H3P H -0.18250 0.13700 1.02770
H3H H -0.02770 -0.11300 1.06750
H3O H 0.02770 -0.18250 1.13700
H3RC H -0.06750 0.02770 1.11300
H3MD H -0.13700 -0.02770 1.18250
#END
