
#######################################################################
#
#                 Cambridge Crystallographic Data Centre
#                                CCDC
#
#######################################################################
#
# If this CIF has been generated from an entry in the Cambridge
# Structural Database, then it will include bibliographic, chemical,
# crystal, experimental, refinement or atomic coordinate data resulting
# from the CCDC's data processing and validation procedures.
#
#######################################################################

data_CSD_CIF_NUYDAN
_audit_creation_date 2010-10-04
_audit_creation_method CSD-ConQuest-V1
_database_code_CSD NUYDAN
_database_code_depnum_ccdc_archive 'CCDC 729427'
_chemical_formula_sum 'C24 H20 Cl4 N2 Na2 O10'
_chemical_formula_moiety
;
(C6 H8 N1 1+)2n,n(C12 H4 Cl4 Na2 O10 2-)
;
_journal_coden_Cambridge 1350
_journal_volume 12
_journal_year 2010
_journal_page_first 925
_journal_name_full 'CrystEngComm '
loop_
_publ_author_name
"K.Molcanov"
"B.Kojic-Prodic"
_chemical_name_systematic
;
catena-(bis(2-Methylpyridinium) 
bis(\m~2~-2,5-dichloro-3,6-dioxocyclohexa-1,4-diene-1,4-diolato)-diaqua-di-sod
ium)
;
_cell_volume    688.465
_exptl_crystal_colour 'red'
_exptl_crystal_density_diffrn 1.65
_exptl_crystal_description 'prism'
_diffrn_ambient_temperature 293
#These two values have been output from a single CSD field.
_refine_ls_R_factor_gt 0.0318
_refine_ls_wR_factor_gt 0.0318
_symmetry_cell_setting triclinic
_symmetry_space_group_name_H-M 'P -1'
_symmetry_Int_Tables_number 2
loop_
_symmetry_equiv_pos_site_id
_symmetry_equiv_pos_as_xyz
1 x,y,z
2 -x,-y,-z
_cell_length_a 4.9601(2)
_cell_length_b 8.4990(4)
_cell_length_c 16.4150(7)
_cell_angle_alpha 88.135(4)
_cell_angle_beta 84.817(3)
_cell_angle_gamma 88.068(4)
_cell_formula_units_Z 1
loop_
_atom_type_symbol
_atom_type_radius_bond
C 0.68
H 0.23
Cl 0.99
N 0.68
Na 1.71
O 0.68
loop_
_atom_site_label
_atom_site_type_symbol
_atom_site_fract_x
_atom_site_fract_y
_atom_site_fract_z
Cl1 Cl 0.02871(7) 0.25813(4) 0.98421(2)
Cl2 Cl 0.08424(9) 0.29022(5) 1.52265(3)
Na1 Na 0.30016(14) -0.03666(8) 1.25491(4)
O1 O 0.2115(2) 0.10147(14) 1.13611(7)
O2 O 0.2128(3) 0.09683(15) 1.37533(7)
O3 O 0.4302(3) 0.14197(15) 1.64578(7)
O4 O -0.0155(2) -0.24297(16) 1.24637(7)
O5 O 0.4008(2) 0.12130(15) 0.85083(7)
N1 N 0.3832(3) 0.52463(17) 1.25893(9)
C1 C 0.3397(3) 0.05740(18) 1.43470(9)
C2 C 0.2895(3) 0.11830(17) 0.99282(9)
C3 C 0.3368(3) 0.05866(17) 1.07158(9)
C4 C 0.4358(3) 0.06933(17) 0.92160(9)
C5 C 0.4540(3) 0.08199(18) 1.57678(9)
C6 C 0.3119(3) 0.13085(19) 1.51071(9)
C7 C 0.5079(3) 0.44584(19) 1.19671(10)
C8 C 0.4420(5) 0.5027(3) 1.33693(12)
C9 C 0.7065(4) 0.3358(2) 1.21364(14)
C10 C 0.6372(5) 0.3955(3) 1.35506(15)
C11 C 0.4246(6) 0.4834(3) 1.11341(14)
C12 C 0.7703(5) 0.3119(3) 1.29279(17)
H1 H -0.130(4) -0.226(3) 1.2913(11)
H2 H -0.105(5) -0.221(3) 1.2013(12)
H3 H 0.248(6) 0.593(3) 1.2477(16)
H4 H 0.795(6) 0.283(3) 1.1724(17)
H5 H 0.337(6) 0.566(3) 1.3761(18)
H6 H 0.909(7) 0.236(4) 1.305(2)
H7 H 0.256(9) 0.452(5) 1.107(2)
H8 H 0.665(7) 0.385(4) 1.410(2)
H9 H 0.532(9) 0.431(5) 1.074(3)
H10 H 0.461(7) 0.586(5) 1.098(2)
Cl1A Cl 0.97129(7) -0.25813(4) 1.01579(2)
Cl2A Cl 0.91576(9) -0.29022(5) 1.47735(3)
Na1A Na 0.69984(14) 0.03666(8) 0.74509(4)
Na1A* Na 0.69984(14) 0.03666(8) 1.74509(4)
O1A O 0.7885(2) -0.10147(14) 0.86389(7)
O2A O 0.7872(3) -0.09683(15) 1.62467(7)
O2A* O 0.7872(3) -0.09683(15) 0.62467(7)
O3A O 0.5698(3) -0.14197(15) 1.35422(7)
O3* O 0.4302(3) 0.14197(15) 0.64578(7)
O4A O 1.0155(2) 0.24297(16) 0.75363(7)
O5A O 0.5992(2) -0.12130(15) 1.14917(7)
C1A C 0.6603(3) -0.05740(18) 1.56530(9)
C2A C 0.7105(3) -0.11830(17) 1.00718(9)
C3A C 0.6632(3) -0.05866(17) 0.92842(9)
C4A C 0.5642(3) -0.06933(17) 1.07840(9)
C5A C 0.5460(3) -0.08199(18) 1.42322(9)
C6A C 0.6881(3) -0.13085(19) 1.48929(9)
H1A H 1.130(4) 0.226(3) 0.7087(11)
H2A H 1.105(5) 0.221(3) 0.7987(12)
#END
