
#######################################################################
#
#                 Cambridge Crystallographic Data Centre
#                                CCDC
#
#######################################################################
#
# If this CIF has been generated from an entry in the Cambridge
# Structural Database, then it will include bibliographic, chemical,
# crystal, experimental, refinement or atomic coordinate data resulting
# from the CCDC's data processing and validation procedures.
#
#######################################################################

data_CSD_CIF_OBEMAJ
_audit_creation_date 2001-09-13
_audit_creation_method CSD-ConQuest-V1
_database_code_CSD OBEMAJ
_database_code_depnum_ccdc_archive 'CCDC 1225354'
_chemical_formula_sum 'C35 H45 N6 Nd3 O33'
_chemical_formula_moiety
;
(H4 N1 1+)n,n(C35 H31 N5 Nd3 O28 1-),5n(H2 O1)
;
_journal_coden_Cambridge 211
_journal_volume 43
_journal_year 1998
_journal_page_first 321
_journal_name_full 'J.Coord.Chem. '
loop_
_publ_author_name
"Z.Rzaczynska"
"W.Brzyska"
"R.Mrozek"
"W.Ozga"
"T.Glowiak"
_chemical_name_systematic
;
catena-(Ammonium 
(\m~3~-pyridine-2,6-dicarboxylato)-bis(\m~2~-pyridine-2,6-dicarboxylato)-bis(p
yridine-2,6-dicarboxylato)-octaaqua-tri-neodymium(iii) pentahydrate)
;
_cell_volume   4947.273
_exptl_crystal_colour 'light violet'
_exptl_crystal_density_diffrn 2.031
_exptl_special_details
;
Cell parameter beta given as 112.55, we calculate 114,55

;
_diffrn_ambient_temperature 296.15
#These two values have been output from a single CSD field.
_refine_ls_R_factor_gt 0.03
_refine_ls_wR_factor_gt 0.03
_symmetry_cell_setting monoclinic
_symmetry_space_group_name_H-M 'C 2/c'
_symmetry_Int_Tables_number 15
loop_
_symmetry_equiv_pos_site_id
_symmetry_equiv_pos_as_xyz
1 x,y,z
2 -x,y,1/2-z
3 1/2+x,1/2+y,z
4 1/2-x,1/2+y,1/2-z
5 -x,-y,-z
6 x,-y,-1/2+z
7 -1/2-x,-1/2-y,-z
8 -1/2+x,-1/2-y,-1/2+z
_cell_length_a 22.205(4)
_cell_length_b 13.774(3)
_cell_length_c 17.783(4)
_cell_angle_alpha 90
_cell_angle_beta 114.55(3)
_cell_angle_gamma 90
_cell_formula_units_Z 4
loop_
_atom_type_symbol
_atom_type_radius_bond
C 0.68
H 0.23
N 0.68
Nd 1.81
O 0.68
loop_
_atom_site_label
_atom_site_type_symbol
_atom_site_fract_x
_atom_site_fract_y
_atom_site_fract_z
Nd1 Nd 0.25634(2) 0.18589(3) 0.27559(2)
Nd2 Nd 0.00000 -0.01799(4) 0.25000
O1 O 0.2483(2) 0.3082(4) 0.3684(3)
O2 O 0.2726(3) 0.3756(4) 0.4903(3)
O3 O 0.3359(2) 0.0525(4) 0.3140(3)
O4 O 0.4104(4) -0.0412(6) 0.4048(4)
O5 O 0.0821(2) 0.1112(4) 0.2702(3)
O6 O 0.1371(2) 0.2133(4) 0.2252(3)
O7 O -0.0888(2) -0.0629(4) 0.1119(3)
O8 O -0.1417(2) -0.0523(4) -0.0251(3)
O9 O 0.0888(2) -0.0990(4) 0.2221(3)
O10 O -0.1432(2) -0.2311(4) 0.2860(3)
O11 O 0.2160(2) 0.0745(4) 0.3584(3)
O12 O 0.1940(3) 0.0310(4) 0.1948(3)
O13 O 0.2581(4) 0.1703(4) 0.1372(4)
O14 O 0.2250(3) 0.3472(4) 0.1978(4)
N1 N 0.3383(3) 0.1752(4) 0.4262(4)
N2 N -0.0055(2) 0.0739(4) 0.1198(3)
N3 N 0.00000 -0.2013(6) 0.25000
C1 C 0.3353(3) 0.2416(5) 0.4818(4)
C2 C 0.3792(4) 0.2359(6) 0.5648(4)
C3 C 0.4259(4) 0.1659(6) 0.5894(5)
C4 C 0.4290(4) 0.0967(7) 0.5342(5)
C5 C 0.3824(3) 0.1045(6) 0.4519(5)
C6 C 0.2816(3) 0.3137(5) 0.4440(4)
C7 C 0.3765(4) 0.0327(6) 0.3852(5)
C8 C 0.0390(3) 0.1422(5) 0.1275(4)
C9 C 0.0387(4) 0.1956(5) 0.0614(4)
C10 C -0.0099(4) 0.1748(6) -0.0158(5)
C11 C -0.0555(3) 0.1040(5) -0.0250(4)
C12 C -0.0519(3) 0.0548(5) 0.0447(4)
C13 C 0.0900(3) 0.1578(5) 0.2151(4)
C14 C -0.0986(3) -0.0262(5) 0.0420(4)
C15 C 0.0474(3) -0.2520(5) 0.2385(4)
C16 C 0.0490(4) -0.3514(6) 0.2387(5)
C17 C 0.00000 -0.4049(8) 0.25000
C18 C 0.0983(3) -0.1886(6) 0.2254(4)
H1 H 0.16600 0.09130 0.33150
H2 H 0.22380 0.09820 0.41210
H3 H 0.18330 0.03470 0.14140
H4 H 0.14540 -0.00640 0.18140
H5 H 0.24110 0.19590 0.09160
H6 H 0.24730 0.11040 0.12590
H7 H 0.23100 0.40640 0.21160
H8 H 0.18600 0.36110 0.16190
H9 H 0.37640 0.27990 0.60290
H10 H 0.45650 0.16380 0.64430
H11 H 0.46060 0.04760 0.55110
H12 H 0.07010 0.24370 0.06880
H13 H -0.01160 0.20900 -0.06170
H14 H -0.08810 0.08900 -0.07690
H15 H 0.08300 -0.38340 0.23120
H16 H 0.00000 -0.47190 0.25000
O15 O 0.0925(5) 0.4024(6) 0.2514(5)
H17 H 0.10230 0.31830 0.25310
H18 H 0.11020 0.42720 0.21150
O16 O 0.3236(4) 0.0066(6) 0.1116(7)
H19 H 0.29940 0.06390 0.09080
H20 H 0.29180 -0.04140 0.11090
O17 O 0.1915(8) -0.1909(12) 0.4270(8)
N4 N 0.3684(13) 0.1350(11) 0.0198(16)
O5A O -0.0821(2) 0.1112(4) 0.2298(3)
C13A C -0.0900(3) 0.1578(5) 0.2849(4)
O6A O -0.1371(2) 0.2133(4) 0.2748(3)
Nd1A Nd -0.25634(2) 0.18589(3) 0.22441(2)
O1A O -0.2483(2) 0.3082(4) 0.1316(3)
C6A C -0.2816(3) 0.3137(5) 0.0560(4)
O2A O -0.2726(3) 0.3756(4) 0.0097(3)
C1A C -0.3353(3) 0.2416(5) 0.0182(4)
N1A N -0.3383(3) 0.1752(4) 0.0738(4)
O3A O -0.3359(2) 0.0525(4) 0.1860(3)
C7A C -0.3765(4) 0.0327(6) 0.1148(5)
O4A O -0.4104(4) -0.0412(6) 0.0952(4)
C5A C -0.3824(3) 0.1045(6) 0.0481(5)
C4A C -0.4290(4) 0.0967(7) -0.0342(5)
C3A C -0.4259(4) 0.1659(6) -0.0894(5)
C2A C -0.3792(4) 0.2359(6) -0.0648(4)
H9A H -0.37640 0.27990 -0.10290
H10A H -0.45650 0.16380 -0.14430
H11A H -0.46060 0.04760 -0.05110
O10C O -0.3568(2) 0.2689(4) 0.2140(3)
O11A O -0.2160(2) 0.0745(4) 0.1416(3)
H1A H -0.16600 0.09130 0.16850
H2A H -0.22380 0.09820 0.08790
O12A O -0.1940(3) 0.0310(4) 0.3052(3)
H3A H -0.18330 0.03470 0.35860
H4A H -0.14540 -0.00640 0.31860
O13A O -0.2581(4) 0.1703(4) 0.3628(4)
H5A H -0.24110 0.19590 0.40840
H6A H -0.24730 0.11040 0.37410
O14A O -0.2250(3) 0.3472(4) 0.3022(4)
H7A H -0.23100 0.40640 0.28840
H8A H -0.18600 0.36110 0.33810
C8A C -0.0390(3) 0.1422(5) 0.3725(4)
O7A O 0.0888(2) -0.0629(4) 0.3881(3)
O9A O -0.0888(2) -0.0990(4) 0.2779(3)
N2A N 0.0055(2) 0.0739(4) 0.3802(3)
C15A C -0.0474(3) -0.2520(5) 0.2615(4)
C16A C -0.0490(4) -0.3514(6) 0.2613(5)
C12A C 0.0519(3) 0.0548(5) 0.4553(4)
C9A C -0.0387(4) 0.1956(5) 0.4386(4)
H15A H -0.08300 -0.38340 0.26880
C18A C -0.0983(3) -0.1886(6) 0.2746(4)
O10B O 0.3568(2) 0.2689(4) 0.2860(3)
C14A C 0.0986(3) -0.0262(5) 0.4580(4)
O10A O 0.1432(2) -0.2311(4) 0.2140(3)
C11A C 0.0555(3) 0.1040(5) 0.5250(4)
C10A C 0.0099(4) 0.1748(6) 0.5158(5)
H12A H -0.07010 0.24370 0.43120
Nd1B Nd -0.24366(2) -0.31411(3) 0.27559(2)
O8A O 0.1417(2) -0.0523(4) 0.5251(3)
Nd1C Nd 0.24366(2) -0.31411(3) 0.22441(2)
H14A H 0.08810 0.08900 0.57690
H13A H 0.01160 0.20900 0.56170
#END
