
#######################################################################
#
#                 Cambridge Crystallographic Data Centre
#                                CCDC
#
#######################################################################
#
# If this CIF has been generated from an entry in the Cambridge
# Structural Database, then it will include bibliographic, chemical,
# crystal, experimental, refinement or atomic coordinate data resulting
# from the CCDC's data processing and validation procedures.
#
#######################################################################

data_CSD_CIF_OBEVOG
_audit_creation_date 2001-09-13
_audit_creation_method CSD-ConQuest-V1
_database_code_CSD OBEVOG
_database_code_depnum_ccdc_archive 'CCDC 161579'
_chemical_formula_sum 'C20 H33 Cu3 N8 O44.5 V10'
_chemical_formula_moiety
;
(C20 H16 Cu3 N8 O10 2+)n,n(H4 O28 V10 2-),6.5n(H2 O1)
;
_journal_coden_Cambridge 9
_journal_volume 40
_journal_year 2001
_journal_page_first 1380
_journal_name_full 'Inorg.Chem. '
loop_
_publ_author_name
"Li-Min Zheng"
"Yongsheng Wang"
"Xiqu Wang"
"J.D.Korp"
"A.J.Jacobson"
_chemical_name_systematic
;
catena-(Diaqua-tetrakis(\m~2~-2-pyrazinecarboxylato)-tri-copper(ii) 
tetrakis(\m~2~-hydroxo)-tetracosa-oxo-deca-vanadium hydrate)
;
_cell_volume   1311.507
_exptl_crystal_colour 'green'
_exptl_crystal_density_diffrn 2.276
_exptl_crystal_description 'flat needle'
_diffrn_ambient_temperature ?
_diffrn_special_details
;
The study was carried out at room temperature,in the range 283-303K

;
_refine_special_details
;
Water molecules are disordered.

;
#These two values have been output from a single CSD field.
_refine_ls_R_factor_gt 0.037
_refine_ls_wR_factor_gt 0.037
_symmetry_cell_setting triclinic
_symmetry_space_group_name_H-M 'P -1'
_symmetry_Int_Tables_number 2
loop_
_symmetry_equiv_pos_site_id
_symmetry_equiv_pos_as_xyz
1 x,y,z
2 -x,-y,-z
_cell_length_a 10.5896(10)
_cell_length_b 10.7921(10)
_cell_length_c 13.5168(13)
_cell_angle_alpha 104.689(2)
_cell_angle_beta 99.103(2)
_cell_angle_gamma 113.419(2)
_cell_formula_units_Z 1
loop_
_atom_type_symbol
_atom_type_radius_bond
C 0.68
H 0.23
Cu 1.52
N 0.68
O 0.68
V 1.29
loop_
_atom_site_label
_atom_site_type_symbol
_atom_site_fract_x
_atom_site_fract_y
_atom_site_fract_z
Cu1 Cu 0.00000 0.00000 0.00000
Cu2 Cu 0.50000 0.00000 0.00000
Cu3 Cu 0.50000 0.00000 0.50000
V1 V -0.09198(6) -0.90640(6) 0.50784(4)
V2 V -0.23703(6) -1.21977(7) 0.51410(5)
V3 V -0.04935(7) -0.87218(7) 0.29224(5)
V4 V -0.19384(6) -1.18169(7) 0.29871(5)
V5 V -0.11679(6) -0.94765(7) 0.72666(5)
O1 O 0.1846(3) -0.0039(3) 0.0035(2)
O2 O 0.4173(2) 0.1405(3) 0.0241(2)
O3 O 0.5893(3) 0.2043(3) 0.5216(2)
O4 O 0.6565(4) 0.3552(3) 0.4309(2)
O5 O -0.1614(3) -0.8674(3) 0.6113(2)
O6 O -0.2450(2) -1.0985(3) 0.4291(2)
O7 O -0.1281(3) -0.8243(3) 0.4236(2)
O8 O 0.1104(3) -0.7555(3) 0.5869(2)
O9 O 0.0170(2) -0.9768(2) 0.4080(2)
O10 O -0.3842(3) -1.3666(3) 0.4504(2)
O11 O -0.1326(3) -1.2879(3) 0.6011(2)
H1 H -0.1835(40) -1.3596(32) 0.6219(34)
O12 O -0.0916(3) -0.7786(3) 0.2296(2)
O13 O -0.2115(3) -1.0477(3) 0.2427(2)
O14 O -0.3424(3) -1.3265(3) 0.2340(2)
O15 O -0.1942(3) -0.8937(3) 0.8085(2)
O16 O -0.0658(3) -1.2066(3) 0.2268(2)
O17 O -0.2796(3) -1.1269(3) 0.6235(2)
O18 O 0.0513(3) -0.9418(3) 0.2142(2)
O19 O 0.7168(3) 0.2231(4) 0.0576(3)
H2 H 0.7256(60) 0.3050(63) 0.1059(45)
H3 H 0.7871(61) 0.2098(59) 0.0928(43)
N1 N 0.1145(3) 0.2082(3) 0.0186(2)
N2 N 0.3122(4) 0.4833(4) 0.0339(3)
N3 N 0.5046(3) -0.0253(3) 0.3497(2)
N4 N 0.5080(3) -0.0106(3) 0.1483(2)
C1 C 0.0738(4) 0.3117(4) 0.0217(3)
H4 H -0.0207(4) 0.2928(4) 0.0186(3)
C2 C 0.1747(4) 0.4484(4) 0.0297(4)
H5 H 0.1446(4) 0.5189(4) 0.0322(4)
C3 C 0.3505(4) 0.3772(4) 0.0301(3)
H6 H 0.4448(4) 0.3960(4) 0.0324(3)
C4 C 0.2530(3) 0.2409(4) 0.0229(3)
C5 C 0.2892(3) 0.1165(3) 0.0161(2)
C6 C 0.4640(4) -0.1454(4) 0.2664(3)
H7 H 0.4329(4) -0.2340(4) 0.2759(3)
C7 C 0.4682(4) -0.1377(4) 0.1647(3)
H8 H 0.4433(4) -0.2210(4) 0.1079(3)
C8 C 0.5512(4) 0.1100(4) 0.2334(3)
H9 H 0.5817(4) 0.1990(4) 0.2244(3)
C9 C 0.5503(4) 0.1014(4) 0.3349(3)
C10 C 0.6035(4) 0.2332(4) 0.4360(3)
O20 O -0.0718(12) -0.5674(12) 0.7531(9)
O21? O 0.0043(12) -0.5327(11) 0.7991(9)
O22 O 0.1141(11) -0.4975(10) 0.6318(8)
O23? O 0.0555(10) -0.5028(10) 0.5692(8)
O24 O -0.4075(6) -0.3430(6) 0.7261(4)
O25? O -0.4814(17) -0.3939(17) 0.7444(12)
O26 O -0.2901(9) -0.4931(8) 0.6745(6)
O27? O -0.2479(8) -0.5095(8) 0.6852(6)
O28 O 0.2441(14) -0.4497(14) 0.7842(10)
O1A O -0.1846(3) 0.0039(3) -0.0035(2)
O2A O -0.4173(2) -0.1405(3) -0.0241(2)
N1A N -0.1145(3) -0.2082(3) -0.0186(2)
N2A N -0.3122(4) -0.4833(4) -0.0339(3)
C1A C -0.0738(4) -0.3117(4) -0.0217(3)
H4A H 0.0207(4) -0.2928(4) -0.0186(3)
C2A C -0.1747(4) -0.4484(4) -0.0297(4)
H5A H -0.1446(4) -0.5189(4) -0.0322(4)
C3A C -0.3505(4) -0.3772(4) -0.0301(3)
H6A H -0.4448(4) -0.3960(4) -0.0324(3)
C4A C -0.2530(3) -0.2409(4) -0.0229(3)
C5A C -0.2892(3) -0.1165(3) -0.0161(2)
O19A O 0.2832(3) -0.2231(4) -0.0576(3)
H2A H 0.2744(60) -0.3050(63) -0.1059(45)
H3A H 0.2129(61) -0.2098(59) -0.0928(43)
O3A O 0.4107(3) -0.2043(3) -0.5216(2)
O4A O 0.3435(4) -0.3552(3) -0.4309(2)
N3A N 0.4954(3) 0.0253(3) -0.3497(2)
N4A N 0.4920(3) 0.0106(3) -0.1483(2)
C6A C 0.5360(4) 0.1454(4) -0.2664(3)
H7A H 0.5671(4) 0.2340(4) -0.2759(3)
C7A C 0.5318(4) 0.1377(4) -0.1647(3)
H8A H 0.5567(4) 0.2210(4) -0.1079(3)
C8A C 0.4488(4) -0.1100(4) -0.2334(3)
H9A H 0.4183(4) -0.1990(4) -0.2244(3)
C9A C 0.4497(4) -0.1014(4) -0.3349(3)
C10A C 0.3965(4) -0.2332(4) -0.4360(3)
O9A O -0.0170(2) -1.0232(2) 0.5920(2)
V1A V 0.09198(6) -1.09360(6) 0.49216(4)
V2A V 0.23703(6) -0.78023(7) 0.48590(5)
V3A V 0.04935(7) -1.12782(7) 0.70776(5)
V4A V 0.19384(6) -0.81831(7) 0.70129(5)
O8A O -0.1104(3) -1.2445(3) 0.4131(2)
O11A O 0.1326(3) -0.7121(3) 0.3989(2)
H1A H 0.1835(40) -0.6404(32) 0.3781(34)
O16A O 0.0658(3) -0.7934(3) 0.7732(2)
O18A O -0.0513(3) -1.0582(3) 0.7858(2)
O5A O 0.1614(3) -1.1326(3) 0.3887(2)
O6A O 0.2450(2) -0.9015(3) 0.5709(2)
O7A O 0.1281(3) -1.1757(3) 0.5764(2)
O10A O 0.3842(3) -0.6334(3) 0.5496(2)
O17A O 0.2796(3) -0.8731(3) 0.3765(2)
O12A O 0.0916(3) -1.2214(3) 0.7704(2)
O13A O 0.2115(3) -0.9523(3) 0.7573(2)
O14A O 0.3424(3) -0.6735(3) 0.7660(2)
V5A V 0.11679(6) -1.05235(7) 0.27334(5)
O15A O 0.1942(3) -1.1063(3) 0.1915(2)
O2A* O 0.5827(2) -0.1405(3) -0.0241(2)
O3A* O 0.4107(3) -0.2043(3) 0.4784(2)
N3A* N 0.4954(3) 0.0253(3) 0.6503(2)
Cu2* Cu -0.50000 0.00000 0.00000
Cu3* Cu 0.50000 0.00000 -0.50000
#END
