
#######################################################################
#
#                 Cambridge Crystallographic Data Centre
#                                CCDC
#
#######################################################################
#
# If this CIF has been generated from an entry in the Cambridge
# Structural Database, then it will include bibliographic, chemical,
# crystal, experimental, refinement or atomic coordinate data resulting
# from the CCDC's data processing and validation procedures.
#
#######################################################################

data_CSD_CIF_OBEVIA
_audit_creation_date 2001-09-12
_audit_creation_method CSD-ConQuest-V1
_database_code_CSD OBEVIA
_database_code_depnum_ccdc_archive 'CCDC 161578'
_chemical_formula_sum 'C20 H32 Cu4 Mo8 N8 O44'
_chemical_formula_moiety
;
(C10 H14 Cu2 N4 O8 2+)2n,n(Mo8 O26 4-),2n(H2 O1)
;
_journal_coden_Cambridge 9
_journal_volume 40
_journal_year 2001
_journal_page_first 1380
_journal_name_full 'Inorg.Chem. '
loop_
_publ_author_name
"Li-Min Zheng"
"Yongsheng Wang"
"Xiqu Wang"
"J.D.Korp"
"A.J.Jacobson"
_chemical_name_systematic
;
catena-(bis(bis(\m~2~-2-Pyrazinecarboxylato)-tetraaqua-di-copper(ii)) 
hexacosa-oxo-octa-molybdenum dihydrate)
;
_cell_volume   2388.493
_exptl_crystal_colour 'blue'
_exptl_crystal_density_diffrn 2.934
_exptl_crystal_description 'block'
_diffrn_ambient_temperature ?
_diffrn_special_details
;
The study was carried out at room temperature,in the range 283-303K

;
#These two values have been output from a single CSD field.
_refine_ls_R_factor_gt 0.0218
_refine_ls_wR_factor_gt 0.0218
_symmetry_cell_setting monoclinic
_symmetry_space_group_name_H-M 'P 21/n'
_symmetry_Int_Tables_number 14
loop_
_symmetry_equiv_pos_site_id
_symmetry_equiv_pos_as_xyz
1 x,y,z
2 1/2-x,1/2+y,1/2-z
3 -x,-y,-z
4 -1/2+x,-1/2-y,-1/2+z
_cell_length_a 11.1547(5)
_cell_length_b 13.4149(6)
_cell_length_c 15.9633(7)
_cell_angle_alpha 90
_cell_angle_beta 90.816(1)
_cell_angle_gamma 90
_cell_formula_units_Z 2
loop_
_atom_type_symbol
_atom_type_radius_bond
C 0.68
H 0.23
Cu 1.52
Mo 1.39
N 0.68
O 0.69
loop_
_atom_site_label
_atom_site_type_symbol
_atom_site_fract_x
_atom_site_fract_y
_atom_site_fract_z
Cu1 Cu 0.59563(5) 0.44988(4) 0.27198(3)
Cu2 Cu 1.09372(5) 0.24653(4) 0.05869(3)
N1 N 0.7355(3) 0.4170(2) 0.1985(2)
N2 N 0.9313(3) 0.3402(2) 0.1142(2)
N3 N 0.2394(3) 0.3098(2) 0.1100(2)
N4 N 0.4382(3) 0.3775(2) 0.1981(2)
O1 O 0.6440(3) 0.3279(2) 0.3279(2)
O2 O 0.7823(3) 0.2093(2) 0.3312(2)
O3 O 0.1066(3) 0.1648(2) 0.1586(2)
O4 O 0.2126(3) 0.1369(2) 0.2747(2)
O5 O 0.5013(3) 0.4784(2) 0.3739(2)
H1 H 0.4219(12) 0.4758(32) 0.3648(27)
H2 H 0.5033(40) 0.5384(16) 0.3981(25)
O6 O 0.5517(3) 0.5730(2) 0.2118(2)
H3 H 0.4841(22) 0.6039(29) 0.2241(27)
H4 H 0.6005(32) 0.6239(22) 0.2005(26)
O7 O 0.9740(3) 0.1507(2) 0.0131(2)
H5 H 0.8971(15) 0.1661(35) 0.0032(28)
H6 H 0.9892(42) 0.1061(26) -0.0269(21)
O8 O 1.1016(3) 0.3271(3) -0.0432(2)
H7 H 1.1480(35) 0.3047(33) -0.0842(21)
H8 H 1.0288(20) 0.3432(35) -0.0637(27)
C1 C 0.7788(4) 0.4626(3) 0.1309(3)
H9 H 0.7388(42) 0.5161(33) 0.1104(27)
C2 C 0.8747(4) 0.4226(3) 0.0892(3)
H10 H 0.9045(41) 0.4476(32) 0.0411(30)
C3 C 0.8875(4) 0.2962(3) 0.1823(3)
H11 H 0.9195(41) 0.2417(33) 0.1964(28)
C4 C 0.7904(4) 0.3336(3) 0.2243(2)
C5 C 0.7371(4) 0.2852(3) 0.3000(3)
C6 C 0.3028(4) 0.3863(3) 0.0824(3)
H12 H 0.2858(44) 0.4182(33) 0.0341(31)
C7 C 0.4014(4) 0.4203(3) 0.1275(3)
H13 H 0.4468(43) 0.4721(34) 0.1068(28)
C8 C 0.3743(4) 0.2995(3) 0.2248(3)
H14 H 0.3968(40) 0.2703(31) 0.2791(28)
C9 C 0.2751(4) 0.2655(3) 0.1816(2)
C10 C 0.1948(4) 0.1818(3) 0.2092(3)
Mo1 Mo 0.12201(3) 0.58586(2) 0.50502(2)
Mo2 Mo 0.11435(3) 0.42958(3) 0.35177(2)
Mo3 Mo 0.11313(3) 0.24642(3) 0.48553(2)
Mo4 Mo 0.11847(3) 0.40843(3) 0.63990(2)
O9 O 0.0910(2) 0.4309(2) 0.4978(2)
O10 O 0.0851(2) 0.5702(2) 0.3860(2)
O11 O 0.0813(3) 0.2944(2) 0.3742(2)
O12 O 0.0951(3) 0.2757(2) 0.6026(2)
O13 O 0.0884(2) 0.5543(2) 0.6213(2)
O14 O 0.2734(3) 0.5892(2) 0.5034(2)
O15 O 0.0796(3) 0.7113(2) 0.5090(2)
O16 O 0.0860(3) 0.4364(2) 0.2471(2)
O17 O 0.2665(3) 0.4318(2) 0.3612(2)
O18 O 0.0836(3) 0.1226(2) 0.4808(2)
O19 O 0.2661(3) 0.2544(2) 0.4828(2)
O20 O 0.2708(3) 0.4189(2) 0.6399(2)
O21 O 0.0836(3) 0.3991(2) 0.7427(2)
O22 O 1.4085(3) 0.0894(3) 0.3883(2)
H15 H 1.4249(46) 0.0611(33) 0.3393(16)
H16 H 1.3404(26) 0.1242(33) 0.3859(31)
N3* N 1.2394(3) 0.3098(2) 0.1100(2)
O3* O 1.1066(3) 0.1648(2) 0.1586(2)
Cu2* Cu 0.09372(5) 0.24653(4) 0.05869(3)
O9B O -0.0910(2) 0.5691(2) 0.5022(2)
O13B O -0.0884(2) 0.4457(2) 0.3787(2)
O15B O -0.0796(3) 0.2887(2) 0.4910(2)
O10B O -0.0851(2) 0.4298(2) 0.6140(2)
Mo1B Mo -0.12201(3) 0.41414(2) 0.49498(2)
Mo4B Mo -0.11847(3) 0.59157(3) 0.36010(2)
Mo2B Mo -0.11435(3) 0.57042(3) 0.64823(2)
Mo3B Mo -0.11313(3) 0.75358(3) 0.51447(2)
O11B O -0.0813(3) 0.7056(2) 0.6258(2)
O16B O -0.0860(3) 0.5636(2) 0.7529(2)
O17B O -0.2665(3) 0.5682(2) 0.6388(2)
O12B O -0.0951(3) 0.7243(2) 0.3974(2)
O18B O -0.0836(3) 0.8774(2) 0.5192(2)
O19B O -0.2661(3) 0.7456(2) 0.5172(2)
O20B O -0.2708(3) 0.5811(2) 0.3601(2)
O21B O -0.0836(3) 0.6009(2) 0.2573(2)
O14B O -0.2734(3) 0.4108(2) 0.4966(2)
#END
