
#######################################################################
#
#                 Cambridge Crystallographic Data Centre
#                                CCDC
#
#######################################################################
#
# If this CIF has been generated from an entry in the Cambridge
# Structural Database, then it will include bibliographic, chemical,
# crystal, experimental, refinement or atomic coordinate data resulting
# from the CCDC's data processing and validation procedures.
#
#######################################################################

data_CSD_CIF_OBICOS
_audit_creation_date 2004-12-15
_audit_creation_method CSD-ConQuest-V1
_database_code_CSD OBICOS
_database_code_depnum_ccdc_archive 'CCDC 230020'
_chemical_formula_sum 'C8 H30 Al2 F6 N4 O7 P2'
_chemical_formula_moiety
;
(C3 H12 N2 2+)2n,n(C2 H4 Al2 F6 O6 P2 4-),n(H2 O1)
;
_journal_coden_Cambridge 208
_journal_volume 177
_journal_year 2004
_journal_page_first 2951
_journal_name_full 'J.Solid State Chem. '
loop_
_publ_author_name
"M.P.Attfield"
"H.G.Harvey"
"S.J.Teat"
_chemical_name_systematic
;
catena-(bis(1,3-Propanediammonium) 
(\m~4~-ethylenediphosphonato)-bis(\m~2~-fluoro)-tetrafluoro-tetra-aluminium 
monohydrate)
;
_cell_volume   1974.417
_exptl_crystal_colour 'colorless'
_exptl_crystal_density_diffrn 1.764
_exptl_crystal_description 'plate'
_diffrn_ambient_temperature 150
#These two values have been output from a single CSD field.
_refine_ls_R_factor_gt 0.0455
_refine_ls_wR_factor_gt 0.0455
_symmetry_cell_setting monoclinic
_symmetry_space_group_name_H-M 'C 2/c'
_symmetry_Int_Tables_number 15
loop_
_symmetry_equiv_pos_site_id
_symmetry_equiv_pos_as_xyz
1 x,y,z
2 1/2+x,1/2+y,z
3 x,-y,1/2+z
4 1/2+x,1/2-y,1/2+z
5 -x,-y,-z
6 -1/2-x,-1/2-y,-z
7 -x,y,-1/2-z
8 -1/2-x,-1/2+y,-1/2-z
_cell_length_a 16.9697(7)
_cell_length_b 8.0273(4)
_cell_length_c 16.3797(8)
_cell_angle_alpha 90
_cell_angle_beta 117.762(2)
_cell_angle_gamma 90
_cell_formula_units_Z 4
loop_
_atom_type_symbol
_atom_type_radius_bond
C 0.68
H 0.23
Al 1.25
F 0.64
N 0.68
O 0.68
P 1.05
loop_
_atom_site_label
_atom_site_type_symbol
_atom_site_fract_x
_atom_site_fract_y
_atom_site_fract_z
Al1 Al 0.17208(5) 0.28123(10) -0.08761(6)
P1 P 0.22021(5) 0.53834(8) 0.06690(5)
O1 O 0.15123(12) 0.4597(2) -0.02323(13)
O2 O 0.28867(13) 0.4091(2) 0.13013(13)
O3 O 0.17532(13) 0.6246(2) 0.11707(14)
C1 C 0.28071(18) 0.6922(3) 0.03922(19)
H1 H 0.32120 0.63660 0.02150
H2 H 0.31610 0.75840 0.09370
F1 F 0.29237(10) 0.33941(18) -0.02287(10)
F2 F 0.15922(11) 0.4069(2) -0.18119(11)
F3 F 0.06272(11) 0.2169(2) -0.13153(12)
O4 O 0.00000 1.0541(4) 0.25000
H3? H -0.05450 1.05410 0.23770
H4? H 0.00920 0.96720 0.22600
N1 N 0.04054(16) 1.4887(3) 0.13984(17)
H5 H 0.06610 1.49480 0.20110
H6 H -0.01250 1.53820 0.11590
H7 H 0.07480 1.53950 0.11970
N2 N 0.18818(17) 0.9428(3) 0.18349(17)
H8 H 0.19810 0.94110 0.24180
H9 H 0.23380 0.99180 0.18040
H10 H 0.18240 0.83890 0.16250
C2 C 0.0291(2) 1.3104(4) 0.1110(2)
H11 H 0.01010 1.30360 0.04530
H12 H -0.01690 1.26050 0.12240
C3 C 0.11468(19) 1.2149(4) 0.1628(2)
H13 H 0.13060 1.21250 0.22790
H14 H 0.16200 1.27110 0.15630
C4 C 0.1057(2) 1.0366(3) 0.1267(2)
H15 H 0.05560 0.98240 0.12900
H16 H 0.09450 1.03820 0.06300
C1E C 0.21929(18) 0.8078(3) -0.03922(19)
P1E P 0.27979(5) 0.96166(8) -0.06690(5)
O1E O 0.34877(12) 1.0403(2) 0.02323(13)
O2E O 0.21133(13) 1.0909(2) -0.13013(13)
O3E O 0.32468(13) 0.8754(2) -0.11707(14)
H1E H 0.17880 0.86340 -0.02150
H2E H 0.18390 0.74160 -0.09370
F1E F 0.20763(10) 0.16059(18) 0.02287(10)
Al1E Al 0.32792(5) 1.21877(10) 0.08761(6)
F2E F 0.34078(11) 1.0931(2) 0.18119(11)
F3E F 0.43728(11) 1.2831(2) 0.13153(12)
O2E* O 0.21133(13) 0.0909(2) -0.13013(13)
Al1E* Al 0.32792(5) 0.21877(10) 0.08761(6)
Al1* Al 0.17208(5) 1.28123(10) -0.08761(6)
O2* O 0.28867(13) 1.4091(2) 0.13013(13)
F1* F 0.29237(10) 1.33941(18) -0.02287(10)
F1E* F 0.20763(10) 1.16059(18) 0.02287(10)
#END
