
#######################################################################
#
#                 Cambridge Crystallographic Data Centre
#                                CCDC
#
#######################################################################
#
# If this CIF has been generated from an entry in the Cambridge
# Structural Database, then it will include bibliographic, chemical,
# crystal, experimental, refinement or atomic coordinate data resulting
# from the CCDC's data processing and validation procedures.
#
#######################################################################

data_CSD_CIF_OBICUY
_audit_creation_date 2004-12-15
_audit_creation_method CSD-ConQuest-V1
_database_code_CSD OBICUY
_database_code_depnum_ccdc_archive 'CCDC 230021'
_chemical_formula_sum 'C5 H16 F4 Ga2 N2 O6 P2'
_chemical_formula_moiety
;
(C3 H12 N2 2+)n,n(C2 H4 F4 Ga2 O6 P2 2-)
;
_journal_coden_Cambridge 208
_journal_volume 177
_journal_year 2004
_journal_page_first 2951
_journal_name_full 'J.Solid State Chem. '
loop_
_publ_author_name
"M.P.Attfield"
"H.G.Harvey"
"S.J.Teat"
_chemical_name_systematic
;
catena-(bis(1,3-Propanediammonium) 
(\m~6~-ethylenediphosphonato)-tetrakis(\m~2~-fluoro)-difluoro-di-gallium)
;
_cell_volume    669.375
_exptl_crystal_colour 'colorless'
_exptl_crystal_density_diffrn 2.37
_exptl_crystal_description 'Plate'
_diffrn_ambient_temperature 150
_diffrn_radiation_probe x-ray
_diffrn_source synchrotron
#These two values have been output from a single CSD field.
_refine_ls_R_factor_gt 0.029
_refine_ls_wR_factor_gt 0.029
_symmetry_cell_setting triclinic
_symmetry_space_group_name_H-M 'P -1'
_symmetry_Int_Tables_number 2
loop_
_symmetry_equiv_pos_site_id
_symmetry_equiv_pos_as_xyz
1 x,y,z
2 -x,-y,-z
_cell_length_a 5.398(7)
_cell_length_b 8.122(6)
_cell_length_c 15.839(18)
_cell_angle_alpha 78.89(4)
_cell_angle_beta 89.60(7)
_cell_angle_gamma 79.35(6)
_cell_formula_units_Z 2
loop_
_atom_type_symbol
_atom_type_radius_bond
C 0.68
H 0.23
F 0.64
Ga 1.22
N 0.68
O 0.68
P 1.05
loop_
_atom_site_label
_atom_site_type_symbol
_atom_site_fract_x
_atom_site_fract_y
_atom_site_fract_z
Ga1 Ga -0.19485(3) 0.15084(2) -0.487120(12)
Ga2 Ga -0.30107(3) -0.15343(2) -0.002960(12)
P1 P 0.18104(9) -0.10363(6) -0.10835(3)
P2 P 0.32371(9) 0.07542(6) -0.38484(3)
F1 F -0.2503(2) -0.37658(14) 0.05730(7)
F2 F -0.2414(2) 0.38077(14) -0.53890(7)
F3 F 0.1036(2) 0.09327(15) -0.55887(7)
F4 F -0.3973(2) 0.08114(15) -0.06306(7)
O1 O 0.1315(3) 0.07320(17) -0.08448(9)
O2 O 0.5188(3) 0.18489(18) -0.41780(9)
O3 O -0.0210(3) -0.20638(18) -0.07429(9)
O4 O 0.4450(3) -0.20954(18) -0.07914(9)
O5 O 0.0565(2) 0.17867(17) -0.40547(8)
O6 O 0.3717(3) -0.09563(18) -0.41663(8)
C1 C 0.3587(3) 0.0283(2) -0.26848(11)
H1 H 0.53000 -0.03800 -0.25180
H2 H 0.34180 0.13690 -0.24740
C2 C 0.1638(4) -0.0729(2) -0.22473(11)
H3 H 0.19080 -0.18600 -0.24160
H4 H -0.00730 -0.01170 -0.24550
N1 N -0.2420(3) -0.4130(2) -0.41211(11)
N2 N -0.2584(3) -0.5410(2) -0.08971(11)
C3 C -0.3081(4) -0.5211(3) -0.33157(12)
C4 C -0.2284(4) -0.4678(3) -0.25023(12)
C5 C -0.3004(4) -0.5911(3) -0.17389(12)
H5 H -0.320(5) -0.304(3) -0.4153(17)
H6 H -0.044(5) -0.468(3) -0.2488(16)
H7 H -0.082(5) -0.540(3) -0.0809(18)
H8 H -0.220(5) -0.638(3) -0.3327(16)
H9 H -0.304(5) -0.351(3) -0.2474(18)
H10 H -0.077(5) -0.413(3) -0.4163(16)
H11 H -0.348(4) -0.434(3) -0.0872(15)
H12 H -0.289(5) -0.459(4) -0.4628(18)
H13 H -0.478(5) -0.596(3) -0.1756(18)
H14 H -0.309(5) -0.619(4) -0.046(2)
H15 H -0.199(5) -0.713(3) -0.1692(17)
H16 H -0.490(5) -0.510(3) -0.3356(16)
Ga1A Ga 0.19485(3) -0.15084(2) -0.512880(12)
F3A F -0.1036(2) -0.09327(15) -0.44113(7)
O6A O -0.3717(3) 0.09563(18) -0.58337(8)
F4A F -0.6027(2) -0.08114(15) 0.06306(7)
Ga2A Ga -0.69893(3) 0.15343(2) 0.002960(12)
O2* O -0.4812(3) 0.18489(18) -0.41780(9)
O1A O -0.1315(3) -0.07320(17) 0.08448(9)
Ga1* Ga 0.80515(3) 0.15084(2) -0.487120(12)
O4* O -0.5550(3) -0.20954(18) -0.07914(9)
Ga2A* Ga 0.30107(3) 0.15343(2) 0.002960(12)
Ga2* Ga 0.69893(3) -0.15343(2) -0.002960(12)
#END
