
#######################################################################
#
#                 Cambridge Crystallographic Data Centre
#                                CCDC
#
#######################################################################
#
# If this CIF has been generated from an entry in the Cambridge
# Structural Database, then it will include bibliographic, chemical,
# crystal, experimental, refinement or atomic coordinate data resulting
# from the CCDC's data processing and validation procedures.
#
#######################################################################

data_CSD_CIF_OBIMUH
_audit_creation_date 2001-09-13
_audit_creation_method CSD-ConQuest-V1
_database_code_CSD OBIMUH
_database_code_depnum_ccdc_archive 'CCDC 154159'
_chemical_formula_sum 'C96 H142 N8 Na4 O14 Ru2'
_chemical_formula_moiety
;
(C144 H184 N16 Na6 O10 Ru4 2-)0.5n,n(C16 H34 Na1 O7 1+),2n(C4 H8 O1)
;
_journal_coden_Cambridge 179
_journal_volume 40
_journal_year 2001
_journal_page_first 1449
_journal_name_full 'Angew.Chem.,Int.Ed. '
loop_
_publ_author_name
"L.Bonomo"
"C.Stern"
"E.Solari"
"R.Scopelliti"
"C.Floriani"
_chemical_name_systematic
;
catena-((\m~3~-\h^2^-Buta-1,3-dien-1,4-diylidene)-(\m~2~-1,4-dioxane-O,O')-bis
((\m~3~-\h^5^,\h^5^-meso-5,5,10,10,15,15,20,20-octamethylporphyrinogen)-ruthen
ium)-dimethoxyethane-tetrahydrofuran-tri-sodium 
dimethoxyethane-bis(1,4-dioxane)-tetrahydrofuran-sodium tetrahydrofuran 
solvate)
;
_cell_volume   9878.455
_exptl_crystal_colour 'deep yellow'
_exptl_crystal_density_diffrn 1.295
_exptl_crystal_description 'irregular'
_diffrn_ambient_temperature 143
#These two values have been output from a single CSD field.
_refine_ls_R_factor_gt 0.0879
_refine_ls_wR_factor_gt 0.0879
_symmetry_cell_setting monoclinic
_symmetry_space_group_name_H-M 'P 21/c'
_symmetry_Int_Tables_number 14
loop_
_symmetry_equiv_pos_site_id
_symmetry_equiv_pos_as_xyz
1 x,y,z
2 x,1/2-y,1/2+z
3 -x,-y,-z
4 -x,-1/2+y,-1/2-z
_cell_length_a 18.547(4)
_cell_length_b 26.947(5)
_cell_length_c 21.668(4)
_cell_angle_alpha 90
_cell_angle_beta 114.19(3)
_cell_angle_gamma 90
_cell_formula_units_Z 4
loop_
_atom_type_symbol
_atom_type_radius_bond
C 0.68
H 0.23
N 0.68
Na 1.94
O 0.62
Ru 1.40
loop_
_atom_site_label
_atom_site_type_symbol
_atom_site_fract_x
_atom_site_fract_y
_atom_site_fract_z
Ru1 Ru 0.23231(7) -0.03259(4) 0.40654(6)
Ru2 Ru -0.05771(8) -0.15257(4) 0.15299(6)
N1 N 0.2552(7) -0.0170(4) 0.3239(5)
N2 N 0.2209(6) 0.0432(4) 0.4146(6)
N3 N 0.2458(6) -0.0426(4) 0.5032(5)
N4 N 0.2692(7) -0.1046(4) 0.4101(6)
N5 N -0.0467(8) -0.1589(4) 0.0643(6)
N6 N 0.0334(8) -0.2023(4) 0.1916(6)
N7 N -0.0904(8) -0.1647(5) 0.2303(6)
N8 N -0.1602(7) -0.1136(4) 0.1081(6)
C1 C 0.2887(8) -0.0499(5) 0.2947(8)
C2 C 0.2706(9) -0.0342(5) 0.2295(7)
H1 H 0.28560 -0.05010 0.19730
C3 C 0.2268(9) 0.0089(5) 0.2194(8)
H2 H 0.20660 0.02810 0.17910
C4 C 0.2176(9) 0.0188(5) 0.2772(7)
C5 C 0.1699(9) 0.0625(4) 0.2885(7)
C6 C 0.2014(8) 0.0776(5) 0.3610(8)
C7 C 0.2132(9) 0.1246(5) 0.3890(8)
H3 H 0.20370 0.15480 0.36450
C8 C 0.2416(9) 0.1202(5) 0.4597(8)
H4 H 0.25550 0.14680 0.49120
C9 C 0.2458(8) 0.0696(6) 0.4752(7)
C10 C 0.2881(9) 0.0460(5) 0.5434(7)
C11 C 0.2561(8) -0.0051(5) 0.5502(7)
C12 C 0.2540(8) -0.0248(5) 0.6096(7)
H5 H 0.26130 -0.00750 0.64990
C13 C 0.2385(8) -0.0764(6) 0.5960(7)
H6 H 0.23210 -0.09990 0.62600
C14 C 0.2341(8) -0.0866(6) 0.5315(8)
C15 C 0.2157(9) -0.1375(5) 0.4938(7)
C16 C 0.2536(9) -0.1431(5) 0.4448(8)
C17 C 0.2776(9) -0.1869(5) 0.4262(8)
H7 H 0.27240 -0.21900 0.44210
C18 C 0.3121(9) -0.1759(5) 0.3784(7)
H8 H 0.33330 -0.19840 0.35650
C19 C 0.3064(9) -0.1228(5) 0.3724(8)
C20 C 0.3445(9) -0.0890(5) 0.3370(7)
C21 C 0.1774(9) 0.1070(4) 0.2457(6)
H9 H 0.14730 0.13530 0.25120
H10 H 0.15640 0.09740 0.19790
H11 H 0.23310 0.11630 0.26110
C22 C 0.0814(8) 0.0520(5) 0.2614(6)
H12 H 0.07200 0.02510 0.28770
H13 H 0.06160 0.04210 0.21380
H14 H 0.05370 0.08200 0.26540
C23 C 0.2837(10) 0.0806(5) 0.5993(7)
H15 H 0.30850 0.06410 0.64340
H16 H 0.22820 0.08770 0.58950
H17 H 0.31150 0.11170 0.60030
C24 C 0.3758(9) 0.0393(5) 0.5579(7)
H18 H 0.38040 0.01940 0.52190
H19 H 0.40280 0.02230 0.60140
H20 H 0.40010 0.07180 0.55980
C25 C 0.1262(8) -0.1432(5) 0.4575(7)
H21 H 0.10450 -0.11580 0.42550
H22 H 0.10290 -0.14260 0.49080
H23 H 0.11360 -0.17480 0.43300
C26 C 0.2456(9) -0.1778(5) 0.5484(8)
H24 H 0.23280 -0.21060 0.52710
H25 H 0.22010 -0.17380 0.57980
H26 H 0.30300 -0.17480 0.57330
C27 C 0.3722(9) -0.1225(5) 0.2912(7)
H27 H 0.39630 -0.10160 0.26780
H28 H 0.32650 -0.13990 0.25780
H29 H 0.41100 -0.14670 0.31950
C28 C 0.4164(8) -0.0652(5) 0.3909(7)
H30 H 0.44000 -0.04180 0.36970
H31 H 0.45510 -0.09090 0.41500
H32 H 0.40080 -0.04730 0.42290
C29 C -0.1044(10) -0.1508(5) 0.0003(8)
C30 C -0.0742(11) -0.1611(6) -0.0470(8)
H33 H -0.10220 -0.15920 -0.09480
C31 C 0.0054(12) -0.1749(6) -0.0119(8)
H34 H 0.04150 -0.18330 -0.03110
C32 C 0.0208(12) -0.1740(5) 0.0566(8)
C33 C 0.1029(10) -0.1813(5) 0.1152(8)
C34 C 0.1006(11) -0.2070(6) 0.1776(8)
C35 C 0.1547(10) -0.2389(6) 0.2248(9)
H35 H 0.20520 -0.24820 0.22740
C36 C 0.1196(15) -0.2544(6) 0.2674(9)
H36 H 0.14220 -0.27670 0.30430
C37 C 0.0448(13) -0.2314(6) 0.2466(10)
C38 C -0.0178(11) -0.2426(7) 0.2718(8)
C39 C -0.0554(10) -0.1984(6) 0.2828(9)
C40 C -0.0730(11) -0.1844(8) 0.3355(9)
H37 H -0.05670 -0.20110 0.37770
C41 C -0.1185(11) -0.1419(7) 0.3173(9)
H38 H -0.13850 -0.12350 0.34430
C42 C -0.1291(10) -0.1317(7) 0.2523(8)
C43 C -0.1777(11) -0.0852(7) 0.2136(8)
C44 C -0.2008(10) -0.0874(6) 0.1393(9)
C45 C -0.2632(11) -0.0629(7) 0.0905(9)
H39 H -0.30020 -0.04180 0.09770
C46 C -0.2618(11) -0.0751(7) 0.0271(9)
H40 H -0.29740 -0.06280 -0.01560
C47 C -0.2014(10) -0.1071(5) 0.0373(8)
C48 C -0.1882(11) -0.1412(5) -0.0131(7)
C49 C 0.1455(9) -0.1302(5) 0.1373(7)
H41 H 0.15630 -0.11630 0.10020
H42 H 0.19540 -0.13490 0.17710
H43 H 0.11150 -0.10740 0.14850
C50 C 0.1555(9) -0.2142(6) 0.0913(7)
H44 H 0.13510 -0.24820 0.08390
H45 H 0.20990 -0.21420 0.12600
H46 H 0.15470 -0.20090 0.04890
C51 C -0.0757(11) -0.2757(6) 0.2172(8)
H47 H -0.12160 -0.28230 0.22740
H48 H -0.04980 -0.30710 0.21560
H49 H -0.09310 -0.25900 0.17320
C52 C 0.0169(12) -0.2752(6) 0.3346(8)
H50 H 0.05880 -0.25710 0.37080
H51 H 0.03900 -0.30540 0.32390
H52 H -0.02470 -0.28420 0.34930
C53 C -0.2512(10) -0.0790(7) 0.2277(8)
H53 H -0.28490 -0.10840 0.21170
H54 H -0.28050 -0.04950 0.20390
H55 H -0.23550 -0.07510 0.27640
C54 C -0.130(1) -0.0390(6) 0.2401(8)
H56 H -0.11970 -0.03470 0.28790
H57 H -0.15940 -0.01030 0.21420
H58 H -0.07970 -0.04190 0.23570
C55 C -0.2307(10) -0.1910(5) -0.0141(8)
H59 H -0.21360 -0.20350 0.03230
H60 H -0.21740 -0.21530 -0.04130
H61 H -0.28800 -0.18570 -0.03370
C56 C -0.2292(11) -0.1156(6) -0.0826(7)
H62 H -0.28650 -0.11530 -0.09590
H63 H -0.21730 -0.13390 -0.11640
H64 H -0.20990 -0.08150 -0.07950
C57 C 0.1364(8) -0.0514(5) 0.3567(6)
C58 C 0.0721(9) -0.0721(5) 0.3092(7)
H65 H 0.03270 -0.08530 0.32190
C59 C 0.0603(9) -0.0751(5) 0.2378(7)
H66 H 0.09200 -0.05490 0.22280
C60 C 0.0072(9) -0.1049(5) 0.1936(7)
Na1 Na 0.1544(3) -0.15623(18) 0.3036(3)
Na2 Na 0.0940(3) 0.08959(19) 0.4249(3)
O1 O -0.0309(7) 0.1161(4) 0.3474(6)
O2 O 0.0620(8) 0.1634(4) 0.4697(7)
O3 O 0.0392(5) 0.0332(3) 0.4730(5)
C61 C -0.0885(11) 0.0794(8) 0.3086(9)
H67 H -0.10830 0.06200 0.33820
H68 H -0.06380 0.05560 0.28920
H69 H -0.13260 0.09590 0.27210
C62 C -0.0661(13) 0.1474(7) 0.3773(9)
H70 H -0.08130 0.12900 0.40970
H71 H -0.11390 0.16310 0.34270
C63 C -0.0031(15) 0.1866(6) 0.4141(10)
H72 H 0.01640 0.20170 0.38220
H73 H -0.02650 0.21320 0.43160
C64 C 0.1218(13) 0.1987(7) 0.5104(12)
H74 H 0.15440 0.20820 0.48650
H75 H 0.15530 0.18340 0.55380
H76 H 0.09600 0.22820 0.51850
C65 C 0.0442(9) -0.0195(5) 0.4669(7)
H77 H 0.09040 -0.03250 0.50590
H78 H 0.05130 -0.02740 0.42510
C66 C 0.0301(9) 0.0436(5) 0.5356(7)
H79 H 0.02740 0.07990 0.54130
H80 H 0.07630 0.03060 0.57470
Na3 Na -0.1018(4) -0.0306(2) 0.1041(3)
O4 O -0.1553(9) 0.0492(5) 0.0845(8)
O5 O -0.0242(8) -0.0071(5) 0.0529(6)
C67 C -0.217(2) 0.0586(14) 0.0214(17)
H81 H -0.26090 0.03480 0.01350
H82 H -0.19850 0.05420 -0.01490
C68 C -0.2479(19) 0.1120(13) 0.0194(19)
H83 H -0.25860 0.12820 -0.02450
H84 H -0.29640 0.11280 0.02790
C69 C -0.1858(18) 0.1335(10) 0.0707(16)
H85 H -0.20540 0.15650 0.09600
H86 H -0.15380 0.15280 0.05220
C70 C -0.1377(19) 0.0954(9) 0.1155(12)
H87 H -0.08110 0.10300 0.12820
H88 H -0.14700 0.09490 0.15730
C71 C 0.0082(15) 0.0378(7) 0.0453(11)
H89 H 0.06650 0.03680 0.06960
H90 H -0.01210 0.06530 0.06390
C72 C 0.0154(14) -0.0456(8) 0.0303(14)
H91 H -0.00120 -0.07890 0.03860
H92 H 0.07340 -0.04280 0.05530
Na4 Na -0.4230(6) -0.2893(4) 0.1249(5)
O6 O -0.3100(14) -0.2385(8) 0.1718(13)
O7 O -0.3523(15) -0.2869(8) 0.2464(11)
O8 O -0.4632(10) -0.3696(6) 0.0902(7)
O9 O -0.4912(10) -0.4527(6) 0.1559(8)
O10 O -0.4429(9) -0.2720(5) 0.0198(7)
O11 O -0.4772(16) -0.2516(11) -0.1245(14)
C73 C -0.2858(17) -0.2194(10) 0.1210(14)
H93 H -0.33240 -0.21450 0.07850
H94 H -0.24980 -0.24310 0.11380
H95 H -0.25860 -0.18760 0.13620
C74 C -0.2796(19) -0.2446(12) 0.2259(17)
H96 H -0.25550 -0.21160 0.24080
H97 H -0.23520 -0.26570 0.22750
C75 C -0.2863(16) -0.2586(10) 0.2770(13)
H98 H -0.29500 -0.23070 0.30280
H99 H -0.24030 -0.27850 0.30680
C76 C -0.404(2) -0.3066(14) 0.2807(18)
H100 H -0.44890 -0.32490 0.24760
H101 H -0.42340 -0.27870 0.29860
H102 H -0.37260 -0.32880 0.31780
C77 C -0.4130(12) -0.4143(7) 0.1124(10)
H103 H -0.43380 -0.44050 0.07740
H104 H -0.35860 -0.40620 0.11810
C78 C -0.4117(12) -0.4316(7) 0.1728(9)
H105 H -0.40100 -0.40410 0.20580
H106 H -0.37050 -0.45730 0.19240
C79 C -0.5501(13) -0.4104(8) 0.1285(10)
H107 H -0.60430 -0.42300 0.11670
H108 H -0.53890 -0.38470 0.16400
C80 C -0.5457(11) -0.3889(7) 0.0707(9)
H109 H -0.58430 -0.36140 0.05360
H110 H -0.55840 -0.41410 0.03450
C81 C -0.5000(18) -0.2424(11) -0.0241(15)
H111 H -0.51260 -0.21540 0.00080
H112 H -0.54870 -0.26200 -0.04840
C82 C -0.472(3) -0.2214(14) -0.0728(19)
H113 H -0.50180 -0.19070 -0.09210
H114 H -0.41540 -0.21180 -0.04790
C83 C -0.4287(19) -0.2989(11) -0.0869(15)
H115 H -0.44110 -0.32740 -0.11850
H116 H -0.37130 -0.29220 -0.06920
C84 C -0.4515(16) -0.3100(9) -0.0316(12)
H117 H -0.42050 -0.33940 -0.00750
H118 H -0.50770 -0.32020 -0.05200
O12 O -0.5010(16) -0.2311(8) 0.1289(11)
C85 C -0.5827(15) -0.2309(9) 0.1153(11)
H119 H -0.59770 -0.26280 0.12940
H120 H -0.61470 -0.22640 0.06620
C86 C -0.5965(14) -0.1911(10) 0.1521(14)
H121 H -0.63510 -0.16760 0.12070
H122 H -0.61810 -0.20400 0.18380
C87 C -0.5233(18) -0.1668(10) 0.1885(16)
H123 H -0.50990 -0.16800 0.23760
H124 H -0.52690 -0.13160 0.17450
C88 C -0.4643(14) -0.1915(11) 0.1741(16)
H125 H -0.42260 -0.20450 0.21640
H126 H -0.43960 -0.16810 0.15320
O13 O 0.3021(13) -0.1287(10) 0.8308(11)
C89 C 0.3088(14) -0.1764(8) 0.8058(12)
H127 H 0.33190 -0.20020 0.84370
H128 H 0.25600 -0.18870 0.77490
C90 C 0.3585(15) -0.1721(8) 0.7706(12)
H129 H 0.40530 -0.19380 0.79170
H130 H 0.32950 -0.18240 0.72290
C91 C 0.3824(13) -0.1218(9) 0.7739(12)
H131 H 0.36490 -0.10790 0.72770
H132 H 0.44070 -0.11940 0.79660
C92 C 0.3476(14) -0.0950(7) 0.8111(11)
H133 H 0.31330 -0.06820 0.78270
H134 H 0.38920 -0.07970 0.85160
O14 O -0.4577(14) -0.0286(10) 0.2276(14)
C93 C -0.5232(17) -0.0394(8) 0.1659(14)
H135 H -0.54850 -0.07090 0.17000
H136 H -0.50530 -0.04310 0.12880
C94 C -0.5778(13) 0.0004(10) 0.1516(11)
H137 H -0.58620 0.01580 0.10770
H138 H -0.62930 -0.01200 0.14880
C95 C -0.5462(18) 0.0358(9) 0.2045(14)
H139 H -0.53940 0.06810 0.18600
H140 H -0.58250 0.04030 0.22710
C96 C -0.4719(17) 0.0178(11) 0.2515(12)
H141 H -0.47270 0.01380 0.29660
H142 H -0.42960 0.04160 0.25550
C66B C -0.0301(9) -0.0436(5) 0.4644(7)
C65B C -0.0442(9) 0.0195(5) 0.5331(7)
C72B C -0.0154(14) 0.0456(8) -0.0303(14)
C71B C -0.0082(15) -0.0378(7) -0.0453(11)
O3B O -0.0392(5) -0.0332(3) 0.5270(5)
H79B H -0.02740 -0.07990 0.45870
H80B H -0.07630 -0.03060 0.42530
H77B H -0.09040 0.03250 0.49410
H78B H -0.05130 0.02740 0.57490
O5B O 0.0242(8) 0.0071(5) -0.0529(6)
H89B H -0.06650 -0.03680 -0.06960
H90B H 0.01210 -0.06530 -0.06390
H91B H 0.00120 0.07890 -0.03860
H92B H -0.07340 0.04280 -0.05530
Na2B Na -0.0940(3) -0.08959(19) 0.5751(3)
Na3B Na 0.1018(4) 0.0306(2) -0.1041(3)
Ru2B Ru 0.05771(8) 0.15257(4) -0.15299(6)
N8B N 0.1602(7) 0.1136(4) -0.1081(6)
C44B C 0.2008(10) 0.0874(6) -0.1393(9)
C45B C 0.2632(11) 0.0629(7) -0.0905(9)
C46B C 0.2618(11) 0.0751(7) -0.0271(9)
C47B C 0.2014(10) 0.1071(5) -0.0373(8)
C60B C -0.0072(9) 0.1049(5) -0.1936(7)
O4B O 0.1553(9) -0.0492(5) -0.0845(8)
C43B C 0.1777(11) 0.0852(7) -0.2136(8)
H39B H 0.30020 0.04180 -0.09770
H40B H 0.29740 0.06280 0.01560
C48B C 0.1882(11) 0.1412(5) 0.0131(7)
C59B C -0.0603(9) 0.0751(5) -0.2378(7)
C67B C 0.217(2) -0.0586(14) -0.0214(17)
C70B C 0.1377(19) -0.0954(9) -0.1155(12)
C42B C 0.1291(10) 0.1317(7) -0.2523(8)
C53B C 0.2512(10) 0.0790(7) -0.2277(8)
C54B C 0.130(1) 0.0390(6) -0.2401(8)
C29B C 0.1044(10) 0.1508(5) -0.0003(8)
C55B C 0.2307(10) 0.1910(5) 0.0141(8)
C56B C 0.2292(11) 0.1156(6) 0.0826(7)
C58B C -0.0721(9) 0.0721(5) -0.3092(7)
H66B H -0.09200 0.05490 -0.22280
Na1B Na -0.1544(3) 0.15623(18) -0.3036(3)
H81B H 0.26090 -0.03480 -0.01350
H82B H 0.19850 -0.05420 0.01490
C68B C 0.2479(19) -0.1120(13) -0.0194(19)
C69B C 0.1858(18) -0.1335(10) -0.0707(16)
H87B H 0.08110 -0.10300 -0.12820
H88B H 0.14700 -0.09490 -0.15730
N7B N 0.0904(8) 0.1647(5) -0.2303(6)
C41B C 0.1185(11) 0.1419(7) -0.3173(9)
H53B H 0.28490 0.10840 -0.21170
H54B H 0.28050 0.04950 -0.20390
H55B H 0.23550 0.07510 -0.27640
H56B H 0.11970 0.03470 -0.28790
H57B H 0.15940 0.01030 -0.21420
H58B H 0.07970 0.04190 -0.23570
N5B N 0.0467(8) 0.1589(4) -0.0643(6)
C30B C 0.0742(11) 0.1611(6) 0.0470(8)
H59B H 0.21360 0.20350 -0.03230
H60B H 0.21740 0.21530 0.04130
H61B H 0.28800 0.18570 0.03370
H62B H 0.28650 0.11530 0.09590
H63B H 0.21730 0.13390 0.11640
H64B H 0.20990 0.08150 0.07950
C57B C -0.1364(8) 0.0514(5) -0.3567(6)
H65B H -0.03270 0.08530 -0.32190
H83B H 0.25860 -0.12820 0.02450
H84B H 0.29640 -0.11280 -0.02790
H85B H 0.20540 -0.15650 -0.09600
H86B H 0.15380 -0.15280 -0.05220
C39B C 0.0554(10) 0.1984(6) -0.2828(9)
C40B C 0.0730(11) 0.1844(8) -0.3355(9)
H38B H 0.13850 0.12350 -0.34430
C32B C -0.0208(12) 0.1740(5) -0.0566(8)
H33B H 0.10220 0.15920 0.09480
C31B C -0.0054(12) 0.1749(6) 0.0119(8)
Ru1B Ru -0.23231(7) 0.03259(4) -0.40654(6)
C38B C 0.0178(11) 0.2426(7) -0.2718(8)
H37B H 0.05670 0.20110 -0.37770
C33B C -0.1029(10) 0.1813(5) -0.1152(8)
H34B H -0.04150 0.18330 0.03110
C37B C -0.0448(13) 0.2314(6) -0.2466(10)
C51B C 0.0757(11) 0.2757(6) -0.2172(8)
C52B C -0.0169(12) 0.2752(6) -0.3346(8)
C34B C -0.1006(11) 0.2070(6) -0.1776(8)
C49B C -0.1455(9) 0.1302(5) -0.1373(7)
C50B C -0.1555(9) 0.2142(6) -0.0913(7)
N6B N -0.0334(8) 0.2023(4) -0.1916(6)
C36B C -0.1196(15) 0.2544(6) -0.2674(9)
H47B H 0.12160 0.28230 -0.22740
H48B H 0.04980 0.30710 -0.21560
H49B H 0.09310 0.25900 -0.17320
H50B H -0.05880 0.25710 -0.37080
H51B H -0.03900 0.30540 -0.32390
H52B H 0.02470 0.28420 -0.34930
C35B C -0.1547(10) 0.2389(6) -0.2248(9)
H41B H -0.15630 0.11630 -0.10020
H42B H -0.19540 0.13490 -0.17710
H43B H -0.11150 0.10740 -0.14850
H44B H -0.13510 0.24820 -0.08390
H45B H -0.20990 0.21420 -0.12600
H46B H -0.15470 0.20090 -0.04890
H36B H -0.14220 0.27670 -0.30430
H35B H -0.20520 0.24820 -0.22740
N4B N -0.2692(7) 0.1046(4) -0.4101(6)
C16B C -0.2536(9) 0.1431(5) -0.4448(8)
C17B C -0.2776(9) 0.1869(5) -0.4262(8)
C18B C -0.3121(9) 0.1759(5) -0.3784(7)
C19B C -0.3064(9) 0.1228(5) -0.3724(8)
C15B C -0.2157(9) 0.1375(5) -0.4938(7)
H7B H -0.27240 0.21900 -0.44210
H8B H -0.33330 0.19840 -0.35650
C20B C -0.3445(9) 0.0890(5) -0.3370(7)
C14B C -0.2341(8) 0.0866(6) -0.5315(8)
C25B C -0.1262(8) 0.1432(5) -0.4575(7)
C26B C -0.2456(9) 0.1778(5) -0.5484(8)
C1B C -0.2887(8) 0.0499(5) -0.2947(8)
C27B C -0.3722(9) 0.1225(5) -0.2912(7)
C28B C -0.4164(8) 0.0652(5) -0.3909(7)
N3B N -0.2458(6) 0.0426(4) -0.5032(5)
C13B C -0.2385(8) 0.0764(6) -0.5960(7)
H21B H -0.10450 0.11580 -0.42550
H22B H -0.10290 0.14260 -0.49080
H23B H -0.11360 0.17480 -0.43300
H24B H -0.23280 0.21060 -0.52710
H25B H -0.22010 0.17380 -0.57980
H26B H -0.30300 0.17480 -0.57330
N1B N -0.2552(7) 0.0170(4) -0.3239(5)
C2B C -0.2706(9) 0.0342(5) -0.2295(7)
H27B H -0.39630 0.10160 -0.26780
H28B H -0.32650 0.13990 -0.25780
H29B H -0.41100 0.14670 -0.31950
H30B H -0.44000 0.04180 -0.36970
H31B H -0.45510 0.09090 -0.41500
H32B H -0.40080 0.04730 -0.42290
C11B C -0.2561(8) 0.0051(5) -0.5502(7)
C12B C -0.2540(8) 0.0248(5) -0.6096(7)
H6B H -0.23210 0.09990 -0.62600
C4B C -0.2176(9) -0.0188(5) -0.2772(7)
H1B H -0.28560 0.05010 -0.19730
C3B C -0.2268(9) -0.0089(5) -0.2194(8)
C10B C -0.2881(9) -0.0460(5) -0.5434(7)
H5B H -0.26130 0.00750 -0.64990
C5B C -0.1699(9) -0.0625(4) -0.2885(7)
H2B H -0.20660 -0.02810 -0.17910
C9B C -0.2458(8) -0.0696(6) -0.4752(7)
C23B C -0.2837(10) -0.0806(5) -0.5993(7)
C24B C -0.3758(9) -0.0393(5) -0.5579(7)
C6B C -0.2014(8) -0.0776(5) -0.3610(8)
C21B C -0.1774(9) -0.1070(4) -0.2457(6)
C22B C -0.0814(8) -0.0520(5) -0.2614(6)
N2B N -0.2209(6) -0.0432(4) -0.4146(6)
C8B C -0.2416(9) -0.1202(5) -0.4597(8)
Na2B* Na -0.0940(3) -0.08959(19) -0.4249(3)
H15B H -0.30850 -0.06410 -0.64340
H16B H -0.22820 -0.08770 -0.58950
H17B H -0.31150 -0.11170 -0.60030
H18B H -0.38040 -0.01940 -0.52190
H19B H -0.40280 -0.02230 -0.60140
H20B H -0.40010 -0.07180 -0.55980
C7B C -0.2132(9) -0.1246(5) -0.3890(8)
H9B H -0.14730 -0.13530 -0.25120
H10B H -0.15640 -0.09740 -0.19790
H11B H -0.23310 -0.11630 -0.26110
H12B H -0.07200 -0.02510 -0.28770
H13B H -0.06160 -0.04210 -0.21380
H14B H -0.05370 -0.08200 -0.26540
H4B H -0.25550 -0.14680 -0.49120
H3B H -0.20370 -0.15480 -0.36450
O1B O 0.0309(7) -0.1161(4) -0.3474(6)
O2B O -0.0620(8) -0.1634(4) -0.4697(7)
O3B* O -0.0392(5) -0.0332(3) -0.4730(5)
C61B C 0.0885(11) -0.0794(8) -0.3086(9)
C62B C 0.0661(13) -0.1474(7) -0.3773(9)
C63B C 0.0031(15) -0.1866(6) -0.4141(10)
C64B C -0.1218(13) -0.1987(7) -0.5104(12)
H67B H 0.10830 -0.06200 -0.33820
H68B H 0.06380 -0.05560 -0.28920
H69B H 0.13260 -0.09590 -0.27210
H70B H 0.08130 -0.12900 -0.40970
H71B H 0.11390 -0.16310 -0.34270
H72B H -0.01640 -0.20170 -0.38220
H73B H 0.02650 -0.21320 -0.43160
H74B H -0.15440 -0.20820 -0.48650
H75B H -0.15530 -0.18340 -0.55380
H76B H -0.09600 -0.22820 -0.51850
#END
