
#######################################################################
#
#                 Cambridge Crystallographic Data Centre
#                                CCDC
#
#######################################################################
#
# If this CIF has been generated from an entry in the Cambridge
# Structural Database, then it will include bibliographic, chemical,
# crystal, experimental, refinement or atomic coordinate data resulting
# from the CCDC's data processing and validation procedures.
#
#######################################################################

data_CSD_CIF_OBIYAC
_audit_creation_date 2017-01-07
_audit_creation_method CSD-ConQuest-V1
_database_code_CSD OBIYAC
_database_code_depnum_ccdc_archive 'CCDC 1469345'
_chemical_formula_sum 'C30 H21 N2 O8 Tb1'
_chemical_formula_moiety
;
(C28 H13 N1 O8 Tb1 1-)n,n(C2 H8 N1 1+)
;
_journal_coden_Cambridge 580
_journal_volume 124
_journal_year 2017
_journal_page_first 125
_journal_name_full 'Polyhedron '
loop_
_publ_author_name
"Yajuan Mu"
"Yungen Ran"
"Jianlong Du"
"Xueyi Wu"
"Weiwei Nie"
"Jianhong Zhang"
"Ying Zhao"
"Huan Liu"
_chemical_name_systematic
;
catena-(dimethylammonium 
(\m-5-(6-(3,5-dicarboxylatophenyl)-9H-carbazol-3-yl)isophthalato)-terbium)
;
_cell_volume   6036.454
_exptl_crystal_colour 'colorless'
_exptl_crystal_density_diffrn 1.533
_exptl_crystal_description 'Needle'
_diffrn_ambient_temperature 296
_refine_special_details
;
The SQUEEZE/PLATON program was used to model the disordered cation.

;
#These two values have been output from a single CSD field.
_refine_ls_R_factor_gt 0.0332
_refine_ls_wR_factor_gt 0.0332
_symmetry_cell_setting tetragonal
_symmetry_space_group_name_H-M 'I -4 2 d'
_symmetry_Int_Tables_number 122
loop_
_symmetry_equiv_pos_site_id
_symmetry_equiv_pos_as_xyz
1 x,y,z
2 y,-x,-z
3 -x,-y,z
4 -y,x,-z
5 x,1/2-y,1/4-z
6 -x,1/2+y,1/4-z
7 -y,1/2-x,1/4+z
8 y,1/2+x,1/4+z
9 1/2+x,1/2+y,1/2+z
10 1/2+y,1/2-x,1/2-z
11 1/2-x,1/2-y,1/2+z
12 1/2-y,1/2+x,1/2-z
13 1/2+x,-y,3/4-z
14 1/2-x,y,3/4-z
15 1/2-y,-x,3/4+z
16 1/2+y,x,3/4+z
_cell_length_a 13.799(2)
_cell_length_b 13.799(2)
_cell_length_c 31.702(12)
_cell_angle_alpha 90
_cell_angle_beta 90
_cell_angle_gamma 90
_cell_formula_units_Z 8
loop_
_atom_type_symbol
_atom_type_radius_bond
C 0.68
H 0.23
N 0.68
O 0.68
Tb 1.94
loop_
_atom_site_label
_atom_site_type_symbol
_atom_site_fract_x
_atom_site_fract_y
_atom_site_fract_z
Tb1 Tb 0.50000 0.00000 1.182294(8)
O1 O 0.6073(3) -0.0003(6) 1.12074(14)
C1 C 0.6975(4) 0.0033(7) 0.92174(16)
H1 H 0.70670 0.06780 0.91430
C2 C 0.6345(6) -0.1184(6) 0.9690(3)
H2 H 0.60230 -0.13480 0.99370
C3 C 0.6093(6) 0.1510(5) 0.9775(2)
H3 H 0.61150 0.16660 0.94900
C4 C 0.5953(5) 0.1053(5) 1.0626(2)
C5 C 0.6520(5) -0.0196(5) 0.96007(17)
O2 O 0.5591(4) 0.3850(3) 1.02395(13)
C6 C 0.5879(4) 0.2236(4) 1.00752(17)
O3 O 0.5399(5) 0.1349(4) 1.13258(16)
C7 C 0.5832(6) 0.0731(7) 1.1092(2)
O4 O 0.5699(4) 0.3493(3) 0.95565(13)
C8 C 0.6203(5) 0.0359(5) 1.03399(17)
H4 H 0.63320 -0.02650 1.04350
C9 C 0.5804(5) 0.1989(5) 1.04967(18)
H5 H 0.56500 0.24630 1.06940
N1 N 0.75000 -0.2250(6) 0.87500
H6 H 0.75000 -0.28730 0.87500
C10 C 0.7283(5) -0.0689(5) 0.89523(19)
C11 C 0.6273(5) 0.0557(4) 0.99047(18)
C12 C 0.6631(6) -0.1895(5) 0.9426(2)
H7 H 0.64930 -0.25390 0.94880
C13 C 0.7120(5) -0.1664(5) 0.9071(2)
C14 C 0.5716(5) 0.3284(5) 0.99463(19)
O1M O 0.8927(3) -0.0003(6) 0.62926(14)
C1M C 0.8025(4) 0.0033(7) 0.82826(16)
H1M H 0.79330 0.06780 0.83570
C2M C 0.8655(6) -0.1184(6) 0.7810(3)
H2M H 0.89770 -0.13480 0.75630
C3M C 0.8907(6) 0.1510(5) 0.7725(2)
H3M H 0.88850 0.16660 0.80100
C4M C 0.9047(5) 0.1053(5) 0.6874(2)
C5M C 0.8480(5) -0.0196(5) 0.78993(17)
O2M O 0.9409(4) 0.3850(3) 0.72605(13)
C6M C 0.9121(4) 0.2236(4) 0.74248(17)
O3M O 0.9601(5) 0.1349(4) 0.61742(16)
C7M C 0.9168(6) 0.0731(7) 0.6408(2)
O4M O 0.9301(4) 0.3493(3) 0.79435(13)
C8M C 0.8797(5) 0.0359(5) 0.71601(17)
H4M H 0.86680 -0.02650 0.70650
C9M C 0.9196(5) 0.1989(5) 0.70033(18)
H5M H 0.93500 0.24630 0.68060
C10M C 0.7717(5) -0.0689(5) 0.85477(19)
C11M C 0.8727(5) 0.0557(4) 0.75953(18)
C12M C 0.8369(6) -0.1895(5) 0.8074(2)
H7M H 0.85070 -0.25390 0.80120
C13M C 0.7880(5) -0.1664(5) 0.8429(2)
C14M C 0.9284(5) 0.3284(5) 0.75537(19)
Tb1A Tb 1.00000 0.50000 0.817706(8)
Tb1D Tb 0.50000 0.50000 1.067706(8)
Tb1H Tb 1.00000 0.50000 0.682294(8)
Tb1L Tb 1.00000 0.00000 0.567706(8)
Tb1N Tb 0.50000 0.50000 0.932294(8)
O1B O 0.3927(3) 0.0003(6) 1.12074(14)
O2D O 0.5591(4) 0.1150(3) 1.22605(13)
O2E O 0.4409(4) -0.1150(3) 1.22605(13)
O3B O 0.4601(5) -0.1349(4) 1.13258(16)
O4F O 0.6507(4) -0.0699(3) 1.20565(13)
O4G O 0.3493(4) 0.0699(3) 1.20565(13)
#END
