
#######################################################################
#
#                 Cambridge Crystallographic Data Centre
#                                CCDC
#
#######################################################################
#
# If this CIF has been generated from an entry in the Cambridge
# Structural Database, then it will include bibliographic, chemical,
# crystal, experimental, refinement or atomic coordinate data resulting
# from the CCDC's data processing and validation procedures.
#
#######################################################################

data_CSD_CIF_OBOMEX
_audit_creation_date 2001-09-13
_audit_creation_method CSD-ConQuest-V1
_database_code_CSD OBOMEX
_database_code_depnum_ccdc_archive 'CCDC 158546'
_chemical_formula_sum 'C59 H66 Cu6 I3 Mo2 N11 O4 S6'
_chemical_formula_moiety
;
(C8 H20 N1 1+)n,n(C50 H40 Cu6 I3 Mo2 N10 O2 S6 1-),n(C1 H4 O1),n(H2 O1)
;
_journal_coden_Cambridge 182
_journal_year 2001
_journal_page_first 1126
_journal_name_full 'Chem.Commun. '
loop_
_publ_author_name
"Qian-Feng Zhang"
"Yunying Niu"
"Wa-Hung Leung"
"Yinglin Song"
"I.D.Williams"
"Xinquan Xin"
_chemical_name_systematic
;
catena-(Tetraethylammonium 
hexakis(\m~3~-sulfido)-tetrakis(\m~2~-4,4'-bipyridyl-N,N')-tri-iodo-dioxo-(4,4
'-bipyridyl-N,N')-hexa-copper-di-molybdenum methanol solvate monohydrate)
;
_cell_volume   1888.944
_exptl_crystal_colour 'dark red'
_exptl_crystal_density_diffrn 1.881
_exptl_special_details
;
The paper states that the complex contains one methanol solvent molecule, 
although the coordinates for this molecule are missing from the supplementary 
;
_exptl_crystal_description 'prism'
_diffrn_ambient_temperature 293
#These two values have been output from a single CSD field.
_refine_ls_R_factor_gt 0.068
_refine_ls_wR_factor_gt 0.068
_symmetry_cell_setting triclinic
_symmetry_space_group_name_H-M 'P 1'
_symmetry_Int_Tables_number 1
loop_
_symmetry_equiv_pos_site_id
_symmetry_equiv_pos_as_xyz
1 x,y,z
_cell_length_a 11.0329(1)
_cell_length_b 11.8242(2)
_cell_length_c 15.3874(2)
_cell_angle_alpha 72.298(1)
_cell_angle_beta 81.444(1)
_cell_angle_gamma 84.862(1)
_cell_formula_units_Z 1
loop_
_atom_type_symbol
_atom_type_radius_bond
C 0.72
H 0.23
Cu 1.17
I 1.15
Mo 1.07
N 0.68
O 0.58
S 1.02
loop_
_atom_site_label
_atom_site_type_symbol
_atom_site_fract_x
_atom_site_fract_y
_atom_site_fract_z
I1 I -0.31136(9) 0.63568(8) -0.32104(6)
I2 I -0.69615(7) 1.37530(7) 0.31783(5)
I3 I 1.06648(9) 0.25805(9) -0.06221(7)
Mo1 Mo 0.03917(7) 0.82040(6) -0.27917(5)
Mo2 Mo -1.03880(6) 1.18052(6) 0.27835(5)
Cu1 Cu -0.19516(10) 0.75212(10) -0.25135(8)
Cu2 Cu -0.05514(11) 1.03082(9) -0.26560(8)
Cu3 Cu 0.05464(11) 0.74341(11) -0.09820(9)
Cu4 Cu 0.95473(11) 0.24583(10) 0.09453(8)
Cu5 Cu -0.80458(10) 1.24561(10) 0.25036(8)
Cu6 Cu -0.94104(11) 0.96509(9) 0.27469(8)
S1 S -0.1188(2) 0.9247(2) -0.34962(16)
S2 S 0.1040(2) 0.9272(2) -0.1954(2)
S3 S -0.0324(2) 0.64883(19) -0.18191(18)
S4 S -0.8847(2) 1.0792(2) 0.35629(17)
S5 S 0.8991(2) 0.0675(2) 0.19840(18)
S6 S 1.0368(2) 0.3483(2) 0.17631(18)
O1 O 0.1518(7) 0.7974(7) -0.3567(5)
O2 O -1.1631(7) 1.2144(6) 0.3520(5)
N1 N -0.3381(7) 0.7883(7) -0.1531(5)
N2 N -0.8023(8) 0.9211(6) 0.1783(6)
N3 N -0.0383(8) 1.2016(6) -0.3521(6)
N4 N -0.0453(8) 0.7207(7) 0.0258(6)
N5 N -0.4518(16) 0.5886(18) 0.4310(11)
N6 N 0.2163(8) 0.6421(7) -0.0590(5)
N7 N 0.7831(7) 0.3384(7) 0.0590(5)
N8 N -0.6632(7) 1.1973(7) 0.1544(6)
N9 N -0.1969(7) 1.0683(7) -0.1694(5)
N10 N 0.0328(8) 1.7911(7) -0.6417(5)
N11 N 0.5004(9) 1.0390(8) -0.4896(7)
C1 C -0.3184(10) 0.7833(10) -0.0732(7)
H1 H -0.23930 0.76280 -0.05790
C2 C -0.4139(10) 0.8082(9) -0.0035(8)
H2 H -0.39680 0.79650 0.05610
C3 C -0.5226(8) 0.8466(7) -0.0253(6)
C4 C -0.6186(10) 0.8697(7) 0.0417(6)
C5 C -0.6186(9) 0.8113(8) 0.1400(7)
H3 H -0.55750 0.75380 0.16010
C6 C -0.7082(10) 0.8402(9) 0.2036(7)
H4 H -0.70420 0.80320 0.26590
C7 C -0.8097(9) 0.9742(7) 0.0876(6)
H5 H -0.87400 1.02920 0.07020
C8 C -0.7215(8) 0.9474(8) 0.0190(6)
H6 H -0.73150 0.98200 -0.04260
C9 C -0.5463(9) 0.8519(8) -0.1112(6)
H7 H -0.62450 0.87370 -0.12810
C10 C -0.4511(9) 0.8240(9) -0.1732(6)
H8 H -0.46770 0.83090 -0.23220
C11 C -0.0203(11) 1.2248(8) -0.4404(6)
H9 H -0.02210 1.16340 -0.46620
C12 C 0.0015(11) 1.3377(8) -0.4976(7)
H10 H 0.02770 1.34810 -0.55980
C13 C -0.0147(10) 1.4384(6) -0.4651(6)
C14 C -0.028(2) 1.4173(10) -0.3705(8)
H11 H -0.01900 1.47810 -0.34570
C15 C -0.0574(15) 1.2985(9) -0.3104(9)
H12 H -0.08680 1.28520 -0.24850
C16 C -0.0682(12) 0.8095(9) 0.0702(10)
H13 H -0.02990 0.88140 0.04730
C17 C -0.1540(11) 0.7833(9) 0.1527(8)
H14 H -0.17620 0.84260 0.18100
C18 C -0.2049(11) 0.6741(9) 0.1918(8)
C19 C -0.3004(11) 0.6443(10) 0.2823(7)
C20 C -0.2782(13) 0.7029(13) 0.3476(10)
H15 H -0.20970 0.74740 0.33930
C21 C -0.3626(16) 0.689(2) 0.4201(14)
H16 H -0.36830 0.73380 0.46070
C22 C -0.4617(18) 0.558(2) 0.3644(14)
H17 H -0.52710 0.51250 0.36620
C23 C -0.3916(16) 0.5836(14) 0.2984(10)
H18 H -0.40560 0.55480 0.25110
C24 C -0.1715(9) 0.5859(8) 0.1476(7)
H19 H -0.20340 0.51090 0.17150
C25 C -0.0937(10) 0.6122(8) 0.0711(7)
H20 H -0.06910 0.55090 0.04530
C26 C 0.3049(10) 0.6101(11) -0.1184(7)
H21 H 0.29140 0.62750 -0.17940
C27 C 0.4086(10) 0.5562(10) -0.0952(8)
H22 H 0.46450 0.53820 -0.14120
C28 C 0.4401(9) 0.5256(8) -0.0132(7)
C29 C 0.5567(8) 0.4658(7) 0.0132(6)
C30 C 0.6602(9) 0.4631(9) -0.0502(7)
H23 H 0.65640 0.50510 -0.11160
C31 C 0.7656(9) 0.4025(9) -0.0266(6)
H24 H 0.83080 0.40550 -0.07300
C32 C 0.6919(9) 0.3379(8) 0.1212(7)
H25 H 0.70210 0.29410 0.18130
C33 C 0.5742(8) 0.3997(8) 0.1057(7)
H26 H 0.51200 0.39680 0.15420
C34 C 0.3515(9) 0.5485(8) 0.0560(7)
H27 H 0.36160 0.52840 0.11790
C35 C 0.2397(12) 0.6091(10) 0.0166(11)
H28 H 0.17680 0.62350 0.06000
C36 C -0.6698(9) 1.2478(9) 0.0621(6)
H29 H -0.73600 1.29920 0.04290
C37 C -0.5840(9) 1.2243(8) 0.0014(6)
H30 H -0.59300 1.25530 -0.06060
C38 C -0.4780(9) 1.1534(8) 0.0266(6)
C39 C -0.3773(9) 1.1245(8) -0.0427(7)
C40 C -0.4049(11) 1.1195(9) -0.1271(6)
H31 H -0.48390 1.13210 -0.14350
C41 C -0.3034(10) 1.0939(10) -0.1843(7)
H32 H -0.31860 1.09670 -0.24280
C42 C -0.1744(10) 1.0740(8) -0.0888(7)
H33 H -0.09360 1.05980 -0.07610
C43 C -0.2591(10) 1.0988(8) -0.0237(8)
H34 H -0.23770 1.09830 0.03260
C44 C -0.4795(11) 1.1068(12) 0.1226(7)
H35 H -0.41070 1.06350 0.14570
C45 C -0.5777(12) 1.1232(10) 0.1819(7)
H36 H -0.58220 1.07930 0.24360
C46 C 0.0139(10) 1.7691(7) -0.5492(7)
H37 H 0.00920 1.83270 -0.52490
C47 C 0.0011(11) 1.6529(8) -0.4881(7)
H38 H -0.00900 1.64060 -0.42490
C48 C 0.0037(10) 1.5628(9) -0.5211(7)
C49 C 0.0309(11) 1.5858(8) -0.6242(8)
H39 H 0.04100 1.52420 -0.65090
C50 C 0.0396(11) 1.7013(8) -0.6754(7)
H40 H 0.05140 1.71780 -0.73900
C51 C 0.5557(15) 1.1583(14) -0.5224(11)
H41 H 0.61170 1.16230 -0.57810
H42 H 0.49060 1.21870 -0.53850
C52 C 0.6211(17) 1.1868(15) -0.4579(11)
H43 H 0.65130 1.26530 -0.48430
H44 H 0.68890 1.13040 -0.44390
H45 H 0.56680 1.18380 -0.40240
C53 C 0.5939(19) 0.9392(18) -0.4386(14)
H46 H 0.55670 0.86320 -0.41080
H47 H 0.62910 0.96220 -0.39270
C54 C 0.7034(13) 0.9389(13) -0.5368(10)
H48 H 0.76810 0.88030 -0.51850
H49 H 0.73710 1.01590 -0.56260
H50 H 0.66370 0.92030 -0.58190
C55 C 0.428(2) 1.0260(18) -0.5553(15)
H51 H 0.47520 1.05350 -0.61570
H52 H 0.35570 1.07830 -0.55460
C56 C 0.3819(17) 0.8836(15) -0.5409(12)
H53 H 0.33700 0.88540 -0.59020
H54 H 0.33040 0.85690 -0.48330
H55 H 0.45270 0.83020 -0.54140
C57 C 0.3966(15) 1.0319(15) -0.4010(12)
H56 H 0.37470 0.95000 -0.37260
H57 H 0.43060 1.05810 -0.35620
C58 C 0.2856(16) 1.1057(14) -0.4266(11)
H58 H 0.22760 1.10000 -0.37250
H59 H 0.24990 1.07820 -0.46930
H60 H 0.30670 1.18690 -0.45460
O3 O 0.360(2) 0.2070(19) -0.2480(14)
S5* S -1.1009(2) 1.0675(2) 0.19840(18)
S6* S -0.9632(2) 1.3483(2) 0.17631(18)
N10* N -0.9672(8) 0.7911(7) 0.3583(5)
Mo2* Mo 0.96120(6) 0.18052(6) 0.27835(5)
Cu6* Cu 1.05896(11) -0.03491(9) 0.27469(8)
Cu5* Cu 1.19542(10) 0.24561(10) 0.25036(8)
Cu6** Cu 0.05896(11) 1.96509(9) -0.72531(8)
#END
