
#######################################################################
#
#                 Cambridge Crystallographic Data Centre
#                                CCDC
#
#######################################################################
#
# If this CIF has been generated from an entry in the Cambridge
# Structural Database, then it will include bibliographic, chemical,
# crystal, experimental, refinement or atomic coordinate data resulting
# from the CCDC's data processing and validation procedures.
#
#######################################################################

data_CSD_CIF_OBUFUN
_audit_creation_date 2004-12-15
_audit_creation_method CSD-ConQuest-V1
_database_code_CSD OBUFUN
_database_code_depnum_ccdc_archive 'CCDC 235766'
_chemical_formula_sum 'C10 H19 N1 O8 Zn1'
_chemical_formula_moiety
;
(C4 H12 N1 1+)n,n(C6 H5 O7 Zn1 1-),n(H2 O1)
;
_journal_coden_Cambridge 222
_journal_year 2004
_journal_page_first 2230
_journal_name_full 'Dalton Trans. '
loop_
_publ_author_name
"Ming-Sheng Wang"
"Guo-Cong Guo"
"Li-Zhen Cai"
"Wen-Tong Chen"
"Bing Liu"
"A-Qing Qu"
"Jin-Shun Huang"
_chemical_name_systematic
;
catena-(Tetramethylammonium 
(\m~3~-trans-propene-1,2,3-tricarboxylato)-aqua-zinc(ii) monohydrate)
;
_cell_volume   1446.767
_exptl_crystal_colour 'colorless'
_exptl_crystal_density_diffrn 1.591
_exptl_crystal_description 'prism'
_diffrn_ambient_temperature 293
_refine_special_details
;
The tetramethylammonium cations are disordered over two sites with 
occupancies of 0.531:0.469.
;
#These two values have been output from a single CSD field.
_refine_ls_R_factor_gt 0.0412
_refine_ls_wR_factor_gt 0.0412
_symmetry_cell_setting monoclinic
_symmetry_space_group_name_H-M 'P 21/c'
_symmetry_Int_Tables_number 14
loop_
_symmetry_equiv_pos_site_id
_symmetry_equiv_pos_as_xyz
1 x,y,z
2 x,1/2-y,1/2+z
3 -x,-y,-z
4 -x,-1/2+y,-1/2-z
_cell_length_a 8.836(3)
_cell_length_b 12.707(5)
_cell_length_c 13.144(5)
_cell_angle_alpha 90
_cell_angle_beta 101.383(4)
_cell_angle_gamma 90
_cell_formula_units_Z 4
loop_
_atom_type_symbol
_atom_type_radius_bond
C 0.68
H 0.23
N 0.68
O 0.68
Zn 1.45
loop_
_atom_site_label
_atom_site_type_symbol
_atom_site_fract_x
_atom_site_fract_y
_atom_site_fract_z
Zn1 Zn 0.30106(2) 0.562816(16) 0.179119(16)
N1 N 0.6897(2) 0.70385(13) 0.51339(13)
O1 O 0.25944(16) 0.57239(13) 0.02637(11)
H1 H 0.1649(9) 0.5436(12) -0.0098(13)
H2 H 0.3337(9) 0.5595(16) -0.0159(8)
O2 O 0.8450(3) 0.1358(2) 0.03574(19)
O3 O 0.3391(2) 0.77279(17) 0.16523(16)
O4 O 0.21399(17) 0.67487(11) 0.25722(12)
O5 O 0.01802(17) 1.00968(13) 0.38666(12)
O6 O -0.18671(16) 0.93671(10) 0.28857(12)
O7 O 0.48695(16) 1.03839(12) 0.24754(12)
O8 O 0.44111(19) 0.95130(15) 0.38232(12)
C1 C 0.2483(2) 0.76315(17) 0.22383(16)
C2 C 0.1727(2) 0.85984(15) 0.25703(14)
C3 C 0.0480(2) 0.84962(15) 0.29783(15)
H3 H 0.01550 0.78170 0.30900
C4 C -0.0447(2) 0.93937(15) 0.32736(15)
C5 C 0.2399(2) 0.96297(16) 0.23144(15)
H4 H 0.17230 1.01950 0.24440
H5 H 0.24270 0.96390 0.15800
C6 C 0.4007(2) 0.98398(16) 0.29278(15)
C7 C 0.7019(7) 0.7773(3) 0.6003(4)
H6 H 0.80840 0.79500 0.62530
H7 H 0.66070 0.74520 0.65510
H8 H 0.64460 0.84010 0.57750
C8 C 0.7682(7) 0.6024(3) 0.5355(4)
H9 H 0.75780 0.56250 0.47250
H10 H 0.72240 0.56420 0.58470
H11 H 0.87560 0.61410 0.56370
C9? C 0.8488(5) 0.6792(7) 0.5133(6)
H12? H 0.85470 0.63630 0.45410
H13? H 0.89220 0.64170 0.57570
H14? H 0.90550 0.74320 0.51020
C10 C 0.7123(7) 0.7342(5) 0.4084(3)
H15 H 0.69620 0.67390 0.36350
H16 H 0.81550 0.76000 0.41280
H17 H 0.63980 0.78830 0.38100
C11? C 0.5872(8) 0.7539(6) 0.4256(5)
H18? H 0.57950 0.71020 0.36520
H19? H 0.62830 0.82130 0.41230
H20? H 0.48660 0.76280 0.44170
C12 C 0.5225(5) 0.6832(6) 0.4926(7)
H21 H 0.49520 0.64030 0.43160
H22 H 0.46750 0.74870 0.48190
H23 H 0.49570 0.64720 0.55080
C13? C 0.6073(7) 0.6065(4) 0.5326(5)
H24? H 0.59730 0.56100 0.47330
H25? H 0.50660 0.62420 0.54450
H26? H 0.66460 0.57110 0.59250
O6C O 0.18671(16) 0.43671(10) 0.21143(12)
O7C O 0.51305(16) 0.53839(12) 0.25246(12)
Zn1C Zn -0.30106(2) 1.062816(16) 0.320881(16)
Zn1C* Zn 0.69894(2) 1.062816(16) 0.320881(16)
#END
