
#######################################################################
#
#                 Cambridge Crystallographic Data Centre
#                                CCDC
#
#######################################################################
#
# If this CIF has been generated from an entry in the Cambridge
# Structural Database, then it will include bibliographic, chemical,
# crystal, experimental, refinement or atomic coordinate data resulting
# from the CCDC's data processing and validation procedures.
#
#######################################################################

data_CSD_CIF_OCEPAO
_audit_creation_date 2006-07-12
_audit_creation_method CSD-ConQuest-V1
_database_code_CSD OCEPAO
_database_code_depnum_ccdc_archive 'CCDC 267318'
_chemical_formula_sum 'C40 H32 Cu4 Mo8 N8 O26'
_chemical_formula_moiety
;
(C10 H8 Cu1 N2 1+)4n,n(Mo8 O26 4-)
;
_journal_coden_Cambridge 95
_journal_year 2005
_journal_page_first 1767
_journal_name_full 'Izv.Akad.Nauk SSSR,Ser.Khim.(Russ.)(Russ.Chem.Bull.) '
loop_
_publ_author_name
"K.Zhang"
"K.Lyu"
"W.Yang"
_chemical_name_systematic
;
catena-(tetrakis((\m~2~-4,4'-Bipyridyl)-copper(i)) 
tetrakis(\m~3~-oxo)-decakis(\m~2~-oxo)-dodecaoxo-octa-molybdenum(vi))
;
_chemical_name_common
;
catena-(tetrakis((mu!2$-4,4'-Bipyridyl)-copper(i)) alpha-octamolybdate(vi))
;
_cell_volume   2682.917
_exptl_crystal_colour 'brown'
_exptl_crystal_density_diffrn 2.553
_exptl_crystal_description 'prism'
_diffrn_ambient_temperature 295
#These two values have been output from a single CSD field.
_refine_ls_R_factor_gt 0.0766
_refine_ls_wR_factor_gt 0.0766
_symmetry_cell_setting monoclinic
_symmetry_space_group_name_H-M 'P 21/c'
_symmetry_Int_Tables_number 14
loop_
_symmetry_equiv_pos_site_id
_symmetry_equiv_pos_as_xyz
1 x,y,z
2 -x,1/2+y,1/2-z
3 -x,-y,-z
4 x,-1/2-y,-1/2+z
_cell_length_a 10.8126(3)
_cell_length_b 11.2959(4)
_cell_length_c 22.0229(8)
_cell_angle_alpha 90
_cell_angle_beta 94.110(1)
_cell_angle_gamma 90
_cell_formula_units_Z 2
loop_
_atom_type_symbol
_atom_type_radius_bond
C 0.68
H 0.23
Cu 1.35
Mo 1.40
N 0.68
O 0.68
loop_
_atom_site_label
_atom_site_type_symbol
_atom_site_fract_x
_atom_site_fract_y
_atom_site_fract_z
Mo1 Mo -0.02832(10) -0.12284(11) 0.45104(5)
Mo2 Mo -0.02109(10) -0.18431(11) 0.60703(5)
Mo3 Mo 0.29946(10) -0.12620(12) 0.57765(5)
Mo4 Mo 0.2797(1) 0.06814(11) 0.45719(5)
Cu1 Cu 0.02394(16) -0.0502(2) -0.09156(10)
Cu2 Cu -0.05427(16) -0.2610(2) 0.27367(10)
O1 O 0.0294(8) -0.2173(8) 0.5098(4)
O2 O -0.0121(10) -0.197(1) 0.3843(4)
O3 O 0.0631(8) 0.0128(8) 0.4472(4)
O4 O 0.0048(9) -0.3282(9) 0.6286(5)
O5 O -0.0568(8) -0.1154(9) 0.6725(4)
O6 O 0.1486(8) -0.1251(10) 0.6102(4)
O7 O 0.3560(11) -0.2660(9) 0.5838(5)
O8 O 0.3977(9) -0.039(1) 0.6204(5)
O9 O 0.2918(8) -0.0867(8) 0.4967(4)
O10 O 0.4140(8) 0.1356(9) 0.4823(5)
O11 O 0.3067(9) 0.0165(9) 0.3873(4)
O12 O -0.1835(8) -0.2033(8) 0.5686(4)
O13 O -0.1894(8) -0.1013(8) 0.4549(4)
N1 N 0.1979(10) -0.0544(11) -0.0927(5)
N2 N 0.8498(10) -0.0515(10) -0.0898(6)
N3 N 0.1217(10) -0.2641(12) 0.2716(5)
N4 N 0.7706(10) -0.2574(11) 0.2703(5)
C1 C 0.2641(14) -0.1435(14) -0.0686(7)
H1 H 0.22270 -0.20600 -0.05150
C2 C 0.3920(13) -0.1479(14) -0.0678(7)
H2 H 0.43450 -0.21320 -0.05120
C3 C 0.4562(11) -0.0560(12) -0.0913(6)
C4 C 0.3870(12) 0.0403(12) -0.1137(7)
H3 H 0.42600 0.10650 -0.12860
C5 C 0.2593(13) 0.0360(13) -0.1134(7)
H4 H 0.21400 0.10070 -0.12880
C6 C 0.5923(12) -0.0540(12) -0.0907(6)
C7 C 0.6661(12) -0.1087(13) -0.0440(6)
H5 H 0.63060 -0.14800 -0.01250
C8 C 0.7918(13) -0.1025(12) -0.0462(6)
H6 H 0.84030 -0.13700 -0.01440
C9 C 0.7790(12) 0.0011(13) -0.1355(6)
H7 H 0.81730 0.03910 -0.16660
C10 C 0.6516(12) -0.0008(13) -0.1368(6)
H8 H 0.60500 0.03420 -0.16910
C11 C 0.1833(12) -0.3576(14) 0.2530(6)
H9 H 0.13850 -0.42500 0.24100
C12 C 0.3105(12) -0.3596(13) 0.2505(6)
H10 H 0.35060 -0.42650 0.23700
C13 C 0.3769(12) -0.2593(13) 0.2687(6)
C14 C 0.3154(12) -0.1653(15) 0.2888(7)
H11 H 0.35910 -0.09780 0.30140
C15 C 0.1881(14) -0.1680(13) 0.2908(6)
H12 H 0.14740 -0.10260 0.30550
C16 C 0.5134(11) -0.2588(12) 0.2682(6)
C17 C 0.5748(11) -0.3158(14) 0.2243(6)
H13 H 0.53050 -0.35710 0.19330
C18 C 0.6986(13) -0.3118(15) 0.2262(7)
H14 H 0.73770 -0.34910 0.19510
C19 C 0.7111(14) -0.1990(16) 0.3125(7)
H15 H 0.75760 -0.15820 0.34280
C20 C 0.5838(12) -0.1969(13) 0.3126(6)
H16 H 0.54550 -0.15450 0.34230
O3B O -0.0631(8) -0.0128(8) 0.5528(4)
Mo1B Mo 0.02832(10) 0.12284(11) 0.54896(5)
O1B O -0.0294(8) 0.2173(8) 0.4902(4)
Mo2B Mo 0.02109(10) 0.18431(11) 0.39297(5)
Mo4B Mo -0.2797(1) -0.06814(11) 0.54281(5)
O9B O -0.2918(8) 0.0867(8) 0.5033(4)
Mo3B Mo -0.29946(10) 0.12620(12) 0.42235(5)
O6B O -0.1486(8) 0.1251(10) 0.3898(4)
O4B O -0.0048(9) 0.3282(9) 0.3714(5)
O5B O 0.0568(8) 0.1154(9) 0.3275(4)
O12B O 0.1835(8) 0.2033(8) 0.4314(4)
O10B O -0.4140(8) -0.1356(9) 0.5177(5)
O11B O -0.3067(9) -0.0165(9) 0.6127(4)
O13B O 0.1894(8) 0.1013(8) 0.5451(4)
O2B O 0.0121(10) 0.197(1) 0.6157(4)
O7B O -0.3560(11) 0.2660(9) 0.4162(5)
O8B O -0.3977(9) 0.039(1) 0.3796(5)
N2* N -0.1502(10) -0.0515(10) -0.0898(6)
Cu1* Cu 1.02394(16) -0.0502(2) -0.09156(10)
N4* N -0.2294(10) -0.2574(11) 0.2703(5)
Cu2* Cu 0.94573(16) -0.2610(2) 0.27367(10)
#END
