
#######################################################################
#
#                 Cambridge Crystallographic Data Centre
#                                CCDC
#
#######################################################################
#
# If this CIF has been generated from an entry in the Cambridge
# Structural Database, then it will include bibliographic, chemical,
# crystal, experimental, refinement or atomic coordinate data resulting
# from the CCDC's data processing and validation procedures.
#
#######################################################################

data_CSD_CIF_OCETOG
_audit_creation_date 2006-07-13
_audit_creation_method CSD-ConQuest-V1
_database_code_CSD OCETOG
_database_code_depnum_ccdc_archive 'CCDC 284262'
_chemical_formula_sum 'C36 H46 Na2 O42 Zn6'
_chemical_formula_moiety
;
(C36 H22 Na2 O30 Zn5 2-)n,n(H12 O6 Zn1 2+),6n(H2 O1)
;
_journal_coden_Cambridge 1295
_journal_volume 9
_journal_year 2006
_journal_page_first 220
_journal_name_full 'Inorg.Chem.Commun. '
loop_
_publ_author_name
"Ling Xu"
"Bing Liu"
"Guocong Guo"
"Jin-shun Huang"
_chemical_name_systematic
;
catena-(Hexa-aqua-zinc(ii) 
tetrakis(\m~5~-1,2,3-benzenetricarboxylato)-bis(\m~3~-hydroxo)-tetra-aqua-di-s
odium-penta-zinc(ii) hexahydrate)
;
_cell_volume   2772.966
_exptl_crystal_colour 'colorless'
_exptl_crystal_density_diffrn 1.903
_exptl_special_details
;
blue fluorescent

;
_exptl_crystal_description 'prism'
_diffrn_ambient_temperature 293
#These two values have been output from a single CSD field.
_refine_ls_R_factor_gt 0.0282
_refine_ls_wR_factor_gt 0.0282
_symmetry_cell_setting monoclinic
_symmetry_space_group_name_H-M 'P 21/n'
_symmetry_Int_Tables_number 14
loop_
_symmetry_equiv_pos_site_id
_symmetry_equiv_pos_as_xyz
1 x,y,z
2 1/2-x,1/2+y,1/2-z
3 -x,-y,-z
4 -1/2+x,-1/2-y,-1/2+z
_cell_length_a 14.574(3)
_cell_length_b 12.967(4)
_cell_length_c 14.992(3)
_cell_angle_alpha 90
_cell_angle_beta 101.836(15)
_cell_angle_gamma 90
_cell_formula_units_Z 2
loop_
_atom_type_symbol
_atom_type_radius_bond
C 0.68
H 0.23
Na 1.41
O 0.68
Zn 1.10
loop_
_atom_site_label
_atom_site_type_symbol
_atom_site_fract_x
_atom_site_fract_y
_atom_site_fract_z
Zn1 Zn 0.50000 0.00000 0.00000
Zn2 Zn 0.42846(1) 0.12866(1) -0.197740(9)
Zn3 Zn 0.595514(10) 0.137245(10) 0.188157(9)
C1 C 0.33191(8) 0.25965(9) 0.07214(8)
C2 C 0.27607(8) 0.26968(8) -0.01560(7)
C3 C 0.20090(8) 0.34005(9) -0.02980(8)
C4 C 0.18125(10) 0.39532(10) 0.04337(9)
H1 H 0.13010 0.43980 0.03420
C5 C 0.23624(11) 0.38516(11) 0.12910(9)
H2 H 0.22290 0.42340 0.17740
C6 C 0.31094(10) 0.31837(10) 0.14327(8)
H3 H 0.34820 0.31220 0.20130
C7 C 0.41384(8) 0.18679(9) 0.09107(8)
C8 C 0.29324(8) 0.20156(9) -0.09244(8)
C9 C 0.13901(9) 0.35986(9) -0.12110(8)
O1 O 0.46808(6) 0.19351(6) 0.16928(5)
O2 O 0.42476(6) 0.12546(6) 0.03121(5)
O3 O 0.24743(6) 0.12016(6) -0.10620(6)
O4 O 0.35273(6) 0.23153(6) -0.13735(5)
O5 O 0.17618(6) 0.35152(7) -0.19104(5)
O6 O 0.05742(7) 0.38582(9) -0.12543(7)
C10 C 0.30229(8) -0.23500(9) 0.07358(8)
C11 C 0.24561(8) -0.24849(8) -0.01277(7)
C12 C 0.16033(9) -0.30078(9) -0.02132(8)
C13 C 0.13206(9) -0.33764(9) 0.05569(8)
H4 H 0.07470 -0.37100 0.04990
C14 C 0.18921(10) -0.32487(10) 0.14152(8)
H5 H 0.17010 -0.34990 0.19300
C15 C 0.27396(9) -0.27514(10) 0.15011(8)
H6 H 0.31270 -0.26820 0.20740
C16 C 0.39181(8) -0.17394(9) 0.08748(8)
C17 C 0.27482(9) -0.20344(8) -0.09459(7)
C18 C 0.09758(9) -0.31970(9) -0.11245(8)
O7 O 0.39633(6) -0.09685(6) 0.03876(5)
O8 O 0.45610(6) -0.20500(6) 0.15176(6)
O9 O 0.34978(6) -0.23829(6) -0.11445(5)
O10 O 0.22702(6) -0.13244(6) -0.13699(5)
O11 O 0.13746(6) -0.34863(7) -0.17640(5)
O12 O 0.01147(7) -0.30866(8) -0.12009(6)
Na1 Na 0.33845(4) 0.39409(4) -0.20698(4)
O13 O 0.49115(9) 0.39376(9) -0.23319(9)
O14 O 0.33345(10) 0.57120(8) -0.21999(8)
O15 O 0.59216(6) -0.00125(5) 0.13176(5)
Zn4 Zn 0.00000 0.00000 0.00000
O16 O 0.07889(8) -0.00333(8) 0.13488(7)
O17 O -0.12357(7) 0.01151(7) 0.04839(8)
O18 O 0.02685(8) 0.15983(7) -0.00195(7)
O19 O 0.27072(8) 0.01919(9) 0.14840(8)
O20 O 0.45250(7) -0.02779(7) 0.26287(7)
O21 O -0.01583(10) -0.15369(10) 0.19695(10)
Zn2B Zn 0.57154(1) -0.12866(1) 0.197740(9)
Zn2A Zn 0.07154(1) -0.37134(1) -0.302260(9)
Zn2C Zn 0.92846(1) 0.37134(1) 0.302260(9)
Zn3B Zn 0.404486(10) -0.137245(10) -0.188157(9)
Zn3C Zn 0.095514(10) 0.362755(10) -0.311843(9)
Zn3A Zn 0.904486(10) -0.362755(10) 0.311843(9)
C1B C 0.66809(8) -0.25965(9) -0.07214(8)
C2B C 0.72393(8) -0.26968(8) 0.01560(7)
C3B C 0.79910(8) -0.34005(9) 0.02980(8)
C4B C 0.81875(10) -0.39532(10) -0.04337(9)
H1B H 0.86990 -0.43980 -0.03420
C5B C 0.76376(11) -0.38516(11) -0.12910(9)
H2B H 0.77710 -0.42340 -0.17740
C6B C 0.68906(10) -0.31837(10) -0.14327(8)
H3B H 0.65180 -0.31220 -0.20130
C7B C 0.58616(8) -0.18679(9) -0.09107(8)
C8B C 0.70676(8) -0.20156(9) 0.09244(8)
C9B C 0.86099(9) -0.35986(9) 0.12110(8)
O1B O 0.53192(6) -0.19351(6) -0.16928(5)
O2B O 0.57524(6) -0.12546(6) -0.03121(5)
O3B O 0.75257(6) -0.12016(6) 0.10620(6)
O4B O 0.64727(6) -0.23153(6) 0.13735(5)
O5B O 0.82382(6) -0.35152(7) 0.19104(5)
O5C O 0.67618(6) 0.14848(7) 0.30896(5)
O5A O 0.32382(6) -0.14848(7) -0.30896(5)
O6B O 0.94258(7) -0.38582(9) 0.12543(7)
C10B C 0.69771(8) 0.23500(9) -0.07358(8)
C11B C 0.75439(8) 0.24849(8) 0.01277(7)
C12B C 0.83967(9) 0.30078(9) 0.02132(8)
C13B C 0.86794(9) 0.33764(9) -0.05569(8)
H4B H 0.92530 0.37100 -0.04990
C14B C 0.81079(10) 0.32487(10) -0.14152(8)
H5B H 0.82990 0.34990 -0.19300
C15B C 0.72604(9) 0.27514(10) -0.15011(8)
H6B H 0.68730 0.26820 -0.20740
C16B C 0.60819(8) 0.17394(9) -0.08748(8)
C17B C 0.72518(9) 0.20344(8) 0.09459(7)
C18B C 0.90242(9) 0.31970(9) 0.11245(8)
O7B O 0.60367(6) 0.09685(6) -0.03876(5)
O8B O 0.54390(6) 0.20500(6) -0.15176(6)
O9B O 0.65022(6) 0.23829(6) 0.11445(5)
O10B O 0.77298(6) 0.13244(6) 0.13699(5)
O10A O 0.27298(6) 0.36756(6) -0.36301(5)
O10C O 0.72702(6) -0.36756(6) 0.36301(5)
O11B O 0.86254(6) 0.34863(7) 0.17640(5)
O11A O 0.36254(6) 0.15137(7) -0.32360(5)
O11C O 0.63746(6) -0.15137(7) 0.32360(5)
O12B O 0.98853(7) 0.30866(8) 0.12009(6)
Na1B Na 0.66155(4) -0.39409(4) 0.20698(4)
Na1A Na 0.16155(4) -0.10591(4) -0.29302(4)
Na1C Na 0.83845(4) 0.10591(4) 0.29302(4)
O13B O 0.50885(9) -0.39376(9) 0.23319(9)
O14B O 0.66655(10) -0.57120(8) 0.21999(8)
O15B O 0.40784(6) 0.00125(5) -0.13176(5)
O16B O -0.07889(8) 0.00333(8) -0.13488(7)
O17B O 0.12357(7) -0.01151(7) -0.04839(8)
O18B O -0.02685(8) -0.15983(7) 0.00195(7)
#END
