
#######################################################################
#
#                 Cambridge Crystallographic Data Centre
#                                CCDC
#
#######################################################################
#
# If this CIF has been generated from an entry in the Cambridge
# Structural Database, then it will include bibliographic, chemical,
# crystal, experimental, refinement or atomic coordinate data resulting
# from the CCDC's data processing and validation procedures.
#
#######################################################################

data_CSD_CIF_OCEXUS
_audit_creation_date 2017-01-10
_audit_creation_method CSD-ConQuest-V1
_database_code_CSD OCEXUS
_database_code_depnum_ccdc_archive 'CCDC 1502620'
_chemical_formula_sum 'C24 H58 Fe1 N8 S6 Sn2'
_chemical_formula_moiety
;
(C12 H28 Fe1 N4 S6 Sn2 2-)n,2n(C6 H15 N2 1+)
;
_journal_coden_Cambridge 29
_journal_volume 642
_journal_year 2016
_journal_page_first 1427
_journal_name_full 'Z.Anorg.Allg.Chem. '
loop_
_publ_author_name
"J.Hilbert"
"N.Pienack"
"Henning Luhmann"
"C.Nather"
"Wolfgang Bensch"
_chemical_name_systematic
;
catena-[bis(2-aminocyclohexanaminium) 
tetrakis(\m-sulfido)-bis(cyclohexane-1,2-diamine)-bis(sulfido)-iron-di-tin]
;
_cell_volume    998.499
_exptl_crystal_colour 'yellow'
_exptl_crystal_density_diffrn 1.571
_exptl_crystal_description 'needles'
_exptl_crystal_preparation 'Solvothermal Synthesis'
_diffrn_ambient_temperature 293
#These two values have been output from a single CSD field.
_refine_ls_R_factor_gt 0.0294
_refine_ls_wR_factor_gt 0.0294
_symmetry_cell_setting triclinic
_symmetry_space_group_name_H-M 'P -1'
_symmetry_Int_Tables_number 2
loop_
_symmetry_equiv_pos_site_id
_symmetry_equiv_pos_as_xyz
1 x,y,z
2 -x,-y,-z
_cell_length_a 7.2867(3)
_cell_length_b 11.1149(5)
_cell_length_c 13.1459(6)
_cell_angle_alpha 76.927(4)
_cell_angle_beta 74.900(4)
_cell_angle_gamma 82.578(4)
_cell_formula_units_Z 1
loop_
_atom_type_symbol
_atom_type_radius_bond
C 0.68
H 0.23
Fe 1.52
N 0.68
S 1.02
Sn 1.39
loop_
_atom_site_label
_atom_site_type_symbol
_atom_site_fract_x
_atom_site_fract_y
_atom_site_fract_z
Sn1 Sn 0.61376(2) 0.360718(13) -0.005151(14)
Fe1 Fe 0.50000 0.00000 0.00000
S1 S 0.53102(10) 0.23072(6) -0.10037(6)
S2 S 0.86727(9) 0.29022(6) 0.07592(6)
S3 S 0.34009(10) 0.43580(6) 0.12231(6)
N1 N 0.6153(3) 0.0199(2) 0.13386(18)
H1 H 0.69160 -0.04760 0.15210
H2 H 0.68450 0.08650 0.11400
N2 N 0.2355(3) 0.0459(2) 0.11263(19)
H3 H 0.16990 0.11070 0.08000
H4 H 0.16280 -0.01900 0.13450
C1 C 0.4560(6) 0.0346(6) 0.2251(3)
H5 H 0.43330 -0.05270 0.25510
C2 C 0.2798(5) 0.0766(6) 0.2046(3)
H6 H 0.30370 0.16380 0.17460
C3 C 0.1151(5) 0.0938(4) 0.2960(3)
H7 H 0.05120 0.01750 0.32200
H8 H 0.02550 0.15790 0.26970
C4 C 0.1658(8) 0.1282(8) 0.3883(4)
H9 H 0.15720 0.21790 0.37660
H10 H 0.06900 0.09950 0.45280
C5 C 0.3405(9) 0.0855(7) 0.4092(4)
H11 H 0.32470 0.00700 0.45970
H12 H 0.37440 0.14290 0.44590
C6 C 0.5074(6) 0.0668(4) 0.3182(3)
H13 H 0.57420 0.14200 0.29300
H14 H 0.59450 0.00110 0.34500
N3 N 0.1680(3) 0.4325(2) 0.86433(19)
H15 H 0.09240 0.38210 0.91610
H16 H 0.14430 0.50920 0.87640
H17 H 0.28930 0.40730 0.86370
N4 N 0.0482(5) 0.2074(3) 0.8183(3)
H18 H -0.06930 0.22320 0.80610
H19 H 0.05800 0.21210 0.88410
C7 C 0.1313(4) 0.4303(3) 0.7583(2)
H20 H -0.00150 0.46070 0.75950
C8 C 0.1613(5) 0.2983(3) 0.7383(3)
H21 H 0.29560 0.27060 0.73500
C9 C 0.1262(6) 0.3002(5) 0.6280(3)
H22 H 0.15220 0.21730 0.61310
H23 H -0.00680 0.32540 0.62940
C10 C 0.2494(7) 0.3873(6) 0.5396(3)
H24 H 0.38200 0.35650 0.53260
H25 H 0.21720 0.38940 0.47210
C11 C 0.2248(8) 0.5151(6) 0.5610(3)
H26 H 0.09630 0.54980 0.55900
H27 H 0.31280 0.56670 0.50490
C12 C 0.2602(6) 0.5168(4) 0.6706(3)
H28 H 0.39250 0.49070 0.67050
H29 H 0.23470 0.60030 0.68410
Sn1A Sn 0.38624(2) -0.360718(13) 0.005151(14)
S1A S 0.46898(10) -0.23072(6) 0.10037(6)
S2A S 0.13273(9) -0.29022(6) -0.07592(6)
S3A S 0.65991(10) -0.43580(6) -0.12231(6)
N1A N 0.3847(3) -0.0199(2) -0.13386(18)
H1A H 0.30840 0.04760 -0.15210
H2A H 0.31550 -0.08650 -0.11400
N2A N 0.7645(3) -0.0459(2) -0.11263(19)
H3A H 0.83010 -0.11070 -0.08000
H4A H 0.83720 0.01900 -0.13450
C1A C 0.5440(6) -0.0346(6) -0.2251(3)
H5A H 0.56670 0.05270 -0.25510
C2A C 0.7202(5) -0.0766(6) -0.2046(3)
H6A H 0.69630 -0.16380 -0.17460
C3A C 0.8849(5) -0.0938(4) -0.2960(3)
H7A H 0.94880 -0.01750 -0.32200
H8A H 0.97450 -0.15790 -0.26970
C4A C 0.8342(8) -0.1282(8) -0.3883(4)
H9A H 0.84280 -0.21790 -0.37660
H10A H 0.93100 -0.09950 -0.45280
C5A C 0.6595(9) -0.0855(7) -0.4092(4)
H11A H 0.67530 -0.00700 -0.45970
H12A H 0.62560 -0.14290 -0.44590
C6A C 0.4926(6) -0.0668(4) -0.3182(3)
H13A H 0.42580 -0.14200 -0.29300
H14A H 0.40550 -0.00110 -0.34500
Sn1* Sn 0.61376(2) -0.639282(13) -0.005151(14)
Sn1A* Sn 0.38624(2) 0.639282(13) 0.005151(14)
S3* S 0.34009(10) -0.56420(6) 0.12231(6)
S3A* S 0.65991(10) 0.56420(6) -0.12231(6)
#END
