
#######################################################################
#
#                 Cambridge Crystallographic Data Centre
#                                CCDC
#
#######################################################################
#
# If this CIF has been generated from an entry in the Cambridge
# Structural Database, then it will include bibliographic, chemical,
# crystal, experimental, refinement or atomic coordinate data resulting
# from the CCDC's data processing and validation procedures.
#
#######################################################################

data_CSD_CIF_OCIHIS
_audit_creation_date 2006-07-13
_audit_creation_method CSD-ConQuest-V1
_database_code_CSD OCIHIS
_database_code_depnum_ccdc_archive 'CCDC 267682'
_chemical_formula_sum 'C10 H30 N2 Na2 O17 P4 Zr1'
_chemical_formula_moiety
;
(C10 H20 N2 O12 P4 Zr1 2-)n,2n(Na1 1+),5n(H2 O1)
;
_journal_coden_Cambridge 9
_journal_volume 45
_journal_year 2006
_journal_page_first 2388
_journal_name_full 'Inorg.Chem. '
loop_
_publ_author_name
"R.Vivani"
"F.Costantino"
"U.Costantino"
"M.Nocchetti"
_chemical_name_systematic
;
catena-[Di-sodium (\m~6~-cyclohexane-1,4-diamine-N,N,N',N'-tetrakis( 
methylphosphonato))-zirconium pentahydrate]
;
_cell_volume   2448.415
_exptl_crystal_colour 'white'
_exptl_special_details
;
powder data
authors state that two of the anionic phosphonate O atoms are protonated and 
the charges on the other two are balanced by the sodium ions. They have not 
located these protons, and we have placed them arbitrarily on two O atoms
;
_diffrn_ambient_temperature ?
_diffrn_special_details
;
The study was carried out at room temperature,in the range 283-303K

;
#These two values have been output from a single CSD field.
_refine_ls_R_factor_gt 0.082
_refine_ls_wR_factor_gt 0.082
_symmetry_cell_setting monoclinic
_symmetry_space_group_name_H-M 'C 2/c'
_symmetry_Int_Tables_number 15
loop_
_symmetry_equiv_pos_site_id
_symmetry_equiv_pos_as_xyz
1 x,y,z
2 1/2+x,1/2+y,z
3 -x,y,1/2-z
4 1/2-x,1/2+y,1/2-z
5 -x,-y,-z
6 -1/2-x,-1/2-y,-z
7 x,-y,-1/2+z
8 -1/2+x,-1/2-y,-1/2+z
_cell_length_a 18.923(1)
_cell_length_b 16.5046(7)
_cell_length_c 7.8437(3)
_cell_angle_alpha 90
_cell_angle_beta 91.868(3)
_cell_angle_gamma 90
_cell_formula_units_Z 4
loop_
_atom_type_symbol
_atom_type_radius_bond
C 0.68
N 0.68
Na 0.97
O 0.68
P 1.05
Zr 1.56
loop_
_atom_site_label
_atom_site_type_symbol
_atom_site_fract_x
_atom_site_fract_y
_atom_site_fract_z
O1 O 0.0629(5) 0.8014(5) 0.863(1)
O2 O 0.0660(5) 1.0237(5) 1.353(2)
O3 O 0.0837(8) 0.6472(6) 0.880(1)
C1 C 0.1190(8) 0.8753(7) 1.236(2)
P1 P 0.0672(4) 0.7236(4) 0.9886(8)
O4 O -0.0016(5) 0.7084(9) 1.063(2)
O5 O 0.1717(5) 0.9680(7) 1.504(2)
P2 P 0.1045(4) 0.9460(4) 1.4063(9)
N1 N 0.1245(6) 0.7898(8) 1.298(2)
C2 C 0.2534(8) 0.804(1) 1.350(2)
C3 C 0.1365(7) 0.7367(9) 1.154(2)
C4 C 0.1823(7) 0.789(1) 1.432(2)
C5 C 0.1872(7) 0.705(1) 1.510(2)
O6 O 0.0570(6) 0.8973(8) 1.538(1)
Zr1 Zr 0.00000 0.8914(2) 0.75000
Na1 Na 0.2639(5) 0.9556(5) 0.780(1)
O7 O 0.0386(6) 0.4437(5) -0.0489(7)
O8 O 0.1505(7) 0.5107(8) -0.088(2)
O9 O 0.00000 0.453(1) 0.25000
O1E O 0.4371(5) 0.6986(5) 2.137(1)
O1B O -0.0629(5) 0.8014(5) 0.637(1)
O2E O 0.4340(5) 0.4763(5) 1.647(2)
O2F O 0.0660(5) 0.9763(5) 0.853(2)
O2D O -0.0660(5) 0.9763(5) 0.647(2)
O3E O 0.4163(8) 0.8528(6) 2.120(1)
C1E C 0.3810(8) 0.6247(7) 1.764(2)
P1E P 0.4328(4) 0.7764(4) 2.0114(8)
O4E O 0.5016(5) 0.7916(9) 1.937(2)
O5E O 0.3283(5) 0.5320(7) 1.496(2)
P2E P 0.3955(4) 0.5540(4) 1.5937(9)
N1E N 0.3755(6) 0.7102(8) 1.702(2)
C2E C 0.2466(8) 0.696(1) 1.650(2)
C3E C 0.3635(7) 0.7633(9) 1.846(2)
C4E C 0.3177(7) 0.711(1) 1.568(2)
C5E C 0.3128(7) 0.795(1) 1.490(2)
O6E O 0.4430(6) 0.6027(8) 1.462(1)
O6* O 0.0570(6) 0.8973(8) 0.538(1)
O6B O -0.0570(6) 0.8973(8) 0.962(1)
Zr1F Zr 0.00000 1.1086(2) 1.25000
Zr1* Zr 0.00000 0.8914(2) 1.75000
Zr1A Zr 0.50000 0.3914(2) 1.75000
Zr1G Zr 0.50000 0.6086(2) 1.25000
Zr1G* Zr 0.50000 0.6086(2) 2.25000
#END
