
#######################################################################
#
#                 Cambridge Crystallographic Data Centre
#                                CCDC
#
#######################################################################
#
# If this CIF has been generated from an entry in the Cambridge
# Structural Database, then it will include bibliographic, chemical,
# crystal, experimental, refinement or atomic coordinate data resulting
# from the CCDC's data processing and validation procedures.
#
#######################################################################

data_CSD_CIF_OCIREY
_audit_creation_date 2006-07-12
_audit_creation_method CSD-ConQuest-V1
_database_code_CSD OCIREY
_database_code_depnum_ccdc_archive 'CCDC 279752'
_chemical_formula_sum 'C42 H22 Er2 N6 O24'
_chemical_formula_moiety
;
(C32 H12 Er2 N4 O24 2-)n,n(C10 H10 N2 2+)
;
_journal_coden_Cambridge 155
_journal_volume 359
_journal_year 2006
_journal_page_first 2047
_journal_name_full 'Inorg.Chim.Acta '
loop_
_publ_author_name
"Yixia Ren"
"Sanping Chen"
"Gang Xie"
"Shengli Gao"
"Qizhen Shi"
_chemical_name_systematic
;
catena-(4,4'-bipyridinium 
bis(\m~3~-5-nitroisophthalato-O,O',O'',O''')-bis(\m~3~-5-nitroisophthalato-O,O
',O'')-di-erbium(iii))
;
_cell_volume   1057.466
_exptl_crystal_colour 'pink'
_exptl_crystal_density_diffrn 2.087
_exptl_crystal_description 'block'
_diffrn_ambient_temperature 273
#These two values have been output from a single CSD field.
_refine_ls_R_factor_gt 0.0271
_refine_ls_wR_factor_gt 0.0271
_symmetry_cell_setting triclinic
_symmetry_space_group_name_H-M 'P -1'
_symmetry_Int_Tables_number 2
loop_
_symmetry_equiv_pos_site_id
_symmetry_equiv_pos_as_xyz
1 x,y,z
2 -x,-y,-z
_cell_length_a 8.6789(10)
_cell_length_b 9.3860(11)
_cell_length_c 13.8299(16)
_cell_angle_alpha 84.9
_cell_angle_beta 77.94
_cell_angle_gamma 73.81
_cell_formula_units_Z 1
loop_
_atom_type_symbol
_atom_type_radius_bond
C 0.68
H 0.23
Er 1.64
N 0.68
O 0.68
loop_
_atom_site_label
_atom_site_type_symbol
_atom_site_fract_x
_atom_site_fract_y
_atom_site_fract_z
Er1 Er 0.326786(18) 0.945006(18) 0.915556(13)
N1 N -0.2704(5) 1.4949(5) 0.6164(4)
N2 N -0.1929(5) 0.3994(5) 1.2283(4)
O1 O 0.2325(4) 0.9961(4) 0.7731(2)
O2 O 0.2710(4) 1.1389(5) 0.6384(3)
O3 O -0.3520(4) 1.0156(3) 0.9293(2)
O4 O -0.5392(3) 1.1241(3) 0.8396(2)
O5 O -0.4068(6) 1.5231(6) 0.5979(4)
O6 O -0.1769(6) 1.5700(5) 0.5869(5)
O7 O 0.1480(3) 0.8076(3) 0.9601(2)
O8 O -0.1120(3) 0.8614(3) 1.0348(2)
O9 O 0.5055(3) 0.2866(3) 1.0304(2)
O10 O 0.4355(4) 0.2047(3) 1.1823(2)
O11 O -0.1711(6) 0.2974(6) 1.2880(4)
O12 O -0.3264(4) 0.4558(5) 1.2056(4)
C1 C 0.1834(5) 1.0955(5) 0.7116(3)
C2 C 0.0017(5) 1.1685(5) 0.7230(3)
C3 C -0.1111(5) 1.1077(5) 0.7873(3)
H1 H -0.07490 1.02440 0.82660
C4 C -0.2777(5) 1.1709(4) 0.7931(3)
C5 C -0.3320(5) 1.2983(5) 0.7365(3)
H2 H -0.44310 1.34100 0.73880
C6 C -0.2169(5) 1.3593(5) 0.6771(4)
C7 C -0.0504(5) 1.2972(5) 0.6678(3)
H3 H 0.02410 1.34030 0.62590
C8 C -0.3993(5) 1.1009(4) 0.8598(3)
C9 C 0.0281(5) 0.7773(4) 1.0173(3)
C10 C 0.0547(5) 0.6274(4) 1.0689(3)
C11 C 0.2117(5) 0.5323(4) 1.0631(3)
H4 H 0.30090 0.55950 1.02430
C12 C 0.2346(5) 0.3962(4) 1.1157(3)
C13 C 0.1029(5) 0.3555(5) 1.1728(3)
H5 H 0.11790 0.26690 1.21000
C14 C -0.0523(5) 0.4482(5) 1.1741(4)
C15 C -0.0784(5) 0.5847(5) 1.1241(3)
H6 H -0.18360 0.64650 1.12750
C16 C 0.4021(5) 0.2921(4) 1.1092(3)
N3 N 0.4195(4) 0.9420(5) 0.4133(3)
H7 H 0.52280 0.92590 0.39060
C17 C 0.3186(6) 1.0659(6) 0.3858(4)
H8 H 0.35970 1.13580 0.34440
C18 C 0.1526(6) 1.0907(6) 0.4189(4)
H9 H 0.08170 1.17710 0.39890
C19 C 0.0904(5) 0.9882(5) 0.4815(3)
C20 C 0.2011(6) 0.8616(6) 0.5091(4)
H10 H 0.16440 0.78960 0.55080
C21 C 0.3658(6) 0.8433(7) 0.4743(4)
H11 H 0.44030 0.75950 0.49420
Er1A Er -0.326786(18) 1.054994(18) 1.084444(13)
Er1* Er -0.673214(18) 0.945006(18) 0.915556(13)
Er1A* Er 0.673214(18) 0.054994(18) 1.084444(13)
Er1A** Er 0.673214(18) 1.054994(18) 1.084444(13)
Er1** Er -0.673214(18) 1.945006(18) 0.915556(13)
N1A N 0.2704(5) 0.5051(5) 1.3836(4)
N2A N 0.1929(5) 1.6006(5) 0.7717(4)
O1A O -0.2325(4) 1.0039(4) 1.2269(2)
O2A O -0.2710(4) 0.8611(5) 1.3616(3)
O3A O 0.3520(4) 0.9844(3) 1.0707(2)
O4A O 0.5392(3) 0.8759(3) 1.1604(2)
O4* O 0.4608(3) 1.1241(3) 0.8396(2)
O4A* O -0.4608(3) 0.8759(3) 1.1604(2)
O5A O 0.4068(6) 0.4769(6) 1.4021(4)
O6A O 0.1769(6) 0.4300(5) 1.4131(5)
O7A O -0.1480(3) 1.1924(3) 1.0399(2)
O8A O 0.1120(3) 1.1386(3) 0.9652(2)
O9A O -0.5055(3) 1.7134(3) 0.9696(2)
O9A* O 0.4945(3) 0.7134(3) 0.9696(2)
O9* O -0.4945(3) 1.2866(3) 1.0304(2)
O10A O -0.4355(4) 1.7953(3) 0.8177(2)
O10A* O 0.5645(4) 0.7953(3) 0.8177(2)
O10* O -0.5645(4) 1.2047(3) 1.1823(2)
O11A O 0.1711(6) 1.7026(6) 0.7120(4)
O12A O 0.3264(4) 1.5442(5) 0.7944(4)
C1A C -0.1834(5) 0.9045(5) 1.2884(3)
C2A C -0.0017(5) 0.8315(5) 1.2770(3)
C3A C 0.1111(5) 0.8923(5) 1.2127(3)
H1A H 0.07490 0.97560 1.17340
C4A C 0.2777(5) 0.8291(4) 1.2069(3)
C5A C 0.3320(5) 0.7017(5) 1.2635(3)
H2A H 0.44310 0.65900 1.26120
C6A C 0.2169(5) 0.6407(5) 1.3229(4)
C7A C 0.0504(5) 0.7028(5) 1.3322(3)
H3A H -0.02410 0.65970 1.37410
C8A C 0.3993(5) 0.8991(4) 1.1402(3)
C9A C -0.0281(5) 1.2227(4) 0.9827(3)
C10A C -0.0547(5) 1.3726(4) 0.9311(3)
C11A C -0.2117(5) 1.4677(4) 0.9369(3)
H4A H -0.30090 1.44050 0.97570
C12A C -0.2346(5) 1.6038(4) 0.8843(3)
C13A C -0.1029(5) 1.6445(5) 0.8272(3)
H5A H -0.11790 1.73310 0.79000
C14A C 0.0523(5) 1.5518(5) 0.8259(4)
C15A C 0.0784(5) 1.4153(5) 0.8759(3)
H6A H 0.18360 1.35350 0.87250
C16A C -0.4021(5) 1.7079(4) 0.8908(3)
N3A N -0.4195(4) 1.0580(5) 0.5867(3)
H7A H -0.52280 1.07410 0.60940
C17A C -0.3186(6) 0.9341(6) 0.6142(4)
H8A H -0.35970 0.86420 0.65560
C18A C -0.1526(6) 0.9093(6) 0.5811(4)
H9A H -0.08170 0.82290 0.60110
C19A C -0.0904(5) 1.0118(5) 0.5185(3)
C20A C -0.2011(6) 1.1384(6) 0.4909(4)
H10A H -0.16440 1.21040 0.44920
C21A C -0.3658(6) 1.1567(7) 0.5257(4)
H11A H -0.44030 1.24050 0.50580
#END
