
#######################################################################
#
#                 Cambridge Crystallographic Data Centre
#                                CCDC
#
#######################################################################
#
# If this CIF has been generated from an entry in the Cambridge
# Structural Database, then it will include bibliographic, chemical,
# crystal, experimental, refinement or atomic coordinate data resulting
# from the CCDC's data processing and validation procedures.
#
#######################################################################

data_CSD_CIF_OCUQIO
_audit_creation_date 2012-01-16
_audit_creation_method CSD-ConQuest-V1
_database_code_CSD OCUQIO
_database_code_depnum_ccdc_archive 'CCDC 833127'
_chemical_formula_sum 'C12 H22 Cu2 N2 O12'
_chemical_formula_moiety
;
(C6 H6 Cu2 O12 2-)n,2n(C3 H8 N1 1+)
;
_journal_coden_Cambridge 179
_journal_volume 50
_journal_year 2011
_journal_page_first 11441
_journal_name_full 'Angew.Chem.,Int.Ed. '
loop_
_publ_author_name
"Bin Zhou"
"Y.Imai"
"A.Kobayashi"
"Zhe-Ming Wang"
"H.Kobayashi"
_chemical_name_systematic
;
catena-(bis(Azetidinium) hexakis(\m~2~-formato)-di-copper)
;
_cell_volume    887.790
_exptl_crystal_density_diffrn 1.921
_exptl_special_details
;
monoclinic polymorph
phase transition around 286 K

;
_diffrn_ambient_temperature 123
#These two values have been output from a single CSD field.
_refine_ls_R_factor_gt 0.0292
_refine_ls_wR_factor_gt 0.0292
_symmetry_cell_setting monoclinic
_symmetry_space_group_name_H-M 'P 21/c'
_symmetry_Int_Tables_number 14
loop_
_symmetry_equiv_pos_site_id
_symmetry_equiv_pos_as_xyz
1 x,y,z
2 -x,1/2+y,1/2-z
3 -x,-y,-z
4 x,-1/2-y,-1/2+z
_cell_length_a 11.656(2)
_cell_length_b 8.7412(17)
_cell_length_c 8.7369(17)
_cell_angle_alpha 90
_cell_angle_beta 94.20(3)
_cell_angle_gamma 90
_cell_formula_units_Z 2
loop_
_atom_type_symbol
_atom_type_radius_bond
C 0.68
H 0.23
Cu 1.38
N 0.68
O 0.68
loop_
_atom_site_label
_atom_site_type_symbol
_atom_site_fract_x
_atom_site_fract_y
_atom_site_fract_z
C1 C 0.02574(19) 0.2874(2) 0.7499(2)
H1 H -0.038(2) 0.235(3) 0.687(3)
C2 C -0.24913(17) 0.4748(3) 0.5019(3)
H2 H -0.2506(15) 0.564(3) 0.440(3)
C3 C -0.50496(19) 0.1978(2) 0.2650(2)
H3 H -0.443(2) 0.255(3) 0.221(3)
Cu1 Cu 0.00000 0.50000 0.50000
Cu2 Cu -0.50000 0.50000 0.50000
O1 O 0.06139(11) 0.40965(16) 0.69368(16)
O2 O 0.06422(11) 0.23274(15) 0.87474(16)
O3 O -0.15355(12) 0.41469(16) 0.53476(16)
O4 O -0.34185(12) 0.42515(16) 0.54658(17)
O5 O -0.54476(11) 0.07897(15) 0.19849(16)
O6 O -0.53896(11) 0.24948(15) 0.38711(17)
C4 C 0.7365(2) 0.5719(3) 0.8687(3)
H4 H 0.780(3) 0.650(4) 0.821(4)
H5 H 0.658(2) 0.563(3) 0.820(3)
C5 C 0.7870(3) 0.4141(3) 0.9080(3)
H6 H 0.755(2) 0.330(4) 0.844(3)
H7 H 0.867(3) 0.411(3) 0.913(3)
C6 C 0.7424(2) 0.4340(3) 1.0670(3)
H8 H 0.791(3) 0.410(4) 1.157(4)
H9 H 0.669(3) 0.396(3) 1.070(3)
N1 N 0.73362(19) 0.6036(2) 1.0380(2)
H10 H 0.669(2) 0.652(3) 1.073(3)
H11 H 0.797(3) 0.654(4) 1.080(4)
C1B C -0.02574(19) 0.7126(2) 0.2501(2)
H1B H 0.038(2) 0.765(3) 0.313(3)
C2B C 0.24913(17) 0.5252(3) 0.4981(3)
H2B H 0.2506(15) 0.436(3) 0.560(3)
C3C C -0.50496(19) 0.3022(2) 0.7650(2)
H3C H -0.443(2) 0.245(3) 0.721(3)
Cu1A Cu 0.00000 0.00000 1.00000
Cu1A* Cu 0.00000 1.00000 0.00000
Cu2A Cu -0.50000 0.00000 0.00000
Cu2* Cu 0.50000 0.50000 0.50000
Cu2A* Cu -0.50000 0.00000 1.00000
O1B O -0.06139(11) 0.59035(16) 0.30632(16)
O2B O -0.06422(11) 0.76726(15) 0.12526(16)
O2A O -0.06422(11) 0.73274(15) 0.62526(16)
O2C O 0.06422(11) 0.26726(15) 0.37474(16)
O3B O 0.15355(12) 0.58531(16) 0.46524(16)
O4B O 0.34185(12) 0.57485(16) 0.45342(17)
O4B* O -0.65815(12) 0.57485(16) 0.45342(17)
O5C O -0.54476(11) 0.42103(15) 0.69849(16)
O5A O -0.45524(11) 0.57897(15) 0.30151(16)
O6C O -0.53896(11) 0.25052(15) 0.88711(17)
O6B O -0.46104(11) 0.75052(15) 0.61289(17)
#END
