
#######################################################################
#
#                 Cambridge Crystallographic Data Centre
#                                CCDC
#
#######################################################################
#
# If this CIF has been generated from an entry in the Cambridge
# Structural Database, then it will include bibliographic, chemical,
# crystal, experimental, refinement or atomic coordinate data resulting
# from the CCDC's data processing and validation procedures.
#
#######################################################################

data_CSD_CIF_OCUQIO04
_audit_creation_date 2012-01-16
_audit_creation_method CSD-ConQuest-V1
_database_code_CSD OCUQIO04
_database_code_depnum_ccdc_archive 'CCDC 833133'
_chemical_formula_sum 'C6 H11 Cu1 N1 O6'
_chemical_formula_moiety
;
(C3 H3 Cu1 O6 1-)n,n(C3 H8 N1 1+)
;
_journal_coden_Cambridge 179
_journal_volume 50
_journal_year 2011
_journal_page_first 11441
_journal_name_full 'Angew.Chem.,Int.Ed. '
loop_
_publ_author_name
"Bin Zhou"
"Y.Imai"
"A.Kobayashi"
"Zhe-Ming Wang"
"H.Kobayashi"
_chemical_name_systematic
;
catena-(Azetidinium tris(\m~2~-formato)-copper)
;
_cell_volume    916.581
_exptl_crystal_density_diffrn 1.86
_exptl_special_details
;
orthorhombic polymorph
phase transition around 286 K

;
_diffrn_ambient_temperature 333
#These two values have been output from a single CSD field.
_refine_ls_R_factor_gt 0.0358
_refine_ls_wR_factor_gt 0.0358
_symmetry_cell_setting orthorhombic
_symmetry_space_group_name_H-M 'P n m a'
_symmetry_Int_Tables_number 62
loop_
_symmetry_equiv_pos_site_id
_symmetry_equiv_pos_as_xyz
1 x,y,z
2 1/2-x,-y,1/2+z
3 -x,1/2+y,-z
4 1/2+x,1/2-y,1/2-z
5 -x,-y,-z
6 -1/2+x,y,-1/2-z
7 x,-1/2-y,z
8 -1/2-x,-1/2+y,-1/2+z
_cell_length_a 8.7311(17)
_cell_length_b 11.640(2)
_cell_length_c 9.0188(18)
_cell_angle_alpha 90
_cell_angle_beta 90
_cell_angle_gamma 90
_cell_formula_units_Z 4
loop_
_atom_type_symbol
_atom_type_radius_bond
C 0.68
H 0.23
Cu 1.49
N 0.68
O 0.68
loop_
_atom_site_label
_atom_site_type_symbol
_atom_site_fract_x
_atom_site_fract_y
_atom_site_fract_z
Cu1 Cu 0.50000 0.50000 0.50000
O1 O 0.30773(16) 0.44595(12) 0.41116(15)
O2 O 0.12960(18) 0.44512(13) 0.23819(18)
O3 O 0.46165(17) 0.65582(11) 0.42104(16)
N1 N 1.0533(4) 0.25000 0.4053(3)
H1 H 1.08730 0.18620 0.35950
C1 C 0.2491(3) 0.48225(19) 0.2936(3)
H2 H 0.29920 0.54150 0.24420
C2 C 0.4943(3) 0.75000 0.4783(4)
H3 H 0.54570 0.75000 0.56860
C3 C 0.8848(5) 0.25000 0.4340(5)
H4 H 0.83310 0.31870 0.39930
C4 C 1.0781(5) 0.25000 0.5662(5)
H5 H 1.12900 0.18140 0.60230
C5 C 0.9151(6) 0.25000 0.5916(6)
H6 H 0.87880 0.31860 0.64160
Cu1A Cu 0.00000 0.50000 0.00000
Cu1B Cu 0.50000 1.00000 0.50000
Cu1A* Cu 1.00000 0.50000 1.00000
O1D O 0.69227(16) 0.55405(12) 0.58884(15)
O2D O 0.87040(18) 0.55488(13) 0.76181(18)
O2A O 0.37040(18) 0.55488(13) 0.73819(18)
O2E O 0.62960(18) 0.44512(13) 0.26181(18)
O3F O 0.46165(17) 0.84418(11) 0.42104(16)
O3D O 0.53835(17) 0.34418(11) 0.57896(16)
H1F H 1.08730 0.31380 0.35950
C1D C 0.7509(3) 0.51775(19) 0.7064(3)
H2D H 0.70080 0.45850 0.75580
H4F H 0.83310 0.18130 0.39930
H5F H 1.12900 0.31860 0.60230
H6F H 0.87880 0.18140 0.64160
#END
