
#######################################################################
#
#                 Cambridge Crystallographic Data Centre
#                                CCDC
#
#######################################################################
#
# If this CIF has been generated from an entry in the Cambridge
# Structural Database, then it will include bibliographic, chemical,
# crystal, experimental, refinement or atomic coordinate data resulting
# from the CCDC's data processing and validation procedures.
#
#######################################################################

data_CSD_CIF_OCUQIO01
_audit_creation_date 2012-01-16
_audit_creation_method CSD-ConQuest-V1
_database_code_CSD OCUQIO01
_database_code_depnum_ccdc_archive 'CCDC 833130'
_chemical_formula_sum 'C6 H11 Cu1 N1 O6'
_chemical_formula_moiety
;
(C3 H3 Cu1 O6 1-)n,n(C3 H8 N1 1+)
;
_journal_coden_Cambridge 179
_journal_volume 50
_journal_year 2011
_journal_page_first 11441
_journal_name_full 'Angew.Chem.,Int.Ed. '
loop_
_publ_author_name
"Bin Zhou"
"Y.Imai"
"A.Kobayashi"
"Zhe-Ming Wang"
"H.Kobayashi"
_chemical_name_systematic
;
catena-(Azetidinium tris(\m~2~-formato)-copper)
;
_cell_volume    912.220
_exptl_crystal_density_diffrn 1.869
_exptl_special_details
;
orthorhombic polymorph
phase transition around 286 K

;
_diffrn_ambient_temperature 298
#These two values have been output from a single CSD field.
_refine_ls_R_factor_gt 0.034
_refine_ls_wR_factor_gt 0.034
_symmetry_cell_setting orthorhombic
_symmetry_space_group_name_H-M 'P n m a'
_symmetry_Int_Tables_number 62
loop_
_symmetry_equiv_pos_site_id
_symmetry_equiv_pos_as_xyz
1 x,y,z
2 1/2-x,-y,1/2+z
3 -x,1/2+y,-z
4 1/2+x,1/2-y,1/2-z
5 -x,-y,-z
6 -1/2+x,y,-1/2-z
7 x,-1/2-y,z
8 -1/2-x,-1/2+y,-1/2+z
_cell_length_a 8.7209(13)
_cell_length_b 11.6527(17)
_cell_length_c 8.9766(13)
_cell_angle_alpha 90
_cell_angle_beta 90
_cell_angle_gamma 90
_cell_formula_units_Z 4
loop_
_atom_type_symbol
_atom_type_radius_bond
C 0.68
H 0.23
Cu 1.46
N 0.68
O 0.68
loop_
_atom_site_label
_atom_site_type_symbol
_atom_site_fract_x
_atom_site_fract_y
_atom_site_fract_z
Cu1 Cu 0.50000 0.50000 0.50000
O1 O 0.30749(16) 0.44590(11) 0.41173(15)
O2 O 0.12810(17) 0.44541(12) 0.23860(16)
O3 O 0.46112(15) 0.65589(11) 0.42100(16)
C1 C 0.2484(3) 0.48238(18) 0.2933(3)
H1 H 0.29860 0.54130 0.24340
C2 C 0.4946(2) 0.75000 0.4778(3)
H2 H 0.54770 0.75000 0.56770
N1 N 1.0510(4) 0.25000 0.4035(3)
H3 H 1.08470 0.18630 0.35720
C3 C 0.8817(5) 0.25000 0.4336(5)
H4 H 0.82960 0.31860 0.39910
C4 C 1.0778(5) 0.25000 0.5650(5)
H5 H 1.12930 0.18150 0.60060
C5 C 0.9136(6) 0.25000 0.5930(6)
H6 H 0.87770 0.31850 0.64360
Cu1A Cu 0.00000 0.50000 0.00000
Cu1B Cu 0.50000 1.00000 0.50000
Cu1A* Cu 1.00000 0.50000 1.00000
O1D O 0.69251(16) 0.55410(11) 0.58827(15)
O2D O 0.87190(17) 0.55459(12) 0.76140(16)
O2A O 0.37190(17) 0.55459(12) 0.73860(16)
O2E O 0.62810(17) 0.44541(12) 0.26140(16)
O3F O 0.46112(15) 0.84411(11) 0.42100(16)
O3D O 0.53888(15) 0.34411(11) 0.57900(16)
C1D C 0.7516(3) 0.51762(18) 0.7067(3)
H1D H 0.70140 0.45870 0.75660
H3F H 1.08470 0.31370 0.35720
H4F H 0.82960 0.18140 0.39910
H5F H 1.12930 0.31850 0.60060
H6F H 0.87770 0.18150 0.64360
#END
