
#######################################################################
#
#                 Cambridge Crystallographic Data Centre
#                                CCDC
#
#######################################################################
#
# If this CIF has been generated from an entry in the Cambridge
# Structural Database, then it will include bibliographic, chemical,
# crystal, experimental, refinement or atomic coordinate data resulting
# from the CCDC's data processing and validation procedures.
#
#######################################################################

data_CSD_CIF_OCURIO
_audit_creation_date 2006-07-13
_audit_creation_method CSD-ConQuest-V1
_database_code_CSD OCURIO
_database_code_depnum_ccdc_archive 'CCDC 273119'
_chemical_formula_sum 'C9 H26 N2 O18 P4 V4'
_chemical_formula_moiety
;
(C3 H12 N2 2+)n,n(C6 H14 O18 P4 V4 2-)
;
_journal_coden_Cambridge 9
_journal_volume 45
_journal_year 2006
_journal_page_first 3224
_journal_name_full 'Inorg.Chem. '
loop_
_publ_author_name
"W.Ouellette"
"Ming Hui Yu"
"C.J.O'Connor"
"J.Zubieta"
_chemical_name_systematic
;
catena-(Propane-1,2-diammonium 
bis((\m~6~-propane-1,3-diphosphonato)-(\m~2~-hydroxo))-tetraoxo-tetra-vanadium
)
;
_cell_volume   2819.704
_exptl_crystal_colour 'blue'
_exptl_crystal_density_diffrn 1.831
_exptl_crystal_description 'plate'
_diffrn_ambient_temperature 90
_refine_special_details
;
A vanadium and an oxygen atom are disordered over two sites with occupancies 
of 0.898:0.102; the cation is disordered about a centre of symmetry.
;
#These two values have been output from a single CSD field.
_refine_ls_R_factor_gt 0.0501
_refine_ls_wR_factor_gt 0.0501
_symmetry_cell_setting monoclinic
_symmetry_space_group_name_H-M 'C 2/c'
_symmetry_Int_Tables_number 15
loop_
_symmetry_equiv_pos_site_id
_symmetry_equiv_pos_as_xyz
1 x,y,z
2 1/2+x,1/2+y,z
3 -x,y,1/2-z
4 1/2-x,1/2+y,1/2-z
5 -x,-y,-z
6 -1/2-x,-1/2-y,-z
7 x,-y,-1/2+z
8 -1/2+x,-1/2-y,-1/2+z
_cell_length_a 15.2345(10)
_cell_length_b 10.1817(6)
_cell_length_c 18.6968(12)
_cell_angle_alpha 90
_cell_angle_beta 103.524(1)
_cell_angle_gamma 90
_cell_formula_units_Z 4
loop_
_atom_type_symbol
_atom_type_radius_bond
C 0.68
H 0.23
N 0.68
O 0.68
P 1.05
V 1.30
loop_
_atom_site_label
_atom_site_type_symbol
_atom_site_fract_x
_atom_site_fract_y
_atom_site_fract_z
V1 V 0.75200(8) -0.04720(8) 0.21718(4)
O1 O 0.6543(2) 0.0084(3) 0.2165(2)
V2? V 0.8047(10) -0.0750(7) 0.2187(3)
O2? O 0.9094(17) -0.123(3) 0.2292(16)
V3 V 0.16193(4) -0.11551(5) 0.08390(3)
P1 P 0.66171(6) -0.33276(8) 0.16590(5)
P2 P 0.28554(7) -0.38174(8) 0.07647(5)
O3 O 0.73127(18) -0.2227(2) 0.17113(14)
O4 O 0.6698(2) -0.4018(2) 0.23971(13)
O5 O 0.28635(19) -0.5033(2) 0.12477(13)
O6 O 0.20163(18) -0.2991(2) 0.07478(14)
O7 O 0.7952(3) -0.1449(3) 0.30972(15)
O8 O 0.05530(19) -0.1354(3) 0.05936(17)
O9 O 0.67459(19) -0.4265(2) 0.10537(13)
O10 O 0.28952(19) -0.4320(3) 0.00036(13)
C1 C 0.5521(3) -0.2609(4) 0.1419(2)
N1 N 0.2641(9) 0.2766(12) 0.0180(7)
H1 H 0.54580 -0.20080 0.18200
H2 H 0.54770 -0.20710 0.09710
C2 C 0.4727(3) -0.3569(3) 0.1277(2)
H3 H 0.47690 -0.41360 0.17140
H4 H 0.47550 -0.41390 0.08540
C3 C 0.3826(3) -0.2827(3) 0.1114(2)
H5 H 0.38490 -0.21240 0.07530
H6 H 0.37550 -0.23990 0.15730
N2 N 0.4051(12) 0.2896(10) 0.1091(14)
C4 C 0.3468(10) 0.2035(15) 0.0188(9)
C5 C 0.4038(12) 0.1502(10) 0.0907(8)
C6 C 0.4889(11) 0.0788(13) 0.0812(11)
H7 H 0.785(4) -0.208(5) 0.305(3)
V1C V 0.74800(8) 0.45280(8) 0.28282(4)
V1C* V 0.74800(8) -0.54720(8) 0.28282(4)
V1A V 0.25200(8) -0.54720(8) 0.21718(4)
V1B V 1.24800(8) -0.04720(8) 0.28282(4)
V1B* V 0.24800(8) -0.04720(8) 0.28282(4)
O1C O 0.8457(2) 0.5084(3) 0.2835(2)
V3C V 1.33807(4) 0.38449(5) 0.41610(3)
V3B V 0.83807(4) -0.11551(5) 0.41610(3)
V3A V 0.66193(4) -0.61551(5) 0.08390(3)
V3E V 0.33807(4) -0.38449(5) -0.08390(3)
V3F V 1.16193(4) 0.11551(5) 0.58390(3)
P1C P 0.83829(6) 0.16724(8) 0.33410(5)
P2C P 1.21446(7) 0.11826(8) 0.42353(5)
O3C O 0.76873(18) 0.2773(2) 0.32887(14)
O4C O 0.8302(2) 0.0982(2) 0.26029(13)
O4* O 0.6698(2) 0.5982(2) 0.23971(13)
O5C O 1.21365(19) -0.0033(2) 0.37523(13)
O5A O 0.78635(19) -0.0033(2) 0.12477(13)
O5B O 0.71365(19) 0.4967(2) 0.37523(13)
O6C O 1.29837(18) 0.2009(2) 0.42522(14)
O7B O 0.2048(3) -0.1449(3) 0.19028(15)
O7C O 0.7048(3) 0.3551(3) 0.19028(15)
O7A O 1.2952(3) 0.3551(3) 0.30972(15)
O8C O 1.44470(19) 0.3646(3) 0.44064(17)
O9C O 0.82541(19) 0.0735(2) 0.39463(13)
O9A O 0.17459(19) 0.0735(2) 0.10537(13)
O9B O 1.32541(19) 0.5735(2) 0.39463(13)
O10C O 1.21048(19) 0.0680(3) 0.49964(13)
O10E O 0.21048(19) -0.0680(3) -0.00036(13)
O10F O 1.28952(19) 0.4320(3) 0.50036(13)
C1C C 0.9479(3) 0.2391(4) 0.3581(2)
N1E N 0.2359(9) 0.2234(12) -0.0180(7)
H1C H 0.95420 0.29920 0.31800
H2C H 0.95230 0.29290 0.40290
C2C C 1.0273(3) 0.1431(3) 0.3723(2)
H3C H 1.02310 0.08640 0.32860
H4C H 1.02450 0.08610 0.41460
C3C C 1.1174(3) 0.2173(3) 0.3886(2)
H5C H 1.11510 0.28760 0.42470
H6C H 1.12450 0.26010 0.34270
N2E N 0.0949(12) 0.2104(10) -0.1091(14)
C4E C 0.1532(10) 0.2965(15) -0.0188(9)
C5E C 0.0962(12) 0.3498(10) -0.0907(8)
C6E C 0.0111(11) 0.4212(13) -0.0812(11)
H7B H 0.215(4) -0.208(5) 0.195(3)
H7C H 0.715(4) 0.292(5) 0.195(3)
H7A H 1.285(4) 0.292(5) 0.305(3)
#END
