
#######################################################################
#
#                 Cambridge Crystallographic Data Centre
#                                CCDC
#
#######################################################################
#
# If this CIF has been generated from an entry in the Cambridge
# Structural Database, then it will include bibliographic, chemical,
# crystal, experimental, refinement or atomic coordinate data resulting
# from the CCDC's data processing and validation procedures.
#
#######################################################################

data_CSD_CIF_OCUTEM
_audit_creation_date 2006-07-13
_audit_creation_method CSD-ConQuest-V1
_database_code_CSD OCUTEM
_database_code_depnum_ccdc_archive 'CCDC 607045'
_chemical_formula_sum 'C14 H38 N2 O18 P4 V4'
_chemical_formula_moiety
;
(C4 H12 N1 1+)2n,n(C6 H14 O18 P4 V4 2-)
;
_journal_coden_Cambridge 9
_journal_volume 45
_journal_year 2006
_journal_page_first 3224
_journal_name_full 'Inorg.Chem. '
loop_
_publ_author_name
"W.Ouellette"
"Ming Hui Yu"
"C.J.O'Connor"
"J.Zubieta"
_chemical_name_systematic
;
catena-(bis(N,N-Diethylammonium) 
bis(\m~6~-propane-1,3-diphosphonato)-bis(\m~2~-hydroxo)-tetraoxo-tetra-vanadiu
m)
;
_cell_volume   2831.351
_exptl_crystal_colour 'blue'
_exptl_crystal_density_diffrn 1.997
_exptl_crystal_description 'rod'
_diffrn_ambient_temperature 90
_refine_special_details
;
The cation is disordered.

;
#These two values have been output from a single CSD field.
_refine_ls_R_factor_gt 0.0529
_refine_ls_wR_factor_gt 0.0529
_symmetry_cell_setting monoclinic
_symmetry_space_group_name_H-M 'C 2/c'
_symmetry_Int_Tables_number 15
loop_
_symmetry_equiv_pos_site_id
_symmetry_equiv_pos_as_xyz
1 x,y,z
2 1/2+x,1/2+y,z
3 -x,y,1/2-z
4 1/2-x,1/2+y,1/2-z
5 -x,-y,-z
6 -1/2-x,-1/2-y,-z
7 x,-y,-1/2+z
8 -1/2+x,-1/2-y,-1/2+z
_cell_length_a 15.2768(8)
_cell_length_b 10.2216(6)
_cell_length_c 18.6279(10)
_cell_angle_alpha 90
_cell_angle_beta 103.252(1)
_cell_angle_gamma 90
_cell_formula_units_Z 4
loop_
_atom_type_symbol
_atom_type_radius_bond
C 0.68
H 0.23
N 0.68
O 0.68
P 1.05
V 1.30
loop_
_atom_site_label
_atom_site_type_symbol
_atom_site_fract_x
_atom_site_fract_y
_atom_site_fract_z
V1 V 0.74870(4) 0.04535(6) 0.21455(3)
V2 V 0.83739(4) 0.11735(6) 0.41440(3)
P1 P 0.66366(6) 0.33190(9) 0.16526(5)
P2 P 0.28813(6) 0.37985(9) 0.07714(5)
O1 O 0.73201(18) 0.2215(3) 0.16855(15)
O2 O 0.29047(19) 0.5028(3) 0.12522(14)
O3 O 0.6739(2) 0.3995(3) 0.23989(15)
O4 O 0.6499(2) -0.0089(3) 0.20979(17)
O5 O 0.7907(2) 0.1422(3) 0.30808(17)
O6 O 0.67346(19) 0.4270(3) 0.10409(14)
O7 O 0.20484(18) 0.2982(3) 0.07682(15)
O8 O 0.29221(19) 0.4287(3) 0.00033(15)
O9 O 0.94393(19) 0.1390(3) 0.43602(17)
N1 N 0.00000 0.1793(11) 0.25000
H1 H 0.04020 0.12750 0.23300
H2 H -0.04020 0.12750 0.26700
N2? N 0.0672(10) 0.4250(13) 0.4637(8)
H3? H 0.01780 0.38020 0.46960
H4? H 0.05240 0.47500 0.42220
H5? H 0.08730 0.47750 0.50350
N3? N 0.0867(11) 0.4069(15) 0.3918(9)
H6? H 0.12000 0.41390 0.35720
H7? H 0.07420 0.48820 0.40670
H8? H 0.03440 0.36440 0.37210
C1 C 0.5538(3) 0.2603(4) 0.1432(2)
H9 H 0.54930 0.20380 0.09930
H10 H 0.54770 0.20310 0.18470
C2 C 0.3856(3) 0.2809(4) 0.1117(2)
H11 H 0.37880 0.23780 0.15770
H12 H 0.38810 0.21130 0.07530
C3 C 0.4747(3) 0.3556(4) 0.1277(2)
H13 H 0.47780 0.41100 0.08470
H14 H 0.47810 0.41340 0.17080
C4 C 0.0520(9) 0.2859(14) 0.3140(7)
H15 H 0.10080 0.32890 0.29570
H16 H 0.00840 0.35450 0.31970
C5 C 0.0927(7) 0.2273(11) 0.3905(5)
H17 H 0.12040 0.29710 0.42420
H18 H 0.13840 0.16230 0.38630
H19 H 0.04510 0.18520 0.40970
C6? C 0.1387(5) 0.3314(7) 0.4568(4)
H20? H 0.15280 0.35410 0.40900
H21? H 0.19160 0.36000 0.49490
C7? C 0.1434(8) 0.1945(9) 0.4593(5)
H22? H 0.16920 0.16620 0.51000
H23? H 0.18140 0.16370 0.42690
H24? H 0.08280 0.15790 0.44270
H25 H 0.788(4) 0.200(7) 0.303(4)
V1A V 1.24870(4) -0.45465(6) 0.21455(3)
V1A* V 0.24870(4) 0.54535(6) 0.21455(3)
V1C V 0.75130(4) 0.54535(6) 0.28545(3)
V1B V 1.25130(4) 0.04535(6) 0.28545(3)
V2C V 0.66261(4) 0.61735(6) 0.08560(3)
V2B V 0.16261(4) 0.11735(6) 0.08560(3)
V2G V 0.33739(4) 0.38265(6) -0.08560(3)
V2B* V 1.16261(4) 0.11735(6) 0.08560(3)
V2C* V 0.66261(4) -0.38265(6) 0.08560(3)
V2F V 0.83739(4) -0.11735(6) -0.08560(3)
V2A V 1.33739(4) -0.38265(6) 0.41440(3)
P1A P 1.16366(6) -0.16810(9) 0.16526(5)
P2A P 0.78813(6) -0.12015(9) 0.07714(5)
O1A O 1.23201(18) -0.2785(3) 0.16855(15)
O2A O 0.79047(19) 0.0028(3) 0.12522(14)
O2* O 1.29047(19) -0.4972(3) 0.12522(14)
O3A O 1.1739(2) -0.1005(3) 0.23989(15)
O3C O 0.8261(2) -0.1005(3) 0.26011(15)
O3B O 1.3261(2) -0.6005(3) 0.26011(15)
O4A O 1.1499(2) -0.5089(3) 0.20979(17)
O5A O 1.2907(2) -0.3578(3) 0.30808(17)
O5C O 0.7093(2) 0.6422(3) 0.19192(17)
O6A O 1.17346(19) -0.0730(3) 0.10409(14)
O6C O 0.82654(19) -0.0730(3) 0.39591(14)
O7A O 0.70484(18) -0.2018(3) 0.07682(15)
O7B O 0.79516(18) 0.2982(3) 0.42318(15)
O7A* O 0.70484(18) 0.7982(3) 0.07682(15)
O8A O 0.79221(19) -0.0713(3) 0.00033(15)
O8G O 0.79221(19) 0.0713(3) 0.50033(15)
O8D O 0.70779(19) 0.5713(3) -0.00033(15)
O9C O 0.55607(19) 0.6390(3) 0.06398(17)
C1A C 1.0538(3) -0.2397(4) 0.1432(2)
H9A H 1.04930 -0.29620 0.09930
H10A H 1.04770 -0.29690 0.18470
C2A C 0.8856(3) -0.2191(4) 0.1117(2)
H11A H 0.87880 -0.26220 0.15770
H12A H 0.88810 -0.28870 0.07530
C3A C 0.9747(3) -0.1444(4) 0.1277(2)
H13A H 0.97780 -0.08900 0.08470
H14A H 0.97810 -0.08660 0.17080
C4B C -0.0520(9) 0.2859(14) 0.1860(7)
H15B H -0.10080 0.32890 0.20430
H16B H -0.00840 0.35450 0.18030
C5B C -0.0927(7) 0.2273(11) 0.1095(5)
H17B H -0.12040 0.29710 0.07580
H18B H -0.13840 0.16230 0.11370
H19B H -0.04510 0.18520 0.09030
H25A H 1.288(4) -0.300(7) 0.303(4)
H25C H 0.712(4) 0.700(7) 0.197(4)
#END
