
#######################################################################
#
#                 Cambridge Crystallographic Data Centre
#                                CCDC
#
#######################################################################
#
# If this CIF has been generated from an entry in the Cambridge
# Structural Database, then it will include bibliographic, chemical,
# crystal, experimental, refinement or atomic coordinate data resulting
# from the CCDC's data processing and validation procedures.
#
#######################################################################

data_CSD_CIF_OCUXOB
_audit_creation_date 2012-02-14
_audit_creation_method CSD-ConQuest-V1
_database_code_CSD OCUXOB
_database_code_depnum_ccdc_archive 'CCDC 838475'
_chemical_formula_sum 'C60 H66 K1 N12 Na1 O48 Ru2 W12'
_chemical_formula_moiety
;
(C30 H24 N6 Ru1 2+)2n,n(H12 K1 Na1 O45 W12 4-),3n(H2 O1)
;
_journal_coden_Cambridge 208
_journal_volume 184
_journal_year 2011
_journal_page_first 3179
_journal_name_full 'J.Solid State Chem. '
loop_
_publ_author_name
"Bangbo Yan"
"S.A.Hodsdon"
"Yan-Fen Li"
"C.N.Carmichael"
"Yan Cao"
"Wei-Peng Pan"
_chemical_name_systematic
;
catena-[bis(tris(2,2'-Bipyridine-N,N')-ruthenium(ii)) 
nonakis(\m~3~-oxo)-bis(\m~2~-aqua)-bis(\m~2~-hydroxo)-octadecakis(\m~2~-oxo)-t
riaqua-undeca-oxo-potassium-sodium-dodeca-tungsten trihydrate]
;
_cell_volume   8642.048
_exptl_crystal_colour 'orange'
_exptl_crystal_density_diffrn 3.223
_exptl_special_details
;
The two hydride ligands of the Keggin anion were not located from the 
diffraction data
;
_exptl_crystal_description 'rod'
_diffrn_ambient_temperature 90
#These two values have been output from a single CSD field.
_refine_ls_R_factor_gt 0.0346
_refine_ls_wR_factor_gt 0.0346
_symmetry_cell_setting monoclinic
_symmetry_space_group_name_H-M 'P 21/n'
_symmetry_Int_Tables_number 14
loop_
_symmetry_equiv_pos_site_id
_symmetry_equiv_pos_as_xyz
1 x,y,z
2 1/2-x,1/2+y,1/2-z
3 -x,-y,-z
4 -1/2+x,-1/2-y,-1/2+z
_cell_length_a 13.5339(1)
_cell_length_b 26.9360(1)
_cell_length_c 23.7255(1)
_cell_angle_alpha 90
_cell_angle_beta 92.3155(2)
_cell_angle_gamma 90
_cell_formula_units_Z 4
loop_
_atom_type_symbol
_atom_type_radius_bond
C 0.68
H 0.23
K 2.00
N 0.68
Na 1.39
O 0.76
Ru 1.46
W 1.30
loop_
_atom_site_label
_atom_site_type_symbol
_atom_site_fract_x
_atom_site_fract_y
_atom_site_fract_z
W1 W 0.13227(2) 0.144520(12) -0.205270(13)
W2 W 0.25201(2) 0.177310(11) -0.318720(13)
W3 W 0.37351(2) 0.120970(11) -0.211340(13)
W4 W 0.08966(2) 0.101180(12) -0.414280(13)
W5 W -0.04143(2) 0.082920(12) -0.306310(14)
W6 W 0.06094(2) 0.013400(12) -0.182490(14)
W7 W 0.30565(2) -0.007820(12) -0.172980(14)
W8 W 0.45215(2) 0.014950(12) -0.298080(14)
W9 W 0.35885(2) 0.077020(12) -0.403390(14)
W10 W 0.03167(2) -0.010350(12) -0.378750(14)
W11 W 0.15922(2) -0.075540(11) -0.259370(14)
W12 W 0.29871(2) -0.038280(12) -0.384250(14)
Ru1 Ru -0.35458(5) -0.26868(2) -0.46426(3)
Ru2 Ru -0.32821(4) -0.11992(2) -0.13227(3)
K1 K 0.18051(18) 0.00987(8) -0.51662(9)
Na1 Na 0.3598(4) -0.07521(19) -0.5884(3)
O1 O 0.0668(4) 0.1836(2) -0.1637(2)
O2 O 0.1716(4) 0.1957(2) -0.2602(2)
O3 O 0.2731(4) 0.2351(2) -0.3461(2)
O4 O 0.3651(4) 0.17549(19) -0.2613(2)
O5 O 0.4657(4) 0.1406(2) -0.1654(2)
O6 O 0.2606(4) 0.1498(2) -0.1721(2)
O7 O 0.1069(4) 0.0825(2) -0.1747(2)
O8 O 0.0283(4) 0.1295(2) -0.2630(2)
O9 O 0.1506(4) 0.1541(2) -0.3657(2)
O10 O 0.4413(4) 0.0795(2) -0.2590(2)
O11 O 0.3342(4) 0.0597(2) -0.1727(2)
O12 O 0.3391(4) 0.1344(2) -0.3621(2)
O13 O 0.2346(4) 0.1079(2) -0.2677(2)
O14 O 0.0594(4) 0.1354(2) -0.4740(2)
O15 O -0.0343(4) 0.1177(2) -0.3756(2)
O16 O -0.1638(4) 0.0984(2) -0.2938(3)
O17 O 0.4784(4) 0.0569(2) -0.3649(2)
O18 O -0.0205(4) 0.0110(2) -0.1296(2)
O19 O 0.1844(4) -0.0001(2) -0.1374(2)
O20 O 0.3783(4) -0.0287(2) -0.1171(3)
O21 O 0.3961(4) -0.01290(19) -0.2345(2)
O22 O 0.5763(4) 0.0028(2) -0.2853(3)
O23 O 0.4118(4) 0.1005(2) -0.4629(3)
O24 O -0.0171(4) 0.0358(2) -0.2432(2)
O25 O 0.0913(4) 0.05523(19) -0.3395(2)
O26 O 0.1877(4) 0.0048(2) -0.2436(2)
O27 O 0.3105(4) 0.0298(2) -0.3371(2)
O28 O 0.0325(4) 0.0402(2) -0.4401(2)
O29 O -0.0815(4) 0.0216(2) -0.3480(2)
O30 O 0.0611(4) -0.0541(2) -0.2043(2)
O31 O 0.2565(4) -0.07400(19) -0.1998(2)
O32 O 0.4297(4) -0.0413(2) -0.3445(2)
O33 O 0.3446(4) 0.00852(19) -0.4369(2)
O34 O 0.0636(4) -0.0490(2) -0.3151(2)
O35 O 0.2497(4) -0.0708(2) -0.3165(2)
O36 O 0.1653(4) -0.0256(2) -0.4024(2)
O37 O -0.0378(4) -0.0531(2) -0.4184(2)
O38 O 0.1303(4) -0.1376(2) -0.2599(2)
O39 O 0.2191(4) 0.0819(2) -0.4286(2)
O40 O 0.3177(4) -0.0910(2) -0.4243(2)
N1 N -0.3510(5) -0.3425(2) -0.4865(3)
N2 N -0.4070(5) -0.2658(2) -0.5466(3)
N3 N -0.2050(5) -0.2649(3) -0.4783(3)
N4 N -0.2933(5) -0.2795(2) -0.3842(3)
N5 N -0.5007(5) -0.2629(2) -0.4444(3)
N6 N -0.3621(5) -0.1950(2) -0.4413(3)
N7 N -0.3131(5) -0.1946(2) -0.1176(3)
N8 N -0.4346(5) -0.1479(2) -0.1881(3)
N9 N -0.2324(5) -0.1197(2) -0.1968(3)
N10 N -0.3341(5) -0.0467(2) -0.1569(3)
N11 N -0.2320(5) -0.0963(2) -0.0683(3)
N12 N -0.4199(5) -0.1157(2) -0.0649(3)
C1 C -0.3227(6) -0.3803(3) -0.4521(4)
H1 H -0.31510 -0.37420 -0.41270
C2 C -0.3045(6) -0.4275(3) -0.4720(4)
H2 H -0.28620 -0.45350 -0.44660
C3 C -0.3133(6) -0.4360(3) -0.5289(4)
H3 H -0.29650 -0.46750 -0.54370
C4 C -0.3466(6) -0.3985(3) -0.5645(4)
H4 H -0.35540 -0.40440 -0.60390
C5 C -0.3672(6) -0.3518(3) -0.5425(3)
C6 C -0.4080(6) -0.3098(3) -0.5755(3)
C7 C -0.4484(6) -0.3141(3) -0.6296(3)
H5 H -0.44630 -0.34490 -0.64890
C8 C -0.4923(6) -0.2728(3) -0.6560(4)
H6 H -0.52070 -0.27500 -0.69310
C9 C -0.4933(6) -0.2282(3) -0.6262(4)
H7 H -0.52360 -0.19950 -0.64260
C10 C -0.4495(6) -0.2263(3) -0.5727(3)
H8 H -0.44940 -0.19550 -0.55310
C11 C -0.1663(6) -0.2559(3) -0.5285(3)
H9 H -0.20950 -0.25490 -0.56100
C12 C -0.0678(7) -0.2480(3) -0.5349(4)
H10 H -0.04300 -0.24110 -0.57100
C13 C -0.0037(7) -0.2505(4) -0.4866(4)
H11 H 0.06520 -0.24520 -0.48980
C14 C -0.0413(7) -0.2605(3) -0.4349(4)
H12 H 0.00060 -0.26200 -0.40190
C15 C -0.1446(6) -0.2686(3) -0.4324(4)
C16 C -0.1928(6) -0.2781(3) -0.3793(3)
C17 C -0.1436(6) -0.2863(3) -0.3282(4)
H13 H -0.07360 -0.28420 -0.32510
C18 C -0.1975(7) -0.2978(3) -0.2808(4)
H14 H -0.16450 -0.30420 -0.24550
C19 C -0.2990(7) -0.2997(3) -0.2863(4)
H15 H -0.33730 -0.30770 -0.25490
C20 C -0.3441(7) -0.2899(3) -0.3380(4)
H16 H -0.41430 -0.29060 -0.34130
C21 C -0.5722(6) -0.2977(3) -0.4535(3)
H17 H -0.55430 -0.32880 -0.46890
C22 C -0.6697(6) -0.2897(3) -0.4411(4)
H18 H -0.71770 -0.31500 -0.44790
C23 C -0.6965(6) -0.2451(3) -0.4191(4)
H19 H -0.76330 -0.23910 -0.41030
C24 C -0.6257(6) -0.2089(3) -0.4099(4)
H20 H -0.64300 -0.17780 -0.39440
C25 C -0.5280(6) -0.2186(3) -0.4235(4)
C26 C -0.4483(6) -0.1811(3) -0.4184(3)
C27 C -0.4581(7) -0.1356(3) -0.3913(4)
H21 H -0.51930 -0.12660 -0.37580
C28 C -0.3778(7) -0.1034(3) -0.3870(4)
H22 H -0.38210 -0.07260 -0.36770
C29 C -0.2910(6) -0.1177(3) -0.4118(4)
H23 H -0.23490 -0.09640 -0.41000
C30 C -0.2862(6) -0.1623(3) -0.4389(3)
H24 H -0.22710 -0.17070 -0.45690
C31 C -0.2465(6) -0.2160(3) -0.0817(4)
H25 H -0.20180 -0.19550 -0.06030
C32 C -0.2410(7) -0.2672(3) -0.0751(4)
H26 H -0.19150 -0.28120 -0.05050
C33 C -0.3062(6) -0.2973(3) -0.1037(4)
H27 H -0.30370 -0.33220 -0.09880
C34 C -0.3763(6) -0.2759(3) -0.1400(3)
H28 H -0.42330 -0.29610 -0.16000
C35 C -0.3776(6) -0.2247(3) -0.1470(3)
C36 C -0.4455(6) -0.1979(3) -0.1868(3)
C37 C -0.5181(6) -0.2215(3) -0.2212(4)
H29 H -0.52470 -0.25660 -0.22000
C38 C -0.5792(6) -0.1942(3) -0.2563(4)
H30 H -0.62990 -0.20970 -0.27890
C39 C -0.5652(6) -0.1427(3) -0.2582(4)
H31 H -0.60480 -0.12280 -0.28330
C40 C -0.4938(6) -0.1212(3) -0.2234(3)
H32 H -0.48590 -0.08610 -0.22440
C41 C -0.1954(6) -0.1605(3) -0.2216(3)
H33 H -0.20940 -0.19230 -0.20660
C42 C -0.1372(6) -0.1572(3) -0.2686(4)
H34 H -0.11260 -0.18660 -0.28520
C43 C -0.1149(6) -0.1110(3) -0.2914(4)
H35 H -0.07540 -0.10810 -0.32340
C44 C -0.1531(6) -0.0695(3) -0.2651(3)
H36 H -0.13830 -0.03740 -0.27910
C45 C -0.2120(5) -0.0738(3) -0.2193(3)
C46 C -0.2642(6) -0.0325(3) -0.1931(3)
C47 C -0.2464(6) 0.0172(3) -0.2049(4)
H37 H -0.19320 0.02640 -0.22770
C48 C -0.3073(7) 0.0530(3) -0.1832(4)
H38 H -0.29630 0.08710 -0.19070
C49 C -0.3835(6) 0.0387(3) -0.1507(4)
H39 H -0.42920 0.06260 -0.13800
C50 C -0.3935(6) -0.0111(3) -0.1365(4)
H40 H -0.44350 -0.02040 -0.11160
C51 C -0.1384(6) -0.0810(3) -0.0748(4)
H41 H -0.11250 -0.08140 -0.11140
C52 C -0.0780(6) -0.0643(3) -0.0290(4)
H42 H -0.01290 -0.05270 -0.03470
C53 C -0.1152(6) -0.0650(3) 0.0240(4)
H43 H -0.07450 -0.05550 0.05570
C54 C -0.2113(6) -0.0796(3) 0.0312(4)
H44 H -0.23750 -0.07970 0.06780
C55 C -0.2693(6) -0.0940(3) -0.0152(3)
C56 C -0.3748(6) -0.1067(3) -0.0140(3)
C57 C -0.4268(6) -0.1078(3) 0.0359(4)
H45 H -0.39400 -0.10170 0.07140
C58 C -0.5269(7) -0.1181(3) 0.0323(4)
H46 H -0.56360 -0.12000 0.06550
C59 C -0.5732(6) -0.1256(3) -0.0196(4)
H47 H -0.64250 -0.13130 -0.02230
C60 C -0.5184(6) -0.1248(3) -0.0686(3)
H48 H -0.55040 -0.13070 -0.10430
O41 O -0.6988(4) -0.1646(2) -0.1384(3)
O42 O 0.2795(5) -0.0070(2) -0.6314(3)
O43 O 0.3569(5) -0.1245(2) -0.6704(4)
O44 O 0.1955(5) -0.0862(3) -0.5459(3)
O45 O -0.5765(6) -0.7345(3) -0.1984(3)
O46 O 0.4012(6) -0.1334(3) -0.5198(4)
O47 O 0.4150(7) -0.0067(3) -0.5393(4)
O48 O -0.3816(6) -0.3540(4) -0.9601(5)
K1B K -0.18051(18) -0.00987(8) -0.48338(9)
Na1B Na 0.6402(4) 0.07521(19) -0.4116(3)
O17B O 0.5216(4) -0.0569(2) -0.6351(2)
O37B O 0.0378(4) 0.0531(2) -0.5816(2)
#END
