
#######################################################################
#
#                 Cambridge Crystallographic Data Centre
#                                CCDC
#
#######################################################################
#
# If this CIF has been generated from an entry in the Cambridge
# Structural Database, then it will include bibliographic, chemical,
# crystal, experimental, refinement or atomic coordinate data resulting
# from the CCDC's data processing and validation procedures.
#
#######################################################################

data_CSD_CIF_ODEKIT
_audit_creation_date 2012-02-14
_audit_creation_method CSD-ConQuest-V1
_database_code_CSD ODEKIT
_database_code_depnum_ccdc_archive 'CCDC 752010'
_chemical_formula_sum 'C30 H32 Co1 Dy1 N9 O17'
_chemical_formula_moiety
;
(C27 H21 Co1 Dy1 N7 O14 1-)n,n(C3 H5 N2 1+),3n(H2 O1)
;
_journal_coden_Cambridge 580
_journal_volume 30
_journal_year 2011
_journal_page_first 3010
_journal_name_full 'Polyhedron '
loop_
_publ_author_name
"Yanmei Chen"
"Shixiong She"
"Lina Zheng"
"Bin Hu"
"Wenqian Chen"
"Bin Xu"
"Zhou Chen"
"Fengying Zhou"
"Yahong Li"
_chemical_name_systematic
;
catena-(Imidazolium 
(\m~3~-pyridine-2,6-dicarboxylato)-bis(pyridine-2,6-dicarboxylato)-bis(imidiaz
ol-3-yl)-diaqua-cobalt-dysprosium trihydrate)
;
_cell_volume   3720.812
_exptl_crystal_colour 'pink'
_exptl_crystal_density_diffrn 1.807
_exptl_crystal_description 'block'
_diffrn_ambient_temperature 293
_refine_special_details
;
Imidazolium ion C15,C16,C17,N6 is disordered by symmetry over two sites with 
occupancy 0.50. Water O9 is disordered by symmetry over two sites with 
occupancy 0.50.
;
#These two values have been output from a single CSD field.
_refine_ls_R_factor_gt 0.0257
_refine_ls_wR_factor_gt 0.0257
_symmetry_cell_setting monoclinic
_symmetry_space_group_name_H-M 'C 2/c'
_symmetry_Int_Tables_number 15
loop_
_symmetry_equiv_pos_site_id
_symmetry_equiv_pos_as_xyz
1 x,y,z
2 -x,y,1/2-z
3 1/2+x,1/2+y,z
4 1/2-x,1/2+y,1/2-z
5 -x,-y,-z
6 x,-y,-1/2+z
7 -1/2-x,-1/2-y,-z
8 -1/2+x,-1/2-y,-1/2+z
_cell_length_a 17.888(4)
_cell_length_b 11.370(2)
_cell_length_c 19.315(4)
_cell_angle_alpha 90
_cell_angle_beta 108.71(3)
_cell_angle_gamma 90
_cell_formula_units_Z 4
loop_
_atom_type_symbol
_atom_type_radius_bond
C 0.68
H 0.23
Co 1.26
Dy 1.92
N 0.68
O 0.68
loop_
_atom_site_label
_atom_site_type_symbol
_atom_site_fract_x
_atom_site_fract_y
_atom_site_fract_z
Dy1 Dy 0.00000 -0.923458(14) 0.25000
Co1 Co 0.25000 -0.75000 0.50000
N1 N 0.00000 -0.7028(3) 0.25000
O1 O 0.27840(16) -0.58098(17) 0.53989(13)
O2 O 0.10698(10) -0.83079(16) 0.34299(10)
O3 O 0.16248(10) -0.67347(17) 0.40867(10)
C1 C 0.05524(13) -0.6437(2) 0.30130(13)
C2 C 0.05724(15) -0.5224(2) 0.30317(14)
H1 H 0.09620 -0.48280 0.33940
C3 C 0.11350(13) -0.7221(2) 0.35582(13)
N2 N -0.12345(12) -1.02649(19) 0.24463(12)
C4 C 0.00000 -0.4609(4) 0.25000
H2 H 0.00000 -0.37910 0.25000
C5 C -0.16375(15) -0.9926(2) 0.28883(16)
C6 C -0.15186(16) -1.1112(3) 0.19565(16)
C7 C 0.3915(2) -0.6698(4) 0.4499(2)
H3 H 0.40490 -0.60900 0.48390
N3 N 0.33309(15) -0.7415(2) 0.44230(15)
C8 C 0.3940(4) -0.7850(6) 0.3626(4)
H4 H 0.40810 -0.82130 0.32550
C9 C -0.2364(2) -1.0416(3) 0.2832(2)
H5 H -0.26400 -1.01800 0.31420
C10 C -0.2241(2) -1.1625(3) 0.1868(2)
H6 H -0.24360 -1.22070 0.15180
C11 C -0.2668(2) -1.1261(4) 0.2306(3)
H7 H -0.31620 -1.15850 0.22480
O4 O -0.26461(19) -1.1076(3) -0.0436(2)
O5 O -0.03906(12) -1.07848(16) 0.16091(12)
C12 C -0.09809(16) -1.1452(3) 0.15229(16)
O6 O -0.11295(15) -1.2342(2) 0.11443(15)
C13 C -0.12312(17) -0.9000(2) 0.34331(16)
O7 O -0.06051(11) -0.85756(18) 0.3368(1)
O8 O -0.15225(15) -0.8696(2) 0.39046(13)
C14 C 0.3331(4) -0.8148(5) 0.3858(3)
H8 H 0.29700 -0.87480 0.36670
N4 N 0.4300(2) -0.6941(4) 0.4028(3)
H9 H 0.47070 -0.65770 0.39910
N5 N 0.0965(5) -0.6225(8) 0.0317(4)
C15 C 0.0764(4) -0.5120(6) 0.0003(4)
N6 N 0.00000 -0.50000 0.00000
C16 C 0.0172(4) -0.4240(6) -0.0415(4)
C17 C 0.0380(3) -0.6544(5) 0.0580(3)
O9 O 0.0871(4) -0.7067(6) 0.0161(3)
H10 H 0.26620 -0.51680 0.51910
H11 H 0.31830 -0.57850 0.57540
H12 H -0.23110 -1.12260 -0.06450
H13 H -0.27240 -1.17630 -0.03040
Co1A Co -0.25000 -0.75000 0.00000
O1F O 0.22160(16) -0.91902(17) 0.46011(13)
O2A O -0.10698(10) -0.83079(16) 0.15701(10)
O3A O -0.16248(10) -0.67347(17) 0.09133(10)
O3F O 0.33752(10) -0.82653(17) 0.59133(10)
C1A C -0.05524(13) -0.6437(2) 0.19870(13)
C2A C -0.05724(15) -0.5224(2) 0.19683(14)
H1A H -0.09620 -0.48280 0.16060
C3A C -0.11350(13) -0.7221(2) 0.14418(13)
N2A N 0.12345(12) -1.02649(19) 0.25537(12)
C5A C 0.16375(15) -0.9926(2) 0.21117(16)
C6A C 0.15186(16) -1.1112(3) 0.30435(16)
C7F C 0.1085(2) -0.8302(4) 0.5501(2)
H3F H 0.09510 -0.89100 0.51610
N3F N 0.16691(15) -0.7585(2) 0.55770(15)
C8F C 0.1060(4) -0.7150(6) 0.6374(4)
H4F H 0.09190 -0.67870 0.67450
C9A C 0.2364(2) -1.0416(3) 0.2168(2)
H5A H 0.26400 -1.01800 0.18580
C10A C 0.2241(2) -1.1625(3) 0.3132(2)
H6A H 0.24360 -1.22070 0.34820
C11A C 0.2668(2) -1.1261(4) 0.2694(3)
H7A H 0.31620 -1.15850 0.27520
O5A O 0.03906(12) -1.07848(16) 0.33909(12)
C12A C 0.09809(16) -1.1452(3) 0.34771(16)
O6A O 0.11295(15) -1.2342(2) 0.38557(15)
C13A C 0.12312(17) -0.9000(2) 0.15669(16)
O7A O 0.06051(11) -0.85756(18) 0.1632(1)
O8A O 0.15225(15) -0.8696(2) 0.10954(13)
C14F C 0.1669(4) -0.6852(5) 0.6142(3)
H8F H 0.20300 -0.62520 0.63330
N4F N 0.0700(2) -0.8059(4) 0.5972(3)
H9F H 0.02930 -0.84230 0.60090
N5D N -0.0965(5) -0.3775(8) -0.0317(4)
C15D C -0.0764(4) -0.4880(6) -0.0003(4)
C16D C -0.0172(4) -0.5760(6) 0.0415(4)
C17D C -0.0380(3) -0.3456(5) -0.0580(3)
O9D O -0.0871(4) -0.2933(6) -0.0161(3)
H10F H 0.23380 -0.98320 0.48090
H11F H 0.18170 -0.92150 0.42460
#END
