
#######################################################################
#
#                 Cambridge Crystallographic Data Centre
#                                CCDC
#
#######################################################################
#
# If this CIF has been generated from an entry in the Cambridge
# Structural Database, then it will include bibliographic, chemical,
# crystal, experimental, refinement or atomic coordinate data resulting
# from the CCDC's data processing and validation procedures.
#
#######################################################################

data_CSD_CIF_ODELOA
_audit_creation_date 2012-02-14
_audit_creation_method CSD-ConQuest-V1
_database_code_CSD ODELOA
_database_code_depnum_ccdc_archive 'CCDC 760521'
_chemical_formula_sum 'C30 H32 Dy1 Mn1 N9 O17'
_chemical_formula_moiety
;
(C27 H21 Dy1 Mn1 N7 O14 1-)n,n(C3 H5 N2 1+),3n(H2 O1)
;
_journal_coden_Cambridge 580
_journal_volume 30
_journal_year 2011
_journal_page_first 3010
_journal_name_full 'Polyhedron '
loop_
_publ_author_name
"Yanmei Chen"
"Shixiong She"
"Lina Zheng"
"Bin Hu"
"Wenqian Chen"
"Bin Xu"
"Zhou Chen"
"Fengying Zhou"
"Yahong Li"
_chemical_name_systematic
;
catena-(Imidazolium 
(\m~3~-pyridine-2,6-dicarboxylato)-bis(pyridine-2,6-dicarboxylato)-bis(imidiaz
ol-3-yl)-diaqua-dysprosium-manganese trihydrate)
;
_cell_volume   3752.180
_exptl_crystal_colour 'colorless'
_exptl_crystal_density_diffrn 1.785
_exptl_crystal_description 'block'
_diffrn_ambient_temperature 293
_refine_special_details
;
Imidazolium ion C15,C16,C17,N6 is disordered by symmetry over two sites with 
occupancy 0.50. Water O9 is disordered by symmetry over two sites with 
occupancy 0.50.
;
#These two values have been output from a single CSD field.
_refine_ls_R_factor_gt 0.0237
_refine_ls_wR_factor_gt 0.0237
_symmetry_cell_setting monoclinic
_symmetry_space_group_name_H-M 'C 2/c'
_symmetry_Int_Tables_number 15
loop_
_symmetry_equiv_pos_site_id
_symmetry_equiv_pos_as_xyz
1 x,y,z
2 -x,y,1/2-z
3 1/2+x,1/2+y,z
4 1/2-x,1/2+y,1/2-z
5 -x,-y,-z
6 x,-y,-1/2+z
7 -1/2-x,-1/2-y,-z
8 -1/2+x,-1/2-y,-1/2+z
_cell_length_a 17.889(4)
_cell_length_b 11.244(2)
_cell_length_c 19.702(4)
_cell_angle_alpha 90
_cell_angle_beta 108.77(3)
_cell_angle_gamma 90
_cell_formula_units_Z 4
loop_
_atom_type_symbol
_atom_type_radius_bond
C 0.68
H 0.23
Dy 1.92
Mn 1.61
N 0.68
O 0.68
loop_
_atom_site_label
_atom_site_type_symbol
_atom_site_fract_x
_atom_site_fract_y
_atom_site_fract_z
Dy1 Dy 0.00000 0.922932(14) 0.25000
O1 O -0.03965(13) 1.08035(18) 0.16306(13)
Mn1 Mn -0.25000 0.75000 0.00000
N1 N 0.00000 0.7002(3) 0.25000
C1 C -0.05469(13) 0.6401(2) 0.19931(12)
O2 O -0.10699(11) 0.82918(17) 0.15864(10)
O3 O -0.16024(11) 0.67088(19) 0.09279(10)
C2 C -0.05668(16) 0.5175(2) 0.19714(14)
H1 H -0.09510 0.47740 0.16110
C3 C -0.11268(14) 0.7197(2) 0.14531(13)
N2 N -0.12324(12) 1.0275(2) 0.24555(12)
O4 O -0.2832(2) 0.5727(2) -0.04107(16)
O5 O -0.06010(12) 0.8564(2) 0.33529(11)
C4 C 0.00000 0.4556(4) 0.25000
H2 H 0.00000 0.37290 0.25000
C5 C -0.16278(16) 0.9940(3) 0.28949(16)
C6 C -0.12145(18) 0.8996(3) 0.34294(17)
O6 O -0.15066(16) 0.8699(2) 0.38908(14)
C7 C -0.09861(17) 1.1470(3) 0.15468(16)
C8 C -0.15157(17) 1.1131(3) 0.19773(17)
O7 O -0.11426(16) 1.2357(2) 0.11660(16)
N3 N -0.16366(19) 0.7544(3) -0.06008(19)
C9 C -0.2346(2) 1.0442(4) 0.2856(2)
H3 H -0.26140 1.02060 0.31670
C10 C -0.2234(2) 1.1664(4) 0.1903(2)
H4 H -0.24330 1.22550 0.15620
N4 N -0.0668(3) 0.8004(5) -0.1004(3)
H5 H -0.02570 0.83600 -0.10400
C11 C -0.1059(3) 0.8259(5) -0.0557(3)
H6 H -0.09290 0.88960 -0.02390
C12 C -0.1050(4) 0.7062(7) -0.1396(4)
H7 H -0.09190 0.66850 -0.17630
C13 C -0.2651(2) 1.1297(4) 0.2347(3)
H8 H -0.31400 1.16320 0.23010
C14 C -0.1656(4) 0.6773(5) -0.1157(3)
H9 H -0.20210 0.61660 -0.13330
O8 O 0.2591(2) 1.1134(4) 0.5420(2)
N5 N 0.00000 0.50000 0.50000
N6 N -0.0423(4) 0.6546(6) 0.4414(3)
C15 C 0.0140(5) 0.5720(6) 0.4573(4)
C16 C -0.0766(5) 0.5138(7) 0.5022(4)
C17 C -0.0981(6) 0.6202(9) 0.4697(5)
O9? O 0.0875(5) 0.2953(8) 0.5151(4)
H10 H -0.27390 0.50930 -0.01870
H11 H -0.32590 0.57140 -0.07780
H12 H 0.22800 1.11490 0.56840
H13 H 0.28840 1.16980 0.56000
O1A O 0.03965(13) 1.08035(18) 0.33694(13)
C1A C 0.05469(13) 0.6401(2) 0.30069(12)
O2A O 0.10699(11) 0.82918(17) 0.34136(10)
O3F O -0.33976(11) 0.82912(19) -0.09279(10)
C2A C 0.05668(16) 0.5175(2) 0.30286(14)
N2A N 0.12324(12) 1.0275(2) 0.25445(12)
O4F O -0.2168(2) 0.9273(2) 0.04107(16)
O5A O 0.06010(12) 0.8564(2) 0.16471(11)
N3F N -0.33634(19) 0.7456(3) 0.06008(19)
C15D C -0.0140(5) 0.4280(6) 0.5427(4)
C16D C 0.0766(5) 0.4862(7) 0.4978(4)
#END
