
#######################################################################
#
#                 Cambridge Crystallographic Data Centre
#                                CCDC
#
#######################################################################
#
# If this CIF has been generated from an entry in the Cambridge
# Structural Database, then it will include bibliographic, chemical,
# crystal, experimental, refinement or atomic coordinate data resulting
# from the CCDC's data processing and validation procedures.
#
#######################################################################

data_CSD_CIF_ODELAM
_audit_creation_date 2012-02-14
_audit_creation_method CSD-ConQuest-V1
_database_code_CSD ODELAM
_database_code_depnum_ccdc_archive 'CCDC 755474'
_chemical_formula_sum 'C30 H32 Er1 Mn1 N9 O17'
_chemical_formula_moiety
;
(C27 H21 Er1 Mn1 N7 O14 1-)n,n(C3 H5 N2 1+),3n(H2 O1)
;
_journal_coden_Cambridge 580
_journal_volume 30
_journal_year 2011
_journal_page_first 3010
_journal_name_full 'Polyhedron '
loop_
_publ_author_name
"Yanmei Chen"
"Shixiong She"
"Lina Zheng"
"Bin Hu"
"Wenqian Chen"
"Bin Xu"
"Zhou Chen"
"Fengying Zhou"
"Yahong Li"
_chemical_name_systematic
;
catena-(Imidazolium 
(\m~3~-pyridine-2,6-dicarboxylato)-bis(pyridine-2,6-dicarboxylato)-bis(imidiaz
ol-3-yl)-diaqua-erbium-manganese trihydrate)
;
_cell_volume   3754.398
_exptl_crystal_colour 'pink'
_exptl_crystal_density_diffrn 1.792
_exptl_crystal_description 'block'
_diffrn_ambient_temperature 293
_refine_special_details
;
Imidazolium ion C15,C16,C17,N7 is disordered by symmetry over two sites with 
occupancy 0.50. Water O9 is disordered by symmetry over two sites with 
occupancy 0.50.
;
#These two values have been output from a single CSD field.
_refine_ls_R_factor_gt 0.0306
_refine_ls_wR_factor_gt 0.0306
_symmetry_cell_setting monoclinic
_symmetry_space_group_name_H-M 'C 2/c'
_symmetry_Int_Tables_number 15
loop_
_symmetry_equiv_pos_site_id
_symmetry_equiv_pos_as_xyz
1 x,y,z
2 -x,y,1/2-z
3 1/2+x,1/2+y,z
4 1/2-x,1/2+y,1/2-z
5 -x,-y,-z
6 x,-y,-1/2+z
7 -1/2-x,-1/2-y,-z
8 -1/2+x,-1/2-y,-1/2+z
_cell_length_a 17.862(4)
_cell_length_b 11.206(2)
_cell_length_c 19.821(4)
_cell_angle_alpha 90
_cell_angle_beta 108.86(3)
_cell_angle_gamma 90
_cell_formula_units_Z 4
loop_
_atom_type_symbol
_atom_type_radius_bond
C 0.68
H 0.23
Er 1.89
Mn 1.61
N 0.68
O 0.68
loop_
_atom_site_label
_atom_site_type_symbol
_atom_site_fract_x
_atom_site_fract_y
_atom_site_fract_z
Er1 Er 0.00000 0.921923(19) 0.25000
O1 O -0.0386(2) 1.0782(3) 0.16403(19)
Mn1 Mn -0.25000 0.75000 0.00000
N1 N 0.00000 0.7010(4) 0.25000
C1 C -0.0545(2) 0.6408(3) 0.19924(19)
C2 C -0.0568(2) 0.5178(4) 0.1969(2)
H1 H -0.09510 0.47770 0.16090
O2 O -0.2840(3) 0.5715(3) -0.0402(2)
C3 C 0.00000 0.4556(6) 0.25000
H2 H 0.00000 0.37260 0.25000
O3 O -0.10681(17) 0.8305(3) 0.15886(16)
N2 N -0.1227(2) 1.0257(3) 0.24532(19)
O4 O -0.05916(19) 0.8547(3) 0.33456(17)
O5 O -0.15962(18) 0.6720(3) 0.09236(16)
C4 C -0.1121(2) 0.7207(4) 0.1452(2)
C5 C -0.1621(3) 0.9926(4) 0.2893(2)
O6 O -0.1496(2) 0.8681(4) 0.3885(2)
C6 C -0.1206(3) 0.8977(4) 0.3424(2)
C7 C -0.0981(3) 1.1451(4) 0.1551(2)
O7 O -0.1141(2) 1.2336(4) 0.1164(2)
C8 C -0.1513(3) 1.1116(4) 0.1977(3)
C9 C -0.2345(3) 1.0434(5) 0.2853(3)
H3 H -0.26100 1.02010 0.31650
N3 N -0.1641(3) 0.7543(5) -0.0605(3)
C10 C -0.2235(3) 1.1649(5) 0.1901(3)
H4 H -0.24350 1.22400 0.15610
C11 C -0.2654(4) 1.1277(6) 0.2348(4)
H5 H -0.31460 1.16070 0.23000
C12 C -0.1073(5) 0.7049(8) -0.1419(5)
H6 H -0.09560 0.66780 -0.17930
C13 C -0.1065(4) 0.8261(7) -0.0562(4)
H7 H -0.09300 0.89020 -0.02480
C14 C -0.1671(4) 0.6766(7) -0.1165(4)
H8 H -0.20380 0.61580 -0.13350
O8 O 0.2593(3) 1.1130(5) 0.5437(3)
N4 N 0.00000 0.50000 0.50000
C15 C -0.0768(7) 0.5127(11) 0.5023(6)
N5 N -0.0995(7) 0.6214(12) 0.4702(7)
C16 C -0.0424(6) 0.6530(9) 0.4422(5)
C17 C 0.0132(7) 0.5719(9) 0.4573(6)
O9 O -0.0866(6) 0.7082(10) 0.4853(5)
N6 N -0.0679(4) 0.7982(6) -0.1022(4)
H9 H -0.02630 0.83260 -0.10580
H10 H -0.26370 0.51380 -0.00890
H11 H -0.31910 0.59520 -0.07540
H12 H 0.23220 1.11830 0.57190
H13 H 0.29610 1.17260 0.55920
O1A O 0.0386(2) 1.0782(3) 0.33597(19)
Mn1A Mn 0.25000 0.75000 0.50000
C1A C 0.0545(2) 0.6408(3) 0.30076(19)
C2A C 0.0568(2) 0.5178(4) 0.3031(2)
H1A H 0.09510 0.47770 0.33910
O2F O -0.2160(3) 0.9285(3) 0.0402(2)
O3A O 0.10681(17) 0.8305(3) 0.34114(16)
N2A N 0.1227(2) 1.0257(3) 0.25468(19)
O4A O 0.05916(19) 0.8547(3) 0.16544(17)
O5A O 0.15962(18) 0.6720(3) 0.40764(16)
O5F O -0.34038(18) 0.8280(3) -0.09236(16)
C4A C 0.1121(2) 0.7207(4) 0.3548(2)
C5A C 0.1621(3) 0.9926(4) 0.2107(2)
O6A O 0.1496(2) 0.8681(4) 0.1115(2)
C6A C 0.1206(3) 0.8977(4) 0.1576(2)
C7A C 0.0981(3) 1.1451(4) 0.3449(2)
O7A O 0.1141(2) 1.2336(4) 0.3836(2)
C8A C 0.1513(3) 1.1116(4) 0.3023(3)
C9A C 0.2345(3) 1.0434(5) 0.2147(3)
H3A H 0.26100 1.02010 0.18350
N3F N -0.3359(3) 0.7457(5) 0.0605(3)
C10A C 0.2235(3) 1.1649(5) 0.3099(3)
H4A H 0.24350 1.22400 0.34390
C11A C 0.2654(4) 1.1277(6) 0.2652(4)
H5A H 0.31460 1.16070 0.27000
C12F C -0.3927(5) 0.7951(8) 0.1419(5)
H6F H -0.40440 0.83220 0.17930
C13F C -0.3935(4) 0.6739(7) 0.0562(4)
H7F H -0.40700 0.60980 0.02480
C14F C -0.3329(4) 0.8234(7) 0.1165(4)
H8F H -0.29620 0.88420 0.13350
C15D C 0.0768(7) 0.4873(11) 0.4977(6)
N5D N 0.0995(7) 0.3786(12) 0.5298(7)
C16D C 0.0424(6) 0.3470(9) 0.5578(5)
C17D C -0.0132(7) 0.4281(9) 0.5427(6)
O9D O 0.0866(6) 0.2918(10) 0.5147(5)
N6F N -0.4321(4) 0.7018(6) 0.1022(4)
H9F H -0.47370 0.66740 0.10580
H10F H -0.23630 0.98620 0.00890
H11F H -0.18090 0.90480 0.07540
#END
