
#######################################################################
#
#                 Cambridge Crystallographic Data Centre
#                                CCDC
#
#######################################################################
#
# If this CIF has been generated from an entry in the Cambridge
# Structural Database, then it will include bibliographic, chemical,
# crystal, experimental, refinement or atomic coordinate data resulting
# from the CCDC's data processing and validation procedures.
#
#######################################################################

data_CSD_CIF_ODEMER
_audit_creation_date 2012-02-14
_audit_creation_method CSD-ConQuest-V1
_database_code_CSD ODEMER
_database_code_depnum_ccdc_archive 'CCDC 773353'
_chemical_formula_sum 'C30 H32 Co1 N9 O17 Pr1'
_chemical_formula_moiety
;
(C27 H21 Co1 N7 O14 Pr1 1-)n,n(C3 H5 N2 1+),3n(H2 O1)
;
_journal_coden_Cambridge 580
_journal_volume 30
_journal_year 2011
_journal_page_first 3010
_journal_name_full 'Polyhedron '
loop_
_publ_author_name
"Yanmei Chen"
"Shixiong She"
"Lina Zheng"
"Bin Hu"
"Wenqian Chen"
"Bin Xu"
"Zhou Chen"
"Fengying Zhou"
"Yahong Li"
_chemical_name_systematic
;
catena-(Imidazolium 
bis(\m~2~-pyridine-2,6-dicarboxylato)-(pyridine-2,6-dicarboxylato)-bis(imidiaz
ol-3-yl)-diaqua-cobalt-praseodymium trihydrate)
;
_cell_volume   4094.127
_exptl_crystal_colour 'pink'
_exptl_crystal_density_diffrn 1.607
_exptl_crystal_description 'block'
_diffrn_ambient_temperature 293
_refine_special_details
;
Imidazolium ion C15,C16,C17,N5,N6 is disordered by symmetry over two sites 
with occupancy 0.50.
;
#These two values have been output from a single CSD field.
_refine_ls_R_factor_gt 0.0401
_refine_ls_wR_factor_gt 0.0401
_symmetry_cell_setting monoclinic
_symmetry_space_group_name_H-M 'C 2/c'
_symmetry_Int_Tables_number 15
loop_
_symmetry_equiv_pos_site_id
_symmetry_equiv_pos_as_xyz
1 x,y,z
2 -x,y,1/2-z
3 1/2+x,1/2+y,z
4 1/2-x,1/2+y,1/2-z
5 -x,-y,-z
6 x,-y,-1/2+z
7 -1/2-x,-1/2-y,-z
8 -1/2+x,-1/2-y,-1/2+z
_cell_length_a 21.378(4)
_cell_length_b 10.702(2)
_cell_length_c 19.664(4)
_cell_angle_alpha 90
_cell_angle_beta 114.49(3)
_cell_angle_gamma 90
_cell_formula_units_Z 4
loop_
_atom_type_symbol
_atom_type_radius_bond
C 0.68
H 0.23
Co 1.26
N 0.68
O 0.68
Pr 2.03
loop_
_atom_site_label
_atom_site_type_symbol
_atom_site_fract_x
_atom_site_fract_y
_atom_site_fract_z
Pr1 Pr 0.50000 0.43333(4) 0.75000
Co1 Co 0.75000 0.25000 1.00000
O1 O 0.6770(2) 0.3932(5) 0.9830(2)
O2 O 0.4200(2) 0.6020(4) 0.7474(2)
O3 O 0.7043(2) 0.2061(5) 0.8853(2)
C1 C 0.6230(3) 0.4196(6) 0.9282(3)
C2 C 0.4209(3) 0.6634(6) 0.8025(4)
C3 C 0.4207(3) 0.2076(7) 0.8062(3)
O4 O 0.4264(2) 0.3223(4) 0.8015(2)
N1 N 0.5228(2) 0.5477(4) 0.8745(3)
O5 O 0.6034(2) 0.3712(4) 0.8639(2)
N2 N 0.6795(3) 0.1253(6) 1.0136(3)
O6 O 0.3787(3) 0.7459(5) 0.7997(3)
C4 C 0.5883(4) 0.5726(7) 1.0056(4)
H1 H 0.62640 0.55090 1.04880
C5 C 0.4613(3) 0.1273(6) 0.7772(3)
C6 C 0.4592(5) -0.0025(7) 0.7775(5)
H2 H 0.43150 -0.04550 0.79560
O7 O 0.3828(3) 0.1562(5) 0.8315(3)
C7 C 0.6823(4) 0.0724(8) 1.0747(5)
H3 H 0.71730 0.08700 1.12170
C8 C 0.4865(4) 0.6898(7) 0.9440(4)
H4 H 0.45410 0.74700 0.94490
C9 C 0.4793(3) 0.6327(6) 0.8771(3)
C10 C 0.5768(3) 0.5172(6) 0.9373(3)
N3 N 0.6309(4) -0.0032(8) 1.0628(4)
H5 H 0.62520 -0.05030 1.09520
N4 N 0.50000 0.1906(6) 0.75000
C11 C 0.50000 -0.0645(11) 0.75000
H6 H 0.50000 -0.15140 0.75000
C12 C 0.5420(4) 0.6599(8) 1.0077(4)
H7 H 0.54860 0.69830 1.05260
C13 C 0.6192(5) 0.0838(9) 0.9608(5)
H8 H 0.60150 0.10600 0.91060
C14 C 0.5889(6) 0.0070(11) 0.9907(6)
H9 H 0.54660 -0.03210 0.96610
O8 O 0.2560(3) 0.3552(9) 0.2837(4)
O9 O 0.2928(7) 0.6054(15) 0.3008(12)
N5 N 0.6958(6) 0.6795(14) 0.8788(6)
C15 C 0.7305(7) 0.6686(8) 0.9577(7)
N6 N 0.7487(7) 0.7906(11) 0.9879(5)
C16 C 0.7252(8) 0.8769(9) 0.9276(8)
C17 C 0.6926(6) 0.8083(16) 0.8602(6)
H10 H 0.72780 0.18250 0.85960
H11 H 0.67210 0.26550 0.85860
Co1A Co 0.25000 0.25000 0.50000
O1A O 0.3230(2) 0.3932(5) 0.5170(2)
O1F O 0.8230(2) 0.1068(5) 1.0170(2)
O2A O 0.5800(2) 0.6020(4) 0.7526(2)
O3F O 0.7957(2) 0.2939(5) 1.1147(2)
C1A C 0.3770(3) 0.4196(6) 0.5718(3)
C2A C 0.5791(3) 0.6634(6) 0.6975(4)
C3A C 0.5793(3) 0.2076(7) 0.6938(3)
O4A O 0.5736(2) 0.3223(4) 0.6985(2)
N1A N 0.4772(2) 0.5477(4) 0.6255(3)
O5A O 0.3966(2) 0.3712(4) 0.6361(2)
N2F N 0.8205(3) 0.3747(6) 0.9864(3)
O6A O 0.6213(3) 0.7459(5) 0.7003(3)
C4A C 0.4117(4) 0.5726(7) 0.4944(4)
H1A H 0.37360 0.55090 0.45120
C5A C 0.5387(3) 0.1273(6) 0.7228(3)
C6A C 0.5408(5) -0.0025(7) 0.7225(5)
H2A H 0.56850 -0.04550 0.70440
O7A O 0.6172(3) 0.1562(5) 0.6685(3)
C7F C 0.8177(4) 0.4276(8) 0.9253(5)
H3F H 0.78270 0.41300 0.87830
C8A C 0.5135(4) 0.6898(7) 0.5560(4)
H4A H 0.54590 0.74700 0.55510
C9A C 0.5207(3) 0.6327(6) 0.6229(3)
C10A C 0.4232(3) 0.5172(6) 0.5627(3)
N3F N 0.8691(4) 0.5032(8) 0.9372(4)
H5F H 0.87480 0.55030 0.90480
C12A C 0.4580(4) 0.6599(8) 0.4923(4)
H7A H 0.45140 0.69830 0.44740
C13F C 0.8808(5) 0.4162(9) 1.0392(5)
H8F H 0.89850 0.39400 1.08940
C14F C 0.9111(6) 0.4930(11) 1.0093(6)
H9F H 0.95340 0.53210 1.03390
N5F N 0.8042(6) 0.8205(14) 1.1212(6)
C15F C 0.7695(7) 0.8314(8) 1.0423(7)
N6F N 0.7513(7) 0.7094(11) 1.0121(5)
C16F C 0.7748(8) 0.6231(9) 1.0724(8)
C17F C 0.8074(6) 0.6917(16) 1.1398(6)
H10F H 0.77220 0.31750 1.14040
H11F H 0.82790 0.23450 1.14140
#END
