
#######################################################################
#
#                 Cambridge Crystallographic Data Centre
#                                CCDC
#
#######################################################################
#
# If this CIF has been generated from an entry in the Cambridge
# Structural Database, then it will include bibliographic, chemical,
# crystal, experimental, refinement or atomic coordinate data resulting
# from the CCDC's data processing and validation procedures.
#
#######################################################################

data_CSD_CIF_ODEMIV01
_audit_creation_date 2020-01-18
_audit_creation_method CSD-ConQuest-V1
_database_code_CSD ODEMIV01
_database_code_depnum_ccdc_archive 'CCDC 783808'
_chemical_formula_sum 'C60 H60 Co2 N18 O32 Sm2'
_chemical_formula_moiety
;
(C54 H42 Co2 N14 O28 Sm2 2-)n,2(C3 H5 N2 1+),4(H2 O1)
;
_journal_coden_Cambridge 580
_journal_volume 30
_journal_year 2011
_journal_page_first 3010
_journal_name_full 'Polyhedron '
loop_
_publ_author_name
"Yanmei Chen"
"Shixiong She"
"Lina Zheng"
"Bin Hu"
"Wenqian Chen"
"Bin Xu"
"Zhou Chen"
"Fengying Zhou"
"Yahong Li"
_chemical_name_systematic
;
catena-[bis(1H-imidazol-3-ium) 
bis(\m-pyridine-2,6-dicarboxylato)-tetraaqua-bis(1H-imidazole)-tetrakis(pyridi
ne-2,6-dicarboxylato)-di-cobalt-di-samarium tetrahydrate]
;
_cell_volume   7283.970
_exptl_crystal_colour 'pink'
_exptl_crystal_density_diffrn 1.791
_exptl_crystal_description 'block'
_diffrn_ambient_temperature 293
_refine_special_details
;
C52',C53',C54',N13',N14' and C52,C53,C54,N13,N14 disordered over two sites 
with occupancies 0.707:0.293.
;
#These two values have been output from a single CSD field.
_refine_ls_R_factor_gt 0.038
_refine_ls_wR_factor_gt 0.038
_symmetry_cell_setting monoclinic
_symmetry_space_group_name_H-M 'P 21/n'
_symmetry_Int_Tables_number 14
loop_
_symmetry_equiv_pos_site_id
_symmetry_equiv_pos_as_xyz
1 x,y,z
2 1/2-x,1/2+y,1/2-z
3 -x,-y,-z
4 -1/2+x,-1/2-y,-1/2+z
_cell_length_a 17.819(4)
_cell_length_b 22.470(5)
_cell_length_c 19.077(4)
_cell_angle_alpha 90
_cell_angle_beta 107.52(3)
_cell_angle_gamma 90
_cell_formula_units_Z 4
loop_
_atom_type_symbol
_atom_type_radius_bond
C 0.68
H 0.23
Co 1.26
N 0.68
O 0.68
Sm 1.98
loop_
_atom_site_label
_atom_site_type_symbol
_atom_site_fract_x
_atom_site_fract_y
_atom_site_fract_z
Sm1 Sm 0.743267(14) 0.344352(12) 0.263279(14)
O1 O 0.8493(2) 0.29871(17) 0.3639(2)
N1 N 0.7474(2) 0.23086(19) 0.2684(2)
N2 N 0.6156(2) 0.39863(18) 0.2514(2)
O2 O 0.6396(2) 0.29096(16) 0.17028(19)
N3 N 0.8682(2) 0.39867(19) 0.2643(2)
O3 O 0.6744(2) 0.31824(18) 0.3528(2)
O4 O 0.7032(2) 0.41850(19) 0.1658(2)
O5 O 0.7790(2) 0.42965(19) 0.3450(2)
O6 O 0.8130(2) 0.30692(18) 0.1800(2)
C1 C 0.8598(3) 0.2438(2) 0.3741(3)
C2 C 0.8044(3) 0.2029(2) 0.3195(2)
C3 C 0.6963(3) 0.1989(2) 0.2166(3)
C4 C 0.5743(3) 0.3865(2) 0.2976(3)
C5 C 0.5878(3) 0.4380(2) 0.1975(3)
C6 C 0.6366(3) 0.2356(2) 0.1590(3)
C7 C 0.8919(3) 0.4459(3) 0.3076(3)
C8 C 0.9108(3) 0.3804(3) 0.2214(3)
C9 C 0.6138(3) 0.3441(2) 0.3589(3)
C10 C 0.6437(3) 0.4521(2) 0.1537(3)
C11 C 0.8356(4) 0.4643(3) 0.3488(3)
C12 C 0.8745(4) 0.3291(3) 0.1710(3)
O7 O 0.9112(2) 0.21963(16) 0.42483(18)
C13 C 0.8118(3) 0.1418(2) 0.3213(3)
C14 C 0.6998(3) 0.1377(2) 0.2145(3)
C15 C 0.5010(3) 0.4113(3) 0.2889(3)
C16 C 0.5150(3) 0.4635(3) 0.1853(3)
O8 O 0.59112(19) 0.20892(16) 0.10671(18)
C17 C 0.9605(4) 0.4757(3) 0.3115(4)
C18 C 0.9802(4) 0.4079(3) 0.2225(4)
O9 O 0.5852(3) 0.3384(2) 0.4104(2)
O10 O 0.6299(3) 0.4950(2) 0.1116(3)
O11 O 0.8446(4) 0.5126(2) 0.3801(3)
O12 O 0.9067(3) 0.3118(2) 0.1257(3)
Co1 Co 1.00126(3) 0.25598(3) 0.51497(3)
H1 H 0.85190 0.12330 0.35760
C19 C 0.7585(3) 0.1087(3) 0.2681(3)
H2 H 0.66350 0.11620 0.17780
H3 H 0.47300 0.40250 0.32160
C20 C 0.4707(4) 0.4494(3) 0.2305(4)
H4 H 0.49600 0.49020 0.14680
H5 H 0.97600 0.50880 0.34170
C21 C 1.0057(4) 0.4550(4) 0.2691(5)
H6 H 1.00920 0.39480 0.19220
N4 N 0.9263(3) 0.2458(2) 0.5805(2)
N5 N 1.0746(3) 0.2653(2) 0.4480(3)
O13 O 1.0435(2) 0.16965(17) 0.5401(2)
O14 O 0.9570(2) 0.34578(17) 0.4908(2)
H7 H 0.76190 0.06740 0.26830
H8 H 0.42050 0.46530 0.22180
H9 H 1.05360 0.47310 0.27220
C22 C 0.8583(4) 0.2720(3) 0.5726(4)
C23 C 0.9376(4) 0.2095(3) 0.6415(3)
C24 C 1.1358(4) 0.2337(4) 0.4493(4)
C25 C 1.0695(5) 0.3076(4) 0.3950(4)
H10 H 1.02720 0.13580 0.52190
H11 H 1.07680 0.16420 0.58210
H12 H 0.98230 0.34220 0.45970
H13 H 0.95910 0.37490 0.51980
N6 N 0.8271(3) 0.2544(3) 0.6252(3)
H14 H 0.83490 0.29910 0.53560
C26 C 0.8769(4) 0.2150(3) 0.6690(4)
H15 H 0.98090 0.18490 0.66060
N7 N 1.1702(4) 0.2548(4) 0.3996(4)
H16 H 1.15360 0.20120 0.47980
C27 C 1.1276(6) 0.3016(5) 0.3651(5)
H17 H 1.03070 0.33670 0.38170
H18 H 0.78300 0.26630 0.63010
H19 H 0.87040 0.19560 0.70990
H20 H 1.21180 0.24070 0.39160
H21 H 1.13680 0.32480 0.32820
Sm2 Sm 0.256593(13) 0.094335(12) 0.249272(13)
Co2 Co 0.00000 0.00000 0.00000
Co3 Co 0.50000 0.00000 0.50000
N8 N 0.2598(2) -0.01943(19) 0.24335(19)
N9 N 0.1285(2) 0.14151(18) 0.2517(2)
N10 N 0.3808(2) 0.15323(19) 0.2651(2)
N11 N 0.0671(2) -0.0150(2) -0.0705(2)
N12 N 0.1642(3) -0.0108(3) -0.1181(3)
H22 H 0.20800 -0.00040 -0.12480
O15 O 0.1537(2) 0.04540(16) 0.14840(19)
O16 O 0.09438(19) -0.03529(16) 0.08779(18)
O17 O 0.3672(2) 0.04376(16) 0.33872(19)
O18 O 0.4198(2) -0.03737(16) 0.40232(18)
O19 O 0.2082(2) 0.17710(18) 0.1641(2)
O20 O 0.1221(3) 0.2477(2) 0.1152(3)
O21 O 0.1958(2) 0.05280(17) 0.3381(2)
O22 O 0.1149(3) 0.0617(2) 0.4058(2)
O23 O 0.3295(2) 0.07251(17) 0.1631(2)
O24 O 0.4284(3) 0.0888(2) 0.1159(3)
O25 O 0.2851(2) 0.17101(19) 0.3442(2)
O26 O 0.3441(3) 0.2562(2) 0.3867(3)
O27 O 0.0461(2) 0.08964(16) 0.0204(2)
H23 H 0.08500 0.08490 0.05880
H24 H 0.05290 0.11690 -0.00800
C28 C 0.2041(3) -0.0493(2) 0.1923(2)
O28 O 0.4922(3) 0.0844(2) 0.4524(2)
H25 H 0.45300 0.08710 0.41400
H26 H 0.45370 0.07990 0.46950
C29 C 0.2013(3) -0.1107(2) 0.1910(3)
H27 H 0.16230 -0.13060 0.15520
C30 C 0.2577(3) -0.1419(2) 0.2437(3)
H28 H 0.25710 -0.18330 0.24380
C31 C 0.3153(3) -0.1112(2) 0.2966(3)
H29 H 0.35370 -0.13140 0.33260
C32 C 0.3141(3) -0.0497(2) 0.2943(2)
C33 C 0.1458(3) -0.0099(2) 0.1383(2)
C34 C 0.3722(3) -0.0114(2) 0.3500(2)
C35 C 0.0972(3) 0.1861(2) 0.2058(3)
C36 C 0.0287(4) 0.2136(3) 0.2069(4)
H30 H 0.00730 0.24430 0.17410
C37 C -0.0080(4) 0.1949(3) 0.2577(4)
H31 H -0.05490 0.21250 0.25880
C38 C 0.0248(4) 0.1507(3) 0.3060(4)
H32 H 0.00140 0.13820 0.34100
C39 C 0.0942(3) 0.1245(2) 0.3018(3)
C40 C 0.1452(3) 0.2048(3) 0.1567(3)
C41 C 0.1375(3) 0.0761(2) 0.3534(3)
C42 C 0.4288(3) 0.1388(2) 0.2258(3)
C43 C 0.5046(4) 0.1615(3) 0.2428(4)
H33 H 0.53750 0.15110 0.21500
C44 C 0.5304(4) 0.2001(3) 0.3022(4)
H34 H 0.58180 0.21430 0.31630
C45 C 0.4789(4) 0.2172(3) 0.3403(3)
H35 H 0.49430 0.24430 0.37880
C46 C 0.4037(3) 0.1930(2) 0.3198(3)
C47 C 0.3939(3) 0.0965(3) 0.1627(3)
C48 C 0.3406(3) 0.2085(3) 0.3545(3)
C49 C 0.1351(3) 0.0099(3) -0.0664(3)
H36 H 0.15970 0.03840 -0.03180
C50 C 0.1130(4) -0.0510(4) -0.1582(4)
H37 H 0.11790 -0.07260 -0.19820
C51 C 0.0534(4) -0.0537(3) -0.1289(3)
H38 H 0.00950 -0.07810 -0.14560
N13 N 0.4105(3) 0.0108(3) 0.5453(3)
C52 C 0.3967(3) -0.0290(3) 0.5981(3)
H39 H 0.42650 -0.06240 0.61740
N14 N 0.3290(3) -0.0085(3) 0.6164(3)
H40 H 0.30870 -0.02490 0.64710
C53 C 0.3011(3) 0.0439(3) 0.5748(3)
H41 H 0.25770 0.06640 0.57610
C54 C 0.3514(2) 0.0558(3) 0.5309(2)
H42 H 0.34660 0.08740 0.49840
N15 N 0.3367(4) 0.4327(4) 0.0332(4)
H43 H 0.37810 0.45310 0.03500
N16 N 0.2496(3) 0.3646(2) 0.0103(3)
H44 H 0.22420 0.33220 -0.00450
C55 C 0.3210(4) 0.3764(3) 0.0058(3)
H45 H 0.35310 0.35190 -0.01210
C56 C 0.2233(4) 0.4094(3) 0.0406(4)
H46 H 0.17460 0.41140 0.04910
C57 C 0.2774(3) 0.4507(3) 0.0565(3)
H47 H 0.27490 0.48650 0.08010
O29 O 0.9990(4) 0.3225(3) 0.0357(4)
H48 H 0.96940 0.31880 0.06300
H49 H 0.98370 0.28980 0.01360
O30 O 0.9880(3) 0.0721(2) 0.4617(3)
H50 H 1.02680 0.07020 0.44460
H51 H 0.97850 0.06420 0.50180
O31 O 0.1675(4) 0.2630(3) 0.9862(3)
H52 H 0.13130 0.23800 0.96720
H53 H 0.19340 0.26540 0.95540
O32 O 0.3120(5) -0.0292(4) 0.0634(6)
H54 H 0.27940 -0.00270 0.04120
H55 H 0.31980 -0.00140 0.09500
N17? N 0.3996(2) 0.0309(3) 0.5311(2)
C58? C 0.3736(3) 0.0081(3) 0.5893(2)
H56? H 0.39750 -0.02210 0.62150
N18? N 0.3046(3) 0.0397(3) 0.5895(3)
H57? H 0.27770 0.03420 0.61960
C59? C 0.2880(3) 0.0820(3) 0.5315(3)
H58? H 0.24610 0.10850 0.51940
C60? C 0.3467(2) 0.0765(2) 0.4954(2)
H59? H 0.34990 0.09890 0.45540
N19? N 0.2257(10) -0.1864(9) -0.0690(8)
H60? H 0.23960 -0.20680 -0.10110
C61? C 0.1609(9) -0.2003(4) -0.0534(6)
H61? H 0.12960 -0.23380 -0.06840
N20? N 0.2180(7) -0.1224(5) -0.0029(6)
H62? H 0.21880 -0.09070 0.02250
C62? C 0.2861(14) -0.1244(10) -0.0234(12)
H63? H 0.33400 -0.10530 -0.01730
C63? C 0.1492(8) -0.1527(6) -0.0083(7)
H64? H 0.10830 -0.14470 0.01120
Co1C Co 0.50126(3) 0.24402(3) 0.01497(3)
O8C O 1.09112(19) 0.29108(16) 0.60671(18)
N5C N 0.5746(3) 0.2347(2) -0.0520(3)
N4C N 0.4263(3) 0.2542(2) 0.0805(2)
O14C O 0.4570(2) 0.15422(17) -0.0092(2)
O7C O 0.4112(2) 0.28037(16) -0.07517(18)
O13C O 0.5435(2) 0.33035(17) 0.0401(2)
C25C C 0.5695(5) 0.1924(4) -0.1050(4)
C24C C 0.6358(4) 0.2663(4) -0.0507(4)
C22C C 0.3583(4) 0.2280(3) 0.0726(4)
C23C C 0.4376(4) 0.2905(3) 0.1415(3)
H12C H 0.48230 0.15780 -0.04030
H13C H 0.45910 0.12510 0.01980
C1C C 0.3598(3) 0.2562(2) -0.1259(3)
H11C H 0.57680 0.33580 0.08210
H10C H 0.52720 0.36420 0.02190
H17C H 0.53070 0.16330 -0.11830
C27C C 0.6276(6) 0.1984(5) -0.1349(5)
H16C H 0.65360 0.29880 -0.02020
N7C N 0.6702(4) 0.2452(4) -0.1004(4)
N6C N 0.3271(3) 0.2456(3) 0.1252(3)
H14C H 0.33490 0.20090 0.03560
C26C C 0.3769(4) 0.2850(3) 0.1690(4)
H15C H 0.48090 0.31510 0.16060
O1C O 0.3493(2) 0.20129(17) -0.1361(2)
C2C C 0.3044(3) 0.2971(2) -0.1805(2)
H21C H 0.63680 0.17520 -0.17180
H20C H 0.71180 0.25930 -0.10840
H18C H 0.28300 0.23370 0.13010
H19C H 0.37040 0.30440 0.20990
Sm1C Sm 0.243267(14) 0.155648(12) -0.236721(14)
C13C C 0.3118(3) 0.3582(2) -0.1787(3)
N1C N 0.2474(2) 0.26914(19) -0.2316(2)
N3C N 0.3682(2) 0.10133(19) -0.2357(2)
O3C O 0.1744(2) 0.18176(18) -0.1472(2)
O6C O 0.3130(2) 0.19308(18) -0.3200(2)
O2C O 0.1396(2) 0.20904(16) -0.32972(19)
N2C N 0.1156(2) 0.10137(18) -0.2486(2)
O4C O 0.2032(2) 0.08150(19) -0.3342(2)
O5C O 0.2790(2) 0.07035(19) -0.1550(2)
H1C H 0.35190 0.37670 -0.14240
C19C C 0.2585(3) 0.3913(3) -0.2319(3)
C3C C 0.1963(3) 0.3011(2) -0.2834(3)
C8C C 0.4108(3) 0.1196(3) -0.2786(3)
C7C C 0.3919(3) 0.0541(3) -0.1924(3)
C9C C 0.1138(3) 0.1559(2) -0.1411(3)
C12C C 0.3745(4) 0.1709(3) -0.3290(3)
C6C C 0.1366(3) 0.2644(2) -0.3410(3)
C4C C 0.0743(3) 0.1135(2) -0.2024(3)
C5C C 0.0878(3) 0.0620(2) -0.3025(3)
C10C C 0.1437(3) 0.0479(2) -0.3463(3)
C11C C 0.3356(4) 0.0357(3) -0.1512(3)
C14C C 0.1998(3) 0.3623(2) -0.2855(3)
H7C H 0.26190 0.43260 -0.23170
C18C C 0.4802(4) 0.0921(3) -0.2775(4)
C17C C 0.4605(4) 0.0243(3) -0.1885(4)
O9C O 0.0852(3) 0.1616(2) -0.0896(2)
O12C O 0.4067(3) 0.1882(2) -0.3743(3)
O8C* O 0.09112(19) 0.29108(16) -0.39329(18)
C15C C 0.0010(3) 0.0887(3) -0.2111(3)
C16C C 0.0150(3) 0.0365(3) -0.3147(3)
O10C O 0.1299(3) 0.0050(2) -0.3884(3)
O11C O 0.3446(4) -0.0126(2) -0.1199(3)
H2C H 0.16350 0.38380 -0.32220
C21C C 0.5057(4) 0.0450(4) -0.2309(5)
H6C H 0.50920 0.10520 -0.30780
H5C H 0.47600 -0.00880 -0.15830
Co1* Co 0.00126(3) 0.25598(3) -0.48503(3)
H3C H -0.02700 0.09750 -0.17840
C20C C -0.0293(4) 0.0506(3) -0.2695(4)
H4C H -0.00400 0.00980 -0.35320
H9C H 0.55360 0.02690 -0.22780
H8C H -0.07950 0.03470 -0.27820
Sm2B Sm -0.256593(13) -0.094335(12) -0.249272(13)
N8B N -0.2598(2) 0.01943(19) -0.24335(19)
N9B N -0.1285(2) -0.14151(18) -0.2517(2)
N10B N -0.3808(2) -0.15323(19) -0.2651(2)
N11B N -0.0671(2) 0.0150(2) 0.0705(2)
N12B N -0.1642(3) 0.0108(3) 0.1181(3)
H22B H -0.20800 0.00040 0.12480
O15B O -0.1537(2) -0.04540(16) -0.14840(19)
O16B O -0.09438(19) 0.03529(16) -0.08779(18)
O17B O -0.3672(2) -0.04376(16) -0.33872(19)
O18B O -0.4198(2) 0.03737(16) -0.40232(18)
O19B O -0.2082(2) -0.17710(18) -0.1641(2)
O20B O -0.1221(3) -0.2477(2) -0.1152(3)
O21B O -0.1958(2) -0.05280(17) -0.3381(2)
O22B O -0.1149(3) -0.0617(2) -0.4058(2)
O23B O -0.3295(2) -0.07251(17) -0.1631(2)
O24B O -0.4284(3) -0.0888(2) -0.1159(3)
O25B O -0.2851(2) -0.17101(19) -0.3442(2)
O26B O -0.3441(3) -0.2562(2) -0.3867(3)
O27B O -0.0461(2) -0.08964(16) -0.0204(2)
H23B H -0.08500 -0.08490 -0.05880
H24B H -0.05290 -0.11690 0.00800
C28B C -0.2041(3) 0.0493(2) -0.1923(2)
C29B C -0.2013(3) 0.1107(2) -0.1910(3)
H27B H -0.16230 0.13060 -0.15520
C30B C -0.2577(3) 0.1419(2) -0.2437(3)
H28B H -0.25710 0.18330 -0.24380
C31B C -0.3153(3) 0.1112(2) -0.2966(3)
H29B H -0.35370 0.13140 -0.33260
C32B C -0.3141(3) 0.0497(2) -0.2943(2)
C33B C -0.1458(3) 0.0099(2) -0.1383(2)
C34B C -0.3722(3) 0.0114(2) -0.3500(2)
C35B C -0.0972(3) -0.1861(2) -0.2058(3)
C36B C -0.0287(4) -0.2136(3) -0.2069(4)
H30B H -0.00730 -0.24430 -0.17410
C37B C 0.0080(4) -0.1949(3) -0.2577(4)
H31B H 0.05490 -0.21250 -0.25880
C38B C -0.0248(4) -0.1507(3) -0.3060(4)
H32B H -0.00140 -0.13820 -0.34100
C39B C -0.0942(3) -0.1245(2) -0.3018(3)
C40B C -0.1452(3) -0.2048(3) -0.1567(3)
C41B C -0.1375(3) -0.0761(2) -0.3534(3)
C42B C -0.4288(3) -0.1388(2) -0.2258(3)
C43B C -0.5046(4) -0.1615(3) -0.2428(4)
H33B H -0.53750 -0.15110 -0.21500
C44B C -0.5304(4) -0.2001(3) -0.3022(4)
H34B H -0.58180 -0.21430 -0.31630
C45B C -0.4789(4) -0.2172(3) -0.3403(3)
H35B H -0.49430 -0.24430 -0.37880
C46B C -0.4037(3) -0.1930(2) -0.3198(3)
C47B C -0.3939(3) -0.0965(3) -0.1627(3)
C48B C -0.3406(3) -0.2085(3) -0.3545(3)
C49B C -0.1351(3) -0.0099(3) 0.0664(3)
H36B H -0.15970 -0.03840 0.03180
C50B C -0.1130(4) 0.0510(4) 0.1582(4)
H37B H -0.11790 0.07260 0.19820
C51B C -0.0534(4) 0.0537(3) 0.1289(3)
H38B H -0.00950 0.07810 0.14560
N13B N 0.5895(3) -0.0108(3) 0.4547(3)
C52B C 0.6033(3) 0.0290(3) 0.4019(3)
H39B H 0.57350 0.06240 0.38260
N14B N 0.6710(3) 0.0085(3) 0.3836(3)
H40B H 0.69130 0.02490 0.35290
C53B C 0.6989(3) -0.0439(3) 0.4252(3)
H41B H 0.74230 -0.06640 0.42390
C54B C 0.6486(2) -0.0558(3) 0.4691(2)
H42B H 0.65340 -0.08740 0.50160
O28B O 0.5078(3) -0.0844(2) 0.5476(2)
H25B H 0.54700 -0.08710 0.58600
H26B H 0.54630 -0.07990 0.53050
Co3* Co -0.50000 0.00000 -0.50000
O18B* O 0.5802(2) 0.03737(16) 0.59768(18)
#END
