
#######################################################################
#
#                 Cambridge Crystallographic Data Centre
#                                CCDC
#
#######################################################################
#
# If this CIF has been generated from an entry in the Cambridge
# Structural Database, then it will include bibliographic, chemical,
# crystal, experimental, refinement or atomic coordinate data resulting
# from the CCDC's data processing and validation procedures.
#
#######################################################################

data_CSD_CIF_ODEWAW
_audit_creation_date 2007-09-28
_audit_creation_method CSD-ConQuest-V1
_database_code_CSD ODEWAW
_database_code_depnum_ccdc_archive 'CCDC 634121'
_chemical_formula_sum 'C56 H53 Mo2 N1 O8 Sn3'
_chemical_formula_moiety
;
(C54 H45 Mo2 O8 Sn3 1-)n,n(C2 H8 N1 1+)
;
_journal_coden_Cambridge 29
_journal_volume 633
_journal_year 2007
_journal_page_first 1131
_journal_name_full 'Z.Anorg.Allg.Chem. '
loop_
_publ_author_name
"M.Kondracka"
"K.Merzweiler"
_chemical_name_systematic
;
catena-(Dimethylammonium 
hexakis(\m~2~-oxo)-dioxo-nonaphenyl-di-molybdenum-tri-tin)
;
_chemical_melting_point 543
_cell_volume   5793.253
_exptl_crystal_colour 'colorless'
_exptl_crystal_density_diffrn 1.623
_diffrn_ambient_temperature 220
#These two values have been output from a single CSD field.
_refine_ls_R_factor_gt 0.037
_refine_ls_wR_factor_gt 0.037
_symmetry_cell_setting orthorhombic
_symmetry_space_group_name_H-M 'P c a 21'
_symmetry_Int_Tables_number 29
loop_
_symmetry_equiv_pos_site_id
_symmetry_equiv_pos_as_xyz
1 x,y,z
2 -x,-y,1/2+z
3 1/2-x,y,1/2+z
4 1/2+x,-y,z
_cell_length_a 19.670(4)
_cell_length_b 13.5313(19)
_cell_length_c 21.766(5)
_cell_angle_alpha 90
_cell_angle_beta 90
_cell_angle_gamma 90
_cell_formula_units_Z 4
loop_
_atom_type_symbol
_atom_type_radius_bond
C 0.68
H 0.23
Mo 1.42
N 0.68
O 0.68
Sn 1.46
loop_
_atom_site_label
_atom_site_type_symbol
_atom_site_fract_x
_atom_site_fract_y
_atom_site_fract_z
C1 C -0.4643(4) -0.0236(6) 0.1431(3)
C2 C -0.4771(4) -0.1173(6) 0.1674(4)
H1 H -0.50150 -0.16320 0.14460
C3 C -0.4535(5) -0.1421(8) 0.2254(5)
H2 H -0.46330 -0.20420 0.24150
C4 C -0.4156(5) -0.0758(8) 0.2597(4)
H3 H -0.39930 -0.09340 0.29830
C5 C -0.4025(4) 0.0161(7) 0.2360(4)
H4 H -0.37680 0.06080 0.25880
C6 C -0.4269(4) 0.0439(6) 0.1785(4)
H5 H -0.41850 0.10710 0.16360
C7 C -0.6123(3) 0.0101(6) 0.0328(3)
C8 C -0.6455(4) 0.0907(6) 0.0044(4)
H6 H -0.62160 0.14920 -0.00200
C9 C -0.7126(4) 0.0844(7) -0.0140(4)
H7 H -0.73290 0.13770 -0.03360
C10 C -0.7495(4) -0.0004(8) -0.0034(5)
H8 H -0.79490 -0.00370 -0.01510
C11 C -0.7187(5) -0.0816(8) 0.0251(5)
H9 H -0.74330 -0.13890 0.03310
C12 C -0.6501(4) -0.0748(7) 0.0414(4)
H10 H -0.62900 -0.12970 0.05870
C13 C -0.4460(4) 0.0954(6) -0.0100(4)
C14 C -0.4511(5) 0.0709(7) -0.0720(5)
H11 H -0.47890 0.01850 -0.08370
C15 C -0.4160(6) 0.1226(8) -0.1162(5)
H12 H -0.42040 0.10580 -0.15750
C16 C -0.3743(5) 0.1991(8) -0.0989(7)
H13 H -0.35100 0.23460 -0.12880
C17 C -0.3666(5) 0.2242(8) -0.0379(5)
H14 H -0.33710 0.27470 -0.02660
C18 C -0.4029(4) 0.1736(7) 0.0062(5)
H15 H -0.39880 0.19170 0.04720
C19 C -0.5476(3) -0.2400(6) -0.1799(4)
C20 C -0.5889(4) -0.2852(6) -0.2233(4)
H16 H -0.56930 -0.31780 -0.25650
C21 C -0.6602(4) -0.2821(8) -0.2177(6)
H17 H -0.68740 -0.31530 -0.24580
C22 C -0.6889(4) -0.2308(8) -0.1712(6)
H18 H -0.73600 -0.22700 -0.16900
C23 C -0.6503(4) -0.1838(7) -0.1270(5)
H19 H -0.67090 -0.14990 -0.09490
C24 C -0.5796(4) -0.1885(6) -0.1317(4)
H20 H -0.55310 -0.15690 -0.10230
C25 C -0.3832(4) -0.3767(6) -0.1773(4)
C26 C -0.3979(6) -0.4420(7) -0.1328(4)
H21 H -0.43560 -0.43120 -0.10780
C27 C -0.3581(7) -0.5252(7) -0.1233(5)
H22 H -0.36980 -0.57020 -0.09280
C28 C -0.3015(6) -0.5414(9) -0.1589(6)
H23 H -0.27330 -0.59520 -0.15110
C29 C -0.2871(5) -0.4779(9) -0.2057(7)
H24 H -0.25020 -0.49000 -0.23140
C30 C -0.3274(5) -0.3950(7) -0.2152(6)
H25 H -0.31720 -0.35150 -0.24700
C31 C -0.3789(4) -0.1162(6) -0.2096(4)
C32 C -0.3955(4) -0.0531(6) -0.2595(4)
H26 H -0.43460 -0.06500 -0.28250
C33 C -0.3538(4) 0.0262(7) -0.2743(4)
H27 H -0.36580 0.06810 -0.30630
C34 C -0.2949(4) 0.0433(6) -0.2419(4)
H28 H -0.26620 0.09490 -0.25310
C35 C -0.2787(4) -0.0168(7) -0.1927(5)
H29 H -0.23940 -0.00420 -0.17020
C36 C -0.3202(4) -0.0958(7) -0.1763(4)
H30 H -0.30860 -0.13520 -0.14290
C37 C -0.5366(4) -0.5334(6) -0.0228(4)
C38 C -0.5773(5) -0.4693(7) -0.0572(5)
H31 H -0.58060 -0.40320 -0.04580
C39 C -0.6129(6) -0.5029(10) -0.1076(6)
H32 H -0.64020 -0.45920 -0.12950
C40 C -0.6086(8) -0.5990(11) -0.1261(6)
H33 H -0.63260 -0.62080 -0.16030
C41 C -0.5687(7) -0.6628(8) -0.0935(6)
H34 H -0.56440 -0.72800 -0.10650
C42 C -0.5344(5) -0.6314(8) -0.0413(5)
H35 H -0.50950 -0.67690 -0.01840
C43 C -0.3745(3) -0.5057(6) 0.0640(4)
C44 C -0.3288(4) -0.4559(6) 0.0265(4)
H36 H -0.34560 -0.41520 -0.00440
C45 C -0.2585(4) -0.4649(7) 0.0338(5)
H37 H -0.22930 -0.43070 0.00790
C46 C -0.2329(5) -0.5237(9) 0.0789(6)
H38 H -0.18620 -0.52960 0.08410
C47 C -0.2771(5) -0.5747(10) 0.1168(6)
H39 H -0.25950 -0.61440 0.14780
C48 C -0.3469(5) -0.5681(7) 0.1097(5)
H40 H -0.37550 -0.60450 0.13510
C49 C -0.5353(4) -0.4078(6) 0.1294(4)
C50 C -0.5234(6) -0.4331(7) 0.1908(4)
H41 H -0.49240 -0.48260 0.20030
C51 C -0.5581(7) -0.384(1) 0.2383(6)
H42 H -0.54760 -0.39720 0.27910
C52 C -0.6080(7) -0.3159(10) 0.2238(6)
H43 H -0.63350 -0.28720 0.25500
C53 C -0.6203(6) -0.2901(7) 0.1631(6)
H44 H -0.65260 -0.24210 0.15390
C54 C -0.5842(4) -0.3365(7) 0.1158(5)
H45 H -0.59290 -0.31970 0.07510
C55 C -0.3104(5) -0.3000(7) 0.1631(5)
H46 H -0.31550 -0.36360 0.14430
H47 H -0.35440 -0.27130 0.16990
H48 H -0.28730 -0.30720 0.20180
C56 C -0.2590(5) -0.1341(7) 0.1484(4)
H49 H -0.23250 -0.09500 0.12040
H50 H -0.23540 -0.13970 0.18680
H51 H -0.30220 -0.10280 0.15500
Mo1 Mo -0.43535(3) -0.21940(5) -0.00880(2)
Mo2 Mo -0.44464(3) -0.28108(5) -0.36906(3)
N1 N -0.2698(3) -0.2342(5) 0.1219(3)
H52 H -0.227(4) -0.266(6) 0.116(4)
H53 H -0.295(5) -0.225(7) 0.081(5)
O1 O -0.4921(3) -0.1259(4) 0.0178(3)
O2 O -0.4278(3) -0.2117(4) -0.0897(3)
O3 O -0.4677(3) -0.3364(4) 0.0117(3)
O4 O -0.3567(3) -0.2028(5) 0.0241(3)
O5 O -0.4510(3) -0.2723(5) -0.2883(3)
O6 O -0.5003(3) -0.6243(4) 0.1042(3)
O7 O -0.5294(3) 0.1686(4) 0.0989(3)
O8 O -0.3621(3) -0.3048(5) -0.3894(3)
Sn1 Sn -0.50744(2) 0.02171(3) 0.05681(2)
Sn2 Sn -0.43945(2) -0.24273(4) -0.18893(3)
Sn3 Sn -0.482420(18) -0.48345(4) 0.05657(3)
Mo2A Mo -0.55536(3) -0.71892(5) 0.13094(3)
Mo2A* Mo -0.55536(3) 0.28108(5) 0.13094(3)
O6A O -0.4997(3) -0.3757(4) -0.3958(3)
O7A O -0.4706(3) -0.1686(4) -0.4011(3)
#END
