
#######################################################################
#
#                 Cambridge Crystallographic Data Centre
#                                CCDC
#
#######################################################################
#
# If this CIF has been generated from an entry in the Cambridge
# Structural Database, then it will include bibliographic, chemical,
# crystal, experimental, refinement or atomic coordinate data resulting
# from the CCDC's data processing and validation procedures.
#
#######################################################################

data_CSD_CIF_ODIMEU
_audit_creation_date 2007-09-28
_audit_creation_method CSD-ConQuest-V1
_database_code_CSD ODIMEU
_database_code_depnum_ccdc_archive 'CCDC 617289'
_chemical_formula_sum 'C24 H42 Co3 O39 Sm2'
_chemical_formula_moiety
;
(H12 Co1 O6 2+)n,n(C24 H24 Co2 O30 Sm2 2-),3n(H2 O1)
;
_journal_coden_Cambridge 9
_journal_volume 46
_journal_year 2007
_journal_page_first 4530
_journal_name_full 'Inorg.Chem. '
loop_
_publ_author_name
"Ying Wang"
"Peng Cheng"
"Jun Chen"
"Dai-Zheng Liao"
"Shi-Ping Yan"
_chemical_name_systematic
;
catena-[Hexaaqua-cobalt(ii) 
(hexakis(\m~3~-oxodiacetato-O,O',O'',O''')-di-cobalt(ii)-di-samarium(iii)) 
trihydrate]
;
_cell_volume  17519.884
_exptl_crystal_colour 'purple'
_exptl_crystal_density_diffrn 2.172
_exptl_crystal_description 'block'
_diffrn_ambient_temperature 293
#These two values have been output from a single CSD field.
_refine_ls_R_factor_gt 0.0316
_refine_ls_wR_factor_gt 0.0316
_symmetry_cell_setting cubic
_symmetry_space_group_name_H-M 'F d -3 c'
_symmetry_Int_Tables_number 228
loop_
_symmetry_equiv_pos_site_id
_symmetry_equiv_pos_as_xyz
1 x,y,z
2 z,x,y
3 y,z,x
4 3/4+y,1/4+x,-z
5 1/4+y,-x,3/4+z
6 -y,3/4+x,1/4+z
7 3/4+x,1/4+z,-y
8 -x,3/4+z,1/4+y
9 1/4+x,-z,3/4+y
10 3/4+z,1/4+y,-x
11 1/4+z,-y,3/4+x
12 -z,3/4+y,1/4+x
13 x,1/2+y,1/2+z
14 1/4-x,1/4-y,z
15 z,1/2+x,1/2+y
16 1/4-z,1/4-x,y
17 y,1/2+z,1/2+x
18 1/4-y,1/4-z,x
19 1/4+y,1/2-x,1/4+z
20 -y,1/4+x,3/4+z
21 -x,1/4+z,3/4+y
22 1/4+x,1/2-z,1/4+y
23 1/4+z,1/2-y,1/4+x
24 -z,1/4+y,3/4+x
25 1/2+x,y,1/2+z
26 x,1/4-y,1/4-z
27 1/2+z,x,1/2+y
28 z,1/4-x,1/4-y
29 1/2+y,z,1/2+x
30 y,1/4-z,1/4-x
31 1/4+y,1/4+x,1/2-z
32 3/4+y,-x,1/4+z
33 1/4+x,1/4+z,1/2-y
34 3/4+x,-z,1/4+y
35 1/4+z,1/4+y,1/2-x
36 3/4+z,-y,1/4+x
37 1/2+x,1/2+y,z
38 1/4-x,y,1/4-z
39 1/2+z,1/2+x,y
40 1/4-z,x,1/4-y
41 1/2+y,1/2+z,x
42 1/4-y,z,1/4-x
43 1/4+y,3/4+x,-z
44 1/2-y,1/4+x,1/4+z
45 1/4+x,3/4+z,-y
46 1/2-x,1/4+z,1/4+y
47 1/4+z,3/4+y,-x
48 1/2-z,1/4+y,1/4+x
49 1/4-x,3/4-y,1/2+z
50 3/4-x,1/2+y,1/4-z
51 1/2+x,1/4-y,3/4-z
52 1/2+z,1/4-x,3/4-y
53 1/4-z,3/4-x,1/2+y
54 3/4-z,1/2+x,1/4-y
55 3/4-y,1/2+z,1/4-x
56 1/2+y,1/4-z,3/4-x
57 1/4-y,3/4-z,1/2+x
58 1/2-y,1/2-x,1/2-z
59 1/2-x,1/2-z,1/2-y
60 1/2-z,1/2-y,1/2-x
61 3/4-x,y,3/4-z
62 1/2+x,3/4-y,1/4-z
63 1/2+z,3/4-x,1/4-y
64 3/4-z,x,3/4-y
65 3/4-y,z,3/4-x
66 1/2+y,3/4-z,1/4-x
67 3/4+y,3/4+x,1/2-z
68 1/2-y,-x,-z
69 3/4+x,3/4+z,1/2-y
70 1/2-x,-z,-y
71 3/4+z,3/4+y,1/2-x
72 1/2-z,-y,-x
73 3/4-x,3/4-y,z
74 1/4-x,1/2+y,3/4-z
75 3/4-z,3/4-x,y
76 1/4-z,1/2+x,3/4-y
77 1/4-y,1/2+z,3/4-x
78 3/4-y,3/4-z,x
79 -y,1/2-x,-z
80 1/2-y,3/4+x,3/4+z
81 1/2-x,3/4+z,3/4+y
82 -x,1/2-z,-y
83 1/2-z,3/4+y,3/4+x
84 -z,1/2-y,-x
85 3/4-x,1/4-y,1/2+z
86 x,3/4-y,3/4-z
87 z,3/4-x,3/4-y
88 3/4-z,1/4-x,1/2+y
89 y,3/4-z,3/4-x
90 3/4-y,1/4-z,1/2+x
91 -y,-x,1/2-z
92 3/4+y,1/2-x,3/4+z
93 -x,-z,1/2-y
94 3/4+x,1/2-z,3/4+y
95 3/4+z,1/2-y,3/4+x
96 -z,-y,1/2-x
97 -x,-y,-z
98 -z,-x,-y
99 -y,-z,-x
100 -3/4-y,-1/4-x,z
101 -1/4-y,x,-3/4-z
102 y,-3/4-x,-1/4-z
103 -3/4-x,-1/4-z,y
104 x,-3/4-z,-1/4-y
105 -1/4-x,z,-3/4-y
106 -3/4-z,-1/4-y,x
107 -1/4-z,y,-3/4-x
108 z,-3/4-y,-1/4-x
109 -x,-1/2-y,-1/2-z
110 -1/4+x,-1/4+y,-z
111 -z,-1/2-x,-1/2-y
112 -1/4+z,-1/4+x,-y
113 -y,-1/2-z,-1/2-x
114 -1/4+y,-1/4+z,-x
115 -1/4-y,-1/2+x,-1/4-z
116 y,-1/4-x,-3/4-z
117 x,-1/4-z,-3/4-y
118 -1/4-x,-1/2+z,-1/4-y
119 -1/4-z,-1/2+y,-1/4-x
120 z,-1/4-y,-3/4-x
121 -1/2-x,-y,-1/2-z
122 -x,-1/4+y,-1/4+z
123 -1/2-z,-x,-1/2-y
124 -z,-1/4+x,-1/4+y
125 -1/2-y,-z,-1/2-x
126 -y,-1/4+z,-1/4+x
127 -1/4-y,-1/4-x,-1/2+z
128 -3/4-y,x,-1/4-z
129 -1/4-x,-1/4-z,-1/2+y
130 -3/4-x,z,-1/4-y
131 -1/4-z,-1/4-y,-1/2+x
132 -3/4-z,y,-1/4-x
133 -1/2-x,-1/2-y,-z
134 -1/4+x,-y,-1/4+z
135 -1/2-z,-1/2-x,-y
136 -1/4+z,-x,-1/4+y
137 -1/2-y,-1/2-z,-x
138 -1/4+y,-z,-1/4+x
139 -1/4-y,-3/4-x,z
140 -1/2+y,-1/4-x,-1/4-z
141 -1/4-x,-3/4-z,y
142 -1/2+x,-1/4-z,-1/4-y
143 -1/4-z,-3/4-y,x
144 -1/2+z,-1/4-y,-1/4-x
145 -1/4+x,-3/4+y,-1/2-z
146 -3/4+x,-1/2-y,-1/4+z
147 -1/2-x,-1/4+y,-3/4+z
148 -1/2-z,-1/4+x,-3/4+y
149 -1/4+z,-3/4+x,-1/2-y
150 -3/4+z,-1/2-x,-1/4+y
151 -3/4+y,-1/2-z,-1/4+x
152 -1/2-y,-1/4+z,-3/4+x
153 -1/4+y,-3/4+z,-1/2-x
154 -1/2+y,-1/2+x,-1/2+z
155 -1/2+x,-1/2+z,-1/2+y
156 -1/2+z,-1/2+y,-1/2+x
157 -3/4+x,-y,-3/4+z
158 -1/2-x,-3/4+y,-1/4+z
159 -1/2-z,-3/4+x,-1/4+y
160 -3/4+z,-x,-3/4+y
161 -3/4+y,-z,-3/4+x
162 -1/2-y,-3/4+z,-1/4+x
163 -3/4-y,-3/4-x,-1/2+z
164 -1/2+y,x,z
165 -3/4-x,-3/4-z,-1/2+y
166 -1/2+x,z,y
167 -3/4-z,-3/4-y,-1/2+x
168 -1/2+z,y,x
169 -3/4+x,-3/4+y,-z
170 -1/4+x,-1/2-y,-3/4+z
171 -3/4+z,-3/4+x,-y
172 -1/4+z,-1/2-x,-3/4+y
173 -1/4+y,-1/2-z,-3/4+x
174 -3/4+y,-3/4+z,-x
175 y,-1/2+x,z
176 -1/2+y,-3/4-x,-3/4-z
177 -1/2+x,-3/4-z,-3/4-y
178 x,-1/2+z,y
179 -1/2+z,-3/4-y,-3/4-x
180 z,-1/2+y,x
181 -3/4+x,-1/4+y,-1/2-z
182 -x,-3/4+y,-3/4+z
183 -z,-3/4+x,-3/4+y
184 -3/4+z,-1/4+x,-1/2-y
185 -y,-3/4+z,-3/4+x
186 -3/4+y,-1/4+z,-1/2-x
187 y,x,-1/2+z
188 -3/4-y,-1/2+x,-3/4-z
189 x,z,-1/2+y
190 -3/4-x,-1/2+z,-3/4-y
191 -3/4-z,-1/2+y,-3/4-x
192 z,y,-1/2+x
_cell_length_a 25.9723(6)
_cell_length_b 25.9723(6)
_cell_length_c 25.9723(6)
_cell_angle_alpha 90
_cell_angle_beta 90
_cell_angle_gamma 90
_cell_formula_units_Z 16
loop_
_atom_type_symbol
_atom_type_radius_bond
C 0.68
H 0.23
Co 1.33
O 0.68
Sm 1.80
loop_
_atom_site_label
_atom_site_type_symbol
_atom_site_fract_x
_atom_site_fract_y
_atom_site_fract_z
Sm1 Sm 0.00000 0.00000 0.75000
Co1 Co 0.00000 0.00000 1.00000
Co2 Co 0.62500 0.62500 0.12500
O1 O -0.02966(15) 0.00800(16) 0.83817(15)
O2 O -0.02007(15) 0.01280(15) 0.92238(15)
O3 O 0.06773(14) 0.00000 0.81773(14)
O4 O 0.7051(2) 0.62500 0.12500
H1 H 0.73130 0.61410 0.10830
C1 C -0.0013(2) 0.0077(2) 0.87815(19)
C2 C 0.0560(2) 0.0027(3) 0.8713(2)
H2 H 0.07320 0.03220 0.88650
H3 H 0.06820 -0.02810 0.88850
O5 O 0.62500 0.3289(6) 0.12500
Sm1A Sm -0.25000 0.00000 1.00000
Sm1B Sm 0.00000 -0.25000 1.00000
Sm1CF Sm 0.00000 0.00000 1.25000
Co1D Co 0.25000 0.00000 0.75000
Co1S Co 0.00000 0.25000 0.75000
Co1CE Co -0.25000 0.00000 0.75000
Co1QD Co 0.00000 -0.25000 0.75000
Co1DG Co 0.00000 0.00000 0.50000
Co1C Co -0.25000 0.25000 1.00000
Co1E Co 0.00000 -0.25000 1.25000
Co1EA Co -0.25000 0.00000 1.25000
O1J O 0.08817(15) -0.00800(16) 0.72034(15)
O1T O 0.02966(15) 0.08817(16) 0.75800(15)
O1KB O -0.08817(15) -0.02966(16) 0.74200(15)
O1JC O 0.00800(15) -0.08817(16) 0.77966(15)
O1LC O -0.00800(15) 0.02966(16) 0.66183(15)
O1A O -0.16183(15) -0.02966(16) 1.00800(15)
O1F O -0.27966(15) 0.08817(16) 0.99200(15)
O1B O 0.00800(15) -0.16183(16) 0.97034(15)
O1E O -0.00800(15) -0.27966(16) 1.08817(15)
O1RC O 0.02966(15) -0.00800(16) 1.16183(15)
O1BD O -0.08817(15) 0.00800(16) 1.27966(15)
O1EA O -0.24200(15) 0.02966(16) 1.08817(15)
O1HB O -0.22034(15) 0.00800(16) 0.91183(15)
O1SB O -0.33817(15) -0.00800(16) 1.02966(15)
O1YB O -0.25800(15) -0.08817(16) 0.97034(15)
O2J O 0.17238(15) -0.01280(15) 0.72993(15)
O2T O 0.02007(15) 0.17238(15) 0.76280(15)
O2KB O -0.17238(15) -0.02007(15) 0.73720(15)
O2JC O 0.01280(15) -0.17238(15) 0.77007(15)
O2LC O -0.01280(15) 0.02007(15) 0.57762(15)
O2A O -0.07762(15) -0.02007(15) 1.01280(15)
O2F O -0.27007(15) 0.17238(15) 0.98720(15)
O2B O 0.01280(15) -0.07762(15) 0.97993(15)
O2E O -0.01280(15) -0.27007(15) 1.17238(15)
O2RC O 0.02007(15) -0.01280(15) 1.07762(15)
O2BD O -0.17238(15) 0.01280(15) 1.27007(15)
O2SC O 0.07762(15) 0.02007(15) 0.98720(15)
O2TC O -0.01280(15) 0.07762(15) 1.02007(15)
O2D O 0.26280(15) 0.02007(15) 0.67238(15)
O2H O 0.22993(15) 0.07762(15) 0.76280(15)
O2WD O 0.23720(15) -0.02007(15) 0.82762(15)
O2YD O 0.27007(15) -0.07762(15) 0.73720(15)
O2AE O 0.32762(15) 0.01280(15) 0.77007(15)
O3T O -0.06773(14) 0.06773 0.75000(14)
O3JC O 0.00000(14) -0.06773 0.68227(14)
O3A O -0.18227(14) 0.06773 1.00000(14)
O3B O 0.00000(14) -0.18227 1.06773(14)
O3RC O -0.06773(14) 0.00000 1.18227(14)
O3EA O -0.25000(14) -0.06773 1.06773(14)
O3HB O -0.31773(14) 0.00000 0.93227(14)
O4M O 0.5449(2) 0.62500 0.12500
O4P O 0.6250(2) 0.62500 0.20510
O4Z O 0.6250(2) 0.70510 0.12500
O4YA O 0.6250(2) 0.54490 0.12500
O4XB O 0.6250(2) 0.62500 0.04490
H1Y H 0.73130 0.63590 0.14170
H1M H 0.51870 0.63590 0.10830
H1KA H 0.51870 0.61410 0.14170
H1P H 0.61410 0.60830 0.23130
H1DB H 0.63590 0.64170 0.23130
H1Z H 0.60830 0.73130 0.11410
H1KB H 0.64170 0.73130 0.13590
H1YA H 0.60830 0.51870 0.13590
H1IC H 0.64170 0.51870 0.11410
H1XB H 0.63590 0.60830 0.01870
H1JC H 0.61410 0.64170 0.01870
C1J C 0.12815(20) -0.0077(2) 0.74870(19)
C1T C 0.0013(2) 0.12815(20) 0.75770(19)
C1KB C -0.12815(20) -0.0013(2) 0.74230(19)
C1JC C 0.0077(2) -0.12815(20) 0.75130(19)
C1LC C -0.0077(2) 0.0013(2) 0.62185(19)
C1A C -0.12185(20) -0.0013(2) 1.00770(19)
C1F C -0.2513(2) 0.12815(20) 0.99230(19)
C1B C 0.0077(2) -0.12185(20) 0.99870(19)
C1E C -0.0077(2) -0.2513(2) 1.12815(19)
C1RC C 0.0013(2) -0.0077(2) 1.12185(19)
C1BD C -0.12815(20) 0.0077(2) 1.25130(19)
C2J C 0.1213(2) -0.0027(3) 0.8060(2)
C2T C -0.0560(2) 0.1213(3) 0.7527(2)
C2KB C -0.1213(2) 0.0560(3) 0.7473(2)
C2JC C 0.0027(2) -0.1213(3) 0.6940(2)
C2LC C -0.0027(2) -0.0560(3) 0.6287(2)
C2A C -0.1287(2) 0.0560(3) 1.0027(2)
C2F C -0.1940(2) 0.1213(3) 0.9973(2)
C2B C 0.0027(2) -0.1287(3) 1.0560(2)
C2E C -0.0027(2) -0.1940(3) 1.1213(2)
C2RC C -0.0560(2) -0.0027(3) 1.1287(2)
C2BD C -0.1213(2) 0.0027(3) 1.1940(2)
H2J H 0.13650 -0.03220 0.82320
H2T H -0.07320 0.13650 0.78220
H2KB H -0.13650 0.07320 0.71780
H2JC H 0.03220 -0.13650 0.67680
H2LC H -0.03220 -0.07320 0.61350
H2A H -0.11350 0.07320 1.03220
H2F H -0.17680 0.13650 0.96780
H2B H 0.03220 -0.11350 1.07320
H2E H -0.03220 -0.17680 1.13650
H2RC H -0.07320 -0.03220 1.11350
H2BD H -0.13650 0.03220 1.17680
H3J H 0.13850 0.02810 0.81820
H3T H -0.06820 0.13850 0.72190
H3KB H -0.13850 0.06820 0.77810
H3JC H -0.02810 -0.13850 0.68180
H3LC H 0.02810 -0.06820 0.61150
H3A H -0.11150 0.06820 0.97190
H3F H -0.18180 0.13850 1.02810
H3B H -0.02810 -0.11150 1.06820
H3E H 0.02810 -0.18180 1.13850
H3RC H -0.06820 0.02810 1.11150
H3BD H -0.13850 -0.02810 1.18180
#END
