
#######################################################################
#
#                 Cambridge Crystallographic Data Centre
#                                CCDC
#
#######################################################################
#
# If this CIF has been generated from an entry in the Cambridge
# Structural Database, then it will include bibliographic, chemical,
# crystal, experimental, refinement or atomic coordinate data resulting
# from the CCDC's data processing and validation procedures.
#
#######################################################################

data_CSD_CIF_ODIWAB
_audit_creation_date 2013-08-23
_audit_creation_method CSD-ConQuest-V1
_database_code_CSD ODIWAB
_database_code_depnum_ccdc_archive 'CCDC 938642'
_chemical_formula_sum 'C40 H42 N12 O19 Zn4'
_chemical_formula_moiety
;
(C36 H22 N10 O17 Zn4 2-)n,2(C2 H8 N1 1+),2(H2 O1)
;
_journal_coden_Cambridge 1350
_journal_volume 15
_journal_year 2013
_journal_page_first 7031
_journal_name_full 'CrystEngComm '
loop_
_publ_author_name
"Fenglong Yang"
"Qingshu Zheng"
"Zhenxia Chen"
"Yun Ling"
"Xiaofeng Liu"
"Linhong Weng"
"Yaming Zhou"
_chemical_name_systematic
;
catena-[bis(N-Methylmethanaminium) 
bis(\m~5~-biphenyl-3,3',5,5'-tetracarboxylato)-bis(\m~3~-1,2,4-triazolato-3,5-
diamine)-aqua-tetra-zinc(ii) dihydrate]
;
_cell_volume   2395.335
_exptl_crystal_colour 'colorless'
_exptl_crystal_density_diffrn 1.742
_exptl_crystal_description 'block'
_diffrn_ambient_temperature 293
#These two values have been output from a single CSD field.
_refine_ls_R_factor_gt 0.0566
_refine_ls_wR_factor_gt 0.0566
_symmetry_cell_setting monoclinic
_symmetry_space_group_name_H-M 'P c'
_symmetry_Int_Tables_number 7
loop_
_symmetry_equiv_pos_site_id
_symmetry_equiv_pos_as_xyz
1 x,y,z
2 x,-y,1/2+z
_cell_length_a 8.230(4)
_cell_length_b 21.274(10)
_cell_length_c 14.195(7)
_cell_angle_alpha 90
_cell_angle_beta 105.466(6)
_cell_angle_gamma 90
_cell_formula_units_Z 2
loop_
_atom_type_symbol
_atom_type_radius_bond
C 0.68
H 0.23
N 0.68
O 0.68
Zn 1.22
loop_
_atom_site_label
_atom_site_type_symbol
_atom_site_fract_x
_atom_site_fract_y
_atom_site_fract_z
Zn1 Zn 0.3160(2) 0.16525(8) 0.43011(11)
Zn2 Zn 0.3824(2) 0.33110(8) 0.40427(11)
Zn3 Zn 0.0991(2) 0.22434(9) -0.00359(11)
Zn4 Zn 0.64556(19) 0.27239(8) 0.82811(11)
C1 C 0.2364(19) 0.1841(8) 0.2137(12)
C2 C 0.229(2) 0.2837(8) 0.2009(12)
C3 C 0.496(2) 0.2131(8) 0.6276(13)
C4 C 0.461(2) 0.3121(8) 0.6206(11)
C5 C 0.462(2) 0.0411(7) 0.4281(12)
C6 C 0.5744(19) -0.0087(7) 0.4830(12)
C7 C 0.585(2) -0.0667(7) 0.4430(12)
H1 H 0.51880 -0.07690 0.38090
C8 C 0.701(2) -0.1110(7) 0.5008(11)
C9 C 0.721(2) -0.1757(8) 0.4596(14)
C10 C 0.7974(19) -0.0968(8) 0.5919(13)
H2 H 0.87430 -0.12620 0.62660
C11 C 0.7818(19) -0.0388(7) 0.6340(12)
C12 C 0.670(2) 0.0037(8) 0.5803(13)
H3 H 0.65670 0.04210 0.60850
C13 C 0.879(2) -0.0233(7) 0.7388(12)
C14 C 0.9216(19) -0.0712(7) 0.8086(12)
H4 H 0.90240 -0.11300 0.79010
C15 C 0.9914(19) -0.0557(7) 0.9038(12)
C16 C 1.031(2) -0.1071(8) 0.9805(14)
C17 C 1.032(2) 0.0057(7) 0.9320(12)
H5 H 1.08180 0.01510 0.99730
C18 C 0.999(2) 0.0525(7) 0.8647(11)
C19 C 1.039(2) 0.1198(7) 0.8918(12)
C20 C 0.921(2) 0.0379(7) 0.7658(11)
H6 H 0.89860 0.06970 0.71910
C21 C 0.641(2) 0.4051(8) 0.3579(13)
C22 C 0.6714(19) 0.4560(7) 0.4343(11)
C23 C 0.629(2) 0.5189(7) 0.4088(12)
H7 H 0.58100 0.53050 0.34420
C24 C 0.661(2) 0.5632(7) 0.4836(11)
C25 C 0.5980(19) 0.6307(7) 0.4563(12)
C26 C 0.735(2) 0.5483(8) 0.5764(12)
H8 H 0.74760 0.57900 0.62440
C27 C 0.796(2) 0.4869(8) 0.6032(12)
C28 C 0.755(2) 0.4416(8) 0.5280(12)
H9 H 0.78700 0.40010 0.54310
C29 C 0.8955(19) 0.4697(7) 0.7024(11)
C30 C 1.0077(19) 0.5140(7) 0.7590(11)
H10 H 1.01940 0.55320 0.73250
C31 C 1.100(2) 0.5003(7) 0.8523(12)
C32 C 1.223(2) 0.5504(9) 0.9100(14)
C33 C 1.0957(19) 0.4412(7) 0.8917(12)
H11 H 1.16510 0.43170 0.95330
C34 C 0.9869(19) 0.3961(7) 0.8384(13)
C35 C 0.9777(19) 0.3309(7) 0.8740(11)
C36 C 0.888(2) 0.4106(7) 0.7437(11)
H12 H 0.81700 0.38020 0.70780
N1 N 0.2855(16) 0.2058(6) 0.3012(10)
N2 N 0.2811(16) 0.2709(6) 0.2921(10)
N3 N 0.1949(16) 0.2306(6) 0.1467(9)
N4 N 0.2243(18) 0.1227(6) 0.1891(10)
H13 H 0.25060 0.09440 0.23390
H14 H 0.19030 0.11180 0.12870
N5 N 0.217(2) 0.3421(7) 0.1647(11)
H15 H 0.24410 0.37370 0.20350
H16 H 0.18110 0.34810 0.10260
N6 N 0.4274(16) 0.2245(6) 0.5347(9)
N7 N 0.4043(16) 0.2914(6) 0.5304(9)
N8 N 0.5244(18) 0.2649(6) 0.6882(10)
N9 N 0.548(2) 0.1548(7) 0.6719(11)
H17 H 0.53610 0.12130 0.63700
H18 H 0.59190 0.15270 0.73400
N10 N 0.466(2) 0.3733(6) 0.6488(11)
H19 H 0.42920 0.40220 0.60600
H20 H 0.50520 0.38310 0.70940
O1 O 0.4480(16) 0.0908(5) 0.4764(9)
O2 O 0.3879(18) 0.0327(6) 0.3418(9)
O3 O 0.6034(13) -0.1914(5) 0.3812(8)
O4 O 0.8312(12) -0.2119(5) 0.5023(8)
O5 O 1.0896(15) -0.1605(5) 0.9571(9)
O6 O 1.0046(17) -0.0985(6) 1.0606(9)
O7 O 1.1125(15) 0.1324(5) 0.9807(8)
O8 O 0.988(2) 0.1631(5) 0.8312(10)
O9 O 0.6072(14) 0.3498(5) 0.3867(9)
O10 O 0.6435(19) 0.4172(6) 0.2736(8)
O11 O 0.5799(15) 0.6461(5) 0.3685(8)
O12 O 0.5816(16) 0.6666(5) 0.5222(8)
O13 O 1.2366(17) 0.5982(6) 0.8589(9)
O14 O 1.2959(18) 0.5419(6) 0.9966(10)
O15 O 1.0628(15) 0.3154(5) 0.9564(8)
O16 O 0.8715(15) 0.2940(5) 0.8164(9)
O17 O 0.3300(16) 0.2376(5) -0.0413(10)
H21 H 0.38420 0.21210 -0.06760
H22 H 0.37670 0.27350 -0.03900
C37 C 0.885(3) 0.2937(12) 0.267(2)
H23 H 0.90160 0.30150 0.33600
H24 H 0.93750 0.32660 0.23960
H25 H 0.93560 0.25410 0.25890
C38 C 0.626(3) 0.2293(9) 0.2016(18)
H26 H 0.67230 0.20710 0.15580
H27 H 0.50600 0.23220 0.17650
H28 H 0.65300 0.20710 0.26270
N11 N 0.6973(19) 0.2917(7) 0.2166(11)
H29 H 0.63790 0.31560 0.25520
H30 H 0.67820 0.31230 0.15360
C39 C 1.1278(19) 0.2447(11) 0.6760(16)
H31 H 1.18740 0.24020 0.62680
H32 H 1.19640 0.22920 0.73720
H33 H 1.10270 0.28830 0.68270
C40 C 0.857(3) 0.2458(11) 0.5791(16)
H34 H 0.85040 0.28730 0.60450
H35 H 0.74810 0.22610 0.56610
H36 H 0.89110 0.24840 0.51970
N12 N 0.9753(17) 0.2099(6) 0.6485(10)
H37 H 0.99420 0.16990 0.62040
H38 H 0.93390 0.20180 0.70520
O18 O 0.314(3) 0.0523(14) 0.689(2)
O19 O 0.339(3) 0.5259(8) 0.6640(14)
H39 H 0.38370 0.55690 0.64260
H40 H 0.33710 0.53440 0.72220
Zn1A Zn 1.3160(2) -0.16525(8) 0.93011(11)
Zn2A Zn 1.3824(2) 0.66890(8) 0.90427(11)
Zn3* Zn 1.0991(2) 0.22434(9) 0.99641(11)
Zn3A Zn 1.0991(2) -0.22434(9) 0.49641(11)
Zn4A Zn 0.64556(19) -0.27239(8) 0.32811(11)
Zn4A* Zn 0.64556(19) 0.72761(8) 0.32811(11)
O3A O 0.6034(13) 0.1914(5) 0.8812(8)
O4A O -0.1688(12) 0.2119(5) 0.0023(8)
O5A O 0.0896(15) 0.1605(5) 0.4571(9)
O7* O 0.1125(15) 0.1324(5) -0.0193(8)
O11A O 0.5799(15) 0.3539(5) 0.8685(8)
O13A O 0.2366(17) 0.4018(6) 0.3589(9)
O15* O 0.0628(15) 0.3154(5) -0.0436(8)
#END
