
#######################################################################
#
#                 Cambridge Crystallographic Data Centre
#                                CCDC
#
#######################################################################
#
# If this CIF has been generated from an entry in the Cambridge
# Structural Database, then it will include bibliographic, chemical,
# crystal, experimental, refinement or atomic coordinate data resulting
# from the CCDC's data processing and validation procedures.
#
#######################################################################

data_CSD_CIF_ODIXAC
_audit_creation_date 2013-08-24
_audit_creation_method CSD-ConQuest-V1
_database_code_CSD ODIXAC
_database_code_depnum_ccdc_archive 'CCDC 942374'
_chemical_formula_sum 'C82 H90 Cd4 N6 O24 Si2'
_chemical_formula_moiety
;
(C56 H32 Cd3 O16 Si2 2-)n,n(C18 H40 Cd1 N4 O6 2+),2n(C4 H9 N1 O1)
;
_journal_coden_Cambridge 1350
_journal_volume 15
_journal_year 2013
_journal_page_first 9544
_journal_name_full 'CrystEngComm '
loop_
_publ_author_name
"Muwei Zhang"
"Ying-Pin Chen"
"Hong-Cai Zhou"
_chemical_name_systematic
;
catena-(Diaqua-bis(dimethylacetamide)-bis(N-methyl-2-pyrrolidone)-cadmium 
bis(\m~7~-tetrakis(4-carboxylatophenyl)silane)-tri-cadmium dimethylacetamide 
solvate)
;
_chemical_name_common
;
PCN-514 (DMA)
;
_cell_volume   2183.445
_exptl_crystal_colour 'colorless'
_exptl_crystal_density_diffrn 1.559
_exptl_crystal_description 'Blocky'
_diffrn_ambient_temperature 110
_refine_special_details
;
The solvent molecule is disordered.

;
#These two values have been output from a single CSD field.
_refine_ls_R_factor_gt 0.0326
_refine_ls_wR_factor_gt 0.0326
_symmetry_cell_setting triclinic
_symmetry_space_group_name_H-M 'P -1'
_symmetry_Int_Tables_number 2
loop_
_symmetry_equiv_pos_site_id
_symmetry_equiv_pos_as_xyz
1 x,y,z
2 -x,-y,-z
_cell_length_a 13.9817(19)
_cell_length_b 14.1817(19)
_cell_length_c 14.270(3)
_cell_angle_alpha 115.922(2)
_cell_angle_beta 113.196(2)
_cell_angle_gamma 97.144(1)
_cell_formula_units_Z 1
loop_
_atom_type_symbol
_atom_type_radius_bond
C 0.68
H 0.23
Cd 1.44
N 0.68
O 0.68
Si 1.20
loop_
_atom_site_label
_atom_site_type_symbol
_atom_site_fract_x
_atom_site_fract_y
_atom_site_fract_z
Cd1 Cd 0.504891(17) 0.384270(17) 0.185287(18)
Cd2 Cd 0.50000 0.50000 0.00000
Si1 Si 0.76388(6) 0.14398(7) -0.32130(7)
O1 O 0.57825(17) 0.39172(17) 0.06922(18)
O2 O 0.5167(2) 0.21903(19) 0.0284(2)
O3 O 0.5650(2) -0.43483(19) -0.6786(2)
O4 O 1.32815(19) 0.4030(2) -0.0464(2)
C1 C 0.7069(2) 0.1802(2) -0.2163(3)
C2 C 0.9205(2) 0.2009(3) -0.2312(3)
O5 O 0.64816(19) 0.3521(2) -0.6918(2)
C3 C 0.5864(3) 0.3199(3) -0.6583(3)
O6 O 1.32623(18) 0.3209(2) 0.0571(2)
C4 C 0.6182(2) 0.2500(3) -0.0625(3)
C5 C 0.7173(2) 0.2116(2) -0.4098(3)
O7 O 0.48809(18) 0.3184(2) -0.6958(2)
C6 C 0.6196(2) -0.2419(3) -0.6116(3)
C7 C 0.5666(2) 0.2872(3) 0.0156(3)
C8 C 0.6760(3) -0.2057(3) -0.4900(3)
H1 H 0.68440 -0.25900 -0.46690
C9 C 0.7202(2) -0.0916(3) -0.4023(3)
H2 H 0.75920 -0.06780 -0.31970
C10 C 0.5951(3) 0.1362(3) -0.1368(3)
H3 H 0.55010 0.08210 -0.13470
C11 C 0.7082(2) -0.0111(2) -0.4336(3)
C12 C 1.0945(3) 0.3570(3) -0.1230(3)
H4 H 1.13210 0.43130 -0.09830
C13 C 0.6111(3) 0.2191(3) -0.4471(3)
H5 H 0.56690 0.19980 -0.41740
C14 C 1.0989(3) 0.1850(3) -0.1320(3)
H6 H 1.13950 0.14210 -0.11020
C15 C 0.6379(3) 0.1017(3) -0.2144(3)
H7 H 0.61980 0.02380 -0.26670
O8 O 0.5386(2) -0.3862(2) -0.8136(2)
C16 C 0.7391(3) 0.2779(3) -0.5336(3)
H8 H 0.78370 0.29870 -0.56220
C17 C 1.2813(2) 0.3440(3) -0.0217(3)
C18 C 0.6082(3) -0.1634(3) -0.6442(3)
H9 H 0.57060 -0.18750 -0.72700
C19 C 0.5700(3) -0.3645(3) -0.7094(3)
C20 C 1.1556(2) 0.2940(3) -0.0938(3)
C21 C 0.6514(3) -0.0499(3) -0.5567(3)
H10 H 0.64230 0.00270 -0.58060
C22 C 0.9832(3) 0.1382(3) -0.2022(3)
H11 H 0.94610 0.06240 -0.23090
C23 C 0.6326(3) 0.2831(3) -0.5713(3)
C24 C 0.5694(3) 0.2542(3) -0.5267(3)
H12 H 0.49720 0.25860 -0.55090
C25 C 0.6869(3) 0.3292(3) -0.0627(3)
H13 H 0.70340 0.40690 -0.01150
C26 C 0.7315(3) 0.2945(3) -0.1381(3)
H14 H 0.77970 0.34930 -0.13660
C27 C 0.7801(3) 0.2423(3) -0.4545(3)
H15 H 0.85260 0.23870 -0.42990
C28 C 0.9791(3) 0.3117(3) -0.1880(3)
H16 H 0.93860 0.35710 -0.20370
Cd3 Cd 1.00000 0.50000 0.50000
O9 O 0.84655(19) 0.3737(2) 0.3196(2)
O10 O 1.0011(2) 0.6474(2) 0.4720(2)
O11 O 1.1154(2) 0.4478(2) 0.4265(2)
N1 N 1.1997(3) 0.4255(2) 0.3140(3)
C29 C 0.9289(3) 0.6787(3) 0.4210(3)
C30 C 1.1163(3) 0.4382(2) 0.3358(3)
N2 N 0.9498(3) 0.7888(3) 0.4659(3)
C31 C 1.3035(3) 0.4264(3) 0.3942(4)
H17 H 1.30120 0.43350 0.46470
H18 H 1.36540 0.49020 0.42040
H19 H 1.31430 0.35630 0.35190
C32 C 0.8189(3) 0.5941(3) 0.3121(3)
H20 H 0.82730 0.52200 0.27160
H21 H 0.79330 0.62040 0.25670
H22 H 0.76400 0.58460 0.33690
C33 C 1.0224(3) 0.4326(3) 0.2314(3)
H23 H 1.00740 0.50350 0.25790
H24 H 0.95330 0.36960 0.19400
C34 C 1.0510(4) 0.8712(3) 0.5804(4)
H25 H 1.08410 0.83410 0.62190
H26 H 1.03230 0.93010 0.63090
H27 H 1.10430 0.90490 0.56530
C35 C 0.8797(4) 0.8363(4) 0.4072(4)
H28 H 0.81300 0.77550 0.33270
H29 H 0.92140 0.87890 0.38820
H30 H 0.85750 0.88630 0.46130
C36 C 1.0647(4) 0.4144(4) 0.1441(4)
H31 H 1.01430 0.34300 0.06610
H32 H 1.06790 0.47650 0.12960
C37 C 1.1771(4) 0.4104(3) 0.1990(4)
H33 H 1.17930 0.33730 0.14690
H34 H 1.23300 0.47110 0.21090
H35 H 0.839(4) 0.2980(13) 0.269(4)
H36 H 0.7732(19) 0.355(3) 0.309(5)
O12 O 0.8724(7) 0.1920(6) 0.1700(7)
N3 N 0.7203(6) 0.0278(5) 0.0513(6)
C38 C 0.8195(7) 0.0955(7) 0.0812(7)
C39 C 0.8398(8) 0.0313(8) -0.0213(7)
H37 H 0.91060 0.07560 -0.00470
H38 H 0.77900 0.01710 -0.09630
H39 H 0.84310 -0.04030 -0.02950
C40 C 0.6660(14) 0.0600(12) 0.1177(15)
H40 H 0.71600 0.13090 0.19470
H41 H 0.64530 0.00170 0.13290
H42 H 0.59870 0.07000 0.07210
C41 C 0.6670(8) -0.0741(6) -0.0610(7)
H43 H 0.71840 -0.08610 -0.09220
H44 H 0.60090 -0.07100 -0.11760
H45 H 0.64440 -0.13600 -0.05150
O13? O 0.8567(7) 0.1768(6) 0.1849(7)
N4? N 0.7715(6) 0.0097(6) 0.0095(6)
C42? C 0.7709(8) 0.0883(8) 0.1044(8)
C43? C 0.8718(8) 0.0378(9) -0.0004(8)
H46? H 0.92760 0.10930 0.07240
H47? H 0.85080 0.04430 -0.07090
H48? H 0.90310 -0.02170 -0.00940
C44? C 0.6723(15) 0.0731(12) 0.1271(16)
H49? H 0.68900 0.14030 0.20190
H50? H 0.66100 0.00750 0.13420
H51? H 0.60460 0.06200 0.05970
C45? C 0.6799(8) -0.0934(8) -0.0901(9)
H52? H 0.61770 -0.10000 -0.07490
H53? H 0.70400 -0.15730 -0.09880
H54? H 0.65590 -0.09300 -0.16440
Cd1A Cd 0.495109(17) -0.384270(17) -1.185287(18)
Si1A Si 0.23612(6) -0.14398(7) -0.67870(7)
O1A O 0.42175(17) -0.39172(17) -1.06922(18)
O2A O 0.4833(2) -0.21903(19) -1.0284(2)
O3A O 0.4350(2) 0.43483(19) -0.3214(2)
O4A O -0.32815(19) -0.4030(2) -0.9536(2)
C1A C 0.2931(2) -0.1802(2) -0.7837(3)
C2A C 0.0795(2) -0.2009(3) -0.7688(3)
O5A O 0.35184(19) -0.3521(2) -0.3082(2)
C3A C 0.4136(3) -0.3199(3) -0.3417(3)
O6A O -0.32623(18) -0.3209(2) -1.0571(2)
C4A C 0.3818(2) -0.2500(3) -0.9375(3)
C5A C 0.2827(2) -0.2116(2) -0.5902(3)
O7A O 0.51191(18) -0.3184(2) -0.3042(2)
C6A C 0.3804(2) 0.2419(3) -0.3884(3)
C7A C 0.4334(2) -0.2872(3) -1.0156(3)
C8A C 0.3240(3) 0.2057(3) -0.5100(3)
H1A H 0.31560 0.25900 -0.53310
C9A C 0.2798(2) 0.0916(3) -0.5977(3)
H2A H 0.24080 0.06780 -0.68030
C10A C 0.4049(3) -0.1362(3) -0.8632(3)
H3A H 0.44990 -0.08210 -0.86530
C11A C 0.2918(2) 0.0111(2) -0.5664(3)
C12A C -0.0945(3) -0.3570(3) -0.8770(3)
H4A H -0.13210 -0.43130 -0.90170
C13A C 0.3889(3) -0.2191(3) -0.5529(3)
H5A H 0.43310 -0.19980 -0.58260
C14A C -0.0989(3) -0.1850(3) -0.8680(3)
H6A H -0.13950 -0.14210 -0.88980
C15A C 0.3621(3) -0.1017(3) -0.7856(3)
H7A H 0.38020 -0.02380 -0.73330
O8A O 0.4614(2) 0.3862(2) -0.1864(2)
C16A C 0.2609(3) -0.2779(3) -0.4664(3)
H8A H 0.21630 -0.29870 -0.43780
C17A C -0.2813(2) -0.3440(3) -0.9783(3)
C18A C 0.3918(3) 0.1634(3) -0.3558(3)
H9A H 0.42940 0.18750 -0.27300
C19A C 0.4300(3) 0.3645(3) -0.2906(3)
C20A C -0.1556(2) -0.2940(3) -0.9062(3)
C21A C 0.3486(3) 0.0499(3) -0.4433(3)
H10A H 0.35770 -0.00270 -0.41940
C22A C 0.0168(3) -0.1382(3) -0.7978(3)
H11A H 0.05390 -0.06240 -0.76910
C23A C 0.3674(3) -0.2831(3) -0.4287(3)
C24A C 0.4306(3) -0.2542(3) -0.4733(3)
H12A H 0.50280 -0.25860 -0.44910
C25A C 0.3131(3) -0.3292(3) -0.9373(3)
H13A H 0.29660 -0.40690 -0.98850
C26A C 0.2685(3) -0.2945(3) -0.8619(3)
H14A H 0.22030 -0.34930 -0.86340
C27A C 0.2199(3) -0.2423(3) -0.5455(3)
H15A H 0.14740 -0.23870 -0.57010
C28A C 0.0209(3) -0.3117(3) -0.8120(3)
H16A H 0.06140 -0.35710 -0.79630
Cd1* Cd 0.504891(17) -0.615730(17) -0.814713(18)
Cd1** Cd 0.504891(17) 0.384270(17) -0.814713(18)
Cd1*** Cd 1.504891(17) 0.384270(17) 0.185287(18)
Cd1A* Cd -0.504891(17) -0.384270(17) -1.185287(18)
Cd1A** Cd 0.495109(17) -0.384270(17) -0.185287(18)
Cd1A*** Cd 0.495109(17) 0.615730(17) -0.185287(18)
Cd2* Cd -0.50000 -0.50000 -1.00000
Cd2** Cd 0.50000 -0.50000 -1.00000
Cd2*** Cd 1.50000 0.50000 0.00000
O1A* O 0.42175(17) 0.60828(17) -0.06922(18)
O3* O 0.5650(2) 0.56517(19) 0.3214(2)
O3A* O 0.4350(2) -0.56517(19) -1.3214(2)
O4* O 0.32815(19) 0.4030(2) -0.0464(2)
O4A* O 0.67185(19) 0.5970(2) 0.0464(2)
O5* O 0.64816(19) 0.3521(2) 0.3082(2)
O5A* O 0.35184(19) -0.3521(2) -1.3082(2)
O6* O 0.32623(18) 0.3209(2) 0.0571(2)
O6A* O 0.67377(18) -0.3209(2) -1.0571(2)
O7* O 0.48809(18) 0.3184(2) 0.3042(2)
O7A* O 0.51191(18) -0.3184(2) -1.3042(2)
O8* O 0.5386(2) 0.6138(2) 0.1864(2)
O9A O 1.15345(19) 0.6263(2) 0.6804(2)
O10A O 0.9989(2) 0.3526(2) 0.5280(2)
O11A O 0.8846(2) 0.5522(2) 0.5735(2)
N1A N 0.8003(3) 0.5745(2) 0.6860(3)
C29A C 1.0711(3) 0.3213(3) 0.5790(3)
C30A C 0.8837(3) 0.5618(2) 0.6642(3)
N2A N 1.0502(3) 0.2112(3) 0.5341(3)
C31A C 0.6965(3) 0.5736(3) 0.6058(4)
H17A H 0.69880 0.56650 0.53530
H18A H 0.63460 0.50980 0.57960
H19A H 0.68570 0.64370 0.64810
C32A C 1.1811(3) 0.4059(3) 0.6879(3)
H20A H 1.17270 0.47800 0.72840
H21A H 1.20670 0.37960 0.74330
H22A H 1.23600 0.41540 0.66310
C33A C 0.9776(3) 0.5674(3) 0.7686(3)
H23A H 0.99260 0.49650 0.74210
H24A H 1.04670 0.63040 0.80600
C34A C 0.9490(4) 0.1288(3) 0.4196(4)
H25A H 0.91590 0.16590 0.37810
H26A H 0.96770 0.06990 0.36910
H27A H 0.89570 0.09510 0.43470
C35A C 1.1203(4) 0.1637(4) 0.5928(4)
H28A H 1.18700 0.22450 0.66730
H29A H 1.07860 0.12110 0.61180
H30A H 1.14250 0.11370 0.53870
C36A C 0.9353(4) 0.5856(4) 0.8559(4)
H31A H 0.98570 0.65700 0.93390
H32A H 0.93210 0.52350 0.87040
C37A C 0.8229(4) 0.5896(3) 0.8010(4)
H33A H 0.82070 0.66270 0.85310
H34A H 0.76700 0.52890 0.78910
H35A H 1.161(4) 0.7020(13) 0.731(4)
H36A H 1.2268(19) 0.645(3) 0.691(5)
#END
