
#######################################################################
#
#                 Cambridge Crystallographic Data Centre
#                                CCDC
#
#######################################################################
#
# If this CIF has been generated from an entry in the Cambridge
# Structural Database, then it will include bibliographic, chemical,
# crystal, experimental, refinement or atomic coordinate data resulting
# from the CCDC's data processing and validation procedures.
#
#######################################################################

data_CSD_CIF_ODODOC
_audit_creation_date 2013-08-24
_audit_creation_method CSD-ConQuest-V1
_database_code_CSD ODODOC
_database_code_depnum_ccdc_archive 'CCDC 942375'
_chemical_formula_sum 'C80 H88 Cd4 N8 O24 Si2'
_chemical_formula_moiety
;
(C56 H32 Cd3 O16 Si2 2-)n,n(C18 H42 Cd1 N6 O6 2+),2n(C3 H7 N1 O1)
;
_journal_coden_Cambridge 1350
_journal_volume 15
_journal_year 2013
_journal_page_first 9544
_journal_name_full 'CrystEngComm '
loop_
_publ_author_name
"Muwei Zhang"
"Ying-Pin Chen"
"Hong-Cai Zhou"
_chemical_name_systematic
;
catena-[bis(\m~7~-4,4',4'',4'''-Silanetetrayltetrabenzoato)-tri-cadmium(ii) 
hexakis(N,N-dimethylformamide)-cadmium(ii) N,N-dimethylformamide solvate]
;
_chemical_name_common
;
PCN-514
;
_cell_volume   2133.127
_exptl_crystal_colour 'colorless'
_exptl_crystal_density_diffrn 1.597
_exptl_crystal_description 'Blocky'
_diffrn_ambient_temperature 110
_refine_special_details
;
Disordered solvent molecules were not modelled and the disordered density was 
taken into account using the SQUEEZE/PLATON procedure.
;
#These two values have been output from a single CSD field.
_refine_ls_R_factor_gt 0.0491
_refine_ls_wR_factor_gt 0.0491
_symmetry_cell_setting triclinic
_symmetry_space_group_name_H-M 'P -1'
_symmetry_Int_Tables_number 2
loop_
_symmetry_equiv_pos_site_id
_symmetry_equiv_pos_as_xyz
1 x,y,z
2 -x,-y,-z
_cell_length_a 13.875(7)
_cell_length_b 14.072(7)
_cell_length_c 14.208(7)
_cell_angle_alpha 116.300(5)
_cell_angle_beta 109.724(5)
_cell_angle_gamma 101.428(5)
_cell_formula_units_Z 1
loop_
_atom_type_symbol
_atom_type_radius_bond
C 0.68
H 0.23
Cd 1.44
N 0.68
O 0.68
Si 1.20
loop_
_atom_site_label
_atom_site_type_symbol
_atom_site_fract_x
_atom_site_fract_y
_atom_site_fract_z
Cd1 Cd 0.00000 1.00000 0.00000
Cd2 Cd 0.29469(2) 1.12624(3) 0.11388(3)
Si1 Si 0.01012(9) 1.34604(10) 0.61091(10)
O1 O 0.2832(3) 1.2871(3) 0.2751(3)
O2 O 0.1665(2) 1.1031(3) 0.1820(3)
O3 O -0.5631(3) 1.1547(3) 0.2890(3)
O4 O -0.5125(3) 1.2204(3) 0.1903(3)
O5 O 0.2323(3) 1.1706(3) 0.9808(3)
C1 C 0.1791(4) 1.5779(4) 0.8037(4)
H1 H 0.23100 1.54310 0.81030
O6 O 0.2837(3) 1.9435(3) 1.0118(3)
C2 C 0.0802(3) 1.3101(4) 0.5155(4)
C3 C 0.0386(5) 1.2785(6) 0.6994(5)
C4 C -0.1431(3) 1.2945(4) 0.5073(4)
O7 O 0.0625(3) 1.1369(3) 0.9706(3)
C5 C 0.1661(4) 1.2447(4) 0.3545(4)
C6 C -0.4896(4) 1.2028(4) 0.2735(4)
C7 C 0.2090(4) 1.2115(4) 0.2657(4)
C8 C -0.2865(4) 1.2620(4) 0.3264(4)
H2 H -0.30570 1.26010 0.25460
C9 C -0.3683(4) 1.2389(4) 0.3569(4)
C10 C 0.0652(4) 1.5074(4) 0.7188(4)
C11 C 0.1339(5) 1.1653(6) 0.9413(5)
C12 C 0.0987(5) 1.1996(6) 0.8530(5)
C13 C 0.1592(4) 1.3937(4) 0.5210(4)
H3 H 0.18410 1.47370 0.57980
C14 C 0.2173(4) 1.6978(4) 0.8786(4)
H4 H 0.29490 1.74410 0.93470
C15 C 0.0465(4) 1.1921(4) 0.4281(4)
H5 H -0.00590 1.13330 0.42370
C16 C 0.2024(4) 1.3621(4) 0.4420(4)
H6 H 0.25660 1.42040 0.44740
C17 C 0.0887(4) 1.1607(4) 0.3488(4)
H7 H 0.06420 1.08080 0.28990
C18 C -0.1756(4) 1.2881(5) 0.4000(5)
H8 H -0.12080 1.30190 0.37620
C19 C -0.0085(4) 1.5617(4) 0.7150(4)
H9 H -0.08630 1.51600 0.65920
C20 C 0.1601(5) 1.2128(6) 0.7985(5)
H10 H 0.22450 1.19570 0.81280
C21 C 0.1294(5) 1.2508(5) 0.7224(5)
H11 H 0.17310 1.25790 0.68480
C22 C -0.2269(4) 1.2736(6) 0.5374(5)
H12 H -0.20750 1.27890 0.61090
C23 C -0.0186(5) 1.2711(6) 0.7616(5)
H13 H -0.07840 1.29550 0.75390
C24 C 0.0091(5) 1.2291(6) 0.8345(5)
H14 H -0.03450 1.22080 0.87160
C25 C 0.1424(4) 1.7504(4) 0.8716(4)
C26 C 0.0295(4) 1.6816(4) 0.7913(5)
H15 H -0.02270 1.71630 0.78800
C27 C -0.3388(4) 1.2452(6) 0.4631(5)
H16 H -0.39420 1.23040 0.48570
O8 O 0.1070(3) 1.9199(3) 0.9326(3)
C28 C 0.1805(4) 1.8806(4) 0.9446(4)
Cd3 Cd 0.50000 1.50000 0.00000
O9 O 0.4439(4) 1.3043(3) -0.1056(4)
N1 N 0.4332(4) 1.1298(4) -0.1358(4)
C29 C 0.4584(4) 1.2413(4) -0.0672(5)
H17 H 0.48970 1.27590 0.01680
O10 O 0.5886(4) 1.5043(4) 0.1726(4)
O11 O 0.3502(5) 1.4967(5) 0.0278(5)
C30 C 0.4490(5) 1.0598(5) -0.0863(5)
H18 H 0.48100 1.10890 0.00100
H19 H 0.50030 1.02590 -0.10570
H20 H 0.37640 0.99740 -0.12090
C31 C 0.3066(8) 1.4675(7) 0.0661(8)
H21 H 0.32660 1.41320 0.08160
N2 N 0.2302(6) 1.4931(6) 0.0956(7)
C32 C 0.2034(8) 1.4482(7) 0.1611(8)
H22 H 0.24110 1.39680 0.16430
H23 H 0.12190 1.40420 0.12080
H24 H 0.22890 1.51280 0.24280
C33 C 0.1741(8) 1.5608(7) 0.0718(8)
H25 H 0.20170 1.63560 0.14680
H26 H 0.09300 1.51900 0.03720
H27 H 0.18880 1.57440 0.01510
C34 C 0.3862(9) 1.0706(6) -0.2653(6)
H28 H 0.30520 1.02490 -0.30460
H29 H 0.42240 1.01880 -0.29280
H30 H 0.39950 1.12830 -0.28560
N3 N 0.5485(5) 1.5705(5) 0.3274(5)
C35 C 0.5566(6) 1.4886(6) 0.2396(6)
H31 H 0.53700 1.41360 0.22670
C36 C 0.5872(6) 1.6889(6) 0.3557(6)
H32 H 0.65350 1.74030 0.43550
H33 H 0.52730 1.71610 0.35470
H34 H 0.60680 1.68990 0.29590
C37 C 0.5060(6) 1.5491(6) 0.3977(6)
H35 H 0.48800 1.46800 0.37300
H36 H 0.43800 1.56350 0.38570
H37 H 0.56290 1.60100 0.48270
N4 N 0.6697(5) 1.0776(5) -0.3258(5)
C38 C 0.6944(11) 0.9797(8) -0.3836(10)
H38 H 0.66590 0.95150 -0.46850
H39 H 0.65830 0.91740 -0.37690
H40 H 0.77590 1.00340 -0.34480
C39 C 0.6926(8) 1.1220(7) -0.2049(6)
H41 H 0.67330 1.18900 -0.17590
H42 H 0.77260 1.14630 -0.15410
H43 H 0.64760 1.06130 -0.20190
O12 O 0.6098(9) 1.2117(9) -0.3388(8)
C40 C 0.6286(7) 1.1260(8) -0.3810(7)
H44 H 0.61190 1.09010 -0.46240
Cd2A Cd -0.29469(2) 0.87376(3) -0.11388(3)
Si1A Si -0.01012(9) 0.65396(10) -0.61091(10)
O1A O -0.2832(3) 0.7129(3) -0.2751(3)
O2A O -0.1665(2) 0.8969(3) -0.1820(3)
O3A O 0.5631(3) 0.8453(3) -0.2890(3)
O4A O 0.5125(3) 0.7796(3) -0.1903(3)
O5A O -0.2323(3) 0.8294(3) -0.9808(3)
C1A C -0.1791(4) 0.4221(4) -0.8037(4)
H1A H -0.23100 0.45690 -0.81030
O6A O -0.2837(3) 0.0565(3) -1.0118(3)
C2A C -0.0802(3) 0.6899(4) -0.5155(4)
C3A C -0.0386(5) 0.7215(6) -0.6994(5)
C4A C 0.1431(3) 0.7055(4) -0.5073(4)
O7A O -0.0625(3) 0.8631(3) -0.9706(3)
C5A C -0.1661(4) 0.7553(4) -0.3545(4)
C6A C 0.4896(4) 0.7972(4) -0.2735(4)
C7A C -0.2090(4) 0.7885(4) -0.2657(4)
C8A C 0.2865(4) 0.7380(4) -0.3264(4)
H2A H 0.30570 0.73990 -0.25460
C9A C 0.3683(4) 0.7611(4) -0.3569(4)
C10A C -0.0652(4) 0.4926(4) -0.7188(4)
C11A C -0.1339(5) 0.8347(6) -0.9413(5)
C12A C -0.0987(5) 0.8004(6) -0.8530(5)
C13A C -0.1592(4) 0.6063(4) -0.5210(4)
H3A H -0.18410 0.52630 -0.57980
C14A C -0.2173(4) 0.3022(4) -0.8786(4)
H4A H -0.29490 0.25590 -0.93470
C15A C -0.0465(4) 0.8079(4) -0.4281(4)
H5A H 0.00590 0.86670 -0.42370
C16A C -0.2024(4) 0.6379(4) -0.4420(4)
H6A H -0.25660 0.57960 -0.44740
C17A C -0.0887(4) 0.8393(4) -0.3488(4)
H7A H -0.06420 0.91920 -0.28990
C18A C 0.1756(4) 0.7119(5) -0.4000(5)
H8A H 0.12080 0.69810 -0.37620
C19A C 0.0085(4) 0.4383(4) -0.7150(4)
H9A H 0.08630 0.48400 -0.65920
C20A C -0.1601(5) 0.7872(6) -0.7985(5)
H10A H -0.22450 0.80430 -0.81280
C21A C -0.1294(5) 0.7492(5) -0.7224(5)
H11A H -0.17310 0.74210 -0.68480
C22A C 0.2269(4) 0.7264(6) -0.5374(5)
H12A H 0.20750 0.72110 -0.61090
C23A C 0.0186(5) 0.7289(6) -0.7616(5)
H13A H 0.07840 0.70450 -0.75390
C24A C -0.0091(5) 0.7709(6) -0.8345(5)
H14A H 0.03450 0.77920 -0.87160
C25A C -0.1424(4) 0.2496(4) -0.8716(4)
C26A C -0.0295(4) 0.3184(4) -0.7913(5)
H15A H 0.02270 0.28370 -0.78800
C27A C 0.3388(4) 0.7548(6) -0.4631(5)
H16A H 0.39420 0.76960 -0.48570
O8A O -0.1070(3) 0.0801(3) -0.9326(3)
C28A C -0.1805(4) 0.1194(4) -0.9446(4)
Cd1* Cd 0.00000 0.00000 -1.00000
Cd1** Cd 0.00000 1.00000 -1.00000
Cd1*** Cd 0.00000 1.00000 1.00000
Cd1**** Cd 0.00000 2.00000 1.00000
Cd2* Cd -0.70531(2) 1.12624(3) 0.11388(3)
Cd2** Cd 0.29469(2) 1.12624(3) 1.11388(3)
Cd2*** Cd 0.29469(2) 2.12624(3) 1.11388(3)
Cd2A* Cd -0.29469(2) -0.12624(3) -1.11388(3)
Cd2A** Cd -0.29469(2) 0.87376(3) -1.11388(3)
Cd2A*** Cd 0.70531(2) 0.87376(3) -0.11388(3)
O3* O 0.4369(3) 1.1547(3) 0.2890(3)
O3A* O -0.4369(3) 0.8453(3) -0.2890(3)
O4* O 0.4875(3) 1.2204(3) 0.1903(3)
O4A* O -0.4875(3) 0.7796(3) -0.1903(3)
O5* O 0.2323(3) 1.1706(3) -0.0192(3)
O5A* O -0.2323(3) 0.8294(3) 0.0192(3)
O6* O 0.2837(3) 0.9435(3) 0.0118(3)
O6A* O -0.2837(3) 1.0565(3) -0.0118(3)
O7* O 0.0625(3) 1.1369(3) -0.0294(3)
O7A* O -0.0625(3) 0.8631(3) 0.0294(3)
O8* O 0.1070(3) 0.9199(3) -0.0674(3)
O8A* O -0.1070(3) 1.0801(3) 0.0674(3)
O9A O 0.5561(4) 1.6957(3) 0.1056(4)
N1A N 0.5668(4) 1.8702(4) 0.1358(4)
C29A C 0.5416(4) 1.7587(4) 0.0672(5)
H17A H 0.51030 1.72410 -0.01680
O10A O 0.4114(4) 1.4957(4) -0.1726(4)
O11A O 0.6498(5) 1.5033(5) -0.0278(5)
C30A C 0.5510(5) 1.9402(5) 0.0863(5)
H18A H 0.51900 1.89110 -0.00100
H19A H 0.49970 1.97410 0.10570
H20A H 0.62360 2.00260 0.12090
C31A C 0.6934(8) 1.5325(7) -0.0661(8)
H21A H 0.67340 1.58680 -0.08160
N2A N 0.7698(6) 1.5069(6) -0.0956(7)
C32A C 0.7966(8) 1.5518(7) -0.1611(8)
H22A H 0.75890 1.60320 -0.16430
H23A H 0.87810 1.59580 -0.12080
H24A H 0.77110 1.48720 -0.24280
C33A C 0.8259(8) 1.4392(7) -0.0718(8)
H25A H 0.79830 1.36440 -0.14680
H26A H 0.90700 1.48100 -0.03720
H27A H 0.81120 1.42560 -0.01510
C34A C 0.6138(9) 1.9294(6) 0.2653(6)
H28A H 0.69480 1.97510 0.30460
H29A H 0.57760 1.98120 0.29280
H30A H 0.60050 1.87170 0.28560
N3A N 0.4515(5) 1.4295(5) -0.3274(5)
C35A C 0.4434(6) 1.5114(6) -0.2396(6)
H31A H 0.46300 1.58640 -0.22670
C36A C 0.4128(6) 1.3111(6) -0.3557(6)
H32A H 0.34650 1.25970 -0.43550
H33A H 0.47270 1.28390 -0.35470
H34A H 0.39320 1.31010 -0.29590
C37A C 0.4940(6) 1.4509(6) -0.3977(6)
H35A H 0.51200 1.53200 -0.37300
H36A H 0.56200 1.43650 -0.38570
H37A H 0.43710 1.39900 -0.48270
#END
