
#######################################################################
#
#                 Cambridge Crystallographic Data Centre
#                                CCDC
#
#######################################################################
#
# If this CIF has been generated from an entry in the Cambridge
# Structural Database, then it will include bibliographic, chemical,
# crystal, experimental, refinement or atomic coordinate data resulting
# from the CCDC's data processing and validation procedures.
#
#######################################################################

data_CSD_CIF_ODOMIF
_audit_creation_date 2013-08-26
_audit_creation_method CSD-ConQuest-V1
_database_code_CSD ODOMIF
_database_code_depnum_ccdc_archive 'CCDC 919173'
_chemical_formula_sum 'C32 H34 Mn2 N10 O12'
_chemical_formula_moiety
;
(C24 H12 Mn2 O10 4-)n,2n(C4 H9 N5 2+),2n(H2 O1)
;
_journal_coden_Cambridge 208
_journal_volume 204
_journal_year 2013
_journal_page_first 190
_journal_name_full 'J.Solid State Chem. '
loop_
_publ_author_name
"Yamin Li"
"Changyu Xiao"
"Xudong Zhang"
"Yanhui Xu"
"Junrui Li"
"Huijie Lun"
"Qi Chen"
_chemical_name_systematic
;
catena-(bis(6-methyl-1,3,5-triazine-2,4-diaminium) 
bis(\m~4~-naphthalene-1,4-dicarboxylato)-bis(\m~2~-oxo)-di-manganese 
dihydrate)
;
_cell_volume   1757.415
_exptl_crystal_colour 'yellow'
_exptl_crystal_density_diffrn 1.626
_exptl_crystal_description 'strip'
_diffrn_ambient_temperature 296
#These two values have been output from a single CSD field.
_refine_ls_R_factor_gt 0.0522
_refine_ls_wR_factor_gt 0.0522
_symmetry_cell_setting monoclinic
_symmetry_space_group_name_H-M 'P 21/n'
_symmetry_Int_Tables_number 14
loop_
_symmetry_equiv_pos_site_id
_symmetry_equiv_pos_as_xyz
1 x,y,z
2 1/2-x,1/2+y,1/2-z
3 -x,-y,-z
4 -1/2+x,-1/2-y,-1/2+z
_cell_length_a 7.512(10)
_cell_length_b 16.53(2)
_cell_length_c 14.154(17)
_cell_angle_alpha 90
_cell_angle_beta 90.71(2)
_cell_angle_gamma 90
_cell_formula_units_Z 2
loop_
_atom_type_symbol
_atom_type_radius_bond
C 0.68
H 0.23
Mn 1.61
N 0.68
O 0.68
loop_
_atom_site_label
_atom_site_type_symbol
_atom_site_fract_x
_atom_site_fract_y
_atom_site_fract_z
Mn1 Mn 0.00000 0.50000 0.50000
Mn2 Mn 0.50000 0.50000 0.50000
O1 O 0.4109(4) 0.39264(17) 0.5698(2)
O2 O 0.1227(4) 0.41291(18) 0.5968(2)
O3 O 0.1216(4) 0.07761(18) 0.8983(2)
O4 O 0.4089(4) 0.10248(17) 0.9282(2)
O5 O 0.2493(4) 0.50623(15) 0.4034(2)
C1 C 0.3353(6) 0.3161(3) 0.7656(3)
H1 H 0.38240 0.36610 0.78290
C2 C 0.3356(6) 0.2528(2) 0.8312(3)
H2 H 0.38220 0.26160 0.89150
C3 C 0.2686(5) 0.1781(2) 0.8085(3)
C4 C 0.2007(5) 0.1635(2) 0.7149(3)
C5 C 0.1430(6) 0.0864(3) 0.6852(3)
H3 H 0.14410 0.04360 0.72780
C6 C 0.0853(8) 0.0741(3) 0.5942(4)
H4 H 0.05140 0.02250 0.57480
C7 C 0.0771(7) 0.1386(3) 0.5303(4)
H5 H 0.03450 0.12980 0.46910
C8 C 0.1303(6) 0.2134(3) 0.5565(3)
H6 H 0.12270 0.25570 0.51330
C9 C 0.1973(5) 0.2285(2) 0.6487(3)
C10 C 0.2665(5) 0.3055(2) 0.6759(3)
C11 C 0.2670(5) 0.3753(2) 0.6085(3)
C12 C 0.2661(5) 0.1145(2) 0.8836(3)
O6 O 0.1824(6) 0.6392(2) 0.3059(3)
H7 H 0.224(8) 0.682(4) 0.321(4)
H8 H 0.092(10) 0.643(4) 0.328(5)
N1 N -0.1750(5) 0.7077(2) 0.8343(3)
N2 N -0.0839(5) 0.5969(2) 0.9308(3)
N3 N -0.1815(5) 0.5754(2) 0.7703(3)
N4 N -0.2767(7) 0.6874(3) 0.6737(4)
H9 H -0.38800 0.71430 0.68430
H10 H -0.29450 0.64410 0.62920
H11 H -0.19270 0.72540 0.64840
N5 N -0.0748(6) 0.7275(2) 0.9863(3)
H12 H -0.03070 0.69800 1.04010
H13 H -0.18120 0.75600 1.00290
H14 H 0.01320 0.76560 0.96610
C13 C -0.2073(6) 0.6547(3) 0.7647(3)
C14 C -0.1117(6) 0.6749(3) 0.9150(3)
C15 C -0.1217(7) 0.5491(3) 0.8558(4)
C16 C -0.0994(7) 0.4691(3) 0.8671(3)
H15 H -0.05740 0.45830 0.93010
H16 H -0.01390 0.44970 0.82260
H17 H -0.21100 0.44200 0.85660
O1B O -0.4109(4) 0.60736(17) 0.4302(2)
O2B O -0.1227(4) 0.58709(18) 0.4032(2)
O3B O -0.1216(4) 0.92239(18) 0.1017(2)
O4B O -0.4089(4) 0.89752(17) 0.0718(2)
O5B O -0.2493(4) 0.49377(15) 0.5966(2)
C1B C -0.3353(6) 0.6839(3) 0.2344(3)
H1B H -0.38240 0.63390 0.21710
C2B C -0.3356(6) 0.7472(2) 0.1688(3)
H2B H -0.38220 0.73840 0.10850
C3B C -0.2686(5) 0.8219(2) 0.1915(3)
C4B C -0.2007(5) 0.8365(2) 0.2851(3)
C5B C -0.1430(6) 0.9136(3) 0.3148(3)
H3B H -0.14410 0.95640 0.27220
C6B C -0.0853(8) 0.9259(3) 0.4058(4)
H4B H -0.05140 0.97750 0.42520
C7B C -0.0771(7) 0.8614(3) 0.4697(4)
H5B H -0.03450 0.87020 0.53090
C8B C -0.1303(6) 0.7866(3) 0.4435(3)
H6B H -0.12270 0.74430 0.48670
C9B C -0.1973(5) 0.7715(2) 0.3513(3)
C10B C -0.2665(5) 0.6945(2) 0.3241(3)
C11B C -0.2670(5) 0.6247(2) 0.3915(3)
C12B C -0.2661(5) 0.8855(2) 0.1164(3)
Mn1A Mn -0.50000 1.00000 0.00000
Mn1A* Mn 0.50000 0.00000 1.00000
Mn2* Mn -0.50000 0.50000 0.50000
Mn2A Mn 0.00000 0.00000 1.00000
Mn2A* Mn 0.00000 1.00000 0.00000
O1B* O 0.5891(4) 0.60736(17) 0.4302(2)
O3A O 0.3784(4) 0.57761(18) 0.6017(2)
O3C O 0.6216(4) 0.42239(18) 0.3983(2)
O4A O 0.0911(4) 0.60248(17) 0.5718(2)
O4C O -0.0911(4) 0.39752(17) 0.4282(2)
O5B* O 0.7507(4) 0.49377(15) 0.5966(2)
#END
