
#######################################################################
#
#                 Cambridge Crystallographic Data Centre
#                                CCDC
#
#######################################################################
#
# If this CIF has been generated from an entry in the Cambridge
# Structural Database, then it will include bibliographic, chemical,
# crystal, experimental, refinement or atomic coordinate data resulting
# from the CCDC's data processing and validation procedures.
#
#######################################################################

data_CSD_CIF_OFAVID
_audit_creation_date 2018-08-28
_audit_creation_method CSD-ConQuest-V1
_database_code_CSD OFAVID
_database_code_depnum_ccdc_archive 'CCDC 1854184'
_chemical_formula_sum 'C42 H60 Co2 N18 O58 Si1 W12'
_chemical_formula_moiety
;
O40 Si1 W12 4-,2n(C14 H16 Co1 N6 O4 2+),C14 H12 N6 O2,8(H2 O1)
;
_journal_coden_Cambridge 1295
_journal_volume 97
_journal_year 2018
_journal_page_first 7
_journal_name_full 'Inorg.Chem.Commun. '
loop_
_publ_author_name
"Xiuli Wang"
"Jiahuan Liu"
"Xiang Wang"
"Guocheng Liu"
"Hongyan Lin"
_chemical_name_systematic
;
catena-[bis((\m-N,N'-(1,4-phenylene)di(1H-imidazole-4-carboxamide))-diaqua(ii)
) (\m-silicato)-tetracosakis(\m-oxo)-dodecaoxo-dodeca-tungsten 
N,N'-(1,4-phenylene)di(1H-imidazole-4-carboxamide) octahydrate]
;
_cell_volume   4025.204
_exptl_crystal_colour 'purple'
_exptl_crystal_description 'BLOCK'
_diffrn_ambient_temperature 293
#These two values have been output from a single CSD field.
_refine_ls_R_factor_gt 0.0444
_refine_ls_wR_factor_gt 0.0444
_symmetry_cell_setting monoclinic
_symmetry_space_group_name_H-M 'P 21/m'
_symmetry_Int_Tables_number 11
loop_
_symmetry_equiv_pos_site_id
_symmetry_equiv_pos_as_xyz
1 x,y,z
2 -x,1/2+y,-z
3 -x,-y,-z
4 x,-1/2-y,z
_cell_length_a 10.5032(6)
_cell_length_b 31.8574(17)
_cell_length_c 12.2602(7)
_cell_angle_alpha 90
_cell_angle_beta 101.127(1)
_cell_angle_gamma 90
_cell_formula_units_Z 2
loop_
_atom_type_symbol
_atom_type_radius_bond
C 0.68
H 0.23
Co 1.26
N 0.68
O 0.68
Si 1.20
W 1.62
loop_
_atom_site_label
_atom_site_type_symbol
_atom_site_fract_x
_atom_site_fract_y
_atom_site_fract_z
W1 W -0.62313(6) 0.19750(2) 0.40601(5)
Si1 Si -0.3244(5) 0.25000 0.4887(4)
W2 W -0.44894(5) 0.19744(2) 0.69806(5)
O1 O -0.1409(12) 0.1746(3) 0.1776(10)
W3 W -0.16678(8) 0.25000 0.77121(7)
O2 O -0.3388(11) 0.25000 0.6193(11)
W4 W -0.50007(9) 0.25000 0.21252(7)
O3 O -0.7144(13) 0.25000 0.4018(11)
W5 W -0.31501(6) 0.13943(2) 0.48379(5)
O4 O -0.5191(9) 0.1637(3) 0.7773(8)
W6 W -0.03182(6) 0.19192(2) 0.55834(6)
O5 O -0.3407(9) 0.0870(3) 0.4960(8)
W7 W -0.18971(6) 0.19203(2) 0.29298(5)
O6 O -0.1426(13) 0.25000 0.2916(12)
O7 O -0.5089(12) 0.25000 0.7430(11)
O8 O 0.1161(10) 0.1728(3) 0.6207(10)
O9 O -0.1361(9) 0.1414(3) 0.5555(8)
O10 O -0.5765(9) 0.2001(2) 0.5634(7)
O11 O -0.5500(17) 0.25000 0.0714(13)
O12 O -0.3631(11) 0.2092(3) 0.2312(9)
O13 O -0.0600(13) 0.25000 0.8961(14)
O14 O -0.0360(9) 0.1833(3) 0.4035(9)
O15 O -0.4686(12) 0.25000 0.4060(11)
O16 O -0.3567(8) 0.1595(3) 0.6206(8)
O17 O -0.2571(9) 0.1411(3) 0.3450(8)
O18 O -0.4795(9) 0.1596(2) 0.4150(7)
O19 O -0.2435(8) 0.2084(3) 0.4649(7)
O20 O 0.0030(13) 0.25000 0.5412(12)
O21 O -0.6136(9) 0.2081(3) 0.2535(8)
O22 O -0.7500(9) 0.1634(3) 0.3863(8)
O23 O -0.2892(9) 0.2089(3) 0.8000(8)
O24 O -0.0947(9) 0.2092(3) 0.6902(9)
N1 N 0.1551(14) 0.1792(4) 0.0410(12)
H1 H 0.12000 0.20250 0.05440
N2 N 0.4096(12) -0.0734(3) -0.8525(10)
H2 H 0.42480 -0.09860 -0.87160
N3 N 0.3772(14) -0.0056(3) -0.8624(10)
N4 N 0.2409(13) 0.1174(4) 0.0692(10)
N5 N 0.2531(11) 0.1029(3) -0.2222(9)
H3 H 0.22170 0.12710 -0.24430
N6 N 0.3522(11) 0.0030(3) -0.5747(8)
H4 H 0.36870 -0.02290 -0.55770
C1 C 0.3292(14) 0.0729(4) -0.4917(11)
H5 H 0.34270 0.08640 -0.55580
C2 C 0.3326(12) 0.0297(4) -0.4866(10)
C3 C 0.3479(13) 0.0132(4) -0.6799(11)
C4 C 0.2241(14) 0.1274(4) -0.0431(12)
C5 C 0.3753(13) -0.0190(4) -0.7577(11)
C6 C 0.3063(12) 0.0961(4) -0.4044(11)
H6 H 0.30450 0.12520 -0.40900
C7 C 0.3135(13) 0.0104(4) -0.3897(11)
H7 H 0.31640 -0.01880 -0.38590
C8 C 0.2854(12) 0.0761(4) -0.3073(11)
C9 C 0.2903(14) 0.0326(4) -0.2984(11)
H8 H 0.27850 0.01900 -0.23400
C10 C 0.2654(14) 0.0953(4) -0.1124(11)
C11 C 0.3963(15) -0.0401(5) -0.9188(13)
H9 H 0.39990 -0.04070 -0.99400
C12 C 0.3952(14) -0.0611(4) -0.7496(12)
H10 H 0.39820 -0.07790 -0.68710
C13 C 0.1994(18) 0.1496(4) 0.1172(14)
H11 H 0.20000 0.15180 0.19290
C14 C 0.1748(17) 0.1663(4) -0.0620(15)
H12 H 0.15810 0.18110 -0.12880
O25 O 0.3236(11) 0.0496(3) -0.7193(8)
O26 O 0.3115(11) 0.0611(3) -0.0671(8)
O27 O 0.1266(13) 0.0334(4) 0.0768(13)
O28 O 0.5022(12) 0.0821(4) 0.1408(10)
Co1 Co 0.3127(2) 0.05608(6) 0.10605(17)
O29 O 0.0110(13) 0.0174(3) 0.8153(10)
C15 C -0.1334(16) 0.1210(5) 0.8126(14)
H13 H -0.15680 0.13290 0.74230
C16 C -0.1023(19) 0.1105(6) 0.9943(16)
H14 H -0.09920 0.11490 1.06980
C17 C -0.0019(15) 0.0433(5) 0.4854(13)
H15 H -0.00280 0.07220 0.47500
C18 C -0.0761(16) 0.0836(5) 0.8400(13)
C19 C -0.0321(14) 0.0500(4) 0.7727(13)
C20 C 0.0246(16) 0.0166(5) 0.4005(12)
H16 H 0.04080 0.02770 0.33440
C21 C -0.0259(14) 0.0272(5) 0.5822(13)
N7 N -0.0603(16) 0.0758(5) 0.9514(13)
N8 N -0.1496(14) 0.1380(4) 0.9144(12)
H17 H -0.18390 0.16190 0.92390
N9 N -0.0545(13) 0.0568(4) 0.6609(10)
H18 H -0.08790 0.08040 0.63650
O30 O 1.042(4) 0.1022(9) -0.722(3)
O31 O -0.762(3) 0.25000 0.807(4)
O32 O 0.7745(17) 0.0630(5) -0.7943(15)
O33 O 0.5661(15) 0.1520(4) -0.9798(11)
O34 O 0.0895(16) 0.25000 -0.8307(14)
W1C W -0.62313(6) 0.30250(2) 0.40601(5)
W2C W -0.44894(5) 0.30256(2) 0.69806(5)
O1C O -0.1409(12) 0.3254(3) 0.1776(10)
W5C W -0.31501(6) 0.36057(2) 0.48379(5)
O4C O -0.5191(9) 0.3363(3) 0.7773(8)
W6C W -0.03182(6) 0.30808(2) 0.55834(6)
O5C O -0.3407(9) 0.4130(3) 0.4960(8)
W7C W -0.18971(6) 0.30797(2) 0.29298(5)
O8C O 0.1161(10) 0.3272(3) 0.6207(10)
O9C O -0.1361(9) 0.3586(3) 0.5555(8)
O10C O -0.5765(9) 0.2999(2) 0.5634(7)
O12C O -0.3631(11) 0.2908(3) 0.2312(9)
O14C O -0.0360(9) 0.3167(3) 0.4035(9)
O16C O -0.3567(8) 0.3405(3) 0.6206(8)
O17C O -0.2571(9) 0.3589(3) 0.3450(8)
O18C O -0.4795(9) 0.3404(2) 0.4150(7)
O19C O -0.2435(8) 0.2916(3) 0.4649(7)
O21C O -0.6136(9) 0.2919(3) 0.2535(8)
O22C O -0.7500(9) 0.3366(3) 0.3863(8)
O23C O -0.2892(9) 0.2911(3) 0.8000(8)
O24C O -0.0947(9) 0.2908(3) 0.6902(9)
N3* N 0.3772(14) -0.0056(3) 0.1376(10)
O25* O 0.3236(11) 0.0496(3) 0.2807(8)
Co1* Co 0.3127(2) 0.05608(6) -0.89395(17)
O29B O -0.0110(13) -0.0174(3) 0.1847(10)
C15B C 0.1334(16) -0.1210(5) 0.1874(14)
H13B H 0.15680 -0.13290 0.25770
C16B C 0.1023(19) -0.1105(6) 0.0057(16)
H14B H 0.09920 -0.11490 -0.06980
C17B C 0.0019(15) -0.0433(5) 0.5146(13)
H15B H 0.00280 -0.07220 0.52500
C18B C 0.0761(16) -0.0836(5) 0.1600(13)
C19B C 0.0321(14) -0.0500(4) 0.2273(13)
C20B C -0.0246(16) -0.0166(5) 0.5995(12)
H16B H -0.04080 -0.02770 0.66560
C21B C 0.0259(14) -0.0272(5) 0.4178(13)
N7B N 0.0603(16) -0.0758(5) 0.0486(13)
N8B N 0.1496(14) -0.1380(4) 0.0856(12)
H17B H 0.18390 -0.16190 0.07610
N9B N 0.0545(13) -0.0568(4) 0.3391(10)
H18B H 0.08790 -0.08040 0.36350
#END
