
#######################################################################
#
#                 Cambridge Crystallographic Data Centre
#                                CCDC
#
#######################################################################
#
# If this CIF has been generated from an entry in the Cambridge
# Structural Database, then it will include bibliographic, chemical,
# crystal, experimental, refinement or atomic coordinate data resulting
# from the CCDC's data processing and validation procedures.
#
#######################################################################

data_CSD_CIF_OFIDAJ
_audit_creation_date 2009-01-14
_audit_creation_method CSD-ConQuest-V1
_database_code_CSD OFIDAJ
_database_code_depnum_ccdc_archive 'CCDC 654394'
_chemical_formula_sum 'C36 H40 Bi4 N4 O40'
_chemical_formula_moiety
;
(C5 H6 N1 1+)4n,n(C16 H8 Bi4 O36 4-),4n(H2 O1)
;
_journal_coden_Cambridge 208
_journal_volume 181
_journal_year 2008
_journal_page_first 1133
_journal_name_full 'J.Solid State Chem. '
loop_
_publ_author_name
"Xinxiang Chen"
"Yanning Cao"
"Hanhui Zhang"
"Yiping Chen"
"Xuehuan Chen"
"Xiaochuan Chai"
_chemical_name_systematic
;
catena-(tetrakis(Pyridinium) 
octakis(\m~2~-oxalato-O,O',O'',O''')-tetra-aqua-tetra-bismuth(iii) 
tetrahydrate)
;
_cell_volume   2581.847
_exptl_crystal_colour 'colorless'
_exptl_crystal_density_diffrn 2.579
_exptl_crystal_description 'block'
_diffrn_ambient_temperature 173
#These two values have been output from a single CSD field.
_refine_ls_R_factor_gt 0.0355
_refine_ls_wR_factor_gt 0.0355
_symmetry_cell_setting monoclinic
_symmetry_space_group_name_H-M 'P 21/c'
_symmetry_Int_Tables_number 14
loop_
_symmetry_equiv_pos_site_id
_symmetry_equiv_pos_as_xyz
1 x,y,z
2 -x,1/2+y,1/2-z
3 -x,-y,-z
4 x,-1/2-y,-1/2+z
_cell_length_a 10.378(2)
_cell_length_b 17.285(3)
_cell_length_c 16.563(5)
_cell_angle_alpha 90
_cell_angle_beta 119.66(2)
_cell_angle_gamma 90
_cell_formula_units_Z 2
loop_
_atom_type_symbol
_atom_type_radius_bond
C 0.68
H 0.23
Bi 1.54
N 0.68
O 0.68
loop_
_atom_site_label
_atom_site_type_symbol
_atom_site_fract_x
_atom_site_fract_y
_atom_site_fract_z
Bi1 Bi 0.33870(2) -0.372448(13) 0.342656(18)
Bi2 Bi 0.88732(2) -0.165380(12) 0.408710(19)
O1 O 0.8187(4) -0.0359(2) 0.4432(4)
O2 O 0.8982(5) 0.0862(2) 0.4770(4)
O3 O 0.5723(5) -0.3624(2) 0.3351(4)
O4 O 0.6449(5) -0.1706(2) 0.4087(4)
O5 O 0.1244(4) -0.4495(3) 0.2361(4)
O6 O 0.2779(5) -0.3292(3) 0.1830(4)
O7 O 0.1160(5) -0.2423(3) 0.4769(4)
O8 O 0.4078(5) -0.4974(3) 0.2968(4)
O9 O 0.4468(5) -0.2417(3) 0.3757(4)
O10 O 0.7700(5) -0.2909(3) 0.3703(4)
O11 O 0.3098(5) -0.4898(3) 0.4276(4)
O12 O 0.1071(5) -0.2918(3) 0.2708(4)
O13 O 0.9342(5) -0.2038(3) 0.5662(4)
O14 O -0.0558(5) -0.2264(3) 0.2934(4)
O15 O 0.4402(5) -0.5923(3) 0.5076(4)
O16 O 0.3212(5) -0.6155(3) 0.2430(4)
O17 O 0.0424(5) -0.5642(3) 0.1719(4)
O18 O 0.2686(5) -0.3178(3) 0.4550(4)
N1 N -0.7420(9) 0.0038(5) 0.1429(7)
H1 H -0.66770 0.03330 0.15050
N2 N -0.2531(12) -0.5081(7) 0.1319(8)
H2 H -0.17330 -0.53220 0.13930
C1 C -0.8626(11) 0.0363(5) 0.1333(8)
H3 H -0.86790 0.09100 0.13680
C2 C 0.0612(7) -0.2639(3) 0.3204(5)
C3 C -0.4889(12) -0.5134(7) 0.1133(8)
H4 H -0.57210 -0.54180 0.10640
C4 C 0.6445(7) -0.3009(4) 0.3614(5)
C5 C 0.9186(6) 0.0149(4) 0.4770(5)
C6 C 0.5725(7) -0.2316(3) 0.3840(5)
C7 C 0.1554(7) -0.2754(4) 0.4266(5)
C8 C 0.1446(6) -0.5175(4) 0.2190(5)
C9 C 0.3059(6) -0.5459(4) 0.2561(5)
C10 C 0.4277(7) -0.5232(4) 0.4816(5)
C11 C -0.979(1) -0.0079(6) 0.1185(8)
H5 H -1.06830 0.01540 0.10900
C12 C -0.9678(12) -0.0865(7) 0.1172(9)
H6 H -1.04690 -0.11900 0.10950
C13 C -0.2584(12) -0.4314(7) 0.1294(9)
H7 H -0.17650 -0.40270 0.13470
C14 C -0.8392(14) -0.1166(6) 0.1273(11)
H8 H -0.82930 -0.17100 0.12410
C15 C -0.3725(16) -0.5502(7) 0.1229(10)
H9 H -0.36990 -0.60510 0.12380
C16 C -0.4922(12) -0.4353(8) 0.1129(9)
H10 H -0.57650 -0.40930 0.10790
C17 C -0.7290(12) -0.0709(7) 0.1414(10)
H11 H -0.63860 -0.09260 0.15070
C18 C -0.3783(4) -0.3942(2) 0.1194(3)
H12 H -0.38260 -0.33930 0.11710
O19 O -0.2516(4) -0.2121(2) 0.0999(3)
H13 H -0.19280 -0.23160 0.15270
H14 H -0.26400 -0.24520 0.05870
O20 O -0.5484(4) -0.2287(2) 0.1460(3)
H15 H -0.50490 -0.19080 0.18200
H16 H -0.58760 -0.25600 0.17090
Bi1B Bi 0.66130(2) -0.627552(13) 0.657344(18)
Bi1* Bi 1.33870(2) -0.372448(13) 0.342656(18)
Bi1A Bi 0.66130(2) 0.127552(13) 0.157344(18)
Bi2* Bi -0.11268(2) -0.165380(12) 0.408710(19)
Bi2B Bi 1.11268(2) 0.165380(12) 0.591290(19)
Bi2A Bi 0.11268(2) -0.665380(12) 0.091290(19)
Bi2B* Bi 0.11268(2) -0.834620(12) 0.591290(19)
O1B O 1.1813(4) 0.0359(2) 0.5568(4)
O1* O -0.1813(4) -0.0359(2) 0.4432(4)
O2B O 1.1018(5) -0.0862(2) 0.5230(4)
O2B* O 0.1018(5) -0.0862(2) 0.5230(4)
O3B O 0.4277(5) -0.6376(2) 0.6649(4)
O4B O 0.3551(5) -0.8294(2) 0.5913(4)
O4* O -0.3551(5) -0.1706(2) 0.4087(4)
O5A O 0.8756(4) 0.0505(3) 0.2639(4)
O5B O 0.8756(4) -0.5505(3) 0.7639(4)
O6B O 0.7221(5) -0.6708(3) 0.8170(4)
O7* O 1.1160(5) -0.2423(3) 0.4769(4)
O8A O 0.5922(5) 0.0026(3) 0.2032(4)
O8B O 0.5922(5) -0.5026(3) 0.7032(4)
O9B O 0.5532(5) -0.7583(3) 0.6243(4)
O10B O 0.2300(5) -0.7091(3) 0.6297(4)
O10* O -0.2300(5) -0.2909(3) 0.3703(4)
O11B O 0.6902(5) -0.5102(3) 0.5724(4)
O12* O 1.1071(5) -0.2918(3) 0.2708(4)
O12B O 0.8929(5) -0.7082(3) 0.7292(4)
O13* O -0.0658(5) -0.2038(3) 0.5662(4)
O14* O 0.9442(5) -0.2264(3) 0.2934(4)
O15B O 0.5598(5) -0.4077(3) 0.4924(4)
O16A O 0.6788(5) -0.1155(3) 0.2570(4)
O16A* O -0.3212(5) -0.1155(3) 0.2570(4)
O17A O 0.9576(5) -0.0642(3) 0.3281(4)
O17A* O -0.0424(5) -0.0642(3) 0.3281(4)
O18* O 1.2686(5) -0.3178(3) 0.4550(4)
O18B O 0.7314(5) -0.6822(3) 0.5450(4)
C2* C 1.0612(7) -0.2639(3) 0.3204(5)
C4B C 0.3555(7) -0.6991(4) 0.6386(5)
C5B C 1.0814(6) -0.0149(4) 0.5230(5)
C6B C 0.4275(7) -0.7684(3) 0.6160(5)
C7* C 1.1554(7) -0.2754(4) 0.4266(5)
C8A C 0.8554(6) -0.0175(4) 0.2810(5)
C9A C 0.6941(6) -0.0459(4) 0.2439(5)
C10B C 0.5723(7) -0.4768(4) 0.5184(5)
#END
