
#######################################################################
#
#                 Cambridge Crystallographic Data Centre
#                                CCDC
#
#######################################################################
#
# If this CIF has been generated from an entry in the Cambridge
# Structural Database, then it will include bibliographic, chemical,
# crystal, experimental, refinement or atomic coordinate data resulting
# from the CCDC's data processing and validation procedures.
#
#######################################################################

data_CSD_CIF_OFOCAQ
_audit_creation_date 2018-08-29
_audit_creation_method CSD-ConQuest-V1
_database_code_CSD OFOCAQ
_database_code_depnum_ccdc_archive 'CCDC 1853413'
_chemical_formula_sum 'C48 H58 Br1 Cu2 Dy1 N10 O14'
_chemical_formula_moiety
;
(C36 H24 Br1 Cu2 Dy1 N6 O12 2-)n,2(C4 H9 N1 O1),2(C2 H8 N1 1+)
;
_journal_coden_Cambridge 155
_journal_volume 483
_journal_year 2018
_journal_page_first 299
_journal_name_full 'Inorg.Chim.Acta '
loop_
_publ_author_name
"Gang Xiong"
"Dan Qi"
"Yongke He"
"Lixin You"
"Baoyi Ren"
"Yaguang Sun"
_chemical_name_systematic
;
catena-[bis(dimethylammonium) 
hexakis(\m-pyridine-4-carboxylato)-(\m-bromo)-di-copper(i)-dysprosium(iii) 
N,N-dimethylacetamide solvate]
;
_cell_volume   5616.279
_exptl_crystal_colour 'colorless'
_exptl_crystal_density_diffrn 1.619
_exptl_crystal_description 'Prism'
_diffrn_ambient_temperature 293.1
#These two values have been output from a single CSD field.
_refine_ls_R_factor_gt 0.0417
_refine_ls_wR_factor_gt 0.0417
_symmetry_cell_setting monoclinic
_symmetry_space_group_name_H-M 'I 2/a'
_symmetry_Int_Tables_number 15
loop_
_symmetry_equiv_pos_site_id
_symmetry_equiv_pos_as_xyz
1 x,y,z
2 1/2-x,y,-z
3 1/2+x,1/2+y,1/2+z
4 -x,1/2+y,1/2-z
5 -x,-y,-z
6 -1/2+x,-y,z
7 -1/2-x,-1/2-y,-1/2-z
8 x,-1/2-y,-1/2+z
_cell_length_a 18.968(13)
_cell_length_b 15.522(9)
_cell_length_c 19.472(11)
_cell_angle_alpha 90
_cell_angle_beta 101.58(5)
_cell_angle_gamma 90
_cell_formula_units_Z 4
loop_
_atom_type_symbol
_atom_type_radius_bond
C 0.68
H 0.23
Br 1.21
Cu 1.32
Dy 1.92
N 0.68
O 0.68
loop_
_atom_site_label
_atom_site_type_symbol
_atom_site_fract_x
_atom_site_fract_y
_atom_site_fract_z
Dy1 Dy -0.25000 -0.40796(2) 0.00000
Br1 Br 0.00000 0.00000 0.00000
Cu1 Cu -0.07694(3) 0.07749(3) 0.08070(3)
O1 O -0.17208(16) 0.49524(18) -0.03183(16)
O2 O -0.07113(18) 0.4844(2) -0.07323(18)
O3 O 0.12440(15) 0.13115(18) 0.42948(14)
O4 O 0.19378(16) 0.0427(2) 0.38383(15)
O5 O -0.27903(16) -0.30063(17) 0.06909(15)
O6 O -0.3527(2) -0.2139(2) 0.1106(2)
N1 N -0.00910(18) 0.0842(2) 0.17867(18)
N2 N -0.14878(19) -0.0165(2) 0.08536(19)
N3 N -0.08641(18) 0.1994(2) 0.04557(17)
C1 C 0.1376(2) 0.0879(3) 0.3790(2)
C2 C 0.0855(2) 0.0890(3) 0.3091(2)
C3 C -0.1019(2) 0.3694(2) -0.0048(2)
C4 C -0.1147(2) 0.4580(3) -0.0385(2)
C5 C -0.0415(2) 0.3205(3) -0.0100(2)
H1 H -0.00511 0.34373 -0.02996
C6 C -0.1724(2) -0.1684(3) 0.0873(2)
H2 H -0.15501 -0.22437 0.08691
C7 C -0.1270(2) -0.0990(3) 0.0862(3)
H3 H -0.07880 -0.10996 0.08603
C8 C -0.2441(2) -0.1538(3) 0.0891(2)
C9 C -0.2963(2) -0.2285(3) 0.0895(2)
C10 C -0.1512(2) 0.3335(3) 0.0306(2)
H4 H -0.19024 0.36570 0.03828
C11 C 0.1099(2) 0.0760(4) 0.2475(2)
H5 H 0.15877 0.06778 0.24900
C12 C 0.0124(2) 0.1008(3) 0.3032(2)
H6 H -0.00654 0.11067 0.34292
C13 C -0.0366(2) 0.2365(3) 0.0151(2)
H7 H 0.00347 0.20416 0.01064
C14 C 0.0621(2) 0.0753(4) 0.1841(2)
H8 H 0.07997 0.06827 0.14333
C15 C -0.0322(2) 0.0977(3) 0.2381(2)
H9 H -0.08129 0.10557 0.23546
C16 C -0.2183(2) -0.0033(3) 0.0871(2)
H10 H -0.23459 0.05319 0.08688
C17 C -0.1421(2) 0.2494(3) 0.0545(2)
H11 H -0.17599 0.22630 0.07774
C18 C -0.2672(2) -0.0693(3) 0.0891(2)
H12 H -0.31484 -0.05688 0.09041
O7 O -0.2163(2) 0.1486(3) 0.19528(19)
N4 N -0.3292(2) 0.1472(3) 0.2139(3)
C19 C -0.2585(3) 0.1432(3) 0.2358(3)
C20 C -0.2305(3) 0.1340(4) 0.3145(3)
H13 H -0.24340 0.18418 0.33802
H14 H -0.17910 0.12818 0.32369
H15 H -0.25142 0.08385 0.33123
C21 C -0.3590(3) 0.1584(4) 0.1391(3)
H16 H -0.32073 0.15724 0.11352
H17 H -0.38362 0.21264 0.13170
H18 H -0.39224 0.11254 0.12311
C22 C -0.3798(3) 0.1520(5) 0.2618(4)
H19 H -0.38653 0.21115 0.27342
H20 H -0.36072 0.12042 0.30385
H21 H -0.42512 0.12762 0.23956
N5 N -0.1064(2) -0.1277(2) 0.3461(2)
H22 H -0.11746 -0.17363 0.36916
H23 H -0.09521 -0.08510 0.37696
C23 C -0.0424(3) -0.1482(4) 0.3165(3)
H24 H -0.00208 -0.15917 0.35399
H25 H -0.03159 -0.10033 0.28915
H26 H -0.05194 -0.19831 0.28728
C24 C -0.1704(3) -0.1022(4) 0.2934(3)
H27 H -0.20913 -0.08827 0.31656
H28 H -0.18470 -0.14893 0.26134
H29 H -0.15911 -0.05272 0.26804
Cu1A Cu -0.42306(3) 0.07749(3) -0.08070(3)
O1A O -0.32792(16) 0.49524(18) 0.03183(16)
O2A O -0.42887(18) 0.4844(2) 0.07323(18)
O3A O -0.62440(15) 0.13115(18) -0.42948(14)
O4A O -0.69378(16) 0.0427(2) -0.38383(15)
O5A O -0.22097(16) -0.30063(17) -0.06909(15)
O6A O -0.1473(2) -0.2139(2) -0.1106(2)
N1A N -0.49090(18) 0.0842(2) -0.17867(18)
N2A N -0.35122(19) -0.0165(2) -0.08536(19)
N3A N -0.41359(18) 0.1994(2) -0.04557(17)
C1A C -0.6376(2) 0.0879(3) -0.3790(2)
C2A C -0.5855(2) 0.0890(3) -0.3091(2)
C3A C -0.3981(2) 0.3694(2) 0.0048(2)
C4A C -0.3853(2) 0.4580(3) 0.0385(2)
C5A C -0.4585(2) 0.3205(3) 0.0100(2)
H1A H -0.49489 0.34373 0.02996
C6A C -0.3276(2) -0.1684(3) -0.0873(2)
H2A H -0.34499 -0.22437 -0.08691
C7A C -0.3730(2) -0.0990(3) -0.0862(3)
H3A H -0.42120 -0.10996 -0.08603
C8A C -0.2559(2) -0.1538(3) -0.0891(2)
C9A C -0.2037(2) -0.2285(3) -0.0895(2)
C10A C -0.3488(2) 0.3335(3) -0.0306(2)
H4A H -0.30976 0.36570 -0.03828
C11A C -0.6099(2) 0.0760(4) -0.2475(2)
H5A H -0.65877 0.06778 -0.24900
C12A C -0.5124(2) 0.1008(3) -0.3032(2)
H6A H -0.49346 0.11067 -0.34292
C13A C -0.4634(2) 0.2365(3) -0.0151(2)
H7A H -0.50347 0.20416 -0.01064
C14A C -0.5621(2) 0.0753(4) -0.1841(2)
H8A H -0.57997 0.06827 -0.14333
C15A C -0.4678(2) 0.0977(3) -0.2381(2)
H9A H -0.41871 0.10557 -0.23546
C16A C -0.2817(2) -0.0033(3) -0.0871(2)
H10A H -0.26541 0.05319 -0.08688
C17A C -0.3579(2) 0.2494(3) -0.0545(2)
H11A H -0.32401 0.22630 -0.07774
C18A C -0.2328(2) -0.0693(3) -0.0891(2)
H12A H -0.18516 -0.05688 -0.09041
Dy1* Dy -0.25000 0.59204(2) 0.00000
Dy1B Dy -0.75000 0.09204(2) -0.50000
Dy1B* Dy 0.25000 0.09204(2) 0.50000
Br1A Br -0.50000 0.00000 0.00000
Cu1D Cu 0.07694(3) -0.07749(3) -0.08070(3)
O1* O -0.17208(16) -0.50476(18) -0.03183(16)
O1A* O -0.32792(16) -0.50476(18) 0.03183(16)
O3B O -0.37560(15) -0.36885(18) -0.07052(14)
O3C O -0.12440(15) -0.36885(18) 0.07052(14)
O4B O -0.30622(16) -0.4573(2) -0.11617(15)
O4C O -0.19378(16) -0.4573(2) 0.11617(15)
#END
