
#######################################################################
#
#                 Cambridge Crystallographic Data Centre
#                                CCDC
#
#######################################################################
#
# If this CIF has been generated from an entry in the Cambridge
# Structural Database, then it will include bibliographic, chemical,
# crystal, experimental, refinement or atomic coordinate data resulting
# from the CCDC's data processing and validation procedures.
#
#######################################################################

data_CSD_CIF_OFOCAQ01
_audit_creation_date 2018-08-29
_audit_creation_method CSD-ConQuest-V1
_database_code_CSD OFOCAQ01
_database_code_depnum_ccdc_archive 'CCDC 1853414'
_chemical_formula_sum 'C48 H58 Br1 Cu2 N10 O14 Tb1'
_chemical_formula_moiety
;
(C36 H24 Br1 Cu2 N6 O12 Tb1 2-)n,2(C4 H9 N1 O1),2(C2 H8 N1 1+)
;
_journal_coden_Cambridge 155
_journal_volume 483
_journal_year 2018
_journal_page_first 299
_journal_name_full 'Inorg.Chim.Acta '
loop_
_publ_author_name
"Gang Xiong"
"Dan Qi"
"Yongke He"
"Lixin You"
"Baoyi Ren"
"Yaguang Sun"
_chemical_name_systematic
;
catena-[bis(dimethylammonium) 
hexakis(\m-pyridine-4-carboxylato)-(\m-bromo)-di-copper(i)-terbium(iii) 
N,N-dimethylacetamide solvate]
;
_cell_volume   5554.520
_exptl_crystal_colour 'colorless'
_exptl_crystal_density_diffrn 1.632
_exptl_crystal_description 'Prism'
_diffrn_ambient_temperature 293
#These two values have been output from a single CSD field.
_refine_ls_R_factor_gt 0.0522
_refine_ls_wR_factor_gt 0.0522
_symmetry_cell_setting monoclinic
_symmetry_space_group_name_H-M 'I 2/a'
_symmetry_Int_Tables_number 15
loop_
_symmetry_equiv_pos_site_id
_symmetry_equiv_pos_as_xyz
1 x,y,z
2 1/2-x,y,-z
3 1/2+x,1/2+y,1/2+z
4 -x,1/2+y,1/2-z
5 -x,-y,-z
6 -1/2+x,-y,z
7 -1/2-x,-1/2-y,-1/2-z
8 x,-1/2-y,-1/2+z
_cell_length_a 18.920(4)
_cell_length_b 15.464(2)
_cell_length_c 19.388(3)
_cell_angle_alpha 90
_cell_angle_beta 101.707(15)
_cell_angle_gamma 90
_cell_formula_units_Z 4
loop_
_atom_type_symbol
_atom_type_radius_bond
C 0.68
H 0.23
Br 1.21
Cu 1.32
N 0.68
O 0.68
Tb 1.94
loop_
_atom_site_label
_atom_site_type_symbol
_atom_site_fract_x
_atom_site_fract_y
_atom_site_fract_z
Tb1 Tb -0.25000 -0.40815(2) 0.00000
O1 O -0.1242(2) -0.3694(3) 0.0712(2)
O2 O -0.1935(2) -0.4578(3) 0.1167(2)
O3 O -0.2208(2) -0.3001(3) -0.0690(2)
O4 O -0.3288(2) -0.5049(3) 0.0319(2)
C1 C -0.1375(3) -0.4126(4) 0.1217(3)
C2 C -0.2036(3) -0.2281(4) -0.0895(3)
C3 C -0.3856(3) -0.5434(4) 0.0386(3)
C4 C -0.0859(3) -0.4125(4) 0.1913(3)
C5 C -0.2558(3) -0.1535(4) -0.0888(3)
O5 O -0.1475(3) -0.2133(3) -0.1112(4)
C6 C -0.3992(3) -0.6310(4) 0.0045(3)
O6 O -0.4297(3) -0.5159(3) 0.0732(3)
C7 C -0.0121(3) -0.3993(4) 0.1973(3)
C8 C -0.1103(4) -0.4255(6) 0.2519(4)
C9 C -0.2327(4) -0.0688(4) -0.0895(4)
C10 C -0.3281(3) -0.1682(4) -0.0873(4)
C11 C -0.3492(3) -0.6672(4) -0.0300(3)
C12 C -0.4584(3) -0.6800(4) 0.0106(3)
H1 H 0.00688 -0.38836 0.15751
C13 C 0.0323(3) -0.4026(5) 0.2628(4)
H2 H -0.15910 -0.43486 0.25047
C14 C -0.0612(4) -0.4246(5) 0.3162(4)
C15 C -0.2819(4) -0.0038(4) -0.0871(4)
H3 H -0.18512 -0.05597 -0.09150
C16 C -0.3727(4) -0.0998(4) -0.0858(4)
H4 H -0.34562 -0.22438 -0.08741
C17 C -0.3578(4) -0.7514(5) -0.0537(4)
H5 H -0.30995 -0.63486 -0.03723
H6 H -0.49413 -0.65712 0.03176
C18 C -0.4641(3) -0.7641(4) -0.0153(3)
N1 N 0.0088(3) -0.4165(3) 0.3216(3)
H7 H 0.08156 -0.39467 0.26593
H8 H -0.07899 -0.42989 0.35736
H9 H -0.26556 0.05299 -0.08676
N2 N -0.3514(3) -0.0163(3) -0.0853(3)
H10 H -0.42081 -0.11105 -0.08510
N3 N -0.4133(3) -0.8010(3) -0.0451(3)
H11 H -0.32353 -0.77466 -0.07667
H12 H -0.50481 -0.79626 -0.01180
Cu1 Cu 0.07730(4) -0.42251(5) 0.41931(4)
Br1 Br -0.50000 0.00000 0.00000
N4 N 0.1056(3) -0.6274(4) 0.1539(3)
H13 H 0.09442 -0.58442 0.12308
H14 H 0.11663 -0.67333 0.13048
C19 C 0.0428(4) -0.6477(6) 0.1830(5)
H15 H 0.05127 -0.70030 0.20968
H16 H 0.00159 -0.65489 0.14532
H17 H 0.03393 -0.60145 0.21310
C20 C 0.1697(5) -0.6023(6) 0.2065(5)
H18 H 0.15790 -0.55435 0.23353
H19 H 0.20773 -0.58595 0.18310
H20 H 0.18519 -0.65028 0.23730
O7 O 0.2165(3) -0.3524(4) 0.3048(3)
C21 C 0.2587(4) -0.3564(5) 0.2637(4)
N5 N 0.3290(4) -0.3518(4) 0.2865(4)
C22 C 0.2297(5) -0.3656(5) 0.1859(4)
H21 H 0.17800 -0.36948 0.17721
H22 H 0.24904 -0.41696 0.16902
H23 H 0.24350 -0.31609 0.16178
C23 C 0.3795(5) -0.3476(7) 0.2382(6)
H24 H 0.36478 -0.38808 0.20040
H25 H 0.42717 -0.36188 0.26322
H26 H 0.37939 -0.29025 0.21927
C24 C 0.3599(5) -0.3417(6) 0.3620(5)
H27 H 0.32182 -0.34335 0.38809
H28 H 0.38462 -0.28729 0.36989
H29 H 0.39327 -0.38787 0.37741
O1A O -0.3758(2) -0.3694(3) -0.0712(2)
O2A O -0.3065(2) -0.4578(3) -0.1167(2)
O3A O -0.2792(2) -0.3001(3) 0.0690(2)
O4A O -0.1712(2) -0.5049(3) -0.0319(2)
C1A C -0.3625(3) -0.4126(4) -0.1217(3)
C2A C -0.2964(3) -0.2281(4) 0.0895(3)
C3A C -0.1144(3) -0.5434(4) -0.0386(3)
C4A C -0.4141(3) -0.4125(4) -0.1913(3)
C5A C -0.2442(3) -0.1535(4) 0.0888(3)
O5A O -0.3525(3) -0.2133(3) 0.1112(4)
C6A C -0.1008(3) -0.6310(4) -0.0045(3)
O6A O -0.0703(3) -0.5159(3) -0.0732(3)
C7A C -0.4879(3) -0.3993(4) -0.1973(3)
C8A C -0.3897(4) -0.4255(6) -0.2519(4)
C9A C -0.2673(4) -0.0688(4) 0.0895(4)
C10A C -0.1719(3) -0.1682(4) 0.0873(4)
C11A C -0.1508(3) -0.6672(4) 0.0300(3)
C12A C -0.0416(3) -0.6800(4) -0.0106(3)
H1A H -0.50688 -0.38836 -0.15751
C13A C -0.5323(3) -0.4026(5) -0.2628(4)
H2A H -0.34090 -0.43486 -0.25047
C14A C -0.4388(4) -0.4246(5) -0.3162(4)
C15A C -0.2181(4) -0.0038(4) 0.0871(4)
H3A H -0.31488 -0.05597 0.09150
C16A C -0.1273(4) -0.0998(4) 0.0858(4)
H4A H -0.15438 -0.22438 0.08741
C17A C -0.1422(4) -0.7514(5) 0.0537(4)
H5A H -0.19005 -0.63486 0.03723
H6A H -0.00587 -0.65712 -0.03176
C18A C -0.0359(3) -0.7641(4) 0.0153(3)
N1A N -0.5088(3) -0.4165(3) -0.3216(3)
H7A H -0.58156 -0.39467 -0.26593
H8A H -0.42101 -0.42989 -0.35736
H9A H -0.23444 0.05299 0.08676
N2A N -0.1486(3) -0.0163(3) 0.0853(3)
H10A H -0.07919 -0.11105 0.08510
N3A N -0.0867(3) -0.8010(3) 0.0451(3)
H11A H -0.17647 -0.77466 0.07667
H12A H 0.00481 -0.79626 0.01180
Cu1A Cu -0.57730(4) -0.42251(5) -0.41931(4)
Cu1B Cu -0.42270(4) 0.07749(5) -0.08069(4)
Cu1C Cu -0.07730(4) 0.07749(5) 0.08069(4)
Cu1B* Cu -0.42270(4) -0.92251(5) -0.08069(4)
Cu1C* Cu -0.07730(4) -0.92251(5) 0.08069(4)
N3* N -0.4133(3) 0.1990(3) -0.0451(3)
N1B N -0.4912(3) 0.0835(3) -0.1784(3)
Br1* Br -0.50000 -1.00000 0.00000
N2* N -0.3514(3) -1.0163(3) -0.0853(3)
N1B* N -0.4912(3) -0.9165(3) -0.1784(3)
Cu1F Cu -0.57730(4) -0.07749(5) 0.08069(4)
#END
