
#######################################################################
#
#                 Cambridge Crystallographic Data Centre
#                                CCDC
#
#######################################################################
#
# If this CIF has been generated from an entry in the Cambridge
# Structural Database, then it will include bibliographic, chemical,
# crystal, experimental, refinement or atomic coordinate data resulting
# from the CCDC's data processing and validation procedures.
#
#######################################################################

data_CSD_CIF_OFOFUL
_audit_creation_date 2009-01-14
_audit_creation_method CSD-ConQuest-V1
_database_code_CSD OFOFUL
_database_code_depnum_ccdc_archive 'CCDC 698389'
_chemical_formula_sum 'C70 H84.5 Cr3 Mn3 N12.5 O37'
_chemical_formula_moiety
;
(C11 H18 N1 1+)3n,n(C22 H6 Cr3 Mn3 N2 O36 3-),7.5n(C2 H3 N1),n(H2 O1)
;
_journal_coden_Cambridge 9
_journal_volume 47
_journal_year 2008
_journal_page_first 6458
_journal_name_full 'Inorg.Chem. '
loop_
_publ_author_name
"M.Clemente-Leon"
"E.Coronado"
"J.C.Dias"
"A.Soriano-Portillo"
"R.D.Willett"
_chemical_name_systematic
;
catena-(tris((S)-Trimethyl-(1-phenylethyl)ammonium) 
nonakis(\m~2~-oxalato)-bis(acetonitrile)-tri-chromium(iii)-tri-manganese(ii) 
acetonitrile solvate monohydrate)
;
_cell_volume   2066.325
_exptl_crystal_colour 'violet'
_exptl_special_details
;
magnetic properties.

;
_exptl_crystal_description 'prismatic'
_diffrn_ambient_temperature 180
_diffrn_special_details
;
rotational twin

;
_refine_special_details
;
Additional disordered solvent and water molecules have been removed using 
SQUEEZE/PLATON.
;
#These two values have been output from a single CSD field.
_refine_ls_R_factor_gt 0.0655
_refine_ls_wR_factor_gt 0.0655
_symmetry_cell_setting hexagonal
_symmetry_space_group_name_H-M 'P 3'
_symmetry_Int_Tables_number 143
loop_
_symmetry_equiv_pos_site_id
_symmetry_equiv_pos_as_xyz
1 x,y,z
2 -y,x-y,z
3 -x+y,-x,z
_cell_length_a 15.966(2)
_cell_length_b 15.966(2)
_cell_length_c 9.3600(19)
_cell_angle_alpha 90
_cell_angle_beta 90
_cell_angle_gamma 120
_cell_formula_units_Z 1
loop_
_atom_type_symbol
_atom_type_radius_bond
C 0.68
H 0.23
Cr 1.35
Mn 1.35
N 0.68
O 0.68
loop_
_atom_site_label
_atom_site_type_symbol
_atom_site_fract_x
_atom_site_fract_y
_atom_site_fract_z
Cr1 Cr 1.00466(10) 0.34206(9) 0.50405(15)
Mn1 Mn 1.00000 0.00000 0.53621(19)
Mn2 Mn 0.66670 0.33330 0.6732(2)
Mn3 Mn 1.33330 0.66670 0.3050(2)
O1 O 0.9822(4) 0.2447(4) 0.6497(6)
O2 O 1.0306(4) 0.2589(4) 0.3789(5)
O3 O 0.9876(5) 0.1077(4) 0.6704(6)
O4 O 1.0357(4) 0.1197(4) 0.3915(6)
O5 O 1.0427(4) 0.4421(4) 0.3501(6)
O6 O 1.1440(4) 0.4202(4) 0.5534(6)
O7 O 1.1751(4) 0.5658(4) 0.2561(6)
O8 O 1.2811(5) 0.5443(4) 0.4687(5)
O9 O 0.9644(4) 0.4118(4) 0.6392(5)
O10 O 0.8676(4) 0.2785(4) 0.4474(6)
O11 O 0.8302(4) 0.4043(5) 0.7214(6)
O12 O 0.7291(5) 0.2700(4) 0.5172(6)
C1 C 0.9952(6) 0.1756(6) 0.6028(9)
C2 C 1.0230(6) 0.1857(6) 0.4426(9)
C3 C 1.1319(6) 0.4992(6) 0.3444(8)
C4 C 1.1917(7) 0.4884(7) 0.4684(9)
C5 C 0.8745(7) 0.3788(6) 0.6400(8)
C6 C 0.8133(7) 0.3006(6) 0.5275(9)
C7 C 0.7787(8) 0.1669(7) 0.8761(11)
H1 H 0.76290 0.21730 0.88500
H2 H 0.72040 0.10510 0.87720
H3 H 0.81240 0.17450 0.78790
N1 N 0.8427(6) 0.1728(6) 1.0002(7)
C8 C 0.7893(8) 0.1693(8) 1.1321(11)
H4 H 0.79090 0.22980 1.14410
H5 H 0.81900 0.15780 1.21310
H6 H 0.72330 0.11800 1.12430
C9 C 0.9367(7) 0.2653(7) 0.9979(12)
H7 H 0.92500 0.31860 0.99310
H8 H 0.97340 0.26640 0.91590
H9 H 0.97240 0.27040 1.08320
C10 C 0.8654(7) 0.0867(7) 0.9856(11)
H10 H 0.89300 0.09100 0.89050
C11 C 0.9326(10) 0.0950(11) 1.085(2)
H11 H 0.96920 0.16090 1.11670
H12 H 0.97540 0.07620 1.04240
H13 H 0.90010 0.05380 1.16490
C12 C 0.7717(7) -0.0119(7) 0.9966(9)
C13 C 0.7296(8) -0.0550(7) 1.1173(11)
H14 H 0.75740 -0.02420 1.20300
C14 C 0.6423(8) -0.1477(8) 1.1218(12)
H15 H 0.61110 -0.17310 1.20810
C15 C 0.6062(9) -0.1977(8) 0.9980(15)
H16 H 0.55420 -0.26070 1.00010
C16 C 0.6482(8) -0.1533(8) 0.8661(13)
H17 H 0.62220 -0.18610 0.78090
C17 C 0.7261(9) -0.0631(9) 0.8636(11)
H18 H 0.75120 -0.03320 0.77630
N2 N 0.7902(9) 0.0431(8) 0.4962(12)
C18 C 0.7159(9) 0.0240(8) 0.4887(12)
C19 C 0.6115(10) -0.0053(13) 0.494(3)
H19 H 0.59300 -0.00430 0.59160
H20 H 0.57350 -0.06940 0.45640
H21 H 0.60080 0.03900 0.43860
N3 N 1.33330 0.66670 0.0582(11)
C20 C 1.33330 0.66670 -0.0500(14)
C21 C 1.33330 0.66670 -0.2172(16)
H22 H 1.30580 0.60150 -0.25140
H23 H 1.39850 0.70430 -0.25140
H24 H 1.29570 0.69420 -0.25140
N4 N 0.66670 0.33330 0.9285(12)
C22 C 0.66670 0.33330 1.0399(14)
C23 C 0.66670 0.33330 1.2113(16)
H25 H 0.64560 0.37650 1.24550
H26 H 0.73090 0.35440 1.24550
H27 H 0.62350 0.26910 1.24550
Cr1A Cr 0.65794(10) -0.33740(9) 0.50405(15)
Cr1B Cr 1.3374(1) -0.00466(9) 0.50405(15)
Mn2* Mn 0.66670 -0.66670 0.6732(2)
Mn2** Mn 1.66670 0.33330 0.6732(2)
Mn3* Mn 0.33330 -0.33330 0.3050(2)
Mn3** Mn 1.33330 -0.33330 0.3050(2)
O1A O 0.7553(4) -0.2625(4) 0.6497(6)
O1B O 1.2625(4) 0.0178(4) 0.6497(6)
O2A O 0.7411(4) -0.2283(4) 0.3789(5)
O2B O 1.2283(4) -0.0306(4) 0.3789(5)
O3A O 0.8923(5) -0.1201(4) 0.6704(6)
O3B O 1.1201(5) 0.0124(4) 0.6704(6)
O4A O 0.8803(4) -0.0840(4) 0.3915(6)
O4B O 1.0840(4) -0.0357(4) 0.3915(6)
O5A O 0.5579(4) -0.3994(4) 0.3501(6)
O5B O 1.3994(4) -0.0427(4) 0.3501(6)
O6A O 0.5798(4) -0.2762(4) 0.5534(6)
O6B O 1.2762(4) -0.1440(4) 0.5534(6)
O7A O 0.4342(4) -0.3907(4) 0.2561(6)
O7B O 1.3907(4) -0.1751(4) 0.2561(6)
O7A* O 1.4342(4) 0.6093(4) 0.2561(6)
O7B* O 1.3907(4) 0.8249(4) 0.2561(6)
O8A O 0.4557(5) -0.2632(4) 0.4687(5)
O8B O 1.2632(5) -0.2811(4) 0.4687(5)
O8A* O 1.4557(5) 0.7368(4) 0.4687(5)
O8B* O 1.2632(5) 0.7189(4) 0.4687(5)
O9A O 0.5882(4) -0.4474(4) 0.6392(5)
O9B O 1.4474(4) 0.0356(4) 0.6392(5)
O10A O 0.7215(4) -0.4109(4) 0.4474(6)
O10B O 1.4109(4) 0.1324(4) 0.4474(6)
O11A O 0.5957(4) -0.5741(5) 0.7214(6)
O11B O 1.5741(4) 0.1698(5) 0.7214(6)
O11A* O 0.5957(4) 0.4259(5) 0.7214(6)
O11B* O 0.5741(4) 0.1698(5) 0.7214(6)
O12A O 0.7300(5) -0.5409(4) 0.5172(6)
O12B O 1.5409(5) 0.2709(4) 0.5172(6)
O12A* O 0.7300(5) 0.4591(4) 0.5172(6)
O12B* O 0.5409(5) 0.2709(4) 0.5172(6)
C1A C 0.8244(6) -0.1804(6) 0.6028(9)
C1B C 1.1804(6) 0.0048(6) 0.6028(9)
C2A C 0.8143(6) -0.1627(6) 0.4426(9)
C2B C 1.1627(6) -0.0230(6) 0.4426(9)
C3A C 0.5008(6) -0.3673(6) 0.3444(8)
C3B C 1.3673(6) -0.1319(6) 0.3444(8)
C4A C 0.5116(7) -0.2967(7) 0.4684(9)
C4B C 1.2967(7) -0.1917(7) 0.4684(9)
C5A C 0.6212(7) -0.5043(6) 0.6400(8)
C5B C 1.5043(7) 0.1255(6) 0.6400(8)
C6A C 0.6994(7) -0.4873(6) 0.5275(9)
C6B C 1.4873(7) 0.1867(6) 0.5275(9)
#END
