
#######################################################################
#
#                 Cambridge Crystallographic Data Centre
#                                CCDC
#
#######################################################################
#
# If this CIF has been generated from an entry in the Cambridge
# Structural Database, then it will include bibliographic, chemical,
# crystal, experimental, refinement or atomic coordinate data resulting
# from the CCDC's data processing and validation procedures.
#
#######################################################################

data_CSD_CIF_OFOJIF
_audit_creation_date 2018-08-29
_audit_creation_method CSD-ConQuest-V1
_database_code_CSD OFOJIF
_database_code_depnum_ccdc_archive 'CCDC 1864582'
_chemical_formula_sum 'C58 H51 In2 N3 O17'
_chemical_formula_moiety
;
(C53 H36 In2 N1 O16 1-)n,n(C3 H7 N1 O1),n(C2 H8 N1 1+)
;
_journal_coden_Cambridge 1440
_journal_volume 10
_journal_year 2018
_journal_page_first 733
_journal_name_full 'ACS Applied Materials and Interfaces '
loop_
_publ_author_name
"P.T.K.Nguyen"
"H.T.D.Nguyen"
"H.N.Nguyen"
"C.A.Trickett"
"Q.T.Ton"
"E.Gutierrez-Puebla"
"M.Angeles Monge"
"K.E.Cordova"
"F.Gandara"
_chemical_name_systematic
;
catena-(dimethylammonium 
(\m-hexakis(4-carboxylatophenyl)benzene)-acetato-aqua-(dimethylformamide)-indi
um dimethylformamide solvate)
;
_chemical_name_common
;
MOF-894
;
_cell_volume   5397.195
_exptl_crystal_colour 'colorless'
_exptl_crystal_density_diffrn 1.581
_exptl_crystal_description 'block'
_diffrn_ambient_temperature 150
#These two values have been output from a single CSD field.
_refine_ls_R_factor_gt 0.0675
_refine_ls_wR_factor_gt 0.0675
_symmetry_cell_setting monoclinic
_symmetry_space_group_name_H-M 'P 21/c'
_symmetry_Int_Tables_number 14
loop_
_symmetry_equiv_pos_site_id
_symmetry_equiv_pos_as_xyz
1 x,y,z
2 -x,1/2+y,1/2-z
3 -x,-y,-z
4 x,-1/2-y,-1/2+z
_cell_length_a 12.666(3)
_cell_length_b 29.888(6)
_cell_length_c 15.424(3)
_cell_angle_alpha 90
_cell_angle_beta 112.43(3)
_cell_angle_gamma 90
_cell_formula_units_Z 4
loop_
_atom_type_symbol
_atom_type_radius_bond
C 0.68
H 0.23
In 1.42
N 0.68
O 0.68
loop_
_atom_site_label
_atom_site_type_symbol
_atom_site_fract_x
_atom_site_fract_y
_atom_site_fract_z
In1 In 0.54602(5) 0.31507(2) 0.99520(4)
In2 In 0.97844(5) 0.81952(2) 0.62358(5)
O1 O 0.5024(6) 0.2558(2) 0.4124(5)
O2 O 0.3711(6) 0.3295(2) 0.9083(5)
H1 H 0.35275 0.32057 0.84867
H2 H 0.35667 0.35894 0.90636
O3 O 0.6662(5) 0.2400(2) 0.5247(5)
O4 O 0.9966(6) 0.6169(2) 0.2039(5)
O5 O 0.5359(6) 0.3785(2) 0.0667(5)
O6 O 1.1470(5) 0.8038(2) 0.6194(5)
O7 O 0.8838(5) 0.6698(2) 0.2159(5)
O8 O 0.9251(7) 0.7554(2) 0.5730(5)
O9 O 0.6825(6) 0.3350(2) 0.1418(5)
O10 O 0.5848(6) 0.3460(2) 0.8888(5)
O11 O 1.1188(6) 0.7837(2) 0.7456(5)
O12 O 0.7531(7) 0.3686(2) 0.9920(5)
O13 O 0.4766(5) 0.2764(2) 1.0831(5)
O14 O 0.7565(6) 0.7612(2) 0.5850(6)
N1 N 0.3677(8) 0.2616(3) 1.1634(7)
O15 O 0.9646(7) 0.6451(2) 1.0002(5)
O16 O 0.7966(8) 0.6368(3) 1.0058(6)
C1 C 0.7242(8) 0.4559(3) 0.3783(7)
C2 C 0.6280(8) 0.3176(3) 0.4854(7)
C3 C 0.7156(7) 0.4561(3) 0.5360(7)
C4 C 0.7629(7) 0.5226(3) 0.6331(7)
C5 C 0.6821(8) 0.4082(3) 0.5202(6)
C6 C 0.7865(8) 0.5459(3) 0.7251(7)
C7 C 0.8028(8) 0.5957(3) 0.5722(7)
C8 C 0.8241(8) 0.6885(3) 0.5742(7)
C9 C 0.5551(8) 0.3498(3) 0.4249(7)
H3 H 0.49011 0.34144 0.37391
C10 C 0.8825(8) 0.6019(3) 0.2933(7)
C11 C 0.6868(8) 0.3979(3) 0.8370(7)
C12 C 0.8359(9) 0.5969(3) 0.8885(7)
C13 C 0.8060(8) 0.5493(3) 0.4091(7)
C14 C 0.7400(7) 0.4795(3) 0.4655(7)
C15 C 0.7295(7) 0.4778(3) 0.6207(6)
C16 C 0.5845(8) 0.3953(3) 0.4448(6)
H4 H 0.53728 0.41718 0.40651
C17 C 0.5969(8) 0.2684(3) 0.4719(7)
C18 C 0.7224(8) 0.6693(3) 0.5699(6)
H5 H 0.66163 0.68743 0.56750
C19 C 0.7728(7) 0.5245(3) 0.4790(7)
C20 C 0.6677(8) 0.4021(3) 0.2186(7)
C21 C 0.9235(9) 0.5849(3) 0.8575(7)
H6 H 0.99844 0.59368 0.89127
C22 C 0.7124(8) 0.4518(3) 0.6969(7)
C23 C 0.6064(8) 0.4318(3) 0.6841(7)
H7 H 0.54364 0.43644 0.62857
C24 C 0.5959(8) 0.4054(3) 0.7538(7)
H8 H 0.52572 0.39230 0.74435
C25 C 0.9411(8) 0.5627(3) 0.3362(7)
H9 H 1.00623 0.55392 0.32667
C26 C 0.9047(8) 0.6156(3) 0.5768(7)
H10 H 0.96577 0.59761 0.57938
C27 C 0.7247(8) 0.3302(3) 0.5580(6)
H11 H 0.77325 0.30843 0.59541
C28 C 0.7591(8) 0.3909(3) 0.2981(7)
H12 H 0.80209 0.36560 0.29883
C29 C 0.7814(7) 0.5461(3) 0.5622(7)
C30 C 0.6279(8) 0.3704(3) 0.1380(7)
C31 C 0.6082(8) 0.4421(3) 0.2159(7)
H13 H 0.54870 0.45039 0.16074
C32 C 0.7519(8) 0.3747(3) 0.5770(7)
H14 H 0.81742 0.38251 0.62805
C33 C 0.8970(8) 0.5599(3) 0.7769(7)
H15 H 0.95503 0.55222 0.75671
C34 C 0.9014(8) 0.5376(3) 0.3924(7)
H16 H 0.94063 0.51167 0.41994
C35 C 0.7444(8) 0.5876(3) 0.3637(6)
H17 H 0.67717 0.59535 0.37106
C36 C 0.7877(8) 0.4175(3) 0.3782(7)
H18 H 0.84970 0.40972 0.43216
C37 C 0.8041(8) 0.4441(3) 0.7829(7)
H19 H 0.87454 0.45722 0.79328
C38 C 0.7840(8) 0.6136(3) 0.3083(7)
H20 H 0.74438 0.63937 0.28050
C39 C 0.7113(8) 0.6234(3) 0.5692(6)
H21 H 0.64323 0.61067 0.56669
C40 C 0.7255(9) 0.5822(3) 0.8385(7)
H22 H 0.66764 0.58936 0.85926
C41 C 0.7925(8) 0.4181(3) 0.8512(7)
H23 H 0.85450 0.41375 0.90733
C42 C 0.6364(8) 0.4686(3) 0.2925(7)
H24 H 0.59783 0.49541 0.28882
C43 C 0.9233(8) 0.6313(3) 0.2379(7)
C44 C 0.9156(8) 0.6614(3) 0.5775(7)
H25 H 0.98357 0.67432 0.58006
C45 C 0.6771(9) 0.3692(3) 0.9133(7)
C46 C 0.7005(8) 0.5567(3) 0.7568(7)
H26 H 0.62621 0.54691 0.72367
C47 C 1.1824(9) 0.7852(4) 0.7001(8)
C48 C 0.3962(10) 0.2144(4) 1.1753(9)
H27 H 0.43134 0.20758 1.24098
H28 H 0.44814 0.20742 1.14541
H29 H 0.32782 0.19697 1.14744
C49 C 1.2943(9) 0.7618(4) 0.7332(8)
H30 H 1.28430 0.73223 0.70701
H31 H 1.32440 0.75984 0.80044
H32 H 1.34657 0.77819 0.71367
C50 C 0.2873(12) 0.2778(5) 1.2074(10)
H33 H 0.21610 0.26203 1.18050
H34 H 0.27422 0.30927 1.19614
H35 H 0.32027 0.27237 1.27378
C51 C 0.4070(8) 0.2879(3) 1.1168(7)
H36 H 0.38131 0.31737 1.10804
C52 C 0.8324(8) 0.7386(3) 0.5771(7)
C53 C 0.8617(11) 0.6280(3) 0.9671(8)
N2 N 0.8870(8) 0.2059(3) 0.5924(7)
H37 H 0.81928 0.21454 0.59122
H38 H 0.87471 0.18638 0.54592
C54 C 0.9472(9) 0.2457(4) 0.5746(8)
H39 H 0.90241 0.25823 0.51437
H40 H 1.02043 0.23685 0.57559
H41 H 0.95723 0.26777 0.62242
C55 C 0.9481(10) 0.1836(4) 0.6802(9)
H42 H 1.02071 0.17351 0.68172
H43 H 0.90446 0.15838 0.68633
H44 H 0.95963 0.20403 0.73102
O17 O 0.3060(12) 0.4135(4) 0.8965(10)
N3 N 0.292(3) 0.4882(11) 0.954(2)
C56 C 0.376(2) 0.5218(8) 1.0154(17)
C57 C 0.357(2) 0.4479(9) 0.9403(19)
C58 C 0.185(4) 0.5098(16) 0.920(3)
In1* In 0.54602(5) 0.31507(2) -0.00480(4)
In1C In 0.54602(5) 0.18493(2) 0.49520(4)
In2C In 0.97844(5) 0.68048(2) 0.12358(5)
In2C* In 0.97844(5) 0.68048(2) 1.12358(5)
O1C O 0.5024(6) 0.2442(2) 0.9124(5)
O3C O 0.6662(5) 0.2600(2) 1.0247(5)
O4C O 0.9966(6) 0.8831(2) 0.7039(5)
O5* O 0.5359(6) 0.3785(2) 1.0667(5)
O7C O 0.8838(5) 0.8302(2) 0.7159(5)
O9* O 0.6825(6) 0.3350(2) 1.1418(5)
O15C O 0.9646(7) 0.8549(2) 0.5002(5)
#END
