
#######################################################################
#
#                 Cambridge Crystallographic Data Centre
#                                CCDC
#
#######################################################################
#
# If this CIF has been generated from an entry in the Cambridge
# Structural Database, then it will include bibliographic, chemical,
# crystal, experimental, refinement or atomic coordinate data resulting
# from the CCDC's data processing and validation procedures.
#
#######################################################################

data_CSD_CIF_OFONIJ
_audit_creation_date 2018-08-29
_audit_creation_method CSD-ConQuest-V1
_database_code_CSD OFONIJ
_database_code_depnum_ccdc_archive 'CCDC 1853412'
_chemical_formula_sum 'C48 H58 Br1 Cu2 Gd1 N10 O14'
_chemical_formula_moiety
;
(C36 H24 Br1 Cu2 Gd1 N6 O12 2-)n,2n(C4 H9 N1 O1),2n(C2 H8 N1 1+)
;
_journal_coden_Cambridge 155
_journal_volume 483
_journal_year 2018
_journal_page_first 299
_journal_name_full 'Inorg.Chim.Acta '
loop_
_publ_author_name
"Gang Xiong"
"Dan Qi"
"Yongke He"
"Lixin You"
"Baoyi Ren"
"Yaguang Sun"
_chemical_name_systematic
;
catena-(bis(dimethylammonium) 
(\m-bromo)-hexakis(\m-isonicotinato)-di-copper(i)-gadolinium(iii) 
dimethylacetamide solvate)
;
_cell_volume   5592.506
_exptl_crystal_colour 'colorless'
_exptl_crystal_density_diffrn 1.619
_exptl_special_details
;
The temperature is reported as 566.1 K in the cif

;
_exptl_crystal_description 'Prism'
_diffrn_ambient_temperature 293
#These two values have been output from a single CSD field.
_refine_ls_R_factor_gt 0.0707
_refine_ls_wR_factor_gt 0.0707
_symmetry_cell_setting monoclinic
_symmetry_space_group_name_H-M 'I 2/a'
_symmetry_Int_Tables_number 15
loop_
_symmetry_equiv_pos_site_id
_symmetry_equiv_pos_as_xyz
1 x,y,z
2 1/2-x,y,-z
3 1/2+x,1/2+y,1/2+z
4 -x,1/2+y,1/2-z
5 -x,-y,-z
6 -1/2+x,-y,z
7 -1/2-x,-1/2-y,-1/2-z
8 x,-1/2-y,-1/2+z
_cell_length_a 18.95(3)
_cell_length_b 15.55(2)
_cell_length_c 19.36(3)
_cell_angle_alpha 90
_cell_angle_beta 101.39(3)
_cell_angle_gamma 90
_cell_formula_units_Z 4
loop_
_atom_type_symbol
_atom_type_radius_bond
C 0.68
H 0.23
Br 1.21
Cu 1.32
Gd 1.96
N 0.68
O 0.68
loop_
_atom_site_label
_atom_site_type_symbol
_atom_site_fract_x
_atom_site_fract_y
_atom_site_fract_z
Gd1 Gd 0.25000 0.59182(3) 0.00000
Br1 Br 0.50000 0.00000 0.00000
Cu1 Cu 0.42259(5) 0.07795(6) 0.08045(5)
O1 O 0.2206(3) -0.3003(3) 0.0692(3)
O2 O 0.1473(4) -0.2127(4) 0.1115(4)
O3 O 0.6938(3) 0.0430(4) 0.3832(3)
O4 O 0.6240(3) 0.1313(3) 0.4281(3)
O5 O 0.3292(3) 0.4953(3) -0.0328(3)
O6 O 0.4307(3) 0.4840(4) -0.0737(3)
N1 N 0.4137(3) 0.1985(3) 0.0444(3)
N2 N 0.3502(3) -0.0161(4) 0.0847(3)
N3 N 0.4911(3) 0.0843(4) 0.1778(3)
C1 C 0.6365(4) 0.0876(4) 0.3775(4)
C2 C 0.3280(4) -0.1679(5) 0.0883(4)
H1 H 0.34572 -0.22368 0.08883
C3 C 0.3991(4) 0.3686(4) -0.0058(4)
C4 C 0.2559(4) -0.1536(5) 0.0899(4)
C5 C 0.3862(4) 0.4566(5) -0.0395(4)
C6 C 0.4583(4) 0.3180(5) -0.0107(4)
H2 H 0.49487 0.34079 -0.03085
C7 C 0.4636(4) 0.2350(5) 0.0135(4)
H3 H 0.50348 0.20264 0.00829
C8 C 0.3498(4) 0.3322(5) 0.0299(4)
H4 H 0.31081 0.36452 0.03769
C9 C 0.3578(4) 0.2506(5) 0.0532(5)
H5 H 0.32351 0.22826 0.07659
C10 C 0.2030(4) -0.2278(5) 0.0898(4)
C11 C 0.2328(4) -0.0690(5) 0.0895(5)
H6 H 0.18507 -0.05651 0.09064
C12 C 0.3726(4) -0.0994(5) 0.0861(5)
H7 H 0.42071 -0.11025 0.08543
C13 C 0.2816(4) -0.0033(5) 0.0873(4)
H8 H 0.26526 0.05309 0.08768
C14 C 0.5854(4) 0.0881(4) 0.3082(4)
C15 C 0.5118(4) 0.1020(5) 0.3018(4)
H9 H 0.49306 0.11391 0.34164
C16 C 0.6086(4) 0.0764(6) 0.2462(4)
H10 H 0.65747 0.06917 0.24687
C17 C 0.5614(4) 0.0753(6) 0.1843(5)
H11 H 0.57952 0.06762 0.14346
C18 C 0.4669(4) 0.0981(5) 0.2371(4)
H12 H 0.41767 0.10540 0.23444
O7 O 0.2831(3) 0.1484(5) 0.1950(4)
N4 N 0.1712(4) 0.1473(5) 0.2141(5)
C19 C 0.2415(5) 0.1434(6) 0.2361(5)
C20 C 0.2707(6) 0.1341(7) 0.3141(5)
H13 H 0.32171 0.12475 0.32211
H14 H 0.24795 0.08608 0.33198
H15 H 0.26088 0.18561 0.33792
C21 C 0.1403(6) 0.1570(8) 0.1393(5)
H16 H 0.17787 0.15368 0.11267
H17 H 0.11673 0.21183 0.13142
H18 H 0.10592 0.11201 0.12467
C22 C 0.1201(7) 0.1516(9) 0.2620(8)
H19 H 0.09005 0.10134 0.25581
H20 H 0.09068 0.20201 0.25160
H21 H 0.14612 0.15420 0.30978
N5 N 0.3941(4) -0.1270(4) 0.3467(4)
H22 H 0.38229 -0.17274 0.36960
H23 H 0.40517 -0.08477 0.37798
C23 C 0.3296(6) -0.1015(7) 0.2940(6)
H24 H 0.34141 -0.05377 0.26696
H25 H 0.29173 -0.08524 0.31774
H26 H 0.31400 -0.14911 0.26315
C24 C 0.4590(5) -0.1494(7) 0.3186(6)
H27 H 0.47084 -0.10254 0.29062
H28 H 0.44961 -0.20003 0.28989
H29 H 0.49849 -0.16000 0.35699
Cu1A Cu 0.07741(5) 0.07795(6) -0.08045(5)
O1A O 0.2794(3) -0.3003(3) -0.0692(3)
O2A O 0.3527(4) -0.2127(4) -0.1115(4)
O3A O -0.1938(3) 0.0430(4) -0.3832(3)
O4A O -0.1240(3) 0.1313(3) -0.4281(3)
O5A O 0.1708(3) 0.4953(3) 0.0328(3)
O6A O 0.0693(3) 0.4840(4) 0.0737(3)
N1A N 0.0863(3) 0.1985(3) -0.0444(3)
N2A N 0.1498(3) -0.0161(4) -0.0847(3)
N3A N 0.0089(3) 0.0843(4) -0.1778(3)
C1A C -0.1365(4) 0.0876(4) -0.3775(4)
C2A C 0.1720(4) -0.1679(5) -0.0883(4)
H1A H 0.15428 -0.22368 -0.08883
C3A C 0.1009(4) 0.3686(4) 0.0058(4)
C4A C 0.2441(4) -0.1536(5) -0.0899(4)
C5A C 0.1138(4) 0.4566(5) 0.0395(4)
C6A C 0.0417(4) 0.3180(5) 0.0107(4)
H2A H 0.00513 0.34079 0.03085
C7A C 0.0364(4) 0.2350(5) -0.0135(4)
H3A H -0.00348 0.20264 -0.00829
C8A C 0.1502(4) 0.3322(5) -0.0299(4)
H4A H 0.18919 0.36452 -0.03769
C9A C 0.1422(4) 0.2506(5) -0.0532(5)
H5A H 0.17649 0.22826 -0.07659
C10A C 0.2970(4) -0.2278(5) -0.0898(4)
C11A C 0.2672(4) -0.0690(5) -0.0895(5)
H6A H 0.31493 -0.05651 -0.09064
C12A C 0.1274(4) -0.0994(5) -0.0861(5)
H7A H 0.07929 -0.11025 -0.08543
C13A C 0.2184(4) -0.0033(5) -0.0873(4)
H8A H 0.23474 0.05309 -0.08768
C14A C -0.0854(4) 0.0881(4) -0.3082(4)
C15A C -0.0118(4) 0.1020(5) -0.3018(4)
H9A H 0.00694 0.11391 -0.34164
C16A C -0.1086(4) 0.0764(6) -0.2462(4)
H10A H -0.15747 0.06917 -0.24687
C17A C -0.0614(4) 0.0753(6) -0.1843(5)
H11A H -0.07952 0.06762 -0.14346
C18A C 0.0331(4) 0.0981(5) -0.2371(4)
H12A H 0.08233 0.10540 -0.23444
Gd1* Gd 0.25000 -0.40818(3) 0.00000
Gd1B Gd -0.25000 0.09182(3) -0.50000
Gd1B* Gd 0.75000 0.09182(3) 0.50000
Br1A Br 0.00000 0.00000 0.00000
Cu1D Cu 0.57741(5) -0.07795(6) -0.08045(5)
O1* O 0.2206(3) 0.6997(3) 0.0692(3)
O1A* O 0.2794(3) 0.6997(3) -0.0692(3)
O3B O 0.1938(3) 0.5430(4) -0.1168(3)
O3C O 0.3062(3) 0.5430(4) 0.1168(3)
O4B O 0.1240(3) 0.6313(3) -0.0719(3)
O4C O 0.3760(3) 0.6313(3) 0.0719(3)
#END
