
#######################################################################
#
#                 Cambridge Crystallographic Data Centre
#                                CCDC
#
#######################################################################
#
# If this CIF has been generated from an entry in the Cambridge
# Structural Database, then it will include bibliographic, chemical,
# crystal, experimental, refinement or atomic coordinate data resulting
# from the CCDC's data processing and validation procedures.
#
#######################################################################

data_CSD_CIF_OFONEF
_audit_creation_date 2018-08-29
_audit_creation_method CSD-ConQuest-V1
_database_code_CSD OFONEF
_database_code_depnum_ccdc_archive 'CCDC 1853411'
_chemical_formula_sum 'C48 H58 Br1 Cu2 Eu1 N10 O14'
_chemical_formula_moiety
;
(C36 H24 Br1 Cu2 Eu1 N6 O12 2-)n,2n(C4 H9 N1 O1),2n(C2 H8 N1 1+)
;
_journal_coden_Cambridge 155
_journal_volume 483
_journal_year 2018
_journal_page_first 299
_journal_name_full 'Inorg.Chim.Acta '
loop_
_publ_author_name
"Gang Xiong"
"Dan Qi"
"Yongke He"
"Lixin You"
"Baoyi Ren"
"Yaguang Sun"
_chemical_name_systematic
;
catena-(bis(dimethylammonium) 
(\m-bromo)-hexakis(\m-isonicotinato)-di-copper(i)-europium(iii) 
dimethylacetamide solvate)
;
_cell_volume   5627.432
_exptl_crystal_colour 'colorless'
_exptl_crystal_density_diffrn 1.603
_exptl_crystal_description 'Prism'
_diffrn_ambient_temperature 293
#These two values have been output from a single CSD field.
_refine_ls_R_factor_gt 0.0544
_refine_ls_wR_factor_gt 0.0544
_symmetry_cell_setting monoclinic
_symmetry_space_group_name_H-M 'I 2/a'
_symmetry_Int_Tables_number 15
loop_
_symmetry_equiv_pos_site_id
_symmetry_equiv_pos_as_xyz
1 x,y,z
2 1/2-x,y,-z
3 1/2+x,1/2+y,1/2+z
4 -x,1/2+y,1/2-z
5 -x,-y,-z
6 -1/2+x,-y,z
7 -1/2-x,-1/2-y,-1/2-z
8 x,-1/2-y,-1/2+z
_cell_length_a 18.972(11)
_cell_length_b 15.530(8)
_cell_length_c 19.512(9)
_cell_angle_alpha 90
_cell_angle_beta 101.80(4)
_cell_angle_gamma 90
_cell_formula_units_Z 4
loop_
_atom_type_symbol
_atom_type_radius_bond
C 0.68
H 0.23
Br 1.21
Cu 1.32
Eu 1.98
N 0.68
O 0.68
loop_
_atom_site_label
_atom_site_type_symbol
_atom_site_fract_x
_atom_site_fract_y
_atom_site_fract_z
Eu1 Eu 0.25000 -0.90801(2) 0.50000
Cu1 Cu 0.07725(4) -0.42240(4) 0.41985(4)
Br1 Br 0.00000 -0.50000 0.50000
N1 N 0.1489(3) -0.5163(3) 0.4148(3)
N2 N 0.0094(3) -0.4159(3) 0.3222(3)
O1 O 0.2793(2) -0.7991(3) 0.4299(2)
C1 C -0.1366(3) -0.4129(4) 0.1220(3)
O2 O -0.1236(2) -0.3693(3) 0.0726(2)
O3 O -0.1928(2) -0.4588(3) 0.1174(2)
C2 C -0.0850(3) -0.4117(4) 0.1923(3)
C3 C 0.0357(3) -0.2641(4) 0.4855(3)
H1 H -0.00445 -0.29641 0.48989
C4 C 0.1132(3) -0.0435(4) 0.5391(3)
N3 N 0.0856(3) -0.3011(3) 0.4555(2)
C5 C 0.0405(3) -0.1804(4) 0.5104(3)
H2 H 0.00417 -0.15737 0.53038
C6 C 0.0331(3) -0.4027(5) 0.2632(3)
H3 H 0.08226 -0.39526 0.26619
O4 O 0.1698(2) -0.0048(3) 0.5325(2)
C7 C -0.0115(3) -0.3997(4) 0.1982(3)
H4 H 0.00738 -0.38961 0.15851
C8 C 0.2959(3) -0.7269(4) 0.4097(3)
C9 C 0.2442(3) -0.6527(4) 0.4103(3)
C10 C 0.1002(3) -0.1312(4) 0.5053(3)
O5 O 0.0696(3) -0.0165(3) 0.5739(3)
C11 C 0.1283(4) -0.5991(4) 0.4139(4)
H5 H 0.08010 -0.61027 0.41372
C12 C 0.1727(3) -0.6682(4) 0.4132(3)
H6 H 0.15548 -0.72413 0.41454
C13 C 0.1498(3) -0.1666(4) 0.4711(3)
H7 H 0.18886 -0.13392 0.46420
C14 C -0.1096(4) -0.4248(5) 0.2526(3)
H8 H -0.15844 -0.43350 0.25072
C15 C 0.1420(3) -0.2502(4) 0.4469(3)
H9 H 0.17633 -0.27280 0.42406
C16 C 0.2672(3) -0.5677(4) 0.4111(4)
H10 H 0.31498 -0.55518 0.41025
C17 C 0.2186(4) -0.5018(4) 0.4132(4)
H11 H 0.23465 -0.44518 0.41360
C18 C -0.0615(4) -0.4253(5) 0.3167(3)
H12 H -0.07942 -0.43231 0.35732
O6 O 0.3523(3) -0.7126(3) 0.3882(3)
N4 N 0.1065(3) -0.6270(3) 0.1534(3)
H13 H 0.11756 -0.67196 0.12931
H14 H 0.09511 -0.58340 0.12365
C19 C 0.0429(4) -0.6492(6) 0.1830(5)
H15 H 0.00262 -0.66076 0.14560
H16 H 0.03162 -0.60184 0.21047
H17 H 0.05337 -0.69931 0.21209
C20 C 0.1693(5) -0.6034(6) 0.2060(5)
H18 H 0.20774 -0.58697 0.18341
H19 H 0.18427 -0.65167 0.23623
H20 H 0.15754 -0.55596 0.23312
O7 O 0.2167(3) -0.3520(4) 0.3046(3)
N5 N 0.3290(3) -0.3518(4) 0.2855(4)
C21 C 0.2588(5) -0.3566(5) 0.2636(4)
C22 C 0.3590(5) -0.3419(7) 0.3599(5)
H21 H 0.38627 -0.28948 0.36761
H22 H 0.38999 -0.38986 0.37607
H23 H 0.32068 -0.33998 0.38525
C23 C 0.2304(5) -0.3660(6) 0.1859(4)
H24 H 0.17912 -0.37328 0.17699
H25 H 0.25211 -0.41528 0.16889
H26 H 0.24199 -0.31522 0.16231
C24 C 0.3789(5) -0.3473(7) 0.2373(6)
H27 H 0.35478 -0.36616 0.19167
H28 H 0.41961 -0.38385 0.25406
H29 H 0.39496 -0.28904 0.23466
Cu1A Cu 0.42275(4) -0.42240(4) 0.58015(4)
N1A N 0.3511(3) -0.5163(3) 0.5852(3)
N2A N 0.4906(3) -0.4159(3) 0.6778(3)
O1A O 0.2207(2) -0.7991(3) 0.5701(2)
C1A C 0.6366(3) -0.4129(4) 0.8780(3)
O2A O 0.6236(2) -0.3693(3) 0.9274(2)
O3A O 0.6928(2) -0.4588(3) 0.8826(2)
C2A C 0.5850(3) -0.4117(4) 0.8077(3)
C3A C 0.4643(3) -0.2641(4) 0.5145(3)
H1A H 0.50445 -0.29641 0.51011
C4A C 0.3868(3) -0.0435(4) 0.4609(3)
N3A N 0.4144(3) -0.3011(3) 0.5445(2)
C5A C 0.4595(3) -0.1804(4) 0.4896(3)
H2A H 0.49583 -0.15737 0.46962
C6A C 0.4669(3) -0.4027(5) 0.7368(3)
H3A H 0.41774 -0.39526 0.73381
O4A O 0.3302(2) -0.0048(3) 0.4675(2)
C7A C 0.5115(3) -0.3997(4) 0.8018(3)
H4A H 0.49262 -0.38961 0.84149
C8A C 0.2041(3) -0.7269(4) 0.5903(3)
C9A C 0.2558(3) -0.6527(4) 0.5897(3)
C10A C 0.3998(3) -0.1312(4) 0.4947(3)
O5A O 0.4304(3) -0.0165(3) 0.4261(3)
C11A C 0.3717(4) -0.5991(4) 0.5861(4)
H5A H 0.41990 -0.61027 0.58628
C12A C 0.3273(3) -0.6682(4) 0.5868(3)
H6A H 0.34452 -0.72413 0.58546
C13A C 0.3502(3) -0.1666(4) 0.5289(3)
H7A H 0.31114 -0.13392 0.53580
C14A C 0.6096(4) -0.4248(5) 0.7474(3)
H8A H 0.65844 -0.43350 0.74928
C15A C 0.3580(3) -0.2502(4) 0.5531(3)
H9A H 0.32367 -0.27280 0.57594
C16A C 0.2328(3) -0.5677(4) 0.5889(4)
H10A H 0.18502 -0.55518 0.58974
C17A C 0.2814(4) -0.5018(4) 0.5868(4)
H11A H 0.26535 -0.44518 0.58640
C18A C 0.5615(4) -0.4253(5) 0.6833(3)
H12A H 0.57942 -0.43231 0.64268
O6A O 0.1477(3) -0.7126(3) 0.6118(3)
Eu1* Eu 0.25000 0.09199(2) 0.50000
Eu1B Eu -0.25000 -0.40801(2) 0.00000
Eu1B* Eu 0.75000 -0.40801(2) 1.00000
Cu1D Cu -0.07725(4) -0.57760(4) 0.58015(4)
Br1A Br 0.50000 -0.50000 0.50000
O2B O 0.3764(2) -0.8693(3) 0.5726(2)
O2C O 0.1236(2) -0.8693(3) 0.4274(2)
O3B O 0.3072(2) -0.9588(3) 0.6174(2)
O3C O 0.1928(2) -0.9588(3) 0.3826(2)
O4* O 0.1698(2) -1.0048(3) 0.5325(2)
O4A* O 0.3302(2) -1.0048(3) 0.4675(2)
#END
