
#######################################################################
#
#                 Cambridge Crystallographic Data Centre
#                                CCDC
#
#######################################################################
#
# If this CIF has been generated from an entry in the Cambridge
# Structural Database, then it will include bibliographic, chemical,
# crystal, experimental, refinement or atomic coordinate data resulting
# from the CCDC's data processing and validation procedures.
#
#######################################################################

data_CSD_CIF_OFONAB
_audit_creation_date 2018-08-29
_audit_creation_method CSD-ConQuest-V1
_database_code_CSD OFONAB
_database_code_depnum_ccdc_archive 'CCDC 1853410'
_chemical_formula_sum 'C48 H58 Br1 Cu2 N10 O14 Sm1'
_chemical_formula_moiety
;
(C36 H24 Br1 Cu2 N6 O12 Sm1 2-)n,2n(C4 H9 N1 O1),2n(C2 H8 N1 1+)
;
_journal_coden_Cambridge 155
_journal_volume 483
_journal_year 2018
_journal_page_first 299
_journal_name_full 'Inorg.Chim.Acta '
loop_
_publ_author_name
"Gang Xiong"
"Dan Qi"
"Yongke He"
"Lixin You"
"Baoyi Ren"
"Yaguang Sun"
_chemical_name_systematic
;
catena-(bis(dimethylammonium) 
(\m-bromo)-hexakis(\m-isonicotinato)-di-copper(i)-samarium(iii) 
dimethylacetamide solvate)
;
_cell_volume   5663.229
_exptl_crystal_colour 'colorless'
_exptl_crystal_density_diffrn 1.591
_exptl_crystal_description 'Prism'
_diffrn_ambient_temperature 293
#These two values have been output from a single CSD field.
_refine_ls_R_factor_gt 0.0468
_refine_ls_wR_factor_gt 0.0468
_symmetry_cell_setting monoclinic
_symmetry_space_group_name_H-M 'I 2/a'
_symmetry_Int_Tables_number 15
loop_
_symmetry_equiv_pos_site_id
_symmetry_equiv_pos_as_xyz
1 x,y,z
2 1/2-x,y,-z
3 1/2+x,1/2+y,1/2+z
4 -x,1/2+y,1/2-z
5 -x,-y,-z
6 -1/2+x,-y,z
7 -1/2-x,-1/2-y,-1/2-z
8 x,-1/2-y,-1/2+z
_cell_length_a 18.971(3)
_cell_length_b 15.5933(16)
_cell_length_c 19.549(3)
_cell_angle_alpha 90
_cell_angle_beta 101.681(13)
_cell_angle_gamma 90
_cell_formula_units_Z 4
loop_
_atom_type_symbol
_atom_type_radius_bond
C 0.68
H 0.23
Br 1.21
Cu 1.32
N 0.68
O 0.68
Sm 1.98
loop_
_atom_site_label
_atom_site_type_symbol
_atom_site_fract_x
_atom_site_fract_y
_atom_site_fract_z
Sm1 Sm -0.25000 -0.40773(4) 0.00000
Br1 Br 0.00000 0.00000 0.00000
Cu1 Cu -0.07696(7) 0.07790(7) 0.07959(6)
O1 O -0.2795(3) -0.2985(3) 0.0705(3)
O2 O -0.1695(4) 0.4956(4) -0.0329(3)
O3 O 0.1225(3) 0.1311(4) 0.4266(3)
O4 O -0.0695(4) 0.4835(4) -0.0743(3)
O5 O -0.3517(4) -0.2119(4) 0.1133(4)
O6 O 0.1927(4) 0.0414(4) 0.3823(3)
N1 N -0.1499(4) -0.0154(4) 0.0848(4)
N2 N -0.0106(4) 0.0847(4) 0.1775(3)
N3 N -0.0859(4) 0.1990(4) 0.0440(4)
C1 C 0.0116(5) 0.1009(6) 0.3009(5)
H1 H -0.00747 0.11125 0.34041
C2 C -0.1496(5) 0.3338(6) 0.0284(5)
H2 H -0.18864 0.36624 0.03555
C3 C -0.1411(6) 0.2497(6) 0.0524(5)
H3 H -0.17536 0.22727 0.07543
C4 C -0.2971(6) -0.2262(6) 0.0904(5)
C5 C 0.0611(7) 0.0747(7) 0.1840(5)
H4 H 0.07926 0.06729 0.14366
C6 C 0.1374(5) 0.0872(5) 0.3776(4)
C7 C -0.1125(6) 0.4571(5) -0.0397(5)
C8 C -0.2667(5) -0.0680(5) 0.0899(5)
H5 H -0.31426 -0.05583 0.09202
C9 C -0.1268(5) -0.0980(5) 0.0857(5)
H6 H -0.07882 -0.10825 0.08448
C10 C -0.2434(5) -0.1528(5) 0.0899(4)
C11 C -0.0362(5) 0.2354(5) 0.0139(4)
H7 H 0.00391 0.20327 0.00962
C12 C -0.0338(5) 0.0981(6) 0.2356(5)
H8 H -0.08284 0.10596 0.23287
C13 C -0.2186(5) -0.0022(6) 0.0869(5)
H9 H -0.23514 0.05404 0.08629
C14 C -0.0415(5) 0.3191(5) -0.0114(4)
H10 H -0.00541 0.34139 -0.03212
C15 C -0.0998(5) 0.3689(5) -0.0060(4)
C16 C 0.1087(5) 0.0749(7) 0.2473(5)
H11 H 0.15745 0.06576 0.24914
C17 C 0.0839(5) 0.0887(5) 0.3078(4)
C18 C -0.1711(5) -0.1667(6) 0.0882(5)
H12 H -0.15311 -0.22221 0.08885
O7 O -0.2167(4) 0.1487(5) 0.1949(4)
N4 N -0.3287(6) 0.1472(6) 0.2151(5)
C19 C -0.3600(7) 0.1575(8) 0.1396(6)
H13 H -0.37845 0.10334 0.12052
H14 H -0.32345 0.17707 0.11583
H15 H -0.39839 0.19865 0.13369
C20 C -0.3794(6) 0.1533(8) 0.2622(6)
H16 H -0.42651 0.13649 0.23776
H17 H -0.38095 0.21129 0.27828
H18 H -0.36416 0.11598 0.30150
C21 C -0.2582(6) 0.1436(6) 0.2364(6)
C22 C -0.2303(6) 0.1340(7) 0.3149(5)
H19 H -0.17918 0.12502 0.32404
H20 H -0.25324 0.08574 0.33175
H21 H -0.24092 0.18507 0.33823
N5 N 0.1068(5) 0.3726(5) 0.1536(4)
H22 H 0.11825 0.32712 0.13059
H23 H 0.09545 0.41513 0.12303
C23 C 0.1702(6) 0.3981(8) 0.2068(6)
H24 H 0.20893 0.41327 0.18426
H25 H 0.18477 0.35118 0.23826
H26 H 0.15806 0.44655 0.23249
C24 C 0.0430(6) 0.3514(7) 0.1832(6)
H27 H 0.00496 0.33126 0.14673
H28 H 0.02733 0.40178 0.20417
H29 H 0.05545 0.30758 0.21806
Cu1A Cu -0.42304(7) 0.07790(7) -0.07959(6)
O1A O -0.2205(3) -0.2985(3) -0.0705(3)
O2A O -0.3305(4) 0.4956(4) 0.0329(3)
O3A O -0.6225(3) 0.1311(4) -0.4266(3)
O4A O -0.4305(4) 0.4835(4) 0.0743(3)
O5A O -0.1483(4) -0.2119(4) -0.1133(4)
O6A O -0.6927(4) 0.0414(4) -0.3823(3)
N1A N -0.3501(4) -0.0154(4) -0.0848(4)
N2A N -0.4894(4) 0.0847(4) -0.1775(3)
N3A N -0.4141(4) 0.1990(4) -0.0440(4)
C1A C -0.5116(5) 0.1009(6) -0.3009(5)
H1A H -0.49253 0.11125 -0.34041
C2A C -0.3504(5) 0.3338(6) -0.0284(5)
H2A H -0.31136 0.36624 -0.03555
C3A C -0.3589(6) 0.2497(6) -0.0524(5)
H3A H -0.32464 0.22727 -0.07543
C4A C -0.2029(6) -0.2262(6) -0.0904(5)
C5A C -0.5611(7) 0.0747(7) -0.1840(5)
H4A H -0.57926 0.06729 -0.14366
C6A C -0.6374(5) 0.0872(5) -0.3776(4)
C7A C -0.3875(6) 0.4571(5) 0.0397(5)
C8A C -0.2333(5) -0.0680(5) -0.0899(5)
H5A H -0.18574 -0.05583 -0.09202
C9A C -0.3732(5) -0.0980(5) -0.0857(5)
H6A H -0.42118 -0.10825 -0.08448
C10A C -0.2566(5) -0.1528(5) -0.0899(4)
C11A C -0.4638(5) 0.2354(5) -0.0139(4)
H7A H -0.50391 0.20327 -0.00962
C12A C -0.4662(5) 0.0981(6) -0.2356(5)
H8A H -0.41716 0.10596 -0.23287
C13A C -0.2814(5) -0.0022(6) -0.0869(5)
H9A H -0.26486 0.05404 -0.08629
C14A C -0.4585(5) 0.3191(5) 0.0114(4)
H10A H -0.49460 0.34139 0.03212
C15A C -0.4002(5) 0.3689(5) 0.0060(4)
C16A C -0.6087(5) 0.0749(7) -0.2473(5)
H11A H -0.65745 0.06576 -0.24914
C17A C -0.5839(5) 0.0887(5) -0.3078(4)
C18A C -0.3289(5) -0.1667(6) -0.0882(5)
H12A H -0.34689 -0.22221 -0.08885
Sm1* Sm -0.25000 0.59227(4) 0.00000
Sm1B Sm -0.75000 0.09227(4) -0.50000
Sm1B* Sm 0.25000 0.09227(4) 0.50000
Br1A Br -0.50000 0.00000 0.00000
Cu1D Cu 0.07696(7) -0.07790(7) -0.07959(6)
O2* O -0.1695(4) -0.5044(4) -0.0329(3)
O2A* O -0.3305(4) -0.5044(4) 0.0329(3)
O3B O -0.3775(3) -0.3689(4) -0.0734(3)
O3C O -0.1225(3) -0.3689(4) 0.0734(3)
O6B O -0.3073(4) -0.4586(4) -0.1177(3)
O6C O -0.1927(4) -0.4586(4) 0.1177(3)
#END
