
#######################################################################
#
#                 Cambridge Crystallographic Data Centre
#                                CCDC
#
#######################################################################
#
# If this CIF has been generated from an entry in the Cambridge
# Structural Database, then it will include bibliographic, chemical,
# crystal, experimental, refinement or atomic coordinate data resulting
# from the CCDC's data processing and validation procedures.
#
#######################################################################

data_CSD_CIF_OFOTUB
_audit_creation_date 2018-08-29
_audit_creation_method CSD-ConQuest-V1
_database_code_CSD OFOTUB
_database_code_depnum_ccdc_archive 'CCDC 1585264'
_chemical_formula_sum 'C146 H154 Cu4 N26 O56 Si1 W12'
_chemical_formula_moiety
;
(C140 H128 Cu4 N24 O8 4+)n,O40 Si1 W12 4-,6(H2 O1),2(C3 H7 N1 O1)
;
_journal_coden_Cambridge 1440
_journal_volume 10
_journal_year 2018
_journal_page_first 2628
_journal_name_full 'ACS Applied Materials and Interfaces '
loop_
_publ_author_name
"Bing-Bing Lu"
"Jin Yang"
"Guang-Bo Che"
"Wen-Yuan Pei"
"Jian-Fang Ma"
_chemical_name_systematic
;
catena-[(\m-2,8,14,20-tetraphenyl-4,6,10,12,16,18,22,24-octakis(3-(2-phenyl-1H
-imidazol-1-yl)propoxy)calix(4)arene)-tetra-copper(i) 
tetracosakis(\m-oxo)-(\m-silicato)-dodecaoxo-dodeca-tungsten 
N,N-dimethylformamide solvate hexahydrate]
;
_chemical_name_common
;
catena-[(mu-2,8,14,20-tetraphenyl-4,6,10,12,16,18,22,24-octakis(3-(2-phenyl-1H
-imidazol-1-yl)propoxy)calix(4)resorcinarene)-tetra-copper(i) 
tetracosakis(mu-oxo)-(mu-silicato)-dodecaoxo-dodeca-tungsten 
N,N-dimethylformamide solvate hexahydrate]
;
_cell_volume   3870.771
_exptl_crystal_colour 'yellow'
_exptl_crystal_density_diffrn 2.427
_exptl_crystal_description 'block'
_diffrn_ambient_temperature 293
_refine_special_details
;
O19,O20,O21,O22 disordered by symmetry over two configurations with occupancy 
0.5; Disordered waqter and N,N-dimethylformamide solvent molecules were not 
modelled and the disordered density was taken into account using the 
SQUEEZE/PLATON procedure.
;
#These two values have been output from a single CSD field.
_refine_ls_R_factor_gt 0.0691
_refine_ls_wR_factor_gt 0.0691
_symmetry_cell_setting triclinic
_symmetry_space_group_name_H-M 'P -1'
_symmetry_Int_Tables_number 2
loop_
_symmetry_equiv_pos_site_id
_symmetry_equiv_pos_as_xyz
1 x,y,z
2 -x,-y,-z
_cell_length_a 14.285
_cell_length_b 16.578
_cell_length_c 17.357
_cell_angle_alpha 95.26
_cell_angle_beta 105.9
_cell_angle_gamma 98.58
_cell_formula_units_Z 1
loop_
_atom_type_symbol
_atom_type_radius_bond
C 0.68
H 0.23
Cu 1.32
N 0.68
O 0.68
Si 1.20
W 1.62
loop_
_atom_site_label
_atom_site_type_symbol
_atom_site_fract_x
_atom_site_fract_y
_atom_site_fract_z
Si1 Si 1.00000 0.50000 1.00000
W1 W 1.14461(5) 0.46326(4) 0.87026(4)
W2 W 0.92318(4) 0.32523(3) 0.84992(4)
W3 W 0.91497(4) 0.52404(4) 0.79486(3)
W4 W 1.23449(4) 0.44656(4) 1.07759(4)
W5 W 1.01734(4) 0.30139(3) 1.05450(3)
W6 W 0.78285(4) 0.35811(3) 0.98549(3)
O1 O 0.8734(9) 0.5383(7) 0.6973(6)
O2 O 0.8812(9) 0.4087(7) 0.7884(9)
O3 O 1.0549(9) 0.3658(7) 0.8467(9)
O4 O 1.2139(8) 0.4467(6) 0.8078(6)
O5 O 1.0460(8) 0.5140(6) 0.8047(9)
O6 O 0.7991(9) 0.5283(8) 0.8275(8)
O7 O 0.8138(8) 0.3230(8) 0.8889(6)
O8 O 0.9872(7) 0.2789(8) 0.9416(6)
O9 O 1.2167(12) 0.4261(6) 0.9626(6)
O10 O 0.7297(12) 0.4417(7) 0.9278(6)
O11 O 0.6798(7) 0.2907(7) 0.9769(6)
O12 O 0.8801(7) 0.3014(8) 1.0413(6)
O13 O 1.0402(8) 0.3690(8) 1.1578(7)
O14 O 1.0248(8) 0.2070(6) 1.0799(7)
O15 O 1.3455(8) 0.4199(7) 1.1130(7)
O16 O 1.1505(8) 0.3432(8) 1.0617(7)
O17 O 0.8871(10) 0.2420(7) 0.7788(6)
O18 O 0.7951(12) 0.4282(6) 1.0817(6)
O19 O 1.0651(10) 0.4462(9) 1.0610(9)
O20 O 0.8860(11) 0.4878(9) 1.0057(9)
O21 O 0.9954(12) 0.4650(9) 0.9065(10)
O22 O 1.0456(12) 0.5936(10) 1.0189(9)
Cu1 Cu 1.45569(16) -0.01798(13) 0.91026(13)
Cu2 Cu 1.4670(2) -0.42052(18) 0.52591(19)
C1 C 0.8548(9) 0.0579(7) 0.5319(8)
H1 H 0.80640 0.02910 0.48630
C2 C 0.9114(10) 0.1272(8) 0.5223(8)
C3 C 0.9826(11) 0.1705(9) 0.5912(9)
C4 C 0.9941(11) 0.1432(9) 0.6662(8)
H2 H 1.04100 0.17300 0.71210
C5 C 0.9353(10) 0.0717(9) 0.6715(8)
C6 C 0.8629(10) 0.0269(9) 0.6033(8)
C7 C 0.8057(10) -0.0570(8) 0.6118(9)
H3 H 0.79130 -0.04920 0.66370
C8 C 0.878(1) -0.1189(8) 0.6208(8)
C9 C 0.8756(11) -0.1754(9) 0.6766(9)
C10 C 0.9449(13) -0.2256(9) 0.6925(9)
H4 H 0.94370 -0.26220 0.73000
C11 C 1.0170(11) -0.2215(9) 0.6523(8)
C12 C 1.0185(11) -0.1687(8) 0.5944(8)
C13 C 0.9497(11) -0.1178(9) 0.5831(9)
H5 H 0.95240 -0.08000 0.54700
C14 C 1.1238(13) -0.2917(11) 0.7465(9)
H6 H 1.07550 -0.33580 0.75380
H7 H 1.13440 -0.24550 0.78840
C15 C 1.2182(14) -0.3201(12) 0.7488(10)
H8 H 1.24910 -0.33160 0.80280
H9 H 1.26300 -0.27700 0.73590
C16 C 1.1991(13) -0.3957(11) 0.6895(12)
H10 H 1.15150 -0.38950 0.63960
H11 H 1.17090 -0.44250 0.71080
C17 C 1.3739(15) -0.4320(12) 0.7287(13)
H12 H 1.37940 -0.44290 0.78120
C18 C 1.4429(16) -0.4316(12) 0.6877(14)
H13 H 1.50500 -0.44510 0.70840
C19 C 1.3189(16) -0.3992(12) 0.6068(9)
C20 C 1.2638(18) -0.3720(17) 0.5385(11)
C21 C 1.1686(19) -0.4159(12) 0.5016(12)
H14 H 1.14400 -0.46060 0.52360
C22 C 1.1102(15) -0.3931(14) 0.4318(13)
H15 H 1.04650 -0.42240 0.40710
C23 C 1.147(2) -0.3264(15) 0.3989(11)
H16 H 1.10790 -0.31110 0.35220
C24 C 1.242(2) -0.2825(13) 0.4358(17)
H17 H 1.26680 -0.23790 0.41380
N1 N 1.3006(16) -0.3053(17) 0.5056(17)
C25 C 0.760(2) -0.2510(13) 0.7248(19)
H18 H 0.80350 -0.27510 0.76570
H19 H 0.74070 -0.28740 0.67400
C26 C 0.667(2) -0.2372(14) 0.7504(16)
H20 H 0.63630 -0.19530 0.72250
H21 H 0.61820 -0.28790 0.73790
C27 C 0.7037(15) -0.2096(12) 0.8408(14)
H22 H 0.75460 -0.16060 0.85330
H23 H 0.73130 -0.25260 0.86870
C28 C 0.5516(15) -0.2471(11) 0.8877(13)
H24 H 0.55670 -0.30210 0.89080
C29 C 0.4800(13) -0.2113(11) 0.9037(14)
H25 H 0.42520 -0.23670 0.91730
C30 C 0.5824(11) -0.1207(10) 0.8704(10)
C31 C 0.6244(12) -0.0381(9) 0.8562(9)
C32 C 0.7013(13) -0.0209(11) 0.8235(10)
H26 H 0.73250 -0.06270 0.80900
C33 C 0.7321(14) 0.0598(11) 0.8121(13)
H27 H 0.78300 0.07190 0.78880
C34 C 0.6877(15) 0.1202(12) 0.8351(13)
H28 H 0.70750 0.17440 0.82820
C35 C 0.6129(13) 0.0998(10) 0.8686(12)
H29 H 0.58380 0.14200 0.88580
C36 C 1.0241(12) 0.0719(12) 0.8097(9)
H30 H 1.02560 0.12910 0.82870
H31 H 1.08450 0.06740 0.79560
C37 C 1.0113(13) 0.0172(16) 0.8732(11)
H32 H 1.00100 -0.03970 0.84890
H33 H 0.95140 0.02520 0.88660
C38 C 1.0959(13) 0.0299(16) 0.9525(11)
H34 H 1.11420 0.08810 0.97380
H35 H 1.07360 0.00090 0.99210
C39 C 1.1914(16) -0.0833(16) 0.9412(12)
H36 H 1.14300 -0.12480 0.94670
C40 C 1.2777(18) -0.0922(13) 0.9338(12)
H37 H 1.30190 -0.14130 0.93470
C41 C 1.2707(11) 0.0351(10) 0.9274(9)
C42 C 1.2911(14) 0.1203(13) 0.9157(10)
C43 C 1.2369(15) 0.1733(10) 0.9073(13)
H38 H 1.17110 0.15160 0.90180
C44 C 1.251(3) 0.246(2) 0.9046(19)
H39 H 1.20950 0.27820 0.92000
C45 C 1.323(3) 0.2781(15) 0.8802(17)
H40 H 1.32340 0.32800 0.85950
C46 C 1.395(3) 0.2392(17) 0.885(3)
H41 H 1.45380 0.26430 0.87740
C47 C 1.1125(14) 0.2872(10) 0.6491(11)
H42 H 1.15390 0.25120 0.67680
H43 H 1.08300 0.31310 0.68680
C48 C 1.1740(14) 0.3527(11) 0.6179(11)
H44 H 1.13210 0.38760 0.58870
H45 H 1.22460 0.38700 0.66280
C49 C 1.2217(13) 0.3092(9) 0.5621(11)
H46 H 1.26750 0.27840 0.59340
H47 H 1.17070 0.27010 0.52150
C50 C 1.2337(13) 0.3958(10) 0.4513(10)
H48 H 1.16620 0.39090 0.42650
C51 C 1.3038(14) 0.4327(11) 0.4251(11)
H49 H 1.29470 0.45970 0.37960
C52 C 1.3757(11) 0.3865(10) 0.5374(10)
C53 C 1.4535(13) 0.3741(9) 0.6044(10)
C54 C 1.4487(13) 0.3608(12) 0.6806(10)
H50 H 1.38710 0.35420 0.69000
C55 C 1.5304(18) 0.3569(15) 0.7436(13)
H51 H 1.52550 0.34770 0.79450
C56 C 1.6180(15) 0.3673(13) 0.7271(14)
H52 H 1.67530 0.36370 0.76710
C57 C 1.6238(15) 0.3836(12) 0.6492(12)
H53 H 1.68510 0.39170 0.63930
C58 C 0.8945(12) 0.1621(10) 0.4409(8)
H54 H 0.88110 0.21790 0.45020
C59 C 0.800(1) 0.1095(11) 0.3765(8)
C60 C 0.7056(13) 0.1276(11) 0.365(1)
H55 H 0.69710 0.17630 0.39110
C61 C 0.6240(9) 0.0729(15) 0.3143(11)
H56 H 0.56080 0.08500 0.30660
C62 C 0.6367(13) 0.0001(14) 0.2752(10)
H57 H 0.58210 -0.03650 0.24140
C63 C 0.7311(17) -0.0179(12) 0.2868(11)
H58 H 0.73970 -0.06660 0.26060
C64 C 0.8128(11) 0.0368(13) 0.3374(10)
H59 H 0.87590 0.02470 0.34510
C65 C 0.7106(13) -0.0841(10) 0.5509(11)
C66 C 0.6236(16) -0.0767(19) 0.5660(16)
H60 H 0.62550 -0.05410 0.61760
C67 C 0.531(2) -0.101(2) 0.508(3)
H61 H 0.47380 -0.09390 0.52060
C68 C 0.527(2) -0.137(2) 0.430(3)
H62 H 0.46520 -0.15600 0.39220
C69 C 0.608(2) -0.1443(16) 0.4087(17)
H63 H 0.60530 -0.16450 0.35620
C70 C 0.7049(16) -0.1186(10) 0.4739(16)
H64 H 0.76300 -0.12610 0.46210
N2 N 1.2929(11) -0.4121(8) 0.6723(8)
N3 N 1.4108(13) -0.4095(9) 0.6138(11)
N4 N 0.6148(11) -0.1916(9) 0.8665(8)
N5 N 0.5035(10) -0.1276(8) 0.8962(9)
N6 N 0.5782(9) 0.0210(9) 0.8786(8)
N7 N 1.1846(10) -0.0009(12) 0.9395(8)
N8 N 1.3264(10) -0.0196(8) 0.9247(8)
N9 N 1.383(3) 0.1499(18) 0.905(2)
N10 N 1.2752(10) 0.3656(8) 0.5212(8)
N11 N 1.3935(10) 0.4248(9) 0.4762(8)
N12 N 1.5437(11) 0.3874(8) 0.5908(9)
O23 O 1.0371(8) 0.2413(6) 0.5809(6)
O24 O 0.9400(7) 0.0409(7) 0.7433(5)
O25 O 0.8047(8) -0.1744(7) 0.7169(7)
O26 O 1.0914(8) -0.2674(7) 0.6677(6)
O19A O 0.9349(10) 0.5538(9) 0.9390(9)
O20A O 1.1140(11) 0.5122(9) 0.9943(9)
O21A O 1.0046(12) 0.5350(9) 1.0935(10)
O22A O 0.9544(12) 0.4064(10) 0.9811(9)
W1A W 0.85539(5) 0.53674(4) 1.12974(4)
W2A W 1.07682(4) 0.67477(3) 1.15008(4)
W3A W 1.08503(4) 0.47596(4) 1.20514(3)
W4A W 0.76551(4) 0.55344(4) 0.92241(4)
W5A W 0.98266(4) 0.69861(3) 0.94550(3)
W6A W 1.21715(4) 0.64189(3) 1.01451(3)
O1A O 1.1266(9) 0.4617(7) 1.3027(6)
O2A O 1.1188(9) 0.5913(7) 1.2116(9)
O3A O 0.9451(9) 0.6342(7) 1.1533(9)
O4A O 0.7861(8) 0.5533(6) 1.1922(6)
O5A O 0.9540(8) 0.4860(6) 1.1953(9)
O6A O 1.2009(9) 0.4717(8) 1.1725(8)
O7A O 1.1862(8) 0.6770(8) 1.1111(6)
O8A O 1.0128(7) 0.7211(8) 1.0584(6)
O9A O 0.7833(12) 0.5739(6) 1.0374(6)
O10A O 1.2703(12) 0.5583(7) 1.0722(6)
O11A O 1.3202(7) 0.7093(7) 1.0231(6)
O12A O 1.1199(7) 0.6986(8) 0.9587(6)
O13A O 0.9598(8) 0.6310(8) 0.8422(7)
O14A O 0.9752(8) 0.7930(6) 0.9201(7)
O15A O 0.6545(8) 0.5801(7) 0.8870(7)
O16A O 0.8495(8) 0.6568(8) 0.9383(7)
O17A O 1.1129(10) 0.7580(7) 1.2212(6)
O18A O 1.2049(12) 0.5718(6) 0.9183(6)
C1A C 1.1452(9) -0.0579(7) 0.4681(8)
H1A H 1.19360 -0.02910 0.51370
C2A C 1.0886(10) -0.1272(8) 0.4777(8)
C3A C 1.0174(11) -0.1705(9) 0.4088(9)
C4A C 1.0059(11) -0.1432(9) 0.3338(8)
H2A H 0.95900 -0.17300 0.28790
C5A C 1.0647(10) -0.0717(9) 0.3285(8)
C6A C 1.1371(10) -0.0269(9) 0.3967(8)
C7A C 1.1943(10) 0.0570(8) 0.3882(9)
H3A H 1.20870 0.04920 0.33630
C8A C 1.122(1) 0.1189(8) 0.3792(8)
C9A C 1.1244(11) 0.1754(9) 0.3234(9)
C10A C 1.0551(13) 0.2256(9) 0.3075(9)
H4A H 1.05630 0.26220 0.27000
C11A C 0.9830(11) 0.2215(9) 0.3477(8)
C12A C 0.9815(11) 0.1687(8) 0.4056(8)
C13A C 1.0503(11) 0.1178(9) 0.4169(9)
H5A H 1.04760 0.08000 0.45300
C14A C 0.8762(13) 0.2917(11) 0.2535(9)
H6A H 0.92450 0.33580 0.24620
H7A H 0.86560 0.24550 0.21160
C15A C 0.7818(14) 0.3201(12) 0.2512(10)
H8A H 0.75090 0.33160 0.19720
H9A H 0.73700 0.27700 0.26410
C16A C 0.8009(13) 0.3957(11) 0.3105(12)
H10A H 0.84850 0.38950 0.36040
H11A H 0.82910 0.44250 0.28920
C17A C 0.6261(15) 0.4320(12) 0.2713(13)
H12A H 0.62060 0.44290 0.21880
C18A C 0.5571(16) 0.4316(12) 0.3123(14)
H13A H 0.49500 0.44510 0.29160
C19A C 0.6811(16) 0.3992(12) 0.3932(9)
C20A C 0.7362(18) 0.3720(17) 0.4615(11)
C21A C 0.8314(19) 0.4159(12) 0.4984(12)
H14A H 0.85600 0.46060 0.47640
C22A C 0.8898(15) 0.3931(14) 0.5682(13)
H15A H 0.95350 0.42240 0.59290
C23A C 0.853(2) 0.3264(15) 0.6011(11)
H16A H 0.89210 0.31110 0.64780
C24A C 0.758(2) 0.2825(13) 0.5642(17)
H17A H 0.73320 0.23790 0.58620
N1A N 0.6994(16) 0.3053(17) 0.4944(17)
C25A C 1.240(2) 0.2510(13) 0.2752(19)
H18A H 1.19650 0.27510 0.23430
H19A H 1.25930 0.28740 0.32600
C26A C 1.333(2) 0.2372(14) 0.2496(16)
H20A H 1.36370 0.19530 0.27750
H21A H 1.38180 0.28790 0.26210
C27A C 1.2963(15) 0.2096(12) 0.1592(14)
H22A H 1.24540 0.16060 0.14670
H23A H 1.26870 0.25260 0.13130
C28A C 1.4484(15) 0.2471(11) 0.1123(13)
H24A H 1.44330 0.30210 0.10920
C29A C 1.5200(13) 0.2113(11) 0.0963(14)
H25A H 1.57480 0.23670 0.08270
C30A C 1.4176(11) 0.1207(10) 0.1296(10)
C31A C 1.3756(12) 0.0381(9) 0.1438(9)
C32A C 1.2987(13) 0.0209(11) 0.1765(10)
H26A H 1.26750 0.06270 0.19100
C33A C 1.2679(14) -0.0598(11) 0.1879(13)
H27A H 1.21700 -0.07190 0.21120
C34A C 1.3123(15) -0.1202(12) 0.1649(13)
H28A H 1.29250 -0.17440 0.17180
C35A C 1.3871(13) -0.0998(10) 0.1314(12)
H29A H 1.41620 -0.14200 0.11420
C36A C 0.9759(12) -0.0719(12) 0.1903(9)
H30A H 0.97440 -0.12910 0.17130
H31A H 0.91550 -0.06740 0.20440
C37A C 0.9887(13) -0.0172(16) 0.1268(11)
H32A H 0.99900 0.03970 0.15110
H33A H 1.04860 -0.02520 0.11340
C38A C 0.9041(13) -0.0299(16) 0.0475(11)
H34A H 0.88580 -0.08810 0.02620
H35A H 0.92640 -0.00090 0.00790
C39A C 0.8086(16) 0.0833(16) 0.0588(12)
H36A H 0.85700 0.12480 0.05330
C40A C 0.7223(18) 0.0922(13) 0.0662(12)
H37A H 0.69810 0.14130 0.06530
C41A C 0.7293(11) -0.0351(10) 0.0726(9)
C42A C 0.7089(14) -0.1203(13) 0.0843(10)
C43A C 0.7631(15) -0.1733(10) 0.0927(13)
H38A H 0.82890 -0.15160 0.09820
C44A C 0.749(3) -0.246(2) 0.0954(19)
H39A H 0.79050 -0.27820 0.08000
C45A C 0.677(3) -0.2781(15) 0.1198(17)
H40A H 0.67660 -0.32800 0.14050
C46A C 0.605(3) -0.2392(17) 0.115(3)
H41A H 0.54620 -0.26430 0.12260
C47A C 0.8875(14) -0.2872(10) 0.3509(11)
H42A H 0.84610 -0.25120 0.32320
H43A H 0.91700 -0.31310 0.31320
C48A C 0.8260(14) -0.3527(11) 0.3821(11)
H44A H 0.86790 -0.38760 0.41130
H45A H 0.77540 -0.38700 0.33720
C49A C 0.7783(13) -0.3092(9) 0.4379(11)
H46A H 0.73250 -0.27840 0.40660
H47A H 0.82930 -0.27010 0.47850
C50A C 0.7663(13) -0.3958(10) 0.5487(10)
H48A H 0.83380 -0.39090 0.57350
C51A C 0.6962(14) -0.4327(11) 0.5749(11)
H49A H 0.70530 -0.45970 0.62040
C52A C 0.6243(11) -0.3865(10) 0.4626(10)
C53A C 0.5465(13) -0.3741(9) 0.3956(10)
C54A C 0.5513(13) -0.3608(12) 0.3194(10)
H50A H 0.61290 -0.35420 0.31000
C55A C 0.4696(18) -0.3569(15) 0.2564(13)
H51A H 0.47450 -0.34770 0.20550
C56A C 0.3820(15) -0.3673(13) 0.2729(14)
H52A H 0.32470 -0.36370 0.23290
C57A C 0.3762(15) -0.3836(12) 0.3508(12)
H53A H 0.31490 -0.39170 0.36070
C58A C 1.1055(12) -0.1621(10) 0.5591(8)
H54A H 1.11890 -0.21790 0.54980
C59A C 1.200(1) -0.1095(11) 0.6235(8)
C60A C 1.2944(13) -0.1276(11) 0.635(1)
H55A H 1.30290 -0.17630 0.60890
C61A C 1.3760(9) -0.0729(15) 0.6857(11)
H56A H 1.43920 -0.08500 0.69340
C62A C 1.3633(13) -0.0001(14) 0.7248(10)
H57A H 1.41790 0.03650 0.75860
C63A C 1.2689(17) 0.0179(12) 0.7132(11)
H58A H 1.26030 0.06660 0.73940
C64A C 1.1872(11) -0.0368(13) 0.6626(10)
H59A H 1.12410 -0.02470 0.65490
C65A C 1.2894(13) 0.0841(10) 0.4491(11)
C66A C 1.3764(16) 0.0767(19) 0.4340(16)
H60A H 1.37450 0.05410 0.38240
C67A C 1.469(2) 0.101(2) 0.492(3)
H61A H 1.52620 0.09390 0.47940
C68A C 1.473(2) 0.137(2) 0.570(3)
H62A H 1.53480 0.15600 0.60780
C69A C 1.392(2) 0.1443(16) 0.5913(17)
H63A H 1.39470 0.16450 0.64380
C70A C 1.2951(16) 0.1186(10) 0.5261(16)
H64A H 1.23700 0.12610 0.53790
N2A N 0.7071(11) 0.4121(8) 0.3277(8)
N3A N 0.5892(13) 0.4095(9) 0.3862(11)
N4A N 1.3852(11) 0.1916(9) 0.1335(8)
N5A N 1.4965(10) 0.1276(8) 0.1038(9)
N6A N 1.4218(9) -0.0210(9) 0.1214(8)
N7A N 0.8154(10) 0.0009(12) 0.0605(8)
N8A N 0.6736(10) 0.0196(8) 0.0753(8)
N9A N 0.617(3) -0.1499(18) 0.095(2)
N10A N 0.7248(10) -0.3656(8) 0.4788(8)
N11A N 0.6065(10) -0.4248(9) 0.5238(8)
N12A N 0.4563(11) -0.3874(8) 0.4092(9)
O23A O 0.9629(8) -0.2413(6) 0.4191(6)
O24A O 1.0600(7) -0.0409(7) 0.2567(5)
O25A O 1.1953(8) 0.1744(7) 0.2831(7)
O26A O 0.9086(8) 0.2674(7) 0.3323(6)
Cu2A Cu 0.5330(2) -0.57948(18) 0.47409(19)
Cu1* Cu 0.45569(16) -0.01798(13) 0.91026(13)
Cu1A Cu 0.54431(16) 0.01798(13) 0.08974(13)
Cu1A* Cu 1.54431(16) 0.01798(13) 0.08974(13)
Cu2* Cu 0.4670(2) -0.42052(18) 0.52591(19)
Cu2** Cu 1.4670(2) 0.57948(18) 0.52591(19)
Cu2A* Cu 0.5330(2) 0.42052(18) 0.47409(19)
Cu2A** Cu 1.5330(2) 0.42052(18) 0.47409(19)
N3A* N 0.5892(13) -0.5905(9) 0.3862(11)
N5* N 1.5035(10) -0.1276(8) 0.8962(9)
N6* N 1.5782(9) 0.0210(9) 0.8786(8)
N8* N 0.3264(10) -0.0196(8) 0.9247(8)
N11* N 0.3935(10) -0.5752(9) 0.4762(8)
N11** N 1.3935(10) -0.5752(9) 0.4762(8)
N11A* N 1.6065(10) -0.4248(9) 0.5238(8)
N12* N 0.5437(11) -0.6126(8) 0.5908(9)
N12A* N 1.4563(11) -0.3874(8) 0.4092(9)
#END
