
#######################################################################
#
#                 Cambridge Crystallographic Data Centre
#                                CCDC
#
#######################################################################
#
# If this CIF has been generated from an entry in the Cambridge
# Structural Database, then it will include bibliographic, chemical,
# crystal, experimental, refinement or atomic coordinate data resulting
# from the CCDC's data processing and validation procedures.
#
#######################################################################

data_CSD_CIF_OFOWUE
_audit_creation_date 2018-08-29
_audit_creation_method CSD-ConQuest-V1
_database_code_CSD OFOWUE
_database_code_depnum_ccdc_archive 'CCDC 1838976'
_chemical_formula_sum 'C23 H21 Eu1 N2 O10'
_chemical_formula_moiety
;
C2 H8 N1 1+,n(C21 H13 Eu1 N1 O10 1-)
;
_journal_coden_Cambridge 155
_journal_volume 483
_journal_year 2018
_journal_page_first 473
_journal_name_full 'Inorg.Chim.Acta '
loop_
_publ_author_name
"Xiangxiang Shi"
"Yong Fan"
"Jianing Xu"
"Hui Qi"
"Juan Chai"
"Jing Sun"
"Haoqing Jin"
"Xiaodong Chen"
"Ping Zhang"
"Li Wang"
_chemical_name_systematic
;
catena-[dimethylammonium 
(\m-5,5'-(pyridine-3,5-diyl)di(benzene-1,3-dicarboxylato))-bis(aqua)-europium(
iii)]
;
_cell_volume   1170.668
_exptl_crystal_colour 'colorless'
_exptl_special_details
;
Luminescent

;
_exptl_crystal_description 'block'
_diffrn_ambient_temperature 293
_refine_special_details
;
The SQUEEZE/PLATON program has been used to model some disordered cations.

;
#These two values have been output from a single CSD field.
_refine_ls_R_factor_gt 0.0253
_refine_ls_wR_factor_gt 0.0253
_symmetry_cell_setting triclinic
_symmetry_space_group_name_H-M 'P -1'
_symmetry_Int_Tables_number 2
loop_
_symmetry_equiv_pos_site_id
_symmetry_equiv_pos_as_xyz
1 x,y,z
2 -x,-y,-z
_cell_length_a 9.998(2)
_cell_length_b 11.005(2)
_cell_length_c 11.883(2)
_cell_angle_alpha 86.10(3)
_cell_angle_beta 74.54(3)
_cell_angle_gamma 68.36(3)
_cell_formula_units_Z 2
loop_
_atom_type_symbol
_atom_type_radius_bond
C 0.68
H 0.23
Eu 1.98
N 0.68
O 0.68
loop_
_atom_site_label
_atom_site_type_symbol
_atom_site_fract_x
_atom_site_fract_y
_atom_site_fract_z
Eu1 Eu 0.103660(16) 0.379987(15) 0.240764(13)
O1 O 0.1708(3) -0.0079(3) 0.1493(3)
O2 O 0.8515(3) 0.4475(3) 0.6682(3)
O3 O 0.6613(3) 0.6344(3) 0.6997(3)
O4 O 0.6781(3) -0.3067(3) -0.0725(2)
O5 O 0.1665(3) 0.1573(3) 0.2491(3)
O6 O 0.8784(3) -0.3094(3) -0.0285(2)
O7 O 0.1523(3) 0.6052(3) 0.7515(3)
O8 O 0.1405(3) 0.4508(3) 0.6513(3)
O9 O 0.0511(4) 0.5717(3) 0.1182(3)
O10 O 0.0457(4) 0.3255(3) 0.4425(3)
N1 N 0.8529(4) -0.0830(3) 0.4630(3)
C1 C 0.7171(4) 0.5159(4) 0.6707(3)
C2 C 0.6236(4) 0.4491(3) 0.6395(3)
C3 C 0.4695(4) 0.5090(3) 0.6691(3)
H1 H 0.42450 0.59240 0.70420
C4 C 0.6916(4) 0.3261(3) 0.5825(3)
H2 H 0.79470 0.28510 0.56430
C5 C 0.6064(4) 0.2646(3) 0.5527(3)
C6 C 0.4505(4) 0.3244(3) 0.5868(3)
H3 H 0.39240 0.28280 0.56910
C7 C 0.6744(4) 0.1366(3) 0.4881(3)
C8 C 0.3960(4) -0.0202(3) 0.1874(3)
C9 C 0.4575(4) 0.0146(3) 0.2664(3)
H4 H 0.39700 0.07980 0.32310
C10 C 0.7376(4) -0.2721(4) -0.0074(3)
C11 C 0.6398(4) -0.1764(4) 0.0930(3)
C12 C 0.2152(4) 0.5027(4) 0.6847(3)
C13 C 0.6122(4) 0.1096(3) 0.4054(3)
H5 H 0.53100 0.17420 0.38660
C14 C 0.4872(4) -0.1176(4) 0.1022(3)
H6 H 0.44620 -0.14370 0.05100
C15 C 0.6097(4) -0.0471(4) 0.2618(3)
C16 C 0.6986(4) -0.1406(4) 0.1732(3)
H7 H 0.80010 -0.18020 0.16750
C17 C 0.6715(4) -0.0144(4) 0.3508(3)
C18 C 0.7894(4) -0.1073(4) 0.3857(3)
H8 H 0.82660 -0.19160 0.35340
C19 C 0.7973(4) 0.0367(4) 0.5121(3)
H9 H 0.84240 0.05440 0.56470
C20 C 0.2325(4) 0.0467(4) 0.1950(3)
C21 C 0.3816(4) 0.4450(3) 0.6466(3)
H10 H 0.085(5) 0.237(5) 0.457(4)
H11 H 0.021(11) 0.575(9) 0.066(8)
H12 H 0.061(7) 0.639(7) 0.142(6)
H13 H 0.033(9) 0.374(7) 0.482(6)
Eu1A Eu -0.103660(16) 0.620013(15) 0.759236(13)
Eu1A* Eu 0.896340(16) -0.379987(15) -0.240764(13)
Eu1A** Eu 0.896340(16) 0.620013(15) 0.759236(13)
O2A O 0.1485(3) 0.5525(3) 0.3318(3)
O3A O 0.3387(3) 0.3656(3) 0.3003(3)
O4A O 0.3219(3) 0.3067(3) 0.0725(2)
O6A O 0.1216(3) 0.3094(3) 0.0285(2)
O7A O -0.1523(3) 0.3948(3) 0.2485(3)
O8A O -0.1405(3) 0.5492(3) 0.3487(3)
#END
