
#######################################################################
#
#                 Cambridge Crystallographic Data Centre
#                                CCDC
#
#######################################################################
#
# If this CIF has been generated from an entry in the Cambridge
# Structural Database, then it will include bibliographic, chemical,
# crystal, experimental, refinement or atomic coordinate data resulting
# from the CCDC's data processing and validation procedures.
#
#######################################################################

data_CSD_CIF_OFOXAL
_audit_creation_date 2018-08-29
_audit_creation_method CSD-ConQuest-V1
_database_code_CSD OFOXAL
_database_code_depnum_ccdc_archive 'CCDC 1838979'
_chemical_formula_sum 'C23 H21 N2 O10 Tb1'
_chemical_formula_moiety
;
(C2 H8 N1 1+)n,n(C21 H13 N1 O10 Tb1 1-)
;
_journal_coden_Cambridge 155
_journal_volume 483
_journal_year 2018
_journal_page_first 473
_journal_name_full 'Inorg.Chim.Acta '
loop_
_publ_author_name
"Xiangxiang Shi"
"Yong Fan"
"Jianing Xu"
"Hui Qi"
"Juan Chai"
"Jing Sun"
"Haoqing Jin"
"Xiaodong Chen"
"Ping Zhang"
"Li Wang"
_chemical_name_systematic
;
catena-[dimethylammonium 
(\m-5,5'-(pyridine-3,5-diyl)di(benzene-1,3-dicarboxylato))-bis(aqua)-terbium(i
ii)]
;
_cell_volume   1109.225
_exptl_crystal_colour 'colorless'
_exptl_special_details
;
Luminescent

;
_exptl_crystal_description 'block'
_diffrn_ambient_temperature 293
_refine_special_details
;
The SQUEEZE/PLATON program has been used to model some disordered cations.

;
#These two values have been output from a single CSD field.
_refine_ls_R_factor_gt 0.066
_refine_ls_wR_factor_gt 0.066
_symmetry_cell_setting triclinic
_symmetry_space_group_name_H-M 'P -1'
_symmetry_Int_Tables_number 2
loop_
_symmetry_equiv_pos_site_id
_symmetry_equiv_pos_as_xyz
1 x,y,z
2 -x,-y,-z
_cell_length_a 10.033(2)
_cell_length_b 10.910(2)
_cell_length_c 11.553(2)
_cell_angle_alpha 81.64(3)
_cell_angle_beta 70.32(3)
_cell_angle_gamma 68.73(3)
_cell_formula_units_Z 2
loop_
_atom_type_symbol
_atom_type_radius_bond
C 0.68
N 0.68
O 0.68
Tb 1.94
loop_
_atom_site_label
_atom_site_type_symbol
_atom_site_fract_x
_atom_site_fract_y
_atom_site_fract_z
Tb1 Tb 0.11082(4) -0.10510(3) 0.23540(3)
O1 O 0.1545(7) 0.0651(7) 0.3222(7)
O2 O 0.3459(8) -0.1186(7) 0.2786(8)
O3 O 0.0508(9) -0.1687(8) 0.4489(7)
O4 O 0.0782(11) 0.0804(8) 0.0930(8)
O5 O 0.1276(7) -0.1879(7) 0.0296(6)
O6 O -0.1372(7) 0.0611(7) 0.3386(8)
O7 O 0.1712(8) -0.3327(7) 0.2579(6)
O8 O -0.1419(7) -0.0989(9) 0.2482(8)
O9 O 0.3354(8) -0.1845(8) 0.0542(7)
C1 C 0.2329(11) -0.4412(9) 0.2091(8)
C2 C 0.3972(10) -0.5125(9) 0.1961(8)
O10 O 0.1664(9) -0.4961(8) 0.1685(9)
C3 C 0.4624(11) -0.4737(9) 0.2672(8)
C4 C 0.4801(10) -0.6143(9) 0.1156(8)
C5 C 0.6131(10) -0.5388(9) 0.2563(7)
C6 C 0.6366(10) -0.6761(10) 0.0998(8)
C7 C 0.7009(10) -0.6383(9) 0.1698(9)
C8 C 0.6792(10) -0.5051(9) 0.3413(8)
C9 C 0.7273(10) -0.776(1) 0.0046(8)
C10 C 0.8025(11) -0.5972(10) 0.3685(9)
C11 C 0.6176(9) -0.3829(9) 0.3981(8)
N1 N 0.8657(9) -0.5731(8) 0.4469(7)
C12 C 0.6786(9) -0.3566(8) 0.4792(7)
C13 C 0.8052(10) -0.4538(10) 0.4979(8)
C14 C 0.6051(9) -0.2340(8) 0.5488(7)
C15 C 0.4494(9) -0.1749(8) 0.5828(8)
C16 C 0.6902(9) -0.1785(8) 0.5871(7)
C17 C 0.3776(9) -0.0628(9) 0.6537(8)
C18 C 0.6156(8) -0.0599(8) 0.6516(8)
C19 C 0.2084(10) -0.0034(9) 0.6922(9)
C20 C 0.4594(9) -0.0033(9) 0.6864(8)
C21 C 0.7112(10) -0.0003(10) 0.6850(8)
O5A O 0.8724(7) -0.8121(7) -0.0296(6)
O9A O 0.6646(8) -0.8155(8) -0.0542(7)
Tb1A Tb 0.88918(4) -0.89490(3) -0.23540(3)
O6A O 0.1372(7) -0.0611(7) 0.6614(8)
O8A O 0.1419(7) 0.0989(9) 0.7518(8)
O1A O 0.8455(7) -0.0651(7) 0.6778(7)
O2A O 0.6541(8) 0.1186(7) 0.7214(8)
Tb1A* Tb 0.88918(4) 0.10510(3) 0.76460(3)
Tb1A** Tb -0.11082(4) 0.10510(3) 0.76460(3)
#END
