
#######################################################################
#
#                 Cambridge Crystallographic Data Centre
#                                CCDC
#
#######################################################################
#
# If this CIF has been generated from an entry in the Cambridge
# Structural Database, then it will include bibliographic, chemical,
# crystal, experimental, refinement or atomic coordinate data resulting
# from the CCDC's data processing and validation procedures.
#
#######################################################################

data_CSD_CIF_OFOXEP
_audit_creation_date 2018-08-29
_audit_creation_method CSD-ConQuest-V1
_database_code_CSD OFOXEP
_database_code_depnum_ccdc_archive 'CCDC 1838982'
_chemical_formula_sum 'C23 H21 Gd1 N2 O10'
_chemical_formula_moiety
;
(C2 H8 N1 1+)n,n(C21 H13 Gd1 N1 O10 1-)
;
_journal_coden_Cambridge 155
_journal_volume 483
_journal_year 2018
_journal_page_first 473
_journal_name_full 'Inorg.Chim.Acta '
loop_
_publ_author_name
"Xiangxiang Shi"
"Yong Fan"
"Jianing Xu"
"Hui Qi"
"Juan Chai"
"Jing Sun"
"Haoqing Jin"
"Xiaodong Chen"
"Ping Zhang"
"Li Wang"
_chemical_name_systematic
;
catena-[dimethylammonium 
(\m-5,5'-(pyridine-3,5-diyl)di(benzene-1,3-dicarboxylato))-bis(aqua)-gadoliniu
m(iii)]
;
_cell_volume   1163.471
_exptl_crystal_colour 'colorless'
_exptl_crystal_description 'block'
_diffrn_ambient_temperature 293
_refine_special_details
;
The SQUEEZE/PLATON program has been used to model some disordered cations.

;
#These two values have been output from a single CSD field.
_refine_ls_R_factor_gt 0.0578
_refine_ls_wR_factor_gt 0.0578
_symmetry_cell_setting triclinic
_symmetry_space_group_name_H-M 'P -1'
_symmetry_Int_Tables_number 2
loop_
_symmetry_equiv_pos_site_id
_symmetry_equiv_pos_as_xyz
1 x,y,z
2 -x,-y,-z
_cell_length_a 9.9749(3)
_cell_length_b 10.9875(4)
_cell_length_c 11.8618(4)
_cell_angle_alpha 86.265(1)
_cell_angle_beta 74.623(1)
_cell_angle_gamma 68.250(1)
_cell_formula_units_Z 2
loop_
_atom_type_symbol
_atom_type_radius_bond
C 0.68
H 0.23
Gd 1.96
N 0.68
O 0.68
loop_
_atom_site_label
_atom_site_type_symbol
_atom_site_fract_x
_atom_site_fract_y
_atom_site_fract_z
Gd1 Gd 0.60332(4) -0.11954(4) 0.24087(3)
O1 O 0.5463(8) -0.1735(7) 0.4416(6)
O2 O 0.8390(8) -0.1351(7) 0.2997(7)
O3 O 0.6479(7) 0.0522(7) 0.3329(7)
O4 O 0.5508(10) 0.0714(8) 0.1195(7)
O5 O 0.3489(7) -0.1053(7) 0.2484(7)
O6 O 0.3586(7) 0.0504(7) 0.3483(7)
O7 O 0.6206(8) -0.1897(7) 0.0296(6)
O8 O 0.8209(8) -0.1923(8) 0.0727(6)
O9 O 0.6679(8) -0.3418(6) 0.2482(6)
C1 C 0.7323(11) -0.4525(9) 0.1957(8)
C2 C 0.8967(11) -0.5207(9) 0.1880(8)
O10 O 0.6706(9) -0.5069(8) 0.1501(8)
C3 C 0.9591(11) -0.4852(9) 0.2667(8)
C4 C 0.9881(11) -0.6182(10) 0.1024(9)
C5 C 1.1100(11) -0.5491(9) 0.2622(8)
H1 H 0.89950 -0.41820 0.32260
C6 C 1.1405(11) -0.6772(9) 0.0934(8)
H2 H 0.94700 -0.64410 0.05080
C7 C 1.2001(11) -0.6422(9) 0.1738(8)
C8 C 1.1721(10) -0.5153(9) 0.3514(8)
C9 C 1.2382(11) -0.7727(9) -0.0077(8)
H3 H 1.30190 -0.68180 0.16810
C10 C 1.2903(11) -0.6091(9) 0.3856(9)
C11 C 1.1124(10) -0.3920(9) 0.4062(8)
N1 N 1.3531(9) -0.5835(8) 0.4636(7)
H4 H 1.32790 -0.69370 0.35310
C12 C 1.1751(10) -0.3645(9) 0.4893(8)
H5 H 1.03050 -0.32740 0.38760
C13 C 1.2981(11) -0.4637(9) 0.5123(8)
C14 C 1.1056(10) -0.2358(8) 0.5532(8)
H6 H 1.34420 -0.44560 0.56420
C15 C 1.1924(10) -0.1737(9) 0.5820(8)
C16 C 0.9518(10) -0.1757(9) 0.5866(8)
C17 C 1.1239(10) -0.0503(8) 0.6400(8)
H7 H 1.29590 -0.21450 0.56250
C18 C 0.883(1) -0.0553(9) 0.6453(8)
H8 H 0.89350 -0.21730 0.56900
C19 C 1.2176(10) 0.0157(9) 0.6698(8)
C20 C 0.9692(10) 0.0094(9) 0.6695(8)
C21 C 0.7145(10) 0.0040(9) 0.6850(8)
H9 H 0.92310 0.09270 0.70550
O7A O 1.3794(8) -0.8103(7) -0.0296(6)
O8A O 1.1791(8) -0.8077(8) -0.0727(6)
Gd1A Gd 1.39668(4) -0.88046(4) -0.24087(3)
O2A O 1.1610(8) 0.1351(7) 0.7003(7)
O3A O 1.3521(7) -0.0522(7) 0.6671(7)
O6A O 0.6414(7) -0.0504(7) 0.6517(7)
O5A O 0.6511(7) 0.1053(7) 0.7516(7)
Gd1A* Gd 1.39668(4) 0.11954(4) 0.75913(3)
Gd1A** Gd 0.39668(4) 0.11954(4) 0.75913(3)
#END
