
#######################################################################
#
#                 Cambridge Crystallographic Data Centre
#                                CCDC
#
#######################################################################
#
# If this CIF has been generated from an entry in the Cambridge
# Structural Database, then it will include bibliographic, chemical,
# crystal, experimental, refinement or atomic coordinate data resulting
# from the CCDC's data processing and validation procedures.
#
#######################################################################

data_CSD_CIF_OFUGAY
_audit_creation_date 2009-01-14
_audit_creation_method CSD-ConQuest-V1
_database_code_CSD OFUGAY
_database_code_depnum_ccdc_archive 'CCDC 678146'
_chemical_formula_sum 'C26 H38 F4 Mo12 N12 O48 Si1 Zn1'
_chemical_formula_moiety
;
(C13 H14 F2 N6 O1 2+)n,n(C13 H18 F2 N6 O4 Zn1 2+),n(Mo12 O40 Si1 4-),3n(H2 O1)
;
_journal_coden_Cambridge 222
_journal_year 2008
_journal_page_first 3824
_journal_name_full 'Dalton Trans. '
loop_
_publ_author_name
"Ya-Qian Lan"
"Shun-Li Li"
"Kui-Zhan Shao"
"Xin-Long Wang"
"Zhong-Min Su"
_chemical_name_systematic
;
catena-((\m~2~-2-(2,4-difluorophenyl)-1,3-bis(1H-1,2,4-triazol-3-ium-1-yl)prop
an-2-ol)-triaqua-zinc(ii) 
2-(2,4-difluorophenyl)-1,3-bis(1H-1,2,4-triazol-1-yl)propan-2-ol 
(\m~12~-silicato)-tetracosakis(\m~2~-oxo)-dodecaoxo-dodeca-molybdenum 
trihydrate)
;
_chemical_name_common
;
catena-((mu!2$-fluconazole)-triaqua-zinc(ii) fluconazole 
(mu!12$-silicato)-tetracosakis(mu!2$-oxo)-dodecaoxo-dodeca-molybdenum 
trihydrate)
;
_cell_volume   6301.780
_exptl_crystal_colour 'colorless'
_exptl_crystal_density_diffrn 2.748
_exptl_special_details
;
photoluminescent

;
_exptl_crystal_description 'Block'
_diffrn_ambient_temperature 293
_refine_special_details
;
An uncoordinated water molecule is disordered over two sites with occupancies 
of 0.30:0.70.
;
#These two values have been output from a single CSD field.
_refine_ls_R_factor_gt 0.0274
_refine_ls_wR_factor_gt 0.0274
_symmetry_cell_setting monoclinic
_symmetry_space_group_name_H-M 'P 21/n'
_symmetry_Int_Tables_number 14
loop_
_symmetry_equiv_pos_site_id
_symmetry_equiv_pos_as_xyz
1 x,y,z
2 1/2-x,1/2+y,1/2-z
3 -x,-y,-z
4 -1/2+x,-1/2-y,-1/2+z
_cell_length_a 11.5540(4)
_cell_length_b 23.1144(8)
_cell_length_c 23.6008(8)
_cell_angle_alpha 90
_cell_angle_beta 91.089(1)
_cell_angle_gamma 90
_cell_formula_units_Z 4
loop_
_atom_type_symbol
_atom_type_radius_bond
C 0.68
H 0.23
F 0.64
Mo 1.38
N 0.68
O 0.68
Si 1.20
Zn 1.45
loop_
_atom_site_label
_atom_site_type_symbol
_atom_site_fract_x
_atom_site_fract_y
_atom_site_fract_z
Si1 Si 0.31268(8) 0.23532(4) 0.38225(4)
Mo1 Mo 0.38907(3) 0.119791(12) 0.472205(12)
Mo2 Mo 0.44092(3) 0.246391(14) 0.248429(12)
Mo3 Mo 0.27611(3) 0.088069(13) 0.343570(13)
Mo4 Mo 0.16465(3) 0.227718(13) 0.511511(12)
Mo5 Mo 0.54534(3) 0.141799(13) 0.356930(12)
Mo6 Mo 0.16082(3) 0.207487(14) 0.253677(13)
Mo7 Mo 0.03255(3) 0.177003(14) 0.394773(13)
Mo8 Mo 0.58857(3) 0.299884(14) 0.379325(14)
Mo9 Mo 0.47298(3) 0.272040(13) 0.505403(12)
Mo10 Mo 0.24001(3) 0.344083(14) 0.282392(13)
Mo11 Mo 0.06822(3) 0.320071(14) 0.411929(14)
Mo12 Mo 0.36678(3) 0.379698(13) 0.424792(14)
O1 O 0.1891(2) 0.23899(9) 0.41386(9)
O2 O 0.36327(19) 0.16972(9) 0.38753(9)
O3 O 0.2953(2) 0.25209(10) 0.31571(9)
O4 O 0.4038(2) 0.28007(9) 0.41247(9)
O5 O 0.2281(2) 0.02220(11) 0.32487(12)
O6 O 0.6636(2) 0.10973(11) 0.33156(11)
O7 O 0.4266(2) 0.07711(11) 0.52728(10)
O8 O 0.3187(2) 0.06619(10) 0.42547(10)
O9 O 0.4324(2) 0.08126(10) 0.32954(10)
O10 O 0.5365(2) 0.10966(10) 0.42913(10)
O11 O 0.2611(2) 0.15677(10) 0.49774(10)
O12 O 0.1364(2) 0.11938(10) 0.38236(10)
O13 O 0.2353(2) 0.13442(11) 0.28467(10)
O14 O 0.4908(2) 0.18174(10) 0.2860(1)
O15 O 0.5985(2) 0.21297(11) 0.37952(10)
O16 O 0.4727(2) 0.1940(1) 0.49581(10)
O17 O 0.5229(3) 0.28039(12) 0.57272(11)
O18 O 0.1270(2) 0.21494(11) 0.57877(11)
O19 O -0.0975(2) 0.14552(13) 0.38481(12)
O20 O 0.0802(2) 0.17795(13) 0.20039(11)
O21 O 0.7286(2) 0.31646(12) 0.36780(12)
O22 O 0.0424(2) 0.1798(1) 0.4731(1)
O23 O 0.0663(2) 0.20115(11) 0.31434(10)
O24 O 0.3129(2) 0.21235(12) 0.21319(10)
O25 O 0.5284(2) 0.29082(11) 0.30754(10)
O26 O 0.6035(2) 0.28812(11) 0.46365(11)
O27 O 0.3050(2) 0.26463(10) 0.5219(1)
O28 O -0.0291(2) 0.25896(11) 0.39690(11)
O29 O 0.1427(2) 0.28503(11) 0.24012(11)
O30 O 0.3608(2) 0.32257(11) 0.23592(10)
O31 O 0.5271(2) 0.37144(11) 0.39345(11)
O32 O 0.4265(2) 0.35581(11) 0.49370(11)
O33 O 0.0771(2) 0.29197(10) 0.49321(10)
O34 O 0.1145(2) 0.33344(11) 0.3390(1)
O35 O 0.3248(2) 0.37418(11) 0.3409(1)
O36 O 0.2165(2) 0.35952(10) 0.43501(10)
O37 O 0.1868(3) 0.40282(12) 0.24901(12)
O38 O -0.0253(3) 0.37432(12) 0.42244(13)
O39 O 0.3665(3) 0.45203(11) 0.43180(13)
O40 O 0.5343(3) 0.25024(13) 0.19445(11)
Zn1 Zn 0.74636(3) 0.115608(19) 0.569549(18)
F1 F 1.1525(2) 0.11719(10) 0.73429(12)
F2 F 0.8924(3) -0.01790(16) 0.80478(13)
N1 N 0.9077(3) 0.08842(15) 0.57872(14)
N2 N 1.0927(3) 0.08425(14) 0.59555(13)
N3 N 1.0732(4) 0.0467(2) 0.5537(2)
C1 C 0.9604(4) 0.0510(3) 0.5451(3)
H1 H 0.92090 0.02950 0.51770
C2 C 0.9949(3) 0.10927(17) 0.60976(16)
H2 H 0.98800 0.13750 0.63760
C3 C 1.2091(3) 0.09188(17) 0.61928(17)
H3 H 1.21070 0.12590 0.64340
H4 H 1.26280 0.09810 0.58880
C4 C 1.2477(3) 0.03904(15) 0.65392(14)
C5 C 1.1088(3) 0.06185(16) 0.73364(16)
C6 C 1.0209(4) 0.0503(2) 0.77026(17)
H5 H 0.99170 0.07830 0.79440
C7 C 0.9793(3) -0.0047(2) 0.76912(18)
C8 C 1.0205(4) -0.04705(19) 0.73458(19)
H6 H 0.99090 -0.08440 0.73580
C9 C 1.1074(3) -0.03270(16) 0.69767(17)
H7 H 1.13570 -0.06090 0.67350
C10 C 1.1536(3) 0.02247(14) 0.69578(14)
O41 O 0.7016(3) 0.04218(14) 0.51666(14)
O42 O 0.7856(3) 0.19571(14) 0.61246(13)
O43 O 0.7344(3) 0.16260(15) 0.49753(13)
O44 O 1.2680(2) -0.00554(12) 0.61367(11)
H8 H 1.28880 -0.03500 0.63030
N4 N 1.4490(2) 0.08122(12) 0.65841(12)
N5 N 1.4436(3) 0.14011(13) 0.65640(13)
C11 C 1.5446(3) 0.06266(16) 0.63463(15)
H9 H 1.56650 0.02410 0.63120
C12 C 1.5386(3) 0.15393(15) 0.63034(15)
H10 H 1.55900 0.19190 0.62220
C13 C 1.3603(3) 0.04877(16) 0.68856(15)
H11 H 1.34200 0.06940 0.72300
H12 H 1.39190 0.01140 0.69950
N6 N 1.6046(2) 0.10796(13) 0.61633(13)
H13 H 0.662(3) 0.0431(15) 0.4849(10)
H14 H 0.692(3) 0.0067(8) 0.5294(15)
H15 H 0.800(4) 0.2025(16) 0.6488(5)
H16 H 0.811(4) 0.2278(11) 0.5961(13)
F3 F 0.2246(3) 0.99732(14) 0.83938(15)
F4 F 0.3085(4) 1.07434(16) 1.01816(16)
N7 N 0.5015(3) 0.92650(15) 0.82129(15)
N8 N 0.1913(3) 0.81946(15) 0.81451(15)
N9 N 0.1722(4) 0.7641(2) 0.8251(2)
N10 N 0.1819(4) 0.7792(2) 0.7366(2)
H17 H 0.18160 0.77260 0.70070
N11 N 0.5275(4) 0.9819(2) 0.8099(3)
N12 N 0.6773(4) 0.93699(19) 0.84712(19)
H18 H 0.74600 0.93090 0.86050
C14 C 0.1658(3) 0.73793(16) 0.77546(18)
H19 H 0.15280 0.69880 0.76880
C15 C 0.1976(4) 0.82912(17) 0.75791(16)
H20 H 0.21030 0.86390 0.73920
C16 C 0.1984(4) 0.8681(2) 0.85350(19)
H21 H 0.16450 0.85710 0.88920
H22 H 0.15390 0.90010 0.83800
C17 C 0.3258(4) 0.88800(17) 0.86451(17)
C18 C 0.3852(4) 0.9039(2) 0.80907(17)
H23 H 0.39030 0.87000 0.78510
H24 H 0.33970 0.93290 0.78890
C19 C 0.6357(6) 0.9860(3) 0.8256(3)
H25 H 0.67920 1.01960 0.82220
C20 C 0.5913(4) 0.8997(2) 0.8436(2)
H26 H 0.59390 0.86120 0.85490
C21 C 0.3698(4) 0.9346(2) 0.96011(18)
H27 H 0.40580 0.90030 0.97110
C22 C 0.3655(5) 0.9794(3) 0.9976(2)
H28 H 0.39870 0.97570 1.03360
C23 C 0.3127(5) 1.0289(2) 0.9820(2)
C24 C 0.2638(5) 1.0367(2) 0.9290(3)
H29 H 0.22790 1.07120 0.91860
C25 C 0.2707(4) 0.9904(2) 0.8920(2)
C26 C 0.3218(4) 0.93911(18) 0.90592(17)
O45 O 0.3894(3) 0.84247(12) 0.88981(12)
H30 H 0.39170 0.81500 0.86780
O46 O 0.1098(3) 0.64176(15) 0.71284(13)
O47 O 0.8657(6) 0.8932(3) 0.8981(2)
O48 O 0.8348(5) 0.2810(3) 0.5335(5)
O49? O 1.0125(10) 0.9465(5) 0.9351(5)
Zn1* Zn 1.74636(3) 0.115608(19) 0.569549(18)
N6* N 0.6046(2) 0.10796(13) 0.61633(13)
#END
