
#######################################################################
#
#                 Cambridge Crystallographic Data Centre
#                                CCDC
#
#######################################################################
#
# If this CIF has been generated from an entry in the Cambridge
# Structural Database, then it will include bibliographic, chemical,
# crystal, experimental, refinement or atomic coordinate data resulting
# from the CCDC's data processing and validation procedures.
#
#######################################################################

data_CSD_CIF_OFURIT
_audit_creation_date 2018-08-30
_audit_creation_method CSD-ConQuest-V1
_database_code_CSD OFURIT
_database_code_depnum_ccdc_archive 'CCDC 1857777'
_chemical_formula_sum 'C14 H32 Dy2 K6 N2 O63 Si1 W11'
_chemical_formula_moiety
;
(C14 H8 Dy2 N2 O51 Si1 W11 6-)n,6(K1 1+),12(H2 O1)
;
_journal_coden_Cambridge 182
_journal_volume 54
_journal_year 2018
_journal_page_first 10427
_journal_name_full 'Chem.Commun. '
loop_
_publ_author_name
"M.A.Fashapoyeh"
"M.Mirzaei"
"H.Eshtiagh-Hosseini"
"A.Rajagopal"
"M.Lechner"
"Rongji Liu"
"C.Streb"
_chemical_name_systematic
;
catena-[hexa-potassium 
(\m-silicato)-(\m-3,4-pyridinedicarboxylate)-pentacosakis(\m-oxo)-(3,4-pyridin
edicarboxylate)-tetra-aqua-decaoxo-di-dysprosium(iii)-undeca-tungsten 
dodecahydrate]
;
_cell_volume   3248.001
_exptl_crystal_colour 'colorless'
_exptl_special_details
;
One O atom appeared to be assigned incorrectly, it has been changed into a C 
atom
;
_exptl_crystal_description 'block'
_diffrn_ambient_temperature 150.0
_diffrn_special_details
;
twin

;
#These two values have been output from a single CSD field.
_refine_ls_R_factor_gt 0.0262
_refine_ls_wR_factor_gt 0.0262
_symmetry_cell_setting monoclinic
_symmetry_space_group_name_H-M 'P 21'
_symmetry_Int_Tables_number 4
loop_
_symmetry_equiv_pos_site_id
_symmetry_equiv_pos_as_xyz
1 x,y,z
2 -x,1/2+y,-z
_cell_length_a 10.6779(5)
_cell_length_b 20.1665(9)
_cell_length_c 15.5021(8)
_cell_angle_alpha 90
_cell_angle_beta 103.3465(19)
_cell_angle_gamma 90
_cell_formula_units_Z 2
loop_
_atom_type_symbol
_atom_type_radius_bond
C 0.68
Dy 1.92
K 2.03
N 0.68
O 0.68
Si 1.20
W 1.62
loop_
_atom_site_label
_atom_site_type_symbol
_atom_site_fract_x
_atom_site_fract_y
_atom_site_fract_z
W1 W 0.50483(12) 0.12935(6) 0.98392(10)
O1 O 0.5496(7) 0.2199(16) 0.9653(5)
O2 O 0.5502(18) 0.1121(11) 0.8608(14)
O3 O 0.6545(17) 0.1013(9) 1.0386(12)
O4 O 0.322(2) 0.1550(11) 0.8718(17)
O5 O 0.411(2) 0.0485(12) 0.9517(17)
O6 O 0.4296(17) 0.1515(9) 1.0643(13)
W2 W 0.50474(12) 0.30902(6) 0.9840(1)
W3 W 0.43127(13) 0.12677(6) 0.75609(10)
W4 W 0.25053(14) 0.04527(6) 0.87138(10)
Si1 Si 0.2342(3) 0.2179(7) 0.87453(19)
Dy1 Dy 0.35679(5) 0.21880(11) 1.16682(3)
O7 O 0.3245(17) 0.2860(9) 0.8729(13)
O8 O 0.4173(16) 0.2885(8) 1.0674(12)
O9 O 0.4156(16) 0.3930(9) 0.9546(13)
O10 O 0.5506(17) 0.3201(10) 0.8616(13)
O11 O 0.6492(18) 0.3386(10) 1.0469(13)
O12 O 0.4772(7) 0.2160(13) 0.7537(5)
O13 O 0.4985(18) 0.097(1) 0.6763(13)
O14 O 0.3350(16) 0.0456(8) 0.7804(12)
O15 O 0.2723(18) 0.1527(9) 0.6826(13)
O16 O 0.1694(17) 0.0770(9) 0.9630(12)
O17 O 0.103(2) 0.074(1) 0.7901(14)
O18 O 0.221(2) -0.0378(11) 0.8708(14)
O19 O 0.1720(7) 0.2194(15) 0.9597(5)
O20 O 0.1157(7) 0.2211(13) 0.7862(5)
O21 O 0.2360(8) 0.2178(16) 1.2815(6)
O22 O 0.4198(17) 0.3061(9) 1.2652(13)
O23 O 0.427(2) 0.1298(12) 1.2650(16)
O24 O 0.1714(19) 0.1487(10) 1.1124(15)
O25 O 0.1847(16) 0.2894(8) 1.1115(12)
O26 O 0.5913(8) 0.2222(15) 1.2122(6)
W5 W 0.25049(13) 0.39271(6) 0.87122(10)
W6 W 0.43071(13) 0.31146(6) 0.75582(10)
Dy2 Dy 0.5283(3) 0.11122(15) 0.5109(2)
W7 W 0.13772(4) 0.21916(10) 0.64162(3)
W8 W 0.06686(13) 0.13743(6) 1.00973(10)
W9 W -0.04032(13) 0.13503(6) 0.7595(1)
W10 W 0.06688(13) 0.30014(6) 1.00981(10)
W11 W -0.04107(13) 0.30260(6) 0.75932(10)
C1 C 0.396(3) 0.3641(18) 1.285(2)
C2 C 0.404(3) 0.0725(18) 1.285(2)
O27 O 0.1708(19) 0.3589(10) 0.9557(14)
O28 O 0.1011(19) 0.3606(10) 0.7846(14)
O29 O 0.2152(16) 0.4755(9) 0.8787(11)
O30 O 0.3467(16) 0.3887(8) 0.7747(12)
O31 O 0.2620(18) 0.2812(10) 0.6799(14)
O32 O 0.5139(16) 0.3437(8) 0.6822(12)
O33 O 0.3655(9) 0.2135(12) 0.4638(7)
O34 O 0.6346(9) 0.2157(15) 0.6149(6)
O35 O 0.4480(19) 0.044(1) 1.3552(14)
O36 O 0.010(2) 0.2853(11) 0.6488(15)
O37 O 0.1314(8) 0.224(1) 0.5301(6)
O38 O 0.011(2) 0.1525(12) 0.6460(16)
O39 O -0.0285(7) 0.2219(12) 1.0189(5)
O40 O -0.0367(19) 0.1407(10) 0.8761(14)
O41 O -0.0395(17) 0.0822(9) 1.0384(13)
O42 O -0.1333(7) 0.2201(15) 0.7380(5)
O43 O -0.1672(19) 0.0798(9) 0.7217(14)
O44 O -0.039(2) 0.2985(11) 0.8797(15)
O45 O -0.049(2) 0.3552(11) 1.0379(15)
O46 O -0.1659(18) 0.3528(9) 0.7157(13)
O47 O 0.4369(15) 0.3913(8) 1.3608(12)
C3 C 0.318(2) 0.4082(13) 1.2145(19)
C4 C 0.325(3) 0.0296(17) 1.211(2)
C5 C 0.391(2) 0.4363(14) 1.153(2)
C6 C 0.189(2) 0.4220(14) 1.2075(19)
C7 C 0.378(3) 0.0007(16) 1.153(2)
C8 C 0.197(3) 0.0142(18) 1.206(2)
C9 C 0.3329(17) 0.4785(10) 1.0885(15)
C10 C 0.1239(19) 0.4651(10) 1.1446(16)
N1 N 0.3068(18) -0.0444(10) 1.0887(14)
C11 C 0.110(3) 0.0489(17) 1.265(3)
C12 C 0.139(3) -0.0311(13) 1.141(2)
N2 N 0.1995(15) 0.4954(9) 1.0835(12)
C13 C 0.185(3) -0.0559(14) 1.0899(19)
O48 O 0.167(2) 0.0936(12) 1.3189(16)
O49 O -0.0029(19) 0.0332(9) 1.2593(13)
O50 O 0.0020(17) 0.4119(8) 1.2516(11)
O51 O 0.168(2) 0.3446(10) 1.3134(14)
C14 C 0.116(3) 0.3902(15) 1.263(2)
K1 K 0.6764(6) 0.4458(3) 1.3473(4)
K2 K -0.1635(15) 0.0860(7) 1.1507(12)
K3 K 0.8258(11) 0.4549(6) 1.4878(8)
K4 K 0.7423(2) 0.2176(6) 0.87981(17)
O52 O 0.2637(18) -0.1730(9) 0.7344(13)
O53 O 0.1536(10) -0.2856(15) 0.8460(7)
K5 K 0.0409(8) -0.2138(4) 0.6330(6)
K6 K 0.1655(11) -0.1474(5) 0.8470(8)
O54 O 0.2720(19) 0.6025(10) 0.7314(14)
K7 K 0.5682(9) 0.3225(4) 1.5076(6)
O55 O -0.311(2) 0.0009(12) 0.5884(16)
O56 O -0.1514(17) 0.1026(9) 0.4934(12)
K8 K -0.1732(14) -0.0158(8) 0.4883(11)
O57 O -0.0272(17) -0.0481(9) 0.3976(12)
O58 O 0.0301(18) -0.0037(10) 0.6068(13)
O59 O 0.2578(16) 0.0694(8) 0.5049(11)
O60 O 0.1767(15) -0.1730(8) 0.5033(10)
O61 O 0.6835(19) 0.435(1) 1.5812(14)
O62 O 0.6581(16) 0.2316(12) 1.4178(12)
O63 O -0.2293(18) -0.1277(10) 0.4983(13)
Dy2* Dy 0.5283(3) 0.11122(15) 1.5109(2)
O35* O 0.4480(19) 0.044(1) 0.3552(14)
#END
