
#######################################################################
#
#                 Cambridge Crystallographic Data Centre
#                                CCDC
#
#######################################################################
#
# If this CIF has been generated from an entry in the Cambridge
# Structural Database, then it will include bibliographic, chemical,
# crystal, experimental, refinement or atomic coordinate data resulting
# from the CCDC's data processing and validation procedures.
#
#######################################################################

data_CSD_CIF_OFUROZ
_audit_creation_date 2018-08-30
_audit_creation_method CSD-ConQuest-V1
_database_code_CSD OFUROZ
_database_code_depnum_ccdc_archive 'CCDC 1857778'
_chemical_formula_sum 'C14 H39 K6 La2 N2 O63.5 Si1 W11'
_chemical_formula_moiety
;
(C14 H18 La2 N2 O53 Si1 W11 6-)n,6(K1 1+),10.5(H2 O1)
;
_journal_coden_Cambridge 182
_journal_volume 54
_journal_year 2018
_journal_page_first 10427
_journal_name_full 'Chem.Commun. '
loop_
_publ_author_name
"M.A.Fashapoyeh"
"M.Mirzaei"
"H.Eshtiagh-Hosseini"
"A.Rajagopal"
"M.Lechner"
"Rongji Liu"
"C.Streb"
_chemical_name_systematic
;
catena-[hexa-potassium 
(\m-silicato)-bis(\m-3,4-pyridinedicarboxylate)-hexacosakis(\m-oxo)-nonaoxo-he
xa-aqua-di-lanthanum(iii)-undeca-tungsten hydrate]
;
_cell_volume   6232.365
_exptl_crystal_colour 'white'
_exptl_crystal_description 'plates'
_diffrn_ambient_temperature 150
#These two values have been output from a single CSD field.
_refine_ls_R_factor_gt 0.0259
_refine_ls_wR_factor_gt 0.0259
_symmetry_cell_setting monoclinic
_symmetry_space_group_name_H-M 'P 21/n'
_symmetry_Int_Tables_number 14
loop_
_symmetry_equiv_pos_site_id
_symmetry_equiv_pos_as_xyz
1 x,y,z
2 1/2-x,1/2+y,1/2-z
3 -x,-y,-z
4 -1/2+x,-1/2-y,-1/2+z
_cell_length_a 11.5296(10)
_cell_length_b 30.702(3)
_cell_length_c 17.9958(14)
_cell_angle_alpha 90
_cell_angle_beta 101.940(3)
_cell_angle_gamma 90
_cell_formula_units_Z 4
loop_
_atom_type_symbol
_atom_type_radius_bond
C 0.68
K 2.03
La 2.07
N 0.68
O 0.68
Si 1.20
W 1.62
loop_
_atom_site_label
_atom_site_type_symbol
_atom_site_fract_x
_atom_site_fract_y
_atom_site_fract_z
W1 W 0.18272(3) 0.55379(2) 0.36029(2)
W2 W 0.07619(3) 0.66654(2) 0.40047(2)
W3 W -0.10614(3) 0.72114(2) 0.26023(2)
W4 W 0.30200(3) 0.41610(2) -0.15482(2)
W5 W -0.09554(3) 0.52161(2) 0.30440(2)
W6 W -0.20449(3) 0.63401(2) 0.34276(2)
W7 W 0.10231(3) 0.43255(2) -0.04346(2)
W8 W -0.20445(3) 0.67050(2) 0.06986(2)
W9 W 0.10730(3) 0.70613(2) 0.13289(2)
W10 W 0.20340(3) 0.60251(2) 0.10550(2)
W11 W 0.28690(3) 0.65286(2) 0.27403(2)
La1 La 0.12037(4) 0.48042(2) 0.17858(2)
La2 La -0.11188(4) 0.85674(2) 0.22292(3)
Si1 Si -0.00570(17) 0.61510(7) 0.22259(11)
O1 O -0.1952(5) 0.69895(18) 0.1664(3)
O2 O 0.2802(5) 0.5435(2) 0.4446(3)
O3 O 0.2943(5) 0.38042(18) -0.2425(3)
O4 O -0.3339(5) 0.63714(18) 0.0958(3)
O5 O 0.2144(5) 0.45873(18) -0.2180(3)
O6 O -0.0356(5) 0.48152(17) 0.2536(3)
O7 O 0.2591(5) 0.44248(17) -0.0677(3)
O8 O 0.1077(5) 0.63642(17) 0.1937(3)
O9 O 0.0395(5) 0.47577(19) -0.1021(3)
O10 O 0.1948(5) 0.67637(18) 0.3408(3)
O11 O 0.0034(5) 0.72119(18) 0.3543(3)
O12 O -0.0379(5) 0.41830(19) 0.1343(3)
O13 O -0.1486(5) 0.57912(18) 0.3505(3)
O14 O 0.2673(5) 0.59771(18) 0.3165(3)
O15 O 0.4441(5) 0.43523(19) -0.1395(3)
O16 O -0.0424(5) 0.40296(18) -0.0480(3)
O17 O -0.0786(5) 0.65491(18) 0.4222(3)
O18 O 0.0791(5) 0.8214(2) 0.1994(4)
O19 O 0.1806(5) 0.37352(18) -0.0048(3)
O20 O -0.2216(5) 0.69525(18) 0.3081(3)
O21 O 0.3353(5) 0.4636(2) 0.1843(3)
O22 O -0.4478(5) 0.8640(2) 0.2446(3)
O23 O 0.1308(5) 0.45508(19) 0.0480(3)
O24 O 0.0243(5) 0.72344(18) 0.2102(3)
O25 O 0.3253(5) 0.62556(19) 0.1864(3)
O26 O 0.0426(5) 0.52675(17) 0.3868(3)
O27 O 0.0276(4) 0.56837(17) 0.2636(3)
O28 O 0.4618(6) 0.4191(2) 0.4447(4)
O29 O 0.1451(5) 0.68725(19) 0.4873(3)
O30 O -0.3238(5) 0.8544(2) 0.1648(3)
N1 N -0.5152(6) 0.9397(2) 0.0119(4)
O31 O 0.4286(5) 0.6664(2) 0.3184(3)
O32 O -0.1493(5) 0.77503(18) 0.2544(3)
C1 C -0.4926(7) 0.8980(3) 0.1238(4)
O33 O 0.2832(5) 0.5929(2) 0.0365(3)
O34 O 0.2477(5) 0.70483(18) 0.2122(3)
O35 O -0.6765(5) 0.91230(18) 0.2440(3)
O36 O 0.1272(5) 0.7559(2) 0.0929(3)
O37 O -0.3146(5) 0.63355(19) 0.3938(3)
N2 N 0.5125(7) 0.5590(3) 0.3219(5)
O38 O 0.6138(6) 0.4045(2) 0.3881(3)
O39 O 0.0285(6) 0.8416(2) 0.3494(4)
O40 O -0.2837(5) 0.70724(19) 0.0076(3)
O41 O -0.1473(5) 0.8087(2) 0.1011(3)
O42 O -0.0477(5) 0.64892(17) 0.2826(3)
O43 O 0.1773(5) 0.66788(18) 0.0762(3)
C2 C -0.4470(7) 0.9138(3) 0.0648(4)
O44 O 0.1986(5) 0.55107(19) 0.1487(3)
O45 O 0.2136(5) 0.51046(19) 0.3030(3)
C3 C 0.4701(7) 0.4837(3) 0.2964(5)
O46 O -0.7158(5) 0.85286(19) 0.1712(3)
O47 O 0.1171(5) 0.60965(18) 0.4047(3)
C4 C -0.6779(7) 0.9353(3) 0.0726(4)
C5 C -0.6261(7) 0.9509(3) 0.0151(4)
C6 C -0.6096(7) 0.9089(3) 0.1281(4)
O48 O -0.0461(5) 0.69072(18) 0.0756(3)
O49 O -0.1142(5) 0.61035(17) 0.1483(3)
O50 O -0.1829(5) 0.49099(18) 0.3522(3)
C7 C 0.5239(7) 0.4742(3) 0.3710(5)
C8 C 0.4623(7) 0.5282(3) 0.2724(5)
O51 O -0.2251(5) 0.8516(2) 0.3331(3)
O52 O 0.4398(6) 0.4106(2) 0.2533(3)
O53 O -0.1903(6) 0.9303(2) 0.2531(4)
C9 C 0.5704(8) 0.5082(3) 0.4210(5)
C10 C -0.4154(7) 0.8699(3) 0.1827(4)
C11 C 0.5616(7) 0.5497(3) 0.3951(5)
C12 C -0.6701(7) 0.8899(3) 0.1870(4)
C13 C 0.4120(7) 0.4497(3) 0.2404(5)
C14 C 0.5339(8) 0.4285(3) 0.4030(5)
K1 K 0.5524(2) 0.69125(9) 0.19355(14)
O54 O 0.2622(5) 0.85574(18) 0.3533(3)
O55 O 0.2617(5) 0.5388(2) -0.1125(3)
O56 O 0.4822(5) 0.6230(2) -0.0240(3)
O57 O 0.5852(5) 0.5192(2) -0.0487(3)
K2 K -0.3602(3) 0.72645(16) 0.4260(2)
K3 K 0.4207(4) 0.54990(14) -0.0066(2)
O58 O 0.4932(8) 0.7387(3) 0.0584(5)
K4 K 0.3677(9) 0.7820(4) 0.2597(6)
K5 K 0.1999(2) 0.77010(8) 0.34733(14)
O59 O -0.5931(8) 0.7421(3) 0.4427(5)
O60 O -0.1964(8) 0.8040(3) 0.4669(5)
O61 O 0.6012(10) 0.7638(4) 0.2854(9)
K6 K -0.0263(7) 0.3335(3) 0.0804(4)
O62 O -0.1613(8) 0.6939(3) 0.5414(5)
O63 O -0.2487(15) 0.6852(5) 0.5258(8)
O64 O 0.4142(18) 0.6481(6) 0.4787(10)
O65? O -0.5094(16) 0.6618(5) 0.4956(9)
W4B W -0.30200(3) 0.58390(2) 0.15482(2)
W5B W 0.09554(3) 0.47839(2) -0.30440(2)
W6B W 0.20449(3) 0.36599(2) -0.34276(2)
W7B W -0.10231(3) 0.56745(2) 0.04346(2)
W8B W 0.20445(3) 0.32950(2) -0.06986(2)
W10B W -0.20340(3) 0.39749(2) -0.10550(2)
La1A La -0.62037(4) 0.98042(2) 0.32142(2)
La1B La -0.12037(4) 0.51958(2) -0.17858(2)
La2A La 0.61188(4) 0.35674(2) 0.27708(3)
O3B O -0.2943(5) 0.61958(18) 0.2425(3)
O4B O 0.3339(5) 0.36286(18) -0.0958(3)
O5B O -0.2144(5) 0.54127(18) 0.2180(3)
O9B O -0.0395(5) 0.52423(19) 0.1021(3)
O16B O 0.0424(5) 0.59704(18) 0.0480(3)
O19B O -0.1806(5) 0.62648(18) 0.0048(3)
O35A O 0.1765(5) 0.41230(18) 0.2560(3)
O38A O -0.1138(6) 0.9045(2) 0.1119(3)
O49B O 0.1142(5) 0.38965(17) -0.1483(3)
O52A O 0.0602(6) 0.9106(2) 0.2467(3)
#END
