
#######################################################################
#
#                 Cambridge Crystallographic Data Centre
#                                CCDC
#
#######################################################################
#
# If this CIF has been generated from an entry in the Cambridge
# Structural Database, then it will include bibliographic, chemical,
# crystal, experimental, refinement or atomic coordinate data resulting
# from the CCDC's data processing and validation procedures.
#
#######################################################################

data_CSD_CIF_OFURUF
_audit_creation_date 2018-08-30
_audit_creation_method CSD-ConQuest-V1
_database_code_CSD OFURUF
_database_code_depnum_ccdc_archive 'CCDC 1857779'
_chemical_formula_sum 'C14 H38 K6 N2 O64 Pr2 Si1 W11'
_chemical_formula_moiety
;
(C14 H16 N2 O53 Pr2 Si1 W11 6-)n,6(K1 1+),11(H2 O1)
;
_journal_coden_Cambridge 182
_journal_volume 54
_journal_year 2018
_journal_page_first 10427
_journal_name_full 'Chem.Commun. '
loop_
_publ_author_name
"M.A.Fashapoyeh"
"M.Mirzaei"
"H.Eshtiagh-Hosseini"
"A.Rajagopal"
"M.Lechner"
"Rongji Liu"
"C.Streb"
_chemical_name_systematic
;
catena-[hexa-potassium 
(\m-silicato)-bis(\m-3,4-pyridinedicarboxylate)-hexacosakis(\m-oxo)-penta-aqua
-decaoxo-di-praseodymium(iii)-undeca-tungsten undedcahydrate]
;
_cell_volume   6117.599
_exptl_crystal_colour 'colorless'
_exptl_crystal_description 'plates'
_diffrn_ambient_temperature 150.0
#These two values have been output from a single CSD field.
_refine_ls_R_factor_gt 0.0846
_refine_ls_wR_factor_gt 0.0846
_symmetry_cell_setting monoclinic
_symmetry_space_group_name_H-M 'P 21/n'
_symmetry_Int_Tables_number 14
loop_
_symmetry_equiv_pos_site_id
_symmetry_equiv_pos_as_xyz
1 x,y,z
2 1/2-x,1/2+y,1/2-z
3 -x,-y,-z
4 -1/2+x,-1/2-y,-1/2+z
_cell_length_a 11.4529(13)
_cell_length_b 30.495(3)
_cell_length_c 17.907(2)
_cell_angle_alpha 90
_cell_angle_beta 101.994(4)
_cell_angle_gamma 90
_cell_formula_units_Z 4
loop_
_atom_type_symbol
_atom_type_radius_bond
C 0.68
K 2.03
N 0.68
O 0.68
Pr 2.03
Si 1.20
W 1.62
loop_
_atom_site_label
_atom_site_type_symbol
_atom_site_fract_x
_atom_site_fract_y
_atom_site_fract_z
W1 W 0.40200(11) 0.47913(4) 0.30410(6)
W2 W 0.68185(11) 0.44704(4) 0.35966(7)
W3 W 0.29367(11) 0.36597(4) 0.34257(7)
W4 W 0.19490(11) 0.41641(4) 0.15380(7)
W5 W 0.39611(11) 0.43387(4) 0.04232(7)
W6 W 0.57675(11) 0.33347(4) 0.40008(7)
W7 W 0.29479(12) 0.32988(4) 0.06806(7)
W8 W 0.39419(12) 0.27872(4) 0.25907(7)
W9 W 0.70370(12) 0.39893(4) 0.10363(7)
W10 W 0.78836(12) 0.34784(4) 0.27262(7)
W11 W 0.60886(13) 0.29436(4) 0.13084(8)
Pr1 Pr 0.61828(15) 0.51994(6) 0.17870(9)
Pr2 Pr 0.10999(18) 0.64406(7) 0.27719(11)
Si1 Si 0.4932(6) 0.3853(2) 0.2212(4)
O1 O 0.322(2) 0.6457(8) 0.3332(14)
O2 O 0.462(2) 0.5808(8) 0.1323(14)
O3 O 0.442(2) 0.6381(8) 0.2555(15)
O4 O 0.185(3) 0.5711(9) 0.2461(17)
O5 O 0.709(2) 0.6478(8) 0.3235(15)
O6 O 0.7096(19) 0.4905(7) 0.2996(12)
O7 O 0.1657(19) 0.3634(7) 0.0925(12)
O8 O 0.221(2) 0.6476(8) 0.1650(15)
O9 O 0.148(2) 0.6918(8) 0.3956(13)
O10 O -0.169(2) 0.5367(8) 0.1848(14)
O11 O -0.069(3) 0.5909(9) 0.2493(16)
O12 O -0.042(3) 0.5836(10) 0.4436(17)
O13 O 0.112(2) 0.5977(9) 0.3873(16)
O14 O 0.2022(18) 0.3804(7) 0.2421(12)
O15 O -0.078(3) 0.6789(9) 0.2990(17)
O16 O 0.3152(19) 0.5098(7) 0.3541(12)
O17 O -0.029(3) 0.6614(11) 0.152(2)
O18 O 0.6177(18) 0.3901(6) 0.4040(11)
O19 O 0.4502(17) 0.3508(6) 0.2829(11)
O20 O 0.3829(19) 0.3909(7) 0.1455(12)
O21 O 0.183(2) 0.3656(7) 0.3937(13)
O22 O 0.5275(18) 0.4323(7) 0.2640(11)
O23 O 0.3471(18) 0.4215(6) 0.3505(11)
O24 O 0.301(2) 0.3008(7) 0.1640(13)
O25 O 0.053(2) 0.4353(8) 0.1401(13)
O26 O 0.458(2) 0.4768(7) 0.1026(13)
O27 O 0.2759(18) 0.3044(7) 0.3077(12)
O28 O 0.5248(19) 0.2774(7) 0.2100(12)
O29 O 0.234(2) 0.4437(7) 0.0667(12)
O30 O 0.783(2) 0.4575(8) 0.4439(13)
O31 O 0.630(2) 0.2457(9) 0.0913(15)
O32 O 0.695(2) 0.4495(7) 0.1460(13)
O33 O 0.423(2) 0.3446(7) 0.4203(13)
O34 O 0.320(2) 0.3747(8) 0.0022(13)
O35 O 0.767(2) 0.4033(7) 0.3159(12)
O36 O 0.542(2) 0.4049(8) 0.0470(14)
O37 O 0.541(2) 0.4748(7) 0.3874(13)
O38 O 0.605(2) 0.3642(7) 0.1913(13)
O39 O 0.674(2) 0.5878(7) 0.2537(12)
O40 O 0.698(2) 0.3234(8) 0.3405(13)
O41 O 0.283(2) 0.4595(7) 0.2181(13)
O42 O 0.357(2) 0.2246(8) 0.2549(14)
O43 O 0.928(2) 0.3350(8) 0.3168(15)
O44 O 0.4653(19) 0.5191(7) 0.2532(12)
O45 O 0.677(2) 0.3342(8) 0.0747(13)
O46 O 0.217(2) 0.2951(8) 0.0050(14)
O47 O 0.452(2) 0.3105(8) 0.0719(14)
O48 O 0.5010(19) 0.2786(7) 0.3545(12)
O49 O 0.781(2) 0.4090(8) 0.0360(15)
O50 O 0.752(2) 0.2966(8) 0.2098(14)
O51 O 0.827(2) 0.3762(8) 0.1826(14)
O52 O 0.370(2) 0.4566(7) -0.0489(13)
O53 O 0.650(2) 0.3122(8) 0.4893(14)
N1 N 0.623(3) 0.5504(10) 0.4828(17)
N2 N 0.008(4) 0.4412(13) 0.318(2)
C1 C 0.074(3) 0.4943(12) 0.419(2)
C2 C -0.092(3) 0.5523(11) 0.237(2)
C3 C 0.038(4) 0.5733(14) 0.403(2)
C4 C -0.038(4) 0.4735(14) 0.271(2)
C5 C 0.020(3) 0.5278(11) 0.369(2)
C6 C 0.514(3) 0.5624(10) 0.4877(17)
C7 C 0.061(3) 0.4518(12) 0.394(2)
C8 C 0.410(3) 0.6298(11) 0.3175(19)
C9 C 0.449(3) 0.5863(10) 0.4335(18)
C10 C 0.497(3) 0.6019(11) 0.3743(19)
C11 C 0.609(3) 0.5925(11) 0.369(2)
C12 C -0.031(3) 0.5179(12) 0.294(2)
C13 C 0.671(3) 0.6112(11) 0.309(2)
C14 C 0.676(3) 0.5673(11) 0.4261(19)
K1 K 0.744(2) 0.6440(7) 0.1488(13)
K2 K 0.7051(14) 0.2312(5) 0.3407(9)
K3 K 0.0480(11) 0.3069(4) 0.1904(7)
K4 K 1.138(2) 0.2740(7) 0.4272(13)
O54 O 0.985(5) 0.3348(18) 0.498(3)
O55 O -0.004(4) 0.2604(16) 0.057(3)
O56 O 0.074(7) 0.236(2) 0.283(4)
O57 O 0.903(4) 0.2585(14) 0.440(3)
O58 O 1.310(3) 0.1961(13) 0.466(2)
O59 O 1.330(4) 0.3084(13) 0.537(2)
O60 O -0.521(4) 0.6667(16) 0.082(3)
O61 O 0.920(2) 0.4498(8) -0.0096(14)
O62 O 0.093(3) 0.4845(11) -0.0507(19)
O63 O 0.021(4) 0.6205(13) 0.032(2)
O64 O 0.767(3) 0.460(1) -0.1135(17)
Pr1* Pr -0.38172(15) 0.51994(6) 0.17870(9)
Pr1B Pr 0.38172(15) 0.48006(6) -0.17870(9)
Pr2A Pr 0.39001(18) 0.14406(7) 0.22281(11)
O10* O 0.831(2) 0.5367(8) 0.1848(14)
O42A O 0.143(2) 0.7246(8) 0.2451(14)
O52B O 0.630(2) 0.5434(7) 0.0489(13)
#END
