
#######################################################################
#
#                 Cambridge Crystallographic Data Centre
#                                CCDC
#
#######################################################################
#
# If this CIF has been generated from an entry in the Cambridge
# Structural Database, then it will include bibliographic, chemical,
# crystal, experimental, refinement or atomic coordinate data resulting
# from the CCDC's data processing and validation procedures.
#
#######################################################################

data_CSD_CIF_OFUTUH
_audit_creation_date 2018-08-30
_audit_creation_method CSD-ConQuest-V1
_database_code_CSD OFUTUH
_database_code_depnum_ccdc_archive 'CCDC 1468836'
_chemical_formula_sum 'C51.5 H64.5 N4.5 Ni4 O29'
_chemical_formula_moiety
;
2(C2 H8 N1 1+),n(C40 H18 Ni4 O20 2-),2.5(C3 H7 N1 O1),6.5(H2 O1)
;
_journal_coden_Cambridge 1564
_journal_volume 81
_journal_year 2016
_journal_page_first 780
_journal_name_full 'ChemPlusChem '
loop_
_publ_author_name
"Yong-Liang Huang"
"Long Jiang"
"Tong-Bu Lu"
_chemical_name_systematic
;
catena-[bis(\m-pyrene-1,3,6,8-tetracarboxylato)-bis(\m-hydroxo)-bis(aqua)-tetr
a-nickel(ii) N,N-dimethylformamide solvate hydrate]
;
_cell_volume   5797.116
_exptl_crystal_colour 'brown'
_exptl_crystal_density_diffrn 1.656
_exptl_crystal_description 'block'
_diffrn_ambient_temperature 150
_refine_special_details
;
The SQUEEZE/PLATON program has been used to model some disordered cations and 
solvent molecules.
;
#These two values have been output from a single CSD field.
_refine_ls_R_factor_gt 0.0583
_refine_ls_wR_factor_gt 0.0583
_symmetry_cell_setting monoclinic
_symmetry_space_group_name_H-M 'P 21/n'
_symmetry_Int_Tables_number 14
loop_
_symmetry_equiv_pos_site_id
_symmetry_equiv_pos_as_xyz
1 x,y,z
2 1/2-x,1/2+y,1/2-z
3 -x,-y,-z
4 -1/2+x,-1/2-y,-1/2+z
_cell_length_a 14.0702(5)
_cell_length_b 19.5904(6)
_cell_length_c 21.0485(7)
_cell_angle_alpha 90
_cell_angle_beta 92.309(3)
_cell_angle_gamma 90
_cell_formula_units_Z 4
loop_
_atom_type_symbol
_atom_type_radius_bond
C 0.68
H 0.23
Ni 1.24
O 0.68
loop_
_atom_site_label
_atom_site_type_symbol
_atom_site_fract_x
_atom_site_fract_y
_atom_site_fract_z
C1 C 0.7093(3) 0.0519(2) 0.7557(2)
C2 C 0.8133(3) 0.0557(2) 0.7419(2)
C3 C 0.8504(3) 0.1205(2) 0.7408(2)
H1 H 0.80920 0.15880 0.74360
C4 C 0.9471(3) 0.13082(19) 0.7357(2)
C5 C 0.9798(3) 0.2033(2) 0.74199(18)
C6 C 1.0082(3) 0.0747(2) 0.7279(2)
C7 C 1.1077(3) 0.0814(2) 0.7206(3)
H2 H 1.13490 0.12580 0.71980
C8 C 1.1646(3) 0.0268(2) 0.7150(3)
H3 H 1.23060 0.03400 0.70970
C9 C 1.1298(3) -0.0415(2) 0.7165(2)
C10 C 1.1894(3) -0.1004(2) 0.71554(19)
C11 C 1.2961(3) -0.09736(19) 0.71276(18)
C12 C 1.1492(3) -0.1643(2) 0.71932(19)
H4 H 1.19020 -0.20280 0.71980
C13 C 1.0517(3) -0.17545(19) 0.7224(2)
C14 C 1.0186(3) -0.2487(2) 0.73055(19)
C15 C 0.9901(3) -0.1178(2) 0.7226(2)
C16 C 0.8900(4) -0.1245(2) 0.7238(3)
H5 H 0.86220 -0.16870 0.72070
C17 C 0.8332(4) -0.0697(2) 0.7292(3)
H6 H 0.76640 -0.07610 0.73050
C18 C 0.8714(3) -0.0014(2) 0.7331(2)
C19 C 0.9693(3) 0.0072(2) 0.7266(2)
C20 C 1.0306(3) -0.0512(2) 0.7217(2)
C21 C 0.5896(3) 0.10063(19) 0.89575(18)
C22 C 0.6352(3) 0.1323(2) 0.95471(17)
C23 C 0.6017(3) 0.1124(2) 1.01340(18)
H7 H 0.55770 0.07580 1.01520
C24 C 0.6315(3) 0.1452(2) 1.06903(18)
C25 C 0.5813(3) 0.1258(2) 1.12825(18)
C26 C 0.7024(3) 0.1957(2) 1.06880(17)
C27 C 0.7376(3) 0.2295(2) 1.12591(18)
H8 H 0.71190 0.21750 1.16540
C28 C 0.8061(3) 0.2777(2) 1.12473(18)
H9 H 0.82780 0.29910 1.16310
C29 C 0.8462(3) 0.29662(19) 1.06588(17)
C30 C 0.9142(3) 0.34968(19) 1.06301(18)
C31 C 0.9470(3) 0.38857(19) 1.12119(16)
C32 C 0.9532(3) 0.36711(19) 1.00569(17)
H10 H 0.99740 0.40370 1.00460
C33 C 0.9289(3) 0.3323(2) 0.94985(17)
C34 C 0.9778(3) 0.3551(2) 0.89094(18)
C35 C 0.8580(3) 0.28114(19) 0.94973(17)
C36 C 0.8217(3) 0.2479(2) 0.89295(18)
H11 H 0.84860 0.25860 0.85350
C37 C 0.7496(3) 0.2014(2) 0.89404(18)
H12 H 0.72700 0.18130 0.85520
C38 C 0.7070(3) 0.1819(2) 0.95225(18)
C39 C 0.7429(3) 0.2131(2) 1.00965(17)
C40 C 0.8165(3) 0.26380(19) 1.00857(17)
Ni1 Ni 0.55203(4) -0.02502(3) 0.82318(3)
Ni2 Ni 0.52956(4) 0.13167(3) 0.75782(3)
Ni3 Ni 1.02718(4) 0.32268(3) 0.75584(3)
Ni4 Ni 1.02429(4) 0.47751(3) 0.81505(3)
O1 O 0.6826(2) 0.00661(15) 0.79406(14)
O2 O 0.6571(2) 0.09640(16) 0.73049(16)
O3 O 0.9181(2) 0.25060(13) 0.73452(13)
O4 O 1.0644(2) 0.21815(13) 0.75643(12)
O5 O 1.3366(2) -0.04473(14) 0.69483(15)
O6 O 1.3386(2) -0.15086(15) 0.72924(16)
O7 O 1.0779(2) -0.29581(13) 0.71965(14)
O8 O 0.9365(2) -0.26218(13) 0.74751(13)
O9 O 0.5742(2) 0.13878(15) 0.84981(14)
O10 O 0.5679(2) 0.03864(14) 0.89892(13)
O11 O 0.5696(2) 0.06418(13) 1.13958(13)
O12 O 0.5499(2) 0.17583(14) 1.16063(13)
O13 O 0.9912(2) 0.35518(15) 1.16400(13)
O14 O 0.9318(3) 0.45052(14) 1.12137(13)
O15 O 1.0020(3) 0.41539(17) 0.88943(15)
O16 O 0.9965(2) 0.31113(14) 0.84953(12)
O17 O 0.47407(18) 0.03844(12) 0.76378(11)
H13 H 0.41730 0.04450 0.77150
O18 O 0.95887(18) 0.41146(12) 0.75339(11)
H14 H 0.90370 0.40430 0.76430
O19 O 0.6310(3) -0.09640(19) 0.87836(18)
H15 H 0.68560 -0.08520 0.86590
H16 H 0.62250 -0.07900 0.91480
O20 O 0.8882(3) 0.5024(3) 0.8505(2)
H17 H 0.87780 0.46320 0.86600
H18 H 0.90930 0.52900 0.87980
Ni1A Ni 0.94797(4) 0.47498(3) 0.67682(3)
Ni1B Ni 0.44797(4) 0.02502(3) 1.17682(3)
Ni2A Ni 0.97044(4) -0.36833(3) 0.74218(3)
Ni2C Ni 1.02956(4) 0.36833(3) 1.25782(3)
Ni3A Ni 1.47282(4) -0.17732(3) 0.74416(3)
Ni3C Ni 0.52718(4) 0.17732(3) 1.25584(3)
Ni4A Ni 0.47571(4) -0.02249(3) 0.68495(3)
Ni4A* Ni 1.47571(4) -0.02249(3) 0.68495(3)
Ni4B Ni 0.97571(4) 0.52249(3) 1.18495(3)
O5A O 1.1634(2) 0.45527(14) 0.80517(15)
O6A O 1.1614(2) 0.34914(15) 0.77076(16)
O7A O 0.4221(2) 0.20419(13) 0.78035(14)
O8A O 0.5635(2) 0.23782(13) 0.75249(13)
O11B O 0.4304(2) -0.06418(13) 0.86042(13)
O12C O 1.0499(2) 0.32417(14) 0.66063(13)
O13C O 0.4912(2) 0.14482(15) 0.66400(13)
O14B O 1.0682(3) 0.54948(14) 0.87863(13)
O17A O 1.02593(18) 0.53844(12) 0.73622(11)
O18A O 0.54113(18) -0.08854(12) 0.74661(11)
#END
