
#######################################################################
#
#                 Cambridge Crystallographic Data Centre
#                                CCDC
#
#######################################################################
#
# If this CIF has been generated from an entry in the Cambridge
# Structural Database, then it will include bibliographic, chemical,
# crystal, experimental, refinement or atomic coordinate data resulting
# from the CCDC's data processing and validation procedures.
#
#######################################################################

data_CSD_CIF_OGENUL
_audit_creation_date 2013-09-02
_audit_creation_method CSD-ConQuest-V1
_database_code_CSD OGENUL
_database_code_depnum_ccdc_archive 'CCDC 844344'
_chemical_formula_sum 'C32 H28 Li6 Na2 O22'
_chemical_formula_moiety
;
(C16 H14 Li3 O11 1-)n,n(C16 H14 Li3 O11 1-),2n(Na1 1+)
;
_journal_coden_Cambridge 1612
_journal_volume 2
_journal_year 2012
_journal_page_first 130
_journal_name_full 'J.Cryst.ProcessTech. '
loop_
_publ_author_name
"B.Sivakumar"
"S.Gokul Raj"
"G.Ramesh Kumar"
"R.Mohan"
_chemical_name_systematic
;
catena-[sodium (\m~5~-phthalato)-(\m~4~-phthalato)-triaqua-tri-lithium]
;
_cell_volume   1831.431
_exptl_crystal_colour 'colorless'
_exptl_crystal_density_diffrn 1.545
_exptl_crystal_description 'square'
_diffrn_ambient_temperature 293
#These two values have been output from a single CSD field.
_refine_ls_R_factor_gt 0.041
_refine_ls_wR_factor_gt 0.041
_symmetry_cell_setting triclinic
_symmetry_space_group_name_H-M 'P -1'
_symmetry_Int_Tables_number 2
loop_
_symmetry_equiv_pos_site_id
_symmetry_equiv_pos_as_xyz
1 x,y,z
2 -x,-y,-z
_cell_length_a 7.5451(2)
_cell_length_b 9.8422(3)
_cell_length_c 25.2209(7)
_cell_angle_alpha 80.299(2)
_cell_angle_beta 89.204(2)
_cell_angle_gamma 82.777(1)
_cell_formula_units_Z 2
loop_
_atom_type_symbol
_atom_type_radius_bond
C 0.68
H 0.23
Li 1.28
Na 1.66
O 0.68
loop_
_atom_site_label
_atom_site_type_symbol
_atom_site_fract_x
_atom_site_fract_y
_atom_site_fract_z
C1 C 1.1345(2) 0.8766(2) 0.36769(8)
C2 C 1.2018(2) 1.0025(2) 0.36753(8)
C3 C 1.2796(3) 1.0652(2) 0.32111(9)
H1 H 1.32630 1.14830 0.32090
C4 C 1.2884(3) 1.0058(3) 0.27521(10)
H2 H 1.34120 1.04890 0.24440
C5 C 1.2194(3) 0.8831(3) 0.27495(9)
H3 H 1.22430 0.84340 0.24390
C6 C 1.1429(3) 0.8192(2) 0.32087(9)
H4 H 1.09600 0.73630 0.32050
C7 C 1.0653(2) 0.79765(19) 0.41835(8)
C8 C 1.1796(3) 1.0766(2) 0.41529(9)
O1 O 0.92207(18) 0.74637(15) 0.41568(6)
O2 O 0.7321(3) 1.0815(2) 0.36782(9)
O3 O 0.6008(3) 0.7899(2) 0.34511(10)
O4 O 0.5810(3) 0.8736(2) 0.45998(8)
O5 O 1.15745(17) 0.78533(15) 0.46003(5)
O6 O 1.3161(2) 1.09655(17) 0.43862(7)
O7 O 1.0225(2) 1.11784(16) 0.42656(7)
Li1 Li 0.7094(6) 0.8839(5) 0.39176(19)
H5 H 0.652(4) 1.100(5) 0.3922(13)
H6 H 0.830(3) 1.103(4) 0.3785(15)
H7 H 0.510(4) 0.815(4) 0.3244(15)
H8 H 0.588(6) 0.712(3) 0.3648(17)
H9 H 0.670(2) 0.880(2) 0.4797(8)
H10 H 0.524(8) 0.956(3) 0.451(3)
C9 C 0.4361(2) 0.43376(19) 0.36928(7)
C10 C 0.4756(3) 0.4408(2) 0.31519(8)
H11 H 0.59400 0.43810 0.30420
C11 C 0.3423(3) 0.4518(2) 0.27730(8)
H12 H 0.37080 0.45850 0.24100
C12 C 0.1669(3) 0.4527(2) 0.29326(8)
H13 H 0.07650 0.46050 0.26780
C13 C 0.1260(3) 0.4421(2) 0.34697(8)
H14 H 0.00780 0.43980 0.35770
C14 C 0.2581(2) 0.43463(18) 0.38559(7)
C15 C 0.2036(2) 0.43255(18) 0.44284(7)
C16 C 0.5919(2) 0.4290(2) 0.40742(7)
O8 O 0.6456(2) 0.54379(17) 0.41009(6)
O9 O 0.66101(18) 0.31454(16) 0.43179(6)
O10 O 0.31469(17) 0.45193(15) 0.47640(5)
O11 O 0.04498(16) 0.41545(14) 0.45565(6)
Li2 Li 0.9094(4) 0.2552(3) 0.46472(13)
Li3 Li 0.8511(4) 0.5717(3) 0.45623(14)
Na1 Na 0.44232(10) 0.67433(9) 0.47416(3)
C17 C 0.3644(2) 0.23186(19) 0.87015(8)
C18 C 0.2954(2) 0.10596(19) 0.87207(8)
C19 C 0.2213(3) 0.0769(2) 0.82602(9)
H15 H 0.17160 -0.00540 0.82730
C20 C 0.2203(3) 0.1684(3) 0.77829(9)
H16 H 0.17270 0.14670 0.74740
C21 C 0.2895(3) 0.2918(3) 0.77621(9)
H17 H 0.28830 0.35370 0.74400
C22 C 0.3609(3) 0.3238(2) 0.82194(9)
H18 H 0.40700 0.40770 0.82040
C23 C 0.4347(2) 0.27171(18) 0.92014(8)
C24 C 0.3185(3) -0.00658(19) 0.92069(8)
C25 C 0.7664(2) 0.33500(19) 1.11741(7)
C26 C 0.9468(2) 0.32335(19) 1.13221(7)
C27 C 0.9954(3) 0.2778(2) 1.18567(8)
H19 H 1.11490 0.27020 1.19560
C28 C 0.8701(3) 0.2434(2) 1.22436(9)
H20 H 0.90510 0.21230 1.26000
C29 C 0.6925(3) 0.2555(2) 1.20982(9)
H21 H 0.60720 0.23330 1.23570
C30 C 0.6417(3) 0.3002(2) 1.15699(8)
H22 H 0.52180 0.30740 1.14750
C31 C 0.7040(2) 0.38451(18) 1.06054(8)
C32 C 1.0949(2) 0.35862(19) 1.09321(7)
O12 O 0.58077(17) 0.32106(15) 0.91708(6)
O13 O 0.34057(17) 0.25612(15) 0.96117(5)
O14 O 0.47595(19) -0.05896(15) 0.93148(7)
O15 O 0.1835(2) -0.04526(16) 0.94451(7)
O16 O 1.13938(18) 0.47863(14) 1.08953(6)
O17 O 0.81224(16) 0.42919(14) 1.02570(5)
O18 O 1.16854(17) 0.26635(14) 1.06924(6)
O19 O 0.54232(16) 0.38175(14) 1.04955(6)
O20 O 0.7576(2) 0.03037(17) 0.87062(8)
O21 O 0.8869(2) 0.34448(18) 0.83805(7)
Li4 Li 0.6520(4) 0.4617(3) 0.95640(13)
Li5 Li 0.4099(4) 0.2325(3) 1.03574(13)
Li6 Li 0.7849(5) 0.2092(4) 0.88999(15)
H23 H 0.842(3) -0.031(3) 0.8830(15)
H24 H 0.660(2) 0.008(3) 0.8847(13)
H25 H 0.993(2) 0.330(4) 0.8231(14)
H26 H 0.891(4) 0.408(3) 0.8587(13)
O22 O 0.9251(2) 0.16499(16) 0.95684(6)
H27 H 1.001(3) 0.096(2) 0.9514(10)
H28 H 0.867(3) 0.140(3) 0.9854(7)
Na2 Na 0.05738(9) 0.35009(8) 0.97615(3)
O5A O 0.84255(17) 0.21467(15) 0.53997(5)
O7* O 1.0225(2) 0.11784(16) 0.42656(7)
O10A O 0.68531(17) 0.54807(15) 0.52360(5)
O11* O 1.04498(16) 0.41545(14) 0.45565(6)
O11A O 0.95502(16) 0.58455(14) 0.54435(6)
Li2* Li -0.0906(4) 0.2552(3) 0.46472(13)
Li2** Li 0.9094(4) 1.2552(3) 0.46472(13)
Li2A Li 1.0906(4) 0.7448(3) 0.53528(13)
Li3* Li -0.1489(4) 0.5717(3) 0.45623(14)
Li3A Li 0.1489(4) 0.4283(3) 0.54377(14)
O14A O 0.52405(19) 0.05896(15) 1.06852(7)
O16A O 0.86062(18) 0.52137(14) 0.91047(6)
O18* O 0.16854(17) 0.26635(14) 1.06924(6)
O19A O 0.45768(16) 0.61825(14) 0.95045(6)
Li4A Li 0.3480(4) 0.5383(3) 1.04360(13)
Li4A* Li 1.3480(4) 0.5383(3) 1.04360(13)
Li5* Li 1.4099(4) 0.2325(3) 1.03574(13)
Li5A Li 0.5901(4) -0.2325(3) 0.96426(13)
#END
