
#######################################################################
#
#                 Cambridge Crystallographic Data Centre
#                                CCDC
#
#######################################################################
#
# If this CIF has been generated from an entry in the Cambridge
# Structural Database, then it will include bibliographic, chemical,
# crystal, experimental, refinement or atomic coordinate data resulting
# from the CCDC's data processing and validation procedures.
#
#######################################################################

data_CSD_CIF_OGEPAT
_audit_creation_date 2013-09-02
_audit_creation_method CSD-ConQuest-V1
_database_code_CSD OGEPAT
_database_code_depnum_ccdc_archive 'CCDC 843912'
_chemical_formula_sum 'C16 H14 K1 Li3 O11'
_chemical_formula_moiety
;
(C16 H12 Li3 O10 1-)n,n(H2 O1),n(K1 1+)
;
_journal_coden_Cambridge 587
_journal_volume 33
_journal_year 2012
_journal_page_first 3755
_journal_name_full 'Bull.Korean Chem.Soc. '
loop_
_publ_author_name
"B.Sivakumar"
"S.Gokul Raj"
"G.Ramesh Kumar"
"R.Mohan"
_chemical_name_systematic
;
catena-[potassium (\m~6~-Phthalato)-(\m~4~-phthalato)-diaqua-tri-lithium 
monohydrate]
;
_cell_volume    927.490
_exptl_crystal_colour 'colorless'
_exptl_crystal_density_diffrn 1.576
_exptl_crystal_description 'block'
_diffrn_ambient_temperature 293
#These two values have been output from a single CSD field.
_refine_ls_R_factor_gt 0.0424
_refine_ls_wR_factor_gt 0.0424
_symmetry_cell_setting triclinic
_symmetry_space_group_name_H-M 'P -1'
_symmetry_Int_Tables_number 2
loop_
_symmetry_equiv_pos_site_id
_symmetry_equiv_pos_as_xyz
1 x,y,z
2 -x,-y,-z
_cell_length_a 7.405(5)
_cell_length_b 9.878(5)
_cell_length_c 13.396(5)
_cell_angle_alpha 71.778(5)
_cell_angle_beta 87.300(5)
_cell_angle_gamma 85.405(5)
_cell_formula_units_Z 2
loop_
_atom_type_symbol
_atom_type_radius_bond
C 0.68
H 0.23
K 2.03
Li 1.28
O 0.68
loop_
_atom_site_label
_atom_site_type_symbol
_atom_site_fract_x
_atom_site_fract_y
_atom_site_fract_z
C1 C 0.8875(3) 0.8081(3) 0.2396(2)
C2 C 0.8762(4) 0.9339(3) 0.1564(2)
H1 H 0.92270 1.01520 0.16320
C3 C 0.7971(5) 0.9404(4) 0.0639(2)
H2 H 0.78860 1.02590 0.00910
C4 C 0.7312(4) 0.8204(4) 0.0532(2)
H3 H 0.67780 0.82450 -0.00920
C5 C 0.7431(4) 0.6931(3) 0.1343(2)
H4 H 0.69900 0.61190 0.12590
C6 C 0.8207(3) 0.6857(3) 0.2282(2)
C7 C 0.9603(3) 0.8076(3) 0.3431(2)
C8 C 0.8375(3) 0.5464(3) 0.3141(2)
Li1 Li 0.4422(6) 0.4878(5) 0.3342(4)
Li2 Li 0.9018(6) 0.6933(5) 0.5765(3)
O1 O 0.8818(3) 0.7351(2) 0.42472(14)
O2 O 1.0906(3) 0.8813(2) 0.34049(16)
O3 O 0.9939(2) 0.4924(2) 0.33895(16)
O4 O 0.6942(2) 0.4911(2) 0.35437(15)
O5 O 0.3167(3) 0.5760(3) 0.43504(16)
O6 O 0.3089(3) 0.5991(3) 0.20857(17)
H5 H 0.322(4) 0.6878(15) 0.196(3)
H6 H 0.200(2) 0.583(4) 0.229(4)
C9 C 0.5745(3) 0.2475(3) 0.24295(19)
C10 C 0.5342(4) 0.3100(3) 0.1380(2)
H7 H 0.41370 0.32590 0.11830
C11 C 0.6686(4) 0.3492(3) 0.0621(2)
H8 H 0.63900 0.38840 -0.00830
C12 C 0.8476(4) 0.3299(3) 0.0912(2)
H9 H 0.93900 0.35750 0.04050
C13 C 0.8901(4) 0.2698(3) 0.1950(2)
H10 H 1.01090 0.25840 0.21410
C14 C 0.7563(3) 0.2258(3) 0.2721(2)
C15 C 0.4180(3) 0.2056(3) 0.31966(19)
C16 C 0.8088(3) 0.1496(3) 0.3828(2)
Li3 Li 0.1554(6) 0.0005(5) 0.4203(4)
O7 O 0.3602(2) 0.2930(2) 0.36804(14)
O8 O 0.3492(2) 0.0930(2) 0.32609(14)
O9 O 0.9706(2) 0.15317(19) 0.40773(15)
O10 O 0.6954(2) 0.0812(2) 0.44663(14)
O11 O 0.3725(4) 0.8807(3) 0.1995(2)
H11 H 0.447(5) 0.946(4) 0.178(4)
H12 H 0.279(4) 0.914(5) 0.225(5)
K1 K 0.52584(9) 0.82469(8) 0.41683(5)
Li2A Li 0.0982(6) 0.3067(5) 0.4235(3)
Li2A* Li 1.0982(6) 0.3067(5) 0.4235(3)
O2* O 0.0906(3) -0.1187(2) 0.34049(16)
O3A O 1.0061(2) 0.5076(2) 0.66105(16)
Li3* Li 1.1554(6) 0.0005(5) 0.4203(4)
Li3** Li 1.1554(6) 1.0005(5) 0.4203(4)
Li3A Li 0.8446(6) -0.0005(5) 0.5797(4)
O7A O 0.6398(2) 0.7070(2) 0.63196(14)
O9* O -0.0294(2) 0.15317(19) 0.40773(15)
O9A O 0.0294(2) -0.15317(19) 0.59227(15)
O9A* O 1.0294(2) 0.84683(19) 0.59227(15)
O10A O 0.3046(2) -0.0812(2) 0.55337(14)
#END
