
#######################################################################
#
#                 Cambridge Crystallographic Data Centre
#                                CCDC
#
#######################################################################
#
# If this CIF has been generated from an entry in the Cambridge
# Structural Database, then it will include bibliographic, chemical,
# crystal, experimental, refinement or atomic coordinate data resulting
# from the CCDC's data processing and validation procedures.
#
#######################################################################

data_CSD_CIF_OGESOJ
_audit_creation_date 2009-01-14
_audit_creation_method CSD-ConQuest-V1
_database_code_CSD OGESOJ
_database_code_depnum_ccdc_archive 'CCDC 654395'
_chemical_formula_sum 'C4 H10 Bi1 N1 O11'
_chemical_formula_moiety
;
(H4 N1 1+)n,n(C4 Bi1 O8 1-),3n(H2 O1)
;
_journal_coden_Cambridge 208
_journal_volume 181
_journal_year 2008
_journal_page_first 1133
_journal_name_full 'J.Solid State Chem. '
loop_
_publ_author_name
"Xinxiang Chen"
"Yanning Cao"
"Hanhui Zhang"
"Yiping Chen"
"Xuehuan Chen"
"Xiaochuan Chai"
_chemical_name_systematic
;
catena-(Ammonium bis(\m~2~-oxalato-O,O',O'',O''')-bismuth(iii) trihydrate)
;
_cell_volume   1263.139
_exptl_crystal_colour 'colorless'
_exptl_crystal_density_diffrn 2.404
_exptl_crystal_description 'block'
_diffrn_ambient_temperature 173
#These two values have been output from a single CSD field.
_refine_ls_R_factor_gt 0.0205
_refine_ls_wR_factor_gt 0.0205
_symmetry_cell_setting tetragonal
_symmetry_space_group_name_H-M 'I 41/a m d'
_symmetry_Int_Tables_number 141
loop_
_symmetry_equiv_pos_site_id
_symmetry_equiv_pos_as_xyz
1 x,y,z
2 1/4-y,3/4+x,1/4+z
3 1/4+y,1/4-x,3/4+z
4 1/4+y,3/4+x,1/4-z
5 1/2+x,1/2+y,1/2+z
6 3/4-y,1/4+x,3/4+z
7 3/4+y,3/4-x,1/4+z
8 3/4+y,1/4+x,3/4-z
9 -x,1/2-y,z
10 x,-y,-z
11 -x,1/2+y,-z
12 1/4-y,1/4-x,3/4-z
13 1/2-x,-y,1/2+z
14 1/2+x,1/2-y,1/2-z
15 1/2-x,y,1/2-z
16 3/4-y,3/4-x,1/4-z
17 -x,-y,-z
18 -1/4+y,-3/4-x,-1/4-z
19 -1/4-y,-1/4+x,-3/4-z
20 -1/4-y,-3/4-x,-1/4+z
21 -1/2-x,-1/2-y,-1/2-z
22 -3/4+y,-1/4-x,-3/4-z
23 -3/4-y,-3/4+x,-1/4-z
24 -3/4-y,-1/4-x,-3/4+z
25 x,-1/2+y,-z
26 -x,y,z
27 x,-1/2-y,z
28 -1/4+y,-1/4+x,-3/4+z
29 -1/2+x,y,-1/2-z
30 -1/2-x,-1/2+y,-1/2+z
31 -1/2+x,-y,-1/2+z
32 -3/4+y,-3/4+x,-1/4+z
_cell_length_a 11.7026(17)
_cell_length_b 11.7026(17)
_cell_length_c 9.2233(18)
_cell_angle_alpha 90
_cell_angle_beta 90
_cell_angle_gamma 90
_cell_formula_units_Z 4
loop_
_atom_type_symbol
_atom_type_radius_bond
C 0.68
Bi 1.54
N 0.68
O 0.68
loop_
_atom_site_label
_atom_site_type_symbol
_atom_site_fract_x
_atom_site_fract_y
_atom_site_fract_z
Bi1 Bi 0.50000 0.25000 0.62500
O1 O 0.50000 0.1300(4) 0.4082(5)
O2 O 0.50000 -0.0477(5) 0.3213(6)
C1 C 0.50000 0.0245(6) 0.4223(7)
N1 N 0.50000 0.25000 0.12500
O3 O 0.701(2) 0.049(2) 0.12500
O4 O 0.75000 0.25000 0.25000
Bi1B Bi 0.50000 -0.25000 0.37500
Bi1A Bi 0.00000 0.25000 0.87500
O1P O 0.50000 -0.1300(4) 0.5918(5)
O1C O 0.38000 0.2500(4) 0.8418(5)
O1A O 0.12000 0.2500(4) 0.6582(5)
O1Z O 0.50000 0.3700(4) 0.4082(5)
O1R O 0.62000 0.2500(4) 0.8418(5)
O2P O 0.50000 0.0477(5) 0.6787(6)
O2C O 0.20230 0.2500(5) 0.9287(6)
O2A O 0.29770 0.2500(5) 0.5713(6)
O2F O 0.70230 0.2500(5) 0.5713(6)
O2X O 0.50000 0.4523(5) 0.6787(6)
C1P C 0.50000 -0.0245(6) 0.5777(7)
C1C C 0.27450 0.2500(6) 0.8277(7)
C1A C 0.22550 0.2500(6) 0.6723(7)
#END
