
#######################################################################
#
#                 Cambridge Crystallographic Data Centre
#                                CCDC
#
#######################################################################
#
# If this CIF has been generated from an entry in the Cambridge
# Structural Database, then it will include bibliographic, chemical,
# crystal, experimental, refinement or atomic coordinate data resulting
# from the CCDC's data processing and validation procedures.
#
#######################################################################

data_CSD_CIF_OGIYUZ
_audit_creation_date 2010-07-26
_audit_creation_method CSD-ConQuest-V1
_database_code_CSD OGIYUZ
_database_code_depnum_ccdc_archive 'CCDC 714472'
_chemical_formula_sum 'C120 H132 Eu2 N10 O42 S8'
_chemical_formula_moiety
;
(C8 H20 N1 1+)2n,n(C104 H72 Eu2 N8 O32 S8 2-),10n(H2 O1)
;
_journal_coden_Cambridge 1350
_journal_volume 11
_journal_year 2009
_journal_page_first 2282
_journal_name_full 'CrystEngComm '
loop_
_publ_author_name
"Wuping Liao"
"Ce Liu"
"Xiaofei Wang"
"Guangshan Zhu"
"Xiaojun Zhao"
"Hongjie Zhang"
_chemical_name_systematic
;
catena-[bis(Tetra-ethylammonium) 
bis(\m~4~-25,26,27,28-tetrahydroxycalix(4)arene-5,11,17,23-tetrasulfonato-O,O'
,O'',O''')-tetrakis(1,10-phenanthroline-N,N')-di-europium(iii) decahydrate]
;
_cell_volume   7727.430
_exptl_crystal_colour 'colorless'
_exptl_crystal_density_diffrn 1.266
_exptl_special_details
;
Isomorphous with the bis(tetramethylammonium) di-neodymium(iii) heptahydrate 
analogue
;
_exptl_crystal_description 'block'
_diffrn_ambient_temperature 185
_refine_special_details
;
The ethyl units of the two tetra-ethylammonium cations are disordered by 
symmetry. The SQUEEZE/PLATON program has been used to model disordered 
solvent molecules. The unit cell contains a void of 2221 A$3! holding 640 
electrons.
;
#These two values have been output from a single CSD field.
_refine_ls_R_factor_gt 0.0629
_refine_ls_wR_factor_gt 0.0629
_symmetry_cell_setting tetragonal
_symmetry_space_group_name_H-M 'P 42/m c m'
_symmetry_Int_Tables_number 132
loop_
_symmetry_equiv_pos_site_id
_symmetry_equiv_pos_as_xyz
1 x,y,z
2 -x,-y,z
3 -y,x,1/2+z
4 y,-x,1/2+z
5 -x,y,1/2-z
6 x,-y,1/2-z
7 y,x,-z
8 -y,-x,-z
9 -x,-y,-z
10 x,y,-z
11 y,-x,-1/2-z
12 -y,x,-1/2-z
13 x,-y,-1/2+z
14 -x,y,-1/2+z
15 -y,-x,z
16 y,x,z
_cell_length_a 19.1147(4)
_cell_length_b 19.1147(4)
_cell_length_c 21.1495(7)
_cell_angle_alpha 90
_cell_angle_beta 90
_cell_angle_gamma 90
_cell_formula_units_Z 2
loop_
_atom_type_symbol
_atom_type_radius_bond
C 0.68
H 0.23
Eu 1.98
N 0.68
O 0.68
S 1.02
loop_
_atom_site_label
_atom_site_type_symbol
_atom_site_fract_x
_atom_site_fract_y
_atom_site_fract_z
Eu1 Eu 0.50000 0.00000 0.25000
S1 S 0.65403(9) -0.07317(8) 0.16741(7)
N1 N 0.4568(2) 0.1158(3) 0.3017(2)
C1 C 0.6525(3) -0.3475(3) 0.1694(3)
H1 H 0.61610 -0.38390 0.16440
H2 H 0.65990 -0.34010 0.21530
C2 C 0.6267(3) -0.2802(3) 0.1402(2)
C3 C 0.6484(3) -0.2164(3) 0.1646(2)
H3 H 0.67820 -0.21510 0.20060
C4 C 0.6263(3) -0.1540(3) 0.1364(3)
C5 C 0.5820(3) -0.1553(3) 0.0845(2)
H4 H 0.56630 -0.11270 0.06640
C6 C 0.5610(3) -0.2177(3) 0.0594(2)
C7 C 0.5831(3) -0.2800(3) 0.0869(2)
C8 C 0.5152(4) -0.2173(5) 0.00000
H5 H 0.48450 -0.25900 0.00000
H6 H 0.48520 -0.17510 0.00000
C9 C 0.4140(4) 0.1171(4) 0.3519(3)
H7 H 0.39970 0.07380 0.36980
C10 C 0.3895(4) 0.1788(3) 0.3791(4)
H8 H 0.35890 0.17720 0.41440
C11 C 0.4098(3) 0.2403(3) 0.3550(3)
H9 H 0.39360 0.28280 0.37320
C12 C 0.4547(3) 0.2418(3) 0.3029(3)
C13 C 0.4790(3) 0.3073(3) 0.2754(3)
H10 H 0.46500 0.35050 0.29370
C14 C 0.4766(3) 0.1781(3) 0.2765(3)
O1 O 0.5611(2) -0.3428(2) 0.06306(19)
O2 O 0.6910(3) -0.0372(2) 0.1163(2)
O3 O 0.5894(2) -0.0350(3) 0.18248(19)
O4 O 0.6957(3) -0.0875(2) 0.2225(2)
N2 N 0.1593(12) 0.1593(12) 0.00000
C15 C 0.1288(18) 0.1763(18) -0.0586(14)
C16 C 0.1606(10) 0.1606(10) -0.1205(13)
C17 C 0.238(3) 0.1789(18) 0.00000
C18 C 0.2524(13) 0.2524(13) 0.00000
C19 C 0.176(3) 0.075(2) 0.00000
C20 C 0.161(3) 0.000(2) 0.00000
N3 N 0.00000 0.00000 0.25000
C21 C -0.0646(10) -0.0010(8) 0.2795(9)
C22 C -0.0718(5) 0.0718(5) 0.2879(7)
Eu1J Eu 1.00000 -0.50000 0.25000
Eu1B Eu 1.00000 -0.50000 -0.25000
Eu1H Eu 0.50000 0.00000 -0.25000
Eu1J* Eu 0.00000 0.50000 0.25000
Eu1B* Eu 0.00000 0.50000 -0.25000
S1O S 0.92683(9) -0.34597(8) 0.16741(7)
S1F S 0.92683(9) -0.34597(8) -0.16741(7)
S1I S 0.65403(9) -0.07317(8) -0.16741(7)
S1A S 0.34597(9) 0.07317(8) 0.16741(7)
S1N S 0.07317(9) 0.34597(8) 0.16741(7)
S1G S 0.07317(9) 0.34597(8) -0.16741(7)
S1H S 0.34597(9) 0.07317(8) -0.16741(7)
N1D N 0.5432(2) 0.1158(3) 0.1983(2)
N1A N 0.5432(2) -0.1158(3) 0.3017(2)
N1E N 0.4568(2) -0.1158(3) 0.1983(2)
N1O N 1.1158(2) -0.5432(3) 0.3017(2)
N1J N 1.1158(2) -0.4568(3) 0.1983(2)
N1N N 0.8842(2) -0.4568(3) 0.3017(2)
N1K N 0.8842(2) -0.5432(3) 0.1983(2)
C1F C 0.6525(3) -0.3475(3) -0.1694(3)
C1A C 0.3475(3) 0.3475(3) 0.1694(3)
C1G C 0.3475(3) 0.3475(3) -0.1694(3)
H1F H 0.61610 -0.38390 -0.16440
H1A H 0.38390 0.38390 0.16440
H1G H 0.38390 0.38390 -0.16440
H2F H 0.65990 -0.34010 -0.21530
H2A H 0.34010 0.34010 0.21530
H2G H 0.34010 0.34010 -0.21530
C2O C 0.7198(3) -0.3733(3) 0.1402(2)
C2F C 0.7198(3) -0.3733(3) -0.1402(2)
C2I C 0.6267(3) -0.2802(3) -0.1402(2)
C2A C 0.3733(3) 0.2802(3) 0.1402(2)
C2N C 0.2802(3) 0.3733(3) 0.1402(2)
C2G C 0.2802(3) 0.3733(3) -0.1402(2)
C2H C 0.3733(3) 0.2802(3) -0.1402(2)
C3O C 0.7836(3) -0.3516(3) 0.1646(2)
C3F C 0.7836(3) -0.3516(3) -0.1646(2)
C3I C 0.6484(3) -0.2164(3) -0.1646(2)
C3A C 0.3516(3) 0.2164(3) 0.1646(2)
C3N C 0.2164(3) 0.3516(3) 0.1646(2)
C3G C 0.2164(3) 0.3516(3) -0.1646(2)
C3H C 0.3516(3) 0.2164(3) -0.1646(2)
H3O H 0.78490 -0.32180 0.20060
H3I H 0.67820 -0.21510 -0.20060
H3F H 0.78490 -0.32180 -0.20060
H3A H 0.32180 0.21510 0.20060
H3N H 0.21510 0.32180 0.20060
H3H H 0.32180 0.21510 -0.20060
H3G H 0.21510 0.32180 -0.20060
C4O C 0.8460(3) -0.3737(3) 0.1364(3)
C4F C 0.8460(3) -0.3737(3) -0.1364(3)
C4I C 0.6263(3) -0.1540(3) -0.1364(3)
C4A C 0.3737(3) 0.1540(3) 0.1364(3)
C4N C 0.1540(3) 0.3737(3) 0.1364(3)
C4G C 0.1540(3) 0.3737(3) -0.1364(3)
C4H C 0.3737(3) 0.1540(3) -0.1364(3)
C5O C 0.8447(3) -0.4180(3) 0.0845(2)
C5F C 0.8447(3) -0.4180(3) -0.0845(2)
C5I C 0.5820(3) -0.1553(3) -0.0845(2)
C5A C 0.4180(3) 0.1553(3) 0.0845(2)
C5N C 0.1553(3) 0.4180(3) 0.0845(2)
C5G C 0.1553(3) 0.4180(3) -0.0845(2)
C5H C 0.4180(3) 0.1553(3) -0.0845(2)
H4O H 0.88730 -0.43370 0.06640
H4I H 0.56630 -0.11270 -0.06640
H4F H 0.88730 -0.43370 -0.06640
H4A H 0.43370 0.11270 0.06640
H4N H 0.11270 0.43370 0.06640
H4H H 0.43370 0.11270 -0.06640
H4G H 0.11270 0.43370 -0.06640
C6O C 0.7823(3) -0.4390(3) 0.0594(2)
C6F C 0.7823(3) -0.4390(3) -0.0594(2)
C6I C 0.5610(3) -0.2177(3) -0.0594(2)
C6A C 0.4390(3) 0.2177(3) 0.0594(2)
C6N C 0.2177(3) 0.4390(3) 0.0594(2)
C6G C 0.2177(3) 0.4390(3) -0.0594(2)
C6H C 0.4390(3) 0.2177(3) -0.0594(2)
C7I C 0.5831(3) -0.2800(3) -0.0869(2)
C7F C 0.7200(3) -0.4169(3) -0.0869(2)
C7O C 0.7200(3) -0.4169(3) 0.0869(2)
C7A C 0.4169(3) 0.2800(3) 0.0869(2)
C7H C 0.4169(3) 0.2800(3) -0.0869(2)
C7G C 0.2800(3) 0.4169(3) -0.0869(2)
C7N C 0.2800(3) 0.4169(3) 0.0869(2)
C8F C 0.7827(4) -0.4848(5) 0.00000
C8A C 0.4848(4) 0.2173(5) 0.00000
C8G C 0.2173(4) 0.4848(5) 0.00000
H5F H 0.74100 -0.51550 0.00000
H5A H 0.51550 0.25900 0.00000
H5G H 0.25900 0.51550 0.00000
H6F H 0.82490 -0.51480 0.00000
H6A H 0.51480 0.17510 0.00000
H6G H 0.17510 0.51480 0.00000
C9D C 0.5860(4) 0.1171(4) 0.1481(3)
C9A C 0.5860(4) -0.1171(4) 0.3519(3)
C9E C 0.4140(4) -0.1171(4) 0.1481(3)
C9O C 1.1171(4) -0.5860(4) 0.3519(3)
C9J C 1.1171(4) -0.4140(4) 0.1481(3)
C9N C 0.8829(4) -0.4140(4) 0.3519(3)
C9K C 0.8829(4) -0.5860(4) 0.1481(3)
H7D H 0.60030 0.07380 0.13020
H7A H 0.60030 -0.07380 0.36980
H7E H 0.39970 -0.07380 0.13020
H7O H 1.07380 -0.60030 0.36980
H7J H 1.07380 -0.39970 0.13020
H7N H 0.92620 -0.39970 0.36980
H7K H 0.92620 -0.60030 0.13020
C10D C 0.6105(4) 0.1788(3) 0.1209(4)
C10A C 0.6105(4) -0.1788(3) 0.3791(4)
C10E C 0.3895(4) -0.1788(3) 0.1209(4)
C10O C 1.1788(4) -0.6105(3) 0.3791(4)
C10J C 1.1788(4) -0.3895(3) 0.1209(4)
C10N C 0.8212(4) -0.3895(3) 0.3791(4)
C10K C 0.8212(4) -0.6105(3) 0.1209(4)
H8D H 0.64110 0.17720 0.08560
H8A H 0.64110 -0.17720 0.41440
H8E H 0.35890 -0.17720 0.08560
H8O H 1.17720 -0.64110 0.41440
H8J H 1.17720 -0.35890 0.08560
H8N H 0.82280 -0.35890 0.41440
H8K H 0.82280 -0.64110 0.08560
C11D C 0.5902(3) 0.2403(3) 0.1450(3)
C11A C 0.5902(3) -0.2403(3) 0.3550(3)
C11E C 0.4098(3) -0.2403(3) 0.1450(3)
C11O C 1.2403(3) -0.5902(3) 0.3550(3)
C11J C 1.2403(3) -0.4098(3) 0.1450(3)
C11N C 0.7597(3) -0.4098(3) 0.3550(3)
C11K C 0.7597(3) -0.5902(3) 0.1450(3)
H9D H 0.60640 0.28280 0.12680
H9A H 0.60640 -0.28280 0.37320
H9E H 0.39360 -0.28280 0.12680
H9O H 1.28280 -0.60640 0.37320
H9J H 1.28280 -0.39360 0.12680
H9N H 0.71720 -0.39360 0.37320
H9K H 0.71720 -0.60640 0.12680
C12D C 0.5453(3) 0.2418(3) 0.1971(3)
C12A C 0.5453(3) -0.2418(3) 0.3029(3)
C12E C 0.4547(3) -0.2418(3) 0.1971(3)
C12O C 1.2418(3) -0.5453(3) 0.3029(3)
C12J C 1.2418(3) -0.4547(3) 0.1971(3)
C12N C 0.7582(3) -0.4547(3) 0.3029(3)
C12K C 0.7582(3) -0.5453(3) 0.1971(3)
C13D C 0.5210(3) 0.3073(3) 0.2246(3)
C13A C 0.5210(3) -0.3073(3) 0.2754(3)
C13E C 0.4790(3) -0.3073(3) 0.2246(3)
C13O C 1.3073(3) -0.5210(3) 0.2754(3)
C13J C 1.3073(3) -0.4790(3) 0.2246(3)
C13N C 0.6927(3) -0.4790(3) 0.2754(3)
C13K C 0.6927(3) -0.5210(3) 0.2246(3)
H10D H 0.53500 0.35050 0.20630
H10A H 0.53500 -0.35050 0.29370
H10E H 0.46500 -0.35050 0.20630
H10O H 1.35050 -0.53500 0.29370
H10J H 1.35050 -0.46500 0.20630
H10N H 0.64950 -0.46500 0.29370
H10K H 0.64950 -0.53500 0.20630
C14D C 0.5234(3) 0.1781(3) 0.2235(3)
C14A C 0.5234(3) -0.1781(3) 0.2765(3)
C14E C 0.4766(3) -0.1781(3) 0.2235(3)
C14O C 1.1781(3) -0.5234(3) 0.2765(3)
C14J C 1.1781(3) -0.4766(3) 0.2235(3)
C14N C 0.8219(3) -0.4766(3) 0.2765(3)
C14K C 0.8219(3) -0.5234(3) 0.2235(3)
O1I O 0.5611(2) -0.3428(2) -0.06306(19)
O1F O 0.6572(2) -0.4389(2) -0.06306(19)
O1O O 0.6572(2) -0.4389(2) 0.06306(19)
O1A O 0.4389(2) 0.3428(2) 0.06306(19)
O1H O 0.4389(2) 0.3428(2) -0.06306(19)
O1G O 0.3428(2) 0.4389(2) -0.06306(19)
O1N O 0.3428(2) 0.4389(2) 0.06306(19)
O2O O 0.9628(3) -0.3090(2) 0.1163(2)
O2F O 0.9628(3) -0.3090(2) -0.1163(2)
O2I O 0.6910(3) -0.0372(2) -0.1163(2)
O2A O 0.3090(3) 0.0372(2) 0.1163(2)
O2N O 0.0372(3) 0.3090(2) 0.1163(2)
O2G O 0.0372(3) 0.3090(2) -0.1163(2)
O2H O 0.3090(3) 0.0372(2) -0.1163(2)
O3O O 0.9650(2) -0.4106(3) 0.18248(19)
O3F O 0.9650(2) -0.4106(3) -0.18248(19)
O3I O 0.5894(2) -0.0350(3) -0.18248(19)
O3A O 0.4106(2) 0.0350(3) 0.18248(19)
O3N O 0.0350(2) 0.4106(3) 0.18248(19)
O3G O 0.0350(2) 0.4106(3) -0.18248(19)
O3H O 0.4106(2) 0.0350(3) -0.18248(19)
O3D O 0.4106(2) -0.0350(3) 0.31752(19)
O3E O 0.5894(2) 0.0350(3) 0.31752(19)
O3N* O 1.0350(2) -0.5894(3) 0.18248(19)
O3J O 0.9650(2) -0.5894(3) 0.31752(19)
O3K O 1.0350(2) -0.4106(3) 0.31752(19)
O4O O 0.9125(3) -0.3043(2) 0.2225(2)
O4F O 0.9125(3) -0.3043(2) -0.2225(2)
O4I O 0.6957(3) -0.0875(2) -0.2225(2)
O4A O 0.3043(3) 0.0875(2) 0.2225(2)
O4N O 0.0875(3) 0.3043(2) 0.2225(2)
O4G O 0.0875(3) 0.3043(2) -0.2225(2)
O4H O 0.3043(3) 0.0875(2) -0.2225(2)
C15O C 0.1763(18) 0.1288(18) -0.0586(14)
C15F C 0.1763(18) 0.1288(18) 0.0586(14)
C15I C 0.1288(18) 0.1763(18) 0.0586(14)
C16F C 0.1606(10) 0.1606(10) 0.1205(13)
C17F C 0.1789(30) 0.2380(18) 0.00000
C19F C 0.075(3) 0.176(2) 0.00000
C20F C 0.000(3) 0.161(2) 0.00000
C21E C -0.0646(10) 0.0010(8) 0.2205(9)
C21A C 0.0646(10) 0.0010(8) 0.2795(9)
C21D C 0.0646(10) -0.0010(8) 0.2205(9)
C21J C -0.001(1) 0.0646(8) 0.2205(9)
C21N C 0.001(1) 0.0646(8) 0.2795(9)
C21K C 0.001(1) -0.0646(8) 0.2205(9)
C21O C -0.001(1) -0.0646(8) 0.2795(9)
C22A C 0.0718(5) -0.0718(5) 0.2879(7)
C22E C -0.0718(5) -0.0718(5) 0.2121(7)
C22D C 0.0718(5) 0.0718(5) 0.2121(7)
#END
