
#######################################################################
#
#                 Cambridge Crystallographic Data Centre
#                                CCDC
#
#######################################################################
#
# If this CIF has been generated from an entry in the Cambridge
# Structural Database, then it will include bibliographic, chemical,
# crystal, experimental, refinement or atomic coordinate data resulting
# from the CCDC's data processing and validation procedures.
#
#######################################################################

data_CSD_CIF_OGUFIF
_audit_creation_date 2005-06-02
_audit_creation_method CSD-ConQuest-V1
_database_code_CSD OGUFIF
_database_code_depnum_ccdc_archive 'CCDC 189480'
_chemical_formula_sum 'C33 H65 K1 N8 O7 Ru1 Sn3'
_chemical_formula_moiety
;
(C18 H36 K1 N2 O6 1+)n,n(C15 H29 N6 O1 Ru1 Sn3 1-)
;
_journal_coden_Cambridge 1347
_journal_volume 73
_journal_year 2004
_journal_page_first 65
_journal_name_full 'Microporous and Mesoporous Materials '
loop_
_publ_author_name
"H.Hanika-Heidl"
"R.D.Fischer"
_chemical_name_systematic
;
catena-((2.2.2)Cryptand-potassium 
pentakis(\m~2~-cyano-C,N)-aqua-cyano-nonamethyl-ruthenium(ii)-tri-tin 
clathrate)
;
_cell_volume   4833.961
_exptl_crystal_colour 'colorless'
_exptl_crystal_density_diffrn 1.624
_exptl_crystal_description 'plate'
_diffrn_ambient_temperature 153
#These two values have been output from a single CSD field.
_refine_ls_R_factor_gt 0.0341
_refine_ls_wR_factor_gt 0.0341
_symmetry_cell_setting orthorhombic
_symmetry_space_group_name_H-M 'P c a 21'
_symmetry_Int_Tables_number 29
loop_
_symmetry_equiv_pos_site_id
_symmetry_equiv_pos_as_xyz
1 x,y,z
2 -x,-y,1/2+z
3 1/2+x,-y,z
4 1/2-x,y,1/2+z
_cell_length_a 19.6714(9)
_cell_length_b 12.7066(6)
_cell_length_c 19.3392(9)
_cell_angle_alpha 90
_cell_angle_beta 90
_cell_angle_gamma 90
_cell_formula_units_Z 4
loop_
_atom_type_symbol
_atom_type_radius_bond
C 0.68
H 0.23
K 1.85
N 0.68
O 0.68
Ru 1.40
Sn 1.46
loop_
_atom_site_label
_atom_site_type_symbol
_atom_site_fract_x
_atom_site_fract_y
_atom_site_fract_z
Ru1 Ru 0.509444(14) 0.37008(2) 0.00186(2)
C1 C 0.51234(19) 0.5289(3) -0.0039(3)
N1 N 0.5131(2) 0.6193(3) -0.0099(3)
Sn1 Sn 0.527226(16) 0.78786(2) -0.03679(2)
C2 C 0.4219(3) 0.8185(5) -0.0555(4)
H1 H 0.41720 0.86400 -0.09610
H2 H 0.40210 0.85370 -0.01510
H3 H 0.39810 0.75190 -0.06370
C3 C 0.5946(3) 0.7534(5) -0.1186(3)
H4 H 0.63930 0.78390 -0.10860
H5 H 0.57690 0.78330 -0.16170
H6 H 0.59890 0.67690 -0.12350
C4 C 0.5645(3) 0.8363(4) 0.0608(3)
H7 H 0.60620 0.79730 0.07160
H8 H 0.53020 0.82220 0.09640
H9 H 0.57450 0.91180 0.05960
O1 O 0.5430(2) 0.9652(3) -0.0768(2)
H10 H 0.5765(13) 0.995(2) -0.095(2)
H11 H 0.5229(19) 1.013(2) -0.055(2)
C5 C 0.4985(2) 0.3707(4) 0.1048(3)
N2 N 0.4914(2) 0.3715(3) 0.1641(2)
Sn2 Sn 0.484248(14) 0.49427(3) 0.250426(18)
C6 C 0.3800(2) 0.4637(4) 0.2607(3)
H12 H 0.37240 0.38750 0.26220
H13 H 0.35550 0.49380 0.22120
H14 H 0.36320 0.49560 0.30360
C7 C 0.5118(3) 0.6129(4) 0.1778(3)
H15 H 0.48260 0.60750 0.13690
H16 H 0.55940 0.60340 0.16420
H17 H 0.50610 0.68240 0.19900
C8 C 0.5596(3) 0.4115(5) 0.3073(3)
H18 H 0.56610 0.44550 0.35240
H19 H 0.60250 0.41240 0.28160
H20 H 0.54490 0.33860 0.31430
C9 C 0.6124(2) 0.3684(3) 0.0111(2)
N3 N 0.67099(17) 0.3740(3) 0.0141(2)
Sn3 Sn 0.761040(14) 0.49001(2) -0.00270(2)
C10 C 0.6970(3) 0.6106(5) 0.0346(4)
H21 H 0.68820 0.59940 0.08390
H22 H 0.65390 0.60940 0.00910
H23 H 0.71920 0.67890 0.02800
C11 C 0.8254(3) 0.3988(5) 0.0616(4)
H24 H 0.87230 0.40310 0.04460
H25 H 0.81040 0.32520 0.06100
H26 H 0.82340 0.42580 0.10910
C12 C 0.7631(3) 0.4498(6) -0.1098(3)
H27 H 0.72260 0.40840 -0.12130
H28 H 0.80400 0.40830 -0.11970
H29 H 0.76370 0.51420 -0.13770
C13 C 0.50720(18) 0.2097(3) 0.0065(3)
N4 N 0.50542(19) 0.1188(3) 0.0101(3)
C14 C 0.5188(2) 0.3734(4) -0.1024(2)
N5 N 0.5229(2) 0.3845(4) -0.1618(2)
C15 C 0.40708(19) 0.3795(3) -0.0090(2)
N6 N 0.34976(18) 0.3930(3) -0.0154(2)
C16 C 0.5903(2) 0.8341(4) 0.2689(3)
H30 H 0.55380 0.78840 0.28740
H31 H 0.60510 0.80390 0.22420
C17 C 0.5610(2) 0.9415(4) 0.2556(3)
H32 H 0.52070 0.93510 0.22530
H33 H 0.54620 0.97320 0.29990
O2 O 0.60945(15) 1.0071(3) 0.22398(19)
C18 C 0.5810(2) 1.1063(5) 0.2048(4)
H34 H 0.56510 1.14410 0.24660
H35 H 0.54160 1.09540 0.17380
C19 C 0.6338(3) 1.1695(5) 0.1690(3)
H36 H 0.64830 1.13300 0.12620
H37 H 0.61500 1.23890 0.15590
O3 O 0.69071(16) 1.1835(3) 0.2136(2)
C20 C 0.7379(3) 1.2525(5) 0.1838(3)
H38 H 0.71810 1.32390 0.18030
H39 H 0.74990 1.22830 0.13670
C21 C 0.8006(3) 1.2549(4) 0.2289(3)
H40 H 0.83240 1.30820 0.21030
H41 H 0.78730 1.27740 0.27600
N7 N 0.83653(19) 1.1529(3) 0.2338(2)
C22 C 0.8904(2) 1.1599(4) 0.2870(3)
H42 H 0.92010 1.22040 0.27570
H43 H 0.91850 1.09540 0.28440
C23 C 0.8653(2) 1.1726(4) 0.3607(3)
H44 H 0.90420 1.18670 0.39190
H45 H 0.83350 1.23280 0.36360
O4 O 0.83149(16) 1.0777(2) 0.38151(17)
C24 C 0.7994(3) 1.0923(4) 0.4471(3)
H46 H 0.76500 1.14900 0.44380
H47 H 0.83360 1.11310 0.48200
C25 C 0.7660(3) 0.9916(4) 0.4683(3)
H48 H 0.80040 0.93500 0.47150
H49 H 0.74470 1.00020 0.51430
O5 O 0.71625(16) 0.9640(3) 0.41954(18)
C26 C 0.6786(3) 0.8719(4) 0.4388(3)
H50 H 0.65860 0.88190 0.48530
H51 H 0.70950 0.81040 0.44060
C27 C 0.6237(2) 0.8522(4) 0.3878(3)
H52 H 0.59650 0.79120 0.40360
H53 H 0.59320 0.91420 0.38680
N8 N 0.64776(19) 0.8314(3) 0.3170(2)
C28 C 0.6809(3) 0.7281(4) 0.3133(3)
H54 H 0.64650 0.67290 0.32210
H55 H 0.71540 0.72360 0.35040
C29 C 0.7149(3) 0.7056(4) 0.2451(4)
H56 H 0.73450 0.63380 0.24580
H57 H 0.68090 0.70890 0.20750
O6 O 0.76719(17) 0.7800(3) 0.23242(19)
C30 C 0.7948(3) 0.7705(4) 0.1648(3)
H58 H 0.76040 0.79190 0.13020
H59 H 0.80740 0.69630 0.15580
C31 C 0.8567(3) 0.8396(4) 0.1588(3)
H60 H 0.88980 0.82220 0.19570
H61 H 0.87890 0.82900 0.11340
O7 O 0.83482(15) 0.9455(3) 0.16560(18)
C32 C 0.8908(3) 1.0141(5) 0.1609(3)
H62 H 0.91390 1.00420 0.11590
H63 H 0.92380 0.99800 0.19810
C33 C 0.8671(3) 1.1265(5) 0.1674(3)
H64 H 0.90650 1.17360 0.15960
H65 H 0.83350 1.14070 0.13050
K1 K 0.74132(5) 0.99243(8) 0.27508(6)
Sn2A Sn 0.515752(14) 0.50573(3) -0.249574(18)
Sn3B Sn 0.261040(14) 0.50999(2) -0.00270(2)
N5A N 0.4771(2) 0.6155(4) 0.3382(2)
N6B N 0.84976(18) 0.6070(3) -0.0154(2)
#END
