
#######################################################################
#
#                 Cambridge Crystallographic Data Centre
#                                CCDC
#
#######################################################################
#
# If this CIF has been generated from an entry in the Cambridge
# Structural Database, then it will include bibliographic, chemical,
# crystal, experimental, refinement or atomic coordinate data resulting
# from the CCDC's data processing and validation procedures.
#
#######################################################################

data_CSD_CIF_OGUZIA
_audit_creation_date 2010-07-30
_audit_creation_method CSD-ConQuest-V1
_database_code_CSD OGUZIA
_database_code_depnum_ccdc_archive 'CCDC 691730'
_chemical_formula_sum 'C21 H48 N2 O56 P8 Zn10'
_chemical_formula_moiety
;
(C16 H26 O52 P8 Zn10 2-)n,n(C5 H14 N2 2+),4n(H2 O1)
;
_journal_coden_Cambridge 222
_journal_year 2009
_journal_page_first 9440
_journal_name_full 'Dalton Trans. '
loop_
_publ_author_name
"Ruibiao Fu"
"Shengmin Hu"
"Xintao Wu"
_chemical_name_systematic
;
catena-(tetrakis(\m~5~-hydroxy(phosphonato)acetato)-bis(\m~4~-hydroxy(phosphon
ato)acetato)-bis(\m~3~-monohydrogen 
hydroxy(phosphonato)acetato)-tetraaqua-deca-zinc 2-methylpiperazinediium 
tetrahydrate)
;
_cell_volume   1390.741
_exptl_crystal_colour 'colorless'
_exptl_crystal_density_diffrn 2.539
_exptl_crystal_description 'prism'
_diffrn_ambient_temperature 293
_refine_special_details
;
Zn4 and Zn4A disordered over two sites with occupancies 0.75:0.25; C1 
disordered by symmetry over two sites with occupancy 0.50.
;
#These two values have been output from a single CSD field.
_refine_ls_R_factor_gt 0.0304
_refine_ls_wR_factor_gt 0.0304
_symmetry_cell_setting triclinic
_symmetry_space_group_name_H-M 'P -1'
_symmetry_Int_Tables_number 2
loop_
_symmetry_equiv_pos_site_id
_symmetry_equiv_pos_as_xyz
1 x,y,z
2 -x,-y,-z
_cell_length_a 10.1800(14)
_cell_length_b 11.0600(16)
_cell_length_c 14.0137(15)
_cell_angle_alpha 68.297(4)
_cell_angle_beta 78.859(5)
_cell_angle_gamma 72.300(7)
_cell_formula_units_Z 1
loop_
_atom_type_symbol
_atom_type_radius_bond
C 0.68
H 0.23
N 0.68
O 0.68
P 1.05
Zn 1.24
loop_
_atom_site_label
_atom_site_type_symbol
_atom_site_fract_x
_atom_site_fract_y
_atom_site_fract_z
O1 O 0.4192(4) 0.6266(4) -0.6090(3)
H1 H 0.507(5) 0.559(7) -0.611(5)
H2 H 0.418(4) 0.642(4) -0.547(2)
O2 O 0.3788(4) 0.6683(4) -0.4146(3)
H3 H 0.455(7) 0.593(7) -0.425(8)
H4 H 0.301(7) 0.63(1) -0.396(13)
N1 N -0.4302(4) -0.1313(4) -0.4317(3)
H5 H -0.43100 -0.21600 -0.39100
H6 H -0.34770 -0.11830 -0.42980
C1 C -0.3749(8) -0.1938(8) -0.5807(6)
H7 H -0.39790 -0.16980 -0.64980
H8 H -0.38790 -0.28160 -0.54090
H9 H -0.28000 -0.19450 -0.58230
C2 C -0.4496(6) -0.1119(5) -0.5417(4)
H10 H -0.54310 -0.12200 -0.53790
C3 C -0.5422(6) -0.0351(5) -0.3929(3)
H11 H -0.52790 -0.04850 -0.32280
H12 H -0.62990 -0.05390 -0.39100
Zn1 Zn -1.07753(3) 0.14624(3) 0.08602(2)
Zn2 Zn -1.07846(3) 0.64801(3) 0.08304(2)
Zn3 Zn -0.62436(3) 0.01330(3) 0.17730(2)
Zn4 Zn -0.97524(12) 0.22077(11) 0.48851(10)
Zn5 Zn -1.38149(3) 0.49055(3) -0.17641(2)
P1 P -1.22506(7) 0.46867(7) 0.01775(5)
P2 P -0.77800(7) 0.03026(7) -0.01563(5)
P3 P -0.84036(7) -0.01356(7) 0.38524(6)
P4 P -0.84335(8) 0.47441(7) 0.37991(6)
O3 O -0.6856(3) 0.2111(2) 0.1581(2)
H13 H -0.635(5) 0.238(5) 0.160(4)
H14 H -0.743(5) 0.269(5) 0.114(4)
O4 O -1.3342(2) 0.4942(2) -0.05102(17)
O5 O -1.1813(2) 0.59497(19) 0.00086(15)
O6 O -1.3146(3) 0.2931(2) -0.1598(2)
H15 H -1.379(5) 0.262(5) -0.163(4)
H16 H -1.269(4) 0.250(4) -0.126(3)
O7 O -1.1015(2) 0.34952(19) 0.01357(15)
O8 O -1.4158(2) 0.5232(2) 0.16972(19)
H17 H -1.389(5) 0.584(5) 0.162(4)
O9 O -1.4889(2) 0.30865(19) 0.20216(16)
O10 O -1.2780(2) 0.18695(19) 0.17230(16)
O11 O -0.9004(2) 0.15040(18) -0.01260(15)
O12 O -0.8224(2) -0.09497(19) -0.00075(15)
O13 O -0.6715(2) 0.0027(2) 0.05536(17)
O14 O -0.5808(2) -0.0300(2) -0.15960(18)
H18 H -0.617(5) -0.082(4) -0.155(3)
O15 O -0.5088(2) 0.1866(2) -0.19989(17)
O16 O -0.7195(2) 0.3098(2) -0.17054(17)
O17 O -0.7132(2) -0.0543(2) 0.31540(16)
O18 O -0.8275(2) 0.0974(2) 0.42081(16)
O19 O -0.8680(2) -0.1346(2) 0.47591(16)
O20 O -0.9762(2) 0.1596(2) 0.21489(17)
H19 H -0.993(5) 0.218(5) 0.229(4)
O21 O -1.0289(2) -0.0404(2) 0.19302(15)
O22 O -1.0613(3) -0.1502(2) 0.35864(16)
O23 O -0.8730(2) 0.3586(2) 0.47185(16)
O24 O -0.8278(2) 0.5874(2) 0.41544(19)
H20 H -0.741(6) 0.598(5) 0.394(4)
O25 O -0.7199(2) 0.4346(2) 0.30876(16)
O26 O -0.9839(2) 0.6598(2) 0.21726(18)
H21 H -0.996(5) 0.713(4) 0.241(3)
O27 O -1.0668(2) 0.3454(2) 0.35286(17)
O28 O -1.0332(2) 0.4613(2) 0.18916(15)
C4 C -1.3050(3) 0.4171(3) 0.1508(2)
H22 H -1.235(3) 0.387(3) 0.197(2)
C5 C -1.3618(3) 0.2965(3) 0.1768(2)
C6 C -0.6934(3) 0.0798(3) -0.1475(2)
H23 H -0.759(3) 0.105(3) -0.197(2)
C7 C -0.6355(3) 0.2000(3) -0.1739(2)
C8 C -0.9942(3) 0.0565(3) 0.3103(2)
H24 H -1.069(4) 0.088(3) 0.356(3)
C9 C -1.0308(3) -0.0525(3) 0.2863(2)
C10 C -1.0005(3) 0.5519(3) 0.3106(2)
H25 H -1.078(4) 0.578(3) 0.358(3)
C11 C -1.0361(3) 0.4456(3) 0.2823(2)
Zn6? Zn 0.0056(5) 0.2425(5) -0.5039(3)
N1A N -0.5698(4) 0.1313(4) -0.5683(3)
H5A H -0.56900 0.21600 -0.60900
H6A H -0.65230 0.11830 -0.57020
C1A C -0.6251(8) 0.1938(8) -0.4193(6)
H7A H -0.60210 0.16980 -0.35020
H8A H -0.61210 0.28160 -0.45910
H9A H -0.72000 0.19450 -0.41770
C2A C -0.5504(6) 0.1119(5) -0.4583(4)
H10A H -0.45690 0.12200 -0.46210
C3A C -0.4578(6) 0.0351(5) -0.6071(3)
H11A H -0.47210 0.04850 -0.67720
H12A H -0.37010 0.05390 -0.60900
Zn1A Zn -0.92247(3) -0.14624(3) -0.08602(2)
Zn1A* Zn -0.92247(3) 0.85376(3) -0.08602(2)
Zn1A** Zn -0.92247(3) -0.14624(3) 0.91398(2)
Zn2A Zn -0.92154(3) 0.35199(3) -0.08304(2)
Zn2* Zn -1.07846(3) -0.35199(3) 0.08304(2)
Zn3A Zn -1.37564(3) -0.01330(3) -0.17730(2)
Zn3A* Zn -0.37564(3) -0.01330(3) -0.17730(2)
Zn3* Zn -1.62436(3) 0.01330(3) 0.17730(2)
Zn3A** Zn -1.37564(3) -0.01330(3) 0.82270(2)
Zn4A Zn -1.02476(12) -0.22077(11) 0.51149(10)
Zn4A* Zn -1.02476(12) 0.77923(11) -0.48851(10)
Zn5A Zn -1.61851(3) 0.50945(3) 0.17641(2)
Zn5A* Zn -0.61851(3) 0.50945(3) 0.17641(2)
Zn5* Zn -0.38149(3) 0.49055(3) -0.17641(2)
P1A P -0.77494(7) 0.53133(7) -0.01775(5)
P2A P -1.22200(7) -0.03026(7) 0.01563(5)
P3A P -1.15964(7) 0.01356(7) 0.61476(6)
P4A P -1.15665(8) 0.52559(7) -0.37991(6)
O3A O -1.3144(3) -0.2111(2) -0.1581(2)
H13A H -1.365(5) -0.238(5) -0.160(4)
H14A H -1.257(5) -0.269(5) -0.114(4)
O4A O -0.6658(2) 0.5058(2) 0.05102(17)
O4A* O -1.6658(2) 0.5058(2) 0.05102(17)
O5A O -0.8187(2) 0.40503(19) -0.00086(15)
O6A O -1.6854(3) 0.7069(2) 0.1598(2)
H15A H -1.621(5) 0.738(5) 0.163(4)
H16A H -1.731(4) 0.750(4) 0.126(3)
O7A O -0.8985(2) 0.65048(19) -0.01357(15)
O7A* O -0.8985(2) -0.34952(19) -0.01357(15)
O8A O -0.5842(2) 0.4768(2) -0.16972(19)
O8A* O -1.5842(2) 0.4768(2) -0.16972(19)
H17A H -0.611(5) 0.416(5) -0.162(4)
H17A* H -1.611(5) 0.416(5) -0.162(4)
O9A O -0.5111(2) 0.69135(19) -0.20216(16)
O9A* O -1.5111(2) 0.69135(19) -0.20216(16)
O10A O -0.7220(2) 0.81305(19) -0.17230(16)
O10A* O -0.7220(2) -0.18695(19) -0.17230(16)
O11A O -1.0996(2) -0.15040(18) 0.01260(15)
O11A* O -1.0996(2) 0.84960(18) 0.01260(15)
O12A O -1.1776(2) 0.09497(19) 0.00075(15)
O13A O -1.3285(2) -0.0027(2) -0.05536(17)
O14A O -1.4192(2) 0.0300(2) 0.15960(18)
O14A* O -0.4192(2) 0.0300(2) 0.15960(18)
O14* O -1.5808(2) -0.0300(2) -0.15960(18)
H18A H -1.383(5) 0.082(4) 0.155(3)
H18A* H -0.383(5) 0.082(4) 0.155(3)
H18* H -1.617(5) -0.082(4) -0.155(3)
O15A O -1.4912(2) -0.1866(2) 0.19989(17)
O15A* O -0.4912(2) -0.1866(2) 0.19989(17)
O15* O -1.5088(2) 0.1866(2) -0.19989(17)
O16A O -1.2805(2) -0.3098(2) 0.17054(17)
O16A* O -1.2805(2) 0.6902(2) 0.17054(17)
O17A O -1.2868(2) 0.0543(2) 0.68460(16)
O17A* O -1.2868(2) 0.0543(2) -0.31540(16)
O18A O -1.1725(2) -0.0974(2) 0.57919(16)
O19A O -1.1320(2) 0.1346(2) 0.52409(16)
O20A O -1.0238(2) -0.1596(2) 0.78511(17)
O20A* O -1.0238(2) -0.1596(2) -0.21489(17)
H19A H -1.007(5) -0.218(5) 0.771(4)
H19A* H -1.007(5) -0.218(5) -0.229(4)
O21A O -0.9711(2) 0.0404(2) 0.80698(15)
O21A* O -0.9711(2) 0.0404(2) -0.19302(15)
O22A O -0.9387(3) 0.1502(2) 0.64136(16)
O23A O -1.1270(2) 0.6414(2) -0.47185(16)
O23A* O -1.1270(2) -0.3586(2) 0.52815(16)
O24A O -1.1722(2) 0.4126(2) -0.41544(19)
H20A H -1.259(6) 0.402(5) -0.394(4)
O25A O -1.2801(2) 0.5654(2) -0.30876(16)
O25* O -1.7199(2) 0.4346(2) 0.30876(16)
O26A O -1.0161(2) 0.3402(2) -0.21726(18)
H21A H -1.004(5) 0.287(4) -0.241(3)
O27A O -0.9332(2) 0.6546(2) -0.35286(17)
O27A* O -0.9332(2) -0.3454(2) 0.64714(17)
O28A O -0.9668(2) 0.5387(2) -0.18916(15)
C4A C -0.6950(3) 0.5829(3) -0.1508(2)
H22A H -0.765(3) 0.613(3) -0.197(2)
C5A C -0.6382(3) 0.7035(3) -0.1768(2)
C6A C -1.3066(3) -0.0798(3) 0.1475(2)
H23A H -1.241(3) -0.105(3) 0.197(2)
C7A C -1.3645(3) -0.2000(3) 0.1739(2)
C8A C -1.0058(3) -0.0565(3) 0.6897(2)
H24A H -0.931(4) -0.088(3) 0.644(3)
C9A C -0.9692(3) 0.0525(3) 0.7137(2)
C10A C -0.9995(3) 0.4481(3) -0.3106(2)
H25A H -0.922(4) 0.422(3) -0.358(3)
C11A C -0.9639(3) 0.5544(3) -0.2823(2)
#END
