
#######################################################################
#
#                 Cambridge Crystallographic Data Centre
#                                CCDC
#
#######################################################################
#
# If this CIF has been generated from an entry in the Cambridge
# Structural Database, then it will include bibliographic, chemical,
# crystal, experimental, refinement or atomic coordinate data resulting
# from the CCDC's data processing and validation procedures.
#
#######################################################################

data_CSD_CIF_OHAYAY
_audit_creation_date 2010-07-25
_audit_creation_method CSD-ConQuest-V1
_database_code_CSD OHAYAY
_database_code_depnum_ccdc_archive 'CCDC 731442'
_chemical_formula_sum 'C9 H21 Cu2 N9 O8'
_chemical_formula_moiety
;
(C1 H6 N3 1+)n,n(C8 H15 Cu2 N6 O8 1-)
;
_journal_coden_Cambridge 1350
_journal_volume 11
_journal_year 2009
_journal_page_first 2601
_journal_name_full 'CrystEngComm '
loop_
_publ_author_name
"S.A.Moggach"
"K.W.Galloway"
"A.R.Lennie"
"P.Parois"
"N.Rowantree"
"E.K.Brechin"
"J.E.Warren"
"M.Murrie"
"S.Parsons"
_chemical_name_systematic
;
catena-(Guanidinium 
(\m~4~-citrato)-(\m~2~-hydroxo)-bis(guanidine)-di-copper(ii))
;
_cell_volume   1594.389
_exptl_crystal_colour 'blue'
_exptl_crystal_density_diffrn 2.126
_exptl_special_details
;
Absolute configuration
phase transitions at 2.9 GPa and 4.2 GPa

;
_exptl_crystal_description 'block'
_diffrn_ambient_temperature 293
_diffrn_ambient_pressure 2950000.0
_diffrn_radiation_probe x-ray
_diffrn_source synchrotron
#These two values have been output from a single CSD field.
_refine_ls_R_factor_gt 0.0751
_refine_ls_wR_factor_gt 0.0751
_symmetry_cell_setting orthorhombic
_symmetry_space_group_name_H-M 'P 21 21 21'
_symmetry_Int_Tables_number 19
loop_
_symmetry_equiv_pos_site_id
_symmetry_equiv_pos_as_xyz
1 x,y,z
2 1/2+x,1/2-y,-z
3 -x,1/2+y,1/2-z
4 1/2-x,-y,1/2+z
_cell_length_a 15.0833(11)
_cell_length_b 12.1396(3)
_cell_length_c 8.7075(3)
_cell_angle_alpha 90
_cell_angle_beta 90
_cell_angle_gamma 90
_cell_formula_units_Z 4
loop_
_atom_type_symbol
_atom_type_radius_bond
C 0.68
H 0.23
Cu 1.63
N 0.68
O 0.76
loop_
_atom_site_label
_atom_site_type_symbol
_atom_site_fract_x
_atom_site_fract_y
_atom_site_fract_z
Cu1 Cu -0.41066(13) -0.10246(6) -0.55886(11)
Cu2 Cu -0.41526(13) -0.33892(6) -0.55665(11)
C1 C -0.5627(5) -0.2160(4) -0.6635(5)
C2 C -0.5985(8) -0.1141(5) -0.7462(7)
C3 C -0.5772(7) -0.0077(4) -0.6666(9)
C4 C -0.5904(5) -0.2152(6) -0.4922(5)
C5 C -0.3571(6) 0.0844(6) -0.3568(8)
C6 C -0.6036(8) -0.3170(5) -0.7398(8)
C7 C -0.5888(6) -0.4238(4) -0.6523(8)
C8 C -0.3623(7) -0.5327(6) -0.3699(10)
N1 N -0.3371(7) 0.0083(4) -0.4590(7)
N2 N -0.4358(7) 0.1343(5) -0.3580(8)
N3 N -0.3003(9) 0.1098(7) -0.2432(9)
N4 N -0.3417(7) -0.4527(5) -0.4663(8)
N5 N -0.4465(8) -0.5540(6) -0.3388(9)
N6 N -0.2987(10) -0.5961(10) -0.3062(14)
O1 O -0.4686(5) -0.2207(4) -0.6739(5)
O2 O -0.5119(6) -0.0040(4) -0.5764(6)
O3 O -0.6276(6) 0.0705(4) -0.6819(6)
O4 O -0.5313(5) -0.2221(5) -0.3934(5)
O5 O -0.6701(6) -0.2117(6) -0.4649(6)
O6 O -0.3362(7) -0.2231(5) -0.4952(5)
O7 O -0.5179(5) -0.4339(4) -0.5729(6)
O8 O -0.6454(6) -0.4981(4) -0.6606(7)
H1 H -0.27940 -0.22150 -0.49450
H2 H -0.28460 0.00430 -0.48180
H3 H -0.44870 0.18660 -0.29210
H4 H -0.47720 0.11280 -0.42480
H5 H -0.31430 0.16360 -0.17780
H6 H -0.25170 0.07350 -0.23320
H7 H -0.28960 -0.45530 -0.49480
H8 H -0.24340 -0.58410 -0.33810
H9 H -0.31170 -0.64810 -0.24510
H10 H -0.45980 -0.60860 -0.27330
H11 H -0.48940 -0.51870 -0.38420
H12 H -0.57290 -0.11260 -0.85110
H13 H -0.66400 -0.12150 -0.75410
H14 H -0.57630 -0.32630 -0.84310
H15 H -0.66790 -0.30540 -0.75140
C9 C -0.3562(9) -0.2267(5) -0.0920(6)
N7 N -0.3429(10) -0.1422(5) -0.1768(9)
N8 N -0.3494(10) -0.3270(5) -0.1518(9)
N9 N -0.3770(7) -0.2144(5) 0.0508(6)
H16 H -0.34490 -0.07500 -0.13710
H17 H -0.32800 -0.15000 -0.27440
H18 H -0.38080 -0.14820 0.09180
H19 H -0.38800 -0.27280 0.10860
H20 H -0.36010 -0.38580 -0.09390
H21 H -0.33390 -0.33640 -0.24830
Cu1B Cu -0.58934(13) -0.60246(6) -0.94114(11)
Cu2B Cu -0.58474(13) 0.16108(6) -0.94335(11)
O3B O -0.3724(6) -0.4295(4) -0.8181(6)
O8B O -0.3546(6) 0.0019(4) -0.8394(7)
#END
