
#######################################################################
#
#                 Cambridge Crystallographic Data Centre
#                                CCDC
#
#######################################################################
#
# If this CIF has been generated from an entry in the Cambridge
# Structural Database, then it will include bibliographic, chemical,
# crystal, experimental, refinement or atomic coordinate data resulting
# from the CCDC's data processing and validation procedures.
#
#######################################################################

data_CSD_CIF_OHEGAJ
_audit_creation_date 2003-01-24
_audit_creation_method CSD-ConQuest-V1
_database_code_CSD OHEGAJ
_database_code_depnum_ccdc_archive 'CCDC 184189'
_chemical_formula_sum 'C16 H44 As6 N6 O32 Zn6'
_chemical_formula_moiety
;
(C6 H20 N3 3+)2n,n(C4 H4 As6 O32 Zn6 6-)
;
_journal_coden_Cambridge 186
_journal_year 2002
_journal_page_first 4156
_journal_name_full 'J.Chem.Soc.,Dalton Trans. '
loop_
_publ_author_name
"S.Chakrabarti"
"S.Natarajan"
_chemical_name_systematic
;
catena-(bis(bis(3-Ammoniopropyl)ammonium) 
bis(\m~4~-arsenato)-tetrakis(\m~3~-hydrogen 
arsenato)-bis(\m~2~-oxalato)-hexa-zinc)
;
_cell_volume   2114.923
_exptl_crystal_colour 'colorless'
_exptl_crystal_density_diffrn 2.629
_exptl_crystal_description 'needle-like'
_diffrn_ambient_temperature 293
#These two values have been output from a single CSD field.
_refine_ls_R_factor_gt 0.0293
_refine_ls_wR_factor_gt 0.0293
_symmetry_cell_setting monoclinic
_symmetry_space_group_name_H-M 'P 21/c'
_symmetry_Int_Tables_number 14
loop_
_symmetry_equiv_pos_site_id
_symmetry_equiv_pos_as_xyz
1 x,y,z
2 x,1/2-y,1/2+z
3 -x,-y,-z
4 -x,-1/2+y,-1/2-z
_cell_length_a 16.0857(2)
_cell_length_b 9.1973(2)
_cell_length_c 15.4216(3)
_cell_angle_alpha 90
_cell_angle_beta 112.033(1)
_cell_angle_gamma 90
_cell_formula_units_Z 2
loop_
_atom_type_symbol
_atom_type_radius_bond
C 0.68
H 0.23
As 1.21
N 0.68
O 0.68
Zn 1.45
loop_
_atom_site_label
_atom_site_type_symbol
_atom_site_fract_x
_atom_site_fract_y
_atom_site_fract_z
As1 As 0.71917(4) -0.55043(6) -0.15945(4)
As2 As 0.77730(4) -0.79664(7) 0.11857(4)
As3 As 0.52912(4) -0.27033(6) 0.04077(4)
Zn1 Zn 0.89358(4) -0.74915(7) -0.02535(4)
Zn2 Zn 0.64665(4) -0.53096(7) 0.01269(4)
Zn3 Zn 0.59249(4) -0.56654(7) -0.37066(4)
O1 O 0.7155(3) -0.4761(4) -0.0628(3)
O2 O 0.7921(3) -0.6853(4) -0.1453(3)
O3 O 0.6170(2) -0.5957(4) -0.2361(2)
O4 O 0.7561(3) -0.4060(4) -0.2086(3)
H1 H 0.76020 -0.43240 -0.25760
O5 O 0.7279(3) -0.6380(4) 0.1195(3)
O6 O 0.8093(3) -0.8311(4) 0.0308(3)
O7 O 0.7121(2) -0.9404(4) 0.1224(3)
O8 O 0.8717(2) -0.8037(5) 0.2200(3)
H2 H 0.85790 -0.78690 0.26500
O9 O 0.5348(3) -0.1218(4) 0.1052(3)
O10 O 0.6326(2) -0.3373(4) 0.0616(3)
O11 O 0.4819(2) -0.2323(4) -0.0743(3)
O12 O 0.4667(3) -0.3922(4) 0.0703(3)
O13 O 0.9313(3) -0.5597(4) 0.0582(3)
O14 O 1.0022(3) -0.8635(4) 0.0797(3)
O15 O 1.0868(3) -1.0653(4) 0.1006(3)
O16 O 1.0153(3) -0.3600(4) 0.0806(3)
C1 C 0.9853(4) -0.4766(7) 0.0398(4)
C2 C 1.0255(4) -0.9788(7) 0.0522(4)
N1 N 0.9147(4) -0.4502(5) 0.2224(3)
H3 H 0.89830 -0.51950 0.25310
H4 H 0.97120 -0.42440 0.25490
H5 H 0.91020 -0.48370 0.16660
C3 C 0.8545(4) -0.3206(7) 0.2097(4)
H6 H 0.85870 -0.28510 0.27040
H7 H 0.79280 -0.34910 0.17500
C4 C 0.8804(4) -0.2010(7) 0.1578(4)
H8 H 0.94530 -0.19840 0.17950
H9 H 0.86110 -0.10920 0.17490
C5 C 0.8433(4) -0.2114(7) 0.0520(4)
H10 H 0.88200 -0.15690 0.02840
H11 H 0.84460 -0.31230 0.03420
N2 N 0.7491(3) -0.1548(5) 0.0066(3)
H12 H 0.71040 -0.22360 0.00960
H13 H 0.74240 -0.07660 0.03850
C6 C 0.7269(4) -0.1138(7) -0.0928(4)
H14 H 0.72760 -0.20000 -0.12870
H15 H 0.77220 -0.04740 -0.09690
C7 C 0.6364(4) -0.0427(7) -0.1339(4)
H16 H 0.63190 0.03230 -0.09170
H17 H 0.59020 -0.11450 -0.14070
C8 C 0.6214(4) 0.0237(7) -0.2278(4)
H18 H 0.66790 0.09490 -0.22110
H19 H 0.62550 -0.05150 -0.27020
N3 N 0.5314(3) 0.0955(5) -0.2684(3)
H20 H 0.52420 0.13370 -0.32380
H21 H 0.52790 0.16550 -0.23010
H22 H 0.48870 0.02990 -0.27550
C1B C 1.0147(4) -0.5234(7) -0.0398(4)
O13B O 1.0687(3) -0.4403(4) -0.0582(3)
O16B O 0.9847(3) -0.6400(4) -0.0806(3)
C2B C 0.9745(4) -1.0212(7) -0.0522(4)
O14B O 0.9978(3) -1.1365(4) -0.0797(3)
O15B O 0.9132(3) -0.9347(4) -0.1006(3)
Zn1B Zn 1.10642(4) -0.25085(7) 0.02535(4)
Zn3A Zn 0.59249(4) -0.93346(7) 0.12934(4)
As3B As 0.47088(4) -0.72967(6) -0.04077(4)
O9B O 0.4652(3) -0.8782(4) -0.1052(3)
O10B O 0.3674(2) -0.6627(4) -0.0616(3)
O11B O 0.5181(2) -0.7677(4) 0.0743(3)
O12B O 0.5333(3) -0.6078(4) -0.0703(3)
As2A As 0.77730(4) -0.70336(7) -0.38143(4)
O5A O 0.7279(3) -0.8620(4) -0.3805(3)
O6A O 0.8093(3) -0.6689(4) -0.4692(3)
O7A O 0.7121(2) -0.5596(4) -0.3776(3)
O8A O 0.8717(2) -0.6963(5) -0.2800(3)
H2A H 0.85790 -0.71310 -0.23500
As1B As 1.28083(4) -0.44957(6) 0.15945(4)
O1B O 1.2845(3) -0.5239(4) 0.0628(3)
O2B O 1.2079(3) -0.3147(4) 0.1453(3)
O3B O 1.3830(2) -0.4043(4) 0.2361(2)
O4B O 1.2439(3) -0.5940(4) 0.2086(3)
H1B H 1.23980 -0.56760 0.25760
Zn2B Zn 1.35335(4) -0.46904(7) -0.01269(4)
O9A O 0.5348(3) -0.3782(4) -0.3948(3)
O11C O 0.5181(2) -0.7323(4) -0.4257(3)
Zn3A* Zn 0.59249(4) 0.06654(7) 0.12934(4)
Zn3C Zn 0.40751(4) -0.06654(7) -0.12934(4)
Zn2B* Zn 0.35335(4) -0.46904(7) -0.01269(4)
Zn1B* Zn 1.10642(4) -1.25085(7) 0.02535(4)
O6B O 1.1907(3) -0.1689(4) -0.0308(3)
O14B* O 0.9978(3) -0.1365(4) -0.0797(3)
O15* O 1.0868(3) -0.0653(4) 0.1006(3)
O3A O 0.6170(2) -0.9043(4) 0.2639(2)
O9* O 0.5348(3) -1.1218(4) 0.1052(3)
Zn3C* Zn 0.40751(4) -1.06654(7) -0.12934(4)
Zn2A Zn 0.64665(4) -0.96904(7) -0.48731(4)
Zn1A Zn 0.89358(4) -0.75085(7) -0.52535(4)
Zn3B Zn 1.40751(4) -0.43346(7) 0.37066(4)
O5B O 1.2721(3) -0.3620(4) -0.1195(3)
O10B* O 1.3674(2) -0.6627(4) -0.0616(3)
O12* O 1.4667(3) -0.3922(4) 0.0703(3)
#END
