
#######################################################################
#
#                 Cambridge Crystallographic Data Centre
#                                CCDC
#
#######################################################################
#
# If this CIF has been generated from an entry in the Cambridge
# Structural Database, then it will include bibliographic, chemical,
# crystal, experimental, refinement or atomic coordinate data resulting
# from the CCDC's data processing and validation procedures.
#
#######################################################################

data_CSD_CIF_OHIHUJ
_audit_creation_date 2010-08-06
_audit_creation_method CSD-ConQuest-V1
_database_code_CSD OHIHUJ
_database_code_depnum_ccdc_archive 'CCDC 727654'
_chemical_formula_sum 'C18 H15 La1 N4 O9'
_chemical_formula_moiety
;
(C2 H5 N4 1+)n,n(C16 H10 La1 O9 1-)
;
_journal_coden_Cambridge 1350
_journal_volume 11
_journal_year 2009
_journal_page_first 2734
_journal_name_full 'CrystEngComm '
loop_
_publ_author_name
"Pei-Xiu Yin"
"Zhao-Ji Li"
"Jian Zhang"
"Lei Zhang"
"Qi-Pu Lin"
"Ye-Yan Qin"
"Yuan-Gen Yao"
_chemical_name_systematic
;
catena-((3-Ammino-1,2,4-triazole) aqua-bis(\m~3~-isophthalato)-lanthanum)
;
_cell_volume   1950.361
_exptl_crystal_colour 'colorless'
_exptl_crystal_density_diffrn 1.942
_exptl_special_details
;
Isomorphous with the Tb analogue

;
_exptl_crystal_description 'prism'
_diffrn_ambient_temperature 293
#These two values have been output from a single CSD field.
_refine_ls_R_factor_gt 0.0315
_refine_ls_wR_factor_gt 0.0315
_symmetry_cell_setting orthorhombic
_symmetry_space_group_name_H-M 'P n a 21'
_symmetry_Int_Tables_number 33
loop_
_symmetry_equiv_pos_site_id
_symmetry_equiv_pos_as_xyz
1 x,y,z
2 -x,-y,1/2+z
3 1/2+x,1/2-y,z
4 1/2-x,1/2+y,1/2+z
_cell_length_a 10.158(3)
_cell_length_b 13.269(4)
_cell_length_c 14.470(4)
_cell_angle_alpha 90
_cell_angle_beta 90
_cell_angle_gamma 90
_cell_formula_units_Z 4
loop_
_atom_type_symbol
_atom_type_radius_bond
C 0.68
H 0.23
La 1.87
N 0.68
O 0.68
loop_
_atom_site_label
_atom_site_type_symbol
_atom_site_fract_x
_atom_site_fract_y
_atom_site_fract_z
La1 La 1.00135(3) 0.842361(13) 0.69621(10)
O1 O 0.9690(4) 0.6435(2) 0.7071(5)
H1 H 0.89110 0.62960 0.69930
H2 H 0.99160 0.61120 0.75380
O2 O 1.2252(4) 0.9740(3) 0.6886(5)
O3 O 1.0663(4) 0.9971(3) 0.7923(3)
O4 O 1.3407(6) 1.2876(4) 1.0829(3)
O5 O 1.1535(6) 1.2045(4) 1.0720(3)
O6 O 0.8451(6) 0.8036(4) 0.8195(3)
O7 O 0.6593(6) 0.7157(4) 0.8117(3)
O8 O 0.5379(4) 0.4977(3) 1.0877(3)
O9 O 0.6877(3) 0.4821(3) 1.1966(4)
C1 C 1.2615(5) 1.0947(4) 0.8099(4)
C2 C 1.2246(5) 1.1267(4) 0.8978(4)
H3 H 1.14740 1.10250 0.92430
C3 C 1.3023(5) 1.1945(4) 0.9462(4)
C4 C 1.4178(6) 1.2299(4) 0.9067(4)
H4 H 1.47150 1.27390 0.93950
C5 C 1.4532(6) 1.1999(5) 0.8186(4)
H5 H 1.52970 1.22520 0.79200
C6 C 1.3764(6) 1.1332(4) 0.7703(4)
H6 H 1.40080 1.11350 0.71100
C7 C 1.1784(6) 1.0176(4) 0.7613(4)
C8 C 1.2621(6) 1.2315(5) 1.0418(5)
C9 C 0.7760(5) 0.7174(4) 0.9531(3)
C10 C 0.7021(5) 0.6401(4) 0.9918(4)
H7 H 0.63970 0.60720 0.95590
C11 C 0.7196(5) 0.6110(4) 1.0834(4)
C12 C 0.8093(6) 0.6643(4) 1.1376(4)
H8 H 0.81980 0.64720 1.19950
C13 C 0.8824(7) 0.7416(5) 1.1009(4)
H9 H 0.94280 0.77570 1.13770
C14 C 0.8662(6) 0.7692(4) 1.0086(4)
H10 H 0.91520 0.82200 0.98400
C15 C 0.7580(5) 0.7464(3) 0.8541(5)
C16 C 0.6442(6) 0.5250(4) 1.1259(4)
C17 C 1.2485(5) 0.9965(5) 1.4335(4)
C18 C 1.4488(7) 1.0285(6) 1.4770(5)
H11 H 1.52190 1.03740 1.51480
N1 N 1.4511(6) 1.0386(4) 1.3873(4)
N2 N 1.3245(5) 1.0149(4) 1.3618(4)
H12 H 1.29790 1.01240 1.30540
N3 N 1.3266(6) 1.0033(4) 1.5089(4)
H13 H 1.30390 0.99380 1.56550
N4 N 1.1226(5) 0.9761(3) 1.4311(4)
H14 H 1.08200 0.97370 1.37900
H15 H 1.08040 0.96490 1.48160
La1C La 1.49865(3) 1.342361(13) 1.19621(10)
La1A La 0.99865(3) 1.157639(13) 1.19621(10)
La1B La 0.50135(3) 0.657639(13) 0.69621(10)
La1C* La 0.49865(3) 0.342361(13) 1.19621(10)
O4C O 1.1593(6) 0.7876(4) 0.5829(3)
O5A O 0.8465(6) 0.7955(4) 0.5720(3)
O7B O 1.1593(6) 0.7843(4) 0.8117(3)
O8C O 0.9621(4) 0.9977(3) 0.5877(3)
O9C O 0.8123(3) 0.9821(3) 0.6966(4)
#END
