
#######################################################################
#
#                 Cambridge Crystallographic Data Centre
#                                CCDC
#
#######################################################################
#
# If this CIF has been generated from an entry in the Cambridge
# Structural Database, then it will include bibliographic, chemical,
# crystal, experimental, refinement or atomic coordinate data resulting
# from the CCDC's data processing and validation procedures.
#
#######################################################################

data_CSD_CIF_OHITOR
_audit_creation_date 2020-04-08
_audit_creation_method CSD-ConQuest-V1
_database_code_CSD OHITOR
_database_code_depnum_ccdc_archive 'CCDC 1910162'
_chemical_formula_sum 'C18 H44 Mn3 N24 O7 S6'
_chemical_formula_moiety
;
(C18 H30 Mn2 N24 S6 2-)n,H12 Mn1 O6 2+,H2 O1
;
_journal_coden_Cambridge 211
_journal_volume 73
_journal_year 2020
_journal_page_first 375
_journal_name_full 'J.Coord.Chem. '
loop_
_publ_author_name
"Huang-Fei Qin"
"You Li"
"Xing-Mei Qin"
"Hai-Ye Li"
"He-Dong Bian"
"Qing Yu"
"Fu-Ping Huang"
_chemical_name_systematic
;
catena-[hexakis(\m-5-(ethylthio)-1H-tetrazole)-di-manganese(ii) 
hexakis(aqua)-manganese(ii) monohydrate]
;
_cell_volume   4566.779
_exptl_crystal_colour 'colorless'
_exptl_crystal_density_diffrn 1.547
_exptl_crystal_description 'bulk'
_diffrn_ambient_temperature 293
#These two values have been output from a single CSD field.
_refine_ls_R_factor_gt 0.0784
_refine_ls_wR_factor_gt 0.0784
_symmetry_cell_setting monoclinic
_symmetry_space_group_name_H-M 'C 2/c'
_symmetry_Int_Tables_number 15
loop_
_symmetry_equiv_pos_site_id
_symmetry_equiv_pos_as_xyz
1 x,y,z
2 -x,y,1/2-z
3 1/2+x,1/2+y,z
4 1/2-x,1/2+y,1/2-z
5 -x,-y,-z
6 x,-y,-1/2+z
7 -1/2-x,-1/2-y,-z
8 -1/2+x,-1/2-y,-1/2+z
_cell_length_a 17.7842(15)
_cell_length_b 18.5261(11)
_cell_length_c 15.9295(15)
_cell_angle_alpha 90
_cell_angle_beta 119.525(12)
_cell_angle_gamma 90
_cell_formula_units_Z 4
loop_
_atom_type_symbol
_atom_type_radius_bond
C 0.68
H 0.23
Mn 1.61
N 0.68
O 0.68
S 1.02
loop_
_atom_site_label
_atom_site_type_symbol
_atom_site_fract_x
_atom_site_fract_y
_atom_site_fract_z
Mn1 Mn 0.50000 0.00000 1.00000
Mn2 Mn 0.50000 -0.02702(8) 1.25000
S1 S 0.37898(16) 0.21210(14) 0.67356(17)
S2 S 0.62464(17) 0.18138(15) 1.05276(19)
S3 S 0.74464(16) 0.0218(2) 0.8437(2)
N1 N 0.4408(3) 0.0904(3) 0.8914(4)
N2 N 0.4405(3) 0.1052(3) 0.8080(4)
N3 N 0.3740(4) 0.1921(3) 0.8408(5)
N4 N 0.4010(4) 0.1421(3) 0.9100(5)
N5 N 0.5579(3) 0.0797(3) 1.1212(4)
N6 N 0.5557(3) 0.0673(3) 1.2035(4)
N7 N 0.5924(4) 0.1207(4) 1.2612(5)
N8 N 0.6217(4) 0.1695(4) 1.2224(5)
N9 N 0.6211(3) 0.0193(3) 0.8956(5)
N10 N 0.6178(4) 0.0058(3) 0.9780(5)
N11 N 0.6941(4) -0.0119(4) 1.0476(5)
N12 N 0.7509(4) -0.0114(4) 1.0147(6)
C1 C 0.3987(5) 0.1689(4) 0.7793(6)
C2 C 0.3693(7) 0.3035(5) 0.7066(7)
H1 H 0.31780 0.30810 0.71260
H2 H 0.41900 0.31550 0.76830
C3 C 0.3639(8) 0.3547(6) 0.6297(9)
H3 H 0.31670 0.34080 0.56820
H4 H 0.41690 0.35280 0.62760
H5 H 0.35470 0.40300 0.64470
C4 C 0.5997(5) 0.1419(4) 1.1357(5)
C5 C 0.6265(9) 0.2754(6) 1.0834(9)
H6 H 0.65700 0.28020 1.15300
H7 H 0.65860 0.30230 1.05890
C6 C 0.5394(10) 0.3077(7) 1.0443(12)
H8 H 0.51240 0.31050 0.97530
H9 H 0.54450 0.35530 1.07040
H10 H 0.50500 0.27820 1.06190
C7 C 0.7033(5) 0.0076(4) 0.9229(6)
C8 C 0.8464(7) -0.0223(7) 0.9065(11)
H11 H 0.88270 0.00180 0.96740
H12 H 0.83850 -0.07200 0.91990
C9 C 0.8880(9) -0.0203(9) 0.8457(12)
H13 H 0.84460 -0.02390 0.77900
H14 H 0.92750 -0.06000 0.86240
H15 H 0.91890 0.02430 0.85640
Mn3 Mn 0.25000 0.25000 1.00000
O1 O 0.3638(3) 0.1811(3) 1.0573(4)
H16 H 0.384(4) 0.158(4) 1.110(3)
H17 H 0.384(4) 0.164(4) 1.023(2)
O2 O 0.2317(4) 0.2223(4) 1.1190(4)
H18 H 0.276(2) 0.213(5) 1.1733(18)
H19 H 0.195(4) 0.246(4) 1.128(4)
O3 O 0.1655(4) 0.1558(4) 0.9145(6)
H20 H 0.18920 0.11470 0.94400
O4 O 0.00000 0.1979(8) 0.75000
H21 H 0.04040 0.17120 0.79080
H22? H 0.04040 0.17120 0.79080
S2A S 0.37536(17) 0.18138(15) 1.44724(19)
N5A N 0.4421(3) 0.0797(3) 1.3788(4)
N6A N 0.4443(3) 0.0673(3) 1.2965(4)
N7A N 0.4076(4) 0.1207(4) 1.2388(5)
N8A N 0.3783(4) 0.1695(4) 1.2776(5)
C4A C 0.4003(5) 0.1419(4) 1.3643(5)
C5A C 0.3735(9) 0.2754(6) 1.4166(9)
H6A H 0.34300 0.28020 1.34700
H7A H 0.34140 0.30230 1.44110
C6A C 0.4606(10) 0.3077(7) 1.4557(12)
H8A H 0.48760 0.31050 1.52470
H9A H 0.45550 0.35530 1.42960
H10A H 0.49500 0.27820 1.43810
S1D S 0.62102(16) -0.21210(14) 1.32644(17)
N1D N 0.5592(3) -0.0904(3) 1.1086(4)
N2D N 0.5595(3) -0.1052(3) 1.1920(4)
N3D N 0.6260(4) -0.1921(3) 1.1592(5)
N4D N 0.5990(4) -0.1421(3) 1.0900(5)
C1D C 0.6013(5) -0.1689(4) 1.2207(6)
C2D C 0.6307(7) -0.3035(5) 1.2934(7)
H1D H 0.68220 -0.30810 1.28740
H2D H 0.58100 -0.31550 1.23170
C3D C 0.6361(8) -0.3547(6) 1.3703(9)
H3D H 0.68330 -0.34080 1.43180
H4D H 0.58310 -0.35280 1.37240
H5D H 0.64530 -0.40300 1.35530
S3D S 0.25536(16) -0.0218(2) 1.1563(2)
N9D N 0.3789(3) -0.0193(3) 1.1044(5)
N10D N 0.3822(4) -0.0058(3) 1.0220(5)
N11D N 0.3059(4) 0.0119(4) 0.9524(5)
N12D N 0.2491(4) 0.0114(4) 0.9853(6)
C7D C 0.2967(5) -0.0076(4) 1.0771(6)
C8D C 0.1536(7) 0.0223(7) 1.0935(11)
H11D H 0.11730 -0.00180 1.03260
H12D H 0.16150 0.07200 1.08010
C9D C 0.1120(9) 0.0203(9) 1.1543(12)
H13D H 0.15540 0.02390 1.22100
H14D H 0.07250 0.06000 1.13760
H15D H 0.08110 -0.02430 1.14360
Mn1A Mn 0.50000 0.00000 1.50000
Mn2D Mn 0.50000 0.02702(8) 0.75000
N2E N 0.4405(3) -0.1052(3) 1.3080(4)
N5D N 0.4421(3) -0.0797(3) 0.8788(4)
N9E N 0.6211(3) -0.0193(3) 1.3956(5)
O1F O 0.1362(3) 0.3189(3) 0.9427(4)
H16F H 0.116(4) 0.342(4) 0.890(3)
H17F H 0.116(4) 0.336(4) 0.977(2)
O2F O 0.2683(4) 0.2777(4) 0.8810(4)
H18F H 0.224(2) 0.287(5) 0.8267(18)
H19F H 0.305(4) 0.254(4) 0.872(4)
O3F O 0.3345(4) 0.3442(4) 1.0855(6)
H20F H 0.31080 0.38530 1.05600
H21A H -0.04040 0.17120 0.70920
#END
