
#######################################################################
#
#                 Cambridge Crystallographic Data Centre
#                                CCDC
#
#######################################################################
#
# If this CIF has been generated from an entry in the Cambridge
# Structural Database, then it will include bibliographic, chemical,
# crystal, experimental, refinement or atomic coordinate data resulting
# from the CCDC's data processing and validation procedures.
#
#######################################################################

data_CSD_CIF_OHUMIP
_audit_creation_date 2015-06-25
_audit_creation_method CSD-ConQuest-V1
_database_code_CSD OHUMIP
_database_code_depnum_ccdc_archive 'CCDC 1408921'
_chemical_formula_sum 'C63 H118 Mo12 N3 O46 P1 Zn4'
_chemical_formula_moiety
;
(C16 H36 N1 1+)3n,n(C15 H10 Mo12 O46 P1 Zn4 3-)
;
_journal_coden_Cambridge 4
_journal_volume 137
_journal_year 2015
_journal_page_first 7169
_journal_name_full 'J.Am.Chem.Soc. '
loop_
_publ_author_name
"Jun-Sheng Qin"
"Dong-Ying Du"
"Wei Guan"
"Xiang-Jie Bo"
"Ya-Fei Li"
"Li-Ping Guo"
"Zhong-Min Su"
"Yuan-Yuan Wang"
"Ya-Qian Lan"
"Hong-Cai Zhou"
_chemical_name_systematic
;
catena-[tris(Tetra-n-butylammonium) 
(\m~11~-phosphato)-(\m~3~-biphenyl-3,4',5-tricarboxylato)-tridecakis(\m~3~-oxo
)-tris(\m~2~-hydroxo)-octakis(\m~2~-oxo)-dodeca-oxo-tetra-molybdenum(vi)-octa-
molybdenum(v)-tetra-zinc(ii)]
;
_chemical_name_common
;
NENU-501
;
_cell_volume  20491.954
_exptl_crystal_density_diffrn 2.006
_exptl_crystal_description 'block'
_diffrn_ambient_temperature 296
_refine_special_details
;
One of the cations is disordered.

;
#These two values have been output from a single CSD field.
_refine_ls_R_factor_gt 0.0461
_refine_ls_wR_factor_gt 0.0461
_symmetry_cell_setting monoclinic
_symmetry_space_group_name_H-M 'C 2/c'
_symmetry_Int_Tables_number 15
loop_
_symmetry_equiv_pos_site_id
_symmetry_equiv_pos_as_xyz
1 x,y,z
2 -x,y,1/2-z
3 1/2+x,1/2+y,z
4 1/2-x,1/2+y,1/2-z
5 -x,-y,-z
6 x,-y,-1/2+z
7 -1/2-x,-1/2-y,-z
8 -1/2+x,-1/2-y,-1/2+z
_cell_length_a 28.8818(13)
_cell_length_b 27.4017(13)
_cell_length_c 26.7889(12)
_cell_angle_alpha 90
_cell_angle_beta 104.860(1)
_cell_angle_gamma 90
_cell_formula_units_Z 8
loop_
_atom_type_symbol
_atom_type_radius_bond
C 0.68
H 0.23
Mo 1.54
N 0.68
O 0.68
P 1.05
Zn 1.22
loop_
_atom_site_label
_atom_site_type_symbol
_atom_site_fract_x
_atom_site_fract_y
_atom_site_fract_z
Mo1 Mo 0.27872(2) 0.43989(2) 0.17288(3)
Mo2 Mo 0.19254(2) 0.46321(2) 0.17754(3)
Mo3 Mo 0.10998(2) 0.36904(3) 0.19061(3)
Mo4 Mo 0.13791(2) 0.27816(3) 0.19626(3)
Mo5 Mo 0.25058(2) 0.23996(3) 0.19215(2)
Mo6 Mo 0.32362(2) 0.32363(3) 0.18035(3)
Mo7 Mo 0.29999(2) 0.37961(2) 0.06152(3)
Mo8 Mo 0.15863(2) 0.21682(2) 0.08511(2)
Mo9 Mo 0.09270(2) 0.43793(2) 0.08061(3)
Mo10 Mo 0.11015(2) 0.38359(2) -0.01807(3)
Mo11 Mo 0.14689(2) 0.26472(2) -0.00154(2)
Mo12 Mo 0.22706(2) 0.35701(2) -0.01563(2)
Zn1 Zn 0.23886(3) 0.35142(4) 0.24933(3)
Zn2 Zn 0.19879(3) 0.46491(3) 0.04487(3)
Zn3 Zn 0.06608(3) 0.31228(3) 0.06702(4)
Zn4 Zn 0.22634(3) 0.24719(3) -0.07036(3)
P1 P 0.19370(6) 0.34688(6) 0.10957(7)
O1 O 0.2616(2) 0.3554(2) 0.3225(2)
O2 O 0.2033(2) 0.4089(2) 0.3243(2)
O3 O 0.20766(18) 0.48002(19) 0.5031(2)
O4 O 0.2804(2) 0.4784(2) 0.5581(2)
O5 O 0.5025(2) 0.2152(2) 0.5469(3)
O6 O 0.5308(2) 0.2803(2) 0.5962(3)
O7 O 0.3747(2) 0.2998(2) 0.2180(2)
O8 O 0.2889(2) 0.2016(2) 0.2314(2)
O9 O 0.32295(19) 0.3860(2) 0.2053(2)
O10 O 0.27595(19) 0.3054(2) 0.21984(19)
O11 O 0.3091(2) 0.4873(2) 0.2045(2)
O12 O 0.2020(2) 0.2478(2) 0.2244(2)
O13 O 0.23886(19) 0.41628(19) 0.2171(2)
O14 O 0.16944(19) 0.3375(2) 0.2280(2)
O15 O 0.1086(2) 0.2562(2) 0.2375(2)
O16 O 0.2040(2) 0.5159(2) 0.2091(2)
O17 O 0.1480(2) 0.4322(2) 0.2185(2)
O18 O 0.0735(2) 0.3692(2) 0.2298(2)
O19 O 0.33856(17) 0.33990(19) 0.1208(2)
O20 O 0.28976(17) 0.26413(18) 0.14500(18)
O21 O 0.31058(18) 0.43824(19) 0.1124(2)
O22 O 0.21736(18) 0.20111(18) 0.14066(19)
O23 O 0.24671(17) 0.36453(18) 0.12489(18)
O24 O 0.18843(17) 0.29666(18) 0.13458(18)
O25 O 0.22386(18) 0.46776(18) 0.1213(2)
O26 O 0.12419(19) 0.22171(18) 0.1442(2)
O27 O 0.16300(17) 0.38526(17) 0.13000(19)
O28 O 0.13374(19) 0.47994(19) 0.1227(2)
O29 O 0.09086(18) 0.31400(19) 0.1436(2)
O30 O 0.07111(18) 0.40861(19) 0.1317(2)
O31 O 0.34100(19) 0.3934(2) 0.0304(2)
O32 O 0.27181(16) 0.31690(17) 0.03519(18)
O33 O 0.24185(17) 0.41547(17) 0.02751(19)
O34 O 0.20430(16) 0.23892(17) 0.04715(18)
O35 O 0.1396(2) 0.16179(19) 0.0629(2)
O36 O 0.17713(16) 0.34181(17) 0.05007(18)
O37 O 0.10924(16) 0.26304(17) 0.04963(19)
O38 O 0.13334(17) 0.44022(17) 0.03098(19)
O39 O 0.07861(17) 0.37590(18) 0.0405(2)
O40 O 0.0465(2) 0.4734(2) 0.0507(2)
O41 O 0.25128(19) 0.3663(2) -0.0651(2)
O42 O 0.19194(16) 0.29465(17) -0.03889(17)
O43 O 0.12458(19) 0.21961(19) -0.0430(2)
O44 O 0.16317(17) 0.39048(18) -0.0419(2)
O45 O 0.10067(16) 0.31914(18) -0.03139(19)
O46 O 0.0665(2) 0.4107(2) -0.0632(2)
C1 C 0.2388(3) 0.3843(3) 0.3457(3)
C2 C 0.2608(3) 0.3877(3) 0.4031(3)
C3 C 0.3005(3) 0.3602(3) 0.4257(3)
H1 H 0.31220 0.33800 0.40570
C4 C 0.3236(3) 0.3648(3) 0.4778(3)
C5 C 0.3058(3) 0.3987(3) 0.5063(3)
H2 H 0.32130 0.40280 0.54100
C6 C 0.2663(3) 0.4266(3) 0.4852(3)
C7 C 0.2428(3) 0.4214(3) 0.4330(3)
H3 H 0.21580 0.43990 0.41830
C8 C 0.2507(3) 0.4641(3) 0.5188(3)
C9 C 0.3677(3) 0.3361(3) 0.5012(3)
C10 C 0.4043(3) 0.3559(4) 0.5393(4)
H4 H 0.40110 0.38740 0.55090
C11 C 0.4453(3) 0.3303(4) 0.5603(4)
H5 H 0.46900 0.34440 0.58650
C12 C 0.4524(3) 0.2835(3) 0.5432(4)
C13 C 0.4158(3) 0.2631(3) 0.5062(4)
H6 H 0.41920 0.23150 0.49500
C14 C 0.3737(3) 0.2887(3) 0.4849(4)
H7 H 0.34940 0.27410 0.45980
C15 C 0.4989(3) 0.2585(3) 0.5645(3)
N1 N 0.1880(4) 0.1315(4) 0.3036(4)
C16 C 0.1796(6) 0.1842(4) 0.3155(5)
H8 H 0.19650 0.20610 0.29780
H9 H 0.14560 0.19090 0.30340
C17 C 0.1936(12) 0.1915(6) 0.3710(6)
H10 H 0.22330 0.17420 0.38500
H11 H 0.16980 0.17900 0.38750
C18 C 0.2018(14) 0.2471(7) 0.3826(9)
H12 H 0.23370 0.25600 0.38040
H13 H 0.17900 0.26520 0.35630
C19 C 0.1953(16) 0.2614(10) 0.4341(12)
H14 H 0.16720 0.24610 0.43980
H15 H 0.19210 0.29620 0.43550
H16 H 0.22300 0.25110 0.46020
C20 C 0.1980(6) 0.1324(5) 0.2502(4)
H17 H 0.17980 0.15750 0.22820
H18 H 0.23190 0.13870 0.25470
C21 C 0.1874(8) 0.0834(6) 0.2288(6)
H19 H 0.15540 0.07480 0.23100
H20 H 0.20960 0.05930 0.24780
C22 C 0.1898(10) 0.0843(7) 0.1711(6)
H21 H 0.16050 0.09850 0.15010
H22 H 0.21640 0.10450 0.16770
C23 C 0.1947(16) 0.0334(9) 0.1518(10)
H23 H 0.22770 0.02810 0.15240
H24 H 0.17530 0.02970 0.11710
H25 H 0.18500 0.01000 0.17380
C24 C 0.2287(4) 0.1071(5) 0.3428(5)
H26 H 0.22660 0.11480 0.37750
H27 H 0.22860 0.07200 0.33850
C25 C 0.2714(5) 0.1308(8) 0.3327(7)
H28 H 0.26660 0.16570 0.32840
H29 H 0.27570 0.11770 0.30050
C26 C 0.3164(5) 0.1206(12) 0.3758(10)
H30 H 0.34370 0.13640 0.36760
H31 H 0.32260 0.08580 0.37850
C27 C 0.3102(12) 0.1385(13) 0.4277(8)
H32 H 0.32550 0.16980 0.43470
H33 H 0.32480 0.11610 0.45480
H34 H 0.27680 0.14180 0.42610
C28 C 0.1430(4) 0.1007(6) 0.3018(8)
H35 H 0.14120 0.07430 0.27730
H36 H 0.14120 0.08760 0.33490
C29 C 0.1053(5) 0.1384(9) 0.2783(12)
H37 H 0.09990 0.14230 0.24120
H38 H 0.11540 0.16960 0.29470
C30 C 0.0578(6) 0.1219(12) 0.2904(14)
H39 H 0.04630 0.14630 0.31050
H40 H 0.03290 0.11550 0.25920
C31 C 0.0701(12) 0.0741(12) 0.3227(16)
H41 H 0.09560 0.05800 0.31230
H42 H 0.04270 0.05290 0.31670
H43 H 0.08030 0.08200 0.35880
N2 N 0.0672(3) 0.4499(3) 0.3752(3)
C32 C 0.0292(5) 0.4877(5) 0.3756(5)
H44 H 0.00720 0.47640 0.39510
H45 H 0.04340 0.51830 0.39020
C33 C 0.0046(9) 0.493(1) 0.3201(7)
H46 H -0.00670 0.46130 0.30590
H47 H 0.02720 0.50510 0.30180
C34 C -0.0385(9) 0.5280(11) 0.3117(12)
H48 H -0.06180 0.51970 0.27980
H49 H -0.05390 0.52470 0.33980
C35 C -0.023(2) 0.5801(9) 0.309(2)
H50 H 0.00860 0.58040 0.30320
H51 H -0.02160 0.59630 0.34140
H52 H -0.04480 0.59690 0.28170
C36 C 0.0430(5) 0.4020(4) 0.3519(7)
H53 H 0.01760 0.39220 0.36750
H54 H 0.03060 0.40390 0.31470
C37 C 0.0857(9) 0.3692(7) 0.3675(19)
H55 H 0.09480 0.36600 0.40490
H56 H 0.11220 0.38410 0.35720
C38 C 0.0760(9) 0.3190(6) 0.3432(14)
H57 H 0.08880 0.31740 0.31320
H58 H 0.09250 0.29480 0.36780
C39 C 0.0233(11) 0.3073(13) 0.3278(18)
H59 H 0.01780 0.28090 0.30350
H60 H 0.00570 0.33550 0.31210
H61 H 0.01280 0.29810 0.35770
C40 C 0.0988(5) 0.4416(6) 0.4295(4)
H62 H 0.11510 0.41040 0.43290
H63 H 0.12190 0.46760 0.44050
C41 C 0.060(1) 0.4422(10) 0.4575(7)
H64 H 0.03050 0.45380 0.43420
H65 H 0.06880 0.46500 0.48610
C42 C 0.0525(15) 0.3926(10) 0.4783(11)
H66 H 0.07850 0.37090 0.47600
H67 H 0.02300 0.37910 0.45690
C43 C 0.0483(12) 0.3953(11) 0.5337(8)
H68 H 0.07620 0.41160 0.55430
H69 H 0.04670 0.36290 0.54660
H70 H 0.02020 0.41320 0.53530
C44 C 0.0997(5) 0.4673(6) 0.3408(6)
H71 H 0.13350 0.46650 0.35840
H72 H 0.09380 0.44990 0.30830
C45 C 0.0798(14) 0.5198(9) 0.336(2)
H73 H 0.05640 0.52320 0.30340
H74 H 0.06410 0.52660 0.36360
C46 C 0.122(2) 0.5549(8) 0.340(3)
H75 H 0.13400 0.56620 0.37520
H76 H 0.11090 0.58300 0.31810
C47 C 0.1599(9) 0.5285(12) 0.3200(14)
H77 H 0.16700 0.49810 0.33820
H78 H 0.18820 0.54830 0.32700
H79 H 0.14930 0.52220 0.28350
N3 N -0.0069(4) 0.2062(4) -0.1413(5)
C48 C -0.0038(10) 0.1952(8) -0.0852(6)
H80 H -0.03530 0.19440 -0.07850
H81 H 0.01690 0.21760 -0.06150
C49 C 0.0171(13) 0.1441(7) -0.0846(8)
H82 H 0.03820 0.14330 -0.10750
H83 H -0.00820 0.12040 -0.09690
C50 C 0.0454(9) 0.1301(9) -0.0308(11)
H84 H 0.07790 0.12160 -0.03120
H85 H 0.04680 0.15810 -0.00830
C51 C 0.0226(13) 0.0884(12) -0.0092(11)
H86 H 0.04470 0.06160 -0.00240
H87 H -0.00620 0.07870 -0.03400
H88 H 0.01510 0.09810 0.02230
C52 C 0.0429(6) 0.2233(9) -0.1466(13)
H89 H 0.06850 0.21400 -0.11700
H90 H 0.05030 0.21220 -0.17820
C53 C 0.0327(13) 0.2774(8) -0.1469(17)
H91 H -0.00170 0.28220 -0.15700
H92 H 0.04490 0.29090 -0.11260
C54 C 0.0545(12) 0.3042(12) -0.1852(12)
H93 H 0.05090 0.28470 -0.21620
H94 H 0.03790 0.33480 -0.19500
C55 C 0.1067(10) 0.3159(13) -0.1618(16)
H95 H 0.11070 0.33050 -0.12840
H96 H 0.11840 0.33770 -0.18380
H97 H 0.12420 0.28580 -0.15840
C56 C -0.0208(12) 0.1597(9) -0.1743(10)
H98 H -0.03990 0.16670 -0.20900
H99 H 0.00730 0.14090 -0.17580
C57 C -0.0499(17) 0.1363(12) -0.1411(13)
H100 H -0.04640 0.15480 -0.10950
H101 H -0.03760 0.10370 -0.13190
C58 C -0.1026(11) 0.1324(15) -0.170(3)
H102 H -0.12110 0.15160 -0.15140
H103 H -0.10740 0.14590 -0.20420
C59 C -0.1193(15) 0.0797(19) -0.174(3)
H104 H -0.10290 0.06130 -0.19470
H105 H -0.15310 0.07900 -0.18950
H106 H -0.11280 0.06570 -0.14000
C60 C -0.0427(8) 0.2469(10) -0.1633(9)
H107 H -0.02720 0.27810 -0.16480
H108 H -0.06230 0.23850 -0.19730
C61 C -0.0718(9) 0.2463(13) -0.1246(10)
H109 H -0.05230 0.25890 -0.09210
H110 H -0.08110 0.21320 -0.11880
C62 C -0.1169(8) 0.2784(9) -0.1436(16)
H111 H -0.12030 0.29960 -0.11580
H112 H -0.11400 0.29860 -0.17230
C63 C -0.161(1) 0.2457(15) -0.1598(18)
H113 H -0.15130 0.21360 -0.16710
H114 H -0.18240 0.25900 -0.19030
H115 H -0.17710 0.24400 -0.13260
C64? C 0.0272(5) 0.4668(6) 0.3309(5)
H116? H 0.03920 0.47490 0.30140
H117? H 0.00270 0.44180 0.32090
C65? C 0.0079(6) 0.5114(6) 0.3509(7)
H118? H 0.02900 0.53900 0.35110
H119? H 0.00590 0.50570 0.38600
C66? C -0.0418(8) 0.5236(10) 0.3153(14)
H120? H -0.04220 0.51660 0.27970
H121? H -0.06500 0.50240 0.32480
C67? C -0.0574(10) 0.5744(9) 0.3217(15)
H122? H -0.09060 0.57820 0.30430
H123? H -0.03840 0.59530 0.30600
H124? H -0.05240 0.58310 0.35740
C68? C 0.0925(5) 0.4056(5) 0.3601(8)
H125? H 0.10210 0.41150 0.32850
H126? H 0.12040 0.39670 0.38740
C69? C 0.0547(7) 0.3671(5) 0.3523(10)
H127? H 0.03630 0.36710 0.31650
H128? H 0.03300 0.37460 0.37350
C70? C 0.0761(16) 0.3165(5) 0.3656(18)
H129? H 0.10970 0.31720 0.36570
H130? H 0.07410 0.30830 0.40020
C71? C 0.0502(12) 0.2774(6) 0.3288(13)
H131? H 0.01610 0.28240 0.32120
H132? H 0.05800 0.24590 0.34430
H133? H 0.06030 0.27930 0.29750
C72? C 0.0454(5) 0.4355(8) 0.4209(5)
H134? H 0.02770 0.46220 0.43110
H135? H 0.02490 0.40710 0.41260
C73? C 0.0903(8) 0.4248(14) 0.4606(6)
H136? H 0.11350 0.45030 0.45980
H137? H 0.10340 0.39430 0.45190
C74? C 0.0843(9) 0.4208(10) 0.5150(5)
H138? H 0.11570 0.41850 0.53910
H139? H 0.06910 0.45030 0.52300
C75? C 0.054(3) 0.378(2) 0.522(2)
H140? H 0.02110 0.38750 0.51660
H141? H 0.06580 0.36500 0.55590
H142? H 0.05590 0.35300 0.49680
C76? C 0.1044(6) 0.4899(6) 0.3952(5)
H143? H 0.09030 0.51710 0.40920
H144? H 0.13120 0.47730 0.42180
C77? C 0.1200(6) 0.5048(6) 0.3488(6)
H145? H 0.09420 0.52240 0.32540
H146? H 0.12670 0.47590 0.33100
C78? C 0.1644(8) 0.5367(12) 0.3625(9)
H147? H 0.19260 0.51620 0.36900
H148? H 0.16500 0.55440 0.39400
C79? C 0.1669(10) 0.5726(9) 0.3207(11)
H149? H 0.15050 0.55950 0.28770
H150? H 0.19970 0.57890 0.32130
H151? H 0.15170 0.60250 0.32660
Zn2E Zn 0.19879(3) 0.53509(3) 0.54487(3)
Zn3G Zn 0.56608(3) 0.18772(3) 0.56702(4)
Zn4F Zn 0.27366(3) 0.25281(3) 0.07036(3)
O3E O 0.20766(18) 0.51998(19) 0.0031(2)
O5G O 0.0025(2) 0.2848(2) 0.0469(3)
O20F O 0.21024(17) 0.23587(18) -0.14500(18)
O32F O 0.22819(16) 0.18310(17) -0.03519(18)
O34F O 0.29570(16) 0.26108(17) -0.04715(18)
#END
