
#######################################################################
#
#                 Cambridge Crystallographic Data Centre
#                                CCDC
#
#######################################################################
#
# If this CIF has been generated from an entry in the Cambridge
# Structural Database, then it will include bibliographic, chemical,
# crystal, experimental, refinement or atomic coordinate data resulting
# from the CCDC's data processing and validation procedures.
#
#######################################################################

data_CSD_CIF_OHUQIR
_audit_creation_date 2003-10-28
_audit_creation_method CSD-ConQuest-V1
_database_code_CSD OHUQIR
_database_code_depnum_ccdc_archive 'CCDC 175149; CCDC 412352'
_chemical_formula_sum 'C6 H12 Na4 O24 P2 Zn2'
_chemical_formula_moiety
;
(Na1 1+)4n,n(C6 H4 O20 P2 Zn2 4-),4n(H2 O1)
;
_journal_coden_Cambridge 1295
_journal_volume 6
_journal_year 2003
_journal_page_first 919
_journal_name_full 'Inorg.Chem.Commun. '
loop_
_publ_author_name
"Zhi-Yong Fu"
"Jing-Cao Dai"
"Jian-Jun Zhang"
"Sheng-Min Hu"
"Rui-Biao Fu"
"Wen-Xin Du"
"Xin-Tao Wu"
_chemical_name_systematic
;
catena-(Tetra-sodium (\m~2~-oxalato)-bis(\m~2~-dihydrogen 
phosphato)-bis(oxalato)-di-zinc(ii) tetrahydrate)
;
_cell_volume   2155.464
_exptl_crystal_colour 'colorless'
_exptl_crystal_density_diffrn 2.32
_exptl_special_details
;
photoluminescent

;
_exptl_crystal_description 'block'
_diffrn_ambient_temperature 293
#These two values have been output from a single CSD field.
_refine_ls_R_factor_gt 0.0307
_refine_ls_wR_factor_gt 0.0307
_symmetry_cell_setting orthorhombic
_symmetry_space_group_name_H-M 'P b c a'
_symmetry_Int_Tables_number 61
loop_
_symmetry_equiv_pos_site_id
_symmetry_equiv_pos_as_xyz
1 x,y,z
2 1/2-x,-y,1/2+z
3 -x,1/2+y,1/2-z
4 1/2+x,1/2-y,-z
5 -x,-y,-z
6 -1/2+x,y,-1/2-z
7 x,-1/2-y,-1/2+z
8 -1/2-x,-1/2+y,z
_cell_length_a 6.5872(1)
_cell_length_b 16.3237(1)
_cell_length_c 20.0457(4)
_cell_angle_alpha 90
_cell_angle_beta 90
_cell_angle_gamma 90
_cell_formula_units_Z 4
loop_
_atom_type_symbol
_atom_type_radius_bond
C 0.68
Na 1.17
O 0.68
P 1.05
Zn 1.45
loop_
_atom_site_label
_atom_site_type_symbol
_atom_site_fract_x
_atom_site_fract_y
_atom_site_fract_z
Zn1 Zn -0.33312(7) 0.87508(2) 0.07365(2)
P1 P 0.01546(14) 0.73279(6) 0.05725(5)
O1 O -0.2216(4) 0.95900(15) 0.26309(12)
O2 O -0.6037(4) 0.94905(17) 0.06850(13)
O3 O -0.0619(4) 0.81675(16) 0.07196(13)
O4 O 0.2336(4) 0.72351(16) 0.08739(12)
O5 O -0.4465(4) 0.81644(15) 0.15697(12)
O6 O -0.2089(4) 0.94998(15) 0.15173(13)
C1 C -0.2590(6) 0.9250(2) 0.20929(18)
O7 O -0.0977(4) 0.66452(18) 0.09747(15)
C2 C -0.5985(6) 0.9990(2) 0.02109(17)
O8 O -0.3940(4) 0.80644(16) 0.26595(12)
C3 C -0.3759(5) 0.8423(2) 0.21173(18)
O9 O 0.0175(4) 0.71431(16) -0.01682(12)
O10 O -0.7377(4) 1.04807(15) 0.00513(13)
O11 O -0.9567(4) 0.59842(17) 0.39106(16)
Na1 Na -0.3317(2) 0.88969(10) 0.35934(8)
O12 O -0.9146(5) 0.61656(16) 0.22274(14)
Na2 Na -1.1135(3) 0.69349(10) 0.30182(8)
C2D C -0.4015(6) 1.0010(2) -0.02109(17)
O2D O -0.3963(4) 1.05095(17) -0.06850(13)
O10D O -0.2623(4) 0.95193(15) -0.00513(13)
P1C P -0.48454(14) 0.76721(6) -0.05725(5)
O3C O -0.5619(4) 0.68325(16) -0.07196(13)
O4C O -0.2664(4) 0.77649(16) -0.08739(12)
O7C O -0.5977(4) 0.83548(18) -0.09747(15)
O9C O -0.4825(4) 0.78569(16) 0.01682(12)
Zn1D Zn -0.66688(7) 1.12492(2) -0.07365(2)
O1D O -0.7784(4) 1.04100(15) -0.26309(12)
O5D O -0.5535(4) 1.18356(15) -0.15697(12)
O6D O -0.7911(4) 1.05002(15) -0.15173(13)
C1D C -0.7410(6) 1.0750(2) -0.20929(18)
O8D O -0.6060(4) 1.19356(16) -0.26595(12)
C3D C -0.6241(5) 1.1577(2) -0.21173(18)
Zn1C Zn 0.16688(7) 0.62492(2) -0.07365(2)
Zn1C* Zn -0.83312(7) 0.62492(2) -0.07365(2)
O3D O -0.9381(4) 1.18325(16) -0.07196(13)
O9G O -0.5175(4) 1.21431(16) -0.01682(12)
#END
