
#######################################################################
#
#                 Cambridge Crystallographic Data Centre
#                                CCDC
#
#######################################################################
#
# If this CIF has been generated from an entry in the Cambridge
# Structural Database, then it will include bibliographic, chemical,
# crystal, experimental, refinement or atomic coordinate data resulting
# from the CCDC's data processing and validation procedures.
#
#######################################################################

data_CSD_CIF_OJECUC
_audit_creation_date 2010-07-26
_audit_creation_method CSD-ConQuest-V1
_database_code_CSD OJECUC
_database_code_depnum_ccdc_archive 'CCDC 739072'
_chemical_formula_sum 'C14 H18 Ag2 F6 N6 O8 S2'
_chemical_formula_moiety
;
(C8 H9 Ag1 F6 N3 O7 S2 1-)n,n(C6 H9 Ag1 N3 O1 1+)
;
_journal_coden_Cambridge 119
_journal_volume 938
_journal_year 2009
_journal_page_first 65
_journal_name_full 'J.Mol.Struct. '
loop_
_publ_author_name
"Geng-Geng Luo"
"Di Sun"
"Na Zhang"
"Rong-Bin Huang"
"Lan-Sun Zheng"
_chemical_name_systematic
;
catena-[(\m~2~-2-Amino-4-methoxy-6-methylpyrimidine)-silver(i) 
(\m~2~-2-amino-4-methoxy-6-methylpyrimidine)-bis(trifluoromethanesulfonato)-si
lver(i)]
;
_cell_volume   2491.316
_exptl_crystal_density_diffrn 2.112
_diffrn_ambient_temperature 173
#These two values have been output from a single CSD field.
_refine_ls_R_factor_gt 0.032
_refine_ls_wR_factor_gt 0.032
_symmetry_cell_setting monoclinic
_symmetry_space_group_name_H-M 'P 21/c'
_symmetry_Int_Tables_number 14
loop_
_symmetry_equiv_pos_site_id
_symmetry_equiv_pos_as_xyz
1 x,y,z
2 -x,1/2+y,1/2-z
3 -x,-y,-z
4 x,-1/2-y,-1/2+z
_cell_length_a 16.5970(5)
_cell_length_b 12.1135(3)
_cell_length_c 12.9058(4)
_cell_angle_alpha 90
_cell_angle_beta 106.227(3)
_cell_angle_gamma 90
_cell_formula_units_Z 4
loop_
_atom_type_symbol
_atom_type_radius_bond
C 0.68
H 0.23
Ag 1.54
F 0.64
N 0.68
O 0.68
S 1.02
loop_
_atom_site_label
_atom_site_type_symbol
_atom_site_fract_x
_atom_site_fract_y
_atom_site_fract_z
Ag1 Ag 0.09141(2) 0.77779(3) 0.18200(2)
Ag2 Ag 0.53513(2) 0.64742(2) 0.27774(3)
S1 S 0.27682(6) 0.61951(9) 0.22946(8)
S2 S 0.23926(7) 1.01915(8) 0.18232(8)
C1 C 0.3104(3) 0.5067(4) 0.3246(4)
C2 C 0.0800(2) 0.7301(3) -0.0711(3)
C3 C -0.0223(2) 0.6509(3) -0.0084(3)
C4 C 0.5950(3) 0.8361(3) 0.4430(3)
C5 C 0.4983(2) 0.8947(3) 0.2877(3)
C6 C 0.5616(2) 1.0235(3) 0.4147(3)
C7 C -0.0131(3) 0.6114(3) -0.1827(3)
C8 C 0.6072(3) 0.9426(3) 0.4803(3)
H1 H 0.64540 0.95960 0.54820
C9 C 0.6298(3) 1.1682(4) 0.5309(4)
H2 H 0.62410 1.24780 0.54000
H3 H 0.68440 1.15250 0.51900
H4 H 0.62550 1.12970 0.59590
C10 C -0.0538(3) 0.5943(3) -0.1045(3)
H5 H -0.10080 0.54650 -0.11590
C11 C -0.1325(3) 0.5874(5) 0.0620(4)
H6 H -0.14910 0.59090 0.12900
H7 H -0.12470 0.51010 0.04440
H8 H -0.17630 0.62080 0.00320
C12 C 0.6378(3) 0.7427(4) 0.5112(4)
H9 H 0.67440 0.77140 0.57910
H10 H 0.67160 0.70170 0.47280
H11 H 0.59580 0.69340 0.52650
C13 C 0.1790(4) 1.1439(5) 0.1369(5)
C14 C -0.0401(3) 0.5526(5) -0.2879(4)
H12 H -0.08760 0.50410 -0.28870
H13 H -0.05710 0.60650 -0.34650
H14 H 0.00660 0.50830 -0.29770
N1 N 0.0447(2) 0.7159(3) 0.0106(2)
N2 N 0.0519(2) 0.6804(3) -0.1685(2)
N3 N 0.5422(2) 0.8111(3) 0.3461(3)
N4 N 0.50702(19) 1.0010(2) 0.3193(3)
N5 N 0.1458(2) 0.7960(3) -0.0543(3)
H15 H 0.17030 0.80660 -0.10580
H16 H 0.16510 0.82920 0.00840
N6 N 0.4436(2) 0.8718(3) 0.1930(3)
H17 H 0.41460 0.92530 0.15350
H18 H 0.43630 0.80310 0.17000
O1 O 0.3526(2) 0.6710(3) 0.2294(4)
O2 O 0.2348(4) 0.5673(4) 0.1323(3)
O3 O 0.2261(3) 0.6841(4) 0.2785(3)
O4 O 0.3081(2) 1.0312(3) 0.1367(4)
O5 O 0.2591(3) 1.0244(4) 0.2954(3)
O6 O 0.1815(3) 0.9342(3) 0.1339(3)
O7 O 0.56362(19) 1.1305(2) 0.4388(2)
O8 O -0.05532(19) 0.6464(3) 0.0756(2)
F1 F 0.2474(2) 0.4522(4) 0.3408(4)
F2 F 0.3571(4) 0.5387(3) 0.4149(3)
F3 F 0.1118(2) 1.1479(3) 0.1707(3)
F4 F 0.2247(3) 1.2326(3) 0.1766(4)
F5 F 0.1591(2) 1.1561(3) 0.0341(3)
F6 F 0.3520(3) 0.4320(3) 0.2861(3)
Ag1C Ag 0.09141(2) 0.72221(3) -0.31800(2)
Ag2A Ag 0.46487(2) 1.14742(2) 0.22226(3)
N2C N 0.0519(2) 0.8196(3) 0.3315(2)
N4A N 0.49298(19) 0.5010(2) 0.1807(3)
#END
