
#######################################################################
#
#                 Cambridge Crystallographic Data Centre
#                                CCDC
#
#######################################################################
#
# If this CIF has been generated from an entry in the Cambridge
# Structural Database, then it will include bibliographic, chemical,
# crystal, experimental, refinement or atomic coordinate data resulting
# from the CCDC's data processing and validation procedures.
#
#######################################################################

data_CSD_CIF_OJENEZ
_audit_creation_date 2020-04-13
_audit_creation_method CSD-ConQuest-V1
_database_code_CSD OJENEZ
_database_code_depnum_ccdc_archive 'CCDC 1937757'
_chemical_formula_sum 'C27 H39 Co2 N21 O49 Si1 W12'
_chemical_formula_moiety
;
(C27 H33 Co2 N21 O6 4+)n,n(O40 Si1 W12 4-),3n(H2 O1)
;
_journal_coden_Cambridge 208
_journal_volume 286
_journal_year 2020
_journal_page_first 121302
_journal_name_full 'J.Solid State Chem. '
loop_
_publ_author_name
"Yingying Wu"
"Ying Liu"
"Yijiao Huang"
"Ge Xiao"
"Yamin Li"
"Yan Bai"
"Dongbin Dang"
_chemical_name_systematic
;
catena-(tris(\m-2,6-bis(1H-1,2,4-triazol-1-yl)pyridine)-hexa-aqua-di-cobalt 
tetracosakis(\m-oxo)-(\m-silicato)-dodecaoxo-dodeca-tungsten trihydrate)
;
_cell_volume  10360.198
_exptl_crystal_colour 'red'
_exptl_crystal_density_diffrn 3.649
_exptl_crystal_description 'block'
_diffrn_ambient_temperature 293
_diffrn_special_details
;
twin

;
#These two values have been output from a single CSD field.
_refine_ls_R_factor_gt 0.0475
_refine_ls_wR_factor_gt 0.0475
_symmetry_cell_setting rhombohedral
_symmetry_space_group_name_H-M 'R 3 c'
_symmetry_Int_Tables_number 161
loop_
_symmetry_equiv_pos_site_id
_symmetry_equiv_pos_as_xyz
1 x,y,z
2 -y,x-y,z
3 -x+y,-x,z
4 -y,-x,1/2+z
5 -x+y,y,1/2+z
6 x,x-y,1/2+z
7 2/3+x,1/3+y,1/3+z
8 2/3-y,1/3+x-y,1/3+z
9 2/3-x+y,1/3-x,1/3+z
10 2/3-y,1/3-x,5/6+z
11 2/3-x+y,1/3+y,5/6+z
12 2/3+x,1/3+x-y,5/6+z
13 1/3+x,2/3+y,2/3+z
14 1/3-y,2/3+x-y,2/3+z
15 1/3-x+y,2/3-x,2/3+z
16 1/3-y,2/3-x,1/6+z
17 1/3-x+y,2/3+y,1/6+z
18 1/3+x,2/3+x-y,1/6+z
_cell_length_a 13.582(5)
_cell_length_b 13.582(5)
_cell_length_c 64.85(3)
_cell_angle_alpha 90
_cell_angle_beta 90
_cell_angle_gamma 120
_cell_formula_units_Z 6
loop_
_atom_type_symbol
_atom_type_radius_bond
C 0.68
H 0.23
Co 1.26
N 0.68
O 0.68
Si 1.20
W 1.62
loop_
_atom_site_label
_atom_site_type_symbol
_atom_site_fract_x
_atom_site_fract_y
_atom_site_fract_z
Co1 Co -0.66670 -0.33330 1.05919(11)
Co2 Co -1.00000 0.00000 1.00243(18)
O1 O -0.886(2) 0.138(2) 1.0226(4)
O2 O -0.7713(17) -0.4703(17) 1.0787(4)
N1 N -0.552(2) -0.1899(18) 1.0414(4)
N2 N -0.4865(19) -0.0617(18) 1.0165(4)
N3 N -0.392(2) -0.062(2) 1.0241(4)
N4 N -0.5769(16) 0.0119(19) 0.9978(3)
N5 N -0.685(2) 0.068(2) 0.9791(4)
N6 N -0.702(2) 0.130(3) 0.9649(5)
N7 N -0.8543(19) 0.0392(19) 0.9849(4)
C1 C -0.388(2) 0.059(2) 0.9865(4)
H1 H -0.32320 0.05420 0.98910
C2 C -0.488(3) 0.005(3) 0.9999(4)
C3 C -0.395(2) 0.117(2) 0.9701(4)
H2 H -0.33460 0.15320 0.96090
C4 C -0.441(2) -0.144(2) 1.0385(4)
H3 H -0.39820 -0.16740 1.04610
C5 C -0.579(2) 0.068(2) 0.9819(4)
C6 C -0.493(3) 0.122(2) 0.9671(5)
H4 H -0.50210 0.15890 0.95580
C7 C -0.773(2) 0.022(2) 0.9912(5)
H5 H -0.77690 -0.01920 1.00290
C8 C -0.802(3) 0.112(3) 0.9693(6)
H6 H -0.83610 0.14640 0.96210
C9 C -0.577(2) -0.136(3) 1.0266(4)
H7 H -0.64970 -0.15040 1.02380
W1 W -0.58971(10) -0.16888(10) 0.87426(2)
W2 W -0.41843(10) -0.06548(9) 0.92185(2)
W3 W -0.70179(9) -0.09295(9) 0.92001(2)
W4 W -0.7641(1) -0.24995(9) 0.96320(2)
Si1 Si -0.66670 -0.33330 0.9193(2)
O3 O -0.7966(17) -0.2247(17) 0.9869(3)
O4 O -0.5462(14) -0.0489(14) 0.9261(3)
O5 O -0.3263(15) -0.1397(14) 0.9163(3)
O6 O -0.3139(17) 0.0745(16) 0.9192(3)
O7 O -0.5376(19) -0.0598(19) 0.8563(3)
O8 O -0.6899(17) 0.0377(17) 0.9170(3)
O9 O -0.6099(13) -0.2055(14) 0.9657(3)
O10 O -0.4041(16) -0.0863(16) 0.9497(3)
O11 O -0.7269(15) -0.1110(14) 0.9492(3)
O12 O -0.5362(16) -0.2600(15) 0.9276(3)
O13 O -0.4718(16) -0.1075(16) 0.8935(3)
O14 O -0.6726(16) -0.1243(16) 0.8933(3)
O15 O -0.66670 -0.33330 0.8936(4)
O16 O -0.5367(16) -0.2616(14) 0.8628(3)
O17 O -0.894(4) 0.136(4) 1.0667(7)
O2A O -0.5297(17) -0.3010(17) 1.0787(4)
N1A N -0.8101(20) -0.3621(18) 1.0414(4)
N2A N -0.9383(19) -0.4248(18) 1.0165(4)
N3A N -0.938(2) -0.330(2) 1.0241(4)
N4A N -1.0119(16) -0.5888(19) 0.9978(3)
N5A N -1.068(2) -0.753(2) 0.9791(4)
N6A N -1.130(2) -0.832(3) 0.9649(5)
N7A N -1.0392(19) -0.8935(19) 0.9849(4)
C1A C -1.059(2) -0.447(2) 0.9865(4)
H1A H -1.05420 -0.37740 0.98910
C2A C -1.005(3) -0.493(3) 0.9999(4)
C3A C -1.117(2) -0.512(2) 0.9701(4)
H2A H -1.15320 -0.48780 0.96090
C4A C -0.856(2) -0.297(2) 1.0385(4)
H3A H -0.83260 -0.23080 1.04610
C5A C -1.068(2) -0.647(2) 0.9819(4)
C6A C -1.122(3) -0.615(2) 0.9671(5)
H4A H -1.15890 -0.66100 0.95580
C7A C -1.022(2) -0.795(2) 0.9912(5)
H5A H -0.98080 -0.75770 1.00290
C8A C -1.112(3) -0.914(3) 0.9693(6)
H6A H -1.14640 -0.98250 0.96210
C9A C -0.864(2) -0.441(3) 1.0266(4)
H7A H -0.84960 -0.49930 1.02380
O1B O -0.976(2) -0.114(2) 1.0226(4)
N1B N -1.6379(20) -0.4480(18) 1.0414(4)
N2B N -1.5752(19) -0.5135(18) 1.0165(4)
N3B N -1.670(2) -0.608(2) 1.0241(4)
N4B N -1.4112(16) -0.4231(19) 0.9978(3)
N5B N -1.247(2) -0.315(2) 0.9791(4)
N6B N -1.168(2) -0.298(3) 0.9649(5)
N7B N -1.1065(19) -0.1457(19) 0.9849(4)
C1B C -1.553(2) -0.612(2) 0.9865(4)
H1B H -1.62260 -0.67680 0.98910
C2B C -1.507(3) -0.512(3) 0.9999(4)
C3B C -1.488(2) -0.605(2) 0.9701(4)
H2B H -1.51220 -0.66540 0.96090
C4B C -1.703(2) -0.559(2) 1.0385(4)
H3B H -1.76920 -0.60180 1.04610
C5B C -1.353(2) -0.421(2) 0.9819(4)
C6B C -1.385(3) -0.507(2) 0.9671(5)
H4B H -1.33900 -0.49790 0.95580
C7B C -1.205(2) -0.227(2) 0.9912(5)
H5B H -1.24230 -0.22310 1.00290
C8B C -1.086(3) -0.198(3) 0.9693(6)
H6B H -1.01750 -0.16390 0.96210
C9B C -1.559(2) -0.423(3) 1.0266(4)
H7B H -1.50070 -0.35030 1.02380
O1A O -1.138(2) -0.024(2) 1.0226(4)
O2B O -0.6990(17) -0.2287(17) 1.0787(4)
Co1* Co -1.66670 -0.33330 1.05919(11)
Co2* Co -1.00000 -1.00000 1.00243(18)
N1B* N -0.6379(20) -0.4480(18) 1.0414(4)
N7A* N -1.0392(19) 0.1065(19) 0.9849(4)
O12A O -0.7400(16) -0.2762(15) 0.9276(3)
O12B O -0.7238(16) -0.4638(15) 0.9276(3)
W1A W -0.83112(10) -0.42083(10) 0.87426(2)
W2A W -0.93452(10) -0.35295(9) 0.92185(2)
W3A W -0.90705(9) -0.60884(9) 0.92001(2)
W4A W -0.75005(10) -0.51415(9) 0.96320(2)
O3A O -0.7753(17) -0.5719(17) 0.9869(3)
O4A O -0.9511(14) -0.4973(14) 0.9261(3)
O5A O -0.8603(15) -0.1866(14) 0.9163(3)
O6A O -1.0745(17) -0.3884(16) 0.9192(3)
O7A O -0.9402(19) -0.4778(19) 0.8563(3)
O8A O -1.0377(17) -0.7276(17) 0.9170(3)
O9A O -0.7945(13) -0.4044(14) 0.9657(3)
O10A O -0.9137(16) -0.3178(16) 0.9497(3)
O11A O -0.8890(15) -0.6159(14) 0.9492(3)
O13A O -0.8925(16) -0.3643(16) 0.8935(3)
O14A O -0.8757(16) -0.5483(16) 0.8933(3)
O16A O -0.7384(16) -0.2751(14) 0.8628(3)
W1B W -0.57917(10) -0.41029(10) 0.87426(2)
W2B W -0.64705(10) -0.58157(9) 0.92185(2)
W3B W -0.39116(9) -0.29821(9) 0.92001(2)
W4B W -0.48585(10) -0.23590(9) 0.96320(2)
O3B O -0.4281(17) -0.2034(17) 0.9869(3)
O4B O -0.5027(14) -0.4538(14) 0.9261(3)
O5B O -0.8134(15) -0.6737(14) 0.9163(3)
O6B O -0.6116(17) -0.6861(16) 0.9192(3)
O7B O -0.5222(19) -0.4624(19) 0.8563(3)
O8B O -0.2724(17) -0.3101(17) 0.9170(3)
O9B O -0.5956(13) -0.3901(14) 0.9657(3)
O10B O -0.6822(16) -0.5959(16) 0.9497(3)
O11B O -0.3841(15) -0.2731(14) 0.9492(3)
O13B O -0.6357(16) -0.5282(16) 0.8935(3)
O14B O -0.4517(16) -0.3274(16) 0.8933(3)
O16B O -0.7249(16) -0.4633(14) 0.8628(3)
#END
