
#######################################################################
#
#                 Cambridge Crystallographic Data Centre
#                                CCDC
#
#######################################################################
#
# If this CIF has been generated from an entry in the Cambridge
# Structural Database, then it will include bibliographic, chemical,
# crystal, experimental, refinement or atomic coordinate data resulting
# from the CCDC's data processing and validation procedures.
#
#######################################################################

data_CSD_CIF_OJENID
_audit_creation_date 2020-04-13
_audit_creation_method CSD-ConQuest-V1
_database_code_CSD OJENID
_database_code_depnum_ccdc_archive 'CCDC 1937758'
_chemical_formula_sum 'C27 H39 Fe2 N21 O49 Si1 W12'
_chemical_formula_moiety
;
(C27 H33 Fe2 N21 O6 4+)n,n(O40 Si1 W12 4-),3n(H2 O1)
;
_journal_coden_Cambridge 208
_journal_volume 286
_journal_year 2020
_journal_page_first 121302
_journal_name_full 'J.Solid State Chem. '
loop_
_publ_author_name
"Yingying Wu"
"Ying Liu"
"Yijiao Huang"
"Ge Xiao"
"Yamin Li"
"Yan Bai"
"Dongbin Dang"
_chemical_name_systematic
;
catena-(tris(\m-2,6-bis(1H-1,2,4-triazol-1-yl)pyridine)-hexa-aqua-di-iron 
tetracosakis(\m-oxo)-(\m-silicato)-dodecaoxo-dodeca-tungsten trihydrate)
;
_cell_volume  10379.363
_exptl_crystal_colour 'yellow'
_exptl_crystal_density_diffrn 3.636
_exptl_crystal_description 'block'
_diffrn_ambient_temperature 296
#These two values have been output from a single CSD field.
_refine_ls_R_factor_gt 0.032
_refine_ls_wR_factor_gt 0.032
_symmetry_cell_setting rhombohedral
_symmetry_space_group_name_H-M 'R 3 c'
_symmetry_Int_Tables_number 161
loop_
_symmetry_equiv_pos_site_id
_symmetry_equiv_pos_as_xyz
1 x,y,z
2 -y,x-y,z
3 -x+y,-x,z
4 -y,-x,1/2+z
5 -x+y,y,1/2+z
6 x,x-y,1/2+z
7 2/3+x,1/3+y,1/3+z
8 2/3-y,1/3+x-y,1/3+z
9 2/3-x+y,1/3-x,1/3+z
10 2/3-y,1/3-x,5/6+z
11 2/3-x+y,1/3+y,5/6+z
12 2/3+x,1/3+x-y,5/6+z
13 1/3+x,2/3+y,2/3+z
14 1/3-y,2/3+x-y,2/3+z
15 1/3-x+y,2/3-x,2/3+z
16 1/3-y,2/3-x,1/6+z
17 1/3-x+y,2/3+y,1/6+z
18 1/3+x,2/3+x-y,1/6+z
_cell_length_a 13.604(4)
_cell_length_b 13.604(4)
_cell_length_c 64.76(2)
_cell_angle_alpha 90
_cell_angle_beta 90
_cell_angle_gamma 120
_cell_formula_units_Z 6
loop_
_atom_type_symbol
_atom_type_radius_bond
C 0.68
H 0.23
Fe 1.52
N 0.68
O 0.68
Si 1.20
W 1.62
loop_
_atom_site_label
_atom_site_type_symbol
_atom_site_fract_x
_atom_site_fract_y
_atom_site_fract_z
Fe1 Fe 0.33330 0.66670 1.02445(7)
Fe2 Fe 0.66670 0.33330 1.08119(10)
O1 O 0.4385(11) 0.6342(11) 1.0045(2)
O2 O 0.5488(15) 0.3527(15) 1.0612(3)
N1 N 0.6040(13) 0.9404(13) 1.0603(2)
N2 N 0.6065(13) 0.8501(13) 1.0674(2)
N3 N 0.6802(11) 0.7606(12) 1.08683(19)
N4 N 0.7366(12) 0.6515(14) 1.1051(2)
N5 N 0.7949(14) 0.6329(16) 1.1190(3)
N6 N 0.4775(13) 0.7839(14) 1.0435(3)
N7 N 0.7067(15) 0.4831(14) 1.0992(3)
C1 C 0.6860(18) 0.5622(18) 1.0931(3)
H1 H 0.64150 0.55620 1.08170
C2 C 0.7261(16) 0.9455(17) 1.0971(3)
H2 H 0.72070 1.00970 1.09430
C3 C 0.7731(17) 0.5293(19) 1.1151(4)
H3 H 0.80210 0.49230 1.12290
C4 C 0.7870(16) 0.9406(15) 1.1141(3)
H4 H 0.82500 1.00200 1.12300
C5 C 0.5255(15) 0.8975(14) 1.0459(3)
H5 H 0.50480 0.94140 1.03800
C6 C 0.6758(16) 0.8534(14) 1.0849(3)
C7 C 0.5315(18) 0.7569(17) 1.0576(3)
H6 H 0.51870 0.68410 1.06010
C8 C 0.7367(14) 0.7557(15) 1.1026(3)
C9 C 0.7883(15) 0.8407(15) 1.1171(3)
H7 H 0.82330 0.83100 1.12870
W1 W 0.09683(6) 0.91637(6) 0.95462(2)
W2 W 0.26703(5) 1.01867(5) 0.99600(2)
W3 W 0.16403(6) 1.08680(6) 1.04359(2)
W4 W 0.03404(5) 0.75962(5) 0.99783(2)
Si1 Si 0.00000 1.00000 0.99819(13)
O3 O 0.0243(11) 0.6305(11) 1.00094(19)
O4 O 0.2819(9) 1.1621(9) 0.99141(16)
O5 O 0.2716(11) 1.1437(11) 1.06145(19)
O6 O 0.2085(9) 1.2119(9) 1.02454(16)
O7 O 0.1927(9) 0.8542(9) 1.00166(17)
O8 O 0.0707(9) 0.9392(9) 1.05465(19)
O9 O 0.2256(9) 1.0306(9) 1.02385(16)
O10 O 0.1288(11) 0.8894(10) 0.93057(18)
O11 O 0.00000 1.00000 1.0230(3)
O12 O -0.0568(9) 0.8729(9) 0.95205(18)
O13 O 0.4047(10) 1.0516(11) 0.99883(19)
O14 O 0.0591(9) 0.7781(9) 0.96832(17)
O15 O 0.2459(9) 0.9832(9) 0.96763(16)
O16 O 0.0727(8) 0.9433(8) 0.98996(16)
O17 O 0.632(3) 1.194(3) 1.0172(5)
O2A O 0.6473(15) 0.1961(15) 1.0612(3)
N1A N 0.0596(13) -0.3364(13) 1.0603(2)
N2A N 0.1499(13) -0.2436(13) 1.0674(2)
N3A N 0.2394(11) -0.0804(12) 1.08683(19)
N4A N 0.3485(12) 0.0851(14) 1.1051(2)
N5A N 0.3671(14) 0.1620(16) 1.1190(3)
N6A N 0.2161(13) -0.3064(14) 1.0435(3)
N7A N 0.5169(15) 0.2236(14) 1.0992(3)
C1A C 0.4378(18) 0.1238(18) 1.0931(3)
H1A H 0.44380 0.08530 1.08170
C2A C 0.0545(16) -0.2194(17) 1.0971(3)
H2A H -0.00970 -0.28900 1.09430
C3A C 0.4707(17) 0.2438(19) 1.1151(4)
H3A H 0.50770 0.30980 1.12290
C4A C 0.0594(16) -0.1536(15) 1.1141(3)
H4A H -0.00200 -0.17700 1.12300
C5A C 0.1025(15) -0.3720(14) 1.0459(3)
H5A H 0.05860 -0.43660 1.03800
C6A C 0.1466(16) -0.1776(14) 1.0849(3)
C7A C 0.2431(18) -0.2254(17) 1.0576(3)
H6A H 0.31590 -0.16540 1.06010
C8A C 0.2443(14) -0.0190(15) 1.1026(3)
C9A C 0.1593(15) -0.0524(15) 1.1171(3)
H7A H 0.16900 -0.00770 1.12870
O1B O 0.1957(11) 0.5615(11) 1.0045(2)
N1B N 0.3364(13) 0.3960(13) 1.0603(2)
N2B N 0.2436(13) 0.3935(13) 1.0674(2)
N3B N 0.0804(11) 0.3198(12) 1.08683(19)
N4B N -0.0851(12) 0.2634(14) 1.1051(2)
N5B N -0.1620(14) 0.2051(16) 1.1190(3)
N6B N 0.3064(13) 0.5225(14) 1.0435(3)
N7B N -0.2236(15) 0.2933(14) 1.0992(3)
C1B C -0.1238(18) 0.3140(18) 1.0931(3)
H1B H -0.08530 0.35850 1.08170
C2B C 0.2194(16) 0.2739(17) 1.0971(3)
H2B H 0.28900 0.27930 1.09430
C3B C -0.2438(17) 0.2269(19) 1.1151(4)
H3B H -0.30980 0.19790 1.12290
C4B C 0.1536(16) 0.2130(15) 1.1141(3)
H4B H 0.17700 0.17500 1.12300
C5B C 0.3720(15) 0.4745(14) 1.0459(3)
H5B H 0.43660 0.49520 1.03800
C6B C 0.1776(16) 0.3242(14) 1.0849(3)
C7B C 0.2254(18) 0.4685(17) 1.0576(3)
H6B H 0.16540 0.48130 1.06010
C8B C 0.0190(14) 0.2633(15) 1.1026(3)
C9B C 0.0524(15) 0.2117(15) 1.1171(3)
H7B H 0.00770 0.17670 1.12870
O1A O 0.3658(11) 0.8043(11) 1.0045(2)
O2B O 0.8039(15) 0.4512(15) 1.0612(3)
Fe1* Fe 0.33330 -0.33330 1.02445(7)
Fe2* Fe -0.33330 0.33330 1.08119(10)
N6A* N 0.2161(13) 0.6936(14) 1.0435(3)
N7B* N 0.7764(15) 0.2933(14) 1.0992(3)
O16A O 0.0567(8) 1.1294(8) 0.98996(16)
O16B O -0.1294(8) 0.9273(8) 0.98996(16)
W1A W 0.08363(6) 1.18046(6) 0.95462(2)
W2A W -0.01867(5) 1.24836(5) 0.99600(2)
W3A W -0.08680(6) 1.07723(6) 1.04359(2)
W4A W 0.24038(5) 1.27442(5) 0.99783(2)
O3A O 0.3695(11) 1.3938(11) 1.00094(19)
O4A O -0.1621(9) 1.1198(9) 0.99141(16)
O5A O -0.1437(11) 1.1279(11) 1.06145(19)
O6A O -0.2119(9) 0.9966(9) 1.02454(16)
O7A O 0.1458(9) 1.3385(9) 1.00166(17)
O8A O 0.0608(9) 1.1315(9) 1.05465(19)
O9A O -0.0306(9) 1.1950(9) 1.02385(16)
O10A O 0.1106(11) 1.2394(10) 0.93057(18)
O12A O 0.1271(9) 1.0703(9) 0.95205(18)
O13A O -0.0516(10) 1.3531(11) 0.99883(19)
O14A O 0.2219(9) 1.2810(9) 0.96832(17)
O15A O 0.0168(9) 1.2627(9) 0.96763(16)
W1B W -0.18046(6) 0.90317(6) 0.95462(2)
W2B W -0.24836(5) 0.73297(5) 0.99600(2)
W3B W -0.07723(6) 0.83597(6) 1.04359(2)
W4B W -0.27442(5) 0.96596(5) 0.99783(2)
O3B O -0.3938(11) 0.9757(11) 1.00094(19)
O4B O -0.1198(9) 0.7181(9) 0.99141(16)
O5B O -0.1279(11) 0.7284(11) 1.06145(19)
O6B O 0.0034(9) 0.7915(9) 1.02454(16)
O7B O -0.3385(9) 0.8073(9) 1.00166(17)
O8B O -0.1315(9) 0.9293(9) 1.05465(19)
O9B O -0.1950(9) 0.7744(9) 1.02385(16)
O10B O -0.2394(11) 0.8712(10) 0.93057(18)
O12B O -0.0703(9) 1.0568(9) 0.95205(18)
O13B O -0.3531(10) 0.5953(11) 0.99883(19)
O14B O -0.2810(9) 0.9409(9) 0.96832(17)
O15B O -0.2627(9) 0.7541(9) 0.96763(16)
#END
