
#######################################################################
#
#                 Cambridge Crystallographic Data Centre
#                                CCDC
#
#######################################################################
#
# If this CIF has been generated from an entry in the Cambridge
# Structural Database, then it will include bibliographic, chemical,
# crystal, experimental, refinement or atomic coordinate data resulting
# from the CCDC's data processing and validation procedures.
#
#######################################################################

data_CSD_CIF_OJENOJ
_audit_creation_date 2020-04-13
_audit_creation_method CSD-ConQuest-V1
_database_code_CSD OJENOJ
_database_code_depnum_ccdc_archive 'CCDC 1937759'
_chemical_formula_sum 'C27 H39 N21 O49 Si1 W12 Zn2'
_chemical_formula_moiety
;
(C27 H33 N21 O6 Zn2 4+)n,n(O40 Si1 W12 4-),3n(H2 O1)
;
_journal_coden_Cambridge 208
_journal_volume 286
_journal_year 2020
_journal_page_first 121302
_journal_name_full 'J.Solid State Chem. '
loop_
_publ_author_name
"Yingying Wu"
"Ying Liu"
"Yijiao Huang"
"Ge Xiao"
"Yamin Li"
"Yan Bai"
"Dongbin Dang"
_chemical_name_systematic
;
catena-(tris(\m-2,6-bis(1H-1,2,4-triazol-1-yl)pyridine)-hexa-aqua-di-zinc 
tetracosakis(\m-oxo)-(\m-silicato)-dodecaoxo-dodeca-tungsten trihydrate)
;
_cell_volume  10386.279
_exptl_crystal_colour 'yellow'
_exptl_crystal_density_diffrn 3.652
_exptl_crystal_description 'block'
_diffrn_ambient_temperature 293
_diffrn_special_details
;
twin

;
#These two values have been output from a single CSD field.
_refine_ls_R_factor_gt 0.0321
_refine_ls_wR_factor_gt 0.0321
_symmetry_cell_setting rhombohedral
_symmetry_space_group_name_H-M 'R 3 c'
_symmetry_Int_Tables_number 161
loop_
_symmetry_equiv_pos_site_id
_symmetry_equiv_pos_as_xyz
1 x,y,z
2 -y,x-y,z
3 -x+y,-x,z
4 -y,-x,1/2+z
5 -x+y,y,1/2+z
6 x,x-y,1/2+z
7 2/3+x,1/3+y,1/3+z
8 2/3-y,1/3+x-y,1/3+z
9 2/3-x+y,1/3-x,1/3+z
10 2/3-y,1/3-x,5/6+z
11 2/3-x+y,1/3+y,5/6+z
12 2/3+x,1/3+x-y,5/6+z
13 1/3+x,2/3+y,2/3+z
14 1/3-y,2/3+x-y,2/3+z
15 1/3-x+y,2/3-x,2/3+z
16 1/3-y,2/3-x,1/6+z
17 1/3-x+y,2/3+y,1/6+z
18 1/3+x,2/3+x-y,1/6+z
_cell_length_a 13.612(2)
_cell_length_b 13.612(2)
_cell_length_c 64.727(13)
_cell_angle_alpha 90
_cell_angle_beta 90
_cell_angle_gamma 120
_cell_formula_units_Z 6
loop_
_atom_type_symbol
_atom_type_radius_bond
C 0.68
H 0.23
N 0.68
O 0.68
Si 1.20
W 1.62
Zn 1.22
loop_
_atom_site_label
_atom_site_type_symbol
_atom_site_fract_x
_atom_site_fract_y
_atom_site_fract_z
Zn1 Zn -0.66670 -0.33330 1.05925(6)
Zn2 Zn -1.00000 0.00000 1.00169(10)
O1 O -0.8845(14) 0.1362(14) 1.0228(3)
O2 O -0.7695(10) -0.4674(10) 1.0799(2)
N1 N -0.5523(14) -0.1910(13) 1.0415(2)
N2 N -0.4850(12) -0.0621(13) 1.0174(2)
N3 N -0.3941(13) -0.0618(12) 1.0245(2)
N4 N -0.5749(11) 0.0126(11) 0.9981(2)
N5 N -0.6831(13) 0.0696(10) 0.9796(2)
N6 N -0.7014(16) 0.1295(15) 0.9650(3)
N7 N -0.8549(15) 0.0383(14) 0.9851(3)
C1 C -0.3896(16) 0.0592(16) 0.9879(3)
H1 H -0.32540 0.05390 0.99070
C2 C -0.4816(16) 0.0089(16) 0.9999(3)
C3 C -0.3946(17) 0.1201(16) 0.9708(3)
H2 H -0.33340 0.15650 0.96190
C4 C -0.4361(15) -0.1397(15) 1.0389(3)
H3 H -0.39120 -0.15920 1.04680
C5 C -0.5759(16) 0.0687(16) 0.9823(3)
C6 C -0.4895(16) 0.1249(15) 0.9678(3)
H4 H -0.49740 0.16340 0.95660
C7 C -0.7742(16) 0.0201(17) 0.9917(3)
H5 H -0.78000 -0.02220 1.00340
C8 C -0.802(2) 0.110(2) 0.9695(4)
H6 H -0.83640 0.14420 0.96220
C9 C -0.5777(16) -0.1379(15) 1.0274(3)
H7 H -0.65060 -0.15140 1.02470
W1 W -0.58927(6) -0.16926(6) 0.87416(2)
W2 W -0.41785(6) -0.06625(5) 0.92185(2)
W3 W -0.70086(5) -0.09276(5) 0.92000(2)
W4 W -0.76362(6) -0.24944(5) 0.96327(2)
Si1 Si -0.66670 -0.33330 0.91992(13)
O3 O -0.7957(11) -0.2229(11) 0.9877(2)
O4 O -0.5458(9) -0.0503(9) 0.92685(18)
O5 O -0.3266(10) -0.1395(10) 0.9167(2)
O6 O -0.3130(11) 0.0725(10) 0.9198(2)
O7 O -0.5378(10) -0.0615(10) 0.8568(2)
O8 O -0.6906(10) 0.0361(10) 0.9175(2)
O9 O -0.6101(9) -0.2066(9) 0.96644(18)
O10 O -0.4022(9) -0.0889(9) 0.95048(18)
O11 O -0.7276(9) -0.1113(9) 0.94988(18)
O12 O -0.5373(9) -0.2607(9) 0.92835(17)
O13 O -0.472(1) -0.1073(9) 0.89414(17)
O14 O -0.6691(10) -0.1249(9) 0.89371(17)
O15 O -0.66670 -0.33330 0.8948(3)
O16 O -0.5354(10) -0.2614(10) 0.86324(19)
O17 O -0.896(3) 0.138(3) 1.0667(6)
O2A O -0.5326(10) -0.3021(10) 1.0799(2)
N1A N -0.8090(14) -0.3613(13) 1.0415(2)
N2A N -0.9379(12) -0.4229(13) 1.0174(2)
N3A N -0.9382(13) -0.3323(12) 1.0245(2)
N4A N -1.0126(11) -0.5875(11) 0.9981(2)
N5A N -1.0696(13) -0.7527(10) 0.9796(2)
N6A N -1.1295(16) -0.8309(15) 0.9650(3)
N7A N -1.0383(15) -0.8932(14) 0.9851(3)
C1A C -1.0592(16) -0.4488(16) 0.9879(3)
H1A H -1.05390 -0.37930 0.99070
C2A C -1.0089(16) -0.4905(16) 0.9999(3)
C3A C -1.1201(17) -0.5147(16) 0.9708(3)
H2A H -1.15650 -0.48990 0.96190
C4A C -0.8603(15) -0.2964(15) 1.0389(3)
H3A H -0.84080 -0.23200 1.04680
C5A C -1.0687(16) -0.6446(16) 0.9823(3)
C6A C -1.1249(16) -0.6144(15) 0.9678(3)
H4A H -1.16340 -0.66080 0.95660
C7A C -1.0201(16) -0.7943(17) 0.9917(3)
H5A H -0.97780 -0.75780 1.00340
C8A C -1.110(2) -0.912(2) 0.9695(4)
H6A H -1.14420 -0.98060 0.96220
C9A C -0.8621(16) -0.4398(15) 1.0274(3)
H7A H -0.84860 -0.49920 1.02470
O1B O -0.9793(14) -0.1155(14) 1.0228(3)
N1B N -1.6387(14) -0.4477(13) 1.0415(2)
N2B N -1.5771(12) -0.5150(13) 1.0174(2)
N3B N -1.6677(13) -0.6059(12) 1.0245(2)
N4B N -1.4125(11) -0.4251(11) 0.9981(2)
N5B N -1.2473(13) -0.3169(10) 0.9796(2)
N6B N -1.1691(16) -0.2986(15) 0.9650(3)
N7B N -1.1068(15) -0.1451(14) 0.9851(3)
C1B C -1.5512(16) -0.6104(16) 0.9879(3)
H1B H -1.62070 -0.67460 0.99070
C2B C -1.5095(16) -0.5184(16) 0.9999(3)
C3B C -1.4853(17) -0.6054(16) 0.9708(3)
H2B H -1.51010 -0.66660 0.96190
C4B C -1.7036(15) -0.5639(15) 1.0389(3)
H3B H -1.76800 -0.60880 1.04680
C5B C -1.3554(16) -0.4241(16) 0.9823(3)
C6B C -1.3856(16) -0.5105(15) 0.9678(3)
H4B H -1.33920 -0.50260 0.95660
C7B C -1.2057(16) -0.2258(17) 0.9917(3)
H5B H -1.24220 -0.22000 1.00340
C8B C -1.088(2) -0.198(2) 0.9695(4)
H6B H -1.01940 -0.16360 0.96220
C9B C -1.5602(16) -0.4223(15) 1.0274(3)
H7B H -1.50080 -0.34940 1.02470
O1A O -1.1362(14) -0.0207(14) 1.0228(3)
O2B O -0.6979(10) -0.2305(10) 1.0799(2)
Zn1* Zn -1.66670 -0.33330 1.05925(6)
Zn2* Zn -1.00000 -1.00000 1.00169(10)
N1B* N -0.6387(14) -0.4477(13) 1.0415(2)
N7A* N -1.0383(15) 0.1068(14) 0.9851(3)
O12A O -0.7393(9) -0.2766(9) 0.92835(17)
O12B O -0.7234(9) -0.4627(9) 0.92835(17)
W1A W -0.83074(6) -0.42001(6) 0.87416(2)
W2A W -0.93375(6) -0.35160(5) 0.92185(2)
W3A W -0.90724(5) -0.60810(5) 0.92000(2)
W4A W -0.75056(6) -0.51418(5) 0.96327(2)
O3A O -0.7771(11) -0.5728(11) 0.9877(2)
O4A O -0.9497(9) -0.4955(9) 0.92685(18)
O5A O -0.8605(10) -0.1871(10) 0.9167(2)
O6A O -1.0725(11) -0.3855(10) 0.9198(2)
O7A O -0.9385(10) -0.4763(10) 0.8568(2)
O8A O -1.0361(10) -0.7267(10) 0.9175(2)
O9A O -0.7934(9) -0.4035(9) 0.96644(18)
O10A O -0.9111(9) -0.3133(9) 0.95048(18)
O11A O -0.8887(9) -0.6163(9) 0.94988(18)
O13A O -0.8927(10) -0.3647(9) 0.89414(17)
O14A O -0.8751(10) -0.5442(9) 0.89371(17)
O16A O -0.7386(10) -0.274(1) 0.86324(19)
W1B W -0.57999(6) -0.41073(6) 0.87416(2)
W2B W -0.64840(6) -0.58215(5) 0.92185(2)
W3B W -0.39190(5) -0.29914(5) 0.92000(2)
W4B W -0.48582(6) -0.23638(5) 0.96327(2)
O3B O -0.4272(11) -0.2043(11) 0.9877(2)
O4B O -0.5045(9) -0.4542(9) 0.92685(18)
O5B O -0.8129(10) -0.6734(10) 0.9167(2)
O6B O -0.6145(11) -0.687(1) 0.9198(2)
O7B O -0.5237(10) -0.4622(10) 0.8568(2)
O8B O -0.2733(10) -0.3094(10) 0.9175(2)
O9B O -0.5965(9) -0.3899(9) 0.96644(18)
O10B O -0.6867(9) -0.5978(9) 0.95048(18)
O11B O -0.3837(9) -0.2724(9) 0.94988(18)
O13B O -0.6353(10) -0.5280(9) 0.89414(17)
O14B O -0.4558(10) -0.3309(9) 0.89371(17)
O16B O -0.726(1) -0.4646(10) 0.86324(19)
#END
