
#######################################################################
#
#                 Cambridge Crystallographic Data Centre
#                                CCDC
#
#######################################################################
#
# If this CIF has been generated from an entry in the Cambridge
# Structural Database, then it will include bibliographic, chemical,
# crystal, experimental, refinement or atomic coordinate data resulting
# from the CCDC's data processing and validation procedures.
#
#######################################################################

data_CSD_CIF_OJEPAW
_audit_creation_date 2016-04-06
_audit_creation_method CSD-ConQuest-V1
_database_code_CSD OJEPAW
_database_code_depnum_ccdc_archive 'CCDC 1470603'
_chemical_formula_sum 'C36 H61.5 N10.5 O18 Zn3'
_chemical_formula_moiety
;
(C21 H9 N6 O12 Zn3 3-)n,3n(C4 H12 N1 1+),1.5n(C2 H3 N1),6n(H2 O1)
;
_journal_coden_Cambridge 1147
_journal_volume 16
_journal_year 2016
_journal_page_first 5593
_journal_name_full 'Cryst.Growth Des. '
loop_
_publ_author_name
"Yan-Yuan Jia"
"Guo-Jian Ren"
"Ai-Lin Li"
"Li-Zhu Zhang"
"Rui Feng"
"Ying-Hui Zhang"
"Xian-He Bu"
_chemical_name_systematic
;
catena-[tris(diethylammonium) 
(\m-benzene-1,3,5-tricarboxylato)-tris(\m-4-carboxylatopyrazolato)-tri-zinc 
acetonitrile solvate hexahydrate]
;
_chemical_name_common
;
NKU-102
;
_cell_volume   7717.489
_exptl_crystal_colour 'colorless'
_exptl_crystal_description 'block'
_diffrn_ambient_temperature 293
_refine_special_details
;
Disordered diethylammonium ions, water and acetonitrile solvent molecules 
were not modelled and the disordered density was taken into account using the 
SQUEEZE/PLATON procedure.
;
#These two values have been output from a single CSD field.
_refine_ls_R_factor_gt 0.0415
_refine_ls_wR_factor_gt 0.0415
_symmetry_cell_setting rhombohedral
_symmetry_space_group_name_H-M 'R -3'
_symmetry_Int_Tables_number 148
loop_
_symmetry_equiv_pos_site_id
_symmetry_equiv_pos_as_xyz
1 x,y,z
2 -y,x-y,z
3 -x+y,-x,z
4 2/3+x,1/3+y,1/3+z
5 2/3-y,1/3+x-y,1/3+z
6 2/3-x+y,1/3-x,1/3+z
7 1/3+x,2/3+y,2/3+z
8 1/3-y,2/3+x-y,2/3+z
9 1/3-x+y,2/3-x,2/3+z
10 -x,-y,-z
11 y,-x+y,-z
12 x-y,x,-z
13 -2/3-x,-1/3-y,-1/3-z
14 -2/3+y,-1/3-x+y,-1/3-z
15 -2/3+x-y,-1/3+x,-1/3-z
16 -1/3-x,-2/3-y,-2/3-z
17 -1/3+y,-2/3-x+y,-2/3-z
18 -1/3+x-y,-2/3+x,-2/3-z
_cell_length_a 21.417(3)
_cell_length_b 21.417(3)
_cell_length_c 19.428(4)
_cell_angle_alpha 90
_cell_angle_beta 90
_cell_angle_gamma 120
_cell_formula_units_Z 6
loop_
_atom_type_symbol
_atom_type_radius_bond
C 0.68
H 0.23
N 0.68
O 0.68
Zn 1.22
loop_
_atom_site_label
_atom_site_type_symbol
_atom_site_fract_x
_atom_site_fract_y
_atom_site_fract_z
C1 C 0.54742(16) 0.18676(15) 0.11124(17)
C2 C 0.60958(14) 0.26277(14) 0.11680(15)
C3 C 0.67975(15) 0.27615(15) 0.11705(15)
H1 H 0.68860 0.23790 0.11740
C4 C 0.40755(15) -0.02306(15) 0.19638(15)
C5 C 0.33921(14) -0.06368(15) 0.23472(13)
C6 C 0.26979(21) -0.09288(15) 0.21054(13)
H2 H 0.25760 -0.08990 0.16520
C7 C 0.33008(23) -0.08173(16) 0.30387(14)
H3 H 0.36760 -0.06940 0.33490
N1 N 0.26058(17) -0.11905(12) 0.31971(10)
N2 N 0.22229(17) -0.12628(12) 0.26153(10)
O1 O 0.48521(12) 0.17616(13) 0.10629(17)
O2 O 0.56399(10) 0.13762(9) 0.10766(11)
O3 O 0.40046(10) -0.01005(11) 0.13347(10)
O4 O 0.46655(11) -0.00488(14) 0.22391(11)
Zn1 Zn 0.489374(14) 0.040926(15) 0.079740(14)
C1A C 0.81324(16) 0.36066(15) 0.11124(17)
C2A C 0.73723(14) 0.34681(14) 0.11680(15)
C3A C 0.72385(15) 0.40360(15) 0.11705(15)
H1A H 0.76210 0.45070 0.11740
O1A O 0.82384(12) 0.30905(13) 0.10629(17)
O2A O 0.86238(10) 0.42637(9) 0.10766(11)
C1B C 0.63934(16) 0.45258(15) 0.11124(17)
C2B C 0.65319(14) 0.39042(14) 0.11680(15)
C3B C 0.59640(15) 0.32025(15) 0.11705(15)
H1B H 0.54930 0.31140 0.11740
O1B O 0.69095(12) 0.51479(13) 0.10629(17)
O2B O 0.57363(10) 0.43601(9) 0.10766(11)
C4A C 1.02306(15) 0.43061(15) 0.19638(15)
C5A C 1.06368(14) 0.40289(15) 0.23472(13)
C6A C 1.09288(21) 0.36267(15) 0.21054(13)
H2A H 1.08990 0.34750 0.16520
C7A C 1.08173(23) 0.41181(16) 0.30387(14)
H3A H 1.06940 0.43700 0.33490
N1A N 1.11905(17) 0.37963(12) 0.31971(10)
N2A N 1.12628(17) 0.34857(12) 0.26153(10)
O3A O 1.01005(10) 0.41051(11) 0.13347(10)
O4A O 1.00488(11) 0.47143(14) 0.22391(11)
Zn1A Zn 0.959074(14) 0.448448(15) 0.079740(14)
C4B C 0.56939(15) 0.59245(15) 0.19638(15)
C5B C 0.59711(14) 0.66079(15) 0.23472(13)
C6B C 0.63733(21) 0.73021(15) 0.21054(13)
H2B H 0.65250 0.74240 0.16520
C7B C 0.58819(23) 0.66992(16) 0.30387(14)
H3B H 0.56300 0.63240 0.33490
N1B N 0.62037(17) 0.73942(12) 0.31971(10)
N2B N 0.65143(17) 0.77771(12) 0.26153(10)
O3B O 0.58949(10) 0.59954(11) 0.13347(10)
O4B O 0.52857(11) 0.53345(14) 0.22391(11)
Zn1B Zn 0.551552(14) 0.510626(15) 0.079740(14)
N1F N 0.593913(170) 0.547617(120) -0.013623(100)
N1G N 0.452383(170) 0.046297(120) -0.013623(100)
N1H N 0.953703(170) 0.406087(120) -0.013623(100)
N2O N 0.444377(170) 0.459613(120) 0.071803(100)
N2P N 0.540387(170) -0.015237(120) 0.071803(100)
N2Q N 1.015237(170) 0.555623(120) 0.071803(100)
Zn1C Zn 1.156041(14) 0.374259(15) 0.413073(14)
Zn1D Zn 0.625741(14) 0.781781(15) 0.413073(14)
Zn1E Zn 0.218219(14) -0.156041(15) 0.413073(14)
Zn1O Zn 1.177293(14) 0.292407(15) 0.253593(14)
Zn1P Zn 0.707593(14) 0.884885(15) 0.253593(14)
Zn1Q Zn 0.115115(14) -0.177293(15) 0.253593(14)
#END
