
#######################################################################
#
#                 Cambridge Crystallographic Data Centre
#                                CCDC
#
#######################################################################
#
# If this CIF has been generated from an entry in the Cambridge
# Structural Database, then it will include bibliographic, chemical,
# crystal, experimental, refinement or atomic coordinate data resulting
# from the CCDC's data processing and validation procedures.
#
#######################################################################

data_CSD_CIF_OJEVIK
_audit_creation_date 2016-04-06
_audit_creation_method CSD-ConQuest-V1
_database_code_CSD OJEVIK
_database_code_depnum_ccdc_archive 'CCDC 1470602'
_chemical_formula_sum 'C22 H31 N4 O10.5 Zn2'
_chemical_formula_moiety
;
(C13 H5 N2 O8 Zn2 1-)n,n(C4 H12 N1 1+),n(C5 H11 N1 O1),1.5n(H2 O1)
;
_journal_coden_Cambridge 1147
_journal_volume 16
_journal_year 2016
_journal_page_first 5593
_journal_name_full 'Cryst.Growth Des. '
loop_
_publ_author_name
"Yan-Yuan Jia"
"Guo-Jian Ren"
"Ai-Lin Li"
"Li-Zhu Zhang"
"Rui Feng"
"Ying-Hui Zhang"
"Xian-He Bu"
_chemical_name_systematic
;
catena-[diethylammonium 
(\m-benzene-1,3,5-tricarboxylato)-(\m-4-carboxylatopyrazolato)-di-zinc 
N,N-diethylformamide solvate sesquihydrate]
;
_chemical_name_common
;
NKU-103
;
_cell_volume   5559.342
_exptl_crystal_colour 'colorless'
_exptl_crystal_description 'block'
_diffrn_ambient_temperature 113.15
_refine_special_details
;
Disordered diethylammonium ions, water and N,N-diethylformamide solvent 
molecules were not modelled and the disordered density was taken into account 
using the SQUEEZE/PLATON procedure.
;
#These two values have been output from a single CSD field.
_refine_ls_R_factor_gt 0.0363
_refine_ls_wR_factor_gt 0.0363
_symmetry_cell_setting hexagonal
_symmetry_space_group_name_H-M 'P 32 2 1'
_symmetry_Int_Tables_number 154
loop_
_symmetry_equiv_pos_site_id
_symmetry_equiv_pos_as_xyz
1 x,y,z
2 -y,x-y,2/3+z
3 -x+y,-x,1/3+z
4 y,x,-z
5 x-y,-y,1/3-z
6 -x,-x+y,2/3-z
_cell_length_a 13.698(3)
_cell_length_b 13.698(3)
_cell_length_c 34.212(10)
_cell_angle_alpha 90
_cell_angle_beta 90
_cell_angle_gamma 120
_cell_formula_units_Z 4
loop_
_atom_type_symbol
_atom_type_radius_bond
C 0.68
H 0.23
N 0.68
O 0.68
Zn 1.22
loop_
_atom_site_label
_atom_site_type_symbol
_atom_site_fract_x
_atom_site_fract_y
_atom_site_fract_z
C1 C 1.0818(3) 0.4455(3) 0.18680(9)
H1 H 1.08290 0.41480 0.21090
C2 C 1.1767(3) 0.5233(3) 0.16642(9)
C3 C 1.1338(3) 0.5467(3) 0.13354(8)
H2 H 1.17690 0.59850 0.11430
C4 C 1.2950(4) 0.5669(3) 0.17733(9)
C5 C 0.5662(4) -0.2241(2) 0.24431(8)
C6 C 0.5904(4) -0.0155(3) 0.36782(9)
C7 C 0.7888(4) 0.1949(3) 0.24592(9)
C8 C 0.7195(4) 0.0856(3) 0.26756(9)
C9 C 0.6794(3) -0.0163(3) 0.24790(8)
H3 H 0.69710 -0.01660 0.22170
C10 C 0.6130(3) -0.1176(3) 0.26726(8)
C11 C 0.5867(3) -0.1180(3) 0.30642(9)
H4 H 0.54260 -0.18590 0.31940
C12 C 0.6271(3) -0.0157(3) 0.32629(8)
C13 C 0.6952(4) 0.0855(3) 0.30684(9)
H5 H 0.72450 0.15330 0.32030
N1 N 0.9898(2) 0.4216(2) 0.16693(7)
N2 N 1.0224(2) 0.4849(2) 0.13327(7)
O1 O 1.3679(3) 0.6392(2) 0.15499(7)
O2 O 1.3131(3) 0.5281(2) 0.20771(6)
O3 O 0.57860(27) -0.21410(18) 0.20818(6)
O4 O 0.51579(27) -0.31591(18) 0.26290(6)
O5 O 0.7943(2) 0.18260(19) 0.20938(6)
O6 O 0.8232(5) 0.2849(2) 0.26197(8)
O7 O 0.63854(28) 0.0809(2) 0.38465(6)
O8 O 0.5169(5) -0.1010(3) 0.38259(8)
Zn1 Zn 0.90473(3) 0.46600(3) 0.095540(8)
Zn2 Zn 0.83217(3) 0.30320(3) 0.173767(8)
O1D O 0.7287(3) 0.3608(2) 0.178343(70)
O2D O 0.7850(3) 0.4719(2) 0.125623(60)
O3D O 0.79270(27) 0.21410(18) 0.125153(60)
O4D O 0.83170(27) 0.31591(18) 0.070433(60)
O7A O 0.91910(28) 0.55764(20) 0.051317(60)
Zn1B Zn 0.56127(3) 0.09527(3) 0.428873(8)
Zn1D Zn 0.43873(3) -0.46600(3) 0.237793(8)
Zn1D* Zn 1.43873(3) 0.53400(3) 0.237793(8)
Zn2D Zn 0.52897(3) -0.30320(3) 0.159566(8)
Zn2D* Zn 1.52897(3) 0.69680(3) 0.159566(8)
#END
