
#######################################################################
#
#                 Cambridge Crystallographic Data Centre
#                                CCDC
#
#######################################################################
#
# If this CIF has been generated from an entry in the Cambridge
# Structural Database, then it will include bibliographic, chemical,
# crystal, experimental, refinement or atomic coordinate data resulting
# from the CCDC's data processing and validation procedures.
#
#######################################################################

data_CSD_CIF_OJOPEI
_audit_creation_date 2003-12-12
_audit_creation_method CSD-ConQuest-V1
_database_code_CSD OJOPEI
_database_code_depnum_ccdc_archive 'CCDC 175150'
_chemical_formula_sum 'C224 H402 Ba4 Co12 N16 O193'
_chemical_formula_moiety
;
(Ba1 2+)4n,n(H12 Co1 O6 2+),n(C224 H232 Co11 N16 O108 10-),79n(H2 O1)
;
_journal_coden_Cambridge 155
_journal_volume 351
_journal_year 2003
_journal_page_first 399
_journal_name_full 'Inorg.Chim.Acta '
loop_
_publ_author_name
"R.G.Harrison"
"J.L.Burrows"
"N.K.Dalley"
_chemical_name_systematic
;
catena-(Tetra-barium hexa-aqua-cobalt(ii) 
bis(\m~6~-5,11,17,23-tetrakis(N,N-diacetatoaminomethyl)-2,8,14,20-tetramethyl-
6,10:12,16:18,22:24,4-tetrakis(methylene)calix(4)resorcinarene)-bis(\m~5~-5,11
,17,23-tetrakis(N,N-diacetatoaminomethyl)-2,8,14,20-tetramethyl-6,10:12,16:18,
22:24,4-tetrakis(methylene)calix(4)resorcinarene)-dodeca-aqua-undeca-cobalt(ii
) hydrate)
;
_cell_volume   9114.135
_exptl_crystal_colour 'pink'
_exptl_crystal_density_diffrn 1.386
_exptl_special_details
;
The authors state that the 4Co-2(resorcinarene) cages are bridged by Ba and 
Co atoms. The Ba-O coordination has not been included in the 2D diagram and 
only a partial diagram has been drawn due to programming limitations
;
_exptl_crystal_description 'block'
_exptl_crystal_preparation 'deuterium oxide'
_diffrn_ambient_temperature 293
_refine_special_details
;
A cobalt atom is disordered equally over two sites by symmetry. Some of the 
water molecules are also disordered.
;
#These two values have been output from a single CSD field.
_refine_ls_R_factor_gt 0.0755
_refine_ls_wR_factor_gt 0.0755
_symmetry_cell_setting triclinic
_symmetry_space_group_name_H-M 'P -1'
_symmetry_Int_Tables_number 2
loop_
_symmetry_equiv_pos_site_id
_symmetry_equiv_pos_as_xyz
1 x,y,z
2 -x,-y,-z
_cell_length_a 17.098(2)
_cell_length_b 21.117(4)
_cell_length_c 27.378(5)
_cell_angle_alpha 73.565(16)
_cell_angle_beta 74.912(15)
_cell_angle_gamma 80.774(12)
_cell_formula_units_Z 1
loop_
_atom_type_symbol
_atom_type_radius_bond
C 0.68
H 0.23
Ba 1.54
Co 1.23
N 0.68
O 0.78
loop_
_atom_site_label
_atom_site_type_symbol
_atom_site_fract_x
_atom_site_fract_y
_atom_site_fract_z
Ba1 Ba 0.82018(4) 0.75560(4) 0.16905(3)
O1 O 0.7137(4) 0.8253(4) 0.2434(3)
O2 O 0.8199(6) 0.6259(4) 0.1673(4)
O3 O 0.7472(5) 0.6798(4) 0.2760(3)
O4 O 0.9124(7) 0.8361(8) 0.1896(6)
O5 O 0.6620(7) 0.7394(7) 0.1692(6)
O6 O 0.7336(8) 0.8827(6) 0.1280(4)
Ba2 Ba 0.73142(5) 0.76699(4) -0.65531(3)
O7 O 0.7148(12) 0.6363(5) -0.5967(5)
O8 O 0.8450(5) 0.8652(4) -0.7161(3)
O9 O 0.5676(6) 0.7685(6) -0.6520(4)
O10 O 0.8891(8) 0.7039(7) -0.6739(6)
O11 O 0.6607(6) 0.8939(5) -0.6454(4)
Co1 Co 0.77296(9) 0.69663(7) 0.02781(5)
N1 N 0.6779(5) 0.6517(4) 0.0115(3)
C1 C 0.6894(6) 0.6565(6) -0.0456(4)
H1 H 0.74440 0.63860 -0.05850
H2 H 0.68420 0.70300 -0.06390
C2 C 0.6788(7) 0.5827(5) 0.0438(4)
H3 H 0.72100 0.55490 0.02620
H4 H 0.62690 0.56590 0.04900
C3 C 0.6947(7) 0.5806(7) 0.0964(5)
O12 O 0.7301(5) 0.6278(4) 0.0981(3)
O13 O 0.6726(6) 0.5328(5) 0.1337(4)
C4 C 0.6023(6) 0.6910(6) 0.0324(5)
H5 H 0.55920 0.68680 0.01680
H6 H 0.58560 0.67290 0.06990
C5 C 0.6137(8) 0.7617(7) 0.0217(5)
O14 O 0.6869(5) 0.7772(4) 0.0137(3)
O15 O 0.5536(6) 0.8025(5) 0.0229(5)
N2 N 0.8624(5) 0.7572(4) -0.0368(3)
C6 C 0.8400(6) 0.7739(5) -0.0876(4)
H7 H 0.78500 0.79550 -0.08330
H8 H 0.83860 0.73270 -0.09630
C7 C 0.8652(7) 0.8148(5) -0.0183(4)
H9 H 0.82010 0.84740 -0.02570
H10 H 0.91540 0.83500 -0.03650
C8 C 0.8605(7) 0.7946(7) 0.0404(5)
O16 O 0.8252(5) 0.7428(4) 0.0669(3)
O17 O 0.8878(5) 0.8285(4) 0.0612(3)
C9 C 0.9389(6) 0.7144(5) -0.0348(4)
H11 H 0.96170 0.72050 -0.00770
H12 H 0.97770 0.72690 -0.06800
C10 C 0.9252(8) 0.6432(6) -0.0238(4)
O18 O 0.8554(5) 0.6252(4) -0.0007(3)
O19 O 0.9858(5) 0.6027(4) -0.0359(3)
Co2 Co 0.43055(9) 1.02173(7) -0.21931(6)
N3 N 0.3895(5) 0.9228(4) -0.2010(3)
C11 C 0.4574(6) 0.8730(5) -0.2147(4)
H13 H 0.49940 0.87330 -0.19690
H14 H 0.48050 0.88650 -0.25200
C12 C 0.3270(7) 0.9315(6) -0.2312(5)
H15 H 0.29110 0.89630 -0.21530
H16 H 0.35310 0.92820 -0.26650
C13 C 0.2782(8) 0.9970(6) -0.2332(5)
O20 O 0.3056(4) 1.0397(4) -0.2198(3)
O21 O 0.2143(6) 1.0065(4) -0.2488(4)
C14 C 0.3530(7) 0.9106(6) -0.1450(4)
H17 H 0.34810 0.86350 -0.13030
H18 H 0.29870 0.93360 -0.13980
C15 C 0.4037(8) 0.9343(7) -0.1170(6)
O22 O 0.4473(5) 0.9802(5) -0.1435(3)
O23 O 0.3979(7) 0.9106(5) -0.0692(4)
N4 N 0.5593(5) 1.0440(4) -0.2453(3)
C16 C 0.6184(6) 0.9837(5) -0.2414(4)
H19 H 0.60500 0.95570 -0.26010
H20 H 0.61010 0.95950 -0.20490
C17 C 0.5680(7) 1.0874(6) -0.2146(5)
H21 H 0.61260 1.11440 -0.23360
H22 H 0.58040 1.06100 -0.18180
C18 C 0.4902(8) 1.1317(6) -0.2039(5)
O24 O 0.4263(5) 1.1161(4) -0.2097(3)
O25 O 0.4921(6) 1.1812(6) -0.1882(5)
C19 C 0.5623(7) 1.0834(6) -0.3005(4)
H23 H 0.61850 1.08550 -0.31980
H24 H 0.53840 1.12840 -0.30070
C20 C 0.5162(7) 1.0523(6) -0.3274(5)
O26 O 0.4565(5) 1.0210(4) -0.2972(3)
O27 O 0.5338(5) 1.0601(5) -0.3752(3)
Co3 Co 0.71957(8) 0.78521(7) -0.51763(5)
N5 N 0.6409(5) 0.7176(4) -0.4558(3)
C21 C 0.6422(7) 0.7220(6) -0.4025(4)
H25 H 0.62400 0.76720 -0.40010
H26 H 0.69820 0.71330 -0.39890
C22 C 0.6781(7) 0.6528(5) -0.4652(4)
H27 H 0.66010 0.64580 -0.49390
H28 H 0.65920 0.61800 -0.43430
C23 C 0.7688(9) 0.6474(8) -0.4777(5)
O28 O 0.8008(5) 0.7025(4) -0.4987(3)
O29 O 0.8082(6) 0.5929(5) -0.4711(4)
C24 C 0.5607(6) 0.7317(5) -0.4674(4)
H29 H 0.53050 0.76740 -0.45240
H30 H 0.53090 0.69270 -0.45200
C25 C 0.5692(8) 0.7513(6) -0.5256(5)
O30 O 0.6382(5) 0.7646(4) -0.5549(3)
O31 O 0.5082(6) 0.7548(6) -0.5430(4)
N6 N 0.7974(5) 0.8488(4) -0.5043(3)
C26 C 0.8051(6) 0.8292(5) -0.4486(4)
H31 H 0.82190 0.78210 -0.43950
H32 H 0.75170 0.83640 -0.42660
C27 C 0.7573(6) 0.9153(5) -0.5181(4)
H33 H 0.77460 0.93370 -0.55550
H34 H 0.77410 0.94310 -0.50060
C28 C 0.6657(7) 0.9169(7) -0.5033(4)
O32 O 0.6363(4) 0.8635(4) -0.4978(3)
O33 O 0.6246(5) 0.9709(4) -0.4987(3)
C29 C 0.8755(7) 0.8410(6) -0.5409(4)
H35 H 0.90660 0.80080 -0.52620
H36 H 0.90630 0.87820 -0.54630
C30 C 0.8626(7) 0.8377(6) -0.5934(5)
O34 O 0.7963(5) 0.8152(4) -0.5912(3)
O35 O 0.9143(5) 0.8555(5) -0.6339(3)
Co4 Co 1.05892(9) 0.46021(7) -0.27095(6)
N7 N 0.9312(5) 0.4398(4) -0.2398(3)
C31 C 0.8779(6) 0.5000(5) -0.2325(4)
H37 H 0.88720 0.53360 -0.26550
H38 H 0.89430 0.51630 -0.20730
C32 C 0.9148(7) 0.4119(6) -0.2792(4)
H39 H 0.85650 0.41610 -0.27650
H40 H 0.93360 0.36500 -0.27240
C33 C 0.9564(8) 0.4465(7) -0.3339(6)
O36 O 1.0178(5) 0.4775(4) -0.3392(3)
O37 O 0.9316(6) 0.4410(6) -0.3712(4)
C34 C 0.9311(7) 0.3878(6) -0.1901(5)
H41 H 0.88580 0.36140 -0.18250
H42 H 0.92380 0.40870 -0.16170
C35 C 1.0092(8) 0.3432(6) -0.1932(6)
O38 O 1.0658(5) 0.3572(4) -0.2339(3)
O39 O 1.0153(5) 0.2956(4) -0.1551(4)
N8 N 1.0971(5) 0.5625(4) -0.2959(3)
C36 C 1.0275(6) 0.6169(5) -0.2981(4)
H43 H 1.00080 0.61500 -0.32470
H44 H 0.98820 0.60750 -0.26480
C37 C 1.1403(6) 0.5604(6) -0.2555(4)
H45 H 1.14490 0.60540 -0.25500
H46 H 1.19490 0.53910 -0.26430
C38 C 1.0977(7) 0.5237(6) -0.2023(5)
O40 O 1.1068(5) 0.5347(4) -0.1620(3)
O41 O 1.0559(5) 0.4788(4) -0.2005(3)
C39 C 1.1550(7) 0.5667(6) -0.3463(4)
H47 H 1.19190 0.60000 -0.35210
H48 H 1.12610 0.57970 -0.37430
C40 C 1.2036(8) 0.4985(7) -0.3463(5)
O42 O 1.1778(5) 0.4489(4) -0.3118(3)
O43 O 1.2673(7) 0.4979(5) -0.3804(4)
Co5 Co 0.50000 1.00000 -0.50000
O44 O 0.5264(5) 1.0977(4) -0.5120(4)
O45 O 0.5309(6) 1.0133(5) -0.5812(3)
Co6 Co 1.00000 0.50000 0.00000
O46 O 0.8741(5) 0.4911(4) 0.0196(3)
O47 O 0.9951(6) 0.5211(4) 0.0704(3)
Co7 Co 0.50000 1.00000 0.00000
O48 O 0.5305(8) 0.9497(6) 0.0722(5)
O49 O 0.4684(12) 1.0781(8) 0.0331(8)
O50 O 0.3952(16) 0.9605(13) 0.0290(9)
C41 C 0.3480(7) 0.6047(6) -0.0609(4)
H49 H 0.29640 0.62880 -0.06460
H50 H 0.34570 0.58300 -0.02470
H51 H 0.36050 0.57210 -0.08080
C42 C 0.4134(6) 0.6521(5) -0.0806(4)
H52 H 0.39960 0.68260 -0.05790
C43 C 0.4966(6) 0.6194(5) -0.0764(4)
C44 C 0.5224(7) 0.5543(6) -0.0812(4)
H53 H 0.48610 0.53140 -0.08810
C45 C 0.5975(6) 0.5220(5) -0.0762(4)
C46 C 0.6505(6) 0.5574(6) -0.0656(4)
C47 C 0.6308(6) 0.6210(5) -0.0594(4)
C48 C 0.5543(7) 0.6511(5) -0.0668(4)
O51 O 0.5342(4) 0.7155(4) -0.0603(3)
C49 C 0.5343(7) 0.7676(6) -0.1057(5)
H54 H 0.57040 0.75370 -0.13530
H55 H 0.55530 0.80540 -0.10170
O52 O 0.4559(5) 0.7870(4) -0.1160(3)
C50 C 0.3167(7) 0.6323(6) -0.2463(5)
H56 H 0.31210 0.61700 -0.27520
H57 H 0.26530 0.65360 -0.23210
H58 H 0.33230 0.59540 -0.21980
C51 C 0.3800(6) 0.6810(5) -0.2649(4)
H59 H 0.36040 0.71820 -0.29080
C52 C 0.3949(6) 0.7102(5) -0.2241(4)
C53 C 0.3933(6) 0.6723(6) -0.1743(4)
H60 H 0.37790 0.62940 -0.16520
C54 C 0.4138(6) 0.6952(5) -0.1365(4)
C55 C 0.4353(6) 0.7597(6) -0.1509(4)
C56 C 0.4350(6) 0.8024(5) -0.2013(4)
C57 C 0.4160(6) 0.7752(5) -0.2373(4)
O53 O 0.4158(4) 0.8160(4) -0.2866(3)
C58 C 0.4860(7) 0.8094(6) -0.3269(4)
H61 H 0.49340 0.85220 -0.35190
H62 H 0.53330 0.79660 -0.31170
O54 O 0.4816(4) 0.7625(4) -0.3535(3)
C59 C 0.5472(8) 0.4454(6) -0.2583(5)
H63 H 0.57350 0.40180 -0.24720
H64 H 0.52290 0.44690 -0.28660
H65 H 0.50580 0.45560 -0.22960
C60 C 0.6098(6) 0.4961(5) -0.2767(4)
H66 H 0.64870 0.48470 -0.30690
C61 C 0.5759(6) 0.5671(5) -0.2960(4)
C62 C 0.4967(7) 0.5903(5) -0.2748(4)
H67 H 0.46450 0.56120 -0.24790
C63 C 0.4635(6) 0.6554(6) -0.2923(4)
C64 C 0.5128(7) 0.6971(6) -0.3336(4)
C65 C 0.5919(6) 0.6765(5) -0.3570(4)
C66 C 0.6219(6) 0.6119(6) -0.3358(4)
O55 O 0.7004(4) 0.5915(4) -0.3589(3)
C67 C 0.7619(7) 0.5852(6) -0.3309(4)
H68 H 0.81140 0.60080 -0.35530
H69 H 0.74470 0.61300 -0.30650
O56 O 0.7787(4) 0.5186(4) -0.3029(3)
C68 C 0.5586(7) 0.4085(6) -0.0698(5)
H70 H 0.53580 0.40260 -0.03300
H71 H 0.58080 0.36630 -0.07660
H72 H 0.51690 0.42720 -0.08870
C69 C 0.6252(6) 0.4545(5) -0.0870(4)
H73 H 0.66700 0.43360 -0.06740
C70 C 0.6661(6) 0.4673(5) -0.1448(4)
C71 C 0.6237(7) 0.4733(5) -0.1825(4)
H74 H 0.56890 0.46620 -0.17160
C72 C 0.6584(7) 0.4896(5) -0.2363(4)
C73 C 0.7398(6) 0.5011(5) -0.2509(4)
C74 C 0.7879(6) 0.4932(5) -0.2145(4)
C75 C 0.7481(6) 0.4772(5) -0.1618(4)
O57 O 0.7939(4) 0.4708(4) -0.1244(3)
C76 C 0.7899(6) 0.5259(6) -0.1039(4)
H75 H 0.84160 0.52640 -0.09570
H76 H 0.78150 0.56630 -0.13050
O58 O 0.7273(4) 0.5256(4) -0.0587(3)
C77 C 0.9643(7) 1.0442(6) -0.2342(5)
H77 H 0.94260 1.08940 -0.24510
H78 H 0.99990 1.03090 -0.26370
H79 H 0.99430 1.04040 -0.20810
C78 C 0.8941(6) 0.9991(5) -0.2110(4)
H80 H 0.85960 1.01340 -0.18060
C79 C 0.9218(6) 0.9262(5) -0.1923(4)
C80 C 0.9942(7) 0.8961(6) -0.2179(4)
H81 H 1.02850 0.92280 -0.24530
C81 C 1.0171(6) 0.8286(5) -0.2043(4)
C82 C 0.9632(7) 0.7897(5) -0.1634(4)
C83 C 0.8928(6) 0.8173(5) -0.1337(4)
C84 C 0.8739(6) 0.8852(5) -0.1501(4)
O59 O 0.8029(4) 0.9133(3) -0.1220(3)
C85 C 0.7326(7) 0.9235(6) -0.1420(5)
H82 H 0.68510 0.91790 -0.11320
H83 H 0.73510 0.89020 -0.16070
O60 O 0.7236(4) 0.9884(4) -0.1767(3)
C86 C 0.9227(8) 1.0757(6) -0.4168(5)
H84 H 0.94090 1.08200 -0.45390
H85 H 0.96820 1.05960 -0.40070
H86 H 0.89890 1.11720 -0.40920
C87 C 0.8595(7) 1.0255(5) -0.3953(4)
H87 H 0.81380 1.04440 -0.41200
C88 C 0.8255(7) 1.0129(5) -0.3370(4)
C89 C 0.8719(7) 1.0136(5) -0.3013(4)
H88 H 0.92640 1.02130 -0.31440
C90 C 0.8409(6) 1.0036(5) -0.2481(4)
C91 C 0.7595(7) 0.9948(5) -0.2296(4)
C92 C 0.7081(6) 0.9933(5) -0.2616(4)
C93 C 0.7451(7) 1.0003(5) -0.3152(4)
O61 O 0.6953(4) 0.9973(4) -0.3474(3)
C94 C 0.7053(7) 0.9410(6) -0.3660(5)
H89 H 0.65230 0.93070 -0.36650
H90 H 0.72800 0.90390 -0.34200
O62 O 0.7569(4) 0.9474(4) -0.4173(3)
C95 C 1.1487(7) 0.8915(6) -0.4403(5)
H91 H 1.20150 0.86860 -0.43860
H92 H 1.13440 0.91990 -0.41680
H93 H 1.14950 0.91770 -0.47530
C96 C 1.0862(6) 0.8414(5) -0.4246(4)
H94 H 1.10120 0.81430 -0.45000
C97 C 1.0007(6) 0.8734(6) -0.4256(4)
C98 C 0.9713(7) 0.9326(5) -0.4131(4)
H95 H 1.00690 0.95620 -0.40620
C99 C 0.8915(7) 0.9590(5) -0.4102(4)
C100 C 0.8390(6) 0.9236(5) -0.4207(4)
C101 C 0.8642(6) 0.8655(5) -0.4359(4)
C102 C 0.9456(7) 0.8407(6) -0.4377(4)
O63 O 0.9729(4) 0.7812(4) -0.4538(3)
C103 C 0.9765(7) 0.7212(6) -0.4138(4)
H96 H 0.93490 0.72550 -0.38290
H97 H 0.96480 0.68520 -0.42540
O64 O 1.0533(4) 0.7053(3) -0.4005(3)
C104 C 1.1657(7) 0.8411(7) -0.2491(5)
H98 H 1.17110 0.85340 -0.21900
H99 H 1.15550 0.88040 -0.27560
H100 H 1.21510 0.81650 -0.26250
C105 C 1.0943(6) 0.7978(5) -0.2334(4)
H101 H 1.10990 0.75750 -0.20830
C106 C 1.0811(6) 0.7748(5) -0.2777(4)
C107 C 1.0923(6) 0.8151(5) -0.3285(4)
H102 H 1.10760 0.85760 -0.33500
C108 C 1.0815(6) 0.7942(6) -0.3702(4)
C109 C 1.0619(6) 0.7286(5) -0.3598(4)
C110 C 1.0496(6) 0.6864(5) -0.3092(4)
C111 C 1.0558(6) 0.7115(5) -0.2685(4)
O65 O 1.0415(4) 0.6714(3) -0.2187(3)
C112 C 0.9700(7) 0.6861(6) -0.1834(5)
H103 H 0.94750 0.64490 -0.16250
H104 H 0.93050 0.71180 -0.20290
O66 O 0.9813(4) 0.7216(4) -0.1497(3)
Co8 Co 0.9999(6) 0.4520(6) -0.4535(4)
O67 O 0.6814(8) 0.5495(6) 0.2290(4)
O68 O 0.6830(8) 0.8936(6) 0.0398(5)
O69 O 0.6552(8) 1.0889(7) 0.5392(5)
O70 O 0.9791(11) 0.3528(7) -0.0672(5)
O71 O 0.8640(8) 0.8315(7) -0.2798(6)
O72 O 0.6246(9) 0.6576(7) -0.2119(6)
O73 O 1.1867(16) 0.5855(12) -0.1167(5)
O74 O 0.739(1) 0.7786(10) -0.1836(6)
O75 O 0.6418(9) 0.7992(10) -0.2623(9)
O76 O 0.7966(13) 0.7429(9) -0.3206(6)
O77 O 1.1173(10) 0.4650(11) -0.4349(6)
O78 O 1.0566(11) 0.3358(10) -0.4321(8)
O79 O 0.9783(17) 0.9349(13) 0.0179(7)
O80 O 0.7997(15) 0.6552(10) -0.2218(11)
O81 O 0.8432(18) 1.0052(12) 0.3327(10)
O82? O 0.9096(17) 0.4123(13) -0.4638(10)
O83? O 0.6855(16) 0.7675(12) -0.3048(11)
O84 O 0.9110(15) 0.4682(13) -0.4708(9)
O85? O 0.8420(13) 0.6962(14) -0.2857(12)
O86? O 1.095(2) 1.0044(14) -0.3514(11)
O87? O 0.6952(15) 0.8244(11) -0.2171(10)
O88 O 0.9572(11) 0.5552(17) -0.4605(12)
O89 O 1.1069(14) 0.9473(15) -0.1450(9)
O90 O 0.4179(17) 0.8315(16) 0.1084(10)
O91? O 0.7599(16) 0.6849(18) -0.1793(11)
O92 O 0.734(3) 0.4776(10) -0.4229(13)
O93 O 0.697(2) 1.0389(19) 0.3704(13)
O94 O 0.7907(18) 0.3861(14) -0.3586(11)
O95 O 0.9442(17) 0.2399(14) -0.2458(11)
O96 O 0.936(5) 1.100(4) -0.113(3)
O97 O 1.0693(19) 0.7962(15) -0.6641(12)
O98 O 0.8380(19) 0.9818(15) 0.0919(12)
O99 O 1.285(2) 0.5712(17) -0.4839(13)
O100 O 0.2270(19) 1.0114(15) 0.0409(12)
O101 O 0.386(2) 0.7860(18) 0.0173(14)
O102 O 1.329(2) 0.8133(19) -0.3941(15)
O103 O 0.592(2) 0.6473(17) -0.7132(13)
O104 O 0.943(2) 0.9889(17) -0.0849(13)
O105? O 0.751(2) 1.0024(17) 0.3524(13)
O106 O 0.542(3) 0.516(2) -0.4159(16)
O107 O 0.764(3) 1.169(2) -0.2990(19)
O108 O 0.903(3) 0.219(2) -0.0813(17)
O109? O 0.670(2) 1.0812(19) 0.3818(13)
O110 O 1.386(2) 0.514(2) -0.3334(16)
O33A O 0.3754(5) 1.0291(4) -0.5013(3)
O44A O 0.4736(5) 0.9023(4) -0.4880(4)
O45A O 0.4691(6) 0.9867(5) -0.4188(3)
O19A O 1.0142(5) 0.3973(4) 0.0359(3)
O46A O 1.1259(5) 0.5089(4) -0.0196(3)
O47A O 1.0049(6) 0.4789(4) -0.0704(3)
O48A O 0.4695(8) 1.0503(6) -0.0722(5)
O49A O 0.5316(12) 0.9219(8) -0.0331(8)
O50A O 0.6048(16) 1.0395(13) -0.0290(9)
Co8A Co 1.0001(6) 0.5480(6) -0.5465(4)
O88A O 1.0428(11) 0.4448(17) -0.5395(12)
#END
