
#######################################################################
#
#                 Cambridge Crystallographic Data Centre
#                                CCDC
#
#######################################################################
#
# If this CIF has been generated from an entry in the Cambridge
# Structural Database, then it will include bibliographic, chemical,
# crystal, experimental, refinement or atomic coordinate data resulting
# from the CCDC's data processing and validation procedures.
#
#######################################################################

data_CSD_CIF_OJOTIQ
_audit_creation_date 2003-12-12
_audit_creation_method CSD-ConQuest-V1
_database_code_CSD OJOTIQ
_database_code_depnum_ccdc_archive 'CCDC 217707'
_chemical_formula_sum 'C18 H34 Mn1 N4 O17'
_chemical_formula_moiety
;
(C4 H7 N2 1+)2n,n(C10 H10 Mn1 O12 2-),5n(H2 O1)
;
_journal_coden_Cambridge 155
_journal_volume 351
_journal_year 2003
_journal_page_first 242
_journal_name_full 'Inorg.Chim.Acta '
loop_
_publ_author_name
"Deping Cheng"
"M.A.Khan"
"R.P.Houser"
_chemical_name_systematic
;
catena-(bis(2-Methylimidazolium) 
(\m~2~-benzene-1,2,4,5-tetracarboxylato-O,O')-tetra-aqua-manganese(ii) 
pentahydrate)
;
_cell_volume    667.479
_exptl_crystal_colour 'colorless'
_exptl_crystal_density_diffrn 1.576
_exptl_crystal_description 'block'
_diffrn_ambient_temperature 173
_refine_special_details
;
A water molecule is disordered equally over two sites by symmetry.

;
#These two values have been output from a single CSD field.
_refine_ls_R_factor_gt 0.0308
_refine_ls_wR_factor_gt 0.0308
_symmetry_cell_setting triclinic
_symmetry_space_group_name_H-M 'P -1'
_symmetry_Int_Tables_number 2
loop_
_symmetry_equiv_pos_site_id
_symmetry_equiv_pos_as_xyz
1 x,y,z
2 -x,-y,-z
_cell_length_a 7.1719(16)
_cell_length_b 9.7324(15)
_cell_length_c 9.816(2)
_cell_angle_alpha 92.764(12)
_cell_angle_beta 101.288(16)
_cell_angle_gamma 95.304(14)
_cell_formula_units_Z 1
loop_
_atom_type_symbol
_atom_type_radius_bond
C 0.68
H 0.23
Mn 1.35
N 0.68
O 0.68
loop_
_atom_site_label
_atom_site_type_symbol
_atom_site_fract_x
_atom_site_fract_y
_atom_site_fract_z
Mn1 Mn 0.00000 0.00000 0.00000
O1 O 0.11521(14) -0.15662(10) -0.12036(11)
O2 O -0.05793(16) -0.28918(11) -0.30091(12)
O3 O 0.39792(15) -0.24848(11) 0.16376(11)
O4 O 0.46703(15) -0.33228(11) -0.03341(12)
O5 O 0.27838(17) 0.11544(12) 0.05770(14)
O6 O 0.07382(17) -0.11806(12) 0.18012(13)
O7 O -0.1248(2) -0.04241(14) -0.41646(14)
O8 O 0.57918(17) 0.01300(12) 0.22000(14)
O9? O -0.4726(5) -0.0355(5) -0.5215(4)
N1 N -0.64064(19) -0.41275(15) -0.30495(15)
H1 H -0.60710 -0.40220 -0.21360
N2 N -0.76137(19) -0.50107(14) -0.51103(15)
H2 H -0.82220 -0.55930 -0.58030
C1 C -0.8141(3) -0.65044(19) -0.3181(2)
H3 H -0.90260 -0.70860 -0.39170
H4 H -0.88120 -0.62440 -0.24440
H5 H -0.70710 -0.70190 -0.27910
C2 C -0.7404(2) -0.52394(17) -0.37712(17)
C3 C -0.6731(2) -0.37190(17) -0.52513(19)
H6 H -0.66670 -0.33010 -0.60980
C4 C -0.5981(3) -0.31674(18) -0.39571(19)
H7 H -0.52880 -0.22810 -0.37140
C5 C 0.0177(2) -0.38959(15) -0.08460(15)
C6 C -0.1499(2) -0.47912(15) -0.10515(15)
H8 H -0.25330 -0.46470 -0.17800
C7 C 0.1699(2) -0.41134(15) 0.02222(15)
C8 C 0.0256(2) -0.26974(15) -0.17585(16)
C9 C 0.3594(2) -0.32216(14) 0.05188(16)
H9 H 0.363(2) 0.081(2) 0.108(2)
H10 H 0.338(3) 0.1799(19) 0.030(2)
H11 H 0.084(4) -0.076(2) 0.2551(18)
H12 H 0.166(2) -0.161(2) 0.177(3)
H13 H -0.100(4) -0.1145(18) -0.382(3)
H14 H -0.073(3) -0.035(3) -0.477(2)
H15 H 0.676(2) 0.042(3) 0.195(3)
H16 H 0.554(3) -0.0666(15) 0.195(3)
H17? H -0.526(6) -0.018(7) -0.458(4)
H18? H -0.396(5) 0.020(4) -0.473(5)
C7A C -0.1699(2) -0.58866(15) -0.02222(15)
C5A C -0.0177(2) -0.61041(15) 0.08460(15)
C6A C 0.1499(2) -0.52088(15) 0.10515(15)
H8A H 0.25330 -0.53530 0.17800
C8A C -0.0256(2) -0.73026(15) 0.17585(16)
O1A O -0.11521(14) -0.84338(10) 0.12036(11)
O2A O 0.05793(16) -0.71082(11) 0.30091(12)
C9A C -0.3594(2) -0.67784(14) -0.05188(16)
O3A O -0.39792(15) -0.75152(11) -0.16376(11)
O4A O -0.46703(15) -0.66772(11) 0.03341(12)
O5A O -0.27838(17) -0.11544(12) -0.05770(14)
H9A H -0.363(2) -0.081(2) -0.108(2)
H10A H -0.338(3) -0.1799(19) -0.030(2)
O6A O -0.07382(17) 0.11806(12) -0.18012(13)
H11A H -0.084(4) 0.076(2) -0.2551(18)
H12A H -0.166(2) 0.161(2) -0.177(3)
O1A* O -0.11521(14) 0.15662(10) 0.12036(11)
Mn1* Mn 0.00000 -1.00000 0.00000
#END
