
#######################################################################
#
#                 Cambridge Crystallographic Data Centre
#                                CCDC
#
#######################################################################
#
# If this CIF has been generated from an entry in the Cambridge
# Structural Database, then it will include bibliographic, chemical,
# crystal, experimental, refinement or atomic coordinate data resulting
# from the CCDC's data processing and validation procedures.
#
#######################################################################

data_CSD_CIF_OJOTEM
_audit_creation_date 2003-12-12
_audit_creation_method CSD-ConQuest-V1
_database_code_CSD OJOTEM
_database_code_depnum_ccdc_archive 'CCDC 217706'
_chemical_formula_sum 'C28 H42 N12 Ni2 O16'
_chemical_formula_moiety
;
(C12 H20 N8 Ni1 O2 2+)n,n(C16 H14 N4 Ni1 O10 2-),4n(H2 O1)
;
_journal_coden_Cambridge 155
_journal_volume 351
_journal_year 2003
_journal_page_first 242
_journal_name_full 'Inorg.Chim.Acta '
loop_
_publ_author_name
"Deping Cheng"
"M.A.Khan"
"R.P.Houser"
_chemical_name_systematic
;
catena-(Diaqua-tetrakis(imidazole)-nickel(ii) 
(\m~2~-benzene-1,2,4,5-tetracarboxylato-O,O')-diaqua-bis(imidazole)-nickel(ii)
 tetrahydrate)
;
_cell_volume    959.887
_exptl_crystal_colour 'blue'
_exptl_crystal_density_diffrn 1.592
_exptl_special_details
;
This may be the same structure as UKOHUX where the water molecules are not 
coordinated to the non-polymeric residue
;
_exptl_crystal_description 'prism'
_diffrn_ambient_temperature 295
#These two values have been output from a single CSD field.
_refine_ls_R_factor_gt 0.032
_refine_ls_wR_factor_gt 0.032
_symmetry_cell_setting triclinic
_symmetry_space_group_name_H-M 'P -1'
_symmetry_Int_Tables_number 2
loop_
_symmetry_equiv_pos_site_id
_symmetry_equiv_pos_as_xyz
1 x,y,z
2 -x,-y,-z
_cell_length_a 9.970(3)
_cell_length_b 10.613(3)
_cell_length_c 11.088(2)
_cell_angle_alpha 115.554(13)
_cell_angle_beta 91.351(17)
_cell_angle_gamma 111.681(17)
_cell_formula_units_Z 1
loop_
_atom_type_symbol
_atom_type_radius_bond
C 0.68
H 0.23
N 0.68
Ni 1.50
O 0.68
loop_
_atom_site_label
_atom_site_type_symbol
_atom_site_fract_x
_atom_site_fract_y
_atom_site_fract_z
Ni1 Ni 0.50000 0.00000 0.00000
Ni2 Ni 0.00000 0.00000 0.50000
O1 O 0.36427(18) 0.0558(2) 0.13801(17)
O2 O -0.12842(15) 0.09912(16) 0.45893(15)
O3 O 0.20048(13) 0.17180(14) 0.50554(13)
O4 O 0.10245(14) 0.28201(17) 0.41999(16)
O5 O 0.23059(16) 0.24797(16) 0.17222(14)
O6 O 0.22880(16) 0.47806(16) 0.25336(15)
O7 O 0.4005(2) 0.0507(2) 0.38615(19)
O8 O 0.3245(2) 0.7872(2) 0.4169(2)
N1 N 0.53144(19) -0.1321(2) 0.08367(18)
N2 N 0.6137(2) -0.1917(2) 0.2279(2)
H1 H 0.66420 -0.18130 0.29820
N3 N 0.68664(19) 0.1894(2) 0.14007(18)
N4 N 0.9191(2) 0.3484(2) 0.2308(2)
H2 H 1.01300 0.39210 0.23850
N5 N -0.03061(17) -0.13179(18) 0.29099(15)
N6 N -0.0974(2) -0.2164(2) 0.06991(17)
H3 H -0.11550 -0.21650 -0.00630
C1 C 0.4604(4) -0.2868(3) 0.0378(3)
H4 H 0.38870 -0.35630 -0.04270
C2 C 0.5092(4) -0.3240(3) 0.1262(3)
H5 H 0.47730 -0.42170 0.11890
C3 C 0.6232(3) -0.0804(3) 0.1978(2)
H6 H 0.68780 0.02260 0.25180
C4 C 0.8215(2) 0.2275(3) 0.1192(3)
H7 H 0.84590 0.17660 0.03690
C5 C 0.8436(3) 0.3901(3) 0.3300(3)
H8 H 0.88280 0.47000 0.41930
C6 C 0.7001(3) 0.2922(3) 0.2729(2)
H9 H 0.62220 0.29420 0.31700
C7 C -0.0739(3) -0.2879(3) 0.2224(2)
H10 H -0.07480 -0.34850 0.26320
C8 C -0.1154(3) -0.3410(3) 0.0857(2)
H11 H -0.14930 -0.44240 0.01690
C9 C -0.0465(2) -0.0935(2) 0.1941(2)
H12 H -0.02480 0.00630 0.21060
C10 C 0.20901(18) 0.26967(19) 0.46573(17)
C11 C 0.36152(18) 0.38399(18) 0.47901(17)
C12 C 0.47439(18) 0.43980(19) 0.58931(17)
H13 H 0.45700 0.39870 0.64940
C13 C 0.38741(18) 0.44452(19) 0.38770(17)
C14 C 0.27218(18) 0.3852(2) 0.26191(17)
H14 H 0.330(3) 0.115(4) 0.147(3)
H15 H -0.175(3) 0.137(3) 0.504(3)
H16 H 0.370(4) 0.048(4) 0.206(3)
H17 H 0.395(4) 0.816(4) 0.472(4)
H18 H 0.299(4) 0.694(4) 0.372(4)
H19 H 0.375(4) -0.026(5) 0.375(4)
H20 H -0.069(4) 0.165(4) 0.445(3)
H21 H 0.336(4) 0.084(4) 0.421(4)
C13A C 0.61259(18) 0.55548(19) 0.61230(17)
C11A C 0.63848(18) 0.61601(18) 0.52099(17)
C10A C 0.79099(18) 0.73033(19) 0.53427(17)
O3A O 0.79952(13) 0.82820(14) 0.49446(13)
O4A O 0.89755(14) 0.71799(17) 0.58001(16)
C12A C 0.52561(18) 0.56020(19) 0.41069(17)
H13A H 0.54300 0.60130 0.35060
C14A C 0.72782(18) 0.6148(2) 0.73809(17)
O5A O 0.76941(16) 0.75203(16) 0.82778(14)
O6A O 0.77120(16) 0.52194(16) 0.74664(15)
O1A O 0.63573(18) -0.0558(2) -0.13801(17)
H14A H 0.670(3) -0.115(4) -0.147(3)
H16A H 0.630(4) -0.048(4) -0.206(3)
N1A N 0.46856(19) 0.1321(2) -0.08367(18)
N2A N 0.3863(2) 0.1917(2) -0.2279(2)
H1A H 0.33580 0.18130 -0.29820
C1A C 0.5396(4) 0.2868(3) -0.0378(3)
H4A H 0.61130 0.35630 0.04270
C2A C 0.4908(4) 0.3240(3) -0.1262(3)
H5A H 0.52270 0.42170 -0.11890
C3A C 0.3768(3) 0.0804(3) -0.1978(2)
H6A H 0.31220 -0.02260 -0.25180
N3A N 0.31336(19) -0.1894(2) -0.14007(18)
N4A N 0.0809(2) -0.3484(2) -0.2308(2)
H2A H -0.01300 -0.39210 -0.23850
C4A C 0.1785(2) -0.2275(3) -0.1192(3)
H7A H 0.15410 -0.17660 -0.03690
C5A C 0.1564(3) -0.3901(3) -0.3300(3)
H8A H 0.11720 -0.47000 -0.41930
C6A C 0.2999(3) -0.2922(3) -0.2729(2)
H9A H 0.37780 -0.29420 -0.31700
O2A O 0.12842(15) -0.09912(16) 0.54107(15)
H15A H 0.175(3) -0.137(3) 0.496(3)
H20A H 0.069(4) -0.165(4) 0.555(3)
N5A N 0.03061(17) 0.13179(18) 0.70901(15)
N6A N 0.0974(2) 0.2164(2) 0.93009(17)
H3A H 0.11550 0.21650 1.00630
C7A C 0.0739(3) 0.2879(3) 0.7776(2)
H10A H 0.07480 0.34850 0.73680
C8A C 0.1154(3) 0.3410(3) 0.9143(2)
H11A H 0.14930 0.44240 0.98310
C9A C 0.0465(2) 0.0935(2) 0.8059(2)
H12A H 0.02480 -0.00630 0.78940
O3A* O -0.20048(13) -0.17180(14) 0.49446(13)
Ni2* Ni 1.00000 1.00000 0.50000
#END
