
#######################################################################
#
#                 Cambridge Crystallographic Data Centre
#                                CCDC
#
#######################################################################
#
# If this CIF has been generated from an entry in the Cambridge
# Structural Database, then it will include bibliographic, chemical,
# crystal, experimental, refinement or atomic coordinate data resulting
# from the CCDC's data processing and validation procedures.
#
#######################################################################

data_CSD_CIF_OJOTAI
_audit_creation_date 2003-12-12
_audit_creation_method CSD-ConQuest-V1
_database_code_CSD OJOTAI
_database_code_depnum_ccdc_archive 'CCDC 217705'
_chemical_formula_sum 'C28 H42 Mn2 N12 O16'
_chemical_formula_moiety
;
(C12 H20 Mn1 N8 O2 2+)n,n(C16 H14 Mn1 N4 O10 2-),4n(H2 O1)
;
_journal_coden_Cambridge 155
_journal_volume 351
_journal_year 2003
_journal_page_first 242
_journal_name_full 'Inorg.Chim.Acta '
loop_
_publ_author_name
"Deping Cheng"
"M.A.Khan"
"R.P.Houser"
_chemical_name_systematic
;
catena-(Diaqua-tetrakis(imidazole)-manganese(ii) 
(\m~2~-benzene-1,2,4,5-tetracarboxylato-O,O')-diaqua-bis(imidazole)-manganese(
ii) tetrahydrate)
;
_cell_volume   1004.621
_exptl_crystal_colour 'light pink'
_exptl_crystal_density_diffrn 1.508
_exptl_crystal_description 'hexagonal prism'
_diffrn_ambient_temperature 293
#These two values have been output from a single CSD field.
_refine_ls_R_factor_gt 0.0303
_refine_ls_wR_factor_gt 0.0303
_symmetry_cell_setting triclinic
_symmetry_space_group_name_H-M 'P -1'
_symmetry_Int_Tables_number 2
loop_
_symmetry_equiv_pos_site_id
_symmetry_equiv_pos_as_xyz
1 x,y,z
2 -x,-y,-z
_cell_length_a 10.172(1)
_cell_length_b 10.685(1)
_cell_length_c 11.292(1)
_cell_angle_alpha 115.791(5)
_cell_angle_beta 91.574(5)
_cell_angle_gamma 111.240(5)
_cell_formula_units_Z 1
loop_
_atom_type_symbol
_atom_type_radius_bond
C 0.68
H 0.23
Mn 1.35
N 0.68
O 0.68
loop_
_atom_site_label
_atom_site_type_symbol
_atom_site_fract_x
_atom_site_fract_y
_atom_site_fract_z
Mn1 Mn 0.50000 0.50000 0.00000
Mn2 Mn 0.00000 0.50000 0.50000
O1 O 0.29081(11) 0.31990(12) -0.01305(11)
O2 O 0.38928(12) 0.21726(14) 0.07814(13)
O3 O 0.26917(13) 0.01918(13) 0.23829(12)
O4 O 0.26717(13) 0.24842(13) 0.32171(11)
O5 O 0.62545(12) 0.38569(14) 0.03674(12)
O6 O 0.1351(2) 0.4372(2) 0.35303(13)
O7 O 0.10239(15) 0.4526(2) 0.11226(14)
O8 O 0.17151(15) 0.71162(15) 0.07531(15)
N1 N 0.5289(2) 0.6344(2) 0.22264(13)
N2 N 0.6021(2) 0.7178(2) 0.43867(14)
N3 N -0.1983(2) 0.3010(2) 0.35415(15)
N4 N -0.4273(2) 0.1472(2) 0.2667(2)
N5 N -0.0317(2) 0.6401(2) 0.41087(15)
N6 N -0.1111(2) 0.7007(2) 0.2694(2)
C1 C 0.28406(15) 0.2262(2) 0.03008(14)
C2 C 0.22622(15) 0.1124(2) 0.23188(14)
C3 C 0.13554(15) 0.1136(2) 0.01903(14)
C4 C 0.0231(2) 0.0588(2) -0.08815(14)
C5 C 0.11185(15) 0.0543(2) 0.10908(14)
C6 C 0.5499(2) 0.5967(2) 0.3159(2)
C7 C 0.6164(3) 0.8415(2) 0.4250(2)
C8 C 0.5714(3) 0.7897(2) 0.2920(2)
C9 C -0.3301(2) 0.2666(2) 0.3760(2)
C10 C -0.3550(3) 0.1033(2) 0.1688(2)
C11 C -0.2141(2) 0.1977(2) 0.2230(2)
C12 C -0.1227(2) 0.5897(2) 0.2989(2)
C13 C -0.0064(4) 0.8300(3) 0.3677(3)
C14 C 0.0412(3) 0.7925(3) 0.4541(2)
H1 H 0.03840 0.09910 -0.14740
H2 H 0.53010 0.49720 0.29800
H3 H 0.65090 0.94250 0.49340
H4 H 0.57030 0.85050 0.25310
H5 H -0.35260 0.31880 0.45720
H6 H -0.39490 0.02310 0.08140
H7 H -0.13930 0.19290 0.17810
H8 H -0.18810 0.48820 0.24640
H9 H 0.02740 0.92720 0.37490
H10 H 0.11280 0.86090 0.53290
H11 H 0.62330 0.71770 0.51300
H12 H -0.51910 0.10620 0.25960
H13 H -0.16090 0.69140 0.20060
H14 H 0.56020 0.32060 0.05370
H15 H 0.68180 0.34000 -0.00200
H16 H 0.17860 0.38160 0.34560
H17 H 0.12350 0.44150 0.27700
H18 H 0.16030 0.42080 0.07030
H19 H 0.13360 0.56120 0.13370
H20 H 0.20310 0.82120 0.13110
H21 H 0.09050 0.68000 0.01480
C5A C -0.11185(15) -0.0543(2) -0.10908(14)
C2A C -0.22622(15) -0.1124(2) -0.23188(14)
O3A O -0.26917(13) -0.01918(13) -0.23829(12)
O4A O -0.26717(13) -0.24842(13) -0.32171(11)
C3A C -0.13554(15) -0.1136(2) -0.01903(14)
C1A C -0.28406(15) -0.2262(2) -0.03008(14)
O1A O -0.29081(11) -0.31990(12) 0.01305(11)
O2A O -0.38928(12) -0.21726(14) -0.07814(13)
C4A C -0.0231(2) -0.0588(2) 0.08815(14)
H1A H -0.03840 -0.09910 0.14740
O5A O 0.37455(12) 0.61431(14) -0.03674(12)
H14A H 0.43980 0.67940 -0.05370
H15A H 0.31820 0.66000 0.00200
N1A N 0.4711(2) 0.3656(2) -0.22264(13)
N2A N 0.3979(2) 0.2822(2) -0.43867(14)
C6A C 0.4501(2) 0.4033(2) -0.3159(2)
C7A C 0.3836(3) 0.1585(2) -0.4250(2)
C8A C 0.4286(3) 0.2103(2) -0.2920(2)
H2A H 0.46990 0.50280 -0.29800
H3A H 0.34910 0.05750 -0.49340
H4A H 0.42970 0.14950 -0.25310
H11A H 0.37670 0.28230 -0.51300
O6A O -0.1351(2) 0.5628(2) 0.64697(13)
H16A H -0.17860 0.61840 0.65440
H17A H -0.12350 0.55850 0.72300
N3A N 0.1983(2) 0.6990(2) 0.64585(15)
N4A N 0.4273(2) 0.8528(2) 0.7333(2)
C9A C 0.3301(2) 0.7334(2) 0.6240(2)
C10A C 0.3550(3) 0.8967(2) 0.8312(2)
C11A C 0.2141(2) 0.8023(2) 0.7770(2)
H5A H 0.35260 0.68120 0.54280
H6A H 0.39490 0.97690 0.91860
H7A H 0.13930 0.80710 0.82190
H12A H 0.51910 0.89380 0.74040
N5A N 0.0317(2) 0.3599(2) 0.58913(15)
N6A N 0.1111(2) 0.2993(2) 0.7306(2)
C12A C 0.1227(2) 0.4103(2) 0.7011(2)
C13A C 0.0064(4) 0.1700(3) 0.6323(3)
C14A C -0.0412(3) 0.2075(3) 0.5459(2)
H8A H 0.18810 0.51180 0.75360
H9A H -0.02740 0.07280 0.62510
H10A H -0.11280 0.13910 0.46710
H13A H 0.16090 0.30860 0.79940
O1A* O 0.70919(11) 0.68010(12) 0.01305(11)
Mn1* Mn -0.50000 -0.50000 0.00000
#END
