
#######################################################################
#
#                 Cambridge Crystallographic Data Centre
#                                CCDC
#
#######################################################################
#
# If this CIF has been generated from an entry in the Cambridge
# Structural Database, then it will include bibliographic, chemical,
# crystal, experimental, refinement or atomic coordinate data resulting
# from the CCDC's data processing and validation procedures.
#
#######################################################################

data_CSD_CIF_OJOTAI01
_audit_creation_date 2004-08-19
_audit_creation_method CSD-ConQuest-V1
_database_code_CSD OJOTAI01
_database_code_depnum_ccdc_archive 'CCDC 234130'
_chemical_formula_sum 'C28 H42 Mn2 N12 O16'
_chemical_formula_moiety
;
(C12 H20 Mn1 N8 O2 2+)n,n(C16 H14 Mn1 N4 O10 2-),4n(H2 O1)
;
_journal_coden_Cambridge 603
_journal_volume 23
_journal_year 2004
_journal_page_first 399
_journal_name_full 'Jiegou Huaxue(Chin.)(Chin.J.Struct.Chem.) '
loop_
_publ_author_name
"Jian-Rong Su"
"Kai-Liang Yin"
"Duan-Jun Xu"
_chemical_name_systematic
;
catena-(Diaqua-tetrakis(imidazole)-manganese(ii) 
(\m~2~-benzene-1,2,4,5-tetracarboxylato)-diaqua-bis(imidazole)-manganese(ii) 
tetrahydrate)
;
_cell_volume    984.457
_exptl_crystal_colour 'colorless'
_exptl_crystal_density_diffrn 1.54
_exptl_crystal_description 'prismatic'
_diffrn_ambient_temperature 298
#These two values have been output from a single CSD field.
_refine_ls_R_factor_gt 0.0409
_refine_ls_wR_factor_gt 0.0409
_symmetry_cell_setting triclinic
_symmetry_space_group_name_H-M 'P -1'
_symmetry_Int_Tables_number 2
loop_
_symmetry_equiv_pos_site_id
_symmetry_equiv_pos_as_xyz
1 x,y,z
2 -x,-y,-z
_cell_length_a 10.036(1)
_cell_length_b 10.650(1)
_cell_length_c 11.102(1)
_cell_angle_alpha 114.72(2)
_cell_angle_beta 95.75(1)
_cell_angle_gamma 108.46(2)
_cell_formula_units_Z 1
loop_
_atom_type_symbol
_atom_type_radius_bond
C 0.68
H 0.23
Mn 1.35
N 0.68
O 0.68
loop_
_atom_site_label
_atom_site_type_symbol
_atom_site_fract_x
_atom_site_fract_y
_atom_site_fract_z
Mn1 Mn -0.50000 0.00000 0.50000
Mn2 Mn 0.00000 0.00000 0.00000
O1 O -0.62567(17) 0.11404(19) 0.46312(17)
O2 O 0.1345(2) -0.0640(2) -0.14764(19)
O3 O 0.38926(16) 0.7175(2) 0.57835(18)
O4 O 0.29088(16) 0.81993(17) 0.48703(16)
O5 O 0.26735(19) 0.74854(19) 0.82165(16)
O6 O 0.26902(18) 0.51901(19) 0.73812(17)
N1 N -0.3975(2) 0.2182(3) 0.9388(2)
H1 H -0.37580 0.21830 1.01580
N2 N -0.4711(2) 0.1344(2) 0.72257(18)
N3 N 0.3556(4) 0.3965(3) 0.3301(3)
H2 H 0.39430 0.47200 0.41170
N4 N 0.1981(2) 0.1987(2) 0.1461(2)
N5 N -0.1116(3) 0.2003(3) -0.2310(2)
H3 H -0.16420 0.19030 -0.30310
N6 N -0.0316(2) 0.1399(2) -0.0893(2)
C1 C 0.1356(2) 0.6138(2) 0.51918(19)
C2 C 0.1119(2) 0.5544(2) 0.60907(19)
C3 C 0.0229(2) 0.5588(2) 0.4117(2)
C4 C 0.2840(2) 0.7263(2) 0.52999(19)
C5 C -0.4501(3) 0.0967(3) 0.8157(2)
H4 H -0.46890 -0.00100 0.79980
C6 C -0.4283(4) 0.2897(3) 0.7917(3)
H5 H -0.43120 0.34840 0.74950
C7 C -0.3831(4) 0.3418(3) 0.9253(3)
H6 H -0.34900 0.44110 0.99460
C8 C 0.2264(2) 0.6125(2) 0.7321(2)
C9 C 0.2144(3) 0.3023(3) 0.2772(3)
H7 H 0.14110 0.30680 0.32180
C10 C 0.3302(3) 0.2336(3) 0.1244(3)
H8 H 0.35030 0.18030 0.04260
C11 C 0.4276(3) 0.3522(3) 0.2325(3)
H9 H 0.52640 0.39750 0.24120
C12 C -0.1231(3) 0.0901(3) -0.2009(3)
H10 H -0.18910 -0.00940 -0.25460
C13 C 0.0416(4) 0.2928(4) -0.0458(3)
H11 H 0.11530 0.35940 0.03560
C14 C -0.0055(5) 0.3304(4) -0.1321(4)
H12 H 0.02610 0.42480 -0.12740
O7 O 0.1710(2) 0.2110(2) 0.5745(2)
O8 O 0.1031(2) 0.9537(2) 0.6124(2)
H13 H 0.03710 0.60070 0.35060
H14 H -0.63360 0.13840 0.39950
H15 H -0.59360 0.19560 0.53980
H16 H 0.19980 -0.09710 -0.13830
H17 H 0.17870 0.02330 -0.14040
H18 H 0.15650 0.24050 0.65470
H19 H 0.20000 0.28820 0.56230
H20 H 0.16530 0.92680 0.57250
H21 H 0.04890 0.87940 0.62090
C3A C -0.0229(2) 0.4412(2) 0.5883(2)
C1A C -0.1356(2) 0.3862(2) 0.48082(19)
C2A C -0.1119(2) 0.4456(2) 0.39093(19)
C8A C -0.2264(2) 0.3875(2) 0.2679(2)
O5A O -0.26735(19) 0.25146(19) 0.17835(16)
O6A O -0.26902(18) 0.48099(19) 0.26188(17)
C4A C -0.2840(2) 0.2737(2) 0.47001(19)
O3A O -0.38926(16) 0.2825(2) 0.42165(18)
O4A O -0.29088(16) 0.18007(17) 0.51297(16)
Mn1* Mn 0.50000 1.00000 0.50000
O1A O -0.37433(17) -0.11404(19) 0.53688(17)
O4* O -0.70912(16) -0.18007(17) 0.48703(16)
N2A N -0.5289(2) -0.1344(2) 0.27743(18)
C5A C -0.5499(3) -0.0967(3) 0.1843(2)
N1A N -0.6025(2) -0.2182(3) 0.0612(2)
H1A H -0.62420 -0.21830 -0.01580
C7A C -0.6169(4) -0.3418(3) 0.0747(3)
C6A C -0.5717(4) -0.2897(3) 0.2083(3)
H5A H -0.56880 -0.34840 0.25050
H6A H -0.65100 -0.44110 0.00540
H4A H -0.53110 0.00100 0.20020
H13A H -0.03710 0.39930 0.64940
O2A O -0.1345(2) 0.0640(2) 0.14764(19)
H16A H -0.19980 0.09710 0.13830
H17A H -0.17870 -0.02330 0.14040
N4A N -0.1981(2) -0.1987(2) -0.1461(2)
C9A C -0.2144(3) -0.3023(3) -0.2772(3)
N3A N -0.3556(4) -0.3965(3) -0.3301(3)
H2A H -0.39430 -0.47200 -0.41170
C11A C -0.4276(3) -0.3522(3) -0.2325(3)
C10A C -0.3302(3) -0.2336(3) -0.1244(3)
H8A H -0.35030 -0.18030 -0.04260
H9A H -0.52640 -0.39750 -0.24120
H7A H -0.14110 -0.30680 -0.32180
N6A N 0.0316(2) -0.1399(2) 0.0893(2)
C12A C 0.1231(3) -0.0901(3) 0.2009(3)
N5A N 0.1116(3) -0.2003(3) 0.2310(2)
H3A H 0.16420 -0.19030 0.30310
C14A C 0.0055(5) -0.3304(4) 0.1321(4)
C13A C -0.0416(4) -0.2928(4) 0.0458(3)
H11A H -0.11530 -0.35940 -0.03560
H12A H -0.02610 -0.42480 0.12740
H10A H 0.18910 0.00940 0.25460
H14A H -0.36640 -0.13840 0.60050
H15A H -0.40640 -0.19560 0.46020
#END
