
#######################################################################
#
#                 Cambridge Crystallographic Data Centre
#                                CCDC
#
#######################################################################
#
# If this CIF has been generated from an entry in the Cambridge
# Structural Database, then it will include bibliographic, chemical,
# crystal, experimental, refinement or atomic coordinate data resulting
# from the CCDC's data processing and validation procedures.
#
#######################################################################

data_CSD_CIF_OKEBAK
_audit_creation_date 2021-01-11
_audit_creation_method CSD-ConQuest-V1
_database_code_CSD OKEBAK
_database_code_depnum_ccdc_archive 'CCDC 2055118'
_chemical_formula_sum 'C10 H23 Mn2 N3 O17 P2'
_chemical_formula_moiety
;
(C4 H4 Mn2 O16 P2 2-)n,C6 H17 N3 2+,H2 O1
;
_journal_coden_Cambridge 1295
_journal_volume 78
_journal_year 2017
_journal_page_first 5
_journal_name_full 'Inorg.Chem.Commun. '
loop_
_publ_author_name
"Lindong Luan"
"Hongmei Zeng"
"Zhien Lin"
"Huaqiang Cai"
"Hui Huang"
_chemical_name_systematic
;
catena-[4-(2-azaniumylethyl)piperazin-1-ium bis(\m-oxalato)-bis(\m-dihydrogen 
phosphato)-di-manganese(ii) monohydrate]
;
_cell_volume   2205.686
_exptl_crystal_colour 'light yellow'
_exptl_crystal_density_diffrn 1.895
_exptl_crystal_description 'block'
_diffrn_ambient_temperature 293
#These two values have been output from a single CSD field.
_refine_ls_R_factor_gt 0.0397
_refine_ls_wR_factor_gt 0.0397
_symmetry_cell_setting orthorhombic
_symmetry_space_group_name_H-M 'P n a 21'
_symmetry_Int_Tables_number 33
loop_
_symmetry_equiv_pos_site_id
_symmetry_equiv_pos_as_xyz
1 x,y,z
2 -x,-y,1/2+z
3 1/2+x,1/2-y,z
4 1/2-x,1/2+y,1/2+z
_cell_length_a 19.0729(5)
_cell_length_b 7.2256(2)
_cell_length_c 16.0049(5)
_cell_angle_alpha 90
_cell_angle_beta 90
_cell_angle_gamma 90
_cell_formula_units_Z 4
loop_
_atom_type_symbol
_atom_type_radius_bond
C 0.68
H 0.23
Mn 1.61
N 0.68
O 0.68
P 1.05
loop_
_atom_site_label
_atom_site_type_symbol
_atom_site_fract_x
_atom_site_fract_y
_atom_site_fract_z
Mn1 Mn 0.86958(4) 0.90203(15) 0.05734(6)
Mn2 Mn 0.86181(4) 0.90347(16) 0.41611(7)
P1 P 0.70012(8) 1.0011(2) 0.00307(14)
P2 P 0.69210(8) 1.0001(2) 0.47220(14)
O1 O 0.6581(2) 1.1731(7) -0.0075(4)
O2 O 0.7717(2) 1.0405(7) 0.0388(4)
O3 O 0.6633(3) 0.8656(7) 0.0660(4)
H1 H 0.63950 0.79070 0.04000
O4 O 0.7057(3) 0.8938(8) -0.0823(4)
H2 H 0.70980 0.78270 -0.07310
O5 O 0.7645(2) 1.0398(8) 0.4383(4)
O6 O 0.6565(2) 0.8648(7) 0.4079(4)
H3 H 0.62350 0.81190 0.43040
O7 O 0.6493(2) 1.1675(7) 0.4861(3)
O8 O 0.6957(2) 0.8925(7) 0.5570(4)
H4 H 0.71680 0.79470 0.55020
O9 O 0.8787(3) 1.0973(7) 0.1678(4)
O10 O 0.8547(3) 0.7324(8) 0.1685(4)
O11 O 0.8735(3) 1.0994(7) 0.3064(4)
O12 O 0.8487(3) 0.7318(7) 0.3068(3)
O13 O 0.9208(2) 1.0950(7) -0.0307(4)
O14 O 1.0230(2) 1.1633(8) -0.0898(4)
O15 O 1.0866(2) 0.9034(7) 0.0018(4)
O16 O 0.9832(2) 0.8357(7) 0.0628(4)
C1 C 0.8701(2) 1.0218(6) 0.2361(7)
C2 C 0.8561(2) 0.8114(6) 0.2382(7)
C3 C 0.9857(3) 1.0755(10) -0.0393(5)
C4 C 1.0210(3) 0.9239(9) 0.0144(5)
O17 O 0.1920(3) 0.6943(7) 0.2371(7)
H5 H 0.15060 0.71590 0.25520
H6 H 0.18530 0.63940 0.19050
C5 C 0.5054(6) 1.0877(13) 0.1357(6)
H7 H 0.53000 0.97210 0.12620
H8 H 0.48380 1.12600 0.08370
C6 C 0.5525(6) 1.2243(17) 0.1638(7)
H9 H 0.58710 1.24460 0.12030
H10 H 0.52670 1.33900 0.17060
C7 C 0.4765(6) 1.0366(16) 0.2840(8)
H11 H 0.49580 0.91290 0.28920
H12 H 0.43760 1.04720 0.32260
C8 C 0.5351(6) 1.184(2) 0.3080(7)
H13 H 0.51410 1.30540 0.31530
H14 H 0.55780 1.14910 0.35990
C9 C 0.6398(4) 1.3283(10) 0.2688(5)
H15 H 0.62130 1.45160 0.25920
H16 H 0.64590 1.31270 0.32850
C10 C 0.7044(3) 1.3129(10) 0.2299(15)
H17 H 0.69610 1.29740 0.17050
H18 H 0.72630 1.20000 0.24970
N1 N 0.4517(4) 1.0635(11) 0.2006(7)
H19 H 0.42380 1.16390 0.20020
H20 H 0.42510 0.96550 0.18660
N2 N 0.5879(2) 1.1883(6) 0.2377(6)
N3 N 0.7542(2) 1.4611(6) 0.2401(6)
H21 H 0.79310 1.43490 0.21160
H22 H 0.76460 1.47400 0.29400
H23 H 0.73580 1.56590 0.22090
Mn1C Mn 0.63042(4) 1.40203(15) 0.55734(6)
Mn2A Mn 1.13819(4) 1.09653(16) -0.08389(7)
Mn2C Mn 0.63819(4) 1.40347(16) -0.08389(7)
O1C O 0.8419(2) 0.6731(7) 0.4925(4)
O7C O 0.8507(2) 0.6675(7) -0.0139(3)
O14A O 0.9770(2) 0.8367(8) 0.4102(4)
O15A O 0.9134(2) 1.0966(7) 0.5018(4)
#END
