
#######################################################################
#
#                 Cambridge Crystallographic Data Centre
#                                CCDC
#
#######################################################################
#
# If this CIF has been generated from an entry in the Cambridge
# Structural Database, then it will include bibliographic, chemical,
# crystal, experimental, refinement or atomic coordinate data resulting
# from the CCDC's data processing and validation procedures.
#
#######################################################################

data_CSD_CIF_OKERAA
_audit_creation_date 2021-01-11
_audit_creation_method CSD-ConQuest-V1
_database_code_CSD OKERAA
_database_code_depnum_ccdc_archive 'CCDC 2031930'
_chemical_formula_sum 'C64 H49 O25 Tb3'
_chemical_formula_moiety
;
(C64 H42 O22 Tb3 1-)n,2(H2 O1),H3 O1 1+
;
_journal_coden_Cambridge 182
_journal_year 2021
_journal_name_full 'Chem.Commun. '
loop_
_publ_author_name
"Meiling Li"
"Guojian Ren"
"Weiting Yang"
"Yonghang Yang"
"Weikang Yang"
"Yan Gao"
"Pengfei Qiu"
"Qinhe Pan"
_chemical_name_systematic
;
catena-[oxonium 
bis(\m-4,4',4'',4'''-(ethene-1,1,2,2-tetrayl)tetrabenzoato)-bis(\m-acetato)-di
aqua-tri-terbium(iii) dihydrate]
;
_chemical_name_common
;
HNU-49
;
_cell_volume   1566.480
_exptl_crystal_colour 'buff'
_exptl_crystal_description 'block'
_diffrn_ambient_temperature 150
_refine_special_details
;
Disordered cation (oxonium) solvent molecules (water) were not modelled and 
the disordered density was taken into account using the MASK/OLEX2 procedure.
;
#These two values have been output from a single CSD field.
_refine_ls_R_factor_gt 0.0971
_refine_ls_wR_factor_gt 0.0971
_symmetry_cell_setting triclinic
_symmetry_space_group_name_H-M 'P -1'
_symmetry_Int_Tables_number 2
loop_
_symmetry_equiv_pos_site_id
_symmetry_equiv_pos_as_xyz
1 x,y,z
2 -x,-y,-z
_cell_length_a 11.1251(4)
_cell_length_b 11.5573(4)
_cell_length_c 14.9248(5)
_cell_angle_alpha 68.629(2)
_cell_angle_beta 78.582(2)
_cell_angle_gamma 61.274(2)
_cell_formula_units_Z 1
loop_
_atom_type_symbol
_atom_type_radius_bond
C 0.68
H 0.23
O 0.68
Tb 1.94
loop_
_atom_site_label
_atom_site_type_symbol
_atom_site_fract_x
_atom_site_fract_y
_atom_site_fract_z
Tb1 Tb 0.00000 0.50000 1.00000
Tb2 Tb 0.90539(8) 0.21047(8) 0.99621(5)
O1 O 0.1808(10) 0.8413(11) 0.1070(6)
O2 O 0.0440(11) 1.0497(12) 0.1265(7)
O3 O 0.1414(10) 0.6470(9) 0.9098(6)
O4 O 0.7625(15) 1.1180(15) 0.0991(7)
O5 O 0.1119(14) 0.2597(12) 1.0106(11)
O6 O 0.9091(11) 0.9084(15) 0.0873(8)
C1 C 0.6337(12) 0.8060(13) 0.3885(7)
C2 C 0.3677(15) 0.8023(15) 0.3991(8)
C3 C 0.4455(15) 0.7541(14) 0.4875(9)
C4 C 0.5609(13) 0.9423(13) 0.3327(9)
H1 H 0.47090 0.99680 0.35280
C5 C 0.6564(15) 0.6838(13) 0.5684(9)
C6 C 0.1420(18) 0.9304(17) 0.1491(10)
O7 O 0.6676(12) 0.3872(13) 0.9692(10)
C7 C 0.3733(14) 0.7151(14) 0.5788(8)
C8 C 0.6169(14) 1.0002(13) 0.2485(9)
H2 H 0.56600 1.09430 0.21130
C9 C 0.5708(15) 0.7476(13) 0.4813(8)
O8 O 0.9111(13) 0.4033(15) 0.8791(9)
C10 C 0.2235(14) 0.8850(14) 0.2359(8)
C11 C 0.4262(15) 0.7386(15) 0.3295(9)
H3 H 0.51800 0.66730 0.33560
C12 C 0.7476(12) 0.9213(14) 0.2178(8)
C13 C 0.6827(17) 0.5522(14) 0.6310(11)
H4 H 0.65100 0.49780 0.61700
C14 C 0.8126(16) 0.9826(19) 0.1289(10)
C15 C 0.2359(16) 0.9101(17) 0.3874(11)
H5 H 0.19450 0.95430 0.43560
C16 C 0.8209(13) 0.7857(16) 0.2731(10)
H6 H 0.91050 0.73130 0.25240
C17 C 0.3094(15) 0.6340(15) 0.5914(9)
H7 H 0.31050 0.60480 0.53930
C18 C 0.3510(16) 0.7785(15) 0.2488(9)
H8 H 0.39050 0.72970 0.20290
C19 C 0.7662(13) 0.7284(14) 0.3574(10)
H9 H 0.81850 0.63510 0.39520
C20 C 0.2951(16) 0.7262(16) 0.7418(10)
H10 H 0.28900 0.76110 0.79200
C21 C 0.1619(17) 0.9550(15) 0.3041(10)
H11 H 0.07270 1.03090 0.29500
C22 C 0.3608(18) 0.7636(18) 0.6545(11)
H12 H 0.39890 0.82500 0.64620
C23 C 0.2394(15) 0.6383(15) 0.7542(9)
C24 C 0.7078(17) 0.7600(14) 0.5906(10)
H13 H 0.69700 0.84760 0.54650
C25 C 0.754(2) 0.4993(15) 0.7139(10)
H14 H 0.77620 0.40680 0.75390
C26 C 0.164(2) 0.5995(18) 0.8433(11)
C27 C 0.7727(19) 0.7093(15) 0.6746(11)
H15 H 0.80310 0.76460 0.68880
C28 C 0.7960(19) 0.5795(16) 0.7403(11)
C29 C 0.2438(17) 0.5930(17) 0.6762(10)
H16 H 0.20200 0.53530 0.68270
O9 O 0.900(2) 0.621(2) 0.8427(18)
C30 C 0.862(2) 0.533(2) 0.8326(15)
C31 C 0.227(2) 0.237(3) 0.9971(18)
C32 C 0.363(4) 0.153(4) 0.948(3)
H17 H 0.37870 0.21420 0.88700
H18 H 0.35590 0.07770 0.93700
H19 H 0.43950 0.11250 0.99080
O10 O 0.2401(15) 0.3419(16) 0.9980(11)
O11 O 0.1846(15) 0.4647(16) 0.8771(11)
Tb2A Tb -0.90539(8) 0.78953(8) 1.00379(5)
O1A O -0.1808(10) 0.1587(11) 1.8930(6)
O2A O -0.0440(11) -0.0497(12) 1.8735(7)
O3A O -0.1414(10) 0.3530(9) 1.0902(6)
O4A O -0.7625(15) -0.1180(15) 1.9009(7)
O5A O -0.1119(14) 0.7403(12) 0.9894(11)
O6A O -0.9091(11) 0.0916(15) 1.9127(8)
C1A C -0.6337(12) 0.1940(13) 1.6115(7)
C2A C -0.3677(15) 0.1977(15) 1.6009(8)
C3A C -0.4455(15) 0.2459(14) 1.5125(9)
C4A C -0.5609(13) 0.0577(13) 1.6673(9)
H1A H -0.47090 0.00320 1.64720
C5A C -0.6564(15) 0.3162(13) 1.4316(9)
C6A C -0.1420(18) 0.0696(17) 1.8509(10)
O7A O -0.6676(12) 0.6128(13) 1.0308(10)
C7A C -0.3733(14) 0.2849(14) 1.4212(8)
C8A C -0.6169(14) -0.0002(13) 1.7515(9)
H2A H -0.56600 -0.09430 1.78870
C9A C -0.5708(15) 0.2524(13) 1.5187(8)
O8A O -0.9111(13) 0.5967(15) 1.1209(9)
C10A C -0.2235(14) 0.1150(14) 1.7641(8)
C11A C -0.4262(15) 0.2614(15) 1.6705(9)
H3A H -0.51800 0.33270 1.66440
C12A C -0.7476(12) 0.0787(14) 1.7822(8)
C13A C -0.6827(17) 0.4478(14) 1.3690(11)
H4A H -0.65100 0.50220 1.38300
C14A C -0.8126(16) 0.0174(19) 1.8711(10)
C15A C -0.2359(16) 0.0899(17) 1.6126(11)
H5A H -0.19450 0.04570 1.56440
C16A C -0.8209(13) 0.2143(16) 1.7269(10)
H6A H -0.91050 0.26870 1.74760
C17A C -0.3094(15) 0.3660(15) 1.4086(9)
H7A H -0.31050 0.39520 1.46070
C18A C -0.3510(16) 0.2215(15) 1.7512(9)
H8A H -0.39050 0.27030 1.79710
C19A C -0.7662(13) 0.2716(14) 1.6426(10)
H9A H -0.81850 0.36490 1.60480
C20A C -0.2951(16) 0.2738(16) 1.2582(10)
H10A H -0.28900 0.23890 1.20800
C21A C -0.1619(17) 0.0450(15) 1.6959(10)
H11A H -0.07270 -0.03090 1.70500
C22A C -0.3608(18) 0.2364(18) 1.3455(11)
H12A H -0.39890 0.17500 1.35380
C23A C -0.2394(15) 0.3617(15) 1.2458(9)
C24A C -0.7078(17) 0.2400(14) 1.4094(10)
H13A H -0.69700 0.15240 1.45350
C25A C -0.754(2) 0.5007(15) 1.2861(10)
H14A H -0.77620 0.59320 1.24610
C26A C -0.164(2) 0.4005(18) 1.1567(11)
C27A C -0.7727(19) 0.2907(15) 1.3254(11)
H15A H -0.80310 0.23540 1.31120
C28A C -0.7960(19) 0.4205(16) 1.2597(11)
C29A C -0.2438(17) 0.4070(17) 1.3238(10)
H16A H -0.20200 0.46470 1.31730
O9A O -0.900(2) 0.379(2) 1.1573(18)
C30A C -0.862(2) 0.467(2) 1.1674(15)
C31A C -0.227(2) 0.763(3) 1.0029(18)
C32A C -0.363(4) 0.847(4) 1.052(3)
H17A H -0.37870 0.78580 1.11300
H18A H -0.35590 0.92230 1.06300
H19A H -0.43950 0.88750 1.00920
O10A O -0.2401(15) 0.6581(16) 1.0020(11)
O11A O -0.1846(15) 0.5353(16) 1.1229(11)
Tb1* Tb -1.00000 0.50000 1.00000
Tb1** Tb 1.00000 0.50000 1.00000
Tb2* Tb -1.09461(8) 0.21047(8) 1.99621(5)
Tb2** Tb -0.09461(8) 0.21047(8) 0.99621(5)
Tb2*** Tb -0.09461(8) 0.21047(8) 1.99621(5)
Tb2**** Tb -0.09461(8) 1.21047(8) -0.00379(5)
Tb2***** Tb 0.90539(8) 1.21047(8) -0.00379(5)
Tb2A* Tb -0.90539(8) -0.21047(8) 2.00379(5)
Tb2A** Tb 0.09461(8) -0.21047(8) 2.00379(5)
Tb2A*** Tb 0.09461(8) 0.78953(8) 0.00379(5)
Tb2A**** Tb 0.09461(8) 0.78953(8) 1.00379(5)
Tb2A***** Tb 1.09461(8) 0.78953(8) 0.00379(5)
O1* O -0.8192(10) 0.8413(11) 1.1070(6)
O1A* O 0.8192(10) 0.1587(11) 0.8930(6)
O2* O 1.0440(11) 0.0497(12) 1.1265(7)
O2A* O -1.0440(11) 0.9503(12) 0.8735(7)
O3* O -0.8586(10) 0.6470(9) 0.9098(6)
O3A* O 0.8586(10) 0.3530(9) 1.0902(6)
O4* O 0.7625(15) 0.1180(15) 1.0991(7)
O4A* O -0.7625(15) 0.8820(15) 0.9009(7)
O5* O 1.1119(14) 0.2597(12) 1.0106(11)
O5A* O -1.1119(14) 0.7403(12) 0.9894(11)
O6* O -1.0909(11) 0.9084(15) 1.0873(8)
O6A* O 1.0909(11) 0.0916(15) 0.9127(8)
O9* O -0.100(2) 0.621(2) 0.8427(18)
O9A* O 0.100(2) 0.379(2) 1.1573(18)
#END
