
#######################################################################
#
#                 Cambridge Crystallographic Data Centre
#                                CCDC
#
#######################################################################
#
# If this CIF has been generated from an entry in the Cambridge
# Structural Database, then it will include bibliographic, chemical,
# crystal, experimental, refinement or atomic coordinate data resulting
# from the CCDC's data processing and validation procedures.
#
#######################################################################

data_CSD_CIF_OKIQEG
_audit_creation_date 2016-04-11
_audit_creation_method CSD-ConQuest-V1
_database_code_CSD OKIQEG
_database_code_depnum_ccdc_archive 'CCDC 1445518'
_chemical_formula_sum 'C43 H39 Cd3 N9 O18'
_chemical_formula_moiety
;
(C37 H15 Cd3 N6 O18 3-)n,3n(C2 H8 N1 1+)
;
_journal_coden_Cambridge 222
_journal_volume 45
_journal_year 2016
_journal_page_first 7776
_journal_name_full 'Dalton Trans. '
loop_
_publ_author_name
"Huarui Wang"
"Chao Huang"
"Yanbing Han"
"Zhichao Shao"
"Hongwei Hou"
"Yaoting Fan"
_chemical_name_systematic
;
catena-(tris(Dimethylammonium) 
(\m~7~-5,5'-(1H-2,3,5-triazole-1,4-diyl)di-isophthalato)-(\m~2~-formato)-tri-c
admium)
;
_cell_volume   5073.144
_exptl_crystal_colour 'colorless'
_exptl_crystal_density_diffrn 1.711
_exptl_crystal_description 'Prism'
_diffrn_ambient_temperature 293
#These two values have been output from a single CSD field.
_refine_ls_R_factor_gt 0.0748
_refine_ls_wR_factor_gt 0.0748
_symmetry_cell_setting monoclinic
_symmetry_space_group_name_H-M 'C 2/c'
_symmetry_Int_Tables_number 15
loop_
_symmetry_equiv_pos_site_id
_symmetry_equiv_pos_as_xyz
1 x,y,z
2 -x,y,1/2-z
3 1/2+x,1/2+y,z
4 1/2-x,1/2+y,1/2-z
5 -x,-y,-z
6 x,-y,-1/2+z
7 -1/2-x,-1/2-y,-z
8 -1/2+x,-1/2-y,-1/2+z
_cell_length_a 18.944(4)
_cell_length_b 23.156(5)
_cell_length_c 14.411(3)
_cell_angle_alpha 90
_cell_angle_beta 126.63(3)
_cell_angle_gamma 90
_cell_formula_units_Z 4
loop_
_atom_type_symbol
_atom_type_radius_bond
C 0.68
H 0.23
Cd 1.44
N 0.68
O 0.68
loop_
_atom_site_label
_atom_site_type_symbol
_atom_site_fract_x
_atom_site_fract_y
_atom_site_fract_z
Cd1 Cd 0.442515(16) 1.153136(13) 0.99642(2)
Cd2 Cd 0.50000 1.00000 1.00000
O1 O 0.3369(2) 1.10661(18) 0.9929(4)
O2 O 0.44901(16) 1.04981(16) 1.0922(3)
O3 O 0.43593(18) 0.92068(15) 1.3734(3)
O4 O 0.3197(3) 0.8655(2) 1.2787(4)
O5 O -0.37605(17) 0.95430(15) 0.5998(3)
O6 O -0.4112(2) 0.86246(17) 0.6015(3)
O7 O -0.1738(2) 0.73461(19) 0.9081(3)
O8 O -0.0488(2) 0.74243(16) 0.9338(3)
O9 O 0.4823(3) 1.2002(2) 1.1610(3)
N1 N 0.0411(2) 0.94320(17) 0.9280(3)
N2 N 0.0330(2) 1.0344(2) 0.8880(4)
H1 H 0.04770 1.06930 0.88620
N3 N -0.0532(2) 1.0137(2) 0.8299(4)
C1 C 0.3731(2) 1.0628(2) 1.0530(4)
C2 C 0.3199(2) 1.0245(2) 1.0730(4)
C3 C 0.2295(2) 1.0264(2) 1.0000(4)
H2 H 0.20100 1.05110 0.93670
C4 C 0.1808(3) 0.9912(2) 1.0206(4)
C5 C 0.2231(3) 0.9530(2) 1.1108(4)
H3 H 0.19080 0.92850 1.12340
C6 C 0.3139(3) 0.9509(2) 1.1831(4)
C7 C 0.3629(3) 0.9875(2) 1.1685(4)
H4 H 0.42390 0.98780 1.22120
C8 C 0.3585(3) 0.9100(3) 1.2865(4)
C9 C 0.0849(3) 0.9934(2) 0.9429(3)
C10 C -0.0445(2) 0.9603(2) 0.8569(4)
C11 C -0.1108(3) 0.9160(2) 0.8246(4)
C12 C -0.1995(2) 0.9309(2) 0.7458(4)
H5 H -0.21620 0.96760 0.71290
C13 C -0.2622(2) 0.8892(2) 0.7185(4)
C14 C -0.2371(3) 0.8348(2) 0.7677(5)
H6 H -0.28000 0.80770 0.74860
C15 C -0.1496(3) 0.8201(2) 0.8446(4)
C16 C -0.0870(3) 0.8613(2) 0.8702(4)
H7 H -0.02770 0.85170 0.91930
C17 C -0.3584(3) 0.9033(2) 0.6321(4)
C18 C -0.1232(3) 0.7612(2) 0.8966(4)
C19 C 0.50000 1.1758(4) 1.25000
H8 H 0.50000 1.13560 1.25000
N4 N 0.1642(10) 0.7142(6) 0.945(2)
C20 C 0.1922(13) 0.7672(6) 0.978(3)
C21 C 0.0823(11) 0.704(1) 0.858(3)
N5 N 0.1649(11) 0.8225(8) 0.2971(14)
H9 H 0.19080 0.85730 0.31220
H10 H 0.20770 0.79620 0.32170
C22 C 0.1132(14) 0.818(1) 0.1853(18)
H11 H 0.07800 0.85230 0.15260
H12 H 0.07550 0.78510 0.16350
H13 H 0.14780 0.81340 0.15720
C23 C 0.1415(13) 0.8175(10) 0.3691(18)
H14 H 0.09440 0.84390 0.34540
H15 H 0.19110 0.82640 0.44670
H16 H 0.12240 0.77870 0.36620
O9A O 0.5177(3) 1.2002(2) 1.3390(3)
Cd1A Cd -0.442515(16) 1.153136(13) 0.50358(2)
O1A O -0.3369(2) 1.10661(18) 0.5071(4)
O2A O -0.44901(16) 1.04981(16) 0.4078(3)
O3A O -0.43593(18) 0.92068(15) 0.1266(3)
O4A O -0.3197(3) 0.8655(2) 0.2213(4)
O5A O 0.37605(17) 0.95430(15) 0.9002(3)
O6A O 0.4112(2) 0.86246(17) 0.8985(3)
O7A O 0.1738(2) 0.73461(19) 0.5919(3)
O8A O 0.0488(2) 0.74243(16) 0.5662(3)
N1A N -0.0411(2) 0.94320(17) 0.5720(3)
N2A N -0.0330(2) 1.0344(2) 0.6120(4)
H1A H -0.04770 1.06930 0.61380
N3A N 0.0532(2) 1.0137(2) 0.6701(4)
C1A C -0.3731(2) 1.0628(2) 0.4470(4)
C2A C -0.3199(2) 1.0245(2) 0.4270(4)
C3A C -0.2295(2) 1.0264(2) 0.5000(4)
H2A H -0.20100 1.05110 0.56330
C4A C -0.1808(3) 0.9912(2) 0.4794(4)
C5A C -0.2231(3) 0.9530(2) 0.3892(4)
H3A H -0.19080 0.92850 0.37660
C6A C -0.3139(3) 0.9509(2) 0.3169(4)
C7A C -0.3629(3) 0.9875(2) 0.3315(4)
H4A H -0.42390 0.98780 0.27880
C8A C -0.3585(3) 0.9100(3) 0.2135(4)
C9A C -0.0849(3) 0.9934(2) 0.5571(3)
C10A C 0.0445(2) 0.9603(2) 0.6431(4)
C11A C 0.1108(3) 0.9160(2) 0.6754(4)
C12A C 0.1995(2) 0.9309(2) 0.7542(4)
H5A H 0.21620 0.96760 0.78710
C13A C 0.2622(2) 0.8892(2) 0.7815(4)
C14A C 0.2371(3) 0.8348(2) 0.7323(5)
H6A H 0.28000 0.80770 0.75140
C15A C 0.1496(3) 0.8201(2) 0.6554(4)
C16A C 0.0870(3) 0.8613(2) 0.6298(4)
H7A H 0.02770 0.85170 0.58070
C17A C 0.3584(3) 0.9033(2) 0.8679(4)
C18A C 0.1232(3) 0.7612(2) 0.6034(4)
Cd1A* Cd 0.557485(16) 1.153136(13) 1.50358(2)
Cd1B Cd -0.057485(16) 0.653136(13) 0.99642(2)
Cd1C Cd 0.057485(16) 0.653136(13) 0.50358(2)
Cd1D Cd -0.442515(16) 0.846864(13) 0.00358(2)
Cd1D* Cd 0.557485(16) 0.846864(13) 1.00358(2)
Cd1E Cd -0.557485(16) 0.846864(13) 0.49642(2)
Cd1E* Cd 0.442515(16) 0.846864(13) 1.49642(2)
Cd2* Cd -0.50000 1.00000 0.00000
Cd2A Cd -0.50000 1.00000 0.50000
Cd2A* Cd 0.50000 1.00000 1.50000
O2D O 0.55099(16) 0.95019(16) 0.9078(3)
O3A* O 0.56407(18) 0.92068(15) 1.1266(3)
O3D O -0.43593(18) 1.07932(15) 0.6266(3)
O3E O 0.43593(18) 1.07932(15) 0.8734(3)
O4D O -0.3197(3) 1.1345(2) 0.7213(4)
O4E O 0.3197(3) 1.1345(2) 0.7787(4)
O5E O 0.62395(17) 1.04570(15) 1.0998(3)
O6D O -0.5888(2) 1.13754(17) 0.3985(3)
O6E O 0.5888(2) 1.13754(17) 1.1015(3)
O7B O 0.3262(2) 1.23461(19) 0.9081(3)
O7C O -0.3262(2) 1.23461(19) 0.5919(3)
O8B O 0.4512(2) 1.24243(16) 0.9338(3)
O8C O -0.4512(2) 1.24243(16) 0.5662(3)
O9A* O -0.4823(3) 1.2002(2) 0.3390(3)
#END
