
#######################################################################
#
#                 Cambridge Crystallographic Data Centre
#                                CCDC
#
#######################################################################
#
# If this CIF has been generated from an entry in the Cambridge
# Structural Database, then it will include bibliographic, chemical,
# crystal, experimental, refinement or atomic coordinate data resulting
# from the CCDC's data processing and validation procedures.
#
#######################################################################

data_CSD_CIF_OKISAD
_audit_creation_date 2011-04-26
_audit_creation_method CSD-ConQuest-V1
_database_code_CSD OKISAD
_database_code_depnum_ccdc_archive 'CCDC 777059'
_chemical_formula_sum 'C12 H34 Cd3 N24 O20 S4'
_chemical_formula_moiety
;
(C6 H20 Cd3 N12 O20 S4 2-)n,2n(C3 H7 N6 1+)
;
_journal_coden_Cambridge 1147
_journal_volume 10
_journal_year 2010
_journal_page_first 4161
_journal_name_full 'Cryst.Growth Des. '
loop_
_publ_author_name
"A.K.Paul"
"U.Sanyal"
"S.Natarajan"
_chemical_name_systematic
;
catena-[bis(2,4,6-Triaminotriazinium) 
bis(\m~4~-sulfato)-bis(\m~2~-sulfato)-bis(2,4,6-triamino-1,3,5-triazine)-tetra
aqua-tri-cadmium]
;
_chemical_name_common
;
catena-[bis(Melaminium) 
bis(mu!4$-sulfato)-bis(mu!2$-sulfato)-bis(melamine)-tetraaqua-tri-cadmium]
;
_cell_volume    916.296
_exptl_crystal_colour 'colorless'
_exptl_crystal_density_diffrn 2.356
_exptl_crystal_description 'rectangular'
_diffrn_ambient_temperature 293
#These two values have been output from a single CSD field.
_refine_ls_R_factor_gt 0.0368
_refine_ls_wR_factor_gt 0.0368
_symmetry_cell_setting triclinic
_symmetry_space_group_name_H-M 'P -1'
_symmetry_Int_Tables_number 2
loop_
_symmetry_equiv_pos_site_id
_symmetry_equiv_pos_as_xyz
1 x,y,z
2 -x,-y,-z
_cell_length_a 6.8147(10)
_cell_length_b 10.3938(15)
_cell_length_c 14.487(2)
_cell_angle_alpha 106.352(2)
_cell_angle_beta 97.049(2)
_cell_angle_gamma 107.237(2)
_cell_formula_units_Z 1
loop_
_atom_type_symbol
_atom_type_radius_bond
C 0.68
H 0.23
Cd 1.44
N 0.68
O 0.68
S 1.02
loop_
_atom_site_label
_atom_site_type_symbol
_atom_site_fract_x
_atom_site_fract_y
_atom_site_fract_z
Cd1 Cd -1.00000 -0.50000 -0.50000
Cd2 Cd -0.26655(5) -0.08184(4) -0.39206(3)
S1 S -0.80221(18) -0.12456(12) -0.44290(8)
S2 S -0.23454(19) -0.38058(12) -0.31942(9)
O1 O -0.9579(5) -0.2698(3) -0.4901(2)
O2 O -0.7753(6) -0.4431(4) -0.3526(3)
O3 O -1.7431(5) -0.5006(3) -0.5891(2)
O4 O -0.7397(5) -0.0691(4) -0.5214(2)
O5 O -0.3661(6) -0.2583(4) -0.5450(3)
O6 O -0.3375(6) -0.2857(4) -0.3471(3)
O7 O -0.6169(5) -0.1249(4) -0.3803(3)
O8 O -0.9016(5) -0.0344(3) -0.3804(2)
O9 O -0.3433(7) -0.4353(4) -0.2517(3)
O10 O -0.0130(6) -0.3007(5) -0.2756(3)
N1 N -0.3994(6) -0.1633(4) 0.0066(3)
N2 N -0.5728(6) -0.3403(4) 0.0755(3)
N3 N -0.3435(7) -0.1120(4) 0.1772(3)
N4 N -0.1881(7) 0.0589(4) 0.1105(3)
H1 H -0.16460 0.08510 0.06040
H2 H -0.13090 0.11830 0.16930
N5 N -0.6171(7) -0.3878(4) -0.0903(3)
H3 H -0.69920 -0.47270 -0.09810
H4 H -0.59300 -0.36330 -0.14090
C1 C -0.3114(7) -0.0720(5) 0.0970(4)
C2 C -0.5287(7) -0.2955(5) -0.0009(4)
N6 N -0.4975(7) -0.2804(5) 0.2454(3)
H5 H -0.57830 -0.36440 0.24030
H6 H -0.43220 -0.21850 0.30270
C3 C -0.4732(7) -0.2461(5) 0.1645(4)
N7 N -0.1636(6) 0.0922(4) -0.2365(3)
N8 N -0.1211(6) 0.1496(4) -0.0610(3)
N9 N -0.3323(6) -0.0717(4) -0.1661(3)
H7 H -0.36040 -0.09470 -0.11540
H8 H -0.38800 -0.13300 -0.22440
N10 N -0.0037(7) 0.2744(4) -0.2929(3)
H9 H 0.07510 0.36090 -0.28290
H10 H -0.06000 0.21630 -0.35220
C4 C -0.2024(7) 0.0592(5) -0.1542(4)
C5 C -0.0382(7) 0.2304(5) -0.2170(3)
C6 C 0.0081(8) 0.2809(5) -0.0513(4)
N11 N 0.0546(6) 0.3265(4) -0.1264(3)
N12 N 0.0961(7) 0.3713(4) 0.0392(3)
H11 H 0.18010 0.45620 0.04840
H12 H 0.06950 0.34540 0.08910
H13 H -0.639(5) -0.379(6) -0.347(5)
H14 H -0.824(10) -0.377(5) -0.311(4)
H15 H -0.243(6) -0.282(7) -0.537(5)
H16 H -0.493(6) -0.332(5) -0.550(5)
H17 H -0.279(8) -0.058(5) 0.233(4)
Cd1* Cd -2.00000 -0.50000 -0.50000
Cd1** Cd 0.00000 -0.50000 -0.50000
Cd2* Cd -1.26655(5) -0.08184(4) -0.39206(3)
Cd2A Cd -0.73345(5) 0.08184(4) -0.60794(3)
Cd2** Cd -1.26655(5) -1.08184(4) -0.39206(3)
Cd2A* Cd -1.73345(5) -0.91816(4) -0.60794(3)
Cd2A** Cd -0.73345(5) -0.91816(4) -0.60794(3)
S1A S -1.19779(18) -0.87544(12) -0.55710(8)
S2A S -1.76546(19) -0.61942(12) -0.68058(9)
O1A O -1.0421(5) -0.7302(3) -0.5099(2)
O2A O -1.2247(6) -0.5569(4) -0.6474(3)
O3* O -0.7431(5) -0.5006(3) -0.5891(2)
O3A O -1.2569(5) -0.4994(3) -0.4109(2)
O3A* O -0.2569(5) -0.4994(3) -0.4109(2)
O4A O -0.2603(5) 0.0691(4) -0.4786(2)
O4A* O -1.2603(5) -0.9309(4) -0.4786(2)
O4* O -1.7397(5) -1.0691(4) -0.5214(2)
O5A O -1.6339(6) -0.7417(4) -0.4550(3)
O6A O -1.6625(6) -0.7143(4) -0.6529(3)
O7A O -1.3831(5) -0.8751(4) -0.6197(3)
O8* O 0.0984(5) -0.0344(3) -0.3804(2)
O8A O -1.0984(5) -0.9656(3) -0.6196(2)
O8A* O -2.0984(5) -0.9656(3) -0.6196(2)
O9A O -1.6567(7) -0.5647(4) -0.7483(3)
O10A O -1.9870(6) -0.6993(5) -0.7244(3)
N7A N -1.8364(6) -1.0922(4) -0.7635(3)
N8A N -1.8789(6) -1.1496(4) -0.9390(3)
N9A N -1.6677(6) -0.9283(4) -0.8339(3)
H7A H -1.63960 -0.90530 -0.88460
H8A H -1.61200 -0.86700 -0.77560
N10A N -1.9963(7) -1.2744(4) -0.7071(3)
H9A H -2.07510 -1.36090 -0.71710
H10A H -1.94000 -1.21630 -0.64780
C4A C -1.7976(7) -1.0592(5) -0.8458(4)
C5A C -1.9618(7) -1.2304(5) -0.7830(3)
C6A C -2.0081(8) -1.2809(5) -0.9487(4)
N11A N -2.0546(6) -1.3265(4) -0.8736(3)
N12A N -2.0961(7) -1.3713(4) -1.0392(3)
H11A H -2.18010 -1.45620 -1.04840
H12A H -2.06950 -1.34540 -1.08910
H13A H -1.361(5) -0.621(6) -0.653(5)
H14A H -1.176(10) -0.623(5) -0.689(4)
H15A H -1.757(6) -0.718(7) -0.463(5)
H16A H -1.507(6) -0.668(5) -0.450(5)
#END
