
#######################################################################
#
#                 Cambridge Crystallographic Data Centre
#                                CCDC
#
#######################################################################
#
# If this CIF has been generated from an entry in the Cambridge
# Structural Database, then it will include bibliographic, chemical,
# crystal, experimental, refinement or atomic coordinate data resulting
# from the CCDC's data processing and validation procedures.
#
#######################################################################

data_CSD_CIF_OKOJUW
_audit_creation_date 2021-01-12
_audit_creation_method CSD-ConQuest-V1
_database_code_CSD OKOJUW
_database_code_depnum_ccdc_archive 'CCDC 2002393'
_chemical_formula_sum 'C118 H106 Cd4 N8 O38 Tb2'
_chemical_formula_moiety
;
(C108 H76 Cd4 N4 O36 Tb2 2-)n,2(C3 H7 N1 O1),2(C2 H8 N1 1+)
;
_journal_coden_Cambridge 155
_journal_volume 517
_journal_year 2021
_journal_page_first 120216
_journal_name_full 'Inorg.Chim.Acta '
loop_
_publ_author_name
"A.A.Sapianik"
"E.R.Dudko"
"D.G.Samsonenko"
"V.A.Lazarenko"
"P.V.Dorovatovskii"
"V.P.Fedin"
_chemical_name_systematic
;
catena-[bis(dimethylammonium) 
octakis(\m-naphthalene-1,4-dicarboxylato)-tetrakis(N,N-dimethylformamide)-tetr
a-cadmium(ii)-di-terbium(iii) N,N-dimethylformamide solvate]
;
_cell_volume  13396.645
_exptl_crystal_colour 'colorless'
_exptl_crystal_density_diffrn 1.493
_exptl_crystal_description 'plate'
_diffrn_ambient_temperature 200
_refine_special_details
;
C31D,C32D,C33D,N3D,O3D and C41D,C42D,C43D,N4D,O4D disordered over two sites 
with occupancies 0.25:0.25.
;
#These two values have been output from a single CSD field.
_refine_ls_R_factor_gt 0.0439
_refine_ls_wR_factor_gt 0.0439
_symmetry_cell_setting monoclinic
_symmetry_space_group_name_H-M 'P 21/c'
_symmetry_Int_Tables_number 14
loop_
_symmetry_equiv_pos_site_id
_symmetry_equiv_pos_as_xyz
1 x,y,z
2 -x,1/2+y,1/2-z
3 -x,-y,-z
4 x,-1/2-y,-1/2+z
_cell_length_a 27.6083(3)
_cell_length_b 24.5384(3)
_cell_length_c 19.9492(2)
_cell_angle_alpha 90
_cell_angle_beta 97.5836(11)
_cell_angle_gamma 90
_cell_formula_units_Z 4
loop_
_atom_type_symbol
_atom_type_radius_bond
C 0.68
H 0.23
Cd 1.44
N 0.68
O 0.68
Tb 1.94
loop_
_atom_site_label
_atom_site_type_symbol
_atom_site_fract_x
_atom_site_fract_y
_atom_site_fract_z
Tb1 Tb 0.26084(2) 0.24129(2) 0.50124(2)
Tb2 Tb 0.77304(2) 0.25617(2) 0.51046(2)
Cd1 Cd 0.37461(2) 0.34354(2) 0.53200(2)
Cd2 Cd 0.16308(2) 0.12934(2) 0.49543(2)
Cd3 Cd 0.65772(2) 0.15294(2) 0.46960(2)
Cd4 Cd 0.87011(2) 0.37011(2) 0.51001(2)
O1 O 0.38352(18) 0.43802(18) 0.5403(3)
C1 C 0.4052(3) 0.4611(3) 0.4937(5)
H1 H 0.41254 0.43935 0.45702
N1 N 0.4177(3) 0.5140(3) 0.4946(5)
C2 C 0.4456(5) 0.5380(5) 0.4424(7)
H2 H 0.47724 0.55131 0.46415
H3 H 0.42696 0.56831 0.41975
H4 H 0.45074 0.51001 0.40898
C3 C 0.4056(5) 0.5492(4) 0.5508(7)
H5 H 0.42854 0.57980 0.55700
H6 H 0.40806 0.52775 0.59259
H7 H 0.37223 0.56310 0.53991
O2 O 0.14217(14) 0.03808(15) 0.5020(2)
C4 C 0.1734(2) 0.0053(2) 0.4896(3)
H8 H 0.20414 0.01993 0.48240
N2 N 0.1687(2) -0.0475(2) 0.4853(3)
C5 C 0.2068(3) -0.0822(3) 0.4657(4)
H9 H 0.19626 -0.09736 0.42064
H10 H 0.21315 -0.11204 0.49838
H11 H 0.23665 -0.06087 0.46479
C6 C 0.1266(3) -0.0735(3) 0.5038(6)
H12 H 0.13540 -0.10978 0.52213
H13 H 0.10193 -0.07709 0.46396
H14 H 0.11324 -0.05171 0.53827
O3 O 0.66183(17) 0.05681(16) 0.4645(2)
C7 C 0.6502(3) 0.0305(3) 0.5104(5)
H15 H 0.63844 0.04991 0.54615
N3 N 0.6522(3) -0.0221(3) 0.5155(4)
C8 C 0.6346(5) -0.0521(4) 0.5685(6)
H16 H 0.65449 -0.08491 0.57811
H17 H 0.60049 -0.06251 0.55450
H18 H 0.63669 -0.02940 0.60918
C9 C 0.6716(4) -0.0558(4) 0.4703(6)
H19 H 0.68461 -0.08888 0.49374
H20 H 0.69801 -0.03673 0.45166
H21 H 0.64603 -0.06577 0.43353
O4 O 0.87933(15) 0.46492(15) 0.4986(2)
C10 C 0.8532(3) 0.4937(3) 0.4632(5)
H22 H 0.83307 0.47698 0.42655
N4 N 0.8491(3) 0.5467(3) 0.4696(5)
C11 C 0.8145(5) 0.5825(5) 0.4327(7)
H23 H 0.80678 0.61232 0.46218
H24 H 0.78462 0.56222 0.41673
H25 H 0.82839 0.59744 0.39386
C12 C 0.8789(4) 0.5752(4) 0.5201(7)
H26 H 0.86369 0.61031 0.52810
H27 H 0.91095 0.58144 0.50558
H28 H 0.88274 0.55379 0.56192
O5 O 0.33295(12) 0.35445(16) 0.61900(17)
O6 O 0.27029(13) 0.29895(16) 0.59150(18)
O7 O 0.21660(11) 0.31372(14) 0.92113(16)
O8 O 0.19943(14) 0.39977(15) 0.90493(19)
C13 C 0.29478(17) 0.3313(2) 0.6303(2)
C14 C 0.27581(16) 0.34226(19) 0.6970(2)
C15 C 0.26093(17) 0.29810(19) 0.7305(2)
H29 H 0.26197 0.26285 0.71110
C16 C 0.24409(17) 0.30432(19) 0.7934(2)
H30 H 0.23509 0.27293 0.81680
C17 C 0.24036(16) 0.35479(18) 0.8219(2)
C18 C 0.21807(16) 0.3571(2) 0.8870(2)
C19 C 0.2556(2) 0.40192(19) 0.7886(3)
C20 C 0.2744(2) 0.39529(19) 0.7249(3)
C21 C 0.2895(3) 0.4418(2) 0.6924(3)
H31 H 0.30180 0.43783 0.65045
C22 C 0.2869(4) 0.4925(3) 0.7196(4)
H32 H 0.29764 0.52332 0.69681
C23 C 0.2685(4) 0.4991(3) 0.7808(5)
H33 H 0.26643 0.53462 0.79912
C24 C 0.2535(3) 0.4559(2) 0.8145(3)
H34 H 0.24129 0.46153 0.85633
O9 O 0.27846(13) 0.30917(16) 0.43231(19)
O10 O 0.34370(14) 0.35875(15) 0.42337(18)
O11 O 0.27566(12) 0.32993(15) 0.07458(17)
O12 O 0.21731(13) 0.39098(13) 0.08457(17)
C25 C 0.30420(18) 0.33793(19) 0.3991(2)
C26 C 0.28712(17) 0.34637(19) 0.3250(2)
C27 C 0.32198(19) 0.3487(2) 0.2825(3)
H35 H 0.35555 0.34822 0.30072
C28 C 0.30895(19) 0.3518(2) 0.2124(3)
H36 H 0.33389 0.35240 0.18387
C29 C 0.26125(17) 0.35402(19) 0.1843(2)
C30 C 0.25035(17) 0.35863(19) 0.1089(2)
C31 C 0.22321(17) 0.35199(18) 0.2266(2)
C32 C 0.23631(17) 0.34871(18) 0.2981(2)
C33 C 0.19805(18) 0.3483(2) 0.3393(3)
H37 H 0.20589 0.34801 0.38710
C34 C 0.1504(2) 0.3482(3) 0.3113(3)
H38 H 0.12529 0.34831 0.33957
C35 C 0.1383(2) 0.3479(3) 0.2416(3)
H39 H 0.10484 0.34642 0.22295
C36 C 0.17281(18) 0.3498(2) 0.1995(3)
H40 H 0.16350 0.34967 0.15195
O13 O 0.35180(12) 0.25105(13) 0.52455(17)
O14 O 0.32144(12) 0.19203(15) 0.44758(18)
O15 O 0.58083(12) 0.16995(17) 0.40918(19)
O16 O 0.58449(13) 0.14591(18) 0.5155(2)
C37 C 0.35763(16) 0.2154(2) 0.4802(2)
C38 C 0.40894(16) 0.1996(2) 0.4697(2)
C39 C 0.44354(17) 0.2018(2) 0.5252(3)
H41 H 0.43466 0.21378 0.56721
C40 C 0.49200(17) 0.1865(2) 0.5212(3)
H42 H 0.51520 0.18679 0.56083
C41 C 0.50634(16) 0.1710(2) 0.4606(3)
C42 C 0.56052(17) 0.1611(2) 0.4604(3)
C43 C 0.47105(17) 0.1673(2) 0.4009(3)
C44 C 0.42130(17) 0.1817(2) 0.4057(2)
C45 C 0.38720(19) 0.1781(3) 0.3465(3)
H43 H 0.35401 0.18749 0.34818
C46 C 0.4012(2) 0.1613(3) 0.2874(3)
H44 H 0.37769 0.15943 0.24813
C47 C 0.4490(2) 0.1467(3) 0.2828(3)
H45 H 0.45786 0.13451 0.24087
C48 C 0.4830(2) 0.1498(3) 0.3376(3)
H46 H 0.51580 0.13999 0.33368
O17 O 0.18570(12) 0.29344(14) 0.48122(18)
O18 O 0.18022(11) 0.22064(13) 0.54366(16)
O19 O -0.05893(13) 0.33863(17) 0.5762(2)
O20 O -0.05559(13) 0.36081(17) 0.4709(2)
C49 C 0.16198(16) 0.26422(19) 0.5165(2)
C50 C 0.11111(16) 0.28240(19) 0.5249(3)
C51 C 0.07979(17) 0.2914(2) 0.4664(3)
H47 H 0.09005 0.28389 0.42370
C52 C 0.03276(17) 0.3115(2) 0.4699(3)
H48 H 0.01130 0.31736 0.42926
C53 C 0.01692(17) 0.3230(2) 0.5309(3)
C54 C -0.03600(17) 0.3421(2) 0.5266(3)
C55 C 0.04799(17) 0.3138(2) 0.5920(3)
C56 C 0.09639(17) 0.29292(19) 0.5890(2)
C57 C 0.12839(19) 0.2852(2) 0.6494(3)
H49 H 0.16049 0.27190 0.64731
C58 C 0.1142(2) 0.2962(3) 0.7099(3)
H50 H 0.13618 0.29043 0.75006
C59 C 0.0670(2) 0.3163(3) 0.7140(3)
H51 H 0.05755 0.32424 0.75712
C60 C 0.0342(2) 0.3246(2) 0.6569(3)
H52 H 0.00226 0.33765 0.66070
O21 O 0.44907(13) 0.3411(2) 0.4920(2)
O22 O 0.45100(13) 0.32568(18) 0.6001(2)
O23 O 0.68293(11) 0.24376(13) 0.48320(16)
O24 O 0.70959(11) 0.30429(14) 0.55994(18)
C61 C 0.47176(18) 0.3285(2) 0.5479(3)
C62 C 0.52585(17) 0.3147(2) 0.5504(3)
C63 C 0.54148(17) 0.3094(2) 0.4884(3)
H53 H 0.51904 0.31534 0.44873
C64 C 0.58961(17) 0.2955(2) 0.4823(3)
H54 H 0.59907 0.28968 0.43881
C65 C 0.62334(16) 0.29015(19) 0.5387(2)
C66 C 0.67496(16) 0.27876(19) 0.5278(2)
C67 C 0.60926(17) 0.2954(2) 0.6043(3)
C68 C 0.55881(17) 0.3055(2) 0.6107(3)
C69 C 0.5451(2) 0.3058(3) 0.6768(3)
H55 H 0.51191 0.31197 0.68231
C70 C 0.5785(2) 0.2975(3) 0.7327(3)
H56 H 0.56832 0.29777 0.77637
C71 C 0.6273(2) 0.2886(3) 0.7259(3)
H57 H 0.65017 0.28268 0.76514
C72 C 0.64279(19) 0.2881(3) 0.6645(3)
H58 H 0.67651 0.28292 0.66137
O25 O 0.75356(12) 0.19367(14) 0.58585(16)
O26 O 0.69041(13) 0.13654(15) 0.57652(17)
O27 O 0.75750(13) 0.17258(14) 0.93832(17)
O28 O 0.81743(13) 0.11660(14) 0.91738(17)
C73 C 0.72426(17) 0.16230(19) 0.6100(2)
C74 C 0.73386(17) 0.15380(18) 0.6850(2)
C75 C 0.78229(17) 0.1516(2) 0.7130(2)
H59 H 0.80719 0.15503 0.68463
C76 C 0.79515(18) 0.1445(2) 0.7823(2)
H60 H 0.82856 0.14020 0.80016
C77 C 0.76025(17) 0.14378(18) 0.8250(2)
C78 C 0.77991(18) 0.14388(19) 0.8994(2)
C79 C 0.70990(17) 0.14635(19) 0.7988(2)
C80 C 0.69641(17) 0.14901(19) 0.7270(2)
C81 C 0.64605(19) 0.1486(2) 0.7010(3)
H61 H 0.63661 0.15123 0.65356
C82 C 0.6113(2) 0.1446(3) 0.7424(3)
H62 H 0.57784 0.14289 0.72392
C83 C 0.6247(2) 0.1430(3) 0.8134(3)
H63 H 0.59993 0.14134 0.84221
C84 C 0.6718(2) 0.1438(3) 0.8404(3)
H64 H 0.67991 0.14269 0.88816
O29 O 0.81614(12) 0.31446(14) 0.58589(16)
O30 O 0.84014(14) 0.39866(15) 0.60575(19)
O31 O 0.70031(13) 0.35397(16) 0.88365(17)
O32 O 0.76547(12) 0.30352(15) 0.92117(17)
C85 C 0.81884(16) 0.35731(19) 0.6227(2)
C86 C 0.79721(15) 0.35526(17) 0.6879(2)
C87 C 0.78568(17) 0.30481(19) 0.7104(2)
H65 H 0.78961 0.27377 0.68319
C88 C 0.76823(17) 0.29790(18) 0.7726(2)
H66 H 0.76149 0.26229 0.78764
C89 C 0.76079(15) 0.34197(18) 0.8120(2)
C90 C 0.74019(16) 0.33259(19) 0.8775(2)
C91 C 0.77180(17) 0.39491(19) 0.7907(2)
C92 C 0.79070(16) 0.40241(18) 0.7277(2)
C93 C 0.8012(2) 0.4564(2) 0.7086(3)
H67 H 0.81298 0.46237 0.66652
C94 C 0.7948(3) 0.4996(2) 0.7488(3)
H68 H 0.80214 0.53519 0.73452
C95 C 0.7775(3) 0.4925(2) 0.8114(3)
H69 H 0.77378 0.52303 0.83957
C96 C 0.7660(2) 0.4413(2) 0.8315(3)
H70 H 0.75387 0.43664 0.87351
O33 O 0.85389(11) 0.27116(13) 0.46775(17)
O34 O 0.84744(12) 0.20580(15) 0.54092(19)
O35 O 1.09123(12) 0.13806(14) 0.54664(18)
O36 O 1.08935(12) 0.15584(14) 0.43860(18)
C97 C 0.87130(17) 0.23072(19) 0.5007(2)
C98 C 0.92164(16) 0.20960(19) 0.4944(2)
C99 C 0.95549(17) 0.2106(2) 0.5500(3)
H71 H 0.94708 0.22484 0.59123
C100 C 1.00278(17) 0.1907(2) 0.5475(3)
H72 H 1.02612 0.19236 0.58697
C101 C 1.01610(16) 0.16897(19) 0.4892(3)
C102 C 1.06844(17) 0.15287(19) 0.4912(3)
C103 C 0.98095(17) 0.1645(2) 0.4308(3)
C104 C 0.93243(16) 0.1858(2) 0.4334(2)
C105 C 0.89671(19) 0.1798(2) 0.3762(3)
H73 H 0.86509 0.19482 0.37713
C106 C 0.9065(2) 0.1533(3) 0.3208(3)
H74 H 0.88160 0.14902 0.28351
C107 C 0.9541(2) 0.1315(3) 0.3175(3)
H75 H 0.96076 0.11261 0.27812
C108 C 0.9900(2) 0.1379(2) 0.3710(3)
H76 H 1.02181 0.12411 0.36789
O37 O 1.0109(4) 0.1327(4) 0.7101(5)
C109 C 0.9705(6) 0.1508(6) 0.7016(7)
H77 H 0.94837 0.13437 0.66688
N5 N 0.9522(4) 0.1930(4) 0.7364(5)
C110 C 0.9044(4) 0.2157(7) 0.7157(7)
H78 H 0.88627 0.19186 0.68176
H79 H 0.88671 0.21859 0.75501
H80 H 0.90776 0.25191 0.69623
C111 C 0.9821(5) 0.2204(6) 0.7829(9)
H81 H 0.96363 0.24888 0.80286
H82 H 0.99623 0.19530 0.81835
H83 H 1.00838 0.23723 0.76143
O38 O 0.3336(4) 0.5404(5) 0.3515(7)
C112 C 0.3117(5) 0.5585(6) 0.3986(8)
H84 H 0.31378 0.59650 0.40786
N6 N 0.2872(3) 0.5298(3) 0.4339(4)
C113 C 0.2659(5) 0.5576(5) 0.4841(6)
H85 H 0.24777 0.53168 0.50868
H86 H 0.29156 0.57488 0.51562
H87 H 0.24355 0.58550 0.46297
C114 C 0.2803(6) 0.4744(5) 0.4257(7)
H88 H 0.26004 0.46093 0.45898
H89 H 0.26389 0.46698 0.37998
H90 H 0.31202 0.45587 0.43223
O39 O 0.9702(8) 0.5961(7) 0.6657(10)
C115 C 0.9896(11) 0.5640(8) 0.6322(13)
H91 H 1.01184 0.57859 0.60442
N7 N 0.9828(9) 0.5082(9) 0.6299(11)
C116 C 1.0025(10) 0.4823(9) 0.5807(12)
H92 H 1.02788 0.50525 0.56523
H93 H 1.01689 0.44783 0.59815
H94 H 0.97696 0.47503 0.54274
C117 C 0.9472(10) 0.4826(9) 0.6572(12)
H95 H 0.93609 0.50578 0.69226
H96 H 0.91970 0.47534 0.62197
H97 H 0.95963 0.44815 0.67739
O40? O 0.9849(8) 0.4989(8) 0.7554(9)
C118? C 1.0028(11) 0.5241(10) 0.7132(11)
H98? H 1.02286 0.55451 0.72730
N8? N 0.9957(10) 0.5112(8) 0.6453(11)
C119? C 0.9770(11) 0.4633(8) 0.6236(13)
H99? H 0.96012 0.44677 0.65872
H100? H 0.95372 0.46884 0.58258
H101? H 1.00334 0.43920 0.61339
C120? C 1.0204(11) 0.5412(9) 0.6057(13)
H102? H 1.03150 0.57481 0.62929
H103? H 1.04869 0.52054 0.59469
H104? H 0.99907 0.55018 0.56388
O41 O 0.4498(6) 0.4352(6) 0.3206(9)
C121 C 0.4574(7) 0.3853(8) 0.3280(13)
H105 H 0.46276 0.37225 0.37323
N9 N 0.4589(5) 0.3462(5) 0.2764(8)
C122 C 0.4548(6) 0.3650(7) 0.2146(10)
H106 H 0.45463 0.40492 0.21567
H107 H 0.48242 0.35229 0.19262
H108 H 0.42418 0.35188 0.18924
C123 C 0.4609(6) 0.2946(6) 0.3025(10)
H109 H 0.46415 0.29654 0.35200
H110 H 0.43091 0.27494 0.28552
H111 H 0.48914 0.27534 0.28889
N10 N 1.0540(3) 0.0584(3) 0.6308(4)
H112 H 1.06442 0.09002 0.61360
H113 H 1.03700 0.06711 0.66545
C124 C 1.0953(3) 0.0260(4) 0.6561(5)
H114 H 1.11604 0.04636 0.69110
H115 H 1.08417 -0.00773 0.67543
H116 H 1.11398 0.01718 0.61904
C125 C 1.0223(4) 0.0306(4) 0.5793(6)
H117 H 0.99441 0.05405 0.56321
H118 H 1.04026 0.02179 0.54149
H119 H 1.01045 -0.00311 0.59788
N11 N 0.3870(5) 0.5285(4) 0.2518(6)
H120 H 0.37605 0.53811 0.29120
H121 H 0.41942 0.52036 0.25981
C126 C 0.3771(7) 0.5688(6) 0.2018(7)
H122 H 0.39404 0.60258 0.21705
H123 H 0.38844 0.55647 0.15982
H124 H 0.34179 0.57557 0.19359
C127 C 0.3591(6) 0.4849(6) 0.2185(10)
H125 H 0.36214 0.45253 0.24754
H126 H 0.32467 0.49569 0.20950
H127 H 0.37132 0.47659 0.17573
N12 N 0.4486(6) 0.0221(8) 0.2318(10)
H128 H 0.45633 -0.01380 0.23774
H129 H 0.45723 0.03895 0.27226
C128 C 0.3971(7) 0.0261(10) 0.2156(13)
H130 H 0.38129 0.00961 0.25182
H131 H 0.38773 0.06457 0.21072
H132 H 0.38675 0.00694 0.17302
C129 C 0.4779(10) 0.0441(10) 0.1845(12)
H133 H 0.51258 0.03880 0.20148
H134 H 0.47020 0.02554 0.14092
H135 H 0.47119 0.08317 0.17863
N13 N 1.1163(6) 0.4904(6) 0.7760(8)
H136 H 1.09650 0.49219 0.73577
H137 H 1.14407 0.47312 0.76782
C130 C 1.0929(9) 0.4557(9) 0.8186(11)
H138 H 1.08681 0.42011 0.79671
H139 H 1.11387 0.45101 0.86175
H140 H 1.06173 0.47192 0.82662
C131 C 1.1297(9) 0.5454(7) 0.7948(13)
H141 H 1.14538 0.56243 0.75877
H142 H 1.10042 0.56606 0.80167
H143 H 1.15257 0.54515 0.83681
Tb1C Tb 0.26084(2) 0.25871(2) 0.00124(2)
Tb1C* Tb 0.26084(2) 0.25871(2) 1.00124(2)
Tb2C Tb 0.77304(2) 0.24383(2) 1.01046(2)
Cd2* Cd 1.16308(2) 0.12934(2) 0.49543(2)
Cd2C Cd 0.16308(2) 0.37066(2) -0.00457(2)
Cd2C* Cd 0.16308(2) 0.37066(2) 0.99543(2)
Cd3C Cd 0.65772(2) 0.34706(2) 0.96960(2)
Cd4* Cd -0.12989(2) 0.37011(2) 0.51001(2)
Cd4C Cd 0.87011(2) 0.12989(2) 1.01001(2)
O7C O 0.21660(11) 0.18628(14) 0.42113(16)
O8C O 0.19943(14) 0.10023(15) 0.40493(19)
O11C O 0.27566(12) 0.17007(15) 0.57458(17)
O12C O 0.21731(13) 0.10902(13) 0.58457(17)
O19* O 0.94107(13) 0.33863(17) 0.5762(2)
O20* O 0.94441(13) 0.36081(17) 0.4709(2)
O27C O 0.75750(13) 0.32742(14) 0.43832(17)
O28C O 0.81743(13) 0.38340(14) 0.41738(17)
O31C O 0.70031(13) 0.14603(16) 0.38365(17)
O32C O 0.76547(12) 0.19648(15) 0.42117(17)
O35* O 0.09123(12) 0.13806(14) 0.54664(18)
O36* O 0.08935(12) 0.15584(14) 0.43860(18)
#END
