
#######################################################################
#
#                 Cambridge Crystallographic Data Centre
#                                CCDC
#
#######################################################################
#
# If this CIF has been generated from an entry in the Cambridge
# Structural Database, then it will include bibliographic, chemical,
# crystal, experimental, refinement or atomic coordinate data resulting
# from the CCDC's data processing and validation procedures.
#
#######################################################################

data_CSD_CIF_OKOPOW
_audit_creation_date 2021-01-12
_audit_creation_method CSD-ConQuest-V1
_database_code_CSD OKOPOW
_database_code_depnum_ccdc_archive 'CCDC 1970659'
_chemical_formula_sum 'C20 H101 Cu8 N32 Na13 Nb48 O161'
_chemical_formula_moiety
;
(C20 H79 Cu8 N32 Nb48 O150 13-)n,11(H2 O1),13(Na1 1+)
;
_journal_coden_Cambridge 1747
_journal_year 2021
_journal_name_full 'Inorg.Chem.Front. '
loop_
_publ_author_name
"Zengkui Zhu"
"Ya-Yun Lin"
"Xin-Xiong Li"
"Dan Zhao"
"Shou-Tian Zheng"
_chemical_name_systematic
;
catena-[trideca-sodium 
henhectakis(\m-oxo)-hexakis(\m-3-amino-1,2,4-triazolato)-tridecakis(\m-hydroxo
)-tetrakis(ethane-1,2-diamine)-tetracosaoxo-dodeca-aqua-octa-copper(ii)-octate
traconta-niobium(v) undecahydrate unknown solvate]
;
_cell_volume  47433.844
_exptl_crystal_colour 'black'
_exptl_crystal_description 'block'
_diffrn_ambient_temperature 175
_refine_special_details
;
The structure is disordered. Disordered solvent molecules were not modelled 
and the disordered density was taken into account using the SQUEEZE/PLATON 
procedure.
;
#These two values have been output from a single CSD field.
_refine_ls_R_factor_gt 0.0953
_refine_ls_wR_factor_gt 0.0953
_symmetry_cell_setting orthorhombic
_symmetry_space_group_name_H-M 'I m m m'
_symmetry_Int_Tables_number 71
loop_
_symmetry_equiv_pos_site_id
_symmetry_equiv_pos_as_xyz
1 x,y,z
2 -x,-y,z
3 -x,y,-z
4 x,-y,-z
5 1/2+x,1/2+y,1/2+z
6 1/2-x,1/2-y,1/2+z
7 1/2-x,1/2+y,1/2-z
8 1/2+x,1/2-y,1/2-z
9 -x,-y,-z
10 x,y,-z
11 x,-y,z
12 -x,y,z
13 -1/2-x,-1/2-y,-1/2-z
14 -1/2+x,-1/2+y,-1/2-z
15 -1/2+x,-1/2-y,-1/2+z
16 -1/2-x,-1/2+y,-1/2+z
_cell_length_a 30.150(3)
_cell_length_b 30.349(3)
_cell_length_c 51.839(8)
_cell_angle_alpha 90
_cell_angle_beta 90
_cell_angle_gamma 90
_cell_formula_units_Z 4
loop_
_atom_type_symbol
_atom_type_radius_bond
C 0.68
Cu 1.32
N 0.68
Na 1.66
Nb 1.64
O 0.68
loop_
_atom_site_label
_atom_site_type_symbol
_atom_site_fract_x
_atom_site_fract_y
_atom_site_fract_z
Nb1 Nb 0.30627(2) 0.39641(3) 0.39397(2)
O1 O 0.33525(17) 0.36866(18) 0.42202(9)
O2 O 0.36062(15) 0.3725(2) 0.36952(11)
O3 O 0.33479(17) 0.45270(18) 0.39349(10)
O4 O 0.25382(14) 0.41116(19) 0.4088(1)
O5 O 0.28455(16) 0.3340(2) 0.38052(10)
O6 O 0.28242(16) 0.40653(19) 0.35580(11)
Nb2 Nb 0.35886(3) 0.31320(3) 0.43634(2)
Nb3 Nb 0.34207(3) 0.40067(3) 0.33427(2)
Nb4 Nb 0.34324(3) 0.30639(3) 0.36713(2)
Nb5 Nb 0.35767(4) 0.50000 0.37160(2)
Cu1 Cu 0.19051(4) 0.40449(5) 0.40231(2)
Nb6 Nb 0.24348(3) 0.35199(3) 0.35020(2)
O7 O 0.33545(18) 0.3213(2) 0.47136(10)
O8 O 0.3652(2) 0.2928(2) 0.39879(12)
O9 O 0.4146(2) 0.3295(3) 0.44155(12)
O10 O 0.2857(3) 0.2910(2) 0.42863(14)
O11 O 0.3651(3) 0.2476(2) 0.44420(12)
O12 O 0.3100(2) 0.4092(2) 0.30363(10)
O13 O 0.31200(19) 0.3335(2) 0.33070(11)
O14 O 0.3630(2) 0.4552(2) 0.34176(12)
O15 O 0.3901(2) 0.3723(2) 0.31812(10)
O16 O 0.3118(2) 0.2552(2) 0.35682(12)
O17 O 0.3910(2) 0.2959(2) 0.34444(12)
O18 O 0.4151(2) 0.50000 0.38179(16)
O19 O 0.2827(4) 0.50000 0.35644(19)
N1 N 0.1915(2) 0.3537(3) 0.42539(17)
N2 N 0.1914(2) 0.4626(3) 0.38735(17)
O20 O 0.1941(2) 0.3674(3) 0.36606(13)
O21 O 0.1231(4) 0.4056(4) 0.4023(2)
O22 O 0.2320(2) 0.3698(3) 0.31493(14)
O23 O 0.2335(2) 0.2905(3) 0.34244(13)
Nb7 Nb 0.30706(4) 0.29361(4) 0.50000
Nb8 Nb 0.34309(4) 0.20836(3) 0.46784(2)
Nb9 Nb 0.28020(4) 0.35487(4) 0.28951(2)
Nb10 Nb 0.37661(4) 0.30993(3) 0.30683(2)
Nb11 Nb 0.28122(4) 0.26087(4) 0.32235(2)
C1 C 0.2080(3) 0.3506(4) 0.44952(18)
N3 N 0.1652(4) 0.3178(4) 0.4234(3)
C2 C 0.2074(4) 0.50000 0.3983(3)
C3 C 0.1656(3) 0.4776(4) 0.36705(19)
O24 O 0.3616(3) 0.2456(3) 0.50000
O25 O 0.2550(3) 0.3224(3) 0.50000
O26 O 0.2845(2) 0.2428(2) 0.47566(12)
O27 O 0.3106(3) 0.1665(3) 0.44808(15)
O28 O 0.3897(3) 0.1700(3) 0.47386(16)
O29 O 0.3115(5) 0.1675(4) 0.50000
O30 O 0.2579(3) 0.3714(3) 0.25985(13)
O31 O 0.2598(2) 0.2932(3) 0.29192(12)
O32 O 0.3402(3) 0.3351(3) 0.27945(13)
O33 O 0.4261(3) 0.2949(3) 0.29082(15)
O34 O 0.3399(3) 0.2572(3) 0.30758(14)
O35 O 0.2596(3) 0.2084(3) 0.31689(18)
N4 N 0.2329(4) 0.3833(5) 0.4600(2)
N5 N 0.1914(3) 0.3170(4) 0.46297(18)
C4 C 0.1638(4) 0.2949(4) 0.4459(2)
N6 N 0.2308(4) 0.50000 0.4206(3)
Cu2 Cu 0.19119(6) 0.30995(8) 0.50000
Nb12 Nb 0.24388(6) 0.20689(6) 0.50000
Nb13 Nb 0.28005(7) 0.11919(5) 0.46793(3)
Nb14 Nb 0.37556(8) 0.12155(6) 0.50000
Cu3 Cu 0.25000 0.25000 0.25000
O36 O 0.1957(4) 0.2368(4) 0.50000
O37 O 0.1197(7) 0.3120(7) 0.50000
O38 O 0.2343(4) 0.1636(3) 0.47310(18)
O39 O 0.3328(4) 0.1004(4) 0.4725(2)
O40 O 0.2597(6) 0.0850(4) 0.4431(3)
O41 O 0.2577(7) 0.0899(5) 0.50000
O42 O 0.4227(6) 0.0885(6) 0.50000
N7 N 0.2969(4) 0.2820(4) 0.2310(2)
N8 N 0.2988(4) 0.2052(5) 0.2564(2)
C5 C 0.3361(7) 0.2600(7) 0.2282(4)
C6 C 0.3342(6) 0.2188(6) 0.2388(4)
Na1 Na 0.13214(9) 0.31607(13) 0.38776(6)
Na2 Na 0.13164(10) 0.42541(14) 0.34916(7)
Na3 Na 0.13076(15) 0.24449(17) 0.46466(11)
Na4 Na 0.4216(3) 0.00000 0.50000
O43 O 0.4663(9) 0.00000 0.4725(5)
O44 O 0.1620(9) 0.4353(9) 0.3140(5)
O45 O 0.1401(12) 0.3870(12) 0.2983(7)
O46 O 0.1573(10) 0.2552(11) 0.3712(6)
O47 O 0.3662(14) 0.00000 0.4681(8)
N9? N 0.1656(3) 0.4776(4) 0.36705(19)
O3J O 0.33479(17) 0.54730(18) 0.39349(10)
O14J O 0.3630(2) 0.5448(2) 0.34176(12)
Nb1J Nb 0.30627(2) 0.60359(3) 0.39397(2)
Nb3J Nb 0.34207(3) 0.59933(3) 0.33427(2)
O7I O 0.33545(18) 0.3213(2) 0.52864(10)
O26I O 0.2845(2) 0.2428(2) 0.52434(12)
O1J O 0.33525(17) 0.63134(18) 0.42202(9)
O2J O 0.36062(15) 0.6275(2) 0.36952(11)
O4J O 0.25382(14) 0.58884(19) 0.4088(1)
O5J O 0.28455(16) 0.6660(2) 0.38052(10)
O6J O 0.28242(16) 0.59347(19) 0.35580(11)
O12J O 0.3100(2) 0.5908(2) 0.30363(10)
O13J O 0.31200(19) 0.6665(2) 0.33070(11)
O15J O 0.3901(2) 0.6277(2) 0.31812(10)
N2J N 0.1914(2) 0.5374(3) 0.38735(17)
C3J C 0.1656(3) 0.5224(4) 0.36705(19)
Nb8I Nb 0.34309(4) 0.20836(3) 0.53216(2)
Nb2I Nb 0.35886(3) 0.31320(3) 0.56366(2)
Nb13I Nb 0.28005(7) 0.11919(5) 0.53207(3)
Nb2J Nb 0.35886(3) 0.68680(3) 0.43634(2)
Nb4J Nb 0.34324(3) 0.69361(3) 0.36713(2)
Cu1J Cu 0.19051(4) 0.59551(5) 0.40231(2)
Nb6J Nb 0.24348(3) 0.64801(3) 0.35020(2)
Nb9J Nb 0.28020(4) 0.64513(4) 0.28951(2)
Nb10J Nb 0.37661(4) 0.69007(3) 0.30683(2)
Nb11J Nb 0.28122(4) 0.73913(4) 0.32235(2)
O11I O 0.3651(3) 0.2476(2) 0.55580(12)
O27I O 0.3106(3) 0.1665(3) 0.55192(15)
O28I O 0.3897(3) 0.1700(3) 0.52614(16)
N5I N 0.1914(3) 0.3170(4) 0.53703(18)
O38I O 0.2343(4) 0.1636(3) 0.52690(18)
O1I O 0.33525(17) 0.36866(18) 0.57798(9)
O8I O 0.3652(2) 0.2928(2) 0.60121(12)
O9I O 0.4146(2) 0.3295(3) 0.55845(12)
O10I O 0.2857(3) 0.2910(2) 0.57137(14)
O39I O 0.3328(4) 0.1004(4) 0.5275(2)
O40I O 0.2597(6) 0.0850(4) 0.5569(3)
N7L N 0.2031(4) 0.2180(4) 0.2690(2)
N8L N 0.2012(4) 0.2948(5) 0.2436(2)
O31L O 0.2402(2) 0.2068(3) 0.20808(12)
O7J O 0.33545(18) 0.6787(2) 0.47136(10)
O8J O 0.3652(2) 0.7072(2) 0.39879(12)
O9J O 0.4146(2) 0.6705(3) 0.44155(12)
O10J O 0.2857(3) 0.7090(2) 0.42863(14)
O11J O 0.3651(3) 0.7524(2) 0.44420(12)
O16J O 0.3118(2) 0.7448(2) 0.35682(12)
O17J O 0.3910(2) 0.7041(2) 0.34444(12)
N1J N 0.1915(2) 0.6463(3) 0.42539(17)
O20J O 0.1941(2) 0.6326(3) 0.36606(13)
O21J O 0.1231(4) 0.5944(4) 0.4023(2)
O22J O 0.2320(2) 0.6302(3) 0.31493(14)
O23J O 0.2335(2) 0.7095(3) 0.34244(13)
O30J O 0.2579(3) 0.6286(3) 0.25985(13)
O31J O 0.2598(2) 0.7068(3) 0.29192(12)
O32J O 0.3402(3) 0.6649(3) 0.27945(13)
O33J O 0.4261(3) 0.7051(3) 0.29082(15)
O34J O 0.3399(3) 0.7428(3) 0.30758(14)
O35J O 0.2596(3) 0.7916(3) 0.31689(18)
C1I C 0.2080(3) 0.3506(4) 0.55048(18)
C4I C 0.1638(4) 0.2949(4) 0.5541(2)
Nb1I Nb 0.30627(2) 0.39641(3) 0.60603(2)
Nb4I Nb 0.34324(3) 0.30639(3) 0.63287(2)
C5L C 0.1639(7) 0.2400(7) 0.2718(4)
C6L C 0.1658(6) 0.2812(6) 0.2612(4)
Nb7C Nb 0.30706(4) 0.70639(4) 0.50000
Nb8J Nb 0.34309(4) 0.79164(3) 0.46784(2)
C1J C 0.2080(3) 0.6494(4) 0.44952(18)
N3J N 0.1652(4) 0.6822(4) 0.4234(3)
Cu3F Cu 0.25000 0.75000 0.25000
N1I N 0.1915(2) 0.3537(3) 0.57461(17)
N4I N 0.2329(4) 0.3833(5) 0.5400(2)
N3I N 0.1652(4) 0.3178(4) 0.5766(3)
O2I O 0.36062(15) 0.3725(2) 0.63048(11)
O3I O 0.33479(17) 0.45270(18) 0.60651(10)
O4I O 0.25382(14) 0.41116(19) 0.5912(1)
O5I O 0.28455(16) 0.3340(2) 0.61948(10)
O6I O 0.28242(16) 0.40653(19) 0.64420(11)
O13I O 0.31200(19) 0.3335(2) 0.66930(11)
O16I O 0.3118(2) 0.2552(2) 0.64318(12)
O17I O 0.3910(2) 0.2959(2) 0.65556(12)
O24C O 0.3616(3) 0.7544(3) 0.50000
O25C O 0.2550(3) 0.6776(3) 0.50000
O26J O 0.2845(2) 0.7572(2) 0.47566(12)
O7C O 0.33545(18) 0.6787(2) 0.52864(10)
O26C O 0.2845(2) 0.7572(2) 0.52434(12)
O27J O 0.3106(3) 0.8335(3) 0.44808(15)
O28J O 0.3897(3) 0.8300(3) 0.47386(16)
O29C O 0.3115(5) 0.8325(4) 0.50000
N4J N 0.2329(4) 0.6167(5) 0.4600(2)
N5J N 0.1914(3) 0.6830(4) 0.46297(18)
C4J C 0.1638(4) 0.7051(4) 0.4459(2)
Cu1I Cu 0.19051(4) 0.40449(5) 0.59769(2)
Nb3I Nb 0.34207(3) 0.40067(3) 0.66573(2)
Nb5C Nb 0.35767(4) 0.50000 0.62840(2)
Nb6I Nb 0.24348(3) 0.35199(3) 0.64980(2)
Nb9I Nb 0.28020(4) 0.35487(4) 0.71049(2)
Nb10I Nb 0.37661(4) 0.30993(3) 0.69317(2)
Nb11I Nb 0.28122(4) 0.26087(4) 0.67765(2)
Nb8C Nb 0.34309(4) 0.79164(3) 0.53216(2)
Cu2C Cu 0.19119(6) 0.69005(8) 0.50000
Nb12C Nb 0.24388(6) 0.79311(6) 0.50000
Nb2C Nb 0.35886(3) 0.68680(3) 0.56366(2)
Nb13J Nb 0.28005(7) 0.88081(5) 0.46793(3)
Nb14C Nb 0.37556(8) 0.87845(6) 0.50000
Nb13C Nb 0.28005(7) 0.88081(5) 0.53207(3)
N2I N 0.1914(2) 0.4626(3) 0.61265(17)
O20I O 0.1941(2) 0.3674(3) 0.63394(13)
O21I O 0.1231(4) 0.4056(4) 0.5977(2)
O12I O 0.3100(2) 0.4092(2) 0.69637(10)
O14I O 0.3630(2) 0.4552(2) 0.65824(12)
O15I O 0.3901(2) 0.3723(2) 0.68188(10)
O18C O 0.4151(2) 0.50000 0.61821(16)
O19C O 0.2827(4) 0.50000 0.64356(19)
O3C O 0.33479(17) 0.54730(18) 0.60651(10)
O14C O 0.3630(2) 0.5448(2) 0.65824(12)
O22I O 0.2320(2) 0.3698(3) 0.68507(14)
O23I O 0.2335(2) 0.2905(3) 0.65756(13)
O30I O 0.2579(3) 0.3714(3) 0.74015(13)
O31I O 0.2598(2) 0.2932(3) 0.70808(12)
O32I O 0.3402(3) 0.3351(3) 0.72055(13)
O33I O 0.4261(3) 0.2949(3) 0.70918(15)
O34I O 0.3399(3) 0.2572(3) 0.69242(14)
O35I O 0.2596(3) 0.2084(3) 0.68311(18)
O11C O 0.3651(3) 0.7524(2) 0.55580(12)
O27C O 0.3106(3) 0.8335(3) 0.55192(15)
O28C O 0.3897(3) 0.8300(3) 0.52614(16)
O36C O 0.1957(4) 0.7632(4) 0.50000
O37C O 0.1197(7) 0.6880(7) 0.50000
N5C N 0.1914(3) 0.6830(4) 0.53703(18)
O38J O 0.2343(4) 0.8364(3) 0.47310(18)
O38C O 0.2343(4) 0.8364(3) 0.52690(18)
O1C O 0.33525(17) 0.63134(18) 0.57798(9)
O8C O 0.3652(2) 0.7072(2) 0.60121(12)
O9C O 0.4146(2) 0.6705(3) 0.55845(12)
O10C O 0.2857(3) 0.7090(2) 0.57137(14)
O39J O 0.3328(4) 0.8996(4) 0.4725(2)
O40J O 0.2597(6) 0.9150(4) 0.4431(3)
O41C O 0.2577(7) 0.9101(5) 0.50000
O42C O 0.4227(6) 0.9115(6) 0.50000
O39C O 0.3328(4) 0.8996(4) 0.5275(2)
O40C O 0.2597(6) 0.9150(4) 0.5569(3)
C2C C 0.2074(4) 0.50000 0.6017(3)
C3I C 0.1656(3) 0.4776(4) 0.63295(19)
Nb1C Nb 0.30627(2) 0.60359(3) 0.60603(2)
Nb3C Nb 0.34207(3) 0.59933(3) 0.66573(2)
Cu3E Cu 0.25000 0.25000 0.75000
C1C C 0.2080(3) 0.6494(4) 0.55048(18)
C4C C 0.1638(4) 0.7051(4) 0.5541(2)
Nb4C Nb 0.34324(3) 0.69361(3) 0.63287(2)
N6C N 0.2308(4) 0.50000 0.5794(3)
N2C N 0.1914(2) 0.5374(3) 0.61265(17)
C3C C 0.1656(3) 0.5224(4) 0.63295(19)
O2C O 0.36062(15) 0.6275(2) 0.63048(11)
O4C O 0.25382(14) 0.58884(19) 0.5912(1)
O5C O 0.28455(16) 0.6660(2) 0.61948(10)
O6C O 0.28242(16) 0.59347(19) 0.64420(11)
O12C O 0.3100(2) 0.5908(2) 0.69637(10)
O13C O 0.31200(19) 0.6665(2) 0.66930(11)
O15C O 0.3901(2) 0.6277(2) 0.68188(10)
N1C N 0.1915(2) 0.6463(3) 0.57461(17)
N4C N 0.2329(4) 0.6167(5) 0.5400(2)
N3C N 0.1652(4) 0.6822(4) 0.5766(3)
O16C O 0.3118(2) 0.7448(2) 0.64318(12)
O17C O 0.3910(2) 0.7041(2) 0.65556(12)
Cu1C Cu 0.19051(4) 0.59551(5) 0.59769(2)
Nb6C Nb 0.24348(3) 0.64801(3) 0.64980(2)
Nb9C Nb 0.28020(4) 0.64513(4) 0.71049(2)
Nb10C Nb 0.37661(4) 0.69007(3) 0.69317(2)
Nb11C Nb 0.28122(4) 0.73913(4) 0.67765(2)
O20C O 0.1941(2) 0.6326(3) 0.63394(13)
O21C O 0.1231(4) 0.5944(4) 0.5977(2)
O22C O 0.2320(2) 0.6302(3) 0.68507(14)
O23C O 0.2335(2) 0.7095(3) 0.65756(13)
O30C O 0.2579(3) 0.6286(3) 0.74015(13)
O31C O 0.2598(2) 0.7068(3) 0.70808(12)
O32C O 0.3402(3) 0.6649(3) 0.72055(13)
O33C O 0.4261(3) 0.7051(3) 0.70918(15)
O34C O 0.3399(3) 0.7428(3) 0.69242(14)
O35C O 0.2596(3) 0.7916(3) 0.68311(18)
Cu3C Cu 0.25000 0.75000 0.75000
N7C N 0.2969(4) 0.7180(4) 0.7690(2)
N8C N 0.2988(4) 0.7948(5) 0.7436(2)
N7O N 0.2031(4) 0.7820(4) 0.7310(2)
N8O N 0.2012(4) 0.7052(5) 0.7564(2)
O31O O 0.2402(2) 0.7932(3) 0.79192(12)
C5C C 0.3361(7) 0.7400(7) 0.7718(4)
C6C C 0.3342(6) 0.7812(6) 0.7612(4)
C5O C 0.1639(7) 0.7600(7) 0.7282(4)
C6O C 0.1658(6) 0.7188(6) 0.7388(4)
#END
