
#######################################################################
#
#                 Cambridge Crystallographic Data Centre
#                                CCDC
#
#######################################################################
#
# If this CIF has been generated from an entry in the Cambridge
# Structural Database, then it will include bibliographic, chemical,
# crystal, experimental, refinement or atomic coordinate data resulting
# from the CCDC's data processing and validation procedures.
#
#######################################################################

data_CSD_CIF_OKOQAI01
_audit_creation_date 2017-03-13
_audit_creation_method CSD-ConQuest-V1
_database_code_CSD OKOQAI01
_database_code_depnum_ccdc_archive 'CCDC 1523098'
_chemical_formula_sum 'C27 H26 Ag1 N5 O9 U1'
_chemical_formula_moiety
;
(C20 H16 Ag1 N4 1+)n,n(C7 H10 N1 O9 U1 1-)
;
_journal_coden_Cambridge 1147
_journal_volume 17
_journal_year 2017
_journal_page_first 2116
_journal_name_full 'Cryst.Growth Des. '
loop_
_publ_author_name
"P.Thuery"
"J.Harrowfield"
_chemical_name_systematic
;
catena-[bis(2,2'-bipyridine)-silver 
(\m-heptanedioato)-(nitrato)-dioxo-uranium]
;
_cell_volume   2926.888
_exptl_crystal_colour 'light yellow'
_exptl_crystal_density_diffrn 2.066
_exptl_special_details
;
P-1 polymorph

;
_exptl_crystal_description 'platelet'
_diffrn_ambient_temperature 150
#These two values have been output from a single CSD field.
_refine_ls_R_factor_gt 0.0357
_refine_ls_wR_factor_gt 0.0357
_symmetry_cell_setting triclinic
_symmetry_space_group_name_H-M 'P -1'
_symmetry_Int_Tables_number 2
loop_
_symmetry_equiv_pos_site_id
_symmetry_equiv_pos_as_xyz
1 x,y,z
2 -x,-y,-z
_cell_length_a 12.6023(6)
_cell_length_b 15.8090(13)
_cell_length_c 16.0831(12)
_cell_angle_alpha 88.907(4)
_cell_angle_beta 68.069(4)
_cell_angle_gamma 80.341(5)
_cell_formula_units_Z 4
loop_
_atom_type_symbol
_atom_type_radius_bond
C 0.68
H 0.23
Ag 1.45
N 0.68
O 0.68
U 1.96
loop_
_atom_site_label
_atom_site_type_symbol
_atom_site_fract_x
_atom_site_fract_y
_atom_site_fract_z
U1 U 0.71797(2) 0.40684(2) 0.66549(2)
O1 O 0.7344(4) 0.2939(2) 0.6632(2)
O2 O 0.6996(4) 0.5203(2) 0.6705(2)
O3 O 0.9139(3) 0.4028(2) 0.6617(2)
O4 O 0.8943(3) 0.3970(3) 0.5326(2)
O5 O 1.6714(4) 0.4055(2) 0.5314(2)
O6 O 1.5248(3) 0.4147(2) 0.6609(2)
O7 O 0.5573(4) 0.4120(3) 0.8169(2)
O8 O 0.7292(4) 0.4028(2) 0.8193(2)
O9 O 0.5786(4) 0.4044(3) 0.9452(2)
N1 N 0.6198(5) 0.4064(3) 0.8634(3)
C1 C 0.9601(5) 0.3933(3) 0.5765(3)
C2 C 1.0909(5) 0.3762(4) 0.5281(3)
H1 H 1.11680 0.31390 0.51230
H2 H 1.11090 0.40670 0.47140
C3 C 1.1562(5) 0.4032(3) 0.5806(3)
H3 H 1.13110 0.37740 0.63990
H4 H 1.13740 0.46650 0.59080
C4 C 1.2880(5) 0.3762(4) 0.5325(3)
H5 H 1.30660 0.31290 0.52340
H6 H 1.31230 0.40090 0.47260
C5 C 1.3575(5) 0.4046(3) 0.5833(3)
H7 H 1.33300 0.46710 0.59840
H8 H 1.34060 0.37460 0.64020
C6 C 1.4876(5) 0.3858(3) 0.5290(3)
H9 H 1.50940 0.32440 0.50860
H10 H 1.50410 0.42000 0.47480
C7 C 1.5644(5) 0.4041(3) 0.5767(3)
U2 U 0.31142(2) 0.11425(2) 0.33424(2)
O10 O 0.3478(4) 0.0015(2) 0.3159(2)
O11 O 0.2759(4) 0.2276(2) 0.3486(2)
O12 O 0.5044(3) 0.1161(2) 0.3373(2)
O13 O 0.3625(4) 0.1062(3) 0.4666(2)
O14 O 1.1410(3) 0.1060(2) 0.4699(2)
O15 O 1.1183(3) 0.1034(2) 0.3417(2)
O16 O 0.2875(4) 0.1313(2) 0.1854(2)
O17 O 0.4614(4) 0.1271(2) 0.1807(2)
O18 O 0.4267(4) 0.1457(3) 0.0577(2)
N2 N 0.3920(5) 0.1338(3) 0.1385(3)
C8 C 0.4679(6) 0.1105(3) 0.4219(3)
C9 C 0.5500(5) 0.1129(3) 0.4702(3)
H11 H 0.53210 0.07150 0.51850
H12 H 0.53210 0.17080 0.49960
C10 C 0.6801(5) 0.0932(3) 0.4158(3)
H13 H 0.70250 0.03220 0.39400
H14 H 0.69910 0.12920 0.36290
C11 C 0.7483(5) 0.1104(4) 0.4716(3)
H15 H 0.72630 0.07600 0.52570
H16 H 0.72690 0.17180 0.49190
C12 C 0.8787(5) 0.0890(3) 0.4215(3)
H17 H 0.90040 0.11960 0.36480
H18 H 0.90140 0.02650 0.40590
C13 C 0.9453(5) 0.1141(4) 0.4769(3)
H19 H 0.91350 0.17440 0.49980
H20 H 0.93070 0.07770 0.52950
C14 C 1.0748(5) 0.1059(3) 0.4276(3)
Ag1 Ag 0.07718(4) 0.32672(3) 0.93347(2)
N3 N 0.2614(4) 0.2773(3) 0.8198(3)
N4 N 0.0518(5) 0.2561(3) 0.8204(3)
N5 N 0.1021(4) 0.3537(3) 1.0662(3)
N6 N -0.0838(4) 0.4264(3) 1.0217(3)
C15 C 0.3626(6) 0.2788(4) 0.8269(4)
H21 H 0.36310 0.31520 0.87310
C16 C 0.4680(7) 0.2310(4) 0.7716(4)
H22 H 0.53820 0.23420 0.77960
C17 C 0.4661(7) 0.1787(4) 0.7048(4)
H23 H 0.53600 0.14510 0.66500
C18 C 0.3625(6) 0.1756(4) 0.6962(4)
H24 H 0.36050 0.13960 0.65030
C19 C 0.2605(6) 0.2251(3) 0.7546(3)
C20 C 0.1470(6) 0.2226(3) 0.7495(3)
C21 C 0.1355(6) 0.1858(3) 0.6753(3)
H25 H 0.20240 0.16220 0.62490
C22 C 0.0271(7) 0.1841(4) 0.6762(4)
H26 H 0.01830 0.15870 0.62660
C23 C -0.0691(6) 0.2190(4) 0.7489(4)
H27 H -0.14490 0.21760 0.75050
C24 C -0.0537(6) 0.2560(3) 0.8192(4)
H28 H -0.12010 0.28220 0.86860
C25 C 0.2000(5) 0.3277(4) 1.0809(4)
H29 H 0.25630 0.28330 1.04230
C26 C 0.2233(6) 0.3615(4) 1.1483(4)
H30 H 0.29320 0.34010 1.15720
C27 C 0.1435(6) 0.4270(4) 1.2032(4)
H31 H 0.15790 0.45230 1.25020
C28 C 0.0429(6) 0.4554(4) 1.1893(3)
H32 H -0.01300 0.50090 1.22640
C29 C 0.0230(5) 0.4170(3) 1.1200(3)
C30 C -0.0874(5) 0.4446(3) 1.1043(3)
C31 C -0.1874(5) 0.4838(3) 1.1708(3)
H33 H -0.18720 0.49520 1.22860
C32 C -0.2871(6) 0.5065(3) 1.1552(4)
H34 H -0.35620 0.53420 1.20130
C33 C -0.2861(5) 0.4885(3) 1.0702(4)
H35 H -0.35400 0.50300 1.05670
C34 C -0.1813(5) 0.4483(3) 1.0062(3)
H36 H -0.17910 0.43580 0.94800
Ag2 Ag -0.06295(4) 0.18151(3) 1.05785(3)
N7 N 0.1054(6) 0.1066(3) 0.9556(3)
N8 N -0.1110(7) 0.0937(3) 0.9630(3)
N9 N -0.0891(5) 0.2280(3) 1.1990(3)
N10 N -0.2474(4) 0.2738(3) 1.1193(3)
C35 C 0.2094(8) 0.1080(4) 0.9584(4)
H37 H 0.21380 0.14430 1.00300
C36 C 0.3119(9) 0.0595(5) 0.8996(5)
H38 H 0.38510 0.06150 0.90300
C37 C 0.3003(10) 0.0081(6) 0.8359(5)
H39 H 0.36830 -0.02430 0.79270
C38 C 0.1961(9) 0.0023(5) 0.8329(5)
H40 H 0.19020 -0.03630 0.79080
C39 C 0.0959(8) 0.0549(4) 0.8937(4)
C40 C -0.0223(9) 0.0545(4) 0.8923(4)
C41 C -0.0363(10) 0.0154(4) 0.8218(4)
H41 H 0.02850 -0.01300 0.77260
C42 C -0.1465(10) 0.0193(5) 0.8259(5)
H42 H -0.15870 -0.00670 0.77820
C43 C -0.2417(10) 0.0602(5) 0.8975(5)
H43 H -0.31870 0.06380 0.89970
C44 C -0.2185(9) 0.0950(4) 0.9651(5)
H44 H -0.28230 0.12150 1.01610
C45 C -0.0030(6) 0.2251(3) 1.2280(3)
H45 H 0.06930 0.18980 1.19510
C46 C -0.0134(6) 0.2708(4) 1.3038(3)
H46 H 0.05100 0.26820 1.32140
C47 C -0.1182(6) 0.3201(4) 1.3530(3)
H47 H -0.12800 0.35200 1.40560
C48 C -0.2082(6) 0.3225(3) 1.3251(3)
H48 H -0.28220 0.35500 1.35940
C49 C -0.1925(6) 0.2772(3) 1.2458(3)
C50 C -0.2857(6) 0.2856(3) 1.2097(3)
C51 C -0.4020(6) 0.3097(4) 1.2619(4)
H49 H -0.42640 0.31780 1.32510
C52 C -0.4827(6) 0.3220(3) 1.2222(4)
H50 H -0.56320 0.33630 1.25780
C53 C -0.4452(6) 0.3135(4) 1.1309(4)
H51 H -0.49840 0.32460 1.10130
C54 C -0.3276(6) 0.2881(4) 1.0828(3)
H52 H -0.30220 0.28040 1.01950
U1* U 1.71797(2) 0.40684(2) 0.66549(2)
O5* O 0.6714(4) 0.4055(2) 0.5314(2)
O6* O 0.5248(3) 0.4147(2) 0.6609(2)
U2* U 1.31142(2) 0.11425(2) 0.33424(2)
O14* O 0.1410(3) 0.1060(2) 0.4699(2)
O15* O 0.1183(3) 0.1034(2) 0.3417(2)
#END
