
#######################################################################
#
#                 Cambridge Crystallographic Data Centre
#                                CCDC
#
#######################################################################
#
# If this CIF has been generated from an entry in the Cambridge
# Structural Database, then it will include bibliographic, chemical,
# crystal, experimental, refinement or atomic coordinate data resulting
# from the CCDC's data processing and validation procedures.
#
#######################################################################

data_CSD_CIF_OKUJUB
_audit_creation_date 2016-04-12
_audit_creation_method CSD-ConQuest-V1
_database_code_CSD OKUJUB
_database_code_depnum_ccdc_archive 'CCDC 1439995'
_chemical_formula_sum 'C171 H198 B6 N22 O42 Zn10'
_chemical_formula_moiety
;
(C153 H150 B6 N19 O42 Zn10 3-)n,2n(C8 H20 N1 1+),n(C2 H8 N1 1+)
;
_journal_coden_Cambridge 9
_journal_volume 55
_journal_year 2016
_journal_page_first 4006
_journal_name_full 'Inorg.Chem. '
loop_
_publ_author_name
"M.Marmier"
"M.D.Wise"
"J.J.Holstein"
"P.Pattinson"
"Kurt Schenk"
"E.Solari"
"R.Scopelliti"
"K.Severin"
_chemical_name_systematic
;
catena-[dimethylammonium bis(tetraethylammonium) 
(\m-oxo)-tris(\m-4,4'-(7,19,30-tri-t-butyl-36,37,38-trioxido-2,12,14,24,25,35-
hexaoxa-3,11,15,23,26,34-hexaaza-1,13-diboratapentacyclo[11.11.11.1^5,9^.1^17,
21^.1^28,32^]octatriaconta-3,5(38),6,8,10,15,17(37),18,20,22,26,28(36),29,31,3
3-pentadecaene-1,13-diyl)dibenzoato)-aqua-(N,N-dimethylformamide)-deca-zinc 
unknown solvate]
;
_cell_volume  77830.830
_exptl_crystal_colour 'yellow'
_exptl_crystal_description 'prism'
_exptl_crystal_preparation 'N,N-dimethylformamide/dichlorobenzene'
_diffrn_ambient_temperature 100
_diffrn_radiation_probe x-ray
_diffrn_source synchrotron
_refine_special_details
;
The structure is disordered; Disordered solvent molecules were not modelled 
and the disordered density was taken into account using the SQUEEZE/PLATON 
procedure.
;
#These two values have been output from a single CSD field.
_refine_ls_R_factor_gt 0.1118
_refine_ls_wR_factor_gt 0.1118
_symmetry_cell_setting monoclinic
_symmetry_space_group_name_H-M 'C 2/c'
_symmetry_Int_Tables_number 15
loop_
_symmetry_equiv_pos_site_id
_symmetry_equiv_pos_as_xyz
1 x,y,z
2 -x,y,1/2-z
3 1/2+x,1/2+y,z
4 1/2-x,1/2+y,1/2-z
5 -x,-y,-z
6 x,-y,-1/2+z
7 -1/2-x,-1/2-y,-z
8 -1/2+x,-1/2-y,-1/2+z
_cell_length_a 35.8409(2)
_cell_length_b 42.7516(2)
_cell_length_c 50.8130(5)
_cell_angle_alpha 90
_cell_angle_beta 91.528(1)
_cell_angle_gamma 90
_cell_formula_units_Z 4
loop_
_atom_type_symbol
_atom_type_radius_bond
C 0.68
H 0.23
B 0.83
N 0.68
O 0.68
Zn 1.22
loop_
_atom_site_label
_atom_site_type_symbol
_atom_site_fract_x
_atom_site_fract_y
_atom_site_fract_z
Zn1 Zn 0.38589(3) 0.40853(2) 0.19797(3)
Zn2 Zn 0.43392(3) 0.35294(2) 0.19631(2)
Zn3 Zn -0.14252(3) 0.35585(3) 0.19508(3)
Zn4 Zn -0.08986(3) 0.40824(2) 0.19212(2)
Zn5 Zn 0.14387(4) 0.47468(3) 0.46581(2)
Zn6 Zn 0.14425(3) 0.50890(3) 0.41570(2)
Zn7 Zn 0.10391(2) 0.62328(2) 0.21151(2)
Zn8 Zn 0.15309(3) 0.58240(2) 0.17263(2)
Zn9 Zn 0.19219(2) 0.62564(2) 0.21532(2)
Zn10 Zn 0.14734(2) 0.65473(2) 0.16586(2)
O1 O 0.14930(11) 0.62221(9) 0.19211(9)
O2 O 0.1645(4) 0.5487(3) 0.1416(3)
C1 C 0.5116(2) 0.26552(16) 0.19444(17)
C2 C 0.5100(3) 0.24141(18) 0.21315(19)
H1 H 0.49310 0.24340 0.22710
C3 C 0.5321(3) 0.21493(18) 0.21208(18)
H2 H 0.53070 0.19950 0.22550
C4 C 0.5564(2) 0.21080(15) 0.19163(16)
C5 C 0.5592(2) 0.23448(16) 0.17305(17)
H3 H 0.57590 0.23220 0.15900
C6 C 0.5378(2) 0.26133(17) 0.17476(18)
H4 H 0.54100 0.27750 0.16220
B1 B 0.4852(3) 0.2958(2) 0.1953(2)
O3 O 0.45397(18) 0.28962(15) 0.17588(15)
N1 N 0.4281(2) 0.31302(19) 0.17229(18)
C7 C 0.4047(3) 0.3073(2) 0.1539(2)
H5 H 0.40720 0.28770 0.14530
C8 C 0.3746(3) 0.3272(2) 0.1443(2)
C9 C 0.3660(3) 0.3563(2) 0.1565(2)
C10 C 0.3346(3) 0.3732(2) 0.1451(2)
C11 C 0.3154(4) 0.3626(3) 0.1225(3)
H6 H 0.29570 0.37490 0.11510
C12 C 0.3246(3) 0.3346(3) 0.1106(2)
C13 C 0.3541(4) 0.3175(3) 0.1219(3)
H7 H 0.36060 0.29820 0.11390
C14 C 0.3225(3) 0.4021(3) 0.1563(2)
H8 H 0.29980 0.41060 0.14940
N2 N 0.3389(3) 0.4176(2) 0.1744(2)
O4 O 0.3193(2) 0.44437(19) 0.17939(18)
B2 B 0.3346(3) 0.4662(2) 0.1990(3)
O5 O 0.50798(17) 0.32215(13) 0.18672(15)
N3 N 0.49050(18) 0.35155(14) 0.18704(17)
C15 C 0.5133(2) 0.37312(16) 0.1816(2)
H9 H 0.53810 0.36680 0.17810
C16 C 0.5057(2) 0.40669(16) 0.1802(2)
C17 C 0.4695(2) 0.41916(17) 0.1838(2)
C18 C 0.4658(2) 0.45201(18) 0.1823(2)
C19 C 0.4977(2) 0.4710(2) 0.1790(3)
H10 H 0.49470 0.49300 0.17900
C20 C 0.5332(2) 0.45875(19) 0.1757(3)
C21 C 0.5356(2) 0.42636(18) 0.1753(3)
H11 H 0.55890 0.41710 0.17140
C22 C 0.4311(2) 0.4688(2) 0.1859(2)
H12 H 0.43140 0.49090 0.18390
N4 N 0.4004(2) 0.45597(18) 0.1916(2)
O6 O 0.37154(19) 0.47845(16) 0.19392(18)
O7 O 0.47249(18) 0.29850(14) 0.22213(14)
N5 N 0.4482(2) 0.32243(16) 0.22748(15)
C23 C 0.4384(2) 0.32137(19) 0.25124(17)
H13 H 0.44930 0.30540 0.26200
C24 C 0.4119(2) 0.34232(17) 0.26364(16)
C25 C 0.3964(2) 0.36876(17) 0.25007(17)
C26 C 0.3706(2) 0.38767(18) 0.26430(16)
C27 C 0.3610(3) 0.3790(2) 0.28976(17)
H14 H 0.34320 0.39140 0.29850
C28 C 0.3759(2) 0.3534(2) 0.30294(15)
C29 C 0.4018(2) 0.3354(2) 0.28961(16)
H15 H 0.41300 0.31790 0.29830
C30 C 0.3531(3) 0.4153(2) 0.25307(19)
H16 H 0.33790 0.42720 0.26440
N6 N 0.3560(2) 0.4254(2) 0.22976(18)
O8 O 0.3342(2) 0.45220(18) 0.22571(17)
C31 C 0.3051(2) 0.49403(17) 0.19999(18)
C32 C 0.25200(19) 0.54311(16) 0.20178(18)
C33 C 0.5802(2) 0.18190(16) 0.19002(17)
O9 O 0.57731(16) 0.16238(13) 0.20815(13)
O10 O 0.60243(16) 0.18103(12) 0.17120(12)
O11 O 0.3834(2) 0.36583(17) 0.17686(17)
C34 C 0.3037(4) 0.3226(4) 0.0859(3)
O12 O 0.44134(17) 0.40084(14) 0.18847(16)
C35 C 0.5680(3) 0.4795(3) 0.1734(3)
C36 C 0.5942(4) 0.4764(4) 0.1987(3)
H17 H 0.58130 0.48460 0.21400
H18 H 0.60060 0.45440 0.20160
H19 H 0.61710 0.48850 0.19620
C37 C 0.5940(4) 0.4659(4) 0.1542(4)
H20 H 0.59690 0.44350 0.15770
H21 H 0.58390 0.46900 0.13630
H22 H 0.61830 0.47620 0.15610
C38 C 0.5581(4) 0.5136(3) 0.1729(4)
H23 H 0.54070 0.51810 0.18700
H24 H 0.58080 0.52610 0.17560
H25 H 0.54640 0.51890 0.15580
O13 O 0.40533(17) 0.37603(14) 0.22612(14)
C39 C 0.3642(3) 0.3449(3) 0.33082(16)
C40 C 0.2237(2) 0.56839(18) 0.2037(2)
O14 O 0.19085(17) 0.56142(15) 0.19611(18)
O15 O 0.23229(15) 0.59485(13) 0.21289(14)
C41 C 0.2759(4) 0.4966(3) 0.1809(3)
H26 H 0.27410 0.48180 0.16710
C42 C 0.2497(4) 0.5204(3) 0.1820(3)
H27 H 0.23000 0.52130 0.16920
C43 C 0.2814(3) 0.5418(3) 0.2201(3)
H28 H 0.28400 0.55740 0.23330
C44 C 0.3068(4) 0.5175(3) 0.2189(3)
H29 H 0.32660 0.51690 0.23170
C45 C 0.3943(5) 0.3491(7) 0.3516(4)
H30 H 0.41770 0.34000 0.34540
H31 H 0.39790 0.37140 0.35510
H32 H 0.38700 0.33850 0.36780
C46 C 0.3567(7) 0.3087(4) 0.3315(5)
H33 H 0.33710 0.30340 0.31850
H34 H 0.37970 0.29740 0.32750
H35 H 0.34870 0.30270 0.34910
C47 C 0.3268(5) 0.3582(6) 0.3385(5)
H36 H 0.30850 0.35470 0.32410
H37 H 0.31850 0.34780 0.35440
H38 H 0.32940 0.38070 0.34180
C48 C 0.3289(6) 0.3250(5) 0.0620(3)
H39 H 0.35230 0.31380 0.06570
H40 H 0.31610 0.31560 0.04660
H41 H 0.33420 0.34700 0.05830
C49 C 0.2672(5) 0.3398(5) 0.0803(4)
H42 H 0.25510 0.33130 0.06430
H43 H 0.25070 0.33720 0.09520
H44 H 0.27230 0.36210 0.07770
C50 C 0.2960(6) 0.2874(4) 0.0893(4)
H45 H 0.31960 0.27640 0.09290
H46 H 0.27930 0.28430 0.10400
H47 H 0.28420 0.27920 0.07310
C51 C 0.1404(3) 0.4217(2) 0.54612(14)
C52 C 0.1373(3) 0.3937(2) 0.59645(14)
B3 B 0.1436(3) 0.4389(3) 0.51853(18)
O16 O 0.1418(2) 0.47199(19) 0.52490(13)
N7 N 0.1395(3) 0.4934(2) 0.50412(16)
C53 C 0.1380(3) 0.5213(2) 0.51192(19)
H48 H 0.13820 0.52460 0.53040
C54 C 0.1360(3) 0.54887(19) 0.49532(16)
C55 C 0.1370(3) 0.5477(2) 0.46725(15)
C56 C 0.1340(3) 0.5767(2) 0.45350(15)
C57 C 0.1292(4) 0.6042(2) 0.46792(17)
H49 H 0.12600 0.62320 0.45840
C58 C 0.1289(4) 0.6056(2) 0.49478(18)
C59 C 0.1318(4) 0.5778(2) 0.5083(2)
H50 H 0.13090 0.57800 0.52700
C60 C 0.1359(3) 0.5794(2) 0.42539(15)
H51 H 0.13390 0.60000 0.41840
N8 N 0.1398(2) 0.55772(17) 0.40880(14)
O17 O 0.1407(2) 0.56835(16) 0.38337(12)
B4 B 0.1457(3) 0.5446(2) 0.36304(17)
O18 O 0.1112(2) 0.42846(19) 0.50317(13)
N9 N 0.1052(2) 0.4416(2) 0.47851(15)
C61 C 0.0727(3) 0.4355(2) 0.46934(17)
H52 H 0.05710 0.42280 0.47980
C62 C 0.0577(2) 0.4462(2) 0.44447(15)
C63 C 0.0780(3) 0.4643(2) 0.42574(16)
C64 C 0.0581(2) 0.4732(2) 0.40216(16)
C65 C 0.0203(2) 0.4655(2) 0.39872(18)
H53 H 0.00750 0.47220 0.38310
C66 C 0.0005(2) 0.4484(2) 0.41702(17)
C67 C 0.0199(2) 0.4390(3) 0.43926(17)
H54 H 0.00700 0.42690 0.45180
C68 C 0.0748(2) 0.4920(2) 0.38172(17)
H55 H 0.06100 0.49440 0.36560
N10 N 0.1063(2) 0.50542(19) 0.38373(15)
O19 O 0.1147(2) 0.52119(17) 0.36128(13)
C69 C 0.1458(2) 0.56220(19) 0.33514(13)
C70 C 0.1137(2) 0.5641(2) 0.31886(15)
H56 H 0.09150 0.55410 0.32420
C71 C 0.1136(2) 0.5803(2) 0.29512(15)
H57 H 0.09120 0.58210 0.28480
C72 C 0.1462(2) 0.59388(18) 0.28644(13)
C73 C 0.1786(2) 0.5916(2) 0.30171(15)
H58 H 0.20100 0.60090 0.29600
C74 C 0.1781(2) 0.5757(2) 0.32556(15)
H59 H 0.20070 0.57390 0.33570
C75 C 0.1365(3) 0.3808(2) 0.62373(16)
O20 O 0.14858(19) 0.35353(18) 0.62776(12)
O21 O 0.1200(2) 0.3956(2) 0.64072(14)
O22 O 0.1379(2) 0.52162(16) 0.45522(12)
C76 C 0.1240(4) 0.6370(2) 0.5089(2)
O23 O 0.1122(2) 0.47147(18) 0.42989(13)
C77 C -0.0407(2) 0.4392(3) 0.4133(2)
C78 C -0.0457(4) 0.4034(3) 0.4157(3)
H60 H -0.03570 0.39630 0.43280
H61 H -0.07220 0.39810 0.41400
H62 H -0.03210 0.39300 0.40160
C79 C -0.0633(4) 0.4538(4) 0.4355(2)
H63 H -0.05230 0.44770 0.45260
H64 H -0.06290 0.47660 0.43390
H65 H -0.08920 0.44640 0.43420
C80 C -0.0566(3) 0.4479(4) 0.3867(2)
H66 H -0.04160 0.43820 0.37300
H67 H -0.08240 0.44040 0.38500
H68 H -0.05610 0.47070 0.38470
C81 C 0.1464(2) 0.60984(19) 0.26006(14)
O24 O 0.11526(18) 0.61289(17) 0.24811(12)
O25 O 0.17775(16) 0.61917(14) 0.25214(11)
O26 O 0.1748(5) 0.4262(4) 0.5032(3)
C82 C 0.1520(5) 0.3777(3) 0.5756(2)
H69 H 0.16120 0.35710 0.57810
C83 C 0.1535(5) 0.3916(3) 0.5510(2)
H70 H 0.16380 0.38010 0.53690
C84 C 0.1241(5) 0.4370(3) 0.5674(2)
H71 H 0.11360 0.45710 0.56460
C85 C 0.1227(5) 0.4239(3) 0.5923(2)
H72 H 0.11210 0.43520 0.60630
N11 N 0.1821(5) 0.4417(5) 0.4807(4)
C86 C 0.2113(5) 0.4305(5) 0.4708(3)
H73 H 0.22420 0.41440 0.48030
C87 C 0.2263(4) 0.4405(4) 0.4460(3)
C88 C 0.2092(5) 0.4635(4) 0.4290(3)
C89 C 0.2263(4) 0.4692(4) 0.4043(3)
C90 C 0.2590(5) 0.4532(4) 0.3977(3)
H74 H 0.26950 0.45690 0.38100
C91 C 0.2760(4) 0.4323(4) 0.4148(3)
C92 C 0.2594(5) 0.4262(5) 0.4384(3)
H75 H 0.27100 0.41160 0.45010
C93 C 0.2120(5) 0.4910(4) 0.3848(3)
H76 H 0.22570 0.49300 0.36910
N12 N 0.1830(5) 0.5077(5) 0.3866(4)
O27 O 0.1781(5) 0.5244(4) 0.3639(4)
O28 O 0.1807(6) 0.4783(7) 0.4359(6)
C94 C 0.3128(4) 0.4166(5) 0.4077(4)
C95 C 0.3036(8) 0.3817(5) 0.4077(6)
H77 H 0.29660 0.37520 0.42540
H78 H 0.28280 0.37760 0.39520
H79 H 0.32550 0.36980 0.40240
C96 C 0.3435(6) 0.4244(7) 0.4279(5)
H80 H 0.33590 0.41750 0.44540
H81 H 0.36650 0.41350 0.42330
H82 H 0.34780 0.44700 0.42810
C97 C 0.3238(8) 0.4269(7) 0.3804(4)
H83 H 0.30370 0.42170 0.36770
H84 H 0.32800 0.44950 0.38040
H85 H 0.34670 0.41610 0.37560
C98 C -0.2243(2) 0.27126(18) 0.19831(19)
C99 C -0.2191(3) 0.24677(19) 0.2162(2)
H86 H -0.19990 0.24870 0.22930
C100 C -0.2405(3) 0.22006(18) 0.21580(19)
H87 H -0.23630 0.20420 0.22870
C101 C -0.2684(2) 0.21636(15) 0.19642(16)
C102 C -0.2752(2) 0.24060(16) 0.17872(18)
H88 H -0.29470 0.23890 0.16570
C103 C -0.2535(2) 0.26718(18) 0.18018(19)
H89 H -0.25890 0.28360 0.16810
B5 B -0.1970(3) 0.3010(2) 0.1979(3)
O29 O -0.2208(2) 0.32932(16) 0.19656(18)
N13 N -0.2016(2) 0.35825(16) 0.1946(2)
C104 C -0.2239(3) 0.38130(17) 0.1949(2)
H90 H -0.24970 0.37680 0.19680
C105 C -0.2134(2) 0.41376(16) 0.19279(19)
C106 C -0.1761(2) 0.42374(17) 0.18964(19)
C107 C -0.17022(18) 0.45658(16) 0.18668(17)
C108 C -0.20075(18) 0.47757(18) 0.18702(19)
H91 H -0.19620 0.49930 0.18500
C109 C -0.23692(18) 0.46731(16) 0.19016(19)
C110 C -0.2426(2) 0.43531(17) 0.1927(2)
H92 H -0.26730 0.42780 0.19440
C111 C -0.13315(18) 0.47029(18) 0.18506(18)
H93 H -0.13220 0.49220 0.18220
N14 N -0.10203(17) 0.45645(15) 0.18698(16)
O30 O -0.07215(15) 0.47662(13) 0.18552(14)
B6 B -0.0343(2) 0.4630(2) 0.1890(2)
O31 O -0.1764(2) 0.29622(17) 0.17433(18)
N15 N -0.1486(3) 0.3180(2) 0.16957(19)
C112 C -0.1325(3) 0.3121(2) 0.1482(2)
H94 H -0.14060 0.29390 0.13900
C113 C -0.1033(3) 0.3302(2) 0.13654(19)
C114 C -0.0881(3) 0.3576(2) 0.14841(19)
C115 C -0.0613(3) 0.37436(19) 0.13328(17)
C116 C -0.0507(3) 0.3635(2) 0.10865(19)
H95 H -0.03260 0.37500 0.09930
C117 C -0.0655(3) 0.3366(2) 0.09725(18)
C118 C -0.0913(4) 0.3207(3) 0.1119(2)
H96 H -0.10160 0.30200 0.10470
C119 C -0.0441(3) 0.40291(19) 0.14246(18)
H97 H -0.02710 0.41240 0.13090
N16 N -0.0488(2) 0.41681(16) 0.16396(15)
O32 O -0.02547(17) 0.44172(15) 0.16732(14)
O33 O -0.1753(2) 0.30011(17) 0.22242(18)
N17 N -0.1497(3) 0.3244(2) 0.22597(19)
C120 C -0.1349(3) 0.3236(2) 0.2488(2)
H98 H -0.14350 0.30750 0.26000
C121 C -0.1068(3) 0.3441(2) 0.26007(17)
C122 C -0.0920(3) 0.3696(2) 0.24513(19)
C123 C -0.0654(3) 0.3891(2) 0.25843(16)
C124 C -0.0546(3) 0.3828(2) 0.28459(18)
C125 C -0.0944(3) 0.3394(3) 0.28597(19)
C126 C -0.0479(3) 0.4161(2) 0.24598(17)
H99 H -0.03260 0.42910 0.25690
N18 N -0.0514(2) 0.42343(17) 0.22179(15)
O34 O -0.02820(17) 0.44841(14) 0.21524(13)
C127 C -0.00534(18) 0.49142(15) 0.18908(17)
C128 C -0.0115(2) 0.51961(17) 0.2020(2)
H100 H -0.03460 0.52270 0.21040
C129 C 0.01489(19) 0.54322(18) 0.20287(19)
H101 H 0.00980 0.56220 0.21180
C130 C 0.04888(18) 0.53924(15) 0.19076(16)
C131 C 0.0555(2) 0.51200(16) 0.17729(18)
H102 H 0.07830 0.50930 0.16840
C132 C 0.02885(19) 0.48849(17) 0.17665(18)
H103 H 0.03400 0.46970 0.16740
C133 C -0.2898(2) 0.18650(16) 0.19350(16)
O35 O -0.28412(15) 0.16651(12) 0.21125(11)
O36 O -0.31244(16) 0.18449(12) 0.17429(11)
O37 O -0.14884(17) 0.40421(14) 0.18890(15)
C134 C -0.2698(2) 0.48983(19) 0.1919(2)
O38 O -0.09940(19) 0.36785(15) 0.17004(15)
C135 C -0.0527(4) 0.3249(3) 0.0704(2)
O39 O -0.1020(2) 0.37411(16) 0.22078(15)
C136 C 0.07818(19) 0.56436(16) 0.19207(17)
O40 O 0.06901(14) 0.59035(12) 0.20123(12)
O41 O 0.10982(15) 0.55750(13) 0.18503(15)
C137 C -0.0657(4) 0.3563(3) 0.2981(2)
C138 C -0.2782(8) 0.5100(6) 0.1684(5)
H104 H -0.25500 0.51880 0.16200
H105 H -0.29030 0.49740 0.15450
H106 H -0.29500 0.52700 0.17340
C139 C -0.2586(8) 0.5127(6) 0.2154(5)
H107 H -0.25280 0.50040 0.23120
H108 H -0.23670 0.52490 0.21070
H109 H -0.27940 0.52680 0.21870
C140 C -0.3056(5) 0.4762(6) 0.2020(7)
H110 H -0.29990 0.46300 0.21730
H111 H -0.32230 0.49310 0.20700
H112 H -0.31760 0.46350 0.18810
C141 C -0.0740(7) 0.2966(5) 0.0595(5)
H113 H -0.07370 0.27990 0.07260
H114 H -0.09990 0.30260 0.05530
H115 H -0.06210 0.28930 0.04350
C142 C -0.0129(5) 0.3126(6) 0.0772(5)
H116 H 0.00240 0.32970 0.08440
H117 H -0.01430 0.29580 0.09020
H118 H -0.00160 0.30450 0.06120
C143 C -0.0517(9) 0.3524(5) 0.0513(4)
H119 H -0.03770 0.36970 0.05940
H120 H -0.03940 0.34580 0.03510
H121 H -0.07720 0.35920 0.04690
C144 C -0.0439(5) 0.3437(4) 0.3223(3)
C145 C -0.0592(8) 0.3130(5) 0.3322(5)
H122 H -0.05690 0.29700 0.31850
H123 H -0.04500 0.30650 0.34810
H124 H -0.08550 0.31560 0.33640
C146 C -0.0473(8) 0.3688(6) 0.3434(4)
H125 H -0.03740 0.38860 0.33690
H126 H -0.07370 0.37150 0.34760
H127 H -0.03320 0.36240 0.35930
C147 C -0.0026(5) 0.3377(6) 0.3176(5)
H128 H 0.00900 0.35690 0.31110
H129 H 0.00990 0.33130 0.33410
H130 H -0.00010 0.32110 0.30450
N19 N 0.2440(4) 0.6191(4) 0.1230(3)
C148 C 0.2463(6) 0.6516(5) 0.1303(5)
H131 H 0.26430 0.66220 0.11920
H132 H 0.22180 0.66140 0.12790
H133 H 0.25450 0.65340 0.14880
C149 C 0.2669(6) 0.6102(6) 0.1015(4)
H134 H 0.28110 0.62840 0.09570
H135 H 0.28410 0.59360 0.10720
H136 H 0.25100 0.60260 0.08690
C150 C 0.2206(4) 0.6001(4) 0.1359(3)
H137 H 0.21860 0.57920 0.12980
O42 O 0.2025(3) 0.6069(3) 0.1543(2)
C151 C 0.0922(8) 0.6363(6) 0.5285(5)
H138 H 0.09560 0.61830 0.54020
H139 H 0.09250 0.65560 0.53880
H140 H 0.06830 0.63440 0.51880
C152 C 0.1184(10) 0.6652(4) 0.4906(4)
H141 H 0.13860 0.66590 0.47800
H142 H 0.09440 0.66330 0.48110
H143 H 0.11860 0.68440 0.50110
C153 C 0.1613(6) 0.6440(6) 0.5239(5)
H144 H 0.16700 0.62690 0.53620
H145 H 0.18140 0.64590 0.51130
H146 H 0.15910 0.66360 0.53370
N20 N 0.1970(5) 0.3910(4) 0.3926(4)
C154 C 0.1803(7) 0.4221(5) 0.3837(5)
H147 H 0.18590 0.43740 0.39790
H148 H 0.19410 0.42890 0.36810
C155 C 0.1415(6) 0.4249(5) 0.3771(4)
H149 H 0.13600 0.44650 0.37190
H150 H 0.13510 0.41080 0.36250
H151 H 0.12680 0.41940 0.39240
C156 C 0.1748(8) 0.3753(6) 0.4137(5)
H152 H 0.15360 0.36440 0.40500
H153 H 0.19090 0.35910 0.42210
C157 C 0.1600(9) 0.3943(8) 0.4344(5)
H154 H 0.14640 0.38100 0.44660
H155 H 0.18060 0.40470 0.44400
H156 H 0.14310 0.41000 0.42680
C158 C 0.2372(6) 0.3972(6) 0.4015(5)
H157 H 0.23730 0.41200 0.41650
H158 H 0.24850 0.37730 0.40790
C159 C 0.2604(7) 0.4103(6) 0.3803(6)
H159 H 0.28590 0.41380 0.38720
H160 H 0.26090 0.39550 0.36560
H161 H 0.24970 0.43020 0.37420
C160 C 0.1986(9) 0.3730(6) 0.3672(4)
H162 H 0.21110 0.38560 0.35360
H163 H 0.17310 0.36770 0.36070
C161 C 0.2212(9) 0.3427(6) 0.3732(5)
H164 H 0.22300 0.33030 0.35710
H165 H 0.24640 0.34830 0.37960
H166 H 0.20870 0.33050 0.38660
N21 N 0.1557(8) 0.4741(5) 0.2248(5)
C162 C 0.1857(10) 0.4535(7) 0.2377(7)
H167 H 0.20890 0.45600 0.22790
H168 H 0.19070 0.46130 0.25580
C163 C 0.1767(13) 0.4189(6) 0.2393(7)
H169 H 0.19760 0.40780 0.24790
H170 H 0.15420 0.41590 0.24950
H171 H 0.17250 0.41050 0.22150
C164 C 0.1279(10) 0.4726(9) 0.2465(6)
H172 H 0.11990 0.45060 0.24890
H173 H 0.14010 0.47960 0.26320
C165 C 0.0942(11) 0.4924(10) 0.2408(6)
H174 H 0.07700 0.49070 0.25540
H175 H 0.10180 0.51430 0.23880
H176 H 0.08170 0.48520 0.22450
C166 C 0.1647(13) 0.5086(6) 0.2284(6)
H177 H 0.18430 0.51340 0.21560
H178 H 0.14210 0.52010 0.22230
C167 C 0.1767(12) 0.5232(6) 0.2528(5)
H179 H 0.18070 0.54560 0.24990
H180 H 0.15740 0.52030 0.26600
H181 H 0.20000 0.51350 0.25920
C168 C 0.1349(10) 0.4667(8) 0.1998(6)
H182 H 0.11770 0.44950 0.20430
H183 H 0.11890 0.48510 0.19620
C169 C 0.1496(15) 0.4579(10) 0.1740(6)
H184 H 0.12880 0.45450 0.16140
H185 H 0.16550 0.47480 0.16760
H186 H 0.16430 0.43870 0.17580
N22 N 0.4969(9) 0.4302(4) 0.2566(5)
H187 H 0.47560 0.43810 0.24900
H188 H 0.49460 0.43200 0.27430
C170 C 0.499(3) 0.3963(4) 0.250(2)
H189 H 0.47630 0.38580 0.25630
H190 H 0.50020 0.39380 0.23100
H191 H 0.52090 0.38710 0.25870
C171 C 0.5275(8) 0.4497(7) 0.2490(6)
H192 H 0.52280 0.47130 0.25450
H193 H 0.55060 0.44220 0.25760
H194 H 0.52990 0.44890 0.22990
C172? C 0.2679(3) 0.4895(3) 0.1918(3)
H195? H 0.26030 0.46960 0.18540
C173? C 0.2417(3) 0.5133(2) 0.1929(3)
H196? H 0.21660 0.50940 0.18750
C174? C 0.2878(3) 0.5472(3) 0.2120(3)
H197? H 0.29490 0.56660 0.21960
C175? C 0.3134(3) 0.5230(2) 0.2111(3)
H198? H 0.33780 0.52630 0.21850
C176? C 0.3881(5) 0.3204(5) 0.3438(4)
H199? H 0.41440 0.32650 0.34310
H200? H 0.38110 0.31810 0.36220
H201? H 0.38440 0.30040 0.33470
C177? C 0.3227(4) 0.3377(6) 0.3309(4)
H202? H 0.30890 0.35470 0.32210
H203? H 0.31790 0.31800 0.32150
H204? H 0.31460 0.33580 0.34900
C178? C 0.3723(6) 0.3744(4) 0.3482(4)
H205? H 0.35780 0.39210 0.34120
H206? H 0.36520 0.37020 0.36630
H207? H 0.39890 0.37940 0.34790
O43? O 0.1825(4) 0.4368(4) 0.5092(3)
C179? C 0.1104(4) 0.4263(4) 0.5625(2)
H208? H 0.09030 0.43910 0.55640
C180? C 0.1086(4) 0.4130(4) 0.5872(2)
H209? H 0.08780 0.41700 0.59790
C181? C 0.1662(4) 0.3864(4) 0.5797(2)
H210? H 0.18480 0.37170 0.58510
C182? C 0.1677(4) 0.4006(4) 0.5553(2)
H211? H 0.18800 0.39590 0.54430
N23? N 0.1903(4) 0.4514(5) 0.4848(3)
C183? C 0.2242(4) 0.4470(4) 0.4792(3)
H212? H 0.23940 0.43560 0.49150
C184? C 0.2417(4) 0.4581(4) 0.4554(3)
C185? C 0.2220(4) 0.4764(4) 0.4357(3)
C186? C 0.2432(3) 0.4883(4) 0.4143(3)
C187? C 0.2814(4) 0.4813(4) 0.4130(3)
H213? H 0.29520 0.48990 0.39900
C188? C 0.2997(3) 0.4620(4) 0.4315(3)
C189? C 0.2795(4) 0.4514(4) 0.4525(3)
H214? H 0.29200 0.43910 0.46560
C190? C 0.2264(4) 0.5061(4) 0.3930(3)
H215? H 0.24280 0.51370 0.38000
N24? N 0.1921(4) 0.5128(4) 0.3898(4)
O44? O 0.1836(4) 0.5310(4) 0.3679(3)
O45? O 0.1866(5) 0.4811(7) 0.4366(5)
C191? C 0.3407(4) 0.4535(5) 0.4273(4)
C192? C 0.3585(7) 0.4369(7) 0.4504(4)
H216? H 0.35530 0.44940 0.46640
H217? H 0.34670 0.41640 0.45260
H218? H 0.38520 0.43410 0.44740
C193? C 0.3628(6) 0.4840(5) 0.4240(5)
H219? H 0.35220 0.49580 0.40900
H220? H 0.36120 0.49670 0.44000
H221? H 0.38900 0.47910 0.42070
C194? C 0.3439(7) 0.4362(6) 0.4011(4)
H222? H 0.33170 0.44850 0.38710
H223? H 0.37040 0.43340 0.39720
H224? H 0.33180 0.41570 0.40230
C195? C 0.0844(6) 0.6497(7) 0.5009(6)
H225? H 0.08260 0.65210 0.48170
H226? H 0.06540 0.63490 0.50660
H227? H 0.08050 0.67000 0.50930
C196? C 0.1518(9) 0.6618(6) 0.5010(6)
H228? H 0.15140 0.66380 0.48170
H229? H 0.14510 0.68190 0.50880
H230? H 0.17690 0.65570 0.50720
C197? C 0.1246(11) 0.6340(7) 0.5386(3)
H231? H 0.10660 0.61800 0.54370
H232? H 0.14970 0.62800 0.54480
H233? H 0.11790 0.65410 0.54640
C198? C -0.3000(4) 0.4798(4) 0.1709(3)
H234? H -0.30790 0.45830 0.17430
H235? H -0.32160 0.49380 0.17180
H236? H -0.28960 0.48110 0.15330
C199? C -0.2598(5) 0.5229(3) 0.1848(4)
H237? H -0.24770 0.52310 0.16770
H238? H -0.28260 0.53570 0.18360
H239? H -0.24280 0.53160 0.19830
C200? C -0.2888(5) 0.4883(4) 0.2183(3)
H240? H -0.29490 0.46650 0.22230
H241? H -0.27200 0.49670 0.23210
H242? H -0.31180 0.50080 0.21740
C201? C -0.0442(12) 0.2899(4) 0.0717(7)
H243? H -0.06570 0.27870 0.07870
H244? H -0.03910 0.28210 0.05400
H245? H -0.02230 0.28630 0.08330
C202? C -0.0199(9) 0.3433(8) 0.0597(7)
H246? H -0.02620 0.36560 0.05910
H247? H 0.00220 0.34020 0.07120
H248? H -0.01470 0.33600 0.04190
C203? C -0.0843(8) 0.3300(9) 0.0495(5)
H249? H -0.09030 0.35230 0.04830
H250? H -0.07610 0.32250 0.03230
H251? H -0.10660 0.31830 0.05450
C204? C -0.0715(4) 0.3601(3) 0.2996(2)
C205? C -0.0714(6) 0.3623(5) 0.3297(2)
C206? C -0.083(1) 0.3317(6) 0.3420(5)
H252? H -0.10780 0.32570 0.33510
H253? H -0.06490 0.31540 0.33770
H254? H -0.08380 0.33410 0.36120
C207? C -0.0331(7) 0.3740(8) 0.3390(6)
H255? H -0.02760 0.39380 0.33030
H256? H -0.03300 0.37720 0.35810
H257? H -0.01410 0.35850 0.33470
C208? C -0.1001(8) 0.3858(7) 0.3401(5)
H258? H -0.09490 0.40660 0.33310
H259? H -0.12530 0.37930 0.33440
H260? H -0.09840 0.38630 0.35940
Zn7B Zn 0.60391(2) 0.12328(2) 0.21151(2)
Zn8E Zn 0.15309(3) 0.41760(2) 0.67263(2)
Zn9B Zn -0.30781(2) 0.12564(2) 0.21532(2)
Zn10B Zn -0.35266(2) 0.15473(2) 0.16586(2)
Zn10B* Zn 0.64734(2) 0.15473(2) 0.16586(2)
Zn10E Zn 0.14734(2) 0.34527(2) 0.66586(2)
O9B O 0.07731(16) 0.66238(13) 0.20815(13)
O10B O 0.10243(16) 0.68103(12) 0.17120(12)
O20E O 0.14858(19) 0.64647(18) 0.12776(12)
O21E O 0.1200(2) 0.6044(2) 0.14072(14)
O35B O 0.21588(15) 0.66651(12) 0.21125(11)
O36B O 0.18756(16) 0.68449(12) 0.17429(11)
N22A N 0.5031(9) 0.4302(4) 0.2434(5)
H187A H 0.52440 0.43810 0.25100
H188A H 0.50540 0.43200 0.22570
C170A C 0.501(3) 0.3963(4) 0.250(2)
H189A H 0.52370 0.38580 0.24370
H190A H 0.49980 0.39380 0.26900
H191A H 0.47910 0.38710 0.24130
C171A C 0.4725(8) 0.4497(7) 0.2510(6)
H192A H 0.47720 0.47130 0.24550
H193A H 0.44940 0.44220 0.24240
H194A H 0.47010 0.44890 0.27010
#END
