
#######################################################################
#
#                 Cambridge Crystallographic Data Centre
#                                CCDC
#
#######################################################################
#
# If this CIF has been generated from an entry in the Cambridge
# Structural Database, then it will include bibliographic, chemical,
# crystal, experimental, refinement or atomic coordinate data resulting
# from the CCDC's data processing and validation procedures.
#
#######################################################################

data_CSD_CIF_OKUKAI
_audit_creation_date 2016-04-12
_audit_creation_method CSD-ConQuest-V1
_database_code_CSD OKUKAI
_database_code_depnum_ccdc_archive 'CCDC 1439997'
_chemical_formula_sum 'C130 H100 B6 Br9 Co6 N20 O40 Zn4'
_chemical_formula_moiety
;
(C114 H60 B6 Br9 Co6 N18 O40 Zn4 2-)n,2n(C8 H20 N1 1+)
;
_journal_coden_Cambridge 9
_journal_volume 55
_journal_year 2016
_journal_page_first 4006
_journal_name_full 'Inorg.Chem. '
loop_
_publ_author_name
"M.Marmier"
"M.D.Wise"
"J.J.Holstein"
"P.Pattinson"
"Kurt Schenk"
"E.Solari"
"R.Scopelliti"
"K.Severin"
_chemical_name_systematic
;
catena-[bis(tetraethylammonium) 
(\m-oxo)-tris(\m-4,4'-(7,19,30-tribromo-36,37,38-trioxido-2,12,14,24,25,35-hex
aoxa-3,11,15,23,26,34-hexaaza-1,13-diboratapentacyclo[11.11.11.1^5,9^.1^17,21^
.1^28,32^]octatriaconta-3,5(38),6,8,10,15,17(37),18,20,22,26,28(36),29,31,33-p
entadecaene-1,13-diyl)dibenzoato)-hexa-cobalt-tetra-zinc unknown solvate]
;
_cell_volume  38347.002
_exptl_crystal_colour 'orange'
_exptl_special_details
;
Air-sensitive

;
_exptl_crystal_description 'prism'
_exptl_crystal_preparation 'N,N-dimethylformamide/N,N-diethylformamide'
_diffrn_ambient_temperature 100
_diffrn_radiation_probe x-ray
_diffrn_source synchrotron
_refine_special_details
;
Disordered tetraethylammonium ions and solvent molecules were not modelled 
and the disordered density was taken into account using the SQUEEZE/PLATON 
procedure.
;
#These two values have been output from a single CSD field.
_refine_ls_R_factor_gt 0.1124
_refine_ls_wR_factor_gt 0.1124
_symmetry_cell_setting monoclinic
_symmetry_space_group_name_H-M 'C 2/m'
_symmetry_Int_Tables_number 12
loop_
_symmetry_equiv_pos_site_id
_symmetry_equiv_pos_as_xyz
1 x,y,z
2 -x,y,-z
3 1/2+x,1/2+y,z
4 1/2-x,1/2+y,-z
5 -x,-y,-z
6 x,-y,z
7 -1/2-x,-1/2-y,-z
8 -1/2+x,-1/2-y,z
_cell_length_a 45.916(4)
_cell_length_b 30.605(2)
_cell_length_c 27.785(2)
_cell_angle_alpha 90
_cell_angle_beta 100.851(8)
_cell_angle_gamma 90
_cell_formula_units_Z 4
loop_
_atom_type_symbol
_atom_type_radius_bond
C 0.68
H 0.23
B 0.83
Br 1.21
Co 1.26
N 0.68
O 0.68
Zn 1.22
loop_
_atom_site_label
_atom_site_type_symbol
_atom_site_fract_x
_atom_site_fract_y
_atom_site_fract_z
Zn1 Zn 0.59759(3) 0.44866(4) 0.32554(4)
Zn2 Zn 0.57065(4) 0.50000 0.40434(7)
Zn3 Zn 0.63925(4) 0.50000 0.40986(7)
Co1 Co 0.61685(4) 0.50000 0.81746(7)
Co2 Co 0.61081(5) 0.50000 0.92071(8)
Co3 Co 0.37772(4) 0.26877(6) 0.33791(7)
Co4 Co 0.32250(4) 0.22191(7) 0.34075(11)
O1 O 0.60168(15) 0.50000 0.3650(3)
C1 C 0.4642(2) 0.3458(4) 0.3357(4)
C2 C 0.4679(2) 0.3852(4) 0.3618(5)
H1 H 0.45260 0.39530 0.37760
C3 C 0.4936(2) 0.4097(4) 0.3648(5)
H2 H 0.49540 0.43660 0.38230
C4 C 0.5164(2) 0.3956(4) 0.3426(4)
C5 C 0.5136(2) 0.3567(4) 0.3170(4)
H3 H 0.52920 0.34630 0.30200
C6 C 0.4875(2) 0.3330(4) 0.3137(4)
H4 H 0.48550 0.30660 0.29530
B1 B 0.4346(3) 0.3182(5) 0.3350(6)
O2 O 0.4323(2) 0.2874(3) 0.2945(4)
N1 N 0.4084(3) 0.2602(4) 0.2905(5)
C7 C 0.4079(3) 0.2330(5) 0.2560(6)
H5 H 0.42380 0.23420 0.23860
C8 C 0.3855(3) 0.2002(4) 0.2404(5)
C9 C 0.3602(3) 0.1939(5) 0.2626(5)
C10 C 0.3401(3) 0.1596(4) 0.2444(5)
C11 C 0.3462(3) 0.1323(5) 0.2065(6)
H6 H 0.33330 0.10870 0.19510
Br1 Br 0.37980(14) 0.1012(2) 0.1374(2)
C12 C 0.3708(3) 0.1398(4) 0.1863(5)
C13 C 0.3900(3) 0.1736(5) 0.2013(6)
H7 H 0.40620 0.17900 0.18530
C14 C 0.3135(3) 0.1513(5) 0.2634(6)
H8 H 0.30130 0.12830 0.24810
N2 N 0.3045(3) 0.1710(5) 0.2978(6)
O3 O 0.2784(2) 0.1529(4) 0.3063(5)
B2 B 0.2656(3) 0.1728(6) 0.3448(8)
O4 O 0.4114(2) 0.3497(3) 0.3285(4)
N3 N 0.3830(2) 0.3351(4) 0.3255(5)
C15 C 0.3649(2) 0.3666(4) 0.3188(6)
H9 H 0.37280 0.39510 0.31700
C16 C 0.3332(2) 0.3627(4) 0.3137(5)
C17 C 0.3188(2) 0.3226(4) 0.3210(6)
C18 C 0.2870(3) 0.3221(3) 0.3122(6)
C19 C 0.2706(3) 0.3599(4) 0.2962(7)
H10 H 0.24950 0.35960 0.29020
Br2 Br 0.26363(7) 0.44894(9) 0.2706(2)
C20 C 0.2860(2) 0.3977(3) 0.2895(6)
C21 C 0.3162(2) 0.3995(4) 0.2977(6)
H11 H 0.32570 0.42620 0.29260
C22 C 0.2697(3) 0.2832(4) 0.3165(7)
H12 H 0.24870 0.28570 0.30900
N4 N 0.2807(3) 0.2460(4) 0.3297(7)
O5 O 0.2558(3) 0.2169(4) 0.3270(6)
O6 O 0.4380(2) 0.2958(3) 0.3818(3)
N5 N 0.4152(3) 0.2728(4) 0.3915(4)
C23 C 0.4192(3) 0.2579(5) 0.4345(5)
H13 H 0.43810 0.26370 0.45410
C24 C 0.3990(3) 0.2333(4) 0.4577(4)
C25 C 0.3695(3) 0.2215(5) 0.4338(5)
C26 C 0.3512(3) 0.1999(5) 0.4625(4)
C27 C 0.3612(3) 0.1913(6) 0.5129(5)
H14 H 0.34840 0.17810 0.53190
Br3 Br 0.40361(13) 0.1908(2) 0.60142(14)
C28 C 0.3899(3) 0.2025(5) 0.5340(3)
C29 C 0.4088(3) 0.2223(6) 0.5075(4)
H15 H 0.42870 0.22850 0.52290
C30 C 0.3218(3) 0.1847(5) 0.4419(6)
H16 H 0.31030 0.17160 0.46320
N6 N 0.3105(3) 0.1879(5) 0.3969(5)
O7 O 0.2838(3) 0.1706(4) 0.3951(6)
C31 C 0.2356(2) 0.1477(4) 0.3488(5)
C32 C 0.2083(3) 0.1563(4) 0.3181(6)
H17 H 0.20710 0.17830 0.29380
C33 C 0.1831(2) 0.1328(4) 0.3231(6)
H18 H 0.16480 0.13910 0.30210
C34 C 0.1844(2) 0.1005(4) 0.3581(5)
C35 C 0.2115(2) 0.0907(4) 0.3895(6)
H19 H 0.21280 0.06840 0.41360
C36 C 0.2359(2) 0.1144(5) 0.3840(6)
H20 H 0.25420 0.10800 0.40510
C37 C 0.5449(2) 0.4211(4) 0.3505(5)
O8 O 0.5460(2) 0.4497(3) 0.3846(4)
O9 O 0.56338(18) 0.4120(3) 0.3254(3)
O10 O 0.3549(2) 0.2186(4) 0.2970(4)
O11 O 0.3336(2) 0.2870(3) 0.3307(5)
O12 O 0.3618(2) 0.2310(4) 0.3885(4)
C38 C 0.1572(2) 0.0748(4) 0.3646(6)
O13 O 0.13321(18) 0.0869(3) 0.3374(4)
O14 O 0.1611(2) 0.0451(4) 0.3968(5)
C39 C 0.6216(3) 0.50000 0.6537(3)
C40 C 0.5942(3) 0.50000 0.6220(4)
H21 H 0.57670 0.50000 0.63580
C41 C 0.5911(3) 0.50000 0.5717(4)
H22 H 0.57190 0.50000 0.55180
C42 C 0.6161(3) 0.50000 0.5501(3)
C43 C 0.6437(3) 0.50000 0.5808(4)
H23 H 0.66120 0.50000 0.56710
C44 C 0.6461(3) 0.50000 0.6312(4)
H24 H 0.66540 0.50000 0.65120
B3 B 0.6230(4) 0.50000 0.7115(4)
O15 O 0.6527(2) 0.50000 0.7371(3)
N7 N 0.6555(2) 0.50000 0.7855(4)
C45 C 0.6825(3) 0.50000 0.8069(4)
H25 H 0.69700 0.50000 0.78670
C46 C 0.6928(2) 0.50000 0.8589(4)
C47 C 0.6746(3) 0.50000 0.8950(4)
C48 C 0.6886(2) 0.50000 0.9458(4)
C49 C 0.7197(2) 0.50000 0.9592(5)
H26 H 0.72900 0.50000 0.99280
Br4 Br 0.77836(7) 0.50000 0.94098(15)
C50 C 0.73662(19) 0.50000 0.9229(4)
C51 C 0.7242(2) 0.50000 0.8737(4)
H27 H 0.73660 0.50000 0.84990
C52 C 0.6727(3) 0.50000 0.9861(5)
H28 H 0.68420 0.50000 1.01830
N8 N 0.6450(3) 0.50000 0.9820(5)
O16 O 0.6375(3) 0.50000 1.0275(4)
B4 B 0.6060(5) 0.50000 1.0278(5)
O17 O 0.60638(16) 0.5392(2) 0.7184(3)
N9 N 0.6023(2) 0.5469(3) 0.7648(3)
C53 C 0.5877(2) 0.5819(3) 0.7664(4)
H29 H 0.58200 0.59750 0.73660
C54 C 0.5789(2) 0.6003(3) 0.8095(3)
C55 C 0.5842(2) 0.5796(3) 0.8560(3)
C56 C 0.5745(2) 0.6006(3) 0.8962(3)
C57 C 0.5604(3) 0.6410(3) 0.8886(4)
H30 H 0.55340 0.65510 0.91470
Br5 Br 0.53808(7) 0.71700(7) 0.83463(8)
C58 C 0.5565(2) 0.6604(3) 0.8434(4)
C59 C 0.5650(2) 0.6410(3) 0.8042(4)
H31 H 0.56150 0.65520 0.77320
C60 C 0.5781(3) 0.5828(4) 0.9449(4)
H32 H 0.57030 0.59910 0.96870
N10 N 0.5910(3) 0.5469(3) 0.9585(3)
O18 O 0.5909(2) 0.5398(3) 1.0082(3)
C61 C 0.6022(5) 0.50000 1.0837(5)
C62 C 0.5994(3) 0.5370(4) 1.1108(4)
H33 H 0.60030 0.56440 1.09520
C63 C 0.5954(3) 0.5376(4) 1.1581(4)
H34 H 0.59330 0.56490 1.17340
C64 C 0.5942(5) 0.50000 1.1842(5)
C65 C 0.6117(3) 0.50000 0.4948(4)
O19 O 0.5852(3) 0.50000 0.4734(4)
O20 O 0.6356(3) 0.50000 0.4779(4)
O21 O 0.6468(2) 0.50000 0.8830(3)
O22 O 0.59857(18) 0.5428(2) 0.8618(3)
C66 C 0.5935(5) 0.50000 1.2384(5)
O23 O 0.5934(2) 0.5369(3) 1.2579(3)
O17E O 0.60638(16) 0.4608(2) 0.7184(3)
N9E N 0.6023(2) 0.4531(3) 0.7648(3)
C53E C 0.5877(2) 0.4181(3) 0.7664(4)
H29E H 0.58200 0.40250 0.73660
C54E C 0.5789(2) 0.3997(3) 0.8095(3)
C55E C 0.5842(2) 0.4204(3) 0.8560(3)
C56E C 0.5745(2) 0.3994(3) 0.8962(3)
C57E C 0.5604(3) 0.3590(3) 0.8886(4)
H30E H 0.55340 0.34490 0.91470
Br5E Br 0.53808(7) 0.28300(7) 0.83463(8)
C58E C 0.5565(2) 0.3396(3) 0.8434(4)
C59E C 0.5650(2) 0.3590(3) 0.8042(4)
H31E H 0.56150 0.34480 0.77320
C60E C 0.5781(3) 0.4172(4) 0.9449(4)
H32E H 0.57030 0.40090 0.96870
N10E N 0.5910(3) 0.4531(3) 0.9585(3)
O18E O 0.5909(2) 0.4602(3) 1.0082(3)
C62E C 0.5994(3) 0.4630(4) 1.1108(4)
H33E H 0.60030 0.43560 1.09520
C63E C 0.5954(3) 0.4624(4) 1.1581(4)
H34E H 0.59330 0.43510 1.17340
O22E O 0.59857(18) 0.4572(2) 0.8618(3)
O23E O 0.5934(2) 0.4631(3) 1.2579(3)
Zn1E Zn 0.59759(3) 0.55134(4) 0.32554(4)
Co3E Co 0.37772(4) 0.73123(6) 0.33791(7)
Co4E Co 0.32250(4) 0.77809(7) 0.34075(11)
C1E C 0.4642(2) 0.6542(4) 0.3357(4)
C2E C 0.4679(2) 0.6148(4) 0.3618(5)
H1E H 0.45260 0.60470 0.37760
C3E C 0.4936(2) 0.5903(4) 0.3648(5)
H2E H 0.49540 0.56340 0.38230
C4E C 0.5164(2) 0.6044(4) 0.3426(4)
C5E C 0.5136(2) 0.6433(4) 0.3170(4)
H3E H 0.52920 0.65370 0.30200
C6E C 0.4875(2) 0.6670(4) 0.3137(4)
H4E H 0.48550 0.69340 0.29530
B1E B 0.4346(3) 0.6818(5) 0.3350(6)
O2E O 0.4323(2) 0.7126(3) 0.2945(4)
N1E N 0.4084(3) 0.7398(4) 0.2905(5)
C7E C 0.4079(3) 0.7670(5) 0.2560(6)
H5E H 0.42380 0.76580 0.23860
C8E C 0.3855(3) 0.7998(4) 0.2404(5)
C9E C 0.3602(3) 0.8061(5) 0.2626(5)
C10E C 0.3401(3) 0.8404(4) 0.2444(5)
C11E C 0.3462(3) 0.8677(5) 0.2065(6)
H6E H 0.33330 0.89130 0.19510
Br1E Br 0.37980(14) 0.8988(2) 0.1374(2)
C12E C 0.3708(3) 0.8602(4) 0.1863(5)
C13E C 0.3900(3) 0.8264(5) 0.2013(6)
H7E H 0.40620 0.82100 0.18530
C14E C 0.3135(3) 0.8487(5) 0.2634(6)
H8E H 0.30130 0.87170 0.24810
N2E N 0.3045(3) 0.8290(5) 0.2978(6)
O3E O 0.2784(2) 0.8471(4) 0.3063(5)
B2E B 0.2656(3) 0.8272(6) 0.3448(8)
O4E O 0.4114(2) 0.6503(3) 0.3285(4)
N3E N 0.3830(2) 0.6649(4) 0.3255(5)
C15E C 0.3649(2) 0.6334(4) 0.3188(6)
H9E H 0.37280 0.60490 0.31700
C16E C 0.3332(2) 0.6373(4) 0.3137(5)
C17E C 0.3188(2) 0.6774(4) 0.3210(6)
C18E C 0.2870(3) 0.6779(3) 0.3122(6)
C19E C 0.2706(3) 0.6401(4) 0.2962(7)
H10E H 0.24950 0.64040 0.29020
Br2E Br 0.26363(7) 0.55106(9) 0.2706(2)
C20E C 0.2860(2) 0.6023(3) 0.2895(6)
C21E C 0.3162(2) 0.6005(4) 0.2977(6)
H11E H 0.32570 0.57380 0.29260
C22E C 0.2697(3) 0.7168(4) 0.3165(7)
H12E H 0.24870 0.71430 0.30900
N4E N 0.2807(3) 0.7540(4) 0.3297(7)
O5E O 0.2558(3) 0.7831(4) 0.3270(6)
O6E O 0.4380(2) 0.7042(3) 0.3818(3)
N5E N 0.4152(3) 0.7272(4) 0.3915(4)
C23E C 0.4192(3) 0.7421(5) 0.4345(5)
H13E H 0.43810 0.73630 0.45410
C24E C 0.3990(3) 0.7667(4) 0.4577(4)
C25E C 0.3695(3) 0.7785(5) 0.4338(5)
C26E C 0.3512(3) 0.8001(5) 0.4625(4)
C27E C 0.3612(3) 0.8087(6) 0.5129(5)
H14E H 0.34840 0.82190 0.53190
Br3E Br 0.40361(13) 0.8092(2) 0.60142(14)
C28E C 0.3899(3) 0.7975(5) 0.5340(3)
C29E C 0.4088(3) 0.7777(6) 0.5075(4)
H15E H 0.42870 0.77150 0.52290
C30E C 0.3218(3) 0.8153(5) 0.4419(6)
H16E H 0.31030 0.82840 0.46320
N6E N 0.3105(3) 0.8121(5) 0.3969(5)
O7E O 0.2838(3) 0.8294(4) 0.3951(6)
C31E C 0.2356(2) 0.8523(4) 0.3488(5)
C32E C 0.2083(3) 0.8437(4) 0.3181(6)
H17E H 0.20710 0.82170 0.29380
C33E C 0.1831(2) 0.8672(4) 0.3231(6)
H18E H 0.16480 0.86090 0.30210
C34E C 0.1844(2) 0.8995(4) 0.3581(5)
C35E C 0.2115(2) 0.9093(4) 0.3895(6)
H19E H 0.21280 0.93160 0.41360
C36E C 0.2359(2) 0.8856(5) 0.3840(6)
H20E H 0.25420 0.89200 0.40510
C37E C 0.5449(2) 0.5789(4) 0.3505(5)
O8E O 0.5460(2) 0.5503(3) 0.3846(4)
O9E O 0.56338(18) 0.5880(3) 0.3254(3)
O10E O 0.3549(2) 0.7814(4) 0.2970(4)
O11E O 0.3336(2) 0.7130(3) 0.3307(5)
O12E O 0.3618(2) 0.7690(4) 0.3885(4)
C38E C 0.1572(2) 0.9252(4) 0.3646(6)
O13E O 0.13321(18) 0.9131(3) 0.3374(4)
O14E O 0.1611(2) 0.9549(4) 0.3968(5)
Zn1* Zn 0.59759(3) 0.44866(4) 1.32554(4)
Zn1B Zn 0.09759(3) 0.94866(4) 0.32554(4)
Zn1E* Zn 0.59759(3) 0.55134(4) 1.32554(4)
Zn1G Zn 0.09759(3) 0.05134(4) 0.32554(4)
Zn3B Zn 0.13925(4) 0.00000 0.40986(7)
Zn3B* Zn 0.13925(4) 1.00000 0.40986(7)
O13B O 0.63321(18) 0.5869(3) 0.3374(4)
O13G O 0.63321(18) 0.4131(3) 0.3374(4)
O14B O 0.6611(2) 0.5451(4) 0.3968(5)
O14G O 0.6611(2) 0.4549(4) 0.3968(5)
O23* O 0.5934(2) 0.5369(3) 0.2579(3)
O23E* O 0.5934(2) 0.4631(3) 0.2579(3)
#END
