
#######################################################################
#
#                 Cambridge Crystallographic Data Centre
#                                CCDC
#
#######################################################################
#
# If this CIF has been generated from an entry in the Cambridge
# Structural Database, then it will include bibliographic, chemical,
# crystal, experimental, refinement or atomic coordinate data resulting
# from the CCDC's data processing and validation procedures.
#
#######################################################################

data_CSD_CIF_OKUKOW
_audit_creation_date 2016-04-12
_audit_creation_method CSD-ConQuest-V1
_database_code_CSD OKUKOW
_database_code_depnum_ccdc_archive 'CCDC 1440000'
_chemical_formula_sum 'C137 H123 B4 Br4 N15 O34 S2 Zn8'
_chemical_formula_moiety
;
(C118 H76 B4 Br4 N12 O33 S2 Zn8 2-)n,n(C3 H7 N1 O1),2n(C8 H20 N1 1+)
;
_journal_coden_Cambridge 9
_journal_volume 55
_journal_year 2016
_journal_page_first 4006
_journal_name_full 'Inorg.Chem. '
loop_
_publ_author_name
"M.Marmier"
"M.D.Wise"
"J.J.Holstein"
"P.Pattinson"
"Kurt Schenk"
"E.Solari"
"R.Scopelliti"
"K.Severin"
_chemical_name_systematic
;
catena-[bis(tetraethylammonium) 
bis(\m-4,4'-(1,13-bis(4-bromophenyl)-30-(4-carboxylatophenyl)-36,37,38-trioxid
o-2,12,14,24,25,35-hexaoxa-3,11,15,23,26,34-hexaaza-1,13-diboratapentacyclo[11
.11.11.1^5,9^.1^17,21^.1^28,32^]octatriaconta-3,5(38),6,8,10,15,17(37),18,20,2
2,26,28(36),29,31,33-pentadecaene-7,19-diyl)dibenzoato)-(\m-oxo)-bis(dimethyl 
sulfoxide)-octa-zinc N,N-dimethylformamide unknown solvate solvate]
;
_cell_volume  53816.396
_exptl_crystal_colour 'orange'
_exptl_special_details
;
Air-sensitive

;
_exptl_crystal_description 'prism'
_exptl_crystal_preparation 'N,N-dimethylformamide/dimethyl sulfoxide'
_diffrn_ambient_temperature 100
_refine_special_details
;
Disordered solvent molecules were not modelled and the disordered density was 
taken into account using the SQUEEZE/PLATON procedure.
;
#These two values have been output from a single CSD field.
_refine_ls_R_factor_gt 0.1071
_refine_ls_wR_factor_gt 0.1071
_symmetry_cell_setting monoclinic
_symmetry_space_group_name_H-M 'C 2/c'
_symmetry_Int_Tables_number 15
loop_
_symmetry_equiv_pos_site_id
_symmetry_equiv_pos_as_xyz
1 x,y,z
2 -x,y,1/2-z
3 1/2+x,1/2+y,z
4 1/2-x,1/2+y,1/2-z
5 -x,-y,-z
6 x,-y,-1/2+z
7 -1/2-x,-1/2-y,-z
8 -1/2+x,-1/2-y,-1/2+z
_cell_length_a 40.845(5)
_cell_length_b 42.367(5)
_cell_length_c 34.547(9)
_cell_angle_alpha 90
_cell_angle_beta 115.816(11)
_cell_angle_gamma 90
_cell_formula_units_Z 8
loop_
_atom_type_symbol
_atom_type_radius_bond
C 0.68
H 0.23
B 0.83
Br 1.21
N 0.68
O 0.68
S 1.02
Zn 1.22
loop_
_atom_site_label
_atom_site_type_symbol
_atom_site_fract_x
_atom_site_fract_y
_atom_site_fract_z
Zn1 Zn 0.00374(5) -0.08836(4) 0.13000(8)
Zn2 Zn 0.04890(6) -0.13493(5) 0.11157(8)
Zn3 Zn 0.47740(7) 0.13126(5) 0.57873(9)
Zn4 Zn 0.51979(6) 0.08404(5) 0.55561(8)
Zn5 Zn 0.24734(5) -0.17885(4) 0.55412(8)
Zn6 Zn 0.25701(5) -0.10452(5) 0.56353(8)
Zn7 Zn 0.31938(5) -0.15259(5) 0.62691(8)
Zn8 Zn 0.24428(5) -0.14495(4) 0.63393(8)
O1 O 0.2655(2) -0.1443(2) 0.5942(3)
C1 C 0.5862(3) 0.0083(3) 0.5185(5)
C2 C 0.6187(4) 0.0155(3) 0.5162(6)
H1 H 0.62780 0.03650 0.52240
C3 C 0.6383(4) -0.0066(3) 0.5052(6)
H2 H 0.66060 -0.00080 0.50460
Br1 Br 0.65013(8) -0.06838(6) 0.47872(13)
C4 C 0.6252(4) -0.0370(3) 0.4951(5)
C5 C 0.5931(4) -0.0445(3) 0.4964(6)
H3 H 0.58380 -0.06530 0.48930
C6 C 0.5740(4) -0.0227(3) 0.5077(5)
H4 H 0.55180 -0.02890 0.50830
B1 B 0.5624(4) 0.0326(3) 0.5311(6)
O2 O 0.5899(3) 0.0618(3) 0.5547(4)
N1 N 0.5733(4) 0.0867(3) 0.5613(5)
C7 C 0.5963(4) 0.1120(3) 0.5750(6)
H5 H 0.62020 0.10910 0.57730
C8 C 0.5875(3) 0.1438(3) 0.5868(5)
C9 C 0.5565(4) 0.1504(3) 0.5933(5)
C10 C 0.5520(3) 0.1820(3) 0.6042(5)
C11 C 0.5786(4) 0.2048(3) 0.6085(5)
H6 H 0.57590 0.22570 0.61650
C12 C 0.6086(3) 0.1975(3) 0.6013(5)
C13 C 0.6131(4) 0.1668(3) 0.5907(5)
H7 H 0.63380 0.16140 0.58620
C14 C 0.5212(4) 0.1932(4) 0.6104(6)
H8 H 0.52120 0.21480 0.61760
N2 N 0.4943(4) 0.1768(4) 0.6071(6)
O3 O 0.4698(4) 0.1939(3) 0.6164(5)
B2 B 0.4331(6) 0.1805(4) 0.6022(7)
O4 O 0.5341(3) 0.0444(2) 0.4907(4)
N3 N 0.5107(3) 0.0677(3) 0.4929(4)
C15 C 0.4859(3) 0.0759(3) 0.4567(5)
H9 H 0.48700 0.06640 0.43240
C16 C 0.4561(3) 0.0976(3) 0.4472(4)
C17 C 0.4500(3) 0.1142(3) 0.4798(4)
C18 C 0.4193(4) 0.1350(3) 0.4663(4)
C19 C 0.3959(4) 0.1382(3) 0.4221(4)
H10 H 0.37530 0.15170 0.41340
C20 C 0.4021(3) 0.1220(3) 0.3911(3)
C21 C 0.4322(3) 0.1021(3) 0.4036(4)
H11 H 0.43670 0.09140 0.38220
C22 C 0.4110(4) 0.1541(4) 0.4957(5)
H12 H 0.38940 0.16640 0.48350
N4 N 0.4297(5) 0.1562(4) 0.5362(5)
O5 O 0.4144(4) 0.1772(4) 0.5556(5)
O6 O 0.5516(3) 0.0190(3) 0.5606(4)
N5 N 0.5281(3) 0.0357(3) 0.5725(5)
C23 C 0.5099(4) 0.0183(3) 0.5861(5)
H13 H 0.51410 -0.00380 0.58660
C24 C 0.4835(3) 0.0286(3) 0.6009(5)
C25 C 0.4762(4) 0.0613(3) 0.6056(5)
C26 C 0.4487(4) 0.0678(3) 0.6197(5)
C27 C 0.4285(4) 0.0431(3) 0.6263(6)
H14 H 0.41030 0.04800 0.63550
C28 C 0.4348(3) 0.0118(3) 0.6195(5)
C29 C 0.4628(4) 0.0049(3) 0.6083(6)
H15 H 0.46800 -0.01660 0.60540
C30 C 0.4389(4) 0.0993(3) 0.6268(6)
H16 H 0.42270 0.10090 0.63980
N6 N 0.4496(5) 0.1250(3) 0.6175(6)
O7 O 0.4337(4) 0.1522(3) 0.6264(5)
C31 C 0.4112(5) 0.2065(4) 0.6148(6)
C32 C 0.4131(6) 0.2094(5) 0.6561(6)
H17 H 0.42800 0.19500 0.67760
C33 C 0.3942(6) 0.2321(5) 0.6669(7)
H18 H 0.39580 0.23260 0.69520
Br2 Br 0.3450(2) 0.28409(14) 0.6501(3)
C34 C 0.3734(5) 0.2539(4) 0.6372(7)
C35 C 0.3714(6) 0.2529(5) 0.5965(7)
H19 H 0.35790 0.26840 0.57580
C36 C 0.3895(6) 0.2292(5) 0.5860(6)
H20 H 0.38690 0.22830 0.55730
O8 O 0.5322(3) 0.1288(3) 0.5877(4)
C37 C 0.6341(4) 0.2225(3) 0.6013(5)
C38 C 0.6444(4) 0.2242(3) 0.5679(5)
H21 H 0.63640 0.20850 0.54610
C39 C 0.6664(4) 0.2486(3) 0.5663(5)
H22 H 0.67240 0.25000 0.54270
C40 C 0.6797(4) 0.2712(3) 0.5988(5)
C41 C 0.6703(4) 0.2687(3) 0.6329(5)
H23 H 0.67990 0.28340 0.65590
C42 C 0.6474(4) 0.2452(3) 0.6337(5)
H24 H 0.64050 0.24450 0.65670
C43 C 0.7030(4) 0.2981(3) 0.5967(5)
O9 O 0.7104(3) 0.2985(2) 0.5648(4)
O10 O 0.4719(3) 0.1100(3) 0.5210(4)
O11 O 0.7138(3) 0.3172(3) 0.6269(4)
C44 C 0.3783(3) 0.1262(3) 0.3444(3)
C45 C 0.3917(4) 0.1231(4) 0.3137(4)
H25 H 0.41650 0.11770 0.32280
C46 C 0.3697(4) 0.1277(4) 0.2704(4)
H26 H 0.37970 0.12630 0.25030
C47 C 0.3327(4) 0.1346(4) 0.2562(4)
C48 C 0.3191(4) 0.1373(4) 0.2864(4)
H27 H 0.29400 0.14160 0.27730
C49 C 0.3417(3) 0.1337(4) 0.3301(4)
H28 H 0.33210 0.13650 0.35050
C50 C 0.3083(4) 0.1375(4) 0.2087(4)
O12 O 0.4949(3) 0.0843(2) 0.5988(4)
O13 O 0.3227(4) 0.1334(4) 0.1831(5)
O14 O 0.2753(3) 0.1425(3) 0.1948(4)
C51 C 0.4096(3) -0.0135(3) 0.6196(5)
C52 C 0.3728(3) -0.0067(3) 0.6048(6)
H29 H 0.36450 0.01440 0.59800
C53 C 0.3484(3) -0.0307(3) 0.6001(6)
H30 H 0.32330 -0.02580 0.58920
C54 C 0.3599(3) -0.0618(3) 0.6110(5)
C55 C 0.3972(3) -0.0682(3) 0.6282(6)
H31 H 0.40600 -0.08900 0.63700
C56 C 0.4214(3) -0.0440(3) 0.6323(6)
H32 H 0.44670 -0.04840 0.64410
C57 C 0.3320(4) -0.0877(3) 0.6024(6)
O15 O 0.3445(3) -0.1143(3) 0.6182(5)
O16 O 0.2991(3) -0.0805(3) 0.5809(5)
C58 C -0.0697(4) -0.0145(3) 0.1585(5)
C59 C -0.0552(4) 0.0107(4) 0.1869(6)
H33 H -0.02940 0.01230 0.20200
C60 C -0.0760(4) 0.0333(4) 0.1941(7)
H34 H -0.06480 0.04940 0.21480
Br3 Br -0.14245(14) 0.06425(12) 0.1790(2)
C61 C -0.1132(4) 0.0323(3) 0.1714(6)
C62 C -0.1289(4) 0.0087(4) 0.1423(6)
H35 H -0.15460 0.00800 0.12620
C63 C -0.1076(4) -0.0143(4) 0.1362(6)
H36 H -0.11920 -0.03060 0.11600
B3 B -0.0455(4) -0.0414(3) 0.1514(6)
O17 O -0.0288(3) -0.0232(2) 0.1213(4)
N7 N -0.0022(3) -0.0393(3) 0.1171(5)
C64 C 0.0194(3) -0.0210(3) 0.1065(6)
H37 H 0.01350 0.00080 0.10200
C65 C 0.0520(3) -0.0318(3) 0.1010(5)
C66 C 0.0589(3) -0.0639(3) 0.0954(5)
C67 C 0.0899(3) -0.0703(2) 0.0879(5)
C68 C 0.1121(3) -0.0450(2) 0.0876(5)
H38 H 0.13280 -0.04970 0.08280
C69 C 0.1058(3) -0.0136(2) 0.0940(5)
C70 C 0.0750(3) -0.0079(3) 0.1001(5)
H39 H 0.06930 0.01330 0.10390
C71 C 0.1006(4) -0.1017(3) 0.0821(6)
H40 H 0.12080 -0.10310 0.07540
N8 N 0.0865(4) -0.1277(3) 0.0848(6)
O18 O 0.1052(4) -0.1544(3) 0.0801(5)
B4 B 0.0960(5) -0.1854(4) 0.0934(7)
O19 O -0.0148(3) -0.0483(2) 0.1921(4)
N9 N 0.0098(3) -0.0711(3) 0.1924(4)
C72 C 0.0344(3) -0.0776(3) 0.2297(4)
H41 H 0.03360 -0.06640 0.25310
C73 C 0.0637(3) -0.1005(3) 0.2401(4)
C74 C 0.0687(4) -0.1202(3) 0.2093(4)
C75 C 0.0991(4) -0.1415(3) 0.2244(4)
C76 C 0.1219(4) -0.1430(3) 0.2687(4)
H42 H 0.14140 -0.15770 0.27870
C77 C 0.1170(3) -0.1239(3) 0.2984(3)
C78 C 0.0882(3) -0.1028(3) 0.2838(4)
H43 H 0.08490 -0.08960 0.30400
C79 C 0.1083(4) -0.1619(4) 0.1968(5)
H44 H 0.12830 -0.17570 0.21070
N10 N 0.0923(4) -0.1631(4) 0.1561(5)
O20 O 0.1077(4) -0.1843(3) 0.1386(5)
O21 O -0.0684(3) -0.0659(3) 0.1265(4)
N11 N -0.0528(3) -0.0912(3) 0.1148(5)
C80 C -0.0741(4) -0.1145(3) 0.1001(5)
H45 H -0.09790 -0.11220 0.09830
C81 C -0.0660(3) -0.1444(2) 0.0858(5)
C82 C -0.0329(3) -0.1511(3) 0.0825(5)
C83 C -0.0287(3) -0.1823(3) 0.0697(5)
C84 C -0.0551(3) -0.2055(3) 0.0626(6)
H46 H -0.05120 -0.22630 0.05500
C85 C -0.0870(3) -0.1990(2) 0.0665(5)
C86 C -0.0918(3) -0.1687(2) 0.0777(6)
H47 H -0.11360 -0.16390 0.08020
C87 C 0.0033(3) -0.1930(3) 0.0650(6)
H48 H 0.00250 -0.21330 0.05320
N12 N 0.0324(3) -0.1770(3) 0.0757(6)
O22 O 0.0580(3) -0.1934(3) 0.0689(5)
C88 C 0.1202(5) -0.2117(4) 0.0850(6)
C89 C 0.1514(5) -0.2251(5) 0.1169(6)
H49 H 0.16010 -0.21670 0.14520
C90 C 0.1100(5) -0.2248(5) 0.0443(6)
H50 H 0.08900 -0.21650 0.02100
C91 C 0.1706(6) -0.2499(5) 0.1100(6)
H51 H 0.19120 -0.25870 0.13320
C92 C 0.1286(6) -0.2491(5) 0.0361(7)
H52 H 0.12040 -0.25710 0.00780
Br4 Br 0.18548(11) -0.29400(11) 0.0570(2)
C93 C 0.1591(5) -0.2615(4) 0.0691(7)
O23 O 0.0383(3) -0.0866(2) 0.0977(4)
C94 C 0.1309(3) 0.0120(2) 0.0956(5)
C95 C 0.1322(4) 0.0407(3) 0.1158(5)
H53 H 0.11570 0.04440 0.12800
C96 C 0.1567(3) 0.0640(3) 0.1188(5)
H54 H 0.15690 0.08330 0.13290
C97 C 0.1811(3) 0.0596(3) 0.1011(5)
C98 C 0.1804(4) 0.0308(3) 0.0814(5)
H55 H 0.19720 0.02710 0.06970
C99 C 0.1558(4) 0.0076(3) 0.0785(5)
H56 H 0.15580 -0.01180 0.06460
C100 C 0.2072(4) 0.0848(3) 0.1020(5)
O24 O 0.2092(3) 0.1096(3) 0.1223(4)
O25 O 0.0456(3) -0.1195(3) 0.1689(4)
O26 O 0.2266(3) 0.0783(3) 0.0824(4)
C101 C 0.1424(3) -0.1256(3) 0.3448(3)
C102 C 0.1523(4) -0.0991(3) 0.3714(4)
H57 H 0.14290 -0.07900 0.35950
C103 C 0.1757(4) -0.1014(3) 0.4147(4)
H58 H 0.18250 -0.08300 0.43210
C104 C 0.1892(3) -0.1310(3) 0.4328(4)
C105 C 0.1797(4) -0.1576(3) 0.4061(4)
H59 H 0.18920 -0.17760 0.41790
C106 C 0.1568(4) -0.1549(3) 0.3628(4)
H60 H 0.15080 -0.17320 0.34500
C107 C 0.2131(4) -0.1350(4) 0.4804(4)
O27 O -0.0079(3) -0.1297(2) 0.0908(4)
O28 O 0.2264(3) -0.1101(3) 0.5027(4)
O29 O 0.2208(3) -0.1626(3) 0.4946(4)
C108 C -0.1137(3) -0.2246(2) 0.0610(5)
C109 C -0.1017(3) -0.2549(3) 0.0772(5)
H61 H -0.07660 -0.25980 0.08900
C110 C -0.1263(3) -0.2776(3) 0.0762(5)
H62 H -0.11770 -0.29800 0.08720
C111 C -0.1632(3) -0.2713(3) 0.0596(5)
C112 C -0.1756(3) -0.2416(3) 0.0420(5)
H63 H -0.20090 -0.23690 0.02980
C113 C -0.1512(3) -0.2190(3) 0.0423(5)
H64 H -0.16010 -0.19910 0.02950
C114 C -0.1899(4) -0.2958(3) 0.0603(5)
O30 O -0.2225(3) -0.2889(2) 0.0453(5)
O31 O -0.1770(3) -0.3219(3) 0.0765(5)
O32 O 0.3746(7) -0.1732(8) 0.6599(12)
S1 S 0.4114(6) -0.1633(4) 0.6874(8)
C115 C 0.4269(12) -0.1895(12) 0.7329(11)
H65 H 0.45190 -0.18400 0.75300
H66 H 0.41110 -0.18750 0.74750
H67 H 0.42620 -0.21140 0.72320
C116 C 0.4442(10) -0.1822(12) 0.6727(16)
H68 H 0.46870 -0.17500 0.69200
H69 H 0.44280 -0.20520 0.67520
H70 H 0.43890 -0.17670 0.64300
O33 O 0.2969(5) -0.1965(4) 0.6429(6)
S2 S 0.3158(2) -0.2150(2) 0.6825(4)
C117 C 0.2814(6) -0.2354(6) 0.6901(10)
H71 H 0.29250 -0.24830 0.71620
H72 H 0.26460 -0.22010 0.69300
H73 H 0.26820 -0.24910 0.66530
C118 C 0.3344(7) -0.2504(5) 0.6735(11)
H74 H 0.34670 -0.26190 0.70060
H75 H 0.31480 -0.26350 0.65270
H76 H 0.35190 -0.24550 0.66200
N13 N 0.7286(9) 0.1908(7) 0.5749(13)
C119 C 0.7407(13) 0.1840(11) 0.6228(13)
H77 H 0.76030 0.19860 0.64000
H78 H 0.72010 0.18690 0.62980
H79 H 0.74950 0.16230 0.62910
C120 C 0.7502(11) 0.2169(9) 0.5676(15)
H80 H 0.76790 0.22510 0.59540
H81 H 0.76300 0.20870 0.55140
H82 H 0.73370 0.23400 0.55120
C121 C 0.7012(10) 0.1745(9) 0.5414(14)
H83 H 0.69750 0.18250 0.51410
O34 O 0.6807(10) 0.1525(8) 0.5381(14)
Zn5B Zn 0.74734(5) 0.32115(4) 0.55412(8)
Zn5G Zn -0.25266(5) -0.32115(4) 0.05412(8)
Zn6E Zn 0.25701(5) 0.10452(5) 0.06353(8)
Zn7E Zn 0.31938(5) 0.15259(5) 0.12691(8)
Zn7G Zn -0.18062(5) -0.34741(5) 0.12691(8)
Zn8B Zn 0.74428(5) 0.35505(4) 0.63393(8)
Zn8E Zn 0.24428(5) 0.14495(4) 0.13393(8)
O9B O 0.2104(3) -0.2015(2) 0.5648(4)
O11B O 0.2138(3) -0.1828(3) 0.6269(4)
O13E O 0.3227(4) -0.1334(4) 0.6831(5)
O14E O 0.2753(3) -0.1425(3) 0.6948(4)
O24E O 0.2092(3) -0.1096(3) 0.6223(4)
O26E O 0.2266(3) -0.0783(3) 0.5824(4)
O30G O 0.2775(3) -0.2111(2) 0.5453(5)
O31G O 0.3230(3) -0.1781(3) 0.5765(5)
#END
