
#######################################################################
#
#                 Cambridge Crystallographic Data Centre
#                                CCDC
#
#######################################################################
#
# If this CIF has been generated from an entry in the Cambridge
# Structural Database, then it will include bibliographic, chemical,
# crystal, experimental, refinement or atomic coordinate data resulting
# from the CCDC's data processing and validation procedures.
#
#######################################################################

data_CSD_CIF_OKUTUL04
_audit_creation_date 2019-04-15
_audit_creation_method CSD-ConQuest-V1
_database_code_CSD OKUTUL04
_database_code_depnum_ccdc_archive 'CCDC 1868682'
_chemical_formula_sum 'C6 H18 Fe1 Mg1 Na1 O21'
_chemical_formula_moiety
;
(C6 Fe1 Na1 O12 2-)n,H12 Mg1 O6 2+,3(H2 O1)
;
_journal_coden_Cambridge 1475
_journal_volume 10
_journal_year 2019
_journal_page_first 4923
_journal_name_full 'Chemical Science '
loop_
_publ_author_name
"I.Huskic"
"N.Novendra"
"Dae-Woon Lim"
"F.Topic"
"H.M.Titi"
"I.V.Pekov"
"S.V.Krivovichev"
"A.Navrotsky"
"H.Kitagawa"
"T.Friscic"
_chemical_name_systematic
;
catena-[hexaaqua-magnesium tris(\m-oxalato)-iron(iii)-sodium trihydrate]
;
_chemical_name_common
;
Stepanovite
;
_cell_volume   3108.700
_exptl_crystal_colour 'green'
_exptl_crystal_density_diffrn 1.697
_exptl_special_details
;
hexagonal polymorph
moisture-sensitive, 
photo-sensitive,Heat-sensitive,Light-sensitive,Photo-sensitive
;
_exptl_crystal_description 'hexagonal prism'
_exptl_crystal_preparation 'water'
_diffrn_ambient_temperature 100
_diffrn_special_details
;
twin

;
#These two values have been output from a single CSD field.
_refine_ls_R_factor_gt 0.0351
_refine_ls_wR_factor_gt 0.0351
_symmetry_cell_setting hexagonal
_symmetry_space_group_name_H-M 'P 3 c 1'
_symmetry_Int_Tables_number 158
loop_
_symmetry_equiv_pos_site_id
_symmetry_equiv_pos_as_xyz
1 x,y,z
2 -y,x-y,z
3 -x+y,-x,z
4 -y,-x,1/2+z
5 -x+y,y,1/2+z
6 x,x-y,1/2+z
_cell_length_a 17.0033(11)
_cell_length_b 17.0033(11)
_cell_length_c 12.4160(8)
_cell_angle_alpha 90
_cell_angle_beta 90
_cell_angle_gamma 120
_cell_formula_units_Z 6
loop_
_atom_type_symbol
_atom_type_radius_bond
C 0.68
H 0.23
Fe 1.52
Mg 1.41
Na 1.66
O 0.68
loop_
_atom_site_label
_atom_site_type_symbol
_atom_site_fract_x
_atom_site_fract_y
_atom_site_fract_z
Fe1 Fe 0.33871(2) 0.32888(2) 0.50060(4)
Na1 Na 0.00970(4) 0.33807(9) 0.50093(17)
O1 O 0.27689(9) 0.38268(9) 0.41410(13)
C1 C 0.19671(11) 0.36122(11) 0.44711(16)
O2 O 0.22252(10) 0.27891(9) 0.58596(13)
C2 C 0.16725(11) 0.30439(12) 0.55232(15)
O3 O 0.09517(10) 0.28695(11) 0.59517(14)
C3 C 0.47612(11) 0.50566(12) 0.55221(15)
O4 O 0.14466(9) 0.38193(10) 0.40416(13)
C4 C 0.50706(12) 0.47956(11) 0.44697(15)
O5 O 0.40303(9) 0.43982(9) 0.59373(12)
C5 C 0.30503(11) 0.15399(12) 0.44735(15)
O6 O 0.45425(10) 0.39741(9) 0.41552(13)
C6 C 0.36520(11) 0.18220(12) 0.55001(15)
O7 O 0.57692(10) 0.53601(9) 0.40228(13)
O8 O 0.52014(10) 0.58300(9) 0.58806(13)
O9 O 0.29302(10) 0.21685(10) 0.40828(13)
O10 O 0.38244(10) 0.25977(9) 0.58862(13)
O11 O 0.27309(10) 0.07639(9) 0.41161(14)
O12 O 0.39226(9) 0.13305(10) 0.58649(13)
Mg1 Mg 0.33333 0.66667 0.48948(11)
O13 O 0.41581(9) 0.77807(10) 0.39418(12)
H1 H 0.479(2) 0.8163(19) 0.393(2)
H2 H 0.387(2) 0.782(2) 0.339(2)
O14 O 0.25287(9) 0.5553(1) 0.58484(12)
H3 H 0.262(2) 0.520(2) 0.640(3)
H4 H 0.209(2) 0.5440(19) 0.591(3)
Mg2 Mg 0.66667 0.33333 0.49811(15)
O15 O 0.63706(9) 0.41517(9) 0.59368(11)
H5 H 0.670(2) 0.461(2) 0.601(2)
H6 H 0.593(2) 0.404(2) 0.645(2)
O16 O 0.74815(8) 0.44468(9) 0.40369(11)
H7 H 0.718(2) 0.445(2) 0.348(2)
H8 H 0.8092(19) 0.4800(18) 0.400(2)
Mg3 Mg 0.00000 0.00000 0.50447(13)
O17 O 0.11133(11) 0.08119(10) 0.60121(13)
H9 H 0.1233(19) 0.123(2) 0.610(2)
H10 H 0.1472(19) 0.074(2) 0.648(2)
O18 O 0.03082(10) 0.11189(10) 0.41083(13)
H11 H -0.001(2) 0.1433(19) 0.405(3)
H12 H 0.056(2) 0.112(2) 0.356(2)
O19 O 0.66386(10) 0.49091(8) 0.25120(12)
H13 H 0.6425(19) 0.5025(19) 0.294(2)
H14 H 0.6938(19) 0.538(2) 0.213(2)
O20 O 0.49571(9) 0.67177(10) 0.24490(12)
H15 H 0.5162(19) 0.6427(18) 0.214(2)
H16 H 0.5276(19) 0.696(2) 0.293(3)
O21 O 0.15886(9) 0.16250(9) 0.25260(14)
H17 H 0.196(2) 0.179(2) 0.299(2)
H18 H 0.172(2) 0.2112(19) 0.218(3)
Na1A Na 0.66193(4) 0.67163(9) 0.50093(17)
Na1B Na 0.32837(4) -0.00970(9) 0.50093(17)
O7B O -0.04091(10) 0.42308(9) 0.40228(13)
O8B O 0.06286(10) 0.47986(9) 0.58806(13)
O11A O -0.07639(10) 0.19670(9) 0.41161(14)
O12A O -0.13305(9) 0.25921(10) 0.58649(13)
O13A O 0.22193(9) 0.63774(10) 0.39418(12)
H1A H 0.1837(20) 0.6627(19) 0.393(2)
H2A H 0.218(2) 0.605(2) 0.339(2)
O14A O 0.44470(9) 0.69757(10) 0.58484(12)
H3A H 0.480(2) 0.742(2) 0.640(3)
H4A H 0.456(2) 0.6650(19) 0.591(3)
O13B O 0.36226(9) 0.58419(10) 0.39418(12)
H1B H 0.3373(20) 0.5210(19) 0.393(2)
H2B H 0.395(2) 0.613(2) 0.339(2)
O14B O 0.30243(9) 0.74713(10) 0.58484(12)
H3B H 0.258(2) 0.738(2) 0.640(3)
H4B H 0.335(2) 0.7910(19) 0.591(3)
O15A O 0.58483(9) 0.22189(9) 0.59368(11)
H5A H 0.539(2) 0.209(2) 0.601(2)
H6A H 0.596(2) 0.189(2) 0.645(2)
O16A O 0.55532(8) 0.30347(9) 0.40369(11)
H7A H 0.555(2) 0.273(2) 0.348(2)
H8A H 0.5200(19) 0.3292(18) 0.400(2)
O15B O 0.77811(9) 0.36294(9) 0.59368(11)
H5B H 0.791(2) 0.330(2) 0.601(2)
H6B H 0.811(2) 0.407(2) 0.645(2)
O16B O 0.69653(8) 0.25185(9) 0.40369(11)
H7B H 0.727(2) 0.282(2) 0.348(2)
H8B H 0.6708(19) 0.1908(18) 0.400(2)
O17A O -0.08119(11) 0.03014(10) 0.60121(13)
H9A H -0.1230(19) 0.0003(20) 0.610(2)
H10A H -0.0740(19) 0.0732(20) 0.648(2)
O18A O -0.11189(10) -0.08107(10) 0.41083(13)
H11A H -0.1433(20) -0.1443(19) 0.405(3)
H12A H -0.112(2) -0.056(2) 0.356(2)
O17B O -0.03014(11) -0.11133(10) 0.60121(13)
H9B H -0.0003(19) -0.1233(20) 0.610(2)
H10B H -0.0732(19) -0.1472(20) 0.648(2)
O18B O 0.08107(10) -0.03082(10) 0.41083(13)
H11B H 0.1443(20) 0.0010(19) 0.405(3)
H12B H 0.056(2) -0.056(2) 0.356(2)
#END
