
#######################################################################
#
#                 Cambridge Crystallographic Data Centre
#                                CCDC
#
#######################################################################
#
# If this CIF has been generated from an entry in the Cambridge
# Structural Database, then it will include bibliographic, chemical,
# crystal, experimental, refinement or atomic coordinate data resulting
# from the CCDC's data processing and validation procedures.
#
#######################################################################

data_CSD_CIF_OKUTUL01
_audit_creation_date 2016-08-12
_audit_creation_method CSD-ConQuest-V1
_database_code_CSD OKUTUL01
_database_code_depnum_ccdc_archive 'CCDC 1431678'
_chemical_formula_sum 'C6 H18 Fe1 Mg1 Na1 O21'
_chemical_formula_moiety
;
H12 Mg1 O6 2+,n(C6 Fe1 Na1 O12 2-),3(H2 O1)
;
_journal_coden_Cambridge 1870
_journal_volume 2
_journal_year 2016
_journal_page_first e1600621
_journal_name_full 'Sci. Adv. '
loop_
_publ_author_name
"I.Huskic"
"I.V.Pekov"
"S.V.Krivovichev"
"T.Friscic"
_chemical_name_systematic
;
catena-[(hexaaqua-magnesium(ii)) tris(\m-oxalato)-iron(iii)-sodium(i) 
trihydrate]
;
_chemical_name_common
;
stepanovite
;
_cell_volume   3092.284
_exptl_crystal_colour 'yellowish green'
_exptl_crystal_density_diffrn 1.706
_exptl_special_details
;
rhombohedral polymorph

;
_exptl_crystal_description 'isometric'
_diffrn_ambient_temperature 296
_diffrn_special_details
;
twin

;
#These two values have been output from a single CSD field.
_refine_ls_R_factor_gt 0.0892
_refine_ls_wR_factor_gt 0.0892
_symmetry_cell_setting rhombohedral
_symmetry_space_group_name_H-M 'R 3 c'
_symmetry_Int_Tables_number 161
loop_
_symmetry_equiv_pos_site_id
_symmetry_equiv_pos_as_xyz
1 x,y,z
2 -y,x-y,z
3 -x+y,-x,z
4 -y,-x,1/2+z
5 -x+y,y,1/2+z
6 x,x-y,1/2+z
7 2/3+x,1/3+y,1/3+z
8 2/3-y,1/3+x-y,1/3+z
9 2/3-x+y,1/3-x,1/3+z
10 2/3-y,1/3-x,5/6+z
11 2/3-x+y,1/3+y,5/6+z
12 2/3+x,1/3+x-y,5/6+z
13 1/3+x,2/3+y,2/3+z
14 1/3-y,2/3+x-y,2/3+z
15 1/3-x+y,2/3-x,2/3+z
16 1/3-y,2/3-x,1/6+z
17 1/3-x+y,2/3+y,1/6+z
18 1/3+x,2/3+x-y,1/6+z
_cell_length_a 9.8367(13)
_cell_length_b 9.8367(13)
_cell_length_c 36.902(5)
_cell_angle_alpha 90
_cell_angle_beta 90
_cell_angle_gamma 120
_cell_formula_units_Z 6
loop_
_atom_type_symbol
_atom_type_radius_bond
C 0.68
H 0.23
Fe 1.52
Mg 1.41
Na 1.66
O 0.68
loop_
_atom_site_label
_atom_site_type_symbol
_atom_site_fract_x
_atom_site_fract_y
_atom_site_fract_z
Fe1 Fe 0.66670 0.33330 0.07591(11)
Na1 Na 0.33330 -0.33330 0.0737(5)
O1 O 0.5385(13) -0.1058(12) 0.0454(4)
O2 O 0.6457(12) 0.1554(12) 0.0452(3)
C1 C 0.4697(13) 0.0185(13) 0.0930(4)
C2 C 0.5571(14) 0.0200(13) 0.0579(4)
O3 O 0.5016(12) 0.1504(12) 0.1042(3)
O4 O 0.3776(14) -0.1101(14) 0.1066(4)
Mg1 Mg 1.00000 0.00000 0.0742(3)
O5 O 1.1957(11) 0.1342(13) 0.1068(3)
H1 H 1.288(15) 0.13(2) 0.104(6)
H2 H 1.270(19) 0.17(2) 0.126(4)
O6 O 0.8053(13) -0.1374(14) 0.0420(4)
H3 H 0.83(2) -0.18(2) 0.022(4)
O7 O 0.8111(12) -0.3347(13) -0.0093(4)
O1A O 0.1058(13) -0.3557(12) 0.0454(4)
O2A O -0.1554(12) -0.5097(12) 0.0452(3)
C1A C -0.0185(13) -0.5488(13) 0.0930(4)
C2A C -0.0200(14) -0.4629(13) 0.0579(4)
O3A O -0.1504(12) -0.6488(12) 0.1042(3)
O4A O 0.1101(14) -0.5123(14) 0.1066(4)
O1B O 0.3557(13) -0.5385(12) 0.0454(4)
O2B O 0.5097(12) -0.6457(12) 0.0452(3)
C1B C 0.5488(13) -0.4697(13) 0.0930(4)
C2B C 0.4629(14) -0.5571(13) 0.0579(4)
O3B O 0.6488(12) -0.5016(12) 0.1042(3)
O4B O 0.5123(14) -0.3776(14) 0.1066(4)
Fe1* Fe -0.33330 -0.66670 0.07591(11)
Fe1** Fe 0.66670 -0.66670 0.07591(11)
O2A* O 0.8446(12) 0.4903(12) 0.0452(3)
O2B* O 0.5097(12) 0.3543(12) 0.0452(3)
O3A* O 0.8496(12) 0.3512(12) 0.1042(3)
O3B* O 0.6488(12) 0.4984(12) 0.1042(3)
O5A O 0.8658(11) 0.0615(13) 0.1068(3)
H1A H 0.870(15) 0.158(20) 0.104(6)
H2A H 0.830(19) 0.10(2) 0.126(4)
O6A O 1.1374(13) -0.0573(14) 0.0420(4)
H3A H 1.18(2) 0.01(2) 0.022(4)
O5B O 0.9385(11) -0.1957(13) 0.1068(3)
H1B H 0.842(15) -0.288(20) 0.104(6)
H2B H 0.900(19) -0.27(2) 0.126(4)
O6B O 1.0573(13) 0.1947(14) 0.0420(4)
H3B H 0.99(2) 0.17(2) 0.022(4)
#END
