
#######################################################################
#
#                 Cambridge Crystallographic Data Centre
#                                CCDC
#
#######################################################################
#
# If this CIF has been generated from an entry in the Cambridge
# Structural Database, then it will include bibliographic, chemical,
# crystal, experimental, refinement or atomic coordinate data resulting
# from the CCDC's data processing and validation procedures.
#
#######################################################################

data_CSD_CIF_OKUTUL02
_audit_creation_date 2016-08-12
_audit_creation_method CSD-ConQuest-V1
_database_code_CSD OKUTUL02
_database_code_depnum_ccdc_archive 'CCDC 1408093'
_chemical_formula_sum 'C6 H18 Fe1 Mg1 Na1 O21'
_chemical_formula_moiety
;
H12 Mg1 O6 2+,n(C6 Fe1 Na1 O12 2-),3(H2 O1)
;
_journal_coden_Cambridge 1870
_journal_volume 2
_journal_year 2016
_journal_page_first e1600621
_journal_name_full 'Sci. Adv. '
loop_
_publ_author_name
"I.Huskic"
"I.V.Pekov"
"S.V.Krivovichev"
"T.Friscic"
_chemical_name_systematic
;
catena-[(hexaaqua-magnesium(ii)) tris(\m-oxalato)-iron(iii)-sodium(i) 
trihydrate]
;
_chemical_name_common
;
Stepanovite
;
_cell_volume   3134.826
_exptl_crystal_colour 'green'
_exptl_crystal_density_diffrn 1.682
_exptl_special_details
;
rhombohedral polymorph

;
_exptl_crystal_description 'Rhombohedra'
_diffrn_ambient_temperature 100
_diffrn_special_details
;
twin

;
#These two values have been output from a single CSD field.
_refine_ls_R_factor_gt 0.0521
_refine_ls_wR_factor_gt 0.0521
_symmetry_cell_setting rhombohedral
_symmetry_space_group_name_H-M 'R 3 c'
_symmetry_Int_Tables_number 161
loop_
_symmetry_equiv_pos_site_id
_symmetry_equiv_pos_as_xyz
1 x,y,z
2 -y,x-y,z
3 -x+y,-x,z
4 -y,-x,1/2+z
5 -x+y,y,1/2+z
6 x,x-y,1/2+z
7 2/3+x,1/3+y,1/3+z
8 2/3-y,1/3+x-y,1/3+z
9 2/3-x+y,1/3-x,1/3+z
10 2/3-y,1/3-x,5/6+z
11 2/3-x+y,1/3+y,5/6+z
12 2/3+x,1/3+x-y,5/6+z
13 1/3+x,2/3+y,2/3+z
14 1/3-y,2/3+x-y,2/3+z
15 1/3-x+y,2/3-x,2/3+z
16 1/3-y,2/3-x,1/6+z
17 1/3-x+y,2/3+y,1/6+z
18 1/3+x,2/3+x-y,1/6+z
_cell_length_a 9.887(13)
_cell_length_b 9.887(13)
_cell_length_c 37.03(5)
_cell_angle_alpha 90
_cell_angle_beta 90
_cell_angle_gamma 120
_cell_formula_units_Z 6
loop_
_atom_type_symbol
_atom_type_radius_bond
C 0.68
H 0.23
Fe 1.52
Mg 1.41
Na 1.66
O 0.68
loop_
_atom_site_label
_atom_site_type_symbol
_atom_site_fract_x
_atom_site_fract_y
_atom_site_fract_z
O1 O 0.2750(6) 0.4730(6) 0.58877(13)
H1 H 0.329(15) 0.475(15) 0.604(3)
O2 O 0.4670(6) 0.6061(6) 0.52478(12)
H2 H 0.513(14) 0.657(14) 0.507(3)
H3 H 0.465(12) 0.523(13) 0.522(3)
H4 H 0.191(13) 0.418(13) 0.595(2)
Mg1 Mg 0.33330 0.66670 0.55706(11)
O3 O 0.6421(5) 1.1036(5) 0.41951(12)
C1 C 0.5393(6) 0.9825(6) 0.40668(14)
Fe1 Fe 0.33330 0.66670 0.38855(4)
O4 O 0.3498(5) 0.8478(7) 0.36007(10)
O5 O 0.4868(6) 1.1092(8) 0.35777(12)
O6 O 0.4903(5) 0.8445(5) 0.41939(10)
C2 C 0.4533(6) 0.9834(8) 0.37131(13)
Na1 Na 0.66670 1.33330 0.3918(2)
H5 H 0.171(14) 0.275(14) 0.491(3)
O7 O 0.1452(5) 0.3346(5) 0.47413(12)
H6 H 0.210(12) 0.380(11) 0.461(2)
O1A O 0.5270(6) 0.8020(6) 0.58877(13)
H1A H 0.525(15) 0.854(15) 0.604(3)
O2A O 0.3939(6) 0.8609(6) 0.52478(12)
H2A H 0.343(14) 0.856(14) 0.507(3)
H3A H 0.477(12) 0.942(13) 0.522(3)
H4A H 0.582(13) 0.773(13) 0.595(2)
O1B O 0.1980(6) 0.7250(6) 0.58877(13)
H1B H 0.146(15) 0.671(15) 0.604(3)
O2B O 0.1391(6) 0.5330(6) 0.52478(12)
H2B H 0.144(14) 0.487(14) 0.507(3)
H3B H 0.058(12) 0.535(13) 0.522(3)
H4B H 0.227(13) 0.809(13) 0.595(2)
O3A O -0.1036(5) 0.5385(5) 0.41951(12)
C1A C 0.0175(6) 0.5568(6) 0.40668(14)
O4A O 0.1522(5) 0.5020(7) 0.36007(10)
O5A O -0.1092(6) 0.3776(8) 0.35777(12)
O6A O 0.1555(5) 0.6458(5) 0.41939(10)
C2A C 0.0166(6) 0.4699(8) 0.37131(13)
O3B O 0.4615(5) 0.3579(5) 0.41951(12)
C1B C 0.4432(6) 0.4607(6) 0.40668(14)
O4B O 0.4980(5) 0.6502(7) 0.36007(10)
O5B O 0.6224(6) 0.5132(8) 0.35777(12)
O6B O 0.3542(5) 0.5097(5) 0.41939(10)
C2B C 0.5301(6) 0.5467(8) 0.37131(13)
O3A* O 0.8964(5) 1.5385(5) 0.41951(12)
O3B* O 0.4615(5) 1.3579(5) 0.41951(12)
O5A* O 0.8908(6) 1.3776(8) 0.35777(12)
O5B* O 0.6224(6) 1.5132(8) 0.35777(12)
Na1* Na -0.33330 0.33330 0.3918(2)
Na1** Na 0.66670 0.33330 0.3918(2)
#END
