
#######################################################################
#
#                 Cambridge Crystallographic Data Centre
#                                CCDC
#
#######################################################################
#
# If this CIF has been generated from an entry in the Cambridge
# Structural Database, then it will include bibliographic, chemical,
# crystal, experimental, refinement or atomic coordinate data resulting
# from the CCDC's data processing and validation procedures.
#
#######################################################################

data_CSD_CIF_OKUTUL03
_audit_creation_date 2019-04-15
_audit_creation_method CSD-ConQuest-V1
_database_code_CSD OKUTUL03
_database_code_depnum_ccdc_archive 'CCDC 1868681'
_chemical_formula_sum 'C6 H18 Fe1 Mg1 Na1 O21'
_chemical_formula_moiety
;
(C6 Fe1 Na1 O12 2-)n,H12 Mg1 O6 2+,3(H2 O1)
;
_journal_coden_Cambridge 1475
_journal_volume 10
_journal_year 2019
_journal_page_first 4923
_journal_name_full 'Chemical Science '
loop_
_publ_author_name
"I.Huskic"
"N.Novendra"
"Dae-Woon Lim"
"F.Topic"
"H.M.Titi"
"I.V.Pekov"
"S.V.Krivovichev"
"A.Navrotsky"
"H.Kitagawa"
"T.Friscic"
_chemical_name_systematic
;
catena-[hexaaqua-magnesium tris(\m-oxalato)-iron(iii)-sodium trihydrate]
;
_chemical_name_common
;
Stepanovite
;
_cell_volume   3097.283
_exptl_crystal_colour 'green'
_exptl_crystal_density_diffrn 1.703
_exptl_special_details
;
photo-sensitive,Heat-sensitive,Light-sensitive,Photo-sensitive

;
_exptl_crystal_description 'rhombohedral block'
_exptl_crystal_preparation 'water'
_diffrn_ambient_temperature 100
_diffrn_special_details
;
twin

;
#These two values have been output from a single CSD field.
_refine_ls_R_factor_gt 0.0225
_refine_ls_wR_factor_gt 0.0225
_symmetry_cell_setting rhombohedral
_symmetry_space_group_name_H-M 'R 3 c'
_symmetry_Int_Tables_number 161
loop_
_symmetry_equiv_pos_site_id
_symmetry_equiv_pos_as_xyz
1 x,y,z
2 -y,x-y,z
3 -x+y,-x,z
4 -y,-x,1/2+z
5 -x+y,y,1/2+z
6 x,x-y,1/2+z
7 2/3+x,1/3+y,1/3+z
8 2/3-y,1/3+x-y,1/3+z
9 2/3-x+y,1/3-x,1/3+z
10 2/3-y,1/3-x,5/6+z
11 2/3-x+y,1/3+y,5/6+z
12 2/3+x,1/3+x-y,5/6+z
13 1/3+x,2/3+y,2/3+z
14 1/3-y,2/3+x-y,2/3+z
15 1/3-x+y,2/3-x,2/3+z
16 1/3-y,2/3-x,1/6+z
17 1/3-x+y,2/3+y,1/6+z
18 1/3+x,2/3+x-y,1/6+z
_cell_length_a 9.8670(9)
_cell_length_b 9.8670(9)
_cell_length_c 36.735(3)
_cell_angle_alpha 90
_cell_angle_beta 90
_cell_angle_gamma 120
_cell_formula_units_Z 6
loop_
_atom_type_symbol
_atom_type_radius_bond
C 0.68
H 0.23
Fe 1.52
Mg 1.41
Na 1.66
O 0.68
loop_
_atom_site_label
_atom_site_type_symbol
_atom_site_fract_x
_atom_site_fract_y
_atom_site_fract_z
Fe1 Fe 0.00000 0.00000 0.41809(2)
Na1 Na 0.66667 0.33333 0.41486(7)
O1 O 0.17758(15) 0.15714(15) 0.38721(4)
C1 C 0.3147(2) 0.20549(19) 0.40002(5)
O2 O 0.18138(14) 0.01664(15) 0.44663(4)
C2 C 0.31690(19) 0.1199(2) 0.43526(5)
O3 O 0.44188(16) 0.15296(18) 0.44895(4)
O4 O 0.43722(15) 0.30863(17) 0.38724(4)
Mg1 Mg 0.33333 0.66667 0.41621(4)
O5 O 0.52790(15) 0.80042(19) 0.44865(4)
H1 H 0.50406 0.84086 0.46508
H2 H 0.61473 0.80915 0.45040
O6 O 0.4685(2) 0.60825(16) 0.38437(4)
H3 H 0.46356 0.52820 0.38330
H4 H 0.48549 0.63994 0.36243
O7 O 0.47700(16) 0.47824(15) 0.49930(4)
H5 H 0.543(2) 0.492(3) 0.4847(6)
H6 H 0.489(3) 0.545(2) 0.5135(6)
O1A O -0.15714(15) 0.02044(15) 0.38721(4)
C1A C -0.20549(20) 0.10921(19) 0.40002(5)
O2A O -0.01664(14) 0.16474(15) 0.44663(4)
C2A C -0.11990(19) 0.1970(2) 0.43526(5)
O3A O -0.15296(16) 0.28892(18) 0.44895(4)
O4A O -0.30863(15) 0.12859(17) 0.38724(4)
O1B O -0.02044(15) -0.17758(15) 0.38721(4)
C1B C -0.10921(20) -0.31470(19) 0.40002(5)
O2B O -0.16474(14) -0.18138(15) 0.44663(4)
C2B C -0.19700(19) -0.3169(2) 0.43526(5)
O3B O -0.28892(16) -0.44188(18) 0.44895(4)
O4B O -0.12859(15) -0.43722(17) 0.38724(4)
Na1* Na -0.33333 -0.66667 0.41486(7)
Na1** Na -0.33333 0.33333 0.41486(7)
O3A* O 0.84704(16) 0.28892(18) 0.44895(4)
O3B* O 0.71108(16) 0.55812(18) 0.44895(4)
O4A* O 0.69137(15) 0.12859(17) 0.38724(4)
O4B* O 0.87141(15) 0.56278(17) 0.38724(4)
O5A O 0.19958(15) 0.72748(19) 0.44865(4)
H1A H 0.15914 0.66320 0.46508
H2A H 0.19085 0.80557 0.45040
O6A O 0.39175(20) 0.86025(16) 0.38437(4)
H3A H 0.47180 0.93536 0.38330
H4A H 0.36006 0.84556 0.36243
O5B O 0.27252(15) 0.47210(19) 0.44865(4)
H1B H 0.33680 0.49594 0.46508
H2B H 0.19443 0.38527 0.45040
O6B O 0.13975(20) 0.53150(16) 0.38437(4)
H3B H 0.06464 0.53644 0.38330
H4B H 0.15444 0.51451 0.36243
#END
