
#######################################################################
#
#                 Cambridge Crystallographic Data Centre
#                                CCDC
#
#######################################################################
#
# If this CIF has been generated from an entry in the Cambridge
# Structural Database, then it will include bibliographic, chemical,
# crystal, experimental, refinement or atomic coordinate data resulting
# from the CCDC's data processing and validation procedures.
#
#######################################################################

data_CSD_CIF_OKUTUL
_audit_creation_date 2016-04-12
_audit_creation_method CSD-ConQuest-V1
_database_code_CSD OKUTUL
_database_code_depnum_ccdc_archive 'CCDC 1417409'
_chemical_formula_sum 'C6 H18 Fe1 Mg1 Na1 O21'
_chemical_formula_moiety
;
(C6 Fe1 Na1 O12 2-)n,n(H12 Mg1 O6 2+),3n(H2 O1)
;
_journal_coden_Cambridge 1826
_journal_volume 43
_journal_year 2016
_journal_page_first 287
_journal_name_full 'Phys.Chem. Minerals '
loop_
_publ_author_name
"O.E.Piro"
"G.A.Echeverria"
"A.C.Gonzalez-Baro"
"E.J.Baran"
_chemical_name_systematic
;
catena-(Hexa-aqua-magnesium tris(\m~2~-oxalato)-iron-sodium trihydrate)
;
_chemical_name_common
;
Stepanovite
;
_cell_volume   3126.636
_exptl_crystal_colour 'yellow'
_exptl_crystal_density_diffrn 1.687
_exptl_special_details
;
trigonal polymorph

;
_exptl_crystal_description 'plate'
_exptl_crystal_preparation 'Water'
_diffrn_ambient_temperature 297
#These two values have been output from a single CSD field.
_refine_ls_R_factor_gt 0.0352
_refine_ls_wR_factor_gt 0.0352
_symmetry_cell_setting hexagonal
_symmetry_space_group_name_H-M 'P 3 c 1'
_symmetry_Int_Tables_number 158
loop_
_symmetry_equiv_pos_site_id
_symmetry_equiv_pos_as_xyz
1 x,y,z
2 -y,x-y,z
3 -x+y,-x,z
4 -y,-x,1/2+z
5 -x+y,y,1/2+z
6 x,x-y,1/2+z
_cell_length_a 17.0483(4)
_cell_length_b 17.0483(4)
_cell_length_c 12.4218(4)
_cell_angle_alpha 90
_cell_angle_beta 90
_cell_angle_gamma 120
_cell_formula_units_Z 6
loop_
_atom_type_symbol
_atom_type_radius_bond
C 0.68
H 0.23
Fe 1.52
Mg 1.41
Na 1.66
O 0.68
loop_
_atom_site_label
_atom_site_type_symbol
_atom_site_fract_x
_atom_site_fract_y
_atom_site_fract_z
C1 C -0.1716(4) 0.6373(4) 0.0852(5)
C2 C -0.1464(4) 0.6928(4) 0.1895(5)
C3 C 0.1800(4) 0.8189(5) 0.1891(5)
C4 C 0.1504(4) 0.8490(4) 0.0874(5)
C5 C -0.0260(4) 0.5039(4) 0.1897(5)
C6 C 0.0299(4) 0.5303(4) 0.0850(6)
O1 O -0.1064(3) 0.6295(3) 0.0422(4)
O2 O -0.0643(3) 0.7223(3) 0.2203(4)
O3 O -0.2483(3) 0.6038(3) 0.0488(5)
O4 O -0.2028(3) 0.7064(3) 0.2319(5)
O5 O 0.1170(3) 0.7440(3) 0.2265(5)
O6 O 0.0739(3) 0.7904(3) 0.0476(4)
O7 O 0.2566(3) 0.8645(3) 0.2242(5)
O8 O 0.1995(3) 0.9249(3) 0.0488(5)
O9 O -0.0477(3) 0.5617(3) 0.2215(4)
O10 O 0.0548(3) 0.6100(3) 0.0499(5)
O11 O -0.0470(3) 0.4305(3) 0.2315(4)
O12 O 0.0460(4) 0.4760(3) 0.0404(5)
Fe1 Fe 0.00474(9) 0.67664(3) 0.13550(14)
Na1 Na -0.0047(3) 0.3386(3) 0.1339(5)
O13 O 0.2224(3) 0.5853(3) 0.2260(4)
H1 H 0.191(4) 0.5277(9) 0.228(5)
H2 H 0.214(4) 0.604(4) 0.287(3)
O14 O 0.2528(3) 0.6974(3) 0.0356(4)
H3 H 0.1977(14) 0.661(3) 0.021(5)
H4 H 0.272(3) 0.739(3) -0.012(4)
Mg1 Mg 0.33330 0.66670 0.1313(4)
O15 O -0.0812(2) 0.8892(3) 0.0417(3)
H5 H -0.1377(12) 0.868(4) 0.033(5)
H6 H -0.065(3) 0.863(4) -0.006(3)
O16 O 0.0289(3) 0.9185(2) 0.2327(3)
H7 H 0.004(3) 0.8610(9) 0.238(4)
H8 H 0.059(4) 0.940(3) 0.291(3)
Mg2 Mg 0.00000 1.00000 0.1368(5)
O17 O -0.2228(3) 0.3641(3) 0.0505(4)
H9 H -0.202(4) 0.401(3) -0.002(3)
H10 H -0.204(4) 0.327(3) 0.040(5)
O18 O -0.3051(3) 0.2511(3) 0.2416(4)
H11 H -0.271(4) 0.275(3) 0.297(3)
H12 H -0.322(3) 0.1949(12) 0.244(5)
Mg3 Mg -0.33330 0.33330 0.1452(4)
O19 O 0.3370(4) 0.5072(3) 0.3842(5)
H13 H 0.318(3) 0.468(3) 0.333(3)
H14 H 0.380(3) 0.501(3) 0.414(4)
O20 O 0.6605(3) 0.4907(2) 0.3912(4)
H15 H 0.695(3) 0.540(2) 0.424(4)
H16 H 0.642(3) 0.505(3) 0.335(3)
O21 O 0.8421(2) 0.8389(2) 0.3849(4)
H17 H 0.795(2) 0.832(3) 0.418(3)
H18 H 0.822(3) 0.802(3) 0.332(3)
O3B O -0.1479(3) 0.2483(3) 0.0488(5)
O4B O -0.0908(3) 0.2028(3) 0.2319(5)
O7A O 0.1355(3) 0.3921(3) 0.2242(5)
O8A O 0.0751(3) 0.2746(3) 0.0488(5)
Na1A Na -0.3386(3) 0.6567(3) 0.1339(5)
Na1B Na 0.3433(3) 1.0047(3) 0.1339(5)
O13A O 0.4147(3) 0.6371(3) 0.2260(4)
H1A H 0.4723(40) 0.6633(9) 0.228(5)
H2A H 0.396(4) 0.610(4) 0.287(3)
O14A O 0.3026(3) 0.5554(3) 0.0356(4)
H3A H 0.3390(14) 0.5367(30) 0.021(5)
H4A H 0.261(3) 0.533(3) -0.012(4)
O13B O 0.3629(3) 0.7776(3) 0.2260(4)
H1B H 0.3367(40) 0.8090(9) 0.228(5)
H2B H 0.390(4) 0.786(4) 0.287(3)
O14B O 0.4446(3) 0.7472(3) 0.0356(4)
H3B H 0.4633(14) 0.8023(30) 0.021(5)
H4B H 0.467(3) 0.728(3) -0.012(4)
O15A O 0.1108(2) 1.0296(3) 0.0417(3)
H5A H 0.1320(12) 0.9943(40) 0.033(5)
H6A H 0.137(3) 1.072(4) -0.006(3)
O16A O 0.0815(3) 1.1104(2) 0.2327(3)
H7A H 0.139(3) 1.1430(9) 0.238(4)
H8A H 0.060(4) 1.119(3) 0.291(3)
O15B O -0.0296(2) 1.0812(3) 0.0417(3)
H5B H 0.0057(12) 1.1377(40) 0.033(5)
H6B H -0.072(3) 1.065(4) -0.006(3)
O16B O -0.1104(3) 0.9711(2) 0.2327(3)
H7B H -0.143(3) 0.9960(9) 0.238(4)
H8B H -0.119(4) 0.941(3) 0.291(3)
O17A O -0.3641(3) 0.4131(3) 0.0505(4)
H9A H -0.401(4) 0.397(3) -0.002(3)
H10A H -0.327(4) 0.469(3) 0.040(5)
O18A O -0.2511(3) 0.4438(3) 0.2416(4)
H11A H -0.275(4) 0.454(3) 0.297(3)
H12A H -0.1949(30) 0.4831(12) 0.244(5)
O17B O -0.4131(3) 0.2228(3) 0.0505(4)
H9B H -0.397(4) 0.202(3) -0.002(3)
H10B H -0.469(4) 0.204(3) 0.040(5)
O18B O -0.4438(3) 0.3051(3) 0.2416(4)
H11B H -0.454(4) 0.271(3) 0.297(3)
H12B H -0.4831(30) 0.3220(12) 0.244(5)
#END
