
#######################################################################
#
#                 Cambridge Crystallographic Data Centre
#                                CCDC
#
#######################################################################
#
# If this CIF has been generated from an entry in the Cambridge
# Structural Database, then it will include bibliographic, chemical,
# crystal, experimental, refinement or atomic coordinate data resulting
# from the CCDC's data processing and validation procedures.
#
#######################################################################

data_CSD_CIF_OKUVAT03
_audit_creation_date 2016-10-18
_audit_creation_method CSD-ConQuest-V1
_database_code_CSD OKUVAT03
_database_code_depnum_ccdc_archive 'CCDC 1057601'
_chemical_formula_sum 'C6 H18 Al1 Mg1 Na1 O21'
_chemical_formula_moiety
;
(C6 Al1 Na1 O12 2-)n,H12 Mg1 O6 2+,3(H2 O1)
;
_journal_coden_Cambridge 211
_journal_volume 68
_journal_year 2015
_journal_page_first 3776
_journal_name_full 'J.Coord.Chem. '
loop_
_publ_author_name
"O.E.Piro"
"G.A.Echeverria"
"A.C.Gonzalez-Baro"
"E.J.Baran"
_chemical_name_systematic
;
catena-[(hexa-aqua-magnesium(ii)) tris(\m-oxalato)-aluminium(iii)-sodium(i) 
trihydrate]
;
_cell_volume   3075.257
_exptl_crystal_colour 'colorless'
_exptl_crystal_density_diffrn 1.621
_exptl_crystal_description 'prism'
_exptl_crystal_preparation 'Water'
_diffrn_ambient_temperature 297
#These two values have been output from a single CSD field.
_refine_ls_R_factor_gt 0.048
_refine_ls_wR_factor_gt 0.048
_symmetry_cell_setting hexagonal
_symmetry_space_group_name_H-M 'P 3 c 1'
_symmetry_Int_Tables_number 158
loop_
_symmetry_equiv_pos_site_id
_symmetry_equiv_pos_as_xyz
1 x,y,z
2 -y,x-y,z
3 -x+y,-x,z
4 -y,-x,1/2+z
5 -x+y,y,1/2+z
6 x,x-y,1/2+z
_cell_length_a 16.7567(2)
_cell_length_b 16.7567(2)
_cell_length_c 12.6466(2)
_cell_angle_alpha 90
_cell_angle_beta 90
_cell_angle_gamma 120
_cell_formula_units_Z 6
loop_
_atom_type_symbol
_atom_type_radius_bond
C 0.68
H 0.23
Al 1.21
Mg 1.41
Na 1.66
O 0.68
loop_
_atom_site_label
_atom_site_type_symbol
_atom_site_fract_x
_atom_site_fract_y
_atom_site_fract_z
C1 C 1.1668(3) 0.3617(2) 0.9149(3)
C2 C 1.1416(3) 0.3042(3) 0.8123(3)
C3 C 0.8251(3) 0.1885(3) 0.8128(3)
C4 C 0.8554(3) 0.1590(3) 0.9142(3)
C5 C 1.0284(3) 0.4967(3) 0.8112(3)
C6 C 0.9722(3) 0.4680(3) 0.9151(3)
O1 O 1.1026(2) 0.37333(19) 0.9515(3)
O2 O 1.0587(2) 0.2792(2) 0.7821(2)
O3 O 1.2450(2) 0.3938(2) 0.9528(3)
O4 O 1.1968(2) 0.2891(2) 0.7695(3)
O5 O 0.8901(2) 0.2665(2) 0.7777(3)
O6 O 0.9347(2) 0.2190(2) 0.9485(3)
O7 O 0.7498(2) 0.1405(2) 0.7748(3)
O8 O 0.8061(2) 0.0825(2) 0.9530(3)
O9 O 1.0476(2) 0.4352(2) 0.7796(2)
O10 O 0.9478(2) 0.3867(2) 0.9467(3)
O11 O 1.0482(2) 0.5687(2) 0.7689(3)
O12 O 0.9534(3) 0.5220(2) 0.9587(3)
Al1 Al 0.99684(11) 0.32630(4) 0.86421(16)
Na1 Na 1.00339(16) 0.66297(15) 0.8631(3)
O13 O 0.7803(2) 0.4150(2) 0.7763(2)
H1 H 0.800(3) 0.404(3) 0.719(2)
H2 H 0.807(3) 0.4741(8) 0.779(3)
O14 O 0.7478(2) 0.3019(2) 0.9647(3)
H3 H 0.732(3) 0.270(3) 1.022(2)
H4 H 0.8069(8) 0.335(3) 0.968(4)
Mg1 Mg 0.66670 0.33330 0.8711(2)
O15 O 1.08179(19) 0.1131(2) 0.9522(2)
H5 H 1.055(3) 0.125(4) 1.002(3)
H6 H 1.1382(12) 0.135(4) 0.973(3)
O16 O 0.9679(2) 0.08144(18) 0.7646(2)
H7 H 0.924(2) 0.059(3) 0.720(3)
H8 H 0.991(3) 0.1399(8) 0.764(4)
Mg2 Mg 1.00000 0.00000 0.8600(3)
O17 O 1.2204(2) 0.6345(2) 0.9462(2)
H9 H 1.213(3) 0.596(3) 0.995(3)
H10 H 1.202(4) 0.670(3) 0.973(3)
O18 O 1.3017(2) 0.7489(2) 0.7580(2)
H11 H 1.251(2) 0.725(3) 0.723(3)
H12 H 1.317(3) 0.8058(11) 0.767(4)
Mg3 Mg 1.33330 0.66670 0.8557(3)
O19 O 0.6615(3) 0.4920(2) 0.6163(3)
H13 H 0.706(2) 0.5424(16) 0.641(3)
H14 H 0.633(3) 0.508(3) 0.573(3)
O20 O 0.3411(2) 0.50915(18) 0.6077(2)
H15 H 0.380(3) 0.505(3) 0.649(3)
H16 H 0.324(3) 0.4643(15) 0.5635(19)
O21 O 0.15749(17) 0.16314(17) 0.6122(2)
H17 H 0.167(3) 0.2096(19) 0.651(3)
H18 H 0.2022(14) 0.187(3) 0.5668(18)
O3B O 1.1488(2) 0.7550(2) 0.9528(3)
O4B O 1.0923(2) 0.8032(2) 0.7695(3)
O7A O 0.8595(2) 0.6093(2) 0.7748(3)
O8A O 0.9175(2) 0.7236(2) 0.9530(3)
Na1A Na 1.33703(16) 0.34042(15) 0.8631(3)
Na1B Na 0.65958(16) -0.00339(15) 0.8631(3)
O13A O 0.5850(2) 0.3653(2) 0.7763(2)
H1A H 0.596(3) 0.396(3) 0.719(2)
H2A H 0.5259(30) 0.3329(8) 0.779(3)
O14A O 0.6981(2) 0.4459(2) 0.9647(3)
H3A H 0.730(3) 0.462(3) 1.022(2)
H4A H 0.6650(8) 0.4719(30) 0.968(4)
O13B O 0.6347(2) 0.2197(2) 0.7763(2)
H1B H 0.604(3) 0.200(3) 0.719(2)
H2B H 0.6671(30) 0.1930(8) 0.779(3)
O14B O 0.5541(2) 0.2522(2) 0.9647(3)
H3B H 0.538(3) 0.268(3) 1.022(2)
H4B H 0.5281(8) 0.1931(30) 0.968(4)
O15A O 0.88690(19) -0.03131(20) 0.9522(2)
H5A H 0.875(3) -0.070(4) 1.002(3)
H6A H 0.8650(12) 0.0032(40) 0.973(3)
O16A O 0.91856(20) -0.11354(18) 0.7646(2)
H7A H 0.941(2) -0.135(3) 0.720(3)
H8A H 0.8601(30) -0.1489(8) 0.764(4)
O15B O 1.03131(19) -0.08179(20) 0.9522(2)
H5B H 1.070(3) -0.055(4) 1.002(3)
H6B H 0.9968(12) -0.1382(40) 0.973(3)
O16B O 1.11354(20) 0.03210(18) 0.7646(2)
H7B H 1.135(2) 0.076(3) 0.720(3)
H8B H 1.1489(30) 0.0090(8) 0.764(4)
O17A O 1.3655(2) 0.5859(2) 0.9462(2)
H9A H 1.404(3) 0.617(3) 0.995(3)
H10A H 1.330(4) 0.532(3) 0.973(3)
O18A O 1.2511(2) 0.5528(2) 0.7580(2)
H11A H 1.275(2) 0.526(3) 0.723(3)
H12A H 1.1942(30) 0.5112(11) 0.767(4)
O17B O 1.4141(2) 0.7796(2) 0.9462(2)
H9B H 1.383(3) 0.787(3) 0.995(3)
H10B H 1.468(4) 0.798(3) 0.973(3)
O18B O 1.4472(2) 0.6983(2) 0.7580(2)
H11B H 1.474(2) 0.749(3) 0.723(3)
H12B H 1.4888(30) 0.6830(11) 0.767(4)
#END
