
#######################################################################
#
#                 Cambridge Crystallographic Data Centre
#                                CCDC
#
#######################################################################
#
# If this CIF has been generated from an entry in the Cambridge
# Structural Database, then it will include bibliographic, chemical,
# crystal, experimental, refinement or atomic coordinate data resulting
# from the CCDC's data processing and validation procedures.
#
#######################################################################

data_CSD_CIF_OKUYEZ
_audit_creation_date 2011-04-25
_audit_creation_method CSD-ConQuest-V1
_database_code_CSD OKUYEZ
_database_code_depnum_ccdc_archive 'CCDC 754633; not CCDC 754632 as published'
_chemical_formula_sum 'C10 H18 N1 O10 P3 Zn2'
_chemical_formula_moiety
;
(C6 H4 O9 P3 Zn2 1-)n,n(H2 O1),n(C4 H12 N1 1+)
;
_journal_coden_Cambridge 241
_journal_volume 40
_journal_year 2011
_journal_page_first 215
_journal_name_full 'Chem.Lett. '
loop_
_publ_author_name
"K.Maeda"
"H.Hatasawa"
"K.Kawawa"
"N.Nagayoshi"
"Y.Matsushima"
_chemical_name_systematic
;
catena-((\m~8~-1,3,5-benzenetriphosphonato)-di-zinc tetramethylammonium 
monohydrate)
;
_cell_volume   1640.309
_exptl_special_details
;
powder data
No study temperature has been provided

;
_diffrn_ambient_temperature ?
_diffrn_special_details
;
The study was carried out at room temperature,in the range 283-303K

;
_refine_special_details
;
The interlayer tetramethylammonium cations are disordered. The sum formula is 
published as C9.44 H16.46 N0.86 O10 P3 Zn2.
;
#These two values have been output from a single CSD field.
_refine_ls_R_factor_gt 0.067
_refine_ls_wR_factor_gt 0.067
_symmetry_cell_setting orthorhombic
_symmetry_space_group_name_H-M 'P b a 2'
_symmetry_Int_Tables_number 32
loop_
_symmetry_equiv_pos_site_id
_symmetry_equiv_pos_as_xyz
1 x,y,z
2 -x,-y,z
3 1/2+x,1/2-y,z
4 1/2-x,1/2+y,z
_cell_length_a 15.8968(3)
_cell_length_b 8.5049(1)
_cell_length_c 12.1324(2)
_cell_angle_alpha 90
_cell_angle_beta 90
_cell_angle_gamma 90
_cell_formula_units_Z 4
loop_
_atom_type_symbol
_atom_type_radius_bond
C 0.68
H 0.23
N 0.68
O 0.68
P 1.05
Zn 1.22
loop_
_atom_site_label
_atom_site_type_symbol
_atom_site_fract_x
_atom_site_fract_y
_atom_site_fract_z
Zn1 Zn 0.2403(5) 0.8772(8) 0.839(1)
Zn2 Zn 0.2416(5) 0.8672(8) 1.130(1)
P1 P 0.3868(7) 1.130(1) 0.765(1)
P2 P 0.3798(6) 1.107(1) 1.219(1)
P3 P 0.6588(3) 1.3549(9) 1.00000
O1 O 0.345(1) 0.968(2) 0.773(2)
O2 O 0.661(1) 1.445(2) 0.889(1)
O3 O 0.338(1) 0.945(2) 1.217(2)
O4 O 0.672(1) 1.452(2) 1.105(1)
O5 O 0.7239(8) 1.216(1) 0.987(1)
O6 O 0.322(1) 1.255(2) 0.731(2)
O7 O 0.313(1) 1.237(2) 1.237(2)
O8 O 0.4561(9) 1.131(2) 0.679(1)
O9 O 0.4349(9) 1.100(2) 1.324(1)
C1 C 0.3971(7) 1.116(2) 0.991(1)
C2 C 0.5523(6) 1.274(2) 0.9977(7)
C3 C 0.511(1) 1.253(4) 0.897(1)
C4 C 0.434(1) 1.172(3) 0.894(1)
C5 C 0.512(1) 1.233(3) 1.0966(9)
C6 C 0.4346(8) 1.151(3) 1.093(1)
H1 H 0.531(3) 1.27(1) 1.163(2)
H2 H 0.535(6) 1.29(2) 0.832(2)
H3 H 0.343(2) 1.074(7) 0.989(1)
O10 O 0.045(1) 0.789(2) 0.501(3)
N1 N 0.1508(5) 0.130(2) 0.505(2)
C7 C 0.151(2) 0.124(4) 0.379(2)
C8 C 0.068(1) 0.066(4) 0.548(3)
C9 C 0.163(2) 0.298(2) 0.543(3)
C10 C 0.222(1) 0.030(3) 0.550(3)
C11? C 0.14(1) 0.06(1) 0.616(6)
C12? C 0.241(2) 0.18(1) 0.49(2)
C13? C 0.13(1) 0.01(1) 0.417(8)
C14? C 0.096(5) 0.272(7) 0.50(2)
Zn1B Zn 0.7403(5) 1.6228(8) 0.839(1)
Zn1A Zn 0.7597(5) 1.1228(8) 0.839(1)
Zn1C Zn 0.2597(5) 1.3772(8) 0.839(1)
Zn2B Zn 0.7416(5) 1.6328(8) 1.130(1)
Zn2A Zn 0.7584(5) 1.1328(8) 1.130(1)
Zn2C Zn 0.2584(5) 1.3672(8) 1.130(1)
O2B O 0.161(1) 1.055(2) 0.889(1)
O4B O 0.172(1) 1.048(2) 1.105(1)
O5A O 0.2761(8) 0.784(1) 0.987(1)
O6C O 0.178(1) 0.755(2) 0.731(2)
O7C O 0.187(1) 0.737(2) 1.237(2)
#END
