
#######################################################################
#
#                 Cambridge Crystallographic Data Centre
#                                CCDC
#
#######################################################################
#
# If this CIF has been generated from an entry in the Cambridge
# Structural Database, then it will include bibliographic, chemical,
# crystal, experimental, refinement or atomic coordinate data resulting
# from the CCDC's data processing and validation procedures.
#
#######################################################################

data_CSD_CIF_OLEKUL
_audit_creation_date 2004-02-04
_audit_creation_method CSD-ConQuest-V1
_database_code_CSD OLEKUL
_database_code_depnum_ccdc_archive 'CCDC 221285'
_chemical_formula_sum 'C131 H87 Cu3 N15 Na3 O18 Pd2'
_chemical_formula_moiety
;
(Na1 1+)3n,n(C15 H15 Cu1 N3 1+),n(C96 H48 Cu2 N8 O16 Pd2 4-),4n(C5 H5 
N1),2n(H2 O1)
;
_journal_coden_Cambridge 1147
_journal_volume 3
_journal_year 2003
_journal_page_first 855
_journal_name_full 'Cryst.Growth Des. '
loop_
_publ_author_name
"M.Shmilovits"
"Y.Diskin-Posner"
"M.Vinodu"
"I.Goldberg"
_chemical_name_systematic
;
catena-[Tri-sodium 
bis(\m~5~-5,10,15,20-tetrakis(4-carboxyphenyl)porphyrinato)-di-copper-di-palla
dium tripyridyl-copper(i) tetrapyridine clathrate dihydrate]
;
_cell_volume   2726.704
_exptl_crystal_colour 'violet'
_exptl_crystal_density_diffrn 1.603
_exptl_special_details
;
isomorphous with the Pt-analogue

;
_exptl_crystal_description 'prisms'
_diffrn_ambient_temperature 110
_refine_special_details
;
The clathrated cation is disordered by symmetry. An uncoordinated pyridine N 
atom is disordered and has not been located.
;
#These two values have been output from a single CSD field.
_refine_ls_R_factor_gt 0.0532
_refine_ls_wR_factor_gt 0.0532
_symmetry_cell_setting triclinic
_symmetry_space_group_name_H-M 'P -1'
_symmetry_Int_Tables_number 2
loop_
_symmetry_equiv_pos_site_id
_symmetry_equiv_pos_as_xyz
1 x,y,z
2 -x,-y,-z
_cell_length_a 12.8740(2)
_cell_length_b 13.0790(2)
_cell_length_c 16.4710(4)
_cell_angle_alpha 86.1930(6)
_cell_angle_beta 85.9540(6)
_cell_angle_gamma 80.8150(7)
_cell_formula_units_Z 1
loop_
_atom_type_symbol
_atom_type_radius_bond
C 0.68
H 0.23
Cu 1.29
N 0.68
Na 0.97
O 0.68
Pd 1.50
loop_
_atom_site_label
_atom_site_type_symbol
_atom_site_fract_x
_atom_site_fract_y
_atom_site_fract_z
Pd1 Pd -0.00192(2) 0.77153(2) -0.011609(17)
Cu1 Cu -0.54144(4) 1.23331(3) 0.48954(3)
Cu2 Cu 0.53068(10) 0.04435(7) 0.02566(7)
Na1 Na 0.50000 0.00000 0.50000
Na2 Na 0.60746(13) 0.39761(11) 0.49518(9)
C1 C -0.0489(3) 0.8453(3) 0.1604(2)
C2 C -0.1211(3) 0.9309(3) 0.1369(2)
C3 C -0.1440(3) 0.9595(3) 0.0566(2)
C4 C -0.2161(3) 1.0500(3) 0.0309(2)
H1 H -0.24970 1.10370 0.06420
C5 C -0.2269(3) 1.0439(3) -0.0495(2)
H2 H -0.26970 1.09290 -0.08300
C6 C -0.1621(3) 0.9502(3) -0.0755(2)
C7 C -0.1599(3) 0.9120(3) -0.1529(2)
C8 C -0.0950(3) 0.8220(3) -0.1773(2)
C9 C -0.0852(3) 0.7870(3) -0.2590(2)
H3 H -0.12540 0.81670 -0.30330
C10 C -0.0078(3) 0.7039(3) -0.2608(2)
H4 H 0.01630 0.66420 -0.30660
C11 C 0.0312(3) 0.6866(3) -0.1806(2)
C12 C 0.1154(3) 0.6106(3) -0.1596(2)
C13 C 0.1537(3) 0.5947(3) -0.0821(2)
C14 C 0.2413(3) 0.5177(3) -0.0599(2)
H5 H 0.28410 0.47190 -0.09540
C15 C 0.2515(3) 0.5223(3) 0.0205(2)
H6 H 0.30220 0.48010 0.05240
C16 C 0.1707(3) 0.6034(3) 0.0486(2)
C17 C 0.1549(3) 0.6307(3) 0.1295(2)
C18 C 0.0775(3) 0.7106(3) 0.1565(2)
C19 C 0.0561(3) 0.7340(3) 0.2407(2)
H7 H 0.09060 0.69880 0.28600
C20 C -0.0229(3) 0.8158(3) 0.2429(2)
H8 H -0.05510 0.84790 0.29040
N1 N 0.0126(2) 0.7785(2) 0.10871(18)
N2 N -0.1106(2) 0.9016(2) -0.00991(18)
N3 N -0.0234(2) 0.7591(2) -0.13058(18)
N4 N 0.1136(3) 0.6476(2) -0.01506(18)
C21 C -0.1815(3) 0.9944(3) 0.2021(2)
C22 C -0.2571(3) 0.9518(3) 0.2528(2)
H9 H -0.26570 0.88170 0.24770
C23 C -0.3198(3) 1.0101(3) 0.3104(2)
H10 H -0.37220 0.98040 0.34320
C24 C -0.3062(3) 1.1123(3) 0.3204(2)
C25 C -0.2281(3) 1.1527(3) 0.2723(2)
H11 H -0.21600 1.22110 0.27990
C26 C -0.1672(3) 1.0952(3) 0.2133(2)
H12 H -0.11520 1.12530 0.18020
C27 C -0.3757(3) 1.1785(3) 0.3795(2)
C28 C -0.2265(3) 0.9745(3) -0.2146(2)
C29 C -0.2032(3) 1.0714(3) -0.2418(3)
H13 H -0.14700 1.09710 -0.21960
C30 C -0.2605(3) 1.1310(3) -0.3005(2)
H14 H -0.24190 1.19630 -0.31930
C31 C -0.3451(3) 1.0968(3) -0.3323(2)
C32 C -0.3686(3) 0.9985(3) -0.3061(2)
H15 H -0.42530 0.97310 -0.32790
C33 C -0.3088(3) 0.9376(3) -0.2478(2)
H16 H -0.32440 0.87060 -0.23080
C34 C -0.4064(3) 1.1662(3) -0.3950(2)
C35 C 0.1650(3) 0.5384(3) -0.2234(2)
C36 C 0.2628(3) 0.5451(3) -0.2616(2)
H17 H 0.30010 0.59790 -0.24780
C37 C 0.3078(3) 0.4765(3) -0.3196(2)
H18 H 0.37520 0.48260 -0.34530
C38 C 0.2537(3) 0.3987(3) -0.3399(2)
C39 C 0.1556(3) 0.3919(3) -0.3020(3)
H19 H 0.11800 0.33930 -0.31590
C40 C 0.1113(3) 0.4607(3) -0.2441(3)
H20 H 0.04390 0.45470 -0.21850
C41 C 0.3002(3) 0.3195(3) -0.4000(2)
C42 C 0.2229(3) 0.5704(3) 0.1914(2)
C43 C 0.2103(3) 0.4693(3) 0.2178(2)
H21 H 0.16070 0.43620 0.19340
C44 C 0.2693(3) 0.4166(3) 0.2791(2)
H22 H 0.26040 0.34760 0.29650
C45 C 0.3416(3) 0.4649(3) 0.3152(2)
C46 C 0.3569(3) 0.5649(3) 0.2882(2)
H23 H 0.40710 0.59770 0.31210
C47 C 0.2983(3) 0.6160(3) 0.2263(2)
H24 H 0.30970 0.68370 0.20720
C48 C 0.4029(3) 0.4102(3) 0.3843(2)
O1 O -0.4540(2) 1.13943(18) 0.41447(16)
O2 O -0.3564(2) 1.26632(19) 0.39121(17)
O3 O -0.3780(2) 1.24984(19) -0.41755(17)
O4 O -0.4861(2) 1.13401(18) -0.42088(15)
O5 O 0.3899(2) 0.33075(19) -0.43297(16)
O6 O 0.2496(3) 0.2498(2) -0.4128(2)
O7 O 0.3935(2) 0.31452(18) 0.39880(15)
O8 O 0.4577(2) 0.45905(19) 0.42226(16)
N5 N 0.2055(3) 0.6024(3) 0.5010(2)
C49 C 0.1492(5) 0.6943(5) 0.5224(4)
H25 H 0.18390 0.73800 0.55140
C50 C 0.0450(5) 0.7300(5) 0.5054(4)
H26 H 0.00980 0.79500 0.52290
C51 C -0.0036(6) 0.6706(6) 0.4642(4)
H27 H -0.07460 0.69230 0.45080
C52 C 0.0520(6) 0.5737(6) 0.4402(5)
H28 H 0.01990 0.53020 0.40890
C53 C 0.1545(5) 0.5439(5) 0.4636(4)
H29 H 0.18920 0.47650 0.45140
N6 N 0.5606(4) -0.1031(3) 0.0720(3)
C54 C 0.5161(4) -0.1313(4) 0.1437(3)
H30 H 0.45290 -0.09020 0.16340
C55 C 0.5573(4) -0.2167(3) 0.1903(3)
H31 H 0.52270 -0.23550 0.24060
C56 C 0.6501(4) -0.2747(3) 0.1624(3)
H32 H 0.68040 -0.33480 0.19310
C57 C 0.6987(4) -0.2448(3) 0.0895(3)
H33 H 0.76360 -0.28280 0.06970
C58 C 0.6513(4) -0.1588(3) 0.0461(3)
H34 H 0.68440 -0.13820 -0.00440
N7 N 0.5419(4) 0.1893(5) 0.0754(4)
C59 C 0.5356(4) 0.1958(4) 0.1553(4)
H35 H 0.54490 0.13350 0.18900
C60 C 0.5162(4) 0.2881(4) 0.1914(3)
H36 H 0.50910 0.28930 0.24910
C61 C 0.5069(4) 0.3797(4) 0.1445(4)
H37 H 0.49390 0.44340 0.17070
C62 C 0.5157(5) 0.3816(5) 0.0624(3)
H38 H 0.50920 0.44420 0.02910
C63 C 0.5353(5) 0.2833(7) 0.0306(4)
H39 H 0.54480 0.28090 -0.02700
C64 C 0.9278(7) 0.9998(6) 0.4458(5)
H40 H 0.87810 1.00250 0.40540
C65 C 0.8949(6) 0.9952(5) 0.5242(5)
H41 H 0.82390 0.98940 0.54120
C66 C 1.0320(2) 1.0007(2) 0.42190(17)
H42 H 1.05330 0.99840 0.36550
O9 O 0.3299(2) 0.0994(2) 0.48864(17)
H43 H 0.30460 0.10890 0.45040
H44 H 0.29570 0.13030 0.52250
C66A C 0.9680(2) 0.9993(2) 0.57810(17)
C64A C 1.0722(7) 1.0002(6) 0.5542(5)
H40A H 1.12190 0.99750 0.59460
C65A C 1.1051(6) 1.0048(5) 0.4758(5)
H41A H 1.17610 1.01060 0.45880
H42A H 0.94670 1.00160 0.63450
Cu1* Cu -0.54144(4) 1.23331(3) -0.51046(3)
C1* C -0.0489(3) 0.8453(3) 1.1604(2)
C2* C -0.1211(3) 0.9309(3) 1.1369(2)
C3* C -0.1440(3) 0.9595(3) 1.0566(2)
C4* C -0.2161(3) 1.0500(3) 1.0309(2)
H1* H -0.24970 1.10370 1.06420
C5* C -0.2269(3) 1.0439(3) 0.9505(2)
H2* H -0.26970 1.09290 0.91700
C6* C -0.1621(3) 0.9502(3) 0.9245(2)
C7* C -0.1599(3) 0.9120(3) 0.8471(2)
C8* C -0.0950(3) 0.8220(3) 0.8227(2)
C9* C -0.0852(3) 0.7870(3) 0.7410(2)
H3* H -0.12540 0.81670 0.69670
C10* C -0.0078(3) 0.7039(3) 0.7392(2)
H4* H 0.01630 0.66420 0.69340
C11* C 0.0312(3) 0.6866(3) 0.8194(2)
C12* C 0.1154(3) 0.6106(3) 0.8404(2)
C13* C 0.1537(3) 0.5947(3) 0.9179(2)
C14* C 0.2413(3) 0.5177(3) 0.9401(2)
H5* H 0.28410 0.47190 0.90460
C15* C 0.2515(3) 0.5223(3) 1.0205(2)
H6* H 0.30220 0.48010 1.05240
C16* C 0.1707(3) 0.6034(3) 1.0486(2)
C17* C 0.1549(3) 0.6307(3) 1.1295(2)
C18* C 0.0775(3) 0.7106(3) 1.1565(2)
C19* C 0.0561(3) 0.7340(3) 1.2407(2)
H7* H 0.09060 0.69880 1.28600
C20* C -0.0229(3) 0.8158(3) 1.2429(2)
H8* H -0.05510 0.84790 1.29040
N1* N 0.0126(2) 0.7785(2) 1.10871(18)
N2* N -0.1106(2) 0.9016(2) 0.99009(18)
N3* N -0.0234(2) 0.7591(2) 0.86942(18)
N4* N 0.1136(3) 0.6476(2) 0.98494(18)
C21* C -0.1815(3) 0.9944(3) 1.2021(2)
C22* C -0.2571(3) 0.9518(3) 1.2528(2)
H9* H -0.26570 0.88170 1.24770
C23* C -0.3198(3) 1.0101(3) 1.3104(2)
H10* H -0.37220 0.98040 1.34320
C24* C -0.3062(3) 1.1123(3) 1.3204(2)
C25* C -0.2281(3) 1.1527(3) 1.2723(2)
H11* H -0.21600 1.22110 1.27990
C26* C -0.1672(3) 1.0952(3) 1.2133(2)
H12* H -0.11520 1.12530 1.18020
C27* C -0.3757(3) 1.1785(3) 1.3795(2)
C28* C -0.2265(3) 0.9745(3) 0.7854(2)
C29* C -0.2032(3) 1.0714(3) 0.7582(3)
H13* H -0.14700 1.09710 0.78040
C30* C -0.2605(3) 1.1310(3) 0.6995(2)
H14* H -0.24190 1.19630 0.68070
C31* C -0.3451(3) 1.0968(3) 0.6677(2)
C32* C -0.3686(3) 0.9985(3) 0.6939(2)
H15* H -0.42530 0.97310 0.67210
C33* C -0.3088(3) 0.9376(3) 0.7522(2)
H16* H -0.32440 0.87060 0.76920
C34* C -0.4064(3) 1.1662(3) 0.6050(2)
C35* C 0.1650(3) 0.5384(3) 0.7766(2)
C36* C 0.2628(3) 0.5451(3) 0.7384(2)
H17* H 0.30010 0.59790 0.75220
C37* C 0.3078(3) 0.4765(3) 0.6804(2)
H18* H 0.37520 0.48260 0.65470
C38* C 0.2537(3) 0.3987(3) 0.6601(2)
C39* C 0.1556(3) 0.3919(3) 0.6980(3)
H19* H 0.11800 0.33930 0.68410
C40* C 0.1113(3) 0.4607(3) 0.7559(3)
H20* H 0.04390 0.45470 0.78150
C41* C 0.3002(3) 0.3195(3) 0.6000(2)
C42* C 0.2229(3) 0.5704(3) 1.1914(2)
C43* C 0.2103(3) 0.4693(3) 1.2178(2)
H21* H 0.16070 0.43620 1.19340
C44* C 0.2693(3) 0.4166(3) 1.2791(2)
H22* H 0.26040 0.34760 1.29650
C45* C 0.3416(3) 0.4649(3) 1.3152(2)
C46* C 0.3569(3) 0.5649(3) 1.2882(2)
H23* H 0.40710 0.59770 1.31210
C47* C 0.2983(3) 0.6160(3) 1.2263(2)
H24* H 0.30970 0.68370 1.20720
C48* C 0.4029(3) 0.4102(3) 1.3843(2)
O1* O -0.4540(2) 1.13943(18) 1.41447(16)
O2* O -0.3564(2) 1.26632(19) 1.39121(17)
O3* O -0.3780(2) 1.24984(19) 0.58245(17)
O4* O -0.4861(2) 1.13401(18) 0.57912(15)
O5* O 0.3899(2) 0.33075(19) 0.56703(16)
O6* O 0.2496(3) 0.2498(2) 0.5872(2)
O7* O 0.3935(2) 0.31452(18) 1.39880(15)
O8* O 0.4577(2) 0.45905(19) 1.42226(16)
Pd1* Pd -0.00192(2) 0.77153(2) 0.988391(17)
N6A N 0.4394(4) 0.1031(3) -0.0720(3)
C54A C 0.4839(4) 0.1313(4) -0.1437(3)
H30A H 0.54710 0.09020 -0.16340
C55A C 0.4427(4) 0.2167(3) -0.1903(3)
H31A H 0.47730 0.23550 -0.24060
C56A C 0.3499(4) 0.2747(3) -0.1624(3)
H32A H 0.31960 0.33480 -0.19310
C57A C 0.3013(4) 0.2448(3) -0.0895(3)
H33A H 0.23640 0.28280 -0.06970
C58A C 0.3487(4) 0.1588(3) -0.0461(3)
H34A H 0.31560 0.13820 0.00440
Cu2A Cu 0.46932(10) -0.04435(7) -0.02566(7)
N7A N 0.4581(4) -0.1893(5) -0.0754(4)
C59A C 0.4644(4) -0.1958(4) -0.1553(4)
H35A H 0.45510 -0.13350 -0.18900
C60A C 0.4838(4) -0.2881(4) -0.1914(3)
H36A H 0.49090 -0.28930 -0.24910
C61A C 0.4931(4) -0.3797(4) -0.1445(4)
H37A H 0.50610 -0.44340 -0.17070
C62A C 0.4843(5) -0.3816(5) -0.0624(3)
H38A H 0.49080 -0.44420 -0.02910
C63A C 0.4647(5) -0.2833(7) -0.0306(4)
H39A H 0.45520 -0.28090 0.02700
O5** O -0.6101(2) 1.33075(19) 0.56703(16)
O7** O -0.6065(2) 1.31452(18) 0.39880(15)
Cu1** Cu 0.45856(4) 0.23331(3) -0.51046(3)
Cu1*** Cu 0.45856(4) 0.23331(3) 0.48954(3)
O1** O -0.4540(2) 1.13943(18) -0.58553(16)
O5*** O -0.6101(2) 1.33075(19) -0.43297(16)
O7*** O -0.6065(2) 1.31452(18) -0.60120(15)
Cu1**** Cu -0.54144(4) 1.23331(3) 1.48954(3)
Cu1***** Cu 0.45856(4) 0.23331(3) 1.48954(3)
#END
