
#######################################################################
#
#                 Cambridge Crystallographic Data Centre
#                                CCDC
#
#######################################################################
#
# If this CIF has been generated from an entry in the Cambridge
# Structural Database, then it will include bibliographic, chemical,
# crystal, experimental, refinement or atomic coordinate data resulting
# from the CCDC's data processing and validation procedures.
#
#######################################################################

data_CSD_CIF_OLELAS
_audit_creation_date 2004-02-04
_audit_creation_method CSD-ConQuest-V1
_database_code_CSD OLELAS
_database_code_depnum_ccdc_archive 'CCDC 221286'
_chemical_formula_sum 'C131 H87 Cu3 N15 Na3 O18 Pt2'
_chemical_formula_moiety
;
(Na1 1+)3n,n(C15 H15 Cu1 N3 1+),n(C96 H48 Cu2 N8 O16 Pt2 4-),4n(C5 H5 
N1),2n(H2 O1)
;
_journal_coden_Cambridge 1147
_journal_volume 3
_journal_year 2003
_journal_page_first 855
_journal_name_full 'Cryst.Growth Des. '
loop_
_publ_author_name
"M.Shmilovits"
"Y.Diskin-Posner"
"M.Vinodu"
"I.Goldberg"
_chemical_name_systematic
;
catena-[Tri-sodium 
bis(\m~5~-5,10,15,20-tetrakis(4-carboxyphenyl)porphyrinato)-di-copper-di-plati
;
_cell_volume   2761.782
_exptl_crystal_colour 'black'
_exptl_crystal_density_diffrn 1.689
_exptl_special_details
;
isomorphous with the Pd-analogue

;
_exptl_crystal_description 'parallelepiped'
_diffrn_ambient_temperature 110
_refine_special_details
;
The clathrated cation is disordered by symmetry. An uncoordinated pyridine N 
atom is disordered and has not been located.
;
#These two values have been output from a single CSD field.
_refine_ls_R_factor_gt 0.0521
_refine_ls_wR_factor_gt 0.0521
_symmetry_cell_setting triclinic
_symmetry_space_group_name_H-M 'P -1'
_symmetry_Int_Tables_number 2
loop_
_symmetry_equiv_pos_site_id
_symmetry_equiv_pos_as_xyz
1 x,y,z
2 -x,-y,-z
_cell_length_a 12.9240(3)
_cell_length_b 13.1370(2)
_cell_length_c 16.6000(5)
_cell_angle_alpha 85.5750(8)
_cell_angle_beta 85.4260(8)
_cell_angle_gamma 80.0980(9)
_cell_formula_units_Z 1
loop_
_atom_type_symbol
_atom_type_radius_bond
C 0.68
H 0.23
Cu 1.48
N 0.68
Na 0.97
O 0.68
Pt 1.50
loop_
_atom_site_label
_atom_site_type_symbol
_atom_site_fract_x
_atom_site_fract_y
_atom_site_fract_z
Pt1 Pt -0.002636(17) 0.773806(16) -0.011804(14)
Cu1 Cu -0.54254(5) 1.23485(5) 0.48986(4)
Cu2 Cu 0.53241(14) 0.04769(12) 0.02780(11)
Na1 Na 0.50000 0.00000 0.50000
Na2 Na 0.60712(19) 0.39808(16) 0.49322(14)
C1 C -0.0507(4) 0.8480(4) 0.1593(3)
C2 C -0.1229(4) 0.9341(4) 0.1355(4)
C3 C -0.1458(4) 0.9623(4) 0.0557(3)
C4 C -0.2170(5) 1.0516(4) 0.0289(4)
H1 H -0.25040 1.10570 0.06160
C5 C -0.2291(5) 1.0467(5) -0.0504(4)
H2 H -0.27290 1.09550 -0.08350
C6 C -0.1629(5) 0.9535(4) -0.0755(3)
C7 C -0.1603(5) 0.9148(4) -0.1517(4)
C8 C -0.0955(4) 0.8239(4) -0.1766(3)
C9 C -0.0867(5) 0.7885(4) -0.2569(4)
H3 H -0.12750 0.81830 -0.30050
C10 C -0.0095(5) 0.7049(4) -0.2587(4)
H4 H 0.01420 0.66490 -0.30390
C11 C 0.0299(4) 0.6880(4) -0.1793(3)
C12 C 0.1143(4) 0.6109(4) -0.1580(3)
C13 C 0.1532(4) 0.5958(4) -0.0817(4)
C14 C 0.2408(5) 0.5172(4) -0.0589(4)
H5 H 0.28270 0.47000 -0.09370
C15 C 0.2524(5) 0.5229(4) 0.0200(4)
H6 H 0.30420 0.48120 0.05120
C16 C 0.1712(4) 0.6047(4) 0.0485(3)
C17 C 0.1556(4) 0.6326(4) 0.1287(4)
C18 C 0.0777(4) 0.7133(4) 0.1554(3)
C19 C 0.0551(5) 0.7371(4) 0.2390(3)
H7 H 0.08960 0.70170 0.28400
C20 C -0.0239(5) 0.8185(4) 0.2417(4)
H8 H -0.05590 0.85060 0.28890
N1 N 0.0121(4) 0.7811(3) 0.1069(3)
N2 N -0.1110(4) 0.9042(3) -0.0102(3)
N3 N -0.0232(4) 0.7605(3) -0.1291(3)
N4 N 0.1124(4) 0.6487(3) -0.0139(3)
C21 C -0.1835(4) 0.9968(4) 0.2002(3)
C22 C -0.2587(4) 0.9545(4) 0.2520(4)
H9 H -0.26770 0.88500 0.24740
C23 C -0.3194(4) 1.0122(4) 0.3091(4)
H10 H -0.37170 0.98280 0.34200
C24 C -0.3060(5) 1.1134(4) 0.3200(3)
C25 C -0.2293(5) 1.1551(4) 0.2705(4)
H11 H -0.21820 1.22350 0.27720
C26 C -0.1688(5) 1.0974(4) 0.2115(4)
H12 H -0.11680 1.12690 0.17840
C27 C -0.3760(4) 1.1802(4) 0.3802(3)
C28 C -0.2286(4) 0.9774(4) -0.2141(4)
C29 C -0.2068(5) 1.0730(4) -0.2420(4)
H13 H -0.15130 1.09880 -0.22040
C30 C -0.2645(5) 1.1332(4) -0.3017(4)
H14 H -0.24620 1.19790 -0.32180
C31 C -0.3482(4) 1.0984(4) -0.3314(3)
C32 C -0.3711(5) 1.0017(5) -0.3034(4)
H15 H -0.42790 0.97670 -0.32390
C33 C -0.3108(5) 0.9404(5) -0.2448(4)
H16 H -0.32640 0.87410 -0.22640
C34 C -0.4092(5) 1.1675(4) -0.3947(4)
C35 C 0.1636(4) 0.5379(4) -0.2215(3)
C36 C 0.2621(4) 0.5449(4) -0.2602(3)
H17 H 0.29970 0.59680 -0.24680
C37 C 0.3056(4) 0.4759(4) -0.3185(3)
H18 H 0.37230 0.48150 -0.34530
C38 C 0.2516(4) 0.3988(4) -0.3374(4)
C39 C 0.1544(5) 0.3921(4) -0.2985(4)
H19 H 0.11690 0.34010 -0.31150
C40 C 0.1106(5) 0.4608(4) -0.2403(4)
H20 H 0.04400 0.45470 -0.21340
C41 C 0.2988(5) 0.3192(4) -0.3970(4)
C42 C 0.2243(5) 0.5731(4) 0.1906(3)
C43 C 0.2136(5) 0.4712(4) 0.2173(4)
H21 H 0.16560 0.43750 0.19310
C44 C 0.2720(5) 0.4198(4) 0.2781(4)
H22 H 0.26360 0.35100 0.29590
C45 C 0.3439(5) 0.4678(4) 0.3143(3)
C46 C 0.3573(4) 0.5673(4) 0.2865(4)
H23 H 0.40650 0.60050 0.30980
C47 C 0.2983(5) 0.6184(4) 0.2242(4)
H24 H 0.30920 0.68580 0.20430
C48 C 0.4045(5) 0.4129(4) 0.3836(4)
O1 O -0.4536(3) 1.1412(3) 0.4157(2)
O2 O -0.3564(3) 1.2673(3) 0.3910(3)
O3 O -0.3825(3) 1.2508(3) -0.4180(3)
O4 O -0.4879(3) 1.1341(3) -0.4201(2)
O5 O 0.3849(3) 0.3325(3) -0.4337(3)
O6 O 0.2499(4) 0.2476(4) -0.4058(3)
O7 O 0.3955(3) 0.3183(3) 0.3990(2)
O8 O 0.4577(3) 0.4626(3) 0.4211(2)
N5 N 0.2057(5) 0.6041(5) 0.5025(4)
C49 C 0.1479(7) 0.6964(7) 0.5246(6)
H25 H 0.18020 0.73820 0.55590
C50 C 0.0460(8) 0.7327(8) 0.5046(6)
H26 H 0.01010 0.79840 0.52000
C51 C -0.0024(8) 0.6702(8) 0.4613(6)
H27 H -0.07290 0.69170 0.44690
C52 C 0.0550(7) 0.5740(8) 0.4388(6)
H28 H 0.02520 0.53000 0.40770
C53 C 0.1567(6) 0.5462(7) 0.4639(5)
H29 H 0.19350 0.47960 0.45180
N6 N 0.5620(6) -0.1027(6) 0.0720(5)
C54 C 0.5173(7) -0.1323(6) 0.1421(5)
H30 H 0.45240 -0.09340 0.16140
C55 C 0.5622(6) -0.2180(5) 0.1885(4)
H31 H 0.52880 -0.23740 0.23900
C56 C 0.6546(6) -0.2744(5) 0.1608(4)
H32 H 0.68650 -0.33400 0.19150
C57 C 0.7014(5) -0.2439(5) 0.0875(4)
H33 H 0.76650 -0.28180 0.06750
C58 C 0.6537(6) -0.1589(5) 0.0440(5)
H34 H 0.68540 -0.13880 -0.00700
N7 N 0.5395(6) 0.1912(7) 0.0770(5)
C59 C 0.5338(6) 0.1982(7) 0.1564(6)
H35 H 0.54120 0.13600 0.19020
C60 C 0.5178(6) 0.2901(7) 0.1920(5)
H36 H 0.51270 0.29130 0.24940
C61 C 0.5091(7) 0.3809(7) 0.1443(6)
H37 H 0.49870 0.44500 0.16910
C62 C 0.5153(7) 0.3808(7) 0.0603(5)
H38 H 0.50860 0.44290 0.02630
C63 C 0.5319(7) 0.2846(9) 0.0298(6)
H39 H 0.53860 0.28140 -0.02740
C64 C 0.9339(15) 1.0021(12) 0.4424(10)
H40 H 0.89090 1.00190 0.39870
C65 C 0.8904(12) 1.0033(13) 0.5156(11)
H41 H 0.81670 1.00710 0.52680
C66 C 1.0428(17) 1.0012(10) 0.4254(8)
H42 H 1.06990 1.00380 0.37050
O9 O 0.3302(3) 0.1045(4) 0.4922(3)
H43 H 0.30370 0.06280 0.48440
H44 H 0.28370 0.14960 0.51660
C66A C 0.9572(17) 0.9988(10) 0.5746(8)
C64A C 1.0661(15) 0.9979(12) 0.5576(10)
H40A H 1.10910 0.99810 0.60130
C65A C 1.1096(12) 0.9967(13) 0.4844(11)
H41A H 1.18330 0.99290 0.47320
H42A H 0.93010 0.99620 0.62950
Cu1* Cu -0.54254(5) 1.23485(5) -0.51014(4)
C1* C -0.0507(4) 0.8480(4) 1.1593(3)
C2* C -0.1229(4) 0.9341(4) 1.1355(4)
C3* C -0.1458(4) 0.9623(4) 1.0557(3)
C4* C -0.2170(5) 1.0516(4) 1.0289(4)
H1* H -0.25040 1.10570 1.06160
C5* C -0.2291(5) 1.0467(5) 0.9496(4)
H2* H -0.27290 1.09550 0.91650
C6* C -0.1629(5) 0.9535(4) 0.9245(3)
C7* C -0.1603(5) 0.9148(4) 0.8483(4)
C8* C -0.0955(4) 0.8239(4) 0.8234(3)
C9* C -0.0867(5) 0.7885(4) 0.7431(4)
H3* H -0.12750 0.81830 0.69950
C10* C -0.0095(5) 0.7049(4) 0.7413(4)
H4* H 0.01420 0.66490 0.69610
C11* C 0.0299(4) 0.6880(4) 0.8207(3)
C12* C 0.1143(4) 0.6109(4) 0.8420(3)
C13* C 0.1532(4) 0.5958(4) 0.9183(4)
C14* C 0.2408(5) 0.5172(4) 0.9411(4)
H5* H 0.28270 0.47000 0.90630
C15* C 0.2524(5) 0.5229(4) 1.0200(4)
H6* H 0.30420 0.48120 1.05120
C16* C 0.1712(4) 0.6047(4) 1.0485(3)
C17* C 0.1556(4) 0.6326(4) 1.1287(4)
C18* C 0.0777(4) 0.7133(4) 1.1554(3)
C19* C 0.0551(5) 0.7371(4) 1.2390(3)
H7* H 0.08960 0.70170 1.28400
C20* C -0.0239(5) 0.8185(4) 1.2417(4)
H8* H -0.05590 0.85060 1.28890
N1* N 0.0121(4) 0.7811(3) 1.1069(3)
N2* N -0.1110(4) 0.9042(3) 0.9898(3)
N3* N -0.0232(4) 0.7605(3) 0.8709(3)
N4* N 0.1124(4) 0.6487(3) 0.9861(3)
C21* C -0.1835(4) 0.9968(4) 1.2002(3)
C22* C -0.2587(4) 0.9545(4) 1.2520(4)
H9* H -0.26770 0.88500 1.24740
C23* C -0.3194(4) 1.0122(4) 1.3091(4)
H10* H -0.37170 0.98280 1.34200
C24* C -0.3060(5) 1.1134(4) 1.3200(3)
C25* C -0.2293(5) 1.1551(4) 1.2705(4)
H11* H -0.21820 1.22350 1.27720
C26* C -0.1688(5) 1.0974(4) 1.2115(4)
H12* H -0.11680 1.12690 1.17840
C27* C -0.3760(4) 1.1802(4) 1.3802(3)
C28* C -0.2286(4) 0.9774(4) 0.7859(4)
C29* C -0.2068(5) 1.0730(4) 0.7580(4)
H13* H -0.15130 1.09880 0.77960
C30* C -0.2645(5) 1.1332(4) 0.6983(4)
H14* H -0.24620 1.19790 0.67820
C31* C -0.3482(4) 1.0984(4) 0.6686(3)
C32* C -0.3711(5) 1.0017(5) 0.6966(4)
H15* H -0.42790 0.97670 0.67610
C33* C -0.3108(5) 0.9404(5) 0.7552(4)
H16* H -0.32640 0.87410 0.77360
C34* C -0.4092(5) 1.1675(4) 0.6053(4)
C35* C 0.1636(4) 0.5379(4) 0.7785(3)
C36* C 0.2621(4) 0.5449(4) 0.7398(3)
H17* H 0.29970 0.59680 0.75320
C37* C 0.3056(4) 0.4759(4) 0.6815(3)
H18* H 0.37230 0.48150 0.65470
C38* C 0.2516(4) 0.3988(4) 0.6626(4)
C39* C 0.1544(5) 0.3921(4) 0.7015(4)
H19* H 0.11690 0.34010 0.68850
C40* C 0.1106(5) 0.4608(4) 0.7597(4)
H20* H 0.04400 0.45470 0.78660
C41* C 0.2988(5) 0.3192(4) 0.6030(4)
C42* C 0.2243(5) 0.5731(4) 1.1906(3)
C43* C 0.2136(5) 0.4712(4) 1.2173(4)
H21* H 0.16560 0.43750 1.19310
C44* C 0.2720(5) 0.4198(4) 1.2781(4)
H22* H 0.26360 0.35100 1.29590
C45* C 0.3439(5) 0.4678(4) 1.3143(3)
C46* C 0.3573(4) 0.5673(4) 1.2865(4)
H23* H 0.40650 0.60050 1.30980
C47* C 0.2983(5) 0.6184(4) 1.2242(4)
H24* H 0.30920 0.68580 1.20430
C48* C 0.4045(5) 0.4129(4) 1.3836(4)
O1* O -0.4536(3) 1.1412(3) 1.4157(2)
O2* O -0.3564(3) 1.2673(3) 1.3910(3)
O3* O -0.3825(3) 1.2508(3) 0.5820(3)
O4* O -0.4879(3) 1.1341(3) 0.5799(2)
O5* O 0.3849(3) 0.3325(3) 0.5663(3)
O6* O 0.2499(4) 0.2476(4) 0.5942(3)
O7* O 0.3955(3) 0.3183(3) 1.3990(2)
O8* O 0.4577(3) 0.4626(3) 1.4211(2)
Pt1* Pt -0.002636(17) 0.773806(16) 0.988196(14)
N6A N 0.4380(6) 0.1027(6) -0.0720(5)
C54A C 0.4827(7) 0.1323(6) -0.1421(5)
H30A H 0.54760 0.09340 -0.16140
C55A C 0.4378(6) 0.2180(5) -0.1885(4)
H31A H 0.47120 0.23740 -0.23900
C56A C 0.3454(6) 0.2744(5) -0.1608(4)
H32A H 0.31350 0.33400 -0.19150
C57A C 0.2986(5) 0.2439(5) -0.0875(4)
H33A H 0.23350 0.28180 -0.06750
C58A C 0.3463(6) 0.1589(5) -0.0440(5)
H34A H 0.31460 0.13880 0.00700
Cu2A Cu 0.46759(14) -0.04769(12) -0.02780(11)
N7A N 0.4605(6) -0.1912(7) -0.0770(5)
C59A C 0.4662(6) -0.1982(7) -0.1564(6)
H35A H 0.45880 -0.13600 -0.19020
C60A C 0.4822(6) -0.2901(7) -0.1920(5)
H36A H 0.48730 -0.29130 -0.24940
C61A C 0.4909(7) -0.3809(7) -0.1443(6)
H37A H 0.50130 -0.44500 -0.16910
C62A C 0.4847(7) -0.3808(7) -0.0603(5)
H38A H 0.49140 -0.44290 -0.02630
C63A C 0.4681(7) -0.2846(9) -0.0298(6)
H39A H 0.46140 -0.28140 0.02740
O5** O -0.6151(3) 1.3325(3) 0.5663(3)
O7** O -0.6045(3) 1.3183(3) 0.3990(2)
Cu1** Cu 0.45746(5) 0.23485(5) -0.51014(4)
Cu1*** Cu 0.45746(5) 0.23485(5) 0.48986(4)
O1** O -0.4536(3) 1.1412(3) -0.5843(2)
O5*** O -0.6151(3) 1.3325(3) -0.4337(3)
O7*** O -0.6045(3) 1.3183(3) -0.6010(2)
Cu1**** Cu -0.54254(5) 1.23485(5) 1.48986(4)
Cu1***** Cu 0.45746(5) 0.23485(5) 1.48986(4)
#END
