
#######################################################################
#
#                 Cambridge Crystallographic Data Centre
#                                CCDC
#
#######################################################################
#
# If this CIF has been generated from an entry in the Cambridge
# Structural Database, then it will include bibliographic, chemical,
# crystal, experimental, refinement or atomic coordinate data resulting
# from the CCDC's data processing and validation procedures.
#
#######################################################################

data_CSD_CIF_OLEZUD
_audit_creation_date 2021-02-10
_audit_creation_method CSD-ConQuest-V1
_database_code_CSD OLEZUD
_database_code_depnum_ccdc_archive 'CCDC 2031998'
_chemical_formula_sum 'C72 H76 Co1 La2 N8 O28'
_chemical_formula_moiety
;
(C56 H28 Co1 La2 N2 O22 2-)n,2(C2 H8 N1 1+),4(C3 H7 N1 O1),2(H2 O1)
;
_journal_coden_Cambridge 9
_journal_volume 60
_journal_year 2021
_journal_page_first 2878
_journal_name_full 'Inorg.Chem. '
loop_
_publ_author_name
"Hongtai Chen"
"Lei Feng"
"Xiutang Zhang"
"Zhi-Yong Gao"
"Di Sun"
_chemical_name_systematic
;
catena-[bis(dimethylammonium) 
bis(\m-4,4'-[4-(4-carboxylatophenyl)pyridine-2,6-diyl]di(benzene-1,3-dicarboxy
lato))-diaqua-cobalt(ii)-di-lanthanum(iii) N,N-dimethylformamide solvate 
dihydrate]
;
_chemical_name_common
;
NUC-19
;
_cell_volume   7920.490
_exptl_crystal_colour 'light yellow'
_exptl_crystal_description 'plate'
_diffrn_ambient_temperature 296.1
_refine_special_details
;
Disordered dimethylammonium cation and solvent molecules were not modelled 
and the disordered density was taken into account using the MASK/OLEX2 
program.
;
#These two values have been output from a single CSD field.
_refine_ls_R_factor_gt 0.0413
_refine_ls_wR_factor_gt 0.0413
_symmetry_cell_setting monoclinic
_symmetry_space_group_name_H-M 'C 2/c'
_symmetry_Int_Tables_number 15
loop_
_symmetry_equiv_pos_site_id
_symmetry_equiv_pos_as_xyz
1 x,y,z
2 -x,y,1/2-z
3 1/2+x,1/2+y,z
4 1/2-x,1/2+y,1/2-z
5 -x,-y,-z
6 x,-y,-1/2+z
7 -1/2-x,-1/2-y,-z
8 -1/2+x,-1/2-y,-1/2+z
_cell_length_a 30.4968(12)
_cell_length_b 9.3380(4)
_cell_length_c 28.2013(8)
_cell_angle_alpha 90
_cell_angle_beta 99.522(1)
_cell_angle_gamma 90
_cell_formula_units_Z 4
loop_
_atom_type_symbol
_atom_type_radius_bond
C 0.68
H 0.23
Co 1.26
La 2.07
N 0.68
O 0.68
loop_
_atom_site_label
_atom_site_type_symbol
_atom_site_fract_x
_atom_site_fract_y
_atom_site_fract_z
C1 C 0.22376(19) 0.7823(7) 0.38492(19)
C2 C 0.2220(2) 0.8601(7) 0.4262(2)
H1 H 0.19497 0.87140 0.43691
C3 C 0.26021(19) 0.9217(7) 0.45193(19)
C4 C 0.2998(2) 0.9010(7) 0.4340(2)
H2 H 0.32617 0.94053 0.44980
C5 C 0.29961(19) 0.8223(7) 0.39295(19)
C6 C 0.34234(19) 0.7889(7) 0.3754(2)
C7 C 0.34757(19) 0.8059(7) 0.3271(2)
C8 C 0.3874(2) 0.7677(7) 0.3131(2)
H3 H 0.39025 0.77583 0.28090
C9 C 0.4234(2) 0.7173(8) 0.3458(2)
C10 C 0.4179(2) 0.7025(10) 0.3941(3)
H4 H 0.44143 0.66914 0.41653
C11 C 0.3786(2) 0.7362(10) 0.4086(2)
H5 H 0.37563 0.72427 0.44070
C12 C 0.4662(3) 0.6794(9) 0.3304(3)
C13 C 0.2596(2) 1.0044(7) 0.49705(19)
C14 C 0.2271(2) 0.9765(7) 0.5256(2)
H6 H 0.20564 0.90692 0.51627
C15 C 0.2270(2) 1.0517(8) 0.5675(2)
H7 H 0.20488 1.03320 0.58579
C16 C 0.2589(2) 1.1544(7) 0.5833(2)
C17 C 0.2915(2) 1.1826(8) 0.5546(2)
H8 H 0.31317 1.25160 0.56428
C18 C 0.2916(2) 1.1087(7) 0.5124(2)
H9 H 0.31333 1.12852 0.49374
C19 C 0.2591(2) 1.2302(7) 0.6286(2)
C20 C 0.18363(19) 0.7086(7) 0.3585(2)
C21 C 0.17146(19) 0.7208(6) 0.30870(19)
C22 C 0.1353(2) 0.6446(7) 0.2841(2)
H10 H 0.12831 0.65003 0.25080
C23 C 0.1095(2) 0.5591(8) 0.3104(3)
C24 C 0.1218(2) 0.5469(9) 0.3592(3)
H11 H 0.10563 0.48803 0.37656
C25 C 0.1587(2) 0.6225(8) 0.3834(2)
H12 H 0.16644 0.61413 0.41656
C26 C 0.0690(2) 0.4859(9) 0.2831(3)
C27 C 0.19489(19) 0.8204(6) 0.27957(19)
C28 C 0.31277(19) 0.8700(6) 0.2903(2)
La1 La 0.23988(2) 1.14024(3) 0.28411(2)
Co1 Co 0.00000 0.34558(14) 0.25000
N1 N 0.26232(15) 0.7610(5) 0.36794(16)
O1 O 0.19692(14) 0.9499(5) 0.29224(15)
O2 O 0.20935(15) 0.7749(5) 0.24379(14)
O3 O 0.29398(15) 0.9804(5) 0.30163(15)
O4 O 0.30524(14) 0.8131(5) 0.24969(14)
O5 O 0.05365(19) 0.5185(7) 0.2408(2)
O6 O 0.0504(2) 0.3900(7) 0.3052(2)
O7 O 0.4972(2) 0.6332(9) 0.3606(3)
O8 O 0.46865(17) 0.6959(7) 0.2863(2)
O9 O 0.28915(18) 1.3191(6) 0.64464(16)
O10 O 0.22848(16) 1.2045(5) 0.65378(15)
O11 O 0.22788(15) 1.0645(5) 0.20495(14)
C1A C -0.22376(19) 0.7823(7) 0.11508(19)
C2A C -0.2220(2) 0.8601(7) 0.0738(2)
H1A H -0.19497 0.87140 0.06309
C3A C -0.26021(19) 0.9217(7) 0.04807(19)
C4A C -0.2998(2) 0.9010(7) 0.0660(2)
H2A H -0.32617 0.94053 0.05020
C5A C -0.29961(19) 0.8223(7) 0.10705(19)
C6A C -0.34234(19) 0.7889(7) 0.1246(2)
C7A C -0.34757(19) 0.8059(7) 0.1729(2)
C8A C -0.3874(2) 0.7677(7) 0.1869(2)
H3A H -0.39025 0.77583 0.21910
C9A C -0.4234(2) 0.7173(8) 0.1542(2)
C10A C -0.4179(2) 0.7025(10) 0.1059(3)
H4A H -0.44143 0.66914 0.08347
C11A C -0.3786(2) 0.7362(10) 0.0914(2)
H5A H -0.37563 0.72427 0.05930
C12A C -0.4662(3) 0.6794(9) 0.1696(3)
C13A C -0.2596(2) 1.0044(7) 0.00295(19)
C14A C -0.2271(2) 0.9765(7) -0.0256(2)
H6A H -0.20564 0.90692 -0.01627
C15A C -0.2270(2) 1.0517(8) -0.0675(2)
H7A H -0.20488 1.03320 -0.08579
C16A C -0.2589(2) 1.1544(7) -0.0833(2)
C17A C -0.2915(2) 1.1826(8) -0.0546(2)
H8A H -0.31317 1.25160 -0.06428
C18A C -0.2916(2) 1.1087(7) -0.0124(2)
H9A H -0.31333 1.12852 0.00626
C19A C -0.2591(2) 1.2302(7) -0.1286(2)
C20A C -0.18363(19) 0.7086(7) 0.1415(2)
C21A C -0.17146(19) 0.7208(6) 0.19130(19)
C22A C -0.1353(2) 0.6446(7) 0.2159(2)
H10A H -0.12831 0.65003 0.24920
C23A C -0.1095(2) 0.5591(8) 0.1896(3)
C24A C -0.1218(2) 0.5469(9) 0.1408(3)
H11A H -0.10563 0.48803 0.12344
C25A C -0.1587(2) 0.6225(8) 0.1166(2)
H12A H -0.16644 0.61413 0.08344
C26A C -0.0690(2) 0.4859(9) 0.2169(3)
C27A C -0.19489(19) 0.8204(6) 0.22043(19)
C28A C -0.31277(19) 0.8700(6) 0.2097(2)
La1A La -0.23988(2) 1.14024(3) 0.21589(2)
N1A N -0.26232(15) 0.7610(5) 0.13206(16)
O1A O -0.19692(14) 0.9499(5) 0.20776(15)
O2A O -0.20935(15) 0.7749(5) 0.25621(14)
O3A O -0.29398(15) 0.9804(5) 0.19837(15)
O4A O -0.30524(14) 0.8131(5) 0.25031(14)
O5A O -0.05365(19) 0.5185(7) 0.2592(2)
O6A O -0.0504(2) 0.3900(7) 0.1948(2)
O7A O -0.4972(2) 0.6332(9) 0.1394(3)
O8A O -0.46865(17) 0.6959(7) 0.2137(2)
O9A O -0.28915(18) 1.3191(6) -0.14464(16)
O10A O -0.22848(16) 1.2045(5) -0.15378(15)
O11A O -0.22788(15) 1.0645(5) 0.29505(14)
La1B La -0.26012(2) 0.64024(3) 0.28411(2)
La1C La 0.26012(2) 0.64024(3) 0.21589(2)
La1F La 0.26012(2) 1.35976(3) 0.71589(2)
La1G La -0.26012(2) 1.35976(3) -0.21589(2)
Co1B Co -0.50000 0.84558(14) 0.25000
Co1B* Co 0.50000 0.84558(14) 0.25000
O2B O -0.29065(15) 1.2749(5) 0.24379(14)
O2C O 0.29065(15) 1.2749(5) 0.25621(14)
O4B O -0.19476(14) 1.3131(5) 0.24969(14)
O4C O 0.19476(14) 1.3131(5) 0.25031(14)
O8B O -0.03135(17) 0.1959(7) 0.2863(2)
O8C O 0.03135(17) 0.1959(7) 0.2137(2)
O9F O 0.21085(18) 1.1809(6) 0.35536(16)
O9G O -0.21085(18) 1.1809(6) 0.14464(16)
O10F O 0.27152(16) 1.2955(5) 0.34622(15)
O10G O -0.27152(16) 1.2955(5) 0.15378(15)
#END
