
#######################################################################
#
#                 Cambridge Crystallographic Data Centre
#                                CCDC
#
#######################################################################
#
# If this CIF has been generated from an entry in the Cambridge
# Structural Database, then it will include bibliographic, chemical,
# crystal, experimental, refinement or atomic coordinate data resulting
# from the CCDC's data processing and validation procedures.
#
#######################################################################

data_CSD_CIF_OLICET
_audit_creation_date 2016-05-12
_audit_creation_method CSD-ConQuest-V1
_database_code_CSD OLICET
_database_code_depnum_ccdc_archive 'CCDC 1479571'
_chemical_formula_sum 'C108 H48 Cl3 Fe13.5 N72 O12'
_chemical_formula_moiety
;
(C108 H48 Cl3 Fe12 N72 O12 3-)n,1.5n(Fe1 2+)
;
_journal_coden_Cambridge 4
_journal_volume 138
_journal_year 2016
_journal_page_first 5594
_journal_name_full 'J.Am.Chem.Soc. '
loop_
_publ_author_name
"D.A.Reed"
"D.J.Xiao"
"M.I.Gonzalez"
"L.E.Darago"
"Z.R.Herm"
"F.Grandjean"
"J.R.Long"
_chemical_name_systematic
;
catena-(Sesqui-iron 
octakis(\m~6~-1,3,5-tris(1H-1,2,3-triazol-5-yl)benzene)-tris(\m~4~-chloro)-dod
ecacarbonyl-dodeca-iron unknown solvate)
;
_cell_volume  51483.830
_exptl_crystal_colour 'red'
_exptl_crystal_density_diffrn 0.857
_exptl_crystal_description 'cube'
_diffrn_ambient_temperature 100
_diffrn_radiation_probe x-ray
_diffrn_source synchrotron
_refine_special_details
;
The MASK/OLEX2 program was used to model the iron cations and some disordered 
solvent.
;
#These two values have been output from a single CSD field.
_refine_ls_R_factor_gt 0.0405
_refine_ls_wR_factor_gt 0.0405
_symmetry_cell_setting cubic
_symmetry_space_group_name_H-M 'F m -3 c'
_symmetry_Int_Tables_number 226
loop_
_symmetry_equiv_pos_site_id
_symmetry_equiv_pos_as_xyz
1 x,y,z
2 -x,-y,z
3 -x,y,-z
4 x,-y,-z
5 z,x,y
6 z,-x,-y
7 -z,-x,y
8 -z,x,-y
9 y,z,x
10 -y,z,-x
11 y,-z,-x
12 -y,-z,x
13 1/2+y,1/2+x,1/2-z
14 1/2-y,1/2-x,1/2-z
15 1/2+y,1/2-x,1/2+z
16 1/2-y,1/2+x,1/2+z
17 1/2+x,1/2+z,1/2-y
18 1/2-x,1/2+z,1/2+y
19 1/2-x,1/2-z,1/2-y
20 1/2+x,1/2-z,1/2+y
21 1/2+z,1/2+y,1/2-x
22 1/2+z,1/2-y,1/2+x
23 1/2-z,1/2+y,1/2+x
24 1/2-z,1/2-y,1/2-x
25 x,1/2+y,1/2+z
26 -x,1/2-y,1/2+z
27 -x,1/2+y,1/2-z
28 x,1/2-y,1/2-z
29 z,1/2+x,1/2+y
30 z,1/2-x,1/2-y
31 -z,1/2-x,1/2+y
32 -z,1/2+x,1/2-y
33 y,1/2+z,1/2+x
34 -y,1/2+z,1/2-x
35 y,1/2-z,1/2-x
36 -y,1/2-z,1/2+x
37 1/2+y,x,-z
38 1/2-y,-x,-z
39 1/2+y,-x,z
40 1/2-y,x,z
41 1/2+x,z,-y
42 1/2-x,z,y
43 1/2-x,-z,-y
44 1/2+x,-z,y
45 1/2+z,y,-x
46 1/2+z,-y,x
47 1/2-z,y,x
48 1/2-z,-y,-x
49 1/2+x,y,1/2+z
50 1/2-x,-y,1/2+z
51 1/2-x,y,1/2-z
52 1/2+x,-y,1/2-z
53 1/2+z,x,1/2+y
54 1/2+z,-x,1/2-y
55 1/2-z,-x,1/2+y
56 1/2-z,x,1/2-y
57 1/2+y,z,1/2+x
58 1/2-y,z,1/2-x
59 1/2+y,-z,1/2-x
60 1/2-y,-z,1/2+x
61 y,1/2+x,-z
62 -y,1/2-x,-z
63 y,1/2-x,z
64 -y,1/2+x,z
65 x,1/2+z,-y
66 -x,1/2+z,y
67 -x,1/2-z,-y
68 x,1/2-z,y
69 z,1/2+y,-x
70 z,1/2-y,x
71 -z,1/2+y,x
72 -z,1/2-y,-x
73 1/2+x,1/2+y,z
74 1/2-x,1/2-y,z
75 1/2-x,1/2+y,-z
76 1/2+x,1/2-y,-z
77 1/2+z,1/2+x,y
78 1/2+z,1/2-x,-y
79 1/2-z,1/2-x,y
80 1/2-z,1/2+x,-y
81 1/2+y,1/2+z,x
82 1/2-y,1/2+z,-x
83 1/2+y,1/2-z,-x
84 1/2-y,1/2-z,x
85 y,x,1/2-z
86 -y,-x,1/2-z
87 y,-x,1/2+z
88 -y,x,1/2+z
89 x,z,1/2-y
90 -x,z,1/2+y
91 -x,-z,1/2-y
92 x,-z,1/2+y
93 z,y,1/2-x
94 z,-y,1/2+x
95 -z,y,1/2+x
96 -z,-y,1/2-x
97 -x,-y,-z
98 x,y,-z
99 x,-y,z
100 -x,y,z
101 -z,-x,-y
102 -z,x,y
103 z,x,-y
104 z,-x,y
105 -y,-z,-x
106 y,-z,x
107 -y,z,x
108 y,z,-x
109 -1/2-y,-1/2-x,-1/2+z
110 -1/2+y,-1/2+x,-1/2+z
111 -1/2-y,-1/2+x,-1/2-z
112 -1/2+y,-1/2-x,-1/2-z
113 -1/2-x,-1/2-z,-1/2+y
114 -1/2+x,-1/2-z,-1/2-y
115 -1/2+x,-1/2+z,-1/2+y
116 -1/2-x,-1/2+z,-1/2-y
117 -1/2-z,-1/2-y,-1/2+x
118 -1/2-z,-1/2+y,-1/2-x
119 -1/2+z,-1/2-y,-1/2-x
120 -1/2+z,-1/2+y,-1/2+x
121 -x,-1/2-y,-1/2-z
122 x,-1/2+y,-1/2-z
123 x,-1/2-y,-1/2+z
124 -x,-1/2+y,-1/2+z
125 -z,-1/2-x,-1/2-y
126 -z,-1/2+x,-1/2+y
127 z,-1/2+x,-1/2-y
128 z,-1/2-x,-1/2+y
129 -y,-1/2-z,-1/2-x
130 y,-1/2-z,-1/2+x
131 -y,-1/2+z,-1/2+x
132 y,-1/2+z,-1/2-x
133 -1/2-y,-x,z
134 -1/2+y,x,z
135 -1/2-y,x,-z
136 -1/2+y,-x,-z
137 -1/2-x,-z,y
138 -1/2+x,-z,-y
139 -1/2+x,z,y
140 -1/2-x,z,-y
141 -1/2-z,-y,x
142 -1/2-z,y,-x
143 -1/2+z,-y,-x
144 -1/2+z,y,x
145 -1/2-x,-y,-1/2-z
146 -1/2+x,y,-1/2-z
147 -1/2+x,-y,-1/2+z
148 -1/2-x,y,-1/2+z
149 -1/2-z,-x,-1/2-y
150 -1/2-z,x,-1/2+y
151 -1/2+z,x,-1/2-y
152 -1/2+z,-x,-1/2+y
153 -1/2-y,-z,-1/2-x
154 -1/2+y,-z,-1/2+x
155 -1/2-y,z,-1/2+x
156 -1/2+y,z,-1/2-x
157 -y,-1/2-x,z
158 y,-1/2+x,z
159 -y,-1/2+x,-z
160 y,-1/2-x,-z
161 -x,-1/2-z,y
162 x,-1/2-z,-y
163 x,-1/2+z,y
164 -x,-1/2+z,-y
165 -z,-1/2-y,x
166 -z,-1/2+y,-x
167 z,-1/2-y,-x
168 z,-1/2+y,x
169 -1/2-x,-1/2-y,-z
170 -1/2+x,-1/2+y,-z
171 -1/2+x,-1/2-y,z
172 -1/2-x,-1/2+y,z
173 -1/2-z,-1/2-x,-y
174 -1/2-z,-1/2+x,y
175 -1/2+z,-1/2+x,-y
176 -1/2+z,-1/2-x,y
177 -1/2-y,-1/2-z,-x
178 -1/2+y,-1/2-z,x
179 -1/2-y,-1/2+z,x
180 -1/2+y,-1/2+z,-x
181 -y,-x,-1/2+z
182 y,x,-1/2+z
183 -y,x,-1/2-z
184 y,-x,-1/2-z
185 -x,-z,-1/2+y
186 x,-z,-1/2-y
187 x,z,-1/2+y
188 -x,z,-1/2-y
189 -z,-y,-1/2+x
190 -z,y,-1/2-x
191 z,-y,-1/2-x
192 z,y,-1/2+x
_cell_length_a 37.2012(9)
_cell_length_b 37.2012(9)
_cell_length_c 37.2012(9)
_cell_angle_alpha 90
_cell_angle_beta 90
_cell_angle_gamma 90
_cell_formula_units_Z 8
loop_
_atom_type_symbol
_atom_type_radius_bond
C 0.68
H 0.23
Cl 0.99
Fe 1.52
N 0.68
O 0.68
loop_
_atom_site_label
_atom_site_type_symbol
_atom_site_fract_x
_atom_site_fract_y
_atom_site_fract_z
Fe1 Fe 0.68398(2) 0.74486(2) 0.50000
Cl1 Cl 0.75000 0.75000 0.50000
O1 O 0.60770(9) 0.73774(9) 0.50000
N1 N 0.71707(5) 0.68337(5) 0.46256(5)
N2 N 0.68990(5) 0.70733(5) 0.46283(5)
N3 N 0.66791(5) 0.70182(5) 0.43544(5)
C1 C 0.71187(6) 0.66225(6) 0.43398(6)
H1 H 0.72680 0.64290 0.42670
C2 C 0.68120(6) 0.67339(6) 0.41702(6)
C3 C 0.66345(6) 0.65967(6) 0.38420(6)
C4 C 0.63290(6) 0.67675(6) 0.37066(6)
H2 H 0.62380 0.69760 0.38230
C5 C 0.63651(13) 0.74033(10) 0.50000
N1G N 0.53744(5) 0.71707(5) 0.31663(5)
N2G N 0.53717(5) 0.68990(5) 0.29267(5)
N3G N 0.56456(5) 0.66791(5) 0.29818(5)
C1G C 0.56602(6) 0.71187(6) 0.33775(6)
H1G H 0.57330 0.72680 0.35710
C2G C 0.58298(6) 0.68120(6) 0.32661(6)
C3G C 0.61580(6) 0.66345(6) 0.34033(6)
C4G C 0.62934(6) 0.63290(6) 0.32325(6)
H2G H 0.61770 0.62380 0.30240
N1J N 0.68337(5) 0.53744(5) 0.28293(5)
N2J N 0.70733(5) 0.53717(5) 0.31010(5)
N3J N 0.70182(5) 0.56456(5) 0.33209(5)
C1J C 0.66225(6) 0.56602(6) 0.28813(6)
H1J H 0.64290 0.57330 0.27320
C2J C 0.67339(6) 0.58298(6) 0.31880(6)
C3J C 0.65967(6) 0.61580(6) 0.33655(6)
C4J C 0.67675(6) 0.62934(6) 0.36710(6)
H2J H 0.69760 0.61770 0.37620
Fe1G Fe 0.50000(2) 0.68398(2) 0.25514
Cl1G Cl 0.50000 0.75000 0.25000
O1G O 0.50000(9) 0.60770(9) 0.26226
C5G C 0.50000(13) 0.63651(10) 0.25967
Fe1J Fe 0.74486(2) 0.50000(2) 0.31602
Cl1J Cl 0.75000 0.50000 0.25000
O1J O 0.73774(9) 0.50000(9) 0.39230
C5J C 0.74033(13) 0.5000(1) 0.36349
Fe1DA Fe 0.50000(2) 0.81602(2) 0.24486
O1DA O 0.50000(9) 0.89230(9) 0.23774
N1DA N 0.53744(5) 0.78293(5) 0.18337(5)
N2DA N 0.53717(5) 0.81010(5) 0.20733(5)
N3DA N 0.56456(5) 0.83209(5) 0.20182(5)
C1DA C 0.56602(6) 0.78813(6) 0.16225(6)
H1DA H 0.57330 0.77320 0.14290
C2DA C 0.58298(6) 0.81880(6) 0.17339(6)
C3DA C 0.61580(6) 0.83655(6) 0.15967(6)
C4DA C 0.62934(6) 0.86710(6) 0.17675(6)
H2DA H 0.61770 0.87620 0.19760
C5DA C 0.50000(13) 0.86349(10) 0.24033
N1FA N 0.68337(5) 0.96256(5) 0.21707(5)
N2FA N 0.70733(5) 0.96283(5) 0.18990(5)
N3FA N 0.70182(5) 0.93544(5) 0.16791(5)
C1FA C 0.66225(6) 0.93398(6) 0.21187(6)
H1FA H 0.64290 0.92670 0.22680
C2FA C 0.67339(6) 0.91702(6) 0.18120(6)
C3FA C 0.65967(6) 0.88420(6) 0.16345(6)
C4FA C 0.67675(6) 0.87066(6) 0.13290(6)
H2FA H 0.69760 0.88230 0.12380
N1AA N 0.71707(5) 0.81663(5) 0.03744(5)
N2AA N 0.68990(5) 0.79267(5) 0.03717(5)
N3AA N 0.66791(5) 0.79818(5) 0.06456(5)
C1AA C 0.71187(6) 0.83775(6) 0.06602(6)
H1AA H 0.72680 0.85710 0.07330
C2AA C 0.68120(6) 0.82661(6) 0.08298(6)
C3AA C 0.66345(6) 0.84033(6) 0.11580(6)
C4AA C 0.63290(6) 0.82325(6) 0.12934(6)
H2AA H 0.62380 0.80240 0.11770
Fe1FA Fe 0.74486(2) 1.00000(2) 0.18398
O1FA O 0.73774(9) 1.00000(9) 0.10770
C5FA C 0.74033(13) 1.0000(1) 0.13651
Fe1MA Fe 0.75514(2) 0.68398(2) 0.50000
O1MA O 0.76226(9) 0.60770(9) 0.50000
N1MA N 0.81663(5) 0.71707(5) 0.46256(5)
N2MA N 0.79267(5) 0.68990(5) 0.46283(5)
N3MA N 0.79818(5) 0.66791(5) 0.43544(5)
C1MA C 0.83775(6) 0.71187(6) 0.43398(6)
H1MA H 0.85710 0.72680 0.42670
C2MA C 0.82661(6) 0.68120(6) 0.41702(6)
C3MA C 0.84033(6) 0.66345(6) 0.38420(6)
C4MA C 0.82325(6) 0.63290(6) 0.37066(6)
H2MA H 0.80240 0.62380 0.38230
C5MA C 0.75967(13) 0.63651(10) 0.50000
N1PA N 0.78293(5) 0.53744(5) 0.31663(5)
N2PA N 0.81010(5) 0.53717(5) 0.29267(5)
N3PA N 0.83209(5) 0.56456(5) 0.29818(5)
C1PA C 0.78813(6) 0.56602(6) 0.33775(6)
H1PA H 0.77320 0.57330 0.35710
C2PA C 0.81880(6) 0.58298(6) 0.32661(6)
C3PA C 0.83655(6) 0.61580(6) 0.34033(6)
C4PA C 0.86710(6) 0.62934(6) 0.32325(6)
H2PA H 0.87620 0.61770 0.30240
N1RA N 0.96256(5) 0.68337(5) 0.28293(5)
N2RA N 0.96283(5) 0.70733(5) 0.31010(5)
N3RA N 0.93544(5) 0.70182(5) 0.33209(5)
C1RA C 0.93398(6) 0.66225(6) 0.28813(6)
H1RA H 0.92670 0.64290 0.27320
C2RA C 0.91702(6) 0.67339(6) 0.31880(6)
C3RA C 0.88420(6) 0.65967(6) 0.33655(6)
C4RA C 0.87066(6) 0.67675(6) 0.36710(6)
H2RA H 0.88230 0.69760 0.37620
Fe1PA Fe 0.81602(2) 0.50000(2) 0.25514
O1PA O 0.89230(9) 0.50000(9) 0.26226
C5PA C 0.86349(13) 0.5000(1) 0.25967
N1XA N 0.78293(5) 0.68337(5) 0.03744(5)
N2XA N 0.81010(5) 0.70733(5) 0.03717(5)
N3XA N 0.83209(5) 0.70182(5) 0.06456(5)
C1XA C 0.78813(6) 0.66225(6) 0.06602(6)
H1XA H 0.77320 0.64290 0.07330
C2XA C 0.81880(6) 0.67339(6) 0.08298(6)
C3XA C 0.83655(6) 0.65967(6) 0.11580(6)
C4XA C 0.86710(6) 0.67675(6) 0.12934(6)
H2XA H 0.87620 0.69760 0.11770
N1ZA N 0.96256(5) 0.71707(5) 0.18337(5)
N2ZA N 0.96283(5) 0.68990(5) 0.20733(5)
N3ZA N 0.93544(5) 0.66791(5) 0.20182(5)
C1ZA C 0.93398(6) 0.71187(6) 0.16225(6)
H1ZA H 0.92670 0.72680 0.14290
C2ZA C 0.91702(6) 0.68120(6) 0.17339(6)
C3ZA C 0.88420(6) 0.66345(6) 0.15967(6)
C4ZA C 0.87066(6) 0.63290(6) 0.17675(6)
H2ZA H 0.88230 0.62380 0.19760
N1GB N 0.81663(5) 0.53744(5) 0.21707(5)
N2GB N 0.79267(5) 0.53717(5) 0.18990(5)
N3GB N 0.79818(5) 0.56456(5) 0.16791(5)
C1GB C 0.83775(6) 0.56602(6) 0.21187(6)
H1GB H 0.85710 0.57330 0.22680
C2GB C 0.82661(6) 0.58298(6) 0.18120(6)
C3GB C 0.84033(6) 0.61580(6) 0.16345(6)
C4GB C 0.82325(6) 0.62934(6) 0.13290(6)
H2GB H 0.80240 0.61770 0.12380
Fe1ZA Fe 1.00000(2) 0.68398(2) 0.24486
O1ZA O 1.00000(9) 0.60770(9) 0.23774
C5ZA C 1.00000(13) 0.63651(10) 0.24033
Fe1GB Fe 0.75514(2) 0.50000(2) 0.18398
O1GB O 0.76226(9) 0.50000(9) 0.10770
C5GB C 0.75967(13) 0.5000(1) 0.13651
Fe1JB Fe 0.74486(2) 0.81602(2) 0.50000
O1JB O 0.73774(9) 0.89230(9) 0.50000
N1JB N 0.68337(5) 0.78293(5) 0.46256(5)
N2JB N 0.70733(5) 0.81010(5) 0.46283(5)
N3JB N 0.70182(5) 0.83209(5) 0.43544(5)
C1JB C 0.66225(6) 0.78813(6) 0.43398(6)
H1JB H 0.64290 0.77320 0.42670
C2JB C 0.67339(6) 0.81880(6) 0.41702(6)
C3JB C 0.65967(6) 0.83655(6) 0.38420(6)
C4JB C 0.67675(6) 0.86710(6) 0.37066(6)
H2JB H 0.69760 0.87620 0.38230
C5JB C 0.74033(13) 0.86349(10) 0.50000
N1LB N 0.71707(5) 0.96256(5) 0.31663(5)
N2LB N 0.68990(5) 0.96283(5) 0.29267(5)
N3LB N 0.66791(5) 0.93544(5) 0.29818(5)
C1LB C 0.71187(6) 0.93398(6) 0.33775(6)
H1LB H 0.72680 0.92670 0.35710
C2LB C 0.68120(6) 0.91702(6) 0.32661(6)
C3LB C 0.66345(6) 0.88420(6) 0.34033(6)
C4LB C 0.63290(6) 0.87066(6) 0.32325(6)
H2LB H 0.62380 0.88230 0.30240
N1SB N 0.53744(5) 0.81663(5) 0.28293(5)
N2SB N 0.53717(5) 0.79267(5) 0.31010(5)
N3SB N 0.56456(5) 0.79818(5) 0.33209(5)
C1SB C 0.56602(6) 0.83775(6) 0.28813(6)
H1SB H 0.57330 0.85710 0.27320
C2SB C 0.58298(6) 0.82661(6) 0.31880(6)
C3SB C 0.61580(6) 0.84033(6) 0.33655(6)
C4SB C 0.62934(6) 0.82325(6) 0.36710(6)
H2SB H 0.61770 0.80240 0.37620
Fe1SB Fe 0.50000(2) 0.75514(2) 0.31602
O1SB O 0.50000(9) 0.76226(9) 0.39230
C5SB C 0.50000(13) 0.75967(10) 0.36349
Fe1UB Fe 0.81602(2) 0.75514(2) 0.50000
O1UB O 0.89230(9) 0.76226(9) 0.50000
N1UB N 0.78293(5) 0.81663(5) 0.46256(5)
N2UB N 0.81010(5) 0.79267(5) 0.46283(5)
N3UB N 0.83209(5) 0.79818(5) 0.43544(5)
C1UB C 0.78813(6) 0.83775(6) 0.43398(6)
H1UB H 0.77320 0.85710 0.42670
C2UB C 0.81880(6) 0.82661(6) 0.41702(6)
C3UB C 0.83655(6) 0.84033(6) 0.38420(6)
C4UB C 0.86710(6) 0.82325(6) 0.37066(6)
H2UB H 0.87620 0.80240 0.38230
C5UB C 0.86349(13) 0.75967(10) 0.50000
N1YB N 0.96256(5) 0.78293(5) 0.31663(5)
N2YB N 0.96283(5) 0.81010(5) 0.29267(5)
N3YB N 0.93544(5) 0.83209(5) 0.29818(5)
C1YB C 0.93398(6) 0.78813(6) 0.33775(6)
H1YB H 0.92670 0.77320 0.35710
C2YB C 0.91702(6) 0.81880(6) 0.32661(6)
C3YB C 0.88420(6) 0.83655(6) 0.34033(6)
C4YB C 0.87066(6) 0.86710(6) 0.32325(6)
H2YB H 0.88230 0.87620 0.30240
N1CC N 0.81663(5) 0.96256(5) 0.28293(5)
N2CC N 0.79267(5) 0.96283(5) 0.31010(5)
N3CC N 0.79818(5) 0.93544(5) 0.33209(5)
C1CC C 0.83775(6) 0.93398(6) 0.28813(6)
H1CC H 0.85710 0.92670 0.27320
C2CC C 0.82661(6) 0.91702(6) 0.31880(6)
C3CC C 0.84033(6) 0.88420(6) 0.33655(6)
C4CC C 0.82325(6) 0.87066(6) 0.36710(6)
H2CC H 0.80240 0.88230 0.37620
N1FC N 0.68337(5) 0.71707(5) 0.03744(5)
N2FC N 0.70733(5) 0.68990(5) 0.03717(5)
N3FC N 0.70182(5) 0.66791(5) 0.06456(5)
C1FC C 0.66225(6) 0.71187(6) 0.06602(6)
H1FC H 0.64290 0.72680 0.07330
C2FC C 0.67339(6) 0.68120(6) 0.08298(6)
C3FC C 0.65967(6) 0.66345(6) 0.11580(6)
C4FC C 0.67675(6) 0.63290(6) 0.12934(6)
H2FC H 0.69760 0.62380 0.11770
N1MC N 0.71707(5) 0.53744(5) 0.18337(5)
N2MC N 0.68990(5) 0.53717(5) 0.20733(5)
N3MC N 0.66791(5) 0.56456(5) 0.20182(5)
C1MC C 0.71187(6) 0.56602(6) 0.16225(6)
H1MC H 0.72680 0.57330 0.14290
C2MC C 0.68120(6) 0.58298(6) 0.17339(6)
C3MC C 0.66345(6) 0.61580(6) 0.15967(6)
C4MC C 0.63290(6) 0.62934(6) 0.17675(6)
H2MC H 0.62380 0.61770 0.19760
N1PC N 0.53744(5) 0.68337(5) 0.21707(5)
N2PC N 0.53717(5) 0.70733(5) 0.18990(5)
N3PC N 0.56456(5) 0.70182(5) 0.16791(5)
C1PC C 0.56602(6) 0.66225(6) 0.21187(6)
H1PC H 0.57330 0.64290 0.22680
C2PC C 0.58298(6) 0.67339(6) 0.18120(6)
C3PC C 0.61580(6) 0.65967(6) 0.16345(6)
C4PC C 0.62934(6) 0.67675(6) 0.13290(6)
H2PC H 0.61770 0.69760 0.12380
N1M N 0.81663(5) 0.78293(5) 0.03744(5)
N2M N 0.79267(5) 0.81010(5) 0.03717(5)
N3M N 0.79818(5) 0.83209(5) 0.06456(5)
C1M C 0.83775(6) 0.78813(6) 0.06602(6)
H1M H 0.85710 0.77320 0.07330
C2M C 0.82661(6) 0.81880(6) 0.08298(6)
C3M C 0.84033(6) 0.83655(6) 0.11580(6)
C4M C 0.82325(6) 0.86710(6) 0.12934(6)
H2M H 0.80240 0.87620 0.11770
N1Q N 0.78293(5) 0.96256(5) 0.18337(5)
N2Q N 0.81010(5) 0.96283(5) 0.20733(5)
N3Q N 0.83209(5) 0.93544(5) 0.20182(5)
C1Q C 0.78813(6) 0.93398(6) 0.16225(6)
H1Q H 0.77320 0.92670 0.14290
C2Q C 0.81880(6) 0.91702(6) 0.17339(6)
C3Q C 0.83655(6) 0.88420(6) 0.15967(6)
C4Q C 0.86710(6) 0.87066(6) 0.17675(6)
H2Q H 0.87620 0.88230 0.19760
N1U N 0.96256(5) 0.81663(5) 0.21707(5)
N2U N 0.96283(5) 0.79267(5) 0.18990(5)
N3U N 0.93544(5) 0.79818(5) 0.16791(5)
C1U C 0.93398(6) 0.83775(6) 0.21187(6)
H1U H 0.92670 0.85710 0.22680
C2U C 0.91702(6) 0.82661(6) 0.18120(6)
C3U C 0.88420(6) 0.84033(6) 0.16345(6)
C4U C 0.87066(6) 0.82325(6) 0.13290(6)
H2U H 0.88230 0.80240 0.12380
Fe1M Fe 0.75514(2) 0.81602(2) 0.00000
Fe1Q Fe 0.81602(2) 1.00000(2) 0.24486
Fe1U Fe 1.00000(2) 0.75514(2) 0.18398
Fe1AA Fe 0.68398(2) 0.75514(2) 0.00000
Fe1RA Fe 1.00000(2) 0.74486(2) 0.31602
Fe1XA Fe 0.81602(2) 0.74486(2) 0.00000
Fe1LB Fe 0.68398(2) 1.00000(2) 0.25514
Fe1YB Fe 1.00000(2) 0.81602(2) 0.25514
Fe1CC Fe 0.75514(2) 1.00000(2) 0.31602
Fe1FC Fe 0.74486(2) 0.68398(2) 0.00000
Fe1MC Fe 0.68398(2) 0.50000(2) 0.24486
Fe1PC Fe 0.50000(2) 0.74486(2) 0.18398
Cl1Q Cl 0.75000 1.00000 0.25000
Cl1U Cl 1.00000 0.75000 0.25000
N1SC N 0.71707(5) 0.68337(5) 0.53744(5)
N1XC N 0.46256(5) 0.71707(5) 0.31663(5)
N1HD N 0.78293(5) 1.03744(5) 0.18337(5)
N1DE N 0.81663(5) 0.71707(5) 0.53744(5)
N1IE N 0.78293(5) 0.46256(5) 0.31663(5)
N1KE N 1.03744(5) 0.68337(5) 0.28293(5)
N1XE N 0.81663(5) 0.46256(5) 0.21707(5)
N1CF N 0.68337(5) 0.78293(5) 0.53744(5)
N1JF N 0.46256(5) 0.81663(5) 0.28293(5)
N1LF N 0.78293(5) 0.81663(5) 0.53744(5)
N1DG N 0.71707(5) 0.46256(5) 0.18337(5)
N1IG N 0.46256(5) 0.68337(5) 0.21707(5)
N2SC N 0.68990(5) 0.70733(5) 0.53717(5)
N2XC N 0.46283(5) 0.68990(5) 0.29267(5)
N2CD N 0.70733(5) 0.46283(5) 0.31010(5)
N2WD N 0.46283(5) 0.81010(5) 0.20733(5)
N2YD N 0.70733(5) 1.03717(5) 0.18990(5)
N2DE N 0.79267(5) 0.68990(5) 0.53717(5)
N2IE N 0.81010(5) 0.46283(5) 0.29267(5)
N2SE N 1.03717(5) 0.68990(5) 0.20733(5)
N2XE N 0.79267(5) 0.46283(5) 0.18990(5)
N2CF N 0.70733(5) 0.81010(5) 0.53717(5)
N2JF N 0.46283(5) 0.79267(5) 0.31010(5)
N2LF N 0.81010(5) 0.79267(5) 0.53717(5)
#END
