
#######################################################################
#
#                 Cambridge Crystallographic Data Centre
#                                CCDC
#
#######################################################################
#
# If this CIF has been generated from an entry in the Cambridge
# Structural Database, then it will include bibliographic, chemical,
# crystal, experimental, refinement or atomic coordinate data resulting
# from the CCDC's data processing and validation procedures.
#
#######################################################################

data_CSD_CIF_OLIMUS
_audit_creation_date 2011-05-25
_audit_creation_method CSD-ConQuest-V1
_database_code_CSD OLIMUS
_database_code_depnum_ccdc_archive 'CCDC 780712'
_chemical_formula_sum 'C35 H38 Cr1 F1 Mn1 N2 O19'
_chemical_formula_moiety
;
(C6 H7 F1 N1 1+)n,n(C20 H24 O6),n(C6 Cr1 Mn1 O12 1-),n(C1 H4 O1),n(C2 H3 N1)
;
_journal_coden_Cambridge 222
_journal_volume 40
_journal_year 2011
_journal_page_first 1491
_journal_name_full 'Dalton Trans. '
loop_
_publ_author_name
"T.Endo"
"T.Akutagawa"
"S.Noro"
"T.Nakamura"
_chemical_name_systematic
;
catena-((m-Fluoroanilinium) (dibenzo(18)crown-6) 
tris(\m~2~-oxalato)-chromium-manganese acetonitrile methanol solvate)
;
_cell_volume   3908.958
_exptl_crystal_colour 'blue'
_exptl_crystal_density_diffrn 1.557
_exptl_crystal_description 'block'
_diffrn_ambient_temperature 173
#These two values have been output from a single CSD field.
_refine_ls_R_factor_gt 0.0501
_refine_ls_wR_factor_gt 0.0501
_symmetry_cell_setting monoclinic
_symmetry_space_group_name_H-M 'P 21/c'
_symmetry_Int_Tables_number 14
loop_
_symmetry_equiv_pos_site_id
_symmetry_equiv_pos_as_xyz
1 x,y,z
2 -x,1/2+y,1/2-z
3 -x,-y,-z
4 x,-1/2-y,-1/2+z
_cell_length_a 9.1437(7)
_cell_length_b 16.5084(10)
_cell_length_c 26.4142(17)
_cell_angle_alpha 90
_cell_angle_beta 101.367(2)
_cell_angle_gamma 90
_cell_formula_units_Z 4
loop_
_atom_type_symbol
_atom_type_radius_bond
C 0.68
H 0.23
Cr 1.39
F 0.64
Mn 1.61
N 0.68
O 0.68
loop_
_atom_site_label
_atom_site_type_symbol
_atom_site_fract_x
_atom_site_fract_y
_atom_site_fract_z
Mn1 Mn 0.71737(10) 0.49519(5) 0.75972(3)
Cr1 Cr 0.21301(10) 0.32034(5) 0.75421(3)
F1 F 0.4842(5) 0.4862(2) 0.56445(18)
O1 O 0.4223(4) 0.3287(2) 0.79663(13)
O2 O 0.7942(4) 0.4013(2) 0.71599(14)
O3 O 0.2863(4) 0.4132(2) 0.71601(14)
O4 O 0.2777(4) 0.2392(2) 0.70575(14)
O5 O 0.4913(4) 0.4893(2) 0.71870(13)
O6 O 0.6259(4) 0.4073(2) 0.80336(14)
O7 O 1.1367(4) 0.3973(2) 0.80200(14)
O8 O 0.2195(4) 0.0845(2) 0.78917(14)
O9 O 0.1786(4) 0.2187(2) 0.79215(13)
O10 O 0.9341(4) 0.4732(2) 0.80361(14)
O11 O 0.8152(4) 0.0978(2) 0.55478(14)
O12 O 0.9901(4) 0.2375(2) 0.57658(13)
O13 O 0.9391(3) 0.3629(2) 0.50276(13)
O14 O 0.5306(4) 0.2300(2) 0.41338(14)
O15 O 0.7087(4) 0.3687(2) 0.42661(13)
O16 O 0.6089(4) 0.0918(2) 0.47224(13)
O17 O 0.3072(4) 0.1042(2) 0.69880(15)
O18 O 1.0020(4) 0.3287(2) 0.71498(13)
O19 O 1.1586(5) 0.7212(3) 0.17810(19)
N1 N 0.7084(5) 0.2489(2) 0.50842(17)
N2 N 0.6281(9) 0.0611(5) 0.6623(3)
C1 C 0.4960(6) 0.3866(3) 0.7828(2)
C2 C 0.9450(6) 0.1907(3) 0.6166(2)
C3 C 0.4180(6) 0.4351(3) 0.7350(2)
C4 C 0.4709(6) 0.3086(3) 0.3991(2)
C5 C 1.0173(6) 0.3205(3) 0.5901(2)
C6 C 0.2734(6) 0.1655(3) 0.7208(2)
C7 C 0.9608(6) 0.4007(3) 0.4579(2)
C8 C 0.8365(6) 0.4049(3) 0.4177(2)
C9 C 0.9337(6) 0.1046(3) 0.5999(2)
C10 C 0.6147(6) 0.2875(3) 0.54182(19)
C11 C 1.0657(6) 0.3619(3) 0.5453(2)
C12 C 0.4209(6) 0.1711(3) 0.4202(2)
C13 C 0.5886(6) 0.3575(3) 0.3825(2)
C14 C 0.6766(10) 0.1070(6) 0.6946(3)
C15 C 0.8476(7) 0.4423(3) 0.3718(2)
C16 C 0.4457(7) 0.3618(5) 0.6034(2)
C17 C 0.8923(6) -0.0420(3) 0.5435(2)
C18 C 0.8030(6) 0.0249(3) 0.5284(2)
C19 C 0.4956(6) 0.0910(3) 0.4257(2)
C20 C 0.6753(7) -0.0465(3) 0.4538(2)
C21 C 0.6928(6) 0.0226(3) 0.4834(2)
C22 C 1.0952(6) 0.4320(3) 0.4508(2)
C23 C 0.7325(15) 0.1621(8) 0.7306(5)
C24 C 1.1072(7) 0.4682(3) 0.4040(2)
C25 C 0.9238(6) 0.3800(3) 0.73374(19)
C26 C 0.9838(8) 0.4733(3) 0.3654(2)
C27 C 0.5070(8) 0.4046(4) 0.5684(2)
C28 C 0.5543(6) 0.2423(4) 0.5749(2)
C29 C 0.4693(7) 0.2797(5) 0.6064(2)
C30 C 0.7680(7) -0.1129(3) 0.4686(2)
C31 C 0.8738(7) -0.1107(3) 0.5127(2)
C32 C 0.5937(7) 0.3701(3) 0.5374(2)
C33 C 1.0666(7) 0.7203(4) 0.1283(2)
C34 C 1.0047(6) 0.4208(3) 0.7843(2)
C35 C 0.2172(5) 0.1545(3) 0.7728(2)
H1 H 0.63710 0.40170 0.51410
H2 H 0.38820 0.38810 0.62480
H3 H 0.56970 0.18530 0.57660
H4 H 0.42730 0.24830 0.63010
H5 H 0.64700 0.23300 0.47670
H6 H 0.78120 0.28640 0.50190
H7 H 0.75680 0.20260 0.52540
H8 H 0.76230 0.44670 0.34480
H9 H 1.18010 0.42880 0.47800
H10 H 1.20020 0.48910 0.39910
H11 H 0.99120 0.49840 0.33360
H12 H 0.96530 -0.04080 0.57450
H13 H 0.60070 -0.04880 0.42320
H14 H 0.75760 -0.16010 0.44760
H15 H 0.93500 -0.15680 0.52270
H16 H 1.01690 0.19610 0.64770
H17 H 0.85090 0.20910 0.62200
H18 H 0.92880 0.34510 0.59650
H19 H 1.09360 0.32450 0.62020
H20 H 0.91150 0.07160 0.62690
H21 H 1.02540 0.08760 0.59160
H22 H 1.14550 0.33260 0.53570
H23 H 1.09720 0.41560 0.55440
H24 H 0.38690 0.30400 0.37160
H25 H 0.44160 0.33370 0.42780
H26 H 0.38300 0.18300 0.45030
H27 H 0.34130 0.17110 0.39100
H28 H 0.54950 0.40870 0.37000
H29 H 0.62470 0.32990 0.35590
H30 H 0.54050 0.08110 0.39670
H31 H 0.42480 0.04960 0.42790
H32 H 0.65820 0.17590 0.74970
H33 H 0.81640 0.13970 0.75330
H34 H 0.76200 0.20920 0.71460
H35 H 1.12620 0.72830 0.10310
H36 H 0.99460 0.76240 0.12580
H37 H 1.01730 0.66950 0.12280
Mn1A Mn 0.28263(10) -0.00481(5) 0.74028(3)
Cr1* Cr 1.21301(10) 0.32034(5) 0.75421(3)
O7* O 0.1367(4) 0.3973(2) 0.80200(14)
O8A O 0.7805(4) 0.5845(2) 0.71083(14)
O17A O 0.6928(4) 0.6042(2) 0.80120(15)
O18* O 0.0020(4) 0.3287(2) 0.71498(13)
#END
