
#######################################################################
#
#                 Cambridge Crystallographic Data Centre
#                                CCDC
#
#######################################################################
#
# If this CIF has been generated from an entry in the Cambridge
# Structural Database, then it will include bibliographic, chemical,
# crystal, experimental, refinement or atomic coordinate data resulting
# from the CCDC's data processing and validation procedures.
#
#######################################################################

data_CSD_CIF_OMADEO
_audit_creation_date 2021-02-11
_audit_creation_method CSD-ConQuest-V1
_database_code_CSD OMADEO
_database_code_depnum_ccdc_archive 'CCDC 2024616'
_chemical_formula_sum 'C26 H24 N1 O8 P1 U1'
_chemical_formula_moiety
;
C19 H18 P1 1+,(C7 H4 N1 O7 U1 1-)n,H2 O1
;
_journal_coden_Cambridge 1290
_journal_volume 2020
_journal_year 2020
_journal_page_first 4391
_journal_name_full 'Eur.J.Inorg.Chem. '
loop_
_publ_author_name
"P.Thuery"
"Y.Atoini"
"S.Kusumoto"
"S.Hayami"
"Yang Kim"
"J.Harrowfield"
_chemical_name_systematic
;
catena-[methyl(triphenyl)phosphanium 
(\m-pyridine-2,5-dicarboxylato)-(\m-hydroxido)-dioxo-uranium(vi) monohydrate]
;
_cell_volume   2554.763
_exptl_crystal_colour 'yellow green'
_exptl_crystal_density_diffrn 1.943
_exptl_crystal_description 'platelet'
_diffrn_ambient_temperature 100
#These two values have been output from a single CSD field.
_refine_ls_R_factor_gt 0.0193
_refine_ls_wR_factor_gt 0.0193
_symmetry_cell_setting monoclinic
_symmetry_space_group_name_H-M 'P 21/n'
_symmetry_Int_Tables_number 14
loop_
_symmetry_equiv_pos_site_id
_symmetry_equiv_pos_as_xyz
1 x,y,z
2 1/2-x,1/2+y,1/2-z
3 -x,-y,-z
4 -1/2+x,-1/2-y,-1/2+z
_cell_length_a 13.3789(5)
_cell_length_b 11.1183(3)
_cell_length_c 17.7408(6)
_cell_angle_alpha 90
_cell_angle_beta 104.5117(13)
_cell_angle_gamma 90
_cell_formula_units_Z 4
loop_
_atom_type_symbol
_atom_type_radius_bond
C 0.68
H 0.23
N 0.68
O 0.68
P 1.05
U 1.96
loop_
_atom_site_label
_atom_site_type_symbol
_atom_site_fract_x
_atom_site_fract_y
_atom_site_fract_z
U1 U 0.45686(2) 0.15566(2) 0.52773(2)
O1 O 0.54951(13) 0.15517(15) 0.61979(10)
O2 O 0.36249(13) 0.17098(15) 0.43698(10)
O3 O 0.33102(14) 0.12464(15) 0.59959(12)
O4 O 0.24228(14) 0.17997(16) 0.68469(11)
O5 O 0.44354(13) 0.69095(15) 0.51467(10)
O6 O 0.32835(14) 0.77017(15) 0.57306(11)
O7 O 0.56641(14) 0.04799(15) 0.47049(10)
H1 H 0.608(3) 0.085(3) 0.454(2)
N1 N 0.37171(15) 0.34706(17) 0.56860(11)
C1 C 0.31405(18) 0.3322(2) 0.62039(14)
C2 C 0.27527(19) 0.4278(2) 0.65451(15)
H2 H 0.23666 0.41424 0.69194
C3 C 0.29413(19) 0.5435(2) 0.63274(15)
H3 H 0.26868 0.61083 0.65522
C4 C 0.35054(17) 0.5602(2) 0.57780(14)
C5 C 0.38848(18) 0.4594(2) 0.54778(14)
H4 H 0.42811 0.47089 0.51078
C6 C 0.29353(19) 0.2026(2) 0.63767(15)
C7 C 0.37478(18) 0.6843(2) 0.55330(14)
P1 P 0.40318(5) 0.09816(6) 0.19593(4)
C8 C 0.4859(2) 0.1131(2) 0.29155(14)
H5 H 0.46102 0.17885 0.31889
H6 H 0.55627 0.13087 0.28793
H7 H 0.48572 0.03791 0.32031
C9 C 0.27518(19) 0.0643(2) 0.20387(14)
C10 C 0.2320(2) 0.1384(2) 0.25073(16)
H8 H 0.27013 0.20463 0.27716
C11 C 0.1333(2) 0.1153(3) 0.25870(16)
H9 H 0.10386 0.16554 0.29073
C12 C 0.0777(2) 0.0189(3) 0.21988(15)
H10 H 0.01020 0.00291 0.22545
C13 C 0.1204(2) -0.0542(2) 0.17302(16)
H11 H 0.08163 -0.11978 0.14619
C14 C 0.21942(19) -0.0325(2) 0.16492(14)
H12 H 0.24877 -0.08331 0.13311
C15 C 0.44974(18) -0.0212(2) 0.14629(14)
C16 C 0.4111(2) -0.0362(3) 0.06612(15)
H13 H 0.36173 0.01886 0.03732
C17 C 0.4448(2) -0.1315(3) 0.02875(17)
H14 H 0.41754 -0.14263 -0.02561
C18 C 0.5184(2) -0.2108(2) 0.07038(18)
H15 H 0.54189 -0.27552 0.04430
C19 C 0.5576(2) -0.1959(2) 0.14957(17)
H16 H 0.60799 -0.25037 0.17782
C20 C 0.5236(2) -0.1013(2) 0.18812(16)
H17 H 0.55046 -0.09125 0.24262
C21 C 0.40244(19) 0.2386(2) 0.14592(14)
C22 C 0.3106(2) 0.2992(2) 0.11333(16)
H18 H 0.24626 0.26440 0.11465
C23 C 0.3139(2) 0.4109(2) 0.07890(16)
H19 H 0.25157 0.45295 0.05690
C24 C 0.4078(2) 0.4610(2) 0.07662(16)
H20 H 0.40955 0.53698 0.05248
C25 C 0.4996(2) 0.4012(2) 0.10931(16)
H21 H 0.56371 0.43633 0.10768
C26 C 0.4974(2) 0.2898(2) 0.14439(15)
H22 H 0.55997 0.24870 0.16716
O8 O 0.2302(2) 0.9132(2) 0.66772(15)
H23 H 0.243(3) 0.984(4) 0.663(2)
H24 H 0.249(3) 0.878(4) 0.636(2)
U1B U 0.54314(2) -0.15566(2) 0.47227(2)
U1B* U 0.54314(2) 0.84434(2) 0.47227(2)
O5B O 0.55646(13) 0.30905(15) 0.48533(10)
O7B O 0.43359(14) -0.04799(15) 0.52951(10)
#END
