
#######################################################################
#
#                 Cambridge Crystallographic Data Centre
#                                CCDC
#
#######################################################################
#
# If this CIF has been generated from an entry in the Cambridge
# Structural Database, then it will include bibliographic, chemical,
# crystal, experimental, refinement or atomic coordinate data resulting
# from the CCDC's data processing and validation procedures.
#
#######################################################################

data_CSD_CIF_OMIPEH
_audit_creation_date 2016-05-16
_audit_creation_method CSD-ConQuest-V1
_database_code_CSD OMIPEH
_database_code_depnum_ccdc_archive 'CCDC 1058600'
_chemical_formula_sum 'C108 H147 Cu24 N48 O148 P1 W12'
_chemical_formula_moiety
;
(C54 H42 Cu12 N24 O38 2+)2n,n(O40 P1 W12 3-),n(H1 O1 1-),31n(H2 O1)
;
_journal_coden_Cambridge 1540
_journal_volume 6
_journal_year 2016
_journal_page_first 25595
_journal_name_full 'Scientific Reports '
loop_
_publ_author_name
"Jing-Wen Sun"
"Peng-Fei Yan"
"Guang-Hui An"
"Jing-Quan Sha"
"Guang-Ming Li"
"Guo-Yu Yang"
_chemical_name_systematic
;
catena-[bis(hexakis(\m~6~-5-(3,5-Dicarboxylatophenyl)-2H-tetrazol-2-yl)-bis(\m
~3~-oxo)-dodeca-aqua-dodeca-copper(ii)) 
((\m~12~-phosphato)-tetracosakis(\m~2~-oxo)-dodeca-oxo-dodeca-tungsten) 
hydroxide henitriacontahydrate]
;
_chemical_name_common
;
HLJU-3
;
_cell_volume  87967.942
_exptl_crystal_colour 'blue'
_exptl_crystal_description 'polyhedra'
_diffrn_ambient_temperature 293
_refine_special_details
;
The SQUEEZE/PLATON program has been used to model some disorder.

;
#These two values have been output from a single CSD field.
_refine_ls_R_factor_gt 0.0994
_refine_ls_wR_factor_gt 0.0994
_symmetry_cell_setting cubic
_symmetry_space_group_name_H-M 'F m -3 m'
_symmetry_Int_Tables_number 225
loop_
_symmetry_equiv_pos_site_id
_symmetry_equiv_pos_as_xyz
1 x,y,z
2 x,-z,y
3 x,z,-y
4 z,y,-x
5 -z,y,x
6 -y,x,z
7 y,-x,z
8 z,x,y
9 y,z,x
10 -y,-z,x
11 z,-x,-y
12 -y,z,-x
13 -z,-x,y
14 -z,x,-y
15 y,-z,-x
16 x,-y,-z
17 -x,y,-z
18 -x,-y,z
19 y,x,-z
20 -y,-x,-z
21 z,-y,x
22 -z,-y,-x
23 -x,z,y
24 -x,-z,-y
25 x,1/2+y,1/2+z
26 x,1/2-z,1/2+y
27 x,1/2+z,1/2-y
28 z,1/2+y,1/2-x
29 -z,1/2+y,1/2+x
30 -y,1/2+x,1/2+z
31 y,1/2-x,1/2+z
32 z,1/2+x,1/2+y
33 y,1/2+z,1/2+x
34 -y,1/2-z,1/2+x
35 z,1/2-x,1/2-y
36 -y,1/2+z,1/2-x
37 -z,1/2-x,1/2+y
38 -z,1/2+x,1/2-y
39 y,1/2-z,1/2-x
40 x,1/2-y,1/2-z
41 -x,1/2+y,1/2-z
42 -x,1/2-y,1/2+z
43 y,1/2+x,1/2-z
44 -y,1/2-x,1/2-z
45 z,1/2-y,1/2+x
46 -z,1/2-y,1/2-x
47 -x,1/2+z,1/2+y
48 -x,1/2-z,1/2-y
49 1/2+x,y,1/2+z
50 1/2+x,-z,1/2+y
51 1/2+x,z,1/2-y
52 1/2+z,y,1/2-x
53 1/2-z,y,1/2+x
54 1/2-y,x,1/2+z
55 1/2+y,-x,1/2+z
56 1/2+z,x,1/2+y
57 1/2+y,z,1/2+x
58 1/2-y,-z,1/2+x
59 1/2+z,-x,1/2-y
60 1/2-y,z,1/2-x
61 1/2-z,-x,1/2+y
62 1/2-z,x,1/2-y
63 1/2+y,-z,1/2-x
64 1/2+x,-y,1/2-z
65 1/2-x,y,1/2-z
66 1/2-x,-y,1/2+z
67 1/2+y,x,1/2-z
68 1/2-y,-x,1/2-z
69 1/2+z,-y,1/2+x
70 1/2-z,-y,1/2-x
71 1/2-x,z,1/2+y
72 1/2-x,-z,1/2-y
73 1/2+x,1/2+y,z
74 1/2+x,1/2-z,y
75 1/2+x,1/2+z,-y
76 1/2+z,1/2+y,-x
77 1/2-z,1/2+y,x
78 1/2-y,1/2+x,z
79 1/2+y,1/2-x,z
80 1/2+z,1/2+x,y
81 1/2+y,1/2+z,x
82 1/2-y,1/2-z,x
83 1/2+z,1/2-x,-y
84 1/2-y,1/2+z,-x
85 1/2-z,1/2-x,y
86 1/2-z,1/2+x,-y
87 1/2+y,1/2-z,-x
88 1/2+x,1/2-y,-z
89 1/2-x,1/2+y,-z
90 1/2-x,1/2-y,z
91 1/2+y,1/2+x,-z
92 1/2-y,1/2-x,-z
93 1/2+z,1/2-y,x
94 1/2-z,1/2-y,-x
95 1/2-x,1/2+z,y
96 1/2-x,1/2-z,-y
97 -x,-y,-z
98 -x,z,-y
99 -x,-z,y
100 -z,-y,x
101 z,-y,-x
102 y,-x,-z
103 -y,x,-z
104 -z,-x,-y
105 -y,-z,-x
106 y,z,-x
107 -z,x,y
108 y,-z,x
109 z,x,-y
110 z,-x,y
111 -y,z,x
112 -x,y,z
113 x,-y,z
114 x,y,-z
115 -y,-x,z
116 y,x,z
117 -z,y,-x
118 z,y,x
119 x,-z,-y
120 x,z,y
121 -x,-1/2-y,-1/2-z
122 -x,-1/2+z,-1/2-y
123 -x,-1/2-z,-1/2+y
124 -z,-1/2-y,-1/2+x
125 z,-1/2-y,-1/2-x
126 y,-1/2-x,-1/2-z
127 -y,-1/2+x,-1/2-z
128 -z,-1/2-x,-1/2-y
129 -y,-1/2-z,-1/2-x
130 y,-1/2+z,-1/2-x
131 -z,-1/2+x,-1/2+y
132 y,-1/2-z,-1/2+x
133 z,-1/2+x,-1/2-y
134 z,-1/2-x,-1/2+y
135 -y,-1/2+z,-1/2+x
136 -x,-1/2+y,-1/2+z
137 x,-1/2-y,-1/2+z
138 x,-1/2+y,-1/2-z
139 -y,-1/2-x,-1/2+z
140 y,-1/2+x,-1/2+z
141 -z,-1/2+y,-1/2-x
142 z,-1/2+y,-1/2+x
143 x,-1/2-z,-1/2-y
144 x,-1/2+z,-1/2+y
145 -1/2-x,-y,-1/2-z
146 -1/2-x,z,-1/2-y
147 -1/2-x,-z,-1/2+y
148 -1/2-z,-y,-1/2+x
149 -1/2+z,-y,-1/2-x
150 -1/2+y,-x,-1/2-z
151 -1/2-y,x,-1/2-z
152 -1/2-z,-x,-1/2-y
153 -1/2-y,-z,-1/2-x
154 -1/2+y,z,-1/2-x
155 -1/2-z,x,-1/2+y
156 -1/2+y,-z,-1/2+x
157 -1/2+z,x,-1/2-y
158 -1/2+z,-x,-1/2+y
159 -1/2-y,z,-1/2+x
160 -1/2-x,y,-1/2+z
161 -1/2+x,-y,-1/2+z
162 -1/2+x,y,-1/2-z
163 -1/2-y,-x,-1/2+z
164 -1/2+y,x,-1/2+z
165 -1/2-z,y,-1/2-x
166 -1/2+z,y,-1/2+x
167 -1/2+x,-z,-1/2-y
168 -1/2+x,z,-1/2+y
169 -1/2-x,-1/2-y,-z
170 -1/2-x,-1/2+z,-y
171 -1/2-x,-1/2-z,y
172 -1/2-z,-1/2-y,x
173 -1/2+z,-1/2-y,-x
174 -1/2+y,-1/2-x,-z
175 -1/2-y,-1/2+x,-z
176 -1/2-z,-1/2-x,-y
177 -1/2-y,-1/2-z,-x
178 -1/2+y,-1/2+z,-x
179 -1/2-z,-1/2+x,y
180 -1/2+y,-1/2-z,x
181 -1/2+z,-1/2+x,-y
182 -1/2+z,-1/2-x,y
183 -1/2-y,-1/2+z,x
184 -1/2-x,-1/2+y,z
185 -1/2+x,-1/2-y,z
186 -1/2+x,-1/2+y,-z
187 -1/2-y,-1/2-x,z
188 -1/2+y,-1/2+x,z
189 -1/2-z,-1/2+y,-x
190 -1/2+z,-1/2+y,x
191 -1/2+x,-1/2-z,-y
192 -1/2+x,-1/2+z,y
_cell_length_a 44.4742(7)
_cell_length_b 44.4742(7)
_cell_length_c 44.4742(7)
_cell_angle_alpha 90
_cell_angle_beta 90
_cell_angle_gamma 90
_cell_formula_units_Z 8
loop_
_atom_type_symbol
_atom_type_radius_bond
C 0.68
H 0.23
Cu 1.32
N 0.68
O 0.68
P 1.05
W 1.62
loop_
_atom_site_label
_atom_site_type_symbol
_atom_site_fract_x
_atom_site_fract_y
_atom_site_fract_z
Cu1 Cu 0.168668(17) 0.168668(17) 0.00000
Cu2 Cu 0.126563(18) 0.126563(18) 0.00000
Cu3 Cu 0.32504(5) 0.17496(5) 0.12195(6)
O1 O 0.0928(3) 0.0928(3) 0.00000
O2 O 0.20274(16) 0.20274(16) 0.00000
O3 O 0.15180(9) 0.10747(9) 0.03080(9)
O4 O 0.18716(10) 0.14352(10) 0.03059(10)
O5 O 0.3393(2) 0.1607(2) 0.1607(2)
O6 O 0.3042(3) 0.1958(3) 0.0891(5)
N1 N 0.27094(17) 0.13891(19) 0.10352(18)
N2 N 0.29256(17) 0.14567(16) 0.12575(16)
C1 C 0.2560(3) 0.11874(18) 0.11874(18)
C2 C 0.2281(2) 0.10390(17) 0.10390(17)
C3 C 0.21645(15) 0.11625(16) 0.07728(16)
H1 H 0.22654(15) 0.13161(16) 0.06731(16)
C4 C 0.19021(13) 0.10528(12) 0.06648(12)
C5 C 0.17745(18) 0.08043(13) 0.08043(13)
H2 H 0.15955(18) 0.07278(13) 0.07278(13)
C6 C 0.17482(14) 0.12091(13) 0.04004(14)
W1 W 0.30507(8) 0.19493(8) 0.24721(11)
O7 O 0.2638(4) 0.2638(4) 0.2638(4)
P1 P 0.2334(4) 0.2666(4) 0.2666(4)
O8 O 0.2813(3) 0.1698(4) 0.2187(3)
O9 O 0.3394(3) 0.1606(3) 0.2618(8)
O10 O 0.1976(6) 0.2780(3) 0.2780(3)
O3OD O 0.15180(9) 0.03080(9) 0.10747(9)
O4OD O 0.18716(10) 0.03059(10) 0.14352(10)
N1OD N 0.27094(17) 0.10352(19) 0.13891(18)
N2OD N 0.29256(17) 0.12575(16) 0.14567(16)
C3OD C 0.21645(15) 0.07728(16) 0.11625(16)
H1OD H 0.22654(15) 0.06731(16) 0.13161(16)
C4OD C 0.19021(13) 0.06648(12) 0.10528(12)
C6OD C 0.17482(14) 0.04004(13) 0.12091(14)
Cu1A Cu 0.168668(17) 0.000000(17) 0.16867
Cu2A Cu 0.126563(18) 0.000000(18) 0.12656
Cu3A Cu 0.32504(5) -0.12195(5) 0.17496(6)
O1A O 0.0928(3) 0.0000(3) 0.09280
O2A O 0.20274(16) 0.00000(16) 0.20274
O3A O 0.15180(9) -0.03080(9) 0.10747(9)
O4A O 0.18716(10) -0.03059(10) 0.14352(10)
O5A O 0.3393(2) -0.1607(2) 0.1607(2)
O6A O 0.3042(3) -0.0891(3) 0.1958(5)
N1A N 0.27094(17) -0.10352(19) 0.13891(18)
N2A N 0.29256(17) -0.12575(16) 0.14567(16)
C1A C 0.2560(3) -0.11874(18) 0.11874(18)
C2A C 0.2281(2) -0.10390(17) 0.10390(17)
C3A C 0.21645(15) -0.07728(16) 0.11625(16)
H1A H 0.22654(15) -0.06731(16) 0.13161(16)
C4A C 0.19021(13) -0.06648(12) 0.10528(12)
C5A C 0.17745(18) -0.08043(13) 0.08043(13)
H2A H 0.15955(18) -0.07278(13) 0.07278(13)
C6A C 0.17482(14) -0.04004(13) 0.12091(14)
O3HD O 0.15180(9) -0.10747(9) 0.03080(9)
O4HD O 0.18716(10) -0.14352(10) 0.03059(10)
N1HD N 0.27094(17) -0.13891(19) 0.10352(18)
N2HD N 0.29256(17) -0.14567(16) 0.12575(16)
C3HD C 0.21645(15) -0.11625(16) 0.07728(16)
H1HD H 0.22654(15) -0.13161(16) 0.06731(16)
C4HD C 0.19021(13) -0.10528(12) 0.06648(12)
C6HD C 0.17482(14) -0.12091(13) 0.04004(14)
Cu1B Cu 0.168668(17) 0.000000(17) -0.16867
Cu2B Cu 0.126563(18) 0.000000(18) -0.12656
Cu3B Cu 0.32504(5) 0.12195(5) -0.17496(6)
O1B O 0.0928(3) 0.0000(3) -0.09280
O2B O 0.20274(16) 0.00000(16) -0.20274
O3B O 0.15180(9) 0.03080(9) -0.10747(9)
O4B O 0.18716(10) 0.03059(10) -0.14352(10)
O6B O 0.3042(3) 0.0891(3) -0.1958(5)
N1B N 0.27094(17) 0.10352(19) -0.13891(18)
N2B N 0.29256(17) 0.12575(16) -0.14567(16)
C1B C 0.2560(3) 0.11874(18) -0.11874(18)
C2B C 0.2281(2) 0.10390(17) -0.10390(17)
C3B C 0.21645(15) 0.07728(16) -0.11625(16)
H1B H 0.22654(15) 0.06731(16) -0.13161(16)
C4B C 0.19021(13) 0.06648(12) -0.10528(12)
C5B C 0.17745(18) 0.08043(13) -0.08043(13)
H2B H 0.15955(18) 0.07278(13) -0.07278(13)
C6B C 0.17482(14) 0.04004(13) -0.12091(14)
O3ID O 0.15180(9) 0.10747(9) -0.03080(9)
O4ID O 0.18716(10) 0.14352(10) -0.03059(10)
N1ID N 0.27094(17) 0.13891(19) -0.10352(18)
N2ID N 0.29256(17) 0.14567(16) -0.12575(16)
C3ID C 0.21645(15) 0.11625(16) -0.07728(16)
H1ID H 0.22654(15) 0.13161(16) -0.06731(16)
C4ID C 0.19021(13) 0.10528(12) -0.06648(12)
C6ID C 0.17482(14) 0.12091(13) -0.04004(14)
Cu3G Cu 0.12195(5) 0.32504(5) 0.17496(6)
O3G O 0.03080(9) 0.15180(9) 0.10747(9)
O4G O 0.03059(10) 0.18716(10) 0.14352(10)
O6G O 0.0891(3) 0.3042(3) 0.1958(5)
N1G N 0.10352(17) 0.27094(19) 0.13891(18)
N2G N 0.12575(17) 0.29256(16) 0.14567(16)
C1G C 0.11874(30) 0.25600(18) 0.11874(18)
C2G C 0.1039(2) 0.22810(17) 0.10390(17)
C3G C 0.07728(15) 0.21645(16) 0.11625(16)
H1G H 0.06731(15) 0.22654(16) 0.13161(16)
C4G C 0.06648(13) 0.19021(12) 0.10528(12)
C5G C 0.08043(18) 0.17745(13) 0.08043(13)
H2G H 0.07278(18) 0.15955(13) 0.07278(13)
C6G C 0.04004(14) 0.17482(13) 0.12091(14)
O3KD O 0.10747(9) 0.15180(9) 0.03080(9)
O4KD O 0.14352(10) 0.18716(10) 0.03059(10)
N1KD N 0.13891(17) 0.27094(19) 0.10352(18)
N2KD N 0.14567(17) 0.29256(16) 0.12575(16)
C3KD C 0.11625(15) 0.21645(16) 0.07728(16)
H1KD H 0.13161(15) 0.22654(16) 0.06731(16)
C4KD C 0.10528(13) 0.19021(12) 0.06648(12)
C6KD C 0.12091(14) 0.17482(13) 0.04004(14)
Cu3H Cu 0.17496(5) 0.12195(5) 0.32504(6)
O3H O 0.10747(9) 0.03080(9) 0.15180(9)
O4H O 0.14352(10) 0.03059(10) 0.18716(10)
O6H O 0.1958(3) 0.0891(3) 0.3042(5)
N1H N 0.13891(17) 0.10352(19) 0.27094(18)
N2H N 0.14567(17) 0.12575(16) 0.29256(16)
C1H C 0.11874(30) 0.11874(18) 0.25600(18)
C2H C 0.1039(2) 0.10390(17) 0.22810(17)
C3H C 0.11625(15) 0.07728(16) 0.21645(16)
H1H H 0.13161(15) 0.06731(16) 0.22654(16)
C4H C 0.10528(13) 0.06648(12) 0.19021(12)
C5H C 0.08043(18) 0.08043(13) 0.17745(13)
H2H H 0.07278(18) 0.07278(13) 0.15955(13)
C6H C 0.12091(14) 0.04004(13) 0.17482(14)
O3MD O 0.03080(9) 0.10747(9) 0.15180(9)
O4MD O 0.03059(10) 0.14352(10) 0.18716(10)
N1MD N 0.10352(17) 0.13891(19) 0.27094(18)
N2MD N 0.12575(17) 0.14567(16) 0.29256(16)
C3MD C 0.07728(15) 0.11625(16) 0.21645(16)
H1MD H 0.06731(15) 0.13161(16) 0.22654(16)
C4MD C 0.06648(13) 0.10528(12) 0.19021(12)
C6MD C 0.04004(14) 0.12091(13) 0.17482(14)
Cu3R Cu 0.17496(5) 0.32504(5) -0.12195(6)
O3R O 0.10747(9) 0.15180(9) -0.03080(9)
O4R O 0.14352(10) 0.18716(10) -0.03059(10)
O6R O 0.1958(3) 0.3042(3) -0.0891(5)
N1R N 0.13891(17) 0.27094(19) -0.10352(18)
N2R N 0.14567(17) 0.29256(16) -0.12575(16)
C1R C 0.11874(30) 0.25600(18) -0.11874(18)
C2R C 0.1039(2) 0.22810(17) -0.10390(17)
C3R C 0.11625(15) 0.21645(16) -0.07728(16)
H1R H 0.13161(15) 0.22654(16) -0.06731(16)
C4R C 0.10528(13) 0.19021(12) -0.06648(12)
C5R C 0.08043(18) 0.17745(13) -0.08043(13)
H2R H 0.07278(18) 0.15955(13) -0.07278(13)
C6R C 0.12091(14) 0.17482(13) -0.04004(14)
O3DD O 0.03080(9) 0.15180(9) -0.10747(9)
O4DD O 0.03059(10) 0.18716(10) -0.14352(10)
N1DD N 0.10352(17) 0.27094(19) -0.13891(18)
N2DD N 0.12575(17) 0.29256(16) -0.14567(16)
C3DD C 0.07728(15) 0.21645(16) -0.11625(16)
H1DD H 0.06731(15) 0.22654(16) -0.13161(16)
C4DD C 0.06648(13) 0.19021(12) -0.10528(12)
C6DD C 0.04004(14) 0.17482(13) -0.12091(14)
Cu1C Cu 0.000000(17) 0.168668(17) -0.16867
Cu1D Cu 0.000000(17) 0.168668(17) 0.16867
Cu1F Cu 0.168668(17) -0.168668(17) 0.00000
Cu2C Cu 0.000000(18) 0.126563(18) -0.12656
Cu2D Cu 0.000000(18) 0.126563(18) 0.12656
Cu2F Cu 0.126563(18) -0.126563(18) 0.00000
Cu3DD Cu 0.12195(5) 0.32504(5) -0.17496(6)
Cu3HD Cu 0.32504(5) -0.17496(5) 0.12195(6)
Cu3ID Cu 0.32504(5) 0.17496(5) -0.12195(6)
Cu3KD Cu 0.17496(5) 0.32504(5) 0.12195(6)
Cu3MD Cu 0.12195(5) 0.17496(5) 0.32504(6)
Cu3OD Cu 0.32504(5) 0.12195(5) 0.17496(6)
Cu3QB Cu 0.37805(5) -0.17496(5) 0.17496(6)
Cu3HF Cu 0.37805(5) 0.17496(5) 0.17496(6)
O3N O 0.10747(9) -0.03080(9) -0.15180(9)
O3AD O 0.10747(9) 0.03080(9) -0.15180(9)
O3CD O 0.10747(9) -0.03080(9) 0.15180(9)
O3ND O 0.15180(9) -0.03080(9) -0.10747(9)
O4N O 0.14352(10) -0.03059(10) -0.18716(10)
O4AD O 0.14352(10) 0.03059(10) -0.18716(10)
O4CD O 0.14352(10) -0.03059(10) 0.18716(10)
O4ND O 0.18716(10) -0.03059(10) -0.14352(10)
O5B O 0.3393(2) 0.1607(2) -0.1607(2)
O5G O 0.1607(2) 0.3393(2) 0.1607(2)
O5H O 0.1607(2) 0.1607(2) 0.3393(2)
O5R O 0.1607(2) 0.3393(2) -0.1607(2)
N2TD N 0.12575(17) 0.35433(16) 0.20744(16)
N2OE N 0.20744(17) 0.12575(16) 0.35433(16)
N2VE N 0.35433(17) -0.12575(16) 0.20744(16)
N2BF N 0.35433(17) 0.12575(16) -0.20744(16)
N2LF N 0.20744(17) 0.35433(16) -0.12575(16)
N2DG N 0.35433(17) 0.20744(16) 0.12575(16)
P1G P 0.2666(4) 0.2334(4) 0.2666(4)
O10G O 0.2780(6) 0.1976(3) 0.2780(3)
P1H P 0.2666(4) 0.2666(4) 0.2334(4)
O10H O 0.2780(6) 0.2780(3) 0.1976(3)
O7HA O 0.2638(4) 0.2362(4) 0.2362(4)
O10HA O 0.2780(6) 0.3024(3) 0.2220(3)
O10LA O 0.2780(6) 0.2220(3) 0.3024(3)
P1MA P 0.2334(4) 0.2334(4) 0.2334(4)
O10MA O 0.1976(6) 0.2220(3) 0.2220(3)
O7GB O 0.2362(4) 0.2638(4) 0.2362(4)
O10GB O 0.2220(6) 0.2780(3) 0.3024(3)
O10IB O 0.2220(6) 0.1976(3) 0.2220(3)
O10LB O 0.3024(6) 0.2780(3) 0.2220(3)
O7CC O 0.2362(4) 0.2362(4) 0.2638(4)
O10CC O 0.2220(6) 0.2220(3) 0.1976(3)
O10FC O 0.2220(6) 0.3024(3) 0.2780(3)
O10KC O 0.3024(6) 0.2220(3) 0.2780(3)
W1G W 0.24721(8) 0.30507(8) 0.19493(11)
O8G O 0.2187(3) 0.2813(4) 0.1698(3)
O9G O 0.2618(3) 0.3394(3) 0.1606(8)
W1H W 0.19493(8) 0.24721(8) 0.30507(11)
O8H O 0.1698(3) 0.2187(4) 0.2813(3)
O9H O 0.1606(3) 0.2618(3) 0.3394(8)
W1KD W 0.19493(8) 0.30507(8) 0.24721(11)
O8KD O 0.1698(3) 0.2813(4) 0.2187(3)
O9KD O 0.1606(3) 0.3394(3) 0.2618(8)
W1MD W 0.24721(8) 0.19493(8) 0.30507(11)
O8MD O 0.2187(3) 0.1698(4) 0.2813(3)
O9MD O 0.2618(3) 0.1606(3) 0.3394(8)
W1OD W 0.30507(8) 0.24721(8) 0.19493(11)
O8OD O 0.2813(3) 0.2187(4) 0.1698(3)
O9OD O 0.3394(3) 0.2618(3) 0.1606(8)
O8HA O 0.2187(3) 0.2187(4) 0.3302(3)
W1LA W 0.19493(8) 0.25279(8) 0.19493(11)
O9LA O 0.1606(3) 0.2382(3) 0.1606(8)
W1MA W 0.30507(8) 0.30507(8) 0.25279(11)
O8MA O 0.2813(3) 0.3302(4) 0.2813(3)
O9MA O 0.3394(3) 0.3394(3) 0.2382(8)
O8TD O 0.2187(3) 0.3302(4) 0.2187(3)
W1UD W 0.19493(8) 0.19493(8) 0.25279(11)
O9UD O 0.1606(3) 0.1606(3) 0.2382(8)
W1LE W 0.30507(8) 0.25279(8) 0.30507(11)
O8LE O 0.2813(3) 0.2813(4) 0.3302(3)
O9LE O 0.3394(3) 0.2382(3) 0.3394(8)
O8GB O 0.3302(3) 0.2187(4) 0.2187(3)
W1IB W 0.25279(8) 0.30507(8) 0.30507(11)
O9IB O 0.2382(3) 0.3394(3) 0.3394(8)
O8TE O 0.3302(3) 0.2813(4) 0.2813(3)
W1HF W 0.25279(8) 0.19493(8) 0.19493(11)
O9HF O 0.2382(3) 0.1606(3) 0.1606(8)
#END
