
#######################################################################
#
#                 Cambridge Crystallographic Data Centre
#                                CCDC
#
#######################################################################
#
# If this CIF has been generated from an entry in the Cambridge
# Structural Database, then it will include bibliographic, chemical,
# crystal, experimental, refinement or atomic coordinate data resulting
# from the CCDC's data processing and validation procedures.
#
#######################################################################

data_CSD_CIF_OMOFED
_audit_creation_date 2016-05-17
_audit_creation_method CSD-ConQuest-V1
_database_code_CSD OMOFED
_database_code_depnum_ccdc_archive 'CCDC 1472437'
_chemical_formula_sum 'C16 H23 N1 O16 P4 U2'
_chemical_formula_moiety
;
(C12 H11 O16 P4 U2 1-)n,n(C4 H12 N1 1+)
;
_journal_coden_Cambridge 222
_journal_volume 45
_journal_year 2016
_journal_page_first 9031
_journal_name_full 'Dalton Trans. '
loop_
_publ_author_name
"Tao Zheng"
"Yang Gao"
"Daxiang Gui"
"Lanhua Chen"
"Daopeng Sheng"
"Juan Diwu"
"Zhifang Chai"
"T.E.Albrecht-Schmitt"
"Shuao Wang"
_chemical_name_systematic
;
catena-[tetramethylammonium 
(\m-(3-(hydroxyphosphinato)phenyl)phosphonato)-(\m-1,3-phenylenebis(hydrogen 
(phosphonato)))-tetraoxo-di-uranium]
;
_cell_volume   2709.344
_exptl_crystal_colour 'yellow'
_exptl_crystal_density_diffrn 2.661
_exptl_special_details
;
low-temperature polymorph

;
_exptl_crystal_description 'block'
_diffrn_ambient_temperature 98
_refine_special_details
;
C11,C12,C9 disordered by symmetry over two configurations with occupancy 0.5.

;
#These two values have been output from a single CSD field.
_refine_ls_R_factor_gt 0.019
_refine_ls_wR_factor_gt 0.019
_symmetry_cell_setting orthorhombic
_symmetry_space_group_name_H-M 'P n m a'
_symmetry_Int_Tables_number 62
loop_
_symmetry_equiv_pos_site_id
_symmetry_equiv_pos_as_xyz
1 x,y,z
2 1/2+x,1/2-y,1/2-z
3 -x,1/2+y,-z
4 1/2-x,-y,1/2+z
5 -x,-y,-z
6 -1/2-x,-1/2+y,-1/2+z
7 x,-1/2-y,z
8 -1/2+x,y,-1/2-z
_cell_length_a 19.7287(17)
_cell_length_b 15.1632(14)
_cell_length_c 9.0568(8)
_cell_angle_alpha 90
_cell_angle_beta 90
_cell_angle_gamma 90
_cell_formula_units_Z 4
loop_
_atom_type_symbol
_atom_type_radius_bond
C 0.68
H 0.23
N 0.68
O 0.68
P 1.05
U 1.96
loop_
_atom_site_label
_atom_site_type_symbol
_atom_site_fract_x
_atom_site_fract_y
_atom_site_fract_z
U1 U 0.13238(2) 0.03776(2) 0.50298(2)
P1 P 0.20758(4) 0.06590(6) 0.86816(10)
P2 P 0.01508(4) -0.06843(6) 0.25515(9)
O1 O 0.19244(12) 0.08427(16) 0.7077(3)
O2 O 0.27095(12) 0.01210(16) 0.8926(3)
O3 O 0.14950(13) 0.01247(17) 0.9437(3)
H1 H 0.11220 0.02640 0.90570
O4 O 0.06585(12) 0.00162(16) 0.3019(3)
O5 O -0.03901(12) -0.08723(15) 0.3699(3)
O6 O -0.02031(12) -0.04234(16) 0.1081(3)
O7 O 0.11991(13) -0.06864(16) 0.5799(3)
O8 O 0.14378(12) 0.14346(16) 0.4243(3)
C1 C 0.2059(2) 0.25000 0.8879(5)
H2 H 0.19430 0.25000 0.78610
C2 C 0.21448(17) 0.1697(2) 0.9626(4)
C3 C 0.23008(18) 0.1708(2) 1.1127(4)
H3 H 0.23600 0.11670 1.16400
C4 C 0.2371(3) 0.25000 1.1882(6)
H4 H 0.24670 0.25000 1.29100
C5 C 0.0273(2) -0.25000 0.2470(5)
H5 H -0.01900 -0.25000 0.27570
C6 C 0.06036(17) -0.1701(2) 0.2265(4)
C7 C 0.12818(16) -0.1706(2) 0.1818(4)
H6 H 0.15160 -0.11650 0.16740
C8 C 0.1612(2) -0.25000 0.1585(5)
H7 H 0.20700 -0.25000 0.12620
C9 C 0.4889(3) 0.25000 0.1089(6)
H8 H 0.52960 0.28110 0.07530
H9 H 0.44850 0.27980 0.07050
H10 H 0.48990 0.18910 0.07290
C10 C 0.4300(6) 0.1886(8) 0.3284(10)
H11 H 0.43310 0.18210 0.43580
H12 H 0.43480 0.13070 0.28150
H13 H 0.38590 0.21400 0.30230
C11 C 0.5529(5) 0.2103(6) 0.3389(9)
H14 H 0.55060 0.21120 0.44700
H15 H 0.59180 0.24520 0.30580
H16 H 0.55800 0.14930 0.30490
C12 C 0.4796(8) 0.3367(6) 0.3237(10)
H17 H 0.51510 0.37350 0.27950
H18 H 0.48380 0.33820 0.43150
H19 H 0.43500 0.35920 0.29480
N1 N 0.4868(2) 0.25000 0.2741(5)
H20? H 0.00920 -0.02980 0.04460
P1F P 0.20758(4) 0.43410(6) 0.86816(10)
O1F O 0.19244(12) 0.41573(16) 0.7077(3)
O2F O 0.27095(12) 0.48790(16) 0.8926(3)
O3F O 0.14950(13) 0.48753(17) 0.9437(3)
H1F H 0.11220 0.47360 0.90570
C2F C 0.21448(17) 0.3303(2) 0.9626(4)
C3F C 0.23008(18) 0.3292(2) 1.1127(4)
H3F H 0.23600 0.38330 1.16400
P2F P 0.01508(4) -0.43157(6) 0.25515(9)
O4F O 0.06585(12) -0.50162(16) 0.3019(3)
O5F O -0.03901(12) -0.41277(15) 0.3699(3)
O6F O -0.02031(12) -0.45766(16) 0.1081(3)
C6F C 0.06036(17) -0.3299(2) 0.2265(4)
C7F C 0.12818(16) -0.3294(2) 0.1818(4)
H6F H 0.15160 -0.38350 0.16740
U1D U -0.13238(2) -0.03776(2) 0.49702(2)
O7D O -0.11991(13) 0.06864(16) 0.4201(3)
O8D O -0.14378(12) -0.14346(16) 0.5757(3)
U1B U -0.13238(2) -0.46224(2) 0.49702(2)
U1C U 0.36762(2) -0.03776(2) 1.00298(2)
U1E U 0.36762(2) 0.53776(2) 1.00298(2)
U1F U 0.13238(2) -0.53776(2) 0.50298(2)
U1F* U 0.13238(2) 0.46224(2) 0.50298(2)
O1D O -0.19244(12) -0.08427(16) 0.2923(3)
O2C O 0.22905(12) -0.01210(16) 0.3926(3)
O2G O -0.22905(12) 0.01210(16) 0.6074(3)
O4D O -0.06585(12) -0.00162(16) 0.6981(3)
O5D O 0.03901(12) 0.08723(15) 0.6301(3)
H8F H 0.52960 0.21890 0.07530
H9F H 0.44850 0.22020 0.07050
H10F H 0.48990 0.31090 0.07290
C10F C 0.4300(6) 0.3114(8) 0.3284(10)
H11F H 0.43310 0.31790 0.43580
H12F H 0.43480 0.36930 0.28150
H13F H 0.38590 0.28600 0.30230
C11F C 0.5529(5) 0.2897(6) 0.3389(9)
H14F H 0.55060 0.28880 0.44700
H15F H 0.59180 0.25480 0.30580
H16F H 0.55800 0.35070 0.30490
C12F C 0.4796(8) 0.1633(6) 0.3237(10)
H17F H 0.51510 0.12650 0.27950
H18F H 0.48380 0.16180 0.43150
H19F H 0.43500 0.14080 0.29480
#END
