
#######################################################################
#
#                 Cambridge Crystallographic Data Centre
#                                CCDC
#
#######################################################################
#
# If this CIF has been generated from an entry in the Cambridge
# Structural Database, then it will include bibliographic, chemical,
# crystal, experimental, refinement or atomic coordinate data resulting
# from the CCDC's data processing and validation procedures.
#
#######################################################################

data_CSD_CIF_OMOFED01
_audit_creation_date 2016-05-17
_audit_creation_method CSD-ConQuest-V1
_database_code_CSD OMOFED01
_database_code_depnum_ccdc_archive 'CCDC 1472440'
_chemical_formula_sum 'C16 H23 N1 O16 P4 U2'
_chemical_formula_moiety
;
(C12 H11 O16 P4 U2 1-)n,n(C4 H12 N1 1+)
;
_journal_coden_Cambridge 222
_journal_volume 45
_journal_year 2016
_journal_page_first 9031
_journal_name_full 'Dalton Trans. '
loop_
_publ_author_name
"Tao Zheng"
"Yang Gao"
"Daxiang Gui"
"Lanhua Chen"
"Daopeng Sheng"
"Juan Diwu"
"Zhifang Chai"
"T.E.Albrecht-Schmitt"
"Shuao Wang"
_chemical_name_systematic
;
catena-[tetramethylammonium 
(\m-(3-(hydroxyphosphinato)phenyl)phosphonato)-(\m-1,3-phenylenebis(hydrogen 
(phosphonato)))-tetraoxo-di-uranium]
;
_cell_volume   2724.841
_exptl_crystal_colour 'yellow'
_exptl_crystal_density_diffrn 2.646
_exptl_special_details
;
high-temperature polymorph

;
_exptl_crystal_description 'block'
_diffrn_ambient_temperature 298
_diffrn_special_details
;
twin

;
#These two values have been output from a single CSD field.
_refine_ls_R_factor_gt 0.0242
_refine_ls_wR_factor_gt 0.0242
_symmetry_cell_setting orthorhombic
_symmetry_space_group_name_H-M 'P 21 21 21'
_symmetry_Int_Tables_number 19
loop_
_symmetry_equiv_pos_site_id
_symmetry_equiv_pos_as_xyz
1 x,y,z
2 1/2-x,-y,1/2+z
3 -x,1/2+y,1/2-z
4 1/2+x,1/2-y,-z
_cell_length_a 9.6374(18)
_cell_length_b 15.312(3)
_cell_length_c 18.465(4)
_cell_angle_alpha 90
_cell_angle_beta 90
_cell_angle_gamma 90
_cell_formula_units_Z 4
loop_
_atom_type_symbol
_atom_type_radius_bond
C 0.68
H 0.23
N 0.68
O 0.68
P 1.05
U 1.96
loop_
_atom_site_label
_atom_site_type_symbol
_atom_site_fract_x
_atom_site_fract_y
_atom_site_fract_z
U1 U 0.44921(3) 0.78603(2) 0.61276(2)
U2 U 0.55594(3) 0.70879(2) 0.89767(2)
P1 P 0.2861(2) 0.81586(14) 0.79272(11)
P2 P 0.2931(2) 1.17627(14) 0.77927(11)
P3 P 0.0877(2) 0.81389(14) 0.55787(12)
P4 P 0.0746(2) 1.17991(14) 0.56494(11)
O1 O 0.3676(7) 0.8304(4) 0.7237(3)
O2 O 0.3456(7) 0.7520(4) 0.8453(3)
O3 O 0.1376(6) 0.7837(4) 0.7698(3)
H1 H 0.10100 0.75820 0.80390
O4 O 0.3837(7) 1.1543(4) 0.7150(3)
O5 O 0.1489(6) 1.2092(4) 0.7564(3)
H2 H 0.15410 1.23240 0.71640
O6 O 0.3539(7) 1.2440(3) 0.8300(3)
O7 O 0.0474(7) 0.7588(4) 0.4944(3)
O8 O 0.0325(8) 0.7628(4) 0.6255(3)
H3 H -0.03820 0.73610 0.61450
O9 O 0.2407(6) 0.8320(4) 0.5648(3)
O10 O 0.2303(6) 1.1654(4) 0.5610(3)
O11 O 0.0292(7) 1.2157(4) 0.6386(3)
O12 O 0.0193(6) 1.2379(4) 0.5050(3)
O13 O 0.3767(7) 0.6804(4) 0.6266(4)
O14 O 0.5170(6) 0.8916(4) 0.5986(3)
O15 O 0.4851(7) 0.6060(3) 0.9202(3)
O16 O 0.6251(7) 0.8128(4) 0.8730(3)
C1 C 0.2592(10) 0.9207(5) 0.8350(5)
C2 C 0.198(1) 0.9242(6) 0.9035(5)
H4 H 0.17580 0.87300 0.92790
C3 C 0.1707(9) 1.0043(6) 0.9350(5)
H5 H 0.13160 1.00660 0.98100
C4 C 0.201(1) 1.0812(6) 0.8984(5)
H6 H 0.18120 1.13490 0.91970
C5 C 0.2615(9) 1.0778(5) 0.8296(5)
C6 C 0.2899(8) 0.9963(6) 0.7980(4)
H7 H 0.32950 0.99340 0.75210
C7 C -0.0034(9) 0.9165(5) 0.5537(5)
C8 C 0.0657(8) 0.9966(5) 0.5602(4)
H8 H 0.16090 0.99770 0.56830
C9 C -0.0074(9) 1.0741(5) 0.5545(5)
C10 C -0.1489(10) 1.0709(6) 0.5423(5)
H9 H -0.19830 1.12280 0.53750
C11 C -0.2183(9) 0.9923(7) 0.5371(5)
H10 H -0.31380 0.99160 0.53030
C12 C -0.1458(10) 0.9149(6) 0.5421(6)
H11 H -0.19210 0.86190 0.53780
C13 C 0.361(2) 0.5802(8) 0.2512(10)
H12 H 0.45900 0.57610 0.24160
H13 H 0.34620 0.58380 0.30250
H14 H 0.32460 0.63140 0.22820
C14 C 0.350(2) 0.4231(9) 0.2484(9)
H15 H 0.30790 0.37460 0.22380
H16 H 0.33360 0.41800 0.29950
H17 H 0.44800 0.42310 0.23930
C15 C 0.2999(15) 0.5056(9) 0.1422(6)
H18 H 0.26370 0.45230 0.12230
H19 H 0.39500 0.51230 0.12780
H20 H 0.24660 0.55410 0.12450
C16 C 0.1435(15) 0.5037(10) 0.239(1)
H21 H 0.09180 0.48710 0.19670
H22 H 0.11680 0.56150 0.25350
H23 H 0.12440 0.46340 0.27760
N1 N 0.2911(8) 0.5024(6) 0.2225(4)
U1B U 0.55079(3) 1.28603(2) 0.88724(2)
U1C U -0.05079(3) 0.71397(2) 0.38724(2)
U2A U -0.05594(3) 1.29121(2) 0.39767(2)
U2B U 0.44406(3) 1.20879(2) 0.60233(2)
O4B O 0.6163(7) 0.6543(4) 0.7850(3)
O6B O 0.6461(7) 0.7440(3) 0.6700(3)
O7C O 0.5474(7) 0.7412(4) 0.5056(3)
O10B O 0.7697(6) 0.6654(4) 0.9390(3)
O12A O 0.4807(6) 0.7621(4) 1.0050(3)
#END
