
#######################################################################
#
#                 Cambridge Crystallographic Data Centre
#                                CCDC
#
#######################################################################
#
# If this CIF has been generated from an entry in the Cambridge
# Structural Database, then it will include bibliographic, chemical,
# crystal, experimental, refinement or atomic coordinate data resulting
# from the CCDC's data processing and validation procedures.
#
#######################################################################

data_CSD_CIF_OMOPUE
_audit_creation_date 2021-02-15
_audit_creation_method CSD-ConQuest-V1
_database_code_CSD OMOPUE
_database_code_depnum_ccdc_archive 'CCDC 2044496'
_chemical_formula_sum 'C144 H210 N36 O72 Tb6'
_chemical_formula_moiety
;
(C108 H48 N24 O51 Tb6 12-)n,12n(C2 H8 N1 1+),6n(C2 H6 O1),15n(H2 O1)
;
_journal_coden_Cambridge 1695
_journal_volume 9
_journal_year 2021
_journal_page_first 3193
_journal_name_full 'J.Mater.Chem.C '
loop_
_publ_author_name
"Yao Xiao"
"Bing Li"
"Zi Xin You"
"Yong Heng Xing"
"Feng Ying Bai"
"Li-Xian Sun"
"Zhan Shi"
_chemical_name_systematic
;
catena-(dodecakis(dimethylammonium) 
tetrakis(\m-5,5',5''-(1,3,5-triazine-2,4,6-triyltriazanediyl)tris(benzene-1,3-
dicarboxylato))-tris(\m-oxo)-hexa-terbium ethanol solvate pentadecahydrate)
;
_cell_volume  21266.596
_exptl_crystal_colour 'colorless'
_exptl_crystal_description 'block'
_diffrn_ambient_temperature 296.1
_refine_special_details
;
The SQUEEZE/PLATON program was used to model the disordered cations and 
solvent molecules.
;
#These two values have been output from a single CSD field.
_refine_ls_R_factor_gt 0.0263
_refine_ls_wR_factor_gt 0.0263
_symmetry_cell_setting cubic
_symmetry_space_group_name_H-M 'I 2 3'
_symmetry_Int_Tables_number 197
loop_
_symmetry_equiv_pos_site_id
_symmetry_equiv_pos_as_xyz
1 x,y,z
2 -x,-y,z
3 -x,y,-z
4 x,-y,-z
5 z,x,y
6 z,-x,-y
7 -z,-x,y
8 -z,x,-y
9 y,z,x
10 -y,z,-x
11 y,-z,-x
12 -y,-z,x
13 1/2+x,1/2+y,1/2+z
14 1/2-x,1/2-y,1/2+z
15 1/2-x,1/2+y,1/2-z
16 1/2+x,1/2-y,1/2-z
17 1/2+z,1/2+x,1/2+y
18 1/2+z,1/2-x,1/2-y
19 1/2-z,1/2-x,1/2+y
20 1/2-z,1/2+x,1/2-y
21 1/2+y,1/2+z,1/2+x
22 1/2-y,1/2+z,1/2-x
23 1/2+y,1/2-z,1/2-x
24 1/2-y,1/2-z,1/2+x
_cell_length_a 27.7055(16)
_cell_length_b 27.7055(16)
_cell_length_c 27.7055(16)
_cell_angle_alpha 90
_cell_angle_beta 90
_cell_angle_gamma 90
_cell_formula_units_Z 4
loop_
_atom_type_symbol
_atom_type_radius_bond
C 0.68
H 0.23
N 0.68
O 0.68
Tb 1.94
loop_
_atom_site_label
_atom_site_type_symbol
_atom_site_fract_x
_atom_site_fract_y
_atom_site_fract_z
Tb1 Tb -0.74861(2) -0.04028(2) -0.55237(2)
O1 O -0.60984(13) -0.10238(13) -0.26875(13)
O2 O -0.70802(13) -0.03650(12) -0.46848(12)
O3 O -0.58412(14) -0.05595(14) -0.32694(14)
O4 O -0.73533(15) -0.10616(12) -0.49421(14)
O5 O -0.50514(15) -0.11410(13) -0.72402(16)
O6 O -0.67302(14) -0.05669(15) -0.57803(16)
O7 O -0.52210(16) -0.18977(16) -0.73917(16)
C1 C -0.71595(18) -0.08222(17) -0.46204(19)
C2 C -0.57551(18) -0.14696(18) -0.6885(2)
C3 C -0.61367(19) -0.08703(18) -0.31105(19)
N1 N -0.66697(18) -0.26630(17) -0.71784(19)
O8 O -0.79725(17) 0.00000 -0.50000
O9 O -0.60028(18) -0.02990(18) -0.5932(2)
C4 C -0.60845(19) -0.18394(19) -0.6867(2)
H1 H -0.60377 -0.21114 -0.70586
C5 C -0.6939(2) -0.2577(2) -0.6810(2)
N2 N -0.68489(18) -0.21789(17) -0.65209(19)
H2 H -0.70384 -0.21484 -0.62769
C6 C -0.5839(2) -0.10546(19) -0.6611(2)
H3 H -0.56246 -0.07972 -0.66282
C7 C -0.62441(19) -0.10226(19) -0.6310(2)
C8 C -0.64919(19) -0.1814(2) -0.65648(19)
C9 C -0.6568(2) -0.1413(2) -0.6287(2)
H4 H -0.68336 -0.13992 -0.60820
C10 C -0.5316(2) -0.15124(19) -0.7203(2)
C11 C -0.6331(2) -0.0592(2) -0.5994(2)
N3 N -0.68991(17) -0.24156(18) -0.28130(17)
C12 C -0.72662(19) -0.24514(19) -0.31104(17)
N4 N -0.73320(16) -0.21416(16) -0.34748(16)
H5 H -0.75551 -0.22217 -0.36752
C13 C -0.66530(19) -0.08349(17) -0.38589(18)
H6 H -0.65070 -0.05462 -0.39483
C14 C -0.65232(18) -0.10636(18) -0.34328(18)
C15 C -0.7220(2) -0.14897(19) -0.40296(19)
H7 H -0.74374 -0.16389 -0.42371
C16 C -0.6752(2) -0.1461(2) -0.3286(2)
H8 H -0.66854 -0.15817 -0.29797
C17 C -0.7097(2) -0.17088(19) -0.35823(19)
C18 C -0.70100(18) -0.10466(18) -0.41551(18)
O2F O -0.53152(13) -0.29198(12) -0.03650(12)
O4F O -0.50579(15) -0.26467(12) -0.10616(14)
C1F C -0.53796(18) -0.28405(17) -0.08222(19)
N3F N -0.71870(17) -0.31009(18) -0.24156(17)
C12F C -0.68896(19) -0.27338(19) -0.24514(17)
N4F N -0.65252(16) -0.26680(16) -0.21416(16)
H5F H -0.63248 -0.24449 -0.22217
C13F C -0.61411(19) -0.33470(17) -0.08349(18)
H6F H -0.60517 -0.34930 -0.05462
C14F C -0.65672(18) -0.34768(18) -0.10636(18)
C15F C -0.59704(20) -0.27800(19) -0.14897(19)
H7F H -0.57629 -0.25626 -0.16389
C16F C -0.6714(2) -0.3248(2) -0.1461(2)
H8F H -0.70203 -0.33146 -0.15817
C17F C -0.64177(20) -0.29030(19) -0.17088(19)
C18F C -0.58449(18) -0.29900(18) -0.10466(18)
O1F O -0.73125(13) -0.39016(13) -0.10238(13)
O3F O -0.67306(14) -0.41588(14) -0.05595(14)
C3F C -0.68895(19) -0.38633(18) -0.08703(19)
O2I O -0.96350(13) -0.46848(12) -0.29198(12)
O4I O -0.89384(15) -0.49421(12) -0.26467(14)
C1I C -0.91778(18) -0.46204(17) -0.28405(19)
N3I N -0.75844(17) -0.28130(18) -0.31009(17)
C12I C -0.75486(19) -0.31104(19) -0.27338(17)
N4I N -0.78584(16) -0.34748(16) -0.26680(16)
H5I H -0.77782 -0.36752 -0.24449
C13I C -0.91651(19) -0.38589(17) -0.33470(18)
H6I H -0.94538 -0.39483 -0.34930
C14I C -0.89364(18) -0.34328(18) -0.34768(18)
C15I C -0.85103(20) -0.40296(19) -0.27800(19)
H7I H -0.83611 -0.42371 -0.25626
C16I C -0.8539(2) -0.3286(2) -0.3248(2)
H8I H -0.84183 -0.29797 -0.33146
C17I C -0.82912(20) -0.35823(19) -0.29030(19)
C18I C -0.89534(18) -0.41551(18) -0.29900(18)
O1I O -0.89762(13) -0.26875(13) -0.39016(13)
O3I O -0.94405(14) -0.32694(14) -0.41588(14)
C3I C -0.91297(19) -0.31105(18) -0.38633(19)
O6E O -0.57803(14) -0.32698(15) -0.94331(16)
C2E C -0.68850(18) -0.42449(18) -0.85304(20)
N1E N -0.71784(18) -0.33303(17) -0.73370(19)
O9E O -0.59320(18) -0.39972(18) -0.9701(2)
C4E C -0.68670(19) -0.39155(19) -0.81606(20)
H1E H -0.70586 -0.39623 -0.78886
C5E C -0.6810(2) -0.3061(2) -0.7423(2)
N2E N -0.65209(18) -0.31511(17) -0.78211(19)
H2E H -0.62769 -0.29616 -0.78516
C6E C -0.6611(2) -0.41610(19) -0.89454(20)
H3E H -0.66282 -0.43754 -0.92028
C7E C -0.63100(19) -0.37559(19) -0.89774(20)
C8E C -0.65648(19) -0.35081(20) -0.81860(19)
C9E C -0.6287(2) -0.3432(2) -0.8587(2)
H4E H -0.60820 -0.31664 -0.86008
C11E C -0.5994(2) -0.3669(2) -0.9408(2)
O5E O -0.72402(15) -0.49486(13) -0.88590(16)
O7E O -0.73917(16) -0.47790(16) -0.81023(16)
C10E C -0.7203(2) -0.46840(19) -0.84876(20)
O6K O -0.94331(14) -0.42197(15) -0.67302(16)
C2K C -0.85304(18) -0.31150(18) -0.57551(20)
N1K N -0.73370(18) -0.28216(17) -0.66697(19)
O9K O -0.97010(18) -0.40680(18) -0.60028(20)
C4K C -0.81606(19) -0.31330(19) -0.60845(20)
H1K H -0.78886 -0.29414 -0.60377
C5K C -0.7423(2) -0.3190(2) -0.6939(2)
N2K N -0.78211(18) -0.34791(17) -0.68489(19)
H2K H -0.78516 -0.37231 -0.70384
C6K C -0.89454(20) -0.33890(19) -0.5839(2)
H3K H -0.92028 -0.33718 -0.56246
C7K C -0.89774(19) -0.36900(19) -0.62441(20)
C8K C -0.81860(19) -0.34352(20) -0.64919(19)
C9K C -0.8587(2) -0.3713(2) -0.6568(2)
H4K H -0.86008 -0.39180 -0.68336
C11K C -0.9408(2) -0.4006(2) -0.6331(2)
O5K O -0.88590(15) -0.27598(13) -0.50514(16)
O7K O -0.81023(16) -0.26083(16) -0.52210(16)
C10K C -0.84876(20) -0.27970(19) -0.5316(2)
Tb1C Tb -0.74861(2) 0.04028(2) -0.44763(2)
Tb1E Tb -0.55237(2) -0.25139(2) -0.95972(2)
O1E O -0.26875(13) -0.39016(13) -0.89762(13)
O2E O -0.46848(13) -0.29198(12) -0.96350(12)
O3E O -0.32694(14) -0.41588(14) -0.94405(14)
O4E O -0.49421(15) -0.26467(12) -0.89384(14)
C1E C -0.46204(18) -0.28405(17) -0.91778(19)
C3E C -0.31105(19) -0.38633(18) -0.91297(19)
N3E N -0.28130(17) -0.31009(18) -0.75844(17)
C12E C -0.31104(19) -0.27338(19) -0.75486(17)
N4E N -0.34748(16) -0.26680(16) -0.78584(16)
H5E H -0.36752 -0.24449 -0.77782
C13E C -0.38589(19) -0.33470(17) -0.91651(18)
H6E H -0.39483 -0.34930 -0.94538
C14E C -0.34328(18) -0.34768(18) -0.89364(18)
C15E C -0.40296(20) -0.27800(19) -0.85103(19)
H7E H -0.42371 -0.25626 -0.83611
C16E C -0.3286(2) -0.3248(2) -0.8539(2)
H8E H -0.29797 -0.33146 -0.84183
C17E C -0.35823(20) -0.29030(19) -0.82912(19)
C18E C -0.41551(18) -0.29900(18) -0.89534(18)
O2H O -0.03650(13) -0.46848(12) -0.70802(12)
O4H O -0.10616(15) -0.49421(12) -0.73533(14)
C1H C -0.08222(18) -0.46204(17) -0.71595(19)
N3H N -0.24156(17) -0.28130(18) -0.68991(17)
C12H C -0.24514(19) -0.31104(19) -0.72662(17)
N4H N -0.21416(16) -0.34748(16) -0.73320(16)
H5H H -0.22217 -0.36752 -0.75551
C13H C -0.08349(19) -0.38589(17) -0.66530(18)
H6H H -0.05462 -0.39483 -0.65070
C14H C -0.10636(18) -0.34328(18) -0.65232(18)
C15H C -0.14897(20) -0.40296(19) -0.72200(19)
H7H H -0.16389 -0.42371 -0.74374
C16H C -0.1461(2) -0.3286(2) -0.6752(2)
H8H H -0.15817 -0.29797 -0.66854
C17H C -0.17088(20) -0.35823(19) -0.70970(19)
C18H C -0.10466(18) -0.41551(18) -0.70100(18)
O1H O -0.10238(13) -0.26875(13) -0.60984(13)
O3H O -0.05595(14) -0.32694(14) -0.58412(14)
C3H C -0.08703(19) -0.31105(18) -0.61367(19)
O2B O -0.29198(13) -0.03650(12) -0.53152(12)
O4B O -0.26467(15) -0.10616(12) -0.50579(14)
C1B C -0.28405(18) -0.08222(17) -0.53796(19)
N3B N -0.31009(17) -0.24156(18) -0.71870(17)
C12B C -0.27338(19) -0.24514(19) -0.68896(17)
N4B N -0.26680(16) -0.21416(16) -0.65252(16)
H5B H -0.24449 -0.22217 -0.63248
C13B C -0.33470(19) -0.08349(17) -0.61411(18)
H6B H -0.34930 -0.05462 -0.60517
C14B C -0.34768(18) -0.10636(18) -0.65672(18)
C15B C -0.2780(2) -0.14897(19) -0.59704(19)
H7B H -0.25626 -0.16389 -0.57629
C16B C -0.3248(2) -0.1461(2) -0.6714(2)
H8B H -0.33146 -0.15817 -0.70203
C17B C -0.2903(2) -0.17088(19) -0.64177(19)
C18B C -0.29900(18) -0.10466(18) -0.58449(18)
O1B O -0.39016(13) -0.10238(13) -0.73125(13)
O3B O -0.41588(14) -0.05595(14) -0.67306(14)
C3B C -0.38633(19) -0.08703(18) -0.68895(19)
Tb1F Tb -0.44763(2) -0.25139(2) -0.04028(2)
O5F O -0.27598(15) -0.49486(13) -0.11410(16)
O6F O -0.42197(14) -0.32698(15) -0.05669(16)
O7F O -0.26083(16) -0.47790(16) -0.18977(16)
C2F C -0.31150(18) -0.42449(18) -0.14696(20)
N1F N -0.28216(18) -0.33303(17) -0.26630(19)
O9F O -0.40680(18) -0.39972(18) -0.0299(2)
C4F C -0.31330(19) -0.39155(19) -0.18394(20)
H1F H -0.29414 -0.39623 -0.21114
C5F C -0.3190(2) -0.3061(2) -0.2577(2)
N2F N -0.34791(18) -0.31511(17) -0.21789(19)
H2F H -0.37231 -0.29616 -0.21484
C6F C -0.3389(2) -0.41610(19) -0.10546(20)
H3F H -0.33718 -0.43754 -0.07972
C7F C -0.36900(19) -0.37559(19) -0.10226(20)
C8F C -0.34352(19) -0.35081(20) -0.18140(19)
C9F C -0.3713(2) -0.3432(2) -0.1413(2)
H4F H -0.39180 -0.31664 -0.13992
C10F C -0.2797(2) -0.46840(19) -0.15124(20)
C11F C -0.4006(2) -0.3669(2) -0.0592(2)
O6J O -0.05669(14) -0.42197(15) -0.32698(16)
C2J C -0.14696(18) -0.31150(18) -0.42449(20)
N1J N -0.26630(18) -0.28216(17) -0.33303(19)
O9J O -0.02990(18) -0.40680(18) -0.39972(20)
C4J C -0.18394(19) -0.31330(19) -0.39155(20)
H1J H -0.21114 -0.29414 -0.39623
C5J C -0.2577(2) -0.3190(2) -0.3061(2)
N2J N -0.21789(18) -0.34791(17) -0.31511(19)
H2J H -0.21484 -0.37231 -0.29616
C6J C -0.10546(20) -0.33890(19) -0.4161(2)
H3J H -0.07972 -0.33718 -0.43754
C7J C -0.10226(19) -0.36900(19) -0.37559(20)
C8J C -0.18140(19) -0.34352(20) -0.35081(19)
C9J C -0.1413(2) -0.3713(2) -0.3432(2)
H4J H -0.13992 -0.39180 -0.31664
C11J C -0.0592(2) -0.4006(2) -0.3669(2)
O5J O -0.11410(15) -0.27598(13) -0.49486(16)
O7J O -0.18977(16) -0.26083(16) -0.47790(16)
C10J C -0.15124(20) -0.27970(19) -0.4684(2)
O6B O -0.32698(14) -0.05669(15) -0.42197(16)
C2B C -0.42449(18) -0.14696(18) -0.3115(2)
N1B N -0.33303(18) -0.26630(17) -0.28216(19)
O9B O -0.39972(18) -0.02990(18) -0.4068(2)
C4B C -0.39155(19) -0.18394(19) -0.3133(2)
H1B H -0.39623 -0.21114 -0.29414
C5B C -0.3061(2) -0.2577(2) -0.3190(2)
N2B N -0.31511(18) -0.21789(17) -0.34791(19)
H2B H -0.29616 -0.21484 -0.37231
C6B C -0.4161(2) -0.10546(19) -0.3389(2)
H3B H -0.43754 -0.07972 -0.33718
C7B C -0.37559(19) -0.10226(19) -0.3690(2)
C8B C -0.35081(19) -0.1814(2) -0.34352(19)
C9B C -0.3432(2) -0.1413(2) -0.3713(2)
H4B H -0.31664 -0.13992 -0.39180
C11B C -0.3669(2) -0.0592(2) -0.4006(2)
O5B O -0.49486(15) -0.11410(13) -0.27598(16)
O7B O -0.47790(16) -0.18977(16) -0.26083(16)
C10B C -0.4684(2) -0.15124(19) -0.2797(2)
Tb1H Tb -0.04028(2) -0.55237(2) -0.74861(2)
Tb1I Tb -0.95972(2) -0.55237(2) -0.25139(2)
O8E O -0.50000(17) -0.20275 -1.00000
O8E* O -0.50000(17) -0.20275 0.00000
Tb1A Tb -0.25139(2) 0.04028(2) -0.55237(2)
Tb1B Tb -0.25139(2) -0.04028(2) -0.44763(2)
Tb1E* Tb -0.55237(2) -0.25139(2) 0.04028(2)
Tb1F* Tb -0.44763(2) -0.25139(2) -1.04028(2)
Tb1J Tb -1.04028(2) -0.44763(2) -0.25139(2)
Tb1J* Tb -0.04028(2) -0.44763(2) -0.25139(2)
Tb1K Tb -0.95972(2) -0.44763(2) -0.74861(2)
Tb1K* Tb 0.04028(2) -0.44763(2) -0.74861(2)
Tb1L Tb -0.24861(2) -0.54028(2) -0.05237(2)
Tb1M Tb -0.75139(2) -0.45972(2) -0.05237(2)
Tb1N Tb -0.75139(2) -0.54028(2) -0.94763(2)
Tb1O Tb -0.24861(2) -0.45972(2) -0.94763(2)
Tb1P Tb -0.05237(2) -0.24861(2) -0.54028(2)
Tb1S Tb -0.94763(2) -0.24861(2) -0.45972(2)
Tb1T Tb -0.54028(2) -0.05237(2) -0.24861(2)
Tb1U Tb -0.45972(2) -0.05237(2) -0.75139(2)
O1L O -0.10984(13) -0.60238(13) -0.76875(13)
O1N O -0.89016(13) -0.60238(13) -0.23125(13)
O1P O -0.76875(13) -0.10984(13) -0.60238(13)
O1Q O -0.76875(13) 0.10984(13) -0.39762(13)
O1V O -0.60238(13) -0.23125(13) -0.89016(13)
O1W O -0.39762(13) -0.23125(13) -0.10984(13)
O2C O -0.70802(13) 0.03650(12) -0.53152(12)
O2E* O -0.46848(13) -0.29198(12) 0.03650(12)
O2F* O -0.53152(13) -0.29198(12) -1.03650(12)
O2J O -1.03650(13) -0.53152(12) -0.29198(12)
O2K O 0.03650(13) -0.53152(12) -0.70802(12)
O3L O -0.08412(14) -0.55595(14) -0.82694(14)
O3N O -0.91588(14) -0.55595(14) -0.17306(14)
O3P O -0.82694(14) -0.08412(14) -0.55595(14)
O3Q O -0.82694(14) 0.08412(14) -0.44405(14)
O3V O -0.55595(14) -0.17306(14) -0.91588(14)
O3W O -0.44405(14) -0.17306(14) -0.08412(14)
O4C O -0.73533(15) 0.10616(12) -0.50579(14)
O5L O -1.00514(15) -0.61410(13) -0.22402(16)
O5N O 0.00514(15) -0.61410(13) -0.77598(16)
O5R O -0.77598(15) 0.00514(13) -0.61410(16)
O5S O -0.77598(15) -0.00514(13) -0.38590(16)
O5T O -0.61410(15) -0.22402(13) -1.00514(16)
O5U O -0.38590(15) -0.22402(13) 0.00514(16)
O6C O -0.67302(14) 0.05669(15) -0.42197(16)
O6H O -0.05669(14) -0.57803(15) -0.67302(16)
O6I O -0.94331(14) -0.57803(15) -0.32698(16)
O8H O 0.00000(17) -0.50000 -0.79725
O8I O -1.00000(17) -0.50000 -0.20275
#END
