
#######################################################################
#
#                 Cambridge Crystallographic Data Centre
#                                CCDC
#
#######################################################################
#
# If this CIF has been generated from an entry in the Cambridge
# Structural Database, then it will include bibliographic, chemical,
# crystal, experimental, refinement or atomic coordinate data resulting
# from the CCDC's data processing and validation procedures.
#
#######################################################################

data_CSD_CIF_OMOVUJ
_audit_creation_date 2016-05-17
_audit_creation_method CSD-ConQuest-V1
_database_code_CSD OMOVUJ
_database_code_depnum_ccdc_archive 'CCDC 1480264'
_chemical_formula_sum 'C58 H46 N20 O24 S3 Zn8'
_chemical_formula_moiety
;
(C54 H30 N18 O24 S3 Zn8 2-)n,2n(C2 H8 N1 1+)
;
_journal_coden_Cambridge 4
_journal_volume 138
_journal_year 2016
_journal_page_first 5299
_journal_name_full 'J.Am.Chem.Soc. '
loop_
_publ_author_name
"Jun-Sheng Qin"
"Dong-Ying Du"
"Mian Li"
"Xi-Zhen Lian"
"Long-Zhang Dong"
"M.Bosch"
"Zhong-Min Su"
"Qiang Zhang"
"Shun-Li Li"
"Ya-Qian Lan"
"Shuai Yuan"
"Hong-Cai Zhou"
_chemical_name_systematic
;
catena-(bis(Dimethylammonium) 
tris(\m~4~-thiophene-2,5-dicarboxylato)-hexakis(\m~3~-1,2,3-triazolato)-tris(\
m~2~-terephthalato)-octa-zinc)
;
_chemical_name_common
;
TPMOF-2
;
_cell_volume   7300.576
_exptl_crystal_colour 'colorless'
_exptl_crystal_density_diffrn 0.922
_exptl_crystal_description 'block'
_diffrn_ambient_temperature 293
_refine_special_details
;
The cations were taken into account using PLATON/SQUEEZE.

;
#These two values have been output from a single CSD field.
_refine_ls_R_factor_gt 0.0618
_refine_ls_wR_factor_gt 0.0618
_symmetry_cell_setting hexagonal
_symmetry_space_group_name_H-M 'P -3 c 1'
_symmetry_Int_Tables_number 165
loop_
_symmetry_equiv_pos_site_id
_symmetry_equiv_pos_as_xyz
1 x,y,z
2 -y,x-y,z
3 -x+y,-x,z
4 x-y,-y,1/2-z
5 -x,-x+y,1/2-z
6 y,x,1/2-z
7 -x,-y,-z
8 y,-x+y,-z
9 x-y,x,-z
10 -x+y,y,-1/2+z
11 x,x-y,-1/2+z
12 -y,-x,-1/2+z
_cell_length_a 16.2940(9)
_cell_length_b 16.2940(9)
_cell_length_c 31.7520(18)
_cell_angle_alpha 90
_cell_angle_beta 90
_cell_angle_gamma 120
_cell_formula_units_Z 2
loop_
_atom_type_symbol
_atom_type_radius_bond
C 0.68
H 0.23
N 0.68
O 0.68
S 1.02
Zn 1.22
loop_
_atom_site_label
_atom_site_type_symbol
_atom_site_fract_x
_atom_site_fract_y
_atom_site_fract_z
C1 C 0.8230(5) 0.9996(5) 0.33392(18)
C2 C 0.7973(5) 1.0000(6) 0.28837(19)
C3 C 0.7225(7) 1.0003(10) 0.2721(2)
H1 H 0.67520 1.00090 0.28830
C4 C 0.9509(6) 1.1892(5) 0.4540(2)
H2 H 0.91160 1.20790 0.46680
C5 C 1.0483(6) 1.2383(5) 0.4540(2)
H3 H 1.08730 1.29670 0.46670
C6 C 1.3463(11) 1.3456(11) 0.4581(3)
C7 C 1.4242(8) 1.4248(8) 0.4802(3)
C8 C 1.5041(11) 1.4169(11) 0.4907(4)
C9 C 1.4168(11) 1.5050(11) 0.4908(4)
N1 N 0.9999(3) 1.1092(3) 0.41900(14)
N2 N 1.0763(4) 1.1866(4) 0.43250(15)
N3 N 0.9237(4) 1.1104(4) 0.43244(15)
O1 O 0.7661(4) 1.0000(4) 0.35995(14)
O2 O 0.8978(3) 1.0000(3) 0.34113(13)
O3 O 1.2742(7) 1.3459(8) 0.4493(3)
O4 O 1.3469(8) 1.2730(7) 0.4493(3)
S1 S 0.87130(12) 1.00000 0.25000
Zn1 Zn 1.00000 1.00000 0.38053(3)
Zn2 Zn 1.20831(5) 1.20827(5) 0.42003(2)
C1C C 0.8234(5) 1.0004(5) 0.16608(18)
C2C C 0.7973(5) 1.0000(6) 0.21163(19)
C3C C 0.7222(7) 0.9997(10) 0.2279(2)
H1C H 0.67430 0.99910 0.21170
O1C O 0.7661(4) 1.0000(4) 0.14005(14)
O2C O 0.8978(3) 1.0000(3) 0.15887(13)
C6F C 1.6537(11) 1.6544(11) 0.5419(3)
C7F C 1.5758(8) 1.5752(8) 0.5198(3)
C8F C 1.4959(11) 1.5831(11) 0.5093(4)
C9F C 1.5832(11) 1.4950(11) 0.5092(4)
O3F O 1.7258(7) 1.6541(8) 0.5507(3)
O4F O 1.6531(8) 1.7270(7) 0.5507(3)
C1A C 1.0004(5) 0.8234(5) 0.33392(18)
C2A C 1.0000(5) 0.7973(6) 0.28837(19)
C3A C 0.9997(7) 0.7222(10) 0.2721(2)
H1A H 0.99910 0.67430 0.28830
C4A C 0.8108(6) 0.7617(5) 0.4540(2)
H2A H 0.79210 0.70370 0.46680
C5A C 0.7617(6) 0.8100(5) 0.4540(2)
H3A H 0.70330 0.79060 0.46670
C6A C 0.6544(11) 1.0007(11) 0.4581(3)
C7A C 0.5752(8) 0.9994(8) 0.4802(3)
C8A C 0.5831(11) 1.0872(11) 0.4907(4)
C9A C 0.4950(11) 0.9118(11) 0.4908(4)
N1A N 0.8908(3) 0.8907(3) 0.41900(14)
N2A N 0.8134(4) 0.8897(4) 0.43250(15)
N3A N 0.8896(4) 0.8133(4) 0.43244(15)
O1A O 1.0000(4) 0.7661(4) 0.35995(14)
O2A O 1.0000(3) 0.8978(3) 0.34113(13)
O3A O 0.6541(7) 0.9283(8) 0.4493(3)
O4A O 0.7270(8) 1.0739(7) 0.4493(3)
S1A S 1.00000(12) 0.87130 0.25000
Zn2A Zn 0.79173(5) 1.00004(5) 0.42003(2)
C1E C 0.9996(5) 0.8230(5) 0.16608(18)
C2E C 1.0000(5) 0.7973(6) 0.21163(19)
C3E C 1.0003(7) 0.7225(10) 0.2279(2)
H1E H 1.00090 0.67520 0.21170
O1E O 1.0000(4) 0.7661(4) 0.14005(14)
O2E O 1.0000(3) 0.8978(3) 0.15887(13)
C6G C 0.3456(11) 0.9993(11) 0.5419(3)
C7G C 0.4248(8) 1.0006(8) 0.5198(3)
C8G C 0.4169(11) 0.9128(11) 0.5093(4)
C9G C 0.5050(11) 1.0882(11) 0.5092(4)
O3G O 0.3459(7) 1.0717(8) 0.5507(3)
O4G O 0.2730(8) 0.9261(7) 0.5507(3)
C1B C 1.1766(5) 1.1770(5) 0.33392(18)
C2B C 1.2027(5) 1.2027(6) 0.28837(19)
C3B C 1.2778(7) 1.2775(10) 0.2721(2)
H1B H 1.32570 1.32480 0.28830
C4B C 1.2383(6) 1.0491(5) 0.4540(2)
H2B H 1.29630 1.08840 0.46680
C5B C 1.1900(6) 0.9517(5) 0.4540(2)
H3B H 1.20940 0.91270 0.46670
C6B C 0.9993(11) 0.6537(11) 0.4581(3)
C7B C 1.0006(8) 0.5758(8) 0.4802(3)
C8B C 0.9128(11) 0.4959(11) 0.4907(4)
C9B C 1.0882(11) 0.5832(11) 0.4908(4)
N1B N 1.1093(3) 1.0001(3) 0.41900(14)
N2B N 1.1103(4) 0.9237(4) 0.43250(15)
N3B N 1.1867(4) 1.0763(4) 0.43244(15)
O1B O 1.2339(4) 1.2339(4) 0.35995(14)
O2B O 1.1022(3) 1.1022(3) 0.34113(13)
O3B O 1.0717(7) 0.7258(8) 0.4493(3)
O4B O 0.9261(8) 0.6531(7) 0.4493(3)
S1B S 1.12870(12) 1.12870 0.25000
Zn2B Zn 0.99996(5) 0.79169(5) 0.42003(2)
C1D C 1.1770(5) 1.1766(5) 0.16608(18)
C2D C 1.2027(5) 1.2027(6) 0.21163(19)
C3D C 1.2775(7) 1.2778(10) 0.2279(2)
H1D H 1.32480 1.32570 0.21170
O1D O 1.2339(4) 1.2339(4) 0.14005(14)
O2D O 1.1022(3) 1.1022(3) 0.15887(13)
C6H C 1.0007(11) 0.3463(11) 0.5419(3)
C7H C 0.9994(8) 0.4242(8) 0.5198(3)
C8H C 1.0872(11) 0.5041(11) 0.5093(4)
C9H C 0.9118(11) 0.4168(11) 0.5092(4)
O3H O 0.9283(7) 0.2742(8) 0.5507(3)
O4H O 1.0739(8) 0.3469(7) 0.5507(3)
C4C C 0.7617(6) 0.8108(5) 0.0460(2)
H2C H 0.70370 0.79210 0.03320
C5C C 0.8100(6) 0.7617(5) 0.0460(2)
H3C H 0.79060 0.70330 0.03330
N1C N 0.8907(3) 0.8908(3) 0.08100(14)
N2C N 0.8897(4) 0.8134(4) 0.06750(15)
N3C N 0.8133(4) 0.8896(4) 0.06756(15)
Zn1C Zn 1.00000 1.00000 0.11947(3)
Zn2C Zn 1.00004(5) 0.79173(5) 0.07997(2)
C4D C 1.0491(6) 1.2383(5) 0.0460(2)
H2D H 1.08840 1.29630 0.03320
C5D C 0.9517(6) 1.1900(5) 0.0460(2)
H3D H 0.91270 1.20940 0.03330
N1D N 1.0001(3) 1.1093(3) 0.08100(14)
N2D N 0.9237(4) 1.1103(4) 0.06750(15)
N3D N 1.0763(4) 1.1867(4) 0.06756(15)
Zn2D Zn 0.79169(5) 0.99996(5) 0.07997(2)
C4E C 1.1892(6) 0.9509(5) 0.0460(2)
H2E H 1.20790 0.91160 0.03320
C5E C 1.2383(6) 1.0483(5) 0.0460(2)
H3E H 1.29670 1.08730 0.03330
N1E N 1.1092(3) 0.9999(3) 0.08100(14)
N2E N 1.1866(4) 1.0763(4) 0.06750(15)
N3E N 1.1104(4) 0.9237(4) 0.06756(15)
Zn2E Zn 1.20827(5) 1.20831(5) 0.07997(2)
O3C O 0.9283(7) 0.6541(8) 0.0507(3)
O3D O 0.7258(7) 1.0717(8) 0.0507(3)
O3E O 1.3459(7) 1.2742(8) 0.0507(3)
O4C O 1.0739(8) 0.7270(7) 0.0507(3)
O4D O 0.6531(8) 0.9261(7) 0.0507(3)
O4E O 1.2730(8) 1.3469(7) 0.0507(3)
Zn2F Zn 1.79169(5) 1.79173(5) 0.57997(2)
Zn2G Zn 0.20827(5) 0.99996(5) 0.57997(2)
Zn2H Zn 1.00004(5) 0.20831(5) 0.57997(2)
#END
