
#######################################################################
#
#                 Cambridge Crystallographic Data Centre
#                                CCDC
#
#######################################################################
#
# If this CIF has been generated from an entry in the Cambridge
# Structural Database, then it will include bibliographic, chemical,
# crystal, experimental, refinement or atomic coordinate data resulting
# from the CCDC's data processing and validation procedures.
#
#######################################################################

data_CSD_CIF_OMOVIX
_audit_creation_date 2016-05-17
_audit_creation_method CSD-ConQuest-V1
_database_code_CSD OMOVIX
_database_code_depnum_ccdc_archive 'CCDC 1480263'
_chemical_formula_sum 'C52 H40 N20 O24 S6 Zn8'
_chemical_formula_moiety
;
(C48 H24 N18 O24 S6 Zn8 2-)n,2n(C2 H8 N1 1+)
;
_journal_coden_Cambridge 4
_journal_volume 138
_journal_year 2016
_journal_page_first 5299
_journal_name_full 'J.Am.Chem.Soc. '
loop_
_publ_author_name
"Jun-Sheng Qin"
"Dong-Ying Du"
"Mian Li"
"Xi-Zhen Lian"
"Long-Zhang Dong"
"M.Bosch"
"Zhong-Min Su"
"Qiang Zhang"
"Shun-Li Li"
"Ya-Qian Lan"
"Shuai Yuan"
"Hong-Cai Zhou"
_chemical_name_systematic
;
catena-(bis(Dimethylammonium) 
tris(\m~4~-thiophene-2,5-dicarboxylato)-hexakis(\m~3~-1,2,3-triazolato)-tris(\
m~2~-thiophene-2,5-dicarboxylato)-octa-zinc)
;
_chemical_name_common
;
TPMOF-1
;
_cell_volume  16940.507
_exptl_crystal_colour 'colorless'
_exptl_crystal_density_diffrn 0.802
_exptl_crystal_description 'block'
_diffrn_ambient_temperature 293
_refine_special_details
;
The cations were taken into account using PLATON/SQUEEZE.

;
#These two values have been output from a single CSD field.
_refine_ls_R_factor_gt 0.0335
_refine_ls_wR_factor_gt 0.0335
_symmetry_cell_setting hexagonal
_symmetry_space_group_name_H-M 'P 6/m c c'
_symmetry_Int_Tables_number 192
loop_
_symmetry_equiv_pos_site_id
_symmetry_equiv_pos_as_xyz
1 x,y,z
2 x-y,x,z
3 -y,x-y,z
4 -x,-y,z
5 -x+y,-x,z
6 y,-x+y,z
7 -y,-x,1/2-z
8 x-y,-y,1/2-z
9 x,x-y,1/2-z
10 y,x,1/2-z
11 -x+y,y,1/2-z
12 -x,-x+y,1/2-z
13 -x,-y,-z
14 -x+y,-x,-z
15 y,-x+y,-z
16 x,y,-z
17 x-y,x,-z
18 -y,x-y,-z
19 y,x,-1/2+z
20 -x+y,y,-1/2+z
21 -x,-x+y,-1/2+z
22 -y,-x,-1/2+z
23 x-y,-y,-1/2+z
24 x,x-y,-1/2+z
_cell_length_a 24.7750(16)
_cell_length_b 24.7750(16)
_cell_length_c 31.869(2)
_cell_angle_alpha 90
_cell_angle_beta 90
_cell_angle_gamma 120
_cell_formula_units_Z 4
loop_
_atom_type_symbol
_atom_type_radius_bond
C 0.68
H 0.23
N 0.68
O 0.68
S 1.02
Zn 1.22
loop_
_atom_site_label
_atom_site_type_symbol
_atom_site_fract_x
_atom_site_fract_y
_atom_site_fract_z
C1 C 0.4414(3) 0.1076(2) -0.20730(13)
C2 C 0.3935(2) 0.04965(18) -0.23034(13)
C3 C 0.3305(3) 0.0277(2) -0.2386(2)
H1 H 0.30930 0.04800 -0.22990
C4 C 0.5558(2) 0.2149(2) -0.08321(11)
C5 C 0.53909(16) 0.19644(16) -0.03871(10)
C6 C 0.48913(18) 0.14280(18) -0.02171(10)
H2 H 0.45900 0.11050 -0.03780
C7 C 0.7063(2) 0.2125(2) -0.20272(12)
H3 H 0.73280 0.20050 -0.21490
C8 C 0.6427(2) 0.17956(19) -0.20329(12)
H4 H 0.61820 0.14130 -0.21630
N1 N 0.62168(14) 0.21158(15) -0.18196(9)
N2 N 0.67203(16) 0.26383(14) -0.16862(8)
N3 N 0.72346(14) 0.26490(15) -0.18161(9)
O1 O 0.42186(17) 0.14449(16) -0.19686(12)
O2 O 0.49219(15) 0.11613(15) -0.20151(9)
O3 O 0.51815(11) 0.17481(11) -0.10977(7)
O4 O 0.60201(11) 0.26435(12) -0.09088(7)
S1 S 0.41617(6) 0.00000 -0.25000
S2 S 0.58489(6) 0.24585(6) 0.00000
Zn1 Zn 0.66670 0.33330 -0.129557(17)
Zn2 Zn 0.533935(19) 0.193523(18) -0.169076(12)
C1G C 0.3338(3) -0.1076(2) -0.29270(13)
C2G C 0.34385(20) -0.04965(18) -0.26966(13)
C3G C 0.3028(3) -0.0277(2) -0.2614(2)
H1G H 0.26130 -0.04800 -0.27010
O1G O 0.27737(17) -0.14449(16) -0.30314(12)
O2G O 0.37606(15) -0.11613(15) -0.29849(9)
C4O C 0.5558(2) 0.2149(2) 0.08321(11)
C5O C 0.53909(16) 0.19644(16) 0.03871(10)
C6O C 0.48913(18) 0.14280(18) 0.02171(10)
H2O H 0.45900 0.11050 0.03780
O3O O 0.51815(11) 0.17481(11) 0.10977(7)
O4O O 0.60201(11) 0.26435(12) 0.09088(7)
C1B C 0.8924(3) 0.3338(2) -0.20730(13)
C2B C 0.95035(20) 0.34385(18) -0.23034(13)
C3B C 0.9723(3) 0.3028(2) -0.2386(2)
H1B H 0.95200 0.26130 -0.22990
C4B C 0.7851(2) 0.3409(2) -0.08321(11)
C5B C 0.80356(16) 0.34265(16) -0.03871(10)
C6B C 0.85720(18) 0.34633(18) -0.02171(10)
H2B H 0.88950 0.34850 -0.03780
C7B C 0.7875(2) 0.4938(2) -0.20272(12)
H3B H 0.79950 0.53230 -0.21490
C8B C 0.82044(20) 0.46314(19) -0.20329(12)
H4B H 0.85870 0.47690 -0.21630
N1B N 0.78842(14) 0.41010(15) -0.18196(9)
N2B N 0.73617(16) 0.40820(14) -0.16862(8)
N3B N 0.73510(14) 0.45856(15) -0.18161(9)
O1B O 0.85551(17) 0.27737(16) -0.19686(12)
O2B O 0.88387(15) 0.37606(15) -0.20151(9)
O3B O 0.82519(11) 0.34334(11) -0.10977(7)
O4B O 0.73565(11) 0.33766(12) -0.09088(7)
S1B S 1.00000(6) 0.41617 -0.25000
S2B S 0.75415(6) 0.33904(6) 0.00000
Zn2B Zn 0.806477(19) 0.340412(18) -0.169076(12)
C1I C 1.1076(3) 0.4414(2) -0.29270(13)
C2I C 1.04965(20) 0.39350(18) -0.26966(13)
C3I C 1.0277(3) 0.3305(2) -0.2614(2)
H1I H 1.04800 0.30930 -0.27010
O1I O 1.14449(17) 0.42186(16) -0.30314(12)
O2I O 1.11613(15) 0.49219(15) -0.29849(9)
C4Q C 0.7851(2) 0.3409(2) 0.08321(11)
C5Q C 0.80356(16) 0.34265(16) 0.03871(10)
C6Q C 0.85720(18) 0.34633(18) 0.02171(10)
H2Q H 0.88950 0.34850 0.03780
O3Q O 0.82519(11) 0.34334(11) 0.10977(7)
O4Q O 0.73565(11) 0.33766(12) 0.09088(7)
C1D C 0.6662(3) 0.5586(2) -0.20730(13)
C2D C 0.65615(20) 0.60650(18) -0.23034(13)
C3D C 0.6972(3) 0.6695(2) -0.2386(2)
H1D H 0.73870 0.69070 -0.22990
C4D C 0.6591(2) 0.4442(2) -0.08321(11)
C5D C 0.65735(16) 0.46091(16) -0.03871(10)
C6D C 0.65367(18) 0.51087(18) -0.02171(10)
H2D H 0.65150 0.54100 -0.03780
C7D C 0.5062(2) 0.2937(2) -0.20272(12)
H3D H 0.46770 0.26720 -0.21490
C8D C 0.53686(20) 0.35730(19) -0.20329(12)
H4D H 0.52310 0.38180 -0.21630
N1D N 0.58990(14) 0.37832(15) -0.18196(9)
N2D N 0.59180(16) 0.32797(14) -0.16862(8)
N3D N 0.54144(14) 0.27654(15) -0.18161(9)
O1D O 0.72263(17) 0.57814(16) -0.19686(12)
O2D O 0.62394(15) 0.50781(15) -0.20151(9)
O3D O 0.65666(11) 0.48185(11) -0.10977(7)
O4D O 0.66234(11) 0.39799(12) -0.09088(7)
S1D S 0.58383(6) 0.58383 -0.25000
S2D S 0.66096(6) 0.41511(6) 0.00000
Zn2D Zn 0.659588(19) 0.466065(18) -0.169076(12)
C1K C 0.5586(3) 0.6662(2) -0.29270(13)
C2K C 0.6065(2) 0.65615(18) -0.26966(13)
C3K C 0.6695(3) 0.6972(2) -0.2614(2)
H1K H 0.69070 0.73870 -0.27010
O1K O 0.57814(17) 0.72263(16) -0.30314(12)
O2K O 0.50781(15) 0.62394(15) -0.29849(9)
C4M C 0.6591(2) 0.4442(2) 0.08321(11)
C5M C 0.65735(16) 0.46091(16) 0.03871(10)
C6M C 0.65367(18) 0.51087(18) 0.02171(10)
H2M H 0.65150 0.54100 0.03780
O3M O 0.65666(11) 0.48185(11) 0.10977(7)
O4M O 0.66234(11) 0.39799(12) 0.09088(7)
C7M C 0.5062(2) 0.2937(2) 0.20272(12)
H3M H 0.46770 0.26720 0.21490
C8M C 0.53686(20) 0.35730(19) 0.20329(12)
H4M H 0.52310 0.38180 0.21630
N1M N 0.58990(14) 0.37832(15) 0.18196(9)
N2M N 0.59180(16) 0.32797(14) 0.16862(8)
N3M N 0.54144(14) 0.27654(15) 0.18161(9)
Zn1M Zn 0.66660 0.33330 0.129557(17)
Zn2M Zn 0.659588(19) 0.466065(18) 0.169076(12)
C7O C 0.7063(2) 0.2125(2) 0.20272(12)
H3O H 0.73280 0.20050 0.21490
C8O C 0.6427(2) 0.17956(19) 0.20329(12)
H4O H 0.61820 0.14130 0.21630
N1O N 0.62168(14) 0.21158(15) 0.18196(9)
N2O N 0.67203(16) 0.26383(14) 0.16862(8)
N3O N 0.72346(14) 0.26490(15) 0.18161(9)
Zn2O Zn 0.533935(19) 0.193523(18) 0.169076(12)
C7Q C 0.7875(2) 0.4938(2) 0.20272(12)
H3Q H 0.79950 0.53230 0.21490
C8Q C 0.82044(20) 0.46314(19) 0.20329(12)
H4Q H 0.85870 0.47690 0.21630
N1Q N 0.78842(14) 0.41010(15) 0.18196(9)
N2Q N 0.73617(16) 0.40820(14) 0.16862(8)
N3Q N 0.73510(14) 0.45856(15) 0.18161(9)
Zn2Q Zn 0.806477(19) 0.340412(18) 0.169076(12)
O1M O 0.72263(17) 0.57814(16) 0.19686(12)
O1O O 0.42186(17) 0.14449(16) 0.19686(12)
O1Q O 0.85551(17) 0.27737(16) 0.19686(12)
O2M O 0.62394(15) 0.50781(15) 0.20151(9)
O2O O 0.49219(15) 0.11613(15) 0.20151(9)
O2Q O 0.88387(15) 0.37606(15) 0.20151(9)
Zn2G Zn 0.340412(19) -0.193523(18) -0.330924(12)
Zn2I Zn 1.193523(19) 0.533935(18) -0.330924(12)
Zn2K Zn 0.466065(19) 0.659588(18) -0.330924(12)
#END
