
#######################################################################
#
#                 Cambridge Crystallographic Data Centre
#                                CCDC
#
#######################################################################
#
# If this CIF has been generated from an entry in the Cambridge
# Structural Database, then it will include bibliographic, chemical,
# crystal, experimental, refinement or atomic coordinate data resulting
# from the CCDC's data processing and validation procedures.
#
#######################################################################

data_CSD_CIF_OMUKUE
_audit_creation_date 2016-05-17
_audit_creation_method CSD-ConQuest-V1
_database_code_CSD OMUKUE
_database_code_depnum_ccdc_archive 'CCDC 1480267'
_chemical_formula_sum 'C76 H58 N22 O24 S3 Zn8'
_chemical_formula_moiety
;
(C72 H42 N20 O24 S3 Zn8 2-)n,2n(C2 H8 N1 1+)
;
_journal_coden_Cambridge 4
_journal_volume 138
_journal_year 2016
_journal_page_first 5299
_journal_name_full 'J.Am.Chem.Soc. '
loop_
_publ_author_name
"Jun-Sheng Qin"
"Dong-Ying Du"
"Mian Li"
"Xi-Zhen Lian"
"Long-Zhang Dong"
"M.Bosch"
"Zhong-Min Su"
"Qiang Zhang"
"Shun-Li Li"
"Ya-Qian Lan"
"Shuai Yuan"
"Hong-Cai Zhou"
_chemical_name_systematic
;
catena-(bis(Dimethylammonium) 
tris(\m~4~-thiophene-2,5-dicarboxylato)-bis(\m~3~-tris(4-carboxylatophenyl)ami
ne)-hexakis(\m~3~-1,2,3-triazolato)-octa-zinc)
;
_chemical_name_common
;
TPMOF-5
;
_cell_volume  22082.699
_exptl_crystal_colour 'yellow'
_exptl_crystal_density_diffrn 0.687
_exptl_crystal_description 'block'
_diffrn_ambient_temperature 293
_refine_special_details
;
The cations were taken into account using PLATON/SQUEEZE.

;
#These two values have been output from a single CSD field.
_refine_ls_R_factor_gt 0.0506
_refine_ls_wR_factor_gt 0.0506
_symmetry_cell_setting monoclinic
_symmetry_space_group_name_H-M 'C 2/m'
_symmetry_Int_Tables_number 12
loop_
_symmetry_equiv_pos_site_id
_symmetry_equiv_pos_as_xyz
1 x,y,z
2 -x,y,-z
3 1/2+x,1/2+y,z
4 1/2-x,1/2+y,-z
5 -x,-y,-z
6 x,-y,z
7 -1/2-x,-1/2-y,-z
8 -1/2+x,-1/2-y,z
_cell_length_a 34.858(5)
_cell_length_b 38.935(5)
_cell_length_c 19.106(3)
_cell_angle_alpha 90
_cell_angle_beta 121.613(2)
_cell_angle_gamma 90
_cell_formula_units_Z 4
loop_
_atom_type_symbol
_atom_type_radius_bond
C 0.68
H 0.23
N 0.68
O 0.68
S 1.02
Zn 1.22
loop_
_atom_site_label
_atom_site_type_symbol
_atom_site_fract_x
_atom_site_fract_y
_atom_site_fract_z
C1 C 0.3717(2) 0.16725(14) 1.2051(3)
H1 H 0.36590 0.17810 1.24200
C2 C 0.41151(19) 0.16749(12) 1.2083(3)
H2 H 0.43790 0.17840 1.24770
C3 C 0.41437(14) 0.16248(10) 0.9275(3)
H3 H 0.44150 0.17170 0.93780
C4 C 0.37528(15) 0.16338(10) 0.8557(3)
H4 H 0.37060 0.17360 0.80790
C5 C 0.21842(16) 0.16900(13) 0.8440(3)
H5 H 0.19860 0.18050 0.79550
C6 C 0.21688(17) 0.16842(13) 0.9145(3)
H6 H 0.19550 0.17890 0.92240
C7 C 0.18831(12) 0.22177(9) 1.2893(2)
C8 C 0.19289(13) 0.18753(10) 1.2802(2)
H7 H 0.18350 0.17150 1.30430
C9 C 0.21182(14) 0.17624(10) 1.2344(3)
H8 H 0.21500 0.15290 1.22840
C10 C 0.22543(12) 0.20020(11) 1.1987(2)
C11 C 0.22022(13) 0.23435(10) 1.2074(2)
H9 H 0.22910 0.25050 1.18290
C12 C 0.20184(13) 0.24496(9) 1.2525(2)
H10 H 0.19850 0.26830 1.25800
C13 C 0.24708(15) 0.18707(14) 1.1519(3)
C14 C 0.13225(13) 0.25566(9) 1.2992(2)
C15 C 0.09962(13) 0.25327(9) 1.2161(2)
H11 H 0.10190 0.23670 1.18340
C16 C 0.06271(13) 0.27649(12) 1.1816(3)
H12 H 0.04080 0.27500 1.12600
C17 C 0.05875(15) 0.30155(11) 1.2302(3)
C18 C 0.08952(16) 0.30223(11) 1.3089(3)
H13 H 0.08640 0.31790 1.34240
C19 C 0.12655(13) 0.28032(10) 1.3442(2)
H14 H 0.14810 0.28250 1.39980
C20 C 0.01816(19) 0.32503(13) 1.1878(4)
C21 C 0.18460(14) 0.21830(9) 1.4132(2)
C22 C 0.22908(14) 0.21078(9) 1.4656(2)
H15 H 0.24960 0.21600 1.45010
C23 C 0.24424(14) 0.19561(10) 1.5407(2)
H16 H 0.27470 0.19060 1.57520
C24 C 0.21456(18) 0.18785(10) 1.5645(3)
C25 C 0.17023(17) 0.19504(11) 1.5130(3)
H17 H 0.14980 0.18970 1.52870
C26 C 0.15507(14) 0.21022(11) 1.4377(2)
H18 H 0.12460 0.21500 1.40320
C27 C 0.2328(2) 0.17042(11) 1.6484(3)
C28 C 0.25253(18) 0.01814(10) 1.1127(3)
H19 H 0.23750 0.03150 1.13120
C29 C 0.27729(13) 0.03132(9) 1.0821(2)
C30 C 0.28459(14) 0.06778(10) 1.0720(2)
C31 C 0.48780(12) 0.01792(8) 1.1586(2)
H20 H 0.51360 0.03120 1.18880
C32 C 0.44560(11) 0.03139(7) 1.1091(2)
C33 C 0.43135(14) 0.06766(9) 1.0924(2)
C34 C 0.25751(14) 0.01794(8) 0.7126(2)
H21 H 0.24440 0.03110 0.66490
C35 C 0.27858(11) 0.03162(8) 0.78936(19)
C36 C 0.28455(11) 0.06798(9) 0.8136(3)
N1 N 0.34210(11) 0.14865(8) 1.1394(2)
N2 N 0.36426(11) 0.13820(6) 1.10303(16)
N3 N 0.40591(11) 0.14911(8) 1.1438(2)
N4 N 0.40801(10) 0.14597(7) 0.98244(17)
N5 N 0.36487(10) 0.13693(6) 0.94230(17)
N6 N 0.34404(9) 0.14719(7) 0.86376(17)
N7 N 0.25353(10) 0.15009(8) 0.85795(19)
N8 N 0.27438(9) 0.13853(7) 0.93445(18)
N9 N 0.25259(12) 0.14965(8) 0.96991(19)
N10 N 0.1688(1) 0.23270(8) 1.33514(18)
O1 O 0.24932(11) 0.15561(8) 1.14690(19)
O2 O 0.26040(14) 0.20774(10) 1.1220(2)
O3 O 0.01113(12) 0.34245(10) 1.2353(3)
O4 O -0.00504(11) 0.32641(10) 1.1149(2)
O5 O 0.27248(12) 0.16454(7) 1.69176(16)
O6 O 0.20447(14) 0.16196(10) 1.6667(2)
O7 O 0.26825(10) 0.08995(7) 1.09797(18)
O8 O 0.30680(8) 0.07365(5) 1.03979(14)
O9 O 0.39126(8) 0.07435(5) 1.04770(14)
O10 O 0.46269(8) 0.08949(6) 1.12522(15)
O11 O 0.30587(7) 0.07436(5) 0.88915(14)
O12 O 0.26848(8) 0.09015(6) 0.75660(14)
Zn1 Zn 0.334249(12) 0.105938(9) 0.99281(2)
Zn2 Zn 0.276485(16) 0.139082(11) 1.08951(3)
Zn3 Zn 0.449322(14) 0.138667(10) 1.10585(2)
Zn4 Zn 0.276994(13) 0.138712(10) 0.78423(2)
S1 S 0.29875(4) 0.00000 1.05212(8)
S2 S 0.40567(4) 0.00000 1.06204(7)
S3 S 0.29884(4) 0.00000 0.86219(7)
C28E C 0.25253(18) -0.01814(10) 1.1127(3)
H19E H 0.23750 -0.03150 1.13120
C29E C 0.27729(13) -0.03132(9) 1.0821(2)
C30E C 0.28459(14) -0.06778(10) 1.0720(2)
O7E O 0.26825(10) -0.08995(7) 1.09797(18)
O8E O 0.30680(8) -0.07365(5) 1.03979(14)
C31E C 0.48780(12) -0.01792(8) 1.1586(2)
H20E H 0.51360 -0.03120 1.18880
C32E C 0.44560(11) -0.03139(7) 1.1091(2)
C33E C 0.43135(14) -0.06766(9) 1.0924(2)
O9E O 0.39126(8) -0.07435(5) 1.04770(14)
O10E O 0.46269(8) -0.08949(6) 1.12522(15)
C34E C 0.25751(14) -0.01794(8) 0.7126(2)
H21E H 0.24440 -0.03110 0.66490
C35E C 0.27858(11) -0.03162(8) 0.78936(19)
C36E C 0.28455(11) -0.06798(9) 0.8136(3)
O11E O 0.30587(7) -0.07436(5) 0.88915(14)
O12E O 0.26848(8) -0.09015(6) 0.75660(14)
C1E C 0.3717(2) -0.16725(14) 1.2051(3)
H1E H 0.36590 -0.17810 1.24200
C2E C 0.41151(19) -0.16749(12) 1.2083(3)
H2E H 0.43790 -0.17840 1.24770
C3E C 0.41437(14) -0.16248(10) 0.9275(3)
H3E H 0.44150 -0.17170 0.93780
C4E C 0.37528(15) -0.16338(10) 0.8557(3)
H4E H 0.37060 -0.17360 0.80790
C5E C 0.21842(16) -0.16900(13) 0.8440(3)
H5E H 0.19860 -0.18050 0.79550
C6E C 0.21688(17) -0.16842(13) 0.9145(3)
H6E H 0.19550 -0.17890 0.92240
C7E C 0.18831(12) -0.22177(9) 1.2893(2)
C8E C 0.19289(13) -0.18753(10) 1.2802(2)
H7E H 0.18350 -0.17150 1.30430
C9E C 0.21182(14) -0.17624(10) 1.2344(3)
H8E H 0.21500 -0.15290 1.22840
C10E C 0.22543(12) -0.20020(11) 1.1987(2)
C11E C 0.22022(13) -0.23435(10) 1.2074(2)
H9E H 0.22910 -0.25050 1.18290
C12E C 0.20184(13) -0.24496(9) 1.2525(2)
H10E H 0.19850 -0.26830 1.25800
C13E C 0.24708(15) -0.18707(14) 1.1519(3)
C14E C 0.13225(13) -0.25566(9) 1.2992(2)
C15E C 0.09962(13) -0.25327(9) 1.2161(2)
H11E H 0.10190 -0.23670 1.18340
C16E C 0.06271(13) -0.27649(12) 1.1816(3)
H12E H 0.04080 -0.27500 1.12600
C17E C 0.05875(15) -0.30155(11) 1.2302(3)
C18E C 0.08952(16) -0.30223(11) 1.3089(3)
H13E H 0.08640 -0.31790 1.34240
C19E C 0.12655(13) -0.28032(10) 1.3442(2)
H14E H 0.14810 -0.28250 1.39980
C20E C 0.01816(19) -0.32503(13) 1.1878(4)
C21E C 0.18460(14) -0.21830(9) 1.4132(2)
C22E C 0.22908(14) -0.21078(9) 1.4656(2)
H15E H 0.24960 -0.21600 1.45010
C23E C 0.24424(14) -0.19561(10) 1.5407(2)
H16E H 0.27470 -0.19060 1.57520
C24E C 0.21456(18) -0.18785(10) 1.5645(3)
C25E C 0.17023(17) -0.19504(11) 1.5130(3)
H17E H 0.14980 -0.18970 1.52870
C26E C 0.15507(14) -0.21022(11) 1.4377(2)
H18E H 0.12460 -0.21500 1.40320
C27E C 0.2328(2) -0.17042(11) 1.6484(3)
N1E N 0.34210(11) -0.14865(8) 1.1394(2)
N2E N 0.36426(11) -0.13820(6) 1.10303(16)
N3E N 0.40591(11) -0.14911(8) 1.1438(2)
N4E N 0.40801(10) -0.14597(7) 0.98244(17)
N5E N 0.36487(10) -0.13693(6) 0.94230(17)
N6E N 0.34404(9) -0.14719(7) 0.86376(17)
N7E N 0.25353(10) -0.15009(8) 0.85795(19)
N8E N 0.27438(9) -0.13853(7) 0.93445(18)
N9E N 0.25259(12) -0.14965(8) 0.96991(19)
N10E N 0.1688(1) -0.23270(8) 1.33514(18)
O1E O 0.24932(11) -0.15561(8) 1.14690(19)
O2E O 0.26040(14) -0.20774(10) 1.1220(2)
O3E O 0.01113(12) -0.34245(10) 1.2353(3)
O4E O -0.00504(11) -0.32641(10) 1.1149(2)
O5E O 0.27248(12) -0.16454(7) 1.69176(16)
O6E O 0.20447(14) -0.16196(10) 1.6667(2)
Zn1E Zn 0.334249(12) -0.105938(9) 0.99281(2)
Zn2E Zn 0.276485(16) -0.139082(11) 1.08951(3)
Zn3E Zn 0.449322(14) -0.138667(10) 1.10585(2)
Zn4E Zn 0.276994(13) -0.138712(10) 0.78423(2)
O3B O 0.51113(12) -0.15755(10) 1.2353(3)
O3G O 0.51113(12) 0.15755(10) 1.2353(3)
O4B O 0.49496(11) -0.17359(10) 1.1149(2)
O4G O 0.49496(11) 0.17359(10) 1.1149(2)
O5* O 0.27248(12) 0.16454(7) 0.69176(16)
O5E* O 0.27248(12) -0.16454(7) 0.69176(16)
O6* O 0.20447(14) 0.16196(10) 0.6667(2)
O6E* O 0.20447(14) -0.16196(10) 0.6667(2)
Zn3B Zn -0.050678(14) -0.361333(10) 1.10585(2)
Zn3G Zn -0.050678(14) 0.361333(10) 1.10585(2)
Zn4* Zn 0.276994(13) 0.138712(10) 1.78423(2)
Zn4E* Zn 0.276994(13) -0.138712(10) 1.78423(2)
#END
