
#######################################################################
#
#                 Cambridge Crystallographic Data Centre
#                                CCDC
#
#######################################################################
#
# If this CIF has been generated from an entry in the Cambridge
# Structural Database, then it will include bibliographic, chemical,
# crystal, experimental, refinement or atomic coordinate data resulting
# from the CCDC's data processing and validation procedures.
#
#######################################################################

data_CSD_CIF_ONEFIX
_audit_creation_date 2011-06-30
_audit_creation_method CSD-ConQuest-V1
_database_code_CSD ONEFIX
_database_code_depnum_ccdc_archive 'CCDC 761102'
_chemical_formula_sum 'C48 H44 Ag10 N8 Na2 O62 Si1 W12'
_chemical_formula_moiety
;
(C24 H24 Ag6 N4 O12 2+)n,2n(Na1 1+),n(C24 H20 Ag4 N4 O50 Si1 W12 4-)
;
_journal_coden_Cambridge 155
_journal_volume 370
_journal_year 2011
_journal_page_first 203
_journal_name_full 'Inorg.Chim.Acta '
loop_
_publ_author_name
"Xiao-Lan Wang"
"Ying Lu"
"Hai Fu"
"Jing-Xin Meng"
"En-Bo Wang"
_chemical_name_systematic
;
catena-[(tetrakis(\m~3~-Pyridine-4-carboxylato-N,O,O')-tetra-aqua-hexa-silver(
i)) bis(sodium) 
(\m~12~-silicato)-bis(\m~3~-oxo)-hexacosakis(\m~2~-oxo)-tetrakis(\m~2~-pyridin
e-4-carboxylato-N,O)-diaqua-octa-oxo-tetra-silver(i)-dodeca-tungsten]
;
_cell_volume   5333.691
_exptl_crystal_colour 'yellow'
_exptl_crystal_density_diffrn 3.166
_exptl_crystal_description 'block'
_diffrn_ambient_temperature 150
_refine_special_details
;
The structure is extensively disordered by symmetry.

;
#These two values have been output from a single CSD field.
_refine_ls_R_factor_gt 0.0904
_refine_ls_wR_factor_gt 0.0904
_symmetry_cell_setting monoclinic
_symmetry_space_group_name_H-M 'C 2/m'
_symmetry_Int_Tables_number 12
loop_
_symmetry_equiv_pos_site_id
_symmetry_equiv_pos_as_xyz
1 x,y,z
2 -x,y,-z
3 1/2+x,1/2+y,z
4 1/2-x,1/2+y,-z
5 -x,-y,-z
6 x,-y,z
7 -1/2-x,-1/2-y,-z
8 -1/2+x,-1/2-y,z
_cell_length_a 12.774(3)
_cell_length_b 24.012(5)
_cell_length_c 18.148(4)
_cell_angle_alpha 90
_cell_angle_beta 106.63(3)
_cell_angle_gamma 90
_cell_formula_units_Z 2
loop_
_atom_type_symbol
_atom_type_radius_bond
C 0.68
H 0.23
Ag 1.56
N 0.68
Na 1.51
O 0.68
Si 1.10
W 1.37
loop_
_atom_site_label
_atom_site_type_symbol
_atom_site_fract_x
_atom_site_fract_y
_atom_site_fract_z
W1 W 0.48384(10) 0.42668(4) 0.32870(5)
W2 W 0.25457(11) 0.50000 0.34850(7)
W3 W 0.5104(8) 0.35528(8) 0.4907(5)
W4 W 0.27108(10) 0.42729(5) 0.51985(8)
Si1 Si 0.50000 0.50000 0.50000
Ag1 Ag 0.50000 0.17875(10) 0.50000
Ag2 Ag 0.7446(9) 0.2403(3) 0.5002(7)
Ag3 Ag 0.50000 0.2095(3) 1.00000
Ag4 Ag 0.8119(4) 0.19961(18) 1.0157(2)
Na1 Na 1.00000 0.50000 0.50000
Na2 Na 0.00000 0.928(3) 0.00000
Na3 Na 1.038(8) 0.50000 0.878(6)
O1 O 0.50000 0.1206(11) 1.00000
O2 O 0.980(2) 0.1488(11) 1.0959(15)
O3 O 0.140(3) 0.50000 0.277(2)
O4 O 0.446(3) 0.50000 0.416(2)
O5 O 0.466(2) 0.3642(12) 0.3905(16)
O6 O 0.637(2) 0.4232(11) 0.3767(16)
O7 O 0.3326(17) 0.4446(8) 0.3114(12)
O8 O 0.648(2) 0.3677(11) 0.5083(15)
O9 O 0.50000 0.2861(11) 0.50000
O10 O 0.222(2) 0.444(1) 0.4130(14)
O11 O 0.1629(16) 0.3932(8) 0.5281(11)
O12 O 0.239(3) 0.50000 0.541(2)
O13 O 0.503(2) 0.50000 0.2980(17)
O14 O 0.4743(18) 0.3918(10) 0.2470(13)
O15 O 0.544(2) 0.4456(11) 0.4588(14)
O16 O 0.370(3) 0.50000 0.471(2)
O17 O 0.531(3) 0.1292(12) 0.890(2)
O18 O 0.5286(17) 0.2189(8) 0.8899(12)
O19 O 0.8086(17) 0.2123(9) 0.8949(12)
O20 O 0.7589(15) 0.2971(8) 0.8852(10)
N1 N 0.5160(17) 0.1772(9) 0.6223(13)
N2 N 0.772(2) 0.2530(12) 0.6223(15)
C1 C 0.5271(16) 0.2258(9) 0.6592(13)
H1 H 0.53140 0.25970 0.63320
C2 C 0.533(2) 0.2255(12) 0.7429(15)
H2 H 0.53580 0.25880 0.77160
C3 C 0.533(2) 0.1747(13) 0.7746(17)
C4 C 0.523(2) 0.1259(14) 0.7357(18)
H3 H 0.52210 0.09060 0.75900
C5 C 0.516(2) 0.1327(13) 0.6580(17)
H4 H 0.50960 0.09950 0.62860
C6 C 0.535(2) 0.1741(9) 0.8620(15)
C7 C 0.7934(18) 0.2077(10) 0.6620(12)
H5 H 0.80300 0.17420 0.63690
C8 C 0.803(2) 0.2063(11) 0.7384(16)
H6 H 0.81980 0.17240 0.76630
C9 C 0.787(2) 0.2550(11) 0.7753(14)
C10 C 0.764(2) 0.3025(12) 0.7361(15)
H7 H 0.75150 0.33620 0.75980
C11 C 0.7572(18) 0.2996(10) 0.6522(13)
H8 H 0.74220 0.33220 0.62140
C12 C 0.7822(18) 0.2564(10) 0.8600(12)
Ag5? Ag 0.50000 0.7622(5) 1.00000
Ag6? Ag 0.7358(7) 0.6891(3) -0.0028(5)
W1E W 0.48384(10) 0.57332(4) 0.32870(5)
W1A W 0.51616(10) 0.42668(4) 0.67130(5)
W1D W 0.51616(10) 0.57332(4) 0.67130(5)
W2A W 0.74543(11) 0.50000 0.65150(7)
W3A W 0.4896(8) 0.35528(8) 0.5093(5)
W3D W 0.4896(8) 0.64472(8) 0.5093(5)
W3E W 0.5104(8) 0.64472(8) 0.4907(5)
W4E W 0.27108(10) 0.57271(5) 0.51985(8)
W4A W 0.72892(10) 0.42729(5) 0.48015(8)
W4D W 0.72892(10) 0.57271(5) 0.48015(8)
Ag1D Ag 0.50000 0.82125(10) 0.50000
Ag1F Ag 0.00000 0.32125(10) 0.50000
Ag1B Ag 0.00000 0.67875(10) 0.50000
Ag1F* Ag 1.00000 0.32125(10) 0.50000
Ag1B* Ag 1.00000 0.67875(10) 0.50000
Ag2F Ag 0.7554(9) 0.2597(3) 0.4998(7)
Ag2F* Ag 0.7554(9) 0.2597(3) 1.4998(7)
Ag2* Ag 0.7446(9) 0.2403(3) -0.4998(7)
Ag2** Ag 0.7446(9) 0.2403(3) 1.5002(7)
Ag2F** Ag 0.7554(9) 0.2597(3) -0.5002(7)
Ag3* Ag 0.50000 0.2095(3) 0.00000
Ag3D Ag 0.50000 0.7905(3) 0.00000
Ag3D* Ag 0.50000 0.7905(3) 1.00000
Ag4F Ag 0.6881(4) 0.30039(18) -0.0157(2)
Ag4F* Ag 0.6881(4) 0.30039(18) 0.9843(2)
Ag4* Ag 0.8119(4) 0.19961(18) 0.0157(2)
O1* O 0.50000 0.1206(11) 0.00000
O2F O 0.520(2) 0.3512(11) -0.0959(15)
O2F* O 0.520(2) 0.3512(11) 0.9041(15)
O2* O 0.980(2) 0.1488(11) 0.0959(15)
O3A O 0.860(3) 0.50000 0.723(2)
O4A O 0.554(3) 0.50000 0.584(2)
O5A O 0.534(2) 0.3642(12) 0.6095(16)
O5E O 0.466(2) 0.6358(12) 0.3905(16)
O5D O 0.534(2) 0.6358(12) 0.6095(16)
O6A O 0.363(2) 0.4232(11) 0.6233(16)
O6E O 0.637(2) 0.5768(11) 0.3767(16)
O6D O 0.363(2) 0.5768(11) 0.6233(16)
O7E O 0.3326(17) 0.5554(8) 0.3114(12)
O7A O 0.6674(17) 0.4446(8) 0.6886(12)
O7D O 0.6674(17) 0.5554(8) 0.6886(12)
O8A O 0.352(2) 0.3677(11) 0.4917(15)
O8D O 0.352(2) 0.6323(11) 0.4917(15)
O8E O 0.648(2) 0.6323(11) 0.5083(15)
O9D O 0.50000 0.7139(11) 0.50000
O10E O 0.222(2) 0.556(1) 0.4130(14)
O10A O 0.778(2) 0.444(1) 0.5870(14)
O10D O 0.778(2) 0.556(1) 0.5870(14)
O11E O 0.1629(16) 0.6068(8) 0.5281(11)
O11A O 0.8371(16) 0.3932(8) 0.4719(11)
O11D O 0.8371(16) 0.6068(8) 0.4719(11)
O11G O 0.6629(16) 0.1068(8) 0.5281(11)
O11F O 0.3371(16) 0.1068(8) 0.4719(11)
O11C O 0.3371(16) 0.8932(8) 0.4719(11)
O11B O 0.6629(16) 0.8932(8) 0.5281(11)
O12A O 0.761(3) 0.50000 0.459(2)
O13A O 0.497(2) 0.50000 0.7020(17)
O14E O 0.4743(18) 0.6082(10) 0.2470(13)
O14A O 0.5257(18) 0.3918(10) 0.7530(13)
O14D O 0.5257(18) 0.6082(10) 0.7530(13)
O15A O 0.456(2) 0.4456(11) 0.5412(14)
O15D O 0.456(2) 0.5544(11) 0.5412(14)
O15E O 0.544(2) 0.5544(11) 0.4588(14)
O16A O 0.630(3) 0.50000 0.529(2)
O17A O 0.469(3) 0.1292(12) 0.110(2)
O17D O 0.469(3) 0.8708(12) 0.110(2)
O17E O 0.531(3) 0.8708(12) 0.890(2)
O18A O 0.4714(17) 0.2189(8) 0.1101(12)
O18D O 0.4714(17) 0.7811(8) 0.1101(12)
O18E O 0.5286(17) 0.7811(8) 0.8899(12)
O18A* O 0.4714(17) 0.2189(8) 1.1101(12)
O18* O 0.5286(17) 0.2189(8) -0.1101(12)
O19F O 0.6914(17) 0.2877(9) 0.1051(12)
O19F* O 0.6914(17) 0.2877(9) 1.1051(12)
O19* O 0.8086(17) 0.2123(9) -0.1051(12)
O20F O 0.7411(15) 0.2029(8) 0.1148(10)
O20F* O 0.7411(15) 0.2029(8) 1.1148(10)
O20* O 0.7589(15) 0.2971(8) -0.1148(10)
N1A N 0.4840(17) 0.1772(9) 0.3777(13)
N1D N 0.4840(17) 0.8228(9) 0.3777(13)
N1E N 0.5160(17) 0.8228(9) 0.6223(13)
N2F N 0.728(2) 0.2470(12) 0.3777(15)
N2F* N 0.728(2) 0.2470(12) 1.3777(15)
N2* N 0.772(2) 0.2530(12) -0.3777(15)
N2** N 0.772(2) 0.2530(12) 1.6223(15)
N2F** N 0.728(2) 0.2470(12) -0.6223(15)
C1A C 0.4729(16) 0.2258(9) 0.3408(13)
C1D C 0.4729(16) 0.7742(9) 0.3408(13)
C1E C 0.5271(16) 0.7742(9) 0.6592(13)
H1A H 0.46860 0.25970 0.36680
H1D H 0.46860 0.74030 0.36680
H1E H 0.53140 0.74030 0.63320
C2A C 0.467(2) 0.2255(12) 0.2571(15)
C2D C 0.467(2) 0.7745(12) 0.2571(15)
C2E C 0.533(2) 0.7745(12) 0.7429(15)
H2A H 0.46420 0.25880 0.22840
H2D H 0.46420 0.74120 0.22840
H2E H 0.53580 0.74120 0.77160
C3A C 0.467(2) 0.1747(13) 0.2254(17)
C3D C 0.467(2) 0.8253(13) 0.2254(17)
C3E C 0.533(2) 0.8253(13) 0.7746(17)
C4A C 0.477(2) 0.1259(14) 0.2643(18)
C4D C 0.477(2) 0.8741(14) 0.2643(18)
C4E C 0.523(2) 0.8741(14) 0.7357(18)
H3A H 0.47790 0.09060 0.24100
H3D H 0.47790 0.90940 0.24100
H3E H 0.52210 0.90940 0.75900
C5A C 0.484(2) 0.1327(13) 0.3420(17)
C5D C 0.484(2) 0.8673(13) 0.3420(17)
C5E C 0.516(2) 0.8673(13) 0.6580(17)
H4A H 0.49040 0.09950 0.37140
H4D H 0.49040 0.90050 0.37140
H4E H 0.50960 0.90050 0.62860
C6A C 0.465(2) 0.1741(9) 0.1380(15)
C6D C 0.465(2) 0.8259(9) 0.1380(15)
C6E C 0.535(2) 0.8259(9) 0.8620(15)
C7F C 0.7066(18) 0.2923(10) 0.3380(12)
C7F* C 0.7066(18) 0.2923(10) 1.3380(12)
C7* C 0.7934(18) 0.2077(10) -0.3380(12)
H5F H 0.69700 0.32580 0.36310
H5F* H 0.69700 0.32580 1.36310
H5* H 0.80300 0.17420 -0.36310
C8F C 0.697(2) 0.2937(11) 0.2616(16)
C8F* C 0.697(2) 0.2937(11) 1.2616(16)
C8* C 0.803(2) 0.2063(11) -0.2616(16)
H6F H 0.68020 0.32760 0.23370
H6F* H 0.68020 0.32760 1.23370
H6* H 0.81980 0.17240 -0.23370
C9F C 0.713(2) 0.2450(11) 0.2247(14)
C9F* C 0.713(2) 0.2450(11) 1.2247(14)
C9* C 0.787(2) 0.2550(11) -0.2247(14)
C10F C 0.736(2) 0.1975(12) 0.2639(15)
C10F* C 0.736(2) 0.1975(12) 1.2639(15)
C10* C 0.764(2) 0.3025(12) -0.2639(15)
H7F H 0.74850 0.16380 0.24020
H7F* H 0.74850 0.16380 1.24020
H7* H 0.75150 0.33620 -0.24020
C11F C 0.7428(18) 0.2004(10) 0.3478(13)
C11F* C 0.7428(18) 0.2004(10) 1.3478(13)
C11* C 0.7572(18) 0.2996(10) -0.3478(13)
H8F H 0.75780 0.16780 0.37860
H8F* H 0.75780 0.16780 1.37860
H8* H 0.74220 0.33220 -0.37860
C12F C 0.7178(18) 0.2436(10) 0.1400(12)
C12F* C 0.7178(18) 0.2436(10) 1.1400(12)
C12* C 0.7822(18) 0.2564(10) -0.1400(12)
#END
