
#######################################################################
#
#                 Cambridge Crystallographic Data Centre
#                                CCDC
#
#######################################################################
#
# If this CIF has been generated from an entry in the Cambridge
# Structural Database, then it will include bibliographic, chemical,
# crystal, experimental, refinement or atomic coordinate data resulting
# from the CCDC's data processing and validation procedures.
#
#######################################################################

data_CSD_CIF_ONEHEV
_audit_creation_date 2011-06-30
_audit_creation_method CSD-ConQuest-V1
_database_code_CSD ONEHEV
_database_code_depnum_ccdc_archive 'CCDC 784506'
_chemical_formula_sum 'C30 H42 N12 O22 S2 Zn3'
_chemical_formula_moiety
;
(H12 O6 Zn1 2+)n,n(C30 H26 N12 O14 S2 Zn2 2-),2n(H2 O1)
;
_journal_coden_Cambridge 155
_journal_volume 370
_journal_year 2011
_journal_page_first 230
_journal_name_full 'Inorg.Chim.Acta '
loop_
_publ_author_name
"Li Tian"
"Zheng Niu"
"Ning Yang"
"Ji-Yong Zou"
_chemical_name_systematic
;
catena-[(Hexa-aqua-zinc(ii)) 
bis(\m~2~-1,3-bis(1H-1,2,4-triazol-1-yl)propane-N^4^,N'^4^)-bis(\m~2~-5-sulfon
atobenzene-1,3-dicarboxylato-O,O')-di-zinc(ii) dihydrate]
;
_cell_volume   2166.300
_exptl_crystal_colour 'white'
_exptl_crystal_density_diffrn 1.814
_diffrn_ambient_temperature 150
#These two values have been output from a single CSD field.
_refine_ls_R_factor_gt 0.0454
_refine_ls_wR_factor_gt 0.0454
_symmetry_cell_setting monoclinic
_symmetry_space_group_name_H-M 'P 21/c'
_symmetry_Int_Tables_number 14
loop_
_symmetry_equiv_pos_site_id
_symmetry_equiv_pos_as_xyz
1 x,y,z
2 -x,1/2+y,1/2-z
3 -x,-y,-z
4 x,-1/2-y,-1/2+z
_cell_length_a 10.1907(5)
_cell_length_b 12.2584(5)
_cell_length_c 17.4174(8)
_cell_angle_alpha 90
_cell_angle_beta 95.359(4)
_cell_angle_gamma 90
_cell_formula_units_Z 2
loop_
_atom_type_symbol
_atom_type_radius_bond
C 0.68
H 0.23
N 0.68
O 0.68
S 1.02
Zn 1.22
loop_
_atom_site_label
_atom_site_type_symbol
_atom_site_fract_x
_atom_site_fract_y
_atom_site_fract_z
Zn1 Zn 0.53480(4) 0.34613(4) 0.03721(3)
Zn2 Zn 0.00000 0.50000 0.50000
C1 C 0.6246(4) 0.1490(3) 0.1345(2)
H1 H 0.69760 0.18430 0.15910
C2 C 0.4484(4) 0.1130(3) 0.0657(3)
H2 H 0.37290 0.12160 0.03190
C3 C 0.6728(4) -0.0397(3) 0.1853(2)
H3 H 0.75900 -0.01120 0.20330
H4 H 0.68550 -0.10160 0.15210
C4 C 0.6038(4) -0.0778(3) 0.2541(2)
H5 H 0.59290 -0.01540 0.28720
H6 H 0.66090 -0.12930 0.28320
C5 C 0.4694(4) -0.1313(3) 0.2355(2)
H7 H 0.43790 -0.15930 0.28260
H8 H 0.40670 -0.07740 0.21400
C6 C 0.5585(4) -0.3603(3) 0.1333(3)
H9 H 0.60600 -0.42390 0.12720
C7 C 0.4292(4) -0.2270(3) 0.1082(2)
H10 H 0.36990 -0.17780 0.08350
C8 C 0.9245(4) 0.4334(3) 0.0899(2)
C9 C 1.0378(4) 0.3898(3) 0.0649(2)
H11 H 1.03310 0.32390 0.03830
C10 C 1.1581(4) 0.4417(3) 0.0783(2)
C11 C 1.1637(4) 0.5421(3) 0.1175(2)
H12 H 1.24300 0.57960 0.12570
C12 C 1.0507(4) 0.5847(3) 0.1437(2)
C13 C 0.9306(4) 0.5312(3) 0.1302(2)
H13 H 0.85500 0.56070 0.14800
C14 C 0.7939(4) 0.3768(3) 0.0685(2)
C15 C 1.2782(4) 0.3907(3) 0.0493(2)
N1 N 0.5314(3) 0.1968(3) 0.0878(2)
N2 N 0.5988(3) 0.0440(3) 0.1409(2)
N3 N 0.4857(4) 0.0186(3) 0.0968(2)
N4 N 0.4781(3) -0.2205(3) 0.1806(2)
N5 N 0.5632(3) -0.3056(3) 0.1985(2)
N6 N 0.4771(3) -0.3144(3) 0.07547(19)
O1 O 0.6898(3) 0.4220(2) 0.08875(17)
O2 O 0.7911(3) 0.2918(2) 0.02960(16)
O3 O 1.2675(3) 0.3032(2) 0.01391(17)
O4 O 1.3888(3) 0.4404(2) 0.06436(16)
O5 O 1.1665(3) 0.7712(2) 0.1749(2)
O6 O 1.0785(4) 0.6721(3) 0.27805(18)
O7 O 0.9308(3) 0.7613(2) 0.1829(2)
O8 O -0.1459(3) 0.4661(3) 0.40972(18)
H14 H -0.14600 0.40370 0.38900
H15 H -0.17840 0.51470 0.37880
O9 O 0.1144(4) 0.3695(3) 0.4590(3)
H16 H 0.088(8) 0.341(7) 0.420(5)
H17 H 0.144(7) 0.330(6) 0.475(4)
O10 O 0.0883(3) 0.6051(2) 0.42977(18)
H18 H 0.11130 0.66730 0.44780
H19 H 0.05630 0.60950 0.38290
O11 O 0.2139(3) 0.1396(3) 0.1848(2)
H20 H 0.29130 0.15680 0.20230
H21 H 0.15280 0.17770 0.20150
S1 S 1.05823(10) 0.70741(8) 0.19919(6)
Zn1B Zn 0.46520(4) -0.34613(4) -0.03721(3)
Zn1* Zn 1.53480(4) 0.34613(4) 0.03721(3)
Zn1** Zn -0.46520(4) 0.34613(4) 0.03721(3)
C1B C 0.3754(4) -0.1490(3) -0.1345(2)
H1B H 0.30240 -0.18430 -0.15910
C2B C 0.5516(4) -0.1130(3) -0.0657(3)
H2B H 0.62710 -0.12160 -0.03190
C3B C 0.3272(4) 0.0397(3) -0.1853(2)
H3B H 0.24100 0.01120 -0.20330
H4B H 0.31450 0.10160 -0.15210
C4B C 0.3962(4) 0.0778(3) -0.2541(2)
H5B H 0.40710 0.01540 -0.28720
H6B H 0.33910 0.12930 -0.28320
C5B C 0.5306(4) 0.1313(3) -0.2355(2)
H7B H 0.56210 0.15930 -0.28260
H8B H 0.59330 0.07740 -0.21400
C6B C 0.4415(4) 0.3603(3) -0.1333(3)
H9B H 0.39400 0.42390 -0.12720
C7B C 0.5708(4) 0.2270(3) -0.1082(2)
H10B H 0.63010 0.17780 -0.08350
C8* C -0.0755(4) 0.4334(3) 0.0899(2)
C9* C 0.0378(4) 0.3898(3) 0.0649(2)
H11* H 0.03310 0.32390 0.03830
C10* C 0.1581(4) 0.4417(3) 0.0783(2)
C11* C 0.1637(4) 0.5421(3) 0.1175(2)
H12* H 0.24300 0.57960 0.12570
C12* C 0.0507(4) 0.5847(3) 0.1437(2)
C13* C -0.0694(4) 0.5312(3) 0.1302(2)
H13* H -0.14500 0.56070 0.14800
C14* C -0.2061(4) 0.3768(3) 0.0685(2)
C15* C 0.2782(4) 0.3907(3) 0.0493(2)
N1B N 0.4686(3) -0.1968(3) -0.0878(2)
N2B N 0.4012(3) -0.0440(3) -0.1409(2)
N3B N 0.5143(4) -0.0186(3) -0.0968(2)
N4B N 0.5219(3) 0.2205(3) -0.1806(2)
N5B N 0.4368(3) 0.3056(3) -0.1985(2)
N6B N 0.5229(3) 0.3144(3) -0.07547(19)
O1* O -0.3102(3) 0.4220(2) 0.08875(17)
O1B O 0.3102(3) -0.4220(2) -0.08875(17)
O2* O -0.2089(3) 0.2918(2) 0.02960(16)
O3* O 0.2675(3) 0.3032(2) 0.01391(17)
O4* O 0.3888(3) 0.4404(2) 0.06436(16)
O4B O 0.6112(3) -0.4404(2) -0.06436(16)
O5* O 0.1665(3) 0.7712(2) 0.1749(2)
O6* O 0.0785(4) 0.6721(3) 0.27805(18)
O7* O -0.0692(3) 0.7613(2) 0.1829(2)
O8B O 0.1459(3) 0.5339(3) 0.59028(18)
H14B H 0.14600 0.59630 0.61100
H15B H 0.17840 0.48530 0.62120
O9B O -0.1144(4) 0.6305(3) 0.5410(3)
H16B H -0.088(8) 0.659(7) 0.580(5)
H17B H -0.144(7) 0.670(6) 0.525(4)
O10B O -0.0883(3) 0.3949(2) 0.57023(18)
H18B H -0.11130 0.33270 0.55220
H19B H -0.05630 0.39050 0.61710
S1* S 0.05823(10) 0.70741(8) 0.19919(6)
#END
