
#######################################################################
#
#                 Cambridge Crystallographic Data Centre
#                                CCDC
#
#######################################################################
#
# If this CIF has been generated from an entry in the Cambridge
# Structural Database, then it will include bibliographic, chemical,
# crystal, experimental, refinement or atomic coordinate data resulting
# from the CCDC's data processing and validation procedures.
#
#######################################################################

data_CSD_CIF_ONEJUN
_audit_creation_date 2011-06-30
_audit_creation_method CSD-ConQuest-V1
_database_code_CSD ONEJUN
_database_code_depnum_ccdc_archive 'CCDC 780264'
_chemical_formula_sum 'C84 H78 Cu9 N24 O127 P4 W36'
_chemical_formula_moiety
;
(C20 H18 Cu1 N4 O1 2+)3n,n(C24 H24 Cu6 N12 O124 P4 W36 6-)
;
_journal_coden_Cambridge 155
_journal_volume 370
_journal_year 2011
_journal_page_first 260
_journal_name_full 'Inorg.Chim.Acta '
loop_
_publ_author_name
"Min Zhu"
"Jun Peng"
"Hai-Jun Pang"
"Peng-Peng Zhang"
"Yuan Chen"
"Dan-Dan Wang"
"Ming-Guan Liu"
"Yong-Hui Wang"
_chemical_name_systematic
;
catena-[tris(Aqua-bis(2,2'-bipyridine-N,N')-copper(ii)) 
tetrakis(\m~9~-phosphato)-octaheptacontakis(\m~2~-oxo)-hexakis(\m~2~-pyrazine-
N,N')-triaconta-oxo-hexa-copper(i)-hexatriaconta-tungsten(vi)]
;
_cell_volume  13622.188
_exptl_crystal_colour 'black'
_exptl_crystal_density_diffrn 3.936
_exptl_crystal_description 'block'
_diffrn_ambient_temperature 293
#These two values have been output from a single CSD field.
_refine_ls_R_factor_gt 0.0324
_refine_ls_wR_factor_gt 0.0324
_symmetry_cell_setting rhombohedral
_symmetry_space_group_name_H-M 'R 3 2'
_symmetry_Int_Tables_number 155
loop_
_symmetry_equiv_pos_site_id
_symmetry_equiv_pos_as_xyz
1 x,y,z
2 -y,x-y,z
3 -x+y,-x,z
4 x-y,-y,-z
5 -x,-x+y,-z
6 y,x,-z
7 2/3+x,1/3+y,1/3+z
8 2/3-y,1/3+x-y,1/3+z
9 2/3-x+y,1/3-x,1/3+z
10 2/3+x-y,1/3-y,1/3-z
11 2/3-x,1/3-x+y,1/3-z
12 2/3+y,1/3+x,1/3-z
13 1/3+x,2/3+y,2/3+z
14 1/3-y,2/3+x-y,2/3+z
15 1/3-x+y,2/3-x,2/3+z
16 1/3+x-y,2/3-y,2/3-z
17 1/3-x,2/3-x+y,2/3-z
18 1/3+y,2/3+x,2/3-z
_cell_length_a 21.4551(6)
_cell_length_b 21.4551(6)
_cell_length_c 34.1708(18)
_cell_angle_alpha 90
_cell_angle_beta 90
_cell_angle_gamma 120
_cell_formula_units_Z 3
loop_
_atom_type_symbol
_atom_type_radius_bond
C 0.68
H 0.23
Cu 1.32
N 0.68
O 0.68
P 1.05
W 1.39
loop_
_atom_site_label
_atom_site_type_symbol
_atom_site_fract_x
_atom_site_fract_y
_atom_site_fract_z
Cu1 Cu -0.66670 -0.0584(3) -0.33330
W1 W -0.70663(3) -0.26887(3) 0.067960(14)
W2 W -0.84226(3) -0.48180(3) -0.021750(15)
W3 W -0.70878(3) -0.27122(3) -0.220410(14)
W4 W -0.84279(3) -0.48129(3) -0.131670(14)
W5 W -0.82147(3) -0.31638(3) -0.020310(15)
W6 W -0.82061(3) -0.31553(3) -0.130660(14)
Cu2 Cu -0.20777(15) 0.00000 -0.50000
Cu3 Cu -0.84981(14) -0.18314(14) -0.16670
P1 P -0.66670 -0.33330 -0.01772(15)
P2 P -0.66670 -0.33330 -0.13448(15)
N1 N -0.2381(9) 0.0495(10) -0.5416(4)
N2 N -0.2461(8) -0.0755(10) -0.5384(5)
N3 N -0.7223(8) -0.0922(7) -0.2865(4)
N4 N -0.7982(6) -0.1488(6) -0.2176(3)
O1 O -0.8532(4) -0.4773(4) -0.0761(2)
O2 O -0.1106(7) 0.00000 -0.50000
O3 O -0.8796(4) -0.4187(4) -0.0131(2)
O4 O -0.8785(5) -0.4166(4) -0.1387(2)
O5 O -0.7739(5) -0.5105(5) -0.1213(2)
O6 O -0.7458(4) -0.3643(4) -0.1213(2)
O7 O -0.8348(4) -0.3281(4) -0.0760(2)
O8 O -0.7451(4) -0.3647(4) -0.0310(2)
O9 O -0.66670 -0.33330 0.0282(3)
O10 O -0.7856(5) -0.3068(4) 0.0316(2)
O11 O -0.7496(4) -0.3674(5) -0.2418(2)
O12 O -0.7730(5) -0.5112(5) -0.0307(2)
O13 O -0.7846(5) -0.3062(4) -0.1842(2)
O14 O -0.6571(5) -0.1946(5) 0.0312(2)
O15 O -0.7364(5) -0.2339(5) -0.2556(2)
O16 O -0.7324(5) -0.2297(5) 0.1024(2)
O17 O -0.7483(4) -0.3651(5) 0.0905(2)
O18 O -0.8829(5) -0.2885(4) -0.1415(3)
O19 O -0.8063(4) -0.4627(4) -0.1845(2)
O20 O -0.66670 -0.33330 -0.1803(3)
O21 O -0.9202(5) -0.5609(5) -0.1403(3)
O22 O -0.8837(5) -0.2912(5) -0.0117(3)
O23 O -0.9166(5) -0.5613(5) -0.0126(3)
C1 C -0.3003(14) -0.1675(15) -0.5965(7)
H1 H -0.31730 -0.19870 -0.61770
C2 C -0.3052(12) -0.1126(13) -0.6007(7)
H2 H -0.32730 -0.10580 -0.62230
C3 C -0.2980(15) 0.0933(15) -0.5992(8)
H3 H -0.31260 0.11080 -0.62010
C4 C -0.2331(13) 0.1146(16) -0.5409(7)
H4 H -0.20640 0.14630 -0.52090
C5 C -0.2653(16) 0.1366(16) -0.5678(7)
H5 H -0.26490 0.17990 -0.56470
C6 C -0.2753(11) -0.1904(12) -0.5670(9)
H6 H -0.27600 -0.23410 -0.56680
C7 C -0.2468(13) -0.1377(14) -0.5354(6)
H7 H -0.22890 -0.14770 -0.51300
C8 C -0.3090(11) 0.0289(13) -0.6005(6)
H8 H -0.33920 -0.00290 -0.61950
C9 C -0.6918(10) -0.0744(8) -0.2514(5)
H9 H -0.64250 -0.04260 -0.25000
C10 C -0.7911(11) -0.1371(12) -0.2871(5)
H10 H -0.81530 -0.15000 -0.31090
C11 C -0.7285(9) -0.1002(8) -0.2178(5)
H11 H -0.70450 -0.08350 -0.19410
C12 C -0.8284(8) -0.1657(9) -0.2530(4)
H12 H -0.87740 -0.19880 -0.25470
C13 C -0.2764(9) -0.0638(15) -0.5719(6)
C14 C -0.2737(10) 0.0050(15) -0.5719(5)
Cu1Q Cu -0.72507 -0.000033(300) -0.00003
Cu1M Cu -0.60827 0.058367(300) -0.66663
W1A W -0.73113(3) -0.43776(3) 0.067960(14)
W1B W -0.56224(3) -0.29337(3) 0.067960(14)
W1Q W -0.935537(30) -0.039963(30) -0.401293(14)
W1O W -1.104427(30) -0.064463(30) -0.401293(14)
W1P W -0.960037(30) 0.104427(30) -0.401293(14)
W2A W -0.51820(3) -0.36046(3) -0.021750(15)
W2B W -0.63954(3) -0.15774(3) -0.021750(15)
W2Q W -1.148467(30) -0.175593(30) -0.311583(15)
W2O W -1.027127(30) 0.148467(30) -0.311583(15)
W2P W -0.824407(30) 0.027127(30) -0.311583(15)
W3A W -0.72878(3) -0.43756(3) -0.220410(14)
W3B W -0.56244(3) -0.29122(3) -0.220410(14)
W3Q W -0.937887(30) -0.042113(30) -0.112923(14)
W3O W -1.104227(30) -0.062113(30) -0.112923(14)
W3P W -0.957887(30) 0.104227(30) -0.112923(14)
W4A W -0.51871(3) -0.36150(3) -0.131670(14)
W4B W -0.63850(3) -0.15721(3) -0.131670(14)
W4Q W -1.147957(30) -0.176123(30) -0.201663(14)
W4O W -1.028167(30) 0.147957(30) -0.201663(14)
W4P W -0.823877(30) 0.028167(30) -0.201663(14)
W5A W -0.68362(3) -0.50509(3) -0.020310(15)
W5B W -0.49491(3) -0.17853(3) -0.020310(15)
W5Q W -0.983047(30) -0.154803(30) -0.313023(15)
W5O W -1.171757(30) -0.016953(30) -0.313023(15)
W5P W -0.845197(30) 0.171757(30) -0.313023(15)
W6A W -0.68447(3) -0.50508(3) -0.130660(14)
W6B W -0.49492(3) -0.17939(3) -0.130660(14)
W6Q W -0.982197(30) -0.153943(30) -0.202673(14)
W6O W -1.171747(30) -0.017803(30) -0.202673(14)
W6P W -0.846057(30) 0.171747(30) -0.202673(14)
Cu3J Cu -0.483523(140) 0.000003(140) -0.49997
Cu3A Cu -0.81686(14) -0.66667(14) -0.16670
Cu3B Cu -0.33333(14) -0.15019(14) -0.16670
Cu3O Cu -1.333337(140) -0.150193(140) -0.16663
Cu3P Cu -0.816857(140) 0.333337(140) -0.16663
Cu3H Cu -0.666663(140) 0.183143(140) 0.16663
Cu3C Cu -0.66667(14) 0.18314(14) -0.83330
P1Q P -0.99997 -0.00003 -0.315613(150)
P2Q P -0.99997 -0.00003 -0.198853(150)
N1C N -0.2876(9) -0.0495(10) -0.4584(4)
N2C N -0.1706(8) 0.0755(10) -0.4616(5)
N3J N -0.611033(800) -0.036567(700) -0.380167(400)
N3Q N -0.758867(800) -0.055633(700) -0.046833(400)
N3M N -0.574467(800) 0.036567(700) -0.619833(400)
N3H N -0.703233(800) 0.055633(700) 0.046833(400)
N3C N -0.6301(8) 0.0922(7) -0.7135(4)
N4J N -0.535133(600) -0.017267(600) -0.449067(300)
N4Q N -0.815467(600) -0.131533(600) -0.115733(300)
N4M N -0.517867(600) 0.017267(600) -0.550933(300)
N4H N -0.683933(600) 0.131533(600) 0.115733(300)
N4C N -0.6494(6) 0.1488(6) -0.7824(3)
N4B N -0.3506(6) -0.2018(6) -0.2176(3)
N4O N -0.316067(600) -0.184533(600) -0.115733(300)
O1A O -0.5227(4) -0.3759(4) -0.0761(2)
O1B O -0.6241(4) -0.1468(4) -0.0761(2)
O1Q O -1.143967(400) -0.186533(400) -0.257233(200)
O1O O -1.042567(400) 0.143967(400) -0.257233(200)
O1P O -0.813467(400) 0.042567(400) -0.257233(200)
O3A O -0.5813(4) -0.4609(4) -0.0131(2)
O3B O -0.5391(4) -0.1204(4) -0.0131(2)
O3Q O -1.085367(400) -0.212933(400) -0.320233(200)
O3O O -1.127567(400) 0.085367(400) -0.320233(200)
O3P O -0.787067(400) 0.127567(400) -0.320233(200)
O4A O -0.5834(5) -0.4619(4) -0.1387(2)
O4B O -0.5381(5) -0.1215(4) -0.1387(2)
O4Q O -1.083267(500) -0.211833(400) -0.194633(200)
O4O O -1.128567(500) 0.083267(400) -0.194633(200)
O4P O -0.788167(500) 0.128567(400) -0.194633(200)
O5B O -0.7366(5) -0.2261(5) -0.1213(2)
O5A O -0.4895(5) -0.2634(5) -0.1213(2)
O5Q O -1.177167(500) -0.107233(500) -0.212033(200)
O5P O -0.892767(500) -0.069933(500) -0.212033(200)
O5O O -0.930067(500) 0.177167(500) -0.212033(200)
O6B O -0.6185(4) -0.2542(4) -0.1213(2)
O6A O -0.6357(4) -0.3815(4) -0.1213(2)
O6Q O -1.030967(400) -0.079133(400) -0.212033(200)
O6P O -0.920867(400) 0.048167(400) -0.212033(200)
O6O O -1.048167(400) 0.030967(400) -0.212033(200)
O7B O -0.4933(4) -0.1652(4) -0.0760(2)
O7A O -0.6719(4) -0.5067(4) -0.0760(2)
O7Q O -0.994767(400) -0.168133(400) -0.257333(200)
O7P O -0.831867(400) 0.173367(400) -0.257333(200)
O7O O -1.173367(400) -0.005233(400) -0.257333(200)
O8B O -0.6196(4) -0.2549(4) -0.0310(2)
O8A O -0.6353(4) -0.3804(4) -0.0310(2)
O8Q O -1.031367(400) -0.078433(400) -0.302333(200)
O8P O -0.921567(400) 0.047067(400) -0.302333(200)
O8O O -1.047067(400) 0.031367(400) -0.302333(200)
O9Q O -0.99997 -0.00003 -0.361533(300)
O10A O -0.6932(5) -0.4788(4) 0.0316(2)
O10B O -0.5212(5) -0.2144(4) 0.0316(2)
O10Q O -0.973467(500) -0.118933(400) -0.364933(200)
O10O O -1.145467(500) -0.026533(400) -0.364933(200)
O10P O -0.881067(500) 0.145467(400) -0.364933(200)
O11A O -0.6326(4) -0.3822(5) -0.2418(2)
O11B O -0.6178(4) -0.2504(5) -0.2418(2)
O11Q O -1.034067(400) -0.082933(500) -0.091533(200)
O11O O -1.048867(400) 0.034067(500) -0.091533(200)
O11P O -0.917067(400) 0.048867(500) -0.091533(200)
O12B O -0.7382(5) -0.2270(5) -0.0307(2)
O12A O -0.4888(5) -0.2618(5) -0.0307(2)
O12Q O -1.177867(500) -0.106333(500) -0.302633(200)
O12P O -0.893667(500) -0.071533(500) -0.302633(200)
O12O O -0.928467(500) 0.177867(500) -0.302633(200)
O13A O -0.6938(5) -0.4784(4) -0.1842(2)
O13B O -0.5216(5) -0.2154(4) -0.1842(2)
O13Q O -0.972867(500) -0.117933(400) -0.149133(200)
O13O O -1.145067(500) -0.027133(400) -0.149133(200)
O13P O -0.882067(500) 0.145067(400) -0.149133(200)
O14B O -0.5375(5) -0.3429(5) 0.0312(2)
O14A O -0.8054(5) -0.4625(5) 0.0312(2)
O14Q O -0.861267(500) 0.009567(500) -0.364533(200)
O14P O -1.009567(500) 0.129167(500) -0.364533(200)
O14O O -1.129167(500) -0.138733(500) -0.364533(200)
O15A O -0.7661(5) -0.5025(5) -0.2556(2)
O15B O -0.4975(5) -0.2636(5) -0.2556(2)
O15Q O -0.900567(500) -0.069733(500) -0.077733(200)
O15O O -1.169167(500) -0.099433(500) -0.077733(200)
O15P O -0.930267(500) 0.169167(500) -0.077733(200)
O16B O -0.4973(5) -0.2676(5) 0.1024(2)
O16A O -0.7703(5) -0.5027(5) 0.1024(2)
O16Q O -0.896367(500) -0.065733(500) -0.435733(200)
O16P O -0.934267(500) 0.169367(500) -0.435733(200)
O16O O -1.169367(500) -0.103633(500) -0.435733(200)
O17B O -0.6168(4) -0.2517(5) 0.0905(2)
O17A O -0.6349(4) -0.3832(5) 0.0905(2)
O17Q O -1.031767(400) -0.081633(500) -0.423833(200)
O17P O -0.918367(400) 0.049867(500) -0.423833(200)
O17O O -1.049867(400) 0.031767(500) -0.423833(200)
O18A O -0.7115(5) -0.5944(4) -0.1415(3)
O18B O -0.4056(5) -0.1171(4) -0.1415(3)
O18Q O -0.955167(500) -0.216233(400) -0.191833(300)
O18O O -1.261067(500) -0.044833(400) -0.191833(300)
O18P O -0.783767(500) 0.261067(400) -0.191833(300)
O18J O -0.450433(500) -0.072267(400) -0.525167(300)
O18M O -0.378167(500) 0.072267(400) -0.474833(300)
O18O* O -0.261067(500) -0.044833(400) -0.191833(300)
O19B O -0.6564(4) -0.1937(4) -0.1845(2)
O19A O -0.5373(4) -0.3436(4) -0.1845(2)
O19Q O -1.129367(400) -0.139633(400) -0.148833(200)
O19P O -0.860367(400) 0.010267(400) -0.148833(200)
O19O O -1.010267(400) 0.129367(400) -0.148833(200)
O20Q O -0.99997 -0.00003 -0.153033(300)
O21B O -0.6407(5) -0.0798(5) -0.1403(3)
O21A O -0.4391(5) -0.3593(5) -0.1403(3)
O21Q O -1.227567(500) -0.253533(500) -0.193033(300)
O21P O -0.746467(500) 0.025967(500) -0.193033(300)
O21O O -1.025967(500) 0.227567(500) -0.193033(300)
O22A O -0.7088(5) -0.5925(5) -0.0117(3)
O22B O -0.4075(5) -0.1163(5) -0.0117(3)
O22Q O -0.957867(500) -0.217033(500) -0.321633(300)
O22O O -1.259167(500) -0.042133(500) -0.321633(300)
O22P O -0.782967(500) 0.259167(500) -0.321633(300)
O23A O -0.4387(5) -0.3553(5) -0.0126(3)
O23B O -0.6447(5) -0.0834(5) -0.0126(3)
O23Q O -1.227967(500) -0.249933(500) -0.320733(300)
O23O O -1.021967(500) 0.227967(500) -0.320733(300)
O23P O -0.750067(500) 0.021967(500) -0.320733(300)
C1C C -0.1328(14) 0.1675(15) -0.4035(7)
H1C H -0.11860 0.19870 -0.38230
C2C C -0.1926(12) 0.1126(13) -0.3993(7)
H2C H -0.22150 0.10580 -0.37770
C3C C -0.3913(15) -0.0933(15) -0.4008(8)
H3C H -0.42340 -0.11080 -0.37990
C4C C -0.3477(13) -0.1146(16) -0.4591(7)
H4C H -0.35270 -0.14630 -0.47910
C5C C -0.4019(16) -0.1366(16) -0.4322(7)
H5C H -0.44480 -0.17990 -0.43530
C6C C -0.0849(11) 0.1904(12) -0.4330(9)
H6C H -0.04190 0.23410 -0.43320
C7C C -0.1091(13) 0.1377(14) -0.4646(6)
H7C H -0.08120 0.14770 -0.48700
C8C C -0.3379(11) -0.0289(13) -0.3995(6)
H8C H -0.33630 0.00290 -0.38050
C9J C -0.641533(1000) -0.049267(800) -0.415267(500)
C9Q C -0.741067(1000) -0.025133(800) -0.081933(500)
C9M C -0.592267(1000) 0.049267(800) -0.584733(500)
C9H C -0.715933(1000) 0.025133(800) 0.081933(500)
C9C C -0.6174(10) 0.0744(8) -0.7486(5)
H9J H -0.69083 -0.06677 -0.41667
H9Q H -0.70927 0.02417 -0.08333
H9M H -0.62407 0.06677 -0.58333
H9H H -0.73343 -0.02417 0.08333
H9C H -0.59990 0.04260 -0.75000
C10J C -0.542233(1100) -0.012667(1200) -0.379567(500)
C10Q C -0.803767(1100) -0.124433(1200) -0.046233(500)
C10M C -0.529567(1100) 0.012667(1200) -0.620433(500)
C10H C -0.679333(1100) 0.124433(1200) 0.046233(500)
C10C C -0.6540(11) 0.1371(12) -0.7129(5)
H10J H -0.51803 -0.00137 -0.35577
H10Q H -0.81667 -0.14863 -0.02243
H10M H -0.51667 0.00137 -0.64423
H10H H -0.66803 0.14863 0.02243
H10C H -0.66530 0.15000 -0.68910
C11J C -0.604833(900) -0.038367(800) -0.448867(500)
C11Q C -0.766867(900) -0.061833(800) -0.115533(500)
C11M C -0.566467(900) 0.038367(800) -0.551133(500)
C11H C -0.705033(900) 0.061833(800) 0.115533(500)
C11C C -0.6283(9) 0.1002(8) -0.7822(5)
H11J H -0.62883 -0.04567 -0.47257
H11Q H -0.75017 -0.03783 -0.13923
H11M H -0.58317 0.04567 -0.52743
H11H H -0.71233 0.03783 0.13923
H11C H -0.62100 0.08350 -0.80590
C12J C -0.504933(800) -0.003967(900) -0.413667(400)
C12Q C -0.832367(800) -0.161733(900) -0.080333(400)
C12M C -0.500967(800) 0.003967(900) -0.586333(400)
C12H C -0.670633(800) 0.161733(900) 0.080333(400)
C12C C -0.6627(8) 0.1657(9) -0.7470(4)
H12J H -0.45593 0.01193 -0.41197
H12Q H -0.86547 -0.21073 -0.07863
H12M H -0.46787 -0.01193 -0.58803
H12H H -0.65473 0.21073 0.07863
H12C H -0.67860 0.19880 -0.74530
C13C C -0.2126(9) 0.0638(15) -0.4281(6)
C14C C -0.2787(10) -0.0050(15) -0.4281(5)
#END
