
#######################################################################
#
#                 Cambridge Crystallographic Data Centre
#                                CCDC
#
#######################################################################
#
# If this CIF has been generated from an entry in the Cambridge
# Structural Database, then it will include bibliographic, chemical,
# crystal, experimental, refinement or atomic coordinate data resulting
# from the CCDC's data processing and validation procedures.
#
#######################################################################

data_CSD_CIF_ONUQOE
_audit_creation_date 2011-06-30
_audit_creation_method CSD-ConQuest-V1
_database_code_CSD ONUQOE
_database_code_depnum_ccdc_archive 'CCDC 735496'
_chemical_formula_sum 'C73 H66 Cd3 N2 O20 S8'
_chemical_formula_moiety
;
(C56 H32 Cd3 O16 S8 2-)n,2n(C7 H10 N1 1+),3n(C1 H4 O1),n(H2 O1)
;
_journal_coden_Cambridge 29
_journal_volume 636
_journal_year 2010
_journal_page_first 616
_journal_name_full 'Z.Anorg.Allg.Chem. '
loop_
_publ_author_name
"Min Hu"
"Song-Tao Ma"
"Liang-Qi Guo"
"Li-Ming Zhou"
"Li-Jun Gao"
"Shao-Ming Fang"
"Chun-Sen Liu"
_chemical_name_systematic
;
catena-[bis(2,6-Dimethylpyridinium) 
bis(\m~4~-2,2'-dithiodibenzoato)-bis(\m~3~-2,2'-dithiodibenzoato)-tri-cadmium 
methanol solvate monohydrate]
;
_cell_volume   3902.068
_exptl_crystal_colour 'colorless'
_exptl_crystal_density_diffrn 1.604
_exptl_crystal_description 'prism'
_diffrn_ambient_temperature 273
#These two values have been output from a single CSD field.
_refine_ls_R_factor_gt 0.0705
_refine_ls_wR_factor_gt 0.0705
_symmetry_cell_setting monoclinic
_symmetry_space_group_name_H-M 'P 21/n'
_symmetry_Int_Tables_number 14
loop_
_symmetry_equiv_pos_site_id
_symmetry_equiv_pos_as_xyz
1 x,y,z
2 1/2-x,1/2+y,1/2-z
3 -x,-y,-z
4 -1/2+x,-1/2-y,-1/2+z
_cell_length_a 12.236(4)
_cell_length_b 27.179(8)
_cell_length_c 12.467(4)
_cell_angle_alpha 90
_cell_angle_beta 109.754(4)
_cell_angle_gamma 90
_cell_formula_units_Z 2
loop_
_atom_type_symbol
_atom_type_radius_bond
C 0.68
H 0.23
Cd 1.53
N 0.68
O 0.68
S 1.02
loop_
_atom_site_label
_atom_site_type_symbol
_atom_site_fract_x
_atom_site_fract_y
_atom_site_fract_z
Cd1 Cd 0.90407(6) 0.10873(3) 1.09917(6)
Cd2 Cd 0.50000 0.50000 0.50000
C1 C 0.9175(9) 0.2064(4) 1.1038(10)
C2 C 0.9456(9) 0.2605(4) 1.1139(9)
C3 C 1.0164(9) 0.2796(4) 1.2161(9)
H1 H 1.04200 0.25880 1.27890
C4 C 1.0518(11) 0.3292(4) 1.2295(11)
H2 H 1.09870 0.34130 1.29980
C5 C 1.0149(10) 0.3588(4) 1.1362(11)
H3 H 1.03850 0.39150 1.14170
C6 C 0.9430(9) 0.3406(4) 1.0337(10)
H4 H 0.91720 0.36170 0.97140
C7 C 0.9074(8) 0.2915(4) 1.0202(9)
C8 C 0.6624(9) 0.4096(4) 0.6112(9)
C9 C 0.7806(8) 0.3879(3) 0.6417(8)
C10 C 0.8217(8) 0.3514(4) 0.7253(8)
C11 C 0.9359(10) 0.3330(4) 0.7485(10)
H5 H 0.96270 0.30830 0.80250
C12 C 1.0078(9) 0.3507(4) 0.6938(10)
H6 H 1.08250 0.33820 0.71070
C13 C 0.9677(9) 0.3874(4) 0.6131(10)
H7 H 1.01520 0.40000 0.57510
C14 C 0.8563(9) 0.4051(4) 0.5897(9)
H8 H 0.83090 0.43000 0.53580
C15 C 0.7452(9) 0.5632(4) 0.5924(9)
C16 C 0.8135(8) 0.5331(3) 0.6943(8)
C17 C 0.7564(9) 0.5138(4) 0.7622(8)
H9 H 0.67790 0.52100 0.74470
C18 C 0.8089(11) 0.4848(4) 0.8538(9)
H10 H 0.76810 0.47280 0.89910
C19 C 0.9247(10) 0.4736(4) 0.8775(9)
H11 H 0.96250 0.45380 0.93990
C20 C 0.9842(9) 0.4911(4) 0.8113(8)
H12 H 1.06220 0.48300 0.82870
C21 C 0.9291(9) 0.5211(3) 0.7169(8)
C22 C 1.2579(8) 0.5309(4) 0.7825(9)
C23 C 1.2341(10) 0.5651(4) 0.8553(9)
H13 H 1.15720 0.57310 0.84480
C24 C 1.3211(11) 0.5872(4) 0.9418(10)
H14 H 1.30320 0.60980 0.98940
C25 C 1.4342(10) 0.5757(4) 0.9576(11)
H15 H 1.49340 0.59050 1.01640
C26 C 1.4612(10) 0.5430(4) 0.8884(10)
H16 H 1.53860 0.53570 0.89990
C27 C 1.3741(8) 0.5202(3) 0.8003(8)
C28 C 1.4065(9) 0.4838(4) 0.7249(8)
C29 C 0.9023(17) 0.7533(6) 0.4359(15)
H17 H 0.82680 0.74480 0.43760
H18 H 0.94740 0.76790 0.50730
H19 H 0.94060 0.72410 0.42330
C30 C 0.8903(10) 0.7890(3) 0.3420(9)
C31 C 0.7852(8) 0.8079(5) 0.2707(12)
H20 H 0.71590 0.79740 0.27850
C32 C 0.7838(11) 0.8423(5) 0.1878(10)
H21 H 0.71350 0.85490 0.14010
C33 C 0.8874(15) 0.8579(3) 0.1762(7)
H22 H 0.88640 0.88090 0.12070
C34 C 0.9924(11) 0.8390(3) 0.2474(9)
N1 N 0.9939(8) 0.8046(3) 0.3303(7)
H23 H 1.05890 0.79290 0.37440
C35 C 1.1168(18) 0.8519(6) 0.2514(14)
H24 H 1.17190 0.83290 0.31000
H25 H 1.13100 0.88630 0.26770
H26 H 1.12470 0.84450 0.17910
C36 C 0.2981(16) 0.7562(8) 0.4730(18)
H27 H 0.31800 0.78280 0.43220
H28 H 0.29920 0.72580 0.43440
H29 H 0.35340 0.75480 0.54880
C37 C 0.776(3) 0.5881(10) 0.054(2)
H30 H 0.76670 0.61130 -0.00650
H31 H 0.74370 0.55700 0.02260
H32 H 0.85710 0.58410 0.09650
O1 O 0.9105(7) 0.1844(2) 1.1895(7)
O2 O 0.6990(17) 0.6888(8) 0.1610(14)
H33 H 0.64220 0.70830 0.13300
H34 H 0.69570 0.65770 0.16540
O3 O 0.9111(7) 0.1856(3) 1.0143(7)
O4 O 0.7968(6) 0.5896(3) 0.5440(6)
O5 O 0.6347(6) 0.5609(2) 0.5592(6)
O6 O 1.4747(7) 0.4971(3) 0.6765(6)
O7 O 1.3632(6) 0.4416(3) 0.7176(6)
O8 O 0.5977(6) 0.3922(3) 0.6610(7)
O9 O 0.6361(6) 0.4431(2) 0.5362(6)
O10 O 0.1856(11) 0.7642(6) 0.4782(14)
H35 H 0.17980 0.79290 0.49620
O11 O 0.7187(17) 0.6054(9) 0.1262(17)
H36 H 0.68060 0.62990 0.09790
S1 S 1.1514(2) 0.50155(11) 0.6670(2)
S2 S 1.0067(2) 0.54436(11) 0.6299(2)
S3 S 0.7284(2) 0.32799(10) 0.7970(3)
S4 S 0.8150(3) 0.26829(10) 0.8865(2)
Cd1B Cd 0.09593(6) 0.89127(3) -0.09917(6)
Cd1A Cd 0.59593(6) 0.60873(3) 0.40083(6)
Cd1C Cd 1.40407(6) 0.39127(3) 0.59917(6)
Cd1C* Cd 0.40407(6) 0.39127(3) 0.59917(6)
Cd1A* Cd -0.40407(6) 0.60873(3) 0.40083(6)
Cd2* Cd 1.50000 0.50000 0.50000
Cd2** Cd -0.50000 0.50000 0.50000
C1B C 0.0825(9) 0.7936(4) -0.1038(10)
C2B C 0.0544(9) 0.7395(4) -0.1139(9)
C3B C -0.0164(9) 0.7204(4) -0.2161(9)
H1B H -0.04200 0.74120 -0.27890
C4B C -0.0518(11) 0.6708(4) -0.2295(11)
H2B H -0.09870 0.65870 -0.29980
C5B C -0.0149(10) 0.6412(4) -0.1362(11)
H3B H -0.03850 0.60850 -0.14170
C6B C 0.0570(9) 0.6594(4) -0.0337(10)
H4B H 0.08280 0.63830 0.02860
C7B C 0.0926(8) 0.7085(4) -0.0202(9)
C8B C 0.3376(9) 0.5904(4) 0.3888(9)
C9B C 0.2194(8) 0.6121(3) 0.3583(8)
C10B C 0.1783(8) 0.6486(4) 0.2747(8)
C11B C 0.0641(10) 0.6670(4) 0.2515(10)
H5B H 0.03730 0.69170 0.19750
C12B C -0.0078(9) 0.6493(4) 0.3062(10)
H6B H -0.08250 0.66180 0.28930
C13B C 0.0323(9) 0.6126(4) 0.3869(10)
H7B H -0.01520 0.60000 0.42490
C14B C 0.1437(9) 0.5949(4) 0.4103(9)
H8B H 0.16910 0.57000 0.46420
C15B C 0.2548(9) 0.4368(4) 0.4076(9)
C16B C 0.1865(8) 0.4669(3) 0.3057(8)
C17B C 0.2436(9) 0.4862(4) 0.2378(8)
H9B H 0.32210 0.47900 0.25530
C18B C 0.1911(11) 0.5152(4) 0.1462(9)
H10B H 0.23190 0.52720 0.10090
C19B C 0.0753(10) 0.5264(4) 0.1225(9)
H11B H 0.03750 0.54620 0.06010
C20B C 0.0158(9) 0.5089(4) 0.1887(8)
H12B H -0.06220 0.51700 0.17130
C21B C 0.0709(9) 0.4789(3) 0.2831(8)
C22B C -0.2579(8) 0.4691(4) 0.2175(9)
C23B C -0.2341(10) 0.4349(4) 0.1447(9)
H13B H -0.15720 0.42690 0.15520
C24B C -0.3211(11) 0.4128(4) 0.0582(10)
H14B H -0.30320 0.39020 0.01060
C25B C -0.4342(10) 0.4243(4) 0.0424(11)
H15B H -0.49340 0.40950 -0.01640
C26B C -0.4612(10) 0.4570(4) 0.1116(10)
H16B H -0.53860 0.46430 0.10010
C27B C -0.3741(8) 0.4798(3) 0.1997(8)
C28B C -0.4065(9) 0.5162(4) 0.2751(8)
O1B O 0.0895(7) 0.8156(2) -0.1895(7)
O3B O 0.0889(7) 0.8144(3) -0.0143(7)
O4B O 0.2032(6) 0.4104(3) 0.4560(6)
O4A O 0.7032(6) 0.0896(3) 0.9560(6)
O4C O 0.2968(6) 0.9104(3) 0.0440(6)
O5B O 0.3653(6) 0.4391(2) 0.4408(6)
O5A O 0.8653(6) 0.0609(2) 0.9408(6)
O5C O 0.1347(6) 0.9391(2) 0.0592(6)
O6B O -0.4747(7) 0.5029(3) 0.3235(6)
O6* O 0.4747(7) 0.4971(3) 0.6765(6)
O6B* O 0.5253(7) 0.5029(3) 0.3235(6)
O7B O -0.3632(6) 0.5584(3) 0.2824(6)
O7C O 0.8632(6) 0.0584(3) 1.2176(6)
O7A O 0.1368(6) 0.9416(3) -0.2176(6)
O8B O 0.4023(6) 0.6078(3) 0.3390(7)
O8C O 1.0977(6) 0.1078(3) 1.1610(7)
O8A O -0.0977(6) 0.8922(3) -0.1610(7)
O9B O 0.3639(6) 0.5569(2) 0.4638(6)
S1B S -0.1514(2) 0.49845(11) 0.3330(2)
S2B S -0.0067(2) 0.45564(11) 0.3701(2)
S3B S 0.2716(2) 0.67201(10) 0.2030(3)
S4B S 0.1850(3) 0.73171(10) 0.1135(2)
#END
