
#######################################################################
#
#                 Cambridge Crystallographic Data Centre
#                                CCDC
#
#######################################################################
#
# If this CIF has been generated from an entry in the Cambridge
# Structural Database, then it will include bibliographic, chemical,
# crystal, experimental, refinement or atomic coordinate data resulting
# from the CCDC's data processing and validation procedures.
#
#######################################################################

data_CSD_CIF_ONUVIF
_audit_creation_date 2021-03-17
_audit_creation_method CSD-ConQuest-V1
_database_code_CSD ONUVIF
_database_code_depnum_ccdc_archive 'CCDC 1959646'
_chemical_formula_sum 'C36 H80 Eu1 N3 O46 P6 U6'
_chemical_formula_moiety
;
(C12 H20 Eu1 O46 P6 U6 3-)n,3(C8 H20 N1 1+)
;
_journal_coden_Cambridge 1440
_journal_volume 12
_journal_year 2020
_journal_page_first 16648
_journal_name_full 'ACS Applied Materials and Interfaces '
loop_
_publ_author_name
"Yugang Zhang"
"Lanhua Chen"
"Zhiyong Liu"
"Wei Liu"
"Mengjia Yuan"
"Jie Shu"
"Ning Wang"
"Linwei He"
"Jiarong Zhang"
"Jian Xie"
"Xijian Chen"
"Juan Diwu"
_chemical_name_systematic
;
catena-[tris(tetraethylammonium) 
hexakis(\m-phosphonatoacetato)-tetra-aqua-dodecaoxo-europium(iii)-hexa-uranium
(vi)]
;
_chemical_name_common
;
SCU-UEu-1
;
_cell_volume   7099.707
_exptl_crystal_colour 'yellow'
_exptl_special_details
;
Luminescent

;
_exptl_crystal_description 'bulk'
_diffrn_ambient_temperature 173
#These two values have been output from a single CSD field.
_refine_ls_R_factor_gt 0.0365
_refine_ls_wR_factor_gt 0.0365
_symmetry_cell_setting monoclinic
_symmetry_space_group_name_H-M 'C 2/c'
_symmetry_Int_Tables_number 15
loop_
_symmetry_equiv_pos_site_id
_symmetry_equiv_pos_as_xyz
1 x,y,z
2 -x,y,1/2-z
3 1/2+x,1/2+y,z
4 1/2-x,1/2+y,1/2-z
5 -x,-y,-z
6 x,-y,-1/2+z
7 -1/2-x,-1/2-y,-z
8 -1/2+x,-1/2-y,-1/2+z
_cell_length_a 11.485(4)
_cell_length_b 17.736(6)
_cell_length_c 34.901(12)
_cell_angle_alpha 90
_cell_angle_beta 92.971(9)
_cell_angle_gamma 90
_cell_formula_units_Z 4
loop_
_atom_type_symbol
_atom_type_radius_bond
C 0.68
H 0.23
Eu 1.98
N 0.68
O 0.68
P 1.05
U 1.96
loop_
_atom_site_label
_atom_site_type_symbol
_atom_site_fract_x
_atom_site_fract_y
_atom_site_fract_z
U1 U 0.54070(3) 0.55114(2) 0.42756(2)
U2 U 0.29641(3) 0.25435(2) 0.41360(2)
U3 U 0.22882(3) 0.69801(2) 0.24102(2)
Eu1 Eu 0.00000 0.92627(3) 0.25000
P1 P 0.38439(18) 0.41138(11) 0.47363(5)
P2 P 0.08219(19) 0.81917(11) 0.17198(6)
P3 P 0.63785(18) 0.63597(11) 0.34301(6)
O1 O 0.4685(5) 0.4130(3) 0.50874(15)
O2 O 0.3861(5) 0.4823(3) 0.44871(15)
O3 O 0.1188(5) 0.7454(3) 0.19086(17)
O4 O -0.2118(6) 0.7300(4) 0.19027(18)
O5 O -0.1133(5) 0.8094(3) 0.22765(17)
O6 O 0.4847(5) 0.5328(3) 0.29458(16)
O7 O 0.1440(5) 0.8352(3) 0.13481(15)
O8 O 0.4415(5) 0.4812(3) 0.37353(16)
O9 O 0.4013(5) 0.3406(3) 0.44992(15)
O10 O 0.6371(5) 0.4750(3) 0.43934(16)
O11 O 0.6787(5) 0.7064(3) 0.36413(16)
O12 O 0.1657(5) 0.2989(3) 0.52115(16)
O13 O 0.0948(5) 0.8864(3) 0.19834(16)
O14 O 0.4469(5) 0.6279(3) 0.41511(16)
O15 O 0.2939(5) 0.3619(3) 0.55652(15)
O16 O 0.4187(5) 0.1982(3) 0.40325(17)
O17 O 0.1199(5) 0.6298(4) 0.24859(18)
O18 O 0.1726(5) 0.3085(3) 0.42430(16)
O19 O 0.7113(5) 0.6192(3) 0.30821(15)
O20 O 0.6348(5) 0.5685(3) 0.37010(15)
O21 O 0.3409(6) 0.7644(4) 0.2343(2)
C1 C 0.2314(7) 0.3539(4) 0.5246(2)
O22 O 0.1913(6) 0.9718(4) 0.27558(19)
C2 C -0.1377(7) 0.7820(5) 0.1943(2)
O23 O 0.3585(6) 0.6156(4) 0.2732(2)
C3 C -0.0729(7) 0.8092(5) 0.1601(2)
H1 H -0.10510 0.85840 0.15140
H2 H -0.08480 0.77280 0.13870
C4 C 0.4420(7) 0.5968(4) 0.2950(2)
C5 C 0.2406(7) 0.4118(4) 0.4936(2)
H3 H 0.22520 0.46240 0.50420
H4 H 0.18060 0.40160 0.47280
C6 C 0.4903(7) 0.6549(5) 0.3230(2)
H5 H 0.43730 0.65880 0.34440
H6 H 0.49020 0.70440 0.30990
N1 N 0.75000 0.25000 0.50000
C7 C 0.643(2) 0.1303(15) 0.4799(7)
H7 H 0.65160 0.07720 0.47280
H8 H 0.59670 0.13370 0.50270
H9 H 0.60270 0.15760 0.45860
C8 C 0.766(3) 0.1659(10) 0.4888(9)
C9 C 0.685(3) 0.2855(17) 0.4643(7)
C10 C 0.776(3) 0.2857(17) 0.4331(8)
H10 H 0.74110 0.30750 0.40940
H11 H 0.84360 0.31580 0.44200
H12 H 0.80070 0.23380 0.42830
N2 N 0.0269(7) 0.4792(5) 0.3547(2)
C11 C 0.1746(13) 0.5832(8) 0.3702(4)
H13 H 0.25270 0.59090 0.38230
H14 H 0.17350 0.59970 0.34340
H15 H 0.11780 0.61260 0.38400
C12 C -0.0725(15) 0.5172(10) 0.3723(4)
H16 H -0.14620 0.49860 0.35970
H17 H -0.06770 0.57200 0.36730
C13 C -0.0763(14) 0.5043(9) 0.4161(4)
H18 H -0.14360 0.53080 0.42580
H19 H -0.08310 0.45020 0.42130
H20 H -0.00460 0.52380 0.42900
C14 C 0.1425(15) 0.4983(8) 0.3719(5)
H21 H 0.20180 0.46920 0.35850
H22 H 0.14630 0.48210 0.39910
C15 C 0.0198(16) 0.5014(11) 0.3124(5)
H23 H 0.03280 0.55630 0.31000
H24 H -0.05890 0.48960 0.30100
C16 C 0.1127(15) 0.4579(10) 0.2906(5)
H25 H 0.10750 0.47250 0.26350
H26 H 0.19050 0.47010 0.30180
H27 H 0.09900 0.40360 0.29280
C17 C -0.1033(16) 0.3661(11) 0.3386(6)
H28 H -0.10760 0.31100 0.34040
H29 H -0.16710 0.38860 0.35220
H30 H -0.11000 0.38110 0.31150
C18 C 0.0144(14) 0.3935(9) 0.3567(5)
H31 H 0.02150 0.37730 0.38380
H32 H 0.07850 0.36980 0.34310
U1A U -0.54070(3) 0.55114(2) 0.07244(2)
U2A U -0.29641(3) 0.25435(2) 0.08640(2)
U3A U -0.22882(3) 0.69801(2) 0.25898(2)
P1A P -0.38439(18) 0.41138(11) 0.02637(5)
P2A P -0.08219(19) 0.81917(11) 0.32802(6)
P3A P -0.63785(18) 0.63597(11) 0.15699(6)
O1A O -0.4685(5) 0.4130(3) -0.00874(15)
O2A O -0.3861(5) 0.4823(3) 0.05129(15)
O3A O -0.1188(5) 0.7454(3) 0.30914(17)
O4A O 0.2118(6) 0.7300(4) 0.30973(18)
O5A O 0.1133(5) 0.8094(3) 0.27235(17)
O6A O -0.4847(5) 0.5328(3) 0.20542(16)
O7A O -0.1440(5) 0.8352(3) 0.36519(15)
O8A O -0.4415(5) 0.4812(3) 0.12647(16)
O9A O -0.4013(5) 0.3406(3) 0.05008(15)
O10A O -0.6371(5) 0.4750(3) 0.06066(16)
O11A O -0.6787(5) 0.7064(3) 0.13587(16)
O12A O -0.1657(5) 0.2989(3) -0.02115(16)
O13A O -0.0948(5) 0.8864(3) 0.30166(16)
O14A O -0.4469(5) 0.6279(3) 0.08489(16)
O15A O -0.2939(5) 0.3619(3) -0.05652(15)
O16A O -0.4187(5) 0.1982(3) 0.09675(17)
O17A O -0.1199(5) 0.6298(4) 0.25141(18)
O18A O -0.1726(5) 0.3085(3) 0.07570(16)
O19A O -0.7113(5) 0.6192(3) 0.19179(15)
O20A O -0.6348(5) 0.5685(3) 0.12990(15)
O21A O -0.3409(6) 0.7644(4) 0.2657(2)
C1A C -0.2314(7) 0.3539(4) -0.0246(2)
O22A O -0.1913(6) 0.9718(4) 0.22442(19)
C2A C 0.1377(7) 0.7820(5) 0.3057(2)
O23A O -0.3585(6) 0.6156(4) 0.2268(2)
C3A C 0.0729(7) 0.8092(5) 0.3399(2)
H1A H 0.10510 0.85840 0.34860
H2A H 0.08480 0.77280 0.36130
C4A C -0.4420(7) 0.5968(4) 0.2050(2)
C5A C -0.2406(7) 0.4118(4) 0.0064(2)
H3A H -0.22520 0.46240 -0.00420
H4A H -0.18060 0.40160 0.02720
C6A C -0.4903(7) 0.6549(5) 0.1770(2)
H5A H -0.43730 0.65880 0.15560
H6A H -0.49020 0.70440 0.19010
U1D U 0.45930(3) 0.44886(2) 0.57244(2)
U1E U -0.45930(3) 0.44886(2) -0.07244(2)
U2B U -0.20359(3) 0.75435(2) 0.41360(2)
U2B* U 0.79641(3) 0.75435(2) 0.41360(2)
U2C U -0.79641(3) 0.75435(2) 0.08640(2)
U2C* U 0.20359(3) 0.75435(2) 0.08640(2)
U2F U 0.20359(3) 0.24565(2) 0.58640(2)
U2G U -0.20359(3) 0.24565(2) -0.08640(2)
U3* U -0.77118(3) 0.69801(2) 0.24102(2)
U3A* U 0.77118(3) 0.69801(2) 0.25898(2)
Eu1B Eu -0.50000 0.42627(3) 0.25000
Eu1B* Eu 0.50000 0.42627(3) 0.25000
O1D O 0.5315(5) 0.5870(3) 0.49126(15)
O1E O -0.5315(5) 0.5870(3) 0.00874(15)
O6B O -0.0153(5) 1.0328(3) 0.29458(16)
O6C O 0.0153(5) 1.0328(3) 0.20542(16)
O7B O -0.3560(5) 0.3352(3) 0.13481(15)
O7C O 0.3560(5) 0.3352(3) 0.36519(15)
O11B O 0.1787(5) 0.2064(3) 0.36413(16)
O11C O -0.1787(5) 0.2064(3) 0.13587(16)
O12F O 0.3343(5) 0.2011(3) 0.47885(16)
O12G O -0.3343(5) 0.2011(3) 0.02115(16)
O15D O 0.7061(5) 0.6381(3) 0.44348(15)
O15E O -0.7061(5) 0.6381(3) 0.05652(15)
O15F O 0.2061(5) 0.1381(3) 0.44348(15)
O15G O -0.2061(5) 0.1381(3) 0.05652(15)
O19* O -0.2887(5) 0.6192(3) 0.30821(15)
O19A* O 0.2887(5) 0.6192(3) 0.19179(15)
C7F C 0.857(2) 0.3697(15) 0.5201(7)
H7F H 0.84840 0.42280 0.52720
H8F H 0.90330 0.36630 0.49730
H9F H 0.89730 0.34240 0.54140
C8F C 0.734(3) 0.3341(10) 0.5112(9)
C9F C 0.815(3) 0.2145(17) 0.5357(7)
C10F C 0.724(3) 0.2143(17) 0.5669(8)
H10F H 0.75890 0.19250 0.59060
H11F H 0.65640 0.18420 0.55800
H12F H 0.69930 0.26620 0.57170
#END
