
#######################################################################
#
#                 Cambridge Crystallographic Data Centre
#                                CCDC
#
#######################################################################
#
# If this CIF has been generated from an entry in the Cambridge
# Structural Database, then it will include bibliographic, chemical,
# crystal, experimental, refinement or atomic coordinate data resulting
# from the CCDC's data processing and validation procedures.
#
#######################################################################

data_CSD_CIF_ONUXON
_audit_creation_date 2021-03-17
_audit_creation_method CSD-ConQuest-V1
_database_code_CSD ONUXON
_database_code_depnum_ccdc_archive 'CCDC 2016265'
_chemical_formula_sum 'C10 H25 Cm1 N2 O11'
_chemical_formula_moiety
;
(C10 H15 Cm1 O10 2-)n,2(H4 N1 1+),H2 O1
;
_journal_coden_Cambridge 1475
_journal_volume 12
_journal_year 2021
_journal_page_first 5638
_journal_name_full 'Chemical Science '
loop_
_publ_author_name
"Z.R.Jones"
"Maksim Y.Livshits"
"F.D.White"
"E.Dalodiere"
"M.G.Ferrier"
"L.M.Lilley"
"K.E.Knope"
"S.A.Kozimor"
"V.Mocko"
"B.L.Scott"
"B.W.Stein"
"J.N.Wacker"
"D.H.Woen"
_chemical_name_systematic
;
catena-[bis(ammonium) (\m-acetato)-tetrakis(acetato)-curium(iii) monohydrate 
unknown solvate]
;
_cell_volume   2067.920
_exptl_crystal_colour 'lemonade'
_exptl_crystal_description 'rectangular blocks'
_diffrn_ambient_temperature 298.1
_refine_special_details
;
Disordered solvent molecules were not modelled and the disordered density was 
taken into account using the MASK/OLEX2 program.
;
#These two values have been output from a single CSD field.
_refine_ls_R_factor_gt 0.0252
_refine_ls_wR_factor_gt 0.0252
_symmetry_cell_setting monoclinic
_symmetry_space_group_name_H-M 'P 21/n'
_symmetry_Int_Tables_number 14
loop_
_symmetry_equiv_pos_site_id
_symmetry_equiv_pos_as_xyz
1 x,y,z
2 1/2-x,1/2+y,1/2-z
3 -x,-y,-z
4 -1/2+x,-1/2-y,-1/2+z
_cell_length_a 6.7801(3)
_cell_length_b 15.0056(7)
_cell_length_c 20.489(1)
_cell_angle_alpha 90
_cell_angle_beta 97.240(1)
_cell_angle_gamma 90
_cell_formula_units_Z 4
loop_
_atom_type_symbol
_atom_type_radius_bond
C 0.68
H 0.23
Cm 1.69
N 0.68
O 0.68
loop_
_atom_site_label
_atom_site_type_symbol
_atom_site_fract_x
_atom_site_fract_y
_atom_site_fract_z
Cm1 Cm 0.53075(2) 0.59590(2) 0.28222(2)
O1 O 0.4049(4) 0.46790(19) 0.34824(15)
O2 O 0.4176(6) 0.7919(2) 0.11635(16)
O3 O 0.4996(5) 0.7526(2) 0.32807(15)
O4 O -0.1298(4) 0.6432(2) 0.29699(15)
O5 O 0.7259(4) 0.4759(2) 0.35073(16)
O6 O 0.1810(4) 0.6192(2) 0.28563(18)
O7 O 0.6915(5) 0.4940(2) 0.20560(17)
O8 O 0.5387(5) 0.6474(2) 0.40152(15)
O9 O 0.4961(5) 0.6856(2) 0.18760(15)
O10 O 0.3688(5) 0.4826(2) 0.20167(18)
C1 C 0.5753(6) 0.4433(3) 0.37142(19)
C2 C 0.0211(5) 0.6588(3) 0.27036(19)
C3 C 0.4679(6) 0.7140(3) 0.1298(2)
C4 C 0.5128(6) 0.7288(3) 0.3863(2)
C5 C 0.5291(7) 0.4589(3) 0.1820(2)
C6 C 0.5999(8) 0.3739(4) 0.4244(2)
H1 H 0.73162 0.34939 0.42761
H2 H 0.50420 0.32726 0.41390
H3 H 0.57980 0.40049 0.46565
C7 C 0.4926(10) 0.7942(4) 0.4395(3)
H4 H 0.46254 0.85191 0.42054
H5 H 0.61496 0.79710 0.46861
H6 H 0.38716 0.77591 0.46370
C8 C 0.5290(12) 0.3897(5) 0.1291(4)
H7 H 0.51612 0.41826 0.08682
H8 H 0.41948 0.34962 0.13097
H9 H 0.65148 0.35684 0.13555
C9 C 0.0090(8) 0.7311(4) 0.2204(3)
H10 H -0.12005 0.73048 0.19498
H11 H 0.10898 0.72193 0.19179
H12 H 0.03026 0.78762 0.24210
C10 C 0.5006(14) 0.6530(5) 0.0754(3)
H13 H 0.38201 0.61908 0.06270
H14 H 0.60842 0.61335 0.08982
H15 H 0.53258 0.68715 0.03855
N1 N 0.4584(5) 0.8934(2) 0.2351(2)
H16 H 0.45229 0.95123 0.22535
H17 H 0.36069 0.87946 0.25848
H18 H 0.57503 0.88129 0.25848
H19 H 0.44535 0.86099 0.19727
N2 N -0.1405(5) 0.6167(2) 0.50234(16)
H20 H -0.24628 0.64381 0.48097
H21 H -0.18014 0.57357 0.52748
H22 H -0.06804 0.65613 0.52748
H23 H -0.06582 0.59292 0.47278
O11 O 0.0884(5) 0.5422(3) 0.4118(2)
H24 H 0.18796 0.56102 0.39441
H25 H 0.13876 0.51732 0.44731
Cm1* Cm -0.46925(2) 0.59590(2) 0.28222(2)
O4* O 0.8702(4) 0.6432(2) 0.29699(15)
#END
