
#######################################################################
#
#                 Cambridge Crystallographic Data Centre
#                                CCDC
#
#######################################################################
#
# If this CIF has been generated from an entry in the Cambridge
# Structural Database, then it will include bibliographic, chemical,
# crystal, experimental, refinement or atomic coordinate data resulting
# from the CCDC's data processing and validation procedures.
#
#######################################################################

data_CSD_CIF_OPEGUM
_audit_creation_date 2011-06-30
_audit_creation_method CSD-ConQuest-V1
_database_code_CSD OPEGUM
_database_code_depnum_ccdc_archive 'CCDC 757192'
_chemical_formula_sum 'C5.98 H14.92 Co0.33 In1 N1.98 O11.5'
_chemical_formula_moiety
;
(C4 In1 O8 1-)n,0.33n(C6 H24 Co1 N6 3+),3.5n(H2 O1)
;
_journal_coden_Cambridge 1347
_journal_volume 132
_journal_year 2010
_journal_page_first 453
_journal_name_full 'Microporous and Mesoporous Materials '
loop_
_publ_author_name
"Qinhe Pan"
"Jiyang Li"
"Qiang Chen"
"Yide Han"
"Ze Chang"
"Wei-Chao Song"
"Xian-He Bu"
_chemical_name_systematic
;
catena-(tris(ethylenediamine)-cobalt bis(\m~2~-oxalato)-indium hydrate)
;
_chemical_name_common
;
NKB-1
;
_cell_volume   5835.226
_exptl_crystal_colour 'yellow'
_exptl_crystal_density_diffrn 1.974
_exptl_special_details
;
The tris(ethylenediamine)-cobalt cations and the water molecules could not be 
located due to a mismatch of the symmetry between the cobalt cation and 
indium anion
;
_exptl_crystal_description 'polyhedron'
_diffrn_ambient_temperature 293
#These two values have been output from a single CSD field.
_refine_ls_R_factor_gt 0.1091
_refine_ls_wR_factor_gt 0.1091
_symmetry_cell_setting tetragonal
_symmetry_space_group_name_H-M 'I 41/a m d'
_symmetry_Int_Tables_number 141
loop_
_symmetry_equiv_pos_site_id
_symmetry_equiv_pos_as_xyz
1 x,y,z
2 1/2-x,-y,1/2+z
3 1/4-y,3/4+x,1/4+z
4 1/4+y,1/4-x,3/4+z
5 1/2-x,y,1/2-z
6 x,-y,-z
7 1/4+y,3/4+x,1/4-z
8 1/4-y,1/4-x,3/4-z
9 1/2+x,1/2+y,1/2+z
10 -x,1/2-y,z
11 3/4-y,1/4+x,3/4+z
12 3/4+y,3/4-x,1/4+z
13 -x,1/2+y,-z
14 1/2+x,1/2-y,1/2-z
15 3/4+y,1/4+x,3/4-z
16 3/4-y,3/4-x,1/4-z
17 -x,-y,-z
18 -1/2+x,y,-1/2-z
19 -1/4+y,-3/4-x,-1/4-z
20 -1/4-y,-1/4+x,-3/4-z
21 -1/2+x,-y,-1/2+z
22 -x,y,z
23 -1/4-y,-3/4-x,-1/4+z
24 -1/4+y,-1/4+x,-3/4+z
25 -1/2-x,-1/2-y,-1/2-z
26 x,-1/2+y,-z
27 -3/4+y,-1/4-x,-3/4-z
28 -3/4-y,-3/4+x,-1/4-z
29 x,-1/2-y,z
30 -1/2-x,-1/2+y,-1/2+z
31 -3/4-y,-1/4-x,-3/4+z
32 -3/4+y,-3/4+x,-1/4+z
_cell_length_a 21.750(3)
_cell_length_b 21.750(3)
_cell_length_c 12.335(3)
_cell_angle_alpha 90
_cell_angle_beta 90
_cell_angle_gamma 90
_cell_formula_units_Z 16
loop_
_atom_type_symbol
_atom_type_radius_bond
C 0.68
In 1.42
O 0.68
loop_
_atom_site_label
_atom_site_type_symbol
_atom_site_fract_x
_atom_site_fract_y
_atom_site_fract_z
In1 In 0.36416(4) 0.38584(4) 0.12500
O1 O 0.3261(4) 0.3971(4) 0.2920(7)
O2 O 0.2391(4) 0.3935(4) 0.3893(7)
O3 O 0.3324(4) 0.3010(4) 0.0289(8)
O4 O 0.3925(4) 0.3019(5) 0.2171(8)
C1 C 0.2687(5) 0.3955(5) 0.3004(11)
C2 C 0.3462(8) 0.25000 0.0684(15)
C3 C 0.3801(9) 0.25000 0.1764(16)
In1D In 0.13584(4) 0.38584(4) 0.37500
In1S In 0.36416(4) 0.11416(4) 0.12500
O1D O 0.1739(4) 0.3971(4) 0.2080(7)
O1O O 0.3529(4) 0.4239(4) -0.0420(7)
O2D O 0.2609(4) 0.3935(4) 0.1107(7)
O2J O 0.3565(4) 0.4891(4) 0.1393(7)
O3BA O 0.3324(4) 0.1990(4) 0.0289(8)
O3O O 0.4490(4) 0.4176(4) 0.2211(8)
O4BA O 0.3925(4) 0.1981(5) 0.2171(8)
O4O O 0.4481(4) 0.3575(5) 0.0329(8)
C1D C 0.2313(5) 0.3955(5) 0.1996(11)
#END
