
#######################################################################
#
#                 Cambridge Crystallographic Data Centre
#                                CCDC
#
#######################################################################
#
# If this CIF has been generated from an entry in the Cambridge
# Structural Database, then it will include bibliographic, chemical,
# crystal, experimental, refinement or atomic coordinate data resulting
# from the CCDC's data processing and validation procedures.
#
#######################################################################

data_CSD_CIF_OPIFUQ
_audit_creation_date 2016-06-15
_audit_creation_method CSD-ConQuest-V1
_database_code_CSD OPIFUQ
_database_code_depnum_ccdc_archive 'CCDC 1477290'
_chemical_formula_sum 'C136 H117 N7 O71 S24 Sr13'
_chemical_formula_moiety
;
(C120 H48 O63 S24 Sr12 6-)n,H10 O6 Sr1,x(H2 O1),6(C2 H8 N1 1+),x(C4 H9 N1 O1)
;
_journal_coden_Cambridge 222
_journal_volume 45
_journal_year 2016
_journal_page_first 10909
_journal_name_full 'Dalton Trans. '
loop_
_publ_author_name
"Yu Shen"
"Cong-Cong Fan"
"Yu-Zhen Wei"
"Jie Du"
"Hai-Bin Zhu"
"Yue Zhao"
_chemical_name_systematic
;
catena-[hexakis(dimethylammonium) tetraaqua-bis(hydroxy)-strontium 
octakis(\m-bisthieno[2,3-e:2',3'-g][1]benzothiophene-2,5,8-tricarboxylato)-tri
s(\m-oxo)-dodecaaqua-dodeca-strontium N,N-dimethylacetamide solvate hydrate]
;
_cell_volume  68946.722
_exptl_crystal_colour 'colorless'
_exptl_special_details
;
We calculate 59.44% void space in the structure

;
_exptl_crystal_description 'block'
_diffrn_ambient_temperature 293
_refine_special_details
;
The structure is disordered; the dimethylammonium ions, water and 
N,N-dimethylacetamide solvent molecules are highly disordered and have not 
been modelled.
;
#These two values have been output from a single CSD field.
_refine_ls_R_factor_gt 0.0859
_refine_ls_wR_factor_gt 0.0859
_symmetry_cell_setting cubic
_symmetry_space_group_name_H-M 'F m -3 c'
_symmetry_Int_Tables_number 226
loop_
_symmetry_equiv_pos_site_id
_symmetry_equiv_pos_as_xyz
1 x,y,z
2 -y,x,1/2+z
3 -x,-y,z
4 y,-x,1/2+z
5 x,-y,-z
6 y,x,1/2-z
7 -x,y,-z
8 -y,-x,1/2-z
9 z,x,y
10 -x,z,1/2+y
11 -z,-x,y
12 x,-z,1/2+y
13 z,-x,-y
14 x,z,1/2-y
15 -z,x,-y
16 -x,-z,1/2-y
17 y,z,x
18 1/2-z,-y,-x
19 1/2-z,y,x
20 1/2+z,y,-x
21 1/2+z,-y,x
22 y,1/2-z,1/2-x
23 -y,1/2-z,1/2+x
24 -y,1/2+z,1/2-x
25 x,1/2+y,1/2+z
26 -y,1/2+x,z
27 -x,1/2-y,1/2+z
28 y,1/2-x,z
29 x,1/2-y,1/2-z
30 y,1/2+x,-z
31 -x,1/2+y,1/2-z
32 -y,1/2-x,-z
33 z,1/2+x,1/2+y
34 -x,1/2+z,y
35 -z,1/2-x,1/2+y
36 x,1/2-z,y
37 z,1/2-x,1/2-y
38 x,1/2+z,-y
39 -z,1/2+x,1/2-y
40 -x,1/2-z,-y
41 y,1/2+z,1/2+x
42 1/2-z,1/2-y,1/2-x
43 1/2-z,1/2+y,1/2+x
44 1/2+z,1/2+y,1/2-x
45 1/2+z,1/2-y,1/2+x
46 y,-z,-x
47 -y,-z,x
48 -y,z,-x
49 1/2+x,y,1/2+z
50 1/2-y,x,z
51 1/2-x,-y,1/2+z
52 1/2+y,-x,z
53 1/2+x,-y,1/2-z
54 1/2+y,x,-z
55 1/2-x,y,1/2-z
56 1/2-y,-x,-z
57 1/2+z,x,1/2+y
58 1/2-x,z,y
59 1/2-z,-x,1/2+y
60 1/2+x,-z,y
61 1/2+z,-x,1/2-y
62 1/2+x,z,-y
63 1/2-z,x,1/2-y
64 1/2-x,-z,-y
65 1/2+y,z,1/2+x
66 -z,-y,1/2-x
67 -z,y,1/2+x
68 z,y,1/2-x
69 z,-y,1/2+x
70 1/2+y,1/2-z,-x
71 1/2-y,1/2-z,x
72 1/2-y,1/2+z,-x
73 1/2+x,1/2+y,z
74 1/2-y,1/2+x,1/2+z
75 1/2-x,1/2-y,z
76 1/2+y,1/2-x,1/2+z
77 1/2+x,1/2-y,-z
78 1/2+y,1/2+x,1/2-z
79 1/2-x,1/2+y,-z
80 1/2-y,1/2-x,1/2-z
81 1/2+z,1/2+x,y
82 1/2-x,1/2+z,1/2+y
83 1/2-z,1/2-x,y
84 1/2+x,1/2-z,1/2+y
85 1/2+z,1/2-x,-y
86 1/2+x,1/2+z,1/2-y
87 1/2-z,1/2+x,-y
88 1/2-x,1/2-z,1/2-y
89 1/2+y,1/2+z,x
90 -z,1/2-y,-x
91 -z,1/2+y,x
92 z,1/2+y,-x
93 z,1/2-y,x
94 1/2+y,-z,1/2-x
95 1/2-y,-z,1/2+x
96 1/2-y,z,1/2-x
97 -x,-y,-z
98 y,-x,-1/2-z
99 x,y,-z
100 -y,x,-1/2-z
101 -x,y,z
102 -y,-x,-1/2+z
103 x,-y,z
104 y,x,-1/2+z
105 -z,-x,-y
106 x,-z,-1/2-y
107 z,x,-y
108 -x,z,-1/2-y
109 -z,x,y
110 -x,-z,-1/2+y
111 z,-x,y
112 x,z,-1/2+y
113 -y,-z,-x
114 -1/2+z,y,x
115 -1/2+z,-y,-x
116 -1/2-z,-y,x
117 -1/2-z,y,-x
118 -y,-1/2+z,-1/2+x
119 y,-1/2+z,-1/2-x
120 y,-1/2-z,-1/2+x
121 -x,-1/2-y,-1/2-z
122 y,-1/2-x,-z
123 x,-1/2+y,-1/2-z
124 -y,-1/2+x,-z
125 -x,-1/2+y,-1/2+z
126 -y,-1/2-x,z
127 x,-1/2-y,-1/2+z
128 y,-1/2+x,z
129 -z,-1/2-x,-1/2-y
130 x,-1/2-z,-y
131 z,-1/2+x,-1/2-y
132 -x,-1/2+z,-y
133 -z,-1/2+x,-1/2+y
134 -x,-1/2-z,y
135 z,-1/2-x,-1/2+y
136 x,-1/2+z,y
137 -y,-1/2-z,-1/2-x
138 -1/2+z,-1/2+y,-1/2+x
139 -1/2+z,-1/2-y,-1/2-x
140 -1/2-z,-1/2-y,-1/2+x
141 -1/2-z,-1/2+y,-1/2-x
142 -y,z,x
143 y,z,-x
144 y,-z,x
145 -1/2-x,-y,-1/2-z
146 -1/2+y,-x,-z
147 -1/2+x,y,-1/2-z
148 -1/2-y,x,-z
149 -1/2-x,y,-1/2+z
150 -1/2-y,-x,z
151 -1/2+x,-y,-1/2+z
152 -1/2+y,x,z
153 -1/2-z,-x,-1/2-y
154 -1/2+x,-z,-y
155 -1/2+z,x,-1/2-y
156 -1/2-x,z,-y
157 -1/2-z,x,-1/2+y
158 -1/2-x,-z,y
159 -1/2+z,-x,-1/2+y
160 -1/2+x,z,y
161 -1/2-y,-z,-1/2-x
162 z,y,-1/2+x
163 z,-y,-1/2-x
164 -z,-y,-1/2+x
165 -z,y,-1/2-x
166 -1/2-y,-1/2+z,x
167 -1/2+y,-1/2+z,-x
168 -1/2+y,-1/2-z,x
169 -1/2-x,-1/2-y,-z
170 -1/2+y,-1/2-x,-1/2-z
171 -1/2+x,-1/2+y,-z
172 -1/2-y,-1/2+x,-1/2-z
173 -1/2-x,-1/2+y,z
174 -1/2-y,-1/2-x,-1/2+z
175 -1/2+x,-1/2-y,z
176 -1/2+y,-1/2+x,-1/2+z
177 -1/2-z,-1/2-x,-y
178 -1/2+x,-1/2-z,-1/2-y
179 -1/2+z,-1/2+x,-y
180 -1/2-x,-1/2+z,-1/2-y
181 -1/2-z,-1/2+x,y
182 -1/2-x,-1/2-z,-1/2+y
183 -1/2+z,-1/2-x,y
184 -1/2+x,-1/2+z,-1/2+y
185 -1/2-y,-1/2-z,-x
186 z,-1/2+y,x
187 z,-1/2-y,-x
188 -z,-1/2-y,x
189 -z,-1/2+y,-x
190 -1/2-y,z,-1/2+x
191 -1/2+y,z,-1/2-x
192 -1/2+y,-z,-1/2+x
_cell_length_a 41.0051(9)
_cell_length_b 41.0051(9)
_cell_length_c 41.0051(9)
_cell_angle_alpha 90
_cell_angle_beta 90
_cell_angle_gamma 90
_cell_formula_units_Z 8
loop_
_atom_type_symbol
_atom_type_radius_bond
C 0.68
H 0.23
O 0.68
S 1.02
Sr 1.95
loop_
_atom_site_label
_atom_site_type_symbol
_atom_site_fract_x
_atom_site_fract_y
_atom_site_fract_z
Sr1 Sr 0.68796(2) 0.76812(2) 1.00000
O1 O 0.65253(14) 0.74707(16) 0.94990(14)
O2 O 0.69521(14) 0.71654(13) 0.96213(13)
O3 O 0.75000 0.75000 1.00000
O4 O 0.6452(3) 0.8117(2) 1.00000
C1 C 0.67077(18) 0.72306(18) 0.94486(17)
C2 C 0.66351(19) 0.70127(18) 0.91716(18)
S1 S 0.63026(5) 0.70964(5) 0.89261(5)
C3 C 0.6815(2) 0.67387(18) 0.90758(18)
C4 C 0.6392(2) 0.67679(18) 0.86800(19)
H1 H 0.69990 0.66590 0.91810
C5 C 0.6669(2) 0.65990(19) 0.8788(2)
O5 O 0.75000 0.8090(5) 0.25000
Sr2 Sr 0.75000 0.75000 0.25000
O6 O 0.75000 0.8614(7) 0.25000
O7? O 0.75000 0.8966(7) 0.25000
O2AA O 0.71654(14) 0.80479(13) 0.96213(13)
O1TC O 0.65253(14) 0.74707(16) 1.05010(14)
O2TC O 0.69521(14) 0.71654(13) 1.03787(13)
O2QD O 0.71654(14) 0.80479(13) 1.03787(13)
Sr1WA Sr 0.73188(2) 0.68796(2) 1.00000
Sr1AA Sr 0.76812(2) 0.81204(2) 1.00000
Sr1VB Sr 0.81204(2) 0.73188(2) 1.00000
C1AA C 0.72306(18) 0.82923(18) 0.94486(17)
O1WA O 0.75293(14) 0.65253(16) 0.94990(14)
O2WA O 0.78346(14) 0.69521(13) 0.96213(13)
O4WA O 0.6883(3) 0.6452(2) 1.00000
O1QE O 0.75293(14) 0.65253(16) 1.05010(14)
O2QE O 0.78346(14) 0.69521(13) 1.03787(13)
O1AA O 0.74707(14) 0.84747(16) 0.94990(14)
O4AA O 0.8117(3) 0.8548(2) 1.00000
O2VB O 0.80479(14) 0.78346(13) 0.96213(13)
O1QD O 0.74707(14) 0.84747(16) 1.05010(14)
O2LF O 0.80479(14) 0.78346(13) 1.03787(13)
O1VB O 0.84747(14) 0.75293(16) 0.94990(14)
O4VB O 0.8548(3) 0.6883(2) 1.00000
O1LF O 0.84747(14) 0.75293(16) 1.05010(14)
C2AA C 0.70127(19) 0.83649(18) 0.91716(18)
C1WA C 0.77694(18) 0.67077(18) 0.94486(17)
C1VB C 0.82923(18) 0.77694(18) 0.94486(17)
S1AA S 0.70964(5) 0.86974(5) 0.89261(5)
C3AA C 0.67387(20) 0.81850(18) 0.90758(18)
C2WA C 0.79873(19) 0.66351(18) 0.91716(18)
C2VB C 0.83649(19) 0.79873(18) 0.91716(18)
C4AA C 0.67679(20) 0.86080(18) 0.86800(19)
H1AA H 0.66590 0.80010 0.91810
C5AA C 0.6599(2) 0.83310(19) 0.8788(2)
C5JB C 0.6212(2) 0.66690(19) 0.8401(2)
C4U C 0.67679(20) 0.63200(18) 0.86080(19)
S1WA S 0.79036(5) 0.63026(5) 0.89261(5)
C3WA C 0.82613(20) 0.68150(18) 0.90758(18)
S1VB S 0.86974(5) 0.79036(5) 0.89261(5)
C3VB C 0.8185(2) 0.82613(18) 0.90758(18)
C5M C 0.6669(2) 0.87880(19) 0.8401(2)
C4OA C 0.6320(2) 0.82321(18) 0.86080(19)
C3JB C 0.59242(20) 0.68150(18) 0.82613(18)
C4JB C 0.6320(2) 0.63920(18) 0.82321(19)
S1U S 0.70964(5) 0.60739(5) 0.86974(5)
C5U C 0.6599(2) 0.62120(19) 0.8331(2)
C4WA C 0.82321(20) 0.63920(18) 0.86800(19)
H1WA H 0.83410 0.69990 0.91810
C5WA C 0.8401(2) 0.66690(19) 0.8788(2)
C4VB C 0.8608(2) 0.82321(18) 0.86800(19)
H1VB H 0.80010 0.83410 0.91810
C5VB C 0.8331(2) 0.84010(19) 0.8788(2)
C3M C 0.6815(2) 0.90758(18) 0.82613(18)
C4M C 0.6392(2) 0.86800(18) 0.82321(19)
S1OA S 0.60739(5) 0.79036(5) 0.86974(5)
C5OA C 0.6212(2) 0.84010(19) 0.8331(2)
C2JB C 0.58284(19) 0.66351(18) 0.79873(18)
H1JB H 0.58190 0.69990 0.83410
S1JB S 0.60739(5) 0.63026(5) 0.79036(5)
C2U C 0.70127(19) 0.58284(18) 0.83649(18)
C3U C 0.67387(20) 0.59242(18) 0.81850(18)
C5IC C 0.8331(2) 0.62120(19) 0.8401(2)
C4OB C 0.8680(2) 0.67679(18) 0.86080(19)
C5JA C 0.8788(2) 0.83310(19) 0.8401(2)
C4QC C 0.82321(20) 0.86800(18) 0.86080(19)
C2M C 0.66351(19) 0.91716(18) 0.79873(18)
H1M H 0.69990 0.91810 0.83410
S1M S 0.63026(5) 0.89261(5) 0.79036(5)
C2OA C 0.58284(19) 0.79873(18) 0.83649(18)
C3OA C 0.59242(20) 0.82613(18) 0.81850(18)
C1JB C 0.55514(18) 0.67077(18) 0.77694(17)
C1U C 0.72306(18) 0.55514(18) 0.82923(17)
H1U H 0.66590 0.58190 0.80010
C3IC C 0.8185(2) 0.59242(18) 0.82613(18)
C4IC C 0.8608(2) 0.63200(18) 0.82321(19)
S1OB S 0.89261(5) 0.70964(5) 0.86974(5)
C5OB C 0.8788(2) 0.65990(19) 0.8331(2)
C3JA C 0.90758(20) 0.81850(18) 0.82613(18)
C4JA C 0.8680(2) 0.86080(18) 0.82321(19)
S1QC S 0.79036(5) 0.89261(5) 0.86974(5)
C5QC C 0.8401(2) 0.87880(19) 0.8331(2)
C1M C 0.67077(18) 0.94486(18) 0.77694(17)
C1OA C 0.55514(18) 0.77694(18) 0.82923(17)
H1OA H 0.58190 0.83410 0.80010
O1JB O 0.55010(14) 0.65253(16) 0.75293(14)
O2JB O 0.53787(14) 0.69521(13) 0.78346(13)
O1U O 0.74707(14) 0.55010(16) 0.84747(14)
O2U O 0.71654(14) 0.53787(13) 0.80479(13)
C2IC C 0.83649(19) 0.58284(18) 0.79873(18)
H1IC H 0.80010 0.58190 0.83410
S1IC S 0.86974(5) 0.60739(5) 0.79036(5)
C2OB C 0.91716(19) 0.70127(18) 0.83649(18)
C3OB C 0.90758(20) 0.67387(18) 0.81850(18)
C2JA C 0.91716(19) 0.83649(18) 0.79873(18)
H1JA H 0.91810 0.80010 0.83410
S1JA S 0.89261(5) 0.86974(5) 0.79036(5)
C2QC C 0.79873(19) 0.91716(18) 0.83649(18)
C3QC C 0.82613(20) 0.90758(18) 0.81850(18)
O1M O 0.65253(14) 0.94990(16) 0.75293(14)
O2M O 0.69521(14) 0.96213(13) 0.78346(13)
O1OA O 0.55010(14) 0.75293(16) 0.84747(14)
O2OA O 0.53787(14) 0.78346(13) 0.80479(13)
Sr1JB Sr 0.50000(2) 0.68796(2) 0.73188
Sr1OA Sr 0.50000(2) 0.73188(2) 0.81204
Sr1U Sr 0.76812(2) 0.50000(2) 0.81204
Sr1IA Sr 0.68796(2) 0.50000(2) 0.76812
C1IC C 0.82923(18) 0.55514(18) 0.77694(17)
C1OB C 0.94486(18) 0.72306(18) 0.82923(17)
H1OB H 0.91810 0.66590 0.80010
C1JA C 0.94486(18) 0.82923(18) 0.77694(17)
C1QC C 0.77694(18) 0.94486(18) 0.82923(17)
H1QC H 0.83410 0.91810 0.80010
Sr1M Sr 0.68796(2) 1.00000(2) 0.73188
Sr1QC Sr 0.73188(2) 1.00000(2) 0.81204
Sr1DC Sr 0.50000(2) 0.81204(2) 0.76812
O2R O 0.53787(14) 0.71654(13) 0.69521(13)
O3R O 0.50000 0.75000 0.75000
O4JB O 0.5000(3) 0.6452(2) 0.68830
O1XE O 0.44990(14) 0.65253(16) 0.75293(14)
O2ID O 0.46213(14) 0.71654(13) 0.69521(13)
O2XE O 0.46213(14) 0.69521(13) 0.78346(13)
O4OA O 0.5000(3) 0.6883(2) 0.85480
O1HE O 0.44990(14) 0.75293(16) 0.84747(14)
O2HE O 0.46213(14) 0.78346(13) 0.80479(13)
O4U O 0.8117(3) 0.5000(2) 0.85480
O2IC O 0.80479(14) 0.53787(13) 0.78346(13)
O1ND O 0.74707(14) 0.44990(16) 0.84747(14)
O2ND O 0.71654(14) 0.46213(13) 0.80479(13)
O2WF O 0.80479(14) 0.46213(13) 0.78346(13)
O3U O 0.75000 0.50000 0.75000
O1IA O 0.65253(14) 0.55010(16) 0.74707(14)
O2IA O 0.69521(14) 0.53787(13) 0.71654(13)
O2EE O 0.69521(14) 0.46213(13) 0.71654(13)
O1IC O 0.84747(14) 0.55010(16) 0.75293(14)
O1OB O 0.94990(14) 0.74707(16) 0.84747(14)
O2OB O 0.96213(14) 0.71654(13) 0.80479(13)
O1JA O 0.94990(14) 0.84747(16) 0.75293(14)
O2JA O 0.96213(14) 0.80479(13) 0.78346(13)
O1QC O 0.75293(14) 0.94990(16) 0.84747(14)
O2QC O 0.78346(14) 0.96213(13) 0.80479(13)
O3M O 0.75000 1.00000 0.75000
O2P O 0.71654(14) 0.96213(13) 0.69521(13)
O2ME O 0.71654(14) 1.03787(13) 0.69521(13)
O1DC O 0.55010(14) 0.84747(16) 0.74707(14)
O2DC O 0.53787(14) 0.80479(13) 0.71654(13)
O4DC O 0.5000(3) 0.8548(2) 0.81170
O1ZF O 0.44990(14) 0.84747(16) 0.74707(14)
O2ZF O 0.46213(14) 0.80479(13) 0.71654(13)
C1R C 0.55514(18) 0.72306(18) 0.67077(17)
Sr1R Sr 0.50000(2) 0.76812(2) 0.68796
Sr1IC Sr 0.81204(2) 0.50000(2) 0.73188
Sr1RB Sr 0.73188(2) 0.50000(2) 0.68796
C1IA C 0.67077(18) 0.55514(18) 0.72306(17)
Sr1OB Sr 1.00000(2) 0.76812(2) 0.81204
Sr1H Sr 1.00000(2) 0.68796(2) 0.76812
Sr1JA Sr 1.00000(2) 0.81204(2) 0.73188
Sr1EB Sr 0.81204(2) 1.00000(2) 0.76812
Sr1P Sr 0.76812(2) 1.00000(2) 0.68796
C1P C 0.72306(18) 0.94486(18) 0.67077(17)
C1DC C 0.55514(18) 0.82923(18) 0.72306(17)
O1R O 0.55010(14) 0.74707(16) 0.65253(14)
C2R C 0.58284(19) 0.70127(18) 0.66351(18)
O2RB O 0.78346(14) 0.53787(13) 0.69521(13)
O4IC O 0.8548(3) 0.5000(2) 0.68830
O1WF O 0.84747(14) 0.44990(16) 0.75293(14)
O2IF O 0.78346(14) 0.46213(13) 0.69521(13)
O1RB O 0.75293(14) 0.55010(16) 0.65253(14)
O4RB O 0.6883(3) 0.5000(2) 0.64520
O1IF O 0.75293(14) 0.44990(16) 0.65253(14)
C2IA C 0.66351(19) 0.58284(18) 0.70127(18)
O2XD O 1.03787(14) 0.80479(13) 0.78346(13)
O3H O 1.00000 0.75000 0.75000
O1H O 0.94990(14) 0.65253(16) 0.74707(14)
O2H O 0.96213(14) 0.69521(13) 0.71654(13)
O4JA O 1.0000(3) 0.8548(2) 0.68830
O2NC O 0.96213(14) 0.78346(13) 0.69521(13)
O1XD O 1.05010(14) 0.84747(16) 0.75293(14)
O2EG O 1.03787(14) 0.78346(13) 0.69521(13)
O1EB O 0.84747(14) 0.94990(16) 0.74707(14)
O2EB O 0.80479(14) 0.96213(13) 0.71654(13)
O2AF O 0.80479(14) 1.03787(13) 0.71654(13)
O1P O 0.74707(14) 0.94990(16) 0.65253(14)
O4P O 0.8117(3) 1.0000(2) 0.64520
O1ME O 0.74707(14) 1.05010(16) 0.65253(14)
C2P C 0.70127(19) 0.91716(18) 0.66351(18)
C2DC C 0.58284(19) 0.83649(18) 0.70127(18)
S1R S 0.60739(5) 0.70964(5) 0.63026(5)
C3R C 0.59242(20) 0.67387(18) 0.68150(18)
C1RB C 0.77694(18) 0.55514(18) 0.67077(17)
S1IA S 0.63026(5) 0.60739(5) 0.70964(5)
C3IA C 0.6815(2) 0.59242(18) 0.67387(18)
Sr1NC Sr 1.00000(2) 0.73188(2) 0.68796
C1H C 0.94486(18) 0.67077(18) 0.72306(17)
C1NC C 0.94486(18) 0.77694(18) 0.67077(17)
C1EB C 0.82923(18) 0.94486(18) 0.72306(17)
S1P S 0.70964(5) 0.89261(5) 0.63026(5)
C3P C 0.67387(20) 0.90758(18) 0.68150(18)
S1DC S 0.60739(5) 0.86974(5) 0.70964(5)
C3DC C 0.59242(20) 0.81850(18) 0.67387(18)
C4R C 0.6320(2) 0.67679(18) 0.63920(19)
H1R H 0.58190 0.66590 0.69990
C5R C 0.6212(2) 0.65990(19) 0.6669(2)
C2RB C 0.79873(19) 0.58284(18) 0.66351(18)
C4IA C 0.6392(2) 0.63200(18) 0.67679(19)
H1IA H 0.69990 0.58190 0.66590
C5IA C 0.6669(2) 0.62120(19) 0.6599(2)
O1NC O 0.94990(14) 0.75293(16) 0.65253(14)
C2H C 0.91716(19) 0.66351(18) 0.70127(18)
C2NC C 0.91716(19) 0.79873(18) 0.66351(18)
C2EB C 0.83649(19) 0.91716(18) 0.70127(18)
C4P C 0.67679(20) 0.86800(18) 0.63920(19)
H1P H 0.66590 0.91810 0.69990
C5P C 0.6599(2) 0.87880(19) 0.6669(2)
C4DC C 0.6320(2) 0.86080(18) 0.67679(19)
H1DC H 0.58190 0.80010 0.66590
C5DC C 0.6212(2) 0.83310(19) 0.6599(2)
C5E C 0.6599(2) 0.66690(19) 0.6212(2)
S1RB S 0.79036(5) 0.60739(5) 0.63026(5)
C3RB C 0.82613(20) 0.59242(18) 0.68150(18)
C4E C 0.67679(20) 0.63920(18) 0.63200(19)
S1H S 0.89261(5) 0.63026(5) 0.70964(5)
C3H C 0.90758(20) 0.68150(18) 0.67387(18)
S1NC S 0.89261(5) 0.79036(5) 0.63026(5)
C3NC C 0.90758(20) 0.82613(18) 0.68150(18)
S1EB S 0.86974(5) 0.89261(5) 0.70964(5)
C3EB C 0.8185(2) 0.90758(18) 0.67387(18)
C5BA C 0.6669(2) 0.84010(19) 0.6212(2)
C4BA C 0.6392(2) 0.82321(18) 0.63200(19)
C3E C 0.67387(20) 0.68150(18) 0.59242(18)
C4RB C 0.82321(20) 0.63200(18) 0.63920(19)
H1RB H 0.83410 0.58190 0.69990
C5RB C 0.8401(2) 0.62120(19) 0.6669(2)
S1E S 0.70964(5) 0.63026(5) 0.60739(5)
C4H C 0.8680(2) 0.63920(18) 0.67679(19)
H1H H 0.91810 0.69990 0.66590
C5H C 0.8788(2) 0.66690(19) 0.6599(2)
C4NC C 0.8680(2) 0.82321(18) 0.63920(19)
H1NC H 0.91810 0.83410 0.69990
C5NC C 0.8788(2) 0.84010(19) 0.6669(2)
C4EB C 0.8608(2) 0.86800(18) 0.67679(19)
H1EB H 0.80010 0.91810 0.66590
C5EB C 0.8331(2) 0.87880(19) 0.6599(2)
C3BA C 0.6815(2) 0.82613(18) 0.59242(18)
S1BA S 0.63026(5) 0.79036(5) 0.60739(5)
C2E C 0.70127(19) 0.66351(18) 0.58284(18)
H1E H 0.66590 0.69990 0.58190
C5BB C 0.8331(2) 0.65990(19) 0.6212(2)
C4BB C 0.8608(2) 0.67679(18) 0.63200(19)
C5AC C 0.8401(2) 0.83310(19) 0.6212(2)
C4AC C 0.82321(20) 0.86080(18) 0.63200(19)
C2BA C 0.66351(19) 0.79873(18) 0.58284(18)
H1BA H 0.69990 0.83410 0.58190
C1E C 0.72306(18) 0.67077(18) 0.55514(17)
C3BB C 0.8185(2) 0.67387(18) 0.59242(18)
S1BB S 0.86974(5) 0.70964(5) 0.60739(5)
C3AC C 0.82613(20) 0.81850(18) 0.59242(18)
S1AC S 0.79036(5) 0.86974(5) 0.60739(5)
C1BA C 0.67077(18) 0.77694(18) 0.55514(17)
O1E O 0.74707(14) 0.65253(16) 0.55010(14)
O2E O 0.71654(14) 0.69521(13) 0.53787(13)
C2BB C 0.83649(19) 0.70127(18) 0.58284(18)
H1BB H 0.80010 0.66590 0.58190
C2AC C 0.79873(19) 0.83649(18) 0.58284(18)
H1AC H 0.83410 0.80010 0.58190
O1BA O 0.65253(14) 0.75293(16) 0.55010(14)
O2BA O 0.69521(14) 0.78346(13) 0.53787(13)
Sr1E Sr 0.76812(2) 0.68796(2) 0.50000
Sr1BA Sr 0.68796(2) 0.73188(2) 0.50000
C1BB C 0.82923(18) 0.72306(18) 0.55514(17)
C1AC C 0.77694(18) 0.82923(18) 0.55514(17)
Sr1AC Sr 0.73188(2) 0.81204(2) 0.50000
O2BB O 0.80479(14) 0.71654(13) 0.53787(13)
O1BB O 0.84747(14) 0.74707(16) 0.55010(14)
O1AC O 0.75293(14) 0.84747(16) 0.55010(14)
O2AC O 0.78346(14) 0.80479(13) 0.53787(13)
Sr1BB Sr 0.81204(2) 0.76812(2) 0.50000
O5E O 0.80900 0.7500(5) 0.25000
O5K O 0.75000 0.7500(5) 0.30900
O5N O 0.75000 0.7500(5) 0.19100
O5BA O 0.75000 0.6910(5) 0.25000
O5WA O 0.69100 0.7500(5) 0.25000
#END
