
#######################################################################
#
#                 Cambridge Crystallographic Data Centre
#                                CCDC
#
#######################################################################
#
# If this CIF has been generated from an entry in the Cambridge
# Structural Database, then it will include bibliographic, chemical,
# crystal, experimental, refinement or atomic coordinate data resulting
# from the CCDC's data processing and validation procedures.
#
#######################################################################

data_CSD_CIF_OPUFEL
_audit_creation_date 2011-07-11
_audit_creation_method CSD-ConQuest-V1
_database_code_CSD OPUFEL
_database_code_depnum_ccdc_archive 'CCDC 798795'
_chemical_formula_sum 'C12 H48 Co7 N2 O54 P8'
_chemical_formula_moiety
;
(C12 H32 Co7 O50 P8 2-)n,2n(H4 N1 1+),4n(H2 O1)
;
_journal_coden_Cambridge 208
_journal_volume 184
_journal_year 2011
_journal_page_first 945
_journal_name_full 'J.Solid State Chem. '
loop_
_publ_author_name
"Ruibiao Fu"
"Shengmin Hu"
"Xin-Tao Wu"
_chemical_name_systematic
;
catena-(bis(\m~4~-Hydroxy(phosphono)acetato)-tetrakis(\m~3~-hydroxy(phosphono)
acetato)-bis(hydrogen phosphato)-hexaaqua-hepta-cobalt diammonium 
tetrahydrate)
;
_cell_volume   2622.381
_exptl_crystal_colour 'red'
_exptl_crystal_density_diffrn 2.21
_exptl_crystal_description 'prism'
_diffrn_ambient_temperature 293
#These two values have been output from a single CSD field.
_refine_ls_R_factor_gt 0.0539
_refine_ls_wR_factor_gt 0.0539
_symmetry_cell_setting monoclinic
_symmetry_space_group_name_H-M 'P 21/n'
_symmetry_Int_Tables_number 14
loop_
_symmetry_equiv_pos_site_id
_symmetry_equiv_pos_as_xyz
1 x,y,z
2 1/2-x,1/2+y,1/2-z
3 -x,-y,-z
4 -1/2+x,-1/2-y,-1/2+z
_cell_length_a 9.480(2)
_cell_length_b 11.303(3)
_cell_length_c 24.597(6)
_cell_angle_alpha 90
_cell_angle_beta 95.747(4)
_cell_angle_gamma 90
_cell_formula_units_Z 2
loop_
_atom_type_symbol
_atom_type_radius_bond
C 0.68
H 0.23
Co 1.26
N 0.68
O 0.68
P 1.05
loop_
_atom_site_label
_atom_site_type_symbol
_atom_site_fract_x
_atom_site_fract_y
_atom_site_fract_z
Co1 Co -0.02269(7) 0.64621(6) 0.18888(2)
Co2 Co 0.01439(6) 0.46214(6) 0.29035(2)
Co3 Co 0.44309(7) 0.66112(6) 0.39262(3)
Co4 Co 0.00000 0.50000 0.50000
P1 P 0.27847(12) 0.63058(11) 0.26243(5)
P2 P -0.28807(12) 0.45727(11) 0.22524(5)
P3 P -0.08387(14) 0.63807(13) 0.38973(5)
P4 P 0.52433(16) 0.94014(13) 0.40590(5)
O1 O 0.1292(3) 0.5834(3) 0.24776(13)
O2 O 0.3339(4) 0.6165(3) 0.32099(14)
O3 O 0.3750(4) 0.5719(4) 0.22266(15)
H1 H 0.45470 0.56260 0.23830
O4 O 0.4179(4) 0.8312(3) 0.26223(14)
O5 O 0.1228(4) 0.7731(3) 0.16418(14)
O6 O 0.3151(4) 0.8844(3) 0.16322(13)
O7 O -0.1359(3) 0.5008(3) 0.22449(13)
O8 O -0.3641(4) 0.4448(4) 0.16735(14)
O9 O -0.3741(4) 0.5333(3) 0.26041(14)
H2 H -0.45450 0.54160 0.24520
O10 O -0.4204(4) 0.2576(3) 0.24591(13)
O11 O -0.3019(4) 0.2405(3) 0.34525(14)
O12 O -0.1168(4) 0.3535(3) 0.33166(14)
O13 O -0.0526(4) 0.6071(3) 0.33224(13)
O14 O 0.0274(4) 0.5928(4) 0.43270(15)
O15 O -0.1044(5) 0.7709(4) 0.39672(17)
H3 H -0.11120 0.80300 0.36670
O16 O -0.3626(4) 0.6125(4) 0.36072(14)
O17 O -0.4103(4) 0.6473(4) 0.46164(14)
O18 O -0.2158(4) 0.5555(5) 0.49667(15)
O19 O 0.4735(5) 0.8357(3) 0.37033(15)
O20 O 0.4872(5) 1.0570(4) 0.37945(16)
O21 O 0.4663(6) 0.9318(4) 0.46186(16)
O22 O 0.6886(6) 0.9410(7) 0.4206(3)
H4 H 0.72290 0.88090 0.40870
O23 O 0.3817(5) 0.4847(4) 0.41616(15)
O24 O 0.2754(5) 0.7195(5) 0.4361(2)
O25 O -0.0511(7) 0.3431(5) 0.4497(2)
O26 O 0.3408(9) 0.4635(12) 0.1112(4)
O27 O 0.4299(13) 0.7258(10) 0.5515(3)
N1 N 0.173(6) 0.159(2) 0.4709(13)
C1 C 0.2775(5) 0.7872(4) 0.24703(18)
H5 H 0.21180 0.82680 0.26940
C2 C 0.2344(5) 0.8166(4) 0.18711(19)
C3 C -0.2808(5) 0.3073(4) 0.25401(18)
H6 H -0.21760 0.25940 0.23380
C4 C -0.2291(5) 0.3006(4) 0.31451(19)
C5 C -0.2542(5) 0.5690(5) 0.39964(18)
H7 H -0.24590 0.48330 0.39470
C6 C -0.2963(5) 0.5929(5) 0.45674(19)
Co1B Co 0.02269(7) 0.35379(6) 0.81112(2)
Co1A Co -0.47731(7) 0.14621(6) 0.31112(2)
Co1A* Co 0.52269(7) 1.14621(6) 0.31112(2)
Co1C Co -0.52269(7) -0.14621(6) 0.68888(2)
Co1C* Co 0.47731(7) 0.85379(6) 0.68888(2)
Co2B Co -0.01439(6) 0.53786(6) 0.70965(2)
Co2A Co 0.48561(6) 0.96214(6) 0.20965(2)
Co2C Co -0.48561(6) 0.03786(6) 0.79035(2)
Co3B Co -0.44309(7) 0.33888(6) 0.60738(3)
Co3* Co -0.55691(7) 0.66112(6) 0.39262(3)
Co3B* Co 0.55691(7) 0.33888(6) 0.60738(3)
P1B P -0.27847(12) 0.36942(11) 0.73757(5)
P2B P 0.28807(12) 0.54273(11) 0.77476(5)
P3B P 0.08387(14) 0.36193(13) 0.61027(5)
P4B P -0.52433(16) 0.05986(13) 0.59410(5)
O1B O -0.1292(3) 0.4166(3) 0.75224(13)
O2B O -0.3339(4) 0.3835(3) 0.67901(14)
O3B O -0.3750(4) 0.4281(4) 0.77734(15)
H1B H -0.45470 0.43740 0.76170
O4B O -0.4179(4) 0.1688(3) 0.73777(14)
O4A O 0.0821(4) 0.3312(3) 0.23777(14)
O4C O -0.0821(4) 0.6688(3) 0.76223(14)
O5B O -0.1228(4) 0.2269(3) 0.83582(14)
O6B O -0.3151(4) 0.1156(3) 0.83678(13)
O6A O 0.1849(4) 0.3844(3) 0.33678(13)
O6C O -0.1849(4) 0.6156(3) 0.66322(13)
O7B O 0.1359(3) 0.4992(3) 0.77551(13)
O8B O 0.3641(4) 0.5552(4) 0.83265(14)
O9B O 0.3741(4) 0.4667(3) 0.73959(14)
H2B H 0.45450 0.45840 0.75480
O10B O 0.4204(4) 0.7424(3) 0.75409(13)
O10A O -0.0796(4) 0.7576(3) 0.25409(13)
O10C O 0.0796(4) 0.2424(3) 0.74591(13)
O11B O 0.3019(4) 0.7595(3) 0.65475(14)
O11A O -0.1981(4) 0.7405(3) 0.15475(14)
O11C O 0.1981(4) 0.2595(3) 0.84525(14)
O12B O 0.1168(4) 0.6465(3) 0.66834(14)
O13B O 0.0526(4) 0.3929(3) 0.66776(13)
O14B O -0.0274(4) 0.4072(4) 0.56730(15)
O15B O 0.1044(5) 0.2291(4) 0.60328(17)
H3B H 0.11120 0.19700 0.63330
O16B O 0.3626(4) 0.3875(4) 0.63928(14)
O16* O 0.6374(4) 0.6125(4) 0.36072(14)
O16B* O -0.6374(4) 0.3875(4) 0.63928(14)
O17B O 0.4103(4) 0.3527(4) 0.53836(14)
O17* O 0.5897(4) 0.6473(4) 0.46164(14)
O17B* O -0.5897(4) 0.3527(4) 0.53836(14)
O18B O 0.2158(4) 0.4445(5) 0.50333(15)
O19B O -0.4735(5) 0.1643(3) 0.62967(15)
O20B O -0.4872(5) -0.0570(4) 0.62055(16)
O20A O 0.0128(5) 0.5570(4) 0.12055(16)
O20C O -0.0128(5) 0.4430(4) 0.87945(16)
O21B O -0.4663(6) 0.0682(4) 0.53814(16)
O22B O -0.6886(6) 0.0590(7) 0.5794(3)
H4B H -0.72290 0.11910 0.59130
O23B O -0.3817(5) 0.5153(4) 0.58384(15)
O24B O -0.2754(5) 0.2805(5) 0.5639(2)
O25B O 0.0511(7) 0.6569(5) 0.5503(2)
C1B C -0.2775(5) 0.2128(4) 0.75297(18)
H5B H -0.21180 0.17320 0.73060
C2B C -0.2344(5) 0.1834(4) 0.81289(19)
C3B C 0.2808(5) 0.6927(4) 0.74599(18)
H6B H 0.21760 0.74060 0.76620
C4B C 0.2291(5) 0.6994(4) 0.68549(19)
C5B C 0.2542(5) 0.4310(5) 0.60036(18)
H7B H 0.24590 0.51670 0.60530
C6B C 0.2963(5) 0.4071(5) 0.54326(19)
#END
