
#######################################################################
#
#                 Cambridge Crystallographic Data Centre
#                                CCDC
#
#######################################################################
#
# If this CIF has been generated from an entry in the Cambridge
# Structural Database, then it will include bibliographic, chemical,
# crystal, experimental, refinement or atomic coordinate data resulting
# from the CCDC's data processing and validation procedures.
#
#######################################################################

data_CSD_CIF_OPULUJ
_audit_creation_date 2021-03-19
_audit_creation_method CSD-ConQuest-V1
_database_code_CSD OPULUJ
_database_code_depnum_ccdc_archive 'CCDC 1892047'
_chemical_formula_sum 'C46 H38 In1 N1 O12'
_chemical_formula_moiety
;
(C44 H30 In1 O12 1-)n,C2 H8 N1 1+
;
_journal_coden_Cambridge 3214
_journal_volume 19
_journal_year 2020
_journal_page_first 100613
_journal_name_full 'Applied Materials Today '
loop_
_publ_author_name
"V.K.Maka"
"P.Tamuly"
"S.Jindal"
"J.N.Moorthy"
_chemical_name_systematic
;
catena-[dimethylammonium 
(\m-5',5''-bis(4-carboxylatophenyl)-2',2'',4',6''-tetramethoxy-[1,1':3',1'':3'
',1'''-quaterphenyl]-4,4'''-dicarboxylato)-indium(iii) unknown solvate]
;
_cell_volume   7898.373
_exptl_crystal_colour 'colorless'
_exptl_crystal_description 'block'
_diffrn_ambient_temperature 100
_refine_special_details
;
Disordered cation (dimethylammonium) and solvent molecules were not modelled 
and the disordered density was taken into account using the MASK/OLEX2 
procedure.
;
#These two values have been output from a single CSD field.
_refine_ls_R_factor_gt 0.0564
_refine_ls_wR_factor_gt 0.0564
_symmetry_cell_setting monoclinic
_symmetry_space_group_name_H-M 'P 21/c'
_symmetry_Int_Tables_number 14
loop_
_symmetry_equiv_pos_site_id
_symmetry_equiv_pos_as_xyz
1 x,y,z
2 -x,1/2+y,1/2-z
3 -x,-y,-z
4 x,-1/2-y,-1/2+z
_cell_length_a 19.0215(14)
_cell_length_b 28.072(2)
_cell_length_c 15.9886(12)
_cell_angle_alpha 90
_cell_angle_beta 112.310(2)
_cell_angle_gamma 90
_cell_formula_units_Z 4
loop_
_atom_type_symbol
_atom_type_radius_bond
C 0.68
H 0.23
In 1.42
O 0.68
loop_
_atom_site_label
_atom_site_type_symbol
_atom_site_fract_x
_atom_site_fract_y
_atom_site_fract_z
In1 In 0.74926(2) 0.70688(2) 0.86745(2)
O1 O -0.18666(11) 0.64590(7) 0.82162(14)
O2 O -0.19294(12) 0.72030(7) 0.77696(14)
O3 O 0.11995(10) 0.50094(7) 0.53249(15)
O4 O -0.12554(12) 0.70368(7) -0.01188(14)
O5 O 0.10676(11) 0.59577(8) 0.38316(14)
O6 O 0.10612(12) 0.60151(8) 0.67919(14)
O7 O -0.22829(11) 0.66941(8) -0.00793(14)
O8 O 0.24169(12) 0.65230(8) 0.60113(17)
O9 O 0.31869(14) 0.28108(8) 0.71929(18)
O10 O 0.65443(13) 0.67055(9) 0.7722(2)
O11 O 0.24110(13) 0.27572(8) 0.57567(17)
C1 C -0.04134(15) 0.64636(10) 0.61660(19)
O12 O 0.62009(15) 0.7044(1) 0.8718(2)
C2 C -0.12515(15) 0.66638(10) 0.72159(18)
C3 C -0.09602(16) 0.62149(10) 0.72258(19)
H1 H -0.10496 0.59777 0.75795
C4 C -0.00053(15) 0.63453(10) 0.55618(18)
C5 C -0.17031(15) 0.67771(10) 0.77678(18)
C6 C -0.11736(15) 0.63629(11) 0.26590(19)
H2 H -0.14375 0.62335 0.29897
C7 C -0.07186(16) 0.69153(10) 0.61472(19)
H3 H -0.06462 0.71487 0.57749
C8 C 0.10590(14) 0.59993(10) 0.53075(19)
C9 C -0.05339(16) 0.61136(11) 0.67118(19)
H4 H -0.03284 0.58112 0.67320
C10 C 0.07001(15) 0.61276(10) 0.58876(18)
C11 C -0.11718(15) 0.66702(10) 0.12614(18)
C12 C 0.23360(16) 0.37308(11) 0.5536(2)
H5 H 0.20828 0.35369 0.50411
C13 C -0.03966(15) 0.6439(1) 0.30722(19)
C14 C 0.00005(14) 0.63261(10) 0.40487(18)
C15 C 0.26435(15) 0.45163(11) 0.6173(2)
C16 C 0.07003(14) 0.60912(10) 0.43779(19)
C17 C -0.03833(16) 0.67517(10) 0.16773(19)
H6 H -0.01195 0.68833 0.13484
C18 C 0.27795(17) 0.35323(10) 0.6349(2)
C19 C -0.03367(15) 0.64514(10) 0.46469(19)
H7 H -0.07993 0.66115 0.44291
C20 C -0.15606(16) 0.64787(11) 0.17532(19)
H8 H -0.20814 0.64268 0.14801
C21 C -0.00087(16) 0.66359(11) 0.2568(2)
H9 H 0.05117 0.66891 0.28424
C22 C 0.31882(15) 0.58152(11) 0.6433(2)
C23 C 0.25673(15) 0.50365(11) 0.6101(2)
C24 C 0.22666(16) 0.42203(11) 0.5455(2)
H10 H 0.19592 0.43527 0.49038
C25 C 0.39026(15) 0.60948(12) 0.6820(2)
C26 C 0.18645(14) 0.52682(11) 0.57088(19)
C27 C 0.24739(16) 0.60364(11) 0.6030(2)
C28 C 0.52843(17) 0.65611(12) 0.7591(2)
C29 C 0.31640(18) 0.38207(12) 0.7099(2)
H11 H 0.34619 0.36845 0.76505
C30 C -0.11262(16) 0.70207(10) 0.66731(19)
H12 H -0.13174 0.73259 0.66693
C31 C 0.30946(17) 0.43122(11) 0.7010(2)
H13 H 0.33468 0.45071 0.75032
C32 C -0.15790(16) 0.68064(10) 0.0304(2)
C33 C 0.18162(14) 0.57624(10) 0.56821(18)
C34 C 0.32156(15) 0.53266(11) 0.6451(2)
H14 H 0.36878 0.51800 0.67093
C35 C 0.08886(18) 0.48443(12) 0.5944(2)
H15 H 0.04354 0.46651 0.56266
H16 H 0.07671 0.51111 0.62400
H17 H 0.12517 0.46443 0.63863
C36 C 0.28072(18) 0.30024(11) 0.6457(2)
C37 C 0.51825(19) 0.62384(14) 0.6916(3)
H18 H 0.55767 0.61732 0.67239
C38 C 0.44821(19) 0.60056(14) 0.6513(3)
H19 H 0.44058 0.57920 0.60416
C39 C 0.46966(19) 0.66586(14) 0.7892(3)
H20 H 0.47684 0.68766 0.83553
C40 C 0.60534(18) 0.67857(13) 0.8025(3)
C41 C 0.40161(18) 0.64289(14) 0.7495(3)
H21 H 0.36212 0.64986 0.76838
C42 C 0.0738(2) 0.55432(13) 0.3282(2)
H22 H 0.02035 0.55937 0.29592
H23 H 0.08139 0.52685 0.36638
H24 H 0.09783 0.54929 0.28587
C43 C 0.1395(2) 0.64131(15) 0.7363(2)
H25 H 0.10094 0.66460 0.73055
H26 H 0.17790 0.65522 0.71876
H27 H 0.16194 0.63084 0.79800
C44 C 0.2525(3) 0.67336(17) 0.5273(3)
H28 H 0.21449 0.66196 0.47203
H29 H 0.30203 0.66517 0.52884
H30 H 0.24856 0.70734 0.53052
In1* In -0.25074(2) 0.70688(2) -0.13255(2)
In1** In -0.25074(2) 0.70688(2) 0.86745(2)
In1A In 0.25074(2) 0.20688(2) 0.63255(2)
O1* O 0.81334(11) 0.64590(7) 0.82162(14)
O2* O 0.80706(12) 0.72030(7) 0.77696(14)
O4* O 0.87446(12) 0.70368(7) 0.98812(14)
O7* O 0.77171(11) 0.66941(8) 0.99207(14)
O9A O 0.68131(14) 0.78108(8) 0.78071(18)
O11A O 0.75890(13) 0.77572(8) 0.92433(17)
#END
