
#######################################################################
#
#                 Cambridge Crystallographic Data Centre
#                                CCDC
#
#######################################################################
#
# If this CIF has been generated from an entry in the Cambridge
# Structural Database, then it will include bibliographic, chemical,
# crystal, experimental, refinement or atomic coordinate data resulting
# from the CCDC's data processing and validation procedures.
#
#######################################################################

data_CSD_CIF_OPUMAQ
_audit_creation_date 2021-03-19
_audit_creation_method CSD-ConQuest-V1
_database_code_CSD OPUMAQ
_database_code_depnum_ccdc_archive 'CCDC 1892051'
_chemical_formula_sum 'C59 H44 In1 N1 O12'
_chemical_formula_moiety
;
(C57 H36 In1 O12 1-)n,C2 H8 N1 1+
;
_journal_coden_Cambridge 3214
_journal_volume 19
_journal_year 2020
_journal_page_first 100613
_journal_name_full 'Applied Materials Today '
loop_
_publ_author_name
"V.K.Maka"
"P.Tamuly"
"S.Jindal"
"J.N.Moorthy"
_chemical_name_systematic
;
catena-[dimethylammonium 
(\m-4,4',4'',4'''-(2,2',7,7'-tetramethoxy-9,9'-spirobi[fluorene]-3,3',6,6'-tet
rayl)tetrabenzoato)-indium(iii) unknown solvate]
;
_cell_volume  10360.038
_exptl_crystal_colour 'colorless'
_exptl_crystal_description 'block'
_diffrn_ambient_temperature 100
_refine_special_details
;
Disordered cation (dimethylammonium) and solvent molecules were not modelled 
and the disordered density was taken into account using the MASK/OLEX2 
procedure.
;
#These two values have been output from a single CSD field.
_refine_ls_R_factor_gt 0.0796
_refine_ls_wR_factor_gt 0.0796
_symmetry_cell_setting monoclinic
_symmetry_space_group_name_H-M 'C 2/c'
_symmetry_Int_Tables_number 15
loop_
_symmetry_equiv_pos_site_id
_symmetry_equiv_pos_as_xyz
1 x,y,z
2 -x,y,1/2-z
3 1/2+x,1/2+y,z
4 1/2-x,1/2+y,1/2-z
5 -x,-y,-z
6 x,-y,-1/2+z
7 -1/2-x,-1/2-y,-z
8 -1/2+x,-1/2-y,-1/2+z
_cell_length_a 19.773(11)
_cell_length_b 36.25(2)
_cell_length_c 17.175(8)
_cell_angle_alpha 90
_cell_angle_beta 122.695(10)
_cell_angle_gamma 90
_cell_formula_units_Z 4
loop_
_atom_type_symbol
_atom_type_radius_bond
C 0.68
H 0.23
In 1.42
O 0.68
loop_
_atom_site_label
_atom_site_type_symbol
_atom_site_fract_x
_atom_site_fract_y
_atom_site_fract_z
In1 In 1.00000 0.53811(2) 0.75000
O1 O 0.9568(3) 0.49297(10) 0.6441(3)
O2 O 0.4617(3) 0.06637(10) -0.1628(3)
O3 O 0.8762(2) 0.50965(9) 0.6859(3)
O4 O 0.5733(3) 0.08344(10) -0.1473(3)
O5 O 0.5595(3) 0.24976(11) 0.0127(3)
O6 O 0.7746(3) 0.33346(10) 0.4984(3)
C1 C 0.5163(3) 0.26572(13) 0.1923(4)
C2 C 0.5333(4) 0.17717(14) 0.0408(4)
C3 C 0.5092(3) 0.22910(13) 0.2149(3)
C4 C 0.7274(4) 0.40667(14) 0.4642(4)
C5 C 0.8904(4) 0.49028(14) 0.6392(4)
C6 C 0.5170(3) 0.20104(13) 0.1653(4)
H1 H 0.51019 0.17620 0.17748
C7 C 0.5331(3) 0.27371(14) 0.1267(4)
H2 H 0.53773 0.29859 0.11278
C8 C 0.5340(3) 0.20801(14) 0.0996(4)
C9 C 0.5274(3) 0.11805(14) -0.0661(4)
C10 C 0.6442(4) 0.31066(14) 0.3806(4)
H3 H 0.66074 0.28569 0.39607
C11 C 0.5684(4) 0.31865(13) 0.3114(4)
C12 C 0.4706(4) 0.12189(14) -0.0456(4)
H4 H 0.42815 0.10446 -0.06850
C13 C 0.5436(3) 0.35621(13) 0.2880(4)
C14 C 0.8335(4) 0.46096(14) 0.5756(4)
C15 C 0.50000 0.29187(16) 0.25000
C16 C 0.5211(4) 0.08811(14) -0.1288(4)
C17 C 0.4741(4) 0.15130(15) 0.0090(4)
H5 H 0.43458 0.15329 0.02418
C18 C 0.5433(5) 0.24529(17) 0.0815(5)
C19 C 0.8563(4) 0.43650(15) 0.5350(5)
H6 H 0.90778 0.43866 0.54363
C20 C 0.5885(4) 0.14344(16) -0.0324(4)
H7 H 0.62880 0.14133 -0.04625
C21 C 0.6967(4) 0.33832(16) 0.4281(5)
C22 C 0.6722(4) 0.37522(14) 0.4083(4)
C23 C 0.8048(4) 0.40799(16) 0.4803(4)
H8 H 0.82196 0.38988 0.45459
C24 C 0.7036(4) 0.43239(16) 0.5012(4)
H9 H 0.65056 0.43174 0.48877
C25 C 0.7581(4) 0.46060(16) 0.5591(5)
H10 H 0.74199 0.47881 0.58567
C26 C 0.5905(4) 0.17221(16) 0.0220(4)
H11 H 0.63403 0.18913 0.04699
C27 C 0.5947(4) 0.38319(14) 0.3371(4)
H12 H 0.57769 0.40815 0.32305
C28 C 0.7981(4) 0.29676(14) 0.5296(5)
H13 H 0.80329 0.28293 0.48410
H14 H 0.75740 0.28504 0.53733
H15 H 0.84984 0.29692 0.58904
C29 C 0.5756(5) 0.28786(16) -0.0031(5)
H16 H 0.59097 0.28773 -0.04861
H17 H 0.61948 0.29829 0.05527
H18 H 0.52713 0.30285 -0.02635
O1A O 0.0432(3) 0.49297(10) -0.1441(3)
O2A O 0.5383(3) 0.06637(10) 0.6628(3)
O3A O 0.1238(2) 0.50965(9) -0.1859(3)
O4A O 0.4267(3) 0.08344(10) 0.6473(3)
O5A O 0.4405(3) 0.24976(11) 0.4873(3)
O6A O 0.2254(3) 0.33346(10) 0.0016(3)
C1A C 0.4837(3) 0.26572(13) 0.3077(4)
C2A C 0.4667(4) 0.17717(14) 0.4592(4)
C3A C 0.4908(3) 0.22910(13) 0.2851(3)
C4A C 0.2726(4) 0.40667(14) 0.0358(4)
C5A C 0.1096(4) 0.49028(14) -0.1392(4)
C6A C 0.4830(3) 0.20104(13) 0.3347(4)
H1A H 0.48981 0.17620 0.32252
C7A C 0.4669(3) 0.27371(14) 0.3733(4)
H2A H 0.46227 0.29859 0.38722
C8A C 0.4660(3) 0.20801(14) 0.4004(4)
C9A C 0.4726(3) 0.11805(14) 0.5661(4)
C10A C 0.3558(4) 0.31066(14) 0.1194(4)
H3A H 0.33926 0.28569 0.10393
C11A C 0.4316(4) 0.31865(13) 0.1886(4)
C12A C 0.5294(4) 0.12189(14) 0.5456(4)
H4A H 0.57185 0.10446 0.56850
C13A C 0.4564(3) 0.35621(13) 0.2120(4)
C14A C 0.1665(4) 0.46096(14) -0.0756(4)
C16A C 0.4789(4) 0.08811(14) 0.6288(4)
C17A C 0.5259(4) 0.15130(15) 0.4910(4)
H5A H 0.56542 0.15329 0.47582
C18A C 0.4567(5) 0.24529(17) 0.4185(5)
C19A C 0.1437(4) 0.43650(15) -0.0350(5)
H6A H 0.09222 0.43866 -0.04363
C20A C 0.4115(4) 0.14344(16) 0.5324(4)
H7A H 0.37120 0.14133 0.54625
C21A C 0.3033(4) 0.33832(16) 0.0719(5)
C22A C 0.3278(4) 0.37522(14) 0.0917(4)
C23A C 0.1952(4) 0.40799(16) 0.0197(4)
H8A H 0.17804 0.38988 0.04541
C24A C 0.2964(4) 0.43239(16) -0.0012(4)
H9A H 0.34944 0.43174 0.01123
C25A C 0.2419(4) 0.46060(16) -0.0591(5)
H10A H 0.25801 0.47881 -0.08567
C26A C 0.4095(4) 0.17221(16) 0.4780(4)
H11A H 0.36597 0.18913 0.45301
C27A C 0.4053(4) 0.38319(14) 0.1629(4)
H12A H 0.42231 0.40815 0.17695
C28A C 0.2019(4) 0.29676(14) -0.0296(5)
H13A H 0.19671 0.28293 0.01590
H14A H 0.24260 0.28504 -0.03733
H15A H 0.15016 0.29692 -0.08904
C29A C 0.4244(5) 0.28786(16) 0.5031(5)
H16A H 0.40903 0.28773 0.54861
H17A H 0.38052 0.29829 0.44473
H18A H 0.47287 0.30285 0.52635
In1* In 0.00000 0.53811(2) -0.25000
In1B In 0.50000 0.03811(2) -0.25000
In1B* In 0.50000 0.03811(2) 0.75000
O1A* O 1.0432(3) 0.49297(10) 0.8559(3)
O2B O 0.9617(3) 0.56637(10) 0.8372(3)
O2C O 1.0383(3) 0.56637(10) 0.6628(3)
O3A* O 1.1238(2) 0.50965(9) 0.8141(3)
O4B O 1.0733(3) 0.58344(10) 0.8527(3)
O4C O 0.9267(3) 0.58344(10) 0.6473(3)
#END
