
#######################################################################
#
#                 Cambridge Crystallographic Data Centre
#                                CCDC
#
#######################################################################
#
# If this CIF has been generated from an entry in the Cambridge
# Structural Database, then it will include bibliographic, chemical,
# crystal, experimental, refinement or atomic coordinate data resulting
# from the CCDC's data processing and validation procedures.
#
#######################################################################

data_CSD_CIF_OPUMEU
_audit_creation_date 2021-03-19
_audit_creation_method CSD-ConQuest-V1
_database_code_CSD OPUMEU
_database_code_depnum_ccdc_archive 'CCDC 1892052'
_chemical_formula_sum 'C52 H50 In1 N1 O12'
_chemical_formula_moiety
;
(C50 H42 In1 O12 1-)n,C2 H8 N1 1+
;
_journal_coden_Cambridge 3214
_journal_volume 19
_journal_year 2020
_journal_page_first 100613
_journal_name_full 'Applied Materials Today '
loop_
_publ_author_name
"V.K.Maka"
"P.Tamuly"
"S.Jindal"
"J.N.Moorthy"
_chemical_name_systematic
;
catena-[dimethylammonium 
(\m-5',5''-bis(4-(carboxylatomethanolate)phenyl)-2',2'',4',4'',6',6''-hexameth
yl-[1,1':3',1'':3'',1'''-quaterphenyl]-4,4'''-oxidoacetato)-indium(iii) 
unknown solvate]
;
_cell_volume   3240.222
_exptl_crystal_colour 'colorless'
_exptl_crystal_description 'needle'
_diffrn_ambient_temperature 100
_diffrn_special_details
;
twin

;
_refine_special_details
;
Disordered cation (dimethylammonium) and solvent molecules were not modelled 
and the disordered density was taken into account using the MASK/OLEX2 
procedure.
;
#These two values have been output from a single CSD field.
_refine_ls_R_factor_gt 0.0626
_refine_ls_wR_factor_gt 0.0626
_symmetry_cell_setting orthorhombic
_symmetry_space_group_name_H-M 'P b a 2'
_symmetry_Int_Tables_number 32
loop_
_symmetry_equiv_pos_site_id
_symmetry_equiv_pos_as_xyz
1 x,y,z
2 -x,-y,z
3 1/2-x,1/2+y,z
4 1/2+x,1/2-y,z
_cell_length_a 20.0255(9)
_cell_length_b 23.1603(11)
_cell_length_c 6.9863(3)
_cell_angle_alpha 90
_cell_angle_beta 90
_cell_angle_gamma 90
_cell_formula_units_Z 2
loop_
_atom_type_symbol
_atom_type_radius_bond
C 0.68
H 0.23
In 1.42
O 0.68
loop_
_atom_site_label
_atom_site_type_symbol
_atom_site_fract_x
_atom_site_fract_y
_atom_site_fract_z
In1 In 0.00000 1.00000 -2.2108(2)
O1 O 0.0564(3) 0.9248(2) -2.0539(9)
O2 O -0.0433(3) 0.9419(2) -1.9878(9)
O3 O 0.0599(3) 0.8261(2) -1.8664(10)
O4 O 0.3119(3) 0.5246(5) -0.6179(10)
C1 C 0.0095(4) 0.9121(4) -1.9707(16)
C2 C 0.0025(3) 0.8627(4) -1.8350(17)
H1 H 0.00159 0.87676 -1.70116
H2 H -0.03932 0.84125 -1.86059
C3 C 0.0600(4) 0.7763(3) -1.7637(11)
C4 C 0.0190(5) 0.7650(4) -1.6098(14)
H3 H -0.01021 0.79403 -1.56254
C5 C 0.0207(5) 0.7103(3) -1.5233(14)
H4 H -0.01201 0.69978 -1.43117
C6 C 0.0697(3) 0.6724(2) -1.5726(10)
C7 C 0.1157(4) 0.6876(3) -1.7021(15)
H5 H 0.15219 0.66242 -1.72623
C8 C 0.1113(5) 0.7383(3) -1.8004(14)
H6 H 0.14382 0.74746 -1.89465
C9 C 0.0733(3) 0.6140(2) -1.4642(9)
C10 C 0.0268(3) 0.5721(2) -1.4927(8)
C11 C 0.0280(3) 0.5208(3) -1.3857(8)
C12 C 0.0805(3) 0.5114(2) -1.2566(8)
C13 C -0.0313(4) 0.5815(3) -1.6357(10)
H7 H -0.06196 0.61071 -1.58465
H8 H -0.05538 0.54511 -1.65409
H9 H -0.01337 0.59471 -1.75863
C14 C 0.0832(3) 0.4550(3) -1.1538(8)
H10 H 0.12844 0.44872 -1.10455
H11 H 0.07149 0.42380 -1.24239
H12 H 0.05148 0.45545 -1.04702
C15 C 0.1241(3) 0.6078(2) -1.3243(8)
C16 C 0.1729(3) 0.6564(3) -1.2797(11)
H13 H 0.19063 0.65133 -1.14998
H14 H 0.14984 0.69358 -1.28847
H15 H 0.20980 0.65547 -1.37193
C17 C 0.1272(2) 0.5553(2) -1.2259(9)
C18 C 0.1775(3) 0.5462(3) -1.0702(9)
C19 C 0.2480(3) 0.5405(4) -1.1088(10)
H16 H 0.26392 0.54170 -1.23679
C20 C 0.2897(3) 0.5336(4) -0.9669(10)
H17 H 0.33627 0.53290 -0.99259
C21 C 0.2671(5) 0.5270(8) -0.7738(13)
C22 C 0.2015(3) 0.5363(4) -0.730(1)
H18 H 0.18665 0.53608 -0.60089
C23 C 0.1562(3) 0.5464(4) -0.8818(10)
H19 H 0.11047 0.55340 -0.85393
O5 O 0.3985(4) 0.5095(4) -0.3548(11)
C24 C 0.4209(4) 0.5439(6) -0.4572(14)
O6 O 0.4804(4) 0.5648(5) -0.4392(10)
C25 C 0.3771(5) 0.5567(7) -0.6453(13)
O1A O -0.0564(3) 0.0752(2) -2.0539(9)
O2A O 0.0433(3) 0.0581(2) -1.9878(9)
O3A O -0.0599(3) 0.1739(2) -1.8664(10)
O4A O -0.3119(3) 0.4754(5) -0.6179(10)
C1A C -0.0095(4) 0.0879(4) -1.9707(16)
C2A C -0.0025(3) 0.1373(4) -1.8350(17)
H1A H -0.00159 0.12324 -1.70116
H2A H 0.03932 0.15875 -1.86059
C3A C -0.0600(4) 0.2237(3) -1.7637(11)
C4A C -0.0190(5) 0.2350(4) -1.6098(14)
H3A H 0.01021 0.20597 -1.56254
C5A C -0.0207(5) 0.2897(3) -1.5233(14)
H4A H 0.01201 0.30022 -1.43117
C6A C -0.0697(3) 0.3276(2) -1.5726(10)
C7A C -0.1157(4) 0.3124(3) -1.7021(15)
H5A H -0.15219 0.33758 -1.72623
C8A C -0.1113(5) 0.2617(3) -1.8004(14)
H6A H -0.14382 0.25254 -1.89465
C9A C -0.0733(3) 0.3860(2) -1.4642(9)
C10A C -0.0268(3) 0.4279(2) -1.4927(8)
C11A C -0.0280(3) 0.4792(3) -1.3857(8)
C12A C -0.0805(3) 0.4886(2) -1.2566(8)
C13A C 0.0313(4) 0.4185(3) -1.6357(10)
H7A H 0.06196 0.38929 -1.58465
H8A H 0.05538 0.45489 -1.65409
H9A H 0.01337 0.40529 -1.75863
C14A C -0.0832(3) 0.5450(3) -1.1538(8)
H10A H -0.12844 0.55128 -1.10455
H11A H -0.07149 0.57620 -1.24239
H12A H -0.05148 0.54455 -1.04702
C15A C -0.1241(3) 0.3922(2) -1.3243(8)
C16A C -0.1729(3) 0.3436(3) -1.2797(11)
H13A H -0.19063 0.34867 -1.14998
H14A H -0.14984 0.30642 -1.28847
H15A H -0.20980 0.34453 -1.37193
C17A C -0.1272(2) 0.4447(2) -1.2259(9)
C18A C -0.1775(3) 0.4538(3) -1.0702(9)
C19A C -0.2480(3) 0.4595(4) -1.1088(10)
H16A H -0.26392 0.45830 -1.23679
C20A C -0.2897(3) 0.4664(4) -0.9669(10)
H17A H -0.33627 0.46710 -0.99259
C21A C -0.2671(5) 0.4730(8) -0.7738(13)
C22A C -0.2015(3) 0.4637(4) -0.730(1)
H18A H -0.18665 0.46392 -0.60089
C23A C -0.1562(3) 0.4536(4) -0.8818(10)
H19A H -0.11047 0.44660 -0.85393
O5A O -0.3985(4) 0.4905(4) -0.3548(11)
C24A C -0.4209(4) 0.4561(6) -0.4572(14)
O6A O -0.4804(4) 0.4352(5) -0.4392(10)
C25A C -0.3771(5) 0.4433(7) -0.6453(13)
In1* In 0.00000 0.00000 -2.2108(2)
In1B In -0.50000 0.50000 -0.2108(2)
In1B* In 0.50000 0.50000 -0.2108(2)
O1A* O -0.0564(3) 1.0752(2) -2.0539(9)
O2A* O 0.0433(3) 1.0581(2) -1.9878(9)
O5B O 0.1015(4) 1.0095(4) -2.3548(11)
O5C O -0.1015(4) 0.9905(4) -2.3548(11)
O6B O 0.0196(4) 1.0648(5) -2.4392(10)
O6C O -0.0196(4) 0.9352(5) -2.4392(10)
#END
