
#######################################################################
#
#                 Cambridge Crystallographic Data Centre
#                                CCDC
#
#######################################################################
#
# If this CIF has been generated from an entry in the Cambridge
# Structural Database, then it will include bibliographic, chemical,
# crystal, experimental, refinement or atomic coordinate data resulting
# from the CCDC's data processing and validation procedures.
#
#######################################################################

data_CSD_CIF_OPUSOK
_audit_creation_date 2021-03-19
_audit_creation_method CSD-ConQuest-V1
_database_code_CSD OPUSOK
_database_code_depnum_ccdc_archive 'CCDC 2043852'
_chemical_formula_sum 'C16 H18 Eu1 N3 O10'
_chemical_formula_moiety
;
(C14 H6 Eu1 N2 O8 1-)n,n(C2 H8 N1 1+),2n(H2 O1)
;
_journal_coden_Cambridge 1268
_journal_volume 26
_journal_year 2021
_journal_page_first 1695
_journal_name_full 'Molecules '
loop_
_publ_author_name
"Jiayishuo Wang"
"Muxin Yu"
"Lian Chen"
"Zhijia Li"
"Shengchang Li"
"Feilong Jiang"
"Maochun Hong"
_chemical_name_systematic
;
catena-(dimethylammonium 
(\m-1-[(3,5-dicarboxylatophenyl)methyl]-1H-pyrazole-3,5-dicarboxylato)-europiu
m dihydrate)
;
_cell_volume   1998.321
_exptl_crystal_colour 'colorless'
_exptl_crystal_description 'block'
_diffrn_ambient_temperature 292.1
_refine_special_details
;
The SQUEEZE/PLATON program was used to model the cation and the water 
molecules.
;
#These two values have been output from a single CSD field.
_refine_ls_R_factor_gt 0.0311
_refine_ls_wR_factor_gt 0.0311
_symmetry_cell_setting monoclinic
_symmetry_space_group_name_H-M 'P 21/c'
_symmetry_Int_Tables_number 14
loop_
_symmetry_equiv_pos_site_id
_symmetry_equiv_pos_as_xyz
1 x,y,z
2 -x,1/2+y,1/2-z
3 -x,-y,-z
4 x,-1/2-y,-1/2+z
_cell_length_a 9.1791(2)
_cell_length_b 10.1636(3)
_cell_length_c 21.7390(5)
_cell_angle_alpha 90
_cell_angle_beta 99.829(2)
_cell_angle_gamma 90
_cell_formula_units_Z 4
loop_
_atom_type_symbol
_atom_type_radius_bond
C 0.68
H 0.23
Eu 1.98
N 0.68
O 0.68
loop_
_atom_site_label
_atom_site_type_symbol
_atom_site_fract_x
_atom_site_fract_y
_atom_site_fract_z
Eu1 Eu 1.11703(2) 0.87334(2) 0.56009(2)
O1 O 0.1679(3) 0.8581(3) 0.45642(12)
O2 O 0.8907(3) 0.3622(3) 0.46273(14)
O3 O 0.0559(3) 0.7460(3) 0.15003(11)
O4 O 0.6972(3) 0.9634(3) 0.44042(12)
O5 O 0.2393(3) 0.6076(3) 0.17320(12)
O6 O 0.6772(3) 0.2720(3) 0.42386(13)
O7 O 0.0047(4) 0.9677(3) 0.38741(12)
O8 O 0.8863(3) 0.8680(3) 0.49955(15)
N1 N 0.2194(3) 0.6905(3) 0.35453(13)
N2 N 0.2334(4) 0.6399(3) 0.29874(15)
C1 C 0.1518(4) 0.6886(4) 0.18964(16)
C2 C 0.7567(4) 0.8633(4) 0.46709(18)
C3 C 0.7541(5) 0.6173(4) 0.46008(18)
H1 H 0.85613 0.61623 0.47264
C4 C 0.1396(4) 0.8036(4) 0.34898(17)
C5 C 0.7547(4) 0.3725(4) 0.44298(16)
C6 C 0.2770(4) 0.6140(4) 0.41014(17)
H2 H 0.24603 0.52309 0.40349
H3 H 0.23556 0.64748 0.44520
C7 C 0.1015(5) 0.8814(4) 0.40267(17)
C8 C 0.1591(4) 0.7206(4) 0.25646(16)
C9 C 0.6774(4) 0.5013(4) 0.44329(16)
C10 C 0.5209(4) 0.7344(4) 0.44083(16)
H4 H 0.46898 0.81322 0.43973
C11 C 0.5230(4) 0.5025(4) 0.42636(17)
H5 H 0.47250 0.42438 0.41536
C12 C 0.4454(4) 0.6195(4) 0.42593(17)
C13 C 0.6762(4) 0.7351(4) 0.45784(17)
C14 C 0.0980(5) 0.8246(4) 0.28587(17)
H6 H 0.04106 0.89364 0.26669
Eu1* Eu 0.11703(2) 0.87334(2) 0.56009(2)
Eu1B Eu -0.11703(2) 1.12666(2) 0.43991(2)
Eu1B* Eu 0.88297(2) 0.12666(2) 0.43991(2)
Eu1B** Eu 0.88297(2) 1.12666(2) 0.43991(2)
Eu1C Eu 0.11703(2) 0.62666(2) 0.06009(2)
O1* O 1.1679(3) 0.8581(3) 0.45642(12)
O2B O 1.1093(3) 0.6378(3) 0.53727(14)
O3C O 1.0559(3) 0.7540(3) 0.65003(11)
O4B O 1.3028(3) 1.0366(3) 0.55958(12)
O5C O 1.2393(3) 0.8924(3) 0.67320(12)
O6B O 1.3228(3) 0.7280(3) 0.57614(13)
O7B O 0.9953(4) 1.0323(3) 0.61259(12)
#END
