
#######################################################################
#
#                 Cambridge Crystallographic Data Centre
#                                CCDC
#
#######################################################################
#
# If this CIF has been generated from an entry in the Cambridge
# Structural Database, then it will include bibliographic, chemical,
# crystal, experimental, refinement or atomic coordinate data resulting
# from the CCDC's data processing and validation procedures.
#
#######################################################################

data_CSD_CIF_OPUSUQ
_audit_creation_date 2021-03-19
_audit_creation_method CSD-ConQuest-V1
_database_code_CSD OPUSUQ
_database_code_depnum_ccdc_archive 'CCDC 2043853'
_chemical_formula_sum 'C16 H18 Gd1 N3 O10'
_chemical_formula_moiety
;
(C14 H6 Gd1 N2 O8 1-)n,n(C2 H8 N1 1+),2n(H2 O1)
;
_journal_coden_Cambridge 1268
_journal_volume 26
_journal_year 2021
_journal_page_first 1695
_journal_name_full 'Molecules '
loop_
_publ_author_name
"Jiayishuo Wang"
"Muxin Yu"
"Lian Chen"
"Zhijia Li"
"Shengchang Li"
"Feilong Jiang"
"Maochun Hong"
_chemical_name_systematic
;
catena-(dimethylammonium 
(\m-1-[(3,5-dicarboxylatophenyl)methyl]-1H-pyrazole-3,5-dicarboxylato)-gadolin
ium dihydrate)
;
_cell_volume   2011.703
_exptl_crystal_colour 'colorless'
_exptl_crystal_description 'block'
_diffrn_ambient_temperature 133.8
_refine_special_details
;
The SQUEEZE/PLATON program was used to model the water molecules.

;
#These two values have been output from a single CSD field.
_refine_ls_R_factor_gt 0.0259
_refine_ls_wR_factor_gt 0.0259
_symmetry_cell_setting monoclinic
_symmetry_space_group_name_H-M 'P 21/c'
_symmetry_Int_Tables_number 14
loop_
_symmetry_equiv_pos_site_id
_symmetry_equiv_pos_as_xyz
1 x,y,z
2 -x,1/2+y,1/2-z
3 -x,-y,-z
4 x,-1/2-y,-1/2+z
_cell_length_a 9.2303(5)
_cell_length_b 10.1530(4)
_cell_length_c 21.8214(9)
_cell_angle_alpha 90
_cell_angle_beta 100.353(4)
_cell_angle_gamma 90
_cell_formula_units_Z 4
loop_
_atom_type_symbol
_atom_type_radius_bond
C 0.68
H 0.23
Gd 1.96
N 0.68
O 0.68
loop_
_atom_site_label
_atom_site_type_symbol
_atom_site_fract_x
_atom_site_fract_y
_atom_site_fract_z
Gd1 Gd 1.11662(2) 0.12570(2) 0.55948(2)
O1 O 0.8851(3) 0.1261(2) 0.49457(11)
O2 O 0.2395(3) 0.3928(2) 0.17329(10)
O3 O 0.1709(3) 0.1411(2) 0.45562(10)
O4 O 0.8895(3) 0.6361(2) 0.46506(11)
O5 O 0.6780(3) 0.7262(2) 0.42278(11)
O6 O 0.0602(3) 0.2485(2) 0.14952(10)
O7 O 0.0099(3) 0.0282(3) 0.38613(11)
C1 C 0.7536(4) 0.1336(3) 0.46541(15)
O8 O 0.6885(3) 0.0344(2) 0.43826(11)
C2 C 0.6737(4) 0.2630(3) 0.45723(15)
C3 C 0.7525(4) 0.3808(3) 0.46046(15)
C4 C 0.5201(4) 0.2635(3) 0.44088(15)
H1 H 0.85420 0.38137 0.47339
C5 C 0.6769(4) 0.4965(3) 0.44415(15)
C6 C 0.4432(4) 0.3808(3) 0.42613(15)
H2 H 0.46859 0.18461 0.43985
C7 C 0.7544(4) 0.6258(3) 0.44408(15)
C8 C 0.5231(4) 0.4965(4) 0.42707(15)
C9 C 0.2779(4) 0.3855(4) 0.40961(15)
H3 H 0.47391 0.57536 0.41620
N1 N 0.2200(3) 0.3080(3) 0.35379(13)
H4 H 0.23652 0.35220 0.44440
H5 H 0.24680 0.47635 0.40268
N2 N 0.2345(3) 0.3595(3) 0.29831(13)
C10 C 0.1425(4) 0.1950(4) 0.34838(15)
C11 C 0.1630(4) 0.2770(4) 0.25660(15)
C12 C 0.1054(4) 0.1156(3) 0.40133(15)
C13 C 0.1014(4) 0.1721(4) 0.28497(16)
C14 C 0.1543(4) 0.3083(3) 0.18960(15)
H6 H 0.04544 0.10258 0.26558
N3 N 0.3440(4) 0.6120(3) 0.24469(15)
H7 H 0.30791 0.53950 0.22466
H8 H 0.29951 0.62238 0.27733
C15 C 0.3096(7) 0.7258(5) 0.2029(2)
H9 H 0.36381 0.71914 0.16935
H10 H 0.33641 0.80556 0.22569
H11 H 0.20595 0.72688 0.18621
C16 C 0.5046(5) 0.5941(6) 0.2673(2)
H12 H 0.55229 0.57574 0.23262
H13 H 0.52007 0.52193 0.29616
H14 H 0.54502 0.67310 0.28775
Gd1* Gd 0.11662(2) 0.12570(2) 0.55948(2)
Gd1B Gd -0.11662(2) -0.12570(2) 0.44052(2)
Gd1B* Gd 0.88338(2) -0.12570(2) 0.44052(2)
Gd1B** Gd 0.88338(2) 0.87430(2) 0.44052(2)
Gd1C Gd 0.11662(2) 0.37430(2) 0.05948(2)
O1B O 1.1149(3) -0.1261(2) 0.50543(11)
O2C O 1.2395(3) 0.1072(2) 0.67329(10)
O3* O 1.1709(3) 0.1411(2) 0.45562(10)
O4B O 1.1105(3) 0.3639(2) 0.53494(11)
O5B O 1.3220(3) 0.2738(2) 0.57722(11)
O6C O 1.0602(3) 0.2515(2) 0.64952(10)
O7B O 0.9901(3) -0.0282(3) 0.61387(11)
O8B O 1.3115(3) -0.0344(2) 0.56174(11)
#END
