
#######################################################################
#
#                 Cambridge Crystallographic Data Centre
#                                CCDC
#
#######################################################################
#
# If this CIF has been generated from an entry in the Cambridge
# Structural Database, then it will include bibliographic, chemical,
# crystal, experimental, refinement or atomic coordinate data resulting
# from the CCDC's data processing and validation procedures.
#
#######################################################################

data_CSD_CIF_OPUTUR
_audit_creation_date 2021-03-19
_audit_creation_method CSD-ConQuest-V1
_database_code_CSD OPUTUR
_database_code_depnum_ccdc_archive 'CCDC 2043854'
_chemical_formula_sum 'C16 H18 N3 O10 Tb1'
_chemical_formula_moiety
;
(C14 H6 N2 O8 Tb1 1-)n,n(C2 H8 N1 1+),2n(H2 O1)
;
_journal_coden_Cambridge 1268
_journal_volume 26
_journal_year 2021
_journal_page_first 1695
_journal_name_full 'Molecules '
loop_
_publ_author_name
"Jiayishuo Wang"
"Muxin Yu"
"Lian Chen"
"Zhijia Li"
"Shengchang Li"
"Feilong Jiang"
"Maochun Hong"
_chemical_name_systematic
;
catena-(dimethylammonium 
(\m-1-[(3,5-dicarboxylatophenyl)methyl]-1H-pyrazole-3,5-dicarboxylato)-terbium
 dihydrate)
;
_cell_volume   1997.776
_exptl_crystal_colour 'colorless'
_exptl_crystal_description 'block'
_diffrn_ambient_temperature 100
_refine_special_details
;
The MASK/OLEX2 program was used to model the disordered cation and water 
molecules.
;
#These two values have been output from a single CSD field.
_refine_ls_R_factor_gt 0.0282
_refine_ls_wR_factor_gt 0.0282
_symmetry_cell_setting monoclinic
_symmetry_space_group_name_H-M 'P 21/c'
_symmetry_Int_Tables_number 14
loop_
_symmetry_equiv_pos_site_id
_symmetry_equiv_pos_as_xyz
1 x,y,z
2 -x,1/2+y,1/2-z
3 -x,-y,-z
4 x,-1/2-y,-1/2+z
_cell_length_a 9.2477(2)
_cell_length_b 10.1192(2)
_cell_length_c 21.7150(5)
_cell_angle_alpha 90
_cell_angle_beta 100.542(2)
_cell_angle_gamma 90
_cell_formula_units_Z 4
loop_
_atom_type_symbol
_atom_type_radius_bond
C 0.68
H 0.23
N 0.68
O 0.68
Tb 1.94
loop_
_atom_site_label
_atom_site_type_symbol
_atom_site_fract_x
_atom_site_fract_y
_atom_site_fract_z
Tb1 Tb 0.11657(2) 0.37460(2) 0.05970(2)
O1 O 0.1127(3) 0.6268(3) 0.00320(12)
O2 O 0.3210(3) 1.2279(3) 0.07749(12)
O3 O 0.8304(3) 0.6410(3) 0.04353(11)
O4 O 0.1090(3) 1.1374(3) 0.03522(11)
O5 O 0.3053(3) 0.5351(3) 0.06195(12)
C1 C 0.2428(4) 0.6336(4) 0.03396(15)
O6 O 0.7613(3) 0.8928(2) 0.32720(11)
N1 N 0.7643(3) 0.8592(3) 0.20118(13)
C2 C 0.5546(4) 0.8804(4) 0.07333(15)
C3 C 0.4789(4) 0.7635(4) 0.05815(15)
H1 H 0.53207 0.68306 0.05858
C4 C 0.2455(4) 0.8813(4) 0.03894(15)
H2 H 0.14180 0.88312 0.02552
C5 C 0.4767(4) 0.9966(4) 0.07303(16)
H3 H 0.52777 1.07692 0.08450
C6 C 0.7210(4) 0.8858(4) 0.08981(16)
H4 H 0.76299 0.85234 0.05401
H5 H 0.75260 0.97878 0.09730
N2 N 0.7784(3) 0.8071(3) 0.14563(13)
O7 O 0.9941(3) 0.5299(3) 0.11302(11)
C7 C 0.3230(4) 0.7618(4) 0.04191(15)
C8 C 0.8393(4) 0.7758(4) 0.24378(16)
C9 C 0.2449(4) 1.1292(4) 0.05644(15)
C10 C 0.8960(4) 0.6169(4) 0.09755(15)
C11 C 0.3234(4) 0.9976(4) 0.05605(16)
C12 C 0.8472(4) 0.8086(4) 0.31087(15)
C13 C 0.8577(4) 0.6949(4) 0.15130(16)
C14 C 0.9004(4) 0.6720(4) 0.21479(17)
H6 H 0.95856 0.60111 0.23441
O8 O 0.9434(3) 0.7496(3) 0.35131(11)
Tb1* Tb 0.11657(2) 1.37460(2) 0.05970(2)
Tb1** Tb 1.11657(2) 0.37460(2) 0.05970(2)
Tb1A Tb 0.88343(2) 0.87460(2) 0.44030(2)
Tb1B Tb -0.11657(2) 0.62540(2) -0.05970(2)
Tb1B* Tb 0.88343(2) 0.62540(2) -0.05970(2)
O1B O -0.1127(3) 0.3732(3) -0.00320(12)
O2* O 0.3210(3) 0.2279(3) 0.07749(12)
O3B O 0.1696(3) 0.3590(3) -0.04353(11)
O4* O 0.1090(3) 0.1374(3) 0.03522(11)
O6A O 0.2387(3) 0.3928(2) 0.17280(11)
O7* O -0.0059(3) 0.5299(3) 0.11302(11)
O8A O 0.0566(3) 0.2496(3) 0.14869(11)
#END
