
#######################################################################
#
#                 Cambridge Crystallographic Data Centre
#                                CCDC
#
#######################################################################
#
# If this CIF has been generated from an entry in the Cambridge
# Structural Database, then it will include bibliographic, chemical,
# crystal, experimental, refinement or atomic coordinate data resulting
# from the CCDC's data processing and validation procedures.
#
#######################################################################

data_CSD_CIF_OPUVAZ
_audit_creation_date 2021-03-19
_audit_creation_method CSD-ConQuest-V1
_database_code_CSD OPUVAZ
_database_code_depnum_ccdc_archive 'CCDC 2043855'
_chemical_formula_sum 'C16 H18 Dy1 N3 O10'
_chemical_formula_moiety
;
(C14 H6 Dy1 N2 O8 1-)n,n(C2 H8 N1 1+),2n(H2 O1)
;
_journal_coden_Cambridge 1268
_journal_volume 26
_journal_year 2021
_journal_page_first 1695
_journal_name_full 'Molecules '
loop_
_publ_author_name
"Jiayishuo Wang"
"Muxin Yu"
"Lian Chen"
"Zhijia Li"
"Shengchang Li"
"Feilong Jiang"
"Maochun Hong"
_chemical_name_systematic
;
catena-(dimethylammonium 
(\m-1-[(3,5-dicarboxylatophenyl)methyl]-1H-pyrazole-3,5-dicarboxylato)-dyspros
ium dihydrate)
;
_cell_volume   1999.622
_exptl_crystal_colour 'colorless'
_exptl_crystal_description 'block'
_diffrn_ambient_temperature 293.3
_refine_special_details
;
The SQUEEZE/PLATON program was used to model the disordered cation and water 
molecules.
;
#These two values have been output from a single CSD field.
_refine_ls_R_factor_gt 0.0387
_refine_ls_wR_factor_gt 0.0387
_symmetry_cell_setting monoclinic
_symmetry_space_group_name_H-M 'P 21/c'
_symmetry_Int_Tables_number 14
loop_
_symmetry_equiv_pos_site_id
_symmetry_equiv_pos_as_xyz
1 x,y,z
2 -x,1/2+y,1/2-z
3 -x,-y,-z
4 x,-1/2-y,-1/2+z
_cell_length_a 9.1815(5)
_cell_length_b 10.1647(4)
_cell_length_c 21.7438(9)
_cell_angle_alpha 90
_cell_angle_beta 99.809(4)
_cell_angle_gamma 90
_cell_formula_units_Z 4
loop_
_atom_type_symbol
_atom_type_radius_bond
C 0.68
H 0.23
Dy 1.92
N 0.68
O 0.68
loop_
_atom_site_label
_atom_site_type_symbol
_atom_site_fract_x
_atom_site_fract_y
_atom_site_fract_z
Dy1 Dy 1.11710(3) 0.12670(3) 0.56004(2)
O1 O 0.8908(4) 0.6380(3) 0.46293(19)
O2 O 0.1679(5) 0.1418(4) 0.45616(16)
O3 O 0.6965(4) 0.0365(3) 0.44014(17)
O4 O 0.6774(4) 0.7294(4) 0.42428(18)
O5 O 0.2396(5) 0.3920(4) 0.17308(17)
O6 O 0.0551(4) 0.2537(4) 0.14961(16)
O7 O 0.0055(5) 0.0310(4) 0.38760(17)
N1 N 0.2206(5) 0.3093(4) 0.35443(18)
O8 O 0.8865(5) 0.1310(4) 0.4998(2)
N2 N 0.2342(5) 0.3606(4) 0.2986(2)
C1 C 0.2789(6) 0.3851(5) 0.4104(2)
H1 H 0.23774 0.35070 0.44541
H2 H 0.24731 0.47592 0.40421
C2 C 0.5223(6) 0.4980(5) 0.4265(2)
H3 H 0.47146 0.57601 0.41563
C3 C 0.7569(6) 0.1358(5) 0.4674(2)
C4 C 0.6767(6) 0.2668(5) 0.4585(2)
C5 C 0.4458(6) 0.3809(5) 0.4263(2)
C6 C 0.7535(6) 0.3821(5) 0.4602(2)
H4 H 0.85558 0.38276 0.47265
C7 C 0.7557(6) 0.6284(5) 0.4433(2)
C8 C 0.1027(6) 0.1191(5) 0.4031(2)
C9 C 0.1403(6) 0.1963(5) 0.3491(2)
C10 C 0.1588(6) 0.2806(5) 0.2565(2)
C11 C 0.1505(6) 0.3106(5) 0.1893(2)
C12 C 0.5231(6) 0.2646(5) 0.4413(2)
H5 H 0.47238 0.18517 0.44006
C13 C 0.0956(7) 0.1759(6) 0.2853(2)
H6 H 0.03697 0.10803 0.26600
C14 C 0.6774(6) 0.4991(5) 0.4432(2)
Dy1* Dy 0.11710(3) 0.12670(3) 0.56004(2)
Dy1B Dy -0.11710(3) -0.12670(3) 0.43996(2)
Dy1B* Dy 0.88290(3) -0.12670(3) 0.43996(2)
Dy1B** Dy 0.88290(3) 0.87330(3) 0.43996(2)
Dy1C Dy 0.11710(3) 0.37330(3) 0.06004(2)
O1B O 1.1092(4) 0.3620(3) 0.53707(19)
O2* O 1.1679(5) 0.1418(4) 0.45616(16)
O3B O 1.3035(4) -0.0365(3) 0.55986(17)
O4B O 1.3226(4) 0.2706(4) 0.57572(18)
O5C O 1.2396(5) 0.1080(4) 0.67308(17)
O6C O 1.0551(4) 0.2463(4) 0.64961(16)
O7B O 0.9945(5) -0.0310(4) 0.61240(17)
#END
