
#######################################################################
#
#                 Cambridge Crystallographic Data Centre
#                                CCDC
#
#######################################################################
#
# If this CIF has been generated from an entry in the Cambridge
# Structural Database, then it will include bibliographic, chemical,
# crystal, experimental, refinement or atomic coordinate data resulting
# from the CCDC's data processing and validation procedures.
#
#######################################################################

data_CSD_CIF_OQOGOS
_audit_creation_date 2016-07-14
_audit_creation_method CSD-ConQuest-V1
_database_code_CSD OQOGOS
_database_code_depnum_ccdc_archive 'CCDC 1434683'
_chemical_formula_sum 'C15 H38 N2 O22 U2'
_chemical_formula_moiety
;
(C15 H18 O16 U2 2-)n,2(H4 N1 1+),6(H2 O1)
;
_journal_coden_Cambridge 580
_journal_volume 117
_journal_year 2016
_journal_page_first 644
_journal_name_full 'Polyhedron '
loop_
_publ_author_name
"S.A.Novikov"
"L.B.Serezhkina"
"M.S.Grigorev"
"N.V.Manakov"
"V.N.Serezhkin"
_chemical_name_systematic
;
catena-[bis(ammonium) tris(\m-glutarato)-tetraoxo-di-uranium(vi) hexahydrate]
;
_cell_volume   2928.193
_exptl_crystal_colour 'yellow'
_exptl_crystal_density_diffrn 2.437
_exptl_special_details
;
Air-sensitive

;
_diffrn_ambient_temperature 100
#These two values have been output from a single CSD field.
_refine_ls_R_factor_gt 0.0345
_refine_ls_wR_factor_gt 0.0345
_symmetry_cell_setting monoclinic
_symmetry_space_group_name_H-M 'P 21/n'
_symmetry_Int_Tables_number 14
loop_
_symmetry_equiv_pos_site_id
_symmetry_equiv_pos_as_xyz
1 x,y,z
2 1/2-x,1/2+y,1/2-z
3 -x,-y,-z
4 -1/2+x,-1/2-y,-1/2+z
_cell_length_a 15.1930(4)
_cell_length_b 13.0466(3)
_cell_length_c 15.2695(4)
_cell_angle_alpha 90
_cell_angle_beta 104.656(1)
_cell_angle_gamma 90
_cell_formula_units_Z 4
loop_
_atom_type_symbol
_atom_type_radius_bond
C 0.68
H 0.23
N 0.68
O 0.68
U 1.96
loop_
_atom_site_label
_atom_site_type_symbol
_atom_site_fract_x
_atom_site_fract_y
_atom_site_fract_z
U1 U 0.34443(2) 0.33262(2) 0.27868(2)
U2 U 0.32807(2) 0.84994(2) 0.76199(2)
O1 O 0.4589(3) 0.2989(3) 0.3287(2)
O2 O 0.2309(3) 0.3689(3) 0.2272(3)
O3 O 0.4323(3) 0.7951(3) 0.8212(2)
O4 O 0.2234(3) 0.9050(3) 0.7010(3)
O5 O 0.3953(3) 0.5115(3) 0.2783(2)
O6 O 0.3506(3) 0.4642(3) 0.3970(2)
O7 O 0.3905(3) 0.8854(3) 0.6322(2)
O8 O 0.3251(3) 0.7360(3) 0.6339(2)
O9 O 0.2937(3) 0.2598(3) 0.4079(3)
O10 O 0.2991(3) 0.1566(3) 0.2972(3)
O11 O 0.2402(3) 0.1790(3) 0.7197(3)
O12 O 0.2457(3) 0.2991(3) 0.6218(3)
O13 O 0.3445(3) 0.2217(3) 0.1467(2)
O14 O 0.3920(3) 0.3779(3) 0.1408(3)
O15 O 0.3358(3) -0.0205(3) -0.1181(3)
O16 O 0.4095(3) 0.0154(3) -0.2191(2)
C1 C 0.3797(4) 0.5343(4) 0.3540(3)
C2 C 0.3938(4) 0.6420(4) 0.3881(3)
H1 H 0.35320 0.68750 0.34380
H2 H 0.45720 0.66210 0.39070
C3 C 0.3766(4) 0.6607(4) 0.4806(3)
H3 H 0.42040 0.62020 0.52660
H4 H 0.31450 0.63740 0.48010
C4 C 0.3865(4) 0.7737(4) 0.5060(3)
H5 H 0.44930 0.79570 0.50790
H6 H 0.34460 0.81390 0.45800
C5 C 0.3671(4) 0.7984(4) 0.5948(3)
C6 C 0.2844(4) 0.1700(4) 0.3752(4)
C7 C 0.2599(5) 0.0790(5) 0.4245(4)
H7 H 0.31490 0.03620 0.44630
H8 H 0.21440 0.03730 0.38120
C8 C 0.2217(5) 0.1060(5) 0.5048(4)
H9 H 0.17880 0.16410 0.48820
H10 H 0.18730 0.04660 0.51930
C9 C 0.2961(5) 0.1346(4) 0.5881(4)
H11 H 0.31980 0.07190 0.62250
H12 H 0.34690 0.16790 0.56930
C10 C 0.2599(4) 0.2063(4) 0.6475(3)
C11 C 0.3786(4) 0.2887(4) 0.1058(3)
C12 C 0.4014(4) 0.2684(4) 0.0175(3)
H13 H 0.46550 0.28810 0.02320
H14 H 0.36270 0.31240 -0.02970
C13 C 0.3885(4) 0.1571(4) -0.0135(3)
H15 H 0.42710 0.11230 0.03310
H16 H 0.32430 0.13690 -0.02040
C14 C 0.4134(4) 0.1422(4) -0.1030(3)
H17 H 0.38470 0.19750 -0.14500
H18 H 0.48010 0.14930 -0.09250
C15 C 0.3852(4) 0.0412(4) -0.1476(3)
O17 O 0.3822(3) 0.4198(3) 0.5839(3)
H19 H 0.371(5) 0.429(5) 0.5272(16)
H20 H 0.347(4) 0.372(4) 0.590(4)
O18 O 0.5029(4) 0.5174(4) 0.0906(3)
H21 H 0.468(5) 0.466(4) 0.090(6)
O19 O 0.3476(3) -0.1060(4) 0.0585(3)
H22 H 0.331(5) -0.082(6) 0.006(3)
H23 H 0.308(4) -0.150(5) 0.063(5)
O20 O 0.5179(4) 1.0134(5) 0.5914(5)
H24 H 0.478(6) 0.966(6) 0.584(8)
O21 O 0.4409(6) 0.6755(5) 0.1814(5)
O22 O 0.4978(5) 0.1702(5) -0.2933(5)
N1 N 0.3965(3) 0.5495(3) 0.7301(3)
H25 H 0.345(2) 0.566(4) 0.742(3)
H26 H 0.386(3) 0.513(3) 0.682(2)
H27 H 0.426(3) 0.604(3) 0.723(3)
H28 H 0.428(3) 0.514(3) 0.775(2)
N2 N 0.3923(4) 0.0166(4) 0.2088(3)
H29 H 0.406(4) 0.074(3) 0.186(3)
H30 H 0.442(2) -0.011(4) 0.239(3)
H31 H 0.364(3) -0.023(3) 0.167(3)
H32 H 0.358(3) 0.031(4) 0.245(3)
U2* U 0.32807(2) -0.15006(2) -0.23801(2)
U2A U 0.17193(2) 0.34994(2) 0.73801(2)
O11A O 0.2598(3) 0.6790(3) 0.7803(3)
O12A O 0.2543(3) 0.7991(3) 0.8782(3)
O15* O 0.3358(3) 0.9795(3) 0.8819(3)
O16* O 0.4095(3) 1.0154(3) 0.7809(2)
#END
