
#######################################################################
#
#                 Cambridge Crystallographic Data Centre
#                                CCDC
#
#######################################################################
#
# If this CIF has been generated from an entry in the Cambridge
# Structural Database, then it will include bibliographic, chemical,
# crystal, experimental, refinement or atomic coordinate data resulting
# from the CCDC's data processing and validation procedures.
#
#######################################################################

data_CSD_CIF_OQORIY
_audit_creation_date 2021-04-15
_audit_creation_method CSD-ConQuest-V1
_database_code_CSD OQORIY
_database_code_depnum_ccdc_archive 'CCDC 2063855'
_chemical_formula_sum 'C53 H75.75 Co1 Cr2 Mn2 N20.25 O45.25'
_chemical_formula_moiety
;
(C26 H22 Co1 N14 2+)n,n(C12 Cr2 Mn2 O24 2-),6.25n(C1 H3 N1 O2),8.75n(C1 H4 O1)
;
_journal_coden_Cambridge 222
_journal_volume 50
_journal_year 2021
_journal_page_first 5931
_journal_name_full 'Dalton Trans. '
loop_
_publ_author_name
"M.Palacios-Corella"
"V.Garcia-Lopez"
"C.Sanchez-Sanchez"
"J.M.Clemente-Juan"
"M.Clemente-Leon"
"E.Coronado"
_chemical_name_systematic
;
catena-(bis(6-([2,2'-bipyridin]-6-yl)-1,3,5-triazine-2,4-diamine)-cobalt 
hexakis(\m-oxalato)-di-chromium(iii)-di-manganese(ii) methanol nitromethane 
solvate)
;
_cell_volume   6946.629
_exptl_crystal_colour 'red'
_exptl_crystal_description 'needle'
_diffrn_ambient_temperature 120.2
_refine_special_details
;
The SQUEEZE/PLATON program was used to model the disordered solvent 
;
#These two values have been output from a single CSD field.
_refine_ls_R_factor_gt 0.0846
_refine_ls_wR_factor_gt 0.0846
_symmetry_cell_setting orthorhombic
_symmetry_space_group_name_H-M 'P n n a'
_symmetry_Int_Tables_number 52
loop_
_symmetry_equiv_pos_site_id
_symmetry_equiv_pos_as_xyz
1 x,y,z
2 1/2-x,-y,z
3 1/2-x,1/2+y,1/2-z
4 x,1/2-y,1/2-z
5 -x,-y,-z
6 -1/2+x,y,-z
7 -1/2+x,-1/2-y,-1/2+z
8 -x,-1/2+y,-1/2+z
_cell_length_a 19.4566(8)
_cell_length_b 15.5539(6)
_cell_length_c 22.9545(9)
_cell_angle_alpha 90
_cell_angle_beta 90
_cell_angle_gamma 90
_cell_formula_units_Z 4
loop_
_atom_type_symbol
_atom_type_radius_bond
C 0.68
H 0.23
Co 1.26
Cr 1.39
Mn 1.61
N 0.68
O 0.68
loop_
_atom_site_label
_atom_site_type_symbol
_atom_site_fract_x
_atom_site_fract_y
_atom_site_fract_z
Co1 Co 0.75000 0.50000 0.43640(6)
N1 N 0.6679(2) 0.5052(3) 0.3736(2)
N2 N 0.5844(3) 0.4468(4) 0.3078(3)
N3 N 0.5615(3) 0.5792(4) 0.3590(3)
N4 N 0.7071(3) 0.6219(4) 0.4481(2)
N5 N 0.8178(3) 0.5633(5) 0.4979(3)
N6 N 0.6864(3) 0.3800(4) 0.3249(2)
H1 H 0.72750 0.37684 0.34076
H2 H 0.67245 0.33963 0.30081
N7 N 0.4840(3) 0.5199(4) 0.2967(3)
H3 H 0.45595 0.56285 0.30445
H4 H 0.47145 0.47945 0.27216
C1 C 0.6468(4) 0.4435(5) 0.3369(3)
C2 C 0.5447(3) 0.5163(5) 0.3220(3)
C3 C 0.6242(3) 0.5711(5) 0.3826(3)
C4 C 0.6461(3) 0.6384(5) 0.4236(3)
C5 C 0.6120(4) 0.7129(5) 0.4369(3)
H5 H 0.56959 0.72653 0.41855
C6 C 0.6403(4) 0.7671(6) 0.4768(4)
H6 H 0.61673 0.81855 0.48670
C7 C 0.7003(4) 0.7496(5) 0.5025(3)
H7 H 0.71896 0.78774 0.53065
C8 C 0.7351(4) 0.6744(6) 0.4873(3)
C9 C 0.7994(4) 0.6419(6) 0.5134(3)
C10 C 0.8408(6) 0.6908(6) 0.5510(4)
H8 H 0.82594 0.74632 0.56279
C11 C 0.9019(4) 0.6601(8) 0.5707(4)
H9 H 0.93102 0.69411 0.59460
C12 C 0.9200(4) 0.5775(7) 0.5549(4)
H10 H 0.96226 0.55391 0.56818
C13 C 0.8779(4) 0.5294(7) 0.5203(3)
H11 H 0.89006 0.47166 0.51148
Mn1 Mn 0.25000 0.00000 0.38191(7)
Mn2 Mn 0.35577(7) 0.25000 0.75000
Cr1 Cr 0.36669(7) -0.25000 0.25000
Cr2 Cr 0.25000 0.00000 0.61656(7)
O1 O 0.2967(2) -0.2397(3) 0.3127(2)
O2 O 0.3643(2) -0.1229(3) 0.2530(2)
O3 O 0.2490(2) -0.1400(3) 0.3698(2)
O4 O 0.3255(3) -0.0174(4) 0.3120(2)
O5 O 0.2461(2) 0.1269(3) 0.6217(2)
O6 O 0.3201(2) 0.0130(3) 0.6789(2)
O7 O 0.2856(2) 0.2335(3) 0.6772(2)
O8 O 0.3490(2) 0.1130(3) 0.7461(2)
O9 O 0.4416(2) -0.2499(3) 0.30773(18)
O10 O 0.5558(2) -0.2385(3) 0.30914(18)
O11 O 0.3201(3) 0.0112(3) 0.4557(2)
O12 O 0.3191(2) 0.0054(3) 0.5532(2)
C14 C 0.2875(3) -0.1625(5) 0.3290(3)
C15 C 0.3302(4) -0.0948(5) 0.2955(3)
C16 C 0.2795(4) 0.1567(5) 0.6640(3)
C17 C 0.3205(4) 0.0887(5) 0.7015(4)
C18 C 0.5003(3) -0.2460(4) 0.2833(3)
C19 C 0.2896(4) 0.0060(4) 0.5027(4)
N1A N 0.8321(2) 0.4948(3) 0.3736(2)
N2A N 0.9156(3) 0.5532(4) 0.3078(3)
N3A N 0.9385(3) 0.4208(4) 0.3590(3)
N4A N 0.7929(3) 0.3781(4) 0.4481(2)
N5A N 0.6822(3) 0.4367(5) 0.4979(3)
N6A N 0.8136(3) 0.6200(4) 0.3249(2)
H1A H 0.77250 0.62316 0.34076
H2A H 0.82755 0.66037 0.30081
N7A N 1.0160(3) 0.4801(4) 0.2967(3)
H3A H 1.04405 0.43715 0.30445
H4A H 1.02855 0.52055 0.27216
C1A C 0.8532(4) 0.5565(5) 0.3369(3)
C2A C 0.9553(3) 0.4837(5) 0.3220(3)
C3A C 0.8758(3) 0.4289(5) 0.3826(3)
C4A C 0.8539(3) 0.3616(5) 0.4236(3)
C5A C 0.8880(4) 0.2871(5) 0.4369(3)
H5A H 0.93041 0.27347 0.41855
C6A C 0.8597(4) 0.2329(6) 0.4768(4)
H6A H 0.88327 0.18145 0.48670
C7A C 0.7997(4) 0.2504(5) 0.5025(3)
H7A H 0.78104 0.21226 0.53065
C8A C 0.7649(4) 0.3256(6) 0.4873(3)
C9A C 0.7006(4) 0.3581(6) 0.5134(3)
C10A C 0.6592(6) 0.3092(6) 0.5510(4)
H8A H 0.67406 0.25368 0.56279
C11A C 0.5981(4) 0.3399(8) 0.5707(4)
H9A H 0.56898 0.30589 0.59460
C12A C 0.5800(4) 0.4225(7) 0.5549(4)
H10A H 0.53774 0.44609 0.56818
C13A C 0.6221(4) 0.4706(7) 0.5203(3)
H11A H 0.60994 0.52834 0.51148
O9C O 0.4416(2) -0.2501(3) 0.19227(18)
O10C O 0.5558(2) -0.2615(3) 0.19086(18)
C18C C 0.5003(3) -0.2540(4) 0.2167(3)
O11A O 0.1799(3) -0.0112(3) 0.4557(2)
O12A O 0.1809(2) -0.0054(3) 0.5532(2)
C19A C 0.2104(4) -0.0060(4) 0.5027(4)
O1A O 0.2033(2) 0.2397(3) 0.3127(2)
O2A O 0.1357(2) 0.1229(3) 0.2530(2)
O3A O 0.2510(2) 0.1400(3) 0.3698(2)
O4A O 0.1745(3) 0.0174(4) 0.3120(2)
O5A O 0.2539(2) -0.1269(3) 0.6217(2)
O6A O 0.1799(2) -0.0130(3) 0.6789(2)
O7A O 0.2144(2) -0.2335(3) 0.6772(2)
O8A O 0.1510(2) -0.1130(3) 0.7461(2)
C14A C 0.2125(3) 0.1625(5) 0.3290(3)
C15A C 0.1698(4) 0.0948(5) 0.2955(3)
C16A C 0.2205(4) -0.1567(5) 0.6640(3)
C17A C 0.1795(4) -0.0887(5) 0.7015(4)
Mn2A Mn 0.14423(7) -0.25000 0.75000
Mn2D Mn 0.64423(7) -0.25000 0.25000
Cr1A Cr 0.13331(7) 0.25000 0.25000
O1C O 0.2967(2) -0.2603(3) 0.1873(2)
O2C O 0.3643(2) -0.3771(3) 0.2470(2)
O7C O 0.2856(2) 0.2665(3) 0.8228(2)
O8C O 0.3490(2) 0.3870(3) 0.7539(2)
O10D O 0.4442(2) 0.2385(3) 0.69086(18)
O10G O 0.4442(2) 0.2615(3) 0.80914(18)
#END
