
#######################################################################
#
#                 Cambridge Crystallographic Data Centre
#                                CCDC
#
#######################################################################
#
# If this CIF has been generated from an entry in the Cambridge
# Structural Database, then it will include bibliographic, chemical,
# crystal, experimental, refinement or atomic coordinate data resulting
# from the CCDC's data processing and validation procedures.
#
#######################################################################

data_CSD_CIF_OQOYID
_audit_creation_date 2011-06-16
_audit_creation_method CSD-ConQuest-V1
_database_code_CSD OQOYID
_database_code_depnum_ccdc_archive 'CCDC 725096'
_chemical_formula_sum 'C11 H22 Er1 N3 O10'
_chemical_formula_moiety
;
(H4 N1 1+)n,n(C11 H16 Er1 N2 O9 1-),n(H2 O1)
;
_journal_coden_Cambridge 367
_journal_volume 36
_journal_year 2010
_journal_page_first 67
_journal_name_full 'Koord.Khim.(Russ.)(Coord.Chem.) '
loop_
_publ_author_name
"J.Wang"
"P.Hu"
"B.Liu"
"R.Xu"
"X.Wang"
"L.Xu"
"L.Q.Zhang"
"X.D.Zhang"
_chemical_name_systematic
;
catena-(Ammonium 
aqua-(\m~2~-propane-1,3-diamine-N,N,N',N'-tetra-acetato)-erbium(iii) 
monohydrate)
;
_cell_volume   1692.931
_exptl_crystal_colour 'pink'
_exptl_crystal_density_diffrn 2.054
_exptl_crystal_description 'block'
_diffrn_ambient_temperature 295
#These two values have been output from a single CSD field.
_refine_ls_R_factor_gt 0.0218
_refine_ls_wR_factor_gt 0.0218
_symmetry_cell_setting monoclinic
_symmetry_space_group_name_H-M 'P 21/n'
_symmetry_Int_Tables_number 14
loop_
_symmetry_equiv_pos_site_id
_symmetry_equiv_pos_as_xyz
1 x,y,z
2 1/2-x,1/2+y,1/2-z
3 -x,-y,-z
4 -1/2+x,-1/2-y,-1/2+z
_cell_length_a 12.7576(8)
_cell_length_b 9.3151(6)
_cell_length_c 14.3278(9)
_cell_angle_alpha 90
_cell_angle_beta 96.138(1)
_cell_angle_gamma 90
_cell_formula_units_Z 4
loop_
_atom_type_symbol
_atom_type_radius_bond
C 0.68
H 0.23
Er 1.89
N 0.68
O 0.68
loop_
_atom_site_label
_atom_site_type_symbol
_atom_site_fract_x
_atom_site_fract_y
_atom_site_fract_z
Er1 Er 0.098633(12) 0.011463(15) 0.207216(11)
C1 C 0.1431(3) 0.1797(4) 0.3977(3)
C2 C 0.0556(3) 0.2695(4) 0.3476(3)
H1 H 0.02110 0.32440 0.39310
H2 H 0.08490 0.33640 0.30540
C3 C -0.0197(3) 0.3030(4) 0.1439(3)
C4 C -0.0859(3) 0.2609(4) 0.2217(3)
H3 H -0.11130 0.34660 0.25040
H4 H -0.14660 0.20580 0.19550
C5 C -0.0926(3) 0.1148(4) 0.3605(3)
H5 H -0.14510 0.18650 0.37130
H6 H -0.05070 0.09730 0.42000
C6 C -0.1486(3) -0.0222(4) 0.3292(3)
H7 H -0.17090 -0.01550 0.26250
H8 H -0.21150 -0.03070 0.36130
C7 C -0.0836(3) -0.1579(4) 0.3471(3)
H9 H -0.04900 -0.15320 0.41070
H10 H -0.13180 -0.23870 0.34440
C8 C 0.0759(3) -0.2913(4) 0.3321(3)
H11 H 0.04480 -0.38630 0.33170
H12 H 0.09140 -0.26160 0.39700
C9 C 0.1769(3) -0.2979(4) 0.2868(3)
C10 C -0.0527(3) -0.2607(4) 0.1978(3)
H13 H -0.10290 -0.33090 0.21610
H14 H 0.00010 -0.31140 0.16670
C11 C -0.1095(3) -0.1553(4) 0.1297(3)
H15 H 0.632(5) 0.002(5) 0.493(5)
H16 H 0.732(2) 0.032(5) 0.560(3)
N1 N -0.0225(2) 0.1745(3) 0.2934(2)
N2 N -0.0011(2) -0.1898(3) 0.2829(2)
N3 N 0.6717(3) 0.0701(4) 0.5315(3)
H17 H 0.64070 0.11400 0.57270
H18 H 0.68040 0.13260 0.48960
O1 O 0.1568(2) 0.0562(3) 0.36364(18)
O2 O 0.1979(2) 0.2316(3) 0.46660(18)
O3 O 0.0596(2) 0.2249(3) 0.13307(19)
O4 O -0.0451(2) 0.4101(3) 0.0973(2)
O5 O -0.0658(2) -0.0332(3) 0.12439(19)
O6 O -0.1927(2) -0.1920(3) 0.0835(2)
O7 O 0.19895(19) -0.1949(3) 0.23553(18)
O8 O 0.2340(2) -0.4048(3) 0.30618(19)
O9 O 0.1303(2) -0.0832(3) 0.05916(17)
H19 H 0.17990 -0.14100 0.05060
H20 H 0.11890 -0.03780 0.00760
O10 O 0.6404(4) 0.0053(4) 0.0719(4)
H21 H 0.65280 0.07850 0.03940
H22 H 0.68760 -0.05380 0.05920
Er1A Er 0.401367(12) -0.488537(15) 0.292784(11)
O8A O 0.2660(2) 0.0952(3) 0.19382(19)
#END
