
#######################################################################
#
#                 Cambridge Crystallographic Data Centre
#                                CCDC
#
#######################################################################
#
# If this CIF has been generated from an entry in the Cambridge
# Structural Database, then it will include bibliographic, chemical,
# crystal, experimental, refinement or atomic coordinate data resulting
# from the CCDC's data processing and validation procedures.
#
#######################################################################

data_CSD_CIF_OQUCOU
_audit_creation_date 2016-07-14
_audit_creation_method CSD-ConQuest-V1
_database_code_CSD OQUCOU
_database_code_depnum_ccdc_archive 'CCDC 1473179'
_chemical_formula_sum 'C72 H76 Cd5 N10 O34'
_chemical_formula_moiety
;
(C68 H56 Cd5 N8 O32 2-)n,2n(C2 H8 N1 1+),2n(H2 O1)
;
_journal_coden_Cambridge 208
_journal_volume 241
_journal_year 2016
_journal_page_first 105
_journal_name_full 'J.Solid State Chem. '
loop_
_publ_author_name
"Zhong-Xuan Xu"
"Ke-Hou Ao"
"Jian Zhang"
_chemical_name_systematic
;
catena-[bis(dimethylammonium) 
tetrakis(\m-(R)-5-(1-carboxylatoethoxy)isophthalato)-bis(\m-1,4-bis(imidazolyl
)benzene)-tetra-aqua-penta-cadmium(ii) unknown solvate dihydrate]
;
_cell_volume   5186.132
_exptl_crystal_colour 'colorless'
_exptl_crystal_description 'block'
_diffrn_ambient_temperature 293
_refine_special_details
;
The SQUEEZE/PLATON program was used to model some disordered solvent.

;
#These two values have been output from a single CSD field.
_refine_ls_R_factor_gt 0.0434
_refine_ls_wR_factor_gt 0.0434
loop_
_citation_database_id_CSD
_citation_special_details
OQUCUA "is a stereoisomer of this entry"
_symmetry_cell_setting monoclinic
_symmetry_space_group_name_H-M 'C 2'
_symmetry_Int_Tables_number 5
loop_
_symmetry_equiv_pos_site_id
_symmetry_equiv_pos_as_xyz
1 x,y,z
2 -x,y,-z
3 1/2+x,1/2+y,z
4 1/2-x,1/2+y,-z
_cell_length_a 25.6433(8)
_cell_length_b 13.3904(4)
_cell_length_c 15.1209(5)
_cell_angle_alpha 90
_cell_angle_beta 92.753(3)
_cell_angle_gamma 90
_cell_formula_units_Z 2
loop_
_atom_type_symbol
_atom_type_radius_bond
C 0.68
H 0.23
Cd 1.44
N 0.68
O 0.68
loop_
_atom_site_label
_atom_site_type_symbol
_atom_site_fract_x
_atom_site_fract_y
_atom_site_fract_z
Cd1 Cd 0.50000 -0.00658(6) 0.50000
Cd2 Cd 0.88772(2) -0.07961(4) 0.06400(4)
Cd3 Cd 0.76136(2) 0.04973(5) -0.00230(4)
C1 C 0.9937(4) -0.9407(9) 0.1155(10)
H1 H 1.01610 -0.99470 0.12540
O1 O 0.6863(3) 0.0010(6) 0.1157(5)
N1 N 0.9626(3) -0.3725(6) 0.1038(5)
O2 O 0.8173(3) 0.0187(7) 0.1131(4)
O3 O 0.5955(2) 0.4104(6) 0.0930(5)
O4 O 0.5619(3) -0.0136(6) 0.3703(5)
C2 C 0.6839(3) 0.0931(7) 0.1221(6)
C3 C 0.5652(3) 0.0772(7) 0.3764(6)
C4 C 0.8269(4) 0.0043(8) 0.1939(6)
C5 C 0.9909(4) -0.2192(7) 0.1087(7)
H2 H 1.01290 -0.16400 0.11300
N2 N 0.9391(3) -0.2152(6) 0.0909(6)
N3 N 0.9631(3) -0.7891(6) 0.1064(6)
C6 C 0.9296(3) -0.6334(7) 0.0434(7)
H3 H 0.90990 -0.66890 0.00090
C7 C 0.5983(4) 0.2391(8) 0.3178(6)
H4 H 0.58000 0.27180 0.36100
C8 C 0.9601(3) -0.4778(6) 0.1049(6)
N4 N 0.9415(3) -0.9469(6) 0.0895(6)
C9 C 1.0064(3) -0.3150(8) 0.1193(8)
H5 H 1.04000 -0.33750 0.13420
C10 C 0.9220(3) -0.3079(7) 0.0866(7)
H6 H 0.88760 -0.32660 0.07360
C11 C 0.9893(4) -0.5270(7) 0.1701(7)
H7 H 1.00880 -0.49120 0.21270
C12 C 0.9242(3) -0.8546(7) 0.0837(7)
H8 H 0.89020 -0.83660 0.06660
C13 C 0.6246(3) 0.0874(7) 0.2498(6)
H9 H 0.62370 0.01810 0.24630
C14 C 0.9601(3) -0.6832(6) 0.1072(6)
O5 O 0.7691(3) 0.3802(6) 0.0603(4)
O6 O 0.7076(3) 0.1487(5) 0.0693(5)
C15 C 0.9894(4) -0.6314(7) 0.1715(7)
H10 H 1.00890 -0.66580 0.21500
C16 C 0.9290(3) -0.5295(7) 0.0436(7)
H11 H 0.90770 -0.49500 0.00260
C17 C 0.6356(3) 0.4554(7) 0.1172(6)
C18 C 0.7919(3) 0.4289(8) 0.1224(5)
O7 O 0.9515(3) 0.3769(7) 0.4286(5)
O8 O 0.9290(3) 0.5203(7) 0.3712(5)
C19 C 0.6546(3) 0.2460(7) 0.1956(6)
H12 H 0.67450 0.28240 0.15710
C20 C 0.6530(3) 0.1414(7) 0.1909(5)
C21 C 0.8361(4) 0.2236(8) 0.2807(6)
C22 C 0.8212(3) 0.3747(8) 0.1956(5)
C23 C 0.6258(4) 0.2946(7) 0.2588(6)
O9 O 0.6233(3) 0.3965(5) 0.2695(5)
O10 O 0.8274(3) 0.1284(6) 0.3096(5)
C24 C 0.6533(4) 0.4589(8) 0.2139(6)
H13 H 0.69000 0.43900 0.22010
C25 C 0.8844(3) 0.3736(8) 0.3178(6)
C26 C 0.8103(3) 0.2734(8) 0.2098(6)
H14 H 0.78630 0.23970 0.17260
O11 O 0.5417(3) 0.1270(7) 0.4343(4)
C27 C 0.8746(4) 0.2764(8) 0.3345(6)
H15 H 0.89270 0.24390 0.38070
O12 O 0.8181(3) -0.1962(6) 0.0548(6)
C28 C 0.9242(4) 0.4271(12) 0.3767(6)
C29 C 0.8562(3) 0.4252(9) 0.2488(5)
H16 H 0.86170 0.49310 0.24010
O13 O 0.8620(3) -0.0521(7) 0.2209(5)
C30 C 0.7699(6) -0.0087(14) 0.3208(10)
H17 H 0.74750 -0.05350 0.28700
H18 H 0.79660 -0.04620 0.35270
H19 H 0.74970 0.02770 0.36180
C31 C 1.0071(4) -0.8442(8) 0.1241(11)
H20 H 1.04020 -0.81950 0.13930
C32 C 0.5972(3) 0.1360(8) 0.3142(6)
O14 O 0.8026(3) 0.2062(6) -0.0226(5)
O15 O 0.7902(3) 0.5235(5) 0.1260(5)
C33 C 0.7946(4) 0.0626(9) 0.2598(6)
H21 H 0.76730 0.10100 0.22730
C34 C 0.6476(6) 0.5649(10) 0.2498(9)
H22 H 0.66700 0.61040 0.21500
H23 H 0.61140 0.58350 0.24670
H24 H 0.66080 0.56730 0.31030
O16 O 0.6638(3) 0.4991(8) 0.0643(5)
O17 O 0.8998(6) 0.3041(12) 0.6970(9)
N5 N 0.5626(8) 0.2208(19) 0.5907(13)
H25 H 0.54020 0.20440 0.54920
C35 C 0.5542(14) 0.244(3) 0.691(2)
H26 H 0.51790 0.23690 0.70240
H27 H 0.57430 0.19760 0.72740
H28 H 0.56540 0.31070 0.70450
C36 C 0.6262(16) 0.237(5) 0.587(3)
H29 H 0.63670 0.22480 0.52770
H30 H 0.63500 0.30400 0.60380
H31 H 0.64390 0.19100 0.62680
Cd2A Cd 0.11228(2) -0.07961(4) 0.93600(4)
Cd3A Cd 0.23864(2) 0.04973(5) 1.00230(4)
C1A C 0.0063(4) -0.9407(9) 0.8845(10)
H1A H -0.01610 -0.99470 0.87460
O1A O 0.3137(3) 0.0010(6) 0.8843(5)
N1A N 0.0374(3) -0.3725(6) 0.8962(5)
O2A O 0.1827(3) 0.0187(7) 0.8869(4)
O3A O 0.4045(2) 0.4104(6) 0.9070(5)
O4A O 0.4381(3) -0.0136(6) 0.6297(5)
C2A C 0.3161(3) 0.0931(7) 0.8779(6)
C3A C 0.4348(3) 0.0772(7) 0.6236(6)
C4A C 0.1731(4) 0.0043(8) 0.8061(6)
C5A C 0.0091(4) -0.2192(7) 0.8913(7)
H2A H -0.01290 -0.16400 0.88700
N2A N 0.0609(3) -0.2152(6) 0.9091(6)
N3A N 0.0369(3) -0.7891(6) 0.8936(6)
C6A C 0.0704(3) -0.6334(7) 0.9566(7)
H3A H 0.09010 -0.66890 0.99910
C7A C 0.4017(4) 0.2391(8) 0.6822(6)
H4A H 0.42000 0.27180 0.63900
C8A C 0.0399(3) -0.4778(6) 0.8951(6)
N4A N 0.0585(3) -0.9469(6) 0.9105(6)
C9A C -0.0064(3) -0.3150(8) 0.8807(8)
H5A H -0.04000 -0.33750 0.86580
C10A C 0.0780(3) -0.3079(7) 0.9134(7)
H6A H 0.11240 -0.32660 0.92640
C11A C 0.0107(4) -0.5270(7) 0.8299(7)
H7A H -0.00880 -0.49120 0.78730
C12A C 0.0758(3) -0.8546(7) 0.9163(7)
H8A H 0.10980 -0.83660 0.93340
C13A C 0.3754(3) 0.0874(7) 0.7502(6)
H9A H 0.37630 0.01810 0.75370
C14A C 0.0399(3) -0.6832(6) 0.8928(6)
O5A O 0.2309(3) 0.3802(6) 0.9397(4)
O6A O 0.2924(3) 0.1487(5) 0.9307(5)
C15A C 0.0106(4) -0.6314(7) 0.8285(7)
H10A H -0.00890 -0.66580 0.78500
C16A C 0.0710(3) -0.5295(7) 0.9564(7)
H11A H 0.09230 -0.49500 0.99740
C17A C 0.3644(3) 0.4554(7) 0.8828(6)
C18A C 0.2081(3) 0.4289(8) 0.8776(5)
O7A O 0.0485(3) 0.3769(7) 0.5714(5)
O8A O 0.0710(3) 0.5203(7) 0.6288(5)
C19A C 0.3454(3) 0.2460(7) 0.8044(6)
H12A H 0.32550 0.28240 0.84290
C20A C 0.3470(3) 0.1414(7) 0.8091(5)
C21A C 0.1639(4) 0.2236(8) 0.7193(6)
C22A C 0.1788(3) 0.3747(8) 0.8044(5)
C23A C 0.3742(4) 0.2946(7) 0.7412(6)
O9A O 0.3767(3) 0.3965(5) 0.7305(5)
O10A O 0.1726(3) 0.1284(6) 0.6904(5)
C24A C 0.3467(4) 0.4589(8) 0.7861(6)
H13A H 0.31000 0.43900 0.77990
C25A C 0.1156(3) 0.3736(8) 0.6822(6)
C26A C 0.1897(3) 0.2734(8) 0.7902(6)
H14A H 0.21370 0.23970 0.82740
O11A O 0.4583(3) 0.1270(7) 0.5657(4)
C27A C 0.1254(4) 0.2764(8) 0.6655(6)
H15A H 0.10730 0.24390 0.61930
O12A O 0.1819(3) -0.1962(6) 0.9452(6)
C28A C 0.0758(4) 0.4271(12) 0.6233(6)
C29A C 0.1438(3) 0.4252(9) 0.7512(5)
H16A H 0.13830 0.49310 0.75990
O13A O 0.1380(3) -0.0521(7) 0.7791(5)
C30A C 0.2301(6) -0.0087(14) 0.6792(10)
H17A H 0.25250 -0.05350 0.71300
H18A H 0.20340 -0.04620 0.64730
H19A H 0.25030 0.02770 0.63820
C31A C -0.0071(4) -0.8442(8) 0.8759(11)
H20A H -0.04020 -0.81950 0.86070
C32A C 0.4028(3) 0.1360(8) 0.6858(6)
O14A O 0.1974(3) 0.2062(6) 1.0226(5)
O15A O 0.2098(3) 0.5235(5) 0.8740(5)
C33A C 0.2054(4) 0.0626(9) 0.7402(6)
H21A H 0.23270 0.10100 0.77270
C34A C 0.3524(6) 0.5649(10) 0.7502(9)
H22A H 0.33300 0.61040 0.78500
H23A H 0.38860 0.58350 0.75330
H24A H 0.33920 0.56730 0.68970
O16A O 0.3362(3) 0.4991(8) 0.9357(5)
Cd1B Cd 0.00000 0.49342(6) 0.50000
Cd1B* Cd 1.00000 0.49342(6) 0.50000
Cd2* Cd 0.88772(2) -1.07961(4) 0.06400(4)
Cd2A* Cd 0.11228(2) -1.07961(4) 0.93600(4)
Cd2B Cd 0.38772(2) 0.42039(4) 1.06400(4)
Cd2C Cd 0.61228(2) 0.42039(4) -0.06400(4)
Cd3B Cd 0.26136(2) 0.54973(5) 0.99770(4)
Cd3C Cd 0.73864(2) 0.54973(5) 0.00230(4)
O3B O 0.0955(2) -0.0896(6) 1.0930(5)
O3C O 0.9045(2) -0.0896(6) -0.0930(5)
N4* N 0.9415(3) 0.0531(6) 0.0895(6)
N4A* N 0.0585(3) 0.0531(6) 0.9105(6)
O5B O 0.2691(3) -0.1198(6) 1.0603(4)
O5C O 0.7309(3) -0.1198(6) -0.0603(4)
O7B O 0.4515(3) -0.1231(7) 0.4286(5)
O7C O 0.5485(3) -0.1231(7) 0.5714(5)
O8B O 0.4290(3) 0.0203(7) 0.3712(5)
O8C O 0.5710(3) 0.0203(7) 0.6288(5)
O15B O 0.2902(3) 0.0235(5) 1.1260(5)
O15C O 0.7098(3) 0.0235(5) -0.1260(5)
O16B O 0.1638(3) -0.0009(8) 1.0643(5)
O16C O 0.8362(3) -0.0009(8) -0.0643(5)
#END
