
#######################################################################
#
#                 Cambridge Crystallographic Data Centre
#                                CCDC
#
#######################################################################
#
# If this CIF has been generated from an entry in the Cambridge
# Structural Database, then it will include bibliographic, chemical,
# crystal, experimental, refinement or atomic coordinate data resulting
# from the CCDC's data processing and validation procedures.
#
#######################################################################

data_CSD_CIF_OQUCUA
_audit_creation_date 2016-07-14
_audit_creation_method CSD-ConQuest-V1
_database_code_CSD OQUCUA
_database_code_depnum_ccdc_archive 'CCDC 1473180'
_chemical_formula_sum 'C72 H76 Cd5 N10 O34'
_chemical_formula_moiety
;
2(C2 H8 N1 1+),n(C68 H56 Cd5 N8 O32 2-),2(H2 O1)
;
_journal_coden_Cambridge 208
_journal_volume 241
_journal_year 2016
_journal_page_first 105
_journal_name_full 'J.Solid State Chem. '
loop_
_publ_author_name
"Zhong-Xuan Xu"
"Ke-Hou Ao"
"Jian Zhang"
_chemical_name_systematic
;
catena-[bis(dimethylammonium) 
tetrakis(\m-(S)-5-(1-carboxylatoethoxy)isophthalato)-bis(\m-1,4-bis(imidazolyl
)benzene)-tetra-aqua-penta-cadmium(ii) unknown solvate dihydrate]
;
_cell_volume   5226.273
_exptl_crystal_colour 'colorless'
_exptl_crystal_density_diffrn 1.371
_exptl_crystal_description 'block'
_diffrn_ambient_temperature 293.7
_refine_special_details
;
The SQUEEZE/PLATON program has been used to model some disorder. The unit 
cell was found to contain a void of 1666 A$3! holding 339 electrons.
;
#These two values have been output from a single CSD field.
_refine_ls_R_factor_gt 0.0349
_refine_ls_wR_factor_gt 0.0349
loop_
_citation_database_id_CSD
_citation_special_details
OQUCOU "is a stereoisomer of this entry"
_symmetry_cell_setting monoclinic
_symmetry_space_group_name_H-M 'C 2'
_symmetry_Int_Tables_number 5
loop_
_symmetry_equiv_pos_site_id
_symmetry_equiv_pos_as_xyz
1 x,y,z
2 -x,y,-z
3 1/2+x,1/2+y,z
4 1/2-x,1/2+y,-z
_cell_length_a 25.7374(4)
_cell_length_b 13.3941(2)
_cell_length_c 15.1777(3)
_cell_angle_alpha 90
_cell_angle_beta 92.727(2)
_cell_angle_gamma 90
_cell_formula_units_Z 2
loop_
_atom_type_symbol
_atom_type_radius_bond
C 0.68
H 0.23
Cd 1.44
N 0.68
O 0.68
loop_
_atom_site_label
_atom_site_type_symbol
_atom_site_fract_x
_atom_site_fract_y
_atom_site_fract_z
Cd1 Cd 0.50000 1.46509(4) 1.00000
O1 O 0.4393(2) 1.4747(4) 1.1319(3)
O2 O 0.4575(2) 1.3345(4) 1.0657(3)
O3 O 0.5703(2) 1.4378(4) 1.1312(4)
O4 O 0.5487(2) 1.5832(5) 1.0705(3)
C1 C 0.5754(3) 1.5299(6) 1.1248(4)
C2 C 0.6150(2) 1.5839(5) 1.1837(4)
C3 C 0.6418(2) 1.5332(5) 1.2522(3)
C4 C 0.6260(3) 1.6826(5) 1.1669(4)
C5 C 0.6781(2) 1.5861(5) 1.3054(3)
H1 H 0.63560 1.46580 1.26220
C6 C 0.6634(3) 1.7345(5) 1.2186(3)
H2 H 0.60830 1.71520 1.12050
C7 C 0.7072(2) 1.5305(5) 1.3794(4)
C8 C 0.6884(2) 1.6856(5) 1.2902(3)
O5 O 0.6724(2) 1.8299(4) 1.1902(3)
O6 O 0.72946(19) 1.5792(4) 1.4401(3)
O7 O 0.7086(2) 1.4372(3) 1.3764(3)
H3 H 0.71200 1.72000 1.32730
C9 C 0.7052(3) 1.8958(5) 1.2411(4)
Cd2 Cd 0.26091(2) 0.91258(3) 1.49938(2)
C10 C 0.6719(3) 1.9520(5) 1.3046(4)
H4 H 0.73270 1.85840 1.27350
C11 C 0.7283(5) 1.9675(9) 1.1769(7)
O8 O 0.3018(2) 0.7561(4) 1.4790(3)
O9 O 0.3137(2) 1.4592(4) 1.3843(4)
O10 O 0.68186(19) 1.9395(4) 1.3868(3)
O11 O 0.29138(19) 1.3108(3) 1.4283(3)
O12 O 0.3356(2) 0.9603(5) 1.4342(4)
O13 O 0.6362(3) 2.0059(5) 1.2780(4)
H5 H 0.75080 2.01370 1.20860
H6 H 0.74790 1.93090 1.13550
H7 H 0.70090 2.00360 1.14590
Cd3 Cd 0.38754(2) 1.03807(2) 1.56411(3)
C12 C 0.3643(2) 1.0053(4) 1.3824(4)
O14 O 0.40446(18) 1.0482(4) 1.4084(3)
N1 N 0.4386(2) 1.1732(4) 1.5903(4)
O15 O 0.3190(2) 1.1568(4) 1.5573(4)
N2 N 0.4411(2) 1.9048(4) 1.5869(4)
C13 C 0.3482(3) 1.0003(5) 1.2857(4)
C14 C 0.4229(2) 1.2660(4) 1.5858(4)
C15 C 0.4915(3) 1.1767(5) 1.6099(5)
O16 O 0.3793(2) 1.0636(3) 1.2334(3)
H8 H 0.31180 1.02100 1.27790
C16 C 0.3536(5) 0.8967(6) 1.2499(6)
C17 C 0.3163(2) 1.3674(4) 1.3790(4)
N3 N 0.46244(18) 1.3300(3) 1.6010(3)
H9 H 0.38860 1.28520 1.57360
C18 C 0.5065(2) 1.2728(5) 1.6171(5)
H10 H 0.51320 1.12150 1.61700
C19 C 0.3755(3) 1.1663(4) 1.2427(4)
H11 H 0.34140 0.89550 1.18910
H12 H 0.33330 0.85140 1.28320
H13 H 0.38950 0.87700 1.25450
C20 C 0.3468(2) 1.3172(4) 1.3101(3)
C21 C 0.4599(2) 1.4368(4) 1.6033(4)
H14 H 0.54000 1.29610 1.63030
C22 C 0.4038(2) 1.2216(5) 1.1852(3)
C23 C 0.3463(2) 1.2142(4) 1.3052(4)
C24 C 0.3758(2) 1.3727(4) 1.2518(3)
C25 C 0.4294(2) 1.4875(5) 1.5398(4)
C26 C 0.4891(3) 1.4863(4) 1.6680(4)
C27 C 0.4041(2) 1.3248(5) 1.1881(4)
H15 H 0.42300 1.18890 1.14370
H16 H 0.32660 1.17710 1.34330
H17 H 0.37620 1.44200 1.25560
C28 C 0.4294(3) 1.5909(5) 1.5404(4)
H18 H 0.40930 1.45250 1.49760
C29 C 0.4890(3) 1.5902(5) 1.6685(4)
H19 H 0.50860 1.45080 1.71060
C30 C 0.4355(2) 1.3821(5) 1.1252(4)
C31 C 0.4599(2) 1.6413(4) 1.6041(4)
H20 H 0.40930 1.62630 1.49850
H21 H 0.50830 1.62500 1.71170
N4 N 0.4626(2) 1.7473(4) 1.6037(4)
C32 C 0.5073(3) 1.8026(5) 1.6237(7)
C33 C 0.4239(2) 1.8125(4) 1.5814(5)
C34 C 0.4931(3) 1.8977(5) 1.6123(7)
H22 H 0.54000 1.77850 1.64120
H23 H 0.39000 1.79440 1.56450
H24 H 0.51530 1.95200 1.62040
O17 O 0.4021(5) 0.6528(7) 1.1996(7)
N5 N 0.4322(5) 0.2292(9) 0.9006(7)
H25 H 0.45520 0.25270 0.93800
C35 C 0.4433(8) 0.2095(14) 0.8119(9)
H26 H 0.47890 0.22610 0.80270
H27 H 0.43760 0.13990 0.79950
H28 H 0.42090 0.24890 0.77340
C36 C 0.3767(7) 0.2063(17) 0.9256(12)
H29 H 0.37290 0.22200 0.98670
H30 H 0.35270 0.24570 0.88990
H31 H 0.36950 0.13670 0.91600
O1A O 0.5607(2) 1.4747(4) 0.8681(3)
O2A O 0.5425(2) 1.3345(4) 0.9343(3)
O9A O 0.6863(2) 1.4592(4) 0.6157(4)
O11A O 0.70862(19) 1.3108(3) 0.5717(3)
O12A O 0.6644(2) 0.9603(5) 0.5658(4)
Cd3A Cd 0.61246(2) 1.03807(2) 0.43589(3)
C12A C 0.6357(2) 1.0053(4) 0.6176(4)
O14A O 0.59554(18) 1.0482(4) 0.5916(3)
N1A N 0.5614(2) 1.1732(4) 0.4097(4)
O15A O 0.6810(2) 1.1568(4) 0.4427(4)
N2A N 0.5589(2) 1.9048(4) 0.4131(4)
C13A C 0.6518(3) 1.0003(5) 0.7143(4)
C14A C 0.5771(2) 1.2660(4) 0.4142(4)
C15A C 0.5085(3) 1.1767(5) 0.3901(5)
O16A O 0.6207(2) 1.0636(3) 0.7666(3)
H8A H 0.68820 1.02100 0.72210
C16A C 0.6464(5) 0.8967(6) 0.7501(6)
C17A C 0.6837(2) 1.3674(4) 0.6210(4)
N3A N 0.53756(18) 1.3300(3) 0.3990(3)
H9A H 0.61140 1.28520 0.42640
C18A C 0.4935(2) 1.2728(5) 0.3829(5)
H10A H 0.48680 1.12150 0.38300
C19A C 0.6245(3) 1.1663(4) 0.7573(4)
H11A H 0.65860 0.89550 0.81090
H12A H 0.66670 0.85140 0.71680
H13A H 0.61050 0.87700 0.74550
C20A C 0.6532(2) 1.3172(4) 0.6899(3)
C21A C 0.5401(2) 1.4368(4) 0.3967(4)
H14A H 0.46000 1.29610 0.36970
C22A C 0.5962(2) 1.2216(5) 0.8148(3)
C23A C 0.6537(2) 1.2142(4) 0.6948(4)
C24A C 0.6242(2) 1.3727(4) 0.7482(3)
C25A C 0.5706(2) 1.4875(5) 0.4602(4)
C26A C 0.5109(3) 1.4863(4) 0.3320(4)
C27A C 0.5959(2) 1.3248(5) 0.8119(4)
H15A H 0.57700 1.18890 0.85630
H16A H 0.67340 1.17710 0.65670
H17A H 0.62380 1.44200 0.74440
C28A C 0.5706(3) 1.5909(5) 0.4596(4)
H18A H 0.59070 1.45250 0.50240
C29A C 0.5110(3) 1.5902(5) 0.3315(4)
H19A H 0.49140 1.45080 0.28940
C30A C 0.5645(2) 1.3821(5) 0.8748(4)
C31A C 0.5401(2) 1.6413(4) 0.3959(4)
H20A H 0.59070 1.62630 0.50150
H21A H 0.49170 1.62500 0.28830
N4A N 0.5374(2) 1.7473(4) 0.3963(4)
C32A C 0.4927(3) 1.8026(5) 0.3763(7)
C33A C 0.5761(2) 1.8125(4) 0.4186(5)
C34A C 0.5069(3) 1.8977(5) 0.3877(7)
H22A H 0.46000 1.77850 0.35880
H23A H 0.61000 1.79440 0.43550
H24A H 0.48470 1.95200 0.37960
O3A O 0.4297(2) 1.4378(4) 0.8688(4)
O4A O 0.4513(2) 1.5832(5) 0.9295(3)
C1A C 0.4246(3) 1.5299(6) 0.8752(4)
C2A C 0.3850(2) 1.5839(5) 0.8163(4)
C3A C 0.3582(2) 1.5332(5) 0.7478(3)
C4A C 0.3740(3) 1.6826(5) 0.8331(4)
C5A C 0.3219(2) 1.5861(5) 0.6946(3)
H1A H 0.36440 1.46580 0.73780
C6A C 0.3366(3) 1.7345(5) 0.7814(3)
H2A H 0.39170 1.71520 0.87950
C7A C 0.2928(2) 1.5305(5) 0.6206(4)
C8A C 0.3116(2) 1.6856(5) 0.7098(3)
O5A O 0.3276(2) 1.8299(4) 0.8098(3)
O6A O 0.27054(19) 1.5792(4) 0.5599(3)
O7A O 0.2914(2) 1.4372(3) 0.6236(3)
H3A H 0.28800 1.72000 0.67270
C9A C 0.2948(3) 1.8958(5) 0.7589(4)
C10A C 0.3281(3) 1.9520(5) 0.6954(4)
H4A H 0.26730 1.85840 0.72650
C11A C 0.2717(5) 1.9675(9) 0.8231(7)
O10A O 0.31814(19) 1.9395(4) 0.6132(3)
O13A O 0.3638(3) 2.0059(5) 0.7220(4)
H5A H 0.24920 2.01370 0.79140
H6A H 0.25210 1.93090 0.86450
H7A H 0.29910 2.00360 0.85410
Cd2A Cd 0.73909(2) 0.91258(3) 0.50062(2)
O8A O 0.6982(2) 0.7561(4) 0.5210(3)
O6B O 0.22946(19) 1.0792(4) 1.4401(3)
O6C O 0.77054(19) 1.0792(4) 0.5599(3)
O7B O 0.2086(2) 0.9372(3) 1.3764(3)
O7C O 0.7914(2) 0.9372(3) 0.6236(3)
Cd2* Cd 0.26091(2) 1.91258(3) 0.49938(2)
Cd2A* Cd 0.73909(2) 1.91258(3) 1.50062(2)
Cd2B Cd 0.76091(2) 1.41258(3) 0.49938(2)
Cd2B* Cd 0.76091(2) 1.41258(3) 1.49938(2)
Cd2C Cd 0.23909(2) 1.41258(3) 0.50062(2)
Cd2C* Cd 0.23909(2) 1.41258(3) 1.50062(2)
O9B O 0.8137(2) 0.9592(4) 0.3843(4)
O9C O 0.1863(2) 0.9592(4) 1.6157(4)
O10* O 0.68186(19) 0.9395(4) 0.3868(3)
O10A* O 0.31814(19) 0.9395(4) 1.6132(3)
O11B O 0.79138(19) 0.8108(3) 0.4283(3)
O11C O 0.20862(19) 0.8108(3) 1.5717(3)
O13* O 0.6362(3) 1.0059(5) 0.2780(4)
O13A* O 0.3638(3) 1.0059(5) 1.7220(4)
Cd3* Cd 0.38754(2) 2.03807(2) 0.56411(3)
Cd3** Cd 0.38754(2) 2.03807(2) 1.56411(3)
Cd3A* Cd 0.61246(2) 2.03807(2) 0.43589(3)
Cd3A** Cd 0.61246(2) 2.03807(2) 1.43589(3)
N2* N 0.4411(2) 0.9048(4) 1.5869(4)
N2A* N 0.5589(2) 0.9048(4) 0.4131(4)
#END
