
#######################################################################
#
#                 Cambridge Crystallographic Data Centre
#                                CCDC
#
#######################################################################
#
# If this CIF has been generated from an entry in the Cambridge
# Structural Database, then it will include bibliographic, chemical,
# crystal, experimental, refinement or atomic coordinate data resulting
# from the CCDC's data processing and validation procedures.
#
#######################################################################

data_CSD_CIF_OQUPUO
_audit_creation_date 2021-04-16
_audit_creation_method CSD-ConQuest-V1
_database_code_CSD OQUPUO
_database_code_depnum_ccdc_archive 'CCDC 1974282'
_chemical_formula_sum 'C46 H60 Cu2 N14 O39 W10'
_chemical_formula_moiety
;
2(C20 H20 Cu1 N6 O1 2+)n,O32 W10 4-,2(C3 H7 N1 O1),3(H2 O1)
;
_journal_coden_Cambridge 1133
_journal_volume 32
_journal_year 2021
_journal_page_first 579
_journal_name_full 'J.Cluster Sci. '
loop_
_publ_author_name
"Dongying Shi"
"Sijia Wang"
"Chaojie Cui"
"Qing Zhou"
"Junping Du"
"Diming Chen"
_chemical_name_systematic
;
catena-[bis[bis(\m-[4,4'-bipyridin]-3-amine)-aqua-copper(ii)] 
docosakis(\m-oxido)-decaoxo-deca-tungsten(vi) N,N-dimethylformamide solvate 
trihydrate]
;
_cell_volume   4658.472
_exptl_crystal_colour 'dark green'
_exptl_crystal_density_diffrn 2.423
_exptl_crystal_description 'block'
_diffrn_ambient_temperature 180
#These two values have been output from a single CSD field.
_refine_ls_R_factor_gt 0.0661
_refine_ls_wR_factor_gt 0.0661
_symmetry_cell_setting orthorhombic
_symmetry_space_group_name_H-M 'P n n m'
_symmetry_Int_Tables_number 58
loop_
_symmetry_equiv_pos_site_id
_symmetry_equiv_pos_as_xyz
1 x,y,z
2 -x,-y,z
3 1/2-x,1/2+y,1/2-z
4 1/2+x,1/2-y,1/2-z
5 -x,-y,-z
6 x,y,-z
7 -1/2+x,-1/2-y,-1/2+z
8 -1/2-x,-1/2+y,-1/2+z
_cell_length_a 15.3954(13)
_cell_length_b 15.6278(13)
_cell_length_c 19.3622(16)
_cell_angle_alpha 90
_cell_angle_beta 90
_cell_angle_gamma 90
_cell_formula_units_Z 2
loop_
_atom_type_symbol
_atom_type_radius_bond
C 0.68
H 0.23
Cu 1.32
N 0.68
O 0.68
W 1.62
loop_
_atom_site_label
_atom_site_type_symbol
_atom_site_fract_x
_atom_site_fract_y
_atom_site_fract_z
W1 W 0.16056(5) 1.02498(4) 0.08403(4)
W2 W 0.04855(5) 0.84857(4) 0.08440(4)
W3 W 0.23324(7) 0.85759(7) 0.00000
O1 O 0.3265(14) 0.7992(14) 0.00000
O2 O 0.0544(7) 1.0867(7) 0.0809(5)
O3 O 0.1935(12) 1.0804(11) 0.00000
O4 O 0.1083(11) 0.9341(10) 0.00000
O5 O 0.1033(8) 0.9368(8) 0.1356(6)
O6 O 0.0163(12) 0.7937(12) 0.00000
O7 O 0.1646(8) 0.8027(8) 0.0667(7)
O8 O 0.0185(9) 0.7758(8) 0.1451(7)
O9 O 0.2545(8) 0.9445(8) 0.0678(7)
O10 O 0.2141(8) 1.0827(9) 0.1465(7)
Cu1 Cu 0.50000 1.00000 0.2752(2)
N1 N 0.4170(8) 1.0982(8) 0.2643(9)
N2 N 0.1010(8) 1.4182(7) 0.2293(8)
N3 N 0.3651(18) 1.256(3) 0.145(2)
H1 H 0.32550 1.29410 0.13400
H2 H 0.40850 1.24540 0.11650
C1 C 0.3539(10) 1.1096(10) 0.3099(11)
H3 H 0.34900 1.07200 0.34820
C2 C 0.2938(12) 1.1771(10) 0.3020(12)
H4 H 0.25120 1.18620 0.33670
C3 C 0.2955(9) 1.2277(8) 0.2477(9)
C4 C 0.3596(13) 1.2149(12) 0.2024(11)
C5 C 0.4223(10) 1.1506(10) 0.2121(11)
H5 H 0.46900 1.14530 0.18040
C6 C 0.1107(12) 1.3595(11) 0.1820(13)
H6 H 0.06950 1.35780 0.14550
C7 C 0.1774(11) 1.2991(11) 0.1813(12)
H7 H 0.18550 1.26160 0.14320
C8 C 0.2309(9) 1.2963(9) 0.2381(9)
C9 C 0.2191(11) 1.3560(11) 0.2877(9)
H8 H 0.25620 1.35580 0.32680
C10 C 0.1551(10) 1.4169(10) 0.2834(10)
H9 H 0.14930 1.45840 0.31900
O11 O 0.50000 1.00000 0.3989(8)
O12 O 0.829(3) 0.037(3) -0.359(3)
N4 N 0.9051(17) -0.070(2) -0.3315(15)
C11 C 0.912(5) -0.101(4) -0.397(3)
H10 H 0.88180 -0.06280 -0.42910
H11 H 0.88680 -0.15820 -0.39950
H12 H 0.97390 -0.10390 -0.41000
C12 C 0.943(3) -0.111(3) -0.273(2)
H13 H 0.93200 -0.07680 -0.23120
H14 H 1.00610 -0.11620 -0.27960
H15 H 0.91800 -0.16810 -0.26700
C13 C 0.856(3) -0.003(3) -0.316(2)
H16 H 0.84360 0.01110 -0.26890
O13 O 0.50000 1.00000 0.1259(16)
O14 O 0.073(3) 0.614(3) 0.00000
W1A W -0.16056(5) 0.97502(4) 0.08403(4)
W2A W -0.04855(5) 1.15143(4) 0.08440(4)
W3A W -0.23324(7) 1.14241(7) 0.00000
O1A O -0.3265(14) 1.2008(14) 0.00000
O2A O -0.0544(7) 0.9133(7) 0.0809(5)
O3A O -0.1935(12) 0.9196(11) 0.00000
O4A O -0.1083(11) 1.0659(10) 0.00000
O5A O -0.1033(8) 1.0632(8) 0.1356(6)
O6A O -0.0163(12) 1.2063(12) 0.00000
O7A O -0.1646(8) 1.1973(8) 0.0667(7)
O8A O -0.0185(9) 1.2242(8) 0.1451(7)
O9A O -0.2545(8) 1.0555(8) 0.0678(7)
O10A O -0.2141(8) 0.9173(9) 0.1465(7)
W1D W -0.16056(5) 0.97502(4) -0.08403(4)
W2D W -0.04855(5) 1.15143(4) -0.08440(4)
O2D O -0.0544(7) 0.9133(7) -0.0809(5)
O5D O -0.1033(8) 1.0632(8) -0.1356(6)
O7D O -0.1646(8) 1.1973(8) -0.0667(7)
O8D O -0.0185(9) 1.2242(8) -0.1451(7)
O9D O -0.2545(8) 1.0555(8) -0.0678(7)
O10D O -0.2141(8) 0.9173(9) -0.1465(7)
W1E W 0.16056(5) 1.02498(4) -0.08403(4)
W2E W 0.04855(5) 0.84857(4) -0.08440(4)
O2E O 0.0544(7) 1.0867(7) -0.0809(5)
O5E O 0.1033(8) 0.9368(8) -0.1356(6)
O7E O 0.1646(8) 0.8027(8) -0.0667(7)
O8E O 0.0185(9) 0.7758(8) -0.1451(7)
O9E O 0.2545(8) 0.9445(8) -0.0678(7)
O10E O 0.2141(8) 1.0827(9) -0.1465(7)
N1A N 0.5830(8) 0.9018(8) 0.2643(9)
N2A N 0.8990(8) 0.5818(7) 0.2293(8)
N3A N 0.6349(18) 0.744(3) 0.145(2)
H1A H 0.67450 0.70590 0.13400
H2A H 0.59150 0.75460 0.11650
C1A C 0.6461(10) 0.8904(10) 0.3099(11)
H3A H 0.65100 0.92800 0.34820
C2A C 0.7062(12) 0.8229(10) 0.3020(12)
H4A H 0.74880 0.81380 0.33670
C3A C 0.7045(9) 0.7723(8) 0.2477(9)
C4A C 0.6404(13) 0.7851(12) 0.2024(11)
C5A C 0.5777(10) 0.8494(10) 0.2121(11)
H5A H 0.53100 0.85470 0.18040
C6A C 0.8893(12) 0.6405(11) 0.1820(13)
H6A H 0.93050 0.64220 0.14550
C7A C 0.8226(11) 0.7009(11) 0.1813(12)
H7A H 0.81450 0.73840 0.14320
C8A C 0.7691(9) 0.7037(9) 0.2381(9)
C9A C 0.7809(11) 0.6440(11) 0.2877(9)
H8A H 0.74380 0.64420 0.32680
C10A C 0.8449(10) 0.5831(10) 0.2834(10)
H9A H 0.85070 0.54160 0.31900
Cu1B Cu 0.00000 1.50000 0.2248(2)
Cu1B* Cu 1.00000 0.50000 0.2248(2)
N2B N 0.3990(8) 0.9182(7) 0.2707(8)
N2C N 0.6010(8) 1.0818(7) 0.2707(8)
#END
