
#######################################################################
#
#                 Cambridge Crystallographic Data Centre
#                                CCDC
#
#######################################################################
#
# If this CIF has been generated from an entry in the Cambridge
# Structural Database, then it will include bibliographic, chemical,
# crystal, experimental, refinement or atomic coordinate data resulting
# from the CCDC's data processing and validation procedures.
#
#######################################################################

data_CSD_CIF_OQUXOP
_audit_creation_date 2016-07-14
_audit_creation_method CSD-ConQuest-V1
_database_code_CSD OQUXOP
_database_code_depnum_ccdc_archive 'CCDC 1474354'
_chemical_formula_sum 'C36 H38 B1 Cu1 N12 O42 W12'
_chemical_formula_moiety
;
(B1 O40 W12 5-)n,n(C12 H10 Cu1 N4 1+),2n(C12 H12 N4 2+),2n(H2 O1)
;
_journal_coden_Cambridge 1350
_journal_volume 18
_journal_year 2016
_journal_page_first 6233
_journal_name_full 'CrystEngComm '
loop_
_publ_author_name
"Chunyan Zhao"
"Shaobin Li"
"Huiyuan Ma"
"Chunjing Zhang"
"Haijun Pang"
"Yan Yu"
"Zhuanfang Zhang"
_chemical_name_systematic
;
catena-(bis(1,4-bis(imidazol-3-ium-1-yl)benzene) 
(\m-1,4-bis(imidazolyl)benzene)-copper 
(\m-borato)-tetracosakis(\m-oxo)-dodecaoxo-dodeca-tungsten dihydrate)
;
_cell_volume   1661.180
_exptl_crystal_colour 'red'
_exptl_crystal_density_diffrn 3.55
_exptl_crystal_description 'block'
_diffrn_ambient_temperature 296
_refine_special_details
;
O18,O19,O20,O22 disordered by symmetry over two configurations with occupancy 
0.50. The SQUEEZE/PLATON program was used to model some water.
;
#These two values have been output from a single CSD field.
_refine_ls_R_factor_gt 0.0662
_refine_ls_wR_factor_gt 0.0662
_symmetry_cell_setting triclinic
_symmetry_space_group_name_H-M 'P -1'
_symmetry_Int_Tables_number 2
loop_
_symmetry_equiv_pos_site_id
_symmetry_equiv_pos_as_xyz
1 x,y,z
2 -x,-y,-z
_cell_length_a 11.2301(6)
_cell_length_b 12.9434(7)
_cell_length_c 13.2453(8)
_cell_angle_alpha 96.455(1)
_cell_angle_beta 113.462(1)
_cell_angle_gamma 104.427(1)
_cell_formula_units_Z 1
loop_
_atom_type_symbol
_atom_type_radius_bond
C 0.68
H 0.23
B 0.83
Cu 1.32
N 0.68
O 0.68
W 1.62
loop_
_atom_site_label
_atom_site_type_symbol
_atom_site_fract_x
_atom_site_fract_y
_atom_site_fract_z
W1 W 1.04324(7) 0.78071(5) 0.53716(6)
W2 W 0.96817(7) 0.62385(6) 0.27320(7)
W3 W 0.67865(7) 0.44304(6) 0.27105(7)
W4 W 1.28963(7) 0.68186(5) 0.50370(6)
W5 W 1.07526(7) 0.65680(6) 0.76258(6)
W6 W 0.75345(7) 0.59896(6) 0.53293(6)
B1 B 1.00000 0.50000 0.50000
O1 O 0.5226(14) 0.4175(11) 0.1627(11)
O2 O 0.6360(16) 0.6481(14) 0.5505(16)
O3 O 0.664(2) 0.5484(17) 0.3742(18)
O4 O 0.8799(17) 0.6284(14) 0.6851(14)
O5 O 0.8589(15) 0.7249(17) 0.5181(13)
O6 O 1.0626(15) 0.9157(11) 0.5541(15)
O7 O 0.9741(15) 0.7414(16) 0.3786(12)
O8 O 0.633(3) 0.3341(13) 0.3450(13)
O9 O 1.2189(15) 0.7830(15) 0.5550(12)
O10 O 1.311(2) 0.5491(16) 0.4523(17)
O11 O 1.4291(14) 0.7727(12) 0.5040(13)
O12 O 0.780(2) 0.5615(17) 0.2319(18)
O13 O 1.1629(15) 0.6652(12) 0.3557(13)
O14 O 1.253(2) 0.6517(16) 0.7962(17)
O15 O 1.1067(13) 0.7280(12) 0.8909(10)
O16 O 1.1034(18) 0.7683(14) 0.6910(15)
O17 O 0.9586(15) 0.6862(13) 0.1682(12)
O18 O 1.0535(18) 0.6015(14) 0.4730(15)
O19 O 0.929(2) 0.4884(16) 0.3672(17)
O20 O 0.965(2) 0.4856(17) 0.2072(18)
O21 O 1.022(2) 0.4021(16) 0.4462(18)
O22 O 0.843(2) 0.4726(17) 0.468(2)
Cu1 Cu 0.50000 1.00000 0.50000
C1 C 0.3167(18) 0.8779(15) 0.2659(15)
H1 H 0.25240 0.83360 0.28360
C2 C 0.3105(18) 0.8725(15) 0.1595(16)
H2 H 0.24290 0.82390 0.09210
C3 C 0.4649(18) 0.9777(14) 0.0862(13)
C4 C 0.4969(18) 1.0015(14) 0.2827(13)
H3 H 0.58100 1.05720 0.31460
C5 C 0.5394(19) 1.0838(14) 0.0936(13)
H4 H 0.56440 1.14050 0.15530
C6 C 0.4240(17) 0.8960(14) -0.0078(13)
H5 H 0.37060 0.82580 -0.01390
N1 N 0.4337(17) 0.9594(12) 0.3408(11)
N2 N 0.4260(14) 0.9547(11) 0.1733(11)
C7 C 0.276(2) 0.5565(19) 0.064(2)
H6 H 0.26100 0.56230 -0.00960
C8 C 0.5180(18) 0.6854(16) 0.1731(15)
C9 C 0.5956(19) 0.7718(16) 0.2661(15)
H7 H 0.57000 0.78090 0.32440
C10 C 0.551(2) 0.6696(15) 0.0836(15)
H8 H 0.49780 0.60950 0.02210
C11 C 0.188(3) 0.492(3) 0.098(2)
H9 H 0.10130 0.44300 0.04890
C12 C 0.3739(19) 0.5776(19) 0.2488(17)
H10 H 0.43930 0.59840 0.32410
C13 C 0.710(2) 0.8437(18) 0.2720(18)
H11 H 0.76610 0.90040 0.33640
C14 C 0.743(2) 0.8327(17) 0.1814(18)
C15 C 0.664(2) 0.7436(16) 0.0875(17)
H12 H 0.68790 0.73500 0.02820
C16 C 0.986(2) 0.9507(16) 0.2719(17)
H13 H 1.01400 0.92990 0.34050
C17 C 0.989(3) 1.032(3) 0.136(3)
H14 H 1.02090 1.07840 0.09650
C18 C 0.863(3) 0.961(3) 0.098(3)
H15 H 0.79000 0.94700 0.02640
N3 N 0.3923(15) 0.6109(13) 0.1642(13)
N4 N 0.8613(18) 0.9112(15) 0.1863(16)
N5 N 1.0624(19) 1.0233(16) 0.2437(19)
N6 N 0.2439(18) 0.5082(18) 0.2079(16)
O18A O 0.9465(18) 0.3985(14) 0.5270(15)
O19A O 1.071(2) 0.5116(16) 0.6328(17)
O21A O 0.978(2) 0.5979(16) 0.5538(18)
O22A O 1.157(2) 0.5274(17) 0.532(2)
W1A W 0.95676(7) 0.21929(5) 0.46284(6)
W2A W 1.03183(7) 0.37615(6) 0.72680(7)
W3A W 1.32135(7) 0.55696(6) 0.72895(7)
W4A W 0.71037(7) 0.31814(5) 0.49630(6)
W5A W 0.92474(7) 0.34320(6) 0.23742(6)
W6A W 1.24655(7) 0.40104(6) 0.46707(6)
O1A O 1.4774(14) 0.5825(11) 0.8373(11)
O2A O 1.3640(16) 0.3519(14) 0.4495(16)
O3A O 1.336(2) 0.4516(17) 0.6258(18)
O4A O 1.1201(17) 0.3716(14) 0.3149(14)
O5A O 1.1411(15) 0.2751(17) 0.4819(13)
O6A O 0.9374(15) 0.0843(11) 0.4459(15)
O7A O 1.0259(15) 0.2586(16) 0.6214(12)
O8A O 1.367(3) 0.6659(13) 0.6550(13)
O9A O 0.7811(15) 0.2170(15) 0.4450(12)
O10A O 0.689(2) 0.4509(16) 0.5477(17)
O11A O 0.5709(14) 0.2273(12) 0.4960(13)
O12A O 1.220(2) 0.4385(17) 0.7681(18)
O13A O 0.8371(15) 0.3348(12) 0.6443(13)
O14A O 0.747(2) 0.3483(16) 0.2038(17)
O15A O 0.8933(13) 0.2720(12) 0.1091(10)
O16A O 0.8966(18) 0.2317(14) 0.3090(15)
O17A O 1.0414(15) 0.3138(13) 0.8318(12)
O20A O 1.035(2) 0.5144(17) 0.7928(18)
C1A C 0.6833(18) 1.1221(15) -0.2659(15)
H1A H 0.74760 1.16640 -0.28360
C2A C 0.6895(18) 1.1275(15) -0.1595(16)
H2A H 0.75710 1.17610 -0.09210
C3A C 0.5351(18) 1.0223(14) -0.0862(13)
C4A C 0.5031(18) 0.9985(14) -0.2827(13)
H3A H 0.41900 0.94280 -0.31460
C5A C 0.4606(19) 0.9162(14) -0.0936(13)
H4A H 0.43560 0.85950 -0.15530
C6A C 0.5760(17) 1.1040(14) 0.0078(13)
H5A H 0.62940 1.17420 0.01390
N1A N 0.5663(17) 1.0406(12) -0.3408(11)
N2A N 0.5740(14) 1.0453(11) -0.1733(11)
Cu1* Cu 0.50000 1.00000 -0.50000
N1A* N 0.5663(17) 1.0406(12) 0.6592(11)
#END
