
#######################################################################
#
#                 Cambridge Crystallographic Data Centre
#                                CCDC
#
#######################################################################
#
# If this CIF has been generated from an entry in the Cambridge
# Structural Database, then it will include bibliographic, chemical,
# crystal, experimental, refinement or atomic coordinate data resulting
# from the CCDC's data processing and validation procedures.
#
#######################################################################

data_CSD_CIF_OQUXIJ
_audit_creation_date 2016-07-14
_audit_creation_method CSD-ConQuest-V1
_database_code_CSD OQUXIJ
_database_code_depnum_ccdc_archive 'CCDC 1474353'
_chemical_formula_sum 'C36 H38 Co2 N12 O42 W12'
_chemical_formula_moiety
;
(C24 H22 Co2 N8 O40 W12 2-)n,n(C12 H12 N4 2+),2n(H2 O1)
;
_journal_coden_Cambridge 1350
_journal_volume 18
_journal_year 2016
_journal_page_first 6233
_journal_name_full 'CrystEngComm '
loop_
_publ_author_name
"Chunyan Zhao"
"Shaobin Li"
"Huiyuan Ma"
"Chunjing Zhang"
"Haijun Pang"
"Yan Yu"
"Zhuanfang Zhang"
_chemical_name_systematic
;
catena-(1,4-bis(imidazol-3-ium-1-yl)benzene 
bis(\m-hydroxo)-dotriacontakis(\m-oxo)-bis(1,4-bis(imidazolyl)benzene)-hexaoxo
-di-cobalt-dodeca-tungsten dihydrate)
;
_cell_volume   6909.522
_exptl_crystal_colour 'red'
_exptl_crystal_density_diffrn 3.455
_exptl_crystal_description 'block'
_diffrn_ambient_temperature 293
_refine_special_details
;
The SQUEEZE/PLATON program was used to model some disordered water.

;
#These two values have been output from a single CSD field.
_refine_ls_R_factor_gt 0.0576
_refine_ls_wR_factor_gt 0.0576
_symmetry_cell_setting orthorhombic
_symmetry_space_group_name_H-M 'P n m a'
_symmetry_Int_Tables_number 62
loop_
_symmetry_equiv_pos_site_id
_symmetry_equiv_pos_as_xyz
1 x,y,z
2 1/2-x,-y,1/2+z
3 1/2+x,1/2-y,1/2-z
4 -x,1/2+y,-z
5 -x,-y,-z
6 -1/2+x,y,-1/2-z
7 -1/2-x,-1/2+y,-1/2+z
8 x,-1/2-y,z
_cell_length_a 26.548(5)
_cell_length_b 20.076(5)
_cell_length_c 12.964(5)
_cell_angle_alpha 90
_cell_angle_beta 90
_cell_angle_gamma 90
_cell_formula_units_Z 4
loop_
_atom_type_symbol
_atom_type_radius_bond
C 0.68
H 0.23
Co 1.26
N 0.68
O 0.68
W 1.62
loop_
_atom_site_label
_atom_site_type_symbol
_atom_site_fract_x
_atom_site_fract_y
_atom_site_fract_z
Co1 Co 0.74075(12) 0.10694(17) 0.5966(2)
W1 W 0.84708(2) 0.16718(3) 0.01567(5)
W2 W 0.84766(3) 0.25000 0.23956(7)
W3 W 0.63104(3) 0.25000 -0.06551(7)
W4 W 0.73305(2) 0.07704(3) 0.10493(5)
W5 W 0.73107(3) 0.16945(3) -0.14064(5)
W6 W 0.63182(2) 0.15782(3) 0.18144(5)
W7 W 0.73380(3) 0.15814(5) 0.32371(6)
N1 N 0.6616(6) 0.0811(8) 0.5876(12)
O1 O 0.7457(5) 0.0749(7) 0.2483(10)
O2 O 0.8002(4) 0.1075(5) 0.0842(9)
O3 O 0.8005(4) 0.3153(6) 0.2890(8)
O4 O 0.6624(4) 0.1415(6) 0.3145(8)
O5 O 0.8773(5) 0.25000 -0.0269(12)
O6 O 0.8761(4) 0.1826(5) 0.1511(9)
O7 O 0.6592(4) 0.1821(5) -0.1541(8)
O8 O 0.7214(7) 0.25000 0.3493(13)
O9 O 0.6617(4) 0.0752(6) 0.1329(10)
O10 O 0.8901(4) 0.1129(5) -0.0331(10)
O11 O 0.5707(6) 0.25000 -0.1144(13)
O12 O 0.8017(5) 0.25000 0.0891(11)
O13 O 0.7138(5) 0.25000 -0.0352(11)
O14 O 0.7142(4) 0.1783(6) 0.1610(8)
O15 O 0.7989(4) 0.1722(5) -0.0926(8)
O16 O 0.7432(5) 0.1278(9) 0.4454(10)
O17 O 0.7196(4) 0.1085(5) -0.0307(9)
O18 O 0.7437(5) 0.25000 -0.2209(11)
O19 O 0.5728(4) 0.1285(7) 0.2089(10)
O20 O 0.6251(6) 0.25000 0.2139(12)
O21 O 0.8911(6) 0.25000 0.3384(13)
O22 O 0.6239(4) 0.1848(6) 0.0409(8)
O23 O 0.7415(4) -0.0071(5) 0.0845(10)
C1 C 0.6385(9) 0.0355(10) 0.5231(16)
H1 H 0.65460 0.01200 0.47070
N2 N 0.5803(6) 0.0724(8) 0.6286(12)
C2 C 0.5342(7) 0.0834(10) 0.6819(15)
C3 C 0.4528(7) 0.0444(10) 0.7383(17)
H2 H 0.42790 0.01190 0.74030
C4 C 0.4980(8) 0.0331(10) 0.6854(17)
H3 H 0.50380 -0.00750 0.65300
C5 C 0.4459(7) 0.1041(8) 0.7871(15)
C6 C 0.6259(8) 0.0999(10) 0.6530(16)
H4 H 0.63130 0.12830 0.70860
C7 C 0.4805(10) 0.1522(11) 0.784(2)
H5 H 0.47410 0.19290 0.81520
C8 C 0.5273(8) 0.1417(11) 0.731(2)
H6 H 0.55220 0.17420 0.73180
C9 C 0.5899(10) 0.0301(12) 0.5470(18)
H7 H 0.56650 0.00260 0.51450
N3 N 0.4011(6) 0.1186(8) 0.8445(13)
C10 C 0.3482(9) 0.1568(12) 0.9622(16)
H8 H 0.33550 0.17860 1.01990
C11 C 0.3982(8) 0.1572(11) 0.9344(16)
H9 H 0.42450 0.17860 0.96810
N4 N 0.3198(7) 0.1208(9) 0.8957(13)
C12 C 0.3530(9) 0.0989(13) 0.8236(18)
H10 H 0.34390 0.07340 0.76670
O24 O 0.7372(4) 0.1148(6) -0.2442(8)
N5 N 0.5886(5) -0.0169(8) 0.8870(11)
N6 N 0.6427(6) -0.0540(9) 0.7758(14)
C13 C 0.6319(6) 0.0163(9) 0.9032(16)
H11 H 0.63710 0.04920 0.95270
C14 C 0.5425(6) -0.0080(8) 0.9451(14)
C15 C 0.5963(6) -0.0612(10) 0.8119(16)
H12 H 0.57290 -0.09220 0.78870
C16 C 0.6669(7) -0.0066(10) 0.8342(18)
H13 H 0.70030 0.00710 0.82810
C17 C 0.5348(7) 0.0502(10) 0.9938(17)
H14 H 0.55870 0.08410 0.99000
C18 C 0.4917(7) 0.0591(11) 1.0487(18)
H15 H 0.48550 0.09930 1.08180
Co1G Co 0.74075(12) 0.39306(17) 0.5966(2)
W1G W 0.84708(2) 0.33282(3) 0.01567(5)
W4G W 0.73305(2) 0.42296(3) 0.10493(5)
W5G W 0.73107(3) 0.33055(3) -0.14064(5)
W6G W 0.63182(2) 0.34218(3) 0.18144(5)
W7G W 0.73380(3) 0.34186(5) 0.32371(6)
N1G N 0.6616(6) 0.4189(8) 0.5876(12)
O1G O 0.7457(5) 0.4251(7) 0.2483(10)
O2G O 0.8002(4) 0.3925(5) 0.0842(9)
O3G O 0.8005(4) 0.1847(6) 0.2890(8)
O4G O 0.6624(4) 0.3585(6) 0.3145(8)
O6G O 0.8761(4) 0.3174(5) 0.1511(9)
O7G O 0.6592(4) 0.3179(5) -0.1541(8)
O9G O 0.6617(4) 0.4248(6) 0.1329(10)
O10G O 0.8901(4) 0.3871(5) -0.0331(10)
O14G O 0.7142(4) 0.3217(6) 0.1610(8)
O15G O 0.7989(4) 0.3278(5) -0.0926(8)
O16G O 0.7432(5) 0.3722(9) 0.4454(10)
O17G O 0.7196(4) 0.3915(5) -0.0307(9)
O19G O 0.5728(4) 0.3715(7) 0.2089(10)
O22G O 0.6239(4) 0.3152(6) 0.0409(8)
O23G O 0.7415(4) 0.5071(5) 0.0845(10)
C1G C 0.6385(9) 0.4645(10) 0.5231(16)
H1G H 0.65460 0.48800 0.47070
N2G N 0.5803(6) 0.4276(8) 0.6286(12)
C2G C 0.5342(7) 0.4166(10) 0.6819(15)
C3G C 0.4528(7) 0.4556(10) 0.7383(17)
H2G H 0.42790 0.48810 0.74030
C4G C 0.4980(8) 0.4669(10) 0.6854(17)
H3G H 0.50380 0.50750 0.65300
C5G C 0.4459(7) 0.3959(8) 0.7871(15)
C6G C 0.6259(8) 0.4001(10) 0.6530(16)
H4G H 0.63130 0.37170 0.70860
C7G C 0.4805(10) 0.3478(11) 0.784(2)
H5G H 0.47410 0.30710 0.81520
C8G C 0.5273(8) 0.3583(11) 0.731(2)
H6G H 0.55220 0.32580 0.73180
C9G C 0.5899(10) 0.4699(12) 0.5470(18)
H7G H 0.56650 0.49740 0.51450
N3G N 0.4011(6) 0.3814(8) 0.8445(13)
C10G C 0.3482(9) 0.3432(12) 0.9622(16)
H8G H 0.33550 0.32140 1.01990
C11G C 0.3982(8) 0.3428(11) 0.9344(16)
H9G H 0.42450 0.32140 0.96810
N4G N 0.3198(7) 0.3792(9) 0.8957(13)
C12G C 0.3530(9) 0.4011(13) 0.8236(18)
H10G H 0.34390 0.42660 0.76670
O24G O 0.7372(4) 0.3852(6) -0.2442(8)
Co1* Co 0.74075(12) 0.10694(17) -0.4034(2)
Co1A Co 0.75925(12) -0.10694(17) 0.0966(2)
Co1B Co 0.24075(12) 0.39306(17) 0.9034(2)
Co1E Co 0.24075(12) 0.10694(17) 0.9034(2)
Co1F Co 0.75925(12) 0.60694(17) 0.0966(2)
Co1G* Co 0.74075(12) 0.39306(17) -0.4034(2)
O23A O 0.7585(4) 0.0071(5) 0.5845(10)
O23F O 0.7585(4) 0.4929(5) 0.5845(10)
N4B N 0.8198(7) 0.3792(9) 0.6043(13)
N4E N 0.8198(7) 0.1208(9) 0.6043(13)
O24* O 0.7372(4) 0.1148(6) 0.7558(8)
O24G* O 0.7372(4) 0.3852(6) 0.7558(8)
N5D N 0.4114(5) 0.0169(8) 1.1130(11)
N6D N 0.3573(6) 0.0540(9) 1.2242(14)
C13D C 0.3681(6) -0.0163(9) 1.0968(16)
H11D H 0.36290 -0.04920 1.04730
C14D C 0.4575(6) 0.0080(8) 1.0549(14)
C15D C 0.4037(6) 0.0612(10) 1.1881(16)
H12D H 0.42710 0.09220 1.21130
C16D C 0.3331(7) 0.0066(10) 1.1658(18)
H13D H 0.29970 -0.00710 1.17190
C17D C 0.4652(7) -0.0502(10) 1.0062(17)
H14D H 0.44130 -0.08410 1.01000
C18D C 0.5083(7) -0.0591(11) 0.9513(18)
H15D H 0.51450 -0.09930 0.91820
#END
