
#######################################################################
#
#                 Cambridge Crystallographic Data Centre
#                                CCDC
#
#######################################################################
#
# If this CIF has been generated from an entry in the Cambridge
# Structural Database, then it will include bibliographic, chemical,
# crystal, experimental, refinement or atomic coordinate data resulting
# from the CCDC's data processing and validation procedures.
#
#######################################################################

data_CSD_CIF_OQUXEF
_audit_creation_date 2016-07-14
_audit_creation_method CSD-ConQuest-V1
_database_code_CSD OQUXEF
_database_code_depnum_ccdc_archive 'CCDC 1474352'
_chemical_formula_sum 'C36 H35 B1 Co2 N12 O42 W12'
_chemical_formula_moiety
;
(C24 H20 B1 Co2 N8 O40 W12 1-)n,n(C12 H11 N4 1+),2n(H2 O1)
;
_journal_coden_Cambridge 1350
_journal_volume 18
_journal_year 2016
_journal_page_first 6233
_journal_name_full 'CrystEngComm '
loop_
_publ_author_name
"Chunyan Zhao"
"Shaobin Li"
"Huiyuan Ma"
"Chunjing Zhang"
"Haijun Pang"
"Yan Yu"
"Zhuanfang Zhang"
_chemical_name_systematic
;
catena-(1-(imidazol-3-ium-1-yl)-4-(imidazolyl)benzene 
(\m-borato)-triacontakis(\m-oxo)-bis(\m-1-(imidazolyl)-4-(imidazol-3-ium-1-yl)
benzene)-hexaoxo-di-cobalt dihydrate)
;
_cell_volume   6939.227
_exptl_crystal_colour 'red'
_exptl_crystal_density_diffrn 3.467
_exptl_crystal_description 'block'
_diffrn_ambient_temperature 293
_refine_special_details
;
The SQUEEZE/PLATON program was used to model some disordered water.

;
#These two values have been output from a single CSD field.
_refine_ls_R_factor_gt 0.0555
_refine_ls_wR_factor_gt 0.0555
_symmetry_cell_setting orthorhombic
_symmetry_space_group_name_H-M 'P n m a'
_symmetry_Int_Tables_number 62
loop_
_symmetry_equiv_pos_site_id
_symmetry_equiv_pos_as_xyz
1 x,y,z
2 1/2-x,-y,1/2+z
3 1/2+x,1/2-y,1/2-z
4 -x,1/2+y,-z
5 -x,-y,-z
6 -1/2+x,y,-1/2-z
7 -1/2-x,-1/2+y,-1/2+z
8 x,-1/2-y,z
_cell_length_a 26.780(5)
_cell_length_b 19.963(5)
_cell_length_c 12.980(5)
_cell_angle_alpha 90
_cell_angle_beta 90
_cell_angle_gamma 90
_cell_formula_units_Z 4
loop_
_atom_type_symbol
_atom_type_radius_bond
C 0.68
H 0.23
B 0.83
Co 1.26
N 0.68
O 0.68
W 1.62
loop_
_atom_site_label
_atom_site_type_symbol
_atom_site_fract_x
_atom_site_fract_y
_atom_site_fract_z
W1 W 0.15367(3) 0.25000 -0.74349(7)
W2 W 0.15436(2) 0.16726(3) -0.52234(5)
W3 W 0.36756(3) 0.25000 -0.43986(7)
W4 W 0.26523(2) 0.07694(3) -0.60737(5)
W5 W 0.26661(2) 0.16761(3) -0.36542(5)
W6 W 0.26503(2) 0.15932(4) -0.82678(5)
W7 W 0.36667(2) 0.15871(3) -0.68231(5)
Co1 Co 0.24085(12) -0.10895(17) -0.6009(2)
B1 B 0.2628(8) 0.25000 -0.599(2)
O1 O 0.1258(5) 0.25000 -0.4794(11)
O2 O 0.1988(3) 0.1062(5) -0.5885(8)
O3 O 0.3759(4) 0.1824(5) -0.5441(7)
O4 O 0.2552(5) 0.25000 -0.2929(11)
O5 O 0.2389(4) -0.1159(6) -0.7626(8)
O6 O 0.2425(4) -0.1281(7) -0.4470(9)
O7 O 0.4255(5) 0.25000 -0.3838(13)
O8 O 0.2006(4) 0.1695(5) -0.4117(7)
O9 O 0.3365(4) 0.1843(5) -0.3557(8)
O10 O 0.3363(4) 0.0779(5) -0.6350(9)
O11 O 0.1992(3) 0.1848(5) -0.7970(8)
O12 O 0.4242(4) 0.1274(6) -0.7110(9)
O13 O 0.1262(4) 0.1823(5) -0.6562(8)
O14 O 0.3355(3) 0.1452(5) -0.8120(8)
O15 O 0.2782(4) 0.1057(5) -0.4703(8)
O16 O 0.1105(4) 0.1144(5) -0.4761(9)
O17 O 0.2543(4) 0.0780(6) -0.7520(8)
O18 O 0.2825(5) 0.25000 -0.4867(11)
O19 O 0.2063(5) 0.25000 -0.5972(11)
O20 O 0.3758(5) 0.25000 -0.7180(12)
O21 O 0.2777(5) 0.25000 -0.8572(11)
O22 O 0.2814(4) 0.1868(5) -0.6550(8)
O23 O 0.2580(4) -0.0078(5) -0.5892(9)
O24 O 0.1108(6) 0.25000 -0.8404(12)
C1 C 0.0341(7) -0.0827(9) -0.6857(14)
C2 C 0.0264(8) -0.1435(12) -0.7376(18)
H1 H 0.05010 -0.17760 -0.73530
C3 C -0.0017(8) -0.0329(9) -0.6853(16)
H2 H 0.00350 0.00690 -0.64960
C4 C 0.0873(10) -0.0341(13) -0.556(2)
H3 H 0.06300 -0.00920 -0.52270
C5 C 0.1378(9) -0.0380(11) -0.5290(15)
H4 H 0.15250 -0.01440 -0.47510
C6 C 0.1247(7) -0.0989(10) -0.6666(14)
H5 H 0.12920 -0.12480 -0.72540
C7 C -0.0188(9) -0.1510(12) -0.794(2)
H6 H -0.02370 -0.18930 -0.83330
C8 C -0.0476(7) -0.0442(10) -0.7422(15)
H7 H -0.07210 -0.01120 -0.74550
C9 C -0.0542(7) -0.1046(10) -0.7909(14)
C10 C -0.1467(8) -0.0985(11) -0.8200(17)
H8 H -0.15530 -0.07420 -0.76150
C11 C -0.1019(7) -0.1553(9) -0.9349(15)
H9 H -0.07610 -0.17600 -0.97070
N1 N -0.1810(7) -0.1219(9) -0.8921(13)
N2 N -0.0991(6) -0.1156(8) -0.8455(12)
C12 C -0.1528(7) -0.1561(10) -0.9565(17)
H10 H -0.16600 -0.17910 -1.01260
N3 N 0.1631(7) -0.0819(9) -0.5937(13)
N4 N 0.0805(5) -0.0712(8) -0.6360(13)
O25 O 0.5118(9) 0.25000 -0.536(2)
C13 C 0.4573(5) -0.0085(7) -0.4466(12)
C14 C 0.4654(5) 0.0504(8) -0.4945(15)
H11 H 0.44260 0.08550 -0.49000
C15 C 0.4032(5) -0.0610(9) -0.3162(14)
H12 H 0.42680 -0.09050 -0.28980
C16 C 0.3681(6) 0.0149(9) -0.4093(15)
H13 H 0.36330 0.04690 -0.46030
C17 C 0.3328(6) -0.0075(8) -0.3413(15)
H14 H 0.30000 0.00750 -0.33450
C18 C 0.5087(7) 0.0563(11) -0.5501(15)
H15 H 0.51430 0.09550 -0.58700
N5 N 0.4114(4) -0.0180(6) -0.389(1)
N6 N 0.3561(5) -0.0568(8) -0.2850(12)
O22G O 0.2814(4) 0.3132(5) -0.6550(8)
W2G W 0.15436(2) 0.33274(3) -0.52234(5)
W4G W 0.26523(2) 0.42306(3) -0.60737(5)
W5G W 0.26661(2) 0.33239(3) -0.36542(5)
W6G W 0.26503(2) 0.34068(4) -0.82678(5)
W7G W 0.36667(2) 0.34129(3) -0.68231(5)
Co1G Co 0.24085(12) 0.60895(17) -0.6009(2)
O2G O 0.1988(3) 0.3938(5) -0.5885(8)
O3G O 0.3759(4) 0.3176(5) -0.5441(7)
O5G O 0.2389(4) 0.6159(6) -0.7626(8)
O6G O 0.2425(4) 0.6281(7) -0.4470(9)
O8G O 0.2006(4) 0.3305(5) -0.4117(7)
O9G O 0.3365(4) 0.3157(5) -0.3557(8)
O10G O 0.3363(4) 0.4221(5) -0.6350(9)
O11G O 0.1992(3) 0.3152(5) -0.7970(8)
O12G O 0.4242(4) 0.3726(6) -0.7110(9)
O13G O 0.1262(4) 0.3177(5) -0.6562(8)
O14G O 0.3355(3) 0.3548(5) -0.8120(8)
O15G O 0.2782(4) 0.3943(5) -0.4703(8)
O16G O 0.1105(4) 0.3856(5) -0.4761(9)
O17G O 0.2543(4) 0.4220(6) -0.7520(8)
O23G O 0.2580(4) 0.5078(5) -0.5892(9)
C1G C 0.0341(7) 0.5827(9) -0.6857(14)
C2G C 0.0264(8) 0.6435(12) -0.7376(18)
H1G H 0.05010 0.67760 -0.73530
C3G C -0.0017(8) 0.5329(9) -0.6853(16)
H2G H 0.00350 0.49310 -0.64960
C4G C 0.0873(10) 0.5341(13) -0.556(2)
H3G H 0.06300 0.50920 -0.52270
C5G C 0.1378(9) 0.5380(11) -0.5290(15)
H4G H 0.15250 0.51440 -0.47510
C6G C 0.1247(7) 0.5989(10) -0.6666(14)
H5G H 0.12920 0.62480 -0.72540
C7G C -0.0188(9) 0.6510(12) -0.794(2)
H6G H -0.02370 0.68930 -0.83330
C8G C -0.0476(7) 0.5442(10) -0.7422(15)
H7G H -0.07210 0.51120 -0.74550
C9G C -0.0542(7) 0.6046(10) -0.7909(14)
C10G C -0.1467(8) 0.5985(11) -0.8200(17)
H8G H -0.15530 0.57420 -0.76150
C11G C -0.1019(7) 0.6553(9) -0.9349(15)
H9G H -0.07610 0.67600 -0.97070
N1G N -0.1810(7) 0.6219(9) -0.8921(13)
N2G N -0.0991(6) 0.6156(8) -0.8455(12)
C12G C -0.1528(7) 0.6561(10) -0.9565(17)
H10G H -0.16600 0.67910 -1.01260
N3G N 0.1631(7) 0.5819(9) -0.5937(13)
N4G N 0.0805(5) 0.5712(8) -0.6360(13)
W5A W 0.23339(2) -0.16761(3) -0.86542(5)
W5F W 0.23339(2) 0.66761(3) -0.86542(5)
W6A W 0.23497(2) -0.15932(4) -0.32678(5)
W6F W 0.23497(2) 0.65932(4) -0.32678(5)
Co1B Co -0.25915(12) 0.60895(17) -0.8991(2)
Co1E Co -0.25915(12) -0.10895(17) -0.8991(2)
O5A O 0.2611(4) 0.1159(6) -0.2626(8)
O5F O 0.2611(4) 0.3841(6) -0.2626(8)
O6A O 0.2575(4) 0.1281(7) -0.9470(9)
O6F O 0.2575(4) 0.3719(7) -0.9470(9)
N1B N 0.3190(7) 0.6219(9) -0.6079(13)
N1E N 0.3190(7) -0.1219(9) -0.6079(13)
C13D C 0.5427(5) 0.0085(7) -0.5534(12)
C14D C 0.5346(5) -0.0504(8) -0.5055(15)
H11D H 0.55740 -0.08550 -0.51000
C15D C 0.5968(5) 0.0610(9) -0.6838(14)
H12D H 0.57320 0.09050 -0.71020
C16D C 0.6319(6) -0.0149(9) -0.5907(15)
H13D H 0.63670 -0.04690 -0.53970
C17D C 0.6672(6) 0.0075(8) -0.6587(15)
H14D H 0.70000 -0.00750 -0.66550
C18D C 0.4913(7) -0.0563(11) -0.4499(15)
H15D H 0.48570 -0.09550 -0.41300
N5D N 0.5886(4) 0.0180(6) -0.611(1)
N6D N 0.6439(5) 0.0568(8) -0.7150(12)
#END
