
#######################################################################
#
#                 Cambridge Crystallographic Data Centre
#                                CCDC
#
#######################################################################
#
# If this CIF has been generated from an entry in the Cambridge
# Structural Database, then it will include bibliographic, chemical,
# crystal, experimental, refinement or atomic coordinate data resulting
# from the CCDC's data processing and validation procedures.
#
#######################################################################

data_CSD_CIF_OQUZIL
_audit_creation_date 2016-07-14
_audit_creation_method CSD-ConQuest-V1
_database_code_CSD OQUZIL
_database_code_depnum_ccdc_archive 'CCDC 1474355'
_chemical_formula_sum 'C36 H39 Ag2 B1 N12 O43 W12'
_chemical_formula_moiety
;
(C24 H20 Ag2 B1 N8 O40 W12 3-)n,C12 H13 N4 3+,3(H2 O1)
;
_journal_coden_Cambridge 1350
_journal_volume 18
_journal_year 2016
_journal_page_first 6233
_journal_name_full 'CrystEngComm '
loop_
_publ_author_name
"Chunyan Zhao"
"Shaobin Li"
"Huiyuan Ma"
"Chunjing Zhang"
"Haijun Pang"
"Yan Yu"
"Zhuanfang Zhang"
_chemical_name_systematic
;
catena-[1-(4-(1H-imidazol-3-ium-1-yl)phenyl)-1H-imidazolediium 
bis(\m-1,4-bis(1-imidazolyl)benzene)-triacontakis(\m-oxo)-(\m-tetraoxoborato)-
hexakis(oxo)-dodeca-tungsten-di-silver trihydrate]
;
_cell_volume   6906.632
_exptl_crystal_colour 'yellow'
_exptl_crystal_description 'block'
_diffrn_ambient_temperature 293
_refine_special_details
;
The SQUEEZE/PLATON program has been used to model some disorder which 
suggests at least one solvent water molecule in crystal structure.
;
#These two values have been output from a single CSD field.
_refine_ls_R_factor_gt 0.0702
_refine_ls_wR_factor_gt 0.0702
_symmetry_cell_setting orthorhombic
_symmetry_space_group_name_H-M 'P n m a'
_symmetry_Int_Tables_number 62
loop_
_symmetry_equiv_pos_site_id
_symmetry_equiv_pos_as_xyz
1 x,y,z
2 1/2-x,-y,1/2+z
3 1/2+x,1/2-y,1/2-z
4 -x,1/2+y,-z
5 -x,-y,-z
6 -1/2+x,y,-1/2-z
7 -1/2-x,-1/2+y,-1/2+z
8 x,-1/2-y,z
_cell_length_a 26.664(5)
_cell_length_b 20.022(5)
_cell_length_c 12.937(5)
_cell_angle_alpha 90
_cell_angle_beta 90
_cell_angle_gamma 90
_cell_formula_units_Z 4
loop_
_atom_type_symbol
_atom_type_radius_bond
C 0.68
H 0.23
Ag 1.45
B 0.83
N 0.68
O 0.68
W 1.62
loop_
_atom_site_label
_atom_site_type_symbol
_atom_site_fract_x
_atom_site_fract_y
_atom_site_fract_z
W1 W 0.15469(5) 0.25000 -0.25235(12)
W2 W 0.15487(4) 0.16719(4) -0.03067(8)
W3 W 0.36799(5) 0.25000 0.05493(11)
W4 W 0.26672(4) 0.16822(5) 0.12835(8)
W5 W 0.26635(4) 0.07766(5) -0.11409(9)
W6 W 0.36799(4) 0.15892(5) -0.18838(8)
W7 W 0.26645(4) 0.15955(5) -0.33397(9)
Ag1 Ag 0.25710(17) 0.1059(2) 0.3908(3)
O1 O 0.2075(7) 0.25000 -0.1054(18)
O2 O 0.2818(5) 0.1884(7) -0.1589(12)
O3 O 0.2564(7) 0.0781(9) -0.2563(16)
O4 O 0.4260(6) 0.1286(9) -0.2174(13)
O5 O 0.3763(8) 0.25000 -0.2244(17)
O6 O 0.3782(5) 0.1838(7) -0.0468(12)
O7 O 0.4273(9) 0.25000 0.1119(19)
O8 O 0.3375(6) 0.1845(8) 0.1400(12)
O9 O 0.2000(6) 0.1714(8) 0.0785(14)
O10 O 0.1115(6) 0.1131(7) 0.0168(13)
O11 O 0.1271(7) 0.25000 0.0076(17)
O12 O 0.1260(5) 0.1848(7) -0.1647(12)
O13 O 0.1109(10) 0.25000 -0.346(2)
O14 O 0.2006(6) 0.3145(9) -0.3033(13)
O15 O 0.2797(9) 0.25000 -0.3640(19)
O16 O 0.3377(6) 0.1460(8) -0.3189(14)
O17 O 0.3372(6) 0.0787(7) -0.1441(14)
O18 O 0.2798(7) 0.1057(8) 0.0231(15)
O19 O 0.2608(6) 0.1162(9) 0.2340(18)
O20 O 0.2567(9) 0.25000 0.201(2)
O21 O 0.2842(9) 0.25000 0.004(2)
O22 O 0.1989(5) 0.1072(7) -0.0974(13)
O23 O 0.2589(6) 0.1261(11) -0.4525(16)
N1 N 0.3354(13) 0.0783(18) 0.394(3)
N2 N 0.6841(10) 0.1208(14) 0.115(2)
N3 N 0.4154(10) 0.0705(12) 0.3607(19)
N4 N 0.5985(9) 0.1187(13) 0.156(2)
C1 C 0.3703(10) 0.0987(15) 0.332(2)
H1 H 0.36560 0.12790 0.27740
C2 C 0.6462(12) 0.0995(16) 0.182(3)
H2 H 0.65300 0.07400 0.24020
C3 C 0.6524(13) 0.1567(15) 0.038(3)
H3 H 0.66560 0.17750 -0.02030
C4 C 0.5011(12) 0.034(2) 0.311(3)
H4 H 0.49570 -0.00680 0.34390
C5 C 0.4632(11) 0.0814(16) 0.305(3)
C6 C 0.4061(11) 0.0355(15) 0.442(2)
H5 H 0.42960 0.01120 0.47930
C7 C 0.3581(13) 0.0396(15) 0.463(3)
H6 H 0.34240 0.01850 0.51870
C8 C 0.4705(14) 0.1398(19) 0.250(3)
H7 H 0.44500 0.17120 0.24370
C9 C 0.5151(17) 0.149(2) 0.208(4)
H8 H 0.52000 0.18910 0.17210
C10 C 0.6036(11) 0.1564(13) 0.060(2)
H9 H 0.57800 0.17610 0.02180
C11 C 0.5554(11) 0.1054(14) 0.213(2)
C12 C 0.5460(14) 0.0484(17) 0.267(3)
H10 H 0.57200 0.01780 0.27500
B1 B 0.2637(13) 0.25000 -0.104(3)
O24 O 0.2599(6) -0.0079(9) -0.0952(15)
N5 N 0.4097(7) 0.9816(10) 0.1107(17)
N6 N 0.3538(7) 0.9444(12) 0.2155(19)
C13 C 0.4651(11) 1.0501(15) 0.001(2)
H11 H 0.44170 1.08450 0.00440
C14 C 0.4561(8) 0.9919(11) 0.0528(19)
C15 C 0.4001(10) 0.9400(12) 0.1856(19)
H12 H 0.42350 0.91080 0.21410
C16 C 0.3664(10) 1.0138(15) 0.088(2)
H13 H 0.36180 1.04490 0.03490
C17 C 0.5080(12) 1.0583(17) -0.054(3)
H14 H 0.51330 1.09690 -0.09240
C18 C 0.3312(10) 0.9928(13) 0.154(2)
H15 H 0.29820 1.00770 0.15900
O25 O 0.0107(17) 0.25000 0.539(4)
O2G O 0.2818(5) 0.3116(7) -0.1589(12)
W2G W 0.15487(4) 0.33281(4) -0.03067(8)
W4G W 0.26672(4) 0.33178(5) 0.12835(8)
W5G W 0.26635(4) 0.42234(5) -0.11409(9)
W6G W 0.36799(4) 0.34108(5) -0.18838(8)
W7G W 0.26645(4) 0.34045(5) -0.33397(9)
Ag1G Ag 0.25710(17) 0.3941(2) 0.3908(3)
O3G O 0.2564(7) 0.4219(9) -0.2563(16)
O4G O 0.4260(6) 0.3714(9) -0.2174(13)
O6G O 0.3782(5) 0.3162(7) -0.0468(12)
O8G O 0.3375(6) 0.3155(8) 0.1400(12)
O9G O 0.2000(6) 0.3286(8) 0.0785(14)
O10G O 0.1115(6) 0.3869(7) 0.0168(13)
O12G O 0.1260(5) 0.3152(7) -0.1647(12)
O14G O 0.2006(6) 0.1855(9) -0.3033(13)
O16G O 0.3377(6) 0.3540(8) -0.3189(14)
O17G O 0.3372(6) 0.4213(7) -0.1441(14)
O18G O 0.2798(7) 0.3943(8) 0.0231(15)
O19G O 0.2608(6) 0.3838(9) 0.2340(18)
O22G O 0.1989(5) 0.3928(7) -0.0974(13)
O23G O 0.2589(6) 0.3739(11) -0.4525(16)
N1G N 0.3354(13) 0.4217(18) 0.394(3)
N2G N 0.6841(10) 0.3792(14) 0.115(2)
N3G N 0.4154(10) 0.4295(12) 0.3607(19)
N4G N 0.5985(9) 0.3813(13) 0.156(2)
C1G C 0.3703(10) 0.4013(15) 0.332(2)
H1G H 0.36560 0.37210 0.27740
C2G C 0.6462(12) 0.4005(16) 0.182(3)
H2G H 0.65300 0.42600 0.24020
C3G C 0.6524(13) 0.3433(15) 0.038(3)
H3G H 0.66560 0.32250 -0.02030
C4G C 0.5011(12) 0.466(2) 0.311(3)
H4G H 0.49570 0.50680 0.34390
C5G C 0.4632(11) 0.4186(16) 0.305(3)
C6G C 0.4061(11) 0.4645(15) 0.442(2)
H5G H 0.42960 0.48880 0.47930
C7G C 0.3581(13) 0.4604(15) 0.463(3)
H6G H 0.34240 0.48150 0.51870
C8G C 0.4705(14) 0.3602(19) 0.250(3)
H7G H 0.44500 0.32880 0.24370
C9G C 0.5151(17) 0.351(2) 0.208(4)
H8G H 0.52000 0.31090 0.17210
C10G C 0.6036(11) 0.3436(13) 0.060(2)
H9G H 0.57800 0.32390 0.02180
C11G C 0.5554(11) 0.3946(14) 0.213(2)
C12G C 0.5460(14) 0.4516(17) 0.267(3)
H10G H 0.57200 0.48220 0.27500
O24G O 0.2599(6) 0.5079(9) -0.0952(15)
Ag1* Ag 0.25710(17) 0.1059(2) -0.6092(3)
Ag1A Ag 0.24290(17) -0.1059(2) -0.1092(3)
Ag1B Ag 0.75710(17) 0.3941(2) 0.1092(3)
Ag1E Ag 0.75710(17) 0.1059(2) 0.1092(3)
Ag1F Ag 0.24290(17) 0.6059(2) -0.1092(3)
Ag1G* Ag 0.25710(17) 0.3941(2) -0.6092(3)
O23* O 0.2589(6) 0.1261(11) 0.5475(16)
O23G* O 0.2589(6) 0.3739(11) 0.5475(16)
N2B N 0.1841(10) 0.3792(14) 0.385(2)
N2E N 0.1841(10) 0.1208(14) 0.385(2)
O24A O 0.2401(6) 0.0079(9) 0.4048(15)
O24F O 0.2401(6) 0.4921(9) 0.4048(15)
N5D N 0.5903(7) 1.0184(10) -0.1107(17)
N6D N 0.6462(7) 1.0556(12) -0.2155(19)
C13D C 0.5349(11) 0.9499(15) -0.001(2)
H11D H 0.55830 0.91550 -0.00440
C14D C 0.5439(8) 1.0081(11) -0.0528(19)
C15D C 0.5999(10) 1.0600(12) -0.1856(19)
H12D H 0.57650 1.08920 -0.21410
C16D C 0.6336(10) 0.9862(15) -0.088(2)
H13D H 0.63820 0.95510 -0.03490
C17D C 0.4920(12) 0.9417(17) 0.054(3)
H14D H 0.48670 0.90310 0.09240
C18D C 0.6688(10) 1.0072(13) -0.154(2)
H15D H 0.70180 0.99230 -0.15900
#END
