
#######################################################################
#
#                 Cambridge Crystallographic Data Centre
#                                CCDC
#
#######################################################################
#
# If this CIF has been generated from an entry in the Cambridge
# Structural Database, then it will include bibliographic, chemical,
# crystal, experimental, refinement or atomic coordinate data resulting
# from the CCDC's data processing and validation procedures.
#
#######################################################################

data_CSD_CIF_ORAGOF
_audit_creation_date 2016-07-15
_audit_creation_method CSD-ConQuest-V1
_database_code_CSD ORAGOF
_database_code_depnum_ccdc_archive 'CCDC 1471569'
_chemical_formula_sum 'C168 H241 Ho4 N27 O59 P6'
_chemical_formula_moiety
;
(C86 H53 Ho4 N6 O39 P6 1-)n,C2 H8 N1 1+,20(C4 H9 N1 O1)
;
_journal_coden_Cambridge 1350
_journal_volume 18
_journal_year 2016
_journal_page_first 6254
_journal_name_full 'CrystEngComm '
loop_
_publ_author_name
"Yajing Ling"
"Jingjing Jiao"
"Mingxing Zhang"
"Huimin Liu"
"Dongjie Bai"
"Yunlong Feng"
"Yabing He"
_chemical_name_systematic
;
catena-[dimethylammonium 
bis(\m-4-((2,4,4,6,6-pentakis(4-carboxylatophenoxy)-1,3,5,2,4,6-triazatriphosp
hinin-2-yl)oxy)benzoato)-(\m-acetato)-aqua-tetra-holmium(iii) 
N,N-dimethylacetamide solvate]
;
_chemical_name_common
;
ZJNU-61(Ho)
;
_cell_volume   8478.702
_exptl_crystal_colour 'colorless'
_exptl_crystal_description 'block'
_diffrn_ambient_temperature 193
_diffrn_special_details
;
twin

;
_refine_special_details
;
The SQUEEZE/PLATON program has been used to model some disordered cation and 
solvent molecules.
;
#These two values have been output from a single CSD field.
_refine_ls_R_factor_gt 0.0561
_refine_ls_wR_factor_gt 0.0561
_symmetry_cell_setting monoclinic
_symmetry_space_group_name_H-M 'P 21'
_symmetry_Int_Tables_number 4
loop_
_symmetry_equiv_pos_site_id
_symmetry_equiv_pos_as_xyz
1 x,y,z
2 -x,1/2+y,-z
_cell_length_a 15.8769(5)
_cell_length_b 23.5103(8)
_cell_length_c 23.1577(8)
_cell_angle_alpha 90
_cell_angle_beta 101.226(2)
_cell_angle_gamma 90
_cell_formula_units_Z 2
loop_
_atom_type_symbol
_atom_type_radius_bond
C 0.68
H 0.23
Ho 1.92
N 0.68
O 0.68
P 1.05
loop_
_atom_site_label
_atom_site_type_symbol
_atom_site_fract_x
_atom_site_fract_y
_atom_site_fract_z
C1 C 0.0168(7) 0.4163(5) 0.4953(5)
C2 C 0.0745(8) 0.3788(5) 0.5300(5)
H1 H 0.12570 0.36830 0.51730
C3 C 0.0589(6) 0.3578(5) 0.5805(5)
H2 H 0.09840 0.33200 0.60280
C4 C -0.0157(6) 0.3736(4) 0.6005(5)
C5 C -0.0735(8) 0.4118(6) 0.5674(5)
H3 H -0.12370 0.42280 0.58110
C6 C -0.0582(7) 0.4334(5) 0.5156(5)
H4 H -0.09730 0.45950 0.49340
C7 C -0.0271(6) 0.3538(4) 0.6588(4)
C8 C 0.1794(8) 0.5318(5) 0.6031(5)
C9 C 0.2531(10) 0.5024(6) 0.6059(8)
H5 H 0.29340 0.51410 0.58280
C10 C 0.2699(8) 0.4562(6) 0.6415(6)
H6 H 0.32100 0.43520 0.64150
C11 C 0.2150(6) 0.4389(4) 0.6777(4)
C12 C 0.1391(7) 0.4684(5) 0.6746(5)
H7 H 0.09960 0.45730 0.69850
C13 C 0.1206(7) 0.5145(5) 0.6363(5)
H8 H 0.06750 0.53410 0.63310
C14 C 0.2353(7) 0.3886(5) 0.7161(5)
C15 C 0.3121(7) 0.4658(5) 0.4467(5)
C16 C 0.3947(7) 0.4806(5) 0.4755(5)
H9 H 0.42270 0.51330 0.46420
C17 C 0.4347(8) 0.4460(6) 0.5214(6)
H10 H 0.49290 0.45330 0.53920
C18 C 0.3909(6) 0.4003(5) 0.5425(6)
C19 C 0.3092(7) 0.3866(5) 0.5107(5)
H11 H 0.28020 0.35450 0.52230
C20 C 0.2699(7) 0.4181(5) 0.4637(6)
H12 H 0.21450 0.40780 0.44260
C21 C 0.4299(6) 0.3703(4) 0.5953(4)
C22 C 0.2745(6) 0.6175(5) 0.3548(5)
C23 C 0.2720(6) 0.6478(4) 0.3050(5)
H13 H 0.22450 0.64370 0.27330
C24 C 0.3383(6) 0.6849(5) 0.2997(5)
H14 H 0.33680 0.70630 0.26470
C25 C 0.4072(6) 0.6899(4) 0.3474(4)
C26 C 0.4092(7) 0.6575(5) 0.3964(5)
H15 H 0.45790 0.65980 0.42740
C27 C 0.3432(7) 0.6214(5) 0.4027(5)
H16 H 0.34420 0.60030 0.43780
C28 C 0.4797(6) 0.7296(4) 0.3431(4)
C29 C 0.1427(7) 0.6846(5) 0.4557(5)
C30 C 0.0985(8) 0.6962(5) 0.4012(6)
H17 H 0.04340 0.68000 0.38780
C31 C 0.1355(7) 0.7330(5) 0.3638(5)
H18 H 0.10660 0.74020 0.32460
C32 C 0.2117(6) 0.7573(4) 0.3850(4)
C33 C 0.2554(9) 0.7472(6) 0.4422(6)
H19 H 0.30980 0.76420 0.45630
C34 C 0.2179(11) 0.7114(7) 0.4785(6)
H20 H 0.24460 0.70600 0.51860
C35 C 0.2546(6) 0.7952(4) 0.3463(5)
C36 C -0.0910(7) 0.5616(6) 0.3707(6)
C37 C -0.065(1) 0.5870(6) 0.3233(6)
H21 H -0.02440 0.56970 0.30360
C38 C -0.1020(8) 0.6396(5) 0.3061(6)
H22 H -0.08200 0.65980 0.27590
C39 C -0.1651(7) 0.6637(5) 0.3301(5)
C40 C -0.1920(9) 0.6362(6) 0.3754(7)
H23 H -0.23430 0.65280 0.39390
C41 C -0.1569(10) 0.5839(7) 0.3937(8)
H24 H -0.17890 0.56310 0.42280
C42 C -0.2057(7) 0.7203(5) 0.3102(5)
C43 C 0.5109(7) 0.5776(5) 0.0776(6)
C44 C 0.5598(7) 0.6243(6) 0.0641(6)
H25 H 0.57470 0.62680 0.02640
C45 C 0.5860(7) 0.6660(6) 0.1052(5)
H26 H 0.62010 0.69660 0.09600
C46 C 0.5629(7) 0.6638(5) 0.1599(5)
C47 C 0.5156(9) 0.6179(6) 0.1731(6)
H27 H 0.49980 0.61560 0.21050
C48 C 0.4912(9) 0.5755(6) 0.1320(6)
H28 H 0.45980 0.54390 0.14210
C49 C 0.5834(7) 0.7106(5) 0.2036(5)
C50 C 0.1980(6) 0.6136(5) 0.1440(5)
C51 C 0.2205(6) 0.6689(5) 0.1543(6)
H29 H 0.27510 0.68210 0.14910
C52 C 0.1622(7) 0.7067(5) 0.1728(6)
H30 H 0.17760 0.74550 0.17970
C53 C 0.0830(6) 0.6880(5) 0.1811(4)
C54 C 0.0644(9) 0.6296(6) 0.1727(7)
H31 H 0.01180 0.61550 0.18070
C55 C 0.1189(10) 0.5925(7) 0.1535(10)
H32 H 0.10400 0.55360 0.14680
C56 C 0.0235(6) 0.7265(4) 0.2010(4)
C57 C 0.2988(8) 0.7192(5) 0.0194(5)
C58 C 0.3717(7) 0.7253(5) 0.0584(5)
H33 H 0.42210 0.70610 0.05280
C59 C 0.3739(8) 0.7603(6) 0.1080(5)
H34 H 0.42410 0.76300 0.13790
C60 C 0.2986(6) 0.7916(5) 0.1120(4)
C61 C 0.2265(7) 0.7864(6) 0.0692(5)
H35 H 0.17690 0.80810 0.07170
C62 C 0.2251(8) 0.7493(6) 0.0219(6)
H36 H 0.17490 0.74490 -0.00760
C63 C 0.2944(6) 0.8234(4) 0.1656(4)
C64 C 0.4142(7) 0.4603(6) -0.0766(5)
C65 C 0.4756(10) 0.4915(7) -0.0959(6)
H37 H 0.49920 0.52450 -0.07510
C66 C 0.5026(9) 0.4745(6) -0.1454(7)
H38 H 0.54580 0.49580 -0.15910
C67 C 0.4685(7) 0.4270(5) -0.1762(5)
C68 C 0.4079(7) 0.3940(5) -0.1544(5)
H39 H 0.38710 0.35950 -0.17330
C69 C 0.3795(8) 0.4120(7) -0.1059(7)
H40 H 0.33580 0.39140 -0.09210
C70 C 0.5038(6) 0.4092(4) -0.2295(5)
C71 C 0.1663(8) 0.5758(5) -0.1217(6)
C72 C 0.1979(7) 0.5240(6) -0.1332(5)
H41 H 0.25790 0.51720 -0.12240
C73 C 0.1444(8) 0.4807(5) -0.1604(6)
H42 H 0.16770 0.44470 -0.16710
C74 C 0.0584(7) 0.4903(5) -0.1772(5)
C75 C 0.0267(8) 0.5438(5) -0.1652(7)
H43 H -0.03330 0.55050 -0.17630
C76 C 0.0783(8) 0.5871(5) -0.1381(6)
H44 H 0.05510 0.62310 -0.13100
C77 C -0.0026(6) 0.4451(4) -0.2033(5)
C78 C 0.1353(6) 0.4703(5) 0.0201(5)
C79 C 0.1827(7) 0.4259(5) 0.0079(5)
H45 H 0.24020 0.42190 0.02850
C80 C 0.1490(7) 0.3870(5) -0.0335(5)
H46 H 0.18330 0.35720 -0.04430
C81 C 0.0618(6) 0.3922(5) -0.0598(5)
C82 C 0.0145(8) 0.4358(5) -0.0448(6)
H47 H -0.04420 0.43860 -0.06320
C83 C 0.0491(7) 0.4764(5) -0.0032(6)
H48 H 0.01560 0.50630 0.00830
C84 C 0.0266(6) 0.3524(5) -0.1084(5)
C85 C 0.2723(7) 0.9524(5) 0.3139(5)
C86 C 0.2086(11) 0.9980(7) 0.3202(8)
Ho1 Ho 0.38981(2) 0.86371(2) 0.30106(2)
Ho2 Ho -0.12824(2) 0.35940(2) 0.76991(2)
Ho3 Ho 0.10629(3) 0.30760(2) 0.78027(2)
Ho4 Ho 0.60987(3) 0.78760(2) 0.29972(2)
N1 N 0.3580(7) 0.5801(5) -0.0342(4)
N2 N 0.3303(6) 0.5181(4) 0.0572(4)
N3 N 0.2150(7) 0.6001(5) 0.0111(5)
N4 N 0.1055(6) 0.5080(5) 0.3830(5)
N5 N 0.2097(7) 0.5675(4) 0.4678(4)
N6 N 0.0479(6) 0.5428(5) 0.4814(5)
O1 O -0.0940(5) 0.3695(3) 0.6772(3)
O2 O 0.0303(5) 0.3217(3) 0.6865(3)
O3 O 0.2976(4) 0.3587(4) 0.7108(3)
O4 O 0.1885(5) 0.3788(3) 0.7544(3)
O5 O 0.3831(5) 0.3342(3) 0.6144(3)
O6 O 0.5054(5) 0.3830(4) 0.6186(4)
O7 O 0.0372(6) 0.4373(4) 0.4445(5)
O8 O 0.1619(6) 0.5816(3) 0.5685(3)
O9 O 0.2724(5) 0.4997(4) 0.4005(4)
O10 O -0.0559(5) 0.5069(4) 0.3903(5)
O11 O 0.1082(6) 0.6476(4) 0.4942(4)
O12 O 0.2031(5) 0.5834(4) 0.3551(4)
O13 O -0.2699(5) 0.7358(4) 0.3304(4)
O14 O -0.1754(5) 0.7475(3) 0.2727(3)
O15 O 0.2230(5) 0.7975(3) 0.2913(3)
O16 O 0.3223(5) 0.8208(4) 0.3709(4)
O17 O 0.4611(4) 0.7757(3) 0.3112(3)
O18 O 0.5534(5) 0.7201(3) 0.3661(3)
O19 O 0.2224(4) 0.8465(3) 0.1704(3)
O20 O 0.3589(4) 0.8256(4) 0.2071(3)
O21 O 0.0483(5) 0.7764(3) 0.2205(4)
O22 O -0.0545(4) 0.7129(3) 0.1969(3)
O23 O 0.5600(9) 0.7036(5) 0.2526(5)
O24 O 0.6233(5) 0.7556(3) 0.1977(3)
O25 O 0.4828(5) 0.5352(3) 0.0359(4)
O26 O 0.2980(7) 0.6833(4) -0.0305(4)
O27 O 0.2579(5) 0.5783(4) 0.1251(4)
O28 O 0.3849(5) 0.4710(4) -0.0243(4)
O29 O 0.2148(6) 0.6208(4) -0.0961(4)
O30 O 0.1686(5) 0.5110(3) 0.0648(3)
O31 O 0.4774(4) 0.3627(4) -0.2550(3)
O32 O 0.5609(5) 0.4373(4) -0.2452(4)
O33 O -0.0820(5) 0.4546(3) -0.2121(4)
O34 O 0.0266(4) 0.3967(3) -0.2170(3)
O35 O -0.0518(5) 0.3543(4) -0.1292(3)
O36 O 0.0790(5) 0.3200(3) -0.1275(4)
O37 O 0.2503(4) 0.9123(3) 0.2738(3)
O38 O 0.3455(5) 0.9500(4) 0.3446(4)
O39 O 0.2336(5) 0.2829(4) 0.8463(4)
P1 P 0.38485(18) 0.53005(14) 0.00882(14)
P2 P 0.24604(18) 0.55293(13) 0.06140(14)
P3 P 0.2733(2) 0.61780(14) -0.03275(14)
P4 P 0.19343(18) 0.53897(13) 0.40562(14)
P5 P 0.1318(2) 0.58184(13) 0.49970(15)
P6 P 0.0381(2) 0.50268(15) 0.42667(17)
Ho1A Ho 0.61019(2) 0.36371(2) -0.30106(2)
Ho1A* Ho 0.61019(2) 0.36371(2) 0.69894(2)
Ho2* Ho -0.12824(2) 0.35940(2) -0.23009(2)
Ho2A Ho 0.12824(2) 0.85940(2) 0.23009(2)
Ho3* Ho 0.10629(3) 0.30760(2) -0.21973(2)
Ho3A Ho -0.10629(3) 0.80760(2) 0.21973(2)
Ho4* Ho -0.39013(3) 0.78760(2) 0.29972(2)
Ho4A Ho 0.39013(3) 0.28760(2) -0.29972(2)
Ho4A* Ho 0.39013(3) 0.28760(2) 0.70028(2)
O3A O 0.7024(4) 0.8587(4) 0.2892(3)
O5A O 0.6169(5) 0.8342(3) 0.3856(3)
O6A O 0.4946(5) 0.8830(4) 0.3814(4)
O13* O 0.7301(5) 0.7358(4) 0.3304(4)
O14A O 0.1754(5) 0.2475(3) 0.7273(3)
O15A O -0.2230(5) 0.2975(3) 0.7087(3)
O19A O -0.2224(4) 0.3465(3) 0.8296(3)
O21A O -0.0483(5) 0.2764(3) 0.7795(4)
O22A O 0.0545(4) 0.2129(3) 0.8031(3)
O31A O 0.5226(4) 0.8627(4) 0.2550(3)
O32A O 0.4391(5) 0.9373(4) 0.2452(4)
O33* O -0.0820(5) 0.4546(3) 0.7879(4)
O34* O 0.0266(4) 0.3967(3) 0.7830(3)
O35* O -0.0518(5) 0.3543(4) 0.8708(3)
O36* O 0.0790(5) 0.3200(3) 0.8725(4)
O37A O -0.2503(4) 0.4123(3) 0.7262(3)
#END
