
#######################################################################
#
#                 Cambridge Crystallographic Data Centre
#                                CCDC
#
#######################################################################
#
# If this CIF has been generated from an entry in the Cambridge
# Structural Database, then it will include bibliographic, chemical,
# crystal, experimental, refinement or atomic coordinate data resulting
# from the CCDC's data processing and validation procedures.
#
#######################################################################

data_CSD_CIF_ORELIJ01
_audit_creation_date 2021-04-16
_audit_creation_method CSD-ConQuest-V1
_database_code_CSD ORELIJ01
_database_code_depnum_ccdc_archive 'CCDC 2068778'
_chemical_formula_sum 'C5 H8 Er1 N3 O8'
_chemical_formula_moiety
;
(C4 H2 Er1 O8 1-)n,n(C1 H6 N3 1+)
;
_journal_coden_Cambridge 222
_journal_volume 50
_journal_year 2021
_journal_page_first 5437
_journal_name_full 'Dalton Trans. '
loop_
_publ_author_name
"L.G.Burley"
"J.H.Beecham-Lonsdale"
"A.K.Srivastava"
"I.E.Collings"
"P.J.Saines"
_chemical_name_systematic
;
catena-(guanidinium bis(\m-formato)-(\m-oxalato)-erbium)
;
_cell_volume   1078.293
_exptl_crystal_density_diffrn 2.497
_exptl_crystal_description 'sphere'
_diffrn_ambient_temperature 310.0
#These two values have been output from a single CSD field.
_refine_ls_R_factor_gt 0.0829
_refine_ls_wR_factor_gt 0.0829
_symmetry_cell_setting orthorhombic
_symmetry_space_group_name_H-M 'P c c a'
_symmetry_Int_Tables_number 54
loop_
_symmetry_equiv_pos_site_id
_symmetry_equiv_pos_as_xyz
1 x,y,z
2 1/2-x,-y,z
3 1/2+x,-y,1/2-z
4 -x,y,1/2-z
5 -x,-y,-z
6 -1/2+x,y,-z
7 -1/2-x,y,-1/2+z
8 x,-y,-1/2+z
_cell_length_a 8.4795(4)
_cell_length_b 6.6014(2)
_cell_length_c 19.2633(5)
_cell_angle_alpha 90
_cell_angle_beta 90
_cell_angle_gamma 90
_cell_formula_units_Z 4
loop_
_atom_type_symbol
_atom_type_radius_bond
C 0.68
H 0.23
Er 1.89
N 0.68
O 0.68
loop_
_atom_site_label
_atom_site_type_symbol
_atom_site_fract_x
_atom_site_fract_y
_atom_site_fract_z
Er1 Er 0.25000 0.50000 0.11627(4)
O1 O -0.1448(11) 0.3233(13) -0.0191(4)
O2 O 0.0229(10) 0.3356(14) 0.0691(4)
O3 O 0.0688(14) 0.4928(12) 0.2010(6)
C1 C -0.0344(15) 0.3986(16) 0.0143(6)
C2 C 0.00000 0.576(3) 0.25000
H1 H -0.00000 0.71708 0.25000
O4 O 0.2391(10) 0.8344(13) 0.1566(5)
C3 C 0.25000 1.00000 0.1276(10)
H2 H 0.25000 1.00000 0.07935
C4 C -0.25000 0.00000 0.1573(12)
N1 N -0.25000 0.00000 0.0895(13)
N2 N -0.3388(18) -0.130(2) 0.1908(6)
H3 H -0.39641 -0.21436 0.16803
H4 H -0.33955 -0.13111 0.23540
H5 H -0.19208 0.08481 0.06716
H6? H -0.19208 0.08481 0.06716
O1D O 0.1448(11) 0.6767(13) 0.0191(4)
O2D O -0.0229(10) 0.6644(14) -0.0691(4)
C1D C 0.0344(15) 0.6014(16) -0.0143(6)
O3C O -0.0688(14) 0.4928(12) 0.2990(6)
O4A O 0.2609(10) 1.1656(13) 0.1566(5)
Er1* Er 0.25000 1.50000 0.11627(4)
Er1B Er -0.25000 0.50000 0.38373(4)
Er1D Er -0.25000 0.50000 -0.11627(4)
O1E O 0.3552(11) 0.3233(13) 0.0191(4)
O2A O 0.4771(10) 0.6644(14) 0.0691(4)
O3A O 0.4312(14) 0.5072(12) 0.2010(6)
O4A* O 0.2609(10) 0.1656(13) 0.1566(5)
N2A N -0.1612(18) 0.130(2) 0.1908(6)
H3A H -0.10359 0.21436 0.16803
H4A H -0.16045 0.13111 0.23540
H5A H -0.30792 -0.08481 0.06716
#END
