
#######################################################################
#
#                 Cambridge Crystallographic Data Centre
#                                CCDC
#
#######################################################################
#
# If this CIF has been generated from an entry in the Cambridge
# Structural Database, then it will include bibliographic, chemical,
# crystal, experimental, refinement or atomic coordinate data resulting
# from the CCDC's data processing and validation procedures.
#
#######################################################################

data_CSD_CIF_ORELIJ
_audit_creation_date 2021-04-16
_audit_creation_method CSD-ConQuest-V1
_database_code_CSD ORELIJ
_database_code_depnum_ccdc_archive 'CCDC 2068777'
_chemical_formula_sum 'C5 H8 Er1 N3 O8'
_chemical_formula_moiety
;
(C4 H2 Er1 O8 1-)n,n(C1 H6 N3 1+)
;
_journal_coden_Cambridge 222
_journal_volume 50
_journal_year 2021
_journal_page_first 5437
_journal_name_full 'Dalton Trans. '
loop_
_publ_author_name
"L.G.Burley"
"J.H.Beecham-Lonsdale"
"A.K.Srivastava"
"I.E.Collings"
"P.J.Saines"
_chemical_name_systematic
;
catena-(guanidinium bis(\m-formato)-(\m-oxalato)-erbium)
;
_cell_volume   1072.905
_exptl_crystal_density_diffrn 2.51
_exptl_crystal_description 'sphere'
_diffrn_ambient_temperature 100.0
#These two values have been output from a single CSD field.
_refine_ls_R_factor_gt 0.0828
_refine_ls_wR_factor_gt 0.0828
_symmetry_cell_setting orthorhombic
_symmetry_space_group_name_H-M 'P c c a'
_symmetry_Int_Tables_number 54
loop_
_symmetry_equiv_pos_site_id
_symmetry_equiv_pos_as_xyz
1 x,y,z
2 1/2-x,-y,z
3 1/2+x,-y,1/2-z
4 -x,y,1/2-z
5 -x,-y,-z
6 -1/2+x,y,-z
7 -1/2-x,y,-1/2+z
8 x,-y,-1/2+z
_cell_length_a 8.3846(3)
_cell_length_b 6.5898(2)
_cell_length_c 19.4181(5)
_cell_angle_alpha 90
_cell_angle_beta 90
_cell_angle_gamma 90
_cell_formula_units_Z 4
loop_
_atom_type_symbol
_atom_type_radius_bond
C 0.68
H 0.23
Er 1.89
N 0.68
O 0.68
loop_
_atom_site_label
_atom_site_type_symbol
_atom_site_fract_x
_atom_site_fract_y
_atom_site_fract_z
Er1 Er 0.25000 0.50000 0.11599(4)
O1 O 0.0207(9) 0.334(1) 0.0699(3)
O2 O 0.0649(10) 0.4909(9) 0.2002(4)
O3 O 0.2387(8) 0.8333(12) 0.1568(4)
O4 O -0.1454(8) 0.3231(11) -0.0200(3)
C1 C -0.0368(13) 0.3995(14) 0.0142(5)
C2 C 0.00000 0.579(2) 0.25000
C3 C 0.25000 1.00000 0.1272(9)
H1 H 0.00000 0.72019 0.25000
H2 H 0.25000 1.00000 0.07934
C4 C -0.25000 0.00000 0.1604(10)
N1 N -0.25000 0.00000 0.0919(9)
N2 N -0.3383(12) -0.1316(12) 0.1936(4)
H3 H -0.33890 -0.13240 0.23792
H4 H -0.39576 -0.21710 0.17117
H5 H -0.30770 -0.08593 0.06973
H6? H -0.30770 -0.08593 0.06973
O1D O -0.0207(9) 0.666(1) -0.0699(3)
C1D C 0.0368(13) 0.6005(14) -0.0142(5)
O4D O 0.1454(8) 0.6769(11) 0.0200(3)
O2C O -0.0649(10) 0.4909(9) 0.2998(4)
O3A O 0.2613(8) 1.1667(12) 0.1568(4)
Er1* Er 0.25000 1.50000 0.11599(4)
Er1B Er -0.25000 0.50000 0.38401(4)
Er1D Er -0.25000 0.50000 -0.11599(4)
O1A O 0.4793(9) 0.666(1) 0.0699(3)
O2A O 0.4351(10) 0.5091(9) 0.2002(4)
O3A* O 0.2613(8) 0.1667(12) 0.1568(4)
O4E O 0.3546(8) 0.3231(11) 0.0200(3)
N2A N -0.1617(12) 0.1316(12) 0.1936(4)
H3A H -0.16110 0.13240 0.23792
H4A H -0.10424 0.21710 0.17117
H5A H -0.19230 0.08593 0.06973
#END
