
#######################################################################
#
#                 Cambridge Crystallographic Data Centre
#                                CCDC
#
#######################################################################
#
# If this CIF has been generated from an entry in the Cambridge
# Structural Database, then it will include bibliographic, chemical,
# crystal, experimental, refinement or atomic coordinate data resulting
# from the CCDC's data processing and validation procedures.
#
#######################################################################

data_CSD_CIF_OREMUW01
_audit_creation_date 2021-04-16
_audit_creation_method CSD-ConQuest-V1
_database_code_CSD OREMUW01
_database_code_depnum_ccdc_archive 'CCDC 2068775'
_chemical_formula_sum 'C12 H20 Er2 N2 O16'
_chemical_formula_moiety
;
(C8 H4 Er2 O16 2-)n,2(C2 H8 N1 1+)
;
_journal_coden_Cambridge 222
_journal_volume 50
_journal_year 2021
_journal_page_first 5437
_journal_name_full 'Dalton Trans. '
loop_
_publ_author_name
"L.G.Burley"
"J.H.Beecham-Lonsdale"
"A.K.Srivastava"
"I.E.Collings"
"P.J.Saines"
_chemical_name_systematic
;
catena-(bis(dimethylammonium) tetrakis(\m-formato)-bis(\m-oxalato)-di-erbium)
;
_cell_volume   1079.825
_exptl_crystal_colour 'colorless'
_exptl_crystal_density_diffrn 2.408
_exptl_crystal_description 'block'
_diffrn_ambient_temperature 293.0
#These two values have been output from a single CSD field.
_refine_ls_R_factor_gt 0.0315
_refine_ls_wR_factor_gt 0.0315
_symmetry_cell_setting monoclinic
_symmetry_space_group_name_H-M 'P 2/n'
_symmetry_Int_Tables_number 13
loop_
_symmetry_equiv_pos_site_id
_symmetry_equiv_pos_as_xyz
1 x,y,z
2 1/2-x,y,1/2-z
3 -x,-y,-z
4 -1/2+x,-y,-1/2+z
_cell_length_a 9.1700(4)
_cell_length_b 8.9919(3)
_cell_length_c 13.1900(6)
_cell_angle_alpha 90
_cell_angle_beta 96.851(4)
_cell_angle_gamma 90
_cell_formula_units_Z 2
loop_
_atom_type_symbol
_atom_type_radius_bond
C 0.68
H 0.23
Er 1.89
N 0.68
O 0.68
loop_
_atom_site_label
_atom_site_type_symbol
_atom_site_fract_x
_atom_site_fract_y
_atom_site_fract_z
Er1 Er 0.75000 0.25278(2) 0.25000
O1 O 0.6533(3) 0.4512(4) 0.3368(2)
O2 O 0.5241(4) 0.3420(4) 0.1622(2)
O3 O 0.7548(4) 0.1690(4) 0.4202(2)
O4 O 0.5941(4) 0.0560(4) 0.2538(3)
C1 C 0.7729(5) 0.2430(5) 0.5013(3)
O5 O 0.7589(4) 0.1939(4) 0.5871(2)
H1 H 0.79890 0.34250 0.49650
Er2 Er 0.75000 0.28984(3) 0.75000
O6 O 0.6555(3) 0.4902(4) 0.8373(2)
O7 O 0.9713(4) 0.3862(4) 0.8403(2)
O8 O 0.9251(5) 0.1065(5) 0.7681(3)
C2 C 0.5397(4) 0.5518(4) 0.8013(3)
C3 C 1.0356(5) 0.4910(5) 0.8020(3)
C4 C 0.9723(6) -0.0048(6) 0.7312(4)
H2 H 0.91000 -0.05480 0.68180
N1 N 0.3218(5) 1.1521(5) 0.5623(3)
H3 H 0.38980 1.18400 0.61130
H4 H 0.31290 1.05420 0.56980
C5 C 0.3718(8) 1.1815(9) 0.4637(4)
H5 H 0.31420 1.12460 0.41200
H6 H 0.47330 1.15400 0.46600
H7 H 0.36090 1.28550 0.44810
C6 C 0.1814(8) 1.2227(8) 0.5757(6)
H8 H 0.10700 1.18830 0.52370
H9 H 0.19100 1.32870 0.57060
H10 H 0.15430 1.19760 0.64170
O3A O 0.7452(4) 0.1690(4) 0.0798(2)
O1A O 0.8467(3) 0.4512(4) 0.1632(2)
O2A O 0.9759(4) 0.3420(4) 0.3378(2)
O4A O 0.9059(4) 0.0560(4) 0.2462(3)
C1A C 0.7271(5) 0.2430(5) -0.0013(3)
O5A O 0.7411(4) 0.1939(4) -0.0871(2)
H1A H 0.70110 0.34250 0.00350
Er2* Er 0.75000 0.28984(3) -0.25000
O7A O 0.5287(4) 0.3862(4) 0.6597(2)
O5A* O 0.7411(4) 0.1939(4) 0.9129(2)
O6A O 0.8445(3) 0.4902(4) 0.6627(2)
O8A O 0.5749(5) 0.1065(5) 0.7319(3)
C3A C 0.4644(5) 0.4910(5) 0.6980(3)
C1A* C 0.7271(5) 0.2430(5) 0.9987(3)
C2A C 0.9603(4) 0.5518(4) 0.6987(3)
O2B O 0.4759(4) 0.6580(4) 0.8378(2)
O1C O 1.1533(3) 0.5488(4) 0.8368(2)
O4C O 1.0941(4) -0.0560(4) 0.7538(3)
O1B O 0.3467(3) 0.5488(4) 0.6632(2)
O3A* O 0.7452(4) 0.1690(4) 1.0798(2)
H1A* H 0.70110 0.34250 1.00350
O2C O 1.0241(4) 0.6580(4) 0.6622(2)
Er1B Er 0.25000 0.74722(2) 0.75000
Er1B* Er 1.25000 0.74722(2) 0.75000
Er1B** Er 1.25000 -0.25278(2) 0.75000
Er1* Er 0.75000 0.25278(2) 1.25000
#END
