
#######################################################################
#
#                 Cambridge Crystallographic Data Centre
#                                CCDC
#
#######################################################################
#
# If this CIF has been generated from an entry in the Cambridge
# Structural Database, then it will include bibliographic, chemical,
# crystal, experimental, refinement or atomic coordinate data resulting
# from the CCDC's data processing and validation procedures.
#
#######################################################################

data_CSD_CIF_ORIMAE
_audit_creation_date 2011-08-04
_audit_creation_method CSD-ConQuest-V1
_database_code_CSD ORIMAE
_database_code_depnum_ccdc_archive 'CCDC 800868'
_chemical_formula_sum 'C14 H64 Eu2 N6 O68 W12'
_chemical_formula_moiety
;
(C14 H26 Eu2 N2 O57 W12 4-)n,4n(H4 N1 1+),11n(H2 O1)
;
_journal_coden_Cambridge 208
_journal_volume 184
_journal_year 2011
_journal_page_first 1355
_journal_name_full 'J.Solid State Chem. '
loop_
_publ_author_name
"Dan-Dan Liu"
"Ya-Guang Chen"
"Chun-Jing Zhang"
"Hua-Xin Meng"
"Zhi-Chao Zhang"
"Chun-Xia Zhang"
_chemical_name_systematic
;
catena-(tetrakis(\m~3~-oxo)-bis(\m~2~-pyridine-3,5-dicarboxylato)-pentacosakis
(\m~2~-oxo)-bis(\m~2~-hydroxo)-nonaaqua-nonooxo-di-europium-dodeca-tungsten 
tetraammonium undecahydrate)
;
_cell_volume   6873.482
_exptl_crystal_colour 'colorless'
_exptl_crystal_density_diffrn 3.742
_exptl_crystal_description 'block'
_diffrn_ambient_temperature 296
#These two values have been output from a single CSD field.
_refine_ls_R_factor_gt 0.0454
_refine_ls_wR_factor_gt 0.0454
_symmetry_cell_setting monoclinic
_symmetry_space_group_name_H-M 'P 21/n'
_symmetry_Int_Tables_number 14
loop_
_symmetry_equiv_pos_site_id
_symmetry_equiv_pos_as_xyz
1 x,y,z
2 1/2-x,1/2+y,1/2-z
3 -x,-y,-z
4 -1/2+x,-1/2-y,-1/2+z
_cell_length_a 12.9400(9)
_cell_length_b 25.0820(18)
_cell_length_c 21.3411(15)
_cell_angle_alpha 90
_cell_angle_beta 97.093(1)
_cell_angle_gamma 90
_cell_formula_units_Z 4
loop_
_atom_type_symbol
_atom_type_radius_bond
C 0.68
H 0.23
Eu 1.75
N 0.68
O 0.68
W 1.39
loop_
_atom_site_label
_atom_site_type_symbol
_atom_site_fract_x
_atom_site_fract_y
_atom_site_fract_z
W1 W 0.98552(5) 0.12324(2) 0.90324(3)
W2 W 0.76546(5) 0.02698(2) 0.88431(3)
W3 W 0.57502(5) 0.03762(2) 0.76434(3)
W4 W 0.81258(5) 0.21637(2) 0.89597(3)
W5 W 0.59239(5) 0.14786(2) 0.65427(3)
W6 W 0.98914(4) 0.21928(2) 0.80294(3)
W7 W 0.96119(5) 0.02412(2) 0.77364(3)
W8 W 0.60241(4) 0.23447(2) 0.76555(3)
W9 W 0.59037(5) 0.12457(2) 0.88149(3)
W10 W 0.77414(5) 0.03582(2) 0.65219(3)
Eu1 Eu 0.83669(6) 0.33883(3) 1.02284(4)
W11 W 0.77837(5) 0.23378(2) 0.66983(3)
Eu2 Eu 1.18950(6) 0.33827(3) 0.75212(5)
O1 O 0.8732(7) -0.0066(4) 0.7013(5)
O2 O 0.8714(7) 0.0742(4) 0.9152(5)
O3 O 0.6462(8) -0.0051(3) 0.8296(5)
O4 O 0.6632(7) 0.0654(4) 0.9258(5)
O5 O 0.5152(7) 0.2064(3) 0.6956(5)
O6 O 0.5644(7) 0.1796(4) 0.8208(5)
O7 O 0.8508(7) 0.0072(3) 0.8217(5)
O8 O 1.0086(7) 0.0720(4) 0.8364(5)
O9 O 0.5440(7) 0.0971(3) 0.7108(5)
O10 O 0.7123(7) 0.1671(3) 0.9141(5)
O11 O 0.6832(7) 0.0966(3) 0.6296(5)
O12 O 0.7201(7) 0.2451(3) 0.8305(5)
O13 O 0.5081(9) 0.1395(4) 0.9366(6)
O14 O 0.9308(7) 0.2576(4) 0.8658(5)
O15 O 0.9234(7) 0.1750(4) 0.9512(5)
O16 O 0.7862(8) -0.0248(4) 0.9369(5)
O17 O 0.5082(7) 0.0758(4) 0.8286(5)
O18 O 0.8040(8) 0.2625(4) 0.9571(5)
O19 O 0.6747(7) 0.0191(3) 0.7092(5)
O20 O 1.0407(8) -0.0295(4) 0.7887(6)
O21 O 0.4737(8) -0.0042(4) 0.7381(5)
O22 O 1.0788(8) 0.1008(4) 0.9621(5)
O23 O 0.5250(8) 0.2872(4) 0.7829(5)
O24 O 0.7322(8) -0.0070(4) 0.5905(5)
W12 W 0.96838(5) 0.12300(2) 0.67120(3)
O25 O 0.8826(7) 0.2427(3) 0.7405(5)
O26 O 0.8808(8) 0.0726(4) 0.6161(5)
O27 O 0.8663(8) 0.1760(3) 0.6475(5)
O28 O 1.0551(8) 0.1365(4) 0.6185(6)
O29 O 0.7016(7) 0.1748(3) 0.7257(5)
O30 O 1.0167(7) 0.1647(4) 0.7409(5)
O31 O 0.8752(7) 0.1643(3) 0.8342(5)
O32 O 0.8137(8) 0.2833(4) 0.6205(5)
O33 O 0.6648(7) 0.2046(3) 0.6119(5)
O34 O 1.0705(7) 0.1753(3) 0.8677(5)
O35 O 0.6977(7) 0.0923(4) 0.8162(5)
O36 O 1.0335(7) 0.0608(4) 0.7113(5)
O37 O 0.8528(7) 0.0901(4) 0.7297(5)
O38 O 1.2811(9) 0.1158(4) 0.6060(5)
O39 O 0.6822(7) 0.2754(4) 0.7114(5)
O40 O 0.6630(8) 0.3040(4) 1.0378(6)
O41 O 1.0438(8) 0.3722(4) 0.8132(7)
O42 O 0.8983(9) 0.4303(4) 0.9999(6)
O43 O 0.9906(7) 0.3562(4) 1.0916(5)
O44 O 0.7360(9) 0.3728(4) 0.9365(6)
O45 O 0.9825(7) 0.3239(4) 0.9643(5)
O46 O 0.8669(9) 0.2632(4) 1.0981(6)
O47 O 1.0879(8) 0.2636(4) 0.7928(5)
O48 O 1.0114(9) 0.3632(5) 0.7116(6)
O49 O 1.2189(9) 0.4334(4) 0.7782(7)
N1 N 0.6980(9) 0.3882(5) 0.7145(7)
O50 O 0.5780(8) 0.3859(5) 0.8831(6)
N2 N 1.2686(10) 0.0804(5) 0.8214(7)
C1 C 0.7216(11) 0.3806(5) 0.8270(8)
C2 C 1.2798(11) 0.1002(5) 0.7143(8)
C3 C 1.2845(12) 0.1310(5) 0.8382(8)
H1 H 1.28810 0.14140 0.88170
C4 C 1.2647(11) 0.0646(6) 0.7605(8)
H2 H 1.25010 0.02800 0.74980
C5 C 0.6741(12) 0.3793(6) 0.8857(8)
O51 O 1.3727(9) 0.3596(5) 0.7375(9)
C6 C 0.6587(13) 0.3874(5) 0.7684(7)
H3 H 0.58500 0.39190 0.76820
C7 C 0.8008(13) 0.3836(6) 0.7122(9)
H4 H 0.82790 0.38410 0.67230
C8 C 1.2920(12) 0.1525(6) 0.7294(9)
H5 H 1.29850 0.17800 0.69670
O52 O 1.2657(11) 0.0316(4) 0.6365(6)
O53 O 1.1943(12) 0.3888(5) 0.6525(8)
C9 C 1.2756(12) 0.0805(6) 0.6473(8)
C10 C 0.8279(12) 0.3779(6) 0.8230(9)
H6 H 0.87500 0.37540 0.86130
C11 C 1.2964(11) 0.1699(6) 0.7910(8)
C12 C 0.8680(12) 0.3784(6) 0.7672(8)
O54 O 1.2948(8) 0.2597(4) 0.7668(6)
O55 O 1.3244(9) 0.2376(4) 0.8673(7)
N3 N 0.4099(10) 0.4574(5) 0.8546(7)
H7 H 0.45450 0.43070 0.83990
H8 H 0.42820 0.49170 0.83950
H9 H 0.33880 0.44950 0.83900
H10 H 0.41820 0.45750 0.89990
N4 N 0.5185(11) 0.2786(7) 0.9341(7)
H11 H 0.56430 0.26280 0.90730
H12 H 0.52720 0.31670 0.93420
H13 H 0.44770 0.26990 0.91860
H14 H 0.53480 0.26520 0.97630
O56 O 1.0009(12) 0.3032(8) 0.5587(8)
N5 N 0.5714(14) 0.3885(6) 0.6065(8)
H15 H 0.61660 0.35820 0.61400
H16 H 0.60130 0.41340 0.57970
H17 H 0.50470 0.37700 0.58620
H18 H 0.56290 0.40520 0.64590
C13 C 1.3070(13) 0.2277(6) 0.8088(10)
O57 O 1.2631(10) 0.3385(5) 0.8628(8)
O58 O 1.1511(11) 0.2787(5) 0.6605(7)
O59 O 0.5673(14) 0.2898(6) 0.5468(9)
C14 C 0.9815(15) 0.3719(7) 0.7637(10)
O60 O 1.3063(14) 0.1134(7) 0.9992(10)
O61 O 0.6513(14) 0.4890(8) 1.0219(9)
O62 O 0.9519(17) 0.5121(8) 1.0890(8)
O63 O 0.3548(17) 0.3142(10) 1.0099(10)
N6 N 0.7491(14) 0.5040(8) 1.3957(10)
H19 H 0.76040 0.48440 1.35850
H20 H 0.79290 0.53500 1.39930
H21 H 0.67750 0.51480 1.39280
H22 H 0.76580 0.48180 1.43220
O64 O 0.4773(19) 0.4177(9) 0.9885(9)
O65 O 0.5326(18) -0.0729(9) 0.9049(11)
O66 O 1.1513(15) 0.3905(7) 0.9675(12)
O67 O 1.237(2) 0.2177(9) 0.9786(11)
O68 O 0.9224(19) 0.5166(13) 1.4819(15)
W5C W 1.09239(5) 0.35214(2) 1.15427(3)
Eu1C Eu 1.33669(6) 0.16117(3) 0.52284(4)
O38C O 0.7811(9) 0.3842(4) 1.1060(5)
O43C O 0.4906(7) 0.1438(4) 0.5916(5)
#END
