
#######################################################################
#
#                 Cambridge Crystallographic Data Centre
#                                CCDC
#
#######################################################################
#
# If this CIF has been generated from an entry in the Cambridge
# Structural Database, then it will include bibliographic, chemical,
# crystal, experimental, refinement or atomic coordinate data resulting
# from the CCDC's data processing and validation procedures.
#
#######################################################################

data_CSD_CIF_ORIMEI
_audit_creation_date 2011-08-04
_audit_creation_method CSD-ConQuest-V1
_database_code_CSD ORIMEI
_database_code_depnum_ccdc_archive 'CCDC 800869'
_chemical_formula_sum 'C14 H64 Dy2 N6 O68 W12'
_chemical_formula_moiety
;
(C14 H26 Dy2 N2 O57 W12 4-)n,4n(H4 N1 1+),11n(H2 O1)
;
_journal_coden_Cambridge 208
_journal_volume 184
_journal_year 2011
_journal_page_first 1355
_journal_name_full 'J.Solid State Chem. '
loop_
_publ_author_name
"Dan-Dan Liu"
"Ya-Guang Chen"
"Chun-Jing Zhang"
"Hua-Xin Meng"
"Zhi-Chao Zhang"
"Chun-Xia Zhang"
_chemical_name_systematic
;
catena-(tetrakis(\m~3~-oxo)-bis(\m~2~-pyridine-3,5-dicarboxylato)-pentacosakis
(\m~2~-oxo)-bis(\m~2~-hydroxo)-nonaaqua-nonooxo-di-dysprosium-dodeca-tungsten 
tetraammonium undecahydrate)
;
_cell_volume   6932.135
_exptl_crystal_colour 'colorless'
_exptl_crystal_density_diffrn 3.654
_exptl_crystal_description 'block'
_diffrn_ambient_temperature 296
_refine_special_details
;
Dy3 and Dy2 disordered over two sites with occupancies 0.50:0.50. Some of the 
O atoms are also disordered, partially by symmetry.
;
#These two values have been output from a single CSD field.
_refine_ls_R_factor_gt 0.0526
_refine_ls_wR_factor_gt 0.0526
_symmetry_cell_setting monoclinic
_symmetry_space_group_name_H-M 'P 21/n'
_symmetry_Int_Tables_number 14
loop_
_symmetry_equiv_pos_site_id
_symmetry_equiv_pos_as_xyz
1 x,y,z
2 1/2-x,1/2+y,1/2-z
3 -x,-y,-z
4 -1/2+x,-1/2-y,-1/2+z
_cell_length_a 12.9235(10)
_cell_length_b 25.122(2)
_cell_length_c 21.5695(17)
_cell_angle_alpha 90
_cell_angle_beta 98.149(1)
_cell_angle_gamma 90
_cell_formula_units_Z 4
loop_
_atom_type_symbol
_atom_type_radius_bond
C 0.68
H 0.23
Dy 1.83
N 0.68
O 0.68
W 1.32
loop_
_atom_site_label
_atom_site_type_symbol
_atom_site_fract_x
_atom_site_fract_y
_atom_site_fract_z
W1 W 0.69806(5) -0.28376(3) 0.10406(3)
W2 W 0.73898(6) -0.47384(3) 0.11892(3)
W3 W 0.92787(5) -0.46394(3) 0.24050(3)
W4 W 0.90663(5) -0.26735(3) 0.23692(3)
W5 W 0.52216(5) -0.27938(3) 0.19519(3)
W6 W 0.54285(5) -0.47355(3) 0.22590(3)
W7 W 0.91735(6) -0.37792(3) 0.12398(3)
W8 W 0.52246(6) -0.37590(3) 0.09678(3)
W9 W 0.53671(5) -0.37413(3) 0.32658(3)
W10 W 0.91590(5) -0.35279(3) 0.34825(3)
Dy1 Dy 0.67264(6) -0.16158(3) -0.02079(3)
W11 W 0.72843(5) -0.46248(3) 0.34892(3)
W12 W 0.73116(5) -0.26580(3) 0.33022(3)
O1 O 0.6278(9) -0.5047(4) 0.3002(5)
O2 O 0.7074(9) -0.2378(4) 0.0444(5)
O3 O 0.7909(10) -0.2564(5) 0.1705(5)
O4 O 0.8566(9) -0.5060(5) 0.1748(5)
O5 O 0.7980(9) -0.3349(4) 0.0885(5)
O6 O 0.6397(8) -0.3218(4) 0.3504(4)
O7 O 0.6246(10) -0.4246(5) 0.3828(5)
O8 O 0.6269(8) -0.2560(4) 0.2585(5)
O9 O 0.8223(8) -0.4036(4) 0.3726(5)
O10 O 0.9978(9) -0.4263(4) 0.1775(5)
O11 O 0.5807(9) -0.2410(4) 0.1333(5)
O12 O 0.8287(9) -0.2262(4) 0.2893(5)
O13 O 0.6517(9) -0.4926(4) 0.1802(5)
O14 O 0.4917(8) -0.3320(4) 0.2574(5)
O15 O 0.7170(11) -0.5263(5) 0.0664(6)
O16 O 0.5879(9) -0.3243(5) 0.0510(5)
O17 O 0.8062(8) -0.3257(4) 0.2749(5)
O18 O 0.9873(8) -0.2168(5) 0.2199(5)
O19 O 0.4990(8) -0.4255(5) 0.1627(5)
O20 O 0.8446(10) -0.4369(5) 0.0796(5)
O21 O 0.7675(11) -0.5049(5) 0.4119(6)
O22 O 0.6334(8) -0.4265(5) 0.0862(5)
O23 O 0.4497(10) -0.3594(5) 0.3762(6)
O24 O 0.4395(9) -0.3230(4) 0.1311(5)
O25 O 0.4252(9) -0.2332(5) 0.2040(6)
O26 O 0.6351(10) -0.2356(5) -0.0911(6)
C1 C 0.8451(15) -0.1134(6) 0.2290(8)
H1 H 0.91920 -0.10910 0.23020
O27 O 0.6979(10) -0.2155(5) 0.3773(5)
O28 O 0.6112(11) -0.0728(5) 0.0019(6)
O29 O 0.9929(9) -0.2966(4) 0.3082(5)
O30 O 0.9458(8) -0.3226(4) 0.1835(5)
O31 O 0.9621(8) -0.4028(4) 0.2934(5)
O32 O 0.6538(8) -0.4080(4) 0.2713(5)
C2 C 0.7233(12) -0.0816(7) -0.1437(8)
O33 O 1.0021(10) -0.3630(6) 0.0735(7)
O34 O 0.6346(8) -0.3348(4) 0.1658(4)
O35 O 0.8068(8) -0.4098(4) 0.1860(5)
O36 O 0.8274(9) -0.4802(4) 0.2945(5)
O37 O 0.7233(11) -0.1166(5) -0.1017(6)
O38 O 0.8441(9) -0.2965(4) 0.3880(5)
O39 O 0.5297(10) -0.1772(5) 0.0336(5)
O40 O 0.4704(9) -0.4357(4) 0.2846(5)
O41 O 1.0271(9) -0.5069(5) 0.2686(6)
O42 O 0.4295(11) -0.3982(5) 0.0377(6)
O43 O 0.7711(11) -0.1274(5) 0.0633(6)
C3 C 0.6982(17) -0.1180(7) 0.2798(10)
H2 H 0.66950 -0.11940 0.31840
C4 C 0.7828(11) -0.1193(6) 0.1732(7)
C5 C 0.7245(13) -0.1010(7) -0.2071(7)
N1 N 0.8025(13) -0.1131(6) 0.2829(8)
C6 C 0.7140(12) -0.1540(7) -0.2232(8)
H3 H 0.70500 -0.17970 -0.19140
C7 C 0.7341(14) -0.0654(7) -0.2563(8)
H4 H 0.73960 -0.02810 -0.24720
C8 C 0.8303(16) -0.1186(7) 0.1146(9)
C9 C 0.6780(13) -0.1235(7) 0.1691(8)
H5 H 0.63600 -0.12830 0.12910
O44 O 0.5179(9) -0.1436(4) -0.0894(4)
N2 N 0.7365(11) -0.0815(6) -0.3144(6)
C10 C 0.7273(16) -0.1316(8) -0.3300(9)
H6 H 0.72910 -0.14180 -0.37280
N3 N 0.9214(19) -0.1147(7) 0.3939(8)
H7 H 0.92050 -0.15240 0.38660
H8 H 0.99140 -0.10350 0.40910
H9 H 0.89700 -0.09650 0.35550
H10 H 0.87660 -0.10640 0.42450
C11 C 0.6311(15) -0.1210(7) 0.2249(8)
O45 O 0.6524(19) 0.4946(11) 0.5192(9)
O46 O 1.1322(18) 0.3975(10) 0.4748(12)
O47 O 0.481(2) 0.4145(11) 0.4905(10)
O48 O 0.5155(19) 0.2678(11) 0.4322(10)
O49 O 1.244(3) 0.2135(12) 0.4757(10)
O50 O 0.4574(11) -0.5257(5) 0.2078(6)
N4 N 0.9307(14) -0.2100(6) 0.4589(8)
H11 H 0.92750 -0.24190 0.43420
H12 H 0.99470 -0.20950 0.48750
H13 H 0.92810 -0.17950 0.43190
H14 H 0.87250 -0.20910 0.48200
N5 N 1.0878(13) -0.0348(7) 0.1451(7)
H15 H 1.07050 -0.06690 0.16560
H16 H 1.15770 -0.03740 0.13520
H17 H 1.03980 -0.03000 0.10730
H18 H 1.08300 -0.00500 0.17240
N6 N 0.5416(16) 0.0058(7) -0.0842(7)
H19 H 0.56850 -0.01990 -0.05320
H20 H 0.58160 0.00460 -0.11850
H21 H 0.46980 -0.00210 -0.09930
H22 H 0.54660 0.04080 -0.06600
Dy2? Dy 0.32035(13) -0.16165(7) 0.24574(10)
Dy3 Dy 0.30196(15) -0.16299(7) 0.19856(11)
O51 O 0.8434(10) -0.1946(6) -0.0368(6)
O52 O 0.9297(10) -0.1126(6) 0.1192(6)
O53 O 0.7304(15) -0.0332(6) -0.1330(6)
O54 O 0.4590(13) -0.1288(6) 0.1709(10)
O55 O 0.4821(15) -0.1341(6) 0.2732(10)
C12 C 0.7162(15) -0.1715(8) -0.285(1)
O56 O 0.902(3) -0.4835(16) -0.0233(14)
C13 C 0.520(2) -0.1255(8) 0.2203(16)
O57 O 1.072(3) -0.0338(19) 0.4485(13)
O58 O 0.862(3) 0.1906(19) 0.0092(12)
O59 O 0.2263(13) -0.2378(6) 0.2429(10)
O60 O 0.2832(12) -0.0699(6) 0.2042(12)
O61 O 0.6939(15) -0.2409(7) -0.3574(9)
C14 C 0.7130(18) -0.2286(11) -0.3012(17)
O62 O 0.140(2) -0.1442(10) 0.2528(13)
O63? O 0.247(2) -0.1625(11) 0.1331(14)
O64 O 0.301(3) -0.1159(14) 0.329(3)
O65 O 0.375(3) -0.2251(11) 0.3342(12)
W10C W 0.41590(5) -0.14721(3) -0.15175(3)
O44C O 1.0179(9) -0.3564(4) 0.4106(4)
O59C O 0.7263(13) -0.2622(6) -0.2571(10)
C14C C 0.2130(18) -0.2714(11) 0.1988(17)
#END
