
#######################################################################
#
#                 Cambridge Crystallographic Data Centre
#                                CCDC
#
#######################################################################
#
# If this CIF has been generated from an entry in the Cambridge
# Structural Database, then it will include bibliographic, chemical,
# crystal, experimental, refinement or atomic coordinate data resulting
# from the CCDC's data processing and validation procedures.
#
#######################################################################

data_CSD_CIF_ORISEQ
_audit_creation_date 2021-04-18
_audit_creation_method CSD-ConQuest-V1
_database_code_CSD ORISEQ
_database_code_depnum_ccdc_archive 'CCDC 2023544'
_chemical_formula_sum 'C36 H40 Cu5 Ge1 N30 O52 W12'
_chemical_formula_moiety
;
(C36 H28 Cu5 N30 O2 4+)n,Ge1 O44 W12 4-,6(H2 O1)
;
_journal_coden_Cambridge 1048
_journal_volume 23
_journal_year 2021
_journal_page_first 3104
_journal_name_full 'Green Chemistry '
loop_
_publ_author_name
"Qingbo Shen"
"C.J.Gomez-Garcia"
"Wenlong Sun"
"Xiaoyong Lai"
"Haijun Pang"
"Huiyuan Ma"
_chemical_name_systematic
;
catena-[hexakis(\m-5-(pyridin-2-yl)-tetrazolato)-diaqua-penta-copper(ii) 
dotriacontakis(\m-oxo)-dodecaoxo-germanium-dodeca-tungsten hexahydrate]
;
_cell_volume   1931.295
_exptl_crystal_colour 'blue'
_exptl_crystal_description 'block'
_diffrn_ambient_temperature 296
#These two values have been output from a single CSD field.
_refine_ls_R_factor_gt 0.0934
_refine_ls_wR_factor_gt 0.0934
_symmetry_cell_setting triclinic
_symmetry_space_group_name_H-M 'P -1'
_symmetry_Int_Tables_number 2
loop_
_symmetry_equiv_pos_site_id
_symmetry_equiv_pos_as_xyz
1 x,y,z
2 -x,-y,-z
_cell_length_a 12.203(5)
_cell_length_b 13.495(5)
_cell_length_c 14.262(5)
_cell_angle_alpha 104.873(5)
_cell_angle_beta 111.480(5)
_cell_angle_gamma 105.681(5)
_cell_formula_units_Z 1
loop_
_atom_type_symbol
_atom_type_radius_bond
C 0.68
H 0.23
Cu 1.32
Ge 1.17
N 0.68
O 0.68
W 1.62
loop_
_atom_site_label
_atom_site_type_symbol
_atom_site_fract_x
_atom_site_fract_y
_atom_site_fract_z
Cu1 Cu 0.4670(3) -1.9517(3) -1.6269(3)
Cu2 Cu 0.6501(3) -1.4437(3) -1.5311(3)
Cu3 Cu 1.00000 -1.00000 -1.50000
N1 N 0.864(3) -1.226(2) -1.477(2)
N2 N 0.758(3) -1.309(2) -1.541(2)
N3 N 0.703(3) -1.299(2) -1.642(2)
N4 N 0.862(2) -1.0403(19) -1.6523(19)
N5 N 0.736(2) -1.540(2) -1.579(2)
N6 N 0.5530(17) -1.5875(15) -1.5289(14)
N7 N 0.450(2) -1.6356(18) -1.5140(17)
N8 N 0.520(2) -1.7627(18) -1.5552(19)
N9 N 0.297(2) -1.9549(19) -1.7240(18)
N10 N 0.366(2) -2.0102(18) -1.5576(18)
N11 N 0.377(2) -2.0407(17) -1.4734(18)
N12 N 0.265(3) -2.062(2) -1.468(2)
N13 N 0.183(2) -2.0458(19) -1.545(2)
N14 N 0.433(2) -1.7398(17) -1.5274(16)
N15 N 0.884(2) -1.1536(19) -1.526(2)
C1 C 0.854(3) -0.970(3) -1.706(3)
H1 H 0.91710 -0.89740 -1.67320
C2 C 0.753(3) -1.008(3) -1.811(3)
H2 H 0.74960 -0.96240 -1.84960
C3 C 0.658(3) -1.112(3) -1.855(3)
H3 H 0.58830 -1.13460 -1.92310
C4 C 0.661(3) -1.188(3) -1.803(3)
H4 H 0.59930 -1.26140 -1.83470
C5 C 0.828(3) -1.511(3) -1.609(3)
H5 H 0.85310 -1.44090 -1.61270
C6 C 0.888(3) -1.580(3) -1.636(3)
H6 H 0.95310 -1.55650 -1.65480
C7 C 0.847(3) -1.684(3) -1.634(3)
H7 H 0.88120 -1.73360 -1.65620
C8 C 0.756(3) -1.717(3) -1.600(3)
H8 H 0.73220 -1.78480 -1.59280
C9 C 0.701(3) -1.641(3) -1.577(3)
C10 C 0.085(3) -1.997(3) -1.754(3)
H9 H 0.01860 -2.02900 -1.73890
C11 C 0.064(3) -1.952(3) -1.836(3)
H10 H -0.01490 -1.95020 -1.87360
C12 C 0.159(3) -1.914(3) -1.861(3)
H11 H 0.14540 -1.88420 -1.91350
C13 C 0.274(3) -1.919(3) -1.810(3)
H12 H 0.33690 -1.89800 -1.83150
C14 C 0.242(3) -2.021(2) -1.603(2)
C15 C 0.596(3) -1.666(2) -1.555(2)
C16 C 0.205(3) -1.988(3) -1.698(3)
C17 C 0.767(3) -1.143(3) -1.700(3)
C18 C 0.779(3) -1.205(3) -1.630(3)
O1 O 0.5133(18) -1.9878(19) -1.7508(18)
Ge1 Ge 1.00000 -1.50000 -1.00000
W1 W 1.30216(11) -1.30255(9) -0.77704(10)
W2 W 1.15573(11) -1.24231(9) -1.00888(9)
W3 W 0.85260(14) -1.43786(12) -1.2299(1)
W4 W 1.28241(12) -1.44958(12) -1.03245(11)
W5 W 1.02090(17) -1.3543(1) -0.74490(11)
W6 W 0.87560(15) -1.29258(11) -0.97308(11)
O2 O 1.257(3) -1.216(2) -0.860(2)
O3 O 1.349(3) -1.376(2) -0.881(2)
O4 O 1.191(3) -1.275(2) -0.721(2)
O5 O 1.419(3) -1.419(2) -1.044(2)
O6 O 0.971(3) -1.268(2) -0.827(2)
O7 O 0.914(5) -1.441(5) -0.943(4)
O8 O 0.816(2) -1.194(2) -0.964(2)
O9 O 0.809(3) -1.360(2) -1.129(2)
O10 O 1.228(3) -1.123(2) -1.016(2)
O11 O 1.139(5) -1.402(5) -0.965(5)
O12 O 1.024(2) -1.2908(19) -0.625(2)
O13 O 1.446(3) -1.208(2) -0.676(2)
O14 O 0.783(2) -1.408(2) -1.339(2)
O15 O 0.917(3) -1.534(2) -1.290(2)
O16 O 1.242(3) -1.325(2) -1.052(2)
O17 O 1.154(3) -1.535(2) -1.178(2)
O18 O 1.249(3) -1.581(2) -1.006(2)
O19 O 1.288(3) -1.427(2) -0.734(2)
O20 O 1.019(3) -1.325(2) -1.154(2)
O21 O 1.037(3) -1.213(2) -0.965(2)
O22 O 0.896(5) -1.561(5) -1.146(4)
O23 O 0.990(5) -1.390(5) -1.040(4)
O24 O 0.499(2) -1.514(2) -1.730(2)
O25 O 0.463(4) -1.102(4) -2.111(3)
O26 O 0.464(5) -1.725(5) -1.863(4)
Cu1A Cu 0.5330(3) -2.0483(3) -1.3731(3)
Cu2A Cu 0.3499(3) -2.5563(3) -1.4689(3)
N1A N 0.136(3) -2.774(2) -1.523(2)
N2A N 0.242(3) -2.691(2) -1.459(2)
N3A N 0.297(3) -2.701(2) -1.358(2)
N4A N 0.138(2) -2.9597(19) -1.3477(19)
N5A N 0.264(2) -2.460(2) -1.421(2)
N6A N 0.4470(17) -2.4125(15) -1.4711(14)
N7A N 0.550(2) -2.3644(18) -1.4860(17)
N8A N 0.480(2) -2.2373(18) -1.4448(19)
N9A N 0.703(2) -2.0451(19) -1.2760(18)
N10A N 0.634(2) -1.9898(18) -1.4424(18)
N11A N 0.623(2) -1.9593(17) -1.5266(18)
N12A N 0.735(3) -1.938(2) -1.532(2)
N13A N 0.817(2) -1.9542(19) -1.455(2)
N14A N 0.567(2) -2.2602(17) -1.4726(16)
N15A N 0.116(2) -2.8464(19) -1.474(2)
C1A C 0.146(3) -3.030(3) -1.294(3)
H1A H 0.08290 -3.10260 -1.32680
C2A C 0.247(3) -2.992(3) -1.189(3)
H2A H 0.25040 -3.03760 -1.15040
C3A C 0.342(3) -2.888(3) -1.145(3)
H3A H 0.41170 -2.86540 -1.07690
C4A C 0.339(3) -2.812(3) -1.197(3)
H4A H 0.40070 -2.73860 -1.16530
C5A C 0.172(3) -2.489(3) -1.391(3)
H5A H 0.14690 -2.55910 -1.38730
C6A C 0.112(3) -2.420(3) -1.364(3)
H6A H 0.04690 -2.44350 -1.34520
C7A C 0.153(3) -2.316(3) -1.366(3)
H7A H 0.11880 -2.26640 -1.34380
C8A C 0.244(3) -2.283(3) -1.400(3)
H8A H 0.26780 -2.21520 -1.40720
C9A C 0.299(3) -2.359(3) -1.423(3)
C10A C 0.915(3) -2.003(3) -1.246(3)
H9A H 0.98140 -1.97100 -1.26110
C11A C 0.936(3) -2.048(3) -1.164(3)
H10A H 1.01490 -2.04980 -1.12640
C12A C 0.841(3) -2.086(3) -1.139(3)
H11A H 0.85460 -2.11580 -1.08650
C13A C 0.726(3) -2.081(3) -1.190(3)
H12A H 0.66310 -2.10200 -1.16850
C14A C 0.758(3) -1.979(2) -1.397(2)
C15A C 0.404(3) -2.334(2) -1.445(2)
C16A C 0.795(3) -2.012(3) -1.302(3)
C17A C 0.233(3) -2.857(3) -1.300(3)
C18A C 0.221(3) -2.795(3) -1.370(3)
O1A O 0.4867(18) -2.0122(19) -1.2492(18)
Cu2* Cu 0.6501(3) -2.4437(3) -1.5311(3)
Cu2A* Cu 0.3499(3) -1.5563(3) -1.4689(3)
Cu3* Cu 0.00000 -3.00000 -1.50000
Cu3** Cu 0.00000 -2.00000 -1.50000
Cu3*** Cu 1.00000 -2.00000 -1.50000
N4A* N 1.138(2) -0.9597(19) -1.3477(19)
N7* N 0.450(2) -2.6356(18) -1.5140(17)
N7A* N 0.550(2) -1.3644(18) -1.4860(17)
N13* N 1.183(2) -1.0458(19) -1.545(2)
N13A* N 0.817(2) -0.9542(19) -1.455(2)
N15A* N 1.116(2) -0.8464(19) -1.474(2)
W1A W 0.69784(11) -1.69745(9) -1.22296(10)
W2A W 0.84427(11) -1.75769(9) -0.99112(9)
W3A W 1.14740(14) -1.56214(12) -0.7701(1)
W4A W 0.71759(12) -1.55042(12) -0.96755(11)
W5A W 0.97910(17) -1.6457(1) -1.25510(11)
W6A W 1.12440(15) -1.70742(11) -1.02692(11)
O2A O 0.743(3) -1.784(2) -1.140(2)
O3A O 0.651(3) -1.624(2) -1.119(2)
O4A O 0.809(3) -1.725(2) -1.279(2)
O5A O 0.581(3) -1.581(2) -0.956(2)
O6A O 1.029(3) -1.732(2) -1.173(2)
O7A O 1.086(5) -1.559(5) -1.057(4)
O8A O 1.184(2) -1.806(2) -1.036(2)
O9A O 1.191(3) -1.640(2) -0.871(2)
O10A O 0.772(3) -1.877(2) -0.984(2)
O11A O 0.861(5) -1.598(5) -1.035(5)
O12A O 0.976(2) -1.7092(19) -1.375(2)
O13A O 0.554(3) -1.792(2) -1.324(2)
O14A O 1.217(2) -1.592(2) -0.661(2)
O15A O 1.083(3) -1.466(2) -0.710(2)
O16A O 0.758(3) -1.675(2) -0.948(2)
O17A O 0.846(3) -1.465(2) -0.822(2)
O18A O 0.751(3) -1.419(2) -0.994(2)
O19A O 0.712(3) -1.573(2) -1.266(2)
O20A O 0.981(3) -1.675(2) -0.846(2)
O21A O 0.963(3) -1.787(2) -1.035(2)
O22A O 1.104(5) -1.439(5) -0.854(4)
O23A O 1.010(5) -1.610(5) -0.960(4)
#END
