
#######################################################################
#
#                 Cambridge Crystallographic Data Centre
#                                CCDC
#
#######################################################################
#
# If this CIF has been generated from an entry in the Cambridge
# Structural Database, then it will include bibliographic, chemical,
# crystal, experimental, refinement or atomic coordinate data resulting
# from the CCDC's data processing and validation procedures.
#
#######################################################################

data_CSD_CIF_OROFOS
_audit_creation_date 2016-07-19
_audit_creation_method CSD-ConQuest-V1
_database_code_CSD OROFOS
_database_code_depnum_ccdc_archive 'CCDC 1474452'
_chemical_formula_sum 'C28 H52 N2 O28 Zn3'
_chemical_formula_moiety
;
(C24 H20 N2 O14 Zn2 2-)n,n(H12 O6 Zn1 2+),n(C4 H8 O2),6n(H2 O1)
;
_journal_coden_Cambridge 222
_journal_volume 45
_journal_year 2016
_journal_page_first 12458
_journal_name_full 'Dalton Trans. '
loop_
_publ_author_name
"M.Brady"
"S.D.Piombo"
"Chunhua Hu"
"D.Buccella"
_chemical_name_systematic
;
catena-(hexa-aqua-zinc 
bis(\m-2,2'-((2-(carboxylatomethoxy)phenyl)imino)diacetato)-di-zinc 
1,4-dioxane solvate hexahydrate)
;
_cell_volume   4192.815
_exptl_crystal_colour 'colorless'
_exptl_crystal_density_diffrn 1.681
_exptl_crystal_description 'plate'
_diffrn_ambient_temperature 100
_refine_special_details
;
C25,C26,C27,C28,O27,O28 and C25',C26',C27',C28',O27',O28' disordered over two 
sites with occupancies 0.564:0.436.
;
#These two values have been output from a single CSD field.
_refine_ls_R_factor_gt 0.0428
_refine_ls_wR_factor_gt 0.0428
_symmetry_cell_setting monoclinic
_symmetry_space_group_name_H-M 'P 21/n'
_symmetry_Int_Tables_number 14
loop_
_symmetry_equiv_pos_site_id
_symmetry_equiv_pos_as_xyz
1 x,y,z
2 1/2-x,1/2+y,1/2-z
3 -x,-y,-z
4 -1/2+x,-1/2-y,-1/2+z
_cell_length_a 9.2960(3)
_cell_length_b 18.4231(7)
_cell_length_c 24.4820(9)
_cell_angle_alpha 90
_cell_angle_beta 90.0021(6)
_cell_angle_gamma 90
_cell_formula_units_Z 4
loop_
_atom_type_symbol
_atom_type_radius_bond
C 0.68
H 0.23
N 0.68
O 0.68
Zn 1.22
loop_
_atom_site_label
_atom_site_type_symbol
_atom_site_fract_x
_atom_site_fract_y
_atom_site_fract_z
Zn1 Zn 0.85841(9) 0.20081(4) 0.48608(2)
Zn2 Zn 0.35822(9) 0.29882(4) 0.51766(2)
O1 O 0.9848(5) 0.1057(2) 0.46086(16)
O2 O 1.0715(5) 0.2260(2) 0.49685(16)
O3 O 1.3057(6) 0.1974(3) 0.48925(17)
O4 O 0.8020(5) 0.1561(2) 0.55942(14)
O5 O 0.6387(6) 0.0900(2) 0.60376(15)
O6 O 0.8302(5) 0.2280(2) 0.40476(15)
O7 O 0.6525(6) 0.2385(2) 0.34197(15)
O8 O 0.4813(5) 0.3951(2) 0.54092(16)
O9 O 0.5728(5) 0.2729(2) 0.50584(17)
O10 O 0.8028(5) 0.3021(2) 0.51264(16)
O11 O 0.3257(6) 0.2724(2) 0.59828(15)
O12 O 0.1570(6) 0.2618(2) 0.66056(15)
O13 O 0.3009(5) 0.3428(2) 0.44334(14)
O14 O 0.1366(7) 0.4095(2) 0.39948(16)
N1 N 0.6946(6) 0.1184(3) 0.45933(18)
N2 N 0.1928(6) 0.3818(3) 0.54444(17)
C1 C 0.9127(7) 0.0475(3) 0.4397(2)
C2 C 0.7632(7) 0.0523(3) 0.4380(2)
C3 C 0.6821(8) -0.0068(4) 0.4187(2)
H1 H 0.58000 -0.00410 0.41830
C4 C 0.7502(9) -0.0683(4) 0.4004(3)
H2 H 0.69500 -0.10830 0.38780
C5 C 0.8971(9) -0.0720(3) 0.4001(3)
H3 H 0.94350 -0.11420 0.38640
C6 C 0.9813(8) -0.0132(3) 0.4204(2)
H4 H 1.08340 -0.01600 0.42040
C7 C 1.1384(8) 0.1095(3) 0.4608(2)
H5 H 1.17700 0.10470 0.42330
H6 H 1.18050 0.07100 0.48400
C8 C 1.1698(7) 0.1845(3) 0.4841(2)
C9 C 0.6909(7) 0.1167(3) 0.5615(2)
C10 C 0.6096(7) 0.1031(3) 0.5087(2)
H7 H 0.57840 0.05170 0.50790
H8 H 0.52220 0.13380 0.50830
C11 C 0.7034(7) 0.2106(3) 0.3850(2)
C12 C 0.6120(7) 0.1567(3) 0.4151(2)
H9 H 0.57450 0.12030 0.38890
H10 H 0.52870 0.18210 0.43150
C13 C 0.4138(7) 0.4545(3) 0.5617(2)
C14 C 0.4820(8) 0.5190(3) 0.5787(2)
H11 H 0.58380 0.52300 0.57720
C15 C 0.4020(7) 0.5752(4) 0.5972(3)
H12 H 0.44830 0.61850 0.60870
C16 C 0.2508(8) 0.5703(3) 0.5995(2)
H13 H 0.19510 0.60990 0.61250
C17 C 0.1839(7) 0.5063(3) 0.5822(2)
H14 H 0.08210 0.50280 0.58400
C18 C 0.2623(7) 0.4477(3) 0.5627(2)
C19 C 0.6345(8) 0.3900(3) 0.5410(2)
H15 H 0.67200 0.39480 0.57870
H16 H 0.67690 0.42900 0.51840
C20 C 0.6733(8) 0.3158(3) 0.5176(2)
C21 C 0.1151(8) 0.3445(3) 0.5886(2)
H17 H 0.02980 0.31990 0.57300
H18 H 0.08060 0.38110 0.61520
C22 C 0.2082(7) 0.2879(3) 0.6188(2)
C23 C 0.1056(7) 0.3967(3) 0.49470(19)
H19 H 0.07380 0.44800 0.49540
H20 H 0.01860 0.36580 0.49540
C24 C 0.1870(7) 0.3828(3) 0.4420(2)
Zn3 Zn 0.01019(4) 0.30413(2) 0.25178(4)
O15 O 0.2319(3) 0.31974(14) 0.2515(3)
H21 H 0.287(5) 0.316(3) 0.2785(15)
H22 H 0.254(5) 0.2858(14) 0.2297(13)
O16 O 0.0313(3) 0.19103(12) 0.25018(19)
H23 H -0.046(3) 0.168(2) 0.2439(19)
H24 H 0.051(5) 0.182(3) 0.2831(8)
O17 O -0.2134(2) 0.29671(12) 0.2510(2)
H25 H -0.244(6) 0.267(2) 0.2736(13)
H26 H -0.261(5) 0.294(2) 0.2224(13)
O18 O -0.0144(3) 0.41523(15) 0.2521(2)
H27 H -0.09710 0.43270 0.24930
H28 H 0.03350 0.44410 0.27280
O19 O 0.0143(7) 0.3017(3) 0.16705(16)
H29 H 0.057(6) 0.335(2) 0.1507(19)
H30 H -0.037(7) 0.280(3) 0.1439(18)
O20 O 0.0180(6) 0.2998(3) 0.33623(16)
H31 H 0.012(6) 0.3439(8) 0.343(2)
H32 H -0.043(6) 0.276(3) 0.354(2)
O21 O 0.3658(7) 0.2678(3) 0.34406(19)
H33 H 0.452(3) 0.254(4) 0.345(3)
H34 H 0.355(7) 0.294(3) 0.3721(16)
O22 O 0.3665(6) 0.2699(3) 0.15885(16)
H35 H 0.4563(13) 0.268(4) 0.157(2)
H36 H 0.335(5) 0.2817(16) 0.1281(11)
O23 O 0.2051(9) 0.1391(3) 0.3315(2)
H37 H 0.266(5) 0.169(3) 0.343(3)
H38 H 0.251(6) 0.1043(15) 0.318(3)
O24 O 0.2160(9) 0.1402(3) 0.17061(19)
H39 H 0.27300 0.17040 0.15640
H40 H 0.17170 0.16290 0.19500
O25 O 0.2086(13) 0.4998(3) 0.3107(2)
H41 H 0.18200 0.47520 0.33810
H42 H 0.20790 0.54370 0.32000
O26 O 0.2039(12) 0.5012(3) 0.1924(2)
H43 H 0.16760 0.46420 0.17550
H44 H 0.21790 0.49230 0.22610
O27 O 0.6837(11) 0.6096(4) 0.2851(3)
O28 O 0.7560(12) 0.4854(4) 0.2206(3)
C25 C 0.6186(13) 0.5388(5) 0.2935(4)
H45 H 0.52090 0.54520 0.30880
H46 H 0.67640 0.51120 0.32030
C26 C 0.6093(14) 0.4974(5) 0.2422(4)
H47 H 0.55130 0.52460 0.21520
H48 H 0.56180 0.45010 0.24900
C27 C 0.8120(13) 0.5542(5) 0.2089(4)
H49 H 0.74800 0.57950 0.18280
H50 H 0.90780 0.54900 0.19170
C28 C 0.8259(16) 0.6002(6) 0.2621(4)
H51 H 0.88900 0.57500 0.28860
H52 H 0.86870 0.64810 0.25360
O29? O 0.6890(16) 0.6073(7) 0.2153(5)
O30? O 0.7476(14) 0.4880(7) 0.2787(5)
C29? C 0.825(3) 0.5984(13) 0.2412(10)
H53? H 0.89040 0.57340 0.21560
H54? H 0.86550 0.64700 0.24870
C30? C 0.820(2) 0.5601(11) 0.2892(7)
H55? H 0.76650 0.58770 0.31720
H56? H 0.91940 0.55200 0.30290
C31? C 0.613(3) 0.4909(12) 0.2572(9)
H57? H 0.54410 0.51060 0.28430
H58? H 0.58030 0.44180 0.24630
C32? C 0.622(3) 0.5455(11) 0.2025(7)
H59? H 0.67470 0.52060 0.17270
H60? H 0.52360 0.55640 0.18930
Zn2* Zn 1.35822(9) 0.29882(4) 0.51766(2)
O3* O 0.3057(6) 0.1974(3) 0.48925(17)
#END
