
#######################################################################
#
#                 Cambridge Crystallographic Data Centre
#                                CCDC
#
#######################################################################
#
# If this CIF has been generated from an entry in the Cambridge
# Structural Database, then it will include bibliographic, chemical,
# crystal, experimental, refinement or atomic coordinate data resulting
# from the CCDC's data processing and validation procedures.
#
#######################################################################

data_CSD_CIF_ORUKET
_audit_creation_date 2016-07-20
_audit_creation_method CSD-ConQuest-V1
_database_code_CSD ORUKET
_database_code_depnum_ccdc_archive 'CCDC 1478340'
_chemical_formula_sum 'C100 H119 Mg3 N13 O44 P6'
_chemical_formula_moiety
;
(C84 H60 Mg3 N6 O42 P6 6-)n,6n(C2 H8 N1 1+),n(C4 H9 N1 O1),n(H2 O1)
;
_journal_coden_Cambridge 208
_journal_volume 242
_journal_year 2016
_journal_page_first 47
_journal_name_full 'J.Solid State Chem. '
loop_
_publ_author_name
"Yajing Ling"
"Dongjie Bai"
"Yunlong Feng"
"Yabing He"
_chemical_name_systematic
;
catena-(hexakis(dimethylammonium) 
bis(\m-2,2,4,4,6,6-hexakis(4-carboxylatophenoxy)-1,3,5,2\l^5^,4\l^5^,6\l^5^-tr
iazatriphosphinine)-hexa-aqua-tri-magnesium dimethylacetamide solvate 
monohydrate)
;
_cell_volume   8625.153
_exptl_crystal_colour 'colorless'
_exptl_crystal_density_diffrn 0.802
_exptl_crystal_description 'platelike'
_diffrn_ambient_temperature 293
_refine_special_details
;
The SQUEEZE/PLATON program was used to model the disordered cations and 
solvent molecules.
;
#These two values have been output from a single CSD field.
_refine_ls_R_factor_gt 0.1047
_refine_ls_wR_factor_gt 0.1047
_symmetry_cell_setting hexagonal
_symmetry_space_group_name_H-M 'P 63/m'
_symmetry_Int_Tables_number 176
loop_
_symmetry_equiv_pos_site_id
_symmetry_equiv_pos_as_xyz
1 x,y,z
2 x-y,x,1/2+z
3 -y,x-y,z
4 -x,-y,1/2+z
5 -x+y,-x,z
6 y,-x+y,1/2+z
7 -x,-y,-z
8 -x+y,-x,-1/2-z
9 y,-x+y,-z
10 x,y,-1/2-z
11 x-y,x,-z
12 -y,x-y,-1/2-z
_cell_length_a 18.5710(13)
_cell_length_b 18.5710(13)
_cell_length_c 28.8779(15)
_cell_angle_alpha 90
_cell_angle_beta 90
_cell_angle_gamma 120
_cell_formula_units_Z 2
loop_
_atom_type_symbol
_atom_type_radius_bond
C 0.68
H 0.23
Mg 1.41
N 0.68
O 0.68
P 1.05
loop_
_atom_site_label
_atom_site_type_symbol
_atom_site_fract_x
_atom_site_fract_y
_atom_site_fract_z
Mg1 Mg 0.46969(14) 0.27738(14) 0.25000
P1 P 0.62764(8) 0.23559(8) -0.03822(4)
O1 O 0.5946(2) 0.1573(2) -0.00479(11)
O2 O 0.6184(2) 0.1928(2) -0.08676(12)
O3 O 0.3774(2) 0.1278(3) 0.17005(14)
O4 O 0.5012(2) 0.2192(2) 0.19891(12)
O5 O 0.2689(4) -0.0387(5) -0.1842(3)
O6 O 0.3369(2) -0.1052(2) -0.19920(14)
O7 O 0.3398(3) 0.1810(3) 0.25000
H1 H 0.32080 0.16930 0.27740
O8 O 0.5905(3) 0.3710(3) 0.25000
H2 H 0.60200 0.39520 0.27620
N1 N 0.5700(3) 0.2753(3) -0.03279(14)
C1 C 0.4549(3) 0.1701(3) 0.16716(18)
C2 C 0.4938(3) 0.1658(3) 0.12324(15)
C3 C 0.4427(3) 0.1218(3) 0.08532(17)
H3 H 0.38530 0.09400 0.08900
C4 C 0.4751(3) 0.1188(3) 0.04338(17)
H4 H 0.44020 0.09070 0.01860
C5 C 0.5618(3) 0.1587(3) 0.03816(16)
C6 C 0.6139(3) 0.2007(3) 0.07542(18)
H5 H 0.67130 0.22560 0.07200
C7 C 0.5807(3) 0.2055(3) 0.11760(17)
H6 H 0.61580 0.23480 0.14210
C8 C 0.3292(4) -0.0508(4) -0.1802(2)
C9 C 0.4039(4) 0.0154(4) -0.1530(2)
C10 C 0.4113(5) 0.0895(6) -0.1401(4)
H7 H 0.36840 0.10010 -0.14690
C11 C 0.4821(6) 0.1502(5) -0.1168(3)
H8 H 0.48750 0.20100 -0.10840
C12 C 0.5422(3) 0.1316(3) -0.10719(17)
C13 C 0.5367(4) 0.0590(4) -0.1181(2)
H9 H 0.57860 0.04790 -0.11010
C14 C 0.4662(4) 0.0007(3) -0.1419(2)
H10 H 0.46180 -0.04970 -0.15040
P1B P 0.76441(8) 0.39205(8) -0.03822(4)
O1B O 0.8427(2) 0.4373(2) -0.00479(11)
O2B O 0.8072(2) 0.4256(2) -0.08676(12)
O3B O 0.8722(2) 0.2496(3) 0.17005(14)
O4B O 0.7808(2) 0.2820(2) 0.19891(12)
O5B O 1.0387(4) 0.3076(5) -0.1842(3)
O6B O 1.1052(2) 0.4421(2) -0.19920(14)
N1B N 0.7247(3) 0.2947(3) -0.03279(14)
C1B C 0.8299(3) 0.2848(3) 0.16716(18)
C2B C 0.8342(3) 0.3280(3) 0.12324(15)
C3B C 0.8782(3) 0.3209(3) 0.08532(17)
H3B H 0.90600 0.29130 0.08900
C4B C 0.8812(3) 0.3563(3) 0.04338(17)
H4B H 0.90930 0.34950 0.01860
C5B C 0.8413(3) 0.4031(3) 0.03816(16)
C6B C 0.7993(3) 0.4132(3) 0.07542(18)
H5B H 0.77440 0.44570 0.07200
C7B C 0.7945(3) 0.3752(3) 0.11760(17)
H6B H 0.76520 0.38100 0.14210
C8B C 1.0508(4) 0.3800(4) -0.1802(2)
C9B C 0.9846(4) 0.3885(4) -0.1530(2)
C10B C 0.9105(5) 0.3218(6) -0.1401(4)
H7B H 0.89990 0.26830 -0.14690
C11B C 0.8498(6) 0.3319(5) -0.1168(3)
H8B H 0.79900 0.28650 -0.10840
C12B C 0.8684(3) 0.4106(3) -0.10719(17)
C13B C 0.9410(4) 0.4777(4) -0.1181(2)
H9B H 0.95210 0.53070 -0.11010
C14B C 0.9993(4) 0.4655(3) -0.1419(2)
H10B H 1.04970 0.51150 -0.15040
P1D P 0.60795(8) 0.37236(8) -0.03822(4)
O1D O 0.5627(2) 0.4054(2) -0.00479(11)
O2D O 0.5744(2) 0.3816(2) -0.08676(12)
O3D O 0.7504(2) 0.6226(3) 0.17005(14)
O4D O 0.7180(2) 0.4988(2) 0.19891(12)
O5D O 0.6924(4) 0.7311(5) -0.1842(3)
O6D O 0.5579(2) 0.6631(2) -0.19920(14)
N1D N 0.7053(3) 0.4300(3) -0.03279(14)
C1D C 0.7152(3) 0.5451(3) 0.16716(18)
C2D C 0.6720(3) 0.5062(3) 0.12324(15)
C3D C 0.6791(3) 0.5573(3) 0.08532(17)
H3D H 0.70870 0.61470 0.08900
C4D C 0.6437(3) 0.5249(3) 0.04338(17)
H4D H 0.65050 0.55980 0.01860
C5D C 0.5969(3) 0.4382(3) 0.03816(16)
C6D C 0.5868(3) 0.3861(3) 0.07542(18)
H5D H 0.55430 0.32870 0.07200
C7D C 0.6248(3) 0.4193(3) 0.11760(17)
H6D H 0.61900 0.38420 0.14210
C8D C 0.6200(4) 0.6708(4) -0.1802(2)
C9D C 0.6115(4) 0.5961(4) -0.1530(2)
C10D C 0.6782(5) 0.5887(6) -0.1401(4)
H7D H 0.73170 0.63160 -0.14690
C11D C 0.6681(6) 0.5179(5) -0.1168(3)
H8D H 0.71350 0.51250 -0.10840
C12D C 0.5894(3) 0.4578(3) -0.10719(17)
C13D C 0.5223(4) 0.4633(4) -0.1181(2)
H9D H 0.46930 0.42140 -0.11010
C14D C 0.5345(4) 0.5338(3) -0.1419(2)
H10D H 0.48850 0.53820 -0.15040
H1I H 0.32080 0.16930 0.22260
H2I H 0.60200 0.39520 0.22380
Mg1B Mg 0.72262(14) 0.19231(14) 0.25000
O7B O 0.8190(3) 0.1588(3) 0.25000
H1B H 0.83070 0.15150 0.27740
O8B O 0.6290(3) 0.2195(3) 0.25000
H2B H 0.60480 0.20680 0.27620
H1K H 0.83070 0.15150 0.22260
H2K H 0.60480 0.20680 0.22380
Mg1D Mg 0.80769(14) 0.53031(14) 0.25000
O7D O 0.8412(3) 0.6602(3) 0.25000
H1D H 0.84850 0.67920 0.27740
O8D O 0.7805(3) 0.4095(3) 0.25000
H2D H 0.79320 0.39800 0.27620
H1G H 0.84850 0.67920 0.22260
H2G H 0.79320 0.39800 0.22380
P1F P 0.37236(8) -0.23559(8) 0.03822(4)
O1F O 0.4054(2) -0.1573(2) 0.00479(11)
O2F O 0.3816(2) -0.1928(2) 0.08676(12)
O3F O 0.6226(2) -0.1278(3) -0.17005(14)
O4F O 0.4988(2) -0.2192(2) -0.19891(12)
O5F O 0.7311(4) 0.0387(5) 0.1842(3)
O6F O 0.6631(2) 0.1052(2) 0.19920(14)
N1F N 0.4300(3) -0.2753(3) 0.03279(14)
C1F C 0.5451(3) -0.1701(3) -0.16716(18)
C2F C 0.5062(3) -0.1658(3) -0.12324(15)
C3F C 0.5573(3) -0.1218(3) -0.08532(17)
H3F H 0.61470 -0.09400 -0.08900
C4F C 0.5249(3) -0.1188(3) -0.04338(17)
H4F H 0.55980 -0.09070 -0.01860
C5F C 0.4382(3) -0.1587(3) -0.03816(16)
C6F C 0.3861(3) -0.2007(3) -0.07542(18)
H5F H 0.32870 -0.22560 -0.07200
C7F C 0.4193(3) -0.2055(3) -0.11760(17)
H6F H 0.38420 -0.23480 -0.14210
C8F C 0.6708(4) 0.0508(4) 0.1802(2)
C9F C 0.5961(4) -0.0154(4) 0.1530(2)
C10F C 0.5887(5) -0.0895(6) 0.1401(4)
H7F H 0.63160 -0.10010 0.14690
C11F C 0.5179(6) -0.1502(5) 0.1168(3)
H8F H 0.51250 -0.20100 0.10840
C12F C 0.4578(3) -0.1316(3) 0.10719(17)
C13F C 0.4633(4) -0.0590(4) 0.1181(2)
H9F H 0.42140 -0.04790 0.11010
C14F C 0.5338(4) -0.0007(3) 0.1419(2)
H10F H 0.53820 0.04970 0.15040
P1H P 0.23559(8) -0.39205(8) 0.03822(4)
O1H O 0.1573(2) -0.4373(2) 0.00479(11)
O2H O 0.1928(2) -0.4256(2) 0.08676(12)
O3H O 0.1278(2) -0.2496(3) -0.17005(14)
O4H O 0.2192(2) -0.2820(2) -0.19891(12)
O5H O -0.0387(4) -0.3076(5) 0.1842(3)
O6H O -0.1052(2) -0.4421(2) 0.19920(14)
N1H N 0.2753(3) -0.2947(3) 0.03279(14)
C1H C 0.1701(3) -0.2848(3) -0.16716(18)
C2H C 0.1658(3) -0.3280(3) -0.12324(15)
C3H C 0.1218(3) -0.3209(3) -0.08532(17)
H3H H 0.09400 -0.29130 -0.08900
C4H C 0.1188(3) -0.3563(3) -0.04338(17)
H4H H 0.09070 -0.34950 -0.01860
C5H C 0.1587(3) -0.4031(3) -0.03816(16)
C6H C 0.2007(3) -0.4132(3) -0.07542(18)
H5H H 0.22560 -0.44570 -0.07200
C7H C 0.2055(3) -0.3752(3) -0.11760(17)
H6H H 0.23480 -0.38100 -0.14210
C8H C -0.0508(4) -0.3800(4) 0.1802(2)
C9H C 0.0154(4) -0.3885(4) 0.1530(2)
C10H C 0.0895(5) -0.3218(6) 0.1401(4)
H7H H 0.10010 -0.26830 0.14690
C11H C 0.1502(6) -0.3319(5) 0.1168(3)
H8H H 0.20100 -0.28650 0.10840
C12H C 0.1316(3) -0.4106(3) 0.10719(17)
C13H C 0.0590(4) -0.4777(4) 0.1181(2)
H9H H 0.04790 -0.53070 0.11010
C14H C 0.0007(4) -0.4655(3) 0.1419(2)
H10H H -0.04970 -0.51150 0.15040
P1J P 0.39205(8) -0.37236(8) 0.03822(4)
O1J O 0.4373(2) -0.4054(2) 0.00479(11)
O2J O 0.4256(2) -0.3816(2) 0.08676(12)
O3J O 0.2496(2) -0.6226(3) -0.17005(14)
O4J O 0.2820(2) -0.4988(2) -0.19891(12)
O5J O 0.3076(4) -0.7311(5) 0.1842(3)
O6J O 0.4421(2) -0.6631(2) 0.19920(14)
N1J N 0.2947(3) -0.4300(3) 0.03279(14)
C1J C 0.2848(3) -0.5451(3) -0.16716(18)
C2J C 0.3280(3) -0.5062(3) -0.12324(15)
C3J C 0.3209(3) -0.5573(3) -0.08532(17)
H3J H 0.29130 -0.61470 -0.08900
C4J C 0.3563(3) -0.5249(3) -0.04338(17)
H4J H 0.34950 -0.55980 -0.01860
C5J C 0.4031(3) -0.4382(3) -0.03816(16)
C6J C 0.4132(3) -0.3861(3) -0.07542(18)
H5J H 0.44570 -0.32870 -0.07200
C7J C 0.3752(3) -0.4193(3) -0.11760(17)
H6J H 0.38100 -0.38420 -0.14210
C8J C 0.3800(4) -0.6708(4) 0.1802(2)
C9J C 0.3885(4) -0.5961(4) 0.1530(2)
C10J C 0.3218(5) -0.5887(6) 0.1401(4)
H7J H 0.26830 -0.63160 0.14690
C11J C 0.3319(6) -0.5179(5) 0.1168(3)
H8J H 0.28650 -0.51250 0.10840
C12J C 0.4106(3) -0.4578(3) 0.10719(17)
C13J C 0.4777(4) -0.4633(4) 0.1181(2)
H9J H 0.53070 -0.42140 0.11010
C14J C 0.4655(4) -0.5338(3) 0.1419(2)
H10J H 0.51150 -0.53820 0.15040
Mg1* Mg 0.46969(14) -0.72262(14) 0.25000
Mg1A Mg 0.19231(14) -0.53031(14) -0.25000
Mg1A* Mg 1.19231(14) 0.46969(14) -0.25000
Mg1C Mg 0.53031(14) -0.27738(14) -0.25000
Mg1C* Mg 0.53031(14) 0.72262(14) -0.25000
Mg1D* Mg -0.19231(14) -0.46969(14) 0.25000
Mg1E Mg 0.27738(14) -0.19231(14) -0.25000
O4G O 0.7180(2) 0.4988(2) 0.30109(12)
O4I O 0.5012(2) 0.2192(2) 0.30109(12)
O4K O 0.7808(2) 0.2820(2) 0.30109(12)
O6A O 0.4421(2) 0.3369(2) 0.30080(14)
O6C O 0.6631(2) 0.1052(2) 0.30080(14)
O6E O 0.8948(2) 0.5579(2) 0.30080(14)
O6H* O 0.8948(2) 0.5579(2) 0.19920(14)
O6J* O 0.4421(2) 0.3369(2) 0.19920(14)
#END
