
#######################################################################
#
#                 Cambridge Crystallographic Data Centre
#                                CCDC
#
#######################################################################
#
# If this CIF has been generated from an entry in the Cambridge
# Structural Database, then it will include bibliographic, chemical,
# crystal, experimental, refinement or atomic coordinate data resulting
# from the CCDC's data processing and validation procedures.
#
#######################################################################

data_CSD_CIF_OSAFOF
_audit_creation_date 2016-08-18
_audit_creation_method CSD-ConQuest-V1
_database_code_CSD OSAFOF
_database_code_depnum_ccdc_archive 'CCDC 1431430'
_chemical_formula_sum 'C30 H74 Cl2 N20 O80 Rb2 Si1 W12'
_chemical_formula_moiety
;
(C30 H32 N20 O61 Rb2 Si1 W12 2-)n,4n(H3 O1 1+),2n(Cl1 1-),15n(H2 O1)
;
_journal_coden_Cambridge 155
_journal_volume 453
_journal_year 2016
_journal_page_first 122
_journal_name_full 'Inorg.Chim.Acta '
loop_
_publ_author_name
"Hai-Yong Chen"
"Hai-Ting Hou"
"Zheng-Yun Liang"
"Zhu Tao"
"Yun-Qian Zhang"
"Qing-Di Zhou"
_chemical_name_systematic
;
catena-(tetrakis(oxonium) 
(\m-silicato)-(\m-perhydroxycucurbit(5)uril)-octacosakis(\m-oxo)-aqua-octaoxo-
di-rubidium-dodeca-tungsten dichloride pentadecahydrate)
;
_cell_volume   8454.149
_exptl_crystal_colour 'colorless'
_exptl_crystal_density_diffrn 3.513
_exptl_crystal_description 'prism'
_diffrn_ambient_temperature 223
_refine_special_details
;
The SQUEEZE/PLATON program was used to model some of the disordered oxonium 
cations/water molecules.
;
#These two values have been output from a single CSD field.
_refine_ls_R_factor_gt 0.0646
_refine_ls_wR_factor_gt 0.0646
_symmetry_cell_setting monoclinic
_symmetry_space_group_name_H-M 'P 21/n'
_symmetry_Int_Tables_number 14
loop_
_symmetry_equiv_pos_site_id
_symmetry_equiv_pos_as_xyz
1 x,y,z
2 1/2-x,1/2+y,1/2-z
3 -x,-y,-z
4 -1/2+x,-1/2-y,-1/2+z
_cell_length_a 20.109(10)
_cell_length_b 19.839(10)
_cell_length_c 22.583(11)
_cell_angle_alpha 90
_cell_angle_beta 110.219(10)
_cell_angle_gamma 90
_cell_formula_units_Z 4
loop_
_atom_type_symbol
_atom_type_radius_bond
C 0.68
H 0.23
Cl 0.99
N 0.68
O 0.68
Rb 2.20
Si 1.20
W 1.62
loop_
_atom_site_label
_atom_site_type_symbol
_atom_site_fract_x
_atom_site_fract_y
_atom_site_fract_z
Cl1 Cl 0.7518(4) 0.7218(3) 0.0276(3)
Cl2 Cl 1.0970(5) 0.0983(5) 0.0314(5)
O1 O 0.9251(11) 0.6488(9) 0.4250(9)
O2 O 0.7589(12) 0.3761(9) -0.1304(8)
O3 O 0.6695(14) 0.2633(12) 0.0973(13)
Rb1 Rb 0.81483(16) 0.24024(12) 0.19808(14)
Rb2 Rb 1.11146(14) 0.54940(12) 0.23338(13)
O4 O 1.1303(10) 0.0712(7) 0.4148(7)
O5 O 1.2321(8) 0.0468(7) 0.2484(7)
O6 O 0.9642(8) 0.0836(7) 0.0719(7)
O7 O 1.0003(7) -0.0547(6) 0.2852(6)
O8 O 1.0525(7) -0.0670(6) 0.1942(6)
O9 O 0.9472(7) -0.1463(5) 0.1946(6)
O10 O 1.0743(7) -0.1614(6) 0.2798(6)
O11 O 0.9671(8) -0.2476(7) 0.2906(7)
O12 O 0.9139(8) -0.0409(6) 0.1012(7)
O13 O 1.0862(8) 0.0531(6) 0.1687(7)
O14 O 1.1641(9) -0.0576(6) 0.1639(8)
O15 O 1.1225(8) -0.1390(8) 0.0600(8)
O16 O 1.1676(9) -0.3154(7) 0.2183(9)
O17 O 1.2027(8) -0.2089(7) 0.3040(8)
O18 O 1.0965(7) -0.2907(6) 0.3042(8)
O19 O 1.0519(9) -0.2966(8) 0.4070(8)
O20 O 0.9141(8) -0.0958(8) 0.4210(8)
O21 O 1.0145(8) -0.1607(7) 0.3779(7)
O22 O 1.1469(8) -0.1991(7) 0.3953(7)
O23 O 1.1924(7) -0.0743(6) 0.2904(6)
O24 O 1.1314(8) -0.1819(6) 0.1804(7)
O25 O 1.0368(7) -0.0382(7) 0.0801(7)
O26 O 1.0036(9) -0.1669(7) 0.0969(7)
O27 O 1.0299(8) -0.2605(6) 0.1825(7)
O28 O 0.9274(9) -0.2903(6) 0.0630(7)
O29 O 0.8900(8) -0.2642(6) 0.1693(7)
O30 O 0.8667(9) -0.1677(7) 0.0784(8)
O31 O 0.8136(8) -0.1558(7) 0.1716(7)
O32 O 0.8935(7) -0.0117(6) 0.3152(6)
O33 O 0.8596(8) 0.0997(6) 0.2365(7)
O34 O 0.7677(8) -0.0653(8) 0.0680(8)
O35 O 0.8877(7) -0.1440(6) 0.2938(6)
O36 O 1.0251(7) -0.0254(6) 0.4026(7)
O37 O 0.9982(6) 0.0691(6) 0.3145(6)
O38 O 0.8609(7) -0.0303(5) 0.1898(6)
O39 O 0.9635(7) 0.0482(6) 0.1914(6)
O40 O 1.1185(8) 0.0303(7) 0.2953(8)
O41 O 1.1407(7) -0.0629(6) 0.3787(6)
O42 O 0.8164(9) -0.2642(7) 0.2534(8)
O43 O 1.2703(8) -0.1293(7) 0.4113(7)
W1 W 0.91683(5) 0.03299(4) 0.25100(4)
W2 W 0.94938(5) -0.08737(4) 0.36134(4)
W3 W 1.15962(5) -0.00318(4) 0.23238(4)
W4 W 0.99529(5) 0.02069(4) 0.12598(4)
W5 W 0.84802(5) -0.09281(4) 0.12399(4)
W6 W 1.08901(5) -0.11660(4) 0.11671(5)
W7 W 1.08189(5) 0.01589(4) 0.35743(4)
W8 W 1.05397(5) -0.23803(4) 0.35183(5)
W9 W 0.94519(5) -0.23082(4) 0.12165(5)
W10 W 0.87367(5) -0.21241(4) 0.23459(4)
W11 W 1.12584(5) -0.24881(4) 0.23859(5)
W12 W 1.18850(5) -0.13462(4) 0.35467(5)
Si1 Si 1.0178(3) -0.1079(2) 0.2378(2)
C1 C 0.8663(13) 0.3803(10) 0.3302(11)
C2 C 0.9534(11) 0.4499(9) 0.3997(10)
C3 C 0.8884(11) 0.4965(10) 0.3532(10)
C4 C 1.0021(13) 0.5254(11) 0.3478(12)
C5 C 0.7794(12) 0.4654(11) 0.2665(10)
H1 H 0.76070 0.50540 0.28080
H2 H 0.74500 0.42900 0.26120
C6 C 0.9009(10) 0.5907(8) 0.2797(9)
H3 H 0.86520 0.61360 0.29290
H4 H 0.93840 0.62340 0.28270
C7 C 0.7678(10) 0.4335(8) 0.1541(9)
C8 C 0.7976(12) 0.5468(9) 0.1825(11)
C9 C 0.7894(11) 0.5352(9) 0.1125(9)
C10 C 0.9071(11) 0.5746(9) 0.1741(9)
C11 C 0.7629(11) 0.4296(10) 0.0457(11)
H5 H 0.74010 0.46070 0.01090
H6 H 0.73020 0.39210 0.04290
C12 C 0.8839(12) 0.5575(9) 0.0611(10)
H7 H 0.92060 0.59220 0.06840
H8 H 0.84390 0.57040 0.02360
C13 C 0.8474(13) 0.3381(10) 0.0508(10)
C14 C 0.8705(11) 0.4386(9) 0.0106(10)
C15 C 0.9298(12) 0.3866(10) 0.0088(11)
C16 C 0.9853(11) 0.4812(9) 0.0675(10)
C17 C 0.9454(14) 0.2605(11) 0.0440(12)
H9 H 0.90950 0.22540 0.03870
H10 H 0.96560 0.25530 0.01060
C18 C 1.0645(12) 0.3889(10) 0.0628(11)
H11 H 1.06700 0.36330 0.02650
H12 H 1.09870 0.42600 0.07060
C19 C 0.9942(14) 0.2255(10) 0.1577(12)
C20 C 1.0739(13) 0.2726(12) 0.1164(12)
C21 C 1.1138(13) 0.2553(11) 0.1905(12)
C22 C 1.1275(12) 0.3716(11) 0.1756(11)
C23 C 1.0634(13) 0.1978(9) 0.266(1)
H13 H 1.10870 0.17390 0.28210
H14 H 1.02560 0.16480 0.26090
C24 C 1.1895(14) 0.3256(12) 0.2851(11)
H15 H 1.22050 0.36460 0.28860
H16 H 1.21940 0.28550 0.29860
C25 C 1.0021(12) 0.2555(9) 0.3272(10)
C26 C 1.1208(13) 0.2825(11) 0.3553(11)
C27 C 1.0898(12) 0.3204(10) 0.3976(10)
C28 C 1.1381(12) 0.3973(10) 0.3469(11)
C29 C 0.9622(11) 0.3208(9) 0.4008(10)
H17 H 0.92590 0.28550 0.39140
H18 H 0.98310 0.32470 0.44680
C30 C 1.0861(11) 0.4444(10) 0.4239(11)
H19 H 1.08820 0.42680 0.46510
H20 H 1.12230 0.47950 0.43130
N1 N 0.9289(10) 0.3826(7) 0.3762(8)
N2 N 0.8417(9) 0.4470(7) 0.3131(9)
N3 N 1.0172(9) 0.4736(8) 0.3925(8)
N4 N 0.9316(9) 0.5363(7) 0.3245(8)
N5 N 0.7846(9) 0.4804(8) 0.2044(8)
N6 N 0.7768(10) 0.4642(7) 0.1050(8)
N7 N 0.8681(9) 0.5718(7) 0.2140(8)
N8 N 0.8604(11) 0.5545(8) 0.1157(8)
N9 N 0.8282(9) 0.4035(7) 0.0393(7)
N10 N 0.9122(11) 0.3287(8) 0.0399(9)
N11 N 0.9130(11) 0.4910(7) 0.0495(9)
N12 N 0.9922(10) 0.4177(8) 0.0464(8)
N13 N 1.0014(12) 0.2538(8) 0.1063(9)
N14 N 1.0557(11) 0.2252(10) 0.2064(9)
N15 N 1.085(1) 0.3450(8) 0.1179(8)
N16 N 1.1450(11) 0.3178(10) 0.2221(10)
N17 N 1.0610(11) 0.2468(8) 0.3112(9)
N18 N 1.0173(9) 0.2996(8) 0.3764(8)
N19 N 1.1479(11) 0.3352(9) 0.3256(8)
N20 N 1.1018(9) 0.3890(8) 0.3864(8)
O44 O 0.8311(8) 0.3326(6) 0.3036(7)
O45 O 0.7548(9) 0.3761(7) 0.1601(7)
O46 O 0.8197(10) 0.2946(7) 0.0725(9)
O47 O 0.9380(9) 0.2039(8) 0.1596(7)
O48 O 0.9441(7) 0.2278(7) 0.3038(7)
O49 O 1.0468(8) 0.5546(7) 0.3336(8)
O50 O 0.9669(8) 0.5930(7) 0.1876(7)
O51 O 1.0327(8) 0.5205(6) 0.0976(7)
O52 O 1.1445(8) 0.4262(8) 0.1901(8)
O53 O 1.1632(9) 0.4497(8) 0.3355(8)
O54 O 0.9608(9) 0.4523(8) 0.4634(7)
H21 H 0.92200 0.44420 0.46730
O55 O 0.8542(8) 0.5331(7) 0.3839(7)
H22 H 0.88180 0.56120 0.40690
O56 O 0.7471(8) 0.5896(7) 0.1923(7)
H23 H 0.75000 0.62750 0.17780
O57 O 0.7434(8) 0.5771(7) 0.0693(7)
H24 H 0.70280 0.57180 0.07020
O58 O 0.8337(9) 0.4670(7) -0.0462(7)
H25 H 0.81230 0.43710 -0.07130
O59 O 0.9301(8) 0.3669(7) -0.0491(7)
H26 H 0.93660 0.40030 -0.06860
O60 O 1.104(1) 0.2422(9) 0.0771(9)
H27 H 1.08070 0.25170 0.03990
O61 O 1.1665(9) 0.2059(7) 0.1987(8)
H28 H 1.14800 0.17050 0.18100
O62 O 1.1726(10) 0.2351(8) 0.3861(8)
H29 H 1.20520 0.25400 0.41430
O63 O 1.1219(9) 0.3069(7) 0.4611(7)
H30 H 1.09310 0.28820 0.47470
Rb1A Rb 0.68517(16) -0.25976(12) 0.30192(14)
Rb2* Rb 1.11146(14) -0.45060(12) 0.23338(13)
Rb2A Rb 1.38854(14) 0.04940(12) 0.26662(13)
O5A O 1.2679(8) 0.5468(7) 0.2516(7)
O16* O 1.1676(9) 0.6846(7) 0.2183(9)
O42A O 0.6836(9) 0.2358(7) 0.2466(8)
#END
