
#######################################################################
#
#                 Cambridge Crystallographic Data Centre
#                                CCDC
#
#######################################################################
#
# If this CIF has been generated from an entry in the Cambridge
# Structural Database, then it will include bibliographic, chemical,
# crystal, experimental, refinement or atomic coordinate data resulting
# from the CCDC's data processing and validation procedures.
#
#######################################################################

data_CSD_CIF_OSAGAS
_audit_creation_date 2016-08-18
_audit_creation_method CSD-ConQuest-V1
_database_code_CSD OSAGAS
_database_code_depnum_ccdc_archive 'CCDC 1431432'
_chemical_formula_sum 'C30 H161 Ba2 Cl1 N20 O125 Si1 W12'
_chemical_formula_moiety
;
(C30 H34 Ba2 Cl1 N20 O62 Si1 W12 1-)n,n(H3 O1 1+),62n(H2 O1)
;
_journal_coden_Cambridge 155
_journal_volume 453
_journal_year 2016
_journal_page_first 122
_journal_name_full 'Inorg.Chim.Acta '
loop_
_publ_author_name
"Hai-Yong Chen"
"Hai-Ting Hou"
"Zheng-Yun Liang"
"Zhu Tao"
"Yun-Qian Zhang"
"Qing-Di Zhou"
_chemical_name_systematic
;
catena-(oxonium 
(\m-silicato)-(\m-perhydroxycucurbit(5)uril)-octacosakis(\m-oxo)-diaqua-chloro
-octaoxo-di-barium-dodeca-tungsten dohexacontahydrate)
;
_cell_volume  19644.882
_exptl_crystal_colour 'colorless'
_exptl_crystal_density_diffrn 3.616
_exptl_crystal_description 'prism'
_diffrn_ambient_temperature 223
_refine_special_details
;
The SQUEEZE/PLATON program was used to model the disordered cations and water 
molecules.
;
#These two values have been output from a single CSD field.
_refine_ls_R_factor_gt 0.0827
_refine_ls_wR_factor_gt 0.0827
_symmetry_cell_setting monoclinic
_symmetry_space_group_name_H-M 'C 2/c'
_symmetry_Int_Tables_number 15
loop_
_symmetry_equiv_pos_site_id
_symmetry_equiv_pos_as_xyz
1 x,y,z
2 -x,y,1/2-z
3 1/2+x,1/2+y,z
4 1/2-x,1/2+y,1/2-z
5 -x,-y,-z
6 x,-y,-1/2+z
7 -1/2-x,-1/2-y,-z
8 -1/2+x,-1/2-y,-1/2+z
_cell_length_a 44.045(13)
_cell_length_b 19.530(6)
_cell_length_c 26.756(8)
_cell_angle_alpha 90
_cell_angle_beta 121.400(9)
_cell_angle_gamma 90
_cell_formula_units_Z 8
loop_
_atom_type_symbol
_atom_type_radius_bond
C 0.68
H 0.23
Ba 2.15
Cl 0.99
N 0.68
O 0.68
Si 1.20
W 1.62
loop_
_atom_site_label
_atom_site_type_symbol
_atom_site_fract_x
_atom_site_fract_y
_atom_site_fract_z
O1 O 0.2402(19) 0.476(4) 0.851(3)
Ba1 Ba 0.19420(5) 0.54924(8) 0.75539(8)
Ba2 Ba 0.05762(4) 0.82244(7) 0.65160(6)
Cl1 Cl 0.1187(3) 0.6989(6) 0.6991(4)
C1 C 0.1889(6) 0.6870(12) 0.6553(10)
C2 C 0.1538(8) 0.7590(12) 0.5760(13)
C3 C 0.1809(8) 0.8032(15) 0.6342(12)
C4 C 0.1213(7) 0.8277(12) 0.6030(11)
C5 C 0.2284(7) 0.7651(15) 0.7359(12)
H1 H 0.24180 0.80490 0.73540
H2 H 0.24450 0.72570 0.74950
C6 C 0.1675(7) 0.8971(12) 0.6886(10)
H3 H 0.18920 0.91860 0.69450
H4 H 0.14910 0.93250 0.67570
C7 C 0.2182(7) 0.7256(13) 0.8148(12)
C8 C 0.2091(7) 0.8424(13) 0.7904(11)
C9 C 0.2014(7) 0.8243(13) 0.8426(11)
C10 C 0.1491(7) 0.8662(12) 0.7605(10)
C11 C 0.2086(7) 0.7104(14) 0.8953(12)
H5 H 0.22540 0.67240 0.90570
H6 H 0.21650 0.73820 0.93050
C12 C 0.1450(7) 0.8380(11) 0.8452(12)
H7 H 0.12620 0.87270 0.82850
H8 H 0.16080 0.84880 0.88680
C13 C 0.1647(7) 0.6163(14) 0.8537(10)
C14 C 0.1468(8) 0.7138(14) 0.8828(11)
C15 C 0.1162(8) 0.6599(15) 0.8570(11)
C16 C 0.0946(9) 0.7575(14) 0.8000(14)
C17 C 0.1141(7) 0.5384(13) 0.8214(13)
H9 H 0.09940 0.52860 0.83810
H10 H 0.13200 0.50220 0.83400
C18 C 0.0508(7) 0.6654(13) 0.7721(12)
H11 H 0.03340 0.70270 0.75820
H12 H 0.04650 0.63600 0.79740
C19 C 0.1026(7) 0.5165(11) 0.7202(10)
C20 C 0.0533(8) 0.5526(11) 0.7248(11)
C21 C 0.0412(8) 0.5345(12) 0.6589(12)
C22 C 0.0296(6) 0.6509(11) 0.6675(10)
C23 C 0.0782(6) 0.4875(11) 0.6169(10)
H13 H 0.05620 0.46320 0.58940
H14 H 0.09760 0.45400 0.63320
C24 C 0.0146(7) 0.6130(12) 0.5681(10)
H15 H 0.00190 0.57200 0.54590
H16 H -0.00260 0.65070 0.55460
C25 C 0.1208(7) 0.5548(12) 0.5993(12)
C26 C 0.0592(6) 0.5801(11) 0.5379(10)
C27 C 0.0824(6) 0.6233(12) 0.5195(11)
C28 C 0.0499(7) 0.6952(12) 0.5496(10)
C29 C 0.1489(6) 0.6279(11) 0.5636(10)
H17 H 0.14260 0.63760 0.52330
H18 H 0.16700 0.59190 0.57890
C30 C 0.0856(6) 0.7552(11) 0.5153(9)
H19 H 0.06760 0.79120 0.50340
H20 H 0.08850 0.74570 0.48200
N1 N 0.1641(6) 0.6893(10) 0.5986(10)
N2 N 0.2000(6) 0.7520(11) 0.6774(10)
N3 N 0.1196(5) 0.7797(10) 0.5649(9)
N4 N 0.1553(6) 0.8423(10) 0.6423(9)
N5 N 0.2177(6) 0.7781(12) 0.7781(10)
N6 N 0.2089(6) 0.7524(11) 0.8503(10)
N7 N 0.1746(6) 0.8665(11) 0.7452(10)
N8 N 0.1650(6) 0.8433(9) 0.8170(9)
N9 N 0.1734(6) 0.6831(12) 0.8753(9)
N10 N 0.1316(6) 0.6021(11) 0.8437(8)
N11 N 0.1291(6) 0.7724(11) 0.8404(9)
N12 N 0.0859(6) 0.6946(10) 0.8068(9)
N13 N 0.0909(5) 0.5371(10) 0.7555(9)
N14 N 0.0747(5) 0.5146(10) 0.6637(8)
N15 N 0.0445(6) 0.6256(11) 0.7219(8)
N16 N 0.0280(6) 0.6009(10) 0.6294(9)
N17 N 0.0851(5) 0.5383(11) 0.5848(10)
N18 N 0.1179(6) 0.6025(11) 0.5623(10)
N19 N 0.0417(5) 0.6296(10) 0.5558(9)
N20 N 0.0732(5) 0.6931(10) 0.5298(9)
O2 O 0.2026(5) 0.6340(9) 0.6834(8)
O3 O 0.2262(5) 0.6649(9) 0.8124(8)
O4 O 0.1830(6) 0.5774(11) 0.8469(9)
O5 O 0.1331(5) 0.4980(9) 0.7362(8)
O6 O 0.1469(5) 0.5259(9) 0.6387(8)
O7 O 0.0957(5) 0.8553(8) 0.6013(8)
O8 O 0.1182(5) 0.8856(9) 0.7295(9)
O9 O 0.0729(5) 0.7979(9) 0.7622(8)
O10 O 0.0195(5) 0.7105(9) 0.6526(8)
O11 O 0.0370(5) 0.7456(8) 0.5560(7)
O12 O 0.1576(6) 0.7702(10) 0.5307(8)
H21 H 0.17870 0.76340 0.54060
O13 O 0.2042(7) 0.8449(13) 0.6278(10)
H22 H 0.21870 0.82080 0.62500
O14 O 0.2352(6) 0.8904(11) 0.8041(9)
H23 H 0.25450 0.87580 0.83130
O15 O 0.2228(6) 0.8592(11) 0.8930(9)
H24 H 0.24390 0.85430 0.90250
O16 O 0.1588(5) 0.7367(9) 0.9380(7)
H25 H 0.16550 0.70370 0.96090
O17 O 0.1059(5) 0.6362(9) 0.8942(8)
H26 H 0.09960 0.66890 0.90660
O18 O 0.0345(6) 0.5195(10) 0.7455(9)
H27 H 0.03420 0.47780 0.73940
O19 O 0.0161(5) 0.4847(8) 0.6322(9)
H28 H -0.00060 0.49220 0.63730
O20 O 0.0346(4) 0.5363(8) 0.4941(7)
H29 H 0.01990 0.55930 0.46550
O21 O 0.0745(5) 0.6172(10) 0.4639(7)
H30 H 0.05460 0.63400 0.44150
O22 O 0.0368(6) 0.1436(11) 0.7367(10)
O23 O 0.1064(5) 0.1243(9) 0.7584(8)
O24 O 0.0467(5) -0.0347(10) 0.6148(10)
O25 O 0.0935(4) 0.2280(7) 0.6719(6)
O26 O 0.1526(4) 0.1530(7) 0.7145(6)
O27 O 0.0985(4) 0.1340(7) 0.6060(6)
O28 O 0.0765(5) 0.2329(8) 0.5136(7)
O29 O 0.2046(6) 0.2152(10) 0.5765(9)
O30 O 0.1373(4) 0.2465(7) 0.6328(6)
O31 O 0.1464(4) 0.1448(7) 0.5638(7)
O32 O 0.1956(5) 0.4147(8) 0.7144(8)
O33 O 0.1178(5) 0.3764(9) 0.7938(7)
O34 O 0.0056(6) 0.3372(9) 0.5691(9)
O35 O 0.0124(5) 0.1580(9) 0.4438(8)
O36 O 0.1340(5) 0.0067(8) 0.5279(8)
O37 O 0.2347(5) 0.0446(9) 0.7274(8)
O38 O 0.1468(5) 0.0078(9) 0.8146(8)
O39 O 0.2268(6) 0.2409(10) 0.8684(9)
O40 O 0.0829(5) 0.3703(9) 0.4900(7)
O41 O 0.1362(4) 0.3752(7) 0.6084(7)
O42 O 0.1410(5) 0.2799(8) 0.5421(7)
O43 O 0.0793(5) 0.0982(8) 0.5010(7)
O44 O 0.0950(5) 0.0042(8) 0.5830(8)
O45 O 0.1816(5) 0.0376(8) 0.7559(8)
O46 O 0.2206(4) 0.1495(9) 0.7820(7)
O47 O 0.1941(4) 0.2776(8) 0.7498(7)
O48 O 0.1524(5) 0.2596(9) 0.7901(7)
O49 O 0.1779(5) 0.1324(9) 0.8250(7)
O50 O 0.1113(4) 0.0331(8) 0.6927(7)
O51 O 0.0531(5) 0.1031(9) 0.6529(8)
O52 O 0.0360(4) 0.0787(8) 0.5427(7)
O53 O 0.0342(4) 0.2151(8) 0.5537(7)
O54 O 0.0683(5) 0.3442(8) 0.6762(8)
O55 O 0.0289(5) 0.2308(9) 0.6494(8)
O56 O 0.0834(5) 0.2515(9) 0.7582(7)
O57 O 0.1362(4) 0.3482(7) 0.7080(7)
O58 O 0.0723(5) 0.3257(8) 0.5809(7)
O59 O 0.1954(5) 0.3013(9) 0.6522(7)
O60 O 0.1986(5) 0.1652(9) 0.6689(7)
O61 O 0.1618(5) 0.0536(8) 0.6437(7)
W1 W 0.17669(3) 0.22208(5) 0.60153(4)
W2 W 0.19376(3) 0.21173(5) 0.80031(4)
W3 W 0.10176(3) 0.31489(5) 0.54826(4)
W4 W 0.17027(3) 0.34163(5) 0.68549(4)
W5 W 0.14512(3) 0.06834(5) 0.76839(5)
W6 W 0.04280(3) 0.28910(5) 0.60683(4)
W7 W 0.06947(3) 0.03820(5) 0.61788(5)
W8 W 0.04842(3) 0.15652(5) 0.51357(4)
W9 W 0.19888(3) 0.09122(5) 0.71560(4)
W10 W 0.06234(3) 0.17018(5) 0.70979(5)
W11 W 0.11141(3) 0.31371(5) 0.74390(4)
W12 W 0.12317(3) 0.06322(5) 0.56514(4)
Si1 Si 0.12044(15) 0.1902(3) 0.6565(2)
O62 O 0.0168(10) 0.904(2) 0.6867(16)
Ba1C Ba 0.30580(5) 0.04924(8) 0.74461(8)
Ba2* Ba 0.05762(4) -0.17756(7) 0.65160(6)
Ba2D Ba -0.05762(4) 0.17756(7) 0.34840(6)
O24* O 0.0467(5) 0.9653(10) 0.6148(10)
O35D O -0.0124(5) 0.8420(9) 0.5562(8)
O37C O 0.2653(5) 0.5446(9) 0.7726(8)
#END
