
#######################################################################
#
#                 Cambridge Crystallographic Data Centre
#                                CCDC
#
#######################################################################
#
# If this CIF has been generated from an entry in the Cambridge
# Structural Database, then it will include bibliographic, chemical,
# crystal, experimental, refinement or atomic coordinate data resulting
# from the CCDC's data processing and validation procedures.
#
#######################################################################

data_CSD_CIF_OSIVIX
_audit_creation_date 2016-08-19
_audit_creation_method CSD-ConQuest-V1
_database_code_CSD OSIVIX
_database_code_depnum_ccdc_archive 'CCDC 1426334'
_chemical_formula_sum 'C54 H88 N42 O44 Zn12'
_chemical_formula_moiety
;
(C42 H24 N36 O36 Zn12 6-)n,6n(C2 H8 N1 1+),8n(H2 O1)
;
_journal_coden_Cambridge 315
_journal_volume 161
_journal_year 2016
_journal_page_first 138
_journal_name_full 'Spectrochim.Acta,Part A '
loop_
_publ_author_name
"Yan-Ning Wang"
"Wan-Chun Zhu"
"Qi-Sheng Huo"
"Jie-Hui Yu"
"Ji-Qing Xu"
_chemical_name_systematic
;
catena-[hexakis(dimethylammonium) 
heptakis(\m-oxalato)-dodecakis(\m-1,2,4-triazolato)-bis(oxalato)-dodeca-zinc(i
i) octahydrate]
;
_cell_volume  10378.138
_exptl_crystal_colour 'colorless'
_exptl_crystal_density_diffrn 1.801
_exptl_crystal_description 'block'
_diffrn_ambient_temperature 293
_refine_special_details
;
Disordered dimethylammonium ions and water solvent molecules were not 
modelled and the disordered density was taken into account using the 
SQUEEZE/PLATON procedure.
;
#These two values have been output from a single CSD field.
_refine_ls_R_factor_gt 0.0823
_refine_ls_wR_factor_gt 0.0823
_symmetry_cell_setting monoclinic
_symmetry_space_group_name_H-M 'C 2/c'
_symmetry_Int_Tables_number 15
loop_
_symmetry_equiv_pos_site_id
_symmetry_equiv_pos_as_xyz
1 x,y,z
2 -x,y,1/2-z
3 1/2+x,1/2+y,z
4 1/2-x,1/2+y,1/2-z
5 -x,-y,-z
6 x,-y,-1/2+z
7 -1/2-x,-1/2-y,-z
8 -1/2+x,-1/2-y,-1/2+z
_cell_length_a 23.8935(12)
_cell_length_b 18.9861(12)
_cell_length_c 25.1041(17)
_cell_angle_alpha 90
_cell_angle_beta 114.315(6)
_cell_angle_gamma 90
_cell_formula_units_Z 4
loop_
_atom_type_symbol
_atom_type_radius_bond
C 0.68
H 0.23
N 0.68
O 0.68
Zn 1.22
loop_
_atom_site_label
_atom_site_type_symbol
_atom_site_fract_x
_atom_site_fract_y
_atom_site_fract_z
Zn1 Zn -0.49620(5) -0.04542(5) -0.10240(4)
Zn2 Zn -0.50000 -0.04193(6) -0.25000
Zn3 Zn -0.49258(5) 0.46405(5) -0.10269(4)
Zn4 Zn -0.50000 0.45746(6) -0.25000
Zn5 Zn -0.75080(4) 0.04735(6) -0.25192(4)
Zn6 Zn -0.33341(4) 0.20840(5) -0.10982(4)
Zn7 Zn -0.32940(5) -0.28951(5) -0.11199(4)
N1 N -0.5773(3) -0.0388(4) -0.1726(3)
N2 N -0.5822(3) -0.0411(3) -0.2281(3)
N3 N -0.6740(3) -0.0155(4) -0.2306(3)
N4 N -0.4540(4) 0.0362(4) -0.1268(3)
N5 N -0.4599(3) 0.0395(3) -0.1839(3)
N6 N -0.4009(3) 0.1293(4) -0.1342(3)
N7 N -0.4533(3) -0.1200(4) -0.1841(3)
N8 N -0.4519(3) -0.1216(4) -0.1289(3)
N9 N -0.3898(4) -0.2055(4) -0.1342(3)
N10 N -0.5750(3) 0.4614(4) -0.1700(3)
N11 N -0.5813(3) 0.4578(3) -0.2263(3)
N12 N -0.6718(3) 0.4844(4) -0.2271(3)
N13 N -0.4479(4) 0.5383(4) -0.1283(3)
N14 N -0.4563(3) 0.5409(3) -0.1854(3)
N15 N -0.3970(3) 0.6310(4) -0.1382(3)
N16 N -0.4515(3) 0.3811(4) -0.1272(3)
N17 N -0.4538(3) 0.3803(3) -0.1830(3)
N18 N -0.3929(3) 0.2942(4) -0.1324(3)
O1 O -0.5329(4) -0.1222(5) -0.0611(4)
O2 O -0.4424(5) -0.0309(5) -0.0172(4)
O3 O -0.5057(6) -0.1736(6) 0.0243(4)
O4 O -0.4206(10) -0.0691(11) 0.0731(10)
O5 O -0.7366(3) 0.0608(3) -0.1647(3)
O6 O -0.8101(3) 0.1395(3) -0.2563(3)
O7 O -0.8282(3) 0.2118(3) -0.1961(3)
O8 O -0.7635(3) 0.1275(4) -0.1059(3)
O9 O -0.2665(3) 0.1268(3) -0.1039(3)
O10 O -0.3333(3) 0.2094(3) -0.1948(3)
O11 O -0.2344(3) 0.0642(3) -0.1603(3)
O12 O -0.3117(3) 0.1385(3) -0.2541(3)
O13 O -0.1844(3) -0.1971(3) 0.0235(3)
O14 O -0.2508(3) -0.2242(3) -0.0667(3)
O15 O -0.1848(3) 0.3038(3) 0.0205(3)
O16 O -0.2546(3) 0.2756(3) -0.0680(3)
O17 O -0.5272(4) 0.5737(4) 0.0235(3)
O18 O -0.5244(5) 0.5508(4) -0.0622(3)
C1 C -0.6404(4) -0.0279(5) -0.2616(4)
H1 H -0.65660 -0.02710 -0.30220
C2 C -0.6323(4) -0.0231(5) -0.1761(4)
H2 H -0.64110 -0.01790 -0.14350
C3 C -0.4276(4) 0.0955(4) -0.1859(4)
H3 H -0.42380 0.11010 -0.21960
C4 C -0.4201(4) 0.0900(5) -0.0993(4)
H4 H -0.41010 0.10040 -0.06030
C5 C -0.4143(4) -0.1731(5) -0.1012(4)
H5 H -0.40560 -0.18580 -0.06290
C6 C -0.4155(4) -0.1709(4) -0.1851(4)
H6 H -0.40770 -0.18150 -0.21760
C7 C -0.6398(4) 0.4717(5) -0.2591(4)
H7 H -0.65680 0.47250 -0.29970
C8 C -0.6293(4) 0.4783(5) -0.1719(4)
H8 H -0.63720 0.48520 -0.13900
C9 C -0.4249(4) 0.5975(4) -0.1884(4)
H9 H -0.42270 0.61210 -0.22290
C10 C -0.4141(4) 0.5928(5) -0.1024(4)
H10 H -0.40310 0.60390 -0.06330
C11 C -0.4180(4) 0.3281(4) -0.1837(4)
H11 H -0.41090 0.31600 -0.21630
C12 C -0.4153(4) 0.3292(4) -0.0990(4)
H12 H -0.40610 0.31800 -0.06030
C13 C -0.4994(6) -0.1290(7) -0.0076(5)
C14 C -0.4588(10) -0.0709(11) 0.0121(10)
C15 C -0.7641(4) 0.1124(5) -0.1543(4)
C16 C -0.8041(4) 0.1596(5) -0.2071(4)
C17 C -0.3069(4) 0.1579(5) -0.2054(4)
C18 C -0.2652(4) 0.1120(5) -0.1518(4)
C19 C -0.2315(4) -0.2271(4) -0.0131(4)
C20 C -0.2326(4) 0.2732(4) -0.0141(4)
C21 C -0.5152(5) 0.5356(5) -0.0119(4)
O14F O -0.2492(3) -0.2758(3) 0.0667(3)
C19F C -0.2685(4) -0.2729(4) 0.0131(4)
O13F O -0.3156(3) -0.3029(3) -0.0235(3)
O16F O -0.2454(3) 0.2244(3) 0.0680(3)
C20F C -0.2674(4) 0.2268(4) 0.0141(4)
O15F O -0.3152(3) 0.1962(3) -0.0205(3)
O18D O -0.4756(5) 0.4492(4) 0.0622(3)
C21D C -0.4848(5) 0.4644(5) 0.0119(4)
O17D O -0.4728(4) 0.4263(4) -0.0235(3)
Zn1A Zn -0.50380(5) -0.04542(5) -0.39760(4)
Zn3A Zn -0.50742(5) 0.46405(5) -0.39731(4)
Zn5A Zn -0.24920(4) 0.04735(6) -0.24808(4)
Zn6A Zn -0.66659(4) 0.20840(5) -0.39018(4)
Zn7A Zn -0.67060(5) -0.28951(5) -0.38801(4)
N1A N -0.4227(3) -0.0388(4) -0.3274(3)
N2A N -0.4178(3) -0.0411(3) -0.2719(3)
N3A N -0.3260(3) -0.0155(4) -0.2694(3)
N4A N -0.5460(4) 0.0362(4) -0.3732(3)
N5A N -0.5401(3) 0.0395(3) -0.3161(3)
N6A N -0.5991(3) 0.1293(4) -0.3658(3)
N7A N -0.5467(3) -0.1200(4) -0.3159(3)
N8A N -0.5481(3) -0.1216(4) -0.3711(3)
N9A N -0.6102(4) -0.2055(4) -0.3658(3)
N10A N -0.4250(3) 0.4614(4) -0.3300(3)
N11A N -0.4187(3) 0.4578(3) -0.2737(3)
N12A N -0.3282(3) 0.4844(4) -0.2729(3)
N13A N -0.5521(4) 0.5383(4) -0.3717(3)
N14A N -0.5437(3) 0.5409(3) -0.3146(3)
N15A N -0.6030(3) 0.6310(4) -0.3618(3)
N16A N -0.5485(3) 0.3811(4) -0.3728(3)
N17A N -0.5462(3) 0.3803(3) -0.3170(3)
N18A N -0.6071(3) 0.2942(4) -0.3676(3)
O1A O -0.4671(4) -0.1222(5) -0.4389(4)
O2A O -0.5576(5) -0.0309(5) -0.4828(4)
O3A O -0.4943(6) -0.1736(6) -0.5243(4)
O4A O -0.5794(10) -0.0691(11) -0.5731(10)
O5A O -0.2634(3) 0.0608(3) -0.3353(3)
O6A O -0.1899(3) 0.1395(3) -0.2437(3)
O7A O -0.1718(3) 0.2118(3) -0.3039(3)
O8A O -0.2365(3) 0.1275(4) -0.3941(3)
O9A O -0.7335(3) 0.1268(3) -0.3961(3)
O10A O -0.6667(3) 0.2094(3) -0.3052(3)
O11A O -0.7656(3) 0.0642(3) -0.3397(3)
O12A O -0.6883(3) 0.1385(3) -0.2459(3)
C1A C -0.3596(4) -0.0279(5) -0.2384(4)
H1A H -0.34340 -0.02710 -0.19780
C2A C -0.3677(4) -0.0231(5) -0.3239(4)
H2A H -0.35890 -0.01790 -0.35650
C3A C -0.5724(4) 0.0955(4) -0.3141(4)
H3A H -0.57620 0.11010 -0.28040
C4A C -0.5799(4) 0.0900(5) -0.4007(4)
H4A H -0.58990 0.10040 -0.43970
C5A C -0.5857(4) -0.1731(5) -0.3988(4)
H5A H -0.59440 -0.18580 -0.43710
C6A C -0.5845(4) -0.1709(4) -0.3149(4)
H6A H -0.59230 -0.18150 -0.28240
C7A C -0.3602(4) 0.4717(5) -0.2409(4)
H7A H -0.34320 0.47250 -0.20030
C8A C -0.3707(4) 0.4783(5) -0.3281(4)
H8A H -0.36280 0.48520 -0.36100
C9A C -0.5751(4) 0.5975(4) -0.3116(4)
H9A H -0.57730 0.61210 -0.27710
C10A C -0.5859(4) 0.5928(5) -0.3976(4)
H10A H -0.59690 0.60390 -0.43670
C11A C -0.5820(4) 0.3281(4) -0.3163(4)
H11A H -0.58910 0.31600 -0.28370
C12A C -0.5847(4) 0.3292(4) -0.4010(4)
H12A H -0.59390 0.31800 -0.43970
C13A C -0.5006(6) -0.1290(7) -0.4924(5)
C14A C -0.5412(10) -0.0709(11) -0.5121(10)
C15A C -0.2359(4) 0.1124(5) -0.3457(4)
C16A C -0.1959(4) 0.1596(5) -0.2929(4)
C17A C -0.6931(4) 0.1579(5) -0.2946(4)
C18A C -0.7348(4) 0.1120(5) -0.3482(4)
Zn3D Zn -0.50742(5) 0.53595(5) 0.10269(4)
Zn5B Zn -0.25080(4) 0.54735(6) -0.25192(4)
Zn5C Zn -0.74920(4) 0.54735(6) -0.24808(4)
Zn6F Zn -0.16659(4) 0.29160(5) 0.10982(4)
Zn7* Zn -0.32940(5) 0.71049(5) -0.11199(4)
Zn7A* Zn -0.67060(5) 0.71049(5) -0.38801(4)
Zn7B Zn -0.82940(5) 0.21049(5) -0.11199(4)
Zn7C Zn -0.17060(5) 0.21049(5) -0.38801(4)
Zn7F Zn -0.17060(5) -0.21049(5) 0.11199(4)
N12B N -0.1718(3) -0.0156(4) -0.2271(3)
N12C N -0.8282(3) -0.0156(4) -0.2729(3)
N15* N -0.3970(3) -0.3690(4) -0.1382(3)
N15A* N -0.6030(3) -0.3690(4) -0.3618(3)
O7B O -0.3282(3) -0.2882(3) -0.1961(3)
O7C O -0.6718(3) -0.2882(3) -0.3039(3)
O8B O -0.2635(3) -0.3725(4) -0.1059(3)
O8C O -0.7365(3) -0.3725(4) -0.3941(3)
O13G O -0.6844(3) -0.3029(3) -0.4765(3)
O14A O -0.7492(3) -0.2242(3) -0.4333(3)
O15G O -0.6848(3) 0.1962(3) -0.4795(3)
O16A O -0.7454(3) 0.2756(3) -0.4320(3)
O17E O -0.5272(4) 0.4263(4) -0.4765(3)
O18A O -0.4756(5) 0.5508(4) -0.4378(3)
#END
