
#######################################################################
#
#                 Cambridge Crystallographic Data Centre
#                                CCDC
#
#######################################################################
#
# If this CIF has been generated from an entry in the Cambridge
# Structural Database, then it will include bibliographic, chemical,
# crystal, experimental, refinement or atomic coordinate data resulting
# from the CCDC's data processing and validation procedures.
#
#######################################################################

data_CSD_CIF_OSOLEP
_audit_creation_date 2016-08-19
_audit_creation_method CSD-ConQuest-V1
_database_code_CSD OSOLEP
_database_code_depnum_ccdc_archive 'CCDC 1500023'
_chemical_formula_sum 'C13 H17 N3 O9 U1'
_chemical_formula_moiety
;
(C12 H9 O8 U1 1-)n,C1 H6 N3 1+,H2 O1
;
_journal_coden_Cambridge 9
_journal_volume 55
_journal_year 2016
_journal_page_first 6799
_journal_name_full 'Inorg.Chem. '
loop_
_publ_author_name
"P.Thuery"
"JackHarrowfield"
_chemical_name_systematic
;
catena-[guanidinium 
(\m-2,2',2''-(benzene-1,3,5-triyl)triacetato)-dioxo-uranium]
;
_cell_volume   1744.511
_exptl_crystal_colour 'light yellow'
_exptl_crystal_density_diffrn 2.274
_exptl_crystal_description 'irregular'
_diffrn_ambient_temperature 150
#These two values have been output from a single CSD field.
_refine_ls_R_factor_gt 0.0261
_refine_ls_wR_factor_gt 0.0261
_symmetry_cell_setting monoclinic
_symmetry_space_group_name_H-M 'P 21/n'
_symmetry_Int_Tables_number 14
loop_
_symmetry_equiv_pos_site_id
_symmetry_equiv_pos_as_xyz
1 x,y,z
2 1/2-x,1/2+y,1/2-z
3 -x,-y,-z
4 -1/2+x,-1/2-y,-1/2+z
_cell_length_a 11.5081(7)
_cell_length_b 11.4273(4)
_cell_length_c 13.2728(8)
_cell_angle_alpha 90
_cell_angle_beta 91.889(3)
_cell_angle_gamma 90
_cell_formula_units_Z 4
loop_
_atom_type_symbol
_atom_type_radius_bond
C 0.68
H 0.23
N 0.68
O 0.68
U 1.96
loop_
_atom_site_label
_atom_site_type_symbol
_atom_site_fract_x
_atom_site_fract_y
_atom_site_fract_z
U1 U 0.51266(2) 0.86579(2) 0.77026(2)
O1 O 0.6151(2) 0.8149(3) 0.6825(2)
O2 O 0.4122(2) 0.9188(3) 0.8574(2)
O3 O 0.3736(2) 0.7174(2) 0.70949(19)
O4 O 0.4913(2) 0.6662(3) 0.8349(2)
O5 O 0.8456(2) 0.3196(2) 0.59124(19)
O6 O 0.8365(2) 0.4934(3) 0.6568(2)
O7 O 0.5105(3) 0.0654(2) 0.7012(2)
O8 O 0.3931(2) -0.0579(2) 0.62501(19)
C1 C 0.4295(3) 0.4409(3) 0.6900(3)
C2 C 0.5313(3) 0.4785(3) 0.6444(3)
H1 H 0.56430 0.55230 0.66180
C3 C 0.5840(3) 0.4075(3) 0.5737(3)
C4 C 0.5357(3) 0.2993(3) 0.5481(3)
H2 H 0.57150 0.25140 0.49950
C5 C 0.4343(3) 0.2609(3) 0.5939(3)
C6 C 0.3825(3) 0.3323(3) 0.6640(3)
H3 H 0.31360 0.30660 0.69490
C7 C 0.3660(3) 0.5161(3) 0.7642(3)
H4 H 0.28240 0.51790 0.74450
H5 H 0.37360 0.48010 0.83200
C8 C 0.4113(3) 0.6397(3) 0.7698(3)
C9 C 0.6950(3) 0.4481(4) 0.5248(3)
H6 H 0.70330 0.40810 0.45930
H7 H 0.69140 0.53350 0.51240
C10 C 0.7974(3) 0.4200(3) 0.5938(3)
C11 C 0.3843(3) 0.1420(3) 0.5685(3)
H8 H 0.29880 0.14510 0.57440
H9 H 0.40070 0.12340 0.49750
C12 C 0.4317(3) 0.0457(3) 0.6347(3)
O9 O 0.7900(3) 1.0796(3) 0.5252(3)
H10 H 0.79820 1.13720 0.56460
H11 H 0.72860 1.08150 0.47520
N1 N 0.8672(3) 0.7650(3) 0.6852(3)
H12 H 0.80200 0.80660 0.68680
H13 H 0.88460 0.70880 0.73330
N2 N 0.9257(4) 0.8719(3) 0.5482(3)
H14 H 0.97580 0.88920 0.49800
H15 H 0.87610 0.94090 0.56370
N3 N 1.0252(3) 0.7071(3) 0.5986(3)
H16 H 1.07590 0.72440 0.54650
H17 H 1.03110 0.64480 0.63760
C13 C 0.9384(3) 0.7819(4) 0.6099(3)
U1* U 0.51266(2) -0.13421(2) 0.77026(2)
U1A U 0.98734(2) 0.36579(2) 0.72974(2)
O5A O 0.6544(2) 0.8196(2) 0.90876(19)
O6A O 0.6635(2) 0.9934(3) 0.8432(2)
O7* O 0.5105(3) 1.0654(2) 0.7012(2)
O8* O 0.3931(2) 0.9421(2) 0.62501(19)
#END
