
#######################################################################
#
#                 Cambridge Crystallographic Data Centre
#                                CCDC
#
#######################################################################
#
# If this CIF has been generated from an entry in the Cambridge
# Structural Database, then it will include bibliographic, chemical,
# crystal, experimental, refinement or atomic coordinate data resulting
# from the CCDC's data processing and validation procedures.
#
#######################################################################

data_CSD_CIF_OSOLIT
_audit_creation_date 2016-08-19
_audit_creation_method CSD-ConQuest-V1
_database_code_CSD OSOLIT
_database_code_depnum_ccdc_archive 'CCDC 1500024'
_chemical_formula_sum 'C14 H17 N1 O8 U1'
_chemical_formula_moiety
;
(C12 H9 O8 U1 1-)n,C2 H8 N1 1+
;
_journal_coden_Cambridge 9
_journal_volume 55
_journal_year 2016
_journal_page_first 6799
_journal_name_full 'Inorg.Chem. '
loop_
_publ_author_name
"P.Thuery"
"JackHarrowfield"
_chemical_name_systematic
;
catena-[dimethylammonium 
(\m-2,2',2''-(benzene-1,3,5-triyl)triacetato)-dioxo-uranium]
;
_cell_volume   3409.170
_exptl_crystal_colour 'yellow'
_exptl_crystal_density_diffrn 2.203
_exptl_crystal_description 'irregular'
_diffrn_ambient_temperature 150
#These two values have been output from a single CSD field.
_refine_ls_R_factor_gt 0.0196
_refine_ls_wR_factor_gt 0.0196
_symmetry_cell_setting orthorhombic
_symmetry_space_group_name_H-M 'P b c a'
_symmetry_Int_Tables_number 61
loop_
_symmetry_equiv_pos_site_id
_symmetry_equiv_pos_as_xyz
1 x,y,z
2 1/2-x,-y,1/2+z
3 -x,1/2+y,1/2-z
4 1/2+x,1/2-y,-z
5 -x,-y,-z
6 -1/2+x,y,-1/2-z
7 x,-1/2-y,-1/2+z
8 -1/2-x,-1/2+y,z
_cell_length_a 8.9860(3)
_cell_length_b 17.7983(4)
_cell_length_c 21.3159(7)
_cell_angle_alpha 90
_cell_angle_beta 90
_cell_angle_gamma 90
_cell_formula_units_Z 8
loop_
_atom_type_symbol
_atom_type_radius_bond
C 0.68
H 0.23
N 0.68
O 0.68
U 1.96
loop_
_atom_site_label
_atom_site_type_symbol
_atom_site_fract_x
_atom_site_fract_y
_atom_site_fract_z
U1 U 0.79449(2) 0.65765(2) 0.61580(2)
O1 O 0.6896(2) 0.73629(13) 0.58939(12)
O2 O 0.8978(3) 0.57825(13) 0.63985(11)
O3 O 0.6189(3) 0.63914(13) 0.70023(11)
O4 O 0.5618(3) 0.58497(13) 0.61143(10)
O5 O 0.2418(3) 0.39994(13) 0.49041(11)
O6 O 0.0396(3) 0.33323(14) 0.47596(11)
O7 O 0.4962(3) 0.24734(13) 0.62959(10)
O8 O 0.6357(2) 0.22301(12) 0.71112(10)
C1 C 0.3284(3) 0.50263(18) 0.67917(15)
C2 C 0.2189(3) 0.48913(18) 0.63533(15)
H1 H 0.17360 0.53010 0.61410
C3 C 0.1737(4) 0.41575(19) 0.62171(14)
C4 C 0.2410(4) 0.35663(17) 0.65293(16)
H2 H 0.21000 0.30670 0.64420
C5 C 0.3532(4) 0.36885(18) 0.69690(14)
C6 C 0.3955(4) 0.44227(18) 0.71025(14)
H3 H 0.47060 0.45150 0.74070
C7 C 0.3773(4) 0.58191(18) 0.69493(16)
H4 H 0.30190 0.61770 0.67900
H5 H 0.38160 0.58740 0.74110
C8 C 0.5273(4) 0.60218(17) 0.66765(15)
C9 C 0.0556(3) 0.40061(19) 0.57312(15)
H6 H -0.00440 0.44680 0.56730
H7 H -0.01170 0.36090 0.58910
C10 C 0.1161(4) 0.37638(18) 0.51027(15)
C11 C 0.4284(4) 0.30390(19) 0.72947(15)
H8 H 0.49020 0.32390 0.76410
H9 H 0.35090 0.27150 0.74830
C12 C 0.5250(3) 0.25652(18) 0.68796(15)
N1 N 0.5455(4) 0.35102(17) 0.52140(16)
H10 H 0.463(5) 0.360(2) 0.502(2)
H11 H 0.525(5) 0.312(2) 0.548(2)
C13 C 0.5941(5) 0.4155(2) 0.5599(2)
H12 H 0.67770 0.40020 0.58650
H13 H 0.51140 0.43230 0.58640
H14 H 0.62540 0.45660 0.53240
C14 C 0.6572(5) 0.3283(2) 0.47402(18)
H15 H 0.67860 0.37090 0.44630
H16 H 0.61810 0.28640 0.44920
H17 H 0.74890 0.31260 0.49520
U1D U 0.20551(2) 0.34235(2) 0.38420(2)
U1G U 0.70551(2) 0.15765(2) 0.61580(2)
O5D O 0.7582(3) 0.60006(13) 0.50959(11)
O6D O 0.9604(3) 0.66677(14) 0.52404(11)
O7G O 1.0038(3) 0.74734(13) 0.62959(10)
O8G O 0.8643(2) 0.72301(12) 0.71112(10)
#END
