
#######################################################################
#
#                 Cambridge Crystallographic Data Centre
#                                CCDC
#
#######################################################################
#
# If this CIF has been generated from an entry in the Cambridge
# Structural Database, then it will include bibliographic, chemical,
# crystal, experimental, refinement or atomic coordinate data resulting
# from the CCDC's data processing and validation procedures.
#
#######################################################################

data_CSD_CIF_OTALUS
_audit_creation_date 2016-08-19
_audit_creation_method CSD-ConQuest-V1
_database_code_CSD OTALUS
_database_code_depnum_ccdc_archive 'CCDC 1407146'
_chemical_formula_sum 'C84 H120 F1 N5 O18 P4 Zn4'
_chemical_formula_moiety
;
(C68 H84 F1 N4 O18 P4 Zn4 1-)n,C16 H36 N1 1+
;
_journal_coden_Cambridge 9
_journal_volume 55
_journal_year 2016
_journal_page_first 5180
_journal_name_full 'Inorg.Chem. '
loop_
_publ_author_name
"A.A.Dar"
"G.A.Bhat"
"R.Murugavel"
_chemical_name_systematic
;
catena-[tetra-n-butylammonium 
bis(\m-4-(pyridin-4-yl)pyridin-1-oxide)-tetrakis(\m-2,6-diisopropylphenyl 
phosphato)-(\m-fluoro)-tetra-zinc]
;
_cell_volume  33066.610
_exptl_crystal_colour 'colorless'
_exptl_crystal_density_diffrn 0.659
_exptl_crystal_description 'flakes'
_diffrn_ambient_temperature 150
_refine_special_details
;
The SQUEEZE/PLATON program has been used to model some disorder.

;
#These two values have been output from a single CSD field.
_refine_ls_R_factor_gt 0.0962
_refine_ls_wR_factor_gt 0.0962
_symmetry_cell_setting tetragonal
_symmetry_space_group_name_H-M 'I -4 2 d'
_symmetry_Int_Tables_number 122
loop_
_symmetry_equiv_pos_site_id
_symmetry_equiv_pos_as_xyz
1 x,y,z
2 y,-x,-z
3 -x,-y,z
4 -y,x,-z
5 1/2-x,y,3/4-z
6 1/2-y,-x,3/4+z
7 1/2+x,-y,3/4-z
8 1/2+y,x,3/4+z
9 1/2+x,1/2+y,1/2+z
10 1/2+y,1/2-x,1/2-z
11 1/2-x,1/2-y,1/2+z
12 1/2-y,1/2+x,1/2-z
13 -x,1/2+y,1/4-z
14 -y,1/2-x,1/4+z
15 x,1/2-y,1/4-z
16 y,1/2+x,1/4+z
_cell_length_a 27.581(5)
_cell_length_b 27.581(5)
_cell_length_c 43.468(8)
_cell_angle_alpha 90
_cell_angle_beta 90
_cell_angle_gamma 90
_cell_formula_units_Z 8
loop_
_atom_type_symbol
_atom_type_radius_bond
C 0.68
H 0.23
F 0.64
N 0.68
O 0.68
P 1.05
Zn 1.22
loop_
_atom_site_label
_atom_site_type_symbol
_atom_site_fract_x
_atom_site_fract_y
_atom_site_fract_z
C1 C 0.2214(3) 0.2397(3) 0.27654(18)
C2 C 0.2002(4) 0.2589(4) 0.25041(17)
C3 C 0.1615(4) 0.2354(4) 0.2367(2)
H1 H 0.14690 0.24860 0.21880
C4 C 0.1440(4) 0.1926(5) 0.2491(3)
H2 H 0.11750 0.17640 0.23970
C5 C 0.1653(4) 0.1733(4) 0.2752(3)
H3 H 0.15330 0.14400 0.28370
C6 C 0.2040(4) 0.1969(3) 0.2890(2)
C7 C 0.2273(6) 0.1681(4) 0.3175(4)
H4 H 0.25620 0.18830 0.32290
C8 C 0.2046(17) 0.1566(9) 0.3492(7)
H5 H 0.22880 0.14040 0.36220
H6 H 0.17660 0.13520 0.34640
H7 H 0.19420 0.18680 0.35900
C9 C 0.2499(11) 0.1236(4) 0.3020(6)
H8 H 0.26820 0.10490 0.31730
H9 H 0.27180 0.13420 0.28550
H10 H 0.22420 0.10330 0.29330
C10 C 0.2210(6) 0.3049(7) 0.2368(3)
H11 H 0.25430 0.31310 0.24430
C11 C 0.184(1) 0.3439(10) 0.2423(6)
H12 H 0.17780 0.34680 0.26440
H13 H 0.15380 0.33550 0.23170
H14 H 0.19620 0.37480 0.23440
C12 C 0.2175(10) 0.2992(11) 0.2017(4)
H15 H 0.24120 0.27510 0.19470
H16 H 0.22420 0.33040 0.19180
H17 H 0.18480 0.28840 0.19620
C13 C 0.3857(2) 0.49377(17) 0.40065(12)
C14 C 0.3718(3) 0.5374(2) 0.38898(15)
C15 C 0.3724(4) 0.5775(2) 0.40712(19)
H18 H 0.36270 0.60790 0.39900
C16 C 0.3869(3) 0.5741(2) 0.43694(18)
H19 H 0.38740 0.60210 0.44960
C17 C 0.4009(2) 0.5305(2) 0.44862(15)
H20 H 0.41100 0.52810 0.46940
C18 C 0.4003(2) 0.49035(17) 0.43047(13)
C19 C 0.4158(4) 0.4414(4) 0.4427(2)
H21 H 0.40830 0.41540 0.42740
C20 C 0.3943(13) 0.4288(8) 0.4741(5)
H22 H 0.35890 0.42850 0.47260
H23 H 0.40450 0.45310 0.48920
H24 H 0.40590 0.39670 0.48050
C21 C 0.4670(5) 0.4363(7) 0.4542(6)
H25 H 0.47230 0.40300 0.46120
H26 H 0.47230 0.45880 0.47130
H27 H 0.48970 0.44380 0.43750
C22 C 0.4316(4) 0.2209(3) 0.4125(2)
H28 H 0.43240 0.19630 0.39730
C23 C 0.4610(4) 0.2169(4) 0.4377(2)
H29 H 0.48360 0.19100 0.43940
C24 C 0.4571(3) 0.2524(3) 0.46139(16)
C25 C 0.4890(3) 0.2477(3) 0.48963(17)
C26 C 0.4251(3) 0.2887(3) 0.45782(19)
H30 H 0.42130 0.31220 0.47360
C27 C 0.3977(3) 0.2916(3) 0.4312(2)
H31 H 0.37550 0.31770 0.42860
C28 C 0.5064(2) 0.2686(3) 0.54157(17)
H32 H 0.49700 0.28550 0.55970
C29 C 0.4757(3) 0.2685(3) 0.5167(2)
H33 H 0.44470 0.28330 0.51840
C30 C 0.5317(4) 0.2234(4) 0.4888(2)
H34 H 0.54140 0.20640 0.47080
C31 C 0.5616(3) 0.2237(4) 0.51506(17)
H35 H 0.59200 0.20760 0.51420
F1 F 0.25000 0.35635(14) 0.37500
N1 N 0.4022(3) 0.2584(2) 0.40904(16)
N2 N 0.5486(2) 0.2459(3) 0.54115(12)
O1 O 0.3850(2) 0.4533(2) 0.38200(14)
O2 O 0.35572(19) 0.36703(17) 0.38072(13)
O3 O 0.3163(2) 0.4293(2) 0.34766(13)
O4 O 0.3047(2) 0.4327(2) 0.40489(12)
O5 O 0.2629(3) 0.2601(2) 0.28883(14)
O6 O 0.3013(2) 0.28113(18) 0.33846(12)
O7 O 0.2632(3) 0.34626(18) 0.30674(10)
O8 O 0.2105(2) 0.2850(2) 0.33312(15)
O9 O 0.3764(2) 0.2635(2) 0.38316(13)
P1 P 0.33592(8) 0.41791(7) 0.37871(4)
P2 P 0.25889(9) 0.29618(7) 0.31924(4)
Zn1 Zn 0.31648(3) 0.30863(3) 0.378068(18)
Zn2 Zn 0.25624(3) 0.40563(3) 0.330495(16)
C32 C 0.3565(10) 0.5428(6) 0.3555(4)
H36 H 0.35910 0.51070 0.34500
C33 C 0.3031(11) 0.5588(9) 0.3560(6)
H37 H 0.29150 0.56280 0.33480
H38 H 0.30020 0.58970 0.36690
H39 H 0.28360 0.53410 0.36640
C34 C 0.3931(17) 0.5791(13) 0.3404(7)
H40 H 0.42620 0.56680 0.34300
H41 H 0.39030 0.61080 0.35050
H42 H 0.38570 0.58240 0.31850
C1D C 0.2786(3) 0.2397(3) 0.47346(18)
C2D C 0.2998(4) 0.2589(4) 0.49959(17)
C3D C 0.3385(4) 0.2354(4) 0.5133(2)
H1D H 0.35310 0.24860 0.53120
C4D C 0.3560(4) 0.1926(5) 0.5009(3)
H2D H 0.38250 0.17640 0.51030
C5D C 0.3347(4) 0.1733(4) 0.4748(3)
H3D H 0.34670 0.14400 0.46630
C6D C 0.2960(4) 0.1969(3) 0.4610(2)
C7D C 0.2727(6) 0.1681(4) 0.4325(4)
H4D H 0.24380 0.18830 0.42710
C8D C 0.2954(17) 0.1566(9) 0.4008(7)
H5D H 0.27120 0.14040 0.38780
H6D H 0.32340 0.13520 0.40360
H7D H 0.30580 0.18680 0.39100
C9D C 0.2501(11) 0.1236(4) 0.4480(6)
H8D H 0.23180 0.10490 0.43270
H9D H 0.22820 0.13420 0.46450
H10D H 0.27580 0.10330 0.45670
C10D C 0.2790(6) 0.3049(7) 0.5132(3)
H11D H 0.24570 0.31310 0.50570
C11D C 0.316(1) 0.3439(10) 0.5077(6)
H12D H 0.32220 0.34680 0.48560
H13D H 0.34620 0.33550 0.51830
H14D H 0.30380 0.37480 0.51560
C12D C 0.2825(10) 0.2992(11) 0.5483(4)
H15D H 0.25880 0.27510 0.55530
H16D H 0.27580 0.33040 0.55820
H17D H 0.31520 0.28840 0.55380
C13D C 0.1143(2) 0.49377(17) 0.34935(12)
C14D C 0.1282(3) 0.5374(2) 0.36102(15)
C15D C 0.1276(4) 0.5775(2) 0.34288(19)
H18D H 0.13730 0.60790 0.35100
C16D C 0.1131(3) 0.5741(2) 0.31306(18)
H19D H 0.11260 0.60210 0.30040
C17D C 0.0991(2) 0.5305(2) 0.30138(15)
H20D H 0.08900 0.52810 0.28060
C18D C 0.0997(2) 0.49035(17) 0.31953(13)
C19D C 0.0842(4) 0.4414(4) 0.3073(2)
H21D H 0.09170 0.41540 0.32260
C20D C 0.1057(13) 0.4288(8) 0.2759(5)
H22D H 0.14110 0.42850 0.27740
H23D H 0.09550 0.45310 0.26080
H24D H 0.09410 0.39670 0.26950
C21D C 0.0330(5) 0.4363(7) 0.2958(6)
H25D H 0.02770 0.40300 0.28880
H26D H 0.02770 0.45880 0.27870
H27D H 0.01030 0.44380 0.31250
C22D C 0.0684(4) 0.2209(3) 0.3375(2)
H28D H 0.06760 0.19630 0.35270
C23D C 0.0390(4) 0.2169(4) 0.3123(2)
H29D H 0.01640 0.19100 0.31060
C24D C 0.0429(3) 0.2524(3) 0.28861(16)
C25D C 0.0110(3) 0.2477(3) 0.26037(17)
C26D C 0.0749(3) 0.2887(3) 0.29218(19)
H30D H 0.07870 0.31220 0.27640
C27D C 0.1023(3) 0.2916(3) 0.3188(2)
H31D H 0.12450 0.31770 0.32140
C28D C -0.0064(2) 0.2686(3) 0.20843(17)
H32D H 0.00300 0.28550 0.19030
C29D C 0.0243(3) 0.2685(3) 0.2333(2)
H33D H 0.05530 0.28330 0.23160
C30D C -0.0317(4) 0.2234(4) 0.2612(2)
H34D H -0.04140 0.20640 0.27920
C31D C -0.0616(3) 0.2237(4) 0.23494(17)
H35D H -0.09200 0.20760 0.23580
N1D N 0.0978(3) 0.2584(2) 0.34096(16)
N2D N -0.0486(2) 0.2459(3) 0.20885(12)
O1D O 0.1150(2) 0.4533(2) 0.36800(14)
O2D O 0.14428(19) 0.36703(17) 0.36928(13)
O3D O 0.1837(2) 0.4293(2) 0.40234(13)
O4D O 0.1953(2) 0.4327(2) 0.34511(12)
O5D O 0.2371(3) 0.2601(2) 0.46117(14)
O6D O 0.1987(2) 0.28113(18) 0.41154(12)
O7D O 0.2368(3) 0.34626(18) 0.44326(10)
O8D O 0.2895(2) 0.2850(2) 0.41688(15)
O9D O 0.1236(2) 0.2635(2) 0.36684(13)
P1D P 0.16408(8) 0.41791(7) 0.37129(4)
P2D P 0.24111(9) 0.29618(7) 0.43076(4)
Zn1D Zn 0.18352(3) 0.30863(3) 0.371932(18)
Zn2D Zn 0.24376(3) 0.40563(3) 0.419505(16)
C32D C 0.1435(10) 0.5428(6) 0.3945(4)
H36D H 0.14090 0.51070 0.40500
C33D C 0.1969(11) 0.5588(9) 0.3940(6)
H37D H 0.20850 0.56280 0.41520
H38D H 0.19980 0.58970 0.38310
H39D H 0.21640 0.53410 0.38360
C34D C 0.1069(17) 0.5791(13) 0.4096(7)
H40D H 0.07380 0.56680 0.40700
H41D H 0.10970 0.61080 0.39950
H42D H 0.11430 0.58240 0.43150
N2A N 0.2459(2) 0.4514(3) 0.45885(12)
N2E N 0.2541(2) 0.4514(3) 0.29115(12)
Zn2I Zn -0.09437(3) 0.24376(3) 0.169505(16)
Zn2M Zn 0.59437(3) 0.24376(3) 0.580495(16)
#END
