
#######################################################################
#
#                 Cambridge Crystallographic Data Centre
#                                CCDC
#
#######################################################################
#
# If this CIF has been generated from an entry in the Cambridge
# Structural Database, then it will include bibliographic, chemical,
# crystal, experimental, refinement or atomic coordinate data resulting
# from the CCDC's data processing and validation procedures.
#
#######################################################################

data_CSD_CIF_OTENEH
_audit_creation_date 2011-08-22
_audit_creation_method CSD-ConQuest-V1
_database_code_CSD OTENEH
_database_code_depnum_ccdc_archive 'CCDC 797452'
_chemical_formula_sum 'C24 H54 N30 O35 Pr4'
_chemical_formula_moiety
;
(C14 H22 N28 O25 Pr4 2-)n,10n(H2 O1),2n(C5 H6 N1 1+)
;
_journal_coden_Cambridge 1147
_journal_volume 11
_journal_year 2011
_journal_page_first 372
_journal_name_full 'Cryst.Growth Des. '
loop_
_publ_author_name
"Mei-Feng Wu"
"Ming-Sheng Wang"
"Sheng-Ping Guo"
"Fa-Kun Zheng"
"Hui-Fen Chen"
"Xiao-Ming Jiang"
"Guang-Ning Liu"
"Guo-Cong Guo"
"Jin-Shun Huang"
_chemical_name_systematic
;
catena-((\m~3~-tetrazolate-5-carboxylato)-hexakis(\m~2~-tetrazolate-5-carboxyl
ato)-undecaaqua-tetra-praseodymium dipyridinium decahydrate)
;
_cell_volume   6067.336
_exptl_crystal_colour 'green'
_exptl_crystal_density_diffrn 2.065
_exptl_crystal_description 'block'
_diffrn_ambient_temperature 293
_refine_special_details
;
C31,C32,N31,N32,N33,N34,O31,O32 and C31S,C32S,N31S, N32S,N33S,N34S,O31S,O32S 
disordered over two sites with occupancies 0.80:0.20; The SQUEEZE/PLATON 
program has been used. Due to disorder, the pyridinium ions have been 
modelled as benzene molecules.
;
#These two values have been output from a single CSD field.
_refine_ls_R_factor_gt 0.064
_refine_ls_wR_factor_gt 0.064
_symmetry_cell_setting monoclinic
_symmetry_space_group_name_H-M 'P 21/c'
_symmetry_Int_Tables_number 14
loop_
_symmetry_equiv_pos_site_id
_symmetry_equiv_pos_as_xyz
1 x,y,z
2 -x,1/2+y,1/2-z
3 -x,-y,-z
4 x,-1/2-y,-1/2+z
_cell_length_a 17.086(7)
_cell_length_b 21.121(8)
_cell_length_c 17.030(6)
_cell_angle_alpha 90
_cell_angle_beta 99.158(6)
_cell_angle_gamma 90
_cell_formula_units_Z 4
loop_
_atom_type_symbol
_atom_type_radius_bond
C 0.68
H 0.23
N 0.68
O 0.68
Pr 2.03
loop_
_atom_site_label
_atom_site_type_symbol
_atom_site_fract_x
_atom_site_fract_y
_atom_site_fract_z
Pr1 Pr 0.270451(10) 0.548315(7) 0.462236(10)
Pr2 Pr 0.250988(10) 0.416754(7) 0.129466(10)
Pr3 Pr 0.36069(1) 0.356191(7) 0.517342(10)
Pr4 Pr 0.12713(1) 0.841270(7) 0.43771(1)
O1 O 0.0437(6) 0.4763(5) 0.5627(6)
O2 O 0.3529(3) 0.4785(3) -0.1252(3)
O3 O -0.5497(3) 0.3719(2) -0.1548(3)
O4 O -0.0722(4) 0.4731(3) 0.2901(4)
O5 O -0.0248(3) 0.3391(2) 0.3348(3)
O6 O -0.3813(2) 0.4056(2) -0.0742(3)
O7 O -0.0411(3) 0.4745(3) -0.2209(3)
O8 O 0.1179(2) 0.3836(2) 0.3513(2)
O9 O 0.19965(13) 0.31618(9) 0.07211(12)
H1 H 0.1831(5) 0.28338(19) 0.0933(3)
H2 H 0.1785(7) 0.3134(6) 0.02367(19)
O10 O 0.30864(13) 0.45771(10) 0.56945(13)
O11 O 0.38030(13) 0.47222(11) 0.16722(14)
H3 H 0.4183(3) 0.4601(3) 0.2024(3)
H4 H 0.3987(4) 0.50447(18) 0.1465(3)
O12 O 0.35455(18) 0.32695(10) 0.65338(13)
H5 H 0.3394(5) 0.29212(16) 0.6711(5)
H6 H 0.3445(6) 0.35403(19) 0.6873(3)
O13 O 0.3291(3) 0.43613(19) 0.7013(2)
O14 O 0.27429(12) 0.84194(11) 0.46052(15)
H7 H 0.3056(4) 0.8646(2) 0.4929(3)
H8 H 0.3058(3) 0.8201(2) 0.4373(3)
O15 O 0.21519(12) 0.34523(13) 0.48901(12)
H9 H 0.1850(4) 0.3513(8) 0.4449(2)
H10 H 0.1839(3) 0.3383(7) 0.5221(2)
O16 O 0.14973(13) 0.48318(10) 0.45842(14)
H11 H 0.1408(6) 0.45205(19) 0.4872(3)
H12 H 0.1087(3) 0.4856(6) 0.4231(3)
O17 O 0.21379(15) 0.56024(9) 0.32447(12)
H13 H 0.2275(4) 0.53306(19) 0.2923(3)
H14 H 0.1977(6) 0.59161(17) 0.2950(4)
O18 O 0.30720(14) 0.66053(10) 0.45885(14)
H15 H 0.3411(3) 0.6796(3) 0.4924(3)
H16 H 0.2954(7) 0.6860(2) 0.4204(2)
O19 O 0.13927(12) 0.94681(9) 0.37099(13)
H17 H 0.1119(3) 0.9774(2) 0.3844(4)
H18 H 0.1702(2) 0.9638(4) 0.3427(3)
O20 O 0.27314(11) 0.46939(10) 0.00450(13)
H19 H 0.3106(2) 0.4739(6) -0.0223(3)
H20 H 0.2430(3) 0.50089(19) -0.0079(8)
O21 O 0.16089(12) 0.81213(11) 0.30931(12)
H21 H 0.1303(3) 0.8018(6) 0.2669(3)
H22 H 0.2033(2) 0.7920(3) 0.3058(7)
O22 O 0.15134(13) 0.62142(10) 0.45223(14)
O23 O 0.17378(12) 0.72637(10) 0.44611(14)
O24 O 0.53244(5) 0.59801(12) 0.55525(2)
O25 O 0.40700(7) 0.56715(9) 0.54773(2)
O26 O 0.32370(12) 0.25939(10) 0.02724(14)
O27 O 0.35579(14) 0.35651(11) 0.07285(15)
O28 O 0.29885(12) 0.43656(10) 0.40623(12)
O29 O 0.26878(13) 0.45313(10) 0.27511(13)
O30 O 0.12757(12) 0.38756(11) 0.18954(13)
O31 O -0.00108(13) 0.35781(11) 0.16640(14)
O32 O 0.18685(12) 0.57337(10) 0.03036(12)
O33 O 0.21168(13) 0.52889(10) 0.15000(13)
N1 N 0.24399(18) 0.57259(14) 0.60167(18)
N2 N 0.2152(2) 0.62274(18) 0.6377(2)
N3 N 0.2245(3) 0.6090(2) 0.7143(3)
N4 N 0.2637(3) 0.5537(2) 0.7302(3)
N5 N -0.0124(2) 0.65222(16) 0.4586(2)
N6 N -0.0775(2) 0.69060(17) 0.4573(2)
N7 N -0.05596(18) 0.74976(15) 0.4526(2)
N8 N 0.02176(15) 0.75246(13) 0.45026(17)
N9 N 0.51833(17) 0.59123(14) 0.39205(17)
N10 N 0.4874(3) 0.5786(2) 0.3102(3)
N11 N 0.4161(3) 0.5569(2) 0.3050(3)
N12 N 0.39520(18) 0.55475(15) 0.38577(19)
N13 N 0.47621(17) 0.22759(14) 0.03480(18)
N14 N 0.55514(18) 0.22837(15) 0.0410(2)
N15 N 0.5823(2) 0.28524(17) 0.0619(2)
N16 N 0.5200(2) 0.32417(17) 0.0655(2)
N17 N 0.34283(16) 0.31052(12) 0.37097(16)
N18 N 0.35629(19) 0.25992(14) 0.32847(19)
N19 N 0.33568(19) 0.27195(14) 0.25321(18)
N20 N 0.30928(18) 0.33266(14) 0.24407(18)
N21 N 0.11382(16) 0.43551(13) 0.03607(16)
N22 N 0.08272(16) 0.45036(13) -0.04034(16)
N23 N 0.00732(16) 0.43103(13) -0.05482(17)
N24 N -0.01177(16) 0.40375(13) 0.01109(16)
N25 N 0.13740(16) 0.68224(12) 0.08899(16)
N26 N 0.1184(2) 0.72868(15) 0.13719(19)
N27 N 0.1342(2) 0.70776(17) 0.2112(2)
N28 N 0.1612(2) 0.64817(16) 0.2123(2)
C1 C 0.2707(3) 0.5313(2) 0.6580(3)
C2 C 0.3038(3) 0.47048(19) 0.6420(2)
C3 C 0.04581(19) 0.69309(15) 0.4535(2)
C4 C 0.12959(18) 0.67744(14) 0.45120(18)
C5 C 0.46042(18) 0.57447(15) 0.42889(19)
C6 C 0.46619(17) 0.57960(14) 0.51533(18)
C7 C 0.45589(19) 0.28582(15) 0.0489(2)
C8 C 0.37216(18) 0.30399(14) 0.04934(19)
C9 C 0.31567(18) 0.35450(14) 0.31716(18)
C10 C 0.29197(17) 0.42002(14) 0.33313(18)
C11 C 0.05380(18) 0.40736(14) 0.06548(19)
C12 C 0.06122(18) 0.38294(15) 0.14643(19)
C13 C 0.1644(2) 0.63432(16) 0.1373(2)
C14 C 0.18934(18) 0.57318(14) 0.10556(19)
C15 C 0.55225(9) 0.34068(7) 0.30911(9)
H23 H 0.53000 0.38020 0.31500
C16 C 0.52033(11) 0.30157(8) 0.24648(10)
H24 H 0.47670 0.31500 0.21050
C17 C 0.55354(15) 0.24243(9) 0.23763(13)
H25 H 0.53220 0.21630 0.19570
C18 C 0.61867(15) 0.22240(8) 0.29142(17)
H26 H 0.64090 0.18280 0.28550
C19 C 0.65060(12) 0.2615(1) 0.35405(16)
H27 H 0.69420 0.24810 0.39000
C20 C 0.61739(10) 0.32064(9) 0.36289(11)
H28 H 0.63870 0.34680 0.40480
C21 C 0.11260(9) 0.11669(7) 0.25105(9)
H29 H 0.09560 0.08590 0.21310
C22 C 0.06664(11) 0.17031(8) 0.25666(11)
H30 H 0.01890 0.17540 0.22240
C23 C 0.09201(16) 0.21629(8) 0.31341(14)
H31 H 0.06130 0.25220 0.31720
C24 C 0.16334(17) 0.20866(10) 0.36456(13)
H32 H 0.18030 0.23940 0.40250
C25 C 0.20930(13) 0.15505(11) 0.35895(12)
H33 H 0.25700 0.14990 0.39320
C26 C 0.18393(10) 0.10906(9) 0.30220(11)
H34 H 0.21470 0.07320 0.29850
C27? C 0.53381(17) 0.42040(14) 0.48467(18)
C28? C 0.53958(18) 0.42553(15) 0.57111(19)
N29? N 0.46756(5) 0.40199(12) 0.44475(2)
N30? N 0.486223(18) 0.40546(5) 0.36895(2)
N31? N 0.55933(2) 0.42383(5) 0.37258(2)
N32? N 0.59300(7) 0.43285(9) 0.45227(2)
O34? O 0.48167(17) 0.40877(14) 0.60795(17)
O35? O 0.60480(18) 0.44525(15) 0.61423(19)
Pr3B Pr 0.63931(1) 0.643809(7) 0.482658(10)
Pr3C Pr 0.36069(1) 0.143809(7) 0.017342(10)
Pr4A Pr -0.12713(1) 0.341270(7) 0.06229(1)
Pr4C Pr 0.12713(1) 0.658730(7) -0.06229(1)
O24B O 0.46756(5) 0.40199(12) 0.44475(2)
O26C O 0.32370(12) 0.24061(10) 0.52724(14)
O31A O 0.00108(13) 0.85781(11) 0.33360(14)
O32C O 0.18685(12) 0.92663(10) 0.53036(12)
N9B N 0.48167(17) 0.40877(14) 0.60795(17)
N13C N 0.47621(17) 0.27241(14) 0.53480(18)
N24A N 0.01177(16) 0.90375(13) 0.48891(16)
N25C N 0.13740(16) 0.81776(12) 0.58899(16)
#END
