
#######################################################################
#
#                 Cambridge Crystallographic Data Centre
#                                CCDC
#
#######################################################################
#
# If this CIF has been generated from an entry in the Cambridge
# Structural Database, then it will include bibliographic, chemical,
# crystal, experimental, refinement or atomic coordinate data resulting
# from the CCDC's data processing and validation procedures.
#
#######################################################################

data_CSD_CIF_OTEROV
_audit_creation_date 2011-08-21
_audit_creation_method CSD-ConQuest-V1
_database_code_CSD OTEROV
_database_code_depnum_ccdc_archive 'CCDC 790203'
_chemical_formula_sum 'C14 H72 As4 Cu2 Mo18 N14 O72'
_chemical_formula_moiety
;
(C8 H34 As4 Cu2 Mo18 N8 O68 6-)n,3n(C2 H10 N2 2+),4n(H2 O1)
;
_journal_coden_Cambridge 1147
_journal_volume 11
_journal_year 2011
_journal_page_first 436
_journal_name_full 'Cryst.Growth Des. '
loop_
_publ_author_name
"Qiuxia Han"
"Pengtao Ma"
"Junwei Zhao"
"Ziliang Wang"
"Wenhua Yang"
"Penghu Guo"
"Jingping Wang"
"Jingyang Niu"
_chemical_name_systematic
;
catena-(bis(\m~9~-arsenato)-bis(\m~4~-arsenito)-octacosakis(\m~2~-oxo)-bis(1,2
-diaminoethane)-bis(2-aminoethylammonium)-hexatriacontaoxo-octadeca-molybdenum
-di-copper tris(ethane-1,2-diammonium) tetrahydrate)
;
_cell_volume   3975.883
_exptl_crystal_colour 'black green'
_exptl_crystal_density_diffrn 3.123
_exptl_crystal_description 'block'
_diffrn_ambient_temperature 296
#These two values have been output from a single CSD field.
_refine_ls_R_factor_gt 0.032
_refine_ls_wR_factor_gt 0.032
_symmetry_cell_setting monoclinic
_symmetry_space_group_name_H-M 'P 21/c'
_symmetry_Int_Tables_number 14
loop_
_symmetry_equiv_pos_site_id
_symmetry_equiv_pos_as_xyz
1 x,y,z
2 -x,1/2+y,1/2-z
3 -x,-y,-z
4 x,-1/2-y,-1/2+z
_cell_length_a 18.847(3)
_cell_length_b 10.0522(16)
_cell_length_c 21.042(3)
_cell_angle_alpha 90
_cell_angle_beta 94.180(2)
_cell_angle_gamma 90
_cell_formula_units_Z 2
loop_
_atom_type_symbol
_atom_type_radius_bond
C 0.68
H 0.23
As 1.21
Cu 1.32
Mo 1.40
N 0.68
O 0.68
loop_
_atom_site_label
_atom_site_type_symbol
_atom_site_fract_x
_atom_site_fract_y
_atom_site_fract_z
Mo1 Mo 0.36969(2) -0.63707(4) 0.339978(19)
Mo2 Mo 0.40517(2) -0.87331(4) 0.453808(19)
Mo3 Mo 0.27464(2) -0.65096(4) 0.484623(19)
Mo4 Mo 0.09033(2) -0.68374(4) 0.37419(2)
Mo5 Mo 0.17509(2) -0.67419(4) 0.239787(19)
Mo6 Mo 0.32390(2) -0.91387(4) 0.215064(19)
Mo7 Mo 0.37278(2) -1.14153(4) 0.32523(2)
Mo8 Mo 0.27607(2) -1.15647(4) 0.47465(2)
Mo9 Mo 0.13974(2) -0.95104(4) 0.496898(19)
As1 As 0.24033(3) -0.89794(5) 0.36132(2)
As2 As 0.23650(3) -0.48398(5) 0.36588(2)
Cu1 Cu 0.03204(4) -0.70237(7) 0.11117(3)
O1 O 0.4164(2) -0.5074(4) 0.31153(17)
O2 O 0.4833(2) -0.8698(4) 0.49941(18)
O3 O 0.2668(2) -0.5251(4) 0.53729(16)
O4 O 0.0205(2) -0.7529(4) 0.33058(19)
O5 O 0.1850(2) -0.5425(4) 0.18945(17)
O6 O 0.3712(2) -0.8427(4) 0.15722(17)
O7 O 0.4521(2) -1.2229(4) 0.33785(17)
O8 O 0.3254(2) -1.2380(4) 0.53365(17)
O9 O 0.0822(2) -1.0750(4) 0.47343(18)
O10 O 0.0514(2) -0.5590(4) 0.41572(18)
O11 O 0.10227(19) -0.7567(4) 0.20497(16)
O12 O 0.2795(2) -1.0417(4) 0.17622(17)
O13 O 0.3235(2) -1.2504(4) 0.27762(17)
O14 O 0.2100(2) -1.2686(4) 0.45342(17)
O15 O 0.1050(2) -0.8906(4) 0.56532(17)
O16 O 0.22129(19) -0.7802(4) 0.51102(16)
O17 O 0.1039(2) -0.8169(4) 0.43758(17)
O18 O 0.3290(2) -1.1712(4) 0.40279(17)
O19 O 0.31986(19) -0.5294(3) 0.41153(15)
O20 O 0.37149(19) -0.7600(4) 0.28130(16)
O21 O 0.36393(19) -0.7120(3) 0.50573(15)
O22 O 0.41809(19) -0.9726(3) 0.38653(16)
O23 O 0.24716(19) -0.7885(4) 0.21609(16)
O24 O 0.34618(19) -0.9806(3) 0.49369(16)
O25 O 0.12616(19) -0.5796(4) 0.30476(15)
O26 O 0.21551(19) -1.0554(3) 0.53275(15)
O27 O 0.3976(2) -1.0207(3) 0.25844(16)
O28 O 0.19576(18) -0.6018(3) 0.41675(16)
O29 O 0.26649(18) -0.5927(3) 0.30553(15)
O30 O 0.43025(18) -0.7040(3) 0.40148(16)
O31 O 0.30118(17) -0.7927(3) 0.39797(15)
O32 O 0.17161(18) -0.8130(3) 0.32567(15)
O33 O 0.28026(19) -0.9881(3) 0.30728(15)
O34 O 0.21026(18) -0.9991(3) 0.41732(15)
N1 N 0.0069(3) -0.5348(5) 0.1528(2)
H1 H -0.01510 -0.47950 0.12410
H2 H 0.04650 -0.49430 0.16970
N2 N -0.0530(3) -0.7787(6) 0.1509(3)
H3 H -0.03870 -0.83920 0.18060
H4 H -0.08170 -0.81950 0.12090
N3 N 0.0548(3) -0.8680(5) 0.0645(2)
H5 H 0.06910 -0.84430 0.02620
H6 H 0.01440 -0.91500 0.05750
N4 N 0.1750(3) -1.1686(5) 0.0847(2)
H7 H 0.17710 -1.24370 0.06250
H8 H 0.21530 -1.12340 0.08240
H9 H 0.16900 -1.18780 0.12530
C1 C -0.0406(4) -0.5659(7) 0.2033(3)
H10 H -0.01290 -0.59670 0.24110
H11 H -0.06630 -0.48660 0.21440
C2 C -0.0916(4) -0.6707(8) 0.1802(3)
H12 H -0.12660 -0.63330 0.14920
H13 H -0.11630 -0.70520 0.21550
C3 C 0.1096(3) -0.9577(6) 0.0952(3)
H14 H 0.15540 -0.91320 0.09760
H15 H 0.09790 -0.97720 0.13840
C4 C 0.1146(3) -1.0874(7) 0.0582(3)
H16 H 0.12080 -1.06780 0.01380
H17 H 0.07080 -1.13720 0.06030
N5 N 0.3132(3) -0.5859(5) 0.1193(2)
H18 H 0.33820 -0.64280 0.10020
H19 H 0.26760 -0.59000 0.11520
N6 N 0.4662(3) -0.3923(5) 0.1980(2)
H20 H 0.44230 -0.33430 0.21760
H21 H 0.51190 -0.39030 0.20130
C5 C 0.3489(3) -0.4806(6) 0.1594(3)
H22 H 0.33510 -0.48800 0.20280
H23 H 0.33450 -0.39360 0.14320
C6 C 0.4286(3) -0.4953(7) 0.1586(3)
H24 H 0.44270 -0.58260 0.17470
H25 H 0.44210 -0.48840 0.11510
N7 N 0.5209(2) -0.4172(5) 0.4243(2)
H26 H 0.49880 -0.35380 0.40090
H27 H 0.52370 -0.49060 0.40090
H28 H 0.56460 -0.38990 0.43710
C7 C 0.4806(3) -0.4459(5) 0.4806(2)
H29 H 0.43280 -0.47510 0.46700
H30 H 0.47720 -0.36620 0.50620
O35 O 0.4158(2) -1.1592(4) 0.1309(2)
O36 O 0.1885(3) -0.2709(5) 0.2054(2)
Mo1C Mo 0.36969(2) -0.86293(4) -0.160022(19)
Mo2C Mo 0.40517(2) -0.62669(4) -0.046192(19)
Mo3C Mo 0.27464(2) -0.84904(4) -0.015377(19)
Mo4C Mo 0.09033(2) -0.81626(4) -0.12581(2)
Mo5C Mo 0.17509(2) -0.82581(4) -0.260213(19)
Mo6C Mo 0.32390(2) -0.58613(4) -0.284936(19)
Mo7C Mo 0.37278(2) -0.35847(4) -0.17477(2)
Mo8C Mo 0.27607(2) -0.34353(4) -0.02535(2)
Mo9C Mo 0.13974(2) -0.54896(4) -0.003102(19)
As1C As 0.24033(3) -0.60206(5) -0.13868(2)
As2C As 0.23650(3) -1.01602(5) -0.13412(2)
Cu1C Cu 0.03204(4) -0.79763(7) -0.38883(3)
Cu1C* Cu 0.03204(4) -0.79763(7) 0.61117(3)
O1C O 0.4164(2) -0.9926(4) -0.18847(17)
O2C O 0.4833(2) -0.6302(4) -0.00059(18)
O3C O 0.2668(2) -0.9749(4) 0.03729(16)
O4C O 0.0205(2) -0.7471(4) -0.16942(19)
O5C O 0.1850(2) -0.9575(4) -0.31055(17)
O6C O 0.3712(2) -0.6573(4) -0.34278(17)
O7C O 0.4521(2) -0.2771(4) -0.16215(17)
O8C O 0.3254(2) -0.2620(4) 0.03365(17)
O9C O 0.0822(2) -0.4250(4) -0.02657(18)
O10C O 0.0514(2) -0.9410(4) -0.08428(18)
O11C O 0.10227(19) -0.7433(4) -0.29503(16)
O12C O 0.2795(2) -0.4583(4) -0.32378(17)
O13C O 0.3235(2) -0.2496(4) -0.22238(17)
O14C O 0.2100(2) -0.2314(4) -0.04658(17)
O15C O 0.1050(2) -0.6094(4) 0.06532(17)
O15* O 0.1050(2) -0.8906(4) -0.43468(17)
O16C O 0.22129(19) -0.7198(4) 0.01102(16)
O17C O 0.1039(2) -0.6831(4) -0.06242(17)
O18C O 0.3290(2) -0.3288(4) -0.09721(17)
O19C O 0.31986(19) -0.9706(3) -0.08847(15)
O20C O 0.37149(19) -0.7400(4) -0.21870(16)
O21C O 0.36393(19) -0.7880(3) 0.00573(15)
O22C O 0.41809(19) -0.5274(3) -0.11347(16)
O23C O 0.24716(19) -0.7115(4) -0.28391(16)
O24C O 0.34618(19) -0.5194(3) -0.00631(16)
O25C O 0.12616(19) -0.9204(4) -0.19524(15)
O26C O 0.21551(19) -0.4446(3) 0.03275(15)
O27C O 0.3976(2) -0.4793(3) -0.24156(16)
O28C O 0.19576(18) -0.8982(3) -0.08325(16)
O29C O 0.26649(18) -0.9073(3) -0.19447(15)
O30C O 0.43025(18) -0.7960(3) -0.09852(16)
O31C O 0.30118(17) -0.7073(3) -0.10203(15)
O32C O 0.17161(18) -0.6870(3) -0.17433(15)
O33C O 0.28026(19) -0.5119(3) -0.19272(15)
O34C O 0.21026(18) -0.5009(3) -0.08268(15)
N1C N 0.0069(3) -0.9652(5) -0.3472(2)
H1C H -0.01510 -1.02050 -0.37590
H2C H 0.04650 -1.00570 -0.33030
N2C N -0.0530(3) -0.7213(6) -0.3491(3)
H3C H -0.03870 -0.66080 -0.31940
H4C H -0.08170 -0.68050 -0.37910
N3C N 0.0548(3) -0.6320(5) -0.4355(2)
H5C H 0.06910 -0.65570 -0.47380
H6C H 0.01440 -0.58500 -0.44250
N4C N 0.1750(3) -0.3314(5) -0.4153(2)
H7C H 0.17710 -0.25630 -0.43750
H8C H 0.21530 -0.37660 -0.41760
H9C H 0.16900 -0.31220 -0.37470
C1C C -0.0406(4) -0.9341(7) -0.2967(3)
H10C H -0.01290 -0.90330 -0.25890
H11C H -0.06630 -1.01340 -0.28560
C2C C -0.0916(4) -0.8293(8) -0.3198(3)
H12C H -0.12660 -0.86670 -0.35080
H13C H -0.11630 -0.79480 -0.28450
C3C C 0.1096(3) -0.5423(6) -0.4048(3)
H14C H 0.15540 -0.58680 -0.40240
H15C H 0.09790 -0.52280 -0.36160
C4C C 0.1146(3) -0.4126(7) -0.4418(3)
H16C H 0.12080 -0.43220 -0.48620
H17C H 0.07080 -0.36280 -0.43970
N7B N 0.4791(2) -0.5828(5) 0.5757(2)
H26B H 0.50120 -0.64620 0.59910
H27B H 0.47630 -0.50940 0.59910
H28B H 0.43540 -0.61010 0.56290
C7B C 0.5194(3) -0.5541(5) 0.5194(2)
H29B H 0.56720 -0.52490 0.53300
H30B H 0.52280 -0.63380 0.49380
#END
