
#######################################################################
#
#                 Cambridge Crystallographic Data Centre
#                                CCDC
#
#######################################################################
#
# If this CIF has been generated from an entry in the Cambridge
# Structural Database, then it will include bibliographic, chemical,
# crystal, experimental, refinement or atomic coordinate data resulting
# from the CCDC's data processing and validation procedures.
#
#######################################################################

data_CSD_CIF_OTESUC
_audit_creation_date 2011-08-22
_audit_creation_method CSD-ConQuest-V1
_database_code_CSD OTESUC
_database_code_depnum_ccdc_archive 'CCDC 784713'
_chemical_formula_sum 'C76 H124 Cu5 N32 O130 P4 W36'
_chemical_formula_moiety
;
(C68 H96 Cu4 N28 O124 P4 W36 4-)n,n(H8 Cu1 O4 2+),2n(C4 H8 N2 1+),2n(H2 O1)
;
_journal_coden_Cambridge 1147
_journal_volume 11
_journal_year 2011
_journal_page_first 458
_journal_name_full 'Cryst.Growth Des. '
loop_
_publ_author_name
"Hai Fu"
"Yangguang Li"
"Ying Lu"
"Weilin Chen"
"Qiong Wu"
"Jingxin Meng"
"Xiaolan Wang"
"Zhiming Zhang"
"Enbo Wang"
_chemical_name_systematic
;
catena-(tetrakis(\m~9~-phosphato)-tetrakis(\m~2~-1,1-(1,4-butanediyl)bis(imida
zole))-tetraheptacontakis(\m~2~-oxo)-bis(1,1-(1,4-butanediyl)bis(imidazole))-b
is(1-methylimidazole)-tetratriacontaoxo-tetra-copper-hexatriaconta-tungsten 
tetraaqua-copper bis(1-methylimidazol-3-ium) dihydrate)
;
_cell_volume   9847.254
_exptl_crystal_colour 'black'
_exptl_crystal_density_diffrn 3.578
_exptl_crystal_description 'block'
_diffrn_ambient_temperature 150
_refine_special_details
;
The structure is disordered. The SQUEEZE/PLATON program has been used to 
model some disorder.
;
#These two values have been output from a single CSD field.
_refine_ls_R_factor_gt 0.0873
_refine_ls_wR_factor_gt 0.0873
_symmetry_cell_setting monoclinic
_symmetry_space_group_name_H-M 'P 21/c'
_symmetry_Int_Tables_number 14
loop_
_symmetry_equiv_pos_site_id
_symmetry_equiv_pos_as_xyz
1 x,y,z
2 -x,1/2+y,1/2-z
3 -x,-y,-z
4 x,-1/2-y,-1/2+z
_cell_length_a 18.540(4)
_cell_length_b 13.302(3)
_cell_length_c 43.600(12)
_cell_angle_alpha 90
_cell_angle_beta 113.68(3)
_cell_angle_gamma 90
_cell_formula_units_Z 2
loop_
_atom_type_symbol
_atom_type_radius_bond
C 0.68
H 0.23
Cu 1.32
N 0.68
O 0.68
P 1.05
W 1.40
loop_
_atom_site_label
_atom_site_type_symbol
_atom_site_fract_x
_atom_site_fract_y
_atom_site_fract_z
W1 W -1.22829(12) -1.09843(13) -0.78629(4)
W2 W -1.51161(12) -1.36026(13) -0.87126(4)
W3 W -1.33055(12) -1.48140(13) -0.86994(5)
W4 W -1.45877(12) -1.07305(13) -0.93358(4)
W5 W -0.95702(12) -1.17945(14) -0.86118(4)
W6 W -1.06982(12) -1.03432(14) -0.92678(4)
W7 W -1.34071(12) -0.95672(13) -0.85169(4)
W8 W -1.51687(12) -1.10785(13) -0.86235(4)
W9 W -1.05720(12) -1.06869(13) -0.81100(4)
W10 W -1.28109(12) -1.29506(14) -0.96632(4)
W11 W -1.05431(12) -1.34283(13) -0.82072(4)
W12 W -1.17043(12) -0.92731(13) -0.87638(4)
W13 W -1.28701(12) -1.04418(13) -0.95788(4)
W14 W -1.15933(12) -1.45177(13) -0.89462(4)
W15 W -1.45112(12) -1.32298(13) -0.94124(4)
W16 W -1.40371(12) -1.25088(13) -0.79655(4)
W17 W -1.22429(12) -1.37312(13) -0.79620(4)
W18 W -1.06421(12) -1.28711(14) -0.93609(4)
Cu1 Cu -1.4278(4) -1.3976(4) -0.72305(13)
Cu2 Cu -1.0061(4) -1.3781(6) -0.50173(16)
Cu3 Cu -1.0028(13) -1.4980(18) -0.9931(4)
P1 P -1.1626(9) -1.1906(11) -0.8881(3)
P2 P -1.3431(9) -1.2186(9) -0.8617(3)
C1 C -0.709(4) -1.188(4) -0.3410(13)
H1 H -0.65490 -1.21530 -0.33490
H2 H -0.73310 -1.22520 -0.32800
C2 C -0.757(4) -1.206(4) -0.3784(12)
H3 H -0.73700 -1.16140 -0.39150
H4 H -0.81270 -1.18720 -0.38400
C3 C -0.753(4) -1.310(4) -0.3877(13)
H5 H -0.69720 -1.32780 -0.38160
H6 H -0.77320 -1.35320 -0.37440
C4 C -1.357(4) -1.290(4) -0.5873(14)
H7 H -1.34420 -1.29970 -0.60700
H8 H -1.33260 -1.22720 -0.57600
C5 C -1.450(4) -1.282(4) -0.5994(13)
H9 H -1.47360 -1.34750 -0.60910
H10 H -1.46200 -1.26980 -0.57960
C6 C -1.489(3) -1.200(4) -0.6251(12)
H11 H -1.47140 -1.13310 -0.61490
H12 H -1.54670 -1.20400 -0.63290
C7 C -1.109(4) -1.362(4) -0.6801(13)
H13 H -1.07010 -1.40090 -0.66190
H14 H -1.09780 -1.29010 -0.67600
H15 H -1.10700 -1.38090 -0.70140
C8 C -1.166(4) -1.789(4) -0.7924(14)
H16 H -1.15330 -1.86060 -0.79450
H17 H -1.21330 -1.77200 -0.81240
C9 C -1.215(4) -1.688(4) -0.7523(13)
H18 H -1.18340 -1.62890 -0.75290
H19 H -1.21410 -1.69520 -0.72960
C10 C -1.185(4) -1.779(4) -0.7621(13)
H20 H -1.22430 -1.83280 -0.76430
H21 H -1.13680 -1.79820 -0.74250
C11 C -1.298(4) -1.680(4) -0.7782(14)
H22 H -1.31710 -1.74760 -0.78740
H23 H -1.29860 -1.63690 -0.79680
C12 C -1.306(4) -1.676(4) -0.9455(14)
H24 H -1.27650 -1.73670 -0.94570
H25 H -1.28380 -1.64540 -0.92320
H26 H -1.30330 -1.62800 -0.96210
C13 C -0.703(3) -1.080(3) -0.3321(10)
H27 H -0.68370 -1.04120 -0.34660
H28 H -0.75620 -1.05390 -0.33570
C14 C -1.323(3) -1.380(4) -0.5628(13)
H29 H -1.33040 -1.36780 -0.54170
H30 H -1.35050 -1.44300 -0.57290
O1 O -1.4842(17) -1.1524(18) -0.8165(6)
O2 O -1.4761(18) -1.3488(19) -0.8221(6)
O3 O -1.3775(19) -1.069(2) -0.9506(7)
O4 O -1.0893(18) -0.9401(19) -0.8332(6)
O5 O -1.0599(19) -1.211(2) -0.8057(7)
O6 O -1.1693(17) -0.8011(18) -0.8802(6)
O7 O -1.0405(18) -0.944(2) -0.9470(7)
O8 O -1.0972(18) -0.9582(19) -0.8956(6)
O9 O -1.1416(19) -1.065(2) -0.7986(7)
O10 O -1.0533(18) -1.1499(19) -0.9488(7)
O11 O -1.5677(17) -1.2341(18) -0.8744(6)
O12 O -0.8562(18) -1.1757(19) -0.8391(6)
O13 O -1.0307(17) -1.3509(17) -0.9620(6)
O14 O -1.093(2) -1.174(2) -0.8996(8)
O15 O -1.420(2) -1.229(2) -0.8533(8)
O16 O -1.180(2) -1.428(2) -0.7589(8)
O17 O -1.3684(19) -0.835(2) -0.8509(7)
O18 O -1.5109(18) -1.4001(19) -0.9719(6)
O19 O -0.9886(18) -1.2893(19) -0.8413(6)
O20 O -1.2967(17) -1.1291(18) -0.8453(6)
O21 O -1.0895(19) -1.384(2) -0.9111(7)
O22 O -1.5878(18) -1.4464(19) -0.8801(6)
O23 O -0.979(2) -1.397(2) -0.7863(7)
O24 O -0.9692(19) -1.066(2) -0.8910(7)
O25 O -1.3204(19) -0.956(2) -0.9884(7)
O26 O -1.183(2) -1.070(2) -0.7452(7)
O27 O -1.1516(18) -1.5681(19) -0.9073(6)
O28 O -1.281(2) -0.977(2) -0.8049(8)
O29 O -0.9919(18) -1.0955(19) -0.8352(6)
O30 O -1.2330(18) -1.4800(19) -0.8759(6)
O31 O -1.1613(18) -1.1045(19) -0.8649(6)
O32 O -1.2424(18) -1.3980(19) -0.9342(6)
O33 O -1.3783(17) -1.4218(18) -0.9119(6)
O34 O -1.2346(18) -1.1850(19) -0.9199(6)
O35 O -1.2512(18) -0.9639(19) -0.9183(6)
O36 O -1.1385(18) -1.3786(19) -0.8098(6)
O37 O -1.5001(17) -1.1952(18) -0.9570(6)
O38 O -1.3038(17) -1.1614(18) -0.9843(6)
O39 O -1.1738(19) -1.277(2) -0.9612(7)
O40 O -1.1796(17) -1.0440(18) -0.9531(6)
O41 O -0.9872(17) -1.0356(18) -0.7740(6)
O42 O -1.3243(17) -1.1528(18) -0.7856(6)
O43 O -1.3241(18) -1.3434(19) -0.7928(6)
O44 O -1.3779(18) -1.297(2) -0.9594(7)
O45 O -1.1566(18) -1.2900(19) -0.8731(6)
O46 O -1.0777(18) -1.454(2) -0.8502(6)
O47 O -1.3926(17) -0.9927(18) -0.8968(6)
O48 O -1.2952(17) -1.3088(18) -0.8509(6)
O49 O -1.243(2) -0.936(2) -0.8571(8)
O50 O -1.3174(17) -1.3635(18) -1.0029(6)
O51 O -1.4144(17) -1.2736(18) -0.7610(6)
O52 O -0.9658(17) -1.2656(18) -0.8975(6)
O53 O -1.5923(17) -1.0345(18) -0.8652(6)
O54 O -1.3779(17) -1.2077(19) -0.8986(6)
O55 O -1.5159(17) -1.0979(18) -0.9052(6)
O56 O -1.2694(18) -1.4913(19) -0.8226(6)
O57 O -1.2021(19) -1.239(2) -0.7848(7)
O58 O -1.3504(17) -1.6014(18) -0.8790(6)
O59 O -1.4249(19) -1.443(2) -0.8625(7)
O60 O -1.5044(18) -1.3323(19) -0.9122(7)
O61 O -1.524(2) -0.987(2) -0.9590(7)
O62 O -1.4298(19) -1.015(2) -0.8475(7)
N1 N -1.0994(19) -1.727(2) -0.7928(8)
C15 C -1.097(2) -1.641(2) -0.8043(8)
H31 H -1.14170 -1.60060 -0.81720
N2 N -1.026(2) -1.617(2) -0.7958(8)
C16 C -0.984(2) -1.688(3) -0.7790(9)
H32 H -0.92810 -1.69040 -0.76940
C17 C -1.029(2) -1.757(2) -0.7771(8)
H33 H -1.01360 -1.81910 -0.76590
C18 C -1.418(2) -1.617(2) -0.7326(8)
H34 H -1.44620 -1.63110 -0.71910
C19 C -1.387(2) -1.684(2) -0.7461(8)
H35 H -1.38930 -1.75500 -0.74410
N3 N -1.353(2) -1.635(2) -0.7630(7)
C20 C -1.362(2) -1.538(2) -0.7599(8)
H36 H -1.34370 -1.48530 -0.76950
N4 N -1.403(2) -1.527(2) -0.7411(8)
C21 C -1.5004(18) -1.771(2) -0.9700(7)
H37 H -1.54130 -1.81950 -0.97720
C22 C -1.4249(19) -1.788(2) -0.9627(8)
H38 H -1.40220 -1.85150 -0.96370
N5 N -1.3866(18) -1.702(2) -0.9537(8)
C23 C -1.4384(19) -1.631(2) -0.9555(7)
H39 H -1.42710 -1.56180 -0.95040
N6 N -1.5087(17) -1.674(2) -0.9656(7)
N7 N -1.312(2) -1.388(2) -0.6959(8)
C24 C -1.279(2) -1.451(3) -0.6708(9)
H40 H -1.30640 -1.49120 -0.66090
C25 C -1.203(2) -1.448(3) -0.6619(9)
H41 H -1.16460 -1.48550 -0.64430
N8 N -1.188(2) -1.383(3) -0.6814(9)
C26 C -1.256(2) -1.346(3) -0.7025(8)
H42 H -1.26240 -1.29780 -0.71950
N9 N -1.2410(18) -1.385(2) -0.5563(8)
C27 C -1.214(2) -1.414(3) -0.5802(8)
H43 H -1.24610 -1.42910 -0.60300
C28 C -1.133(2) -1.417(3) -0.5655(9)
H44 H -1.09940 -1.43410 -0.57620
N10 N -1.1099(18) -1.389(2) -0.5324(8)
C29 C -1.1765(17) -1.370(2) -0.5268(7)
H45 H -1.17770 -1.34960 -0.50610
C30 C -1.475(2) -1.299(2) -0.6728(8)
H46 H -1.49820 -1.35860 -0.66910
N11 N -1.448(2) -1.285(2) -0.6960(7)
C31 C -1.421(2) -1.194(2) -0.6932(8)
H47 H -1.39790 -1.16410 -0.70690
C32 C -1.431(2) -1.151(2) -0.6683(8)
H48 H -1.41610 -1.08410 -0.66070
N12 N -1.464(2) -1.216(2) -0.6557(7)
C33 C -0.6698(18) -1.041(2) -0.2707(7)
H49 H -0.72130 -1.02290 -0.27290
N13 N -0.6483(17) -1.067(2) -0.2962(6)
C34 C -0.5693(16) -1.087(2) -0.2826(6)
H50 H -0.53870 -1.10710 -0.29460
N14 N -0.5419(18) -1.073(2) -0.2487(7)
C35 C -0.604(2) -1.044(2) -0.2413(7)
H51 H -0.60190 -1.02960 -0.21970
N15 N -0.9004(17) -1.359(2) -0.4732(7)
C36 C -0.8322(18) -1.374(2) -0.4778(7)
H52 H -0.82880 -1.39270 -0.49820
C37 C -0.7697(17) -1.358(2) -0.4478(7)
H53 H -0.71550 -1.36260 -0.44380
N16 N -0.7993(18) -1.332(2) -0.4246(7)
C38 C -0.8801(17) -1.333(2) -0.4402(7)
H54 H -0.91560 -1.31870 -0.43010
O63 O -0.881(2) -1.463(2) -0.9840(8)
O64 O -1.011(2) -1.417(2) -1.0448(8)
O65 O -1.862(2) -1.450(2) -0.8187(8)
W1C W -2.22829(12) -1.40157(13) -1.28629(4)
W2C W -2.51161(12) -1.13974(13) -1.37126(4)
W3C W -2.33055(12) -1.01860(13) -1.36994(5)
W4C W -2.45877(12) -1.42695(13) -1.43358(4)
W5C W -1.95702(12) -1.32055(14) -1.36118(4)
W6C W -2.06982(12) -1.46568(14) -1.42678(4)
W7C W -2.34071(12) -1.54328(13) -1.35169(4)
W8C W -2.51687(12) -1.39215(13) -1.36235(4)
W9C W -2.05720(12) -1.43131(13) -1.31100(4)
W10C W -2.28109(12) -1.20494(14) -1.46632(4)
W11C W -2.05431(12) -1.15717(13) -1.32072(4)
W12C W -2.17043(12) -1.57269(13) -1.37638(4)
W13C W -2.28701(12) -1.45582(13) -1.45788(4)
W14C W -2.15933(12) -1.04823(13) -1.39462(4)
W15C W -2.45112(12) -1.17702(13) -1.44124(4)
W16C W -2.40371(12) -1.24912(13) -1.29655(4)
W17C W -2.22429(12) -1.12688(13) -1.29620(4)
W18C W -2.06421(12) -1.21289(14) -1.43609(4)
Cu1C Cu -2.4278(4) -1.1024(4) -1.22305(13)
Cu1C* Cu -0.4278(4) -1.1024(4) -0.22305(13)
Cu2C Cu -2.0061(4) -1.1219(6) -1.00173(16)
Cu3B Cu -0.9972(13) -1.5020(18) -1.0069(4)
P1C P -2.1626(9) -1.3094(11) -1.3881(3)
P2C P -2.3431(9) -1.2814(9) -1.3617(3)
C1C C -1.709(4) -1.312(4) -0.8410(13)
H1C H -1.65490 -1.28470 -0.83490
H2C H -1.73310 -1.27480 -0.82800
C2C C -1.757(4) -1.294(4) -0.8784(12)
H3C H -1.73700 -1.33860 -0.89150
H4C H -1.81270 -1.31280 -0.88400
C3C C -1.753(4) -1.190(4) -0.8877(13)
H5C H -1.69720 -1.17220 -0.88160
H6C H -1.77320 -1.14680 -0.87440
C4C C -2.357(4) -1.210(4) -1.0873(14)
H7C H -2.34420 -1.20030 -1.10700
H8C H -2.33260 -1.27280 -1.07600
C5C C -2.450(4) -1.218(4) -1.0994(13)
H9C H -2.47360 -1.15250 -1.10910
H10C H -2.46200 -1.23020 -1.07960
C6C C -2.489(3) -1.300(4) -1.1251(12)
H11C H -2.47140 -1.36690 -1.11490
H12C H -2.54670 -1.29600 -1.13290
C7C C -2.109(4) -1.138(4) -1.1801(13)
H13C H -2.07010 -1.09910 -1.16190
H14C H -2.09780 -1.20990 -1.17600
H15C H -2.10700 -1.11910 -1.20140
C8C C -2.166(4) -0.711(4) -1.2924(14)
H16C H -2.15330 -0.63940 -1.29450
H17C H -2.21330 -0.72800 -1.31240
C9C C -2.215(4) -0.812(4) -1.2523(13)
H18C H -2.18340 -0.87110 -1.25290
H19C H -2.21410 -0.80480 -1.22960
C10C C -2.185(4) -0.721(4) -1.2621(13)
H20C H -2.22430 -0.66720 -1.26430
H21C H -2.13680 -0.70180 -1.24250
C11C C -2.298(4) -0.820(4) -1.2782(14)
H22C H -2.31710 -0.75240 -1.28740
H23C H -2.29860 -0.86310 -1.29680
C13C C -1.703(3) -1.420(3) -0.8321(10)
H27C H -1.68370 -1.45880 -0.84660
H28C H -1.75620 -1.44610 -0.83570
C14C C -2.323(3) -1.120(4) -1.0628(13)
H29C H -2.33040 -1.13220 -1.04170
H30C H -2.35050 -1.05700 -1.07290
O1C O -2.4842(17) -1.3476(18) -1.3165(6)
O2C O -2.4761(18) -1.1512(19) -1.3221(6)
O3C O -2.3775(19) -1.431(2) -1.4506(7)
O4C O -2.0893(18) -1.5599(19) -1.3332(6)
O5C O -2.0599(19) -1.289(2) -1.3057(7)
O6C O -2.1693(17) -1.6989(18) -1.3802(6)
O7C O -2.0405(18) -1.556(2) -1.4470(7)
O8C O -2.0972(18) -1.5418(19) -1.3956(6)
O9C O -2.1416(19) -1.435(2) -1.2986(7)
O10C O -2.0533(18) -1.3501(19) -1.4488(7)
O11C O -2.5677(17) -1.2659(18) -1.3744(6)
O12C O -1.8562(18) -1.3243(19) -1.3391(6)
O13C O -2.0307(17) -1.1491(17) -1.4620(6)
O14C O -2.093(2) -1.326(2) -1.3996(8)
O15C O -2.420(2) -1.271(2) -1.3533(8)
O16C O -2.180(2) -1.072(2) -1.2589(8)
O17C O -2.3684(19) -1.665(2) -1.3509(7)
O18C O -2.5109(18) -1.0999(19) -1.4719(6)
O19C O -1.9886(18) -1.2107(19) -1.3413(6)
O20C O -2.2967(17) -1.3709(18) -1.3453(6)
O21C O -2.0895(19) -1.116(2) -1.4111(7)
O22C O -2.5878(18) -1.0536(19) -1.3801(6)
O23C O -1.979(2) -1.103(2) -1.2863(7)
O24C O -1.9692(19) -1.434(2) -1.3910(7)
O25C O -2.3204(19) -1.544(2) -1.4884(7)
O26C O -2.183(2) -1.430(2) -1.2452(7)
O27C O -2.1516(18) -0.9319(19) -1.4073(6)
O28C O -2.281(2) -1.523(2) -1.3049(8)
O29C O -1.9919(18) -1.4045(19) -1.3352(6)
O30C O -2.2330(18) -1.0200(19) -1.3759(6)
O31C O -2.1613(18) -1.3955(19) -1.3649(6)
O32C O -2.2424(18) -1.1020(19) -1.4342(6)
O33C O -2.3783(17) -1.0782(18) -1.4119(6)
O34C O -2.2346(18) -1.3150(19) -1.4199(6)
O35C O -2.2512(18) -1.5361(19) -1.4183(6)
O36C O -2.1385(18) -1.1214(19) -1.3098(6)
O37C O -2.5001(17) -1.3048(18) -1.4570(6)
O38C O -2.3038(17) -1.3386(18) -1.4843(6)
O39C O -2.1738(19) -1.223(2) -1.4612(7)
O40C O -2.1796(17) -1.4560(18) -1.4531(6)
O41C O -1.9872(17) -1.4644(18) -1.2740(6)
O42C O -2.3243(17) -1.3472(18) -1.2856(6)
O43C O -2.3241(18) -1.1566(19) -1.2928(6)
O44C O -2.3779(18) -1.203(2) -1.4594(7)
O45C O -2.1566(18) -1.2100(19) -1.3731(6)
O46C O -2.0777(18) -1.046(2) -1.3502(6)
O47C O -2.3926(17) -1.5073(18) -1.3968(6)
O48C O -2.2952(17) -1.1912(18) -1.3509(6)
O49C O -2.243(2) -1.564(2) -1.3571(8)
O50C O -2.3174(17) -1.1365(18) -1.5029(6)
O51C O -2.4144(17) -1.2264(18) -1.2610(6)
O52C O -1.9658(17) -1.2344(18) -1.3975(6)
O53C O -2.5923(17) -1.4655(18) -1.3652(6)
O54C O -2.3779(17) -1.2923(19) -1.3986(6)
O55C O -2.5159(17) -1.4021(18) -1.4052(6)
O56C O -2.2694(18) -1.0087(19) -1.3226(6)
O57C O -2.2021(19) -1.261(2) -1.2848(7)
O58C O -2.3504(17) -0.8986(18) -1.3790(6)
O59C O -2.4249(19) -1.057(2) -1.3625(7)
O60C O -2.5044(18) -1.1677(19) -1.4122(7)
O61C O -2.524(2) -1.513(2) -1.4590(7)
O62C O -2.4298(19) -1.485(2) -1.3475(7)
N1C N -2.0994(19) -0.773(2) -1.2928(8)
C15C C -2.097(2) -0.859(2) -1.3043(8)
H31C H -2.14170 -0.89940 -1.31720
N2C N -2.026(2) -0.883(2) -1.2958(8)
C16C C -1.984(2) -0.812(3) -1.2790(9)
H32C H -1.92810 -0.80960 -1.26940
C17C C -2.029(2) -0.743(2) -1.2771(8)
H33C H -2.01360 -0.68090 -1.26590
C18C C -2.418(2) -0.883(2) -1.2326(8)
H34C H -2.44620 -0.86890 -1.21910
C19C C -2.387(2) -0.816(2) -1.2461(8)
H35C H -2.38930 -0.74500 -1.24410
N3C N -2.353(2) -0.865(2) -1.2630(7)
C20C C -2.362(2) -0.962(2) -1.2599(8)
H36C H -2.34370 -1.01470 -1.26950
N4C N -2.403(2) -0.973(2) -1.2411(8)
N7C N -2.312(2) -1.112(2) -1.1959(8)
C24C C -2.279(2) -1.049(3) -1.1708(9)
H40C H -2.30640 -1.00880 -1.16090
C25C C -2.203(2) -1.052(3) -1.1619(9)
H41C H -2.16460 -1.01450 -1.14430
N8C N -2.188(2) -1.117(3) -1.1814(9)
C26C C -2.256(2) -1.154(3) -1.2025(8)
H42C H -2.26240 -1.20220 -1.21950
N9C N -2.2410(18) -1.115(2) -1.0563(8)
C27C C -2.214(2) -1.086(3) -1.0802(8)
H43C H -2.24610 -1.07090 -1.10300
C28C C -2.133(2) -1.083(3) -1.0655(9)
H44C H -2.09940 -1.06590 -1.07620
N10C N -2.1099(18) -1.111(2) -1.0324(8)
C29C C -2.1765(17) -1.130(2) -1.0268(7)
H45C H -2.17770 -1.15040 -1.00610
C30C C -2.475(2) -1.201(2) -1.1728(8)
H46C H -2.49820 -1.14140 -1.16910
N11C N -2.448(2) -1.215(2) -1.1960(7)
C31C C -2.421(2) -1.306(2) -1.1932(8)
H47C H -2.39790 -1.33590 -1.20690
C32C C -2.431(2) -1.349(2) -1.1683(8)
H48C H -2.41610 -1.41590 -1.16070
N12C N -2.464(2) -1.284(2) -1.1557(7)
C33C C -1.6698(18) -1.459(2) -0.7707(7)
H49C H -1.72130 -1.47710 -0.77290
N13C N -1.6483(17) -1.433(2) -0.7962(6)
C34C C -1.5693(16) -1.413(2) -0.7826(6)
H50C H -1.53870 -1.39290 -0.79460
N14C N -1.5419(18) -1.427(2) -0.7487(7)
N14* N -2.5419(18) -1.073(2) -1.2487(7)
C35C C -1.604(2) -1.456(2) -0.7413(7)
H51C H -1.60190 -1.47040 -0.71970
N15C N -1.9004(17) -1.141(2) -0.9732(7)
C36C C -1.8322(18) -1.126(2) -0.9778(7)
H52C H -1.82880 -1.10730 -0.99820
C37C C -1.7697(17) -1.142(2) -0.9478(7)
H53C H -1.71550 -1.13740 -0.94380
N16C N -1.7993(18) -1.168(2) -0.9246(7)
C38C C -1.8801(17) -1.167(2) -0.9402(7)
H54C H -1.91560 -1.18130 -0.93010
O63B O -1.119(2) -1.537(2) -1.0160(8)
O64B O -0.989(2) -1.583(2) -0.9552(8)
#END
