
#######################################################################
#
#                 Cambridge Crystallographic Data Centre
#                                CCDC
#
#######################################################################
#
# If this CIF has been generated from an entry in the Cambridge
# Structural Database, then it will include bibliographic, chemical,
# crystal, experimental, refinement or atomic coordinate data resulting
# from the CCDC's data processing and validation procedures.
#
#######################################################################

data_CSD_CIF_OTETAJ
_audit_creation_date 2011-08-22
_audit_creation_method CSD-ConQuest-V1
_database_code_CSD OTETAJ
_database_code_depnum_ccdc_archive 'CCDC 784714'
_chemical_formula_sum 'C58 H80 Cu2 N32 O124 P4 W36'
_chemical_formula_moiety
;
(C26 H36 Cu1 N18 6+)n,n(C12 H12 Cu1 N6 2+),2n(C10 H16 N4 2+),2n(O62 P2 W18 6-)
;
_journal_coden_Cambridge 1147
_journal_volume 11
_journal_year 2011
_journal_page_first 458
_journal_name_full 'Cryst.Growth Des. '
loop_
_publ_author_name
"Hai Fu"
"Yangguang Li"
"Ying Lu"
"Weilin Chen"
"Qiong Wu"
"Jingxin Meng"
"Xiaolan Wang"
"Zhiming Zhang"
"Enbo Wang"
_chemical_name_systematic
;
catena-(bis(bis(\m~9~-phosphato)-hexatriacontakis(\m~2~-oxo)-octadecaoxo-octad
eca-tungsten 
(\m~2~-1,4-bis(triazol-1-ylmethyl)benzene)-bis(1,3-bis(1,2,4-triazol-3-ium-1-y
l)propane)-copper) (\m~2~-1,4-bis(triazol-1-ylmethyl)benzene)-copper 
bis(1,1-(1,4-butanediyl)bis(imidazol-3-ium)))
;
_cell_volume   4588.104
_exptl_crystal_colour 'blue'
_exptl_crystal_density_diffrn 3.64
_exptl_crystal_description 'block'
_diffrn_ambient_temperature 150
_refine_special_details
;
The SQUEEZE/PLATON program has been used to model some disorder.

;
#These two values have been output from a single CSD field.
_refine_ls_R_factor_gt 0.0645
_refine_ls_wR_factor_gt 0.0645
_symmetry_cell_setting triclinic
_symmetry_space_group_name_H-M 'P -1'
_symmetry_Int_Tables_number 2
loop_
_symmetry_equiv_pos_site_id
_symmetry_equiv_pos_as_xyz
1 x,y,z
2 -x,-y,-z
_cell_length_a 13.042(3)
_cell_length_b 14.212(3)
_cell_length_c 28.030(6)
_cell_angle_alpha 96.10(3)
_cell_angle_beta 90.76(3)
_cell_angle_gamma 117.09(3)
_cell_formula_units_Z 1
loop_
_atom_type_symbol
_atom_type_radius_bond
C 0.68
H 0.23
Cu 1.32
N 0.68
O 0.68
P 1.05
W 1.35
loop_
_atom_site_label
_atom_site_type_symbol
_atom_site_fract_x
_atom_site_fract_y
_atom_site_fract_z
W1 W 0.54316(11) 0.02769(9) 0.63649(4)
W2 W 1.02174(11) 0.45167(9) 0.77011(4)
W3 W 0.82054(11) 0.01950(9) 0.64825(4)
W4 W 0.79286(12) 0.20830(9) 0.57388(4)
W5 W 0.76946(11) 0.45950(9) 0.76068(4)
W6 W 0.67454(12) 0.32091(9) 0.86992(4)
W7 W 0.52198(11) 0.23978(9) 0.68885(4)
W8 W 0.44898(11) -0.10999(9) 0.74600(4)
W9 W 0.42633(11) 0.10133(9) 0.79878(4)
W10 W 0.92550(11) 0.31299(9) 0.87983(4)
W11 W 0.72425(11) -0.12007(9) 0.75749(4)
W12 W 1.04647(11) 0.21919(9) 0.71276(4)
W13 W 0.77285(11) 0.42298(9) 0.62809(4)
W14 W 1.02409(11) 0.40990(9) 0.63812(4)
W15 W 0.54874(12) -0.15093(9) 0.86261(4)
W16 W 0.94994(11) 0.07997(9) 0.82209(4)
W17 W 0.77521(11) 0.05316(9) 0.92704(4)
W18 W 0.52188(11) 0.06039(9) 0.91623(4)
Cu1 Cu 1.00000 0.00000 1.00000
Cu2 Cu 0.50000 1.00000 0.50000
P1 P 0.7891(8) 0.2406(6) 0.6985(3)
P2 P 0.6885(8) 0.0942(6) 0.8151(3)
O1 O 0.4370(18) 0.0526(14) 0.8576(6)
O2 O 0.6713(19) -0.0970(14) 0.9132(7)
O3 O 0.8275(17) 0.3681(13) 0.9001(6)
O4 O 0.9967(18) 0.1307(14) 0.7626(6)
O5 O 0.4610(17) 0.1582(13) 0.7376(6)
O6 O 0.6503(19) 0.0711(14) 0.9562(7)
O7 O 0.6510(18) -0.1536(14) 0.8154(6)
O8 O 0.3436(17) -0.2278(13) 0.7195(6)
O9 O 0.7907(18) 0.4758(14) 0.6940(6)
O10 O 1.0353(16) 0.4679(13) 0.7044(6)
O11 O 0.9690(19) 0.3992(15) 0.8284(7)
O12 O 0.6075(18) 0.2056(14) 0.9094(6)
O13 O 0.9364(17) 0.4846(13) 0.6214(6)
O14 O 0.4536(17) -0.0684(13) 0.5934(6)
O15 O 0.4700(18) -0.0913(14) 0.9026(6)
O16 O 0.6169(17) 0.3498(13) 0.7358(6)
O17 O 0.3038(17) 0.1117(14) 0.8078(6)
O18 O 0.4573(18) -0.1459(14) 0.8088(6)
O19 O 0.9537(16) 0.3180(13) 0.5783(6)
O20 O 1.0736(18) 0.0843(14) 0.8414(6)
O21 O 0.419(2) 0.2787(16) 0.6825(7)
O22 O 0.6495(16) 0.0385(12) 0.8632(6)
O23 O 0.8512(18) 0.1996(14) 0.9181(6)
O24 O 0.8284(18) 0.2981(14) 0.6510(6)
O25 O 0.7098(18) -0.2415(14) 0.7366(6)
O26 O 0.6266(19) 0.3263(15) 0.6448(7)
O27 O 0.8200(17) -0.0816(14) 0.6085(6)
O28 O 0.8471(16) 0.1681(13) 0.7021(6)
C1 C 0.573(3) 0.407(2) 0.2455(11)
H1 H 0.55170 0.33450 0.23540
C2 C 0.542(3) 0.583(2) 0.4729(10)
C3 C 0.601(4) 0.525(3) 0.4755(13)
C4 C 0.674(4) 0.471(3) 0.2875(13)
H2 H 0.70580 0.42370 0.29690
H3 H 0.73660 0.53320 0.27560
C5 C 0.625(3) 0.508(2) 0.332(1)
H4 H 0.69030 0.55610 0.35540
H5 H 0.58730 0.54990 0.32150
C6 C 0.510(3) 0.458(2) 0.2216(11)
H6 H 0.47680 0.49120 0.24530
H7 H 0.44850 0.40640 0.19770
C7 C 0.581(3) 0.672(2) 0.4459(12)
H8 H 0.60050 0.66280 0.41370
C8 C 0.432(4) 0.551(3) 0.4897(13)
C9 C 1.484(4) 0.414(3) 1.0218(13)
C10 C 1.410(4) 0.294(3) 0.9424(13)
H9 H 1.41960 0.30060 0.90770
H10 H 1.45050 0.25390 0.95230
C11 C 1.463(3) 0.406(3) 0.9719(12)
C12 C 1.514(4) 0.504(3) 1.0552(13)
C13 C 1.199(3) -0.242(3) 0.8663(10)
H11 H 1.22470 -0.27690 0.84030
H12 H 1.25310 -0.16460 0.86920
C14 C 1.038(3) -0.189(3) 0.8201(10)
H13 H 0.98760 -0.22980 0.79070
H14 H 1.09950 -0.11940 0.81380
C15 C 1.081(3) -0.254(3) 0.8482(13)
H15 H 1.03790 -0.26360 0.87760
H16 H 1.04510 -0.32540 0.82890
O29 O 0.4278(19) 0.0620(15) 0.9586(7)
O30 O 0.540(2) 0.2378(16) 0.8286(7)
O31 O 0.9714(16) 0.2181(12) 0.8468(6)
O32 O 0.8726(18) -0.0613(14) 0.7906(6)
O33 O 0.8281(19) 0.3298(14) 0.7433(7)
O34 O 0.8633(16) 0.0367(13) 0.8770(6)
O35 O 0.5851(17) -0.1241(13) 0.7347(6)
O36 O 0.7964(18) -0.0470(14) 0.7043(6)
O37 O 0.663(2) -0.0117(15) 0.6448(7)
O38 O 1.0525(19) 0.3039(15) 0.6631(7)
O39 O 0.842(2) 0.1138(17) 0.6008(7)
O40 O 0.7461(17) 0.5113(13) 0.6027(6)
O41 O 0.934(2) 0.5295(16) 0.7728(7)
O42 O 0.749(2) 0.5644(15) 0.7750(7)
O43 O 1.1549(17) 0.4912(14) 0.6198(6)
O44 O 0.4702(19) 0.1192(15) 0.6446(7)
O45 O 0.989(2) 0.0964(15) 0.6657(7)
O46 O 0.3626(17) -0.0435(14) 0.7676(6)
O47 O 0.4757(19) -0.0386(15) 0.6910(7)
O48 O 1.0575(17) 0.3362(13) 0.7564(6)
O49 O 0.4746(19) -0.2825(15) 0.8725(7)
O50 O 0.7564(18) 0.3226(14) 0.5712(6)
O51 O 0.6554(18) 0.1749(14) 0.6932(6)
O52 O 0.5790(19) 0.0615(14) 0.7838(7)
O53 O 0.7510(17) 0.2157(13) 0.8325(6)
O54 O 0.850(2) 0.0547(16) 0.9809(7)
O55 O 0.7686(17) 0.0544(13) 0.7928(6)
O56 O 1.154(2) 0.5514(15) 0.7901(7)
O57 O 1.185(2) 0.2447(16) 0.7134(7)
O58 O 1.046(2) 0.3882(16) 0.9209(7)
O59 O 0.645(2) 0.1273(16) 0.5916(7)
O60 O 0.7795(18) 0.1605(14) 0.5137(7)
O61 O 0.7468(19) 0.4043(15) 0.8217(7)
O62 O 0.633(2) 0.4057(15) 0.9041(7)
N1 N 1.2157(19) -0.2801(14) 0.9122(6)
N2 N 1.186(2) -0.3801(14) 0.9165(6)
C16 C 1.191(2) -0.3890(14) 0.9625(7)
H17 H 1.17460 -0.45270 0.97600
N3 N 1.224(2) -0.2945(15) 0.9867(6)
C17 C 1.239(2) -0.2271(14) 0.9556(6)
H18 H 1.26230 -0.15310 0.96310
C18 C 0.460(2) 0.2802(18) 0.3903(9)
H19 H 0.44510 0.21690 0.40380
C19 C 0.5579(19) 0.3424(17) 0.3698(9)
H20 H 0.62350 0.33030 0.36640
N4 N 0.5457(19) 0.4248(16) 0.3550(7)
C20 C 0.440(2) 0.4136(18) 0.3664(9)
H21 H 0.40910 0.46020 0.36020
N5 N 0.387(2) 0.3242(19) 0.3882(9)
C21 C 0.7466(18) 0.6244(14) 0.1528(7)
H22 H 0.80410 0.63900 0.13030
N6 N 0.7215(18) 0.6963(13) 0.1777(7)
C22 C 0.6356(18) 0.6445(14) 0.2056(7)
H23 H 0.60080 0.67590 0.22700
N7 N 0.6077(19) 0.5406(14) 0.1979(7)
C23 C 0.6763(19) 0.5282(13) 0.1653(7)
H24 H 0.67530 0.46270 0.15320
C24 C 0.6620(17) 0.9127(15) 0.5175(6)
H25 H 0.70900 0.96670 0.54250
N8 N 0.5704(17) 0.9081(14) 0.4932(7)
C25 C 0.5276(16) 0.8204(14) 0.4610(6)
H26 H 0.46250 0.79740 0.43890
N9 N 0.5927(17) 0.7709(13) 0.4654(6)
N10 N 0.6758(17) 0.8279(15) 0.5004(7)
N11 N 1.2871(13) 0.2361(10) 0.9505(5)
N12 N 1.2112(15) 0.2767(11) 0.9466(5)
C26 C 1.1066(12) 0.2038(10) 0.9591(5)
H27 H 1.03790 0.21130 0.95950
N13 N 1.1180(11) 0.1181(8) 0.9708(4)
C27 C 1.2295(11) 0.1381(9) 0.9655(5)
H28 H 1.26150 0.09180 0.97120
C28 C 1.0414(12) -0.0951(9) 0.9033(5)
H29 H 1.12120 -0.04710 0.90310
N14 N 0.9721(16) -0.1852(12) 0.8654(6)
N15 N 0.8517(17) -0.2392(13) 0.8801(6)
C29 C 0.8464(16) -0.1825(12) 0.9270(6)
H30 H 0.77980 -0.20000 0.94480
N16 N 0.9636(13) -0.0934(9) 0.9414(4)
Cu1* Cu 2.00000 1.00000 1.00000
Cu2* Cu 0.50000 0.00000 0.50000
C2A C 0.458(3) 0.417(2) 0.5271(10)
C3A C 0.399(4) 0.475(3) 0.5245(13)
C7A C 0.419(3) 0.328(2) 0.5541(12)
H8A H 0.39950 0.33720 0.58630
C8A C 0.568(4) 0.449(3) 0.5103(13)
C9A C 1.516(4) 0.586(3) 0.9782(13)
C10A C 1.590(4) 0.706(3) 1.0576(13)
H9A H 1.58040 0.69940 1.09230
H10A H 1.54950 0.74610 1.04770
C11A C 1.537(3) 0.594(3) 1.0281(12)
C12A C 1.486(4) 0.496(3) 0.9448(13)
C13A C 0.801(3) 0.242(3) 1.1337(10)
H11A H 0.77530 0.27690 1.15970
H12A H 0.74690 0.16460 1.13080
C14A C 0.962(3) 0.189(3) 1.1799(10)
H13A H 1.01240 0.22980 1.20930
H14A H 0.90050 0.11940 1.18620
C15A C 0.919(3) 0.254(3) 1.1518(13)
H15A H 0.96210 0.26360 1.12240
H16A H 0.95490 0.32540 1.17110
N1A N 0.7843(19) 0.2801(14) 1.0878(6)
N2A N 0.814(2) 0.3801(14) 1.0835(6)
C16A C 0.809(2) 0.3890(14) 1.0375(7)
H17A H 0.82540 0.45270 1.02400
N3A N 0.776(2) 0.2945(15) 1.0133(6)
C17A C 0.761(2) 0.2271(14) 1.0444(6)
H18A H 0.73770 0.15310 1.03690
C24A C 0.3380(17) 0.0873(15) 0.4825(6)
H25A H 0.29100 0.03330 0.45750
N8A N 0.4296(17) 0.0919(14) 0.5068(7)
N8A* N 0.4296(17) 1.0919(14) 0.5068(7)
C25A C 0.4724(16) 0.1796(14) 0.5390(6)
H26A H 0.53750 0.20260 0.56110
N9A N 0.4073(17) 0.2291(13) 0.5346(6)
N10A N 0.3242(17) 0.1721(15) 0.4996(7)
N11A N 1.7129(13) 0.7639(10) 1.0495(5)
N12A N 1.7888(15) 0.7233(11) 1.0534(5)
C26A C 1.8934(12) 0.7962(10) 1.0409(5)
H27A H 1.96210 0.78870 1.04050
N13A N 1.8820(11) 0.8819(8) 1.0292(4)
N13A* N 0.8820(11) -0.1181(8) 1.0292(4)
C27A C 1.7705(11) 0.8619(9) 1.0345(5)
H28A H 1.73850 0.90820 1.02880
C28A C 0.9586(12) 0.0951(9) 1.0967(5)
H29A H 0.87880 0.04710 1.09690
N14A N 1.0279(16) 0.1852(12) 1.1346(6)
N15A N 1.1483(17) 0.2392(13) 1.1199(6)
C29A C 1.1536(16) 0.1825(12) 1.0730(6)
H30A H 1.22020 0.20000 1.05520
N16A N 1.0364(13) 0.0934(9) 1.0586(4)
#END
