
#######################################################################
#
#                 Cambridge Crystallographic Data Centre
#                                CCDC
#
#######################################################################
#
# If this CIF has been generated from an entry in the Cambridge
# Structural Database, then it will include bibliographic, chemical,
# crystal, experimental, refinement or atomic coordinate data resulting
# from the CCDC's data processing and validation procedures.
#
#######################################################################

data_CSD_CIF_OTIJAE
_audit_creation_date 2016-08-22
_audit_creation_method CSD-ConQuest-V1
_database_code_CSD OTIJAE
_database_code_depnum_ccdc_archive 'CCDC 1480930'
_chemical_formula_sum 'C54 H96 Cr4 Mn3 N6 O54'
_chemical_formula_moiety
;
6(C4 H12 N1 1+),n(C24 Cr4 Mn3 O48 6-),6(C1 H4 O1)
;
_journal_coden_Cambridge 9
_journal_volume 55
_journal_year 2016
_journal_page_first 6845
_journal_name_full 'Inorg.Chem. '
loop_
_publ_author_name
"M.Mon"
"T.Grancha"
"M.Verdaguer"
"C.Train"
"D.Armentano"
"E.Pardo"
_chemical_name_systematic
;
catena-[hexakis(Tetramethylammonium) 
dodecakis(\m-oxalato)-tetra-chromium(iii)-tri-manganese(ii) methanol solvate]
;
_cell_volume  13997.032
_exptl_crystal_colour 'purple'
_exptl_crystal_density_diffrn 1.471
_exptl_special_details
;
Magnetic properties

;
_exptl_crystal_description 'parallelepiped'
_diffrn_ambient_temperature 296
_refine_special_details
;
Disordered solvent molecules were not modelled and the disordered density was 
taken into account using the SQUEEZE/PLATON procedure.
;
#These two values have been output from a single CSD field.
_refine_ls_R_factor_gt 0.0348
_refine_ls_wR_factor_gt 0.0348
_symmetry_cell_setting rhombohedral
_symmetry_space_group_name_H-M 'R 3 c'
_symmetry_Int_Tables_number 161
loop_
_symmetry_equiv_pos_site_id
_symmetry_equiv_pos_as_xyz
1 x,y,z
2 -y,x-y,z
3 -x+y,-x,z
4 -y,-x,1/2+z
5 -x+y,y,1/2+z
6 x,x-y,1/2+z
7 2/3+x,1/3+y,1/3+z
8 2/3-y,1/3+x-y,1/3+z
9 2/3-x+y,1/3-x,1/3+z
10 2/3-y,1/3-x,5/6+z
11 2/3-x+y,1/3+y,5/6+z
12 2/3+x,1/3+x-y,5/6+z
13 1/3+x,2/3+y,2/3+z
14 1/3-y,2/3+x-y,2/3+z
15 1/3-x+y,2/3-x,2/3+z
16 1/3-y,2/3-x,1/6+z
17 1/3-x+y,2/3+y,1/6+z
18 1/3+x,2/3+x-y,1/6+z
_cell_length_a 26.3296(16)
_cell_length_b 26.3296(16)
_cell_length_c 23.314(3)
_cell_angle_alpha 90
_cell_angle_beta 90
_cell_angle_gamma 120
_cell_formula_units_Z 6
loop_
_atom_type_symbol
_atom_type_radius_bond
C 0.68
H 0.23
Cr 1.39
Mn 1.61
N 0.68
O 0.68
loop_
_atom_site_label
_atom_site_type_symbol
_atom_site_fract_x
_atom_site_fract_y
_atom_site_fract_z
Cr1 Cr 0.66670 0.33330 0.31186(7)
Cr2 Cr 0.35819(4) 0.00745(4) 0.33737(4)
Mn1 Mn 0.59854(4) 0.09557(4) 0.32759(4)
O1 O 0.67420(19) 0.27334(18) 0.26663(18)
O2 O 0.61543(18) 0.26560(17) 0.36023(19)
O3 O 0.6516(2) 0.17993(18) 0.2746(2)
O4 O 0.5916(2) 0.1726(2) 0.37304(19)
C1 C 0.6496(3) 0.2232(3) 0.2915(3)
C2 C 0.6162(3) 0.2186(3) 0.3464(3)
O5 O 0.5196(2) 0.0996(2) 0.2792(2)
O6 O 0.51768(19) 0.04805(18) 0.38222(19)
O7 O 0.42268(19) 0.0566(2) 0.28422(16)
O8 O 0.4238(2) 0.02106(19) 0.38842(18)
C3 C 0.4725(3) 0.0691(3) 0.3032(3)
C4 C 0.4730(3) 0.0441(2) 0.3635(3)
O9 O 0.29964(19) -0.0110(2) 0.2768(2)
O10 O 0.3542(2) -0.06467(19) 0.3091(2)
O11 O 0.3175(2) -0.1292(2) 0.2385(2)
O12 O 0.2610(2) -0.0715(3) 0.2018(3)
C5 C 0.3237(3) -0.0858(3) 0.2653(3)
C6 C 0.2911(3) -0.0538(3) 0.2449(3)
O13 O 0.35381(19) 0.07648(19) 0.3648(2)
O14 O 0.29729(19) -0.03300(19) 0.3960(2)
O15 O 0.3039(2) 0.10006(19) 0.4236(2)
O16 O 0.2426(2) -0.0149(2) 0.4571(2)
C7 C 0.3150(3) 0.0646(3) 0.4018(3)
C8 C 0.2819(3) 0.0004(3) 0.4216(3)
N1 N 0.4844(3) 0.2701(3) 0.9654(4)
C9 C 0.5396(5) 0.2724(9) 0.9807(8)
H1 H 0.56990 0.29800 0.95470
H2 H 0.53450 0.23370 0.97820
H3 H 0.55040 0.28680 1.01920
C10 C 0.4675(6) 0.2480(7) 0.9068(6)
H4 H 0.49760 0.27370 0.88060
H5 H 0.43130 0.24650 0.89720
H6 H 0.46250 0.20940 0.90420
C11 C 0.4352(5) 0.2267(5) 1.0065(6)
H7 H 0.43120 0.18860 1.00310
H8 H 0.39880 0.22450 0.99640
H9 H 0.44520 0.24030 1.04530
C12 C 0.4867(8) 0.3259(6) 0.9710(8)
H10 H 0.51620 0.35400 0.94580
H11 H 0.49600 0.33930 1.00990
H12 H 0.44920 0.32130 0.96090
N2 N 0.5033(4) 0.9490(6) 0.0334(4)
C13 C 0.4614(5) 0.9552(6) -0.0007(5)
H13 H 0.47800 0.97080 -0.03760
H14 H 0.45130 0.98140 0.01810
H15 H 0.42680 0.91760 -0.00550
C14 C 0.5459(11) 1.0119(11) 0.0491(11)
H16 H 0.56790 1.03260 0.01570
H17 H 0.57220 1.01290 0.07820
H18 H 0.52460 1.03010 0.06330
C15 C 0.5301(12) 0.9225(14) -0.0005(8)
H19 H 0.54560 0.94440 -0.03530
H20 H 0.50120 0.88280 -0.00970
H21 H 0.56130 0.92270 0.02100
C16 C 0.4779(8) 0.9248(12) 0.0920(7)
H22 H 0.44350 0.88690 0.08780
H23 H 0.46770 0.95090 0.11080
H24 H 0.50650 0.92120 0.11450
Cr2A Cr 0.99255(4) 0.35074(4) 0.33737(4)
Mn1A Mn 0.90443(4) 0.50297(4) 0.32759(4)
O1A O 0.72666(19) 0.40086(18) 0.26663(18)
O2A O 0.73440(18) 0.34983(17) 0.36023(19)
O3A O 0.82007(20) 0.47167(18) 0.2746(2)
O4A O 0.8274(2) 0.4190(2) 0.37304(19)
C1A C 0.7768(3) 0.4264(3) 0.2915(3)
C2A C 0.7814(3) 0.3976(3) 0.3464(3)
O5A O 0.9004(2) 0.4200(2) 0.2792(2)
O6A O 0.95195(19) 0.46963(18) 0.38222(19)
O7A O 0.94340(19) 0.36608(20) 0.28422(16)
O8A O 0.97894(20) 0.40274(19) 0.38842(18)
C3A C 0.9309(3) 0.4034(3) 0.3032(3)
C4A C 0.9559(3) 0.4289(2) 0.3635(3)
O9A O 1.01100(19) 0.31064(20) 0.2768(2)
O10A O 1.06467(20) 0.41887(19) 0.3091(2)
O11A O 1.1292(2) 0.4467(2) 0.2385(2)
O12A O 1.0715(2) 0.3325(3) 0.2018(3)
C5A C 1.0858(3) 0.4095(3) 0.2653(3)
C6A C 1.0538(3) 0.3449(3) 0.2449(3)
O13A O 0.92352(19) 0.27733(19) 0.3648(2)
O14A O 1.03300(19) 0.33029(19) 0.3960(2)
O15A O 0.89994(20) 0.20384(19) 0.4236(2)
O16A O 1.0149(2) 0.2575(2) 0.4571(2)
C7A C 0.9354(3) 0.2504(3) 0.4018(3)
C8A C 0.9996(3) 0.2815(3) 0.4216(3)
Cr2B Cr 0.64926(4) 0.64181(4) 0.33737(4)
Mn1B Mn 0.49703(4) 0.40146(4) 0.32759(4)
O1B O 0.59914(19) 0.32580(18) 0.26663(18)
O2B O 0.65017(18) 0.38457(17) 0.36023(19)
O3B O 0.52833(20) 0.34840(18) 0.2746(2)
O4B O 0.5810(2) 0.4084(2) 0.37304(19)
C1B C 0.5736(3) 0.3504(3) 0.2915(3)
C2B C 0.6024(3) 0.3838(3) 0.3464(3)
O5B O 0.5800(2) 0.4804(2) 0.2792(2)
O6B O 0.53037(19) 0.48232(18) 0.38222(19)
O7B O 0.63392(19) 0.57732(20) 0.28422(16)
O8B O 0.59726(20) 0.57620(19) 0.38842(18)
C3B C 0.5966(3) 0.5275(3) 0.3032(3)
C4B C 0.5711(3) 0.5270(2) 0.3635(3)
O9B O 0.68936(19) 0.70036(20) 0.2768(2)
O10B O 0.58113(20) 0.64580(19) 0.3091(2)
O11B O 0.5533(2) 0.6825(2) 0.2385(2)
O12B O 0.6675(2) 0.7390(3) 0.2018(3)
C5B C 0.5905(3) 0.6763(3) 0.2653(3)
C6B C 0.6551(3) 0.7089(3) 0.2449(3)
O13B O 0.72267(19) 0.64619(19) 0.3648(2)
O14B O 0.66971(19) 0.70271(19) 0.3960(2)
O15B O 0.79616(20) 0.69610(19) 0.4236(2)
O16B O 0.7425(2) 0.7574(2) 0.4571(2)
C7B C 0.7496(3) 0.6850(3) 0.4018(3)
C8B C 0.7185(3) 0.7181(3) 0.4216(3)
Mn1I Mn 0.571097(40) 0.734793(40) 0.160923(40)
Mn1J Mn 1.163697(40) 0.428903(40) 0.160923(40)
Mn1K Mn 0.265207(40) -0.163697(40) 0.160923(40)
Mn1O Mn 0.237763(40) 0.068127(40) 0.494257(40)
Mn1P Mn 0.830363(40) 0.762237(40) 0.494257(40)
Mn1Q Mn 0.931873(40) 0.169637(40) 0.494257(40)
O11O O 0.462533(200) 0.349167(200) 0.405167(200)
O11P O 0.886633(200) 0.537467(200) 0.405167(200)
O11Q O 0.650833(200) 0.113367(200) 0.405167(200)
O12O O 0.404833(200) 0.405667(300) 0.368467(300)
O12P O 1.000833(200) 0.595167(300) 0.368467(300)
O12Q O 0.594333(200) -0.000833(300) 0.368467(300)
O15I O 0.566607(200) 0.029433(190) 0.256933(200)
O15J O 0.462827(200) 0.433393(190) 0.256933(200)
O15K O 0.970567(200) 0.537173(190) 0.256933(200)
O16I O 0.681567(200) 0.090733(200) 0.290433(200)
O16J O 0.409167(200) 0.318433(200) 0.290433(200)
O16K O 0.909267(200) 0.590833(200) 0.290433(200)
#END
