
#######################################################################
#
#                 Cambridge Crystallographic Data Centre
#                                CCDC
#
#######################################################################
#
# If this CIF has been generated from an entry in the Cambridge
# Structural Database, then it will include bibliographic, chemical,
# crystal, experimental, refinement or atomic coordinate data resulting
# from the CCDC's data processing and validation procedures.
#
#######################################################################

data_CSD_CIF_OTOLOA
_audit_creation_date 2016-08-22
_audit_creation_method CSD-ConQuest-V1
_database_code_CSD OTOLOA
_database_code_depnum_ccdc_archive 'CCDC 1473005'
_chemical_formula_sum 'C22 H30 N2 O8 Ti1'
_chemical_formula_moiety
;
(C14 H6 O8 Ti1 2-)n,2n(C4 H12 N1 1+)
;
_journal_coden_Cambridge 9
_journal_volume 55
_journal_year 2016
_journal_page_first 7192
_journal_name_full 'Inorg.Chem. '
loop_
_publ_author_name
"H.Assi"
"L.C.P.Perez"
"G.Mouchaham"
"F.Ragon"
"M.Nasalevich"
"N.Guillou"
"C.Martineau"
"H.Chevreau"
"F.Kapteijn"
"J.Gascon"
"P.Fertey"
"E.Elkaim"
"C.Serre"
"T.Devic"
_chemical_name_systematic
;
catena-[bis(diethylammonium) 
(\m-2,5-dioxyterephthalato)-(benzene-1,2-diolato)-titanium(iv)]
;
_chemical_name_common
;
MIL-168
;
_cell_volume   2426.082
_exptl_crystal_colour 'orange'
_exptl_crystal_density_diffrn 1.364
_exptl_crystal_description 'prism'
_diffrn_ambient_temperature 150
_diffrn_radiation_probe x-ray
_diffrn_source synchrotron
#These two values have been output from a single CSD field.
_refine_ls_R_factor_gt 0.0676
_refine_ls_wR_factor_gt 0.0676
_symmetry_cell_setting orthorhombic
_symmetry_space_group_name_H-M 'P b c n'
_symmetry_Int_Tables_number 60
loop_
_symmetry_equiv_pos_site_id
_symmetry_equiv_pos_as_xyz
1 x,y,z
2 1/2-x,1/2-y,1/2+z
3 -x,y,1/2-z
4 1/2+x,1/2-y,-z
5 -x,-y,-z
6 -1/2+x,-1/2+y,-1/2-z
7 x,-y,-1/2+z
8 -1/2-x,-1/2+y,z
_cell_length_a 13.3677(8)
_cell_length_b 16.8635(12)
_cell_length_c 10.7622(6)
_cell_angle_alpha 90
_cell_angle_beta 90
_cell_angle_gamma 90
_cell_formula_units_Z 4
loop_
_atom_type_symbol
_atom_type_radius_bond
C 0.68
H 0.23
N 0.68
O 0.68
Ti 1.60
loop_
_atom_site_label
_atom_site_type_symbol
_atom_site_fract_x
_atom_site_fract_y
_atom_site_fract_z
Ti1 Ti 0.50000 0.30538(10) 0.25000
C1 C 0.5894(5) 0.5075(5) 0.0632(7)
H1 H 0.64930 0.51310 0.10620
C2 C 0.5342(6) 0.4386(5) 0.0768(6)
C3 C 0.4439(6) 0.4305(4) 0.0154(7)
C4 C 0.3781(7) 0.3588(5) 0.0300(9)
O1 O 0.5720(3) 0.3798(3) 0.1495(5)
O2 O 0.3953(4) 0.3108(3) 0.1201(5)
O3 O 0.3075(5) 0.3476(3) -0.0454(6)
C5 C 0.5391(6) 0.1471(5) 0.2085(6)
C6 C 0.5809(8) 0.0775(6) 0.1658(10)
H2 H 0.63480 0.07730 0.11130
C7 C 0.5373(11) 0.0071(7) 0.2092(13)
H3 H 0.56130 -0.04110 0.17990
O4 O 0.5718(3) 0.2184(3) 0.1752(4)
C8 C 0.1439(11) 0.2992(8) 0.2059(14)
H4 H 0.18750 0.26720 0.25600
H5 H 0.09040 0.31940 0.25640
H6 H 0.18090 0.34270 0.17140
C9 C 0.1068(10) 0.2561(8) 0.1158(11)
H7 H 0.06380 0.28870 0.06420
H8 H 0.06650 0.21370 0.15060
N1 N 0.1912(5) 0.2202(4) 0.0355(6)
H9 H 0.16510 0.20240 -0.03640
H10 H 0.23600 0.25830 0.01720
C10 C 0.2419(8) 0.1552(6) 0.0985(10)
H11 H 0.19350 0.11610 0.12600
H12 H 0.27770 0.17490 0.17060
C11 C 0.3144(8) 0.1181(6) 0.0074(10)
H13 H 0.28520 0.11790 -0.07410
H14 H 0.32870 0.06460 0.03240
H15 H 0.37530 0.14830 0.00610
C1D C 0.4106(5) 0.4925(5) -0.0632(7)
H1D H 0.35070 0.48690 -0.10620
C2D C 0.4658(6) 0.5614(5) -0.0768(6)
C3D C 0.5561(6) 0.5695(4) -0.0154(7)
C4D C 0.6219(7) 0.6412(5) -0.0300(9)
O1D O 0.4280(3) 0.6202(3) -0.1495(5)
O2D O 0.6047(4) 0.6892(3) -0.1201(5)
O3D O 0.6925(5) 0.6524(3) 0.0454(6)
C5B C 0.4609(6) 0.1471(5) 0.2915(6)
C6B C 0.4191(8) 0.0775(6) 0.3342(10)
H2B H 0.36520 0.07730 0.38870
C7B C 0.4627(11) 0.0071(7) 0.2908(13)
H3B H 0.43870 -0.04110 0.32010
O4B O 0.4282(3) 0.2184(3) 0.3248(4)
Ti1D Ti 0.50000 0.69462(10) -0.25000
O1B O 0.4280(3) 0.3798(3) 0.3505(5)
O2B O 0.6047(4) 0.3108(3) 0.3799(5)
#END
