
#######################################################################
#
#                 Cambridge Crystallographic Data Centre
#                                CCDC
#
#######################################################################
#
# If this CIF has been generated from an entry in the Cambridge
# Structural Database, then it will include bibliographic, chemical,
# crystal, experimental, refinement or atomic coordinate data resulting
# from the CCDC's data processing and validation procedures.
#
#######################################################################

data_CSD_CIF_OTOZIH
_audit_creation_date 2011-08-22
_audit_creation_method CSD-ConQuest-V1
_database_code_CSD OTOZIH
_database_code_depnum_ccdc_archive 'CCDC 809756'
_chemical_formula_sum 'C32 H48 Cd2 N8 S4'
_chemical_formula_moiety
;
(C24 H16 Cd1 S4 2-)n,n(C6 H24 Cd1 N6 2+),n(C2 H8 N2)
;
_journal_coden_Cambridge 440
_journal_volume 35
_journal_year 2011
_journal_page_first 1265
_journal_name_full 'New J.Chem. '
loop_
_publ_author_name
"N.Louvain"
"Y.Takashima"
"S.Kitagawa"
"S.Furukawa"
_chemical_name_systematic
;
catena-[tris(Ethylenediamine)-cadmium(ii) 
bis(\m~2~-4,4'-biphenyldithiolato)-cadmium(ii) ethylenediamine solvate]
;
_cell_volume   3846.420
_exptl_crystal_colour 'colorless'
_exptl_crystal_density_diffrn 1.544
_exptl_crystal_description 'prism'
_diffrn_ambient_temperature 93.2
_refine_special_details
;
The uncoordinated ethylenediamine molecule is disordered over two sites with 
occupancies 0.630:0.370.
;
#These two values have been output from a single CSD field.
_refine_ls_R_factor_gt 0.038
_refine_ls_wR_factor_gt 0.038
_symmetry_cell_setting orthorhombic
_symmetry_space_group_name_H-M 'P b c 21'
_symmetry_Int_Tables_number 29
loop_
_symmetry_equiv_pos_site_id
_symmetry_equiv_pos_as_xyz
1 x,y,z
2 -x,-y,1/2+z
3 -x,1/2+y,z
4 x,1/2-y,1/2+z
_cell_length_a 9.1429(12)
_cell_length_b 19.388(3)
_cell_length_c 21.699(3)
_cell_angle_alpha 90
_cell_angle_beta 90
_cell_angle_gamma 90
_cell_formula_units_Z 4
loop_
_atom_type_symbol
_atom_type_radius_bond
C 0.68
H 0.23
Cd 1.44
N 0.68
S 1.02
loop_
_atom_site_label
_atom_site_type_symbol
_atom_site_fract_x
_atom_site_fract_y
_atom_site_fract_z
C1 C 0.0299(6) 0.5019(3) 0.3344(3)
C2 C -0.0936(8) 0.4607(4) 0.3265(3)
H1 H -0.15930 0.45600 0.35900
C3 C -0.1210(8) 0.4270(4) 0.2726(3)
H2 H -0.20400 0.39950 0.26980
C4 C -0.0302(7) 0.4322(3) 0.2220(3)
C5 C 0.0953(8) 0.4720(3) 0.2290(3)
H3 H 0.16000 0.47620 0.19620
C6 C 0.1265(8) 0.5064(3) 0.2851(3)
H4 H 0.21180 0.53220 0.28900
C7 C -0.1162(6) 0.3235(3) 0.0507(3)
C8 C -0.1677(9) 0.3004(4) 0.1077(3)
H5 H -0.22220 0.25990 0.10890
C9 C -0.1415(9) 0.3347(4) 0.1620(3)
H6 H -0.17810 0.31680 0.19870
C10 C -0.0621(7) 0.3953(3) 0.1634(3)
C11 C -0.0076(7) 0.4181(3) 0.1066(3)
H7 H 0.04890 0.45800 0.10530
C12 C -0.0353(7) 0.3832(3) 0.0526(3)
H8 H 0.00230 0.40060 0.01600
C13 C 0.4704(6) 0.4430(3) -0.0136(3)
C14 C 0.3356(6) 0.4753(3) -0.0038(3)
H9 H 0.25940 0.46880 -0.03160
C15 C 0.3155(6) 0.5169(3) 0.0469(3)
H10 H 0.22490 0.53790 0.05200
C16 C 0.4233(6) 0.5293(3) 0.0909(3)
C17 C 0.5565(7) 0.4954(4) 0.0810(3)
H11 H 0.63090 0.50070 0.10990
C18 C 0.5814(7) 0.4546(3) 0.0303(3)
H12 H 0.67270 0.43430 0.02480
C19 C 0.3296(7) 0.6584(3) 0.2482(3)
C20 C 0.4474(8) 0.6139(4) 0.2484(3)
H13 H 0.50730 0.61210 0.28300
C21 C 0.4788(8) 0.5716(4) 0.1985(3)
H14 H 0.55750 0.54130 0.20060
C22 C 0.3945(6) 0.5740(3) 0.1454(3)
C23 C 0.2757(8) 0.6202(4) 0.1448(4)
H15 H 0.21820 0.62440 0.10960
C24 C 0.2447(7) 0.6588(4) 0.1952(4)
H16 H 0.16220 0.68680 0.19430
C25 C 0.6028(6) 0.3622(3) 0.4112(4)
H17 H 0.69630 0.35280 0.39180
H18 H 0.62150 0.37990 0.45230
C26 C 0.5210(7) 0.4157(3) 0.3741(3)
H19 H 0.57930 0.45730 0.37080
H20 H 0.50270 0.39840 0.33290
C27 C 0.1712(9) 0.1996(4) 0.3479(4)
H21 H 0.10880 0.15980 0.34170
H22 H 0.26530 0.18990 0.32910
C28 C 0.1019(10) 0.2631(4) 0.3165(4)
H23 H 0.09180 0.25460 0.27270
H24 H 0.00530 0.27120 0.33340
C29 C 0.0940(7) 0.4017(4) 0.5361(4)
H25 H 0.00490 0.41190 0.55850
H26 H 0.15090 0.44380 0.53310
C30 C 0.1819(9) 0.3468(4) 0.5707(4)
H27 H 0.20420 0.36340 0.61180
H28 H 0.12330 0.30530 0.57470
N1 N 0.5173(5) 0.2978(2) 0.4154(3)
H29 H 0.55020 0.27210 0.44710
H30 H 0.52800 0.27320 0.38050
N2 N 0.3822(5) 0.4313(2) 0.4047(3)
H31 H 0.32410 0.45580 0.37940
H32 H 0.39820 0.45620 0.43900
N3 N 0.1911(6) 0.2116(2) 0.4142(3)
H33 H 0.25790 0.18200 0.42920
H34 H 0.10610 0.20430 0.43410
N4 N 0.1921(7) 0.3229(3) 0.3263(3)
H35 H 0.14110 0.36140 0.31770
H36 H 0.27050 0.32140 0.30120
N5 N 0.0578(5) 0.3768(3) 0.4744(3)
H37 H 0.02830 0.41220 0.45070
H38 H -0.01550 0.34590 0.47660
N6 N 0.3166(7) 0.3304(3) 0.5391(3)
H39 H 0.35150 0.28970 0.55250
H40 H 0.38400 0.36310 0.54670
S1 S 0.06095(15) 0.53919(6) 0.40707(7)
S2 S -0.15686(15) 0.27580(6) -0.01686(7)
S3 S 0.49233(14) 0.39155(7) -0.07894(8)
S4 S 0.27985(19) 0.71319(9) 0.30954(7)
Cd1 Cd 0.24180(4) 0.636971(18) 0.40217(2)
Cd2 Cd 0.26856(4) 0.32428(2) 0.43044(2)
N7 N 0.4800(18) 0.2947(10) 0.0784(7)
C31 C 0.3428(16) 0.3224(8) 0.0971(7)
H41 H 0.26470 0.30210 0.07290
H42 H 0.34170 0.37190 0.09050
C32 C 0.319(2) 0.3057(13) 0.1682(8)
H43 H 0.23180 0.32960 0.18170
H44 H 0.30070 0.25670 0.17210
N8 N 0.437(2) 0.3235(11) 0.2104(7)
C33? C 0.3368(19) 0.3395(8) 0.1367(9)
C34? C 0.4329(16) 0.2878(6) 0.1717(6)
H45? H 0.32000 0.32280 0.09520
H46? H 0.24280 0.34340 0.15710
H47? H 0.38560 0.24300 0.17230
H48? H 0.52620 0.28300 0.15090
N9? N 0.407(3) 0.4079(9) 0.1341(13)
N10? N 0.457(4) 0.3122(15) 0.2364(9)
S2A S 0.15686(15) 0.72420(6) 0.48314(7)
S3A S 0.50767(14) 0.60845(7) 0.42106(8)
Cd1A Cd -0.24180(4) 0.363029(18) -0.09783(2)
Cd1A* Cd 0.75820(4) 0.363029(18) -0.09783(2)
#END
