
#######################################################################
#
#                 Cambridge Crystallographic Data Centre
#                                CCDC
#
#######################################################################
#
# If this CIF has been generated from an entry in the Cambridge
# Structural Database, then it will include bibliographic, chemical,
# crystal, experimental, refinement or atomic coordinate data resulting
# from the CCDC's data processing and validation procedures.
#
#######################################################################

data_CSD_CIF_OTUBUB
_audit_creation_date 2011-11-29
_audit_creation_method CSD-ConQuest-V1
_database_code_CSD OTUBUB
_database_code_depnum_ccdc_archive 'CCDC 839018'
_chemical_formula_sum 'C32 H50 Cu4 N8 O41 Si1 W12'
_chemical_formula_moiety
;
(C32 H48 Cu4 N8 4+)n,n(O40 Si1 W12 4-),n(H2 O1)
;
_journal_coden_Cambridge 1147
_journal_volume 11
_journal_year 2011
_journal_page_first 1786
_journal_name_full 'Cryst.Growth Des. '
loop_
_publ_author_name
"Hai-Yan Liu"
"Hua Wu"
"Jin Yang"
"Ying-Ying Liu"
"Jian-Fang Ma"
"Hong-Ye Bai"
_chemical_name_systematic
;
catena-(tetrakis(\m~2~-2,3,5,6-Tetramethylpyrazine)-tetra-copper(i) 
(\m~12~-silicato)-tetracosakis(\m~2~-oxo)-dodecaoxo-dodeca-tungsten 
monohydrate)
;
_cell_volume   7094.392
_exptl_crystal_colour 'red'
_exptl_crystal_density_diffrn 3.456
_exptl_crystal_description 'block'
_diffrn_ambient_temperature 293
#These two values have been output from a single CSD field.
_refine_ls_R_factor_gt 0.0382
_refine_ls_wR_factor_gt 0.0382
_symmetry_cell_setting monoclinic
_symmetry_space_group_name_H-M 'C 2/c'
_symmetry_Int_Tables_number 15
loop_
_symmetry_equiv_pos_site_id
_symmetry_equiv_pos_as_xyz
1 x,y,z
2 -x,y,1/2-z
3 1/2+x,1/2+y,z
4 1/2-x,1/2+y,1/2-z
5 -x,-y,-z
6 x,-y,-1/2+z
7 -1/2-x,-1/2-y,-z
8 -1/2+x,-1/2-y,-1/2+z
_cell_length_a 12.6564(5)
_cell_length_b 22.9398(10)
_cell_length_c 24.7425(9)
_cell_angle_alpha 90
_cell_angle_beta 99.040(3)
_cell_angle_gamma 90
_cell_formula_units_Z 4
loop_
_atom_type_symbol
_atom_type_radius_bond
C 0.68
H 0.23
Cu 1.32
N 0.68
O 0.68
Si 1.20
W 1.40
loop_
_atom_site_label
_atom_site_type_symbol
_atom_site_fract_x
_atom_site_fract_y
_atom_site_fract_z
Cu1 Cu 1.44675(16) 0.2845(1) 0.07818(7)
Cu2 Cu 1.19771(17) 0.53381(10) 0.08683(9)
W1 W 0.77375(4) 0.28016(3) 0.14831(2)
W2 W 1.16678(4) 0.29019(3) 0.14936(2)
W3 W 0.98050(5) 0.39372(3) 0.14768(2)
W4 W 0.95941(5) 0.17695(3) 0.14753(2)
W5 W 0.80550(5) 0.39420(3) 0.25431(2)
W6 W 0.80292(5) 0.17613(3) 0.24439(2)
C1 C 1.3034(11) 0.3759(8) 0.0359(6)
C2 C 1.2468(11) 0.4263(7) 0.0413(6)
C3 C 1.3588(11) 0.4515(7) 0.1201(6)
C4 C 1.4128(9) 0.3995(6) 0.1168(5)
C5 C 1.2795(12) 0.3340(8) -0.0110(6)
H1 H 1.21310 0.31440 -0.00910
H2 H 1.33600 0.30580 -0.00890
H3 H 1.27410 0.35490 -0.04490
C6 C 1.1458(11) 0.4412(9) 0.0021(7)
H4 H 1.12590 0.48090 0.00780
H5 H 1.08900 0.41570 0.00860
H6 H 1.15840 0.43650 -0.03490
C7 C 1.3935(11) 0.4970(8) 0.1615(5)
H7 H 1.38000 0.53480 0.14530
H8 H 1.46860 0.49280 0.17460
H9 H 1.35430 0.49290 0.19150
C8 C 1.5057(11) 0.3800(9) 0.1634(6)
H10 H 1.49490 0.34010 0.17300
H11 H 1.50570 0.40430 0.19490
H12 H 1.57320 0.38360 0.15050
C9 C 1.5002(10) 0.1706(7) 0.1190(5)
C10 C 1.5541(11) 0.1164(7) 0.1212(6)
C11 C 1.6281(10) 0.1435(7) 0.0454(5)
C12 C 1.5677(10) 0.1933(7) 0.0393(5)
C13 C 1.4412(11) 0.1883(8) 0.1639(6)
H13 H 1.47740 0.22050 0.18350
H14 H 1.43850 0.15610 0.18840
H15 H 1.36980 0.19980 0.14860
C14 C 1.5438(12) 0.0708(7) 0.1636(6)
H16 H 1.48870 0.04360 0.14940
H17 H 1.52580 0.08910 0.19580
H18 H 1.61060 0.05040 0.17270
C15 C 1.5672(13) 0.2375(8) -0.0050(5)
H19 H 1.57850 0.21840 -0.03810
H20 H 1.62320 0.26530 0.00560
H21 H 1.49940 0.25720 -0.01090
C16 C 1.7079(12) 0.1272(10) 0.0070(6)
H22 H 1.75660 0.15890 0.00520
H23 H 1.66970 0.11930 -0.02890
H24 H 1.74730 0.09310 0.02080
N1 N 1.3866(8) 0.3604(5) 0.0749(4)
N2 N 1.2725(9) 0.4641(6) 0.0825(5)
N3 N 1.5078(8) 0.2079(5) 0.0786(4)
N4 N 1.6192(8) 0.1040(6) 0.0837(4)
O1 O 0.7161(6) 0.2204(5) 0.1885(3)
O2 O 1.0515(6) 0.2377(4) 0.1305(3)
O3 O 1.1000(7) 0.4340(4) 0.1893(3)
O4 O 0.7077(8) 0.4467(5) 0.2389(4)
O5 O 0.7154(8) 0.1238(5) 0.2584(4)
O6 O 0.6675(7) 0.2980(5) 0.0988(4)
O7 O 0.9407(8) 0.4444(5) 0.0995(4)
O8 O 1.2442(6) 0.2727(5) 0.1006(3)
O9 O 0.9715(8) 0.1268(5) 0.0988(4)
O10 O 1.0643(6) 0.3260(4) 0.2110(3)
O11 O 0.9152(6) 0.2441(4) 0.2108(3)
O12 O 1.2178(6) 0.2367(4) 0.2050(3)
O13 O 1.0770(6) 0.3504(4) 0.1117(3)
O14 O 0.7558(6) 0.3332(5) 0.2037(3)
O15 O 0.8769(6) 0.3340(4) 0.1292(3)
O16 O 0.8386(6) 0.2210(5) 0.1117(3)
O17 O 0.8991(7) 0.4150(4) 0.2036(3)
O18 O 0.8627(7) 0.1376(4) 0.1876(3)
O19 O 1.0752(7) 0.1554(5) 0.2052(3)
O20 O 1.2496(7) 0.3503(5) 0.1900(3)
Si1 Si 1.00000 0.2852(3) 0.25000
O21 O 1.223(3) 0.0395(19) 0.1317(14)
Cu1B Cu 1.94675(16) -0.2155(1) 0.07818(7)
Cu1B* Cu 0.94675(16) 0.7845(1) 0.07818(7)
Cu2B Cu 1.69771(17) 0.03381(10) 0.08683(9)
W1A W 1.22625(4) 0.28016(3) 0.35169(2)
W2A W 0.83322(4) 0.29019(3) 0.35064(2)
W3A W 1.01950(5) 0.39372(3) 0.35232(2)
W4A W 1.04059(5) 0.17695(3) 0.35247(2)
W5A W 1.19450(5) 0.39420(3) 0.24569(2)
W6A W 1.19708(5) 0.17613(3) 0.25561(2)
C1B C 1.8034(11) -0.1241(8) 0.0359(6)
C2B C 1.7468(11) -0.0737(7) 0.0413(6)
C3B C 1.8588(11) -0.0485(7) 0.1201(6)
C4B C 1.9128(9) -0.1005(6) 0.1168(5)
C5B C 1.7795(12) -0.1660(8) -0.0110(6)
H1B H 1.71310 -0.18560 -0.00910
H2B H 1.83600 -0.19420 -0.00890
H3B H 1.77410 -0.14510 -0.04490
C6B C 1.6458(11) -0.0588(9) 0.0021(7)
H4B H 1.62590 -0.01910 0.00780
H5B H 1.58900 -0.08430 0.00860
H6B H 1.65840 -0.06350 -0.03490
C7B C 1.8935(11) -0.0030(8) 0.1615(5)
H7B H 1.88000 0.03480 0.14530
H8B H 1.96860 -0.00720 0.17460
H9B H 1.85430 -0.00710 0.19150
C8B C 2.0057(11) -0.1200(9) 0.1634(6)
H10B H 1.99490 -0.15990 0.17300
H11B H 2.00570 -0.09570 0.19490
H12B H 2.07320 -0.11640 0.15050
C9B C 1.0002(10) 0.6706(7) 0.1190(5)
C10B C 1.0541(11) 0.6164(7) 0.1212(6)
C11B C 1.1281(10) 0.6435(7) 0.0454(5)
C12B C 1.0677(10) 0.6933(7) 0.0393(5)
C13B C 0.9412(11) 0.6883(8) 0.1639(6)
H13B H 0.97740 0.72050 0.18350
H14B H 0.93850 0.65610 0.18840
H15B H 0.86980 0.69980 0.14860
C14B C 1.0438(12) 0.5708(7) 0.1636(6)
H16B H 0.98870 0.54360 0.14940
H17B H 1.02580 0.58910 0.19580
H18B H 1.11060 0.55040 0.17270
C15B C 1.0672(13) 0.7375(8) -0.0050(5)
H19B H 1.07850 0.71840 -0.03810
H20B H 1.12320 0.76530 0.00560
H21B H 0.99940 0.75720 -0.01090
C16B C 1.2079(12) 0.6272(10) 0.0070(6)
H22B H 1.25660 0.65890 0.00520
H23B H 1.16970 0.61930 -0.02890
H24B H 1.24730 0.59310 0.02080
N1B N 1.8866(8) -0.1396(5) 0.0749(4)
N2B N 1.7725(9) -0.0359(6) 0.0825(5)
N3B N 1.0078(8) 0.7079(5) 0.0786(4)
N3B* N 2.0078(8) -0.2921(5) 0.0786(4)
N4B N 1.1192(8) 0.6040(6) 0.0837(4)
O1A O 1.2839(6) 0.2204(5) 0.3115(3)
O2A O 0.9485(6) 0.2377(4) 0.3695(3)
O3A O 0.9000(7) 0.4340(4) 0.3107(3)
O4A O 1.2923(8) 0.4467(5) 0.2611(4)
O5A O 1.2846(8) 0.1238(5) 0.2416(4)
O6A O 1.3325(7) 0.2980(5) 0.4012(4)
O7A O 1.0593(8) 0.4444(5) 0.4005(4)
O8A O 0.7558(6) 0.2727(5) 0.3994(3)
O9A O 1.0285(8) 0.1268(5) 0.4012(4)
O10A O 0.9357(6) 0.3260(4) 0.2890(3)
O11A O 1.0848(6) 0.2441(4) 0.2892(3)
O12A O 0.7822(6) 0.2367(4) 0.2950(3)
O13A O 0.9230(6) 0.3504(4) 0.3883(3)
O14A O 1.2442(6) 0.3332(5) 0.2963(3)
O15A O 1.1231(6) 0.3340(4) 0.3708(3)
O16A O 1.1614(6) 0.2210(5) 0.3883(3)
O17A O 1.1009(7) 0.4150(4) 0.2964(3)
O18A O 1.1373(7) 0.1376(4) 0.3124(3)
O19A O 0.9248(7) 0.1554(5) 0.2948(3)
O20A O 0.7504(7) 0.3503(5) 0.3100(3)
#END
