
#######################################################################
#
#                 Cambridge Crystallographic Data Centre
#                                CCDC
#
#######################################################################
#
# If this CIF has been generated from an entry in the Cambridge
# Structural Database, then it will include bibliographic, chemical,
# crystal, experimental, refinement or atomic coordinate data resulting
# from the CCDC's data processing and validation procedures.
#
#######################################################################

data_CSD_CIF_OTUCEO
_audit_creation_date 2021-05-14
_audit_creation_method CSD-ConQuest-V1
_database_code_CSD OTUCEO
_database_code_depnum_ccdc_archive 'CCDC 2064864'
_chemical_formula_sum 'C5 H12 Mn1 N2 O6'
_chemical_formula_moiety
;
(C3 H3 Mn1 O6 1-)n,C2 H9 N2 1+
;
_journal_coden_Cambridge 1695
_journal_volume 9
_journal_year 2021
_journal_page_first 6841
_journal_name_full 'J.Mater.Chem.C '
loop_
_publ_author_name
"J.A.Zienkiewicz"
"D.A.Kowalska"
"K.Fedoruk"
"M.Stefanski"
"A.Pikul"
"M.Ptak"
_chemical_name_systematic
;
catena-[1,1-dimethylhydrazin-1-ium tris(\m-formato)-manganese]
;
_cell_volume    949.725
_exptl_crystal_colour 'colorless'
_exptl_crystal_density_diffrn 1.756
_exptl_special_details
;
low-temperature polymorph

;
_exptl_crystal_description 'block'
_diffrn_ambient_temperature 99.9
_diffrn_special_details
;
twin

;
#These two values have been output from a single CSD field.
_refine_ls_R_factor_gt 0.035
_refine_ls_wR_factor_gt 0.035
_symmetry_cell_setting monoclinic
_symmetry_space_group_name_H-M 'P 21/n'
_symmetry_Int_Tables_number 14
loop_
_symmetry_equiv_pos_site_id
_symmetry_equiv_pos_as_xyz
1 x,y,z
2 1/2-x,1/2+y,1/2-z
3 -x,-y,-z
4 -1/2+x,-1/2-y,-1/2+z
_cell_length_a 8.345(5)
_cell_length_b 12.124(7)
_cell_length_c 9.387(5)
_cell_angle_alpha 90
_cell_angle_beta 90.144(5)
_cell_angle_gamma 90
_cell_formula_units_Z 4
loop_
_atom_type_symbol
_atom_type_radius_bond
C 0.68
H 0.23
Mn 1.61
N 0.68
O 0.68
loop_
_atom_site_label
_atom_site_type_symbol
_atom_site_fract_x
_atom_site_fract_y
_atom_site_fract_z
Mn1 Mn 0.21794(5) 0.75589(3) 0.73447(5)
O1 O 0.0458(3) 0.81569(17) 0.8897(2)
O2 O 0.0366(3) 0.82186(17) 0.5869(2)
O3 O 0.1112(2) 0.59093(14) 0.7315(2)
O4 O 0.1480(2) 0.40991(14) 0.7524(2)
O5 O -0.1125(3) 0.81226(17) 0.3893(2)
C1 C -0.0350(3) 0.7691(3) 0.4892(4)
H1 H -0.02974 0.69256 0.49193
O6 O -0.1468(3) 0.79842(17) 1.0487(2)
C2 C -0.0190(4) 0.7682(3) 0.9922(4)
H2 H 0.03137 0.70596 1.02913
C3 C 0.1964(3) 0.50605(19) 0.7275(3)
H3 H 0.30388 0.51486 0.70431
N1 N 0.7999(3) 0.36419(18) 0.7369(3)
H4 H 0.91395 0.38736 0.72334
H5 H 0.75210 0.34603 0.64373
N2 N 0.7023(3) 0.45587(19) 0.7839(3)
H6 H 0.59736 0.42607 0.81052
C4 C 0.7750(4) 0.5044(2) 0.9145(3)
H7 H 0.79088 0.44758 0.98426
H8 H 0.70474 0.55982 0.95229
H9 H 0.87626 0.53726 0.89111
C5 C 0.6745(4) 0.5417(3) 0.6730(3)
H10 H 0.77358 0.57869 0.65262
H11 H 0.59765 0.59429 0.70721
H12 H 0.63448 0.50754 0.58785
Mn1A Mn 0.28206(5) 0.25589(3) 0.76553(5)
Mn1C Mn -0.28206(5) 0.74411(3) 0.23447(5)
Mn1C* Mn -0.28206(5) 0.74411(3) 1.23447(5)
O4A O 0.3520(2) 0.90991(14) 0.7476(2)
O5C O 0.3875(3) 0.68774(17) 0.8893(2)
O6C O 0.3532(3) 0.70158(17) 0.5487(2)
#END
