
#######################################################################
#
#                 Cambridge Crystallographic Data Centre
#                                CCDC
#
#######################################################################
#
# If this CIF has been generated from an entry in the Cambridge
# Structural Database, then it will include bibliographic, chemical,
# crystal, experimental, refinement or atomic coordinate data resulting
# from the CCDC's data processing and validation procedures.
#
#######################################################################

data_CSD_CIF_OTUCAI
_audit_creation_date 2011-11-29
_audit_creation_method CSD-ConQuest-V1
_database_code_CSD OTUCAI
_database_code_depnum_ccdc_archive 'CCDC 839019'
_chemical_formula_sum 'C24 H35 Cu4 Mo12 N8 O41.5 P1'
_chemical_formula_moiety
;
(C24 H32 Cu4 N8 4+)n,n(Mo12 O40 P1 4-),1.5n(H2 O1)
;
_journal_coden_Cambridge 1147
_journal_volume 11
_journal_year 2011
_journal_page_first 1786
_journal_name_full 'Cryst.Growth Des. '
loop_
_publ_author_name
"Hai-Yan Liu"
"Hua Wu"
"Jin Yang"
"Ying-Ying Liu"
"Jian-Fang Ma"
"Hong-Ye Bai"
_chemical_name_systematic
;
catena-(tetrakis(\m~2~-2,5-Dimethylpyrazine)-tetra-copper(i) 
(\m~12~-phosphato)-tetracosakis(\m~2~-oxo)-dodecaoxo-dodeca-molybdenum 
sesquihydrate)
;
_cell_volume   6042.449
_exptl_crystal_colour 'black'
_exptl_crystal_density_diffrn 2.788
_exptl_crystal_description 'block'
_diffrn_ambient_temperature 293
_refine_special_details
;
The phosphate moiety of the anion is disordered by symmetry.

;
#These two values have been output from a single CSD field.
_refine_ls_R_factor_gt 0.0416
_refine_ls_wR_factor_gt 0.0416
_symmetry_cell_setting monoclinic
_symmetry_space_group_name_H-M 'C 2/c'
_symmetry_Int_Tables_number 15
loop_
_symmetry_equiv_pos_site_id
_symmetry_equiv_pos_as_xyz
1 x,y,z
2 -x,y,1/2-z
3 1/2+x,1/2+y,z
4 1/2-x,1/2+y,1/2-z
5 -x,-y,-z
6 x,-y,-1/2+z
7 -1/2-x,-1/2-y,-z
8 -1/2+x,-1/2-y,-1/2+z
_cell_length_a 23.4725(7)
_cell_length_b 12.0745(3)
_cell_length_c 23.1288(7)
_cell_angle_alpha 90
_cell_angle_beta 112.811(4)
_cell_angle_gamma 90
_cell_formula_units_Z 4
loop_
_atom_type_symbol
_atom_type_radius_bond
C 0.68
H 0.23
Cu 1.26
Mo 1.39
N 0.68
O 0.68
P 1.05
loop_
_atom_site_label
_atom_site_type_symbol
_atom_site_fract_x
_atom_site_fract_y
_atom_site_fract_z
Cu1 Cu 0.69673(4) 0.67035(9) 0.61494(4)
Cu2 Cu 0.44271(5) 0.81258(11) 0.37729(5)
Mo1 Mo 0.88887(3) 0.35849(6) 0.61484(3)
Mo2 Mo 0.78761(3) 0.19633(6) 0.66226(3)
Mo3 Mo 0.87611(3) 0.06928(6) 0.58352(3)
Mo4 Mo 0.84966(3) 0.41766(6) 0.45296(3)
Mo5 Mo 0.76321(4) 0.53746(6) 0.53191(3)
Mo6 Mo 0.83904(3) 0.12634(6) 0.42182(3)
C1 C 0.6222(4) 0.7371(7) 0.4932(3)
H1 H 0.65970 0.73180 0.48850
C2 C 0.5704(4) 0.7675(6) 0.4421(3)
C3 C 0.5722(4) 0.7883(7) 0.3787(3)
H2 H 0.53180 0.80960 0.34960
H3 H 0.60110 0.84660 0.38190
H4 H 0.58490 0.72200 0.36410
C4 C 0.5162(4) 0.7560(7) 0.5054(4)
H5 H 0.47930 0.76450 0.51080
C5 C 0.5673(4) 0.7225(7) 0.5561(3)
C6 C 0.5636(4) 0.6948(8) 0.6168(3)
H6 H 0.60370 0.67310 0.64630
H7 H 0.54970 0.75840 0.63260
H8 H 0.53500 0.63490 0.61100
C7 C 0.8929(4) 0.4716(8) 0.7917(4)
H9 H 0.92830 0.48870 0.82890
H10 H 0.90620 0.43940 0.76100
H11 H 0.86690 0.42020 0.80160
C8 C 0.8577(3) 0.5749(7) 0.7659(3)
C9 C 0.8044(3) 0.5768(7) 0.7116(3)
H12 H 0.78980 0.51000 0.69110
C10 C 0.7972(4) 0.7647(7) 0.7147(3)
C11 C 0.7655(5) 0.8708(8) 0.6864(4)
H13 H 0.72940 0.85480 0.64960
H14 H 0.79320 0.91630 0.67520
H15 H 0.75370 0.90930 0.71640
C12 C 0.8502(4) 0.7653(8) 0.7687(4)
H16 H 0.86600 0.83270 0.78770
N1 N 0.6208(3) 0.7149(5) 0.5488(3)
N2 N 0.5163(3) 0.7771(5) 0.4484(3)
N3 N 0.8795(3) 0.6710(7) 0.7947(3)
N4 N 0.7729(3) 0.6687(5) 0.6870(2)
O1 O 0.7961(4) 0.3505(7) 0.5200(3)
O2 O 0.7875(4) 0.1467(7) 0.4973(4)
O3 O 0.7256(4) 0.2340(7) 0.5527(4)
O4 O 0.8010(4) 0.2257(7) 0.5609(4)
O5 O 0.7299(3) 0.3122(5) 0.6475(3)
O6 O 0.7210(3) 0.0982(5) 0.6229(3)
O7 O 0.8063(3) 0.1679(5) 0.7375(2)
O8 O 0.8390(3) 0.0890(5) 0.6430(3)
O9 O 0.9131(3) 0.2106(4) 0.6077(3)
O10 O 0.9353(3) -0.0143(5) 0.6218(3)
O11 O 0.8116(3) -0.0316(5) 0.5406(2)
O12 O 0.8478(3) 0.3027(4) 0.6651(3)
O13 O 0.8862(3) 0.0918(6) 0.5051(2)
O14 O 0.8804(3) 0.0682(5) 0.3860(2)
O15 O 0.8725(3) 0.2707(5) 0.4362(3)
O16 O 0.8981(3) 0.3922(6) 0.5387(3)
O17 O 0.8059(3) 0.5270(6) 0.4776(2)
O18 O 0.8335(3) 0.4817(6) 0.5971(3)
O19 O 0.7680(2) 0.6718(4) 0.5501(2)
O20 O 0.7157(3) 0.4910(5) 0.5794(2)
O21 O 0.9530(3) 0.4108(5) 0.6675(3)
O22 O 0.8968(3) 0.4928(4) 0.4315(2)
P1 P 0.75000 0.25000 0.50000
O23 O 1.0556(9) -0.0370(16) 0.7368(8)
O24 O 1.00000 0.160(3) 0.75000
Cu1G Cu 1.19673(4) 0.82965(9) 1.11494(4)
Cu1G* Cu 0.19673(4) 0.82965(9) 0.11494(4)
Cu2G Cu 0.94271(5) 0.68742(11) 0.87729(5)
Mo1F Mo 0.61113(3) 0.14151(6) 0.38516(3)
Mo2F Mo 0.71239(3) 0.30367(6) 0.33774(3)
Mo3F Mo 0.62389(3) 0.43072(6) 0.41648(3)
Mo4F Mo 0.65034(3) 0.08234(6) 0.54704(3)
Mo5F Mo 0.73679(4) -0.03746(6) 0.46809(3)
Mo6F Mo 0.66096(3) 0.37366(6) 0.57818(3)
C1G C 1.1222(4) 0.7629(7) 0.9932(3)
H1G H 1.15970 0.76820 0.98850
C2G C 1.0704(4) 0.7325(6) 0.9421(3)
C3G C 1.0722(4) 0.7117(7) 0.8787(3)
H2G H 1.03180 0.69040 0.84960
H3G H 1.10110 0.65340 0.88190
H4G H 1.08490 0.77800 0.86410
C4G C 1.0162(4) 0.7440(7) 1.0054(4)
H5G H 0.97930 0.73550 1.01080
C5G C 1.0673(4) 0.7775(7) 1.0561(3)
C6G C 1.0636(4) 0.8052(8) 1.1168(3)
H6G H 1.10370 0.82690 1.14630
H7G H 1.04970 0.74160 1.13260
H8G H 1.03500 0.86510 1.11100
C7G C 0.3929(4) 1.0284(8) 0.2917(4)
H9G H 0.42830 1.01130 0.32890
H10G H 0.40620 1.06060 0.26100
H11G H 0.36690 1.07980 0.30160
C8G C 0.3577(3) 0.9251(7) 0.2659(3)
C9G C 0.3044(3) 0.9232(7) 0.2116(3)
H12G H 0.28980 0.99000 0.19110
C10G C 0.2972(4) 0.7353(7) 0.2147(3)
C11G C 0.2655(5) 0.6292(8) 0.1864(4)
H13G H 0.22940 0.64520 0.14960
H14G H 0.29320 0.58370 0.17520
H15G H 0.25370 0.59070 0.21640
C12G C 0.3502(4) 0.7347(8) 0.2687(4)
H16G H 0.36600 0.66730 0.28770
N1G N 1.1208(3) 0.7851(5) 1.0488(3)
N2G N 1.0163(3) 0.7229(5) 0.9484(3)
N3G N 0.3795(3) 0.8290(7) 0.2947(3)
N4G N 0.2729(3) 0.8313(5) 0.1870(2)
N4G* N 1.2729(3) 0.8313(5) 1.1870(2)
O1F O 0.7039(4) 0.1495(7) 0.4800(3)
O2F O 0.7125(4) 0.3533(7) 0.5027(4)
O3F O 0.7744(4) 0.2660(7) 0.4473(4)
O4F O 0.6990(4) 0.2743(7) 0.4391(4)
O5F O 0.7701(3) 0.1878(5) 0.3525(3)
O6F O 0.7790(3) 0.4018(5) 0.3771(3)
O7F O 0.6937(3) 0.3321(5) 0.2625(2)
O8F O 0.6610(3) 0.4110(5) 0.3570(3)
O9F O 0.5869(3) 0.2894(4) 0.3923(3)
O10F O 0.5647(3) 0.5143(5) 0.3782(3)
O11F O 0.6884(3) 0.5316(5) 0.4594(2)
O12F O 0.6522(3) 0.1973(4) 0.3349(3)
O13F O 0.6138(3) 0.4082(6) 0.4949(2)
O14F O 0.6196(3) 0.4318(5) 0.6140(2)
O15F O 0.6275(3) 0.2293(5) 0.5638(3)
O16F O 0.6019(3) 0.1078(6) 0.4613(3)
O17F O 0.6941(3) -0.0270(6) 0.5224(2)
O18F O 0.6665(3) 0.0183(6) 0.4029(3)
O19F O 0.7320(2) -0.1718(4) 0.4499(2)
O20F O 0.7843(3) 0.0090(5) 0.4206(2)
O21F O 0.5470(3) 0.0892(5) 0.3325(3)
O22F O 0.6032(3) 0.0072(4) 0.5685(2)
#END
