
#######################################################################
#
#                 Cambridge Crystallographic Data Centre
#                                CCDC
#
#######################################################################
#
# If this CIF has been generated from an entry in the Cambridge
# Structural Database, then it will include bibliographic, chemical,
# crystal, experimental, refinement or atomic coordinate data resulting
# from the CCDC's data processing and validation procedures.
#
#######################################################################

data_CSD_CIF_OTUCEO01
_audit_creation_date 2021-05-14
_audit_creation_method CSD-ConQuest-V1
_database_code_CSD OTUCEO01
_database_code_depnum_ccdc_archive 'CCDC 2064865'
_chemical_formula_sum 'C10 H24 Mn2 N4 O12'
_chemical_formula_moiety
;
(C6 H6 Mn2 O12 2-)n,2(C2 H9 N2 1+)
;
_journal_coden_Cambridge 1695
_journal_volume 9
_journal_year 2021
_journal_page_first 6841
_journal_name_full 'J.Mater.Chem.C '
loop_
_publ_author_name
"J.A.Zienkiewicz"
"D.A.Kowalska"
"K.Fedoruk"
"M.Stefanski"
"A.Pikul"
"M.Ptak"
_chemical_name_systematic
;
catena-[bis(1,1-dimethylhydrazin-1-ium) hexakis(\m-formato)-di-manganese]
;
_cell_volume    972.642
_exptl_crystal_colour 'colorless'
_exptl_crystal_density_diffrn 1.715
_exptl_special_details
;
high-temperature polymorph

;
_exptl_crystal_description 'block'
_diffrn_ambient_temperature 299.9
_refine_special_details
;
C1,C2,N1 and C1A,C3A,N2A and C1B,C2B,N3B disordered over three sites with 
occupancies 0.3333:0.3333:0.3333.
;
#These two values have been output from a single CSD field.
_refine_ls_R_factor_gt 0.0321
_refine_ls_wR_factor_gt 0.0321
_symmetry_cell_setting monoclinic
_symmetry_space_group_name_H-M 'P 21/n'
_symmetry_Int_Tables_number 14
loop_
_symmetry_equiv_pos_site_id
_symmetry_equiv_pos_as_xyz
1 x,y,z
2 1/2-x,1/2+y,1/2-z
3 -x,-y,-z
4 -1/2+x,-1/2-y,-1/2+z
_cell_length_a 8.554(3)
_cell_length_b 9.207(3)
_cell_length_c 12.387(4)
_cell_angle_alpha 90
_cell_angle_beta 94.432(3)
_cell_angle_gamma 90
_cell_formula_units_Z 2
loop_
_atom_type_symbol
_atom_type_radius_bond
C 0.68
H 0.23
Mn 1.61
N 0.68
O 0.68
loop_
_atom_site_label
_atom_site_type_symbol
_atom_site_fract_x
_atom_site_fract_y
_atom_site_fract_z
Mn1 Mn 0.00000 0.50000 1.00000
Mn2 Mn 0.50000 1.00000 1.00000
O1 O 0.1898(2) 0.63369(19) 0.94732(13)
O2 O 0.12468(19) 0.30585(17) 0.95221(13)
O3 O -0.11011(19) 0.50321(17) 0.83469(12)
O4 O 0.35834(19) 0.81458(18) 0.94649(13)
O5 O 0.30006(17) 0.13350(16) 0.93569(12)
O6 O -0.10313(19) 0.49939(18) 0.65622(12)
C1 C -0.0455(3) 0.5147(2) 0.74950(16)
H1 H 0.06058 0.53798 0.75679
C2 C 0.2718(3) 0.7298(2) 0.99019(17)
H2 H 0.26820 0.73988 1.06466
C3 C 0.2504(2) 0.2473(2) 0.97748(17)
H3 H 0.31485 0.29057 1.03225
N1 N 0.4480(2) 0.5132(2) 0.69743(17)
H4 H 0.35811 0.55561 0.65507
N2 N 0.5430(3) 0.4439(4) 0.6229(3)
H5 H 0.49977 0.35957 0.60198
H6 H 0.55029 0.50076 0.56539
C4 C 0.3914(5) 0.4116(4) 0.7775(3)
H7 H 0.33584 0.33327 0.74071
H8 H 0.32249 0.46186 0.82244
H9 H 0.47912 0.37358 0.82175
C5 C 0.5315(4) 0.6369(3) 0.7514(2)
H10 H 0.62027 0.60173 0.79594
H11 H 0.46192 0.68751 0.79561
H12 H 0.56652 0.70192 0.69767
C6? C 0.5430(3) 0.4439(4) 0.6229(3)
N3? N 0.3914(5) 0.4116(4) 0.7775(3)
C7? C 0.5315(4) 0.6369(3) 0.7514(2)
C8? C 0.5430(3) 0.4439(4) 0.6229(3)
C9? C 0.3914(5) 0.4116(4) 0.7775(3)
N4? N 0.5315(4) 0.6369(3) 0.7514(2)
H13? H 0.63833 0.42816 0.65482
O1B O -0.1898(2) 0.36631(19) 1.05268(13)
O2B O -0.12468(19) 0.69415(17) 1.04779(13)
O3B O 0.11011(19) 0.49679(17) 1.16531(12)
O4B O -0.35834(19) 0.18542(18) 1.05351(13)
O5B O -0.30006(17) 0.86650(16) 1.06431(12)
O6B O 0.10313(19) 0.50061(18) 1.34378(12)
C1B C 0.0455(3) 0.4853(2) 1.25050(16)
H1B H -0.06058 0.46202 1.24321
C2B C -0.2718(3) 0.2702(2) 1.00981(17)
H2B H -0.26820 0.26012 0.93534
C3B C -0.2504(2) 0.7527(2) 1.02252(17)
H3B H -0.31485 0.70943 0.96775
Mn2* Mn -0.50000 0.00000 1.00000
Mn2** Mn -0.50000 1.00000 1.00000
Mn2*** Mn 0.50000 0.00000 1.00000
Mn2A Mn 0.00000 0.50000 0.50000
Mn2A* Mn 0.00000 0.50000 1.50000
O4B* O 0.64166(19) 1.18542(18) 1.05351(13)
O5* O 0.30006(17) 1.13350(16) 0.93569(12)
O5B* O 0.69994(17) 0.86650(16) 1.06431(12)
O6A O 0.60313(19) 0.99939(18) 0.84378(12)
O6C O 0.39687(19) 1.00061(18) 1.15622(12)
#END
