
#######################################################################
#
#                 Cambridge Crystallographic Data Centre
#                                CCDC
#
#######################################################################
#
# If this CIF has been generated from an entry in the Cambridge
# Structural Database, then it will include bibliographic, chemical,
# crystal, experimental, refinement or atomic coordinate data resulting
# from the CCDC's data processing and validation procedures.
#
#######################################################################

data_CSD_CIF_OTUCEM
_audit_creation_date 2011-11-29
_audit_creation_method CSD-ConQuest-V1
_database_code_CSD OTUCEM
_database_code_depnum_ccdc_archive 'CCDC 839020'
_chemical_formula_sum 'C28 H42 Cu3 Mo12 N8 O41 P1'
_chemical_formula_moiety
;
(C28 H40 Cu3 N8 3+)n,n(Mo12 O40 P1 3-),n(H2 O1)
;
_journal_coden_Cambridge 1147
_journal_volume 11
_journal_year 2011
_journal_page_first 1786
_journal_name_full 'Cryst.Growth Des. '
loop_
_publ_author_name
"Hai-Yan Liu"
"Hua Wu"
"Jin Yang"
"Ying-Ying Liu"
"Jian-Fang Ma"
"Hong-Ye Bai"
_chemical_name_systematic
;
catena-(tetrakis(\m~2~-2,3,6-Trimethylpyrazine)-tri-copper(i) 
(\m~12~-phosphato)-tetracosakis(\m~2~-oxo)-dodecaoxo-dodeca-molybdenum 
monohydrate)
;
_cell_volume   6114.235
_exptl_crystal_colour 'black'
_exptl_crystal_density_diffrn 2.735
_exptl_crystal_description 'block'
_diffrn_ambient_temperature 293
_refine_special_details
;
The phosphate moiety is disordered by symmetry. The methyl substituents of 
two of the ligands of the cation are disordered by symmetry.
;
#These two values have been output from a single CSD field.
_refine_ls_R_factor_gt 0.0835
_refine_ls_wR_factor_gt 0.0835
_symmetry_cell_setting orthorhombic
_symmetry_space_group_name_H-M 'P n m a'
_symmetry_Int_Tables_number 62
loop_
_symmetry_equiv_pos_site_id
_symmetry_equiv_pos_as_xyz
1 x,y,z
2 1/2-x,-y,1/2+z
3 1/2+x,1/2-y,1/2-z
4 -x,1/2+y,-z
5 -x,-y,-z
6 -1/2+x,y,-1/2-z
7 -1/2-x,-1/2+y,-1/2+z
8 x,-1/2-y,z
_cell_length_a 17.592(5)
_cell_length_b 22.091(5)
_cell_length_c 15.733(5)
_cell_angle_alpha 90
_cell_angle_beta 90
_cell_angle_gamma 90
_cell_formula_units_Z 4
loop_
_atom_type_symbol
_atom_type_radius_bond
C 0.68
H 0.23
Cu 1.32
Mo 1.38
N 0.68
O 0.68
P 1.05
loop_
_atom_site_label
_atom_site_type_symbol
_atom_site_fract_x
_atom_site_fract_y
_atom_site_fract_z
Cu1 Cu 0.00000 1.00000 0.50000
Cu2 Cu 0.3577(2) 0.90197(13) 0.53966(18)
Mo1 Mo 0.25005(13) 0.25000 0.29682(12)
Mo2 Mo 0.32611(9) 0.13752(7) 0.43284(10)
Mo3 Mo 0.13046(9) 0.13422(8) 0.3802(1)
Mo4 Mo 0.15358(13) 0.25000 0.73572(13)
Mo5 Mo 0.00263(12) 0.25000 0.44822(15)
Mo6 Mo 0.07079(11) 0.35987(9) 0.59737(11)
Mo7 Mo 0.39460(13) 0.25000 0.57256(15)
Mo8 Mo 0.26675(11) 0.36813(9) 0.64818(11)
C1 C 0.2024(14) 0.9368(9) 0.6028(13)
C2 C 0.1302(13) 0.9549(10) 0.5953(15)
C3 C 0.2200(16) 0.9542(9) 0.4576(14)
C4 C 0.1483(18) 0.971(1) 0.4504(17)
H1 H 0.12940 0.98400 0.39830
C5 C 0.2799(19) 0.9568(11) 0.3828(12)
H2 H 0.31520 0.98910 0.39300
H3 H 0.30690 0.91910 0.38000
H4 H 0.25400 0.96380 0.33000
C6 C 0.0791(15) 0.9522(13) 0.6726(17)
H5 H 0.04410 0.98550 0.67130
H6 H 0.05130 0.91470 0.67230
H7 H 0.10950 0.95450 0.72320
C7 C 0.2367(13) 0.9174(10) 0.6838(11)
H8 H 0.21610 0.87880 0.70000
H9 H 0.29080 0.91390 0.67700
H10 H 0.22570 0.94670 0.72710
C8 C 0.4063(9) 0.7819(7) 0.600(1)
C9 C 0.4644(12) 0.8175(9) 0.6497(12)
H11 H 0.44450 0.85690 0.66240
H12 H 0.47580 0.79660 0.70170
H13 H 0.50990 0.82150 0.61650
C10 C 0.3036(10) 0.7835(9) 0.5116(11)
C11 C 0.2403(18) 0.8014(16) 0.458(2)
H14 H 0.25750 0.83040 0.41640
H15? H 0.22050 0.76650 0.42880
H16 H 0.20100 0.81920 0.49180
C12 C 0.4711(17) 0.902(1) 0.3840(15)
H17 H 0.51250 0.89670 0.34500
H18 H 0.46510 0.86590 0.41730
H19 H 0.42520 0.90970 0.35280
C13 C 0.4881(16) 0.9565(10) 0.4439(13)
C14 C 0.5360(14) 0.9972(11) 0.4269(15)
C15 C 0.569(2) 0.9967(16) 0.352(2)
H20 H 0.59500 0.95900 0.34400
H21 H 0.60460 1.02950 0.34830
H22 H 0.53100 1.00140 0.30840
N1 N 0.4456(11) 0.9567(7) 0.5163(11)
N2 N 0.3587(11) 0.8120(8) 0.5541(10)
N3 N 0.2506(11) 0.9374(7) 0.5344(10)
N4 N 0.1043(12) 0.9691(8) 0.5165(16)
O1 O 0.2730(9) 0.25000 0.1962(9)
O2 O 0.1707(7) 0.1906(7) 0.3010(9)
O3 O 0.3162(7) 0.1892(6) 0.3397(9)
O4 O -0.0873(10) 0.25000 0.4235(14)
O5 O 0.0447(10) 0.1903(7) 0.3821(9)
O6 O 0.0979(8) 0.0798(6) 0.3164(9)
O7 O 0.2273(8) 0.1041(6) 0.4024(9)
O8 O 0.3929(9) 0.1897(8) 0.4882(7)
O9 O 0.4845(12) 0.25000 0.6022(15)
O10 O 0.303(1) 0.1046(7) 0.5450(8)
O11 O 0.1682(9) 0.3943(8) 0.6309(12)
O12 O 0.0918(11) 0.1064(7) 0.4862(9)
O13 O 0.0030(11) 0.3088(7) 0.5438(9)
O14 O 0.0782(8) 0.1925(7) 0.6909(10)
O15 O 0.0107(8) 0.4134(7) 0.6324(9)
O16 O 0.3850(8) 0.0851(6) 0.3968(9)
O17 O 0.1294(11) 0.25000 0.8374(11)
O18 O 0.3024(10) 0.4200(7) 0.7135(9)
O19 O 0.3543(10) 0.3116(8) 0.6506(8)
O20 O 0.2266(8) 0.1894(7) 0.7289(11)
O21 O 0.2207(11) 0.2892(9) 0.4401(12)
O22 O 0.2666(10) 0.2923(8) 0.5365(12)
O23 O 0.1813(10) 0.2875(9) 0.5933(11)
O24 O 0.1297(13) 0.2896(9) 0.4952(13)
P1 P 0.1986(3) 0.25000 0.5159(3)
O25 O 0.410(2) 0.25000 0.809(3)
H23 H 0.44(2) 0.25000 0.767(18)
H24 H 0.44(2) 0.25000 0.853(16)
Cu2D Cu -0.3577(2) 1.09803(13) 0.46034(18)
Cu2G Cu 0.3577(2) 0.59803(13) 0.53966(18)
Cu2D* Cu 0.6423(2) 1.09803(13) 0.46034(18)
Mo2G Mo 0.32611(9) 0.36248(7) 0.43284(10)
Mo3G Mo 0.13046(9) 0.36578(8) 0.3802(1)
Mo6G Mo 0.07079(11) 0.14013(9) 0.59737(11)
Mo8G Mo 0.26675(11) 0.13187(9) 0.64818(11)
C1D C -0.2024(14) 1.0632(9) 0.3972(13)
C2D C -0.1302(13) 1.0451(10) 0.4047(15)
C3D C -0.2200(16) 1.0458(9) 0.5424(14)
C4D C -0.1483(18) 1.029(1) 0.5496(17)
H1D H -0.12940 1.01600 0.60170
C5D C -0.2799(19) 1.0432(11) 0.6172(12)
H2D H -0.31520 1.01090 0.60700
H3D H -0.30690 1.08090 0.62000
H4D H -0.25400 1.03620 0.67000
C6D C -0.0791(15) 1.0478(13) 0.3274(17)
H5D H -0.04410 1.01450 0.32870
H6D H -0.05130 1.08530 0.32770
H7D H -0.10950 1.04550 0.27680
C7D C -0.2367(13) 1.0826(10) 0.3162(11)
H8D H -0.21610 1.12120 0.30000
H9D H -0.29080 1.08610 0.32300
H10D H -0.22570 1.05330 0.27290
C8G C 0.4063(9) 0.7181(7) 0.600(1)
C9G C 0.4644(12) 0.6825(9) 0.6497(12)
H11G H 0.44450 0.64310 0.66240
H12G H 0.47580 0.70340 0.70170
H13G H 0.50990 0.67850 0.61650
C10G C 0.3036(10) 0.7165(9) 0.5116(11)
C11G C 0.2403(18) 0.6986(16) 0.458(2)
H14G H 0.25750 0.66960 0.41640
H16G H 0.20100 0.68080 0.49180
C12D C 0.5289(17) 1.098(1) 0.6160(15)
H17D H 0.48750 1.10330 0.65500
H18D H 0.53490 1.13410 0.58270
H19D H 0.57480 1.09030 0.64720
C13D C 0.5119(16) 1.0435(10) 0.5561(13)
C14D C 0.4640(14) 1.0028(11) 0.5731(15)
C15D C 0.431(2) 1.0033(16) 0.648(2)
H20D H 0.40500 1.04100 0.65600
H21D H 0.39540 0.97050 0.65170
H22D H 0.46900 0.99860 0.69160
N1D N 0.5544(11) 1.0433(7) 0.4837(11)
N1D* N -0.4456(11) 1.0433(7) 0.4837(11)
N2G N 0.3587(11) 0.6880(8) 0.5541(10)
N2D N -0.3587(11) 1.1880(8) 0.4459(10)
N3D N -0.2506(11) 1.0626(7) 0.4656(10)
N4D N -0.1043(12) 1.0309(8) 0.4835(16)
O2G O 0.1707(7) 0.3094(7) 0.3010(9)
O3G O 0.3162(7) 0.3108(6) 0.3397(9)
O5G O 0.0447(10) 0.3097(7) 0.3821(9)
O6G O 0.0979(8) 0.4202(6) 0.3164(9)
O7G O 0.2273(8) 0.3959(6) 0.4024(9)
O8G O 0.3929(9) 0.3103(8) 0.4882(7)
O10G O 0.303(1) 0.3954(7) 0.5450(8)
O11G O 0.1682(9) 0.1057(8) 0.6309(12)
O12G O 0.0918(11) 0.3936(7) 0.4862(9)
O13G O 0.0030(11) 0.1912(7) 0.5438(9)
O14G O 0.0782(8) 0.3075(7) 0.6909(10)
O15G O 0.0107(8) 0.0866(7) 0.6324(9)
O16G O 0.3850(8) 0.4149(6) 0.3968(9)
O18G O 0.3024(10) 0.0800(7) 0.7135(9)
O19G O 0.3543(10) 0.1884(8) 0.6506(8)
O20G O 0.2266(8) 0.3106(7) 0.7289(11)
O21G O 0.2207(11) 0.2108(9) 0.4401(12)
O22G O 0.2666(10) 0.2077(8) 0.5365(12)
O23G O 0.1813(10) 0.2125(9) 0.5933(11)
O24G O 0.1297(13) 0.2104(9) 0.4952(13)
#END
