
#######################################################################
#
#                 Cambridge Crystallographic Data Centre
#                                CCDC
#
#######################################################################
#
# If this CIF has been generated from an entry in the Cambridge
# Structural Database, then it will include bibliographic, chemical,
# crystal, experimental, refinement or atomic coordinate data resulting
# from the CCDC's data processing and validation procedures.
#
#######################################################################

data_CSD_CIF_OTUFEP
_audit_creation_date 2011-11-29
_audit_creation_method CSD-ConQuest-V1
_database_code_CSD OTUFEP
_database_code_depnum_ccdc_archive 'CCDC 839046'
_chemical_formula_sum 'C32 H22 K2 O34 U6'
_chemical_formula_moiety
;
(C32 H22 O34 U6 2-)n,2n(K1 1+)
;
_journal_coden_Cambridge 1147
_journal_volume 11
_journal_year 2011
_journal_page_first 1940
_journal_name_full 'Cryst.Growth Des. '
loop_
_publ_author_name
"I.Mihalcea"
"N.Henry"
"T.Loiseau"
_chemical_name_systematic
;
catena-(Di-potassium 
tetrakis(\m~3~-phthalato)-bis(\m~3~-oxo)-bis(\m~2~-hydroxo)-diaqua-dodecaoxo-h
exa-uranium)
;
_cell_volume   1182.744
_exptl_crystal_colour 'yellow'
_exptl_crystal_density_diffrn 3.441
_exptl_special_details
;
isostructural with the ammonium analogue

;
_exptl_crystal_description 'needle'
_diffrn_ambient_temperature 293
#These two values have been output from a single CSD field.
_refine_ls_R_factor_gt 0.0443
_refine_ls_wR_factor_gt 0.0443
_symmetry_cell_setting triclinic
_symmetry_space_group_name_H-M 'P -1'
_symmetry_Int_Tables_number 2
loop_
_symmetry_equiv_pos_site_id
_symmetry_equiv_pos_as_xyz
1 x,y,z
2 -x,-y,-z
_cell_length_a 7.1113(3)
_cell_length_b 13.3625(5)
_cell_length_c 13.6784(5)
_cell_angle_alpha 102.423(2)
_cell_angle_beta 104.864(2)
_cell_angle_gamma 101.286(2)
_cell_formula_units_Z 1
loop_
_atom_type_symbol
_atom_type_radius_bond
C 0.68
H 0.23
K 0.85
O 0.70
U 1.52
loop_
_atom_site_label
_atom_site_type_symbol
_atom_site_fract_x
_atom_site_fract_y
_atom_site_fract_z
U1 U -0.47955(6) -0.08760(3) 0.09520(3)
U2 U -0.49568(6) -0.59159(3) -0.41530(3)
U3 U -0.31267(6) -0.28292(3) -0.27472(3)
K1 K 0.00000 0.00000 0.00000
K2 K 1.0654(8) 0.5720(4) 0.5732(4)
O1 O -0.5582(14) -0.2781(7) -0.2703(7)
O2 O -0.2426(13) -0.5919(7) -0.4078(7)
O3 O -0.7485(14) -0.5962(7) -0.4163(7)
O4 O -0.2114(13) -0.2520(6) -0.0884(6)
O5 O -0.7742(13) 0.0940(6) 0.2317(6)
O6 O -0.4345(15) -0.4201(6) -0.4176(6)
O7 O -0.3713(16) -0.4488(6) -0.2287(6)
O8 O -0.6135(14) 0.2252(6) 0.4349(6)
O9 O -0.5442(15) 0.0018(7) 0.2474(6)
O10 O -0.2167(14) -0.0266(8) 0.1502(8)
O11 O -0.4043(17) -0.2449(7) 0.0142(7)
O12 O -0.0619(15) -0.2824(8) -0.2725(8)
O13 O -0.4582(18) -0.0699(7) -0.0659(7)
O14 O -0.7425(16) -0.1512(9) 0.0418(8)
O15 O -0.446(2) -0.1983(7) 0.2157(7)
O16 O -0.5856(14) 0.2155(6) 0.5928(6)
O17 O -0.4040(15) -0.6113(6) -0.2280(6)
C1 C -0.3559(17) -0.5156(7) -0.1765(8)
C2 C -0.6821(18) 0.0340(7) 0.2730(8)
C3 C -0.2953(16) -0.2867(7) -0.0267(7)
C4 C -0.6363(16) 0.1690(8) 0.4971(8)
C5 C -0.2806(16) -0.4830(8) -0.0596(8)
C6 C -0.2523(16) -0.3839(8) 0.0065(8)
C7 C -0.7202(14) 0.0503(8) 0.4579(8)
C8 C -0.7473(17) -0.0084(8) 0.3571(9)
C9 C -0.7748(19) -0.003(1) 0.5287(10)
H1 H -0.76370 0.03660 0.59580
C10 C -0.2373(17) -0.5658(9) -0.0138(9)
H2 H -0.25360 -0.63290 -0.05730
C11 C -0.171(2) -0.5472(10) 0.0948(9)
H3 H -0.14520 -0.60190 0.12370
C12 C -0.145(2) -0.4487(11) 0.1591(9)
H4 H -0.09650 -0.43580 0.23180
C13 C -0.843(2) -0.1099(10) 0.5025(11)
H5 H -0.86880 -0.14370 0.55220
C14 C -0.1892(19) -0.3676(9) 0.1159(8)
H6 H -0.17690 -0.30160 0.16030
C15 C -0.8229(19) -0.1189(9) 0.3280(11)
H7 H -0.83990 -0.15890 0.26020
C16 C -0.873(2) -0.1687(9) 0.4005(12)
H8 H -0.92640 -0.24200 0.38060
U1A U -0.52045(6) 0.08760(3) -0.09520(3)
U1* U -0.47955(6) -1.08760(3) -0.90480(3)
U2* U -0.49568(6) 0.40841(3) 0.58470(3)
U2A U -0.50432(6) -0.40841(3) -0.58470(3)
U2A* U -0.50432(6) 0.59159(3) 0.41530(3)
U3A U -0.68733(6) 0.28292(3) 0.27472(3)
U3A* U -0.68733(6) -0.71708(3) -0.72528(3)
O1A O -0.4418(14) 0.2781(7) 0.2703(7)
O2* O -0.2426(13) 0.4081(7) 0.5922(7)
O3* O -0.7485(14) 0.4038(7) 0.5837(7)
O4A O -0.7886(13) 0.2520(6) 0.0884(6)
O5* O -0.7742(13) -0.9060(6) -0.7683(6)
O5A O -0.2258(13) -0.0940(6) -0.2317(6)
O6A O -0.5655(15) -0.5799(6) -0.5824(6)
O6* O -0.4345(15) 0.5799(6) 0.5824(6)
O6A* O -0.5655(15) 0.4201(6) 0.4176(6)
O7A O -0.6287(16) 0.4488(6) 0.2287(6)
O7* O -0.3713(16) 0.5512(6) 0.7713(6)
O8* O -0.6135(14) -0.7748(6) -0.5651(6)
O8A O -0.3865(14) -0.2252(6) -0.4349(6)
O9* O -0.5442(15) -0.9982(7) -0.7526(6)
O9A O -0.4558(15) -0.0018(7) -0.2474(6)
O10A O -0.7833(14) 0.0266(8) -0.1502(8)
O11A O -0.5957(17) 0.2449(7) -0.0142(7)
O12A O -0.9381(15) 0.2824(8) 0.2725(8)
O13A O -0.5418(18) 0.0699(7) 0.0659(7)
O14A O -0.2575(16) 0.1512(9) -0.0418(8)
O15A O -0.554(2) 0.1983(7) -0.2157(7)
O16* O -0.5856(14) -0.7845(6) -0.4072(6)
O17A O -0.5960(15) 0.6113(6) 0.2280(6)
O17* O -0.4040(15) 0.3887(6) 0.7720(6)
C1A C -0.6441(17) 0.5156(7) 0.1765(8)
C2* C -0.6821(18) -0.9660(7) -0.7270(8)
C3A C -0.7047(16) 0.2867(7) 0.0267(7)
C4* C -0.6363(16) -0.8310(8) -0.5029(8)
C5A C -0.7194(16) 0.4830(8) 0.0596(8)
C6A C -0.7477(16) 0.3839(8) -0.0065(8)
C7* C -0.7202(14) -0.9497(8) -0.5421(8)
C8* C -0.7473(17) -1.0084(8) -0.6429(9)
C9* C -0.7748(19) -1.003(1) -0.4713(10)
H1* H -0.76370 -0.96340 -0.40420
C10A C -0.7627(17) 0.5658(9) 0.0138(9)
H2A H -0.74640 0.63290 0.05730
C11A C -0.829(2) 0.5472(10) -0.0948(9)
H3A H -0.85480 0.60190 -0.12370
C12A C -0.855(2) 0.4487(11) -0.1591(9)
H4A H -0.90350 0.43580 -0.23180
C13* C -0.843(2) -1.1099(10) -0.4975(11)
H5* H -0.86880 -1.14370 -0.44780
C14A C -0.8108(19) 0.3676(9) -0.1159(8)
H6A H -0.82310 0.30160 -0.16030
C15* C -0.8229(19) -1.1189(9) -0.6720(11)
H7* H -0.83990 -1.15890 -0.73980
C16* C -0.873(2) -1.1687(9) -0.5995(12)
H8* H -0.92640 -1.24200 -0.61940
#END
