
#######################################################################
#
#                 Cambridge Crystallographic Data Centre
#                                CCDC
#
#######################################################################
#
# If this CIF has been generated from an entry in the Cambridge
# Structural Database, then it will include bibliographic, chemical,
# crystal, experimental, refinement or atomic coordinate data resulting
# from the CCDC's data processing and validation procedures.
#
#######################################################################

data_CSD_CIF_OTUFIT
_audit_creation_date 2011-11-29
_audit_creation_method CSD-ConQuest-V1
_database_code_CSD OTUFIT
_database_code_depnum_ccdc_archive 'CCDC 839047'
_chemical_formula_sum 'C32 H30 N2 O34 U6'
_chemical_formula_moiety
;
(C32 H22 O34 U6 2-)n,2n(H4 N1 1+)
;
_journal_coden_Cambridge 1147
_journal_volume 11
_journal_year 2011
_journal_page_first 1940
_journal_name_full 'Cryst.Growth Des. '
loop_
_publ_author_name
"I.Mihalcea"
"N.Henry"
"T.Loiseau"
_chemical_name_systematic
;
catena-(bis(Ammonium) 
tetrakis(\m~3~-phthalato)-bis(\m~3~-oxo)-bis(\m~2~-hydroxo)-diaqua-dodecaoxo-h
exa-uranium)
;
_cell_volume   1208.636
_exptl_crystal_colour 'yellow'
_exptl_crystal_density_diffrn 3.298
_exptl_special_details
;
isostructural with the potassium analogue

;
_exptl_crystal_description 'block'
_diffrn_ambient_temperature 296
#These two values have been output from a single CSD field.
_refine_ls_R_factor_gt 0.0256
_refine_ls_wR_factor_gt 0.0256
_symmetry_cell_setting triclinic
_symmetry_space_group_name_H-M 'P -1'
_symmetry_Int_Tables_number 2
loop_
_symmetry_equiv_pos_site_id
_symmetry_equiv_pos_as_xyz
1 x,y,z
2 -x,-y,-z
_cell_length_a 7.2962(3)
_cell_length_b 13.3376(4)
_cell_length_c 13.6850(4)
_cell_angle_alpha 102.294(2)
_cell_angle_beta 105.175(2)
_cell_angle_gamma 101.557(2)
_cell_formula_units_Z 1
loop_
_atom_type_symbol
_atom_type_radius_bond
C 0.68
H 0.23
N 0.68
O 0.68
U 1.53
loop_
_atom_site_label
_atom_site_type_symbol
_atom_site_fract_x
_atom_site_fract_y
_atom_site_fract_z
U1 U 0.52101(3) -0.088039(13) 0.095638(13)
U2 U 0.50507(3) -0.592000(12) -0.414960(12)
U3 U 0.68687(3) -0.281740(13) -0.274450(12)
N1 N 1.00000 1.00000 0.00000
N2 N 1.0683(12) 0.5765(7) 0.5783(7)
O1 O 0.4477(6) -0.2761(3) -0.2691(3)
O2 O 0.7516(7) -0.5934(3) -0.4071(3)
O3 O 0.2585(7) -0.5978(3) -0.4147(3)
O4 O 0.7877(6) -0.2516(3) -0.0887(3)
O5 O 0.2279(6) 0.0921(3) 0.2326(3)
O6 O 0.5649(8) -0.4200(3) -0.4177(3)
O7 O 0.6291(7) -0.4480(3) -0.2286(3)
O8 O 0.3865(7) 0.2240(3) 0.4347(3)
O9 O 0.4466(7) -0.0023(3) 0.2454(3)
O10 O 0.7741(6) -0.0215(4) 0.1563(4)
O11 O 0.6044(7) -0.2412(3) 0.0178(3)
O12 O 0.9304(7) -0.2810(4) -0.2722(4)
O13 O 0.5478(7) -0.0677(3) -0.0646(3)
O14 O 0.2681(6) -0.1569(4) 0.0375(4)
O15 O 0.5585(8) -0.1984(3) 0.2166(3)
O16 O 0.4163(7) 0.2152(3) 0.5933(3)
O17 O 0.5953(7) -0.6111(3) -0.2277(3)
C1 C 0.6474(8) -0.5154(4) -0.1765(3)
C2 C 0.3154(8) 0.0310(4) 0.2734(3)
C3 C 0.7091(8) -0.2860(3) -0.0253(3)
C4 C 0.3640(7) 0.1678(3) 0.4971(3)
C5 C 0.7229(7) -0.4838(4) -0.0584(3)
C6 C 0.7476(7) -0.3830(4) 0.0075(3)
C7 C 0.2807(7) 0.0501(3) 0.4589(4)
C8 C 0.2557(8) -0.0114(3) 0.3575(4)
C9 C 0.2300(8) -0.0021(4) 0.5302(4)
H1 H 0.24730 0.03770 0.59820
C10 C 0.7642(8) -0.5650(4) -0.0138(4)
H2 H 0.74810 -0.63190 -0.05780
C11 C 0.8282(9) -0.5484(5) 0.0942(4)
H3 H 0.85440 -0.60330 0.12270
C12 C 0.8528(9) -0.4490(5) 0.1590(4)
H4 H 0.89810 -0.43640 0.23180
C13 C 0.1540(9) -0.1122(4) 0.5020(5)
H5 H 0.12060 -0.14560 0.55050
C14 C 0.8100(8) -0.3671(4) 0.1162(4)
H6 H 0.82340 -0.30100 0.16090
C15 C 0.1817(9) -0.1215(4) 0.3310(5)
H7 H 0.16740 -0.16260 0.26400
C16 C 0.1292(9) -0.1708(4) 0.4021(5)
H8 H 0.07650 -0.24430 0.38210
U1A U 0.47899(3) 0.088039(13) -0.095638(13)
U1* U 0.52101(3) -1.088039(13) -0.904362(13)
U2* U 0.50507(3) 0.408000(12) 0.585040(12)
U2A U 0.49493(3) -0.408000(12) -0.585040(12)
U2A* U 0.49493(3) 0.592000(12) 0.414960(12)
U3A U 0.31313(3) 0.281740(13) 0.274450(12)
U3A* U 0.31313(3) -0.718260(13) -0.725550(12)
O1A O 0.5523(6) 0.2761(3) 0.2691(3)
O2* O 0.7516(7) 0.4066(3) 0.5929(3)
O3* O 0.2585(7) 0.4022(3) 0.5853(3)
O4A O 0.2123(6) 0.2516(3) 0.0887(3)
O5* O 0.2279(6) -0.9079(3) -0.7674(3)
O5A O 0.7721(6) -0.0921(3) -0.2326(3)
O6A O 0.4351(8) -0.5800(3) -0.5823(3)
O6* O 0.5649(8) 0.5800(3) 0.5823(3)
O6A* O 0.4351(8) 0.4200(3) 0.4177(3)
O7A O 0.3709(7) 0.4480(3) 0.2286(3)
O7* O 0.6291(7) 0.5520(3) 0.7714(3)
O8* O 0.3865(7) -0.7760(3) -0.5653(3)
O8A O 0.6135(7) -0.2240(3) -0.4347(3)
O9* O 0.4466(7) -1.0023(3) -0.7546(3)
O9A O 0.5534(7) 0.0023(3) -0.2454(3)
O10A O 0.2259(6) 0.0215(4) -0.1563(4)
O11A O 0.3956(7) 0.2412(3) -0.0178(3)
O12A O 0.0696(7) 0.2810(4) 0.2722(4)
O13A O 0.4522(7) 0.0677(3) 0.0646(3)
O14A O 0.7319(6) 0.1569(4) -0.0375(4)
O15A O 0.4415(8) 0.1984(3) -0.2166(3)
O16* O 0.4163(7) -0.7848(3) -0.4067(3)
O17A O 0.4047(7) 0.6111(3) 0.2277(3)
O17* O 0.5953(7) 0.3889(3) 0.7723(3)
C1A C 0.3526(8) 0.5154(4) 0.1765(3)
C2* C 0.3154(8) -0.9690(4) -0.7266(3)
C3A C 0.2909(8) 0.2860(3) 0.0253(3)
C4* C 0.3640(7) -0.8322(3) -0.5029(3)
C5A C 0.2771(7) 0.4838(4) 0.0584(3)
C6A C 0.2524(7) 0.3830(4) -0.0075(3)
C7* C 0.2807(7) -0.9499(3) -0.5411(4)
C8* C 0.2557(8) -1.0114(3) -0.6425(4)
C9* C 0.2300(8) -1.0021(4) -0.4698(4)
H1* H 0.24730 -0.96230 -0.40180
C10A C 0.2358(8) 0.5650(4) 0.0138(4)
H2A H 0.25190 0.63190 0.05780
C11A C 0.1718(9) 0.5484(5) -0.0942(4)
H3A H 0.14560 0.60330 -0.12270
C12A C 0.1472(9) 0.4490(5) -0.1590(4)
H4A H 0.10190 0.43640 -0.23180
C13* C 0.1540(9) -1.1122(4) -0.4980(5)
H5* H 0.12060 -1.14560 -0.44950
C14A C 0.1900(8) 0.3671(4) -0.1162(4)
H6A H 0.17660 0.30100 -0.16090
C15* C 0.1817(9) -1.1215(4) -0.6690(5)
H7* H 0.16740 -1.16260 -0.73600
C16* C 0.1292(9) -1.1708(4) -0.5979(5)
H8* H 0.07650 -1.24430 -0.61790
#END
