
#######################################################################
#
#                 Cambridge Crystallographic Data Centre
#                                CCDC
#
#######################################################################
#
# If this CIF has been generated from an entry in the Cambridge
# Structural Database, then it will include bibliographic, chemical,
# crystal, experimental, refinement or atomic coordinate data resulting
# from the CCDC's data processing and validation procedures.
#
#######################################################################

data_CSD_CIF_OVEXUJ
_audit_creation_date 2011-11-16
_audit_creation_method CSD-ConQuest-V1
_database_code_CSD OVEXUJ
_database_code_depnum_ccdc_archive 'CCDC 838727'
_chemical_formula_sum 'C96 H94 Mn7 N24 O42'
_chemical_formula_moiety
;
(C96 H78 Mn6 N24 O34 2-)n,n(H12 Mn1 O6 2+),2n(H2 O1)
;
_journal_coden_Cambridge 1147
_journal_volume 11
_journal_year 2011
_journal_page_first 1475
_journal_name_full 'Cryst.Growth Des. '
loop_
_publ_author_name
"Baiyan Li"
"Fen Yang"
"Guanghua Li"
"Dan Liu"
"Qi Zhou"
"Zhan Shi"
"Shouhua Feng"
_chemical_name_systematic
;
catena-(Hexa-aqua-manganese 
bis(\m~4~-4-amino-3,5-bis(3-carboxylatophenyl)-1,2,4-triazole)-tetrakis(\m~3~-
4-amino-3,5-bis(3-carboxylatophenyl)-1,2,4-triazole)-bis(\m~3~-hydroxo)-octa-a
qua-hexa-manganese dihydrate)
;
_cell_volume   2662.450
_exptl_crystal_colour 'colorless'
_exptl_crystal_density_diffrn 1.647
_exptl_crystal_description 'block'
_diffrn_ambient_temperature 293
#These two values have been output from a single CSD field.
_refine_ls_R_factor_gt 0.1087
_refine_ls_wR_factor_gt 0.1087
_symmetry_cell_setting triclinic
_symmetry_space_group_name_H-M 'P -1'
_symmetry_Int_Tables_number 2
loop_
_symmetry_equiv_pos_site_id
_symmetry_equiv_pos_as_xyz
1 x,y,z
2 -x,-y,-z
_cell_length_a 11.135(2)
_cell_length_b 11.234(2)
_cell_length_c 21.495(4)
_cell_angle_alpha 96.09(3)
_cell_angle_beta 94.38(3)
_cell_angle_gamma 92.40(3)
_cell_formula_units_Z 1
loop_
_atom_type_symbol
_atom_type_radius_bond
C 0.68
H 0.23
Mn 1.61
N 0.68
O 0.68
loop_
_atom_site_label
_atom_site_type_symbol
_atom_site_fract_x
_atom_site_fract_y
_atom_site_fract_z
Mn1 Mn 0.02572(16) 0.28553(14) 0.12862(7)
Mn2 Mn 0.04651(12) 0.60940(12) 0.14970(6)
Mn3 Mn -0.02597(12) 0.45634(11) 0.27446(6)
Mn4 Mn 0.00000 0.50000 0.50000
O1 O 0.0329(6) 0.2881(6) 0.3060(3)
O2 O 0.0736(8) 0.2050(8) 0.2120(4)
O3 O 0.0799(7) 0.3610(6) 0.7006(3)
O4 O 0.0707(7) 0.2880(7) 0.7929(4)
O5 O 0.1932(7) 0.5919(8) 0.2186(4)
O6 O 0.1528(7) 0.5241(7) 0.3082(4)
O7 O 0.2422(9) 0.6545(10) 0.7731(5)
O8 O 0.1847(7) 0.5872(7) 0.6755(5)
O9 O 0.2165(11) 0.3302(9) 0.1226(6)
O10 O 0.1405(8) 0.4860(12) 0.0844(4)
O11 O 0.859(1) 1.2381(9) -0.1240(6)
O12 O 0.9117(10) 1.1026(13) -0.0622(6)
O13 O -0.0860(8) 0.6111(9) 0.0643(4)
O14 O -0.1026(10) 0.3476(10) 0.0400(5)
O15 O 0.0514(10) 0.148(1) 0.0529(4)
O16 O -0.1589(9) 0.1901(11) 0.1387(5)
O17 O -0.0378(6) 0.4457(5) 0.1762(3)
O18 O 0.042(3) 0.3745(12) 0.5657(6)
O19 O 0.1404(10) 0.6182(13) 0.5517(6)
O20 O -0.1080(11) 0.6046(15) 0.5647(5)
N1 N 0.1214(7) -0.1357(6) 0.5334(4)
N2 N 0.1123(8) -0.1476(7) 0.4689(4)
N3 N 0.1659(7) 0.0373(6) 0.5032(4)
N4 N 0.2161(11) 0.1558(7) 0.5045(4)
H1 H 0.23360 0.18280 0.47010
H2 H 0.22910 0.20060 0.53960
N5 N 0.6465(7) 0.6004(7) 0.4720(4)
N6 N 0.6530(6) 0.6135(7) 0.5366(4)
N7 N 0.4795(6) 0.6740(7) 0.5008(4)
N8 N 0.3686(8) 0.7306(11) 0.4981(4)
H3 H 0.33430 0.74400 0.46250
H4 H 0.33530 0.75160 0.53210
N9 N 0.3747(10) 0.8373(12) -0.0609(6)
N10 N 0.3638(12) 0.7531(10) -0.0242(5)
N11 N 0.5420(9) 0.7891(10) -0.0112(5)
N12 N 0.6716(13) 0.7936(13) 0.0023(6)
H5 H 0.719(4) 0.736(3) 0.005(3)
H6 H 0.702(3) 0.850(3) 0.0306(14)
C1 C 0.1553(7) -0.0238(8) 0.5534(4)
C2 C 0.1417(8) -0.0407(7) 0.4512(4)
C3 C 0.1741(8) 0.0228(8) 0.6209(4)
C4 C 0.1371(8) 0.1318(8) 0.6451(5)
H7 H 0.10630 0.18430 0.61790
C5 C 0.1447(8) 0.1649(8) 0.7091(5)
C6 C 0.1918(11) 0.0879(9) 0.7490(5)
H8 H 0.19620 0.10900 0.79210
C7 C 0.2334(12) -0.0228(10) 0.7248(5)
H9 H 0.26750 -0.07370 0.75190
C8 C 0.224(1) -0.0551(9) 0.6622(5)
H10 H 0.25030 -0.12890 0.64630
C9 C 0.0952(9) 0.2806(9) 0.7361(5)
C10 C 0.1463(8) -0.0216(8) 0.3851(4)
C11 C 0.1076(8) 0.0839(8) 0.3607(4)
H11 H 0.08180 0.14680 0.38730
C12 C 0.1085(8) 0.0926(8) 0.2971(4)
C13 C 0.1487(10) -0.0014(9) 0.2587(5)
H12 H 0.15040 0.00550 0.21600
C14 C 0.1858(12) -0.1035(11) 0.2810(6)
H13 H 0.21090 -0.16570 0.25370
C15 C 0.1863(10) -0.1145(9) 0.3447(5)
H14 H 0.21320 -0.18350 0.36040
C16 C 0.0688(8) 0.2037(8) 0.2695(5)
C17 C 0.5406(7) 0.6369(8) 0.4515(4)
C18 C 0.5520(8) 0.6585(8) 0.5543(4)
C19 C 0.5009(8) 0.6363(9) 0.3844(4)
C20 C 0.3832(8) 0.6052(9) 0.3616(5)
H15 H 0.32660 0.58570 0.38910
C21 C 0.3486(9) 0.6028(8) 0.2976(5)
C22 C 0.4351(10) 0.6297(10) 0.2580(5)
H16 H 0.41300 0.62840 0.21530
C23 C 0.5527(11) 0.6583(11) 0.2797(6)
H17 H 0.60920 0.67550 0.25190
C24 C 0.588(1) 0.6618(11) 0.3438(5)
H18 H 0.66780 0.68070 0.35900
C25 C 0.2218(9) 0.5711(9) 0.2739(5)
C26 C 0.5220(8) 0.6875(9) 0.6180(5)
C27 C 0.4090(8) 0.6531(8) 0.6359(5)
H19 H 0.35140 0.61370 0.60640
C28 C 0.3827(9) 0.6782(9) 0.6983(5)
C29 C 0.4662(11) 0.7378(11) 0.7410(6)
H20 H 0.44680 0.75820 0.78200
C30 C 0.5781(13) 0.7679(14) 0.7245(6)
H21 H 0.63590 0.80440 0.75480
C31 C 0.6066(10) 0.7445(12) 0.6626(6)
H22 H 0.68250 0.76740 0.65130
C32 C 0.2611(11) 0.6353(11) 0.7167(7)
C33 C 0.4549(15) 0.7243(13) 0.0029(6)
C34 C 0.4894(13) 0.8666(14) -0.0553(7)
C35 C 0.4646(13) 0.6289(13) 0.0488(7)
C36 C 0.3711(12) 0.5728(9) 0.0620(5)
H23 H 0.30000 0.60100 0.04500
C37 C 0.3529(8) 0.4776(8) 0.0969(5)
C38 C 0.4552(13) 0.4384(13) 0.1254(6)
H24 H 0.45350 0.37440 0.14940
C39 C 0.5682(11) 0.5035(14) 0.1157(7)
H25 H 0.64270 0.48600 0.13420
C40 C 0.5542(17) 0.5937(13) 0.0763(6)
H26 H 0.62590 0.63440 0.06980
C41 C 0.2260(12) 0.4282(12) 0.1007(6)
C42 C 0.5380(14) 0.9568(10) -0.0907(7)
C43 C 0.6742(14) 1.0044(10) -0.0743(6)
H27 H 0.72540 0.97310 -0.04470
C44 C 0.7101(10) 1.0950(8) -0.1073(5)
C45 C 0.6304(12) 1.1335(12) -0.1499(6)
H28 H 0.66060 1.19170 -0.17300
C46 C 0.5112(18) 1.0993(18) -0.1641(9)
H29 H 0.45930 1.13430 -0.19210
C47 C 0.4824(16) 1.0160(15) -0.1348(7)
H30 H 0.40330 0.98700 -0.14570
C48 C 0.8339(11) 1.1555(11) -0.0964(5)
O21 O 0.144(2) 0.071(3) 0.9026(9)
O22 O 0.481(5) 1.003(5) 0.557(2)
Mn1A Mn -0.02572(16) 0.71447(14) 0.87138(7)
Mn1A* Mn 0.97428(16) 1.71447(14) -0.12862(7)
Mn2A Mn -0.04651(12) 0.39060(12) 0.85030(6)
Mn2A* Mn 0.95349(12) 1.39060(12) -0.14970(6)
Mn3A Mn 0.02597(12) 0.54366(11) 0.72554(6)
O1A O -0.0329(6) 0.7119(6) 0.6940(3)
O2A O -0.0736(8) 0.7950(8) 0.7880(4)
O3A O -0.0799(7) 0.6390(6) 0.2994(3)
O4A O -0.0707(7) 0.7120(7) 0.2071(4)
O5A O -0.1932(7) 0.4081(8) 0.7814(4)
O6A O -0.1528(7) 0.4759(7) 0.6918(4)
O7A O -0.2422(9) 0.3455(10) 0.2269(5)
O8A O -0.1847(7) 0.4128(7) 0.3245(5)
O9A O 0.7835(11) 1.6698(9) -0.1226(6)
O9A* O -0.2165(11) 0.6698(9) 0.8774(6)
O10A O 0.8595(8) 1.5140(12) -0.0844(4)
O10A* O -0.1405(8) 0.5140(12) 0.9156(4)
O11A O 0.141(1) 0.7619(9) 0.1240(6)
O11* O -0.141(1) 0.2381(9) 0.8760(6)
O12A O 0.0883(10) 0.8974(13) 0.0622(6)
O13A O 0.0860(8) 0.3889(9) 0.9357(4)
O14A O 0.1026(10) 0.6524(10) 0.9600(5)
O15A O -0.0514(10) 0.852(1) 0.9471(4)
O16A O 0.1589(9) 0.8099(11) 0.8613(5)
O17A O 0.0378(6) 0.5543(5) 0.8238(3)
O18A O -0.042(3) 0.6255(12) 0.4343(6)
O19A O -0.1404(10) 0.3818(13) 0.4483(6)
O20A O 0.1080(11) 0.3954(15) 0.4353(5)
N1A N -0.1214(7) 1.1357(6) 0.4666(4)
N2A N -0.1123(8) 1.1476(7) 0.5311(4)
N3A N -0.1659(7) 0.9627(6) 0.4968(4)
N4A N -0.2161(11) 0.8442(7) 0.4955(4)
H1A H -0.23360 0.81720 0.52990
H2A H -0.22910 0.79940 0.46040
N5A N -0.6465(7) 0.3996(7) 0.5280(4)
N6A N -0.6530(6) 0.3865(7) 0.4634(4)
N7A N -0.4795(6) 0.3260(7) 0.4992(4)
N8A N -0.3686(8) 0.2694(11) 0.5019(4)
H3A H -0.33430 0.25600 0.53750
H4A H -0.33530 0.24840 0.46790
N9A N 0.6253(10) 1.1627(12) 0.0609(6)
N10A N 0.6362(12) 1.2469(10) 0.0242(5)
N11A N 0.4580(9) 1.2109(10) 0.0112(5)
N12A N 0.3284(13) 1.2064(13) -0.0023(6)
H5A H 0.281(4) 1.264(3) -0.005(3)
H6A H 0.298(3) 1.150(3) -0.0306(14)
C1A C -0.1553(7) 1.0238(8) 0.4466(4)
C2A C -0.1417(8) 1.0407(7) 0.5488(4)
C3A C -0.1741(8) 0.9772(8) 0.3791(4)
C4A C -0.1371(8) 0.8682(8) 0.3549(5)
H7A H -0.10630 0.81570 0.38210
C5A C -0.1447(8) 0.8351(8) 0.2909(5)
C6A C -0.1918(11) 0.9121(9) 0.2510(5)
H8A H -0.19620 0.89100 0.20790
C7A C -0.2334(12) 1.0228(10) 0.2752(5)
H9A H -0.26750 1.07370 0.24810
C8A C -0.224(1) 1.0551(9) 0.3378(5)
H10A H -0.25030 1.12890 0.35370
C9A C -0.0952(9) 0.7194(9) 0.2639(5)
C10A C -0.1463(8) 1.0216(8) 0.6149(4)
C11A C -0.1076(8) 0.9161(8) 0.6393(4)
H11A H -0.08180 0.85320 0.61270
C12A C -0.1085(8) 0.9074(8) 0.7029(4)
C13A C -0.1487(10) 1.0014(9) 0.7413(5)
H12A H -0.15040 0.99450 0.78400
C14A C -0.1858(12) 1.1035(11) 0.7190(6)
H13A H -0.21090 1.16570 0.74630
C15A C -0.1863(10) 1.1145(9) 0.6553(5)
H14A H -0.21320 1.18350 0.63960
C16A C -0.0688(8) 0.7963(8) 0.7305(5)
C17A C -0.5406(7) 0.3631(8) 0.5485(4)
C18A C -0.5520(8) 0.3415(8) 0.4457(4)
C19A C -0.5009(8) 0.3637(9) 0.6156(4)
C20A C -0.3832(8) 0.3948(9) 0.6384(5)
H15A H -0.32660 0.41430 0.61090
C21A C -0.3486(9) 0.3972(8) 0.7024(5)
C22A C -0.4351(10) 0.3703(10) 0.7420(5)
H16A H -0.41300 0.37160 0.78470
C23A C -0.5527(11) 0.3417(11) 0.7203(6)
H17A H -0.60920 0.32450 0.74810
C24A C -0.588(1) 0.3382(11) 0.6562(5)
H18A H -0.66780 0.31930 0.64100
C25A C -0.2218(9) 0.4289(9) 0.7261(5)
C26A C -0.5220(8) 0.3125(9) 0.3820(5)
C27A C -0.4090(8) 0.3469(8) 0.3641(5)
H19A H -0.35140 0.38630 0.39360
C28A C -0.3827(9) 0.3218(9) 0.3017(5)
C29A C -0.4662(11) 0.2622(11) 0.2590(6)
H20A H -0.44680 0.24180 0.21800
C30A C -0.5781(13) 0.2321(14) 0.2755(6)
H21A H -0.63590 0.19560 0.24520
C31A C -0.6066(10) 0.2555(12) 0.3374(6)
H22A H -0.68250 0.23260 0.34870
C32A C -0.2611(11) 0.3647(11) 0.2833(7)
C33A C 0.5451(15) 1.2757(13) -0.0029(6)
C34A C 0.5106(13) 1.1334(14) 0.0553(7)
C35A C 0.5354(13) 1.3711(13) -0.0488(7)
C36A C 0.6289(12) 1.4272(9) -0.0620(5)
H23A H 0.70000 1.39900 -0.04500
C37A C 0.6471(8) 1.5224(8) -0.0969(5)
C38A C 0.5448(13) 1.5616(13) -0.1254(6)
H24A H 0.54650 1.62560 -0.14940
C39A C 0.4318(11) 1.4965(14) -0.1157(7)
H25A H 0.35730 1.51400 -0.13420
C40A C 0.4458(17) 1.4063(13) -0.0763(6)
H26A H 0.37410 1.36560 -0.06980
C41A C 0.7740(12) 1.5718(12) -0.1007(6)
C42A C 0.4620(14) 1.0432(10) 0.0907(7)
C43A C 0.3258(14) 0.9956(10) 0.0743(6)
H27A H 0.27460 1.02690 0.04470
C44A C 0.2899(10) 0.9050(8) 0.1073(5)
C45A C 0.3696(12) 0.8665(12) 0.1499(6)
H28A H 0.33940 0.80830 0.17300
C46A C 0.4888(18) 0.9007(18) 0.1641(9)
H29A H 0.54070 0.86570 0.19210
C47A C 0.5176(16) 0.9840(15) 0.1348(7)
H30A H 0.59670 1.01300 0.14570
C48A C 0.1661(11) 0.8445(11) 0.0964(5)
#END
