
#######################################################################
#
#                 Cambridge Crystallographic Data Centre
#                                CCDC
#
#######################################################################
#
# If this CIF has been generated from an entry in the Cambridge
# Structural Database, then it will include bibliographic, chemical,
# crystal, experimental, refinement or atomic coordinate data resulting
# from the CCDC's data processing and validation procedures.
#
#######################################################################

data_CSD_CIF_OVIHUX
_audit_creation_date 2011-09-15
_audit_creation_method CSD-ConQuest-V1
_database_code_CSD OVIHUX
_database_code_depnum_ccdc_archive 'CCDC 818242'
_chemical_formula_sum 'C28 H48 Ag6 N26 O16'
_chemical_formula_moiety
;
(C28 H40 Ag6 N24 O16 2-)n,2n(H4 N1 1+)
;
_journal_coden_Cambridge 119
_journal_volume 1000
_journal_year 2011
_journal_page_first 85
_journal_name_full 'J.Mol.Struct. '
loop_
_publ_author_name
"Yun-Hua Li"
"Di Sun"
"Geng-Geng Luo"
"Fu-Jing Liu"
"Hong-Jun Hao"
"Yi-Mei Wen"
"Yang Zhao"
"Rong-Bin Huang"
"Lan-Sun Zheng"
_chemical_name_systematic
;
catena-(Diammonium 
(\m~4~-succinato-O,O,O',O',O'',O''')-(\m~4~-succinato-O,O',O'',O''')-tetrakis(
\m~3~-melamine-N,N',N'')-bis(\m~2~-succinato-O,O')-hexa-silver(i))
;
_cell_volume   1234.346
_exptl_crystal_colour 'colorless'
_exptl_crystal_density_diffrn 2.223
_exptl_crystal_description 'block'
_diffrn_ambient_temperature 298
#These two values have been output from a single CSD field.
_refine_ls_R_factor_gt 0.0487
_refine_ls_wR_factor_gt 0.0487
_symmetry_cell_setting triclinic
_symmetry_space_group_name_H-M 'P -1'
_symmetry_Int_Tables_number 2
loop_
_symmetry_equiv_pos_site_id
_symmetry_equiv_pos_as_xyz
1 x,y,z
2 -x,-y,-z
_cell_length_a 9.662(3)
_cell_length_b 12.066(4)
_cell_length_c 12.236(4)
_cell_angle_alpha 90.161(7)
_cell_angle_beta 109.294(6)
_cell_angle_gamma 112.086(6)
_cell_formula_units_Z 1
loop_
_atom_type_symbol
_atom_type_radius_bond
C 0.68
H 0.23
Ag 1.66
N 0.68
O 0.68
loop_
_atom_site_label
_atom_site_type_symbol
_atom_site_fract_x
_atom_site_fract_y
_atom_site_fract_z
Ag1 Ag 0.41827(6) -0.75172(4) 1.25501(4)
Ag2 Ag 0.47841(6) -1.23908(5) 1.47077(5)
Ag3 Ag -0.20136(7) -1.24474(5) 1.10614(6)
C1 C 0.1696(8) -1.1791(6) 1.2731(6)
C2 C 0.1561(7) -1.0105(6) 1.2005(5)
C3 C 0.3966(7) -1.0098(5) 1.3176(5)
C4 C 0.4285(8) -0.4955(6) 1.3115(6)
C5 C 0.5566(10) -0.3213(6) 1.2503(6)
C6 C 0.5670(8) -0.4943(6) 1.1914(5)
C7 C 0.7918(8) -0.6315(6) 1.4265(5)
C8 C 0.9572(11) -0.5415(10) 1.4460(8)
H1 H 1.02080 -0.58580 1.44060
H2 H 0.95120 -0.49410 1.38200
C9 C 0.8357(8) -1.1149(7) 1.5486(6)
C10 C 0.9968(10) -1.0302(11) 1.5493(9)
H3 H 1.06300 -1.07590 1.55920
H4 H 1.04560 -0.96920 1.61780
C11 C -0.0847(9) -1.3756(7) 0.9676(6)
C12 C -0.0052(15) -1.4587(10) 0.9570(9)
H5 H -0.06230 -1.50650 0.87990
H6 H 0.10250 -1.40930 0.96090
C13 C 0.3692(8) -0.9123(6) 0.9867(6)
C14 C 0.4664(11) -0.9824(10) 1.0396(7)
H7 H 0.39990 -1.05470 1.06160
H8 H 0.55320 -0.93420 1.11020
N1 N 0.0760(6) -1.1276(5) 1.2075(5)
N2 N 0.3285(6) -1.1271(5) 1.3292(5)
N3 N 0.3155(6) -0.9478(4) 1.2542(4)
N4 N 0.5526(6) -0.9538(5) 1.3700(5)
H9 H 0.60040 -0.87940 1.36320
H10 H 0.60670 -0.99160 1.41090
N5 N 0.0717(7) -0.9539(5) 1.1379(5)
H11 H -0.03010 -0.99150 1.10350
H12 H 0.11820 -0.87930 1.13120
N6 N 0.0969(8) -1.2962(6) 1.2812(6)
H13 H -0.00450 -1.33410 1.24540
H14 H 0.15180 -1.33340 1.32240
N7 N 0.4653(9) -0.3761(5) 1.3137(5)
N8 N 0.6160(7) -0.3745(5) 1.1929(5)
N9 N 0.4745(6) -0.5587(4) 1.2508(4)
N10 N 0.3382(7) -0.5519(5) 1.3715(5)
H15 H 0.30930 -0.62860 1.37150
H16 H 0.30820 -0.51200 1.41060
N11 N 0.5892(13) -0.2048(6) 1.2474(7)
H17 H 0.64750 -0.16510 1.20910
H18 H 0.55200 -0.16870 1.28380
N12 N 0.6156(8) -0.5522(5) 1.1308(6)
H19 H 0.67650 -0.51310 1.09410
H20 H 0.58630 -0.62920 1.12800
N13 N 0.9021(7) -0.7946(5) 1.2299(5)
H21 H 0.84990 -0.87030 1.19060
H22 H 0.84270 -0.77720 1.25880
H23 H 0.92700 -0.74460 1.18380
H24 H 0.99110 -0.79090 1.28760
O1 O 0.7293(5) -0.7149(4) 1.3421(4)
O2 O 0.7284(5) -0.6188(4) 1.4969(4)
O3 O 0.8291(6) -1.2076(5) 1.5965(5)
O4 O 0.7192(5) -1.0883(5) 1.5034(4)
O5 O -0.1739(7) -1.4051(5) 1.0263(5)
O6 O -0.0588(7) -1.2847(5) 0.9188(5)
O7 O 0.2563(6) -0.9603(5) 0.8904(4)
O8 O 0.3985(7) -0.8112(5) 1.0365(4)
Ag1A Ag 1.58173(6) -0.24828(4) 1.74499(4)
Ag1A* Ag 0.58173(6) -1.24828(4) 1.74499(4)
Ag1A** Ag 0.58173(6) -1.24828(4) 0.74499(4)
Ag1A*** Ag 0.58173(6) -0.24828(4) 1.74499(4)
Ag1* Ag 0.41827(6) -1.75172(4) 1.25501(4)
Ag2* Ag 0.47841(6) -0.23908(5) 1.47077(5)
Ag2A Ag 0.52159(6) -0.76092(5) 1.52923(5)
Ag2** Ag 1.47841(6) -0.23908(5) 1.47077(5)
Ag2A* Ag 1.52159(6) -0.76092(5) 1.52923(5)
Ag2A** Ag 1.52159(6) 0.23908(5) 1.52923(5)
Ag3* Ag 0.79864(7) -0.24474(5) 1.10614(6)
Ag3A Ag 0.20136(7) -0.75526(5) 0.89386(6)
Ag3A* Ag 0.20136(7) -1.75526(5) 0.89386(6)
Ag3** Ag 0.79864(7) -1.24474(5) 1.10614(6)
Ag3A** Ag 2.20136(7) 0.24474(5) 1.89386(6)
C1A C 1.8304(8) 0.1791(6) 1.7269(6)
C2A C 1.8439(7) 0.0105(6) 1.7995(5)
C3A C 1.6034(7) 0.0098(5) 1.6824(5)
C4* C 0.4285(8) -1.4955(6) 1.3115(6)
C5* C 0.5566(10) -1.3213(6) 1.2503(6)
C6* C 0.5670(8) -1.4943(6) 1.1914(5)
C7A C 1.2082(8) -0.3685(6) 1.5735(5)
C8A C 1.0428(11) -0.4585(10) 1.5540(8)
H1A H 0.97920 -0.41420 1.55940
H2A H 1.04880 -0.50590 1.61800
C9A C 1.1643(8) -0.8851(7) 1.4514(6)
C10A C 1.0032(10) -0.9698(11) 1.4507(9)
H3A H 0.93700 -0.92410 1.44080
H4A H 0.95440 -1.03080 1.38220
C11A C 0.0847(9) -1.6244(7) 1.0324(6)
C12A C 0.0052(15) -1.5413(10) 1.0430(9)
H5A H 0.06230 -1.49350 1.12010
H6A H -0.10250 -1.59070 1.03910
C13A C 0.6308(8) -1.0877(6) 1.0133(6)
C14A C 0.5336(11) -1.0176(10) 0.9604(7)
H7A H 0.60010 -0.94530 0.93840
H8A H 0.44680 -1.06580 0.88980
N1A N 1.9240(6) 0.1276(5) 1.7925(5)
N1* N 1.0760(6) -0.1276(5) 1.2075(5)
N2A N 1.6715(6) 0.1271(5) 1.6708(5)
N2* N 0.3285(6) -0.1271(5) 1.3292(5)
N3A N 1.6845(6) -0.0522(4) 1.7458(4)
N4A N 1.4474(6) -0.0462(5) 1.6300(5)
H9A H 1.39960 -0.12060 1.63680
H10A H 1.39330 -0.00840 1.58910
N5A N 1.9283(7) -0.0461(5) 1.8621(5)
H11A H 2.03010 -0.00850 1.89650
H12A H 1.88180 -0.12070 1.86880
N6A N 1.9031(8) 0.2962(6) 1.7188(6)
H13A H 2.00450 0.33410 1.75460
H14A H 1.84820 0.33340 1.67760
N7* N 0.4653(9) -1.3761(5) 1.3137(5)
N8* N 0.6160(7) -1.3745(5) 1.1929(5)
N8** N -0.3840(7) -1.3745(5) 1.1929(5)
N9* N 0.4745(6) -1.5587(4) 1.2508(4)
N9A N 1.5255(6) -0.4413(4) 1.7492(4)
N10* N 0.3382(7) -1.5519(5) 1.3715(5)
H15* H 0.30930 -1.62860 1.37150
H16* H 0.30820 -1.51200 1.41060
N11* N 0.5892(13) -1.2048(6) 1.2474(7)
H17* H 0.64750 -1.16510 1.20910
H18* H 0.55200 -1.16870 1.28380
N12* N 0.6156(8) -1.5522(5) 1.1308(6)
H19* H 0.67650 -1.51310 1.09410
H20* H 0.58630 -1.62920 1.12800
O1A O 1.2707(5) -0.2851(4) 1.6579(4)
O2A O 1.2716(5) -0.3812(4) 1.5031(4)
O2A* O 0.2716(5) -1.3812(4) 1.5031(4)
O2A** O 0.2716(5) -0.3812(4) 1.5031(4)
O3A O 1.1709(6) -0.7924(5) 1.4035(5)
O4A O 1.2808(5) -0.9117(5) 1.4966(4)
O4* O 0.7192(5) -0.0883(5) 1.5034(4)
O5A O 0.1739(7) -1.5949(5) 0.9737(5)
O5* O 0.8261(7) -0.4051(5) 1.0263(5)
O6A O 0.0588(7) -1.7153(5) 1.0812(5)
O7A O 0.7437(6) -1.0397(5) 1.1096(4)
O7A* O -0.2563(6) -1.0397(5) 1.1096(4)
O7A** O 0.7437(6) -0.0397(5) 1.1096(4)
O8A O 0.6015(7) -1.1888(5) 0.9635(4)
O8A* O -0.3985(7) -1.1888(5) 0.9635(4)
O8A** O 1.6015(7) -0.1888(5) 1.9635(4)
O8A*** O 0.6015(7) -0.1888(5) 0.9635(4)
#END
