
#######################################################################
#
#                 Cambridge Crystallographic Data Centre
#                                CCDC
#
#######################################################################
#
# If this CIF has been generated from an entry in the Cambridge
# Structural Database, then it will include bibliographic, chemical,
# crystal, experimental, refinement or atomic coordinate data resulting
# from the CCDC's data processing and validation procedures.
#
#######################################################################

data_CSD_CIF_OVOCEI
_audit_creation_date 2011-09-07
_audit_creation_method CSD-ConQuest-V1
_database_code_CSD OVOCEI
_database_code_depnum_ccdc_archive 'CCDC 839320'
_chemical_formula_sum 'C48 H66 K2 N24 O44 S4 U2'
_chemical_formula_moiety
;
(C12 H14 O24 S4 U2 2-)n,2n(K1 1+),n(C36 H36 N24 O12),8n(H2 O1)
;
_journal_coden_Cambridge 1147
_journal_volume 11
_journal_year 2011
_journal_page_first 3282
_journal_name_full 'Cryst.Growth Des. '
loop_
_publ_author_name
"P.Thuery"
_chemical_name_systematic
;
catena-(di-potassium cucurbit[6]uril 
bis(\m~2~-4-oxy-5-hydroxybenzene-1,3-disulfonato)-tetraaqua-tetraoxo-di-uraniu
m octahydrate)
;
_cell_volume   3716.047
_exptl_crystal_colour 'dark orange'
_exptl_crystal_density_diffrn 2.114
_exptl_special_details
;
The paper describes a number of bonds involving the K atoms which have not 
been represented in the 2D diagram
;
_exptl_crystal_description 'platelet'
_diffrn_ambient_temperature 150
#These two values have been output from a single CSD field.
_refine_ls_R_factor_gt 0.0245
_refine_ls_wR_factor_gt 0.0245
_symmetry_cell_setting monoclinic
_symmetry_space_group_name_H-M 'P 21/n'
_symmetry_Int_Tables_number 14
loop_
_symmetry_equiv_pos_site_id
_symmetry_equiv_pos_as_xyz
1 x,y,z
2 1/2-x,1/2+y,1/2-z
3 -x,-y,-z
4 -1/2+x,-1/2-y,-1/2+z
_cell_length_a 15.4882(4)
_cell_length_b 16.1531(5)
_cell_length_c 16.2434(4)
_cell_angle_alpha 90
_cell_angle_beta 113.876(2)
_cell_angle_gamma 90
_cell_formula_units_Z 2
loop_
_atom_type_symbol
_atom_type_radius_bond
C 0.68
H 0.23
K 1.46
N 0.68
O 0.72
S 1.02
U 1.36
loop_
_atom_site_label
_atom_site_type_symbol
_atom_site_fract_x
_atom_site_fract_y
_atom_site_fract_z
U1 U -0.326690(7) 0.562151(6) -0.450306(6)
K1 K 0.03680(5) 0.89207(4) 0.22345(4)
S1 S -0.11463(5) 0.54533(4) -0.25192(4)
S2 S -0.00653(5) 0.78023(4) 0.00446(4)
O1 O -0.40822(13) 0.51127(12) -0.41684(13)
O2 O -0.24513(13) 0.60895(12) -0.48624(13)
O3 O -0.29427(13) 0.65903(12) -0.33959(12)
O4 O -0.31163(13) 0.81068(12) -0.27856(13)
H1 H -0.34050 0.78950 -0.32970
O5 O -0.20452(13) 0.50906(12) -0.31669(12)
O6 O -0.06770(13) 0.49144(12) -0.17651(13)
O7 O -0.05555(15) 0.57334(12) -0.29692(15)
O8 O 0.06012(13) 0.82889(12) -0.02144(12)
O9 O -0.05272(13) 0.83251(12) 0.04699(12)
O10 O 0.03996(14) 0.70766(12) 0.05678(13)
O11 O -0.28141(15) 0.42913(12) -0.49074(14)
H2 H -0.32730 0.39540 -0.52170
H3 H -0.25390 0.43960 -0.51560
O12 O -0.41808(14) 0.53133(13) -0.61135(12)
H4 H -0.48000 0.55950 -0.64090
H5 H -0.39230 0.55030 -0.64090
O13 O 0.07801(14) 1.05816(12) 0.26178(14)
O14 O 0.17722(15) 1.22260(13) 0.62941(13)
O15 O 0.18586(14) 0.88054(13) 0.37638(13)
O16 O 0.29739(15) 1.04704(13) 0.73748(14)
O17 O 0.06790(16) 0.72551(15) 0.42815(14)
O18 O 0.16337(15) 0.91019(13) 0.78301(14)
O19 O 0.01500(17) 0.72438(16) 0.24694(15)
H6 H 0.05360 0.69440 0.23560
H7 H 0.03250 0.71250 0.29940
O20 O -0.10796(19) 0.89769(19) 0.2749(2)
H8 H -0.12200 0.86400 0.30800
H9 H -0.14540 0.93400 0.27440
O21 O -0.01036(17) 0.45620(15) -0.40646(16)
H10 H -0.01720 0.48990 -0.37110
H11 H -0.03460 0.40930 -0.40140
O22 O -0.16882(17) 0.44259(14) -0.57629(16)
H12 H -0.17610 0.46690 -0.63010
H13 H -0.11560 0.47170 -0.54500
N1 N 0.07301(16) 1.18307(14) 0.32930(14)
N2 N 0.20237(15) 1.10610(14) 0.38854(15)
N3 N 0.24289(16) 1.17304(15) 0.53406(15)
N4 N 0.11217(16) 1.24789(15) 0.47581(15)
N5 N 0.28535(16) 0.98248(14) 0.46313(14)
N6 N 0.27976(17) 0.86257(15) 0.52742(15)
N7 N 0.33074(17) 0.92905(14) 0.67534(15)
N8 N 0.32754(18) 1.04996(15) 0.60968(16)
N9 N 0.19140(17) 0.75516(16) 0.56383(15)
N10 N 0.05164(16) 0.72382(15) 0.56237(15)
N11 N 0.09313(16) 0.78876(14) 0.71007(15)
N12 N 0.22648(16) 0.83138(15) 0.70284(15)
C1 C -0.22654(18) 0.68327(16) -0.26224(16)
C2 C -0.23600(18) 0.76265(17) -0.22986(17)
C3 C -0.16948(19) 0.79372(17) -0.15007(17)
H14 H -0.17520 0.84710 -0.13150
C4 C -0.09323(18) 0.74340(17) -0.09764(17)
C5 C -0.08204(18) 0.66524(17) -0.12712(17)
H15 H -0.03180 0.63200 -0.09140
C6 C -0.14631(18) 0.63630(16) -0.21070(17)
C7 C 0.11368(19) 1.11041(17) 0.32076(17)
C8 C 0.13766(18) 1.23502(16) 0.40054(17)
H16 H 0.14950 1.28760 0.37690
C9 C 0.22836(18) 1.18167(17) 0.44076(17)
H17 H 0.28200 1.20900 0.43480
C10 C 0.17730(19) 1.21526(18) 0.55451(17)
C11 C 0.2697(2) 1.04180(18) 0.39226(18)
H18 H 0.24670 1.01300 0.33500
H19 H 0.32940 1.06750 0.40110
C12 C 0.32766(19) 1.13911(17) 0.60220(18)
H20 H 0.33660 1.16300 0.65990
H21 H 0.38100 1.15550 0.58910
C13 C 0.24376(19) 0.90604(18) 0.44836(18)
C14 C 0.35454(19) 0.99268(17) 0.55522(17)
H22 H 0.41720 1.00570 0.55730
C15 C 0.35357(19) 0.90717(18) 0.59907(18)
H23 H 0.41470 0.87900 0.61850
C16 C 0.31624(19) 1.01168(18) 0.67980(18)
C17 C 0.2621(2) 0.77446(17) 0.53045(19)
H24 H 0.24240 0.75180 0.47030
H25 H 0.32070 0.74750 0.56840
C18 C 0.31893(19) 0.87014(18) 0.73710(17)
H26 H 0.32920 0.89830 0.79310
H27 H 0.36670 0.82740 0.75040
C19 C 0.1001(2) 0.73479(18) 0.50999(19)
C20 C 0.20942(19) 0.75157(17) 0.65826(18)
H28 H 0.25950 0.71180 0.69080
C21 C 0.11297(19) 0.72474(17) 0.65776(18)
H29 H 0.11680 0.67000 0.68510
C22 C 0.16109(19) 0.84953(17) 0.73636(17)
C23 C 0.04300(19) 1.30892(18) 0.47391(18)
H30 H 0.04590 1.35570 0.43770
H31 H 0.05840 1.32870 0.53460
C24 C -0.01529(19) 1.21414(18) 0.26265(18)
H32 H -0.03190 1.18210 0.20790
H33 H -0.00620 1.27100 0.24880
U1C U -0.826690(7) 0.937849(6) -0.950306(6)
U1C* U 0.173310(7) 0.937849(6) 0.049694(6)
S1C S -0.61463(5) 0.95467(4) -0.75192(4)
S2C S -0.50653(5) 0.71977(4) -0.49554(4)
O1C O -0.90822(13) 0.98873(12) -0.91684(13)
O2C O -0.74513(13) 0.89105(12) -0.98624(13)
O3C O -0.79427(13) 0.84097(12) -0.83959(12)
O4C O -0.81163(13) 0.68932(12) -0.77856(13)
H1C H -0.84050 0.71050 -0.82970
O5C O -0.70452(13) 0.99094(12) -0.81669(12)
O6C O -0.56770(13) 1.00856(12) -0.67651(13)
O7C O -0.55555(15) 0.92666(12) -0.79692(15)
O8C O -0.43988(13) 0.67111(12) -0.52144(12)
O8* O -0.93988(13) 0.82889(12) -1.02144(12)
O9C O -0.55272(13) 0.66749(12) -0.45301(12)
O10C O -0.46004(14) 0.79234(12) -0.44322(13)
O11C O -0.78141(15) 1.07087(12) -0.99074(14)
H2C H -0.82730 1.10460 -1.02170
H3C H -0.75390 1.06040 -1.01560
O12C O -0.91808(14) 0.96867(13) -1.11135(12)
H4C H -0.98000 0.94050 -1.14090
H5C H -0.89230 0.94970 -1.14090
O13B O -0.07801(14) 0.94184(12) 0.73822(14)
O14B O -0.17722(15) 0.77740(13) 0.37059(13)
O15B O -0.18586(14) 1.11946(13) 0.62362(13)
O16B O -0.29739(15) 0.95296(13) 0.26252(14)
O17B O -0.06790(16) 1.27449(15) 0.57185(14)
O18B O -0.16337(15) 1.08981(13) 0.21699(14)
N1B N -0.07301(16) 0.81693(14) 0.67070(14)
N2B N -0.20237(15) 0.89390(14) 0.61146(15)
N3B N -0.24289(16) 0.82696(15) 0.46594(15)
N4B N -0.11217(16) 0.75211(15) 0.52419(15)
N5B N -0.28535(16) 1.01752(14) 0.53687(14)
N6B N -0.27976(17) 1.13743(15) 0.47258(15)
N7B N -0.33074(17) 1.07095(14) 0.32466(15)
N8B N -0.32754(18) 0.95004(15) 0.39032(16)
N9B N -0.19140(17) 1.24484(16) 0.43617(15)
N10B N -0.05164(16) 1.27618(15) 0.43763(15)
N11B N -0.09313(16) 1.21124(14) 0.28993(15)
N12B N -0.22648(16) 1.16862(15) 0.29716(15)
C1C C -0.72654(18) 0.81673(16) -0.76224(16)
C2C C -0.73600(18) 0.73735(17) -0.72986(17)
C3C C -0.66948(19) 0.70628(17) -0.65007(17)
H14C H -0.67520 0.65290 -0.63150
C4C C -0.59323(18) 0.75660(17) -0.59764(17)
C5C C -0.58204(18) 0.83476(17) -0.62712(17)
H15C H -0.53180 0.86800 -0.59140
C6C C -0.64631(18) 0.86370(16) -0.71070(17)
C7B C -0.11368(19) 0.88959(17) 0.67924(17)
C8B C -0.13766(18) 0.76498(16) 0.59946(17)
H16B H -0.14950 0.71240 0.62310
C9B C -0.22836(18) 0.81833(17) 0.55924(17)
H17B H -0.28200 0.79100 0.56520
C10B C -0.17730(19) 0.78474(18) 0.44549(17)
C11B C -0.2697(2) 0.95820(18) 0.60774(18)
H18B H -0.24670 0.98700 0.66500
H19B H -0.32940 0.93250 0.59890
C12B C -0.32766(19) 0.86089(17) 0.39780(18)
H20B H -0.33660 0.83700 0.34010
H21B H -0.38100 0.84450 0.41090
C13B C -0.24376(19) 1.09396(18) 0.55164(18)
C14B C -0.35454(19) 1.00732(17) 0.44478(17)
H22B H -0.41720 0.99430 0.44270
C15B C -0.35357(19) 1.09283(18) 0.40093(18)
H23B H -0.41470 1.12100 0.38150
C16B C -0.31624(19) 0.98832(18) 0.32020(18)
C17B C -0.2621(2) 1.22554(17) 0.46955(19)
H24B H -0.24240 1.24820 0.52970
H25B H -0.32070 1.25250 0.43160
C18B C -0.31893(19) 1.12986(18) 0.26290(17)
H26B H -0.32920 1.10170 0.20690
H27B H -0.36670 1.17260 0.24960
C19B C -0.1001(2) 1.26521(18) 0.49001(19)
C20B C -0.20942(19) 1.24843(17) 0.34174(18)
H28B H -0.25950 1.28820 0.30920
C21B C -0.11297(19) 1.27526(17) 0.34224(18)
H29B H -0.11680 1.33000 0.31490
C22B C -0.16109(19) 1.15047(17) 0.26364(17)
C23B C -0.04300(19) 0.69108(18) 0.52609(18)
H30B H -0.04590 0.64430 0.56230
H31B H -0.05840 0.67130 0.46540
C24B C 0.01529(19) 0.78586(18) 0.73735(18)
H32B H 0.03190 0.81790 0.79210
H33B H 0.00620 0.72900 0.75120
#END
