
#######################################################################
#
#                 Cambridge Crystallographic Data Centre
#                                CCDC
#
#######################################################################
#
# If this CIF has been generated from an entry in the Cambridge
# Structural Database, then it will include bibliographic, chemical,
# crystal, experimental, refinement or atomic coordinate data resulting
# from the CCDC's data processing and validation procedures.
#
#######################################################################

data_CSD_CIF_OVOCAE
_audit_creation_date 2011-09-07
_audit_creation_method CSD-ConQuest-V1
_database_code_CSD OVOCAE
_database_code_depnum_ccdc_archive 'CCDC 839319'
_chemical_formula_sum 'C48 H66 N24 Na2 O44 S4 U2'
_chemical_formula_moiety
;
(C12 H14 O24 S4 U2 2-)n,2n(Na1 1+),n(C36 H36 N24 O12),8n(H2 O1)
;
_journal_coden_Cambridge 1147
_journal_volume 11
_journal_year 2011
_journal_page_first 3282
_journal_name_full 'Cryst.Growth Des. '
loop_
_publ_author_name
"P.Thuery"
_chemical_name_systematic
;
catena-(di-sodium cucurbit[6]uril 
bis(\m~2~-4-oxy-5-hydroxybenzene-1,3-disulfonato)-tetraaqua-tetraoxo-di-uraniu
m octahydrate)
;
_cell_volume   3629.032
_exptl_crystal_colour 'dark orange'
_exptl_crystal_density_diffrn 2.136
_exptl_special_details
;
The paper describes a number of bonds involving the Na atoms which have not 
been represented in the 2D diagram
;
_exptl_crystal_description 'platelet'
_diffrn_ambient_temperature 150
#These two values have been output from a single CSD field.
_refine_ls_R_factor_gt 0.0262
_refine_ls_wR_factor_gt 0.0262
_symmetry_cell_setting monoclinic
_symmetry_space_group_name_H-M 'P 21/n'
_symmetry_Int_Tables_number 14
loop_
_symmetry_equiv_pos_site_id
_symmetry_equiv_pos_as_xyz
1 x,y,z
2 1/2-x,1/2+y,1/2-z
3 -x,-y,-z
4 -1/2+x,-1/2-y,-1/2+z
_cell_length_a 15.4467(5)
_cell_length_b 15.8288(3)
_cell_length_c 16.1585(5)
_cell_angle_alpha 90
_cell_angle_beta 113.284(2)
_cell_angle_gamma 90
_cell_formula_units_Z 2
loop_
_atom_type_symbol
_atom_type_radius_bond
C 0.68
H 0.23
N 0.68
Na 1.06
O 0.71
S 1.02
U 1.36
loop_
_atom_site_label
_atom_site_type_symbol
_atom_site_fract_x
_atom_site_fract_y
_atom_site_fract_z
U1 U 0.917173(7) 0.565535(6) 0.786370(7)
Na1 Na 0.25409(9) 0.88786(8) 0.48466(9)
S1 S 0.70949(5) 0.54394(5) 0.57914(5)
S2 S 0.44991(5) 0.79033(5) 0.46550(5)
O1 O 0.96185(14) 0.61979(13) 0.71593(14)
O2 O 0.88010(14) 0.50734(13) 0.85986(14)
O3 O 0.79767(13) 0.66024(12) 0.75083(13)
O4 O 0.72437(14) 0.81084(13) 0.77195(13)
H1 H 0.77540 0.77860 0.81300
O5 O 0.78174(14) 0.51057(13) 0.66346(13)
O6 O 0.63085(15) 0.48686(14) 0.54197(15)
O7 O 0.75145(17) 0.56950(14) 0.51649(16)
O8 O 0.48514(14) 0.82777(13) 0.40034(14)
O9 O 0.41052(14) 0.85364(14) 0.50528(14)
O10 O 0.38833(14) 0.71913(13) 0.42411(14)
O11 O 0.95342(15) 0.43379(12) 0.72649(15)
H2 H 0.90480 0.40820 0.67530
H3 H 0.99760 0.43740 0.69950
O12 O 1.07851(14) 0.52205(14) 0.87451(14)
H4 H 1.10460 0.51670 0.92930
H5 H 1.13680 0.53450 0.86420
O13 O 0.13850(14) 0.86306(13) 0.34312(14)
O14 O -0.22046(15) 1.05182(13) 0.20988(15)
O15 O 0.26034(14) 1.03709(14) 0.46409(14)
O16 O -0.11129(14) 1.22403(13) 0.33155(14)
O17 O 0.29041(15) 1.07842(13) 0.68040(15)
O18 O -0.06797(14) 1.29683(15) 0.57158(15)
O19 O 0.25482(16) 0.73877(16) 0.50564(16)
H6 H 0.28480 0.71150 0.48010
H7 H 0.19150 0.71490 0.47600
O20 O 0.2053(2) 0.90520(19) 0.60139(19)
H8 H 0.21010 0.93920 0.63870
H9 H 0.18390 0.86900 0.62480
O21 O 0.89476(16) 0.46832(15) 0.49349(15)
H10 H 0.84970 0.49450 0.49590
H11 H 0.89600 0.41680 0.51410
O22 O 1.08086(16) 0.45407(15) 0.65753(16)
H12 H 1.14110 0.47580 0.68150
H13 H 1.06130 0.47450 0.61200
N1 N -0.01138(17) 0.85181(16) 0.23231(16)
N2 N 0.06710(16) 0.97187(16) 0.24450(16)
N3 N -0.08102(17) 1.04946(15) 0.19036(17)
N4 N -0.16052(17) 0.92992(14) 0.17475(17)
N5 N 0.14537(17) 1.09314(16) 0.33448(16)
N6 N 0.20345(16) 1.17407(15) 0.45619(16)
N7 N 0.04987(16) 1.24167(15) 0.40900(16)
N8 N -0.00265(16) 1.17171(15) 0.27978(16)
N9 N 0.22829(16) 1.20527(15) 0.61140(16)
N10 N 0.20489(16) 1.16630(15) 0.73243(16)
N11 N 0.06595(17) 1.25641(16) 0.69308(17)
N12 N 0.07496(16) 1.27757(16) 0.56103(16)
C1 C 0.71734(19) 0.68446(18) 0.68604(18)
C2 C 0.67960(19) 0.76416(18) 0.69558(18)
C3 C 0.60003(19) 0.79695(18) 0.62894(19)
H14 H 0.57930 0.85100 0.63450
C4 C 0.55081(19) 0.74802(18) 0.55268(18)
C5 C 0.5816(2) 0.66830(18) 0.54316(18)
H15 H 0.54620 0.63500 0.49400
C6 C 0.6667(2) 0.63763(18) 0.60790(19)
C7 C 0.0716(2) 0.89302(19) 0.28043(19)
C8 C -0.0769(2) 0.90373(18) 0.16091(19)
H16 H -0.09320 0.87780 0.10160
C9 C -0.0217(2) 0.98837(18) 0.16980(19)
H17 H -0.01330 1.00260 0.11440
C10 C -0.1597(2) 1.01404(19) 0.19380(18)
C11 C 0.14668(19) 1.02797(19) 0.27214(19)
H18 H 0.14900 1.05470 0.21900
H19 H 0.20380 0.99490 0.30010
C12 C -0.0681(2) 1.13992(18) 0.1941(2)
H20 H -0.12880 1.16670 0.18000
H21 H -0.04620 1.15640 0.14790
C13 C 0.2081(2) 1.09546(19) 0.4230(2)
C14 C 0.09861(19) 1.17353(18) 0.30509(19)
H22 H 0.11490 1.19900 0.25790
C15 C 0.13398(19) 1.22785(18) 0.39169(18)
H23 H 0.16160 1.28120 0.38320
C16 C -0.0302(2) 1.21301(18) 0.33909(19)
C17 C 0.26717(19) 1.20441(19) 0.54333(18)
H24 H 0.28660 1.26130 0.53640
H25 H 0.32310 1.16910 0.56430
C18 C 0.0457(2) 1.30772(19) 0.46948(18)
H26 H 0.08610 1.35410 0.46810
H27 H -0.01830 1.32900 0.44890
C19 C 0.2455(2) 1.14374(18) 0.67505(19)
C20 C 0.17381(19) 1.27438(18) 0.62418(19)
H28 H 0.20540 1.32880 0.62790
C21 C 0.1661(2) 1.25143(18) 0.71450(19)
H29 H 0.20200 1.29070 0.76280
C22 C 0.0163(2) 1.27769(18) 0.6051(2)
C23 C -0.23128(19) 0.87297(19) 0.17944(19)
H30 H -0.28970 0.90390 0.16500
H31 H -0.24260 0.82910 0.13450
C24 C -0.0234(2) 0.76292(19) 0.2444(2)
H32 H 0.03780 0.73580 0.26510
H33 H -0.06210 0.73870 0.18630
U1C U 1.417173(7) 0.934465(6) 1.286370(7)
U1C* U 0.417173(7) 0.934465(6) 0.286370(7)
S1C S 1.20949(5) 0.95606(5) 1.07914(5)
S2C S 0.94991(5) 0.70967(5) 0.96550(5)
O1C O 1.46185(14) 0.88021(13) 1.21593(14)
O2C O 1.38010(14) 0.99266(13) 1.35986(14)
O3C O 1.29767(13) 0.83976(12) 1.25083(13)
O4C O 1.22437(14) 0.68916(13) 1.27195(13)
H1C H 1.27540 0.72140 1.31300
O5C O 1.28174(14) 0.98943(13) 1.16346(13)
O6C O 1.13085(15) 1.01314(14) 1.04197(15)
O7C O 1.25145(17) 0.93050(14) 1.01649(16)
O8C O 0.98514(14) 0.67223(13) 0.90034(14)
O8* O 1.48514(14) 0.82777(13) 1.40034(14)
O9C O 0.91052(14) 0.64636(14) 1.00528(14)
O10C O 0.88833(14) 0.78087(13) 0.92411(14)
O11C O 1.45342(15) 1.06621(12) 1.22649(15)
H2C H 1.40480 1.09180 1.17530
H3C H 1.49760 1.06260 1.19950
O12C O 1.57851(14) 0.97795(14) 1.37451(14)
H4C H 1.60460 0.98330 1.42930
H5C H 1.63680 0.96550 1.36420
O13B O -0.13850(14) 1.13694(13) 0.65688(14)
O14B O 0.22046(15) 0.94818(13) 0.79012(15)
O15B O -0.26034(14) 0.96291(14) 0.53591(14)
O16B O 0.11129(14) 0.77597(13) 0.66845(14)
O17B O -0.29041(15) 0.92158(13) 0.31960(15)
O18B O 0.06797(14) 0.70317(15) 0.42842(15)
N1B N 0.01138(17) 1.14819(16) 0.76769(16)
N2B N -0.06710(16) 1.02813(16) 0.75550(16)
N3B N 0.08102(17) 0.95054(15) 0.80964(17)
N4B N 0.16052(17) 1.07008(14) 0.82525(17)
N5B N -0.14537(17) 0.90686(16) 0.66552(16)
N6B N -0.20345(16) 0.82593(15) 0.54381(16)
N7B N -0.04987(16) 0.75833(15) 0.59100(16)
N8B N 0.00265(16) 0.82829(15) 0.72022(16)
N9B N -0.22829(16) 0.79473(15) 0.38860(16)
N10B N -0.20489(16) 0.83370(15) 0.26757(16)
N11B N -0.06595(17) 0.74359(16) 0.30692(17)
N12B N -0.07496(16) 0.72243(16) 0.43897(16)
C1C C 1.21734(19) 0.81554(18) 1.18604(18)
C2C C 1.17960(19) 0.73584(18) 1.19558(18)
C3C C 1.10003(19) 0.70305(18) 1.12894(19)
H14C H 1.07930 0.64900 1.13450
C4C C 1.05081(19) 0.75198(18) 1.05268(18)
C5C C 1.0816(2) 0.83170(18) 1.04316(18)
H15C H 1.04620 0.86500 0.99400
C6C C 1.1667(2) 0.86237(18) 1.10790(19)
C7B C -0.0716(2) 1.10698(19) 0.71957(19)
C8B C 0.0769(2) 1.09627(18) 0.83909(19)
H16B H 0.09320 1.12220 0.89840
C9B C 0.0217(2) 1.01163(18) 0.83020(19)
H17B H 0.01330 0.99740 0.88560
C10B C 0.1597(2) 0.98596(19) 0.80620(18)
C11B C -0.14668(19) 0.97203(19) 0.72786(19)
H18B H -0.14900 0.94530 0.78100
H19B H -0.20380 1.00510 0.69990
C12B C 0.0681(2) 0.86008(18) 0.8059(2)
H20B H 0.12880 0.83330 0.82000
H21B H 0.04620 0.84360 0.85210
C13B C -0.2081(2) 0.90454(19) 0.5770(2)
C14B C -0.09861(19) 0.82647(18) 0.69491(19)
H22B H -0.11490 0.80100 0.74210
C15B C -0.13398(19) 0.77215(18) 0.60831(18)
H23B H -0.16160 0.71880 0.61680
C16B C 0.0302(2) 0.78699(18) 0.66091(19)
C17B C -0.26717(19) 0.79559(19) 0.45667(18)
H24B H -0.28660 0.73870 0.46360
H25B H -0.32310 0.83090 0.43570
C18B C -0.0457(2) 0.69228(19) 0.53052(18)
H26B H -0.08610 0.64590 0.53190
H27B H 0.01830 0.67100 0.55110
C19B C -0.2455(2) 0.85626(18) 0.32495(19)
C20B C -0.17381(19) 0.72562(18) 0.37582(19)
H28B H -0.20540 0.67120 0.37210
C21B C -0.1661(2) 0.74857(18) 0.28550(19)
H29B H -0.20200 0.70930 0.23720
C22B C -0.0163(2) 0.72231(18) 0.3949(2)
C23B C 0.23128(19) 1.12703(19) 0.82056(19)
H30B H 0.28970 1.09610 0.83500
H31B H 0.24260 1.17090 0.86550
C24B C 0.0234(2) 1.23708(19) 0.7556(2)
H32B H -0.03780 1.26420 0.73490
H33B H 0.06210 1.26130 0.81370
#END
