
#######################################################################
#
#                 Cambridge Crystallographic Data Centre
#                                CCDC
#
#######################################################################
#
# If this CIF has been generated from an entry in the Cambridge
# Structural Database, then it will include bibliographic, chemical,
# crystal, experimental, refinement or atomic coordinate data resulting
# from the CCDC's data processing and validation procedures.
#
#######################################################################

data_CSD_CIF_OVOKES
_audit_creation_date 2021-06-11
_audit_creation_method CSD-ConQuest-V1
_database_code_CSD OVOKES
_database_code_depnum_ccdc_archive 'CCDC 2032173'
_chemical_formula_sum 'C30 H22 Bi2 N12 O18'
_chemical_formula_moiety
;
(C24 H8 Bi2 N8 O16 2-)n,2(C3 H5 N2 1+),2(H2 O1)
;
_journal_coden_Cambridge 211
_journal_year 2021
_journal_page_first 1
_journal_name_full 'J.Coord.Chem. '
loop_
_publ_author_name
"M.A.A.Al-Nubi"
"A.M.Hamisu"
"A.Ariffin"
"Jinfeng Zhang"
"G.K.H.Shimizu"
"Hongil Jo"
"Kang Min Ok"
"A.C.Wibowo"
_chemical_name_systematic
;
catena-[bis(1H-imidazol-3-ium) 
tetrakis(\m-pyrazine-2,3-dicarboxylato)-di-bismuth dihydrate]
;
_cell_volume   3716.478
_exptl_crystal_colour 'colorless'
_exptl_crystal_density_diffrn 2.246
_exptl_crystal_description 'rod'
_diffrn_ambient_temperature 100
#These two values have been output from a single CSD field.
_refine_ls_R_factor_gt 0.0229
_refine_ls_wR_factor_gt 0.0229
_symmetry_cell_setting monoclinic
_symmetry_space_group_name_H-M 'P 21/c'
_symmetry_Int_Tables_number 14
loop_
_symmetry_equiv_pos_site_id
_symmetry_equiv_pos_as_xyz
1 x,y,z
2 -x,1/2+y,1/2-z
3 -x,-y,-z
4 x,-1/2-y,-1/2+z
_cell_length_a 14.3725(7)
_cell_length_b 22.4499(10)
_cell_length_c 11.5204(6)
_cell_angle_alpha 90
_cell_angle_beta 91.1183(16)
_cell_angle_gamma 90
_cell_formula_units_Z 4
loop_
_atom_type_symbol
_atom_type_radius_bond
C 0.68
H 0.23
Bi 1.48
N 0.68
O 0.68
loop_
_atom_site_label
_atom_site_type_symbol
_atom_site_fract_x
_atom_site_fract_y
_atom_site_fract_z
Bi1 Bi 0.14503(2) 0.26523(2) 0.76365(2)
Bi2 Bi 0.64151(2) 0.24325(2) 0.50864(2)
C1 C 0.1427(3) 0.41511(16) 0.4288(3)
C2 C 0.1499(3) 0.42578(16) 0.5479(3)
C3 C 0.1369(3) 0.52507(18) 0.5167(4)
H1 H 0.13400 0.56485 0.54451
C4 C 0.1308(4) 0.51471(18) 0.3975(4)
H2 H 0.12465 0.54780 0.34659
C5 C 0.1495(3) 0.35313(16) 0.3755(3)
C6 C 0.1588(3) 0.37554(16) 0.6339(3)
C7 C 0.3270(2) 0.23397(15) 0.5995(3)
C8 C 0.4177(2) 0.22527(15) 0.5622(3)
C9 C 0.4666(2) 0.30432(15) 0.6760(3)
H3 H 0.51381 0.33150 0.70007
C10 C 0.3777(2) 0.30864(16) 0.7216(3)
H4 H 0.36590 0.33673 0.78124
C11 C 0.2403(2) 0.20538(14) 0.5463(3)
C12 C 0.4488(2) 0.17322(15) 0.4871(3)
C13 C 0.6411(3) 0.07735(16) 0.7069(3)
C14 C 0.6346(3) 0.08092(16) 0.8273(3)
C15 C 0.6144(3) -0.01935(17) 0.8360(3)
H5 H 0.60596 -0.05489 0.87927
C16 C 0.6191(3) -0.02293(17) 0.7150(3)
H6 H 0.61209 -0.06057 0.67816
C17 C 0.6550(3) 0.13135(16) 0.6309(3)
C18 C 0.6442(3) 0.13931(16) 0.8929(3)
C19 C 0.8274(2) 0.27379(15) 0.6754(3)
C20 C 0.9190(2) 0.28441(15) 0.7123(3)
C21 C 0.9686(3) 0.20995(16) 0.5901(3)
H7 H 1.01665 0.18466 0.56348
C22 C 0.8788(2) 0.20447(16) 0.5445(3)
H8 H 0.86714 0.17818 0.48122
C23 C 0.7402(2) 0.29657(15) 0.7328(3)
C24 C 0.9482(2) 0.33485(15) 0.7932(3)
N1 N 0.1334(3) 0.46004(15) 0.3523(3)
N2 N 0.1466(2) 0.48067(14) 0.5926(3)
N3 N 0.3095(2) 0.27383(13) 0.6824(3)
N4 N 0.4853(2) 0.26200(13) 0.5987(2)
N5 N 0.6332(2) 0.02523(14) 0.6503(3)
N6 N 0.6215(2) 0.03250(14) 0.8927(3)
N7 N 0.8087(2) 0.23583(13) 0.5886(3)
N8 N 0.9870(2) 0.25055(13) 0.6710(3)
O1 O 0.07493(18) 0.32989(12) 0.3369(2)
O2 O 0.22784(19) 0.32962(12) 0.3693(2)
O3 O 0.12804(18) 0.32520(11) 0.5998(2)
O4 O 0.19346(19) 0.38485(12) 0.7318(2)
O5 O 0.17147(17) 0.19934(11) 0.6126(2)
O6 O 0.24145(18) 0.19249(12) 0.4416(2)
O7 O 0.52040(18) 0.18407(11) 0.4260(2)
O8 O 0.40667(19) 0.12596(11) 0.4930(2)
O9 O 0.62340(19) 0.18048(11) 0.6703(2)
O10 O 0.69239(19) 0.12563(11) 0.5359(2)
O11 O 0.57033(18) 0.16101(12) 0.9342(2)
O12 O 0.72282(19) 0.16203(12) 0.9059(2)
O13 O 0.67120(18) 0.30702(11) 0.6650(2)
O14 O 0.74086(17) 0.29951(11) 0.8393(2)
O15 O 0.89617(18) 0.37862(11) 0.8000(2)
O16 O 1.02536(18) 0.32778(12) 0.8458(2)
C25 C 0.3764(3) 0.47266(18) 0.1650(4)
H9 H 0.38123 0.43519 0.12723
C26 C 0.3609(3) 0.56908(18) 0.1956(3)
H10 H 0.35283 0.61050 0.18193
C27 C 0.3695(3) 0.54200(18) 0.3001(3)
H11 H 0.36914 0.56081 0.37396
N9 N 0.3659(2) 0.52505(14) 0.1132(3)
H12 H 0.36270 0.53074 0.03761
N10 N 0.3791(2) 0.48179(14) 0.2790(3)
H13 H 0.38583 0.45399 0.33234
C28 C 0.8771(3) 0.46084(18) 1.0873(3)
H14 H 0.88393 0.42516 1.13095
C29 C 0.8690(3) 0.52433(18) 0.9413(4)
H15 H 0.86973 0.54007 0.86476
C30 C 0.8540(3) 0.55535(18) 1.0402(4)
H16 H 0.84185 0.59680 1.04666
N11 N 0.8831(2) 0.46586(14) 0.9725(3)
H17 H 0.89417 0.43643 0.92423
N12 N 0.8600(3) 0.51457(15) 1.1297(3)
H18 H 0.85353 0.52295 1.20368
O17 O 0.3920(2) 0.38868(12) 0.4303(2)
H19 H 0.4483(18) 0.3687(18) 0.423(4)
H20 H 0.345(2) 0.3621(17) 0.412(4)
O18 O 0.8864(2) 0.13356(13) 0.7849(3)
H21 H 0.9425(18) 0.146(2) 0.818(4)
H22 H 0.839(2) 0.148(2) 0.831(4)
Bi1* Bi 1.14503(2) 0.26523(2) 0.76365(2)
Bi1C Bi 0.14503(2) 0.23477(2) 0.26365(2)
Bi2C Bi 0.64151(2) 0.25675(2) 1.00864(2)
N8* N -0.0130(2) 0.25055(13) 0.6710(3)
O1C O 0.07493(18) 0.17011(12) 0.8369(2)
O2C O 0.22784(19) 0.17038(12) 0.8693(2)
O6C O 0.24145(18) 0.30751(12) 0.9416(2)
O11C O 0.57033(18) 0.33899(12) 0.4342(2)
O12C O 0.72282(19) 0.33797(12) 0.4059(2)
O14C O 0.74086(17) 0.20049(11) 0.3393(2)
O16* O 0.02536(18) 0.32778(12) 0.8458(2)
#END
