
#######################################################################
#
#                 Cambridge Crystallographic Data Centre
#                                CCDC
#
#######################################################################
#
# If this CIF has been generated from an entry in the Cambridge
# Structural Database, then it will include bibliographic, chemical,
# crystal, experimental, refinement or atomic coordinate data resulting
# from the CCDC's data processing and validation procedures.
#
#######################################################################

data_CSD_CIF_OVUCOY
_audit_creation_date 2011-09-23
_audit_creation_method CSD-ConQuest-V1
_database_code_CSD OVUCOY
_database_code_depnum_ccdc_archive 'CCDC 809134'
_chemical_formula_sum 'C16 H25 F1 N1 O19.5 P4 U3'
_chemical_formula_moiety
;
(C4 H12 N1 1+)n,n(C12 H12 F1 O19 P4 U3 1-),0.5n(H2 O1)
;
_journal_coden_Cambridge 1147
_journal_volume 11
_journal_year 2011
_journal_page_first 1966
_journal_name_full 'Cryst.Growth Des. '
loop_
_publ_author_name
"P.O.Adelani"
"A.G.Oliver"
"T.E.Albrecht-Schmitt"
_chemical_name_systematic
;
catena-[Tetramethylammonium bis(\m~5~-hydrogen 
benzene-1,4-diylbis(phosphonato))-(\m~2~-fluoro)-aqua-hexa-oxo-tri-uranium(vi)
 hemihydrate]
;
_cell_volume   3308.804
_exptl_crystal_colour 'yellow'
_exptl_crystal_density_diffrn 2.801
_exptl_crystal_description 'rhombus plate'
_diffrn_ambient_temperature 100
#These two values have been output from a single CSD field.
_refine_ls_R_factor_gt 0.026
_refine_ls_wR_factor_gt 0.026
_symmetry_cell_setting monoclinic
_symmetry_space_group_name_H-M 'P 21/n'
_symmetry_Int_Tables_number 14
loop_
_symmetry_equiv_pos_site_id
_symmetry_equiv_pos_as_xyz
1 x,y,z
2 1/2-x,1/2+y,1/2-z
3 -x,-y,-z
4 -1/2+x,-1/2-y,-1/2+z
_cell_length_a 11.2370(5)
_cell_length_b 20.8524(9)
_cell_length_c 14.6189(7)
_cell_angle_alpha 90
_cell_angle_beta 104.997(1)
_cell_angle_gamma 90
_cell_formula_units_Z 4
loop_
_atom_type_symbol
_atom_type_radius_bond
C 0.68
H 0.23
F 0.64
N 0.68
O 0.68
P 1.05
U 1.47
loop_
_atom_site_label
_atom_site_type_symbol
_atom_site_fract_x
_atom_site_fract_y
_atom_site_fract_z
U1 U 0.776420(18) 0.224929(9) 0.560399(14)
U2 U 0.923260(18) 0.418850(9) 0.537370(14)
U3 U 0.373190(17) 0.485730(9) 0.873370(14)
P1 P 0.20307(12) 0.44779(7) 0.6291(1)
P2 P 0.60175(12) 0.11600(7) 0.38697(10)
P3 P 0.61692(12) 0.36436(7) 0.42618(10)
P4 P 0.12499(12) -0.05358(7) 0.37525(10)
F1 F 0.8643(3) 0.32712(14) 0.5954(2)
O1 O 0.6832(3) 0.23640(18) 0.6399(3)
O2 O 0.8693(3) 0.21384(18) 0.4811(3)
O3 O 0.8840(3) 0.46174(18) 0.6294(3)
O4 O 0.9665(3) 0.37548(18) 0.4467(3)
O5 O 0.3040(3) 0.56014(18) 0.8885(3)
O6 O 0.4453(3) 0.41226(17) 0.8580(3)
O7 O 0.9588(4) 0.23168(18) 0.7000(3)
O8 O 0.1077(3) 0.48825(17) 0.5575(3)
O9 O 0.1262(3) 0.38971(17) 0.6448(3)
O10 O 0.2638(3) 0.48397(18) 0.7178(3)
O11 O 0.7197(3) 0.41252(17) 0.4543(3)
O12 O 0.6546(3) 0.29614(17) 0.4509(3)
O13 O 0.5593(3) 0.36619(17) 0.3157(2)
O14 O 0.7045(3) 0.06901(18) 0.3907(3)
O15 O 0.6190(3) 0.16091(17) 0.4701(3)
O16 O 0.5825(3) 0.15806(17) 0.2944(3)
O17 O 0.0135(3) -0.03885(18) 0.2908(3)
O18 O 0.0770(3) -0.03075(17) 0.4604(3)
O19 O 0.1650(3) -0.12251(17) 0.3786(3)
O20 O 0.8605(10) -0.1848(5) 0.4860(8)
N1 N 0.3957(5) 0.2207(3) 0.7220(4)
C1 C 0.3189(5) 0.4235(3) 0.5720(4)
C2 C 0.4419(5) 0.4361(3) 0.6135(4)
H1 H 0.46530 0.45720 0.67310
C3 C 0.5308(5) 0.4181(3) 0.5686(4)
H2 H 0.61510 0.42630 0.59830
C4 C 0.4987(5) 0.3882(3) 0.4807(4)
C5 C 0.3735(5) 0.3763(3) 0.4388(4)
H3 H 0.34940 0.35600 0.37860
C6 C 0.2853(5) 0.3938(3) 0.4839(4)
H4 H 0.20090 0.38550 0.45470
C7 C 0.4645(5) 0.0699(3) 0.3772(4)
C8 C 0.3530(6) 0.0985(3) 0.3782(6)
H5 H 0.34830 0.14390 0.38140
C9 C 0.2486(6) 0.0620(3) 0.3746(5)
H6 H 0.17290 0.08240 0.37430
C10 C 0.2551(5) -0.0046(2) 0.3714(4)
C11 C 0.3657(5) -0.0332(3) 0.3712(5)
H7 H 0.37090 -0.07860 0.36920
C12 C 0.4697(5) 0.0037(3) 0.3741(5)
H8 H 0.54510 -0.01690 0.37390
C13 C 0.3659(11) 0.2587(5) 0.6381(8)
H9 H 0.30310 0.23670 0.58910
H10 H 0.44010 0.26510 0.61570
H11 H 0.33410 0.30030 0.65180
C14 C 0.4486(6) 0.1587(3) 0.7071(6)
H12 H 0.38870 0.13440 0.65890
H13 H 0.46930 0.13450 0.76660
H14 H 0.52340 0.16560 0.68580
C15 C 0.4913(5) 0.2558(3) 0.7946(4)
H15 H 0.56430 0.26260 0.77080
H16 H 0.51410 0.23060 0.85310
H17 H 0.45840 0.29740 0.80760
C16 C 0.2854(5) 0.2099(3) 0.7585(4)
H18 H 0.22200 0.18740 0.71050
H19 H 0.25300 0.25130 0.77290
H20 H 0.30840 0.18390 0.81620
U1B U 0.223580(18) -0.224929(9) 0.439601(14)
U2* U -0.076740(18) 0.418850(9) 0.537370(14)
U2B U 0.076740(18) 0.581150(9) 0.462630(14)
U3C U 0.873190(17) 0.014270(9) 0.373370(14)
U3C* U -0.126810(17) 0.014270(9) 0.373370(14)
U3A U 0.126810(17) -0.014270(9) 0.626630(14)
O8* O 1.1077(3) 0.48825(17) 0.5575(3)
O8B O 0.8923(3) 0.51175(17) 0.4425(3)
O9* O 1.1262(3) 0.38971(17) 0.6448(3)
O14C O 0.2045(3) 0.43099(18) 0.8907(3)
O17C O 0.5135(3) 0.53885(18) 0.7908(3)
O18C O 0.5770(3) 0.53075(17) 0.9604(3)
O18A O 0.4230(3) 0.46925(17) 1.0396(3)
O19B O 0.8350(3) 0.12251(17) 0.6214(3)
#END
