
#######################################################################
#
#                 Cambridge Crystallographic Data Centre
#                                CCDC
#
#######################################################################
#
# If this CIF has been generated from an entry in the Cambridge
# Structural Database, then it will include bibliographic, chemical,
# crystal, experimental, refinement or atomic coordinate data resulting
# from the CCDC's data processing and validation procedures.
#
#######################################################################

data_CSD_CIF_OVUCUE
_audit_creation_date 2011-09-23
_audit_creation_method CSD-ConQuest-V1
_database_code_CSD OVUCUE
_database_code_depnum_ccdc_archive 'CCDC 809135'
_chemical_formula_sum 'C20 H35 N1 O15 P4 U1'
_chemical_formula_moiety
;
(C8 H20 N1 1+)n,n(C12 H15 O15 P4 U1 1-)
;
_journal_coden_Cambridge 1147
_journal_volume 11
_journal_year 2011
_journal_page_first 1966
_journal_name_full 'Cryst.Growth Des. '
loop_
_publ_author_name
"P.O.Adelani"
"A.G.Oliver"
"T.E.Albrecht-Schmitt"
_chemical_name_systematic
;
catena-[Tetraethylammonium (\m~2~-trihydrogen 
benzene-1,4-diylbis(phosphonato))-(\m~2~-dihydrogen 
benzene-1,4-diylbis(phosphonato))-aqua-dioxo-uranium(vi)]
;
_cell_volume   2965.959
_exptl_crystal_colour 'yellow'
_exptl_crystal_density_diffrn 1.98
_exptl_crystal_description 'tablet'
_diffrn_ambient_temperature 100
_refine_special_details
;
The tetraethylammonium cation is disordered by symmetry.

;
#These two values have been output from a single CSD field.
_refine_ls_R_factor_gt 0.0391
_refine_ls_wR_factor_gt 0.0391
_symmetry_cell_setting orthorhombic
_symmetry_space_group_name_H-M 'P n m a'
_symmetry_Int_Tables_number 62
loop_
_symmetry_equiv_pos_site_id
_symmetry_equiv_pos_as_xyz
1 x,y,z
2 1/2-x,-y,1/2+z
3 -x,1/2+y,-z
4 1/2+x,1/2-y,1/2-z
5 -x,-y,-z
6 -1/2+x,y,-1/2-z
7 x,-1/2-y,z
8 -1/2-x,-1/2+y,-1/2+z
_cell_length_a 16.651(4)
_cell_length_b 20.376(4)
_cell_length_c 8.7419(19)
_cell_angle_alpha 90
_cell_angle_beta 90
_cell_angle_gamma 90
_cell_formula_units_Z 4
loop_
_atom_type_symbol
_atom_type_radius_bond
C 0.68
H 0.23
N 0.68
O 0.68
P 1.05
U 1.47
loop_
_atom_site_label
_atom_site_type_symbol
_atom_site_fract_x
_atom_site_fract_y
_atom_site_fract_z
U1 U 0.003873(13) 0.25000 0.74308(3)
P1 P -0.16276(8) 0.37382(6) 0.69657(19)
P2 P -0.06517(7) 0.57509(6) 0.16774(17)
O1 O -0.0122(3) 0.25000 0.9441(6)
O2 O 0.0218(3) 0.25000 0.5439(6)
O3 O -0.1059(2) 0.31698(18) 0.7000(5)
O4 O -0.1587(2) 0.4127(2) 0.8522(5)
O5 O -0.24970(18) 0.35665(18) 0.6687(5)
O6 O -0.1380(2) 0.57554(19) 0.0548(5)
O7 O -0.0525(2) 0.64113(17) 0.2379(4)
O8 O 0.00780(19) 0.54890(19) 0.0783(5)
O9 O 0.1538(3) 0.25000 0.7753(6)
H1 H 0.16980 0.21150 0.79130
C1 C -0.1309(3) 0.4300(3) 0.5498(7)
C2 C -0.0634(3) 0.4182(3) 0.4585(7)
H2 H -0.03140 0.38030 0.47610
C3 C -0.0431(3) 0.4614(3) 0.3424(7)
H3 H 0.00240 0.45260 0.28010
C4 C -0.0887(3) 0.5179(2) 0.3159(7)
C5 C -0.1555(3) 0.5297(3) 0.4080(8)
H4 H -0.18700 0.56790 0.39130
C6 C -0.1767(3) 0.4867(3) 0.5231(8)
H5 H -0.22250 0.49550 0.58450
N1 N -0.2298(5) 0.75000 0.7250(8)
C7? C -0.2998(6) 0.75000 0.8240(13)
H6? H -0.28770 0.72740 0.92160
H7? H -0.31690 0.79550 0.84670
C8? C -0.3716(9) 0.7102(9) 0.7287(16)
H8? H -0.42040 0.70850 0.79110
H9? H -0.38300 0.73320 0.63270
H10? H -0.35350 0.66540 0.70620
C9? C -0.1937(8) 0.7033(7) 0.6297(16)
H11? H -0.23390 0.68590 0.55690
H12? H -0.15020 0.72430 0.57000
C10? C -0.1598(15) 0.648(1) 0.723(2)
H13? H -0.13500 0.61560 0.65510
H14? H -0.11910 0.66520 0.79370
H15? H -0.20300 0.62710 0.78170
C11 C -0.2541(8) 0.8117(7) 0.6143(16)
H16? H -0.29240 0.79530 0.53660
H17? H -0.20510 0.82570 0.55910
C12 C -0.2901(11) 0.8707(8) 0.6867(19)
H18? H -0.30090 0.90380 0.60810
H19? H -0.34040 0.85860 0.73750
H20? H -0.25260 0.88870 0.76230
C13 C -0.1668(7) 0.7846(7) 0.8382(13)
H21? H -0.14760 0.74880 0.91190
H22? H -0.19590 0.81850 0.89750
C14 C -0.0938(9) 0.8168(10) 0.7658(15)
H23? H -0.05970 0.83550 0.84600
H24? H -0.06330 0.78390 0.70830
H25? H -0.11130 0.85170 0.69630
U1B U -0.003873(13) 0.75000 0.25692(3)
U1B* U -0.003873(13) -0.25000 0.25692(3)
P1F P -0.16276(8) 0.12618(6) 0.69657(19)
P2F P -0.06517(7) -0.07509(6) 0.16774(17)
O3F O -0.1059(2) 0.18302(18) 0.7000(5)
O4F O -0.1587(2) 0.0873(2) 0.8522(5)
O5F O -0.24970(18) 0.14335(18) 0.6687(5)
O6F O -0.1380(2) -0.07554(19) 0.0548(5)
O7F O -0.0525(2) -0.14113(17) 0.2379(4)
O7B O 0.0525(2) 0.14113(17) 0.7621(4)
O7D O 0.0525(2) 0.35887(17) 0.7621(4)
O8F O 0.00780(19) -0.04890(19) 0.0783(5)
H1F H 0.16980 0.28850 0.79130
C1F C -0.1309(3) 0.0700(3) 0.5498(7)
C2F C -0.0634(3) 0.0818(3) 0.4585(7)
H2F H -0.03140 0.11970 0.47610
C3F C -0.0431(3) 0.0386(3) 0.3424(7)
H3F H 0.00240 0.04740 0.28010
C4F C -0.0887(3) -0.0179(2) 0.3159(7)
C5F C -0.1555(3) -0.0297(3) 0.4080(8)
H4F H -0.18700 -0.06790 0.39130
C6F C -0.1767(3) 0.0133(3) 0.5231(8)
H5F H -0.22250 0.00450 0.58450
C11F C -0.2541(8) 0.6883(7) 0.6143(16)
C12F C -0.2901(11) 0.6293(8) 0.6867(19)
C13F C -0.1668(7) 0.7154(7) 0.8382(13)
C14F C -0.0938(9) 0.6832(10) 0.7658(15)
#END
