
#######################################################################
#
#                 Cambridge Crystallographic Data Centre
#                                CCDC
#
#######################################################################
#
# If this CIF has been generated from an entry in the Cambridge
# Structural Database, then it will include bibliographic, chemical,
# crystal, experimental, refinement or atomic coordinate data resulting
# from the CCDC's data processing and validation procedures.
#
#######################################################################

data_CSD_CIF_OVUDAL
_audit_creation_date 2011-09-23
_audit_creation_method CSD-ConQuest-V1
_database_code_CSD OVUDAL
_database_code_depnum_ccdc_archive 'CCDC 809136'
_chemical_formula_sum 'C18 H28 F1 N1 O19 P4 U3'
_chemical_formula_moiety
;
(C6 H16 N1 1+)n,n(C12 H12 F1 O19 P4 U3 1-)
;
_journal_coden_Cambridge 1147
_journal_volume 11
_journal_year 2011
_journal_page_first 1966
_journal_name_full 'Cryst.Growth Des. '
loop_
_publ_author_name
"P.O.Adelani"
"A.G.Oliver"
"T.E.Albrecht-Schmitt"
_chemical_name_systematic
;
catena-[Diethyl(dimethyl)ammonium bis(\m~5~-hydrogen 
benzene-1,4-diylbis(phosphonato))-(\m~2~-fluoro)-aqua-hexa-oxo-tri-uranium(vi)
]
;
_cell_volume   1734.630
_exptl_crystal_colour 'yellow'
_exptl_crystal_density_diffrn 2.714
_exptl_crystal_description 'tablet'
_diffrn_ambient_temperature 100
_refine_special_details
;
The diethyl(dimethyl)ammonium cation is disordered.

;
#These two values have been output from a single CSD field.
_refine_ls_R_factor_gt 0.0185
_refine_ls_wR_factor_gt 0.0185
_symmetry_cell_setting monoclinic
_symmetry_space_group_name_H-M 'P 21/m'
_symmetry_Int_Tables_number 11
loop_
_symmetry_equiv_pos_site_id
_symmetry_equiv_pos_as_xyz
1 x,y,z
2 -x,1/2+y,-z
3 -x,-y,-z
4 x,-1/2-y,z
_cell_length_a 8.5409(6)
_cell_length_b 19.1605(13)
_cell_length_c 11.3037(8)
_cell_angle_alpha 90
_cell_angle_beta 110.327(1)
_cell_angle_gamma 90
_cell_formula_units_Z 2
loop_
_atom_type_symbol
_atom_type_radius_bond
C 0.68
H 0.23
F 0.64
N 0.68
O 0.68
P 1.05
U 1.47
loop_
_atom_site_label
_atom_site_type_symbol
_atom_site_fract_x
_atom_site_fract_y
_atom_site_fract_z
U1 U 0.07705(2) 0.75000 0.280245(17)
U2 U -0.227729(16) 0.507911(7) 0.016160(12)
P1 P -0.23403(11) 0.61555(5) 0.29046(9)
P2 P -0.19895(11) 0.43609(5) 0.77488(9)
F1 F -0.50000 0.50000 0.00000
O1 O 0.1977(4) 0.75000 0.4443(3)
O2 O -0.0419(5) 0.75000 0.1169(3)
O3 O -0.1938(3) 0.42652(14) 0.0964(2)
O4 O -0.2653(3) 0.58796(14) -0.0678(2)
O5 O 0.3525(5) 0.75000 0.2430(4)
H1 H 0.38940 0.79100 0.24770
O6 O -0.1154(3) 0.67596(13) 0.3243(2)
O7 O -0.2105(3) 0.56419(13) 0.1965(2)
O8 O -0.4184(3) 0.64463(13) 0.2369(3)
O9 O -0.1741(3) 0.36145(13) 0.7454(2)
O10 O -0.0592(3) 0.46688(13) 0.8910(2)
O11 O -0.3543(3) 0.44823(13) 0.8125(2)
N1 N -0.5902(7) 0.75000 -0.1522(5)
C1 C -0.2202(4) 0.56603(19) 0.4285(3)
C2 C -0.1931(5) 0.5987(2) 0.5442(4)
H2 H -0.17840 0.64790 0.55090
C3 C -0.1873(5) 0.5604(2) 0.6490(4)
H3 H -0.16840 0.58320 0.72740
C4 C -0.2092(5) 0.48784(19) 0.6402(4)
C5 C -0.2329(5) 0.4550(2) 0.5258(4)
H4 H -0.24520 0.40580 0.51960
C6 C -0.2389(6) 0.4938(2) 0.4200(4)
H5 H -0.25570 0.47090 0.34200
C7 C -0.4241(10) 0.75000 -0.0463(7)
H6? H -0.33390 0.75000 -0.07910
H7? H -0.41400 0.79090 0.00580
C8 C -0.6089(6) 0.8154(3) -0.2305(5)
H8? H -0.58860 0.85630 -0.17490
H9? H -0.72360 0.81780 -0.29220
H10? H -0.58630 0.78040 -0.21280
C9 C -0.47810 0.81230 -0.29980
H11? H -0.44450 0.85980 -0.31250
H12? H -0.52850 0.78940 -0.38170
H13? H -0.37990 0.78590 -0.24830
C10 C -0.7209(10) 0.75000 -0.0884(8)
H14? H -0.70530 0.70830 -0.03460
H15? H -0.83350 0.75000 -0.15280
C11? C -0.9026(10) 0.75000 -0.1795(10)
H16? H -0.97500 0.76490 -0.13070
H17? H -0.93430 0.70290 -0.21030
U1A U -0.07705(2) 0.25000 0.719755(17)
U1A* U -0.07705(2) 1.25000 0.719755(17)
U2C U -0.227729(16) 0.992089(7) 0.016160(12)
U2B U -0.772271(16) 0.492089(7) -0.016160(12)
U2* U -0.227729(16) 0.507911(7) 1.016160(12)
U2B* U 0.227729(16) 0.492089(7) 0.983840(12)
U2C* U -0.227729(16) 0.992089(7) 1.016160(12)
U2A U 0.227729(16) 1.007911(7) 0.983840(12)
P1C P -0.23403(11) 0.88445(5) 0.29046(9)
P2C P -0.19895(11) 1.06391(5) 0.77488(9)
F1A F -0.50000 1.00000 0.00000
O3C O -0.1938(3) 1.07348(14) 0.0964(2)
O4C O -0.2653(3) 0.91204(14) -0.0678(2)
H1C H 0.38940 0.70900 0.24770
O6C O -0.1154(3) 0.82404(13) 0.3243(2)
O7C O -0.2105(3) 0.93581(13) 0.1965(2)
O8C O -0.4184(3) 0.85537(13) 0.2369(3)
O9C O -0.1741(3) 1.13855(13) 0.7454(2)
O9A O 0.1741(3) 0.86145(13) 0.2546(2)
O9B O 0.1741(3) 0.63855(13) 0.2546(2)
O10C O -0.0592(3) 1.03312(13) 0.8910(2)
O10* O -0.0592(3) 0.46688(13) -0.1090(2)
O10B O 0.0592(3) 0.53312(13) 0.1090(2)
O10C* O -0.0592(3) 1.03312(13) -0.1090(2)
O10A O 0.0592(3) 0.96688(13) 0.1090(2)
O11C O -0.3543(3) 1.05177(13) 0.8125(2)
O11* O -0.3543(3) 0.44823(13) -0.1875(2)
O11C* O -0.3543(3) 1.05177(13) -0.1875(2)
C1C C -0.2202(4) 0.93397(19) 0.4285(3)
C2C C -0.1931(5) 0.9013(2) 0.5442(4)
H2C H -0.17840 0.85210 0.55090
C3C C -0.1873(5) 0.9396(2) 0.6490(4)
H3C H -0.16840 0.91680 0.72740
C4C C -0.2092(5) 1.01216(19) 0.6402(4)
C5C C -0.2329(5) 1.0450(2) 0.5258(4)
H4C H -0.24520 1.09420 0.51960
C6C C -0.2389(6) 1.0062(2) 0.4200(4)
H5C H -0.25570 1.02910 0.34200
C8C C -0.6089(6) 0.6846(3) -0.2305(5)
C9C C -0.47810 0.68770 -0.29980
#END
