
#######################################################################
#
#                 Cambridge Crystallographic Data Centre
#                                CCDC
#
#######################################################################
#
# If this CIF has been generated from an entry in the Cambridge
# Structural Database, then it will include bibliographic, chemical,
# crystal, experimental, refinement or atomic coordinate data resulting
# from the CCDC's data processing and validation procedures.
#
#######################################################################

data_CSD_CIF_OVUQUU
_audit_creation_date 2021-06-11
_audit_creation_method CSD-ConQuest-V1
_database_code_CSD OVUQUU
_database_code_depnum_ccdc_archive 'CCDC 2062085'
_chemical_formula_sum 'C40 H76 K2 Mo12 N16 O66 P8 Zn5'
_chemical_formula_moiety
;
(C30 H56 Mo12 N12 O64 P8 Zn5 4-)n,2(K1 1+),2(H2 O1),C10 H16 N4 2+
;
_journal_coden_Cambridge 222
_journal_volume 50
_journal_year 2021
_journal_page_first 9137
_journal_name_full 'Dalton Trans. '
loop_
_publ_author_name
"Jia-Nian Li"
"Ze-Yu Du"
"Ning-Fang Li"
"Ye-Min Han"
"Ting-Ting Zang"
"Mu-Xiu Yang"
"Xiao-Mei Liu"
"Ji-Lei Wang"
"Hua Mei"
"Yan Xu"
_chemical_name_systematic
;
catena-[di-potassium 1,1'-(butane-1,4-diyl)bis(1H-imidazol-3-ium) 
octakis(\m-phosphato)-(\m-1,1'-(butane-1,4-diyl)bis(1H-imidazole))-octakis(\m-
hydroxo)-decakis(\m-oxo)-bis(1-[4-(1H-imidazol-1-yl)butyl]-1H-imidazol-3-ium)-
dodecaoxo-diaqua-dodeca-molybdenum(v)-penta-zinc(ii) dihydrate]
;
_cell_volume   9415.646
_exptl_crystal_colour 'red'
_exptl_special_details
;
The H atoms on hydroxy groups have not been located and have been placed 
arbitrarily in the 2D diagram
;
_exptl_crystal_description 'diamond'
_diffrn_ambient_temperature 296
_refine_special_details
;
The structure is disordered. The authors' sum of formula is C40 H76.50 K2 
Mo12 N16 O66 P8 Zn4.75.
;
#These two values have been output from a single CSD field.
_refine_ls_R_factor_gt 0.0443
_refine_ls_wR_factor_gt 0.0443
_symmetry_cell_setting monoclinic
_symmetry_space_group_name_H-M 'C 2/c'
_symmetry_Int_Tables_number 15
loop_
_symmetry_equiv_pos_site_id
_symmetry_equiv_pos_as_xyz
1 x,y,z
2 -x,y,1/2-z
3 1/2+x,1/2+y,z
4 1/2-x,1/2+y,1/2-z
5 -x,-y,-z
6 x,-y,-1/2+z
7 -1/2-x,-1/2-y,-z
8 -1/2+x,-1/2-y,-1/2+z
_cell_length_a 30.91(4)
_cell_length_b 14.749(16)
_cell_length_c 25.10(3)
_cell_angle_alpha 90
_cell_angle_beta 124.63(3)
_cell_angle_gamma 90
_cell_formula_units_Z 4
loop_
_atom_type_symbol
_atom_type_radius_bond
C 0.68
H 0.23
K 2.03
Mo 1.54
N 0.68
O 0.68
P 1.05
Zn 1.22
loop_
_atom_site_label
_atom_site_type_symbol
_atom_site_fract_x
_atom_site_fract_y
_atom_site_fract_z
Mo1 Mo 0.17796(2) -0.96866(3) 0.48635(2)
Mo2 Mo 0.19091(2) -0.95651(3) 0.39281(2)
Mo3 Mo 0.13429(2) -0.61903(3) 0.48230(2)
Mo4 Mo 0.14562(2) -0.77500(3) 0.53624(2)
Mo5 Mo 0.14636(2) -0.60691(3) 0.35236(2)
Mo6 Mo 0.17285(2) -0.74804(3) 0.31497(2)
Zn1 Zn -0.04135(3) -1.02273(5) 0.40677(3)
Zn2 Zn 0.25000 -0.75000 0.50000
Zn3 Zn 0.00000 -0.92661(7) 0.25000
Zn4 Zn 0.00000 -0.36732(11) 0.25000
P1 P 0.07599(6) -0.96664(10) 0.49821(7)
P2 P 0.10068(6) -0.80058(10) 0.37541(7)
P3 P 0.03896(7) -0.53238(12) 0.34240(8)
P4 P 0.10484(6) -0.93083(10) 0.23475(7)
O1 O -0.00459(19) -0.6087(4) 0.3109(2)
O2 O 0.0117(2) -0.4410(4) 0.3213(3)
O3 O 0.1703(2) -0.5211(3) 0.3316(3)
O4 O 0.11068(15) -0.6973(2) 0.38999(18)
O5 O 0.19209(15) -0.7087(3) 0.51929(19)
O6 O 0.19789(16) -0.8838(3) 0.56349(19)
O7 O 0.13072(17) -0.8386(3) 0.24011(19)
O8 O 0.22238(15) -0.8869(3) 0.47431(19)
O9 O 0.20642(15) -0.6912(3) 0.40124(18)
O10 O 0.08413(16) -0.6999(3) 0.48085(19)
O11 O 0.14477(17) -0.9868(3) 0.29586(19)
O12 O 0.17054(16) -0.5539(3) 0.4434(2)
O13 O 0.10671(16) -0.6826(3) 0.27480(19)
O14 O 0.06978(16) -0.5429(3) 0.4156(2)
O15 O 0.02363(16) -0.9591(3) 0.43089(19)
O16 O 0.07381(17) -0.5434(3) 0.3166(2)
O17 O 0.20575(18) -0.7000(3) 0.2866(2)
O18 O 0.04402(15) -0.8189(3) 0.32248(19)
O19 O 0.16910(18) -0.7399(3) 0.6121(2)
O20 O 0.13736(16) -1.0145(3) 0.39853(19)
O21 O 0.22382(15) -0.8576(3) 0.36436(18)
O22 O 0.09471(17) -0.8713(3) 0.5276(2)
O23 O 0.13759(15) -0.8340(3) 0.35580(17)
O24 O 0.23638(17) -1.0385(3) 0.4137(2)
O25 O 0.11778(16) -1.0138(3) 0.49286(19)
O26 O 0.09782(17) -0.9810(3) 0.17784(19)
O27 O 0.15513(18) -0.5494(3) 0.5451(2)
O28 O 0.21981(17) -1.0524(3) 0.5313(2)
O29 O 0.12002(15) -0.8471(3) 0.44059(18)
O30 O 0.06706(17) -1.0221(3) 0.5428(2)
O31 O 0.05399(17) -0.9143(3) 0.2270(2)
O32 O 0.03317(17) -1.0214(3) 0.3251(2)
N1 N -0.0259(2) -1.1553(4) 0.4062(3)
N2 N -0.0234(3) -1.3041(4) 0.4129(4)
N3 N -0.1327(3) -1.6719(4) 0.3894(4)
N4 N -0.1189(3) -1.8105(4) 0.4189(4)
H1 H -0.10936 -1.86635 0.42320
N5 N 0.0654(4) -0.2980(5) 0.2912(5)
N6 N 0.1492(4) -0.2642(6) 0.3562(6)
C1 C 0.0158(5) -1.2785(6) 0.4059(6)
H2 H 0.03934 -1.31629 0.40474
C2 C 0.0131(4) -1.1866(6) 0.4011(6)
H3 H 0.03464 -1.15035 0.39510
C3 C -0.0404(3) -1.2276(5) 0.4222(5)
H4 H -0.06079 -1.22544 0.43857
C4 C -0.0304(4) -1.3984(5) 0.4269(5)
H5 H -0.00124 -1.43433 0.43422
H6 H -0.02834 -1.39831 0.46697
C5 C -0.0788(4) -1.4431(5) 0.3778(5)
H7 H -0.07990 -1.44973 0.33862
H8 H -0.10854 -1.40625 0.36775
C6 C -0.0827(4) -1.5363(5) 0.4012(5)
H9 H -0.05535 -1.57471 0.40560
H10 H -0.07562 -1.52956 0.44393
C7 C -0.1346(4) -1.5835(5) 0.3583(5)
H11 H -0.16270 -1.54585 0.35259
H12 H -0.14145 -1.59464 0.31606
C8 C -0.1404(6) -1.7689(8) 0.4489(6)
H13 H -0.14721 -1.79570 0.47690
C9 C -0.1493(5) -1.6815(7) 0.4287(6)
H14 H -0.16394 -1.63663 0.43980
C10 C -0.1157(3) -1.7511(5) 0.3838(4)
H15 H -0.10325 -1.76214 0.35827
C11 C 0.2176(6) -0.2570(11) 0.4726(6)
H16 H 0.20574 -0.30935 0.48435
H17 H 0.19907 -0.20420 0.47304
C12 C 0.2046(6) -0.270(1) 0.4058(7)
H18 H 0.22284 -0.22426 0.39776
H19 H 0.21738 -0.32889 0.40333
C13 C 0.1251(5) -0.1907(9) 0.3166(7)
H20 H 0.14082 -0.13719 0.31629
C14 C 0.0732(5) -0.2125(6) 0.2778(6)
H21 H 0.04682 -0.17452 0.24671
C15 C 0.1134(5) -0.3303(9) 0.3420(7)
H22 H 0.12002 -0.38614 0.36246
K1 K 0.03107(7) -0.75812(12) 0.20250(9)
O33 O 0.01244(19) -0.7755(3) 0.1000(2)
C16? C -0.2403(4) -1.3908(7) 0.2702(6)
H23? H -0.22530 -1.34751 0.30293
C17? C -0.2719(4) -1.4602(7) 0.2634(6)
H24? H -0.28346 -1.47187 0.28979
N7? N -0.2346(4) -1.3956(7) 0.2223(5)
C18? C -0.2613(5) -1.4681(8) 0.1838(6)
H25? H -0.26371 -1.48563 0.14663
N8? N -0.2835(5) -1.5095(9) 0.2111(6)
C19? C -0.2018(11) -1.3236(17) 0.2192(16)
H26? H -0.17320 -1.35629 0.22251
H27? H -0.22345 -1.30098 0.17517
C20? C -0.1908(11) -1.1082(15) 0.2859(11)
H28? H -0.15844 -1.09331 0.28998
H29? H -0.18069 -1.14152 0.32465
C21? C -0.2198(8) -1.1738(13) 0.2306(10)
H30? H -0.25202 -1.19532 0.22447
H31? H -0.22740 -1.14866 0.19044
C22? C -0.1782(9) -1.2457(15) 0.2577(12)
H32? H -0.14901 -1.22599 0.25608
H33? H -0.16506 -1.25840 0.30240
N5F N 0.4346(4) -0.2020(5) 0.7088(5)
N6F N 0.3508(4) -0.2358(6) 0.6438(6)
C11F C 0.2824(6) -0.2430(11) 0.5274(6)
H16F H 0.29426 -0.19065 0.51565
H17F H 0.30093 -0.29580 0.52696
C12F C 0.2954(6) -0.230(1) 0.5942(7)
H18F H 0.27716 -0.27574 0.60224
H19F H 0.28262 -0.17111 0.59667
C13F C 0.3749(5) -0.3093(9) 0.6834(7)
H20F H 0.35918 -0.36281 0.68371
C14F C 0.4268(5) -0.2875(6) 0.7222(6)
H21F H 0.45318 -0.32548 0.75329
C15F C 0.3866(5) -0.1697(9) 0.6580(7)
H22F H 0.37998 -0.11386 0.63754
Mo1A Mo -0.17796(2) -0.96866(3) 0.01365(2)
Mo2A Mo -0.19091(2) -0.95651(3) 0.10719(2)
Mo3A Mo -0.13429(2) -0.61903(3) 0.01770(2)
Mo4A Mo -0.14562(2) -0.77500(3) -0.03624(2)
Mo5A Mo -0.14636(2) -0.60691(3) 0.14764(2)
Mo6A Mo -0.17285(2) -0.74804(3) 0.18503(2)
Zn1A Zn 0.04135(3) -1.02273(5) 0.09323(3)
P1A P -0.07599(6) -0.96664(10) 0.00179(7)
P2A P -0.10068(6) -0.80058(10) 0.12459(7)
P3A P -0.03896(7) -0.53238(12) 0.15760(8)
P4A P -0.10484(6) -0.93083(10) 0.26525(7)
O1A O 0.00459(19) -0.6087(4) 0.1891(2)
O2A O -0.0117(2) -0.4410(4) 0.1787(3)
O3A O -0.1703(2) -0.5211(3) 0.1684(3)
O4A O -0.11068(15) -0.6973(2) 0.11001(18)
O5A O -0.19209(15) -0.7087(3) -0.01929(19)
O6A O -0.19789(16) -0.8838(3) -0.06349(19)
O7A O -0.13072(17) -0.8386(3) 0.25989(19)
O8A O -0.22238(15) -0.8869(3) 0.02569(19)
O9A O -0.20642(15) -0.6912(3) 0.09876(18)
O10A O -0.08413(16) -0.6999(3) 0.01915(19)
O11A O -0.14477(17) -0.9868(3) 0.20414(19)
O12A O -0.17054(16) -0.5539(3) 0.0566(2)
O13A O -0.10671(16) -0.6826(3) 0.22520(19)
O14A O -0.06978(16) -0.5429(3) 0.0844(2)
O15A O -0.02363(16) -0.9591(3) 0.06911(19)
O16A O -0.07381(17) -0.5434(3) 0.1834(2)
O17A O -0.20575(18) -0.7000(3) 0.2134(2)
O18A O -0.04402(15) -0.8189(3) 0.17752(19)
O19A O -0.16910(18) -0.7399(3) -0.1121(2)
O20A O -0.13736(16) -1.0145(3) 0.10147(19)
O21A O -0.22382(15) -0.8576(3) 0.13564(18)
O22A O -0.09471(17) -0.8713(3) -0.0276(2)
O23A O -0.13759(15) -0.8340(3) 0.14420(17)
O24A O -0.23638(17) -1.0385(3) 0.0863(2)
O25A O -0.11778(16) -1.0138(3) 0.00714(19)
O26A O -0.09782(17) -0.9810(3) 0.32216(19)
O27A O -0.15513(18) -0.5494(3) -0.0451(2)
O28A O -0.21981(17) -1.0524(3) -0.0313(2)
O29A O -0.12002(15) -0.8471(3) 0.05941(18)
O30A O -0.06706(17) -1.0221(3) -0.0428(2)
O31A O -0.05399(17) -0.9143(3) 0.2730(2)
O32A O -0.03317(17) -1.0214(3) 0.1749(2)
N1A N 0.0259(2) -1.1553(4) 0.0938(3)
N2A N 0.0234(3) -1.3041(4) 0.0871(4)
N3A N 0.1327(3) -1.6719(4) 0.1106(4)
N4A N 0.1189(3) -1.8105(4) 0.0811(4)
H1A H 0.10936 -1.86635 0.07680
C1A C -0.0158(5) -1.2785(6) 0.0941(6)
H2A H -0.03934 -1.31629 0.09526
C2A C -0.0131(4) -1.1866(6) 0.0989(6)
H3A H -0.03464 -1.15035 0.10490
C3A C 0.0404(3) -1.2276(5) 0.0778(5)
H4A H 0.06079 -1.22544 0.06143
C4A C 0.0304(4) -1.3984(5) 0.0731(5)
H5A H 0.00124 -1.43433 0.06578
H6A H 0.02834 -1.39831 0.03303
C5A C 0.0788(4) -1.4431(5) 0.1222(5)
H7A H 0.07990 -1.44973 0.16138
H8A H 0.10854 -1.40625 0.13225
C6A C 0.0827(4) -1.5363(5) 0.0988(5)
H9A H 0.05535 -1.57471 0.09440
H10A H 0.07562 -1.52956 0.05607
C7A C 0.1346(4) -1.5835(5) 0.1417(5)
H11A H 0.16270 -1.54585 0.14741
H12A H 0.14145 -1.59464 0.18394
C8A C 0.1404(6) -1.7689(8) 0.0511(6)
H13A H 0.14721 -1.79570 0.02310
C9A C 0.1493(5) -1.6815(7) 0.0713(6)
H14A H 0.16394 -1.63663 0.06020
C10A C 0.1157(3) -1.7511(5) 0.1162(4)
H15A H 0.10325 -1.76214 0.14173
Zn1D Zn 0.04135(3) -0.97727(5) 0.59323(3)
Zn1E Zn -0.04135(3) -0.97727(5) -0.09323(3)
Zn2A Zn -0.25000 -0.75000 0.00000
Zn4F Zn 0.50000 -0.13268(11) 0.75000
O5F O 0.30791(15) -0.7913(3) 0.48071(19)
O8F O 0.27762(15) -0.6131(3) 0.52569(19)
O9F O 0.29358(15) -0.8088(3) 0.59876(18)
O30D O -0.06706(17) -0.9779(3) 0.4572(2)
O30E O 0.06706(17) -0.9779(3) 0.0428(2)
N5A N -0.0654(4) -0.2980(5) 0.2088(5)
#END
