
#######################################################################
#
#                 Cambridge Crystallographic Data Centre
#                                CCDC
#
#######################################################################
#
# If this CIF has been generated from an entry in the Cambridge
# Structural Database, then it will include bibliographic, chemical,
# crystal, experimental, refinement or atomic coordinate data resulting
# from the CCDC's data processing and validation procedures.
#
#######################################################################

data_CSD_CIF_OWAXOB
_audit_creation_date 2016-09-20
_audit_creation_method CSD-ConQuest-V1
_database_code_CSD OWAXOB
_database_code_depnum_ccdc_archive 'CCDC 1444472'
_chemical_formula_sum 'C16 H18 N4 O14 Zn1'
_chemical_formula_moiety
;
(C16 H10 N2 O14 Zn1 2-)n,2(H4 N1 1+)
;
_journal_coden_Cambridge 211
_journal_volume 69
_journal_year 2016
_journal_page_first 3115
_journal_name_full 'J.Coord.Chem. '
loop_
_publ_author_name
"Wen-Gang Zhu"
"Yue-Qing Zheng"
"Hong-Lin Zhu"
"Jin-Jian Wang"
_chemical_name_systematic
;
catena-[diammonium bis(\m-4-nitrophthalato)-diaqua-zinc(ii)]
;
_cell_volume   2022.486
_exptl_crystal_colour 'colorless'
_exptl_crystal_density_diffrn 1.825
_exptl_crystal_description 'block'
_diffrn_ambient_temperature 298
#These two values have been output from a single CSD field.
_refine_ls_R_factor_gt 0.0274
_refine_ls_wR_factor_gt 0.0274
_symmetry_cell_setting monoclinic
_symmetry_space_group_name_H-M 'C 2/c'
_symmetry_Int_Tables_number 15
loop_
_symmetry_equiv_pos_site_id
_symmetry_equiv_pos_as_xyz
1 x,y,z
2 -x,y,1/2-z
3 1/2+x,1/2+y,z
4 1/2-x,1/2+y,1/2-z
5 -x,-y,-z
6 x,-y,-1/2+z
7 -1/2-x,-1/2-y,-z
8 -1/2+x,-1/2-y,-1/2+z
_cell_length_a 22.954(5)
_cell_length_b 6.7990(14)
_cell_length_c 13.026(3)
_cell_angle_alpha 90
_cell_angle_beta 95.80(3)
_cell_angle_gamma 90
_cell_formula_units_Z 4
loop_
_atom_type_symbol
_atom_type_radius_bond
C 0.68
H 0.23
N 0.68
O 0.68
Zn 1.22
loop_
_atom_site_label
_atom_site_type_symbol
_atom_site_fract_x
_atom_site_fract_y
_atom_site_fract_z
Zn1 Zn 0.00000 -0.04007(4) 0.25000
O1 O 0.06746(5) 0.15976(17) 0.28146(9)
O2 O 0.04327(5) 0.32698(18) 0.41938(10)
C1 C 0.07704(6) 0.2801(2) 0.35418(12)
C2 C 0.13700(6) 0.3764(2) 0.36397(11)
C3 C 0.14380(6) 0.5784(2) 0.38360(11)
C4 C 0.19992(7) 0.6596(2) 0.39535(13)
H1 H 0.20440 0.79370 0.40810
C5 C 0.24903(7) 0.5443(3) 0.38837(14)
H2 H 0.28640 0.59900 0.39590
C6 C 0.24099(6) 0.3458(2) 0.36985(12)
C7 C 0.18618(6) 0.2596(2) 0.35628(12)
H3 H 0.18220 0.12590 0.34230
C8 C 0.09185(6) 0.7160(2) 0.38662(12)
O3 O 0.05823(5) 0.72566(17) 0.30364(9)
O4 O 0.08742(6) 0.8100(2) 0.46661(10)
N1 N 0.29312(6) 0.2218(2) 0.36478(12)
O5 O 0.28750(6) 0.0435(2) 0.36283(13)
O6 O 0.33995(6) 0.3042(3) 0.36132(19)
O7 O -0.03231(5) -0.07092(19) 0.39411(9)
H4 H -0.00090 -0.09740 0.43080
H5 H -0.05060 -0.01610 0.43890
N2 N -0.06737(7) 0.4960(3) 0.37865(13)
H6 H -0.0343(12) 0.422(4) 0.3810(19)
H7 H -0.0674(10) 0.573(4) 0.324(2)
H8 H -0.0663(11) 0.566(4) 0.432(2)
H9 H -0.0987(14) 0.413(5) 0.374(2)
O1A O -0.06746(5) 0.15976(17) 0.21854(9)
O2A O -0.04327(5) 0.32698(18) 0.08062(10)
C1A C -0.07704(6) 0.2801(2) 0.14582(12)
C2A C -0.13700(6) 0.3764(2) 0.13603(11)
C3A C -0.14380(6) 0.5784(2) 0.11640(11)
C4A C -0.19992(7) 0.6596(2) 0.10465(13)
H1A H -0.20440 0.79370 0.09190
C5A C -0.24903(7) 0.5443(3) 0.11163(14)
H2A H -0.28640 0.59900 0.10410
C6A C -0.24099(6) 0.3458(2) 0.13015(12)
C7A C -0.18618(6) 0.2596(2) 0.14372(12)
H3A H -0.18220 0.12590 0.15770
C8A C -0.09185(6) 0.7160(2) 0.11338(12)
O3A O -0.05823(5) 0.72566(17) 0.19636(9)
O4A O -0.08742(6) 0.8100(2) 0.03339(10)
N1A N -0.29312(6) 0.2218(2) 0.13522(12)
O5A O -0.28750(6) 0.0435(2) 0.13717(13)
O6A O -0.33995(6) 0.3042(3) 0.13868(19)
O7A O 0.03231(5) -0.07092(19) 0.10589(9)
H4A H 0.00090 -0.09740 0.06920
H5A H 0.05060 -0.01610 0.06110
Zn1* Zn 0.00000 0.95993(4) 0.25000
O3* O 0.05823(5) -0.27434(17) 0.30364(9)
O3A* O -0.05823(5) -0.27434(17) 0.19636(9)
#END
