
#######################################################################
#
#                 Cambridge Crystallographic Data Centre
#                                CCDC
#
#######################################################################
#
# If this CIF has been generated from an entry in the Cambridge
# Structural Database, then it will include bibliographic, chemical,
# crystal, experimental, refinement or atomic coordinate data resulting
# from the CCDC's data processing and validation procedures.
#
#######################################################################

data_CSD_CIF_OWAYES
_audit_creation_date 2016-09-20
_audit_creation_method CSD-ConQuest-V1
_database_code_CSD OWAYES
_database_code_depnum_ccdc_archive 'CCDC 1444475'
_chemical_formula_sum 'C16 H10 N2 O14 Rb2 Zn1'
_chemical_formula_moiety
;
(C16 H6 N2 O12 Zn1 2-)n,2(H2 O1),2(Rb1 1+)
;
_journal_coden_Cambridge 211
_journal_volume 69
_journal_year 2016
_journal_page_first 3115
_journal_name_full 'J.Coord.Chem. '
loop_
_publ_author_name
"Wen-Gang Zhu"
"Yue-Qing Zheng"
"Hong-Lin Zhu"
"Jin-Jian Wang"
_chemical_name_systematic
;
catena-[bis(rubidium) bis(\m-4-nitrophthalato)-zinc dihydrate]
;
_cell_volume   2092.039
_exptl_crystal_colour 'colorless'
_exptl_crystal_density_diffrn 2.193
_exptl_crystal_description 'block'
_diffrn_ambient_temperature 298
#These two values have been output from a single CSD field.
_refine_ls_R_factor_gt 0.0379
_refine_ls_wR_factor_gt 0.0379
_symmetry_cell_setting monoclinic
_symmetry_space_group_name_H-M 'C 2/c'
_symmetry_Int_Tables_number 15
loop_
_symmetry_equiv_pos_site_id
_symmetry_equiv_pos_as_xyz
1 x,y,z
2 -x,y,1/2-z
3 1/2+x,1/2+y,z
4 1/2-x,1/2+y,1/2-z
5 -x,-y,-z
6 x,-y,-1/2+z
7 -1/2-x,-1/2-y,-z
8 -1/2+x,-1/2-y,-1/2+z
_cell_length_a 9.6301(19)
_cell_length_b 10.223(2)
_cell_length_c 21.592(4)
_cell_angle_alpha 90
_cell_angle_beta 100.21(3)
_cell_angle_gamma 90
_cell_formula_units_Z 4
loop_
_atom_type_symbol
_atom_type_radius_bond
C 0.68
H 0.23
N 0.68
O 0.68
Rb 2.20
Zn 1.22
loop_
_atom_site_label
_atom_site_type_symbol
_atom_site_fract_x
_atom_site_fract_y
_atom_site_fract_z
Zn1 Zn 0.00000 -0.20172(7) 0.25000
O1 O -0.1182(4) -0.2949(3) 0.30175(15)
O2 O 0.0888(4) -0.3634(5) 0.3530(2)
C1 C -0.0402(5) -0.3529(5) 0.3472(2)
C2 C -0.1120(5) -0.4012(4) 0.3996(2)
C3 C -0.2253(5) -0.4901(4) 0.3884(2)
C4 C -0.2929(5) -0.5255(5) 0.4385(2)
H1 H -0.36650 -0.58570 0.43240
C5 C -0.2484(5) -0.4694(5) 0.4970(2)
C6 C -0.1385(5) -0.3804(5) 0.5084(2)
H2 H -0.11090 -0.34340 0.54800
C7 C -0.0717(5) -0.3487(5) 0.4593(2)
H3 H 0.00320 -0.28990 0.46630
C8 C -0.2727(5) -0.5550(4) 0.3260(2)
O3 O -0.4053(4) -0.5699(4) 0.31090(17)
O4 O -0.1863(4) -0.5880(4) 0.29380(18)
N1 N -0.3238(5) -0.5061(5) 0.5474(2)
O5 O -0.3206(5) -0.4294(4) 0.59123(19)
O6 O -0.3871(6) -0.6097(5) 0.5439(2)
Rb1 Rb -0.34684(5) -0.61431(5) 0.69460(2)
O7 O -0.5903(6) -0.7727(5) 0.6765(3)
H4 H -0.671(4) -0.805(9) 0.677(5)
H5 H -0.530(7) -0.828(7) 0.693(5)
O1A O 0.1182(4) -0.2949(3) 0.19825(15)
O2A O -0.0888(4) -0.3634(5) 0.1470(2)
C1A C 0.0402(5) -0.3529(5) 0.1528(2)
C2A C 0.1120(5) -0.4012(4) 0.1004(2)
C3A C 0.2253(5) -0.4901(4) 0.1116(2)
C4A C 0.2929(5) -0.5255(5) 0.0615(2)
H1A H 0.36650 -0.58570 0.06760
C5A C 0.2484(5) -0.4694(5) 0.0030(2)
C6A C 0.1385(5) -0.3804(5) -0.0084(2)
H2A H 0.11090 -0.34340 -0.04800
C7A C 0.0717(5) -0.3487(5) 0.0407(2)
H3A H -0.00320 -0.28990 0.03370
C8A C 0.2727(5) -0.5550(4) 0.1740(2)
O3A O 0.4053(4) -0.5699(4) 0.18910(17)
O4A O 0.1863(4) -0.5880(4) 0.20620(18)
N1A N 0.3238(5) -0.5061(5) -0.0474(2)
O5A O 0.3206(5) -0.4294(4) -0.09123(19)
O6A O 0.3871(6) -0.6097(5) -0.0439(2)
Zn1B Zn -0.50000 -0.70172(7) 0.25000
Zn1B* Zn 0.50000 -0.70172(7) 0.25000
O3B O 0.0947(4) -0.0699(4) 0.31090(17)
O3C O -0.0947(4) -0.0699(4) 0.18910(17)
O7A O 0.5903(6) -0.7727(5) -0.1765(3)
H4A H 0.671(4) -0.805(9) -0.177(5)
H5A H 0.530(7) -0.828(7) -0.193(5)
#END
