
#######################################################################
#
#                 Cambridge Crystallographic Data Centre
#                                CCDC
#
#######################################################################
#
# If this CIF has been generated from an entry in the Cambridge
# Structural Database, then it will include bibliographic, chemical,
# crystal, experimental, refinement or atomic coordinate data resulting
# from the CCDC's data processing and validation procedures.
#
#######################################################################

data_CSD_CIF_OWAYAO
_audit_creation_date 2016-09-20
_audit_creation_method CSD-ConQuest-V1
_database_code_CSD OWAYAO
_database_code_depnum_ccdc_archive 'CCDC 1444474'
_chemical_formula_sum 'C16 H8 K2 N2 O13 Zn1'
_chemical_formula_moiety
;
(C16 H6 N2 O12 Zn1 2-)n,H2 O1,2(K1 1+)
;
_journal_coden_Cambridge 211
_journal_volume 69
_journal_year 2016
_journal_page_first 3115
_journal_name_full 'J.Coord.Chem. '
loop_
_publ_author_name
"Wen-Gang Zhu"
"Yue-Qing Zheng"
"Hong-Lin Zhu"
"Jin-Jian Wang"
_chemical_name_systematic
;
catena-[bis(potassium) bis(\m-4-nitrophthalato)-zinc monohydrate]
;
_cell_volume   3914.513
_exptl_crystal_colour 'colorless'
_exptl_crystal_density_diffrn 1.968
_exptl_crystal_description 'platelet'
_diffrn_ambient_temperature 298
#These two values have been output from a single CSD field.
_refine_ls_R_factor_gt 0.0437
_refine_ls_wR_factor_gt 0.0437
_symmetry_cell_setting monoclinic
_symmetry_space_group_name_H-M 'C 2/c'
_symmetry_Int_Tables_number 15
loop_
_symmetry_equiv_pos_site_id
_symmetry_equiv_pos_as_xyz
1 x,y,z
2 -x,y,1/2-z
3 1/2+x,1/2+y,z
4 1/2-x,1/2+y,1/2-z
5 -x,-y,-z
6 x,-y,-1/2+z
7 -1/2-x,-1/2-y,-z
8 -1/2+x,-1/2-y,-1/2+z
_cell_length_a 40.180(8)
_cell_length_b 6.8666(14)
_cell_length_c 14.226(3)
_cell_angle_alpha 90
_cell_angle_beta 94.18(3)
_cell_angle_gamma 90
_cell_formula_units_Z 8
loop_
_atom_type_symbol
_atom_type_radius_bond
C 0.68
H 0.23
K 2.03
N 0.68
O 0.68
Zn 1.22
loop_
_atom_site_label
_atom_site_type_symbol
_atom_site_fract_x
_atom_site_fract_y
_atom_site_fract_z
Zn1 Zn 0.13672(1) -0.13932(6) 0.33200(3)
O1 O 0.10220(6) 0.0438(4) 0.36747(19)
O2 O 0.17688(6) -0.1496(4) 0.41859(19)
O3 O 0.11038(6) -0.3913(4) 0.3401(2)
O4 O 0.15935(6) -0.1754(4) 0.21216(19)
C1 C 0.08285(9) -0.3941(5) 0.2889(3)
C2 C 0.17826(8) -0.0245(5) 0.2082(3)
C3 C 0.05581(8) -0.5228(5) 0.3240(2)
O5 O 0.07650(8) -0.2961(5) 0.2185(2)
C4 C 0.20759(8) -0.0357(5) 0.1484(3)
O6 O 0.17544(7) 0.1219(4) 0.2573(2)
C5 C 0.05928(8) -0.7247(5) 0.3361(3)
C6 C 0.02629(9) -0.4331(6) 0.3449(3)
C7 C 0.20687(8) 0.0312(5) 0.0556(3)
C8 C 0.23733(10) -0.1089(6) 0.1911(3)
C9 C 0.08957(9) -0.8344(5) 0.3065(3)
C10 C 0.03334(9) -0.8308(5) 0.3680(3)
C11 C 0.00004(9) -0.5378(6) 0.3773(3)
H1 H 0.02410 -0.29920 0.33680
C12 C 0.17513(8) 0.1072(5) 0.0054(3)
C13 C 0.23591(9) 0.0264(5) 0.0074(3)
C14 C 0.2662(1) -0.1137(6) 0.1447(3)
H2 H 0.23770 -0.15560 0.25260
O7 O 0.09854(6) -0.8054(4) 0.2270(2)
C15 C 0.00398(8) -0.7361(6) 0.3875(3)
H3 H 0.03540 -0.96470 0.37640
H4 H -0.01960 -0.47640 0.39180
O8 O 0.14980(6) 0.1236(4) 0.04916(19)
C16 C 0.26475(9) -0.0445(5) 0.0535(3)
H5 H 0.23580 0.07010 -0.05450
H6 H 0.28600 -0.16190 0.17380
N1 N -0.02364(8) -0.8535(5) 0.4180(3)
N2 N 0.29531(9) -0.0491(5) 0.0021(3)
O9 O -0.04659(7) -0.7698(5) 0.4539(2)
O10 O -0.02285(8) -1.0302(5) 0.4071(3)
O11 O 0.32083(8) -0.1122(5) 0.0425(3)
O12 O 0.29364(8) 0.0111(5) -0.0788(3)
K1 K -0.09735(2) -0.08188(12) 0.42422(6)
K2 K -0.14793(2) -0.56151(12) 0.32343(7)
O13 O -0.10312(9) -0.4657(5) 0.4720(3)
H7 H -0.1208(10) -0.402(7) 0.481(4)
H8 H -0.1019(14) -0.544(7) 0.519(3)
O1* O 0.10220(6) -0.9562(4) 0.36747(19)
O2E O 0.17688(6) 0.1496(4) -0.08141(19)
Zn1* Zn 0.13672(1) -1.13932(6) 0.33200(3)
Zn1E Zn 0.13672(1) 0.13932(6) -0.16800(3)
#END
