
#######################################################################
#
#                 Cambridge Crystallographic Data Centre
#                                CCDC
#
#######################################################################
#
# If this CIF has been generated from an entry in the Cambridge
# Structural Database, then it will include bibliographic, chemical,
# crystal, experimental, refinement or atomic coordinate data resulting
# from the CCDC's data processing and validation procedures.
#
#######################################################################

data_CSD_CIF_OWAZUI
_audit_creation_date 2011-09-23
_audit_creation_method CSD-ConQuest-V1
_database_code_CSD OWAZUI
_database_code_depnum_ccdc_archive 'CCDC 801883'
_chemical_formula_sum 'C28 H36 Cu1 Mo8 N6 O31'
_chemical_formula_moiety
;
(Mo8 O26 4-)n,n(C28 H30 Cu1 N6 O2 4+),3n(H2 O1)
;
_journal_coden_Cambridge 1147
_journal_volume 11
_journal_year 2011
_journal_page_first 2920
_journal_name_full 'Cryst.Growth Des. '
loop_
_publ_author_name
"Hai-Yan Liu"
"Hua Wu"
"Jin Yang"
"Ying-Ying Liu"
"Bo Liu"
"Yun-Yu Liu"
"Jian-Fang Ma"
_chemical_name_systematic
;
catena-((\m~2~-1,1'-Butane-1,4-diylbis(2-(pyridin-4-yl)-1H-benzimidazolium))-d
iaqua-copper 
bis(\m~5~-oxo)-tetrakis(\m~3~-oxo)-hexakis(\m~2~-oxo)-tetradecaoxo-octa-molybd
enum trihydrate)
;
_cell_volume   4742.475
_exptl_crystal_colour 'blue'
_exptl_crystal_density_diffrn 2.498
_exptl_crystal_description 'block'
_diffrn_ambient_temperature 293
#These two values have been output from a single CSD field.
_refine_ls_R_factor_gt 0.0273
_refine_ls_wR_factor_gt 0.0273
_symmetry_cell_setting monoclinic
_symmetry_space_group_name_H-M 'C 2/c'
_symmetry_Int_Tables_number 15
loop_
_symmetry_equiv_pos_site_id
_symmetry_equiv_pos_as_xyz
1 x,y,z
2 -x,y,1/2-z
3 1/2+x,1/2+y,z
4 1/2-x,1/2+y,1/2-z
5 -x,-y,-z
6 x,-y,-1/2+z
7 -1/2-x,-1/2-y,-z
8 -1/2+x,-1/2-y,-1/2+z
_cell_length_a 10.398(5)
_cell_length_b 35.826(5)
_cell_length_c 13.418(5)
_cell_angle_alpha 90
_cell_angle_beta 108.416(5)
_cell_angle_gamma 90
_cell_formula_units_Z 4
loop_
_atom_type_symbol
_atom_type_radius_bond
C 0.68
H 0.23
Cu 1.32
Mo 1.35
N 0.68
O 0.68
loop_
_atom_site_label
_atom_site_type_symbol
_atom_site_fract_x
_atom_site_fract_y
_atom_site_fract_z
Cu1 Cu 0.50000 0.00000 0.50000
Mo1 Mo 0.87555(2) 0.041620(7) 0.633349(19)
Mo2 Mo 0.87961(3) 0.108701(8) 0.46800(2)
Mo3 Mo 0.87100(2) 0.174826(8) 0.63402(2)
Mo4 Mo 0.85787(2) 0.108747(7) 0.795218(18)
C1 C 0.4499(3) 0.07797(9) 0.5508(3)
H1 H 0.51640 0.07230 0.61380
C2 C 0.4034(3) 0.11489(9) 0.5336(3)
H2 H 0.44000 0.13330 0.58350
C3 C 0.3035(3) 0.12346(8) 0.4425(2)
C4 C 0.2495(3) 0.09453(9) 0.3718(2)
H3 H 0.17770 0.09910 0.31100
C5 C 0.3047(3) 0.05851(9) 0.3936(2)
H4 H 0.27030 0.03970 0.34460
C6 C 0.2522(3) 0.16284(9) 0.4187(2)
C7 C 0.2372(3) 0.22413(9) 0.3767(2)
C8 C 0.1223(3) 0.21385(9) 0.3989(2)
C9 C 0.0237(3) 0.24037(10) 0.3984(3)
H5 H -0.05480 0.23380 0.41330
C10 C 0.0476(3) 0.27751(10) 0.3746(2)
H6 H -0.01630 0.29570 0.37430
C11 C 0.1629(3) 0.28754(10) 0.3516(2)
H7 H 0.17510 0.31230 0.33560
C12 C 0.2604(3) 0.26155(9) 0.3522(2)
H8 H 0.33870 0.26820 0.33710
C13 C 0.4472(3) 0.18962(9) 0.3729(2)
H9 H 0.49610 0.16770 0.40770
H10 H 0.49980 0.21150 0.40360
C14 C 0.4320(3) 0.18795(9) 0.2584(2)
H11 H 0.37990 0.20930 0.22300
H12 H 0.38290 0.16550 0.22830
N1 N 0.4030(2) 0.05004(7) 0.48021(19)
N2 N 0.1350(3) 0.17555(8) 0.4238(2)
N3 N 0.3169(2) 0.19124(7) 0.39012(18)
O1 O 0.7050(2) 0.03775(6) 0.59107(16)
O2 O 0.9282(2) -0.00413(6) 0.64342(18)
O3 O 0.9105(2) 0.05644(6) 0.51027(15)
O4 O 0.89705(18) 0.05476(5) 0.78131(15)
O5 O 0.90090(19) 0.10798(5) 0.65098(15)
O6 O 0.7097(2) 0.10846(7) 0.4196(2)
O7 O 0.9330(3) 0.11072(8) 0.36267(18)
O8 O 0.9128(2) 0.16091(6) 0.51210(16)
O9 O 0.9067(2) 0.22221(7) 0.64139(19)
O10 O 0.7024(2) 0.17180(7) 0.59166(18)
O11 O 0.89970(19) 0.16229(6) 0.78257(15)
O12 O 1.1046(2) 0.10910(6) 0.57026(15)
O13 O 0.6891(2) 0.10935(6) 0.74899(17)
O14 O 0.5320(3) 0.00666(8) 0.36741(18)
O15 O 0.50000 0.07487(11) 0.25000
O16 O 0.7693(3) 0.00419(9) 0.3520(2)
H13 H 0.609(2) -0.0009(11) 0.368(4)
H14 H 0.522(4) 0.0280(6) 0.338(3)
H15 H 0.825(3) 0.0196(9) 0.391(3)
H16 H 0.567(4) 0.0894(13) 0.270(5)
H17 H 0.083(4) 0.162(1) 0.446(3)
H18 H 0.816(3) -0.0154(5) 0.353(5)
Cu1A Cu 0.50000 0.00000 0.00000
Mo1A Mo 1.12445(2) 0.041620(7) 0.866651(19)
Mo2A Mo 1.12039(3) 0.108701(8) 1.03200(2)
Mo3A Mo 1.12900(2) 0.174826(8) 0.86598(2)
Mo4A Mo 1.14213(2) 0.108747(7) 0.704782(18)
C1A C 0.5501(3) 0.07797(9) -0.0508(3)
H1A H 0.48360 0.07230 -0.11380
C2A C 0.5966(3) 0.11489(9) -0.0336(3)
H2A H 0.56000 0.13330 -0.08350
C3A C 0.6965(3) 0.12346(8) 0.0575(2)
C4A C 0.7505(3) 0.09453(9) 0.1282(2)
H3A H 0.82230 0.09910 0.18900
C5A C 0.6953(3) 0.05851(9) 0.1064(2)
H4A H 0.72970 0.03970 0.15540
C6A C 0.7478(3) 0.16284(9) 0.0813(2)
C7A C 0.7628(3) 0.22413(9) 0.1233(2)
C8A C 0.8777(3) 0.21385(9) 0.1011(2)
C9A C 0.9763(3) 0.24037(10) 0.1016(3)
H5A H 1.05480 0.23380 0.08670
C10A C 0.9524(3) 0.27751(10) 0.1254(2)
H6A H 1.01630 0.29570 0.12570
C11A C 0.8371(3) 0.28754(10) 0.1484(2)
H7A H 0.82490 0.31230 0.16440
C12A C 0.7396(3) 0.26155(9) 0.1478(2)
H8A H 0.66130 0.26820 0.16290
C13A C 0.5528(3) 0.18962(9) 0.1271(2)
H9A H 0.50390 0.16770 0.09230
H10A H 0.50020 0.21150 0.09640
C14A C 0.5680(3) 0.18795(9) 0.2416(2)
H11A H 0.62010 0.20930 0.27700
H12A H 0.61710 0.16550 0.27170
N1A N 0.5970(2) 0.05004(7) 0.01979(19)
N1D N 0.5970(2) -0.05004(7) 0.51979(19)
N2A N 0.8650(3) 0.17555(8) 0.0762(2)
N3A N 0.6831(2) 0.19124(7) 0.10988(18)
O1A O 1.2950(2) 0.03775(6) 0.90893(16)
O2A O 1.0718(2) -0.00413(6) 0.85658(18)
O3A O 1.0895(2) 0.05644(6) 0.98973(15)
O4A O 1.10295(18) 0.05476(5) 0.71869(15)
O5A O 1.09910(19) 0.10798(5) 0.84902(15)
O6A O 1.2903(2) 0.10846(7) 1.0804(2)
O7A O 1.0670(3) 0.11072(8) 1.13733(18)
O8A O 1.0872(2) 0.16091(6) 0.98790(16)
O9A O 1.0933(2) 0.22221(7) 0.85861(19)
O10A O 1.2976(2) 0.17180(7) 0.90834(18)
O11A O 1.10030(19) 0.16229(6) 0.71743(15)
O12A O 0.8954(2) 0.10910(6) 0.92974(15)
O13A O 1.3109(2) 0.10935(6) 0.75101(17)
O14D O 0.4680(3) -0.00666(8) 0.63259(18)
H13D H 0.391(2) 0.0009(11) 0.632(4)
H14D H 0.478(4) -0.0280(6) 0.662(3)
H16A H 0.433(4) 0.0894(13) 0.230(5)
H17A H 0.917(4) 0.162(1) 0.054(3)
#END
