
#######################################################################
#
#                 Cambridge Crystallographic Data Centre
#                                CCDC
#
#######################################################################
#
# If this CIF has been generated from an entry in the Cambridge
# Structural Database, then it will include bibliographic, chemical,
# crystal, experimental, refinement or atomic coordinate data resulting
# from the CCDC's data processing and validation procedures.
#
#######################################################################

data_CSD_CIF_OWEBAU
_audit_creation_date 2011-09-23
_audit_creation_method CSD-ConQuest-V1
_database_code_CSD OWEBAU
_database_code_depnum_ccdc_archive 'CCDC 801884'
_chemical_formula_sum 'C28 H32 Cu1 Mo8 N6 O29'
_chemical_formula_moiety
;
(Mo8 O26 4-)n,n(C28 H26 Cu1 N6 4+),3n(H2 O1)
;
_journal_coden_Cambridge 1147
_journal_volume 11
_journal_year 2011
_journal_page_first 2920
_journal_name_full 'Cryst.Growth Des. '
loop_
_publ_author_name
"Hai-Yan Liu"
"Hua Wu"
"Jin Yang"
"Ying-Ying Liu"
"Bo Liu"
"Yun-Yu Liu"
"Jian-Fang Ma"
_chemical_name_systematic
;
catena-((\m~2~-1,1'-Butane-1,4-diylbis(2-(pyridin-4-yl)-1H-benzimidazolium))-c
opper 
bis(\m~4~-oxo)-tetrakis(\m~3~-oxo)-octakis(\m~2~-oxo)-dodecaoxo-octa-molybdenu
m trihydrate)
;
_cell_volume   1110.499
_exptl_crystal_colour 'green'
_exptl_crystal_density_diffrn 2.613
_exptl_crystal_description 'block'
_diffrn_ambient_temperature 293
#These two values have been output from a single CSD field.
_refine_ls_R_factor_gt 0.028
_refine_ls_wR_factor_gt 0.028
_symmetry_cell_setting triclinic
_symmetry_space_group_name_H-M 'P -1'
_symmetry_Int_Tables_number 2
loop_
_symmetry_equiv_pos_site_id
_symmetry_equiv_pos_as_xyz
1 x,y,z
2 -x,-y,-z
_cell_length_a 7.914(5)
_cell_length_b 10.423(5)
_cell_length_c 13.808(5)
_cell_angle_alpha 91.308(5)
_cell_angle_beta 96.509(5)
_cell_angle_gamma 100.792(5)
_cell_formula_units_Z 1
loop_
_atom_type_symbol
_atom_type_radius_bond
C 0.68
H 0.23
Cu 0.97
Mo 1.37
N 0.68
O 0.68
loop_
_atom_site_label
_atom_site_type_symbol
_atom_site_fract_x
_atom_site_fract_y
_atom_site_fract_z
Cu1 Cu 0.00000 0.00000 0.50000
Mo1 Mo -0.62838(4) -0.53003(2) 0.590960(18)
Mo2 Mo -0.77742(4) -0.24972(3) 0.581003(19)
Mo3 Mo -0.36301(4) -0.22375(3) 0.644719(19)
Mo4 Mo -0.18520(4) -0.48539(3) 0.631732(18)
C1 C 0.0758(6) 0.1003(4) 0.6968(3)
H1 H -0.04430 0.08260 0.69420
C2 C 0.1740(6) 0.1547(4) 0.7818(3)
H2 H 0.12120 0.17360 0.83580
C3 C 0.3527(6) 0.1808(4) 0.7852(3)
C4 C 0.4272(6) 0.1457(4) 0.7044(3)
H3 H 0.54700 0.15860 0.70580
C5 C 0.3195(6) 0.0912(3) 0.6221(3)
H4 H 0.36800 0.06700 0.56780
C6 C 0.4657(6) 0.2568(4) 0.8661(3)
C7 C 0.6629(6) 0.4191(4) 0.9374(3)
C8 C 0.5920(6) 0.3447(4) 1.0096(3)
C9 C 0.6463(7) 0.3761(5) 1.1079(3)
H5 H 0.59950 0.32520 1.15640
C10 C 0.7887(7) 0.5312(5) 0.9591(4)
H6 H 0.83460 0.58300 0.91080
C11 C 0.8413(7) 0.5607(5) 1.0575(4)
H7 H 0.92670 0.63410 1.07580
C12 C 0.7711(8) 0.4847(6) 1.1297(4)
H8 H 0.81070 0.50880 1.19480
C13 C 0.3679(7) 0.1372(4) 1.0128(3)
H9 H 0.26610 0.09580 0.96960
H10 H 0.32920 0.17270 1.07020
C14 C 0.4764(8) 0.0357(5) 1.0432(3)
H11 H 0.58170 0.07850 1.08300
H12 H 0.41230 -0.02720 1.08280
N1 N 0.1473(4) 0.0726(3) 0.61894(19)
N2 N 0.4671(5) 0.2441(3) 0.9630(2)
N3 N 0.5819(5) 0.3602(3) 0.8500(2)
O1 O -0.8033(3) -0.6244(2) 0.62923(17)
O2 O -0.3781(3) -0.3942(2) 0.53648(15)
O3 O -0.6082(3) -0.3708(2) 0.66079(15)
O4 O -0.4486(3) -0.5855(2) 0.65524(15)
O5 O -0.7589(3) -0.4143(2) 0.48925(15)
O6 O -0.1195(3) -0.5879(2) 0.71435(17)
O7 O -0.2475(3) -0.3547(2) 0.71148(15)
O8 O -0.9897(3) -0.3873(2) 0.60294(16)
O9 O -0.1948(3) -0.1318(2) 0.59380(18)
O10 O -0.3766(4) -0.1372(3) 0.74857(18)
O11 O -0.5485(3) -0.1749(2) 0.55802(16)
O12 O -0.8783(3) -0.1576(2) 0.49732(16)
O13 O -0.7870(4) -0.1770(2) 0.69098(17)
O14 O -0.9809(9) -0.1642(8) 0.8596(5)
O15 O -0.085(2) 0.1219(15) 0.946(1)
H13 H 0.584(8) 0.384(5) 0.7915(15)
H14 H -1.037(7) -0.106(4) 0.873(6)
H15 H -1.058(6) -0.233(3) 0.846(5)
Cu1* Cu 1.00000 0.00000 1.50000
Mo1A Mo -0.37162(4) -0.46997(2) 0.409040(18)
Mo2A Mo -0.22258(4) -0.75028(3) 0.418997(19)
Mo2* Mo 0.22258(4) -0.24972(3) 0.581003(19)
Mo3A Mo -0.63699(4) -0.77625(3) 0.355281(19)
Mo4A Mo -0.81480(4) -0.51461(3) 0.368268(18)
Mo4* Mo -1.18520(4) -0.48539(3) 0.631732(18)
C1A C 0.9242(6) -0.1003(4) 1.3032(3)
H1A H 1.04430 -0.08260 1.30580
C2A C 0.8260(6) -0.1547(4) 1.2182(3)
H2A H 0.87880 -0.17360 1.16420
C3A C 0.6473(6) -0.1808(4) 1.2148(3)
C4A C 0.5728(6) -0.1457(4) 1.2956(3)
H3A H 0.45300 -0.15860 1.29420
C5A C 0.6805(6) -0.0912(3) 1.3779(3)
H4A H 0.63200 -0.06700 1.43220
C6A C 0.5343(6) -0.2568(4) 1.1339(3)
C7A C 0.3371(6) -0.4191(4) 1.0626(3)
C8A C 0.4080(6) -0.3447(4) 0.9904(3)
C9A C 0.3537(7) -0.3761(5) 0.8921(3)
H5A H 0.40050 -0.32520 0.84360
C10A C 0.2113(7) -0.5312(5) 1.0409(4)
H6A H 0.16540 -0.58300 1.08920
C11A C 0.1587(7) -0.5607(5) 0.9425(4)
H7A H 0.07330 -0.63410 0.92420
C12A C 0.2289(8) -0.4847(6) 0.8703(4)
H8A H 0.18930 -0.50880 0.80520
C13A C 0.6321(7) -0.1372(4) 0.9872(3)
H9A H 0.73390 -0.09580 1.03040
H10A H 0.67080 -0.17270 0.92980
C14A C 0.5236(8) -0.0357(5) 0.9568(3)
H11A H 0.41830 -0.07850 0.91700
H12A H 0.58770 0.02720 0.91720
N1A N 0.8527(4) -0.0726(3) 1.38106(19)
N1A* N -0.1473(4) -0.0726(3) 0.38106(19)
N2A N 0.5329(5) -0.2441(3) 1.0370(2)
N3A N 0.4181(5) -0.3602(3) 1.1500(2)
O1A O -0.1967(3) -0.3756(2) 0.37077(17)
O2A O -0.6219(3) -0.6058(2) 0.46352(15)
O3A O -0.3918(3) -0.6292(2) 0.33921(15)
O4A O -0.5514(3) -0.4145(2) 0.34476(15)
O5A O -0.2411(3) -0.5857(2) 0.51075(15)
O6A O -0.8805(3) -0.4121(2) 0.28565(17)
O7A O -0.7525(3) -0.6453(2) 0.28852(15)
O8* O 0.0103(3) -0.3873(2) 0.60294(16)
O8A O -1.0103(3) -0.6127(2) 0.39706(16)
O8A* O -0.0103(3) -0.6127(2) 0.39706(16)
O9A O -0.8052(3) -0.8682(2) 0.40620(18)
O10A O -0.6234(4) -0.8628(3) 0.25143(18)
O11A O -0.4515(3) -0.8251(2) 0.44198(16)
O12A O -0.1217(3) -0.8424(2) 0.50268(16)
O13A O -0.2130(4) -0.8230(2) 0.30902(17)
H13A H 0.416(8) -0.384(5) 1.2085(15)
#END
