
#######################################################################
#
#                 Cambridge Crystallographic Data Centre
#                                CCDC
#
#######################################################################
#
# If this CIF has been generated from an entry in the Cambridge
# Structural Database, then it will include bibliographic, chemical,
# crystal, experimental, refinement or atomic coordinate data resulting
# from the CCDC's data processing and validation procedures.
#
#######################################################################

data_CSD_CIF_OWEZOG
_audit_creation_date 2011-09-15
_audit_creation_method CSD-ConQuest-V1
_database_code_CSD OWEZOG
_database_code_depnum_ccdc_archive 'CCDC 782928'
_chemical_formula_sum 'C48 H32 Cd2 Cl1 Mo12 N8 O40 P1 Sb2'
_chemical_formula_moiety
;
(Mo12 O40 P1 Sb2 1-)n,n(C48 H32 Cd2 Cl1 N8 1+)
;
_journal_coden_Cambridge 1290
_journal_year 2011
_journal_page_first 1997
_journal_name_full 'Eur.J.Inorg.Chem. '
loop_
_publ_author_name
"Li-Na Xiao"
"Yu Peng"
"Yan Wang"
"Jia-Ning Xu"
"Zhong-Min Gao"
"Ya-Bing Liu"
"Da-Fang Zheng"
"Xiao-Bing Cui"
"Ji-Qing Xu"
_chemical_name_systematic
;
catena-((\m~2~-chloro-)-tetrakis(1,10-phenanthroline)-di-cadmium 
(\m~12~-phosphato)-octakis(\m~3~-oxo)-hexadecakis(\m~2~-oxo)-dodecaoxo-dodeca-
molybdenum-di-antimony)
;
_cell_volume   7073.111
_exptl_crystal_density_diffrn 2.861
_diffrn_ambient_temperature 293
#These two values have been output from a single CSD field.
_refine_ls_R_factor_gt 0.0786
_refine_ls_wR_factor_gt 0.0786
_symmetry_cell_setting orthorhombic
_symmetry_space_group_name_H-M 'P c c n'
_symmetry_Int_Tables_number 56
loop_
_symmetry_equiv_pos_site_id
_symmetry_equiv_pos_as_xyz
1 x,y,z
2 1/2-x,1/2-y,z
3 -x,1/2+y,1/2-z
4 1/2+x,-y,1/2-z
5 -x,-y,-z
6 -1/2+x,-1/2+y,-z
7 x,-1/2-y,-1/2+z
8 -1/2-x,y,-1/2+z
_cell_length_a 16.549(2)
_cell_length_b 20.499(3)
_cell_length_c 20.850(5)
_cell_angle_alpha 90
_cell_angle_beta 90
_cell_angle_gamma 90
_cell_formula_units_Z 4
loop_
_atom_type_symbol
_atom_type_radius_bond
C 0.68
H 0.23
Cd 1.44
Cl 0.99
Mo 1.43
N 0.68
O 0.68
P 1.05
Sb 1.05
loop_
_atom_site_label
_atom_site_type_symbol
_atom_site_fract_x
_atom_site_fract_y
_atom_site_fract_z
Mo1 Mo 0.34970(6) 0.15346(5) -0.20368(5)
Mo2 Mo 0.13002(6) 0.16843(5) -0.44132(5)
Mo3 Mo 0.14038(6) 0.33920(5) -0.44206(6)
Mo4 Mo 0.46697(6) 0.24065(5) -0.32740(5)
Mo5 Mo 0.36129(6) 0.33861(5) -0.20443(5)
Mo6 Mo 0.25929(6) 0.42566(5) -0.31884(5)
Sb1 Sb 0.25000 0.25000 -0.11052(12)
Sb2 Sb 0.25000 0.25000 -0.53442(12)
Cd1 Cd -0.24424(6) 0.35962(7) -0.20514(6)
P1 P 0.25000 0.25000 -0.32287(18)
Cl1 Cl -0.25000 0.25000 -0.2622(3)
O1 O 0.2637(6) 0.5055(4) -0.3345(5)
O2 O 0.1284(6) 0.2543(4) -0.4872(4)
O3 O 0.3363(5) 0.3896(4) -0.3784(4)
O4 O 0.4559(5) 0.1775(4) -0.3966(4)
O5 O 0.4630(5) 0.3056(4) -0.3954(5)
O6 O 0.3393(5) 0.4147(4) -0.2513(4)
O7 O 0.0887(5) 0.1198(5) -0.4978(5)
O8 O 0.4272(6) 0.3654(5) -0.1484(5)
O9 O 0.3475(6) 0.2463(4) -0.1766(4)
O10 O 0.1796(5) 0.3958(4) -0.3788(4)
O11 O 0.1050(5) 0.3908(5) -0.4985(5)
O12 O 0.4312(5) 0.3056(4) -0.2677(4)
O13 O 0.4238(5) 0.1798(4) -0.2678(4)
O14 O 0.1741(5) 0.2531(4) -0.3653(4)
O15 O 0.2454(5) 0.1717(5) -0.4701(4)
O16 O 0.2466(4) 0.1878(4) -0.2805(4)
O17 O 0.2564(5) 0.3473(5) -0.1588(4)
O18 O 0.4106(6) 0.1203(5) -0.1481(5)
O19 O 0.5657(6) 0.2366(5) -0.3133(5)
O20 O 0.3193(6) 0.0788(4) -0.2498(5)
N1 N -0.3086(7) 0.3699(6) -0.1075(6)
N2 N -0.1538(7) 0.3233(6) -0.1289(6)
N3 N -0.1641(8) 0.4184(6) -0.2749(7)
N4 N -0.3352(7) 0.4090(6) -0.2746(6)
C1 C -0.3834(9) 0.3908(8) -0.0974(10)
H1 H -0.41380 0.40410 -0.13260
C2 C -0.4184(9) 0.3939(10) -0.037(1)
H2 H -0.47110 0.40880 -0.03180
C3 C -0.3733(11) 0.3744(9) 0.0149(11)
H3 H -0.39590 0.37520 0.05570
C4 C -0.2929(10) 0.3533(8) 0.0067(8)
C5 C -0.2431(12) 0.3332(11) 0.0598(9)
H4 H -0.26260 0.33580 0.10150
C6 C -0.1658(12) 0.3097(9) 0.0481(9)
H5 H -0.13360 0.29700 0.08250
C7 C -0.1349(9) 0.3050(7) -0.0153(8)
C8 C -0.0592(9) 0.2783(9) -0.0291(10)
H6 H -0.02650 0.26370 0.00420
C9 C -0.0328(9) 0.2736(8) -0.0899(9)
H7 H 0.01720 0.25510 -0.09890
C10 C -0.0830(9) 0.2975(9) -0.1406(8)
H8 H -0.06480 0.29470 -0.18270
C11 C -0.1811(8) 0.3259(7) -0.0678(7)
C12 C -0.2627(8) 0.3518(7) -0.0561(8)
C13 C -0.0871(10) 0.4231(8) -0.2756(10)
H9 H -0.05820 0.40260 -0.24310
C14 C -0.0438(12) 0.4574(10) -0.3226(11)
H10 H 0.01230 0.45940 -0.32190
C15 C -0.0885(13) 0.4884(8) -0.3706(10)
H11 H -0.06230 0.51120 -0.40310
C16 C -0.1712(12) 0.4849(7) -0.3694(9)
C17 C -0.2215(16) 0.5171(8) -0.4176(10)
H12 H -0.19650 0.54220 -0.44900
C18 C -0.3014(17) 0.5119(9) -0.4184(10)
H13 H -0.33070 0.53320 -0.45030
C19 C -0.3443(13) 0.4735(9) -0.3701(8)
C20 C -0.4268(11) 0.4673(9) -0.3691(9)
H14 H -0.45810 0.48740 -0.40040
C21 C -0.4630(9) 0.4314(8) -0.3216(8)
H15 H -0.51890 0.42680 -0.32000
C22 C -0.4142(9) 0.4022(8) -0.2761(8)
H16 H -0.43850 0.37630 -0.24500
C23 C -0.2968(11) 0.4435(6) -0.3211(7)
C24 C -0.2113(10) 0.4491(6) -0.3211(7)
Mo1A Mo 0.15030(6) 0.34654(5) -0.20368(5)
Mo2A Mo 0.36998(6) 0.33157(5) -0.44132(5)
Mo3A Mo 0.35962(6) 0.16080(5) -0.44206(6)
Mo4A Mo 0.03303(6) 0.25935(5) -0.32740(5)
Mo5A Mo 0.13871(6) 0.16139(5) -0.20443(5)
Mo6A Mo 0.24071(6) 0.07434(5) -0.31884(5)
Sb1F Sb 0.25000 0.25000 -0.61052(12)
Sb2F Sb 0.25000 0.25000 -0.03442(12)
Cd1A Cd -0.25576(6) 0.14038(7) -0.20514(6)
O1A O 0.2363(6) -0.0055(4) -0.3345(5)
O2A O 0.3716(6) 0.2457(4) -0.4872(4)
O3A O 0.1637(5) 0.1104(4) -0.3784(4)
O4A O 0.0441(5) 0.3225(4) -0.3966(4)
O5A O 0.0370(5) 0.1944(4) -0.3954(5)
O6A O 0.1607(5) 0.0853(4) -0.2513(4)
O7A O 0.4113(5) 0.3802(5) -0.4978(5)
O8A O 0.0728(6) 0.1346(5) -0.1484(5)
O9A O 0.1525(6) 0.2537(4) -0.1766(4)
O10A O 0.3204(5) 0.1042(4) -0.3788(4)
O11A O 0.3950(5) 0.1092(5) -0.4985(5)
O12A O 0.0688(5) 0.1944(4) -0.2677(4)
O13A O 0.0762(5) 0.3202(4) -0.2678(4)
O14A O 0.3259(5) 0.2469(4) -0.3653(4)
O15A O 0.2546(5) 0.3283(5) -0.4701(4)
O16A O 0.2534(4) 0.3122(4) -0.2805(4)
O17A O 0.2436(5) 0.1527(5) -0.1588(4)
O18A O 0.0894(6) 0.3797(5) -0.1481(5)
O19A O -0.0657(6) 0.2634(5) -0.3133(5)
O20A O 0.1807(6) 0.4212(4) -0.2498(5)
N1A N -0.1914(7) 0.1301(6) -0.1075(6)
N2A N -0.3462(7) 0.1767(6) -0.1289(6)
N3A N -0.3359(8) 0.0816(6) -0.2749(7)
N4A N -0.1648(7) 0.0910(6) -0.2746(6)
C1A C -0.1166(9) 0.1092(8) -0.0974(10)
H1A H -0.08620 0.09590 -0.13260
C2A C -0.0816(9) 0.1061(10) -0.037(1)
H2A H -0.02890 0.09120 -0.03180
C3A C -0.1267(11) 0.1256(9) 0.0149(11)
H3A H -0.10410 0.12480 0.05570
C4A C -0.2071(10) 0.1467(8) 0.0067(8)
C5A C -0.2569(12) 0.1668(11) 0.0598(9)
H4A H -0.23740 0.16420 0.10150
C6A C -0.3342(12) 0.1903(9) 0.0481(9)
H5A H -0.36640 0.20300 0.08250
C7A C -0.3651(9) 0.1950(7) -0.0153(8)
C8A C -0.4408(9) 0.2217(9) -0.0291(10)
H6A H -0.47350 0.23630 0.00420
C9A C -0.4672(9) 0.2264(8) -0.0899(9)
H7A H -0.51720 0.24490 -0.09890
C10A C -0.4170(9) 0.2025(9) -0.1406(8)
H8A H -0.43520 0.20530 -0.18270
C11A C -0.3189(8) 0.1741(7) -0.0678(7)
C12A C -0.2373(8) 0.1482(7) -0.0561(8)
C13A C -0.4129(10) 0.0769(8) -0.2756(10)
H9A H -0.44180 0.09740 -0.24310
C14A C -0.4562(12) 0.0426(10) -0.3226(11)
H10A H -0.51230 0.04060 -0.32190
C15A C -0.4115(13) 0.0116(8) -0.3706(10)
H11A H -0.43770 -0.01120 -0.40310
C16A C -0.3288(12) 0.0151(7) -0.3694(9)
C17A C -0.2785(16) -0.0171(8) -0.4176(10)
H12A H -0.30350 -0.04220 -0.44900
C18A C -0.1986(17) -0.0119(9) -0.4184(10)
H13A H -0.16930 -0.03320 -0.45030
C19A C -0.1557(13) 0.0265(9) -0.3701(8)
C20A C -0.0732(11) 0.0327(9) -0.3691(9)
H14A H -0.04190 0.01260 -0.40040
C21A C -0.0370(9) 0.0686(8) -0.3216(8)
H15A H 0.01890 0.07320 -0.32000
C22A C -0.0858(9) 0.0978(8) -0.2761(8)
H16A H -0.06150 0.12370 -0.24500
C23A C -0.2032(11) 0.0565(6) -0.3211(7)
C24A C -0.2887(10) 0.0509(6) -0.3211(7)
#END
