
#######################################################################
#
#                 Cambridge Crystallographic Data Centre
#                                CCDC
#
#######################################################################
#
# If this CIF has been generated from an entry in the Cambridge
# Structural Database, then it will include bibliographic, chemical,
# crystal, experimental, refinement or atomic coordinate data resulting
# from the CCDC's data processing and validation procedures.
#
#######################################################################

data_CSD_CIF_OWIBAY
_audit_creation_date 2011-09-15
_audit_creation_method CSD-ConQuest-V1
_database_code_CSD OWIBAY
_database_code_depnum_ccdc_archive 'CCDC 797254'
_chemical_formula_sum 'C50 H48 Cd1 Mo12 N10 O44 P1 Sb2'
_chemical_formula_moiety
;
(Mo12 O40 P1 Sb2 2-)n,n(C30 H28 Cd1 N6 O2 2+),2n(C10 H8 N2),2n(H2 O1)
;
_journal_coden_Cambridge 1290
_journal_year 2011
_journal_page_first 1997
_journal_name_full 'Eur.J.Inorg.Chem. '
loop_
_publ_author_name
"Li-Na Xiao"
"Yu Peng"
"Yan Wang"
"Jia-Ning Xu"
"Zhong-Min Gao"
"Ya-Bing Liu"
"Da-Fang Zheng"
"Xiao-Bing Cui"
"Ji-Qing Xu"
_chemical_name_systematic
;
catena-((\m~2~-4,4'-bipyridine)-bis(4,4'-bipyridine)-diaqua-cadmium(ii) 
(\m~12~-phosphato)-octakis(\m~3~-oxo)-hexadecakis(\m~2~-oxo)-dodecaoxo-dodeca-
molybdenum-di-antimony 4,4'-bipyridine solvate dihydrate)
;
_cell_volume   1905.146
_exptl_crystal_density_diffrn 2.642
_diffrn_ambient_temperature 293
_refine_special_details
;
O1,O2,O3,O4 disordered by symmetry over two sites with occupancy 0.50.

;
#These two values have been output from a single CSD field.
_refine_ls_R_factor_gt 0.106
_refine_ls_wR_factor_gt 0.106
_symmetry_cell_setting triclinic
_symmetry_space_group_name_H-M 'P -1'
_symmetry_Int_Tables_number 2
loop_
_symmetry_equiv_pos_site_id
_symmetry_equiv_pos_as_xyz
1 x,y,z
2 -x,-y,-z
_cell_length_a 10.9094(9)
_cell_length_b 11.8217(9)
_cell_length_c 15.4840(11)
_cell_angle_alpha 90.342(5)
_cell_angle_beta 107.225(5)
_cell_angle_gamma 92.522(5)
_cell_formula_units_Z 1
loop_
_atom_type_symbol
_atom_type_radius_bond
C 0.68
H 0.23
Cd 1.44
Mo 1.36
N 0.68
O 0.68
P 1.05
Sb 1.34
loop_
_atom_site_label
_atom_site_type_symbol
_atom_site_fract_x
_atom_site_fract_y
_atom_site_fract_z
Mo1 Mo 0.31028(18) 0.0504(2) 0.14929(11)
Mo2 Mo 0.17213(15) -0.11392(17) -0.06876(13)
Mo3 Mo 0.39344(17) -0.23140(15) 0.12282(10)
Mo4 Mo 0.41947(15) 0.28658(14) 0.02486(11)
Mo5 Mo 0.63560(15) 0.15849(16) 0.21416(10)
Mo6 Mo 0.71874(14) -0.12582(14) 0.19437(10)
Sb1 Sb 0.13241(12) 0.15598(13) -0.03973(8)
P1 P 0.50000 0.00000 0.00000
Cd1 Cd 0.50000 -0.50000 0.50000
O1 O 0.617(2) 0.016(2) 0.0866(15)
O2 O 0.475(2) 0.092(3) 0.0624(18)
O3 O 0.459(2) 0.106(2) -0.0495(16)
O4 O 0.387(2) -0.0527(19) 0.0351(15)
O5 O 0.4682(17) 0.108(3) 0.2204(14)
O6 O 0.343(3) -0.096(2) 0.1713(14)
O7 O 0.3744(18) 0.4167(16) 0.0374(16)
O8 O 0.244(3) -0.211(2) 0.0188(14)
O9 O 0.2200(14) 0.0838(15) 0.2139(10)
O10 O 0.0201(15) -0.1574(16) -0.0981(11)
O11 O 0.2757(16) 0.2292(17) -0.0894(11)
O12 O 0.8264(17) -0.186(2) 0.2776(11)
O13 O 0.5694(16) -0.1930(18) 0.1974(11)
O14 O 0.4707(16) -0.3096(17) 0.0430(13)
O15 O 0.341(2) -0.3350(17) 0.1751(12)
O16 O 0.5425(16) 0.269(2) 0.1322(13)
O17 O 0.694(2) 0.2335(16) 0.3106(12)
O18 O 0.1596(18) 0.0387(14) -0.1325(14)
O19 O 0.2276(19) -0.1731(15) -0.1588(15)
O20 O 0.2894(14) 0.191(2) 0.0726(11)
O21 O 0.174(2) 0.0052(17) 0.0287(12)
O22 O 0.699(2) 0.0088(16) 0.2484(17)
N1 N 0.3808(17) -0.4992(15) 0.6059(12)
N2 N 0.0404(19) -0.5016(18) 0.9268(13)
N3 N 0.5200(17) -0.3010(15) 0.4995(12)
N4 N 0.1903(18) -0.2846(17) 0.3891(13)
N5 N 0.068(2) 0.2963(19) 0.4365(17)
C1 C 0.252(2) -0.4997(17) 0.5777(15)
H1 H 0.20930 -0.50120 0.51600
C2 C 0.1810(19) -0.4981(18) 0.6382(12)
H2 H 0.09220 -0.49410 0.61750
C3 C 0.2440(18) -0.5027(15) 0.7311(12)
C4 C 0.1676(18) -0.5013(18) 0.7957(16)
C5 C 0.049(2) -0.556(3) 0.7809(16)
H3 H 0.00910 -0.59350 0.72620
C6 C -0.010(2) -0.554(3) 0.850(2)
H4 H -0.08980 -0.59210 0.84010
C7 C 0.156(2) -0.454(2) 0.9430(16)
H5 H 0.19610 -0.42220 0.99990
C8 C 0.221(2) -0.451(3) 0.8787(14)
H6 H 0.30120 -0.41420 0.89210
C9 C 0.3737(18) -0.5110(17) 0.7588(13)
H7 H 0.41810 -0.51970 0.81960
C10 C 0.439(2) -0.506(2) 0.6923(15)
H8 H 0.52780 -0.50780 0.71120
C11 C 0.539(3) -0.237(2) 0.5767(15)
H9 H 0.55940 -0.27380 0.63170
C12 C 0.531(3) -0.1241(19) 0.5780(13)
H10 H 0.54280 -0.08660 0.63300
C13 C 0.5060(18) -0.0615(15) 0.4995(11)
C14 C 0.492(2) -0.1234(16) 0.4196(13)
H11 H 0.47880 -0.08720 0.36470
C15 C 0.498(2) -0.2400(16) 0.4246(14)
H12 H 0.48520 -0.27970 0.37040
C16 C 0.192(3) -0.238(2) 0.4692(18)
H13 H 0.21250 -0.28370 0.51970
C17 C 0.165(2) -0.127(2) 0.4815(15)
H14 H 0.16830 -0.09960 0.53860
C18 C 0.1323(19) -0.0578(16) 0.4071(14)
C19 C 0.1069(19) 0.0640(18) 0.4188(13)
C20 C 0.155(2) 0.122(2) 0.4998(16)
H15 H 0.20340 0.08420 0.55030
C21 C 0.133(3) 0.233(2) 0.5069(17)
H16 H 0.16400 0.26810 0.56350
C22 C 0.019(2) 0.238(2) 0.3607(16)
H17 H -0.03170 0.27710 0.31200
C23 C 0.035(2) 0.126(2) 0.3461(16)
H18 H -0.00050 0.09180 0.28940
C24 C 0.130(2) -0.1045(19) 0.3263(16)
H19 H 0.10810 -0.06150 0.27440
C25 C 0.162(2) -0.218(2) 0.3213(17)
H20 H 0.16200 -0.24630 0.26530
O23 O 0.6914(14) -0.5125(13) 0.6194(10)
O24 O 0.771(3) 0.644(2) -0.228(2)
Mo1A Mo 0.68972(18) -0.0504(2) -0.14929(11)
Mo2A Mo 0.82787(15) 0.11392(17) 0.06876(13)
Mo3A Mo 0.60656(17) 0.23140(15) -0.12282(10)
Mo4A Mo 0.58053(15) -0.28658(14) -0.02486(11)
Mo5A Mo 0.36440(15) -0.15849(16) -0.21416(10)
Mo6A Mo 0.28126(14) 0.12582(14) -0.19437(10)
Sb1A Sb 0.86759(12) -0.15598(13) 0.03973(8)
Cd1* Cd 0.50000 0.50000 0.50000
O1A O 0.383(2) -0.016(2) -0.0866(15)
O2A O 0.525(2) -0.092(3) -0.0624(18)
O3A O 0.541(2) -0.106(2) 0.0495(16)
O4A O 0.613(2) 0.0527(19) -0.0351(15)
O5A O 0.5318(17) -0.108(3) -0.2204(14)
O6A O 0.657(3) 0.096(2) -0.1713(14)
O7A O 0.6256(18) -0.4167(16) -0.0374(16)
O8A O 0.756(3) 0.211(2) -0.0188(14)
O9A O 0.7800(14) -0.0838(15) -0.2139(10)
O10A O 0.9799(15) 0.1574(16) 0.0981(11)
O11A O 0.7243(16) -0.2292(17) 0.0894(11)
O12A O 0.1736(17) 0.186(2) -0.2776(11)
O13A O 0.4306(16) 0.1930(18) -0.1974(11)
O14A O 0.5293(16) 0.3096(17) -0.0430(13)
O15A O 0.659(2) 0.3350(17) -0.1751(12)
O16A O 0.4575(16) -0.269(2) -0.1322(13)
O17A O 0.306(2) -0.2335(16) -0.3106(12)
O18A O 0.8404(18) -0.0387(14) 0.1325(14)
O19A O 0.7724(19) 0.1731(15) 0.1588(15)
O20A O 0.7106(14) -0.191(2) -0.0726(11)
O21A O 0.826(2) -0.0052(17) -0.0287(12)
O22A O 0.301(2) -0.0088(16) -0.2484(17)
N1A N 0.6192(17) -0.5008(15) 0.3941(12)
N2A N 0.9596(19) -0.4984(18) 0.0732(13)
N3A N 0.4800(17) 0.3010(15) 0.5005(12)
N3A* N 0.4800(17) -0.6990(15) 0.5005(12)
C1A C 0.748(2) -0.5003(17) 0.4223(15)
H1A H 0.79070 -0.49880 0.48400
C2A C 0.8190(19) -0.5019(18) 0.3618(12)
H2A H 0.90780 -0.50590 0.38250
C3A C 0.7560(18) -0.4973(15) 0.2689(12)
C4A C 0.8324(18) -0.4987(18) 0.2043(16)
C5A C 0.951(2) -0.444(3) 0.2191(16)
H3A H 0.99090 -0.40650 0.27380
C6A C 1.010(2) -0.446(3) 0.150(2)
H4A H 1.08980 -0.40790 0.15990
C7A C 0.844(2) -0.546(2) 0.0570(16)
H5A H 0.80390 -0.57780 0.00010
C8A C 0.779(2) -0.549(3) 0.1213(14)
H6A H 0.69880 -0.58580 0.10790
C9A C 0.6263(18) -0.4890(17) 0.2412(13)
H7A H 0.58190 -0.48030 0.18040
C10A C 0.561(2) -0.494(2) 0.3077(15)
H8A H 0.47220 -0.49220 0.28880
C11A C 0.461(3) 0.237(2) 0.4233(15)
H9A H 0.44060 0.27380 0.36830
C12A C 0.469(3) 0.1241(19) 0.4220(13)
H10A H 0.45720 0.08660 0.36700
C13A C 0.4940(18) 0.0615(15) 0.5005(11)
C14A C 0.508(2) 0.1234(16) 0.5804(13)
H11A H 0.52120 0.08720 0.63530
C15A C 0.502(2) 0.2400(16) 0.5754(14)
H12A H 0.51480 0.27970 0.62960
O23A O 0.3086(14) -0.4875(13) 0.3806(10)
#END
