
#######################################################################
#
#                 Cambridge Crystallographic Data Centre
#                                CCDC
#
#######################################################################
#
# If this CIF has been generated from an entry in the Cambridge
# Structural Database, then it will include bibliographic, chemical,
# crystal, experimental, refinement or atomic coordinate data resulting
# from the CCDC's data processing and validation procedures.
#
#######################################################################

data_CSD_CIF_OWIFIM
_audit_creation_date 2021-06-14
_audit_creation_method CSD-ConQuest-V1
_database_code_CSD OWIFIM
_database_code_depnum_ccdc_archive 'CCDC 2078854'
_chemical_formula_sum 'C11 H13 Co1 N7 O3'
_chemical_formula_moiety
;
(C4 H4 Co1 N6 O2 1-)n,C7 H9 N1 O1 1+
;
_journal_coden_Cambridge 580
_journal_volume 204
_journal_year 2021
_journal_page_first 115263
_journal_name_full 'Polyhedron '
loop_
_publ_author_name
"F.A.Mautner"
"P.V.Jantscher"
"R.C.Fischer"
"K.Reichmann"
"S.S.Massoud"
"S.Speed"
"R.Vicente"
_chemical_name_systematic
;
catena-[bis(\m-dicyanamidato)-diaqua-cobalt(ii) 2,6-dimethylpyridine N-oxide]
;
_cell_volume   1470.315
_exptl_crystal_colour 'pink'
_exptl_crystal_density_diffrn 1.582
_exptl_crystal_description 'Block'
_diffrn_ambient_temperature 100.0
_diffrn_special_details
;
twin

;
#These two values have been output from a single CSD field.
_refine_ls_R_factor_gt 0.039
_refine_ls_wR_factor_gt 0.039
_symmetry_cell_setting monoclinic
_symmetry_space_group_name_H-M 'C c'
_symmetry_Int_Tables_number 9
loop_
_symmetry_equiv_pos_site_id
_symmetry_equiv_pos_as_xyz
1 x,y,z
2 x,-y,1/2+z
3 1/2+x,1/2+y,z
4 1/2+x,1/2-y,1/2+z
_cell_length_a 7.1881(3)
_cell_length_b 13.0449(5)
_cell_length_c 15.7517(8)
_cell_angle_alpha 90
_cell_angle_beta 95.456(2)
_cell_angle_gamma 90
_cell_formula_units_Z 4
loop_
_atom_type_symbol
_atom_type_radius_bond
C 0.68
H 0.23
Co 1.26
N 0.68
O 0.68
loop_
_atom_site_label
_atom_site_type_symbol
_atom_site_fract_x
_atom_site_fract_y
_atom_site_fract_z
Co1 Co 0.49987(12) 0.25092(3) 0.60928(6)
C1 C 0.4801(5) 0.4829(3) 0.6676(2)
N1 N 0.4733(4) 0.3942(2) 0.67214(17)
N2 N 0.7434(4) 0.6928(2) 0.64726(19)
C2 C 0.8724(4) 0.3652(3) 0.5557(2)
O1 O 0.6476(3) 0.18362(18) 0.71457(15)
H1 H 0.68320 0.23070 0.75180
H2 H 0.75130 0.15780 0.69960
O2 O 0.3538(3) 0.31537(18) 0.50262(15)
H3 H 0.31770 0.26720 0.46620
H4 H 0.24970 0.34220 0.51670
C3 C 0.6193(4) 0.6381(3) 0.6548(2)
N3 N 0.4690(4) 0.5837(2) 0.6642(2)
N4 N 0.7527(4) 0.3105(2) 0.56946(18)
C4 C 1.0153(5) 0.5189(3) 0.5431(2)
N5 N 1.0197(4) 0.4184(2) 0.5384(2)
N6 N 1.0263(4) 0.6075(2) 0.54490(18)
O3 O 0.2858(3) 0.21861(17) 0.35452(15)
C5 C 0.3706(5) 0.0529(3) 0.3227(2)
N7 N 0.2517(5) 0.11772(16) 0.3571(2)
C6 C 0.1835(6) -0.0879(3) 0.3621(2)
H5 H 0.15960 -0.15940 0.36400
C7 C 0.3374(5) -0.0516(3) 0.3255(2)
H6 H 0.42050 -0.09820 0.30220
C8 C 0.0973(5) 0.0850(2) 0.3936(2)
C9 C 0.0648(5) -0.0193(3) 0.3960(2)
H7 H -0.04100 -0.04420 0.42140
C10 C 0.5327(5) 0.0989(3) 0.2837(2)
H8 H 0.60670 0.14040 0.32630
H9 H 0.48680 0.14240 0.23540
H10 H 0.61100 0.04410 0.26360
C11 C -0.0238(5) 0.1633(3) 0.4288(2)
H11 H 0.04410 0.19610 0.47850
H12 H -0.13690 0.13040 0.44600
H13 H -0.05860 0.21520 0.38520
Co1B Co 0.99987(12) 0.75092(3) 0.60928(6)
N2B N 0.2434(4) 0.1928(2) 0.64726(19)
N6B N 0.5263(4) 0.1075(2) 0.54490(18)
#END
