
#######################################################################
#
#                 Cambridge Crystallographic Data Centre
#                                CCDC
#
#######################################################################
#
# If this CIF has been generated from an entry in the Cambridge
# Structural Database, then it will include bibliographic, chemical,
# crystal, experimental, refinement or atomic coordinate data resulting
# from the CCDC's data processing and validation procedures.
#
#######################################################################

data_CSD_CIF_OWIPOC
_audit_creation_date 2021-06-14
_audit_creation_method CSD-ConQuest-V1
_database_code_CSD OWIPOC
_database_code_depnum_ccdc_archive 'CCDC 2071913'
_chemical_formula_sum 'C42 H50 Eu2 N4 O20'
_chemical_formula_moiety
;
(C38 H30 Eu2 N2 O18 2-)n,2(C2 H8 N1 1+),2(H2 O1)
;
_journal_coden_Cambridge 1267
_journal_volume 236
_journal_year 2021
_journal_page_first 881
_journal_name_full 'Z.Kristallogr.-New Cryst.Struct. '
loop_
_publ_author_name
"Wenqi Song"
"Yanfang Zhu"
"Zong-Cheng Miao"
_chemical_name_systematic
;
catena-[bis(dimethylammonium) 
tetrakis(\m-benzene-1,4-dicarboxylato)-bis(N,N-dimethylformamide)-di-europium(
iii) dihydrate]
;
_cell_volume   2407.055
_exptl_crystal_density_diffrn 1.704
_exptl_crystal_description 'block'
_diffrn_ambient_temperature 296.1
#These two values have been output from a single CSD field.
_refine_ls_R_factor_gt 0.0304
_refine_ls_wR_factor_gt 0.0304
_symmetry_cell_setting monoclinic
_symmetry_space_group_name_H-M 'P 21/n'
_symmetry_Int_Tables_number 14
loop_
_symmetry_equiv_pos_site_id
_symmetry_equiv_pos_as_xyz
1 x,y,z
2 1/2-x,1/2+y,1/2-z
3 -x,-y,-z
4 -1/2+x,-1/2-y,-1/2+z
_cell_length_a 14.1635(8)
_cell_length_b 12.1381(6)
_cell_length_c 14.4528(7)
_cell_angle_alpha 90
_cell_angle_beta 104.361(2)
_cell_angle_gamma 90
_cell_formula_units_Z 2
loop_
_atom_type_symbol
_atom_type_radius_bond
C 0.68
H 0.23
Eu 1.98
N 0.68
O 0.68
loop_
_atom_site_label
_atom_site_type_symbol
_atom_site_fract_x
_atom_site_fract_y
_atom_site_fract_z
Eu1 Eu 0.58824(2) 0.44661(2) 0.41149(2)
O1 O 0.1602(2) 0.0904(2) 0.08142(17)
O2 O 0.0518(2) 0.0596(2) 0.16787(19)
O3 O 0.3241(2) 0.3784(2) 0.53380(18)
O4 O 0.44669(17) 0.3861(2) 0.46597(17)
O5 O 0.53850(19) 0.3712(2) 0.23894(17)
O6 O 0.6150(2) 0.5315(2) 0.25567(17)
O7 O 0.75204(19) 0.3961(3) 0.4107(2)
O8 O 0.8456(2) 0.3047(2) 0.3355(2)
O9 O 0.5985(2) 0.2368(2) 0.4318(2)
N1 N 0.6446(3) 0.1169(3) 0.5548(3)
C1 C 0.1301(3) 0.0968(3) 0.1564(2)
C2 C 0.1946(3) 0.1571(3) 0.2396(2)
C3 C 0.2849(3) 0.1963(3) 0.2341(2)
H1 H 0.30782 0.18160 0.18038
C4 C 0.3415(3) 0.2575(3) 0.3091(3)
H2 H 0.40221 0.28378 0.30549
C5 C 0.3071(2) 0.2794(3) 0.3892(2)
C6 C 0.2171(3) 0.2383(3) 0.3947(3)
H3 H 0.19436 0.25235 0.44864
C7 C 0.1613(3) 0.1768(3) 0.3209(3)
H4 H 0.10151 0.14868 0.32539
C8 C 0.3629(2) 0.3515(3) 0.4680(2)
C9 C 0.5638(3) 0.4601(3) 0.2042(2)
C10 C 0.5303(3) 0.4801(3) 0.0984(2)
C11 C 0.4827(3) 0.3982(3) 0.0364(2)
H5 H 0.47105 0.32984 0.06040
C12 C 0.5473(3) 0.5817(3) 0.0609(3)
H6 H 0.57920 0.63675 0.10162
C13 C 0.8330(3) 0.3751(3) 0.3949(2)
C14 C 0.9204(3) 0.4381(3) 0.4507(2)
C15 C 0.9120(3) 0.5061(3) 0.5257(3)
H7 H 0.85325 0.50993 0.54323
C16 C 1.0090(3) 0.4317(3) 0.4256(3)
H8 H 1.01530 0.38560 0.37604
C17 C 0.5823(3) 0.1845(3) 0.4997(3)
H9 H 0.52178 0.19357 0.51289
C18 C 0.6198(5) 0.0561(5) 0.6329(5)
H10 H 0.66268 0.07783 0.69248
H11 H 0.62669 -0.02152 0.62344
H12 H 0.55365 0.07193 0.63393
C19 C 0.7427(4) 0.1039(5) 0.5443(4)
H13 H 0.74869 0.03387 0.51550
H14 H 0.78776 0.10753 0.60601
H15 H 0.75691 0.16176 0.50453
O10 O 0.9297(4) 0.3047(5) 0.1765(4)
H16 H 0.97199 0.26213 0.16312
H17 H 0.91326 0.29168 0.22771
N2 N 0.6758(3) 0.1940(3) 0.2537(3)
H18 H 0.62772 0.23469 0.26519
H19 H 0.73163 0.21892 0.29064
C20 C 0.6621(4) 0.0789(4) 0.2790(4)
H20 H 0.60037 0.05270 0.24167
H21 H 0.66348 0.07427 0.34560
H22 H 0.71343 0.03439 0.26611
C21 C 0.6776(4) 0.2069(5) 0.1534(3)
H23 H 0.61575 0.18516 0.11315
H24 H 0.72804 0.16133 0.14005
H25 H 0.69008 0.28253 0.14116
O5B O 0.46150(19) 0.6288(2) -0.23894(17)
O6B O 0.3850(2) 0.4685(2) -0.25567(17)
C9B C 0.4362(3) 0.5399(3) -0.2042(2)
C10B C 0.4697(3) 0.5199(3) -0.0984(2)
C11B C 0.5173(3) 0.6018(3) -0.0364(2)
H5B H 0.52895 0.67016 -0.06040
C12B C 0.4527(3) 0.4183(3) -0.0609(3)
H6B H 0.42080 0.36325 -0.10162
O7B O 1.24796(19) 0.6039(3) 0.5893(2)
O8B O 1.1544(2) 0.6953(2) 0.6645(2)
C13B C 1.1670(3) 0.6249(3) 0.6051(2)
C14B C 1.0796(3) 0.5619(3) 0.5493(2)
C15B C 1.0880(3) 0.4939(3) 0.4743(3)
H7B H 1.14675 0.49007 0.45677
C16B C 0.9910(3) 0.5683(3) 0.5744(3)
H8B H 0.98470 0.61440 0.62396
Eu1B Eu 0.41176(2) 0.55339(2) -0.41149(2)
O1B O 0.8398(2) 0.9096(2) -0.08142(17)
O2B O 0.9482(2) 0.9404(2) -0.16787(19)
O3B O 0.6759(2) 0.6216(2) -0.53380(18)
O4B O 0.55331(17) 0.6139(2) -0.46597(17)
O9B O 0.4015(2) 0.7632(2) -0.4318(2)
N1B N 0.3554(3) 0.8831(3) -0.5548(3)
C1B C 0.8699(3) 0.9032(3) -0.1564(2)
C2B C 0.8054(3) 0.8429(3) -0.2396(2)
C3B C 0.7151(3) 0.8037(3) -0.2341(2)
H1B H 0.69218 0.81839 -0.18038
C4B C 0.6585(3) 0.7425(3) -0.3091(3)
H2B H 0.59779 0.71622 -0.30549
C5B C 0.6929(2) 0.7206(3) -0.3892(2)
C6B C 0.7829(3) 0.7617(3) -0.3947(3)
H3B H 0.80564 0.74765 -0.44864
C7B C 0.8387(3) 0.8232(3) -0.3209(3)
H4B H 0.89849 0.85132 -0.32539
C8B C 0.6371(2) 0.6485(3) -0.4680(2)
C17B C 0.4177(3) 0.8155(3) -0.4997(3)
H9B H 0.47822 0.80643 -0.51289
C18B C 0.3802(5) 0.9439(5) -0.6329(5)
H10B H 0.33732 0.92217 -0.69248
H11B H 0.37331 1.02152 -0.62344
H12B H 0.44635 0.92807 -0.63393
C19B C 0.2573(4) 0.8961(5) -0.5443(4)
H13B H 0.25131 0.96613 -0.51550
H14B H 0.21224 0.89247 -0.60601
H15B H 0.24309 0.83824 -0.50453
Eu1* Eu 0.58824(2) 0.44661(2) -0.58851(2)
Eu1A Eu -0.08824(2) -0.05339(2) 0.08851(2)
Eu1A* Eu 0.91176(2) 0.94661(2) 0.08851(2)
Eu1B* Eu 0.41176(2) 0.55339(2) 0.58851(2)
Eu1B** Eu 1.41176(2) 0.55339(2) 0.58851(2)
Eu1C Eu 0.08824(2) 0.05339(2) -0.08851(2)
Eu1C* Eu 1.08824(2) 1.05339(2) -0.08851(2)
O1A O 0.3398(2) 0.5904(2) -0.58142(17)
O1C O 0.6602(2) 0.4096(2) 0.58142(17)
O2A O 0.4482(2) 0.5596(2) 0.33213(19)
O2C O 0.5518(2) 0.4404(2) -0.33213(19)
O3* O 0.3241(2) 0.3784(2) -0.46620(18)
O3B* O 0.6759(2) 0.6216(2) 0.46620(18)
O4* O 0.44669(17) 0.3861(2) -0.53403(17)
O4B* O 0.55331(17) 0.6139(2) 0.53403(17)
O7B* O 0.24796(19) 0.6039(3) -0.4107(2)
#END
