
#######################################################################
#
#                 Cambridge Crystallographic Data Centre
#                                CCDC
#
#######################################################################
#
# If this CIF has been generated from an entry in the Cambridge
# Structural Database, then it will include bibliographic, chemical,
# crystal, experimental, refinement or atomic coordinate data resulting
# from the CCDC's data processing and validation procedures.
#
#######################################################################

data_CSD_CIF_OWITUK
_audit_creation_date 2011-09-14
_audit_creation_method CSD-ConQuest-V1
_database_code_CSD OWITUK
_database_code_depnum_ccdc_archive 'CCDC 839253'
_chemical_formula_sum 'C50 H96 Fe2 N2 O21'
_chemical_formula_moiety
;
(C18 H6 Fe2 O12 2-)n,2n(C16 H36 N1 1+),9n(H2 O1)
;
_journal_coden_Cambridge 1147
_journal_volume 11
_journal_year 2011
_journal_page_first 2717
_journal_name_full 'Cryst.Growth Des. '
loop_
_publ_author_name
"B.F.Abrahams"
"T.A.Hudson"
"L.J.McCormick"
"R.Robson"
_chemical_name_systematic
;
catena-(bis(tetrabutylammonium) 
tris(\m~2~-2,5-dioxy-1,4-benzoquinonato)-di-iron(ii) nonahydrate)
;
_cell_volume  10853.753
_exptl_crystal_colour 'black'
_exptl_crystal_density_diffrn 1.436
_exptl_crystal_description 'rod'
_diffrn_ambient_temperature 130
_refine_special_details
;
The SQUEEZE/PLATON program has been used to model the ammonium cations and 
the water molecules.
;
#These two values have been output from a single CSD field.
_refine_ls_R_factor_gt 0.0991
_refine_ls_wR_factor_gt 0.0991
_symmetry_cell_setting cubic
_symmetry_space_group_name_H-M 'I a -3 d'
_symmetry_Int_Tables_number 230
loop_
_symmetry_equiv_pos_site_id
_symmetry_equiv_pos_as_xyz
1 x,y,z
2 x,-y,1/2-z
3 1/2-x,-y,1/2+z
4 1/2-x,y,-z
5 1/4-y,3/4+x,1/4+z
6 1/4+y,3/4+x,3/4-z
7 1/4+y,1/4-x,3/4+z
8 1/4-y,1/4-x,1/4-z
9 y,z,x
10 1/2-y,-z,1/2+x
11 y,-z,1/2-x
12 1/2-y,z,-x
13 1/4-z,3/4+y,1/4+x
14 1/4-z,1/4-y,1/4-x
15 1/4+z,1/4-y,3/4+x
16 1/4+z,3/4+y,3/4-x
17 z,x,y
18 -z,1/2+x,1/2-y
19 -z,1/2-x,y
20 z,-x,1/2-y
21 1/4-x,1/4-z,1/4-y
22 1/4-x,3/4+z,1/4+y
23 3/4+x,3/4-z,1/4+y
24 1/4+x,3/4+z,3/4-y
25 1/2+x,1/2+y,1/2+z
26 1/2+x,1/2-y,-z
27 -x,1/2-y,z
28 -x,1/2+y,1/2-z
29 3/4-y,1/4+x,3/4+z
30 3/4+y,1/4+x,1/4-z
31 3/4+y,3/4-x,1/4+z
32 3/4-y,3/4-x,3/4-z
33 1/2+y,1/2+z,1/2+x
34 -y,1/2-z,x
35 1/2+y,1/2-z,-x
36 -y,1/2+z,1/2-x
37 3/4-z,1/4+y,3/4+x
38 3/4-z,3/4-y,3/4-x
39 3/4+z,3/4-y,1/4+x
40 3/4+z,1/4+y,1/4-x
41 1/2+z,1/2+x,1/2+y
42 1/2-z,x,-y
43 1/2-z,-x,1/2+y
44 1/2+z,1/2-x,-y
45 3/4-x,3/4-z,3/4-y
46 3/4-x,1/4+z,3/4+y
47 1/4+x,1/4-z,3/4+y
48 3/4+x,1/4+z,1/4-y
49 -x,-y,-z
50 -x,y,-1/2+z
51 -1/2+x,y,-1/2-z
52 -1/2+x,-y,z
53 -1/4+y,-3/4-x,-1/4-z
54 -1/4-y,-3/4-x,-3/4+z
55 -1/4-y,-1/4+x,-3/4-z
56 -1/4+y,-1/4+x,-1/4+z
57 -y,-z,-x
58 -1/2+y,z,-1/2-x
59 -y,z,-1/2+x
60 -1/2+y,-z,x
61 -1/4+z,-3/4-y,-1/4-x
62 -1/4+z,-1/4+y,-1/4+x
63 -1/4-z,-1/4+y,-3/4-x
64 -1/4-z,-3/4-y,-3/4+x
65 -z,-x,-y
66 z,-1/2-x,-1/2+y
67 z,-1/2+x,-y
68 -z,x,-1/2+y
69 -1/4+x,-1/4+z,-1/4+y
70 -1/4+x,-3/4-z,-1/4-y
71 -3/4-x,-3/4+z,-1/4-y
72 -1/4-x,-3/4-z,-3/4+y
73 -1/2-x,-1/2-y,-1/2-z
74 -1/2-x,-1/2+y,z
75 x,-1/2+y,-z
76 x,-1/2-y,-1/2+z
77 -3/4+y,-1/4-x,-3/4-z
78 -3/4-y,-1/4-x,-1/4+z
79 -3/4-y,-3/4+x,-1/4-z
80 -3/4+y,-3/4+x,-3/4+z
81 -1/2-y,-1/2-z,-1/2-x
82 y,-1/2+z,-x
83 -1/2-y,-1/2+z,x
84 y,-1/2-z,-1/2+x
85 -3/4+z,-1/4-y,-3/4-x
86 -3/4+z,-3/4+y,-3/4+x
87 -3/4-z,-3/4+y,-1/4-x
88 -3/4-z,-1/4-y,-1/4+x
89 -1/2-z,-1/2-x,-1/2-y
90 -1/2+z,-x,y
91 -1/2+z,x,-1/2-y
92 -1/2-z,-1/2+x,y
93 -3/4+x,-3/4+z,-3/4+y
94 -3/4+x,-1/4-z,-3/4-y
95 -1/4-x,-1/4+z,-3/4-y
96 -3/4-x,-1/4-z,-1/4+y
_cell_length_a 22.1408(10)
_cell_length_b 22.1408(10)
_cell_length_c 22.1408(10)
_cell_angle_alpha 90
_cell_angle_beta 90
_cell_angle_gamma 90
_cell_formula_units_Z 8
loop_
_atom_type_symbol
_atom_type_radius_bond
C 0.68
H 0.23
Fe 1.52
O 0.68
loop_
_atom_site_label
_atom_site_type_symbol
_atom_site_fract_x
_atom_site_fract_y
_atom_site_fract_z
Fe1 Fe 0.87500 0.37500 0.12500
O1 O 0.88404(15) 0.28434(17) 0.12822(17)
C1 C 0.93782(18) 0.26524(17) 0.12655(18)
C2 C 0.95388(18) 0.20388(18) 0.12500
H1 H 0.92420 0.17420 0.12500
Fe1K Fe 1.12500 0.12500 0.12500
Fe1A Fe 0.87500 0.62500 0.37500
Fe1C Fe 0.62500 0.37500 -0.12500
O1CA O 1.03434(15) 0.13404(17) 0.12178(17)
O1Z O 1.11596(15) 0.21566(17) 0.12822(17)
O1G O 0.96566(15) 0.36596(17) 0.12178(17)
O1LA O 0.87822(15) 0.46566(17) 0.13404(17)
O1R O 0.87178(15) 0.61596(17) 0.28434(17)
O1MA O 0.87822(15) 0.53434(17) 0.36596(17)
O1Q O 0.87178(15) 0.38404(17) 0.21566(17)
O1SA O 0.86596(15) 0.37822(17) 0.03434(17)
O1GA O 0.71566(15) 0.37178(17) -0.11596(17)
O1UA O 0.63404(15) 0.37822(17) -0.03434(17)
O1HA O 0.78434(15) 0.37178(17) 0.11596(17)
O1RA O 0.86596(15) 0.62178(17) 0.46566(17)
O1FA O 0.78434(15) 0.62822(17) 0.38404(17)
O1D O 0.96566(15) 0.63404(17) 0.37822(17)
O1A O 0.88404(15) 0.71566(17) 0.37178(17)
C1CA C 1.01524(18) 0.18782(17) 0.12345(18)
C1Z C 1.06218(18) 0.23476(17) 0.12655(18)
C1G C 0.98476(18) 0.31218(17) 0.12345(18)
C1LA C 0.87655(18) 0.48476(17) 0.18782(18)
C1R C 0.87345(18) 0.56218(17) 0.26524(18)
C1MA C 0.87655(18) 0.51524(17) 0.31218(18)
C1Q C 0.87345(18) 0.43782(17) 0.23476(18)
C1SA C 0.81218(18) 0.37655(17) 0.01524(18)
C1GA C 0.73476(18) 0.37345(17) -0.06218(18)
C1UA C 0.68782(18) 0.37655(17) -0.01524(18)
C1HA C 0.76524(18) 0.37345(17) 0.06218(18)
C2G C 1.04612(18) 0.29612(18) 0.12500
C2R C 0.87500(18) 0.54612(18) 0.20388
C2Q C 0.87500(18) 0.45388(18) 0.29612
C2GA C 0.79612(18) 0.37500(18) -0.04612
C2HA C 0.70388(18) 0.37500(18) 0.04612
H1G H 1.07580 0.32580 0.12500
H1R H 0.87500 0.57580 0.17420
H1Q H 0.87500 0.42420 0.32580
H1GA H 0.82580 0.37500 -0.07580
H1HA H 0.67420 0.37500 0.07580
#END
