
#######################################################################
#
#                 Cambridge Crystallographic Data Centre
#                                CCDC
#
#######################################################################
#
# If this CIF has been generated from an entry in the Cambridge
# Structural Database, then it will include bibliographic, chemical,
# crystal, experimental, refinement or atomic coordinate data resulting
# from the CCDC's data processing and validation procedures.
#
#######################################################################

data_CSD_CIF_OWITAQ
_audit_creation_date 2011-09-15
_audit_creation_method CSD-ConQuest-V1
_database_code_CSD OWITAQ
_database_code_depnum_ccdc_archive 'CCDC 839249'
_chemical_formula_sum 'C50 H90 N2 O18 Zn2'
_chemical_formula_moiety
;
(C18 H6 O12 Zn2 2-)n,2n(C16 H36 N1 1+),6n(H2 O1)
;
_journal_coden_Cambridge 1147
_journal_volume 11
_journal_year 2011
_journal_page_first 2717
_journal_name_full 'Cryst.Growth Des. '
loop_
_publ_author_name
"B.F.Abrahams"
"T.A.Hudson"
"L.J.McCormick"
"R.Robson"
_chemical_name_systematic
;
catena-(bis(tetrabutylammonium) 
tris(\m~2~-2,5-dioxy-1,4-benzoquinonato)-di-zinc(ii) hexahydrate)
;
_cell_volume  11038.921
_exptl_crystal_colour 'red'
_exptl_crystal_density_diffrn 1.369
_exptl_crystal_description 'block'
_diffrn_ambient_temperature 130
_refine_special_details
;
The SQUEEZE/PLATON program has been used to model the ammonium cations and 
the water molecules.
;
#These two values have been output from a single CSD field.
_refine_ls_R_factor_gt 0.0978
_refine_ls_wR_factor_gt 0.0978
_symmetry_cell_setting cubic
_symmetry_space_group_name_H-M 'I a -3 d'
_symmetry_Int_Tables_number 230
loop_
_symmetry_equiv_pos_site_id
_symmetry_equiv_pos_as_xyz
1 x,y,z
2 x,-y,1/2-z
3 1/2-x,-y,1/2+z
4 1/2-x,y,-z
5 1/4-y,3/4+x,1/4+z
6 1/4+y,3/4+x,3/4-z
7 1/4+y,1/4-x,3/4+z
8 1/4-y,1/4-x,1/4-z
9 y,z,x
10 1/2-y,-z,1/2+x
11 y,-z,1/2-x
12 1/2-y,z,-x
13 1/4-z,3/4+y,1/4+x
14 1/4-z,1/4-y,1/4-x
15 1/4+z,1/4-y,3/4+x
16 1/4+z,3/4+y,3/4-x
17 z,x,y
18 -z,1/2+x,1/2-y
19 -z,1/2-x,y
20 z,-x,1/2-y
21 1/4-x,1/4-z,1/4-y
22 1/4-x,3/4+z,1/4+y
23 3/4+x,3/4-z,1/4+y
24 1/4+x,3/4+z,3/4-y
25 1/2+x,1/2+y,1/2+z
26 1/2+x,1/2-y,-z
27 -x,1/2-y,z
28 -x,1/2+y,1/2-z
29 3/4-y,1/4+x,3/4+z
30 3/4+y,1/4+x,1/4-z
31 3/4+y,3/4-x,1/4+z
32 3/4-y,3/4-x,3/4-z
33 1/2+y,1/2+z,1/2+x
34 -y,1/2-z,x
35 1/2+y,1/2-z,-x
36 -y,1/2+z,1/2-x
37 3/4-z,1/4+y,3/4+x
38 3/4-z,3/4-y,3/4-x
39 3/4+z,3/4-y,1/4+x
40 3/4+z,1/4+y,1/4-x
41 1/2+z,1/2+x,1/2+y
42 1/2-z,x,-y
43 1/2-z,-x,1/2+y
44 1/2+z,1/2-x,-y
45 3/4-x,3/4-z,3/4-y
46 3/4-x,1/4+z,3/4+y
47 1/4+x,1/4-z,3/4+y
48 3/4+x,1/4+z,1/4-y
49 -x,-y,-z
50 -x,y,-1/2+z
51 -1/2+x,y,-1/2-z
52 -1/2+x,-y,z
53 -1/4+y,-3/4-x,-1/4-z
54 -1/4-y,-3/4-x,-3/4+z
55 -1/4-y,-1/4+x,-3/4-z
56 -1/4+y,-1/4+x,-1/4+z
57 -y,-z,-x
58 -1/2+y,z,-1/2-x
59 -y,z,-1/2+x
60 -1/2+y,-z,x
61 -1/4+z,-3/4-y,-1/4-x
62 -1/4+z,-1/4+y,-1/4+x
63 -1/4-z,-1/4+y,-3/4-x
64 -1/4-z,-3/4-y,-3/4+x
65 -z,-x,-y
66 z,-1/2-x,-1/2+y
67 z,-1/2+x,-y
68 -z,x,-1/2+y
69 -1/4+x,-1/4+z,-1/4+y
70 -1/4+x,-3/4-z,-1/4-y
71 -3/4-x,-3/4+z,-1/4-y
72 -1/4-x,-3/4-z,-3/4+y
73 -1/2-x,-1/2-y,-1/2-z
74 -1/2-x,-1/2+y,z
75 x,-1/2+y,-z
76 x,-1/2-y,-1/2+z
77 -3/4+y,-1/4-x,-3/4-z
78 -3/4-y,-1/4-x,-1/4+z
79 -3/4-y,-3/4+x,-1/4-z
80 -3/4+y,-3/4+x,-3/4+z
81 -1/2-y,-1/2-z,-1/2-x
82 y,-1/2+z,-x
83 -1/2-y,-1/2+z,x
84 y,-1/2-z,-1/2+x
85 -3/4+z,-1/4-y,-3/4-x
86 -3/4+z,-3/4+y,-3/4+x
87 -3/4-z,-3/4+y,-1/4-x
88 -3/4-z,-1/4-y,-1/4+x
89 -1/2-z,-1/2-x,-1/2-y
90 -1/2+z,-x,y
91 -1/2+z,x,-1/2-y
92 -1/2-z,-1/2+x,y
93 -3/4+x,-3/4+z,-3/4+y
94 -3/4+x,-1/4-z,-3/4-y
95 -1/4-x,-1/4+z,-3/4-y
96 -3/4-x,-1/4-z,-1/4+y
_cell_length_a 22.266(5)
_cell_length_b 22.266(5)
_cell_length_c 22.266(5)
_cell_angle_alpha 90
_cell_angle_beta 90
_cell_angle_gamma 90
_cell_formula_units_Z 8
loop_
_atom_type_symbol
_atom_type_radius_bond
C 0.68
H 0.23
O 0.68
Zn 1.22
loop_
_atom_site_label
_atom_site_type_symbol
_atom_site_fract_x
_atom_site_fract_y
_atom_site_fract_z
Zn1 Zn 0.37500 0.37500 0.37500
O1 O 0.36528(11) 0.37554(13) 0.46620(13)
C1 C 0.31221(14) 0.37598(17) 0.48559(13)
C2 C 0.29672(15) 0.37500 0.54672(15)
H1 H 0.32630 0.37500 0.57630
Zn1C Zn 0.12500 0.37500 0.62500
Zn1A Zn 0.37500 0.62500 0.12500
Zn1E Zn 0.62500 0.12500 0.37500
O1LA O 0.21620(11) 0.37446(13) 0.61528(13)
O1C O 0.13472(11) 0.37554(13) 0.53380(13)
O1KA O 0.28380(11) 0.37446(13) 0.38472(13)
O1H O 0.37554(11) 0.46620(13) 0.36528(13)
O1BA O 0.37446(11) 0.61528(13) 0.21620(13)
O1J O 0.37554(11) 0.53380(13) 0.13472(13)
O1EA O 0.37446(11) 0.38472(13) 0.28380(13)
O1P O 0.46620(11) 0.36528(13) 0.37554(13)
O1W O 0.61528(11) 0.21620(13) 0.37446(13)
O1R O 0.53380(11) 0.13472(13) 0.37554(13)
O1RA O 0.38472(11) 0.28380(13) 0.37446(13)
O1JA O 0.28380(11) 0.62554(13) 0.11528(13)
O1A O 0.36528(11) 0.62446(13) 0.03380(13)
O1SA O 0.38472(11) 0.71620(13) 0.12554(13)
O1S O 0.46620(11) 0.63472(13) 0.12446(13)
C1LA C 0.23559(14) 0.37402(17) 0.56221(13)
C1C C 0.18779(14) 0.37598(17) 0.51441(13)
C1KA C 0.26441(14) 0.37402(17) 0.43779(13)
C1H C 0.37598(14) 0.48559(17) 0.31221(13)
C1BA C 0.37402(14) 0.56221(17) 0.23559(13)
C1J C 0.37598(14) 0.51441(17) 0.18779(13)
C1EA C 0.37402(14) 0.43779(17) 0.26441(13)
C1P C 0.48559(14) 0.31221(17) 0.37598(13)
C1W C 0.56221(14) 0.23559(17) 0.37402(13)
C1R C 0.51441(14) 0.18779(17) 0.37598(13)
C1RA C 0.43779(14) 0.26441(17) 0.37402(13)
C2C C 0.20328(15) 0.37500 0.45328(15)
C2H C 0.37500(15) 0.54672 0.29672(15)
C2J C 0.37500(15) 0.45328 0.20328(15)
C2P C 0.54672(15) 0.29672 0.37500(15)
C2R C 0.45328(15) 0.20328 0.37500(15)
H1C H 0.17370 0.37500 0.42370
H1H H 0.37500 0.57630 0.32630
H1J H 0.37500 0.42370 0.17370
H1P H 0.57630 0.32630 0.37500
H1R H 0.42370 0.17370 0.37500
#END
