
#######################################################################
#
#                 Cambridge Crystallographic Data Centre
#                                CCDC
#
#######################################################################
#
# If this CIF has been generated from an entry in the Cambridge
# Structural Database, then it will include bibliographic, chemical,
# crystal, experimental, refinement or atomic coordinate data resulting
# from the CCDC's data processing and validation procedures.
#
#######################################################################

data_CSD_CIF_OWITOE
_audit_creation_date 2011-09-15
_audit_creation_method CSD-ConQuest-V1
_database_code_CSD OWITOE
_database_code_depnum_ccdc_archive 'CCDC 839252'
_chemical_formula_sum 'C50 H86 N2 Ni2 O16'
_chemical_formula_moiety
;
(C18 H6 Ni2 O12 2-)n,2n(C16 H36 N1 1+),4n(H2 O1)
;
_journal_coden_Cambridge 1147
_journal_volume 11
_journal_year 2011
_journal_page_first 2717
_journal_name_full 'Cryst.Growth Des. '
loop_
_publ_author_name
"B.F.Abrahams"
"T.A.Hudson"
"L.J.McCormick"
"R.Robson"
_chemical_name_systematic
;
catena-(bis(tetrabutylammonium) 
tris(\m~2~-2,5-dioxy-1,4-benzoquinonato)-di-nickel(ii) tetrahydrate)
;
_cell_volume  10795.912
_exptl_crystal_colour 'red'
_exptl_crystal_density_diffrn 1.34
_exptl_crystal_description 'block'
_diffrn_ambient_temperature 130
_refine_special_details
;
The SQUEEZE/PLATON program has been used to model the ammonium cations and 
the water molecules.
;
#These two values have been output from a single CSD field.
_refine_ls_R_factor_gt 0.1048
_refine_ls_wR_factor_gt 0.1048
_symmetry_cell_setting cubic
_symmetry_space_group_name_H-M 'I a -3 d'
_symmetry_Int_Tables_number 230
loop_
_symmetry_equiv_pos_site_id
_symmetry_equiv_pos_as_xyz
1 x,y,z
2 x,-y,1/2-z
3 1/2-x,-y,1/2+z
4 1/2-x,y,-z
5 1/4-y,3/4+x,1/4+z
6 1/4+y,3/4+x,3/4-z
7 1/4+y,1/4-x,3/4+z
8 1/4-y,1/4-x,1/4-z
9 y,z,x
10 1/2-y,-z,1/2+x
11 y,-z,1/2-x
12 1/2-y,z,-x
13 1/4-z,3/4+y,1/4+x
14 1/4-z,1/4-y,1/4-x
15 1/4+z,1/4-y,3/4+x
16 1/4+z,3/4+y,3/4-x
17 z,x,y
18 -z,1/2+x,1/2-y
19 -z,1/2-x,y
20 z,-x,1/2-y
21 1/4-x,1/4-z,1/4-y
22 1/4-x,3/4+z,1/4+y
23 3/4+x,3/4-z,1/4+y
24 1/4+x,3/4+z,3/4-y
25 1/2+x,1/2+y,1/2+z
26 1/2+x,1/2-y,-z
27 -x,1/2-y,z
28 -x,1/2+y,1/2-z
29 3/4-y,1/4+x,3/4+z
30 3/4+y,1/4+x,1/4-z
31 3/4+y,3/4-x,1/4+z
32 3/4-y,3/4-x,3/4-z
33 1/2+y,1/2+z,1/2+x
34 -y,1/2-z,x
35 1/2+y,1/2-z,-x
36 -y,1/2+z,1/2-x
37 3/4-z,1/4+y,3/4+x
38 3/4-z,3/4-y,3/4-x
39 3/4+z,3/4-y,1/4+x
40 3/4+z,1/4+y,1/4-x
41 1/2+z,1/2+x,1/2+y
42 1/2-z,x,-y
43 1/2-z,-x,1/2+y
44 1/2+z,1/2-x,-y
45 3/4-x,3/4-z,3/4-y
46 3/4-x,1/4+z,3/4+y
47 1/4+x,1/4-z,3/4+y
48 3/4+x,1/4+z,1/4-y
49 -x,-y,-z
50 -x,y,-1/2+z
51 -1/2+x,y,-1/2-z
52 -1/2+x,-y,z
53 -1/4+y,-3/4-x,-1/4-z
54 -1/4-y,-3/4-x,-3/4+z
55 -1/4-y,-1/4+x,-3/4-z
56 -1/4+y,-1/4+x,-1/4+z
57 -y,-z,-x
58 -1/2+y,z,-1/2-x
59 -y,z,-1/2+x
60 -1/2+y,-z,x
61 -1/4+z,-3/4-y,-1/4-x
62 -1/4+z,-1/4+y,-1/4+x
63 -1/4-z,-1/4+y,-3/4-x
64 -1/4-z,-3/4-y,-3/4+x
65 -z,-x,-y
66 z,-1/2-x,-1/2+y
67 z,-1/2+x,-y
68 -z,x,-1/2+y
69 -1/4+x,-1/4+z,-1/4+y
70 -1/4+x,-3/4-z,-1/4-y
71 -3/4-x,-3/4+z,-1/4-y
72 -1/4-x,-3/4-z,-3/4+y
73 -1/2-x,-1/2-y,-1/2-z
74 -1/2-x,-1/2+y,z
75 x,-1/2+y,-z
76 x,-1/2-y,-1/2+z
77 -3/4+y,-1/4-x,-3/4-z
78 -3/4-y,-1/4-x,-1/4+z
79 -3/4-y,-3/4+x,-1/4-z
80 -3/4+y,-3/4+x,-3/4+z
81 -1/2-y,-1/2-z,-1/2-x
82 y,-1/2+z,-x
83 -1/2-y,-1/2+z,x
84 y,-1/2-z,-1/2+x
85 -3/4+z,-1/4-y,-3/4-x
86 -3/4+z,-3/4+y,-3/4+x
87 -3/4-z,-3/4+y,-1/4-x
88 -3/4-z,-1/4-y,-1/4+x
89 -1/2-z,-1/2-x,-1/2-y
90 -1/2+z,-x,y
91 -1/2+z,x,-1/2-y
92 -1/2-z,-1/2+x,y
93 -3/4+x,-3/4+z,-3/4+y
94 -3/4+x,-1/4-z,-3/4-y
95 -1/4-x,-1/4+z,-3/4-y
96 -3/4-x,-1/4-z,-1/4+y
_cell_length_a 22.1014(13)
_cell_length_b 22.1014(13)
_cell_length_c 22.1014(13)
_cell_angle_alpha 90
_cell_angle_beta 90
_cell_angle_gamma 90
_cell_formula_units_Z 8
loop_
_atom_type_symbol
_atom_type_radius_bond
C 0.68
H 0.23
Ni 1.24
O 0.68
loop_
_atom_site_label
_atom_site_type_symbol
_atom_site_fract_x
_atom_site_fract_y
_atom_site_fract_z
Ni1 Ni 0.87500 0.37500 0.12500
O1 O 0.8838(2) 0.2833(2) 0.12635(19)
C1 C 0.9373(3) 0.2664(3) 0.1246(3)
C2 C 0.9534(4) 0.2034(4) 0.12500
H1 H 0.92370 0.17370 0.12500
Ni1K Ni 1.12500 0.12500 0.12500
Ni1A Ni 0.87500 0.62500 0.37500
Ni1C Ni 0.62500 0.37500 -0.12500
O1CA O 1.0333(2) 0.1338(2) 0.12365(19)
O1Z O 1.1162(2) 0.2167(2) 0.12635(19)
O1G O 0.9667(2) 0.3662(2) 0.12365(19)
O1LA O 0.87635(20) 0.4667(2) 0.13380(19)
O1R O 0.87365(20) 0.6162(2) 0.28330(19)
O1MA O 0.87635(20) 0.5333(2) 0.36620(19)
O1Q O 0.87365(20) 0.3838(2) 0.21670(19)
O1SA O 0.8662(2) 0.37635(20) 0.03330(19)
O1GA O 0.7167(2) 0.37365(20) -0.11620(19)
O1UA O 0.6338(2) 0.37635(20) -0.03330(19)
O1HA O 0.7833(2) 0.37365(20) 0.11620(19)
O1RA O 0.8662(2) 0.62365(20) 0.46670(19)
O1FA O 0.7833(2) 0.62635(20) 0.38380(19)
O1D O 0.9667(2) 0.6338(2) 0.37635(19)
O1A O 0.8838(2) 0.7167(2) 0.37365(19)
C1CA C 1.0164(3) 0.1873(3) 0.1254(3)
C1Z C 1.0627(3) 0.2336(3) 0.1246(3)
C1G C 0.9836(3) 0.3127(3) 0.1254(3)
C1LA C 0.8746(3) 0.4836(3) 0.1873(3)
C1R C 0.8754(3) 0.5627(3) 0.2664(3)
C1MA C 0.8746(3) 0.5164(3) 0.3127(3)
C1Q C 0.8754(3) 0.4373(3) 0.2336(3)
C1SA C 0.8127(3) 0.3746(3) 0.0164(3)
C1GA C 0.7336(3) 0.3754(3) -0.0627(3)
C1UA C 0.6873(3) 0.3746(3) -0.0164(3)
C1HA C 0.7664(3) 0.3754(3) 0.0627(3)
C2G C 1.0466(4) 0.2966(4) 0.12500
C2R C 0.8750(4) 0.5466(4) 0.20340
C2Q C 0.8750(4) 0.4534(4) 0.29660
C2GA C 0.7966(4) 0.3750(4) -0.04660
C2HA C 0.7034(4) 0.3750(4) 0.04660
H1G H 1.07630 0.32630 0.12500
H1R H 0.87500 0.57630 0.17370
H1Q H 0.87500 0.42370 0.32630
H1GA H 0.82630 0.37500 -0.07630
H1HA H 0.67370 0.37500 0.07630
#END
