
#######################################################################
#
#                 Cambridge Crystallographic Data Centre
#                                CCDC
#
#######################################################################
#
# If this CIF has been generated from an entry in the Cambridge
# Structural Database, then it will include bibliographic, chemical,
# crystal, experimental, refinement or atomic coordinate data resulting
# from the CCDC's data processing and validation procedures.
#
#######################################################################

data_CSD_CIF_OWITEU
_audit_creation_date 2011-09-15
_audit_creation_method CSD-ConQuest-V1
_database_code_CSD OWITEU
_database_code_depnum_ccdc_archive 'CCDC 839250'
_chemical_formula_sum 'C50 H92 Co2 N2 O19'
_chemical_formula_moiety
;
(C18 H6 Co2 O12 2-)n,2n(C16 H36 N1 1+),7n(H2 O1)
;
_journal_coden_Cambridge 1147
_journal_volume 11
_journal_year 2011
_journal_page_first 2717
_journal_name_full 'Cryst.Growth Des. '
loop_
_publ_author_name
"B.F.Abrahams"
"T.A.Hudson"
"L.J.McCormick"
"R.Robson"
_chemical_name_systematic
;
catena-(bis(tetrabutylammonium) 
tris(\m~2~-2,5-dioxy-1,4-benzoquinonato)-di-cobalt(ii) heptahydrate)
;
_cell_volume  11005.341
_exptl_crystal_colour 'black'
_exptl_crystal_density_diffrn 1.38
_exptl_crystal_description 'block'
_diffrn_ambient_temperature 130
_refine_special_details
;
The SQUEEZE/PLATON program has been used to model the ammonium cations and 
the water molecules.
;
#These two values have been output from a single CSD field.
_refine_ls_R_factor_gt 0.125
_refine_ls_wR_factor_gt 0.125
_symmetry_cell_setting cubic
_symmetry_space_group_name_H-M 'I a -3 d'
_symmetry_Int_Tables_number 230
loop_
_symmetry_equiv_pos_site_id
_symmetry_equiv_pos_as_xyz
1 x,y,z
2 x,-y,1/2-z
3 1/2-x,-y,1/2+z
4 1/2-x,y,-z
5 1/4-y,3/4+x,1/4+z
6 1/4+y,3/4+x,3/4-z
7 1/4+y,1/4-x,3/4+z
8 1/4-y,1/4-x,1/4-z
9 y,z,x
10 1/2-y,-z,1/2+x
11 y,-z,1/2-x
12 1/2-y,z,-x
13 1/4-z,3/4+y,1/4+x
14 1/4-z,1/4-y,1/4-x
15 1/4+z,1/4-y,3/4+x
16 1/4+z,3/4+y,3/4-x
17 z,x,y
18 -z,1/2+x,1/2-y
19 -z,1/2-x,y
20 z,-x,1/2-y
21 1/4-x,1/4-z,1/4-y
22 1/4-x,3/4+z,1/4+y
23 3/4+x,3/4-z,1/4+y
24 1/4+x,3/4+z,3/4-y
25 1/2+x,1/2+y,1/2+z
26 1/2+x,1/2-y,-z
27 -x,1/2-y,z
28 -x,1/2+y,1/2-z
29 3/4-y,1/4+x,3/4+z
30 3/4+y,1/4+x,1/4-z
31 3/4+y,3/4-x,1/4+z
32 3/4-y,3/4-x,3/4-z
33 1/2+y,1/2+z,1/2+x
34 -y,1/2-z,x
35 1/2+y,1/2-z,-x
36 -y,1/2+z,1/2-x
37 3/4-z,1/4+y,3/4+x
38 3/4-z,3/4-y,3/4-x
39 3/4+z,3/4-y,1/4+x
40 3/4+z,1/4+y,1/4-x
41 1/2+z,1/2+x,1/2+y
42 1/2-z,x,-y
43 1/2-z,-x,1/2+y
44 1/2+z,1/2-x,-y
45 3/4-x,3/4-z,3/4-y
46 3/4-x,1/4+z,3/4+y
47 1/4+x,1/4-z,3/4+y
48 3/4+x,1/4+z,1/4-y
49 -x,-y,-z
50 -x,y,-1/2+z
51 -1/2+x,y,-1/2-z
52 -1/2+x,-y,z
53 -1/4+y,-3/4-x,-1/4-z
54 -1/4-y,-3/4-x,-3/4+z
55 -1/4-y,-1/4+x,-3/4-z
56 -1/4+y,-1/4+x,-1/4+z
57 -y,-z,-x
58 -1/2+y,z,-1/2-x
59 -y,z,-1/2+x
60 -1/2+y,-z,x
61 -1/4+z,-3/4-y,-1/4-x
62 -1/4+z,-1/4+y,-1/4+x
63 -1/4-z,-1/4+y,-3/4-x
64 -1/4-z,-3/4-y,-3/4+x
65 -z,-x,-y
66 z,-1/2-x,-1/2+y
67 z,-1/2+x,-y
68 -z,x,-1/2+y
69 -1/4+x,-1/4+z,-1/4+y
70 -1/4+x,-3/4-z,-1/4-y
71 -3/4-x,-3/4+z,-1/4-y
72 -1/4-x,-3/4-z,-3/4+y
73 -1/2-x,-1/2-y,-1/2-z
74 -1/2-x,-1/2+y,z
75 x,-1/2+y,-z
76 x,-1/2-y,-1/2+z
77 -3/4+y,-1/4-x,-3/4-z
78 -3/4-y,-1/4-x,-1/4+z
79 -3/4-y,-3/4+x,-1/4-z
80 -3/4+y,-3/4+x,-3/4+z
81 -1/2-y,-1/2-z,-1/2-x
82 y,-1/2+z,-x
83 -1/2-y,-1/2+z,x
84 y,-1/2-z,-1/2+x
85 -3/4+z,-1/4-y,-3/4-x
86 -3/4+z,-3/4+y,-3/4+x
87 -3/4-z,-3/4+y,-1/4-x
88 -3/4-z,-1/4-y,-1/4+x
89 -1/2-z,-1/2-x,-1/2-y
90 -1/2+z,-x,y
91 -1/2+z,x,-1/2-y
92 -1/2-z,-1/2+x,y
93 -3/4+x,-3/4+z,-3/4+y
94 -3/4+x,-1/4-z,-3/4-y
95 -1/4-x,-1/4+z,-3/4-y
96 -3/4-x,-1/4-z,-1/4+y
_cell_length_a 22.2434(11)
_cell_length_b 22.2434(11)
_cell_length_c 22.2434(11)
_cell_angle_alpha 90
_cell_angle_beta 90
_cell_angle_gamma 90
_cell_formula_units_Z 8
loop_
_atom_type_symbol
_atom_type_radius_bond
C 0.68
H 0.23
Co 1.26
O 0.68
loop_
_atom_site_label
_atom_site_type_symbol
_atom_site_fract_x
_atom_site_fract_y
_atom_site_fract_z
Co1 Co 0.62500 0.62500 0.62500
O1 O 0.63467(18) 0.6260(2) 0.5328(2)
C1 C 0.6866(3) 0.6237(3) 0.5163(3)
C2 C 0.7028(2) 0.62500 0.4528(2)
H1 H 0.67320 0.62500 0.42320
Co1C Co 0.87500 0.62500 0.37500
Co1A Co 0.62500 0.37500 0.87500
Co1R Co 0.37500 0.87500 0.62500
O1N O 0.78280(18) 0.6240(2) 0.38467(20)
O1C O 0.86533(18) 0.6260(2) 0.4672(2)
O1M O 0.71720(18) 0.6240(2) 0.61533(20)
O1G O 0.62400(18) 0.61533(20) 0.7172(2)
O1J O 0.62600(18) 0.4672(2) 0.86533(20)
O1D O 0.62400(18) 0.38467(20) 0.7828(2)
O1H O 0.62600(18) 0.5328(2) 0.63467(20)
O1P O 0.53280(18) 0.63467(20) 0.6260(2)
O1UA O 0.38467(18) 0.7828(2) 0.6240(2)
O1R O 0.46720(18) 0.86533(20) 0.6260(2)
O1T O 0.61533(18) 0.7172(2) 0.6240(2)
O1U O 0.61533(18) 0.2828(2) 0.8760(2)
O1S O 0.53280(18) 0.36533(20) 0.8740(2)
O1A O 0.63467(18) 0.3740(2) 0.9672(2)
O1L O 0.71720(18) 0.3760(2) 0.88467(20)
C1N C 0.7663(3) 0.6263(3) 0.4366(3)
C1C C 0.8134(3) 0.6237(3) 0.4837(3)
C1M C 0.7337(3) 0.6263(3) 0.5634(3)
C1G C 0.6263(3) 0.5634(3) 0.7337(3)
C1J C 0.6237(3) 0.4837(3) 0.8134(3)
C1D C 0.6263(3) 0.4366(3) 0.7663(3)
C1H C 0.6237(3) 0.5163(3) 0.6866(3)
C1P C 0.5163(3) 0.6866(3) 0.6237(3)
C1UA C 0.4366(3) 0.7663(3) 0.6263(3)
C1R C 0.4837(3) 0.8134(3) 0.6237(3)
C1T C 0.5634(3) 0.7337(3) 0.6263(3)
C2C C 0.7972(2) 0.62500 0.5472(2)
C2G C 0.6250(2) 0.54720 0.7972(2)
C2D C 0.6250(2) 0.45280 0.7028(2)
C2P C 0.4528(2) 0.70280 0.6250(2)
C2R C 0.5472(2) 0.79720 0.6250(2)
H1C H 0.82680 0.62500 0.57680
H1G H 0.62500 0.57680 0.82680
H1D H 0.62500 0.42320 0.67320
H1P H 0.42320 0.67320 0.62500
H1R H 0.57680 0.82680 0.62500
#END
