
#######################################################################
#
#                 Cambridge Crystallographic Data Centre
#                                CCDC
#
#######################################################################
#
# If this CIF has been generated from an entry in the Cambridge
# Structural Database, then it will include bibliographic, chemical,
# crystal, experimental, refinement or atomic coordinate data resulting
# from the CCDC's data processing and validation procedures.
#
#######################################################################

data_CSD_CIF_OWIVEW
_audit_creation_date 2011-09-15
_audit_creation_method CSD-ConQuest-V1
_database_code_CSD OWIVEW
_database_code_depnum_ccdc_archive 'CCDC 839255'
_chemical_formula_sum 'C58 H104 Cl6 Mn2 N2 O20'
_chemical_formula_moiety
;
(C18 Cl6 Mn2 O12 2-)n,2n(C16 H36 N1 1+),8n(C1 H4 O1)
;
_journal_coden_Cambridge 1147
_journal_volume 11
_journal_year 2011
_journal_page_first 2717
_journal_name_full 'Cryst.Growth Des. '
loop_
_publ_author_name
"B.F.Abrahams"
"T.A.Hudson"
"L.J.McCormick"
"R.Robson"
_chemical_name_systematic
;
catena-(bis(tetrabutylammonium) 
tris(\m~2~-2,5-dioxy-3,6-dichloro-1,4-benzoquinonato)-di-manganese(ii) 
methanol solvate)
;
_chemical_name_common
;
catena-(bis(tetrabutylammonium) tris(mu!2$-chloranilato)-di-manganese(ii) 
methanol solvate)
;
_cell_volume  11742.280
_exptl_crystal_colour 'dark brown'
_exptl_crystal_density_diffrn 1.665
_exptl_crystal_description 'rod'
_diffrn_ambient_temperature 130
_refine_special_details
;
The SQUEEZE/PLATON program has been used to model the ammonium cations and 
the solvent molecules.
;
#These two values have been output from a single CSD field.
_refine_ls_R_factor_gt 0.0954
_refine_ls_wR_factor_gt 0.0954
_symmetry_cell_setting cubic
_symmetry_space_group_name_H-M 'I -4 3 d'
_symmetry_Int_Tables_number 220
loop_
_symmetry_equiv_pos_site_id
_symmetry_equiv_pos_as_xyz
1 x,y,z
2 1/2-x,-y,1/2+z
3 -x,1/2+y,1/2-z
4 1/2+x,1/2-y,-z
5 z,x,y
6 1/2+z,1/2-x,-y
7 1/2-z,-x,1/2+y
8 -z,1/2+x,1/2-y
9 y,z,x
10 -y,1/2+z,1/2-x
11 1/2+y,1/2-z,-x
12 1/2-y,-z,1/2+x
13 1/4+y,1/4+x,1/4+z
14 1/4-y,3/4-x,3/4+z
15 3/4+y,1/4-x,3/4-z
16 3/4-y,3/4+x,1/4-z
17 1/4+x,1/4+z,1/4+y
18 3/4-x,3/4+z,1/4-y
19 1/4-x,3/4-z,3/4+y
20 3/4+x,1/4-z,3/4-y
21 1/4+z,1/4+y,1/4+x
22 3/4+z,1/4-y,3/4-x
23 3/4-z,3/4+y,1/4-x
24 1/4-z,3/4-y,3/4+x
25 1/2+x,1/2+y,1/2+z
26 -x,1/2-y,z
27 1/2-x,y,-z
28 x,-y,1/2-z
29 1/2+z,1/2+x,1/2+y
30 z,-x,1/2-y
31 -z,1/2-x,y
32 1/2-z,x,-y
33 1/2+y,1/2+z,1/2+x
34 1/2-y,z,-x
35 y,-z,1/2-x
36 -y,1/2-z,x
37 3/4+y,3/4+x,3/4+z
38 3/4-y,1/4-x,1/4+z
39 1/4+y,3/4-x,1/4-z
40 1/4-y,1/4+x,3/4-z
41 3/4+x,3/4+z,3/4+y
42 1/4-x,1/4+z,3/4-y
43 3/4-x,1/4-z,1/4+y
44 1/4+x,3/4-z,1/4-y
45 3/4+z,3/4+y,3/4+x
46 1/4+z,3/4-y,1/4-x
47 1/4-z,1/4+y,3/4-x
48 3/4-z,1/4-y,1/4+x
_cell_length_a 22.7292(6)
_cell_length_b 22.7292(6)
_cell_length_c 22.7292(6)
_cell_angle_alpha 90
_cell_angle_beta 90
_cell_angle_gamma 90
_cell_formula_units_Z 8
loop_
_atom_type_symbol
_atom_type_radius_bond
C 0.68
Cl 0.99
Mn 1.61
O 0.68
loop_
_atom_site_label
_atom_site_type_symbol
_atom_site_fract_x
_atom_site_fract_y
_atom_site_fract_z
C1 C 0.4007(3) 0.5035(10) 0.1814(10)
Mn1 Mn 0.39116(9) 0.60884(9) 0.10884(9)
Cl1 Cl 0.4073(3) 0.3899(3) 0.16518(19)
O1 O 0.3949(5) 0.6097(6) 0.2068(5)
O2 O 0.3991(6) 0.5194(7) 0.1287(7)
C2 C 0.4042(7) 0.4502(7) 0.2105(9)
C3 C 0.3986(6) 0.5596(6) 0.2294(8)
C1AA C 0.4007(3) 0.4965(10) 0.3186(10)
C1F C 0.3186(3) 0.5993(10) 0.0035(10)
C1CA C 0.1814(3) 0.5993(10) -0.0035(10)
C1I C 0.4965(3) 0.6814(10) 0.0993(10)
C1HA C 0.5035(3) 0.8186(10) 0.0993(10)
Mn1AA Mn 0.39116(9) 0.39116(9) 0.39116(9)
Mn1Z Mn 0.10884(9) 0.60884(9) -0.10884(9)
Mn1Y Mn 0.60884(9) 0.89116(9) 0.10884(9)
Cl1AA Cl 0.4073(3) 0.6101(3) 0.33482(19)
Cl1F Cl 0.33482(30) 0.5927(3) -0.11010(19)
Cl1CA Cl 0.16518(30) 0.5927(3) 0.11010(19)
Cl1I Cl 0.6101(3) 0.66518(30) 0.09270(19)
Cl1HA Cl 0.3899(3) 0.83482(30) 0.09270(19)
O1AA O 0.3949(5) 0.3903(6) 0.2932(5)
O1F O 0.2932(5) 0.6051(6) 0.1097(5)
O1CA O 0.2068(5) 0.6051(6) -0.1097(5)
O1I O 0.3903(5) 0.7068(6) 0.1051(5)
O1HA O 0.6097(5) 0.7932(6) 0.1051(5)
O1EA O 0.2932(5) 0.3949(6) 0.3903(5)
O1IA O 0.3903(5) 0.2932(6) 0.3949(5)
O2AA O 0.3991(6) 0.4806(7) 0.3713(7)
O2F O 0.3713(6) 0.6009(7) 0.0194(7)
O2CA O 0.1287(6) 0.6009(7) -0.0194(7)
O2I O 0.4806(6) 0.6287(7) 0.1009(7)
O2HA O 0.5194(6) 0.8713(7) 0.1009(7)
O2EA O 0.3713(6) 0.3991(7) 0.4806(7)
O2IA O 0.4806(6) 0.3713(7) 0.3991(7)
C2AA C 0.4042(7) 0.5498(7) 0.2895(9)
C2F C 0.2895(7) 0.5958(7) -0.0498(9)
C2CA C 0.2105(7) 0.5958(7) 0.0498(9)
C2I C 0.5498(7) 0.7105(7) 0.0958(9)
C2HA C 0.4502(7) 0.7895(7) 0.0958(9)
C3AA C 0.3986(6) 0.4404(6) 0.2706(8)
C3F C 0.2706(6) 0.6014(6) 0.0596(8)
C3CA C 0.2294(6) 0.6014(6) -0.0596(8)
C3I C 0.4404(6) 0.7294(6) 0.1014(8)
C3HA C 0.5596(6) 0.7706(6) 0.1014(8)
#END
