
#######################################################################
#
#                 Cambridge Crystallographic Data Centre
#                                CCDC
#
#######################################################################
#
# If this CIF has been generated from an entry in the Cambridge
# Structural Database, then it will include bibliographic, chemical,
# crystal, experimental, refinement or atomic coordinate data resulting
# from the CCDC's data processing and validation procedures.
#
#######################################################################

data_CSD_CIF_OWIVAS
_audit_creation_date 2011-09-15
_audit_creation_method CSD-ConQuest-V1
_database_code_CSD OWIVAS
_database_code_depnum_ccdc_archive 'CCDC 839254'
_chemical_formula_sum 'C52 H86 N2 O14 Zn2'
_chemical_formula_moiety
;
(C18 H6 O12 Zn2 2-)n,2n(C16 H36 N1 1+),2n(C1 H4 O1)
;
_journal_coden_Cambridge 1147
_journal_volume 11
_journal_year 2011
_journal_page_first 2717
_journal_name_full 'Cryst.Growth Des. '
loop_
_publ_author_name
"B.F.Abrahams"
"T.A.Hudson"
"L.J.McCormick"
"R.Robson"
_chemical_name_systematic
;
catena-(bis(tetrabutylammonium) 
tris(\m~2~-2,5-dioxy-1,4-benzoquinonato)-di-zinc(ii) methanol solvate)
;
_cell_volume  10963.241
_exptl_crystal_colour 'red'
_exptl_crystal_density_diffrn 1.326
_exptl_crystal_description 'hexagonal plate'
_diffrn_ambient_temperature 130
_refine_special_details
;
The SQUEEZE/PLATON program has been used to model the ammonium cations and 
the solvent molecules.
;
#These two values have been output from a single CSD field.
_refine_ls_R_factor_gt 0.0873
_refine_ls_wR_factor_gt 0.0873
_symmetry_cell_setting cubic
_symmetry_space_group_name_H-M 'I a -3 d'
_symmetry_Int_Tables_number 230
loop_
_symmetry_equiv_pos_site_id
_symmetry_equiv_pos_as_xyz
1 x,y,z
2 1/2-x,-y,1/2+z
3 -x,1/2+y,1/2-z
4 1/2+x,1/2-y,-z
5 z,x,y
6 1/2+z,1/2-x,-y
7 1/2-z,-x,1/2+y
8 -z,1/2+x,1/2-y
9 y,z,x
10 -y,1/2+z,1/2-x
11 1/2+y,1/2-z,-x
12 1/2-y,-z,1/2+x
13 3/4+y,1/4+x,1/4-z
14 3/4-y,3/4-x,3/4-z
15 1/4+y,1/4-x,3/4+z
16 1/4-y,3/4+x,1/4+z
17 3/4+x,1/4+z,1/4-y
18 1/4-x,3/4+z,1/4+y
19 3/4-x,3/4-z,3/4-y
20 1/4+x,1/4-z,3/4+y
21 3/4+z,1/4+y,1/4-x
22 1/4+z,1/4-y,3/4+x
23 1/4-z,3/4+y,1/4+x
24 3/4-z,3/4-y,3/4-x
25 1/2+x,1/2+y,1/2+z
26 -x,1/2-y,z
27 1/2-x,y,-z
28 x,-y,1/2-z
29 1/2+z,1/2+x,1/2+y
30 z,-x,1/2-y
31 -z,1/2-x,y
32 1/2-z,x,-y
33 1/2+y,1/2+z,1/2+x
34 1/2-y,z,-x
35 y,-z,1/2-x
36 -y,1/2-z,x
37 1/4+y,3/4+x,3/4-z
38 1/4-y,1/4-x,1/4-z
39 3/4+y,3/4-x,1/4+z
40 3/4-y,1/4+x,3/4+z
41 1/4+x,3/4+z,3/4-y
42 3/4-x,1/4+z,3/4+y
43 1/4-x,1/4-z,1/4-y
44 3/4+x,3/4-z,1/4+y
45 1/4+z,3/4+y,3/4-x
46 3/4+z,3/4-y,1/4+x
47 3/4-z,1/4+y,3/4+x
48 1/4-z,1/4-y,1/4-x
49 -x,-y,-z
50 -1/2+x,y,-1/2-z
51 x,-1/2-y,-1/2+z
52 -1/2-x,-1/2+y,z
53 -z,-x,-y
54 -1/2-z,-1/2+x,y
55 -1/2+z,x,-1/2-y
56 z,-1/2-x,-1/2+y
57 -y,-z,-x
58 y,-1/2-z,-1/2+x
59 -1/2-y,-1/2+z,x
60 -1/2+y,z,-1/2-x
61 -3/4-y,-1/4-x,-1/4+z
62 -3/4+y,-3/4+x,-3/4+z
63 -1/4-y,-1/4+x,-3/4-z
64 -1/4+y,-3/4-x,-1/4-z
65 -3/4-x,-1/4-z,-1/4+y
66 -1/4+x,-3/4-z,-1/4-y
67 -3/4+x,-3/4+z,-3/4+y
68 -1/4-x,-1/4+z,-3/4-y
69 -3/4-z,-1/4-y,-1/4+x
70 -1/4-z,-1/4+y,-3/4-x
71 -1/4+z,-3/4-y,-1/4-x
72 -3/4+z,-3/4+y,-3/4+x
73 -1/2-x,-1/2-y,-1/2-z
74 x,-1/2+y,-z
75 -1/2+x,-y,z
76 -x,y,-1/2+z
77 -1/2-z,-1/2-x,-1/2-y
78 -z,x,-1/2+y
79 z,-1/2+x,-y
80 -1/2+z,-x,y
81 -1/2-y,-1/2-z,-1/2-x
82 -1/2+y,-z,x
83 -y,z,-1/2+x
84 y,-1/2+z,-x
85 -1/4-y,-3/4-x,-3/4+z
86 -1/4+y,-1/4+x,-1/4+z
87 -3/4-y,-3/4+x,-1/4-z
88 -3/4+y,-1/4-x,-3/4-z
89 -1/4-x,-3/4-z,-3/4+y
90 -3/4+x,-1/4-z,-3/4-y
91 -1/4+x,-1/4+z,-1/4+y
92 -3/4-x,-3/4+z,-1/4-y
93 -1/4-z,-3/4-y,-3/4+x
94 -3/4-z,-3/4+y,-1/4-x
95 -3/4+z,-1/4-y,-3/4-x
96 -1/4+z,-1/4+y,-1/4+x
_cell_length_a 22.215(3)
_cell_length_b 22.215(3)
_cell_length_c 22.215(3)
_cell_angle_alpha 90
_cell_angle_beta 90
_cell_angle_gamma 90
_cell_formula_units_Z 8
loop_
_atom_type_symbol
_atom_type_radius_bond
C 0.68
H 0.23
O 0.68
Zn 1.22
loop_
_atom_site_label
_atom_site_type_symbol
_atom_site_fract_x
_atom_site_fract_y
_atom_site_fract_z
Zn1 Zn 0.12500 0.12500 0.12500
O1 O 0.1375(3) 0.1233(4) 0.0326(3)
C1 C 0.1875(5) 0.1230(5) 0.0145(4)
C2 C 0.2037(5) 0.12500 -0.0463(5)
H1 H 0.17350 0.12500 -0.07650
Zn1N Zn 0.37500 0.12500 -0.12500
Zn1O Zn 0.12500 -0.12500 0.37500
Zn1L Zn -0.12500 0.37500 0.12500
O1U O 0.2826(3) 0.1267(4) -0.1125(3)
O1Z O 0.3625(3) 0.1233(4) -0.0326(3)
O1UA O 0.2174(3) 0.1267(4) 0.1125(3)
O1H O 0.1233(3) 0.0326(4) 0.1375(3)
O1O O 0.1267(3) -0.1125(4) 0.2826(3)
O1HA O 0.1233(3) -0.0326(4) 0.3625(3)
O1KA O 0.1267(3) 0.1125(4) 0.2174(3)
O1D O 0.0326(3) 0.1375(4) 0.1233(3)
O1P O -0.1125(3) 0.2826(4) 0.1267(3)
O1DA O -0.0326(3) 0.3625(4) 0.1233(3)
O1PA O 0.1125(3) 0.2174(4) 0.1267(3)
O1V O 0.2174(3) -0.1267(4) 0.3875(3)
O1AA O 0.1375(3) -0.1233(4) 0.4674(3)
O1Q O 0.1125(3) -0.2174(4) 0.3733(3)
O1CA O 0.0326(3) -0.1375(4) 0.3767(3)
C1U C 0.2645(5) 0.1270(5) -0.0625(4)
C1Z C 0.3125(5) 0.1230(5) -0.0145(4)
C1UA C 0.2355(5) 0.1270(5) 0.0625(4)
C1H C 0.1230(5) 0.0145(5) 0.1875(4)
C1O C 0.1270(5) -0.0625(5) 0.2645(4)
C1HA C 0.1230(5) -0.0145(5) 0.3125(4)
C1KA C 0.1270(5) 0.0625(5) 0.2355(4)
C1D C 0.0145(5) 0.1875(5) 0.1230(4)
C1P C -0.0625(5) 0.2645(5) 0.1270(4)
C1DA C -0.0145(5) 0.3125(5) 0.1230(4)
C1PA C 0.0625(5) 0.2355(5) 0.1270(4)
C2Z C 0.2963(5) 0.12500 0.0463(5)
C2H C 0.1250(5) -0.04630 0.2037(5)
C2HA C 0.1250(5) 0.04630 0.2963(5)
C2D C -0.0463(5) 0.20370 0.1250(5)
C2DA C 0.0463(5) 0.29630 0.1250(5)
H1Z H 0.32650 0.12500 0.07650
H1H H 0.12500 -0.07650 0.17350
H1HA H 0.12500 0.07650 0.32650
H1D H -0.07650 0.17350 0.12500
H1DA H 0.07650 0.32650 0.12500
#END
