
#######################################################################
#
#                 Cambridge Crystallographic Data Centre
#                                CCDC
#
#######################################################################
#
# If this CIF has been generated from an entry in the Cambridge
# Structural Database, then it will include bibliographic, chemical,
# crystal, experimental, refinement or atomic coordinate data resulting
# from the CCDC's data processing and validation procedures.
#
#######################################################################

data_CSD_CIF_OWUHIZ
_audit_creation_date 2016-10-14
_audit_creation_method CSD-ConQuest-V1
_database_code_CSD OWUHIZ
_database_code_depnum_ccdc_archive 'CCDC 1437729'
_chemical_formula_sum 'C43 H57 Cd1 N5 O11'
_chemical_formula_moiety
;
2(C2 H8 N1 1+),n(C30 H20 Cd1 O8 2-),3(C3 H7 N1 O1)
;
_journal_coden_Cambridge 910
_journal_volume 26
_journal_year 2016
_journal_page_first 413
_journal_name_full 'J.Inorg.Organomet.Polym.Mater. '
loop_
_publ_author_name
"Haifu Guo"
"Jiamei Lei"
"Liang Qin"
"Yunqiu Liang"
"Jingjing Yan"
"Weijie Lin"
"Wanqiu Ding"
"H.Sakiyama"
"Jianqiang Liu"
"Deyun Ma"
_chemical_name_systematic
;
catena-[bis(Dimethylammonium) bis(\m-4,4'-methylenedibenzoato)-cadmium(ii) 
N,N-dimethylformamide solvate]
;
_cell_volume   2293.075
_exptl_crystal_colour 'colorless'
_exptl_crystal_density_diffrn 1.35
_exptl_crystal_description 'block'
_diffrn_ambient_temperature 293
_refine_special_details
;
C41A,C42A,C43A and C41B,C42B,C43B disordered over two sites with occupancies 
0.610:0.390.
;
#These two values have been output from a single CSD field.
_refine_ls_R_factor_gt 0.0606
_refine_ls_wR_factor_gt 0.0606
_symmetry_cell_setting triclinic
_symmetry_space_group_name_H-M 'P -1'
_symmetry_Int_Tables_number 2
loop_
_symmetry_equiv_pos_site_id
_symmetry_equiv_pos_as_xyz
1 x,y,z
2 -x,-y,-z
_cell_length_a 12.6855(8)
_cell_length_b 13.4334(9)
_cell_length_c 15.2637(10)
_cell_angle_alpha 77.180(2)
_cell_angle_beta 89.964(2)
_cell_angle_gamma 65.370(2)
_cell_formula_units_Z 2
loop_
_atom_type_symbol
_atom_type_radius_bond
C 0.68
H 0.23
Cd 1.44
N 0.68
O 0.68
loop_
_atom_site_label
_atom_site_type_symbol
_atom_site_fract_x
_atom_site_fract_y
_atom_site_fract_z
C1 C 0.5178(4) 1.2529(3) 0.9123(3)
C2 C 0.6107(3) 1.1447(3) 0.9692(3)
C3 C 0.7267(4) 1.1133(4) 0.9584(3)
H1 H 0.74920 1.16170 0.91770
C4 C 0.8107(3) 1.0108(4) 1.0073(3)
H2 H 0.88860 0.99150 0.99850
C5 C 0.7820(3) 0.9361(3) 1.0689(3)
C6 C 0.6654(4) 0.9686(4) 1.0794(3)
H3 H 0.64310 0.92060 1.12070
C7 C 0.5806(4) 1.0705(4) 1.0303(3)
H4 H 0.50260 1.08930 1.03850
C8 C 0.8725(3) 0.8259(3) 1.1244(3)
H5 H 0.83370 0.78170 1.15580
H6 H 0.91360 0.84100 1.16960
C9 C 0.9606(3) 0.7566(3) 1.0694(3)
C10 C 1.0703(4) 0.7526(4) 1.0684(3)
H7 H 1.09050 0.79320 1.10190
C11 C 1.1510(4) 0.6900(4) 1.0190(3)
H8 H 1.22420 0.69020 1.01860
C12 C 1.1251(3) 0.6265(3) 0.9697(3)
C13 C 1.0142(4) 0.6311(4) 0.9698(3)
H9 H 0.99360 0.59090 0.93620
C14 C 0.9330(4) 0.6952(4) 1.0198(3)
H10 H 0.85910 0.69670 1.01970
C15 C 1.2148(5) 0.5564(4) 0.9175(3)
C16 C 0.2921(4) 1.3153(3) 0.6783(3)
C17 C 0.2719(3) 1.2531(3) 0.6134(3)
C18 C 0.1808(4) 1.2221(4) 0.6205(3)
H11 H 0.12920 1.24250 0.66360
C19 C 0.1659(4) 1.1608(4) 0.5638(3)
H12 H 0.10450 1.13980 0.56940
C20 C 0.2411(4) 1.1300(3) 0.4989(3)
C21 C 0.3293(4) 1.1646(4) 0.4907(3)
H13 H 0.37900 1.14690 0.44600
C22 C 0.3457(4) 1.2250(4) 0.5473(3)
H14 H 0.40640 1.24680 0.54110
C23 C 0.2261(5) 1.0585(4) 0.4387(3)
H15 H 0.14760 1.09610 0.40800
H16 H 0.28020 1.05210 0.39300
C24 C 0.2473(4) 0.9420(4) 0.4923(3)
C25 C 0.1644(4) 0.9003(4) 0.4904(3)
H17 H 0.09500 0.94400 0.45320
C26 C 0.1824(4) 0.7962(4) 0.5421(3)
H18 H 0.12490 0.77080 0.53930
C27 C 0.2845(4) 0.7280(3) 0.5985(3)
C28 C 0.3680(4) 0.7689(4) 0.5982(3)
H19 H 0.43830 0.72440 0.63420
C29 C 0.3502(4) 0.8733(4) 0.5464(3)
H20 H 0.40860 0.89790 0.54780
Cd1 Cd 0.33748(2) 1.42469(2) 0.79425(2)
O1 O 0.4153(3) 1.2625(3) 0.9091(2)
O2 O 0.5467(3) 1.3266(3) 0.8697(2)
O3 O 1.3174(3) 0.5412(3) 0.9301(3)
O4 O 1.1790(3) 0.5151(3) 0.8630(2)
O5 O 0.2153(2) 1.3533(2) 0.72904(19)
O6 O 0.3866(3) 1.3233(3) 0.6805(2)
C30 C 0.2988(4) 0.6195(4) 0.6595(3)
O7 O 0.2211(3) 0.5873(3) 0.6563(2)
O8 O 0.3876(3) 0.5664(3) 0.7163(2)
C31 C 0.4076(7) -0.0426(6) 0.2289(5)
H21 H 0.46520 -0.09680 0.27690
H22 H 0.43120 -0.05970 0.17220
H23 H 0.33400 -0.04550 0.23820
C32 C 0.3003(7) 0.1660(11) 0.1812(8)
H24 H 0.29060 0.22720 0.20790
H25 H 0.23120 0.15320 0.18500
H26 H 0.31340 0.18460 0.11900
C33 C 0.4732(8) 0.0818(8) 0.2724(5)
H27 H 0.54310 0.02470 0.30270
N1 N 0.3966(4) 0.0675(4) 0.2279(3)
O9 O 0.4370(13) 0.1895(9) 0.2680(5)
C34 C -0.0420(7) 0.9675(7) 0.7842(7)
H28 H -0.10780 0.96690 0.75370
H29 H -0.03830 1.03830 0.76040
H30 H -0.05000 0.95780 0.84770
C35 C 0.1696(7) 0.8870(7) 0.7829(5)
H31 H 0.23260 0.82160 0.77180
H32 H 0.18160 0.89150 0.84380
H33 H 0.16670 0.95360 0.74150
C36 C 0.0563(5) 0.7900(5) 0.7508(3)
H34 H 0.12750 0.73200 0.74630
N2 N 0.0610(4) 0.8788(4) 0.7704(3)
O10 O -0.0298(4) 0.7741(4) 0.7377(3)
C37 C 0.4973(5) 0.6470(5) 0.8941(4)
H35 H 0.55550 0.65630 0.92710
H36 H 0.43630 0.64720 0.93140
H37 H 0.46530 0.70790 0.84090
C38 C 0.6395(5) 0.5245(5) 0.8109(4)
H38 H 0.61240 0.58100 0.75480
H39 H 0.66210 0.45120 0.79950
H40 H 0.70530 0.52730 0.83940
N3 N 0.5474(4) 0.5455(4) 0.8693(4)
H41 H 0.48970 0.53670 0.84260
H42 H 0.57510 0.49030 0.92050
C39 C 0.9812(5) 0.5776(5) 0.6062(4)
H43 H 0.99450 0.50820 0.59070
H44 H 1.02880 0.60990 0.57350
H45 H 0.90060 0.62950 0.59080
C40 C 0.9358(5) 0.5208(6) 0.7595(4)
H46 H 0.85870 0.58120 0.74930
H47 H 0.96520 0.50250 0.82170
H48 H 0.93330 0.45560 0.74540
N4 N 1.0113(3) 0.5556(3) 0.7026(3)
H49 H 1.08470 0.50130 0.71710
H50 H 1.01020 0.61860 0.71470
C41 C 0.1992(9) 0.7032(11) 0.3225(8)
H51 H 0.20990 0.75740 0.27850
C42 C 0.2802(12) 0.5328(9) 0.4342(8)
H52 H 0.20480 0.53480 0.42290
H53 H 0.29240 0.53330 0.49620
H54 H 0.33930 0.46540 0.42230
C43 C 0.3929(8) 0.6400(11) 0.3763(8)
H55 H 0.37690 0.71790 0.36950
H56 H 0.43330 0.61390 0.32690
H57 H 0.44060 0.59590 0.43220
N5 N 0.2863(4) 0.6288(5) 0.3769(3)
O11 O 0.1017(5) 0.7057(7) 0.3261(5)
C44? C 0.1845(10) 0.6365(13) 0.3829(10)
H58? H 0.17060 0.58900 0.43120
C45? C 0.3122(15) 0.7149(12) 0.3228(12)
H59? H 0.26180 0.74770 0.26730
H60? H 0.39190 0.68290 0.30980
H61? H 0.30040 0.77210 0.35470
C46? C 0.3799(12) 0.5405(15) 0.4415(11)
H62? H 0.40700 0.57350 0.48090
H63? H 0.44300 0.49990 0.40990
H64? H 0.35190 0.48950 0.47650
Cd1* Cd 0.33748(2) 0.42469(2) 0.79425(2)
Cd1** Cd 1.33748(2) 0.42469(2) 0.79425(2)
O3* O 0.3174(3) 1.5412(3) 0.9301(3)
O4* O 0.1790(3) 1.5151(3) 0.8630(2)
O7* O 0.2211(3) 1.5873(3) 0.6563(2)
O8* O 0.3876(3) 1.5664(3) 0.7163(2)
#END
