
#######################################################################
#
#                 Cambridge Crystallographic Data Centre
#                                CCDC
#
#######################################################################
#
# If this CIF has been generated from an entry in the Cambridge
# Structural Database, then it will include bibliographic, chemical,
# crystal, experimental, refinement or atomic coordinate data resulting
# from the CCDC's data processing and validation procedures.
#
#######################################################################

data_CSD_CIF_OXALEF
_audit_creation_date 2011-10-03
_audit_creation_method CSD-ConQuest-V1
_database_code_CSD OXALEF
_database_code_depnum_ccdc_archive 'CCDC 793865'
_chemical_formula_sum 'C102 H136 Mn3 N10 O32'
_chemical_formula_moiety
;
(C66 H48 Mn3 O24 2-)n,2n(C2 H8 N1 1+),8n(C4 H9 N1 O1)
;
_journal_coden_Cambridge 9
_journal_volume 50
_journal_year 2011
_journal_page_first 2264
_journal_name_full 'Inorg.Chem. '
loop_
_publ_author_name
"Tian-Fu Liu"
"Jian Lu"
"Chongbin Tian"
"Minna Cao"
"Zujin Lin"
"Rong Cao"
_chemical_name_systematic
;
catena-(bis(\m~7~-4-(3-(4-Carboxyphenoxy)-2,2-bis((4-carboxyphenoxy)methyl)pro
poxy)benzoato)-tri-manganese bis(dimethylammonium) N,N-dimethylacetamide 
solvate)
;
_cell_volume   2750.098
_exptl_crystal_colour 'colorless'
_exptl_special_details
;
Study temperature given as 173 K and 293.1 K in the CIF

;
_exptl_crystal_description 'prism'
_diffrn_ambient_temperature 173
_refine_special_details
;
C37,N2 and C40,N3 disordered over two sites with occupancies 0.50:0.50; 
C41,N4 and C45,N5 disordered over two sites with occupancies 0.50:0.50; 
C49,N6 and C50,N7 disordered over two sites with occupancies 0.50:0.50.
;
#These two values have been output from a single CSD field.
_refine_ls_R_factor_gt 0.0707
_refine_ls_wR_factor_gt 0.0707
_symmetry_cell_setting triclinic
_symmetry_space_group_name_H-M 'P -1'
_symmetry_Int_Tables_number 2
loop_
_symmetry_equiv_pos_site_id
_symmetry_equiv_pos_as_xyz
1 x,y,z
2 -x,-y,-z
_cell_length_a 11.775(3)
_cell_length_b 16.113(5)
_cell_length_c 16.346(5)
_cell_angle_alpha 108.244(2)
_cell_angle_beta 101.663(4)
_cell_angle_gamma 102.559(2)
_cell_formula_units_Z 1
loop_
_atom_type_symbol
_atom_type_radius_bond
C 0.68
H 0.23
Mn 1.39
N 0.68
O 0.68
loop_
_atom_site_label
_atom_site_type_symbol
_atom_site_fract_x
_atom_site_fract_y
_atom_site_fract_z
Mn1 Mn 0.18914(3) 0.895251(18) 0.390359(18)
O1 O 0.4850(2) 0.48812(15) 0.1618(2)
N1 N 0.0707(4) 0.1350(4) 0.4643(4)
C1 C 0.4564(2) 0.33966(13) 0.05618(14)
Mn2 Mn 0.50000 1.00000 0.50000
O2 O 0.47283(14) 0.86937(10) 0.41177(10)
N2 N 0.1109(12) 0.4338(11) 0.3516(9)
C2 C 0.3980(2) 0.41305(16) 0.09817(19)
H1 H 0.35440 0.43030 0.05070
H2 H 0.33820 0.38790 0.12570
O3 O 0.27732(15) 0.81304(11) 0.32933(12)
C3 C 0.4513(3) 0.56513(18) 0.1988(2)
O4 O 0.67441(18) 0.40528(12) 0.12362(15)
N3 N 0.6492(8) 0.3356(5) 0.4609(5)
C4 C 0.5466(3) 0.6389(2) 0.2584(3)
H3 H 0.62740 0.63520 0.26830
O5 O 1.02853(16) 0.81445(11) 0.28002(14)
O6 O 1.06102(19) 0.77904(15) 0.39942(14)
N4 N 0.0893(9) 0.7308(10) 0.0407(7)
C5 C 0.4073(2) 0.72468(14) 0.29357(15)
O7 O 0.41267(16) 0.20664(11) -0.07427(10)
C6 C 0.3118(2) 0.65030(16) 0.23233(18)
H4 H 0.23100 0.65380 0.22330
O8 O 0.31788(14) -0.0423(1) -0.48136(9)
N5 N 0.2112(8) 0.9193(5) -0.0968(4)
C7 C 0.3332(3) 0.57033(18) 0.1838(2)
H5 H 0.26760 0.51980 0.14080
O9 O 0.14208(15) -0.01659(12) -0.49202(10)
C8 C 0.3849(2) 0.81021(13) 0.34962(14)
O10 O 0.35888(15) 0.23414(11) 0.11532(11)
C9 C 0.5783(2) 0.38177(17) 0.04456(18)
H6 H 0.59270 0.33750 -0.00690
H7 H 0.57640 0.43730 0.03110
O11 O 0.22539(16) -0.00161(11) 0.34592(12)
C10 C 0.7511(2) 0.49254(15) 0.16713(18)
O12 O 0.42798(15) 0.04001(11) 0.39641(10)
C11 C 0.7857(2) 0.55092(15) 0.12457(17)
H8 H 0.75380 0.53180 0.06120
O13 O 0.2005(8) 0.3428(4) 0.4113(4)
C12 C 0.8666(2) 0.63703(16) 0.17378(17)
H9 H 0.88930 0.67720 0.14400
O14 O 0.7386(4) 0.3604(3) 0.3631(3)
C13 C 0.9152(2) 0.66578(16) 0.26591(16)
O15 O -0.0991(3) 0.6632(3) -0.0342(2)
C14 C 0.8826(3) 0.60589(19) 0.30788(19)
H10 H 0.91670 0.62400 0.37100
O16 O 0.0447(7) 0.8377(9) -0.1737(6)
C15 C 0.8006(3) 0.51951(19) 0.2584(2)
H11 H 0.77850 0.47870 0.28780
C16 C 1.0059(2) 0.75844(17) 0.31817(18)
C17 C 0.3673(2) 0.28085(14) -0.03660(14)
H12 H 0.28520 0.25730 -0.03140
H13 H 0.36220 0.31730 -0.07520
C18 C 0.3641(2) 0.15509(15) -0.16403(14)
C19 C 0.4325(2) 0.10170(16) -0.20149(15)
H14 H 0.50570 0.10130 -0.16460
C20 C 0.3938(2) 0.04945(16) -0.29232(15)
H15 H 0.44120 0.01380 -0.31820
C21 C 0.2859(2) 0.04870(14) -0.34617(14)
C22 C 0.2160(2) 0.09967(16) -0.30738(15)
H16 H 0.14040 0.09730 -0.34370
C23 C 0.2550(2) 0.15402(16) -0.21632(15)
H17 H 0.20780 0.18980 -0.19030
C24 C 0.2468(2) -0.00549(14) -0.44456(14)
C25 C 0.4745(2) 0.28245(16) 0.11355(15)
H18 H 0.51690 0.23840 0.08800
H19 H 0.52510 0.32280 0.17560
C26 C 0.3586(2) 0.18661(16) 0.17142(16)
C27 C 0.2458(2) 0.14092(18) 0.17276(19)
H20 H 0.17440 0.14290 0.13510
C28 C 0.2363(2) 0.09262(18) 0.22814(18)
H21 H 0.15800 0.06070 0.22770
C29 C 0.3395(2) 0.08960(15) 0.28500(15)
C30 C 0.4510(2) 0.13523(18) 0.28256(17)
H22 H 0.52240 0.13340 0.32040
C31 C 0.4628(2) 0.18390(18) 0.22667(18)
H23 H 0.54100 0.21490 0.22620
C32 C 0.3311(2) 0.03895(14) 0.34763(14)
C33 C 0.1908(5) 0.1977(3) 0.5106(4)
C34 C 0.0085(6) 0.1232(4) 0.3765(4)
C35 C 0.2414(6) 0.3723(6) 0.2718(4)
C36 C 0.1905(12) 0.3798(8) 0.3474(8)
C37 C 0.0641(8) 0.4342(9) 0.4360(6)
C38 C 0.0990(8) 0.4722(6) 0.2836(7)
C39 C 0.6661(8) 0.3741(6) 0.4089(5)
C40 C 0.5832(6) 0.4318(4) 0.3982(4)
C41 C 0.5551(10) 0.3368(7) 0.5087(5)
C42 C 0.7273(8) 0.2715(5) 0.4776(6)
C43 C -0.0072(5) 0.8421(4) 0.0622(5)
C44 C 0.0867(5) 0.6216(4) -0.0028(5)
C45 C 0.1988(5) 0.8069(4) 0.1091(4)
C46 C 0.0063(12) 0.7599(13) 0.0347(9)
C47 C 0.2116(9) 0.7728(6) -0.1455(9)
C48 C 0.1682(14) 1.0043(7) -0.0769(9)
C49 C 0.3387(9) 0.9591(13) -0.0412(9)
C50 C 0.5240(3) 0.71879(18) 0.3039(3)
H24 H 0.59050 0.77080 0.34330
C51 C 0.1678(10) 0.8482(7) -0.1393(7)
C52? C 0.1431(12) 0.3915(7) 0.3906(6)
C53? C 0.7094(12) 0.3213(9) 0.4229(11)
C54? C 0.0076(5) 0.6847(5) 0.0011(4)
N6? N 0.1538(7) 0.4143(5) 0.3233(6)
N7? N 0.6124(12) 0.3740(9) 0.4452(7)
N8? N 0.0667(4) 0.7725(4) 0.0530(4)
Mn1A Mn 0.81086(3) 1.104749(18) 0.609641(18)
Mn1* Mn 1.18914(3) 0.895251(18) 0.390359(18)
Mn1** Mn 0.18914(3) -0.104749(18) -0.609641(18)
Mn1*** Mn 0.18914(3) -0.104749(18) 0.390359(18)
Mn1A* Mn -0.18914(3) 1.104749(18) 0.609641(18)
Mn1A** Mn 0.81086(3) 2.104749(18) 1.609641(18)
Mn1A*** Mn 0.81086(3) 2.104749(18) 0.609641(18)
O1A O 0.5150(2) 1.51188(15) 0.8382(2)
C1A C 0.5436(2) 1.66034(13) 0.94382(14)
Mn2* Mn 0.50000 0.00000 -0.50000
Mn2** Mn 0.50000 0.00000 0.50000
Mn2*** Mn 0.50000 2.00000 1.50000
Mn2**** Mn 0.50000 2.00000 0.50000
O2A O 0.52717(14) 1.13063(10) 0.58823(10)
C2A C 0.6020(2) 1.58695(16) 0.90183(19)
H1A H 0.64560 1.56970 0.94930
H2A H 0.66180 1.61210 0.87430
O3A O 0.72268(15) 1.18696(11) 0.67067(12)
C3A C 0.5487(3) 1.43487(18) 0.8012(2)
O4A O 0.32559(18) 1.59472(12) 0.87638(15)
C4A C 0.4534(3) 1.3611(2) 0.7416(3)
H3A H 0.37260 1.36480 0.73170
O5A O -0.02853(16) 1.18555(11) 0.71998(14)
O5* O 0.02853(16) 0.81445(11) 0.28002(14)
O5A* O 0.97147(16) 1.18555(11) 0.71998(14)
O6A O -0.06102(19) 1.22096(15) 0.60058(14)
O6* O 0.06102(19) 0.77904(15) 0.39942(14)
O6A* O 0.93898(19) 1.22096(15) 0.60058(14)
C5A C 0.5927(2) 1.27532(14) 0.70643(15)
O7A O 0.58733(16) 1.79336(11) 1.07427(10)
C6A C 0.6882(2) 1.34970(16) 0.76767(18)
H4A H 0.76900 1.34620 0.77670
O8A O 0.68212(14) 2.0423(1) 1.48136(9)
O8* O 0.31788(14) 0.9577(1) 0.51864(9)
O8A* O 0.68212(14) 1.0423(1) 0.48136(9)
C7A C 0.6668(3) 1.42967(18) 0.8162(2)
H5A H 0.73240 1.48020 0.85920
O9A O 0.85792(15) 2.01659(12) 1.49202(10)
O9* O 0.14208(15) 0.98341(12) 0.50798(10)
O9A* O 0.85792(15) 1.01659(12) 0.49202(10)
C8A C 0.6151(2) 1.18979(13) 0.65038(14)
O10A O 0.64112(15) 1.76586(11) 0.88468(11)
C9A C 0.4217(2) 1.61823(17) 0.95544(18)
H6A H 0.40730 1.66250 1.00690
H7A H 0.42360 1.56270 0.96890
O11A O 0.77461(16) 2.00161(11) 0.65408(12)
O11* O 0.22539(16) 0.99839(11) 0.34592(12)
O11A* O 0.77461(16) 1.00161(11) 0.65408(12)
C10A C 0.2489(2) 1.50746(15) 0.83287(18)
O12A O 0.57202(15) 1.95999(11) 0.60359(10)
O12* O 0.42798(15) 1.04001(11) 0.39641(10)
O12A* O 0.57202(15) 0.95999(11) 0.60359(10)
C11A C 0.2143(2) 1.44908(15) 0.87543(17)
H8A H 0.24620 1.46820 0.93880
C12A C 0.1334(2) 1.36297(16) 0.82622(17)
H9A H 0.11070 1.32280 0.85600
C13A C 0.0848(2) 1.33422(16) 0.73409(16)
C14A C 0.1174(3) 1.39411(19) 0.69212(19)
H10A H 0.08330 1.37600 0.62900
C15A C 0.1994(3) 1.48049(19) 0.7416(2)
H11A H 0.22150 1.52130 0.71220
C16A C -0.0059(2) 1.24156(17) 0.68183(18)
C17A C 0.6327(2) 1.71915(14) 1.03660(14)
H12A H 0.71480 1.74270 1.03140
H13A H 0.63780 1.68270 1.07520
C18A C 0.6359(2) 1.84491(15) 1.16403(14)
C19A C 0.5675(2) 1.89830(16) 1.20149(15)
H14A H 0.49430 1.89870 1.16460
C20A C 0.6062(2) 1.95055(16) 1.29232(15)
H15A H 0.55880 1.98620 1.31820
C21A C 0.7141(2) 1.95130(14) 1.34617(14)
C22A C 0.7840(2) 1.90033(16) 1.30738(15)
H16A H 0.85960 1.90270 1.34370
C23A C 0.7450(2) 1.84598(16) 1.21632(15)
H17A H 0.79220 1.81020 1.19030
C24A C 0.7532(2) 2.00549(14) 1.44456(14)
C25A C 0.5255(2) 1.71755(16) 0.88645(15)
H18A H 0.48310 1.76160 0.91200
H19A H 0.47490 1.67720 0.82440
C26A C 0.6414(2) 1.81339(16) 0.82858(16)
C27A C 0.7542(2) 1.85908(18) 0.82724(19)
H20A H 0.82560 1.85710 0.86490
C28A C 0.7637(2) 1.90738(18) 0.77186(18)
H21A H 0.84200 1.93930 0.77230
C29A C 0.6605(2) 1.91040(15) 0.71500(15)
C30A C 0.5490(2) 1.86477(18) 0.71744(17)
H22A H 0.47760 1.86660 0.67960
C31A C 0.5372(2) 1.81610(18) 0.77333(18)
H23A H 0.45900 1.78510 0.77380
C32A C 0.6689(2) 1.96105(14) 0.65237(14)
C50A C 0.4760(3) 1.28121(18) 0.6961(3)
H24A H 0.40950 1.22920 0.65670
#END
