
#######################################################################
#
#                 Cambridge Crystallographic Data Centre
#                                CCDC
#
#######################################################################
#
# If this CIF has been generated from an entry in the Cambridge
# Structural Database, then it will include bibliographic, chemical,
# crystal, experimental, refinement or atomic coordinate data resulting
# from the CCDC's data processing and validation procedures.
#
#######################################################################

data_CSD_CIF_OXALIJ
_audit_creation_date 2011-10-03
_audit_creation_method CSD-ConQuest-V1
_database_code_CSD OXALIJ
_database_code_depnum_ccdc_archive 'CCDC 793866'
_chemical_formula_sum 'C102 H136 Cd3 N10 O32'
_chemical_formula_moiety
;
(C66 H48 Cd3 O24 2-)n,2n(C2 H8 N1 1+),8n(C4 H9 N1 O1)
;
_journal_coden_Cambridge 9
_journal_volume 50
_journal_year 2011
_journal_page_first 2264
_journal_name_full 'Inorg.Chem. '
loop_
_publ_author_name
"Tian-Fu Liu"
"Jian Lu"
"Chongbin Tian"
"Minna Cao"
"Zujin Lin"
"Rong Cao"
_chemical_name_systematic
;
catena-(bis(\m~7~-4-(3-(4-Carboxyphenoxy)-2,2-bis((4-carboxyphenoxy)methyl)pro
poxy)benzoato)-tri-cadmium bis(dimethylammonium) N,N-dimethylacetamide 
solvate)
;
_cell_volume   2861.479
_exptl_crystal_colour 'colorless'
_exptl_crystal_description 'block'
_diffrn_ambient_temperature 293
_refine_special_details
;
C3',C4',C5',O1' and C3,C4,C5,O1 disordered over two sites with occupancies 
0.607:0.393. Disordered solvent molecules were not modelled and the 
disordered density was taken into account using the SQUEEZE/PLATON procedure.
;
#These two values have been output from a single CSD field.
_refine_ls_R_factor_gt 0.046
_refine_ls_wR_factor_gt 0.046
_symmetry_cell_setting triclinic
_symmetry_space_group_name_H-M 'P -1'
_symmetry_Int_Tables_number 2
loop_
_symmetry_equiv_pos_site_id
_symmetry_equiv_pos_as_xyz
1 x,y,z
2 -x,-y,-z
_cell_length_a 11.970(3)
_cell_length_b 16.341(5)
_cell_length_c 16.436(5)
_cell_angle_alpha 107.913(2)
_cell_angle_beta 103.400(4)
_cell_angle_gamma 100.533(2)
_cell_formula_units_Z 1
loop_
_atom_type_symbol
_atom_type_radius_bond
C 0.68
H 0.23
Cd 1.44
N 0.68
O 0.68
loop_
_atom_site_label
_atom_site_type_symbol
_atom_site_fract_x
_atom_site_fract_y
_atom_site_fract_z
Cd1 Cd 0.18207(2) 0.896087(15) 0.383942(14)
N1 N 0.0674(8) 0.1493(7) 0.4659(5)
C1 C 0.4608(3) 0.3416(2) 0.0598(2)
Cd2 Cd 0.50000 1.00000 0.50000
O1 O 0.4798(2) 0.86084(16) 0.41142(17)
C2 C 0.4044(4) 0.4134(3) 0.1012(3)
H1 H 0.31750 0.39200 0.06920
H2? H 0.41460 0.41860 0.16430
O2 O 0.2879(3) 0.80917(19) 0.33116(19)
O3 O 0.6719(3) 0.4062(2) 0.1339(3)
O4 O 1.0159(2) 0.79858(18) 0.2714(2)
O5 O 1.0445(3) 0.7755(2) 0.3982(2)
C3 C 0.4127(4) 0.7197(2) 0.2925(2)
O6 O 0.4231(3) 0.21514(19) -0.07173(16)
C4 C 0.3187(4) 0.6485(3) 0.2328(3)
H3 H 0.23950 0.65330 0.22680
O7 O 0.3184(2) -0.04369(15) -0.47087(14)
C5 C 0.3362(5) 0.5695(3) 0.1810(3)
H4 H 0.27230 0.51650 0.15860
O8 O 0.1496(2) -0.00735(18) -0.48594(16)
C6 C 0.3921(3) 0.8042(2) 0.3497(2)
O9 O 0.3604(2) 0.23838(19) 0.11324(18)
C7 C 0.5837(4) 0.3805(3) 0.0531(3)
H5 H 0.60210 0.33510 0.00620
H6 H 0.58190 0.43290 0.03510
O10 O 0.2007(3) -0.0024(2) 0.3230(2)
C8 C 0.7477(4) 0.4905(3) 0.1725(3)
O11 O 0.3976(3) 0.0297(2) 0.38085(18)
C9 C 0.7800(4) 0.5443(2) 0.1290(3)
H7 H 0.74730 0.52400 0.06550
C10 C 0.8590(4) 0.6278(2) 0.1745(3)
H8 H 0.88150 0.66370 0.14210
C11 C 0.9060(3) 0.6598(2) 0.2671(2)
C12 C 0.8766(4) 0.6053(3) 0.3118(3)
H9 H 0.91160 0.62510 0.37500
C13 C 0.7961(4) 0.5215(4) 0.2658(4)
H10 H 0.77390 0.48500 0.29780
C14 C 0.9941(3) 0.7503(3) 0.3150(3)
C15 C 0.3754(3) 0.2867(2) -0.0342(2)
H11 H 0.29480 0.26290 -0.03130
H12 H 0.36930 0.32410 -0.07150
C16 C 0.3731(4) 0.1632(3) -0.1603(2)
C17 C 0.4414(4) 0.1098(3) -0.1963(2)
H13 H 0.51550 0.11030 -0.15910
C18 C 0.4003(3) 0.0559(3) -0.2868(2)
H14 H 0.44680 0.01980 -0.31160
C19 C 0.2920(3) 0.0543(2) -0.3411(2)
C20 C 0.2244(3) 0.1057(3) -0.3036(2)
H15 H 0.14880 0.10320 -0.34030
C21 C 0.2639(4) 0.1612(3) -0.2136(2)
H16 H 0.21680 0.19690 -0.18910
C22 C 0.2515(3) -0.0011(2) -0.4376(2)
C23 C 0.4763(3) 0.2821(3) 0.1148(2)
H17 H 0.51620 0.23720 0.08880
H18 H 0.52610 0.31860 0.17750
C24 C 0.3546(4) 0.1896(3) 0.1666(3)
C25 C 0.2397(4) 0.1478(3) 0.1629(3)
H19 H 0.17180 0.15390 0.12430
C26 C 0.2249(4) 0.0970(3) 0.2160(3)
H20 H 0.14690 0.06850 0.21360
C27 C 0.3231(3) 0.0882(2) 0.2717(2)
C28 C 0.4358(4) 0.1298(3) 0.2749(3)
H21 H 0.50310 0.12430 0.31450
C29 C 0.4541(4) 0.1798(3) 0.2217(3)
H22 H 0.53240 0.20640 0.22310
C30 C 0.3073(4) 0.0340(2) 0.3301(2)
C31 C 0.1989(7) 0.1992(5) 0.5034(5)
C32 C 0.0078(8) 0.1216(5) 0.3812(5)
O12 O 0.4898(4) 0.4856(3) 0.1649(4)
C33 C 0.4606(8) 0.5623(5) 0.2050(7)
C34 C 0.5284(14) 0.7081(9) 0.3095(12)
H23 H 0.59290 0.75620 0.35310
C35 C 0.5508(7) 0.6329(5) 0.2671(8)
H24 H 0.63050 0.62820 0.28010
C36? C 0.4284(16) 0.5637(9) 0.1623(10)
C37? C 0.522(3) 0.7194(15) 0.2789(18)
C38? C 0.5264(13) 0.6354(8) 0.2138(10)
H25? H 0.58940 0.76990 0.30930
H26? H 0.60200 0.63060 0.20720
O13? O 0.4404(10) 0.4885(4) 0.1016(6)
Cd1A Cd 0.81793(2) 1.103913(15) 0.616058(14)
Cd1* Cd 1.18207(2) 0.896087(15) 0.383942(14)
Cd1** Cd 0.18207(2) -0.103913(15) -0.616058(14)
Cd1*** Cd 0.18207(2) -0.103913(15) 0.383942(14)
Cd1A* Cd -0.18207(2) 1.103913(15) 0.616058(14)
Cd1A** Cd 0.81793(2) 2.103913(15) 1.616058(14)
Cd1A*** Cd 0.81793(2) 2.103913(15) 0.616058(14)
C1A C 0.5392(3) 1.6584(2) 0.9402(2)
Cd2* Cd 0.50000 0.00000 -0.50000
Cd2** Cd 0.50000 0.00000 0.50000
Cd2*** Cd 0.50000 2.00000 1.50000
Cd2**** Cd 0.50000 2.00000 0.50000
O1A O 0.5202(2) 1.13916(16) 0.58858(17)
C2A C 0.5956(4) 1.5866(3) 0.8988(3)
H1A H 0.68250 1.60800 0.93080
O2A O 0.7121(3) 1.19083(19) 0.66884(19)
O3A O 0.3281(3) 1.5938(2) 0.8661(3)
O4A O -0.0159(2) 1.20142(18) 0.7286(2)
O4* O 0.0159(2) 0.79858(18) 0.2714(2)
O4A* O 0.9841(2) 1.20142(18) 0.7286(2)
O5A O -0.0445(3) 1.2245(2) 0.6018(2)
O5* O 0.0445(3) 0.7755(2) 0.3982(2)
O5A* O 0.9555(3) 1.2245(2) 0.6018(2)
C3A C 0.5873(4) 1.2803(2) 0.7075(2)
O6A O 0.5769(3) 1.78486(19) 1.07173(16)
C4A C 0.6813(4) 1.3515(3) 0.7672(3)
H3A H 0.76050 1.34670 0.77320
O7A O 0.6816(2) 2.04369(15) 1.47087(14)
O7* O 0.3184(2) 0.95631(15) 0.52913(14)
O7A* O 0.6816(2) 1.04369(15) 0.47087(14)
C5A C 0.6638(5) 1.4305(3) 0.8190(3)
H4A H 0.72770 1.48350 0.84140
O8A O 0.8504(2) 2.00735(18) 1.48594(16)
O8* O 0.1496(2) 0.99265(18) 0.51406(16)
O8A* O 0.8504(2) 1.00735(18) 0.48594(16)
C6A C 0.6079(3) 1.1958(2) 0.6503(2)
O9A O 0.6396(2) 1.76162(19) 0.88676(18)
C7A C 0.4163(4) 1.6195(3) 0.9469(3)
H5A H 0.39790 1.66490 0.99380
H6A H 0.41810 1.56710 0.96490
O10A O 0.7993(3) 2.0024(2) 0.6770(2)
O10* O 0.2007(3) 0.9976(2) 0.3230(2)
O10A* O 0.7993(3) 1.0024(2) 0.6770(2)
C8A C 0.2523(4) 1.5095(3) 0.8275(3)
O11A O 0.6024(3) 1.9703(2) 0.61915(18)
O11* O 0.3976(3) 1.0297(2) 0.38085(18)
O11A* O 0.6024(3) 0.9703(2) 0.61915(18)
C9A C 0.2200(4) 1.4557(2) 0.8710(3)
H7A H 0.25270 1.47600 0.93450
C10A C 0.1410(4) 1.3722(2) 0.8255(3)
H8A H 0.11850 1.33630 0.85790
C11A C 0.0940(3) 1.3402(2) 0.7329(2)
C12A C 0.1234(4) 1.3947(3) 0.6882(3)
H9A H 0.08840 1.37490 0.62500
C13A C 0.2039(4) 1.4785(4) 0.7342(4)
H10A H 0.22610 1.51500 0.70220
C14A C 0.0059(3) 1.2497(3) 0.6850(3)
C15A C 0.6246(3) 1.7133(2) 1.0342(2)
H11A H 0.70520 1.73710 1.03130
H12A H 0.63070 1.67590 1.07150
C16A C 0.6269(4) 1.8368(3) 1.1603(2)
C17A C 0.5586(4) 1.8902(3) 1.1963(2)
H13A H 0.48450 1.88970 1.15910
C18A C 0.5997(3) 1.9441(3) 1.2868(2)
H14A H 0.55320 1.98020 1.31160
C19A C 0.7080(3) 1.9457(2) 1.3411(2)
C20A C 0.7756(3) 1.8943(3) 1.3036(2)
H15A H 0.85120 1.89680 1.34030
C21A C 0.7361(4) 1.8388(3) 1.2136(2)
H16A H 0.78320 1.80310 1.18910
C22A C 0.7485(3) 2.0011(2) 1.4376(2)
C23A C 0.5237(3) 1.7179(3) 0.8852(2)
H17A H 0.48380 1.76280 0.91120
H18A H 0.47390 1.68140 0.82250
C24A C 0.6454(4) 1.8104(3) 0.8334(3)
C25A C 0.7603(4) 1.8522(3) 0.8371(3)
H19A H 0.82820 1.84610 0.87570
C26A C 0.7751(4) 1.9030(3) 0.7840(3)
H20A H 0.85310 1.93150 0.78640
C27A C 0.6769(3) 1.9118(2) 0.7283(2)
C28A C 0.5642(4) 1.8702(3) 0.7251(3)
H21A H 0.49690 1.87570 0.68550
C29A C 0.5459(4) 1.8202(3) 0.7783(3)
H22A H 0.46760 1.79360 0.77690
C30A C 0.6927(4) 1.9660(2) 0.6699(2)
O12A O 0.5102(4) 1.5144(3) 0.8351(4)
C33A C 0.5394(8) 1.4377(5) 0.7950(7)
C34A C 0.4716(14) 1.2919(9) 0.6905(12)
H23A H 0.40710 1.24380 0.64690
C35A C 0.4492(7) 1.3671(5) 0.7329(8)
H24A H 0.36950 1.37180 0.71990
#END
