
#######################################################################
#
#                 Cambridge Crystallographic Data Centre
#                                CCDC
#
#######################################################################
#
# If this CIF has been generated from an entry in the Cambridge
# Structural Database, then it will include bibliographic, chemical,
# crystal, experimental, refinement or atomic coordinate data resulting
# from the CCDC's data processing and validation procedures.
#
#######################################################################

data_CSD_CIF_OXEMEM
_audit_creation_date 2021-07-08
_audit_creation_method CSD-ConQuest-V1
_database_code_CSD OXEMEM
_database_code_depnum_ccdc_archive 'CCDC 2082180'
_chemical_formula_sum 'C20 H16 In1 N3 O10'
_chemical_formula_moiety
;
(C18 H8 In1 N2 O10 1-)n,C2 H8 N1 1+
;
_journal_coden_Cambridge 9
_journal_volume 60
_journal_year 2021
_journal_page_first 10698
_journal_name_full 'Inorg.Chem. '
loop_
_publ_author_name
"Li-Na Ma"
"Bin Zhang"
"Zi-Han Wang"
"Lei Hou"
"Zhonghua Zhu"
"Yao-Yu Wang"
_chemical_name_systematic
;
catena-[dimethylammonium 
(\m-5,5'-[(1,2-dioxoethane-1,2-diyl)diazanediyl]di(benzene-1,3-dicarboxylato))
-indium unknown solvate]
;
_cell_volume   2612.402
_exptl_crystal_colour 'colorless'
_exptl_crystal_density_diffrn 1.457
_exptl_crystal_description 'Block'
_diffrn_ambient_temperature 150
_refine_special_details
;
Disordered solvent molecules were not modelled and the disordered density was 
taken into account using the SQUEEZE/PLATON procedure.
;
#These two values have been output from a single CSD field.
_refine_ls_R_factor_gt 0.0824
_refine_ls_wR_factor_gt 0.0824
_symmetry_cell_setting monoclinic
_symmetry_space_group_name_H-M 'P 21/n'
_symmetry_Int_Tables_number 14
loop_
_symmetry_equiv_pos_site_id
_symmetry_equiv_pos_as_xyz
1 x,y,z
2 1/2-x,1/2+y,1/2-z
3 -x,-y,-z
4 -1/2+x,-1/2-y,-1/2+z
_cell_length_a 9.9779(4)
_cell_length_b 17.5209(7)
_cell_length_c 15.4918(6)
_cell_angle_alpha 90
_cell_angle_beta 105.293(1)
_cell_angle_gamma 90
_cell_formula_units_Z 4
loop_
_atom_type_symbol
_atom_type_radius_bond
C 0.68
H 0.23
In 1.42
N 0.68
O 0.68
loop_
_atom_site_label
_atom_site_type_symbol
_atom_site_fract_x
_atom_site_fract_y
_atom_site_fract_z
In1 In 0.83358(6) 0.16365(3) 0.35911(4)
C1 C 0.7705(9) 0.5209(5) 0.3598(6)
O1 O 0.8137(7) 0.2851(3) 0.3191(4)
O2 O 0.8737(8) 0.2634(4) 0.4626(4)
C2 C 0.8390(9) 0.3100(5) 0.3989(6)
C3 C 0.8329(9) 0.4970(5) 0.5174(6)
C4 C 0.9178(10) 0.4921(6) 0.6834(6)
N1 N 0.8542(8) 0.5273(4) 0.6054(5)
H1 H 0.82270 0.57370 0.60960
N2 N 1.0396(8) 0.5285(4) 0.8324(5)
H2 H 1.09740 0.49340 0.82320
C5 C 0.7888(9) 0.4429(5) 0.3442(6)
H3 H 0.77380 0.42490 0.28450
C6 C 0.8286(9) 0.3919(5) 0.4153(6)
C7 C 0.8505(9) 0.4193(5) 0.5036(6)
H4 H 0.87680 0.38530 0.55300
C8 C 0.9259(10) 0.5425(6) 0.7655(6)
O3 O 0.8311(10) 0.5858(6) 0.7679(5)
C9 C 0.7946(10) 0.5463(5) 0.4455(6)
H5 H 0.78500 0.59920 0.45610
O4 O 0.7161(6) 0.5470(4) 0.2031(4)
C10 C 0.7355(9) 0.5730(5) 0.2821(5)
C11 C 0.9712(9) 0.5863(5) 0.9579(6)
H6 H 0.87630 0.57610 0.92920
C12 C 1.0739(9) 0.5653(5) 0.9155(5)
C13 C 1.2114(9) 0.5778(5) 0.9599(6)
H7 H 1.28270 0.56180 0.93360
C14 C 1.2458(9) 0.6136(5) 1.0427(6)
O5 O 1.4358(7) 0.6707(4) 1.1545(5)
O6 O 0.7220(7) 0.6440(3) 0.2926(4)
C15 C 0.8921(9) 0.6412(5) 1.0809(6)
C16 C 1.0060(9) 0.6213(5) 1.0402(6)
C17 C 1.1461(9) 0.6354(5) 1.0839(6)
H8 H 1.17120 0.65950 1.14080
C18 C 1.3966(9) 0.6317(5) 1.0848(7)
O7 O 0.7702(7) 0.6171(4) 1.0414(4)
O8 O 0.9078(6) 0.6795(4) 1.1507(4)
O9 O 1.4868(6) 0.6065(4) 1.0461(4)
O10 O 0.9644(7) 0.4280(4) 0.6929(5)
C19 C 0.5464(19) 0.5781(10) 0.8445(15)
H9 H 0.63530 0.55400 0.84530
H10 H 0.51300 0.55860 0.89430
H11 H 0.47820 0.56650 0.78780
C20 C 0.444(2) 0.7122(14) 0.8542(18)
H12 H 0.47500 0.76550 0.86070
H13 H 0.37230 0.70590 0.79790
H14 H 0.40700 0.69800 0.90440
N3 N 0.565(2) 0.6619(10) 0.8536(16)
H15 H 0.60030 0.67790 0.80800
H16 H 0.63200 0.67070 0.90540
In1A In 0.66642(6) 0.66365(3) 0.14089(4)
In1A* In 0.66642(6) 0.66365(3) 1.14089(4)
In1A** In 1.66642(6) 0.66365(3) 1.14089(4)
O4A O 0.7839(6) 0.0470(4) 0.2969(4)
O5A O 1.0642(7) 0.1707(4) 0.3455(5)
O6A O 0.7780(7) 0.1440(3) 0.2074(4)
O7A O 0.7298(7) 0.1171(4) 0.4586(4)
O8A O 0.5922(6) 0.1795(4) 0.3493(4)
O9A O 1.0132(6) 0.1065(4) 0.4539(4)
#END
