
#######################################################################
#
#                 Cambridge Crystallographic Data Centre
#                                CCDC
#
#######################################################################
#
# If this CIF has been generated from an entry in the Cambridge
# Structural Database, then it will include bibliographic, chemical,
# crystal, experimental, refinement or atomic coordinate data resulting
# from the CCDC's data processing and validation procedures.
#
#######################################################################

data_CSD_CIF_OXESUH
_audit_creation_date 2016-10-18
_audit_creation_method CSD-ConQuest-V1
_database_code_CSD OXESUH
_database_code_depnum_ccdc_archive 'CCDC 1057600'
_chemical_formula_sum 'C6 H18 Cr1 Mg1 Na1 O21'
_chemical_formula_moiety
;
(C6 Cr1 Na1 O12 2-)n,H12 Mg1 O6 2+,3(H2 O1)
;
_journal_coden_Cambridge 211
_journal_volume 68
_journal_year 2015
_journal_page_first 3776
_journal_name_full 'J.Coord.Chem. '
loop_
_publ_author_name
"O.E.Piro"
"G.A.Echeverria"
"A.C.Gonzalez-Baro"
"E.J.Baran"
_chemical_name_systematic
;
catena-(hexa-aqua-magnesium tris(\m~2~-oxalato)-chromium(iii)-sodium 
trihydrate)
;
_cell_volume   3121.252
_exptl_crystal_colour 'violet'
_exptl_crystal_density_diffrn 1.677
_exptl_special_details
;
Magnetic properties

;
_exptl_crystal_description 'plate'
_exptl_crystal_preparation 'Water'
_diffrn_ambient_temperature 297
#These two values have been output from a single CSD field.
_refine_ls_R_factor_gt 0.0379
_refine_ls_wR_factor_gt 0.0379
_symmetry_cell_setting hexagonal
_symmetry_space_group_name_H-M 'P 3 c 1'
_symmetry_Int_Tables_number 158
loop_
_symmetry_equiv_pos_site_id
_symmetry_equiv_pos_as_xyz
1 x,y,z
2 -y,x-y,z
3 -x+y,-x,z
4 -y,-x,1/2+z
5 -x+y,y,1/2+z
6 x,x-y,1/2+z
_cell_length_a 16.9635(4)
_cell_length_b 16.9635(4)
_cell_length_c 12.5247(3)
_cell_angle_alpha 90
_cell_angle_beta 90
_cell_angle_gamma 120
_cell_formula_units_Z 6
loop_
_atom_type_symbol
_atom_type_radius_bond
C 0.68
H 0.23
Cr 1.39
Mg 1.41
Na 1.66
O 0.68
loop_
_atom_site_label
_atom_site_type_symbol
_atom_site_fract_x
_atom_site_fract_y
_atom_site_fract_z
C1 C 1.1708(4) 0.3633(3) 0.8247(4)
C2 C 1.1434(4) 0.3048(4) 0.9287(4)
C3 C 0.8233(4) 0.1864(4) 0.9273(4)
C4 C 0.8516(4) 0.1537(4) 0.8280(4)
C5 C 1.0280(3) 0.4967(4) 0.9271(4)
C6 C 0.9712(4) 0.4698(4) 0.8236(4)
O1 O 1.1078(3) 0.3755(3) 0.7834(3)
O2 O 1.0614(3) 0.2752(3) 0.9538(3)
O3 O 1.2481(3) 0.3953(3) 0.7864(4)
O4 O 1.1998(3) 0.2909(3) 0.9689(4)
O5 O 0.8855(3) 0.2627(3) 0.9604(4)
O6 O 0.9312(3) 0.2127(3) 0.7868(3)
O7 O 0.7469(3) 0.1397(3) 0.9612(5)
O8 O 0.8033(3) 0.0785(3) 0.7875(4)
O9 O 1.0501(3) 0.4386(3) 0.9574(3)
O10 O 0.9450(2) 0.3880(3) 0.7888(3)
O11 O 1.0480(3) 0.5687(3) 0.9676(4)
O12 O 0.9529(3) 0.5230(3) 0.7797(4)
Cr1 Cr 0.99645(9) 0.32533(3) 0.87126(10)
Na1 Na 1.0041(2) 0.66255(19) 0.8743(4)
O13 O 0.7783(3) 0.4147(3) 0.9624(3)
H1 H 0.798(4) 0.396(4) 1.015(3)
H2 H 0.810(4) 0.4731(7) 0.966(4)
O14 O 0.7470(3) 0.3021(3) 0.7732(3)
H3 H 0.8045(8) 0.326(4) 0.764(4)
H4 H 0.723(3) 0.272(3) 0.716(3)
Mg1 Mg 0.66670 0.33330 0.8678(3)
O15 O 0.9704(3) 1.0814(2) 0.9708(3)
H5 H 0.932(3) 1.064(3) 1.022(3)
H6 H 0.997(4) 1.1397(7) 0.972(4)
O16 O 0.8886(3) 0.9704(3) 0.7816(3)
H7 H 0.866(4) 1.005(3) 0.769(4)
H8 H 0.877(4) 0.937(3) 0.726(2)
Mg2 Mg 1.00000 1.00000 0.8748(4)
O17 O 0.2510(3) 0.5552(3) 0.9778(3)
H9 H 0.262(3) 0.526(3) 1.025(3)
H10 H 0.1929(9) 0.525(3) 0.970(4)
O18 O 0.2223(3) 0.6364(3) 0.7880(3)
H11 H 0.203(4) 0.674(3) 0.773(4)
H12 H 0.216(4) 0.607(3) 0.730(2)
Mg3 Mg 0.33330 0.66670 0.8808(3)
O19 O 0.8295(2) 0.3386(3) 1.1210(4)
H13 H 0.848(3) 0.304(3) 1.095(3)
H14 H 0.875(2) 0.379(3) 1.157(4)
O20 O 0.8386(2) 0.9956(3) 1.1229(3)
H15 H 0.822(3) 1.020(3) 1.172(2)
H16 H 0.795(2) 0.972(3) 1.078(3)
O21 O 0.3398(3) 0.8298(2) 0.6274(3)
H17 H 0.368(3) 0.872(2) 0.581(3)
H18 H 0.326(3) 0.855(3) 0.678(2)
O3B O 1.1472(3) 0.7519(3) 0.7864(4)
O4B O 1.0911(3) 0.8002(3) 0.9689(4)
O7A O 0.8603(3) 0.6072(3) 0.9612(5)
O8A O 0.9215(3) 0.7248(3) 0.7875(4)
Na1A Na 1.33745(20) 0.34155(19) 0.8743(4)
Na1B Na 0.65845(20) -0.00410(19) 0.8743(4)
O13A O 0.5853(3) 0.3636(3) 0.9624(3)
H1A H 0.604(4) 0.402(4) 1.015(3)
H2A H 0.5269(40) 0.3369(7) 0.966(4)
O14A O 0.6979(3) 0.4449(3) 0.7732(3)
H3A H 0.6740(8) 0.4785(40) 0.764(4)
H4A H 0.728(3) 0.451(3) 0.716(3)
O13B O 0.6364(3) 0.2217(3) 0.9624(3)
H1B H 0.598(4) 0.202(4) 1.015(3)
H2B H 0.6631(40) 0.1900(7) 0.966(4)
O14B O 0.5551(3) 0.2530(3) 0.7732(3)
H3B H 0.5215(8) 0.1955(40) 0.764(4)
H4B H 0.549(3) 0.277(3) 0.716(3)
O15A O 0.9186(3) 0.8890(2) 0.9708(3)
H5A H 0.936(3) 0.868(3) 1.022(3)
H6A H 0.8603(40) 0.8573(7) 0.972(4)
O16A O 1.0296(3) 0.9182(3) 0.7816(3)
H7A H 0.995(4) 0.861(3) 0.769(4)
H8A H 1.063(4) 0.940(3) 0.726(2)
O15B O 1.1110(3) 1.0296(2) 0.9708(3)
H5B H 1.132(3) 1.068(3) 1.022(3)
H6B H 1.1427(40) 1.0030(7) 0.972(4)
O16B O 1.0818(3) 1.1114(3) 0.7816(3)
H7B H 1.139(4) 1.134(3) 0.769(4)
H8B H 1.060(4) 1.123(3) 0.726(2)
O17A O 0.4448(3) 0.6958(3) 0.9778(3)
H9A H 0.474(3) 0.736(3) 1.025(3)
H10A H 0.4750(9) 0.6679(30) 0.970(4)
O18A O 0.3636(3) 0.5859(3) 0.7880(3)
H11A H 0.326(4) 0.529(3) 0.773(4)
H12A H 0.393(4) 0.609(3) 0.730(2)
O17B O 0.3042(3) 0.7490(3) 0.9778(3)
H9B H 0.264(3) 0.738(3) 1.025(3)
H10B H 0.3321(9) 0.8071(30) 0.970(4)
O18B O 0.4141(3) 0.7777(3) 0.7880(3)
H11B H 0.471(4) 0.797(3) 0.773(4)
H12B H 0.391(4) 0.784(3) 0.730(2)
#END
