
#######################################################################
#
#                 Cambridge Crystallographic Data Centre
#                                CCDC
#
#######################################################################
#
# If this CIF has been generated from an entry in the Cambridge
# Structural Database, then it will include bibliographic, chemical,
# crystal, experimental, refinement or atomic coordinate data resulting
# from the CCDC's data processing and validation procedures.
#
#######################################################################

data_CSD_CIF_OXEZAU
_audit_creation_date 2016-10-18
_audit_creation_method CSD-ConQuest-V1
_database_code_CSD OXEZAU
_database_code_depnum_ccdc_archive 'CCDC 1437446'
_chemical_formula_sum 'C72 H46 Gd1 N22 O2.5 Re4 Te4'
_chemical_formula_moiety
;
C12 H9 N2 1+,n(C36 H20 Gd1 N16 O2 Re4 Te4 1-),2(C12 H8 N2),0.5(H2 O1)
;
_journal_coden_Cambridge 367
_journal_volume 42
_journal_year 2016
_journal_page_first 423
_journal_name_full 'Koord.Khim.(Russ.)(Coord.Chem.) '
loop_
_publ_author_name
"Ya.M.Gayfulin"
"N.V.Kuratieva"
"Yu.M.Litvinova"
"Yu.V.Mironov"
_chemical_name_systematic
;
catena-[(1,10-phenanthrolinium) 
tetrakis(\m-tellurido)-bis(\m-cyano)-triaqua-decacyano-bis(1,10-phenanthroline
)-gadolinium-tetra-rhenium 1,10-phenanthroline solvate hemihydrate]
;
_cell_volume   7315.433
_exptl_crystal_colour 'dark red'
_exptl_crystal_density_diffrn 2.42
_exptl_crystal_description 'needle'
_diffrn_ambient_temperature 293
_refine_special_details
;
The structure is disordered by symmetry.

;
#These two values have been output from a single CSD field.
_refine_ls_R_factor_gt 0.0333
_refine_ls_wR_factor_gt 0.0333
_symmetry_cell_setting monoclinic
_symmetry_space_group_name_H-M 'C 2/c'
_symmetry_Int_Tables_number 15
loop_
_symmetry_equiv_pos_site_id
_symmetry_equiv_pos_as_xyz
1 x,y,z
2 -x,y,1/2-z
3 1/2+x,1/2+y,z
4 1/2-x,1/2+y,1/2-z
5 -x,-y,-z
6 x,-y,-1/2+z
7 -1/2-x,-1/2-y,-z
8 -1/2+x,-1/2-y,-1/2+z
_cell_length_a 18.1468(14)
_cell_length_b 30.245(2)
_cell_length_c 13.455(2)
_cell_angle_alpha 90
_cell_angle_beta 97.858(2)
_cell_angle_gamma 90
_cell_formula_units_Z 4
loop_
_atom_type_symbol
_atom_type_radius_bond
C 0.68
H 0.23
Gd 1.96
N 0.68
O 0.68
Re 1.51
Te 1.47
loop_
_atom_site_label
_atom_site_type_symbol
_atom_site_fract_x
_atom_site_fract_y
_atom_site_fract_z
Re1 Re -0.043671(15) 0.133305(8) 0.152337(17)
Re2 Re 0.066692(15) 0.066443(8) 0.201770(18)
Gd1 Gd 0.00000 0.172851(14) -0.25000
Te1 Te -0.10035(3) 0.150417(14) 0.31785(3)
Te2 Te -0.06696(3) 0.048967(14) 0.10576(3)
O1 O 0.0845(3) 0.11335(16) -0.2103(4)
N1 N -0.2147(4) 0.1399(3) 0.0431(6)
N2 N -0.0185(4) 0.14932(19) -0.0797(4)
N3 N -0.0653(5) 0.2399(2) 0.1282(6)
N4 N 0.1053(4) 0.0632(2) -0.0272(5)
N5 N 0.0929(5) -0.0388(2) 0.1777(6)
N6 N 0.2481(5) 0.0612(3) 0.2469(7)
N7 N 0.0361(4) 0.2421(2) -0.1440(5)
N8 N 0.1252(4) 0.2083(2) -0.2712(5)
C1 C -0.1546(4) 0.1374(2) 0.0842(5)
C2 C -0.0268(4) 0.1415(2) 0.0021(5)
C3 C -0.0546(4) 0.2023(2) 0.1378(5)
C4 C 0.0933(4) 0.0639(2) 0.0552(5)
C5 C 0.0819(5) -0.0016(2) 0.1884(5)
C6 C 0.1835(4) 0.0634(2) 0.2336(6)
C7 C -0.0056(6) 0.2589(3) -0.0794(6)
H1 H -0.03840 0.24030 -0.05240
C8 C -0.0027(7) 0.3026(3) -0.0506(7)
H2 H -0.03450 0.31310 -0.00730
C9 C 0.0466(7) 0.3305(3) -0.0853(8)
H3 H 0.04980 0.35970 -0.06380
C10 C 0.0921(6) 0.3154(3) -0.1531(7)
C11 C 0.1457(7) 0.3417(3) -0.1927(8)
H4 H 0.15030 0.37140 -0.17510
C12 C 0.1895(6) 0.3249(3) -0.2546(7)
H5 H 0.22260 0.34350 -0.28110
C13 C 0.1872(5) 0.2786(3) -0.2820(6)
C14 C 0.2358(5) 0.2592(3) -0.3429(7)
H6 H 0.27230 0.27610 -0.36720
C15 C 0.2282(5) 0.2153(3) -0.3654(7)
H7 H 0.26010 0.20170 -0.40460
C16 C 0.1730(5) 0.1912(3) -0.3294(6)
H8 H 0.16840 0.16150 -0.34640
C17 C 0.1343(5) 0.2520(3) -0.2451(6)
C18 C 0.0862(5) 0.2698(3) -0.1801(6)
O2 O -0.0333(18) 0.3147(10) 0.279(3)
C19 C -0.0959(8) 0.4361(7) -0.0785(13)
H9 H -0.11990 0.43760 -0.14410
C20 C -0.1344(7) 0.4216(8) -0.0021(16)
H10 H -0.18400 0.41330 -0.01660
C21 C -0.0986(9) 0.4195(7) 0.0959(15)
H11 H -0.12430 0.40980 0.14700
N9 N -0.0244(9) 0.4319(8) 0.1176(13)
C22 C 0.0140(7) 0.4464(7) 0.0412(13)
C23 C -0.0217(8) 0.4486(5) -0.0568(12)
C24 C 0.0220(11) 0.4623(8) -0.1310(14)
H12 H -0.00020 0.46660 -0.19680
C25 C 0.0985(12) 0.4693(10) -0.105(2)
H13 H 0.12680 0.47770 -0.15450
C26 C 0.1331(18) 0.464(2) -0.006(2)
C27 C 0.0904(13) 0.453(3) 0.069(2)
N10 N 0.124(2) 0.449(4) 0.167(2)
C28 C 0.200(2) 0.455(2) 0.191(3)
H14 H 0.22290 0.45150 0.25700
C29 C 0.2430(9) 0.4652(19) 0.116(4)
H15 H 0.29410 0.46930 0.13200
C30 C 0.2094(17) 0.470(2) 0.017(4)
H16 H 0.23800 0.47700 -0.03270
N11? N -0.0160(8) 0.4181(7) 0.1611(12)
C31? C -0.0887(9) 0.4025(8) 0.1523(14)
H17? H -0.10840 0.39320 0.20910
C32? C -0.1319(7) 0.4009(8) 0.0588(16)
H18? H -0.18050 0.39040 0.05300
C33? C -0.1025(8) 0.4148(7) -0.0260(14)
H19? H -0.13140 0.41370 -0.08860
C34? C -0.0298(8) 0.4304(6) -0.0173(12)
C35? C 0.0134(7) 0.4320(6) 0.0762(13)
C36? C 0.0017(11) 0.4417(9) -0.1049(13)
H20? H -0.02710 0.44260 -0.16760
C37? C 0.0779(11) 0.4513(11) -0.093(2)
H21? H 0.09990 0.45580 -0.15090
C38? C 0.123(2) 0.455(2) 0.000(2)
C39? C 0.1973(19) 0.467(2) 0.012(4)
H22? H 0.22150 0.47170 -0.04320
C40? C 0.2354(11) 0.473(2) 0.108(4)
H23? H 0.28520 0.48090 0.11700
C41? C 0.199(2) 0.466(3) 0.192(3)
H24? H 0.22470 0.46920 0.25590
N12? N 0.125(3) 0.453(4) 0.1789(18)
C42? C 0.0866(19) 0.448(3) 0.0829(19)
N13? N 0.1420(9) 0.2488(5) 0.1176(11)
N14? N 0.1975(10) 0.1818(7) 0.0143(12)
C43? C 0.1188(13) 0.2832(6) 0.1671(15)
H25? H 0.08100 0.27780 0.20570
C44? C 0.1444(16) 0.3256(8) 0.1669(18)
H26? H 0.12050 0.34810 0.19710
C45? C 0.2048(19) 0.3344(10) 0.123(2)
H27? H 0.22440 0.36290 0.12440
C46? C 0.2389(15) 0.2992(8) 0.0724(16)
C47? C 0.3024(17) 0.3071(9) 0.0269(18)
H28? H 0.32610 0.33440 0.03100
C48? C 0.3288(13) 0.2708(9) -0.026(2)
H29? H 0.37090 0.27470 -0.05770
C49? C 0.2926(14) 0.2285(9) -0.0326(18)
C50? C 0.3194(16) 0.194(1) -0.0910(18)
H30? H 0.35730 0.19870 -0.13000
C51? C 0.2853(19) 0.1525(11) -0.086(2)
H31? H 0.30230 0.12780 -0.11680
C52? C 0.2270(11) 0.1504(7) -0.0346(14)
H32? H 0.20450 0.12280 -0.03360
C53? C 0.2014(12) 0.2568(7) 0.0666(14)
C54? C 0.2300(13) 0.2215(8) 0.0150(13)
Re1A Re 0.043671(15) 0.133305(8) 0.347663(17)
Re2A Re -0.066692(15) 0.066443(8) 0.298230(18)
Te1A Te 0.10035(3) 0.150417(14) 0.18215(3)
Te2A Te 0.06696(3) 0.048967(14) 0.39424(3)
N1A N 0.2147(4) 0.1399(3) 0.4569(6)
N2A N 0.0185(4) 0.14932(19) 0.5797(4)
N3A N 0.0653(5) 0.2399(2) 0.3718(6)
N4A N -0.1053(4) 0.0632(2) 0.5272(5)
N5A N -0.0929(5) -0.0388(2) 0.3223(6)
N6A N -0.2481(5) 0.0612(3) 0.2531(7)
C1A C 0.1546(4) 0.1374(2) 0.4158(5)
C2A C 0.0268(4) 0.1415(2) 0.4979(5)
C3A C 0.0546(4) 0.2023(2) 0.3622(5)
C4A C -0.0933(4) 0.0639(2) 0.4448(5)
C5A C -0.0819(5) -0.0016(2) 0.3116(5)
C6A C -0.1835(4) 0.0634(2) 0.2664(6)
O1A O -0.0845(3) 0.11335(16) -0.2897(4)
N7A N -0.0361(4) 0.2421(2) -0.3560(5)
N8A N -0.1252(4) 0.2083(2) -0.2288(5)
C7A C 0.0056(6) 0.2589(3) -0.4206(6)
H1A H 0.03840 0.24030 -0.44760
C8A C 0.0027(7) 0.3026(3) -0.4494(7)
H2A H 0.03450 0.31310 -0.49270
C9A C -0.0466(7) 0.3305(3) -0.4147(8)
H3A H -0.04980 0.35970 -0.43620
C10A C -0.0921(6) 0.3154(3) -0.3469(7)
C11A C -0.1457(7) 0.3417(3) -0.3073(8)
H4A H -0.15030 0.37140 -0.32490
C12A C -0.1895(6) 0.3249(3) -0.2454(7)
H5A H -0.22260 0.34350 -0.21890
C13A C -0.1872(5) 0.2786(3) -0.2180(6)
C14A C -0.2358(5) 0.2592(3) -0.1571(7)
H6A H -0.27230 0.27610 -0.13280
C15A C -0.2282(5) 0.2153(3) -0.1346(7)
H7A H -0.26010 0.20170 -0.09540
C16A C -0.1730(5) 0.1912(3) -0.1706(6)
H8A H -0.16840 0.16150 -0.15360
C17A C -0.1343(5) 0.2520(3) -0.2549(6)
C18A C -0.0862(5) 0.2698(3) -0.3199(6)
Gd1* Gd 0.00000 0.172851(14) 0.75000
N2A* N 0.0185(4) 0.14932(19) -0.4203(4)
#END
