
#######################################################################
#
#                 Cambridge Crystallographic Data Centre
#                                CCDC
#
#######################################################################
#
# If this CIF has been generated from an entry in the Cambridge
# Structural Database, then it will include bibliographic, chemical,
# crystal, experimental, refinement or atomic coordinate data resulting
# from the CCDC's data processing and validation procedures.
#
#######################################################################

data_CSD_CIF_OXIDUW11
_audit_creation_date 2019-07-02
_audit_creation_method CSD-ConQuest-V1
_database_code_CSD OXIDUW11
_database_code_depnum_ccdc_archive 'CCDC 1896607'
_chemical_formula_sum 'C10 H22 Cr1 N2 Na1 O12'
_chemical_formula_moiety
;
(C6 H6 Cr1 Na1 O12 2-)n,2(C2 H8 N1 1+)
;
_journal_coden_Cambridge 1695
_journal_volume 7
_journal_year 2019
_journal_page_first 8660
_journal_name_full 'J.Mater.Chem.C '
loop_
_publ_author_name
"M.Ptak"
"I.E.Collings"
"K.L.Svane"
"A.Sieradzki"
"W.Paraguassu"
"M.Maczka"
_chemical_name_systematic
;
catena-(bis(ethylammonium) hexakis(\m-formato)-chromium-sodium)
;
_cell_volume    767.817
_exptl_crystal_colour 'dark blue'
_exptl_crystal_density_diffrn 1.891
_exptl_special_details
;
P21/n polymorph

;
_exptl_crystal_description 'block'
_diffrn_ambient_temperature 293
_diffrn_ambient_pressure 3750000.0
_diffrn_radiation_probe x-ray
_diffrn_source synchrotron
_diffrn_special_details
;
twin

;
#These two values have been output from a single CSD field.
_refine_ls_R_factor_gt 0.0399
_refine_ls_wR_factor_gt 0.0399
_symmetry_cell_setting monoclinic
_symmetry_space_group_name_H-M 'P 21/n'
_symmetry_Int_Tables_number 14
loop_
_symmetry_equiv_pos_site_id
_symmetry_equiv_pos_as_xyz
1 x,y,z
2 1/2-x,1/2+y,1/2-z
3 -x,-y,-z
4 -1/2+x,-1/2-y,-1/2+z
_cell_length_a 8.1133(7)
_cell_length_b 7.9779(6)
_cell_length_c 11.891(5)
_cell_angle_alpha 90
_cell_angle_beta 86.024(18)
_cell_angle_gamma 90
_cell_formula_units_Z 2
loop_
_atom_type_symbol
_atom_type_radius_bond
C 0.68
H 0.23
Cr 1.39
N 0.68
Na 1.66
O 0.68
loop_
_atom_site_label
_atom_site_type_symbol
_atom_site_fract_x
_atom_site_fract_y
_atom_site_fract_z
Cr1 Cr 0.50000 0.50000 0.50000
Na1 Na 1.00000 1.00000 0.50000
C1 C 0.5653(5) 0.4943(5) 0.2612(7)
H1 H 0.46500 0.43752 0.26390
C2 C 0.6865(5) 0.8062(4) 0.5195(6)
H2 H 0.75843 0.75755 0.46453
C3 C 0.1994(5) 0.6866(4) 0.4802(6)
H3 H 0.23318 0.74801 0.54100
O1 O 0.6203(3) 0.5336(3) 0.3534(5)
O2 O 0.6318(3) 0.5240(3) 0.1677(4)
O3 O 0.5506(3) 0.7293(2) 0.5473(3)
O4 O 0.7265(3) 0.9362(3) 0.5596(4)
O5 O 0.2936(3) 0.5725(3) 0.4415(3)
O6 O 0.0646(3) 0.7237(3) 0.4435(4)
N1 N -0.0437(4) 0.5781(3) 0.2462(4)
H4 H -0.00701 0.61291 0.31098
H5 H -0.14994 0.60491 0.24394
H6 H 0.01425 0.62707 0.18897
C4 C -0.0248(5) 0.3953(4) 0.2372(6)
H7 H -0.11207 0.34223 0.28442
H8 H -0.03826 0.36199 0.15989
C5 C 0.1303(5) 0.3355(5) 0.2693(7)
H9 H 0.13784 0.35281 0.34866
H10 H 0.21778 0.39542 0.22824
H11 H 0.14009 0.21808 0.25259
C1B C 0.4347(5) 0.5057(5) 0.7388(7)
H1B H 0.53500 0.56248 0.73610
C2B C 0.3135(5) 0.1938(4) 0.4805(6)
H2B H 0.24157 0.24245 0.53547
C3B C 0.8006(5) 0.3134(4) 0.5198(6)
H3B H 0.76682 0.25199 0.45900
O1B O 0.3797(3) 0.4664(3) 0.6466(5)
O2B O 0.3682(3) 0.4760(3) 0.8323(4)
O3B O 0.4494(3) 0.2707(2) 0.4527(3)
O4B O 0.2735(3) 0.0638(3) 0.4404(4)
O5B O 0.7064(3) 0.4275(3) 0.5585(3)
O6B O 0.9354(3) 0.2763(3) 0.5565(4)
Na1* Na 0.00000 0.00000 0.50000
Na1** Na 0.00000 1.00000 0.50000
Na1*** Na 1.00000 0.00000 0.50000
Na1A Na 0.50000 0.50000 0.00000
Na1A* Na 0.50000 0.50000 1.00000
O2A O 0.8682(3) 1.0240(3) 0.3323(4)
O2C O 1.1318(3) 0.9760(3) 0.6677(4)
O4B* O 1.2735(3) 1.0638(3) 0.4404(4)
O6* O 1.0646(3) 0.7237(3) 0.4435(4)
O6B* O 0.9354(3) 1.2763(3) 0.5565(4)
#END
