
#######################################################################
#
#                 Cambridge Crystallographic Data Centre
#                                CCDC
#
#######################################################################
#
# If this CIF has been generated from an entry in the Cambridge
# Structural Database, then it will include bibliographic, chemical,
# crystal, experimental, refinement or atomic coordinate data resulting
# from the CCDC's data processing and validation procedures.
#
#######################################################################

data_CSD_CIF_OXIDUW
_audit_creation_date 2016-10-18
_audit_creation_method CSD-ConQuest-V1
_database_code_CSD OXIDUW
_database_code_depnum_ccdc_archive 'CCDC 1495524'
_chemical_formula_sum 'C10 H22 Cr1 N2 Na1 O12'
_chemical_formula_moiety
;
2(C2 H8 N1 1+),n(C6 H6 Cr1 Na1 O12 2-)
;
_journal_coden_Cambridge 1326
_journal_volume 18
_journal_year 2016
_journal_page_first 29629
_journal_name_full 'Phys.Chem.Chem.Phys.(PCCP) '
loop_
_publ_author_name
"M.Ptak"
"M.Maczka"
"A.Gagor"
"A.Sieradzki"
"B.Bondzior"
"P.Deren"
"S.Pawlus"
_chemical_name_systematic
;
catena-[bis(Ethylammonium) hexakis(\m-formato)-chromium-sodium]
;
_cell_volume    904.238
_exptl_crystal_colour 'dark blue'
_exptl_crystal_density_diffrn 1.606
_exptl_special_details
;
Pn polymorph
order disorder phase transition at 373 K

;
_exptl_crystal_description 'cuboid'
_diffrn_ambient_temperature 297
#These two values have been output from a single CSD field.
_refine_ls_R_factor_gt 0.0247
_refine_ls_wR_factor_gt 0.0247
_symmetry_cell_setting monoclinic
_symmetry_space_group_name_H-M 'P n'
_symmetry_Int_Tables_number 7
loop_
_symmetry_equiv_pos_site_id
_symmetry_equiv_pos_as_xyz
1 x,y,z
2 1/2+x,-y,1/2+z
_cell_length_a 8.10474(9)
_cell_length_b 9.26392(11)
_cell_length_c 12.04593(14)
_cell_angle_alpha 90
_cell_angle_beta 91.1766(10)
_cell_angle_gamma 90
_cell_formula_units_Z 2
loop_
_atom_type_symbol
_atom_type_radius_bond
C 0.68
H 0.23
Cr 1.39
N 0.68
Na 1.66
O 0.68
loop_
_atom_site_label
_atom_site_type_symbol
_atom_site_fract_x
_atom_site_fract_y
_atom_site_fract_z
Cr1 Cr 0.68078(2) 0.27150(2) 0.462766(17)
Na1 Na 1.18412(11) 0.77082(6) 0.46207(7)
O1 O 0.56111(14) 0.29186(12) 0.60367(10)
O2 O 0.54371(16) 0.28134(14) 0.78602(10)
O3 O 0.48464(12) 0.17428(12) 0.39617(9)
O4 O 0.82412(16) 0.21322(16) 0.14272(11)
O5 O 0.77010(12) 0.08496(11) 0.51796(9)
O6 O 0.28915(14) 0.00645(13) 0.38656(10)
O7 O 0.59503(12) 0.45767(12) 0.40646(9)
O8 O 0.42561(16) 0.64446(14) 0.39966(11)
O9 O 0.87642(13) 0.37022(11) 0.52885(9)
O10 O 1.07412(14) 0.53599(12) 0.53704(10)
O11 O 0.80206(15) 0.24715(12) 0.32371(10)
O12 O 0.96001(16) -0.08585(15) 0.52533(12)
C1 C 0.9500(2) 0.48007(18) 0.49292(14)
H1 H 0.90800 0.52250 0.42830
C2 C 0.9086(2) 0.02935(18) 0.49064(14)
H2 H 0.97350 0.08020 0.44130
C3 C 0.40843(19) 0.0662(2) 0.43253(14)
H3 H 0.44520 0.02810 0.50000
C4 C 0.4702(2) 0.52900(19) 0.43829(14)
H4 H 0.40850 0.49000 0.49520
C5 C 0.6197(2) 0.26665(18) 0.69999(16)
H5 H 0.72830 0.23470 0.70580
C6 C 0.7459(2) 0.24717(19) 0.22505(17)
H6 H 0.63660 0.27510 0.21390
N1 N 0.66137(19) 0.86828(17) 0.68480(13)
H7 H 0.55200 0.86030 0.68060
H8 H 0.69510 0.92940 0.63300
H9 H 0.69140 0.90120 0.75160
C7 C 0.7367(3) 0.7259(3) 0.6669(2)
H10 H 0.85580 0.73560 0.66710
H11 H 0.70150 0.68900 0.59490
C8 C 0.6891(3) 0.6231(3) 0.7541(3)
H12 H 0.57450 0.59890 0.74480
H13 H 0.70730 0.66630 0.82570
H14 H 0.75450 0.53710 0.74860
N2 N 0.7050(2) 0.63554(17) 0.21559(13)
H15 H 0.81420 0.63700 0.22480
H16 H 0.67760 0.57400 0.16150
H17 H 0.65870 0.60760 0.27840
C9 C 0.6831(4) 0.8867(3) 0.2722(3)
H18 H 0.66130 0.84520 0.34340
H19 H 0.61540 0.97070 0.26110
H20 H 0.79730 0.91360 0.26920
C10 C 0.6459(3) 0.7817(2) 0.1857(2)
H21 H 0.69710 0.81190 0.11740
H22 H 0.52750 0.77870 0.17230
Na1* Na 0.18412(11) -0.22918(6) 0.46207(7)
Na1** Na 0.18412(11) 0.77082(6) 0.46207(7)
Na1*** Na 1.18412(11) -0.22918(6) 0.46207(7)
Na1A Na 0.68412(11) 0.22918(6) -0.03793(7)
Na1A* Na 0.68412(11) 0.22918(6) 0.96207(7)
O2A O 1.04371(16) 0.71866(14) 0.28602(10)
O4A O 1.32412(16) 0.78678(16) 0.64272(11)
O6* O 1.28915(14) 1.00645(13) 0.38656(10)
O8* O 1.42561(16) 0.64446(14) 0.39966(11)
O12* O 0.96001(16) 0.91415(15) 0.52533(12)
#END
