
#######################################################################
#
#                 Cambridge Crystallographic Data Centre
#                                CCDC
#
#######################################################################
#
# If this CIF has been generated from an entry in the Cambridge
# Structural Database, then it will include bibliographic, chemical,
# crystal, experimental, refinement or atomic coordinate data resulting
# from the CCDC's data processing and validation procedures.
#
#######################################################################

data_CSD_CIF_OXIDUW01
_audit_creation_date 2016-10-18
_audit_creation_method CSD-ConQuest-V1
_database_code_CSD OXIDUW01
_database_code_depnum_ccdc_archive 'CCDC 1495525'
_chemical_formula_sum 'C10 H22 Cr1 N2 Na1 O12'
_chemical_formula_moiety
;
2(C2 H8 N1 1+),n(C6 H6 Cr1 Na1 O12 2-)
;
_journal_coden_Cambridge 1326
_journal_volume 18
_journal_year 2016
_journal_page_first 29629
_journal_name_full 'Phys.Chem.Chem.Phys.(PCCP) '
loop_
_publ_author_name
"M.Ptak"
"M.Maczka"
"A.Gagor"
"A.Sieradzki"
"B.Bondzior"
"P.Deren"
"S.Pawlus"
_chemical_name_systematic
;
catena-[bis(Ethylammonium) hexakis(\m-formato)-chromium-sodium]
;
_cell_volume    918.685
_exptl_crystal_colour 'dark blue'
_exptl_crystal_density_diffrn 1.581
_exptl_special_details
;
high-temperature polymorph
order disorder phase transition at 373 K

;
_exptl_crystal_description 'cuboid'
_diffrn_ambient_temperature 400
_refine_special_details
;
C6,C7,N1 and C4,C5,N2 disordered over two sites with occupancies 0.568:0.432.

;
#These two values have been output from a single CSD field.
_refine_ls_R_factor_gt 0.0407
_refine_ls_wR_factor_gt 0.0407
_symmetry_cell_setting monoclinic
_symmetry_space_group_name_H-M 'P 21/n'
_symmetry_Int_Tables_number 14
loop_
_symmetry_equiv_pos_site_id
_symmetry_equiv_pos_as_xyz
1 x,y,z
2 1/2-x,1/2+y,1/2-z
3 -x,-y,-z
4 -1/2+x,-1/2-y,-1/2+z
_cell_length_a 8.1066(6)
_cell_length_b 9.3455(11)
_cell_length_c 12.1283(13)
_cell_angle_alpha 90
_cell_angle_beta 91.062(8)
_cell_angle_gamma 90
_cell_formula_units_Z 2
loop_
_atom_type_symbol
_atom_type_radius_bond
C 0.68
H 0.23
Cr 1.39
N 0.68
Na 1.66
O 0.68
loop_
_atom_site_label
_atom_site_type_symbol
_atom_site_fract_x
_atom_site_fract_y
_atom_site_fract_z
Cr1 Cr 0.00000 0.00000 0.50000
O1 O 0.1183(2) 0.0234(2) 0.36009(15)
O2 O 0.1963(2) -0.0972(2) 0.56465(16)
O3 O 0.0876(2) 0.1848(2) 0.55538(16)
C1 C 0.0615(3) 0.0098(3) 0.2625(2)
C2 C 0.2692(3) -0.2073(4) 0.5317(3)
C3 C 0.2184(4) 0.2492(4) 0.5253(3)
O4 O 0.1376(2) 0.0344(2) 0.17864(17)
H1 H -0.04690 -0.02150 0.25420
O5 O 0.3896(2) -0.2648(2) 0.57577(18)
H2 H 0.22780 -0.24960 0.46750
O6 O 0.2639(3) 0.3642(3) 0.5598(2)
H3 H 0.28310 0.20430 0.47300
Na1 Na 0.00000 0.00000 0.00000
C4 C 0.5499(10) -0.0230(7) 0.2044(7)
H4 H 0.66930 -0.01660 0.20340
H5 H 0.51160 -0.05700 0.13280
C5 C 0.4991(10) -0.1263(8) 0.2921(8)
H6 H 0.40930 -0.08660 0.33240
H7 H 0.59080 -0.14380 0.34150
H8 H 0.46490 -0.21470 0.25840
N1 N 0.480(3) 0.1181(8) 0.2258(11)
H9 H 0.37050 0.11200 0.22630
H10 H 0.51020 0.17850 0.17310
H11 H 0.51690 0.14980 0.29090
C6? C 0.5315(12) -0.0282(8) 0.2838(8)
H12? H 0.47030 -0.05530 0.34860
H13? H 0.64780 -0.02500 0.30410
C7? C 0.5037(16) -0.1368(10) 0.1944(10)
H14? H 0.47580 -0.22720 0.22670
H15? H 0.60250 -0.14700 0.15260
H16? H 0.41520 -0.10570 0.14650
N2? N 0.477(4) 0.1127(10) 0.2457(13)
H17? H 0.36780 0.11470 0.24100
H18? H 0.51910 0.13000 0.17960
H19? H 0.51260 0.17910 0.29320
O2B O -0.1963(2) 0.0972(2) 0.43535(16)
O3B O -0.0876(2) -0.1848(2) 0.44462(16)
O1B O -0.1183(2) -0.0234(2) 0.63991(15)
C2B C -0.2692(3) 0.2073(4) 0.4683(3)
C3B C -0.2184(4) -0.2492(4) 0.4747(3)
C1B C -0.0615(3) -0.0098(3) 0.7375(2)
O5B O -0.3896(2) 0.2648(2) 0.42423(18)
H2B H -0.22780 0.24960 0.53250
O6B O -0.2639(3) -0.3642(3) 0.4402(2)
H3B H -0.28310 -0.20430 0.52700
O4B O -0.1376(2) -0.0344(2) 0.82136(17)
H1B H 0.04690 0.02150 0.74580
Na1A Na 0.50000 -0.50000 0.50000
Na1A* Na 0.50000 0.50000 0.50000
Na1A** Na -0.50000 0.50000 0.50000
Na1A*** Na -0.50000 -0.50000 0.50000
Na1* Na 0.00000 0.00000 1.00000
O5A O 0.1104(2) 0.2352(2) 0.92423(18)
O6A O 0.2361(3) -0.1358(3) 0.9402(2)
O6C O -0.2361(3) 0.1358(3) 1.0598(2)
O5C O -0.1104(2) -0.2352(2) 1.07577(18)
O4* O 0.1376(2) 0.0344(2) 1.17864(17)
#END
