
#######################################################################
#
#                 Cambridge Crystallographic Data Centre
#                                CCDC
#
#######################################################################
#
# If this CIF has been generated from an entry in the Cambridge
# Structural Database, then it will include bibliographic, chemical,
# crystal, experimental, refinement or atomic coordinate data resulting
# from the CCDC's data processing and validation procedures.
#
#######################################################################

data_CSD_CIF_OXIDUW13
_audit_creation_date 2019-07-02
_audit_creation_method CSD-ConQuest-V1
_database_code_CSD OXIDUW13
_database_code_depnum_ccdc_archive 'CCDC 1896609'
_chemical_formula_sum 'C10 H22 Cr1 N2 Na1 O12'
_chemical_formula_moiety
;
(C6 H6 Cr1 Na1 O12 2-)n,2(C2 H8 N1 1+)
;
_journal_coden_Cambridge 1695
_journal_volume 7
_journal_year 2019
_journal_page_first 8660
_journal_name_full 'J.Mater.Chem.C '
loop_
_publ_author_name
"M.Ptak"
"I.E.Collings"
"K.L.Svane"
"A.Sieradzki"
"W.Paraguassu"
"M.Maczka"
_chemical_name_systematic
;
catena-(bis(ethylammonium) hexakis(\m-formato)-chromium-sodium)
;
_cell_volume    750.044
_exptl_crystal_colour 'dark blue'
_exptl_crystal_density_diffrn 1.936
_exptl_special_details
;
P21/n polymorph

;
_exptl_crystal_description 'block'
_diffrn_ambient_temperature 293
_diffrn_ambient_pressure 4640000.0
_diffrn_radiation_probe x-ray
_diffrn_source synchrotron
_diffrn_special_details
;
twin

;
#These two values have been output from a single CSD field.
_refine_ls_R_factor_gt 0.043
_refine_ls_wR_factor_gt 0.043
_symmetry_cell_setting monoclinic
_symmetry_space_group_name_H-M 'P 21/n'
_symmetry_Int_Tables_number 14
loop_
_symmetry_equiv_pos_site_id
_symmetry_equiv_pos_as_xyz
1 x,y,z
2 1/2-x,1/2+y,1/2-z
3 -x,-y,-z
4 -1/2+x,-1/2-y,-1/2+z
_cell_length_a 8.0529(10)
_cell_length_b 7.885(1)
_cell_length_c 11.838(5)
_cell_angle_alpha 90
_cell_angle_beta 86.22(2)
_cell_angle_gamma 90
_cell_formula_units_Z 2
loop_
_atom_type_symbol
_atom_type_radius_bond
C 0.68
H 0.23
Cr 1.39
N 0.68
Na 1.66
O 0.68
loop_
_atom_site_label
_atom_site_type_symbol
_atom_site_fract_x
_atom_site_fract_y
_atom_site_fract_z
Cr1 Cr 0.50000 0.50000 0.50000
Na1 Na 1.00000 1.00000 0.50000
C1 C 0.5661(8) 0.4892(7) 0.2616(10)
H1 H 0.46839 0.42594 0.26507
C2 C 0.6840(9) 0.8104(7) 0.5166(11)
H2 H 0.75293 0.76473 0.45820
C3 C 0.1972(9) 0.6836(7) 0.4789(9)
H3 H 0.23352 0.74739 0.53853
O1 O 0.6197(5) 0.5347(4) 0.3523(7)
O2 O 0.6317(5) 0.5210(5) 0.1668(7)
O3 O 0.7270(5) 0.9390(5) 0.5594(6)
O4 O 0.5490(5) 0.7314(4) 0.5461(5)
O5 O 0.0601(5) 0.7215(4) 0.4466(6)
O6 O 0.2924(4) 0.5714(4) 0.4419(6)
N1 N -0.0441(8) 0.5774(6) 0.2475(7)
H4 H -0.00559 0.61579 0.31143
H5 H -0.15183 0.60213 0.24632
H6 H 0.01142 0.62624 0.18864
C4 C -0.0219(9) 0.3955(7) 0.2410(11)
H7 H -0.10741 0.34285 0.29082
H8 H -0.04028 0.35974 0.16442
C5 C 0.1317(8) 0.3334(7) 0.2689(11)
H9 H 0.13754 0.33522 0.34958
H10 H 0.21872 0.40310 0.23433
H11 H 0.14505 0.21911 0.24187
C1B C 0.4339(8) 0.5108(7) 0.7384(10)
H1B H 0.53161 0.57406 0.73493
C2B C 0.3160(9) 0.1896(7) 0.4834(11)
H2B H 0.24707 0.23527 0.54180
C3B C 0.8028(9) 0.3164(7) 0.5211(9)
H3B H 0.76648 0.25261 0.46147
O1B O 0.3803(5) 0.4653(4) 0.6477(7)
O2B O 0.3683(5) 0.4790(5) 0.8332(7)
O3B O 0.2730(5) 0.0610(5) 0.4406(6)
O4B O 0.4510(5) 0.2686(4) 0.4539(5)
O5B O 0.9399(5) 0.2785(4) 0.5534(6)
O6B O 0.7076(4) 0.4286(4) 0.5581(6)
Na1* Na 0.00000 0.00000 0.50000
Na1** Na 0.00000 1.00000 0.50000
Na1*** Na 1.00000 0.00000 0.50000
Na1A Na 0.50000 0.50000 0.00000
Na1A* Na 0.50000 0.50000 1.00000
O2A O 0.8683(5) 1.0210(5) 0.3332(7)
O2C O 1.1317(5) 0.9790(5) 0.6668(7)
O3B* O 1.2730(5) 1.0610(5) 0.4406(6)
O5* O 1.0601(5) 0.7215(4) 0.4466(6)
O5B* O 0.9399(5) 1.2785(4) 0.5534(6)
#END
