
#######################################################################
#
#                 Cambridge Crystallographic Data Centre
#                                CCDC
#
#######################################################################
#
# If this CIF has been generated from an entry in the Cambridge
# Structural Database, then it will include bibliographic, chemical,
# crystal, experimental, refinement or atomic coordinate data resulting
# from the CCDC's data processing and validation procedures.
#
#######################################################################

data_CSD_CIF_OXIDUW04
_audit_creation_date 2019-07-02
_audit_creation_method CSD-ConQuest-V1
_database_code_CSD OXIDUW04
_database_code_depnum_ccdc_archive 'CCDC 1896600'
_chemical_formula_sum 'C10 H22 Cr1 N2 Na1 O12'
_chemical_formula_moiety
;
(C6 H6 Cr1 Na1 O12 2-)n,2(C2 H8 N1 1+)
;
_journal_coden_Cambridge 1695
_journal_volume 7
_journal_year 2019
_journal_page_first 8660
_journal_name_full 'J.Mater.Chem.C '
loop_
_publ_author_name
"M.Ptak"
"I.E.Collings"
"K.L.Svane"
"A.Sieradzki"
"W.Paraguassu"
"M.Maczka"
_chemical_name_systematic
;
catena-(bis(ethylammonium) hexakis(\m-formato)-chromium-sodium)
;
_cell_volume    871.452
_exptl_crystal_colour 'dark blue'
_exptl_crystal_density_diffrn 1.667
_exptl_special_details
;
Pn polymorph

;
_exptl_crystal_description 'block'
_diffrn_ambient_temperature 293
_diffrn_ambient_pressure 800000.0
_diffrn_radiation_probe x-ray
_diffrn_source synchrotron
#These two values have been output from a single CSD field.
_refine_ls_R_factor_gt 0.045
_refine_ls_wR_factor_gt 0.045
_symmetry_cell_setting monoclinic
_symmetry_space_group_name_H-M 'P n'
_symmetry_Int_Tables_number 7
loop_
_symmetry_equiv_pos_site_id
_symmetry_equiv_pos_as_xyz
1 x,y,z
2 1/2+x,-y,1/2+z
_cell_length_a 8.0675(4)
_cell_length_b 9.0842(6)
_cell_length_c 11.893(6)
_cell_angle_alpha 90
_cell_angle_beta 91.055(13)
_cell_angle_gamma 90
_cell_formula_units_Z 2
loop_
_atom_type_symbol
_atom_type_radius_bond
C 0.68
H 0.23
Cr 1.39
N 0.68
Na 1.66
O 0.68
loop_
_atom_site_label
_atom_site_type_symbol
_atom_site_fract_x
_atom_site_fract_y
_atom_site_fract_z
Cr1 Cr 0.58280(12) 0.77631(10) 0.50201(16)
Na1 Na 0.0786(5) 0.2756(3) 0.5038(8)
C1 C 0.8583(9) 0.5692(8) 0.5310(16)
H1 H 0.82083 0.53036 0.46278
C2 C 0.6446(11) 0.7645(9) 0.259(2)
H2 H 0.53488 0.73381 0.25199
C3 C 0.3543(9) 0.5310(8) 0.4742(16)
H3 H 0.29089 0.58064 0.52659
C4 C 0.5146(11) 0.7487(10) 0.739(2)
H4 H 0.62558 0.77382 0.74913
C5 C 0.7934(9) 1.0400(8) 0.5238(17)
H5 H 0.85257 1.00324 0.46354
C6 C 0.3120(8) 0.9871(8) 0.4737(16)
H6 H 0.35464 1.03006 0.53907
O1 O 0.7803(5) 0.6786(5) 0.5696(11)
O2 O 0.9794(6) 0.5100(6) 0.5763(12)
O3 O 0.7044(7) 0.7944(6) 0.3588(15)
O4 O 0.7224(7) 0.7746(7) 0.1774(13)
O5 O 0.4938(5) 0.5857(5) 0.4469(10)
O6 O 0.3003(7) 0.4150(6) 0.4340(13)
O7 O 0.4591(7) 0.7531(7) 0.6414(15)
O8 O 0.4368(7) 0.7138(7) 0.8261(14)
O9 O 0.6672(5) 0.9669(5) 0.5584(10)
O10 O 0.8384(7) 1.1557(6) 0.5671(12)
O11 O 0.3865(6) 0.8760(5) 0.4344(11)
O12 O 0.1852(6) 1.0417(5) 0.4300(11)
C7 C 0.1178(10) 0.7157(9) 0.280(2)
H7 H 0.23725 0.71946 0.29075
H8 H 0.07068 0.68298 0.35030
C8 C 0.0783(14) 0.6090(11) 0.194(2)
H9 H 0.14009 0.52036 0.20760
H10 H 0.10679 0.64824 0.12161
H11 H -0.03818 0.58758 0.19438
N1 N 0.0572(9) 0.8644(8) 0.2553(16)
H12 H 0.10827 0.92861 0.30059
H13 H -0.05159 0.86819 0.26620
H14 H 0.07800 0.88664 0.18408
C9 C 0.0256(10) 0.7802(9) 0.7952(18)
H15 H -0.09414 0.77040 0.79242
H16 H 0.05683 0.81971 0.86835
C10 C 0.0768(15) 0.8835(10) 0.708(2)
H17 H 0.05562 0.84084 0.63499
H18 H 0.19307 0.90385 0.71651
H19 H 0.01519 0.97339 0.71431
N2 N 0.1017(8) 0.6326(8) 0.7821(17)
H20 H 0.21140 0.64010 0.78954
H21 H 0.07598 0.59705 0.71424
H22 H 0.06354 0.57227 0.83452
Na1* Na 0.0786(5) 1.2756(3) 0.5038(8)
Na1** Na 1.0786(5) 0.2756(3) 0.5038(8)
Na1*** Na 1.0786(5) 1.2756(3) 0.5038(8)
Na1A Na 0.5786(5) 0.7244(3) 0.0038(8)
Na1A* Na 0.5786(5) 0.7244(3) 1.0038(8)
O2* O -0.0206(6) 0.5100(6) 0.5763(12)
O4A O 0.2224(7) 0.2254(7) 0.6774(13)
O8A O -0.0632(7) 0.2862(7) 0.3261(14)
O10* O -0.1616(7) 0.1557(6) 0.5671(12)
O12* O 0.1852(6) 0.0417(5) 0.4300(11)
#END
