
#######################################################################
#
#                 Cambridge Crystallographic Data Centre
#                                CCDC
#
#######################################################################
#
# If this CIF has been generated from an entry in the Cambridge
# Structural Database, then it will include bibliographic, chemical,
# crystal, experimental, refinement or atomic coordinate data resulting
# from the CCDC's data processing and validation procedures.
#
#######################################################################

data_CSD_CIF_OXIDUW14
_audit_creation_date 2019-07-02
_audit_creation_method CSD-ConQuest-V1
_database_code_CSD OXIDUW14
_database_code_depnum_ccdc_archive 'CCDC 1896610'
_chemical_formula_sum 'C10 H22 Cr1 N2 Na1 O12'
_chemical_formula_moiety
;
(C6 H6 Cr1 Na1 O12 2-)n,2(C2 H8 N1 1+)
;
_journal_coden_Cambridge 1695
_journal_volume 7
_journal_year 2019
_journal_page_first 8660
_journal_name_full 'J.Mater.Chem.C '
loop_
_publ_author_name
"M.Ptak"
"I.E.Collings"
"K.L.Svane"
"A.Sieradzki"
"W.Paraguassu"
"M.Maczka"
_chemical_name_systematic
;
catena-(bis(ethylammonium) hexakis(\m-formato)-chromium-sodium)
;
_cell_volume    737.974
_exptl_crystal_colour 'dark blue'
_exptl_crystal_density_diffrn 1.968
_exptl_special_details
;
P21/n polymorph

;
_exptl_crystal_description 'block'
_diffrn_ambient_temperature 293
_diffrn_ambient_pressure 5370000.0
_diffrn_radiation_probe x-ray
_diffrn_source synchrotron
_diffrn_special_details
;
twin

;
#These two values have been output from a single CSD field.
_refine_ls_R_factor_gt 0.0457
_refine_ls_wR_factor_gt 0.0457
_symmetry_cell_setting monoclinic
_symmetry_space_group_name_H-M 'P 21/n'
_symmetry_Int_Tables_number 14
loop_
_symmetry_equiv_pos_site_id
_symmetry_equiv_pos_as_xyz
1 x,y,z
2 1/2-x,1/2+y,1/2-z
3 -x,-y,-z
4 -1/2+x,-1/2-y,-1/2+z
_cell_length_a 8.0012(9)
_cell_length_b 7.8208(8)
_cell_length_c 11.817(5)
_cell_angle_alpha 90
_cell_angle_beta 86.37(2)
_cell_angle_gamma 90
_cell_formula_units_Z 2
loop_
_atom_type_symbol
_atom_type_radius_bond
C 0.68
H 0.23
Cr 1.39
N 0.68
Na 1.66
O 0.68
loop_
_atom_site_label
_atom_site_type_symbol
_atom_site_fract_x
_atom_site_fract_y
_atom_site_fract_z
Cr1 Cr 0.50000 0.50000 0.50000
Na1 Na 1.00000 1.00000 0.50000
C1 C 0.5673(12) 0.4854(10) 0.2617(15)
H1 H 0.47194 0.41713 0.26569
C2 C 0.6815(14) 0.8118(11) 0.5157(16)
H2 H 0.74819 0.76738 0.45537
C3 C 0.1950(15) 0.6826(10) 0.4816(15)
H3 H 0.23123 0.74493 0.54241
O1 O 0.6210(8) 0.5357(6) 0.3528(11)
O2 O 0.6313(8) 0.5193(7) 0.1671(10)
O3 O 0.7264(8) 0.9424(8) 0.5605(10)
O4 O 0.5484(7) 0.7334(6) 0.5471(9)
O5 O 0.0566(8) 0.7203(7) 0.4486(10)
O6 O 0.2904(7) 0.5703(7) 0.4419(9)
N1 N -0.0448(11) 0.5768(8) 0.2465(11)
H4 H -0.00112 0.61957 0.30791
H5 H -0.15399 0.59939 0.24906
H6 H 0.00508 0.62414 0.18476
C4 C -0.0197(12) 0.3959(11) 0.2431(17)
H7 H -0.10455 0.34422 0.29446
H8 H -0.04053 0.35720 0.16728
C5 C 0.1333(14) 0.3316(11) 0.2695(17)
H9 H 0.13977 0.33061 0.35039
H10 H 0.22110 0.40217 0.23583
H11 H 0.14564 0.21714 0.24084
C1B C 0.4327(12) 0.5146(10) 0.7383(15)
H1B H 0.52806 0.58287 0.73431
C2B C 0.3185(14) 0.1882(11) 0.4843(16)
H2B H 0.25181 0.23262 0.54463
C3B C 0.8050(15) 0.3174(10) 0.5184(15)
H3B H 0.76877 0.25507 0.45759
O1B O 0.3790(8) 0.4643(6) 0.6472(11)
O2B O 0.3687(8) 0.4807(7) 0.8329(10)
O3B O 0.2736(8) 0.0576(8) 0.4395(10)
O4B O 0.4516(7) 0.2666(6) 0.4529(9)
O5B O 0.9434(8) 0.2797(7) 0.5514(10)
O6B O 0.7096(7) 0.4297(7) 0.5581(9)
Na1* Na 0.00000 0.00000 0.50000
Na1** Na 0.00000 1.00000 0.50000
Na1*** Na 1.00000 0.00000 0.50000
Na1A Na 0.50000 0.50000 0.00000
Na1A* Na 0.50000 0.50000 1.00000
O2A O 0.8687(8) 1.0193(7) 0.3329(10)
O2C O 1.1313(8) 0.9807(7) 0.6671(10)
O3B* O 1.2736(8) 1.0576(8) 0.4395(10)
O5* O 1.0566(8) 0.7203(7) 0.4486(10)
O5B* O 0.9434(8) 1.2797(7) 0.5514(10)
#END
