
#######################################################################
#
#                 Cambridge Crystallographic Data Centre
#                                CCDC
#
#######################################################################
#
# If this CIF has been generated from an entry in the Cambridge
# Structural Database, then it will include bibliographic, chemical,
# crystal, experimental, refinement or atomic coordinate data resulting
# from the CCDC's data processing and validation procedures.
#
#######################################################################

data_CSD_CIF_OXIDUW12
_audit_creation_date 2019-07-02
_audit_creation_method CSD-ConQuest-V1
_database_code_CSD OXIDUW12
_database_code_depnum_ccdc_archive 'CCDC 1896608'
_chemical_formula_sum 'C10 H22 Cr1 N2 Na1 O12'
_chemical_formula_moiety
;
(C6 H6 Cr1 Na1 O12 2-)n,2(C2 H8 N1 1+)
;
_journal_coden_Cambridge 1695
_journal_volume 7
_journal_year 2019
_journal_page_first 8660
_journal_name_full 'J.Mater.Chem.C '
loop_
_publ_author_name
"M.Ptak"
"I.E.Collings"
"K.L.Svane"
"A.Sieradzki"
"W.Paraguassu"
"M.Maczka"
_chemical_name_systematic
;
catena-(bis(ethylammonium) hexakis(\m-formato)-chromium-sodium)
;
_cell_volume    759.303
_exptl_crystal_colour 'dark blue'
_exptl_crystal_density_diffrn 1.913
_exptl_special_details
;
P21/n polymorph

;
_exptl_crystal_description 'block'
_diffrn_ambient_temperature 293
_diffrn_ambient_pressure 4180000.0
_diffrn_radiation_probe x-ray
_diffrn_source synchrotron
_diffrn_special_details
;
twin

;
#These two values have been output from a single CSD field.
_refine_ls_R_factor_gt 0.0393
_refine_ls_wR_factor_gt 0.0393
_symmetry_cell_setting monoclinic
_symmetry_space_group_name_H-M 'P 21/n'
_symmetry_Int_Tables_number 14
loop_
_symmetry_equiv_pos_site_id
_symmetry_equiv_pos_as_xyz
1 x,y,z
2 1/2-x,1/2+y,1/2-z
3 -x,-y,-z
4 -1/2+x,-1/2-y,-1/2+z
_cell_length_a 8.0837(5)
_cell_length_b 7.9331(4)
_cell_length_c 11.867(3)
_cell_angle_alpha 90
_cell_angle_beta 86.154(12)
_cell_angle_gamma 90
_cell_formula_units_Z 2
loop_
_atom_type_symbol
_atom_type_radius_bond
C 0.68
H 0.23
Cr 1.39
N 0.68
Na 1.66
O 0.68
loop_
_atom_site_label
_atom_site_type_symbol
_atom_site_fract_x
_atom_site_fract_y
_atom_site_fract_z
Cr1 Cr 0.50000 0.50000 0.50000
Na1 Na 1.00000 1.00000 0.50000
C1 C 0.5667(7) 0.4926(8) 0.2611(10)
H1 H 0.46736 0.43308 0.26410
C2 C 0.6861(6) 0.8076(5) 0.5190(7)
H2 H 0.75682 0.76001 0.46270
C3 C 0.1982(6) 0.6857(5) 0.4801(7)
H3 H 0.23278 0.74792 0.54061
O1 O 0.6203(5) 0.5338(5) 0.3534(7)
O2 O 0.6315(4) 0.5224(4) 0.1673(5)
O3 O 0.7271(3) 0.9377(3) 0.5607(4)
O4 O 0.5498(3) 0.7303(3) 0.5479(4)
O5 O 0.0623(3) 0.7226(3) 0.4443(4)
O6 O 0.2923(3) 0.5723(3) 0.4418(4)
N1 N -0.0439(5) 0.5778(4) 0.2466(5)
H4 H -0.00684 0.61444 0.31110
H5 H -0.15080 0.60357 0.24438
H6 H 0.01334 0.62657 0.18875
C4 C -0.0233(6) 0.3951(5) 0.2390(7)
H7 H -0.10935 0.34255 0.28800
H8 H -0.04020 0.36047 0.16227
C5 C 0.1310(6) 0.3337(5) 0.2682(8)
H9 H 0.13730 0.34019 0.34857
H10 H 0.21799 0.40036 0.23163
H11 H 0.14321 0.21848 0.24430
C1B C 0.4333(7) 0.5074(8) 0.7389(10)
H1B H 0.53264 0.56692 0.73590
C2B C 0.3139(6) 0.1924(5) 0.4810(7)
H2B H 0.24318 0.23999 0.53730
C3B C 0.8018(6) 0.3143(5) 0.5199(7)
H3B H 0.76722 0.25208 0.45939
O1B O 0.3797(5) 0.4662(5) 0.6466(7)
O2B O 0.3685(4) 0.4776(4) 0.8327(5)
O3B O 0.2729(3) 0.0623(3) 0.4393(4)
O4B O 0.4502(3) 0.2697(3) 0.4521(4)
O5B O 0.9377(3) 0.2774(3) 0.5557(4)
O6B O 0.7077(3) 0.4277(3) 0.5582(4)
Na1* Na 0.00000 0.00000 0.50000
Na1** Na 0.00000 1.00000 0.50000
Na1*** Na 1.00000 0.00000 0.50000
Na1A Na 0.50000 0.50000 0.00000
Na1A* Na 0.50000 0.50000 1.00000
O2A O 0.8685(4) 1.0224(4) 0.3327(5)
O2C O 1.1315(4) 0.9776(4) 0.6673(5)
O3B* O 1.2729(3) 1.0623(3) 0.4393(4)
O5* O 1.0623(3) 0.7226(3) 0.4443(4)
O5B* O 0.9377(3) 1.2774(3) 0.5557(4)
#END
