
#######################################################################
#
#                 Cambridge Crystallographic Data Centre
#                                CCDC
#
#######################################################################
#
# If this CIF has been generated from an entry in the Cambridge
# Structural Database, then it will include bibliographic, chemical,
# crystal, experimental, refinement or atomic coordinate data resulting
# from the CCDC's data processing and validation procedures.
#
#######################################################################

data_CSD_CIF_OXIDUW05
_audit_creation_date 2019-07-02
_audit_creation_method CSD-ConQuest-V1
_database_code_CSD OXIDUW05
_database_code_depnum_ccdc_archive 'CCDC 1896601'
_chemical_formula_sum 'C10 H22 Cr1 N2 Na1 O12'
_chemical_formula_moiety
;
(C6 H6 Cr1 Na1 O12 2-)n,2(C2 H8 N1 1+)
;
_journal_coden_Cambridge 1695
_journal_volume 7
_journal_year 2019
_journal_page_first 8660
_journal_name_full 'J.Mater.Chem.C '
loop_
_publ_author_name
"M.Ptak"
"I.E.Collings"
"K.L.Svane"
"A.Sieradzki"
"W.Paraguassu"
"M.Maczka"
_chemical_name_systematic
;
catena-(bis(ethylammonium) hexakis(\m-formato)-chromium-sodium)
;
_cell_volume    863.352
_exptl_crystal_colour 'dark blue'
_exptl_crystal_density_diffrn 1.682
_exptl_special_details
;
Pn polymorph

;
_exptl_crystal_description 'block'
_diffrn_ambient_temperature 293
_diffrn_ambient_pressure 1010000.0
_diffrn_radiation_probe x-ray
_diffrn_source synchrotron
#These two values have been output from a single CSD field.
_refine_ls_R_factor_gt 0.0454
_refine_ls_wR_factor_gt 0.0454
_symmetry_cell_setting monoclinic
_symmetry_space_group_name_H-M 'P n'
_symmetry_Int_Tables_number 7
loop_
_symmetry_equiv_pos_site_id
_symmetry_equiv_pos_as_xyz
1 x,y,z
2 1/2+x,-y,1/2+z
_cell_length_a 8.0600(6)
_cell_length_b 9.0392(7)
_cell_length_c 11.852(9)
_cell_angle_alpha 90
_cell_angle_beta 91.018(17)
_cell_angle_gamma 90
_cell_formula_units_Z 2
loop_
_atom_type_symbol
_atom_type_radius_bond
C 0.68
H 0.23
Cr 1.39
N 0.68
Na 1.66
O 0.68
loop_
_atom_site_label
_atom_site_type_symbol
_atom_site_fract_x
_atom_site_fract_y
_atom_site_fract_z
Cr1 Cr 0.58293(12) 0.77725(10) 0.50204(17)
Na1 Na 0.0786(5) 0.2767(3) 0.5036(9)
C1 C 0.8591(9) 0.5700(8) 0.5297(16)
H1 H 0.82285 0.53184 0.46068
C2 C 0.6468(12) 0.7649(10) 0.259(2)
H2 H 0.53658 0.73519 0.25310
C3 C 0.3543(9) 0.5309(8) 0.4752(17)
H3 H 0.29219 0.58008 0.52897
C4 C 0.5146(11) 0.7492(11) 0.739(2)
H4 H 0.62590 0.77420 0.74823
C5 C 0.7920(9) 1.0425(8) 0.5245(17)
H5 H 0.85061 1.00621 0.46353
C6 C 0.3116(8) 0.9889(8) 0.4737(16)
H6 H 0.35478 1.03208 0.53912
O1 O 0.7806(6) 0.6795(5) 0.5696(11)
O2 O 0.9799(6) 0.5109(6) 0.5761(13)
O3 O 0.7048(7) 0.7959(7) 0.3600(16)
O4 O 0.7233(8) 0.7715(7) 0.1758(13)
O5 O 0.4936(5) 0.5852(5) 0.4469(10)
O6 O 0.2992(7) 0.4151(6) 0.4336(13)
O7 O 0.4576(7) 0.7542(7) 0.6423(15)
O8 O 0.4363(8) 0.7132(7) 0.8266(15)
O9 O 0.6665(6) 0.9687(5) 0.5581(11)
O10 O 0.8389(7) 1.1578(6) 0.5682(12)
O11 O 0.3861(6) 0.8774(5) 0.4326(11)
O12 O 0.1833(6) 1.0424(5) 0.4301(11)
C7 C 0.1202(10) 0.7159(9) 0.281(2)
H7 H 0.23979 0.72115 0.29146
H8 H 0.07399 0.68144 0.35178
C8 C 0.0799(14) 0.6098(11) 0.192(2)
H9 H 0.13798 0.51880 0.20623
H10 H 0.11260 0.64944 0.12065
H11 H -0.03748 0.59153 0.19047
N1 N 0.0557(9) 0.8639(8) 0.2562(17)
H12 H 0.09746 0.92831 0.30590
H13 H -0.05445 0.86325 0.26041
H14 H 0.08483 0.89012 0.18693
C9 C 0.0253(10) 0.7809(9) 0.7948(19)
H15 H -0.09451 0.77095 0.79193
H16 H 0.05658 0.82065 0.86813
C10 C 0.0766(14) 0.8836(9) 0.707(2)
H17 H 0.05867 0.83925 0.63450
H18 H 0.19226 0.90629 0.71754
H19 H 0.01272 0.97293 0.71221
N2 N 0.1019(8) 0.6336(8) 0.7810(17)
H20 H 0.21170 0.64155 0.78786
H21 H 0.07552 0.59780 0.71308
H22 H 0.06467 0.57264 0.83384
Na1* Na 0.0786(5) 1.2767(3) 0.5036(9)
Na1** Na 1.0786(5) 0.2767(3) 0.5036(9)
Na1*** Na 1.0786(5) 1.2767(3) 0.5036(9)
Na1A Na 0.5786(5) 0.7233(3) 0.0036(9)
Na1A* Na 0.5786(5) 0.7233(3) 1.0036(9)
O2* O -0.0201(6) 0.5109(6) 0.5761(13)
O4A O 0.2233(8) 0.2285(7) 0.6758(13)
O8A O -0.0637(8) 0.2868(7) 0.3266(15)
O10* O -0.1611(7) 0.1578(6) 0.5682(12)
O12* O 0.1833(6) 0.0424(5) 0.4301(11)
#END
