
#######################################################################
#
#                 Cambridge Crystallographic Data Centre
#                                CCDC
#
#######################################################################
#
# If this CIF has been generated from an entry in the Cambridge
# Structural Database, then it will include bibliographic, chemical,
# crystal, experimental, refinement or atomic coordinate data resulting
# from the CCDC's data processing and validation procedures.
#
#######################################################################

data_CSD_CIF_OXIGOT03
_audit_creation_date 2017-08-29
_audit_creation_method CSD-ConQuest-V1
_database_code_CSD OXIGOT03
_database_code_depnum_ccdc_archive 'CCDC 1537275'
_chemical_formula_sum 'C10 H22 Al1 N2 Na1 O12'
_chemical_formula_moiety
;
2(C2 H8 N1 1+),n(C6 H6 Al1 Na1 O12 2-)
;
_journal_coden_Cambridge 1220
_journal_volume 23
_journal_year 2017
_journal_page_first 9857
_journal_name_full 'Chem.-Eur.J. '
loop_
_publ_author_name
"Yao Yu"
"Ran Shang"
"Sa Chen"
"Bin-Wu Wang"
"Zhe-Ming Wang"
"Song Gao"
_chemical_name_systematic
;
catena-[bis(ethanaminium) hexakis(\m-formato)-aluminium(iii)-sodium(i)]
;
_cell_volume    877.824
_exptl_crystal_colour 'colorless'
_exptl_crystal_density_diffrn 1.56
_exptl_crystal_description 'block'
_diffrn_ambient_temperature 180
#These two values have been output from a single CSD field.
_refine_ls_R_factor_gt 0.0257
_refine_ls_wR_factor_gt 0.0257
_symmetry_cell_setting monoclinic
_symmetry_space_group_name_H-M 'P n'
_symmetry_Int_Tables_number 7
loop_
_symmetry_equiv_pos_site_id
_symmetry_equiv_pos_as_xyz
1 x,y,z
2 1/2+x,-y,1/2+z
_cell_length_a 8.0366(2)
_cell_length_b 9.1722(2)
_cell_length_c 11.9114(3)
_cell_angle_alpha 90
_cell_angle_beta 91.238(2)
_cell_angle_gamma 90
_cell_formula_units_Z 2
loop_
_atom_type_symbol
_atom_type_radius_bond
C 0.68
H 0.23
Al 1.21
N 0.68
Na 1.66
O 0.68
loop_
_atom_site_label
_atom_site_type_symbol
_atom_site_fract_x
_atom_site_fract_y
_atom_site_fract_z
Al1 Al 0.16301(6) 0.27547(5) 0.41371(4)
Na1 Na 0.15846(9) 0.22570(6) 0.91462(6)
O1 O 0.04719(13) 0.25284(11) 0.54934(9)
O2 O 0.01863(14) 0.21457(12) 0.73186(9)
O3 O 0.35304(12) 0.17943(11) 0.47788(8)
O4 O 0.55202(13) 0.01068(12) 0.49041(9)
O5 O 0.24925(12) 0.45514(11) 0.46716(8)
O6 O 0.41616(14) 0.64671(11) 0.47801(9)
O7 O 0.38157(14) 0.07862(12) 0.85024(9)
O8 O 0.57342(12) -0.09459(11) 0.86157(8)
O9 O 0.27001(13) 0.46233(12) 0.84009(9)
O10 O 0.47333(12) 0.62726(11) 0.85007(8)
O11 O 0.27642(13) 0.29305(11) 0.27673(8)
O12 O 0.30217(13) 0.28095(12) 0.09207(8)
C1 C 0.1008(2) 0.25123(17) 0.65044(13)
H1 H 0.21270 0.28050 0.66430
C2 C 0.43361(19) 0.07175(17) 0.44135(12)
H2 H 0.40050 0.03430 0.37000
C3 C 0.37434(19) 0.53015(17) 0.43605(12)
H3 H 0.43890 0.49300 0.37660
C4 C 0.43196(18) -0.03884(17) 0.88622(12)
H4 H 0.36250 -0.09180 0.93520
C5 C 0.39550(19) 0.51711(17) 0.88567(12)
H5 H 0.43650 0.47270 0.95280
C6 C 0.2213(2) 0.26610(16) 0.17795(13)
H6 H 0.11000 0.23210 0.16990
N1 N 0.68142(17) 0.12933(15) 0.69448(11)
H7 H 0.65010 0.09510 0.62550
H8 H 0.64670 0.06640 0.74820
H9 H 0.79420 0.13740 0.69860
C7 C 0.6052(2) 0.27449(19) 0.71252(16)
H10 H 0.64240 0.31320 0.78650
H11 H 0.48250 0.26450 0.71300
C8 C 0.6525(3) 0.3788(2) 0.62257(18)
H12 H 0.77250 0.39700 0.62740
H13 H 0.59230 0.47070 0.63220
H14 H 0.62360 0.33700 0.54900
N2 N 0.13951(17) 0.63597(14) 0.6615(1)
H15 H 0.02730 0.63890 0.64970
H16 H 0.16430 0.57280 0.71830
H17 H 0.18940 0.60570 0.59770
C9 C 0.2005(2) 0.78313(19) 0.69191(15)
H18 H 0.32240 0.77950 0.70540
H19 H 0.14830 0.81480 0.76240
C10 C 0.1615(3) 0.8912(2) 0.60151(18)
H20 H 0.19680 0.85240 0.52910
H21 H 0.22080 0.98250 0.61760
H22 H 0.04140 0.90980 0.59840
Al1A Al 0.66301(6) -0.27547(5) 0.91371(4)
Al1A* Al 0.66301(6) 0.72453(5) 0.91371(4)
Na1* Na 0.15846(9) 0.22570(6) -0.08538(6)
Na1A Na 0.65846(9) -0.22570(6) 0.41462(6)
Na1A* Na 0.65846(9) 0.77430(6) 0.41462(6)
O4A O 0.05202(13) -0.01068(12) 0.99041(9)
O6A O -0.08384(14) 0.35329(11) 0.97801(9)
O8A O 0.07342(12) 0.09459(11) 0.36157(8)
O10A O -0.02667(12) 0.37274(11) 0.35007(8)
O12* O 0.30217(13) 0.28095(12) 1.09207(8)
#END
