
#######################################################################
#
#                 Cambridge Crystallographic Data Centre
#                                CCDC
#
#######################################################################
#
# If this CIF has been generated from an entry in the Cambridge
# Structural Database, then it will include bibliographic, chemical,
# crystal, experimental, refinement or atomic coordinate data resulting
# from the CCDC's data processing and validation procedures.
#
#######################################################################

data_CSD_CIF_OXIGOT01
_audit_creation_date 2016-10-18
_audit_creation_method CSD-ConQuest-V1
_database_code_CSD OXIGOT01
_database_code_depnum_ccdc_archive 'CCDC 1495523'
_chemical_formula_sum 'C10 H22 Al1 N2 Na1 O12'
_chemical_formula_moiety
;
(C6 H6 Al1 Na1 O12 2-)n,2(C2 H8 N1 1+)
;
_journal_coden_Cambridge 1326
_journal_volume 18
_journal_year 2016
_journal_page_first 29629
_journal_name_full 'Phys.Chem.Chem.Phys.(PCCP) '
loop_
_publ_author_name
"M.Ptak"
"M.Maczka"
"A.Gagor"
"A.Sieradzki"
"B.Bondzior"
"P.Deren"
"S.Pawlus"
_chemical_name_systematic
;
catena-[bis(Ethylammonium) hexakis(\m-formato)-aluminium-sodium]
;
_cell_volume    885.882
_exptl_crystal_density_diffrn 1.546
_exptl_special_details
;
low-temperature polymorph
order disorder phase transition at 369 K

;
_exptl_crystal_description 'prism'
_diffrn_ambient_temperature 270
_diffrn_special_details
;
twin

;
#These two values have been output from a single CSD field.
_refine_ls_R_factor_gt 0.05
_refine_ls_wR_factor_gt 0.05
_symmetry_cell_setting monoclinic
_symmetry_space_group_name_H-M 'P n'
_symmetry_Int_Tables_number 7
loop_
_symmetry_equiv_pos_site_id
_symmetry_equiv_pos_as_xyz
1 x,y,z
2 1/2+x,-y,1/2+z
_cell_length_a 8.0343(3)
_cell_length_b 9.2310(4)
_cell_length_c 11.9465(5)
_cell_angle_alpha 90
_cell_angle_beta 90.966(3)
_cell_angle_gamma 90
_cell_formula_units_Z 2
loop_
_atom_type_symbol
_atom_type_radius_bond
C 0.68
H 0.23
Al 1.21
N 0.68
Na 1.66
O 0.68
loop_
_atom_site_label
_atom_site_type_symbol
_atom_site_fract_x
_atom_site_fract_y
_atom_site_fract_z
Al1 Al 0.3193(3) 0.72717(17) 0.53666(18)
Na1 Na -0.1853(4) 0.2286(2) 0.5378(2)
O1 O 0.4318(5) 0.7092(4) 0.3995(3)
O2 O 0.4569(5) 0.7172(5) 0.2155(3)
O3 O 0.5092(5) 0.8237(4) 0.5997(3)
O4 O 0.1759(5) 0.7850(5) 0.8547(4)
O5 O 0.2297(5) 0.9070(4) 0.4845(3)
O6 O 0.7071(5) 0.9916(4) 0.6138(4)
O7 O 0.4068(5) 0.5490(4) 0.5900(3)
O8 O 0.5703(5) 0.3573(4) 0.6000(4)
O9 O 0.1301(5) 0.6299(4) 0.4749(3)
O10 O -0.0709(5) 0.4637(4) 0.4629(4)
O11 O 0.2045(5) 0.7504(4) 0.6728(3)
O12 O 0.0399(6) 1.0806(4) 0.4759(4)
C1 C 0.0532(8) 0.5193(6) 0.5090(5)
H1 H 0.09300 0.47570 0.57430
C2 C 0.0903(7) 0.9636(6) 0.5108(5)
H2 H 0.02290 0.91260 0.55950
C3 C 0.5897(7) 0.9313(6) 0.5656(5)
H3 H 0.55700 0.96940 0.49670
C4 C 0.5303(7) 0.4730(6) 0.5589(5)
H4 H 0.59420 0.50850 0.50080
C5 C 0.3777(8) 0.7332(6) 0.3008(5)
H5 H 0.26870 0.76590 0.29290
C6 C 0.2576(8) 0.7486(6) 0.7730(6)
H6 H 0.36640 0.71760 0.78600
N1 N 0.3379(7) 0.1292(5) 0.3163(5)
H7 H 0.44830 0.13710 0.31950
H8 H 0.30660 0.09520 0.24950
H9 H 0.30450 0.06860 0.36940
C7 C 0.2623(9) 0.2727(7) 0.3339(7)
H10 H 0.29800 0.31030 0.40620
H11 H 0.14200 0.26310 0.33420
C8 C 0.3102(10) 0.3758(7) 0.2450(8)
H12 H 0.42750 0.39490 0.25070
H13 H 0.24980 0.46470 0.25360
H14 H 0.28450 0.33470 0.17290
N2 N 0.2976(7) 0.3641(5) 0.7842(4)
H15 H 0.18860 0.36180 0.76960
H16 H 0.35110 0.39210 0.72330
H17 H 0.31830 0.42630 0.83960
C9 C 0.3183(11) 0.1110(8) 0.7295(9)
H18 H 0.35010 0.14910 0.65810
H19 H 0.20130 0.08980 0.72800
H20 H 0.37970 0.02390 0.74490
C10 C 0.3547(9) 0.2190(7) 0.8175(7)
H21 H 0.30010 0.19060 0.88590
H22 H 0.47360 0.22150 0.83260
Na1* Na -0.1853(4) 1.2286(2) 0.5378(2)
Na1** Na 0.8147(4) 0.2286(2) 0.5378(2)
Na1*** Na 0.8147(4) 1.2286(2) 0.5378(2)
Na1A Na 0.3147(4) 0.7714(2) 0.0378(2)
Na1A* Na 0.3147(4) 0.7714(2) 1.0378(2)
O2A O -0.0431(5) 0.2828(5) 0.7155(3)
O4A O -0.3241(5) 0.2150(5) 0.3547(4)
O6* O -0.2929(5) -0.0084(4) 0.6138(4)
O8* O -0.4297(5) 0.3573(4) 0.6000(4)
O12* O 0.0399(6) 0.0806(4) 0.4759(4)
#END
