
#######################################################################
#
#                 Cambridge Crystallographic Data Centre
#                                CCDC
#
#######################################################################
#
# If this CIF has been generated from an entry in the Cambridge
# Structural Database, then it will include bibliographic, chemical,
# crystal, experimental, refinement or atomic coordinate data resulting
# from the CCDC's data processing and validation procedures.
#
#######################################################################

data_CSD_CIF_OXIGOT05
_audit_creation_date 2017-08-29
_audit_creation_method CSD-ConQuest-V1
_database_code_CSD OXIGOT05
_database_code_depnum_ccdc_archive 'CCDC 1537277'
_chemical_formula_sum 'C10 H22 Al1 N2 Na1 O12'
_chemical_formula_moiety
;
2(C2 H8 N1 1+),n(C6 H6 Al1 Na1 O12 2-)
;
_journal_coden_Cambridge 1220
_journal_volume 23
_journal_year 2017
_journal_page_first 9857
_journal_name_full 'Chem.-Eur.J. '
loop_
_publ_author_name
"Yao Yu"
"Ran Shang"
"Sa Chen"
"Bin-Wu Wang"
"Zhe-Ming Wang"
"Song Gao"
_chemical_name_systematic
;
catena-[bis(ethanaminium) hexakis(\m-formato)-aluminium(iii)-sodium(i)]
;
_cell_volume    897.923
_exptl_crystal_colour 'colorless'
_exptl_crystal_density_diffrn 1.525
_exptl_crystal_description 'block'
_diffrn_ambient_temperature 360
#These two values have been output from a single CSD field.
_refine_ls_R_factor_gt 0.0443
_refine_ls_wR_factor_gt 0.0443
_symmetry_cell_setting monoclinic
_symmetry_space_group_name_H-M 'P n'
_symmetry_Int_Tables_number 7
loop_
_symmetry_equiv_pos_site_id
_symmetry_equiv_pos_as_xyz
1 x,y,z
2 1/2+x,-y,1/2+z
_cell_length_a 8.0354(4)
_cell_length_b 9.3029(6)
_cell_length_c 12.0132(6)
_cell_angle_alpha 90
_cell_angle_beta 90.829(5)
_cell_angle_gamma 90
_cell_formula_units_Z 2
loop_
_atom_type_symbol
_atom_type_radius_bond
C 0.68
H 0.23
Al 1.21
N 0.68
Na 1.66
O 0.68
loop_
_atom_site_label
_atom_site_type_symbol
_atom_site_fract_x
_atom_site_fract_y
_atom_site_fract_z
Al1 Al 0.1613(2) 0.25948(11) 0.41366(14)
Na1 Na 0.1595(3) 0.24115(15) 0.9141(2)
O1 O 0.0495(3) 0.2372(3) 0.5509(2)
O2 O 0.0225(4) 0.2158(4) 0.7326(2)
O3 O 0.3520(3) 0.1628(3) 0.4744(2)
O4 O 0.5473(4) -0.0034(3) 0.4910(3)
O5 O 0.2499(3) 0.4363(2) 0.4664(2)
O6 O 0.4168(4) 0.6243(3) 0.4748(3)
O7 O 0.3931(4) 0.0968(4) 0.8559(3)
O8 O 0.5714(3) -0.0821(3) 0.8625(2)
O9 O 0.2752(3) 0.4760(3) 0.8395(3)
O10 O 0.4708(3) 0.6449(3) 0.8538(2)
O11 O 0.2731(3) 0.2793(3) 0.2772(2)
O12 O 0.2980(4) 0.2844(3) 0.0944(2)
C1 C 0.1023(6) 0.2460(3) 0.6482(4)
H1 H 0.21100 0.27810 0.65880
C2 C 0.4283(5) 0.0536(5) 0.4430(3)
H2 H 0.39170 0.01120 0.37690
C3 C 0.3757(5) 0.5085(5) 0.4362(4)
H3 H 0.44120 0.46990 0.38040
C4 C 0.4386(5) -0.0184(4) 0.8903(4)
H4 H 0.37100 -0.06440 0.94140
C5 C 0.3976(5) 0.5320(4) 0.8850(4)
H5 H 0.44000 0.48680 0.94830
C6 C 0.2189(6) 0.2632(4) 0.1772(4)
H6 H 0.10940 0.23260 0.16770
N1 N 0.6817(5) 0.1310(4) 0.6851(4)
H7 H 0.64910 0.10250 0.61750
H8 H 0.64830 0.06730 0.73540
H9 H 0.79210 0.13780 0.68770
C7 C 0.6092(6) 0.2698(6) 0.7091(6)
H10 H 0.64890 0.30450 0.78080
H11 H 0.48890 0.26240 0.71110
C8 C 0.6600(8) 0.3708(7) 0.6189(7)
H12 H 0.77800 0.36440 0.60870
H13 H 0.63110 0.46730 0.63930
H14 H 0.60330 0.34560 0.55070
N2 N 0.1400(5) 0.6330(4) 0.6529(4)
H15 H 0.03080 0.63220 0.63970
H16 H 0.16560 0.56640 0.70350
H17 H 0.19330 0.61420 0.59010
C9 C 0.1920(7) 0.7800(6) 0.6961(6)
H18 H 0.13140 0.80190 0.76330
H19 H 0.30990 0.77920 0.71470
C10 C 0.1606(10) 0.8836(7) 0.6179(9)
H20 H 0.18960 0.84800 0.54570
H21 H 0.22560 0.96760 0.63480
H22 H 0.04450 0.90790 0.61820
Al1A Al 0.6613(2) -0.25948(11) 0.91366(14)
Al1A* Al 0.6613(2) 0.74052(11) 0.91366(14)
Na1* Na 0.1595(3) 0.24115(15) -0.0859(2)
Na1A Na 0.6595(3) -0.24115(15) 0.4141(2)
Na1A* Na 0.6595(3) 0.75885(15) 0.4141(2)
O4A O 0.0473(4) 0.0034(3) 0.9910(3)
O6A O -0.0832(4) 0.3757(3) 0.9748(3)
O8A O 0.0714(3) 0.0821(3) 0.3625(2)
O10A O -0.0292(3) 0.3551(3) 0.3538(2)
O12* O 0.2980(4) 0.2844(3) 1.0944(2)
#END
