
#######################################################################
#
#                 Cambridge Crystallographic Data Centre
#                                CCDC
#
#######################################################################
#
# If this CIF has been generated from an entry in the Cambridge
# Structural Database, then it will include bibliographic, chemical,
# crystal, experimental, refinement or atomic coordinate data resulting
# from the CCDC's data processing and validation procedures.
#
#######################################################################

data_CSD_CIF_OXUHOH01
_audit_creation_date 2021-07-09
_audit_creation_method CSD-ConQuest-V1
_database_code_CSD OXUHOH01
_database_code_depnum_ccdc_archive 'CCDC 2059344'
_chemical_formula_sum 'C164 H112 N16 O58 Zn8'
_chemical_formula_moiety
;
(C60 H12 O48 Zn8 8-)n,4(C26 H20 N4 2+),10(H2 O1)
;
_journal_coden_Cambridge 222
_journal_volume 50
_journal_year 2021
_journal_page_first 10237
_journal_name_full 'Dalton Trans. '
loop_
_publ_author_name
"Jia yun Zou"
"Jie Ji"
"Mei hong Fan"
"Jia yu Li"
"Hai yu Wang"
"Guo-Dong Li"
_chemical_name_systematic
;
catena-[tetrakis(1,1'-bis[(3-cyanophenyl)methyl]-4,4'-bipyridin-1-ium) 
hexakis(\m-benzene-1,2,4,5-tetracarboxylato)-octa-zinc(ii) decahydrate]
;
_cell_volume   3799.743
_exptl_crystal_density_diffrn 1.642
_diffrn_ambient_temperature 298
#These two values have been output from a single CSD field.
_refine_ls_R_factor_gt 0.0259
_refine_ls_wR_factor_gt 0.0259
_symmetry_cell_setting triclinic
_symmetry_space_group_name_H-M 'P -1'
_symmetry_Int_Tables_number 2
loop_
_symmetry_equiv_pos_site_id
_symmetry_equiv_pos_as_xyz
1 x,y,z
2 -x,-y,-z
_cell_length_a 15.5861(8)
_cell_length_b 16.7515(8)
_cell_length_c 16.9797(8)
_cell_angle_alpha 114.137(1)
_cell_angle_beta 100.258(2)
_cell_angle_gamma 101.247(2)
_cell_formula_units_Z 1
loop_
_atom_type_symbol
_atom_type_radius_bond
C 0.68
H 0.23
N 0.68
O 0.68
Zn 1.22
loop_
_atom_site_label
_atom_site_type_symbol
_atom_site_fract_x
_atom_site_fract_y
_atom_site_fract_z
Zn1 Zn 0.59055(2) 0.62884(2) 0.26878(2)
O1 O 0.58974(9) 0.59297(10) 0.36404(9)
O2 O 0.46490(9) 0.5760(1) 0.18803(9)
O3 O 0.63826(10) 0.76376(9) 0.3337(1)
O4 O 0.66763(11) 0.55261(11) 0.20212(10)
O5 O 0.63820(13) 0.64654(13) 0.15141(11)
C1 C 0.53494(14) 0.51546(14) 0.34377(13)
C2 C 0.39353(12) 0.59854(12) 0.17906(11)
O6 O 0.50282(12) 0.44935(10) 0.26791(10)
C3 C 0.51253(12) 0.50679(13) 0.42333(12)
O7 O 0.37788(10) 0.66719(9) 0.23386(8)
C4 C 0.32122(12) 0.53993(12) 0.09030(11)
O8 O 0.54135(9) 0.82313(9) 0.40435(10)
C5 C 0.49216(13) 0.57717(13) 0.48967(12)
C6 C 0.51867(13) 0.42995(13) 0.43385(13)
Zn2 Zn 0.42098(2) 0.73349(2) 0.36636(2)
C7 C 0.34928(12) 0.50319(12) 0.01354(11)
C8 C 0.22773(12) 0.52639(12) 0.08198(11)
C9 C 0.47580(14) 0.65753(14) 0.47755(13)
H1 H 0.53029 0.38223 0.38867
O9 O 0.42636(10) 0.63631(10) 0.39908(10)
O10 O 0.34281(10) 0.80151(9) 0.42295(9)
H2 H 0.41126 0.51128 0.01948
C10 C 0.28733(12) 0.45452(12) -0.07221(11)
C11 C 0.16615(12) 0.48091(12) -0.00370(11)
C12 C 0.19129(12) 0.55165(13) 0.16270(12)
O11 O 0.50548(16) 0.73438(11) 0.54110(11)
C13 C 0.31429(12) 0.84979(12) 0.38832(12)
C14 C 0.32717(13) 0.41421(14) -0.14863(12)
C15 C 0.19447(12) 0.44461(12) -0.08097(11)
H3 H 0.10437 0.47450 -0.00970
O12 O 0.12881(9) 0.59032(10) 0.16095(9)
O13 O 0.21957(12) 0.53092(13) 0.22162(10)
O14 O 0.32353(12) 0.84965(10) 0.31858(10)
C16 C 0.27487(12) 0.92066(12) 0.44653(12)
C17 C 0.12382(12) 0.39263(12) -0.17164(11)
Zn3 Zn 0.07195(2) 0.62208(2) 0.25776(2)
C18 C 0.18295(12) 0.90709(12) 0.44538(12)
C19 C 0.33655(12) 1.00709(12) 0.50292(12)
O15 O 0.14688(9) 0.3407(1) -0.23516(9)
O16 O 0.04696(9) 0.40440(11) -0.17440(9)
O17 O 0.13403(10) 0.75457(9) 0.33035(10)
O18 O 0.07051(9) 0.58338(10) 0.34954(9)
C20 C 0.15656(12) 0.98085(12) 0.49941(12)
C21 C 0.11128(12) 0.81616(12) 0.38730(12)
C22 C 0.30997(12) 1.08132(12) 0.55548(11)
H4 H 0.39799 1.01568 0.50564
Zn4 Zn 0.09173(2) 0.26731(2) -0.36663(2)
C23 C 0.01179(14) 0.51113(14) 0.33528(13)
C24 C 0.21761(12) 1.06821(12) 0.55317(12)
H5 H 0.09577 0.97128 0.49953
O19 O 0.03391(9) 0.80955(10) 0.39853(10)
C25 C 0.38271(12) 1.17285(12) 0.61061(12)
O20 O -0.03350(15) 0.44837(12) 0.26099(11)
C26 C 0.00244(13) 0.50481(13) 0.41994(13)
C27 C 0.17514(12) 1.14122(12) 0.60119(12)
C28 C 0.01998(13) 0.43217(14) 0.43266(13)
C29 C -0.01855(13) 0.57334(13) 0.48777(13)
O21 O 0.14185(13) 1.13734(11) 0.65994(11)
O22 O 0.16812(11) 1.19843(10) 0.57124(10)
O23 O -0.08647(10) 0.6327(1) 0.39775(10)
H6 H 0.03300 0.38608 0.38706
C30 C -0.04161(16) 0.65182(15) 0.47617(15)
O24 O -0.0180(2) 0.72718(13) 0.54120(13)
O25 O 0.31378(12) 0.39674(12) 0.19085(12)
H7 H 0.37116 0.41688 0.21550
H8 H 0.29039 0.44066 0.20140
O26 O 0.23816(13) 0.55297(14) -0.25672(12)
H9 H 0.25894 0.51417 -0.24567
H10 H 0.19157 0.51620 -0.30354
O27 O 0.0238(3) 0.1914(2) 0.2840(2)
H11 H 0.02014 0.21206 0.33773
H12 H -0.00200 0.22127 0.26234
O28 O 0.0032(3) 0.2811(3) 0.1818(2)
H13 H 0.04981 0.28518 0.16018
H14 H -0.00368 0.33404 0.19799
O29 O 0.13952(18) 0.27310(17) 0.0923(2)
H15 H 0.19389 0.29860 0.12697
H16 H 0.13011 0.21738 0.07748
N1 N 0.8977(3) -0.0913(2) -0.0877(2)
N2 N 0.87484(14) 0.28894(13) -0.04088(14)
N3 N 0.42976(15) 0.27845(13) -0.01794(14)
N4 N 0.2289(2) -0.0850(2) -0.0013(2)
C31 C 0.9186(2) -0.0357(2) -0.1088(2)
C32 C 0.94189(18) 0.0346(2) -0.1366(2)
C33 C 0.9557(2) 0.0106(2) -0.2207(2)
H17 H 0.95118 -0.04980 -0.25853
C34 C 0.9765(2) 0.0785(2) -0.2473(2)
H18 H 0.98699 0.06386 -0.30310
C35 C 0.94767(18) 0.12396(19) -0.07985(19)
H19 H 0.93864 0.13914 -0.02343
C36 C 0.98171(19) 0.1670(2) -0.1915(2)
H20 H 0.99529 0.21183 -0.21012
C37 C 0.96706(16) 0.19075(19) -0.10794(18)
C38 C 0.96813(18) 0.28665(19) -0.04944(19)
H21 H 1.01027 0.30969 0.00982
H22 H 0.98911 0.32598 -0.07543
C39 C 0.80499(17) 0.25275(15) -0.11694(16)
H23 H 0.81609 0.22815 -0.17277
C40 C 0.71863(16) 0.25194(15) -0.11268(15)
H24 H 0.67115 0.22651 -0.16567
C41 C 0.8598(2) 0.32653(19) 0.04024(17)
H25 H 0.90858 0.35246 0.09225
C42 C 0.77448(19) 0.32716(18) 0.04730(17)
H26 H 0.76539 0.35335 0.10393
C43 C 0.70035(17) 0.28875(14) -0.02989(14)
C44 C 0.60672(17) 0.28769(14) -0.02525(15)
C45 C 0.53420(17) 0.24813(16) -0.10329(16)
H27 H 0.54514 0.22426 -0.15923
C46 C 0.44694(19) 0.24395(16) -0.09865(16)
H28 H 0.39898 0.21717 -0.15143
C47 C 0.5862(2) 0.32548(16) 0.05689(16)
H29 H 0.63294 0.35419 0.11073
C48 C 0.4983(2) 0.32050(16) 0.05851(17)
H30 H 0.48583 0.34669 0.11349
C49 C 0.3321(2) 0.26803(19) -0.0170(2)
H31 H 0.32937 0.29213 0.04479
H32 H 0.30710 0.30297 -0.04356
C50 C 0.1810(2) 0.0419(2) -0.2073(2)
H33 H 0.15022 0.01848 -0.26796
C51 C 0.1788(2) -0.0162(2) -0.1681(2)
H34 H 0.14606 -0.07805 -0.20150
C52 C 0.27621(18) 0.16923(19) -0.06864(17)
C53 C 0.27535(17) 0.11216(19) -0.02842(17)
H35 H 0.30751 0.13566 0.03187
C54 C 0.22657(18) 0.01992(19) -0.07788(18)
C55 C 0.2275(2) -0.0386(2) -0.0349(2)
C56 C 0.2277(2) 0.1328(2) -0.15839(19)
H36 H 0.22691 0.17093 -0.18567
N5 N 0.43755(16) 0.1944(2) 0.16432(15)
N6 N 0.75588(11) 0.42820(12) 0.50647(11)
N7 N 0.71324(14) 0.87229(13) 0.67424(13)
N8 N 0.4901(3) 1.0850(2) 0.9725(2)
C57 C 0.51276(18) 0.20274(18) 0.19191(16)
C58 C 0.60755(16) 0.21949(15) 0.23306(15)
C59 C 0.66965(19) 0.20409(17) 0.18282(17)
H37 H 0.65007 0.17911 0.12037
C60 C 0.76046(19) 0.22652(19) 0.22730(18)
H38 H 0.80232 0.21553 0.19436
C61 C 0.79035(18) 0.26515(18) 0.32020(18)
H39 H 0.85206 0.28065 0.34928
C62 C 0.63681(15) 0.25617(14) 0.32617(15)
H40 H 0.59461 0.26415 0.35898
C63 C 0.72851(16) 0.28089(15) 0.37026(15)
C64 C 0.75999(17) 0.33081(16) 0.47160(15)
H41 H 0.82222 0.33123 0.49274
H42 H 0.72164 0.29878 0.49516
C65 C 0.75376(14) 0.47108(15) 0.45418(14)
H43 H 0.75624 0.44060 0.39533
C66 C 0.74803(14) 0.55837(15) 0.48640(14)
H44 H 0.74606 0.58651 0.44919
C67 C 0.75549(14) 0.47255(15) 0.59255(14)
H45 H 0.75853 0.44322 0.62867
C68 C 0.75065(15) 0.56047(16) 0.62752(14)
H46 H 0.75109 0.59044 0.68741
C69 C 0.74509(13) 0.60580(15) 0.57470(13)
C70 C 0.73446(14) 0.69920(15) 0.61009(14)
C71 C 0.75736(18) 0.75516(17) 0.57062(16)
H47 H 0.78028 0.73447 0.52136
C72 C 0.74632(18) 0.84073(18) 0.60396(17)
H48 H 0.76223 0.87767 0.57705
C73 C 0.70064(18) 0.73387(17) 0.68335(16)
H49 H 0.68471 0.69854 0.71181
C74 C 0.69063(19) 0.81971(17) 0.71386(17)
H50 H 0.66775 0.84208 0.76294
C75 C 0.70338(19) 0.96728(17) 0.71135(19)
H51 H 0.74772 1.00519 0.77009
H52 H 0.71703 0.99361 0.67200
C76 C 0.60981(18) 0.96908(15) 0.72027(15)
C77 C 0.53515(19) 0.93408(16) 0.64488(16)
H53 H 0.54297 0.90766 0.58770
C78 C 0.4497(2) 0.93790(17) 0.65350(17)
H54 H 0.40032 0.91384 0.60228
C79 C 0.4369(2) 0.97739(17) 0.73807(19)
H55 H 0.37931 0.98067 0.74406
C80 C 0.59686(19) 1.00810(15) 0.80506(16)
H56 H 0.64611 1.03174 0.85631
C81 C 0.51092(19) 1.01196(16) 0.81363(16)
C82 C 0.4990(2) 1.05208(19) 0.9027(2)
C6A C 0.48133(13) 0.57005(13) 0.56615(13)
C5A C 0.50784(13) 0.42283(13) 0.51033(12)
C3A C 0.48747(12) 0.49321(13) 0.57667(12)
H1A H 0.46971 0.61777 0.61133
C9A C 0.52420(14) 0.34247(14) 0.52245(13)
C1A C 0.46506(14) 0.48454(14) 0.65623(13)
O11A O 0.49452(16) 0.26562(11) 0.45890(11)
O9A O 0.57364(10) 0.36369(10) 0.60092(10)
O4A O 0.33237(11) 0.44739(11) -0.20212(10)
O5A O 0.36180(13) 0.35346(13) -0.15141(11)
O6A O 0.49718(12) 0.55065(10) 0.73209(10)
O1A O 0.41026(9) 0.40703(10) 0.63596(9)
Zn2A Zn 0.57902(2) 0.26651(2) 0.63364(2)
Zn1A Zn 0.40945(2) 0.37116(2) -0.26878(2)
O16A O -0.04696(9) 0.59560(11) 0.17440(9)
Zn2A* Zn 0.57902(2) 1.26651(2) 0.63364(2)
Zn1A* Zn 0.40945(2) 0.37116(2) 0.73122(2)
Zn3A Zn -0.07195(2) 0.37792(2) -0.25776(2)
C17A C -0.12382(12) 0.60737(12) 0.17164(11)
O8A O 0.45865(9) 1.17687(9) 0.59565(10)
O19A O -0.03391(9) 0.19045(10) -0.39853(10)
O17A O -0.13403(10) 0.24543(9) -0.33035(10)
O12A O -0.12881(9) 0.40968(10) -0.16095(9)
O18A O -0.07051(9) 0.41662(10) -0.34954(9)
O15A O -0.14688(9) 0.6593(1) 0.23516(9)
C15A C -0.19447(12) 0.55539(12) 0.08097(11)
Zn4A Zn -0.09173(2) 0.73269(2) 0.36663(2)
O3A O 0.36174(10) 1.23624(9) 0.6663(1)
C21A C -0.11128(12) 0.18384(12) -0.38730(12)
C12A C -0.19129(12) 0.44835(13) -0.16270(12)
C10A C -0.28733(12) 0.54548(12) 0.07221(11)
C11A C -0.16615(12) 0.51909(12) 0.00370(11)
Zn1A** Zn 0.40945(2) 1.37116(2) 0.73122(2)
C18A C -0.18295(12) 0.09291(12) -0.44538(12)
O13A O -0.21957(12) 0.46908(13) -0.22162(10)
C8A C -0.22773(12) 0.47361(12) -0.08198(11)
C29A C 0.01855(13) 0.42666(13) 0.51223(13)
C28A C -0.01998(13) 0.56783(14) 0.56734(13)
C7A C -0.34928(12) 0.49681(12) -0.01354(11)
C14A C -0.32717(13) 0.58579(14) 0.14863(12)
H3A H -0.10437 0.52550 0.00970
Zn4* Zn 0.09173(2) 1.26731(2) 0.63337(2)
C20A C -0.15656(12) 0.01915(12) -0.49941(12)
C16A C -0.27487(12) 0.07934(12) -0.44653(12)
C4A C -0.32122(12) 0.46007(12) -0.09030(11)
C26A C -0.00244(13) 0.49519(13) 0.58006(13)
C30A C 0.04161(16) 0.34818(15) 0.52383(15)
H6A H -0.03300 0.61392 0.61294
H2A H -0.41126 0.48872 -0.01948
O4* O -0.33237(11) 0.55261(11) 0.20212(10)
O5* O -0.36180(13) 0.64654(13) 0.15141(11)
O19A* O -0.03391(9) 1.19045(10) 0.60147(10)
O15* O 0.14688(9) 1.3407(1) 0.76484(9)
O23A O 0.08647(10) 1.3673(1) 0.60225(10)
C24A C -0.21761(12) -0.06821(12) -0.55317(12)
H5A H -0.09577 0.02872 -0.49953
C19A C -0.33655(12) -0.00709(12) -0.50292(12)
C13A C -0.31429(12) 0.15021(12) -0.38832(12)
C2A C -0.39353(12) 0.40146(12) -0.17906(11)
C23A C -0.01179(14) 0.48887(14) 0.66472(13)
O23A* O 0.08647(10) 0.3673(1) 0.60225(10)
O24A O 0.0180(2) 0.27282(13) 0.45880(13)
Zn1* Zn -0.40945(2) 0.62884(2) 0.26878(2)
Zn4** Zn 0.09173(2) 0.26731(2) 0.63337(2)
C27A C -0.17514(12) -0.14122(12) -0.60119(12)
C22A C -0.30997(12) -0.08132(12) -0.55548(11)
H4A H -0.39799 -0.01568 -0.50564
O10A O -0.34281(10) 0.19849(9) -0.42295(9)
O14A O -0.32353(12) 0.15035(10) -0.31858(10)
O2A O -0.46490(9) 0.4240(1) -0.18803(9)
O7A O -0.37788(10) 0.33281(9) -0.23386(8)
O18A* O -0.07051(9) 0.41662(10) 0.65046(9)
O20A O 0.03350(15) 0.55163(12) 0.73901(11)
O19* O 0.03391(9) -0.19045(10) -0.60147(10)
O21A O -0.14185(13) -0.13734(11) -0.65994(11)
O22A O -0.16812(11) -0.19843(10) -0.57124(10)
C25A C -0.38271(12) -0.17285(12) -0.61061(12)
Zn2A** Zn -0.42098(2) 0.26651(2) -0.36636(2)
Zn1A*** Zn -0.59055(2) 0.37116(2) -0.26878(2)
Zn3A* Zn -0.07195(2) 0.37792(2) 0.74224(2)
Zn4A* Zn -0.09173(2) -0.26731(2) -0.63337(2)
O8* O -0.45865(9) -0.17687(9) -0.59565(10)
O3* O -0.36174(10) -0.23624(9) -0.6663(1)
O9A* O -0.42636(10) 0.36369(10) -0.39908(10)
O8A* O -0.54135(9) 0.17687(9) -0.40435(10)
O1A* O -0.58974(9) 0.40703(10) -0.36404(9)
O3A* O -0.63826(10) 0.23624(9) -0.3337(1)
O4A* O -0.66763(11) 0.44739(11) -0.20212(10)
O5A* O -0.63820(13) 0.35346(13) -0.15141(11)
O23* O -0.08647(10) -0.3673(1) -0.60225(10)
O15A* O -0.14688(9) -0.3407(1) -0.76484(9)
Zn2* Zn -0.57902(2) -0.26651(2) -0.63364(2)
Zn1** Zn -0.40945(2) -0.37116(2) -0.73122(2)
#END
