
#######################################################################
#
#                 Cambridge Crystallographic Data Centre
#                                CCDC
#
#######################################################################
#
# If this CIF has been generated from an entry in the Cambridge
# Structural Database, then it will include bibliographic, chemical,
# crystal, experimental, refinement or atomic coordinate data resulting
# from the CCDC's data processing and validation procedures.
#
#######################################################################

data_CSD_CIF_OXUHOH
_audit_creation_date 2021-07-09
_audit_creation_method CSD-ConQuest-V1
_database_code_CSD OXUHOH
_database_code_depnum_ccdc_archive 'CCDC 2059343'
_chemical_formula_sum 'C164 H112 N16 O58 Zn8'
_chemical_formula_moiety
;
(C60 H12 O48 Zn8 8-)n,4(C26 H20 N4 2+),10(H2 O1)
;
_journal_coden_Cambridge 222
_journal_volume 50
_journal_year 2021
_journal_page_first 10237
_journal_name_full 'Dalton Trans. '
loop_
_publ_author_name
"Jia yun Zou"
"Jie Ji"
"Mei hong Fan"
"Jia yu Li"
"Hai yu Wang"
"Guo-Dong Li"
_chemical_name_systematic
;
catena-[tetrakis(1,1'-bis[(3-cyanophenyl)methyl]-4,4'-bipyridin-1-ium) 
hexakis(\m-benzene-1,2,4,5-tetracarboxylato)-octa-zinc(ii) decahydrate]
;
_cell_volume   3795.546
_exptl_crystal_density_diffrn 1.644
_diffrn_ambient_temperature 297
#These two values have been output from a single CSD field.
_refine_ls_R_factor_gt 0.031
_refine_ls_wR_factor_gt 0.031
_symmetry_cell_setting triclinic
_symmetry_space_group_name_H-M 'P -1'
_symmetry_Int_Tables_number 2
loop_
_symmetry_equiv_pos_site_id
_symmetry_equiv_pos_as_xyz
1 x,y,z
2 -x,-y,-z
_cell_length_a 15.5797(7)
_cell_length_b 16.7473(8)
_cell_length_c 16.9714(8)
_cell_angle_alpha 114.109(2)
_cell_angle_beta 100.262(2)
_cell_angle_gamma 101.279(2)
_cell_formula_units_Z 1
loop_
_atom_type_symbol
_atom_type_radius_bond
C 0.68
H 0.23
N 0.68
O 0.68
Zn 1.22
loop_
_atom_site_label
_atom_site_type_symbol
_atom_site_fract_x
_atom_site_fract_y
_atom_site_fract_z
Zn1 Zn 0.59057(2) 0.62891(2) 0.26868(2)
Zn2 Zn 0.07202(2) 0.62219(2) 0.25775(2)
Zn3 Zn 0.42093(2) 0.73359(2) 0.36630(2)
Zn4 Zn 0.09172(2) 1.26723(2) 0.63360(2)
O1 O 0.50266(15) 0.44930(14) 0.26790(13)
O2 O 0.58988(11) 0.59315(13) 0.36406(12)
O3 O 0.46490(11) 0.57613(13) 0.18781(12)
O4 O 0.37782(12) 0.66722(12) 0.23381(11)
O5 O 0.50551(19) 0.73461(15) 0.54113(15)
O6 O 0.42634(12) 0.63647(13) 0.39890(13)
O7 O 0.34280(12) 0.80171(12) 0.42281(12)
O8 O 0.32347(15) 0.84951(14) 0.31834(13)
O9 O 0.45873(11) 1.17685(12) 0.59573(13)
O10 O 0.36187(12) 1.23623(12) 0.66642(13)
O11 O 0.14192(16) 1.13727(15) 0.65967(15)
O12 O 0.16808(13) 1.19860(13) 0.57139(13)
O13 O -0.0176(3) 0.72741(18) 0.54116(17)
O14 O -0.08649(12) 0.63282(13) 0.39760(13)
O15 O -0.03329(18) 0.44862(16) 0.26109(14)
O16 O 0.07055(12) 0.58354(13) 0.34958(12)
O17 O 0.13398(11) 0.75471(12) 0.33016(13)
O18 O 0.03392(11) 0.80971(13) 0.39843(13)
O19 O 0.12872(11) 0.59033(13) 0.16093(12)
O20 O 0.21961(14) 0.53100(16) 0.22167(13)
O21 O 0.33218(14) 0.44727(15) -0.20218(13)
O22 O 0.36180(16) 0.35325(16) -0.15146(15)
O23 O 0.14680(12) 0.34069(13) -0.23489(11)
O24 O 0.04698(11) 0.40462(14) -0.17421(12)
C1 C 0.38274(15) 1.17316(16) 0.61089(16)
C2 C 0.31021(15) 1.08136(15) 0.55548(15)
C3 C 0.21755(15) 1.06834(16) 0.55284(16)
C4 C 0.15664(15) 0.98105(16) 0.49903(16)
H1 H 0.09581 0.97151 0.49907
C5 C 0.18274(15) 0.90734(16) 0.44511(16)
C6 C 0.33638(15) 1.00719(16) 0.50276(16)
H2 H 0.39785 1.01584 0.50544
C7 C 0.27499(15) 0.92072(16) 0.44626(16)
C8 C 0.31430(15) 0.84996(16) 0.38826(17)
C9 C 0.47573(18) 0.65744(18) 0.47744(18)
C10 C 0.49214(16) 0.57711(17) 0.48963(17)
C11 C 0.51238(15) 0.50686(17) 0.42328(16)
C12 C 0.48116(16) 0.56981(17) 0.56599(17)
H3 H 0.46920 0.61737 0.61103
C13 C 0.53488(17) 0.51553(18) 0.34376(17)
C14 C 0.39360(15) 0.59873(16) 0.17904(15)
C15 C 0.32107(15) 0.54003(16) 0.09005(15)
C16 C 0.34911(15) 0.50329(16) 0.01359(15)
H4 H 0.41111 0.51117 0.01960
C17 C 0.28715(15) 0.45480(16) -0.07221(15)
C18 C 0.32714(16) 0.41421(19) -0.14855(17)
C19 C 0.19432(14) 0.44469(15) -0.08092(15)
C20 C 0.12378(15) 0.39257(16) -0.17152(15)
C21 C 0.16624(15) 0.48098(16) -0.00362(15)
H5 H 0.10443 0.47457 -0.00960
C22 C 0.22769(15) 0.52641(16) 0.08205(15)
C23 C 0.19134(15) 0.55178(17) 0.16277(16)
C24 C 0.01196(18) 0.51106(19) 0.33542(18)
C25 C 0.00247(16) 0.50488(17) 0.41995(17)
C26 C -0.01854(16) 0.57331(18) 0.48785(17)
C27 C -0.02019(16) 0.56765(18) 0.56707(17)
H6 H -0.03350 0.61361 0.61253
C28 C -0.0413(2) 0.6517(2) 0.4758(2)
C29 C 0.11138(15) 0.81605(16) 0.38698(16)
C30 C 0.17545(15) 1.14149(17) 0.60127(16)
O25 O 0.31372(16) 0.39703(15) 0.19091(17)
H7 H 0.37103 0.41516 0.21576
H8 H 0.29823 0.44597 0.20705
O26 O 0.23828(17) 0.55265(18) -0.25726(18)
H9 H 0.26070 0.51421 -0.24714
H10 H 0.18085 0.52708 -0.27592
O27 O -0.0038(3) 0.7186(3) 0.8181(3)
H11 H -0.04683 0.70522 0.83998
H12 H 0.01033 0.66900 0.79667
O28 O -0.0244(4) 0.8082(3) 0.7162(3)
H13 H -0.02168 0.78786 0.66215
H14 H 0.00550 0.78129 0.73845
O29 O 0.1401(2) 0.2732(2) 0.0924(2)
H15 H 0.19326 0.29616 0.12942
H16 H 0.11901 0.21017 0.06499
N1 N 0.8973(3) -0.0911(3) -0.0872(3)
N2 N 0.87483(17) 0.28926(17) -0.04053(18)
N3 N 0.42928(19) 0.27828(18) -0.01814(18)
N4 N 0.2293(2) -0.0852(3) -0.0012(3)
C31 C 0.9179(3) -0.0357(3) -0.1088(3)
C32 C 0.9557(2) 0.0108(3) -0.2202(3)
H17 H 0.95130 -0.04955 -0.25788
C33 C 0.9766(3) 0.0787(3) -0.2469(3)
H18 H 0.98686 0.06399 -0.30277
C34 C 0.9820(2) 0.1676(3) -0.1907(3)
H19 H 0.99605 0.21257 -0.20907
C35 C 0.9415(2) 0.0350(3) -0.1360(3)
C36 C 0.9476(2) 0.1243(2) -0.0792(2)
H20 H 0.93874 0.13950 -0.02270
C37 C 0.9669(2) 0.1911(2) -0.1073(2)
C38 C 0.9681(2) 0.2870(2) -0.0493(2)
H21 H 1.01046 0.31035 0.00996
H22 H 0.98883 0.32596 -0.07572
C39 C 0.8052(2) 0.2531(2) -0.1165(2)
H23 H 0.81635 0.22862 -0.17230
C40 C 0.7185(2) 0.2521(2) -0.11222(19)
H24 H 0.67102 0.22635 -0.16530
C41 C 0.8596(2) 0.3265(2) 0.0402(2)
H25 H 0.90841 0.35243 0.09220
C42 C 0.7741(2) 0.3273(2) 0.0476(2)
H26 H 0.76494 0.35346 0.10419
C43 C 0.7000(2) 0.28873(19) -0.03003(19)
C44 C 0.6061(2) 0.28766(19) -0.02515(19)
C45 C 0.5338(2) 0.2481(2) -0.1030(2)
H27 H 0.54478 0.22413 -0.15897
C46 C 0.4466(2) 0.2438(2) -0.0986(2)
H28 H 0.39871 0.21694 -0.15148
C47 C 0.5860(2) 0.3256(2) 0.0570(2)
H29 H 0.63286 0.35442 0.11076
C48 C 0.4981(2) 0.3205(2) 0.0585(2)
H30 H 0.48559 0.34663 0.11352
C49 C 0.3317(2) 0.2681(3) -0.0166(3)
H31 H 0.32918 0.29199 0.04521
H32 H 0.30649 0.30308 -0.04305
C50 C 0.2760(2) 0.1691(2) -0.0685(2)
C51 C 0.2275(2) 0.1330(3) -0.1581(3)
H33 H 0.22668 0.17121 -0.18532
C52 C 0.1807(3) 0.0414(3) -0.2073(3)
H34 H 0.14965 0.01797 -0.26789
C53 C 0.1791(2) -0.0163(3) -0.1683(3)
H35 H 0.14676 -0.07830 -0.20166
C54 C 0.2752(2) 0.1120(2) -0.0285(2)
H36 H 0.30739 0.13548 0.03182
C55 C 0.2269(2) 0.0201(3) -0.0777(2)
C56 C 0.2276(2) -0.0390(3) -0.0350(3)
N5 N 0.4376(2) 0.1947(2) 0.16444(19)
N6 N 0.75581(14) 0.42803(16) 0.50634(15)
N7 N 0.71332(17) 0.87263(17) 0.67457(17)
N8 N 0.4899(3) 1.0848(3) 0.9723(3)
C57 C 0.5127(2) 0.2030(2) 0.1923(2)
C58 C 0.60786(19) 0.2198(2) 0.2331(2)
C59 C 0.6696(2) 0.2043(2) 0.1827(2)
H37 H 0.64993 0.17921 0.12019
C60 C 0.7606(2) 0.2269(3) 0.2272(2)
H38 H 0.80267 0.21631 0.19441
C61 C 0.63672(19) 0.25619(19) 0.32615(19)
H39 H 0.59437 0.26370 0.35884
C62 C 0.72858(19) 0.2813(2) 0.3703(2)
C63 C 0.7900(2) 0.2652(2) 0.3200(2)
H40 H 0.85172 0.28038 0.34915
C64 C 0.7598(2) 0.3312(2) 0.4716(2)
H41 H 0.72128 0.29906 0.49504
H42 H 0.82202 0.33155 0.49290
C65 C 0.75371(17) 0.4712(2) 0.45421(19)
H43 H 0.75613 0.44084 0.39532
C66 C 0.74812(17) 0.5586(2) 0.48643(18)
H44 H 0.74640 0.58681 0.44928
C67 C 0.75563(17) 0.4727(2) 0.59257(18)
H45 H 0.75911 0.44358 0.62894
C68 C 0.75038(19) 0.5602(2) 0.62717(19)
H46 H 0.75041 0.59007 0.68697
C69 C 0.74496(16) 0.60568(19) 0.57443(18)
C70 C 0.73442(17) 0.6992(2) 0.60991(18)
C71 C 0.7574(2) 0.7554(2) 0.5707(2)
H47 H 0.78036 0.73495 0.52149
C72 C 0.7464(2) 0.8408(2) 0.6042(2)
H48 H 0.76236 0.87780 0.57734
C73 C 0.7006(2) 0.7339(2) 0.6832(2)
H49 H 0.68475 0.69855 0.71164
C74 C 0.6906(2) 0.8193(2) 0.7137(2)
H50 H 0.66745 0.84134 0.76267
C75 C 0.7033(2) 0.9672(2) 0.7114(2)
H51 H 0.74778 1.00520 0.77006
H52 H 0.71683 0.99339 0.67188
C76 C 0.6098(2) 0.9690(2) 0.7205(2)
C77 C 0.5353(2) 0.9340(2) 0.6450(2)
H53 H 0.54304 0.90742 0.58777
C78 C 0.4494(2) 0.9381(2) 0.6538(2)
H54 H 0.39993 0.91424 0.60270
C79 C 0.4369(2) 0.9774(2) 0.7381(2)
H55 H 0.37941 0.98079 0.74410
C80 C 0.5968(2) 1.0080(2) 0.8050(2)
H56 H 0.64613 1.03195 0.85636
C81 C 0.5104(2) 1.0116(2) 0.8135(2)
C82 C 0.4986(3) 1.0517(3) 0.9023(3)
O1A O 0.49734(15) 0.55070(14) 0.73210(13)
O2A O 0.41012(11) 0.40685(13) 0.63594(12)
O5A O 0.49449(19) 0.26539(15) 0.45887(15)
O6A O 0.57366(12) 0.36353(13) 0.60110(13)
C9A C 0.52427(18) 0.34256(18) 0.52256(18)
C10A C 0.50786(16) 0.42289(17) 0.51037(17)
C11A C 0.48762(15) 0.49314(17) 0.57672(16)
C12A C 0.51884(16) 0.43019(17) 0.43401(17)
H3A H 0.53080 0.38263 0.38897
C13A C 0.46512(17) 0.48447(18) 0.65624(17)
O13A O 0.0176(3) 0.27259(18) 0.45884(17)
O14A O 0.08649(12) 0.36718(13) 0.60240(13)
O15A O 0.03329(18) 0.55138(16) 0.73891(14)
O16A O -0.07055(12) 0.41646(13) 0.65042(12)
C24A C -0.01196(18) 0.48894(19) 0.66458(18)
C25A C -0.00247(16) 0.49512(17) 0.58005(17)
C26A C 0.01854(16) 0.42669(18) 0.51215(17)
C27A C 0.02019(16) 0.43235(18) 0.43293(17)
H6A H 0.03350 0.38639 0.38747
C28A C 0.0413(2) 0.3483(2) 0.5242(2)
Zn1A Zn -0.59057(2) 0.37109(2) -0.26868(2)
Zn2A Zn -0.07202(2) 0.37781(2) -0.25775(2)
Zn3A Zn -0.42093(2) 0.26641(2) -0.36630(2)
Zn4A Zn -0.09172(2) -0.26723(2) -0.63360(2)
O3A O -0.46490(11) 0.42387(13) -0.18781(12)
O4A O -0.37782(12) 0.33278(12) -0.23381(11)
O7A O -0.34280(12) 0.19829(12) -0.42281(12)
O8A O -0.32347(15) 0.15049(14) -0.31834(13)
O9A O -0.45873(11) -0.17685(12) -0.59573(13)
O10A O -0.36187(12) -0.23623(12) -0.66642(13)
O11A O -0.14192(16) -0.13727(15) -0.65967(15)
O12A O -0.16808(13) -0.19860(13) -0.57139(13)
O17A O -0.13398(11) 0.24529(12) -0.33016(13)
O18A O -0.03392(11) 0.19029(13) -0.39843(13)
O19A O -0.12872(11) 0.40967(13) -0.16093(12)
O20A O -0.21961(14) 0.46900(16) -0.22167(13)
O21A O -0.33218(14) 0.55273(15) 0.20218(13)
O22A O -0.36180(16) 0.64675(16) 0.15146(15)
O23A O -0.14680(12) 0.65931(13) 0.23489(11)
O24A O -0.04698(11) 0.59538(14) 0.17421(12)
C1A C -0.38274(15) -0.17316(16) -0.61089(16)
C2A C -0.31021(15) -0.08136(15) -0.55548(15)
C3A C -0.21755(15) -0.06834(16) -0.55284(16)
C4A C -0.15664(15) 0.01895(16) -0.49903(16)
H1A H -0.09581 0.02849 -0.49907
C5A C -0.18274(15) 0.09266(16) -0.44511(16)
C6A C -0.33638(15) -0.00719(16) -0.50276(16)
H2A H -0.39785 -0.01584 -0.50544
C7A C -0.27499(15) 0.07928(16) -0.44626(16)
C8A C -0.31430(15) 0.15004(16) -0.38826(17)
C14A C -0.39360(15) 0.40127(16) -0.17904(15)
C15A C -0.32107(15) 0.45997(16) -0.09005(15)
C16A C -0.34911(15) 0.49671(16) -0.01359(15)
H4A H -0.41111 0.48883 -0.01960
C17A C -0.28715(15) 0.54520(16) 0.07221(15)
C18A C -0.32714(16) 0.58579(19) 0.14855(17)
C19A C -0.19432(14) 0.55531(15) 0.08092(15)
C20A C -0.12378(15) 0.60743(16) 0.17152(15)
C21A C -0.16624(15) 0.51902(16) 0.00362(15)
H5A H -0.10443 0.52543 0.00960
C22A C -0.22769(15) 0.47359(16) -0.08205(15)
C23A C -0.19134(15) 0.44822(17) -0.16277(16)
C29A C -0.11138(15) 0.18395(16) -0.38698(16)
C30A C -0.17545(15) -0.14149(17) -0.60127(16)
Zn1* Zn -0.40943(2) -0.37109(2) -0.73132(2)
Zn1** Zn -0.40943(2) 0.62891(2) 0.26868(2)
Zn1A* Zn 0.40943(2) 0.37109(2) -0.26868(2)
Zn1A** Zn 0.40943(2) 0.37109(2) 0.73132(2)
Zn1A*** Zn 0.40943(2) 1.37109(2) 0.73132(2)
Zn2A* Zn -0.07202(2) 0.37781(2) 0.74225(2)
Zn3* Zn -0.57907(2) -0.26641(2) -0.63370(2)
Zn3A* Zn 0.57907(2) 0.26641(2) 0.63370(2)
Zn3A** Zn 0.57907(2) 1.26641(2) 0.63370(2)
Zn4* Zn 0.09172(2) 0.26723(2) -0.36640(2)
Zn4** Zn 0.09172(2) 0.26723(2) 0.63360(2)
Zn4A* Zn -0.09172(2) 0.73277(2) 0.36640(2)
O2A* O -0.58988(11) 0.40685(13) -0.36406(12)
O6A* O -0.42634(12) 0.36353(13) -0.39890(13)
O9* O -0.54127(11) 0.17685(12) -0.40427(13)
O9A* O 0.54127(11) 0.82315(12) 0.40427(13)
O10* O -0.63813(12) 0.23623(12) -0.33358(13)
O10A* O 0.63813(12) 0.76377(12) 0.33358(13)
O14* O -0.08649(12) -0.36718(13) -0.60240(13)
O14A* O 0.08649(12) 1.36718(13) 0.60240(13)
O16A* O -0.07055(12) 0.41646(13) -0.34958(12)
O18* O 0.03392(11) -0.19029(13) -0.60157(13)
O18A* O -0.03392(11) 1.19029(13) 0.60157(13)
O21* O -0.66782(14) 0.44727(15) -0.20218(13)
O21A* O 0.66782(14) 0.55273(15) 0.20218(13)
O22* O -0.63820(16) 0.35325(16) -0.15146(15)
O22A* O 0.63820(16) 0.64675(16) 0.15146(15)
O23* O 0.14680(12) 1.34069(13) 0.76511(11)
O23A* O -0.14680(12) -0.34069(13) -0.76511(11)
#END
