
#######################################################################
#
#                 Cambridge Crystallographic Data Centre
#                                CCDC
#
#######################################################################
#
# If this CIF has been generated from an entry in the Cambridge
# Structural Database, then it will include bibliographic, chemical,
# crystal, experimental, refinement or atomic coordinate data resulting
# from the CCDC's data processing and validation procedures.
#
#######################################################################

data_CSD_CIF_OXUNEB
_audit_creation_date 2011-10-18
_audit_creation_method CSD-ConQuest-V1
_database_code_CSD OXUNEB
_database_code_depnum_ccdc_archive 'CCDC 715136'
_chemical_formula_sum 'C20 H134 Cd4 Cl4 Mg2 Mo24 N20 O131 P16'
_chemical_formula_moiety
;
(C2 H8 N2)2n,2n(C2 H9 N2 1+),4n(C2 H10 N2 2+),n(C4 H42 Cd4 Cl4 Mg2 Mo24 N4 
O122 P16 10-),9n(H2 O1)
;
_journal_coden_Cambridge 910
_journal_volume 20
_journal_year 2010
_journal_page_first 53
_journal_name_full 'J.Inorg.Organomet.Polym.Mater. '
loop_
_publ_author_name
"Qi-Bing Bo"
"Dong Ma"
"Guo-Xin Sun"
_chemical_name_systematic
;
catena-[tetrakis(1,2-Diammonioethane) bis(2-aminoethylammonium) 
bis(\m~7~-phosphato)-bis(\m~6~-phosphato)-bis(\m~4~-phosphato)-tetrakis(\m~3~-
hydrogen 
phosphato)-dodecakis(\m~2~-oxo)-tetrakis(\m~3~-phosphato)-bis(\m~2~-hydrogen 
phosphato)-tetradecakis(\m~2~-hydroxo)-decakis(\m~2~-oxo)-bis(2-ammonioethylam
ino)-diaqua-tetrachloro-icosa-oxo-tetra-cadmium(ii)-di-magnesium(ii)-tetracosa
-molybdenum(v) 1,2-diaminoethane solvate nonahydrate]
;
_cell_volume   3572.597
_exptl_crystal_colour 'brown'
_exptl_crystal_density_diffrn 2.877
_exptl_crystal_description 'block-like'
_diffrn_ambient_temperature 298
#These two values have been output from a single CSD field.
_refine_ls_R_factor_gt 0.0384
_refine_ls_wR_factor_gt 0.0384
_symmetry_cell_setting triclinic
_symmetry_space_group_name_H-M 'P -1'
_symmetry_Int_Tables_number 2
loop_
_symmetry_equiv_pos_site_id
_symmetry_equiv_pos_as_xyz
1 x,y,z
2 -x,-y,-z
_cell_length_a 12.0014(16)
_cell_length_b 14.6860(17)
_cell_length_c 21.176(2)
_cell_angle_alpha 81.093(2)
_cell_angle_beta 83.080(2)
_cell_angle_gamma 76.571(1)
_cell_formula_units_Z 1
loop_
_atom_type_symbol
_atom_type_radius_bond
C 0.68
H 0.23
Cd 1.44
Cl 0.79
Mg 1.41
Mo 1.26
N 0.68
O 0.68
P 1.05
loop_
_atom_site_label
_atom_site_type_symbol
_atom_site_fract_x
_atom_site_fract_y
_atom_site_fract_z
Cd1 Cd 0.00000 1.00000 1.00000
Cd2 Cd 0.50000 0.50000 1.50000
Cd3 Cd 0.00986(5) 1.37902(4) 1.12832(3)
Mo1 Mo 0.05147(5) 1.01909(4) 1.17163(3)
Mo2 Mo -0.19475(5) 0.85104(4) 0.95142(3)
Mo3 Mo -0.08071(5) 0.75503(4) 1.04553(3)
Mo4 Mo 0.20848(5) 0.76408(4) 1.05561(3)
Mo5 Mo 0.31281(5) 0.86159(4) 0.96360(3)
Mo6 Mo -0.16344(5) 1.01124(4) 1.16885(3)
Mo7 Mo 0.80225(5) 0.47974(4) 1.41187(3)
Mo8 Mo 0.56770(5) 0.52111(4) 1.31719(3)
Mo9 Mo 0.38269(5) 0.64771(4) 1.34343(3)
Mo10 Mo 0.36503(5) 0.77069(4) 1.47367(3)
Mo11 Mo 0.53904(5) 0.73857(4) 1.54229(3)
Mo12 Mo 0.78999(5) 0.56863(4) 1.51033(3)
Mg1 Mg 0.2617(4) 1.0763(3) 1.3402(2)
Cl1 Cl -0.1660(5) 0.9049(4) 1.2108(3)
Cl2 Cl 0.1025(5) 0.9142(4) 1.2134(3)
N1 N 0.7413(6) 0.2862(5) 0.2505(3)
H1 H 0.68040 0.26960 0.23930
H2 H 0.79700 0.28070 0.21860
N2 N 0.9429(6) 0.1778(5) 0.3783(4)
H3 H 0.89030 0.18910 0.41120
H4 H 1.00760 0.19240 0.38590
H5 H 0.95670 0.11700 0.37340
N3 N 0.9195(7) 0.2753(5) 0.7377(4)
H6 H 0.85360 0.29300 0.71930
H7 H 0.91360 0.30440 0.77230
H8 H 0.93450 0.21310 0.74940
N4 N 0.9747(7) 0.2776(6) 0.5830(4)
H9 H 0.91500 0.24990 0.59090
H10 H 1.01510 0.26110 0.54690
H11 H 0.94960 0.34000 0.57880
N5 N 0.3515(6) 0.3141(5) 0.2939(3)
H12 H 0.36040 0.33050 0.33150
H13 H 0.42010 0.29490 0.27340
H14 H 0.31370 0.26750 0.30060
N6 N 0.0943(6) 0.3740(5) 0.3066(3)
H15 H 0.09170 0.34540 0.27290
H16 H 0.02420 0.40620 0.31810
H17 H 0.11960 0.33100 0.33920
N7 N 0.4148(8) 1.0380(7) 1.3786(5)
H18 H 0.40930 0.98470 1.40500
H19 H 0.40960 1.08200 1.40470
N8 N 0.7114(10) 0.9252(7) 1.3983(5)
H20 H 0.76470 0.94710 1.37130
H21 H 0.73940 0.90270 1.43610
H22 H 0.69140 0.87910 1.38250
N9 N 0.3574(7) 0.2304(5) 0.7822(4)
H23 H 0.32840 0.23090 0.74540
H24 H 0.39840 0.27470 0.77770
N10 N 0.5552(11) 0.0325(8) 0.8778(6)
H25 H 0.59150 0.00090 0.84600
H26 H 0.60590 0.03650 0.90410
O1 O 0.0221(4) 1.1546(3) 1.1079(2)
O2 O -0.0878(4) 1.2499(3) 1.0181(2)
O3 O -0.1854(4) 1.1524(4) 1.1045(2)
O4 O -0.1299(4) 1.2972(4) 1.1305(2)
O5 O 0.1329(4) 1.0945(4) 1.2204(2)
O6 O 0.2456(4) 1.1773(4) 1.1306(2)
O7 O 0.1015(4) 1.2734(4) 1.2034(3)
O8 O 0.2826(5) 1.1723(4) 1.2446(3)
O9 O 0.0027(5) 0.6173(4) 1.0668(2)
O10 O 0.2065(5) 0.6221(4) 1.0794(3)
O11 O 0.1389(5) 0.4710(4) 1.1084(3)
O12 O 0.0673(5) 0.6025(4) 1.1782(3)
O13 O 0.4226(5) 0.8279(4) 0.8859(3)
O14 O 0.3146(5) 0.9180(4) 0.7907(3)
O15 O 0.4545(5) 0.7629(4) 0.7810(3)
O16 O 0.5225(5) 0.9103(4) 0.7916(3)
H27 H 0.58620 0.87520 0.78000
O17 O 0.1959(4) 1.0160(3) 1.1023(2)
H28 H 0.19560 0.97630 1.07710
O18 O -0.1288(4) 0.7158(4) 0.9703(2)
O19 O 0.0387(4) 0.7868(4) 1.0986(2)
H29 H 0.01730 0.84440 1.10460
O20 O 0.3282(5) 0.7267(4) 0.9889(3)
O21 O 0.2627(4) 0.9945(4) 0.9055(2)
H30 H 0.22430 1.03460 0.92920
O22 O -0.0887(4) 1.0746(4) 1.2202(2)
O23 O -0.1093(4) 0.8899(3) 1.0118(2)
O24 O 0.1689(4) 0.8974(3) 1.0171(2)
O25 O -0.0281(4) 0.9809(4) 1.1069(2)
O26 O 0.6700(4) 0.6009(4) 1.3643(2)
O27 O 0.4920(4) 0.7191(4) 1.3906(2)
O28 O 0.6580(4) 0.6904(4) 1.4578(2)
O29 O 0.6730(5) 0.7748(4) 1.3447(3)
O30 O -0.1237(4) 1.4963(4) 1.3183(2)
O31 O -0.2916(5) 1.5172(4) 1.2514(2)
O32 O -0.0930(5) 1.4357(4) 1.2140(3)
O33 O -0.1454(5) 1.6116(4) 1.2173(3)
H31 H -0.07490 1.60850 1.20440
O34 O 0.3207(5) 0.7860(4) 1.3060(3)
O35 O 0.3144(5) 0.8752(4) 1.4003(3)
O36 O 0.2792(5) 0.9604(4) 1.2942(3)
O37 O 0.1303(5) 0.8723(4) 1.3549(3)
H32 H 0.10580 0.90630 1.38490
O38 O 0.6684(5) 0.8088(4) 1.5472(3)
O39 O 0.8467(5) 0.6816(4) 1.5264(3)
O40 O 0.8513(5) 0.8501(4) 1.4947(3)
O41 O 0.1635(5) 1.2139(4) 1.3884(3)
O42 O 0.4649(4) 0.5352(4) 1.3957(2)
O43 O 0.4495(4) 0.6533(4) 1.5202(2)
O44 O 0.6837(4) 0.4203(3) 1.3725(2)
H33 H 0.64600 0.39240 1.40300
O45 O 0.5039(5) 0.6453(4) 1.2731(3)
O46 O -0.3281(5) 0.8714(4) 0.9879(3)
O47 O 0.2912(4) 0.6867(4) 1.4279(2)
H34 H 0.28520 0.63700 1.45340
O48 O -0.1908(5) 0.7540(4) 1.1023(3)
O49 O 0.4748(4) 0.8457(4) 1.4817(2)
O50 O 0.2760(5) 0.7723(4) 1.1187(3)
O51 O 0.6549(4) 0.6163(4) 1.5783(2)
H35 H 0.61850 0.57270 1.59110
O52 O 0.4059(5) 0.8951(4) 1.0036(3)
O53 O 0.8753(4) 0.5778(4) 1.4274(2)
H36 H 0.94780 0.56110 1.42820
O54 O 0.8913(5) 0.3751(4) 1.4335(3)
O55 O 0.5154(5) 0.4441(4) 1.2847(3)
O56 O 0.2822(5) 0.6037(4) 1.3169(3)
O57 O 0.2544(5) 0.8035(4) 1.5280(3)
O58 O 0.4736(5) 0.7646(4) 1.6139(3)
O59 O 0.8727(5) 0.4860(4) 1.5593(3)
O60 O 0.6888(4) 0.4938(4) 1.4862(2)
O61 O -0.1057(6) 1.4728(5) 1.0512(3)
H37 H -0.07550 1.44820 1.01760
H38 H -0.07190 1.51620 1.05510
O62 O 0.9291(6) 0.9988(5) 0.3473(4)
H39 H 0.92340 1.02230 0.30820
H40 H 0.99270 0.95880 0.34990
O63 O 0.5796(9) 0.4251(7) 0.8412(5)
H41 H 0.55140 0.41420 0.80890
H42 H 0.62250 0.37400 0.85680
O64 O 0.4829(8) 0.6071(7) 0.8833(5)
H43 H 0.47570 0.65110 0.85190
H44 H 0.51120 0.55490 0.86890
O65 O 0.347(2) 0.3483(16) 0.0650(12)
H45 H 0.28420 0.38440 0.07710
H46 H 0.40140 0.36220 0.08110
O66 O 0.919(2) 0.9965(17) 0.5343(12)
H47? H 0.89470 0.95150 0.52380
H48? H 0.97980 1.00230 0.51030
O67 O 0.3384(14) 0.5018(12) 0.9741(8)
H49 H 0.26960 0.51300 0.96400
H50 H 0.34800 0.45410 1.00280
P1 P -0.09776(16) 1.21631(13) 1.09088(9)
P2 P 0.18840(16) 1.18099(13) 1.19937(9)
P3 P 0.42756(17) 0.85262(15) 0.8124(1)
P4 P 0.10445(17) 0.57700(13) 1.11082(9)
P5 P 0.62495(16) 0.69923(13) 1.38813(9)
P6 P -0.16283(16) 1.51234(13) 1.25012(9)
P7 P 0.25533(17) 0.87075(14) 1.33985(10)
P8 P 0.80208(17) 0.78197(14) 1.54565(9)
C1 C 0.7829(7) 0.2232(6) 0.3093(4)
H51 H 0.78690 0.15790 0.30450
H52 H 0.72970 0.23880 0.34630
C2 C 0.9002(8) 0.2356(6) 0.3195(4)
H53 H 0.95350 0.21790 0.28300
H54 H 0.89640 0.30160 0.32230
C3 C 1.0137(9) 0.3009(7) 0.6917(5)
H55 H 0.99060 0.36720 0.67510
H56 H 1.08050 0.29380 0.71510
C4 C 1.0489(8) 0.2473(6) 0.6369(5)
H57 H 1.05040 0.18120 0.65200
H58 H 1.12670 0.25230 0.62080
C5 C 0.2847(7) 0.3971(6) 0.2544(4)
H59 H 0.26850 0.37740 0.21540
H60 H 0.33080 0.44430 0.24220
C6 C 0.1739(7) 0.4402(6) 0.2895(4)
H61 H 0.19030 0.46000 0.32840
H62 H 0.13610 0.49610 0.26290
C7 C 0.5355(10) 1.0207(9) 1.3544(6)
H63 H 0.55140 0.96910 1.32870
H64 H 0.55000 1.07650 1.32650
C8 C 0.6165(11) 0.9969(9) 1.4063(6)
H65 H 0.57370 0.98010 1.44660
H66 H 0.64280 1.05330 1.41000
C9 C 0.4335(10) 0.1366(7) 0.7993(6)
H67 H 0.38590 0.09020 0.80950
H68 H 0.48470 0.12040 0.76180
C10 C 0.5002(12) 0.1282(9) 0.8505(7)
H69 H 0.45170 0.15890 0.88460
H70 H 0.56000 0.16320 0.83630
Cd2* Cd 0.50000 1.50000 1.50000
Cd3A Cd -0.00986(5) 0.62098(4) 0.87168(3)
Cd3* Cd 0.00986(5) 0.37902(4) 1.12832(3)
Cd3A* Cd 0.99014(5) 0.62098(4) 1.87168(3)
Cd3A** Cd -0.00986(5) 1.62098(4) 0.87168(3)
Cd3** Cd 1.00986(5) 0.37902(4) 1.12832(3)
Mo1A Mo -0.05147(5) 0.98091(4) 0.82837(3)
Mo1A* Mo 0.94853(5) 0.98091(4) 1.82837(3)
Mo2A Mo 0.19475(5) 1.14896(4) 1.04858(3)
Mo2* Mo 0.80525(5) 0.85104(4) 1.95142(3)
Mo3A Mo 0.08071(5) 1.24497(4) 0.95447(3)
Mo4A Mo -0.20848(5) 1.23592(4) 0.94439(3)
Mo5A Mo -0.31281(5) 1.13841(4) 1.03640(3)
Mo6A Mo 0.16344(5) 0.98876(4) 0.83115(3)
Mo7A Mo 0.19775(5) 1.52026(4) 1.58813(3)
Mo7* Mo -0.19775(5) 1.47974(4) 1.41187(3)
Mo8A Mo 0.43230(5) 1.47889(4) 1.68281(3)
Mo8* Mo -0.43230(5) 1.52111(4) 1.31719(3)
Mo8A* Mo 0.43230(5) 0.47889(4) 1.68281(3)
Mo9A Mo 0.61731(5) 1.35229(4) 1.65657(3)
Mo9A* Mo 0.61731(5) 0.35229(4) 1.65657(3)
Mo10A Mo 0.63497(5) 1.22931(4) 1.52633(3)
Mo11A Mo 0.46096(5) 1.26143(4) 1.45771(3)
Mo12A Mo 0.21001(5) 1.43137(4) 1.48967(3)
Mg1A Mg 0.7383(4) 0.9237(3) 1.6598(2)
Cl1A Cl 0.1660(5) 1.0951(4) 0.7892(3)
Cl2A Cl -0.1025(5) 1.0858(4) 0.7866(3)
N7A N 0.5852(8) 0.9620(7) 1.6214(5)
H18A H 0.59070 1.01530 1.59500
H19A H 0.59040 0.91800 1.59530
N8A N 0.2886(10) 1.0748(7) 1.6017(5)
H20A H 0.23530 1.05290 1.62870
H21A H 0.26060 1.09730 1.56390
H22A H 0.30860 1.12090 1.61750
O1A O -0.0221(4) 0.8454(3) 0.8921(2)
O2A O 0.0878(4) 0.7501(3) 0.9819(2)
O3A O 0.1854(4) 0.8476(4) 0.8955(2)
O4A O 0.1299(4) 0.7028(4) 0.8695(2)
O5A O 0.8671(4) 0.9055(4) 1.7796(2)
O5A* O -0.1329(4) 0.9055(4) 0.7796(2)
O6A O 0.7544(4) 0.8227(4) 1.8694(2)
O6A* O -0.2456(4) 0.8227(4) 0.8694(2)
O7A O 0.8985(4) 0.7266(4) 1.7966(3)
O7A* O -0.1015(4) 0.7266(4) 0.7966(3)
O8A O 0.7174(5) 0.8277(4) 1.7554(3)
O9A O -0.0027(5) 1.3827(4) 0.9332(2)
O10A O -0.2065(5) 1.3779(4) 0.9206(3)
O11A O -0.1389(5) 1.5290(4) 0.8916(3)
O11* O 0.1389(5) 1.4710(4) 1.1084(3)
O11A* O -0.1389(5) 0.5290(4) 0.8916(3)
O12A O -0.0673(5) 1.3975(4) 0.8218(3)
O13A O -0.4226(5) 1.1721(4) 1.1141(3)
O14A O -0.3146(5) 1.0820(4) 1.2093(3)
O15A O -0.4545(5) 1.2371(4) 1.2190(3)
O16A O -0.5225(5) 1.0897(4) 1.2084(3)
H27A H -0.58620 1.12480 1.22000
O17A O -0.1959(4) 0.9840(3) 0.8977(2)
H28A H -0.19560 1.02370 0.92290
O18A O 0.1288(4) 1.2842(4) 1.0297(2)
O19A O -0.0387(4) 1.2132(4) 0.9014(2)
H29A H -0.01730 1.15560 0.89540
O20A O -0.3282(5) 1.2733(4) 1.0111(3)
O21A O -0.2627(4) 1.0055(4) 1.0945(2)
H30A H -0.22430 0.96540 1.07080
O22A O 0.0887(4) 0.9254(4) 0.7798(2)
O23A O 0.1093(4) 1.1101(3) 0.9882(2)
O24A O -0.1689(4) 1.1026(3) 0.9829(2)
O25A O 0.0281(4) 1.0191(4) 0.8931(2)
O26A O 0.3300(4) 1.3991(4) 1.6357(2)
O27A O 0.5080(4) 1.2809(4) 1.6094(2)
O28A O 0.3420(4) 1.3096(4) 1.5422(2)
O29A O 0.3270(5) 1.2252(4) 1.6553(3)
O30* O 0.8763(4) 0.4963(4) 1.3183(2)
O30A O 0.1237(4) 1.5037(4) 1.6817(2)
O31* O 0.7084(5) 0.5172(4) 1.2514(2)
O31A O 0.2916(5) 1.4828(4) 1.7486(2)
O32* O 0.9070(5) 0.4357(4) 1.2140(3)
O32A O 0.0930(5) 0.5643(4) 0.7860(3)
O33* O 0.8546(5) 0.6116(4) 1.2173(3)
H31* H 0.92510 0.60850 1.20440
O34A O 0.6793(5) 1.2140(4) 1.6940(3)
O35A O 0.6856(5) 1.1248(4) 1.5997(3)
O36A O 0.7208(5) 1.0396(4) 1.7058(3)
O37A O 0.8697(5) 1.1277(4) 1.6451(3)
H32A H 0.89420 1.09370 1.61510
O38A O 0.3316(5) 1.1912(4) 1.4528(3)
O39A O 0.1533(5) 1.3184(4) 1.4736(3)
O40A O 0.1487(5) 1.1499(4) 1.5053(3)
O41A O 0.8365(5) 0.7861(4) 1.6116(3)
O42A O 0.5351(4) 0.4648(4) 1.6043(2)
O42A* O 0.5351(4) 1.4648(4) 1.6043(2)
O43A O 0.5505(4) 1.3467(4) 1.4798(2)
O43A* O 0.5505(4) 0.3467(4) 1.4798(2)
O44A O 0.3163(4) 1.5797(3) 1.6275(2)
H33A H 0.35400 1.60760 1.59700
O45A O 0.4961(5) 1.3547(4) 1.7269(3)
O46A O 0.3281(5) 1.1286(4) 1.0121(3)
O47A O 0.7088(4) 1.3133(4) 1.5721(2)
H34A H 0.71480 1.36300 1.54660
O48A O 0.1908(5) 1.2460(4) 0.8977(3)
O49A O 0.5252(4) 1.1543(4) 1.5183(2)
O50A O -0.2760(5) 1.2277(4) 0.8813(3)
O51A O 0.3451(4) 1.3837(4) 1.4217(2)
H35A H 0.38150 1.42730 1.40890
O52A O -0.4059(5) 1.1049(4) 0.9964(3)
O53A O 0.1247(4) 1.4222(4) 1.5726(2)
H36A H 0.05220 1.43890 1.57180
O54A O 0.1087(5) 1.6249(4) 1.5665(3)
O55A O 0.4846(5) 1.5559(4) 1.7153(3)
O56A O 0.7178(5) 1.3963(4) 1.6831(3)
O57A O 0.7456(5) 1.1965(4) 1.4720(3)
O58A O 0.5264(5) 1.2354(4) 1.3861(3)
O59A O 0.1273(5) 1.5140(4) 1.4407(3)
O60A O 0.3112(4) 1.5062(4) 1.5138(2)
O60A* O 0.3112(4) 0.5062(4) 1.5138(2)
O61A O 0.1057(6) 0.5272(5) 0.9488(3)
H37A H 0.07550 0.55180 0.98240
H38A H 0.07190 0.48380 0.94490
P1A P 0.09776(16) 0.78369(13) 0.90912(9)
P2A P 0.81160(16) 0.81901(13) 1.80063(9)
P3A P -0.42756(17) 1.14738(15) 1.1876(1)
P4A P -0.10445(17) 1.42300(13) 0.88918(9)
P5A P 0.37505(16) 1.30077(13) 1.61187(9)
P6* P 0.83717(16) 0.51234(13) 1.25012(9)
P7A P 0.74467(17) 1.12925(14) 1.66015(10)
P8A P 0.19792(17) 1.21803(14) 1.45435(9)
C7A C 0.4645(10) 0.9793(9) 1.6456(6)
H63A H 0.44860 1.03090 1.67130
H64A H 0.45000 0.92350 1.67350
C8A C 0.3835(11) 1.0031(9) 1.5937(6)
H65A H 0.42630 1.01990 1.55340
H66A H 0.35720 0.94670 1.59000
#END
