
#######################################################################
#
#                 Cambridge Crystallographic Data Centre
#                                CCDC
#
#######################################################################
#
# If this CIF has been generated from an entry in the Cambridge
# Structural Database, then it will include bibliographic, chemical,
# crystal, experimental, refinement or atomic coordinate data resulting
# from the CCDC's data processing and validation procedures.
#
#######################################################################

data_CSD_CIF_OXUPIH
_audit_creation_date 2011-10-18
_audit_creation_method CSD-ConQuest-V1
_database_code_CSD OXUPIH
_database_code_depnum_ccdc_archive 'CCDC 813711 (not 809134 as published)'
_chemical_formula_sum 'C30 H36 O46 P10 U6'
_chemical_formula_moiety
;
(H3 O1 1+)2n,n(C30 H30 O44 P10 U6 2-)
;
_journal_coden_Cambridge 208
_journal_volume 184
_journal_year 2011
_journal_page_first 2368
_journal_name_full 'J.Solid State Chem. '
loop_
_publ_author_name
"P.O.Adelani"
"T.E.Albrecht-Schmitt"
_chemical_name_systematic
;
catena-[bis(Oxonium) (\m~8~-benzene-1,4-diphosphonato)-bis(\m~5~-hydrogen 
benzene-1,4-diphosphonato)-(\m~4~-dihydrogen 
benzene-1,4-diphosphonato)-(\m~2~-dihydrogen 
benzene-1,4-diphosphonato)-diaqua-dodeca-oxo-hexa-uranium(vi)]
;
_chemical_name_common
;
Ubbp-1
;
_cell_volume   1493.495
_exptl_crystal_colour 'yellow'
_exptl_crystal_density_diffrn 3.174
_exptl_crystal_description 'tablet'
_diffrn_ambient_temperature 100
#These two values have been output from a single CSD field.
_refine_ls_R_factor_gt 0.0219
_refine_ls_wR_factor_gt 0.0219
_symmetry_cell_setting triclinic
_symmetry_space_group_name_H-M 'P -1'
_symmetry_Int_Tables_number 2
loop_
_symmetry_equiv_pos_site_id
_symmetry_equiv_pos_as_xyz
1 x,y,z
2 -x,-y,-z
_cell_length_a 9.9612(3)
_cell_length_b 10.9029(4)
_cell_length_c 14.5948(5)
_cell_angle_alpha 90.04
_cell_angle_beta 109.38
_cell_angle_gamma 92.62
_cell_formula_units_Z 1
loop_
_atom_type_symbol
_atom_type_radius_bond
C 0.68
H 0.23
O 0.68
P 1.05
U 1.47
loop_
_atom_site_label
_atom_site_type_symbol
_atom_site_fract_x
_atom_site_fract_y
_atom_site_fract_z
U1 U 0.099807(18) 0.816846(17) 0.179525(12)
U2 U -0.011523(17) 0.679068(16) -0.255648(12)
U3 U -0.063773(17) 0.860564(15) 0.401627(12)
P1 P 0.20467(13) 0.64014(12) 0.00307(9)
P2 P 0.87473(12) 0.62206(11) 0.20546(9)
P3 P -0.20331(12) 0.59672(11) -0.51600(9)
P4 P 0.17612(12) 1.05337(11) 0.38469(9)
P5 P 0.40466(14) 1.03020(13) 0.18644(10)
O1 O -0.0385(4) 0.8983(3) 0.0988(2)
O2 O 0.2388(4) 0.7351(3) 0.2599(2)
O3 O -0.1484(3) 0.5913(3) -0.2311(2)
O4 O 0.1235(4) 0.7698(3) -0.2821(2)
O5 O -0.2099(3) 0.9446(3) 0.3286(2)
O6 O 0.0799(3) 0.7773(3) 0.4744(2)
O7 O -0.0356(4) 0.8286(3) -0.1340(3)
O8 O 0.1514(4) 0.7462(3) 0.0472(2)
O9 O 0.1469(4) 0.5161(4) 0.0314(3)
O10 O 0.1636(4) 0.6502(3) -0.1053(2)
O11 O 0.9520(4) 0.6306(3) 0.1308(2)
O12 O 0.9291(3) 0.7420(3) 0.2667(2)
O13 O 0.9042(3) 0.5106(3) 0.2693(2)
O14 O -0.1706(3) 0.4854(3) -0.5720(2)
O15 O -0.0948(3) 0.6109(3) -0.4170(2)
O16 O -0.2192(3) 0.7115(3) -0.5774(2)
O17 O 0.1020(3) 0.9436(3) 0.3166(2)
O18 O 0.0909(3) 1.0512(3) 0.4575(2)
O19 O 0.1737(3) 1.1729(3) 0.3345(2)
O20 O 0.2547(4) 0.9834(4) 0.1677(3)
O21 O 0.5031(4) 0.9537(5) 0.2731(3)
O22 O 0.4237(5) 1.1669(4) 0.2149(3)
O23 O -0.3561(5) 0.2637(5) 0.3426(4)
C1 C 0.6868(5) 0.6263(4) 0.1458(3)
C2 C 0.3932(5) 0.6360(5) 0.0578(4)
C3 C -0.3725(5) 0.5471(4) -0.5069(3)
C4 C 0.3972(5) 0.9032(4) 0.4785(4)
H1 H 0.32740 0.83720 0.46400
C5 C 0.4611(5) 1.1184(4) 0.4700(4)
H2 H 0.43460 1.19920 0.44970
C6 C 0.4583(5) 1.0100(5) 0.0818(4)
C7 C 0.3577(5) 1.0217(4) 0.4481(3)
C8 C -0.3719(5) 0.4613(4) -0.4352(4)
H3 H -0.28430 0.43560 -0.39120
C9 C -0.4994(5) 0.5857(4) -0.5710(3)
H4 H -0.49850 0.64430 -0.61900
C10 C 0.3566(5) 0.9892(5) -0.0095(4)
H5 H 0.25840 0.98240 -0.01600
C11 C 0.6310(5) 0.6758(5) 0.0538(4)
H6 H 0.69340 0.70780 0.02170
C12 C 0.5942(6) 0.5799(6) 0.1926(4)
H7 H 0.63180 0.54480 0.25500
C13 C 0.4474(5) 0.5844(6) 0.1490(4)
H8 H 0.38500 0.55260 0.18120
C14 C 0.4848(5) 0.6789(5) 0.0088(4)
H9 H 0.44700 0.71000 -0.05490
C15 C 0.6032(5) 1.0217(5) 0.0906(4)
H10 H 0.67330 1.03700 0.15250
U1* U -0.900193(18) 0.816846(17) 0.179525(12)
U1** U 1.099807(18) 0.816846(17) 0.179525(12)
U1A U 0.900193(18) 1.183154(17) 0.820475(12)
U1A* U 0.900193(18) 1.183154(17) -0.179525(12)
U2* U -1.011523(17) 0.679068(16) -0.255648(12)
U2A U 1.011523(17) 0.320932(16) 0.255648(12)
U2A* U 0.011523(17) 1.320932(16) 0.255648(12)
U2A** U -0.988477(17) 0.320932(16) -0.744352(12)
U2** U 0.988477(17) 0.679068(16) 0.744352(12)
U2A*** U 0.011523(17) 0.320932(16) 0.255648(12)
U3A U 1.063773(17) 1.139436(15) 0.598373(12)
U3* U 0.936227(17) 0.860564(15) 0.401627(12)
U3** U -0.063773(17) 0.860564(15) -0.598373(12)
U3A* U 0.063773(17) 1.139436(15) 0.598373(12)
U3A** U -0.936227(17) 0.139436(15) -0.401627(12)
P1* P -0.79533(13) 0.64014(12) 0.00307(9)
P2* P -0.12527(12) 0.62206(11) 0.20546(9)
P3A P -0.79669(12) 0.40328(11) -0.48400(9)
P4A P 0.82388(12) 0.94663(11) 0.61531(9)
P5A P 0.59534(14) 0.96980(13) -0.18644(10)
O1* O -1.0385(4) 0.8983(3) 0.0988(2)
O2* O -0.7612(4) 0.7351(3) 0.2599(2)
O3* O -1.1484(3) 0.5913(3) -0.2311(2)
O4* O -0.8765(4) 0.7698(3) -0.2821(2)
O5A O 1.2099(3) 1.0554(3) 0.6714(2)
O6A O 0.9201(3) 1.2227(3) 0.5256(2)
O7* O -1.0356(4) 0.8286(3) -0.1340(3)
O8* O -0.8486(4) 0.7462(3) 0.0472(2)
O9* O -0.8531(4) 0.5161(4) 0.0314(3)
O10* O -0.8364(4) 0.6502(3) -0.1053(2)
O11* O -0.0480(4) 0.6306(3) 0.1308(2)
O11** O -1.0480(4) 0.6306(3) 0.1308(2)
O12* O -0.0709(3) 0.7420(3) 0.2667(2)
O12** O -1.0709(3) 0.7420(3) 0.2667(2)
O12A O 1.0709(3) 1.2580(3) 0.7333(2)
O13* O -0.0958(3) 0.5106(3) 0.2693(2)
O13A O 0.0958(3) 0.4894(3) -0.2693(2)
O13A* O -0.9042(3) 0.4894(3) -0.2693(2)
O14A O -0.8294(3) 0.5146(3) -0.4280(2)
O15A O -0.9052(3) 0.3891(3) -0.5830(2)
O15* O -1.0948(3) 0.6109(3) -0.4170(2)
O16A O -0.7808(3) 0.2885(3) -0.4226(2)
O16* O -0.2192(3) 0.7115(3) 0.4226(2)
O16A* O 1.2192(3) 1.2885(3) 0.5774(2)
O17A O 0.8980(3) 1.0564(3) 0.6834(2)
O17* O -0.8980(3) 0.9436(3) 0.3166(2)
O18A O 0.9091(3) 0.9488(3) 0.5425(2)
O18A* O -0.0909(3) 0.9488(3) 0.5425(2)
O18* O 1.0909(3) 1.0512(3) 0.4575(2)
O19A O 0.8263(3) 0.8271(3) 0.6655(2)
O19A* O -0.1737(3) 0.8271(3) -0.3345(2)
O19A** O -1.1737(3) 0.8271(3) -0.3345(2)
O20A O 0.7453(4) 1.0166(4) -0.1677(3)
O20* O -0.7453(4) 0.9834(4) 0.1677(3)
O21A O 0.4969(4) 1.0463(5) -0.2731(3)
O22A O 0.5763(5) 0.8331(4) -0.2149(3)
C1* C -0.3132(5) 0.6263(4) 0.1458(3)
C2* C -0.6068(5) 0.6360(5) 0.0578(4)
C3A C -0.6275(5) 0.4529(4) -0.4931(3)
C4A C 0.6028(5) 1.0968(4) 0.5215(4)
H1A H 0.67260 1.16280 0.53600
C5A C 0.5389(5) 0.8816(4) 0.5300(4)
H2A H 0.56540 0.80080 0.55030
C6A C 0.5417(5) 0.9900(5) -0.0818(4)
C7A C 0.6423(5) 0.9783(4) 0.5519(3)
C8A C -0.6281(5) 0.5387(4) -0.5648(4)
H3A H -0.71570 0.56440 -0.60880
C9A C -0.5006(5) 0.4143(4) -0.4290(3)
H4A H -0.50150 0.35570 -0.38100
C10A C 0.6434(5) 1.0108(5) 0.0095(4)
H5A H 0.74160 1.01760 0.01600
C11* C -0.3690(5) 0.6758(5) 0.0538(4)
H6* H -0.30660 0.70780 0.02170
C12* C -0.4058(6) 0.5799(6) 0.1926(4)
H7* H -0.36820 0.54480 0.25500
C13* C -0.5526(5) 0.5844(6) 0.1490(4)
H8* H -0.61500 0.55260 0.18120
C14* C -0.5152(5) 0.6789(5) 0.0088(4)
H9* H -0.55300 0.71000 -0.05490
C15A C 0.3968(5) 0.9783(5) -0.0906(4)
H10A H 0.32670 0.96300 -0.15250
#END
