
#######################################################################
#
#                 Cambridge Crystallographic Data Centre
#                                CCDC
#
#######################################################################
#
# If this CIF has been generated from an entry in the Cambridge
# Structural Database, then it will include bibliographic, chemical,
# crystal, experimental, refinement or atomic coordinate data resulting
# from the CCDC's data processing and validation procedures.
#
#######################################################################

data_CSD_CIF_OXUWIQ
_audit_creation_date 2021-07-09
_audit_creation_method CSD-ConQuest-V1
_database_code_CSD OXUWIQ
_database_code_depnum_ccdc_archive 'CCDC 2044670'
_chemical_formula_sum 'C164 H112 N16 O58 Zn8'
_chemical_formula_moiety
;
(C60 H12 O48 Zn8 8-)n,4(C26 H20 N4 2+),10(H2 O1)
;
_journal_coden_Cambridge 222
_journal_volume 50
_journal_year 2021
_journal_page_first 10237
_journal_name_full 'Dalton Trans. '
loop_
_publ_author_name
"Jia yun Zou"
"Jie Ji"
"Mei hong Fan"
"Jia yu Li"
"Hai yu Wang"
"Guo-Dong Li"
_chemical_name_systematic
;
catena-[tetrakis(1,1'-bis[(3-cyanophenyl)methyl]-4,4'-bipyridin-1-ium) 
hexakis(\m-benzene-1,2,4,5-tetracarboxylato)-octa-zinc(ii) decahydrate]
;
_cell_volume   3800.006
_exptl_crystal_colour 'colorless'
_exptl_crystal_density_diffrn 1.642
_exptl_crystal_description 'block'
_diffrn_ambient_temperature 297
#These two values have been output from a single CSD field.
_refine_ls_R_factor_gt 0.0616
_refine_ls_wR_factor_gt 0.0616
_symmetry_cell_setting triclinic
_symmetry_space_group_name_H-M 'P -1'
_symmetry_Int_Tables_number 2
loop_
_symmetry_equiv_pos_site_id
_symmetry_equiv_pos_as_xyz
1 x,y,z
2 -x,-y,-z
_cell_length_a 15.5845(8)
_cell_length_b 16.7477(9)
_cell_length_c 16.9751(9)
_cell_angle_alpha 114.048(2)
_cell_angle_beta 100.299(2)
_cell_angle_gamma 101.237(2)
_cell_formula_units_Z 1
loop_
_atom_type_symbol
_atom_type_radius_bond
C 0.68
H 0.23
N 0.68
O 0.68
Zn 1.22
loop_
_atom_site_label
_atom_site_type_symbol
_atom_site_fract_x
_atom_site_fract_y
_atom_site_fract_z
Zn1 Zn 0.40934(5) 0.37079(6) 0.73130(6)
Zn2 Zn 0.92795(5) 0.37762(6) 0.74233(6)
Zn3 Zn 0.57904(5) 0.26643(6) 0.63389(6)
Zn4 Zn 0.90820(5) -0.26712(6) 0.36637(6)
O1 O 0.4972(4) 0.5504(4) 0.7322(4)
O2 O 0.4103(3) 0.4068(4) 0.6363(3)
O3 O 0.5350(3) 0.4227(3) 0.8115(3)
O4 O 0.6221(3) 0.3328(4) 0.7660(3)
O5 O 0.4941(5) 0.2656(4) 0.4588(4)
O6 O 0.5736(3) 0.3632(3) 0.6010(4)
O7 O 0.6570(3) 0.1984(3) 0.5777(3)
O8 O 0.6770(4) 0.1499(4) 0.6815(4)
O9 O 0.5407(3) -0.1772(3) 0.4044(3)
O10 O 0.6382(3) -0.2362(3) 0.3335(4)
O11 O 0.8586(4) -0.1369(4) 0.3398(4)
O12 O 0.8318(3) -0.1990(4) 0.4289(4)
O13 O 1.0167(6) 0.2721(5) 0.4591(5)
O14 O 1.0866(3) 0.3666(3) 0.6023(4)
O15 O 0.9669(3) 0.1904(3) 0.6012(3)
O16 O 0.8666(3) 0.2455(3) 0.6697(4)
O17 O 0.9294(3) 0.4159(4) 0.6506(3)
O18 O 1.0336(4) 0.5521(4) 0.7391(4)
O19 O 0.8713(3) 0.4096(3) 0.8388(3)
O20 O 0.7803(4) 0.4694(4) 0.7784(4)
O21 O 0.6683(4) 0.5526(4) 1.2026(4)
O22 O 0.6385(4) 0.6471(4) 1.1513(4)
O23 O 0.8534(3) 0.6594(3) 1.2349(3)
O24 O 0.9529(3) 0.5954(3) 1.1743(3)
C1 C 0.7718(4) 0.4741(5) 0.9185(5)
C2 C 0.4651(5) 0.4838(6) 0.6567(6)
C3 C 1.0201(4) 0.4320(5) 0.4339(5)
H1 H 1.03319 0.38578 0.38865
C4 C 0.4877(4) 0.4926(5) 0.5764(5)
C5 C 0.5081(4) 0.4229(5) 0.5095(5)
C6 C 0.5189(4) 0.4306(5) 0.4343(5)
H2 H 0.53104 0.38318 0.38927
C7 C 0.5242(5) 0.3429(6) 0.5221(6)
C8 C 0.6855(4) 0.1506(5) 0.6122(6)
C9 C 0.7249(4) 0.0801(5) 0.5544(5)
C10 C 0.6635(5) -0.0077(5) 0.4968(5)
H3 H 0.60195 -0.01660 0.49375
C11 C 0.6898(4) -0.0820(5) 0.4443(4)
C12 C 0.6161(5) -0.1729(5) 0.3888(5)
C13 C 0.8252(5) -0.1415(5) 0.3977(6)
C14 C 0.7826(4) -0.0685(5) 0.4477(5)
C15 C 0.8439(4) 0.0192(5) 0.5012(5)
H4 H 0.90475 0.02881 0.50127
C16 C 0.8171(4) 0.0928(5) 0.5544(5)
C17 C 0.8892(5) 0.1829(5) 0.6121(5)
C18 C 1.0424(6) 0.3484(6) 0.5244(7)
C19 C 1.0184(5) 0.4264(5) 0.5123(5)
C20 C 0.9973(4) 0.4951(5) 0.5801(5)
C21 C 0.9877(5) 0.4886(6) 0.6654(6)
C22 C 0.8083(5) 0.4491(5) 0.8368(6)
C23 C 0.6058(5) 0.4009(5) 0.8217(5)
C24 C 0.6782(4) 0.4602(5) 0.9100(5)
C25 C 0.6513(4) 0.4972(4) 0.9870(5)
H5 H 0.58933 0.48883 0.98123
C26 C 0.8336(4) 0.5190(4) 1.0031(5)
H6 H 0.89523 0.52498 1.00863
C27 C 0.8055(4) 0.5559(5) 1.0813(4)
C28 C 0.8766(5) 0.6074(5) 1.1713(5)
C29 C 0.7120(4) 0.5460(5) 1.0719(5)
C30 C 0.6727(5) 0.5862(6) 1.1486(5)
O25 O 0.6863(4) 0.6035(4) 0.8089(4)
H7 H 0.62870 0.58438 0.77911
H8 H 0.70503 0.55781 0.80571
O26 O 0.7617(4) 0.4470(4) 1.2574(4)
H9 H 0.73638 0.48496 1.24695
H10 H 0.81478 0.48143 1.29591
O27 O 0.9970(7) 0.7182(7) 0.8185(6)
H11 H 1.02266 0.67907 0.81770
H12 H 0.95123 0.71671 0.83607
O28 O 0.9751(7) 0.8083(6) 0.7156(6)
H13 H 1.00328 0.80281 0.67469
H14 H 0.98643 0.76851 0.73342
O29 O 0.8599(5) 0.7264(5) 0.9083(5)
H15 H 0.80479 0.68927 0.87915
H16 H 0.86015 0.77551 0.90157
N1 N 0.1033(7) 1.0915(7) 1.0858(7)
N2 N 0.1257(4) 0.7112(5) 1.0416(5)
N3 N 0.5715(5) 0.7215(5) 1.0175(6)
N4 N 0.7716(6) 1.0857(7) 1.0010(7)
C31 C 0.7720(6) 1.0394(7) 1.0347(7)
C32 C 0.7732(6) 0.9797(6) 1.0784(6)
C33 C 0.8211(6) 1.0171(7) 1.1689(7)
H17 H 0.85283 1.07912 1.20222
C34 C 0.7248(6) 0.8881(7) 1.0306(6)
H18 H 0.69222 0.86493 0.97047
C35 C 0.8198(6) 0.9587(8) 1.2073(7)
H19 H 0.85146 0.98156 1.26761
C36 C 0.7230(6) 0.8311(7) 1.0679(6)
C37 C 0.7722(7) 0.8668(8) 1.1575(8)
H20 H 0.77320 0.82837 1.18436
C38 C 0.6680(6) 0.7325(6) 1.0175(7)
H21 H 0.67132 0.70769 0.95596
H22 H 0.69327 0.69845 1.04526
C39 C 0.5537(6) 0.7565(6) 1.0988(6)
H23 H 0.60145 0.78359 1.15174
C40 C 0.4666(6) 0.7520(5) 1.1026(6)
H24 H 0.45544 0.77639 1.15843
C41 C 0.5021(7) 0.6801(6) 0.9424(6)
H25 H 0.51414 0.65360 0.88721
C42 C 0.4141(7) 0.6750(5) 0.9434(6)
H26 H 0.36725 0.64708 0.88969
C43 C 0.3949(6) 0.7121(5) 1.0256(6)
C44 C 0.3004(6) 0.7118(5) 1.0295(6)
C45 C 0.2821(5) 0.7484(5) 1.1117(6)
H27 H 0.32985 0.77427 1.16458
C46 C 0.1958(6) 0.7473(5) 1.1167(6)
H28 H 0.18526 0.77185 1.17271
C47 C 0.2254(7) 0.6725(6) 0.9527(6)
H29 H 0.23392 0.64545 0.89589
C48 C 0.1401(7) 0.6736(6) 0.9602(7)
H30 H 0.09112 0.64800 0.90842
C49 C 0.0316(5) 0.7137(6) 1.0483(6)
H31 H -0.00931 0.69192 0.98869
H32 H 0.00899 0.67375 1.07308
C50 C 0.0338(5) 0.8088(6) 1.1070(7)
C51 C 0.0526(5) 0.8763(7) 1.0800(6)
H33 H 0.06116 0.86166 1.02351
C52 C 0.0175(6) 0.8327(8) 1.1899(8)
H34 H 0.00231 0.78733 1.20760
C53 C 0.0230(7) 0.920(1) 1.2463(8)
H35 H 0.01297 0.93424 1.30219
C54 C 0.0435(6) 0.9874(8) 1.2199(8)
H36 H 0.04703 1.04743 1.25767
C55 C 0.0588(6) 0.9652(7) 1.1368(8)
C56 C 0.0815(7) 1.0361(8) 1.1070(8)
N5 N 0.5630(6) 0.8062(6) 0.8362(5)
N6 N 0.2438(4) 0.5718(5) 0.4939(5)
N7 N 0.2875(4) 0.1280(5) 0.3248(5)
N8 N 0.5095(7) -0.0847(7) 0.0277(7)
C57 C 0.4867(7) 0.7973(6) 0.8084(6)
C58 C 0.3928(5) 0.7806(5) 0.7676(6)
C59 C 0.3298(6) 0.7954(6) 0.8167(6)
H37 H 0.34944 0.82036 0.87918
C60 C 0.3635(5) 0.7445(5) 0.6748(6)
H38 H 0.40602 0.73716 0.64233
C61 C 0.2391(6) 0.7734(6) 0.7736(7)
H39 H 0.19722 0.78400 0.80657
C62 C 0.2103(6) 0.7354(6) 0.6809(7)
H40 H 0.14865 0.72038 0.65188
C63 C 0.2716(5) 0.7189(6) 0.6295(6)
C64 C 0.2410(5) 0.6681(6) 0.5284(5)
H41 H 0.17906 0.66821 0.50670
H42 H 0.28000 0.69961 0.50494
C65 C 0.2458(5) 0.5275(6) 0.5452(6)
H43 H 0.24306 0.55729 0.60394
C66 C 0.2450(5) 0.5272(6) 0.4081(6)
H44 H 0.24257 0.55682 0.37219
C67 C 0.2518(5) 0.4409(6) 0.5130(6)
H45 H 0.25356 0.41232 0.54988
C68 C 0.2496(5) 0.4393(6) 0.3726(6)
H46 H 0.24864 0.40974 0.31251
C69 C 0.2555(4) 0.3939(6) 0.4239(5)
C70 C 0.2655(5) 0.3008(6) 0.3904(5)
C71 C 0.2993(5) 0.2667(6) 0.3168(6)
H47 H 0.31529 0.30210 0.28837
C72 C 0.2436(6) 0.2438(6) 0.4291(6)
H48 H 0.22189 0.26426 0.47911
C73 C 0.3085(6) 0.1820(7) 0.2871(6)
H49 H 0.33070 0.16005 0.23757
C74 C 0.2534(6) 0.1596(7) 0.3953(7)
H50 H 0.23624 0.12201 0.42126
C75 C 0.2964(6) 0.0319(6) 0.2882(6)
H51 H 0.28295 0.00619 0.32811
H52 H 0.25198 -0.00629 0.22959
C76 C 0.3900(6) 0.0307(5) 0.2796(6)
C77 C 0.4647(7) 0.0643(6) 0.3532(6)
H53 H 0.45668 0.08953 0.41037
C78 C 0.5515(7) 0.0622(6) 0.3462(7)
H54 H 0.60092 0.08696 0.39742
C79 C 0.5628(7) 0.0230(6) 0.2622(7)
H55 H 0.62026 0.01965 0.25610
C80 C 0.4035(6) -0.0079(5) 0.1951(6)
H56 H 0.35435 -0.03158 0.14372
C81 C 0.4898(7) -0.0115(6) 0.1864(7)
C82 C 0.5021(7) -0.0518(7) 0.0965(8)
O1A O 0.5028(4) 0.4496(4) 0.2678(4)
O2A O 0.5897(3) 0.5932(4) 0.3637(3)
O5A O 0.5059(5) 0.7344(4) 0.5412(4)
O6A O 0.4264(3) 0.6368(3) 0.3990(4)
C2A C 0.5349(5) 0.5162(6) 0.3433(6)
C4A C 0.5123(4) 0.5074(5) 0.4236(5)
C5A C 0.4919(4) 0.5771(5) 0.4905(5)
C6A C 0.4811(4) 0.5694(5) 0.5657(5)
H2A H 0.46896 0.61682 0.61073
C7A C 0.4758(5) 0.6571(6) 0.4779(6)
O13A O 0.9833(6) 0.7279(5) 0.5409(5)
O14A O 0.9134(3) 0.6334(3) 0.3977(4)
O17A O 1.0706(3) 0.5841(4) 0.3494(3)
O18A O 0.9664(4) 0.4479(4) 0.2609(4)
C3A C 0.9799(4) 0.5680(5) 0.5661(5)
H1A H 0.96681 0.61421 0.61135
C18A C 0.9576(6) 0.6516(6) 0.4756(7)
C19A C 0.9816(5) 0.5736(5) 0.4877(5)
C20A C 1.0027(4) 0.5049(5) 0.4199(5)
C21A C 1.0123(5) 0.5114(6) 0.3346(6)
Zn1A Zn 0.59066(5) -0.37079(6) 0.26870(6)
Zn2A Zn 0.07205(5) -0.37762(6) 0.25767(6)
Zn3A Zn 0.42096(5) -0.26643(6) 0.36611(6)
Zn4A Zn 0.09180(5) 0.26712(6) 0.63363(6)
O3A O 0.4650(3) -0.4227(3) 0.1885(3)
O4A O 0.3779(3) -0.3328(4) 0.2340(3)
O7A O 0.3430(3) -0.1984(3) 0.4223(3)
O8A O 0.3230(4) -0.1499(4) 0.3185(4)
O9A O 0.4593(3) 0.1772(3) 0.5956(3)
O10A O 0.3618(3) 0.2362(3) 0.6665(4)
O11A O 0.1414(4) 0.1369(4) 0.6602(4)
O12A O 0.1682(3) 0.1990(4) 0.5711(4)
O15A O 0.0331(3) -0.1904(3) 0.3988(3)
O16A O 0.1334(3) -0.2455(3) 0.3303(4)
O19A O 0.1287(3) -0.4096(3) 0.1612(3)
O20A O 0.2197(4) -0.4694(4) 0.2216(4)
O21A O 0.3317(4) -0.5526(4) -0.2026(4)
O22A O 0.3615(4) -0.6471(4) -0.1513(4)
O23A O 0.1466(3) -0.6594(3) -0.2349(3)
O24A O 0.0471(3) -0.5954(3) -0.1743(3)
C1A C 0.2282(4) -0.4741(5) 0.0815(5)
C8A C 0.3145(4) -0.1506(5) 0.3878(6)
C9A C 0.2751(4) -0.0801(5) 0.4456(5)
C10A C 0.3365(5) 0.0077(5) 0.5032(5)
H3A H 0.39805 0.01660 0.50625
C11A C 0.3102(4) 0.0820(5) 0.5557(4)
C12A C 0.3839(5) 0.1729(5) 0.6112(5)
C13A C 0.1748(5) 0.1415(5) 0.6023(6)
C14A C 0.2174(4) 0.0685(5) 0.5523(5)
C15A C 0.1561(4) -0.0192(5) 0.4988(5)
H4A H 0.09525 -0.02881 0.49873
C16A C 0.1829(4) -0.0928(5) 0.4456(5)
C17A C 0.1108(5) -0.1829(5) 0.3879(5)
C22A C 0.1917(5) -0.4491(5) 0.1632(6)
C23A C 0.3942(5) -0.4009(5) 0.1783(5)
C24A C 0.3218(4) -0.4602(5) 0.0900(5)
C25A C 0.3487(4) -0.4972(4) 0.0130(5)
H5A H 0.41067 -0.48883 0.01877
C26A C 0.1664(4) -0.5190(4) -0.0031(5)
H6A H 0.10477 -0.52498 -0.00863
C27A C 0.1945(4) -0.5559(5) -0.0813(4)
C28A C 0.1234(5) -0.6074(5) -0.1713(5)
C29A C 0.2880(4) -0.5460(5) -0.0719(5)
C30A C 0.3273(5) -0.5862(6) -0.1486(5)
Zn1* Zn 0.40934(5) -0.62921(6) -0.26870(6)
Zn1A* Zn 0.59066(5) 0.62921(6) 0.26870(6)
Zn1A** Zn 0.59066(5) 0.62921(6) 1.26870(6)
Zn2* Zn -0.07205(5) -0.62238(6) -0.25767(6)
Zn2A* Zn 1.07205(5) 0.62238(6) 0.25767(6)
Zn2A** Zn 1.07205(5) 0.62238(6) 1.25767(6)
Zn3A* Zn 0.42096(5) 0.73357(6) 0.36611(6)
Zn4* Zn -0.09180(5) -0.26712(6) 0.36637(6)
Zn4** Zn 0.90820(5) 0.73288(6) 0.36637(6)
Zn4*** Zn 0.90820(5) 0.73288(6) 1.36637(6)
Zn4A* Zn 0.09180(5) -0.73288(6) -0.36637(6)
Zn4A** Zn 1.09180(5) 0.26712(6) 0.63363(6)
O2A* O 0.5897(3) -0.4068(4) 0.3637(3)
O6A* O 0.4264(3) -0.3632(3) 0.3990(4)
O14* O 0.0866(3) 0.3666(3) 0.6023(4)
O14A* O 0.9134(3) -0.3666(3) 0.3977(4)
O15* O -0.0331(3) 0.1904(3) 0.6012(3)
O15A* O 1.0331(3) -0.1904(3) 0.3988(3)
O17A* O 0.0706(3) -0.4159(4) 0.3494(3)
O21* O 0.6683(4) -0.4474(4) 0.2026(4)
O21A* O 0.3317(4) 0.4474(4) 0.7974(4)
O22* O 0.6385(4) -0.3529(4) 0.1513(4)
O22A* O 0.3615(4) 0.3529(4) 0.8487(4)
O23* O 0.8534(3) -0.3406(3) 0.2349(3)
O23A* O 0.1466(3) 0.3406(3) 0.7651(3)
O24* O -0.0471(3) -0.4046(3) 0.1743(3)
O24A* O 1.0471(3) 0.4046(3) 0.8257(3)
#END
