
#######################################################################
#
#                 Cambridge Crystallographic Data Centre
#                                CCDC
#
#######################################################################
#
# If this CIF has been generated from an entry in the Cambridge
# Structural Database, then it will include bibliographic, chemical,
# crystal, experimental, refinement or atomic coordinate data resulting
# from the CCDC's data processing and validation procedures.
#
#######################################################################

data_CSD_CIF_OYIPIX
_audit_creation_date 2016-10-21
_audit_creation_method CSD-ConQuest-V1
_database_code_CSD OYIPIX
_database_code_depnum_ccdc_archive 'CCDC 1476207'
_chemical_formula_sum 'C56 H41 Co4 Li4 N8 O40.5'
_chemical_formula_moiety
;
(C56 H32 Co4 Li3 N8 O36 1-)n,n(H8 Li1 O4 1+),0.5n(H2 O1)
;
_journal_coden_Cambridge 1747
_journal_volume 4
_journal_year 2017
_journal_page_first 79
_journal_name_full 'Inorg.Chem.Front. '
loop_
_publ_author_name
"S.B.Kim"
"Jeung Yoon Kim"
"Nak Cheon Jeong"
"Kang Min Ok"
_chemical_name_systematic
;
catena-[tetraaqua-lithium(i) 
octakis(\m-pyridine-2,6-dicarboxylato)-tetraaqua-tetra-cobalt(iii)-tri-lithium
(i) hemihydrate]
;
_cell_volume   6542.343
_exptl_crystal_colour 'violet'
_exptl_crystal_density_diffrn 1.764
_exptl_crystal_description 'Rod'
_diffrn_ambient_temperature 173
#These two values have been output from a single CSD field.
_refine_ls_R_factor_gt 0.037
_refine_ls_wR_factor_gt 0.037
_symmetry_cell_setting monoclinic
_symmetry_space_group_name_H-M 'I 2/a'
_symmetry_Int_Tables_number 15
loop_
_symmetry_equiv_pos_site_id
_symmetry_equiv_pos_as_xyz
1 x,y,z
2 1/2-x,y,-z
3 1/2+x,1/2+y,1/2+z
4 -x,1/2+y,1/2-z
5 -x,-y,-z
6 -1/2+x,-y,z
7 -1/2-x,-1/2-y,-1/2-z
8 x,-1/2-y,-1/2+z
_cell_length_a 21.3041(3)
_cell_length_b 14.3738(2)
_cell_length_c 21.3818(3)
_cell_angle_alpha 90
_cell_angle_beta 92.286(10)
_cell_angle_gamma 90
_cell_formula_units_Z 4
loop_
_atom_type_symbol
_atom_type_radius_bond
C 0.68
H 0.23
Co 1.26
Li 1.28
N 0.68
O 0.68
loop_
_atom_site_label
_atom_site_type_symbol
_atom_site_fract_x
_atom_site_fract_y
_atom_site_fract_z
Co1 Co 0.24447(2) 0.50030(2) 0.24530(2)
Co2 Co 0.00314(2) 0.75313(2) 0.00716(2)
O1 O 0.16342(8) 0.44294(11) 0.23861(7)
O2 O 0.06449(8) 0.46079(13) 0.26694(8)
O3 O 0.31540(8) 0.57983(11) 0.26302(7)
O4 O 0.34054(8) 0.71537(13) 0.30949(8)
O5 O 0.23288(8) 0.55646(11) 0.16427(7)
O6 O 0.26404(8) 0.54112(13) 0.06626(7)
O7 O 0.26705(8) 0.42219(11) 0.31584(7)
O8 O 0.31711(8) 0.28862(12) 0.33964(7)
O9 O -0.00471(8) 0.78663(12) -0.07993(7)
O10 O -0.03524(9) 0.72489(14) -0.17270(8)
O11 O -0.00022(8) 0.69445(12) 0.08722(7)
O12 O -0.03929(10) 0.57097(14) 0.13448(9)
O13 O 0.08291(8) 0.69871(11) -0.00610(7)
O14 O 0.18534(8) 0.72366(13) 0.01340(8)
O15 O -0.06619(7) 0.83211(11) 0.02763(7)
O16 O -0.08610(8) 0.96972(12) 0.07221(8)
N1 N 0.20206(9) 0.58902(13) 0.28907(8)
N2 N 0.28553(9) 0.41032(13) 0.20143(8)
N3 N -0.04254(9) 0.65096(14) -0.01892(9)
N4 N 0.05056(9) 0.85190(13) 0.03663(8)
Li1 Li 0.25000 0.6324(4) 0.00000
C1 C 0.14064(12) 0.57741(17) 0.29637(11)
C2 C 0.10777(13) 0.64290(18) 0.32864(11)
H1 H 0.06490 0.63640 0.33400
C3 C 0.14060(13) 0.71924(19) 0.35297(11)
H2 H 0.11930 0.76430 0.37510
C4 C 0.20472(13) 0.72944(18) 0.34481(11)
H3 H 0.22660 0.78040 0.36130
C5 C 0.23492(12) 0.66148(17) 0.31144(10)
C6 C 0.11902(12) 0.48784(18) 0.26594(11)
C7 C 0.30247(12) 0.65490(18) 0.29444(11)
C8 C 0.28718(11) 0.41976(17) 0.13983(10)
C9 C 0.31289(12) 0.34952(17) 0.10471(11)
H4 H 0.31330 0.35360 0.06130
C10 C 0.33818(12) 0.27242(18) 0.13626(11)
H5 H 0.35580 0.22450 0.11360
C11 C 0.33740(12) 0.26630(17) 0.20113(11)
H6 H 0.35550 0.21600 0.22240
C12 C 0.30899(11) 0.33733(17) 0.23284(10)
C13 C 0.25979(11) 0.51215(17) 0.11977(11)
C14 C 0.29840(11) 0.34657(17) 0.30194(10)
C15 C -0.05770(11) 0.64266(18) -0.07960(11)
C16 C -0.09225(12) 0.56606(19) -0.10002(12)
H7 H -0.10410 0.55880 -0.14210
C17 C -0.10878(12) 0.5004(2) -0.05606(13)
H8 H -0.13190 0.44840 -0.06890
C18 C -0.09158(12) 0.51094(18) 0.00612(13)
H9 H -0.10270 0.46660 0.03540
C19 C -0.05756(11) 0.58853(17) 0.02413(11)
C20 C -0.03188(12) 0.72306(19) -0.11544(11)
C21 C -0.03140(12) 0.61672(19) 0.08748(12)
C22 C 0.11270(11) 0.84323(17) 0.03811(10)
C23 C 0.14973(12) 0.91446(18) 0.06204(11)
H10 H 0.19330 0.91090 0.06200
C24 C 0.12003(12) 0.99182(18) 0.08628(11)
H11 H 0.14410 1.04070 0.10270
C25 C 0.05474(12) 0.99704(17) 0.08638(11)
H12 H 0.03490 1.04800 0.10370
C26 C 0.02041(11) 0.92463(17) 0.06014(10)
C27 C 0.13047(12) 0.74915(18) 0.01342(11)
C28 C -0.04956(11) 0.91128(17) 0.05419(10)
O17 O -0.03009(13) 0.29319(19) 0.30381(10)
Li2 Li 0.0051(2) 0.3615(4) 0.2390(2)
H13 H -0.017(2) 0.246(3) 0.331(2)
H14 H -0.069(2) 0.311(3) 0.306(2)
O18 O -0.06977(10) 0.41506(15) 0.19828(10)
H15 H -0.065(3) 0.480(4) 0.176(3)
H16 H -0.058(3) 0.442(5) 0.253(3)
O19 O -0.21573(10) 0.94571(15) 0.06721(9)
Li3 Li -0.25000 0.8687(5) 0.00000
H17 H -0.1774(19) 0.960(3) 0.0689(17)
H18 H -0.2292(15) 0.936(2) 0.1048(16)
O20 O -0.18341(9) 0.79148(15) -0.03021(10)
H19 H -0.1500(13) 0.8050(19) -0.0174(12)
H20 H -0.1824(15) 0.792(2) -0.0685(16)
O21 O 0.0612(3) 1.0980(5) 0.2217(3)
H21 H 0.033(3) 1.077(5) 0.243(4)
H22 H 0.053(4) 1.1544(17) 0.216(4)
Co1A Co 0.25553(2) 0.50030(2) -0.24530(2)
Co2A Co 0.49686(2) 0.75313(2) -0.00716(2)
O1A O 0.33658(8) 0.44294(11) -0.23861(7)
O2A O 0.43551(8) 0.46079(13) -0.26694(8)
O3A O 0.18460(8) 0.57983(11) -0.26302(7)
O4A O 0.15946(8) 0.71537(13) -0.30949(8)
O5A O 0.26712(8) 0.55646(11) -0.16427(7)
O6A O 0.23596(8) 0.54112(13) -0.06626(7)
O7A O 0.23295(8) 0.42219(11) -0.31584(7)
O8A O 0.18289(8) 0.28862(12) -0.33964(7)
O9A O 0.50471(8) 0.78663(12) 0.07993(7)
O10A O 0.53524(9) 0.72489(14) 0.17270(8)
O11A O 0.50022(8) 0.69445(12) -0.08722(7)
O12A O 0.53929(10) 0.57097(14) -0.13448(9)
O13A O 0.41709(8) 0.69871(11) 0.00610(7)
O14A O 0.31466(8) 0.72366(13) -0.01340(8)
O15A O 0.56619(7) 0.83211(11) -0.02763(7)
O16A O 0.58610(8) 0.96972(12) -0.07221(8)
N1A N 0.29794(9) 0.58902(13) -0.28907(8)
N2A N 0.21447(9) 0.41032(13) -0.20143(8)
N3A N 0.54254(9) 0.65096(14) 0.01892(9)
N4A N 0.44944(9) 0.85190(13) -0.03663(8)
C1A C 0.35936(12) 0.57741(17) -0.29637(11)
C2A C 0.39223(13) 0.64290(18) -0.32864(11)
H1A H 0.43510 0.63640 -0.33400
C3A C 0.35940(13) 0.71924(19) -0.35297(11)
H2A H 0.38070 0.76430 -0.37510
C4A C 0.29528(13) 0.72944(18) -0.34481(11)
H3A H 0.27340 0.78040 -0.36130
C5A C 0.26508(12) 0.66148(17) -0.31144(10)
C6A C 0.38098(12) 0.48784(18) -0.26594(11)
C7A C 0.19753(12) 0.65490(18) -0.29444(11)
C8A C 0.21282(11) 0.41976(17) -0.13983(10)
C9A C 0.18711(12) 0.34952(17) -0.10471(11)
H4A H 0.18670 0.35360 -0.06130
C10A C 0.16182(12) 0.27242(18) -0.13626(11)
H5A H 0.14420 0.22450 -0.11360
C11A C 0.16260(12) 0.26630(17) -0.20113(11)
H6A H 0.14450 0.21600 -0.22240
C12A C 0.19101(11) 0.33733(17) -0.23284(10)
C13A C 0.24021(11) 0.51215(17) -0.11977(11)
C14A C 0.20160(11) 0.34657(17) -0.30194(10)
C15A C 0.55770(11) 0.64266(18) 0.07960(11)
C16A C 0.59225(12) 0.56606(19) 0.10002(12)
H7A H 0.60410 0.55880 0.14210
C17A C 0.60878(12) 0.5004(2) 0.05606(13)
H8A H 0.63190 0.44840 0.06890
C18A C 0.59158(12) 0.51094(18) -0.00612(13)
H9A H 0.60270 0.46660 -0.03540
C19A C 0.55756(11) 0.58853(17) -0.02413(11)
C20A C 0.53188(12) 0.72306(19) 0.11544(11)
C21A C 0.53140(12) 0.61672(19) -0.08748(12)
C22A C 0.38730(11) 0.84323(17) -0.03811(10)
C23A C 0.35027(12) 0.91446(18) -0.06204(11)
H10A H 0.30670 0.91090 -0.06200
C24A C 0.37997(12) 0.99182(18) -0.08628(11)
H11A H 0.35590 1.04070 -0.10270
C25A C 0.44526(12) 0.99704(17) -0.08638(11)
H12A H 0.46510 1.04800 -0.10370
C26A C 0.47959(11) 0.92463(17) -0.06014(10)
C27A C 0.36953(12) 0.74915(18) -0.01342(11)
C28A C 0.54956(11) 0.91128(17) -0.05419(10)
O17A O 0.53009(13) 0.29319(19) -0.30381(10)
Li2A Li 0.4949(2) 0.3615(4) -0.2390(2)
H13A H 0.517(2) 0.246(3) -0.331(2)
H14A H 0.569(2) 0.311(3) -0.306(2)
O18A O 0.56977(10) 0.41506(15) -0.19828(10)
H15A H 0.565(3) 0.480(4) -0.176(3)
H16A H 0.558(3) 0.442(5) -0.253(3)
O10D O 0.03524(9) 0.27511(14) 0.17270(8)
O10E O 0.46476(9) 0.27511(14) -0.17270(8)
Li2D Li -0.0051(2) 0.6385(4) -0.2390(2)
Li2E Li 0.5051(2) 0.6385(4) 0.2390(2)
O19A O -0.28427(10) 0.94571(15) -0.06721(9)
H17A H -0.3226(19) 0.960(3) -0.0689(17)
H18A H -0.2708(15) 0.936(2) -0.1048(16)
O20A O -0.31659(9) 0.79148(15) 0.03021(10)
H19A H -0.3500(13) 0.8050(19) 0.0174(12)
H20A H -0.3176(15) 0.792(2) 0.0685(16)
#END
