
#######################################################################
#
#                 Cambridge Crystallographic Data Centre
#                                CCDC
#
#######################################################################
#
# If this CIF has been generated from an entry in the Cambridge
# Structural Database, then it will include bibliographic, chemical,
# crystal, experimental, refinement or atomic coordinate data resulting
# from the CCDC's data processing and validation procedures.
#
#######################################################################

data_CSD_CIF_OYIWOK02
_audit_creation_date 2016-10-21
_audit_creation_method CSD-ConQuest-V1
_database_code_CSD OYIWOK02
_database_code_depnum_ccdc_archive 'CCDC 1464521'
_chemical_formula_sum 'C8 H16 Cu1 N22'
_chemical_formula_moiety
;
(C6 H4 Cu1 N16 2-)n,2(C1 H6 N3 1+)
;
_journal_coden_Cambridge 222
_journal_volume 45
_journal_year 2016
_journal_page_first 17117
_journal_name_full 'Dalton Trans. '
loop_
_publ_author_name
"Yong-an Feng"
"Hao Qiu"
"Sa-sha Yang"
"Jiang Du"
"Tong-lai Zhang"
_chemical_name_systematic
;
catena-[bis(diaminomethaniminium) 
bis(\m-5,5'-methylenebis(tetrazolyl))-copper]
;
_cell_volume    899.220
_exptl_crystal_density_diffrn 1.787
_diffrn_ambient_temperature 101.7
#These two values have been output from a single CSD field.
_refine_ls_R_factor_gt 0.0312
_refine_ls_wR_factor_gt 0.0312
_symmetry_cell_setting monoclinic
_symmetry_space_group_name_H-M 'P 21/c'
_symmetry_Int_Tables_number 14
loop_
_symmetry_equiv_pos_site_id
_symmetry_equiv_pos_as_xyz
1 x,y,z
2 -x,1/2+y,1/2-z
3 -x,-y,-z
4 x,-1/2-y,-1/2+z
_cell_length_a 10.6585(4)
_cell_length_b 8.7138(3)
_cell_length_c 9.7203(8)
_cell_angle_alpha 90
_cell_angle_beta 95.092(5)
_cell_angle_gamma 90
_cell_formula_units_Z 2
loop_
_atom_type_symbol
_atom_type_radius_bond
C 0.68
H 0.23
Cu 1.32
N 0.68
loop_
_atom_site_label
_atom_site_type_symbol
_atom_site_fract_x
_atom_site_fract_y
_atom_site_fract_z
Cu1 Cu 1.00000 0.00000 0.50000
N1 N 0.94551(17) 0.1326(2) 0.65342(18)
N2 N 0.81842(17) -0.0690(2) 0.47580(19)
N3 N 0.85398(18) 0.2029(2) 0.8371(2)
C1 C 0.8538(2) 0.1021(3) 0.7351(2)
N4 N 0.62554(18) -0.1287(2) 0.5189(2)
N5 N 0.75456(18) -0.1166(2) 0.35697(19)
N6 N 0.63953(18) -0.1526(2) 0.3835(2)
N7 N 0.94986(18) 0.3004(2) 0.8169(2)
N8 N 1.00375(18) 0.2598(2) 0.7070(2)
C2 C 0.7638(2) -0.0292(3) 0.7184(2)
H1 H 0.79960 -0.11760 0.77260
H2 H 0.68410 0.00020 0.75670
C3 C 0.7356(2) -0.0773(2) 0.5721(2)
N9 N 0.55581(18) 0.0978(2) 1.1638(2)
H3 H 0.48720 0.15450 1.15880
H4 H 0.56580 0.02350 1.22520
N10 N 0.62925(18) 0.2360(2) 0.9863(2)
H5 H 0.68730 0.25290 0.92910
H6 H 0.56110 0.29340 0.98230
C4 C 0.6445(2) 0.1243(3) 1.0785(2)
N11 N 0.74715(19) 0.0377(2) 1.0848(2)
H7 H 0.80520 0.05440 1.02760
H8 H 0.75720 -0.03660 1.14610
N1B N 1.05449(17) -0.1326(2) 0.34658(18)
N2B N 1.18158(17) 0.0690(2) 0.52420(19)
N3B N 1.14602(18) -0.2029(2) 0.1629(2)
C1B C 1.1462(2) -0.1021(3) 0.2649(2)
N4B N 1.37446(18) 0.1287(2) 0.4811(2)
N5B N 1.24544(18) 0.1166(2) 0.64303(19)
N6B N 1.36047(18) 0.1526(2) 0.6165(2)
N7B N 1.05014(18) -0.3004(2) 0.1831(2)
N8B N 0.99625(18) -0.2598(2) 0.2930(2)
C2B C 1.2362(2) 0.0292(3) 0.2816(2)
H1B H 1.20040 0.11760 0.22740
H2B H 1.31590 -0.00020 0.24330
C3B C 1.2644(2) 0.0773(2) 0.4279(2)
Cu1A Cu 1.00000 -0.50000 0.00000
Cu1A* Cu 1.00000 0.50000 1.00000
N7A N 1.05014(18) -0.1996(2) 0.6831(2)
N7C N 0.94986(18) 0.1996(2) 0.3169(2)
#END
