
#######################################################################
#
#                 Cambridge Crystallographic Data Centre
#                                CCDC
#
#######################################################################
#
# If this CIF has been generated from an entry in the Cambridge
# Structural Database, then it will include bibliographic, chemical,
# crystal, experimental, refinement or atomic coordinate data resulting
# from the CCDC's data processing and validation procedures.
#
#######################################################################

data_CSD_CIF_OYOSUR
_audit_creation_date 2011-11-21
_audit_creation_method CSD-ConQuest-V1
_database_code_CSD OYOSUR
_database_code_depnum_ccdc_archive 'CCDC 807819'
_chemical_formula_sum 'C58 H92 Co4 N4 O44'
_chemical_formula_moiety
;
(H12 Co1 O6 2+)n,n(C24 H36 Co2 N4 O8 4+),n(C34 H20 Co1 O18 6-),12n(H2 O1)
;
_journal_coden_Cambridge 1220
_journal_volume 17
_journal_year 2011
_journal_page_first 9936
_journal_name_full 'Chem.-Eur.J. '
loop_
_publ_author_name
"Xianying Duan"
"Qingjin Meng"
"Yang Su"
"Yizhi Li"
"Chunying Duan"
"Xiaoming Ren"
"Changsheng Lu"
_chemical_name_systematic
;
catena-[Hexa-aqua-cobalt(ii) 
bis(\m~2~-1,2-bis(4-pyridyl)ethylene)-octa-aqua-di-cobalt(ii) 
bis(\m~2~-5,5'-methanediyldibenzene-1,3-dicarboxylato-O,O')-diaqua-cobalt(ii) 
dodecahydrate]
;
_cell_volume   3765.921
_exptl_crystal_colour 'red'
_exptl_crystal_density_diffrn 1.574
_exptl_crystal_description 'block'
_diffrn_ambient_temperature 291
#These two values have been output from a single CSD field.
_refine_ls_R_factor_gt 0.0483
_refine_ls_wR_factor_gt 0.0483
_symmetry_cell_setting monoclinic
_symmetry_space_group_name_H-M 'P 21/c'
_symmetry_Int_Tables_number 14
loop_
_symmetry_equiv_pos_site_id
_symmetry_equiv_pos_as_xyz
1 x,y,z
2 -x,1/2+y,1/2-z
3 -x,-y,-z
4 x,-1/2-y,-1/2+z
_cell_length_a 14.9273(16)
_cell_length_b 20.3448(18)
_cell_length_c 13.7460(15)
_cell_angle_alpha 90
_cell_angle_beta 115.563(3)
_cell_angle_gamma 90
_cell_formula_units_Z 2
loop_
_atom_type_symbol
_atom_type_radius_bond
C 0.68
H 0.23
Co 1.26
N 0.68
O 0.68
loop_
_atom_site_label
_atom_site_type_symbol
_atom_site_fract_x
_atom_site_fract_y
_atom_site_fract_z
C1 C 0.37362(19) 0.80208(13) 0.4507(2)
C2 C 0.3996(2) 0.73542(13) 0.4721(2)
H1 H 0.46620 0.72380 0.50880
C3 C 0.3281(2) 0.68720(14) 0.4395(2)
C4 C 0.22884(19) 0.70533(13) 0.3837(2)
H2 H 0.18050 0.67270 0.36220
C5 C 0.1995(2) 0.76970(15) 0.3593(2)
C6 C 0.2737(2) 0.81898(14) 0.3942(2)
H3 H 0.25570 0.86290 0.37930
C7 C 0.3537(2) 0.61511(14) 0.4663(2)
H4 H 0.37330 0.60850 0.54270
H5 H 0.29480 0.58890 0.42700
C8 C 0.43543(19) 0.59104(12) 0.4396(2)
C9 C 0.53416(19) 0.59643(12) 0.5109(2)
H6 H 0.55130 0.61530 0.57820
C10 C 0.60836(19) 0.57422(12) 0.4841(2)
C11 C 0.58608(19) 0.54977(13) 0.3820(2)
H7 H 0.63640 0.53680 0.36330
C12 C 0.48584(19) 0.54496(12) 0.3073(2)
C13 C 0.4114(2) 0.56510(14) 0.3364(2)
H8 H 0.34510 0.56130 0.28710
C14 C 0.45220(19) 0.85459(13) 0.4829(2)
C15 C 0.0921(2) 0.78741(17) 0.2972(3)
C16 C 0.7153(2) 0.58078(17) 0.5684(2)
C17 C 0.4585(2) 0.51935(13) 0.1955(2)
C18 C 0.6647(2) 0.73249(15) 0.3516(3)
H9 H 0.70210 0.69430 0.37570
C19 C 0.5643(2) 0.72745(15) 0.3077(2)
H10 H 0.53480 0.68640 0.30150
C20 C 0.5055(2) 0.78275(15) 0.2721(2)
C21 C 0.5562(2) 0.84224(14) 0.2864(2)
H11 H 0.52100 0.88150 0.26630
C22 C 0.6596(2) 0.84289(15) 0.3307(2)
H12 H 0.69210 0.88290 0.33830
C23 C 0.3973(2) 0.78142(15) 0.2208(2)
H13 H 0.36440 0.82130 0.21310
C24 C 0.3422(2) 0.72836(15) 0.1846(2)
H14 H 0.37530 0.68840 0.19600
C25 C 0.23390(19) 0.72646(15) 0.1283(2)
C26 C 0.1891(2) 0.66622(15) 0.0998(2)
H15 H 0.22630 0.62770 0.11740
C27 C 0.0850(2) 0.66453(15) 0.0429(2)
H16 H 0.05490 0.62360 0.02350
C28 C 0.0738(2) 0.77606(14) 0.0431(2)
H17 H 0.03540 0.81400 0.02360
C29 C 0.1751(2) 0.78238(14) 0.0990(2)
H18 H 0.20390 0.82380 0.11700
Co1 Co 0.50000 1.00000 0.50000
Co2 Co 0.87154(3) 0.790603(19) 0.43572(3)
Co3 Co 1.00000 1.00000 1.00000
N1 N 0.71270(18) 0.78901(13) 0.3621(2)
N2 N 0.02690(17) 0.71688(12) 0.01502(18)
O1 O 0.42263(15) 0.91182(9) 0.45676(17)
O2 O 0.54167(15) 0.8372(1) 0.53298(18)
O3 O 0.06849(19) 0.84848(13) 0.2828(2)
O4 O 0.02925(15) 0.74356(12) 0.26202(18)
O5 O 0.73052(14) 0.61989(10) 0.64427(17)
O6 O 0.78157(15) 0.54596(11) 0.56116(18)
O7 O 0.36938(15) 0.50496(10) 0.13892(16)
O8 O 0.52444(14) 0.51287(11) 0.16391(15)
O9 O 0.36369(14) 1.04957(10) 0.45808(16)
H19 H 0.36530 1.08660 0.43040
H20 H 0.35440 1.05490 0.51210
O10 O 0.86775(15) 0.73474(11) 0.56182(17)
H21 H 0.81940 0.74720 0.57430
H22 H 0.92000 0.73930 0.61620
O11 O 0.86795(18) 0.71152(11) 0.3342(2)
H23 H 0.90910 0.71920 0.30790
H24 H 0.81110 0.70400 0.28300
O12 O 0.88703(14) 0.85313(11) 0.32103(16)
H25 H 0.92270 0.83440 0.29500
H26 H 0.83210 0.86130 0.27260
O13 O 0.86844(17) 0.87452(11) 0.51980(18)
H27 H 0.89690 0.90580 0.50310
H28 H 0.89710 0.86750 0.58480
O14 O 0.93013(18) 0.93879(13) 0.86892(19)
H29 H 0.91200 0.90390 0.88940
H30 H 0.96850 0.92960 0.84260
O15 O 0.97371(16) 0.92954(11) 1.09661(18)
H31 H 1.00830 0.93880 1.16270
H32 H 0.91460 0.92950 1.08320
O16 O 0.85817(15) 1.03944(11) 0.96541(18)
H33 H 0.83880 1.04830 0.89900
H34 H 0.80450 1.03230 0.96650
O17 O 0.71271(16) 0.75756(12) 0.62459(19)
H35 H 0.65800 0.77830 0.59560
H36 H 0.69950 0.71670 0.62110
O18 O 0.17431(17) 0.49542(11) 0.0727(2)
H37 H 0.15470 0.52040 0.10930
H38 H 0.23720 0.49730 0.09760
O19 O -0.00407(18) 0.61488(13) 0.23373(19)
H39 H 0.03890 0.58680 0.23570
H40 H 0.02310 0.65260 0.24500
O20 O 0.88204(19) 0.48178(12) 0.7644(2)
H41 H 0.90880 0.51720 0.75720
H42 H 0.82890 0.47710 0.70690
O21 O 0.7223(4) 1.0495(3) 0.7598(4)
H43 H 0.67320 1.07210 0.75660
H44 H 0.70250 1.01130 0.73480
O22 O 0.09374(19) 0.96703(14) 0.3660(2)
H45 H 0.12010 0.97500 0.43330
H46 H 0.09290 0.92560 0.35780
O23 O 0.7334(4) 0.9037(3) 0.7540(4)
H47 H 0.75980 0.94100 0.77680
H48 H 0.68670 0.89250 0.77020
C1B C 0.62638(19) 1.19792(13) 0.5493(2)
C2B C 0.6004(2) 1.26458(13) 0.5279(2)
H1B H 0.53380 1.27620 0.49120
C3B C 0.6719(2) 1.31280(14) 0.5605(2)
C4B C 0.77116(19) 1.29467(13) 0.6163(2)
H2B H 0.81950 1.32730 0.63780
C5B C 0.8005(2) 1.23030(15) 0.6407(2)
C6B C 0.7263(2) 1.18102(14) 0.6058(2)
H3B H 0.74430 1.13710 0.62070
C7B C 0.6463(2) 1.38489(14) 0.5337(2)
H4B H 0.62670 1.39150 0.45730
H5B H 0.70520 1.41110 0.57300
C8B C 0.56457(19) 1.40896(12) 0.5604(2)
C9B C 0.46584(19) 1.40357(12) 0.4891(2)
H6B H 0.44870 1.38470 0.42180
C10B C 0.39164(19) 1.42578(12) 0.5159(2)
C11B C 0.41392(19) 1.45023(13) 0.6180(2)
H7B H 0.36360 1.46320 0.63670
C12B C 0.51416(19) 1.45504(12) 0.6927(2)
C13B C 0.5886(2) 1.43490(14) 0.6636(2)
H8B H 0.65490 1.43870 0.71290
C14B C 0.54780(19) 1.14541(13) 0.5171(2)
C15B C 0.9079(2) 1.21259(17) 0.7028(3)
C16B C 0.2847(2) 1.41922(17) 0.4316(2)
C17B C 0.5415(2) 1.48065(13) 0.8045(2)
C18C C 1.6647(2) 0.76751(15) 0.8516(3)
H9C H 1.70210 0.80570 0.87570
C19C C 1.5643(2) 0.77255(15) 0.8077(2)
H10C H 1.53480 0.81360 0.80150
C20C C 1.5055(2) 0.71725(15) 0.7721(2)
C21C C 1.5562(2) 0.65776(14) 0.7864(2)
H11C H 1.52100 0.61850 0.76630
C22C C 1.6596(2) 0.65711(15) 0.8307(2)
H12C H 1.69210 0.61710 0.83830
C23C C 1.3973(2) 0.71858(15) 0.7208(2)
H13C H 1.36440 0.67870 0.71310
C24C C 1.3422(2) 0.77164(15) 0.6846(2)
H14C H 1.37530 0.81160 0.69600
C25C C 1.23390(19) 0.77354(15) 0.6283(2)
C26C C 1.1891(2) 0.83378(15) 0.5998(2)
H15C H 1.22630 0.87230 0.61740
C27C C 1.0850(2) 0.83547(15) 0.5429(2)
H16C H 1.05490 0.87640 0.52350
C28C C 1.0738(2) 0.72394(14) 0.5431(2)
H17C H 1.03540 0.68600 0.52360
C29C C 1.1751(2) 0.71762(14) 0.5990(2)
H18C H 1.20390 0.67620 0.61700
Co1A Co 0.50000 0.50000 0.00000
Co1A* Co 0.50000 1.50000 1.00000
Co2C Co 1.87154(3) 0.709397(19) 0.93572(3)
Co2C* Co -0.12846(3) 0.709397(19) -0.06428(3)
N1C N 1.71270(18) 0.71099(13) 0.8621(2)
N2C N 1.02690(17) 0.78312(12) 0.51502(18)
N2* N 2.02690(17) 0.71688(12) 1.01502(18)
O1B O 0.57737(15) 1.08818(9) 0.54324(17)
O2B O 0.45833(15) 1.1628(1) 0.46702(18)
O3B O 0.93151(19) 1.15152(13) 0.7172(2)
O4B O 0.97075(15) 1.25644(12) 0.73798(18)
O5B O 0.26948(14) 1.38011(10) 0.35573(17)
O6B O 0.21843(15) 1.45404(11) 0.43884(18)
O7B O 0.63062(15) 1.49504(10) 0.86108(16)
O8B O 0.47556(14) 1.48713(11) 0.83609(15)
O8A O 0.47556(14) 1.01287(11) 0.33609(15)
O8C O 0.52444(14) 0.98713(11) 0.66391(15)
O9B O 0.63631(14) 0.95043(10) 0.54192(16)
H19B H 0.63470 0.91340 0.56960
H20B H 0.64560 0.94510 0.48790
O10C O 1.86775(15) 0.76526(11) 1.06182(17)
H21C H 1.81940 0.75280 1.07430
H22C H 1.92000 0.76070 1.11620
O11C O 1.86795(18) 0.78848(11) 0.8342(2)
H23C H 1.90910 0.78080 0.80790
H24C H 1.81110 0.79600 0.78300
O12C O 1.88703(14) 0.64687(11) 0.82103(16)
H25C H 1.92270 0.66560 0.79500
H26C H 1.83210 0.63870 0.77260
O13C O 1.86844(17) 0.62548(11) 1.01980(18)
H27C H 1.89690 0.59420 1.00310
H28C H 1.89710 0.63250 1.08480
O14B O 1.06987(18) 1.06121(13) 1.13108(19)
H29B H 1.08800 1.09610 1.11060
H30B H 1.03150 1.07040 1.15740
O15B O 1.02629(16) 1.07046(11) 0.90339(18)
H31B H 0.99170 1.06120 0.83730
H32B H 1.08540 1.07050 0.91680
O16B O 1.14183(15) 0.96056(11) 1.03459(18)
H33B H 1.16120 0.95170 1.10100
H34B H 1.19550 0.96770 1.03350
#END
