
#######################################################################
#
#                 Cambridge Crystallographic Data Centre
#                                CCDC
#
#######################################################################
#
# If this CIF has been generated from an entry in the Cambridge
# Structural Database, then it will include bibliographic, chemical,
# crystal, experimental, refinement or atomic coordinate data resulting
# from the CCDC's data processing and validation procedures.
#
#######################################################################

data_CSD_CIF_OYOTAY
_audit_creation_date 2011-11-21
_audit_creation_method CSD-ConQuest-V1
_database_code_CSD OYOTAY
_database_code_depnum_ccdc_archive 'CCDC 807820'
_chemical_formula_sum 'C46 H74 Co4 N2 O39'
_chemical_formula_moiety
;
(H12 Co1 O6 2+)2n,n(C12 H20 Co1 N2 O4 2+),n(C34 H16 Co1 O16 6-),7n(H2 O1)
;
_journal_coden_Cambridge 1220
_journal_volume 17
_journal_year 2011
_journal_page_first 9936
_journal_name_full 'Chem.-Eur.J. '
loop_
_publ_author_name
"Xianying Duan"
"Qingjin Meng"
"Yang Su"
"Yizhi Li"
"Chunying Duan"
"Xiaoming Ren"
"Changsheng Lu"
_chemical_name_systematic
;
catena-[bis(Hexa-aqua-cobalt(ii)) 
(\m~2~-1,2-bis(4-pyridyl)ethane)-tetra-aqua-cobalt(ii) 
(\m~2~-5,5'-methanediyldibenzene-1,3-dicarboxylato-O,O')-(\m~2~-5,5'-methanedi
yldibenzene-1,3-dicarboxylato-O,O',O'')-cobalt(ii) heptahydrate]
;
_cell_volume   6107.423
_exptl_crystal_density_diffrn 1.647
_diffrn_ambient_temperature 291
#These two values have been output from a single CSD field.
_refine_ls_R_factor_gt 0.0544
_refine_ls_wR_factor_gt 0.0544
_symmetry_cell_setting monoclinic
_symmetry_space_group_name_H-M 'C c'
_symmetry_Int_Tables_number 9
loop_
_symmetry_equiv_pos_site_id
_symmetry_equiv_pos_as_xyz
1 x,y,z
2 x,-y,1/2+z
3 1/2+x,1/2+y,z
4 1/2+x,1/2-y,1/2+z
_cell_length_a 11.873(3)
_cell_length_b 19.291(5)
_cell_length_c 27.158(7)
_cell_angle_alpha 90
_cell_angle_beta 100.933(5)
_cell_angle_gamma 90
_cell_formula_units_Z 4
loop_
_atom_type_symbol
_atom_type_radius_bond
C 0.68
H 0.23
Co 1.28
N 0.68
O 0.68
loop_
_atom_site_label
_atom_site_type_symbol
_atom_site_fract_x
_atom_site_fract_y
_atom_site_fract_z
C1 C 1.0673(5) 0.8275(2) 0.8593(2)
C2 C 1.1647(4) 0.8499(2) 0.8920(2)
H1 H 1.16190 0.85710 0.92560
C3 C 1.2649(4) 0.8616(3) 0.8754(2)
C4 C 1.2720(5) 0.8515(3) 0.8254(2)
H2 H 1.33980 0.86010 0.81400
C5 C 1.1723(4) 0.8276(2) 0.79196(19)
C6 C 1.0725(4) 0.8164(2) 0.81062(17)
H3 H 1.00720 0.80090 0.78890
C7 C 1.3764(4) 0.8828(3) 0.9138(2)
H4 H 1.39580 0.84590 0.93820
H5 H 1.43940 0.88750 0.89590
C8 C 1.3641(4) 0.9496(2) 0.94113(18)
C9 C 1.3504(4) 0.9467(2) 0.9898(2)
H6 H 1.34770 0.90380 1.00520
C10 C 1.3404(5) 1.0070(3) 1.0169(3)
C11 C 1.3425(4) 1.0722(2) 0.9928(2)
H7 H 1.33960 1.11300 1.01070
C12 C 1.3492(5) 1.0747(3) 0.9397(2)
C13 C 1.3645(4) 1.0117(3) 0.9167(2)
H8 H 1.37530 1.01180 0.88370
C14 C 0.9622(4) 0.8106(3) 0.8776(2)
C15 C 1.1822(5) 0.8149(3) 0.7382(2)
C16 C 1.3230(5) 1.0088(3) 1.0701(2)
C17 C 1.3360(5) 1.1420(3) 0.9121(2)
C18 C 0.6765(5) 0.9770(3) 0.9404(2)
C19 C 0.6650(4) 0.9860(2) 0.99061(19)
H9 H 0.67020 0.94790 1.01190
C20 C 0.6457(5) 1.0525(3) 1.0087(2)
C21 C 0.6369(5) 1.1082(3) 0.9755(2)
H10 H 0.62140 1.15200 0.98690
C22 C 0.6502(5) 1.1012(3) 0.92679(19)
C23 C 0.6672(5) 1.0358(3) 0.9098(2)
H11 H 0.67290 1.03030 0.87630
C24 C 0.6370(5) 1.1641(3) 0.8927(2)
H12 H 0.63340 1.20550 0.91260
H13 H 0.56540 1.16050 0.86870
C25 C 0.7221(5) 1.1505(3) 0.8144(2)
H14 H 0.65110 1.13390 0.79830
C26 C 0.7357(4) 1.1709(3) 0.8646(2)
C27 C 0.8392(5) 1.1942(3) 0.8880(2)
H15 H 0.84990 1.20560 0.92180
C28 C 0.9308(4) 1.2017(3) 0.8628(2)
C29 C 0.9169(5) 1.1810(3) 0.8130(2)
H16 H 0.97770 1.18470 0.79610
C30 C 0.8096(5) 1.1541(3) 0.7881(2)
C31 C 0.7026(4) 0.9076(3) 0.9205(2)
C32 C 0.6311(5) 1.0629(3) 1.0619(2)
C33 C 1.0425(4) 1.2317(2) 0.8884(2)
C34 C 0.7968(5) 1.1357(3) 0.7330(2)
C35 C -0.0555(5) -0.0149(3) 0.7407(2)
H17 H -0.12370 -0.02870 0.72030
C36 C -0.0538(5) -0.0068(3) 0.7919(2)
H18 H -0.11920 -0.01590 0.80500
C37 C 0.0450(5) 0.0145(3) 0.8227(2)
C38 C 0.1370(5) 0.0277(3) 0.8011(2)
H19 H 0.20460 0.04370 0.82090
C39 C 0.1320(5) 0.0177(3) 0.74937(19)
H20 H 0.19680 0.02620 0.73570
C40 C 0.0587(5) 0.0255(3) 0.8779(2)
H21 H 0.08340 0.07280 0.88550
H22 H 0.11910 -0.00490 0.89470
C41 C -0.0487(5) 0.0123(3) 0.8994(2)
H23 H -0.08210 -0.03160 0.88690
H24 H -0.10440 0.04840 0.88790
C42 C -0.0239(5) 0.0109(3) 0.9566(2)
C43 C -0.0224(5) 0.0741(3) 0.9848(2)
H25 H -0.03180 0.11680 0.96870
C44 C -0.0075(5) 0.0699(3) 1.0344(2)
H26 H -0.00880 0.11100 1.05220
C45 C 0.0115(5) -0.0473(3) 1.0332(2)
H27 H 0.02320 -0.08920 1.05020
C46 C -0.0021(5) -0.0486(3) 0.9833(2)
H28 H 0.00330 -0.09040 0.96690
Co1 Co 0.76650(9) 0.78265(3) 0.90043(5)
Co2 Co 0.02384(10) -0.00597(4) 0.63991(5)
Co3 Co 0.5820(1) 0.89753(3) 0.72783(5)
Co4 Co 0.18368(10) 0.71935(3) 0.57908(5)
N1 N 0.0352(4) -0.0038(2) 0.71946(17)
N2 N 0.0093(4) 0.0110(2) 1.06047(19)
O1 O 0.8654(3) 0.80308(17) 0.84709(14)
O2 O 0.9635(4) 0.8059(2) 0.92481(16)
O3 O 1.0938(4) 0.7965(2) 0.70910(17)
O4 O 1.2797(4) 0.8214(2) 0.72584(16)
O5 O 1.3246(3) 0.95019(19) 1.09242(15)
O6 O 1.3056(4) 1.06613(19) 1.08932(16)
O7 O 1.3158(3) 1.19299(17) 0.93683(16)
O8 O 1.3398(3) 1.14059(19) 0.86718(14)
O9 O 0.7385(3) 0.85857(18) 0.95208(15)
O10 O 0.6952(3) 0.89982(18) 0.87587(15)
O11 O 0.5987(3) 1.12108(19) 1.07400(16)
O12 O 0.6527(4) 1.0135(2) 1.09143(16)
O13 O 1.1114(3) 1.25218(18) 0.86116(15)
O14 O 1.0646(4) 1.2339(2) 0.93479(17)
O15 O 0.8758(3) 1.14689(18) 0.71179(15)
O16 O 0.6970(4) 1.1139(2) 0.71286(17)
O17 O 0.1567(4) 0.06660(19) 0.64533(14)
H29 H 0.13080 0.10610 0.65160
H30 H 0.19040 0.07030 0.62050
O18 O -0.1007(4) 0.0715(2) 0.63143(16)
H31 H -0.09120 0.09580 0.65800
H32 H -0.09490 0.09610 0.60740
O19 O 0.1456(3) -0.08192(19) 0.64422(16)
H33 H 0.18340 -0.08380 0.67410
H34 H 0.18910 -0.07330 0.62490
O20 O -0.1150(3) -0.0792(2) 0.63029(16)
H35 H -0.08430 -0.12530 0.63340
H36 H -0.16180 -0.07330 0.59760
O21 O 0.5721(3) 0.83477(17) 0.66499(15)
H37 H 0.59720 0.79460 0.67410
H38 H 0.60570 0.84930 0.64200
O22 O 0.6459(4) 0.97462(19) 0.68853(16)
H39 H 0.59860 1.00810 0.68370
H40 H 0.65610 0.95950 0.66150
O23 O 0.5968(4) 0.96256(19) 0.78879(14)
H41 H 0.52980 0.97220 0.79350
H42 H 0.63340 0.94320 0.81370
O24 O 0.5141(3) 0.81638(19) 0.76437(16)
H43 H 0.53870 0.81960 0.79580
H44 H 0.44390 0.81830 0.75840
O25 O 0.4154(3) 0.93504(19) 0.69971(15)
H45 H 0.36750 0.90960 0.71090
H46 H 0.40310 0.93330 0.66900
O26 O 0.7377(3) 0.8651(2) 0.76044(16)
H47 H 0.77910 0.86630 0.73810
H48 H 0.77430 0.88270 0.78750
O27 O 0.0566(3) 0.76243(18) 0.61176(15)
H49 H 0.05160 0.80550 0.60510
H50 H 0.07480 0.75780 0.64340
O28 O 0.1505(3) 0.62910(19) 0.61309(15)
H51 H 0.20880 0.61780 0.63500
H52 H 0.13610 0.59840 0.59190
O29 O 0.3138(3) 0.67278(17) 0.54989(14)
H53 H 0.28460 0.64310 0.52800
H54 H 0.34890 0.70210 0.53700
O30 O 0.1965(3) 0.80909(18) 0.53905(15)
H55 H 0.23610 0.83880 0.55800
H56 H 0.22750 0.80020 0.51530
O31 O 0.0600(4) 0.6859(2) 0.51835(17)
H57 H 0.06830 0.70820 0.49230
H58 H -0.00440 0.69290 0.52410
O32 O 0.3090(3) 0.7571(2) 0.63876(16)
H59 H 0.34480 0.72330 0.65450
H60 H 0.27610 0.77960 0.65900
O33 O 0.4827(3) 0.75400(18) 0.52946(14)
H61 H 0.49930 0.78780 0.54960
H62 H 0.45940 0.76570 0.49910
O34 O 0.1006(4) 0.1906(2) 0.68947(16)
H63 H 0.15280 0.19380 0.71550
H64 H 0.03500 0.18810 0.69750
O35 O 0.4340(4) 0.0595(2) 0.79287(16)
H65 H 0.43450 0.08120 0.76570
H66 H 0.45370 0.08620 0.81800
O36 O 0.8353(4) 0.6965(2) 0.56912(16)
H67 H 0.89710 0.71680 0.58250
H68 H 0.83880 0.65480 0.57940
O37 O 0.8673(4) 0.7921(2) 0.68958(17)
H69 H 0.83820 0.77050 0.71150
H70 H 0.94010 0.79290 0.69680
O38 O 0.2675(4) 0.1945(2) 0.77203(17)
H71 H 0.28040 0.17290 0.79980
H72 H 0.26800 0.23740 0.77920
O39 O 0.4467(4) 0.1274(2) 0.69835(17)
H73 H 0.51900 0.12580 0.70060
H74 H 0.41270 0.10420 0.67330
Co1B Co 1.26650(9) 1.28265(3) 0.90043(5)
Co2A Co 0.02384(10) 0.00597(4) 1.13991(5)
N2A N 0.0093(4) -0.0110(2) 0.56047(19)
O7B O 0.8158(3) 0.69299(17) 0.93683(16)
O13B O 0.6114(3) 0.75218(18) 0.86116(15)
#END
