
#######################################################################
#
#                 Cambridge Crystallographic Data Centre
#                                CCDC
#
#######################################################################
#
# If this CIF has been generated from an entry in the Cambridge
# Structural Database, then it will include bibliographic, chemical,
# crystal, experimental, refinement or atomic coordinate data resulting
# from the CCDC's data processing and validation procedures.
#
#######################################################################

data_CSD_CIF_OYOTIG
_audit_creation_date 2011-11-21
_audit_creation_method CSD-ConQuest-V1
_database_code_CSD OYOTIG
_database_code_depnum_ccdc_archive 'CCDC 807822'
_chemical_formula_sum 'C92 H138 Mn7 N4 O74'
_chemical_formula_moiety
;
(H12 Mn1 O6 2+)2n,n(C24 H28 Mn1 N4 O4 2+),n(C68 H50 Mn4 O40 6-),18n(H2 O1)
;
_journal_coden_Cambridge 1220
_journal_volume 17
_journal_year 2011
_journal_page_first 9936
_journal_name_full 'Chem.-Eur.J. '
loop_
_publ_author_name
"Xianying Duan"
"Qingjin Meng"
"Yang Su"
"Yizhi Li"
"Chunying Duan"
"Xiaoming Ren"
"Changsheng Lu"
_chemical_name_systematic
;
catena-[bis(Hexa-aqua-manganese(ii)) 
bis(1,2-bis(4-pyridyl)ethylene)-tetra-aqua-manganese(ii) 
bis(\m~4~-5,5'-methanediyldibenzene-1,3-dicarboxylato-O,O,O',O'',O''',O'''')-b
is(\m~2~-5-(3-carboxy-5-carboxylatobenzyl)benzene-1,3-dicarboxylato-O,O',O'',O
''')-octa-aqua-tetra-manganese(ii) octadecahydrate]
;
_cell_volume   6037.189
_exptl_crystal_colour 'colorless'
_exptl_crystal_density_diffrn 1.578
_exptl_crystal_description 'block'
_diffrn_ambient_temperature 291
#These two values have been output from a single CSD field.
_refine_ls_R_factor_gt 0.0522
_refine_ls_wR_factor_gt 0.0522
_symmetry_cell_setting monoclinic
_symmetry_space_group_name_H-M 'C 2'
_symmetry_Int_Tables_number 5
loop_
_symmetry_equiv_pos_site_id
_symmetry_equiv_pos_as_xyz
1 x,y,z
2 -x,y,-z
3 1/2+x,1/2+y,z
4 1/2-x,1/2+y,-z
_cell_length_a 29.316(5)
_cell_length_b 11.6564(19)
_cell_length_c 18.852(3)
_cell_angle_alpha 90
_cell_angle_beta 110.422(3)
_cell_angle_gamma 90
_cell_formula_units_Z 2
loop_
_atom_type_symbol
_atom_type_radius_bond
C 0.67
H 0.05
Mn 1.44
N 0.68
O 0.60
loop_
_atom_site_label
_atom_site_type_symbol
_atom_site_fract_x
_atom_site_fract_y
_atom_site_fract_z
C1 C 0.80048(15) 1.0938(4) 0.1603(3)
C2 C 0.84808(16) 1.1176(4) 0.2004(3)
H1 H 0.86610 1.07130 0.24060
C3 C 0.86981(15) 1.2165(3) 0.1787(2)
C4 C 0.84291(16) 1.2772(4) 0.1160(2)
H2 H 0.85760 1.33860 0.10090
C5 C 0.79583(14) 1.2526(3) 0.0747(2)
C6 C 0.77519(15) 1.1615(4) 0.0989(2)
H3 H 0.74260 1.14450 0.07260
C7 C 0.76861(18) 1.3267(4) 0.0077(2)
H4 H 0.75140 1.27690 -0.03440
H5 H 0.79220 1.37010 -0.00690
C8 C 0.73202(16) 1.4108(4) 0.0198(2)
C9 C 0.74792(15) 1.4907(4) 0.0756(2)
H6 H 0.78060 1.49000 0.10630
C10 C 0.71812(14) 1.5722(3) 0.0886(2)
C11 C 0.66748(15) 1.5721(4) 0.0421(2)
H7 H 0.64700 1.62880 0.04870
C12 C 0.64839(16) 1.4867(5) -0.0139(3)
C13 C 0.68221(17) 1.4034(4) -0.0243(3)
H8 H 0.67110 1.34530 -0.05990
C14 C 0.77620(17) 0.9960(4) 0.1851(3)
C15 C 0.92267(17) 1.2432(4) 0.2247(2)
C16 C 0.73430(14) 1.6551(3) 0.1484(2)
C17 C 0.59740(17) 1.4813(4) -0.0566(3)
C18 C 0.79396(17) 1.5633(4) 0.4284(3)
C19 C 0.76070(15) 1.4801(4) 0.4313(2)
H9 H 0.72910 1.48140 0.39640
C20 C 0.77462(15) 1.3950(3) 0.4863(2)
C21 C 0.82182(17) 1.3931(4) 0.5384(3)
H10 H 0.83110 1.33610 0.57530
C22 C 0.85509(14) 1.4763(3) 0.5356(2)
C23 C 0.84116(16) 1.5614(4) 0.4805(3)
H11 H 0.86340 1.61710 0.47860
C24 C 0.73771(17) 1.3103(4) 0.4954(2)
H12 H 0.75500 1.25320 0.53240
H13 H 0.71630 1.35120 0.51600
C25 C 0.70664(16) 1.2486(4) 0.4243(2)
C26 C 0.65969(16) 1.2853(4) 0.3858(2)
H14 H 0.64800 1.35040 0.40230
C27 C 0.62904(16) 1.2249(4) 0.3214(3)
C28 C 0.64581(16) 1.1265(4) 0.2982(2)
H15 H 0.62650 1.08740 0.25520
C29 C 0.69306(16) 1.0857(4) 0.3411(2)
C30 C 0.72163(15) 1.1468(3) 0.4010(2)
H16 H 0.75270 1.11950 0.42790
C31 C 0.77976(14) 1.6531(4) 0.3667(2)
C32 C 0.90453(16) 1.4775(4) 0.5956(2)
C33 C 0.70827(16) 0.9749(4) 0.3181(3)
C34 C 0.57732(15) 1.2656(4) 0.2792(3)
C35 C 0.40171(17) 0.8779(4) 0.3816(3)
H17 H 0.42220 0.93870 0.38160
C36 C 0.35285(16) 0.8807(4) 0.3290(3)
H18 H 0.34210 0.94180 0.29550
C37 C 0.32128(16) 0.7895(4) 0.3288(3)
C38 C 0.34236(18) 0.7018(5) 0.3811(3)
H19 H 0.32370 0.63810 0.38300
C39 C 0.38906(17) 0.7078(5) 0.4288(3)
H20 H 0.40080 0.64800 0.46290
C40 C 0.27259(16) 0.7821(4) 0.2811(3)
H21 H 0.25850 0.70970 0.27010
C41 C 0.24398(18) 0.8771(4) 0.2492(2)
H22 H 0.25840 0.94920 0.25630
C42 C 0.19238(17) 0.8675(4) 0.2052(3)
C43 C 0.17038(17) 0.7678(4) 0.1577(3)
H23 H 0.18900 0.70520 0.15370
C44 C 0.12034(17) 0.7718(5) 0.1189(3)
H24 H 0.10430 0.70750 0.09260
C45 C 0.11429(19) 0.9611(5) 0.1616(3)
H25 H 0.09560 1.02520 0.16260
C46 C 0.16379(18) 0.9550(5) 0.2036(3)
H26 H 0.17790 1.01840 0.23300
Mn1 Mn 0.75365(2) 0.81357(5) 0.25998(3)
Mn2 Mn 0.89757(2) 1.33860(5) 0.74437(4)
Mn3 Mn 0.50000 0.78916(8) 0.50000
Mn4 Mn 0.92808(2) 0.68713(6) 0.26286(4)
N1 N 0.41920(14) 0.7933(3) 0.4300(2)
N2 N 0.09517(16) 0.8672(4) 0.1191(3)
O1 O 0.73204(12) 0.9944(3) 0.1685(2)
O2 O 0.80262(12) 0.9197(3) 0.22749(19)
O3 O 0.94217(11) 1.3331(3) 0.20949(18)
O4 O 0.94344(12) 1.1859(4) 0.2824(2)
O5 O 0.56687(12) 1.5424(3) -0.0390(2)
H27 H 0.56990 1.51750 0.01100
O6 O 0.58127(14) 1.4266(4) -0.1163(2)
O7 O 0.70488(10) 1.7259(2) 0.15978(15)
O8 O 0.77824(11) 1.6591(3) 0.19017(18)
O9 O 0.73543(10) 1.6645(3) 0.32783(17)
O10 O 0.81103(10) 1.7214(2) 0.35893(16)
O11 O 0.93633(13) 1.5490(3) 0.5933(2)
O12 O 0.91339(11) 1.4036(3) 0.64856(17)
O13 O 0.75254(11) 0.9502(2) 0.33856(17)
O14 O 0.67577(11) 0.9046(3) 0.27523(16)
O15 O 0.56210(12) 1.3536(3) 0.3018(2)
O16 O 0.55450(12) 1.2049(3) 0.22516(19)
O17 O 0.94256(12) 1.4782(3) 0.81699(19)
H28 H 0.94860 1.44820 0.86040
H29 H 0.95310 1.54530 0.81420
O18 O 0.88876(11) 1.2713(3) 0.84506(18)
H30 H 0.91100 1.22250 0.86560
H31 H 0.86200 1.24070 0.83410
O19 O 0.96517(11) 1.2430(3) 0.77401(19)
H32 H 0.97950 1.25950 0.74320
H33 H 0.95940 1.17400 0.77220
O20 O 0.86013(11) 1.1866(3) 0.6817(2)
H34 H 0.83410 1.20760 0.64700
H35 H 0.85250 1.14210 0.71150
O21 O 0.50000 0.9782(5) 0.50000
H36 H 0.50450 1.00290 0.46050
O22 O 0.50000 0.6003(5) 0.50000
H37 H 0.47540 0.57560 0.46390
O23 O 0.51576(13) 0.7738(3) 0.39502(18)
H38 H 0.50260 0.71300 0.37190
H39 H 0.54640 0.76860 0.40570
O24 O 0.98619(12) 0.7925(3) 0.34207(18)
H40 H 0.99100 0.85140 0.31910
H41 H 1.01140 0.75520 0.35890
O25 O 0.95735(12) 0.7160(3) 0.17096(18)
H42 H 0.98830 0.71700 0.18910
H43 H 0.94720 0.77740 0.15010
O26 O 0.86638(12) 0.5875(3) 0.1919(2)
H44 H 0.87290 0.56140 0.15440
H45 H 0.84160 0.63100 0.17500
O27 O 0.90282(13) 0.6717(3) 0.3562(2)
H46 H 0.91020 0.73200 0.38320
H47 H 0.87320 0.66330 0.34000
O28 O 0.97305(11) 0.5380(3) 0.29228(19)
H48 H 0.95530 0.47860 0.27830
H49 H 0.98690 0.53520 0.34010
O29 O 0.89818(14) 0.7983(3) 0.2326(2)
H50 H 0.89930 0.81630 0.18950
H51 H 0.91090 0.85240 0.26330
O30 O 0.87484(18) 0.5943(5) 0.0520(3)
H52 H 0.86760 0.57140 0.00650
H53 H 0.88270 0.66480 0.05680
O31 O 0.96238(13) 0.4216(3) 0.0902(2)
H54 H 0.93840 0.46770 0.07810
H55 H 0.96630 0.39270 0.13330
O32 O 0.63612(15) 1.0012(4) 0.0845(2)
H56 H 0.66630 0.99900 0.11090
H57 H 0.62440 0.93370 0.07880
O33 O 0.59426(16) 0.5539(4) 0.3906(2)
H58 H 0.60900 0.59610 0.36870
H59 H 0.58440 0.49290 0.36510
O34 O 0.0512(3) 0.7275(9) 0.5015(4)
H60 H 0.06070 0.67930 0.47580
H61 H 0.03440 0.78460 0.47890
O35 O 0.44713(14) 0.4947(3) 0.3725(2)
H62 H 0.44240 0.54030 0.33550
H63 H 0.41950 0.47920 0.37560
O36 O 0.37246(15) 0.4228(4) 0.4348(3)
H64 H 0.35190 0.37240 0.41090
H65 H 0.39930 0.39280 0.46180
O37 O 0.00000 0.9117(4) 1.00000
H66 H 0.02550 0.88490 1.03340
O38 O 0.5467(2) 0.7370(6) 0.0099(4)
H67 H 0.51870 0.73530 0.01400
H68 H 0.54740 0.78920 -0.02120
O39 O 0.01893(12) 1.0167(3) 0.1848(2)
H69 H 0.03260 0.96970 0.22040
H70 H -0.01160 1.00480 0.16860
O40 O 0.00000 0.6291(7) 1.00000
H71 H -0.01040 0.58210 1.02530
H72? H 0.01200 0.59440 0.97090
H73? H 0.47390 1.00170 0.50100
H74? H 0.49820 0.57560 0.54140
H75? H -0.00320 0.87760 0.95870
C1* C 0.80048(15) 0.0938(4) 0.1603(3)
C2* C 0.84808(16) 0.1176(4) 0.2004(3)
H1* H 0.86610 0.07130 0.24060
C3* C 0.86981(15) 0.2165(3) 0.1787(2)
C4* C 0.84291(16) 0.2772(4) 0.1160(2)
H2* H 0.85760 0.33860 0.10090
C5* C 0.79583(14) 0.2526(3) 0.0747(2)
C6* C 0.77519(15) 0.1615(4) 0.0989(2)
H3* H 0.74260 0.14450 0.07260
C7* C 0.76861(18) 0.3267(4) 0.0077(2)
H4* H 0.75140 0.27690 -0.03440
H5* H 0.79220 0.37010 -0.00690
C8* C 0.73202(16) 0.4108(4) 0.0198(2)
C9* C 0.74792(15) 0.4907(4) 0.0756(2)
H6* H 0.78060 0.49000 0.10630
C10* C 0.71812(14) 0.5722(3) 0.0886(2)
C11* C 0.66748(15) 0.5721(4) 0.0421(2)
H7* H 0.64700 0.62880 0.04870
C12* C 0.64839(16) 0.4867(5) -0.0139(3)
C13* C 0.68221(17) 0.4034(4) -0.0243(3)
H8* H 0.67110 0.34530 -0.05990
C14* C 0.77620(17) -0.0040(4) 0.1851(3)
C15* C 0.92267(17) 0.2432(4) 0.2247(2)
C16* C 0.73430(14) 0.6551(3) 0.1484(2)
C17* C 0.59740(17) 0.4813(4) -0.0566(3)
C18* C 0.79396(17) 0.5633(4) 0.4284(3)
C19* C 0.76070(15) 0.4801(4) 0.4313(2)
H9* H 0.72910 0.48140 0.39640
C20* C 0.77462(15) 0.3950(3) 0.4863(2)
C21* C 0.82182(17) 0.3931(4) 0.5384(3)
H10* H 0.83110 0.33610 0.57530
C22* C 0.85509(14) 0.4763(3) 0.5356(2)
C23* C 0.84116(16) 0.5614(4) 0.4805(3)
H11* H 0.86340 0.61710 0.47860
C24* C 0.73771(17) 0.3103(4) 0.4954(2)
H12* H 0.75500 0.25320 0.53240
H13* H 0.71630 0.35120 0.51600
C25* C 0.70664(16) 0.2486(4) 0.4243(2)
C26* C 0.65969(16) 0.2853(4) 0.3858(2)
H14* H 0.64800 0.35040 0.40230
C27* C 0.62904(16) 0.2249(4) 0.3214(3)
C28* C 0.64581(16) 0.1265(4) 0.2982(2)
H15* H 0.62650 0.08740 0.25520
C29* C 0.69306(16) 0.0857(4) 0.3411(2)
C30* C 0.72163(15) 0.1468(3) 0.4010(2)
H16* H 0.75270 0.11950 0.42790
C31* C 0.77976(14) 0.6531(4) 0.3667(2)
C32* C 0.90453(16) 0.4775(4) 0.5956(2)
C33* C 0.70827(16) -0.0251(4) 0.3181(3)
C34* C 0.57732(15) 0.2656(4) 0.2792(3)
C35A C 0.59829(17) 0.8779(4) 0.6184(3)
H17A H 0.57780 0.93870 0.61840
C36A C 0.64715(16) 0.8807(4) 0.6710(3)
H18A H 0.65790 0.94180 0.70450
C37A C 0.67872(16) 0.7895(4) 0.6712(3)
C38A C 0.65764(18) 0.7018(5) 0.6189(3)
H19A H 0.67630 0.63810 0.61700
C39A C 0.61094(17) 0.7078(5) 0.5712(3)
H20A H 0.59920 0.64800 0.53710
C40A C 0.72741(16) 0.7821(4) 0.7189(3)
H21A H 0.74150 0.70970 0.72990
C41A C 0.75602(18) 0.8771(4) 0.7508(2)
H22A H 0.74160 0.94920 0.74370
C42A C 0.80762(17) 0.8675(4) 0.7948(3)
C43A C 0.82962(17) 0.7678(4) 0.8423(3)
H23A H 0.81100 0.70520 0.84630
C44A C 0.87966(17) 0.7718(5) 0.8811(3)
H24A H 0.89570 0.70750 0.90740
C45A C 0.88571(19) 0.9611(5) 0.8384(3)
H25A H 0.90440 1.02520 0.83740
C46A C 0.83621(18) 0.9550(5) 0.7964(3)
H26A H 0.82210 1.01840 0.76700
Mn1* Mn 0.75365(2) -0.18643(5) 0.25998(3)
Mn1** Mn 0.75365(2) 1.81357(5) 0.25998(3)
Mn2* Mn 0.89757(2) 0.33860(5) 0.74437(4)
Mn2C Mn 0.60243(2) 0.83860(5) 0.25563(4)
Mn2C* Mn 0.60243(2) -0.16140(5) 0.25563(4)
N1A N 0.58080(14) 0.7933(3) 0.5700(2)
N2A N 0.90483(16) 0.8672(4) 0.8809(3)
O1* O 0.73204(12) -0.0056(3) 0.1685(2)
O2* O 0.80262(12) -0.0803(3) 0.22749(19)
O3* O 0.94217(11) 0.3331(3) 0.20949(18)
O4* O 0.94344(12) 0.1859(4) 0.2824(2)
O5* O 0.56687(12) 0.5424(3) -0.0390(2)
H27* H 0.56990 0.51750 0.01100
O6* O 0.58127(14) 0.4266(4) -0.1163(2)
O7* O 0.70488(10) 0.7259(2) 0.15978(15)
O7** O 0.70488(10) -0.2741(2) 0.15978(15)
O8* O 0.77824(11) 0.6591(3) 0.19017(18)
O8** O 0.77824(11) -0.3409(3) 0.19017(18)
O9* O 0.73543(10) 0.6645(3) 0.32783(17)
O9** O 0.73543(10) -0.3355(3) 0.32783(17)
O10* O 0.81103(10) 0.7214(2) 0.35893(16)
O10** O 0.81103(10) -0.2786(2) 0.35893(16)
O11* O 0.93633(13) 0.5490(3) 0.5933(2)
O12* O 0.91339(11) 0.4036(3) 0.64856(17)
O13* O 0.75254(11) -0.0498(2) 0.33856(17)
O14* O 0.67577(11) -0.0954(3) 0.27523(16)
O14C O 0.82423(11) 1.4046(3) 0.72477(16)
O14C* O 0.82423(11) 0.4046(3) 0.72477(16)
O15* O 0.56210(12) 0.3536(3) 0.3018(2)
O16* O 0.55450(12) 0.2049(3) 0.22516(19)
O17* O 0.94256(12) 0.4782(3) 0.81699(19)
H28* H 0.94860 0.44820 0.86040
H29* H 0.95310 0.54530 0.81420
O18* O 0.88876(11) 0.2713(3) 0.84506(18)
H30* H 0.91100 0.22250 0.86560
H31* H 0.86200 0.24070 0.83410
O19* O 0.96517(11) 0.2430(3) 0.77401(19)
H32* H 0.97950 0.25950 0.74320
H33* H 0.95940 0.17400 0.77220
O20* O 0.86013(11) 0.1866(3) 0.6817(2)
H34* H 0.83410 0.20760 0.64700
H35* H 0.85250 0.14210 0.71150
H36A H 0.49550 1.00290 0.53950
H37A H 0.52460 0.57560 0.53610
O23A O 0.48424(13) 0.7738(3) 0.60498(18)
H38A H 0.49740 0.71300 0.62810
H39A H 0.45360 0.76860 0.59430
H66A H -0.02550 0.88490 0.96660
H71A H 0.01040 0.58210 0.97470
#END
