
#######################################################################
#
#                 Cambridge Crystallographic Data Centre
#                                CCDC
#
#######################################################################
#
# If this CIF has been generated from an entry in the Cambridge
# Structural Database, then it will include bibliographic, chemical,
# crystal, experimental, refinement or atomic coordinate data resulting
# from the CCDC's data processing and validation procedures.
#
#######################################################################

data_CSD_CIF_OYOTEC
_audit_creation_date 2011-11-21
_audit_creation_method CSD-ConQuest-V1
_database_code_CSD OYOTEC
_database_code_depnum_ccdc_archive 'CCDC 807821'
_chemical_formula_sum 'C92 H124 Mn7 N4 O67'
_chemical_formula_moiety
;
(H12 Mn1 O6 2+)2n,n(C24 H28 Mn1 N4 O4 2+),n(C68 H50 Mn4 O40 6-),11n(H2 O1)
;
_journal_coden_Cambridge 1220
_journal_volume 17
_journal_year 2011
_journal_page_first 9936
_journal_name_full 'Chem.-Eur.J. '
loop_
_publ_author_name
"Xianying Duan"
"Qingjin Meng"
"Yang Su"
"Yizhi Li"
"Chunying Duan"
"Xiaoming Ren"
"Changsheng Lu"
_chemical_name_systematic
;
catena-[bis(Hexa-aqua-manganese(ii)) 
bis(1,2-bis(4-pyridyl)ethylene)-tetra-aqua-manganese(ii) 
bis(\m~4~-5,5'-methanediyldibenzene-1,3-dicarboxylato-O,O,O',O'',O''',O'''')-b
is(\m~2~-5-(3-carboxy-5-carboxylatobenzyl)benzene-1,3-dicarboxylato-O,O',O'',O
''')-octa-aqua-tetra-manganese(ii) undecahydrate]
;
_cell_volume   6036.383
_exptl_crystal_density_diffrn 1.509
_diffrn_ambient_temperature 291
#These two values have been output from a single CSD field.
_refine_ls_R_factor_gt 0.0495
_refine_ls_wR_factor_gt 0.0495
_symmetry_cell_setting monoclinic
_symmetry_space_group_name_H-M 'C 2'
_symmetry_Int_Tables_number 5
loop_
_symmetry_equiv_pos_site_id
_symmetry_equiv_pos_as_xyz
1 x,y,z
2 -x,y,-z
3 1/2+x,1/2+y,z
4 1/2-x,1/2+y,-z
_cell_length_a 29.326(7)
_cell_length_b 11.641(3)
_cell_length_c 18.867(5)
_cell_angle_alpha 90
_cell_angle_beta 110.414(6)
_cell_angle_gamma 90
_cell_formula_units_Z 2
loop_
_atom_type_symbol
_atom_type_radius_bond
C 0.68
H 0.23
Mn 1.57
N 0.68
O 0.68
loop_
_atom_site_label
_atom_site_type_symbol
_atom_site_fract_x
_atom_site_fract_y
_atom_site_fract_z
C1 C 0.71653(15) 0.8143(4) 0.0869(2)
C2 C 0.66780(16) 0.8142(4) 0.0428(3)
H1 H 0.64700 0.75880 0.05020
C3 C 0.64986(15) 0.8980(4) -0.0133(2)
C4 C 0.68192(16) 0.9779(4) -0.0239(3)
H2 H 0.67020 1.03320 -0.06140
C5 C 0.73073(15) 0.9776(4) 0.0198(2)
C6 C 0.74712(15) 0.8954(4) 0.0751(3)
H3 H 0.77980 0.89460 0.10550
C7 C 0.76654(15) 1.0634(4) 0.0066(2)
H4 H 0.78910 1.02140 -0.01100
H5 H 0.74850 1.11550 -0.03340
C8 C 0.79521(15) 1.1330(4) 0.0740(2)
C9 C 0.77407(16) 1.2253(4) 0.0985(3)
H6 H 0.74180 1.24390 0.07190
C10 C 0.79983(16) 1.2892(4) 0.1607(2)
C11 C 0.84835(17) 1.2618(4) 0.2009(3)
H7 H 0.86610 1.30610 0.24240
C12 C 0.87008(16) 1.1699(4) 0.1797(2)
C13 C 0.84338(14) 1.1052(4) 0.1165(2)
H8 H 0.85790 1.04250 0.10250
C14 C 0.73489(15) 0.7276(4) 0.1495(3)
C15 C 0.59596(15) 0.9013(4) -0.0586(2)
C16 C 0.77629(16) 1.3861(4) 0.1862(2)
C17 C 0.92186(16) 1.1394(4) 0.2271(3)
C18 C 0.69278(16) 1.2989(4) 0.3405(2)
C19 C 0.64622(16) 1.2561(4) 0.2994(3)
H9 H 0.62650 1.29490 0.25650
C20 C 0.62963(16) 1.1577(4) 0.3221(3)
C21 C 0.65943(15) 1.0974(4) 0.3837(2)
H10 H 0.64810 1.02990 0.39810
C22 C 0.70697(15) 1.1362(4) 0.4256(2)
C23 C 0.72228(16) 1.2387(4) 0.4017(3)
H11 H 0.75330 1.26660 0.42820
C24 C 0.73777(15) 1.0744(4) 0.4955(2)
H12 H 0.71640 1.03330 0.51600
H13 H 0.75510 1.13130 0.53260
C25 C 0.77447(15) 0.9901(4) 0.4859(2)
C26 C 0.76093(16) 0.9052(4) 0.4305(3)
H14 H 0.72940 0.90350 0.39550
C27 C 0.79495(17) 0.8223(4) 0.4276(3)
C28 C 0.84144(16) 0.8220(4) 0.4802(3)
H15 H 0.86350 0.76570 0.47850
C29 C 0.85527(16) 0.9063(4) 0.5359(2)
C30 C 0.82113(16) 0.9897(4) 0.5369(3)
H16 H 0.83040 1.04700 0.57360
C31 C 0.70848(15) 1.4109(4) 0.3178(2)
C32 C 0.57802(15) 1.1176(4) 0.2793(3)
C33 C 0.77943(15) 0.7302(4) 0.3672(2)
C34 C 0.90509(15) 0.9074(4) 0.5957(2)
C35 C -0.11023(16) 0.1762(4) 0.4312(3)
H17 H -0.09840 0.23420 0.46680
C36 C -0.15786(16) 0.1845(5) 0.3807(3)
H18 H -0.17650 0.24900 0.38100
C37 C -0.17737(15) 0.0959(4) 0.3298(2)
C38 C -0.14618(16) 0.0061(4) 0.3313(2)
H19 H -0.15730 -0.05500 0.29800
C39 C -0.10029(16) 0.0054(4) 0.3799(2)
H20 H -0.08050 -0.05650 0.37850
C40 C -0.22789(15) 0.1037(4) 0.2804(2)
H21 H -0.24160 0.17650 0.26950
C41 C -0.25610(16) 0.0138(4) 0.2493(2)
H22 H -0.24170 -0.05850 0.25760
C42 C -0.30689(17) 0.0199(4) 0.2042(3)
C43 C -0.32913(17) 0.1137(5) 0.1600(3)
H23 H -0.31120 0.17870 0.15800
C44 C -0.37932(18) 0.1084(5) 0.1183(3)
H24 H -0.39460 0.17120 0.08930
C45 C -0.38485(18) -0.0729(4) 0.1598(3)
H25 H -0.40390 -0.13700 0.15910
C46 C -0.33693(16) -0.0750(4) 0.2025(3)
H26 H -0.32370 -0.13980 0.23110
Mn1 Mn 0.75364(2) 0.57025(8) 0.25984(4)
Mn2 Mn 0.60252(2) 1.54568(8) 0.25572(3)
Mn3 Mn 0.00000 0.09611(10) 0.50000
Mn4 Mn 0.92819(2) 0.69741(8) 0.26303(3)
N1 N -0.08101(13) 0.0899(3) 0.43098(19)
N2 N -0.40491(13) 0.0166(3) 0.1195(2)
O1 O 0.77850(11) 0.7244(3) 0.19086(16)
O2 O 0.70466(10) 0.6582(2) 0.16070(15)
O3 O 0.56735(11) 0.8457(3) -0.03630(19)
O4 O 0.58127(11) 0.9589(3) -0.11745(16)
O5 O 0.73233(11) 1.3913(3) 0.16793(17)
O6 O 0.80460(12) 1.4633(3) 0.22962(17)
O7 O 0.94114(10) 1.0523(3) 0.20945(17)
O8 O 0.94335(10) 1.1999(3) 0.28256(18)
H27 H 0.95250 1.15460 0.32790
O9 O 0.75233(10) 1.4345(3) 0.33822(16)
O10 O 0.67576(10) 1.4792(3) 0.27485(15)
O11 O 0.55365(11) 1.1798(3) 0.22415(16)
O12 O 0.5626(1) 1.0310(3) 0.30078(16)
O13 O 0.73583(10) 0.7200(3) 0.32769(15)
O14 O 0.81120(9) 0.6626(2) 0.35858(15)
O15 O 0.93632(11) 0.8389(3) 0.5898(2)
O16 O 0.91309(10) 0.9806(3) 0.64929(16)
O17 O 0.64056(10) 1.6934(3) 0.31916(15)
H28 H 0.61750 1.74190 0.30710
H29 H 0.66480 1.73870 0.33220
O18 O 0.61164(10) 1.6210(2) 0.15613(15)
H30 H 0.59140 1.59070 0.11660
H31 H 0.63950 1.60930 0.15740
O19 O 0.55754(11) 1.4105(3) 0.18186(19)
H32 H 0.54810 1.43600 0.13680
H33 H 0.53230 1.40240 0.19360
O20 O 0.53577(10) 1.6441(3) 0.22697(17)
H34 H 0.51600 1.60990 0.24380
H35 H 0.54180 1.70830 0.24580
O21 O 0.88767(11) 0.5411(3) 0.22405(16)
H36 H 0.87710 0.53440 0.26040
H37 H 0.89710 0.47200 0.22430
O22 O 0.86715(11) 0.7964(3) 0.19117(18)
H38 H 0.84450 0.75150 0.16580
H39 H 0.87600 0.83600 0.16240
O23 O 0.95741(11) 0.6674(3) 0.17170(17)
H40 H 0.98830 0.67120 0.18930
H41 H 0.94890 0.60380 0.15310
O24 O 0.97269(12) 0.8479(3) 0.29432(19)
H42 H 1.00250 0.82840 0.31080
H43 H 0.96730 0.89010 0.25750
O25 O 0.9858(1) 0.5896(3) 0.34247(18)
H44 H 0.97760 0.60070 0.38090
H45 H 1.01600 0.60290 0.36390
O26 O 0.90111(10) 0.7134(3) 0.35510(16)
H46 H 0.87780 0.66650 0.34900
H47 H 0.92320 0.69970 0.39510
O27 O -0.01583(10) 0.1107(3) 0.60534(16)
H48 H -0.01290 0.04150 0.62070
H49 H -0.03770 0.13590 0.62130
O28 O 0.00000 0.2820(4) 0.50000
H50 H 0.00690 0.29190 0.46020
O29 O 0.00000 -0.0934(4) 0.50000
H51 H 0.02380 -0.11810 0.48860
O30 O 0.54874(19) 0.6399(5) 1.0113(3)
H52 H 0.55400 0.70480 0.99510
H53 H 0.55350 0.58660 0.98400
O31 O 0.9459(2) 0.3897(6) 0.3732(4)
H54 H 0.94470 0.33780 0.40420
H55 H 0.96260 0.36630 0.34730
O32 O 0.53837(12) 0.4587(3) 0.91020(18)
H56 H 0.56560 0.44480 0.90530
H57 H 0.52860 0.39920 0.92680
O33 O 0.50000 0.9702(4) 1.00000
H58 H 0.47300 0.98080 0.96430
H59? H 0.51270 1.03500 1.01610
O34 O 0.5560(2) 0.8495(6) 0.2881(4)
H60 H 0.55410 0.90570 0.25850
H61 H 0.54640 0.86470 0.32480
O35 O 0.8719(2) 0.4605(5) 0.4366(3)
H62 H 0.89320 0.44130 0.41760
H63 H 0.85610 0.51800 0.41260
O36 O 0.8732(2) 0.7860(6) 0.0505(3)
H64 H 0.86690 0.82780 0.01130
H65 H 0.90330 0.76960 0.06370
O37 O 0.05283(13) 0.6506(3) 0.49615(19)
H66 H 0.05470 0.70580 0.46780
H67 H 0.06680 0.59210 0.48600
O38 O 0.50000 0.2583(5) 1.00000
H68 H 0.47700 0.22070 0.96840
H69? H 0.52330 0.21310 1.02230
H70? H -0.02880 0.30850 0.48340
H71? H -0.00220 -0.11690 0.45790
C1* C 0.71653(15) -0.1857(4) 0.0869(2)
C2* C 0.66780(16) -0.1858(4) 0.0428(3)
H1* H 0.64700 -0.24120 0.05020
C3* C 0.64986(15) -0.1020(4) -0.0133(2)
C4* C 0.68192(16) -0.0221(4) -0.0239(3)
H2* H 0.67020 0.03320 -0.06140
C5* C 0.73073(15) -0.0224(4) 0.0198(2)
C6* C 0.74712(15) -0.1046(4) 0.0751(3)
H3* H 0.77980 -0.10540 0.10550
C7* C 0.76654(15) 0.0634(4) 0.0066(2)
H4* H 0.78910 0.02140 -0.01100
H5* H 0.74850 0.11550 -0.03340
C8* C 0.79521(15) 0.1330(4) 0.0740(2)
C9* C 0.77407(16) 0.2253(4) 0.0985(3)
H6* H 0.74180 0.24390 0.07190
C10* C 0.79983(16) 0.2892(4) 0.1607(2)
C11* C 0.84835(17) 0.2618(4) 0.2009(3)
H7* H 0.86610 0.30610 0.24240
C12* C 0.87008(16) 0.1699(4) 0.1797(2)
C13* C 0.84338(14) 0.1052(4) 0.1165(2)
H8* H 0.85790 0.04250 0.10250
C14* C 0.73489(15) -0.2724(4) 0.1495(3)
C15* C 0.59596(15) -0.0987(4) -0.0586(2)
C16* C 0.77629(16) 0.3861(4) 0.1862(2)
C17* C 0.92186(16) 0.1394(4) 0.2271(3)
C18* C 0.69278(16) 0.2989(4) 0.3405(2)
C19* C 0.64622(16) 0.2561(4) 0.2994(3)
H9* H 0.62650 0.29490 0.25650
C20* C 0.62963(16) 0.1577(4) 0.3221(3)
C21* C 0.65943(15) 0.0974(4) 0.3837(2)
H10* H 0.64810 0.02990 0.39810
C22* C 0.70697(15) 0.1362(4) 0.4256(2)
C23* C 0.72228(16) 0.2387(4) 0.4017(3)
H11* H 0.75330 0.26660 0.42820
C24* C 0.73777(15) 0.0744(4) 0.4955(2)
H12* H 0.71640 0.03330 0.51600
H13* H 0.75510 0.13130 0.53260
C25* C 0.77447(15) -0.0099(4) 0.4859(2)
C26* C 0.76093(16) -0.0948(4) 0.4305(3)
H14* H 0.72940 -0.09650 0.39550
C27* C 0.79495(17) -0.1777(4) 0.4276(3)
C28* C 0.84144(16) -0.1780(4) 0.4802(3)
H15* H 0.86350 -0.23430 0.47850
C29* C 0.85527(16) -0.0937(4) 0.5359(2)
C30* C 0.82113(16) -0.0103(4) 0.5369(3)
H16* H 0.83040 0.04700 0.57360
C31* C 0.70848(15) 0.4109(4) 0.3178(2)
C32* C 0.57802(15) 0.1176(4) 0.2793(3)
C33* C 0.77943(15) -0.2698(4) 0.3672(2)
C34* C 0.90509(15) -0.0926(4) 0.5957(2)
C35A C 0.11023(16) 0.1762(4) 0.5688(3)
H17A H 0.09840 0.23420 0.53320
C36A C 0.15786(16) 0.1845(5) 0.6193(3)
H18A H 0.17650 0.24900 0.61900
C37A C 0.17737(15) 0.0959(4) 0.6702(2)
C38A C 0.14618(16) 0.0061(4) 0.6687(2)
H19A H 0.15730 -0.05500 0.70200
C39A C 0.10029(16) 0.0054(4) 0.6201(2)
H20A H 0.08050 -0.05650 0.62150
C40A C 0.22789(15) 0.1037(4) 0.7196(2)
H21A H 0.24160 0.17650 0.73050
C41A C 0.25610(16) 0.0138(4) 0.7507(2)
H22A H 0.24170 -0.05850 0.74240
C42A C 0.30689(17) 0.0199(4) 0.7958(3)
C43A C 0.32913(17) 0.1137(5) 0.8400(3)
H23A H 0.31120 0.17870 0.84200
C44A C 0.37932(18) 0.1084(5) 0.8817(3)
H24A H 0.39460 0.17120 0.91070
C45A C 0.38485(18) -0.0729(4) 0.8402(3)
H25A H 0.40390 -0.13700 0.84090
C46A C 0.33693(16) -0.0750(4) 0.7975(3)
H26A H 0.32370 -0.13980 0.76890
Mn1* Mn 0.75364(2) -0.42975(8) 0.25984(4)
Mn1** Mn 0.75364(2) 1.57025(8) 0.25984(4)
Mn2* Mn 0.60252(2) 0.54568(8) 0.25572(3)
Mn2C Mn 0.89748(2) 1.04568(8) 0.74428(3)
Mn2C* Mn 0.89748(2) 0.04568(8) 0.74428(3)
N1A N 0.08101(13) 0.0899(3) 0.56902(19)
N2A N 0.40491(13) 0.0166(3) 0.8805(2)
O1* O 0.77850(11) -0.2756(3) 0.19086(16)
O2* O 0.70466(10) -0.3418(2) 0.16070(15)
O3* O 0.56735(11) -0.1543(3) -0.03630(19)
O4* O 0.58127(11) -0.0411(3) -0.11745(16)
O5* O 0.73233(11) 0.3913(3) 0.16793(17)
O5** O 0.73233(11) -0.6087(3) 0.16793(17)
O6* O 0.80460(12) 0.4633(3) 0.22962(17)
O6** O 0.80460(12) -0.5367(3) 0.22962(17)
O7* O 0.94114(10) 0.0523(3) 0.20945(17)
O8* O 0.94335(10) 0.1999(3) 0.28256(18)
H27* H 0.95250 0.15460 0.32790
O9* O 0.75233(10) 0.4345(3) 0.33822(16)
O9** O 0.75233(10) -0.5655(3) 0.33822(16)
O10* O 0.67576(10) 0.4792(3) 0.27485(15)
O10** O 0.67576(10) -0.5208(3) 0.27485(15)
O11* O 0.55365(11) 0.1798(3) 0.22415(16)
O12* O 0.5626(1) 0.0310(3) 0.30078(16)
O13* O 0.73583(10) -0.2800(3) 0.32769(15)
O14* O 0.81120(9) -0.3374(2) 0.35858(15)
O15* O 0.93632(11) -0.1611(3) 0.5898(2)
O16* O 0.91309(10) -0.0194(3) 0.64929(16)
O16C O 0.58691(10) 1.4806(3) 0.35071(16)
O16C* O 0.58691(10) 0.4806(3) 0.35071(16)
O17* O 0.64056(10) 0.6934(3) 0.31916(15)
H28* H 0.61750 0.74190 0.30710
H29* H 0.66480 0.73870 0.33220
O18* O 0.61164(10) 0.6210(2) 0.15613(15)
H30* H 0.59140 0.59070 0.11660
H31* H 0.63950 0.60930 0.15740
O19* O 0.55754(11) 0.4105(3) 0.18186(19)
H32* H 0.54810 0.43600 0.13680
H33* H 0.53230 0.40240 0.19360
O20* O 0.53577(10) 0.6441(3) 0.22697(17)
H34* H 0.51600 0.60990 0.24380
H35* H 0.54180 0.70830 0.24580
O27A O 0.01583(10) 0.1107(3) 0.39466(16)
H48A H 0.01290 0.04150 0.37930
H49A H 0.03770 0.13590 0.37870
H50A H -0.00690 0.29190 0.53980
H51A H -0.02380 -0.11810 0.51140
H58A H 0.52700 0.98080 1.03570
H68A H 0.52300 0.22070 1.03160
#END
