
#######################################################################
#
#                 Cambridge Crystallographic Data Centre
#                                CCDC
#
#######################################################################
#
# If this CIF has been generated from an entry in the Cambridge
# Structural Database, then it will include bibliographic, chemical,
# crystal, experimental, refinement or atomic coordinate data resulting
# from the CCDC's data processing and validation procedures.
#
#######################################################################

data_CSD_CIF_OYOTUS
_audit_creation_date 2011-11-21
_audit_creation_method CSD-ConQuest-V1
_database_code_CSD OYOTUS
_database_code_depnum_ccdc_archive 'CCDC 807824'
_chemical_formula_sum 'C92 H138 Mn7 N4 O72'
_chemical_formula_moiety
;
(H12 Mn1 O6 2+)2n,n(C24 H32 Mn1 N4 O4 2+),n(C68 H50 Mn4 O40 6-),16n(H2 O1)
;
_journal_coden_Cambridge 1220
_journal_volume 17
_journal_year 2011
_journal_page_first 9936
_journal_name_full 'Chem.-Eur.J. '
loop_
_publ_author_name
"Xianying Duan"
"Qingjin Meng"
"Yang Su"
"Yizhi Li"
"Chunying Duan"
"Xiaoming Ren"
"Changsheng Lu"
_chemical_name_systematic
;
catena-[bis(Hexa-aqua-manganese(ii)) 
bis(1,2-bis(4-pyridyl)ethane)-tetra-aqua-manganese(ii) 
bis(\m~4~-5,5'-methanediyldibenzene-1,3-dicarboxylato-O,O',O'',O''',O'''')-bis
(\m~2~-5-(3-carboxy-5-carboxylatobenzyl)benzene-1,3-dicarboxylato-O,O',O'')-oc
ta-aqua-tetra-manganese(ii) hexadecahydrate]
;
_cell_volume   6091.786
_exptl_crystal_density_diffrn 1.546
_diffrn_ambient_temperature 291
#These two values have been output from a single CSD field.
_refine_ls_R_factor_gt 0.0554
_refine_ls_wR_factor_gt 0.0554
_symmetry_cell_setting monoclinic
_symmetry_space_group_name_H-M 'C 2'
_symmetry_Int_Tables_number 5
loop_
_symmetry_equiv_pos_site_id
_symmetry_equiv_pos_as_xyz
1 x,y,z
2 -x,y,-z
3 1/2+x,1/2+y,z
4 1/2-x,1/2+y,-z
_cell_length_a 29.4892(16)
_cell_length_b 11.5511(14)
_cell_length_c 19.1927(17)
_cell_angle_alpha 90
_cell_angle_beta 111.283(2)
_cell_angle_gamma 90
_cell_formula_units_Z 2
loop_
_atom_type_symbol
_atom_type_radius_bond
C 0.68
H 0.23
Mn 1.61
N 0.68
O 0.68
loop_
_atom_site_label
_atom_site_type_symbol
_atom_site_fract_x
_atom_site_fract_y
_atom_site_fract_z
C1 C 0.20284(17) 0.1803(4) 0.3397(3)
C2 C 0.22840(16) 0.1182(5) 0.4040(3)
H1 H 0.26030 0.13880 0.43210
C3 C 0.20682(17) 0.0241(4) 0.4275(3)
C4 C 0.15932(17) -0.0035(4) 0.3849(2)
H2 H 0.14450 -0.06480 0.39970
C5 C 0.13276(16) 0.0579(5) 0.3200(3)
C6 C 0.15506(18) 0.1485(5) 0.2993(3)
H3 H 0.13750 0.19030 0.25660
C7 C 0.23576(18) -0.0453(5) 0.4950(2)
H4 H 0.21330 -0.08510 0.51320
H5 H 0.25470 0.00770 0.53390
C8 C 0.27050(17) -0.1353(4) 0.4829(2)
C9 C 0.32014(18) -0.1359(5) 0.5299(3)
H6 H 0.33170 -0.08180 0.56810
C10 C 0.35201(17) -0.2180(5) 0.5189(3)
C11 C 0.33462(16) -0.2951(5) 0.4618(3)
H7 H 0.35570 -0.34930 0.45440
C12 C 0.28624(16) -0.2949(4) 0.4145(2)
C13 C 0.25442(16) -0.2164(4) 0.4275(2)
H8 H 0.22150 -0.21910 0.39780
C14 C 0.22742(18) 0.2776(5) 0.3172(3)
C15 C 0.08074(18) 0.0254(5) 0.2747(3)
C16 C 0.40525(19) -0.2158(5) 0.5662(3)
C17 C 0.26829(16) -0.3802(4) 0.3525(2)
C18 C 0.20606(18) 0.7162(5) 0.0737(3)
C19 C 0.15875(15) 0.7188(4) 0.0218(2)
H9 H 0.13580 0.66610 0.02530
C20 C 0.14581(18) 0.8009(5) -0.0356(2)
C21 C 0.18028(16) 0.8841(4) -0.0369(2)
H10 H 0.17110 0.94150 -0.07340
C22 C 0.22772(16) 0.8830(4) 0.0150(2)
C23 C 0.24066(17) 0.7994(4) 0.0687(3)
H11 H 0.27250 0.79630 0.10270
C24 C 0.26361(17) 0.9650(5) 0.0035(2)
H12 H 0.24580 1.02060 -0.03450
H13 H 0.28450 0.92150 -0.01610
C25 C 0.29615(16) 1.0323(4) 0.0729(2)
C26 C 0.28020(19) 1.1337(4) 0.0963(3)
H14 H 0.24960 1.16310 0.06860
C27 C 0.30914(16) 1.1909(4) 0.1598(3)
C28 C 0.35451(16) 1.1492(4) 0.2003(2)
H15 H 0.37400 1.18750 0.24340
C29 C 0.37136(17) 1.0502(5) 0.1774(3)
C30 C 0.34291(16) 0.9900(5) 0.1140(3)
H16 H 0.35450 0.92330 0.09900
C31 C 0.22149(17) 0.6245(4) 0.1337(2)
C32 C 0.09617(18) 0.8004(5) -0.0946(3)
C33 C 0.29291(16) 1.3040(4) 0.1820(3)
C34 C 0.42353(15) 1.0116(5) 0.2189(3)
C35 C 0.4013(2) 0.4021(6) 0.8826(3)
H17 H 0.42110 0.34220 0.87820
C36 C 0.35202(19) 0.4019(5) 0.8340(3)
H18 H 0.34020 0.34270 0.79930
C37 C 0.32184(16) 0.4889(5) 0.8383(2)
C38 C 0.34194(17) 0.5724(5) 0.8904(3)
H19 H 0.32320 0.63480 0.89460
C39 C 0.38972(18) 0.5644(5) 0.9366(3)
H20 H 0.40180 0.62110 0.97310
C40 C 0.26824(19) 0.4969(5) 0.7927(3)
H21 H 0.26120 0.57290 0.76980
H22 H 0.25010 0.48890 0.82570
C41 C 0.25115(18) 0.4056(5) 0.7322(3)
H23 H 0.26110 0.32930 0.75330
H24 H 0.26510 0.41950 0.69430
C42 C 0.19381(18) 0.4134(5) 0.6968(3)
C43 C 0.16882(18) 0.3250(5) 0.7122(3)
H25 H 0.18540 0.27110 0.74860
C44 C 0.1204(2) 0.3136(5) 0.6761(3)
H26 H 0.10450 0.24940 0.68570
C45 C 0.16815(18) 0.4951(5) 0.6474(3)
H27 H 0.18380 0.55800 0.63580
C46 C 0.11860(16) 0.4828(5) 0.6150(2)
H28 H 0.10100 0.54100 0.58310
Mn1 Mn 0.24850(2) 0.46373(10) 0.24120(3)
Mn2 Mn 0.10162(2) 0.93743(11) -0.24273(4)
Mn3 Mn 0.50000 0.48706(14) 1.00000
Mn4 Mn 0.57411(3) 0.08703(11) 0.23363(4)
N1 N 0.42063(14) 0.4806(4) 0.9330(2)
N2 N 0.09460(15) 0.3936(4) 0.6263(2)
O1 O 0.19993(13) 0.3520(3) 0.27119(19)
O2 O 0.27230(13) 0.2820(3) 0.33878(19)
O3 O 0.05877(12) 0.0892(4) 0.21917(18)
O4 O 0.06201(13) -0.0583(4) 0.29144(18)
O5 O 0.41883(13) -0.1620(4) 0.6286(2)
H29 H 0.39210 -0.15700 0.64570
O6 O 0.43466(13) -0.2688(4) 0.5460(2)
O7 O 0.22384(11) -0.3861(3) 0.31155(19)
O8 O 0.29790(12) -0.4485(3) 0.33938(18)
O9 O 0.18989(11) 0.5596(3) 0.14315(17)
O10 O 0.26514(11) 0.6116(3) 0.17138(17)
O11 O 0.06417(11) 0.7348(3) -0.08958(18)
O12 O 0.08725(13) 0.8765(4) -0.1466(2)
O13 O 0.24885(11) 1.3254(3) 0.16295(17)
O14 O 0.32530(12) 1.3734(3) 0.22460(19)
O15 O 0.43857(11) 0.9222(3) 0.19738(18)
O16 O 0.44902(12) 1.0732(4) 0.2735(2)
O17 O 0.05527(13) 0.8016(3) -0.31464(19)
H30 H 0.04180 0.75460 -0.28570
H31 H 0.02940 0.83720 -0.35490
O18 O 0.03485(11) 1.0374(3) -0.27212(18)
H32 H 0.04190 1.10760 -0.25980
H33 H 0.01820 1.01150 -0.24750
O19 O 0.10852(13) 1.0049(4) -0.3463(2)
H34 H 0.13220 1.05210 -0.33540
H35 H 0.08250 1.03800 -0.37400
O20 O 0.14022(11) 1.0898(4) -0.18155(17)
H36 H 0.14030 1.08860 -0.13150
H37 H 0.17310 1.08920 -0.18000
O21 O 0.50000 0.6744(5) 1.00000
H38 H 0.49390 0.70210 1.04300
O22 O 0.51499(13) 0.5004(4) 0.89505(19)
H39 H 0.49060 0.53140 0.86150
H40 H 0.51910 0.43330 0.88020
O23 O 0.50000 0.2941(5) 1.00000
H41 H 0.49160 0.26920 1.03520
O24 O 0.63444(12) 0.1922(3) 0.30502(18)
H42 H 0.66100 0.14280 0.33300
H43 H 0.62400 0.23630 0.33890
O25 O 0.54670(12) 0.0539(3) 0.32439(18)
H44 H 0.54970 -0.01740 0.33600
H45 H 0.51790 0.07260 0.30990
O26 O 0.61419(12) -0.0692(3) 0.27295(18)
H46 H 0.64440 -0.05370 0.29180
H47 H 0.60960 -0.11550 0.23660
O27 O 0.59849(12) 0.1031(3) 0.14061(19)
H48 H 0.62920 0.10500 0.15280
H49 H 0.58480 0.04270 0.11710
O28 O 0.51593(11) -0.0199(3) 0.15618(17)
H50 H 0.49000 -0.00990 0.16520
H51 H 0.52390 -0.09080 0.16400
O29 O 0.52687(12) 0.2385(3) 0.20590(19)
H52 H 0.54360 0.29930 0.20800
H53 H 0.50600 0.22850 0.16210
O30 O 0.0924(3) 0.2258(7) 0.8913(4)
H54 H 0.06480 0.21500 0.89510
H55 H 0.08920 0.22920 0.84550
O31 O 0.01512(13) 0.2667(4) 0.6912(2)
H56 H 0.02960 0.31610 0.72470
H57 H -0.01390 0.25820 0.68940
O32 O 0.01267(11) 0.3223(3) 0.56560(17)
H58 H -0.01450 0.34090 0.56850
H59 H 0.03590 0.36050 0.59660
O33 O 0.0440(3) 0.0859(9) 0.5277(4)
H60 H 0.01970 0.04050 0.51140
H61 H 0.05700 0.09320 0.49510
O34 O 0.4472(2) 0.0555(7) 0.0055(4)
H62 H 0.47440 0.08570 0.00990
H63 H 0.45140 0.01750 0.04530
O35 O 0.62434(14) 0.1825(4) 0.44204(19)
H64 H 0.63480 0.23940 0.47160
H65 H 0.59390 0.16990 0.42600
O36 O 0.1304(3) 0.7860(7) 0.5764(4)
H66 H 0.11420 0.74940 0.59800
H67 H 0.12060 0.85570 0.56890
O37 O 0.36992(13) 0.8465(3) 0.9326(2)
H68 H 0.38760 0.90370 0.95400
H69 H 0.34290 0.86830 0.90050
O38 O 0.44451(12) 0.7778(3) 0.87132(19)
H70 H 0.44270 0.72210 0.84150
H71 H 0.41650 0.79590 0.87080
O39 O 0.9584(2) 0.8620(7) 0.5900(4)
H72 H 0.95510 0.91260 0.55630
H73 H 0.94970 0.89060 0.62400
O40 O -0.0017(2) 0.5207(7) 0.5652(4)
H74 H -0.01890 0.54660 0.52230
H75 H 0.02530 0.55620 0.57960
H76? H 0.47150 0.26920 0.99290
C1* C 0.20284(17) 1.1803(4) 0.3397(3)
C2* C 0.22840(16) 1.1182(5) 0.4040(3)
H1* H 0.26030 1.13880 0.43210
C3* C 0.20682(17) 1.0241(4) 0.4275(3)
C4* C 0.15932(17) 0.9965(4) 0.3849(2)
H2* H 0.14450 0.93520 0.39970
C5* C 0.13276(16) 1.0579(5) 0.3200(3)
C6* C 0.15506(18) 1.1485(5) 0.2993(3)
H3* H 0.13750 1.19030 0.25660
C7* C 0.23576(18) 0.9547(5) 0.4950(2)
H4* H 0.21330 0.91490 0.51320
H5* H 0.25470 1.00770 0.53390
C8* C 0.27050(17) 0.8647(4) 0.4829(2)
C9* C 0.32014(18) 0.8641(5) 0.5299(3)
H6* H 0.33170 0.91820 0.56810
C10* C 0.35201(17) 0.7820(5) 0.5189(3)
C11* C 0.33462(16) 0.7049(5) 0.4618(3)
H7* H 0.35570 0.65070 0.45440
C12* C 0.28624(16) 0.7051(4) 0.4145(2)
C13* C 0.25442(16) 0.7836(4) 0.4275(2)
H8* H 0.22150 0.78090 0.39780
C14* C 0.22742(18) 1.2776(5) 0.3172(3)
C15* C 0.08074(18) 1.0254(5) 0.2747(3)
C16* C 0.40525(19) 0.7842(5) 0.5662(3)
C17* C 0.26829(16) 0.6198(4) 0.3525(2)
C18* C 0.20606(18) -0.2838(5) 0.0737(3)
C19* C 0.15875(15) -0.2812(4) 0.0218(2)
H9* H 0.13580 -0.33390 0.02530
C20* C 0.14581(18) -0.1991(5) -0.0356(2)
C21* C 0.18028(16) -0.1159(4) -0.0369(2)
H10* H 0.17110 -0.05850 -0.07340
C22* C 0.22772(16) -0.1170(4) 0.0150(2)
C23* C 0.24066(17) -0.2006(4) 0.0687(3)
H11* H 0.27250 -0.20370 0.10270
C24* C 0.26361(17) -0.0350(5) 0.0035(2)
H12* H 0.24580 0.02060 -0.03450
H13* H 0.28450 -0.07850 -0.01610
C25* C 0.29615(16) 0.0323(4) 0.0729(2)
C26* C 0.28020(19) 0.1337(4) 0.0963(3)
H14* H 0.24960 0.16310 0.06860
C27* C 0.30914(16) 0.1909(4) 0.1598(3)
C28* C 0.35451(16) 0.1492(4) 0.2003(2)
H15* H 0.37400 0.18750 0.24340
C29* C 0.37136(17) 0.0502(5) 0.1774(3)
C30* C 0.34291(16) -0.0100(5) 0.1140(3)
H16* H 0.35450 -0.07670 0.09900
C31* C 0.22149(17) -0.3755(4) 0.1337(2)
C32* C 0.09617(18) -0.1996(5) -0.0946(3)
C33* C 0.29291(16) 0.3040(4) 0.1820(3)
C34* C 0.42353(15) 0.0116(5) 0.2189(3)
C35A C 0.5987(2) 0.4021(6) 1.1174(3)
H17A H 0.57890 0.34220 1.12180
C36A C 0.64798(19) 0.4019(5) 1.1660(3)
H18A H 0.65980 0.34270 1.20070
C37A C 0.67816(16) 0.4889(5) 1.1617(2)
C38A C 0.65806(17) 0.5724(5) 1.1096(3)
H19A H 0.67680 0.63480 1.10540
C39A C 0.61028(18) 0.5644(5) 1.0634(3)
H20A H 0.59820 0.62110 1.02690
C40A C 0.73176(19) 0.4969(5) 1.2073(3)
H21A H 0.73880 0.57290 1.23020
H22A H 0.74990 0.48890 1.17430
C41A C 0.74885(18) 0.4056(5) 1.2678(3)
H23A H 0.73890 0.32930 1.24670
H24A H 0.73490 0.41950 1.30570
C42A C 0.80619(18) 0.4134(5) 1.3032(3)
C43A C 0.83118(18) 0.3250(5) 1.2878(3)
H25A H 0.81460 0.27110 1.25140
C44A C 0.8796(2) 0.3136(5) 1.3239(3)
H26A H 0.89550 0.24940 1.31430
C45A C 0.83185(18) 0.4951(5) 1.3526(3)
H27A H 0.81620 0.55800 1.36420
C46A C 0.88140(16) 0.4828(5) 1.3850(2)
H28A H 0.89900 0.54100 1.41690
Mn1* Mn 0.24850(2) 1.46373(10) 0.24120(3)
Mn1** Mn 0.24850(2) -0.53627(10) 0.24120(3)
Mn2* Mn 0.10162(2) -0.06257(11) -0.24273(4)
Mn2C Mn 0.39838(2) 1.43743(11) 0.24273(4)
Mn2C* Mn 0.39838(2) 0.43743(11) 0.24273(4)
N1A N 0.57937(14) 0.4806(4) 1.0670(2)
N2A N 0.90540(15) 0.3936(4) 1.3737(2)
O1* O 0.19993(13) 1.3520(3) 0.27119(19)
O2* O 0.27230(13) 1.2820(3) 0.33878(19)
O3* O 0.05877(12) 1.0892(4) 0.21917(18)
O4* O 0.06201(13) 0.9417(4) 0.29144(18)
O5* O 0.41883(13) 0.8380(4) 0.6286(2)
H29* H 0.39210 0.84300 0.64570
O6* O 0.43466(13) 0.7312(4) 0.5460(2)
O7* O 0.22384(11) 0.6139(3) 0.31155(19)
O7** O 0.22384(11) 1.6139(3) 0.31155(19)
O8* O 0.29790(12) 0.5515(3) 0.33938(18)
O8** O 0.29790(12) 1.5515(3) 0.33938(18)
O9* O 0.18989(11) -0.4404(3) 0.14315(17)
O9** O 0.18989(11) 1.5596(3) 0.14315(17)
O10* O 0.26514(11) -0.3884(3) 0.17138(17)
O10** O 0.26514(11) 1.6116(3) 0.17138(17)
O11* O 0.06417(11) -0.2652(3) -0.08958(18)
O12* O 0.08725(13) -0.1235(4) -0.1466(2)
O13* O 0.24885(11) 0.3254(3) 0.16295(17)
O14* O 0.32530(12) 0.3734(3) 0.22460(19)
O14C O 0.17470(12) 0.8734(3) -0.22460(19)
O14C* O 0.17470(12) -0.1266(3) -0.22460(19)
O15* O 0.43857(11) -0.0778(3) 0.19738(18)
O16* O 0.44902(12) 0.0732(4) 0.2735(2)
O17* O 0.05527(13) -0.1984(3) -0.31464(19)
H30* H 0.04180 -0.24540 -0.28570
H31* H 0.02940 -0.16280 -0.35490
O18* O 0.03485(11) 0.0374(3) -0.27212(18)
H32* H 0.04190 0.10760 -0.25980
H33* H 0.01820 0.01150 -0.24750
O19* O 0.10852(13) 0.0049(4) -0.3463(2)
H34* H 0.13220 0.05210 -0.33540
H35* H 0.08250 0.03800 -0.37400
O20* O 0.14022(11) 0.0898(4) -0.18155(17)
H36* H 0.14030 0.08860 -0.13150
H37* H 0.17310 0.08920 -0.18000
H38A H 0.50610 0.70210 0.95700
O22A O 0.48501(13) 0.5004(4) 1.10495(19)
H39A H 0.50940 0.53140 1.13850
H40A H 0.48090 0.43330 1.11980
H41A H 0.50840 0.26920 0.96480
#END
