
#######################################################################
#
#                 Cambridge Crystallographic Data Centre
#                                CCDC
#
#######################################################################
#
# If this CIF has been generated from an entry in the Cambridge
# Structural Database, then it will include bibliographic, chemical,
# crystal, experimental, refinement or atomic coordinate data resulting
# from the CCDC's data processing and validation procedures.
#
#######################################################################

data_CSD_CIF_OYOTOM
_audit_creation_date 2011-11-21
_audit_creation_method CSD-ConQuest-V1
_database_code_CSD OYOTOM
_database_code_depnum_ccdc_archive 'CCDC 807823'
_chemical_formula_sum 'C92 H136 Mn7 N4 O71'
_chemical_formula_moiety
;
(H12 Mn1 O6 2+)2n,n(C24 H32 Mn1 N4 O4 2+),n(C68 H50 Mn4 O40 6-),15n(H2 O1)
;
_journal_coden_Cambridge 1220
_journal_volume 17
_journal_year 2011
_journal_page_first 9936
_journal_name_full 'Chem.-Eur.J. '
loop_
_publ_author_name
"Xianying Duan"
"Qingjin Meng"
"Yang Su"
"Yizhi Li"
"Chunying Duan"
"Xiaoming Ren"
"Changsheng Lu"
_chemical_name_systematic
;
catena-[bis(Hexa-aqua-manganese(ii)) 
bis(1,2-bis(4-pyridyl)ethane)-tetra-aqua-manganese(ii) 
bis(\m~4~-5,5'-methanediyldibenzene-1,3-dicarboxylato-O,O,O',O'',O''',O'''')-b
is(\m~2~-5-(3-carboxy-5-carboxylatobenzyl)benzene-1,3-dicarboxylato-O,O',O'')-
octa-aqua-tetra-manganese(ii) pentadecahydrate]
;
_cell_volume   6024.322
_exptl_crystal_density_diffrn 1.554
_diffrn_ambient_temperature 291
#These two values have been output from a single CSD field.
_refine_ls_R_factor_gt 0.0489
_refine_ls_wR_factor_gt 0.0489
_symmetry_cell_setting monoclinic
_symmetry_space_group_name_H-M 'C 2'
_symmetry_Int_Tables_number 5
loop_
_symmetry_equiv_pos_site_id
_symmetry_equiv_pos_as_xyz
1 x,y,z
2 -x,y,-z
3 1/2+x,1/2+y,z
4 1/2-x,1/2+y,-z
_cell_length_a 29.406(3)
_cell_length_b 11.4951(12)
_cell_length_c 19.0459(19)
_cell_angle_alpha 90
_cell_angle_beta 110.651(2)
_cell_angle_gamma 90
_cell_formula_units_Z 2
loop_
_atom_type_symbol
_atom_type_radius_bond
C 0.68
H 0.23
Mn 1.57
N 0.68
O 0.68
loop_
_atom_site_label
_atom_site_type_symbol
_atom_site_fract_x
_atom_site_fract_y
_atom_site_fract_z
C1 C 0.71725(15) 0.7397(4) 0.5865(2)
C2 C 0.74863(14) 0.6613(4) 0.5746(2)
H1 H 0.78140 0.66440 0.60410
C3 C 0.73223(15) 0.5769(4) 0.5191(2)
C4 C 0.68284(14) 0.5724(4) 0.4760(2)
H2 H 0.67160 0.51580 0.43900
C5 C 0.65049(14) 0.6502(4) 0.4873(2)
C6 C 0.66776(14) 0.7342(4) 0.5430(2)
H3 H 0.64630 0.78700 0.55130
C7 C 0.76872(16) 0.4919(4) 0.5070(2)
H4 H 0.75130 0.44050 0.46590
H5 H 0.79170 0.53600 0.49150
C8 C 0.79707(13) 0.4178(3) 0.5736(2)
C9 C 0.84409(15) 0.4487(4) 0.6161(2)
H6 H 0.85840 0.51250 0.60220
C10 C 0.87033(15) 0.3846(4) 0.6801(2)
C11 C 0.84776(16) 0.2870(4) 0.7002(2)
H7 H 0.86530 0.24080 0.74080
C12 C 0.79991(13) 0.2609(3) 0.6595(2)
C13 C 0.77491(13) 0.3277(4) 0.5968(2)
H8 H 0.74250 0.31100 0.56990
C14 C 0.73405(14) 0.8262(3) 0.6477(2)
C15 C 0.59653(14) 0.6446(4) 0.4437(2)
C16 C 0.92239(14) 0.4136(4) 0.7268(2)
C17 C 0.77569(14) 0.1671(3) 0.6836(2)
C18 C 0.79394(14) 0.7258(4) 0.9270(2)
C19 C 0.76057(14) 0.6450(4) 0.9322(2)
H9 H 0.72890 0.64810 0.89800
C20 C 0.77233(13) 0.5617(3) 0.9853(2)
C21 C 0.81984(14) 0.5592(4) 1.0374(2)
H10 H 0.82840 0.50140 1.07390
C22 C 0.85463(14) 0.6400(4) 1.0364(2)
C23 C 0.84102(16) 0.7222(4) 0.9799(2)
H11 H 0.86380 0.77650 0.97710
C24 C 0.73630(13) 0.4759(4) 0.99705(19)
H12 H 0.75420 0.41810 1.03340
H13 H 0.71540 0.51730 1.01820
C25 C 0.70480(14) 0.4141(3) 0.9266(2)
C26 C 0.72059(14) 0.3119(3) 0.9035(2)
H14 H 0.75150 0.28430 0.93070
C27 C 0.69194(14) 0.2500(3) 0.8416(2)
C28 C 0.64607(13) 0.2961(3) 0.79993(19)
H15 H 0.62700 0.25870 0.75610
C29 C 0.62870(13) 0.3942(3) 0.8221(2)
C30 C 0.65895(14) 0.4519(4) 0.8873(2)
H16 H 0.64720 0.51760 0.90380
C31 C 0.77990(14) 0.8168(4) 0.8660(2)
C32 C 0.90340(14) 0.6397(4) 1.0957(2)
C33 C 0.70749(13) 0.1406(3) 0.81732(19)
C34 C 0.57819(13) 0.4339(3) 0.7802(2)
C35 C 0.40259(17) 1.0422(5) -0.1197(2)
H17 H 0.42270 1.10260 -0.12340
C36 C 0.35441(17) 1.0399(5) -0.1688(3)
H18 H 0.34290 1.09570 -0.20620
C37 C 0.32437(14) 0.9543(4) -0.1608(2)
C38 C 0.34318(14) 0.8729(4) -0.1083(2)
H19 H 0.32380 0.81240 -0.10260
C39 C 0.39135(15) 0.8791(4) -0.0628(3)
H20 H 0.40350 0.82190 -0.02650
C40 C 0.27130(15) 0.9472(4) -0.2068(2)
H21 H 0.26480 0.87080 -0.22980
H22 H 0.25320 0.95320 -0.17300
C41 C 0.25196(15) 1.0355(4) -0.2668(2)
H23 H 0.26510 1.02150 -0.30610
H24 H 0.26210 1.11240 -0.24630
C42 C 0.12251(15) 0.9491(4) -0.3806(2)
H25 H 0.10570 0.88840 -0.41090
C43 C 0.17227(15) 0.9403(4) -0.3467(2)
H26 H 0.18920 0.87650 -0.35490
C44 C 0.19592(15) 1.0303(4) -0.3001(2)
C45 C 0.16961(16) 1.1206(4) -0.2899(2)
H27 H 0.18510 1.18090 -0.25780
C46 C 0.12090(15) 1.1243(4) -0.3260(2)
H28 H 0.10330 1.18730 -0.31860
Mn1 Mn 0.753550(19) 0.98004(8) 0.75979(3)
Mn2 Mn 0.89745(2) 0.50428(8) 1.24460(3)
Mn3 Mn 0.50000 0.95511(10) 0.00000
Mn4 Mn 0.92829(2) 0.85323(9) 0.76462(3)
N1 N 0.42056(12) 0.9601(4) -0.06779(19)
N2 N 0.09795(13) 1.0396(4) -0.3718(2)
O1 O 0.70452(9) 0.8914(2) 0.66135(13)
O2 O 0.77813(10) 0.8302(3) 0.68877(15)
O3 O 0.56859(10) 0.6979(3) 0.46538(17)
O4 O 0.58331(10) 0.5858(2) 0.38423(15)
O5 O 0.94208(10) 0.4992(3) 0.70931(16)
H29 H 0.97020 0.47430 0.69880
O6 O 0.94310(9) 0.3502(3) 0.78236(14)
O7 O 0.80251(11) 0.0899(2) 0.72791(16)
O8 O 0.73219(10) 0.1610(3) 0.66563(15)
O9 O 0.81147(9) 0.8834(2) 0.85747(14)
O10 O 0.73599(10) 0.8316(3) 0.82760(14)
O11 O 0.93546(11) 0.7080(3) 1.09022(17)
O12 O 0.91158(9) 0.5649(3) 1.14781(15)
O13 O 0.75198(9) 0.1172(3) 0.83673(15)
O14 O 0.67574(10) 0.0726(2) 0.77503(15)
O15 O 0.56250(9) 0.5218(2) 0.80188(14)
O16 O 0.55366(9) 0.3720(3) 0.72587(17)
O17 O 0.86077(9) 0.3516(3) 1.18294(15)
H30 H 0.83450 0.37230 1.14890
H31 H 0.85380 0.30610 1.21280
O18 O 0.94214(10) 0.6419(3) 1.31594(15)
H32 H 0.95560 0.69040 1.28700
H33 H 0.96800 0.60710 1.35650
O19 O 0.96420(9) 0.4067(3) 1.27128(15)
H34 H 0.96620 0.38110 1.31410
H35 H 0.95370 0.34610 1.24490
O20 O 0.88932(10) 0.4351(3) 1.34604(15)
H36 H 0.85900 0.39440 1.33310
H37 H 0.88980 0.49810 1.37940
O21 O 0.50000 1.1423(4) 0.00000
H38 H 0.47360 1.17010 0.01400
O22 O 0.48473(11) 0.9421(3) 0.10585(16)
H39 H 0.45440 0.93210 0.09540
H40 H 0.49970 0.88680 0.13040
O23 O 0.50000 0.7675(4) 0.00000
H41 H 0.47880 0.73980 -0.03940
H42? H 0.49830 0.73710 0.03970
O24 O 0.95661(9) 0.8817(3) 0.67465(16)
H43 H 0.94670 0.94700 0.65390
H44 H 0.98650 0.88100 0.69170
O25 O 0.88747(12) 1.0136(3) 0.72318(15)
H45 H 0.88990 1.05880 0.75960
H46 H 0.85760 0.99620 0.70170
O26 O 0.9860(1) 0.9631(3) 0.84366(16)
H47 H 0.97310 1.02130 0.85680
H48 H 1.00490 0.98830 0.82200
O27 O 0.97297(11) 0.7022(3) 0.79335(19)
H49 H 1.00480 0.72310 0.82720
H50 H 0.97550 0.66850 0.74880
O28 O 0.90138(10) 0.8392(3) 0.85589(15)
H51 H 0.87310 0.81710 0.85270
H52 H 0.91980 0.88380 0.88940
O29 O 0.87094(10) 0.7576(3) 0.69753(16)
H53 H 0.84450 0.78540 0.69860
H54 H 0.87150 0.75940 0.65320
O30 O 0.86977(11) 0.0972(3) 0.93022(17)
H55 H 0.89300 0.05180 0.95360
H56 H 0.84520 0.06010 0.90180
O31 O 0.8649(2) 0.6647(6) 0.4188(3)
H57 H 0.86830 0.69380 0.46140
H58 H 0.84390 0.70360 0.38460
O32 O 0.50000 0.5700(4) 0.50000
H59 H 0.48180 0.60900 0.51510
H60? H 0.52440 0.55470 0.53900
O33 O 0.90729(10) 0.2242(3) 0.11015(16)
H61 H 0.89210 0.26520 0.13180
H62 H 0.91720 0.16160 0.13450
O34 O 0.94701(10) 0.8957(3) 0.00525(15)
H63 H 0.94050 0.83480 0.02520
H64 H 0.96740 0.93900 0.03740
O35 O 0.8754(2) 0.7588(5) 0.5550(3)
H65 H 0.85220 0.72020 0.52430
H66 H 0.87410 0.82890 0.54020
O36 O 0.03577(19) 0.5864(5) 0.4094(3)
H67 H 0.03460 0.53250 0.43920
H68 H 0.04920 0.64630 0.43420
O37 O 0.0475(6) 0.4011(13) 0.5097(7)
H69 H 0.03520 0.35130 0.47520
H70 H 0.04750 0.37410 0.55130
O38 O 0.05495(10) 0.1611(3) 0.12740(17)
H71 H 0.05970 0.20830 0.16370
H72 H 0.08240 0.14450 0.12450
O39 O 0.98200(11) 0.1791(3) 0.31912(16)
H73 H 0.96850 0.13360 0.28250
H74 H 1.01250 0.16740 0.33630
O40 O 0.00000 0.8005(7) 0.50000
H75? H 0.03060 0.79100 0.51920
H76 H -0.00610 0.86320 0.47470
H77? H 0.49620 1.17010 -0.04930
C1* C 0.71725(15) 1.7397(4) 0.5865(2)
C2* C 0.74863(14) 1.6613(4) 0.5746(2)
H1* H 0.78140 1.66440 0.60410
C3* C 0.73223(15) 1.5769(4) 0.5191(2)
C4* C 0.68284(14) 1.5724(4) 0.4760(2)
H2* H 0.67160 1.51580 0.43900
C5* C 0.65049(14) 1.6502(4) 0.4873(2)
C6* C 0.66776(14) 1.7342(4) 0.5430(2)
H3* H 0.64630 1.78700 0.55130
C7* C 0.76872(16) 1.4919(4) 0.5070(2)
H4* H 0.75130 1.44050 0.46590
H5* H 0.79170 1.53600 0.49150
C8* C 0.79707(13) 1.4178(3) 0.5736(2)
C9* C 0.84409(15) 1.4487(4) 0.6161(2)
H6* H 0.85840 1.51250 0.60220
C10* C 0.87033(15) 1.3846(4) 0.6801(2)
C11* C 0.84776(16) 1.2870(4) 0.7002(2)
H7* H 0.86530 1.24080 0.74080
C12* C 0.79991(13) 1.2609(3) 0.6595(2)
C13* C 0.77491(13) 1.3277(4) 0.5968(2)
H8* H 0.74250 1.31100 0.56990
C14* C 0.73405(14) 1.8262(3) 0.6477(2)
C15* C 0.59653(14) 1.6446(4) 0.4437(2)
C16* C 0.92239(14) 1.4136(4) 0.7268(2)
C17* C 0.77569(14) 1.1671(3) 0.6836(2)
C18* C 0.79394(14) 1.7258(4) 0.9270(2)
C19* C 0.76057(14) 1.6450(4) 0.9322(2)
H9* H 0.72890 1.64810 0.89800
C20* C 0.77233(13) 1.5617(3) 0.9853(2)
C21* C 0.81984(14) 1.5592(4) 1.0374(2)
H10* H 0.82840 1.50140 1.07390
C22* C 0.85463(14) 1.6400(4) 1.0364(2)
C23* C 0.84102(16) 1.7222(4) 0.9799(2)
H11* H 0.86380 1.77650 0.97710
C24* C 0.73630(13) 1.4759(4) 0.99705(19)
H12* H 0.75420 1.41810 1.03340
H13* H 0.71540 1.51730 1.01820
C25* C 0.70480(14) 1.4141(3) 0.9266(2)
C26* C 0.72059(14) 1.3119(3) 0.9035(2)
H14* H 0.75150 1.28430 0.93070
C27* C 0.69194(14) 1.2500(3) 0.8416(2)
C28* C 0.64607(13) 1.2961(3) 0.79993(19)
H15* H 0.62700 1.25870 0.75610
C29* C 0.62870(13) 1.3942(3) 0.8221(2)
C30* C 0.65895(14) 1.4519(4) 0.8873(2)
H16* H 0.64720 1.51760 0.90380
C31* C 0.77990(14) 1.8168(4) 0.8660(2)
C32* C 0.90340(14) 1.6397(4) 1.0957(2)
C33* C 0.70749(13) 1.1406(3) 0.81732(19)
C34* C 0.57819(13) 1.4339(3) 0.7802(2)
C35A C 0.59741(17) 1.0422(5) 0.1197(2)
H17A H 0.57730 1.10260 0.12340
C36A C 0.64559(17) 1.0399(5) 0.1688(3)
H18A H 0.65710 1.09570 0.20620
C37A C 0.67563(14) 0.9543(4) 0.1608(2)
C38A C 0.65682(14) 0.8729(4) 0.1083(2)
H19A H 0.67620 0.81240 0.10260
C39A C 0.60865(15) 0.8791(4) 0.0628(3)
H20A H 0.59650 0.82190 0.02650
C40A C 0.72870(15) 0.9472(4) 0.2068(2)
H21A H 0.73520 0.87080 0.22980
H22A H 0.74680 0.95320 0.17300
C41A C 0.74804(15) 1.0355(4) 0.2668(2)
H23A H 0.73490 1.02150 0.30610
H24A H 0.73790 1.11240 0.24630
C42A C 0.87749(15) 0.9491(4) 0.3806(2)
H25A H 0.89430 0.88840 0.41090
C43A C 0.82773(15) 0.9403(4) 0.3467(2)
H26A H 0.81080 0.87650 0.35490
C44A C 0.80408(15) 1.0303(4) 0.3001(2)
C45A C 0.83039(16) 1.1206(4) 0.2899(2)
H27A H 0.81490 1.18090 0.25780
C46A C 0.87910(15) 1.1243(4) 0.3260(2)
H28A H 0.89670 1.18730 0.31860
Mn1* Mn 0.753550(19) 1.98004(8) 0.75979(3)
Mn1** Mn 0.753550(19) -0.01996(8) 0.75979(3)
Mn2* Mn 0.89745(2) 1.50428(8) 1.24460(3)
Mn2C Mn 0.60255(2) 0.00428(8) 0.75540(3)
Mn2C* Mn 0.60255(2) 1.00428(8) 0.75540(3)
N1A N 0.57944(12) 0.9601(4) 0.06779(19)
N2A N 0.90205(13) 1.0396(4) 0.3718(2)
O1* O 0.70452(9) 1.8914(2) 0.66135(13)
O2* O 0.77813(10) 1.8302(3) 0.68877(15)
O3* O 0.56859(10) 1.6979(3) 0.46538(17)
O4* O 0.58331(10) 1.5858(2) 0.38423(15)
O5* O 0.94208(10) 1.4992(3) 0.70931(16)
H29* H 0.97020 1.47430 0.69880
O6* O 0.94310(9) 1.3502(3) 0.78236(14)
O7* O 0.80251(11) 1.0899(2) 0.72791(16)
O7** O 0.80251(11) 2.0899(2) 0.72791(16)
O8* O 0.73219(10) 1.1610(3) 0.66563(15)
O9* O 0.81147(9) 1.8834(2) 0.85747(14)
O10* O 0.73599(10) 1.8316(3) 0.82760(14)
O11* O 0.93546(11) 1.7080(3) 1.09022(17)
O12* O 0.91158(9) 1.5649(3) 1.14781(15)
O13* O 0.75198(9) 1.1172(3) 0.83673(15)
O13** O 0.75198(9) 2.1172(3) 0.83673(15)
O14* O 0.67574(10) 1.0726(2) 0.77503(15)
O14C O 0.82426(10) 0.5726(2) 1.22497(15)
O14** O 0.67574(10) 2.0726(2) 0.77503(15)
O14C* O 0.82426(10) 1.5726(2) 1.22497(15)
O15* O 0.56250(9) 1.5218(2) 0.80188(14)
O16* O 0.55366(9) 1.3720(3) 0.72587(17)
O17* O 0.86077(9) 1.3516(3) 1.18294(15)
H30* H 0.83450 1.37230 1.14890
H31* H 0.85380 1.30610 1.21280
O18* O 0.94214(10) 1.6419(3) 1.31594(15)
H32* H 0.95560 1.69040 1.28700
H33* H 0.96800 1.60710 1.35650
O19* O 0.96420(9) 1.4067(3) 1.27128(15)
H34* H 0.96620 1.38110 1.31410
H35* H 0.95370 1.34610 1.24490
O20* O 0.88932(10) 1.4351(3) 1.34604(15)
H36* H 0.85900 1.39440 1.33310
H37* H 0.88980 1.49810 1.37940
H38A H 0.52640 1.17010 -0.01400
O22A O 0.51527(11) 0.9421(3) -0.10585(16)
H39A H 0.54560 0.93210 -0.09540
H40A H 0.50030 0.88680 -0.13040
H41A H 0.52120 0.73980 0.03940
H59A H 0.51820 0.60900 0.48490
H76A H 0.00610 0.86320 0.52530
#END
