
#######################################################################
#
#                 Cambridge Crystallographic Data Centre
#                                CCDC
#
#######################################################################
#
# If this CIF has been generated from an entry in the Cambridge
# Structural Database, then it will include bibliographic, chemical,
# crystal, experimental, refinement or atomic coordinate data resulting
# from the CCDC's data processing and validation procedures.
#
#######################################################################

data_CSD_CIF_OYOWOR
_audit_creation_date 2021-08-09
_audit_creation_method CSD-ConQuest-V1
_database_code_CSD OYOWOR
_database_code_depnum_ccdc_archive 'CCDC 2084601'
_chemical_formula_sum 'C84 H94 N12 O34 Pb2'
_chemical_formula_moiety
;
(C38 H34 N10 4+)n,n(C32 H16 O16 Pb2 4-),n(C8 H6 O4),2n(C3 H7 N1 O1),12n(H2 O1)
;
_journal_coden_Cambridge 1268
_journal_volume 26
_journal_year 2021
_journal_page_first 4241
_journal_name_full 'Molecules '
loop_
_publ_author_name
"Ting Xia"
"Zhi-Yong Yu"
"Han-Yuan Gong"
_chemical_name_systematic
;
catena-([2]-(3,6,12,15,22,25,31,34,42,47-decaazanonacyclo[34.2.2.2^17,20^.1^3,
6^.1^7,11^.1^12,15^.1^22,25^.1^26,30^.1^31,34^]octatetraconta-1(38),3(48),4,7(
47),8,10,13,15(46),17,19,22(43),23,26(42),27,29,32,34(41),36,39,44-icosaene-3,
15,22,34-tetraium)-(bis(\m-terephthalato)-bis(terephthalato)-di-lead) 
rotaxane terephthalic acid dimethylformamide solvate dodecahydrate)
;
_cell_volume   2168.299
_exptl_crystal_colour 'colorless'
_exptl_crystal_density_diffrn 1.711
_exptl_crystal_description 'Prism'
_diffrn_ambient_temperature 173.2
#These two values have been output from a single CSD field.
_refine_ls_R_factor_gt 0.0462
_refine_ls_wR_factor_gt 0.0462
_symmetry_cell_setting triclinic
_symmetry_space_group_name_H-M 'P -1'
_symmetry_Int_Tables_number 2
loop_
_symmetry_equiv_pos_site_id
_symmetry_equiv_pos_as_xyz
1 x,y,z
2 -x,-y,-z
_cell_length_a 10.848(2)
_cell_length_b 14.117(3)
_cell_length_c 14.758(3)
_cell_angle_alpha 100.95(3)
_cell_angle_beta 101.97(3)
_cell_angle_gamma 90.31(3)
_cell_formula_units_Z 1
loop_
_atom_type_symbol
_atom_type_radius_bond
C 0.68
H 0.23
N 0.68
O 0.68
Pb 1.46
loop_
_atom_site_label
_atom_site_type_symbol
_atom_site_fract_x
_atom_site_fract_y
_atom_site_fract_z
Pb1 Pb 0.54169(2) -0.04499(2) 0.11018(2)
O1 O 0.4859(4) 0.0140(3) 0.2543(2)
O2 O 0.6036(4) -0.1095(3) 0.2833(3)
O3 O 0.3453(3) 0.0166(3) 0.0511(2)
O4 O 0.2887(4) -0.1239(3) 0.0804(3)
O5 O 0.5601(3) 0.1279(3) 0.1056(2)
O6 O 0.7256(3) 0.0813(3) 0.1975(3)
C1 C 0.5401(5) -0.0395(4) 0.3076(3)
C2 C 0.2622(5) -0.0464(4) 0.0543(3)
C3 C 0.6636(4) 0.1464(4) 0.1645(3)
C4 C 0.5200(5) -0.0189(4) 0.4087(3)
C5 C 0.1269(5) -0.0232(4) 0.0258(3)
C6 C 0.7106(4) 0.2496(4) 0.1993(3)
C7 C 0.5329(6) -0.0927(5) 0.4608(4)
C8 C 0.4877(5) 0.0724(4) 0.4484(4)
C9 C 0.0951(4) 0.0636(4) -0.0048(3)
C10 C 0.0294(5) -0.0848(4) 0.0299(4)
C11 C 0.7915(5) 0.2765(4) 0.2876(3)
C12 C 0.6652(5) 0.3207(4) 0.1490(4)
H1 H 0.55480 -0.15390 0.43490
H2 H 0.47990 0.12090 0.41310
H3 H 0.15840 0.10670 -0.00800
H4 H 0.04870 -0.14240 0.05030
H5 H 0.82390 0.22940 0.32110
C13 C 0.8240(5) 0.3735(4) 0.3259(4)
C14 C 0.6989(5) 0.4161(4) 0.1873(4)
H6 H 0.61210 0.30360 0.08970
H7 H 0.87710 0.39100 0.38520
C15 C 0.7779(5) 0.4443(3) 0.2761(4)
H8 H 0.66840 0.46300 0.15300
C16 C 0.8066(5) 0.5496(4) 0.3192(4)
O7 O 0.7518(5) 0.6125(3) 0.2780(3)
O8 O 0.8841(4) 0.5708(3) 0.4002(3)
O9 O 0.1521(4) 0.4197(3) 0.2461(3)
O10 O 0.1289(4) 0.5004(3) 0.4299(3)
O11 O 0.3548(5) 0.2561(4) 0.0380(3)
O12 O 0.3653(5) 0.4362(4) 0.1663(4)
O13 O 0.4288(6) 0.5550(5) 0.0515(4)
O14 O 0.6165(6) 0.6957(7) 0.1353(6)
O15 O 0.8955(4) 0.2488(3) 0.5130(3)
O16 O 1.1062(4) 0.2493(3) 0.5308(3)
H9 H 1.09980 0.30800 0.53720
C17 C 0.9938(5) 0.2071(4) 0.5157(4)
C18 C 1.1122(5) 0.0530(4) 0.5116(4)
H10 H 1.18710 0.08890 0.51920
C19 C 0.9970(5) 0.0979(4) 0.5030(3)
C20 C 0.8866(5) 0.0454(4) 0.4913(4)
H11 H 0.81040 0.07600 0.48520
O17 O 0.0209(6) 0.5504(4) 0.1550(4)
C21 C 0.0876(8) 0.5769(5) 0.1038(5)
H12 H 0.17120 0.55960 0.11140
C22 C 0.1235(7) 0.6513(6) -0.0231(5)
H13 H 0.07870 0.68900 -0.06590
H14 H 0.19810 0.68710 0.01440
H15 H 0.14670 0.59220 -0.05840
C23 C -0.0877(7) 0.6566(5) 0.0223(5)
H16 H -0.10270 0.69370 -0.02680
H17 H -0.14260 0.59950 0.00370
H18 H -0.10420 0.69470 0.07940
N1 N 0.0428(5) 0.6292(4) 0.0385(4)
C24 C 0.5753(5) 0.4336(4) 0.6164(4)
H19 H 0.63650 0.48030 0.60890
H20 H 0.51650 0.46810 0.65040
C25 C 0.7519(5) 0.3285(4) 0.6640(3)
H21 H 0.80620 0.34790 0.62910
C26 C 0.5892(5) 0.3172(4) 0.7281(4)
H22 H 0.51130 0.32860 0.74390
C27 C 0.6706(5) 0.2518(4) 0.7576(4)
H23 H 0.66020 0.21010 0.79750
C28 C 0.8800(5) 0.2004(4) 0.7262(4)
C29 C 1.0003(5) 0.2357(4) 0.7299(4)
H24 H 1.01640 0.29980 0.72740
C30 C 1.0950(5) 0.1718(4) 0.7373(4)
H25 H 1.17720 0.19250 0.73910
C31 C 1.0700(5) 0.0773(4) 0.7420(4)
H26 H 1.13310 0.03300 0.74640
C32 C 0.9447(5) 0.0519(4) 0.7397(3)
C33 C 0.7890(5) -0.0718(4) 0.7433(3)
H27 H 0.71840 -0.03480 0.73440
C34 C 0.9846(5) -0.1183(4) 0.7620(4)
H28 H 1.07160 -0.11730 0.76760
C35 C 0.9116(5) -0.1935(4) 0.7673(4)
H29 H 0.93800 -0.25390 0.77730
C36 C 0.6771(5) -0.2216(4) 0.7540(3)
H30 H 0.61550 -0.17950 0.77740
H31 H 0.70000 -0.26630 0.79660
C37 C 0.6176(5) -0.2781(4) 0.6570(3)
C38 C 0.6776(5) -0.2923(4) 0.5812(4)
H32 H 0.75950 -0.26710 0.58970
C39 C 0.6167(5) -0.3441(4) 0.4923(4)
H33 H 0.65760 -0.35330 0.44200
C40 C 0.4956(5) -0.3811(4) 0.4804(4)
C41 C 0.4353(5) -0.3687(4) 0.5560(4)
H34 H 0.35380 -0.39470 0.54770
C42 C 0.4962(5) -0.3180(4) 0.6430(4)
H35 H 0.45540 -0.31040 0.69330
N2 N 0.6409(4) 0.3636(3) 0.6710(3)
N3 N 0.7721(4) 0.2596(3) 0.7164(3)
N4 N 0.8498(4) 0.1107(3) 0.7315(3)
N5 N 0.9072(4) -0.0429(3) 0.7469(3)
N6 N 0.7899(4) -0.1630(3) 0.7548(3)
C8A C 0.5123(5) -0.0724(4) 0.5516(4)
C7A C 0.4671(6) 0.0927(5) 0.5392(4)
C10A C -0.0294(5) 0.0848(4) -0.0299(4)
C9A C -0.0951(4) -0.0636(4) 0.0048(3)
C4A C 0.4800(5) 0.0189(4) 0.5913(3)
H2A H 0.52010 -0.12090 0.58690
H1A H 0.44520 0.15390 0.56510
C5A C -0.1269(5) 0.0232(4) -0.0258(3)
H4A H -0.04870 0.14240 -0.05030
H3A H -0.15840 -0.10670 0.00800
C1A C 0.4599(5) 0.0395(4) 0.6924(3)
C2A C -0.2622(5) 0.0464(4) -0.0543(3)
O1A O 0.5141(4) -0.0140(3) 0.7457(2)
O2A O 0.3964(4) 0.1095(3) 0.7167(3)
O3A O -0.3453(3) -0.0166(3) -0.0511(2)
O4A O -0.2887(4) 0.1239(3) -0.0804(3)
Pb1A Pb 0.45831(2) 0.04499(2) 0.88982(2)
Pb1A* Pb -0.54169(2) 0.04499(2) -0.11018(2)
O5A O -0.5601(3) -0.1279(3) -0.1056(2)
O6A O -0.7256(3) -0.0813(3) -0.1975(3)
O1A* O -0.4859(4) -0.0140(3) -0.2543(2)
O2A* O -0.6036(4) 0.1095(3) -0.2833(3)
C3A C -0.6636(4) -0.1464(4) -0.1645(3)
C6A C -0.7106(4) -0.2496(4) -0.1993(3)
C11A C -0.7915(5) -0.2765(4) -0.2876(3)
C12A C -0.6652(5) -0.3207(4) -0.1490(4)
H5A H -0.82390 -0.22940 -0.32110
C13A C -0.8240(5) -0.3735(4) -0.3259(4)
C14A C -0.6989(5) -0.4161(4) -0.1873(4)
H6A H -0.61210 -0.30360 -0.08970
H7A H -0.87710 -0.39100 -0.38520
C15A C -0.7779(5) -0.4443(3) -0.2761(4)
H8A H -0.66840 -0.46300 -0.15300
C16A C -0.8066(5) -0.5496(4) -0.3192(4)
O7A O -0.7518(5) -0.6125(3) -0.2780(3)
O8A O -0.8841(4) -0.5708(3) -0.4002(3)
O15A O 1.1045(4) -0.2488(3) 0.4870(3)
O16A O 0.8938(4) -0.2493(3) 0.4692(3)
H9A H 0.90020 -0.30800 0.46280
C17A C 1.0062(5) -0.2071(4) 0.4843(4)
C18A C 0.8878(5) -0.0530(4) 0.4884(4)
H10A H 0.81290 -0.08890 0.48080
C19A C 1.0030(5) -0.0979(4) 0.4970(3)
C20A C 1.1134(5) -0.0454(4) 0.5087(4)
H11A H 1.18960 -0.07600 0.51480
C24A C 0.4247(5) -0.4336(4) 0.3836(4)
H19A H 0.36350 -0.48030 0.39110
H20A H 0.48350 -0.46810 0.34960
C25A C 0.2481(5) -0.3285(4) 0.3360(3)
H21A H 0.19380 -0.34790 0.37090
C26A C 0.4108(5) -0.3172(4) 0.2719(4)
H22A H 0.48870 -0.32860 0.25610
C27A C 0.3294(5) -0.2518(4) 0.2424(4)
H23A H 0.33980 -0.21010 0.20250
C28A C 0.1200(5) -0.2004(4) 0.2738(4)
C29A C -0.0003(5) -0.2357(4) 0.2701(4)
H24A H -0.01640 -0.29980 0.27260
C30A C -0.0950(5) -0.1718(4) 0.2627(4)
H25A H -0.17720 -0.19250 0.26090
C31A C -0.0700(5) -0.0773(4) 0.2580(4)
H26A H -0.13310 -0.03300 0.25360
C32A C 0.0553(5) -0.0519(4) 0.2603(3)
C33A C 0.2110(5) 0.0718(4) 0.2567(3)
H27A H 0.28160 0.03480 0.26560
C34A C 0.0154(5) 0.1183(4) 0.2380(4)
H28A H -0.07160 0.11730 0.23240
C35A C 0.0884(5) 0.1935(4) 0.2327(4)
H29A H 0.06200 0.25390 0.22270
C36A C 0.3229(5) 0.2216(4) 0.2460(3)
H30A H 0.38450 0.17950 0.22260
H31A H 0.30000 0.26630 0.20340
C37A C 0.3824(5) 0.2781(4) 0.3430(3)
C38A C 0.3224(5) 0.2923(4) 0.4188(4)
H32A H 0.24050 0.26710 0.41030
C39A C 0.3833(5) 0.3441(4) 0.5077(4)
H33A H 0.34240 0.35330 0.55800
C40A C 0.5044(5) 0.3811(4) 0.5196(4)
C41A C 0.5647(5) 0.3687(4) 0.4440(4)
H34A H 0.64620 0.39470 0.45230
C42A C 0.5038(5) 0.3180(4) 0.3570(4)
H35A H 0.54460 0.31040 0.30670
N2A N 0.3591(4) -0.3636(3) 0.3290(3)
N3A N 0.2279(4) -0.2596(3) 0.2836(3)
N4A N 0.1502(4) -0.1107(3) 0.2685(3)
N5A N 0.0928(4) 0.0429(3) 0.2531(3)
N6A N 0.2101(4) 0.1630(3) 0.2452(3)
#END
