
#######################################################################
#
#                 Cambridge Crystallographic Data Centre
#                                CCDC
#
#######################################################################
#
# If this CIF has been generated from an entry in the Cambridge
# Structural Database, then it will include bibliographic, chemical,
# crystal, experimental, refinement or atomic coordinate data resulting
# from the CCDC's data processing and validation procedures.
#
#######################################################################

data_CSD_CIF_OYOWUX
_audit_creation_date 2021-08-09
_audit_creation_method CSD-ConQuest-V1
_database_code_CSD OYOWUX
_database_code_depnum_ccdc_archive 'CCDC 2084604'
_chemical_formula_sum 'C98 H89 N10 O32.5 Pb3'
_chemical_formula_moiety
;
(C60 H32 O21 Pb3 4-)n,n(C38 H34 N10 4+),11.5n(H2 O1)
;
_journal_coden_Cambridge 1268
_journal_volume 26
_journal_year 2021
_journal_page_first 4241
_journal_name_full 'Molecules '
loop_
_publ_author_name
"Ting Xia"
"Zhi-Yong Yu"
"Han-Yuan Gong"
_chemical_name_systematic
;
catena-([2]-(3,6,12,15,22,25,31,34,42,47-deca-azanonacyclo[34.2.2.2^17,20^.1^3
,6^.1^7,11^.1^12,15^.1^22,25^.1^26,30^.1^31,34^]octatetraconta-1(38),3(48),4,7
(47),8,10,12(46),13,17,19,22(43),23,26(42),27,29,32,34(41),36,39,44-icosaene-3
,12,22,34-tetraium)-(pentakis(\m-naphthalene-2,6-dicarboxylato)-tri-lead) 
rotaxane hydrate)
;
_cell_volume   9674.400
_exptl_crystal_colour 'colorless'
_exptl_crystal_density_diffrn 1.75
_exptl_crystal_description 'Prism'
_diffrn_ambient_temperature 153.2
#These two values have been output from a single CSD field.
_refine_ls_R_factor_gt 0.0789
_refine_ls_wR_factor_gt 0.0789
_symmetry_cell_setting monoclinic
_symmetry_space_group_name_H-M 'P 21/n'
_symmetry_Int_Tables_number 14
loop_
_symmetry_equiv_pos_site_id
_symmetry_equiv_pos_as_xyz
1 x,y,z
2 1/2-x,1/2+y,1/2-z
3 -x,-y,-z
4 -1/2+x,-1/2-y,-1/2+z
_cell_length_a 20.504(4)
_cell_length_b 20.005(4)
_cell_length_c 24.046(5)
_cell_angle_alpha 90
_cell_angle_beta 101.23(3)
_cell_angle_gamma 90
_cell_formula_units_Z 4
loop_
_atom_type_symbol
_atom_type_radius_bond
C 0.68
H 0.23
N 0.68
O 0.68
Pb 1.46
loop_
_atom_site_label
_atom_site_type_symbol
_atom_site_fract_x
_atom_site_fract_y
_atom_site_fract_z
Pb1 Pb 0.64257(3) 0.71341(3) 0.90548(2)
Pb2 Pb 0.48676(3) 0.21695(3) 0.56260(3)
Pb3 Pb -0.19036(5) 0.31419(5) 0.45353(3)
C1 C 0.7813(10) 1.0814(9) 0.6217(8)
C2 C 0.7619(9) 1.0246(8) 0.6567(6)
C3 C 0.6949(9) 1.0023(8) 0.6455(7)
H1 H 0.66440 1.02130 0.61610
C4 C 0.6751(9) 0.9520(8) 0.6785(6)
H2 H 0.63120 0.93710 0.67130
C5 C 0.7221(8) 0.9237(7) 0.7230(7)
C6 C 0.7044(7) 0.8731(7) 0.7591(6)
H3 H 0.66100 0.85690 0.75180
C7 C 0.7489(8) 0.8475(8) 0.8043(6)
C8 C 0.8155(9) 0.8709(9) 0.8138(8)
H4 H 0.84690 0.85320 0.84330
C9 C 0.8334(8) 0.9183(8) 0.7803(6)
H5 H 0.87740 0.93280 0.78760
C10 C 0.7888(9) 0.9475(8) 0.7345(6)
C11 C 0.8064(10) 0.9975(9) 0.7003(7)
H6 H 0.85000 1.01310 0.70740
C12 C 0.7262(10) 0.797(1) 0.8405(7)
C13 C 0.5337(9) 0.6305(9) 0.8499(8)
C14 C 0.5076(8) 0.5756(7) 0.8102(7)
C15 C 0.5117(9) 0.5820(8) 0.7544(7)
H7 H 0.52320 0.62280 0.74040
C16 C 0.4984(8) 0.5263(8) 0.7182(7)
C17 C 0.5037(9) 0.5292(8) 0.6605(8)
H8 H 0.51000 0.57050 0.64470
C18 C 0.4998(9) 0.4730(9) 0.6267(7)
H9 H 0.50390 0.47650 0.58900
C19 C 0.4896(8) 0.4104(8) 0.6501(7)
C20 C 0.4817(9) 0.4049(9) 0.7048(7)
H10 H 0.47430 0.36330 0.71960
C21 C 0.4847(8) 0.4638(8) 0.7396(7)
C22 C 0.4745(10) 0.4614(9) 0.7970(7)
H11 H 0.45850 0.42220 0.81030
C23 C 0.4873(9) 0.5140(8) 0.8320(7)
H12 H 0.48310 0.51050 0.86970
C24 C 0.4896(8) 0.3496(9) 0.6161(8)
C25 C 0.4820(9) 0.0960(9) 0.6333(7)
C26 C 0.4986(8) 0.0477(9) 0.6816(7)
C27 C 0.4952(9) -0.0227(9) 0.6717(8)
H13 H 0.47950 -0.03900 0.63540
C28 C 0.5150(8) -0.0666(8) 0.7162(7)
H14 H 0.51200 -0.11240 0.70950
C29 C 0.5397(8) -0.0432(8) 0.7714(7)
C30 C 0.5611(7) -0.0873(8) 0.8161(7)
H15 H 0.55850 -0.13310 0.80930
C31 C 0.5858(9) -0.0647(8) 0.8698(7)
C32 C 0.5866(8) 0.0045(8) 0.8807(7)
H16 H 0.60270 0.02090 0.91700
C33 C 0.5637(8) 0.0465(8) 0.8373(7)
H17 H 0.56300 0.09210 0.84490
C34 C 0.5412(8) 0.0253(8) 0.7824(7)
C35 C 0.5202(8) 0.0694(7) 0.7376(7)
H18 H 0.52050 0.11510 0.74520
C36 C 0.6096(10) -0.1133(10) 0.9173(8)
C37 C 0.3454(11) 0.2495(11) 0.5115(9)
C38 C 0.2716(11) 0.2565(11) 0.4985(8)
C39 C 0.2430(11) 0.3033(10) 0.4540(8)
H19 H 0.26950 0.32540 0.43250
C40 C 0.1771(10) 0.3135(11) 0.4449(8)
H20 H 0.15800 0.34420 0.41750
C41 C 0.1378(11) 0.2802(11) 0.4747(8)
C42 C 0.0642(10) 0.2974(10) 0.4607(8)
H21 H 0.04710 0.33050 0.43480
C43 C 0.0247(11) 0.2605(11) 0.4894(8)
C44 C 0.0524(11) 0.2117(10) 0.5303(8)
H22 H 0.02460 0.18560 0.54760
C45 C 0.1220(11) 0.2024(10) 0.5447(8)
H23 H 0.14070 0.17320 0.57360
C46 C 0.1603(11) 0.2367(11) 0.5157(8)
C47 C 0.2354(10) 0.2268(11) 0.5274(8)
H24 H 0.25490 0.19830 0.55650
C48 C -0.0533(11) 0.2715(12) 0.4758(9)
C49 C -0.2317(12) 0.4251(10) 0.3722(8)
C50 C -0.2429(8) 0.4791(9) 0.3290(8)
C51 C -0.1944(8) 0.4976(8) 0.2998(8)
H25 H -0.15440 0.47440 0.30440
C52 C -0.2068(8) 0.5523(9) 0.2633(8)
C53 C -0.1577(8) 0.5755(9) 0.2371(8)
H26 H -0.11510 0.55770 0.24620
C54 C -0.1721(8) 0.6258(9) 0.1968(8)
H27 H -0.14020 0.63820 0.17610
C55 C -0.2328(8) 0.6578(9) 0.1871(8)
C56 C -0.2825(8) 0.6364(9) 0.2143(7)
H28 H -0.32470 0.65530 0.20600
C57 C -0.2675(8) 0.5856(9) 0.2547(8)
C58 C -0.3174(8) 0.5623(9) 0.2803(8)
H29 H -0.35940 0.58170 0.27210
C59 C -0.3048(8) 0.5102(9) 0.3180(8)
H30 H -0.33810 0.49550 0.33630
C60 C -0.2482(13) 0.7115(10) 0.1419(9)
O1 O 0.8257(6) 1.1197(6) 0.6439(6)
O2 O 0.7497(10) 1.0875(8) 0.5723(6)
O3 O 0.6680(6) 0.7738(6) 0.8263(5)
O4 O 0.7636(6) 0.7800(6) 0.8859(5)
O5 O 0.5440(8) 0.6176(7) 0.9042(5)
O6 O 0.5491(6) 0.6879(5) 0.8319(5)
O7 O 0.4810(6) 0.3549(5) 0.5631(4)
O8 O 0.4981(7) 0.2927(6) 0.6399(5)
O9 O 0.4836(6) 0.1580(5) 0.6471(5)
O10 O 0.4674(7) 0.0767(6) 0.5844(5)
O11 O 0.5870(6) -0.1719(6) 0.9120(5)
O12 O 0.6467(6) -0.0901(6) 0.9627(5)
O13 O 0.3713(6) 0.2241(6) 0.5621(5)
O14 O 0.3786(7) 0.2643(7) 0.4780(6)
O15 O -0.0756(8) 0.3221(8) 0.4502(6)
O16 O -0.0871(6) 0.2277(6) 0.4913(5)
O17 O -0.2749(9) 0.4186(7) 0.4011(6)
O18 O -0.1835(9) 0.3875(8) 0.3788(6)
O19 O -0.2008(9) 0.7379(10) 0.1257(8)
O20 O -0.3036(8) 0.7342(9) 0.1252(6)
O21 O 0.6262(9) 0.184(1) 0.5988(7)
C61 C 0.1889(11) 0.2728(11) 0.6785(8)
H31 H 0.23130 0.28400 0.67330
C62 C 0.1051(12) 0.2259(12) 0.7087(10)
H32 H 0.08150 0.19820 0.72880
C63 C 0.0795(11) 0.2733(11) 0.6737(10)
H33 H 0.03470 0.28440 0.66370
C64 C 0.1263(10) 0.3572(13) 0.6172(8)
C65 C 0.0667(10) 0.3930(12) 0.6020(8)
H34 H 0.02920 0.38050 0.61570
C66 C 0.0648(10) 0.4474(12) 0.5661(8)
H35 H 0.02510 0.47020 0.55380
C67 C 0.1231(9) 0.4681(13) 0.5484(8)
H36 H 0.12540 0.50670 0.52730
C68 C 0.177(1) 0.4258(13) 0.5653(8)
C69 C 0.2447(10) 0.4836(9) 0.5052(8)
H37 H 0.21160 0.51240 0.48720
C70 C 0.2984(8) 0.4085(10) 0.5628(8)
H38 H 0.30920 0.37600 0.59070
C71 C 0.3398(8) 0.4346(8) 0.5317(7)
H39 H 0.38440 0.42330 0.53470
C72 C 0.3276(9) 0.5140(9) 0.4480(7)
H40 H 0.37470 0.52420 0.45860
H41 H 0.30360 0.55560 0.43900
C73 C 0.3153(8) 0.4683(8) 0.3971(7)
C74 C 0.3595(10) 0.4203(10) 0.3904(8)
H42 H 0.39840 0.41580 0.41750
C75 C 0.3484(10) 0.3786(10) 0.3448(8)
H43 H 0.38080 0.34810 0.33940
C76 C 0.2877(10) 0.3818(7) 0.3061(7)
C77 C 0.2438(9) 0.4301(9) 0.3136(7)
H44 H 0.20450 0.43450 0.28710
C78 C 0.2554(9) 0.4722(9) 0.3587(7)
H45 H 0.22350 0.50350 0.36380
C79 C 0.2738(10) 0.3325(10) 0.2571(8)
H46 H 0.26420 0.35650 0.22140
H47 H 0.31270 0.30470 0.25730
C80 C 0.2143(9) 0.2478(8) 0.3051(7)
H48 H 0.24990 0.23600 0.33360
C81 C 0.1527(11) 0.2948(9) 0.2311(8)
H49 H 0.13980 0.32180 0.19940
C82 C 0.1136(10) 0.2549(10) 0.2531(8)
H50 H 0.06840 0.24810 0.23970
C83 C 0.1297(9) 0.1854(10) 0.3392(8)
C84 C 0.0641(11) 0.1846(10) 0.3447(9)
H51 H 0.03240 0.20940 0.32030
C85 C 0.0459(9) 0.1463(10) 0.3873(8)
H52 H 0.00180 0.14500 0.39160
C86 C 0.0932(10) 0.1105(9) 0.4228(8)
H53 H 0.08220 0.08440 0.45170
C87 C 0.1587(9) 0.1143(9) 0.4145(7)
C88 C 0.2066(9) 0.0390(9) 0.4904(8)
H54 H 0.16610 0.02180 0.49570
C89 C 0.2798(9) 0.0958(10) 0.4565(8)
H55 H 0.29870 0.12510 0.43420
C90 C 0.3120(9) 0.0602(10) 0.5003(8)
H56 H 0.35770 0.05970 0.51370
C91 C 0.2777(11) -0.0142(10) 0.5757(7)
H57 H 0.32380 -0.02820 0.58440
H58 H 0.24990 -0.05390 0.57210
C92 C 0.2627(9) 0.0290(8) 0.6219(8)
C93 C 0.3095(12) 0.0781(12) 0.6465(10)
H59 H 0.35070 0.07950 0.63580
C94 C 0.2964(12) 0.1236(11) 0.6853(8)
H60 H 0.32760 0.15590 0.69980
C95 C 0.2374(10) 0.1209(10) 0.7022(7)
C96 C 0.1902(9) 0.0762(9) 0.6797(7)
H61 H 0.14870 0.07720 0.68980
C97 C 0.2040(11) 0.0291(10) 0.6414(8)
H62 H 0.17240 -0.00370 0.62850
C98 C 0.2216(10) 0.1774(9) 0.7429(7)
H63 H 0.20330 0.15780 0.77340
H64 H 0.26210 0.20090 0.75940
N1 N 0.1744(9) 0.2235(9) 0.7113(7)
N2 N 0.1318(8) 0.3041(9) 0.6539(7)
N3 N 0.1810(8) 0.3736(10) 0.5991(7)
N4 N 0.2369(6) 0.4384(7) 0.5462(6)
N5 N 0.3053(7) 0.4810(7) 0.4945(6)
N6 N 0.2158(8) 0.2895(7) 0.2628(5)
N7 N 0.1510(6) 0.2256(7) 0.2989(6)
N8 N 0.1763(7) 0.1516(7) 0.3747(5)
N9 N 0.2131(8) 0.0811(7) 0.4507(6)
N10 N 0.2647(9) 0.0238(8) 0.5222(6)
O22 O 0.3337(6) 0.2838(6) 0.6560(6)
O23 O -0.0548(6) 0.2616(6) 0.2388(5)
O24 O 0.3577(8) 0.2066(7) 0.3708(6)
O25 O 0.5617(8) -0.2437(7) 0.7137(6)
O26 O 0.0596(7) -0.0286(7) 0.4914(5)
O27 O -0.1078(8) 0.1137(8) 0.4189(8)
O28 O -0.0864(11) 0.3279(11) 0.3281(7)
O29 O 0.0681(10) 0.2128(10) 0.8384(10)
O30 O 0.4856(9) 0.5630(8) 0.5149(7)
O31 O 0.4603(18) 0.0039(15) 0.4752(15)
O32 O 0.4576(17) 0.1290(14) 0.4464(12)
O33 O 0.3949(10) 0.6268(12) 0.5696(9)
O34 O -0.0922(19) 0.656(2) 0.076(2)
O35 O 0.629(2) 1.094(2) 0.5128(18)
O36 O 0.847(3) 0.7927(18) 0.9866(15)
Pb1* Pb 0.64257(3) -0.28659(3) 0.90548(2)
Pb1A Pb 0.85743(3) 1.21341(3) 0.59452(2)
Pb3A Pb -0.30964(5) 0.81419(5) 0.04647(3)
Pb3A* Pb 0.69036(5) -0.18581(5) 1.04647(3)
O1A O 0.6743(6) 0.6197(6) 0.8561(6)
O11* O 0.5870(6) 0.8281(6) 0.9120(5)
O12A O -0.1467(6) 0.4099(6) 0.5373(5)
O20A O -0.1964(8) 0.2342(9) 0.3748(6)
#END
