
#######################################################################
#
#                 Cambridge Crystallographic Data Centre
#                                CCDC
#
#######################################################################
#
# If this CIF has been generated from an entry in the Cambridge
# Structural Database, then it will include bibliographic, chemical,
# crystal, experimental, refinement or atomic coordinate data resulting
# from the CCDC's data processing and validation procedures.
#
#######################################################################

data_CSD_CIF_OYUCER
_audit_creation_date 2011-11-21
_audit_creation_method CSD-ConQuest-V1
_database_code_CSD OYUCER
_database_code_depnum_ccdc_archive 'CCDC 724741'
_chemical_formula_sum 'C42 H66 Co3 N8 O36'
_chemical_formula_moiety
;
(H12 Co1 O6 2+)n,n(C42 H34 Co2 N8 O20 2-),10n(H2 O1)
;
_journal_coden_Cambridge 211
_journal_volume 64
_journal_year 2011
_journal_page_first 3465
_journal_name_full 'J.Coord.Chem. '
loop_
_publ_author_name
"Hongyan Lin"
"Bao Mu"
"Xiuli Wang"
_chemical_name_systematic
;
catena-[(Hexa-aqua-cobalt(ii)) 
bis(\m~2~-2,5-bis(4-pyridyl)-1,3,4-oxadiazole-N,N')-bis(benzene-1,3,5-tricarbo
xylato-O)-hexa-aqua-di-cobalt(ii) decahydrate]
;
_cell_volume   2858.909
_exptl_crystal_colour 'orange'
_exptl_crystal_density_diffrn 1.668
_exptl_crystal_description 'block'
_diffrn_ambient_temperature 186
#These two values have been output from a single CSD field.
_refine_ls_R_factor_gt 0.0392
_refine_ls_wR_factor_gt 0.0392
_symmetry_cell_setting monoclinic
_symmetry_space_group_name_H-M 'P 21/c'
_symmetry_Int_Tables_number 14
loop_
_symmetry_equiv_pos_site_id
_symmetry_equiv_pos_as_xyz
1 x,y,z
2 -x,1/2+y,1/2-z
3 -x,-y,-z
4 x,-1/2-y,-1/2+z
_cell_length_a 6.8766(4)
_cell_length_b 20.0531(12)
_cell_length_c 20.8273(12)
_cell_angle_alpha 90
_cell_angle_beta 95.478(1)
_cell_angle_gamma 90
_cell_formula_units_Z 2
loop_
_atom_type_symbol
_atom_type_radius_bond
C 0.68
H 0.23
Co 1.26
N 0.68
O 0.68
loop_
_atom_site_label
_atom_site_type_symbol
_atom_site_fract_x
_atom_site_fract_y
_atom_site_fract_z
Co1 Co 0.37180(6) 0.31244(2) 0.43659(2)
Co2 Co 0.50000 0.50000 0.00000
N1 N 0.2249(4) 0.40743(13) 0.43168(13)
N2 N -0.2938(4) 0.77560(13) 0.15999(13)
N3 N 0.0026(4) 0.65535(14) 0.43514(13)
N4 N -0.0711(4) 0.70794(14) 0.39542(13)
O1 O 0.6131(3) 0.36083(11) 0.40188(10)
O2 O 0.5209(3) 0.22041(12) 0.45014(10)
O3 O 0.0973(3) 0.27071(12) 0.45619(11)
O4 O 0.4576(3) 0.33463(11) 0.53407(10)
O5 O 0.5834(4) 0.23844(12) 0.57174(11)
O6 O 0.4657(4) 0.52833(12) 0.66942(12)
O7 O 0.5635(4) 0.52644(12) 0.77472(11)
O8 O 0.8041(3) 0.30394(11) 0.86977(10)
O9 O 0.7729(3) 0.21372(11) 0.80792(10)
O10 O 0.6256(4) 0.58050(13) 0.05276(13)
O11 O 0.4400(4) 0.45804(14) 0.08757(12)
O12 O 0.7665(4) 0.45407(13) 0.01006(12)
O13 O -0.0590(3) 0.61717(11) 0.33606(10)
C1 C 0.0111(5) 0.48384(17) 0.37103(16)
H1 H -0.08290 0.49160 0.33540
C2 C 0.0875(5) 0.42074(17) 0.38309(16)
H2 H 0.04060 0.38520 0.35570
C3 C 0.2804(5) 0.45786(16) 0.47197(16)
H3 H 0.37380 0.44870 0.50750
C4 C 0.2094(5) 0.52197(16) 0.46467(16)
H4 H 0.25130 0.55600 0.49460
C5 C 0.0744(5) 0.53547(16) 0.41204(15)
C6 C 0.0063(5) 0.60370(17) 0.39801(15)
C7 C -0.1032(5) 0.68330(16) 0.33828(15)
C8 C -0.1730(5) 0.71540(17) 0.27775(16)
C9 C -0.2290(5) 0.78212(17) 0.27516(16)
H5 H -0.22590 0.80810 0.31340
C10 C -0.2890(5) 0.80970(17) 0.21602(16)
H6 H -0.32900 0.85510 0.21460
C11 C -0.2424(5) 0.71108(17) 0.16388(15)
H7 H -0.24700 0.68610 0.12500
C12 C -0.1832(5) 0.67887(16) 0.22097(15)
H8 H -0.15030 0.63290 0.22140
C13 C 0.5788(5) 0.32887(16) 0.64472(15)
C14 C 0.5386(5) 0.39545(17) 0.65393(15)
H9 H 0.48630 0.42150 0.61830
C15 C 0.5734(5) 0.42534(17) 0.71456(15)
C16 C 0.6452(4) 0.38622(16) 0.76649(15)
H10 H 0.66670 0.40570 0.80810
C17 C 0.6861(4) 0.31871(16) 0.75849(15)
C18 C 0.6534(5) 0.29033(17) 0.69740(15)
H11 H 0.68200 0.24450 0.69150
C19 C 0.5390(5) 0.29832(16) 0.57868(15)
C20 C 0.5305(5) 0.49899(17) 0.71984(17)
C21 C 0.7597(5) 0.27559(16) 0.81567(15)
O14 O 1.0153(4) 0.57723(12) 0.09161(12)
O15 O 0.8510(4) 0.14119(13) 0.60247(12)
O16 O 0.2343(4) 0.60673(12) 0.77621(12)
O17 O 0.9693(4) 0.50497(15) 0.80361(14)
O18 O 0.2227(4) 0.34976(14) 0.06958(14)
H12 H 0.77240 0.17370 0.59600
H13 H 0.82640 0.13180 0.64060
H14 H 0.57280 0.21950 0.48890
H15 H 0.84430 0.44560 -0.01830
H16 H 0.00410 0.25560 0.43060
H17 H 0.45540 0.47310 0.12590
H18 H 0.23230 0.63880 0.74950
H19 H 0.33430 0.58190 0.77560
H20 H 0.58530 0.39600 0.38010
H21 H 0.81440 0.42510 0.03690
H22 H 0.67450 0.34080 0.37400
H23 H 0.56840 0.61780 0.04670
H24 H 1.04730 0.53510 0.79300
H25 H 0.85290 0.51740 0.79240
H26 H 0.74940 0.58230 0.05960
H27 H 0.62370 0.21430 0.43120
H28 H 0.03360 0.29510 0.48010
H29 H 0.19140 0.35500 0.02940
H30 H 0.37310 0.42240 0.08480
H31 H 1.07430 0.60990 0.11090
H32 H 0.10390 0.35130 0.07770
H33 H 1.06740 0.54990 0.11930
Co1A Co -0.37180(6) -0.18756(2) 0.06341(2)
Co1A* Co -0.37180(6) 0.81244(2) 0.06341(2)
N1A N -0.2249(4) -0.09257(13) 0.06832(13)
N2A N 0.2938(4) 0.27560(13) 0.34001(13)
N2* N -0.2938(4) -0.22440(13) 0.15999(13)
N3A N -0.0026(4) 0.15535(14) 0.06486(13)
N4A N 0.0711(4) 0.20794(14) 0.10458(13)
O1A O -0.6131(3) -0.13917(11) 0.09812(10)
O2A O -0.5209(3) -0.27959(12) 0.04986(10)
O3A O -0.0973(3) -0.22929(12) 0.04381(11)
O4A O -0.4576(3) -0.16537(11) -0.03407(10)
O5A O -0.5834(4) -0.26156(12) -0.07174(11)
O6A O -0.4657(4) 0.02833(12) -0.16942(12)
O7A O -0.5635(4) 0.02644(12) -0.27472(11)
O8A O -0.8041(3) -0.19606(11) -0.36977(10)
O9A O -0.7729(3) -0.28628(11) -0.30792(10)
O10B O 0.3744(4) 0.41950(13) -0.05276(13)
O11B O 0.5600(4) 0.54196(14) -0.08757(12)
O12B O 0.2335(4) 0.54593(13) -0.01006(12)
O13A O 0.0590(3) 0.11717(11) 0.16394(10)
C1A C -0.0111(5) -0.01616(17) 0.12897(16)
H1A H 0.08290 -0.00840 0.16460
C2A C -0.0875(5) -0.07926(17) 0.11691(16)
H2A H -0.04060 -0.11480 0.14430
C3A C -0.2804(5) -0.04214(16) 0.02803(16)
H3A H -0.37380 -0.05130 -0.00750
C4A C -0.2094(5) 0.02197(16) 0.03533(16)
H4A H -0.25130 0.05600 0.00540
C5A C -0.0744(5) 0.03547(16) 0.08796(15)
C6A C -0.0063(5) 0.10370(17) 0.10199(15)
C7A C 0.1032(5) 0.18330(16) 0.16172(15)
C8A C 0.1730(5) 0.21540(17) 0.22225(16)
C9A C 0.2290(5) 0.28212(17) 0.22484(16)
H5A H 0.22590 0.30810 0.18660
C10A C 0.2890(5) 0.30970(17) 0.28398(16)
H6A H 0.32900 0.35510 0.28540
C11A C 0.2424(5) 0.21108(17) 0.33612(15)
H7A H 0.24700 0.18610 0.37500
C12A C 0.1832(5) 0.17887(16) 0.27903(15)
H8A H 0.15030 0.13290 0.27860
C13A C -0.5788(5) -0.17113(16) -0.14472(15)
C14A C -0.5386(5) -0.10455(17) -0.15393(15)
H9A H -0.48630 -0.07850 -0.11830
C15A C -0.5734(5) -0.07466(17) -0.21456(15)
C16A C -0.6452(4) -0.11378(16) -0.26649(15)
H10A H -0.66670 -0.09430 -0.30810
C17A C -0.6861(4) -0.18129(16) -0.25849(15)
C18A C -0.6534(5) -0.20967(17) -0.19740(15)
H11A H -0.68200 -0.25550 -0.19150
C19A C -0.5390(5) -0.20168(16) -0.07868(15)
C20A C -0.5305(5) -0.00101(17) -0.21984(17)
C21A C -0.7597(5) -0.22441(16) -0.31567(15)
H14A H -0.57280 -0.28050 0.01110
H15B H 0.15570 0.55440 0.01830
H16A H -0.00410 -0.24440 0.06940
H17B H 0.54460 0.52690 -0.12590
H20A H -0.58530 -0.10400 0.11990
H21B H 0.18560 0.57490 -0.03690
H22A H -0.67450 -0.15920 0.12600
H23B H 0.43160 0.38220 -0.04670
H26B H 0.25060 0.41770 -0.05960
H27A H -0.62370 -0.28570 0.06880
H28A H -0.03360 -0.20490 0.01990
H30B H 0.62690 0.57760 -0.08480
#END
