
#######################################################################
#
#                 Cambridge Crystallographic Data Centre
#                                CCDC
#
#######################################################################
#
# If this CIF has been generated from an entry in the Cambridge
# Structural Database, then it will include bibliographic, chemical,
# crystal, experimental, refinement or atomic coordinate data resulting
# from the CCDC's data processing and validation procedures.
#
#######################################################################

data_CSD_CIF_OZATEQ
_audit_creation_date 2016-11-17
_audit_creation_method CSD-ConQuest-V1
_database_code_CSD OZATEQ
_database_code_depnum_ccdc_archive 'CCDC 1048090'
_chemical_formula_sum 'C16 H32 Co1 N2 O14'
_chemical_formula_moiety
;
C6 H18 N2 2+,n(C10 H10 Co1 O12 2-),2(H2 O1)
;
_journal_coden_Cambridge 1078
_journal_year 2016
_journal_name_full 'CSD Communication(Private Communication) '
loop_
_publ_author_name
"K.C.Joseph"
_chemical_name_systematic
;
catena-[(hexane-1,6-diaminium) 
(\m-benzene-1,2,4,5-tetracarboxylato)-tetra-aqua-cobalt(ii) dihydrate]
;
_cell_volume    574.093
_exptl_crystal_colour 'red'
_exptl_crystal_density_diffrn 1.549
_exptl_crystal_description 'block'
_diffrn_ambient_temperature 296
#These two values have been output from a single CSD field.
_refine_ls_R_factor_gt 0.0236
_refine_ls_wR_factor_gt 0.0236
_symmetry_cell_setting triclinic
_symmetry_space_group_name_H-M 'P -1'
_symmetry_Int_Tables_number 2
loop_
_symmetry_equiv_pos_site_id
_symmetry_equiv_pos_as_xyz
1 x,y,z
2 -x,-y,-z
_cell_length_a 7.7953(5)
_cell_length_b 7.8204(5)
_cell_length_c 10.7049(6)
_cell_angle_alpha 88.858(2)
_cell_angle_beta 74.860(2)
_cell_angle_gamma 66.290(2)
_cell_formula_units_Z 1
loop_
_atom_type_symbol
_atom_type_radius_bond
C 0.68
H 0.23
Co 1.26
N 0.68
O 0.68
loop_
_atom_site_label
_atom_site_type_symbol
_atom_site_fract_x
_atom_site_fract_y
_atom_site_fract_z
Co1 Co 0.50000 0.50000 0.50000
O1 O 0.21657(15) 0.31046(13) 0.66318(8)
O2 O 0.42735(12) 0.29997(12) 0.43005(8)
O3 O -0.20153(15) 0.59626(14) 0.72479(9)
O4 O 0.71667(14) 0.27697(13) 0.56815(9)
O5 O 0.30590(13) 0.54300(13) 0.68509(8)
C1 C -0.18405(16) 0.49794(16) 1.03566(11)
O6 O -0.23968(18) 0.34261(17) 0.79996(10)
C2 C 0.21580(16) 0.44304(16) 0.72766(10)
C3 C -0.08534(16) 0.47945(15) 0.90459(10)
C4 C 0.09995(16) 0.48056(15) 0.86873(10)
C5 C -0.18327(17) 0.47008(17) 0.80142(11)
H1 H 0.831(2) 0.249(3) 0.5175(18)
H2 H 0.726(3) 0.295(3) 0.6439(16)
H3 H 0.350(3) 0.336(3) 0.3815(18)
H4 H 0.354(3) 0.282(3) 0.4989(15)
H5 H -0.306(2) 0.500(2) 1.0607(15)
C6 C 0.2061(2) -0.0356(2) 0.85445(15)
H6 H 0.20660 -0.15280 0.88600
H7 H 0.09310 0.06650 0.90930
N1 N 0.19381(19) -0.02962(17) 0.71796(13)
C7 C 0.3901(2) -0.0185(2) 0.86194(15)
H8 H 0.50210 -0.12490 0.81060
H9 H 0.39300 0.09410 0.82360
C8 C 0.4077(3) -0.0102(2) 0.99884(16)
H10 H 0.395(3) -0.114(3) 1.034(2)
H11 H 0.288(3) 0.095(3) 1.050(2)
H12 H 0.180(3) 0.094(3) 0.695(2)
H13 H 0.301(3) -0.113(3) 0.667(2)
H14 H 0.087(3) -0.051(3) 0.709(2)
O7 O -0.07926(17) 0.87032(17) 0.63019(14)
H15 H -0.176(3) 0.963(2) 0.626(2)
H16 H -0.118(3) 0.788(3) 0.666(2)
O1A O -0.21657(15) 0.68954(13) 1.33682(8)
O3A O 0.20153(15) 0.40374(14) 1.27521(9)
O5A O -0.30590(13) 0.45700(13) 1.31491(8)
C1A C 0.18405(16) 0.50206(16) 0.96434(11)
O6A O 0.23968(18) 0.65739(17) 1.20004(10)
C2A C -0.21580(16) 0.55696(16) 1.27234(10)
C3A C 0.08534(16) 0.52055(15) 1.09541(10)
C4A C -0.09995(16) 0.51944(15) 1.13127(10)
C5A C 0.18327(17) 0.52992(17) 1.19858(11)
H5A H 0.306(2) 0.500(2) 0.9393(15)
O2A O 0.57265(12) 0.70003(12) 0.56995(8)
H3A H 0.650(3) 0.664(3) 0.6185(18)
H4A H 0.646(3) 0.718(3) 0.5011(15)
O4A O 0.28333(14) 0.72303(13) 0.43185(9)
H1A H 0.169(2) 0.751(3) 0.4825(18)
H2A H 0.274(3) 0.705(3) 0.3561(16)
Co1* Co -0.50000 0.50000 1.50000
O5A* O 0.69410(13) 0.45700(13) 0.31491(8)
C6A C 0.7939(2) 0.0356(2) 1.14555(15)
H6A H 0.79340 0.15280 1.11400
H7A H 0.90690 -0.06650 1.09070
N1A N 0.80619(19) 0.02962(17) 1.28204(13)
C7A C 0.6099(2) 0.0185(2) 1.13806(15)
H8A H 0.49790 0.12490 1.18940
H9A H 0.60700 -0.09410 1.17640
C8A C 0.5923(3) 0.0102(2) 1.00116(16)
H10A H 0.605(3) 0.114(3) 0.966(2)
H11A H 0.712(3) -0.095(3) 0.950(2)
H12A H 0.820(3) -0.094(3) 1.305(2)
H13A H 0.699(3) 0.113(3) 1.333(2)
H14A H 0.913(3) 0.051(3) 1.291(2)
#END
