
#######################################################################
#
#                 Cambridge Crystallographic Data Centre
#                                CCDC
#
#######################################################################
#
# If this CIF has been generated from an entry in the Cambridge
# Structural Database, then it will include bibliographic, chemical,
# crystal, experimental, refinement or atomic coordinate data resulting
# from the CCDC's data processing and validation procedures.
#
#######################################################################

data_CSD_CIF_OZEZIF
_audit_creation_date 2021-08-11
_audit_creation_method CSD-ConQuest-V1
_database_code_CSD OZEZIF
_database_code_depnum_ccdc_archive 'CCDC 2052456'
_chemical_formula_sum 'C42 H32 N4 O10 Zn1'
_chemical_formula_moiety
;
C26 H20 N4 2+,n(C16 H8 O8 Zn1 2-),2(H2 O1)
;
_journal_coden_Cambridge 440
_journal_year 2021
_journal_name_full 'New J.Chem. '
loop_
_publ_author_name
"Heyi Zhang"
"Fangyuan He"
"Xiaonan Li"
"Zhihui Wang"
"Hong Zhang"
_chemical_name_systematic
;
catena-[1,1'-bis[(3-cyanophenyl)methyl]-4,4'-bipyridin-1-ium 
bis(\m-benzene-1,3-dicarboxylato)-zinc(ii) dihydrate]
;
_cell_volume   3813.584
_exptl_crystal_colour 'colorless'
_exptl_crystal_density_diffrn 1.425
_exptl_crystal_description 'block'
_diffrn_ambient_temperature 297.2
#These two values have been output from a single CSD field.
_refine_ls_R_factor_gt 0.0376
_refine_ls_wR_factor_gt 0.0376
_symmetry_cell_setting monoclinic
_symmetry_space_group_name_H-M 'C 2/c'
_symmetry_Int_Tables_number 15
loop_
_symmetry_equiv_pos_site_id
_symmetry_equiv_pos_as_xyz
1 x,y,z
2 -x,y,1/2-z
3 1/2+x,1/2+y,z
4 1/2-x,1/2+y,1/2-z
5 -x,-y,-z
6 x,-y,-1/2+z
7 -1/2-x,-1/2-y,-z
8 -1/2+x,-1/2-y,-1/2+z
_cell_length_a 21.270(2)
_cell_length_b 12.2947(12)
_cell_length_c 14.7085(12)
_cell_angle_alpha 90
_cell_angle_beta 97.489(3)
_cell_angle_gamma 90
_cell_formula_units_Z 4
loop_
_atom_type_symbol
_atom_type_radius_bond
C 0.68
H 0.23
N 0.68
O 0.68
Zn 1.22
loop_
_atom_site_label
_atom_site_type_symbol
_atom_site_fract_x
_atom_site_fract_y
_atom_site_fract_z
Zn1 Zn 0.50000 0.01994(3) 0.75000
O1 O 0.54513(8) 0.05769(14) 0.35369(10)
O2 O 0.55137(9) 0.10038(15) 0.67303(11)
O3 O 0.60312(10) 0.23265(17) 0.75269(11)
C1 C 0.61134(10) 0.19061(17) 0.43079(14)
O4 O 0.59653(11) 0.16609(18) 0.26947(11)
C2 C 0.59127(10) 0.16126(16) 0.51324(13)
H1 H 0.56137 0.10616 0.51389
C3 C 0.61464(11) 0.21197(18) 0.59474(14)
C4 C 0.58274(11) 0.13494(19) 0.34334(14)
C5 C 0.58865(12) 0.1802(2) 0.68162(14)
C6 C 0.65666(13) 0.2714(2) 0.43037(17)
H2 H 0.67064 0.29206 0.37560
C7 C 0.68089(15) 0.3207(2) 0.51107(19)
H3 H 0.71165 0.37439 0.51051
C8 C 0.66031(13) 0.2921(2) 0.59325(17)
H4 H 0.67709 0.32644 0.64733
N1 N 0.94204(8) 0.73391(13) 0.48270(11)
C9 C 0.98769(9) 0.94365(17) 0.49636(13)
C10 C 0.84750(11) 0.61508(17) 0.47201(15)
C11 C 0.91813(11) 0.61944(17) 0.47628(15)
H5 H 0.93733 0.57874 0.52923
H6 H 0.93058 0.58542 0.42187
C12 C 0.81982(11) 0.60490(18) 0.55114(17)
H7 H 0.84491 0.60083 0.60775
C13 C 0.97432(11) 0.88633(19) 0.57252(14)
H8 H 0.98092 0.91895 0.63002
C14 C 0.95160(11) 0.78265(19) 0.56426(14)
H9 H 0.94268 0.74550 0.61614
C15 C 0.95448(14) 0.78612(19) 0.40759(15)
H10 H 0.94746 0.75145 0.35098
C16 C 0.97745(14) 0.89011(19) 0.41298(15)
H11 H 0.98628 0.92522 0.36009
C17 C 0.75406(13) 0.6007(2) 0.5459(2)
C18 C 0.80937(15) 0.6218(2) 0.38836(19)
H12 H 0.82771 0.62793 0.33454
C19 C 0.74428(17) 0.6193(3) 0.3847(3)
H13 H 0.71894 0.62574 0.32849
C20 C 0.72461(16) 0.5884(3) 0.6277(3)
C21 C 0.71683(15) 0.6075(3) 0.4625(3)
H14 H 0.67292 0.60398 0.45927
N2 N 0.69938(18) 0.5772(3) 0.6904(3)
O5 O 0.58998(12) 0.4654(3) 0.76165(19)
H15 H 0.618(2) 0.518(3) 0.751(4)
H16 H 0.604(5) 0.3962(15) 0.744(8)
O1A O 0.45487(8) 0.05769(14) 1.14631(10)
O2A O 0.44863(9) 0.10038(15) 0.82697(11)
O3A O 0.39688(10) 0.23265(17) 0.74731(11)
C1A C 0.38866(10) 0.19061(17) 1.06921(14)
O4A O 0.40347(11) 0.16609(18) 1.23053(11)
C2A C 0.40873(10) 0.16126(16) 0.98676(13)
H1A H 0.43863 0.10616 0.98611
C3A C 0.38536(11) 0.21197(18) 0.90526(14)
C4A C 0.41726(11) 0.13494(19) 1.15666(14)
C5A C 0.41135(12) 0.1802(2) 0.81838(14)
C6A C 0.34334(13) 0.2714(2) 1.06963(17)
H2A H 0.32936 0.29206 1.12440
C7A C 0.31911(15) 0.3207(2) 0.98893(19)
H3A H 0.28835 0.37439 0.98949
C8A C 0.33969(13) 0.2921(2) 0.90675(17)
H4A H 0.32291 0.32644 0.85267
Zn1D Zn 0.50000 -0.01994(3) 0.25000
Zn1D* Zn 0.50000 -0.01994(3) 1.25000
O1D O 0.45487(8) -0.05769(14) 0.64631(10)
O1E O 0.54513(8) -0.05769(14) 0.85369(10)
N1D N 1.05796(8) 1.26609(13) 0.51730(11)
C9D C 1.01231(9) 1.05635(17) 0.50364(13)
C10D C 1.15250(11) 1.38492(17) 0.52799(15)
C11D C 1.08187(11) 1.38056(17) 0.52372(15)
H5D H 1.06267 1.42126 0.47077
H6D H 1.06942 1.41458 0.57813
C12D C 1.18018(11) 1.39510(18) 0.44886(17)
H7D H 1.15509 1.39917 0.39225
C13D C 1.02568(11) 1.11367(19) 0.42748(14)
H8D H 1.01908 1.08105 0.36998
C14D C 1.04840(11) 1.21735(19) 0.43574(14)
H9D H 1.05732 1.25450 0.38386
C15D C 1.04552(14) 1.21388(19) 0.59241(15)
H10D H 1.05254 1.24855 0.64902
C16D C 1.02255(14) 1.10989(19) 0.58702(15)
H11D H 1.01372 1.07478 0.63991
C17D C 1.24594(13) 1.3993(2) 0.4541(2)
C18D C 1.19063(15) 1.3782(2) 0.61164(19)
H12D H 1.17229 1.37207 0.66546
C19D C 1.25572(17) 1.3807(3) 0.6153(3)
H13D H 1.28106 1.37426 0.67151
C20D C 1.27539(16) 1.4116(3) 0.3723(3)
C21D C 1.28317(15) 1.3925(3) 0.5375(3)
H14D H 1.32708 1.39602 0.54073
N2D N 1.30062(18) 1.4228(3) 0.3096(3)
#END
