
#######################################################################
#
#                 Cambridge Crystallographic Data Centre
#                                CCDC
#
#######################################################################
#
# If this CIF has been generated from an entry in the Cambridge
# Structural Database, then it will include bibliographic, chemical,
# crystal, experimental, refinement or atomic coordinate data resulting
# from the CCDC's data processing and validation procedures.
#
#######################################################################

data_CSD_CIF_PABRAO
_audit_creation_date 2015-12-17
_audit_creation_method CSD-ConQuest-V1
_database_code_CSD PABRAO
_database_code_depnum_ccdc_archive 'CCDC 1042604'
_chemical_formula_sum 'C40 H25 K1 N1 O8 S4'
_chemical_formula_moiety
;
(C34 H18 K1 O8 S4 1-)n,0.5(C12 H14 N2 2+)
;
_journal_coden_Cambridge 772
_journal_volume 11
_journal_year 2015
_journal_page_first 3597
_journal_name_full 'Small '
loop_
_publ_author_name
"Zhong-Peng Lv"
"Bin Chen"
"Hai-Ying Wang"
"Yue Wu"
"Jing-Lin Zuo"
_chemical_name_systematic
;
catena-[hemikis(1,1'-dimethyl-4,4'-bipyridinium) 
(\m-4-(2-(4-(4-carboxylatophenyl)-5-(4-carboxyphenyl)-1,3-dithiol-2-ylidene)-5
-(4-carboxyphenyl)-1,3-dithiol-4-yl)benzoato)-potassium unknown solvate]
;
_cell_volume   2087.570
_exptl_crystal_colour 'colorless'
_exptl_crystal_density_diffrn 1.296
_exptl_crystal_description 'block'
_diffrn_ambient_temperature 296
_refine_special_details
;
The SQUEEZE/PLATON program has been used to model some disorder.

;
#These two values have been output from a single CSD field.
_refine_ls_R_factor_gt 0.0761
_refine_ls_wR_factor_gt 0.0761
_symmetry_cell_setting triclinic
_symmetry_space_group_name_H-M 'P -1'
_symmetry_Int_Tables_number 2
loop_
_symmetry_equiv_pos_site_id
_symmetry_equiv_pos_as_xyz
1 x,y,z
2 -x,-y,-z
_cell_length_a 10.4237(3)
_cell_length_b 12.8040(4)
_cell_length_c 16.7787(6)
_cell_angle_alpha 78.048(3)
_cell_angle_beta 78.155(2)
_cell_angle_gamma 74.867(3)
_cell_formula_units_Z 2
loop_
_atom_type_symbol
_atom_type_radius_bond
C 0.68
H 0.23
K 2.03
N 0.68
O 0.68
S 1.02
loop_
_atom_site_label
_atom_site_type_symbol
_atom_site_fract_x
_atom_site_fract_y
_atom_site_fract_z
C1 C 0.3223(6) 0.9173(4) 0.6270(3)
C2 C 0.3870(6) 0.9448(4) 0.6893(3)
C3 C 0.4889(7) 0.8695(4) 0.7237(4)
H1 H 0.51460 0.79910 0.71060
C4 C 0.5541(7) 0.8972(5) 0.7776(4)
H2 H 0.62510 0.84550 0.79870
C5 C 0.5159(5) 1.0005(4) 0.8010(3)
C6 C 0.4090(5) 1.0748(4) 0.7676(3)
H3 H 0.37820 1.14380 0.78320
C7 C 0.3487(5) 1.0473(4) 0.7120(3)
H4 H 0.28000 1.09940 0.68890
C8 C 0.5861(5) 1.0278(4) 0.8587(3)
C9 C 0.5961(5) 1.1285(4) 0.8670(3)
C10 C 0.5500(5) 1.2366(4) 0.8156(3)
C11 C 0.5919(6) 1.2558(4) 0.7312(3)
H5 H 0.64940 1.19970 0.70500
C12 C 0.5490(6) 1.3571(4) 0.6857(4)
H6 H 0.57700 1.36890 0.62900
C13 C 0.4642(6) 1.4421(4) 0.7239(4)
C14 C 0.4244(6) 1.4232(4) 0.8079(4)
H7 H 0.36870 1.47960 0.83440
C15 C 0.4661(6) 1.3217(4) 0.8532(4)
H8 H 0.43750 1.31020 0.90990
C16 C 0.4210(7) 1.5520(4) 0.6737(4)
C17 C 0.7209(6) 0.9954(4) 0.9794(3)
C18 C 0.8000(6) 0.9473(4) 1.0380(3)
C19 C 0.9342(5) 0.8092(4) 1.1442(3)
C20 C 0.9909(5) 0.6998(4) 1.1886(3)
C21 C 0.9101(7) 0.6239(5) 1.2206(4)
H9 H 0.81900 0.64420 1.21630
C22 C 0.9632(7) 0.5207(5) 1.2581(4)
H10 H 0.90830 0.47130 1.27870
C23 C 1.0989(7) 0.4889(4) 1.2658(4)
C24 C 1.1775(6) 0.5628(4) 1.2345(4)
H11 H 1.26850 0.54250 1.23890
C25 C 1.1247(6) 0.6667(5) 1.1966(4)
H12 H 1.18040 0.71550 1.17590
C26 C 1.1602(9) 0.3760(5) 1.3074(4)
C27 C 0.9419(5) 0.9084(4) 1.1560(3)
C28 C 0.9999(5) 0.9359(4) 1.2203(3)
C29 C 1.0079(6) 0.8693(4) 1.2971(3)
H13 H 0.97970 0.80390 1.30770
C30 C 1.0566(6) 0.8986(4) 1.3574(3)
H14 H 1.06230 0.85180 1.40760
C31 C 1.0977(6) 0.9964(4) 1.3451(3)
C32 C 1.0889(7) 1.0635(5) 1.2689(4)
H15 H 1.11650 1.12920 1.25870
C33 C 1.0398(6) 1.0346(4) 1.2080(4)
H16 H 1.03330 1.08170 1.15800
C34 C 1.1485(6) 1.0271(4) 1.4108(4)
K1 K 0.2397(6) 0.7194(4) 0.4980(3)
O1 O 0.2725(4) 0.9997(3) 0.5757(2)
O2 O 0.3199(4) 0.8223(3) 0.6258(2)
O3 O 0.4311(5) 1.5666(3) 0.5985(3)
O4 O 0.3698(6) 1.6307(3) 0.7169(3)
H17 H 0.36010 1.68990 0.68600
O5 O 1.0762(6) 0.3107(3) 1.3241(4)
H18 H 1.11730 0.24720 1.33640
O6 O 1.2712(6) 0.3526(4) 1.3254(3)
O7 O 1.1774(5) 0.9505(3) 1.4705(3)
O8 O 1.1614(6) 1.1200(3) 1.4076(3)
S1 S 0.65444(15) 0.91779(10) 0.93065(9)
S2 S 0.67705(15) 1.13615(10) 0.94684(9)
S3 S 0.86292(15) 1.02308(10) 1.09064(9)
S4 S 0.84488(16) 0.80637(10) 1.06751(9)
C35 C 0.2958(8) 0.4082(6) 0.5150(5)
H19 H 0.37500 0.42870 0.51520
C36 C 0.1827(8) 0.4858(6) 0.5099(5)
H20 H 0.18310 0.55850 0.50940
C37 C 0.0627(7) 0.4578(5) 0.5053(4)
C38 C 0.0707(8) 0.3467(5) 0.5128(4)
H21 H -0.00650 0.32300 0.51310
C39 C 0.1861(8) 0.2730(5) 0.5196(4)
H22 H 0.18770 0.19900 0.52430
C40 C 0.4269(8) 0.2214(6) 0.5220(5)
H23 H 0.41340 0.15040 0.52110
H24 H 0.46050 0.21980 0.57150
H25 H 0.49090 0.24090 0.47480
N1 N 0.2991(6) 0.3025(4) 0.5198(3)
K1* K 0.2397(6) 1.7194(4) 0.4980(3)
K1** K 1.2397(6) 0.7194(4) 1.4980(3)
O3* O 0.4311(5) 0.5666(3) 0.5985(3)
O7* O 0.1774(5) 0.9505(3) 0.4705(3)
C35A C -0.2958(8) 0.5918(6) 0.4850(5)
H19A H -0.37500 0.57130 0.48480
C36A C -0.1827(8) 0.5142(6) 0.4901(5)
H20A H -0.18310 0.44150 0.49060
C37A C -0.0627(7) 0.5422(5) 0.4947(4)
C38A C -0.0707(8) 0.6533(5) 0.4872(4)
H21A H 0.00650 0.67700 0.48690
C39A C -0.1861(8) 0.7270(5) 0.4804(4)
H22A H -0.18770 0.80100 0.47570
C40A C -0.4269(8) 0.7786(6) 0.4780(5)
H23A H -0.41340 0.84960 0.47890
H24A H -0.46050 0.78020 0.42850
H25A H -0.49090 0.75910 0.52520
N1A N -0.2991(6) 0.6975(4) 0.4802(3)
C1A C -0.3223(6) 0.0827(4) 0.3730(3)
C2A C -0.3870(6) 0.0552(4) 0.3107(3)
C3A C -0.4889(7) 0.1305(4) 0.2763(4)
H1A H -0.51460 0.20090 0.28940
C4A C -0.5541(7) 0.1028(5) 0.2224(4)
H2A H -0.62510 0.15450 0.20130
C5A C -0.5159(5) -0.0005(4) 0.1990(3)
C6A C -0.4090(5) -0.0748(4) 0.2324(3)
H3A H -0.37820 -0.14380 0.21680
C7A C -0.3487(5) -0.0473(4) 0.2880(3)
H4A H -0.28000 -0.09940 0.31110
C8A C -0.5861(5) -0.0278(4) 0.1413(3)
C9A C -0.5961(5) -0.1285(4) 0.1330(3)
C10A C -0.5500(5) -0.2366(4) 0.1844(3)
C11A C -0.5919(6) -0.2558(4) 0.2688(3)
H5A H -0.64940 -0.19970 0.29500
C12A C -0.5490(6) -0.3571(4) 0.3143(4)
H6A H -0.57700 -0.36890 0.37100
C13A C -0.4642(6) -0.4421(4) 0.2761(4)
C14A C -0.4244(6) -0.4232(4) 0.1921(4)
H7A H -0.36870 -0.47960 0.16560
C15A C -0.4661(6) -0.3217(4) 0.1468(4)
H8A H -0.43750 -0.31020 0.09010
C16A C -0.4210(7) -0.5520(4) 0.3263(4)
C17A C -0.7209(6) 0.0046(4) 0.0206(3)
C18A C -0.8000(6) 0.0527(4) -0.0380(3)
C19A C -0.9342(5) 0.1908(4) -0.1442(3)
C20A C -0.9909(5) 0.3002(4) -0.1886(3)
C21A C -0.9101(7) 0.3761(5) -0.2206(4)
H9A H -0.81900 0.35580 -0.21630
C22A C -0.9632(7) 0.4793(5) -0.2581(4)
H10A H -0.90830 0.52870 -0.27870
C23A C -1.0989(7) 0.5111(4) -0.2658(4)
C24A C -1.1775(6) 0.4372(4) -0.2345(4)
H11A H -1.26850 0.45750 -0.23890
C25A C -1.1247(6) 0.3333(5) -0.1966(4)
H12A H -1.18040 0.28450 -0.17590
C26A C -1.1602(9) 0.6240(5) -0.3074(4)
C27A C -0.9419(5) 0.0916(4) -0.1560(3)
C28A C -0.9999(5) 0.0641(4) -0.2203(3)
C29A C -1.0079(6) 0.1307(4) -0.2971(3)
H13A H -0.97970 0.19610 -0.30770
C30A C -1.0566(6) 0.1014(4) -0.3574(3)
H14A H -1.06230 0.14820 -0.40760
C31A C -1.0977(6) 0.0036(4) -0.3451(3)
C32A C -1.0889(7) -0.0635(5) -0.2689(4)
H15A H -1.11650 -0.12920 -0.25870
C33A C -1.0398(6) -0.0346(4) -0.2080(4)
H16A H -1.03330 -0.08170 -0.15800
C34A C -1.1485(6) -0.0271(4) -0.4108(4)
K1A K -0.2397(6) 0.2806(4) 0.5020(3)
O1A O -0.2725(4) 0.0003(3) 0.4243(2)
O2A O -0.3199(4) 0.1777(3) 0.3742(2)
O3A O -0.4311(5) -0.5666(3) 0.4015(3)
O4A O -0.3698(6) -0.6307(3) 0.2831(3)
H17A H -0.36010 -0.68990 0.31400
O5A O -1.0762(6) 0.6893(3) -0.3241(4)
H18A H -1.11730 0.75280 -0.33640
O6A O -1.2712(6) 0.6474(4) -0.3254(3)
O7A O -1.1774(5) 0.0495(3) -0.4705(3)
O8A O -1.1614(6) -0.1200(3) -0.4076(3)
S1A S -0.65444(15) 0.08221(10) 0.06935(9)
S2A S -0.67705(15) -0.13615(10) 0.05316(9)
S3A S -0.86292(15) -0.02308(10) -0.09064(9)
S4A S -0.84488(16) 0.19363(10) -0.06751(9)
K1A* K -1.2397(6) 0.2806(4) -0.4980(3)
K1A** K -0.2397(6) -0.7194(4) 0.5020(3)
O3A* O -0.4311(5) 0.4334(3) 0.4015(3)
O7A* O -0.1774(5) 0.0495(3) 0.5295(3)
#END
