
#######################################################################
#
#                 Cambridge Crystallographic Data Centre
#                                CCDC
#
#######################################################################
#
# If this CIF has been generated from an entry in the Cambridge
# Structural Database, then it will include bibliographic, chemical,
# crystal, experimental, refinement or atomic coordinate data resulting
# from the CCDC's data processing and validation procedures.
#
#######################################################################

data_CSD_CIF_PABRES
_audit_creation_date 2015-12-17
_audit_creation_method CSD-ConQuest-V1
_database_code_CSD PABRES
_database_code_depnum_ccdc_archive 'CCDC 1042605'
_chemical_formula_sum 'C30 H42 K2 N2 O20 S4'
_chemical_formula_moiety
;
(C18 H16 K2 O14 S4 2-)n,C12 H14 N2 2+,6(H2 O1)
;
_journal_coden_Cambridge 772
_journal_volume 11
_journal_year 2015
_journal_page_first 3597
_journal_name_full 'Small '
loop_
_publ_author_name
"Zhong-Peng Lv"
"Bin Chen"
"Hai-Ying Wang"
"Yue Wu"
"Jing-Lin Zuo"
_chemical_name_systematic
;
catena-[1,1'-dimethyl-4,4'-bipyridinium 
(\m-4,4'-(2-(4,5-bis(4-carboxylatophenyl)-2H-1,3-dithiol-2-ylidene)-2H-1,3-dit
hiole-4,5-diyl)dibenzoato)-tetrakis(\m-aqua)-diaqua-di-potassium hexahydrate]
;
_cell_volume   8155.171
_exptl_crystal_colour 'green'
_exptl_crystal_density_diffrn 1.559
_exptl_crystal_description 'needle'
_diffrn_ambient_temperature 296
#These two values have been output from a single CSD field.
_refine_ls_R_factor_gt 0.0395
_refine_ls_wR_factor_gt 0.0395
_symmetry_cell_setting orthorhombic
_symmetry_space_group_name_H-M 'F d d 2'
_symmetry_Int_Tables_number 43
loop_
_symmetry_equiv_pos_site_id
_symmetry_equiv_pos_as_xyz
1 x,y,z
2 -x,-y,z
3 1/4+x,1/4-y,1/4+z
4 1/4-x,1/4+y,1/4+z
5 x,1/2+y,1/2+z
6 -x,1/2-y,1/2+z
7 1/4+x,3/4-y,3/4+z
8 1/4-x,3/4+y,3/4+z
9 1/2+x,y,1/2+z
10 1/2-x,-y,1/2+z
11 3/4+x,1/4-y,3/4+z
12 3/4-x,1/4+y,3/4+z
13 1/2+x,1/2+y,z
14 1/2-x,1/2-y,z
15 3/4+x,3/4-y,1/4+z
16 3/4-x,3/4+y,1/4+z
_cell_length_a 28.524(7)
_cell_length_b 41.512(11)
_cell_length_c 6.8873(18)
_cell_angle_alpha 90
_cell_angle_beta 90
_cell_angle_gamma 90
_cell_formula_units_Z 8
loop_
_atom_type_symbol
_atom_type_radius_bond
C 0.68
H 0.23
K 2.03
N 0.68
O 0.68
S 1.02
loop_
_atom_site_label
_atom_site_type_symbol
_atom_site_fract_x
_atom_site_fract_y
_atom_site_fract_z
S1 S 0.55287(2) 0.461922(14) 0.60192(14)
S2 S 0.44869(2) 0.460671(14) 0.61383(12)
K1 K 0.51496(3) 0.268938(18) 0.87705(15)
C1 C 0.55172(8) 0.39548(6) 0.6308(5)
H1 H 0.58430 0.39590 0.62240
O1 O 0.47064(7) 0.30919(4) 0.6325(4)
C2 C 0.45407(9) 0.39429(6) 0.6543(4)
H2 H 0.42150 0.39400 0.66080
C3 C 0.47929(9) 0.36564(5) 0.6653(4)
C4 C 0.55813(9) 0.33592(6) 0.6620(4)
C5 C 0.52828(9) 0.36602(5) 0.6512(4)
O2 O 0.56362(7) 0.32344(5) 0.8255(3)
O3 O 0.57769(9) 0.32700(5) 0.5073(4)
C6 C 0.45215(9) 0.33442(6) 0.6894(4)
O4 O 0.41154(7) 0.33673(5) 0.7602(4)
O5 O 0.42647(11) 0.23983(6) 0.9899(6)
H3 H 0.41480 0.22080 0.98650
H4 H 0.41020 0.25590 1.02940
C7 C 0.50027(10) 0.48378(5) 0.6074(5)
C8 C 0.47763(9) 0.42340(6) 0.6337(4)
C9 C 0.52651(8) 0.42401(5) 0.6232(5)
O6 O 0.59102(9) 0.24411(6) 1.0658(5)
H5 H 0.59890 0.25530 1.16480
H6 H 0.58120 0.22480 1.07610
O7 O 0.50576(11) 0.20761(8) 0.7265(6)
H7 H 0.52340 0.19480 0.78920
H8 H 0.51380 0.20770 0.60770
C10 C 0.51422(9) 0.45574(7) 0.1157(5)
H9 H 0.54680 0.45670 0.11120
C11 C 0.49258(10) 0.42634(7) 0.1246(6)
H10 H 0.51050 0.40760 0.12670
C12 C 0.48843(8) 0.48401(7) 0.1132(5)
N1 N 0.44539(8) 0.42438(6) 0.1305(4)
C13 C 0.43957(10) 0.48109(7) 0.1170(5)
H11 H 0.42100 0.49950 0.11400
C14 C 0.41901(10) 0.45143(7) 0.1251(5)
H12 H 0.38650 0.44980 0.12700
C15 C 0.42264(12) 0.39221(7) 0.1448(6)
H13 H 0.41680 0.38400 0.01680
H14 H 0.39350 0.39420 0.21350
H15 H 0.44290 0.37770 0.21340
O8 O 0.59773(9) 0.19742(6) 0.6107(5)
H16 H 0.61720 0.19250 0.70230
H17 H 0.59800 0.18810 0.50160
O9 O 0.64147(8) 0.16520(6) 0.9097(4)
H18 H 0.65120 0.14710 0.86780
H19 H 0.62850 0.16800 1.01890
O10 O 0.69414(11) 0.10997(6) 0.9121(5)
H20 H 0.67920 0.10100 1.00820
H21 H 0.69760 0.09840 0.80740
S1A S 0.44713(2) 0.538078(14) 0.60192(14)
S2A S 0.55131(2) 0.539329(14) 0.61383(12)
C1A C 0.44828(8) 0.60452(6) 0.6308(5)
H1A H 0.41570 0.60410 0.62240
O1A O 0.52936(7) 0.69081(4) 0.6325(4)
C2A C 0.54593(9) 0.60571(6) 0.6543(4)
H2A H 0.57850 0.60600 0.66080
C3A C 0.52071(9) 0.63436(5) 0.6653(4)
C4A C 0.44187(9) 0.66408(6) 0.6620(4)
C5A C 0.47172(9) 0.63398(5) 0.6512(4)
O2A O 0.43638(7) 0.67656(5) 0.8255(3)
O3A O 0.42231(9) 0.67300(5) 0.5073(4)
C6A C 0.54785(9) 0.66558(6) 0.6894(4)
O4A O 0.58846(7) 0.66327(5) 0.7602(4)
C7A C 0.49973(10) 0.51622(5) 0.6074(5)
C8A C 0.52237(9) 0.57660(6) 0.6337(4)
C9A C 0.47349(8) 0.57599(5) 0.6232(5)
K1A K 0.48504(3) 0.731062(18) 0.87705(15)
O5A O 0.57353(11) 0.76017(6) 0.9899(6)
H3A H 0.58520 0.77920 0.98650
H4A H 0.58980 0.74410 1.02940
O6A O 0.40898(9) 0.75589(6) 1.0658(5)
H5A H 0.40110 0.74470 1.16480
H6A H 0.41880 0.77520 1.07610
O7A O 0.49424(11) 0.79239(8) 0.7265(6)
H7A H 0.47660 0.80520 0.78920
H8A H 0.48620 0.79230 0.60770
K1D K 0.51496(3) 0.768938(18) 0.37705(15)
K1D* K 0.51496(3) 0.768938(18) 1.37705(15)
K1E K 0.48504(3) 0.231062(18) 0.37705(15)
K1E* K 0.48504(3) 0.231062(18) 1.37705(15)
O5D O 0.42647(11) 0.73983(6) 0.4899(6)
O5E O 0.57353(11) 0.26017(6) 0.4899(6)
O7D O 0.50576(11) 0.70761(8) 1.2265(6)
O7E O 0.49424(11) 0.29239(8) 1.2265(6)
C10A C 0.48578(9) 0.54426(7) 0.1157(5)
H9A H 0.45320 0.54330 0.11120
C11A C 0.50742(10) 0.57366(7) 0.1246(6)
H10A H 0.48950 0.59240 0.12670
C12A C 0.51157(8) 0.51599(7) 0.1132(5)
N1A N 0.55461(8) 0.57562(6) 0.1305(4)
C13A C 0.56043(10) 0.51891(7) 0.1170(5)
H11A H 0.57900 0.50050 0.11400
C14A C 0.58099(10) 0.54857(7) 0.1251(5)
H12A H 0.61350 0.55020 0.12700
C15A C 0.57736(12) 0.60779(7) 0.1448(6)
H13A H 0.58320 0.61600 0.01680
H14A H 0.60650 0.60580 0.21350
H15A H 0.55710 0.62230 0.21340
#END
