
#######################################################################
#
#                 Cambridge Crystallographic Data Centre
#                                CCDC
#
#######################################################################
#
# If this CIF has been generated from an entry in the Cambridge
# Structural Database, then it will include bibliographic, chemical,
# crystal, experimental, refinement or atomic coordinate data resulting
# from the CCDC's data processing and validation procedures.
#
#######################################################################

data_CSD_CIF_PACGOS
_audit_creation_date 2015-12-17
_audit_creation_method CSD-ConQuest-V1
_database_code_CSD PACGOS
_database_code_depnum_ccdc_archive 'CCDC 1432698'
_chemical_formula_sum 'C41 H37 Cl3 N4 O6 Th1'
_chemical_formula_moiety
;
(C27 H15 Cl3 O6 Th1 2-)n,2n(C7 H11 N2 1+)
;
_journal_coden_Cambridge 222
_journal_volume 45
_journal_year 2016
_journal_page_first 918
_journal_name_full 'Dalton Trans. '
loop_
_publ_author_name
"Yuxiang Li"
"Zhehui Weng"
"Yanlong Wang"
"Lanhua Chen"
"Daopeng Sheng"
"Juan Diwu"
"Zhifang Chai"
"T.E.Albrecht-Schmitt"
"Shuao Wang"
_chemical_name_systematic
;
catena-[bis(1-allyl-3-methyl-1H-imidazol-3-ium) 
(\m-1,3,5-tris(4-benzoato)benzene)-trichloro-thorium]
;
_cell_volume   4001.328
_exptl_crystal_colour 'colorless'
_exptl_crystal_density_diffrn 1.693
_exptl_crystal_description 'bulk'
_diffrn_ambient_temperature 123
_diffrn_special_details
;
twin

;
#These two values have been output from a single CSD field.
_refine_ls_R_factor_gt 0.061
_refine_ls_wR_factor_gt 0.061
_symmetry_cell_setting monoclinic
_symmetry_space_group_name_H-M 'P 21/c'
_symmetry_Int_Tables_number 14
loop_
_symmetry_equiv_pos_site_id
_symmetry_equiv_pos_as_xyz
1 x,y,z
2 -x,1/2+y,1/2-z
3 -x,-y,-z
4 x,-1/2-y,-1/2+z
_cell_length_a 17.273(2)
_cell_length_b 15.263(2)
_cell_length_c 17.298(2)
_cell_angle_alpha 90
_cell_angle_beta 118.669(3)
_cell_angle_gamma 90
_cell_formula_units_Z 4
loop_
_atom_type_symbol
_atom_type_radius_bond
C 0.68
H 0.23
Cl 0.99
N 0.68
O 0.68
Th 2.06
loop_
_atom_site_label
_atom_site_type_symbol
_atom_site_fract_x
_atom_site_fract_y
_atom_site_fract_z
Th1 Th 0.71782(2) 1.08494(3) 0.77262(2)
C1 C 0.3873(5) 1.0757(7) 0.5394(5)
H1 H 0.41950 1.04570 0.51580
C2 C 0.2958(5) 1.0744(7) 0.4949(6)
H2 H 0.26560 1.04250 0.44140
C3 C 0.2472(5) 1.1200(6) 0.5284(5)
C4 C 0.2929(5) 1.1664(7) 0.6064(6)
H3 H 0.26100 1.19860 0.62890
C5 C 0.3844(5) 1.1666(7) 0.6521(6)
H4 H 0.41460 1.19760 0.70610
C6 C 0.1493(5) 1.1167(6) 0.4798(5)
C7 C 0.5308(5) 1.1155(7) 0.6704(5)
C8 C 0.4322(5) 1.1212(7) 0.6187(5)
C9 C 0.0119(5) 1.1128(6) 0.3418(5)
C10 C -0.0365(5) 1.1108(6) 0.2437(5)
Cl1 Cl 0.73717(19) 1.2663(2) 0.7683(2)
Cl2 Cl 0.7517(3) 0.9200(3) 0.7355(3)
Cl3 Cl 0.63657(19) 0.9707(4) 0.8416(2)
O1 O 0.5716(3) 1.0671(5) 0.6426(4)
O2 O 0.5719(4) 1.1560(5) 0.7418(4)
C11 C 0.0081(5) 1.1198(6) 0.4815(5)
C12 C -0.1162(5) 1.1562(6) 0.1985(5)
H5 H -0.13840 1.18950 0.22990
C13 C -0.1317(5) 1.1042(5) 0.0603(5)
C14 C -0.0421(5) 1.1221(6) 0.5307(5)
C15 C -0.0521(6) 1.0592(7) 0.1056(5)
H6 H -0.03040 1.02550 0.07390
C16 C 0.1009(5) 1.1208(6) 0.5249(5)
H7 H 0.13180 1.12450 0.58740
C17 C -0.0048(5) 1.0635(7) 0.1962(5)
H8 H 0.05010 1.03380 0.22640
C18 C -0.0343(5) 1.1165(6) 0.3895(5)
H9 H -0.09700 1.11680 0.35820
C19 C -0.1621(5) 1.1522(6) 0.1077(5)
H10 H -0.21620 1.18330 0.07710
C20 C 0.1053(5) 1.1120(6) 0.3881(5)
H11 H 0.13780 1.10820 0.35680
C21 C -0.1810(5) 1.1017(6) -0.0374(5)
C22 C -0.1330(5) 1.1327(7) 0.4884(6)
H12 H -0.16360 1.14270 0.42670
C23 C -0.0005(6) 1.1106(8) 0.6218(6)
H13 H 0.06180 1.10350 0.65330
C24 C -0.1802(5) 1.1289(7) 0.5349(5)
H14 H -0.24270 1.13420 0.50390
C25 C -0.1385(5) 1.1178(6) 0.6239(5)
C26 C -0.1892(5) 1.1115(5) 0.6732(5)
C27 C -0.0473(6) 1.1094(9) 0.6669(6)
H15 H -0.01680 1.10270 0.72910
O3 O -0.2711(3) 1.1145(4) 0.6345(4)
O4 O -0.1462(4) 1.1048(6) 0.7580(4)
O5 O -0.1535(4) 1.0561(4) -0.0800(4)
O6 O -0.2519(5) 1.1440(6) -0.0783(4)
N1 N 0.5641(7) 0.3475(9) 0.8575(9)
C28 C 0.4993(10) 0.3642(13) 0.8789(14)
H16 H 0.46030 0.41290 0.85900
C29 C 0.6000(7) 0.2731(9) 0.8906(10)
H17 H 0.64430 0.24490 0.88200
N2 N 0.5636(8) 0.2409(9) 0.9410(11)
C30 C 0.5960(14) 0.4073(14) 0.8096(15)
H18 H 0.55890 0.45990 0.79020
H19 H 0.65730 0.42420 0.84920
H20 H 0.59260 0.37690 0.75820
C31 C 0.4994(11) 0.3017(14) 0.9318(16)
H21 H 0.46270 0.29870 0.95860
C32 C 0.5906(14) 0.1712(13) 1.0086(13)
H22 H 0.62250 0.20180 1.06590
H23 H 0.63550 0.13640 1.00220
C33 C 0.5318(19) 0.1041(19) 1.021(2)
H24 H 0.50240 0.05630 0.98280
C34 C 0.529(3) 0.122(3) 1.087(2)
H25 H 0.56060 0.17100 1.12080
H26 H 0.49520 0.08680 1.10480
N3 N 0.8960(7) 0.6552(7) 0.5259(9)
N4 N 0.7939(7) 0.6577(8) 0.5623(8)
C35 C 0.8723(8) 0.6785(9) 0.6363(11)
H27 H 0.88060 0.69220 0.69330
C36 C 0.9340(9) 0.6752(9) 0.6108(12)
H28 H 0.99520 0.68560 0.64760
C37 C 0.8132(9) 0.6421(9) 0.4960(11)
H29 H 0.77240 0.62450 0.43770
C38 C 0.7091(10) 0.6463(15) 0.5591(12)
H30 H 0.66360 0.63270 0.49800
H31 H 0.69200 0.70120 0.57730
C39 C 0.9450(12) 0.6473(11) 0.4767(14)
H32 H 0.90420 0.63210 0.41530
H33 H 0.97400 0.70310 0.47870
H34 H 0.98970 0.60120 0.50320
C40 C 0.7144(14) 0.5721(18) 0.6201(15)
H35 H 0.72870 0.51520 0.60830
C41 C 0.7020(17) 0.580(2) 0.6816(17)
H36 H 0.68760 0.63630 0.69530
H37 H 0.70640 0.53120 0.71710
Th1* Th -0.28218(2) 1.08494(3) -0.22738(2)
Th1** Th -0.28218(2) 1.08494(3) 0.77262(2)
O3* O 0.7289(3) 1.1145(4) 0.6345(4)
O4* O 0.8538(4) 1.1048(6) 0.7580(4)
O5* O 0.8465(4) 1.0561(4) 0.9200(4)
O6* O 0.7481(5) 1.1440(6) 0.9217(4)
#END
