
#######################################################################
#
#                 Cambridge Crystallographic Data Centre
#                                CCDC
#
#######################################################################
#
# If this CIF has been generated from an entry in the Cambridge
# Structural Database, then it will include bibliographic, chemical,
# crystal, experimental, refinement or atomic coordinate data resulting
# from the CCDC's data processing and validation procedures.
#
#######################################################################

data_CSD_CIF_PACGIM
_audit_creation_date 2015-12-17
_audit_creation_method CSD-ConQuest-V1
_database_code_CSD PACGIM
_database_code_depnum_ccdc_archive 'CCDC 1423712'
_chemical_formula_sum 'C83 H106 N10 O34 Th2'
_chemical_formula_moiety
;
(C63 H40 N3 O20 Th2 1-)n,n(C2 H8 N1 1+),6n(C3 H7 N1 O1),8n(H2 O1)
;
_journal_coden_Cambridge 222
_journal_volume 45
_journal_year 2016
_journal_page_first 918
_journal_name_full 'Dalton Trans. '
loop_
_publ_author_name
"Yuxiang Li"
"Zhehui Weng"
"Yanlong Wang"
"Lanhua Chen"
"Daopeng Sheng"
"Juan Diwu"
"Zhifang Chai"
"T.E.Albrecht-Schmitt"
"Shuao Wang"
_chemical_name_systematic
;
catena-[dimethylammonium 
tris(\m-4,4',4''-nitrilotribenzoato)-diaqua-di-thorium N,N-dimethylformamide 
solvate octahydrate]
;
_cell_volume  15126.796
_exptl_crystal_colour 'claybank'
_exptl_crystal_description 'cubic'
_diffrn_ambient_temperature 123
_refine_special_details
;
Disordered dimethylammonium ions and solvent molecules were not modelled and 
the disordered density was taken into account using the SQUEEZE/PLATON 
procedure.
;
#These two values have been output from a single CSD field.
_refine_ls_R_factor_gt 0.0242
_refine_ls_wR_factor_gt 0.0242
_symmetry_cell_setting rhombohedral
_symmetry_space_group_name_H-M 'R -3 c'
_symmetry_Int_Tables_number 167
loop_
_symmetry_equiv_pos_site_id
_symmetry_equiv_pos_as_xyz
1 x,y,z
2 -y,x-y,z
3 -x+y,-x,z
4 y,x,1/2-z
5 x-y,-y,1/2-z
6 -x,-x+y,1/2-z
7 2/3+x,1/3+y,1/3+z
8 2/3-y,1/3+x-y,1/3+z
9 2/3-x+y,1/3-x,1/3+z
10 2/3+y,1/3+x,5/6-z
11 2/3+x-y,1/3-y,5/6-z
12 2/3-x,1/3-x+y,5/6-z
13 1/3+x,2/3+y,2/3+z
14 1/3-y,2/3+x-y,2/3+z
15 1/3-x+y,2/3-x,2/3+z
16 1/3+y,2/3+x,1/6-z
17 1/3+x-y,2/3-y,1/6-z
18 1/3-x,2/3-x+y,1/6-z
19 -x,-y,-z
20 y,-x+y,-z
21 x-y,x,-z
22 -y,-x,-1/2+z
23 -x+y,y,-1/2+z
24 x,x-y,-1/2+z
25 -2/3-x,-1/3-y,-1/3-z
26 -2/3+y,-1/3-x+y,-1/3-z
27 -2/3+x-y,-1/3+x,-1/3-z
28 -2/3-y,-1/3-x,-5/6+z
29 -2/3-x+y,-1/3+y,-5/6+z
30 -2/3+x,-1/3+x-y,-5/6+z
31 -1/3-x,-2/3-y,-2/3-z
32 -1/3+y,-2/3-x+y,-2/3-z
33 -1/3+x-y,-2/3+x,-2/3-z
34 -1/3-y,-2/3-x,-1/6+z
35 -1/3-x+y,-2/3+y,-1/6+z
36 -1/3+x,-2/3+x-y,-1/6+z
_cell_length_a 24.8612(19)
_cell_length_b 24.8612(19)
_cell_length_c 28.260(4)
_cell_angle_alpha 90
_cell_angle_beta 90
_cell_angle_gamma 120
_cell_formula_units_Z 6
loop_
_atom_type_symbol
_atom_type_radius_bond
C 0.68
H 0.23
N 0.68
O 0.68
Th 2.06
loop_
_atom_site_label
_atom_site_type_symbol
_atom_site_fract_x
_atom_site_fract_y
_atom_site_fract_z
Th1 Th 0.66670 0.33330 -0.01223(2)
O1 O 0.61050(12) 0.38978(11) -0.05093(9)
C1 C 0.65485(16) 0.50075(16) -0.05072(13)
C2 C 0.65348(16) 0.61110(17) -0.07154(15)
C3 C 0.65703(17) 0.44269(16) -0.04123(12)
N1 N 0.65388(16) 0.66670 -0.08330
C4 C 0.70427(16) 0.61315(16) -0.04778(15)
H1 H 0.73830 0.65200 -0.03830
C5 C 0.70469(17) 0.55828(16) -0.03808(14)
H2 H 0.73960 0.56030 -0.02260
C6 C 0.60260(18) 0.55327(18) -0.08258(17)
H3 H 0.56730 0.55110 -0.09750
C7 C 0.59620(19) 0.66670 -0.08330
C8 C 0.60293(18) 0.49873(17) -0.07205(15)
H4 H 0.56760 0.45970 -0.07940
C9 C 0.55899(17) 0.64881(19) -0.04314(15)
H5 H 0.57210 0.63680 -0.01550
O2 O 0.70557(12) 0.44675(11) -0.02334(10)
C10 C 0.48318(18) 0.66670 -0.08330
C11 C 0.50258(17) 0.64836(18) -0.04292(14)
H6 H 0.47730 0.63560 -0.01530
C12 C 0.42288(16) 0.66670 -0.08330
O3 O 0.38812(10) 0.64411(10) -0.04766(8)
O4 O 0.66670 0.33330 -0.10313(19)
O1J O 0.887387(120) 0.943553(110) -0.115737(90)
C1J C 0.820767(160) 0.832583(160) -0.115947(130)
C2J C 0.709047(160) 0.722233(170) -0.095127(150)
C3J C 0.881007(170) 0.890643(160) -0.125437(120)
C4J C 0.757787(160) 0.720183(160) -0.118887(150)
H1J H 0.75297 0.68133 -0.12837
C5J C 0.813077(170) 0.775053(160) -0.128587(140)
H2J H 0.84597 0.77303 -0.14407
C6J C 0.715997(180) 0.780063(180) -0.084087(170)
H3J H 0.68287 0.78223 -0.06917
C8J C 0.770867(180) 0.834603(170) -0.094617(150)
H4J H 0.77457 0.87363 -0.08727
C9J C 0.576847(170) 0.684523(190) -0.123527(150)
H5J H 0.60197 0.69653 -0.15117
O2J O 0.925487(120) 0.886583(110) -0.143327(100)
C11J C 0.520887(170) 0.684973(180) -0.123747(140)
H6J H 0.50837 0.69773 -0.15137
O3J O 0.410677(100) 0.689223(100) -0.119007(80)
O1A O 0.61022(12) 0.22072(11) -0.05093(9)
C1A C 0.49925(16) 0.15410(16) -0.05072(13)
C2A C 0.38890(16) 0.04238(17) -0.07154(15)
C3A C 0.55731(17) 0.21434(16) -0.04123(12)
N1A N 0.33330(16) -0.01282 -0.08330
C4A C 0.38685(16) 0.09112(16) -0.04778(15)
H1A H 0.34800 0.08630 -0.03830
C5A C 0.44172(17) 0.14641(16) -0.03808(14)
H2A H 0.43970 0.17930 -0.02260
C6A C 0.44673(18) 0.04933(18) -0.08258(17)
H3A H 0.44890 0.01620 -0.09750
C7A C 0.33330(19) -0.07050 -0.08330
C8A C 0.50127(18) 0.10420(17) -0.07205(15)
H4A H 0.54030 0.10790 -0.07940
C9A C 0.35119(17) -0.08982(19) -0.04314(15)
H5A H 0.36320 -0.06470 -0.01550
O2A O 0.55325(12) 0.25882(11) -0.02334(10)
C10A C 0.33330(18) -0.18352 -0.08330
C11A C 0.35164(17) -0.14578(18) -0.04292(14)
H6A H 0.36440 -0.15830 -0.01530
C12A C 0.33330(16) -0.24382 -0.08330
O3A O 0.35589(10) -0.25599(10) -0.04766(8)
O1I O 0.056447(120) -0.056167(110) -0.115737(90)
C1I C 0.167417(160) -0.011817(160) -0.115947(130)
C2I C 0.277767(160) -0.013187(170) -0.095127(150)
C3I C 0.109357(170) -0.009637(160) -0.125437(120)
C4I C 0.279817(160) 0.037603(160) -0.118887(150)
H1I H 0.31867 0.07163 -0.12837
C5I C 0.224947(170) 0.038023(160) -0.128587(140)
H2I H 0.22697 0.07293 -0.14407
C6I C 0.219937(180) -0.064067(180) -0.084087(170)
H3I H 0.21777 -0.09937 -0.06917
C8I C 0.165397(180) -0.063737(170) -0.094617(150)
H4I H 0.12637 -0.09907 -0.08727
C9I C 0.315477(170) -0.107677(190) -0.123527(150)
H5I H 0.30347 -0.09457 -0.15117
O2I O 0.113417(120) 0.038903(110) -0.143327(100)
C11I C 0.315027(170) -0.164087(180) -0.123747(140)
H6I H 0.30227 -0.18937 -0.15137
O3I O 0.310777(100) -0.278547(100) -0.119007(80)
O1B O 0.77928(12) 0.38950(11) -0.05093(9)
C1B C 0.84590(16) 0.34515(16) -0.05072(13)
C2B C 0.95762(16) 0.34652(17) -0.07154(15)
C3B C 0.78566(17) 0.34297(16) -0.04123(12)
N1B N 1.01282(16) 0.34612 -0.08330
C4B C 0.90888(16) 0.29573(16) -0.04778(15)
H1B H 0.91370 0.26170 -0.03830
C5B C 0.85359(17) 0.29531(16) -0.03808(14)
H2B H 0.82070 0.26040 -0.02260
C6B C 0.95067(18) 0.39740(18) -0.08258(17)
H3B H 0.98380 0.43270 -0.09750
C7B C 1.07050(19) 0.40380 -0.08330
C8B C 0.89580(18) 0.39707(17) -0.07205(15)
H4B H 0.89210 0.43240 -0.07940
C9B C 1.08982(17) 0.44101(19) -0.04314(15)
H5B H 1.06470 0.42790 -0.01550
O2B O 0.74118(12) 0.29443(11) -0.02334(10)
C10B C 1.18352(18) 0.51682 -0.08330
C11B C 1.14578(17) 0.49742(18) -0.04292(14)
H6B H 1.15830 0.52270 -0.01530
C12B C 1.24382(16) 0.57712 -0.08330
O3B O 1.25599(10) 0.61188(10) -0.04766(8)
O1K O 1.056167(120) 0.112613(110) -0.115737(90)
C1K C 1.011817(160) 0.179233(160) -0.115947(130)
C2K C 1.013187(160) 0.290953(170) -0.095127(150)
C3K C 1.009637(170) 0.118993(160) -0.125437(120)
C4K C 0.962397(160) 0.242213(160) -0.118887(150)
H1K H 0.92837 0.24703 -0.12837
C5K C 0.961977(170) 0.186923(160) -0.128587(140)
H2K H 0.92707 0.15403 -0.14407
C6K C 1.064067(180) 0.284003(180) -0.084087(170)
H3K H 1.09937 0.31713 -0.06917
C8K C 1.063737(180) 0.229133(170) -0.094617(150)
H4K H 1.09907 0.22543 -0.08727
C9K C 1.107677(170) 0.423153(190) -0.123527(150)
H5K H 1.09457 0.39803 -0.15117
O2K O 0.961097(120) 0.074513(110) -0.143327(100)
C11K C 1.164087(170) 0.479113(180) -0.123747(140)
H6K H 1.18937 0.49163 -0.15137
O3K O 1.278547(100) 0.589323(100) -0.119007(80)
Th1R Th 0.33330 0.66670 0.01223(2)
O4R O 0.33330 0.66670 0.10313(19)
Th1I Th -0.00003 0.00003 -0.154437(20)
Th1I* Th 0.99997 0.00003 -0.154437(20)
Th1I** Th 0.99997 1.00003 -0.154437(20)
Th1R* Th 0.33330 -0.33330 0.01223(2)
Th1R** Th 1.33330 0.66670 0.01223(2)
Th1GA Th 0.33337 -0.33337 -0.178897(20)
Th1GA* Th 0.33337 0.66663 -0.178897(20)
Th1GA** Th 1.33337 0.66663 -0.178897(20)
O1R O 0.38950(12) 0.61022(11) 0.05093(9)
O1S O 0.38978(12) 0.77928(11) 0.05093(9)
O1T O 0.22072(12) 0.61050(11) 0.05093(9)
O2R O 0.29443(12) 0.55325(11) 0.02334(10)
O2S O 0.44675(12) 0.74118(11) 0.02334(10)
O2T O 0.25882(12) 0.70557(11) 0.02334(10)
O3A* O 0.35589(10) 0.74401(10) -0.04766(8)
O3B* O 0.25599(10) 0.61188(10) -0.04766(8)
O3R O 0.61188(10) 0.35589(10) 0.04766(8)
O3S O 0.64411(10) 0.25599(10) 0.04766(8)
O3T O 0.74401(10) 0.38812(10) 0.04766(8)
#END
