
#######################################################################
#
#                 Cambridge Crystallographic Data Centre
#                                CCDC
#
#######################################################################
#
# If this CIF has been generated from an entry in the Cambridge
# Structural Database, then it will include bibliographic, chemical,
# crystal, experimental, refinement or atomic coordinate data resulting
# from the CCDC's data processing and validation procedures.
#
#######################################################################

data_CSD_CIF_PADJEK01
_audit_creation_date 2005-01-06
_audit_creation_method CSD-ConQuest-V1
_database_code_CSD PADJEK01
_database_code_depnum_ccdc_archive 'CCDC 234549'
_chemical_formula_sum 'C4 H9 Mn1 N1 O6'
_chemical_formula_moiety
;
(C1 H6 N1 1+)n,n(C3 H3 Mn1 O6 1-)
;
_journal_coden_Cambridge 222
_journal_year 2004
_journal_page_first 2209
_journal_name_full 'Dalton Trans. '
loop_
_publ_author_name
"Zheming Wang"
"Bin Zhang"
"T.Otsuka"
"K.Inoue"
"H.Kobayashi"
"M.Kurmoo"
_chemical_name_systematic
;
catena-(Methylammonium tris(\m~2~-formato)-manganese(ii))
;
_cell_volume    847.076
_exptl_crystal_colour 'colorless'
_exptl_crystal_density_diffrn 1.741
_exptl_crystal_description 'block'
_diffrn_ambient_temperature 290
#These two values have been output from a single CSD field.
_refine_ls_R_factor_gt 0.0352
_refine_ls_wR_factor_gt 0.0352
_symmetry_cell_setting orthorhombic
_symmetry_space_group_name_H-M 'P n m a'
_symmetry_Int_Tables_number 62
loop_
_symmetry_equiv_pos_site_id
_symmetry_equiv_pos_as_xyz
1 x,y,z
2 1/2-x,-y,1/2+z
3 -x,1/2+y,-z
4 1/2+x,1/2-y,1/2-z
5 -x,-y,-z
6 -1/2+x,y,-1/2-z
7 x,-1/2-y,z
8 -1/2-x,-1/2+y,-1/2+z
_cell_length_a 8.679(2)
_cell_length_b 11.955(3)
_cell_length_c 8.164(2)
_cell_angle_alpha 90
_cell_angle_beta 90
_cell_angle_gamma 90
_cell_formula_units_Z 4
loop_
_atom_type_symbol
_atom_type_radius_bond
C 0.68
H 0.23
Mn 1.35
N 0.68
O 0.68
loop_
_atom_site_label
_atom_site_type_symbol
_atom_site_fract_x
_atom_site_fract_y
_atom_site_fract_z
Mn1 Mn 0.00000 -0.50000 0.00000
O1 O 0.09951(17) -0.42999(15) 0.2224(2)
O2 O 0.27585(16) -0.43567(15) 0.4179(2)
O3 O -0.03427(18) -0.65763(15) 0.1306(2)
C1 C 0.2191(3) -0.4671(2) 0.2845(3)
C2 C -0.0172(4) -0.75000 0.0631(5)
H1 H 0.267(2) -0.528(2) 0.229(3)
H2 H 0.000(3) -0.75000 -0.065(5)
C3 C -0.0777(6) -0.25000 0.4781(6)
N1 N 0.0837(4) -0.25000 0.5240(4)
H3 H 0.093(6) -0.25000 0.631(3)
H4 H 0.133(5) -0.310(2) 0.493(5)
H5 H -0.095(6) -0.25000 0.362(3)
H6 H -0.130(4) -0.313(3) 0.520(4)
O2E O -0.22415(16) -0.43567(15) 0.0821(2)
Mn1E Mn 0.50000 -0.50000 0.50000
Mn1E* Mn 0.50000 -0.50000 -0.50000
O1A O 0.40049(17) -0.57001(15) -0.2776(2)
C1A C 0.2809(3) -0.5329(2) -0.2155(3)
O2A O 0.22415(16) -0.56433(15) -0.0821(2)
O1D O -0.09951(17) -0.57001(15) -0.2224(2)
O3F O -0.03427(18) -0.84237(15) 0.1306(2)
Mn1F Mn 0.00000 -1.00000 0.00000
O3D O 0.03427(18) -0.34237(15) -0.1306(2)
H1A H 0.233(2) -0.472(2) -0.271(3)
H4F H 0.133(5) -0.190(2) 0.493(5)
H6F H -0.130(4) -0.187(3) 0.520(4)
#END
