
#######################################################################
#
#                 Cambridge Crystallographic Data Centre
#                                CCDC
#
#######################################################################
#
# If this CIF has been generated from an entry in the Cambridge
# Structural Database, then it will include bibliographic, chemical,
# crystal, experimental, refinement or atomic coordinate data resulting
# from the CCDC's data processing and validation procedures.
#
#######################################################################

data_CSD_CIF_PADJOU01
_audit_creation_date 2005-01-06
_audit_creation_method CSD-ConQuest-V1
_database_code_CSD PADJOU01
_database_code_depnum_ccdc_archive 'CCDC 234551'
_chemical_formula_sum 'C5 H11 Mn1 N1 O6'
_chemical_formula_moiety
;
(C2 H8 N1 1+)n,n(C3 H3 Mn1 O6 1-)
;
_journal_coden_Cambridge 222
_journal_year 2004
_journal_page_first 2209
_journal_name_full 'Dalton Trans. '
loop_
_publ_author_name
"Zheming Wang"
"Bin Zhang"
"T.Otsuka"
"K.Inoue"
"H.Kobayashi"
"M.Kurmoo"
_chemical_name_systematic
;
catena-(Ethylammonium tris(\m~2~-formato)-manganese(ii))
;
_cell_volume    897.922
_exptl_crystal_colour 'colorless'
_exptl_crystal_density_diffrn 1.746
_exptl_crystal_description 'block'
_diffrn_ambient_temperature 290
#These two values have been output from a single CSD field.
_refine_ls_R_factor_gt 0.025
_refine_ls_wR_factor_gt 0.025
_symmetry_cell_setting orthorhombic
_symmetry_space_group_name_H-M 'P n a 21'
_symmetry_Int_Tables_number 33
loop_
_symmetry_equiv_pos_site_id
_symmetry_equiv_pos_as_xyz
1 x,y,z
2 -x,-y,1/2+z
3 1/2+x,1/2-y,z
4 1/2-x,1/2+y,1/2+z
_cell_length_a 9.0860(11)
_cell_length_b 8.2152(11)
_cell_length_c 12.0295(16)
_cell_angle_alpha 90
_cell_angle_beta 90
_cell_angle_gamma 90
_cell_formula_units_Z 4
loop_
_atom_type_symbol
_atom_type_radius_bond
C 0.68
H 0.23
Mn 1.35
N 0.68
O 0.68
loop_
_atom_site_label
_atom_site_type_symbol
_atom_site_fract_x
_atom_site_fract_y
_atom_site_fract_z
Mn1 Mn 0.02840(3) -0.00272(5) -0.50014(6)
O1 O -0.18138(14) 0.09910(19) -0.43658(12)
O2 O -0.35262(16) 0.2915(2) -0.43721(13)
O3 O -0.08363(17) -0.21919(19) -0.56361(12)
O4 O -0.26196(15) -0.40312(19) -0.56623(14)
O5 O 0.04636(18) -0.1288(2) -0.33896(13)
O6 O 0.00966(18) -0.1223(2) -0.15705(14)
C1 C -0.2363(2) 0.2301(3) -0.47090(18)
H1 H -0.18550 0.28560 -0.52620
C2 C -0.1963(3) -0.2823(3) -0.52730(19)
H2 H -0.23700 -0.23520 -0.46410
C3 C 0.0128(3) -0.0581(3) -0.2500(3)
H3 H -0.01170 0.05160 -0.25440
N1 N -0.3743(3) -0.0292(3) -0.2682(2)
H4 H -0.33810 0.00050 -0.20250
H5 H -0.31470 0.00530 -0.32190
H6 H -0.38140 -0.13720 -0.27100
C4 C -0.5221(3) 0.0438(4) -0.2833(3)
H7 H -0.51300 0.16140 -0.28470
H8 H -0.56180 0.00940 -0.35440
C5 C -0.6253(4) -0.0034(4) -0.1942(4)
H9 H -0.64970 -0.11650 -0.20160
H10 H -0.71320 0.06090 -0.19980
H11 H -0.58000 0.01490 -0.12320
O2B O 0.14738(16) 0.2085(2) -0.43721(13)
O4B O 0.23804(15) -0.09688(19) -0.56623(14)
O6A O -0.00966(18) 0.1223(2) -0.65705(14)
Mn1B Mn -0.47160(3) 0.50272(5) -0.50014(6)
Mn1B* Mn -0.47160(3) -0.49728(5) -0.50014(6)
Mn1A Mn -0.02840(3) 0.00272(5) -0.00014(6)
#END
