
#######################################################################
#
#                 Cambridge Crystallographic Data Centre
#                                CCDC
#
#######################################################################
#
# If this CIF has been generated from an entry in the Cambridge
# Structural Database, then it will include bibliographic, chemical,
# crystal, experimental, refinement or atomic coordinate data resulting
# from the CCDC's data processing and validation procedures.
#
#######################################################################

data_CSD_CIF_PADJEK
_audit_creation_date 2005-01-06
_audit_creation_method CSD-ConQuest-V1
_database_code_CSD PADJEK
_database_code_depnum_ccdc_archive 'CCDC 234550'
_chemical_formula_sum 'C4 H9 Mn1 N1 O6'
_chemical_formula_moiety
;
(C1 H6 N1 1+)n,n(C3 H3 Mn1 O6 1-)
;
_journal_coden_Cambridge 222
_journal_year 2004
_journal_page_first 2209
_journal_name_full 'Dalton Trans. '
loop_
_publ_author_name
"Zheming Wang"
"Bin Zhang"
"T.Otsuka"
"K.Inoue"
"H.Kobayashi"
"M.Kurmoo"
_chemical_name_systematic
;
catena-(Methylammonium tris(\m~2~-formato)-manganese(ii))
;
_cell_volume    841.628
_exptl_crystal_colour 'colorless'
_exptl_crystal_density_diffrn 1.752
_exptl_crystal_description 'block'
_diffrn_ambient_temperature 180
#These two values have been output from a single CSD field.
_refine_ls_R_factor_gt 0.0643
_refine_ls_wR_factor_gt 0.0643
_symmetry_cell_setting orthorhombic
_symmetry_space_group_name_H-M 'P n m a'
_symmetry_Int_Tables_number 62
loop_
_symmetry_equiv_pos_site_id
_symmetry_equiv_pos_as_xyz
1 x,y,z
2 1/2-x,-y,1/2+z
3 -x,1/2+y,-z
4 1/2+x,1/2-y,1/2-z
5 -x,-y,-z
6 -1/2+x,y,-1/2-z
7 x,-1/2-y,z
8 -1/2-x,-1/2+y,-1/2+z
_cell_length_a 8.567(4)
_cell_length_b 11.934(5)
_cell_length_c 8.232(3)
_cell_angle_alpha 90
_cell_angle_beta 90
_cell_angle_gamma 90
_cell_formula_units_Z 4
loop_
_atom_type_symbol
_atom_type_radius_bond
C 0.68
H 0.23
Mn 1.35
N 0.68
O 0.68
loop_
_atom_site_label
_atom_site_type_symbol
_atom_site_fract_x
_atom_site_fract_y
_atom_site_fract_z
Mn1 Mn 0.00000 -0.50000 0.00000
O1 O 0.0981(3) -0.4280(2) 0.2201(3)
O2 O 0.2725(3) -0.4362(2) 0.4195(2)
O3 O -0.0324(3) -0.6575(2) 0.1317(3)
C1 C 0.2185(4) -0.4662(3) 0.2839(4)
C2 C -0.0173(5) -0.75000 0.0631(7)
H1 H 0.269(5) -0.529(4) 0.225(5)
H2 H -0.004(5) -0.75000 -0.066(7)
C3 C -0.0799(8) -0.25000 0.4761(7)
N1 N 0.0849(6) -0.25000 0.5266(5)
H3 H 0.092(9) -0.25000 0.634(3)
H4 H 0.132(7) -0.313(3) 0.500(5)
H5 H -0.090(9) -0.25000 0.360(3)
H6 H -0.130(7) -0.316(3) 0.516(5)
O2E O -0.2275(3) -0.4362(2) 0.0805(2)
Mn1E Mn 0.50000 -0.50000 0.50000
Mn1E* Mn 0.50000 -0.50000 -0.50000
O1A O 0.4019(3) -0.5720(2) -0.2799(3)
C1A C 0.2815(4) -0.5338(3) -0.2161(4)
O2A O 0.2275(3) -0.5638(2) -0.0805(2)
O1D O -0.0981(3) -0.5720(2) -0.2201(3)
O3F O -0.0324(3) -0.8425(2) 0.1317(3)
Mn1F Mn 0.00000 -1.00000 0.00000
O3D O 0.0324(3) -0.3425(2) -0.1317(3)
H1A H 0.231(5) -0.471(4) -0.275(5)
H4F H 0.132(7) -0.187(3) 0.500(5)
H6F H -0.130(7) -0.184(3) 0.516(5)
#END
