
#######################################################################
#
#                 Cambridge Crystallographic Data Centre
#                                CCDC
#
#######################################################################
#
# If this CIF has been generated from an entry in the Cambridge
# Structural Database, then it will include bibliographic, chemical,
# crystal, experimental, refinement or atomic coordinate data resulting
# from the CCDC's data processing and validation procedures.
#
#######################################################################

data_CSD_CIF_PADKIP22
_audit_creation_date 2013-07-19
_audit_creation_method CSD-ConQuest-V1
_database_code_CSD PADKIP22
_database_code_depnum_ccdc_archive 'CCDC 902512'
_chemical_formula_sum 'C6 H11 Mn1 N1 O6'
_chemical_formula_moiety
;
(C6 H6 Mn2 O12 2-)0.5n,n(C3 H8 N1 1+)
;
_journal_coden_Cambridge 1522
_journal_volume 61
_journal_year 2013
_journal_page_first 4928
_journal_name_full 'Acta Materialia '
loop_
_publ_author_name
"Wei Li"
"Zhiying Zhang"
"E.G.Bithell"
"A.S.Batsanov"
"P.T.Barton"
"P.J.Saines"
"Prashant Jain"
"C.J.Howard"
"M.A.Carpenter"
"A.K.Cheetham"
_chemical_name_systematic
;
catena-[azetidinium hemikis(hexakis(\m~2~-formato)-di-manganese)]
;
_cell_volume   1870.283
_exptl_crystal_colour 'colorless'
_exptl_crystal_density_diffrn 1.762
_exptl_crystal_description 'block'
_diffrn_ambient_temperature 150
#These two values have been output from a single CSD field.
_refine_ls_R_factor_gt 0.032
_refine_ls_wR_factor_gt 0.032
_symmetry_cell_setting monoclinic
_symmetry_space_group_name_H-M 'P 21/n'
_symmetry_Int_Tables_number 14
loop_
_symmetry_equiv_pos_site_id
_symmetry_equiv_pos_as_xyz
1 x,y,z
2 1/2-x,1/2+y,1/2-z
3 -x,-y,-z
4 -1/2+x,-1/2-y,-1/2+z
_cell_length_a 12.3435(4)
_cell_length_b 12.2777(3)
_cell_length_c 12.3532(3)
_cell_angle_alpha 90
_cell_angle_beta 92.542(3)
_cell_angle_gamma 90
_cell_formula_units_Z 8
loop_
_atom_type_symbol
_atom_type_radius_bond
C 0.68
H 0.23
Mn 1.61
N 0.68
O 0.68
loop_
_atom_site_label
_atom_site_type_symbol
_atom_site_fract_x
_atom_site_fract_y
_atom_site_fract_z
Mn1 Mn 0.75650(3) 0.52966(3) 0.24730(4)
O1 O 0.79951(16) 0.58411(15) 0.08433(16)
C1 C 0.7768(2) 0.5300(2) -0.0005(3)
H1 H 0.73750 0.46410 0.00690
Mn2 Mn 0.74118(3) 0.50118(11) -0.25184(4)
O2 O 0.70558(17) 0.46812(15) 0.40327(17)
C2 C 0.7183(3) 0.5061(2) 0.4966(3)
H2 H 0.75730 0.57240 0.50530
O3 O 0.69559(17) 0.68728(12) 0.28855(18)
C3 C 0.7294(2) 0.78028(17) 0.2683(2)
H3 H 0.79570 0.78490 0.23230
O4 O 0.40374(16) 0.52256(15) -0.18043(17)
C4 C 0.7693(2) 0.7515(4) -0.2647(2)
H4 H 0.73730 0.75210 -0.19620
O5 O 0.68442(15) 0.86833(12) 0.29102(17)
C5 C 0.4926(2) 0.4988(2) -0.2175(3)
H5 H 0.49530 0.43720 -0.26390
O6 O 1.07826(15) 0.41851(14) -0.30227(17)
C6 C 0.9939(2) 0.4648(2) -0.2699(2)
H6 H 1.00330 0.52580 -0.22310
O7 O 0.77782(18) 0.66120(19) -0.31043(18)
O8 O 0.57955(16) 0.55064(17) -0.19802(17)
O9 O 0.89982(16) 0.43602(18) -0.29511(18)
O10 O 0.68277(16) 0.46221(17) 0.58003(16)
O11 O 0.79897(17) 0.84066(19) -0.30111(18)
O12 O 0.80239(17) 0.55689(18) -0.09301(17)
N1 N 0.9156(3) 0.7684(2) 0.0072(3)
H7 H 0.88130 0.83140 -0.01560
H8 H 0.86610 0.71650 0.02620
C7 C 0.9977(3) 0.7274(3) -0.0694(4)
H9 H 1.01950 0.78240 -0.12290
H10 H 0.97700 0.65800 -0.10550
C8 C 1.0782(4) 0.7141(4) 0.0256(4)
H11 H 1.15040 0.74590 0.01360
H12 H 1.08480 0.63840 0.05280
C9 C 1.0051(3) 0.7865(4) 0.0915(4)
H13 H 0.98970 0.75660 0.16360
H14 H 1.02970 0.86320 0.09720
N2 N 0.5139(3) 0.7349(2) -0.0804(3)
H15 H 0.49170 0.78730 -0.12980
H16 H 0.53630 0.67290 -0.11480
C10 C 0.5933(4) 0.7758(3) 0.0067(3)
H17 H 0.62790 0.84590 -0.01140
H18 H 0.64850 0.72120 0.03030
C11 C 0.5016(3) 0.7874(4) 0.0839(4)
H19 H 0.47320 0.86250 0.08970
H20 H 0.51720 0.75500 0.15630
C12 C 0.4343(3) 0.7139(3) 0.0058(3)
H21 H 0.43150 0.63690 0.02920
H22 H 0.36060 0.74220 -0.01230
Mn1A Mn 0.74350(3) 1.02966(3) 0.25270(4)
Mn1B Mn 0.24350(3) 0.47034(3) -0.24730(4)
Mn1B* Mn 1.24350(3) 0.47034(3) -0.24730(4)
Mn2* Mn 0.74118(3) 0.50118(11) 0.74816(4)
Mn2A Mn 0.75882(3) 1.00118(11) -0.24816(4)
O4B O 0.59626(16) 0.47744(15) 0.18043(17)
O5A O 0.81558(15) 0.36833(12) 0.20898(17)
O6B O 0.92174(15) 0.58149(14) 0.30227(17)
O10* O 0.68277(16) 0.46221(17) -0.41997(16)
O11A O 0.70103(17) 0.34066(19) -0.19889(18)
#END
