
#######################################################################
#
#                 Cambridge Crystallographic Data Centre
#                                CCDC
#
#######################################################################
#
# If this CIF has been generated from an entry in the Cambridge
# Structural Database, then it will include bibliographic, chemical,
# crystal, experimental, refinement or atomic coordinate data resulting
# from the CCDC's data processing and validation procedures.
#
#######################################################################

data_CSD_CIF_PADKIP17
_audit_creation_date 2013-07-19
_audit_creation_method CSD-ConQuest-V1
_database_code_CSD PADKIP17
_database_code_depnum_ccdc_archive 'CCDC 902517'
_chemical_formula_sum 'C6 H11 Mn1 N1 O6'
_chemical_formula_moiety
;
(C6 H6 Mn2 O12 2-)0.5n,n(C3 H8 N1 1+)
;
_journal_coden_Cambridge 1522
_journal_volume 61
_journal_year 2013
_journal_page_first 4928
_journal_name_full 'Acta Materialia '
loop_
_publ_author_name
"Wei Li"
"Zhiying Zhang"
"E.G.Bithell"
"A.S.Batsanov"
"P.T.Barton"
"P.J.Saines"
"Prashant Jain"
"C.J.Howard"
"M.A.Carpenter"
"A.K.Cheetham"
_chemical_name_systematic
;
catena-[azetidinium hemikis(hexakis(\m~2~-formato)-di-manganese)]
;
_cell_volume   1878.803
_exptl_crystal_colour 'colorless'
_exptl_crystal_density_diffrn 1.754
_exptl_crystal_description 'block'
_diffrn_ambient_temperature 200
#These two values have been output from a single CSD field.
_refine_ls_R_factor_gt 0.0343
_refine_ls_wR_factor_gt 0.0343
_symmetry_cell_setting monoclinic
_symmetry_space_group_name_H-M 'P 21/n'
_symmetry_Int_Tables_number 14
loop_
_symmetry_equiv_pos_site_id
_symmetry_equiv_pos_as_xyz
1 x,y,z
2 1/2-x,1/2+y,1/2-z
3 -x,-y,-z
4 -1/2+x,-1/2-y,-1/2+z
_cell_length_a 12.3682(3)
_cell_length_b 12.2807(3)
_cell_length_c 12.3781(4)
_cell_angle_alpha 90
_cell_angle_beta 92.138(3)
_cell_angle_gamma 90
_cell_formula_units_Z 8
loop_
_atom_type_symbol
_atom_type_radius_bond
C 0.68
H 0.23
Mn 1.61
N 0.68
O 0.68
loop_
_atom_site_label
_atom_site_type_symbol
_atom_site_fract_x
_atom_site_fract_y
_atom_site_fract_z
Mn1 Mn 0.75588(4) 0.52685(3) 0.24810(5)
O1 O 0.79899(17) 0.58193(16) 0.08503(18)
C1 C 0.7761(3) 0.5287(3) 0.0001(3)
H1 H 0.73710 0.46260 0.00690
Mn2 Mn 0.74227(4) 0.50084(16) -0.25101(4)
O2 O 0.70577(19) 0.46618(16) 0.40508(18)
C2 C 0.7200(3) 0.5038(3) 0.4977(3)
H2 H 0.75940 0.56990 0.50580
O3 O 0.69566(18) 0.68493(13) 0.2883(2)
C3 C 0.7297(3) 0.77741(18) 0.2683(3)
H3 H 0.79630 0.78140 0.23270
O4 O 0.40399(17) 0.52508(16) -0.18274(19)
C4 C 0.7692(3) 0.7509(4) -0.2659(3)
H4 H 0.73720 0.75150 -0.19740
O5 O 0.68560(16) 0.86599(13) 0.29003(18)
C5 C 0.4937(2) 0.4996(3) -0.2186(3)
H5 H 0.49670 0.43720 -0.26380
O6 O 1.07931(17) 0.42176(15) -0.30188(19)
C6 C 0.9953(2) 0.4670(3) -0.2701(3)
H6 H 1.00400 0.52900 -0.22470
O7 O 0.77898(19) 0.6609(2) -0.31057(19)
O8 O 0.58007(17) 0.5507(2) -0.19891(18)
O9 O 0.90131(18) 0.4365(2) -0.29374(19)
O10 O 0.68543(18) 0.4598(2) 0.58167(18)
O11 O 0.79744(18) 0.8405(2) -0.3029(2)
O12 O 0.80140(19) 0.5571(2) -0.09188(18)
N1 N 0.9150(3) 0.7670(3) 0.0091(4)
H7 H 0.87980 0.82980 -0.01250
H8 H 0.86640 0.71420 0.02810
C7 C 0.9974(5) 0.7281(5) -0.0687(5)
H9 H 0.97810 0.65820 -0.10430
H10 H 1.01710 0.78350 -0.12260
C8 C 1.0781(5) 0.7168(5) 0.0230(5)
H11 H 1.14860 0.75160 0.00990
H12 H 1.08780 0.64110 0.04900
C9 C 1.0042(4) 0.7850(4) 0.0914(5)
H13 H 0.99040 0.75270 0.16290
H14 H 1.02680 0.86210 0.09870
N2 N 0.5144(4) 0.7359(3) -0.0818(3)
H15 H 0.49460 0.78880 -0.13120
H16 H 0.53510 0.67300 -0.11580
C10 C 0.5936(5) 0.7741(4) 0.0047(4)
H17 H 0.63000 0.84320 -0.01320
H18 H 0.64710 0.71800 0.02770
C11 C 0.5029(4) 0.7879(4) 0.0821(5)
H19 H 0.47720 0.86390 0.08920
H20 H 0.51710 0.75400 0.15380
C12 C 0.4339(4) 0.7181(4) 0.0034(4)
H21 H 0.42760 0.64110 0.02610
H22 H 0.36180 0.74960 -0.01480
Mn1A Mn 0.74412(4) 1.02685(3) 0.25190(5)
Mn1B Mn 0.24412(4) 0.47315(3) -0.24810(5)
Mn1B* Mn 1.24412(4) 0.47315(3) -0.24810(5)
Mn2* Mn 0.74227(4) 0.50084(16) 0.74899(4)
Mn2A Mn 0.75773(4) 1.00084(16) -0.24899(4)
O4B O 0.59601(17) 0.47492(16) 0.18274(19)
O5A O 0.81440(16) 0.36599(13) 0.20997(18)
O6B O 0.92069(17) 0.57824(15) 0.30188(19)
O10* O 0.68543(18) 0.4598(2) -0.41833(18)
O11A O 0.70256(18) 0.3405(2) -0.1971(2)
#END
