
#######################################################################
#
#                 Cambridge Crystallographic Data Centre
#                                CCDC
#
#######################################################################
#
# If this CIF has been generated from an entry in the Cambridge
# Structural Database, then it will include bibliographic, chemical,
# crystal, experimental, refinement or atomic coordinate data resulting
# from the CCDC's data processing and validation procedures.
#
#######################################################################

data_CSD_CIF_PADKIP12
_audit_creation_date 2013-07-19
_audit_creation_method CSD-ConQuest-V1
_database_code_CSD PADKIP12
_database_code_depnum_ccdc_archive 'CCDC 902522'
_chemical_formula_sum 'C6 H11 Mn1 N1 O6'
_chemical_formula_moiety
;
(C6 H6 Mn2 O12 2-)0.5n,n(C3 H8 N1 1+)
;
_journal_coden_Cambridge 1522
_journal_volume 61
_journal_year 2013
_journal_page_first 4928
_journal_name_full 'Acta Materialia '
loop_
_publ_author_name
"Wei Li"
"Zhiying Zhang"
"E.G.Bithell"
"A.S.Batsanov"
"P.T.Barton"
"P.J.Saines"
"Prashant Jain"
"C.J.Howard"
"M.A.Carpenter"
"A.K.Cheetham"
_chemical_name_systematic
;
catena-[azetidinium hemikis(hexakis(\m~2~-formato)-di-manganese)]
;
_cell_volume   1888.068
_exptl_crystal_colour 'colorless'
_exptl_crystal_density_diffrn 1.746
_exptl_crystal_description 'block'
_diffrn_ambient_temperature 250
#These two values have been output from a single CSD field.
_refine_ls_R_factor_gt 0.0391
_refine_ls_wR_factor_gt 0.0391
_symmetry_cell_setting monoclinic
_symmetry_space_group_name_H-M 'P 21/n'
_symmetry_Int_Tables_number 14
loop_
_symmetry_equiv_pos_site_id
_symmetry_equiv_pos_as_xyz
1 x,y,z
2 1/2-x,1/2+y,1/2-z
3 -x,-y,-z
4 -1/2+x,-1/2-y,-1/2+z
_cell_length_a 12.3923(5)
_cell_length_b 12.2907(3)
_cell_length_c 12.4017(4)
_cell_angle_alpha 90
_cell_angle_beta 91.704(3)
_cell_angle_gamma 90
_cell_formula_units_Z 8
loop_
_atom_type_symbol
_atom_type_radius_bond
C 0.68
H 0.23
Mn 1.61
N 0.68
O 0.68
loop_
_atom_site_label
_atom_site_type_symbol
_atom_site_fract_x
_atom_site_fract_y
_atom_site_fract_z
Mn1 Mn 0.75443(4) 0.52094(3) 0.24836(8)
O1 O 0.7983(2) 0.5756(2) 0.0853(2)
C1 C 0.7754(4) 0.5246(4) -0.0006(4)
H1 H 0.73540 0.45900 0.00490
Mn2 Mn 0.74434(5) 0.4982(3) -0.25067(7)
O2 O 0.7068(2) 0.4616(2) 0.4066(2)
C2 C 0.7226(4) 0.4980(4) 0.4991(4)
H2 H 0.76360 0.56310 0.50660
O3 O 0.6948(2) 0.67945(15) 0.2871(3)
C3 C 0.7298(4) 0.7711(2) 0.2684(4)
H3 H 0.79690 0.77430 0.23340
O4 O 0.4060(2) 0.53019(19) -0.1866(2)
C4 C 0.7682(4) 0.7483(6) -0.2681(4)
H4 H 0.73370 0.74840 -0.20060
O5 O 0.6873(2) 0.86014(16) 0.2901(2)
C5 C 0.4955(3) 0.5004(3) -0.2196(4)
H5 H 0.49790 0.43600 -0.26180
O6 O 1.0816(2) 0.42728(19) -0.3016(3)
C6 C 0.9964(3) 0.4704(3) -0.2707(3)
H6 H 1.00280 0.53360 -0.22700
O7 O 0.7820(2) 0.6582(4) -0.3109(2)
O8 O 0.5819(2) 0.5496(3) -0.2006(2)
O9 O 0.9042(2) 0.4362(3) -0.2932(3)
O10 O 0.6885(2) 0.4551(3) 0.5835(2)
O11 O 0.7946(2) 0.8379(3) -0.3044(3)
O12 O 0.8016(3) 0.5543(4) -0.0916(2)
N1 N 0.9147(4) 0.7607(4) 0.0113(5)
H7 H 0.87630 0.82180 -0.00900
H8 H 0.86910 0.70540 0.03050
C7 C 0.9970(6) 0.7269(5) -0.0687(7)
H9 H 0.98370 0.65420 -0.10080
H10 H 1.01030 0.78190 -0.12500
C8 C 1.0779(6) 0.7272(8) 0.0211(6)
H11 H 1.09840 0.65330 0.04610
H12 H 1.14290 0.77070 0.00590
C9 C 1.0030(6) 0.7827(5) 0.0930(6)
H13 H 1.01890 0.86090 0.10390
H14 H 0.99370 0.74520 0.16280
N2 N 0.5143(5) 0.7365(3) -0.0851(5)
H15 H 0.50180 0.79110 -0.13460
H16 H 0.52810 0.67130 -0.11850
C10 C 0.5930(6) 0.7651(7) 0.0026(6)
H17 H 0.63640 0.83050 -0.01340
H18 H 0.64050 0.70380 0.02480
C11 C 0.5051(6) 0.7866(5) 0.0796(6)
H19 H 0.48810 0.86460 0.08960
H20 H 0.51380 0.74830 0.14950
C12 C 0.4338(6) 0.7297(7) -0.0015(6)
H21 H 0.41670 0.65400 0.01920
H22 H 0.36690 0.77050 -0.01980
Mn1A Mn 0.74557(4) 1.02094(3) 0.25164(8)
Mn1B Mn 0.24557(4) 0.47906(3) -0.24836(8)
Mn1B* Mn 1.24557(4) 0.47906(3) -0.24836(8)
Mn2* Mn 0.74434(5) 0.4982(3) 0.74933(7)
Mn2A Mn 0.75566(5) 0.9982(3) -0.24933(7)
O4B O 0.5940(2) 0.46981(19) 0.1866(2)
O5A O 0.8127(2) 0.36014(16) 0.2099(2)
O6B O 0.9184(2) 0.57272(19) 0.3016(3)
O10* O 0.6885(2) 0.4551(3) -0.4165(2)
O11A O 0.7054(2) 0.3379(3) -0.1956(3)
#END
