
#######################################################################
#
#                 Cambridge Crystallographic Data Centre
#                                CCDC
#
#######################################################################
#
# If this CIF has been generated from an entry in the Cambridge
# Structural Database, then it will include bibliographic, chemical,
# crystal, experimental, refinement or atomic coordinate data resulting
# from the CCDC's data processing and validation procedures.
#
#######################################################################

data_CSD_CIF_PADKIP03
_audit_creation_date 2013-05-23
_audit_creation_method CSD-ConQuest-V1
_database_code_CSD PADKIP03
_database_code_depnum_ccdc_archive 'CCDC 879104'
_chemical_formula_sum 'C12 H22 Mn2 N2 O12'
_chemical_formula_moiety
;
(C6 H6 Mn2 O12 2-)n,2(C3 H8 N1 1+)
;
_journal_coden_Cambridge 920
_journal_volume 7
_journal_year 2012
_journal_page_first 2786
_journal_name_full 'Chem.Asian J. '
loop_
_publ_author_name
"Yuji Imai"
"Biao Zhou"
"Y.Ito"
"H.Fijimori"
"A.Kobayashi"
"Zhe-Ming Wang"
"H.Kobayashi"
_chemical_name_systematic
;
catena-(bis(Azetidinium) hexakis(\m~2~-formato-O,O')-di-manganese)
;
_cell_volume   1883.246
_exptl_crystal_colour 'colorless'
_exptl_crystal_density_diffrn 1.75
_exptl_special_details
;
P21/n polymorph
phase transition at 273 K

;
_exptl_crystal_description 'prism'
_diffrn_ambient_temperature 220
#These two values have been output from a single CSD field.
_refine_ls_R_factor_gt 0.0373
_refine_ls_wR_factor_gt 0.0373
_symmetry_cell_setting monoclinic
_symmetry_space_group_name_H-M 'P 21/n'
_symmetry_Int_Tables_number 14
loop_
_symmetry_equiv_pos_site_id
_symmetry_equiv_pos_as_xyz
1 x,y,z
2 1/2-x,1/2+y,1/2-z
3 -x,-y,-z
4 -1/2+x,-1/2-y,-1/2+z
_cell_length_a 12.3773(5)
_cell_length_b 12.2976(4)
_cell_length_c 12.3805(5)
_cell_angle_alpha 90
_cell_angle_beta 92.048(3)
_cell_angle_gamma 90
_cell_formula_units_Z 4
loop_
_atom_type_symbol
_atom_type_radius_bond
C 0.68
H 0.23
Mn 1.61
N 0.68
O 0.68
loop_
_atom_site_label
_atom_site_type_symbol
_atom_site_fract_x
_atom_site_fract_y
_atom_site_fract_z
Mn1 Mn 0.25178(5) 0.02555(3) 0.24451(4)
Mn2 Mn 0.75085(5) 0.00054(18) 0.25712(4)
O1 O 0.41441(19) 0.08031(17) 0.20076(19)
O2 O 0.59217(18) 0.0568(2) 0.19895(19)
O3 O 0.1981(2) 0.07674(16) 0.07970(17)
O4 O 0.2067(2) 0.0632(2) -0.09805(18)
O5 O 0.09443(19) -0.03460(18) 0.2939(2)
O6 O -0.08198(19) -0.0406(2) 0.31423(18)
O7 O 0.2882(2) -0.31585(13) 0.1952(2)
O8 O 0.2901(2) -0.13582(14) 0.18565(18)
O9 O 0.3160(2) -0.02646(18) 0.40418(17)
O10 O 0.30101(19) -0.0506(2) 0.58008(18)
O11 O 0.8098(2) 0.1606(2) 0.2203(2)
O12 O 0.8035(2) 0.3406(2) 0.2031(2)
C1 C 0.4999(2) 0.0278(2) 0.2241(2)
C2 C 0.2296(3) 0.0315(2) -0.0049(2)
C3 C 0.0020(2) 0.0026(2) 0.2795(3)
C4 C 0.2677(2) -0.22397(19) 0.2290(2)
C5 C 0.2810(3) 0.0003(2) 0.4938(2)
C6 C 0.7664(2) 0.2509(4) 0.2309(2)
H1 H 0.49350 -0.03670 0.26250
H2 H 0.27310 -0.02980 0.00300
H3 H -0.00580 0.06690 0.24030
H4 H 0.23190 -0.22020 0.29360
H5 H 0.23740 0.06170 0.49680
H6 H 0.69960 0.25180 0.26290
N1 N 0.4899(3) 0.2658(3) 0.0851(3)
C7 C 0.5697(5) 0.2283(5) 0.0030(4)
C8 C 0.4773(5) 0.2181(5) -0.0779(5)
C9 C 0.4080(4) 0.2829(4) -0.0037(4)
H7 H 0.47180 0.21380 0.13230
H8 H 0.50980 0.32730 0.11980
H9 H 0.62230 0.28310 -0.01530
H10 H 0.60460 0.15980 0.02110
H11 H 0.45270 0.14400 -0.08930
H12 H 0.48980 0.25390 -0.14620
H13 H 0.39920 0.35850 -0.02490
H14 H 0.33860 0.24950 0.00920
N2 N -0.0830(3) 0.7370(3) 0.0137(3)
C10 C 0.0050(4) 0.7731(4) 0.0938(4)
C11 C 0.0818(4) 0.7866(5) 0.0036(4)
C12 C 0.0030(4) 0.7185(5) -0.0655(4)
H15 H -0.11760 0.67610 0.03310
H16 H -0.13010 0.78980 -0.00560
H17 H -0.01130 0.84060 0.13030
H18 H 0.02670 0.71720 0.14540
H19 H 0.15170 0.75260 0.01710
H20 H 0.08950 0.86090 -0.02100
H21 H -0.01360 0.74960 -0.13610
H22 H 0.02420 0.64290 -0.07160
Mn1A Mn 0.24822(5) -0.47445(3) 0.25549(4)
Mn2* Mn -0.24915(5) 0.00054(18) 0.25712(4)
Mn2A Mn 0.74915(5) 0.50054(18) 0.24288(4)
Mn2B Mn 0.24915(5) -0.00054(18) -0.25712(4)
Mn2B* Mn 0.24915(5) -0.00054(18) 0.74288(4)
O4B O 0.7933(2) -0.0632(2) 0.09805(18)
O6* O 0.91802(19) -0.0406(2) 0.31423(18)
O7A O 0.2118(2) 0.18415(13) 0.3048(2)
O10B O 0.69899(19) 0.0506(2) 0.41992(18)
O12A O 0.6965(2) -0.1594(2) 0.2969(2)
#END
