
#######################################################################
#
#                 Cambridge Crystallographic Data Centre
#                                CCDC
#
#######################################################################
#
# If this CIF has been generated from an entry in the Cambridge
# Structural Database, then it will include bibliographic, chemical,
# crystal, experimental, refinement or atomic coordinate data resulting
# from the CCDC's data processing and validation procedures.
#
#######################################################################

data_CSD_CIF_PADKIP11
_audit_creation_date 2013-07-19
_audit_creation_method CSD-ConQuest-V1
_database_code_CSD PADKIP11
_database_code_depnum_ccdc_archive 'CCDC 902523'
_chemical_formula_sum 'C6 H11 Mn1 N1 O6'
_chemical_formula_moiety
;
(C6 H6 Mn2 O12 2-)0.5n,n(C3 H8 N1 1+)
;
_journal_coden_Cambridge 1522
_journal_volume 61
_journal_year 2013
_journal_page_first 4928
_journal_name_full 'Acta Materialia '
loop_
_publ_author_name
"Wei Li"
"Zhiying Zhang"
"E.G.Bithell"
"A.S.Batsanov"
"P.T.Barton"
"P.J.Saines"
"Prashant Jain"
"C.J.Howard"
"M.A.Carpenter"
"A.K.Cheetham"
_chemical_name_systematic
;
catena-[azetidinium hemikis(hexakis(\m~2~-formato)-di-manganese)]
;
_cell_volume   1890.591
_exptl_crystal_colour 'colorless'
_exptl_crystal_density_diffrn 1.743
_exptl_crystal_description 'block'
_diffrn_ambient_temperature 260
#These two values have been output from a single CSD field.
_refine_ls_R_factor_gt 0.0415
_refine_ls_wR_factor_gt 0.0415
_symmetry_cell_setting monoclinic
_symmetry_space_group_name_H-M 'P 21/n'
_symmetry_Int_Tables_number 14
loop_
_symmetry_equiv_pos_site_id
_symmetry_equiv_pos_as_xyz
1 x,y,z
2 1/2-x,1/2+y,1/2-z
3 -x,-y,-z
4 -1/2+x,-1/2-y,-1/2+z
_cell_length_a 12.3996(5)
_cell_length_b 12.2962(3)
_cell_length_c 12.4045(4)
_cell_angle_alpha 90
_cell_angle_beta 91.556(3)
_cell_angle_gamma 90
_cell_formula_units_Z 8
loop_
_atom_type_symbol
_atom_type_radius_bond
C 0.68
H 0.23
Mn 1.61
N 0.68
O 0.68
loop_
_atom_site_label
_atom_site_type_symbol
_atom_site_fract_x
_atom_site_fract_y
_atom_site_fract_z
Mn1 Mn 0.75386(5) 0.51816(5) 0.24822(9)
O1 O 0.7984(3) 0.5727(2) 0.0852(3)
C1 C 0.7756(4) 0.5222(4) -0.0008(4)
H1 H 0.73520 0.45690 0.00420
Mn2 Mn 0.74534(6) 0.4967(3) -0.25080(7)
O2 O 0.7067(3) 0.4586(2) 0.4067(3)
C2 C 0.7237(4) 0.4954(5) 0.4990(4)
H2 H 0.76520 0.56010 0.50620
O3 O 0.6936(2) 0.67673(16) 0.2862(3)
C3 C 0.7304(4) 0.7687(2) 0.2678(4)
H3 H 0.79770 0.77160 0.23300
O4 O 0.4065(2) 0.53242(19) -0.1879(3)
C4 C 0.7688(4) 0.7473(6) -0.2693(4)
H4 H 0.73410 0.74720 -0.20200
O5 O 0.6880(2) 0.85776(17) 0.2904(3)
C5 C 0.4959(3) 0.5015(4) -0.2201(4)
H5 H 0.49760 0.43670 -0.26170
O6 O 1.0832(2) 0.43001(19) -0.3015(3)
C6 C 0.9966(3) 0.4716(4) -0.2715(4)
H6 H 1.00130 0.53560 -0.22870
O7 O 0.7832(3) 0.6570(4) -0.3108(3)
O8 O 0.5831(3) 0.5491(3) -0.2016(3)
O9 O 0.9058(3) 0.4357(3) -0.2935(3)
O10 O 0.6896(3) 0.4525(4) 0.5831(3)
O11 O 0.7937(3) 0.8368(4) -0.3046(3)
O12 O 0.8024(3) 0.5522(4) -0.0911(3)
N1 N 0.9155(4) 0.7578(4) 0.0130(6)
H7 H 0.87540 0.81840 -0.00530
H8 H 0.87130 0.70120 0.03190
C7 C 0.9959(6) 0.7274(5) -0.0699(7)
H9 H 0.98570 0.65380 -0.10080
H10 H 1.00540 0.78260 -0.12690
C8 C 1.0765(6) 0.7332(9) 0.0193(7)
H11 H 1.10320 0.66070 0.04220
H12 H 1.13780 0.78160 0.00320
C9 C 1.0038(7) 0.7803(5) 0.0945(7)
H13 H 1.01640 0.85860 0.10880
H14 H 0.99770 0.73890 0.16250
N2 N 0.5127(5) 0.7373(3) -0.0866(5)
H15 H 0.50340 0.79330 -0.13520
H16 H 0.52170 0.67160 -0.12080
C10 C 0.5921(6) 0.7595(7) 0.0016(7)
H17 H 0.63970 0.82200 -0.01350
H18 H 0.63560 0.69490 0.02240
C11 C 0.5073(6) 0.7856(5) 0.0800(7)
H19 H 0.51360 0.74540 0.14910
H20 H 0.49520 0.86420 0.09160
C12 C 0.4350(6) 0.7355(7) -0.0012(7)
H21 H 0.41310 0.66090 0.01860
H22 H 0.37050 0.78050 -0.01800
Mn1A Mn 0.74614(5) 1.01816(5) 0.25178(9)
Mn1B Mn 0.24614(5) 0.48184(5) -0.24822(9)
Mn1B* Mn 1.24614(5) 0.48184(5) -0.24822(9)
Mn2* Mn 0.74534(6) 0.4967(3) 0.74920(7)
Mn2A Mn 0.75466(6) 0.9967(3) -0.24920(7)
O4B O 0.5935(2) 0.46758(19) 0.1879(3)
O5A O 0.8120(2) 0.35776(17) 0.2096(3)
O6B O 0.9168(2) 0.56999(19) 0.3015(3)
O10* O 0.6896(3) 0.4525(4) -0.4169(3)
O11A O 0.7063(3) 0.3368(4) -0.1954(3)
#END
