
#######################################################################
#
#                 Cambridge Crystallographic Data Centre
#                                CCDC
#
#######################################################################
#
# If this CIF has been generated from an entry in the Cambridge
# Structural Database, then it will include bibliographic, chemical,
# crystal, experimental, refinement or atomic coordinate data resulting
# from the CCDC's data processing and validation procedures.
#
#######################################################################

data_CSD_CIF_PADKIP15
_audit_creation_date 2013-07-19
_audit_creation_method CSD-ConQuest-V1
_database_code_CSD PADKIP15
_database_code_depnum_ccdc_archive 'CCDC 902519'
_chemical_formula_sum 'C6 H11 Mn1 N1 O6'
_chemical_formula_moiety
;
(C6 H6 Mn2 O12 2-)0.5n,n(C3 H8 N1 1+)
;
_journal_coden_Cambridge 1522
_journal_volume 61
_journal_year 2013
_journal_page_first 4928
_journal_name_full 'Acta Materialia '
loop_
_publ_author_name
"Wei Li"
"Zhiying Zhang"
"E.G.Bithell"
"A.S.Batsanov"
"P.T.Barton"
"P.J.Saines"
"Prashant Jain"
"C.J.Howard"
"M.A.Carpenter"
"A.K.Cheetham"
_chemical_name_systematic
;
catena-[azetidinium hemikis(hexakis(\m~2~-formato)-di-manganese)]
;
_cell_volume   1882.134
_exptl_crystal_colour 'colorless'
_exptl_crystal_density_diffrn 1.751
_exptl_crystal_description 'block'
_diffrn_ambient_temperature 220
#These two values have been output from a single CSD field.
_refine_ls_R_factor_gt 0.0355
_refine_ls_wR_factor_gt 0.0355
_symmetry_cell_setting monoclinic
_symmetry_space_group_name_H-M 'P 21/n'
_symmetry_Int_Tables_number 14
loop_
_symmetry_equiv_pos_site_id
_symmetry_equiv_pos_as_xyz
1 x,y,z
2 1/2-x,1/2+y,1/2-z
3 -x,-y,-z
4 -1/2+x,-1/2-y,-1/2+z
_cell_length_a 12.3783(3)
_cell_length_b 12.2845(3)
_cell_length_c 12.3851(4)
_cell_angle_alpha 90
_cell_angle_beta 92.011(3)
_cell_angle_gamma 90
_cell_formula_units_Z 8
loop_
_atom_type_symbol
_atom_type_radius_bond
C 0.68
H 0.23
Mn 1.61
N 0.68
O 0.68
loop_
_atom_site_label
_atom_site_type_symbol
_atom_site_fract_x
_atom_site_fract_y
_atom_site_fract_z
Mn1 Mn 0.75541(4) 0.52521(3) 0.24822(6)
O1 O 0.79894(19) 0.57993(18) 0.0853(2)
C1 C 0.7757(3) 0.5277(3) 0.0002(3)
H1 H 0.73590 0.46200 0.00650
Mn2 Mn 0.74288(4) 0.5003(2) -0.25079(5)
O2 O 0.7061(2) 0.46490(18) 0.4058(2)
C2 C 0.7211(3) 0.5018(3) 0.4984(3)
H2 H 0.76180 0.56710 0.50630
O3 O 0.6954(2) 0.68347(14) 0.2880(2)
C3 C 0.7297(3) 0.77576(19) 0.2685(3)
H3 H 0.79640 0.77970 0.23320
O4 O 0.40426(19) 0.52684(18) -0.1845(2)
C4 C 0.7689(3) 0.7504(5) -0.2669(3)
H4 H 0.73590 0.75130 -0.19880
O5 O 0.68600(18) 0.86410(14) 0.2902(2)
C5 C 0.4940(3) 0.5000(3) -0.2181(3)
H5 H 0.49710 0.43640 -0.26150
O6 O 1.08005(19) 0.42325(17) -0.3019(2)
C6 C 0.9951(3) 0.4684(3) -0.2701(3)
H6 H 1.00300 0.53090 -0.22540
O7 O 0.7797(2) 0.6597(3) -0.3102(2)
O8 O 0.58026(19) 0.5503(2) -0.1992(2)
O9 O 0.9024(2) 0.4367(3) -0.2934(2)
O10 O 0.6862(2) 0.4589(2) 0.5823(2)
O11 O 0.7967(2) 0.8394(3) -0.3035(2)
O12 O 0.8014(2) 0.5565(3) -0.0918(2)
N1 N 0.9149(4) 0.7665(3) 0.0100(4)
H7 H 0.87960 0.82960 -0.01020
H8 H 0.86640 0.71330 0.02840
C7 C 0.9965(5) 0.7290(5) -0.0694(6)
H9 H 0.97750 0.65920 -0.10530
H10 H 1.01530 0.78510 -0.12290
C8 C 1.0784(5) 0.7177(5) 0.0225(5)
H11 H 1.14810 0.75420 0.00990
H12 H 1.08970 0.64180 0.04740
C9 C 1.0030(5) 0.7830(5) 0.0914(6)
H13 H 0.98940 0.74900 0.16210
H14 H 1.02470 0.86010 0.10060
N2 N 0.5138(4) 0.7365(3) -0.0837(4)
H15 H 0.49450 0.79030 -0.13230
H16 H 0.53340 0.67360 -0.11840
C10 C 0.5932(6) 0.7727(5) 0.0046(5)
H17 H 0.64580 0.71560 0.02700
H18 H 0.63080 0.84150 -0.01220
C11 C 0.5038(5) 0.7868(5) 0.0812(5)
H19 H 0.47910 0.86300 0.08900
H20 H 0.51740 0.75200 0.15250
C12 C 0.4348(5) 0.7195(6) 0.0030(5)
H21 H 0.42770 0.64250 0.02500
H22 H 0.36290 0.75190 -0.01390
Mn1A Mn 0.74459(4) 1.02521(3) 0.25178(6)
Mn1B Mn 0.24459(4) 0.47479(3) -0.24822(6)
Mn1B* Mn 1.24459(4) 0.47479(3) -0.24822(6)
Mn2* Mn 0.74288(4) 0.5003(2) 0.74921(5)
Mn2A Mn 0.75712(4) 1.0003(2) -0.24921(5)
O4B O 0.59574(19) 0.47316(18) 0.1845(2)
O5A O 0.81400(18) 0.36410(14) 0.2098(2)
O6B O 0.91995(19) 0.57675(17) 0.3019(2)
O10* O 0.6862(2) 0.4589(2) -0.4177(2)
O11A O 0.7033(2) 0.3394(3) -0.1965(2)
#END
