
#######################################################################
#
#                 Cambridge Crystallographic Data Centre
#                                CCDC
#
#######################################################################
#
# If this CIF has been generated from an entry in the Cambridge
# Structural Database, then it will include bibliographic, chemical,
# crystal, experimental, refinement or atomic coordinate data resulting
# from the CCDC's data processing and validation procedures.
#
#######################################################################

data_CSD_CIF_PADKIP26
_audit_creation_date 2014-11-26
_audit_creation_method CSD-ConQuest-V1
_database_code_CSD PADKIP26
_database_code_depnum_ccdc_archive 'CCDC 1036395'
_chemical_formula_sum 'C6 H11 Mn1 N1 O6'
_chemical_formula_moiety
;
(C3 H3 Mn1 O6 1-)n,C3 H8 N1 1+
;
_journal_coden_Cambridge 4
_journal_volume 136
_journal_year 2014
_journal_page_first 7801
_journal_name_full 'J.Am.Chem.Soc. '
loop_
_publ_author_name
"Wei Li"
"A.Thirumurugan"
"P.T.Barton"
"Zheshuai Lin"
"S.Henke"
"H.H.-M Yeung"
"M.T.Wharmby"
"E.G.Bithell"
"C.J.Howard"
"A.K.Cheetham"
_chemical_name_systematic
;
catena-[azetidinium tris(\m~2~-formato)-manganese]
;
_cell_volume    949.611
_exptl_crystal_colour 'colorless'
_exptl_crystal_density_diffrn 1.735
_exptl_crystal_description 'block'
_diffrn_ambient_temperature 293
_refine_special_details
;
C3,C4,C5 disordered by symmetry over two configurations with occupancy 0.5.

;
#These two values have been output from a single CSD field.
_refine_ls_R_factor_gt 0.0431
_refine_ls_wR_factor_gt 0.0431
_symmetry_cell_setting orthorhombic
_symmetry_space_group_name_H-M 'P n m a'
_symmetry_Int_Tables_number 62
loop_
_symmetry_equiv_pos_site_id
_symmetry_equiv_pos_as_xyz
1 x,y,z
2 1/2-x,-y,1/2+z
3 1/2+x,1/2-y,1/2-z
4 -x,1/2+y,-z
5 -x,-y,-z
6 -1/2+x,y,-1/2-z
7 -1/2-x,-1/2+y,-1/2+z
8 x,-1/2-y,z
_cell_length_a 8.6939(3)
_cell_length_b 12.3048(4)
_cell_length_c 8.8768(3)
_cell_angle_alpha 90
_cell_angle_beta 90
_cell_angle_gamma 90
_cell_formula_units_Z 4
loop_
_atom_type_symbol
_atom_type_radius_bond
C 0.68
H 0.23
Mn 1.61
N 0.68
O 0.68
loop_
_atom_site_label
_atom_site_type_symbol
_atom_site_fract_x
_atom_site_fract_y
_atom_site_fract_z
Mn1 Mn 0.00000 0.50000 0.50000
O1 O 0.2168(2) 0.55071(18) 0.3931(2)
O2 O 0.0196(2) 0.33977(17) 0.4029(2)
O3 O 0.3836(3) 0.55622(17) 0.2067(2)
C1 C 0.2750(4) 0.5148(3) 0.2753(4)
H1 H 0.23320 0.45140 0.23570
C2 C 0.0019(4) 0.25000 0.4606(5)
H2 H -0.02980 0.25000 0.56060
N1 N 0.4259(7) 0.75000 0.3993(5)
C3 C 0.4292(8) 0.7740(9) 0.5633(7)
H3 H 0.35050 0.73680 0.62120
H4 H 0.43300 0.85080 0.58760
C4 C 0.5889(8) 0.7164(7) 0.5638(7)
H5 H 0.66220 0.74390 0.63680
H6 H 0.58550 0.63760 0.56210
C5 C 0.5938(9) 0.7717(10) 0.4076(7)
H7 H 0.62060 0.84820 0.41050
H8 H 0.65430 0.73300 0.33310
H9 H 0.368(7) 0.700(4) 0.357(6)
O2G O 0.0196(2) 0.16023(17) 0.4029(2)
O1D O -0.2168(2) 0.44929(18) 0.6069(2)
O3D O -0.3836(3) 0.44378(17) 0.7933(2)
C1D C -0.2750(4) 0.4852(3) 0.7247(4)
H1D H -0.23320 0.54860 0.76430
Mn1A Mn -0.50000 0.50000 1.00000
Mn1A* Mn 0.50000 0.50000 0.00000
Mn1C Mn 0.00000 0.00000 0.50000
O2D O -0.0196(2) 0.66023(17) 0.5971(2)
O3A O 0.1164(3) 0.44378(17) 0.7067(2)
O3E O -0.1164(3) 0.55622(17) 0.2933(2)
C3G C 0.4292(8) 0.7260(9) 0.5633(7)
H3G H 0.35050 0.76320 0.62120
H4G H 0.43300 0.64920 0.58760
C4G C 0.5889(8) 0.7836(7) 0.5638(7)
H5G H 0.66220 0.75610 0.63680
H6G H 0.58550 0.86240 0.56210
C5G C 0.5938(9) 0.7283(10) 0.4076(7)
H7G H 0.62060 0.65180 0.41050
H8G H 0.65430 0.76700 0.33310
H9G H 0.368(7) 0.800(4) 0.357(6)
#END
