
#######################################################################
#
#                 Cambridge Crystallographic Data Centre
#                                CCDC
#
#######################################################################
#
# If this CIF has been generated from an entry in the Cambridge
# Structural Database, then it will include bibliographic, chemical,
# crystal, experimental, refinement or atomic coordinate data resulting
# from the CCDC's data processing and validation procedures.
#
#######################################################################

data_CSD_CIF_PADKIP28
_audit_creation_date 2014-11-26
_audit_creation_method CSD-ConQuest-V1
_database_code_CSD PADKIP28
_database_code_depnum_ccdc_archive 'CCDC 1036397'
_chemical_formula_sum 'C6 H11 Mn1 N1 O6'
_chemical_formula_moiety
;
(C3 H3 Mn1 O6 1-)n,n(C3 H8 N1 1+)
;
_journal_coden_Cambridge 4
_journal_volume 136
_journal_year 2014
_journal_page_first 7801
_journal_name_full 'J.Am.Chem.Soc. '
loop_
_publ_author_name
"Wei Li"
"A.Thirumurugan"
"P.T.Barton"
"Zheshuai Lin"
"S.Henke"
"H.H.-M Yeung"
"M.T.Wharmby"
"E.G.Bithell"
"C.J.Howard"
"A.K.Cheetham"
_chemical_name_systematic
;
catena-[azetidinium tris(\m-formato)-manganese]
;
_cell_volume    951.995
_exptl_crystal_colour 'colorless'
_exptl_crystal_density_diffrn 1.731
_exptl_crystal_description 'block'
_diffrn_ambient_temperature 333
_refine_special_details
;
C3,C4,C5 disordered by symmetry over two configurations with occupancy 0.5.

;
#These two values have been output from a single CSD field.
_refine_ls_R_factor_gt 0.0423
_refine_ls_wR_factor_gt 0.0423
_symmetry_cell_setting orthorhombic
_symmetry_space_group_name_H-M 'P n m a'
_symmetry_Int_Tables_number 62
loop_
_symmetry_equiv_pos_site_id
_symmetry_equiv_pos_as_xyz
1 x,y,z
2 1/2-x,-y,1/2+z
3 1/2+x,1/2-y,1/2-z
4 -x,1/2+y,-z
5 -x,-y,-z
6 -1/2+x,y,-1/2-z
7 -1/2-x,-1/2+y,-1/2+z
8 x,-1/2-y,z
_cell_length_a 8.7110(3)
_cell_length_b 12.3162(4)
_cell_length_c 8.8734(3)
_cell_angle_alpha 90
_cell_angle_beta 90
_cell_angle_gamma 90
_cell_formula_units_Z 4
loop_
_atom_type_symbol
_atom_type_radius_bond
C 0.68
H 0.23
Mn 1.61
N 0.68
O 0.68
loop_
_atom_site_label
_atom_site_type_symbol
_atom_site_fract_x
_atom_site_fract_y
_atom_site_fract_z
Mn1 Mn 0.00000 0.50000 0.50000
O1 O 0.2160(3) 0.55022(19) 0.3919(2)
O2 O 0.0183(3) 0.33960(18) 0.4033(3)
O3 O 0.3828(3) 0.55570(19) 0.2061(2)
C1 C 0.2741(4) 0.5145(3) 0.2746(4)
H1 H 0.23220 0.45110 0.23510
C2 C 0.0026(5) 0.25000 0.4612(6)
H2 H -0.02910 0.25000 0.56120
N1 N 0.4232(8) 0.75000 0.3999(6)
C3 C 0.4282(9) 0.7755(9) 0.5634(8)
H3 H 0.35020 0.73910 0.62290
H4 H 0.43300 0.85240 0.58640
C4 C 0.5881(10) 0.7168(10) 0.5618(8)
H5 H 0.66250 0.74410 0.63380
H6 H 0.58390 0.63810 0.56040
C5 C 0.591(1) 0.7709(13) 0.4082(8)
H7 H 0.61810 0.84730 0.41080
H8 H 0.65080 0.73210 0.33320
H9 H 0.374(8) 0.694(4) 0.362(7)
O2G O 0.0183(3) 0.16040(18) 0.4033(3)
O1D O -0.2160(3) 0.44978(19) 0.6081(2)
O3D O -0.3828(3) 0.44430(19) 0.7939(2)
C1D C -0.2741(4) 0.4855(3) 0.7254(4)
H1D H -0.23220 0.54890 0.76490
Mn1A Mn -0.50000 0.50000 1.00000
Mn1A* Mn 0.50000 0.50000 0.00000
Mn1C Mn 0.00000 0.00000 0.50000
O2D O -0.0183(3) 0.66040(18) 0.5967(3)
O3A O 0.1172(3) 0.44430(19) 0.7061(2)
O3E O -0.1172(3) 0.55570(19) 0.2939(2)
C3G C 0.4282(9) 0.7245(9) 0.5634(8)
H3G H 0.35020 0.76090 0.62290
H4G H 0.43300 0.64760 0.58640
C4G C 0.5881(10) 0.7832(10) 0.5618(8)
H5G H 0.66250 0.75590 0.63380
H6G H 0.58390 0.86190 0.56040
C5G C 0.591(1) 0.7291(13) 0.4082(8)
H7G H 0.61810 0.65270 0.41080
H8G H 0.65080 0.76790 0.33320
H9G H 0.374(8) 0.806(4) 0.362(7)
#END
