
#######################################################################
#
#                 Cambridge Crystallographic Data Centre
#                                CCDC
#
#######################################################################
#
# If this CIF has been generated from an entry in the Cambridge
# Structural Database, then it will include bibliographic, chemical,
# crystal, experimental, refinement or atomic coordinate data resulting
# from the CCDC's data processing and validation procedures.
#
#######################################################################

data_CSD_CIF_PADKIP10
_audit_creation_date 2013-07-19
_audit_creation_method CSD-ConQuest-V1
_database_code_CSD PADKIP10
_database_code_depnum_ccdc_archive 'CCDC 902524'
_chemical_formula_sum 'C6 H11 Mn1 N1 O6'
_chemical_formula_moiety
;
(C6 H6 Mn2 O12 2-)0.5n,n(C3 H8 N1 1+)
;
_journal_coden_Cambridge 1522
_journal_volume 61
_journal_year 2013
_journal_page_first 4928
_journal_name_full 'Acta Materialia '
loop_
_publ_author_name
"Wei Li"
"Zhiying Zhang"
"E.G.Bithell"
"A.S.Batsanov"
"P.T.Barton"
"P.J.Saines"
"Prashant Jain"
"C.J.Howard"
"M.A.Carpenter"
"A.K.Cheetham"
_chemical_name_systematic
;
catena-[azetidinium hemikis(hexakis(\m~2~-formato)-di-manganese)]
;
_cell_volume   1896.469
_exptl_crystal_colour 'colorless'
_exptl_crystal_density_diffrn 1.738
_exptl_crystal_description 'block'
_diffrn_ambient_temperature 270
#These two values have been output from a single CSD field.
_refine_ls_R_factor_gt 0.0462
_refine_ls_wR_factor_gt 0.0462
_symmetry_cell_setting monoclinic
_symmetry_space_group_name_H-M 'P 21/n'
_symmetry_Int_Tables_number 14
loop_
_symmetry_equiv_pos_site_id
_symmetry_equiv_pos_as_xyz
1 x,y,z
2 1/2-x,1/2+y,1/2-z
3 -x,-y,-z
4 -1/2+x,-1/2-y,-1/2+z
_cell_length_a 12.4151(4)
_cell_length_b 12.3008(4)
_cell_length_c 12.4219(5)
_cell_angle_alpha 90
_cell_angle_beta 91.379(4)
_cell_angle_gamma 90
_cell_formula_units_Z 8
loop_
_atom_type_symbol
_atom_type_radius_bond
C 0.68
H 0.23
Mn 1.61
N 0.68
O 0.68
loop_
_atom_site_label
_atom_site_type_symbol
_atom_site_fract_x
_atom_site_fract_y
_atom_site_fract_z
Mn1 Mn 0.75163(8) 0.50864(17) 0.24757(8)
O1 O 0.7976(4) 0.5625(4) 0.0855(4)
C1 C 0.7793(7) 0.5164(6) -0.0016(7)
H1 H 0.74020 0.45010 0.00150
Mn2 Mn 0.74827(9) 0.49289(16) -0.25155(7)
O2 O 0.7064(4) 0.4490(4) 0.4071(4)
C2 C 0.7240(7) 0.4835(7) 0.4981(7)
H2 H 0.76620 0.54770 0.50330
O3 O 0.6904(4) 0.6682(3) 0.2855(4)
C3 C 0.7294(7) 0.7591(6) 0.2699(7)
H3 H 0.79840 0.76050 0.23860
O4 O 0.4107(4) 0.5401(3) -0.1902(4)
C4 C 0.7672(6) 0.7429(5) -0.2694(6)
H4 H 0.72960 0.74210 -0.20370
O5 O 0.6890(4) 0.8484(3) 0.2903(4)
C5 C 0.4980(5) 0.5036(5) -0.2240(6)
H5 H 0.49650 0.43980 -0.26710
O6 O 1.0861(4) 0.4379(3) -0.3015(4)
C6 C 0.9987(5) 0.4779(5) -0.2714(6)
H6 H 1.00000 0.54240 -0.22920
O7 O 0.7867(4) 0.6529(3) -0.3098(4)
O8 O 0.5866(4) 0.5477(3) -0.2034(4)
O9 O 0.9098(4) 0.4349(3) -0.2957(4)
O10 O 0.6933(4) 0.4446(4) 0.5851(4)
O11 O 0.7911(4) 0.8334(3) -0.3050(4)
O12 O 0.8059(4) 0.5462(4) -0.0921(4)
N1 N 0.9152(7) 0.7515(5) 0.0169(9)
H7 H 0.87460 0.69060 0.03050
H8 H 0.87180 0.81140 0.00680
C7 C 0.995(1) 0.7354(7) -0.0708(10)
H9 H 0.99370 0.66210 -0.10370
H10 H 0.99420 0.79320 -0.12620
C8 C 1.0739(8) 0.7493(14) 0.0121(10)
H11 H 1.11770 0.68290 0.02370
H12 H 1.12180 0.81180 -0.00190
C9 C 1.0061(12) 0.7693(8) 0.0978(12)
H13 H 1.01060 0.84410 0.12700
H14 H 1.01050 0.71430 0.15590
N2 N 0.5108(9) 0.7403(4) -0.0876(8)
H15 H 0.50950 0.79880 -0.13380
H16 H 0.51010 0.67540 -0.12430
C10 C 0.5914(10) 0.7473(10) -0.0021(11)
H17 H 0.64470 0.80560 -0.01430
H18 H 0.62880 0.67730 0.01110
C11 C 0.5159(9) 0.7747(8) 0.0837(10)
H19 H 0.51640 0.85200 0.10610
H20 H 0.51760 0.72470 0.14620
C12 C 0.4354(9) 0.7467(10) -0.0029(9)
H21 H 0.39900 0.67660 0.01030
H22 H 0.38130 0.80480 -0.01490
Mn1A Mn 0.74837(8) 1.00864(17) 0.25243(8)
Mn1B Mn 0.24837(8) 0.49136(17) -0.24757(8)
Mn1B* Mn 1.24837(8) 0.49136(17) -0.24757(8)
Mn2* Mn 0.74827(9) 0.49289(16) 0.74845(7)
Mn2A Mn 0.75173(9) 0.99289(16) -0.24845(7)
O4B O 0.5893(4) 0.4599(3) 0.1902(4)
O5A O 0.8110(4) 0.3484(3) 0.2097(4)
O6B O 0.9139(4) 0.5621(3) 0.3015(4)
O10* O 0.6933(4) 0.4446(4) -0.4149(4)
O11A O 0.7089(4) 0.3334(3) -0.1950(4)
#END
