
#######################################################################
#
#                 Cambridge Crystallographic Data Centre
#                                CCDC
#
#######################################################################
#
# If this CIF has been generated from an entry in the Cambridge
# Structural Database, then it will include bibliographic, chemical,
# crystal, experimental, refinement or atomic coordinate data resulting
# from the CCDC's data processing and validation procedures.
#
#######################################################################

data_CSD_CIF_PADKIP01
_audit_creation_date 2005-01-06
_audit_creation_method CSD-ConQuest-V1
_database_code_CSD PADKIP01
_database_code_depnum_ccdc_archive 'CCDC 234555'
_chemical_formula_sum 'C6 H11 Mn1 N1 O6'
_chemical_formula_moiety
;
(C3 H8 N1 1+)n,n(C3 H3 Mn1 O6 1-)
;
_journal_coden_Cambridge 222
_journal_year 2004
_journal_page_first 2209
_journal_name_full 'Dalton Trans. '
loop_
_publ_author_name
"Zheming Wang"
"Bin Zhang"
"T.Otsuka"
"K.Inoue"
"H.Kobayashi"
"M.Kurmoo"
_chemical_name_systematic
;
catena-(Cyclotrimethyleneammonium tris(\m~2~-formato)-manganese(ii))
;
_cell_volume    948.614
_exptl_crystal_colour 'colorless'
_exptl_crystal_density_diffrn 1.737
_exptl_special_details
;
Pnma polymorph
phase transition at 273 K

;
_exptl_crystal_description 'block'
_diffrn_ambient_temperature 290
#These two values have been output from a single CSD field.
_refine_ls_R_factor_gt 0.0423
_refine_ls_wR_factor_gt 0.0423
_symmetry_cell_setting orthorhombic
_symmetry_space_group_name_H-M 'P n m a'
_symmetry_Int_Tables_number 62
loop_
_symmetry_equiv_pos_site_id
_symmetry_equiv_pos_as_xyz
1 x,y,z
2 1/2-x,-y,1/2+z
3 -x,1/2+y,-z
4 1/2+x,1/2-y,1/2-z
5 -x,-y,-z
6 -1/2+x,y,-1/2-z
7 x,-1/2-y,z
8 -1/2-x,-1/2+y,-1/2+z
_cell_length_a 8.6879(19)
_cell_length_b 12.303(3)
_cell_length_c 8.8749(18)
_cell_angle_alpha 90
_cell_angle_beta 90
_cell_angle_gamma 90
_cell_formula_units_Z 4
loop_
_atom_type_symbol
_atom_type_radius_bond
C 0.68
H 0.23
Mn 1.35
N 0.68
O 0.68
loop_
_atom_site_label
_atom_site_type_symbol
_atom_site_fract_x
_atom_site_fract_y
_atom_site_fract_z
Mn1 Mn 0.50000 0.50000 0.50000
O1 O 0.2831(2) 0.44938(18) 0.3929(2)
O2 O 0.1168(2) 0.44373(17) 0.2067(2)
O3 O 0.4805(2) 0.65999(17) 0.4029(2)
C1 C 0.2259(4) 0.4856(3) 0.2752(4)
H1 H 0.26810 0.54880 0.23530
C2 C 0.4977(4) 0.75000 0.4619(5)
H2 H 0.52710 0.75000 0.56260
N1 N 0.0732(6) 0.25000 0.4005(5)
H3 H 0.11380 0.18960 0.35930
H4 H 0.11380 0.31040 0.35930
C3 C -0.0933(8) 0.25000 0.4080(7)
H5 H -0.13960 0.31480 0.36550
H6 H -0.13960 0.18520 0.36550
C4 C 0.0718(8) 0.25000 0.5625(7)
H7 H 0.11670 0.18510 0.60640
H8 H 0.11670 0.31490 0.60640
C5 C -0.0905(9) 0.25000 0.5640(9)
H9 H -0.13470 0.18510 0.60850
H10 H -0.13470 0.31490 0.60850
O2E O 0.6168(2) 0.44373(17) 0.2933(2)
Mn1E Mn 0.00000 0.50000 0.00000
Mn1A Mn 0.00000 0.50000 1.00000
O1A O 0.2169(2) 0.55062(18) 0.8929(2)
C1A C 0.2741(4) 0.5144(3) 0.7752(4)
O2A O 0.3832(2) 0.55627(17) 0.7067(2)
O1D O 0.7169(2) 0.55062(18) 0.6071(2)
O3F O 0.4805(2) 0.84001(17) 0.4029(2)
Mn1F Mn 0.50000 1.00000 0.50000
O3D O 0.5195(2) 0.34001(17) 0.5971(2)
H1A H 0.23190 0.45120 0.73530
#END
