
#######################################################################
#
#                 Cambridge Crystallographic Data Centre
#                                CCDC
#
#######################################################################
#
# If this CIF has been generated from an entry in the Cambridge
# Structural Database, then it will include bibliographic, chemical,
# crystal, experimental, refinement or atomic coordinate data resulting
# from the CCDC's data processing and validation procedures.
#
#######################################################################

data_CSD_CIF_PADKIP21
_audit_creation_date 2013-07-19
_audit_creation_method CSD-ConQuest-V1
_database_code_CSD PADKIP21
_database_code_depnum_ccdc_archive 'CCDC 902513'
_chemical_formula_sum 'C6 H11 Mn1 N1 O6'
_chemical_formula_moiety
;
(C6 H6 Mn2 O12 2-)0.5n,n(C3 H8 N1 1+)
;
_journal_coden_Cambridge 1522
_journal_volume 61
_journal_year 2013
_journal_page_first 4928
_journal_name_full 'Acta Materialia '
loop_
_publ_author_name
"Wei Li"
"Zhiying Zhang"
"E.G.Bithell"
"A.S.Batsanov"
"P.T.Barton"
"P.J.Saines"
"Prashant Jain"
"C.J.Howard"
"M.A.Carpenter"
"A.K.Cheetham"
_chemical_name_systematic
;
catena-[azetidinium hemikis(hexakis(\m~2~-formato)-di-manganese)]
;
_cell_volume   1872.091
_exptl_crystal_colour 'colorless'
_exptl_crystal_density_diffrn 1.76
_exptl_crystal_description 'block'
_diffrn_ambient_temperature 160
#These two values have been output from a single CSD field.
_refine_ls_R_factor_gt 0.0327
_refine_ls_wR_factor_gt 0.0327
_symmetry_cell_setting monoclinic
_symmetry_space_group_name_H-M 'P 21/n'
_symmetry_Int_Tables_number 14
loop_
_symmetry_equiv_pos_site_id
_symmetry_equiv_pos_as_xyz
1 x,y,z
2 1/2-x,1/2+y,1/2-z
3 -x,-y,-z
4 -1/2+x,-1/2-y,-1/2+z
_cell_length_a 12.3482(4)
_cell_length_b 12.2809(3)
_cell_length_c 12.3565(3)
_cell_angle_alpha 90
_cell_angle_beta 92.466(3)
_cell_angle_gamma 90
_cell_formula_units_Z 8
loop_
_atom_type_symbol
_atom_type_radius_bond
C 0.68
H 0.23
Mn 1.61
N 0.68
O 0.68
loop_
_atom_site_label
_atom_site_type_symbol
_atom_site_fract_x
_atom_site_fract_y
_atom_site_fract_z
Mn1 Mn 0.75639(3) 0.52921(3) 0.24743(4)
O1 O 0.79971(16) 0.58360(15) 0.08422(17)
C1 C 0.7769(3) 0.5296(2) -0.0002(3)
H1 H 0.73770 0.46370 0.00720
Mn2 Mn 0.74139(4) 0.50102(12) -0.25171(4)
O2 O 0.70552(18) 0.46787(15) 0.40345(17)
C2 C 0.7187(3) 0.5056(2) 0.4965(3)
H2 H 0.75820 0.57170 0.50510
O3 O 0.69554(17) 0.68697(13) 0.28819(19)
C3 C 0.7299(3) 0.77953(17) 0.2685(3)
H3 H 0.79660 0.78400 0.23330
O4 O 0.40368(16) 0.52303(16) -0.18088(17)
C4 C 0.7690(2) 0.7518(4) -0.2650(2)
H4 H 0.73640 0.75270 -0.19680
O5 O 0.68470(15) 0.86786(13) 0.29098(17)
C5 C 0.4927(2) 0.4989(2) -0.2178(3)
H5 H 0.49540 0.43730 -0.26420
O6 O 1.07833(16) 0.41913(15) -0.30194(17)
C6 C 0.9944(2) 0.4652(2) -0.2701(3)
H6 H 1.00380 0.52670 -0.22390
O7 O 0.77806(18) 0.6610(2) -0.31041(18)
O8 O 0.57977(17) 0.55043(17) -0.19825(17)
O9 O 0.90013(17) 0.43616(18) -0.29452(18)
O10 O 0.68293(17) 0.46155(17) 0.58049(17)
O11 O 0.79878(17) 0.8404(2) -0.30130(18)
O12 O 0.80223(18) 0.55676(19) -0.09286(17)
N1 N 0.9153(3) 0.7684(2) 0.0078(3)
H7 H 0.88080 0.83140 -0.01450
H8 H 0.86600 0.71630 0.02670
C7 C 0.9979(4) 0.7279(4) -0.0695(4)
H9 H 0.97750 0.65850 -0.10570
H10 H 1.01950 0.78310 -0.12280
C8 C 1.0776(4) 0.7147(4) 0.0250(4)
H11 H 1.14970 0.74680 0.01310
H12 H 1.08450 0.63900 0.05180
C9 C 1.0052(4) 0.7862(4) 0.0917(4)
H13 H 0.99030 0.75560 0.16370
H14 H 1.02970 0.86280 0.09780
N2 N 0.5141(3) 0.7353(2) -0.0806(3)
H15 H 0.49230 0.78790 -0.13000
H16 H 0.53640 0.67330 -0.11490
C10 C 0.5930(4) 0.7757(3) 0.0066(4)
H17 H 0.62770 0.84580 -0.01130
H18 H 0.64810 0.72100 0.02980
C11 C 0.5021(4) 0.7871(4) 0.0837(4)
H19 H 0.47420 0.86230 0.09020
H20 H 0.51770 0.75410 0.15580
C12 C 0.4339(3) 0.7147(4) 0.0055(3)
H21 H 0.43040 0.63760 0.02850
H22 H 0.36060 0.74380 -0.01250
Mn1A Mn 0.74361(3) 1.02921(3) 0.25257(4)
Mn1B Mn 0.24361(3) 0.47079(3) -0.24743(4)
Mn1B* Mn 1.24361(3) 0.47079(3) -0.24743(4)
Mn2* Mn 0.74139(4) 0.50102(12) 0.74829(4)
Mn2A Mn 0.75861(4) 1.00102(12) -0.24829(4)
O4B O 0.59632(16) 0.47697(16) 0.18088(17)
O5A O 0.81530(15) 0.36786(13) 0.20902(17)
O6B O 0.92167(16) 0.58087(15) 0.30194(17)
O10* O 0.68293(17) 0.46155(17) -0.41951(17)
O11A O 0.70122(17) 0.3404(2) -0.19870(18)
#END
