
#######################################################################
#
#                 Cambridge Crystallographic Data Centre
#                                CCDC
#
#######################################################################
#
# If this CIF has been generated from an entry in the Cambridge
# Structural Database, then it will include bibliographic, chemical,
# crystal, experimental, refinement or atomic coordinate data resulting
# from the CCDC's data processing and validation procedures.
#
#######################################################################

data_CSD_CIF_PADKIP32
_audit_creation_date 2014-11-26
_audit_creation_method CSD-ConQuest-V1
_database_code_CSD PADKIP32
_database_code_depnum_ccdc_archive 'CCDC 1036401'
_chemical_formula_sum 'C6 H11 Mn1 N1 O6'
_chemical_formula_moiety
;
(C3 H3 Mn1 O6 1-)n,n(C3 H8 N1 1+)
;
_journal_coden_Cambridge 4
_journal_volume 136
_journal_year 2014
_journal_page_first 7801
_journal_name_full 'J.Am.Chem.Soc. '
loop_
_publ_author_name
"Wei Li"
"A.Thirumurugan"
"P.T.Barton"
"Zheshuai Lin"
"S.Henke"
"H.H.-M Yeung"
"M.T.Wharmby"
"E.G.Bithell"
"C.J.Howard"
"A.K.Cheetham"
_chemical_name_systematic
;
catena-[azetidinium tris(\m-formato)-manganese]
;
_cell_volume    953.476
_exptl_crystal_colour 'colorless'
_exptl_crystal_density_diffrn 1.728
_exptl_crystal_description 'block'
_diffrn_ambient_temperature 413
_refine_special_details
;
C3,C4,C5 disordered by symmetry over two configurations with occupancy 0.5.

;
#These two values have been output from a single CSD field.
_refine_ls_R_factor_gt 0.0693
_refine_ls_wR_factor_gt 0.0693
_symmetry_cell_setting orthorhombic
_symmetry_space_group_name_H-M 'P n m a'
_symmetry_Int_Tables_number 62
loop_
_symmetry_equiv_pos_site_id
_symmetry_equiv_pos_as_xyz
1 x,y,z
2 1/2-x,-y,1/2+z
3 1/2+x,1/2-y,1/2-z
4 -x,1/2+y,-z
5 -x,-y,-z
6 -1/2+x,y,-1/2-z
7 -1/2-x,-1/2+y,-1/2+z
8 x,-1/2-y,z
_cell_length_a 8.7610(3)
_cell_length_b 12.3507(4)
_cell_length_c 8.8118(3)
_cell_angle_alpha 90
_cell_angle_beta 90
_cell_angle_gamma 90
_cell_formula_units_Z 4
loop_
_atom_type_symbol
_atom_type_radius_bond
C 0.68
H 0.23
Mn 1.61
N 0.68
O 0.68
loop_
_atom_site_label
_atom_site_type_symbol
_atom_site_fract_x
_atom_site_fract_y
_atom_site_fract_z
Mn1 Mn 0.00000 0.50000 0.50000
O1 O 0.2149(4) 0.5490(3) 0.3908(5)
O2 O 0.0170(5) 0.3388(3) 0.4046(6)
O3 O 0.3829(4) 0.5528(3) 0.2072(4)
C1 C 0.2717(6) 0.5147(5) 0.2725(7)
H1 H 0.22980 0.45130 0.23300
C2 C 0.0044(8) 0.25000 0.4613(11)
H2 H -0.02720 0.25000 0.56130
N1 N 0.4191(15) 0.75000 0.4019(14)
C3 C 0.4251(16) 0.7777(13) 0.5615(16)
H3 H 0.34760 0.74320 0.62350
H4 H 0.43230 0.85470 0.58230
C4 C 0.5853(19) 0.716(2) 0.5573(19)
H5 H 0.66100 0.74080 0.62940
H6 H 0.57930 0.63730 0.55270
C5 C 0.5845(19) 0.770(3) 0.4136(19)
H7 H 0.64430 0.73390 0.33610
H8 H 0.61100 0.84630 0.42000
O2G O 0.0170(5) 0.1612(3) 0.4046(6)
O1D O -0.2149(4) 0.4510(3) 0.6092(5)
O3D O -0.3829(4) 0.4472(3) 0.7928(4)
C1D C -0.2717(6) 0.4853(5) 0.7275(7)
H1D H -0.22980 0.54870 0.76700
Mn1A Mn -0.50000 0.50000 1.00000
Mn1A* Mn 0.50000 0.50000 0.00000
Mn1C Mn 0.00000 0.00000 0.50000
O2D O -0.0170(5) 0.6612(3) 0.5954(6)
O3A O 0.1171(4) 0.4472(3) 0.7072(4)
O3E O -0.1171(4) 0.5528(3) 0.2928(4)
C3G C 0.4251(16) 0.7223(13) 0.5615(16)
H3G H 0.34760 0.75680 0.62350
H4G H 0.43230 0.64530 0.58230
C4G C 0.5853(19) 0.784(2) 0.5573(19)
H5G H 0.66100 0.75920 0.62940
H6G H 0.57930 0.86270 0.55270
C5G C 0.5845(19) 0.730(3) 0.4136(19)
H7G H 0.64430 0.76610 0.33610
H8G H 0.61100 0.65370 0.42000
#END
