
#######################################################################
#
#                 Cambridge Crystallographic Data Centre
#                                CCDC
#
#######################################################################
#
# If this CIF has been generated from an entry in the Cambridge
# Structural Database, then it will include bibliographic, chemical,
# crystal, experimental, refinement or atomic coordinate data resulting
# from the CCDC's data processing and validation procedures.
#
#######################################################################

data_CSD_CIF_PADKIP02
_audit_creation_date 2013-05-23
_audit_creation_method CSD-ConQuest-V1
_database_code_CSD PADKIP02
_database_code_depnum_ccdc_archive 'CCDC 879105'
_chemical_formula_sum 'C6 H11 Mn1 N1 O6'
_chemical_formula_moiety
;
(C3 H3 Mn1 O6 1-)n,C3 H8 N1 1+
;
_journal_coden_Cambridge 920
_journal_volume 7
_journal_year 2012
_journal_page_first 2786
_journal_name_full 'Chem.Asian J. '
loop_
_publ_author_name
"Yuji Imai"
"Biao Zhou"
"Y.Ito"
"H.Fijimori"
"A.Kobayashi"
"Zhe-Ming Wang"
"H.Kobayashi"
_chemical_name_systematic
;
catena-(Azetidinium tris(\m~2~-formato-O,O')-manganese)
;
_cell_volume    950.233
_exptl_crystal_colour 'colorless'
_exptl_crystal_density_diffrn 1.72
_exptl_special_details
;
Pnma polymorph
phase transition at 273 K

;
_exptl_crystal_description 'block'
_diffrn_ambient_temperature 290
#These two values have been output from a single CSD field.
_refine_ls_R_factor_gt 0.0392
_refine_ls_wR_factor_gt 0.0392
_symmetry_cell_setting orthorhombic
_symmetry_space_group_name_H-M 'P n m a'
_symmetry_Int_Tables_number 62
loop_
_symmetry_equiv_pos_site_id
_symmetry_equiv_pos_as_xyz
1 x,y,z
2 1/2-x,-y,1/2+z
3 1/2+x,1/2-y,1/2-z
4 -x,1/2+y,-z
5 -x,-y,-z
6 -1/2+x,y,-1/2-z
7 -1/2-x,-1/2+y,-1/2+z
8 x,-1/2-y,z
_cell_length_a 8.704(3)
_cell_length_b 12.308(7)
_cell_length_c 8.870(4)
_cell_angle_alpha 90
_cell_angle_beta 90
_cell_angle_gamma 90
_cell_formula_units_Z 4
loop_
_atom_type_symbol
_atom_type_radius_bond
C 0.68
H 0.23
Mn 1.61
N 0.68
O 0.68
loop_
_atom_site_label
_atom_site_type_symbol
_atom_site_fract_x
_atom_site_fract_y
_atom_site_fract_z
Mn1 Mn 0.00000 1.00000 1.00000
O1 O 0.11652(5) 0.94355(4) 0.79320(5)
O2 O 0.28324(5) 0.94939(4) 0.60688(5)
O3 O 0.01972(5) 0.84025(3) 1.09734(5)
C1 C 0.22553(6) 0.98543(5) 0.72467(6)
C2 C 0.00187(10) 0.75000(1) 1.03830(8)
H1 H 0.26810 1.04850 0.76470
H2 H -0.02960 0.75000 0.93810
N1 N 0.07177(11) 0.75000(1) 0.60011(10)
C3 C 0.07053(15) 0.75000(1) 0.43760(13)
C4 C -0.09202(17) 0.75000(1) 0.43505(16)
C5 C -0.09342(15) 0.75000(1) 0.59297(13)
H3 H 0.11260 0.68970 0.64100
H4 H 0.11580 0.68520 0.39400
H5 H -0.13570 0.68510 0.39020
H6 H -0.13920 0.68510 0.63580
O3G O 0.01972(5) 0.65975(3) 1.09734(5)
O1D O -0.11652(5) 1.05645(4) 1.20680(5)
O2D O -0.28324(5) 1.05061(4) 1.39312(5)
C1D C -0.22553(6) 1.01457(5) 1.27533(6)
H1D H -0.26810 0.95150 1.23530
Mn1G Mn 0.00000 0.50000 1.00000
Mn1A Mn -0.50000 1.00000 1.50000
Mn1A* Mn 0.50000 1.00000 0.50000
O2A O 0.21676(5) 1.05061(4) 1.10688(5)
O2E O -0.21676(5) 0.94939(4) 0.89312(5)
O3D O -0.01972(5) 1.15975(3) 0.90266(5)
H3G H 0.11260 0.81030 0.64100
H4G H 0.11580 0.81480 0.39400
H5G H -0.13570 0.81490 0.39020
H6G H -0.13920 0.81490 0.63580
#END
