
#######################################################################
#
#                 Cambridge Crystallographic Data Centre
#                                CCDC
#
#######################################################################
#
# If this CIF has been generated from an entry in the Cambridge
# Structural Database, then it will include bibliographic, chemical,
# crystal, experimental, refinement or atomic coordinate data resulting
# from the CCDC's data processing and validation procedures.
#
#######################################################################

data_CSD_CIF_PADKIP29
_audit_creation_date 2014-11-26
_audit_creation_method CSD-ConQuest-V1
_database_code_CSD PADKIP29
_database_code_depnum_ccdc_archive 'CCDC 1036398'
_chemical_formula_sum 'C6 H11 Mn1 N1 O6'
_chemical_formula_moiety
;
(C3 H3 Mn1 O6 1-)n,n(C3 H8 N1 1+)
;
_journal_coden_Cambridge 4
_journal_volume 136
_journal_year 2014
_journal_page_first 7801
_journal_name_full 'J.Am.Chem.Soc. '
loop_
_publ_author_name
"Wei Li"
"A.Thirumurugan"
"P.T.Barton"
"Zheshuai Lin"
"S.Henke"
"H.H.-M Yeung"
"M.T.Wharmby"
"E.G.Bithell"
"C.J.Howard"
"A.K.Cheetham"
_chemical_name_systematic
;
catena-[azetidinium tris(\m-formato)-manganese]
;
_cell_volume    953.288
_exptl_crystal_colour 'colorless'
_exptl_crystal_density_diffrn 1.729
_exptl_crystal_description 'block'
_diffrn_ambient_temperature 354
_refine_special_details
;
C3,C4,C5 disordered by symmetry over two configurations with occupancy 0.5.

;
#These two values have been output from a single CSD field.
_refine_ls_R_factor_gt 0.0445
_refine_ls_wR_factor_gt 0.0445
_symmetry_cell_setting orthorhombic
_symmetry_space_group_name_H-M 'P n m a'
_symmetry_Int_Tables_number 62
loop_
_symmetry_equiv_pos_site_id
_symmetry_equiv_pos_as_xyz
1 x,y,z
2 1/2-x,-y,1/2+z
3 1/2+x,1/2-y,1/2-z
4 -x,1/2+y,-z
5 -x,-y,-z
6 -1/2+x,y,-1/2-z
7 -1/2-x,-1/2+y,-1/2+z
8 x,-1/2-y,z
_cell_length_a 8.7233(3)
_cell_length_b 12.3247(4)
_cell_length_c 8.8668(3)
_cell_angle_alpha 90
_cell_angle_beta 90
_cell_angle_gamma 90
_cell_formula_units_Z 4
loop_
_atom_type_symbol
_atom_type_radius_bond
C 0.68
H 0.23
Mn 1.61
N 0.68
O 0.68
loop_
_atom_site_label
_atom_site_type_symbol
_atom_site_fract_x
_atom_site_fract_y
_atom_site_fract_z
Mn1 Mn 0.00000 0.50000 0.50000
O1 O 0.2156(3) 0.5501(2) 0.3918(2)
O2 O 0.0178(3) 0.33949(18) 0.4035(3)
O3 O 0.3827(3) 0.55510(19) 0.2068(2)
C1 C 0.2740(4) 0.5148(3) 0.2742(4)
H1 H 0.23220 0.45140 0.23470
C2 C 0.0038(5) 0.25000 0.4614(6)
H2 H -0.02780 0.25000 0.56140
N1 N 0.4231(8) 0.75000 0.3997(6)
C3 C 0.4290(9) 0.7758(9) 0.5628(8)
H3 H 0.35100 0.74000 0.62280
H4 H 0.43480 0.85270 0.58550
C4 C 0.5892(10) 0.7157(9) 0.5607(9)
H5 H 0.66430 0.74260 0.63210
H6 H 0.58420 0.63710 0.55930
C5 C 0.5909(10) 0.7700(14) 0.4069(9)
H7 H 0.61870 0.84620 0.40940
H8 H 0.64950 0.73110 0.33120
H9 H 0.364(9) 0.695(5) 0.366(9)
O2G O 0.0178(3) 0.16051(18) 0.4035(3)
O1D O -0.2156(3) 0.4499(2) 0.6082(2)
O3D O -0.3827(3) 0.44490(19) 0.7932(2)
C1D C -0.2740(4) 0.4852(3) 0.7258(4)
H1D H -0.23220 0.54860 0.76530
Mn1A Mn -0.50000 0.50000 1.00000
Mn1A* Mn 0.50000 0.50000 0.00000
Mn1C Mn 0.00000 0.00000 0.50000
O2D O -0.0178(3) 0.66051(18) 0.5965(3)
O3A O 0.1173(3) 0.44490(19) 0.7068(2)
O3E O -0.1173(3) 0.55510(19) 0.2932(2)
C3G C 0.4290(9) 0.7242(9) 0.5628(8)
H3G H 0.35100 0.76000 0.62280
H4G H 0.43480 0.64730 0.58550
C4G C 0.5892(10) 0.7843(9) 0.5607(9)
H5G H 0.66430 0.75740 0.63210
H6G H 0.58420 0.86290 0.55930
C5G C 0.5909(10) 0.7300(14) 0.4069(9)
H7G H 0.61870 0.65380 0.40940
H8G H 0.64950 0.76890 0.33120
H9G H 0.364(9) 0.805(5) 0.366(9)
#END
