
#######################################################################
#
#                 Cambridge Crystallographic Data Centre
#                                CCDC
#
#######################################################################
#
# If this CIF has been generated from an entry in the Cambridge
# Structural Database, then it will include bibliographic, chemical,
# crystal, experimental, refinement or atomic coordinate data resulting
# from the CCDC's data processing and validation procedures.
#
#######################################################################

data_CSD_CIF_PADKIP18
_audit_creation_date 2013-07-19
_audit_creation_method CSD-ConQuest-V1
_database_code_CSD PADKIP18
_database_code_depnum_ccdc_archive 'CCDC 902516'
_chemical_formula_sum 'C6 H11 Mn1 N1 O6'
_chemical_formula_moiety
;
(C6 H6 Mn2 O12 2-)0.5n,n(C3 H8 N1 1+)
;
_journal_coden_Cambridge 1522
_journal_volume 61
_journal_year 2013
_journal_page_first 4928
_journal_name_full 'Acta Materialia '
loop_
_publ_author_name
"Wei Li"
"Zhiying Zhang"
"E.G.Bithell"
"A.S.Batsanov"
"P.T.Barton"
"P.J.Saines"
"Prashant Jain"
"C.J.Howard"
"M.A.Carpenter"
"A.K.Cheetham"
_chemical_name_systematic
;
catena-[azetidinium hemikis(hexakis(\m~2~-formato)-di-manganese)]
;
_cell_volume   1877.561
_exptl_crystal_colour 'colorless'
_exptl_crystal_density_diffrn 1.755
_exptl_crystal_description 'block'
_diffrn_ambient_temperature 190
#These two values have been output from a single CSD field.
_refine_ls_R_factor_gt 0.0346
_refine_ls_wR_factor_gt 0.0346
_symmetry_cell_setting monoclinic
_symmetry_space_group_name_H-M 'P 21/n'
_symmetry_Int_Tables_number 14
loop_
_symmetry_equiv_pos_site_id
_symmetry_equiv_pos_as_xyz
1 x,y,z
2 1/2-x,1/2+y,1/2-z
3 -x,-y,-z
4 -1/2+x,-1/2-y,-1/2+z
_cell_length_a 12.3642(3)
_cell_length_b 12.2823(3)
_cell_length_c 12.3730(4)
_cell_angle_alpha 90
_cell_angle_beta 92.222(3)
_cell_angle_gamma 90
_cell_formula_units_Z 8
loop_
_atom_type_symbol
_atom_type_radius_bond
C 0.68
H 0.23
Mn 1.61
N 0.68
O 0.68
loop_
_atom_site_label
_atom_site_type_symbol
_atom_site_fract_x
_atom_site_fract_y
_atom_site_fract_z
Mn1 Mn 0.75601(3) 0.52755(3) 0.24780(5)
O1 O 0.79935(17) 0.58218(16) 0.08478(17)
C1 C 0.7762(3) 0.5292(3) -0.0002(3)
H1 H 0.73670 0.46340 0.00660
Mn2 Mn 0.74202(4) 0.50079(15) -0.25124(4)
O2 O 0.70593(18) 0.46668(16) 0.40440(18)
C2 C 0.7199(3) 0.5039(3) 0.4974(3)
H2 H 0.76000 0.56960 0.50570
O3 O 0.69572(18) 0.68546(13) 0.2883(2)
C3 C 0.7296(3) 0.77823(18) 0.2679(3)
H3 H 0.79580 0.78240 0.23160
O4 O 0.40415(17) 0.52467(16) -0.18244(18)
C4 C 0.7691(3) 0.7514(4) -0.2658(3)
H4 H 0.73700 0.75230 -0.19730
O5 O 0.68553(16) 0.86649(13) 0.29033(18)
C5 C 0.4934(2) 0.4993(3) -0.2177(3)
H5 H 0.49630 0.43650 -0.26230
O6 O 1.07910(16) 0.42084(15) -0.30208(19)
C6 C 0.9947(2) 0.4669(3) -0.2700(3)
H6 H 1.00350 0.52890 -0.22460
O7 O 0.77839(19) 0.6605(2) -0.31039(19)
O8 O 0.58002(17) 0.55055(19) -0.19878(18)
O9 O 0.90105(18) 0.4365(2) -0.29403(19)
O10 O 0.68456(17) 0.46078(19) 0.58121(18)
O11 O 0.79785(18) 0.8400(2) -0.30260(19)
O12 O 0.80148(19) 0.5570(2) -0.09204(18)
N1 N 0.9153(3) 0.7674(3) 0.0085(3)
H7 H 0.88070 0.83050 -0.01290
H8 H 0.86620 0.71490 0.02690
C7 C 0.9970(4) 0.7282(4) -0.0694(5)
H9 H 0.97710 0.65870 -0.10530
H10 H 1.01730 0.78380 -0.12290
C8 C 1.0777(4) 0.7159(4) 0.0237(4)
H11 H 1.14870 0.75000 0.01120
H12 H 1.08670 0.64000 0.04940
C9 C 1.0044(4) 0.7846(4) 0.0924(4)
H13 H 0.98990 0.75200 0.16350
H14 H 1.02770 0.86140 0.10020
N2 N 0.5147(3) 0.7361(3) -0.0821(3)
H15 H 0.53640 0.67380 -0.11640
H16 H 0.49380 0.78900 -0.13120
C10 C 0.5924(4) 0.7749(4) 0.0051(4)
H17 H 0.62790 0.84460 -0.01240
H18 H 0.64690 0.71950 0.02770
C11 C 0.5029(4) 0.7872(4) 0.0830(5)
H19 H 0.47610 0.86260 0.09040
H20 H 0.51820 0.75320 0.15450
C12 C 0.4345(4) 0.7165(4) 0.0043(4)
H21 H 0.42960 0.63940 0.02680
H22 H 0.36170 0.74680 -0.01330
Mn1A Mn 0.74399(3) 1.02755(3) 0.25220(5)
Mn1B Mn 0.24399(3) 0.47245(3) -0.24780(5)
Mn1B* Mn 1.24399(3) 0.47245(3) -0.24780(5)
Mn2* Mn 0.74202(4) 0.50079(15) 0.74876(4)
Mn2A Mn 0.75798(4) 1.00079(15) -0.24876(4)
O4B O 0.59585(17) 0.47533(16) 0.18244(18)
O5A O 0.81447(16) 0.36649(13) 0.20967(18)
O6B O 0.92090(16) 0.57916(15) 0.30208(19)
O10* O 0.68456(17) 0.46078(19) -0.41879(18)
O11A O 0.70215(18) 0.3400(2) -0.19740(19)
#END
