
#######################################################################
#
#                 Cambridge Crystallographic Data Centre
#                                CCDC
#
#######################################################################
#
# If this CIF has been generated from an entry in the Cambridge
# Structural Database, then it will include bibliographic, chemical,
# crystal, experimental, refinement or atomic coordinate data resulting
# from the CCDC's data processing and validation procedures.
#
#######################################################################

data_CSD_CIF_PADKIP25
_audit_creation_date 2013-07-19
_audit_creation_method CSD-ConQuest-V1
_database_code_CSD PADKIP25
_database_code_depnum_ccdc_archive 'CCDC 902509'
_chemical_formula_sum 'C6 H11 Mn1 N1 O6'
_chemical_formula_moiety
;
(C6 H6 Mn2 O12 2-)0.5n,n(C3 H8 N1 1+)
;
_journal_coden_Cambridge 1522
_journal_volume 61
_journal_year 2013
_journal_page_first 4928
_journal_name_full 'Acta Materialia '
loop_
_publ_author_name
"Wei Li"
"Zhiying Zhang"
"E.G.Bithell"
"A.S.Batsanov"
"P.T.Barton"
"P.J.Saines"
"Prashant Jain"
"C.J.Howard"
"M.A.Carpenter"
"A.K.Cheetham"
_chemical_name_systematic
;
catena-[azetidinium hemikis(hexakis(\m~2~-formato)-di-manganese)]
;
_cell_volume   1864.475
_exptl_crystal_colour 'colorless'
_exptl_crystal_density_diffrn 1.768
_exptl_crystal_description 'block'
_diffrn_ambient_temperature 120
#These two values have been output from a single CSD field.
_refine_ls_R_factor_gt 0.0298
_refine_ls_wR_factor_gt 0.0298
_symmetry_cell_setting monoclinic
_symmetry_space_group_name_H-M 'P 21/n'
_symmetry_Int_Tables_number 14
loop_
_symmetry_equiv_pos_site_id
_symmetry_equiv_pos_as_xyz
1 x,y,z
2 1/2-x,1/2+y,1/2-z
3 -x,-y,-z
4 -1/2+x,-1/2-y,-1/2+z
_cell_length_a 12.3255(4)
_cell_length_b 12.2741(3)
_cell_length_c 12.3385(3)
_cell_angle_alpha 90
_cell_angle_beta 92.749(3)
_cell_angle_gamma 90
_cell_formula_units_Z 8
loop_
_atom_type_symbol
_atom_type_radius_bond
C 0.68
H 0.23
Mn 1.61
N 0.68
O 0.68
loop_
_atom_site_label
_atom_site_type_symbol
_atom_site_fract_x
_atom_site_fract_y
_atom_site_fract_z
Mn1 Mn 0.75671(3) 0.53060(2) 0.24694(4)
O1 O 0.79951(14) 0.58505(14) 0.08399(15)
C1 C 0.7769(2) 0.5302(2) -0.0007(2)
H1 H 0.73760 0.46420 0.00670
Mn2 Mn 0.74074(3) 0.50133(9) -0.25230(4)
O2 O 0.70519(16) 0.46881(14) 0.40214(16)
C2 C 0.7180(2) 0.5068(2) 0.4956(2)
H2 H 0.75720 0.57300 0.50460
O3 O 0.69584(16) 0.68803(12) 0.28851(17)
C3 C 0.7296(2) 0.78090(16) 0.2684(2)
H3 H 0.79570 0.78570 0.23210
O4 O 0.40335(15) 0.52173(14) -0.17893(15)
C4 C 0.7694(2) 0.7515(3) -0.2643(2)
H4 H 0.73790 0.75170 -0.19560
O5 O 0.68425(14) 0.86914(12) 0.29162(15)
C5 C 0.4923(2) 0.4985(2) -0.2172(2)
H5 H 0.49480 0.43720 -0.26410
O6 O 1.07775(14) 0.41763(13) -0.30254(15)
C6 C 0.9935(2) 0.4643(2) -0.2700(2)
H6 H 1.00330 0.52510 -0.22290
O7 O 0.77721(17) 0.66160(17) -0.31117(16)
O8 O 0.57972(15) 0.55089(15) -0.19774(15)
O9 O 0.89910(15) 0.43579(16) -0.29570(16)
O10 O 0.68207(15) 0.46264(15) 0.57925(15)
O11 O 0.79970(15) 0.84077(17) -0.30045(17)
O12 O 0.80281(16) 0.55695(16) -0.09320(15)
N1 N 0.9155(2) 0.7687(2) 0.0071(3)
H7 H 0.88120 0.83180 -0.01580
H8 H 0.86590 0.71700 0.02630
C7 C 0.9977(3) 0.7271(3) -0.0699(3)
H9 H 1.01990 0.78190 -0.12340
H10 H 0.97660 0.65770 -0.10610
C8 C 1.0782(3) 0.7134(3) 0.0262(3)
H11 H 1.15080 0.74450 0.01470
H12 H 1.08390 0.63780 0.05390
C9 C 1.0054(3) 0.7867(3) 0.0913(3)
H13 H 0.99000 0.75740 0.16370
H14 H 1.03060 0.86330 0.09650
N2 N 0.5137(2) 0.7347(2) -0.0796(2)
H15 H 0.53630 0.67270 -0.11380
H16 H 0.49110 0.78690 -0.12920
C10 C 0.5933(3) 0.7762(3) 0.0075(3)
H17 H 0.62750 0.84640 -0.01080
H18 H 0.64900 0.72200 0.03110
C11 C 0.5016(3) 0.7875(3) 0.0849(3)
H19 H 0.47300 0.86250 0.09070
H20 H 0.51780 0.75530 0.15750
C12 C 0.4336(3) 0.7135(3) 0.0073(3)
H21 H 0.43110 0.63650 0.03100
H22 H 0.35970 0.74170 -0.01090
Mn1A Mn 0.74329(3) 1.03060(2) 0.25306(4)
Mn1B Mn 0.24329(3) 0.46940(2) -0.24694(4)
Mn1B* Mn 1.24329(3) 0.46940(2) -0.24694(4)
Mn2* Mn 0.74074(3) 0.50133(9) 0.74770(4)
Mn2A Mn 0.75926(3) 1.00133(9) -0.24770(4)
O4B O 0.59665(15) 0.47827(14) 0.17893(15)
O5A O 0.81575(14) 0.36914(12) 0.20838(15)
O6B O 0.92225(14) 0.58237(13) 0.30254(15)
O10* O 0.68207(15) 0.46264(15) -0.42075(15)
O11A O 0.70030(15) 0.34077(17) -0.19955(17)
#END
