
#######################################################################
#
#                 Cambridge Crystallographic Data Centre
#                                CCDC
#
#######################################################################
#
# If this CIF has been generated from an entry in the Cambridge
# Structural Database, then it will include bibliographic, chemical,
# crystal, experimental, refinement or atomic coordinate data resulting
# from the CCDC's data processing and validation procedures.
#
#######################################################################

data_CSD_CIF_PAFXED
_audit_creation_date 2020-10-14
_audit_creation_method CSD-ConQuest-V1
_database_code_CSD PAFXED
_database_code_depnum_ccdc_archive 'CCDC 1561784'
_chemical_formula_sum 'C6 H12 Cr1 N1 O13 Zn1'
_chemical_formula_moiety
;
(C6 H6 Cr1 O12 Zn1 1-)n,n(H4 N1 1+),n(H2 O1)
;
_journal_coden_Cambridge 1183
_journal_volume 732
_journal_year 2018
_journal_page_first 201
_journal_name_full 'J.Alloys Compd. '
loop_
_publ_author_name
"M.Maczka"
"J.Janczak"
"K.Hermanowicz"
"J.Hanuza"
_chemical_name_systematic
;
catena-(ammonium hexakis(\m-formato)-chromium-zinc monohydrate)
;
_cell_volume    756.428
_exptl_crystal_colour 'violet'
_exptl_crystal_density_diffrn 1.86
_exptl_crystal_description 'parallelepiped'
_diffrn_ambient_temperature 100
#These two values have been output from a single CSD field.
_refine_ls_R_factor_gt 0.0531
_refine_ls_wR_factor_gt 0.0531
_symmetry_cell_setting hexagonal
_symmetry_space_group_name_H-M 'P -3 1 c'
_symmetry_Int_Tables_number 163
loop_
_symmetry_equiv_pos_site_id
_symmetry_equiv_pos_as_xyz
1 x,y,z
2 -y,x-y,z
3 -x+y,-x,z
4 -y,-x,1/2-z
5 -x+y,y,1/2-z
6 x,x-y,1/2-z
7 -x,-y,-z
8 y,-x+y,-z
9 x-y,x,-z
10 y,x,-1/2+z
11 x-y,-y,-1/2+z
12 -x,-x+y,-1/2+z
_cell_length_a 7.7142(5)
_cell_length_b 7.7142(5)
_cell_length_c 14.6776(9)
_cell_angle_alpha 90
_cell_angle_beta 90
_cell_angle_gamma 120
_cell_formula_units_Z 2
loop_
_atom_type_symbol
_atom_type_radius_bond
C 0.68
H 0.23
Cr 1.39
N 0.68
O 0.68
Zn 1.22
loop_
_atom_site_label
_atom_site_type_symbol
_atom_site_fract_x
_atom_site_fract_y
_atom_site_fract_z
Zn1 Zn 0.66670 0.33330 0.25000
Cr1 Cr 0.00000 0.00000 0.50000
O1 O 0.1964(3) 0.2228(3) 0.42365(13)
O2 O 0.4507(4) 0.3538(4) 0.32743(15)
C1 C 0.3349(5) 0.2208(5) 0.3806(2)
H1 H 0.35330 0.10890 0.38920
O3 O 0.33330 0.66670 0.25000
N1 N 0.33330 0.66670 0.4266(8)
O1A O -0.2228(3) -0.0264(3) 0.42365(13)
O2A O -0.3538(4) 0.0969(4) 0.32743(15)
C1A C -0.2208(5) 0.1141(5) 0.3806(2)
H1A H -0.10890 0.24440 0.38920
O1B O 0.0264(3) -0.1964(3) 0.42365(13)
O2B O -0.0969(4) -0.4507(4) 0.32743(15)
C1B C -0.1141(5) -0.3349(5) 0.3806(2)
H1B H -0.24440 -0.35330 0.38920
O1E O 0.1964(3) -0.0264(3) 0.07635(13)
O2E O 0.4507(4) 0.0969(4) 0.17257(15)
C1E C 0.3349(5) 0.1141(5) 0.1194(2)
H1E H 0.35330 0.24440 0.11080
O1C O 0.7772(3) 0.8036(3) 0.07635(13)
O2C O 0.6462(4) 0.5493(4) 0.17257(15)
C1C C 0.7792(5) 0.6651(5) 0.1194(2)
H1C H 0.89110 0.64670 0.11080
O1D O 1.0264(3) 0.2228(3) 0.07635(13)
O2D O 0.9031(4) 0.3538(4) 0.17257(15)
C1D C 0.8859(5) 0.2208(5) 0.1194(2)
H1D H 0.75560 0.10890 0.11080
Zn1* Zn -0.33330 -0.66670 0.25000
Zn1** Zn -0.33330 0.33330 0.25000
Cr1C Cr 0.00000 0.00000 0.00000
Cr1C* Cr 1.00000 0.00000 0.00000
Cr1C** Cr 1.00000 1.00000 0.00000
O1F O -0.1964(3) -0.2228(3) 0.57635(13)
O1G O 0.2228(3) 0.0264(3) 0.57635(13)
O1H O -0.0264(3) 0.1964(3) 0.57635(13)
O2A* O 0.6462(4) 0.0969(4) 0.32743(15)
O2B* O 0.9031(4) 0.5493(4) 0.32743(15)
#END
