
#######################################################################
#
#                 Cambridge Crystallographic Data Centre
#                                CCDC
#
#######################################################################
#
# If this CIF has been generated from an entry in the Cambridge
# Structural Database, then it will include bibliographic, chemical,
# crystal, experimental, refinement or atomic coordinate data resulting
# from the CCDC's data processing and validation procedures.
#
#######################################################################

data_CSD_CIF_PAFXED01
_audit_creation_date 2020-10-14
_audit_creation_method CSD-ConQuest-V1
_database_code_CSD PAFXED01
_database_code_depnum_ccdc_archive 'CCDC 1561785'
_chemical_formula_sum 'C6 H12 Cr1 N1 O13 Zn1'
_chemical_formula_moiety
;
(C6 H6 Cr1 O12 Zn1 1-)n,n(H4 N1 1+),n(H2 O1)
;
_journal_coden_Cambridge 1183
_journal_volume 732
_journal_year 2018
_journal_page_first 201
_journal_name_full 'J.Alloys Compd. '
loop_
_publ_author_name
"M.Maczka"
"J.Janczak"
"K.Hermanowicz"
"J.Hanuza"
_chemical_name_systematic
;
catena-(ammonium hexakis(\m-formato)-chromium-zinc monohydrate)
;
_cell_volume    763.591
_exptl_crystal_colour 'violet'
_exptl_crystal_density_diffrn 1.842
_exptl_crystal_description 'parallelepiped'
_diffrn_ambient_temperature 295
#These two values have been output from a single CSD field.
_refine_ls_R_factor_gt 0.0588
_refine_ls_wR_factor_gt 0.0588
_symmetry_cell_setting hexagonal
_symmetry_space_group_name_H-M 'P -3 1 c'
_symmetry_Int_Tables_number 163
loop_
_symmetry_equiv_pos_site_id
_symmetry_equiv_pos_as_xyz
1 x,y,z
2 -y,x-y,z
3 -x+y,-x,z
4 -y,-x,1/2-z
5 -x+y,y,1/2-z
6 x,x-y,1/2-z
7 -x,-y,-z
8 y,-x+y,-z
9 x-y,x,-z
10 y,x,-1/2+z
11 x-y,-y,-1/2+z
12 -x,-x+y,-1/2+z
_cell_length_a 7.7604(7)
_cell_length_b 7.7604(7)
_cell_length_c 14.6407(11)
_cell_angle_alpha 90
_cell_angle_beta 90
_cell_angle_gamma 120
_cell_formula_units_Z 2
loop_
_atom_type_symbol
_atom_type_radius_bond
C 0.68
H 0.23
Cr 1.39
N 0.68
O 0.68
Zn 1.22
loop_
_atom_site_label
_atom_site_type_symbol
_atom_site_fract_x
_atom_site_fract_y
_atom_site_fract_z
Zn1 Zn 0.66670 0.33330 0.25000
O1 O 0.9006(5) 0.5494(5) 0.17166(19)
C1 C 0.8849(6) 0.6653(6) 0.1199(3)
O2 O 1.0221(4) 0.8019(4) 0.07672(17)
H1 H 0.75860 0.64890 0.11260
Cr1 Cr 1.00000 1.00000 0.00000
N1 N 1.33330 0.66670 0.0737(15)
O3 O 1.33330 0.66670 0.25000
O1A O 0.4506(5) 0.3512(5) 0.17166(19)
O1B O 0.6488(5) 0.0994(5) 0.17166(19)
O1C O 0.4506(5) 0.0994(5) 0.32834(19)
O1D O 0.6488(5) 0.5494(5) 0.32834(19)
O1E O 0.9006(5) 0.3512(5) 0.32834(19)
C1A C 0.3347(6) 0.2196(6) 0.1199(3)
C1B C 0.7804(6) 0.1151(6) 0.1199(3)
C1C C 0.3347(6) 0.1151(6) 0.3801(3)
O2A O 0.1981(4) 0.2202(4) 0.07672(17)
H1A H 0.35110 0.10970 0.11260
O2B O 0.7798(4) -0.0221(4) 0.07672(17)
H1B H 0.89030 0.24140 0.11260
O2C O 0.1981(4) -0.0221(4) 0.42328(17)
H1C H 0.35110 0.24140 0.38740
Cr1* Cr 0.00000 0.00000 0.00000
Cr1** Cr 1.00000 0.00000 0.00000
Cr1C Cr 0.00000 0.00000 0.50000
O2B* O -0.2202(4) -0.0221(4) 0.07672(17)
O2* O 0.0221(4) -0.1981(4) 0.07672(17)
O2F O -0.0221(4) 0.1981(4) -0.07672(17)
O2H O 0.2202(4) 0.0221(4) -0.07672(17)
O2G O -0.1981(4) -0.2202(4) -0.07672(17)
C1B* C -0.2196(6) 0.1151(6) 0.1199(3)
C1* C -0.1151(6) -0.3347(6) 0.1199(3)
O1B* O -0.3512(5) 0.0994(5) 0.17166(19)
H1B* H -0.10970 0.24140 0.11260
O1* O -0.0994(5) -0.4506(5) 0.17166(19)
H1* H -0.24140 -0.35110 0.11260
Zn1* Zn -0.33330 0.33330 0.25000
Zn1** Zn -0.33330 -0.66670 0.25000
#END
