
#######################################################################
#
#                 Cambridge Crystallographic Data Centre
#                                CCDC
#
#######################################################################
#
# If this CIF has been generated from an entry in the Cambridge
# Structural Database, then it will include bibliographic, chemical,
# crystal, experimental, refinement or atomic coordinate data resulting
# from the CCDC's data processing and validation procedures.
#
#######################################################################

data_CSD_CIF_PAGRUO
_audit_creation_date 2020-10-14
_audit_creation_method CSD-ConQuest-V1
_database_code_CSD PAGRUO
_database_code_depnum_ccdc_archive 'CCDC 2016279'
_chemical_formula_sum 'C36 H60 N4 O15 Zn2'
_chemical_formula_moiety
;
(C12 O12 Zn2 2-)n,3(C8 H20 N1 1+),N1 O3 1-
;
_journal_coden_Cambridge 29
_journal_volume 646
_journal_year 2020
_journal_page_first 1618
_journal_name_full 'Z.Anorg.Allg.Chem. '
loop_
_publ_author_name
"L.Best-Thompson"
"P.J.Saines"
_chemical_name_systematic
;
catena-(ethyl(di-isopropyl)ammonium tris(\m-acetylenedicarboxylato)-di-zinc 
nitrate)
;
_cell_volume   4290.944
_exptl_crystal_colour 'colorless'
_exptl_crystal_density_diffrn 1.424
_exptl_crystal_description 'block'
_diffrn_ambient_temperature 100.0
_diffrn_special_details
;
twin

;
#These two values have been output from a single CSD field.
_refine_ls_R_factor_gt 0.0283
_refine_ls_wR_factor_gt 0.0283
_symmetry_cell_setting orthorhombic
_symmetry_space_group_name_H-M 'P n a 21'
_symmetry_Int_Tables_number 33
loop_
_symmetry_equiv_pos_site_id
_symmetry_equiv_pos_as_xyz
1 x,y,z
2 -x,-y,1/2+z
3 1/2+x,1/2-y,z
4 1/2-x,1/2+y,1/2+z
_cell_length_a 18.1647(3)
_cell_length_b 15.6263(2)
_cell_length_c 15.1171(2)
_cell_angle_alpha 90
_cell_angle_beta 90
_cell_angle_gamma 90
_cell_formula_units_Z 4
loop_
_atom_type_symbol
_atom_type_radius_bond
C 0.68
H 0.23
N 0.68
O 0.68
Zn 1.22
loop_
_atom_site_label
_atom_site_type_symbol
_atom_site_fract_x
_atom_site_fract_y
_atom_site_fract_z
Zn1 Zn 0.49099(2) 0.32334(2) 0.57075(2)
Zn2 Zn 0.00470(2) 0.32049(2) 0.42797(3)
O1 O -0.00459(12) 0.40421(17) 0.3335(2)
O2 O 0.50002(12) 0.40965(17) 0.6618(2)
O3 O 0.39554(13) 0.17156(17) 0.4624(2)
O4 O 0.38401(14) 0.45784(17) 0.67983(19)
O5 O 0.52225(18) 0.70735(18) 0.8632(2)
O6 O 0.50522(18) 0.6021(2) 0.9614(2)
O7 O 0.10255(13) 0.18860(19) 0.5603(2)
O8 O -0.0234(2) 0.60683(19) 0.0371(2)
O9 O 0.10717(13) 0.26920(19) 0.4409(2)
O10 O 0.38587(12) 0.29279(19) 0.5438(2)
O11 O 0.11335(14) 0.43981(17) 0.30810(19)
O12 O 0.00510(17) 0.70532(19) 0.1382(2)
C1 C 0.13469(17) 0.2274(2) 0.5006(2)
C2 C 0.50946(17) 0.6303(2) 0.8873(3)
C3 C 0.49751(18) 0.5647(2) 0.8194(3)
C4 C 0.21521(17) 0.2213(2) 0.5016(2)
C5 C 0.02074(19) 0.5047(2) 0.2269(3)
C6 C 0.44994(19) 0.4562(2) 0.6963(2)
C7 C 0.36170(18) 0.22863(19) 0.5030(2)
C8 C 0.04658(19) 0.4444(2) 0.2948(2)
C9 C -0.00599(17) 0.6296(2) 0.1111(3)
C10 C 0.28079(18) 0.2214(2) 0.5033(2)
C11 C 0.47729(19) 0.5146(2) 0.7647(3)
C12 C 0.00403(17) 0.5583(2) 0.1741(3)
O13 O 0.32830(13) 0.73387(18) 0.53300(19)
O14 O 0.26715(16) 0.7838(2) 0.4244(2)
O15 O 0.20974(15) 0.7430(2) 0.5380(2)
N1 N 0.26742(15) 0.7538(2) 0.4981(3)
N2 N 0.25220(16) 0.52843(19) 0.7456(2)
H1 H 0.30230 0.50850 0.73320
C13 C 0.24854(18) 0.6236(2) 0.7141(3)
H2 H 0.25780 0.62300 0.65030
C14 C 0.3091(2) 0.6779(2) 0.7555(3)
H3 H 0.29820 0.68730 0.81690
H4 H 0.31190 0.73190 0.72550
H5 H 0.35540 0.64860 0.75030
C15 C 0.19957(19) 0.4658(2) 0.6983(3)
H6 H 0.14890 0.47840 0.71640
C16 C 0.2059(2) 0.4770(2) 0.6023(3)
H7 H 0.19170 0.53420 0.58670
H8 H 0.17430 0.43690 0.57290
H9 H 0.25600 0.46730 0.58450
C17 C 0.2420(2) 0.5220(3) 0.8417(2)
H10 H 0.20110 0.48400 0.85420
H11 H 0.23010 0.57800 0.86540
C18 C 0.2180(2) 0.3704(2) 0.7222(3)
H12 H 0.26570 0.35600 0.69940
H13 H 0.18160 0.33340 0.69650
H14 H 0.21780 0.36360 0.78530
C19 C 0.1727(2) 0.6638(3) 0.7270(3)
H15 H 0.13600 0.62810 0.70000
H16 H 0.17190 0.71940 0.70000
H17 H 0.16260 0.66910 0.78910
C20 C 0.3103(2) 0.4885(3) 0.8863(3)
H18 H 0.32150 0.43250 0.86390
H19 H 0.30210 0.48540 0.94890
H20 H 0.35070 0.52630 0.87440
N3 N 0.47246(16) 0.76464(18) 0.4721(2)
H21 H 0.42000 0.75230 0.47990
C21 C 0.4908(2) 0.7384(3) 0.3799(3)
H22 H 0.53230 0.69930 0.38080
H23 H 0.50490 0.78840 0.34580
C22 C 0.51293(19) 0.7076(2) 0.5378(3)
H24 H 0.56600 0.71260 0.52740
C23 C 0.4812(2) 0.8636(2) 0.4872(3)
H25 H 0.46810 0.87480 0.54910
C24 C 0.42749(18) 0.9138(2) 0.4307(3)
H26 H 0.44530 0.91610 0.37090
H27 H 0.42290 0.97080 0.45360
H28 H 0.38030 0.88620 0.43170
C25 C 0.56018(19) 0.8937(2) 0.4752(3)
H29 H 0.59200 0.86140 0.51330
H30 H 0.56360 0.95330 0.48980
H31 H 0.57480 0.88530 0.41480
C26 C 0.4894(2) 0.6107(3) 0.5254(4)
H32 H 0.43710 0.60550 0.53310
H33 H 0.51420 0.57600 0.56850
H34 H 0.50260 0.59190 0.46710
C27 C 0.4264(2) 0.6956(3) 0.3365(3)
H35 H 0.43860 0.68180 0.27640
H36 H 0.38480 0.73350 0.33730
H37 H 0.41440 0.64410 0.36800
C28 C 0.4967(2) 0.7368(3) 0.6278(3)
H38 H 0.51880 0.79180 0.63720
H39 H 0.51620 0.69660 0.66960
H40 H 0.44440 0.74120 0.63540
N4 N 0.24610(17) 0.51109(18) 0.2484(2)
H41 H 0.19540 0.50270 0.26880
C29 C 0.25780(18) 0.4466(2) 0.1741(2)
H42 H 0.24960 0.38920 0.19840
C30 C 0.2002(2) 0.4628(3) 0.1054(3)
H43 H 0.15240 0.46150 0.13240
H44 H 0.20300 0.41950 0.06050
H45 H 0.20820 0.51800 0.07910
C31 C 0.2941(2) 0.4930(2) 0.3263(2)
H46 H 0.34470 0.50960 0.31160
C32 C 0.25166(19) 0.6073(2) 0.2204(3)
H47 H 0.29060 0.63440 0.25420
H48 H 0.26520 0.61030 0.15840
C33 C 0.2936(2) 0.3958(2) 0.3509(3)
H49 H 0.24360 0.37670 0.35760
H50 H 0.31960 0.38750 0.40550
H51 H 0.31710 0.36370 0.30480
C34 C 0.3361(2) 0.4508(3) 0.1402(3)
H52 H 0.34600 0.50740 0.11850
H53 H 0.34230 0.41020 0.09310
H54 H 0.36950 0.43750 0.18740
C35 C 0.2674(2) 0.5492(3) 0.4003(3)
H55 H 0.26650 0.60770 0.38080
H56 H 0.29990 0.54390 0.45000
H57 H 0.21860 0.53200 0.41720
C36 C 0.1809(2) 0.6569(2) 0.2342(4)
H58 H 0.14150 0.62910 0.20300
H59 H 0.18680 0.71410 0.21210
H60 H 0.16950 0.65880 0.29620
Zn1A Zn 0.50901(2) 0.67666(2) 1.07075(2)
Zn1B Zn -0.00901(2) 0.17666(2) 0.57075(2)
Zn1C Zn 0.00901(2) 0.82334(2) 0.07075(2)
Zn2A Zn -0.00470(2) 0.67951(2) -0.07203(3)
Zn2B Zn 0.50470(2) 0.17951(2) 0.42797(3)
Zn2C Zn 0.49530(2) 0.82049(2) 0.92797(3)
O3B O -0.10446(13) 0.32844(17) 0.4624(2)
O5C O -0.02225(18) 0.20735(18) 0.3632(2)
O6A O 0.49478(18) 0.3979(2) 0.4614(2)
O7B O 0.60255(13) 0.31140(19) 0.5603(2)
O8A O 0.0234(2) 0.39317(19) 0.5371(2)
O12C O 0.49490(17) 0.20532(19) 0.6382(2)
#END
