
#######################################################################
#
#                 Cambridge Crystallographic Data Centre
#                                CCDC
#
#######################################################################
#
# If this CIF has been generated from an entry in the Cambridge
# Structural Database, then it will include bibliographic, chemical,
# crystal, experimental, refinement or atomic coordinate data resulting
# from the CCDC's data processing and validation procedures.
#
#######################################################################

data_CSD_CIF_PAGSAV
_audit_creation_date 2020-10-14
_audit_creation_method CSD-ConQuest-V1
_database_code_CSD PAGSAV
_database_code_depnum_ccdc_archive 'CCDC 2016280'
_chemical_formula_sum 'C32 H40 N2 O16 Zn3'
_chemical_formula_moiety
;
(C16 O16 Zn3 2-)n,2(C8 H20 N1 1+)
;
_journal_coden_Cambridge 29
_journal_volume 646
_journal_year 2020
_journal_page_first 1618
_journal_name_full 'Z.Anorg.Allg.Chem. '
loop_
_publ_author_name
"L.Best-Thompson"
"P.J.Saines"
_chemical_name_systematic
;
catena-(ethyl(di-isopropyl)ammonium 
tetrakis(\m-acetylenedicarboxylato)-tri-zinc unknown solvate)
;
_cell_volume   8792.125
_exptl_crystal_colour 'colorless'
_exptl_crystal_density_diffrn 1.367
_exptl_crystal_description 'block'
_diffrn_ambient_temperature 100
_refine_special_details
;
Some disordered solvent in the cavities could not be modelled.

;
#These two values have been output from a single CSD field.
_refine_ls_R_factor_gt 0.1289
_refine_ls_wR_factor_gt 0.1289
_symmetry_cell_setting orthorhombic
_symmetry_space_group_name_H-M 'P b c a'
_symmetry_Int_Tables_number 61
loop_
_symmetry_equiv_pos_site_id
_symmetry_equiv_pos_as_xyz
1 x,y,z
2 1/2-x,-y,1/2+z
3 -x,1/2+y,1/2-z
4 1/2+x,1/2-y,-z
5 -x,-y,-z
6 -1/2+x,y,-1/2-z
7 x,-1/2-y,-1/2+z
8 -1/2-x,-1/2+y,z
_cell_length_a 20.7992(8)
_cell_length_b 15.2528(12)
_cell_length_c 27.7139(13)
_cell_angle_alpha 90
_cell_angle_beta 90
_cell_angle_gamma 90
_cell_formula_units_Z 8
loop_
_atom_type_symbol
_atom_type_radius_bond
C 0.68
H 0.23
N 0.68
O 0.68
Zn 1.22
loop_
_atom_site_label
_atom_site_type_symbol
_atom_site_fract_x
_atom_site_fract_y
_atom_site_fract_z
Zn1 Zn 0.37927(4) 0.16603(7) 0.56236(4)
Zn2 Zn 0.74986(4) 0.28741(6) 0.37427(3)
Zn3 Zn 0.61879(4) 0.24146(7) 0.31125(4)
O1 O 0.6854(2) 0.3317(3) 0.3201(2)
O2 O 0.3150(2) 0.2592(3) 0.5725(2)
O3 O 0.3243(2) 0.3101(4) 0.1732(2)
O4 O 0.7547(2) 0.6621(4) 0.3438(2)
O5 O 0.6761(2) 0.2654(4) 0.4220(2)
O6 O 0.2470(2) 0.5865(4) 0.5954(2)
O7 O 0.1667(3) 0.5600(4) 0.5423(2)
O8 O 0.4544(3) 0.1671(4) 0.5225(2)
O9 O 0.5432(3) 0.2452(4) 0.2712(2)
O10 O 0.4073(3) 0.3560(5) 0.1290(2)
O11 O 0.8364(3) 0.6345(4) 0.2920(2)
O12 O 0.5895(3) 0.2258(5) 0.3777(2)
O13 O 0.4700(3) 0.3044(6) 0.5490(3)
O14 O 0.5265(3) 0.3770(5) 0.3033(3)
C1 C 0.3792(3) 0.3341(5) 0.1668(3)
O15 O 0.6693(5) 0.3718(6) 0.2441(3)
C2 C 0.2475(3) 0.4584(6) 0.5517(3)
C3 C 0.2705(4) 0.3883(6) 0.5438(3)
C4 C 0.3068(4) 0.3082(6) 0.5348(3)
C5 C 0.7848(4) 0.6160(5) 0.3131(3)
C6 C 0.7550(3) 0.5333(6) 0.3012(3)
C7 C 0.4221(3) 0.3360(6) 0.2098(3)
C8 C 0.2200(4) 0.5415(6) 0.5648(3)
C9 C 0.4613(4) 0.3300(6) 0.2403(4)
C10 C 0.6182(3) 0.2455(6) 0.4156(3)
C11 C 0.7289(4) 0.4628(5) 0.2929(3)
C12 C 0.4848(4) 0.2412(6) 0.5242(3)
C13 C 0.5135(4) 0.3196(7) 0.2749(3)
C14 C 0.6923(4) 0.3841(6) 0.2838(3)
C15 C 0.5774(4) 0.2456(6) 0.4583(3)
C16 C 0.5375(4) 0.2454(7) 0.4903(3)
O16 O 0.3286(4) 0.2905(5) 0.4948(2)
C17 C 0.596(1) 0.5284(15) 0.3825(7)
H1 H 0.58000 0.50670 0.41270
H2 H 0.63210 0.56620 0.38820
H3 H 0.60910 0.48010 0.36260
N1 N 0.4781(8) 0.5394(13) 0.3528(6)
H4 H 0.48930 0.48140 0.34020
C18 C 0.4616(11) 0.5170(14) 0.4030(7)
H5 H 0.42470 0.55220 0.41210
H6 H 0.49720 0.53520 0.42320
C19 C 0.5431(8) 0.5799(16) 0.3568(7)
H7 H 0.53810 0.63590 0.37380
C20 C 0.4148(10) 0.6598(13) 0.3363(8)
H8 H 0.37270 0.65740 0.35040
H9 H 0.41520 0.70240 0.31080
H10 H 0.44560 0.67620 0.36050
C21 C 0.3737(9) 0.5111(16) 0.3140(8)
H11 H 0.37990 0.46650 0.29000
H12 H 0.33670 0.54560 0.30580
H13 H 0.36730 0.48420 0.34490
C22 C 0.4457(10) 0.4188(14) 0.4158(8)
H14 H 0.42220 0.39260 0.38980
H15 H 0.42020 0.41700 0.44470
H16 H 0.48500 0.38710 0.42090
C23 C 0.5724(10) 0.6000(15) 0.3063(7)
H17 H 0.61850 0.60040 0.30860
H18 H 0.55770 0.65630 0.29550
H19 H 0.55920 0.55570 0.28380
C24 C 0.4324(9) 0.5694(13) 0.3158(8)
H20 H 0.45290 0.57420 0.28410
N2 N 0.4067(11) 0.0470(15) 0.3834(8)
H21 H 0.39070 0.05890 0.35080
C25 C 0.5081(13) 0.025(2) 0.4299(9)
H22 H 0.48620 0.06040 0.45350
H23 H 0.55260 0.04190 0.42870
H24 H 0.50470 -0.03550 0.43850
C26 C 0.3824(11) 0.1174(19) 0.4166(11)
H25 H 0.39080 0.17480 0.40290
H26 H 0.40390 0.11370 0.44760
C27 C 0.3080(11) 0.103(2) 0.4231(10)
H27 H 0.28770 0.10150 0.39200
H28 H 0.29040 0.15080 0.44160
H29 H 0.30050 0.04900 0.43970
C28 C 0.5015(13) 0.046(2) 0.3284(8)
H30 H 0.46590 0.03600 0.30700
H31 H 0.53390 0.00230 0.32270
H32 H 0.51910 0.10310 0.32260
C29 C 0.4780(12) 0.040(2) 0.3814(8)
H33 H 0.48230 0.10310 0.38510
C30 C 0.3852(14) -0.0412(16) 0.3979(9)
H34 H 0.33900 -0.04740 0.39210
C31 C 0.4230(12) -0.1029(19) 0.3643(10)
H35 H 0.44100 -0.06970 0.33810
H36 H 0.39460 -0.14690 0.35160
H37 H 0.45700 -0.13060 0.38210
C32 C 0.4001(13) -0.056(2) 0.4518(9)
H38 H 0.44230 -0.03470 0.45900
H39 H 0.39830 -0.11810 0.45870
H40 H 0.36900 -0.02610 0.47110
Zn1F Zn 0.37927(4) 0.33397(7) 0.06236(4)
Zn1G Zn 0.12073(4) 0.66603(7) 0.56236(4)
Zn2C Zn 0.24986(4) 0.21259(6) 0.62573(3)
Zn2D Zn 0.25014(4) 0.71259(6) 0.62573(3)
Zn2E Zn 0.24986(4) 0.28741(6) 0.12573(3)
Zn2G Zn 0.75014(4) 0.78741(6) 0.37427(3)
Zn3G Zn 0.88121(4) 0.74146(7) 0.31125(4)
O2C O 0.8150(2) 0.2408(3) 0.4275(2)
O3E O 0.8243(2) 0.3101(4) 0.3268(2)
O4G O 0.7453(2) 0.1621(4) 0.3438(2)
O6D O 0.7530(2) 0.4135(4) 0.4046(2)
O7G O 0.3333(3) 0.0600(4) 0.5423(2)
O10F O 0.4073(3) 0.1440(5) 0.6290(2)
O11G O 0.6636(3) 0.1345(4) 0.2920(2)
#END
