
#######################################################################
#
#                 Cambridge Crystallographic Data Centre
#                                CCDC
#
#######################################################################
#
# If this CIF has been generated from an entry in the Cambridge
# Structural Database, then it will include bibliographic, chemical,
# crystal, experimental, refinement or atomic coordinate data resulting
# from the CCDC's data processing and validation procedures.
#
#######################################################################

data_CSD_CIF_PAKSOK
_audit_creation_date 2005-07-27
_audit_creation_method CSD-ConQuest-V1
_database_code_CSD PAKSOK
_database_code_depnum_ccdc_archive 'CCDC 255668'
_chemical_formula_sum 'C44 H52 Cu2 N8 O16 S4'
_chemical_formula_moiety
;
(C24 H30 Cu1 N4 O1 2+)n,n(C20 H20 Cu1 N4 O14 S4 2-),n(H2 O1)
;
_journal_coden_Cambridge 182
_journal_year 2005
_journal_page_first 1270
_journal_name_full 'Chem.Commun. '
loop_
_publ_author_name
"L.J.May"
"G.K.H.Shimizu"
_chemical_name_systematic
;
catena-(bis(\m~2~-1,2-bis(4-pyridylethane))-aqua-copper(ii) 
diaqua-tetrakis(4-sulfonatopyridine)-copper(ii) monohydrate)
;
_cell_volume   2591.987
_exptl_crystal_colour 'blue'
_exptl_crystal_density_diffrn 1.53
_exptl_crystal_description 'block'
_diffrn_ambient_temperature 173
#These two values have been output from a single CSD field.
_refine_ls_R_factor_gt 0.0486
_refine_ls_wR_factor_gt 0.0486
_symmetry_cell_setting monoclinic
_symmetry_space_group_name_H-M 'C 2'
_symmetry_Int_Tables_number 5
loop_
_symmetry_equiv_pos_site_id
_symmetry_equiv_pos_as_xyz
1 x,y,z
2 -x,y,-z
3 1/2+x,1/2+y,z
4 1/2-x,1/2+y,-z
_cell_length_a 13.0227(3)
_cell_length_b 15.7828(5)
_cell_length_c 13.2204(5)
_cell_angle_alpha 90
_cell_angle_beta 107.465(1)
_cell_angle_gamma 90
_cell_formula_units_Z 2
loop_
_atom_type_symbol
_atom_type_radius_bond
C 0.68
H 0.23
Cu 1.52
N 0.68
O 0.68
S 1.02
loop_
_atom_site_label
_atom_site_type_symbol
_atom_site_fract_x
_atom_site_fract_y
_atom_site_fract_z
C1 C 0.6387(4) 0.5378(3) 0.5325(4)
H1 H 0.61520 0.53780 0.45720
C2 C 0.7122(4) 0.4768(3) 0.5847(4)
H2 H 0.74000 0.43680 0.54600
C3 C 0.7441(4) 0.4754(3) 0.6945(4)
C4 C 0.6996(4) 0.5330(3) 0.7484(4)
H3 H 0.71670 0.53100 0.82340
C5 C 0.6301(4) 0.5933(3) 0.6904(4)
H4 H 0.60240 0.63460 0.72770
C6 C 0.5725(4) 0.8446(3) 0.6285(4)
H5 H 0.49930 0.84750 0.62750
C7 C 0.6424(4) 0.9083(3) 0.6798(4)
H6 H 0.61750 0.95400 0.71280
C8 C 0.7489(4) 0.9037(3) 0.6816(4)
C9 C 0.7828(4) 0.8356(3) 0.6337(4)
H7 H 0.85590 0.83090 0.63510
C10 C 0.7088(4) 0.7747(3) 0.5838(4)
H8 H 0.73230 0.72820 0.55080
C11 C 0.7695(4) 0.7756(3) 0.9181(4)
H9 H 0.79620 0.82420 0.89180
C12 C 0.6620(4) 0.7722(3) 0.9093(4)
H10 H 0.61620 0.81810 0.87810
C13 C 0.6202(4) 0.7022(3) 0.9457(4)
C14 C 0.6925(4) 0.6373(3) 0.9898(4)
H11 H 0.66740 0.58700 1.01390
C15 C 0.7995(4) 0.6458(3) 0.9983(4)
H12 H 0.84770 0.60180 1.03130
C16 C 0.5045(4) 0.6967(4) 0.9435(4)
H13 H 0.47220 0.64410 0.90660
H14 H 0.46420 0.74550 0.90370
C17 C 1.0515(5) 0.6773(5) 0.5444(5)
H15 H 1.09950 0.72210 0.53170
H16 H 1.08810 0.62220 0.54610
C18 C 0.9547(4) 0.6549(4) 0.7875(4)
H17 H 0.91140 0.61720 0.81330
C19 C 0.9702(4) 0.6376(4) 0.6912(4)
H18 H 0.93890 0.58860 0.65230
C20 C 1.0324(4) 0.6926(4) 0.6508(4)
C21 C 1.0764(5) 0.7622(4) 0.7125(5)
H19 H 1.11950 0.80100 0.68840
C22 C 1.0579(4) 0.7757(4) 0.8096(4)
H20 H 1.08870 0.82390 0.85060
Cu1 Cu 0.50000 0.68774(5) 0.50000
Cu2 Cu 1.00000 0.72969(5) 1.00000
N1 N 0.5993(3) 0.5970(2) 0.5840(3)
N2 N 0.6042(3) 0.7790(2) 0.5801(3)
N3 N 0.8388(3) 0.7136(3) 0.9621(3)
N4 N 0.9975(3) 0.7220(3) 0.8466(3)
O1 O 0.9420(3) 0.4425(3) 0.7914(4)
O2 O 0.8317(3) 0.3326(2) 0.6872(4)
O3 O 0.8059(4) 0.3742(3) 0.8538(4)
O4 O 0.9399(3) 0.9681(2) 0.7197(3)
O5 O 0.8520(3) 0.9724(2) 0.8581(3)
O6 O 0.7892(3) 1.0633(2) 0.7032(3)
O7 O 1.00000 0.8724(3) 1.00000
H21? H 1.05010 0.89310 1.06650
H22 H 0.92730 0.89310 0.99340
H23? H 1.02260 0.89310 0.94010
O8 O 1.00000 0.5267(4) 1.00000
O9 O 0.4096(3) 0.6869(2) 0.6367(3)
S1 S 0.83987(10) 0.39889(7) 0.76430(11)
S2 S 0.84169(10) 0.98435(7) 0.74648(10)
C1A C 0.3613(4) 0.5378(3) 0.4675(4)
H1A H 0.38480 0.53780 0.54280
C2A C 0.2878(4) 0.4768(3) 0.4153(4)
H2A H 0.26000 0.43680 0.45400
C3A C 0.2559(4) 0.4754(3) 0.3055(4)
C4A C 0.3004(4) 0.5330(3) 0.2516(4)
H3A H 0.28330 0.53100 0.17660
C5A C 0.3699(4) 0.5933(3) 0.3096(4)
H4A H 0.39760 0.63460 0.27230
C6A C 0.4275(4) 0.8446(3) 0.3715(4)
H5A H 0.50070 0.84750 0.37250
C7A C 0.3576(4) 0.9083(3) 0.3202(4)
H6A H 0.38250 0.95400 0.28720
C8A C 0.2511(4) 0.9037(3) 0.3184(4)
C9A C 0.2172(4) 0.8356(3) 0.3663(4)
H7A H 0.14410 0.83090 0.36490
C10A C 0.2912(4) 0.7747(3) 0.4162(4)
H8A H 0.26770 0.72820 0.44920
C11A C 0.2305(4) 0.7756(3) 1.0819(4)
H9A H 0.20380 0.82420 1.10820
C12A C 0.3380(4) 0.7722(3) 1.0907(4)
H10A H 0.38380 0.81810 1.12190
C13A C 0.3798(4) 0.7022(3) 1.0543(4)
C14A C 0.3075(4) 0.6373(3) 1.0102(4)
H11A H 0.33260 0.58700 0.98610
C15A C 0.2005(4) 0.6458(3) 1.0017(4)
H12A H 0.15230 0.60180 0.96870
C16A C 0.4955(4) 0.6967(4) 1.0565(4)
H13A H 0.52780 0.64410 1.09340
H14A H 0.53580 0.74550 1.09630
C17A C 0.9485(5) 0.6773(5) 0.4556(5)
H15A H 0.90050 0.72210 0.46830
H16A H 0.91190 0.62220 0.45390
C18A C 1.0453(4) 0.6549(4) 0.2125(4)
H17A H 1.08860 0.61720 0.18670
C19A C 1.0298(4) 0.6376(4) 0.3088(4)
H18A H 1.06110 0.58860 0.34770
C20A C 0.9676(4) 0.6926(4) 0.3492(4)
C21A C 0.9236(5) 0.7622(4) 0.2875(5)
H19A H 0.88050 0.80100 0.31160
C22A C 0.9421(4) 0.7757(4) 0.1904(4)
H20A H 0.91130 0.82390 0.14940
Cu2* Cu 0.00000 0.72969(5) 1.00000
Cu2** Cu 1.00000 0.72969(5) 0.00000
N1A N 0.4007(3) 0.5970(2) 0.4160(3)
N2A N 0.3958(3) 0.7790(2) 0.4199(3)
N3A N 0.1612(3) 0.7136(3) 1.0379(3)
N3A* N 1.1612(3) 0.7136(3) 1.0379(3)
N4A N 1.0025(3) 0.7220(3) 0.1534(3)
N4A* N 1.0025(3) 0.7220(3) 1.1534(3)
O1A O 0.0580(3) 0.4425(3) 0.2086(4)
O2A O 0.1683(3) 0.3326(2) 0.3128(4)
O3A O 0.1941(4) 0.3742(3) 0.1462(4)
O4A O 0.0601(3) 0.9681(2) 0.2803(3)
O5A O 0.1480(3) 0.9724(2) 0.1419(3)
O6A O 0.2108(3) 1.0633(2) 0.2968(3)
H22A H 1.07270 0.89310 1.00660
O9A O 0.5904(3) 0.6869(2) 0.3633(3)
S1A S 0.16013(10) 0.39889(7) 0.23570(11)
S2A S 0.15831(10) 0.98435(7) 0.25352(10)
#END
