
#######################################################################
#
#                 Cambridge Crystallographic Data Centre
#                                CCDC
#
#######################################################################
#
# If this CIF has been generated from an entry in the Cambridge
# Structural Database, then it will include bibliographic, chemical,
# crystal, experimental, refinement or atomic coordinate data resulting
# from the CCDC's data processing and validation procedures.
#
#######################################################################

data_CSD_CIF_PALKUJ
_audit_creation_date 2005-07-27
_audit_creation_method CSD-ConQuest-V1
_database_code_CSD PALKUJ
_database_code_depnum_ccdc_archive 'CCDC 259346'
_chemical_formula_sum 'C18 H32 Cd2 N2 O22 S2'
_chemical_formula_moiety
;
(C8 H9 Cd1 O10 S1 1-)2n,n(C2 H10 N2 2+),2n(H2 O1)
;
_journal_coden_Cambridge 1295
_journal_volume 8
_journal_year 2005
_journal_page_first 401
_journal_name_full 'Inorg.Chem.Commun. '
loop_
_publ_author_name
"Qing-Yan Liu"
"Li Xu"
_chemical_name_systematic
;
catena-(Ethylenediammonium 
bis((\m~2~-5-sulfoisophthalato-O,O',O'')-triaqua-cadmium(ii)) dihydrate)
;
_cell_volume   2918.754
_exptl_crystal_colour 'colorless'
_exptl_crystal_density_diffrn 2.088
_exptl_special_details
;
photoluminescent

;
_exptl_crystal_description 'prism'
_diffrn_ambient_temperature 130.15
#These two values have been output from a single CSD field.
_refine_ls_R_factor_gt 0.0206
_refine_ls_wR_factor_gt 0.0206
_symmetry_cell_setting monoclinic
_symmetry_space_group_name_H-M 'P 21/c'
_symmetry_Int_Tables_number 14
loop_
_symmetry_equiv_pos_site_id
_symmetry_equiv_pos_as_xyz
1 x,y,z
2 -x,1/2+y,1/2-z
3 -x,-y,-z
4 x,-1/2-y,-1/2+z
_cell_length_a 14.4736(18)
_cell_length_b 17.4714(2)
_cell_length_c 11.8650(15)
_cell_angle_alpha 90
_cell_angle_beta 103.393(1)
_cell_angle_gamma 90
_cell_formula_units_Z 4
loop_
_atom_type_symbol
_atom_type_radius_bond
C 0.68
H 0.23
Cd 1.49
N 0.68
O 0.68
S 1.02
loop_
_atom_site_label
_atom_site_type_symbol
_atom_site_fract_x
_atom_site_fract_y
_atom_site_fract_z
Cd1 Cd 0.531833(10) 0.228559(8) 0.327587(12)
Cd2 Cd 0.102321(10) 0.220061(7) 0.324174(12)
S1 S 0.71373(3) 0.54058(3) 0.78750(4)
S2 S 0.21428(3) 0.56186(3) 0.76405(4)
O1 O 0.53127(9) 0.35711(8) 0.33116(11)
O2 O -0.16733(11) 0.16017(10) 0.28360(16)
H1 H -0.178(2) 0.1149(7) 0.293(3)
H2 H -0.2169(14) 0.1825(17) 0.284(3)
O3 O 0.60772(11) 0.30699(8) 0.49720(12)
O4 O 0.79469(14) 0.21778(12) 0.53748(19)
H3 H 0.83300 0.21240 0.49680
H4 H 0.817(3) 0.203(2) 0.6018(15)
O5 O 0.52334(12) 0.62349(8) 0.26316(13)
O6 O 0.58233(11) 0.71312(8) 0.39050(13)
O7 O 0.64633(10) 0.50375(8) 0.84432(12)
O8 O 0.80543(10) 0.50161(9) 0.81286(12)
O9 O 0.72219(13) 0.62219(9) 0.81294(13)
O10 O 0.65281(11) 0.23937(9) 0.22369(13)
H5 H 0.634(2) 0.2284(15) 0.153(3)
H6 H 0.674(2) 0.2832(17) 0.224(2)
O11 O 0.41411(11) 0.20203(9) 0.42817(14)
H7 H 0.42010 0.23110 0.48370
H8 H 0.3618(11) 0.1900(17) 0.391(2)
O12 O 0.63246(11) 0.14293(8) 0.44463(12)
H9 H 0.68260 0.16440 0.47430
H10 H 0.6462(19) 0.1045(10) 0.413(2)
O13 O 0.08334(11) 0.34828(8) 0.32038(12)
O14 O 0.17008(10) 0.31164(8) 0.48991(13)
O15 O -0.03499(10) 0.61020(8) 0.25453(12)
O16 O 0.01208(11) 0.70238(8) 0.38201(12)
O17 O 0.24224(12) 0.49114(10) 0.82589(14)
O18 O 0.29622(10) 0.61070(8) 0.76261(12)
O19 O 0.14003(11) 0.60371(11) 0.80230(13)
O20 O 0.22127(11) 0.22791(9) 0.22193(14)
H11 H 0.19980 0.21510 0.15440
H12 H 0.238(2) 0.2709(18) 0.218(3)
O21 O -0.00985(10) 0.20510(8) 0.43773(12)
H13 H -0.00090 0.23770 0.48880
H14 H -0.062(2) 0.1946(16) 0.396(2)
O22 O 0.20882(15) 0.13757(10) 0.43958(14)
H15 H 0.21640 0.09980 0.40180
H16 H 0.234(2) 0.135(2) 0.5080(11)
C1 C 0.60634(13) 0.44321(10) 0.47983(16)
C2 C 0.58260(13) 0.50576(10) 0.40637(16)
H17 H 0.55360 0.49780 0.32870
C3 C 0.60164(13) 0.58011(10) 0.44727(16)
C4 C 0.64382(13) 0.59263(10) 0.56383(16)
H18 H 0.65670 0.64210 0.59220
C5 C 0.66622(12) 0.52976(11) 0.63681(15)
C6 C 0.64880(13) 0.45522(10) 0.59591(16)
H19 H 0.66540 0.41390 0.64590
C7 C 0.58085(13) 0.36429(10) 0.43366(16)
C8 C 0.56884(14) 0.64436(11) 0.36298(17)
C9 C 0.46469(14) 0.50724(12) 0.94298(16)
H20 H 0.46920 0.46690 0.88830
H21 H 0.40060 0.50740 0.95490
C10 C 0.12510(13) 0.44397(10) 0.46614(16)
C11 C 0.07488(13) 0.50002(11) 0.39332(16)
H22 H 0.04370 0.48700 0.31810
C12 C 0.07048(13) 0.57521(10) 0.43120(16)
C13 C 0.11608(13) 0.59421(11) 0.54451(16)
H23 H 0.11440 0.64420 0.57090
C14 C 0.16415(13) 0.53760(11) 0.61782(16)
C15 C 0.17022(13) 0.46308(11) 0.57978(16)
H24 H 0.20400 0.42630 0.62940
C16 C 0.12687(13) 0.36291(11) 0.42387(17)
C17 C 0.01268(13) 0.63370(11) 0.35130(16)
C18 C 0.02557(14) 0.51388(11) 0.95488(16)
H25 H 0.09140 0.52480 0.99130
H26 H 0.02410 0.47440 0.89700
N1 N 0.48603(14) 0.58254(10) 0.89622(15)
H27 H 0.4910(19) 0.6173(11) 0.9472(18)
H28 H 0.537(2) 0.5782(16) 0.874(2)
H29 H 0.4359(19) 0.5966(15) 0.838(2)
N2 N -0.02167(13) 0.58416(10) 0.89902(15)
H30 H -0.077(2) 0.5732(15) 0.872(2)
H31 H -0.0178(18) 0.6224(16) 0.949(2)
H32 H 0.0082(19) 0.5996(15) 0.848(2)
Cd1A Cd 0.468167(10) 0.728559(8) 0.172413(12)
Cd2A Cd -0.102321(10) 0.720061(7) 0.175826(12)
O5A O 0.47666(12) 0.12349(8) 0.23684(13)
O15A O 0.03499(10) 0.11020(8) 0.24547(12)
C9B C 0.53531(14) 0.49276(12) 1.05702(16)
H20B H 0.53080 0.53310 1.11170
H21B H 0.59940 0.49260 1.04510
C18B C -0.02557(14) 0.48612(11) 1.04512(16)
H25B H -0.09140 0.47520 1.00870
H26B H -0.02410 0.52560 1.10300
N1B N 0.51397(14) 0.41746(10) 1.10378(15)
H27B H 0.5090(19) 0.3827(11) 1.0528(18)
H28B H 0.463(2) 0.4218(16) 1.126(2)
H29B H 0.5641(19) 0.4034(15) 1.162(2)
N2B N 0.02167(13) 0.41584(10) 1.10098(15)
H30B H 0.077(2) 0.4268(15) 1.128(2)
H31B H 0.0178(18) 0.3776(16) 1.051(2)
H32B H -0.0082(19) 0.4004(15) 1.152(2)
#END
