
#######################################################################
#
#                 Cambridge Crystallographic Data Centre
#                                CCDC
#
#######################################################################
#
# If this CIF has been generated from an entry in the Cambridge
# Structural Database, then it will include bibliographic, chemical,
# crystal, experimental, refinement or atomic coordinate data resulting
# from the CCDC's data processing and validation procedures.
#
#######################################################################

data_CSD_CIF_PALYEJ
_audit_creation_date 2017-02-02
_audit_creation_method CSD-ConQuest-V1
_database_code_CSD PALYEJ
_database_code_depnum_ccdc_archive 'CCDC 1047179'
_chemical_formula_sum 'C84 H74 Cl6 Fe1 K1 O15 P1 S24'
_chemical_formula_moiety
;
C24 H20 P1 1+,n(C18 Cl6 Fe1 K1 O12 2-),C14 H16 S8 1+,3(H2 O1),2(C14 H16 S8)
;
_journal_coden_Cambridge 9
_journal_volume 54
_journal_year 2015
_journal_page_first 3643
_journal_name_full 'Inorg.Chem. '
loop_
_publ_author_name
"M.Atzori"
"Flavia Pop"
"P.Auban-Senzier"
"R.Clerac"
"E.Canadell"
"M.L.Mercuri"
"N.Avarvari"
_chemical_name_systematic
;
catena-[tetraphenylphosphanium potassium 
tris[\m-3,6-dichloro-4,5-bis(hydroxy)cyclohexa-3,5-diene-1,2-dionato]-iron 
tris(\b-(rac)-tetramethyl-bis(ethylenedithio)-tetrathiafulvalene) trihydrate]
;
_cell_volume   5171.675
_exptl_crystal_colour 'black'
_exptl_crystal_density_diffrn 1.552
_exptl_crystal_description 'plate'
_diffrn_ambient_temperature 150
#These two values have been output from a single CSD field.
_refine_ls_R_factor_gt 0.1078
_refine_ls_wR_factor_gt 0.1078
loop_
_citation_database_id_CSD
_citation_special_details
PALXUY "is a stereoisomer of this entry"
PALYAF "is a stereoisomer of this entry"
_symmetry_cell_setting triclinic
_symmetry_space_group_name_H-M 'P -1'
_symmetry_Int_Tables_number 2
loop_
_symmetry_equiv_pos_site_id
_symmetry_equiv_pos_as_xyz
1 x,y,z
2 -x,-y,-z
_cell_length_a 13.598(3)
_cell_length_b 14.1713(19)
_cell_length_c 30.107(7)
_cell_angle_alpha 85.659(12)
_cell_angle_beta 88.219(17)
_cell_angle_gamma 63.378(12)
_cell_formula_units_Z 2
loop_
_atom_type_symbol
_atom_type_radius_bond
C 0.68
H 0.23
Cl 0.99
Fe 1.52
K 2.03
O 0.68
P 1.05
S 1.02
loop_
_atom_site_label
_atom_site_type_symbol
_atom_site_fract_x
_atom_site_fract_y
_atom_site_fract_z
C1 C 0.9864(12) 0.3611(9) -0.2287(4)
H1 H 0.97920 0.34570 -0.25930
C2 C 0.8922(12) 0.4608(10) -0.2194(4)
H2 H 0.89290 0.51330 -0.24240
C3 C 0.9585(9) 0.3028(7) -0.1399(3)
C4 C 0.9168(8) 0.4034(7) -0.1293(3)
C5 C 0.9050(8) 0.2978(7) -0.0562(3)
C6 C 0.8636(8) 0.2692(7) -0.0196(3)
C7 C 0.7961(9) 0.1680(7) 0.0381(3)
C8 C 0.7516(8) 0.2667(7) 0.0513(3)
C9 C 0.7448(13) 0.0976(8) 0.1196(4)
H3 H 0.81140 0.09610 0.13190
C10 C 0.6615(13) 0.2023(9) 0.1250(5)
H4 H 0.59530 0.20490 0.11180
C11 C 1.0976(13) 0.3763(16) -0.2257(8)
H5 H 1.16040 0.31120 -0.23160
H6 H 1.10390 0.39560 -0.19650
H7 H 1.09400 0.43100 -0.24740
C12 C 0.7855(10) 0.4506(11) -0.2273(4)
H8 H 0.72270 0.51580 -0.22150
H9 H 0.78440 0.39440 -0.20760
H10 H 0.78300 0.43510 -0.25760
C13 C 0.7330(9) 0.0066(8) 0.1449(4)
H11 H 0.79460 -0.05890 0.13850
H12 H 0.66620 0.00600 0.13610
H13 H 0.73090 0.01530 0.17630
C14 C 0.6301(11) 0.2283(9) 0.1735(4)
H14 H 0.57300 0.29950 0.17420
H15 H 0.69340 0.22140 0.18940
H16 H 0.60430 0.18020 0.18720
S1 S 0.9963(3) 0.2495(2) -0.19172(10)
S2 S 0.8921(3) 0.5152(2) -0.16516(10)
S3 S 0.9805(2) 0.20553(18) -0.09580(9)
S4 S 0.8870(2) 0.42632(19) -0.07226(9)
S5 S 0.8867(3) 0.13780(18) -0.00767(9)
S6 S 0.7908(2) 0.35645(18) 0.02111(9)
S7 S 0.7816(3) 0.05893(19) 0.06313(10)
S8 S 0.6744(3) 0.3137(2) 0.09879(11)
C15 C 0.9273(13) 0.7701(8) 0.8967(4)
H17 H 0.85480 0.79660 0.88270
C16 C 0.9211(15) 0.8581(10) 0.9185(5)
H18 H 0.99220 0.82830 0.93390
C17 C 0.8670(8) 0.7021(7) 0.9784(3)
C18 C 0.8229(8) 0.8041(7) 0.9904(3)
C19 C 0.7738(8) 0.6966(7) 1.0539(3)
C20 C 0.7388(9) 0.6690(8) 1.0929(4)
C21 C 0.6924(9) 0.5660(8) 1.1585(3)
C22 C 0.6491(8) 0.6678(7) 1.1699(3)
C23 C 0.7044(16) 0.4982(11) 1.2462(4)
H19 H 0.77340 0.50410 1.24640
C24 C 0.6209(14) 0.5969(9) 1.2588(4)
H20 H 0.55480 0.58570 1.25950
C25 C 1.0064(9) 0.7319(8) 0.8581(4)
H21 H 1.00270 0.67200 0.84670
H22 H 1.07990 0.71170 0.86810
H23 H 0.98670 0.78770 0.83490
C26 C 0.9219(9) 0.9521(7) 0.8906(3)
H24 H 0.91720 1.00490 0.90990
H25 H 0.86020 0.98150 0.87060
H26 H 0.98880 0.92910 0.87380
C27 C 0.7211(14) 0.4029(10) 1.2792(5)
H27 H 0.77880 0.33940 1.26860
H28 H 0.65410 0.39590 1.28160
H29 H 0.74090 0.41430 1.30790
C28 C 0.6228(12) 0.6316(10) 1.3045(4)
H30 H 0.56130 0.69950 1.30770
H31 H 0.69000 0.63660 1.30850
H32 H 0.61820 0.58100 1.32640
S9 S 0.9409(2) 0.65393(19) 0.92987(9)
S10 S 0.8256(2) 0.91485(19) 0.96283(9)
S11 S 0.8470(2) 0.60997(18) 1.01406(9)
S12 S 0.7514(2) 0.82823(18) 1.04130(9)
S13 S 0.7634(2) 0.53798(19) 1.10761(9)
S14 S 0.6667(2) 0.75876(19) 1.13274(9)
S15 S 0.6940(3) 0.4580(2) 1.19113(10)
S16 S 0.5822(3) 0.7143(2) 1.21994(10)
C29 C 0.682(2) 0.9076(10) -0.2384(5)
H33 H 0.67270 0.89950 -0.26990
C30 C 0.6164(16) 1.0011(10) -0.2285(4)
H34 H 0.62030 1.05430 -0.25030
C31 C 0.6552(8) 0.8297(7) -0.1548(3)
C32 C 0.6103(8) 0.9297(7) -0.1417(3)
C33 C 0.5866(8) 0.8177(7) -0.0740(3)
C34 C 0.5556(7) 0.7834(7) -0.0354(3)
C35 C 0.4958(7) 0.6784(6) 0.0245(3)
C36 C 0.4514(8) 0.7785(7) 0.0371(3)
C37 C 0.4096(16) 0.6179(9) 0.0984(5)
H35 H 0.47730 0.60190 0.11460
C38 C 0.3628(15) 0.7163(10) 0.1112(5)
H36 H 0.29470 0.73240 0.09530
C39 C 0.3975(9) 0.5284(8) 0.1241(4)
H37 H 0.43560 0.46480 0.10880
H38 H 0.32100 0.54510 0.12650
H39 H 0.42840 0.51810 0.15340
C40 C 0.3028(9) 0.7480(8) 0.1537(3)
H40 H 0.27860 0.82230 0.15610
H41 H 0.35060 0.70860 0.17820
H42 H 0.24010 0.73360 0.15420
S17 S 0.7123(3) 0.7857(2) -0.20618(9)
S18 S 0.5958(2) 1.04513(19) -0.17274(9)
S19 S 0.6568(2) 0.73036(18) -0.11546(8)
S20 S 0.5561(2) 0.94944(18) -0.08756(8)
S21 S 0.5813(2) 0.65204(18) -0.02285(8)
S22 S 0.4841(2) 0.86977(18) 0.00579(8)
S23 S 0.4846(3) 0.56969(19) 0.04941(9)
S24 S 0.3713(3) 0.82821(19) 0.08383(9)
C41 C 0.7956(12) 0.9408(11) -0.2321(5)
H43 H 0.86380 0.88070 -0.23790
H44 H 0.79630 0.96000 -0.20220
H45 H 0.78650 0.99920 -0.25280
C42 C 0.4966(12) 0.9787(15) -0.2384(5)
H46 H 0.43050 1.04140 -0.23290
H47 H 0.49950 0.92080 -0.21880
H48 H 0.49680 0.96210 -0.26880
C43 C 0.2913(7) 0.9287(7) 0.5615(3)
C44 C 0.1766(7) 0.8171(6) 0.6064(3)
C45 C 0.4148(7) 0.7340(7) 0.6186(3)
C46 C 0.3288(7) 0.7206(7) 0.5321(3)
C47 C 0.1842(8) 1.0145(7) 0.5562(3)
H49 H 0.12210 1.00530 0.56390
C48 C 0.0869(8) 0.8315(7) 0.5810(3)
H50 H 0.09350 0.82720 0.55030
C49 C 0.4407(8) 0.7905(9) 0.6469(4)
H51 H 0.40350 0.86400 0.64500
C50 C 0.2918(9) 0.6440(7) 0.5321(4)
H52 H 0.25440 0.63260 0.55670
C51 C 0.1746(9) 1.1113(7) 0.5395(3)
H53 H 0.10490 1.16810 0.53650
C52 C -0.0139(8) 0.8527(8) 0.6018(4)
H54 H -0.07400 0.86050 0.58530
C53 C 0.524(1) 0.7369(11) 0.6792(5)
H55 H 0.54260 0.77480 0.69850
C54 C 0.3102(10) 0.5856(8) 0.4962(4)
H56 H 0.28240 0.53660 0.49560
C55 C 0.2640(9) 1.1267(8) 0.5270(3)
H57 H 0.25470 1.19240 0.51470
C56 C -0.0220(8) 0.8617(7) 0.6470(4)
H58 H -0.08910 0.87750 0.66090
C57 C 0.577(1) 0.6292(12) 0.6820(4)
H59 H 0.63250 0.59390 0.70310
C58 C 0.3712(9) 0.5996(8) 0.4601(4)
H60 H 0.38530 0.55830 0.43590
C59 C 0.3714(9) 1.0417(8) 0.5330(4)
H61 H 0.43310 1.05180 0.52560
C60 C 0.0661(9) 0.8480(8) 0.6721(4)
H62 H 0.05900 0.85390 0.70270
C61 C 0.5502(10) 0.5718(10) 0.6544(4)
H63 H 0.58660 0.49830 0.65730
C62 C 0.4103(8) 0.6732(8) 0.4602(3)
H64 H 0.45120 0.68120 0.43620
C63 C 0.3828(8) 0.9446(7) 0.5500(3)
H65 H 0.45270 0.88850 0.55380
C64 C 0.1666(8) 0.8252(7) 0.6513(3)
H66 H 0.22700 0.81550 0.66820
C65 C 0.4688(9) 0.6224(8) 0.6217(4)
H67 H 0.45070 0.58370 0.60270
C66 C 0.3894(7) 0.7357(8) 0.4956(3)
H68 H 0.41460 0.78680 0.49550
P1 P 0.3037(2) 0.80027(18) 0.57911(8)
C67 C 0.7982(7) 0.5830(7) 0.6071(3)
C68 C 0.8016(7) 0.2668(6) 0.6517(3)
C69 C 1.1645(8) 0.3002(6) 0.6171(3)
C70 C 0.8552(7) 0.5817(7) 0.6495(3)
C71 C 0.8581(7) 0.2257(7) 0.6078(3)
C72 C 1.1566(7) 0.2229(6) 0.6530(3)
C73 C 0.8396(7) 0.6756(6) 0.6653(3)
C74 C 0.8364(7) 0.1518(6) 0.5879(3)
C75 C 1.2507(7) 0.1332(7) 0.6663(3)
C76 C 0.7610(7) 0.7740(7) 0.6452(3)
C77 C 0.7604(7) 0.1149(7) 0.6061(3)
C78 C 1.3538(7) 0.1123(7) 0.6475(3)
C79 C 0.7010(7) 0.7731(6) 0.6030(3)
C80 C 0.7086(7) 0.1523(7) 0.6524(3)
C81 C 1.3640(7) 0.1991(7) 0.6154(3)
C82 C 0.7223(7) 0.6751(7) 0.5869(3)
C83 C 0.7326(7) 0.2310(7) 0.6711(3)
C84 C 1.2640(8) 0.2920(7) 0.6039(3)
Cl1 Cl 0.9102(2) 0.67630(17) 0.71229(8)
Cl2 Cl 0.89929(19) 0.10578(17) 0.53768(8)
Cl3 Cl 1.2397(2) 0.04092(19) 0.70551(10)
Cl4 Cl 0.6545(2) 0.67405(18) 0.53912(8)
Cl5 Cl 0.6739(2) 0.2735(2) 0.72289(8)
Cl6 Cl 1.2740(2) 0.38959(19) 0.56814(9)
Fe1 Fe 0.93716(10) 0.36735(9) 0.63105(5)
K1 K 0.6032(3) 1.0134(2) 0.62191(12)
O1 O 0.8270(5) 0.4895(5) 0.5930(2)
O2 O 0.8270(5) 0.3354(5) 0.6672(2)
O3 O 1.0706(5) 0.3719(4) 0.6024(2)
O4 O 0.9151(5) 0.4888(4) 0.6678(2)
O5 O 0.9219(5) 0.2653(5) 0.5928(2)
O6 O 1.0591(5) 0.2483(4) 0.6682(2)
O7 O 0.7363(5) 0.8621(4) 0.6599(2)
O8 O 0.7334(5) 0.0561(5) 0.5879(2)
O9 O 1.4400(5) 0.0301(5) 0.6557(2)
O10 O 0.6343(5) 0.8610(5) 0.5856(2)
O11 O 0.6498(5) 0.1145(5) 0.6698(2)
O12 O 1.4552(5) 0.1811(5) 0.6012(2)
O13 O 0.9645(11) 0.0929(11) 0.7303(5)
O14 O 0.00000 0.50000 0.50000
O15 O 1.0589(11) -0.0350(14) 0.7764(5)
K1* K 0.6032(3) 0.0134(2) 0.62191(12)
K1** K 1.6032(3) 0.0134(2) 0.62191(12)
O8* O 0.7334(5) 1.0561(5) 0.5879(2)
O9* O 0.4400(5) 1.0301(5) 0.6557(2)
O11* O 0.6498(5) 1.1145(5) 0.6698(2)
O12* O 0.4552(5) 1.1811(5) 0.6012(2)
#END
