
#######################################################################
#
#                 Cambridge Crystallographic Data Centre
#                                CCDC
#
#######################################################################
#
# If this CIF has been generated from an entry in the Cambridge
# Structural Database, then it will include bibliographic, chemical,
# crystal, experimental, refinement or atomic coordinate data resulting
# from the CCDC's data processing and validation procedures.
#
#######################################################################

data_CSD_CIF_PANYOU
_audit_creation_date 2012-02-24
_audit_creation_method CSD-ConQuest-V1
_database_code_CSD PANYOU
_database_code_depnum_ccdc_archive 'CCDC 837938'
_chemical_formula_sum 'C20 H34 N6 O11 Zn1'
_chemical_formula_moiety
;
(C12 H12 N3 O9 Zn1 1-)n,2n(C3 H7 N1 O1),n(C2 H8 N1 1+)
;
_journal_coden_Cambridge 1147
_journal_volume 11
_journal_year 2011
_journal_page_first 5182
_journal_name_full 'Cryst.Growth Des. '
loop_
_publ_author_name
"Peipei Cui"
"Junling Wu"
"Xiaoliang Zhao"
"Di Sun"
"Liangliang Zhang"
"Jie Guo"
"Daofeng Sun"
_chemical_name_systematic
;
catena-(Dimethylammonium (\m~4~-tris(2-carboxylatoethyl)isocyanuric 
acid)-zinc dimethylformamide solvate)
;
_cell_volume   2612.681
_exptl_crystal_colour 'colorless'
_exptl_crystal_density_diffrn 1.525
_exptl_crystal_description 'block'
_diffrn_ambient_temperature 173
#These two values have been output from a single CSD field.
_refine_ls_R_factor_gt 0.0354
_refine_ls_wR_factor_gt 0.0354
_symmetry_cell_setting orthorhombic
_symmetry_space_group_name_H-M 'P c a 21'
_symmetry_Int_Tables_number 29
loop_
_symmetry_equiv_pos_site_id
_symmetry_equiv_pos_as_xyz
1 x,y,z
2 -x,-y,1/2+z
3 1/2+x,-y,z
4 1/2-x,y,1/2+z
_cell_length_a 24.0866(19)
_cell_length_b 4.8855(4)
_cell_length_c 22.2025(17)
_cell_angle_alpha 90
_cell_angle_beta 90
_cell_angle_gamma 90
_cell_formula_units_Z 4
loop_
_atom_type_symbol
_atom_type_radius_bond
C 0.68
H 0.23
N 0.68
O 0.68
Zn 1.22
loop_
_atom_site_label
_atom_site_type_symbol
_atom_site_fract_x
_atom_site_fract_y
_atom_site_fract_z
Zn1 Zn 0.628284(14) 0.49310(8) 0.37296(4)
C1 C 0.60727(18) 0.5569(8) 0.25715(18)
C2 C 0.61280(17) 0.6415(10) 0.19183(18)
H1 H 0.65000 0.58920 0.17670
H2 H 0.60920 0.84280 0.18850
C3 C 0.56795(17) 0.5031(9) 0.15358(17)
H3 H 0.57030 0.30200 0.15850
H4 H 0.53080 0.56290 0.16740
C4 C 0.66877(17) 0.3852(9) -0.0361(2)
H5 H 0.65750 0.36240 -0.07870
H6 H 0.67620 0.20130 -0.01920
C5 C 0.72025(19) 0.5529(10) -0.0333(2)
H7 H 0.73560 0.54290 0.00810
H8 H 0.71060 0.74640 -0.04140
C6 C 0.76504(18) 0.4632(9) -0.0777(2)
C7 C 0.51339(18) 1.0243(7) -0.02642(19)
H9 H 0.53390 1.13750 -0.05590
H10 H 0.49580 1.14790 0.00330
C8 C 0.46935(16) 0.8568(8) -0.05840(18)
H11 H 0.48780 0.73490 -0.08780
H12 H 0.45050 0.73930 -0.02840
C9 C 0.42598(14) 1.0246(7) -0.09107(15)
C10 C 0.59312(15) 0.7100(8) -0.02964(17)
C11 C 0.54314(15) 0.7798(8) 0.06541(17)
C12 C 0.61518(16) 0.4278(9) 0.05790(18)
C13 C 0.2924(2) 0.1535(15) 0.2918(3)
H13 H 0.29370 0.25370 0.33000
H14 H 0.29980 0.27990 0.25840
H15 H 0.32070 0.00910 0.29200
C14 C 0.2334(3) -0.1162(13) 0.2280(3)
H16 H 0.19610 -0.19550 0.22540
H17 H 0.26110 -0.26300 0.22670
H18 H 0.23930 0.00870 0.19410
C15 C 0.1889(10) -0.037(2) 0.5388(7)
H19 H 0.22690 -0.09740 0.54690
H20 H 0.18610 0.02790 0.49720
H21 H 0.16330 -0.19030 0.54490
C16 C 0.1162(4) 0.269(4) 0.5670(5)
H22 H 0.10570 0.41860 0.59420
H23 H 0.09130 0.11330 0.57320
H24 H 0.11330 0.33190 0.52510
C17 C 0.2041(3) 0.362(3) 0.6160(3)
H25 H 0.18420 0.51180 0.63270
C18 C 0.4290(3) 0.6994(13) 0.3159(2)
H26 H 0.39990 0.55940 0.31430
H27 H 0.41830 0.84210 0.34470
H28 H 0.46400 0.61530 0.32880
C19 C 0.4782(3) 1.0344(14) 0.2525(4)
H29 H 0.47970 1.10080 0.21090
H30 H 0.51450 0.96040 0.26390
H31 H 0.46850 1.18610 0.27940
C20 C 0.4072(3) 0.7511(18) 0.2106(3)
H32 H 0.41370 0.83960 0.17310
N1 N 0.57528(13) 0.5749(6) 0.08953(14)
N2 N 0.62362(13) 0.5140(7) -0.00241(19)
N3 N 0.55244(12) 0.8337(6) 0.00482(13)
N4 N 0.23881(18) 0.0338(9) 0.2843(2)
H33 H 0.21240 0.16980 0.28550
H34 H 0.23210 -0.08330 0.31590
N5 N 0.1745(4) 0.184(2) 0.5797(3)
N6 N 0.43599(18) 0.8184(9) 0.25743(19)
O1 O 0.65089(11) 0.5917(6) 0.29052(11)
O2 O 0.56379(13) 0.4697(7) 0.27736(14)
O3 O 0.81164(13) 0.5646(6) -0.07046(15)
O4 O 0.75224(13) 0.3019(9) -0.11823(18)
O5 O 0.43121(10) 1.2811(5) -0.08980(11)
O6 O 0.38756(10) 0.9041(5) -0.11794(12)
O7 O 0.64096(13) 0.2423(6) 0.08024(13)
O8 O 0.60101(12) 0.7744(6) -0.08170(13)
O9 O 0.50813(12) 0.8989(7) 0.09388(13)
O10 O 0.3703(2) 0.5678(16) 0.2145(3)
O11 O 0.2518(4) 0.347(2) 0.6284(3)
Zn1A Zn 0.371716(14) 0.50690(8) -0.12704(4)
Zn1A* Zn 0.371716(14) 1.50690(8) -0.12704(4)
Zn1C Zn 0.871716(14) 0.49310(8) -0.12704(4)
O3C O 0.68836(13) 0.5646(6) 0.42954(15)
O5A O 0.56879(10) 0.7189(5) 0.41020(11)
O6A O 0.61244(10) 0.0959(5) 0.38206(12)
#END
