
#######################################################################
#
#                 Cambridge Crystallographic Data Centre
#                                CCDC
#
#######################################################################
#
# If this CIF has been generated from an entry in the Cambridge
# Structural Database, then it will include bibliographic, chemical,
# crystal, experimental, refinement or atomic coordinate data resulting
# from the CCDC's data processing and validation procedures.
#
#######################################################################

data_CSD_CIF_PAPGAR
_audit_creation_date 2017-02-04
_audit_creation_method CSD-ConQuest-V1
_database_code_CSD PAPGAR
_database_code_depnum_ccdc_archive 'CCDC 1511953'
_chemical_formula_sum 'C48 H60 Mo8 N12 Ni4 O52'
_chemical_formula_moiety
;
(C24 H24 N6 Ni2 O10 2+)n,2n(C12 H10 Mo4 N3 Ni1 O17 1-),8n(H2 O1)
;
_journal_coden_Cambridge 580
_journal_volume 126
_journal_year 2017
_journal_page_first 92
_journal_name_full 'Polyhedron '
loop_
_publ_author_name
"Xiu-Li Wang"
"Xing Rong"
"Hong-Yan Lin"
"Dan-Na Liu"
"Xiang Wang"
"Guo-Cheng Liu"
"Ge Song"
_chemical_name_systematic
;
catena-(bis(\m-6-(pyridin-3-ylcarbamoyl)pyridine-2-carboxylato)-tetra-aqua-di-
nickel) 
bis(heptakis(\m-oxo)-(\m-6-(pyridin-3-ylcarbamoyl)pyridine-2-carboxylato)-aqua
-hexaoxo-tetra-molybdenum-nickel octahydrate)
;
_cell_volume   2008.859
_exptl_crystal_colour 'green'
_exptl_crystal_density_diffrn 2.182
_exptl_crystal_description 'block'
_diffrn_ambient_temperature 293
#These two values have been output from a single CSD field.
_refine_ls_R_factor_gt 0.0581
_refine_ls_wR_factor_gt 0.0581
_symmetry_cell_setting triclinic
_symmetry_space_group_name_H-M 'P -1'
_symmetry_Int_Tables_number 2
loop_
_symmetry_equiv_pos_site_id
_symmetry_equiv_pos_as_xyz
1 x,y,z
2 -x,-y,-z
_cell_length_a 10.331(5)
_cell_length_b 13.011(5)
_cell_length_c 17.287(5)
_cell_angle_alpha 68.303(5)
_cell_angle_beta 78.122(5)
_cell_angle_gamma 69.036(5)
_cell_formula_units_Z 1
loop_
_atom_type_symbol
_atom_type_radius_bond
C 0.68
H 0.23
Mo 1.54
N 0.68
Ni 1.24
O 0.68
loop_
_atom_site_label
_atom_site_type_symbol
_atom_site_fract_x
_atom_site_fract_y
_atom_site_fract_z
Mo1 Mo 0.09765(6) 0.06687(5) 0.40869(4)
Mo2 Mo 0.25952(6) -0.08716(5) 0.57329(4)
Mo3 Mo -0.17858(7) 0.30645(6) 0.42604(4)
Mo4 Mo -0.01410(7) 0.14856(5) 0.59166(4)
Ni1 Ni -0.08502(10) 0.57155(8) 0.30618(6)
O1 O 0.0028(6) 0.7029(5) 0.2656(3)
H1 H 0.04420 0.71060 0.20950
H2 H -0.06780 0.77450 0.26680
O2 O -0.2386(6) 0.2368(4) 0.3641(3)
O3 O -0.0478(6) 0.2866(4) 0.4969(3)
O4 O 0.1710(5) 0.0716(4) 0.5009(3)
O5 O 0.1107(6) 0.1606(4) 0.6362(3)
O6 O -0.3279(6) 0.3378(5) 0.4871(4)
O7 O 0.0326(5) -0.0227(4) 0.6304(3)
O8 O -0.1602(6) 0.1781(5) 0.6550(4)
O9 O -0.1750(6) 0.4366(5) 0.3504(4)
O10 O 0.2432(5) 0.0287(5) 0.3463(3)
O11 O 0.3215(6) -0.0640(5) 0.6466(3)
O12 O -0.1077(5) 0.1034(4) 0.5018(3)
O13 O 0.0255(6) 0.2162(4) 0.3629(3)
O14 O 0.4011(5) -0.1240(5) 0.5070(3)
O15 O -0.2427(7) 0.6946(6) 0.0811(4)
O16 O -0.1005(6) 0.5929(5) 0.1821(3)
O17 O -0.1534(5) 0.5986(4) 0.4250(3)
C1 C -0.3422(8) 0.7353(7) 0.6224(5)
H3 H -0.41780 0.80150 0.60530
C2 C -0.2956(9) 0.7011(7) 0.6995(5)
H4 H -0.34550 0.73810 0.73820
C3 C -0.1729(9) 0.6106(7) 0.7189(5)
H5 H -0.13800 0.59160 0.76960
C4 C -0.1529(8) 0.5774(7) 0.5941(5)
H6 H -0.10560 0.53470 0.55830
C5 C -0.2745(8) 0.6695(6) 0.5708(4)
C6 C -0.2697(8) 0.6707(7) 0.4269(5)
C7 C -0.3501(8) 0.7234(7) 0.3499(4)
C8 C -0.4825(9) 0.7995(8) 0.3381(6)
H7 H -0.53650 0.82730 0.38060
C9 C -0.5329(10) 0.8333(9) 0.2625(6)
H8 H -0.62440 0.88030 0.25450
C10 C -0.4492(9) 0.7983(8) 0.1976(6)
H9 H -0.48050 0.82650 0.14460
C11 C -0.3178(8) 0.7203(7) 0.2135(5)
C12 C -0.2161(9) 0.6654(7) 0.1536(5)
N1 N -0.1033(7) 0.5499(6) 0.6681(4)
N2 N -0.3298(7) 0.7040(6) 0.4931(4)
H10 H -0.41250 0.75250 0.48830
N3 N -0.2734(7) 0.6850(5) 0.2884(4)
Ni2 Ni 0.22578(11) 0.70546(9) 0.04382(6)
O18 O 0.3148(7) 0.8362(5) 0.0165(4)
H11 H 0.41330 0.80200 0.02080
H12 H 0.29750 0.88820 -0.03930
O19 O 0.1357(7) 0.5748(5) 0.0764(4)
H13 H 0.07010 0.57900 0.12420
H14 H 0.20690 0.50070 0.08990
O20 O -0.1515(6) 0.9446(5) 0.0703(4)
O21 O 0.0493(6) 0.8049(5) 0.0996(3)
O22 O 0.3450(6) 0.6407(5) -0.0564(3)
C13 C 0.4825(9) 0.5245(7) -0.2674(5)
H15 H 0.42680 0.57020 -0.31150
C14 C 0.5936(9) 0.4292(7) -0.2752(6)
H16 H 0.61530 0.41070 -0.32430
C15 C 0.6699(9) 0.3634(7) -0.2083(6)
H17 H 0.74190 0.29690 -0.21180
C16 C 0.5419(9) 0.4827(7) -0.1317(5)
H18 H 0.52710 0.50190 -0.08320
C17 C 0.4540(8) 0.5521(7) -0.1951(5)
C18 C 0.2867(9) 0.6816(7) -0.1208(5)
C19 C 0.1453(8) 0.7737(7) -0.1239(5)
C20 C 0.0605(9) 0.8283(8) -0.1866(6)
H19 H 0.08640 0.81210 -0.23670
C21 C -0.0669(11) 0.9097(9) -0.1747(6)
H20 H -0.12540 0.94990 -0.21780
C22 C -0.106(1) 0.9306(8) -0.1005(5)
H21 H -0.19070 0.98470 -0.09210
C23 C -0.0157(9) 0.8686(7) -0.0376(5)
C24 C -0.0423(8) 0.8744(7) 0.0503(5)
N4 N 0.6470(7) 0.3892(6) -0.1388(4)
N5 N 0.3378(7) 0.6484(6) -0.1877(4)
H22 H 0.29520 0.69060 -0.23210
N6 N 0.1054(7) 0.7949(5) -0.0509(4)
O23 O -0.3122(11) 1.0216(11) 0.2026(6)
H23 H -0.25790 0.99550 0.15740
H24 H -0.25840 1.04870 0.22540
O24 O 0.4251(17) 0.1386(15) 0.1652(15)
H25 H 0.37390 0.10900 0.21690
H26 H 0.50740 0.07770 0.15710
O25 O 0.5693(13) 0.8875(19) -0.0219(9)
H27 H 0.62700 0.84070 0.02350
H28 H 0.61600 0.87090 -0.07200
O26 O 0.208(3) 0.366(2) 0.0537(17)
H29 H 0.22920 0.37260 -0.00440
H30 H 0.29060 0.31970 0.08270
Mo1A Mo -0.09765(6) -0.06687(5) 0.59131(4)
Mo2A Mo -0.25952(6) 0.08716(5) 0.42671(4)
Ni1A Ni 0.08502(10) 0.42845(8) 0.69382(6)
O2A O 0.2386(6) -0.2368(4) 0.6359(3)
O7A O -0.0326(5) 0.0227(4) 0.3696(3)
O12A O 0.1077(5) -0.1034(4) 0.4982(3)
N1A N 0.1033(7) 0.4501(6) 0.3319(4)
Ni2A Ni 0.77422(11) 0.29454(9) -0.04382(6)
O18A O 0.6852(7) 0.1638(5) -0.0165(4)
H11A H 0.58670 0.19800 -0.02080
H12A H 0.70250 0.11180 0.03930
O19A O 0.8643(7) 0.4252(5) -0.0764(4)
H13A H 0.92990 0.42100 -0.12420
H14A H 0.79310 0.49930 -0.08990
O20A O 1.1515(6) 0.0554(5) -0.0703(4)
O21A O 0.9507(6) 0.1951(5) -0.0996(3)
O22A O 0.6550(6) 0.3593(5) 0.0564(3)
C13A C 0.5175(9) 0.4755(7) 0.2674(5)
H15A H 0.57320 0.42980 0.31150
C14A C 0.4064(9) 0.5708(7) 0.2752(6)
H16A H 0.38470 0.58930 0.32430
C15A C 0.3301(9) 0.6366(7) 0.2083(6)
H17A H 0.25810 0.70310 0.21180
C16A C 0.4581(9) 0.5173(7) 0.1317(5)
H18A H 0.47290 0.49810 0.08320
C17A C 0.5460(8) 0.4479(7) 0.1951(5)
C18A C 0.7133(9) 0.3184(7) 0.1208(5)
C19A C 0.8547(8) 0.2263(7) 0.1239(5)
C20A C 0.9395(9) 0.1717(8) 0.1866(6)
H19A H 0.91360 0.18790 0.23670
C21A C 1.0669(11) 0.0903(9) 0.1747(6)
H20A H 1.12540 0.05010 0.21780
C22A C 1.106(1) 0.0694(8) 0.1005(5)
H21A H 1.19070 0.01530 0.09210
C23A C 1.0157(9) 0.1314(7) 0.0376(5)
C24A C 1.0423(8) 0.1256(7) -0.0503(5)
N4A N 0.3530(7) 0.6108(6) 0.1388(4)
N5A N 0.6622(7) 0.3516(6) 0.1877(4)
H22A H 0.70480 0.30940 0.23210
N6A N 0.8946(7) 0.2051(5) 0.0509(4)
#END
