
#######################################################################
#
#                 Cambridge Crystallographic Data Centre
#                                CCDC
#
#######################################################################
#
# If this CIF has been generated from an entry in the Cambridge
# Structural Database, then it will include bibliographic, chemical,
# crystal, experimental, refinement or atomic coordinate data resulting
# from the CCDC's data processing and validation procedures.
#
#######################################################################

data_CSD_CIF_PAPKOH
_audit_creation_date 2005-10-19
_audit_creation_method CSD-ConQuest-V1
_database_code_CSD PAPKOH
_database_code_depnum_ccdc_archive 'CCDC 262520'
_chemical_formula_sum 'C96 H54 N12 O27 Zn6'
_chemical_formula_moiety
;
(C96 H48 N12 O25 Zn6 2-)n,2n(H1 1+),2n(H2 O1)
;
_journal_coden_Cambridge 182
_journal_year 2005
_journal_page_first 2663
_journal_name_full 'Chem.Commun. '
loop_
_publ_author_name
"Daofeng Sun"
"Shengqian Ma"
"Yanxiong Ke"
"T.M.Petersen"
"Hong-Cai Zhou"
_chemical_name_systematic
;
catena-(Dihydrogen 
tetrakis(\m~6~-4,4',4''-s-triazine-2,4,6-tribenzoato)-(\m~4~-oxo)-hexa-zinc(ii
) dihydrate)
;
_cell_volume  16952.212
_exptl_crystal_colour 'colorless'
_exptl_crystal_density_diffrn 1.724
_exptl_special_details
;
photoluminescent
Isostructural with the cobalt and manganese analogues

;
_exptl_crystal_description 'block'
_diffrn_ambient_temperature ?
_diffrn_special_details
;
The study was carried out at room temperature,in the range 283-303K

;
_refine_special_details
;
An oxygen atom is disordered related by symmetry.

;
#These two values have been output from a single CSD field.
_refine_ls_R_factor_gt 0.0399
_refine_ls_wR_factor_gt 0.0399
_symmetry_cell_setting cubic
_symmetry_space_group_name_H-M 'F d -3'
_symmetry_Int_Tables_number 203
loop_
_symmetry_equiv_pos_site_id
_symmetry_equiv_pos_as_xyz
1 x,y,z
2 1/4-x,1/4-y,z
3 1/4-x,y,1/4-z
4 x,1/4-y,1/4-z
5 z,x,y
6 z,1/4-x,1/4-y
7 1/4-z,1/4-x,y
8 1/4-z,x,1/4-y
9 y,z,x
10 1/4-y,z,1/4-x
11 y,1/4-z,1/4-x
12 1/4-y,1/4-z,x
13 x,1/2+y,1/2+z
14 z,1/2+x,1/2+y
15 y,1/2+z,1/2+x
16 1/2+x,y,1/2+z
17 1/2+z,x,1/2+y
18 1/2+y,z,1/2+x
19 1/2+x,1/2+y,z
20 1/2+z,1/2+x,y
21 1/2+y,1/2+z,x
22 1/4-x,3/4-y,1/2+z
23 1/4-x,1/2+y,3/4-z
24 x,3/4-y,3/4-z
25 z,3/4-x,3/4-y
26 1/4-z,3/4-x,1/2+y
27 1/4-z,1/2+x,3/4-y
28 1/4-y,1/2+z,3/4-x
29 y,3/4-z,3/4-x
30 1/4-y,3/4-z,1/2+x
31 3/4-x,1/4-y,1/2+z
32 3/4-x,y,3/4-z
33 1/2+x,1/4-y,3/4-z
34 1/2+z,1/4-x,3/4-y
35 3/4-z,1/4-x,1/2+y
36 3/4-z,x,3/4-y
37 3/4-y,z,3/4-x
38 1/2+y,1/4-z,3/4-x
39 3/4-y,1/4-z,1/2+x
40 3/4-x,3/4-y,z
41 3/4-x,1/2+y,1/4-z
42 1/2+x,3/4-y,1/4-z
43 1/2+z,3/4-x,1/4-y
44 3/4-z,3/4-x,y
45 3/4-z,1/2+x,1/4-y
46 3/4-y,1/2+z,1/4-x
47 1/2+y,3/4-z,1/4-x
48 3/4-y,3/4-z,x
49 -x,-y,-z
50 -1/4+x,-1/4+y,-z
51 -1/4+x,-y,-1/4+z
52 -x,-1/4+y,-1/4+z
53 -z,-x,-y
54 -z,-1/4+x,-1/4+y
55 -1/4+z,-1/4+x,-y
56 -1/4+z,-x,-1/4+y
57 -y,-z,-x
58 -1/4+y,-z,-1/4+x
59 -y,-1/4+z,-1/4+x
60 -1/4+y,-1/4+z,-x
61 -x,-1/2-y,-1/2-z
62 -z,-1/2-x,-1/2-y
63 -y,-1/2-z,-1/2-x
64 -1/2-x,-y,-1/2-z
65 -1/2-z,-x,-1/2-y
66 -1/2-y,-z,-1/2-x
67 -1/2-x,-1/2-y,-z
68 -1/2-z,-1/2-x,-y
69 -1/2-y,-1/2-z,-x
70 -1/4+x,-3/4+y,-1/2-z
71 -1/4+x,-1/2-y,-3/4+z
72 -x,-3/4+y,-3/4+z
73 -z,-3/4+x,-3/4+y
74 -1/4+z,-3/4+x,-1/2-y
75 -1/4+z,-1/2-x,-3/4+y
76 -1/4+y,-1/2-z,-3/4+x
77 -y,-3/4+z,-3/4+x
78 -1/4+y,-3/4+z,-1/2-x
79 -3/4+x,-1/4+y,-1/2-z
80 -3/4+x,-y,-3/4+z
81 -1/2-x,-1/4+y,-3/4+z
82 -1/2-z,-1/4+x,-3/4+y
83 -3/4+z,-1/4+x,-1/2-y
84 -3/4+z,-x,-3/4+y
85 -3/4+y,-z,-3/4+x
86 -1/2-y,-1/4+z,-3/4+x
87 -3/4+y,-1/4+z,-1/2-x
88 -3/4+x,-3/4+y,-z
89 -3/4+x,-1/2-y,-1/4+z
90 -1/2-x,-3/4+y,-1/4+z
91 -1/2-z,-3/4+x,-1/4+y
92 -3/4+z,-3/4+x,-y
93 -3/4+z,-1/2-x,-1/4+y
94 -3/4+y,-1/2-z,-1/4+x
95 -1/2-y,-3/4+z,-1/4+x
96 -3/4+y,-3/4+z,-x
_cell_length_a 25.6887(3)
_cell_length_b 25.6887(3)
_cell_length_c 25.6887(3)
_cell_angle_alpha 90
_cell_angle_beta 90
_cell_angle_gamma 90
_cell_formula_units_Z 8
loop_
_atom_type_symbol
_atom_type_radius_bond
C 0.68
H 0.23
N 0.68
O 0.41
Zn 1.45
loop_
_atom_site_label
_atom_site_type_symbol
_atom_site_fract_x
_atom_site_fract_y
_atom_site_fract_z
Zn1 Zn 0.00000 0.50000 0.00000
Zn2 Zn 0.07855(2) 0.57855(2) 0.07855(2)
O1 O 0.12500 0.62500 0.12500
O2 O 0.06349(15) 0.52018(14) 0.12489(15)
O3 O -0.00826(14) 0.50335(15) 0.07996(14)
N1 N 0.00454(19) 0.31874(19) 0.29718(19)
C1 C 0.0226(2) 0.4941(2) 0.1155(2)
C2 C 0.0095(2) 0.4501(2) 0.1527(2)
C3 C -0.0343(2) 0.4205(2) 0.1445(2)
H1 H -0.05570 0.42720 0.11610
C4 C -0.0465(3) 0.3808(3) 0.1784(2)
H2 H -0.07580 0.36050 0.17230
C5 C -0.0155(2) 0.3708(2) 0.2215(2)
C6 C 0.0274(3) 0.4013(3) 0.2292(3)
H3 H 0.04830 0.39560 0.25830
C7 C 0.0402(3) 0.4402(3) 0.1947(3)
H4 H 0.07010 0.45990 0.20010
C8 C -0.0275(2) 0.3270(2) 0.2566(2)
O4 O -0.1077(9) 0.3577(9) 0.3923(9)
Zn1I Zn -0.25000 0.00000 0.25000
Zn1F Zn 0.25000 0.25000 0.50000
Zn1F* Zn 0.25000 0.25000 -0.50000
Zn1CC Zn 0.50000 0.75000 -0.25000
Zn1CC* Zn -0.50000 0.75000 -0.25000
Zn1I* Zn -0.25000 1.00000 0.25000
Zn1G Zn 0.25000 1.00000 -0.25000
Zn1QB Zn -0.25000 0.75000 -0.50000
Zn2I Zn -0.32855(2) 0.07855(2) 0.17145(2)
Zn2F Zn 0.17145(2) 0.17145(2) 0.57855(2)
Zn2F* Zn 0.17145(2) 0.17145(2) -0.42145(2)
Zn2A Zn 0.17145(2) 0.67145(2) 0.07855(2)
Zn2B Zn 0.17145(2) 0.57855(2) 0.17145(2)
Zn2C Zn 0.07855(2) 0.67145(2) 0.17145(2)
Zn2BA Zn 0.57855(2) 0.67145(2) -0.32855(2)
Zn2BA* Zn -0.42145(2) 0.67145(2) -0.32855(2)
Zn2I* Zn -0.32855(2) 1.07855(2) 0.17145(2)
Zn2VA Zn -0.07855(2) 0.42145(2) -0.07855(2)
Zn2EC Zn 0.32855(2) 0.92145(2) -0.17145(2)
Zn2QB Zn -0.17145(2) 0.82855(2) -0.57855(2)
O1H O -0.37500 0.12500 0.12500
O1D O 0.12500 0.12500 0.62500
O1D* O 0.12500 0.12500 -0.37500
O2I O -0.27018(15) 0.12489(14) 0.18651(15)
O2F O 0.12511(15) 0.18651(14) 0.52018(15)
O2M O 0.12489(15) 0.56349(14) 0.02018(15)
O2U O 0.18651(15) 0.22982(14) -0.37511(15)
O2BA O 0.52018(15) 0.62511(14) -0.31349(15)
O2T O 0.02018(15) 0.62489(14) 0.06349(15)
O2PA O -0.37511(15) 0.68651(14) -0.27018(15)
O2NA O -0.31349(15) 1.02018(14) 0.12511(15)
O2VA O -0.06349(15) 0.47982(14) -0.12489(15)
O2EB O 0.27018(15) 0.87511(14) -0.18651(15)
O2BB O -0.12511(15) 0.81349(14) -0.52018(15)
O2IA O -0.37489(15) 0.06349(14) 0.22982(15)
O2NA* O -0.31349(15) 0.02018(14) 0.12511(15)
O2U* O 0.18651(15) 0.22982(14) 0.62489(15)
O2LA O 0.22982(15) 0.12511(14) 0.56349(15)
O2F* O 0.12511(15) 0.18651(14) -0.47982(15)
O2LA* O 0.22982(15) 0.12511(14) -0.43651(15)
O3I O -0.25335(14) 0.07996(15) 0.25826(14)
O3F O 0.17004(14) 0.25826(15) 0.50335(14)
O3M O 0.07996(14) 0.49174(15) 0.00335(14)
O3U O 0.25826(14) 0.24665(15) -0.42004(14)
O3BA O 0.50335(14) 0.67004(15) -0.24174(14)
O3T O 0.00335(14) 0.57996(15) -0.00826(14)
O3PA O -0.42004(14) 0.75826(15) -0.25335(14)
O3NA O -0.24174(14) 1.00335(15) 0.17004(14)
O3VA O 0.00826(14) 0.49665(15) -0.07996(14)
O3EB O 0.25335(14) 0.92004(15) -0.25826(14)
O3BB O -0.17004(14) 0.74174(15) -0.50335(14)
O3IB O -0.07996(14) 0.50826(15) -0.00335(14)
O3PB O -0.00335(14) 0.42004(15) 0.00826(14)
O3RB O -0.25826(14) -0.00335(15) 0.32996(14)
O3FC O -0.24665(14) -0.07996(15) 0.24174(14)
O3CB O -0.17004(14) 0.00826(15) 0.25335(14)
O3IA O -0.32996(14) -0.00826(15) 0.24665(14)
O3NA* O -0.24174(14) 0.00335(15) 0.17004(14)
N1F N -0.04718(19) 0.24546(19) 0.31874(19)
N1I N -0.06874(19) 0.29718(19) 0.24546(19)
N1M N 0.29718(19) 0.50454(19) -0.18126(19)
N1BA N 0.31874(19) 0.45282(19) -0.25454(19)
N1U N 0.24546(19) 0.43126(19) -0.20282(19)
N1T N -0.18126(19) 0.79718(19) 0.00454(19)
N1NA N -0.25454(19) 0.81874(19) -0.04718(19)
N1PA N -0.20282(19) 0.74546(19) -0.06874(19)
N1VA N -0.00454(19) 0.68126(19) -0.29718(19)
N1BB N 0.04718(19) 0.75454(19) -0.31874(19)
N1EB N 0.06874(19) 0.70282(19) -0.24546(19)
C1I C -0.2441(2) 0.1155(2) 0.2274(2)
C1F C 0.1345(2) 0.2274(2) 0.4941(2)
C1M C 0.1155(2) 0.5226(2) -0.0059(2)
C1U C 0.2274(2) 0.2559(2) -0.3845(2)
C1BA C 0.4941(2) 0.6345(2) -0.2726(2)
C1T C -0.0059(2) 0.6155(2) 0.0226(2)
C1PA C -0.3845(2) 0.7274(2) -0.2441(2)
C1NA C -0.2726(2) 0.9941(2) 0.1345(2)
C1VA C -0.0226(2) 0.5059(2) -0.1155(2)
C1EB C 0.2441(2) 0.8845(2) -0.2274(2)
C1BB C -0.1345(2) 0.7726(2) -0.4941(2)
C2I C -0.2001(2) 0.1527(2) 0.2405(2)
C2F C 0.0973(2) 0.2405(2) 0.4501(2)
C2M C 0.1527(2) 0.5095(2) -0.0499(2)
C2U C 0.2405(2) 0.2999(2) -0.3473(2)
C2BA C 0.4501(2) 0.5973(2) -0.2595(2)
C2T C -0.0499(2) 0.6527(2) 0.0095(2)
C2PA C -0.3473(2) 0.7405(2) -0.2001(2)
C2NA C -0.2595(2) 0.9501(2) 0.0973(2)
C2VA C -0.0095(2) 0.5499(2) -0.1527(2)
C2EB C 0.2001(2) 0.8473(2) -0.2405(2)
C2BB C -0.0973(2) 0.7595(2) -0.4501(2)
C3I C -0.1705(2) 0.1445(2) 0.2843(2)
C3F C 0.1055(2) 0.2843(2) 0.4205(2)
C3M C 0.1445(2) 0.4657(2) -0.0795(2)
C3U C 0.2843(2) 0.3295(2) -0.3555(2)
C3BA C 0.4205(2) 0.6055(2) -0.2157(2)
C3T C -0.0795(2) 0.6445(2) -0.0343(2)
C3PA C -0.3555(2) 0.7843(2) -0.1705(2)
C3NA C -0.2157(2) 0.9205(2) 0.1055(2)
C3VA C 0.0343(2) 0.5795(2) -0.1445(2)
C3EB C 0.1705(2) 0.8555(2) -0.2843(2)
C3BB C -0.1055(2) 0.7157(2) -0.4205(2)
H1I H -0.17720 0.11610 0.30570
H1F H 0.13390 0.30570 0.42720
H1M H 0.11610 0.44430 -0.07280
H1U H 0.30570 0.32280 -0.38390
H1BA H 0.42720 0.63390 -0.19430
H1T H -0.07280 0.61610 -0.05570
H1PA H -0.38390 0.80570 -0.17720
H1NA H -0.19430 0.92720 0.13390
H1VA H 0.05570 0.57280 -0.11610
H1EB H 0.17720 0.88390 -0.30570
H1BB H -0.13390 0.69430 -0.42720
C4I C -0.1308(3) 0.1784(3) 0.2965(2)
C4F C 0.0716(3) 0.2965(3) 0.3808(2)
C4M C 0.1784(3) 0.4535(3) -0.1192(2)
C4U C 0.2965(3) 0.3692(3) -0.3216(2)
C4BA C 0.3808(3) 0.5716(3) -0.2035(2)
C4T C -0.1192(3) 0.6784(3) -0.0465(2)
C4PA C -0.3216(3) 0.7965(3) -0.1308(2)
C4NA C -0.2035(3) 0.8808(3) 0.0716(2)
C4VA C 0.0465(3) 0.6192(3) -0.1784(2)
C4EB C 0.1308(3) 0.8216(3) -0.2965(2)
C4BB C -0.0716(3) 0.7035(3) -0.3808(2)
H2I H -0.11050 0.17230 0.32580
H2F H 0.07770 0.32580 0.36050
H2M H 0.17230 0.42420 -0.13950
H2U H 0.32580 0.38950 -0.32770
H2BA H 0.36050 0.57770 -0.17420
H2T H -0.13950 0.67230 -0.07580
H2PA H -0.32770 0.82580 -0.11050
H2NA H -0.17420 0.86050 0.07770
H2VA H 0.07580 0.63950 -0.17230
H2EB H 0.11050 0.82770 -0.32580
H2BB H -0.07770 0.67420 -0.36050
C5I C -0.1208(2) 0.2215(2) 0.2655(2)
C5F C 0.0285(2) 0.2655(2) 0.3708(2)
C5M C 0.2215(2) 0.4845(2) -0.1292(2)
C5U C 0.2655(2) 0.3792(2) -0.2785(2)
C5BA C 0.3708(2) 0.5285(2) -0.2345(2)
C5T C -0.1292(2) 0.7215(2) -0.0155(2)
C5PA C -0.2785(2) 0.7655(2) -0.1208(2)
C5NA C -0.2345(2) 0.8708(2) 0.0285(2)
C5VA C 0.0155(2) 0.6292(2) -0.2215(2)
C5EB C 0.1208(2) 0.7785(2) -0.2655(2)
C5BB C -0.0285(2) 0.7345(2) -0.3708(2)
C6I C -0.1513(3) 0.2292(3) 0.2226(3)
C6F C 0.0208(3) 0.2226(3) 0.4013(3)
C6M C 0.2292(3) 0.5274(3) -0.0987(3)
C6U C 0.2226(3) 0.3487(3) -0.2708(3)
C6BA C 0.4013(3) 0.5208(3) -0.2774(3)
C6T C -0.0987(3) 0.7292(3) 0.0274(3)
C6PA C -0.2708(3) 0.7226(3) -0.1513(3)
C6NA C -0.2774(3) 0.9013(3) 0.0208(3)
C6VA C -0.0274(3) 0.5987(3) -0.2292(3)
C6EB C 0.1513(3) 0.7708(3) -0.2226(3)
C6BB C -0.0208(3) 0.7774(3) -0.4013(3)
H3I H -0.14560 0.25830 0.20170
H3F H -0.00830 0.20170 0.39560
H3M H 0.25830 0.54830 -0.10440
H3U H 0.20170 0.35440 -0.24170
H3BA H 0.39560 0.49170 -0.29830
H3T H -0.10440 0.75830 0.04830
H3PA H -0.24170 0.70170 -0.14560
H3NA H -0.29830 0.89560 -0.00830
H3VA H -0.04830 0.60440 -0.25830
H3EB H 0.14560 0.74170 -0.20170
H3BB H 0.00830 0.79830 -0.39560
C7I C -0.1902(3) 0.1947(3) 0.2098(3)
C7F C 0.0553(3) 0.2098(3) 0.4402(3)
C7M C 0.1947(3) 0.5402(3) -0.0598(3)
C7U C 0.2098(3) 0.3098(3) -0.3053(3)
C7BA C 0.4402(3) 0.5553(3) -0.2902(3)
C7T C -0.0598(3) 0.6947(3) 0.0402(3)
C7PA C -0.3053(3) 0.7098(3) -0.1902(3)
C7NA C -0.2902(3) 0.9402(3) 0.0553(3)
C7VA C -0.0402(3) 0.5598(3) -0.1947(3)
C7EB C 0.1902(3) 0.8053(3) -0.2098(3)
C7BB C -0.0553(3) 0.7902(3) -0.4402(3)
H4I H -0.20990 0.20010 0.17990
H4F H 0.04990 0.17990 0.45990
H4M H 0.20010 0.57010 -0.04010
H4U H 0.17990 0.29010 -0.29990
H4BA H 0.45990 0.54990 -0.32010
H4T H -0.04010 0.70010 0.07010
H4PA H -0.29990 0.67990 -0.20990
H4NA H -0.32010 0.95990 0.04990
H4VA H -0.07010 0.54010 -0.20010
H4EB H 0.20990 0.79990 -0.17990
H4BB H -0.04990 0.82010 -0.45990
C8F C -0.0066(2) 0.2775(2) 0.3270(2)
C8I C -0.0770(2) 0.2566(2) 0.2775(2)
C8M C 0.2566(2) 0.4725(2) -0.1730(2)
C8BA C 0.3270(2) 0.4934(2) -0.2225(2)
C8U C 0.2775(2) 0.4230(2) -0.2434(2)
C8T C -0.1730(2) 0.7566(2) -0.0275(2)
C8NA C -0.2225(2) 0.8270(2) -0.0066(2)
C8PA C -0.2434(2) 0.7775(2) -0.0770(2)
C8VA C 0.0275(2) 0.6730(2) -0.2566(2)
C8BB C 0.0066(2) 0.7225(2) -0.3270(2)
C8EB C 0.0770(2) 0.7434(2) -0.2775(2)
#END
