
#######################################################################
#
#                 Cambridge Crystallographic Data Centre
#                                CCDC
#
#######################################################################
#
# If this CIF has been generated from an entry in the Cambridge
# Structural Database, then it will include bibliographic, chemical,
# crystal, experimental, refinement or atomic coordinate data resulting
# from the CCDC's data processing and validation procedures.
#
#######################################################################

data_CSD_CIF_PAPKEX
_audit_creation_date 2005-10-19
_audit_creation_method CSD-ConQuest-V1
_database_code_CSD PAPKEX
_database_code_depnum_ccdc_archive 'CCDC 262518'
_chemical_formula_sum 'C96 H53 Co6 N12 O26.5'
_chemical_formula_moiety
;
(C96 H48 Co6 N12 O25 2-)n,2n(H1 1+),1.5n(H2 O1)
;
_journal_coden_Cambridge 182
_journal_year 2005
_journal_page_first 2663
_journal_name_full 'Chem.Commun. '
loop_
_publ_author_name
"Daofeng Sun"
"Shengqian Ma"
"Yanxiong Ke"
"T.M.Petersen"
"Hong-Cai Zhou"
_chemical_name_systematic
;
catena-(Dihydrogen 
tetrakis(\m~6~-4,4',4''-s-triazine-2,4,6-tribenzoato)-(\m~4~-oxo)-hexa-cobalt(
ii) sesquihydrate)
;
_cell_volume  17014.650
_exptl_crystal_colour 'blue'
_exptl_crystal_density_diffrn 1.68
_exptl_special_details
;
Isostructural with the zinc and manganese analogues

;
_exptl_crystal_description 'block'
_diffrn_ambient_temperature ?
_diffrn_special_details
;
The study was carried out at room temperature,in the range 283-303K

;
_refine_special_details
;
A water molecule is disordered over two sites with occupancies of 0.87:0.13.

;
#These two values have been output from a single CSD field.
_refine_ls_R_factor_gt 0.0753
_refine_ls_wR_factor_gt 0.0753
_symmetry_cell_setting cubic
_symmetry_space_group_name_H-M 'F d -3'
_symmetry_Int_Tables_number 203
loop_
_symmetry_equiv_pos_site_id
_symmetry_equiv_pos_as_xyz
1 x,y,z
2 1/4-x,1/4-y,z
3 1/4-x,y,1/4-z
4 x,1/4-y,1/4-z
5 z,x,y
6 z,1/4-x,1/4-y
7 1/4-z,1/4-x,y
8 1/4-z,x,1/4-y
9 y,z,x
10 1/4-y,z,1/4-x
11 y,1/4-z,1/4-x
12 1/4-y,1/4-z,x
13 x,1/2+y,1/2+z
14 z,1/2+x,1/2+y
15 y,1/2+z,1/2+x
16 1/2+x,y,1/2+z
17 1/2+z,x,1/2+y
18 1/2+y,z,1/2+x
19 1/2+x,1/2+y,z
20 1/2+z,1/2+x,y
21 1/2+y,1/2+z,x
22 1/4-x,3/4-y,1/2+z
23 1/4-x,1/2+y,3/4-z
24 x,3/4-y,3/4-z
25 z,3/4-x,3/4-y
26 1/4-z,3/4-x,1/2+y
27 1/4-z,1/2+x,3/4-y
28 1/4-y,1/2+z,3/4-x
29 y,3/4-z,3/4-x
30 1/4-y,3/4-z,1/2+x
31 3/4-x,1/4-y,1/2+z
32 3/4-x,y,3/4-z
33 1/2+x,1/4-y,3/4-z
34 1/2+z,1/4-x,3/4-y
35 3/4-z,1/4-x,1/2+y
36 3/4-z,x,3/4-y
37 3/4-y,z,3/4-x
38 1/2+y,1/4-z,3/4-x
39 3/4-y,1/4-z,1/2+x
40 3/4-x,3/4-y,z
41 3/4-x,1/2+y,1/4-z
42 1/2+x,3/4-y,1/4-z
43 1/2+z,3/4-x,1/4-y
44 3/4-z,3/4-x,y
45 3/4-z,1/2+x,1/4-y
46 3/4-y,1/2+z,1/4-x
47 1/2+y,3/4-z,1/4-x
48 3/4-y,3/4-z,x
49 -x,-y,-z
50 -1/4+x,-1/4+y,-z
51 -1/4+x,-y,-1/4+z
52 -x,-1/4+y,-1/4+z
53 -z,-x,-y
54 -z,-1/4+x,-1/4+y
55 -1/4+z,-1/4+x,-y
56 -1/4+z,-x,-1/4+y
57 -y,-z,-x
58 -1/4+y,-z,-1/4+x
59 -y,-1/4+z,-1/4+x
60 -1/4+y,-1/4+z,-x
61 -x,-1/2-y,-1/2-z
62 -z,-1/2-x,-1/2-y
63 -y,-1/2-z,-1/2-x
64 -1/2-x,-y,-1/2-z
65 -1/2-z,-x,-1/2-y
66 -1/2-y,-z,-1/2-x
67 -1/2-x,-1/2-y,-z
68 -1/2-z,-1/2-x,-y
69 -1/2-y,-1/2-z,-x
70 -1/4+x,-3/4+y,-1/2-z
71 -1/4+x,-1/2-y,-3/4+z
72 -x,-3/4+y,-3/4+z
73 -z,-3/4+x,-3/4+y
74 -1/4+z,-3/4+x,-1/2-y
75 -1/4+z,-1/2-x,-3/4+y
76 -1/4+y,-1/2-z,-3/4+x
77 -y,-3/4+z,-3/4+x
78 -1/4+y,-3/4+z,-1/2-x
79 -3/4+x,-1/4+y,-1/2-z
80 -3/4+x,-y,-3/4+z
81 -1/2-x,-1/4+y,-3/4+z
82 -1/2-z,-1/4+x,-3/4+y
83 -3/4+z,-1/4+x,-1/2-y
84 -3/4+z,-x,-3/4+y
85 -3/4+y,-z,-3/4+x
86 -1/2-y,-1/4+z,-3/4+x
87 -3/4+y,-1/4+z,-1/2-x
88 -3/4+x,-3/4+y,-z
89 -3/4+x,-1/2-y,-1/4+z
90 -1/2-x,-3/4+y,-1/4+z
91 -1/2-z,-3/4+x,-1/4+y
92 -3/4+z,-3/4+x,-y
93 -3/4+z,-1/2-x,-1/4+y
94 -3/4+y,-1/2-z,-1/4+x
95 -1/2-y,-3/4+z,-1/4+x
96 -3/4+y,-3/4+z,-x
_cell_length_a 25.7202(5)
_cell_length_b 25.7202(5)
_cell_length_c 25.7202(5)
_cell_angle_alpha 90
_cell_angle_beta 90
_cell_angle_gamma 90
_cell_formula_units_Z 8
loop_
_atom_type_symbol
_atom_type_radius_bond
C 0.68
H 0.23
Co 1.37
N 0.68
O 0.33
loop_
_atom_site_label
_atom_site_type_symbol
_atom_site_fract_x
_atom_site_fract_y
_atom_site_fract_z
Co1 Co 0.00000 0.50000 0.00000
Co2 Co 0.07845(6) 0.57845(6) 0.07845(6)
O1 O 0.12500 0.62500 0.12500
O2 O 0.0640(3) 0.5192(3) 0.1239(3)
O3 O -0.0069(3) 0.5026(3) 0.0801(3)
N1 N 0.0047(4) 0.3183(4) 0.2976(4)
C1 C 0.0239(5) 0.4932(4) 0.1151(4)
C2 C 0.0099(4) 0.4494(4) 0.1526(4)
C3 C -0.0324(5) 0.4196(4) 0.1444(5)
H1 H -0.05300 0.42580 0.11540
C4 C -0.0458(5) 0.3800(5) 0.1785(5)
H2 H -0.07530 0.36010 0.17220
C5 C -0.0155(4) 0.3700(5) 0.2214(4)
C6 C 0.0279(5) 0.4006(5) 0.2294(5)
H3 H 0.04870 0.39490 0.25840
C7 C 0.0407(5) 0.4393(4) 0.1952(4)
H4 H 0.07060 0.45900 0.20070
C8 C -0.0275(5) 0.3266(5) 0.2562(5)
O4 O -0.059(5) 0.391(6) 0.361(6)
Co1I Co -0.25000 0.00000 0.25000
Co1F Co 0.25000 0.25000 0.50000
Co1F* Co 0.25000 0.25000 -0.50000
Co1CC Co 0.50000 0.75000 -0.25000
Co1CC* Co -0.50000 0.75000 -0.25000
Co1I* Co -0.25000 1.00000 0.25000
Co1G Co 0.25000 1.00000 -0.25000
Co1QB Co -0.25000 0.75000 -0.50000
Co2I Co -0.32845(6) 0.07845(6) 0.17155(6)
Co2F Co 0.17155(6) 0.17155(6) 0.57845(6)
Co2F* Co 0.17155(6) 0.17155(6) -0.42155(6)
Co2A Co 0.17155(6) 0.67155(6) 0.07845(6)
Co2B Co 0.17155(6) 0.57845(6) 0.17155(6)
Co2C Co 0.07845(6) 0.67155(6) 0.17155(6)
Co2BA Co 0.57845(6) 0.67155(6) -0.32845(6)
Co2BA* Co -0.42155(6) 0.67155(6) -0.32845(6)
Co2I* Co -0.32845(6) 1.07845(6) 0.17155(6)
Co2VA Co -0.07845(6) 0.42155(6) -0.07845(6)
Co2EC Co 0.32845(6) 0.92155(6) -0.17155(6)
Co2QB Co -0.17155(6) 0.82845(6) -0.57845(6)
O1H O -0.37500 0.12500 0.12500
O1D O 0.12500 0.12500 0.62500
O1D* O 0.12500 0.12500 -0.37500
O2I O -0.2692(3) 0.1239(3) 0.1860(3)
O2F O 0.1261(3) 0.1860(3) 0.5192(3)
O2M O 0.1239(3) 0.5640(3) 0.0192(3)
O2U O 0.1860(3) 0.2308(3) -0.3761(3)
O2BA O 0.5192(3) 0.6261(3) -0.3140(3)
O2T O 0.0192(3) 0.6239(3) 0.0640(3)
O2PA O -0.3761(3) 0.6860(3) -0.2692(3)
O2NA O -0.3140(3) 1.0192(3) 0.1261(3)
O2VA O -0.0640(3) 0.4808(3) -0.1239(3)
O2EB O 0.2692(3) 0.8761(3) -0.1860(3)
O2BB O -0.1261(3) 0.8140(3) -0.5192(3)
O2IA O -0.3739(3) 0.0640(3) 0.2308(3)
O2NA* O -0.3140(3) 0.0192(3) 0.1261(3)
O2U* O 0.1860(3) 0.2308(3) 0.6239(3)
O2LA O 0.2308(3) 0.1261(3) 0.5640(3)
O2F* O 0.1261(3) 0.1860(3) -0.4808(3)
O2LA* O 0.2308(3) 0.1261(3) -0.4360(3)
O3I O -0.2526(3) 0.0801(3) 0.2569(3)
O3F O 0.1699(3) 0.2569(3) 0.5026(3)
O3M O 0.0801(3) 0.4931(3) 0.0026(3)
O3U O 0.2569(3) 0.2474(3) -0.4199(3)
O3BA O 0.5026(3) 0.6699(3) -0.2431(3)
O3T O 0.0026(3) 0.5801(3) -0.0069(3)
O3PA O -0.4199(3) 0.7569(3) -0.2526(3)
O3NA O -0.2431(3) 1.0026(3) 0.1699(3)
O3VA O 0.0069(3) 0.4974(3) -0.0801(3)
O3EB O 0.2526(3) 0.9199(3) -0.2569(3)
O3BB O -0.1699(3) 0.7431(3) -0.5026(3)
O3IB O -0.0801(3) 0.5069(3) -0.0026(3)
O3PB O -0.0026(3) 0.4199(3) 0.0069(3)
O3RB O -0.2569(3) -0.0026(3) 0.3301(3)
O3FC O -0.2474(3) -0.0801(3) 0.2431(3)
O3CB O -0.1699(3) 0.0069(3) 0.2526(3)
O3IA O -0.3301(3) -0.0069(3) 0.2474(3)
O3NA* O -0.2431(3) 0.0026(3) 0.1699(3)
N1F N -0.0476(4) 0.2453(4) 0.3183(4)
N1I N -0.0683(4) 0.2976(4) 0.2453(4)
N1M N 0.2976(4) 0.5047(4) -0.1817(4)
N1BA N 0.3183(4) 0.4524(4) -0.2547(4)
N1U N 0.2453(4) 0.4317(4) -0.2024(4)
N1T N -0.1817(4) 0.7976(4) 0.0047(4)
N1NA N -0.2547(4) 0.8183(4) -0.0476(4)
N1PA N -0.2024(4) 0.7453(4) -0.0683(4)
N1VA N -0.0047(4) 0.6817(4) -0.2976(4)
N1BB N 0.0476(4) 0.7547(4) -0.3183(4)
N1EB N 0.0683(4) 0.7024(4) -0.2453(4)
C1I C -0.2432(5) 0.1151(4) 0.2261(4)
C1F C 0.1349(5) 0.2261(4) 0.4932(4)
C1M C 0.1151(5) 0.5239(4) -0.0068(4)
C1U C 0.2261(5) 0.2568(4) -0.3849(4)
C1BA C 0.4932(5) 0.6349(4) -0.2739(4)
C1T C -0.0068(5) 0.6151(4) 0.0239(4)
C1PA C -0.3849(5) 0.7261(4) -0.2432(4)
C1NA C -0.2739(5) 0.9932(4) 0.1349(4)
C1VA C -0.0239(5) 0.5068(4) -0.1151(4)
C1EB C 0.2432(5) 0.8849(4) -0.2261(4)
C1BB C -0.1349(5) 0.7739(4) -0.4932(4)
C2I C -0.1994(4) 0.1526(4) 0.2401(4)
C2F C 0.0974(4) 0.2401(4) 0.4494(4)
C2M C 0.1526(4) 0.5099(4) -0.0506(4)
C2U C 0.2401(4) 0.3006(4) -0.3474(4)
C2BA C 0.4494(4) 0.5974(4) -0.2599(4)
C2T C -0.0506(4) 0.6526(4) 0.0099(4)
C2PA C -0.3474(4) 0.7401(4) -0.1994(4)
C2NA C -0.2599(4) 0.9494(4) 0.0974(4)
C2VA C -0.0099(4) 0.5506(4) -0.1526(4)
C2EB C 0.1994(4) 0.8474(4) -0.2401(4)
C2BB C -0.0974(4) 0.7599(4) -0.4494(4)
C3I C -0.1696(5) 0.1444(4) 0.2824(5)
C3F C 0.1056(5) 0.2824(4) 0.4196(5)
C3M C 0.1444(5) 0.4676(4) -0.0804(5)
C3U C 0.2824(5) 0.3304(4) -0.3556(5)
C3BA C 0.4196(5) 0.6056(4) -0.2176(5)
C3T C -0.0804(5) 0.6444(4) -0.0324(5)
C3PA C -0.3556(5) 0.7824(4) -0.1696(5)
C3NA C -0.2176(5) 0.9196(4) 0.1056(5)
C3VA C 0.0324(5) 0.5804(4) -0.1444(5)
C3EB C 0.1696(5) 0.8556(4) -0.2824(5)
C3BB C -0.1056(5) 0.7176(4) -0.4196(5)
H1I H -0.17580 0.11540 0.30300
H1F H 0.13460 0.30300 0.42580
H1M H 0.11540 0.44700 -0.07420
H1U H 0.30300 0.32420 -0.38460
H1BA H 0.42580 0.63460 -0.19700
H1T H -0.07420 0.61540 -0.05300
H1PA H -0.38460 0.80300 -0.17580
H1NA H -0.19700 0.92580 0.13460
H1VA H 0.05300 0.57420 -0.11540
H1EB H 0.17580 0.88460 -0.30300
H1BB H -0.13460 0.69700 -0.42580
C4I C -0.1300(5) 0.1785(5) 0.2958(5)
C4F C 0.0715(5) 0.2958(5) 0.3800(5)
C4M C 0.1785(5) 0.4542(5) -0.1200(5)
C4U C 0.2958(5) 0.3700(5) -0.3215(5)
C4BA C 0.3800(5) 0.5715(5) -0.2042(5)
C4T C -0.1200(5) 0.6785(5) -0.0458(5)
C4PA C -0.3215(5) 0.7958(5) -0.1300(5)
C4NA C -0.2042(5) 0.8800(5) 0.0715(5)
C4VA C 0.0458(5) 0.6200(5) -0.1785(5)
C4EB C 0.1300(5) 0.8215(5) -0.2958(5)
C4BB C -0.0715(5) 0.7042(5) -0.3800(5)
H2I H -0.11010 0.17220 0.32530
H2F H 0.07780 0.32530 0.36010
H2M H 0.17220 0.42470 -0.13990
H2U H 0.32530 0.38990 -0.32780
H2BA H 0.36010 0.57780 -0.17470
H2T H -0.13990 0.67220 -0.07530
H2PA H -0.32780 0.82530 -0.11010
H2NA H -0.17470 0.86010 0.07780
H2VA H 0.07530 0.63990 -0.17220
H2EB H 0.11010 0.82780 -0.32530
H2BB H -0.07780 0.67470 -0.36010
C5I C -0.1200(4) 0.2214(5) 0.2655(4)
C5F C 0.0286(4) 0.2655(5) 0.3700(4)
C5M C 0.2214(4) 0.4845(5) -0.1300(4)
C5U C 0.2655(4) 0.3800(5) -0.2786(4)
C5BA C 0.3700(4) 0.5286(5) -0.2345(4)
C5T C -0.1300(4) 0.7214(5) -0.0155(4)
C5PA C -0.2786(4) 0.7655(5) -0.1200(4)
C5NA C -0.2345(4) 0.8700(5) 0.0286(4)
C5VA C 0.0155(4) 0.6300(5) -0.2214(4)
C5EB C 0.1200(4) 0.7786(5) -0.2655(4)
C5BB C -0.0286(4) 0.7345(5) -0.3700(4)
C6I C -0.1506(5) 0.2294(5) 0.2221(5)
C6F C 0.0206(5) 0.2221(5) 0.4006(5)
C6M C 0.2294(5) 0.5279(5) -0.0994(5)
C6U C 0.2221(5) 0.3494(5) -0.2706(5)
C6BA C 0.4006(5) 0.5206(5) -0.2779(5)
C6T C -0.0994(5) 0.7294(5) 0.0279(5)
C6PA C -0.2706(5) 0.7221(5) -0.1506(5)
C6NA C -0.2779(5) 0.9006(5) 0.0206(5)
C6VA C -0.0279(5) 0.5994(5) -0.2294(5)
C6EB C 0.1506(5) 0.7706(5) -0.2221(5)
C6BB C -0.0206(5) 0.7779(5) -0.4006(5)
H3I H -0.14490 0.25840 0.20130
H3F H -0.00840 0.20130 0.39490
H3M H 0.25840 0.54870 -0.10510
H3U H 0.20130 0.35510 -0.24160
H3BA H 0.39490 0.49160 -0.29870
H3T H -0.10510 0.75840 0.04870
H3PA H -0.24160 0.70130 -0.14490
H3NA H -0.29870 0.89490 -0.00840
H3VA H -0.04870 0.60510 -0.25840
H3EB H 0.14490 0.74160 -0.20130
H3BB H 0.00840 0.79870 -0.39490
C7I C -0.1893(5) 0.1952(4) 0.2093(4)
C7F C 0.0548(5) 0.2093(4) 0.4393(4)
C7M C 0.1952(5) 0.5407(4) -0.0607(4)
C7U C 0.2093(5) 0.3107(4) -0.3048(4)
C7BA C 0.4393(5) 0.5548(4) -0.2907(4)
C7T C -0.0607(5) 0.6952(4) 0.0407(4)
C7PA C -0.3048(5) 0.7093(4) -0.1893(4)
C7NA C -0.2907(5) 0.9393(4) 0.0548(4)
C7VA C -0.0407(5) 0.5607(4) -0.1952(4)
C7EB C 0.1893(5) 0.8048(4) -0.2093(4)
C7BB C -0.0548(5) 0.7907(4) -0.4393(4)
H4I H -0.20900 0.20070 0.17940
H4F H 0.04930 0.17940 0.45900
H4M H 0.20070 0.57060 -0.04100
H4U H 0.17940 0.29100 -0.29930
H4BA H 0.45900 0.54930 -0.32060
H4T H -0.04100 0.70070 0.07060
H4PA H -0.29930 0.67940 -0.20900
H4NA H -0.32060 0.95900 0.04930
H4VA H -0.07060 0.54100 -0.20070
H4EB H 0.20900 0.79930 -0.17940
H4BB H -0.04930 0.82060 -0.45900
C8F C -0.0062(5) 0.2775(5) 0.3266(5)
C8I C -0.0766(5) 0.2562(5) 0.2775(5)
C8M C 0.2562(5) 0.4725(5) -0.1734(5)
C8BA C 0.3266(5) 0.4938(5) -0.2225(5)
C8U C 0.2775(5) 0.4234(5) -0.2438(5)
C8T C -0.1734(5) 0.7562(5) -0.0275(5)
C8NA C -0.2225(5) 0.8266(5) -0.0062(5)
C8PA C -0.2438(5) 0.7775(5) -0.0766(5)
C8VA C 0.0275(5) 0.6734(5) -0.2562(5)
C8BB C 0.0062(5) 0.7225(5) -0.3266(5)
C8EB C 0.0766(5) 0.7438(5) -0.2775(5)
#END
