
#######################################################################
#
#                 Cambridge Crystallographic Data Centre
#                                CCDC
#
#######################################################################
#
# If this CIF has been generated from an entry in the Cambridge
# Structural Database, then it will include bibliographic, chemical,
# crystal, experimental, refinement or atomic coordinate data resulting
# from the CCDC's data processing and validation procedures.
#
#######################################################################

data_CSD_CIF_PAPQUU
_audit_creation_date 2012-02-24
_audit_creation_method CSD-ConQuest-V1
_database_code_CSD PAPQUU
_database_code_depnum_ccdc_archive 'CCDC 843719'
_chemical_formula_sum 'C78 H116 N4 O36 U4'
_chemical_formula_moiety
;
(C54 H84 O32 U4 4-)n,2n(C12 H12 N2 2+),4n(H2 O1)
;
_journal_coden_Cambridge 1147
_journal_volume 11
_journal_year 2011
_journal_page_first 5634
_journal_name_full 'Cryst.Growth Des. '
loop_
_publ_author_name
"A.T.Kerr"
"C.L.Cahill"
_chemical_name_systematic
;
catena-(bis(1,2-bis(pyridinium-4-yl)ethene) 
hexakis(\m~2~-azelato)-octaoxo-tetra-uranium tetrahydrate)
;
_cell_volume   9068.792
_exptl_crystal_colour 'yellow'
_exptl_crystal_density_diffrn 1.932
_exptl_crystal_description 'prism'
_diffrn_ambient_temperature 100
#These two values have been output from a single CSD field.
_refine_ls_R_factor_gt 0.0263
_refine_ls_wR_factor_gt 0.0263
_symmetry_cell_setting monoclinic
_symmetry_space_group_name_H-M 'C 2/c'
_symmetry_Int_Tables_number 15
loop_
_symmetry_equiv_pos_site_id
_symmetry_equiv_pos_as_xyz
1 x,y,z
2 -x,y,1/2-z
3 1/2+x,1/2+y,z
4 1/2-x,1/2+y,1/2-z
5 -x,-y,-z
6 x,-y,-1/2+z
7 -1/2-x,-1/2-y,-z
8 -1/2+x,-1/2-y,-1/2+z
_cell_length_a 25.4837(8)
_cell_length_b 15.9313(5)
_cell_length_c 25.4808(11)
_cell_angle_alpha 90
_cell_angle_beta 118.76
_cell_angle_gamma 90
_cell_formula_units_Z 4
loop_
_atom_type_symbol
_atom_type_radius_bond
C 0.62
H 0.23
N 0.68
O 0.74
U 1.38
loop_
_atom_site_label
_atom_site_type_symbol
_atom_site_fract_x
_atom_site_fract_y
_atom_site_fract_z
C1 C 0.6619(2) 0.8783(3) 0.3897(2)
C2 C 0.6336(2) 0.9114(3) 0.4257(2)
H1 H 0.62590 0.86460 0.44530
H2 H 0.66200 0.94830 0.45670
C3 C 0.5758(2) 0.9588(3) 0.3899(2)
H3 H 0.54780 0.92320 0.35770
H4 H 0.58360 1.00770 0.37200
C4 C 0.54732(19) 0.9871(3) 0.42732(19)
H5 H 0.57630 1.01930 0.46120
H6 H 0.53670 0.93810 0.44280
C5 C 0.4917(2) 1.0403(3) 0.39197(19)
H7 H 0.50230 1.08750 0.37490
H8 H 0.46240 1.00690 0.35910
C6 C 0.46302(19) 1.0735(3) 0.42783(19)
H9 H 0.49230 1.10610 0.46130
H10 H 0.45110 1.02650 0.44400
C7 C 0.40857(18) 1.1280(3) 0.39071(19)
H11 H 0.42020 1.17380 0.37340
H12 H 0.37880 1.09470 0.35800
C8 C 0.3807(2) 1.1638(3) 0.4265(2)
H13 H 0.37290 1.11810 0.44690
H14 H 0.40960 1.20080 0.45690
C9 C 0.32368(19) 1.2117(3) 0.3908(2)
C10 C 0.1670(2) 1.3317(3) 0.2007(2)
C11 C 0.1408(2) 1.3475(4) 0.1351(2)
H15 H 0.11080 1.39120 0.12340
H16 H 0.12110 1.29680 0.11340
C12 C 0.1880(2) 1.3739(4) 0.1176(2)
H17 H 0.21710 1.32900 0.12800
H18 H 0.16870 1.38120 0.07450
C13 C 0.2203(3) 1.4530(4) 0.1469(3)
H19 H 0.23900 1.44560 0.18990
H20 H 0.19110 1.49770 0.13620
C14 C 0.2685(2) 1.4811(4) 0.1309(3)
H21 H 0.24980 1.49190 0.08820
H22 H 0.28600 1.53330 0.15150
C15 C 0.3173(2) 1.4174(3) 0.1472(2)
H23 H 0.30160 1.37110 0.11920
H24 H 0.32810 1.39550 0.18670
C16 C 0.3739(2) 1.4496(3) 0.1478(2)
H25 H 0.39990 1.40240 0.15280
H26 H 0.36300 1.47510 0.10930
C17 C 0.4081(2) 1.5128(3) 0.19638(19)
H27 H 0.38430 1.56350 0.18840
H28 H 0.44480 1.52730 0.19590
C18 C 0.42322(18) 1.4803(3) 0.25759(18)
C19 C 0.03872(19) 1.7882(3) 0.4273(2)
C20 C 0.09413(19) 1.7351(3) 0.4612(2)
H29 H 0.08280 1.68330 0.47320
H30 H 0.12150 1.76460 0.49750
C21 C 0.12679(19) 1.7134(3) 0.4266(2)
H31 H 0.13740 1.76490 0.41370
H32 H 0.10010 1.68190 0.39110
C22 C 0.18328(18) 1.6621(3) 0.46327(19)
H33 H 0.20950 1.69340 0.49910
H34 H 0.17240 1.61040 0.47570
C23 C 0.21733(19) 1.6407(3) 0.42984(19)
H35 H 0.19060 1.61110 0.39340
H36 H 0.22920 1.69250 0.41850
C24 C 0.27231(18) 1.5876(3) 0.46509(19)
H37 H 0.26040 1.53580 0.47650
H38 H 0.29900 1.61720 0.50160
C25 C 0.30628(18) 1.5662(3) 0.43179(18)
H39 H 0.27850 1.54330 0.39290
H40 H 0.32310 1.61730 0.42530
C26 C 0.35588(19) 1.5040(3) 0.46465(19)
H41 H 0.38330 1.52760 0.50340
H42 H 0.33870 1.45380 0.47170
C27 C 0.39128(18) 1.4790(3) 0.43417(18)
O1 O 0.25835(14) 1.39892(19) 0.33565(15)
O2 O 0.17446(14) 1.21444(19) 0.31597(15)
O3 O 0.29762(12) 1.21321(18) 0.33484(13)
O4 O 0.30145(15) 1.2511(2) 0.41861(14)
O5 O 0.71062(15) 0.8390(2) 0.41658(14)
O6 O 0.63742(14) 0.8866(2) 0.33429(14)
O7 O 0.14097(14) 1.3597(2) 0.22846(13)
O8 O 0.21402(15) 1.2889(2) 0.22871(14)
O9 O 0.51176(12) 1.48541(19) 0.40583(13)
O10 O 0.39035(13) 1.34579(19) 0.33632(13)
O11 O 0.42610(14) 1.4170(2) 0.45389(13)
O12 O 0.38669(12) 1.51719(19) 0.38907(13)
O13 O 0.40345(13) 1.5165(2) 0.28841(13)
O14 O 0.45518(13) 1.4157(2) 0.27812(13)
O15 O 0.02062(13) 1.8068(2) 0.37344(14)
O16 O 0.01213(14) 1.8165(2) 0.45446(13)
U1 U 0.217530(7) 1.30611(1) 0.326220(7)
U2 U 0.451170(6) 1.415070(9) 0.371470(6)
C28 C 0.0818(2) 0.1828(3) 0.4277(2)
H43 H 0.12210 0.17980 0.45580
C29 C -0.0176(3) 0.1733(3) 0.4060(2)
H44 H -0.04550 0.16330 0.41900
C30 C -0.0363(2) 0.1929(3) 0.3478(2)
H45 H -0.07690 0.19790 0.32120
C31 C 0.0651(2) 0.2020(3) 0.3696(2)
H46 H 0.09400 0.21270 0.35810
C32 C 0.0050(2) 0.2053(3) 0.3279(2)
C33 C -0.0169(2) 0.2130(3) 0.2632(2)
H47 H -0.05800 0.21830 0.23870
N1 N 0.0405(2) 0.1685(3) 0.44426(18)
H48 H 0.05180 0.15580 0.48100
C34 C 0.3351(3) 0.0703(3) 0.2291(2)
H49 H 0.31480 0.02010 0.22490
C35 C 0.33654(19) 0.2147(3) 0.23620(19)
H50 H 0.31760 0.26410 0.23720
C36 C 0.3922(2) 0.2172(3) 0.24084(19)
H51 H 0.41100 0.26860 0.24450
C37 C 0.3902(3) 0.0689(4) 0.2340(2)
H52 H 0.40770 0.01810 0.23310
C38 C 0.4206(2) 0.1436(4) 0.24016(19)
C39 C 0.4814(2) 0.1470(7) 0.2461(3)
N2 N 0.30976(16) 0.1416(3) 0.23028(15)
H53 H 0.27460 0.14060 0.22710
O17 O 0.20256(19) 0.0922(3) 0.2174(2)
O18 O 0.2156(2) 0.1448(3) 0.46009(19)
C1B C 0.1619(2) 1.3783(3) 0.3897(2)
C2B C 0.1336(2) 1.4114(3) 0.4257(2)
H1B H 0.12590 1.36460 0.44530
H2B H 0.16200 1.44830 0.45670
C3B C 0.0758(2) 1.4588(3) 0.3899(2)
H3B H 0.04780 1.42320 0.35770
H4B H 0.08360 1.50770 0.37200
C4B C 0.04732(19) 1.4871(3) 0.42732(19)
H5B H 0.07630 1.51930 0.46120
H6B H 0.03670 1.43810 0.44280
C5B C -0.0083(2) 1.5403(3) 0.39197(19)
H7B H 0.00230 1.58750 0.37490
H8B H -0.03760 1.50690 0.35910
C6B C -0.03698(19) 1.5735(3) 0.42783(19)
H9B H -0.00770 1.60610 0.46130
H10B H -0.04890 1.52650 0.44400
C7B C -0.09143(18) 1.6280(3) 0.39071(19)
H11B H -0.07980 1.67380 0.37340
H12B H -0.12120 1.59470 0.35800
C8B C -0.1193(2) 1.6638(3) 0.4265(2)
H13B H -0.12710 1.61810 0.44690
H14B H -0.09040 1.70080 0.45690
C9B C -0.17632(19) 1.7117(3) 0.3908(2)
C10B C -0.3330(2) 1.8317(3) 0.2007(2)
C11B C -0.3592(2) 1.8475(4) 0.1351(2)
H15B H -0.38920 1.89120 0.12340
H16B H -0.37890 1.79680 0.11340
C12B C -0.3120(2) 1.8739(4) 0.1176(2)
H17B H -0.28290 1.82900 0.12800
H18B H -0.33130 1.88120 0.07450
C13B C -0.2797(3) 1.9530(4) 0.1469(3)
H19B H -0.26100 1.94560 0.18990
H20B H -0.30890 1.99770 0.13620
C14B C -0.2315(2) 1.9811(4) 0.1309(3)
H21B H -0.25020 1.99190 0.08820
H22B H -0.21400 2.03330 0.15150
C15B C -0.1827(2) 1.9174(3) 0.1472(2)
H23B H -0.19840 1.87110 0.11920
H24B H -0.17190 1.89550 0.18670
C16B C -0.1261(2) 1.9496(3) 0.1478(2)
H25B H -0.10010 1.90240 0.15280
H26B H -0.13700 1.97510 0.10930
C17B C -0.0919(2) 2.0128(3) 0.19638(19)
H27B H -0.11570 2.06350 0.18840
H28B H -0.05520 2.02730 0.19590
C18B C -0.07678(18) 1.9803(3) 0.25759(18)
C19B C 0.53872(19) 1.2882(3) 0.4273(2)
C20B C 0.59413(19) 1.2351(3) 0.4612(2)
H29B H 0.58280 1.18330 0.47320
H30B H 0.62150 1.26460 0.49750
C21B C 0.62679(19) 1.2134(3) 0.4266(2)
H31B H 0.63740 1.26490 0.41370
H32B H 0.60010 1.18190 0.39110
C22B C 0.68328(18) 1.1621(3) 0.46327(19)
H33B H 0.70950 1.19340 0.49910
H34B H 0.67240 1.11040 0.47570
C23B C 0.71733(19) 1.1407(3) 0.42984(19)
H35B H 0.69060 1.11110 0.39340
H36B H 0.72920 1.19250 0.41850
C24B C 0.77231(18) 1.0876(3) 0.46509(19)
H37B H 0.76040 1.03580 0.47650
H38B H 0.79900 1.11720 0.50160
C25B C 0.80628(18) 1.0662(3) 0.43179(18)
H39B H 0.77850 1.04330 0.39290
H40B H 0.82310 1.11730 0.42530
C26B C 0.85588(19) 1.0040(3) 0.46465(19)
H41B H 0.88330 1.02760 0.50340
H42B H 0.83870 0.95380 0.47170
C27B C 0.89128(18) 0.9790(3) 0.43417(18)
O1B O -0.24165(14) 1.89892(19) 0.33565(15)
O2B O -0.32554(14) 1.71444(19) 0.31597(15)
O3B O -0.20238(12) 1.71321(18) 0.33484(13)
O4B O -0.19855(15) 1.7511(2) 0.41861(14)
O5B O 0.21062(15) 1.3390(2) 0.41658(14)
O5* O -0.28938(15) 1.8390(2) 0.41658(14)
O6B O 0.13742(14) 1.3866(2) 0.33429(14)
O6* O -0.36258(14) 1.8866(2) 0.33429(14)
O7B O -0.35903(14) 1.8597(2) 0.22846(13)
O8B O -0.28598(15) 1.7889(2) 0.22871(14)
O9B O 1.01176(12) 0.98541(19) 0.40583(13)
O10B O 0.89035(13) 0.84579(19) 0.33632(13)
O11B O 0.92610(14) 0.9170(2) 0.45389(13)
O12B O 0.88669(12) 1.01719(19) 0.38907(13)
O13B O -0.09655(13) 2.0165(2) 0.28841(13)
O13B* O 0.90345(13) 1.0165(2) 0.28841(13)
O14B O -0.04482(13) 1.9157(2) 0.27812(13)
O14B* O 0.95518(13) 0.9157(2) 0.27812(13)
O15B O 0.52062(13) 1.3068(2) 0.37344(14)
O15* O 1.02062(13) 0.8068(2) 0.37344(14)
O16B O 0.51213(14) 1.3165(2) 0.45446(13)
O16* O 1.01213(14) 0.8165(2) 0.45446(13)
U1B U -0.282470(7) 1.80611(1) 0.326220(7)
U1B* U 0.717530(7) 0.80611(1) 0.326220(7)
U2B U 0.951170(6) 0.915070(9) 0.371470(6)
U2B* U -0.048830(6) 1.915070(9) 0.371470(6)
C28A C -0.0818(2) 0.1828(3) 0.0723(2)
H43A H -0.12210 0.17980 0.04420
C29A C 0.0176(3) 0.1733(3) 0.0940(2)
H44A H 0.04550 0.16330 0.08100
C30A C 0.0363(2) 0.1929(3) 0.1522(2)
H45A H 0.07690 0.19790 0.17880
C31A C -0.0651(2) 0.2020(3) 0.1304(2)
H46A H -0.09400 0.21270 0.14190
C32A C -0.0050(2) 0.2053(3) 0.1721(2)
C33A C 0.0169(2) 0.2130(3) 0.2368(2)
H47A H 0.05800 0.21830 0.26130
N1A N -0.0405(2) 0.1685(3) 0.05574(18)
H48A H -0.05180 0.15580 0.01900
C34A C 0.6649(3) 0.0703(3) 0.2709(2)
H49A H 0.68520 0.02010 0.27510
C35A C 0.66346(19) 0.2147(3) 0.26380(19)
H50A H 0.68240 0.26410 0.26280
C36A C 0.6078(2) 0.2172(3) 0.25916(19)
H51A H 0.58900 0.26860 0.25550
C37A C 0.6098(3) 0.0689(4) 0.2660(2)
H52A H 0.59230 0.01810 0.26690
C38A C 0.5794(2) 0.1436(4) 0.25984(19)
C39A C 0.5186(2) 0.1470(7) 0.2539(3)
N2A N 0.69024(16) 0.1416(3) 0.26972(15)
H53A H 0.72540 0.14060 0.27290
#END
