
#######################################################################
#
#                 Cambridge Crystallographic Data Centre
#                                CCDC
#
#######################################################################
#
# If this CIF has been generated from an entry in the Cambridge
# Structural Database, then it will include bibliographic, chemical,
# crystal, experimental, refinement or atomic coordinate data resulting
# from the CCDC's data processing and validation procedures.
#
#######################################################################

data_CSD_CIF_PAPYOW
_audit_creation_date 2012-02-24
_audit_creation_method CSD-ConQuest-V1
_database_code_CSD PAPYOW
_database_code_depnum_ccdc_archive 'CCDC 863547'
_chemical_formula_sum 'C57 H72 Cs2 N24 O43 S3 U2'
_chemical_formula_moiety
;
(C21 H16 O21 S3 U2 2-)n,2n(Cs1 1+),n(C36 H36 N24 O12),10n(H2 O1)
;
_journal_coden_Cambridge 1147
_journal_volume 11
_journal_year 2011
_journal_page_first 5702
_journal_name_full 'Cryst.Growth Des. '
loop_
_publ_author_name
"P.Thuery"
_chemical_name_systematic
;
catena-(di-cesium 
(\m~3~-3-sulfobenzoato)-bis(\m~2~-3-sulfobenzoato)-diaqua-tetraoxo-di-uranium 
cucurbit[6]uril decahydrate)
;
_cell_volume   8258.366
_exptl_crystal_colour 'light yellow'
_exptl_crystal_density_diffrn 2.107
_exptl_special_details
;
The paper describes a number of bonds involving the Cs atoms which have not 
been represented in the 2D diagram
;
_exptl_crystal_description 'platelet'
_diffrn_ambient_temperature 150
_refine_special_details
;
O36 disordered by symmetry over two sites with occupancy 0.50.

;
#These two values have been output from a single CSD field.
_refine_ls_R_factor_gt 0.0452
_refine_ls_wR_factor_gt 0.0452
_symmetry_cell_setting monoclinic
_symmetry_space_group_name_H-M 'P 21/n'
_symmetry_Int_Tables_number 14
loop_
_symmetry_equiv_pos_site_id
_symmetry_equiv_pos_as_xyz
1 x,y,z
2 1/2-x,1/2+y,1/2-z
3 -x,-y,-z
4 -1/2+x,-1/2-y,-1/2+z
_cell_length_a 18.1419(5)
_cell_length_b 18.9467(5)
_cell_length_c 24.0974(6)
_cell_angle_alpha 90
_cell_angle_beta 94.418(2)
_cell_angle_gamma 90
_cell_formula_units_Z 4
loop_
_atom_type_symbol
_atom_type_radius_bond
C 0.68
H 0.23
Cs 1.84
N 0.68
O 0.68
S 1.02
U 1.41
loop_
_atom_site_label
_atom_site_type_symbol
_atom_site_fract_x
_atom_site_fract_y
_atom_site_fract_z
U1 U 0.32509(1) 1.566002(10) 1.361124(7)
U2 U 0.26307(1) 1.63525(1) 1.143260(8)
S1 S 0.61864(7) 1.33015(7) 1.52016(5)
S2 S 0.12503(8) 1.30127(7) 1.36001(5)
S3 S 0.16511(8) 1.88576(7) 1.41936(5)
O1 O 0.2515(2) 1.5628(2) 1.40508(16)
O2 O 0.3978(2) 1.5661(2) 1.31609(16)
O3 O 0.1757(2) 1.6772(2) 1.13210(16)
O4 O 0.3475(2) 1.5896(2) 1.15108(17)
O5 O 0.4128(2) 1.50298(19) 1.42749(15)
O6 O 0.3355(2) 1.43703(19) 1.37526(16)
O7 O 0.6123(2) 1.34855(19) 1.57967(14)
O8 O 0.6534(2) 1.3857(3) 1.48989(16)
O9 O 0.6503(2) 1.2611(2) 1.5145(2)
O10 O 0.2465(3) 1.5301(2) 1.28796(17)
O11 O 0.2094(2) 1.5472(2) 1.19949(15)
O12 O 0.1850(3) 1.2493(3) 1.3612(2)
O13 O 0.0515(3) 1.2716(3) 1.3609(2)
O14 O 0.1411(3) 1.3544(2) 1.40180(18)
O15 O 0.2806(2) 1.6727(2) 1.32486(15)
O16 O 0.2702(2) 1.6824(2) 1.23382(15)
O17 O 0.1023(2) 1.9335(2) 1.41781(18)
O18 O 0.2345(2) 1.9225(2) 1.43544(17)
O19 O 0.1569(2) 1.8231(2) 1.45283(15)
O20 O 0.2067(2) 1.5454(2) 1.08497(17)
H1 H 0.22200 1.50780 1.06580
H2 H 0.16950 1.56110 1.06830
O21 O 0.2898(3) 1.6567(2) 1.04767(17)
H3 H 0.31500 1.62320 1.03830
H4 H 0.25720 1.66000 1.01330
C1 C 0.3883(3) 1.4430(3) 1.4133(2)
C2 C 0.4209(3) 1.3787(3) 1.44117(19)
C3 C 0.4917(3) 1.3839(3) 1.4685(2)
H5 H 0.51620 1.42710 1.47080
C4 C 0.5247(3) 1.3242(3) 1.4922(2)
C5 C 0.4862(3) 1.2607(3) 1.4929(2)
H6 H 0.50820 1.22140 1.51040
C6 C 0.4155(3) 1.2561(3) 1.4676(2)
H7 H 0.38950 1.21380 1.46840
C7 C 0.3832(3) 1.3149(3) 1.4411(2)
H8 H 0.33610 1.31150 1.42320
C8 C 0.2126(3) 1.5105(3) 1.2429(2)
C9 C 0.1727(3) 1.4418(2) 1.2436(2)
C10 C 0.1678(3) 1.4073(3) 1.2940(2)
H9 H 0.19040 1.42620 1.32660
C11 C 0.1290(3) 1.3444(3) 1.2952(2)
C12 C 0.0951(3) 1.3148(3) 1.2464(2)
H10 H 0.06790 1.27330 1.24760
C13 C 0.1031(3) 1.3489(3) 1.1967(2)
H11 H 0.08210 1.32910 1.16380
C14 C 0.1410(3) 1.4109(3) 1.1944(2)
H12 H 0.14580 1.43270 1.16030
C15 C 0.2600(3) 1.7050(3) 1.28069(19)
C16 C 0.2200(3) 1.7729(3) 1.2880(2)
C17 C 0.2110(3) 1.7961(3) 1.3418(2)
H13 H 0.23110 1.77030 1.37210
C18 C 0.1725(3) 1.8573(3) 1.3503(2)
C19 C 0.1423(3) 1.8965(3) 1.3047(2)
H14 H 0.11670 1.93810 1.31050
C20 C 0.1504(3) 1.8733(3) 1.2515(2)
H15 H 0.13050 1.89940 1.22140
C21 C 0.1883(3) 1.8109(3) 1.2423(2)
H16 H 0.19250 1.79480 1.20620
Cs1 Cs 0.90873(2) 1.36986(2) 1.321244(18)
Cs2 Cs 0.72782(2) 1.26373(2) 1.215707(17)
O22 O 0.7071(2) 0.9147(2) 1.09643(17)
O23 O 0.8305(2) 1.2122(2) 1.10171(16)
O24 O 0.5355(2) 0.9540(2) 1.07792(16)
O25 O 0.6360(2) 1.2606(2) 1.10722(19)
O26 O 0.4949(2) 0.98807(19) 1.21634(16)
O27 O 0.5399(2) 1.3041(2) 1.21803(17)
O28 O 0.5924(2) 0.9683(2) 1.35464(16)
O29 O 0.6519(2) 1.2766(2) 1.32892(17)
O30 O 0.7645(2) 0.9164(2) 1.37118(16)
O31 O 0.8438(2) 1.2210(2) 1.32368(17)
O32 O 0.8081(2) 0.9081(2) 1.24246(16)
O33 O 0.9487(2) 1.1935(2) 1.21515(16)
N1 N 0.8111(2) 0.9854(2) 1.09935(18)
N2 N 0.7175(2) 1.0087(2) 1.03773(18)
N3 N 0.7605(2) 1.1309(2) 1.04862(19)
N4 N 0.8713(2) 1.0995(2) 1.08562(17)
N5 N 0.5886(2) 1.0445(3) 1.03065(19)
N6 N 0.4944(2) 1.0687(2) 1.08044(19)
N7 N 0.5312(2) 1.1922(2) 1.08885(19)
N8 N 0.6322(2) 1.1655(3) 1.0474(2)
N9 N 0.4507(2) 1.0892(2) 1.17120(18)
N10 N 0.4640(3) 1.0888(2) 1.26367(18)
N11 N 0.4811(2) 1.2166(2) 1.26476(17)
N12 N 0.4692(3) 1.2173(2) 1.17291(19)
N13 N 0.5402(2) 1.0797(2) 1.35061(18)
N14 N 0.6369(2) 1.0603(2) 1.41083(18)
N15 N 0.6692(2) 1.1813(2) 1.38818(19)
N16 N 0.5552(2) 1.2081(2) 1.35350(18)
N17 N 0.7671(2) 1.0279(2) 1.41071(18)
N18 N 0.8645(3) 0.9925(2) 1.36820(18)
N19 N 0.8979(2) 1.1149(2) 1.35055(18)
N20 N 0.7997(3) 1.1504(2) 1.3916(2)
N21 N 0.9092(3) 0.9721(2) 1.27799(18)
N22 N 0.8853(2) 0.9665(2) 1.18618(17)
N23 N 0.9402(2) 1.0828(2) 1.17539(18)
N24 N 0.9595(3) 1.0913(2) 1.26688(18)
C22 C 0.7410(3) 0.9647(3) 1.0795(2)
C23 C 0.8416(3) 1.0350(3) 1.0608(2)
H17 H 0.87680 1.01200 1.03770
C24 C 0.7718(3) 1.0609(3) 1.0254(2)
H18 H 0.77960 1.06280 0.98570
C25 C 0.8213(3) 1.1537(3) 1.0814(2)
C26 C 0.6448(3) 1.0028(3) 1.0072(2)
H19 H 0.62960 0.95370 1.00660
H20 H 0.64890 1.01750 0.96900
C27 C 0.7030(3) 1.1792(3) 1.0261(2)
H21 H 0.69820 1.17500 0.98590
H22 H 0.71790 1.22730 1.03530
C28 C 0.5388(3) 1.0156(3) 1.0655(2)
C29 C 0.5760(3) 1.1192(3) 1.0204(2)
H23 H 0.56710 1.12950 0.98060
C30 C 0.5072(3) 1.1357(3) 1.0528(2)
H24 H 0.46460 1.14940 1.02760
C31 C 0.6038(3) 1.2113(3) 1.0841(2)
C32 C 0.4358(3) 1.0575(3) 1.1171(2)
H25 H 0.42860 1.00720 1.12170
H26 H 0.39020 1.07700 1.09980
C33 C 0.4809(3) 1.2386(3) 1.1164(2)
H27 H 0.43360 1.23950 1.09470
H28 H 0.50060 1.28620 1.11710
C34 C 0.4729(3) 1.0483(3) 1.2174(2)
C35 C 0.4238(3) 1.1582(3) 1.1863(2)
H29 H 0.37220 1.16520 1.17230
C36 C 0.4324(3) 1.1574(3) 1.2517(2)
H30 H 0.38470 1.16320 1.26770
C37 C 0.5018(3) 1.2514(3) 1.2183(2)
C38 C 0.4719(3) 1.0589(3) 1.3189(2)
H31 H 0.43020 1.07360 1.33900
H32 H 0.47050 1.00790 1.31590
C39 C 0.4974(3) 1.2441(3) 1.3209(2)
H33 H 0.45270 1.24180 1.34040
H34 H 0.51100 1.29340 1.31820
C40 C 0.5905(3) 1.0298(3) 1.3703(2)
C41 C 0.5454(3) 1.1439(3) 1.3841(2)
H35 H 0.50490 1.14770 1.40860
C42 C 0.6217(3) 1.1336(3) 1.4178(2)
H36 H 0.62000 1.14660 1.45700
C43 C 0.6280(3) 1.2270(3) 1.3541(2)
C44 C 0.6996(3) 1.0227(3) 1.4379(2)
H37 H 0.68650 0.97320 1.44050
H38 H 0.70840 1.04050 1.47550
C45 C 0.7442(3) 1.1984(3) 1.4091(2)
H39 H 0.74670 1.19900 1.44940
H40 H 0.75580 1.24560 1.39670
C46 C 0.7960(3) 0.9735(3) 1.3825(2)
C47 C 0.8196(3) 1.0854(3) 1.4206(2)
H41 H 0.83180 1.09330 1.46040
C48 C 0.8878(3) 1.0604(3) 1.3908(2)
H42 H 0.93150 1.05570 1.41720
C49 C 0.8463(3) 1.1677(3) 1.3519(2)
C50 C 0.9087(3) 0.9480(3) 1.3352(2)
H43 H 0.95910 0.94720 1.35200
H44 H 0.88970 0.90020 1.33550
C51 C 0.9640(3) 1.1234(3) 1.3211(2)
H45 H 1.00550 1.10310 1.34330
H46 H 0.97380 1.17340 1.31710
C52 C 0.8622(3) 0.9450(3) 1.2365(2)
C53 C 0.9665(3) 1.0157(3) 1.2569(2)
H47 H 1.01600 0.99840 1.26910
C54 C 0.9510(3) 1.0104(3) 1.1926(2)
H48 H 0.99250 0.98870 1.17530
C55 C 0.9493(3) 1.1295(3) 1.2184(2)
C56 C 0.8571(3) 0.9372(3) 1.1334(2)
H49 H 0.89850 0.92290 1.11290
H50 H 0.82860 0.89530 1.14030
C57 C 0.9425(3) 1.1051(3) 1.1181(2)
H51 H 0.95900 1.15380 1.11760
H52 H 0.97860 1.07670 1.10060
O34 O 0.8826(3) 1.3280(3) 1.1979(2)
H53 H 0.89000 1.35390 1.16940
H54 H 0.92090 1.29640 1.19850
O35 O 0.8226(3) 1.4847(3) 1.2443(2)
H55 H 0.84420 1.47250 1.20980
H56 H 0.77630 1.46960 1.23320
O36 O 0.6490(7) 1.1177(6) 1.2043(5)
O37 O 0.8725(3) 0.6400(3) 0.9369(2)
H57 H 0.82820 0.61560 0.93520
H58 H 0.90350 0.59880 0.93990
O38 O 0.4748(5) 1.2651(5) 0.9552(3)
H59 H 0.51000 1.24910 0.93240
H60 H 0.44200 1.23530 0.95280
O39 O 0.4991(4) 0.6102(4) 0.9940(4)
H61 H 0.53660 0.59850 0.97360
H62 H 0.50480 0.65750 0.99730
O40 O 0.8685(3) 0.9469(2) 0.50894(19)
H63 H 0.88380 0.98840 0.53210
H64 H 0.91440 0.93330 0.50170
O41 O 0.3480(4) 1.1868(3) 0.9865(3)
O42 O 0.5685(3) 0.9491(3) 0.5440(2)
O43 O 0.6963(3) 0.8401(2) 0.45211(18)
O44 O 0.0011(4) 0.5771(4) 0.9407(3)
U1B U 0.67491(1) 1.433998(10) 1.638876(7)
U2A U 0.23693(1) 1.13525(1) 1.356740(8)
O7B O 0.3877(2) 1.65145(19) 1.42033(14)
O12A O 0.3150(3) 1.7493(3) 1.1388(2)
#END
