
#######################################################################
#
#                 Cambridge Crystallographic Data Centre
#                                CCDC
#
#######################################################################
#
# If this CIF has been generated from an entry in the Cambridge
# Structural Database, then it will include bibliographic, chemical,
# crystal, experimental, refinement or atomic coordinate data resulting
# from the CCDC's data processing and validation procedures.
#
#######################################################################

data_CSD_CIF_PAQPIJ
_audit_creation_date 2017-02-06
_audit_creation_method CSD-ConQuest-V1
_database_code_CSD PAQPIJ
_database_code_depnum_ccdc_archive 'CCDC 1505266'
_chemical_formula_sum 'C23 H21 Gd1 N2 O10'
_chemical_formula_moiety
;
(C21 H13 Gd1 N1 O10 1-)n,C2 H8 N1 1+
;
_journal_coden_Cambridge 1695
_journal_volume 5
_journal_year 2017
_journal_page_first 1981
_journal_name_full 'J.Mater.Chem.C '
loop_
_publ_author_name
"Yan Yang"
"Lian Chen"
"Feilong Jiang"
"Muxin Yu"
"Xiuyan Wan"
"Bo Zhang"
"Maochun Hong"
_chemical_name_systematic
;
catena-[dimethylammonium 
(\m-4,4'-(pyridine-2,6-diyl)bis(benzene-1,3-dicarboxylato))-diaqua-gadolinium(
iii) unknown solvate]
;
_cell_volume   1775.075
_exptl_crystal_colour 'colorless'
_exptl_crystal_density_diffrn 2.217
_exptl_crystal_description 'block'
_diffrn_ambient_temperature 100
_refine_special_details
;
Disordered cation and solvent molecules were not modelled and the disordered 
density was taken into account using the SQUEEZE/PLATON procedure.
;
#These two values have been output from a single CSD field.
_refine_ls_R_factor_gt 0.0467
_refine_ls_wR_factor_gt 0.0467
_symmetry_cell_setting orthorhombic
_symmetry_space_group_name_H-M 'P n m a'
_symmetry_Int_Tables_number 62
loop_
_symmetry_equiv_pos_site_id
_symmetry_equiv_pos_as_xyz
1 x,y,z
2 1/2-x,-y,1/2+z
3 1/2+x,1/2-y,1/2-z
4 -x,1/2+y,-z
5 -x,-y,-z
6 -1/2+x,y,-1/2-z
7 -1/2-x,-1/2+y,-1/2+z
8 x,-1/2-y,z
_cell_length_a 8.5011(3)
_cell_length_b 17.2958(5)
_cell_length_c 12.0726(3)
_cell_angle_alpha 90
_cell_angle_beta 90
_cell_angle_gamma 90
_cell_formula_units_Z 4
loop_
_atom_type_symbol
_atom_type_radius_bond
C 0.68
H 0.23
Gd 1.96
N 0.68
O 0.68
loop_
_atom_site_label
_atom_site_type_symbol
_atom_site_fract_x
_atom_site_fract_y
_atom_site_fract_z
Gd1 Gd 0.00404(7) 0.75000 0.81903(4)
N1 N 0.096(1) 0.75000 0.4343(6)
O1 O -0.0757(8) 0.75000 1.0198(5)
O2 O 0.0192(7) 0.6681(3) 0.6563(4)
O3 O 0.2755(7) 0.6719(4) 0.6848(4)
C1 C 0.1804(9) 0.5961(4) 0.5333(6)
O4 O 0.4373(7) 0.3855(3) 0.5725(4)
C2 C -0.1858(13) 0.75000 0.3156(9)
H1 H -0.28326 0.75000 0.27712
O5 O 0.2623(12) 0.75000 0.9119(9)
O6 O 0.415(1) 0.3680(4) 0.3910(5)
C3 C 0.3860(11) 0.4052(5) 0.4775(7)
C4 C -0.1139(9) 0.6811(4) 0.3440(6)
H2 H -0.15919 0.63303 0.32308
C5 C 0.1099(9) 0.6096(4) 0.4299(6)
C6 C 0.0256(9) 0.6834(4) 0.4037(6)
C7 C 0.1254(10) 0.5546(4) 0.3464(6)
H3 H 0.07515 0.56258 0.27709
C8 C 0.1577(10) 0.6499(4) 0.6306(6)
C9 C 0.2690(9) 0.5286(4) 0.5499(6)
H4 H 0.31770 0.51928 0.61944
C10 C 0.2854(9) 0.4754(4) 0.4646(6)
C11 C 0.2128(9) 0.4889(4) 0.3635(6)
H5 H 0.22362 0.45225 0.30538
O2G O 0.0192(7) 0.8319(3) 0.6563(4)
O3G O 0.2755(7) 0.8281(4) 0.6848(4)
C1G C 0.1804(9) 0.9039(4) 0.5333(6)
O4G O 0.4373(7) 1.1145(3) 0.5725(4)
O6G O 0.415(1) 1.1320(4) 0.3910(5)
C3G C 0.3860(11) 1.0948(5) 0.4775(7)
C4G C -0.1139(9) 0.8189(4) 0.3440(6)
H2G H -0.15919 0.86697 0.32308
C5G C 0.1099(9) 0.8904(4) 0.4299(6)
C6G C 0.0256(9) 0.8166(4) 0.4037(6)
C7G C 0.1254(10) 0.9454(4) 0.3464(6)
H3G H 0.07515 0.93742 0.27709
C8G C 0.1577(10) 0.8501(4) 0.6306(6)
C9G C 0.2690(9) 0.9714(4) 0.5499(6)
H4G H 0.31770 0.98072 0.61944
C10G C 0.2854(9) 1.0246(4) 0.4646(6)
C11G C 0.2128(9) 1.0111(4) 0.3635(6)
H5G H 0.22362 1.04775 0.30538
Gd1A Gd 0.49596(7) 0.25000 0.31903(4)
Gd1A* Gd 0.49596(7) 1.25000 0.31903(4)
Gd1B Gd 0.50404(7) 0.75000 0.68097(4)
O3B O -0.2245(7) 0.8281(4) 0.8152(4)
O3E O -0.2245(7) 0.6719(4) 0.8152(4)
O6A O 0.085(1) 0.6320(4) 0.8910(5)
O6F O 0.085(1) 0.8680(4) 0.8910(5)
#END
