
#######################################################################
#
#                 Cambridge Crystallographic Data Centre
#                                CCDC
#
#######################################################################
#
# If this CIF has been generated from an entry in the Cambridge
# Structural Database, then it will include bibliographic, chemical,
# crystal, experimental, refinement or atomic coordinate data resulting
# from the CCDC's data processing and validation procedures.
#
#######################################################################

data_CSD_CIF_PAQPOP
_audit_creation_date 2017-02-06
_audit_creation_method CSD-ConQuest-V1
_database_code_CSD PAQPOP
_database_code_depnum_ccdc_archive 'CCDC 1505267'
_chemical_formula_sum 'C23 H21 N2 O10 Tb1'
_chemical_formula_moiety
;
(C21 H13 N1 O10 Tb1 1-)n,C2 H8 N1 1+
;
_journal_coden_Cambridge 1695
_journal_volume 5
_journal_year 2017
_journal_page_first 1981
_journal_name_full 'J.Mater.Chem.C '
loop_
_publ_author_name
"Yan Yang"
"Lian Chen"
"Feilong Jiang"
"Muxin Yu"
"Xiuyan Wan"
"Bo Zhang"
"Maochun Hong"
_chemical_name_systematic
;
catena-[dimethylammonium 
(\m-4,4'-(pyridine-2,6-diyl)bis(benzene-1,3-dicarboxylato))-diaqua-terbium(iii
) unknown solvate]
;
_cell_volume   1781.024
_exptl_crystal_colour 'colorless'
_exptl_crystal_density_diffrn 2.216
_exptl_crystal_description 'block'
_diffrn_ambient_temperature 100
_refine_special_details
;
Disordered cation and solvent molecules were not modelled and the disordered 
density was taken into account using the SQUEEZE/PLATON procedure.
;
#These two values have been output from a single CSD field.
_refine_ls_R_factor_gt 0.0382
_refine_ls_wR_factor_gt 0.0382
_symmetry_cell_setting orthorhombic
_symmetry_space_group_name_H-M 'P n m a'
_symmetry_Int_Tables_number 62
loop_
_symmetry_equiv_pos_site_id
_symmetry_equiv_pos_as_xyz
1 x,y,z
2 1/2-x,-y,1/2+z
3 1/2+x,1/2-y,1/2-z
4 -x,1/2+y,-z
5 -x,-y,-z
6 -1/2+x,y,-1/2-z
7 -1/2-x,-1/2+y,-1/2+z
8 x,-1/2-y,z
_cell_length_a 8.5052(2)
_cell_length_b 17.3256(4)
_cell_length_c 12.0864(3)
_cell_angle_alpha 90
_cell_angle_beta 90
_cell_angle_gamma 90
_cell_formula_units_Z 4
loop_
_atom_type_symbol
_atom_type_radius_bond
C 0.68
H 0.23
N 0.68
O 0.68
Tb 1.94
loop_
_atom_site_label
_atom_site_type_symbol
_atom_site_fract_x
_atom_site_fract_y
_atom_site_fract_z
Tb1 Tb 0.50290(5) 0.25000 0.68086(3)
C1 C 0.0268(6) 0.3172(3) 0.4034(4)
O1 O 0.4247(6) 0.25000 0.4796(4)
O2 O 0.4363(5) 0.6144(2) 0.5729(3)
O3 O 0.2749(5) 0.3282(2) 0.6846(3)
C2 C 0.1109(5) 0.3898(3) 0.4309(4)
N1 N 0.0957(7) 0.25000 0.4344(4)
O4 O 0.4169(6) 0.6311(2) 0.3912(3)
C3 C 0.1272(6) 0.4446(3) 0.3472(4)
H1 H 0.07840 0.43620 0.27751
O5 O 0.0192(5) 0.3321(2) 0.6562(3)
C4 C 0.2870(6) 0.5240(3) 0.4653(4)
C5 C 0.2692(6) 0.4703(3) 0.5499(4)
H2 H 0.31820 0.47916 0.61943
C6 C -0.1852(10) 0.25000 0.3158(6)
H3 H -0.28230 0.25000 0.27701
C7 C -0.1130(6) 0.3189(3) 0.3447(4)
H4 H -0.15902 0.36682 0.32430
O6 O 0.7613(8) 0.25000 0.5890(6)
C8 C 0.1806(6) 0.4037(3) 0.5340(4)
C9 C 0.2137(6) 0.5110(3) 0.3646(4)
H5 H 0.22294 0.54805 0.30705
C10 C 0.3864(7) 0.5951(3) 0.4777(5)
C11 C 0.1567(6) 0.3503(3) 0.6304(4)
C1G C 0.0268(6) 0.1828(3) 0.4034(4)
O2G O 0.4363(5) -0.1144(2) 0.5729(3)
O3G O 0.2749(5) 0.1718(2) 0.6846(3)
C2G C 0.1109(5) 0.1102(3) 0.4309(4)
O4G O 0.4169(6) -0.1311(2) 0.3912(3)
C3G C 0.1272(6) 0.0554(3) 0.3472(4)
H1G H 0.07840 0.06380 0.27751
O5G O 0.0192(5) 0.1679(2) 0.6562(3)
C4G C 0.2870(6) -0.0240(3) 0.4653(4)
C5G C 0.2692(6) 0.0297(3) 0.5499(4)
H2G H 0.31820 0.02084 0.61943
C7G C -0.1130(6) 0.1811(3) 0.3447(4)
H4G H -0.15902 0.13318 0.32430
C8G C 0.1806(6) 0.0963(3) 0.5340(4)
C9G C 0.2137(6) -0.0110(3) 0.3646(4)
H5G H 0.22294 -0.04805 0.30705
C10G C 0.3864(7) -0.0951(3) 0.4777(5)
C11G C 0.1567(6) 0.1497(3) 0.6304(4)
Tb1B Tb 0.00290(5) 0.25000 0.81914(3)
Tb1C Tb 0.49710(5) -0.25000 0.31914(3)
Tb1C* Tb 0.49710(5) 0.75000 0.31914(3)
O4C O 0.5831(6) 0.1311(2) 0.6088(3)
O4D O 0.5831(6) 0.3689(2) 0.6088(3)
O5B O 0.5192(5) 0.1679(2) 0.8438(3)
O5E O 0.5192(5) 0.3321(2) 0.8438(3)
#END
