
#######################################################################
#
#                 Cambridge Crystallographic Data Centre
#                                CCDC
#
#######################################################################
#
# If this CIF has been generated from an entry in the Cambridge
# Structural Database, then it will include bibliographic, chemical,
# crystal, experimental, refinement or atomic coordinate data resulting
# from the CCDC's data processing and validation procedures.
#
#######################################################################

data_CSD_CIF_PAQPEF
_audit_creation_date 2017-02-06
_audit_creation_method CSD-ConQuest-V1
_database_code_CSD PAQPEF
_database_code_depnum_ccdc_archive 'CCDC 1505265'
_chemical_formula_sum 'C23 H21 Eu1 N2 O10'
_chemical_formula_moiety
;
(C21 H13 Eu1 N1 O10 1-)n,C2 H8 N1 1+
;
_journal_coden_Cambridge 1695
_journal_volume 5
_journal_year 2017
_journal_page_first 1981
_journal_name_full 'J.Mater.Chem.C '
loop_
_publ_author_name
"Yan Yang"
"Lian Chen"
"Feilong Jiang"
"Muxin Yu"
"Xiuyan Wan"
"Bo Zhang"
"Maochun Hong"
_chemical_name_systematic
;
catena-[dimethylammonium 
(\m-4,4'-(pyridine-2,6-diyl)bis(benzene-1,3-dicarboxylato))-diaqua-europium(ii
i) unknown solvate]
;
_cell_volume   1785.721
_exptl_crystal_colour 'colorless'
_exptl_crystal_density_diffrn 2.184
_exptl_crystal_description 'block'
_diffrn_ambient_temperature 100
_refine_special_details
;
Disordered cation and solvent molecules were not modelled and the disordered 
density was taken into account using the SQUEEZE/PLATON procedure.
;
#These two values have been output from a single CSD field.
_refine_ls_R_factor_gt 0.036
_refine_ls_wR_factor_gt 0.036
_symmetry_cell_setting orthorhombic
_symmetry_space_group_name_H-M 'P n m a'
_symmetry_Int_Tables_number 62
loop_
_symmetry_equiv_pos_site_id
_symmetry_equiv_pos_as_xyz
1 x,y,z
2 1/2-x,-y,1/2+z
3 1/2+x,1/2-y,1/2-z
4 -x,1/2+y,-z
5 -x,-y,-z
6 -1/2+x,y,-1/2-z
7 -1/2-x,-1/2+y,-1/2+z
8 x,-1/2-y,z
_cell_length_a 8.5023(2)
_cell_length_b 17.3319(4)
_cell_length_c 12.1180(3)
_cell_angle_alpha 90
_cell_angle_beta 90
_cell_angle_gamma 90
_cell_formula_units_Z 4
loop_
_atom_type_symbol
_atom_type_radius_bond
C 0.68
H 0.23
Eu 1.98
N 0.68
O 0.68
loop_
_atom_site_label
_atom_site_type_symbol
_atom_site_fract_x
_atom_site_fract_y
_atom_site_fract_z
Eu1 Eu -0.00276(4) 0.25000 0.31883(3)
O1 O 0.0757(5) 0.25000 0.5216(4)
O2 O -0.4358(4) -0.11405(17) 0.0730(3)
O3 O -0.2604(6) 0.25000 0.4121(5)
N1 N -0.0959(6) 0.25000 -0.0655(4)
C1 C -0.1798(5) 0.0966(2) 0.0336(4)
C2 C 0.1838(9) 0.25000 -0.1854(5)
H1 H 0.28013 0.25000 -0.22510
O4 O -0.0158(4) 0.1677(3) 0.1548(4)
C3 C -0.3868(6) -0.0946(3) -0.0229(4)
O5 O -0.4215(5) -0.1293(2) -0.1096(3)
C4 C -0.1110(5) 0.1100(2) -0.0695(4)
C5 C -0.1288(6) 0.0558(3) -0.1533(4)
H2 H -0.08034 0.06441 -0.22288
C6 C 0.1130(5) 0.1810(2) -0.1563(4)
H3 H 0.15906 0.13314 -0.17667
C7 C -0.0274(5) 0.1831(3) -0.0965(4)
C8 C -0.1544(5) 0.1496(2) 0.1296(3)
C9 C -0.2872(6) -0.0237(3) -0.0349(4)
C10 C -0.2159(5) -0.0101(3) -0.1363(4)
H4 H -0.22734 -0.04658 -0.19432
C11 C -0.2682(6) 0.0293(3) 0.0496(4)
H5 H -0.31571 0.01986 0.11927
O6 O -0.2710(4) 0.1716(2) 0.1858(3)
O2G O -0.4358(4) 0.61405(17) 0.0730(3)
C1G C -0.1798(5) 0.4034(2) 0.0336(4)
O4G O -0.0158(4) 0.3323(3) 0.1548(4)
C3G C -0.3868(6) 0.5946(3) -0.0229(4)
O5G O -0.4215(5) 0.6293(2) -0.1096(3)
C4G C -0.1110(5) 0.3900(2) -0.0695(4)
C5G C -0.1288(6) 0.4442(3) -0.1533(4)
H2G H -0.08034 0.43559 -0.22288
C6G C 0.1130(5) 0.3190(2) -0.1563(4)
H3G H 0.15906 0.36686 -0.17667
C7G C -0.0274(5) 0.3169(3) -0.0965(4)
C8G C -0.1544(5) 0.3504(2) 0.1296(3)
C9G C -0.2872(6) 0.5237(3) -0.0349(4)
C10G C -0.2159(5) 0.5101(3) -0.1363(4)
H4G H -0.22734 0.54658 -0.19432
C11G C -0.2682(6) 0.4707(3) 0.0496(4)
H5G H -0.31571 0.48014 0.11927
O6G O -0.2710(4) 0.3284(2) 0.1858(3)
Eu1A Eu -0.49724(4) -0.25000 -0.18117(3)
Eu1A* Eu -0.49724(4) 0.75000 -0.18117(3)
Eu1B Eu -0.50276(4) 0.25000 0.18117(3)
O5A O -0.0785(5) 0.1293(2) 0.3904(3)
O5F O -0.0785(5) 0.3707(2) 0.3904(3)
O6B O 0.2290(4) 0.3284(2) 0.3142(3)
O6E O 0.2290(4) 0.1716(2) 0.3142(3)
#END
