
#######################################################################
#
#                 Cambridge Crystallographic Data Centre
#                                CCDC
#
#######################################################################
#
# If this CIF has been generated from an entry in the Cambridge
# Structural Database, then it will include bibliographic, chemical,
# crystal, experimental, refinement or atomic coordinate data resulting
# from the CCDC's data processing and validation procedures.
#
#######################################################################

data_CSD_CIF_PAQTOS01
_audit_creation_date 2012-02-24
_audit_creation_method CSD-ConQuest-V1
_database_code_CSD PAQTOS01
_database_code_depnum_ccdc_archive 'CCDC 863574'
_chemical_formula_sum 'C57 H45 Fe1 N7 Ni1 O11 Rb1'
_chemical_formula_moiety
;
(Rb1 1+)n,n(C48 H24 Fe1 N4 Ni1 O8 1-),3n(C3 H7 N1 O1)
;
_journal_coden_Cambridge 1096
_journal_volume 23
_journal_year 2011
_journal_page_first 4641
_journal_name_full 'Chem.Mater. '
loop_
_publ_author_name
"A.Fateeva"
"S.Devautour-Vinot"
"N.Heymans"
"T.Devic"
"J.-M.Greneche"
"S.Wuttke"
"S.Miller"
"A.Lago"
"C.Serre"
"G.De Weireld"
"G.Maurin"
"A.Vimont"
"G.Ferey"
_chemical_name_systematic
;
catena-(rubidium 
(\m~5~-5,10,15,20-tetrakis(4-carboxyphenyl)porphyrinato)-iron(iii)-nickel(ii) 
N,N-dimethylformamide solvate)
;
_chemical_name_common
;
MIL-141(Rb)
;
_cell_volume   5600.628
_exptl_crystal_colour 'red'
_exptl_crystal_description 'prism'
_diffrn_ambient_temperature 293
_refine_special_details
;
Disordered solvent molecules were not modelled and the disordered density was 
taken into account using the SQUEEZE/PLATON procedure.
;
#These two values have been output from a single CSD field.
_refine_ls_R_factor_gt 0.0837
_refine_ls_wR_factor_gt 0.0837
_symmetry_cell_setting monoclinic
_symmetry_space_group_name_H-M 'C 2/c'
_symmetry_Int_Tables_number 15
loop_
_symmetry_equiv_pos_site_id
_symmetry_equiv_pos_as_xyz
1 x,y,z
2 -x,y,1/2-z
3 1/2+x,1/2+y,z
4 1/2-x,1/2+y,1/2-z
5 -x,-y,-z
6 x,-y,-1/2+z
7 -1/2-x,-1/2-y,-z
8 -1/2+x,-1/2-y,-1/2+z
_cell_length_a 7.366(3)
_cell_length_b 25.065(10)
_cell_length_c 30.377(12)
_cell_angle_alpha 90
_cell_angle_beta 93.030(8)
_cell_angle_gamma 90
_cell_formula_units_Z 4
loop_
_atom_type_symbol
_atom_type_radius_bond
C 0.68
H 0.23
Fe 1.32
N 0.68
Ni 1.24
O 0.68
Rb 1.60
loop_
_atom_site_label
_atom_site_type_symbol
_atom_site_fract_x
_atom_site_fract_y
_atom_site_fract_z
Rb1 Rb -0.50000 0.26365(5) -0.25000
Ni1 Ni -0.50000 0.00000 -0.50000
Fe1 Fe -1.50000 -0.16221(4) -0.25000
N1 N -0.2915(5) 0.04872(15) -0.50102(12)
N2 N -0.5569(5) 0.02803(15) -0.44141(11)
C1 C -0.1704(7) 0.0556(2) -0.53435(16)
C2 C -0.0383(10) 0.0948(3) -0.5219(2)
H1 H 0.06160 0.10410 -0.53770
C3 C -0.0819(10) 0.1160(3) -0.4837(2)
H2 H -0.02400 0.14440 -0.46900
C4 C -0.2368(7) 0.0865(2) -0.46944(16)
C5 C -0.3186(7) 0.0966(2) -0.43052(15)
C6 C -0.4702(6) 0.0674(2) -0.41807(14)
C7 C -0.5523(7) 0.0747(2) -0.37599(16)
H3 H -0.51850 0.09960 -0.35440
C8 C -0.6850(7) 0.0390(2) -0.37435(16)
H4 H -0.75950 0.03370 -0.35100
C9 C -0.6926(6) 0.0102(2) -0.41503(13)
C10 C -0.1784(6) 0.0288(2) -0.57411(14)
C11 C -0.2398(8) 0.1384(2) -0.39936(17)
C12 C -0.3366(12) 0.1870(3) -0.3917(2)
H5 H -0.44870 0.19380 -0.40610
C13 C -0.2573(16) 0.2234(3) -0.3620(3)
H6 H -0.31890 0.25490 -0.35650
C14 C -0.0870(13) 0.2144(3) -0.3401(2)
C15 C 0.0038(11) 0.1695(4) -0.3495(3)
H7 H 0.11970 0.16420 -0.33660
C16 C -0.0695(9) 0.1308(3) -0.3779(2)
H8 H -0.00480 0.09970 -0.38260
C17 C 0.0049(18) 0.2545(4) -0.3072(3)
O1 O -0.1058(12) 0.2922(2) -0.29578(16)
O2 O 0.1611(14) 0.2439(4) -0.2926(3)
C18 C -0.0526(6) 0.0459(2) -0.60913(14)
C19 C 0.1340(7) 0.0342(2) -0.60451(16)
H9 H 0.17920 0.01390 -0.58080
C20 C 0.2524(7) 0.0533(2) -0.63576(15)
H10 H 0.37610 0.04600 -0.63240
C21 C 0.1856(6) 0.08266(19) -0.67116(14)
C22 C -0.0025(7) 0.0933(2) -0.67681(15)
H11 H -0.04820 0.11290 -0.70090
C23 C -0.1189(7) 0.0738(3) -0.64569(17)
H12 H -0.24330 0.07980 -0.64970
C24 C 0.3090(6) 0.10650(18) -0.70349(14)
O3 O 0.4786(4) 0.10021(14) -0.69958(11)
O4 O 0.2461(4) 0.13800(14) -0.73346(10)
Fe1D Fe 0.50000 0.16221(4) -0.75000
Fe1F Fe -1.00000 -0.33779(4) -0.75000
Fe1B Fe 0.00000 0.33779(4) -0.25000
N1D N -0.7085(5) -0.04872(15) -0.49898(12)
N2D N -0.4431(5) -0.02803(15) -0.55859(11)
C1D C -0.8296(7) -0.0556(2) -0.46565(16)
C2D C -0.9617(10) -0.0948(3) -0.4781(2)
H1D H -1.06160 -0.10410 -0.46230
C3D C -0.9181(10) -0.1160(3) -0.5163(2)
H2D H -0.97600 -0.14440 -0.53100
C4D C -0.7632(7) -0.0865(2) -0.53056(16)
C5D C -0.6814(7) -0.0966(2) -0.56948(15)
C6D C -0.5298(6) -0.0674(2) -0.58193(14)
C7D C -0.4477(7) -0.0747(2) -0.62401(16)
H3D H -0.48150 -0.09960 -0.64560
C8D C -0.3150(7) -0.0390(2) -0.62565(16)
H4D H -0.24050 -0.03370 -0.64900
C9D C -0.3074(6) -0.0102(2) -0.58497(13)
C10D C -0.8216(6) -0.0288(2) -0.42589(14)
C11D C -0.7602(8) -0.1384(2) -0.60064(17)
C12D C -0.6634(12) -0.1870(3) -0.6083(2)
H5D H -0.55130 -0.19380 -0.59390
C13D C -0.7427(16) -0.2234(3) -0.6380(3)
H6D H -0.68110 -0.25490 -0.64350
C14D C -0.9130(13) -0.2144(3) -0.6599(2)
C15D C -1.0038(11) -0.1695(4) -0.6505(3)
H7D H -1.11970 -0.16420 -0.66340
C16D C -0.9305(9) -0.1308(3) -0.6221(2)
H8D H -0.99520 -0.09970 -0.61740
C17D C -1.0049(18) -0.2545(4) -0.6928(3)
O1D O -0.8942(12) -0.2922(2) -0.70422(16)
O1B O -1.6058(12) -0.2078(2) -0.29578(16)
O1C O -1.3942(12) -0.2078(2) -0.20422(16)
O2D O -1.1611(14) -0.2439(4) -0.7074(3)
C18D C -0.9474(6) -0.0459(2) -0.39087(14)
C19D C -1.1340(7) -0.0342(2) -0.39549(16)
H9D H -1.17920 -0.01390 -0.41920
C20D C -1.2524(7) -0.0533(2) -0.36424(15)
H10D H -1.37610 -0.04600 -0.36760
C21D C -1.1856(6) -0.08266(19) -0.32884(14)
C22D C -0.9975(7) -0.0933(2) -0.32319(15)
H11D H -0.95180 -0.11290 -0.29910
C23D C -0.8811(7) -0.0738(3) -0.35431(17)
H12D H -0.75670 -0.07980 -0.35030
C24D C -1.3090(6) -0.10650(18) -0.29651(14)
O3D O -1.4786(4) -0.10021(14) -0.30042(11)
O3E O -1.5214(4) -0.10021(14) -0.19958(11)
O4D O -1.2461(4) -0.13800(14) -0.26654(10)
O4E O -1.7539(4) -0.13800(14) -0.23346(10)
#END
