
#######################################################################
#
#                 Cambridge Crystallographic Data Centre
#                                CCDC
#
#######################################################################
#
# If this CIF has been generated from an entry in the Cambridge
# Structural Database, then it will include bibliographic, chemical,
# crystal, experimental, refinement or atomic coordinate data resulting
# from the CCDC's data processing and validation procedures.
#
#######################################################################

data_CSD_CIF_PAQVOU
_audit_creation_date 2012-02-24
_audit_creation_method CSD-ConQuest-V1
_database_code_CSD PAQVOU
_database_code_depnum_ccdc_archive 'CCDC 863577'
_chemical_formula_sum 'C57 H45 Fe1 Li1 N7 Ni1 O11'
_chemical_formula_moiety
;
(Li1 1+)n,n(C48 H24 Fe1 N4 Ni1 O8 1-),3n(C3 H7 N1 O1)
;
_journal_coden_Cambridge 1096
_journal_volume 23
_journal_year 2011
_journal_page_first 4641
_journal_name_full 'Chem.Mater. '
loop_
_publ_author_name
"A.Fateeva"
"S.Devautour-Vinot"
"N.Heymans"
"T.Devic"
"J.-M.Greneche"
"S.Wuttke"
"S.Miller"
"A.Lago"
"C.Serre"
"G.De Weireld"
"G.Maurin"
"A.Vimont"
"G.Ferey"
_chemical_name_systematic
;
catena-(lithium 
(\m~5~-5,10,15,20-tetrakis(4-carboxyphenyl)porphyrinato)-iron(iii)-nickel(ii) 
N,N-dimethylformamide solvate)
;
_chemical_name_common
;
MIL-141(Li)
;
_cell_volume   5450.449
_exptl_crystal_colour 'red'
_exptl_crystal_description 'prism'
_diffrn_ambient_temperature 293
_refine_special_details
;
Disordered solvent molecules were not modelled and the disordered density was 
taken into account using the SQUEEZE/PLATON procedure.
;
#These two values have been output from a single CSD field.
_refine_ls_R_factor_gt 0.0705
_refine_ls_wR_factor_gt 0.0705
_symmetry_cell_setting monoclinic
_symmetry_space_group_name_H-M 'C 2/c'
_symmetry_Int_Tables_number 15
loop_
_symmetry_equiv_pos_site_id
_symmetry_equiv_pos_as_xyz
1 x,y,z
2 -x,y,1/2-z
3 1/2+x,1/2+y,z
4 1/2-x,1/2+y,1/2-z
5 -x,-y,-z
6 x,-y,-1/2+z
7 -1/2-x,-1/2-y,-z
8 -1/2+x,-1/2-y,-1/2+z
_cell_length_a 7.4852(11)
_cell_length_b 24.226(4)
_cell_length_c 30.107(4)
_cell_angle_alpha 90
_cell_angle_beta 93.299(4)
_cell_angle_gamma 90
_cell_formula_units_Z 4
loop_
_atom_type_symbol
_atom_type_radius_bond
C 0.68
H 0.23
Fe 1.52
Li 1.28
N 0.68
Ni 1.24
O 0.68
loop_
_atom_site_label
_atom_site_type_symbol
_atom_site_fract_x
_atom_site_fract_y
_atom_site_fract_z
Li1 Li 0.50000 0.2283(6) 0.25000
Fe1 Fe -1.00000 -0.15213(4) 0.75000
Ni1 Ni 0.00000 0.00000 0.50000
N1 N -0.2025(5) -0.05010(14) 0.50230(12)
N2 N 0.0572(4) -0.03014(14) 0.44277(11)
C1 C -0.3199(6) -0.0557(2) 0.53586(16)
C2 C -0.4470(8) -0.0992(3) 0.5246(2)
H1 H -0.53840 -0.11110 0.54200
C3 C -0.4111(8) -0.1187(3) 0.4862(2)
H2 H -0.47420 -0.14660 0.47100
C4 C -0.2572(7) -0.0901(2) 0.47062(15)
C5 C -0.1797(6) -0.10087(18) 0.43106(14)
C6 C -0.0307(6) -0.07245(17) 0.41855(14)
C7 C 0.0479(7) -0.0814(2) 0.37766(16)
H3 H 0.01340 -0.10760 0.35620
C8 C 0.1833(6) -0.0447(2) 0.37573(15)
H4 H 0.25860 -0.04060 0.35240
C9 C 0.1898(6) -0.01369(18) 0.41539(14)
C10 C -0.3131(6) -0.02746(19) 0.57478(14)
C11 C -0.2608(7) -0.1432(2) 0.40085(16)
C12 C -0.1805(9) -0.1921(2) 0.3930(2)
H5 H -0.07160 -0.20060 0.40780
C13 C -0.2606(11) -0.2299(2) 0.3625(2)
H6 H -0.20580 -0.26360 0.35760
C14 C -0.4205(8) -0.2169(3) 0.3397(2)
C15 C -0.5004(9) -0.1710(3) 0.3498(3)
H7 H -0.61420 -0.16400 0.33700
C16 C -0.4213(8) -0.1323(3) 0.3789(2)
H8 H -0.47820 -0.09870 0.38330
C17 C -0.5063(11) -0.2571(3) 0.3068(2)
O1 O -0.4185(6) -0.29903(16) 0.29698(13)
O2 O -0.6542(7) -0.2453(3) 0.2886(2)
C18 C -0.4424(6) -0.04277(18) 0.60928(14)
C19 C -0.6227(6) -0.02963(19) 0.60327(16)
H9 H -0.66340 -0.01000 0.57810
C20 C -0.7426(6) -0.0454(2) 0.63431(16)
H10 H -0.86320 -0.03640 0.63010
C21 C -0.6807(6) -0.07498(18) 0.67199(14)
C22 C -0.4990(6) -0.0873(2) 0.67735(15)
H11 H -0.45640 -0.10710 0.70220
C23 C -0.3818(6) -0.0709(2) 0.64663(15)
H12 H -0.26060 -0.07890 0.65110
C24 C -0.8069(6) -0.09748(18) 0.70341(14)
O3 O -0.9717(4) -0.08809(14) 0.69895(11)
O4 O -0.7521(4) -0.12888(13) 0.73477(10)
Fe1F Fe -0.50000 -0.34787(4) 0.25000
Fe1B Fe 0.50000 0.34787(4) 0.75000
Fe1D Fe 1.00000 0.15213(4) 0.25000
N1D N 0.2025(5) 0.05010(14) 0.49770(12)
N2D N -0.0572(4) 0.03014(14) 0.55723(11)
C1D C 0.3199(6) 0.0557(2) 0.46414(16)
C2D C 0.4470(8) 0.0992(3) 0.4754(2)
H1D H 0.53840 0.11110 0.45800
C3D C 0.4111(8) 0.1187(3) 0.5138(2)
H2D H 0.47420 0.14660 0.52900
C4D C 0.2572(7) 0.0901(2) 0.52938(15)
C5D C 0.1797(6) 0.10087(18) 0.56894(14)
C6D C 0.0307(6) 0.07245(17) 0.58145(14)
C7D C -0.0479(7) 0.0814(2) 0.62234(16)
H3D H -0.01340 0.10760 0.64380
C8D C -0.1833(6) 0.0447(2) 0.62427(15)
H4D H -0.25860 0.04060 0.64760
C9D C -0.1898(6) 0.01369(18) 0.58461(14)
C10D C 0.3131(6) 0.02746(19) 0.42522(14)
C11D C 0.2608(7) 0.1432(2) 0.59915(16)
C12D C 0.1805(9) 0.1921(2) 0.6070(2)
H5D H 0.07160 0.20060 0.59220
C13D C 0.2606(11) 0.2299(2) 0.6375(2)
H6D H 0.20580 0.26360 0.64240
C14D C 0.4205(8) 0.2169(3) 0.6603(2)
C15D C 0.5004(9) 0.1710(3) 0.6502(3)
H7D H 0.61420 0.16400 0.66300
C16D C 0.4213(8) 0.1323(3) 0.6211(2)
H8D H 0.47820 0.09870 0.61670
C17D C 0.5063(11) 0.2571(3) 0.6932(2)
O1D O 0.4185(6) 0.29903(16) 0.70302(13)
O1F O -1.0815(6) -0.20097(16) 0.70302(13)
O1G O -0.9185(6) -0.20097(16) 0.79698(13)
O2D O 0.6542(7) 0.2453(3) 0.7114(2)
C18D C 0.4424(6) 0.04277(18) 0.39072(14)
C19D C 0.6227(6) 0.02963(19) 0.39673(16)
H9D H 0.66340 0.01000 0.42190
C20D C 0.7426(6) 0.0454(2) 0.36569(16)
H10D H 0.86320 0.03640 0.36990
C21D C 0.6807(6) 0.07498(18) 0.32801(14)
C22D C 0.4990(6) 0.0873(2) 0.32265(15)
H11D H 0.45640 0.10710 0.29780
C23D C 0.3818(6) 0.0709(2) 0.35337(15)
H12D H 0.26060 0.07890 0.34890
C24D C 0.8069(6) 0.09748(18) 0.29659(14)
O3D O 0.9717(4) 0.08809(14) 0.30105(11)
O3A O -1.0283(4) -0.08809(14) 0.80105(11)
O4D O 0.7521(4) 0.12888(13) 0.26523(10)
O4A O -1.2479(4) -0.12888(13) 0.76523(10)
#END
