
#######################################################################
#
#                 Cambridge Crystallographic Data Centre
#                                CCDC
#
#######################################################################
#
# If this CIF has been generated from an entry in the Cambridge
# Structural Database, then it will include bibliographic, chemical,
# crystal, experimental, refinement or atomic coordinate data resulting
# from the CCDC's data processing and validation procedures.
#
#######################################################################

data_CSD_CIF_PARKUQ01
_audit_creation_date 2015-08-10
_audit_creation_method CSD-ConQuest-V1
_database_code_CSD PARKUQ01
_database_code_depnum_ccdc_archive 'CCDC 1060332'
_chemical_formula_sum 'C15 H20 Cd1 N2 O7'
_chemical_formula_moiety
;
(C2 H8 N1 1+)n,n(C9 H3 Cd1 O6 1-),n(C4 H9 N1 O1)
;
_journal_coden_Cambridge 182
_journal_volume 51
_journal_year 2015
_journal_page_first 14211
_journal_name_full 'Chem.Commun. '
loop_
_publ_author_name
"Yun-Wu Li"
"Jian Xu"
"Da-Cheng Li"
"Jian-Min Dou"
"Hui Yan"
"Tong-Liang Hu"
"Xian-He Bu"
_chemical_name_systematic
;
catena-[Dimethylammonium (\m~5~-benzene-1,3,5-tricarboxylato)-cadmium 
N,N-dimethylacetamide solvate]
;
_cell_volume   1811.922
_exptl_crystal_density_diffrn 1.66
_diffrn_ambient_temperature 293
#These two values have been output from a single CSD field.
_refine_ls_R_factor_gt 0.0299
_refine_ls_wR_factor_gt 0.0299
_symmetry_cell_setting monoclinic
_symmetry_space_group_name_H-M 'P 21/n'
_symmetry_Int_Tables_number 14
loop_
_symmetry_equiv_pos_site_id
_symmetry_equiv_pos_as_xyz
1 x,y,z
2 1/2-x,1/2+y,1/2-z
3 -x,-y,-z
4 -1/2+x,-1/2-y,-1/2+z
_cell_length_a 10.099(2)
_cell_length_b 14.363(3)
_cell_length_c 12.975(3)
_cell_angle_alpha 90
_cell_angle_beta 105.69(3)
_cell_angle_gamma 90
_cell_formula_units_Z 4
loop_
_atom_type_symbol
_atom_type_radius_bond
C 0.68
H 0.23
Cd 1.44
N 0.68
O 0.68
loop_
_atom_site_label
_atom_site_type_symbol
_atom_site_fract_x
_atom_site_fract_y
_atom_site_fract_z
C1 C 0.5847(5) 0.0826(4) 0.6900(5)
H1 H 0.62720 0.09370 0.63330
H2 H 0.58510 0.01700 0.70440
H3 H 0.63480 0.11490 0.75330
N1 N 0.4411(4) 0.1168(3) 0.6574(3)
H4 H 0.39630 0.08900 0.59570
H5 H 0.39890 0.10040 0.70760
C2 C 0.4314(5) 0.2186(3) 0.6427(4)
H6 H 0.46910 0.24870 0.71030
H7 H 0.33660 0.23610 0.61500
H8 H 0.48200 0.23720 0.59330
O1 O 0.3037(3) 0.09868(19) 0.4316(2)
O2 O 0.4527(3) 0.44141(19) 0.1676(2)
O3 O 0.6004(3) 0.36318(19) 0.0969(2)
C3 C 0.5299(4) 0.3744(3) 0.1626(3)
O4 O 0.7812(3) 0.04277(19) 0.4428(2)
Cd1 Cd 1.09120(2) 0.066277(15) 0.439469(18)
O5 O 0.8952(2) 0.13801(18) 0.3620(2)
C4 C 0.6552(4) 0.2428(2) 0.2771(3)
C5 C 0.5444(4) 0.1480(2) 0.3802(3)
C6 C 0.6612(3) 0.1692(2) 0.3472(3)
C7 C 0.4226(4) 0.2751(3) 0.2778(3)
C8 C 0.5372(3) 0.2966(2) 0.2426(3)
C9 C 0.4252(3) 0.1993(3) 0.3449(3)
C10 C 0.7898(4) 0.1118(2) 0.3870(3)
C11 C 0.2962(4) 0.1697(3) 0.3741(3)
O6 O 0.1890(3) 0.2131(3) 0.3409(3)
H9 H 0.344(4) 0.310(2) 0.255(3)
H10 H 0.543(4) 0.093(3) 0.427(3)
H11 H 0.730(3) 0.254(2) 0.253(3)
O7 O 0.8678(6) 0.4536(3) 0.3318(4)
N2 N 0.7702(8) 0.4491(5) 0.4640(5)
C12 C 0.8620(9) 0.4210(5) 0.4234(8)
C13 C 0.9670(8) 0.3502(5) 0.4823(6)
H12 H 1.02100 0.37680 0.54820
H13 H 1.02620 0.33330 0.43860
H14 H 0.92040 0.29580 0.49750
C14 C 0.6722(8) 0.5215(6) 0.4057(6)
H15 H 0.69780 0.54040 0.34280
H16 H 0.67480 0.57440 0.45140
H17 H 0.58080 0.49620 0.38530
C15 C 0.7510(12) 0.4100(8) 0.5639(7)
H18 H 0.83690 0.38550 0.60650
H19 H 0.68400 0.36100 0.54720
H20 H 0.71970 0.45800 0.60320
O1* O 1.3037(3) 0.09868(19) 0.4316(2)
O2A O 1.0473(3) -0.05859(19) 0.3324(2)
O3C O 1.1004(3) 0.13682(19) 0.5969(2)
O4B O 1.2188(3) -0.04277(19) 0.5572(2)
Cd1* Cd 0.09120(2) 0.066277(15) 0.439469(18)
Cd1A Cd 0.40880(2) 0.566277(15) 0.060531(18)
Cd1B Cd 0.90880(2) -0.066277(15) 0.560531(18)
Cd1C Cd 0.59120(2) 0.433723(15) -0.060531(18)
O6* O 1.1890(3) 0.2131(3) 0.3409(3)
#END
