
#######################################################################
#
#                 Cambridge Crystallographic Data Centre
#                                CCDC
#
#######################################################################
#
# If this CIF has been generated from an entry in the Cambridge
# Structural Database, then it will include bibliographic, chemical,
# crystal, experimental, refinement or atomic coordinate data resulting
# from the CCDC's data processing and validation procedures.
#
#######################################################################

data_CSD_CIF_PARKUQ
_audit_creation_date 2012-09-04
_audit_creation_method CSD-ConQuest-V1
_database_code_CSD PARKUQ
_database_code_depnum_ccdc_archive 'CCDC 761989'
_chemical_formula_sum 'C15 H20 Cd1 N2 O7'
_chemical_formula_moiety
;
(C9 H3 Cd1 O6 1-)n,n(C2 H8 N1 1+),n(C4 H9 N1 O1)
;
_journal_coden_Cambridge 1487
_journal_volume 53
_journal_year 2010
_journal_page_first 2144
_journal_name_full 'Sci.China.Chem. '
loop_
_publ_author_name
"LinHua Xie"
"JianBin Lin"
"XiaoMin Liu"
"Wei Xue"
"WeiXiong Zhang"
"ShuXia Liu"
"JiePeng Zhang"
"XiaoMing Chen"
_chemical_name_systematic
;
catena-(dimethylammonium (\m~5~-benzene-1,3,5-tricarboxylato)-cadmium 
N,N-dimethylacetamide solvate)
;
_cell_volume   1807.198
_exptl_crystal_colour 'colorless'
_exptl_crystal_density_diffrn 1.664
_exptl_crystal_description 'block'
_diffrn_ambient_temperature 295
#These two values have been output from a single CSD field.
_refine_ls_R_factor_gt 0.028
_refine_ls_wR_factor_gt 0.028
_symmetry_cell_setting monoclinic
_symmetry_space_group_name_H-M 'P 21/n'
_symmetry_Int_Tables_number 14
loop_
_symmetry_equiv_pos_site_id
_symmetry_equiv_pos_as_xyz
1 x,y,z
2 1/2-x,1/2+y,1/2-z
3 -x,-y,-z
4 -1/2+x,-1/2-y,-1/2+z
_cell_length_a 10.0957(13)
_cell_length_b 14.3518(19)
_cell_length_c 12.9606(17)
_cell_angle_alpha 90
_cell_angle_beta 105.770(2)
_cell_angle_gamma 90
_cell_formula_units_Z 4
loop_
_atom_type_symbol
_atom_type_radius_bond
C 0.68
H 0.23
Cd 1.44
N 0.68
O 0.68
loop_
_atom_site_label
_atom_site_type_symbol
_atom_site_fract_x
_atom_site_fract_y
_atom_site_fract_z
Cd1 Cd 0.091234(18) 0.066234(13) 0.939534(16)
O1 O 0.3039(2) 0.09852(17) 0.93140(19)
O2 O 0.1895(3) 0.2132(3) 0.8415(3)
O3 O 0.4530(3) 0.44168(16) 0.6675(2)
O4 O 0.6006(2) 0.36335(16) 0.59716(19)
O5 O 0.8957(2) 0.13817(16) 0.86203(19)
O6 O 0.7811(3) 0.04311(17) 0.9430(2)
C1 C 0.2957(3) 0.1700(3) 0.8740(3)
C2 C 0.5301(3) 0.3742(2) 0.6627(3)
C3 C 0.7893(3) 0.1121(2) 0.8871(2)
C4 C 0.4246(3) 0.1995(2) 0.8447(2)
C5 C 0.4228(3) 0.2752(2) 0.7778(3)
H1 H 0.34420 0.31190 0.75650
C6 C 0.5374(3) 0.2968(2) 0.7423(2)
C7 C 0.6554(3) 0.2431(2) 0.7770(2)
H2 H 0.73190 0.25680 0.75270
C8 C 0.6610(3) 0.16946(19) 0.8471(2)
C9 C 0.5442(3) 0.14799(19) 0.8801(2)
H3 H 0.54670 0.09830 0.92660
N1 N 0.7715(7) 0.4484(5) 0.9651(5)
O7 O 0.8692(5) 0.4533(3) 0.8326(4)
C10 C 0.7491(11) 0.4105(7) 1.0636(6)
H4 H 0.83550 0.39100 1.11060
H5 H 0.68810 0.35800 1.04660
H6 H 0.70910 0.45760 1.09830
C11 C 0.6732(7) 0.5216(6) 0.9059(6)
H7 H 0.70150 0.54230 0.84480
H8 H 0.67310 0.57350 0.95270
H9 H 0.58220 0.49580 0.88260
C12 C 0.8620(8) 0.4219(4) 0.9230(7)
C13 C 0.9669(8) 0.3502(4) 0.9835(6)
H10 H 1.02470 0.37810 1.04730
H11 H 1.02250 0.32950 0.93850
H12 H 0.91930 0.29790 1.00280
N2 N 0.9412(3) 0.3834(3) 0.6578(3)
H13 H 0.89920 0.40420 0.70630
H14 H 0.89530 0.40680 0.59360
C14 C 0.9318(4) 0.2817(3) 0.6422(3)
H15 H 0.98590 0.26330 0.59510
H16 H 0.83750 0.26430 0.61120
H17 H 0.96600 0.25110 0.71010
C15 C 1.0844(5) 0.4175(4) 0.6898(5)
H18 H 1.13340 0.38820 0.75570
H19 H 1.08470 0.48380 0.69960
H20 H 1.12840 0.40260 0.63480
Cd1A Cd 0.408766(18) 0.566234(13) 0.560466(16)
Cd1C Cd 0.591234(18) 0.433766(13) 0.439534(16)
Cd1* Cd 1.091234(18) 0.066234(13) 0.939534(16)
Cd1B Cd 0.908766(18) -0.066234(13) 1.060466(16)
O3A O 0.0470(3) -0.05832(16) 0.8325(2)
O4C O 0.1006(2) 0.13665(16) 1.09716(19)
O5* O -0.1043(2) 0.13817(16) 0.86203(19)
O6B O 0.2189(3) -0.04311(17) 1.0570(2)
#END
