
#######################################################################
#
#                 Cambridge Crystallographic Data Centre
#                                CCDC
#
#######################################################################
#
# If this CIF has been generated from an entry in the Cambridge
# Structural Database, then it will include bibliographic, chemical,
# crystal, experimental, refinement or atomic coordinate data resulting
# from the CCDC's data processing and validation procedures.
#
#######################################################################

data_CSD_CIF_PASDOE
_audit_creation_date 2012-09-04
_audit_creation_method CSD-ConQuest-V1
_database_code_CSD PASDOE
_database_code_depnum_ccdc_archive 'CCDC 869668'
_chemical_formula_sum 'C13 H18 N1 O7 P1 Zn1'
_chemical_formula_moiety
;
(C2 H8 N1 1+)n,n(C11 H10 O7 P1 Zn1 1-)
;
_journal_coden_Cambridge 1350
_journal_volume 14
_journal_year 2012
_journal_page_first 4148
_journal_name_full 'CrystEngComm '
loop_
_publ_author_name
"T.Yamada"
"H.Kitagawa"
_chemical_name_systematic
;
catena-(dimethylammonium (\m~4~-isopropyl 
3,5-dicarboxyphenylphosphonate)-zinc)
;
_cell_volume   1721.207
_exptl_crystal_colour 'colorless'
_exptl_crystal_density_diffrn 1.531
_exptl_crystal_description 'block'
_diffrn_ambient_temperature 100
#These two values have been output from a single CSD field.
_refine_ls_R_factor_gt 0.0379
_refine_ls_wR_factor_gt 0.0379
_symmetry_cell_setting monoclinic
_symmetry_space_group_name_H-M 'P 21/n'
_symmetry_Int_Tables_number 14
loop_
_symmetry_equiv_pos_site_id
_symmetry_equiv_pos_as_xyz
1 x,y,z
2 1/2-x,1/2+y,1/2-z
3 -x,-y,-z
4 -1/2+x,-1/2-y,-1/2+z
_cell_length_a 9.7414(11)
_cell_length_b 16.0486(18)
_cell_length_c 11.0596(12)
_cell_angle_alpha 90
_cell_angle_beta 95.446(1)
_cell_angle_gamma 90
_cell_formula_units_Z 4
loop_
_atom_type_symbol
_atom_type_radius_bond
C 0.68
H 0.23
N 0.68
O 0.68
P 1.05
Zn 1.22
loop_
_atom_site_label
_atom_site_type_symbol
_atom_site_fract_x
_atom_site_fract_y
_atom_site_fract_z
Zn1 Zn 0.65794(4) 0.41742(2) -0.08300(3)
C1 C 0.6684(4) 0.2045(2) 0.1288(3)
C2 C 0.5329(4) 0.1954(2) 0.1557(3)
H1 H 0.46440 0.23260 0.12050
C3 C 0.4958(3) 0.1329(2) 0.2331(3)
C4 C 0.5964(3) 0.0775(2) 0.2822(3)
H2 H 0.57160 0.03400 0.33420
C5 C 0.7334(3) 0.0853(2) 0.2558(3)
C6 C 0.7686(4) 0.1494(2) 0.1802(3)
H3 H 0.86180 0.15590 0.16340
C7 C 0.7086(4) 0.2757(2) 0.0508(3)
O1 O 0.8310(3) 0.29599(16) 0.0497(2)
O2 O 0.6081(2) 0.31211(14) -0.0108(2)
C8 C 0.3515(3) 0.1279(2) 0.2697(3)
O3 O 0.3257(2) 0.06594(14) 0.3364(2)
O4 O 0.2674(2) 0.18351(16) 0.2370(2)
P1 P 0.86118(9) 0.01479(6) 0.32493(7)
O5 O 0.9995(2) 0.05024(15) 0.30541(19)
O6 O 0.8270(2) -0.00003(15) 0.4519(2)
O7 O 0.8400(3) -0.07086(15) 0.2542(2)
C9 C 0.8795(4) -0.0783(3) 0.1297(3)
H4 H 0.002(5) 0.295(3) 0.143(4)
H5 H 0.129(5) 0.263(3) 0.192(4)
C10 C 0.7729(7) -0.1340(5) 0.0659(5)
H6 H 0.76650 -0.18560 0.11240
H7 H 0.79890 -0.14720 -0.01540
H8 H 0.68330 -0.10570 0.05890
C11 C 1.0220(6) -0.1149(4) 0.1342(5)
H9 H 1.08720 -0.07830 0.18160
H10 H 1.04910 -0.12030 0.05150
H11 H 1.02250 -0.17000 0.17250
N1 N 0.0820(4) 0.3080(2) 0.1773(3)
C12 C 0.1559(5) 0.3591(3) 0.0922(4)
H12 H 0.24950 0.37090 0.12870
H13 H 0.10630 0.41160 0.07560
H14 H 0.16060 0.32850 0.01600
C13 C 0.0648(6) 0.3507(3) 0.2925(4)
H15 H 0.00630 0.40000 0.27660
H16 H 0.15520 0.36790 0.33070
H17 H 0.02130 0.31280 0.34690
H18 H 0.875(5) -0.025(3) 0.087(4)
Zn1A Zn 0.84206(4) -0.08258(2) 0.58300(3)
Zn1C Zn 0.15794(4) 0.08258(2) 0.41700(3)
Zn1C* Zn 1.15794(4) 0.08258(2) 0.41700(3)
O3C O 0.8257(2) 0.43406(14) -0.1636(2)
O5C O 0.4995(2) 0.44976(15) -0.19459(19)
O6A O 0.6730(2) 0.49997(15) 0.0481(2)
#END
