
#######################################################################
#
#                 Cambridge Crystallographic Data Centre
#                                CCDC
#
#######################################################################
#
# If this CIF has been generated from an entry in the Cambridge
# Structural Database, then it will include bibliographic, chemical,
# crystal, experimental, refinement or atomic coordinate data resulting
# from the CCDC's data processing and validation procedures.
#
#######################################################################

data_CSD_CIF_PASNAB
_audit_creation_date 2017-06-20
_audit_creation_method CSD-ConQuest-V1
_database_code_CSD PASNAB
_database_code_depnum_ccdc_archive 'CCDC 1545102'
_chemical_formula_sum 'C23 H29 Bi1 N4 O10'
_chemical_formula_moiety
;
(C15 H7 Bi1 N1 O8 1-)n,n(C2 H8 N1 1+),2n(C3 H7 N1 O1)
;
_journal_coden_Cambridge 1295
_journal_volume 85
_journal_year 2017
_journal_page_first 70
_journal_name_full 'Inorg.Chem.Commun. '
loop_
_publ_author_name
"Liang Kan"
"Jiantang Li"
"Xiaolong Luo"
"Guanghua Li"
"Yunling Liu"
_chemical_name_systematic
;
catena-(dimethylammonium 
(\m-pyridine-3,5-dicarboxylato)-(\m-terephthalato)-bismuth dimethylformamide 
solvate)
;
_cell_volume   2379.039
_exptl_crystal_colour 'colorless'
_exptl_crystal_density_diffrn 1.53
_exptl_crystal_description 'block'
_diffrn_ambient_temperature 296
_diffrn_special_details
;
twin

;
#These two values have been output from a single CSD field.
_refine_ls_R_factor_gt 0.0598
_refine_ls_wR_factor_gt 0.0598
_symmetry_cell_setting hexagonal
_symmetry_space_group_name_H-M 'P -6 2 m'
_symmetry_Int_Tables_number 189
loop_
_symmetry_equiv_pos_site_id
_symmetry_equiv_pos_as_xyz
1 x,y,z
2 -x+y,-x,-z
3 -y,x-y,z
4 x,y,-z
5 -x+y,-x,z
6 -y,x-y,-z
7 y,x,z
8 x-y,-y,-z
9 -x,-x+y,z
10 y,x,-z
11 x-y,-y,z
12 -x,-x+y,-z
_cell_length_a 15.4088(5)
_cell_length_b 15.4088(5)
_cell_length_c 11.5700(4)
_cell_angle_alpha 90
_cell_angle_beta 90
_cell_angle_gamma 120
_cell_formula_units_Z 3
loop_
_atom_type_symbol
_atom_type_radius_bond
C 0.68
H 0.23
Bi 1.48
N 0.68
O 0.68
loop_
_atom_site_label
_atom_site_type_symbol
_atom_site_fract_x
_atom_site_fract_y
_atom_site_fract_z
Bi1 Bi 0.35895(8) 0.00000 1.00000
O1 O 0.2945(19) 0.110(2) 1.00000
C1 C 0.284(3) 0.284(3) 1.00000
H1 H 0.22360 0.22360 1.00000
C2 C 0.386(3) 0.198(3) 1.00000
C3 C 0.374(3) 0.287(4) 1.00000
C4 C 0.466(4) 0.377(3) 1.00000
H2 H 0.52490 0.37460 1.00000
O2 O 0.461(2) 0.191(2) 1.00000
N1 N 0.470(4) 0.470(4) 1.00000
C5 C 0.3799(12) 0.00000 0.6197(17)
C6 C 0.3789(11) 0.00000 0.7531(17)
O3 O 0.3049(9) 0.00000 0.7999(13)
O4 O 0.4532(11) 0.00000 0.7992(15)
C7 C 0.3000(13) 0.00000 0.5614(11)
H3 H 0.24800 0.00000 0.60240
C8 C 0.4574(15) 0.00000 0.5603(11)
H4 H 0.50970 0.00000 0.60050
O1F O 0.1100(19) 0.2945(20) 1.00000
C2F C 0.198(3) 0.386(3) 1.00000
C3F C 0.287(3) 0.374(4) 1.00000
C4F C 0.377(4) 0.466(3) 1.00000
H2F H 0.37460 0.52490 1.00000
O2F O 0.191(2) 0.461(2) 1.00000
C5C C 0.3799(12) 0.00000 0.3803(17)
C6C C 0.3789(11) 0.00000 0.2469(17)
O3C O 0.3049(9) 0.00000 0.2001(13)
O4C O 0.4532(11) 0.00000 0.2008(15)
C7C C 0.3000(13) 0.00000 0.4386(11)
H3C H 0.24800 0.00000 0.39760
C8C C 0.4574(15) 0.00000 0.4397(11)
H4C H 0.50970 0.00000 0.39950
Bi1* Bi 0.35895(8) 0.00000 0.00000
Bi1A Bi 0.64105(8) 0.64105 1.00000
Bi1B Bi 0.00000(8) 0.35895 1.00000
O1G O 0.1845(19) -0.110(2) 1.00000
O2G O 0.270(2) -0.191(2) 1.00000
N1B N 0.530(4) 0.000(4) 1.00000
O3C* O 0.3049(9) 0.00000 1.2001(13)
O4C* O 0.4532(11) 0.00000 1.2008(15)
#END
