
#######################################################################
#
#                 Cambridge Crystallographic Data Centre
#                                CCDC
#
#######################################################################
#
# If this CIF has been generated from an entry in the Cambridge
# Structural Database, then it will include bibliographic, chemical,
# crystal, experimental, refinement or atomic coordinate data resulting
# from the CCDC's data processing and validation procedures.
#
#######################################################################

data_CSD_CIF_PASQAD
_audit_creation_date 2012-09-04
_audit_creation_method CSD-ConQuest-V1
_database_code_CSD PASQAD
_database_code_depnum_ccdc_archive 'CCDC 834725'
_chemical_formula_sum 'C84 H58 Mn5 N1 O39 S6'
_chemical_formula_moiety
;
(C84 H48 Mn5 O36 S6 1-)n,3n(H2 O1),n(H4 N1 1+)
;
_journal_coden_Cambridge 1350
_journal_volume 14
_journal_year 2012
_journal_page_first 4323
_journal_name_full 'CrystEngComm '
loop_
_publ_author_name
"S.Bhattacharya"
"K.V.Ramanujachary"
"S.E.Lofland"
"T.Magdaleno"
"S.Natarajan"
_chemical_name_systematic
;
catena-(Ammonium 
(\m~5~-4,4'-sulfonyldibenzoato)-bis(\m~3~-4,4'-sulfonyldibenzoato)-penta-manga
nese trihydrate)
;
_cell_volume   2149.707
_exptl_crystal_colour 'colorless'
_exptl_crystal_density_diffrn 1.675
_exptl_crystal_description 'block'
_diffrn_ambient_temperature 293
#These two values have been output from a single CSD field.
_refine_ls_R_factor_gt 0.0425
_refine_ls_wR_factor_gt 0.0425
_symmetry_cell_setting triclinic
_symmetry_space_group_name_H-M 'P -1'
_symmetry_Int_Tables_number 2
loop_
_symmetry_equiv_pos_site_id
_symmetry_equiv_pos_as_xyz
1 x,y,z
2 -x,-y,-z
_cell_length_a 12.7609(6)
_cell_length_b 12.7682(6)
_cell_length_c 16.0315(7)
_cell_angle_alpha 87.646(4)
_cell_angle_beta 72.508(4)
_cell_angle_gamma 60.477(5)
_cell_formula_units_Z 1
loop_
_atom_type_symbol
_atom_type_radius_bond
C 0.68
H 0.23
Mn 1.26
N 0.68
O 0.68
S 1.02
loop_
_atom_site_label
_atom_site_type_symbol
_atom_site_fract_x
_atom_site_fract_y
_atom_site_fract_z
Mn1 Mn 0.50000 0.50000 0.50000
Mn2 Mn 0.54319(4) 0.25865(4) 0.41249(3)
Mn3 Mn -0.35282(4) 0.23515(4) 1.21056(3)
S1 S 0.07756(8) 1.01329(7) 0.29621(7)
S2 S 1.11891(7) 0.49597(7) 0.31185(5)
S3 S 0.28124(8) 0.20477(8) 0.97368(5)
O1 O 0.4551(2) 0.3979(2) 0.59213(15)
O2 O 0.66855(19) 0.33565(18) 0.41330(14)
O3 O 0.42344(19) 0.45647(17) 0.40585(14)
O4 O 0.7013(2) 1.0898(2) 0.36850(18)
O5 O 0.4459(2) 1.2185(2) 0.34992(16)
O6 O 0.4707(3) 0.2325(2) 0.53971(15)
O7 O -0.2945(2) 0.2545(2) 1.08018(14)
O8 O 0.7669(2) 1.0544(2) 0.22227(18)
O9 O 0.7446(2) 0.2915(2) 0.26709(14)
O10 O 0.5085(2) 1.1931(2) 0.20341(16)
O11 O 0.4892(2) 0.41874(19) 0.25953(15)
O12 O -0.3330(3) 0.4214(3) 1.0190(2)
O13 O 0.0561(2) 1.0189(2) 0.21300(18)
O14 O -0.0280(2) 1.0691(2) 0.37623(18)
O15 O 1.1503(2) 0.48014(19) 0.39187(15)
O16 O 1.2192(2) 0.44357(19) 0.22877(15)
O17 O 0.2735(2) 0.2941(2) 1.03058(14)
O18 O 0.3587(2) 0.0789(2) 0.98022(16)
O19 O 1.3922(4) -0.1522(3) 0.0208(2)
N1 N 0.4311(3) 0.3846(3) 0.0765(2)
C1 C 0.4404(3) 1.1910(3) 0.2778(2)
C2 C 0.3453(3) 1.1525(3) 0.2821(2)
C3 C 0.3451(3) 1.1061(3) 0.2058(2)
H1 H 0.40110 1.10230 0.15150
C4 C 0.2618(3) 1.0653(3) 0.2102(2)
H2 H 0.26190 1.03320 0.15920
C5 C 0.1791(3) 1.0725(3) 0.2902(2)
C6 C 0.1753(3) 1.1214(3) 0.3670(2)
H3 H 0.11700 1.12770 0.42090
C7 C 0.2599(3) 1.1604(3) 0.3620(2)
H4 H 0.25940 1.19270 0.41320
C8 C 0.1751(3) 0.8587(3) 0.3069(2)
C9 C 0.2525(3) 0.7762(3) 0.2321(2)
H5 H 0.25140 0.80040 0.17670
C10 C 0.3323(3) 0.6563(3) 0.2404(2)
H6 H 0.38520 0.60000 0.19010
C11 C 0.3339(3) 0.6198(3) 0.3227(2)
C12 C 0.2560(3) 0.7054(3) 0.3963(2)
H7 H 0.25740 0.68220 0.45180
C13 C 0.1756(3) 0.8251(3) 0.3890(2)
H8 H 0.12290 0.88180 0.43910
C14 C 0.4218(3) 0.4892(3) 0.3292(2)
C15 C 0.7443(3) 0.3289(3) 0.3373(2)
C16 C 0.8393(3) 0.3684(3) 0.3318(2)
C17 C 0.8354(3) 0.4257(3) 0.4053(2)
H9 H 0.77380 0.43950 0.45930
C18 C 0.9228(3) 0.4622(3) 0.3986(2)
H10 H 0.92040 0.50010 0.44800
C19 C 1.0131(3) 0.4424(3) 0.3187(2)
C20 C 1.0193(3) 0.3851(3) 0.2443(2)
H11 H 1.08110 0.37120 0.19040
C21 C 0.9308(3) 0.3488(3) 0.2523(2)
H12 H 0.93340 0.31050 0.20300
C22 C 1.0241(3) 0.6524(3) 0.3082(2)
C23 C 0.9462(4) 0.7302(3) 0.3849(2)
H13 H 0.94810 0.70220 0.43920
C24 C 0.8650(4) 0.8505(3) 0.3807(2)
H14 H 0.81100 0.90350 0.43250
C25 C 0.8633(3) 0.8926(3) 0.3003(2)
C26 C 0.9454(3) 0.8141(3) 0.2240(2)
H15 H 0.94640 0.84230 0.16950
C27 C 1.0261(3) 0.6938(3) 0.2282(2)
H16 H 1.08190 0.64090 0.17660
C28 C 0.7708(3) 1.0230(3) 0.2964(3)
C29 C -0.2602(3) 0.3270(3) 1.0418(2)
C30 C -0.1247(3) 0.2942(3) 1.0247(2)
C31 C -0.0372(3) 0.1835(3) 1.0412(2)
H17 H -0.06280 0.12870 1.06410
C32 C 0.0874(3) 0.1531(3) 1.0242(2)
H18 H 0.14600 0.07770 1.03460
C33 C 0.1245(3) 0.2357(3) 0.9916(2)
C34 C 0.0378(3) 0.3476(3) 0.9753(2)
H19 H 0.06350 0.40270 0.95330
C35 C -0.0866(3) 0.3772(3) 0.9917(2)
H20 H -0.14500 0.45220 0.98080
C36 C 0.3314(3) 0.2316(3) 0.8638(2)
C37 C 0.3416(3) 0.3337(3) 0.8494(2)
H21 H 0.32500 0.38580 0.89650
C38 C 0.3769(3) 0.3574(3) 0.7638(2)
H22 H 0.38180 0.42740 0.75340
C39 C 0.4050(3) 0.2787(3) 0.6937(2)
C40 C 0.3944(3) 0.1763(3) 0.7100(2)
H23 H 0.41240 0.12330 0.66300
C41 C 0.3579(3) 0.1521(3) 0.7946(2)
H24 H 0.35100 0.08330 0.80520
C42 C 0.4463(3) 0.3043(3) 0.6021(2)
H25 H 0.383(4) 0.456(3) 0.047(3)
H26 H 0.516(3) 0.374(5) 0.075(4)
H27 H 0.381(4) 0.390(4) 0.1398(15)
H28 H 0.461(3) 0.306(2) 0.044(2)
Mn2A Mn 0.45681(4) 0.74135(4) 0.58751(3)
Mn2* Mn 0.54319(4) 1.25865(4) 0.41249(3)
Mn2A* Mn 0.45681(4) -0.25865(4) 0.58751(3)
Mn3A Mn 1.35282(4) 0.76485(4) -0.21056(3)
Mn3* Mn 0.64718(4) 1.23515(4) 0.21056(3)
Mn3** Mn 0.64718(4) 0.23515(4) 0.21056(3)
Mn3A* Mn 0.35282(4) -0.23515(4) 0.78944(3)
Mn3A** Mn 0.35282(4) 0.76485(4) 0.78944(3)
S1A S 0.92244(8) -0.01329(7) 0.70379(7)
S2A S -0.11891(7) 0.50403(7) 0.68815(5)
S3A S 0.71876(8) 0.79523(8) 0.02632(5)
O1A O 0.5449(2) 0.6021(2) 0.40787(15)
O2A O 0.33145(19) 0.66435(18) 0.58670(14)
O3A O 0.57656(19) 0.54353(17) 0.59415(14)
O4A O 0.2987(2) -0.0898(2) 0.63150(18)
O4* O 0.7013(2) 0.0898(2) 0.36850(18)
O4A* O 0.2987(2) 0.9102(2) 0.63150(18)
O5A O 0.5541(2) -0.2185(2) 0.65008(16)
O5* O 0.4459(2) 0.2185(2) 0.34992(16)
O5A* O 0.5541(2) 0.7815(2) 0.65008(16)
O6A O 0.5293(3) 0.7675(2) 0.46029(15)
O7A O 1.2945(2) 0.7455(2) -0.08018(14)
O8A O 0.2331(2) -0.0544(2) 0.77773(18)
O8* O -0.2331(2) 0.0544(2) 1.22227(18)
O8A* O 1.2331(2) 0.9456(2) -0.22227(18)
O9A O 0.2554(2) 0.7085(2) 0.73291(14)
O9* O -0.2554(2) 0.2915(2) 1.26709(14)
O9A* O 1.2554(2) 0.7085(2) -0.26709(14)
O10A O 0.4915(2) -0.1931(2) 0.79659(16)
O10* O -0.4915(2) 0.1931(2) 1.20341(16)
O10A* O 1.4915(2) 0.8069(2) -0.20341(16)
O11A O 0.5108(2) 0.58126(19) 0.74047(15)
O11* O -0.5108(2) 0.41874(19) 1.25953(15)
O11A* O 1.5108(2) 0.58126(19) -0.25953(15)
O12A O 1.3330(3) 0.5786(3) -0.0190(2)
O13A O 0.9439(2) -0.0189(2) 0.78700(18)
O14A O 1.0280(2) -0.0691(2) 0.62377(18)
O15A O -0.1503(2) 0.51986(19) 0.60813(15)
O16A O -0.2192(2) 0.55643(19) 0.77123(15)
O17A O 0.7265(2) 0.7059(2) -0.03058(14)
O18A O 0.6413(2) 0.9211(2) 0.01978(16)
C1A C 0.5596(3) -0.1910(3) 0.7222(2)
C2A C 0.6547(3) -0.1525(3) 0.7179(2)
C3A C 0.6549(3) -0.1061(3) 0.7942(2)
H1A H 0.59890 -0.10230 0.84850
C4A C 0.7382(3) -0.0653(3) 0.7898(2)
H2A H 0.73810 -0.03320 0.84080
C5A C 0.8209(3) -0.0725(3) 0.7098(2)
C6A C 0.8247(3) -0.1214(3) 0.6330(2)
H3A H 0.88300 -0.12770 0.57910
C7A C 0.7401(3) -0.1604(3) 0.6380(2)
H4A H 0.74060 -0.19270 0.58680
C8A C 0.8249(3) 0.1413(3) 0.6931(2)
C9A C 0.7475(3) 0.2238(3) 0.7679(2)
H5A H 0.74860 0.19960 0.82330
C10A C 0.6677(3) 0.3437(3) 0.7596(2)
H6A H 0.61480 0.40000 0.80990
C11A C 0.6661(3) 0.3802(3) 0.6773(2)
C12A C 0.7440(3) 0.2946(3) 0.6037(2)
H7A H 0.74260 0.31780 0.54820
C13A C 0.8244(3) 0.1749(3) 0.6110(2)
H8A H 0.87710 0.11820 0.56090
C14A C 0.5782(3) 0.5108(3) 0.6708(2)
C15A C 0.2557(3) 0.6711(3) 0.6627(2)
C16A C 0.1607(3) 0.6316(3) 0.6682(2)
C17A C 0.1646(3) 0.5743(3) 0.5947(2)
H9A H 0.22620 0.56050 0.54070
C18A C 0.0772(3) 0.5378(3) 0.6014(2)
H10A H 0.07960 0.49990 0.55200
C19A C -0.0131(3) 0.5576(3) 0.6813(2)
C20A C -0.0193(3) 0.6149(3) 0.7557(2)
H11A H -0.08110 0.62880 0.80960
C21A C 0.0692(3) 0.6512(3) 0.7477(2)
H12A H 0.06660 0.68950 0.79700
C22A C -0.0241(3) 0.3476(3) 0.6918(2)
C23A C 0.0538(4) 0.2698(3) 0.6151(2)
H13A H 0.05190 0.29780 0.56080
C24A C 0.1350(4) 0.1495(3) 0.6193(2)
H14A H 0.18900 0.09650 0.56750
C25A C 0.1367(3) 0.1074(3) 0.6997(2)
C26A C 0.0546(3) 0.1859(3) 0.7760(2)
H15A H 0.05360 0.15770 0.83050
C27A C -0.0261(3) 0.3062(3) 0.7718(2)
H16A H -0.08190 0.35910 0.82340
C28A C 0.2292(3) -0.0230(3) 0.7036(3)
C29A C 1.2602(3) 0.6730(3) -0.0418(2)
C30A C 1.1247(3) 0.7058(3) -0.0247(2)
C31A C 1.0372(3) 0.8165(3) -0.0412(2)
H17A H 1.06280 0.87130 -0.06410
C32A C 0.9126(3) 0.8469(3) -0.0242(2)
H18A H 0.85400 0.92230 -0.03460
C33A C 0.8755(3) 0.7643(3) 0.0084(2)
C34A C 0.9622(3) 0.6524(3) 0.0247(2)
H19A H 0.93650 0.59730 0.04670
C35A C 1.0866(3) 0.6228(3) 0.0083(2)
H20A H 1.14500 0.54780 0.01920
C36A C 0.6686(3) 0.7684(3) 0.1362(2)
C37A C 0.6584(3) 0.6663(3) 0.1506(2)
H21A H 0.67500 0.61420 0.10350
C38A C 0.6231(3) 0.6426(3) 0.2362(2)
H22A H 0.61820 0.57260 0.24660
C39A C 0.5950(3) 0.7213(3) 0.3063(2)
C40A C 0.6056(3) 0.8237(3) 0.2900(2)
H23A H 0.58760 0.87670 0.33700
C41A C 0.6421(3) 0.8479(3) 0.2054(2)
H24A H 0.64900 0.91670 0.19480
C42A C 0.5537(3) 0.6957(3) 0.3979(2)
#END
