
#######################################################################
#
#                 Cambridge Crystallographic Data Centre
#                                CCDC
#
#######################################################################
#
# If this CIF has been generated from an entry in the Cambridge
# Structural Database, then it will include bibliographic, chemical,
# crystal, experimental, refinement or atomic coordinate data resulting
# from the CCDC's data processing and validation procedures.
#
#######################################################################

data_CSD_CIF_PASZAN
_audit_creation_date 2017-06-20
_audit_creation_method CSD-ConQuest-V1
_database_code_CSD PASZAN
_database_code_depnum_ccdc_archive 'CCDC 1444238'
_chemical_formula_sum 'C32 H21 In3 O23'
_chemical_formula_moiety
;
(C32 H18 In3 O22 1-)n,H3 O1 1+
;
_journal_coden_Cambridge 580
_journal_volume 134
_journal_year 2017
_journal_page_first 207
_journal_name_full 'Polyhedron '
loop_
_publ_author_name
"Xu Zhang"
"Li-Xian Sun"
"Jian Song"
"Ning Du"
"Yong-Heng Xing"
"Feng-Ying Bai"
"Zhan Shi"
_chemical_name_systematic
;
catena-[oxonium 
bis(\m-4,4'-oxydibenzene-1,2-dicarboxylato)-bis(\m-hydroxo)-diaqua-tri-indium(
iii)]
;
_cell_volume    996.366
_exptl_crystal_colour 'colorless'
_exptl_crystal_density_diffrn 1.863
_exptl_crystal_description 'block'
_diffrn_ambient_temperature 293
#These two values have been output from a single CSD field.
_refine_ls_R_factor_gt 0.057
_refine_ls_wR_factor_gt 0.057
_symmetry_cell_setting triclinic
_symmetry_space_group_name_H-M 'P -1'
_symmetry_Int_Tables_number 2
loop_
_symmetry_equiv_pos_site_id
_symmetry_equiv_pos_as_xyz
1 x,y,z
2 -x,-y,-z
_cell_length_a 7.4519(9)
_cell_length_b 10.7242(13)
_cell_length_c 13.2460(17)
_cell_angle_alpha 103.801(2)
_cell_angle_beta 91.608(2)
_cell_angle_gamma 103.345(2)
_cell_formula_units_Z 1
loop_
_atom_type_symbol
_atom_type_radius_bond
C 0.68
H 0.23
In 1.42
O 0.68
loop_
_atom_site_label
_atom_site_type_symbol
_atom_site_fract_x
_atom_site_fract_y
_atom_site_fract_z
In1 In 0.50000 1.00000 0.00000
In2 In 0.25801(8) 1.19165(6) 0.20583(4)
C1 C 0.1580(11) 0.8770(9) 0.1193(7)
C2 C -0.1345(12) 0.7189(9) -0.0555(7)
C3 C 0.4695(12) 0.7269(10) 0.6447(7)
C4 C 0.0821(12) 0.7604(9) 0.6747(7)
C5 C 0.0271(12) 0.7445(9) 0.1198(7)
C6 C -0.0986(13) 0.6705(8) 0.0372(7)
C7 C -0.2118(16) 0.550(1) 0.0470(9)
H1 H -0.29450 0.49790 -0.00930
C8 C -0.2058(15) 0.5061(10) 0.1351(8)
H2 H -0.28470 0.42700 0.13950
C9 C -0.0785(13) 0.5828(9) 0.2185(7)
C10 C 0.0388(12) 0.7025(8) 0.2112(7)
H3 H 0.12370 0.75350 0.26690
C11 C 0.0598(13) 0.5934(9) 0.3865(7)
C12 C 0.2333(14) 0.5766(9) 0.3740(7)
H4 H 0.26470 0.53600 0.30900
C13 C 0.0090(12) 0.6539(9) 0.4835(7)
H5 H -0.11110 0.66410 0.49030
C14 C 0.1391(11) 0.6988(8) 0.5698(6)
C15 C 0.3199(12) 0.6823(8) 0.5563(6)
C16 C 0.3628(13) 0.6209(9) 0.4595(7)
H6 H 0.48180 0.60890 0.45160
O1 O 0.4782(8) 1.1666(6) 0.1101(5)
H7 H 0.57730 1.24030 0.11910
O2 O 0.2775(9) 1.0250(7) -0.1005(5)
H8 H 0.31580 1.02890 -0.15980
H9 H 0.18450 0.95950 -0.10810
O3 O 0.1290(9) 0.9785(6) 0.1784(5)
O4 O 0.2891(9) 0.8700(6) 0.0615(5)
O5 O -0.0881(9) 0.8428(6) -0.0486(5)
O6 O -0.2184(10) 0.6404(6) -0.1386(5)
O7 O 0.5583(9) 0.8470(6) 0.6706(5)
O8 O 0.5141(9) 0.6452(6) 0.6865(5)
O9 O 0.1898(9) 0.7915(7) 0.7550(5)
O10 O -0.0850(9) 0.7747(7) 0.6731(5)
O11 O -0.0844(10) 0.5369(7) 0.3062(5)
O12 O 0.272(4) 0.9689(15) 0.4342(13)
H10 H 0.36250 0.95960 0.47010
H11 H 0.24240 1.03960 0.46420
H12 H 0.18040 0.90300 0.42880
In2A In -0.25801(8) 0.80835(6) -0.20583(4)
C1A C -0.1580(11) 1.1230(9) -0.1193(7)
C2A C 0.1345(12) 1.2811(9) 0.0555(7)
C3A C -0.4695(12) 1.2731(10) -0.6447(7)
C4A C -0.0821(12) 1.2396(9) -0.6747(7)
C5A C -0.0271(12) 1.2555(9) -0.1198(7)
C6A C 0.0986(13) 1.3295(8) -0.0372(7)
C7A C 0.2118(16) 1.450(1) -0.0470(9)
H1A H 0.29450 1.50210 0.00930
C8A C 0.2058(15) 1.4939(10) -0.1351(8)
H2A H 0.28470 1.57300 -0.13950
C9A C 0.0785(13) 1.4172(9) -0.2185(7)
C10A C -0.0388(12) 1.2975(8) -0.2112(7)
H3A H -0.12370 1.24650 -0.26690
C11A C -0.0598(13) 1.4066(9) -0.3865(7)
C12A C -0.2333(14) 1.4234(9) -0.3740(7)
H4A H -0.26470 1.46400 -0.30900
C13A C -0.0090(12) 1.3461(9) -0.4835(7)
H5A H 0.11110 1.33590 -0.49030
C14A C -0.1391(11) 1.3012(8) -0.5698(6)
C15A C -0.3199(12) 1.3177(8) -0.5563(6)
C16A C -0.3628(13) 1.3791(9) -0.4595(7)
H6A H -0.48180 1.39110 -0.45160
O1A O -0.4782(8) 0.8334(6) -0.1101(5)
H7A H -0.57730 0.75970 -0.11910
O3A O -0.1290(9) 1.0215(6) -0.1784(5)
O4A O -0.2891(9) 1.1300(6) -0.0615(5)
O5A O 0.0881(9) 1.1572(6) 0.0486(5)
O6A O 0.2184(10) 1.3596(6) 0.1386(5)
O7A O -0.5583(9) 1.1530(6) -0.6706(5)
O8A O -0.5141(9) 1.3548(6) -0.6865(5)
O9A O -0.1898(9) 1.2085(7) -0.7550(5)
O10A O 0.0850(9) 1.2253(7) -0.6731(5)
O11A O 0.0844(10) 1.4631(7) -0.3062(5)
O2A O 0.7225(9) 0.9750(7) 0.1005(5)
H8A H 0.68420 0.97110 0.15980
H9A H 0.81550 1.04050 0.10810
In1* In -0.50000 1.00000 0.00000
In2* In -0.74199(8) 1.19165(6) -0.79417(4)
In2** In 0.25801(8) 1.19165(6) -0.79417(4)
In2A* In -0.25801(8) 0.80835(6) 0.79417(4)
In2A** In 0.74199(8) 0.80835(6) 0.79417(4)
O1A* O 0.5218(8) 0.8334(6) -0.1101(5)
O4A* O 0.7109(9) 1.1300(6) -0.0615(5)
O7* O -0.4417(9) 0.8470(6) -0.3294(5)
O7A* O 0.4417(9) 1.1530(6) 0.3294(5)
O8* O -0.4859(9) 0.6452(6) -0.3135(5)
O8A* O 0.4859(9) 1.3548(6) 0.3135(5)
O10* O -0.0850(9) 0.7747(7) -0.3269(5)
O10A* O 0.0850(9) 1.2253(7) 0.3269(5)
#END
