
#######################################################################
#
#                 Cambridge Crystallographic Data Centre
#                                CCDC
#
#######################################################################
#
# If this CIF has been generated from an entry in the Cambridge
# Structural Database, then it will include bibliographic, chemical,
# crystal, experimental, refinement or atomic coordinate data resulting
# from the CCDC's data processing and validation procedures.
#
#######################################################################

data_CSD_CIF_PAVNEI
_audit_creation_date 2017-06-20
_audit_creation_method CSD-ConQuest-V1
_database_code_CSD PAVNEI
_database_code_depnum_ccdc_archive 'CCDC 1538353'
_chemical_formula_sum 'C88 H136 Mo12 N3 O50 P1 Zn4'
_chemical_formula_moiety
;
(C40 H28 Mo12 O50 P1 Zn4 3-)n,3(C16 H36 N1 1+)
;
_journal_coden_Cambridge 1500
_journal_volume 7
_journal_year 2017
_journal_page_first 31544
_journal_name_full 'RSC Advances '
loop_
_publ_author_name
"Zhong-Bin Nie"
"Min Zhang"
"Tan Su"
"Liang Zhao"
"Yuan-Yuan Wang"
"Guang-Yan Sun"
"Zhong-Min Su"
_chemical_name_systematic
;
catena-[tris(tetra-n-butylammonium) 
(\m-phosphato)-cosakis(\m-oxo)-tetrakis(\m-hydroxo)-bis(\m-4'-(4-carboxylatoph
enoxy)biphenyl-4-carboxylato)-dodecaoxo-dodeca-molybdenum-tetra-zinc(ii)]
;
_cell_volume  13054.491
_exptl_crystal_colour 'red'
_exptl_crystal_density_diffrn 1.77
_exptl_special_details
;
The anion H atoms have not been located and have been placed arbitrarily in 
the 2D diagram
;
_exptl_crystal_description 'cuboid'
_diffrn_ambient_temperature 293
#These two values have been output from a single CSD field.
_refine_ls_R_factor_gt 0.0714
_refine_ls_wR_factor_gt 0.0714
_symmetry_cell_setting orthorhombic
_symmetry_space_group_name_H-M 'P b c n'
_symmetry_Int_Tables_number 60
loop_
_symmetry_equiv_pos_site_id
_symmetry_equiv_pos_as_xyz
1 x,y,z
2 1/2-x,1/2-y,1/2+z
3 1/2+x,1/2-y,-z
4 -x,y,1/2-z
5 -x,-y,-z
6 -1/2+x,-1/2+y,-1/2-z
7 -1/2-x,-1/2+y,z
8 x,-y,-1/2+z
_cell_length_a 27.391(2)
_cell_length_b 32.349(3)
_cell_length_c 14.7330(13)
_cell_angle_alpha 90
_cell_angle_beta 90
_cell_angle_gamma 90
_cell_formula_units_Z 4
loop_
_atom_type_symbol
_atom_type_radius_bond
C 0.68
H 0.23
Mo 1.54
N 0.68
O 0.68
P 1.05
Zn 1.22
loop_
_atom_site_label
_atom_site_type_symbol
_atom_site_fract_x
_atom_site_fract_y
_atom_site_fract_z
C1 C 0.6659(4) 0.4126(4) 0.2880(8)
C2 C 0.7031(4) 0.4441(4) 0.3144(8)
C3 C 0.7089(5) 0.4792(4) 0.2598(9)
H1 H 0.69000 0.48230 0.20770
C4 C 0.7424(6) 0.5091(5) 0.2827(11)
H2 H 0.74740 0.53190 0.24530
C5 C 0.7684(6) 0.5045(5) 0.3625(12)
C6 C 0.7617(6) 0.4722(5) 0.4201(10)
H3 H 0.77800 0.47080 0.47540
C7 C 0.7287(6) 0.4406(5) 0.3921(9)
H4 H 0.72480 0.41720 0.42810
C8 C 0.8184(7) 0.5470(5) 0.4605(14)
C9 C 0.7916(6) 0.5441(6) 0.5421(13)
H5 H 0.76110 0.53140 0.54140
C10 C 0.8099(7) 0.5600(5) 0.6246(13)
H6 H 0.79200 0.55820 0.67800
C11 C 0.8565(6) 0.5787(5) 0.6232(13)
C12 C 0.8827(7) 0.5833(7) 0.5400(16)
H7 H 0.91270 0.59680 0.54000
C13 C 0.8640(7) 0.5675(6) 0.4581(15)
H8 H 0.88110 0.57050 0.40390
C14 C 0.8770(6) 0.5991(5) 0.7058(13)
C15 C 0.8569(9) 0.5888(6) 0.7909(14)
H9 H 0.83360 0.56790 0.79380
C16 C 0.8709(8) 0.6089(6) 0.8723(15)
H10 H 0.85460 0.60350 0.92640
C17 C 0.9084(7) 0.6362(5) 0.8700(14)
C18 C 0.9292(6) 0.6454(7) 0.7886(16)
H11 H 0.95500 0.66400 0.78730
C19 C 0.9130(6) 0.6276(6) 0.7043(15)
H12 H 0.92700 0.63560 0.64970
C20 C 0.9237(6) 0.6590(5) 0.9550(13)
O1 O 0.4558(2) 0.25488(18) 0.2271(4)
O2 O 0.4860(2) 0.31038(16) 0.3313(4)
O3 O 0.5836(2) 0.30894(19) 0.4171(4)
O4 O 0.6183(2) 0.31290(18) 0.2106(4)
O5 O 0.5492(2) 0.37964(17) 0.2788(4)
O6 O 0.5168(3) 0.44084(19) 0.1453(5)
O7 O 0.5786(3) 0.37218(19) 0.1068(4)
O8 O 0.4805(2) 0.37005(19) 0.0535(4)
O9 O 0.6445(3) 0.3171(2) 0.0210(5)
O10 O 0.5424(3) 0.3115(2) -0.0089(4)
O11 O 0.4718(3) 0.2567(2) 0.0264(5)
O12 O 0.5824(2) 0.25181(19) 0.0880(5)
O13 O 0.6822(3) 0.2471(2) 0.1537(5)
O14 O 0.6303(3) 0.2420(3) 0.5128(6)
O15 O 0.5774(3) 0.1952(2) 0.3889(5)
O16 O 0.6393(2) 0.2543(2) 0.3282(5)
O17 O 0.4545(3) 0.3252(3) -0.0952(4)
O18 O 0.4857(3) 0.1850(2) 0.3426(6)
O19 O 0.6071(3) 0.1927(2) 0.2075(6)
O20 O 0.5560(4) 0.1242(2) 0.2811(8)
O21 O 0.6595(3) 0.3822(2) 0.3483(5)
O22 O 0.6465(3) 0.4138(2) 0.2131(6)
O23 O 0.9581(4) 0.6833(3) 0.9468(7)
O24 O 0.8962(4) 0.6587(3) 1.0272(9)
O25 O 0.8025(5) 0.5353(4) 0.3754(9)
Zn1 Zn 0.60519(4) 0.34620(3) 0.32112(7)
Zn2 Zn 0.52578(5) 0.21866(4) 0.04657(9)
Mo1 Mo 0.51411(3) 0.39008(2) 0.16546(5)
Mo2 Mo 0.59465(3) 0.31141(2) 0.08545(5)
Mo3 Mo 0.47683(3) 0.31804(3) 0.00946(5)
Mo4 Mo 0.62547(3) 0.25362(2) 0.19423(6)
Mo5 Mo 0.59491(3) 0.24746(3) 0.41944(6)
Mo6 Mo 0.54577(4) 0.17495(3) 0.27495(8)
P1 P 0.50000 0.28238(9) 0.25000
C21 C 0.7415(7) 0.2718(6) -0.0998(14)
H13 H 0.72470 0.28310 -0.04730
H14 H 0.77410 0.26430 -0.08020
C22 C 0.7460(7) 0.3034(6) -0.1631(16)
H15 H 0.71350 0.31390 -0.17570
H16 H 0.75810 0.29120 -0.21900
C23 C 0.7796(9) 0.3414(7) -0.1393(16)
H17 H 0.76360 0.35760 -0.09260
H18 H 0.80990 0.33110 -0.11400
C24 C 0.7908(10) 0.3679(9) -0.214(2)
H19 H 0.81240 0.38950 -0.19400
H20 H 0.76120 0.37990 -0.23700
H21 H 0.80630 0.35220 -0.26100
C25 C 0.7394(6) 0.2118(4) -0.2061(9)
H22 H 0.73240 0.22780 -0.26010
H23 H 0.77440 0.21280 -0.19660
C26 C 0.7260(7) 0.1693(6) -0.2240(12)
H24 H 0.69070 0.16710 -0.22850
H25 H 0.73680 0.15190 -0.17430
C27 C 0.7509(6) 0.1540(5) -0.3179(11)
H26 H 0.78470 0.16290 -0.32090
H27 H 0.74990 0.12410 -0.32240
C28 C 0.7234(8) 0.1723(7) -0.3890(15)
H28 H 0.73740 0.16480 -0.44650
H29 H 0.72410 0.20190 -0.38260
H30 H 0.69030 0.16280 -0.38610
C29 C 0.6607(6) 0.2409(7) -0.1437(13)
H31 H 0.64300 0.21640 -0.12470
H32 H 0.65100 0.26310 -0.10330
C30 C 0.6446(11) 0.2509(9) -0.229(2)
H33 H 0.65550 0.23010 -0.27150
H34 H 0.65850 0.27720 -0.24660
C31 C 0.7180(6) 0.2049(6) -0.0442(10)
H35 H 0.70390 0.21950 0.00690
H36 H 0.69820 0.18050 -0.05510
C32 C 0.7686(6) 0.1914(7) -0.0191(15)
H37 H 0.78850 0.21530 -0.00540
H38 H 0.78330 0.17680 -0.06960
C33 C 0.7661(10) 0.1630(8) 0.0636(18)
H39 H 0.75220 0.17800 0.11440
H40 H 0.74500 0.13970 0.05040
C34 C 0.8160(12) 0.1477(10) 0.088(2)
H41 H 0.81370 0.13010 0.14080
H42 H 0.83670 0.17080 0.10200
H43 H 0.82940 0.13240 0.03860
N1 N 0.7153(4) 0.2326(4) -0.1273(10)
C35 C 0.5778(14) 0.2544(12) -0.232(3)
H44 H 0.56350 0.25060 -0.29180
H45 H 0.56100 0.23830 -0.18620
C36 C 0.5863(15) 0.2929(13) -0.210(3)
H46 H 0.55590 0.30750 -0.20430
H47 H 0.60610 0.30570 -0.25550
H48 H 0.60320 0.29370 -0.15250
C37 C 0.5250(6) 0.4616(4) -0.3203(9)
H49 H 0.50010 0.47800 -0.35000
H50 H 0.54640 0.48050 -0.28820
C38 C 0.5537(7) 0.4410(5) -0.3904(11)
H51 H 0.53300 0.42250 -0.42530
H52 H 0.57950 0.42480 -0.36290
C39 C 0.5753(8) 0.4738(6) -0.4518(15)
H53 H 0.54880 0.48990 -0.47750
H54 H 0.59510 0.49220 -0.41540
C40 C 0.6040(12) 0.4582(10) -0.523(2)
H55 H 0.61630 0.48080 -0.55860
H56 H 0.58440 0.44060 -0.56080
H57 H 0.63080 0.44270 -0.49850
C41 C 0.5372(6) 0.4061(4) -0.2032(11)
H58 H 0.51980 0.38730 -0.16360
H59 H 0.55340 0.38960 -0.24920
C42 C 0.5752(7) 0.4275(6) -0.1489(14)
H60 H 0.56020 0.43880 -0.09470
H61 H 0.58820 0.45030 -0.18400
C43 C 0.6172(8) 0.3988(6) -0.1212(15)
H62 H 0.60370 0.37510 -0.08980
H63 H 0.63310 0.38880 -0.17580
C44 C 0.6553(9) 0.4185(8) -0.0610(18)
H64 H 0.67980 0.39840 -0.04580
H65 H 0.64010 0.42850 -0.00650
H66 H 0.67030 0.44120 -0.09250
N2 N 0.50000 0.4338(4) -0.25000
O1C O 0.5442(2) 0.25488(18) 0.2729(4)
O2C O 0.5140(2) 0.31038(16) 0.1687(4)
C1C C 0.3341(4) 0.4126(4) 0.2120(8)
C2C C 0.2969(4) 0.4441(4) 0.1856(8)
C3C C 0.2911(5) 0.4792(4) 0.2402(9)
H1C H 0.31000 0.48230 0.29230
C4C C 0.2576(6) 0.5091(5) 0.2173(11)
H2C H 0.25260 0.53190 0.25470
C5C C 0.2316(6) 0.5045(5) 0.1375(12)
C6C C 0.2383(6) 0.4722(5) 0.0799(10)
H3C H 0.22200 0.47080 0.02460
C7C C 0.2713(6) 0.4406(5) 0.1079(9)
H4C H 0.27520 0.41720 0.07190
C8C C 0.1816(7) 0.5470(5) 0.0395(14)
C9C C 0.2084(6) 0.5441(6) -0.0421(13)
H5C H 0.23890 0.53140 -0.04140
C10C C 0.1901(7) 0.5600(5) -0.1246(13)
H6C H 0.20800 0.55820 -0.17800
C11C C 0.1435(6) 0.5787(5) -0.1232(13)
C12C C 0.1173(7) 0.5833(7) -0.0400(16)
H7C H 0.08730 0.59680 -0.04000
C13C C 0.1360(7) 0.5675(6) 0.0419(15)
H8C H 0.11890 0.57050 0.09610
C14C C 0.1230(6) 0.5991(5) -0.2058(13)
C15C C 0.1431(9) 0.5888(6) -0.2909(14)
H9C H 0.16640 0.56790 -0.29380
C16C C 0.1291(8) 0.6089(6) -0.3723(15)
H10C H 0.14540 0.60350 -0.42640
C17C C 0.0916(7) 0.6362(5) -0.3700(14)
C18C C 0.0708(6) 0.6454(7) -0.2886(16)
H11C H 0.04500 0.66400 -0.28730
C19C C 0.0870(6) 0.6276(6) -0.2043(15)
H12C H 0.07300 0.63560 -0.14970
C20C C 0.0763(6) 0.6590(5) -0.4550(13)
O3C O 0.4164(2) 0.30894(19) 0.0829(4)
O4C O 0.3817(2) 0.31290(18) 0.2894(4)
O5C O 0.4508(2) 0.37964(17) 0.2212(4)
O6C O 0.4832(3) 0.44084(19) 0.3547(5)
O7C O 0.4214(3) 0.37218(19) 0.3932(4)
O8C O 0.5195(2) 0.37005(19) 0.4465(4)
O9C O 0.3555(3) 0.3171(2) 0.4790(5)
O10C O 0.4576(3) 0.3115(2) 0.5089(4)
O11C O 0.5282(3) 0.2567(2) 0.4736(5)
O12C O 0.4176(2) 0.25181(19) 0.4120(5)
O13C O 0.3178(3) 0.2471(2) 0.3463(5)
O14C O 0.3697(3) 0.2420(3) -0.0128(6)
O15C O 0.4226(3) 0.1952(2) 0.1111(5)
O16C O 0.3607(2) 0.2543(2) 0.1718(5)
O17C O 0.5455(3) 0.3252(3) 0.5952(4)
O18C O 0.5143(3) 0.1850(2) 0.1574(6)
O19C O 0.3929(3) 0.1927(2) 0.2925(6)
O20C O 0.4440(4) 0.1242(2) 0.2189(8)
O21C O 0.3405(3) 0.3822(2) 0.1517(5)
O22C O 0.3535(3) 0.4138(2) 0.2869(6)
O23C O 0.0419(4) 0.6833(3) -0.4468(7)
O24C O 0.1038(4) 0.6587(3) -0.5272(9)
O25C O 0.1975(5) 0.5353(4) 0.1246(9)
Zn1C Zn 0.39481(4) 0.34620(3) 0.17888(7)
Zn2C Zn 0.47422(5) 0.21866(4) 0.45343(9)
Mo1C Mo 0.48589(3) 0.39008(2) 0.33454(5)
Mo2C Mo 0.40535(3) 0.31141(2) 0.41455(5)
Mo3C Mo 0.52317(3) 0.31804(3) 0.49054(5)
Mo4C Mo 0.37453(3) 0.25362(2) 0.30577(6)
Mo5C Mo 0.40509(3) 0.24746(3) 0.08056(6)
Mo6C Mo 0.45423(4) 0.17495(3) 0.22505(8)
O23E O 0.4581(4) 0.1833(3) 0.5532(7)
O23F O 0.5419(4) 0.1833(3) -0.0532(7)
Zn2E Zn 0.02578(5) 0.71866(4) -0.54657(9)
Zn2F Zn 0.97422(5) 0.71866(4) 1.04657(9)
C37C C 0.4750(6) 0.4616(4) -0.1797(9)
H49C H 0.49990 0.47800 -0.15000
H50C H 0.45360 0.48050 -0.21180
C38C C 0.4463(7) 0.4410(5) -0.1096(11)
H51C H 0.46700 0.42250 -0.07470
H52C H 0.42050 0.42480 -0.13710
C39C C 0.4247(8) 0.4738(6) -0.0482(15)
H53C H 0.45120 0.48990 -0.02250
H54C H 0.40490 0.49220 -0.08460
C40C C 0.3960(12) 0.4582(10) 0.023(2)
H55C H 0.38370 0.48080 0.05860
H56C H 0.41560 0.44060 0.06080
H57C H 0.36920 0.44270 -0.00150
C41C C 0.4628(6) 0.4061(4) -0.2968(11)
H58C H 0.48020 0.38730 -0.33640
H59C H 0.44660 0.38960 -0.25080
C42C C 0.4248(7) 0.4275(6) -0.3511(14)
H60C H 0.43980 0.43880 -0.40530
H61C H 0.41180 0.45030 -0.31600
C43C C 0.3828(8) 0.3988(6) -0.3788(15)
H62C H 0.39630 0.37510 -0.41020
H63C H 0.36690 0.38880 -0.32420
C44C C 0.3447(9) 0.4185(8) -0.4390(18)
H64C H 0.32020 0.39840 -0.45420
H65C H 0.35990 0.42850 -0.49350
H66C H 0.32970 0.44120 -0.40750
#END
