
#######################################################################
#
#                 Cambridge Crystallographic Data Centre
#                                CCDC
#
#######################################################################
#
# If this CIF has been generated from an entry in the Cambridge
# Structural Database, then it will include bibliographic, chemical,
# crystal, experimental, refinement or atomic coordinate data resulting
# from the CCDC's data processing and validation procedures.
#
#######################################################################

data_CSD_CIF_PAXFEC
_audit_creation_date 2017-06-21
_audit_creation_method CSD-ConQuest-V1
_database_code_CSD PAXFEC
_database_code_depnum_ccdc_archive 'CCDC 1534551'
_chemical_formula_sum 'C83 H67 Mg3 N4 O21.5'
_chemical_formula_moiety
;
(C49 H34 Mg3 O20 2-)n,2n(C17 H15 N2 1+),1.5n(H2 O1)
;
_journal_coden_Cambridge 9
_journal_volume 56
_journal_year 2017
_journal_page_first 7397
_journal_name_full 'Inorg.Chem. '
loop_
_publ_author_name
"Zhao-Feng Wu"
"Liao-Kuo Gong"
"Xiao-Ying Huang"
_chemical_name_systematic
;
catena-[bis(1-methyl-4-(4-(pyridin-4-yl)phenyl)pyridin-1-ium) 
bis(\m-aqua)-tetrakis(\m-naphthalene-1,4-dicarboxylato)-aqua-(methanol)-tri-ma
gnesium sesquihydrate]
;
_cell_volume   3600.542
_exptl_crystal_colour 'yellow'
_exptl_crystal_density_diffrn 1.418
_exptl_crystal_description 'block'
_diffrn_ambient_temperature 100
_refine_special_details
;
O10,O1W,O2W and C42,O10B disordered over two sites with occupancies 
0.5,0.5,0.25:0.5.
;
#These two values have been output from a single CSD field.
_refine_ls_R_factor_gt 0.0403
_refine_ls_wR_factor_gt 0.0403
_symmetry_cell_setting monoclinic
_symmetry_space_group_name_H-M 'P 21/n'
_symmetry_Int_Tables_number 14
loop_
_symmetry_equiv_pos_site_id
_symmetry_equiv_pos_as_xyz
1 x,y,z
2 1/2-x,1/2+y,1/2-z
3 -x,-y,-z
4 -1/2+x,-1/2-y,-1/2+z
_cell_length_a 13.8496(2)
_cell_length_b 17.4765(3)
_cell_length_c 14.8809(2)
_cell_angle_alpha 90
_cell_angle_beta 91.521(1)
_cell_angle_gamma 90
_cell_formula_units_Z 2
loop_
_atom_type_symbol
_atom_type_radius_bond
C 0.68
H 0.23
Mg 1.41
N 0.68
O 0.68
loop_
_atom_site_label
_atom_site_type_symbol
_atom_site_fract_x
_atom_site_fract_y
_atom_site_fract_z
Mg1 Mg 0.49917(4) 0.06670(3) 0.22691(3)
Mg2 Mg 0.50000 0.00000 0.00000
O1 O 0.39863(9) 0.14549(7) 0.26781(8)
O2 O 0.34459(11) 0.18483(9) 0.13245(9)
O3 O 0.39018(9) 0.00536(7) -0.21605(8)
O4 O 0.40695(8) 0.06116(6) -0.08165(7)
O5 O 0.11815(10) 0.29885(8) -0.39560(8)
O6 O 0.11838(8) 0.44845(6) 0.44279(7)
O7 O 0.09882(8) 0.34683(7) -0.25725(8)
O8 O 0.10394(9) 0.48629(7) 0.29945(8)
O9 O 0.49120(8) 0.09436(6) 0.08726(7)
H1 H 0.4383(7) 0.117(1) 0.0858(14)
H2 H 0.5365(9) 0.1261(9) 0.0827(14)
C1 C 0.35508(12) 0.19201(11) 0.21563(12)
C2 C 0.31170(12) 0.26203(10) 0.25887(11)
C3 C 0.25621(13) 0.25284(10) 0.33296(12)
H3 H 0.25154 0.20376 0.35995
C4 C 0.20586(12) 0.31516(10) 0.36984(11)
H4 H 0.16733 0.30744 0.42093
C5 C 0.21204(11) 0.38661(9) 0.33267(11)
C6 C 0.27661(11) 0.39986(10) 0.26075(11)
C7 C 0.29563(14) 0.47438(11) 0.22734(13)
H5 H 0.26295 0.51714 0.25161
C8 C 0.36046(17) 0.48535(13) 0.16060(16)
H6 H 0.37269 0.53559 0.13933
C9 C 0.40909(17) 0.42260(14) 0.12331(16)
H7 H 0.45386 0.43086 0.07702
C10 C 0.39260(14) 0.35061(12) 0.15284(13)
H8 H 0.42548 0.30886 0.12655
C11 C 0.32652(12) 0.33664(10) 0.22289(11)
C12 C 0.14023(11) 0.44644(9) 0.36166(10)
C13 C 0.37752(11) 0.05928(9) -0.16189(11)
C14 C 0.31919(11) 0.12542(9) -0.19851(10)
C15 C 0.24384(12) 0.10862(9) -0.25675(11)
H9 H 0.23094 0.05679 -0.27209
C16 C 0.18549(12) 0.16662(10) -0.29406(12)
H10 H 0.13315 0.15375 -0.33377
C17 C 0.20359(12) 0.24185(10) -0.27351(11)
C18 C 0.28312(12) 0.26229(9) -0.21575(10)
C19 C 0.30865(13) 0.33992(10) -0.19866(12)
H11 H 0.27088 0.37975 -0.22514
C20 C 0.38663(14) 0.35794(10) -0.14476(13)
H12 H 0.40303 0.41006 -0.13458
C21 C 0.44313(14) 0.29953(11) -0.10402(13)
H13 H 0.49634 0.31264 -0.06546
C22 C 0.42168(12) 0.2243(1) -0.11974(11)
H14 H 0.46073 0.18561 -0.09249
C23 C 0.34159(11) 0.20307(9) -0.17642(10)
C24 C 0.13542(12) 0.30108(10) -0.31201(11)
O10 O 0.4946(9) 0.0260(9) 0.3601(11)
H15 H 0.508(5) -0.0186(17) 0.347(4)
C25 C 0.4115(3) 0.0278(2) 0.4085(3)
H16 H 0.42660 0.01420 0.47119
H17 H 0.36482 -0.00879 0.38287
H18 H 0.38390 0.07945 0.40598
N1 N 0.62944(11) 0.22133(9) 0.45801(10)
N2 N 0.52862(12) 0.86484(10) 0.37215(11)
C26 C 0.64552(15) 0.13765(12) 0.46936(14)
H19 H 0.70425 0.12906 0.50615
H20 H 0.65274 0.11388 0.41027
H21 H 0.59014 0.11490 0.49912
C27 C 0.55426(13) 0.24698(12) 0.40707(12)
H22 H 0.50991 0.21148 0.38077
C28 C 0.54130(13) 0.32376(12) 0.39292(12)
H23 H 0.48789 0.34079 0.35686
C29 C 0.60552(12) 0.37780(11) 0.43072(11)
C30 C 0.68152(13) 0.34838(11) 0.48433(12)
H24 H 0.72630 0.38251 0.51250
C31 C 0.69221(13) 0.27120(11) 0.49669(12)
H25 H 0.74451 0.25251 0.53299
C32 C 0.59403(12) 0.46076(11) 0.41565(11)
C33 C 0.50672(13) 0.49159(12) 0.38259(12)
H26 H 0.45466 0.45830 0.36715
C34 C 0.49514(13) 0.56940(11) 0.37211(12)
H27 H 0.43501 0.58864 0.34975
C35 C 0.56956(12) 0.62072(11) 0.39353(11)
C36 C 0.65782(12) 0.58975(11) 0.42485(12)
H28 H 0.71035 0.62303 0.43876
C37 C 0.66956(12) 0.51195(11) 0.43577(12)
H29 H 0.72997 0.49263 0.45733
C38 C 0.55586(13) 0.70460(11) 0.38512(11)
C39 C 0.48009(14) 0.73688(12) 0.33372(12)
H30 H 0.43581 0.70484 0.30159
C40 C 0.46996(14) 0.81532(12) 0.32988(13)
H31 H 0.41762 0.83544 0.29473
C41 C 0.60181(14) 0.83412(12) 0.42001(13)
H32 H 0.64564 0.86785 0.45015
C42 C 0.61784(13) 0.75611(11) 0.42848(13)
H33 H 0.67111 0.73786 0.46386
O11 O 0.1495(6) 0.1613(4) -0.5032(4)
H34 H 0.169(9) 0.123(4) -0.475(6)
H35 H 0.143(4) 0.154(5) -0.5582(8)
O12? O 0.4988(7) 0.0241(7) 0.3616(8)
H36? H 0.517(4) -0.0194(12) 0.375(2)
H37? H 0.502(2) 0.0561(15) 0.4010(18)
O13? O 0.3186(6) 0.0630(6) 0.4188(6)
H38? H 0.297(11) 0.039(8) 0.462(6)
H39? H 0.295(11) 0.050(9) 0.370(4)
Mg1B Mg 0.50083(4) -0.06670(3) -0.22691(3)
O1B O 0.60137(9) -0.14549(7) -0.26781(8)
O2B O 0.65541(11) -0.18483(9) -0.13245(9)
O3B O 0.60982(9) -0.00536(7) 0.21605(8)
O4B O 0.59305(8) -0.06116(6) 0.08165(7)
O5B O 0.88185(10) -0.29885(8) 0.39560(8)
O6B O 0.88162(8) -0.44845(6) -0.44279(7)
O7B O 0.90118(8) -0.34683(7) 0.25725(8)
O8B O 0.89606(9) -0.48629(7) -0.29945(8)
O9B O 0.50880(8) -0.09436(6) -0.08726(7)
H1B H 0.5617(7) -0.117(1) -0.0858(14)
H2B H 0.4635(9) -0.1261(9) -0.0827(14)
C1B C 0.64492(12) -0.19201(11) -0.21563(12)
C2B C 0.68830(12) -0.26203(10) -0.25887(11)
C3B C 0.74379(13) -0.25284(10) -0.33296(12)
H3B H 0.74846 -0.20376 -0.35995
C4B C 0.79414(12) -0.31516(10) -0.36984(11)
H4B H 0.83267 -0.30744 -0.42093
C5B C 0.78796(11) -0.38661(9) -0.33267(11)
C6B C 0.72339(11) -0.39986(10) -0.26075(11)
C7B C 0.70437(14) -0.47438(11) -0.22734(13)
H5B H 0.73704 -0.51714 -0.25161
C8B C 0.63954(17) -0.48535(13) -0.16060(16)
H6B H 0.62731 -0.53559 -0.13933
C9B C 0.59091(17) -0.42260(14) -0.12331(16)
H7B H 0.54614 -0.43086 -0.07702
C10B C 0.60740(14) -0.35061(12) -0.15284(13)
H8B H 0.57452 -0.30886 -0.12655
C11B C 0.67348(12) -0.33664(10) -0.22289(11)
C12B C 0.85977(11) -0.44644(9) -0.36166(10)
C13B C 0.62248(11) -0.05928(9) 0.16189(11)
C14B C 0.68081(11) -0.12542(9) 0.19851(10)
C15B C 0.75616(12) -0.10862(9) 0.25675(11)
H9B H 0.76906 -0.05679 0.27209
C16B C 0.81451(12) -0.16662(10) 0.29406(12)
H10B H 0.86685 -0.15375 0.33377
C17B C 0.79641(12) -0.24185(10) 0.27351(11)
C18B C 0.71688(12) -0.26229(9) 0.21575(10)
C19B C 0.69135(13) -0.33992(10) 0.19866(12)
H11B H 0.72912 -0.37975 0.22514
C20B C 0.61337(14) -0.35794(10) 0.14476(13)
H12B H 0.59697 -0.41006 0.13458
C21B C 0.55687(14) -0.29953(11) 0.10402(13)
H13B H 0.50366 -0.31264 0.06546
C22B C 0.57832(12) -0.2243(1) 0.11974(11)
H14B H 0.53927 -0.18561 0.09249
C23B C 0.65841(11) -0.20307(9) 0.17642(10)
C24B C 0.86458(12) -0.30108(10) 0.31201(11)
O10B O 0.5054(9) -0.0260(9) -0.3601(11)
H15B H 0.492(5) 0.0186(17) -0.347(4)
C25B C 0.5885(3) -0.0278(2) -0.4085(3)
H16B H 0.57340 -0.01420 -0.47119
H17B H 0.63518 0.00879 -0.38287
H18B H 0.61610 -0.07945 -0.40598
Mg1A Mg 0.00083(4) 0.56670(3) 0.27309(3)
Mg1A* Mg 1.00083(4) -0.43330(3) 0.27309(3)
Mg1C Mg -0.00083(4) 0.43330(3) -0.27309(3)
Mg1C* Mg 0.99917(4) -0.56670(3) -0.27309(3)
Mg2A Mg 0.00000 0.50000 0.50000
Mg2A* Mg 1.00000 -0.50000 -0.50000
O6A O 0.38162(8) -0.05155(6) 0.05721(7)
O6C O 0.61838(8) 0.05155(6) -0.05721(7)
O7A O 0.40118(8) -0.15317(7) -0.24275(8)
O7C O 0.59882(8) 0.15317(7) 0.24275(8)
O8A O 0.39606(9) -0.01371(7) 0.20055(8)
O8C O 0.60394(9) 0.01371(7) -0.20055(8)
#END
