
#######################################################################
#
#                 Cambridge Crystallographic Data Centre
#                                CCDC
#
#######################################################################
#
# If this CIF has been generated from an entry in the Cambridge
# Structural Database, then it will include bibliographic, chemical,
# crystal, experimental, refinement or atomic coordinate data resulting
# from the CCDC's data processing and validation procedures.
#
#######################################################################

data_CSD_CIF_PAXGED
_audit_creation_date 2017-06-21
_audit_creation_method CSD-ConQuest-V1
_database_code_CSD PAXGED
_database_code_depnum_ccdc_archive 'CCDC 1538998'
_chemical_formula_sum 'C38 H26 Cl6 Mn2 N4 O16'
_chemical_formula_moiety
;
(C18 H4 Cl6 Mn2 O14 2-)n,2(C10 H9 N2 1+),2(H2 O1)
;
_journal_coden_Cambridge 440
_journal_volume 41
_journal_year 2017
_journal_page_first 6785
_journal_name_full 'New J.Chem. '
loop_
_publ_author_name
"L.A.Dubraja"
"K.Molcanov"
"Dijana Zilic"
"B.Kojic-Prodic"
"E.Wenger"
_chemical_name_systematic
;
catena-[bis(2-(pyridin-2-yl)pyridin-1-ium) 
tris(\m-2,5-dichloro-3,6-dioxidocyclohexa-2,5-diene-1,4-dione)-diaqua-di-manga
nese dihydrate]
;
_cell_volume   2090.292
_exptl_crystal_colour 'dark red'
_exptl_crystal_density_diffrn 1.772
_exptl_crystal_description 'prism'
_diffrn_ambient_temperature 293
#These two values have been output from a single CSD field.
_refine_ls_R_factor_gt 0.0455
_refine_ls_wR_factor_gt 0.0455
_symmetry_cell_setting monoclinic
_symmetry_space_group_name_H-M 'P 2/n'
_symmetry_Int_Tables_number 13
loop_
_symmetry_equiv_pos_site_id
_symmetry_equiv_pos_as_xyz
1 x,y,z
2 1/2-x,y,1/2-z
3 -x,-y,-z
4 -1/2+x,-y,-1/2+z
_cell_length_a 9.9052(2)
_cell_length_b 8.3510(1)
_cell_length_c 25.7006(5)
_cell_angle_alpha 90
_cell_angle_beta 100.503(2)
_cell_angle_gamma 90
_cell_formula_units_Z 2
loop_
_atom_type_symbol
_atom_type_radius_bond
C 0.68
H 0.23
Cl 0.99
Mn 1.61
N 0.68
O 0.68
loop_
_atom_site_label
_atom_site_type_symbol
_atom_site_fract_x
_atom_site_fract_y
_atom_site_fract_z
Mn1 Mn 0.64844(5) 0.08207(5) 0.65751(2)
Cl1 Cl 1.07727(8) 0.40518(9) 0.74691(4)
O1 O 0.5945(2) 0.3412(2) 0.64510(9)
O2 O 0.8286(2) 0.2215(2) 0.69223(8)
C1 C 0.6837(3) 0.4416(3) 0.66365(11)
C2 C 0.8197(3) 0.3736(3) 0.69189(10)
C3 C 0.9212(3) 0.4780(3) 0.71499(11)
Cl2 Cl 0.51526(8) 0.68172(10) 0.62298(4)
O3 O 0.9834(2) 0.7420(3) 0.73959(9)
O4 O 0.7580(2) 0.8655(2) 0.68227(10)
C4 C 0.8995(3) 0.6472(3) 0.71556(11)
C5 C 0.7653(3) 0.7156(3) 0.68365(12)
C6 C 0.6661(3) 0.6083(4) 0.65965(12)
Cl3 Cl 0.19683(7) 0.00698(11) 0.52485(3)
O5 O 0.7143(2) 0.0463(3) 0.58039(8)
O6 O 0.4605(2) 0.0536(3) 0.59900(8)
C7 C 0.6197(3) 0.0237(3) 0.54099(11)
C8 C 0.4726(3) 0.0278(3) 0.55208(11)
C9 C 0.3613(3) 0.0036(4) 0.51064(11)
O7 O 0.5419(2) 0.0466(3) 0.72251(8)
H1 H 0.557(5) -0.057(3) 0.7364(16)
H2 H 0.579(6) 0.111(5) 0.7512(15)
N1 N 1.1599(4) -0.3009(6) 0.64108(16)
N2 N 0.8213(4) -0.3240(4) 0.55495(14)
C10 C 1.0328(3) -0.2635(4) 0.61173(13)
C11 C 0.9847(3) -0.1123(4) 0.61408(12)
H3 H 0.89850 -0.08990 0.59430
C12 C 1.0502(5) 0.0065(6) 0.64224(18)
H4 H 1.01020 0.10730 0.64180
C13 C 1.1745(5) -0.0202(7) 0.67138(18)
H5 H 1.22180 0.06250 0.69100
C14 C 1.2323(4) -0.1698(8) 0.67227(17)
H6 H 1.31820 -0.18810 0.69290
C15 C 0.9431(4) -0.3796(4) 0.57840(14)
C16 C 0.9860(5) -0.5352(5) 0.57352(19)
H7 H 1.07170 -0.56980 0.59090
C17 C 0.8979(6) -0.6368(6) 0.5421(2)
H8 H 0.92330 -0.74270 0.53810
C18 C 0.7728(6) -0.5833(6) 0.5165(2)
H9 H 0.71320 -0.65120 0.49460
C19 C 0.7371(5) -0.4259(6) 0.5238(2)
H10 H 0.65190 -0.38900 0.50660
O8 O 0.2911(4) -0.6628(6) 0.6205(2)
H11 H 0.379(4) -0.618(9) 0.633(3)
H12 H 0.304(9) -0.755(8) 0.601(4)
Cl3B Cl 0.80317(7) -0.00698(11) 0.47515(3)
O5B O 0.2857(2) -0.0463(3) 0.41961(8)
O6B O 0.5395(2) -0.0536(3) 0.40100(8)
C7B C 0.3803(3) -0.0237(3) 0.45901(11)
C8B C 0.5274(3) -0.0278(3) 0.44792(11)
C9B C 0.6387(3) -0.0036(4) 0.48936(11)
Mn1B Mn 0.35156(5) -0.08207(5) 0.34249(2)
Cl1B Cl -0.07727(8) -0.40518(9) 0.25309(4)
O1B O 0.4055(2) -0.3412(2) 0.35490(9)
O2B O 0.1714(2) -0.2215(2) 0.30777(8)
C1B C 0.3163(3) -0.4416(3) 0.33635(11)
C2B C 0.1803(3) -0.3736(3) 0.30811(10)
C3B C 0.0788(3) -0.4780(3) 0.28501(11)
Cl2B Cl 0.48474(8) -0.68172(10) 0.37702(4)
O3B O 0.0166(2) -0.7420(3) 0.26041(9)
O4B O 0.2420(2) -0.8655(2) 0.31773(10)
C4B C 0.1005(3) -0.6472(3) 0.28444(11)
C5B C 0.2347(3) -0.7156(3) 0.31635(12)
C6B C 0.3339(3) -0.6083(4) 0.34035(12)
O7B O 0.4581(2) -0.0466(3) 0.27749(8)
H1B H 0.443(5) 0.057(3) 0.2636(16)
H2B H 0.421(6) -0.111(5) 0.2488(15)
Mn1* Mn 0.64844(5) 1.08207(5) 0.65751(2)
Mn1B* Mn 0.35156(5) -1.08207(5) 0.34249(2)
O4* O 0.7580(2) -0.1345(2) 0.68227(10)
O4B* O 0.2420(2) 0.1345(2) 0.31773(10)
#END
