
#######################################################################
#
#                 Cambridge Crystallographic Data Centre
#                                CCDC
#
#######################################################################
#
# If this CIF has been generated from an entry in the Cambridge
# Structural Database, then it will include bibliographic, chemical,
# crystal, experimental, refinement or atomic coordinate data resulting
# from the CCDC's data processing and validation procedures.
#
#######################################################################

data_CSD_CIF_PAYFIH
_audit_creation_date 2017-06-22
_audit_creation_method CSD-ConQuest-V1
_database_code_CSD PAYFIH
_database_code_depnum_ccdc_archive 'CCDC 1525687'
_chemical_formula_sum 'C32 H36 Cl2 In2 N4 O30'
_chemical_formula_moiety
;
(C8 Cl2 In2 O16 4-)n,4(C6 H6 N1 O2 1+),6(H2 O1)
;
_journal_coden_Cambridge 440
_journal_volume 41
_journal_year 2017
_journal_page_first 6883
_journal_name_full 'New J.Chem. '
loop_
_publ_author_name
"Li Jing Zhang"
"Feng Ying Bai"
"Xue Gao"
"Ning Du"
"Yong Heng Xing"
"Li Xian Sun"
_chemical_name_systematic
;
catena-(tetrakis(3-carboxypyridinium) 
bis(\m-oxalato)-dichloro-bis(oxalato)-di-indium hexahydrate)
;
_cell_volume   1122.296
_exptl_crystal_colour 'colorless'
_exptl_crystal_density_diffrn 1.86
_exptl_crystal_description 'block'
_diffrn_ambient_temperature 296.1
#These two values have been output from a single CSD field.
_refine_ls_R_factor_gt 0.0178
_refine_ls_wR_factor_gt 0.0178
_symmetry_cell_setting triclinic
_symmetry_space_group_name_H-M 'P -1'
_symmetry_Int_Tables_number 2
loop_
_symmetry_equiv_pos_site_id
_symmetry_equiv_pos_as_xyz
1 x,y,z
2 -x,-y,-z
_cell_length_a 8.729(3)
_cell_length_b 11.511(4)
_cell_length_c 11.634(4)
_cell_angle_alpha 104.630(5)
_cell_angle_beta 93.584(4)
_cell_angle_gamma 95.062(5)
_cell_formula_units_Z 1
loop_
_atom_type_symbol
_atom_type_radius_bond
C 0.68
H 0.23
Cl 0.99
In 1.42
N 0.68
O 0.68
loop_
_atom_site_label
_atom_site_type_symbol
_atom_site_fract_x
_atom_site_fract_y
_atom_site_fract_z
In1 In 0.23202(2) 0.33237(2) 0.92336(2)
Cl1 Cl 0.08379(8) 0.19945(5) 1.01105(6)
O1 O 0.17373(16) 0.24500(12) 0.72970(11)
O2 O 0.39644(15) 0.19677(12) 0.86805(11)
O3 O 0.22185(16) 0.09574(12) 0.57962(11)
O4 O 0.44800(16) 0.04487(12) 0.72059(12)
O5 O 0.37031(14) 0.47318(11) 0.87373(11)
O6 O -0.02492(15) 0.59335(13) 1.13767(12)
O7 O 0.16561(15) 0.48398(12) 1.08021(12)
O8 O 0.56941(13) 0.61165(11) 0.93502(10)
C1 C 0.48313(18) 0.52485(14) 0.94540(14)
C2 C 0.0406(2) 0.52216(16) 1.06266(15)
C3 C 0.3756(2) 0.12945(16) 0.76410(15)
C4 C 0.2458(2) 0.15887(16) 0.68390(15)
O9 O 0.3430(2) 0.0186(2) 0.12976(15)
H1 H 0.26450 0.03970 0.17090
H2 H 0.39320 -0.01930 0.17280
O10 O 0.1461(2) 0.3971(2) 0.29731(16)
H3 H 0.09460 0.44980 0.33820
H4 H 0.14520 0.41510 0.23010
O11 O 0.0322(2) 0.43229(18) 0.60898(19)
H5 H 0.04080 0.38140 0.64880
H6 H 0.12450 0.45350 0.59720
O12 O -0.01050(18) 0.83476(15) 0.54628(12)
H7 H -0.07890 0.86000 0.51070
O13 O -0.09109(19) 0.95592(16) 0.70532(14)
N1 N 0.2721(2) 0.88506(17) 0.90856(16)
H8 H 0.297(3) 0.930(3) 0.978(3)
C5 C 0.1605(2) 0.91508(17) 0.84287(17)
H9 H 0.11190 0.98360 0.87350
C6 C 0.3433(3) 0.7872(2) 0.8693(2)
H10 H 0.42180 0.76920 0.91770
C7 C 0.3016(3) 0.7131(2) 0.7586(2)
H11 H 0.34940 0.64340 0.73150
C8 C 0.1881(2) 0.74255(19) 0.68740(19)
H12 H 0.15920 0.69360 0.61100
C9 C 0.1170(2) 0.84540(16) 0.73002(16)
C10 C -0.0072(2) 0.88445(17) 0.65964(17)
O14 O 0.3574(2) 0.44421(16) 0.55796(16)
O15 O 0.3497(2) 0.30203(17) 0.38801(15)
H13 H 0.28510 0.34080 0.36530
N2 N 0.6550(2) 0.11990(16) 0.51728(17)
H14 H 0.676(3) 0.053(3) 0.473(3)
C11 C 0.5489(2) 0.17797(18) 0.47640(18)
H15 H 0.49410 0.14360 0.40270
C12 C 0.7361(3) 0.1643(2) 0.6214(2)
H16 H 0.81000 0.12080 0.64700
C13 C 0.7108(3) 0.2745(2) 0.6912(2)
H17 H 0.76700 0.30630 0.76480
C14 C 0.6021(3) 0.33778(19) 0.65172(19)
H18 H 0.58410 0.41300 0.69820
C15 C 0.5199(2) 0.28929(17) 0.54312(17)
C16 C 0.3999(3) 0.35443(19) 0.4975(2)
O5A O 0.62969(14) 0.52682(11) 1.12627(11)
O8A O 0.43059(13) 0.38835(11) 1.06498(10)
C1A C 0.51687(18) 0.47515(14) 1.05460(14)
O6A O 0.02492(15) 0.40665(13) 0.86233(12)
O7A O -0.16561(15) 0.51602(12) 0.91979(12)
C2A C -0.0406(2) 0.47784(16) 0.93734(15)
In1A In -0.23202(2) 0.66763(2) 1.07664(2)
Cl1A Cl -0.08379(8) 0.80055(5) 0.98895(6)
O1A O -0.17373(16) 0.75500(12) 1.27030(11)
O2A O -0.39644(15) 0.80323(12) 1.13195(11)
O3A O -0.22185(16) 0.90426(12) 1.42038(11)
O4A O -0.44800(16) 0.95513(12) 1.27941(12)
C3A C -0.3756(2) 0.87055(16) 1.23590(15)
C4A C -0.2458(2) 0.84113(16) 1.31610(15)
In1A* In 0.76798(2) 0.66763(2) 1.07664(2)
O5A* O -0.37031(14) 0.52682(11) 1.12627(11)
O8* O -0.43059(13) 0.61165(11) 0.93502(10)
#END
