
#######################################################################
#
#                 Cambridge Crystallographic Data Centre
#                                CCDC
#
#######################################################################
#
# If this CIF has been generated from an entry in the Cambridge
# Structural Database, then it will include bibliographic, chemical,
# crystal, experimental, refinement or atomic coordinate data resulting
# from the CCDC's data processing and validation procedures.
#
#######################################################################

data_CSD_CIF_PECCOS
_audit_creation_date 2017-06-24
_audit_creation_method CSD-ConQuest-V1
_database_code_CSD PECCOS
_database_code_depnum_ccdc_archive 'CCDC 1499906'
_chemical_formula_sum 'C37 H36 N2 O20 U2'
_chemical_formula_moiety
;
(C24 H12 O16 U2 2-)n,C13 H16 N2 2+,4(H2 O1)
;
_journal_coden_Cambridge 9
_journal_volume 56
_journal_year 2017
_journal_page_first 7694
_journal_name_full 'Inorg.Chem. '
loop_
_publ_author_name
"Lei Mei"
"Cong-zhi Wang"
"Liu-zheng Zhu"
"Zeng-qiang Gao"
"Zhi-fang Chai"
"J.K.Gibson"
"Wei-qun Shi"
_chemical_name_systematic
;
catena-[4,4'-(propane-1,3-diyl)di(pyridin-1-ium) 
tris(\m-benzene-1,4-dicarboxylato)-tetraoxo-di-uranium tetrahydrate]
;
_cell_volume   4446.097
_exptl_crystal_colour 'dark yellow'
_exptl_crystal_description 'block'
_diffrn_ambient_temperature 150.0
_refine_special_details
;
Disordered counterions and water solvent molecules were not modelled and the 
disordered density was taken into account using the SQUEEZE/PLATON procedure.
;
#These two values have been output from a single CSD field.
_refine_ls_R_factor_gt 0.0291
_refine_ls_wR_factor_gt 0.0291
_symmetry_cell_setting monoclinic
_symmetry_space_group_name_H-M 'C 2/c'
_symmetry_Int_Tables_number 15
loop_
_symmetry_equiv_pos_site_id
_symmetry_equiv_pos_as_xyz
1 x,y,z
2 -x,y,1/2-z
3 1/2+x,1/2+y,z
4 1/2-x,1/2+y,1/2-z
5 -x,-y,-z
6 x,-y,-1/2+z
7 -1/2-x,-1/2-y,-z
8 -1/2+x,-1/2-y,-1/2+z
_cell_length_a 14.7897(4)
_cell_length_b 19.8448(5)
_cell_length_c 15.1573(4)
_cell_angle_alpha 90
_cell_angle_beta 91.940(3)
_cell_angle_gamma 90
_cell_formula_units_Z 4
loop_
_atom_type_symbol
_atom_type_radius_bond
C 0.68
H 0.23
O 0.68
U 1.96
loop_
_atom_site_label
_atom_site_type_symbol
_atom_site_fract_x
_atom_site_fract_y
_atom_site_fract_z
U1 U 0.66623(2) 0.60057(2) 0.41492(2)
O1 O 0.5585(3) 0.5999(2) 0.3622(3)
O2 O 0.7730(4) 0.6024(2) 0.4660(3)
O3 O 0.6772(3) 0.4762(2) 0.4133(3)
O4 O 0.5927(3) 0.6580(2) 0.5387(3)
O5 O 0.8284(3) 0.2228(2) 0.0983(3)
O6 O 0.7747(4) 0.1667(2) 0.2096(3)
O7 O 0.7234(4) 0.5294(2) 0.2972(3)
O8 O 0.6084(3) 0.5485(2) 0.5479(3)
C1 C 0.5390(4) 0.6045(3) 0.6681(4)
C2 C 0.5816(4) 0.6036(3) 0.5804(4)
C3 C 0.5189(4) 0.6660(3) 0.7096(4)
H1 H 0.53180 0.70750 0.68140
C4 C 0.7913(4) 0.2228(3) 0.1725(4)
C5 C 0.7095(5) 0.4751(3) 0.3386(4)
C6 C 0.7364(5) 0.2894(3) 0.2990(5)
H2 H 0.72560 0.24840 0.32920
C7 C 0.7852(5) 0.3470(3) 0.1707(4)
H3 H 0.80710 0.34590 0.11250
C8 C 0.7328(4) 0.4094(3) 0.2957(4)
C9 C 0.5203(4) 0.5440(3) 0.7092(4)
H4 H 0.53520 0.50260 0.68190
C10 C 0.7713(4) 0.2877(3) 0.2162(4)
C11 C 0.7670(4) 0.4085(3) 0.2109(4)
H5 H 0.77770 0.44950 0.18070
C12 C 0.7170(5) 0.3491(3) 0.3383(4)
H6 H 0.69240 0.34940 0.39540
O4A O 0.4073(3) 0.6580(2) 0.9613(3)
O8A O 0.3916(3) 0.5485(2) 0.9521(3)
C1A C 0.4610(4) 0.6045(3) 0.8319(4)
C2A C 0.4184(4) 0.6036(3) 0.9196(4)
C3A C 0.4811(4) 0.6660(3) 0.7904(4)
H1A H 0.46820 0.70750 0.81860
C9A C 0.4797(4) 0.5440(3) 0.7908(4)
H4A H 0.46480 0.50260 0.81810
U1A U 0.33377(2) 0.60057(2) 1.08508(2)
O1A O 0.4415(3) 0.5999(2) 1.1378(3)
O2A O 0.2270(4) 0.6024(2) 1.0340(3)
O3A O 0.3228(3) 0.4762(2) 1.0867(3)
O5A O 0.1716(3) 0.2228(2) 1.4017(3)
O6A O 0.2253(4) 0.1667(2) 1.2904(3)
O7A O 0.2766(4) 0.5294(2) 1.2028(3)
C4A C 0.2087(4) 0.2228(3) 1.3275(4)
C5A C 0.2905(5) 0.4751(3) 1.1614(4)
C6A C 0.2636(5) 0.2894(3) 1.2010(5)
H2A H 0.27440 0.24840 1.17080
C7A C 0.2148(5) 0.3470(3) 1.3293(4)
H3A H 0.19290 0.34590 1.38750
C8A C 0.2672(4) 0.4094(3) 1.2043(4)
C10A C 0.2287(4) 0.2877(3) 1.2838(4)
C11A C 0.2330(4) 0.4085(3) 1.2891(4)
H5A H 0.22230 0.44950 1.31930
C12A C 0.2830(5) 0.3491(3) 1.1617(4)
H6A H 0.30760 0.34940 1.10460
U1B U 0.16623(2) 0.10057(2) 1.41492(2)
U1C U 0.83377(2) 0.10057(2) 0.08508(2)
O5B O 0.3284(3) 0.7228(2) 1.0983(3)
O5C O 0.6716(3) 0.7228(2) 0.4017(3)
O6B O 0.2747(4) 0.6667(2) 1.2096(3)
O6C O 0.7253(4) 0.6667(2) 0.2904(3)
#END
