
#######################################################################
#
#                 Cambridge Crystallographic Data Centre
#                                CCDC
#
#######################################################################
#
# If this CIF has been generated from an entry in the Cambridge
# Structural Database, then it will include bibliographic, chemical,
# crystal, experimental, refinement or atomic coordinate data resulting
# from the CCDC's data processing and validation procedures.
#
#######################################################################

data_CSD_CIF_PECCUY
_audit_creation_date 2017-06-24
_audit_creation_method CSD-ConQuest-V1
_database_code_CSD PECCUY
_database_code_depnum_ccdc_archive 'CCDC 1499907'
_chemical_formula_sum 'C29 H30.5 N2 O16.25 U2'
_chemical_formula_moiety
;
(C16 H10 O14 U2 2-)n,n(C13 H16 N2 2+),2.25n(H2 O1)
;
_journal_coden_Cambridge 9
_journal_volume 56
_journal_year 2017
_journal_page_first 7694
_journal_name_full 'Inorg.Chem. '
loop_
_publ_author_name
"Lei Mei"
"Cong-zhi Wang"
"Liu-zheng Zhu"
"Zeng-qiang Gao"
"Zhi-fang Chai"
"J.K.Gibson"
"Wei-qun Shi"
_chemical_name_systematic
;
catena-[4,4'-(propane-1,3-diyl)di(pyridin-1-ium) 
bis(\m-benzene-1,4-dicarboxylato)-bis(\m-hydroxo)-tetraoxo-di-uranium 
hydrate]
;
_cell_volume   6388.532
_exptl_crystal_colour 'yellow'
_exptl_crystal_density_diffrn 2.288
_exptl_crystal_description 'block'
_diffrn_ambient_temperature 170
_diffrn_special_details
;
twin

;
_refine_special_details
;
C17 disordered by symmetry over two configurations with occupancy 0.5; 
Disordered counterions and water solvent molecules were not modelled and the 
disordered density was taken into account using the SQUEEZE/PLATON procedure.
;
#These two values have been output from a single CSD field.
_refine_ls_R_factor_gt 0.0677
_refine_ls_wR_factor_gt 0.0677
_symmetry_cell_setting orthorhombic
_symmetry_space_group_name_H-M 'P n n m'
_symmetry_Int_Tables_number 58
loop_
_symmetry_equiv_pos_site_id
_symmetry_equiv_pos_as_xyz
1 x,y,z
2 -x,-y,z
3 1/2+x,1/2-y,1/2-z
4 1/2-x,1/2+y,1/2-z
5 -x,-y,-z
6 x,y,-z
7 -1/2-x,-1/2+y,-1/2+z
8 -1/2+x,-1/2-y,-1/2+z
_cell_length_a 16.5259(5)
_cell_length_b 16.8232(5)
_cell_length_c 22.9788(7)
_cell_angle_alpha 90
_cell_angle_beta 90
_cell_angle_gamma 90
_cell_formula_units_Z 8
loop_
_atom_type_symbol
_atom_type_radius_bond
C 0.68
H 0.23
N 0.68
O 0.68
U 1.96
loop_
_atom_site_label
_atom_site_type_symbol
_atom_site_fract_x
_atom_site_fract_y
_atom_site_fract_z
U1 U 0.28816(3) 0.73591(3) 0.58262(2)
O1 O 0.2599(7) 0.8371(7) 0.5835(5)
O2 O 0.2114(11) 0.7106(11) 0.50000
O3 O 0.3241(7) 0.6354(7) 0.5817(6)
O4 O 0.3668(10) 0.7632(9) 0.50000
O5 O 0.4189(8) 0.7752(7) 0.6264(6)
O6 O 0.3184(8) 0.7441(8) 0.6864(6)
O7 O 0.1685(8) 0.6947(9) 0.6261(6)
C1 C 0.3905(11) 0.7614(10) 0.6786(8)
C2 C 0.4453(11) 0.770(1) 0.7296(8)
C3 C 0.5264(11) 0.7873(11) 0.7216(9)
C4 C 0.4117(11) 0.7526(11) 0.7856(8)
H1 H 0.54820 0.79490 0.68370
C5 C 0.5766(11) 0.7933(10) 0.7726(8)
H2 H 0.35620 0.73860 0.78940
C6 C 0.4602(11) 0.7563(11) 0.8333(8)
H3 H 0.63190 0.80800 0.76880
C7 C 0.5443(10) 0.7774(10) 0.8275(8)
H4 H 0.43860 0.74480 0.87070
C8 C 0.5986(11) 0.7817(11) 0.8816(9)
O8 O 0.5671(9) 0.7662(9) 0.9290(7)
U2 U 0.21407(3) 0.67820(3) 0.91670(3)
O9 O 0.1121(7) 0.6414(7) 0.9122(6)
O10 O 0.3165(8) 0.7166(8) 0.9212(6)
O11 O 0.2389(9) 0.6049(9) 1.00000
O12 O 0.1743(10) 0.7513(10) 1.00000
O13 O 0.2081(9) 0.8892(9) 0.9212(7)
O14 O 0.1771(9) 0.7885(8) 0.8616(6)
C9 C 0.2095(11) 0.8827(11) 0.7627(9)
H5 H 0.20100 0.82750 0.75650
C10 C 0.2319(12) 1.0453(10) 0.7813(8)
H6 H 0.23860 1.10070 0.78770
C11 C 0.2093(12) 0.9137(11) 0.8198(9)
C12 C 0.1988(12) 0.8609(11) 0.8735(9)
C13 C 0.2211(12) 0.9927(11) 0.8290(9)
H7 H 0.22220 1.01290 0.86760
C14 C 0.2324(10) 1.0149(10) 0.7253(8)
C15 C 0.2219(11) 0.9318(10) 0.7167(9)
H8 H 0.22370 0.91040 0.67840
O15 O 0.2397(8) 1.0464(7) 0.6229(6)
O16 O 0.2653(7) 1.1407(7) 0.6854(6)
C16 C 0.2442(9) 1.0706(10) 0.6754(8)
C17 C -0.0556(10) 0.8811(15) 0.5149(13)
C18 C -0.0603(10) 0.9378(14) 0.5588(11)
C19 C 0.0101(13) 0.9696(12) 0.5823(9)
C20 C 0.0851(10) 0.9448(13) 0.5620(9)
C21 C 0.0898(9) 0.8882(12) 0.5181(9)
N1 N 0.0195(12) 0.8562(12) 0.4986(11)
C22 C 0.00000 1.00000 0.690(2)
C23 C 0.00000 1.00000 0.802(2)
C24 C -0.010(2) 0.958(2) 0.6337(16)
C25 C -0.006(2) 0.946(2) 0.7397(18)
U1E U 0.28816(3) 0.73591(3) 0.41738(2)
O1E O 0.2599(7) 0.8371(7) 0.4165(5)
O3E O 0.3241(7) 0.6354(7) 0.4183(6)
O5E O 0.4189(8) 0.7752(7) 0.3736(6)
O6E O 0.3184(8) 0.7441(8) 0.3136(6)
O7E O 0.1685(8) 0.6947(9) 0.3739(6)
C1E C 0.3905(11) 0.7614(10) 0.3214(8)
C2E C 0.4453(11) 0.770(1) 0.2704(8)
C3E C 0.5264(11) 0.7873(11) 0.2784(9)
C4E C 0.4117(11) 0.7526(11) 0.2144(8)
H1E H 0.54820 0.79490 0.31630
C5E C 0.5766(11) 0.7933(10) 0.2274(8)
H2E H 0.35620 0.73860 0.21060
C6E C 0.4602(11) 0.7563(11) 0.1667(8)
H3E H 0.63190 0.80800 0.23120
C7E C 0.5443(10) 0.7774(10) 0.1725(8)
H4E H 0.43860 0.74480 0.12930
O7B O 0.6685(8) 0.8053(9) 0.8739(6)
C8E C 0.5986(11) 0.7817(11) 0.1184(9)
U1B U 0.78816(3) 0.76409(3) 0.91738(2)
O8E O 0.5671(9) 0.7662(9) 0.0710(7)
O7G O 0.6685(8) 0.8053(9) 0.1261(6)
U1G U 0.78816(3) 0.76409(3) 0.08262(2)
U2E U 0.21407(3) 0.67820(3) 1.08330(3)
O9E O 0.1121(7) 0.6414(7) 1.0878(6)
O10E O 0.3165(8) 0.7166(8) 1.0788(6)
O13E O 0.2081(9) 0.8892(9) 1.0788(7)
O14E O 0.1771(9) 0.7885(8) 1.1384(6)
C9E C 0.2095(11) 0.8827(11) 1.2373(9)
H5E H 0.20100 0.82750 1.24350
C10E C 0.2319(12) 1.0453(10) 1.2187(8)
H6E H 0.23860 1.10070 1.21230
C11E C 0.2093(12) 0.9137(11) 1.1802(9)
C12E C 0.1988(12) 0.8609(11) 1.1265(9)
C13E C 0.2211(12) 0.9927(11) 1.1710(9)
H7E H 0.22220 1.01290 1.13240
C14E C 0.2324(10) 1.0149(10) 1.2747(8)
C15E C 0.2219(11) 0.9318(10) 1.2833(9)
H8E H 0.22370 0.91040 1.32160
O15E O 0.2397(8) 1.0464(7) 1.3771(6)
O16E O 0.2653(7) 1.1407(7) 1.3146(6)
C16E C 0.2442(9) 1.0706(10) 1.3246(8)
U2C U 0.28593(3) 1.17820(3) 0.58330(3)
U2F U 0.28593(3) 1.17820(3) 1.41670(3)
O15C O 0.2603(8) 0.5464(7) 0.8771(6)
O15F O 0.2603(8) 0.5464(7) 1.1229(6)
O16C O 0.2347(7) 0.6407(7) 0.8146(6)
O16F O 0.2347(7) 0.6407(7) 1.1854(6)
C17A C 0.0556(10) 1.1189(15) 0.5149(13)
C18A C 0.0603(10) 1.0622(14) 0.5588(11)
C19A C -0.0101(13) 1.0304(12) 0.5823(9)
C20A C -0.0851(10) 1.0552(13) 0.5620(9)
C21A C -0.0898(9) 1.1118(12) 0.5181(9)
N1A N -0.0195(12) 1.1438(12) 0.4986(11)
C24A C 0.010(2) 1.042(2) 0.6337(16)
C25A C 0.006(2) 1.054(2) 0.7397(18)
C17D C 0.0556(10) 1.1189(15) 0.4851(13)
C18D C 0.0603(10) 1.0622(14) 0.4412(11)
C19D C -0.0101(13) 1.0304(12) 0.4177(9)
C20D C -0.0851(10) 1.0552(13) 0.4380(9)
C21D C -0.0898(9) 1.1118(12) 0.4819(9)
N1D N -0.0195(12) 1.1438(12) 0.5014(11)
C22D C 0.00000 1.00000 0.310(2)
C23D C 0.00000 1.00000 0.198(2)
C24D C 0.010(2) 1.042(2) 0.3663(16)
C25D C 0.006(2) 1.054(2) 0.2603(18)
C17E C -0.0556(10) 0.8811(15) 0.4851(13)
C18E C -0.0603(10) 0.9378(14) 0.4412(11)
C19E C 0.0101(13) 0.9696(12) 0.4177(9)
C20E C 0.0851(10) 0.9448(13) 0.4380(9)
C21E C 0.0898(9) 0.8882(12) 0.4819(9)
N1E N 0.0195(12) 0.8562(12) 0.5014(11)
C24E C -0.010(2) 0.958(2) 0.3663(16)
C25E C -0.006(2) 0.946(2) 0.2603(18)
#END
