
#######################################################################
#
#                 Cambridge Crystallographic Data Centre
#                                CCDC
#
#######################################################################
#
# If this CIF has been generated from an entry in the Cambridge
# Structural Database, then it will include bibliographic, chemical,
# crystal, experimental, refinement or atomic coordinate data resulting
# from the CCDC's data processing and validation procedures.
#
#######################################################################

data_CSD_CIF_PECDEJ
_audit_creation_date 2017-06-24
_audit_creation_method CSD-ConQuest-V1
_database_code_CSD PECDEJ
_database_code_depnum_ccdc_archive 'CCDC 1499909'
_chemical_formula_sum 'C34 H22 N2 O16 U2'
_chemical_formula_moiety
;
(C24 H12 O16 U2 2-)n,C10 H10 N2 2+
;
_journal_coden_Cambridge 9
_journal_volume 56
_journal_year 2017
_journal_page_first 7694
_journal_name_full 'Inorg.Chem. '
loop_
_publ_author_name
"Lei Mei"
"Cong-zhi Wang"
"Liu-zheng Zhu"
"Zeng-qiang Gao"
"Zhi-fang Chai"
"J.K.Gibson"
"Wei-qun Shi"
_chemical_name_systematic
;
catena-[4,4'-bipyridin-1-ium 
tris(\m-benzene-1,4-dicarboxylato)-tetraoxo-di-uranium]
;
_cell_volume  11452.265
_exptl_crystal_colour 'yellow'
_exptl_crystal_density_diffrn 1.381
_exptl_crystal_description 'prism'
_diffrn_ambient_temperature 278
_diffrn_special_details
;
twin

;
_refine_special_details
;
Disordered counterions were not modelled and the disordered density was taken 
into account using the SQUEEZE/PLATON procedure.
;
#These two values have been output from a single CSD field.
_refine_ls_R_factor_gt 0.0565
_refine_ls_wR_factor_gt 0.0565
_symmetry_cell_setting tetragonal
_symmetry_space_group_name_H-M 'I -4 2 m'
_symmetry_Int_Tables_number 121
loop_
_symmetry_equiv_pos_site_id
_symmetry_equiv_pos_as_xyz
1 x,y,z
2 y,-x,-z
3 x,-y,-z
4 -x,-y,z
5 y,x,z
6 -y,-x,z
7 -y,x,-z
8 -x,y,-z
9 1/2+x,1/2+y,1/2+z
10 1/2+y,1/2-x,1/2-z
11 1/2+x,1/2-y,1/2-z
12 1/2-x,1/2-y,1/2+z
13 1/2+y,1/2+x,1/2+z
14 1/2-y,1/2-x,1/2+z
15 1/2-y,1/2+x,1/2-z
16 1/2-x,1/2+y,1/2-z
_cell_length_a 24.0601(5)
_cell_length_b 24.0601(5)
_cell_length_c 19.7832(7)
_cell_angle_alpha 90
_cell_angle_beta 90
_cell_angle_gamma 90
_cell_formula_units_Z 8
loop_
_atom_type_symbol
_atom_type_radius_bond
C 0.68
H 0.23
O 0.68
U 1.96
loop_
_atom_site_label
_atom_site_type_symbol
_atom_site_fract_x
_atom_site_fract_y
_atom_site_fract_z
U1 U 0.55146(4) 0.21701(4) 0.29516(4)
O1 O 0.5508(6) 0.2093(7) 0.4191(7)
O2 O 0.6090(7) 0.1545(7) 0.3653(7)
C1 C 0.4728(9) 0.3058(9) 0.2942(10)
O3 O 0.4934(8) 0.2899(7) 0.2396(8)
O4 O 0.4859(8) 0.2794(8) 0.3487(9)
O5 O 0.7089(10) 0.0584(10) 0.6713(11)
C2 C 0.5875(9) 0.1738(10) 0.4206(9)
O6 O 0.6522(8) 0.1034(9) 0.7274(8)
C3 C 0.6072(8) 0.1431(9) 0.4828(6)
C4 C 0.6530(8) 0.1079(8) 0.4832(6)
H1 H 0.66830 0.09580 0.44260
C5 C 0.6758(8) 0.0907(9) 0.5442(7)
H2 H 0.70650 0.06710 0.54450
C6 C 0.6529(9) 0.1087(9) 0.6049(6)
C7 C 0.6072(9) 0.1440(9) 0.6045(6)
H3 H 0.59180 0.15600 0.64510
C8 C 0.5843(8) 0.1612(9) 0.5435(7)
H4 H 0.55370 0.18480 0.54320
C9 C 0.4319(7) 0.3502(9) 0.2919(10)
C10 C 0.4087(11) 0.3662(9) 0.2300(9)
H5 H 0.42040 0.34990 0.18980
C11 C 0.4097(8) 0.3703(10) 0.3497(9)
H6 H 0.42210 0.35630 0.39080
C12 C 0.6767(11) 0.0997(12) 0.6716(11)
O7 O 0.4975(7) 0.1700(6) 0.2814(12)
O8 O 0.6083(5) 0.2665(7) 0.2960(11)
C1D C 0.3058(9) 0.4728(9) 0.2942(10)
O3D O 0.2899(8) 0.4934(7) 0.2396(8)
O4D O 0.2794(8) 0.4859(8) 0.3487(9)
C9D C 0.3502(7) 0.4319(9) 0.2919(10)
C10D C 0.3662(11) 0.4087(9) 0.2300(9)
H5D H 0.34990 0.42040 0.18980
C11D C 0.3703(8) 0.4097(10) 0.3497(9)
H6D H 0.35630 0.42210 0.39080
U1D U 0.21701(4) 0.55146(4) 0.29516(4)
O1D O 0.2093(6) 0.5508(7) 0.4191(7)
O2D O 0.1545(7) 0.6090(7) 0.3653(7)
O5D O 0.0584(10) 0.7089(10) 0.6713(11)
C2D C 0.1738(9) 0.5875(10) 0.4206(9)
O6D O 0.1034(8) 0.6522(9) 0.7274(8)
C3D C 0.1431(8) 0.6072(9) 0.4828(6)
C4D C 0.1079(8) 0.6530(8) 0.4832(6)
H1D H 0.09580 0.66830 0.44260
C5D C 0.0907(8) 0.6758(9) 0.5442(7)
H2D H 0.06710 0.70650 0.54450
C6D C 0.1087(9) 0.6529(9) 0.6049(6)
C7D C 0.1440(9) 0.6072(9) 0.6045(6)
H3D H 0.15600 0.59180 0.64510
C8D C 0.1612(8) 0.5843(9) 0.5435(7)
H4D H 0.18480 0.55370 0.54320
C12D C 0.0997(11) 0.6767(12) 0.6716(11)
O7D O 0.1700(7) 0.4975(6) 0.2814(12)
O8D O 0.2665(5) 0.6083(7) 0.2960(11)
U1H U 0.05146(4) 0.71701(4) 0.79516(4)
U1L U 0.71701(4) 0.05146(4) 0.79516(4)
O5H O 0.2089(10) 0.5584(10) 0.1713(11)
O5L O 0.5584(10) 0.2089(10) 0.1713(11)
O6H O 0.1522(8) 0.6034(9) 0.2274(8)
O6L O 0.6034(8) 0.1522(9) 0.2274(8)
#END
