
#######################################################################
#
#                 Cambridge Crystallographic Data Centre
#                                CCDC
#
#######################################################################
#
# If this CIF has been generated from an entry in the Cambridge
# Structural Database, then it will include bibliographic, chemical,
# crystal, experimental, refinement or atomic coordinate data resulting
# from the CCDC's data processing and validation procedures.
#
#######################################################################

data_CSD_CIF_PECHUD
_audit_creation_date 2017-06-26
_audit_creation_method CSD-ConQuest-V1
_database_code_CSD PECHUD
_database_code_depnum_ccdc_archive 'CCDC 1558379'
_chemical_formula_sum 'C42 H46 Br2 Mn3 N4 O12'
_chemical_formula_moiety
;
(C24 H12 Br2 Mn3 O12 2-)n,2(C9 H17 N2 1+)
;
_journal_coden_Cambridge 1078
_journal_year 2017
_journal_name_full 'CSD Communication(Private Communication) '
loop_
_publ_author_name
"ling xu"
_chemical_name_systematic
;
catena-[bis(3-methyl-1-pentyl-1H-imidazol-3-ium) 
tris(\m-benzene-1,4-dicarboxylato)-dibromo-tri-manganese]
;
_cell_volume   2314.431
_exptl_crystal_colour 'colorless'
_exptl_crystal_density_diffrn 1.612
_exptl_crystal_description 'block'
_diffrn_ambient_temperature 293
#These two values have been output from a single CSD field.
_refine_ls_R_factor_gt 0.0371
_refine_ls_wR_factor_gt 0.0371
_symmetry_cell_setting monoclinic
_symmetry_space_group_name_H-M 'P 21/c'
_symmetry_Int_Tables_number 14
loop_
_symmetry_equiv_pos_site_id
_symmetry_equiv_pos_as_xyz
1 x,y,z
2 -x,1/2+y,1/2-z
3 -x,-y,-z
4 x,-1/2-y,-1/2+z
_cell_length_a 13.8296(4)
_cell_length_b 10.4308(3)
_cell_length_c 17.0480(8)
_cell_angle_alpha 90
_cell_angle_beta 109.760(4)
_cell_angle_gamma 90
_cell_formula_units_Z 2
loop_
_atom_type_symbol
_atom_type_radius_bond
C 0.68
H 0.23
Br 1.21
Mn 1.61
N 0.68
O 0.68
loop_
_atom_site_label
_atom_site_type_symbol
_atom_site_fract_x
_atom_site_fract_y
_atom_site_fract_z
Mn1 Mn 0.00000 0.00000 0.00000
Mn2 Mn 0.26681(4) 0.58263(5) 0.56001(3)
Br1 Br 0.44812(3) 0.66211(4) 0.58017(3)
O1 O 0.1362(2) 0.0119(3) 0.11364(17)
O2 O 0.3017(2) 0.0381(3) 0.16755(17)
O3 O 0.0755(2) 0.3916(3) 0.43195(18)
O4 O 0.2404(2) 0.4460(3) 0.46907(17)
C1 C 0.1986(3) 0.1473(4) 0.2329(2)
C2 C 0.1080(3) 0.1450(5) 0.2499(3)
H1 H 0.05450 0.09180 0.21950
C3 C 0.0973(3) 0.2220(5) 0.3122(3)
H2 H 0.03660 0.21870 0.32430
C4 C 0.1740(3) 0.3031(4) 0.3565(2)
C5 C 0.2654(3) 0.3054(4) 0.3398(3)
H3 H 0.31850 0.35950 0.36980
C6 C 0.2772(3) 0.2265(4) 0.2781(2)
H4 H 0.33880 0.22720 0.26720
C7 C 0.2125(3) 0.0624(4) 0.1668(2)
C8 C 0.1618(3) 0.3877(4) 0.4248(2)
O5 O 0.0734(3) -0.1698(2) -0.0243(2)
O6 O 0.2071(2) -0.2660(3) 0.0626(2)
C9 C 0.0547(3) -0.3872(4) 0.0081(3)
C10 C -0.0413(3) -0.3953(4) -0.0491(3)
H5 H -0.07000 -0.32500 -0.08240
C11 C 0.0960(3) -0.4918(4) 0.0577(4)
H6 H 0.16140 -0.48620 0.09730
C12 C 0.1152(3) -0.2653(4) 0.0162(3)
N1 N 0.6172(4) 0.9228(4) 0.4524(3)
N2 N 0.5297(3) 0.7903(3) 0.3588(3)
C13 C 0.5868(4) 0.8041(5) 0.4371(4)
H7 H 0.60340 0.73850 0.47640
C14 C 0.5781(6) 0.9884(5) 0.3813(4)
H8 H 0.58760 1.07520 0.37380
C15 C 0.5231(6) 0.9069(6) 0.3232(4)
H9 H 0.48660 0.92690 0.26790
C16 C 0.6824(6) 0.9807(7) 0.5312(4)
H10 H 0.70050 0.91670 0.57420
H11 H 0.64570 1.04890 0.54640
H12 H 0.74380 1.01410 0.52440
C17 C 0.4801(4) 0.6748(5) 0.3175(4)
H13 H 0.47940 0.67670 0.26040
H14 H 0.52150 0.60200 0.34460
C18 C 0.3793(6) 0.6548(7) 0.3162(6)
H15 H 0.35170 0.58830 0.27490
H16 H 0.38640 0.61620 0.36960
C19 C 0.2988(8) 0.7463(9) 0.3019(7)
H17 H 0.29060 0.78740 0.24900
H18 H 0.32280 0.81170 0.34460
C20 C 0.1932(6) 0.7064(11) 0.300(1)
H19 H 0.15610 0.66610 0.24700
H20 H 0.19870 0.64520 0.34410
C21 C 0.1417(11) 0.8143(13) 0.3107(8)
H21 H 0.07280 0.79170 0.30640
H22 H 0.13980 0.87620 0.26850
H23 H 0.17650 0.85040 0.36470
O5B O -0.0734(3) -0.8302(2) 0.0243(2)
O6B O -0.2071(2) -0.7340(3) -0.0626(2)
C9B C -0.0547(3) -0.6128(4) -0.0081(3)
C10B C 0.0413(3) -0.6047(4) 0.0491(3)
H5B H 0.07000 -0.67500 0.08240
C11B C -0.0960(3) -0.5082(4) -0.0577(4)
H6B H -0.16140 -0.51380 -0.09730
C12B C -0.1152(3) -0.7347(4) -0.0162(3)
Mn2B Mn -0.26681(4) -0.58263(5) -0.56001(3)
Br1B Br -0.44812(3) -0.66211(4) -0.58017(3)
O1B O -0.1362(2) -0.0119(3) -0.11364(17)
O2B O -0.3017(2) -0.0381(3) -0.16755(17)
O3B O -0.0755(2) -0.3916(3) -0.43195(18)
O4B O -0.2404(2) -0.4460(3) -0.46907(17)
C1B C -0.1986(3) -0.1473(4) -0.2329(2)
C2B C -0.1080(3) -0.1450(5) -0.2499(3)
H1B H -0.05450 -0.09180 -0.21950
C3B C -0.0973(3) -0.2220(5) -0.3122(3)
H2B H -0.03660 -0.21870 -0.32430
C4B C -0.1740(3) -0.3031(4) -0.3565(2)
C5B C -0.2654(3) -0.3054(4) -0.3398(3)
H3B H -0.31850 -0.35950 -0.36980
C6B C -0.2772(3) -0.2265(4) -0.2781(2)
H4B H -0.33880 -0.22720 -0.26720
C7B C -0.2125(3) -0.0624(4) -0.1668(2)
C8B C -0.1618(3) -0.3877(4) -0.4248(2)
Mn1* Mn 0.00000 -1.00000 0.00000
Mn1A Mn 0.00000 -0.50000 -0.50000
Mn1A* Mn 0.00000 0.50000 0.50000
Mn2A Mn -0.26681(4) -0.91737(5) -0.06001(3)
Mn2A* Mn -0.26681(4) 0.08263(5) -0.06001(3)
Mn2C Mn 0.26681(4) -0.08263(5) 0.06001(3)
O2A O -0.3017(2) -0.4619(3) -0.66755(17)
O2C O 0.3017(2) 0.4619(3) 0.66755(17)
O3A O -0.0755(2) -0.1084(3) 0.06805(18)
O3C O 0.0755(2) 0.1084(3) -0.06805(18)
O5B* O -0.0734(3) 0.1698(2) 0.0243(2)
O6A O -0.2071(2) -0.7660(3) -0.5626(2)
O6C O 0.2071(2) 0.7660(3) 0.5626(2)
#END
