
#######################################################################
#
#                 Cambridge Crystallographic Data Centre
#                                CCDC
#
#######################################################################
#
# If this CIF has been generated from an entry in the Cambridge
# Structural Database, then it will include bibliographic, chemical,
# crystal, experimental, refinement or atomic coordinate data resulting
# from the CCDC's data processing and validation procedures.
#
#######################################################################

data_CSD_CIF_PECJIT
_audit_creation_date 2017-06-26
_audit_creation_method CSD-ConQuest-V1
_database_code_CSD PECJIT
_database_code_depnum_ccdc_archive 'CCDC 1558382'
_chemical_formula_sum 'C38 H38 Cl2 Mn3 N4 O12'
_chemical_formula_moiety
;
(C24 H12 Cl2 Mn3 O12 2-)n,2(C7 H13 N2 1+)
;
_journal_coden_Cambridge 1078
_journal_year 2017
_journal_name_full 'CSD Communication(Private Communication) '
loop_
_publ_author_name
"ling xu"
_chemical_name_systematic
;
catena-[bis(3-methyl-1-propyl-1H-imidazol-3-ium) 
tris(\m-benzene-1,4-dicarboxylato)-dichloro-tri-manganese]
;
_cell_volume   2195.508
_exptl_crystal_colour 'colorless'
_exptl_crystal_density_diffrn 1.48
_exptl_crystal_description 'prism'
_diffrn_ambient_temperature 293
#These two values have been output from a single CSD field.
_refine_ls_R_factor_gt 0.037
_refine_ls_wR_factor_gt 0.037
_symmetry_cell_setting monoclinic
_symmetry_space_group_name_H-M 'P 21/n'
_symmetry_Int_Tables_number 14
loop_
_symmetry_equiv_pos_site_id
_symmetry_equiv_pos_as_xyz
1 x,y,z
2 1/2-x,1/2+y,1/2-z
3 -x,-y,-z
4 -1/2+x,-1/2-y,-1/2+z
_cell_length_a 13.2885(3)
_cell_length_b 9.6523(2)
_cell_length_c 18.1669(5)
_cell_angle_alpha 90
_cell_angle_beta 109.574(3)
_cell_angle_gamma 90
_cell_formula_units_Z 2
loop_
_atom_type_symbol
_atom_type_radius_bond
C 0.68
H 0.23
Cl 0.99
Mn 1.61
N 0.68
O 0.68
loop_
_atom_site_label
_atom_site_type_symbol
_atom_site_fract_x
_atom_site_fract_y
_atom_site_fract_z
Mn1 Mn 0.29880(3) 0.05373(4) 0.07662(2)
Mn2 Mn 0.50000 0.00000 0.00000
Cl1 Cl 0.14605(7) 0.14184(12) 0.09686(6)
O1 O 0.23679(17) -0.0885(2) -0.01177(12)
O2 O 0.36932(16) -0.1287(2) -0.05798(13)
O3 O -0.11225(17) -0.4426(2) -0.32613(12)
O4 O 0.0069(2) -0.4315(3) -0.38590(13)
C1 C 0.1984(2) -0.2104(3) -0.12997(16)
C2 C 0.0918(2) -0.2214(3) -0.13724(17)
H1 H 0.06780 -0.18440 -0.09880
C3 C 0.0207(2) -0.2868(3) -0.20103(17)
H2 H -0.05060 -0.29540 -0.20490
C4 C 0.0551(2) -0.3397(3) -0.25930(16)
C5 C 0.1613(3) -0.3292(4) -0.25197(18)
H3 H 0.18510 -0.36520 -0.29070
C6 C 0.2328(2) -0.2657(4) -0.18756(19)
H4 H 0.30450 -0.26000 -0.18290
C7 C 0.2748(2) -0.1374(3) -0.06093(16)
C8 C -0.0220(2) -0.4097(3) -0.32915(16)
O5 O 0.3985(2) 0.2683(2) 0.11965(16)
O6 O 0.38498(15) 0.15981(19) 0.01056(13)
C9 C 0.4592(2) 0.3865(3) 0.02718(18)
C10 C 0.5014(3) 0.4970(3) 0.0761(2)
H5 H 0.50220 0.49540 0.12750
C11 C 0.5422(3) 0.6093(3) 0.04898(19)
H6 H 0.57100 0.68310 0.08230
C12 C 0.4133(2) 0.2659(3) 0.0560(2)
N1 N 0.1922(4) -0.3881(6) 0.1646(4)
N2 N 0.0659(3) -0.2402(4) 0.1472(2)
C13 C 0.1297(5) -0.3287(7) 0.1978(3)
H7 H 0.12990 -0.34550 0.24820
C14 C 0.1712(6) -0.3372(9) 0.0970(5)
H8 H 0.20440 -0.36130 0.06120
C15 C 0.0954(6) -0.2452(8) 0.0858(3)
H9 H 0.06690 -0.19190 0.04100
C16 C 0.2703(7) -0.4972(10) 0.1964(6)
H10 H 0.30430 -0.52080 0.15900
H11 H 0.23510 -0.57740 0.20740
H12 H 0.32310 -0.46530 0.24370
C17 C -0.0208(7) -0.1586(8) 0.1552(6)
H13 H 0.00470 -0.10970 0.20460
H14 H -0.04050 -0.08960 0.11400
C18 C -0.1171(7) -0.2371(13) 0.1519(7)
H15 H -0.10940 -0.25890 0.20570
H16 H -0.17600 -0.17220 0.13400
C19 C -0.1533(12) -0.3618(14) 0.1087(9)
H17 H -0.22120 -0.38790 0.11230
H18 H -0.10240 -0.43440 0.12970
H19 H -0.16060 -0.34680 0.05490
O5B O 0.6015(2) 0.7317(2) -0.11965(16)
O6B O 0.61502(15) 0.84019(19) -0.01056(13)
C9B C 0.5408(2) 0.6135(3) -0.02718(18)
C10B C 0.4986(3) 0.5030(3) -0.0761(2)
H5B H 0.49780 0.50460 -0.12750
C11B C 0.4578(3) 0.3907(3) -0.04898(19)
H6B H 0.42900 0.31690 -0.08230
C12B C 0.5867(2) 0.7341(3) -0.0560(2)
Mn1B Mn 0.70120(3) -0.05373(4) -0.07662(2)
Cl1B Cl 0.85395(7) -0.14184(12) -0.09686(6)
O1B O 0.76321(17) 0.0885(2) 0.01177(12)
O2B O 0.63068(16) 0.1287(2) 0.05798(13)
O3B O 1.11225(17) 0.4426(2) 0.32613(12)
O4B O 0.9931(2) 0.4315(3) 0.38590(13)
C1B C 0.8016(2) 0.2104(3) 0.12997(16)
C2B C 0.9082(2) 0.2214(3) 0.13724(17)
H1B H 0.93220 0.18440 0.09880
C3B C 0.9793(2) 0.2868(3) 0.20103(17)
H2B H 1.05060 0.29540 0.20490
C4B C 0.9449(2) 0.3397(3) 0.25930(16)
C5B C 0.8387(3) 0.3292(4) 0.25197(18)
H3B H 0.81490 0.36520 0.29070
C6B C 0.7672(2) 0.2657(4) 0.18756(19)
H4B H 0.69550 0.26000 0.18290
C7B C 0.7252(2) 0.1374(3) 0.06093(16)
C8B C 1.0220(2) 0.4097(3) 0.32915(16)
Mn1A Mn 1.20120(3) 0.55373(4) 0.42338(2)
Mn1B* Mn 0.70120(3) 0.94627(4) -0.07662(2)
Mn1C Mn -0.20120(3) -0.55373(4) -0.42338(2)
Mn2* Mn 0.50000 1.00000 0.00000
Mn2A Mn 0.00000 -0.50000 -0.50000
Mn2A* Mn 1.00000 0.50000 0.50000
O3A O 0.61225(17) 0.0574(2) -0.17387(12)
O3C O 0.38775(17) -0.0574(2) 0.17387(12)
O4A O 0.4931(2) 0.0685(3) -0.11410(13)
O4C O 0.5069(2) -0.0685(3) 0.11410(13)
O5B* O 0.6015(2) -0.2683(2) -0.11965(16)
O6B* O 0.61502(15) -0.15981(19) -0.01056(13)
#END
