
#######################################################################
#
#                 Cambridge Crystallographic Data Centre
#                                CCDC
#
#######################################################################
#
# If this CIF has been generated from an entry in the Cambridge
# Structural Database, then it will include bibliographic, chemical,
# crystal, experimental, refinement or atomic coordinate data resulting
# from the CCDC's data processing and validation procedures.
#
#######################################################################

data_CSD_CIF_PECJEP
_audit_creation_date 2017-06-26
_audit_creation_method CSD-ConQuest-V1
_database_code_CSD PECJEP
_database_code_depnum_ccdc_archive 'CCDC 1558381'
_chemical_formula_sum 'C40 H42 Cl2 Mn3 N4 O12'
_chemical_formula_moiety
;
(C24 H12 Cl2 Mn3 O12 2-)n,2(C8 H15 N2 1+)
;
_journal_coden_Cambridge 1078
_journal_year 2017
_journal_name_full 'CSD Communication(Private Communication) '
loop_
_publ_author_name
"ling xu"
_chemical_name_systematic
;
catena-[bis(1-butyl-3-methyl-1H-imidazol-3-ium) 
tris(\m-benzene-1,4-dicarboxylato)-dichloro-tri-manganese]
;
_cell_volume   2222.718
_exptl_crystal_colour 'colorless'
_exptl_crystal_density_diffrn 1.504
_exptl_crystal_description 'block'
_diffrn_ambient_temperature 293
#These two values have been output from a single CSD field.
_refine_ls_R_factor_gt 0.0378
_refine_ls_wR_factor_gt 0.0378
_symmetry_cell_setting monoclinic
_symmetry_space_group_name_H-M 'P 21/c'
_symmetry_Int_Tables_number 14
loop_
_symmetry_equiv_pos_site_id
_symmetry_equiv_pos_as_xyz
1 x,y,z
2 -x,1/2+y,1/2-z
3 -x,-y,-z
4 x,-1/2-y,-1/2+z
_cell_length_a 13.5591(3)
_cell_length_b 10.4987(2)
_cell_length_c 16.6622(5)
_cell_angle_alpha 90
_cell_angle_beta 110.430(3)
_cell_angle_gamma 90
_cell_formula_units_Z 2
loop_
_atom_type_symbol
_atom_type_radius_bond
C 0.68
H 0.23
Cl 0.99
Mn 1.61
N 0.68
O 0.68
loop_
_atom_site_label
_atom_site_type_symbol
_atom_site_fract_x
_atom_site_fract_y
_atom_site_fract_z
Mn1 Mn 0.27682(3) 0.91283(4) 0.05825(2)
Mn2 Mn 0.00000 1.00000 0.00000
Cl1 Cl 0.45138(6) 0.83453(8) 0.08626(6)
O1 O 0.24511(16) 1.0452(2) -0.03618(15)
O2 O 0.07882(18) 1.1090(2) -0.06764(17)
O3 O 0.31049(17) 1.4645(2) -0.33268(15)
O4 O 0.14264(17) 1.5051(2) -0.38492(14)
C1 C 0.1769(2) 1.1948(3) -0.14666(19)
C2 C 0.2679(2) 1.1899(3) -0.1664(2)
H1 H 0.32020 1.13110 -0.13920
C3 C 0.2809(2) 1.2724(3) -0.2264(2)
H2 H 0.34290 1.27040 -0.23840
C4 C 0.2026(2) 1.3580(3) -0.26868(18)
C5 C 0.1115(2) 1.3617(3) -0.2502(2)
H3 H 0.05810 1.41820 -0.27920
C6 C 0.0988(2) 1.2816(4) -0.1885(2)
H4 H 0.03780 1.28610 -0.17510
C7 C 0.1644(2) 1.1089(3) -0.07879(19)
C8 C 0.2184(2) 1.4476(3) -0.33318(18)
O5 O -0.06241(19) 1.17071(18) 0.03508(15)
O6 O -0.20785(18) 1.2637(2) -0.04861(19)
C9 C -0.0534(2) 1.3869(3) -0.0033(2)
C10 C 0.0474(3) 1.4012(3) 0.0546(3)
H5 H 0.07930 1.33480 0.09140
C11 C -0.1006(3) 1.4863(3) -0.0577(3)
H6 H -0.16870 1.47700 -0.09660
C12 C -0.1116(2) 1.2650(3) -0.0059(2)
N1 N -0.6142(3) 1.0719(3) -0.4591(2)
N2 N -0.5247(2) 1.2085(3) -0.3670(2)
C13 C -0.5824(3) 1.1905(4) -0.4472(3)
H7 H -0.59860 1.25270 -0.48960
C14 C -0.5759(4) 1.0125(4) -0.3827(3)
H8 H -0.58690 0.92770 -0.37200
C15 C -0.5201(4) 1.0965(4) -0.3257(3)
H9 H -0.48430 1.08130 -0.26780
C16 C -0.6816(5) 1.0146(6) -0.5386(3)
H10 H -0.69860 1.07690 -0.58360
H11 H -0.74510 0.98470 -0.53180
H12 H -0.64560 0.94430 -0.55290
C17 C -0.4732(3) 1.3289(4) -0.3290(4)
H13 H -0.49560 1.39450 -0.37260
H14 H -0.49920 1.35260 -0.28370
C18 C -0.3627(5) 1.3300(6) -0.2949(5)
H15 H -0.34380 1.41890 -0.29620
H16 H -0.34560 1.30930 -0.23480
C19 C -0.2891(6) 1.2639(8) -0.3192(6)
H17 H -0.31110 1.27450 -0.38070
H18 H -0.30050 1.17480 -0.30970
C20 C -0.1790(4) 1.2795(9) -0.2888(5)
H19 H -0.14840 1.22000 -0.31710
H20 H -0.15140 1.26450 -0.22810
H21 H -0.16210 1.36480 -0.30040
O5B O 0.06241(19) 1.82929(18) -0.03508(15)
O6B O 0.20785(18) 1.7363(2) 0.04861(19)
C9B C 0.0534(2) 1.6131(3) 0.0033(2)
C10B C -0.0474(3) 1.5988(3) -0.0546(3)
H5B H -0.07930 1.66520 -0.09140
C11B C 0.1006(3) 1.5137(3) 0.0577(3)
H6B H 0.16870 1.52300 0.09660
C12B C 0.1116(2) 1.7350(3) 0.0059(2)
Mn1B Mn -0.27682(3) 1.08717(4) -0.05825(2)
Cl1B Cl -0.45138(6) 1.16547(8) -0.08626(6)
O1B O -0.24511(16) 0.9548(2) 0.03618(15)
O2B O -0.07882(18) 0.8910(2) 0.06764(17)
O3B O -0.31049(17) 0.5355(2) 0.33268(15)
O4B O -0.14264(17) 0.4949(2) 0.38492(14)
C1B C -0.1769(2) 0.8052(3) 0.14666(19)
C2B C -0.2679(2) 0.8101(3) 0.1664(2)
H1B H -0.32020 0.86890 0.13920
C3B C -0.2809(2) 0.7276(3) 0.2264(2)
H2B H -0.34290 0.72960 0.23840
C4B C -0.2026(2) 0.6420(3) 0.26868(18)
C5B C -0.1115(2) 0.6383(3) 0.2502(2)
H3B H -0.05810 0.58180 0.27920
C6B C -0.0988(2) 0.7184(4) 0.1885(2)
H4B H -0.03780 0.71390 0.17510
C7B C -0.1644(2) 0.8911(3) 0.07879(19)
C8B C -0.2184(2) 0.5524(3) 0.33318(18)
Mn1* Mn 0.27682(3) 1.91283(4) 0.05825(2)
Mn1A Mn -0.27682(3) 0.41283(4) 0.44175(2)
Mn1C Mn 0.27682(3) 1.58717(4) -0.44175(2)
Mn2* Mn 0.00000 2.00000 0.00000
Mn2A Mn 0.00000 0.50000 0.50000
Mn2A* Mn 0.00000 1.50000 -0.50000
O3A O -0.31049(17) 0.9645(2) -0.16732(15)
O3C O 0.31049(17) 1.0355(2) 0.16732(15)
O4A O -0.14264(17) 1.0051(2) -0.11508(14)
O4C O 0.14264(17) 0.9949(2) 0.11508(14)
O5B* O 0.06241(19) 0.82929(18) -0.03508(15)
O6B* O 0.20785(18) 0.7363(2) 0.04861(19)
#END
