
#######################################################################
#
#                 Cambridge Crystallographic Data Centre
#                                CCDC
#
#######################################################################
#
# If this CIF has been generated from an entry in the Cambridge
# Structural Database, then it will include bibliographic, chemical,
# crystal, experimental, refinement or atomic coordinate data resulting
# from the CCDC's data processing and validation procedures.
#
#######################################################################

data_CSD_CIF_PECJAL
_audit_creation_date 2017-06-26
_audit_creation_method CSD-ConQuest-V1
_database_code_CSD PECJAL
_database_code_depnum_ccdc_archive 'CCDC 1558380'
_chemical_formula_sum 'C40 H42 Br2 Mn3 N4 O12'
_chemical_formula_moiety
;
(C24 H12 Br2 Mn3 O12 2-)n,2(C8 H15 N2 1+)
;
_journal_coden_Cambridge 1078
_journal_year 2017
_journal_name_full 'CSD Communication(Private Communication) '
loop_
_publ_author_name
"ling xu"
_chemical_name_systematic
;
catena-[bis(1-butyl-3-methyl-1H-imidazol-3-ium) 
tris(\m-benzene-1,4-dicarboxylato)-dibromo-tri-manganese]
;
_cell_volume   2262.339
_exptl_crystal_colour 'colorless'
_exptl_crystal_density_diffrn 1.608
_exptl_crystal_description 'block'
_diffrn_ambient_temperature 293
#These two values have been output from a single CSD field.
_refine_ls_R_factor_gt 0.0315
_refine_ls_wR_factor_gt 0.0315
_symmetry_cell_setting monoclinic
_symmetry_space_group_name_H-M 'P 21/c'
_symmetry_Int_Tables_number 14
loop_
_symmetry_equiv_pos_site_id
_symmetry_equiv_pos_as_xyz
1 x,y,z
2 -x,1/2+y,1/2-z
3 -x,-y,-z
4 x,-1/2-y,-1/2+z
_cell_length_a 13.7103(3)
_cell_length_b 10.5170(2)
_cell_length_c 16.7248(4)
_cell_angle_alpha 90
_cell_angle_beta 110.262(3)
_cell_angle_gamma 90
_cell_formula_units_Z 2
loop_
_atom_type_symbol
_atom_type_radius_bond
C 0.68
H 0.23
Br 1.21
Mn 1.61
N 0.68
O 0.68
loop_
_atom_site_label
_atom_site_type_symbol
_atom_site_fract_x
_atom_site_fract_y
_atom_site_fract_z
Mn1 Mn 0.26972(3) 0.91543(4) 0.05717(3)
Mn2 Mn 0.00000 1.00000 0.00000
Br1 Br 0.45350(3) 0.83750(4) 0.08243(3)
O1 O 0.30765(17) 1.0413(2) 0.16574(15)
O2 O 0.14213(17) 1.0001(2) 0.11283(13)
O3 O 0.23791(17) 1.4545(2) 0.46127(15)
O4 O 0.07327(18) 1.3929(2) 0.42840(16)
C1 C 0.1993(2) 1.1468(3) 0.22869(19)
C2 C 0.1078(3) 1.1432(3) 0.2458(2)
H1 H 0.05520 1.08720 0.21630
C3 C 0.0945(2) 1.2230(4) 0.3069(2)
H2 H 0.03340 1.21910 0.31920
C4 C 0.1711(2) 1.3082(3) 0.3496(2)
C5 C 0.2622(2) 1.3134(3) 0.3316(2)
H3 H 0.31390 1.37120 0.36010
C6 C 0.2763(2) 1.2324(3) 0.2713(2)
H4 H 0.33770 1.23560 0.25950
C7 C 0.2171(2) 1.0585(3) 0.16508(18)
C8 C 0.1587(2) 1.3928(3) 0.41841(19)
O5 O 0.2055(2) 0.7365(2) 0.0533(2)
O6 O 0.0635(2) 0.82850(19) -0.03265(15)
C9 C 0.0529(3) 0.6135(3) 0.0044(2)
C10 C 0.0975(3) 0.5146(3) 0.0596(3)
H5 H 0.16360 0.52420 0.10010
C11 C 0.0441(3) 0.4014(3) 0.0548(3)
H6 H 0.07450 0.33530 0.09200
C12 C 0.1109(3) 0.7352(3) 0.0084(2)
N1 N -0.6206(3) 1.4223(3) 0.0421(2)
N2 N -0.5260(3) 1.2939(3) 0.1367(2)
C13 C -0.5874(4) 1.3049(4) 0.0579(3)
H7 H -0.60530 1.23890 0.01850
C14 C -0.5785(5) 1.4876(4) 0.1152(3)
H8 H -0.58930 1.57330 0.12320
C15 C -0.5196(5) 1.4096(4) 0.1735(3)
H9 H -0.48080 1.43020 0.22960
C16 C -0.6907(6) 1.4757(6) -0.0382(3)
H10 H -0.71020 1.41050 -0.08090
H11 H -0.65610 1.54320 -0.05630
H12 H -0.75190 1.50840 -0.02990
C17 C -0.4728(4) 1.1778(4) 0.1781(4)
H13 H -0.49180 1.16200 0.22790
H14 H -0.49930 1.10730 0.13920
C18 C -0.3640(5) 1.1763(7) 0.2038(6)
H15 H -0.34170 1.19050 0.26480
H16 H -0.34800 1.08800 0.19730
C19 C -0.2934(6) 1.2407(10) 0.1801(7)
H17 H -0.30270 1.32940 0.19180
H18 H -0.31650 1.23310 0.11860
C20 C -0.1826(5) 1.2212(9) 0.2093(5)
H19 H -0.15160 1.28130 0.18210
H20 H -0.16810 1.13640 0.19540
H21 H -0.15430 1.23280 0.27000
O5B O -0.2055(2) 0.2635(2) -0.0533(2)
O6B O -0.0635(2) 0.17150(19) 0.03265(15)
C9B C -0.0529(3) 0.3865(3) -0.0044(2)
C10B C -0.0975(3) 0.4854(3) -0.0596(3)
H5B H -0.16360 0.47580 -0.10010
C11B C -0.0441(3) 0.5986(3) -0.0548(3)
H6B H -0.07450 0.66470 -0.09200
C12B C -0.1109(3) 0.2648(3) -0.0084(2)
Mn1B Mn -0.26972(3) 0.08457(4) -0.05717(3)
Br1B Br -0.45350(3) 0.16250(4) -0.08243(3)
O1B O -0.30765(17) -0.0413(2) -0.16574(15)
O2B O -0.14213(17) -0.0001(2) -0.11283(13)
O3B O -0.23791(17) -0.4545(2) -0.46127(15)
O4B O -0.07327(18) -0.3929(2) -0.42840(16)
C1B C -0.1993(2) -0.1468(3) -0.22869(19)
C2B C -0.1078(3) -0.1432(3) -0.2458(2)
H1B H -0.05520 -0.08720 -0.21630
C3B C -0.0945(2) -0.2230(4) -0.3069(2)
H2B H -0.03340 -0.21910 -0.31920
C4B C -0.1711(2) -0.3082(3) -0.3496(2)
C5B C -0.2622(2) -0.3134(3) -0.3316(2)
H3B H -0.31390 -0.37120 -0.36010
C6B C -0.2763(2) -0.2324(3) -0.2713(2)
H4B H -0.33770 -0.23560 -0.25950
C7B C -0.2171(2) -0.0585(3) -0.16508(18)
C8B C -0.1587(2) -0.3928(3) -0.41841(19)
Mn1A Mn -0.26972(3) -0.58457(4) -0.55717(3)
Mn1C Mn 0.26972(3) 1.58457(4) 0.55717(3)
Mn2* Mn 0.00000 0.00000 0.00000
Mn2A Mn 0.00000 -0.50000 -0.50000
Mn2A* Mn 0.00000 1.50000 0.50000
O2B* O -0.14213(17) 0.9999(2) -0.11283(13)
O3A O -0.23791(17) -0.0455(2) 0.03873(15)
O3C O 0.23791(17) 1.0455(2) -0.03873(15)
O4A O -0.07327(18) 0.8929(2) 0.07160(16)
O4C O 0.07327(18) 1.1071(2) -0.07160(16)
O6B* O -0.0635(2) 1.17150(19) 0.03265(15)
#END
