
#######################################################################
#
#                 Cambridge Crystallographic Data Centre
#                                CCDC
#
#######################################################################
#
# If this CIF has been generated from an entry in the Cambridge
# Structural Database, then it will include bibliographic, chemical,
# crystal, experimental, refinement or atomic coordinate data resulting
# from the CCDC's data processing and validation procedures.
#
#######################################################################

data_CSD_CIF_PECKAM
_audit_creation_date 2017-06-26
_audit_creation_method CSD-ConQuest-V1
_database_code_CSD PECKAM
_database_code_depnum_ccdc_archive 'CCDC 1558385'
_chemical_formula_sum 'C68 H54 Mn3 N4 O16'
_chemical_formula_moiety
;
(C56 H32 Mn3 O16 2-)n,2(C6 H11 N2 1+)
;
_journal_coden_Cambridge 1078
_journal_year 2017
_journal_name_full 'CSD Communication(Private Communication) '
loop_
_publ_author_name
"ling xu"
_chemical_name_systematic
;
catena-[bis(1-ethyl-3-methyl-1H-imidazol-3-ium) 
tetrakis(\m-[1,1'-biphenyl]-4,4'-dicarboxylato)-tri-manganese(ii)]
;
_cell_volume   6053.616
_exptl_crystal_colour 'colorless'
_exptl_crystal_density_diffrn 1.479
_exptl_crystal_description 'block'
_diffrn_ambient_temperature 153.0
_refine_special_details
;
The structure is disordered.

;
#These two values have been output from a single CSD field.
_refine_ls_R_factor_gt 0.0787
_refine_ls_wR_factor_gt 0.0787
_symmetry_cell_setting monoclinic
_symmetry_space_group_name_H-M 'C 2/c'
_symmetry_Int_Tables_number 15
loop_
_symmetry_equiv_pos_site_id
_symmetry_equiv_pos_as_xyz
1 x,y,z
2 -x,y,1/2-z
3 1/2+x,1/2+y,z
4 1/2-x,1/2+y,1/2-z
5 -x,-y,-z
6 x,-y,-1/2+z
7 -1/2-x,-1/2-y,-z
8 -1/2+x,-1/2-y,-1/2+z
_cell_length_a 18.2308(7)
_cell_length_b 17.8579(6)
_cell_length_c 18.6949(6)
_cell_angle_alpha 90
_cell_angle_beta 95.948(1)
_cell_angle_gamma 90
_cell_formula_units_Z 4
loop_
_atom_type_symbol
_atom_type_radius_bond
C 0.68
H 0.23
Mn 1.61
N 0.68
O 0.68
loop_
_atom_site_label
_atom_site_type_symbol
_atom_site_fract_x
_atom_site_fract_y
_atom_site_fract_z
Mn1 Mn 0.611020(12) 1.447379(12) -0.188850(12)
Mn2 Mn 0.50000 1.278061(16) -0.25000
C1 C 0.46725(9) 1.35408(9) -0.05971(9)
C2 C 0.45036(11) 1.27806(9) -0.06315(9)
H1 H 0.47140 1.24710 -0.09700
C3 C 0.40353(11) 1.24730(9) -0.01798(9)
H2 H 0.39330 1.19520 -0.02090
C4 C 0.37076(9) 1.29022(9) 0.03178(8)
C5 C 0.38960(11) 1.36566(11) 0.03618(11)
H3 H 0.36980 1.39640 0.07090
C6 C 0.43690(11) 1.39690(11) -0.00939(11)
H4 H 0.44840 1.44870 -0.00560
C7 C 0.51519(9) 1.38991(9) -0.10914(8)
C8 C 0.21294(9) 1.20048(8) 0.16503(8)
C9 C 0.25478(9) 1.15297(9) 0.12677(9)
H5 H 0.24860 1.10030 0.13030
C10 C 0.30479(9) 1.18115(9) 0.08399(10)
H6 H 0.33210 1.14750 0.05760
C11 C 0.31673(9) 1.25830(9) 0.07813(8)
C12 C 0.27463(9) 1.30507(9) 0.11661(8)
H7 H 0.28090 1.35780 0.11370
C13 C 0.2240(1) 1.27672(9) 0.15877(9)
H8 H 0.19580 1.31030 0.18430
C14 C 0.15554(9) 1.17226(9) 0.20995(8)
O1 O 0.53278(6) 1.35512(6) -0.16399(5)
O2 O 0.53924(7) 1.45513(7) -0.09766(7)
O3 O 0.15346(7) 1.10257(6) 0.22231(6)
O4 O 0.11291(7) 1.21969(6) 0.23195(6)
C15 C 0.81535(12) 1.47633(13) -0.07869(13)
C16 C 0.84146(17) 1.4341(2) -0.0199(2)
H9 H 0.81030 1.39870 -0.00010
C17 C 0.91309(18) 1.44348(19) 0.0100(2)
H10 H 0.93070 1.41320 0.04980
C18 C 0.96088(12) 1.49555(12) -0.01570(13)
C19 C 0.93027(11) 1.54187(12) -0.06867(14)
H11 H 0.95880 1.58200 -0.08440
C20 C 0.85809(11) 1.53177(12) -0.10035(14)
H12 H 0.83880 1.56450 -0.13770
C21 C 0.73870(12) 1.46303(13) -0.11561(12)
O5 O 0.70655(8) 1.40367(10) -0.1049(1)
O6 O 0.70900(7) 1.51251(8) -0.15526(9)
C22 C 0.50000 0.65323(16) -0.25000
C23 C 0.56408(14) 0.69224(12) -0.23383(18)
H13 H 0.60910 0.66600 -0.22240
C24 C 0.56383(15) 0.76950(12) -0.23406(19)
H14 H 0.60890 0.79570 -0.22290
C25 C 0.50000 0.80915(16) -0.25000
C26 C 0.50000 0.56878(14) -0.25000
O7 O 0.56209(9) 0.53744(7) -0.24433(10)
C27 C 0.50000 1.04910(13) -0.25000
C28 C 0.45358(16) 1.01023(12) -0.29816(15)
H15 H 0.42100 1.03670 -0.33220
C29 C 0.45305(18) 0.93261(12) -0.29838(18)
H16 H 0.41990 0.90670 -0.33230
C30 C 0.50000 0.89258(17) -0.25000
C31 C 0.50000 1.13274(13) -0.25000
O8 O 0.47560(9) 1.16719(6) -0.30666(7)
N1 N 0.83615(18) 1.1011(2) -0.1163(3)
N2 N 0.7364(2) 1.1962(2) -0.1273(6)
C32 C 0.7988(4) 1.1609(4) -0.1206(16)
H17 H 0.83470 1.19950 -0.11700
C33 C 0.7261(5) 1.1312(3) -0.1608(6)
H18 H 0.67980 1.12220 -0.18780
C34 C 0.7795(2) 1.0753(2) -0.1586(2)
H19 H 0.77590 1.02840 -0.18250
C35 C 0.8938(3) 1.0560(5) -0.0858(4)
H20 H 0.89000 1.00620 -0.10780
H21 H 0.89080 1.05160 -0.03390
H22 H 0.94110 1.07870 -0.09420
C36 C 0.7238(4) 1.2785(4) -0.1165(6)
H23 H 0.76110 1.30400 -0.08270
H24 H 0.71090 1.30780 -0.16100
C37 C 0.66051(18) 1.24557(17) -0.0836(2)
H25 H 0.62780 1.28570 -0.07040
H26 H 0.67880 1.21730 -0.04050
H27 H 0.63320 1.21200 -0.11820
C15D C 1.18465(12) 1.52367(13) 0.07869(13)
C16D C 1.15854(17) 1.5659(2) 0.0199(2)
H9D H 1.18970 1.60130 0.00010
C17D C 1.08691(18) 1.55652(19) -0.0100(2)
H10D H 1.06930 1.58680 -0.04980
C18D C 1.03912(12) 1.50445(12) 0.01570(13)
C19D C 1.06973(11) 1.45813(12) 0.06867(14)
H11D H 1.04120 1.41800 0.08440
C20D C 1.14191(11) 1.46823(12) 0.10035(14)
H12D H 1.16120 1.43550 0.13770
C21D C 1.26130(12) 1.53697(13) 0.11561(12)
O5D O 1.29345(8) 1.59633(10) 0.1049(1)
O6D O 1.29100(7) 1.48749(8) 0.15526(9)
C23A C 0.43592(14) 0.69224(12) -0.26617(18)
H13A H 0.39090 0.66600 -0.27760
C24A C 0.43617(15) 0.76950(12) -0.26594(19)
H14A H 0.39110 0.79570 -0.27710
O7A O 0.43791(9) 0.53744(7) -0.25567(10)
C28A C 0.54642(16) 1.01023(12) -0.20184(15)
H15A H 0.57900 1.03670 -0.16780
C29A C 0.54695(18) 0.93261(12) -0.20162(18)
H16A H 0.58010 0.90670 -0.16770
O8A O 0.52440(9) 1.16719(6) -0.19334(7)
Mn1A Mn 0.388980(12) 1.447379(12) -0.311150(12)
C1A C 0.53275(9) 1.35408(9) -0.44029(9)
C2A C 0.54964(11) 1.27806(9) -0.43685(9)
H1A H 0.52860 1.24710 -0.40300
C3A C 0.59647(11) 1.24730(9) -0.48202(9)
H2A H 0.60670 1.19520 -0.47910
C4A C 0.62924(9) 1.29022(9) -0.53178(8)
C5A C 0.61040(11) 1.36566(11) -0.53618(11)
H3A H 0.63020 1.39640 -0.57090
C6A C 0.56310(11) 1.39690(11) -0.49061(11)
H4A H 0.55160 1.44870 -0.49440
C7A C 0.48481(9) 1.38991(9) -0.39086(8)
C8A C 0.78706(9) 1.20048(8) -0.66503(8)
C9A C 0.74522(9) 1.15297(9) -0.62677(9)
H5A H 0.75140 1.10030 -0.63030
C10A C 0.69521(9) 1.18115(9) -0.58399(10)
H6A H 0.66790 1.14750 -0.55760
C11A C 0.68327(9) 1.25830(9) -0.57813(8)
C12A C 0.72537(9) 1.30507(9) -0.61661(8)
H7A H 0.71910 1.35780 -0.61370
C13A C 0.7760(1) 1.27672(9) -0.65877(9)
H8A H 0.80420 1.31030 -0.68430
C14A C 0.84446(9) 1.17226(9) -0.70995(8)
O1A O 0.46722(6) 1.35512(6) -0.33601(5)
O2A O 0.46076(7) 1.45513(7) -0.40234(7)
O3A O 0.84654(7) 1.10257(6) -0.72231(6)
O4A O 0.88709(7) 1.21969(6) -0.73195(6)
Mn1* Mn 0.611020(12) 0.447379(12) -0.188850(12)
Mn1A* Mn 0.388980(12) 0.447379(12) -0.311150(12)
Mn1D Mn 1.388980(12) 1.552621(12) 0.188850(12)
Mn1F Mn 0.888980(12) 1.052621(12) -0.811150(12)
Mn1G Mn 0.111020(12) 1.052621(12) 0.311150(12)
Mn2F Mn 0.00000 1.221939(16) 0.25000
Mn2F* Mn 1.00000 1.221939(16) -0.75000
O3F O 0.34654(7) 1.39743(6) -0.22231(6)
O3G O 0.65346(7) 1.39743(6) -0.27769(6)
O4F O 0.38709(7) 1.28031(6) -0.23195(6)
O4G O 0.61291(7) 1.28031(6) -0.26805(6)
O5A O 0.29345(8) 1.40367(10) -0.3951(1)
O6A O 0.29100(7) 1.51251(8) -0.34474(9)
O7* O 0.56209(9) 1.53744(7) -0.24433(10)
O7A* O 0.43791(9) 1.53744(7) -0.25567(10)
#END
