
#######################################################################
#
#                 Cambridge Crystallographic Data Centre
#                                CCDC
#
#######################################################################
#
# If this CIF has been generated from an entry in the Cambridge
# Structural Database, then it will include bibliographic, chemical,
# crystal, experimental, refinement or atomic coordinate data resulting
# from the CCDC's data processing and validation procedures.
#
#######################################################################

data_CSD_CIF_PEDPOD
_audit_creation_date 1993-12-06
_audit_creation_method CSD-ConQuest-V1
_database_code_CSD PEDPOD
_chemical_formula_sum 'C36 H64 La2 Li2 O6'
_chemical_formula_moiety
;
(C12 H20 La1 1-)2n,n(C12 H24 Li2 O6 2+)
;
_journal_coden_Cambridge 36
_journal_volume 445
_journal_year 1993
_journal_page_first 85
_journal_name_full 'J.Organomet.Chem. '
loop_
_publ_author_name
"R.Taube"
"H.Windisch"
"F.H.Gorlitz"
"H.Schumann"
_chemical_name_systematic
;
catena(tris(\m~2~-Dioxane)-di-lithium 
bis(tetrakis(\h^3^-allyl)-lanthanum(iii)))
;
_cell_volume   2022.664
_exptl_special_details
;
Dx reported as 1.1452; we calculate 1.45

;
_diffrn_ambient_temperature 110
#These two values have been output from a single CSD field.
_refine_ls_R_factor_gt 0.0496
_refine_ls_wR_factor_gt 0.0496
_symmetry_cell_setting monoclinic
_symmetry_space_group_name_H-M 'P 21/a'
_symmetry_Int_Tables_number 14
loop_
_symmetry_equiv_pos_site_id
_symmetry_equiv_pos_as_xyz
1 x,y,z
2 1/2-x,1/2+y,-z
3 -x,-y,-z
4 -1/2+x,-1/2-y,z
_cell_length_a 11.884(3)
_cell_length_b 15.889(3)
_cell_length_c 11.958(3)
_cell_angle_alpha 90
_cell_angle_beta 116.39(2)
_cell_angle_gamma 90
_cell_formula_units_Z 2
loop_
_atom_type_symbol
_atom_type_radius_bond
C 0.68
H 0.23
La 1.87
Li 0.90
O 0.68
loop_
_atom_site_label
_atom_site_type_symbol
_atom_site_fract_x
_atom_site_fract_y
_atom_site_fract_z
La1 La 0.15714(4) 0.12005(3) 0.34641(4)
Li1 Li -0.5933(12) 0.1650(8) -0.1897(13)
O1 O -0.4337(5) 0.2208(3) -0.1553(5)
O2 O -0.1947(5) 0.2768(4) -0.1226(5)
O3 O -0.5316(5) 0.0640(3) -0.0924(5)
C1 C 0.3731(9) 0.2087(7) 0.5162(9)
C2 C 0.2959(9) 0.2028(6) 0.5764(8)
C3 C 0.2577(9) 0.1275(5) 0.6088(8)
C4 C 0.2788(11) -0.0372(6) 0.4006(9)
C5 C 0.3399(11) 0.0087(6) 0.3457(9)
C6 C 0.2874(10) 0.0442(6) 0.2281(10)
C7 C -0.0421(11) 0.0343(7) 0.1487(11)
C8 C -0.0934(11) 0.0618(9) 0.2237(13)
C9 C -0.0569(11) 0.0484(9) 0.3475(12)
C10 C 0.1409(11) 0.2467(6) 0.1867(10)
C11 C 0.1212(12) 0.2898(7) 0.2724(11)
C12 C 0.028(1) 0.2759(6) 0.3071(12)
C13 C -0.4019(9) 0.3078(5) -0.1442(11)
C14 C -0.2643(9) 0.3215(6) -0.0693(10)
C15 C -0.2741(8) -0.3098(5) 0.1320(9)
C16 C -0.3646(8) 0.1781(6) -0.2106(9)
C17 C -0.5785(8) -0.0206(5) -0.1239(7)
C18 C -0.4110(8) 0.0613(5) 0.0146(8)
H1 H -0.42700 0.33000 -0.22550
H2 H -0.44600 0.33590 -0.10560
H3 H -0.26030 -0.19780 -0.01340
H4 H -0.25330 -0.12000 0.06790
H5 H -0.31830 -0.33900 0.16950
H6 H -0.29760 -0.33140 0.05060
H7 H -0.38350 0.11970 -0.21580
H8 H -0.38790 0.19980 -0.29190
H9? H -0.39730 -0.03590 0.14950
H10 H -0.57610 -0.05140 -0.19080
H11 H -0.35390 0.02990 -0.00480
H12 H -0.38060 0.11720 0.03650
O2C O -0.6947(5) 0.2232(4) -0.1226(5)
Li1C Li -0.0933(12) 0.3350(8) -0.1897(13)
Li1A Li 0.0933(12) -0.3350(8) 0.1897(13)
O1A O -0.0663(5) -0.2792(3) 0.1553(5)
C13A C -0.0981(9) -0.1922(5) 0.1442(11)
C14A C -0.2357(9) -0.1785(6) 0.0693(10)
O2A O -0.3053(5) -0.2232(4) 0.1226(5)
Li1B Li -0.4067(12) -0.1650(8) 0.1897(13)
O1B O -0.5663(5) -0.2208(3) 0.1553(5)
O3B O -0.4684(5) -0.0640(3) 0.0924(5)
C16A C -0.1354(8) -0.3219(6) 0.2106(9)
H7A H -0.11650 -0.38030 0.21580
H8A H -0.11210 -0.30020 0.29190
H1A H -0.07300 -0.17000 0.22550
H2A H -0.05400 -0.16410 0.10560
C15A C -0.2259(8) 0.1902(5) -0.1320(9)
H5A H -0.18170 0.16100 -0.16950
H6A H -0.20240 0.16860 -0.05060
H3A H -0.23970 0.30220 0.01340
H4A H -0.24670 0.38000 -0.06790
C18B C -0.5890(8) -0.0613(5) -0.0146(8)
C17B C -0.4215(8) 0.0206(5) 0.1239(7)
H10B H -0.42390 0.05140 0.19080
H11B H -0.64610 -0.02990 0.00480
H12B H -0.61940 -0.11720 -0.03650
#END
