
#######################################################################
#
#                 Cambridge Crystallographic Data Centre
#                                CCDC
#
#######################################################################
#
# If this CIF has been generated from an entry in the Cambridge
# Structural Database, then it will include bibliographic, chemical,
# crystal, experimental, refinement or atomic coordinate data resulting
# from the CCDC's data processing and validation procedures.
#
#######################################################################

data_CSD_CIF_PEDZUV
_audit_creation_date 2013-02-22
_audit_creation_method CSD-ConQuest-V1
_database_code_CSD PEDZUV
_database_code_depnum_ccdc_archive 'CCDC 881818'
_chemical_formula_sum 'C16 H10 Eu1 Na1 O10'
_chemical_formula_moiety
;
(C16 H8 Eu1 O9 1-)n,n(Na1 1+),n(H2 O1)
;
_journal_coden_Cambridge 119
_journal_volume 1032
_journal_year 2013
_journal_page_first 93
_journal_name_full 'J.Mol.Struct. '
loop_
_publ_author_name
"Chongchen Wang"
"Guangliang Guo"
"Peng Wang"
_chemical_name_systematic
;
catena-(sodium (\m~3~-4,4'-oxydibenzoato)-(\m~3~-oxalato)-europium(iii) 
monohydrate)
;
_cell_volume   1839.837
_exptl_crystal_density_diffrn 1.939
_exptl_special_details
;
The paper describes a number of bonds involving the Na atom which have not 
been represented in the 2D diagram
;
_diffrn_ambient_temperature 293
#These two values have been output from a single CSD field.
_refine_ls_R_factor_gt 0.0675
_refine_ls_wR_factor_gt 0.0675
_symmetry_cell_setting monoclinic
_symmetry_space_group_name_H-M 'P 21/c'
_symmetry_Int_Tables_number 14
loop_
_symmetry_equiv_pos_site_id
_symmetry_equiv_pos_as_xyz
1 x,y,z
2 -x,1/2+y,1/2-z
3 -x,-y,-z
4 x,-1/2-y,-1/2+z
_cell_length_a 15.9180(12)
_cell_length_b 10.9564(10)
_cell_length_c 10.5584(11)
_cell_angle_alpha 90
_cell_angle_beta 92.381(1)
_cell_angle_gamma 90
_cell_formula_units_Z 4
loop_
_atom_type_symbol
_atom_type_radius_bond
C 0.68
H 0.23
Eu 1.74
Na 0.86
O 0.68
loop_
_atom_site_label
_atom_site_type_symbol
_atom_site_fract_x
_atom_site_fract_y
_atom_site_fract_z
Eu1 Eu 0.56025(5) 0.39203(6) 0.37888(6)
Na1 Na -0.3664(4) 0.4002(6) 0.0565(5)
O1 O 0.6995(7) 0.3843(10) 0.2734(10)
O2 O 0.6769(7) 0.2473(10) 0.4213(10)
O3 O 1.4104(7) 0.3954(9) 0.3307(9)
O4 O 1.3460(7) 0.4987(11) 0.4838(10)
O5 O 1.0576(8) 0.1210(13) 0.3219(15)
O6 O 0.5043(6) 0.6033(8) 0.4150(8)
O7 O 0.5549(6) 0.5215(8) 0.1937(8)
O8 O 0.4486(7) 0.7683(9) 0.3176(8)
O9 O 0.4971(6) 0.6827(9) 0.0939(9)
O10 O -0.3658(10) 0.5789(12) -0.0628(12)
H1 H -0.36970 0.56160 -0.14130
H2 H -0.40780 0.62280 -0.04500
C1 C 0.7244(11) 0.2961(16) 0.3439(16)
C2 C 0.8117(11) 0.2488(17) 0.3325(18)
C3 C 0.8695(12) 0.3102(19) 0.2614(19)
H3 H 0.85330 0.37850 0.21420
C4 C 0.9522(13) 0.269(2) 0.261(2)
H4 H 0.99150 0.31150 0.21600
C5 C 0.9765(12) 0.168(2) 0.325(2)
C6 C 0.9189(12) 0.102(2) 0.391(2)
H5 H 0.93590 0.03130 0.43360
C7 C 0.8383(11) 0.1379(18) 0.3929(19)
H6 H 0.79950 0.09030 0.43420
C8 C 1.3471(10) 0.4183(15) 0.3965(15)
C9 C 1.2686(11) 0.3449(17) 0.3707(17)
C10 C 1.1964(12) 0.3777(19) 0.4291(19)
H7 H 1.19560 0.44730 0.47950
C11 C 1.1240(13) 0.306(2) 0.412(2)
H8 H 1.07470 0.32810 0.45040
C12 C 1.1262(12) 0.201(2) 0.338(2)
C13 C 1.1981(11) 0.1718(19) 0.2806(19)
H9 H 1.19930 0.10270 0.22960
C14 C 1.2696(11) 0.2427(17) 0.2964(18)
H10 H 1.31840 0.22090 0.25650
C15 C 0.4858(9) 0.6700(12) 0.3180(12)
C16 C 0.5156(9) 0.6199(12) 0.1890(11)
Eu1* Eu 1.56025(5) 0.39203(6) 0.37888(6)
Eu1B Eu 1.43975(5) 0.60797(6) 0.62112(6)
Eu1B* Eu 0.43975(5) 0.60797(6) 0.62112(6)
Eu1A Eu 0.43975(5) 0.89203(6) 0.12112(6)
O3* O 0.4104(7) 0.3954(9) 0.3307(9)
O4B O 0.6540(7) 0.5013(11) 0.5162(10)
O6B O 0.4957(6) 0.3967(8) 0.5850(8)
O8A O 0.5514(7) 0.2683(9) 0.1824(8)
O9A O 0.5029(6) 0.1827(9) 0.4061(9)
#END
