
#######################################################################
#
#                 Cambridge Crystallographic Data Centre
#                                CCDC
#
#######################################################################
#
# If this CIF has been generated from an entry in the Cambridge
# Structural Database, then it will include bibliographic, chemical,
# crystal, experimental, refinement or atomic coordinate data resulting
# from the CCDC's data processing and validation procedures.
#
#######################################################################

data_CSD_CIF_PEHSED01
_audit_creation_date 2017-10-25
_audit_creation_method CSD-ConQuest-V1
_database_code_CSD PEHSED01
_database_code_depnum_ccdc_archive 'CCDC 1555659'
_chemical_formula_sum 'C48 H42 Cr4 Mn2 N16 O49'
_chemical_formula_moiety
;
(C24 Cr4 Mn2 O48 8-)n,8n(C3 H5 N2 1+),n(H2 O1)
;
_journal_coden_Cambridge 222
_journal_volume 46
_journal_year 2017
_journal_page_first 15130
_journal_name_full 'Dalton Trans. '
loop_
_publ_author_name
"M.Mon"
"J.Vallejo"
"J.Pasan"
"O.Fabelo"
"C.Train"
"M.Verdaguer"
"Shin-ichi Ohkoshi"
"H.Tokoro"
"K.Nakagawa"
"E.Pardo"
_chemical_name_systematic
;
catena-(octakis(imidazolium) 
octakis(\m-oxalato)-tetrakis(oxalato)-tetra-chromium-di-manganese 
monohydrate)
;
_cell_volume  13274.316
_exptl_crystal_colour 'dark blue'
_exptl_crystal_density_diffrn 1.46
_exptl_special_details
;
, Magnetic properties,Proton conductivity

;
_exptl_crystal_description 'prism'
_diffrn_ambient_temperature 45
_diffrn_radiation_probe x-ray
_diffrn_source synchrotron
_diffrn_special_details
;
twin

;
_refine_special_details
;
The SQUEEZE/PLATON program was used.

;
#These two values have been output from a single CSD field.
_refine_ls_R_factor_gt 0.054
_refine_ls_wR_factor_gt 0.054
_symmetry_cell_setting hexagonal
_symmetry_space_group_name_H-M 'P 65 2 2'
_symmetry_Int_Tables_number 179
loop_
_symmetry_equiv_pos_site_id
_symmetry_equiv_pos_as_xyz
1 x,y,z
2 x-y,x,5/6+z
3 -y,x-y,2/3+z
4 -x,-y,1/2+z
5 -x+y,-x,1/3+z
6 y,-x+y,1/6+z
7 -y,-x,1/6-z
8 x-y,-y,-z
9 x,x-y,5/6-z
10 y,x,2/3-z
11 -x+y,y,1/2-z
12 -x,-x+y,1/3-z
_cell_length_a 18.8053(1)
_cell_length_b 18.8053(1)
_cell_length_c 43.3432(4)
_cell_angle_alpha 90
_cell_angle_beta 90
_cell_angle_gamma 120
_cell_formula_units_Z 6
loop_
_atom_type_symbol
_atom_type_radius_bond
C 0.68
H 0.23
Cr 1.39
Mn 1.61
N 0.68
O 0.68
loop_
_atom_site_label
_atom_site_type_symbol
_atom_site_fract_x
_atom_site_fract_y
_atom_site_fract_z
Cr1 Cr 0.37660(6) 0.17090(6) 0.03795(2)
Cr2 Cr 0.18642(5) 0.34301(6) 0.11863(2)
Mn1 Mn 0.52896(5) 0.00000 0.00000
Mn2 Mn 0.51138(3) 0.48862(3) 0.08330
C1 C 0.2130(6) 0.1163(9) 0.0283(3)
C2 C 0.2183(7) 0.0457(6) 0.0438(3)
C3 C 0.4280(4) 0.3015(3) 0.07738(13)
C4 C 0.4710(3) 0.3377(3) 0.04561(12)
C5 C 0.3526(3) 0.4403(3) 0.11712(14)
C6 C 0.3275(3) 0.4111(3) 0.08400(14)
C7 C 0.0841(4) 0.1917(4) 0.09435(19)
C8 C 0.1507(4) 0.1843(4) 0.1127(2)
C9 C 0.6785(4) 0.1131(3) -0.03663(13)
C10 C 0.7187(3) 0.1052(3) -0.00678(13)
C11 C 0.4419(3) 0.1023(3) 0.00003(13)
C12 C 0.4830(4) 0.1127(4) 0.03151(14)
O1 O 0.2827(3) 0.1783(3) 0.02322(14)
O2 O 0.1474(5) 0.1079(7) 0.0215(2)
O3 O 0.2916(4) 0.0630(3) 0.05067(14)
O4 O 0.1590(5) -0.0203(5) 0.0495(2)
O5 O 0.3815(3) 0.2251(2) 0.07758(9)
O6 O 0.4445(3) 0.3494(2) 0.09848(9)
O7 O 0.4559(3) 0.2844(3) 0.02492(9)
O8 O 0.5155(3) 0.4132(3) 0.04346(10)
O9 O 0.4274(2) 0.4820(2) 0.12252(10)
O10 O 0.2952(2) 0.4206(2) 0.13673(9)
O11 O 0.3785(2) 0.4316(3) 0.06393(9)
O12 O 0.2492(2) 0.3665(3) 0.07963(10)
O13 O 0.0872(2) 0.2596(3) 0.09754(12)
O14 O 0.0328(3) 0.1324(4) 0.07967(17)
O15 O 0.2022(3) 0.2499(3) 0.12687(11)
O16 O 0.1493(3) 0.1186(3) 0.11318(18)
O17 O 0.7287(3) 0.1566(2) -0.05714(10)
O18 O 0.6043(2) 0.0783(2) -0.03826(10)
O19 O 0.7946(2) 0.1320(2) -0.00832(10)
O20 O 0.6733(2) 0.0738(3) 0.01569(10)
O21 O 0.4581(3) 0.0674(3) -0.02054(10)
O22 O 0.3905(3) 0.1279(3) -0.00157(9)
O23 O 0.5328(3) 0.0876(3) 0.03476(10)
O24 O 0.4643(3) 0.1496(3) 0.05191(9)
O25 O 0.0270(3) 0.9730(3) 0.08330
C13 C 0.00000 0.0237(5) 0.16670
H1 H 0.00000 -0.02680 0.16670
N1 N 0.0498(5) 0.0868(7) 0.1841(2)
H2 H 0.08660 0.08990 0.19740
C14 C 0.0313(6) 0.1453(5) 0.1768(2)
H3 H 0.05790 0.19970 0.18480
Cr1F Cr 0.82910(6) 0.62340(6) 0.128717(20)
Cr2F Cr 0.65699(5) 0.81358(6) 0.048037(20)
C1F C 0.8837(6) 0.7870(9) 0.138367(300)
C2F C 0.9543(7) 0.7817(6) 0.122867(300)
C3F C 0.6985(4) 0.5720(3) 0.089287(130)
C4F C 0.6623(3) 0.5290(3) 0.121057(120)
C5F C 0.5597(3) 0.6474(3) 0.049547(140)
C6F C 0.5889(3) 0.6725(3) 0.082667(140)
C7F C 0.8083(4) 0.9159(4) 0.072317(190)
C8F C 0.8157(4) 0.8493(4) 0.053967(200)
C11F C 0.8977(3) 0.5581(3) 0.166637(130)
C12F C 0.8873(4) 0.5170(4) 0.135157(140)
O1F O 0.8217(3) 0.7173(3) 0.143447(140)
O2F O 0.8921(5) 0.8526(7) 0.145167(200)
O3F O 0.9370(4) 0.7084(3) 0.115997(140)
O4F O 1.0203(5) 0.8410(5) 0.117167(200)
O5F O 0.7749(3) 0.6185(2) 0.089087(90)
O6F O 0.6506(3) 0.5555(2) 0.068187(90)
O7F O 0.7156(3) 0.5441(3) 0.141747(90)
O8F O 0.5868(3) 0.4845(3) 0.123207(100)
O9F O 0.5180(2) 0.5726(2) 0.044147(100)
O10F O 0.5794(2) 0.7048(2) 0.029937(90)
O11F O 0.5684(2) 0.6215(3) 0.102737(90)
O12F O 0.6335(2) 0.7508(3) 0.087037(100)
O13F O 0.7404(2) 0.9128(3) 0.069127(120)
O14F O 0.8676(3) 0.9672(4) 0.086997(170)
O15F O 0.7501(3) 0.7978(3) 0.039797(110)
O16F O 0.8814(3) 0.8507(3) 0.053487(180)
O21F O 0.9326(3) 0.5419(3) 0.187207(100)
O22F O 0.8721(3) 0.6095(3) 0.168237(90)
O23F O 0.9124(3) 0.4672(3) 0.131907(100)
O24F O 0.8504(3) 0.5357(3) 0.114757(90)
C9E C 0.1131(4) 0.4346(3) 0.130037(130)
C10E C 0.1052(3) 0.3865(3) 0.159887(130)
O17E O 0.1566(3) 0.4279(2) 0.109527(100)
O18E O 0.0783(2) 0.4740(2) 0.128407(100)
O19E O 0.1320(2) 0.3374(2) 0.158347(100)
O20E O 0.0738(2) 0.4005(3) 0.182357(100)
Cr2A Cr 0.84341(5) 0.18642(6) -0.048037(20)
Mn1E Mn 0.00000(5) 0.47104 0.16667
Mn1E* Mn 1.00000(5) 0.47104 0.16667
O17G O 0.5721(3) 0.8434(2) 0.05714(10)
O18G O 0.5260(2) -0.0783(2) 0.03826(10)
O19G O 0.6626(2) 0.8680(2) 0.00832(10)
O20G O 0.5995(2) -0.0738(3) -0.01569(10)
O21G O 0.3907(3) -0.0674(3) 0.02054(10)
O23G O 0.4452(3) -0.0876(3) -0.03476(10)
N1K N -0.0498(5) 0.0370(7) 0.149233(200)
H2K H -0.08660 0.00330 0.13593
C14K C -0.0313(6) 0.1140(5) 0.156533(200)
H3K H -0.05790 0.14180 0.14853
#END
