
#######################################################################
#
#                 Cambridge Crystallographic Data Centre
#                                CCDC
#
#######################################################################
#
# If this CIF has been generated from an entry in the Cambridge
# Structural Database, then it will include bibliographic, chemical,
# crystal, experimental, refinement or atomic coordinate data resulting
# from the CCDC's data processing and validation procedures.
#
#######################################################################

data_CSD_CIF_PEJFUG
_audit_creation_date 2006-10-05
_audit_creation_method CSD-ConQuest-V1
_database_code_CSD PEJFUG
_database_code_depnum_ccdc_archive 'CCDC 294860'
_chemical_formula_sum 'C6 H24 Ga4 N3 O27 P5'
_chemical_formula_moiety
;
(C2 H2 Ga4 O24 P5 3-)n,n(C4 H16 N3 3+),3n(H2 O1)
;
_journal_coden_Cambridge 208
_journal_volume 179
_journal_year 2006
_journal_page_first 1931
_journal_name_full 'J.Solid State Chem. '
loop_
_publ_author_name
"Zhenxia Chen"
"Songliang Tan"
"Linhong Weng"
"Yaming Zhou"
"Xiang Gao"
"Dongyuan Zhao"
_chemical_name_systematic
;
catena-[Diethylenetriammonium 
bis(\m~4~-phosphato)-bis(\m~3~-phosphato)-(\m~2~-dihydrogen 
phosphato)-(\m~2~-oxalato)-tetra-gallium(iii) trihydrate]
;
_cell_volume   2758.673
_exptl_crystal_colour 'colorless'
_exptl_crystal_density_diffrn 2.461
_exptl_crystal_description 'lamellar'
_diffrn_ambient_temperature 293
_refine_special_details
;
The cation and some water molecules are disordered and some of the electron 
density has been removed using SQUEEZE/PLATON.
;
#These two values have been output from a single CSD field.
_refine_ls_R_factor_gt 0.0491
_refine_ls_wR_factor_gt 0.0491
_symmetry_cell_setting monoclinic
_symmetry_space_group_name_H-M 'C 2/c'
_symmetry_Int_Tables_number 15
loop_
_symmetry_equiv_pos_site_id
_symmetry_equiv_pos_as_xyz
1 x,y,z
2 1/2+x,1/2+y,z
3 -x,y,1/2-z
4 1/2-x,1/2+y,1/2-z
5 -x,-y,-z
6 -1/2-x,-1/2-y,-z
7 x,-y,-1/2+z
8 -1/2+x,-1/2-y,-1/2+z
_cell_length_a 20.131(5)
_cell_length_b 15.670(4)
_cell_length_c 9.097(2)
_cell_angle_alpha 90
_cell_angle_beta 105.988(4)
_cell_angle_gamma 90
_cell_formula_units_Z 4
loop_
_atom_type_symbol
_atom_type_radius_bond
C 0.68
Ga 1.22
N 0.68
O 0.68
P 1.05
loop_
_atom_site_label
_atom_site_type_symbol
_atom_site_fract_x
_atom_site_fract_y
_atom_site_fract_z
O1 O 0.0886(13) 0.3871(14) 0.617(3)
O2 O 0.4103(12) 0.9206(15) 0.226(2)
Ga1 Ga 0.16196(3) 1.13569(4) 0.33238(7)
Ga2 Ga 0.25196(5) 0.88372(5) 0.43563(8)
P1 P 0.21073(8) 0.97965(10) 0.13595(16)
P2 P 0.14413(9) 1.23309(11) 0.00449(18)
P3 P 0.00000 1.18896(17) 0.25000
C1 C 0.2198(3) 1.2757(4) 0.5113(7)
O3 O 0.1608(2) 1.2459(3) 0.4585(5)
O4 O 0.2339(2) 1.3458(3) 0.5826(5)
O5 O 0.0630(2) 1.1334(3) 0.2696(5)
O6 O 0.1697(3) 1.2136(3) 0.1726(5)
O7 O 0.1707(3) 1.0351(3) 0.2178(5)
O8 O 0.2566(3) 0.9160(3) 0.2477(5)
O9 O 0.1596(2) 0.9328(3) 0.0082(5)
O10 O 0.2625(3) 1.0308(3) 0.0745(5)
O11 O 0.1678(3) 1.1646(4) -0.0905(6)
O12 O 0.1740(3) 1.3190(3) -0.0275(5)
O13 O 0.0663(3) 1.2381(4) -0.0562(6)
O14 O 0.0073(4) 1.2489(6) 0.3867(12)
C2? C 0.0343(11) -0.0819(16) 0.1770(13)
C3? C -0.0212(7) -0.0184(10) 0.0434(18)
N1? N 0.00000 -0.099(3) 0.25000
N2? N 0.00000 0.471(16) 0.75000
N3? N 0.00000 0.397(4) 0.75000
Ga1E Ga 0.33804(3) 1.36431(4) 0.66762(7)
Ga1F Ga 0.16196(3) 0.86431(4) -0.16762(7)
Ga1B Ga -0.16196(3) 1.13569(4) 0.16762(7)
Ga1F* Ga 0.16196(3) 0.86431(4) 0.83238(7)
Ga2F Ga 0.25196(5) 1.11628(5) 0.93563(8)
Ga2F* Ga 0.25196(5) 1.11628(5) -0.06437(8)
Ga2C Ga 0.24804(5) 1.38372(5) 0.06437(8)
Ga2E Ga 0.24804(5) 0.61628(5) 0.56437(8)
P1F P 0.21073(8) 1.02035(10) 0.63595(16)
P2F P 0.14413(9) 0.76691(11) 0.50449(18)
C1E C 0.2802(3) 1.2243(4) 0.4887(7)
O3E O 0.3392(2) 1.2541(3) 0.5415(5)
O4E O 0.2661(2) 1.1542(3) 0.4174(5)
O5B O -0.0630(2) 1.1334(3) 0.2304(5)
O5E O 0.4370(2) 1.3666(3) 0.7304(5)
O6F O 0.1697(3) 0.7864(3) 0.6726(5)
O6E O 0.3303(3) 1.2864(3) 0.8274(5)
O7F O 0.1707(3) 0.9649(3) 0.7178(5)
O7E O 0.3293(3) 1.4649(3) 0.7822(5)
O8F O 0.2566(3) 1.0840(3) 0.7477(5)
O9F O 0.1596(2) 1.0672(3) 0.5082(5)
O9C O 0.3404(2) 1.4328(3) 0.4918(5)
O10F O 0.2625(3) 0.9692(3) 0.5745(5)
O10* O 0.2625(3) 1.0308(3) 1.0745(5)
O11F O 0.1678(3) 0.8354(4) 0.4095(6)
O11* O 0.1678(3) 1.1646(4) 0.9095(6)
O12F O 0.1740(3) 0.6810(3) 0.4725(5)
O12C O 0.3260(3) 0.8190(3) 0.5275(5)
O12E O 0.3260(3) 1.1810(3) 1.0275(5)
O13F O 0.0663(3) 0.7619(4) 0.4438(6)
O14B O -0.0073(4) 1.2489(6) 0.1133(12)
#END
