
#######################################################################
#
#                 Cambridge Crystallographic Data Centre
#                                CCDC
#
#######################################################################
#
# If this CIF has been generated from an entry in the Cambridge
# Structural Database, then it will include bibliographic, chemical,
# crystal, experimental, refinement or atomic coordinate data resulting
# from the CCDC's data processing and validation procedures.
#
#######################################################################

data_CSD_CIF_PEJMUO
_audit_creation_date 2013-03-18
_audit_creation_method CSD-ConQuest-V1
_database_code_CSD PEJMUO
_database_code_depnum_ccdc_archive 'CCDC 890921'
_chemical_formula_sum 'C48 H44 Cu16 N36 O68'
_chemical_formula_moiety
;
(C48 H24 Cu16 N36 O60 4-)n,4n(H3 O1 1+),4n(H2 O1)
;
_journal_coden_Cambridge 1147
_journal_volume 12
_journal_year 2012
_journal_page_first 5456
_journal_name_full 'Cryst.Growth Des. '
loop_
_publ_author_name
"Tingting Zhao"
"Xuemin Jing"
"Jing Wang"
"Dongmei Wang"
"Guanghua Li"
"Qisheng Huo"
"Yunling Liu"
_chemical_name_systematic
;
catena-(tetrakis(oxonium) 
dodecakis((\m~3~-1,2,3-triazole-4,5-dicarboxylato)-(aqua))-hexadeca-copper 
tetrahydrate)
;
_cell_volume  11475.429
_exptl_crystal_colour 'blue'
_exptl_crystal_density_diffrn 0.935
_exptl_crystal_description 'block'
_diffrn_ambient_temperature 296
_refine_special_details
;
Cu1,N1,O3 and Cu1',N1',O3' disordered over two sites with occupancies 
0.50:0.50; N2 disordered by symmetry over two sites with occupancy 0.50.
;
#These two values have been output from a single CSD field.
_refine_ls_R_factor_gt 0.0647
_refine_ls_wR_factor_gt 0.0647
_symmetry_cell_setting cubic
_symmetry_space_group_name_H-M 'P m -3 n'
_symmetry_Int_Tables_number 223
loop_
_symmetry_equiv_pos_site_id
_symmetry_equiv_pos_as_xyz
1 x,y,z
2 -x,-y,z
3 -x,y,-z
4 x,-y,-z
5 z,x,y
6 z,-x,-y
7 -z,-x,y
8 -z,x,-y
9 y,z,x
10 -y,z,-x
11 y,-z,-x
12 -y,-z,x
13 1/2+y,1/2+x,1/2-z
14 1/2-y,1/2-x,1/2-z
15 1/2+y,1/2-x,1/2+z
16 1/2-y,1/2+x,1/2+z
17 1/2+x,1/2+z,1/2-y
18 1/2-x,1/2+z,1/2+y
19 1/2-x,1/2-z,1/2-y
20 1/2+x,1/2-z,1/2+y
21 1/2+z,1/2+y,1/2-x
22 1/2+z,1/2-y,1/2+x
23 1/2-z,1/2+y,1/2+x
24 1/2-z,1/2-y,1/2-x
25 -x,-y,-z
26 x,y,-z
27 x,-y,z
28 -x,y,z
29 -z,-x,-y
30 -z,x,y
31 z,x,-y
32 z,-x,y
33 -y,-z,-x
34 y,-z,x
35 -y,z,x
36 y,z,-x
37 -1/2-y,-1/2-x,-1/2+z
38 -1/2+y,-1/2+x,-1/2+z
39 -1/2-y,-1/2+x,-1/2-z
40 -1/2+y,-1/2-x,-1/2-z
41 -1/2-x,-1/2-z,-1/2+y
42 -1/2+x,-1/2-z,-1/2-y
43 -1/2+x,-1/2+z,-1/2+y
44 -1/2-x,-1/2+z,-1/2-y
45 -1/2-z,-1/2-y,-1/2+x
46 -1/2-z,-1/2+y,-1/2-x
47 -1/2+z,-1/2-y,-1/2-x
48 -1/2+z,-1/2+y,-1/2+x
_cell_length_a 22.5557(3)
_cell_length_b 22.5557(3)
_cell_length_c 22.5557(3)
_cell_angle_alpha 90
_cell_angle_beta 90
_cell_angle_gamma 90
_cell_formula_units_Z 2
loop_
_atom_type_symbol
_atom_type_radius_bond
C 0.68
Cu 1.32
N 0.68
O 0.68
loop_
_atom_site_label
_atom_site_type_symbol
_atom_site_fract_x
_atom_site_fract_y
_atom_site_fract_z
O1 O 0.1553(13) 0.50000 0.00000
O2 O 0.3332(16) 0.1625(16) 0.00000
O3 O 0.1436(12) 0.1436(12) 0.1436(12)
Cu1 Cu 0.5000(7) 0.1874(6) 0.23640
Cu2 Cu 0.25000 0.25000 0.25000
O4 O 0.43701(16) 0.24728(12) 0.24567(19)
O5 O 0.34068(14) 0.25989(13) 0.24766(14)
O6 O 0.50000 0.1936(7) 0.1349(7)
N1 N 0.4333(9) 0.1336(9) 0.2340(6)
N2 N 0.4237(7) 0.0756(7) 0.2328(5)
C1 C 0.38010(19) 0.16270(18) 0.2496(3)
C2 C 0.3845(2) 0.22775(19) 0.2478(2)
Cu3? Cu 0.2420(6) 0.3120(7) 0.00000
N3? N 0.2379(6) 0.3648(8) 0.0677(8)
O7? O 0.1406(8) 0.3037(8) 0.00000
Cu1M Cu 0.3126(7) 0.0000(6) 0.26360
Cu1D Cu 0.2364(7) 0.5000(6) 0.18740
Cu1W Cu 0.2636(7) 0.3126(6) 0.00000
Cu1H Cu 0.1874(7) 0.2364(6) 0.50000
Cu1R Cu 0.0000(7) 0.2636(6) 0.31260
Cu1L Cu 0.6874(7) 0.0000(6) 0.26360
Cu1A Cu 0.5000(7) -0.1874(6) 0.23640
Cu1V Cu 0.2636(7) 0.6874(6) 0.00000
Cu1E Cu 0.2364(7) 0.5000(6) -0.18740
Cu1S Cu 0.0000(7) 0.2636(6) 0.68740
Cu1I Cu -0.1874(7) 0.2364(6) 0.50000
Cu1F Cu 0.7636(7) 0.5000(6) 0.18740
Cu1U Cu 0.7364(7) 0.3126(6) 0.00000
Cu1I* Cu 0.8126(7) 0.2364(6) 0.50000
Cu1R* Cu 1.0000(7) 0.2636(6) 0.31260
Cu1P Cu 0.0000(7) -0.2636(6) 0.31260
Cu1J Cu 0.1874(7) -0.2364(6) 0.50000
Cu2AA Cu 0.75000 0.25000 0.25000
Cu2Z Cu 0.25000 -0.25000 0.25000
Cu2Z* Cu 0.25000 0.75000 0.25000
Cu2Y Cu 0.25000 0.25000 -0.25000
Cu2Y* Cu 0.25000 0.25000 0.75000
Cu2AA* Cu -0.25000 0.25000 0.25000
O4M O 0.25272(16) 0.06299(12) 0.25433(19)
O4D O 0.24567(16) 0.43701(12) 0.24728(19)
O4W O 0.25433(16) 0.25272(12) 0.06299(19)
O4H O 0.24728(16) 0.24567(12) 0.43701(19)
O4R O 0.06299(16) 0.25433(12) 0.25272(19)
O4AA O 0.56299(16) 0.24728(12) 0.24567(19)
O4MA O 0.74728(16) 0.06299(12) 0.25433(19)
O4LA O 0.25272(16) -0.06299(12) 0.25433(19)
O4Z O 0.43701(16) -0.24728(12) 0.24567(19)
O4EA O 0.24567(16) 0.56299(12) 0.24728(19)
O4SA O 0.25433(16) 0.74728(12) 0.06299(19)
O4RA O 0.25433(16) 0.25272(12) -0.06299(19)
O4DA O 0.24567(16) 0.43701(12) -0.24728(19)
O4IA O 0.24728(16) 0.24567(12) 0.56299(19)
O4NA O 0.06299(16) 0.25433(12) 0.74728(19)
O4OA O -0.06299(16) 0.25433(12) 0.25272(19)
O4HA O -0.24728(16) 0.24567(12) 0.43701(19)
O4CA O 0.75433(16) 0.43701(12) 0.24728(19)
O4TA O 0.74567(16) 0.25272(12) 0.06299(19)
O4HA* O 0.75272(16) 0.24567(12) 0.43701(19)
O4OA* O 0.93701(16) 0.25433(12) 0.25272(19)
O4QA O 0.06299(16) -0.25433(12) 0.25272(19)
O4GA O 0.24728(16) -0.24567(12) 0.43701(19)
O4L O 0.74728(16) -0.06299(12) 0.25433(19)
O4A O 0.56299(16) -0.24728(12) 0.24567(19)
O4V O 0.25433(16) 0.74728(12) -0.06299(19)
O4E O 0.24567(16) 0.56299(12) -0.24728(19)
O4S O -0.06299(16) 0.25433(12) 0.74728(19)
O4I O -0.24728(16) 0.24567(12) 0.56299(19)
O5M O 0.24011(14) 0.15932(13) 0.25234(14)
O5D O 0.24766(14) 0.34068(13) 0.25989(14)
O5W O 0.25234(14) 0.24011(13) 0.15932(14)
O5H O 0.25989(14) 0.24766(13) 0.34068(14)
O5R O 0.15932(14) 0.25234(13) 0.24011(14)
O5AA O 0.65932(14) 0.25989(13) 0.24766(14)
O5MA O 0.75989(14) 0.15932(13) 0.25234(14)
O5LA O 0.24011(14) -0.15932(13) 0.25234(14)
O5Z O 0.34068(14) -0.25989(13) 0.24766(14)
O5EA O 0.24766(14) 0.65932(13) 0.25989(14)
O5SA O 0.25234(14) 0.75989(13) 0.15932(14)
O5RA O 0.25234(14) 0.24011(13) -0.15932(14)
O5DA O 0.24766(14) 0.34068(13) -0.25989(14)
O5IA O 0.25989(14) 0.24766(13) 0.65932(14)
O5NA O 0.15932(14) 0.25234(13) 0.75989(14)
O5OA O -0.15932(14) 0.25234(13) 0.24011(14)
O5HA O -0.25989(14) 0.24766(13) 0.34068(14)
O5CA O 0.75234(14) 0.34068(13) 0.25989(14)
O5TA O 0.74766(14) 0.24011(13) 0.15932(14)
O5HA* O 0.74011(14) 0.24766(13) 0.34068(14)
O5OA* O 0.84068(14) 0.25234(13) 0.24011(14)
O5QA O 0.15932(14) -0.25234(13) 0.24011(14)
O5GA O 0.25989(14) -0.24766(13) 0.34068(14)
O5SA* O 0.25234(14) -0.24011(13) 0.15932(14)
O5EA* O 0.24766(14) -0.34068(13) 0.25989(14)
O5GA* O 0.25989(14) 0.75234(13) 0.34068(14)
O5Z* O 0.34068(14) 0.74011(13) 0.24766(14)
O5LA* O 0.24011(14) 0.84068(13) 0.25234(14)
O5QA* O 0.15932(14) 0.74766(13) 0.24011(14)
O6M O 0.30640 0.0000(7) 0.3651(7)
O6D O 0.13490 0.5000(7) 0.1936(7)
O6W O 0.36510 0.3064(7) 0.0000(7)
O6H O 0.19360 0.1349(7) 0.5000(7)
O6R O 0.00000 0.3651(7) 0.3064(7)
O6L O 0.69360 0.0000(7) 0.3651(7)
O6A O 0.50000 -0.1936(7) 0.1349(7)
O6V O 0.36510 0.6936(7) 0.0000(7)
O6E O 0.13490 0.5000(7) -0.1936(7)
O6S O 0.00000 0.3651(7) 0.6936(7)
O6I O -0.19360 0.1349(7) 0.5000(7)
N1M N 0.3664(9) 0.0667(9) 0.2660(6)
N1D N 0.2340(9) 0.4333(9) 0.1336(6)
N1W N 0.2660(9) 0.3664(9) 0.0667(6)
N1H N 0.1336(9) 0.2340(9) 0.4333(6)
N1R N 0.0667(9) 0.2660(9) 0.3664(6)
N1AA N 0.5667(9) 0.1336(9) 0.2340(6)
N1MA N 0.6336(9) 0.0667(9) 0.2660(6)
N1LA N 0.3664(9) -0.0667(9) 0.2660(6)
N1Z N 0.4333(9) -0.1336(9) 0.2340(6)
N1EA N 0.2340(9) 0.5667(9) 0.1336(6)
N1SA N 0.2660(9) 0.6336(9) 0.0667(6)
N1RA N 0.2660(9) 0.3664(9) -0.0667(6)
N1DA N 0.2340(9) 0.4333(9) -0.1336(6)
N1IA N 0.1336(9) 0.2340(9) 0.5667(6)
N1NA N 0.0667(9) 0.2660(9) 0.6336(6)
N1OA N -0.0667(9) 0.2660(9) 0.3664(6)
N1HA N -0.1336(9) 0.2340(9) 0.4333(6)
N1CA N 0.7660(9) 0.4333(9) 0.1336(6)
N1TA N 0.7340(9) 0.3664(9) 0.0667(6)
N1HA* N 0.8664(9) 0.2340(9) 0.4333(6)
N1OA* N 0.9333(9) 0.2660(9) 0.3664(6)
N1QA N 0.0667(9) -0.2660(9) 0.3664(6)
N1GA N 0.1336(9) -0.2340(9) 0.4333(6)
N1L N 0.6336(9) -0.0667(9) 0.2660(6)
N1A N 0.5667(9) -0.1336(9) 0.2340(6)
N1V N 0.2660(9) 0.6336(9) -0.0667(6)
N1E N 0.2340(9) 0.5667(9) -0.1336(6)
N1S N -0.0667(9) 0.2660(9) 0.6336(6)
N1I N -0.1336(9) 0.2340(9) 0.5667(6)
N2M N 0.4244(7) 0.0763(7) 0.2672(5)
N2D N 0.2328(7) 0.4237(7) 0.0756(5)
N2W N 0.2672(7) 0.4244(7) 0.0763(5)
N2H N 0.0756(7) 0.2328(7) 0.4237(5)
N2R N 0.0763(7) 0.2672(7) 0.4244(5)
N2AA N 0.5763(7) 0.0756(7) 0.2328(5)
N2MA N 0.5756(7) 0.0763(7) 0.2672(5)
N2LA N 0.4244(7) -0.0763(7) 0.2672(5)
N2Z N 0.4237(7) -0.0756(7) 0.2328(5)
N2EA N 0.2328(7) 0.5763(7) 0.0756(5)
N2SA N 0.2672(7) 0.5756(7) 0.0763(5)
N2RA N 0.2672(7) 0.4244(7) -0.0763(5)
N2DA N 0.2328(7) 0.4237(7) -0.0756(5)
N2IA N 0.0756(7) 0.2328(7) 0.5763(5)
N2NA N 0.0763(7) 0.2672(7) 0.5756(5)
N2OA N -0.0763(7) 0.2672(7) 0.4244(5)
N2HA N -0.0756(7) 0.2328(7) 0.4237(5)
N2CA N 0.7672(7) 0.4237(7) 0.0756(5)
N2TA N 0.7328(7) 0.4244(7) 0.0763(5)
N2HA* N 0.9244(7) 0.2328(7) 0.4237(5)
N2OA* N 0.9237(7) 0.2672(7) 0.4244(5)
N2QA N 0.0763(7) -0.2672(7) 0.4244(5)
N2GA N 0.0756(7) -0.2328(7) 0.4237(5)
C1M C 0.33730(19) 0.11990(18) 0.2504(3)
C1D C 0.24960(19) 0.38010(18) 0.1627(3)
C1W C 0.25040(19) 0.33730(18) 0.1199(3)
C1H C 0.16270(19) 0.24960(18) 0.3801(3)
C1R C 0.11990(19) 0.25040(18) 0.3373(3)
C1AA C 0.61990(19) 0.16270(18) 0.2496(3)
C1MA C 0.66270(19) 0.11990(18) 0.2504(3)
C1LA C 0.33730(19) -0.11990(18) 0.2504(3)
C1Z C 0.38010(19) -0.16270(18) 0.2496(3)
C1EA C 0.24960(19) 0.61990(18) 0.1627(3)
C1SA C 0.25040(19) 0.66270(18) 0.1199(3)
C1RA C 0.25040(19) 0.33730(18) -0.1199(3)
C1DA C 0.24960(19) 0.38010(18) -0.1627(3)
C1IA C 0.16270(19) 0.24960(18) 0.6199(3)
C1NA C 0.11990(19) 0.25040(18) 0.6627(3)
C1OA C -0.11990(19) 0.25040(18) 0.3373(3)
C1HA C -0.16270(19) 0.24960(18) 0.3801(3)
C1CA C 0.75040(19) 0.38010(18) 0.1627(3)
C1TA C 0.74960(19) 0.33730(18) 0.1199(3)
C1HA* C 0.83730(19) 0.24960(18) 0.3801(3)
C1OA* C 0.88010(19) 0.25040(18) 0.3373(3)
C1QA C 0.11990(19) -0.25040(18) 0.3373(3)
C1GA C 0.16270(19) -0.24960(18) 0.3801(3)
C2M C 0.27225(20) 0.11550(19) 0.2522(2)
C2D C 0.2478(2) 0.38450(19) 0.22775(20)
C2W C 0.2522(2) 0.27225(19) 0.1155(2)
C2H C 0.22775(20) 0.24780(19) 0.3845(2)
C2R C 0.1155(2) 0.25220(19) 0.27225(20)
C2AA C 0.6155(2) 0.22775(19) 0.2478(2)
C2MA C 0.72775(20) 0.11550(19) 0.2522(2)
C2LA C 0.27225(20) -0.11550(19) 0.2522(2)
C2Z C 0.3845(2) -0.22775(19) 0.2478(2)
C2EA C 0.2478(2) 0.61550(19) 0.22775(20)
C2SA C 0.2522(2) 0.72775(19) 0.1155(2)
C2RA C 0.2522(2) 0.27225(19) -0.1155(2)
C2DA C 0.2478(2) 0.38450(19) -0.22775(20)
C2IA C 0.22775(20) 0.24780(19) 0.6155(2)
C2NA C 0.1155(2) 0.25220(19) 0.72775(20)
C2OA C -0.1155(2) 0.25220(19) 0.27225(20)
C2HA C -0.22775(20) 0.24780(19) 0.3845(2)
C2CA C 0.7522(2) 0.38450(19) 0.22775(20)
C2TA C 0.7478(2) 0.27225(19) 0.1155(2)
C2HA* C 0.77225(20) 0.24780(19) 0.3845(2)
C2OA* C 0.8845(2) 0.25220(19) 0.27225(20)
C2QA C 0.1155(2) -0.25220(19) 0.27225(20)
C2GA C 0.22775(20) -0.24780(19) 0.3845(2)
#END
