
#######################################################################
#
#                 Cambridge Crystallographic Data Centre
#                                CCDC
#
#######################################################################
#
# If this CIF has been generated from an entry in the Cambridge
# Structural Database, then it will include bibliographic, chemical,
# crystal, experimental, refinement or atomic coordinate data resulting
# from the CCDC's data processing and validation procedures.
#
#######################################################################

data_CSD_CIF_PEJNUP
_audit_creation_date 2013-03-18
_audit_creation_method CSD-ConQuest-V1
_database_code_CSD PEJNUP
_database_code_depnum_ccdc_archive 'CCDC 893092'
_chemical_formula_sum 'C37 H41 N3 O19 Zn3'
_chemical_formula_moiety
;
(C2 H8 N1 1+)2n,n(C5 H12 N1 1+),n(C27 H9 O18 Zn3 3-),n(C1 H4 O1)
;
_journal_coden_Cambridge 1147
_journal_volume 12
_journal_year 2012
_journal_page_first 5471
_journal_name_full 'Cryst.Growth Des. '
loop_
_publ_author_name
"M.J.Manos"
"E.E.Moushi"
"G.S.Papaefstathiou"
"A.J.Tasiopoulos"
_chemical_name_systematic
;
catena-(bis(Dimethylammonium) piperidinium 
tris(\m~4~-benzene-1,3,5-tricarboxylato)-tri-zinc methanol solvate)
;
_cell_volume   3520.878
_exptl_crystal_colour 'colorless'
_exptl_crystal_density_diffrn 0.965
_exptl_crystal_description 'plate'
_diffrn_ambient_temperature 100
_refine_special_details
;
C21,O10 disordered by symmetry over two sites with occupancy 0.50; 
C16,C17,C18,C19,C20,N1 disordered by symmetry over two sites with occupancy 
0.50; The SQUEEZE/PLATON program has been used to model some disorder.
;
#These two values have been output from a single CSD field.
_refine_ls_R_factor_gt 0.073
_refine_ls_wR_factor_gt 0.073
_symmetry_cell_setting monoclinic
_symmetry_space_group_name_H-M 'P 2/c'
_symmetry_Int_Tables_number 13
loop_
_symmetry_equiv_pos_site_id
_symmetry_equiv_pos_as_xyz
1 x,y,z
2 -x,y,1/2-z
3 -x,-y,-z
4 x,-y,-1/2+z
_cell_length_a 16.965(4)
_cell_length_b 15.5171(13)
_cell_length_c 14.0726(14)
_cell_angle_alpha 90
_cell_angle_beta 108.119(18)
_cell_angle_gamma 90
_cell_formula_units_Z 2
loop_
_atom_type_symbol
_atom_type_radius_bond
C 0.68
H 0.23
N 0.68
O 0.68
Zn 1.22
loop_
_atom_site_label
_atom_site_type_symbol
_atom_site_fract_x
_atom_site_fract_y
_atom_site_fract_z
Zn1 Zn 0.51225(4) 0.70437(3) -0.36364(4)
Zn2 Zn 0.00000 0.95650(7) -0.75000
O1 O 0.4806(3) 0.3193(2) -0.5067(2)
O2 O 0.4988(4) 0.1947(2) -0.4323(3)
O3 O 0.5101(3) 0.5848(2) -0.3238(2)
O4 O 0.4054(3) 0.7540(3) -0.3751(3)
O5 O 0.3954(3) 0.7663(3) -0.2221(2)
O6 O 0.0556(3) 0.8836(3) -0.6372(3)
O7 O 0.1709(3) 0.8407(4) -0.6684(3)
O8 O 0.0658(3) 0.9785(4) -0.3125(3)
O9 O 0.1538(3) 0.9227(4) -0.1749(3)
O10 O 0.0149(10) 0.0484(10) 0.5081(14)
C1 C 0.4973(3) 0.4069(3) -0.3359(3)
H1 H 0.49630 0.43700 -0.39350
C2 C 0.4959(4) 0.3183(3) -0.3380(3)
C3 C 0.50000 0.2740(5) -0.25000
H2 H 0.50000 0.21400 -0.25000
C4 C 0.50000 0.4526(4) -0.25000
C5 C 0.4912(4) 0.2723(3) -0.4315(3)
C6 C 0.50000 0.5484(4) -0.25000
C7 C 0.1339(4) 0.8918(5) -0.4369(4)
H3 H 0.08330 0.91960 -0.46400
C8 C 0.1700(4) 0.8546(5) -0.5001(4)
C9 C 0.2456(4) 0.8164(4) -0.4604(4)
H4 H 0.27090 0.79140 -0.50350
C10 C 0.2868(4) 0.8136(4) -0.3570(4)
C11 C 0.2438(4) 0.8502(4) -0.2945(4)
H5 H 0.26700 0.84690 -0.22540
C12 C 0.1684(4) 0.8906(5) -0.3348(4)
C13 C 0.3679(4) 0.7746(4) -0.3150(4)
C14 C 0.1313(5) 0.8598(5) -0.6089(4)
C15 C 0.1296(5) 0.9343(5) -0.2665(5)
C16 C -0.1256(8) -0.1312(9) 0.4427(10)
H6 H -0.11120 -0.08380 0.40510
C17 C -0.2149(8) -0.1053(10) 0.4093(14)
H7 H -0.22360 -0.05810 0.45010
H8 H -0.23130 -0.08640 0.34020
C18 C -0.2654(10) -0.1820(9) 0.4198(12)
H9 H -0.24820 -0.20260 0.48820
H10 H -0.32390 -0.16760 0.40030
C19 C -0.2489(8) -0.2485(11) 0.3509(12)
H11 H -0.28140 -0.29960 0.35270
H12 H -0.26740 -0.22630 0.28310
C20 C -0.1588(7) -0.2740(7) 0.3764(11)
H13 H -0.15050 -0.31580 0.32930
H14 H -0.13810 -0.29740 0.44360
C21 C 0.0647(9) 0.1004(11) 0.4619(9)
H15 H 0.03330 0.14720 0.42200
H16 H 0.09060 0.06610 0.42230
N1 N -0.1200(7) -0.1930(6) 0.3686(7)
Zn1C Zn 0.51225(4) 1.29563(3) -0.86364(4)
Zn1B Zn 0.48775(4) 0.29563(3) -0.63636(4)
Zn1A Zn 0.48775(4) 0.70437(3) -0.13636(4)
Zn1C* Zn 0.51225(4) 0.29563(3) 0.13636(4)
Zn1B* Zn 0.48775(4) 1.29563(3) -0.63636(4)
Zn2B Zn 0.00000 1.04350(7) -0.25000
Zn2B* Zn 0.00000 1.04350(7) -1.25000
O1A O 0.5194(3) 0.3193(2) 0.0067(2)
O1B O 0.5194(3) 0.6807(2) -0.4933(2)
O1A* O 0.5194(3) 1.3193(2) -0.9933(2)
O2A O 0.5012(4) 0.1947(2) -0.0677(3)
O3A O 0.4899(3) 0.5848(2) -0.1762(2)
O3C O 0.5101(3) 1.4152(2) -0.8238(2)
O4C O 0.4054(3) 1.2460(3) -0.8751(3)
O5C O 0.3954(3) 1.2337(3) -0.7221(2)
O5A O 0.6046(3) 0.7663(3) -0.2779(2)
O5B O 0.6046(3) 1.2337(3) -0.7779(2)
O6C O 0.0556(3) 1.1164(3) -1.1372(3)
O6A O -0.0556(3) 0.8836(3) -0.8628(3)
O7C O 0.1709(3) 1.1593(4) -1.1684(3)
O8C O 0.0658(3) 1.0215(4) -0.8125(3)
O8B O -0.0658(3) 1.0215(4) -0.6875(3)
O9C O 0.1538(3) 1.0773(4) -0.6749(3)
O10B O -0.0149(10) -0.0484(10) 0.4919(14)
C1A C 0.5027(3) 0.4069(3) -0.1641(3)
H1A H 0.50370 0.43700 -0.10650
C2A C 0.5041(4) 0.3183(3) -0.1620(3)
C5A C 0.5088(4) 0.2723(3) -0.0685(3)
C7C C 0.1339(4) 1.1082(5) -0.9369(4)
H3C H 0.08330 1.08040 -0.96400
C8C C 0.1700(4) 1.1454(5) -1.0001(4)
C9C C 0.2456(4) 1.1836(4) -0.9604(4)
H4C H 0.27090 1.20860 -1.00350
C10C C 0.2868(4) 1.1864(4) -0.8570(4)
C11C C 0.2438(4) 1.1498(4) -0.7945(4)
H5C H 0.26700 1.15310 -0.72540
C12C C 0.1684(4) 1.1094(5) -0.8348(4)
C13C C 0.3679(4) 1.2254(4) -0.8150(4)
C14C C 0.1313(5) 1.1402(5) -1.1089(4)
C15C C 0.1296(5) 1.0657(5) -0.7665(5)
C21B C -0.0647(9) -0.1004(11) 0.5381(9)
H15B H -0.03330 -0.14720 0.57800
H16B H -0.09060 -0.06610 0.57770
#END
