
#######################################################################
#
#                 Cambridge Crystallographic Data Centre
#                                CCDC
#
#######################################################################
#
# If this CIF has been generated from an entry in the Cambridge
# Structural Database, then it will include bibliographic, chemical,
# crystal, experimental, refinement or atomic coordinate data resulting
# from the CCDC's data processing and validation procedures.
#
#######################################################################

data_CSD_CIF_PEJNOJ
_audit_creation_date 2013-03-18
_audit_creation_method CSD-ConQuest-V1
_database_code_CSD PEJNOJ
_database_code_depnum_ccdc_archive 'CCDC 893091'
_chemical_formula_sum 'C21 H35 N2 O12 Zn1'
_chemical_formula_moiety
;
(C6 H16 N1 O3 1+)2n,n(C9 H3 O6 Zn1 2-)
;
_journal_coden_Cambridge 1147
_journal_volume 12
_journal_year 2012
_journal_page_first 5471
_journal_name_full 'Cryst.Growth Des. '
loop_
_publ_author_name
"M.J.Manos"
"E.E.Moushi"
"G.S.Papaefstathiou"
"A.J.Tasiopoulos"
_chemical_name_systematic
;
catena-(bis(Triethanolammonium) tris(benzene-1,3,5-tricarboxylato)-zinc)
;
_cell_volume   8505.905
_exptl_crystal_colour 'colorless'
_exptl_crystal_description 'polyhedral'
_diffrn_ambient_temperature 100
_refine_special_details
;
The SQUEEZE/PLATON program has been used to model some disorder.

;
#These two values have been output from a single CSD field.
_refine_ls_R_factor_gt 0.0503
_refine_ls_wR_factor_gt 0.0503
_symmetry_cell_setting cubic
_symmetry_space_group_name_H-M 'I -4 3 d'
_symmetry_Int_Tables_number 220
loop_
_symmetry_equiv_pos_site_id
_symmetry_equiv_pos_as_xyz
1 x,y,z
2 -x,1/2-y,z
3 x,-y,1/2-z
4 1/2-x,y,-z
5 z,x,y
6 y,z,x
7 -z,1/2-x,y
8 1/2-y,z,-x
9 z,-x,1/2-y
10 -y,1/2-z,x
11 1/2-z,x,-y
12 y,-z,1/2-x
13 1/4+y,1/4+x,1/4+z
14 3/4-y,1/4-x,1/4+z
15 1/4-y,1/4+x,3/4-z
16 1/4+y,3/4-x,1/4-z
17 1/4+x,1/4+z,1/4+y
18 1/4+z,1/4+y,1/4+x
19 3/4-x,1/4-z,1/4+y
20 1/4+z,3/4-y,1/4-x
21 1/4-x,1/4+z,3/4-y
22 3/4-z,1/4-y,1/4+x
23 1/4+x,3/4-z,1/4-y
24 1/4-z,1/4+y,3/4-x
25 1/2+x,1/2+y,1/2+z
26 1/2-x,-y,1/2+z
27 1/2+x,1/2-y,-z
28 -x,1/2+y,1/2-z
29 1/2+z,1/2+x,1/2+y
30 1/2+y,1/2+z,1/2+x
31 1/2-z,-x,1/2+y
32 -y,1/2+z,1/2-x
33 1/2+z,1/2-x,-y
34 1/2-y,-z,1/2+x
35 -z,1/2+x,1/2-y
36 1/2+y,1/2-z,-x
37 3/4+y,3/4+x,3/4+z
38 1/4-y,3/4-x,3/4+z
39 3/4-y,3/4+x,1/4-z
40 3/4+y,1/4-x,3/4-z
41 3/4+x,3/4+z,3/4+y
42 3/4+z,3/4+y,3/4+x
43 1/4-x,3/4-z,3/4+y
44 3/4+z,1/4-y,3/4-x
45 3/4-x,3/4+z,1/4-y
46 1/4-z,3/4-y,3/4+x
47 3/4+x,1/4-z,3/4-y
48 3/4-z,3/4+y,1/4-x
_cell_length_a 20.413(5)
_cell_length_b 20.413(5)
_cell_length_c 20.413(5)
_cell_angle_alpha 90
_cell_angle_beta 90
_cell_angle_gamma 90
_cell_formula_units_Z 12
loop_
_atom_type_symbol
_atom_type_radius_bond
C 0.68
H 0.23
O 0.68
Zn 1.22
loop_
_atom_site_label
_atom_site_type_symbol
_atom_site_fract_x
_atom_site_fract_y
_atom_site_fract_z
Zn1 Zn 0.75000 0.87500 0.50000
O1 O 0.67168(17) 0.92101(15) 0.47335(17)
O2 O 0.68232(19) 0.9898(2) 0.55671(19)
C1 C 0.5716(2) 1.0607(2) 0.5155(2)
H1 H 0.59350 1.07570 0.55250
C2 C 0.5943(2) 1.0065(2) 0.4839(2)
C3 C 0.6540(2) 0.9712(2) 0.5080(3)
Zn1H Zn 0.50000 1.25000 0.62500
Zn1N Zn 0.37500 1.00000 0.25000
O1C O 0.82832(17) 0.92101(15) 0.52665(17)
O1S O 0.72335(17) 0.82899(15) 0.57832(17)
O1SA O 0.77665(17) 0.82899(15) 0.42168(17)
O1HA O 0.52665(17) 1.17168(15) 0.57899(17)
O1IA O 0.42101(17) 1.02665(15) 0.32832(17)
O2HA O 0.44329(19) 1.18232(20) 0.51020(19)
O2IA O 0.48980(19) 0.94329(20) 0.31768(19)
C1IA C 0.5607(2) 0.9845(2) 0.4284(2)
C1HA C 0.4845(2) 1.0716(2) 0.4393(2)
H1IA H 0.57570 0.94750 0.40650
H1HA H 0.44750 1.09350 0.42430
C2HA C 0.5161(2) 1.0943(2) 0.4935(2)
C2IA C 0.5065(2) 1.0161(2) 0.4057(2)
C3HA C 0.4920(2) 1.1540(2) 0.5288(3)
C3IA C 0.4712(2) 0.9920(2) 0.3460(3)
#END
