
#######################################################################
#
#                 Cambridge Crystallographic Data Centre
#                                CCDC
#
#######################################################################
#
# If this CIF has been generated from an entry in the Cambridge
# Structural Database, then it will include bibliographic, chemical,
# crystal, experimental, refinement or atomic coordinate data resulting
# from the CCDC's data processing and validation procedures.
#
#######################################################################

data_CSD_CIF_PEJPEB
_audit_creation_date 2013-03-18
_audit_creation_method CSD-ConQuest-V1
_database_code_CSD PEJPEB
_database_code_depnum_ccdc_archive 'CCDC 893094'
_chemical_formula_sum 'C49 H65 N7 O24 Zn3'
_chemical_formula_moiety
;
(C8 H20 N2 O2 2+)n,n(C2 H8 N1 1+),n(C27 H9 O18 Zn3 3-),4n(C3 H7 N1 O1)
;
_journal_coden_Cambridge 1147
_journal_volume 12
_journal_year 2012
_journal_page_first 5471
_journal_name_full 'Cryst.Growth Des. '
loop_
_publ_author_name
"M.J.Manos"
"E.E.Moushi"
"G.S.Papaefstathiou"
"A.J.Tasiopoulos"
_chemical_name_systematic
;
catena-((Dimethylammonium) 1,4-bis(2-hydroxyethyl)piperidinium 
tris(\m~4~-benzene-1,3,5-tricarboxylato)-tri-zinc dimethylformamide solvate)
;
_cell_volume  28595.524
_exptl_crystal_colour 'colorless'
_exptl_crystal_density_diffrn 1.384
_exptl_crystal_description 'needle'
_diffrn_ambient_temperature 100
#These two values have been output from a single CSD field.
_refine_ls_R_factor_gt 0.053
_refine_ls_wR_factor_gt 0.053
_symmetry_cell_setting rhombohedral
_symmetry_space_group_name_H-M 'R -3'
_symmetry_Int_Tables_number 148
loop_
_symmetry_equiv_pos_site_id
_symmetry_equiv_pos_as_xyz
1 x,y,z
2 -y,x-y,z
3 -x+y,-x,z
4 2/3+x,1/3+y,1/3+z
5 2/3-y,1/3+x-y,1/3+z
6 2/3-x+y,1/3-x,1/3+z
7 1/3+x,2/3+y,2/3+z
8 1/3-y,2/3+x-y,2/3+z
9 1/3-x+y,2/3-x,2/3+z
10 -x,-y,-z
11 y,-x+y,-z
12 x-y,x,-z
13 -2/3-x,-1/3-y,-1/3-z
14 -2/3+y,-1/3-x+y,-1/3-z
15 -2/3+x-y,-1/3+x,-1/3-z
16 -1/3-x,-2/3-y,-2/3-z
17 -1/3+y,-2/3-x+y,-2/3-z
18 -1/3+x-y,-2/3+x,-2/3-z
_cell_length_a 43.8139(8)
_cell_length_b 43.8139(8)
_cell_length_c 17.2006(3)
_cell_angle_alpha 90
_cell_angle_beta 90
_cell_angle_gamma 120
_cell_formula_units_Z 18
loop_
_atom_type_symbol
_atom_type_radius_bond
C 0.68
H 0.23
N 0.68
O 0.68
Zn 1.22
loop_
_atom_site_label
_atom_site_type_symbol
_atom_site_fract_x
_atom_site_fract_y
_atom_site_fract_z
Zn1 Zn 0.49428(2) 0.17553(2) 0.17631(4)
Zn2 Zn 0.50945(2) 0.15504(2) -0.00463(4)
Zn3 Zn 0.66948(2) 0.077890(19) 0.06903(4)
O1 O 0.53575(14) 0.17065(15) 0.1835(3)
O2 O 0.54411(16) 0.15570(17) 0.0646(3)
O3 O 0.62284(15) 0.10610(15) 0.0262(3)
O4 O 0.64124(13) 0.09131(13) 0.1334(2)
O5 O 0.63767(14) 0.14264(13) 0.3856(3)
O6 O 0.62674(16) 0.18549(15) 0.3891(3)
O7 O 0.46486(14) 0.11453(14) 0.0283(3)
O8 O 0.45410(14) 0.13033(16) 0.1421(3)
O9 O 0.29470(12) 0.01201(13) 0.1860(3)
O10 O 0.33217(12) 0.06266(14) 0.2441(3)
O11 O 0.39423(14) -0.01440(13) -0.0355(3)
O12 O 0.34242(12) -0.04524(12) 0.0192(3)
O13 O 0.50435(14) 0.19664(14) -0.0111(3)
O14 O 0.49089(16) 0.20818(15) 0.1058(3)
O15 O 0.5114(3) 0.2766(3) -0.2276(4)
O16 O 0.47476(14) 0.29590(13) -0.2234(2)
O17 O 0.41832(12) 0.29658(13) 0.0190(2)
O18 O 0.42469(17) 0.27168(16) 0.1255(3)
O19 O 0.29708(16) 0.07844(17) 0.5466(3)
H1 H 0.31230 0.08150 0.57830
O20 O 0.3825(3) 0.2034(3) 0.1698(7)
H2 H 0.39690 0.22050 0.14490
O21 O 0.36490(18) 0.15931(16) 0.5283(4)
O22 O 0.4028(4) 0.2317(4) 0.3545(9)
O23 O 0.6635(5) 0.2232(5) 0.0990(11)
O24 O 0.1805(3) 0.8957(3) 0.6429(6)
N1 N 0.34274(18) 0.1079(2) 0.4231(4)
N2 N 0.3678(3) 0.1640(3) 0.3028(5)
N3 N 0.3849(2) 0.18944(19) 0.6468(5)
N4 N 0.3963(2) 0.2764(2) 0.3256(5)
N5 N 0.6944(3) 0.2217(4) 0.2089(8)
N6 N 0.2090(3) 0.9404(3) 0.5541(6)
N7 N 0.6424(6) 0.2041(5) 0.9522(13)
C1 C 0.55016(19) 0.15970(19) 0.1371(4)
C2 C 0.57723(17) 0.15133(18) 0.1661(3)
C3 C 0.58944(18) 0.13461(17) 0.1196(4)
H3 H 0.58210 0.12980 0.06810
C4 C 0.61278(17) 0.12470(17) 0.1489(3)
C5 C 0.62425(18) 0.13282(18) 0.2256(4)
H4 H 0.63910 0.12540 0.24600
C6 C 0.61351(18) 0.15213(18) 0.2727(4)
C7 C 0.58940(18) 0.16065(18) 0.2424(3)
H5 H 0.58130 0.17260 0.27300
C8 C 0.62670(19) 0.10647(19) 0.0972(4)
C9 C 0.6267(2) 0.16077(19) 0.3529(4)
C10 C 0.44650(17) 0.10951(19) 0.0861(4)
C11 C 0.41253(17) 0.07502(18) 0.0929(4)
C12 C 0.38655(18) 0.07190(19) 0.1429(4)
H6 H 0.39080 0.09080 0.17470
C13 C 0.35446(17) 0.04128(18) 0.1465(4)
C14 C 0.34925(17) 0.01192(17) 0.1028(4)
H7 H 0.32800 -0.00920 0.10620
C15 C 0.37581(18) 0.01437(18) 0.0545(4)
C16 C 0.40733(18) 0.04685(18) 0.0487(4)
H8 H 0.42480 0.04920 0.01450
C17 C 0.32571(18) 0.03906(19) 0.1977(4)
C18 C 0.37099(18) -0.01724(18) 0.0092(4)
C19 C 0.49260(19) 0.21048(19) 0.0333(4)
C20 C 0.48121(19) 0.23452(19) -0.0023(4)
C21 C 0.46201(17) 0.24585(18) 0.0400(4)
H9 H 0.45740 0.23980 0.09220
C22 C 0.44982(19) 0.26557(18) 0.0070(4)
C23 C 0.4773(2) 0.2658(2) -0.1129(4)
C24 C 0.45790(19) 0.2764(2) -0.0695(4)
H10 H 0.45020 0.29070 -0.09160
C25 C 0.4897(2) 0.2454(2) -0.0798(4)
H11 H 0.50350 0.23880 -0.10860
C26 C 0.4886(2) 0.2802(2) -0.1948(4)
C27 C 0.42903(18) 0.27891(19) 0.0555(4)
C28 C 0.2973(2) 0.0563(2) 0.4822(5)
H12 H 0.29190 0.03350 0.50280
H13 H 0.27880 0.05240 0.44570
C29 C 0.3303(2) 0.0714(2) 0.4410(5)
H14 H 0.34770 0.06960 0.47270
H15 H 0.32730 0.05840 0.39330
C30 C 0.3190(2) 0.1136(2) 0.3684(5)
H16 H 0.31280 0.09750 0.32480
H17 H 0.29750 0.10820 0.39530
C31 C 0.3345(3) 0.1469(4) 0.3416(7)
H18 H 0.33670 0.16160 0.38570
H19 H 0.31780 0.14790 0.30630
C32 C 0.3935(3) 0.1586(3) 0.3539(8)
H20 H 0.41510 0.16610 0.32510
H21 H 0.39920 0.17350 0.39960
C33 C 0.3792(3) 0.1216(3) 0.3789(6)
H22 H 0.39590 0.12000 0.41320
H23 H 0.37570 0.10690 0.33390
C34 C 0.3635(3) 0.1493(3) 0.2202(7)
H24 H 0.36480 0.12780 0.22050
H25 H 0.34100 0.14410 0.19860
C35 C 0.3934(3) 0.1775(3) 0.1731(6)
H26 H 0.41590 0.18640 0.19920
H27 H 0.39470 0.16910 0.12170
C36 C 0.3718(2) 0.1590(2) 0.5981(5)
C37 C 0.3868(3) 0.2204(2) 0.6125(8)
H28 H 0.39440 0.23870 0.65110
H29 H 0.36390 0.21480 0.59360
H30 H 0.40330 0.22850 0.57020
C38 C 0.3958(4) 0.1899(4) 0.7267(5)
H31 H 0.40170 0.21200 0.75030
H32 H 0.41610 0.18680 0.72760
H33 H 0.37690 0.17110 0.75510
C39 C 0.4161(4) 0.2642(4) 0.3683(11)
C40 C 0.4100(3) 0.3140(2) 0.3262(7)
H34 H 0.39520 0.31950 0.29530
H35 H 0.43350 0.32580 0.30500
H36 H 0.41070 0.32180 0.37860
C41 C 0.3649(3) 0.2536(4) 0.2802(8)
H37 H 0.35640 0.26750 0.25530
H38 H 0.34690 0.23670 0.31390
H39 H 0.37060 0.24150 0.24140
C42 C 0.6780(5) 0.2087(5) 0.1340(9)
C43 C 0.6859(5) 0.2443(5) 0.2553(10)
H40 H 0.69880 0.25000 0.30330
H41 H 0.66110 0.23210 0.26610
H42 H 0.69230 0.26550 0.22710
C44 C 0.7122(3) 0.2042(3) 0.2413(7)
H43 H 0.72210 0.21430 0.29090
H44 H 0.73070 0.20700 0.20680
H45 H 0.69560 0.17950 0.24770
C45 C 0.1803(3) 0.9201(3) 0.6061(8)
C46 C 0.2096(4) 0.9689(3) 0.5111(7)
H46 H 0.23060 0.98020 0.47990
H47 H 0.20950 0.98570 0.54660
H48 H 0.18930 0.95980 0.47800
C47 C 0.2437(3) 0.9444(6) 0.5600(12)
H49 H 0.25860 0.96020 0.52010
H50 H 0.24200 0.92190 0.55350
H51 H 0.25350 0.95380 0.61010
C48 C 0.6369(4) 0.1702(5) 0.9261(9)
H52 H 0.62750 0.15360 0.96800
H53 H 0.65900 0.17270 0.90960
H54 H 0.62070 0.16200 0.88330
C49 C 0.6581(7) 0.2360(7) 0.9046(15)
H55 H 0.65900 0.25510 0.93400
H56 H 0.64400 0.23200 0.85890
H57 H 0.68150 0.24180 0.88970
Zn1N Zn 0.652083(20) 0.160947(20) 0.490357(40)
Zn2M Zn 0.488373(20) 0.312257(20) -0.328703(40)
Zn3Q Zn 0.258257(20) 0.002813(19) 0.264303(40)
Zn3I Zn 0.33052(2) -0.077890(19) -0.06903(4)
Zn3B Zn 0.40841(2) 0.330520(19) 0.06903(4)
O5M O 0.475973(140) 0.171637(130) 0.281067(300)
O9P O 0.678677(120) 0.050643(130) 0.147333(300)
O12I O 0.65758(12) 0.04524(12) -0.0192(3)
O16N O 0.512193(140) 0.141427(130) -0.109933(200)
O17A O 0.70342(12) 0.12174(13) 0.0190(2)
#END
