
#######################################################################
#
#                 Cambridge Crystallographic Data Centre
#                                CCDC
#
#######################################################################
#
# If this CIF has been generated from an entry in the Cambridge
# Structural Database, then it will include bibliographic, chemical,
# crystal, experimental, refinement or atomic coordinate data resulting
# from the CCDC's data processing and validation procedures.
#
#######################################################################

data_CSD_CIF_PEJPOL
_audit_creation_date 2013-03-18
_audit_creation_method CSD-ConQuest-V1
_database_code_CSD PEJPOL
_database_code_depnum_ccdc_archive 'CCDC 893096'
_chemical_formula_sum 'C41 H41 N3 O22 Zn4'
_chemical_formula_moiety
;
(C2 H8 N1 1+)n,n(C39 H33 N2 O22 Zn4 1-)
;
_journal_coden_Cambridge 1147
_journal_volume 12
_journal_year 2012
_journal_page_first 5471
_journal_name_full 'Cryst.Growth Des. '
loop_
_publ_author_name
"M.J.Manos"
"E.E.Moushi"
"G.S.Papaefstathiou"
"A.J.Tasiopoulos"
_chemical_name_systematic
;
catena-((Dimethylammonium) 
tris(\m~4~-benzene-1,3,5-tricarboxylato)-bis(2-(morpholin-4-yl)ethanolato)-tet
ra-zinc)
;
_cell_volume   5937.041
_exptl_crystal_colour 'colorless'
_exptl_crystal_density_diffrn 1.33
_exptl_crystal_description 'polyhedral'
_diffrn_ambient_temperature 100
_refine_special_details
;
The SQUEEZE/PLATON program has been used to model some disorder.

;
#These two values have been output from a single CSD field.
_refine_ls_R_factor_gt 0.0648
_refine_ls_wR_factor_gt 0.0648
_symmetry_cell_setting monoclinic
_symmetry_space_group_name_H-M 'I 2/a'
_symmetry_Int_Tables_number 15
loop_
_symmetry_equiv_pos_site_id
_symmetry_equiv_pos_as_xyz
1 x,y,z
2 1/2-x,y,-z
3 1/2+x,1/2+y,1/2+z
4 -x,1/2+y,1/2-z
5 -x,-y,-z
6 -1/2+x,-y,z
7 -1/2-x,-1/2-y,-1/2-z
8 x,-1/2-y,-1/2+z
_cell_length_a 18.5152(4)
_cell_length_b 15.2446(3)
_cell_length_c 21.4278(5)
_cell_angle_alpha 90
_cell_angle_beta 100.999(2)
_cell_angle_gamma 90
_cell_formula_units_Z 4
loop_
_atom_type_symbol
_atom_type_radius_bond
C 0.68
H 0.23
N 0.68
O 0.68
Zn 1.22
loop_
_atom_site_label
_atom_site_type_symbol
_atom_site_fract_x
_atom_site_fract_y
_atom_site_fract_z
Zn1 Zn 0.30984(4) 0.42764(5) 0.94846(4)
Zn2 Zn 0.56730(5) 0.35163(6) 0.58813(4)
O1 O 0.3490(3) 0.3872(4) 0.8267(3)
O2 O 0.4028(3) 0.4343(3) 0.9219(2)
O3 O 0.6599(3) 0.5069(4) 0.9724(2)
O4 O 0.7233(3) 0.5227(4) 0.8949(2)
O5 O 0.5072(3) 0.3714(4) 0.6569(2)
O6 O 0.6264(3) 0.3799(4) 0.6880(2)
O7 O 0.2931(3) 0.3062(4) 0.9695(3)
O8 O 0.0828(3) 0.0224(4) 1.0604(3)
O9 O 0.1471(3) -0.0979(4) 1.0515(3)
O10 O 0.4851(4) 0.3479(4) 0.5090(3)
O11 O 0.6135(6) 0.1146(8) 0.6795(6)
N1 N 0.5758(4) 0.2182(5) 0.5683(4)
C1 C 0.4030(4) 0.4122(5) 0.8643(4)
C2 C 0.4770(4) 0.4215(4) 0.8445(3)
C3 C 0.5379(4) 0.4536(5) 0.8870(3)
H1 H 0.53310 0.46820 0.92820
C4 C 0.6047(4) 0.4639(5) 0.8692(3)
C5 C 0.6131(4) 0.4395(5) 0.8080(3)
H2 H 0.65870 0.44460 0.79610
C6 C 0.5525(4) 0.4075(5) 0.7650(3)
C7 C 0.4856(4) 0.3995(5) 0.7832(4)
H3 H 0.44540 0.37900 0.75410
C8 C 0.6682(4) 0.5004(5) 0.9155(4)
C9 C 0.5625(5) 0.3843(5) 0.6995(4)
C10 C 0.25000 0.2685(8) 1.00000
C11 C 0.25000 0.1724(7) 1.00000
C12 C 0.25000 -0.0076(8) 1.00000
H4 H 0.25000 -0.06860 1.00000
C13 C 0.1962(5) 0.0356(5) 1.0235(4)
C14 C 0.1970(5) 0.1243(5) 1.0247(4)
H5 H 0.16190 0.15410 1.04220
C15 C 0.1360(5) -0.0163(6) 1.0475(4)
C16 C 0.4838(6) 0.2633(7) 0.4786(6)
H6 H 0.47260 0.27040 0.43270
H7 H 0.44600 0.22680 0.49090
C17 C 0.5605(7) 0.2186(9) 0.4990(5)
H8 H 0.55940 0.15920 0.48260
H9 H 0.59800 0.25140 0.48290
C18 C 0.6478(7) 0.1789(10) 0.5882(6)
H10 H 0.68320 0.21380 0.57110
H11 H 0.64690 0.12100 0.56930
C19 C 0.6741(7) 0.1700(8) 0.6574(6)
H12 H 0.67890 0.22700 0.67790
H13 H 0.72120 0.14020 0.66650
C20 C 0.5415(8) 0.1538(10) 0.6639(7)
H14 H 0.54200 0.21040 0.68460
H15 H 0.50600 0.11670 0.67920
C21 C 0.5179(8) 0.1660(9) 0.5892(6)
H16 H 0.51300 0.10940 0.56820
H17 H 0.47100 0.19630 0.57890
Zn1A Zn 0.19016(4) 0.42764(5) 1.05154(4)
Zn1D Zn -0.30984(4) 0.57236(5) 1.05154(4)
Zn1D* Zn 0.69016(4) 0.57236(5) 1.05154(4)
Zn1E Zn -0.19016(4) 0.57236(5) 0.94846(4)
Zn1E* Zn 0.80984(4) 0.57236(5) 0.94846(4)
Zn2A Zn -0.06730(5) 0.35163(6) 1.41187(4)
Zn2B Zn 0.06730(5) -0.14837(6) 1.08813(4)
Zn2C Zn 0.43270(5) -0.14837(6) 0.91187(4)
O1A O 0.1510(3) 0.3872(4) 1.1733(3)
O2A O 0.0972(3) 0.4343(3) 1.0781(2)
O3A O -0.1599(3) 0.5069(4) 1.0276(2)
O3D O 0.3401(3) 0.4931(4) 1.0276(2)
O3E O 0.1599(3) 0.4931(4) 0.9724(2)
O4A O -0.2233(3) 0.5227(4) 1.1051(2)
O4D O 0.2767(3) 0.4773(4) 1.1051(2)
O4E O 0.2233(3) 0.4773(4) 0.8949(2)
O5A O -0.0072(3) 0.3714(4) 1.3431(2)
O6A O -0.1264(3) 0.3799(4) 1.3120(2)
O7A O 0.2069(3) 0.3062(4) 1.0305(3)
O8A O 0.4172(3) 0.0224(4) 0.9396(3)
O9A O 0.3529(3) -0.0979(4) 0.9485(3)
O9B O 0.6471(3) 0.4021(4) 0.5515(3)
O9C O -0.1471(3) 0.4021(4) 1.4485(3)
O10A O 0.0149(4) 0.3479(4) 1.4910(3)
O11A O -0.1135(6) 0.1146(8) 1.3205(6)
N1A N -0.0758(4) 0.2182(5) 1.4317(4)
C1A C 0.0970(4) 0.4122(5) 1.1357(4)
C2A C 0.0230(4) 0.4215(4) 1.1555(3)
C3A C -0.0379(4) 0.4536(5) 1.1130(3)
H1A H -0.03310 0.46820 1.07180
C4A C -0.1047(4) 0.4639(5) 1.1308(3)
C5A C -0.1131(4) 0.4395(5) 1.1920(3)
H2A H -0.15870 0.44460 1.20390
C6A C -0.0525(4) 0.4075(5) 1.2350(3)
C7A C 0.0144(4) 0.3995(5) 1.2168(4)
H3A H 0.05460 0.37900 1.24590
C8A C -0.1682(4) 0.5004(5) 1.0845(4)
C9A C -0.0625(5) 0.3843(5) 1.3005(4)
C13A C 0.3038(5) 0.0356(5) 0.9765(4)
C14A C 0.3030(5) 0.1243(5) 0.9753(4)
H5A H 0.33810 0.15410 0.95780
C15A C 0.3640(5) -0.0163(6) 0.9525(4)
C16A C 0.0162(6) 0.2633(7) 1.5214(6)
H6A H 0.02740 0.27040 1.56730
H7A H 0.05400 0.22680 1.50910
C17A C -0.0605(7) 0.2186(9) 1.5010(5)
H8A H -0.05940 0.15920 1.51740
H9A H -0.09800 0.25140 1.51710
C18A C -0.1478(7) 0.1789(10) 1.4118(6)
H10A H -0.18320 0.21380 1.42890
H11A H -0.14690 0.12100 1.43070
C19A C -0.1741(7) 0.1700(8) 1.3426(6)
H12A H -0.17890 0.22700 1.32210
H13A H -0.22120 0.14020 1.33350
C20A C -0.0415(8) 0.1538(10) 1.3361(7)
H14A H -0.04200 0.21040 1.31540
H15A H -0.00600 0.11670 1.32080
C21A C -0.0179(8) 0.1660(9) 1.4108(6)
H16A H -0.01300 0.10940 1.43180
H17A H 0.02900 0.19630 1.42110
#END
