
#######################################################################
#
#                 Cambridge Crystallographic Data Centre
#                                CCDC
#
#######################################################################
#
# If this CIF has been generated from an entry in the Cambridge
# Structural Database, then it will include bibliographic, chemical,
# crystal, experimental, refinement or atomic coordinate data resulting
# from the CCDC's data processing and validation procedures.
#
#######################################################################

data_CSD_CIF_PEJQIH
_audit_creation_date 2017-10-25
_audit_creation_method CSD-ConQuest-V1
_database_code_CSD PEJQIH
_database_code_depnum_ccdc_archive 'CCDC 1517026'
_chemical_formula_sum 'C13 H23 Cl3 N3 O16 Yb2'
_chemical_formula_moiety
;
(C7 H3 Cl3 N1 O16 Yb2 2-)n,2n(C3 H10 N1 1+)
;
_journal_coden_Cambridge 211
_journal_volume 70
_journal_year 2017
_journal_page_first 3217
_journal_name_full 'J.Coord.Chem. '
loop_
_publ_author_name
"A.Hashemzadeh"
"M.M.Amini"
"H.R.Khavasi"
"Seik Weng Ng"
_chemical_name_systematic
;
catena-(bis(trimethylammonium) 
tris(\m-perchlorato)-(\m-pyridine-3,5-dicarboxylato)-di-ytterbium)
;
_cell_volume   2526.122
_exptl_crystal_colour 'colorless'
_exptl_crystal_density_diffrn 2.445
_exptl_crystal_description 'Needle'
_diffrn_ambient_temperature 298
#These two values have been output from a single CSD field.
_refine_ls_R_factor_gt 0.0405
_refine_ls_wR_factor_gt 0.0405
_symmetry_cell_setting monoclinic
_symmetry_space_group_name_H-M 'C 2/m'
_symmetry_Int_Tables_number 12
loop_
_symmetry_equiv_pos_site_id
_symmetry_equiv_pos_as_xyz
1 x,y,z
2 -x,y,-z
3 1/2+x,1/2+y,z
4 1/2-x,1/2+y,-z
5 -x,-y,-z
6 x,-y,z
7 -1/2-x,-1/2-y,-z
8 -1/2+x,-1/2-y,z
_cell_length_a 19.527(2)
_cell_length_b 11.2880(7)
_cell_length_c 15.9475(16)
_cell_angle_alpha 90
_cell_angle_beta 134.058(6)
_cell_angle_gamma 90
_cell_formula_units_Z 4
loop_
_atom_type_symbol
_atom_type_radius_bond
C 0.68
H 0.23
Cl 0.99
N 0.68
O 0.68
Yb 1.87
loop_
_atom_site_label
_atom_site_type_symbol
_atom_site_fract_x
_atom_site_fract_y
_atom_site_fract_z
C1 C 0.0671(8) 0.00000 0.2109(9)
H1 H 0.12470 0.00000 0.28880
C2 C 0.0217(6) 0.1057(6) 0.1496(7)
C3 C 0.0687(5) 0.2202(7) 0.2040(7)
C4 C -0.0658(6) 0.1005(7) 0.0353(7)
H2 H -0.09430 0.17170 -0.00430
N1 N -0.1121(8) 0.00000 -0.0221(9)
O1 O 0.0386(5) 0.3073(5) 0.1410(5)
O2 O 0.1377(4) 0.2227(5) 0.3129(5)
O3 O 0.2118(6) 0.50000 0.2967(7)
O4 O 0.3131(4) 0.3944(4) 0.4775(5)
O5 O 0.3801(7) 0.50000 0.4201(9)
O6 O 0.0749(8) 0.50000 0.3152(8)
O7 O 0.1692(4) 0.3933(5) 0.4940(5)
O8 O 0.0341(6) 0.50000 0.4263(9)
O9 O 0.0870(6) 0.50000 0.0475(7)
O10 O 0.2136(7) 0.3925(12) 0.0921(8)
O11 O 0.0970(7) 0.50000 -0.0872(9)
Yb1 Yb 0.05385(3) 0.50000 0.15932(4)
Yb2 Yb 0.25000 0.25000 0.50000
Cl1 Cl 0.30541(17) 0.50000 0.4176(2)
Cl2 Cl 0.10979(16) 0.50000 0.4312(2)
Cl3 Cl 0.1593(2) 0.50000 0.0420(3)
C5 C 0.3467(11) 0.1911(13) 0.3246(14)
H3 H 0.28430 0.15630 0.27030
H4 H 0.35200 0.24250 0.37680
H5 H 0.39380 0.12970 0.36850
C6 C 0.4526(9) 0.3155(13) 0.3307(14)
H6 H 0.46240 0.36750 0.38600
H7 H 0.45450 0.36050 0.28130
H8 H 0.50180 0.25650 0.37170
C7 C 0.3478(12) 0.1763(15) 0.1752(13)
H9 H 0.39790 0.11840 0.21710
H10 H 0.34920 0.22100 0.12520
H11 H 0.28740 0.13700 0.12890
N2 N 0.3619(7) 0.2592(9) 0.2612(9)
H12 H 0.31610 0.31630 0.21960
C2E C 0.0217(6) -0.1057(6) 0.1496(7)
C3E C 0.0687(5) -0.2202(7) 0.2040(7)
C4E C -0.0658(6) -0.1005(7) 0.0353(7)
H2E H -0.09430 -0.17170 -0.00430
O1E O 0.0386(5) -0.3073(5) 0.1410(5)
O2E O 0.1377(4) -0.2227(5) 0.3129(5)
O4E O 0.3131(4) 0.6056(4) 0.4775(5)
O7E O 0.1692(4) 0.6067(5) 0.4940(5)
O10E O 0.2136(7) 0.6075(12) 0.0921(8)
O1E* O 0.0386(5) 0.6927(5) 0.1410(5)
O2F O 0.3623(4) 0.2773(5) 0.6871(5)
O4F O 0.1869(4) 0.1056(4) 0.5225(5)
O7F O 0.3308(4) 0.1067(5) 0.5060(5)
O9A O -0.0870(6) 0.50000 -0.0475(7)
O11A O -0.0970(7) 0.50000 0.0872(9)
Yb1* Yb 0.05385(3) -0.50000 0.15932(4)
Yb1A Yb -0.05385(3) 0.50000 -0.15932(4)
Yb2C Yb 0.25000 -0.25000 0.50000
Yb2C* Yb 0.25000 0.75000 0.50000
#END
