
#######################################################################
#
#                 Cambridge Crystallographic Data Centre
#                                CCDC
#
#######################################################################
#
# If this CIF has been generated from an entry in the Cambridge
# Structural Database, then it will include bibliographic, chemical,
# crystal, experimental, refinement or atomic coordinate data resulting
# from the CCDC's data processing and validation procedures.
#
#######################################################################

data_CSD_CIF_PELBIU
_audit_creation_date 2017-10-26
_audit_creation_method CSD-ConQuest-V1
_database_code_CSD PELBIU
_database_code_depnum_ccdc_archive 'CCDC 1560976'
_chemical_formula_sum 'C52 H58 Ag6 N12 O16 S2'
_chemical_formula_moiety
;
(C28 H22 Ag4 N4 O14 S2 2-)n,C24 H32 Ag2 N8 2+,2(H2 O1)
;
_journal_coden_Cambridge 1295
_journal_volume 86
_journal_year 2017
_journal_page_first 192
_journal_name_full 'Inorg.Chem.Commun. '
loop_
_publ_author_name
"Xiao-Yue Cheng"
"Run-Qing Miao"
"Yuan-Yuan Zhong"
"Rong-Bin Huang"
"Lan-Sun Zheng"
_chemical_name_systematic
;
catena-[(\m-2,6-dimethylpyrazine)-tris(2,6-dimethylpyrazine)-di-silver 
(\m-2,6-dimethylpyrazine)-bis(\m-5-sulfonatoisopththalato)-tetra-silver 
dihydrate]
;
_cell_volume   2953.008
_exptl_crystal_colour 'colorless'
_exptl_crystal_density_diffrn 2.045
_exptl_special_details
;
, Luminescent

;
_exptl_crystal_description 'plate'
_diffrn_ambient_temperature 173
#These two values have been output from a single CSD field.
_refine_ls_R_factor_gt 0.0616
_refine_ls_wR_factor_gt 0.0616
_symmetry_cell_setting triclinic
_symmetry_space_group_name_H-M 'P -1'
_symmetry_Int_Tables_number 2
loop_
_symmetry_equiv_pos_site_id
_symmetry_equiv_pos_as_xyz
1 x,y,z
2 -x,-y,-z
_cell_length_a 10.9906(5)
_cell_length_b 16.5961(5)
_cell_length_c 17.532(3)
_cell_angle_alpha 103.22
_cell_angle_beta 107.83
_cell_angle_gamma 90.47
_cell_formula_units_Z 2
loop_
_atom_type_symbol
_atom_type_radius_bond
C 0.68
H 0.23
Ag 1.45
N 0.68
O 0.68
S 1.02
loop_
_atom_site_label
_atom_site_type_symbol
_atom_site_fract_x
_atom_site_fract_y
_atom_site_fract_z
Ag1 Ag 0.98851(6) -0.31329(3) 0.37394(3)
Ag2 Ag 0.78520(4) 0.30539(2) 0.45930(3)
Ag3 Ag 0.72606(4) 0.19096(2) 0.54191(3)
Ag4 Ag 0.50176(5) 0.81212(3) 0.62127(3)
S1 S 0.37162(14) 0.45041(8) 0.79272(8)
S2 S 1.16429(14) 0.05289(8) 0.21863(8)
O1 O 0.4393(4) 0.7038(2) 0.6587(2)
O2 O 0.5920(4) 0.6683(2) 0.6018(3)
O3 O 0.6955(5) 0.3820(3) 0.5447(3)
O4 O 0.6152(5) 0.2866(2) 0.5922(3)
O5 O 0.3040(6) 0.5217(3) 0.8124(3)
O6 O 0.4756(5) 0.4401(3) 0.8629(3)
O7 O 0.2893(5) 0.3743(3) 0.7514(3)
O8 O 0.9072(4) 0.2139(2) 0.4143(3)
O9 O 0.8195(4) 0.1165(2) 0.4560(3)
O10 O 0.9029(4) -0.1710(2) 0.3867(3)
O11 O 1.0597(4) -0.2080(2) 0.3347(2)
O12 O 1.2496(4) -0.0124(3) 0.2107(3)
O13 O 1.0682(5) 0.0549(3) 0.1412(3)
O14 O 1.2321(5) 0.1342(3) 0.2615(3)
N1 N 0.9293(5) -0.4288(3) 0.3956(3)
N2 N 0.8468(5) -0.5736(3) 0.4250(3)
N3 N 0.5616(5) 0.9267(3) 0.5989(3)
N4 N 0.6562(5) 1.0712(3) 0.5747(3)
C1 C 0.8062(7) -0.3448(4) 0.4738(4)
H1 H 0.88160 -0.30650 0.50760
H2 H 0.75310 -0.35220 0.50800
H3 H 0.75620 -0.32190 0.42820
C2 C 0.8485(6) -0.4269(3) 0.4399(3)
C3 C 0.8098(6) -0.5007(4) 0.4538(3)
H4 H 0.75350 -0.49850 0.48590
C4 C 0.9251(5) -0.5736(3) 0.3788(3)
H5 H 0.95340 -0.62480 0.35610
C5 C 0.9655(5) -0.5017(3) 0.3633(3)
C6 C 1.0544(7) -0.5038(4) 0.3125(4)
H6 H 1.00640 -0.49590 0.25790
H7 H 1.09110 -0.55760 0.30620
H8 H 1.12360 -0.45920 0.34030
C7 C 1.0001(5) -0.0692(3) 0.3439(3)
C8 C 0.9427(5) -0.0056(3) 0.3839(3)
H9 H 0.89440 -0.01780 0.41710
C9 C 0.9551(5) 0.0748(3) 0.3759(3)
C10 C 1.0237(5) 0.0928(3) 0.3257(3)
H10 H 1.03260 0.14800 0.32020
C11 C 1.0787(5) 0.0296(3) 0.2839(3)
C12 C 1.0683(5) -0.0508(3) 0.2939(3)
H11 H 1.10800 -0.09340 0.26640
C13 C 0.9862(6) -0.1546(3) 0.3569(3)
C14 C 0.8888(5) 0.1412(3) 0.4193(3)
C15 C 0.5657(5) 0.4260(3) 0.6282(3)
C16 C 0.5037(6) 0.4092(3) 0.6822(3)
H12 H 0.50130 0.35520 0.69170
C17 C 0.4453(5) 0.4723(3) 0.7220(3)
C18 C 0.4448(5) 0.5498(3) 0.7058(3)
H13 H 0.40010 0.59140 0.73040
C19 C 0.5095(5) 0.5677(3) 0.6534(3)
C20 C 0.5679(6) 0.5045(3) 0.6144(3)
H14 H 0.61010 0.51560 0.57760
C21 C 0.6300(6) 0.3582(3) 0.5846(3)
C22 C 0.5138(5) 0.6523(3) 0.6357(3)
C23 C 0.4442(6) 1.0034(4) 0.6852(4)
H15 H 0.36770 0.96510 0.65390
H16 H 0.41880 1.05990 0.69910
H17 H 0.48900 0.98680 0.73610
C24 C 0.5318(6) 1.0007(3) 0.6339(3)
C25 C 0.5792(6) 1.0725(3) 0.6219(3)
H18 H 0.55690 1.12450 0.64760
C26 C 0.6871(6) 0.9972(4) 0.5421(3)
H19 H 0.74260 0.99420 0.50960
C27 C 0.6418(6) 0.9235(3) 0.5534(3)
C28 C 0.6790(7) 0.8405(4) 0.5164(4)
H20 H 0.73060 0.81640 0.56060
H21 H 0.72920 0.84740 0.48040
H22 H 0.60150 0.80360 0.48400
Ag5 Ag -0.07700(6) 0.91880(4) 1.01536(4)
N5 N 0.2473(5) 0.7160(3) 0.9945(3)
N6 N 0.0739(5) 0.8334(3) 1.0092(3)
N7 N -0.2189(5) 1.0074(3) 1.0353(3)
N8 N -0.3990(5) 1.1160(3) 1.0652(3)
C29 C 0.3354(7) 0.7383(5) 1.1443(5)
H23 H 0.33420 0.67800 1.13780
H24 H 0.31130 0.76390 1.19330
H25 H 0.42180 0.76080 1.15100
C30 C 0.2425(6) 0.7570(4) 1.0698(4)
C31 C 0.1548(6) 0.8155(4) 1.0748(4)
H26 H 0.15280 0.84420 1.12790
C32 C 0.0766(6) 0.7924(4) 0.9356(4)
H27 H 0.01770 0.80290 0.88730
C33 C 0.1655(6) 0.7337(3) 0.9286(4)
C34 C 0.1720(8) 0.6908(5) 0.8441(4)
H28 H 0.25540 0.70620 0.83970
H29 H 0.10350 0.70780 0.80150
H30 H 0.16130 0.63040 0.83640
C35 C -0.3070(8) 1.1340(5) 1.2143(4)
H31 H -0.23440 1.17620 1.24150
H32 H -0.29790 1.09050 1.24470
H33 H -0.38720 1.15970 1.21340
C36 C -0.3093(6) 1.0965(4) 1.1274(4)
C37 C -0.2205(6) 1.0404(4) 1.1122(4)
H34 H -0.16000 1.02530 1.15730
C38 C -0.3066(6) 1.0278(4) 0.9739(4)
H35 H -0.30710 1.00540 0.91880
C39 C -0.3985(6) 1.0816(4) 0.9879(4)
C40 C -0.4986(7) 1.1045(5) 0.9190(4)
H36 H -0.58210 1.07720 0.91220
H37 H -0.47710 1.08640 0.86780
H38 H -0.50270 1.16490 0.93170
Ag6 Ag 0.39145(5) 0.58466(3) 0.98228(3)
N9 N 0.7443(5) 0.7888(3) 1.0025(3)
N10 N 0.5575(5) 0.6667(3) 0.9891(3)
N11 N 0.2419(5) 0.4955(3) 0.9844(3)
N12 N 0.0469(5) 0.3875(3) 0.9874(3)
C41 C 0.6541(7) 0.7880(5) 0.8574(4)
H39 H 0.62530 0.84410 0.86330
H40 H 0.59640 0.75120 0.80690
H41 H 0.74140 0.78930 0.85400
C42 C 0.6527(6) 0.7565(3) 0.9303(3)
C43 C 0.5594(6) 0.6962(4) 0.9249(3)
H42 H 0.49460 0.67530 0.87340
C44 C 0.6486(6) 0.6983(4) 1.0607(4)
H43 H 0.65050 0.67860 1.10780
C45 C 0.7406(6) 0.7595(4) 1.0677(3)
C46 C 0.8398(7) 0.7978(5) 1.1492(4)
H44 H 0.92190 0.80790 1.14050
H45 H 0.84950 0.75990 1.18570
H46 H 0.81260 0.85050 1.17450
C47 C 0.1466(6) 0.4605(4) 0.9171(4)
H47 H 0.14460 0.47260 0.86630
C48 C 0.0490(6) 0.4068(4) 0.9174(4)
C49 C -0.0582(7) 0.3687(5) 0.8395(4)
H48 H -0.07030 0.30880 0.83410
H49 H -0.03670 0.37820 0.79190
H50 H -0.13750 0.39420 0.84190
C50 C 0.1465(8) 0.4000(5) 1.1342(4)
H51 H 0.07050 0.41870 1.14890
H52 H 0.22400 0.42720 1.17840
H53 H 0.14670 0.33960 1.12670
C51 C 0.1438(6) 0.4219(4) 1.0556(4)
C52 C 0.2405(6) 0.4742(4) 1.0537(4)
H54 H 0.30890 0.49590 1.10330
O15 O 1.1452(5) 0.2952(3) 0.2945(4)
H55 H 1.15670 0.24570 0.26910
H56 H 1.21580 0.31680 0.33350
O16 O 0.6383(6) -0.2063(4) 0.2867(4)
H57 H 0.71060 -0.18240 0.32240
H58 H 0.65020 -0.25570 0.26140
Ag1A Ag 1.01149(6) 0.31329(3) 0.62606(3)
Ag2* Ag 0.78520(4) -0.69461(2) 0.45930(3)
Ag2A Ag 0.21480(4) 0.69461(2) 0.54070(3)
Ag2A* Ag 1.21480(4) -0.30539(2) 0.54070(3)
Ag3* Ag 0.72606(4) 1.19096(2) 0.54191(3)
Ag3A Ag 0.27394(4) 0.80904(2) 0.45809(3)
Ag3A* Ag 1.27394(4) -0.19096(2) 0.45809(3)
Ag4A Ag 0.49824(5) 0.18788(3) 0.37873(3)
O1A O 0.5607(4) 0.2962(2) 0.3413(2)
O11A O 0.9403(4) 0.2080(2) 0.6653(2)
N2* N 0.8468(5) 0.4264(3) 0.4250(3)
N4* N 0.6562(5) 0.0712(3) 0.5747(3)
#END
