
#######################################################################
#
#                 Cambridge Crystallographic Data Centre
#                                CCDC
#
#######################################################################
#
# If this CIF has been generated from an entry in the Cambridge
# Structural Database, then it will include bibliographic, chemical,
# crystal, experimental, refinement or atomic coordinate data resulting
# from the CCDC's data processing and validation procedures.
#
#######################################################################

data_CSD_CIF_PENBES
_audit_creation_date 2017-10-27
_audit_creation_method CSD-ConQuest-V1
_database_code_CSD PENBES
_database_code_depnum_ccdc_archive 'CCDC 1455982'
_chemical_formula_sum 'C16 H10 K1 O10.5 Zn2'
_chemical_formula_moiety
;
(C16 H9 O10 Zn2 1-)n,0.5(H2 O1),K1 1+
;
_journal_coden_Cambridge 208
_journal_volume 258
_journal_year 2018
_journal_page_first 335
_journal_name_full 'J.Solid State Chem. '
loop_
_publ_author_name
"Si-si Feng"
"Ling Xie"
"Li-ping Lu"
"Miao-li Zhu"
"Feng Su"
_chemical_name_systematic
;
catena-[potassium 
(\m-[1,1'-biphenyl]-2,3,3',4'-tetracarboxylato)-(\m-hydroxo)-aqua-di-zinc 
hemihydrate]
;
_cell_volume   1817.948
_exptl_crystal_colour 'colorless'
_exptl_crystal_density_diffrn 1.973
_exptl_crystal_description 'rod like'
_diffrn_ambient_temperature 298
#These two values have been output from a single CSD field.
_refine_ls_R_factor_gt 0.0511
_refine_ls_wR_factor_gt 0.0511
_symmetry_cell_setting monoclinic
_symmetry_space_group_name_H-M 'P 21/c'
_symmetry_Int_Tables_number 14
loop_
_symmetry_equiv_pos_site_id
_symmetry_equiv_pos_as_xyz
1 x,y,z
2 -x,1/2+y,1/2-z
3 -x,-y,-z
4 x,-1/2-y,-1/2+z
_cell_length_a 6.7439(8)
_cell_length_b 24.242(3)
_cell_length_c 11.5643(11)
_cell_angle_alpha 90
_cell_angle_beta 105.935(5)
_cell_angle_gamma 90
_cell_formula_units_Z 4
loop_
_atom_type_symbol
_atom_type_radius_bond
C 0.68
H 0.23
K 2.03
O 0.68
Zn 1.22
loop_
_atom_site_label
_atom_site_type_symbol
_atom_site_fract_x
_atom_site_fract_y
_atom_site_fract_z
K1 K 1.0811(2) 0.36965(7) 0.50612(15)
Zn1 Zn 1.02734(11) 0.25834(3) 0.73783(7)
Zn2 Zn 0.61610(11) 0.30426(3) 0.55599(6)
O1 O 1.0279(7) 0.17970(18) 0.7799(4)
O2 O 1.2558(8) 0.1821(2) 0.6759(5)
O3 O 1.4500(7) 0.14749(18) 0.9380(4)
O4 O 1.6957(7) 0.0877(2) 0.9295(5)
O5 O 0.8460(6) 0.21421(17) 0.3396(4)
O6 O 0.6105(7) 0.16346(18) 0.2099(4)
O7 O 0.2793(6) 0.20220(17) 0.3238(4)
O8 O 0.1542(7) 0.11905(19) 0.2629(4)
O9 O 0.8882(6) 0.27807(17) 0.5728(4)
H1 H 0.90650 0.25460 0.52690
O10 O 0.4005(9) 0.2482(2) 0.5372(5)
H2 H 0.41950 0.22550 0.59170
H3 H 0.35430 0.23150 0.47400
C1 C 1.0155(9) 0.0618(2) 0.6730(5)
C2 C 1.1737(9) 0.0944(2) 0.7411(5)
C3 C 1.3477(9) 0.0696(2) 0.8177(5)
C4 C 1.3625(10) 0.0126(3) 0.8234(6)
H4 H 1.47930 -0.00410 0.87310
C5 C 1.2038(12) -0.0196(3) 0.7555(7)
H5 H 1.21310 -0.05780 0.76050
C6 C 1.0346(11) 0.0044(3) 0.6815(6)
H6 H 0.92950 -0.01770 0.63560
C7 C 0.8271(9) 0.0851(2) 0.5857(5)
C8 C 0.8441(10) 0.1230(3) 0.4983(5)
H7 H 0.97440 0.13550 0.49790
C9 C 0.6745(9) 0.1427(2) 0.4125(5)
C10 C 0.4781(9) 0.1254(2) 0.4125(5)
C11 C 0.4578(10) 0.0880(3) 0.4997(6)
H8 H 0.32710 0.07640 0.50120
C12 C 0.6311(10) 0.0677(3) 0.5849(5)
H9 H 0.61480 0.04230 0.64190
C13 C 1.1545(9) 0.1568(3) 0.7328(5)
C14 C 1.516(1) 0.1031(3) 0.8992(6)
C15 C 0.7120(9) 0.1767(2) 0.3141(6)
C16 C 0.2883(9) 0.1489(3) 0.3250(6)
O11 O 1.1597(14) 0.4705(4) 0.5844(8)
H10 H 1.03380 0.49030 0.51890
H11 H 1.12200 0.46610 0.64580
Zn1C Zn 0.02734(11) 0.24166(3) 0.23783(7)
Zn1C* Zn 1.02734(11) 0.24166(3) 0.23783(7)
Zn2C Zn 0.61610(11) 0.19574(3) 0.05599(6)
Zn2C* Zn 1.61610(11) 0.19574(3) 1.05599(6)
O3C O 0.4500(7) 0.35251(18) 0.4380(4)
O5C O 0.8460(6) 0.28579(17) 0.8396(4)
O6C O 0.6105(7) 0.33654(18) 0.7099(4)
O7C O 1.2793(6) 0.29780(17) 0.8238(4)
#END
