
#######################################################################
#
#                 Cambridge Crystallographic Data Centre
#                                CCDC
#
#######################################################################
#
# If this CIF has been generated from an entry in the Cambridge
# Structural Database, then it will include bibliographic, chemical,
# crystal, experimental, refinement or atomic coordinate data resulting
# from the CCDC's data processing and validation procedures.
#
#######################################################################

data_CSD_CIF_PENYAJ
_audit_creation_date 2007-01-23
_audit_creation_method CSD-ConQuest-V1
_database_code_CSD PENYAJ
_database_code_depnum_ccdc_archive 'CCDC 625834'
_chemical_formula_sum 'C6 H22 F2 N2 O10 P2 V2'
_chemical_formula_moiety
;
(C4 H12 F2 O10 P2 V2 2-)n,n(C2 H10 N2 2+)
;
_journal_coden_Cambridge 9
_journal_volume 45
_journal_year 2006
_journal_page_first 7628
_journal_name_full 'Inorg.Chem. '
loop_
_publ_author_name
"W.Ouellette"
"Ming Hui Yu"
"C.J.O'Connor"
"J.Zubieta"
_chemical_name_systematic
;
catena-(ethylene-1,2-diammonium 
(\m~6~-butane-1,4-diphosphonato)-diaqua-difluoro-dioxo-di-vanadium(iv))
;
_cell_volume   1567.174
_exptl_crystal_colour 'blue'
_exptl_crystal_density_diffrn 2.052
_exptl_special_details
;
magnetic properties

;
_exptl_crystal_description 'rod'
_diffrn_ambient_temperature 90
#These two values have been output from a single CSD field.
_refine_ls_R_factor_gt 0.0449
_refine_ls_wR_factor_gt 0.0449
_symmetry_cell_setting monoclinic
_symmetry_space_group_name_H-M 'C 2/c'
_symmetry_Int_Tables_number 15
loop_
_symmetry_equiv_pos_site_id
_symmetry_equiv_pos_as_xyz
1 x,y,z
2 1/2+x,1/2+y,z
3 -x,y,1/2-z
4 1/2-x,1/2+y,1/2-z
5 -x,-y,-z
6 -1/2-x,-1/2-y,-z
7 x,-y,-1/2+z
8 -1/2+x,-1/2-y,-1/2+z
_cell_length_a 28.836(3)
_cell_length_b 5.3256(5)
_cell_length_c 10.2448(10)
_cell_angle_alpha 90
_cell_angle_beta 95.051(2)
_cell_angle_gamma 90
_cell_formula_units_Z 4
loop_
_atom_type_symbol
_atom_type_radius_bond
C 0.68
H 0.23
F 0.64
N 0.68
O 0.68
P 1.05
V 1.28
loop_
_atom_site_label
_atom_site_type_symbol
_atom_site_fract_x
_atom_site_fract_y
_atom_site_fract_z
V1 V 0.376458(15) 0.14132(8) 0.74932(4)
P1 P 0.38732(2) 0.34050(12) 1.05018(6)
O1 O 0.37053(7) 0.3764(3) 0.90352(18)
O2 O 0.35397(7) -0.1413(4) 0.86602(19)
H1 H 0.35710 -0.09700 0.94290
O3 O 0.43115(7) 0.1000(4) 0.77295(19)
O4 O 0.36463(7) 0.0973(3) 1.09583(18)
O5 O 0.37233(7) 0.5650(4) 1.12683(18)
C1 C 0.44925(9) 0.3094(5) 1.0651(3)
H2 H 0.46020 0.30040 1.15730
H3 H 0.45750 0.15310 1.02450
C2 C 0.47415(9) 0.5264(5) 1.0021(3)
H4 H 0.46010 0.55270 0.91360
H5 H 0.47020 0.67900 1.05160
N1 N 0.27661(8) 0.6452(4) 0.6646(2)
H6 H 0.29490 0.77890 0.67780
H7 H 0.29240 0.50740 0.68970
H8 H 0.25210 0.66070 0.71110
C3 C 0.26049(9) 0.6261(5) 0.5232(3)
H9 H 0.23740 0.49380 0.50980
H10 H 0.28650 0.58480 0.47330
F1 F 0.30160(5) 0.1757(3) 0.71758(16)
H11 H 0.3623(14) -0.301(9) 0.870(4)
V1D V 0.623542(15) 0.85868(8) 1.25068(4)
V1F V 0.376458(15) -0.14132(8) 1.24932(4)
V1F* V 0.376458(15) 0.85868(8) 1.24932(4)
V1B V 0.623542(15) 1.14132(8) 0.75068(4)
V1B* V 0.623542(15) 0.14132(8) 0.75068(4)
P1D P 0.61268(2) 0.65950(12) 0.94982(6)
O1D O 0.62947(7) 0.6236(3) 1.09648(18)
O2D O 0.64603(7) 1.1413(4) 1.13398(19)
H1D H 0.64290 1.09700 1.05710
O3D O 0.56885(7) 0.9000(4) 1.22705(19)
O4D O 0.63537(7) 0.9027(3) 0.90417(18)
O4F O 0.36463(7) -0.0973(3) 0.59583(18)
O4B O 0.63537(7) 1.0973(3) 1.40417(18)
O5D O 0.62767(7) 0.4350(4) 0.87317(18)
O5F O 0.37233(7) 0.4350(4) 0.62683(18)
O5B O 0.62767(7) 0.5650(4) 1.37317(18)
C1D C 0.55075(9) 0.6906(5) 0.9349(3)
H2D H 0.53980 0.69960 0.84270
H3D H 0.54250 0.84690 0.97550
C2D C 0.52585(9) 0.4736(5) 0.9979(3)
H4D H 0.53990 0.44730 1.08640
H5D H 0.52980 0.32100 0.94840
N1E N 0.22339(8) 0.8548(4) 0.3354(2)
H6E H 0.20510 0.72110 0.32220
H7E H 0.20760 0.99260 0.31030
H8E H 0.24790 0.83930 0.28890
C3E C 0.23951(9) 0.8739(5) 0.4768(3)
H9E H 0.26260 1.00620 0.49020
H10E H 0.21350 0.91520 0.52670
F1D F 0.69840(5) 0.8243(3) 1.28242(16)
H11D H 0.6377(14) 1.301(9) 1.130(4)
#END
