
#######################################################################
#
#                 Cambridge Crystallographic Data Centre
#                                CCDC
#
#######################################################################
#
# If this CIF has been generated from an entry in the Cambridge
# Structural Database, then it will include bibliographic, chemical,
# crystal, experimental, refinement or atomic coordinate data resulting
# from the CCDC's data processing and validation procedures.
#
#######################################################################

data_CSD_CIF_PEPBUI
_audit_creation_date 2007-01-23
_audit_creation_method CSD-ConQuest-V1
_database_code_CSD PEPBUI
_database_code_depnum_ccdc_archive 'CCDC 625858'
_chemical_formula_sum 'C30 H46 Cu4 K3 N6 O50 Si1 W11'
_chemical_formula_moiety
;
(C10 H8 Cu1 N2)3n,n(Cu1 O39 Si1 W11 3-),3n(K1 1+),11n(H2 O1)
;
_journal_coden_Cambridge 9
_journal_volume 45
_journal_year 2006
_journal_page_first 7748
_journal_name_full 'Inorg.Chem. '
loop_
_publ_author_name
"L.San Felices"
"P.Vitoria"
"J.M.Gutierrez-Zorrilla"
"L.Lezama"
"S.Reinoso"
_chemical_name_systematic
;
catena-(Tri-potassium tris((\m~2~-4,4'-bipyridyl)-copper(i)) 
(\m~2~-pentatricosaoxasilicatocupraundecatungstate) undecahydrate)
;
_cell_volume   6639.907
_exptl_crystal_colour 'yellow'
_exptl_crystal_density_diffrn 3.716
_exptl_crystal_description 'prism'
_diffrn_ambient_temperature 295
_refine_special_details
;
4 O atoms of the silicate moiety were refined at half occupancy. Two metal 
sites were refined with occupancies Cu:W 0.622:0.378 and 0.378:0.622. A 
further site was refined K:O 0.5:0.5.
;
#These two values have been output from a single CSD field.
_refine_ls_R_factor_gt 0.0778
_refine_ls_wR_factor_gt 0.0778
_symmetry_cell_setting orthorhombic
_symmetry_space_group_name_H-M 'P b c b'
_symmetry_Int_Tables_number 54
loop_
_symmetry_equiv_pos_site_id
_symmetry_equiv_pos_as_xyz
1 x,y,z
2 x,1/2-y,-z
3 -x,y,1/2-z
4 -x,1/2-y,1/2+z
5 -x,-y,-z
6 -x,-1/2+y,z
7 x,-y,-1/2+z
8 x,-1/2+y,-1/2-z
_cell_length_a 10.9722(4)
_cell_length_b 21.5961(7)
_cell_length_c 28.0216(8)
_cell_angle_alpha 90
_cell_angle_beta 90
_cell_angle_gamma 90
_cell_formula_units_Z 4
loop_
_atom_type_symbol
_atom_type_radius_bond
C 0.68
H 0.23
Cu 1.42
K 1.18
N 0.68
O 0.83
Si 1.20
W 1.17
loop_
_atom_site_label
_atom_site_type_symbol
_atom_site_fract_x
_atom_site_fract_y
_atom_site_fract_z
C1 C 0.676(2) 0.5661(12) 0.1905(9)
H1 H 0.68050 0.58170 0.15970
C2 C 0.679(3) 0.5027(13) 0.1976(10)
H2 H 0.69280 0.47750 0.17110
C3 C 0.664(2) 0.4754(11) 0.2400(8)
C4 C 0.657(3) 0.5167(16) 0.2768(13)
H3 H 0.65250 0.50150 0.30780
C5 C 0.656(3) 0.5794(14) 0.2700(11)
H4 H 0.64700 0.60510 0.29640
C6 C 0.638(2) 0.3034(12) 0.2222(9)
H5 H 0.61910 0.27630 0.19740
C7 C 0.639(2) 0.3658(11) 0.2120(9)
H6 H 0.62130 0.37950 0.18130
C8 C 0.6656(19) 0.4072(9) 0.2468(8)
C9 C 0.695(2) 0.3828(11) 0.2931(9)
H7 H 0.71390 0.40940 0.31810
C10 C 0.695(3) 0.3186(11) 0.3002(9)
H8 H 0.71840 0.30310 0.32980
C11 C 1.038(2) 0.7907(12) 0.2129(9)
H9 H 1.06540 0.76940 0.18610
C12 C 1.042(2) 0.8524(11) 0.2113(9)
H10 H 1.07110 0.87290 0.18450
C13 C 1.00000 0.8846(15) 0.25000
C14 C 1.00000 0.953(2) 0.25000
C15 C 0.987(3) 0.9883(13) 0.2085(10)
H11 H 0.97800 0.96770 0.17960
C16 C 0.986(3) 1.0523(15) 0.2084(12)
H12 H 0.97660 1.07350 0.17970
Cu1 Cu 0.6671(4) 0.69253(15) 0.22349(14)
Cu2 Cu 1.00000 0.6712(2) 0.25000
N1 N 0.668(2) 0.6050(12) 0.2272(9)
N2 N 0.6620(19) 0.2783(9) 0.2656(7)
N3 N 1.00000 0.7570(15) 0.25000
N4 N 1.00000 1.0849(19) 0.25000
O1 O 0.197(5) 0.75000 0.00000
O2 O 0.4531(18) 0.5893(9) -0.1046(6)
O3 O 0.451(2) 0.678(1) 0.1505(7)
O4 O 0.686(2) 0.5162(8) 0.0452(10)
O5 O 0.924(2) 0.5915(10) -0.1034(6)
O6 O 0.926(2) 0.8245(9) -0.1514(7)
O7 O 0.395(3) 0.6743(9) -0.0366(9)
O8 O 0.531(3) 0.7129(8) -0.1087(9)
O9 O 0.396(2) 0.7058(10) 0.0580(9)
O10 O 0.5707(18) 0.5928(16) -0.0165(7)
O11 O 0.688(2) 0.6286(14) -0.0924(7)
O12 O 0.5647(18) 0.6218(10) 0.0755(8)
O13 O 0.808(2) 0.5950(15) -0.0164(7)
O14 O 0.688(2) 0.7026(9) 0.1260(8)
O15 O 0.809(2) 0.6227(11) 0.0749(9)
O16 O 0.980(3) 0.6746(9) -0.0329(9)
O17 O 0.853(2) 0.713(1) -0.1078(9)
O18 O 0.985(3) 0.7949(9) -0.060(1)
O19 O 0.691(3) 0.6783(13) -0.0196(10)
O20 O 0.570(3) 0.7395(14) -0.0372(11)
O21 O 0.686(3) 0.7040(12) 0.0423(9)
O22 O 0.811(3) 0.7399(13) -0.0345(10)
O23 O 0.380(4) 0.523(2) 0.1034(17)
O24 O 0.188(4) 0.657(2) 0.1249(15)
O25 O 1.194(5) 0.797(2) 0.1161(17)
O26 O 1.183(5) 0.912(2) 0.0916(18)
O27 O 0.888(7) 0.433(4) -0.003(3)
Si1 Si 0.6871(8) 0.75000 0.00000
Cu3 Cu 0.3705(2) 0.75000 0.00000
W1? W 0.3705(2) 0.75000 0.00000
W2 W 0.52435(11) 0.64309(5) -0.06980(4)
W3 W 0.52470(9) 0.70100(5) 0.10107(3)
W4 W 0.68881(10) 0.59256(4) 0.03136(3)
W5 W 0.85116(9) 0.64285(5) -0.07022(4)
W6 W 0.85225(10) 0.80021(5) -0.10157(4)
W7 W 0.00968(19) 0.75000 0.00000
Cu4? Cu 1.00968(19) 0.75000 0.00000
K1 K 0.3322(13) 0.5772(6) 0.0302(5)
O28? O 1.024(4) 1.0093(18) 0.0542(13)
K2 K 1.024(4) 1.0093(18) 0.0542(13)
C1G C 0.676(2) 1.0661(12) 0.3095(9)
H1G H 0.68050 1.08170 0.34030
C2G C 0.679(3) 1.0027(13) 0.3024(10)
H2G H 0.69280 0.97750 0.32890
C3G C 0.664(2) 0.9754(11) 0.2600(8)
C4G C 0.657(3) 1.0167(16) 0.2232(13)
H3G H 0.65250 1.00150 0.19220
C5G C 0.656(3) 1.0794(14) 0.2300(11)
H4G H 0.64700 1.10510 0.20360
C6G C 0.638(2) 0.8034(12) 0.2778(9)
H5G H 0.61910 0.77630 0.30260
C7G C 0.639(2) 0.8658(11) 0.2880(9)
H6G H 0.62130 0.87950 0.31870
C8G C 0.6656(19) 0.9072(9) 0.2532(8)
C9G C 0.695(2) 0.8828(11) 0.2069(9)
H7G H 0.71390 0.90940 0.18190
C10G C 0.695(3) 0.8186(11) 0.1998(9)
H8G H 0.71840 0.80310 0.17020
C11B C 0.962(2) 0.7907(12) 0.2871(9)
H9B H 0.93460 0.76940 0.31390
C12B C 0.958(2) 0.8524(11) 0.2887(9)
H10B H 0.92890 0.87290 0.31550
C15B C 1.013(3) 0.9883(13) 0.2915(10)
H11B H 1.02200 0.96770 0.32040
C16B C 1.014(3) 1.0523(15) 0.2916(12)
H12B H 1.02340 1.07350 0.32030
Cu1G Cu 0.6671(4) 1.19253(15) 0.27651(14)
Cu1G* Cu 0.6671(4) 0.19253(15) 0.27651(14)
Cu2E Cu 1.00000 1.1712(2) 0.25000
N1G N 0.668(2) 1.1050(12) 0.2728(9)
N2G N 0.6620(19) 0.7783(9) 0.2344(7)
N2* N 0.6620(19) 1.2783(9) 0.2656(7)
N4E N 1.00000 0.5849(19) 0.25000
O2A O 0.4531(18) 0.9107(9) 0.1046(6)
O3A O 0.451(2) 0.822(1) -0.1505(7)
O4A O 0.686(2) 0.9838(8) -0.0452(10)
O5A O 0.924(2) 0.9085(10) 0.1034(6)
O6A O 0.926(2) 0.6755(9) 0.1514(7)
O7A O 0.395(3) 0.8257(9) 0.0366(9)
O8A O 0.531(3) 0.7871(8) 0.1087(9)
O9A O 0.396(2) 0.7942(10) -0.0580(9)
O10A O 0.5707(18) 0.9072(16) 0.0165(7)
O11A O 0.688(2) 0.8714(14) 0.0924(7)
O12A O 0.5647(18) 0.8782(10) -0.0755(8)
O13A O 0.808(2) 0.9050(15) 0.0164(7)
O14A O 0.688(2) 0.7974(9) -0.1260(8)
O15A O 0.809(2) 0.8773(11) -0.0749(9)
O16* O -0.020(3) 0.6746(9) -0.0329(9)
O16A O -0.020(3) 0.8254(9) 0.0329(9)
O16A* O 0.980(3) 0.8254(9) 0.0329(9)
O17A O 0.853(2) 0.787(1) 0.1078(9)
O18A O -0.015(3) 0.7051(9) 0.060(1)
O18* O -0.015(3) 0.7949(9) -0.060(1)
O18A* O 0.985(3) 0.7051(9) 0.060(1)
O19A O 0.691(3) 0.8217(13) 0.0196(10)
O20A O 0.570(3) 0.7605(14) 0.0372(11)
O21A O 0.686(3) 0.7960(12) -0.0423(9)
O22A O 0.811(3) 0.7601(13) 0.0345(10)
O22* O -0.189(3) 0.7399(13) -0.0345(10)
O22A* O -0.189(3) 0.7601(13) 0.0345(10)
W2A W 0.52435(11) 0.85691(5) 0.06980(4)
W3A W 0.52470(9) 0.79900(5) -0.10107(3)
W4A W 0.68881(10) 0.90744(4) -0.03136(3)
W5A W 0.85116(9) 0.85715(5) 0.07022(4)
W5* W -0.14884(9) 0.64285(5) -0.07022(4)
W6A W 0.85225(10) 0.69979(5) 0.10157(4)
W6A* W -0.14775(10) 0.69979(5) 0.10157(4)
W7* W 1.00968(19) 0.75000 0.00000
#END
