
#######################################################################
#
#                 Cambridge Crystallographic Data Centre
#                                CCDC
#
#######################################################################
#
# If this CIF has been generated from an entry in the Cambridge
# Structural Database, then it will include bibliographic, chemical,
# crystal, experimental, refinement or atomic coordinate data resulting
# from the CCDC's data processing and validation procedures.
#
#######################################################################

data_CSD_CIF_PEPCET
_audit_creation_date 2007-01-23
_audit_creation_method CSD-ConQuest-V1
_database_code_CSD PEPCET
_database_code_depnum_ccdc_archive 'CCDC 625860'
_chemical_formula_sum 'C60 H60 Cu6 N12 Na4 O84 P2 W24'
_chemical_formula_moiety
;
(C60 H52 Cu6 N12 O80 P2 W24 4-)n,4n(Na1 1+),4n(H2 O1)
;
_journal_coden_Cambridge 9
_journal_volume 45
_journal_year 2006
_journal_page_first 7748
_journal_name_full 'Inorg.Chem. '
loop_
_publ_author_name
"L.San Felices"
"P.Vitoria"
"J.M.Gutierrez-Zorrilla"
"L.Lezama"
"S.Reinoso"
_chemical_name_systematic
;
catena-(tetra-sodium 
bis(\m~4~-aquaphosphatopentatricosaoxocupra(2)undecatungstate)-hexakis(\m~2~-4
,4-bipyridyl)-hexa-copper(i) tetrahydrate)
;
_cell_volume  12288.714
_exptl_crystal_colour 'orange'
_exptl_crystal_description 'prism'
_diffrn_ambient_temperature 293
_refine_special_details
;
The W sites have mixed occupancy with W:Cu refined with a range of 
occupancies. The sum formula is C60 H56 Cu8 N12 Na4 O88 P2 W22.
;
#These two values have been output from a single CSD field.
_refine_ls_R_factor_gt 0.0695
_refine_ls_wR_factor_gt 0.0695
_symmetry_cell_setting monoclinic
_symmetry_space_group_name_H-M 'P 21/a'
_symmetry_Int_Tables_number 14
loop_
_symmetry_equiv_pos_site_id
_symmetry_equiv_pos_as_xyz
1 x,y,z
2 1/2-x,1/2+y,-z
3 -x,-y,-z
4 -1/2+x,-1/2-y,z
_cell_length_a 21.253(2)
_cell_length_b 21.792(1)
_cell_length_c 27.105(1)
_cell_angle_alpha 90
_cell_angle_beta 101.790(6)
_cell_angle_gamma 90
_cell_formula_units_Z 4
loop_
_atom_type_symbol
_atom_type_radius_bond
C 0.68
H 0.23
Cu 1.67
N 0.68
Na 0.97
O 0.68
P 1.05
W 1.37
loop_
_atom_site_label
_atom_site_type_symbol
_atom_site_fract_x
_atom_site_fract_y
_atom_site_fract_z
Cu1? Cu 0.33430(9) 1.08378(6) 0.37779(5)
Cu2? Cu 0.33025(9) 1.23527(7) 0.33767(5)
Cu3? Cu 0.34012(9) 0.49897(7) 0.20039(6)
W1 W 0.17384(9) 1.00057(7) 0.17341(5)
Cu4? Cu 0.42124(9) 0.60522(8) 0.28348(6)
Cu5? Cu 0.33490(9) 0.73184(7) 0.33018(6)
Cu6? Cu 0.24370(11) 1.27341(8) 0.20986(6)
Cu7? Cu 0.26427(11) 0.77202(8) 0.20923(6)
Cu8? Cu 0.24111(11) 0.46565(8) 0.29244(6)
Cu9? Cu 0.25329(11) 0.96498(8) 0.29288(7)
W2 W 0.34494(9) 1.07871(7) 0.66544(5)
W3 W 0.32089(9) 1.15696(6) -0.12167(5)
W4 W 0.33430(9) 1.08378(6) 0.37779(5)
W5 W 0.33025(9) 1.23527(7) 0.33767(5)
W6 W 0.15988(9) 0.99897(7) 0.79961(6)
W7 W 0.33402(9) 1.16736(7) 0.16126(5)
Cu10? Cu 0.17384(9) 1.00057(7) 0.17341(5)
W8 W 0.16837(9) 1.16194(7) 0.13040(5)
W9 W 0.18018(9) 1.07333(7) 0.62605(5)
W10 W 0.14506(9) 1.15017(7) -0.16270(5)
W11 W 0.32903(9) 1.23901(7) 0.70517(6)
W12 W 0.15777(9) 1.07670(7) 0.34557(5)
W13 W 0.33451(9) 1.00736(6) 0.83711(5)
W14 W 0.15465(9) 1.22802(7) 0.30583(5)
W15 W 0.16510(9) 1.23184(7) 0.66982(6)
W16 W 0.41889(9) 1.12751(8) 0.28947(6)
W17 W 0.41635(9) 1.12627(7) 0.79426(6)
W18 W 0.07952(9) 1.11477(8) 0.22620(6)
W19 W 0.33725(9) 1.00658(7) 0.20420(5)
W20 W 0.07876(9) 1.10522(8) 0.71652(6)
W21 W 0.24370(11) 1.27341(8) 0.20986(6)
W22 W 0.23573(11) 1.27202(8) 0.79077(6)
W23 W 0.25889(11) 0.96565(8) 0.70756(6)
W24 W 0.25329(11) 0.96498(8) 0.29288(7)
Cu11 Cu 0.24560 1.15988 1.00830
Cu12 Cu 0.4311(3) 1.0647(2) 0.55002(18)
Cu13 Cu 0.2599(3) 1.08083(18) 0.50950(19)
Cu14 Cu 0.07260 0.67515 -0.04568
Cu15 Cu 0.0718(3) 1.0646(2) 0.4706(2)
Cu16 Cu 0.0712(3) 1.1750(2) -0.0299(2)
P1 P 0.2464(4) 1.1177(3) 0.7524(3)
P2 P 0.2483(4) 1.1192(3) 0.2543(3)
Na1 Na 0.4110(7) 0.8633(6) 0.2528(5)
Na2 Na 0.6005(6) 1.1243(5) 0.2498(4)
Na3 Na 0.1025(9) 0.8960(8) 0.2662(6)
Na4 Na 0.4201(8) 1.3070(7) 0.2422(6)
O1 O 0.1997(11) 0.9913(9) 0.6477(7)
O2 O 0.3165(11) 0.9732(9) 0.7725(7)
O3 O 0.2463(11) 1.0050(9) 0.8379(8)
O4 O 0.2636(11) 0.8863(9) 0.6937(8)
O5 O 0.1388(11) 1.0609(9) -0.1577(7)
O6 O 0.2325(12) 1.1412(10) -0.1245(8)
O7 O 0.4099(12) 1.0441(10) 0.8237(8)
O8 O 0.1405(11) 1.0651(9) 0.5648(7)
O9 O 0.2679(11) 1.0814(9) 0.6153(7)
O10 O 0.1699(9) 1.2219(8) 0.8120(6)
O11 O 0.2972(10) 1.2304(8) 0.8457(7)
O12 O 0.3023(12) 1.2895(10) 0.7559(8)
O13 O 0.2470(12) 1.2595(10) 0.6609(8)
O14 O 0.3749(12) 1.2886(10) 0.6805(8)
O15 O 0.1827(11) 1.0047(9) 0.3175(8)
O16 O 0.3185(11) 1.0133(9) 0.3423(8)
O17 O 0.2452(11) 1.0948(9) 0.3772(7)
O18 O 0.1479(10) 1.1621(8) 0.3538(7)
O19 O 0.3439(11) 1.1726(9) 0.3880(7)
O20 O 0.2437(11) 1.2350(9) 0.3393(8)
O21 O 0.4088(11) 1.2045(9) 0.3208(8)
O22 O 0.2573(11) 0.9859(9) 0.1615(8)
O23 O 0.3334(10) 1.0827(8) 0.1654(7)
O24 O 0.3934(12) 0.9631(10) 0.1809(8)
O25 O 0.1212(10) 1.1725(9) 0.0729(7)
O26 O 0.2529(12) 1.161(1) 0.1129(8)
O27 O 0.11440 0.67960 -0.12190
O28 O 0.3273(10) 0.9958(9) 0.6757(7)
O29 O 0.1909(11) 0.9678(9) 0.7451(8)
O30 O 0.1069(12) 1.1728(10) -0.1183(8)
O31 O 0.0791(13) 1.1446(11) 0.7814(9)
O32 O 0.4020(13) 1.0728(11) 0.6292(9)
O33 O 0.1742(11) 1.1554(9) 0.6304(8)
O34 O 0.3207(11) 0.9536(9) 0.2547(7)
O35 O 0.0847(13) 1.0777(10) 0.2909(9)
O36 O 0.1293(11) 1.0515(10) 0.3946(8)
O37 O 0.3074(11) 1.2710(9) 0.2737(8)
O38 O 0.1791(11) 1.2653(9) 0.2489(8)
O39 O 0.3940(11) 1.1640(9) 0.2268(8)
O40 O 0.1751(10) 1.0757(8) 0.1375(7)
O41 O 0.2497(10) 1.1606(8) 0.2092(7)
O42 O 0.2521(11) 1.0516(9) 0.2390(8)
O43 O 0.2452(10) 1.1858(8) 0.7348(7)
O44 O 0.2525(10) 1.0750(8) 0.7059(7)
O45 O 0.3672(10) 0.9494(9) 0.8745(7)
O46 O 0.3317(12) 1.071(1) 0.8861(9)
O47 O 0.0026(13) 1.1089(10) 0.6919(9)
O48 O 0.3873(12) 1.1957(10) 0.7607(8)
O49 O 0.1027(13) 1.1791(11) 0.6945(9)
O50 O 0.1848(11) 1.1024(9) 0.7699(8)
O51 O 0.2570(12) 0.8933(10) 0.3275(8)
O52 O 0.193(1) 0.9508(9) 0.2323(7)
O53 O 0.3638(12) 1.0574(10) 0.4375(8)
O54 O 0.0803(11) 1.1904(9) 0.2610(8)
O55 O 0.1819(11) 1.2442(9) 0.1490(8)
O56 O 0.2394(15) 1.3533(12) 0.1947(10)
O57 O 0.3564(12) 1.2992(10) 0.3733(9)
O58 O 0.3063(10) 1.1377(8) 0.2947(7)
O59 O 0.1850(12) 1.1318(10) 0.2742(8)
O60 O 0.5007(10) 1.1361(9) 0.8042(7)
O61 O 0.3970(13) 1.1615(10) 0.8569(9)
O62 O 0.4128(11) 1.0908(9) 0.3502(7)
O63 O 0.1210(12) 1.287(1) 0.3293(8)
O64 O 0.3362(11) 1.1660(9) 0.6674(7)
O65 O 0.1722(11) 1.2802(9) 0.7260(8)
O66 O 0.1329(13) 0.9339(11) 0.8240(9)
O67 O 0.3421(12) 1.1809(10) -0.0600(8)
O68 O 0.2250(12) 1.344(1) 0.8220(9)
O69 O 0.1186(14) 1.2819(11) 0.6261(10)
O70 O 0.3958(14) 1.0846(11) 0.7318(9)
O71 O 0.3037(11) 1.1060(9) 0.7973(7)
O72 O 0.1154(11) 1.0740(9) 0.6633(8)
O73 O 0.1087(12) 1.0432(10) 0.2021(8)
O74 O 0.3957(12) 1.0534(10) 0.2568(8)
O75 O 0.4983(16) 1.1316(13) 0.2920(11)
O76 O -0.0012(13) 1.1106(11) 0.2034(9)
O77 O 0.3089(11) 1.2484(9) 0.1745(8)
O78 O 0.1285(13) 0.9522(11) 0.1322(9)
O79 O 0.0885(14) 1.0287(11) 0.7515(10)
O80 O 0.1112(12) 1.1582(10) 0.1759(8)
O81 O 0.018(2) 0.4636(16) 0.2139(14)
O82 O 0.0742(16) 0.3277(14) 0.1354(11)
O83 O 0.4838(17) 0.7718(14) 0.2726(12)
O84 O 0.461(3) 0.938(2) 0.3045(19)
O85 O 0.0925(19) 0.8240(17) 0.1311(14)
O86 O 0.428(3) 1.391(2) 0.3041(18)
O87 O 0.005(2) 1.2684(17) 0.2017(14)
O88 O 0.018(3) 0.950(3) 0.197(2)
N1 N 0.2448(14) 1.0697(11) 0.0066(11)
N2 N 0.06750 0.58750 -0.04080
N3 N 0.0637(15) 0.9785(12) 0.4717(11)
N4 N 0.4376(14) 1.1514(11) 0.5467(10)
N5 N 0.2586(13) 1.1653(11) 0.508(1)
N6 N 0.4361(16) 0.9759(14) 0.5487(12)
N7 N 0.0658(14) 1.1521(11) 0.4661(10)
N8 N 0.2605(14) 0.9941(11) 0.5081(10)
N9 N 0.07120 0.76310 -0.04090
N10 N 0.2444(14) 1.2458(10) 0.0025(10)
N11 N 0.0645(15) 1.2616(13) -0.0317(11)
N12 N 0.0704(13) 1.0853(11) -0.0278(10)
C1 C 0.253(2) 0.965(2) 0.4599(18)
H1 H 0.25050 0.98800 0.43060
C2 C 0.2615(17) 1.3447(15) 0.0447(13)
H2 H 0.27490 1.36460 0.07540
C3 C 0.256(2) 1.2859(18) 0.0442(16)
H3 H 0.26040 1.26740 0.07560
C4 C 0.2396(17) 1.2749(14) -0.0388(12)
H4 H 0.23870 1.25260 -0.06820
C5 C 0.2390(16) 1.4795(14) -0.0450(12)
H5 H 0.22900 1.45760 -0.07500
C6 C 0.2508(15) 1.4429(11) -0.0025(10)
C7 C 0.2682(18) 1.4776(15) 0.0403(13)
H6 H 0.28090 1.45850 0.07140
C8 C 0.2484(17) 1.3784(13) 0.0021(12)
C9 C 0.2356(14) 1.3395(12) -0.042(1)
H7 H 0.22430 1.35770 -0.07360
C10 C 0.08500 0.55610 0.00050
H8 H 0.40190 1.07830 -0.03020
C11 C 0.4143(18) 0.9946(15) -0.0045(13)
H9 H 0.40000 0.97640 -0.03580
C12 C 0.4344(17) 0.9580(14) 0.0374(12)
C13 C 0.458(2) 0.9885(17) 0.0829(15)
H10 H 0.47840 0.96730 0.11160
C14 C 0.2369(16) 1.3968(14) 0.4522(12)
H11 H 0.23480 1.37620 0.42180
C15 C 0.2444(17) 1.3637(13) 0.4986(12)
C16 C 0.2692(16) 1.2670(14) 0.5473(12)
H12 H 0.28310 1.28800 0.57740
C17 C 0.2461(16) 1.2943(12) 0.4999(11)
C18 C 0.2368(17) 1.2590(14) 0.4590(12)
H13 H 0.22750 1.27680 0.42720
C19 C 0.0594(17) 0.8502(14) 0.4661(12)
C20 C 0.0576(17) 0.7809(15) 0.4633(12)
C21 C 0.0790(15) 0.7427(12) 0.5030(11)
H14 H 0.09560 0.75940 0.53460
C22 C 0.261(2) 1.0391(17) 0.0513(15)
H15 H 0.27030 1.05830 0.08260
C23 C 0.4356(17) 0.8899(15) 0.0328(13)
C24 C 0.4191(18) 0.8611(16) -0.0128(14)
H16 H 0.40700 0.88240 -0.04300
C25 C 0.0899(18) 0.9417(16) 0.5116(13)
H17 H 0.10820 0.96070 0.54180
C26 C 0.0910(18) 0.8795(15) 0.5099(13)
H18 H 0.11230 0.85690 0.53740
C27 C 0.0908(15) 1.1851(13) 0.5052(11)
H19 H 0.10910 1.16540 0.53510
C28 C 0.2678(17) 1.2081(15) 0.5421(13)
H20 H 0.27640 1.19000 0.57380
C29 C 0.2408(16) 1.1958(14) 0.4636(12)
H21 H 0.23070 1.17250 0.43420
C30 C 0.4292(16) 0.9460(14) 0.5028(12)
H22 H 0.42140 0.96930 0.47340
C31 C 0.4334(17) 0.8842(14) 0.4991(13)
H23 H 0.43330 0.86590 0.46810
C32 C 0.4378(17) 0.8490(14) 0.5414(12)
C33 C 0.2509(15) 0.9000(13) 0.4584(11)
H24 H 0.24600 0.88060 0.42720
C34 C 0.4535(19) 1.1914(16) 0.5846(14)
H25 H 0.46360 1.17370 0.61640
C35 C 0.4234(17) 1.1803(14) 0.5024(12)
H26 H 0.41460 1.15650 0.47330
C36 C 0.4333(15) 0.9447(13) 0.5908(12)
H27 H 0.42840 0.96390 0.62040
C37 C 0.4384(17) 0.8780(14) 0.5866(12)
H28 H 0.44210 0.85430 0.61560
C38 C 0.4356(17) 0.7796(14) 0.5411(12)
C39 C 0.4571(15) 0.7463(13) 0.5786(11)
H29 H 0.47210 0.76440 0.60980
C40 C 0.0296(19) 0.9489(16) 0.4302(14)
H30 H 0.00700 0.97120 0.40300
C41 C 0.0911(16) 1.2480(14) 0.5038(12)
H31 H 0.10900 1.27000 0.53260
C42 C 0.05080 0.55510 -0.08350
H32 H 0.45530 1.07550 0.11420
C43 C 0.4461(16) 1.3602(14) 0.0829(12)
H33 H 0.45390 1.38190 0.11310
C44 C 0.4332(16) 1.3912(13) 0.0392(11)
C45 C 0.0426(15) 0.7517(13) 0.4156(11)
H34 H 0.03070 0.77410 0.38590
C46 C 0.438(2) 0.8584(19) 0.0775(16)
H35 H 0.43570 0.87730 0.10780
C47 C 0.05700 1.29300 0.92830
H36 H 0.04580 1.27080 -0.10150
C48 C 0.0785(19) 1.3012(17) 0.0106(15)
H37 H 0.08730 1.28150 0.04170
C49 C 0.4239(17) 1.2914(15) -0.0015(13)
H38 H 0.42000 1.26870 -0.03110
C50 C 0.4242(15) 1.3537(13) -0.0038(11)
H39 H 0.41820 1.37230 -0.03530
C51 C 0.4565(19) 1.4970(16) 0.0766(14)
H40 H 0.47500 1.47990 0.10760
C52 C 0.4327(13) 1.4575(11) 0.0365(9)
C53 C 0.4139(15) 1.4906(13) -0.0073(11)
H41 H 0.40370 1.46940 -0.03760
C54 C 0.04610 1.06030 0.92730
H42 H 0.03120 1.08490 -0.10060
C55 C 0.09040 1.05200 1.00830
H43 H 0.10980 1.07040 0.03860
C56 C 0.2671(17) 0.9588(14) 0.5466(12)
H44 H 0.27580 0.97820 0.57780
C57 C 0.0410(17) 1.1824(14) 0.4261(13)
H45 H 0.02040 1.16020 0.39820
C58 C 0.0292(19) 0.8837(16) 0.4291(14)
H46 H 0.00620 0.86410 0.40060
C59 C 0.233(2) 1.0420(17) -0.0371(15)
H47 H 0.22610 1.06520 -0.06650
C60 C 0.448(2) 1.2924(18) 0.0839(16)
H48 H 0.46230 1.27120 0.11390
W2A W 0.15506(9) 1.57871(7) 0.33456(5)
W2A* W 0.15506(9) 0.57871(7) 0.33456(5)
W2* W 0.34494(9) 1.07871(7) -0.33456(5)
W3* W 0.32089(9) 1.15696(6) 0.87833(5)
W6* W 0.15988(9) 0.99897(7) -0.20039(6)
W7A W 0.16598(9) 1.66736(7) -0.16126(5)
W7A* W 0.16598(9) 0.66736(7) -0.16126(5)
W8A W 0.33163(9) 1.66194(7) -0.13040(5)
W8A* W 0.33163(9) 0.66194(7) -0.13040(5)
W9A W 0.31982(9) 1.57333(7) 0.37395(5)
W9A* W 0.31982(9) 0.57333(7) 0.37395(5)
W9* W 0.18018(9) 1.07333(7) -0.37395(5)
W10* W 0.14506(9) 1.15017(7) 0.83730(5)
W10A W 0.35494(9) 0.65017(7) 0.16270(5)
W10A* W 0.35494(9) 1.65017(7) 0.16270(5)
W11* W 0.32903(9) 1.23901(7) -0.29483(6)
W12A W 0.34223(9) 0.57670(7) 0.65443(5)
W12A* W 0.34223(9) 1.57670(7) 0.65443(5)
W13* W 0.33451(9) 1.00736(6) -0.16289(5)
W15* W 0.16510(9) 1.23184(7) -0.33018(6)
W17* W 0.41635(9) 1.12627(7) -0.20574(6)
W20* W 0.07876(9) 1.10522(8) -0.28348(6)
W22* W 0.23573(11) 1.27202(8) -0.20923(6)
W23* W 0.25889(11) 0.96565(8) -0.29244(6)
Cu11* Cu 0.24560 1.15988 0.00830
Cu11A Cu 0.25440 1.65988 -0.00830
Cu11A* Cu 0.25440 0.65988 -0.00830
Cu12A Cu 0.0689(3) 0.5647(2) 0.44998(18)
Cu12A* Cu 0.0689(3) 1.5647(2) 0.44998(18)
Cu13A Cu 0.2401(3) 1.58083(18) 0.49050(19)
Cu13A* Cu 0.2401(3) 0.58083(18) 0.49050(19)
Cu14A Cu 0.42740 1.17515 0.04568
Cu14* Cu 0.07260 1.67515 -0.04568
Cu15A Cu 0.4282(3) 0.5646(2) 0.5294(2)
Cu15A* Cu 0.4282(3) 1.5646(2) 0.5294(2)
Cu16A Cu 0.4288(3) 0.6750(2) 0.0299(2)
Cu16A* Cu 0.4288(3) 1.6750(2) 0.0299(2)
Cu16* Cu 0.0712(3) 1.1750(2) 0.9701(2)
P1* P 0.2464(4) 1.1177(3) -0.2476(3)
O1* O 0.1997(11) 0.9913(9) -0.3523(7)
O1A O 0.3003(11) 1.4913(9) 0.3523(7)
O1A* O 0.3003(11) 0.4913(9) 0.3523(7)
O2* O 0.3165(11) 0.9732(9) -0.2275(7)
O3* O 0.2463(11) 1.0050(9) -0.1621(8)
O4* O 0.2636(11) 0.8863(9) -0.3063(8)
O5* O 0.1388(11) 1.0609(9) 0.8423(7)
O5A O 0.3612(11) 0.5609(9) 0.1577(7)
O5A* O 0.3612(11) 1.5609(9) 0.1577(7)
O6* O 0.2325(12) 1.1412(10) 0.8755(8)
O6A O 0.2675(12) 0.6412(10) 0.1245(8)
O6A* O 0.2675(12) 1.6412(10) 0.1245(8)
O7* O 0.4099(12) 1.0441(10) -0.1763(8)
O8A O 0.3595(11) 0.5651(9) 0.4352(7)
O8A* O 0.3595(11) 1.5651(9) 0.4352(7)
O9A O 0.2321(11) 1.5814(9) 0.3847(7)
O9A* O 0.2321(11) 0.5814(9) 0.3847(7)
O10* O 0.1699(9) 1.2219(8) -0.1880(6)
O10A O 0.3301(9) 0.7219(8) 0.1880(6)
O10A* O 0.3301(9) 1.7219(8) 0.1880(6)
O11* O 0.2972(10) 1.2304(8) -0.1543(7)
O12* O 0.3023(12) 1.2895(10) -0.2441(8)
O15A O 0.3173(11) 0.5047(9) 0.6825(8)
O17A O 0.2548(11) 0.5948(9) 0.6228(7)
O18A O 0.3521(10) 0.6621(8) 0.6462(7)
O23A O 0.1666(10) 1.5827(8) -0.1654(7)
O25A O 0.3788(10) 0.6725(9) -0.0729(7)
O25A* O 0.3788(10) 1.6725(9) -0.0729(7)
O25* O 0.1212(10) 1.1725(9) 1.0729(7)
O26A O 0.2471(12) 1.661(1) -0.1129(8)
O26A* O 0.2471(12) 0.661(1) -0.1129(8)
O27A O 0.38560 1.17960 0.12190
O27* O 0.11440 1.67960 -0.12190
O28* O 0.3273(10) 0.9958(9) -0.3243(7)
O28A O 0.1727(10) 1.4958(9) 0.3243(7)
O28A* O 0.1727(10) 0.4958(9) 0.3243(7)
O29* O 0.1909(11) 0.9678(9) -0.2549(8)
O30* O 0.1069(12) 1.1728(10) 0.8817(8)
O30A O 0.3931(12) 0.6728(10) 0.1183(8)
O30A* O 0.3931(12) 1.6728(10) 0.1183(8)
O31* O 0.0791(13) 1.1446(11) -0.2186(9)
O31A O 0.4209(13) 0.6446(11) 0.2186(9)
O31A* O 0.4209(13) 1.6446(11) 0.2186(9)
O32A O 0.0980(13) 0.5728(11) 0.3708(9)
O32A* O 0.0980(13) 1.5728(11) 0.3708(9)
O33A O 0.3258(11) 1.6554(9) 0.3696(8)
O33A* O 0.3258(11) 0.6554(9) 0.3696(8)
O35A O 0.4153(13) 0.5777(10) 0.7091(9)
O36A O 0.3707(11) 0.5515(10) 0.6054(8)
O36A* O 0.3707(11) 1.5515(10) 0.6054(8)
O39A O 0.1060(11) 1.6640(9) -0.2268(8)
O40A O 0.3249(10) 1.5757(8) -0.1375(7)
O40A* O 0.3249(10) 0.5757(8) -0.1375(7)
O41A O 0.2503(10) 1.6606(8) -0.2092(7)
O41A* O 0.2503(10) 0.6606(8) -0.2092(7)
O43* O 0.2452(10) 1.1858(8) -0.2652(7)
O44* O 0.2525(10) 1.0750(8) -0.2941(7)
O44A O 0.2475(10) 1.5750(8) 0.2941(7)
O44A* O 0.2475(10) 0.5750(8) 0.2941(7)
O45* O 0.3672(10) 0.9494(9) -0.1255(7)
O46* O 0.3317(12) 1.071(1) -0.1139(9)
O47* O 0.0026(13) 1.1089(10) -0.3081(9)
O48* O 0.3873(12) 1.1957(10) -0.2393(8)
O49* O 0.1027(13) 1.1791(11) -0.3055(9)
O50* O 0.1848(11) 1.1024(9) -0.2301(8)
O50A O 0.3152(11) 0.6024(9) 0.2301(8)
O50A* O 0.3152(11) 1.6024(9) 0.2301(8)
O55A O 0.3181(11) 1.7442(9) -0.1490(8)
O55A* O 0.3181(11) 0.7442(9) -0.1490(8)
O59A O 0.3150(12) 0.6318(10) 0.7258(8)
O60* O 0.5007(10) 1.1361(9) -0.1958(7)
O61* O 0.3970(13) 1.1615(10) -0.1431(9)
O64A O 0.1638(11) 1.6660(9) 0.3326(7)
O64A* O 0.1638(11) 0.6660(9) 0.3326(7)
O65* O 0.1722(11) 1.2802(9) -0.2740(8)
O66* O 0.1329(13) 0.9339(11) -0.1760(9)
O67* O 0.3421(12) 1.1809(10) 0.9400(8)
O68* O 0.2250(12) 1.344(1) -0.1780(9)
O70* O 0.3958(14) 1.0846(11) -0.2682(9)
O70A O 0.1042(14) 1.5846(11) 0.2682(9)
O70A* O 0.1042(14) 0.5846(11) 0.2682(9)
O71* O 0.3037(11) 1.1060(9) -0.2027(7)
O72* O 0.1154(11) 1.0740(9) -0.3367(8)
O72A O 0.3846(11) 1.5740(9) 0.3367(8)
O72A* O 0.3846(11) 0.5740(9) 0.3367(8)
O77A O 0.1911(11) 1.7484(9) -0.1745(8)
O79* O 0.0885(14) 1.0287(11) -0.2485(10)
O80A O 0.3888(12) 1.6582(10) -0.1759(8)
O80A* O 0.3888(12) 0.6582(10) -0.1759(8)
N1A N 0.2552(14) 1.5697(11) -0.0066(11)
N1A* N 0.2552(14) 0.5697(11) -0.0066(11)
N2A N 0.43250 1.08750 0.04080
N2* N 0.06750 1.58750 -0.04080
N3A N 0.4363(15) 0.4785(12) 0.5283(11)
N3A* N 0.4363(15) 1.4785(12) 0.5283(11)
N4A N 0.0624(14) 0.6514(11) 0.4533(10)
N4A* N 0.0624(14) 1.6514(11) 0.4533(10)
N5A N 0.2414(13) 1.6653(11) 0.492(1)
N5A* N 0.2414(13) 0.6653(11) 0.492(1)
N6A N 0.0639(16) 0.4759(14) 0.4513(12)
N6A* N 0.0639(16) 1.4759(14) 0.4513(12)
N7A N 0.4342(14) 0.6521(11) 0.5339(10)
N7A* N 0.4342(14) 1.6521(11) 0.5339(10)
N8A N 0.2395(14) 1.4941(11) 0.4919(10)
N8A* N 0.2395(14) 0.4941(11) 0.4919(10)
N9A N 0.42880 1.26310 0.04090
N9* N 0.07120 1.76310 -0.04090
N10A N 0.2556(14) 1.7458(10) -0.0025(10)
N10A* N 0.2556(14) 0.7458(10) -0.0025(10)
N11A N 0.4355(15) 0.7616(13) 0.0317(11)
N11A* N 0.4355(15) 1.7616(13) 0.0317(11)
N11* N 0.0645(15) 1.2616(13) 0.9683(11)
N12A N 0.4296(13) 1.5853(11) 0.0278(10)
N12A* N 0.4296(13) 0.5853(11) 0.0278(10)
N12* N 0.0704(13) 1.0853(11) 0.9722(10)
C1A C 0.247(2) 1.465(2) 0.5401(18)
C1A* C 0.247(2) 0.465(2) 0.5401(18)
H1A H 0.24950 1.48800 0.56940
H1A* H 0.24950 0.48800 0.56940
C2A C 0.2385(17) 1.8447(15) -0.0447(13)
C2A* C 0.2385(17) 0.8447(15) -0.0447(13)
H2A H 0.22510 1.86460 -0.07540
H2A* H 0.22510 0.86460 -0.07540
C3A C 0.244(2) 1.7859(18) -0.0442(16)
C3A* C 0.244(2) 0.7859(18) -0.0442(16)
H3A H 0.23960 1.76740 -0.07560
H3A* H 0.23960 0.76740 -0.07560
C4A C 0.2604(17) 1.7749(14) 0.0388(12)
C4A* C 0.2604(17) 0.7749(14) 0.0388(12)
H4A H 0.26130 1.75260 0.06820
H4A* H 0.26130 0.75260 0.06820
C5A C 0.2610(16) 0.9795(14) 0.0450(12)
C5* C 0.2390(16) 0.4795(14) -0.0450(12)
H5A H 0.27100 0.95760 0.07500
C6A C 0.2492(15) 0.9429(11) 0.0025(10)
C7A C 0.2318(18) 0.9776(15) -0.0403(13)
C7* C 0.2682(18) 0.4776(15) 0.0403(13)
H6A H 0.21910 0.95850 -0.07140
C8A C 0.2516(17) 0.8784(13) -0.0021(12)
C8A* C 0.2516(17) 1.8784(13) -0.0021(12)
C9A C 0.2644(14) 1.8395(12) 0.042(1)
C9A* C 0.2644(14) 0.8395(12) 0.042(1)
H7A H 0.27570 1.85770 0.07360
H7A* H 0.27570 0.85770 0.07360
C10A C 0.41500 1.05610 -0.00050
C10* C 0.08500 1.55610 0.00050
H8A H 0.09810 1.57830 0.03020
C11A C 0.0857(18) 1.4946(15) 0.0045(13)
H9A H 0.10000 1.47640 0.03580
C12A C 0.0656(17) 1.4580(14) -0.0374(12)
C13A C 0.042(2) 1.4885(17) -0.0829(15)
H10A H 0.02160 1.46730 -0.11160
C14A C 0.2631(16) 0.8968(14) 0.5478(12)
C14* C 0.2369(16) 0.3968(14) 0.4522(12)
H11A H 0.26520 0.87620 0.57820
C15A C 0.2556(17) 0.8637(13) 0.5014(12)
C16A C 0.2308(16) 0.7670(14) 0.4527(12)
C16A* C 0.2308(16) 1.7670(14) 0.4527(12)
H12A H 0.21690 0.78800 0.42260
H12A* H 0.21690 1.78800 0.42260
C17A C 0.2539(16) 0.7943(12) 0.5001(11)
C17A* C 0.2539(16) 1.7943(12) 0.5001(11)
C18A C 0.2632(17) 0.7590(14) 0.5410(12)
C18A* C 0.2632(17) 1.7590(14) 0.5410(12)
H13A H 0.27250 0.77680 0.57280
H13A* H 0.27250 1.77680 0.57280
C19A C 0.4406(17) 1.3502(14) 0.5339(12)
C19A* C 0.4406(17) 0.3502(14) 0.5339(12)
C20A C 0.4424(17) 1.2809(15) 0.5367(12)
C21A C 0.4210(15) 1.2427(12) 0.4970(11)
C21* C 0.0790(15) 1.7427(12) 0.5030(11)
H14A H 0.40440 1.25940 0.46540
C22A C 0.239(2) 1.5391(17) -0.0513(15)
C22A* C 0.239(2) 0.5391(17) -0.0513(15)
H15A H 0.22970 1.55830 -0.08260
H15A* H 0.22970 0.55830 -0.08260
C23A C 0.0644(17) 1.3899(15) -0.0328(13)
C23* C 0.4356(17) 1.8899(15) 0.0328(13)
C24A C 0.0809(18) 1.3611(16) 0.0128(14)
C24* C 0.4191(18) 1.8611(16) -0.0128(14)
H16A H 0.09300 1.38240 0.04300
C25A C 0.4101(18) 0.4417(16) 0.4884(13)
C25A* C 0.4101(18) 1.4417(16) 0.4884(13)
H17A H 0.39180 0.46070 0.45820
H17A* H 0.39180 1.46070 0.45820
C26A C 0.4090(18) 1.3795(15) 0.4901(13)
C26A* C 0.4090(18) 0.3795(15) 0.4901(13)
H18A H 0.38770 1.35690 0.46260
H18A* H 0.38770 0.35690 0.46260
C27A C 0.4092(15) 0.6851(13) 0.4948(11)
C27A* C 0.4092(15) 1.6851(13) 0.4948(11)
H19A H 0.39090 0.66540 0.46490
H19A* H 0.39090 1.66540 0.46490
C28A C 0.2322(17) 1.7081(15) 0.4579(13)
C28A* C 0.2322(17) 0.7081(15) 0.4579(13)
H20A H 0.22360 1.69000 0.42620
H20A* H 0.22360 0.69000 0.42620
C29A C 0.2592(16) 1.6958(14) 0.5364(12)
C29A* C 0.2592(16) 0.6958(14) 0.5364(12)
H21A H 0.26930 1.67250 0.56580
H21A* H 0.26930 0.67250 0.56580
C30A C 0.0708(16) 0.4460(14) 0.4972(12)
C30A* C 0.0708(16) 1.4460(14) 0.4972(12)
H22A H 0.07860 0.46930 0.52660
H22A* H 0.07860 1.46930 0.52660
C31A C 0.0666(17) 1.3842(14) 0.5009(13)
C31A* C 0.0666(17) 0.3842(14) 0.5009(13)
H23A H 0.06670 1.36590 0.53190
H23A* H 0.06670 0.36590 0.53190
C32A C 0.0622(17) 1.3490(14) 0.4586(12)
C32A* C 0.0622(17) 0.3490(14) 0.4586(12)
C33A C 0.2491(15) 1.4000(13) 0.5416(11)
C33A* C 0.2491(15) 0.4000(13) 0.5416(11)
H24A H 0.25400 1.38060 0.57280
C34A C 0.0465(19) 0.6914(16) 0.4154(14)
C34A* C 0.0465(19) 1.6914(16) 0.4154(14)
H25A H 0.03640 0.67370 0.38360
H25A* H 0.03640 1.67370 0.38360
C35A C 0.0766(17) 0.6803(14) 0.4976(12)
C35A* C 0.0766(17) 1.6803(14) 0.4976(12)
H26A H 0.08540 0.65650 0.52670
H26A* H 0.08540 1.65650 0.52670
C36A C 0.0667(15) 0.4447(13) 0.4092(12)
C36A* C 0.0667(15) 1.4447(13) 0.4092(12)
H27A H 0.07160 0.46390 0.37960
H27A* H 0.07160 1.46390 0.37960
C37A C 0.0616(17) 1.3780(14) 0.4134(12)
C37A* C 0.0616(17) 0.3780(14) 0.4134(12)
H28A H 0.05790 1.35430 0.38440
H28A* H 0.05790 0.35430 0.38440
C38A C 0.0644(17) 1.2796(14) 0.4589(12)
C39A C 0.0429(15) 1.2463(13) 0.4214(11)
C39* C 0.4571(15) 1.7463(13) 0.5786(11)
H29A H 0.02790 1.26440 0.39020
C40A C 0.4704(19) 0.4489(16) 0.5698(14)
C40A* C 0.4704(19) 1.4489(16) 0.5698(14)
H30A H 0.49300 0.47120 0.59700
H30A* H 0.49300 1.47120 0.59700
C41A C 0.4089(16) 0.7480(14) 0.4962(12)
C41A* C 0.4089(16) 1.7480(14) 0.4962(12)
H31A H 0.39100 0.77000 0.46740
C42A C 0.44920 1.05510 0.08350
C42* C 0.05080 1.55510 -0.08350
H32A H 0.04470 1.57550 -0.11420
C43A C 0.0539(16) 0.8602(14) -0.0829(12)
C43A* C 0.0539(16) 1.8602(14) -0.0829(12)
H33A H 0.04610 0.88190 -0.11310
C44A C 0.0668(16) 0.8912(13) -0.0392(11)
C45A C 0.4574(15) 1.2517(13) 0.5844(11)
C45* C 0.0426(15) 1.7517(13) 0.4156(11)
H34A H 0.46930 1.27410 0.61410
C46A C 0.062(2) 1.3584(19) -0.0775(16)
C46* C 0.438(2) 1.8584(19) 0.0775(16)
H35A H 0.06430 1.37730 -0.10780
H35* H 0.43570 1.87730 0.10780
C47* C 0.05700 1.29300 -0.07170
C47A C 0.44300 0.79300 0.07170
C47A* C 0.44300 1.79300 0.07170
H36A H 0.45420 0.77080 0.10150
H36A* H 0.45420 1.77080 0.10150
C48A C 0.4215(19) 0.8012(17) -0.0106(15)
C48A* C 0.4215(19) 1.8012(17) -0.0106(15)
H37A H 0.41270 0.78150 -0.04170
H37A* H 0.41270 1.78150 -0.04170
C49A C 0.0761(17) 1.7914(15) 0.0015(13)
C49A* C 0.0761(17) 0.7914(15) 0.0015(13)
H38A H 0.08000 1.76870 0.03110
C50A C 0.0758(15) 0.8537(13) 0.0038(11)
C50A* C 0.0758(15) 1.8537(13) 0.0038(11)
H39A H 0.08180 0.87230 0.03530
C51A C 0.0435(19) 0.9970(16) -0.0766(14)
C51* C 0.4565(19) 0.4970(16) 0.0766(14)
H40A H 0.02500 0.97990 -0.10760
H40* H 0.47500 0.47990 0.10760
C52A C 0.0673(13) 0.9575(11) -0.0365(9)
C52* C 0.4327(13) 0.4575(11) 0.0365(9)
C53A C 0.0861(15) 0.9906(13) 0.0073(11)
C53* C 0.4139(15) 0.4906(13) -0.0073(11)
H41A H 0.09630 0.96940 0.03760
H41* H 0.40370 0.46940 -0.03760
C54* C 0.04610 1.06030 -0.07270
C54A C 0.45390 1.56030 0.07270
C54A* C 0.45390 0.56030 0.07270
H42A H 0.46880 1.58490 0.10060
H42A* H 0.46880 0.58490 0.10060
C55* C 0.09040 1.05200 0.00830
C55A C 0.40960 1.55200 -0.00830
C55A* C 0.40960 0.55200 -0.00830
H43A H 0.39020 1.57040 -0.03860
H43A* H 0.39020 0.57040 -0.03860
C56A C 0.2329(17) 1.4588(14) 0.4534(12)
C56A* C 0.2329(17) 0.4588(14) 0.4534(12)
H44A H 0.22420 1.47820 0.42220
H44A* H 0.22420 0.47820 0.42220
C57A C 0.4590(17) 0.6824(14) 0.5739(13)
C57A* C 0.4590(17) 1.6824(14) 0.5739(13)
H45A H 0.47960 0.66020 0.60180
H45A* H 0.47960 1.66020 0.60180
C58A C 0.4708(19) 1.3837(16) 0.5709(14)
C58A* C 0.4708(19) 0.3837(16) 0.5709(14)
H46A H 0.49380 1.36410 0.59940
H46A* H 0.49380 0.36410 0.59940
C59A C 0.267(2) 1.5420(17) 0.0371(15)
C59A* C 0.267(2) 0.5420(17) 0.0371(15)
H47A H 0.27390 1.56520 0.06650
H47A* H 0.27390 0.56520 0.06650
C60A C 0.052(2) 1.7924(18) -0.0839(16)
C60A* C 0.052(2) 0.7924(18) -0.0839(16)
H48A H 0.03770 1.77120 -0.11390
#END
