
#######################################################################
#
#                 Cambridge Crystallographic Data Centre
#                                CCDC
#
#######################################################################
#
# If this CIF has been generated from an entry in the Cambridge
# Structural Database, then it will include bibliographic, chemical,
# crystal, experimental, refinement or atomic coordinate data resulting
# from the CCDC's data processing and validation procedures.
#
#######################################################################

data_CSD_CIF_PEPRIN
_audit_creation_date 2013-05-19
_audit_creation_method CSD-ConQuest-V1
_database_code_CSD PEPRIN
_database_code_depnum_ccdc_archive 'CCDC 909016'
_chemical_formula_sum 'C26 H37 Cr1 F1 Mn1 N1 O20'
_chemical_formula_moiety
;
(C7 H9 F1 N1 O1 1+)n,n(C12 H24 O6),n(C6 Cr1 Mn1 O12 1-),n(C1 H4 O1)
;
_journal_coden_Cambridge 241
_journal_volume 42
_journal_year 2013
_journal_page_first 137
_journal_name_full 'Chem.Lett. '
loop_
_publ_author_name
"T.Endo"
"K.Kubo"
"M.Yoshitake"
"S.-i.Noro"
"T.Akutagawa"
"T.Nakamura"
_chemical_name_systematic
;
catena-[3-Fluoro-4-methoxyanilinium (18-crown-6) 
tris(\m~2~-oxalato)-chromium(iii)-manganese(ii) methanol solvate]
;
_cell_volume   3447.371
_exptl_crystal_density_diffrn 1.56
_diffrn_ambient_temperature 93
#These two values have been output from a single CSD field.
_refine_ls_R_factor_gt 0.0341
_refine_ls_wR_factor_gt 0.0341
_symmetry_cell_setting monoclinic
_symmetry_space_group_name_H-M 'C c'
_symmetry_Int_Tables_number 9
loop_
_symmetry_equiv_pos_site_id
_symmetry_equiv_pos_as_xyz
1 x,y,z
2 x,-y,1/2+z
3 1/2+x,1/2+y,z
4 1/2+x,1/2-y,1/2+z
_cell_length_a 16.1878(10)
_cell_length_b 9.4716(5)
_cell_length_c 22.6967(13)
_cell_angle_alpha 90
_cell_angle_beta 97.847(2)
_cell_angle_gamma 90
_cell_formula_units_Z 4
loop_
_atom_type_symbol
_atom_type_radius_bond
C 0.68
H 0.23
Cr 1.39
F 0.64
Mn 1.61
N 0.68
O 0.68
loop_
_atom_site_label
_atom_site_type_symbol
_atom_site_fract_x
_atom_site_fract_y
_atom_site_fract_z
N1 N 0.77437(14) 0.6079(2) 1.18505(10)
H1 H 0.81040 0.65890 1.21100
H2 H 0.76250 0.52500 1.20230
H3 H 0.72650 0.65800 1.17510
F1 F 1.00786(10) 0.64172(17) 1.07558(7)
C1 C 0.81291(18) 0.5785(3) 1.13078(12)
C2 C 0.77050(19) 0.5019(3) 1.08497(13)
H4 H 0.71600 0.46780 1.08770
C3 C 0.80806(19) 0.4744(3) 1.03425(13)
H5 H 0.77840 0.42290 1.00220
C4 C 0.88827(18) 0.5217(3) 1.03039(12)
C5 C 0.92906(16) 0.5973(3) 1.07837(12)
C6 C 0.89293(18) 0.6267(3) 1.12813(12)
H6 H 0.92220 0.67900 1.16010
C7 C 0.8947(2) 0.4125(4) 0.93709(14)
H7 H 0.93110 0.40710 0.90600
H8 H 0.84020 0.45010 0.92010
H9 H 0.88750 0.31790 0.95310
O1 O 0.93128(14) 0.5030(2) 0.98353(9)
C8 C 1.06519(17) 0.6834(3) 0.93074(12)
C9 C 1.12202(17) 0.7273(3) 0.98707(12)
C10 C 0.84416(18) 0.9866(3) 0.92802(13)
C11 C 0.85520(18) 0.9064(3) 0.98827(12)
C12 C 0.60971(18) 0.6703(3) 0.92773(13)
C13 C 0.57751(17) 0.7124(3) 0.98601(13)
O2 O 0.58707(12) 0.5476(2) 0.90797(8)
O3 O 0.52973(12) 0.6243(2) 1.00695(8)
O4 O 1.00942(12) 0.7721(2) 0.91072(9)
O5 O 1.10818(12) 0.8505(2) 1.00695(8)
O6 O 0.91127(12) 1.0209(2) 0.90855(9)
O7 O 0.92985(12) 0.87805(19) 1.00948(9)
O8 O 0.77232(13) 1.0125(2) 0.90392(9)
O9 O 0.79097(13) 0.8764(2) 1.01030(9)
O10 O 0.65332(13) 0.7554(2) 0.90438(9)
O11 O 0.60003(13) 0.8294(2) 1.00827(9)
O12 O 1.07728(12) 0.5665(2) 0.90800(9)
O13 O 1.17668(12) 0.6437(2) 1.00963(8)
Mn1 Mn 0.67799(2) 0.94986(4) 0.957570(17)
Cr1 Cr 1.01281(2) 0.94763(4) 0.958985(17)
C14 C 0.8206(2) 0.9914(3) 1.18958(14)
H10 H 0.81130 1.09460 1.18650
H11 H 0.84600 0.96000 1.15450
C15 C 0.8773(2) 0.9572(3) 1.24542(13)
H12 H 0.92730 1.01830 1.24900
H13 H 0.84820 0.97350 1.28050
C16 C 0.9553(2) 0.7679(3) 1.29470(13)
H14 H 0.92810 0.78430 1.33060
H15 H 1.00770 0.82300 1.29860
C17 C 0.97381(19) 0.6136(3) 1.28882(13)
H16 H 0.99860 0.59650 1.25200
H17 H 1.01390 0.58180 1.32310
C18 C 0.9093(2) 0.3893(3) 1.28761(15)
H18 H 0.95430 0.36260 1.31970
H19 H 0.92540 0.35750 1.24920
C19 C 0.8291(2) 0.3208(3) 1.29777(14)
H20 H 0.83810 0.21890 1.30590
H21 H 0.80800 0.36430 1.33250
C20 C 0.6917(2) 0.2725(3) 1.25086(15)
H22 H 0.66960 0.30750 1.28670
H23 H 0.69940 0.16910 1.25460
C21 C 0.6316(2) 0.3067(3) 1.19598(14)
H24 H 0.65720 0.28450 1.15990
H25 H 0.58020 0.24970 1.19520
C22 C 0.55325(19) 0.4943(3) 1.14828(14)
H26 H 0.50020 0.44280 1.14920
H27 H 0.57460 0.47130 1.11060
C23 C 0.5388(2) 0.6495(3) 1.15198(14)
H28 H 0.49570 0.67960 1.11920
H29 H 0.51900 0.67280 1.19020
C24 C 0.6053(2) 0.8720(3) 1.14500(14)
H30 H 0.58590 0.90660 1.18190
H31 H 0.56300 0.89780 1.11100
C25 C 0.6875(2) 0.9382(3) 1.13785(14)
H32 H 0.71080 0.89320 1.10440
H33 H 0.67980 1.04000 1.12900
O14 O 0.74324(13) 0.9199(2) 1.19145(9)
O15 O 0.90109(13) 0.8116(2) 1.24268(9)
O16 O 0.89786(13) 0.5382(2) 1.28699(9)
O17 O 0.76944(14) 0.3396(2) 1.24541(9)
O18 O 0.61199(14) 0.4536(2) 1.19718(9)
O19 O 0.61545(12) 0.7214(2) 1.14767(9)
O20 O 0.69862(19) 0.6674(3) 1.37891(13)
H34 H 0.66560 0.60110 1.38340
C26 C 0.6871(3) 0.7105(5) 1.32033(16)
H35 H 0.62820 0.73360 1.30830
H36 H 0.70370 0.63440 1.29510
H37 H 0.72130 0.79430 1.31600
O2B O 1.08707(12) 1.0476(2) 0.90797(8)
O3B O 1.02973(12) 1.1243(2) 1.00695(8)
O12B O 0.57728(12) 1.0665(2) 0.90800(9)
O13B O 0.67668(12) 1.1437(2) 1.00963(8)
Mn1B Mn 1.17799(2) 0.44986(4) 0.957570(17)
Cr1B Cr 0.51281(2) 0.44763(4) 0.958985(17)
#END
