
#######################################################################
#
#                 Cambridge Crystallographic Data Centre
#                                CCDC
#
#######################################################################
#
# If this CIF has been generated from an entry in the Cambridge
# Structural Database, then it will include bibliographic, chemical,
# crystal, experimental, refinement or atomic coordinate data resulting
# from the CCDC's data processing and validation procedures.
#
#######################################################################

data_CSD_CIF_PERHEA
_audit_creation_date 2007-01-23
_audit_creation_method CSD-ConQuest-V1
_database_code_CSD PERHEA
_database_code_depnum_ccdc_archive 'CCDC 272656'
_chemical_formula_sum 'C11 H23 Cl2 N3 O6 Zn1'
_chemical_formula_moiety
;
(C9 H13 Cl2 N1 O6 Zn1 2-)n,n(C2 H10 N2 2+)
;
_journal_coden_Cambridge 580
_journal_volume 25
_journal_year 2006
_journal_page_first 2929
_journal_name_full 'Polyhedron '
loop_
_publ_author_name
"M.Shakir"
"S.Parveen"
"P.Chingsubam"
"K.Aoki"
"S.N.Khan"
"A.U.Khan"
_chemical_name_systematic
;
catena-(ethylenediammonium 
(\m~2~-3,3',3''-nitrilopropionatedipropionato)-dichloro-zinc(ii))
;
_cell_volume   1715.209
_exptl_crystal_colour 'colorless'
_exptl_crystal_density_diffrn 1.664
_exptl_crystal_description 'prismatic'
_diffrn_ambient_temperature 296
#These two values have been output from a single CSD field.
_refine_ls_R_factor_gt 0.036
_refine_ls_wR_factor_gt 0.036
_symmetry_cell_setting monoclinic
_symmetry_space_group_name_H-M 'P 21/c'
_symmetry_Int_Tables_number 14
loop_
_symmetry_equiv_pos_site_id
_symmetry_equiv_pos_as_xyz
1 x,y,z
2 -x,1/2+y,1/2-z
3 -x,-y,-z
4 x,-1/2-y,-1/2+z
_cell_length_a 10.083(1)
_cell_length_b 11.426(2)
_cell_length_c 15.546(2)
_cell_angle_alpha 90
_cell_angle_beta 106.731(10)
_cell_angle_gamma 90
_cell_formula_units_Z 4
loop_
_atom_type_symbol
_atom_type_radius_bond
C 0.68
H 0.23
Cl 0.99
N 0.68
O 0.68
Zn 1.45
loop_
_atom_site_label
_atom_site_type_symbol
_atom_site_fract_x
_atom_site_fract_y
_atom_site_fract_z
Zn1 Zn 0.17449(5) 0.14031(4) 0.17635(3)
Cl1 Cl 0.1930(1) 0.33468(9) 0.18483(9)
Cl2 Cl 0.2218(1) 0.06407(10) 0.05305(7)
O1 O -0.0019(3) 0.0826(2) 0.1938(2)
O2 O -0.1226(3) 0.1881(3) 0.0768(2)
O3 O -0.3227(3) 0.5743(3) 0.2229(2)
O4 O -0.2366(3) 0.3937(3) 0.2420(2)
O5 O -0.2008(3) 0.3743(3) -0.0919(2)
O6 O -0.2821(3) 0.4342(3) 0.0194(2)
N1 N -0.4091(3) 0.2458(3) 0.0822(2)
N2 N -0.0496(4) 0.5569(3) 0.1144(3)
N3 N 0.0529(4) 0.8223(4) 0.0960(3)
C1 C -0.3767(4) 0.1169(3) 0.0930(3)
C2 C -0.2446(4) 0.0915(4) 0.1670(3)
C3 C -0.1156(4) 0.1252(3) 0.1414(3)
C4 C -0.4813(5) 0.2870(4) 0.1487(3)
C5 C -0.4739(4) 0.4185(4) 0.1617(3)
C6 C -0.3322(4) 0.4635(4) 0.2132(3)
C7 C -0.4916(4) 0.2752(4) -0.0123(3)
C8 C -0.4017(4) 0.2815(4) -0.0750(3)
C9 C -0.2852(4) 0.3714(4) -0.0460(3)
C10 C -0.1259(5) 0.6690(4) 0.0882(3)
C11 C -0.0518(5) 0.7750(4) 0.1365(3)
H1 H -0.336(5) 0.286(4) 0.090(3)
H2 H -0.368(4) 0.088(4) 0.036(3)
H3 H -0.454(5) 0.075(4) 0.110(3)
H4 H -0.242(5) 0.128(5) 0.220(3)
H5 H -0.239(5) 0.008(5) 0.186(3)
H6 H -0.444(4) 0.250(4) 0.205(3)
H7 H -0.577(5) 0.255(4) 0.127(3)
H8 H -0.503(5) 0.457(4) 0.104(3)
H9 H -0.539(5) 0.439(5) 0.199(3)
H10 H -0.532(5) 0.352(4) -0.006(3)
H11 H -0.560(4) 0.214(4) -0.032(3)
H12 H -0.457(5) 0.297(4) -0.135(3)
H13 H -0.362(5) 0.205(4) -0.082(3)
H14 H 0.031(6) 0.552(5) 0.093(3)
H15 H -0.030(4) 0.545(3) 0.181(3)
H16 H -0.091(6) 0.505(5) 0.085(4)
H17 H -0.143(4) 0.678(4) 0.024(3)
H18 H -0.216(5) 0.664(4) 0.110(3)
H19 H -0.005(4) 0.757(4) 0.205(3)
H20 H -0.116(6) 0.834(6) 0.139(4)
H21 H 0.095(5) 0.866(4) 0.124(3)
H22 H 0.020(6) 0.849(5) 0.035(4)
H23 H 0.117(5) 0.764(4) 0.087(3)
Zn1A Zn -0.17449(5) 0.64031(4) 0.32365(3)
O3A O 0.3227(3) 0.0743(3) 0.2771(2)
#END
