
#######################################################################
#
#                 Cambridge Crystallographic Data Centre
#                                CCDC
#
#######################################################################
#
# If this CIF has been generated from an entry in the Cambridge
# Structural Database, then it will include bibliographic, chemical,
# crystal, experimental, refinement or atomic coordinate data resulting
# from the CCDC's data processing and validation procedures.
#
#######################################################################

data_CSD_CIF_PERZIY
_audit_creation_date 2018-03-07
_audit_creation_method CSD-ConQuest-V1
_database_code_CSD PERZIY
_database_code_depnum_ccdc_archive 'CCDC 1579015'
_chemical_formula_sum 'C108 H216 Co2 K8 N12 O36 Sn18'
_chemical_formula_moiety
;
6(C18 H36 K1 N2 O6 1+),n(Co2 K2 Sn18 6-)
;
_journal_coden_Cambridge 9
_journal_volume 57
_journal_year 2018
_journal_page_first 3025
_journal_name_full 'Inorg.Chem. '
loop_
_publ_author_name
"Chao Liu"
"Lei-Jiao Li"
"Xiao Jin"
"J.E.McGrady"
"Zhong-Ming Sun"
_chemical_name_systematic
;
catena-[hexakis((4,7,13,16,21,24-hexaoxa-1,10-diazabicyclo[8.8.8]hexacosane)-p
otassium) di-cobalt-potassium-octadeca-tin]
;
_cell_volume   4199.155
_exptl_crystal_density_diffrn 1.908
_exptl_crystal_description 'block'
_diffrn_ambient_temperature 150
#These two values have been output from a single CSD field.
_refine_ls_R_factor_gt 0.0417
_refine_ls_wR_factor_gt 0.0417
_symmetry_cell_setting triclinic
_symmetry_space_group_name_H-M 'P -1'
_symmetry_Int_Tables_number 2
loop_
_symmetry_equiv_pos_site_id
_symmetry_equiv_pos_as_xyz
1 x,y,z
2 -x,-y,-z
_cell_length_a 15.7785(16)
_cell_length_b 16.2847(16)
_cell_length_c 20.258(2)
_cell_angle_alpha 98.737(2)
_cell_angle_beta 104.625(2)
_cell_angle_gamma 118.380(2)
_cell_formula_units_Z 1
loop_
_atom_type_symbol
_atom_type_radius_bond
C 0.68
H 0.23
Co 1.26
K 2.03
N 0.68
O 0.68
Sn 1.39
loop_
_atom_site_label
_atom_site_type_symbol
_atom_site_fract_x
_atom_site_fract_y
_atom_site_fract_z
Sn1 Sn 1.15929(3) 0.75746(3) 0.29062(2)
Sn2 Sn 1.12055(3) 0.56683(3) 0.19804(2)
Sn3 Sn 0.97759(3) 0.63992(3) 0.14753(2)
Sn4 Sn 1.08368(3) 0.65955(3) 0.39923(2)
Sn5 Sn 0.89559(3) 0.41157(3) 0.15792(2)
Sn6 Sn 0.95556(3) 0.71113(3) 0.29911(2)
Sn7 Sn 0.86707(3) 0.47624(3) 0.31309(3)
Sn8 Sn 1.05046(3) 0.46502(3) 0.30884(2)
Sn9 Sn 0.79362(3) 0.52251(3) 0.18190(3)
Co1 Co 1.00251(6) 0.58122(6) 0.26076(5)
K1 K 1.00000 0.50000 0.00000
K2 K 1.00000 0.50000 0.50000
K3 K 0.75864(9) 0.83183(9) 0.86724(7)
O1 O 0.8397(3) 1.0063(3) 0.9819(2)
O2 O 0.5784(3) 0.8246(3) 0.7826(2)
O3 O 0.8837(3) 0.9093(3) 0.7854(2)
O4 O 0.5559(3) 0.6768(3) 0.8456(2)
O5 O 0.8172(3) 0.7197(3) 0.7911(3)
O6 O 0.8617(3) 0.8519(3) 1.0134(2)
N1 N 0.7354(4) 0.6562(4) 0.9024(3)
N2 N 0.7835(4) 1.0088(3) 0.8349(3)
C1 C 0.4837(5) 0.7602(5) 0.7896(4)
H1 H 0.42590 0.75080 0.75080
H2 H 0.48300 0.78910 0.83480
C2 C 0.7980(5) 1.0808(5) 0.8971(3)
H3 H 0.73120 1.05880 0.90130
H4 H 0.82190 1.14330 0.88800
C3 C 0.8651(5) 0.9242(5) 1.0653(3)
H5 H 0.90870 0.93430 1.11290
H6 H 0.79580 0.90120 1.06470
C4 C 0.8766(5) 0.8377(5) 0.7303(4)
H7 H 0.92830 0.87000 0.70990
H8 H 0.80850 0.80230 0.69210
C5 C 0.8816(5) 0.9870(5) 0.7604(4)
H9 H 0.82110 0.95870 0.71660
H10 H 0.94310 1.02370 0.74960
C6 C 0.5432(5) 0.5847(5) 0.8449(4)
H11 H 0.54170 0.55340 0.79950
H12 H 0.47760 0.54220 0.84920
C7 C 0.8737(5) 1.0970(4) 0.9679(4)
H13 H 0.94220 1.12330 0.96600
H14 H 0.87800 1.14420 1.00630
C8 C 0.8780(5) 1.0543(4) 0.8165(4)
H15 H 0.88290 1.10890 0.80030
H16 H 0.93850 1.08110 0.86000
C9 C 0.5901(5) 0.9163(5) 0.7803(3)
H17 H 0.58840 0.94840 0.82390
H18 H 0.53340 0.90530 0.73960
C10 C 0.4720(5) 0.6637(5) 0.7872(3)
H19 H 0.40630 0.61950 0.79070
H20 H 0.47180 0.63440 0.74170
C11 C 0.9070(5) 1.0187(5) 1.0494(3)
H21 H 0.91360 1.06850 1.08700
H22 H 0.97540 1.04070 1.04830
C12 C 0.6916(4) 0.9809(4) 0.7733(3)
H23 H 0.69290 0.94680 0.73030
H24 H 0.69570 1.04030 0.76700
C13 C 0.8163(5) 0.6842(5) 0.9722(4)
H25 H 0.88210 0.70760 0.96620
H26 H 0.79900 0.62630 0.98730
C14 C 0.8285(5) 0.7636(5) 1.0310(4)
H27 H 0.76270 0.74140 1.03680
H28 H 0.87890 0.77560 1.07630
C15 C 0.6310(5) 0.5975(5) 0.9062(4)
H29 H 0.63220 0.62950 0.95120
H30 H 0.61730 0.53290 0.90670
C16 C 0.8939(5) 0.7679(5) 0.7617(4)
H31 H 0.89000 0.71940 0.72470
H32 H 0.96260 0.80330 0.79920
C17 C 0.7440(6) 0.5960(5) 0.8449(4)
H33 H 0.75090 0.54560 0.86100
H34 H 0.68030 0.56310 0.80270
C18 C 0.8338(6) 0.6544(6) 0.8238(4)
H35 H 0.89760 0.69180 0.86610
H36 H 0.84020 0.61040 0.79030
K4 K 0.62664(9) 0.73975(9) 0.49117(7)
O7 O 0.5904(3) 0.6351(3) 0.3491(2)
O8 O 0.8256(3) 0.9031(3) 0.5119(2)
O9 O 0.6857(3) 0.9331(3) 0.5615(2)
O10 O 0.5095(3) 0.6371(3) 0.5729(2)
O11 O 0.4658(3) 0.7085(3) 0.3718(2)
O12 O 0.6884(3) 0.6364(3) 0.5735(2)
N3 N 0.4668(4) 0.7747(4) 0.5159(3)
N4 N 0.7874(4) 0.7026(4) 0.4705(3)
C19 C 0.7391(5) 0.6251(5) 0.3999(3)
H37 H 0.69180 0.56230 0.40400
H38 H 0.79300 0.62030 0.38850
C20 C 0.6806(5) 0.6431(5) 0.3387(3)
H39 H 0.72510 0.70830 0.33670
H40 H 0.65950 0.59520 0.29350
C21 C 0.4397(5) 0.6411(4) 0.3050(3)
H41 H 0.39860 0.64990 0.26550
H42 H 0.39890 0.57390 0.30490
C22 C 0.5201(5) 0.8711(5) 0.5712(4)
H43 H 0.54800 0.86540 0.61760
H44 H 0.46950 0.88810 0.57330
C23 C 0.5371(5) 0.6598(5) 0.2955(3)
H45 H 0.52090 0.62020 0.24790
H46 H 0.58090 0.72860 0.30020
C24 C 0.8763(5) 0.7940(5) 0.4705(3)
H47 H 0.85850 0.80250 0.42370
H48 H 0.93560 0.78720 0.47830
C25 C 0.9061(5) 0.8838(5) 0.5272(3)
H49 H 0.91890 0.87390 0.57390
H50 H 0.96950 0.94000 0.52910
C26 C 0.4544(5) 0.6738(5) 0.5982(3)
H51 H 0.50240 0.73270 0.63960
H52 H 0.40460 0.62500 0.61310
C27 C 0.8241(5) 0.6688(5) 0.5277(4)
H53 H 0.87360 0.72550 0.57040
H54 H 0.86040 0.64000 0.51290
C28 C 0.5668(5) 0.6167(5) 0.6286(3)
H55 H 0.52000 0.57240 0.64780
H56 H 0.61920 0.67750 0.66760
C29 C 0.3990(5) 0.6974(5) 0.5404(4)
H57 H 0.35150 0.63790 0.49940
H58 H 0.35790 0.71770 0.55790
C30 C 0.6174(5) 0.5713(5) 0.5991(4)
H59 H 0.60410 0.50880 0.59780
C31 C 0.7390(5) 0.5940(5) 0.5471(4)
H60 H 0.68890 0.53670 0.50490
H61 H 0.76870 0.57280 0.58360
C32 C 0.8564(5) 0.9932(5) 0.5616(4)
H62 H 0.91450 1.04760 0.55640
H63 H 0.87870 0.99180 0.61040
C33 C 0.3736(4) 0.6909(5) 0.3835(3)
H64 H 0.33990 0.62840 0.39230
H65 H 0.32560 0.68820 0.34110
C34 C 0.7688(5) 1.0083(5) 0.5484(4)
H66 H 0.79220 1.07230 0.57980
H67 H 0.74460 1.00690 0.49890
C35 C 0.4030(5) 0.7733(5) 0.4476(4)
H68 H 0.44140 0.83570 0.43960
H69 H 0.34020 0.76630 0.45180
C36 C 0.6078(5) 0.9543(5) 0.5588(4)
H70 H 0.58160 0.96040 0.51230
H71 H 0.63650 1.01600 0.59560
K5 K 0.61077(9) 0.89326(9) 0.17619(7)
O13 O 0.5407(3) 0.9467(3) 0.2810(2)
O14 O 0.6473(3) 0.7464(3) 0.1183(2)
O15 O 0.4020(3) 0.7734(3) 0.1558(2)
O16 O 0.7689(3) 0.8777(3) 0.2642(2)
O17 O 0.7421(4) 1.0884(3) 0.1807(3)
O18 O 0.5731(3) 0.9436(3) 0.0510(2)
N5 N 0.7658(4) 1.0533(4) 0.3210(3)
N6 N 0.4571(4) 0.7311(4) 0.0334(3)
C37 C 0.4373(5) 0.7782(5) -0.0209(3)
H72 H 0.40550 0.73100 -0.06870
H73 H 0.38860 0.79590 -0.01450
C38 C 0.8019(5) 0.8276(6) 0.2236(4)
H74 H 0.85060 0.81770 0.25590
H75 H 0.83710 0.86730 0.19670
C39 C 0.4401(5) 0.8698(5) 0.2730(4)
H76 H 0.41170 0.89590 0.30110
H77 H 0.44490 0.81930 0.29050
C40 C 0.3610(5) 0.6649(5) 0.0430(4)
H78 H 0.37190 0.62260 0.06830
H79 H 0.30650 0.62330 -0.00390
C41 C 0.4994(5) 0.6730(5) 0.0101(4)
H80 H 0.54590 0.70780 -0.01320
H81 H 0.44280 0.61030 -0.02520
C42 C 0.5342(5) 0.8686(5) -0.0159(3)
H82 H 0.58600 0.85330 -0.01790
H83 H 0.51900 0.89180 -0.05590
C43 C 0.8554(5) 0.9633(6) 0.3200(4)
H84 H 0.89980 1.00720 0.29930
H85 H 0.89560 0.94480 0.35180
C44 C 0.8206(5) 1.0151(5) 0.3619(4)
H86 H 0.77540 0.97010 0.38160
H87 H 0.88090 1.06960 0.40210
C45 C 0.7117(5) 0.7313(5) 0.1733(4)
H88 H 0.73540 0.69340 0.15130
H89 H 0.67170 0.69470 0.19950
C46 C 0.5575(5) 0.6545(5) 0.0713(4)
H90 H 0.51350 0.62360 0.09720
H91 H 0.57760 0.61080 0.05290
C47 C 0.3702(5) 0.8260(5) 0.1950(4)
H92 H 0.29910 0.78190 0.19010
H93 H 0.37320 0.87800 0.17580
C48 C 0.6105(5) 0.9873(5) 0.3538(4)
H94 H 0.62450 0.93940 0.36780
H95 H 0.58020 1.00500 0.38500
C49 C 0.6577(5) 1.0351(5) 0.0532(4)
H96 H 0.63470 1.05510 0.01310
H97 H 0.71370 1.02720 0.04940
C50 C 0.3260(5) 0.7194(5) 0.0845(4)
H98 H 0.31770 0.76410 0.06090
H99 H 0.25970 0.67300 0.08610
C51 C 0.6952(6) 1.1119(5) 0.1231(4)
H100 H 0.74530 1.17620 0.12260
H101 H 0.63730 1.11400 0.12950
C52 C 0.7096(6) 1.0773(6) 0.3607(4)
H102 H 0.69370 1.12210 0.34250
H103 H 0.75420 1.11060 0.41120
C53 C 0.8386(6) 1.1423(6) 0.3069(4)
H104 H 0.87550 1.19820 0.35050
H105 H 0.88950 1.13240 0.29480
C54 C 0.7855(7) 1.1652(5) 0.2476(4)
H106 H 0.73080 1.17030 0.25730
H107 H 0.83480 1.22780 0.24440
Sn1A Sn 0.84071(3) 0.24254(3) -0.29062(2)
Sn2A Sn 0.87945(3) 0.43317(3) -0.19804(2)
Sn3A Sn 1.02241(3) 0.36008(3) -0.14753(2)
Sn4A Sn 0.91632(3) 0.34045(3) -0.39923(2)
Sn5A Sn 1.10441(3) 0.58843(3) -0.15792(2)
Sn6A Sn 1.04444(3) 0.28887(3) -0.29911(2)
Sn7A Sn 1.13293(3) 0.52376(3) -0.31309(3)
Sn8A Sn 0.94954(3) 0.53498(3) -0.30884(2)
Sn9A Sn 1.20638(3) 0.47749(3) -0.18190(3)
Co1A Co 0.99749(6) 0.41878(6) -0.26076(5)
Sn4A* Sn 0.91632(3) 0.34045(3) 0.60077(2)
Sn7A* Sn 1.13293(3) 0.52376(3) 0.68691(3)
K2* K 1.00000 0.50000 -0.50000
#END
