
#######################################################################
#
#                 Cambridge Crystallographic Data Centre
#                                CCDC
#
#######################################################################
#
# If this CIF has been generated from an entry in the Cambridge
# Structural Database, then it will include bibliographic, chemical,
# crystal, experimental, refinement or atomic coordinate data resulting
# from the CCDC's data processing and validation procedures.
#
#######################################################################

data_CSD_CIF_PESSAK
_audit_creation_date 2018-03-08
_audit_creation_method CSD-ConQuest-V1
_database_code_CSD PESSAK
_database_code_depnum_ccdc_archive 'CCDC 1491123'
_chemical_formula_sum 'C8 H14 Fe2 N1 O12'
_chemical_formula_moiety
;
(C6 H6 Fe2 O12 1-)n,n(C2 H8 N1 1+)
;
_journal_coden_Cambridge 1089
_journal_volume 29
_journal_year 2017
_journal_page_first 1702512
_journal_name_full 'Adv.Mater. '
loop_
_publ_author_name
"Li-Hong Chen"
"Jiang-Bin Guo"
"Xuan Wang"
"Xin-Wei Dong"
"Hai-Xia Zhao"
"La-Sheng Long"
"Lan-Sun Zheng"
_chemical_name_systematic
;
catena-(dimethylammonium hexakis(\m-formato)-iron(ii)-iron(iii))
;
_cell_volume    805.557
_exptl_crystal_colour 'black'
_exptl_crystal_density_diffrn 1.772
_exptl_crystal_description 'hexagonal'
_diffrn_ambient_temperature 293
_refine_special_details
;
The sites represented as Fe01,Fe02 are each mixed Fe/Ni sites with 
occupancies 0.68:0.32. The sum formula is reported as C8 H14 Fe1.36 N Ni0.64 
O12. The cation is disordered by symmetry.
;
#These two values have been output from a single CSD field.
_refine_ls_R_factor_gt 0.0671
_refine_ls_wR_factor_gt 0.0671
_symmetry_cell_setting hexagonal
_symmetry_space_group_name_H-M 'P -3 1 c'
_symmetry_Int_Tables_number 163
loop_
_symmetry_equiv_pos_site_id
_symmetry_equiv_pos_as_xyz
1 x,y,z
2 -y,x-y,z
3 -x+y,-x,z
4 -y,-x,1/2-z
5 -x+y,y,1/2-z
6 x,x-y,1/2-z
7 -x,-y,-z
8 y,-x+y,-z
9 x-y,x,-z
10 y,x,-1/2+z
11 x-y,-y,-1/2+z
12 -x,-x+y,-1/2+z
_cell_length_a 8.2193(4)
_cell_length_b 8.2193(4)
_cell_length_c 13.7688(7)
_cell_angle_alpha 90
_cell_angle_beta 90
_cell_angle_gamma 120
_cell_formula_units_Z 2
loop_
_atom_type_symbol
_atom_type_radius_bond
C 0.68
H 0.23
Fe 1.52
N 0.68
Ni 1.24
O 0.68
loop_
_atom_site_label
_atom_site_type_symbol
_atom_site_fract_x
_atom_site_fract_y
_atom_site_fract_z
Fe1 Fe 1.00000 0.00000 0.50000
Fe2 Fe 0.66670 0.33330 0.75000
O1 O 1.0090(5) 0.2067(5) 0.5828(3)
O2 O 0.8827(6) 0.3408(5) 0.6674(3)
C1 C 0.8736(8) 0.2107(8) 0.6199(4)
H1 H 0.75520 0.10620 0.61080
C2 C 1.33330 0.66670 0.659(4)
N1 N 1.279(4) 0.559(8) 0.75000
Ni1? Ni 1.00000 0.00000 0.50000
Ni2? Ni 0.66670 0.33330 0.75000
O1A O 0.7933(5) -0.1977(5) 0.5828(3)
O2A O 0.6592(6) -0.4581(5) 0.6674(3)
C1A C 0.7893(8) -0.3371(8) 0.6199(4)
H1A H 0.89380 -0.35100 0.61080
O1A* O 0.7933(5) 0.8023(5) 0.5828(3)
O2A* O 0.6592(6) 0.5419(5) 0.6674(3)
C1A* C 0.7893(8) 0.6629(8) 0.6199(4)
H1A* H 0.89380 0.64900 0.61080
O1B O 0.1977(5) -0.0090(5) 0.5828(3)
O2B O 0.4581(6) 0.1173(5) 0.6674(3)
C1B C 0.3371(8) 0.1264(8) 0.6199(4)
H1B H 0.35100 0.24480 0.61080
O1B* O 1.1977(5) -0.0090(5) 0.5828(3)
O2B* O 1.4581(6) 0.1173(5) 0.6674(3)
C1B* C 1.3371(8) 0.1264(8) 0.6199(4)
H1B* H 1.35100 0.24480 0.61080
O1C O 0.7933(5) -0.0090(5) 0.9172(3)
O2C O 0.6592(6) 0.1173(5) 0.8326(3)
C1C C 0.7893(8) 0.1264(8) 0.8801(4)
H1C H 0.89380 0.24480 0.88920
Fe1* Fe 0.00000 0.00000 0.50000
Fe1** Fe 1.00000 1.00000 0.50000
Fe1C Fe 1.00000 0.00000 1.00000
Fe2* Fe 0.66670 -0.66670 0.75000
Fe2** Fe 1.66670 0.33330 0.75000
O1F O 0.9910(5) -0.2067(5) 0.4172(3)
O1G O 1.2067(5) 0.1977(5) 0.4172(3)
O1H O 0.8023(5) 0.0090(5) 0.4172(3)
O2D O 0.4581(6) 0.3408(5) 0.8326(3)
O2E O 0.8827(6) 0.5419(5) 0.8326(3)
N1A N 1.441(4) 0.720(8) 0.75000
N1B N 1.280(4) 0.721(8) 0.75000
C2C C 1.33330 0.66670 0.841(4)
#END
