
#######################################################################
#
#                 Cambridge Crystallographic Data Centre
#                                CCDC
#
#######################################################################
#
# If this CIF has been generated from an entry in the Cambridge
# Structural Database, then it will include bibliographic, chemical,
# crystal, experimental, refinement or atomic coordinate data resulting
# from the CCDC's data processing and validation procedures.
#
#######################################################################

data_CSD_CIF_PESTAL
_audit_creation_date 2018-03-08
_audit_creation_method CSD-ConQuest-V1
_database_code_CSD PESTAL
_database_code_depnum_ccdc_archive 'CCDC 1539255'
_chemical_formula_sum 'C8 H14 Fe2 N1 O12'
_chemical_formula_moiety
;
(C6 H6 Fe2 O12 1-)n,n(C2 H8 N1 1+)
;
_journal_coden_Cambridge 1089
_journal_volume 29
_journal_year 2017
_journal_page_first 1702512
_journal_name_full 'Adv.Mater. '
loop_
_publ_author_name
"Li-Hong Chen"
"Jiang-Bin Guo"
"Xuan Wang"
"Xin-Wei Dong"
"Hai-Xia Zhao"
"La-Sheng Long"
"Lan-Sun Zheng"
_chemical_name_systematic
;
catena-(dimethylammonium hexakis(\m-formato)-iron(ii)-iron(iii))
;
_cell_volume    813.102
_diffrn_ambient_temperature 300
_refine_special_details
;
The atom represented as Fe02 is a mixed Fe/Mg site with occupancies 
0.58:0.42. The formula is reported as C8 H14 Fe1.58 Mg0.42 N O12. The cation 
is disordered by symmetry.
;
#These two values have been output from a single CSD field.
_refine_ls_R_factor_gt 0.0348
_refine_ls_wR_factor_gt 0.0348
_symmetry_cell_setting hexagonal
_symmetry_space_group_name_H-M 'P -3 1 c'
_symmetry_Int_Tables_number 163
loop_
_symmetry_equiv_pos_site_id
_symmetry_equiv_pos_as_xyz
1 x,y,z
2 -y,x-y,z
3 -x+y,-x,z
4 -y,-x,1/2-z
5 -x+y,y,1/2-z
6 x,x-y,1/2-z
7 -x,-y,-z
8 y,-x+y,-z
9 x-y,x,-z
10 y,x,-1/2+z
11 x-y,-y,-1/2+z
12 -x,-x+y,-1/2+z
_cell_length_a 8.23031(18)
_cell_length_b 8.23031(18)
_cell_length_c 13.8606(3)
_cell_angle_alpha 90
_cell_angle_beta 90
_cell_angle_gamma 120
_cell_formula_units_Z 2
loop_
_atom_type_symbol
_atom_type_radius_bond
C 0.68
H 0.23
Fe 1.52
Mg 1.41
N 0.68
O 0.68
loop_
_atom_site_label
_atom_site_type_symbol
_atom_site_fract_x
_atom_site_fract_y
_atom_site_fract_z
Fe1 Fe 1.00000 1.00000 0.50000
Fe2 Fe 0.33330 0.66670 0.25000
O1 O 0.8044(2) 1.0098(2) 0.41835(12)
O2 O 0.5442(2) 0.8828(3) 0.33281(12)
C1 C 0.6639(3) 0.8739(3) 0.38150(16)
H1 H 0.64860 0.75540 0.39190
N1 N 0.7199(10) 1.2801(10) 0.25000
C2 C 0.66670 1.33330 0.3467(17)
Mg1? Mg 0.33330 0.66670 0.25000
O1A O -0.0098(2) 0.7946(2) 0.41835(12)
O2A O 0.1172(2) 0.6614(3) 0.33281(12)
C1A C 0.1261(3) 0.7900(3) 0.38150(16)
H1A H 0.24460 0.89320 0.39190
O1B O 0.2054(2) 0.1956(2) 0.41835(12)
O2B O 0.3386(2) 0.4558(3) 0.33281(12)
C1B C 0.2100(3) 0.3361(3) 0.38150(16)
H1B H 0.10680 0.35140 0.39190
O1C O -0.0098(2) 0.1956(2) 0.08165(12)
O2C O 0.1172(2) 0.4558(3) 0.16719(12)
C1C C 0.1261(3) 0.3361(3) 0.11850(16)
H1C H 0.24460 0.35140 0.10810
O1D O 0.2054(2) 1.0098(2) 0.08165(12)
O2D O 0.3386(2) 0.8828(3) 0.16719(12)
C1D C 0.2100(3) 0.8739(3) 0.11850(16)
H1D H 0.10680 0.75540 0.10810
O1E O 0.8044(2) 0.7946(2) 0.08165(12)
O2E O 0.5442(2) 0.6614(3) 0.16719(12)
C1E C 0.6639(3) 0.7900(3) 0.11850(16)
H1E H 0.64860 0.89320 0.10810
Fe1* Fe 0.00000 0.00000 0.50000
Fe1** Fe 0.00000 1.00000 0.50000
Fe1C Fe 0.00000 0.00000 0.00000
Fe1C* Fe 0.00000 1.00000 0.00000
Fe1C** Fe 1.00000 1.00000 0.00000
O1A* O 0.9902(2) 0.7946(2) 0.41835(12)
O1B* O 1.2054(2) 1.1956(2) 0.41835(12)
O1F O 1.1956(2) 0.9902(2) 0.58165(12)
O1G O 1.0098(2) 1.2054(2) 0.58165(12)
O1H O 0.7946(2) 0.8044(2) 0.58165(12)
N1A N 0.7199(10) 1.4398(10) 0.25000
N1B N 0.5602(10) 1.2801(10) 0.25000
C2C C 0.66670 1.33330 0.1533(17)
#END
