
#######################################################################
#
#                 Cambridge Crystallographic Data Centre
#                                CCDC
#
#######################################################################
#
# If this CIF has been generated from an entry in the Cambridge
# Structural Database, then it will include bibliographic, chemical,
# crystal, experimental, refinement or atomic coordinate data resulting
# from the CCDC's data processing and validation procedures.
#
#######################################################################

data_CSD_CIF_PEWQIU
_audit_creation_date 2018-03-10
_audit_creation_method CSD-ConQuest-V1
_database_code_CSD PEWQIU
_database_code_depnum_ccdc_archive 'CCDC 1586363'
_chemical_formula_sum 'C20 H16 Cu1 N6 O8'
_chemical_formula_moiety
;
2(C3 H5 N2 1+),n(C14 H6 Cu1 N2 O8 2-)
;
_journal_coden_Cambridge 580
_journal_volume 146
_journal_year 2018
_journal_page_first 93
_journal_name_full 'Polyhedron '
loop_
_publ_author_name
"D.Saha"
"S.Gayen"
"S.Koner"
_chemical_name_systematic
;
catena-[bis(1H-imidazol-3-ium) bis(\m-pyridine-2,5-dicarboxylato)-copper(ii)]
;
_cell_volume    486.110
_exptl_crystal_colour 'blue'
_exptl_crystal_density_diffrn 1.817
_exptl_crystal_description 'block'
_diffrn_ambient_temperature 296
#These two values have been output from a single CSD field.
_refine_ls_R_factor_gt 0.0278
_refine_ls_wR_factor_gt 0.0278
_symmetry_cell_setting triclinic
_symmetry_space_group_name_H-M 'P -1'
_symmetry_Int_Tables_number 2
loop_
_symmetry_equiv_pos_site_id
_symmetry_equiv_pos_as_xyz
1 x,y,z
2 -x,-y,-z
_cell_length_a 6.6465(2)
_cell_length_b 7.5421(2)
_cell_length_c 10.4307(3)
_cell_angle_alpha 108.431(1)
_cell_angle_beta 96.643(2)
_cell_angle_gamma 96.737(1)
_cell_formula_units_Z 1
loop_
_atom_type_symbol
_atom_type_radius_bond
C 0.68
H 0.23
Cu 1.32
N 0.68
O 0.68
loop_
_atom_site_label
_atom_site_type_symbol
_atom_site_fract_x
_atom_site_fract_y
_atom_site_fract_z
Cu1 Cu 0.00000 0.00000 0.00000
O1 O 0.1821(2) 0.22558(18) 0.12970(13)
O2 O 0.2215(2) 0.42094(19) 0.34558(14)
O3 O -0.7580(2) -0.0560(2) 0.34545(14)
O4 O -0.7742(2) -0.1879(2) 0.11984(14)
N1 N -0.1758(2) 0.0550(2) 0.14220(15)
C1 C 0.1250(3) 0.2904(2) 0.24574(18)
C2 C -0.0829(3) 0.1951(2) 0.25714(17)
C3 C -0.1740(3) 0.2471(3) 0.37250(19)
H1 H -0.116(4) 0.340(3) 0.446(2)
C4 C -0.3682(3) 0.1529(3) 0.36857(19)
H2 H -0.426(4) 0.181(3) 0.442(2)
C5 C -0.4685(3) 0.0148(2) 0.24883(18)
C6 C -0.6850(3) -0.0869(2) 0.23573(18)
C7 C -0.3651(3) -0.0311(2) 0.13749(18)
H3 H -0.427(3) -0.123(3) 0.060(2)
N2 N 0.5841(3) 0.5800(2) 0.29411(18)
H4 H 0.486(5) 0.556(4) 0.318(3)
C8 C 0.6244(3) 0.5031(3) 0.1644(2)
H5 H 0.529(4) 0.410(4) 0.101(3)
C9 C 0.7434(3) 0.7091(3) 0.3679(2)
H6 H 0.750(4) 0.786(3) 0.460(3)
C10 C 0.8132(3) 0.5883(3) 0.1615(2)
H7 H 0.886(4) 0.569(4) 0.093(3)
N3 N 0.8836(2) 0.7163(2) 0.28913(17)
H8 H 1.006(5) 0.797(4) 0.319(3)
O1A O -1.1821(2) -0.22558(18) -0.12970(13)
O2A O -1.2215(2) -0.42094(19) -0.34558(14)
O3A O -0.2420(2) 0.0560(2) -0.34545(14)
O4A O -0.2258(2) 0.1879(2) -0.11984(14)
N1A N -0.8242(2) -0.0550(2) -0.14220(15)
C1A C -1.1250(3) -0.2904(2) -0.24574(18)
C2A C -0.9171(3) -0.1951(2) -0.25714(17)
C3A C -0.8260(3) -0.2471(3) -0.37250(19)
H1A H -0.884(4) -0.340(3) -0.446(2)
C4A C -0.6318(3) -0.1529(3) -0.36857(19)
H2A H -0.574(4) -0.181(3) -0.442(2)
C5A C -0.5315(3) -0.0148(2) -0.24883(18)
C6A C -0.3150(3) 0.0869(2) -0.23573(18)
C7A C -0.6349(3) 0.0311(2) -0.13749(18)
H3A H -0.573(3) 0.123(3) -0.060(2)
Cu1* Cu -1.00000 0.00000 0.00000
O1A* O -0.1821(2) -0.22558(18) -0.12970(13)
O4* O 0.2258(2) -0.1879(2) 0.11984(14)
N1A* N 0.1758(2) -0.0550(2) -0.14220(15)
#END
