
#######################################################################
#
#                 Cambridge Crystallographic Data Centre
#                                CCDC
#
#######################################################################
#
# If this CIF has been generated from an entry in the Cambridge
# Structural Database, then it will include bibliographic, chemical,
# crystal, experimental, refinement or atomic coordinate data resulting
# from the CCDC's data processing and validation procedures.
#
#######################################################################

data_CSD_CIF_PEYHOT
_audit_creation_date 2018-03-12
_audit_creation_method CSD-ConQuest-V1
_database_code_CSD PEYHOT
_database_code_depnum_ccdc_archive 'CCDC 1442308'
_chemical_formula_sum 'C20 H29.5 Dy1 Mo12 N2 O50.75 P1'
_chemical_formula_moiety
;
(C20 H24 Dy1 N2 O8 3+)n,Mo12 O40 P1 3-,2.75(H2 O1)
;
_journal_coden_Cambridge 601
_journal_volume 37
_journal_year 2016
_journal_page_first 1025
_journal_name_full 'Gaodeng Xuexiao Huaxue Xuebao(Chin.)(Chem.J.Chin.Univ.(Chinese Edition)) '
loop_
_publ_author_name
"Xiaojing Liu"
"Weidong Tang"
"Sihui Zhou"
"Fuxiang Wang"
"Ying Liu"
"Mingyue Xiang"
"Qinhe Pan"
_chemical_name_systematic
;
catena-[(\m-1,1'-[1,4-phenylenebis(methylene)]di(pyridin-1-ium-4-carboxylato))
-tetraaqua-dysprosium(iii) 
tetradecakis(\m-oxo)-(\m-phosphato)-dodecaoxo-dodeca-molybdenum hydrate]
;
_chemical_name_common
;
HNU-7
;
_cell_volume   5713.492
_exptl_crystal_density_diffrn 2.854
_diffrn_ambient_temperature 273
#These two values have been output from a single CSD field.
_refine_ls_R_factor_gt 0.0664
_refine_ls_wR_factor_gt 0.0664
_symmetry_cell_setting monoclinic
_symmetry_space_group_name_H-M 'P 21/n'
_symmetry_Int_Tables_number 14
loop_
_symmetry_equiv_pos_site_id
_symmetry_equiv_pos_as_xyz
1 x,y,z
2 1/2-x,1/2+y,1/2-z
3 -x,-y,-z
4 -1/2+x,-1/2-y,-1/2+z
_cell_length_a 14.589(2)
_cell_length_b 13.7252(19)
_cell_length_c 28.535(4)
_cell_angle_alpha 90
_cell_angle_beta 90.556(3)
_cell_angle_gamma 90
_cell_formula_units_Z 4
loop_
_atom_type_symbol
_atom_type_radius_bond
C 0.68
H 0.23
Dy 1.92
Mo 1.54
N 0.68
O 0.68
P 1.05
loop_
_atom_site_label
_atom_site_type_symbol
_atom_site_fract_x
_atom_site_fract_y
_atom_site_fract_z
Dy1 Dy 1.93396(7) -0.12598(7) 0.47311(3)
O1 O 1.8155(10) -0.0211(10) 0.4931(5)
O2 O 1.9185(10) 0.0875(10) 0.5170(5)
O3 O 1.5479(10) 0.3855(9) 0.9465(4)
O4 O 1.4543(9) 0.5030(9) 0.9179(4)
O5 O 2.0040(14) -0.2832(12) 0.4987(7)
O6 O 1.9921(10) -0.2085(9) 0.4053(5)
O7 O 1.8251(11) -0.2351(12) 0.5091(7)
O8 O 1.8025(10) -0.1518(11) 0.4190(4)
C1 C 1.708(2) 0.2700(18) 0.5630(9)
H1 H 1.72120 0.33090 0.57560
C2 C 1.7778(16) 0.2139(16) 0.5475(7)
H2 H 1.83770 0.23660 0.54970
C3 C 1.7604(14) 0.1225(14) 0.5284(6)
C4 C 1.6706(12) 0.0926(13) 0.5246(6)
H3 H 1.65590 0.03340 0.51050
C5 C 1.6037(13) 0.1512(12) 0.5419(6)
H4 H 1.54350 0.12880 0.54070
C6 C 1.8371(15) 0.0574(16) 0.5122(6)
C7 C 1.5470(16) 0.3012(17) 0.5770(7)
H5 H 1.49800 0.30210 0.55380
H6 H 1.56870 0.36740 0.58130
C8 C 1.5092(15) 0.2609(14) 0.6250(8)
C9 C 1.5632(16) 0.2131(15) 0.6566(8)
H7 H 1.62460 0.20070 0.65040
C10 C 1.5241(16) 0.1837(17) 0.6982(8)
H8 H 1.55810 0.14520 0.71880
C11 C 1.4347(17) 0.2103(16) 0.7099(8)
C12 C 1.3818(15) 0.2562(14) 0.6754(7)
H9 H 1.32010 0.26900 0.68070
C13 C 1.4196(17) 0.2817(16) 0.6351(8)
H10 H 1.38420 0.31470 0.61300
C14 C 1.4000(15) 0.1841(15) 0.7579(7)
H11 H 1.33360 0.18810 0.75800
H12 H 1.41720 0.11750 0.76520
C15 C 1.4883(18) 0.2149(15) 0.8284(8)
H13 H 1.50800 0.15060 0.82700
C16 C 1.5143(17) 0.2745(16) 0.8687(7)
H14 H 1.55120 0.25000 0.89270
C17 C 1.4827(14) 0.3662(13) 0.8696(6)
C18 C 1.4322(13) 0.4010(13) 0.8332(6)
H15 H 1.41170 0.46510 0.83360
C19 C 1.4119(14) 0.3443(14) 0.7973(7)
H16 H 1.37800 0.37070 0.77260
C20 C 1.4987(15) 0.4256(14) 0.9167(6)
N1 N 1.6200(14) 0.2414(12) 0.5609(5)
N2 N 1.4378(12) 0.2499(12) 0.7944(6)
Mo1 Mo 1.67909(13) 0.44097(12) 0.33360(6)
Mo2 Mo 1.57563(12) 0.41485(12) 0.43914(6)
Mo3 Mo 1.66204(14) 0.10237(12) 0.29194(6)
Mo4 Mo 1.72185(12) 0.24006(12) 0.40036(6)
Mo5 Mo 1.59273(13) 0.30287(12) 0.23095(6)
Mo6 Mo 1.33876(13) 0.42732(13) 0.39055(6)
Mo7 Mo 1.55088(14) 0.04321(12) 0.40366(6)
Mo8 Mo 1.44323(14) 0.48661(13) 0.28854(6)
Mo9 Mo 1.41484(14) 0.21024(13) 0.45688(6)
Mo10 Mo 1.44432(16) 0.11248(14) 0.24813(7)
Mo11 Mo 1.28638(14) 0.30190(16) 0.29104(7)
Mo12 Mo 1.33272(15) 0.08305(15) 0.36372(8)
P1 P 1.5034(4) 0.2647(4) 0.34503(17)
O9 O 1.8221(9) 0.2048(10) 0.4230(4)
O10 O 1.2491(10) 0.0008(11) 0.3606(5)
O11 O 1.3707(10) 0.2149(9) 0.5108(4)
O12 O 1.3468(9) 0.3163(9) 0.4248(4)
O13 O 1.4371(10) 0.5868(10) 0.2555(5)
O14 O 1.3964(11) 0.0436(11) 0.2054(5)
O15 O 1.1819(11) 0.2952(13) 0.2680(5)
O16 O 1.5598(9) 0.0513(8) 0.2557(4)
O17 O 1.3324(9) 0.4158(10) 0.2670(4)
O18 O 1.4279(9) 0.3368(8) 0.3335(4)
O19 O 1.5968(10) -0.0552(8) 0.4282(4)
O20 O 1.3973(10) 0.0647(9) 0.3023(4)
O21 O 1.6821(8) 0.3275(8) 0.4460(3)
O22 O 1.5853(8) 0.3181(8) 0.3690(4)
O23 O 1.7414(10) 0.0194(9) 0.2801(4)
O24 O 1.7496(9) 0.5320(8) 0.3190(4)
O25 O 1.6450(8) 0.4851(8) 0.3980(4)
O26 O 1.4658(9) 0.4539(8) 0.4161(4)
O27 O 1.4657(8) 0.1870(8) 0.3788(4)
O28 O 1.4894(9) 0.1015(8) 0.4590(4)
O29 O 1.6395(9) 0.3439(9) 0.1810(4)
O30 O 1.6666(8) 0.3688(8) 0.2801(4)
O31 O 1.2530(8) 0.3783(9) 0.3471(4)
O32 O 1.5972(9) 0.0401(8) 0.3441(4)
O33 O 1.5104(9) 0.2099(9) 0.2081(4)
O34 O 1.5901(9) 0.4796(10) 0.4888(4)
O35 O 1.7184(9) 0.1762(8) 0.3388(4)
O36 O 1.6427(8) 0.1421(8) 0.4179(4)
O37 O 1.5088(8) 0.2995(8) 0.4615(4)
O38 O 1.5603(9) 0.4965(8) 0.3163(4)
O39 O 1.3786(9) 0.5198(9) 0.3418(4)
O40 O 1.4342(10) -0.0007(9) 0.3873(4)
O41 O 1.3552(10) 0.2189(10) 0.2548(5)
O42 O 1.7619(8) 0.3534(8) 0.3627(4)
O43 O 1.2744(10) 0.5013(10) 0.4245(5)
O44 O 1.5371(9) 0.2164(7) 0.2995(4)
O45 O 1.6788(9) 0.1951(8) 0.2455(4)
O46 O 1.5046(9) 0.3951(8) 0.2440(4)
O47 O 1.3208(9) 0.1299(9) 0.4248(4)
O48 O 1.2817(10) 0.1906(9) 0.3356(5)
O49 O 1.3852(11) 0.3552(13) 0.1579(6)
O50 O 0.722(2) 0.092(2) 0.0360(11)
O51 O 0.6041(19) 0.111(2) 0.1186(9)
O52 O 0.433(3) 0.091(3) 0.0941(17)
O53 O 0.437(4) -0.008(4) 0.1112(17)
O54 O 0.432(4) 0.948(4) 0.0291(17)
Dy1A Dy 1.56604(7) 0.37402(7) 1.02689(3)
Dy1B Dy 2.06604(7) 0.12598(7) 0.52689(3)
Dy1C Dy 1.43396(7) 0.62598(7) 0.97311(3)
O2B O 2.0815(10) -0.0875(10) 0.4830(5)
O3A O 1.9521(10) -0.1145(9) 0.5535(4)
O4C O 1.9543(9) -0.0030(9) 0.4179(4)
#END
