
#######################################################################
#
#                 Cambridge Crystallographic Data Centre
#                                CCDC
#
#######################################################################
#
# If this CIF has been generated from an entry in the Cambridge
# Structural Database, then it will include bibliographic, chemical,
# crystal, experimental, refinement or atomic coordinate data resulting
# from the CCDC's data processing and validation procedures.
#
#######################################################################

data_CSD_CIF_PEZNUG01
_audit_creation_date 2018-04-10
_audit_creation_method CSD-ConQuest-V1
_database_code_CSD PEZNUG01
_database_code_depnum_ccdc_archive 'CCDC 1573079'
_chemical_formula_sum 'C8 H14 Fe1 Ga1 N1 O12'
_chemical_formula_moiety
;
(C6 H6 Fe1 Ga1 O12 1-)n,C2 H8 N1 1+
;
_journal_coden_Cambridge 9
_journal_volume 57
_journal_year 2018
_journal_page_first 3941
_journal_name_full 'Inorg.Chem. '
loop_
_publ_author_name
"Kai Wang"
"Jian-Bo Xiong"
"Bin Xia"
"Qing-Lun Wang"
"Yu-Zhang Tong"
"Yue Ma"
"Zhe-Ming Wang"
"Song Gao"
_chemical_name_systematic
;
catena-[ethylammonium hexakis(\m-formato)-gallium(iii)-iron(ii)]
;
_cell_volume    808.787
_exptl_crystal_colour 'colorless'
_exptl_crystal_density_diffrn 1.793
_exptl_crystal_description 'block'
_diffrn_ambient_temperature 293
_refine_special_details
;
The structure is disordered.

;
#These two values have been output from a single CSD field.
_refine_ls_R_factor_gt 0.033
_refine_ls_wR_factor_gt 0.033
_symmetry_cell_setting hexagonal
_symmetry_space_group_name_H-M 'P -3 1 c'
_symmetry_Int_Tables_number 163
loop_
_symmetry_equiv_pos_site_id
_symmetry_equiv_pos_as_xyz
1 x,y,z
2 -y,x-y,z
3 -x+y,-x,z
4 -y,-x,1/2-z
5 -x+y,y,1/2-z
6 x,x-y,1/2-z
7 -x,-y,-z
8 y,-x+y,-z
9 x-y,x,-z
10 y,x,-1/2+z
11 x-y,-y,-1/2+z
12 -x,-x+y,-1/2+z
_cell_length_a 8.1821(6)
_cell_length_b 8.1821(6)
_cell_length_c 13.950(2)
_cell_angle_alpha 90
_cell_angle_beta 90
_cell_angle_gamma 120
_cell_formula_units_Z 2
loop_
_atom_type_symbol
_atom_type_radius_bond
C 0.68
H 0.23
Fe 1.52
Ga 1.22
N 0.68
O 0.68
loop_
_atom_site_label
_atom_site_type_symbol
_atom_site_fract_x
_atom_site_fract_y
_atom_site_fract_z
Fe1 Fe 0.33330 0.66670 0.25000
Ga1 Ga 0.00000 1.00000 0.00000
O1 O 0.3376(4) 0.8846(4) 0.16656(18)
O2 O 0.2046(4) 1.0115(3) 0.08029(17)
C1 C 0.2071(5) 0.8737(5) 0.1178(2)
H1 H 0.10280 0.75450 0.10820
C2 C 0.66670 0.33330 0.0792(8)
H2 H 0.78450 0.43500 0.05630
N1 N 0.543(2) 0.2713(10) 0.25000
C3 C 0.66670 0.33330 0.1939(18)
O1A O 0.1154(4) 0.4530(4) 0.16656(18)
O2A O -0.0115(4) 0.1931(3) 0.08029(17)
C1A C 0.1263(5) 0.3334(5) 0.1178(2)
H1A H 0.24550 0.34830 0.10820
O1A* O 0.1154(4) 1.4530(4) 0.16656(18)
O2A* O -0.0115(4) 1.1931(3) 0.08029(17)
C1A* C 0.1263(5) 1.3334(5) 0.1178(2)
H1A* H 0.24550 1.34830 0.10820
O1B O -0.4530(4) 0.6624(4) 0.16656(18)
O2B O -0.1931(4) 0.7954(3) 0.08029(17)
C1B C -0.3334(5) 0.7929(5) 0.1178(2)
H1B H -0.34830 0.89720 0.10820
O1B* O 0.5470(4) 0.6624(4) 0.16656(18)
O2B* O 0.8069(4) 0.7954(3) 0.08029(17)
C1B* C 0.6666(5) 0.7929(5) 0.1178(2)
H1B* H 0.65170 0.89720 0.10820
O1C O 0.1154(4) 0.6624(4) 0.33344(18)
O2C O -0.0115(4) 0.7954(3) 0.41971(17)
C1C C 0.1263(5) 0.7929(5) 0.3822(2)
H1C H 0.24550 0.89720 0.39180
Fe1* Fe -0.66670 0.66670 0.25000
Fe1** Fe 0.33330 1.66670 0.25000
Ga1* Ga 0.00000 0.00000 0.00000
Ga1** Ga 1.00000 1.00000 0.00000
Ga1C Ga 0.00000 1.00000 0.50000
O1D O 0.5470(4) 0.8846(4) 0.33344(18)
O1E O 0.3376(4) 0.4530(4) 0.33344(18)
O2F O -0.2046(4) 0.9885(3) -0.08029(17)
O2G O 0.0115(4) 0.8069(3) -0.08029(17)
O2H O 0.1931(4) 1.2046(3) -0.08029(17)
H2A H 0.56500 0.34950 0.05630
N1A N 0.7287(20) 0.2717(10) 0.25000
H2B H 0.65050 0.21550 0.05630
N1B N 0.7283(20) 0.457(1) 0.25000
C2C C 0.66670 0.33330 0.4208(8)
H2C H 0.56500 0.21550 0.44370
C3C C 0.66670 0.33330 0.3061(18)
H2D H 0.65050 0.43500 0.44370
H2E H 0.78450 0.34950 0.44370
#END
