
#######################################################################
#
#                 Cambridge Crystallographic Data Centre
#                                CCDC
#
#######################################################################
#
# If this CIF has been generated from an entry in the Cambridge
# Structural Database, then it will include bibliographic, chemical,
# crystal, experimental, refinement or atomic coordinate data resulting
# from the CCDC's data processing and validation procedures.
#
#######################################################################

data_CSD_CIF_PEZXUP
_audit_creation_date 2013-07-17
_audit_creation_method CSD-ConQuest-V1
_database_code_CSD PEZXUP
_database_code_depnum_ccdc_archive 'CCDC 922030'
_chemical_formula_sum 'C67.5 H80 Cd1 N1.75 Na0.25 O19'
_chemical_formula_moiety
;
(C64 H64 Cd1 O18 2-)n,H2 O1,0.25(Na1 1+),1.75(C2 H8 N1 1+)
;
_journal_coden_Cambridge 920
_journal_volume 8
_journal_year 2013
_journal_page_first 2787
_journal_name_full 'Chem.Asian J. '
loop_
_publ_author_name
"Hong-Mei Zhang"
"Jin Yang"
"Yuan-Chun He"
"Jian-Fang Ma"
_chemical_name_systematic
;
catena-(sodium dimethylammonium 
bis(\m~2~-2-hydroxymethyl-4,6-bis(2'-methoxyl-4'-(2''-1-carboxyl)-ethlene)-1,3
,5-mesitylene)-cadmium monohydrate)
;
_cell_volume   5224.753
_exptl_crystal_colour 'pale yellow'
_exptl_crystal_density_diffrn 0.855
_exptl_special_details
;
The framework is negatively charged but no counter cations were found by 
X-ray diffraction analysis. However, the presence of 1/16Na+ ions and 7/16 
dimethylammonium ions were suggested by elemental analysis
;
_exptl_crystal_description 'strip'
_diffrn_ambient_temperature 193
_refine_special_details
;
O5 disordered by symmetry over two sites with occupancy 0.50; The 
SQUEEZE/PLATON program has been used to model some disorder.
;
#These two values have been output from a single CSD field.
_refine_ls_R_factor_gt 0.1217
_refine_ls_wR_factor_gt 0.1217
_symmetry_cell_setting orthorhombic
_symmetry_space_group_name_H-M 'P b a n'
_symmetry_Int_Tables_number 50
loop_
_symmetry_equiv_pos_site_id
_symmetry_equiv_pos_as_xyz
1 x,y,z
2 1/2-x,1/2-y,z
3 x,1/2-y,-z
4 1/2-x,y,-z
5 -x,-y,-z
6 -1/2+x,-1/2+y,-z
7 -x,-1/2+y,z
8 -1/2+x,-y,z
_cell_length_a 28.2340(11)
_cell_length_b 8.672(3)
_cell_length_c 21.339(4)
_cell_angle_alpha 90
_cell_angle_beta 90
_cell_angle_gamma 90
_cell_formula_units_Z 2
loop_
_atom_type_symbol
_atom_type_radius_bond
C 0.68
H 0.23
Cd 1.44
O 0.68
loop_
_atom_site_label
_atom_site_type_symbol
_atom_site_fract_x
_atom_site_fract_y
_atom_site_fract_z
Cd1 Cd 0.75000 0.25000 0.50000
C1 C 0.6914(9) 0.411(3) 0.4251(11)
C2 C 0.6631(7) 0.496(3) 0.3787(9)
H1 H 0.66220 0.60240 0.38290
C3 C 0.6403(6) 0.440(2) 0.3344(7)
H2 H 0.64450 0.33420 0.32980
C4 C 0.6063(7) 0.512(2) 0.2853(7)
C5 C 0.5903(7) 0.4204(16) 0.2413(8)
H3 H 0.59890 0.31700 0.24280
C6 C 0.5625(6) 0.4661(15) 0.1946(6)
H4 H 0.55210 0.39450 0.16520
C7 C 0.5485(6) 0.6223(14) 0.1891(6)
C8 C 0.5635(7) 0.7218(18) 0.2336(6)
C9 C 0.5928(7) 0.6688(17) 0.2811(7)
H5 H 0.60390 0.73800 0.31100
C10 C 0.5596(7) 0.9738(16) 0.2742(7)
H6 H 0.54910 1.07510 0.26270
H7 H 0.59320 0.97580 0.28180
H8 H 0.54350 0.94150 0.31160
C11 C 0.5057(5) 0.5780(11) 0.0921(5)
H9 H 0.48620 0.49470 0.10810
H10 H 0.53370 0.53360 0.07300
C12 C 0.4785(6) 0.6691(12) 0.0444(5)
C13 C 0.5037(8) 0.75000 0.00000
C14 C 0.5569(7) 0.75000 0.00000
C15 C 0.4318(6) 0.6798(13) 0.0477(6)
C16 C 0.4039(6) 0.6104(14) 0.1011(7)
H11 H 0.37080 0.63140 0.09520
H12 H 0.41420 0.65490 0.14000
H13 H 0.40890 0.50100 0.10210
C17 C 0.4046(9) 0.75000 0.00000
C18 C 0.3484(10) 0.75000 0.00000
O1 O 0.6926(5) 0.255(2) 0.4178(5)
O2 O 0.7134(5) 0.4756(18) 0.4560(6)
O3 O 0.5193(3) 0.6796(8) 0.1429(4)
O4 O 0.5497(4) 0.8703(10) 0.2256(4)
O5 O 0.3320(9) 0.590(3) 0.0036(16)
O6 O 0.75000 0.75000 0.50000
H14? H 0.56830 0.68820 0.03420
H15? H 0.56830 0.70810 -0.03880
H16? H 0.56830 0.85370 0.00470
C1B C 0.6914(9) 1.089(3) -0.4251(11)
C2B C 0.6631(7) 1.004(3) -0.3787(9)
H1B H 0.66220 0.89760 -0.38290
C3B C 0.6403(6) 1.060(2) -0.3344(7)
H2B H 0.64450 1.16580 -0.32980
C4B C 0.6063(7) 0.988(2) -0.2853(7)
C5B C 0.5903(7) 1.0796(16) -0.2413(8)
H3B H 0.59890 1.18300 -0.24280
C6B C 0.5625(6) 1.0339(15) -0.1946(6)
H4B H 0.55210 1.10550 -0.16520
C7B C 0.5485(6) 0.8777(14) -0.1891(6)
C8B C 0.5635(7) 0.7782(18) -0.2336(6)
C9B C 0.5928(7) 0.8312(17) -0.2811(7)
H5B H 0.60390 0.76200 -0.31100
C10B C 0.5596(7) 0.5262(16) -0.2742(7)
H6B H 0.54910 0.42490 -0.26270
H7B H 0.59320 0.52420 -0.28180
H8B H 0.54350 0.55850 -0.31160
C11B C 0.5057(5) 0.9220(11) -0.0921(5)
H9B H 0.48620 1.00530 -0.10810
H10B H 0.53370 0.96640 -0.07300
C12B C 0.4785(6) 0.8309(12) -0.0444(5)
C15B C 0.4318(6) 0.8202(13) -0.0477(6)
C16B C 0.4039(6) 0.8896(14) -0.1011(7)
H11B H 0.37080 0.86860 -0.09520
H12B H 0.41420 0.84510 -0.14000
H13B H 0.40890 0.99900 -0.10210
O1B O 0.6926(5) 1.245(2) -0.4178(5)
O2B O 0.7134(5) 1.0244(18) -0.4560(6)
O3B O 0.5193(3) 0.8204(8) -0.1429(4)
O4B O 0.5497(4) 0.6297(10) -0.2256(4)
O5B O 0.3320(9) 0.910(3) -0.0036(16)
C1A C 0.8086(9) 0.089(3) 0.4251(11)
C2A C 0.8369(7) 0.004(3) 0.3787(9)
H1A H 0.83780 -0.10240 0.38290
C3A C 0.8597(6) 0.060(2) 0.3344(7)
H2A H 0.85550 0.16580 0.32980
C4A C 0.8937(7) -0.012(2) 0.2853(7)
C5A C 0.9097(7) 0.0796(16) 0.2413(8)
H3A H 0.90110 0.18300 0.24280
C6A C 0.9375(6) 0.0339(15) 0.1946(6)
H4A H 0.94790 0.10550 0.16520
C7A C 0.9515(6) -0.1223(14) 0.1891(6)
C8A C 0.9365(7) -0.2218(18) 0.2336(6)
C9A C 0.9072(7) -0.1688(17) 0.2811(7)
H5A H 0.89610 -0.23800 0.31100
C10A C 0.9404(7) -0.4738(16) 0.2742(7)
H6A H 0.95090 -0.57510 0.26270
H7A H 0.90680 -0.47580 0.28180
H8A H 0.95650 -0.44150 0.31160
C11A C 0.9943(5) -0.0780(11) 0.0921(5)
H9A H 1.01380 0.00530 0.10810
H10A H 0.96630 -0.03360 0.07300
C12A C 1.0215(6) -0.1691(12) 0.0444(5)
C13A C 0.9963(8) -0.25000 0.00000
C14A C 0.9431(7) -0.25000 0.00000
C15A C 1.0682(6) -0.1798(13) 0.0477(6)
C16A C 1.0961(6) -0.1104(14) 0.1011(7)
H11A H 1.12920 -0.13140 0.09520
H12A H 1.08580 -0.15490 0.14000
H13A H 1.09110 -0.00100 0.10210
C17A C 1.0954(9) -0.25000 0.00000
C18A C 1.1516(10) -0.25000 0.00000
O1A O 0.8074(5) 0.245(2) 0.4178(5)
O2A O 0.7866(5) 0.0244(18) 0.4560(6)
O3A O 0.9807(3) -0.1796(8) 0.1429(4)
O4A O 0.9503(4) -0.3703(10) 0.2256(4)
O5A O 1.1680(9) -0.090(3) 0.0036(16)
C1C C 0.8086(9) -0.589(3) -0.4251(11)
C2C C 0.8369(7) -0.504(3) -0.3787(9)
H1C H 0.83780 -0.39760 -0.38290
C3C C 0.8597(6) -0.560(2) -0.3344(7)
H2C H 0.85550 -0.66580 -0.32980
C4C C 0.8937(7) -0.488(2) -0.2853(7)
C5C C 0.9097(7) -0.5796(16) -0.2413(8)
H3C H 0.90110 -0.68300 -0.24280
C6C C 0.9375(6) -0.5339(15) -0.1946(6)
H4C H 0.94790 -0.60550 -0.16520
C7C C 0.9515(6) -0.3777(14) -0.1891(6)
C8C C 0.9365(7) -0.2782(18) -0.2336(6)
C9C C 0.9072(7) -0.3312(17) -0.2811(7)
H5C H 0.89610 -0.26200 -0.31100
C10C C 0.9404(7) -0.0262(16) -0.2742(7)
H6C H 0.95090 0.07510 -0.26270
H7C H 0.90680 -0.02420 -0.28180
H8C H 0.95650 -0.05850 -0.31160
C11C C 0.9943(5) -0.4220(11) -0.0921(5)
H9C H 1.01380 -0.50530 -0.10810
H10C H 0.96630 -0.46640 -0.07300
C12C C 1.0215(6) -0.3309(12) -0.0444(5)
C15C C 1.0682(6) -0.3202(13) -0.0477(6)
C16C C 1.0961(6) -0.3896(14) -0.1011(7)
H11C H 1.12920 -0.36860 -0.09520
H12C H 1.08580 -0.34510 -0.14000
H13C H 1.09110 -0.49900 -0.10210
O1C O 0.8074(5) -0.745(2) -0.4178(5)
O2C O 0.7866(5) -0.5244(18) -0.4560(6)
O3C O 0.9807(3) -0.3204(8) -0.1429(4)
O4C O 0.9503(4) -0.1297(10) -0.2256(4)
O5C O 1.1680(9) -0.410(3) -0.0036(16)
Cd1* Cd 0.75000 -0.75000 -0.50000
Cd1** Cd 0.75000 1.25000 -0.50000
O1B* O 0.6926(5) 0.245(2) 0.5822(5)
O1C* O 0.8074(5) 0.255(2) 0.5822(5)
O2B* O 0.7134(5) 0.0244(18) 0.5440(6)
O2C* O 0.7866(5) 0.4756(18) 0.5440(6)
#END
