
#######################################################################
#
#                 Cambridge Crystallographic Data Centre
#                                CCDC
#
#######################################################################
#
# If this CIF has been generated from an entry in the Cambridge
# Structural Database, then it will include bibliographic, chemical,
# crystal, experimental, refinement or atomic coordinate data resulting
# from the CCDC's data processing and validation procedures.
#
#######################################################################

data_CSD_CIF_PIBFEO
_audit_creation_date 2018-03-13
_audit_creation_method CSD-ConQuest-V1
_database_code_CSD PIBFEO
_database_code_depnum_ccdc_archive 'CCDC 1587315'
_chemical_formula_sum 'C24 H47 B1 Co1 N12 O50 W12'
_chemical_formula_moiety
;
(C24 H24 Co1 N12 2+)n,n(H3 B1 O40 W12 2-),10n(H2 O1)
;
_journal_coden_Cambridge 9
_journal_volume 57
_journal_year 2018
_journal_page_first 4109
_journal_name_full 'Inorg.Chem. '
loop_
_publ_author_name
"Yuanyuan Ma"
"Haiyue Peng"
"Jianing Liu"
"Yonghui Wang"
"Xiuli Hao"
"Xiaojia Feng"
"Shifa Ullah Khan"
"Huaqiao Tan"
"Yangguang Li"
_chemical_name_systematic
;
catena-(bis(\m-1,1'-[1,4-phenylenebis(methylene)]bis(1H-1,2,4-triazole))-cobal
t (\m-borato)-tetracosakis(\m-oxo)-dodecaoxo-dodeca-tungsten decahydrate)
;
_cell_volume   7296.489
_exptl_crystal_colour 'colorless'
_exptl_crystal_description 'block'
_diffrn_ambient_temperature 298.1
_refine_special_details
;
O5A,O6A,O8,W6A and O5B,O6B,W6B disordered over two sites with occupancies 
0.5:0.5. The borate is disordered by symmetry. The water molecules were taken 
into account using PLATON/SQUEEZE.
;
#These two values have been output from a single CSD field.
_refine_ls_R_factor_gt 0.0636
_refine_ls_wR_factor_gt 0.0636
_symmetry_cell_setting monoclinic
_symmetry_space_group_name_H-M 'C 2/c'
_symmetry_Int_Tables_number 15
loop_
_symmetry_equiv_pos_site_id
_symmetry_equiv_pos_as_xyz
1 x,y,z
2 -x,y,1/2-z
3 1/2+x,1/2+y,z
4 1/2-x,1/2+y,1/2-z
5 -x,-y,-z
6 x,-y,-1/2+z
7 -1/2-x,-1/2-y,-z
8 -1/2+x,-1/2-y,-1/2+z
_cell_length_a 17.9972(7)
_cell_length_b 17.9935(6)
_cell_length_c 22.9940(13)
_cell_angle_alpha 90
_cell_angle_beta 101.509(5)
_cell_angle_gamma 90
_cell_formula_units_Z 4
loop_
_atom_type_symbol
_atom_type_radius_bond
C 0.68
H 0.23
B 0.83
Co 1.26
N 0.68
O 0.68
W 1.62
loop_
_atom_site_label
_atom_site_type_symbol
_atom_site_fract_x
_atom_site_fract_y
_atom_site_fract_z
W1 W 0.11964(5) 1.03765(5) 0.86662(4)
W2 W -0.07690(6) 1.03658(7) 0.85466(5)
W3 W 0.00000 1.13163(7) 0.75000
W4 W -0.07832(5) 0.84440(5) 0.85389(4)
W5 W 0.19643(5) 0.94125(7) 0.76208(4)
W6 W 0.00000 0.74869(8) 0.75000
O1 O 0.0088(19) 1.0074(18) 0.7894(13)
O2 O -0.0015(16) 0.8713(16) 0.7904(12)
O3 O 0.0598(16) 0.9349(16) 0.7163(12)
O4 O -0.0800(16) 0.9442(15) 0.7083(12)
O5 O 0.1774(10) 0.8005(9) 0.9228(7)
O6 O 0.1917(11) 0.8695(10) 0.8206(8)
O7 O -0.0615(10) 0.7675(10) 0.8024(7)
O8 O 0.1889(11) 1.0131(10) 0.8188(8)
O9 O 0.2907(11) 0.9371(13) 0.7694(10)
O10 O -0.1163(13) 0.8015(12) 0.9049(8)
O11 O 0.1667(11) 1.0123(10) 0.7030(8)
O12 O 0.0295(10) 1.0439(12) 0.8922(11)
O13 O 0.0870(11) 1.1161(10) 0.8140(8)
O14 O 0.1677(11) 0.8673(10) 0.7039(8)
O15 O 0.1767(12) 1.0828(14) 0.9227(9)
O16 O -0.1151(8) 1.0822(9) 0.9033(7)
O17 O -0.0767(11) 0.9396(10) 0.8845(8)
O18 O 0.00000 1.2246(13) 0.75000
O19 O 0.1334(11) 0.9425(10) 0.8998(8)
O20 O -0.0627(11) 1.1130(11) 0.8023(8)
B1 B 0.00000 0.940(2) 0.75000
W7 W 0.10389(13) 0.83367(13) 0.86434(10)
O21 O 0.0215(9) 0.861(2) 0.8874(13)
O22 O 0.074(2) 0.748(2) 0.8195(15)
O23 O -0.0240(14) 0.6574(14) 0.7407(16)
Co1 Co 0.25000 0.75000 1.00000
N1 N 0.3445(8) 0.7607(9) 0.9589(7)
N2 N 0.4559(7) 0.7475(9) 0.9358(7)
N3 N 0.4106(8) 0.7841(9) 0.8908(6)
C1 C 0.4150(8) 0.7330(9) 0.9778(7)
H1 H 0.43232 0.70833 1.01351
C2 C 0.3417(8) 0.7923(9) 0.9051(7)
H2 H 0.29980 0.81551 0.88208
N4 N 0.7249(9) 1.1454(8) 0.9558(7)
N5 N 0.7312(9) 1.0289(8) 0.9300(7)
N6 N 0.6809(9) 1.0636(8) 0.8871(7)
C3 C 0.7585(9) 1.0794(8) 0.9724(7)
H3 H 0.79410 1.07039 1.00694
C4 C 0.6770(9) 1.1357(8) 0.9031(7)
H4 H 0.64661 1.17209 0.88156
C5 C 0.5869(10) 0.7866(9) 0.9305(8)
C6 C 0.6296(10) 0.8143(10) 0.9824(7)
H5 H 0.62290 0.79574 1.01876
C7 C 0.6822(10) 0.8694(10) 0.9806(7)
H6 H 0.71098 0.88806 1.01564
C8 C 0.6923(9) 0.8968(10) 0.9267(8)
C9 C 0.6496(10) 0.8692(10) 0.8747(7)
H7 H 0.65637 0.88771 0.83835
C10 C 0.5969(10) 0.8141(10) 0.8766(7)
H8 H 0.56813 0.79542 0.84149
C11 C 0.5298(13) 0.7253(14) 0.9335(12)
H9 H 0.52736 0.69359 0.89907
H10 H 0.54884 0.69534 0.96833
C12 C 0.7524(15) 0.9533(14) 0.9252(13)
H11 H 0.79492 0.94257 0.95724
H12 H 0.77009 0.94738 0.88821
W8? W 0.13124(12) 0.85865(13) 0.86569(9)
O24? O 0.025(2) 0.821(2) 0.8990(15)
O25? O 0.097(2) 0.788(2) 0.8058(15)
O1A O -0.0088(19) 1.0074(18) 0.7106(13)
O2A O 0.0015(16) 0.8713(16) 0.7096(12)
O3A O -0.0598(16) 0.9349(16) 0.7837(12)
O4A O 0.0800(16) 0.9442(15) 0.7917(12)
O23A O 0.0240(14) 0.6574(14) 0.7593(16)
W1A W -0.11964(5) 1.03765(5) 0.63338(4)
W2A W 0.07690(6) 1.03658(7) 0.64534(5)
W4A W 0.07832(5) 0.84440(5) 0.64611(4)
W5A W -0.19643(5) 0.94125(7) 0.73792(4)
O5A O -0.1774(10) 0.8005(9) 0.5772(7)
O6A O -0.1917(11) 0.8695(10) 0.6794(8)
O7A O 0.0615(10) 0.7675(10) 0.6976(7)
O8A O -0.1889(11) 1.0131(10) 0.6812(8)
O9A O -0.2907(11) 0.9371(13) 0.7306(10)
O10A O 0.1163(13) 0.8015(12) 0.5951(8)
O11A O -0.1667(11) 1.0123(10) 0.7970(8)
O12A O -0.0295(10) 1.0439(12) 0.6078(11)
O13A O -0.0870(11) 1.1161(10) 0.6860(8)
O14A O -0.1677(11) 0.8673(10) 0.7961(8)
O15A O -0.1767(12) 1.0828(14) 0.5773(9)
O16A O 0.1151(8) 1.0822(9) 0.5967(7)
O17A O 0.0767(11) 0.9396(10) 0.6155(8)
O19A O -0.1334(11) 0.9425(10) 0.6002(8)
O20A O 0.0627(11) 1.1130(11) 0.6977(8)
W7A W -0.10389(13) 0.83367(13) 0.63566(10)
O21A O -0.0215(9) 0.861(2) 0.6126(13)
O22A O -0.074(2) 0.748(2) 0.6805(15)
N1D N 0.6555(8) 1.2393(9) 1.0411(7)
N2D N 0.5441(7) 1.2525(9) 1.0642(7)
N3D N 0.5894(8) 1.2159(9) 1.1092(6)
C1D C 0.5850(8) 1.2670(9) 1.0222(7)
H1D H 0.56768 1.29167 0.98649
C2D C 0.6583(8) 1.2077(9) 1.0949(7)
H2D H 0.70020 1.18449 1.11792
N4D N 0.2751(9) 0.8546(8) 1.0442(7)
N5D N 0.2688(9) 0.9711(8) 1.0700(7)
N6D N 0.3191(9) 0.9364(8) 1.1129(7)
C3D C 0.2415(9) 0.9206(8) 1.0276(7)
H3D H 0.20590 0.92961 0.99306
C4D C 0.3230(9) 0.8643(8) 1.0969(7)
H4D H 0.35339 0.82791 1.11844
C5D C 0.4131(10) 1.2134(9) 1.0695(8)
C6D C 0.3704(10) 1.1857(10) 1.0176(7)
H5D H 0.37710 1.20426 0.98124
C7D C 0.3178(10) 1.1306(10) 1.0194(7)
H6D H 0.28902 1.11193 0.98436
C8D C 0.3077(9) 1.1032(10) 1.0733(8)
C9D C 0.3504(10) 1.1308(10) 1.1253(7)
H7D H 0.34363 1.11229 1.16165
C10D C 0.4031(10) 1.1859(10) 1.1234(7)
H8D H 0.43187 1.20458 1.15851
C11D C 0.4702(13) 1.2747(14) 1.0665(12)
H9D H 0.47264 1.30641 1.10093
H10D H 0.45116 1.30466 1.03167
C12D C 0.2476(15) 1.0467(14) 1.0748(13)
H11D H 0.20508 1.05743 1.04276
H12D H 0.22991 1.05262 1.11179
Co1B Co 0.75000 1.25000 1.00000
N1F N 0.1555(8) 0.7393(9) 1.0411(7)
N4B N 0.2249(9) 0.6454(8) 0.9558(7)
#END
