
#######################################################################
#
#                 Cambridge Crystallographic Data Centre
#                                CCDC
#
#######################################################################
#
# If this CIF has been generated from an entry in the Cambridge
# Structural Database, then it will include bibliographic, chemical,
# crystal, experimental, refinement or atomic coordinate data resulting
# from the CCDC's data processing and validation procedures.
#
#######################################################################

data_CSD_CIF_PIBSIF
_audit_creation_date 2018-03-14
_audit_creation_method CSD-ConQuest-V1
_database_code_CSD PIBSIF
_database_code_depnum_ccdc_archive 'CCDC 948699'
_chemical_formula_sum 'C12 H23 Cu3 Mo12 N6 O45.5 P1'
_chemical_formula_moiety
;
(C4 H4 Cu1 N2 1+)3n,5.5(H2 O1),Mo12 O40 P1 3-
;
_journal_coden_Cambridge 1380
_journal_volume 30
_journal_year 2014
_journal_page_first 1
_journal_name_full 'Fenzi Kexue Xuebao(Chin.)(J.Mol.Sci.) '
loop_
_publ_author_name
"Feng-Ji Ma"
"Xiao-Ying Zeng"
"Qian Sun"
"Bai-Qing Yuan"
"Dao-Jun Zhang"
_chemical_name_systematic
;
catena-[tris(\m-pyrazine)-copper(i)) 
(\m-phosphato)-tetracosakis(\m-oxo)-dodecaoxo-dodeca-molybdenum hydrate]
;
_cell_volume  17630.000
_diffrn_ambient_temperature 296
_refine_special_details
;
O10 disordered by symmetry over two configurations with occupancy 0.50.

;
#These two values have been output from a single CSD field.
_refine_ls_R_factor_gt 0.0527
_refine_ls_wR_factor_gt 0.0527
_symmetry_cell_setting cubic
_symmetry_space_group_name_H-M 'I a -3 d'
_symmetry_Int_Tables_number 230
loop_
_symmetry_equiv_pos_site_id
_symmetry_equiv_pos_as_xyz
1 x,y,z
2 1/2-x,-y,1/2+z
3 -x,1/2+y,1/2-z
4 1/2+x,1/2-y,-z
5 z,x,y
6 1/2+z,1/2-x,-y
7 1/2-z,-x,1/2+y
8 -z,1/2+x,1/2-y
9 y,z,x
10 -y,1/2+z,1/2-x
11 1/2+y,1/2-z,-x
12 1/2-y,-z,1/2+x
13 3/4+y,1/4+x,1/4-z
14 3/4-y,3/4-x,3/4-z
15 1/4+y,1/4-x,3/4+z
16 1/4-y,3/4+x,1/4+z
17 3/4+x,1/4+z,1/4-y
18 1/4-x,3/4+z,1/4+y
19 3/4-x,3/4-z,3/4-y
20 1/4+x,1/4-z,3/4+y
21 3/4+z,1/4+y,1/4-x
22 1/4+z,1/4-y,3/4+x
23 1/4-z,3/4+y,1/4+x
24 3/4-z,3/4-y,3/4-x
25 1/2+x,1/2+y,1/2+z
26 -x,1/2-y,z
27 1/2-x,y,-z
28 x,-y,1/2-z
29 1/2+z,1/2+x,1/2+y
30 z,-x,1/2-y
31 -z,1/2-x,y
32 1/2-z,x,-y
33 1/2+y,1/2+z,1/2+x
34 1/2-y,z,-x
35 y,-z,1/2-x
36 -y,1/2-z,x
37 1/4+y,3/4+x,3/4-z
38 1/4-y,1/4-x,1/4-z
39 3/4+y,3/4-x,1/4+z
40 3/4-y,1/4+x,3/4+z
41 1/4+x,3/4+z,3/4-y
42 3/4-x,1/4+z,3/4+y
43 1/4-x,1/4-z,1/4-y
44 3/4+x,3/4-z,1/4+y
45 1/4+z,3/4+y,3/4-x
46 3/4+z,3/4-y,1/4+x
47 3/4-z,1/4+y,3/4+x
48 1/4-z,1/4-y,1/4-x
49 -x,-y,-z
50 -1/2+x,y,-1/2-z
51 x,-1/2-y,-1/2+z
52 -1/2-x,-1/2+y,z
53 -z,-x,-y
54 -1/2-z,-1/2+x,y
55 -1/2+z,x,-1/2-y
56 z,-1/2-x,-1/2+y
57 -y,-z,-x
58 y,-1/2-z,-1/2+x
59 -1/2-y,-1/2+z,x
60 -1/2+y,z,-1/2-x
61 -3/4-y,-1/4-x,-1/4+z
62 -3/4+y,-3/4+x,-3/4+z
63 -1/4-y,-1/4+x,-3/4-z
64 -1/4+y,-3/4-x,-1/4-z
65 -3/4-x,-1/4-z,-1/4+y
66 -1/4+x,-3/4-z,-1/4-y
67 -3/4+x,-3/4+z,-3/4+y
68 -1/4-x,-1/4+z,-3/4-y
69 -3/4-z,-1/4-y,-1/4+x
70 -1/4-z,-1/4+y,-3/4-x
71 -1/4+z,-3/4-y,-1/4-x
72 -3/4+z,-3/4+y,-3/4+x
73 -1/2-x,-1/2-y,-1/2-z
74 x,-1/2+y,-z
75 -1/2+x,-y,z
76 -x,y,-1/2+z
77 -1/2-z,-1/2-x,-1/2-y
78 -z,x,-1/2+y
79 z,-1/2+x,-y
80 -1/2+z,-x,y
81 -1/2-y,-1/2-z,-1/2-x
82 -1/2+y,-z,x
83 -y,z,-1/2+x
84 y,-1/2+z,-x
85 -1/4-y,-3/4-x,-3/4+z
86 -1/4+y,-1/4+x,-1/4+z
87 -3/4-y,-3/4+x,-1/4-z
88 -3/4+y,-1/4-x,-3/4-z
89 -1/4-x,-3/4-z,-3/4+y
90 -3/4+x,-1/4-z,-3/4-y
91 -1/4+x,-1/4+z,-1/4+y
92 -3/4-x,-3/4+z,-1/4-y
93 -1/4-z,-3/4-y,-3/4+x
94 -3/4-z,-3/4+y,-1/4-x
95 -3/4+z,-1/4-y,-3/4-x
96 -1/4+z,-1/4+y,-1/4+x
_cell_length_a 26.0266(3)
_cell_length_b 26.0266(3)
_cell_length_c 26.0266(3)
_cell_angle_alpha 90
_cell_angle_beta 90
_cell_angle_gamma 90
_cell_formula_units_Z 16
loop_
_atom_type_symbol
_atom_type_radius_bond
C 0.68
H 0.23
Cu 1.32
Mo 1.54
N 0.68
O 0.68
P 1.05
loop_
_atom_site_label
_atom_site_type_symbol
_atom_site_fract_x
_atom_site_fract_y
_atom_site_fract_z
C1 C 0.2852(5) 0.9761(5) 0.9045(4)
C2 C 0.2883(6) 0.9745(6) 0.8515(5)
Cu1 Cu 0.25000 1.01017(16) 1.00000
H1 H 0.323(4) 0.948(4) 0.927(4)
H2 H 0.318(5) 0.965(5) 0.839(5)
N1 N 0.2541(4) 1.0078(4) 0.9268(3)
Mo1 Mo 0.38591(3) 0.93836(4) 0.04401(4)
Mo2 Mo 0.38062(4) 1.06509(4) -0.00831(4)
O1 O 0.3840(5) 1.0334(5) -0.0770(5)
O2 O 0.3234(3) 1.0919(3) -0.0111(3)
O3 O 0.4637(5) 1.0363(5) -0.0363(5)
O4 O 0.3590(4) 0.9947(3) 0.0117(4)
O5 O 0.3984(4) 0.9031(4) -0.0150(3)
O6 O 0.4407(4) 0.8966(4) 0.0755(3)
O7 O 0.3347(4) 0.9097(4) 0.0663(3)
O8 O 0.5512(5) 0.9932(5) -0.0293(5)
P1 P 0.50000 1.00000 0.00000
O9? O 0.25000 0.8986(15) 0.00000
C1JA C 0.2261(5) 1.0352(5) 0.8455(4)
C2JA C 0.2245(6) 1.0383(6) 0.8985(5)
H1JA H 0.198(4) 1.073(4) 0.823(4)
H2JA H 0.215(5) 1.068(5) 0.911(5)
N1JA N 0.2578(4) 1.0041(4) 0.8232(3)
Cu1N Cu 0.26017 1.00000(16) 0.75000
N1Z N 0.2459(4) 1.0078(4) 1.0732(3)
O8E O 0.4707(5) 0.9488(5) 0.0068(5)
O8K O 0.5068(5) 1.0293(5) 0.0512(5)
O3VA O 0.5363(5) 0.9637(5) 0.0363(5)
O8VA O 0.4488(5) 1.0068(5) 0.0293(5)
O8AB O 0.5293(5) 1.0512(5) -0.0068(5)
O8GB O 0.4932(5) 0.9707(5) -0.0512(5)
Mo1E Mo 0.54401(3) 1.11409(4) 0.06164(4)
Mo2E Mo 0.49169(4) 1.11938(4) -0.06509(4)
O1E O 0.4230(5) 1.1160(5) -0.0334(5)
O2E O 0.4889(3) 1.1766(3) -0.0919(3)
O4E O 0.5117(4) 1.1410(3) 0.0053(4)
O5E O 0.4850(4) 1.1016(4) 0.0969(3)
O6E O 0.5755(4) 1.0593(4) 0.1034(3)
O7E O 0.5663(4) 1.1653(4) 0.0903(3)
Mo1K Mo 0.56164(3) 0.95599(4) -0.11409(4)
Mo2K Mo 0.43491(4) 1.00831(4) -0.11938(4)
O1K O 0.4666(5) 1.0770(5) -0.1160(5)
O2K O 0.4081(3) 1.0111(3) -0.1766(3)
O4K O 0.5053(4) 0.9883(3) -0.1410(4)
O5K O 0.5969(4) 1.0150(4) -0.1016(3)
O6K O 0.6034(4) 0.9245(4) -0.0593(3)
O7K O 0.5903(4) 0.9337(4) -0.1653(3)
Mo1VA Mo 0.61409(3) 1.06164(4) -0.04401(4)
Mo2VA Mo 0.61938(4) 0.93491(4) 0.00831(4)
O1VA O 0.6160(5) 0.9666(5) 0.0770(5)
O2VA O 0.6766(3) 0.9081(3) 0.0111(3)
O4VA O 0.6410(4) 1.0053(3) -0.0117(4)
O5VA O 0.6016(4) 1.0969(4) 0.0150(3)
O6VA O 0.5593(4) 1.1034(4) -0.0755(3)
O7VA O 0.6653(4) 1.0903(4) -0.0663(3)
Mo1AB Mo 0.45599(3) 0.88591(4) -0.06164(4)
Mo2AB Mo 0.50831(4) 0.88062(4) 0.06509(4)
O1AB O 0.5770(5) 0.8840(5) 0.0334(5)
O2AB O 0.5111(3) 0.8234(3) 0.0919(3)
O4AB O 0.4883(4) 0.8590(3) -0.0053(4)
O5AB O 0.5150(4) 0.8984(4) -0.0969(3)
O6AB O 0.4245(4) 0.9407(4) -0.1034(3)
O7AB O 0.4337(4) 0.8347(4) -0.0903(3)
Mo1GB Mo 0.43836(3) 1.04401(4) 0.11409(4)
Mo2GB Mo 0.56509(4) 0.99169(4) 0.11938(4)
O1GB O 0.5334(5) 0.9230(5) 0.1160(5)
O2GB O 0.5919(3) 0.9889(3) 0.1766(3)
O4GB O 0.4947(4) 1.0117(3) 0.1410(4)
O5GB O 0.4031(4) 0.9850(4) 0.1016(3)
O6GB O 0.3966(4) 1.0755(4) 0.0593(3)
O7GB O 0.4097(4) 1.0663(4) 0.1653(3)
#END
