
#######################################################################
#
#                 Cambridge Crystallographic Data Centre
#                                CCDC
#
#######################################################################
#
# If this CIF has been generated from an entry in the Cambridge
# Structural Database, then it will include bibliographic, chemical,
# crystal, experimental, refinement or atomic coordinate data resulting
# from the CCDC's data processing and validation procedures.
#
#######################################################################

data_CSD_CIF_PIBXOP
_audit_creation_date 2013-07-18
_audit_creation_method CSD-ConQuest-V1
_database_code_CSD PIBXOP
_database_code_depnum_ccdc_archive 'CCDC 867174'
_chemical_formula_sum 'C67 H73 Mn1 N10 O19 Zn2'
_chemical_formula_moiety
;
(C50 H26 Mn1 N4 O12 Zn2 1-)n,n(C2 H8 N1 1+),5n(C3 H7 N1 O1),2n(H2 O1)
;
_journal_coden_Cambridge 9
_journal_volume 52
_journal_year 2013
_journal_page_first 3620
_journal_name_full 'Inorg.Chem. '
loop_
_publ_author_name
"Chao Zou"
"Tianfu Zhang"
"Ming-Hua Xie"
"Lijun Yan"
"Guo-Qiang Kong"
"Xiu-Li Yang"
"An Ma"
"Chuan-De Wu"
_chemical_name_systematic
;
catena-(Dimethylammonium 
(\m~9~-4,4',4'',4'''-porphyrin-5,10,15,20-tetrayltetrabenzoic 
acid)-bis(\m~2~-formic acid)-manganese(iii)-di-zinc N,N-dimethylformamide 
solvate dihydrate)
;
_cell_volume   4302.050
_exptl_crystal_colour 'brown'
_exptl_crystal_density_diffrn 1.164
_exptl_crystal_description 'block'
_diffrn_ambient_temperature 293
_refine_special_details
;
Disordered counter ion and solvent molecules were not modelled and the 
disordered density was taken into account using the SQUEEZE/PLATON procedure.
;
#These two values have been output from a single CSD field.
_refine_ls_R_factor_gt 0.0358
_refine_ls_wR_factor_gt 0.0358
_symmetry_cell_setting tetragonal
_symmetry_space_group_name_H-M 'I 4/m m m'
_symmetry_Int_Tables_number 139
loop_
_symmetry_equiv_pos_site_id
_symmetry_equiv_pos_as_xyz
1 x,y,z
2 -y,x,z
3 -x,-y,z
4 y,-x,z
5 x,-y,-z
6 y,x,-z
7 -x,y,-z
8 -y,-x,-z
9 1/2+x,1/2+y,1/2+z
10 1/2-y,1/2+x,1/2+z
11 1/2-x,1/2-y,1/2+z
12 1/2+y,1/2-x,1/2+z
13 1/2+x,1/2-y,1/2-z
14 1/2+y,1/2+x,1/2-z
15 1/2-x,1/2+y,1/2-z
16 1/2-y,1/2-x,1/2-z
17 -x,-y,-z
18 y,-x,-z
19 x,y,-z
20 -y,x,-z
21 -x,y,z
22 -y,-x,z
23 x,-y,z
24 y,x,z
25 -1/2-x,-1/2-y,-1/2-z
26 -1/2+y,-1/2-x,-1/2-z
27 -1/2+x,-1/2+y,-1/2-z
28 -1/2-y,-1/2+x,-1/2-z
29 -1/2-x,-1/2+y,-1/2+z
30 -1/2-y,-1/2-x,-1/2+z
31 -1/2+x,-1/2-y,-1/2+z
32 -1/2+y,-1/2+x,-1/2+z
_cell_length_a 16.6701(12)
_cell_length_b 16.6701(12)
_cell_length_c 15.481(2)
_cell_angle_alpha 90
_cell_angle_beta 90
_cell_angle_gamma 90
_cell_formula_units_Z 2
loop_
_atom_type_symbol
_atom_type_radius_bond
C 0.68
H 0.23
Mn 1.61
N 0.68
O 0.68
Zn 1.22
loop_
_atom_site_label
_atom_site_type_symbol
_atom_site_fract_x
_atom_site_fract_y
_atom_site_fract_z
Zn1 Zn 0.00000 0.00000 0.09582(5)
Mn1 Mn 0.50000 0.50000 0.00000
O1 O 0.08444(11) 0.08444(11) 0.07220(19)
O2 O 0.50000 0.50000 -0.1413(5)
O3 O 0.50000 0.50000 -0.2790(5)
N1 N 0.3781(2) 0.50000 0.00000
C1 C 0.2480(2) 0.4597(2) 0.00000
H1 H 0.20300 0.42660 0.00000
C2 C 0.3291(2) 0.4344(2) 0.00000
C3 C 0.3545(2) 0.3545(2) 0.00000
C4 C 0.2910(2) 0.2910(2) 0.00000
C5 C 0.26094(19) 0.26094(19) -0.0752(3)
H2 H 0.28020 0.28020 -0.12770
C6 C 0.20234(19) 0.20234(19) -0.0745(3)
H3 H 0.18300 0.18300 -0.12690
C7 C 0.1723(2) 0.1723(2) 0.00000
C8 C 0.1086(2) 0.1086(2) 0.00000
C9 C 0.50000 0.50000 -0.2128(7)
O1D O 0.08444(11) 0.91556(11) -0.07220(19)
C1D C 0.2480(2) 0.5403(2) 0.00000
H1D H 0.20300 0.57340 0.00000
C2D C 0.3291(2) 0.5656(2) 0.00000
C3C C 0.3545(2) 0.6455(2) 0.00000
C4C C 0.2910(2) 0.7090(2) 0.00000
C5D C 0.26094(19) 0.73906(19) 0.0752(3)
H2D H 0.28020 0.71980 0.12770
C6D C 0.20234(19) 0.79766(19) 0.0745(3)
H3D H 0.18300 0.81700 0.12690
C7C C 0.1723(2) 0.8277(2) 0.00000
C8C C 0.1086(2) 0.8914(2) 0.00000
O1E O 0.08444(11) 0.08444(11) -0.07220(19)
N1A N 0.5000(2) 0.37810 0.00000
C1E C 0.4597(2) 0.2480(2) 0.00000
H1E H 0.42660 0.20300 0.00000
C2E C 0.4344(2) 0.3291(2) 0.00000
C5E C 0.26094(19) 0.26094(19) 0.0752(3)
H2E H 0.28020 0.28020 0.12770
C6E C 0.20234(19) 0.20234(19) 0.0745(3)
H3E H 0.18300 0.18300 0.12690
O1C O 0.08444(11) 0.91556(11) 0.07220(19)
C5C C 0.26094(19) 0.73906(19) -0.0752(3)
H2C H 0.28020 0.71980 -0.12770
C6C C 0.20234(19) 0.79766(19) -0.0745(3)
H3C H 0.18300 0.81700 -0.12690
O1A O 0.91556(11) 0.08444(11) 0.07220(19)
C1A C 0.5403(2) 0.2480(2) 0.00000
H1A H 0.57340 0.20300 0.00000
C2A C 0.5656(2) 0.3291(2) 0.00000
C3A C 0.6455(2) 0.3545(2) 0.00000
C4A C 0.7090(2) 0.2910(2) 0.00000
C5A C 0.73906(19) 0.26094(19) -0.0752(3)
H2A H 0.71980 0.28020 -0.12770
C6A C 0.79766(19) 0.20234(19) -0.0745(3)
H3A H 0.81700 0.18300 -0.12690
C7A C 0.8277(2) 0.1723(2) 0.00000
C8A C 0.8914(2) 0.1086(2) 0.00000
N1C N 0.5000(2) 0.62190 0.00000
C1C C 0.4597(2) 0.7520(2) 0.00000
H1C H 0.42660 0.79700 0.00000
C2C C 0.4344(2) 0.6709(2) 0.00000
O1G O 0.91556(11) 0.91556(11) -0.07220(19)
C1G C 0.5403(2) 0.7520(2) 0.00000
H1G H 0.57340 0.79700 0.00000
C2G C 0.5656(2) 0.6709(2) 0.00000
C3B C 0.6455(2) 0.6455(2) 0.00000
C4B C 0.7090(2) 0.7090(2) 0.00000
C5G C 0.73906(19) 0.73906(19) 0.0752(3)
H2G H 0.71980 0.71980 0.12770
C6G C 0.79766(19) 0.79766(19) 0.0745(3)
H3G H 0.81700 0.81700 0.12690
C7B C 0.8277(2) 0.8277(2) 0.00000
C8B C 0.8914(2) 0.8914(2) 0.00000
O1F O 0.91556(11) 0.08444(11) -0.07220(19)
C5F C 0.73906(19) 0.26094(19) 0.0752(3)
H2F H 0.71980 0.28020 0.12770
C6F C 0.79766(19) 0.20234(19) 0.0745(3)
H3F H 0.81700 0.18300 0.12690
O1B O 0.91556(11) 0.91556(11) 0.07220(19)
C5B C 0.73906(19) 0.73906(19) -0.0752(3)
H2B H 0.71980 0.71980 -0.12770
C6B C 0.79766(19) 0.79766(19) -0.0745(3)
H3B H 0.81700 0.81700 -0.12690
N1B N 0.6219(2) 0.50000 0.00000
C1B C 0.7520(2) 0.5403(2) 0.00000
H1B H 0.79700 0.57340 0.00000
C2B C 0.6709(2) 0.5656(2) 0.00000
C1F C 0.7520(2) 0.4597(2) 0.00000
H1F H 0.79700 0.42660 0.00000
C2F C 0.6709(2) 0.4344(2) 0.00000
Zn1D Zn 0.00000 0.00000 -0.09582(5)
O2D O 0.50000 0.50000 0.1413(5)
O3D O 0.50000 0.50000 0.2790(5)
C9D C 0.50000 0.50000 0.2128(7)
Zn1* Zn 0.00000 1.00000 0.09582(5)
Zn1** Zn 1.00000 0.00000 0.09582(5)
Zn1*** Zn 1.00000 1.00000 0.09582(5)
Zn1D* Zn 0.00000 1.00000 -0.09582(5)
Zn1D** Zn 1.00000 0.00000 -0.09582(5)
Zn1D*** Zn 1.00000 1.00000 -0.09582(5)
Zn1H Zn 0.50000 0.50000 -0.40418(5)
Zn1L Zn 0.50000 0.50000 0.40418(5)
O1A* O -0.08444(11) 0.08444(11) 0.07220(19)
O1B* O -0.08444(11) -0.08444(11) 0.07220(19)
O1C* O 0.08444(11) -0.08444(11) 0.07220(19)
O1D* O 0.08444(11) -0.08444(11) -0.07220(19)
O1F* O -0.08444(11) 0.08444(11) -0.07220(19)
O1G* O -0.08444(11) -0.08444(11) -0.07220(19)
O3H O 0.00000 0.00000 0.2210(5)
O3L O 0.00000 0.00000 -0.2210(5)
#END
