
#######################################################################
#
#                 Cambridge Crystallographic Data Centre
#                                CCDC
#
#######################################################################
#
# If this CIF has been generated from an entry in the Cambridge
# Structural Database, then it will include bibliographic, chemical,
# crystal, experimental, refinement or atomic coordinate data resulting
# from the CCDC's data processing and validation procedures.
#
#######################################################################

data_CSD_CIF_PIBXUV
_audit_creation_date 2013-07-18
_audit_creation_method CSD-ConQuest-V1
_database_code_CSD PIBXUV
_database_code_depnum_ccdc_archive 'CCDC 867173'
_chemical_formula_sum 'C67 H75 Cd2 Mn1 N10 O20'
_chemical_formula_moiety
;
(C50 H26 Cd2 Mn1 N4 O12 1-)n,n(C2 H8 N1 1+),5n(C3 H7 N1 O1),3n(H2 O1)
;
_journal_coden_Cambridge 9
_journal_volume 52
_journal_year 2013
_journal_page_first 3620
_journal_name_full 'Inorg.Chem. '
loop_
_publ_author_name
"Chao Zou"
"Tianfu Zhang"
"Ming-Hua Xie"
"Lijun Yan"
"Guo-Qiang Kong"
"Xiu-Li Yang"
"An Ma"
"Chuan-De Wu"
_chemical_name_systematic
;
catena-(Dimethylammonium 
(\m~9~-4,4',4'',4'''-porphyrin-5,10,15,20-tetrayltetrabenzoic 
acid)-bis(\m~2~-formic acid)-manganese(iii)-di-cadmium N,N-dimethylformamide 
solvate trihydrate)
;
_cell_volume   4585.341
_exptl_crystal_colour 'brown'
_exptl_crystal_density_diffrn 1.173
_exptl_crystal_description 'block'
_diffrn_ambient_temperature 293
_refine_special_details
;
Disordered counter ion and solvent molecules were not modelled and the 
disordered density was taken into account using the SQUEEZE/PLATON procedure.
;
#These two values have been output from a single CSD field.
_refine_ls_R_factor_gt 0.0392
_refine_ls_wR_factor_gt 0.0392
_symmetry_cell_setting tetragonal
_symmetry_space_group_name_H-M 'I 4/m m m'
_symmetry_Int_Tables_number 139
loop_
_symmetry_equiv_pos_site_id
_symmetry_equiv_pos_as_xyz
1 x,y,z
2 -x,-y,z
3 -y,x,z
4 y,-x,z
5 -x,y,-z
6 x,-y,-z
7 y,x,-z
8 -y,-x,-z
9 1/2+x,1/2+y,1/2+z
10 1/2-x,1/2-y,1/2+z
11 1/2-y,1/2+x,1/2+z
12 1/2+y,1/2-x,1/2+z
13 1/2-x,1/2+y,1/2-z
14 1/2+x,1/2-y,1/2-z
15 1/2+y,1/2+x,1/2-z
16 1/2-y,1/2-x,1/2-z
17 -x,-y,-z
18 x,y,-z
19 y,-x,-z
20 -y,x,-z
21 x,-y,z
22 -x,y,z
23 -y,-x,z
24 y,x,z
25 -1/2-x,-1/2-y,-1/2-z
26 -1/2+x,-1/2+y,-1/2-z
27 -1/2+y,-1/2-x,-1/2-z
28 -1/2-y,-1/2+x,-1/2-z
29 -1/2+x,-1/2-y,-1/2+z
30 -1/2-x,-1/2+y,-1/2+z
31 -1/2-y,-1/2-x,-1/2+z
32 -1/2+y,-1/2+x,-1/2+z
_cell_length_a 16.9198(4)
_cell_length_b 16.9198(4)
_cell_length_c 16.0170(6)
_cell_angle_alpha 90
_cell_angle_beta 90
_cell_angle_gamma 90
_cell_formula_units_Z 2
loop_
_atom_type_symbol
_atom_type_radius_bond
C 0.68
H 0.23
Cd 1.44
Mn 1.61
N 0.68
O 0.68
loop_
_atom_site_label
_atom_site_type_symbol
_atom_site_fract_x
_atom_site_fract_y
_atom_site_fract_z
Cd1 Cd 0.00000 0.00000 0.40339(4)
Mn1 Mn 0.50000 0.50000 0.50000
O1 O 0.09069(15) 0.09069(15) 0.4309(3)
O2 O 0.50000 0.50000 0.3637(4)
O3 O 0.50000 0.50000 0.2270(6)
N1 N 0.50000 0.3806(3) 0.50000
C1 C 0.4609(3) 0.2519(3) 0.50000
H1 H 0.42860 0.20740 0.50000
C2 C 0.4349(3) 0.3323(2) 0.50000
C3 C 0.3562(2) 0.3562(2) 0.50000
C4 C 0.2941(3) 0.2941(3) 0.50000
C5 C 0.2643(2) 0.2643(2) 0.4281(4)
H2 H 0.28330 0.28330 0.37740
C6 C 0.2070(2) 0.2070(2) 0.4279(4)
H3 H 0.18810 0.18810 0.37710
C7 C 0.1772(3) 0.1772(3) 0.50000
C8 C 0.1145(3) 0.1145(3) 0.50000
C9 C 0.50000 0.50000 0.2955(5)
O1D O 0.90931(15) 0.09069(15) 0.5691(3)
C1D C 0.5391(3) 0.2519(3) 0.50000
H1D H 0.57140 0.20740 0.50000
C2D C 0.5651(3) 0.3323(2) 0.50000
C3B C 0.6438(2) 0.3562(2) 0.50000
C4B C 0.7059(3) 0.2941(3) 0.50000
C5D C 0.7357(2) 0.2643(2) 0.5719(4)
H2D H 0.71670 0.28330 0.62260
C6D C 0.7930(2) 0.2070(2) 0.5721(4)
H3D H 0.81190 0.18810 0.62290
C7B C 0.8228(3) 0.1772(3) 0.50000
C8B C 0.8855(3) 0.1145(3) 0.50000
O1F O 0.09069(15) 0.09069(15) 0.5691(3)
N1C N 0.38060 0.5000(3) 0.50000
C1F C 0.2519(3) 0.4609(3) 0.50000
H1F H 0.20740 0.42860 0.50000
C2F C 0.3323(3) 0.4349(2) 0.50000
C5F C 0.2643(2) 0.2643(2) 0.5719(4)
H2F H 0.28330 0.28330 0.62260
C6F C 0.2070(2) 0.2070(2) 0.5721(4)
H3F H 0.18810 0.18810 0.62290
O1B O 0.90931(15) 0.09069(15) 0.4309(3)
C5B C 0.7357(2) 0.2643(2) 0.4281(4)
H2B H 0.71670 0.28330 0.37740
C6B C 0.7930(2) 0.2070(2) 0.4279(4)
H3B H 0.81190 0.18810 0.37710
N1B N 0.61940 0.5000(3) 0.50000
C1B C 0.7481(3) 0.4609(3) 0.50000
H1B H 0.79260 0.42860 0.50000
C2B C 0.6677(3) 0.4349(2) 0.50000
O1C O 0.09069(15) 0.90931(15) 0.4309(3)
C1C C 0.2519(3) 0.5391(3) 0.50000
H1C H 0.20740 0.57140 0.50000
C2C C 0.3323(3) 0.5651(2) 0.50000
C3C C 0.3562(2) 0.6438(2) 0.50000
C4C C 0.2941(3) 0.7059(3) 0.50000
C5C C 0.2643(2) 0.7357(2) 0.4281(4)
H2C H 0.28330 0.71670 0.37740
C6C C 0.2070(2) 0.7930(2) 0.4279(4)
H3C H 0.18810 0.81190 0.37710
C7C C 0.1772(3) 0.8228(3) 0.50000
C8C C 0.1145(3) 0.8855(3) 0.50000
O1G O 0.90931(15) 0.90931(15) 0.5691(3)
C1G C 0.7481(3) 0.5391(3) 0.50000
H1G H 0.79260 0.57140 0.50000
C2G C 0.6677(3) 0.5651(2) 0.50000
C3A C 0.6438(2) 0.6438(2) 0.50000
C4A C 0.7059(3) 0.7059(3) 0.50000
C5G C 0.7357(2) 0.7357(2) 0.5719(4)
H2G H 0.71670 0.71670 0.62260
C6G C 0.7930(2) 0.7930(2) 0.5721(4)
H3G H 0.81190 0.81190 0.62290
C7A C 0.8228(3) 0.8228(3) 0.50000
C8A C 0.8855(3) 0.8855(3) 0.50000
O1E O 0.09069(15) 0.90931(15) 0.5691(3)
C5E C 0.2643(2) 0.7357(2) 0.5719(4)
H2E H 0.28330 0.71670 0.62260
C6E C 0.2070(2) 0.7930(2) 0.5721(4)
H3E H 0.18810 0.81190 0.62290
O1A O 0.90931(15) 0.90931(15) 0.4309(3)
C5A C 0.7357(2) 0.7357(2) 0.4281(4)
H2A H 0.71670 0.71670 0.37740
C6A C 0.7930(2) 0.7930(2) 0.4279(4)
H3A H 0.81190 0.81190 0.37710
N1A N 0.50000 0.6194(3) 0.50000
C1A C 0.5391(3) 0.7481(3) 0.50000
H1A H 0.57140 0.79260 0.50000
C2A C 0.5651(3) 0.6677(2) 0.50000
C1E C 0.4609(3) 0.7481(3) 0.50000
H1E H 0.42860 0.79260 0.50000
C2E C 0.4349(3) 0.6677(2) 0.50000
Cd1D Cd 0.00000 0.00000 0.59661(4)
O2D O 0.50000 0.50000 0.6363(4)
O3D O 0.50000 0.50000 0.7730(6)
C9D C 0.50000 0.50000 0.7045(5)
Cd1* Cd 0.00000 1.00000 0.40339(4)
Cd1** Cd 1.00000 0.00000 0.40339(4)
Cd1*** Cd 1.00000 1.00000 0.40339(4)
Cd1D* Cd 0.00000 1.00000 0.59661(4)
Cd1D** Cd 1.00000 0.00000 0.59661(4)
Cd1D*** Cd 1.00000 1.00000 0.59661(4)
Cd1H Cd 0.50000 0.50000 0.90339(4)
Cd1L Cd 0.50000 0.50000 0.09661(4)
O1A* O -0.09069(15) -0.09069(15) 0.4309(3)
O1B* O -0.09069(15) 0.09069(15) 0.4309(3)
O1C* O 0.09069(15) -0.09069(15) 0.4309(3)
O1D* O -0.09069(15) 0.09069(15) 0.5691(3)
O1E* O 0.09069(15) -0.09069(15) 0.5691(3)
O1G* O -0.09069(15) -0.09069(15) 0.5691(3)
O3H O 0.00000 0.00000 0.7270(6)
O3L O 0.00000 0.00000 0.2730(6)
#END
