
#######################################################################
#
#                 Cambridge Crystallographic Data Centre
#                                CCDC
#
#######################################################################
#
# If this CIF has been generated from an entry in the Cambridge
# Structural Database, then it will include bibliographic, chemical,
# crystal, experimental, refinement or atomic coordinate data resulting
# from the CCDC's data processing and validation procedures.
#
#######################################################################

data_CSD_CIF_PIDHUH
_audit_creation_date 2013-07-18
_audit_creation_method CSD-ConQuest-V1
_database_code_CSD PIDHUH
_database_code_depnum_ccdc_archive 'CCDC 941453'
_chemical_formula_sum 'C27 H24 Mn0.5 N6 O14 U3'
_chemical_formula_moiety
;
(C30 H24 Mn1 N6 2+)0.5n,n(C12 H12 N3 O14 U3 1-)
;
_journal_coden_Cambridge 1350
_journal_volume 15
_journal_year 2013
_journal_page_first 6533
_journal_name_full 'CrystEngComm '
loop_
_publ_author_name
"P.Thuery"
_chemical_name_systematic
;
catena-[hemikis(tris(2,2'-Bipyridine)-manganese(ii)) 
bis(\m~3~-oxo)-(\m~2~-acetato-O,O')-(\m~2~-hydroxo)-(\m~2~-oxo)-(2,2'-bipyridi
ne-N,N')-(nitrato-O,O')-penta-oxo-tri-uranium(vi)]
;
_cell_volume   6756.651
_exptl_crystal_colour 'light yellow'
_exptl_crystal_density_diffrn 2.749
_exptl_crystal_description 'needle'
_diffrn_ambient_temperature 150
#These two values have been output from a single CSD field.
_refine_ls_R_factor_gt 0.0384
_refine_ls_wR_factor_gt 0.0384
_symmetry_cell_setting monoclinic
_symmetry_space_group_name_H-M 'C 2/c'
_symmetry_Int_Tables_number 15
loop_
_symmetry_equiv_pos_site_id
_symmetry_equiv_pos_as_xyz
1 x,y,z
2 -x,y,1/2-z
3 1/2+x,1/2+y,z
4 1/2-x,1/2+y,1/2-z
5 -x,-y,-z
6 x,-y,-1/2+z
7 -1/2-x,-1/2-y,-z
8 -1/2+x,-1/2-y,-1/2+z
_cell_length_a 14.6158(9)
_cell_length_b 16.9169(5)
_cell_length_c 27.9857(17)
_cell_angle_alpha 90
_cell_angle_beta 102.458(3)
_cell_angle_gamma 90
_cell_formula_units_Z 8
loop_
_atom_type_symbol
_atom_type_radius_bond
C 0.68
H 0.23
Mn 1.61
N 0.68
O 0.68
U 1.96
loop_
_atom_site_label
_atom_site_type_symbol
_atom_site_fract_x
_atom_site_fract_y
_atom_site_fract_z
U1 U 0.765095(14) 0.157614(14) 0.469528(8)
U2 U 0.871493(14) -0.033636(14) 0.498985(8)
U3 U 0.802423(15) 0.125575(14) 0.602618(8)
O1 O 0.8839(2) 0.1849(2) 0.47075(13)
O2 O 0.6471(2) 0.1273(2) 0.46567(14)
O3 O 0.8243(2) 0.0240(2) 0.44379(13)
O4 O 0.9041(2) -0.0951(2) 0.55127(14)
O5 O 0.9283(2) 0.1279(3) 0.61511(14)
O6 O 0.6789(2) 0.1172(3) 0.59614(15)
O7 O 0.8035(2) 0.0589(2) 0.53232(13)
O8 O 0.7803(2) 0.2161(2) 0.54484(14)
O9 O 1.0039(2) -0.0533(2) 0.46920(16)
H1 H 1.00120 -0.06030 0.44360
O10 O 0.7304(3) 0.1533(3) 0.38174(14)
O11 O 0.6926(3) 0.2665(3) 0.34129(15)
O12 O 0.8153(3) 0.0653(3) 0.68805(15)
O13 O 0.8013(3) -0.0194(2) 0.62902(16)
O14 O 0.7955(3) -0.0602(3) 0.70253(17)
N1 N 0.8435(3) -0.1678(3) 0.45065(17)
N2 N 0.7060(3) -0.0967(3) 0.48393(18)
N3 N 0.8040(3) -0.0065(4) 0.6740(2)
C1 C 0.7044(4) 0.1923(4) 0.3434(2)
C2 C 0.6844(5) 0.1450(4) 0.2966(2)
H2 H 0.74240 0.13070 0.28810
H3 H 0.64760 0.17620 0.27080
H4 H 0.65040 0.09790 0.30110
C3 C 0.9135(5) -0.2051(4) 0.4346(3)
H5 H 0.97380 -0.18500 0.44460
C4 C 0.9021(5) -0.2694(4) 0.4050(3)
H6 H 0.95300 -0.29160 0.39490
C5 C 0.8136(5) -0.3012(4) 0.3903(3)
H7 H 0.80290 -0.34390 0.36880
C6 C 0.7416(5) -0.2683(4) 0.4081(3)
H8 H 0.68190 -0.29020 0.40020
C7 C 0.7588(4) -0.2023(4) 0.4380(2)
C8 C 0.6839(4) -0.1638(4) 0.4587(2)
C9 C 0.5946(4) -0.1981(4) 0.4532(2)
H9 H 0.58120 -0.24550 0.43630
C10 C 0.5274(4) -0.1620(4) 0.4727(3)
H10 H 0.46770 -0.18350 0.46870
C11 C 0.5510(4) -0.0921(4) 0.4989(3)
H11 H 0.50740 -0.06650 0.51330
C12 C 0.6396(4) -0.0616(4) 0.5033(2)
H12 H 0.65440 -0.01450 0.52030
Mn1 Mn 0.50000 0.82146(8) 0.25000
N4 N 0.5068(3) 0.9110(3) 0.30950(16)
N5 N 0.6529(3) 0.8447(3) 0.28149(17)
N6 N 0.4745(3) 0.7158(3) 0.29310(16)
C13 C 0.4316(4) 0.9424(4) 0.3227(2)
H13 H 0.37260 0.92370 0.30770
C14 C 0.4378(4) 1.0014(4) 0.3576(2)
H14 H 0.38410 1.02360 0.36470
C15 C 0.5255(4) 1.0262(4) 0.3815(2)
H15 H 0.53220 1.06510 0.40550
C16 C 0.6040(4) 0.9918(4) 0.3692(2)
H16 H 0.66390 1.00740 0.38500
C17 C 0.5922(4) 0.9349(4) 0.3334(2)
C18 C 0.6739(4) 0.8991(4) 0.3172(2)
C19 C 0.7660(4) 0.9197(4) 0.3366(2)
H17 H 0.77930 0.95760 0.36130
C20 C 0.8376(4) 0.8850(4) 0.3199(2)
H18 H 0.89960 0.89810 0.33350
C21 C 0.8162(4) 0.8303(4) 0.2826(2)
H19 H 0.86320 0.80690 0.26970
C22 C 0.7230(4) 0.8111(4) 0.2648(2)
H20 H 0.70840 0.77320 0.24030
C23 C 0.4882(4) 0.6452(4) 0.2747(2)
C24 C 0.4813(4) 0.5753(4) 0.3006(2)
H21 H 0.49050 0.52640 0.28720
C25 C 0.4604(4) 0.5804(4) 0.3461(2)
H22 H 0.45620 0.53490 0.36420
C26 C 0.4458(4) 0.6539(4) 0.3647(2)
H23 H 0.43160 0.65860 0.39540
C27 C 0.4524(4) 0.7189(4) 0.3373(2)
H24 H 0.44110 0.76810 0.34970
U1F U 0.734905(14) 0.342386(14) 0.530472(8)
U2D U 1.128507(14) 0.033636(14) 0.501015(8)
U3F U 0.697577(15) 0.374425(14) 0.397382(8)
O8F O 0.7197(2) 0.2839(2) 0.45516(14)
O9D O 0.9961(2) 0.0533(2) 0.53080(16)
O11F O 0.8074(3) 0.2335(3) 0.65871(15)
N6A N 0.5255(3) 0.7158(3) 0.20690(16)
C23A C 0.5118(4) 0.6452(4) 0.2253(2)
C24A C 0.5187(4) 0.5753(4) 0.1994(2)
H21A H 0.50950 0.52640 0.21280
C25A C 0.5396(4) 0.5804(4) 0.1539(2)
H22A H 0.54380 0.53490 0.13580
C26A C 0.5542(4) 0.6539(4) 0.1353(2)
H23A H 0.56840 0.65860 0.10460
C27A C 0.5476(4) 0.7189(4) 0.1627(2)
H24A H 0.55890 0.76810 0.15030
N4A N 0.4932(3) 0.9110(3) 0.19050(16)
N5A N 0.3471(3) 0.8447(3) 0.21851(17)
C13A C 0.5684(4) 0.9424(4) 0.1773(2)
H13A H 0.62740 0.92370 0.19230
C14A C 0.5622(4) 1.0014(4) 0.1424(2)
H14A H 0.61590 1.02360 0.13530
C15A C 0.4745(4) 1.0262(4) 0.1185(2)
H15A H 0.46780 1.06510 0.09450
C16A C 0.3960(4) 0.9918(4) 0.1308(2)
H16A H 0.33610 1.00740 0.11500
C17A C 0.4078(4) 0.9349(4) 0.1666(2)
C18A C 0.3261(4) 0.8991(4) 0.1828(2)
C19A C 0.2340(4) 0.9197(4) 0.1634(2)
H17A H 0.22070 0.95760 0.13870
C20A C 0.1624(4) 0.8850(4) 0.1801(2)
H18A H 0.10040 0.89810 0.16650
C21A C 0.1838(4) 0.8303(4) 0.2174(2)
H19A H 0.13680 0.80690 0.23030
C22A C 0.2770(4) 0.8111(4) 0.2352(2)
H20A H 0.29160 0.77320 0.25970
#END
