
#######################################################################
#
#                 Cambridge Crystallographic Data Centre
#                                CCDC
#
#######################################################################
#
# If this CIF has been generated from an entry in the Cambridge
# Structural Database, then it will include bibliographic, chemical,
# crystal, experimental, refinement or atomic coordinate data resulting
# from the CCDC's data processing and validation procedures.
#
#######################################################################

data_CSD_CIF_PIDHOB
_audit_creation_date 2013-07-18
_audit_creation_method CSD-ConQuest-V1
_database_code_CSD PIDHOB
_database_code_depnum_ccdc_archive 'CCDC 941454'
_chemical_formula_sum 'C46 H44 N6 Ni1 O25 U2'
_chemical_formula_moiety
;
(C30 H24 N6 Ni1 2+)n,n(C16 H10 O20 U2 2-),5n(H2 O1)
;
_journal_coden_Cambridge 1350
_journal_volume 15
_journal_year 2013
_journal_page_first 6533
_journal_name_full 'CrystEngComm '
loop_
_publ_author_name
"P.Thuery"
_chemical_name_systematic
;
catena-[tris(2,2'-Bipyridine)-nickel(ii) 
bis(\m~3~-trans,trans,trans-4-carboxycyclobutane-1,2,3-tricarboxylato)-tetra-o
xo-di-uranium(vi) pentahydrate]
;
_cell_volume   5232.622
_exptl_crystal_colour 'light yellow'
_exptl_crystal_density_diffrn 2.051
_exptl_crystal_description 'parallelepiped'
_diffrn_ambient_temperature 150
_refine_special_details
;
O25A and O25B disordered over two sites with occupancies 0.662:0.338.

;
#These two values have been output from a single CSD field.
_refine_ls_R_factor_gt 0.0308
_refine_ls_wR_factor_gt 0.0308
_symmetry_cell_setting monoclinic
_symmetry_space_group_name_H-M 'P 21/c'
_symmetry_Int_Tables_number 14
loop_
_symmetry_equiv_pos_site_id
_symmetry_equiv_pos_as_xyz
1 x,y,z
2 -x,1/2+y,1/2-z
3 -x,-y,-z
4 x,-1/2-y,-1/2+z
_cell_length_a 8.2664(2)
_cell_length_b 24.6040(9)
_cell_length_c 25.7372(10)
_cell_angle_alpha 90
_cell_angle_beta 91.575(2)
_cell_angle_gamma 90
_cell_formula_units_Z 4
loop_
_atom_type_symbol
_atom_type_radius_bond
C 0.68
H 0.23
N 0.68
Ni 1.24
O 0.68
U 1.96
loop_
_atom_site_label
_atom_site_type_symbol
_atom_site_fract_x
_atom_site_fract_y
_atom_site_fract_z
U1 U 0.262966(13) 0.598414(5) 0.229282(4)
U2 U 0.659789(13) 0.755157(5) 0.473278(4)
O1 O 0.3023(2) 0.52807(9) 0.23021(9)
O2 O 0.2249(2) 0.66936(9) 0.22986(9)
O3 O 0.6165(2) 0.70880(9) 0.52383(8)
O4 O 0.7036(2) 0.79959(9) 0.42159(8)
O5 O 0.3911(2) 0.60560(9) 0.31782(8)
O6 O 0.1278(2) 0.59508(9) 0.31372(8)
O7 O 0.3589(2) 0.75273(9) 0.45560(8)
O8 O 0.5089(2) 0.69657(9) 0.41163(8)
O9 O -0.1753(2) 0.68438(9) 0.43209(8)
O10 O -0.0492(2) 0.73668(9) 0.48819(8)
O11 O 0.0127(3) 0.56749(9) 0.50370(9)
O12 O 0.0845(3) 0.51414(9) 0.43825(9)
H1 H 0.05990 0.48530 0.45890
O13 O -0.0286(2) 0.5815(1) 0.21983(8)
O14 O 0.1005(2) 0.58761(11) 0.14778(8)
O15 O -0.5919(3) 0.60998(11) 0.14908(8)
O16 O -0.4409(2) 0.61505(10) 0.21973(8)
O17 O -0.2097(2) 0.68245(9) 0.03650(8)
O18 O -0.4663(2) 0.66900(9) 0.01772(8)
O19 O -0.1433(3) 0.47566(11) 0.07521(10)
O20 O -0.2472(3) 0.52007(10) 0.00696(9)
H2 H -0.25490 0.48850 -0.00450
C1 C 0.2467(3) 0.61841(12) 0.39653(11)
H3 H 0.33850 0.60310 0.41650
C2 C 0.2251(3) 0.67994(12) 0.40874(11)
H4 H 0.16900 0.69820 0.37960
C3 C 0.1022(3) 0.66377(12) 0.45112(11)
H5 H 0.15890 0.65960 0.48480
C4 C 0.0860(3) 0.60868(12) 0.42435(11)
H6 H -0.00350 0.61030 0.39870
C5 C 0.2562(3) 0.60439(12) 0.34011(11)
C6 C 0.3707(3) 0.71184(13) 0.42604(11)
C7 C -0.0479(3) 0.69714(13) 0.45734(12)
C8 C 0.0615(4) 0.56095(14) 0.45915(12)
C9 C -0.1861(3) 0.57102(13) 0.14036(11)
H7 H -0.23980 0.53800 0.15250
C10 C -0.3092(3) 0.61915(13) 0.13721(11)
H8 H -0.25410 0.65400 0.14270
C11 C -0.3361(3) 0.60729(12) 0.07810(11)
H9 H -0.43270 0.58480 0.07220
C12 C -0.1819(3) 0.57129(13) 0.08082(11)
H10 H -0.08810 0.59190 0.06920
C13 C -0.0300(3) 0.58019(13) 0.17109(12)
C14 C -0.4547(3) 0.61461(13) 0.17093(12)
C15 C -0.3391(4) 0.65495(13) 0.04236(11)
C16 C -0.1884(4) 0.51700(14) 0.05480(12)
Ni1 Ni 0.50391(5) 0.850038(17) 0.243664(15)
N1 N 0.3687(3) 0.81323(11) 0.18274(10)
N2 N 0.3708(3) 0.91565(11) 0.21553(10)
N3 N 0.3416(3) 0.83819(11) 0.30256(10)
N4 N 0.6200(3) 0.89034(11) 0.30376(10)
N5 N 0.6425(3) 0.78140(11) 0.25718(10)
N6 N 0.6839(3) 0.85902(12) 0.18801(10)
C17 C 0.3796(4) 0.76203(14) 0.16654(13)
H11 H 0.42660 0.73650 0.18900
C18 C 0.3244(4) 0.74477(14) 0.11786(13)
H12 H 0.33090 0.70840 0.10810
C19 C 0.2600(4) 0.78314(15) 0.08457(13)
H13 H 0.22630 0.77350 0.05110
C20 C 0.2459(4) 0.83577(15) 0.10109(13)
H14 H 0.20250 0.86200 0.07880
C21 C 0.2959(4) 0.84983(13) 0.15077(12)
C22 C 0.2782(4) 0.90481(13) 0.17263(12)
C23 C 0.1735(4) 0.94422(15) 0.15182(13)
H15 H 0.11070 0.93660 0.12220
C24 C 0.1630(4) 0.99445(14) 0.17520(14)
H16 H 0.09090 1.02040 0.16210
C25 C 0.2613(4) 1.00602(14) 0.21853(13)
H17 H 0.25920 1.04000 0.23440
C26 C 0.3630(4) 0.96498(14) 0.23739(13)
H18 H 0.42860 0.97210 0.26650
C27 C 0.1996(4) 0.81195(15) 0.29840(14)
H19 H 0.17460 0.79310 0.26790
C28 C 0.0896(4) 0.81182(16) 0.33757(15)
H20 H -0.00870 0.79380 0.33330
C29 C 0.1272(5) 0.83855(17) 0.38262(15)
H21 H 0.05390 0.83920 0.40940
C30 C 0.2741(5) 0.86465(17) 0.38845(15)
H22 H 0.30210 0.88200 0.41950
C31 C 0.3805(5) 0.86486(15) 0.34724(13)
C32 C 0.5394(5) 0.89177(14) 0.34862(13)
C33 C 0.6114(5) 0.91611(16) 0.39305(15)
H23 H 0.55630 0.91750 0.42400
C34 C 0.7644(6) 0.93775(16) 0.39003(16)
H24 H 0.81270 0.95420 0.41900
C35 C 0.8450(5) 0.93509(15) 0.34484(15)
H25 H 0.94940 0.94880 0.34280
C36 C 0.7689(4) 0.91163(14) 0.30193(15)
H26 H 0.82290 0.91060 0.27070
C37 C 0.6276(4) 0.74699(14) 0.29701(12)
H27 H 0.54570 0.75290 0.32040
C38 C 0.7293(4) 0.70292(14) 0.30476(14)
H28 H 0.71520 0.67950 0.33260
C39 C 0.8517(4) 0.69437(15) 0.27044(14)
H29 H 0.92240 0.66520 0.27500
C40 C 0.8679(4) 0.72987(15) 0.22908(14)
H30 H 0.94970 0.72460 0.20550
C41 C 0.7627(4) 0.77296(14) 0.22294(12)
C42 C 0.7699(4) 0.81308(15) 0.18043(13)
C43 C 0.8540(4) 0.80515(17) 0.13523(14)
H31 H 0.91160 0.77320 0.13040
C44 C 0.8521(5) 0.8448(2) 0.09752(15)
H32 H 0.90570 0.83950 0.06660
C45 C 0.7702(4) 0.89221(19) 0.10614(14)
H33 H 0.77070 0.92010 0.08170
C46 C 0.6865(4) 0.89804(16) 0.15178(14)
H34 H 0.63030 0.93020 0.15740
O21 O -0.2492(3) 0.43182(10) -0.04589(8)
H35 H -0.23950 0.43150 -0.07790
H36 H -0.21150 0.39850 -0.04290
O22 O 0.6683(3) 0.5877(1) 0.38410(9)
H37 H 0.72150 0.61940 0.40020
H38 H 0.67960 0.56150 0.40920
O23 O 0.1527(3) 0.83274(10) 0.51309(10)
H39 H 0.19810 0.80750 0.49980
H40 H 0.04920 0.81770 0.51730
O24 O 0.4388(4) 0.59157(13) 0.51365(11)
H41 H 0.49410 0.62590 0.52110
H42 H 0.49190 0.57960 0.49060
O25 O 0.6733(5) 0.51980(19) 0.46650(17)
O26? O 0.5191(13) 0.4972(4) 0.4338(5)
U1* U -0.737034(13) 0.598414(5) 0.229282(4)
U2* U -0.340211(13) 0.755157(5) 0.473278(4)
U2C U -0.340211(13) 0.744843(5) -0.026722(4)
O9* O 0.8247(2) 0.68438(9) 0.43209(8)
O10* O 0.9508(2) 0.73668(9) 0.48819(8)
O15* O 0.4081(3) 0.60998(11) 0.14908(8)
O16* O 0.5591(2) 0.61505(10) 0.21973(8)
O17C O 0.7903(2) 0.81755(9) 0.53650(8)
O18C O 0.5337(2) 0.83100(9) 0.51772(8)
#END
