
#######################################################################
#
#                 Cambridge Crystallographic Data Centre
#                                CCDC
#
#######################################################################
#
# If this CIF has been generated from an entry in the Cambridge
# Structural Database, then it will include bibliographic, chemical,
# crystal, experimental, refinement or atomic coordinate data resulting
# from the CCDC's data processing and validation procedures.
#
#######################################################################

data_CSD_CIF_PIFWEJ
_audit_creation_date 2018-07-24
_audit_creation_method CSD-ConQuest-V1
_database_code_CSD PIFWEJ
_database_code_depnum_ccdc_archive 'CCDC 1843257'
_chemical_formula_sum 'C12 H86 Co9 Li10 N2 Na2 O118 P6 W18'
_chemical_formula_moiety
;
(C12 H46 Co9 N2 O98 P6 W18 12-)n,20(H2 O1),2(Na1 1+),10(Li1 1+)
;
_journal_coden_Cambridge 1295
_journal_volume 95
_journal_year 2018
_journal_page_first 117
_journal_name_full 'Inorg.Chem.Commun. '
loop_
_publ_author_name
"Ting-Ting Dou"
"Hong-Guo Hao"
"Xinyan Zhang"
"Song Guo"
"Shuang Yao"
"Zhi-Ming Zhang"
_chemical_name_systematic
;
catena-[deca-lithium di-sodium 
bis(\m-phosphato)-bis(\m-(4-azaniumyl-1-oxidobutane-1,1-diyl)bis(phosphonato))
-bis(\m-hydroxo)-tetratetracontakis(\m-oxido)-deca-aqua-bis(acetato)-hexadecao
xo-nona-cobalt(ii)-octadeca-tungsten(vi) icosahydrate]
;
_cell_volume   6917.551
_exptl_crystal_colour 'purple'
_exptl_crystal_density_diffrn 3.019
_exptl_special_details
;
There are accessible solvent voids in the crystal structure, possibly more 
Li+ ions and water molecules, but cannot be assigned from the weak residual 
electron peaks
;
_exptl_crystal_description 'block'
_diffrn_ambient_temperature 293
#These two values have been output from a single CSD field.
_refine_ls_R_factor_gt 0.0777
_refine_ls_wR_factor_gt 0.0777
_symmetry_cell_setting monoclinic
_symmetry_space_group_name_H-M 'P 21/n'
_symmetry_Int_Tables_number 14
loop_
_symmetry_equiv_pos_site_id
_symmetry_equiv_pos_as_xyz
1 x,y,z
2 1/2-x,1/2+y,1/2-z
3 -x,-y,-z
4 -1/2+x,-1/2-y,-1/2+z
_cell_length_a 12.5391(1)
_cell_length_b 25.2531(2)
_cell_length_c 22.0462(2)
_cell_angle_alpha 90
_cell_angle_beta 97.728(1)
_cell_angle_gamma 90
_cell_formula_units_Z 2
loop_
_atom_type_symbol
_atom_type_radius_bond
C 0.68
H 0.23
Co 1.26
Li 1.28
N 0.68
Na 1.66
O 0.68
P 1.05
W 1.62
loop_
_atom_site_label
_atom_site_type_symbol
_atom_site_fract_x
_atom_site_fract_y
_atom_site_fract_z
W1 W 0.24579(5) 0.75882(2) 0.33922(3)
W2 W 0.47653(6) 0.73314(3) 0.25717(3)
W3 W 0.10348(6) 0.58680(3) 0.14241(3)
W4 W 0.09455(6) 0.52960(2) 0.28501(3)
W5 W 0.06099(5) 0.66008(2) 0.35232(3)
W6 W 0.30357(6) 0.69342(3) 0.12794(3)
W7 W 0.50760(6) 0.61034(3) 0.19490(3)
W8 W 0.07085(5) 0.71998(2) 0.21107(3)
W9 W 0.31094(6) 0.50525(3) 0.20913(3)
Co1 Co 0.28159(18) 0.57513(8) 0.41523(10)
Co2 Co 0.50000 0.50000 0.50000
Co3 Co 0.45223(18) 0.66773(8) 0.39954(10)
Co4 Co 0.48423(19) 0.55196(9) 0.34381(10)
Co5 Co -0.1440(3) 0.76954(11) 0.08905(13)
P1 P 0.2870(3) 0.63156(11) 0.27732(14)
P2 P 0.6419(3) 0.59930(13) 0.46148(17)
P3 P 0.4492(3) 0.62149(12) 0.53000(15)
O1 O 0.3416(12) 0.4463(5) 0.1760(6)
O2 O 0.4535(9) 0.5638(4) 0.5498(5)
O3 O 0.5593(11) 0.7880(5) 0.2556(6)
O4 O -0.2645(13) 0.7843(7) 0.0102(7)
O5 O -0.0077(11) 0.4855(5) 0.3000(6)
O6 O -0.0449(12) 0.7363(4) 0.0326(6)
O7 O -0.2191(15) 0.6945(7) 0.1008(8)
O8 O 0.1365(8) 0.7721(4) 0.2642(5)
O9 O 0.1831(8) 0.4834(4) 0.2419(5)
O10 O 0.3520(7) 0.6140(3) 0.3372(4)
O11 O 0.0541(9) 0.6514(4) 0.1765(5)
O12 O 0.1837(8) 0.5290(4) 0.3534(5)
O13 O 0.5577(8) 0.6814(4) 0.2173(6)
O14 O 0.3464(9) 0.7627(4) 0.2829(5)
O15 O 0.0368(9) 0.5971(4) 0.3035(5)
O16 O 0.1990(9) 0.5309(4) 0.1387(5)
O17 O 0.4093(8) 0.5243(3) 0.4148(4)
O18 O 0.3801(8) 0.6289(4) 0.4677(4)
O19 O 0.2277(8) 0.5840(4) 0.2435(4)
O20 O -0.0051(7) 0.6963(4) 0.2735(5)
O21 O 0.5646(9) 0.6932(4) 0.4790(5)
O22 O 0.0302(9) 0.5498(4) 0.1973(5)
O23 O 0.1213(8) 0.7300(4) 0.3718(4)
O24 O 0.4142(11) 0.6568(4) 0.5794(5)
O25 O 0.2176(9) 0.5345(4) 0.4866(5)
O26 O 0.5660(8) 0.6076(4) 0.4013(5)
O27 O -0.2473(12) 0.7981(7) 0.1518(8)
O28 O 0.6361(8) 0.5431(4) 0.4850(5)
O29 O 0.7558(9) 0.6172(5) 0.4562(6)
O30 O 0.4011(10) 0.5553(5) 0.1766(6)
O31 O 0.1914(9) 0.7256(4) 0.1664(4)
O32 O 0.4205(9) 0.6486(5) 0.1233(5)
O33 O 0.2029(8) 0.6741(3) 0.2897(4)
O34 O 0.3593(7) 0.6566(4) 0.2351(4)
O35 O 0.3943(9) 0.7439(4) 0.1723(5)
O36 O 0.5432(8) 0.5859(4) 0.2702(5)
O37 O 0.1577(9) 0.6282(4) 0.4055(5)
O38 O 0.606(1) 0.4912(5) 0.3551(6)
O39 O 0.0178(12) 0.5785(5) 0.0760(6)
O40 O 0.3904(10) 0.5044(4) 0.2810(5)
O41 O 0.2468(10) 0.8228(4) 0.3681(5)
O42 O -0.0264(10) 0.7557(4) 0.1672(5)
O43 O 0.6083(10) 0.5885(6) 0.1556(6)
O44 O 0.2841(11) 0.7201(5) 0.0582(6)
O45 O 0.2114(9) 0.6325(4) 0.1182(5)
O46 O -0.0488(10) 0.6625(5) 0.3903(5)
O47 O 0.3380(9) 0.7240(4) 0.3938(5)
O48 O 0.5146(8) 0.7053(4) 0.3311(5)
O49 O -0.1283(17) 0.6602(6) 0.0070(9)
C1 C 0.5828(12) 0.6446(5) 0.5142(6)
C2 C 0.799(2) 0.6204(13) 0.6578(12)
H1 H 0.82740 0.58770 0.67650
H2 H 0.85510 0.63860 0.63970
C3 C 0.6617(14) 0.6573(6) 0.5727(8)
H3 H 0.72290 0.67590 0.56030
H4 H 0.62590 0.68140 0.59760
C4 C 0.704(2) 0.6108(11) 0.6127(12)
H5 H 0.72120 0.58230 0.58610
H6 H 0.64660 0.59840 0.63440
C5 C -0.0554(18) 0.6923(7) 0.0028(9)
C6 C 0.028(2) 0.6778(9) -0.0377(11)
H7 H 0.00970 0.64420 -0.05670
H8 H 0.09710 0.67570 -0.01350
H9 H 0.02900 0.70440 -0.06870
N1 N 0.754(3) 0.6535(15) 0.7010(16)
H10 H 0.80130 0.65720 0.73460
H11 H 0.69400 0.63870 0.71070
H12 H 0.73850 0.68520 0.68440
Na1 Na 0.7240(8) 0.6480(5) 0.3226(5)
O50 O 0.1633(13) 0.3763(7) 0.7916(8)
O51 O 0.9113(17) 0.6118(7) 0.8048(8)
O52 O 0.1828(19) 0.4648(10) 0.6309(16)
O53 O 0.5153(15) 0.6427(8) 0.8140(12)
O54 O 0.981(3) 0.5056(16) 0.5585(17)
O55 O 0.196(3) 0.2480(13) 0.7308(15)
O56 O 0.813(3) 0.3906(13) 0.4240(16)
O57 O 0.711(3) 0.2389(15) 1.0599(16)
O58 O -0.009(5) 0.799(2) 0.427(3)
O59 O -0.449(4) 0.7737(19) 0.096(2)
Li1 Li 0.514(3) 0.6161(17) 0.7003(18)
W1B W 0.75421(5) 0.24118(2) 0.66078(3)
W2B W 0.52347(6) 0.26686(3) 0.74283(3)
W3B W 0.89652(6) 0.41320(3) 0.85759(3)
W4B W 0.90545(6) 0.47040(2) 0.71499(3)
W5B W 0.93901(5) 0.33992(2) 0.64768(3)
W6B W 0.69643(6) 0.30658(3) 0.87206(3)
W7B W 0.49240(6) 0.38966(3) 0.80510(3)
W8B W 0.92915(5) 0.28002(2) 0.78893(3)
W9B W 0.68906(6) 0.49475(3) 0.79087(3)
Co1B Co 0.71841(18) 0.42487(8) 0.58477(10)
Co3B Co 0.54777(18) 0.33227(8) 0.60046(10)
Co4B Co 0.51577(19) 0.44804(9) 0.65619(10)
Co5B Co 1.1440(3) 0.23046(11) 0.91095(13)
P1B P 0.7130(3) 0.36844(11) 0.72268(14)
P2B P 0.3581(3) 0.40070(13) 0.53852(17)
P3B P 0.5508(3) 0.37851(12) 0.47000(15)
O1B O 0.6584(12) 0.5537(5) 0.8240(6)
O2B O 0.5465(9) 0.4362(4) 0.4502(5)
O3B O 0.4407(11) 0.2120(5) 0.7444(6)
O4B O 1.2645(13) 0.2157(7) 0.9898(7)
O5B O 1.0077(11) 0.5145(5) 0.7000(6)
O6B O 1.0449(12) 0.2637(4) 0.9674(6)
O7B O 1.2191(15) 0.3055(7) 0.8992(8)
O8B O 0.8635(8) 0.2279(4) 0.7358(5)
O9B O 0.8169(8) 0.5166(4) 0.7581(5)
O10B O 0.6480(7) 0.3860(3) 0.6628(4)
O11B O 0.9459(9) 0.3486(4) 0.8235(5)
O12B O 0.8163(8) 0.4710(4) 0.6466(5)
O13B O 0.4423(8) 0.3186(4) 0.7827(6)
O14B O 0.6536(9) 0.2373(4) 0.7171(5)
O15B O 0.9632(9) 0.4029(4) 0.6965(5)
O16B O 0.8010(9) 0.4691(4) 0.8613(5)
O17B O 0.5907(8) 0.4757(3) 0.5852(4)
O18B O 0.6199(8) 0.3711(4) 0.5323(4)
O19B O 0.7723(8) 0.4160(4) 0.7565(4)
O20B O 1.0051(7) 0.3037(4) 0.7265(5)
O21B O 0.4354(9) 0.3068(4) 0.5210(5)
O22B O 0.9698(9) 0.4502(4) 0.8027(5)
O23B O 0.8787(8) 0.2700(4) 0.6282(4)
O24B O 0.5858(11) 0.3432(4) 0.4206(5)
O25B O 0.7824(9) 0.4655(4) 0.5134(5)
O26B O 0.4340(8) 0.3924(4) 0.5987(5)
O27B O 1.2473(12) 0.2019(7) 0.8482(8)
O28B O 0.3639(8) 0.4569(4) 0.5150(5)
O29B O 0.2442(9) 0.3828(5) 0.5438(6)
O30B O 0.5989(10) 0.4447(5) 0.8234(6)
O31B O 0.8086(9) 0.2744(4) 0.8336(4)
O32B O 0.5795(9) 0.3514(5) 0.8767(5)
O33B O 0.7971(8) 0.3259(3) 0.7103(4)
O34B O 0.6407(7) 0.3434(4) 0.7649(4)
O35B O 0.6057(9) 0.2561(4) 0.8277(5)
O36B O 0.4568(8) 0.4141(4) 0.7298(5)
O37B O 0.8423(9) 0.3718(4) 0.5945(5)
O38B O 0.394(1) 0.5088(5) 0.6449(6)
O39B O 0.9822(12) 0.4215(5) 0.9240(6)
O40B O 0.6096(10) 0.4956(4) 0.7190(5)
O41B O 0.7532(10) 0.1772(4) 0.6319(5)
O42B O 1.0264(10) 0.2443(4) 0.8328(5)
O43B O 0.3917(10) 0.4115(6) 0.8444(6)
O44B O 0.7159(11) 0.2799(5) 0.9418(6)
O45B O 0.7886(9) 0.3675(4) 0.8818(5)
O46B O 1.0488(10) 0.3375(5) 0.6097(5)
O47B O 0.6620(9) 0.2760(4) 0.6062(5)
O48B O 0.4854(8) 0.2947(4) 0.6689(5)
O49B O 1.1283(17) 0.3398(6) 0.9930(9)
C1B C 0.4172(12) 0.3554(5) 0.4858(6)
C2B C 0.201(2) 0.3796(13) 0.3422(12)
H1B H 0.17260 0.41230 0.32350
H2B H 0.14490 0.36140 0.36030
C3B C 0.3383(14) 0.3427(6) 0.4273(8)
H3B H 0.27710 0.32410 0.43970
H4B H 0.37410 0.31860 0.40240
C4B C 0.296(2) 0.3892(11) 0.3873(12)
H5B H 0.27880 0.41770 0.41390
H6B H 0.35340 0.40160 0.36560
C5B C 1.0554(18) 0.3077(7) 0.9972(9)
C6B C 0.972(2) 0.3222(9) 1.0377(11)
H7B H 0.99030 0.35580 1.05670
H8B H 0.90290 0.32430 1.01350
H9B H 0.97100 0.29560 1.06870
N1B N 0.246(3) 0.3465(15) 0.2990(16)
H10B H 0.19870 0.34280 0.26540
H11B H 0.30600 0.36130 0.28930
H12B H 0.26150 0.31480 0.31560
Co5A Co 0.6440(3) 0.26954(11) 0.41095(13)
Co5C Co 0.3560(3) 0.73046(11) 0.58905(13)
O24A O 1.0858(11) 0.1568(4) 0.9206(5)
O24C O -0.0858(11) 0.8432(4) 0.0794(5)
#END
