
#######################################################################
#
#                 Cambridge Crystallographic Data Centre
#                                CCDC
#
#######################################################################
#
# If this CIF has been generated from an entry in the Cambridge
# Structural Database, then it will include bibliographic, chemical,
# crystal, experimental, refinement or atomic coordinate data resulting
# from the CCDC's data processing and validation procedures.
#
#######################################################################

data_CSD_CIF_PIGXAF
_audit_creation_date 2007-11-13
_audit_creation_method CSD-ConQuest-V1
_database_code_CSD PIGXAF
_database_code_depnum_ccdc_archive 'CCDC 639538'
_chemical_formula_sum 'C13 H24 Cd3 N2 O19'
_chemical_formula_moiety
;
(C2 H8 N1 1+)2n,n(C8 Cd3 O16 2-),n(C1 H4 O1),2n(H2 O1)
;
_journal_coden_Cambridge 179
_journal_volume 46
_journal_year 2007
_journal_page_first 6301
_journal_name_full 'Angew.Chem.,Int.Ed. '
loop_
_publ_author_name
"Yan Liu"
"Gao Li"
"Xing Li"
"Yong Cui"
_chemical_name_systematic
;
catena-(bis(Dimethylammonium) tetrakis(\m~3~-oxalato)-tri-cadmium methanol 
solvate dihydrate)
;
_cell_volume   6350.124
_exptl_crystal_colour 'colorless'
_diffrn_ambient_temperature 293
_refine_special_details
;
The solvent and water molecules are disordered by symmetry with occupancy 
0.33.
;
#These two values have been output from a single CSD field.
_refine_ls_R_factor_gt 0.0355
_refine_ls_wR_factor_gt 0.0355
_symmetry_cell_setting cubic
_symmetry_space_group_name_H-M 'I -4 3 d'
_symmetry_Int_Tables_number 220
loop_
_symmetry_equiv_pos_site_id
_symmetry_equiv_pos_as_xyz
1 x,y,z
2 1/2-x,-y,1/2+z
3 -x,1/2+y,1/2-z
4 1/2+x,1/2-y,-z
5 z,x,y
6 1/2+z,1/2-x,-y
7 1/2-z,-x,1/2+y
8 -z,1/2+x,1/2-y
9 y,z,x
10 -y,1/2+z,1/2-x
11 1/2+y,1/2-z,-x
12 1/2-y,-z,1/2+x
13 1/4+y,1/4+x,1/4+z
14 1/4-y,3/4-x,3/4+z
15 3/4+y,1/4-x,3/4-z
16 3/4-y,3/4+x,1/4-z
17 1/4+x,1/4+z,1/4+y
18 3/4-x,3/4+z,1/4-y
19 1/4-x,3/4-z,3/4+y
20 3/4+x,1/4-z,3/4-y
21 1/4+z,1/4+y,1/4+x
22 3/4+z,1/4-y,3/4-x
23 3/4-z,3/4+y,1/4-x
24 1/4-z,3/4-y,3/4+x
25 1/2+x,1/2+y,1/2+z
26 -x,1/2-y,z
27 1/2-x,y,-z
28 x,-y,1/2-z
29 1/2+z,1/2+x,1/2+y
30 z,-x,1/2-y
31 -z,1/2-x,y
32 1/2-z,x,-y
33 1/2+y,1/2+z,1/2+x
34 1/2-y,z,-x
35 y,-z,1/2-x
36 -y,1/2-z,x
37 3/4+y,3/4+x,3/4+z
38 3/4-y,1/4-x,1/4+z
39 1/4+y,3/4-x,1/4-z
40 1/4-y,1/4+x,3/4-z
41 3/4+x,3/4+z,3/4+y
42 1/4-x,1/4+z,3/4-y
43 3/4-x,1/4-z,1/4+y
44 1/4+x,3/4-z,1/4-y
45 3/4+z,3/4+y,3/4+x
46 1/4+z,3/4-y,1/4-x
47 1/4-z,1/4+y,3/4-x
48 3/4-z,1/4-y,1/4+x
_cell_length_a 18.518(2)
_cell_length_b 18.518(2)
_cell_length_c 18.518(2)
_cell_angle_alpha 90
_cell_angle_beta 90
_cell_angle_gamma 90
_cell_formula_units_Z 12
loop_
_atom_type_symbol
_atom_type_radius_bond
C 0.68
Cd 1.69
N 0.56
O 0.68
loop_
_atom_site_label
_atom_site_type_symbol
_atom_site_fract_x
_atom_site_fract_y
_atom_site_fract_z
C1 C 0.747(4) 0.338(3) 0.5801(10)
N1 N 0.75000 0.333(3) 0.50000
C2 C 0.7330(19) 0.2670(19) 0.7670(19)
O1 O 0.7981(12) 0.2313(15) 0.7550(15)
O2 O 0.8335(7) 0.1665(7) 0.6665(7)
Cd1 Cd 1.00000 0.25000 0.37500
Cd2 Cd 1.00000 0.25000(3) 0.58240
O3 O 0.9418(2) 0.2088(3) 0.4833(2)
O4 O 0.8968(4) 0.1777(5) 0.3512(3)
O5 O 0.8006(4) 0.1195(5) 0.3965(3)
O6 O 0.8454(2) 0.1539(3) 0.5309(2)
C3 C 0.8840(3) 0.1732(3) 0.4787(3)
C4 C 0.8585(4) 0.1552(5) 0.4023(4)
O7? O 0.8408(7) 0.1592(7) 0.6592(7)
C1Z C 0.753(4) 0.338(3) 0.4199(10)
O1F O 0.7450(12) 0.2019(15) 0.7313(15)
O1I O 0.7687(12) 0.2550(15) 0.7019(15)
Cd2N Cd 1.00000 0.25000(3) 0.16760
Cd2I Cd 0.75000 0.08240(3) 0.50000
Cd2T Cd 0.83240 0.50000(3) 0.25000
Cd2K Cd 1.25000 0.41760(3) 0.50000
Cd2V Cd 1.16760 0.00000(3) 0.25000
O3N O 0.9588(2) 0.3082(3) 0.2667(2)
O3Y O 1.0582(2) 0.2912(3) 0.4833(2)
O3MA O 1.0412(2) 0.1918(3) 0.2667(2)
O3I O 0.7912(2) -0.0167(3) 0.5582(2)
O3FA O 0.7088(2) -0.0167(3) 0.4418(2)
O4N O 0.9277(4) 0.3532(5) 0.3988(3)
O4Y O 1.1032(4) 0.3223(5) 0.3512(3)
O4MA O 1.0723(4) 0.1468(5) 0.3988(3)
O5N O 0.8695(4) 0.4494(5) 0.3535(3)
O5Y O 1.1994(4) 0.3805(5) 0.3965(3)
O5MA O 1.1305(4) 0.0506(5) 0.3535(3)
O5F O 1.1035(4) 0.1994(5) 0.6195(3)
O5BA O 0.8965(4) 0.3006(5) 0.6195(3)
O5Z O 0.6994(4) 0.1195(5) 0.6035(3)
O6N O 0.9039(2) 0.4046(3) 0.2191(2)
O6Y O 1.1546(2) 0.3461(3) 0.5309(2)
O6MA O 1.0961(2) 0.0954(3) 0.2191(2)
O6F O 0.9691(2) 0.1546(3) 0.6539(2)
O6BA O 1.0309(2) 0.3454(3) 0.6539(2)
O6Z O 0.6546(2) 0.1539(3) 0.4691(2)
C3N C 0.9232(3) 0.3660(3) 0.2713(3)
C3Y C 1.1160(3) 0.3268(3) 0.4787(3)
C3MA C 1.0768(3) 0.1340(3) 0.2713(3)
C4N C 0.9052(4) 0.3915(5) 0.3477(4)
C4Y C 1.1415(4) 0.3448(5) 0.4023(4)
C4MA C 1.0948(4) 0.1085(5) 0.3477(4)
#END
