
#######################################################################
#
#                 Cambridge Crystallographic Data Centre
#                                CCDC
#
#######################################################################
#
# If this CIF has been generated from an entry in the Cambridge
# Structural Database, then it will include bibliographic, chemical,
# crystal, experimental, refinement or atomic coordinate data resulting
# from the CCDC's data processing and validation procedures.
#
#######################################################################

data_CSD_CIF_PIJJEZ
_audit_creation_date 2013-07-23
_audit_creation_method CSD-ConQuest-V1
_database_code_CSD PIJJEZ
_database_code_depnum_ccdc_archive 'CCDC 920789'
_chemical_formula_sum 'C240 H284 Cd9 N26 O80'
_chemical_formula_moiety
;
(C168 H72 Cd9 O48 6-)n,6n(C2 H8 N1 1+),20n(C3 H7 N1 O1),12n(H2 O1)
;
_journal_coden_Cambridge 182
_journal_volume 49
_journal_year 2013
_journal_page_first 7711
_journal_name_full 'Chem.Commun. '
loop_
_publ_author_name
"Yun-Nan Gong"
"Tong-Bu Lu"
_chemical_name_systematic
;
catena-(hexakis(Dimethylammonium) 
bis(\m~6~-triphenylene-2,6,10-tricarboxylato)-hexakis(\m~5~-triphenylene-2,6,1
0-tricarboxylato)-nona-cadmium dimethylformamide solvate dodecahydrate)
;
_cell_volume  41220.549
_exptl_crystal_colour 'yellow'
_exptl_crystal_density_diffrn 0.935
_exptl_crystal_description 'block'
_diffrn_ambient_temperature 150
_refine_special_details
;
The SQUEEZE/PLATON program was used to model the cations and solvent 
molecules.
;
#These two values have been output from a single CSD field.
_refine_ls_R_factor_gt 0.067
_refine_ls_wR_factor_gt 0.067
_symmetry_cell_setting rhombohedral
_symmetry_space_group_name_H-M 'R -3 c'
_symmetry_Int_Tables_number 167
loop_
_symmetry_equiv_pos_site_id
_symmetry_equiv_pos_as_xyz
1 x,y,z
2 -y,x-y,z
3 -x+y,-x,z
4 y,x,1/2-z
5 x-y,-y,1/2-z
6 -x,-x+y,1/2-z
7 2/3+x,1/3+y,1/3+z
8 2/3-y,1/3+x-y,1/3+z
9 2/3-x+y,1/3-x,1/3+z
10 2/3+y,1/3+x,5/6-z
11 2/3+x-y,1/3-y,5/6-z
12 2/3-x,1/3-x+y,5/6-z
13 1/3+x,2/3+y,2/3+z
14 1/3-y,2/3+x-y,2/3+z
15 1/3-x+y,2/3-x,2/3+z
16 1/3+y,2/3+x,1/6-z
17 1/3+x-y,2/3-y,1/6-z
18 1/3-x,2/3-x+y,1/6-z
19 -x,-y,-z
20 y,-x+y,-z
21 x-y,x,-z
22 -y,-x,-1/2+z
23 -x+y,y,-1/2+z
24 x,x-y,-1/2+z
25 -2/3-x,-1/3-y,-1/3-z
26 -2/3+y,-1/3-x+y,-1/3-z
27 -2/3+x-y,-1/3+x,-1/3-z
28 -2/3-y,-1/3-x,-5/6+z
29 -2/3-x+y,-1/3+y,-5/6+z
30 -2/3+x,-1/3+x-y,-5/6+z
31 -1/3-x,-2/3-y,-2/3-z
32 -1/3+y,-2/3-x+y,-2/3-z
33 -1/3+x-y,-2/3+x,-2/3-z
34 -1/3-y,-2/3-x,-1/6+z
35 -1/3-x+y,-2/3+y,-1/6+z
36 -1/3+x,-2/3+x-y,-1/6+z
_cell_length_a 26.5879(6)
_cell_length_b 26.5879(6)
_cell_length_c 67.331(4)
_cell_angle_alpha 90
_cell_angle_beta 90
_cell_angle_gamma 120
_cell_formula_units_Z 6
loop_
_atom_type_symbol
_atom_type_radius_bond
C 0.68
H 0.23
Cd 1.44
O 0.68
loop_
_atom_site_label
_atom_site_type_symbol
_atom_site_fract_x
_atom_site_fract_y
_atom_site_fract_z
Cd1 Cd 0.81427(2) 0.67095(2) 0.614262(8)
O1 O 0.7482(2) 0.6441(3) 0.58810(8)
O2 O 0.8310(2) 0.6488(3) 0.58233(9)
C1 C 0.7821(3) 0.6388(3) 0.57691(12)
C2 C 0.7944(2) 0.6064(3) 0.52235(9)
C3 C 0.8077(3) 0.6238(3) 0.5421(1)
H1 H 0.84550 0.63770 0.54660
C4 C 0.7099(3) 0.6011(3) 0.54897(10)
H2 H 0.68160 0.59830 0.55770
C5 C 0.6965(3) 0.5850(3) 0.52916(10)
H3 H 0.65890 0.57270 0.52480
C6 C 0.7657(3) 0.6210(3) 0.55533(11)
C7 C 0.8367(3) 0.6043(3) 0.50927(11)
C8 C 0.8202(3) 0.5813(3) 0.49034(9)
C9 C 0.7213(3) 0.5677(3) 0.49536(8)
C10 C 0.6660(3) 0.5512(3) 0.48792(9)
H4 H 0.63890 0.55300 0.49620
C11 C 0.7370(3) 0.5864(3) 0.51563(9)
C12 C 0.7623(3) 0.5638(3) 0.48244(9)
C13 C 0.8585(3) 0.5715(3) 0.47858(11)
H5 H 0.84770 0.55660 0.46580
C14 C 0.6505(3) 0.5320(3) 0.46818(9)
C15 C 0.7454(3) 0.5454(4) 0.46269(11)
H6 H 0.77180 0.54400 0.45400
C16 C 0.6909(3) 0.5296(5) 0.45614(11)
H7 H 0.68080 0.51670 0.44310
C17 C 0.9125(3) 0.5840(3) 0.48607(10)
C18 C 0.9299(3) 0.6100(3) 0.50445(11)
H8 H 0.96660 0.62020 0.50930
C19 C 0.8933(3) 0.6206(3) 0.51559(12)
H9 H 0.90620 0.63930 0.52780
Cd2 Cd 0.83330 0.66670 0.66670
O3 O 0.7801(4) 0.5803(3) 0.62259(12)
C20 C 0.7845(3) 0.5573(3) 0.63823(16)
C21 C 0.9486(3) 0.5662(3) 0.47427(12)
O4 O 0.8005(3) 0.5784(3) 0.65507(10)
C22 C 0.5905(3) 0.5135(4) 0.46094(11)
C23 C 0.7646(3) 0.4935(3) 0.63745(13)
O5 O 0.5563(2) 0.5211(2) 0.47182(7)
O6 O 0.99298(17) 0.56943(19) 0.48175(7)
O7 O 0.9335(2) 0.5499(3) 0.45627(8)
O8 O 0.5764(2) 0.4908(3) 0.44403(8)
C24 C 0.6864(3) 0.3932(3) 0.63625(13)
C25 C 0.7263(3) 0.3744(3) 0.63577(12)
C26 C 0.7070(4) 0.4540(3) 0.63664(14)
H10 H 0.68040 0.46700 0.63630
C27 C 0.7857(5) 0.4150(5) 0.6371(2)
H11 H 0.81280 0.40260 0.63750
C28 C 0.8041(6) 0.4747(5) 0.6378(2)
H12 H 0.84350 0.50170 0.63850
O3A O 0.4197(4) 0.1998(3) 0.62259(12)
C20A C 0.4427(3) 0.2272(3) 0.63823(16)
O4A O 0.4216(3) 0.2221(3) 0.65507(10)
C23A C 0.5065(3) 0.2711(3) 0.63745(13)
C24A C 0.6068(3) 0.2932(3) 0.63625(13)
C25A C 0.6256(3) 0.3519(3) 0.63577(12)
C26A C 0.5460(4) 0.2530(3) 0.63664(14)
H10A H 0.53300 0.21340 0.63630
C27A C 0.5850(5) 0.3707(5) 0.6371(2)
H11A H 0.59740 0.41020 0.63750
C28A C 0.5253(6) 0.3294(5) 0.6378(2)
H12A H 0.49830 0.34180 0.63850
O3B O 0.8002(4) 0.2199(3) 0.62259(12)
C20B C 0.7728(3) 0.2155(3) 0.63823(16)
O4B O 0.7779(3) 0.1995(3) 0.65507(10)
C23B C 0.7289(3) 0.2354(3) 0.63745(13)
C24B C 0.7068(3) 0.3136(3) 0.63625(13)
C25B C 0.6481(3) 0.2737(3) 0.63577(12)
C26B C 0.7470(4) 0.2930(3) 0.63664(14)
H10B H 0.78660 0.31960 0.63630
C27B C 0.6293(5) 0.2143(5) 0.6371(2)
H11B H 0.58980 0.18720 0.63750
C28B C 0.6706(6) 0.1959(5) 0.6378(2)
H12B H 0.65820 0.15650 0.63850
Cd1A Cd 0.32905(2) 0.14332(2) 0.614262(8)
O1A O 0.3559(2) 0.1041(3) 0.58810(8)
O2A O 0.3512(2) 0.1822(3) 0.58233(9)
C1A C 0.3612(3) 0.1433(3) 0.57691(12)
C2A C 0.3936(2) 0.1880(3) 0.52235(9)
C3A C 0.3762(3) 0.1839(3) 0.5421(1)
H1A H 0.36230 0.20780 0.54660
C4A C 0.3989(3) 0.1088(3) 0.54897(10)
H2A H 0.40170 0.08330 0.55770
C5A C 0.4150(3) 0.1115(3) 0.52916(10)
H3A H 0.42730 0.08620 0.52480
C6A C 0.3790(3) 0.1447(3) 0.55533(11)
C7A C 0.3957(3) 0.2324(3) 0.50927(11)
C8A C 0.4187(3) 0.2389(3) 0.49034(9)
C9A C 0.4323(3) 0.1536(3) 0.49536(8)
C10A C 0.4488(3) 0.1148(3) 0.48792(9)
H4A H 0.44700 0.08590 0.49620
C11A C 0.4136(3) 0.1506(3) 0.51563(9)
C12A C 0.4362(3) 0.1985(3) 0.48244(9)
C13A C 0.4285(3) 0.2870(3) 0.47858(11)
H5A H 0.44340 0.29110 0.46580
C14A C 0.4680(3) 0.1185(3) 0.46818(9)
C15A C 0.4546(3) 0.2000(4) 0.46269(11)
H6A H 0.45600 0.22780 0.45400
C16A C 0.4704(3) 0.1613(5) 0.45614(11)
H7A H 0.48330 0.16410 0.44310
C17A C 0.4160(3) 0.3285(3) 0.48607(10)
C18A C 0.3900(3) 0.3199(3) 0.50445(11)
H8A H 0.37980 0.34640 0.50930
C19A C 0.3794(3) 0.2727(3) 0.51559(12)
H9A H 0.36070 0.26690 0.52780
Cd2A Cd 0.33330 0.16660 0.66670
C21A C 0.4338(3) 0.3824(3) 0.47427(12)
C22A C 0.4865(3) 0.0770(4) 0.46094(11)
O5A O 0.4789(2) 0.0352(2) 0.47182(7)
O6A O 0.43057(17) 0.42355(19) 0.48175(7)
O7A O 0.4501(2) 0.3836(3) 0.45627(8)
O8A O 0.5092(2) 0.0856(3) 0.44403(8)
Cd1B Cd 0.85668(2) 0.18573(2) 0.614262(8)
O1B O 0.8959(2) 0.2518(3) 0.58810(8)
O2B O 0.8178(2) 0.1690(3) 0.58233(9)
C1B C 0.8567(3) 0.2179(3) 0.57691(12)
C2B C 0.8120(2) 0.2056(3) 0.52235(9)
C3B C 0.8161(3) 0.1923(3) 0.5421(1)
H1B H 0.79220 0.15450 0.54660
C4B C 0.8912(3) 0.2901(3) 0.54897(10)
H2B H 0.91670 0.31840 0.55770
C5B C 0.8885(3) 0.3035(3) 0.52916(10)
H3B H 0.91380 0.34110 0.52480
C6B C 0.8553(3) 0.2343(3) 0.55533(11)
C7B C 0.7676(3) 0.1633(3) 0.50927(11)
C8B C 0.7611(3) 0.1798(3) 0.49034(9)
C9B C 0.8464(3) 0.2787(3) 0.49536(8)
C10B C 0.8852(3) 0.3340(3) 0.48792(9)
H4B H 0.91410 0.36110 0.49620
C11B C 0.8494(3) 0.2630(3) 0.51563(9)
C12B C 0.8015(3) 0.2377(3) 0.48244(9)
C13B C 0.7130(3) 0.1415(3) 0.47858(11)
H5B H 0.70890 0.15230 0.46580
C14B C 0.8815(3) 0.3495(3) 0.46818(9)
C15B C 0.8000(3) 0.2546(4) 0.46269(11)
H6B H 0.77220 0.22820 0.45400
C16B C 0.8387(3) 0.3091(5) 0.45614(11)
H7B H 0.83590 0.31920 0.44310
C17B C 0.6715(3) 0.0875(3) 0.48607(10)
C18B C 0.6801(3) 0.0701(3) 0.50445(11)
H8B H 0.65360 0.03340 0.50930
C19B C 0.7273(3) 0.1067(3) 0.51559(12)
H9B H 0.73310 0.09380 0.52780
Cd2B Cd 0.83340 0.16670 0.66670
C21B C 0.6176(3) 0.0514(3) 0.47427(12)
C22B C 0.9230(3) 0.4095(4) 0.46094(11)
O5B O 0.9648(2) 0.4437(2) 0.47182(7)
O6B O 0.57645(17) 0.00702(19) 0.48175(7)
O7B O 0.6164(2) 0.0665(3) 0.45627(8)
O8B O 0.9144(2) 0.4236(3) 0.44403(8)
Cd1O Cd 1.004283(20) 0.480937(20) 0.552405(8)
O1O O 0.977433(200) 0.414867(300) 0.578567(80)
O2O O 0.982133(200) 0.497667(300) 0.584337(90)
C1O C 0.972133(300) 0.448767(300) 0.589757(120)
C2O C 0.939733(200) 0.461067(300) 0.644317(90)
C3O C 0.957133(300) 0.474367(300) 0.624567(100)
H1O H 0.97103 0.51217 0.62007
C4O C 0.934433(300) 0.376567(300) 0.617697(100)
H2O H 0.93163 0.34827 0.60897
C5O C 0.918333(300) 0.363167(300) 0.637507(100)
H3O H 0.90603 0.32557 0.64187
C6O C 0.954333(300) 0.432367(300) 0.611337(110)
C7O C 0.937633(300) 0.503367(300) 0.657397(110)
C8O C 0.914633(300) 0.486867(300) 0.676327(90)
C9O C 0.901033(300) 0.387967(300) 0.671307(80)
C10O C 0.884533(300) 0.332667(300) 0.678747(90)
H4O H 0.88633 0.30557 0.67047
C11O C 0.919733(300) 0.403667(300) 0.651037(90)
C12O C 0.897133(300) 0.428967(300) 0.684227(90)
C13O C 0.904833(300) 0.525167(300) 0.688087(110)
H5O H 0.88993 0.51437 0.70087
C14O C 0.865333(300) 0.317167(300) 0.698487(90)
C15O C 0.878733(300) 0.412067(400) 0.703977(110)
H6O H 0.87733 0.43847 0.71267
C16O C 0.862933(300) 0.357567(500) 0.710527(110)
H7O H 0.85003 0.34747 0.72357
C17O C 0.917333(300) 0.579167(300) 0.680597(100)
C18O C 0.943333(300) 0.596567(300) 0.662217(110)
H8O H 0.95353 0.63327 0.65737
C19O C 0.953933(300) 0.559967(300) 0.651077(120)
H9O H 0.97263 0.57287 0.63887
O3O O 0.913633(400) 0.446767(300) 0.544077(120)
C20O C 0.890633(300) 0.451167(300) 0.528437(160)
C21O C 0.899533(300) 0.615267(300) 0.692397(120)
O4O O 0.911733(300) 0.467167(300) 0.511597(100)
C22O C 0.846833(300) 0.257167(400) 0.705727(110)
C23O C 0.826833(300) 0.431267(300) 0.529217(130)
O5O O 0.854433(200) 0.222967(200) 0.694847(70)
O6O O 0.902763(170) 0.659647(190) 0.684917(70)
O7O O 0.883233(200) 0.600167(300) 0.710397(80)
O8O O 0.824133(200) 0.243067(300) 0.722637(80)
C24O C 0.726533(300) 0.353067(300) 0.530417(130)
C25O C 0.707733(300) 0.392967(300) 0.530897(120)
C26O C 0.787333(400) 0.373667(300) 0.530027(140)
H10O H 0.80033 0.34707 0.53037
C27O C 0.748333(500) 0.452367(500) 0.529567(200)
H11O H 0.73593 0.47947 0.52917
C28O C 0.808033(600) 0.470767(500) 0.528867(200)
H12O H 0.83503 0.51017 0.52817
O3P O 0.533133(400) 0.086367(300) 0.544077(120)
C20P C 0.560533(300) 0.109367(300) 0.528437(160)
O4P O 0.555433(300) 0.088267(300) 0.511597(100)
C23P C 0.604433(300) 0.173167(300) 0.529217(130)
C24P C 0.626533(300) 0.273467(300) 0.530417(130)
C25P C 0.685233(300) 0.292267(300) 0.530897(120)
C26P C 0.586333(400) 0.212667(300) 0.530027(140)
H10P H 0.54673 0.19967 0.53037
C27P C 0.704033(500) 0.251667(500) 0.529567(200)
H11P H 0.74353 0.26407 0.52917
C28P C 0.662733(600) 0.191967(500) 0.528867(200)
H12P H 0.67513 0.16497 0.52817
O3Q O 0.553233(400) 0.466867(300) 0.544077(120)
C20Q C 0.548833(300) 0.439467(300) 0.528437(160)
O4Q O 0.532833(300) 0.444567(300) 0.511597(100)
C23Q C 0.568733(300) 0.395567(300) 0.529217(130)
C24Q C 0.646933(300) 0.373467(300) 0.530417(130)
C25Q C 0.607033(300) 0.314767(300) 0.530897(120)
C26Q C 0.626333(400) 0.413667(300) 0.530027(140)
H10Q H 0.65293 0.45327 0.53037
C27Q C 0.547633(500) 0.295967(500) 0.529567(200)
H11Q H 0.52053 0.25647 0.52917
C28Q C 0.529233(600) 0.337267(500) 0.528867(200)
H12Q H 0.48983 0.32487 0.52817
Cd1P Cd 0.476653(20) -0.004283(20) 0.552405(8)
O1P O 0.437433(200) 0.022567(300) 0.578567(80)
O2P O 0.515533(200) 0.017867(300) 0.584337(90)
C1P C 0.476633(300) 0.027867(300) 0.589757(120)
C2P C 0.521333(200) 0.060267(300) 0.644317(90)
C3P C 0.517233(300) 0.042867(300) 0.624567(100)
H1P H 0.54113 0.02897 0.62007
C4P C 0.442133(300) 0.065567(300) 0.617697(100)
H2P H 0.41663 0.06837 0.60897
C5P C 0.444833(300) 0.081667(300) 0.637507(100)
H3P H 0.41953 0.09397 0.64187
C6P C 0.478033(300) 0.045667(300) 0.611337(110)
C7P C 0.565733(300) 0.062367(300) 0.657397(110)
C8P C 0.572233(300) 0.085367(300) 0.676327(90)
C9P C 0.486933(300) 0.098967(300) 0.671307(80)
C10P C 0.448133(300) 0.115467(300) 0.678747(90)
H4P H 0.41923 0.11367 0.67047
C11P C 0.483933(300) 0.080267(300) 0.651037(90)
C12P C 0.531833(300) 0.102867(300) 0.684227(90)
C13P C 0.620333(300) 0.095167(300) 0.688087(110)
H5P H 0.62443 0.11007 0.70087
C14P C 0.451833(300) 0.134667(300) 0.698487(90)
C15P C 0.533333(300) 0.121267(400) 0.703977(110)
H6P H 0.56113 0.12267 0.71267
C16P C 0.494633(300) 0.137067(500) 0.710527(110)
H7P H 0.49743 0.14997 0.72357
C17P C 0.661833(300) 0.082667(300) 0.680597(100)
C18P C 0.653233(300) 0.056667(300) 0.662217(110)
H8P H 0.67973 0.04647 0.65737
C19P C 0.606033(300) 0.046067(300) 0.651077(120)
H9P H 0.60023 0.02737 0.63887
C21P C 0.715733(300) 0.100467(300) 0.692397(120)
C22P C 0.410333(300) 0.153167(400) 0.705727(110)
O5P O 0.368533(200) 0.145567(200) 0.694847(70)
O6P O 0.756883(170) 0.097237(190) 0.684917(70)
O7P O 0.716933(200) 0.116767(300) 0.710397(80)
O8P O 0.418933(200) 0.175867(300) 0.722637(80)
Cd1Q Cd 0.519063(20) 0.523347(20) 0.552405(8)
O1Q O 0.585133(200) 0.562567(300) 0.578567(80)
O2Q O 0.502333(200) 0.484467(300) 0.584337(90)
C1Q C 0.551233(300) 0.523367(300) 0.589757(120)
C2Q C 0.538933(200) 0.478667(300) 0.644317(90)
C3Q C 0.525633(300) 0.482767(300) 0.624567(100)
H1Q H 0.48783 0.45887 0.62007
C4Q C 0.623433(300) 0.557867(300) 0.617697(100)
H2Q H 0.65173 0.58337 0.60897
C5Q C 0.636833(300) 0.555167(300) 0.637507(100)
H3Q H 0.67443 0.58047 0.64187
C6Q C 0.567633(300) 0.521967(300) 0.611337(110)
C7Q C 0.496633(300) 0.434267(300) 0.657397(110)
C8Q C 0.513133(300) 0.427767(300) 0.676327(90)
C9Q C 0.612033(300) 0.513067(300) 0.671307(80)
C10Q C 0.667333(300) 0.551867(300) 0.678747(90)
H4Q H 0.69443 0.58077 0.67047
C11Q C 0.596333(300) 0.516067(300) 0.651037(90)
C12Q C 0.571033(300) 0.468167(300) 0.684227(90)
C13Q C 0.474833(300) 0.379667(300) 0.688087(110)
H5Q H 0.48563 0.37557 0.70087
C14Q C 0.682833(300) 0.548167(300) 0.698487(90)
C15Q C 0.587933(300) 0.466667(400) 0.703977(110)
H6Q H 0.56153 0.43887 0.71267
C16Q C 0.642433(300) 0.505367(500) 0.710527(110)
H7Q H 0.65253 0.50257 0.72357
C17Q C 0.420833(300) 0.338167(300) 0.680597(100)
C18Q C 0.403433(300) 0.346767(300) 0.662217(110)
H8Q H 0.36673 0.32027 0.65737
C19Q C 0.440033(300) 0.393967(300) 0.651077(120)
H9Q H 0.42713 0.39977 0.63887
C21Q C 0.384733(300) 0.284267(300) 0.692397(120)
C22Q C 0.742833(300) 0.589667(400) 0.705727(110)
O5Q O 0.777033(200) 0.631467(200) 0.694847(70)
O6Q O 0.340353(170) 0.243117(190) 0.684917(70)
O7Q O 0.399833(200) 0.283067(300) 0.710397(80)
O8Q O 0.756933(200) 0.581067(300) 0.722637(80)
Cd1DA Cd 0.852397(20) 0.662383(20) 0.719071(8)
Cd1EA Cd 0.337617(20) 0.190013(20) 0.719071(8)
Cd1FA Cd 0.809987(20) 0.147603(20) 0.719071(8)
Cd1GA Cd 0.995717(20) 0.519063(20) 0.447595(8)
Cd1HA Cd 0.523347(20) 0.004283(20) 0.447595(8)
Cd1IA Cd 0.480937(20) 0.476653(20) 0.447595(8)
Cd2O Cd 1.00003 0.49997 0.49997
Cd2P Cd 0.49993 -0.00003 0.49997
Cd2Q Cd 0.50003 0.50007 0.49997
O4DA O 0.866167(300) 0.754933(300) 0.678263(100)
O4EA O 0.245067(300) 0.111233(300) 0.678263(100)
O4FA O 0.888767(300) 0.133833(300) 0.678263(100)
O5R O 0.4437(2) 0.4789(2) 0.52818(7)
O5S O 0.5211(2) -0.0352(2) 0.52818(7)
O5T O 1.0352(2) 0.5563(2) 0.52818(7)
O5AA O 0.812233(200) 0.110367(200) 0.638487(70)
O5BA O 0.298133(200) 0.187767(200) 0.638487(70)
O5CA O 0.889633(200) 0.701867(200) 0.638487(70)
O6R O 1.00702(17) 0.43057(19) 0.51825(7)
O6S O 0.56943(17) 0.57645(19) 0.51825(7)
O6T O 0.42355(17) -0.00702(19) 0.51825(7)
O6AA O 0.763903(170) 0.673687(190) 0.648417(70)
O6BA O 0.909783(170) 0.236097(190) 0.648417(70)
O6CA O 0.326313(170) 0.090217(190) 0.648417(70)
O7R O 1.0665(2) 0.4501(3) 0.54373(8)
O7S O 0.5499(2) 0.6164(3) 0.54373(8)
O7T O 0.3836(2) -0.0665(3) 0.54373(8)
O7AA O 0.783433(200) 0.733167(300) 0.622937(80)
O7BA O 0.949733(200) 0.216567(300) 0.622937(80)
O7CA O 0.266833(200) 0.050267(300) 0.622937(80)
O8R O 0.4236(2) 0.5092(3) 0.55597(8)
O8S O 0.4908(2) -0.0856(3) 0.55597(8)
O8T O 1.0856(2) 0.5764(3) 0.55597(8)
O8AA O 0.842533(200) 0.090267(300) 0.610697(80)
O8BA O 0.247733(200) 0.157467(300) 0.610697(80)
O8CA O 0.909733(200) 0.752267(300) 0.610697(80)
#END
