
#######################################################################
#
#                 Cambridge Crystallographic Data Centre
#                                CCDC
#
#######################################################################
#
# If this CIF has been generated from an entry in the Cambridge
# Structural Database, then it will include bibliographic, chemical,
# crystal, experimental, refinement or atomic coordinate data resulting
# from the CCDC's data processing and validation procedures.
#
#######################################################################

data_CSD_CIF_PIKLIH
_audit_creation_date 2018-07-25
_audit_creation_method CSD-ConQuest-V1
_database_code_CSD PIKLIH
_database_code_depnum_ccdc_archive 'CCDC 1534645'
_chemical_formula_sum 'C28 H53.02 N4 Nd4 O76.51 Si1 W12'
_chemical_formula_moiety
;
(C28 H44 N4 Nd4 O32 4+)n,4.51n(H2 O1),n(O40 Si1 W12 4-)
;
_journal_coden_Cambridge 2020
_journal_volume 3
_journal_year 2018
_journal_page_first 7871
_journal_name_full 'Chem. Sel. '
loop_
_publ_author_name
"Tianzhu Qin"
"Feng Cao"
"Wenhua Zhu"
"Yong Dai"
"Meng Zhang"
"Yu Zhang"
"Chi Zhang"
"Juan Wang"
_chemical_name_systematic
;
catena-(tetrakis(\m-pyridine-2,6-dicarboxylato)-hexadeca-aqua-tetra-neodymium(
iii) (\m-silicato)-tetracosakis(\m-oxo)-dodecaoxo-dodeca-tungsten hydrate)
;
_cell_volume   7879.905
_exptl_crystal_density_diffrn 3.777
_exptl_crystal_description 'block'
_diffrn_ambient_temperature 173
_refine_special_details
;
O64' and O64 disordered over two sites with occupancies 0.67:0.33.

;
#These two values have been output from a single CSD field.
_refine_ls_R_factor_gt 0.0356
_refine_ls_wR_factor_gt 0.0356
_symmetry_cell_setting monoclinic
_symmetry_space_group_name_H-M 'P 21/c'
_symmetry_Int_Tables_number 14
loop_
_symmetry_equiv_pos_site_id
_symmetry_equiv_pos_as_xyz
1 x,y,z
2 -x,1/2+y,1/2-z
3 -x,-y,-z
4 x,-1/2-y,-1/2+z
_cell_length_a 21.7973(9)
_cell_length_b 16.4903(5)
_cell_length_c 21.9271(8)
_cell_angle_alpha 90
_cell_angle_beta 91.176(1)
_cell_angle_gamma 90
_cell_formula_units_Z 4
loop_
_atom_type_symbol
_atom_type_radius_bond
C 0.68
H 0.23
N 0.68
Nd 2.01
O 0.68
Si 1.20
W 1.62
loop_
_atom_site_label
_atom_site_type_symbol
_atom_site_fract_x
_atom_site_fract_y
_atom_site_fract_z
C1 C 0.9403(5) 0.7692(7) 0.4222(5)
C2 C 0.9714(6) 0.8383(7) 0.4420(5)
H1 H 0.98290 0.84440 0.48370
C3 C 0.9859(6) 0.8996(8) 0.3990(5)
H2 H 1.00660 0.94800 0.41090
C4 C 0.9685(5) 0.8853(7) 0.3389(5)
H3 H 0.97760 0.92450 0.30860
C5 C 0.9380(5) 0.8147(7) 0.3224(5)
C6 C 0.9206(6) 0.7016(7) 0.4627(5)
C7 C 0.9205(6) 0.7957(7) 0.2573(5)
C8 C 0.9189(5) 0.4328(7) 0.6843(5)
C9 C 0.9013(6) 0.3629(7) 0.7144(5)
H4 H 0.92980 0.32060 0.72290
C10 C 0.8402(6) 0.3566(7) 0.7320(5)
H5 H 0.82670 0.30950 0.75270
C11 C 0.7997(6) 0.4182(7) 0.7193(5)
H6 H 0.75780 0.41400 0.72990
C12 C 0.8217(6) 0.4866(7) 0.6906(5)
C13 C 0.9845(6) 0.4487(7) 0.6654(5)
C14 C 0.7826(6) 0.5617(7) 0.6793(5)
C15 C 0.6785(6) 0.4890(7) 0.3251(6)
C16 C 0.7006(6) 0.4364(8) 0.2814(5)
H7 H 0.74240 0.43790 0.26990
C17 C 0.6604(7) 0.3820(8) 0.2553(6)
H8 H 0.67430 0.34490 0.22540
C18 C 0.5996(6) 0.3811(9) 0.2724(6)
H9 H 0.57130 0.34390 0.25440
C19 C 0.5809(5) 0.4356(7) 0.3166(5)
C20 C 0.7173(6) 0.5515(7) 0.3578(6)
C21 C 0.5159(5) 0.4432(7) 0.3354(5)
C22 C 0.4391(5) 0.1731(7) 0.3168(5)
C23 C 0.4683(6) 0.1039(7) 0.3383(5)
H10 H 0.47920 0.06160 0.31110
C24 C 0.4813(5) 0.0974(7) 0.4006(5)
H11 H 0.50230 0.05150 0.41680
C25 C 0.4623(5) 0.1611(7) 0.4388(6)
H12 H 0.46940 0.15750 0.48160
C26 C 0.4338(5) 0.2277(7) 0.4148(5)
C27 C 0.4239(5) 0.1881(7) 0.2503(5)
C28 C 0.4109(7) 0.2976(7) 0.4522(5)
N1 N 0.9232(5) 0.7586(5) 0.3630(4)
N2 N 0.8787(4) 0.4936(5) 0.6723(4)
N3 N 0.6199(5) 0.4891(6) 0.3417(4)
Nd1 Nd 0.86215(3) 0.63093(4) 0.33083(3)
N4 N 0.4206(4) 0.2329(6) 0.3538(4)
Nd2 Nd 0.91183(3) 0.62021(4) 0.60988(3)
Nd3 Nd 0.57642(3) 0.61126(4) 0.40202(3)
Nd4 Nd 0.36838(3) 0.36180(4) 0.31023(3)
O1 O 0.7707(4) 0.6662(5) 0.2612(4)
H13 H 0.75200 0.71090 0.26630
H14 H 0.75860 0.63420 0.23310
O2 O 0.8630(4) 0.5489(5) 0.2377(4)
H15 H 0.88260 0.55440 0.20590
H16 H 0.85760 0.49910 0.24610
O3 O 0.7820(4) 0.7200(6) 0.3808(4)
H17 H 0.78780 0.72730 0.41880
H18 H 0.74830 0.69680 0.37140
O4 O 0.8864(4) 0.4945(5) 0.3763(4)
H19 H 0.92300 0.48060 0.36860
H20 H 0.86190 0.45860 0.36230
O5 O 0.8764(4) 0.7632(5) 0.6250(4)
H21 H 0.89220 0.79470 0.59900
H22 H 0.88580 0.77980 0.66070
O6 O 1.0162(4) 0.6734(6) 0.6038(4)
H23 H 1.04280 0.67260 0.63020
H24 H 1.01440 0.72260 0.59230
O7 O 0.9250(6) 0.5216(6) 0.5239(4)
H25 H 0.90710 0.53790 0.49130
H26 H 0.91210 0.47460 0.53300
O8 O 0.8167(5) 0.6163(6) 0.5365(4)
H27 H 0.83050 0.62370 0.50100
H28 H 0.79150 0.65480 0.54240
O9 O 0.6187(5) 0.5288(5) 0.4897(4)
H29 H 0.62250 0.55870 0.52120
H30 H 0.65400 0.51110 0.48080
O10 O 0.6203(5) 0.7482(5) 0.3785(4)
H31 H 0.61420 0.75730 0.34070
H32 H 0.60260 0.78530 0.39850
O11 O 0.4918(5) 0.5801(6) 0.4758(5)
H33 H 0.46550 0.54220 0.47310
H34 H 0.49520 0.61530 0.50400
O12 O 0.4855(6) 0.7010(6) 0.3778(5)
H35 H 0.45800 0.72070 0.35600
H36 H 0.49670 0.74920 0.38580
O13 O 0.2862(4) 0.2748(5) 0.3525(4)
H37 H 0.29000 0.22560 0.34160
H38 H 0.25060 0.29190 0.34250
O14 O 0.2907(5) 0.3188(6) 0.2196(4)
H39 H 0.26470 0.35540 0.21050
H40 H 0.31350 0.30610 0.19010
O15 O 0.3826(4) 0.5010(5) 0.3469(4)
H41 H 0.41930 0.51400 0.35630
H42 H 0.35610 0.53830 0.35140
O16 O 0.3969(5) 0.4434(6) 0.2171(4)
H43 H 0.37680 0.48750 0.21490
H44 H 0.39120 0.41650 0.18440
O17 O 0.8926(4) 0.6435(5) 0.4381(4)
O18 O 0.9328(4) 0.7068(5) 0.5185(4)
O19 O 0.8924(4) 0.7293(5) 0.2490(4)
O20 O 0.9352(4) 0.8446(5) 0.2168(3)
O21 O 0.9928(4) 0.5150(5) 0.6371(4)
O22 O 1.0250(4) 0.3977(5) 0.6793(4)
O23 O 0.8105(4) 0.6233(5) 0.6599(4)
O24 O 0.7269(4) 0.5586(5) 0.6916(4)
O25 O 0.6888(4) 0.6051(5) 0.3866(4)
O26 O 0.7737(4) 0.5471(6) 0.3527(5)
O27 O 0.5029(4) 0.5047(5) 0.3680(4)
O28 O 0.4779(4) 0.3893(5) 0.3193(4)
O29 O 0.4052(4) 0.2600(4) 0.2383(3)
O30 O 0.4308(4) 0.1333(5) 0.2124(3)
O31 O 0.3876(4) 0.3567(5) 0.4219(4)
O32 O 0.4191(5) 0.2952(5) 0.5076(4)
O33 O 0.2264(3) 0.8149(4) 0.4501(3)
O34 O 0.3037(3) 0.9333(4) 0.4811(3)
O35 O 0.1936(3) 0.9269(4) 0.5299(3)
O36 O 0.2780(3) 0.8166(4) 0.5606(3)
O37 O 0.0919(4) 0.6437(5) 0.4528(4)
O38 O 0.3246(4) 0.6516(5) 0.3543(4)
O39 O 0.1533(4) 0.8835(5) 0.2879(4)
O40 O 0.4663(4) 0.8683(5) 0.4095(4)
O41 O 0.3987(4) 1.0982(5) 0.5787(4)
O42 O 0.2923(4) 1.1007(5) 0.3468(4)
O43 O 0.0905(4) 1.0874(5) 0.4345(4)
O44 O 0.1959(4) 1.0915(5) 0.6672(4)
O45 O 0.0347(4) 0.8470(5) 0.6000(4)
O46 O 0.3497(4) 0.8926(5) 0.7221(4)
O47 O 0.4206(4) 0.6605(5) 0.5580(4)
O48 O 0.1880(4) 0.6444(5) 0.6545(4)
O49 O 0.2149(4) 0.6659(4) 0.4170(3)
O50 O 0.2427(4) 0.7815(5) 0.3368(3)
O51 O 0.1307(4) 0.7764(5) 0.3846(4)
O52 O 0.4176(4) 0.9715(5) 0.4975(4)
O53 O 0.3328(4) 1.0830(5) 0.4674(3)
O54 O 0.3659(4) 0.9711(5) 0.3867(3)
O55 O 0.1561(4) 1.0741(5) 0.5449(4)
O56 O 0.1289(4) 0.9577(5) 0.6245(3)
O57 O 0.0791(4) 0.9545(5) 0.5135(3)
O58 O 0.3750(4) 0.7871(4) 0.6265(3)
O59 O 0.2978(4) 0.6685(5) 0.5935(4)
O60 O 0.2639(4) 0.7805(5) 0.6741(3)
O61 O 0.1081(4) 0.7990(5) 0.5029(4)
O62 O 0.1895(4) 0.6897(5) 0.5332(3)
O63 O 0.3212(4) 0.6964(5) 0.4766(4)
O64 O 0.3460(4) 0.8101(5) 0.3990(3)
O65 O 0.2475(4) 0.9415(5) 0.3623(3)
O66 O 0.1399(3) 0.9346(5) 0.4095(3)
O67 O 0.2157(4) 1.0507(4) 0.4407(3)
O68 O 0.1588(4) 0.8007(5) 0.6113(3)
O69 O 0.3960(4) 0.8135(5) 0.5072(3)
O70 O 0.2752(4) 1.0527(5) 0.5719(3)
O71 O 0.2492(4) 0.9386(5) 0.6476(3)
O72 O 0.3571(4) 0.9428(5) 0.6004(3)
Si1 Si 0.25050(13) 0.87255(17) 0.50563(12)
W1 W 0.14702(2) 0.71729(3) 0.45774(2)
W2 W 0.28868(2) 0.72177(3) 0.39884(2)
W3 W 0.18414(2) 0.86181(3) 0.35851(2)
W4 W 0.39653(2) 0.88703(3) 0.43969(2)
W5 W 0.35535(2) 1.02667(3) 0.54193(2)
W6 W 0.29123(2) 1.02691(3) 0.40184(2)
W7 W 0.13694(2) 1.01769(3) 0.46934(2)
W8 W 0.20119(2) 1.02161(3) 0.60978(2)
W9 W 0.10452(2) 0.87305(3) 0.57065(2)
W10 W 0.31697(2) 0.86635(3) 0.65265(2)
W11 W 0.36169(2) 0.72753(3) 0.55273(2)
W12 W 0.22060(2) 0.71773(3) 0.61133(2)
O73 O 0.9721(5) 0.9301(6) 0.6894(4)
H45 H 0.99350 0.89990 0.66680
H46 H 0.97680 0.91450 0.72620
O74 O 0.0650(5) 0.6911(6) 0.7132(5)
H47 H 0.08800 0.66470 0.73790
H48 H 0.02810 0.68590 0.72790
O75 O 0.4336(12) 0.7063(14) 0.2738(11)
H49 H 0.40880 0.67280 0.25720
H50 H 0.46880 0.68420 0.26340
O76? O 0.749(3) 0.482(3) 0.486(4)
H51? H 0.77560 0.51710 0.49750
H52? H 0.76270 0.43560 0.47630
O77 O 0.7362(17) 0.4776(15) 0.504(2)
H53 H 0.76320 0.51360 0.51100
H54 H 0.74760 0.42830 0.50360
O78 O 0.7637(7) 0.7765(9) 0.5025(6)
H55 H 0.73340 0.80530 0.51310
H56 H 0.79060 0.81010 0.49210
Nd1B Nd 1.13785(3) 0.36907(4) 0.66917(3)
Nd2C Nd 0.91183(3) 0.87979(4) 0.10988(3)
Nd3A Nd 0.42358(3) 0.11126(4) 0.09798(3)
Nd3B Nd 0.42358(3) 0.38874(4) 0.59798(3)
Nd4B Nd 0.63162(3) 0.63820(4) 0.68977(3)
O20C O 0.9352(4) 0.6554(5) 0.7168(3)
O22B O 0.9750(4) 0.6023(5) 0.3207(4)
O24B O 0.2731(4) 0.4414(5) 0.3084(4)
O30A O 0.5692(4) 0.6333(5) 0.2876(3)
O32B O 0.5809(5) 0.7048(5) 0.4924(4)
#END
