
#######################################################################
#
#                 Cambridge Crystallographic Data Centre
#                                CCDC
#
#######################################################################
#
# If this CIF has been generated from an entry in the Cambridge
# Structural Database, then it will include bibliographic, chemical,
# crystal, experimental, refinement or atomic coordinate data resulting
# from the CCDC's data processing and validation procedures.
#
#######################################################################

data_CSD_CIF_PIKLON
_audit_creation_date 2018-07-25
_audit_creation_method CSD-ConQuest-V1
_database_code_CSD PIKLON
_database_code_depnum_ccdc_archive 'CCDC 1534646'
_chemical_formula_sum 'C28 H53.28 N4 O76.64 Pr4 Si1 W12'
_chemical_formula_moiety
;
(C28 H44 N4 O32 Pr4 4+)n,4.64n(H2 O1),n(O40 Si1 W12 4-)
;
_journal_coden_Cambridge 2020
_journal_volume 3
_journal_year 2018
_journal_page_first 7871
_journal_name_full 'Chem. Sel. '
loop_
_publ_author_name
"Tianzhu Qin"
"Feng Cao"
"Wenhua Zhu"
"Yong Dai"
"Meng Zhang"
"Yu Zhang"
"Chi Zhang"
"Juan Wang"
_chemical_name_systematic
;
catena-(tetrakis(\m-pyridine-2,6-dicarboxylato)-hexadeca-aqua-tetra-praseodymi
um(iii) (\m-silicato)-tetracosakis(\m-oxo)-dodecaoxo-dodeca-tungsten hydrate)
;
_cell_volume   7937.940
_exptl_crystal_density_diffrn 3.74
_exptl_crystal_description 'block'
_diffrn_ambient_temperature 173
_refine_special_details
;
O64 and O64' disordered over two sites with occupancies 0.82:0.18.

;
#These two values have been output from a single CSD field.
_refine_ls_R_factor_gt 0.0386
_refine_ls_wR_factor_gt 0.0386
_symmetry_cell_setting monoclinic
_symmetry_space_group_name_H-M 'P 21/c'
_symmetry_Int_Tables_number 14
loop_
_symmetry_equiv_pos_site_id
_symmetry_equiv_pos_as_xyz
1 x,y,z
2 -x,1/2+y,1/2-z
3 -x,-y,-z
4 x,-1/2-y,-1/2+z
_cell_length_a 21.8437(6)
_cell_length_b 16.5425(6)
_cell_length_c 21.9703(7)
_cell_angle_alpha 90
_cell_angle_beta 90.916(1)
_cell_angle_gamma 90
_cell_formula_units_Z 4
loop_
_atom_type_symbol
_atom_type_radius_bond
C 0.68
H 0.23
N 0.68
O 0.68
Pr 2.03
Si 1.20
W 1.62
loop_
_atom_site_label
_atom_site_type_symbol
_atom_site_fract_x
_atom_site_fract_y
_atom_site_fract_z
C1 C 0.9408(5) 0.7706(7) 0.4215(5)
C2 C 0.9715(5) 0.8387(7) 0.4416(6)
H1 H 0.98220 0.84530 0.48340
C3 C 0.9863(6) 0.8973(7) 0.3993(6)
H2 H 1.00780 0.94450 0.41170
C4 C 0.9699(5) 0.8868(7) 0.3391(6)
H3 H 0.97990 0.92610 0.30940
C5 C 0.9380(5) 0.8167(6) 0.3229(5)
C6 C 0.9216(6) 0.7037(7) 0.4630(6)
C7 C 0.9200(6) 0.7971(7) 0.2572(6)
C8 C 0.9187(5) 0.4305(7) 0.6846(5)
C9 C 0.9012(6) 0.3623(7) 0.7138(5)
H4 H 0.92990 0.32040 0.72230
C10 C 0.8402(5) 0.3548(7) 0.7312(5)
H5 H 0.82670 0.30750 0.75140
C11 C 0.8000(5) 0.4165(7) 0.7188(5)
H6 H 0.75820 0.41200 0.72940
C12 C 0.8217(5) 0.4869(7) 0.6898(5)
C13 C 0.9842(5) 0.4481(7) 0.6661(5)
C14 C 0.7827(5) 0.5607(7) 0.6798(5)
C15 C 0.6779(6) 0.4874(7) 0.3250(6)
C16 C 0.6993(6) 0.4361(8) 0.2809(6)
H7 H 0.74100 0.43790 0.26910
C17 C 0.6602(6) 0.3831(8) 0.2547(6)
H8 H 0.67460 0.34700 0.22450
C18 C 0.5988(6) 0.3807(8) 0.2713(6)
H9 H 0.57060 0.34390 0.25310
C19 C 0.5811(6) 0.4353(7) 0.3160(6)
C20 C 0.7167(6) 0.5493(8) 0.3576(6)
C21 C 0.5155(5) 0.4419(7) 0.3359(5)
C22 C 0.4371(5) 0.1724(7) 0.3167(6)
C23 C 0.4671(5) 0.1037(7) 0.3380(5)
H10 H 0.47840 0.06210 0.31060
C24 C 0.4804(6) 0.0969(7) 0.3998(6)
H11 H 0.50090 0.05030 0.41510
C25 C 0.4633(6) 0.1594(7) 0.4396(6)
H12 H 0.47200 0.15660 0.48200
C26 C 0.4331(5) 0.2250(7) 0.4140(5)
C27 C 0.4236(5) 0.1865(6) 0.2508(5)
C28 C 0.4112(6) 0.2972(7) 0.4522(5)
N1 N 0.9237(4) 0.7595(6) 0.3636(4)
N2 N 0.8798(4) 0.4936(5) 0.6723(4)
N3 N 0.6192(5) 0.4881(6) 0.3419(5)
N4 N 0.4205(4) 0.2317(6) 0.3539(5)
O1 O 0.7694(4) 0.6661(5) 0.2612(4)
H13 H 0.75070 0.71070 0.26630
H14 H 0.75740 0.63400 0.23310
O2 O 0.8635(4) 0.5483(5) 0.2367(4)
H15 H 0.88310 0.55390 0.20490
H16 H 0.85810 0.49850 0.24510
O3 O 0.7803(4) 0.7195(5) 0.3817(4)
H17 H 0.78620 0.72680 0.41970
H18 H 0.74660 0.69640 0.37230
O4 O 0.8868(4) 0.4947(5) 0.3779(5)
H19 H 0.92340 0.48080 0.37020
H20 H 0.86230 0.45880 0.36380
O5 O 0.8767(4) 0.7629(5) 0.6253(4)
H21 H 0.89260 0.79440 0.59930
H22 H 0.88610 0.77950 0.66100
O6 O 1.0177(4) 0.6723(6) 0.6032(4)
H23 H 1.04430 0.67140 0.62970
H24 H 1.01590 0.72150 0.59180
O7 O 0.9263(6) 0.5206(6) 0.5228(4)
H25 H 0.90840 0.53680 0.49030
H26 H 0.91340 0.47360 0.53190
O8 O 0.8179(5) 0.6171(7) 0.5362(4)
H27 H 0.83170 0.62440 0.50060
H28 H 0.79270 0.65550 0.54200
O9 O 0.6188(4) 0.5269(5) 0.4909(4)
H29 H 0.62270 0.55680 0.52230
H30 H 0.65410 0.50920 0.48200
O10 O 0.6229(5) 0.7469(5) 0.3778(4)
H31 H 0.61180 0.75200 0.34210
H32 H 0.60520 0.78400 0.39780
O11 O 0.4907(5) 0.5802(5) 0.4761(5)
H33 H 0.46430 0.54230 0.47340
H34 H 0.49400 0.61540 0.50430
O12 O 0.4867(5) 0.7024(6) 0.3787(5)
H35 H 0.45920 0.72210 0.35690
H36 H 0.49790 0.75060 0.38680
O13 O 0.2851(4) 0.2747(5) 0.3532(5)
H37 H 0.28890 0.22550 0.34230
H38 H 0.24950 0.29170 0.34310
O14 O 0.2903(4) 0.3196(5) 0.2199(4)
H39 H 0.26430 0.35630 0.21090
H40 H 0.30320 0.29690 0.19050
O15 O 0.3826(4) 0.5016(5) 0.3458(4)
H41 H 0.41930 0.51460 0.35520
H42 H 0.35610 0.53880 0.35030
O16 O 0.3968(4) 0.4442(5) 0.2165(4)
H43 H 0.37660 0.48820 0.21440
H44 H 0.39110 0.41720 0.18390
O17 O 0.8920(4) 0.6454(5) 0.4385(4)
O18 O 0.9332(4) 0.7081(5) 0.5186(4)
O19 O 0.8915(4) 0.7308(5) 0.2491(4)
O20 O 0.9363(4) 0.8442(5) 0.2167(4)
O21 O 0.9926(4) 0.5138(5) 0.6378(4)
O22 O 1.0238(4) 0.3971(5) 0.6791(4)
O23 O 0.8104(4) 0.6224(5) 0.6601(4)
O24 O 0.7273(4) 0.5572(5) 0.6918(4)
O25 O 0.6895(4) 0.6029(5) 0.3882(4)
O26 O 0.7736(4) 0.5439(5) 0.3520(5)
O27 O 0.5027(4) 0.5033(5) 0.3685(4)
O28 O 0.4779(4) 0.3895(5) 0.3187(4)
O29 O 0.4038(4) 0.2577(5) 0.2381(4)
O30 O 0.4302(4) 0.1311(5) 0.2131(4)
O31 O 0.3887(4) 0.3554(5) 0.4220(4)
O32 O 0.4200(5) 0.2950(5) 0.5078(4)
Pr1 Pr 0.86143(3) 0.63095(4) 0.33089(3)
Pr2 Pr 0.91209(3) 0.61975(4) 0.60972(3)
Pr3 Pr 0.57631(3) 0.61068(4) 0.40248(3)
Pr4 Pr 0.36803(3) 0.36180(4) 0.30966(3)
O33 O 0.2267(3) 0.8151(4) 0.4503(3)
O34 O 0.3032(3) 0.9333(4) 0.4814(3)
O35 O 0.1934(3) 0.9262(4) 0.5302(3)
O36 O 0.2775(3) 0.8178(4) 0.5602(3)
O37 O 0.0927(4) 0.6440(5) 0.4518(4)
O38 O 0.3250(4) 0.6522(5) 0.3541(4)
O39 O 0.1540(4) 0.8824(5) 0.2877(4)
O40 O 0.4657(4) 0.8698(5) 0.4094(4)
O41 O 0.3976(4) 1.0997(5) 0.5792(4)
O42 O 0.2921(4) 1.1008(5) 0.3479(4)
O43 O 0.0905(4) 1.0875(5) 0.4342(4)
O44 O 0.1947(4) 1.0918(5) 0.6665(4)
O45 O 0.0343(4) 0.8471(5) 0.5994(4)
O46 O 0.3474(4) 0.8936(5) 0.7219(4)
O47 O 0.4205(4) 0.6618(5) 0.5580(4)
O48 O 0.1880(4) 0.6448(5) 0.6545(4)
O49 O 0.2155(4) 0.6660(5) 0.4177(4)
O50 O 0.2431(4) 0.7814(4) 0.3378(4)
O51 O 0.1313(4) 0.7760(5) 0.3840(3)
O52 O 0.4171(4) 0.9721(5) 0.4978(4)
O53 O 0.3318(4) 1.0839(5) 0.4682(4)
O54 O 0.3659(4) 0.9712(4) 0.3873(3)
O55 O 0.1558(4) 1.0746(4) 0.5444(4)
O56 O 0.1285(3) 0.9572(4) 0.6241(3)
O57 O 0.0783(4) 0.9551(5) 0.5130(4)
O58 O 0.3738(4) 0.7876(5) 0.6265(4)
O59 O 0.2979(4) 0.6697(5) 0.5934(4)
O60 O 0.2630(4) 0.7805(5) 0.6735(4)
O61 O 0.1082(4) 0.7985(5) 0.5032(4)
O62 O 0.1901(4) 0.6906(5) 0.5325(4)
O63 O 0.3213(4) 0.6982(5) 0.4770(4)
O64 O 0.3472(4) 0.8106(4) 0.3992(4)
O65 O 0.2488(4) 0.9413(5) 0.3631(4)
O66 O 0.1409(3) 0.9338(5) 0.4092(4)
O67 O 0.2159(3) 1.0500(4) 0.4410(4)
O68 O 0.1581(4) 0.8006(4) 0.6108(3)
O69 O 0.3965(3) 0.8142(5) 0.5072(3)
O70 O 0.2750(4) 1.0526(5) 0.5718(4)
O71 O 0.2482(4) 0.9390(5) 0.6480(4)
O72 O 0.3560(4) 0.9434(5) 0.6010(4)
Si1 Si 0.25035(15) 0.87268(17) 0.50609(14)
W1 W 0.14764(2) 0.71753(3) 0.45759(2)
W2 W 0.28927(2) 0.72249(3) 0.39921(2)
W3 W 0.18489(2) 0.86189(3) 0.35856(2)
W4 W 0.39633(2) 0.88795(3) 0.44042(2)
W5 W 0.35449(2) 1.02737(3) 0.54222(2)
W6 W 0.29120(2) 1.02724(3) 0.40225(2)
W7 W 0.13677(2) 1.01737(3) 0.46913(2)
W8 W 0.20018(2) 1.02179(3) 0.60943(2)
W9 W 0.10430(2) 0.87305(3) 0.57015(2)
W10 W 0.31566(2) 0.86703(3) 0.65260(2)
W11 W 0.36129(2) 0.72854(3) 0.55320(2)
W12 W 0.22015(2) 0.71810(3) 0.61117(2)
O73 O 0.9722(4) 0.9288(6) 0.6898(4)
H45 H 0.99360 0.89860 0.66710
H46 H 0.97690 0.91330 0.72660
O74 O 0.0655(4) 0.6904(6) 0.7141(4)
H47 H 0.08850 0.66400 0.73880
H48 H 0.02860 0.68520 0.72880
O75 O 0.4344(9) 0.7053(11) 0.2734(9)
H49 H 0.40950 0.67180 0.25680
H50 H 0.46960 0.68320 0.26310
O76 O 0.7405(6) 0.4794(8) 0.4962(8)
H51 H 0.76690 0.51430 0.50790
H52 H 0.75400 0.43280 0.48670
O77? O 0.726(3) 0.481(4) 0.531(4)
H53? H 0.75330 0.51660 0.53890
H54? H 0.73760 0.43130 0.53150
O78 O 0.7653(6) 0.7755(8) 0.5033(6)
H55 H 0.73500 0.80430 0.51400
H56 H 0.79230 0.80910 0.49290
O20C O 0.9363(4) 0.6558(5) 0.7167(4)
O22B O 0.9762(4) 0.6029(5) 0.3209(4)
O24B O 0.2727(4) 0.4428(5) 0.3082(4)
O30A O 0.5698(4) 0.6311(5) 0.2869(4)
O32B O 0.5800(5) 0.7050(5) 0.4922(4)
Pr1B Pr 1.13857(3) 0.36905(4) 0.66911(3)
Pr2C Pr 0.91209(3) 0.88025(4) 0.10972(3)
Pr3A Pr 0.42369(3) 0.11068(4) 0.09752(3)
Pr3B Pr 0.42369(3) 0.38932(4) 0.59752(3)
Pr4B Pr 0.63197(3) 0.63820(4) 0.69034(3)
#END
