
#######################################################################
#
#                 Cambridge Crystallographic Data Centre
#                                CCDC
#
#######################################################################
#
# If this CIF has been generated from an entry in the Cambridge
# Structural Database, then it will include bibliographic, chemical,
# crystal, experimental, refinement or atomic coordinate data resulting
# from the CCDC's data processing and validation procedures.
#
#######################################################################

data_CSD_CIF_PILNEG
_audit_creation_date 2018-07-26
_audit_creation_method CSD-ConQuest-V1
_database_code_CSD PILNEG
_database_code_depnum_ccdc_archive 'CCDC 1570350'
_chemical_formula_sum 'C88 H70 Cd4 N12 O24'
_chemical_formula_moiety
;
2(C37 H23 Cd2 N4 O10 1-)n,C14 H16 N4 2+,4(H2 O1)
;
_journal_coden_Cambridge 1350
_journal_volume 20
_journal_year 2018
_journal_page_first 4752
_journal_name_full 'CrystEngComm '
loop_
_publ_author_name
"Liming Fan"
"Yujuan Zhang"
"Jinfang Liang"
"Xiaoqing Wang"
"Hongxiao Lv"
"Jiang Wang"
"Li Zhao"
"Xiutang Zhang"
_chemical_name_systematic
;
catena-[3,3'-[1,4-phenylenebis(methylene)]di(1H-imidazol-3-ium) 
bis((\m-1,1'-[1,4-phenylenebis(methylene)]di(1H-imidazole))-(\m-[1^1^,2^1^:2^3
^,3^1^-terphenyl]-1^2^,1^4^,2^5^,3^2^,3^4^-pentacarboxylato)-di-cadmium) 
tetrahydrate]
;
_cell_volume   1998.201
_exptl_crystal_density_diffrn 1.769
_exptl_crystal_description 'block'
_diffrn_ambient_temperature 293
#These two values have been output from a single CSD field.
_refine_ls_R_factor_gt 0.0356
_refine_ls_wR_factor_gt 0.0356
_symmetry_cell_setting triclinic
_symmetry_space_group_name_H-M 'P -1'
_symmetry_Int_Tables_number 2
loop_
_symmetry_equiv_pos_site_id
_symmetry_equiv_pos_as_xyz
1 x,y,z
2 -x,-y,-z
_cell_length_a 13.2168(5)
_cell_length_b 13.4274(5)
_cell_length_c 13.7151(5)
_cell_angle_alpha 74.321(1)
_cell_angle_beta 70.086(1)
_cell_angle_gamma 61.743(1)
_cell_formula_units_Z 1
loop_
_atom_type_symbol
_atom_type_radius_bond
C 0.68
H 0.23
Cd 1.44
N 0.68
O 0.68
loop_
_atom_site_label
_atom_site_type_symbol
_atom_site_fract_x
_atom_site_fract_y
_atom_site_fract_z
Cd1 Cd 0.41777(2) 0.23916(2) 0.79009(2)
Cd2 Cd 0.85514(2) 0.47077(2) 1.10936(2)
O1 O 0.8084(3) 0.4684(2) 0.9610(2)
O2 O 0.8033(3) 0.3294(2) 1.0883(2)
O3 O 0.9326(2) -0.39007(19) 1.0437(2)
O4 O 0.7393(2) -0.32703(19) 1.07290(18)
O5 O 0.5196(2) 0.1491(2) 0.9297(2)
O6 O 0.6110(3) 0.0705(2) 0.7853(2)
O7 O 0.5190(2) 0.3493(2) 0.7590(2)
O8 O 0.5403(3) 0.2877(3) 0.6173(2)
O9 O 0.7257(2) 0.4724(2) 0.27692(19)
O10 O 0.7488(3) 0.6180(3) 0.2992(2)
N1 N -0.0103(3) 0.3469(3) 0.2006(2)
N2 N 0.0823(3) 0.1808(3) 0.2863(2)
N3 N 0.2441(3) 0.0382(3) 0.7705(2)
N4 N 0.3578(3) 0.1145(3) 0.7727(2)
C1 C 0.0964(4) 0.3382(3) 0.2023(3)
H1 H 0.12493 0.39387 0.17211
C2 C 0.1538(4) 0.2365(4) 0.2547(3)
H2 H 0.22806 0.20943 0.26691
C3 C -0.0155(3) 0.2501(3) 0.2523(3)
H3 H -0.07900 0.23243 0.26353
C4 C 0.1087(4) 0.0668(3) 0.3450(3)
H4 H 0.18437 0.01365 0.30795
H5 H 0.04843 0.04356 0.34792
C5 C 0.1139(3) 0.0595(3) 0.4549(3)
C6 C 0.1832(4) -0.0443(3) 0.5034(3)
H6 H 0.22540 -0.10783 0.46783
C7 C 0.1898(4) -0.0537(4) 0.6037(3)
H7 H 0.23554 -0.12407 0.63555
C8 C 0.1297(4) 0.0394(4) 0.6582(3)
C9 C 0.0612(4) 0.1413(4) 0.6102(3)
H8 H 0.01975 0.20466 0.64587
C10 C 0.0519(4) 0.1524(4) 0.5101(3)
H9 H 0.00391 0.22251 0.47972
C11 C 0.1387(4) 0.0292(5) 0.7674(3)
H10 H 0.06828 0.08858 0.80327
H11 H 0.14026 -0.04374 0.80516
C12 C 0.2571(4) 0.1346(4) 0.7554(3)
H12 H 0.20222 0.20652 0.73521
C13 C 0.3420(4) -0.0490(4) 0.8003(4)
H13 H 0.35791 -0.12598 0.81640
C14 C 0.4105(4) -0.0010(3) 0.8015(4)
H14 H 0.48292 -0.04021 0.81916
C15 C 0.7383(3) 0.5256(3) 0.3319(3)
C16 C 0.7402(3) 0.4749(3) 0.4437(3)
C17 C 0.6658(3) 0.4228(3) 0.5020(3)
H15 H 0.61653 0.41790 0.47041
C18 C 0.6624(3) 0.3775(3) 0.6065(3)
C19 C 0.7408(3) 0.3797(3) 0.6531(3)
C20 C 0.8162(3) 0.4316(3) 0.5933(3)
H16 H 0.86865 0.43359 0.62311
C21 C 0.8148(3) 0.4803(3) 0.4910(3)
H17 H 0.86409 0.51675 0.45369
C22 C 0.5680(3) 0.3348(3) 0.6654(3)
C23 C 0.7531(3) 0.3222(3) 0.7604(3)
C24 C 0.7630(3) 0.2115(3) 0.7913(3)
H18 H 0.75557 0.17583 0.74638
C25 C 0.7840(3) 0.1520(3) 0.8888(3)
C26 C 0.7941(3) 0.2070(3) 0.9554(3)
H19 H 0.80794 0.16911 1.02040
C27 C 0.7836(3) 0.3192(3) 0.9249(3)
C28 C 0.7633(3) 0.3752(3) 0.8285(3)
H20 H 0.75638 0.44966 0.80871
C29 C 0.7978(3) 0.3757(3) 0.9971(3)
C30 C 0.7970(3) 0.0322(3) 0.9226(2)
C31 C 0.7129(3) -0.0013(3) 0.9184(3)
C32 C 0.7261(3) -0.1126(3) 0.9571(3)
H21 H 0.66970 -0.13473 0.95596
C33 C 0.8223(3) -0.1913(3) 0.9973(2)
C34 C 0.9063(3) -0.1592(3) 0.9979(3)
H22 H 0.97225 -0.21215 1.02270
C35 C 0.8931(3) -0.0479(3) 0.9615(3)
H23 H 0.94992 -0.02667 0.96335
C36 C 0.8325(3) -0.3100(3) 1.0411(2)
C37 C 0.6077(3) 0.0787(3) 0.8748(3)
O11 O 0.5953(5) 0.6953(5) 0.9218(4)
H24 H 0.56596 0.73794 0.96932
H25 H 0.65364 0.63512 0.93754
O12 O 1.0183(3) 0.3839(3) 0.7418(3)
H26 H 0.97045 0.40681 0.79928
H27 H 1.08321 0.38635 0.73626
N5 N 0.4353(4) 0.6306(4) 0.7029(4)
H28 H 0.38142 0.60645 0.71696
N6 N 0.5642(3) 0.7016(3) 0.6195(3)
C38 C 0.4886(5) 0.6333(4) 0.7722(4)
H29 H 0.47246 0.60808 0.84350
C39 C 0.5652(5) 0.6768(4) 0.7222(4)
H30 H 0.61196 0.68863 0.75149
C40 C 0.4846(4) 0.6731(4) 0.6093(4)
H31 H 0.46642 0.68148 0.54695
C41 C 0.6328(4) 0.7550(4) 0.5322(4)
H32 H 0.65214 0.72385 0.46882
H33 H 0.70671 0.73674 0.54743
C42 C 0.5649(4) 0.8830(3) 0.5145(3)
C43 C 0.4745(4) 0.9297(4) 0.4641(4)
H34 H 0.45699 0.88279 0.43981
C44 C 0.5891(4) 0.9537(4) 0.5499(4)
H35 H 0.64962 0.92223 0.58390
Cd1A Cd 0.58223(2) -0.23916(2) 1.20991(2)
Cd1A* Cd 0.58223(2) 0.76084(2) 0.20991(2)
Cd2* Cd -0.14486(2) 0.47077(2) 0.10936(2)
Cd2** Cd 0.85514(2) -0.52923(2) 1.10936(2)
Cd2*** Cd 0.85514(2) 0.47077(2) 0.10936(2)
Cd2A Cd 1.14486(2) -0.47077(2) 0.89064(2)
O3* O 0.9326(2) 0.60993(19) 1.0437(2)
O3A O 1.0674(2) 0.39007(19) 0.9563(2)
O4* O 0.7393(2) 0.67297(19) 1.07290(18)
O4A O 0.2607(2) 0.32703(19) 0.92710(18)
O9* O 0.7257(2) 0.4724(2) 1.27692(19)
O10A O 0.2512(3) 0.3820(3) 0.7008(2)
N1* N 0.9897(3) 0.3469(3) 1.2006(2)
N5A N 0.5647(4) 1.3694(4) 0.2971(4)
H28A H 0.61858 1.39355 0.28304
N6A N 0.4358(3) 1.2984(3) 0.3805(3)
C38A C 0.5114(5) 1.3667(4) 0.2278(4)
H29A H 0.52754 1.39192 0.15650
C39A C 0.4348(5) 1.3232(4) 0.2778(4)
H30A H 0.38804 1.31137 0.24851
C40A C 0.5154(4) 1.3269(4) 0.3907(4)
H31A H 0.53358 1.31852 0.45305
C41A C 0.3672(4) 1.2450(4) 0.4678(4)
H32A H 0.34786 1.27615 0.53118
H33A H 0.29329 1.26326 0.45257
C42A C 0.4351(4) 1.1170(3) 0.4855(3)
C43A C 0.5255(4) 1.0703(4) 0.5359(4)
H34A H 0.54301 1.11721 0.56019
C44A C 0.4109(4) 1.0463(4) 0.4501(4)
H35A H 0.35038 1.07777 0.41610
#END
