
#######################################################################
#
#                 Cambridge Crystallographic Data Centre
#                                CCDC
#
#######################################################################
#
# If this CIF has been generated from an entry in the Cambridge
# Structural Database, then it will include bibliographic, chemical,
# crystal, experimental, refinement or atomic coordinate data resulting
# from the CCDC's data processing and validation procedures.
#
#######################################################################

data_CSD_CIF_PIMGAW
_audit_creation_date 2018-07-26
_audit_creation_method CSD-ConQuest-V1
_database_code_CSD PIMGAW
_database_code_depnum_ccdc_archive 'CCDC 1586201'
_chemical_formula_sum 'C62 H70 Ag4 N8 O18'
_chemical_formula_moiety
;
(C38 H30 Ag2 N4 O10 2-)n,2(C12 H12 Ag1 N2 1+)n,8(H2 O1)
;
_journal_coden_Cambridge 1267
_journal_volume 233
_journal_year 2018
_journal_page_first 585
_journal_name_full 'Z.Kristallogr.-New Cryst.Struct. '
loop_
_publ_author_name
"Hui-Tao Fan"
"Jie Ding"
"Jing-Peng Xie"
"Kun Wang"
_chemical_name_systematic
;
catena-[bis((\m-4,4'-(ethane-1,2-diyl)dipyridine)-silver(i)) 
(\m-4,4'-(ethane-1,2-diyl)dipyridine)-bis(4-(6-carboxylatopyridin-3-yl)benzoat
o)-diaqua-di-silver(i) octahydrate]
;
_cell_volume   1618.764
_exptl_crystal_colour 'colorless'
_exptl_crystal_density_diffrn 1.689
_exptl_crystal_description 'block'
_diffrn_ambient_temperature 293
_refine_special_details
;
O7' and O7 disordered over two sites with occupancies 0.810:0.190.

;
#These two values have been output from a single CSD field.
_refine_ls_R_factor_gt 0.0382
_refine_ls_wR_factor_gt 0.0382
_symmetry_cell_setting triclinic
_symmetry_space_group_name_H-M 'P -1'
_symmetry_Int_Tables_number 2
loop_
_symmetry_equiv_pos_site_id
_symmetry_equiv_pos_as_xyz
1 x,y,z
2 -x,-y,-z
_cell_length_a 8.8351(5)
_cell_length_b 13.1492(6)
_cell_length_c 14.7094(8)
_cell_angle_alpha 85.491(4)
_cell_angle_beta 84.285(5)
_cell_angle_gamma 72.413(4)
_cell_formula_units_Z 1
loop_
_atom_type_symbol
_atom_type_radius_bond
C 0.68
H 0.23
Ag 1.45
N 0.68
O 0.68
loop_
_atom_site_label
_atom_site_type_symbol
_atom_site_fract_x
_atom_site_fract_y
_atom_site_fract_z
Ag1 Ag 0.14446(4) 1.04441(2) 0.48144(2)
C1 C 0.4138(4) 0.9203(3) 0.6026(2)
C2 C 0.5596(5) 0.8558(3) 0.6274(3)
H1 H 0.59015 0.85816 0.68573
C3 C 0.6603(4) 0.7877(3) 0.5658(3)
H2 H 0.75809 0.74331 0.58281
C4 C 0.6157(4) 0.7853(3) 0.4782(2)
C5 C 0.4693(4) 0.8571(3) 0.4579(3)
H3 H 0.43828 0.85978 0.39891
C6 C 0.7146(4) 0.7085(3) 0.4117(3)
C7 C 0.8138(4) 0.6105(3) 0.4424(3)
H4 H 0.81841 0.59457 0.50494
C8 C 0.9049(4) 0.5366(3) 0.3825(3)
H5 H 0.96816 0.47134 0.40540
C9 C 0.9045(4) 0.5573(3) 0.2894(3)
C10 C 0.8039(5) 0.6543(3) 0.2583(3)
H6 H 0.79898 0.66972 0.19564
C11 C 0.7114(5) 0.7283(3) 0.3181(3)
H7 H 0.64570 0.79269 0.29512
C12 C 0.2920(5) 0.9865(3) 0.6733(3)
C13 C 1.0100(4) 0.4750(3) 0.2249(3)
C14 C -0.1352(5) 1.2283(3) 0.4012(3)
H8 H -0.09584 1.19181 0.34809
C15 C -0.2631(6) 1.3149(3) 0.3961(4)
H9 H -0.30938 1.33601 0.34097
C16 C -0.3241(5) 1.3710(3) 0.4702(4)
C17 C -0.2529(6) 1.3366(4) 0.5505(4)
H10 H -0.29273 1.37337 0.60334
C18 C -0.1174(5) 1.2441(3) 0.5522(3)
H11 H -0.06867 1.22104 0.60645
C19 C -0.4738(7) 1.4738(4) 0.4578(3)
H12 H -0.44532 1.52307 0.41161
H13 H -0.56015 1.45265 0.43700
N1 N 0.3710(3) 0.9224(2) 0.5179(2)
N2 N -0.0602(4) 1.1905(2) 0.4773(2)
O1 O 0.1546(4) 1.0273(3) 0.6536(2)
O2 O 0.3426(5) 0.9895(3) 0.7474(2)
O3 O 1.0182(3) 0.5026(2) 0.1416(2)
O4 O 1.0819(3) 0.3862(2) 0.2603(2)
O5 O 0.1648(4) 0.9865(3) 0.3185(2)
H14 H 0.16179 1.04787 0.28510
H15 H 0.09982 0.95099 0.31471
Ag2 Ag 0.11176(4) 0.91201(2) 0.86438(2)
C20 C 0.4265(5) 0.7384(3) 0.8345(3)
H16 H 0.46493 0.79722 0.82972
C21 C 0.5333(5) 0.6392(3) 0.8226(3)
H17 H 0.64112 0.63180 0.80938
C22 C 0.4794(5) 0.5507(3) 0.8303(3)
C23 C 0.3192(5) 0.5671(3) 0.8503(3)
H18 H 0.27859 0.50921 0.85691
C24 C 0.2183(5) 0.6689(3) 0.8607(3)
H19 H 0.10996 0.67811 0.87372
C25 C 0.5918(5) 0.4391(3) 0.8200(3)
H20 H 0.54434 0.39864 0.78522
H21 H 0.69041 0.44292 0.78648
C26 C 0.6270(5) 0.3830(3) 0.9123(3)
H22 H 0.52824 0.37966 0.94583
H23 H 0.67468 0.42352 0.94689
C27 C 0.7390(5) 0.2710(3) 0.9029(3)
C28 C 0.8949(6) 0.2541(3) 0.8759(4)
H24 H 0.93481 0.31198 0.86372
C29 C 0.9957(5) 0.1514(3) 0.8662(4)
H25 H 1.10214 0.14244 0.84679
C30 C 0.7975(6) 0.0824(3) 0.9097(4)
H26 H 0.76042 0.02331 0.92235
C31 C 0.6898(6) 0.1830(3) 0.9198(4)
H27 H 0.58355 0.18998 0.93832
N3 N 0.2700(4) 0.7546(2) 0.8528(2)
N4 N 0.9476(4) 0.0661(2) 0.8833(2)
O6 O 0.1582(4) 0.1765(2) 0.2099(2)
H28 H 0.13284 0.24121 0.22482
H29 H 0.20796 0.17337 0.15430
O7? O 0.482(3) 0.0671(17) 0.8524(16)
H30? H 0.53716 0.01246 0.87863
H31? H 0.44157 0.04689 0.81575
O8 O 0.4124(6) 0.0120(4) 0.9114(4)
H32 H 0.39061 0.00567 0.86009
H33 H 0.48801 -0.03499 0.92705
O9 O 0.1700(4) 0.3773(2) -0.0019(2)
H34 H 0.11252 0.41516 -0.04683
H35 H 0.12133 0.41544 0.04397
O10 O 0.3070(5) 0.1648(3) 0.0305(3)
H36 H 0.26465 0.23210 0.02148
H37 H 0.33815 0.11910 -0.00560
C14A C -0.8648(5) 1.7717(3) 0.5988(3)
H8A H -0.90416 1.80819 0.65191
C15A C -0.7369(6) 1.6851(3) 0.6039(4)
H9A H -0.69062 1.66399 0.65903
C16A C -0.6759(5) 1.6290(3) 0.5298(4)
C17A C -0.7471(6) 1.6634(4) 0.4495(4)
H10A H -0.70727 1.62663 0.39666
C18A C -0.8826(5) 1.7559(3) 0.4478(3)
H11A H -0.93133 1.77896 0.39355
C19A C -0.5262(7) 1.5262(4) 0.5422(3)
H12A H -0.55468 1.47693 0.58839
H13A H -0.43985 1.54735 0.56300
N2A N -0.9398(4) 1.8095(2) 0.5227(2)
Ag1A Ag -1.14446(4) 1.95559(2) 0.51856(2)
C1A C -1.4138(4) 2.0797(3) 0.3974(2)
C2A C -1.5596(5) 2.1442(3) 0.3726(3)
H1A H -1.59015 2.14184 0.31427
C3A C -1.6603(4) 2.2123(3) 0.4342(3)
H2A H -1.75809 2.25669 0.41719
C4A C -1.6157(4) 2.2147(3) 0.5218(2)
C5A C -1.4693(4) 2.1429(3) 0.5421(3)
H3A H -1.43829 2.14022 0.60109
C6A C -1.7146(4) 2.2915(3) 0.5883(3)
C7A C -1.8138(4) 2.3895(3) 0.5576(3)
H4A H -1.81841 2.40543 0.49506
C8A C -1.9049(4) 2.4634(3) 0.6175(3)
H5A H -1.96816 2.52866 0.59460
C9A C -1.9045(4) 2.4427(3) 0.7106(3)
C10A C -1.8039(5) 2.3457(3) 0.7417(3)
H6A H -1.79898 2.33028 0.80436
C11A C -1.7114(5) 2.2717(3) 0.6819(3)
H7A H -1.64570 2.20731 0.70488
C12A C -1.2920(5) 2.0135(3) 0.3267(3)
C13A C -2.0100(4) 2.5250(3) 0.7751(3)
N1A N -1.3710(3) 2.0776(2) 0.4821(2)
O1A O -1.1546(4) 1.9727(3) 0.3464(2)
O2A O -1.3426(5) 2.0105(3) 0.2526(2)
O3A O -2.0182(3) 2.4974(2) 0.8584(2)
O4A O -2.0819(3) 2.6138(2) 0.7397(2)
O5A O -1.1648(4) 2.0135(3) 0.6815(2)
H14A H -1.16179 1.95213 0.71490
H15A H -1.09982 2.04901 0.68529
Ag1* Ag -0.85554(4) 2.04441(2) 0.48144(2)
Ag1A* Ag -0.14446(4) 0.95559(2) 0.51856(2)
Ag2* Ag 1.11176(4) -0.08799(2) 0.86438(2)
N4* N -0.0524(4) 1.0661(2) 0.8833(2)
#END
