
#######################################################################
#
#                 Cambridge Crystallographic Data Centre
#                                CCDC
#
#######################################################################
#
# If this CIF has been generated from an entry in the Cambridge
# Structural Database, then it will include bibliographic, chemical,
# crystal, experimental, refinement or atomic coordinate data resulting
# from the CCDC's data processing and validation procedures.
#
#######################################################################

data_CSD_CIF_PIMKII
_audit_creation_date 2018-07-26
_audit_creation_method CSD-ConQuest-V1
_database_code_CSD PIMKII
_database_code_depnum_ccdc_archive 'CCDC 1830398'
_chemical_formula_sum 'C52 H48 Co2 N4 O20'
_chemical_formula_moiety
;
(C32 H16 Co2 O16 4-)n,4(C5 H8 N1 O1 1+)
;
_journal_coden_Cambridge 1267
_journal_volume 233
_journal_year 2018
_journal_page_first 705
_journal_name_full 'Z.Kristallogr.-New Cryst.Struct. '
loop_
_publ_author_name
"M.A.Said"
"D.L.Hughes"
"R.A.Shiekh"
_chemical_name_systematic
;
catena-[tetrakis((furan-2-yl)methanaminium) 
tetrakis(\m-2-carboxylatobenzoato)-di-cobalt]
;
_cell_volume  10071.201
_exptl_crystal_colour 'purple'
_exptl_crystal_density_diffrn 1.539
_exptl_crystal_description 'prism'
_diffrn_ambient_temperature 140
#These two values have been output from a single CSD field.
_refine_ls_R_factor_gt 0.0515
_refine_ls_wR_factor_gt 0.0515
_symmetry_cell_setting monoclinic
_symmetry_space_group_name_H-M 'F 2/d'
_symmetry_Int_Tables_number 15
loop_
_symmetry_equiv_pos_site_id
_symmetry_equiv_pos_as_xyz
1 x,y,z
2 3/4-x,y,1/4-z
3 x,1/2+y,1/2+z
4 3/4-x,1/2+y,3/4-z
5 1/2+x,y,1/2+z
6 1/4-x,y,3/4-z
7 1/2+x,1/2+y,z
8 1/4-x,1/2+y,1/4-z
9 -x,-y,-z
10 -3/4+x,-y,-1/4+z
11 -x,-1/2-y,-1/2-z
12 -3/4+x,-1/2-y,-3/4+z
13 -1/2-x,-y,-1/2-z
14 -1/4+x,-y,-3/4+z
15 -1/2-x,-1/2-y,-z
16 -1/4+x,-1/2-y,-1/4+z
_cell_length_a 23.7125(7)
_cell_length_b 10.7325(4)
_cell_length_c 39.5740(15)
_cell_angle_alpha 90
_cell_angle_beta 90.324(3)
_cell_angle_gamma 90
_cell_formula_units_Z 8
loop_
_atom_type_symbol
_atom_type_radius_bond
C 0.68
H 0.23
Co 1.26
N 0.68
O 0.68
loop_
_atom_site_label
_atom_site_type_symbol
_atom_site_fract_x
_atom_site_fract_y
_atom_site_fract_z
Co1 Co 0.12500 0.05415(4) 0.37500
O1 O 0.24729(7) 0.53507(15) 0.34884(5)
O2 O 0.18789(6) 0.68088(14) 0.36768(5)
O3 O 0.19255(6) 0.95690(14) 0.36320(4)
O4 O 0.20981(7) 0.90366(15) 0.41709(5)
C1 C 0.28453(9) 0.7346(2) 0.36133(6)
C2 C 0.27794(9) 0.8526(2) 0.37562(6)
C3 C 0.32501(9) 0.9282(2) 0.38051(7)
H1 H 0.32080 1.00610 0.39050
C4 C 0.37793(9) 0.8889(2) 0.37076(7)
H2 H 0.40920 0.93960 0.37450
C5 C 0.38447(9) 0.7735(2) 0.35530(7)
H3 H 0.41990 0.74750 0.34820
C6 C 0.33781(9) 0.6976(2) 0.35060(6)
H4 H 0.34210 0.62060 0.34010
C7 C 0.23643(9) 0.6425(2) 0.35871(6)
C8 C 0.22204(9) 0.9048(2) 0.38693(7)
Co2 Co 0.12500 0.56179(4) 0.37500
O5 O 0.14462(8) 0.59314(15) 0.44599(5)
O6 O 0.14190(6) 0.43533(14) 0.40997(4)
O7 O 0.22072(6) 0.20987(15) 0.40992(4)
O8 O 0.13054(6) 0.15257(14) 0.41659(4)
C9 C 0.16462(9) 0.3907(2) 0.46715(6)
C10 C 0.17441(9) 0.2638(2) 0.46111(6)
C11 C 0.18453(9) 0.1842(2) 0.48830(7)
H5 H 0.18980 0.09960 0.48440
C12 C 0.18687(10) 0.2291(2) 0.52088(7)
H6 H 0.19340 0.17490 0.53880
C13 C 0.17944(10) 0.3558(2) 0.52693(7)
H7 H 0.18210 0.38710 0.54880
C14 C 0.16811(10) 0.4341(2) 0.50029(7)
H8 H 0.16260 0.51850 0.50450
C15 C 0.14978(9) 0.4808(2) 0.43950(7)
C16 C 0.17643(9) 0.2081(2) 0.42621(6)
C17 C 0.11892(10) 0.8790(2) 0.24805(7)
O9 O 0.13347(8) 0.92975(17) 0.21765(5)
C18 C 0.09470(13) 0.8844(3) 0.19478(8)
H9 H 0.09430 0.90390 0.17190
C19 C 0.05798(13) 0.8093(3) 0.20961(8)
H10 H 0.02800 0.76770 0.19940
C20 C 0.07377(11) 0.8052(3) 0.24450(7)
H11 H 0.05610 0.75990 0.26150
C21 C 0.15667(10) 0.9121(2) 0.27670(7)
H12 H 0.19560 0.89630 0.27060
H13 H 0.15280 1.00000 0.28190
N1 N 0.1416(1) 0.8367(2) 0.30670(6)
H14 H 0.1643(11) 0.850(2) 0.3227(8)
H15 H 0.1386(13) 0.749(3) 0.3034(9)
H16 H 0.1067(12) 0.860(3) 0.3148(8)
C22 C 0.25633(10) 0.2648(2) 0.28600(7)
O10 O 0.21454(7) 0.20441(17) 0.26820(5)
C23 C 0.21458(12) 0.2541(3) 0.23657(8)
H17 H 0.19040 0.23020 0.21920
C24 C 0.25403(13) 0.3417(3) 0.23400(8)
H18 H 0.26200 0.38920 0.21500
C25 C 0.28198(12) 0.3488(2) 0.26626(8)
H19 H 0.31180 0.40090 0.27220
C26 C 0.26264(10) 0.2285(2) 0.32183(7)
H20 H 0.30000 0.25160 0.32970
H21 H 0.25910 0.13880 0.32380
N2 N 0.21949(9) 0.28956(19) 0.34363(6)
H22 H 0.2208(10) 0.260(2) 0.3654(7)
H23 H 0.2267(14) 0.392(3) 0.3464(10)
H24 H 0.1857(13) 0.274(3) 0.3371(8)
O1E O 0.00271(7) 0.53507(15) 0.40116(5)
O2E O 0.06211(6) 0.68088(14) 0.38232(5)
O3E O 0.05745(6) 0.95690(14) 0.38680(4)
O4E O 0.04019(7) 0.90366(15) 0.33291(5)
C1E C -0.03453(9) 0.7346(2) 0.38867(6)
C2E C -0.02794(9) 0.8526(2) 0.37438(6)
C3E C -0.07501(9) 0.9282(2) 0.36949(7)
H1E H -0.07080 1.00610 0.35950
C4E C -0.12793(9) 0.8889(2) 0.37924(7)
H2E H -0.15920 0.93960 0.37550
C5E C -0.13447(9) 0.7735(2) 0.39470(7)
H3E H -0.16990 0.74750 0.40180
C6E C -0.08781(9) 0.6976(2) 0.39940(6)
H4E H -0.09210 0.62060 0.40990
C7E C 0.01357(9) 0.6425(2) 0.39129(6)
C8E C 0.02796(9) 0.9048(2) 0.36307(7)
O5E O 0.10538(8) 0.59314(15) 0.30401(5)
O6E O 0.10810(6) 0.43533(14) 0.34003(4)
O7E O 0.02928(6) 0.20987(15) 0.34008(4)
O8E O 0.11946(6) 0.15257(14) 0.33341(4)
C9E C 0.08538(9) 0.3907(2) 0.28285(6)
C10E C 0.07559(9) 0.2638(2) 0.28889(6)
C11E C 0.06547(9) 0.1842(2) 0.26170(7)
H5E H 0.06020 0.09960 0.26560
C12E C 0.06313(10) 0.2291(2) 0.22912(7)
H6E H 0.05660 0.17490 0.21120
C13E C 0.07056(10) 0.3558(2) 0.22307(7)
H7E H 0.06790 0.38710 0.20120
C14E C 0.08189(10) 0.4341(2) 0.24971(7)
H8E H 0.08740 0.51850 0.24550
C15E C 0.10022(9) 0.4808(2) 0.31050(7)
C16E C 0.07357(9) 0.2081(2) 0.32379(6)
Co1* Co 0.12500 1.05415(4) 0.37500
O3* O 0.19255(6) -0.04310(14) 0.36320(4)
O3E* O 0.05745(6) -0.04310(14) 0.38680(4)
#END
