
#######################################################################
#
#                 Cambridge Crystallographic Data Centre
#                                CCDC
#
#######################################################################
#
# If this CIF has been generated from an entry in the Cambridge
# Structural Database, then it will include bibliographic, chemical,
# crystal, experimental, refinement or atomic coordinate data resulting
# from the CCDC's data processing and validation procedures.
#
#######################################################################

data_CSD_CIF_PIPKUX
_audit_creation_date 2018-12-14
_audit_creation_method CSD-ConQuest-V1
_database_code_CSD PIPKUX
_database_code_depnum_ccdc_archive 'CCDC 1866407'
_chemical_formula_sum 'C70 H106 Cu8 I8 In3 N14 O33'
_chemical_formula_moiety
;
(C48 H38 Cu8 I8 In3 N8 O20 1-)n,C2 H7 N1 1+,5(C4 H9 N1 O1),8(H2 O1)
;
_journal_coden_Cambridge 9
_journal_volume 58
_journal_year 2019
_journal_page_first 516
_journal_name_full 'Inorg.Chem. '
loop_
_publ_author_name
"Jin-Hua Liu"
"Yan-Jie Qi"
"Dan Zhao"
"Hao-Hong Li"
"Shou-Tian Zheng"
_chemical_name_systematic
;
catena-[dimethylmmonium 
octakis(\m-pyridine-4-carboxylato)-octakis(\m-iodo)-bis(\m-hydoxo)-diaqua-octa
-copper-tri-indium N,N-dimethylacetamide octahydrate]
;
_cell_volume  18959.640
_exptl_crystal_colour 'pale yellow'
_exptl_crystal_density_diffrn 1.021
_exptl_crystal_description 'rectangle'
_diffrn_ambient_temperature 175
_refine_special_details
;
The SQUEEZE/PLATON program has been used to model some disorder.

;
#These two values have been output from a single CSD field.
_refine_ls_R_factor_gt 0.0679
_refine_ls_wR_factor_gt 0.0679
_symmetry_cell_setting orthorhombic
_symmetry_space_group_name_H-M 'P b c n'
_symmetry_Int_Tables_number 60
loop_
_symmetry_equiv_pos_site_id
_symmetry_equiv_pos_as_xyz
1 x,y,z
2 1/2-x,1/2-y,1/2+z
3 -x,y,1/2-z
4 1/2+x,1/2-y,-z
5 -x,-y,-z
6 -1/2+x,-1/2+y,-1/2-z
7 x,-y,-1/2+z
8 -1/2-x,-1/2+y,z
_cell_length_a 15.7352(6)
_cell_length_b 32.9364(11)
_cell_length_c 36.5832(11)
_cell_angle_alpha 90
_cell_angle_beta 90
_cell_angle_gamma 90
_cell_formula_units_Z 4
loop_
_atom_type_symbol
_atom_type_radius_bond
C 0.68
H 0.23
Cu 1.32
I 1.40
In 1.42
N 0.68
O 0.68
loop_
_atom_site_label
_atom_site_type_symbol
_atom_site_fract_x
_atom_site_fract_y
_atom_site_fract_z
C1 C -0.4630(9) 0.8012(4) 0.1872(3)
C2 C -0.4051(9) 0.7653(4) 0.1780(4)
C3 C -0.0224(7) 0.4227(3) 0.18434(19)
C4 C -0.0500(7) 0.4638(2) 0.1725(2)
C5 C -0.0965(7) 0.4890(3) 0.1951(3)
H1 H -0.11450 0.48000 0.21790
C6 C -0.4170(7) 0.7432(3) 0.1461(2)
H2 H -0.46220 0.74880 0.13050
C7 C -0.1159(6) 0.5278(3) 0.1832(3)
H3 H -0.14820 0.54400 0.19880
C8 C -0.0285(7) 0.4796(3) 0.1396(2)
H4 H 0.00030 0.46340 0.12290
C9 C -0.0476(8) 0.5188(3) 0.1300(2)
H5 H -0.02890 0.52870 0.10750
C10 C 0.2560(6) 0.7948(3) 0.1911(2)
C11 C 0.1883(7) 0.7645(3) 0.1817(2)
C12 C -0.3445(7) 0.7536(3) 0.2015(2)
H6 H -0.33800 0.76660 0.22390
C13 C -0.2918(7) 0.7219(3) 0.1919(2)
H7 H -0.24990 0.71420 0.20840
C14 C -0.3604(7) 0.7132(3) 0.1383(3)
H8 H -0.36580 0.69980 0.11610
C15 C 0.0810(8) 0.7163(4) 0.1963(2)
H9 H 0.05310 0.70170 0.21450
C16 C 0.1027(8) 0.7339(4) 0.1373(3)
H10 H 0.08580 0.73330 0.11290
C17 C 0.1680(11) 0.7563(5) 0.1458(4)
H11 H 0.20160 0.76700 0.12730
C18 C 0.1439(8) 0.7418(4) 0.2064(3)
H12 H 0.15750 0.74400 0.23100
C19 C -0.1184(11) 0.6193(3) -0.08233(19)
C20 C -0.1203(6) 0.6059(3) 0.01552(18)
H13 H -0.12160 0.58610 0.03370
C21 C -0.1199(7) 0.5943(3) -0.0208(2)
H14 H -0.12160 0.56690 -0.02700
C22 C -0.1149(14) 0.6755(3) -0.0020(3)
H15 H -0.11650 0.70290 0.00420
C23 C -0.1171(9) 0.6237(4) -0.04799(17)
C24 C -0.1087(11) 0.6639(3) -0.0381(3)
H16 H -0.09870 0.68340 -0.05600
H17 H 0.16000 0.36130 0.23180
H18 H 0.20340 0.42670 0.15970
H19 H 0.26790 0.39440 0.16090
N1 N -0.2970(6) 0.7017(3) 0.1608(2)
N2 N 0.0566(6) 0.7108(3) 0.16192(18)
N3 N -0.0928(5) 0.5435(2) 0.15218(18)
N4 N -0.1188(5) 0.6463(3) 0.0251(2)
O1 O -0.5198(4) 0.81005(16) 0.16498(12)
O2 O 0.0203(5) 0.40315(17) 0.16260(15)
O3 O -0.0465(4) 0.41289(19) 0.21599(16)
O4 O -0.4448(5) 0.81820(19) 0.21609(15)
O5 O 0.1133(3) 0.36154(15) 0.22179(12)
O6 O 0.2914(5) 0.8120(3) 0.16498(16)
O7 O -0.1118(4) 0.64481(18) -0.10746(12)
O8 O 0.2150(7) 0.4020(3) 0.1623(2)
O9 O -0.1318(11) 0.5838(4) -0.0930(5)
O10 O 0.2695(5) 0.7989(2) 0.22394(15)
Cu1 Cu -0.10730(9) 0.60219(3) 0.13817(3)
Cu2 Cu -0.11808(10) 0.65150(4) 0.08277(3)
Cu3 Cu -0.20249(9) 0.66584(4) 0.14350(3)
Cu4 Cu -0.03804(9) 0.67463(4) 0.14420(3)
I1 I -0.11294(4) 0.64391(2) 0.20256(2)
I2 I -0.25497(5) 0.60660(2) 0.10184(2)
I3 I 0.03403(5) 0.61986(2) 0.09974(2)
I4 I -0.12781(6) 0.72764(2) 0.10256(2)
In1 In 0.00000 0.36439(2) 0.25000
In2 In 0.11601(4) 0.35660(2) 0.16443(2)
C1B C 0.4630(9) 0.8012(4) 0.3128(3)
C2B C 0.4051(9) 0.7653(4) 0.3220(4)
C3B C 0.0224(7) 0.4227(3) 0.31566(19)
C4B C 0.0500(7) 0.4638(2) 0.3275(2)
C5B C 0.0965(7) 0.4890(3) 0.3049(3)
H1B H 0.11450 0.48000 0.28210
C6B C 0.4170(7) 0.7432(3) 0.3539(2)
H2B H 0.46220 0.74880 0.36950
C7B C 0.1159(6) 0.5278(3) 0.3168(3)
H3B H 0.14820 0.54400 0.30120
C8B C 0.0285(7) 0.4796(3) 0.3604(2)
H4B H -0.00030 0.46340 0.37710
C9B C 0.0476(8) 0.5188(3) 0.3700(2)
H5B H 0.02890 0.52870 0.39250
C10B C -0.2560(6) 0.7948(3) 0.3089(2)
C11B C -0.1883(7) 0.7645(3) 0.3183(2)
C12B C 0.3445(7) 0.7536(3) 0.2985(2)
H6B H 0.33800 0.76660 0.27610
C13B C 0.2918(7) 0.7219(3) 0.3081(2)
H7B H 0.24990 0.71420 0.29160
C14B C 0.3604(7) 0.7132(3) 0.3617(3)
H8B H 0.36580 0.69980 0.38390
C15B C -0.0810(8) 0.7163(4) 0.3037(2)
H9B H -0.05310 0.70170 0.28550
C16B C -0.1027(8) 0.7339(4) 0.3627(3)
H10B H -0.08580 0.73330 0.38710
C17B C -0.1680(11) 0.7563(5) 0.3542(4)
H11B H -0.20160 0.76700 0.37270
C18B C -0.1439(8) 0.7418(4) 0.2936(3)
H12B H -0.15750 0.74400 0.26900
C19B C 0.1184(11) 0.6193(3) 0.58233(19)
C20B C 0.1203(6) 0.6059(3) 0.48448(18)
H13B H 0.12160 0.58610 0.46630
C21B C 0.1199(7) 0.5943(3) 0.5208(2)
H14B H 0.12160 0.56690 0.52700
C22B C 0.1149(14) 0.6755(3) 0.5020(3)
H15B H 0.11650 0.70290 0.49580
C23B C 0.1171(9) 0.6237(4) 0.54799(17)
C24B C 0.1087(11) 0.6639(3) 0.5381(3)
H16B H 0.09870 0.68340 0.55600
H17B H -0.16000 0.36130 0.26820
H18B H -0.20340 0.42670 0.34030
H19B H -0.26790 0.39440 0.33910
N1B N 0.2970(6) 0.7017(3) 0.3392(2)
N2B N -0.0566(6) 0.7108(3) 0.33808(18)
N3B N 0.0928(5) 0.5435(2) 0.34782(18)
N4B N 0.1188(5) 0.6463(3) 0.4749(2)
O1B O 0.5198(4) 0.81005(16) 0.33502(12)
O2B O -0.0203(5) 0.40315(17) 0.33740(15)
O3B O 0.0465(4) 0.41289(19) 0.28401(16)
O4B O 0.4448(5) 0.81820(19) 0.28391(15)
O5B O -0.1133(3) 0.36154(15) 0.27821(12)
O6B O -0.2914(5) 0.8120(3) 0.33502(16)
O7B O 0.1118(4) 0.64481(18) 0.60746(12)
O8B O -0.2150(7) 0.4020(3) 0.3377(2)
O9B O 0.1318(11) 0.5838(4) 0.5930(5)
O10B O -0.2695(5) 0.7989(2) 0.27606(15)
Cu1B Cu 0.10730(9) 0.60219(3) 0.36183(3)
Cu2B Cu 0.11808(10) 0.65150(4) 0.41723(3)
Cu3B Cu 0.20249(9) 0.66584(4) 0.35650(3)
Cu4B Cu 0.03804(9) 0.67463(4) 0.35580(3)
I1B I 0.11294(4) 0.64391(2) 0.29744(2)
I2B I 0.25497(5) 0.60660(2) 0.39816(2)
I3B I -0.03403(5) 0.61986(2) 0.40026(2)
I4B I 0.12781(6) 0.72764(2) 0.39744(2)
In2B In -0.11601(4) 0.35660(2) 0.33557(2)
O1E O -0.0198(4) 0.31005(16) 0.33502(12)
O1G O 0.0198(4) 0.31005(16) 0.16498(12)
O4E O 0.0552(5) 0.31820(19) 0.28391(15)
O4G O -0.0552(5) 0.31820(19) 0.21609(15)
O6E O -0.2086(5) 0.3120(3) 0.33502(16)
O6G O 0.2086(5) 0.3120(3) 0.16498(16)
O7D O 0.1118(4) 0.35519(18) 0.10746(12)
O7F O -0.1118(4) 0.35519(18) 0.39254(12)
In1E In -0.50000 0.86439(2) 0.25000
In1E* In 0.50000 0.86439(2) 0.25000
In2D In -0.11601(4) 0.64340(2) -0.16443(2)
In2E In -0.38399(4) 0.85660(2) 0.33557(2)
In2E* In 0.61601(4) 0.85660(2) 0.33557(2)
In2F In 0.11601(4) 0.64340(2) 0.66443(2)
In2G In -0.61601(4) 0.85660(2) 0.16443(2)
In2G* In 0.38399(4) 0.85660(2) 0.16443(2)
#END
