
#######################################################################
#
#                 Cambridge Crystallographic Data Centre
#                                CCDC
#
#######################################################################
#
# If this CIF has been generated from an entry in the Cambridge
# Structural Database, then it will include bibliographic, chemical,
# crystal, experimental, refinement or atomic coordinate data resulting
# from the CCDC's data processing and validation procedures.
#
#######################################################################

data_CSD_CIF_PIQFIG
_audit_creation_date 2013-12-11
_audit_creation_method CSD-ConQuest-V1
_database_code_CSD PIQFIG
_database_code_depnum_ccdc_archive 'CCDC 940466'
_chemical_formula_sum 'C49 H42 Cr2 Mn4 N6 O31'
_chemical_formula_moiety
;
(C32 H32 Mn2 N4 O6 2+)n,n(C12 Cr2 Mn2 O24 2-),n(C1 H4 O1),2n(C2 H3 N1)
;
_journal_coden_Cambridge 1220
_journal_volume 20
_journal_year 2014
_journal_page_first 1669
_journal_name_full 'Chem.-Eur.J. '
loop_
_publ_author_name
"M.Clemente-Leon"
"E.Coronado"
"C.J.Gomez-Garcia"
"M.Lopez-Jorda"
"A.Camon"
"A.Repolles"
"F.Luis"
_chemical_name_systematic
;
catena-(diaqua-bis(\m-2,2'-(ethane-1,2-diylbis((nitrilo)methylylidene))dipheno
lato)-di-manganese(iii) hexakis(\m-oxalato)-di-manganese(ii)-di-chromium(iii) 
methanol acetonitrile solvate)
;
_cell_volume   7094.912
_exptl_crystal_colour 'red'
_exptl_crystal_density_diffrn 1.424
_exptl_crystal_description 'plate'
_diffrn_ambient_temperature 120
_refine_special_details
;
Cr1 and Mn1 disordered over two sites with occupancies 0.5:0.5; Cr2 and Mn2 
disordered over two sites with occupancies 0.5:0.5.
;
#These two values have been output from a single CSD field.
_refine_ls_R_factor_gt 0.0721
_refine_ls_wR_factor_gt 0.0721
_symmetry_cell_setting monoclinic
_symmetry_space_group_name_H-M 'C 2/c'
_symmetry_Int_Tables_number 15
loop_
_symmetry_equiv_pos_site_id
_symmetry_equiv_pos_as_xyz
1 x,y,z
2 -x,y,1/2-z
3 1/2+x,1/2+y,z
4 1/2-x,1/2+y,1/2-z
5 -x,-y,-z
6 x,-y,-1/2+z
7 -1/2-x,-1/2-y,-z
8 -1/2+x,-1/2-y,-1/2+z
_cell_length_a 21.7633(5)
_cell_length_b 14.1958(4)
_cell_length_c 22.9649(7)
_cell_angle_alpha 90
_cell_angle_beta 90.182(3)
_cell_angle_gamma 90
_cell_formula_units_Z 4
loop_
_atom_type_symbol
_atom_type_radius_bond
C 0.68
H 0.23
Cr 1.39
Mn 1.61
N 0.68
O 0.68
loop_
_atom_site_label
_atom_site_type_symbol
_atom_site_fract_x
_atom_site_fract_y
_atom_site_fract_z
C1 C 0.8100(2) 0.9045(4) 0.0038(2)
C2 C 0.8208(3) 0.9722(4) 0.0466(3)
H1 H 0.79160 0.98040 0.07680
C3 C 0.8733(3) 1.0280(5) 0.0460(3)
H2 H 0.88020 1.07280 0.07610
C4 C 0.9148(3) 1.0184(5) 0.0024(3)
H3 H 0.95080 1.05640 0.00170
C5 C 0.9044(2) 0.9530(4) -0.0409(2)
H4 H 0.93370 0.94640 -0.07110
C6 C 0.8520(2) 0.8960(4) -0.0416(2)
C7 C 0.8441(2) 0.8259(4) -0.0876(2)
H5 H 0.87810 0.81440 -0.11240
C8 C 0.7897(3) 0.7051(4) -0.1423(2)
H6 H 0.79360 0.64200 -0.12440
H7 H 0.82300 0.71290 -0.17110
C9 C 0.7270(3) 0.7146(5) -0.1723(2)
H8 H 0.72730 0.76840 -0.19970
H9 H 0.71730 0.65660 -0.19440
C10 C 0.6255(3) 0.7032(5) -0.1347(2)
H10 H 0.61650 0.66990 -0.16960
C11 C 0.5769(3) 0.7192(5) -0.0960(3)
C12 C 0.5172(3) 0.6877(6) -0.1135(3)
H11 H 0.51230 0.65490 -0.14930
C13 C 0.4678(3) 0.7041(6) -0.0796(3)
H12 H 0.42800 0.68390 -0.09120
C14 C 0.4768(3) 0.7516(5) -0.0268(3)
H13 H 0.44220 0.76270 -0.00270
C15 C 0.5340(2) 0.7834(4) -0.0082(3)
H14 H 0.53800 0.81520 0.02800
C16 C 0.5852(2) 0.7684(4) -0.0428(2)
N1 N 0.79438(19) 0.7784(3) -0.09718(17)
N2 N 0.6811(2) 0.7300(4) -0.12675(19)
O1 O 0.76105(15) 0.8468(3) 0.00882(15)
O2 O 0.63927(15) 0.8006(3) -0.02317(15)
Mn1 Mn 0.71591(3) 0.79710(6) -0.05730(3)
O3 O 0.69869(18) 0.9369(3) -0.09531(19)
C17 C 0.8103(2) 0.0620(4) 0.8415(2)
C18 C 0.8463(2) 0.1391(4) 0.8092(2)
C19 C 0.6832(2) 0.3081(4) 0.7930(2)
C20 C 0.7129(2) 0.3963(4) 0.8233(2)
C21 C 0.7852(3) 0.2589(4) 1.0048(3)
C22 C 1.0035(3) -0.0469(4) 0.7837(2)
O4 O 0.77503(17) 0.0888(3) 0.88041(16)
O5 O 0.83761(19) 0.2227(3) 0.82443(17)
O6 O 0.81841(17) -0.0213(3) 0.82621(17)
O7 O 0.88041(17) 0.1106(3) 0.76979(16)
O8 O 0.70116(18) 0.2289(3) 0.81128(17)
O9 O 0.75291(17) 0.3804(3) 0.86276(17)
O10 O 0.64409(17) 0.3233(3) 0.75277(16)
O11 O 0.69437(17) 0.4752(3) 0.80524(17)
O12 O 0.81659(17) 0.2606(3) 0.9601(2)
O13 O 0.80456(17) 0.2700(3) 1.05662(19)
O14 O 0.9549(2) -0.0510(3) 0.81134(17)
O15 O 1.0580(2) -0.0409(3) 0.80469(17)
Cr1 Cr 0.87681(4) -0.03535(6) 0.75790(4)
Mn2 Mn 0.76524(4) 0.23741(6) 0.88278(4)
C23 C 0.635(1) 0.9316(15) 0.7978(9)
O16 O 0.6554(11) 0.9744(18) 0.7512(11)
C24 C 0.5554(16) 1.211(2) 0.8547(14)
C25 C 0.5032(13) 1.1915(19) 0.8398(11)
N3 N 0.4559(13) 1.1751(19) 0.8443(11)
C26 C 0.432(2) 0.997(4) 0.895(2)
C27 C 0.3956(19) 0.993(3) 0.9350(19)
N4 N 0.3681(7) 0.9801(11) 0.9704(7)
Mn3? Mn 0.87681(4) -0.03535(6) 0.75790(4)
Cr2? Cr 0.76524(4) 0.23741(6) 0.88278(4)
C1F C 0.6900(2) 0.5955(4) -0.0038(2)
C2F C 0.6792(3) 0.5278(4) -0.0466(3)
H1F H 0.70840 0.51960 -0.07680
C3F C 0.6267(3) 0.4720(5) -0.0460(3)
H2F H 0.61980 0.42720 -0.07610
C4F C 0.5852(3) 0.4816(5) -0.0024(3)
H3F H 0.54920 0.44360 -0.00170
C5F C 0.5956(2) 0.5470(4) 0.0409(2)
H4F H 0.56630 0.55360 0.07110
C6F C 0.6480(2) 0.6040(4) 0.0416(2)
C7F C 0.6559(2) 0.6741(4) 0.0876(2)
H5F H 0.62190 0.68560 0.11240
C8F C 0.7103(3) 0.7949(4) 0.1423(2)
H6F H 0.70640 0.85800 0.12440
H7F H 0.67700 0.78710 0.17110
C9F C 0.7730(3) 0.7854(5) 0.1723(2)
H8F H 0.77270 0.73160 0.19970
H9F H 0.78270 0.84340 0.19440
C10F C 0.8745(3) 0.7968(5) 0.1347(2)
H10F H 0.88350 0.83010 0.16960
C11F C 0.9231(3) 0.7808(5) 0.0960(3)
C12F C 0.9828(3) 0.8123(6) 0.1135(3)
H11F H 0.98770 0.84510 0.14930
C13F C 1.0322(3) 0.7959(6) 0.0796(3)
H12F H 1.07200 0.81610 0.09120
C14F C 1.0232(3) 0.7484(5) 0.0268(3)
H13F H 1.05780 0.73730 0.00270
C15F C 0.9660(2) 0.7166(4) 0.0082(3)
H14F H 0.96200 0.68480 -0.02800
C16F C 0.9148(2) 0.7316(4) 0.0428(2)
N1F N 0.70562(19) 0.7216(3) 0.09718(17)
N2F N 0.8189(2) 0.7700(4) 0.12675(19)
O1F O 0.73895(15) 0.6532(3) -0.00882(15)
O2F O 0.86073(15) 0.6994(3) 0.02317(15)
Mn1F Mn 0.78409(3) 0.70290(6) 0.05730(3)
O3F O 0.80131(18) 0.5631(3) 0.09531(19)
C21F C 0.7148(3) 0.2411(4) 0.9952(3)
O12F O 0.68341(17) 0.2394(3) 1.0399(2)
O13F O 0.69544(17) 0.2300(3) 0.94338(19)
C22A C 0.9965(3) -0.0469(4) 0.7163(2)
O14A O 1.0451(2) -0.0510(3) 0.68866(17)
O15A O 0.9420(2) -0.0409(3) 0.69531(17)
C17A C 1.1897(2) 0.0620(4) 0.6585(2)
C18A C 1.1537(2) 0.1391(4) 0.6908(2)
C19A C 1.3168(2) 0.3081(4) 0.7070(2)
C20A C 1.2871(2) 0.3963(4) 0.6767(2)
O4A O 1.22497(17) 0.0888(3) 0.61959(16)
O5A O 1.16239(19) 0.2227(3) 0.67557(17)
O6A O 1.18159(17) -0.0213(3) 0.67379(17)
O7A O 1.11959(17) 0.1106(3) 0.73021(16)
O8A O 1.29884(18) 0.2289(3) 0.68872(17)
O9A O 1.24709(17) 0.3804(3) 0.63724(17)
O10A O 1.35591(17) 0.3233(3) 0.74723(16)
O11A O 1.30563(17) 0.4752(3) 0.69476(17)
Cr1A Cr 1.12319(4) -0.03535(6) 0.74210(4)
Mn2A Mn 1.23476(4) 0.23741(6) 0.61722(4)
O10B O 1.14409(17) -0.1767(3) 0.75277(16)
O10C O 0.85591(17) -0.1767(3) 0.74723(16)
O11B O 1.19437(17) -0.0248(3) 0.80524(17)
O11C O 0.80563(17) -0.0248(3) 0.69476(17)
O12A O 1.18341(17) 0.2606(3) 0.5399(2)
O13G O 1.30456(17) 0.2300(3) 0.55662(19)
Cr1B Cr 1.37681(4) 0.46465(6) 0.75790(4)
Cr1C Cr 0.62319(4) 0.46465(6) 0.74210(4)
Mn2F Mn 0.73476(4) 0.26259(6) 1.11722(4)
#END
