
#######################################################################
#
#                 Cambridge Crystallographic Data Centre
#                                CCDC
#
#######################################################################
#
# If this CIF has been generated from an entry in the Cambridge
# Structural Database, then it will include bibliographic, chemical,
# crystal, experimental, refinement or atomic coordinate data resulting
# from the CCDC's data processing and validation procedures.
#
#######################################################################

data_CSD_CIF_PIQMUZ
_audit_creation_date 2013-12-11
_audit_creation_method CSD-ConQuest-V1
_database_code_CSD PIQMUZ
_database_code_depnum_ccdc_archive 'CCDC 976468'
_chemical_formula_sum 'C83 H72 Ce1 N4 O16.5'
_chemical_formula_moiety
;
(C78 H54 Ce1 N2 O14 1-)n,n(C2 H8 N1 1+),n(C3 H7 N1 O1),1.5n(H2 O1)
;
_journal_coden_Cambridge 9
_journal_volume 52
_journal_year 2013
_journal_page_first 12758
_journal_name_full 'Inorg.Chem. '
loop_
_publ_author_name
"Yan-Ping He"
"Yan-Xi Tan"
"Jian Zhang"
_chemical_name_systematic
;
catena-(Dimethylammonium bis(\m~2~-hydrogen 
4',4'',4'''-nitrilotribiphenyl-4-carboxylato)-diaqua-cerium dimethylformamide 
solvate sesquihydrate)
;
_cell_volume   7678.509
_exptl_crystal_colour 'yellow'
_exptl_crystal_density_diffrn 1.247
_exptl_crystal_description 'sheet'
_diffrn_ambient_temperature 293
_refine_special_details
;
The SQUEEZE/PLATON program has been used to model some disorder.

;
#These two values have been output from a single CSD field.
_refine_ls_R_factor_gt 0.0577
_refine_ls_wR_factor_gt 0.0577
_symmetry_cell_setting orthorhombic
_symmetry_space_group_name_H-M 'A b a 2'
_symmetry_Int_Tables_number 41
loop_
_symmetry_equiv_pos_site_id
_symmetry_equiv_pos_as_xyz
1 x,y,z
2 -x,-y,z
3 1/2+x,1/2-y,z
4 1/2-x,1/2+y,z
5 x,1/2+y,1/2+z
6 -x,1/2-y,1/2+z
7 1/2+x,-y,1/2+z
8 1/2-x,y,1/2+z
_cell_length_a 35.7507(7)
_cell_length_b 16.3257(3)
_cell_length_c 13.1559(3)
_cell_angle_alpha 90
_cell_angle_beta 90
_cell_angle_gamma 90
_cell_formula_units_Z 4
loop_
_atom_type_symbol
_atom_type_radius_bond
C 0.68
H 0.23
Ce 2.04
N 0.68
O 0.68
loop_
_atom_site_label
_atom_site_type_symbol
_atom_site_fract_x
_atom_site_fract_y
_atom_site_fract_z
Ce1 Ce 0.00000 0.00000 0.64079(8)
C1 C -0.25050(17) 0.3254(3) 0.8797(4)
C2 C -0.21008(15) 0.2296(3) 0.7953(4)
H1 H -0.20400 0.19950 0.73750
C3 C -0.34861(14) 0.4321(3) 1.1351(6)
C4 C -0.18715(13) 0.2240(3) 0.8827(4)
O1 O -0.38831(12) 0.7360(3) 0.2794(3)
H2 H -0.39720 0.74890 0.22420
C5 C -0.19808(14) 0.2661(3) 0.9687(4)
H3 H -0.18430 0.26030 1.02820
O2 O -0.46466(13) 0.5522(3) 1.4872(4)
C6 C -0.15190(13) 0.1750(3) 0.8784(5)
C7 C -0.33286(16) 0.4579(3) 0.6532(5)
H4 H -0.35640 0.45250 0.62370
C8 C -0.34155(16) 0.6545(3) 0.3545(4)
C9 C -0.14507(17) 0.1185(4) 0.8014(6)
H5 H -0.16320 0.10960 0.75180
C10 C -0.41907(16) 0.4764(4) 1.3912(6)
C11 C -0.08503(14) 0.0857(4) 0.8697(6)
C12 C -0.28911(16) 0.4204(3) 0.7831(5)
C13 C -0.31755(16) 0.5588(3) 0.5189(4)
O3 O -0.33729(14) 0.7077(3) 0.1862(4)
C14 C -0.24138(15) 0.2791(3) 0.7945(4)
H6 H -0.25640 0.28150 0.73690
C15 C -0.31405(15) 0.3344(3) 1.0298(4)
H7 H -0.30610 0.28090 1.01850
C16 C -0.30603(16) 0.6209(3) 0.3542(5)
H8 H -0.29010 0.62940 0.29930
C17 C -0.30342(15) 0.3959(3) 0.9629(4)
C18 C -0.39021(17) 0.4192(4) 1.3964(5)
H9 H -0.38640 0.38980 1.45610
C19 C -0.22927(14) 0.3169(3) 0.9682(4)
H10 H -0.23600 0.34520 1.02680
C20 C -0.27036(15) 0.5090(3) 0.6456(8)
H11 H -0.25180 0.53850 0.61240
C21 C -0.11178(17) 0.0754(4) 0.7974(7)
H12 H -0.10760 0.03880 0.74440
C22 C -0.35311(15) 0.5961(4) 0.5188(4)
H13 H -0.36910 0.58900 0.57380
C23 C -0.35477(17) 0.7010(3) 0.2653(4)
C24 C -0.29427(16) 0.5745(3) 0.4365(5)
H14 H -0.27010 0.55320 0.43660
C25 C -0.33648(14) 0.3519(3) 1.1136(5)
H15 H -0.34360 0.30940 1.15650
N1 N -0.28136(14) 0.3792(3) 0.8773(4)
C26 C -0.32494(15) 0.4157(3) 0.7419(5)
H16 H -0.34330 0.38460 0.77360
C27 C -0.36428(15) 0.6434(4) 0.4369(5)
H17 H -0.38770 0.66820 0.43790
C28 C -0.26160(15) 0.4661(3) 0.7336(5)
H18 H -0.23740 0.46790 0.75960
C29 C -0.37271(16) 0.4485(4) 1.2239(5)
C30 C -0.31535(16) 0.4766(3) 0.9817(5)
H19 H -0.30810 0.51860 0.93820
C31 C -0.12465(15) 0.1847(4) 0.9537(6)
H20 H -0.12850 0.22130 1.00690
C32 C -0.36723(18) 0.4060(4) 1.3133(5)
H21 H -0.34790 0.36800 1.31780
O4 O -0.04322(17) -0.0051(3) 0.7833(7)
C33 C -0.09171(16) 0.1392(4) 0.9486(6)
H22 H -0.07390 0.14510 0.99950
C34 C -0.30623(18) 0.5084(3) 0.6067(5)
C35 C -0.42438(17) 0.5204(4) 1.3027(6)
H23 H -0.44330 0.55940 1.29910
O5 O -0.02823(16) 0.0432(5) 0.9398(7)
C36 C -0.4013(2) 0.5063(3) 1.2176(7)
H24 H -0.40510 0.53540 1.15770
C37 C -0.05005(19) 0.0382(5) 0.8616(9)
C38 C -0.3382(2) 0.4939(3) 1.0659(5)
H25 H -0.34650 0.54720 1.07630
O6 O -0.00893(19) 0.1440(4) 0.6835(6)
O7 O -0.44347(15) 0.4402(3) 1.5556(5)
C39 C -0.4440(2) 0.4909(4) 1.4814(7)
O8 O -0.42516(19) 0.2840(5) 1.6157(5)
O9 O 0.0051(6) 0.3508(8) 0.6055(10)
C1A C 0.25050(17) -0.3254(3) 0.8797(4)
C2A C 0.21008(15) -0.2296(3) 0.7953(4)
H1A H 0.20400 -0.19950 0.73750
C3A C 0.34861(14) -0.4321(3) 1.1351(6)
C4A C 0.18715(13) -0.2240(3) 0.8827(4)
O1A O 0.38831(12) -0.7360(3) 0.2794(3)
H2A H 0.39720 -0.74890 0.22420
C5A C 0.19808(14) -0.2661(3) 0.9687(4)
H3A H 0.18430 -0.26030 1.02820
O2A O 0.46466(13) -0.5522(3) 1.4872(4)
C6A C 0.15190(13) -0.1750(3) 0.8784(5)
C7A C 0.33286(16) -0.4579(3) 0.6532(5)
H4A H 0.35640 -0.45250 0.62370
C8A C 0.34155(16) -0.6545(3) 0.3545(4)
C9A C 0.14507(17) -0.1185(4) 0.8014(6)
H5A H 0.16320 -0.10960 0.75180
C10A C 0.41907(16) -0.4764(4) 1.3912(6)
C11A C 0.08503(14) -0.0857(4) 0.8697(6)
C12A C 0.28911(16) -0.4204(3) 0.7831(5)
C13A C 0.31755(16) -0.5588(3) 0.5189(4)
O3A O 0.33729(14) -0.7077(3) 0.1862(4)
C14A C 0.24138(15) -0.2791(3) 0.7945(4)
H6A H 0.25640 -0.28150 0.73690
C15A C 0.31405(15) -0.3344(3) 1.0298(4)
H7A H 0.30610 -0.28090 1.01850
C16A C 0.30603(16) -0.6209(3) 0.3542(5)
H8A H 0.29010 -0.62940 0.29930
C17A C 0.30342(15) -0.3959(3) 0.9629(4)
C18A C 0.39021(17) -0.4192(4) 1.3964(5)
H9A H 0.38640 -0.38980 1.45610
C19A C 0.22927(14) -0.3169(3) 0.9682(4)
H10A H 0.23600 -0.34520 1.02680
C20A C 0.27036(15) -0.5090(3) 0.6456(8)
H11A H 0.25180 -0.53850 0.61240
C21A C 0.11178(17) -0.0754(4) 0.7974(7)
H12A H 0.10760 -0.03880 0.74440
C22A C 0.35311(15) -0.5961(4) 0.5188(4)
H13A H 0.36910 -0.58900 0.57380
C23A C 0.35477(17) -0.7010(3) 0.2653(4)
C24A C 0.29427(16) -0.5745(3) 0.4365(5)
H14A H 0.27010 -0.55320 0.43660
C25A C 0.33648(14) -0.3519(3) 1.1136(5)
H15A H 0.34360 -0.30940 1.15650
N1A N 0.28136(14) -0.3792(3) 0.8773(4)
C26A C 0.32494(15) -0.4157(3) 0.7419(5)
H16A H 0.34330 -0.38460 0.77360
C27A C 0.36428(15) -0.6434(4) 0.4369(5)
H17A H 0.38770 -0.66820 0.43790
C28A C 0.26160(15) -0.4661(3) 0.7336(5)
H18A H 0.23740 -0.46790 0.75960
C29A C 0.37271(16) -0.4485(4) 1.2239(5)
C30A C 0.31535(16) -0.4766(3) 0.9817(5)
H19A H 0.30810 -0.51860 0.93820
C31A C 0.12465(15) -0.1847(4) 0.9537(6)
H20A H 0.12850 -0.22130 1.00690
C32A C 0.36723(18) -0.4060(4) 1.3133(5)
H21A H 0.34790 -0.36800 1.31780
O4A O 0.04322(17) 0.0051(3) 0.7833(7)
C33A C 0.09171(16) -0.1392(4) 0.9486(6)
H22A H 0.07390 -0.14510 0.99950
C34A C 0.30623(18) -0.5084(3) 0.6067(5)
C35A C 0.42438(17) -0.5204(4) 1.3027(6)
H23A H 0.44330 -0.55940 1.29910
O5A O 0.02823(16) -0.0432(5) 0.9398(7)
C36A C 0.4013(2) -0.5063(3) 1.2176(7)
H24A H 0.40510 -0.53540 1.15770
C37A C 0.05005(19) -0.0382(5) 0.8616(9)
C38A C 0.3382(2) -0.4939(3) 1.0659(5)
H25A H 0.34650 -0.54720 1.07630
O6A O 0.00893(19) -0.1440(4) 0.6835(6)
O7A O 0.44347(15) -0.4402(3) 1.5556(5)
C39A C 0.4440(2) -0.4909(4) 1.4814(7)
Ce1B Ce -0.50000 0.50000 1.64079(8)
Ce1B* Ce 0.50000 -0.50000 1.64079(8)
O2B O 0.03534(13) -0.0522(3) 0.4872(4)
O2C O -0.03534(13) 0.0522(3) 0.4872(4)
O7B O 0.05653(15) 0.0598(3) 0.5556(5)
O7C O -0.05653(15) -0.0598(3) 0.5556(5)
#END
