
#######################################################################
#
#                 Cambridge Crystallographic Data Centre
#                                CCDC
#
#######################################################################
#
# If this CIF has been generated from an entry in the Cambridge
# Structural Database, then it will include bibliographic, chemical,
# crystal, experimental, refinement or atomic coordinate data resulting
# from the CCDC's data processing and validation procedures.
#
#######################################################################

data_CSD_CIF_PIRQOZ
_audit_creation_date 2018-12-17
_audit_creation_method CSD-ConQuest-V1
_database_code_CSD PIRQOZ
_database_code_depnum_ccdc_archive 'CCDC 1857441'
_chemical_formula_sum 'C170 H224 Co3 N22 O77 U4'
_chemical_formula_moiety
;
(C144 H84 Co3 N12 O38 U4 4-)n,4(C2 H8 N1 1+),6(C3 H7 N1 O1),33(H2 O1)
;
_journal_coden_Cambridge 1220
_journal_volume 24
_journal_year 2018
_journal_page_first 16766
_journal_name_full 'Chem.-Eur.J. '
loop_
_publ_author_name
"Kong-Qiu Hu"
"Zhi-Wei Huang"
"Zhi-Hui Zhang"
"Lei Mei"
"Bing-Bing Qian"
"Ji-Pan Yu"
"Zhi-Fang Chai"
"Wei-Qun Shi"
_chemical_name_systematic
;
catena-[tetrakis(dimethylammonium) 
tris(\m-4,4',4'',4'''-(porphyrinato-5,10,15,20-tetrayl)tetrabenzoato)-hexa-aqu
a-octaoxo-tri-cobalt(ii)-tetra-uranium(vi) N,N-dimethylformamide solvate 
tritriacontahydrate]
;
_chemical_name_common
;
U-IHEP-4
;
_cell_volume 192800.032
_exptl_crystal_colour 'black'
_exptl_crystal_density_diffrn 0.255
_exptl_crystal_description 'block'
_diffrn_ambient_temperature 170
_refine_special_details
;
Disordered cation and solvent molecules were not modelled and the disordered 
density was taken into account using the SQUEEZE/PLATON procedure.
;
#These two values have been output from a single CSD field.
_refine_ls_R_factor_gt 0.0964
_refine_ls_wR_factor_gt 0.0964
_symmetry_cell_setting cubic
_symmetry_space_group_name_H-M 'F m -3 m'
_symmetry_Int_Tables_number 225
loop_
_symmetry_equiv_pos_site_id
_symmetry_equiv_pos_as_xyz
1 x,y,z
2 -x,-y,z
3 -x,y,-z
4 x,-y,-z
5 z,x,y
6 z,-x,-y
7 -z,-x,y
8 -z,x,-y
9 y,z,x
10 -y,z,-x
11 y,-z,-x
12 -y,-z,x
13 y,x,-z
14 -y,-x,-z
15 y,-x,z
16 -y,x,z
17 x,z,-y
18 -x,z,y
19 -x,-z,-y
20 x,-z,y
21 z,y,-x
22 z,-y,x
23 -z,y,x
24 -z,-y,-x
25 x,1/2+y,1/2+z
26 -x,1/2-y,1/2+z
27 -x,1/2+y,1/2-z
28 x,1/2-y,1/2-z
29 z,1/2+x,1/2+y
30 z,1/2-x,1/2-y
31 -z,1/2-x,1/2+y
32 -z,1/2+x,1/2-y
33 y,1/2+z,1/2+x
34 -y,1/2+z,1/2-x
35 y,1/2-z,1/2-x
36 -y,1/2-z,1/2+x
37 y,1/2+x,1/2-z
38 -y,1/2-x,1/2-z
39 y,1/2-x,1/2+z
40 -y,1/2+x,1/2+z
41 x,1/2+z,1/2-y
42 -x,1/2+z,1/2+y
43 -x,1/2-z,1/2-y
44 x,1/2-z,1/2+y
45 z,1/2+y,1/2-x
46 z,1/2-y,1/2+x
47 -z,1/2+y,1/2+x
48 -z,1/2-y,1/2-x
49 1/2+x,y,1/2+z
50 1/2-x,-y,1/2+z
51 1/2-x,y,1/2-z
52 1/2+x,-y,1/2-z
53 1/2+z,x,1/2+y
54 1/2+z,-x,1/2-y
55 1/2-z,-x,1/2+y
56 1/2-z,x,1/2-y
57 1/2+y,z,1/2+x
58 1/2-y,z,1/2-x
59 1/2+y,-z,1/2-x
60 1/2-y,-z,1/2+x
61 1/2+y,x,1/2-z
62 1/2-y,-x,1/2-z
63 1/2+y,-x,1/2+z
64 1/2-y,x,1/2+z
65 1/2+x,z,1/2-y
66 1/2-x,z,1/2+y
67 1/2-x,-z,1/2-y
68 1/2+x,-z,1/2+y
69 1/2+z,y,1/2-x
70 1/2+z,-y,1/2+x
71 1/2-z,y,1/2+x
72 1/2-z,-y,1/2-x
73 1/2+x,1/2+y,z
74 1/2-x,1/2-y,z
75 1/2-x,1/2+y,-z
76 1/2+x,1/2-y,-z
77 1/2+z,1/2+x,y
78 1/2+z,1/2-x,-y
79 1/2-z,1/2-x,y
80 1/2-z,1/2+x,-y
81 1/2+y,1/2+z,x
82 1/2-y,1/2+z,-x
83 1/2+y,1/2-z,-x
84 1/2-y,1/2-z,x
85 1/2+y,1/2+x,-z
86 1/2-y,1/2-x,-z
87 1/2+y,1/2-x,z
88 1/2-y,1/2+x,z
89 1/2+x,1/2+z,-y
90 1/2-x,1/2+z,y
91 1/2-x,1/2-z,-y
92 1/2+x,1/2-z,y
93 1/2+z,1/2+y,-x
94 1/2+z,1/2-y,x
95 1/2-z,1/2+y,x
96 1/2-z,1/2-y,-x
97 -x,-y,-z
98 x,y,-z
99 x,-y,z
100 -x,y,z
101 -z,-x,-y
102 -z,x,y
103 z,x,-y
104 z,-x,y
105 -y,-z,-x
106 y,-z,x
107 -y,z,x
108 y,z,-x
109 -y,-x,z
110 y,x,z
111 -y,x,-z
112 y,-x,-z
113 -x,-z,y
114 x,-z,-y
115 x,z,y
116 -x,z,-y
117 -z,-y,x
118 -z,y,-x
119 z,-y,-x
120 z,y,x
121 -x,-1/2-y,-1/2-z
122 x,-1/2+y,-1/2-z
123 x,-1/2-y,-1/2+z
124 -x,-1/2+y,-1/2+z
125 -z,-1/2-x,-1/2-y
126 -z,-1/2+x,-1/2+y
127 z,-1/2+x,-1/2-y
128 z,-1/2-x,-1/2+y
129 -y,-1/2-z,-1/2-x
130 y,-1/2-z,-1/2+x
131 -y,-1/2+z,-1/2+x
132 y,-1/2+z,-1/2-x
133 -y,-1/2-x,-1/2+z
134 y,-1/2+x,-1/2+z
135 -y,-1/2+x,-1/2-z
136 y,-1/2-x,-1/2-z
137 -x,-1/2-z,-1/2+y
138 x,-1/2-z,-1/2-y
139 x,-1/2+z,-1/2+y
140 -x,-1/2+z,-1/2-y
141 -z,-1/2-y,-1/2+x
142 -z,-1/2+y,-1/2-x
143 z,-1/2-y,-1/2-x
144 z,-1/2+y,-1/2+x
145 -1/2-x,-y,-1/2-z
146 -1/2+x,y,-1/2-z
147 -1/2+x,-y,-1/2+z
148 -1/2-x,y,-1/2+z
149 -1/2-z,-x,-1/2-y
150 -1/2-z,x,-1/2+y
151 -1/2+z,x,-1/2-y
152 -1/2+z,-x,-1/2+y
153 -1/2-y,-z,-1/2-x
154 -1/2+y,-z,-1/2+x
155 -1/2-y,z,-1/2+x
156 -1/2+y,z,-1/2-x
157 -1/2-y,-x,-1/2+z
158 -1/2+y,x,-1/2+z
159 -1/2-y,x,-1/2-z
160 -1/2+y,-x,-1/2-z
161 -1/2-x,-z,-1/2+y
162 -1/2+x,-z,-1/2-y
163 -1/2+x,z,-1/2+y
164 -1/2-x,z,-1/2-y
165 -1/2-z,-y,-1/2+x
166 -1/2-z,y,-1/2-x
167 -1/2+z,-y,-1/2-x
168 -1/2+z,y,-1/2+x
169 -1/2-x,-1/2-y,-z
170 -1/2+x,-1/2+y,-z
171 -1/2+x,-1/2-y,z
172 -1/2-x,-1/2+y,z
173 -1/2-z,-1/2-x,-y
174 -1/2-z,-1/2+x,y
175 -1/2+z,-1/2+x,-y
176 -1/2+z,-1/2-x,y
177 -1/2-y,-1/2-z,-x
178 -1/2+y,-1/2-z,x
179 -1/2-y,-1/2+z,x
180 -1/2+y,-1/2+z,-x
181 -1/2-y,-1/2-x,z
182 -1/2+y,-1/2+x,z
183 -1/2-y,-1/2+x,-z
184 -1/2+y,-1/2-x,-z
185 -1/2-x,-1/2-z,y
186 -1/2+x,-1/2-z,-y
187 -1/2+x,-1/2+z,y
188 -1/2-x,-1/2+z,-y
189 -1/2-z,-1/2-y,x
190 -1/2-z,-1/2+y,-x
191 -1/2+z,-1/2-y,-x
192 -1/2+z,-1/2+y,x
_cell_length_a 57.770(11)
_cell_length_b 57.770(11)
_cell_length_c 57.770(11)
_cell_angle_alpha 90
_cell_angle_beta 90
_cell_angle_gamma 90
_cell_formula_units_Z 8
loop_
_atom_type_symbol
_atom_type_radius_bond
C 0.68
H 0.23
Co 1.26
N 0.68
O 0.68
U 1.96
loop_
_atom_site_label
_atom_site_type_symbol
_atom_site_fract_x
_atom_site_fract_y
_atom_site_fract_z
U1 U 0.65188(5) 0.65188(5) 0.65188(5)
Co1 Co 0.75000 0.50000 0.75000
N1 N 0.75000 0.5359(11) 0.75000
C1 C 0.6731(6) 0.6126(9) 0.6731(6)
O1 O 0.6801(4) 0.6219(3) 0.6537(3)
O2 O 0.6343(2) 0.6343(2) 0.6343(2)
N2 N 0.7258(9) 0.50000 0.7258(9)
C2 C 0.6853(3) 0.5942(5) 0.6853(3)
C3 C 0.7050(5) 0.5855(5) 0.6770(4)
H1 H 0.71060 0.59090 0.66240
O3 O 0.6696(2) 0.6696(2) 0.6696(2)
C4 C 0.7360(9) 0.548(1) 0.7360(9)
C5 C 0.7209(7) 0.5399(10) 0.7209(7)
C6 C 0.7079(4) 0.5591(5) 0.7079(4)
C7 C 0.7175(4) 0.5693(5) 0.6886(5)
H2 H 0.73260 0.56500 0.68350
O4 O 0.7218(4) 0.50000 0.7782(4)
C8 C 0.7416(4) 0.5715(7) 0.7416(4)
H3 H 0.73480 0.58490 0.73480
C9 C 0.7147(8) 0.5190(12) 0.7147(8)
C10 C 0.6992(6) 0.5113(6) 0.6992(6)
H4 H 0.68970 0.52080 0.68970
N1U N 0.75000 0.4641(11) 0.75000
C1U C 0.6731(6) 0.3874(9) 0.6731(6)
O1U O 0.6537(4) 0.3781(3) 0.6801(3)
C2U C 0.6853(3) 0.4058(5) 0.6853(3)
C3U C 0.6770(5) 0.4145(5) 0.7050(4)
H1U H 0.66240 0.40910 0.71060
C4U C 0.7360(9) 0.452(1) 0.7360(9)
C5U C 0.7209(7) 0.4601(10) 0.7209(7)
C6U C 0.7079(4) 0.4409(5) 0.7079(4)
C7U C 0.6886(4) 0.4307(5) 0.7175(5)
H2U H 0.68350 0.43500 0.73260
C8U C 0.7416(4) 0.4285(7) 0.7416(4)
H3U H 0.73480 0.41510 0.73480
C9U C 0.7147(8) 0.4810(12) 0.7147(8)
C10U C 0.6992(6) 0.4887(6) 0.6992(6)
H4U H 0.68970 0.47920 0.68970
C1XA C 0.8269(6) 0.6126(9) 0.8269(6)
O1XA O 0.8199(4) 0.6219(3) 0.8463(3)
N2XA N 0.7742(9) 0.50000 0.7742(9)
C2XA C 0.8147(3) 0.5942(5) 0.8147(3)
C3XA C 0.7950(5) 0.5855(5) 0.8230(4)
H1XA H 0.78940 0.59090 0.83760
C4XA C 0.7640(9) 0.548(1) 0.7640(9)
C5XA C 0.7791(7) 0.5399(10) 0.7791(7)
C6XA C 0.7921(4) 0.5591(5) 0.7921(4)
C7XA C 0.7825(4) 0.5693(5) 0.8114(5)
H2XA H 0.76740 0.56500 0.81650
C8XA C 0.7584(4) 0.5715(7) 0.7584(4)
H3XA H 0.76520 0.58490 0.76520
C9XA C 0.7853(8) 0.5190(12) 0.7853(8)
C10XA C 0.8008(6) 0.5113(6) 0.8008(6)
H4XA H 0.81030 0.52080 0.81030
C1SB C 0.8269(6) 0.3874(9) 0.8269(6)
O1SB O 0.8463(4) 0.3781(3) 0.8199(3)
C2SB C 0.8147(3) 0.4058(5) 0.8147(3)
C3SB C 0.8230(5) 0.4145(5) 0.7950(4)
H1SB H 0.83760 0.40910 0.78940
C4SB C 0.7640(9) 0.452(1) 0.7640(9)
C5SB C 0.7791(7) 0.4601(10) 0.7791(7)
C6SB C 0.7921(4) 0.4409(5) 0.7921(4)
C7SB C 0.8114(4) 0.4307(5) 0.7825(5)
H2SB H 0.81650 0.43500 0.76740
C8SB C 0.7584(4) 0.4285(7) 0.7584(4)
H3SB H 0.76520 0.41510 0.76520
C9SB C 0.7853(8) 0.4810(12) 0.7853(8)
C10SB C 0.8008(6) 0.4887(6) 0.8008(6)
H4SB H 0.81030 0.47920 0.81030
O1TC O 0.6801(4) 0.3781(3) 0.6537(3)
C3TC C 0.7050(5) 0.4145(5) 0.6770(4)
H1TC H 0.71060 0.40910 0.66240
C7TC C 0.7175(4) 0.4307(5) 0.6886(5)
H2TC H 0.73260 0.43500 0.68350
O1OD O 0.6537(4) 0.6219(3) 0.6801(3)
C3OD C 0.6770(5) 0.5855(5) 0.7050(4)
H1OD H 0.66240 0.59090 0.71060
C7OD C 0.6886(4) 0.5693(5) 0.7175(5)
H2OD H 0.68350 0.56500 0.73260
O1NE O 0.8199(4) 0.3781(3) 0.8463(3)
C3NE C 0.7950(5) 0.4145(5) 0.8230(4)
H1NE H 0.78940 0.40910 0.83760
C7NE C 0.7825(4) 0.4307(5) 0.8114(5)
H2NE H 0.76740 0.43500 0.81650
O1IF O 0.8463(4) 0.6219(3) 0.8199(3)
C3IF C 0.8230(5) 0.5855(5) 0.7950(4)
H1IF H 0.83760 0.59090 0.78940
C7IF C 0.8114(4) 0.5693(5) 0.7825(5)
H2IF H 0.81650 0.56500 0.76740
Co1D Co 0.75000 0.75000 0.50000
N1D N 0.75000 0.7500(11) 0.53590
C1D C 0.6731(6) 0.6731(9) 0.6126(6)
O1D O 0.6537(4) 0.6801(3) 0.6219(3)
N2D N 0.7258(9) 0.72580 0.5000(9)
C2D C 0.6853(3) 0.6853(5) 0.5942(3)
C3D C 0.6770(5) 0.7050(5) 0.5855(4)
H1D H 0.66240 0.71060 0.59090
C4D C 0.7360(9) 0.736(1) 0.5480(9)
C5D C 0.7209(7) 0.7209(10) 0.5399(7)
C6D C 0.7079(4) 0.7079(5) 0.5591(4)
C7D C 0.6886(4) 0.7175(5) 0.5693(5)
H2D H 0.68350 0.73260 0.56500
C8D C 0.7416(4) 0.7416(7) 0.5715(4)
H3D H 0.73480 0.73480 0.58490
C9D C 0.7147(8) 0.7147(12) 0.5190(8)
C10D C 0.6992(6) 0.6992(6) 0.5113(6)
H4D H 0.68970 0.68970 0.52080
N1P N 0.75000 0.7500(11) 0.46410
C1P C 0.6731(6) 0.6731(9) 0.3874(6)
O1P O 0.6801(4) 0.6537(3) 0.3781(3)
C2P C 0.6853(3) 0.6853(5) 0.4058(3)
C3P C 0.7050(5) 0.6770(5) 0.4145(4)
H1P H 0.71060 0.66240 0.40910
C4P C 0.7360(9) 0.736(1) 0.4520(9)
C5P C 0.7209(7) 0.7209(10) 0.4601(7)
C6P C 0.7079(4) 0.7079(5) 0.4409(4)
C7P C 0.7175(4) 0.6886(5) 0.4307(5)
H2P H 0.73260 0.68350 0.43500
C8P C 0.7416(4) 0.7416(7) 0.4285(4)
H3P H 0.73480 0.73480 0.41510
C9P C 0.7147(8) 0.7147(12) 0.4810(8)
C10P C 0.6992(6) 0.6992(6) 0.4887(6)
H4P H 0.68970 0.68970 0.47920
C1ZB C 0.8269(6) 0.8269(9) 0.6126(6)
O1ZB O 0.8463(4) 0.8199(3) 0.6219(3)
N2ZB N 0.7742(9) 0.77420 0.5000(9)
C2ZB C 0.8147(3) 0.8147(5) 0.5942(3)
C3ZB C 0.8230(5) 0.7950(5) 0.5855(4)
H1ZB H 0.83760 0.78940 0.59090
C4ZB C 0.7640(9) 0.764(1) 0.5480(9)
C5ZB C 0.7791(7) 0.7791(10) 0.5399(7)
C6ZB C 0.7921(4) 0.7921(5) 0.5591(4)
C7ZB C 0.8114(4) 0.7825(5) 0.5693(5)
H2ZB H 0.81650 0.76740 0.56500
C8ZB C 0.7584(4) 0.7584(7) 0.5715(4)
H3ZB H 0.76520 0.76520 0.58490
C9ZB C 0.7853(8) 0.7853(12) 0.5190(8)
C10ZB C 0.8008(6) 0.8008(6) 0.5113(6)
H4ZB H 0.81030 0.81030 0.52080
C1LC C 0.8269(6) 0.8269(9) 0.3874(6)
O1LC O 0.8199(4) 0.8463(3) 0.3781(3)
C2LC C 0.8147(3) 0.8147(5) 0.4058(3)
C3LC C 0.7950(5) 0.8230(5) 0.4145(4)
H1LC H 0.78940 0.83760 0.40910
C4LC C 0.7640(9) 0.764(1) 0.4520(9)
C5LC C 0.7791(7) 0.7791(10) 0.4601(7)
C6LC C 0.7921(4) 0.7921(5) 0.4409(4)
C7LC C 0.7825(4) 0.8114(5) 0.4307(5)
H2LC H 0.76740 0.81650 0.43500
C8LC C 0.7584(4) 0.7584(7) 0.4285(4)
H3LC H 0.76520 0.76520 0.41510
C9LC C 0.7853(8) 0.7853(12) 0.4810(8)
C10LC C 0.8008(6) 0.8008(6) 0.4887(6)
H4LC H 0.81030 0.81030 0.47920
O1XC O 0.6537(4) 0.6801(3) 0.3781(3)
C3XC C 0.6770(5) 0.7050(5) 0.4145(4)
H1XC H 0.66240 0.71060 0.40910
C7XC C 0.6886(4) 0.7175(5) 0.4307(5)
H2XC H 0.68350 0.73260 0.43500
O1JD O 0.6801(4) 0.6537(3) 0.6219(3)
C3JD C 0.7050(5) 0.6770(5) 0.5855(4)
H1JD H 0.71060 0.66240 0.59090
C7JD C 0.7175(4) 0.6886(5) 0.5693(5)
H2JD H 0.73260 0.68350 0.56500
O1PF O 0.8463(4) 0.8199(3) 0.3781(3)
C3PF C 0.8230(5) 0.7950(5) 0.4145(4)
H1PF H 0.83760 0.78940 0.40910
C7PF C 0.8114(4) 0.7825(5) 0.4307(5)
H2PF H 0.81650 0.76740 0.43500
O1BG O 0.8199(4) 0.8463(3) 0.6219(3)
C3BG C 0.7950(5) 0.8230(5) 0.5855(4)
H1BG H 0.78940 0.83760 0.59090
C7BG C 0.7825(4) 0.8114(5) 0.5693(5)
H2BG H 0.76740 0.81650 0.56500
Co1H Co 0.50000 0.75000 0.75000
N1H N 0.53590 0.7500(11) 0.75000
C1H C 0.6126(6) 0.6731(9) 0.6731(6)
O1H O 0.6219(4) 0.6537(3) 0.6801(3)
N2H N 0.5000(9) 0.72580 0.7258(9)
C2H C 0.5942(3) 0.6853(5) 0.6853(3)
C3H C 0.5855(5) 0.6770(5) 0.7050(4)
H1H H 0.59090 0.66240 0.71060
C4H C 0.5480(9) 0.736(1) 0.7360(9)
C5H C 0.5399(7) 0.7209(10) 0.7209(7)
C6H C 0.5591(4) 0.7079(5) 0.7079(4)
C7H C 0.5693(4) 0.6886(5) 0.7175(5)
H2H H 0.56500 0.68350 0.73260
C8H C 0.5715(4) 0.7416(7) 0.7416(4)
H3H H 0.58490 0.73480 0.73480
C9H C 0.5190(8) 0.7147(12) 0.7147(8)
C10H C 0.5113(6) 0.6992(6) 0.6992(6)
H4H H 0.52080 0.68970 0.68970
N1O N 0.46410 0.7500(11) 0.75000
C1O C 0.3874(6) 0.6731(9) 0.6731(6)
O1O O 0.3781(4) 0.6801(3) 0.6537(3)
C2O C 0.4058(3) 0.6853(5) 0.6853(3)
C3O C 0.4145(5) 0.7050(5) 0.6770(4)
H1O H 0.40910 0.71060 0.66240
C4O C 0.4520(9) 0.736(1) 0.7360(9)
C5O C 0.4601(7) 0.7209(10) 0.7209(7)
C6O C 0.4409(4) 0.7079(5) 0.7079(4)
C7O C 0.4307(4) 0.7175(5) 0.6886(5)
H2O H 0.43500 0.73260 0.68350
C8O C 0.4285(4) 0.7416(7) 0.7416(4)
H3O H 0.41510 0.73480 0.73480
C9O C 0.4810(8) 0.7147(12) 0.7147(8)
C10O C 0.4887(6) 0.6992(6) 0.6992(6)
H4O H 0.47920 0.68970 0.68970
C1HA C 0.6126(6) 0.8269(9) 0.8269(6)
O1HA O 0.6219(4) 0.8463(3) 0.8199(3)
N2HA N 0.5000(9) 0.77420 0.7742(9)
C2HA C 0.5942(3) 0.8147(5) 0.8147(3)
C3HA C 0.5855(5) 0.8230(5) 0.7950(4)
H1HA H 0.59090 0.83760 0.78940
C4HA C 0.5480(9) 0.764(1) 0.7640(9)
C5HA C 0.5399(7) 0.7791(10) 0.7791(7)
C6HA C 0.5591(4) 0.7921(5) 0.7921(4)
C7HA C 0.5693(4) 0.8114(5) 0.7825(5)
H2HA H 0.56500 0.81650 0.76740
C8HA C 0.5715(4) 0.7584(7) 0.7584(4)
H3HA H 0.58490 0.76520 0.76520
C9HA C 0.5190(8) 0.7853(12) 0.7853(8)
C10HA C 0.5113(6) 0.8008(6) 0.8008(6)
H4HA H 0.52080 0.81030 0.81030
C1KA C 0.3874(6) 0.8269(9) 0.8269(6)
O1KA O 0.3781(4) 0.8199(3) 0.8463(3)
C2KA C 0.4058(3) 0.8147(5) 0.8147(3)
C3KA C 0.4145(5) 0.7950(5) 0.8230(4)
H1KA H 0.40910 0.78940 0.83760
C4KA C 0.4520(9) 0.764(1) 0.7640(9)
C5KA C 0.4601(7) 0.7791(10) 0.7791(7)
C6KA C 0.4409(4) 0.7921(5) 0.7921(4)
C7KA C 0.4307(4) 0.7825(5) 0.8114(5)
H2KA H 0.43500 0.76740 0.81650
C8KA C 0.4285(4) 0.7584(7) 0.7584(4)
H3KA H 0.41510 0.76520 0.76520
C9KA C 0.4810(8) 0.7853(12) 0.7853(8)
C10KA C 0.4887(6) 0.8008(6) 0.8008(6)
H4KA H 0.47920 0.81030 0.81030
O1BD O 0.3781(4) 0.6537(3) 0.6801(3)
C3BD C 0.4145(5) 0.6770(5) 0.7050(4)
H1BD H 0.40910 0.66240 0.71060
C7BD C 0.4307(4) 0.6886(5) 0.7175(5)
H2BD H 0.43500 0.68350 0.73260
O1ED O 0.6219(4) 0.6801(3) 0.6537(3)
C3ED C 0.5855(5) 0.7050(5) 0.6770(4)
H1ED H 0.59090 0.71060 0.66240
C7ED C 0.5693(4) 0.7175(5) 0.6886(5)
H2ED H 0.56500 0.73260 0.68350
O1XD O 0.3781(4) 0.8463(3) 0.8199(3)
C3XD C 0.4145(5) 0.8230(5) 0.7950(4)
H1XD H 0.40910 0.83760 0.78940
C7XD C 0.4307(4) 0.8114(5) 0.7825(5)
H2XD H 0.43500 0.81650 0.76740
O1EE O 0.6219(4) 0.8199(3) 0.8463(3)
C3EE C 0.5855(5) 0.7950(5) 0.8230(4)
H1EE H 0.59090 0.78940 0.83760
C7EE C 0.5693(4) 0.7825(5) 0.8114(5)
H2EE H 0.56500 0.76740 0.81650
U1N U 0.65188(5) 0.34812(5) 0.65188(5)
O2N O 0.6343(2) 0.3657(2) 0.6343(2)
O3N O 0.6696(2) 0.3304(2) 0.6696(2)
U1O U 0.34812(5) 0.65188(5) 0.65188(5)
O2O O 0.3657(2) 0.6343(2) 0.6343(2)
O3O O 0.3304(2) 0.6696(2) 0.6696(2)
O4O O 0.5000(4) 0.72180 0.7782(4)
U1L U 0.65188(5) 0.65188(5) 0.34812(5)
O2L O 0.6343(2) 0.6343(2) 0.3657(2)
O3L O 0.6696(2) 0.6696(2) 0.3304(2)
O4P O 0.7218(4) 0.77820 0.5000(4)
O4U O 0.7782(4) 0.50000 0.7218(4)
O4D O 0.7782(4) 0.72180 0.5000(4)
O4H O 0.5000(4) 0.77820 0.7218(4)
U1AA U 0.65188(5) 0.84812(5) 0.84812(5)
U1KA U 0.34812(5) 0.84812(5) 0.84812(5)
U1XA U 0.84812(5) 0.65188(5) 0.84812(5)
U1IB U 0.84812(5) 0.34812(5) 0.84812(5)
U1UB U 0.84812(5) 0.84812(5) 0.65188(5)
U1GC U 0.84812(5) 0.84812(5) 0.34812(5)
O1L O 0.6219(4) 0.6801(3) 0.3463(3)
O1N O 0.6219(4) 0.3199(3) 0.6537(3)
O1Q O 0.3199(4) 0.6537(3) 0.6219(3)
O1S O 0.6801(4) 0.3463(3) 0.6219(3)
O1T O 0.6537(4) 0.6219(3) 0.3199(3)
O1V O 0.3463(4) 0.6219(3) 0.6801(3)
O1SC O 0.6801(4) 0.6219(3) 0.3463(3)
O1UC O 0.3199(4) 0.6219(3) 0.6537(3)
O1WC O 0.3463(4) 0.6801(3) 0.6219(3)
O1YC O 0.6537(4) 0.3199(3) 0.6219(3)
O1AD O 0.6219(4) 0.3463(3) 0.6801(3)
O1CD O 0.6219(4) 0.6537(3) 0.3199(3)
#END
