
#######################################################################
#
#                 Cambridge Crystallographic Data Centre
#                                CCDC
#
#######################################################################
#
# If this CIF has been generated from an entry in the Cambridge
# Structural Database, then it will include bibliographic, chemical,
# crystal, experimental, refinement or atomic coordinate data resulting
# from the CCDC's data processing and validation procedures.
#
#######################################################################

data_CSD_CIF_PIVJIO
_audit_creation_date 2008-06-16
_audit_creation_method CSD-ConQuest-V1
_database_code_CSD PIVJIO
_database_code_depnum_ccdc_archive 'CCDC 644107; CCDC 638463'
_chemical_formula_sum 'C10 H24 Cl2 Cu3 N2 O16 P2'
_chemical_formula_moiety
;
(H12 Cu1 O6 2+)n,n(C10 H8 Cl2 Cu2 N2 O8 P2 2-),2n(H2 O1)
;
_journal_coden_Cambridge 155
_journal_volume 360
_journal_year 2007
_journal_page_first 4117
_journal_name_full 'Inorg.Chim.Acta '
loop_
_publ_author_name
"Yun-Sheng Ma"
"Tian-Wei Wang"
"Yi-Zhi Li"
"Li-Min Zheng"
_chemical_name_systematic
;
catena-(Hexa-aqua-copper 
bis(\m~2~-chloro)-bis(\m~2~-(2-pyridyl-N-oxide)phosphonato)-di-copper 
dihydrate)
;
_cell_volume   1238.198
_exptl_crystal_colour 'pale blue'
_exptl_crystal_density_diffrn 2.016
_exptl_special_details
;
magnetic properties
isostructural with the bromo analogue

;
_exptl_crystal_description 'block'
_diffrn_ambient_temperature 293
#These two values have been output from a single CSD field.
_refine_ls_R_factor_gt 0.051
_refine_ls_wR_factor_gt 0.051
_symmetry_cell_setting monoclinic
_symmetry_space_group_name_H-M 'P c'
_symmetry_Int_Tables_number 7
loop_
_symmetry_equiv_pos_site_id
_symmetry_equiv_pos_as_xyz
1 x,y,z
2 x,-y,1/2+z
_cell_length_a 6.8435(17)
_cell_length_b 9.606(2)
_cell_length_c 19.981(5)
_cell_angle_alpha 90
_cell_angle_beta 109.498(8)
_cell_angle_gamma 90
_cell_formula_units_Z 2
loop_
_atom_type_symbol
_atom_type_radius_bond
C 0.68
H 0.23
Cl 0.99
Cu 1.48
N 0.68
O 0.68
P 1.05
loop_
_atom_site_label
_atom_site_type_symbol
_atom_site_fract_x
_atom_site_fract_y
_atom_site_fract_z
Cu1 Cu 0.31547(18) 0.53178(9) 0.11374(6)
Cu2 Cu -0.18417(17) 0.53455(9) 0.11230(6)
P1 P 0.1539(4) 0.7416(2) 0.19594(11)
P2 P 0.4776(3) 0.3317(2) 0.02852(11)
O1 O -0.0315(9) 0.6524(5) 0.1931(3)
O2 O 0.3320(9) 0.6503(5) 0.1934(3)
O3 O 0.2090(9) 0.8459(5) 0.2564(3)
O4 O 0.0523(10) 0.6210(5) 0.0577(3)
O5 O 0.5842(9) 0.4443(5) 0.1697(3)
O6 O 0.6684(8) 0.4188(5) 0.0310(3)
O7 O 0.2968(9) 0.4212(5) 0.0317(3)
O8 O 0.4216(9) 0.2294(5) -0.0312(3)
N1 N 0.0419(12) 0.7595(7) 0.0527(3)
N2 N 0.5947(12) 0.2984(6) 0.1700(4)
Cl1 Cl 0.5682(3) 0.71350(17) 0.07128(10)
Cl2 Cl 0.0613(3) 0.35590(18) 0.15808(11)
C1 C 0.084(2) 0.8388(8) 0.1134(5)
C2 C -0.0151(15) 0.8163(9) -0.0112(5)
H1 H -0.04890 0.76090 -0.05160
C3 C -0.0235(14) 0.9596(9) -0.0168(5)
H2 H -0.05400 1.00040 -0.06130
C4 C 0.0097(13) 1.0373(9) 0.0376(4)
H3 H -0.00790 1.13290 0.03090
C5 C 0.0718(16) 0.9848(8) 0.1075(5)
H4 H 0.10280 1.04270 0.14700
C6 C 0.5567(15) 0.2354(7) 0.1115(5)
C7 C 0.6386(15) 0.2348(8) 0.2348(4)
H5 H 0.64320 0.28710 0.27450
C8 C 0.6737(16) 0.1022(8) 0.2410(5)
H6 H 0.72520 0.06000 0.28540
C9 C 0.6299(17) 0.0223(8) 0.1767(4)
H7 H 0.63860 -0.07430 0.17810
C10 C 0.5756(16) 0.0915(7) 0.1140(5)
H8 H 0.55070 0.04170 0.07200
Cu3 Cu 0.81320(15) 0.67693(11) 0.35631(5)
O9 O 0.7205(9) 0.7297(5) 0.2582(3)
H9 H 0.82430 0.74920 0.24560
H10 H 0.65240 0.66350 0.23270
O10 O 0.5741(8) 0.5387(5) 0.3333(3)
H11 H 0.54330 0.51120 0.29050
H12 H 0.61130 0.46930 0.36110
O11 O 0.9062(9) 0.6337(5) 0.4562(3)
H13 H 0.86870 0.55180 0.46260
H14 H 1.03760 0.63920 0.47260
O12 O 1.0555(9) 0.8070(5) 0.3687(3)
H15 H 1.16110 0.77590 0.40130
H16 H 1.08180 0.81200 0.33010
O13 O 0.5946(9) 0.8455(5) 0.3703(3)
H17 H 0.55240 0.89520 0.33300
H18 H 0.49140 0.80770 0.37770
O14 O 1.0035(9) 0.4882(5) 0.3281(3)
H19 H 1.12690 0.48760 0.35720
H20 H 1.00590 0.49890 0.28620
O15 O 0.2264(9) 0.1466(5) 0.3038(3)
H21 H 0.12280 0.18760 0.27460
H22 H 0.19740 0.06130 0.30670
O16 O 0.4023(8) 0.3627(6) 0.4057(3)
H23 H 0.36820 0.35090 0.44250
H24 H 0.35320 0.29680 0.37650
Cu2* Cu 0.81583(17) 0.53455(9) 0.11230(6)
O5* O -0.4158(9) 0.4443(5) 0.1697(3)
O6* O -0.3316(8) 0.4188(5) 0.0310(3)
Cl1* Cl -0.4318(3) 0.71350(17) 0.07128(10)
#END
