
#######################################################################
#
#                 Cambridge Crystallographic Data Centre
#                                CCDC
#
#######################################################################
#
# If this CIF has been generated from an entry in the Cambridge
# Structural Database, then it will include bibliographic, chemical,
# crystal, experimental, refinement or atomic coordinate data resulting
# from the CCDC's data processing and validation procedures.
#
#######################################################################

data_CSD_CIF_PIVJOU
_audit_creation_date 2008-06-16
_audit_creation_method CSD-ConQuest-V1
_database_code_CSD PIVJOU
_database_code_depnum_ccdc_archive 'CCDC 644108; CCDC 638464'
_chemical_formula_sum 'C10 H24 Br2 Cu3 N2 O16 P2'
_chemical_formula_moiety
;
(H12 Cu1 O6 2+)n,n(C10 H8 Br2 Cu2 N2 O8 P2 2-),2n(H2 O1)
;
_journal_coden_Cambridge 155
_journal_volume 360
_journal_year 2007
_journal_page_first 4117
_journal_name_full 'Inorg.Chim.Acta '
loop_
_publ_author_name
"Yun-Sheng Ma"
"Tian-Wei Wang"
"Yi-Zhi Li"
"Li-Min Zheng"
_chemical_name_systematic
;
catena-(Hexa-aqua-copper 
bis(\m~2~-bromo)-bis(\m~2~-(2-pyridyl-N-oxide)phosphonato)-di-copper 
dihydrate)
;
_cell_volume   1238.200
_exptl_crystal_colour 'green'
_exptl_crystal_density_diffrn 2.255
_exptl_special_details
;
magnetic properties
isostructural with the chloro analogue

;
_exptl_crystal_description 'needle'
_diffrn_ambient_temperature 291
#These two values have been output from a single CSD field.
_refine_ls_R_factor_gt 0.0495
_refine_ls_wR_factor_gt 0.0495
_symmetry_cell_setting monoclinic
_symmetry_space_group_name_H-M 'P c'
_symmetry_Int_Tables_number 7
loop_
_symmetry_equiv_pos_site_id
_symmetry_equiv_pos_as_xyz
1 x,y,z
2 x,-y,1/2+z
_cell_length_a 6.8435(14)
_cell_length_b 9.6060(19)
_cell_length_c 18.836(4)
_cell_angle_alpha 90
_cell_angle_beta 90.53(3)
_cell_angle_gamma 90
_cell_formula_units_Z 2
loop_
_atom_type_symbol
_atom_type_radius_bond
C 0.68
H 0.23
Br 1.21
Cu 1.37
N 0.68
O 0.68
P 0.98
loop_
_atom_site_label
_atom_site_type_symbol
_atom_site_fract_x
_atom_site_fract_y
_atom_site_fract_z
Br1 Br 0.56533(16) 0.74692(12) 0.05964(7)
Br2 Br 0.09416(16) 0.34425(13) 0.16795(7)
C1 C 0.0787(18) 0.8405(12) 0.1151(6)
C2 C -0.0045(15) 0.8124(11) -0.0106(6)
H1 H -0.02560 0.75400 -0.04930
C3 C -0.0168(14) 0.9567(11) -0.0166(6)
H2 H -0.04400 0.99690 -0.06050
C4 C 0.0088(13) 1.0329(11) 0.0371(5)
H3 H -0.01870 1.12710 0.03180
C5 C 0.0780(16) 0.9865(9) 0.1074(5)
H4 H 0.11740 1.04740 0.14320
C6 C 0.6493(16) 0.2418(11) 0.2364(6)
H5 H 0.67270 0.29390 0.27720
C7 C 0.6679(15) 0.0977(10) 0.2383(6)
H6 H 0.70380 0.05350 0.28030
C8 C 0.6328(16) 0.0198(13) 0.1773(6)
H7 H 0.64530 -0.07650 0.17850
C9 C 0.5791(16) 0.086(1) 0.1144(6)
H8 H 0.55570 0.03390 0.07360
C10 C 0.5605(18) 0.2300(9) 0.1126(7)
Cu1 Cu 0.31785(19) 0.53188(11) 0.11485(7)
Cu2 Cu 0.81901(18) 0.53440(12) 0.11301(7)
N1 N 0.0398(14) 0.7618(8) 0.0546(6)
N2 N 0.5956(15) 0.3079(9) 0.1736(5)
O1 O -0.0262(9) 0.6552(7) 0.1945(4)
O2 O 0.3333(11) 0.6523(7) 0.1922(3)
O3 O 0.2072(10) 0.8451(7) 0.2566(4)
O4 O 0.0499(10) 0.6245(7) 0.0578(4)
O5 O 0.5873(10) 0.4451(7) 0.1700(4)
O6 O 0.6745(10) 0.4182(7) 0.0324(3)
O7 O 0.2966(10) 0.4205(7) 0.0309(4)
O8 O 0.4245(10) 0.2268(7) -0.0289(4)
P1 P 0.1570(4) 0.7416(3) 0.19651(15)
P2 P 0.4798(4) 0.3311(2) 0.02932(12)
Cu3 Cu -0.18498(17) 0.67685(12) 0.35669(7)
O9 O -0.2775(10) 0.7353(7) 0.2558(4)
H9 H -0.19120 0.70520 0.22750
H10 H -0.39090 0.70400 0.24630
O10 O -0.4248(9) 0.5312(7) 0.3359(4)
H11 H -0.45560 0.50370 0.29310
H12 H -0.38760 0.46180 0.36370
O11 O -0.0947(9) 0.6327(7) 0.4586(3)
H13 H -0.13220 0.55080 0.46500
H14 H 0.03670 0.63820 0.47500
O12 O 0.0597(9) 0.8046(6) 0.3684(3)
H15 H 0.16530 0.77350 0.40100
H16 H 0.08600 0.80960 0.32980
O13 O -0.3977(11) 0.8471(6) 0.3689(4)
H17 H -0.43460 0.84420 0.41190
H18 H -0.49650 0.82640 0.34340
O14 O 0.0042(10) 0.4877(6) 0.3291(3)
H19 H 0.12760 0.48710 0.35820
H20 H 0.00660 0.49840 0.28720
O15 O 0.2289(10) 0.1454(6) 0.3021(3)
H21 H 0.12530 0.18640 0.27290
H22 H 0.19990 0.06010 0.30500
O16 O 0.4093(10) 0.3609(8) 0.4060(4)
H23 H 0.37520 0.34910 0.44280
H24 H 0.36020 0.29500 0.37680
Br2* Br 1.09416(16) 0.34425(13) 0.16795(7)
Cu2* Cu -0.18099(18) 0.53440(12) 0.11301(7)
O1* O 0.9738(9) 0.6552(7) 0.1945(4)
O4* O 1.0499(10) 0.6245(7) 0.0578(4)
#END
