
#######################################################################
#
#                 Cambridge Crystallographic Data Centre
#                                CCDC
#
#######################################################################
#
# If this CIF has been generated from an entry in the Cambridge
# Structural Database, then it will include bibliographic, chemical,
# crystal, experimental, refinement or atomic coordinate data resulting
# from the CCDC's data processing and validation procedures.
#
#######################################################################

data_CSD_CIF_PIWVID
_audit_creation_date 2018-12-18
_audit_creation_method CSD-ConQuest-V1
_database_code_CSD PIWVID
_database_code_depnum_ccdc_archive 'CCDC 1825628'
_chemical_formula_sum 'C8 H6 Cu2 N4 S3'
_chemical_formula_moiety
;
(C3 Cu2 N3 S3 1-)n,n(C5 H6 N1 1+)
;
_journal_coden_Cambridge 603
_journal_volume 37
_journal_year 2018
_journal_page_first 1979
_journal_name_full 'Jiegou Huaxue(Chin.)(Chin.J.Struct.Chem.) '
loop_
_publ_author_name
"Fei Li"
"Yan Liu"
"Ren-Chun Zhang"
"Min Ji"
"Yong-Lin An"
_chemical_name_systematic
;
catena-(pyridinium (\m-1,3,5-triazine-2,4,6-trithiolato)-copper(ii))
;
_cell_volume    555.949
_exptl_crystal_colour 'red'
_exptl_crystal_density_diffrn 2.279
_exptl_crystal_description 'block'
_diffrn_ambient_temperature 296
#These two values have been output from a single CSD field.
_refine_ls_R_factor_gt 0.07
_refine_ls_wR_factor_gt 0.07
_symmetry_cell_setting triclinic
_symmetry_space_group_name_H-M 'P -1'
_symmetry_Int_Tables_number 2
loop_
_symmetry_equiv_pos_site_id
_symmetry_equiv_pos_as_xyz
1 x,y,z
2 -x,-y,-z
_cell_length_a 7.6824(12)
_cell_length_b 7.8094(13)
_cell_length_c 9.9541(18)
_cell_angle_alpha 79.712(11)
_cell_angle_beta 86.340(11)
_cell_angle_gamma 71.114(10)
_cell_formula_units_Z 2
loop_
_atom_type_symbol
_atom_type_radius_bond
C 0.68
H 0.23
Cu 1.32
N 0.68
S 1.02
loop_
_atom_site_label
_atom_site_type_symbol
_atom_site_fract_x
_atom_site_fract_y
_atom_site_fract_z
Cu1 Cu 0.09430(15) 0.54432(14) 0.08974(12)
S1 S 0.1867(3) 1.2453(3) 0.1627(2)
S2 S -0.0797(3) 0.6933(3) 0.2681(2)
S3 S -0.4201(3) 1.2884(3) -0.0795(2)
N1 N -0.1212(8) 1.2506(8) 0.0499(7)
N2 N -0.2396(8) 1.0014(8) 0.1029(7)
C1 C 0.012(1) 1.1604(10) 0.1427(8)
C2 C -0.1036(10) 0.915(1) 0.1924(8)
N3 N 0.0190(8) 0.9968(9) 0.2185(7)
C3 C -0.2507(10) 1.1713(10) 0.0341(9)
Cu2 Cu 0.36561(15) 1.15710(15) -0.04405(13)
N4 N 0.2664(11) 0.8229(11) 0.4233(8)
H1 H 0.19250 0.87670 0.35610
C4 C 0.2098(14) 0.7301(14) 0.5338(10)
H2 H 0.09080 0.72370 0.53670
C5 C 0.4378(13) 0.8324(13) 0.4165(10)
H3 H 0.47790 0.89450 0.33860
C6 C 0.3223(14) 0.6451(12) 0.6421(9)
H4 H 0.28120 0.58080 0.71850
C7 C 0.5535(14) 0.7503(14) 0.5248(10)
H5 H 0.67140 0.75960 0.52140
C8 C 0.4970(15) 0.6553(13) 0.637(1)
H6 H 0.57640 0.59760 0.71000
Cu1* Cu 0.09430(15) 1.54432(14) 0.08974(12)
Cu1A Cu -0.09430(15) 1.45568(14) -0.08974(12)
S1* S 0.1867(3) 0.2453(3) 0.1627(2)
S3* S 0.5799(3) 1.2884(3) -0.0795(2)
N1A N 0.1212(8) 0.7494(8) -0.0499(7)
N2A N 0.2396(8) 0.9986(8) -0.1029(7)
Cu2* Cu -0.63439(15) 1.15710(15) -0.04405(13)
Cu2A Cu -0.36561(15) 0.84290(15) 0.04405(13)
#END
