
#######################################################################
#
#                 Cambridge Crystallographic Data Centre
#                                CCDC
#
#######################################################################
#
# If this CIF has been generated from an entry in the Cambridge
# Structural Database, then it will include bibliographic, chemical,
# crystal, experimental, refinement or atomic coordinate data resulting
# from the CCDC's data processing and validation procedures.
#
#######################################################################

data_CSD_CIF_PIWWAT
_audit_creation_date 1995-01-12
_audit_creation_method CSD-ConQuest-V1
_database_code_CSD PIWWAT
_chemical_formula_sum 'C30 H42 N2 O18 P4 V4'
_chemical_formula_moiety
;
(C4 H12 N1 1+)n,n(C2 H8 N1 1+),n(C24 H22 O18 P4 V4 2-)
;
_journal_coden_Cambridge 4
_journal_volume 116
_journal_year 1994
_journal_page_first 4525
_journal_name_full 'J.Am.Chem.Soc. '
loop_
_publ_author_name
"M.I.Khan"
"Young-Sook Lee"
"C.J.O'Connor"
"R.C.Haushalter"
"J.Zubieta"
_chemical_name_systematic
;
catena(Diethylammonium dimethylammonium 
bis(\m~2~-hydroxo)-tetrakis((\m~3~-phenylphosphonato-O,O',O'')-oxo-vanadium))
;
_cell_volume   4249.098
_exptl_crystal_colour 'green'
_exptl_crystal_density_diffrn 1.635
_diffrn_ambient_temperature 213
#These two values have been output from a single CSD field.
_refine_ls_R_factor_gt 0.0602
_refine_ls_wR_factor_gt 0.0602
_symmetry_cell_setting monoclinic
_symmetry_space_group_name_H-M 'P 21/c'
_symmetry_Int_Tables_number 14
loop_
_symmetry_equiv_pos_site_id
_symmetry_equiv_pos_as_xyz
1 x,y,z
2 -x,1/2+y,1/2-z
3 -x,-y,-z
4 x,-1/2-y,-1/2+z
_cell_length_a 21.022(3)
_cell_length_b 19.034(3)
_cell_length_c 10.771(2)
_cell_angle_alpha 90
_cell_angle_beta 99.63(2)
_cell_angle_gamma 90
_cell_formula_units_Z 4
loop_
_atom_type_symbol
_atom_type_radius_bond
C 0.68
H 0.23
N 0.68
O 0.68
P 1.05
V 1.24
loop_
_atom_site_label
_atom_site_type_symbol
_atom_site_fract_x
_atom_site_fract_y
_atom_site_fract_z
V1 V 0.8344(1) 0.2085(1) 0.2527(2)
V2 V 0.8345(1) 0.1027(1) -0.2052(2)
V3 V 0.8272(1) -0.2924(1) 0.1270(2)
V4 V 0.8327(1) -0.1045(1) 0.0863(2)
P1 P 0.7834(2) -0.0655(2) -0.2223(2)
P2 P 0.7860(2) 0.0662(2) 0.0739(3)
P3 P 0.7784(2) -0.1808(2) 0.3186(3)
P4 P 0.7847(2) 0.1813(2) 0.5275(3)
O1 O 0.9016(5) -0.2959(5) 0.1603(7)
O2 O 0.9094(4) 0.2071(4) 0.2744(7)
O3 O 0.9072(5) -0.1069(5) 0.1228(9)
O4 O 0.8071(6) 0.0889(4) -0.0473(7)
O5 O 0.9084(5) 0.1003(5) -0.1834(9)
O6 O 0.8074(4) -0.2016(3) 0.0452(6)
O7 O 0.8132(5) -0.0903(4) -0.0926(7)
O8 O 0.8029(4) -0.1677(4) 0.4573(6)
O9 O 0.8117(4) 0.2990(3) 0.3190(6)
O10 O 0.8074(4) 0.1685(4) 0.4026(6)
O11 O 0.8062(4) 0.0063(4) -0.2525(6)
O12 O 0.7989(5) -0.1213(4) 0.2424(6)
O13 O 0.8066(5) 0.1213(4) 0.6149(6)
O14 O 0.8087(4) 0.1167(4) 0.1812(6)
O15 O 0.7974(4) -0.2527(3) 0.2773(6)
O16 O 0.8069(4) -0.0073(4) 0.1120(6)
O17 O 0.7969(4) -0.1169(4) -0.3227(6)
O18 O 0.8060(4) 0.2527(3) 0.5826(6)
C1 C 0.6989(7) -0.0633(7) -0.2351(12)
C2 C 0.6664(10) -0.1207(11) -0.1933(16)
C3 C 0.6002(12) -0.1205(14) -0.208(2)
C4 C 0.5672(14) -0.0643(13) -0.2557(21)
C5 C 0.5953(13) -0.0082(16) -0.3009(22)
C6 C 0.6610(11) -0.0074(12) -0.2835(17)
C7 C 0.7014(7) 0.0679(8) 0.0512(12)
C8 C 0.6666(9) 0.0143(9) 0.0878(14)
C9 C 0.6009(12) 0.0179(13) 0.0754(19)
C10 C 0.5698(14) 0.0765(14) 0.0266(22)
C11 C 0.6006(12) 0.1285(14) -0.0188(21)
C12 C 0.6676(10) 0.1257(10) -0.0078(16)
C13 C 0.6936(7) -0.1794(7) 0.2981(12)
C14 C 0.6625(10) -0.1627(10) 0.3980(18)
C15 C 0.5971(12) -0.1596(12) 0.3743(22)
C16 C 0.5600(14) -0.1709(12) 0.2615(23)
C17 C 0.5899(11) -0.1863(11) 0.1612(21)
C18 C 0.6568(8) -0.1887(8) 0.1812(15)
C19 C 0.6993(6) 0.1802(6) 0.4973(11)
C20 C 0.6655(8) 0.1875(8) 0.5974(15)
C21 C 0.5982(11) 0.1862(10) 0.5756(20)
C22 C 0.5670(11) 0.1773(11) 0.4566(19)
C23 C 0.5982(10) 0.1713(10) 0.3589(19)
C24 C 0.6635(8) 0.1718(8) 0.3773(15)
C25 C 0.0001(11) 0.5975(10) 0.3983(18)
C26 C -0.0011(10) 0.550(1) 0.3041(18)
C27 C -0.0017(9) 0.7200(8) 0.4670(15)
C28 C -0.0033(9) 0.7941(8) 0.4313(16)
C29 C 0.2493(9) 0.5043(10) 0.0936(16)
C30 C 0.1102(11) 0.4950(13) 0.0289(20)
N1 N -0.0027(8) 0.6707(8) 0.3912(14)
N2 N 0.1898(9) 0.4888(10) 0.0252(17)
H1 H 0.69040 -0.16010 -0.15450
H2 H 0.57770 -0.16080 -0.18370
H3 H 0.52140 -0.06370 -0.25820
H4 H 0.57010 0.02950 -0.34350
H5 H 0.68210 0.03430 -0.30630
H6 H 0.68850 -0.02720 0.12310
H7 H 0.57700 -0.02090 0.10130
H8 H 0.52410 0.08030 0.02490
H9 H 0.57710 0.16790 -0.05890
H10 H 0.69050 0.16320 -0.04060
H11 H 0.68620 -0.15360 0.48050
H12 H 0.57550 -0.14870 0.44370
H13 H 0.51380 -0.16810 0.25160
H14 H 0.56530 -0.19520 0.07940
H15 H 0.67820 -0.19710 0.11050
H16 H 0.68850 0.19340 0.68150
H17 H 0.57450 0.19160 0.64390
H18 H 0.52070 0.17510 0.44160
H19 H 0.57420 0.16660 0.27530
H20 H 0.68550 0.16630 0.30660
H21 H -0.03580 0.58470 0.43820
H22 H 0.03970 0.58780 0.45440
H23 H 0.00150 0.50340 0.33870
H24 H 0.03490 0.55800 0.26160
H25 H -0.04060 0.55490 0.24540
H26 H -0.03840 0.71300 0.50790
H27 H 0.03720 0.71400 0.52700
H28 H -0.00220 0.82270 0.50500
H29 H -0.04220 0.80360 0.37310
H30 H 0.03340 0.80470 0.39230
H31 H 0.28240 0.48850 0.04860
H32 H 0.25420 0.48100 0.17370
H33 H 0.25300 0.55410 0.10640
H34 H 0.07350 0.50840 0.06590
H35 H 0.11010 0.44500 0.01750
H36 H 0.10800 0.51770 -0.05130
O18C O 0.8060(4) 0.2473(3) 0.0826(6)
O9C O 0.8117(4) 0.2010(3) -0.1810(6)
O13* O 0.8066(5) 0.1213(4) -0.3851(6)
O8C O 0.8029(4) -0.3323(4) -0.0427(6)
O17C O 0.7969(4) -0.3831(4) 0.1773(6)
V3C V 0.8272(1) -0.2076(1) 0.6270(2)
V2C V 0.8345(1) 0.3973(1) 0.2948(2)
V2* V 0.8345(1) 0.1027(1) 0.7948(2)
V3C* V 0.8272(1) -0.2076(1) -0.3730(2)
V1C V 0.8344(1) 0.2915(1) 0.7527(2)
#END
