
#######################################################################
#
#                 Cambridge Crystallographic Data Centre
#                                CCDC
#
#######################################################################
#
# If this CIF has been generated from an entry in the Cambridge
# Structural Database, then it will include bibliographic, chemical,
# crystal, experimental, refinement or atomic coordinate data resulting
# from the CCDC's data processing and validation procedures.
#
#######################################################################

data_CSD_CIF_PIXGAH
_audit_creation_date 2018-12-19
_audit_creation_method CSD-ConQuest-V1
_database_code_CSD PIXGAH
_database_code_depnum_ccdc_archive 'CCDC 1851048'
_chemical_formula_sum 'C46 H34 N2 O16 Zn3'
_chemical_formula_moiety
;
(C32 H16 O16 Zn3 2-)n,C14 H18 N2 2+
;
_journal_coden_Cambridge 574
_journal_volume 163
_journal_year 2019
_journal_page_first 496
_journal_name_full 'Dyes Pigm. '
loop_
_publ_author_name
"Jin-jian Liu"
_chemical_name_systematic
;
catena-[1,1'-diethyl-4,4'-bipyridin-1-ium tetrakis(\m-isophthalato)-tri-zinc]
;
_cell_volume   1035.901
_exptl_crystal_colour 'green'
_exptl_crystal_density_diffrn 1.71
_exptl_crystal_description 'block'
_diffrn_ambient_temperature 293
#These two values have been output from a single CSD field.
_refine_ls_R_factor_gt 0.0451
_refine_ls_wR_factor_gt 0.0451
_symmetry_cell_setting triclinic
_symmetry_space_group_name_H-M 'P -1'
_symmetry_Int_Tables_number 2
loop_
_symmetry_equiv_pos_site_id
_symmetry_equiv_pos_as_xyz
1 x,y,z
2 -x,-y,-z
_cell_length_a 9.6061(4)
_cell_length_b 10.1802(5)
_cell_length_c 11.8289(6)
_cell_angle_alpha 101.373(4)
_cell_angle_beta 112.499(4)
_cell_angle_gamma 93.458(4)
_cell_formula_units_Z 1
loop_
_atom_type_symbol
_atom_type_radius_bond
C 0.68
H 0.23
N 0.68
O 0.68
Zn 1.22
loop_
_atom_site_label
_atom_site_type_symbol
_atom_site_fract_x
_atom_site_fract_y
_atom_site_fract_z
Zn1 Zn 0.31551(5) 0.73441(5) 0.25131(5)
Zn2 Zn 0.50000 1.00000 0.50000
O1 O 0.2236(4) 0.5600(3) 0.1091(3)
O2 O -0.4743(3) 0.8011(3) 0.3875(3)
O3 O 0.3828(4) 0.0441(3) 0.3224(3)
O4 O 0.2779(4) -0.1268(3) 0.1498(3)
O5 O 0.1535(4) 0.7636(3) 0.3177(3)
O6 O 0.3151(5) 0.5130(4) 0.2932(4)
O7 O 0.3088(4) 0.9010(4) 0.5027(3)
O8 O -0.4131(4) 0.6945(4) 0.2350(4)
C1 C 0.2151(5) 0.3280(4) 0.1129(4)
C2 C 0.0557(5) 0.8298(4) 0.4717(4)
C3 C 0.2449(5) 0.0976(4) 0.1278(4)
C4 C 0.3078(5) -0.0021(4) 0.2074(4)
C5 C 0.2725(5) 0.2354(4) 0.1839(4)
H1 H 0.33020 0.26570 0.27010
C6 C -0.2110(5) 0.7935(4) 0.4327(4)
C7 C 0.2529(5) 0.4774(4) 0.1757(5)
C8 C 0.0937(5) 0.8637(4) 0.6009(4)
H2 H 0.19490 0.89130 0.65720
C9 C -0.0949(5) 0.7940(4) 0.3885(4)
H3 H -0.11970 0.77000 0.30230
C10 C -0.3753(5) 0.7604(4) 0.3430(4)
C11 C 0.1832(5) 0.8317(4) 0.4271(4)
C12 C 0.1594(6) 0.0543(4) -0.0001(4)
H4 H 0.14120 -0.03760 -0.03880
C13 C -0.1708(5) 0.8224(4) 0.5620(4)
H5 H -0.24670 0.81890 0.59250
C14 C -0.0206(5) 0.8563(5) 0.6456(4)
H6 H 0.00460 0.87420 0.73180
C15 C 0.1288(6) 0.2830(5) -0.0157(5)
H7 H 0.09030 0.34480 -0.06380
C16 C 0.1002(6) 0.1461(5) -0.0721(5)
H8 H 0.04130 0.11540 -0.15810
N1 N 0.7065(6) 0.4028(5) 0.1974(6)
C17 C 0.7855(7) 0.4536(6) 0.4178(7)
H9 H 0.75950 0.46120 0.48660
C18 C 0.6763(8) 0.4173(7) 0.3007(7)
H10 H 0.57540 0.40160 0.29050
C19 C 0.9386(6) 0.4801(5) 0.4370(6)
C20 C 0.5467(8) 0.2020(9) 0.0388(7)
H11 H 0.46740 0.17100 -0.04420
H12 H 0.51300 0.17570 0.09890
H13 H 0.63600 0.16250 0.04200
C21 C 0.9657(8) 0.4671(6) 0.3266(7)
H14 H 1.06490 0.48580 0.33330
C22 C 0.8507(7) 0.4280(6) 0.2118(7)
H15 H 0.87250 0.41840 0.14070
C23 C 0.5836(8) 0.3525(9) 0.0697(8)
H16 H 0.61590 0.37930 0.00820
H17 H 0.49330 0.39260 0.06580
Zn1A Zn -0.31551(5) 1.26559(5) 0.74869(5)
O1A O -0.2236(4) 1.4400(3) 0.8909(3)
O2A O 0.4743(3) 1.1989(3) 0.6125(3)
O3A O -0.3828(4) 1.9559(3) 0.6776(3)
O4A O -0.2779(4) 2.1268(3) 0.8502(3)
O5A O -0.1535(4) 1.2364(3) 0.6823(3)
O6A O -0.3151(5) 1.4870(4) 0.7068(4)
O7A O -0.3088(4) 1.0990(4) 0.4973(3)
O8A O 0.4131(4) 1.3055(4) 0.7650(4)
C1A C -0.2151(5) 1.6720(4) 0.8871(4)
C2A C -0.0557(5) 1.1702(4) 0.5283(4)
C3A C -0.2449(5) 1.9024(4) 0.8722(4)
C4A C -0.3078(5) 2.0021(4) 0.7926(4)
C5A C -0.2725(5) 1.7646(4) 0.8161(4)
H1A H -0.33020 1.73430 0.72990
C6A C 0.2110(5) 1.2065(4) 0.5673(4)
C7A C -0.2529(5) 1.5226(4) 0.8243(5)
C8A C -0.0937(5) 1.1363(4) 0.3991(4)
H2A H -0.19490 1.10870 0.34280
C9A C 0.0949(5) 1.2060(4) 0.6115(4)
H3A H 0.11970 1.23000 0.69770
C10A C 0.3753(5) 1.2396(4) 0.6570(4)
C11A C -0.1832(5) 1.1683(4) 0.5729(4)
C12A C -0.1594(6) 1.9457(4) 1.0001(4)
H4A H -0.14120 2.03760 1.03880
C13A C 0.1708(5) 1.1776(4) 0.4380(4)
H5A H 0.24670 1.18110 0.40750
C14A C 0.0206(5) 1.1437(5) 0.3544(4)
H6A H -0.00460 1.12580 0.26820
C15A C -0.1288(6) 1.7170(5) 1.0157(5)
H7A H -0.09030 1.65520 1.06380
C16A C -0.1002(6) 1.8539(5) 1.0721(5)
H8A H -0.04130 1.88460 1.15810
Zn1* Zn -0.68449(5) 0.73441(5) 0.25131(5)
Zn1** Zn 0.31551(5) -0.26559(5) 0.25131(5)
Zn1A* Zn -0.31551(5) 2.26559(5) 0.74869(5)
Zn1A** Zn 0.68449(5) 1.26559(5) 0.74869(5)
Zn2* Zn -0.50000 1.00000 0.50000
Zn2** Zn -0.50000 2.00000 0.50000
Zn2*** Zn 0.50000 0.00000 0.50000
O2* O 0.5257(3) 0.8011(3) 0.3875(3)
O2A* O -0.5257(3) 1.1989(3) 0.6125(3)
O3* O 0.3828(4) 1.0441(3) 0.3224(3)
O3A* O 0.6172(4) 0.9559(3) 0.6776(3)
O4* O 0.2779(4) 0.8732(3) 0.1498(3)
O4A* O -0.2779(4) 1.1268(3) 0.8502(3)
O7A* O 0.6912(4) 1.0990(4) 0.4973(3)
N1A N 1.2935(6) 0.5972(5) 0.8026(6)
C17A C 1.2145(7) 0.5464(6) 0.5822(7)
H9A H 1.24050 0.53880 0.51340
C18A C 1.3237(8) 0.5827(7) 0.6993(7)
H10A H 1.42460 0.59840 0.70950
C19A C 1.0614(6) 0.5199(5) 0.5630(6)
C20A C 1.4533(8) 0.7980(9) 0.9612(7)
H11A H 1.53260 0.82900 1.04420
H12A H 1.48700 0.82430 0.90110
H13A H 1.36400 0.83750 0.95800
C21A C 1.0343(8) 0.5329(6) 0.6734(7)
H14A H 0.93510 0.51420 0.66670
C22A C 1.1493(7) 0.5720(6) 0.7882(7)
H15A H 1.12750 0.58160 0.85930
C23A C 1.4164(8) 0.6475(9) 0.9303(8)
H16A H 1.38410 0.62070 0.99180
H17A H 1.50670 0.60740 0.93420
#END
