
#######################################################################
#
#                 Cambridge Crystallographic Data Centre
#                                CCDC
#
#######################################################################
#
# If this CIF has been generated from an entry in the Cambridge
# Structural Database, then it will include bibliographic, chemical,
# crystal, experimental, refinement or atomic coordinate data resulting
# from the CCDC's data processing and validation procedures.
#
#######################################################################

data_CSD_CIF_PIXGEL
_audit_creation_date 2018-12-19
_audit_creation_method CSD-ConQuest-V1
_database_code_CSD PIXGEL
_database_code_depnum_ccdc_archive 'CCDC 1851941'
_chemical_formula_sum 'C46 H34 Cd3 N2 O16'
_chemical_formula_moiety
;
(C32 H16 Cd3 O16 2-)n,C14 H18 N2 2+
;
_journal_coden_Cambridge 574
_journal_volume 163
_journal_year 2019
_journal_page_first 496
_journal_name_full 'Dyes Pigm. '
loop_
_publ_author_name
"Jin-jian Liu"
_chemical_name_systematic
;
catena-[1,1'-diethyl-4,4'-bipyridin-1-ium 
tetrakis(\m-isophthalato)-tri-cadmium]
;
_cell_volume   1090.138
_exptl_crystal_colour 'blue'
_exptl_crystal_density_diffrn 1.837
_exptl_crystal_description 'block'
_diffrn_ambient_temperature 273.1
#These two values have been output from a single CSD field.
_refine_ls_R_factor_gt 0.0378
_refine_ls_wR_factor_gt 0.0378
_symmetry_cell_setting triclinic
_symmetry_space_group_name_H-M 'P -1'
_symmetry_Int_Tables_number 2
loop_
_symmetry_equiv_pos_site_id
_symmetry_equiv_pos_as_xyz
1 x,y,z
2 -x,-y,-z
_cell_length_a 9.8122(10)
_cell_length_b 10.3615(10)
_cell_length_c 11.7870(12)
_cell_angle_alpha 98.325(2)
_cell_angle_beta 111.717(2)
_cell_angle_gamma 94.508(2)
_cell_formula_units_Z 1
loop_
_atom_type_symbol
_atom_type_radius_bond
C 0.68
H 0.23
Cd 1.44
N 0.68
O 0.68
loop_
_atom_site_label
_atom_site_type_symbol
_atom_site_fract_x
_atom_site_fract_y
_atom_site_fract_z
Cd1 Cd 1.00000 1.00000 0.50000
Cd2 Cd 0.82299(3) 0.72552(2) 0.25180(2)
C1 C 1.2960(4) 0.7967(3) 0.4458(3)
C2 C 0.7422(4) 0.4675(3) 0.1523(4)
C3 C 1.1344(4) 0.7635(3) 0.3617(4)
C4 C 1.4066(4) 0.7910(3) 0.3989(3)
H1 H 1.38140 0.76330 0.31410
C5 C 1.3356(4) 0.8318(4) 0.5744(4)
H2 H 1.26250 0.83310 0.60690
O1 O 1.0414(3) 0.7996(3) 0.4083(3)
O2 O 0.7153(4) 0.5495(3) 0.0833(3)
C6 C 0.7069(4) 0.3233(3) 0.0966(3)
C7 C 0.7668(4) 0.2320(3) 0.1684(3)
H3 H 0.82460 0.25990 0.25260
C8 C 0.6192(5) 0.2817(4) -0.0285(4)
H4 H 0.57870 0.34290 -0.07710
C9 C 1.5918(4) 0.8650(4) 0.6047(4)
H5 H 1.69060 0.89120 0.65760
O3 O 0.8016(5) 0.5002(3) 0.2694(3)
O4 O 1.0953(3) 0.7027(4) 0.2553(3)
C10 C 1.5544(4) 0.8267(3) 0.4780(3)
C11 C 1.4825(5) 0.8642(4) 0.6526(4)
H6 H 1.50860 0.88570 0.73800
C12 C 0.7415(4) 0.0984(3) 0.1160(3)
C13 C 0.6539(5) 0.0586(4) -0.0101(4)
H7 H 0.63720 -0.03000 -0.04660
C14 C 0.5918(6) 0.1491(4) -0.0814(4)
H8 H 0.53140 0.12120 -0.16510
C15 C 0.8074(4) -0.0016(3) 0.1948(3)
O5 O 0.7772(4) -0.1203(3) 0.1397(3)
O6 O 0.8826(4) 0.0403(3) 0.3060(3)
C16 C 1.6761(4) 0.8221(4) 0.4293(4)
O7 O 1.6445(3) 0.7553(4) 0.3241(3)
O8 O 1.8008(3) 0.8833(4) 0.5007(4)
C17 C 1.4388(7) 0.4810(5) 0.4396(7)
N1 N 1.2095(7) 0.4075(7) 0.2085(7)
C18 C 1.2926(9) 0.4576(7) 0.4274(9)
H9 H 1.27050 0.46550 0.49810
C19 C 1.4623(10) 0.4663(6) 0.3270(9)
H10 H 1.55810 0.48250 0.32970
C20 C 1.1829(9) 0.4238(9) 0.3149(10)
H11 H 1.08550 0.41110 0.30910
C21 C 1.3501(9) 0.4300(8) 0.2180(9)
H12 H 1.36940 0.41990 0.14590
C22 C 1.0863(11) 0.3636(15) 0.0863(11)
H13 H 1.03380 0.41950 0.03660
C23 C 1.0585(12) 0.2189(17) 0.0545(10)
H14 H 0.98700 0.19150 -0.02920
H15 H 1.02110 0.18480 0.11050
H16 H 1.14940 0.18570 0.06140
Cd2A Cd 1.17701(3) 0.27448(2) 0.74820(2)
C1A C 0.7040(4) 0.2033(3) 0.5542(3)
C2A C 1.2578(4) 0.5325(3) 0.8477(4)
C3A C 0.8656(4) 0.2365(3) 0.6383(4)
C4A C 0.5934(4) 0.2090(3) 0.6011(3)
H1A H 0.61860 0.23670 0.68590
C5A C 0.6644(4) 0.1682(4) 0.4256(4)
H2A H 0.73750 0.16690 0.39310
O1A O 0.9586(3) 0.2004(3) 0.5917(3)
O2A O 1.2847(4) 0.4505(3) 0.9167(3)
C6A C 1.2931(4) 0.6767(3) 0.9034(3)
C7A C 1.2332(4) 0.7680(3) 0.8316(3)
H3A H 1.17540 0.74010 0.74740
C8A C 1.3808(5) 0.7183(4) 1.0285(4)
H4A H 1.42130 0.65710 1.07710
C9A C 0.4082(4) 0.1350(4) 0.3953(4)
H5A H 0.30940 0.10880 0.34240
O3A O 1.1984(5) 0.4998(3) 0.7306(3)
O4A O 0.9047(3) 0.2973(4) 0.7447(3)
C10A C 0.4456(4) 0.1733(3) 0.5220(3)
C11A C 0.5175(5) 0.1358(4) 0.3474(4)
H6A H 0.49140 0.11430 0.26200
C12A C 1.2585(4) 0.9016(3) 0.8840(3)
C13A C 1.3461(5) 0.9414(4) 1.0101(4)
H7A H 1.36280 1.03000 1.04660
C14A C 1.4082(6) 0.8509(4) 1.0814(4)
H8A H 1.46860 0.87880 1.16510
C15A C 1.1926(4) 1.0016(3) 0.8052(3)
O5A O 1.2228(4) 1.1203(3) 0.8603(3)
O6A O 1.1174(4) 0.9597(3) 0.6940(3)
C16A C 0.3239(4) 0.1779(4) 0.5707(4)
O7A O 0.3555(3) 0.2447(4) 0.6759(3)
O8A O 0.1992(3) 0.1167(4) 0.4993(4)
Cd1* Cd 0.00000 0.00000 0.50000
Cd1** Cd 1.00000 0.00000 0.50000
Cd1*** Cd 2.00000 1.00000 0.50000
Cd2* Cd 0.82299(3) -0.27448(2) 0.25180(2)
Cd2** Cd 1.82299(3) 0.72552(2) 0.25180(2)
Cd2A* Cd 0.17701(3) 0.27448(2) 0.74820(2)
Cd2A** Cd 1.17701(3) 1.27448(2) 0.74820(2)
O1A* O 0.9586(3) 1.2004(3) 0.5917(3)
O5* O 0.7772(4) 0.8797(3) 0.1397(3)
O5A* O 1.2228(4) 0.1203(3) 0.8603(3)
O6* O 0.8826(4) 1.0403(3) 0.3060(3)
O7* O 0.6445(3) 0.7553(4) 0.3241(3)
O7A* O 1.3555(3) 0.2447(4) 0.6759(3)
O8* O 0.8008(3) 0.8833(4) 0.5007(4)
O8A* O 1.1992(3) 1.1167(4) 0.4993(4)
C17A C 1.5612(7) 0.5190(5) 0.5604(7)
N1A N 1.7905(7) 0.5925(7) 0.7915(7)
C18A C 1.7074(9) 0.5424(7) 0.5726(9)
H9A H 1.72950 0.53450 0.50190
C19A C 1.5377(10) 0.5337(6) 0.6730(9)
H10A H 1.44190 0.51750 0.67030
C20A C 1.8171(9) 0.5762(9) 0.6851(10)
H11A H 1.91450 0.58890 0.69090
C21A C 1.6499(9) 0.5700(8) 0.7820(9)
H12A H 1.63060 0.58010 0.85410
C22A C 1.9137(11) 0.6364(15) 0.9137(11)
H13A H 1.96620 0.58050 0.96340
C23A C 1.9415(12) 0.7811(17) 0.9455(10)
H14A H 2.01300 0.80850 1.02920
H15A H 1.97890 0.81520 0.88950
H16A H 1.85060 0.81430 0.93860
#END
