
#######################################################################
#
#                 Cambridge Crystallographic Data Centre
#                                CCDC
#
#######################################################################
#
# If this CIF has been generated from an entry in the Cambridge
# Structural Database, then it will include bibliographic, chemical,
# crystal, experimental, refinement or atomic coordinate data resulting
# from the CCDC's data processing and validation procedures.
#
#######################################################################

data_CSD_CIF_PIXPOE
_audit_creation_date 2018-12-19
_audit_creation_method CSD-ConQuest-V1
_database_code_CSD PIXPOE
_database_code_depnum_ccdc_archive 'CCDC 1874922'
_chemical_formula_sum 'C4 H9 Co1 N1 O6'
_chemical_formula_moiety
;
(C3 H3 Co1 O6 1-)n,C1 H6 N1 1+
;
_journal_coeditor_code "lt5013"
_journal_coden_Cambridge 1742
_journal_volume 6
_journal_year 2019
_journal_page_first 105
_journal_name_full 'IUCrJ '
loop_
_publ_author_name
"L.Canadillas-Delgado"
"L.Mazzuca"
"O.Fabelo"
"J.A.Rodriguez-Velamazan"
"J.Rodriguez-Carvajal"
_chemical_name_systematic
;
catena-(methylammonium tris(\m~2~-formato)-cobalt(ii))
;
_cell_volume    788.293
_exptl_crystal_colour 'red'
_exptl_crystal_density_diffrn 1.905
_exptl_special_details
;
Pnma polymorph

;
_exptl_crystal_description 'prism'
_diffrn_ambient_temperature 90
_diffrn_radiation_probe 'neutron'
#These two values have been output from a single CSD field.
_refine_ls_R_factor_gt 0.103
_refine_ls_wR_factor_gt 0.103
_symmetry_cell_setting orthorhombic
_symmetry_space_group_name_H-M 'P n m a'
_symmetry_Int_Tables_number 62
loop_
_symmetry_equiv_pos_site_id
_symmetry_equiv_pos_as_xyz
1 x,y,z
2 1/2-x,-y,1/2+z
3 -x,1/2+y,-z
4 1/2+x,1/2-y,1/2-z
5 -x,-y,-z
6 -1/2+x,y,-1/2-z
7 x,-1/2-y,z
8 -1/2-x,-1/2+y,-1/2+z
_cell_length_a 8.2702(3)
_cell_length_b 11.6766(4)
_cell_length_c 8.1631(6)
_cell_angle_alpha 90
_cell_angle_beta 90
_cell_angle_gamma 90
_cell_formula_units_Z 4
loop_
_atom_type_symbol
_atom_type_radius_bond
C 0.68
H 0.23
Co 1.26
N 0.68
O 0.68
loop_
_atom_site_label
_atom_site_type_symbol
_atom_site_fract_x
_atom_site_fract_y
_atom_site_fract_z
Co1 Co 0.50000 0.00000 0.00000
O1 O 0.59560(17) -0.07082(12) -0.2141(3)
O2 O 0.77267(17) -0.05990(12) -0.4184(3)
O3 O 0.47468(18) 0.15492(12) -0.1285(3)
C1 C 0.71992(15) -0.02981(11) -0.2799(2)
C2 C 0.4904(2) 0.25000 -0.0576(4)
H1 H 0.7873(4) 0.0352(3) -0.2144(5)
H2 H 0.5206(7) 0.25000 0.0770(9)
N1 N 0.91491(18) 0.25000 -0.0300(3)
C3 C 1.0871(2) 0.25000 0.0231(5)
H3 H 0.9122(6) 0.25000 -0.1563(10)
H4 H 1.0899(6) 0.25000 0.1590(11)
H5 H 0.8545(4) 0.1784(2) 0.0132(5)
H6 H 1.1455(4) 0.3249(3) -0.0195(6)
O3F O 0.47468(18) 0.34508(12) -0.1285(3)
O1D O 0.40440(17) 0.07082(12) 0.2141(3)
O2D O 0.22733(17) 0.05990(12) 0.4184(3)
C1D C 0.28008(15) 0.02981(11) 0.2799(2)
H1D H 0.2127(4) -0.0352(3) 0.2144(5)
Co1A Co 0.00000 0.00000 0.50000
Co1A* Co 1.00000 0.00000 -0.50000
Co1B Co 0.50000 0.50000 0.00000
O2A O 0.72733(17) 0.05990(12) 0.0816(3)
O2E O 0.27267(17) -0.05990(12) -0.0816(3)
O3D O 0.52532(18) -0.15492(12) 0.1285(3)
H5F H 0.8545(4) 0.3216(2) 0.0132(5)
H6F H 1.1455(4) 0.1751(3) -0.0195(6)
#END
