
#######################################################################
#
#                 Cambridge Crystallographic Data Centre
#                                CCDC
#
#######################################################################
#
# If this CIF has been generated from an entry in the Cambridge
# Structural Database, then it will include bibliographic, chemical,
# crystal, experimental, refinement or atomic coordinate data resulting
# from the CCDC's data processing and validation procedures.
#
#######################################################################

data_CSD_CIF_PIZHUC
_audit_creation_date 2008-10-16
_audit_creation_method CSD-ConQuest-V1
_database_code_CSD PIZHUC
_database_code_depnum_ccdc_archive 'CCDC 649312'
_chemical_formula_sum 'C52 H100 Cl1 Cu2 Mo12 N8 O62 P1'
_chemical_formula_moiety
;
(C52 H60 Cl1 Cu2 N8 O2 3+)n,n(Mo12 O40 P1 3-),20n(H2 O1)
;
_journal_coden_Cambridge 9
_journal_volume 47
_journal_year 2008
_journal_page_first 2442
_journal_name_full 'Inorg.Chem. '
loop_
_publ_author_name
"Xiuli Wang"
"Yanfeng Bi"
"Baokuan Chen"
"Hongyan Lin"
"Guocheng Liu"
_chemical_name_systematic
;
catena-((\m~2~-Chloro)-tetrakis(\m~2~-1,3-bis(4-pyridyl)propane)-diaqua-di-cop
per(ii) (\m~12~-phosphato)-tetracosa(\m~2~-oxo)-dodecaoxo-dodeca-molybdenum 
icosahydrate clathrate)
;
_cell_volume  10925.929
_exptl_crystal_colour 'blue'
_exptl_crystal_density_diffrn 1.927
_exptl_special_details
;
photoluminescent

;
_exptl_crystal_description 'block'
_diffrn_ambient_temperature 293
_refine_special_details
;
The phosphate moiety in the Keggin-type anion is disordered by symmetry with 
occupancy 0.5. Water molecules are also disordered.
;
#These two values have been output from a single CSD field.
_refine_ls_R_factor_gt 0.072
_refine_ls_wR_factor_gt 0.072
_symmetry_cell_setting tetragonal
_symmetry_space_group_name_H-M 'P 42/n'
_symmetry_Int_Tables_number 86
loop_
_symmetry_equiv_pos_site_id
_symmetry_equiv_pos_as_xyz
1 x,y,z
2 -y,1/2+x,1/2+z
3 1/2+y,-x,1/2+z
4 1/2-x,1/2-y,z
5 -x,-y,-z
6 y,-1/2-x,-1/2-z
7 -1/2-y,x,-1/2-z
8 -1/2+x,-1/2+y,-z
_cell_length_a 24.2146(12)
_cell_length_b 24.2146(12)
_cell_length_c 18.6339(12)
_cell_angle_alpha 90
_cell_angle_beta 90
_cell_angle_gamma 90
_cell_formula_units_Z 4
loop_
_atom_type_symbol
_atom_type_radius_bond
C 0.68
H 0.23
Cl 0.99
Cu 1.69
Mo 1.34
N 0.68
O 0.68
P 1.05
loop_
_atom_site_label
_atom_site_type_symbol
_atom_site_fract_x
_atom_site_fract_y
_atom_site_fract_z
Mo1 Mo 0.59406(4) 0.57793(4) 0.60614(5)
Mo2 Mo 0.55099(5) 0.40413(4) 0.37116(6)
Mo3 Mo 0.59113(5) 0.59516(5) 0.41548(7)
Mo4 Mo 0.64313(5) 0.47078(5) 0.49260(7)
Mo5 Mo 0.48727(6) 0.52878(5) 0.31282(6)
Mo6 Mo 0.54877(6) 0.36870(5) 0.55780(8)
P1 P 0.50000 0.50000 0.50000
O1 O 0.5479(5) 0.4558(5) 0.4785(6)
O2 O 0.5141(6) 0.5245(5) 0.5674(7)
O3 O 0.4475(5) 0.4759(5) 0.4905(6)
O4 O 0.5100(5) 0.5448(5) 0.4361(6)
O5 O 0.5739(4) 0.3093(3) 0.5863(5)
O6 O 0.6424(4) 0.5183(4) 0.5698(5)
O7 O 0.6008(3) 0.6117(4) 0.5200(5)
O8 O 0.7095(4) 0.4577(4) 0.4844(5)
O9 O 0.6360(4) 0.5360(3) 0.4303(5)
O10 O 0.5287(4) 0.6118(4) 0.6281(5)
O11 O 0.5361(4) 0.4636(4) 0.3141(4)
O12 O 0.5720(4) 0.3571(3) 0.3136(5)
O13 O 0.5705(4) 0.5182(4) 0.6725(4)
O14 O 0.6349(4) 0.6411(4) 0.3809(5)
O15 O 0.4861(4) 0.5392(4) 0.2259(5)
O16 O 0.5585(5) 0.5673(5) 0.3351(7)
O17 O 0.6380(5) 0.6126(4) 0.6575(6)
O18 O 0.5494(5) 0.3599(5) 0.4614(6)
O19 O 0.5254(4) 0.6407(5) 0.4302(6)
O20 O 0.6157(5) 0.4328(5) 0.4061(6)
O21 O 0.6152(5) 0.4125(5) 0.5454(6)
O22 O 0.4533(4) 0.5889(5) 0.3499(7)
Cu1 Cu 0.57327(7) 0.41536(6) 0.01327(8)
Cl1 Cl 0.50000 0.50000 0.00000
C1 C 0.4954(5) 0.3961(5) 0.1336(6)
H1 H 0.50010 0.43390 0.14020
C2 C 0.4611(5) 0.3698(5) 0.1786(6)
H2 H 0.44400 0.38870 0.21590
C3 C 0.4514(5) 0.3140(5) 0.1687(6)
C4 C 0.4799(5) 0.2882(5) 0.1151(7)
H3 H 0.47560 0.25050 0.10760
C5 C 0.5150(5) 0.3183(5) 0.0722(7)
H4 H 0.53380 0.30000 0.03590
C6 C 0.5167(5) 0.1139(5) 0.3930(6)
H5 H 0.51300 0.07650 0.38280
C7 C 0.4898(5) 0.1522(6) 0.3500(7)
H6 H 0.46660 0.14010 0.31350
C8 C 0.4971(6) 0.2074(7) 0.3607(8)
C9 C 0.5304(7) 0.2222(7) 0.4175(9)
H7 H 0.53660 0.25950 0.42640
C10 C 0.5543(6) 0.1845(7) 0.4603(9)
H8 H 0.57570 0.19640 0.49870
C11 C 0.4103(6) 0.2820(6) 0.2156(7)
H9 H 0.39230 0.30780 0.24790
H10 H 0.38200 0.26630 0.18490
C12 C 0.4353(7) 0.2361(6) 0.2596(8)
H11 H 0.40570 0.21570 0.28240
H12 H 0.45420 0.21100 0.22740
C13 C 0.4723(7) 0.2530(6) 0.3122(9)
H13 H 0.45370 0.27960 0.34280
H14 H 0.50250 0.27220 0.28890
C14 C 0.6106(6) 0.4973(7) 0.1156(8)
H15 H 0.58910 0.51990 0.08650
C15 C 0.6381(7) 0.5218(8) 0.1724(9)
H16 H 0.63730 0.55970 0.18000
C16 C 0.6670(5) 0.4866(7) 0.2174(7)
C17 C 0.6693(7) 0.4359(8) 0.2022(10)
H17 H 0.68920 0.41240 0.23190
C18 C 0.6428(7) 0.4143(8) 0.1423(10)
H18 H 0.64640 0.37690 0.13160
C19 C 0.8529(7) 0.4325(6) 0.3754(8)
H19 H 0.85430 0.39420 0.37890
C20 C 0.8257(7) 0.4543(6) 0.3164(8)
H20 H 0.80930 0.43120 0.28290
C21 C 0.8237(8) 0.5066(6) 0.3088(8)
C22 C 0.8471(7) 0.5398(7) 0.3610(9)
H21 H 0.84390 0.57790 0.35750
C23 C 0.8759(6) 0.5165(6) 0.4191(8)
H22 H 0.89400 0.53930 0.45170
C24 C 0.6972(11) 0.5102(10) 0.2823(12)
H23 H 0.66980 0.51850 0.31860
H24 H 0.72070 0.48130 0.30150
C25 C 0.7274(10) 0.5538(10) 0.2737(13)
H25 H 0.73130 0.57320 0.31900
H26 H 0.71010 0.57860 0.23950
C26 C 0.7871(9) 0.5348(8) 0.2447(10)
H27 H 0.80660 0.56660 0.22580
H28 H 0.78240 0.50850 0.20600
N1 N 0.5235(4) 0.3724(4) 0.0801(5)
N2 N 0.5481(4) 0.1297(4) 0.4493(5)
N3 N 0.6125(4) 0.4463(5) 0.1004(5)
N4 N 0.8773(4) 0.4612(4) 0.4277(6)
O23 O 0.6459(7) 0.3247(6) 0.0159(9)
O24 O 0.2906(8) 0.6357(8) 0.2798(11)
O25 O 0.6787(8) 0.2333(7) -0.0330(11)
Mo1D Mo 0.40594(4) 0.42207(4) 0.39386(5)
Mo2D Mo 0.44901(5) 0.59587(4) 0.62884(6)
Mo3D Mo 0.40887(5) 0.40484(5) 0.58452(7)
Mo4D Mo 0.35687(5) 0.52922(5) 0.50740(7)
Mo5D Mo 0.51273(6) 0.47122(5) 0.68718(6)
Mo6D Mo 0.45123(6) 0.63130(5) 0.44220(8)
O1D O 0.4521(5) 0.5442(5) 0.5215(6)
O2D O 0.4859(6) 0.4755(5) 0.4326(7)
O3D O 0.5525(5) 0.5241(5) 0.5095(6)
O4D O 0.4900(5) 0.4552(5) 0.5639(6)
O5D O 0.4261(4) 0.6907(3) 0.4137(5)
O6D O 0.3576(4) 0.4817(4) 0.4302(5)
O7D O 0.3992(3) 0.3883(4) 0.4800(5)
O8D O 0.2905(4) 0.5423(4) 0.5156(5)
O9D O 0.3640(4) 0.4640(3) 0.5697(5)
O10D O 0.4713(4) 0.3882(4) 0.3719(5)
O11D O 0.4639(4) 0.5364(4) 0.6859(4)
O12D O 0.4280(4) 0.6429(3) 0.6864(5)
O13D O 0.4295(4) 0.4818(4) 0.3275(4)
O14D O 0.3651(4) 0.3589(4) 0.6191(5)
O15D O 0.5139(4) 0.4608(4) 0.7741(5)
O16D O 0.4415(5) 0.4327(5) 0.6649(7)
O17D O 0.3620(5) 0.3874(4) 0.3425(6)
O18D O 0.4506(5) 0.6401(5) 0.5386(6)
O19D O 0.4746(4) 0.3593(5) 0.5698(6)
O20D O 0.3843(5) 0.5672(5) 0.5939(6)
O21D O 0.3848(5) 0.5875(5) 0.4546(6)
O22D O 0.5467(4) 0.4111(5) 0.6501(7)
Cu1D Cu 0.42673(7) 0.58464(6) -0.01327(8)
Cu1A Cu 0.58464(7) 0.07327(6) 0.51327(8)
Cu1B Cu 0.91536(7) 0.42673(6) 0.51327(8)
Cu1B* Cu 0.91536(7) 0.42673(6) -0.48673(8)
Cu1A* Cu 0.58464(7) 0.07327(6) -0.48673(8)
C1B C 0.8961(5) 0.5046(5) -0.3664(6)
H1B H 0.93390 0.49990 -0.35980
C2B C 0.8698(5) 0.5389(5) -0.3214(6)
H2B H 0.88870 0.55600 -0.28410
C3B C 0.8140(5) 0.5486(5) -0.3313(6)
C4B C 0.7882(5) 0.5201(5) -0.3849(7)
H3B H 0.75050 0.52440 -0.39240
C5B C 0.8183(5) 0.4850(5) -0.4278(7)
H4B H 0.80000 0.46620 -0.46410
C6B C 0.6139(5) 0.4833(5) -0.1070(6)
H5B H 0.57650 0.48700 -0.11720
C7B C 0.6522(5) 0.5102(6) -0.1500(7)
H6B H 0.64010 0.53340 -0.18650
C8B C 0.7074(6) 0.5029(7) -0.1393(8)
C9B C 0.7222(7) 0.4696(7) -0.0825(9)
H7B H 0.75950 0.46340 -0.07360
C10B C 0.6845(6) 0.4457(7) -0.0397(9)
H8B H 0.69640 0.42430 -0.00130
C11B C 0.7820(6) 0.5897(6) -0.2844(7)
H9B H 0.80780 0.60770 -0.25210
H10B H 0.76630 0.61800 -0.31510
C12B C 0.7361(7) 0.5647(6) -0.2404(8)
H11B H 0.71570 0.59430 -0.21760
H12B H 0.71100 0.54580 -0.27260
C13B C 0.7530(7) 0.5277(6) -0.1878(9)
H13B H 0.77960 0.54630 -0.15720
H14B H 0.77220 0.49750 -0.21110
C14A C 0.5027(6) 0.1106(7) -0.3844(8)
H15A H 0.48010 0.08910 -0.41350
C15A C 0.4782(7) 0.1381(8) -0.3276(9)
H16A H 0.44030 0.13730 -0.32000
C16A C 0.5134(5) 0.1670(7) -0.2826(7)
C17A C 0.5641(7) 0.1693(8) -0.2978(10)
H17A H 0.58760 0.18920 -0.26810
C18A C 0.5857(7) 0.1428(8) -0.3577(10)
H18A H 0.62310 0.14640 -0.36840
C19A C 0.5675(7) 0.3529(6) -0.1246(8)
H19A H 0.60580 0.35430 -0.12110
C20A C 0.5457(7) 0.3257(6) -0.1836(8)
H20A H 0.56880 0.30930 -0.21710
C21A C 0.4934(8) 0.3237(6) -0.1912(8)
C22A C 0.4602(7) 0.3471(7) -0.1390(9)
H21A H 0.42210 0.34390 -0.14250
C23A C 0.4835(6) 0.3759(6) -0.0809(8)
H22A H 0.46070 0.39400 -0.04830
C24A C 0.4898(11) 0.1972(10) -0.2177(12)
H23A H 0.48150 0.16980 -0.18140
H24A H 0.51870 0.22070 -0.19850
C25A C 0.4462(10) 0.2274(10) -0.2263(13)
H25A H 0.42680 0.23130 -0.18100
H26A H 0.42140 0.21010 -0.26050
C26A C 0.4652(9) 0.2871(8) -0.2553(10)
H27A H 0.43340 0.30660 -0.27420
H28A H 0.49150 0.28240 -0.29400
N1B N 0.8724(4) 0.4765(4) -0.4199(5)
N1D N 0.4765(4) 0.6276(4) -0.0801(5)
N2B N 0.6297(4) 0.4519(4) -0.0507(5)
N2F N 0.3703(4) 0.5481(4) 0.0507(5)
N3A N 0.5537(4) 0.1125(5) -0.3996(5)
N3D N 0.3875(4) 0.5537(5) -0.1004(5)
N4A N 0.5388(4) 0.3773(4) -0.0723(6)
N4E N 0.4612(4) 0.6227(4) 0.0723(6)
O23D O 0.3541(7) 0.6753(6) -0.0159(9)
#END
