
#######################################################################
#
#                 Cambridge Crystallographic Data Centre
#                                CCDC
#
#######################################################################
#
# If this CIF has been generated from an entry in the Cambridge
# Structural Database, then it will include bibliographic, chemical,
# crystal, experimental, refinement or atomic coordinate data resulting
# from the CCDC's data processing and validation procedures.
#
#######################################################################

data_CSD_CIF_PIZNUK
_audit_creation_date 2018-12-20
_audit_creation_method CSD-ConQuest-V1
_database_code_CSD PIZNUK
_database_code_depnum_ccdc_archive 'CCDC 1869726'
_chemical_formula_sum 'C62 H72 O16 P2 U2'
_chemical_formula_moiety
;
(C24 H36 O16 U2 2-)n,2(C19 H18 P1 1+)
;
_journal_coden_Cambridge 9
_journal_volume 58
_journal_year 2019
_journal_page_first 567
_journal_name_full 'Inorg.Chem. '
loop_
_publ_author_name
"P.Thuery"
"Y.Atoini"
"J.Harrowfield"
_chemical_name_systematic
;
catena-[bis(methyl(triphenyl)phosphanium) 
tris(\m-octanedioato)-tetrakis(oxido)-di-uranium(vi)]
;
_cell_volume   3008.926
_exptl_crystal_colour 'light yellow'
_exptl_crystal_density_diffrn 1.778
_exptl_crystal_description 'irregular'
_diffrn_ambient_temperature 100
#These two values have been output from a single CSD field.
_refine_ls_R_factor_gt 0.0207
_refine_ls_wR_factor_gt 0.0207
_symmetry_cell_setting monoclinic
_symmetry_space_group_name_H-M 'P 21/c'
_symmetry_Int_Tables_number 14
loop_
_symmetry_equiv_pos_site_id
_symmetry_equiv_pos_as_xyz
1 x,y,z
2 -x,1/2+y,1/2-z
3 -x,-y,-z
4 x,-1/2-y,-1/2+z
_cell_length_a 9.4938(2)
_cell_length_b 14.6791(4)
_cell_length_c 21.9542(7)
_cell_angle_alpha 90
_cell_angle_beta 100.437(2)
_cell_angle_gamma 90
_cell_formula_units_Z 2
loop_
_atom_type_symbol
_atom_type_radius_bond
C 0.68
H 0.23
O 0.68
P 1.05
U 1.96
loop_
_atom_site_label
_atom_site_type_symbol
_atom_site_fract_x
_atom_site_fract_y
_atom_site_fract_z
U1 U 0.14401(2) 0.73793(2) 0.54601(2)
O1 O 0.1075(2) 0.66623(15) 0.60589(9)
O2 O 0.1791(2) 0.81152(14) 0.48657(9)
O3 O 0.32459(18) 0.81730(14) 0.62170(9)
O4 O 0.4073(2) 0.70517(17) 0.57246(10)
O5 O 0.7852(2) 0.39526(15) 0.50978(10)
O6 O 1.00989(19) 0.35447(14) 0.53306(9)
O7 O -0.10503(19) 0.79370(15) 0.52320(9)
O8 O 0.04075(19) 0.86511(14) 0.59600(9)
C1 C 0.4288(3) 0.7692(2) 0.61136(14)
C2 C 0.5764(3) 0.7918(2) 0.64661(14)
H1 H 0.57200 0.79280 0.69130
H2 H 0.60070 0.85430 0.63490
C3 C 0.6988(3) 0.7286(2) 0.63742(14)
H3 H 0.68840 0.71340 0.59290
H4 H 0.79080 0.76120 0.64980
C4 C 0.7031(3) 0.6407(2) 0.67455(13)
H5 H 0.61120 0.60810 0.66180
H6 H 0.71190 0.65620 0.71900
C5 C 0.8258(3) 0.5766(2) 0.66675(13)
H7 H 0.91670 0.61140 0.67430
H8 H 0.83340 0.52810 0.69850
C6 C 0.8079(3) 0.5326(2) 0.60326(13)
H9 H 0.80040 0.58080 0.57130
H10 H 0.71760 0.49720 0.59570
C7 C 0.9325(3) 0.4695(2) 0.59699(14)
H11 H 1.01660 0.50760 0.59330
H12 H 0.95740 0.43370 0.63570
C8 C 0.9072(3) 0.4041(2) 0.54333(14)
C9 C -0.0788(3) 0.8606(2) 0.55927(13)
C10 C -0.1842(3) 0.9375(2) 0.55879(14)
H13 H -0.13990 0.99400 0.54650
H14 H -0.20130 0.94640 0.60160
C11 C -0.3282(3) 0.9248(2) 0.51632(13)
H15 H -0.37320 0.86780 0.52740
H16 H -0.31360 0.91930 0.47300
C12 C -0.4275(3) 1.0047(2) 0.52157(13)
H17 H -0.38090 1.06170 0.51160
H18 H -0.44300 1.00920 0.56490
P1 P 0.41099(7) 0.32038(5) 0.63119(3)
C13 C 0.3764(3) 0.3525(3) 0.55117(13)
H19 H 0.43290 0.31390 0.52820
H20 H 0.40310 0.41640 0.54730
H21 H 0.27430 0.34460 0.53430
C14 C 0.3278(3) 0.4007(2) 0.67462(13)
C15 C 0.2417(3) 0.3720(2) 0.71638(13)
H22 H 0.22300 0.30900 0.72080
C16 C 0.1837(3) 0.4359(2) 0.75118(14)
H23 H 0.12410 0.41660 0.77910
C17 C 0.2121(3) 0.5275(2) 0.74539(15)
H24 H 0.17370 0.57080 0.77010
C18 C 0.2961(3) 0.5564(2) 0.70386(15)
H25 H 0.31450 0.61960 0.69980
C19 C 0.3532(3) 0.4939(2) 0.66832(14)
H26 H 0.40990 0.51400 0.63950
C20 C 0.3420(3) 0.2086(2) 0.64027(13)
C21 C 0.1964(3) 0.1913(2) 0.61888(13)
H27 H 0.13440 0.23880 0.60110
C22 C 0.1435(3) 0.1043(2) 0.62387(14)
H28 H 0.04480 0.09230 0.60940
C23 C 0.2333(3) 0.0344(2) 0.64975(14)
H29 H 0.19620 -0.02520 0.65290
C24 C 0.3771(3) 0.0520(2) 0.67097(14)
H30 H 0.43860 0.00410 0.68850
C25 C 0.4321(3) 0.1383(2) 0.66695(14)
H31 H 0.53050 0.14990 0.68220
C26 C 0.5992(3) 0.3145(2) 0.66167(13)
C27 C 0.6898(3) 0.2745(2) 0.62567(14)
H32 H 0.65570 0.26210 0.58310
C28 C 0.8290(3) 0.2531(2) 0.65229(16)
H33 H 0.89050 0.22580 0.62790
C29 C 0.8794(3) 0.2713(2) 0.71435(15)
H34 H 0.97480 0.25530 0.73250
C30 C 0.7910(3) 0.3127(2) 0.74993(13)
H35 H 0.82640 0.32590 0.79230
C31 C 0.6514(3) 0.3348(2) 0.72388(13)
H36 H 0.59120 0.36370 0.74820
O7B O -0.89497(19) 1.20630(15) 0.47680(9)
O8B O -1.04075(19) 1.13489(14) 0.40400(9)
C9B C -0.9212(3) 1.1394(2) 0.44073(13)
C10B C -0.8158(3) 1.0625(2) 0.44121(14)
H13B H -0.86010 1.00600 0.45350
H14B H -0.79870 1.05360 0.39840
C11B C -0.6718(3) 1.0752(2) 0.48368(13)
H15B H -0.62680 1.13220 0.47260
H16B H -0.68640 1.08070 0.52700
C12B C -0.5725(3) 0.9953(2) 0.47843(13)
H17B H -0.61910 0.93830 0.48840
H18B H -0.55700 0.99080 0.43510
U1B U -1.14401(2) 1.26207(2) 0.45399(2)
O1B O -1.1075(2) 1.33377(15) 0.39411(9)
O2B O -1.1791(2) 1.18848(14) 0.51343(9)
O3B O -1.32459(18) 1.18270(14) 0.37830(9)
O4B O -1.4073(2) 1.29483(17) 0.42754(10)
O5B O -1.7852(2) 1.60474(15) 0.49022(10)
O6B O -2.00989(19) 1.64553(14) 0.46694(9)
C1B C -1.4288(3) 1.2308(2) 0.38864(14)
C2B C -1.5764(3) 1.2082(2) 0.35339(14)
H1B H -1.57200 1.20720 0.30870
H2B H -1.60070 1.14570 0.36510
C3B C -1.6988(3) 1.2714(2) 0.36258(14)
H3B H -1.68840 1.28660 0.40710
H4B H -1.79080 1.23880 0.35020
C4B C -1.7031(3) 1.3593(2) 0.32545(13)
H5B H -1.61120 1.39190 0.33820
H6B H -1.71190 1.34380 0.28100
C5B C -1.8258(3) 1.4234(2) 0.33325(13)
H7B H -1.91670 1.38860 0.32570
H8B H -1.83340 1.47190 0.30150
C6B C -1.8079(3) 1.4674(2) 0.39674(13)
H9B H -1.80040 1.41920 0.42870
H10B H -1.71760 1.50280 0.40430
C7B C -1.9325(3) 1.5305(2) 0.40301(14)
H11B H -2.01660 1.49240 0.40670
H12B H -1.95740 1.56630 0.36430
C8B C -1.9072(3) 1.5959(2) 0.45667(14)
U1* U -1.85599(2) 1.73793(2) 0.54601(2)
U1B* U 0.85599(2) 0.26207(2) 0.45399(2)
O5* O -1.2148(2) 1.39526(15) 0.50978(10)
O5B* O 0.2148(2) 0.60474(15) 0.49022(10)
O6* O -0.99011(19) 1.35447(14) 0.53306(9)
O6B* O -0.00989(19) 0.64553(14) 0.46694(9)
#END
