
#######################################################################
#
#                 Cambridge Crystallographic Data Centre
#                                CCDC
#
#######################################################################
#
# If this CIF has been generated from an entry in the Cambridge
# Structural Database, then it will include bibliographic, chemical,
# crystal, experimental, refinement or atomic coordinate data resulting
# from the CCDC's data processing and validation procedures.
#
#######################################################################

data_CSD_CIF_PIZNIY
_audit_creation_date 2018-12-20
_audit_creation_method CSD-ConQuest-V1
_database_code_CSD PIZNIY
_database_code_depnum_ccdc_archive 'CCDC 1869724'
_chemical_formula_sum 'C33 H39 O10 P1 U1'
_chemical_formula_moiety
;
(C14 H21 O10 U1 1-)n,C19 H18 P1 1+
;
_journal_coden_Cambridge 9
_journal_volume 58
_journal_year 2019
_journal_page_first 567
_journal_name_full 'Inorg.Chem. '
loop_
_publ_author_name
"P.Thuery"
"Y.Atoini"
"J.Harrowfield"
_chemical_name_systematic
;
catena-[methyl(triphenyl)phosphanium (\m-heptanedioato)-(hydrogen 
heptanedioato)-bis(oxido)-uranium(vi)]
;
_cell_volume   3227.836
_exptl_crystal_colour 'light yellow'
_exptl_crystal_density_diffrn 1.779
_exptl_crystal_description 'parallelepiped'
_diffrn_ambient_temperature 100
#These two values have been output from a single CSD field.
_refine_ls_R_factor_gt 0.0214
_refine_ls_wR_factor_gt 0.0214
_symmetry_cell_setting monoclinic
_symmetry_space_group_name_H-M 'P 21/c'
_symmetry_Int_Tables_number 14
loop_
_symmetry_equiv_pos_site_id
_symmetry_equiv_pos_as_xyz
1 x,y,z
2 -x,1/2+y,1/2-z
3 -x,-y,-z
4 x,-1/2-y,-1/2+z
_cell_length_a 14.1580(5)
_cell_length_b 15.2308(5)
_cell_length_c 14.9688(3)
_cell_angle_alpha 90
_cell_angle_beta 90.051(2)
_cell_angle_gamma 90
_cell_formula_units_Z 4
loop_
_atom_type_symbol
_atom_type_radius_bond
C 0.68
H 0.23
O 0.68
P 1.05
U 1.96
loop_
_atom_site_label
_atom_site_type_symbol
_atom_site_fract_x
_atom_site_fract_y
_atom_site_fract_z
U1 U 0.77162(2) 0.52156(2) 0.29369(2)
O1 O 0.83655(13) 0.42351(13) 0.27546(12)
O2 O 0.70680(13) 0.61945(13) 0.31238(12)
O3 O 0.79307(15) 0.50614(15) 0.45591(13)
O4 O 0.90230(13) 0.58229(13) 0.38750(12)
O5 O 0.89276(12) 0.90015(13) 0.70472(12)
O6 O 0.76870(13) 0.94898(14) 0.63141(12)
O7 O 0.63547(13) 0.44986(14) 0.22045(12)
O8 O 0.64693(13) 0.43635(13) 0.36526(12)
O9 O 0.51435(17) 0.10274(17) 0.46124(16)
O10 O 0.42721(17) 0.05832(16) 0.57636(15)
H1 H 0.44350 0.00110 0.55870
C1 C 0.86712(19) 0.5527(2) 0.45922(18)
C2 C 0.91291(19) 0.57076(19) 0.54869(17)
H2 H 0.95300 0.51990 0.56490
H3 H 0.86280 0.57590 0.59450
C3 C 0.97335(19) 0.65375(19) 0.55114(18)
H4 H 1.01190 0.65400 0.60630
H5 H 1.01690 0.65390 0.49940
C4 C 0.91204(18) 0.73575(19) 0.54848(18)
H6 H 0.87130 0.73650 0.60220
H7 H 0.87030 0.73250 0.49550
C5 C 0.96759(19) 0.82127(19) 0.54476(18)
H8 H 1.00720 0.82180 0.49030
H9 H 1.01010 0.82470 0.59720
C6 C 0.9025(2) 0.9011(2) 0.54404(17)
H10 H 0.94040 0.95390 0.52980
H11 H 0.85520 0.89370 0.49590
C7 C 0.85136(19) 0.91638(18) 0.63104(18)
C8 C 0.60422(19) 0.41857(19) 0.29289(18)
C9 C 0.5180(2) 0.3604(2) 0.29446(19)
H12 H 0.53050 0.30800 0.25710
H13 H 0.46460 0.39260 0.26700
C10 C 0.4884(2) 0.3299(2) 0.38757(19)
H14 H 0.54180 0.29800 0.41530
H15 H 0.47530 0.38220 0.42480
C11 C 0.4017(2) 0.2706(2) 0.3882(2)
H16 H 0.41800 0.21420 0.35910
H17 H 0.35120 0.29860 0.35240
C12 C 0.3639(2) 0.2518(2) 0.4826(2)
H18 H 0.34070 0.30770 0.50840
H19 H 0.30900 0.21190 0.47720
C13 C 0.4348(2) 0.2110(2) 0.5483(2)
H20 H 0.49250 0.24760 0.54940
H21 H 0.40710 0.21200 0.60900
C14 C 0.4618(2) 0.1183(2) 0.5256(2)
P1 P 0.80126(5) 0.41152(5) 0.77850(5)
C15 C 0.88921(19) 0.35461(19) 0.71482(18)
H22 H 0.89590 0.38260 0.65620
H23 H 0.87010 0.29330 0.70690
H24 H 0.94980 0.35690 0.74650
C16 C 0.69093(19) 0.41036(18) 0.71951(17)
C17 C 0.69021(19) 0.43802(19) 0.63037(17)
H25 H 0.74720 0.45570 0.60220
C18 C 0.6056(2) 0.4394(2) 0.58342(18)
H26 H 0.60470 0.45660 0.52240
C19 C 0.52247(19) 0.41565(19) 0.62560(18)
H27 H 0.46450 0.41730 0.59360
C20 C 0.5233(2) 0.3895(2) 0.71435(19)
H28 H 0.46590 0.37360 0.74280
C21 C 0.60769(19) 0.38645(19) 0.76191(18)
H29 H 0.60830 0.36820 0.82260
C22 C 0.78378(18) 0.35810(18) 0.88378(17)
C23 C 0.78228(19) 0.26634(19) 0.88712(18)
H30 H 0.79690 0.23290 0.83540
C24 C 0.7593(2) 0.2244(2) 0.96655(19)
H31 H 0.75900 0.16210 0.96980
C25 C 0.7368(2) 0.2742(2) 1.04113(19)
H32 H 0.72020 0.24550 1.09520
C26 C 0.7381(2) 0.3647(2) 1.03820(19)
H33 H 0.72290 0.39780 1.09000
C27 C 0.7616(2) 0.40726(19) 0.95910(18)
H34 H 0.76260 0.46960 0.95660
C28 C 0.8368(2) 0.52394(16) 0.79175(18)
C29 C 0.76739(18) 0.5888(2) 0.79959(17)
H35 H 0.70240 0.57340 0.79910
C30 C 0.7946(2) 0.6761(2) 0.80812(18)
H36 H 0.74800 0.72060 0.81350
C31 C 0.8892(2) 0.69852(19) 0.80886(17)
H37 H 0.90730 0.75830 0.81440
C32 C 0.9576(2) 0.6340(2) 0.80147(18)
H38 H 1.02250 0.64970 0.80240
C33 C 0.93219(19) 0.5467(2) 0.79274(18)
H39 H 0.97930 0.50260 0.78750
U1C U 0.77162(2) 0.97844(2) 0.79369(2)
O5C O 0.89276(12) 0.59985(13) 0.20472(12)
O6C O 0.76870(13) 0.55102(14) 0.13141(12)
#END
