
#######################################################################
#
#                 Cambridge Crystallographic Data Centre
#                                CCDC
#
#######################################################################
#
# If this CIF has been generated from an entry in the Cambridge
# Structural Database, then it will include bibliographic, chemical,
# crystal, experimental, refinement or atomic coordinate data resulting
# from the CCDC's data processing and validation procedures.
#
#######################################################################

data_CSD_CIF_PIZNAQ
_audit_creation_date 2018-12-20
_audit_creation_method CSD-ConQuest-V1
_database_code_CSD PIZNAQ
_database_code_depnum_ccdc_archive 'CCDC 1869722'
_chemical_formula_sum 'C30 H28 N1 O9 P1 U1'
_chemical_formula_moiety
;
C24 H20 P1 1+,(C6 H8 N1 O9 U1 1-)n
;
_journal_coden_Cambridge 9
_journal_volume 58
_journal_year 2019
_journal_page_first 567
_journal_name_full 'Inorg.Chem. '
loop_
_publ_author_name
"P.Thuery"
"Y.Atoini"
"J.Harrowfield"
_chemical_name_systematic
;
catena-[tetraphenylphosphanium 
(\m-hexanedioato)-bis(oxido)-nitrato-uranium(vi)]
;
_cell_volume   3050.398
_exptl_crystal_colour 'light yellow'
_exptl_crystal_density_diffrn 1.776
_exptl_crystal_description 'parallelepiped'
_diffrn_ambient_temperature 100
#These two values have been output from a single CSD field.
_refine_ls_R_factor_gt 0.0236
_refine_ls_wR_factor_gt 0.0236
_symmetry_cell_setting monoclinic
_symmetry_space_group_name_H-M 'P 21/c'
_symmetry_Int_Tables_number 14
loop_
_symmetry_equiv_pos_site_id
_symmetry_equiv_pos_as_xyz
1 x,y,z
2 -x,1/2+y,1/2-z
3 -x,-y,-z
4 x,-1/2-y,-1/2+z
_cell_length_a 15.0644(4)
_cell_length_b 14.7060(4)
_cell_length_c 14.2217(4)
_cell_angle_alpha 90
_cell_angle_beta 104.4913(17)
_cell_angle_gamma 90
_cell_formula_units_Z 4
loop_
_atom_type_symbol
_atom_type_radius_bond
C 0.68
H 0.23
N 0.68
O 0.68
P 1.05
U 1.96
loop_
_atom_site_label
_atom_site_type_symbol
_atom_site_fract_x
_atom_site_fract_y
_atom_site_fract_z
U1 U 0.68913(2) 0.80129(2) 0.97158(2)
O1 O 0.7314(2) 0.80920(14) 0.86628(19)
O2 O 0.65041(16) 0.79280(14) 1.07852(18)
O3 O 0.67810(14) 0.63525(17) 0.95467(16)
O4 O 0.55650(17) 0.71326(15) 0.8824(2)
O5 O 0.43911(16) 0.40019(15) 0.59835(19)
O6 O 0.31271(13) 0.46810(17) 0.52121(15)
O7 O 0.83624(15) 0.86622(15) 1.07176(17)
O8 O 0.83506(17) 0.72044(16) 1.05730(18)
O9 O 0.95352(17) 0.78803(16) 1.15210(18)
N1 N 0.87748(19) 0.79149(17) 1.0952(2)
C1 C 0.5957(2) 0.6378(2) 0.9039(2)
C2 C 0.5457(2) 0.5495(2) 0.8750(3)
H1 H 0.51560 0.53130 0.92660
H2 H 0.59100 0.50180 0.87090
C3 C 0.47304(19) 0.5532(2) 0.7781(2)
H3 H 0.43650 0.49640 0.77000
H4 H 0.43090 0.60450 0.77950
C4 C 0.5143(2) 0.5646(2) 0.6914(3)
H5 H 0.55840 0.51470 0.69130
H6 H 0.54840 0.62280 0.69770
C5 C 0.4406(2) 0.5638(2) 0.5949(3)
H7 H 0.39310 0.60950 0.59810
H8 H 0.46890 0.58200 0.54200
C6 C 0.3957(2) 0.4731(2) 0.5710(2)
P1 P 0.17806(5) 0.85536(5) 0.49055(5)
C7 C 0.18288(18) 0.90771(19) 0.37746(19)
C8 C 0.2256(2) 0.9911(2) 0.3765(2)
H9 H 0.25060 1.02220 0.43570
C9 C 0.2317(2) 1.0293(2) 0.2885(2)
H10 H 0.26020 1.08680 0.28770
C10 C 0.1963(2) 0.9834(2) 0.2029(2)
H11 H 0.20200 1.00870 0.14330
C11 C 0.1529(2) 0.9013(2) 0.2033(2)
H12 H 0.12720 0.87080 0.14380
C12 C 0.1463(2) 0.8626(2) 0.2909(2)
H13 H 0.11680 0.80550 0.29120
C13 C 0.12643(17) 0.92602(19) 0.56603(18)
C14 C 0.05513(19) 0.8946(2) 0.60254(19)
H14 H 0.02770 0.83730 0.58260
C15 C 0.0241(2) 0.9478(3) 0.6688(2)
H15 H -0.02620 0.92750 0.69240
C16 C 0.0655(2) 1.0292(2) 0.7004(2)
H16 H 0.04520 1.06420 0.74720
C17 C 0.1367(2) 1.0601(2) 0.6638(2)
H17 H 0.16500 1.11670 0.68510
C18 C 0.1670(2) 1.0094(2) 0.5967(2)
H18 H 0.21560 1.03140 0.57130
C19 C 0.29388(19) 0.8349(2) 0.5593(2)
C20 C 0.3128(2) 0.8295(2) 0.6603(2)
H19 H 0.26470 0.83630 0.69200
C21 C 0.4019(2) 0.8141(2) 0.7145(3)
H20 H 0.41500 0.81110 0.78330
C22 C 0.4711(2) 0.8032(2) 0.6681(4)
H21 H 0.53230 0.79350 0.70510
C23 C 0.4520(2) 0.8065(2) 0.5681(4)
H22 H 0.50010 0.79750 0.53690
C24 C 0.3638(2) 0.8226(2) 0.5122(3)
H23 H 0.35140 0.82510 0.44340
C25 C 0.11768(18) 0.74935(19) 0.46251(18)
C26 C 0.1670(2) 0.6685(2) 0.4700(2)
H24 H 0.23190 0.66920 0.49260
C27 C 0.1215(2) 0.5873(2) 0.4443(2)
H25 H 0.15520 0.53220 0.44870
C28 C 0.0272(2) 0.5859(2) 0.4125(2)
H26 H -0.00390 0.52960 0.39680
C29 C -0.0226(2) 0.6663(2) 0.4033(2)
H27 H -0.08750 0.66500 0.38060
C30 C 0.02258(19) 0.7483(2) 0.42727(18)
H28 H -0.01110 0.80360 0.41980
U1A U 0.31087(2) 0.30129(2) 0.52842(2)
O5A O 0.56089(16) 0.90019(15) 0.90165(19)
O6A O 0.68729(13) 0.96810(17) 0.97879(15)
#END
