
#######################################################################
#
#                 Cambridge Crystallographic Data Centre
#                                CCDC
#
#######################################################################
#
# If this CIF has been generated from an entry in the Cambridge
# Structural Database, then it will include bibliographic, chemical,
# crystal, experimental, refinement or atomic coordinate data resulting
# from the CCDC's data processing and validation procedures.
#
#######################################################################

data_CSD_CIF_PIZPEW
_audit_creation_date 2018-12-20
_audit_creation_method CSD-ConQuest-V1
_database_code_CSD PIZPEW
_database_code_depnum_ccdc_archive 'CCDC 1869728'
_chemical_formula_sum 'C96 H192 Cu3 N12 O60 U6'
_chemical_formula_moiety
;
(C48 H60 O48 U6 6-)n,3(C16 H36 Cu1 N4 2+),12(H2 O1)
;
_journal_coden_Cambridge 9
_journal_volume 58
_journal_year 2019
_journal_page_first 567
_journal_name_full 'Inorg.Chem. '
loop_
_publ_author_name
"P.Thuery"
"Y.Atoini"
"J.Harrowfield"
_chemical_name_systematic
;
catena-[tris((5,5,7,12,12,14-hexamethyl-1,4,8,11-tetraazacyclotetradecane)-cop
per(ii)) 
hexakis(\m-heptanedioato)-tris(\m-ethanedioato)-dodecakis(oxido)-hexa-uranium(
vi) dodecahydrate]
;
_chemical_name_common
;
catena-[tris((7(R),14(S)-5,5,7,12,12,14-hexamethylcyclam)-copper(ii)) 
hexakis(mu-heptanedioato)-tris(mu-ethanedioato)-dodecakis(oxido)-hexa-uranium(
vi) dodecahydrate]
;
_cell_volume   3247.011
_exptl_crystal_colour 'light orange'
_exptl_crystal_density_diffrn 2.093
_exptl_crystal_description 'lath'
_diffrn_ambient_temperature 100
#These two values have been output from a single CSD field.
_refine_ls_R_factor_gt 0.0424
_refine_ls_wR_factor_gt 0.0424
_symmetry_cell_setting triclinic
_symmetry_space_group_name_H-M 'P -1'
_symmetry_Int_Tables_number 2
loop_
_symmetry_equiv_pos_site_id
_symmetry_equiv_pos_as_xyz
1 x,y,z
2 -x,-y,-z
_cell_length_a 11.6530(7)
_cell_length_b 14.6666(8)
_cell_length_c 19.1956(8)
_cell_angle_alpha 88.220(3)
_cell_angle_beta 83.038(3)
_cell_angle_gamma 85.811(2)
_cell_formula_units_Z 1
loop_
_atom_type_symbol
_atom_type_radius_bond
C 0.68
H 0.23
Cu 1.32
N 0.68
O 0.68
U 1.96
loop_
_atom_site_label
_atom_site_type_symbol
_atom_site_fract_x
_atom_site_fract_y
_atom_site_fract_z
U1 U 0.06389(2) 0.32693(2) 0.40114(2)
O1 O -0.0286(4) 0.3816(3) 0.3432(3)
O2 O 0.1549(4) 0.2761(3) 0.4612(3)
O3 O -0.1034(4) 0.2431(3) 0.4534(3)
O4 O 0.0105(4) 0.1747(3) 0.3690(3)
O5 O 0.1811(4) 0.2569(3) 0.2983(3)
O6 O 0.2448(4) 0.3826(3) 0.3328(3)
O7 O -0.0554(4) 0.3935(3) 0.5056(3)
O8 O 0.1055(4) 0.4836(3) 0.4284(3)
C1 C -0.0763(6) 0.1739(5) 0.4147(4)
C2 C 0.2541(7) 0.3170(6) 0.2906(4)
C3 C -0.0463(6) 0.4747(5) 0.5230(4)
C4 C -0.1421(6) 0.0892(5) 0.4258(4)
C5 C 0.3460(7) 0.3097(6) 0.2262(5)
H1 H -0.09750 0.04370 0.45290
H2 H -0.14700 0.06290 0.37950
C6 C -0.2637(6) 0.1037(5) 0.4638(4)
H3 H 0.36910 0.24430 0.21790
H4 H 0.31080 0.33480 0.18470
C7 C 0.4536(6) 0.3590(6) 0.2326(4)
H5 H -0.31670 0.12750 0.42980
H6 H -0.26420 0.15040 0.50000
C8 C -0.3086(6) 0.0162(5) 0.4988(4)
H7 H 0.48950 0.33490 0.27420
H8 H 0.43220 0.42500 0.23920
C9 C 0.5423(7) 0.3458(6) 0.1655(4)
H9 H -0.30270 -0.03220 0.46340
H10 H -0.39140 0.02760 0.51710
C10 C -0.2394(6) -0.0167(6) 0.5593(4)
H11 H 0.61210 0.37780 0.17180
H12 H 0.56610 0.27980 0.16130
C11 C 0.4985(7) 0.3804(6) 0.0966(4)
H13 H -0.15900 -0.03590 0.53990
H14 H -0.23640 0.03460 0.59120
C12 C -0.2930(6) -0.0959(5) 0.6006(4)
H15 H 0.56120 0.36890 0.05760
H16 H 0.43270 0.34490 0.08790
C13 C 0.4596(7) 0.4811(5) 0.0964(5)
H17 H -0.30200 -0.14490 0.56780
H18 H -0.23930 -0.12080 0.63380
C14 C -0.4091(6) -0.0705(6) 0.6412(4)
H19 H 0.40180 0.49380 0.13780
H20 H 0.42170 0.49670 0.05380
C15 C 0.5605(7) 0.5408(6) 0.0982(4)
O9 O -0.4287(4) 0.0048(4) 0.6726(3)
O10 O -0.4852(4) -0.1279(4) 0.6482(3)
O11 O 0.5463(5) 0.6102(4) 0.1355(3)
O12 O 0.6562(5) 0.5242(4) 0.0601(3)
U2 U -0.61212(2) -0.04271(2) 0.73923(2)
U3 U 0.73007(2) 0.67292(2) 0.08553(2)
O13 O -0.5260(4) -0.0918(3) 0.8032(3)
O14 O -0.6985(4) 0.0086(4) 0.6765(3)
O15 O -0.6744(4) -0.1942(3) 0.7124(3)
O16 O -0.7837(5) -0.1189(4) 0.7952(3)
O17 O -0.7340(4) 0.0381(4) 0.8368(3)
O18 O -0.5635(4) 0.1154(4) 0.7591(3)
O19 O 0.6495(4) 0.7255(3) 0.0209(3)
O20 O 0.8117(4) 0.6225(4) 0.1501(3)
O21 O 0.7811(4) 0.8301(3) 0.1060(3)
O22 O 0.6120(4) 0.7534(4) 0.1852(3)
O23 O 0.8599(4) 0.5871(3) -0.0057(3)
O24 O 0.9181(4) 0.7163(3) 0.0250(3)
C16 C -0.7625(6) -0.1898(5) 0.7586(4)
C17 C -0.7210(6) 0.1208(6) 0.8491(4)
C18 C -0.6232(6) 0.1654(5) 0.8028(4)
C19 C -0.8333(6) -0.2721(5) 0.7715(4)
H21 H -0.84420 -0.29700 0.72560
H22 H -0.78870 -0.31970 0.79680
C20 C -0.9517(6) -0.2541(5) 0.8134(4)
H23 H -0.94230 -0.22400 0.85760
H24 H -1.00000 -0.21160 0.78610
C21 C -1.0142(6) -0.3412(5) 0.8309(4)
H25 H -1.09270 -0.32390 0.85460
H26 H -1.02400 -0.37020 0.78630
C22 C -0.9551(7) -0.4123(5) 0.8772(4)
H27 H -0.87670 -0.43050 0.85370
H28 H -1.00000 -0.46740 0.88220
C23 C -0.9445(6) -0.3776(5) 0.9496(4)
H29 H -0.89890 -0.42410 0.97540
H30 H -0.90200 -0.32120 0.94480
C24 C -1.0622(6) -0.3572(5) 0.9917(4)
Cu1 Cu 0.16913(7) 0.84839(6) 0.17571(5)
N1 N 0.1686(5) 0.9875(4) 0.1707(3)
H31 H 0.09740 1.00940 0.15630
N2 N 0.0978(5) 0.8649(4) 0.2763(3)
H32 H 0.16070 0.85760 0.30620
N3 N 0.1702(5) 0.7098(4) 0.1813(3)
H33 H 0.24040 0.69860 0.20020
N4 N 0.2407(5) 0.8317(4) 0.0758(3)
H34 H 0.18450 0.86380 0.05360
C25 C 0.1563(7) 1.0189(5) 0.2454(4)
H35 H 0.23110 1.00850 0.26500
H36 H 0.13210 1.08500 0.24750
C26 C 0.0660(7) 0.9642(5) 0.2864(4)
H37 H 0.06050 0.97830 0.33680
H38 H -0.01050 0.98050 0.27020
C27 C 0.0050(7) 0.8025(6) 0.3058(4)
C28 C 0.0584(7) 0.7032(5) 0.2999(4)
H39 H 0.13350 0.70030 0.31940
H40 H 0.00700 0.66370 0.33030
C29 C 0.0793(6) 0.6624(5) 0.2273(4)
H41 H 0.00540 0.67080 0.20550
C30 C -0.0981(6) 0.8169(6) 0.2642(5)
H42 H -0.07080 0.81630 0.21390
H43 H -0.13970 0.87600 0.27590
H44 H -0.15040 0.76780 0.27600
C31 C -0.0317(8) 0.8219(6) 0.3835(5)
H45 H -0.07010 0.88350 0.38810
H46 H 0.03690 0.81770 0.40860
H47 H -0.08540 0.77690 0.40350
C32 C 0.1113(7) 0.5597(5) 0.2340(5)
H48 H 0.12100 0.53270 0.18740
H49 H 0.04940 0.53070 0.26400
H50 H 0.18390 0.54980 0.25500
C33 C 0.1837(7) 0.6802(5) 0.1068(4)
H51 H 0.20750 0.61410 0.10450
H52 H 0.10900 0.69090 0.08720
C34 C 0.2729(7) 0.7332(5) 0.0655(4)
H53 H 0.34970 0.71690 0.08130
H54 H 0.27730 0.71900 0.01510
C35 C 0.3336(6) 0.8944(5) 0.0467(4)
C36 C 0.2794(6) 0.9931(5) 0.0517(4)
H55 H 0.33030 1.03250 0.02080
H56 H 0.20410 0.99510 0.03250
C37 C 0.2588(6) 1.0349(5) 0.1242(4)
H57 H 0.33290 1.02720 0.14570
C38 C 0.4353(6) 0.8792(6) 0.0899(5)
H58 H 0.40620 0.87970 0.14000
H59 H 0.48800 0.92820 0.07900
H60 H 0.47690 0.82010 0.07850
C39 C 0.3727(7) 0.8750(6) -0.0300(5)
H61 H 0.40970 0.81290 -0.03410
H62 H 0.42830 0.91910 -0.04900
H63 H 0.30550 0.88040 -0.05630
C40 C 0.2254(7) 1.1372(5) 0.1171(5)
H64 H 0.28800 1.16690 0.08830
H65 H 0.21280 1.16410 0.16370
H66 H 0.15410 1.14630 0.09470
Cu2 Cu 0.50000 0.50000 0.50000
N5 N 0.4905(5) 0.6392(4) 0.4997(3)
H67 H 0.42660 0.65560 0.47650
N6 N 0.4194(5) 0.5086(4) 0.5984(3)
H68 H 0.48100 0.50050 0.63030
C41 C 0.4693(6) 0.6649(5) 0.5757(4)
H69 H 0.54180 0.65470 0.59780
H70 H 0.44210 0.73020 0.57980
C42 C 0.3793(7) 0.6063(5) 0.6111(4)
H71 H 0.30480 0.62090 0.59200
H72 H 0.36750 0.61760 0.66210
C43 C 0.3303(6) 0.4412(5) 0.6230(4)
C44 C 0.3904(6) 0.3450(5) 0.6154(4)
H73 H 0.46370 0.34410 0.63670
H74 H 0.34050 0.30190 0.64330
C45 C 0.4184(6) 0.3087(5) 0.5410(4)
H75 H 0.34660 0.31780 0.51720
C46 C 0.2295(6) 0.4546(5) 0.5788(4)
H76 H 0.18390 0.40080 0.58440
H77 H 0.25990 0.46270 0.52930
H78 H 0.18020 0.50890 0.59430
C47 C 0.2867(7) 0.4537(6) 0.7007(4)
H79 H 0.35220 0.44570 0.72830
H80 H 0.23090 0.40810 0.71610
H81 H 0.24890 0.51520 0.70750
C48 C 0.4527(6) 0.2059(5) 0.5441(4)
H82 H 0.46720 0.18250 0.49630
H83 H 0.38970 0.17420 0.57070
H84 H 0.52310 0.19530 0.56720
O25 O 0.3267(4) 0.8237(4) 0.3270(3)
H85 H 0.38580 0.86180 0.31360
H86 H 0.35060 0.78360 0.29420
O26 O 0.3837(4) 0.6693(4) 0.2458(3)
H87 H 0.44180 0.67500 0.21090
H88 H 0.38880 0.62430 0.27480
O27 O 0.3546(4) 0.5370(3) 0.3526(3)
H89 H 0.32730 0.48760 0.34430
H90 H 0.30280 0.56390 0.37970
O28 O 0.2760(4) 0.6856(3) 0.4329(3)
H91 H 0.22370 0.71080 0.46900
H92 H 0.26990 0.74040 0.40410
O29 O 1.0436(4) 0.9824(4) -0.1037(3)
H93 H 1.10800 0.98380 -0.13550
H94 H 1.04580 1.02710 -0.07760
O30 O 0.9727(4) 1.1270(3) -0.0161(3)
H95 H 0.97470 1.09530 0.01820
H96 H 1.01140 1.17510 -0.00160
C3A C 0.0463(6) 0.5253(5) 0.4770(4)
O8A O -0.1055(4) 0.5164(3) 0.5716(3)
O7A O 0.0554(4) 0.6065(3) 0.4944(3)
U1A U -0.06389(2) 0.67307(2) 0.59886(2)
O1A O 0.0286(4) 0.6184(3) 0.6568(3)
O2A O -0.1549(4) 0.7239(3) 0.5388(3)
O3A O 0.1034(4) 0.7569(3) 0.5466(3)
O4A O -0.0105(4) 0.8253(3) 0.6310(3)
O5A O -0.1811(4) 0.7431(3) 0.7017(3)
O6A O -0.2448(4) 0.6174(3) 0.6672(3)
C1A C 0.0763(6) 0.8261(5) 0.5853(4)
C2A C -0.2541(7) 0.6830(6) 0.7094(4)
C4A C 0.1421(6) 0.9108(5) 0.5742(4)
C5A C -0.3460(7) 0.6903(6) 0.7738(5)
H1A H 0.09750 0.95630 0.54710
H2A H 0.14700 0.93710 0.62050
C6A C 0.2637(6) 0.8963(5) 0.5362(4)
H3A H -0.36910 0.75570 0.78210
H4A H -0.31080 0.66520 0.81530
C7A C -0.4536(6) 0.6410(6) 0.7674(4)
H5A H 0.31670 0.87250 0.57020
H6A H 0.26420 0.84960 0.50000
C8A C 0.3086(6) 0.9838(5) 0.5012(4)
H7A H -0.48950 0.66510 0.72580
H8A H -0.43220 0.57500 0.76080
C9A C -0.5423(7) 0.6542(6) 0.8345(4)
H9A H 0.30270 1.03220 0.53660
H10A H 0.39140 0.97240 0.48290
C10A C 0.2394(6) 1.0167(6) 0.4407(4)
H11A H -0.61210 0.62220 0.82820
H12A H -0.56610 0.72020 0.83870
C11A C -0.4985(7) 0.6196(6) 0.9034(4)
H13A H 0.15900 1.03590 0.46010
H14A H 0.23640 0.96540 0.40880
C12A C 0.2930(6) 1.0959(5) 0.3994(4)
H15A H -0.56120 0.63110 0.94240
H16A H -0.43270 0.65510 0.91210
C13A C -0.4596(7) 0.5189(5) 0.9036(5)
C17A C 0.7210(6) 0.8792(6) 0.1509(4)
C18A C 0.6232(6) 0.8346(5) 0.1972(4)
H17A H 0.30200 1.14490 0.43220
H18A H 0.23930 1.12080 0.36620
C14A C 0.4091(6) 1.0705(6) 0.3588(4)
H19A H -0.40180 0.50620 0.86220
H20A H -0.42170 0.50330 0.94620
C15A C -0.5605(7) 0.4592(6) 0.9018(4)
O21A O -0.7811(4) 0.1699(3) 0.8940(3)
O22A O -0.6120(4) 0.2466(4) 0.8148(3)
O17A O 0.7340(4) 0.9619(4) 0.1632(3)
O18A O 0.5635(4) 0.8846(4) 0.2409(3)
O9A O 0.4287(4) 0.9952(4) 0.3274(3)
O10A O 0.4852(4) 1.1279(4) 0.3518(3)
O11A O -0.5463(5) 0.3898(4) 0.8645(3)
O12A O -0.6562(5) 0.4758(4) 0.9399(3)
U3A U -0.73007(2) 0.32708(2) 0.91447(2)
U2A U 0.61212(2) 1.04271(2) 0.26077(2)
O19A O -0.6495(4) 0.2745(3) 0.9791(3)
O20A O -0.8117(4) 0.3775(4) 0.8499(3)
O23A O -0.8599(4) 0.4129(3) 1.0057(3)
O24A O -0.9181(4) 0.2837(3) 0.9750(3)
O13A O 0.5260(4) 1.0918(3) 0.1968(3)
O14A O 0.6985(4) 0.9914(4) 0.3235(3)
O15A O 0.6744(4) 1.1942(3) 0.2876(3)
O16A O 0.7837(5) 1.1189(4) 0.2048(3)
C16A C 0.7625(6) 1.1898(5) 0.2414(4)
C19A C 0.8333(6) 1.2721(5) 0.2285(4)
H21A H 0.84420 1.29700 0.27440
H22A H 0.78870 1.31970 0.20320
C20A C 0.9517(6) 1.2541(5) 0.1866(4)
O23* O -1.1401(4) -0.4129(3) 0.9943(3)
O24* O -1.0819(4) -0.2837(3) 1.0250(3)
H23A H 0.94230 1.22400 0.14240
H24A H 1.00000 1.21160 0.21390
C21A C 1.0142(6) 1.3412(5) 0.1691(4)
U3* U -1.26993(2) -0.32708(2) 1.08553(2)
H25A H 1.09270 1.32390 0.14540
H26A H 1.02400 1.37020 0.21370
C22A C 0.9551(7) 1.4123(5) 0.1228(4)
H27A H 0.87670 1.43050 0.14630
H28A H 1.00000 1.46740 0.11780
C23A C 0.9445(6) 1.3776(5) 0.0504(4)
H29A H 0.89890 1.42410 0.02460
H30A H 0.90200 1.32120 0.05520
C24A C 1.0622(6) 1.3572(5) 0.0083(4)
O23A* O 1.1401(4) 1.4129(3) 0.0057(3)
O24A* O 1.0819(4) 1.2837(3) -0.0250(3)
U3A* U 1.26993(2) 1.32708(2) -0.08553(2)
N5A N 0.5095(5) 0.3608(4) 0.5003(3)
H67A H 0.57340 0.34440 0.52350
N6A N 0.5806(5) 0.4914(4) 0.4016(3)
H68A H 0.51900 0.49950 0.36970
C41A C 0.5307(6) 0.3351(5) 0.4243(4)
H69A H 0.45820 0.34530 0.40220
H70A H 0.55790 0.26980 0.42020
C42A C 0.6207(7) 0.3937(5) 0.3889(4)
H71A H 0.69520 0.37910 0.40800
H72A H 0.63250 0.38240 0.33790
C43A C 0.6697(6) 0.5588(5) 0.3770(4)
C44A C 0.6096(6) 0.6550(5) 0.3846(4)
H73A H 0.53630 0.65590 0.36330
H74A H 0.65950 0.69810 0.35670
C45A C 0.5816(6) 0.6913(5) 0.4590(4)
H75A H 0.65340 0.68220 0.48280
C46A C 0.7705(6) 0.5454(5) 0.4212(4)
H76A H 0.81610 0.59920 0.41560
H77A H 0.74010 0.53730 0.47070
H78A H 0.81980 0.49110 0.40570
C47A C 0.7133(7) 0.5463(6) 0.2993(4)
H79A H 0.64780 0.55430 0.27170
H80A H 0.76910 0.59190 0.28390
H81A H 0.75110 0.48480 0.29250
C48A C 0.5473(6) 0.7941(5) 0.4559(4)
H82A H 0.53280 0.81750 0.50370
H83A H 0.61030 0.82580 0.42930
H84A H 0.47690 0.80470 0.43280
#END
