
#######################################################################
#
#                 Cambridge Crystallographic Data Centre
#                                CCDC
#
#######################################################################
#
# If this CIF has been generated from an entry in the Cambridge
# Structural Database, then it will include bibliographic, chemical,
# crystal, experimental, refinement or atomic coordinate data resulting
# from the CCDC's data processing and validation procedures.
#
#######################################################################

data_CSD_CIF_PIZTAU
_audit_creation_date 2008-10-16
_audit_creation_method CSD-ConQuest-V1
_database_code_CSD PIZTAU
_database_code_depnum_ccdc_archive 'CCDC 623893'
_chemical_formula_sum 'C4 H65 Mn3 Na7 O96 Sb2 W18'
_chemical_formula_moiety
;
(C4 H13 Mn3 O70 Sb2 W18 7-)n,7n(Na1 1+),26n(H2 O1)
;
_journal_coden_Cambridge 920
_journal_volume 3
_journal_year 2008
_journal_page_first 822
_journal_name_full 'Chem.Asian J. '
loop_
_publ_author_name
"Jing-Ping Wang"
"Peng-Tao Ma"
"Jie Li"
"Hong-Yu Niu"
"Jing-Yang Niu"
_chemical_name_systematic
;
catena-(Hepta-sodium 
hexakis(\m~4~-oxo)-(\m~2~-acetato-O,O')-heptakis(\m~2~-hydroxo)-pentatriaconta
kis(\m~2~-oxo)-(acetato-O)-octadecaoxo-di-antimony-tri-manganese(ii)-octadeca-
tungsten hydrate)
;
_cell_volume   9855.984
_exptl_crystal_colour 'pink'
_exptl_crystal_density_diffrn 3.73
_exptl_special_details
;
magnetic properties
The coordination to the sodium atom has not been represented. The hydrogen 
atoms of the hydroxo ligands of the anion have been assigned arbitrarily
;
_exptl_crystal_description 'Block'
_diffrn_ambient_temperature 273
_refine_special_details
;
The methyl moiety of the terminal acetate ligand is disordered over two 
positions by symmetry. Two of the water molecules are also disordered.
;
#These two values have been output from a single CSD field.
_refine_ls_R_factor_gt 0.0377
_refine_ls_wR_factor_gt 0.0377
_symmetry_cell_setting orthorhombic
_symmetry_space_group_name_H-M 'P b c m'
_symmetry_Int_Tables_number 57
loop_
_symmetry_equiv_pos_site_id
_symmetry_equiv_pos_as_xyz
1 x,y,z
2 -x,-y,1/2+z
3 -x,1/2+y,1/2-z
4 x,1/2-y,-z
5 -x,-y,-z
6 x,y,-1/2-z
7 x,-1/2-y,-1/2+z
8 -x,-1/2+y,z
_cell_length_a 15.2820(3)
_cell_length_b 21.2003(4)
_cell_length_c 30.4213(5)
_cell_angle_alpha 90
_cell_angle_beta 90
_cell_angle_gamma 90
_cell_formula_units_Z 4
loop_
_atom_type_symbol
_atom_type_radius_bond
C 0.68
H 0.23
Mn 1.35
Na 0.97
O 0.68
Sb 1.46
W 1.37
loop_
_atom_site_label
_atom_site_type_symbol
_atom_site_fract_x
_atom_site_fract_y
_atom_site_fract_z
Na1 Na 1.3440(4) 0.2224(3) 0.25000
Na2 Na 0.9627(4) 0.0758(3) 0.25000
Na3 Na 0.7819(3) -0.0861(2) 0.38800(17)
Na4 Na 0.9280(3) 0.0918(2) 0.55405(14)
Mn1 Mn 1.11833(12) 0.19915(8) 0.25000
Mn2 Mn 1.41520(12) 0.06116(9) 0.25000
Mn3 Mn 1.09809(12) -0.05479(9) 0.25000
Sb1 Sb 1.21175(4) 0.06850(2) 0.332594(19)
W1 W 1.07223(2) 0.073509(17) 0.445384(11)
W2 W 1.28907(2) 0.154102(17) 0.444310(12)
W3 W 1.27795(2) -0.021467(17) 0.444284(12)
W4 W 1.00380(2) -0.002490(16) 0.353420(11)
W5 W 1.20704(2) -0.097346(16) 0.353057(11)
W6 W 1.40124(2) -0.025896(17) 0.352664(12)
W7 W 1.41430(2) 0.148348(18) 0.353380(12)
W8 W 1.23037(2) 0.233507(17) 0.353068(12)
W9 W 1.01504(2) 0.154442(17) 0.353910(12)
O1 O 1.0312(5) 0.0766(3) 0.4983(2)
O2 O 1.3118(5) 0.1774(3) 0.4968(2)
O3 O 1.2986(5) -0.0484(3) 0.4964(2)
O4 O 0.9142(4) -0.0520(3) 0.3510(2)
O5 O 1.1806(4) -0.1753(3) 0.3518(2)
O6 O 1.5058(4) -0.0585(3) 0.3489(2)
O7 O 1.5219(4) 0.1723(3) 0.3523(2)
O8 O 1.2169(5) 0.3141(3) 0.3491(2)
O9 O 0.9322(5) 0.2085(3) 0.3525(2)
O10 O 1.1689(4) 0.1311(3) 0.4508(2)
O11 O 1.3118(4) 0.0646(3) 0.4494(2)
O12 O 1.1603(4) 0.0083(3) 0.4519(2)
O13 O 1.0081(4) 0.1389(3) 0.4198(2)
O14 O 0.9989(4) 0.0124(3) 0.41938(19)
O15 O 1.2297(4) -0.0950(3) 0.4190(2)
O16 O 1.3878(4) -0.0387(3) 0.4179(2)
O17 O 1.4011(4) 0.1614(3) 0.4191(2)
O18 O 1.2526(5) 0.2297(3) 0.4188(2)
O19 O 1.3332(4) -0.1040(3) 0.3481(2)
O20 O 1.4289(4) 0.0602(3) 0.3671(2)
O21 O 1.3573(4) 0.2309(3) 0.3487(2)
O22 O 1.1137(4) 0.2064(3) 0.3685(2)
O23 O 0.9450(4) 0.0783(3) 0.3498(2)
O24 O 1.0953(4) -0.0612(3) 0.3681(2)
O25 O 1.0402(4) 0.0026(3) 0.29775(19)
O26 O 1.1945(4) -0.0716(3) 0.2974(2)
O27 O 1.3758(4) -0.0041(3) 0.2976(2)
O28 O 1.3911(4) 0.1297(3) 0.2977(2)
O29 O 1.2174(4) 0.2064(3) 0.2978(2)
O30 O 1.0479(4) 0.1487(3) 0.2978(2)
O31 O 1.2716(4) 0.1332(3) 0.36909(19)
O32 O 1.2614(4) 0.0002(3) 0.3691(2)
O33 O 1.1047(4) 0.0726(3) 0.3698(2)
O34 O 1.5459(9) 0.0398(6) 0.25000
O35 O 1.6018(9) 0.1447(6) 0.25000
O36 O 0.9988(7) 0.3782(5) 0.25000
O37 O 1.0759(8) 0.2910(6) 0.25000
C1 C 1.6150(14) 0.0745(9) 0.25000
C2 C 1.6862(19) 0.0527(12) 0.2719(10)
C3 C 1.0035(9) 0.3200(6) 0.25000
C4 C 0.9188(11) 0.2814(8) 0.25000
O38 O 0.2743(6) 0.5872(4) 0.4312(3)
O39 O 0.8237(7) -0.0005(5) 0.4388(3)
O40 O 0.8402(6) -0.1538(5) 0.4462(3)
O41 O 0.1594(7) 0.1147(4) 0.7120(3)
O42 O 0.0903(6) 0.2554(4) 0.5582(3)
O43 O 0.9892(8) 0.1801(6) 0.5927(4)
O44 O 0.7669(10) 0.1013(7) 0.3562(5)
O45 O 1.3391(11) -0.1941(7) 0.25000
O46 O 1.2752(11) 0.3405(8) 0.25000
O47 O 0.8509(9) -0.0207(7) 0.25000
O48 O 0.8334(8) 0.1305(7) 0.25000
O49 O 0.6474(11) -0.1022(12) 0.4251(7)
O50 O 0.6990(11) -0.0475(9) 0.3260(5)
O51 O 0.5235(9) 0.9402(7) 0.9480(5)
O52 O 0.6387(13) 0.2645(8) 0.3345(7)
O53 O 0.7801(11) 0.2193(8) 0.3705(6)
O54 O 0.3955(19) 0.9678(14) 0.9128(9)
O55 O 0.550(2) -0.0922(14) 0.25000
O56 O 0.461(2) 0.3194(14) 0.3855(10)
O57 O 0.382(2) 0.6702(14) 0.4424(13)
O58 O 0.035(2) 0.25000 0.50000
Na5 Na 1.3197(4) -0.0864(3) 0.25000
O59? O 0.7572(16) 0.2144(11) 0.3147(8)
O60? O 1.4697(17) 0.2847(12) 0.2640(7)
H1? H 1.71450 0.04400 0.29830
H2? H 1.08220 -0.24550 0.27560
H3? H 1.68020 0.06520 0.30330
H4? H 1.73820 0.07120 0.23860
H5? H 1.13060 -0.19060 0.25000
H6? H 1.08300 -0.24470 0.22420
H7? H 1.08300 -0.24470 0.27580
H8? H 1.11480 -0.20870 0.22420
Mn3G Mn 0.90191(12) 0.44521(9) 0.25000
Sb1E Sb 1.21175(4) 0.06850(2) 0.167406(19)
W1E W 1.07223(2) 0.073509(17) 0.054616(11)
W2E W 1.28907(2) 0.154102(17) 0.055690(12)
W3E W 1.27795(2) -0.021467(17) 0.055716(12)
W4E W 1.00380(2) -0.002490(16) 0.146580(11)
W5E W 1.20704(2) -0.097346(16) 0.146943(11)
W6E W 1.40124(2) -0.025896(17) 0.147336(12)
W7E W 1.41430(2) 0.148348(18) 0.146620(12)
W8E W 1.23037(2) 0.233507(17) 0.146932(12)
W9E W 1.01504(2) 0.154442(17) 0.146090(12)
O1E O 1.0312(5) 0.0766(3) 0.0017(2)
O2E O 1.3118(5) 0.1774(3) 0.0032(2)
O3E O 1.2986(5) -0.0484(3) 0.0036(2)
O4E O 0.9142(4) -0.0520(3) 0.1490(2)
O5E O 1.1806(4) -0.1753(3) 0.1482(2)
O6E O 1.5058(4) -0.0585(3) 0.1511(2)
O7E O 1.5219(4) 0.1723(3) 0.1477(2)
O8E O 1.2169(5) 0.3141(3) 0.1509(2)
O9E O 0.9322(5) 0.2085(3) 0.1475(2)
O10E O 1.1689(4) 0.1311(3) 0.0492(2)
O11E O 1.3118(4) 0.0646(3) 0.0506(2)
O12E O 1.1603(4) 0.0083(3) 0.0481(2)
O13E O 1.0081(4) 0.1389(3) 0.0802(2)
O14E O 0.9989(4) 0.0124(3) 0.08062(19)
O15E O 1.2297(4) -0.0950(3) 0.0810(2)
O16E O 1.3878(4) -0.0387(3) 0.0821(2)
O17E O 1.4011(4) 0.1614(3) 0.0809(2)
O18E O 1.2526(5) 0.2297(3) 0.0812(2)
O19E O 1.3332(4) -0.1040(3) 0.1519(2)
O20E O 1.4289(4) 0.0602(3) 0.1329(2)
O21E O 1.3573(4) 0.2309(3) 0.1513(2)
O22E O 1.1137(4) 0.2064(3) 0.1315(2)
O23E O 0.9450(4) 0.0783(3) 0.1502(2)
O24E O 1.0953(4) -0.0612(3) 0.1319(2)
O25E O 1.0402(4) 0.0026(3) 0.20225(19)
O26E O 1.1945(4) -0.0716(3) 0.2026(2)
O27E O 1.3758(4) -0.0041(3) 0.2024(2)
O28E O 1.3911(4) 0.1297(3) 0.2023(2)
O29E O 1.2174(4) 0.2064(3) 0.2022(2)
O30E O 1.0479(4) 0.1487(3) 0.2022(2)
O31E O 1.2716(4) 0.1332(3) 0.13091(19)
O32E O 1.2614(4) 0.0002(3) 0.1309(2)
O33E O 1.1047(4) 0.0726(3) 0.1302(2)
O36G O 1.0012(7) -0.1218(5) 0.25000
C2E C 1.6862(19) 0.0527(12) 0.2281(10)
#END
