
#######################################################################
#
#                 Cambridge Crystallographic Data Centre
#                                CCDC
#
#######################################################################
#
# If this CIF has been generated from an entry in the Cambridge
# Structural Database, then it will include bibliographic, chemical,
# crystal, experimental, refinement or atomic coordinate data resulting
# from the CCDC's data processing and validation procedures.
#
#######################################################################

data_CSD_CIF_POBNEA
_audit_creation_date 2008-10-16
_audit_creation_method CSD-ConQuest-V1
_database_code_CSD POBNEA
_database_code_depnum_ccdc_archive 'CCDC 669577'
_chemical_formula_sum 'C30 H86 Co2 Li8 N6 O55'
_chemical_formula_moiety
;
(Li1 1+)5n,n(C30 H24 Co2 Li3 N6 O24 5-),31n(H2 O1)
;
_journal_coden_Cambridge 179
_journal_volume 47
_journal_year 2008
_journal_page_first 4211
_journal_name_full 'Angew.Chem.,Int.Ed. '
loop_
_publ_author_name
"E.Pardo"
"D.Cangussu"
"M.-C.Dul"
"R.Lescouezec"
"P.Herson"
"Y.Journaux"
"E.F.Pedroso"
"C.L.M.Pereira"
"M.C.Munoz"
"R.Ruiz-Garcia"
"J.Cano"
"P.Amoros"
"M.Julve"
"F.Lloret"
_chemical_name_systematic
;
catena-(penta-lithium 
tris(\m~4~-1,3-phenylenebis(oxamato))-hexaaqua-di-cobalt(ii)-tri-lithium(i) 
hydrate)
;
_cell_volume   4473.987
_exptl_crystal_colour 'red'
_exptl_crystal_density_diffrn 1.176
_exptl_special_details
;
magnetic properties
air-sensitive
Due to the lithium disorder and the fact that some of the Li atoms have been 
described as only weakly coordinating we have depicted the structure as a 
polymer with an extra five uncoordinated Li atoms
;
_exptl_crystal_description 'prismatic'
_diffrn_ambient_temperature 293
_refine_special_details
;
A Li atom is disordered by symmetry with occupancy 0.5.

;
#These two values have been output from a single CSD field.
_refine_ls_R_factor_gt 0.1811
_refine_ls_wR_factor_gt 0.1811
_symmetry_cell_setting hexagonal
_symmetry_space_group_name_H-M 'P 63/m'
_symmetry_Int_Tables_number 176
loop_
_symmetry_equiv_pos_site_id
_symmetry_equiv_pos_as_xyz
1 x,y,z
2 -y,x-y,z
3 -x+y,-x,z
4 x-y,x,1/2+z
5 y,-x+y,1/2+z
6 -x,-y,1/2+z
7 -x,-y,-z
8 y,-x+y,-z
9 x-y,x,-z
10 -x+y,-x,-1/2-z
11 -y,x-y,-1/2-z
12 x,y,-1/2-z
_cell_length_a 18.6580(16)
_cell_length_b 18.6580(16)
_cell_length_c 14.8400(12)
_cell_angle_alpha 90
_cell_angle_beta 90
_cell_angle_gamma 120
_cell_formula_units_Z 2
loop_
_atom_type_symbol
_atom_type_radius_bond
C 0.68
Co 1.33
Li 1.35
N 0.68
O 0.83
loop_
_atom_site_label
_atom_site_type_symbol
_atom_site_fract_x
_atom_site_fract_y
_atom_site_fract_z
Co1 Co 0.33330 0.66670 0.01918(12)
Li1 Li 0.50000 0.50000 0.00000
Li2 Li 0.445(4) 0.319(4) 0.25000
Li3 Li 0.00000 0.00000 0.25000
Li4? Li 0.00000 0.00000 -0.040(6)
N1 N 0.3444(4) 0.5734(4) 0.0868(4)
O1 O 0.4207(5) 0.5058(5) 0.0821(5)
O2 O 0.4932(6) 0.5907(5) -0.0696(6)
O3 O 0.4199(4) 0.6539(4) -0.0637(4)
C1 C 0.3044(5) 0.5351(5) 0.1682(5)
C2 C 0.3465(7) 0.5666(7) 0.25000
C3 C 0.2232(6) 0.4700(6) 0.1693(6)
C4 C 0.1843(9) 0.4387(9) 0.25000
C5 C 0.3980(5) 0.5565(5) 0.0530(6)
C6 C 0.4384(6) 0.6035(6) -0.0342(6)
O4 O 0.6241(14) 0.6103(15) 0.0995(16)
O5 O 0.4773(13) 0.4930(13) 0.25000
O6 O 0.4385(15) 0.1930(14) 0.1199(15)
O7 O 0.582(3) 0.399(3) 0.25000
O8 O 0.096(3) -0.002(3) -0.114(3)
O9 O 0.3201(15) 0.3504(14) 0.1481(19)
O10 O 0.33330 0.66670 -0.25000
O11 O 0.304(2) 0.223(3) 0.017(2)
Co1K Co 0.33330 0.66670 0.48082(12)
Li1K Li 0.50000 0.50000 0.50000
Li1A Li 0.50000 1.00000 0.00000
Li1D Li 0.50000 1.00000 0.50000
Li1B Li 0.00000 0.50000 0.00000
Li1C Li 0.00000 0.50000 0.50000
N1K N 0.3444(4) 0.5734(4) 0.4132(4)
N1A N 0.4266(4) 0.7710(4) 0.0868(4)
N1J N 0.4266(4) 0.7710(4) 0.4132(4)
N1B N 0.2290(4) 0.6556(4) 0.0868(4)
N1I N 0.2290(4) 0.6556(4) 0.4132(4)
O1K O 0.4207(5) 0.5058(5) 0.4179(5)
O1A O 0.4942(5) 0.9149(5) 0.0821(5)
O1J O 0.4942(5) 0.9149(5) 0.4179(5)
O1B O 0.0851(5) 0.5793(5) 0.0821(5)
O1I O 0.0851(5) 0.5793(5) 0.4179(5)
O1F O 0.5793(5) 0.4942(5) -0.0821(5)
O1E O 0.5793(5) 0.4942(5) 0.5821(5)
O1G O 0.5058(5) 1.0851(5) -0.0821(5)
O2K O 0.4932(6) 0.5907(5) 0.5696(6)
O2A O 0.4093(6) 0.9025(5) -0.0696(6)
O2J O 0.4093(6) 0.9025(5) 0.5696(6)
O2B O 0.0975(6) 0.5068(5) -0.0696(6)
O2I O 0.0975(6) 0.5068(5) 0.5696(6)
O2F O 0.5068(6) 0.4093(5) 0.0696(6)
O2E O 0.5068(6) 0.4093(5) 0.4304(6)
O2G O 0.5907(6) 1.0975(5) 0.0696(6)
O3K O 0.4199(4) 0.6539(4) 0.5637(4)
O3A O 0.3461(4) 0.7660(4) -0.0637(4)
O3J O 0.3461(4) 0.7660(4) 0.5637(4)
O3B O 0.2340(4) 0.5801(4) -0.0637(4)
O3I O 0.2340(4) 0.5801(4) 0.5637(4)
C1K C 0.3044(5) 0.5351(5) 0.3318(5)
C1A C 0.4649(5) 0.7693(5) 0.1682(5)
C1J C 0.4649(5) 0.7693(5) 0.3318(5)
C1B C 0.2307(5) 0.6956(5) 0.1682(5)
C1I C 0.2307(5) 0.6956(5) 0.3318(5)
C2A C 0.4334(7) 0.7799(7) 0.25000
C2B C 0.2201(7) 0.6535(7) 0.25000
C3K C 0.2232(6) 0.4700(6) 0.3307(6)
C3A C 0.5300(6) 0.7532(6) 0.1693(6)
C3J C 0.5300(6) 0.7532(6) 0.3307(6)
C3B C 0.2468(6) 0.7768(6) 0.1693(6)
C3I C 0.2468(6) 0.7768(6) 0.3307(6)
C4A C 0.5613(9) 0.7456(9) 0.25000
C4B C 0.2544(9) 0.8157(9) 0.25000
C5K C 0.3980(5) 0.5565(5) 0.4470(6)
C5A C 0.4435(5) 0.8415(5) 0.0530(6)
C5J C 0.4435(5) 0.8415(5) 0.4470(6)
C5B C 0.1585(5) 0.6020(5) 0.0530(6)
C5I C 0.1585(5) 0.6020(5) 0.4470(6)
C6K C 0.4384(6) 0.6035(6) 0.5342(6)
C6A C 0.3965(6) 0.8349(6) -0.0342(6)
C6J C 0.3965(6) 0.8349(6) 0.5342(6)
C6B C 0.1651(6) 0.5616(6) -0.0342(6)
C6I C 0.1651(6) 0.5616(6) 0.5342(6)
O4F O 0.3759(14) 0.3897(15) -0.0995(16)
O4K O 0.6241(14) 0.6103(15) 0.4005(16)
O4E O 0.3759(14) 0.3897(15) 0.5995(16)
O4A O 0.3897(14) 1.0138(15) 0.0995(16)
O4G O 0.6103(14) 0.9862(15) -0.0995(16)
#END
