
#######################################################################
#
#                 Cambridge Crystallographic Data Centre
#                                CCDC
#
#######################################################################
#
# If this CIF has been generated from an entry in the Cambridge
# Structural Database, then it will include bibliographic, chemical,
# crystal, experimental, refinement or atomic coordinate data resulting
# from the CCDC's data processing and validation procedures.
#
#######################################################################

data_CSD_CIF_POBNEB
_audit_creation_date 2014-05-22
_audit_creation_method CSD-ConQuest-V1
_database_code_CSD POBNEB
_database_code_depnum_ccdc_archive 'CCDC 1004740'
_chemical_formula_sum 'C4 H8 Mn1 N2 O6'
_chemical_formula_moiety
;
(C3 H3 Mn1 O6 1-)n,n(C1 H5 N2 1+)
;
_journal_coden_Cambridge 9
_journal_volume 53
_journal_year 2014
_journal_page_first 5260
_journal_name_full 'Inorg.Chem. '
loop_
_publ_author_name
"M.Maczka"
"A.Ciupa"
"A.Gagor"
"A.Sieradzki"
"A.Pikul"
"B.Macalik"
"M.Drozd"
_chemical_name_systematic
;
catena-[diaminomethylium tris(\m~2~-formato)-manganese]
;
_cell_volume    882.204
_exptl_crystal_colour 'pink'
_exptl_crystal_density_diffrn 1.77
_exptl_special_details
;
monoclinic polymorph

;
_exptl_crystal_description 'plate'
_diffrn_ambient_temperature 295
_refine_special_details
;
N2 disordered over one sites with occupancies 0.20.

;
#These two values have been output from a single CSD field.
_refine_ls_R_factor_gt 0.0274
_refine_ls_wR_factor_gt 0.0274
_symmetry_cell_setting monoclinic
_symmetry_space_group_name_H-M 'C 2/c'
_symmetry_Int_Tables_number 15
loop_
_symmetry_equiv_pos_site_id
_symmetry_equiv_pos_as_xyz
1 x,y,z
2 -x,y,1/2-z
3 1/2+x,1/2+y,z
4 1/2-x,1/2+y,1/2-z
5 -x,-y,-z
6 x,-y,-1/2+z
7 -1/2-x,-1/2-y,-z
8 -1/2+x,-1/2-y,-1/2+z
_cell_length_a 13.8035(7)
_cell_length_b 8.6913(4)
_cell_length_c 8.4626(4)
_cell_angle_alpha 90
_cell_angle_beta 119.664(4)
_cell_angle_gamma 90
_cell_formula_units_Z 4
loop_
_atom_type_symbol
_atom_type_radius_bond
C 0.68
H 0.23
Mn 1.61
N 0.68
O 0.68
loop_
_atom_site_label
_atom_site_type_symbol
_atom_site_fract_x
_atom_site_fract_y
_atom_site_fract_z
Mn1 Mn 0.25000 0.25000 0.00000
O1 O 0.18204(12) 0.45814(17) 0.05167(18)
O2 O 0.20454(13) 0.65208(16) 0.23561(18)
O3 O 0.41192(11) 0.36655(17) 0.1399(2)
C1 C 0.50000 0.3013(4) 0.25000
H1 H 0.50000 0.19430 0.25000
C2 C 0.22082(19) 0.5193(2) 0.2025(3)
H2 H 0.26740 0.45870 0.30210
N1 N 0.0698(2) 0.8047(3) -0.1041(3)
H3 H 0.11480 0.74870 -0.01180
H4 H 0.07320 0.90170 -0.09820
C3 C 0.00000 0.7370(4) -0.25000
N2? N 0.00000 0.5899(4) -0.25000
H5? H 0.04600 0.54040 -0.15380
O3A O 0.58808(11) 0.36655(17) 0.3601(2)
O1F O 0.31796(12) 0.04186(17) -0.05167(18)
O2F O 0.29546(13) -0.15208(16) -0.23561(18)
C2F C 0.27918(19) -0.0193(2) -0.2025(3)
H2F H 0.23260 0.04130 -0.30210
Mn1A Mn 0.75000 0.25000 0.50000
Mn1C Mn 0.25000 -0.25000 -0.50000
Mn1C* Mn 0.25000 0.75000 0.50000
O2C O 0.29546(13) 0.15208(16) 0.26439(18)
O2E O 0.20454(13) 0.34792(16) -0.26439(18)
O3F O 0.08808(11) 0.13345(17) -0.1399(2)
N1A N -0.0698(2) 0.8047(3) -0.3959(3)
H3A H -0.11480 0.74870 -0.48820
H4A H -0.07320 0.90170 -0.40180
#END
