
#######################################################################
#
#                 Cambridge Crystallographic Data Centre
#                                CCDC
#
#######################################################################
#
# If this CIF has been generated from an entry in the Cambridge
# Structural Database, then it will include bibliographic, chemical,
# crystal, experimental, refinement or atomic coordinate data resulting
# from the CCDC's data processing and validation procedures.
#
#######################################################################

data_CSD_CIF_POBNEB02
_audit_creation_date 2014-05-22
_audit_creation_method CSD-ConQuest-V1
_database_code_CSD POBNEB02
_database_code_depnum_ccdc_archive 'CCDC 1004739'
_chemical_formula_sum 'C4 H8 Mn1 N2 O6'
_chemical_formula_moiety
;
(C3 H3 Mn1 O6 1-)n,n(C1 H5 N2 1+)
;
_journal_coden_Cambridge 9
_journal_volume 53
_journal_year 2014
_journal_page_first 5260
_journal_name_full 'Inorg.Chem. '
loop_
_publ_author_name
"M.Maczka"
"A.Ciupa"
"A.Gagor"
"A.Sieradzki"
"A.Pikul"
"B.Macalik"
"M.Drozd"
_chemical_name_systematic
;
catena-[aminomethaniminium tris(\m~2~-formato)-manganese]
;
_cell_volume    865.031
_exptl_crystal_colour 'pink'
_exptl_crystal_density_diffrn 1.805
_exptl_crystal_description 'plate'
_diffrn_ambient_temperature 110
#These two values have been output from a single CSD field.
_refine_ls_R_factor_gt 0.0199
_refine_ls_wR_factor_gt 0.0199
_symmetry_cell_setting monoclinic
_symmetry_space_group_name_H-M 'C 2/c'
_symmetry_Int_Tables_number 15
loop_
_symmetry_equiv_pos_site_id
_symmetry_equiv_pos_as_xyz
1 x,y,z
2 -x,y,1/2-z
3 1/2+x,1/2+y,z
4 1/2-x,1/2+y,1/2-z
5 -x,-y,-z
6 x,-y,-1/2+z
7 -1/2-x,-1/2-y,-z
8 -1/2+x,-1/2-y,-1/2+z
_cell_length_a 13.4375(7)
_cell_length_b 8.6838(4)
_cell_length_c 8.4075(4)
_cell_angle_alpha 90
_cell_angle_beta 118.148(4)
_cell_angle_gamma 90
_cell_formula_units_Z 4
loop_
_atom_type_symbol
_atom_type_radius_bond
C 0.68
H 0.23
Mn 1.61
N 0.68
O 0.68
loop_
_atom_site_label
_atom_site_type_symbol
_atom_site_fract_x
_atom_site_fract_y
_atom_site_fract_z
Mn1 Mn 0.25000 0.25000 0.00000
O1 O 0.17618(7) 0.45614(10) 0.04957(11)
O2 O 0.20568(7) 0.65234(9) 0.23610(11)
O3 O 0.41158(7) 0.37236(10) 0.13872(12)
C1 C 0.50000 0.3058(2) 0.25000
H1 H 0.50000 0.19870 0.25000
C2 C 0.21580(11) 0.51416(14) 0.20291(17)
H2 H 0.25620 0.44970 0.30090
N1 N 0.06989(11) 0.79829(15) -0.10321(16)
H3 H 0.1108(17) 0.7466(19) -0.011(3)
H4 H 0.0744(14) 0.895(2) -0.104(2)
C3 C 0.00000 0.7281(2) -0.25000
H5 H 0.00000 0.617(3) -0.25000
O3A O 0.58842(7) 0.37236(10) 0.36128(12)
O1F O 0.32382(7) 0.04386(10) -0.04957(11)
O2F O 0.29432(7) -0.15234(9) -0.23610(11)
C2F C 0.28420(11) -0.01416(14) -0.20291(17)
H2F H 0.24380 0.05030 -0.30090
Mn1A Mn 0.75000 0.25000 0.50000
Mn1C Mn 0.25000 -0.25000 -0.50000
Mn1C* Mn 0.25000 0.75000 0.50000
O2C O 0.29432(7) 0.15234(9) 0.26390(11)
O2E O 0.20568(7) 0.34766(9) -0.26390(11)
O3F O 0.08842(7) 0.12764(10) -0.13872(12)
N1A N -0.06989(11) 0.79829(15) -0.39679(16)
H3A H -0.1108(17) 0.7466(19) -0.489(3)
H4A H -0.0744(14) 0.895(2) -0.396(2)
#END
