
#######################################################################
#
#                 Cambridge Crystallographic Data Centre
#                                CCDC
#
#######################################################################
#
# If this CIF has been generated from an entry in the Cambridge
# Structural Database, then it will include bibliographic, chemical,
# crystal, experimental, refinement or atomic coordinate data resulting
# from the CCDC's data processing and validation procedures.
#
#######################################################################

data_CSD_CIF_POBXIO
_audit_creation_date 2008-10-16
_audit_creation_method CSD-ConQuest-V1
_database_code_CSD POBXIO
_database_code_depnum_ccdc_archive 'CCDC 668399'
_chemical_formula_sum 'C14 H51 N8 Ni6 O47 P1 S1 W9'
_chemical_formula_moiety
;
(H3 O1 1+)n,n(C14 H40 N8 Ni6 O42 P1 S1 W9 1-),4n(H2 O1)
;
_journal_coden_Cambridge 179
_journal_volume 47
_journal_year 2008
_journal_page_first 3909
_journal_name_full 'Angew.Chem.,Int.Ed. '
loop_
_publ_author_name
"Shou-Tian Zheng"
"Jie Zhang"
"Guo-Yu Yang"
_chemical_name_systematic
;
catena-(Oxonium 
(\m~12~-phosphato)-(\m~4~-2,5-thiophenedicarboxylato)-nonakis(\m~3~-oxo)-tris(
\m~2~-hydroxo)-dodecakis(\m~2~-oxo)-(2-aminoethylammonium)-tris(ethylenediamin
e)-aqua-nonaoxo-hexa-nickel-nona-tungsten tetrahydrate)
;
_cell_volume   5970.899
_exptl_crystal_colour 'green'
_exptl_crystal_density_diffrn 3.508
_exptl_crystal_description 'prism'
_diffrn_ambient_temperature 293
#These two values have been output from a single CSD field.
_refine_ls_R_factor_gt 0.0404
_refine_ls_wR_factor_gt 0.0404
_symmetry_cell_setting orthorhombic
_symmetry_space_group_name_H-M 'P 21 21 21'
_symmetry_Int_Tables_number 19
loop_
_symmetry_equiv_pos_site_id
_symmetry_equiv_pos_as_xyz
1 x,y,z
2 1/2-x,-y,1/2+z
3 -x,1/2+y,1/2-z
4 1/2+x,1/2-y,-z
_cell_length_a 13.2810(2)
_cell_length_b 19.3451(3)
_cell_length_c 23.2401(4)
_cell_angle_alpha 90
_cell_angle_beta 90
_cell_angle_gamma 90
_cell_formula_units_Z 4
loop_
_atom_type_symbol
_atom_type_radius_bond
C 0.68
H 0.23
N 0.68
Ni 1.26
O 0.68
P 1.05
S 1.02
W 1.40
loop_
_atom_site_label
_atom_site_type_symbol
_atom_site_fract_x
_atom_site_fract_y
_atom_site_fract_z
Ni1 Ni -1.04484(12) 0.38550(8) 0.14096(7)
Ni2 Ni -1.21550(11) 0.37753(8) 0.22328(7)
Ni3 Ni -1.01035(11) 0.31765(8) 0.26352(7)
Ni4 Ni -1.39557(11) 0.39087(8) 0.30792(8)
Ni5 Ni -1.19561(11) 0.32242(8) 0.34877(7)
Ni6 Ni -0.99863(11) 0.27432(8) 0.39348(7)
W1 W -1.18181(4) 0.14256(2) 0.38558(2)
W2 W -0.96381(3) 0.13845(2) 0.28780(2)
W3 W -0.98623(4) 0.19990(3) 0.14901(2)
W4 W -1.10422(4) 0.04706(3) 0.18850(2)
W5 W -1.32310(4) 0.05061(3) 0.28776(2)
W6 W -1.35089(4) 0.11651(3) 0.13834(3)
W7 W -1.43058(4) 0.27403(3) 0.19135(2)
W8 W -1.40525(3) 0.20827(3) 0.33963(2)
W9 W -1.23154(4) 0.26710(3) 0.09907(2)
S1 S -1.2366(3) 0.5573(2) 0.03338(17)
P1 P -1.1984(2) 0.20875(15) 0.24296(13)
O1 O -1.1822(6) 0.3337(5) 0.1456(4)
O2 O -1.0688(6) 0.4026(4) 0.2259(4)
O3 O -0.9884(6) 0.2846(4) 0.1805(4)
O4 O -1.3622(6) 0.3432(4) 0.2267(4)
O5 O -1.2442(6) 0.4035(4) 0.3046(4)
O6 O -1.1656(6) 0.2830(4) 0.2631(4)
O7 O -1.0492(6) 0.3488(4) 0.3411(3)
O8 O -0.9717(6) 0.2279(4) 0.3079(4)
O9 O -1.1420(6) 0.2311(4) 0.3821(4)
O10 O -1.3452(6) 0.2914(4) 0.3435(4)
O11 O -1.1327(8) 0.4688(5) 0.1141(5)
O12 O -1.2576(7) 0.4651(4) 0.1816(4)
O13 O -1.2935(6) 0.6361(4) -0.0714(4)
O14 O -1.4435(7) 0.6712(5) -0.0377(4)
O15 O -1.4513(6) 0.1814(5) 0.1542(4)
O16 O -1.3208(6) 0.1720(4) 0.3978(4)
O17 O -1.4216(6) 0.1097(4) 0.3189(4)
O18 O -1.2195(8) 0.3000(5) 0.0319(4)
O19 O -1.5157(6) 0.2216(5) 0.3760(4)
O20 O -0.8567(7) 0.1133(5) 0.3234(4)
O21 O -1.0854(7) -0.0349(4) 0.1629(4)
O22 O -1.0048(7) 0.0522(4) 0.2453(4)
O23 O -1.4084(8) 0.0583(5) 0.0965(5)
O24 O -0.9089(6) 0.1650(4) 0.2128(4)
O25 O -1.2965(7) 0.1773(5) 0.0829(4)
O26 O -1.1983(6) 0.0305(5) 0.2485(4)
O27 O -1.2712(6) 0.2135(4) 0.1911(4)
O28 O -1.3706(6) 0.0774(4) 0.2136(4)
O29 O -1.1061(6) 0.2175(4) 0.1054(4)
O30 O -1.0215(6) 0.1005(4) 0.1393(4)
O31 O -1.2181(7) 0.0765(4) 0.1443(4)
O32 O -0.8967(7) 0.2082(5) 0.0973(4)
O33 O -1.2520(6) 0.1707(4) 0.2920(4)
O34 O -1.3680(6) 0.2951(4) 0.1191(4)
O35 O -1.4485(6) 0.2266(4) 0.2612(4)
O36 O -1.3785(7) -0.0299(4) 0.2945(5)
O37 O -1.1469(7) 0.1169(5) 0.4539(4)
O38 O -1.5494(6) 0.3074(5) 0.1825(5)
O39 O -1.0646(6) 0.1130(4) 0.3420(4)
O40 O -1.1057(6) 0.1669(4) 0.2241(4)
O41 O -1.2489(6) 0.0560(4) 0.3549(4)
N1 N -0.9132(10) 0.4394(7) 0.1353(6)
H1 H -0.91990 0.48080 0.15260
H2 H -0.86360 0.41610 0.15310
N2 N -1.0121(9) 0.3627(6) 0.0557(5)
H3 H -1.02050 0.31720 0.04930
H4 H -1.05420 0.38600 0.03240
N3 N -1.5484(7) 0.3684(5) 0.3072(5)
H5 H -1.57750 0.38620 0.27560
H6 H -1.55800 0.32240 0.30720
N4 N -1.4224(8) 0.4242(6) 0.3904(6)
H7 H -1.37180 0.41100 0.41370
H8 H -1.42660 0.47060 0.39120
N5 N -1.4175(8) 0.4846(6) 0.2660(6)
H9 H -1.39120 0.48190 0.23040
H10 H -1.48410 0.49230 0.26240
N6 N -1.3093(11) 0.6657(9) 0.2899(8)
H11 H -1.31160 0.70420 0.26900
H12 H -1.24580 0.65130 0.29260
H13 H -1.33350 0.67400 0.32490
N7 N -0.8556(8) 0.3125(7) 0.4054(5)
H14 H -0.82040 0.30960 0.37240
H15 H -0.85850 0.35720 0.41590
N8 N -0.9429(9) 0.1986(6) 0.4489(5)
H16 H -0.99260 0.18100 0.47080
H17 H -0.91420 0.16400 0.42890
C1 C -1.2835(12) 0.5257(7) 0.0965(8)
C2 C -1.3795(12) 0.5488(7) 0.1068(7)
H18 H -1.41610 0.53750 0.13950
C3 C -1.4165(12) 0.5914(8) 0.0627(7)
H19 H -1.48030 0.61120 0.06280
C4 C -1.3474(10) 0.6004(7) 0.0192(7)
C5 C -1.2198(10) 0.4820(6) 0.1337(6)
C6 C -1.3615(7) 0.6370(6) -0.0329(5)
C7 C -0.8889(15) 0.4487(10) 0.0766(8)
H20 H -0.81790 0.45950 0.07260
H21 H -0.92760 0.48670 0.06070
C8 C -0.9135(13) 0.3813(11) 0.0441(8)
H22 H -0.90470 0.38820 0.00310
H23 H -0.86820 0.34480 0.05640
C9 C -1.5915(11) 0.3987(10) 0.3583(8)
H24 H -1.65450 0.37570 0.36710
H25 H -1.60610 0.44710 0.35110
C10 C -1.5199(13) 0.3926(8) 0.4102(8)
H26 H -1.54660 0.41760 0.44310
H27 H -1.51040 0.34460 0.42090
C11 C -1.3689(16) 0.5466(9) 0.2981(9)
H28 H -1.40530 0.55460 0.33370
H29 H -1.30000 0.53490 0.30800
C12 C -1.3692(15) 0.6129(8) 0.2624(10)
H30 H -1.34250 0.60340 0.22440
H31 H -1.43780 0.62930 0.25800
C13 C -0.8064(12) 0.2714(10) 0.4506(8)
H32 H -0.75850 0.24040 0.43250
H33 H -0.76870 0.30250 0.47520
C14 C -0.8694(14) 0.2334(9) 0.4839(8)
H34 H -0.90330 0.26340 0.51120
H35 H -0.83080 0.19960 0.50540
O42 O -0.8618(7) 0.3503(5) 0.2688(4)
O43 O -0.757(1) 0.3235(9) 0.1713(6)
O44 O -1.7076(12) 0.2273(11) 0.3228(11)
O45 O -0.8432(10) 0.0137(9) 0.1257(10)
O46 O -1.340(2) 0.701(2) 0.4092(11)
O47 O -1.238(3) -0.0279(13) 0.0343(12)
O48 O -1.1188(7) 0.0967(4) 0.0277(4)
Ni5A Ni -1.30439(11) 0.67758(8) -0.15123(7)
Ni6A Ni -1.50137(11) 0.72568(8) -0.10652(7)
O13A O -1.2065(6) 0.3639(4) 0.4286(4)
O14A O -1.0565(7) 0.3288(5) 0.4623(4)
#END
