
#######################################################################
#
#                 Cambridge Crystallographic Data Centre
#                                CCDC
#
#######################################################################
#
# If this CIF has been generated from an entry in the Cambridge
# Structural Database, then it will include bibliographic, chemical,
# crystal, experimental, refinement or atomic coordinate data resulting
# from the CCDC's data processing and validation procedures.
#
#######################################################################

data_CSD_CIF_POBXOU
_audit_creation_date 2008-10-16
_audit_creation_method CSD-ConQuest-V1
_database_code_CSD POBXOU
_database_code_depnum_ccdc_archive 'CCDC 668400'
_chemical_formula_sum 'C52 H178 N28 Ni26 O180 P4 W36'
_chemical_formula_moiety
;
(H3 O1 1+)2n,n(C48 H140 N24 Ni24 O170 P4 W36 6-),2n(C2 H16 N2 Ni1 O4 2+)
;
_journal_coden_Cambridge 179
_journal_volume 47
_journal_year 2008
_journal_page_first 3909
_journal_name_full 'Angew.Chem.,Int.Ed. '
loop_
_publ_author_name
"Shou-Tian Zheng"
"Jie Zhang"
"Guo-Yu Yang"
_chemical_name_systematic
;
catena-(Dioxonium bis((ethylenediamine)-tetraaqua-nickel) 
bis(\m~12~-phosphato)-(\m~10~-phosphato)-tris(\m~4~-1,4-benzenedicarboxylato)-
dodecakis(\m~3~-hydroxo)-tetracosakis(\m~3~-oxo)-dohexacontakis(\m~2~-oxo)-dod
ecakis(ethylenediamine)-decaaqua-tetratriacontaoxo-tetracosa-nickel-hexatriaco
nta-tungsten)
;
_cell_volume   6298.161
_exptl_crystal_colour 'green'
_exptl_crystal_density_diffrn 3.255
_exptl_crystal_description 'prism'
_diffrn_ambient_temperature 293
#These two values have been output from a single CSD field.
_refine_ls_R_factor_gt 0.1048
_refine_ls_wR_factor_gt 0.1048
_symmetry_cell_setting triclinic
_symmetry_space_group_name_H-M 'P -1'
_symmetry_Int_Tables_number 2
loop_
_symmetry_equiv_pos_site_id
_symmetry_equiv_pos_as_xyz
1 x,y,z
2 -x,-y,-z
_cell_length_a 12.7821(8)
_cell_length_b 19.7680(14)
_cell_length_c 25.3812(18)
_cell_angle_alpha 86.894(13)
_cell_angle_beta 89.870(18)
_cell_angle_gamma 79.587(13)
_cell_formula_units_Z 1
loop_
_atom_type_symbol
_atom_type_radius_bond
C 0.68
H 0.23
N 0.68
Ni 1.16
O 0.62
P 1.05
W 1.37
loop_
_atom_site_label
_atom_site_type_symbol
_atom_site_fract_x
_atom_site_fract_y
_atom_site_fract_z
Ni1 Ni 1.3950(3) -0.2490(2) -0.11815(17)
Ni2 Ni 1.3916(3) -0.24004(18) -0.24194(16)
Ni3 Ni 1.2840(3) -0.34430(18) -0.17304(16)
Ni4 Ni 1.3977(3) -0.2499(2) -0.36346(17)
Ni5 Ni 1.2830(3) -0.34785(19) -0.29598(16)
Ni6 Ni 1.1920(3) -0.45728(19) -0.22584(18)
Ni7 Ni 0.7979(3) 0.10624(19) -0.13180(15)
Ni8 Ni 0.8086(3) 0.11531(17) -0.25621(15)
Ni9 Ni 0.5956(3) 0.12846(17) -0.19375(15)
Ni10 Ni 0.7974(3) 0.1040(2) -0.37821(17)
Ni11 Ni 0.5952(3) 0.12714(19) -0.31785(16)
Ni12 Ni 0.3873(3) 0.1347(2) -0.2555(2)
Ni13 Ni 1.0358(9) 0.3746(6) -0.0415(4)
W1 W 1.11626(11) -0.21729(7) -0.10186(5)
W2 W 1.00372(10) -0.33696(6) -0.16214(5)
W3 W 1.00521(9) -0.33987(6) -0.30688(5)
W4 W 1.11984(10) -0.22366(7) -0.38080(5)
W5 W 1.24545(9) -0.09712(6) -0.31535(6)
W6 W 1.24652(10) -0.09528(6) -0.18019(6)
W7 W 0.88184(10) -0.16583(7) -0.17122(6)
W8 W 1.01434(9) -0.04224(6) -0.24988(5)
W9 W 0.88446(9) -0.16813(6) -0.31700(6)
W10 W 0.64043(10) 0.26824(7) -0.40298(5)
W11 W 0.89459(10) 0.25055(7) -0.33058(5)
W12 W 0.89391(9) 0.25215(6) -0.19566(5)
W13 W 0.64105(10) 0.27147(6) -0.12324(5)
W14 W 0.40794(9) 0.28535(6) -0.19073(5)
W15 W 0.40785(9) 0.28350(6) -0.33570(5)
W16 W 0.80173(10) 0.40149(6) -0.27068(6)
W17 W 0.5455(1) 0.41836(6) -0.34318(5)
W18 W 0.54719(10) 0.42008(6) -0.19760(5)
P1 P 0.6469(5) 0.2648(3) -0.2636(3)
P2 P 1.1275(5) -0.2211(3) -0.2412(3)
O1 O 1.4192(17) -0.3077(10) -0.1798(8)
H1 H 1.48540 -0.34160 -0.17990
O2 O 0.6138(17) 0.2833(10) -0.3127(8)
O3 O 1.0631(13) -0.2331(8) -0.2886(7)
O4 O 0.5871(13) 0.2974(8) -0.2176(7)
O5 O 0.9594(16) 0.2448(14) -0.2623(9)
O6 O 0.6558(16) 0.1854(9) -0.2596(9)
O7 O 1.4208(13) -0.3124(9) -0.2965(8)
H2 H 1.48710 -0.34620 -0.29310
O8 O 1.1621(16) -0.139(1) -0.3624(9)
O9 O 0.5397(18) 0.0826(9) -0.2553(10)
H3 H 0.55020 0.03220 -0.25330
O10 O 0.4902(18) 0.2754(12) -0.1272(9)
O11 O 0.6545(14) 0.2632(9) -0.0487(8)
O12 O 1.0493(16) -0.3025(11) -0.3754(9)
O13 O 0.6870(15) 0.4197(11) -0.2211(9)
O14 O 1.1224(15) -0.2153(9) -0.4547(8)
O15 O 0.9804(14) -0.3406(8) -0.2410(7)
O16 O 0.690(2) 0.4183(13) -0.3211(9)
O17 O 1.3121(19) -0.0488(14) -0.1409(11)
O18 O 1.1168(17) -0.0304(10) -0.3044(9)
O19 O 1.002(2) 0.2403(11) -0.1533(12)
O20 O 0.8807(16) 0.3518(10) -0.3221(11)
O21 O 1.1419(16) -0.3806(10) -0.2872(8)
O22 O 1.2393(17) -0.2682(10) -0.1233(9)
O23 O 0.6659(16) 0.1846(9) -0.1430(9)
O24 O 0.8812(15) -0.2599(10) -0.1569(9)
O25 O 0.7410(15) 0.0698(10) -0.3114(8)
H4 H 0.74530 0.01980 -0.30640
O26 O 0.6035(17) 0.3685(10) -0.4025(8)
O27 O 0.4183(18) 0.3855(10) -0.1874(9)
O28 O 0.9426(17) -0.0928(11) -0.2986(9)
O29 O 1.2328(14) -0.2717(10) -0.2384(7)
O30 O 1.0680(17) -0.2311(10) -0.1896(9)
O31 O 0.8619(15) 0.1670(11) -0.1964(7)
O32 O 0.8586(14) 0.1664(9) -0.3206(7)
O33 O 0.4177(16) 0.3802(9) -0.3522(8)
O34 O 0.4867(16) 0.2715(11) -0.3996(8)
O35 O 0.7574(13) 0.2849(9) -0.2644(7)
O36 O 0.7409(13) 0.070(1) -0.1960(7)
H5 H 0.74480 0.02010 -0.19630
O37 O 1.3400(17) -0.1761(10) -0.3064(8)
O38 O 0.9367(15) 0.0387(9) -0.2533(8)
O39 O 0.2815(17) 0.2894(11) -0.166(1)
O40 O 0.9668(17) -0.1671(12) -0.1105(10)
O41 O 0.9421(17) -0.0885(10) -0.1969(10)
O42 O 1.3221(15) -0.4118(10) -0.2306(9)
H6 H 1.39240 -0.44140 -0.22910
O43 O 1.0512(18) -0.2988(12) -0.1030(9)
O44 O 1.1174(16) -0.0305(9) -0.1987(9)
O45 O 0.7035(16) 0.0547(13) -0.0837(10)
O46 O 0.8826(16) -0.2633(11) -0.3218(9)
O47 O 1.1367(16) -0.3770(9) -0.1762(8)
O48 O 0.5510(16) 0.0706(12) -0.1323(8)
O49 O 1.1494(13) -0.1467(9) -0.2445(7)
O50 O 1.3395(16) -0.1735(9) -0.1830(8)
O51 O 0.4491(16) 0.1932(10) -0.3162(9)
O52 O 0.7786(14) 0.2792(9) -0.1497(9)
O53 O 1.337(2) -0.4100(11) -0.1108(9)
O54 O 0.549(2) 0.0687(12) -0.3732(9)
O55 O 1.2424(16) -0.2746(10) -0.3543(8)
O56 O 0.947(2) -0.4058(12) -0.3294(10)
O57 O 0.2798(17) 0.2893(12) -0.3596(11)
O58 O 1.309(2) -0.0506(13) -0.3608(10)
O59 O 0.4556(15) 0.1958(9) -0.2025(8)
O60 O 0.3951(14) 0.2981(8) -0.2568(7)
O61 O 0.5389(13) 0.4230(8) -0.2541(7)
O62 O 0.952(2) -0.4027(15) -0.1326(12)
O63 O 1.425(2) -0.3348(12) -0.0691(11)
O64 O 0.7594(19) -0.1258(13) -0.1516(10)
O65 O 0.999(2) 0.2384(15) -0.3737(11)
O66 O 0.7029(18) 0.0543(13) -0.4222(10)
O67 O 0.667(2) 0.2585(17) -0.4688(10)
O68 O 0.7628(18) -0.1311(16) -0.3429(11)
O69 O 0.7814(17) 0.2787(13) -0.3793(10)
O70 O 0.5110(18) 0.5016(12) -0.3738(12)
O71 O 0.9695(17) -0.1745(11) -0.3789(10)
O72 O 1.2905(18) -0.0652(11) -0.2494(10)
O73 O 0.8486(19) 0.4751(13) -0.2732(13)
O74 O 1.138(3) -0.2088(17) -0.0374(12)
O75 O 0.8662(13) -0.1743(8) -0.2455(7)
O76 O 0.6022(17) 0.3716(10) -0.1350(9)
O77 O 0.8826(15) 0.3517(10) -0.2152(10)
O78 O 0.6646(18) 0.1808(11) -0.3753(10)
O79 O 1.1634(18) -0.1363(11) -0.1283(11)
O80 O 0.5063(17) 0.5016(12) -0.1765(10)
N1 N 1.366(2) -0.1915(17) -0.0538(11)
H7 H 1.33550 -0.14790 -0.06310
H8 H 1.32460 -0.20980 -0.03060
N2 N 1.541(3) -0.2244(18) -0.1123(13)
H9 H 1.58780 -0.26250 -0.10200
H10 H 1.56060 -0.20950 -0.14420
N3 N 1.249(2) -0.5325(15) -0.2771(15)
H11 H 1.26590 -0.51360 -0.30840
H12 H 1.30780 -0.56040 -0.26370
N4 N 1.542(2) -0.2176(19) -0.3659(14)
H13 H 1.55980 -0.20510 -0.33400
H14 H 1.59380 -0.25100 -0.37670
N5 N 1.366(3) -0.1903(17) -0.4302(13)
H15 H 1.33990 -0.21330 -0.45520
H16 H 1.31870 -0.15210 -0.42430
N6 N 1.064(2) -0.5050(15) -0.2173(14)
H17 H 1.04700 -0.51050 -0.18300
H18 H 1.00660 -0.48080 -0.23480
N7 N 0.860(3) 0.1456(18) -0.4434(14)
H19 H 0.81010 0.15720 -0.46880
H20 H 0.88450 0.18380 -0.43530
N8 N 0.928(2) 0.0284(16) -0.3848(13)
H21 H 0.96500 0.02170 -0.35420
H22 H 0.90810 -0.01140 -0.39220
N9 N 0.862(2) 0.1468(15) -0.0706(11)
H23 H 0.88590 0.18530 -0.08190
H24 H 0.81300 0.15800 -0.04570
N10 N 0.932(2) 0.0333(15) -0.1212(12)
H25 H 0.91210 -0.00800 -0.11490
H26 H 0.96890 0.03140 -0.15130
N11 N 0.230(2) 0.1832(15) -0.2556(15)
H27 H 0.20930 0.19510 -0.22300
H28 H 0.21980 0.22140 -0.27740
N12 N 0.352(3) 0.0735(18) -0.314(2)
H29 H 0.38480 0.08090 -0.34450
H30 H 0.36540 0.02830 -0.30390
N13 N 0.9041(18) 0.391(2) 0.0054(11)
H31 H 0.90340 0.35800 0.03130
H32 H 0.89000 0.43330 0.01810
N14 N 0.947(3) 0.409(2) -0.1083(10)
H33 H 0.96000 0.45030 -0.11920
H34 H 0.96760 0.37950 -0.13400
C1 C 0.607(2) 0.0521(17) -0.4145(11)
C2 C 1.405(3) -0.3922(18) -0.0747(14)
C3 C 0.603(2) 0.0523(15) -0.0910(13)
C4 C 0.550(3) 0.023(2) -0.0449(18)
C5 C 0.440(3) 0.0246(19) -0.4558(16)
C6 C 0.546(3) 0.0233(16) -0.4578(15)
C7 C 0.610(3) -0.001(3) 0.0036(16)
C8 C 0.439(3) 0.023(3) -0.0487(17)
C9 C 1.524(8) -0.157(5) -0.405(3)
C10 C 1.473(4) -0.171(3) -0.448(2)
H35 H 1.51590 -0.20970 -0.46490
H36 H 1.46110 -0.13190 -0.47290
C11 C 0.999(4) 0.052(2) -0.4301(19)
H37 H 1.05560 0.07140 -0.41520
H38 H 1.03040 0.01240 -0.44940
C12 C 1.101(4) -0.574(3) -0.241(4)
H39 H 1.14070 -0.60510 -0.21440
H40 H 1.03860 -0.59300 -0.25000
C13 C 0.946(4) 0.099(2) -0.050(2)
H41 H 0.91870 0.07770 -0.01850
H42 H 0.99800 0.12460 -0.03750
C14 C 0.944(4) 0.096(3) -0.461(2)
H43 H 0.91440 0.07070 -0.48730
H44 H 0.99340 0.12080 -0.47950
C15 C 1.160(4) -0.572(3) -0.283(2)
H45 H 1.11530 -0.55050 -0.31280
H46 H 1.18990 -0.61850 -0.29200
C16 C 1.002(4) 0.045(3) -0.0772(19)
H47 H 1.02030 0.00380 -0.05420
H48 H 1.06760 0.05730 -0.09110
C17 C 1.472(3) -0.5147(17) -0.0479(15)
C18 C 0.607(4) -0.003(2) -0.4994(16)
C19 C 1.486(3) -0.4287(19) 0.0115(16)
C20 C 1.453(3) -0.455(2) -0.0365(17)
C21 C 0.248(6) 0.100(4) -0.315(3)
C22 C 0.171(7) 0.133(5) -0.274(4)
C23 C 1.479(4) -0.194(3) -0.030(2)
H49 H 1.47770 -0.16130 -0.00320
H50 H 1.50790 -0.24000 -0.01530
C24 C 1.544(6) -0.176(4) -0.078(3)
H51 H 1.51370 -0.13040 -0.09330
H52 H 1.61710 -0.17520 -0.06720
C25 C 0.839(4) 0.383(3) -0.0423(16)
H53 H 0.76630 0.39330 -0.02970
H54 H 0.85280 0.33370 -0.04640
C26 C 0.830(3) 0.413(6) -0.099(2)
H55 H 0.79820 0.38540 -0.12270
H56 H 0.79180 0.46050 -0.10200
O81 O 1.450(3) -0.3271(19) -0.4131(13)
O82 O 0.8559(14) -0.3272(8) -0.4949(7)
O83 O 0.350(3) 0.0779(17) -0.1845(19)
O84 O 1.317(2) -0.4204(12) -0.3519(10)
O85 O 1.2556(19) -0.5160(12) -0.1546(10)
O86 O 1.5334(18) -0.2061(14) -0.2426(10)
O87 O 1.180(2) 0.3758(14) -0.0779(11)
O88 O 1.084(2) 0.4653(14) -0.0509(11)
O89 O 1.123(3) 0.3399(19) 0.0303(15)
O90 O 1.036(3) 0.2700(17) -0.0430(14)
Ni1A Ni 1.6050(3) -0.7510(2) 0.11815(17)
Ni2A Ni 1.6084(3) -0.75996(18) 0.24194(16)
Ni3A Ni 1.7160(3) -0.65570(18) 0.17304(16)
Ni4A Ni 1.6023(3) -0.7501(2) 0.36346(17)
Ni5A Ni 1.7170(3) -0.65215(19) 0.29598(16)
Ni6A Ni 1.8080(3) -0.54272(19) 0.22584(18)
Ni7A Ni 2.2021(3) -1.10624(19) 0.13180(15)
Ni7A* Ni 0.2021(3) -0.10624(19) 0.13180(15)
Ni8A Ni 2.1914(3) -1.11531(17) 0.25621(15)
Ni9A Ni 2.4044(3) -1.12846(17) 0.19375(15)
Ni9A* Ni 0.4044(3) -0.12846(17) 0.19375(15)
Ni10A Ni 2.2026(3) -1.1040(2) 0.37821(17)
Ni10A* Ni 0.2026(3) -0.1040(2) -0.62179(17)
Ni11A Ni 2.4048(3) -1.12714(19) 0.31785(16)
Ni11A* Ni 0.4048(3) -0.12714(19) -0.68215(16)
Ni12A Ni 2.6127(3) -1.1347(2) 0.2555(2)
W1A W 1.88374(11) -0.78271(7) 0.10186(5)
W2A W 1.99628(10) -0.66304(6) 0.16214(5)
W3A W 1.99479(9) -0.66013(6) 0.30688(5)
W4A W 1.88016(10) -0.77634(7) 0.38080(5)
W5A W 1.75455(9) -0.90288(6) 0.31535(6)
W6A W 1.75348(10) -0.90472(6) 0.18019(6)
W7A W 2.11816(10) -0.83417(7) 0.17122(6)
W8A W 1.98566(9) -0.95776(6) 0.24988(5)
W9A W 2.11554(9) -0.83187(6) 0.31700(6)
W10A W 2.35957(10) -1.26824(7) 0.40298(5)
W11A W 2.10541(10) -1.25055(7) 0.33058(5)
W12A W 2.10609(9) -1.25215(6) 0.19566(5)
W13A W 2.35895(10) -1.27147(6) 0.12324(5)
W14A W 2.59206(9) -1.28535(6) 0.19073(5)
W15A W 2.59215(9) -1.28350(6) 0.33570(5)
W16A W 2.19827(10) -1.40149(6) 0.27068(6)
W17A W 2.4545(1) -1.41836(6) 0.34318(5)
W18A W 2.45281(10) -1.42008(6) 0.19760(5)
P1A P 2.3531(5) -1.2648(3) 0.2636(3)
P2A P 1.8725(5) -0.7789(3) 0.2412(3)
O1A O 1.5808(17) -0.6923(10) 0.1798(8)
H1A H 1.51460 -0.65840 0.17990
O2A O 2.3862(17) -1.2833(10) 0.3127(8)
O3A O 1.9369(13) -0.7669(8) 0.2886(7)
O4A O 2.4129(13) -1.2974(8) 0.2176(7)
O5A O 2.0406(16) -1.2448(14) 0.2623(9)
O6A O 2.3442(16) -1.1854(9) 0.2596(9)
O7A O 1.5792(13) -0.6876(9) 0.2965(8)
H2A H 1.51290 -0.65380 0.29310
O8A O 1.8379(16) -0.861(1) 0.3624(9)
O9A O 2.4603(18) -1.0826(9) 0.2553(10)
H3A H 2.44980 -1.03220 0.25330
O10A O 2.5098(18) -1.2754(12) 0.1272(9)
O11A O 2.3455(14) -1.2632(9) 0.0487(8)
O12A O 1.9507(16) -0.6975(11) 0.3754(9)
O13A O 2.3130(15) -1.4197(11) 0.2211(9)
O14A O 1.8776(15) -0.7847(9) 0.4547(8)
O15A O 2.0196(14) -0.6594(8) 0.2410(7)
O16A O 2.310(2) -1.4183(13) 0.3211(9)
O17A O 1.6879(19) -0.9512(14) 0.1409(11)
O18A O 1.8832(17) -0.9696(10) 0.3044(9)
O19A O 1.998(2) -1.2403(11) 0.1533(12)
O20A O 2.1193(16) -1.3518(10) 0.3221(11)
O21A O 1.8581(16) -0.6194(10) 0.2872(8)
O22A O 1.7607(17) -0.7318(10) 0.1233(9)
O23A O 2.3341(16) -1.1846(9) 0.1430(9)
O24A O 2.1188(15) -0.7401(10) 0.1569(9)
O25A O 2.2590(15) -1.0698(10) 0.3114(8)
H4A H 2.25470 -1.01980 0.30640
O26A O 2.3965(17) -1.3685(10) 0.4025(8)
O27A O 2.5817(18) -1.3855(10) 0.1874(9)
O28A O 2.0574(17) -0.9072(11) 0.2986(9)
O29A O 1.7672(14) -0.7283(10) 0.2384(7)
O30A O 1.9320(17) -0.7689(10) 0.1896(9)
O31A O 2.1381(15) -1.1670(11) 0.1964(7)
O32A O 2.1414(14) -1.1664(9) 0.3206(7)
O33A O 2.5823(16) -1.3802(9) 0.3522(8)
O34A O 2.5133(16) -1.2715(11) 0.3996(8)
O35A O 2.2426(13) -1.2849(9) 0.2644(7)
O36A O 2.2591(13) -1.070(1) 0.1960(7)
H5A H 2.25520 -1.02010 0.19630
O37A O 1.6600(17) -0.8239(10) 0.3064(8)
O38A O 2.0633(15) -1.0387(9) 0.2533(8)
O39A O 2.7185(17) -1.2894(11) 0.166(1)
O40A O 2.0332(17) -0.8329(12) 0.1105(10)
O41A O 2.0579(17) -0.9115(10) 0.1969(10)
O42A O 1.6779(15) -0.5882(10) 0.2306(9)
H6A H 1.60760 -0.55860 0.22910
O43A O 1.9488(18) -0.7012(12) 0.1030(9)
O44A O 1.8826(16) -0.9695(9) 0.1987(9)
O45A O 0.2965(16) -0.0547(13) 0.0837(10)
O45A* O 2.2965(16) -1.0547(13) 0.0837(10)
O46A O 2.1174(16) -0.7367(11) 0.3218(9)
O47A O 1.8633(16) -0.6230(9) 0.1762(8)
O48A O 0.4490(16) -0.0706(12) 0.1323(8)
O48A* O 2.4490(16) -1.0706(12) 0.1323(8)
O49A O 1.8506(13) -0.8533(9) 0.2445(7)
O50A O 1.6605(16) -0.8265(9) 0.1830(8)
O51A O 2.5509(16) -1.1932(10) 0.3162(9)
O52A O 2.2214(14) -1.2792(9) 0.1497(9)
O53A O 1.663(2) -0.5900(11) 0.1108(9)
O54A O 0.451(2) -0.0687(12) -0.6268(9)
O54A* O 2.451(2) -1.0687(12) 0.3732(9)
O55A O 1.7576(16) -0.7254(10) 0.3543(8)
O56A O 2.053(2) -0.5942(12) 0.3294(10)
O57A O 2.7202(17) -1.2893(12) 0.3596(11)
O58A O 1.691(2) -0.9494(13) 0.3608(10)
O59A O 2.5444(15) -1.1958(9) 0.2025(8)
O60A O 2.6049(14) -1.2981(8) 0.2568(7)
O61A O 2.4611(13) -1.4230(8) 0.2541(7)
O62A O 2.048(2) -0.5973(15) 0.1326(12)
O63A O 1.575(2) -0.6652(12) 0.0691(11)
O64A O 2.2406(19) -0.8742(13) 0.1516(10)
O65A O 2.001(2) -1.2384(15) 0.3737(11)
O66A O 0.2971(18) -0.0543(13) -0.5778(10)
O66A* O 2.2971(18) -1.0543(13) 0.4222(10)
O67A O 2.333(2) -1.2585(17) 0.4688(10)
O68A O 2.2372(18) -0.8689(16) 0.3429(11)
O69A O 2.2186(17) -1.2787(13) 0.3793(10)
O70A O 2.4890(18) -1.5016(12) 0.3738(12)
O71A O 2.0305(17) -0.8255(11) 0.3789(10)
O72A O 1.7095(18) -0.9348(11) 0.2494(10)
O73A O 2.1514(19) -1.4751(13) 0.2732(13)
O74A O 1.862(3) -0.7912(17) 0.0374(12)
O75A O 2.1338(13) -0.8257(8) 0.2455(7)
O76A O 2.3978(17) -1.3716(10) 0.1350(9)
O77A O 2.1174(15) -1.3517(10) 0.2152(10)
O78A O 2.3354(18) -1.1808(11) 0.3753(10)
O79A O 1.8366(18) -0.8637(11) 0.1283(11)
O80A O 2.4937(17) -1.5016(12) 0.1765(10)
N1A N 1.634(2) -0.8085(17) 0.0538(11)
H7A H 1.66450 -0.85210 0.06310
H8A H 1.67540 -0.79020 0.03060
N2A N 1.459(3) -0.7756(18) 0.1123(13)
H9A H 1.41220 -0.73750 0.10200
H10A H 1.43940 -0.79050 0.14420
N3A N 1.751(2) -0.4675(15) 0.2771(15)
H11A H 1.73410 -0.48640 0.30840
H12A H 1.69220 -0.43960 0.26370
N4A N 1.458(2) -0.7824(19) 0.3659(14)
H13A H 1.44020 -0.79490 0.33400
H14A H 1.40620 -0.74900 0.37670
N5A N 1.634(3) -0.8097(17) 0.4302(13)
H15A H 1.66010 -0.78670 0.45520
H16A H 1.68130 -0.84790 0.42430
N6A N 1.936(2) -0.4950(15) 0.2173(14)
H17A H 1.95300 -0.48950 0.18300
H18A H 1.99340 -0.51920 0.23480
N7A N 2.140(3) -1.1456(18) 0.4434(14)
H19A H 2.18990 -1.15720 0.46880
H20A H 2.11550 -1.18380 0.43530
N8A N 2.072(2) -1.0284(16) 0.3848(13)
H21A H 2.03500 -1.02170 0.35420
H22A H 2.09190 -0.98860 0.39220
N9A N 2.138(2) -1.1468(15) 0.0706(11)
H23A H 2.11410 -1.18530 0.08190
H24A H 2.18700 -1.15800 0.04570
N10A N 2.068(2) -1.0333(15) 0.1212(12)
H25A H 2.08790 -0.99200 0.11490
H26A H 2.03110 -1.03140 0.15130
N11A N 2.770(2) -1.1832(15) 0.2556(15)
H27A H 2.79070 -1.19510 0.22300
H28A H 2.78020 -1.22140 0.27740
N12A N 2.648(3) -1.0735(18) 0.314(2)
H29A H 2.61520 -1.08090 0.34450
H30A H 2.63460 -1.02830 0.30390
C1A C 0.393(2) -0.0521(17) -0.5855(11)
C2A C 1.595(3) -0.6078(18) 0.0747(14)
C3A C 0.397(2) -0.0523(15) 0.0910(13)
C4A C 0.450(3) -0.023(2) 0.0449(18)
C5A C 0.560(3) -0.0246(19) -0.5442(16)
C6A C 0.454(3) -0.0233(16) -0.5422(15)
C7A C 0.390(3) 0.001(3) -0.0036(16)
C8A C 0.561(3) -0.023(3) 0.0487(17)
C9A C 1.476(8) -0.843(5) 0.405(3)
C10A C 1.527(4) -0.829(3) 0.448(2)
H35A H 1.48410 -0.79030 0.46490
H36A H 1.53890 -0.86810 0.47290
C11A C 2.001(4) -1.052(2) 0.4301(19)
H37A H 1.94440 -1.07140 0.41520
H38A H 1.96960 -1.01240 0.44940
C12A C 1.899(4) -0.426(3) 0.241(4)
H39A H 1.85930 -0.39490 0.21440
H40A H 1.96140 -0.40700 0.25000
C13A C 2.054(4) -1.099(2) 0.050(2)
H41A H 2.08130 -1.07770 0.01850
H42A H 2.00200 -1.12460 0.03750
C14A C 2.056(4) -1.096(3) 0.461(2)
H43A H 2.08560 -1.07070 0.48730
H44A H 2.00660 -1.12080 0.47950
C15A C 1.840(4) -0.428(3) 0.283(2)
H45A H 1.88470 -0.44950 0.31280
H46A H 1.81010 -0.38150 0.29200
C16A C 1.998(4) -1.045(3) 0.0772(19)
H47A H 1.97970 -1.00380 0.05420
H48A H 1.93240 -1.05730 0.09110
C17A C 1.528(3) -0.4853(17) 0.0479(15)
C18A C 0.393(4) 0.003(2) -0.5006(16)
C19A C 1.514(3) -0.5713(19) -0.0115(16)
C20A C 1.547(3) -0.545(2) 0.0365(17)
C21A C 2.752(6) -1.100(4) 0.315(3)
C22A C 2.829(7) -1.133(5) 0.274(4)
C23A C 1.521(4) -0.806(3) 0.030(2)
H49A H 1.52230 -0.83870 0.00320
H50A H 1.49210 -0.76000 0.01530
C24A C 1.456(6) -0.824(4) 0.078(3)
H51A H 1.48630 -0.86960 0.09330
H52A H 1.38290 -0.82480 0.06720
O81A O 1.550(3) -0.6729(19) 0.4131(13)
O83A O 2.650(3) -1.0779(17) 0.1845(19)
O84A O 1.683(2) -0.5796(12) 0.3519(10)
O85A O 1.7444(19) -0.4840(12) 0.1546(10)
O86A O 1.4666(18) -0.7939(14) 0.2426(10)
#END
