
#######################################################################
#
#                 Cambridge Crystallographic Data Centre
#                                CCDC
#
#######################################################################
#
# If this CIF has been generated from an entry in the Cambridge
# Structural Database, then it will include bibliographic, chemical,
# crystal, experimental, refinement or atomic coordinate data resulting
# from the CCDC's data processing and validation procedures.
#
#######################################################################

data_CSD_CIF_POBYAH
_audit_creation_date 2008-10-16
_audit_creation_method CSD-ConQuest-V1
_database_code_CSD POBYAH
_database_code_depnum_ccdc_archive 'CCDC 668402'
_chemical_formula_sum 'C12 H39 N2 Ni6 O53 P1 W9'
_chemical_formula_moiety
;
(C3 H12 N2 2+)n,n(C9 H17 Ni6 O48 P1 W9 2-),5n(H2 O1)
;
_journal_coden_Cambridge 179
_journal_volume 47
_journal_year 2008
_journal_page_first 3909
_journal_name_full 'Angew.Chem.,Int.Ed. '
loop_
_publ_author_name
"Shou-Tian Zheng"
"Jie Zhang"
"Guo-Yu Yang"
_chemical_name_systematic
;
catena-(Propane-1,2-diammonium 
(\m~12~-phosphato)-(\m~5~-4-carboxy-1,2-benzenedicarboxylato)-tris(\m~3~-hydro
xo)-hexakis(\m~3~-oxo)-heptadecakis(\m~2~-oxo)-pentaaqua-heptaoxo-hexa-nickel-
nona-tungsten pentahydrate)
;
_cell_volume   6398.508
_exptl_crystal_colour 'green'
_exptl_crystal_density_diffrn 3.215
_exptl_crystal_description 'prism'
_diffrn_ambient_temperature 293
#These two values have been output from a single CSD field.
_refine_ls_R_factor_gt 0.0315
_refine_ls_wR_factor_gt 0.0315
_symmetry_cell_setting tetragonal
_symmetry_space_group_name_H-M 'P 41'
_symmetry_Int_Tables_number 76
loop_
_symmetry_equiv_pos_site_id
_symmetry_equiv_pos_as_xyz
1 x,y,z
2 -x,-y,1/2+z
3 -y,x,1/4+z
4 y,-x,3/4+z
_cell_length_a 15.5419(4)
_cell_length_b 15.5419(4)
_cell_length_c 26.4893(13)
_cell_angle_alpha 90
_cell_angle_beta 90
_cell_angle_gamma 90
_cell_formula_units_Z 4
loop_
_atom_type_symbol
_atom_type_radius_bond
C 0.68
H 0.23
N 0.68
Ni 1.27
O 0.68
P 1.05
W 1.42
loop_
_atom_site_label
_atom_site_type_symbol
_atom_site_fract_x
_atom_site_fract_y
_atom_site_fract_z
Ni1 Ni -0.37036(8) -0.15499(8) -0.25259(5)
Ni2 Ni -0.19780(8) -0.15560(9) -0.31293(5)
Ni3 Ni -0.34603(8) -0.28740(8) -0.33170(5)
Ni4 Ni -0.04160(9) -0.16325(9) -0.38572(6)
Ni5 Ni -0.18522(8) -0.29477(8) -0.39899(5)
Ni6 Ni -0.58603(8) -0.32810(8) -0.17059(5)
W1 W -0.35983(3) -0.36517(3) -0.206590(15)
W2 W -0.14105(3) -0.51865(3) -0.378850(16)
W3 W -0.01882(3) -0.53928(3) -0.271100(17)
W4 W 0.02040(3) -0.37349(3) -0.354520(16)
W5 W -0.03810(3) -0.37595(3) -0.169000(18)
W6 W -0.33698(3) -0.51370(3) -0.301070(16)
W7 W -0.21626(3) -0.53156(3) -0.191510(16)
W8 W -0.00377(3) -0.21193(3) -0.254230(17)
W9 W -0.18596(3) -0.20978(3) -0.180440(16)
P1 P -0.16950(16) -0.36108(17) -0.28153(10)
O1 O -0.2353(4) -0.1629(5) -0.2361(3)
O2 O -0.3227(4) -0.1618(4) -0.3225(3)
H1 H -0.34770 -0.12280 -0.34760
O3 O -0.3642(5) -0.2873(4) -0.2561(3)
O4 O -0.0693(5) -0.1680(5) -0.3044(3)
O5 O -0.1704(4) -0.1675(5) -0.3879(3)
H2 H -0.19980 -0.12840 -0.41130
O6 O -0.3139(4) -0.2910(4) -0.4030(3)
H3 H -0.34000 -0.24830 -0.42560
O7 O -0.3538(5) -0.4223(4) -0.3421(3)
O8 O -0.0553(4) -0.2989(5) -0.3826(3)
O9 O -0.5742(4) -0.2003(4) -0.1500(3)
O10 O -0.2095(4) -0.2967(4) -0.3191(3)
O11 O -0.4908(5) -0.1605(5) -0.2844(3)
O12 O -0.4711(5) -0.2651(5) -0.3414(3)
O13 O -0.6147(5) -0.2894(5) -0.2428(3)
O14 O -0.7045(5) -0.1772(5) -0.2243(3)
O15 O -0.9169(5) -0.1621(6) -0.3717(3)
O16 O -0.8595(6) -0.1511(12) -0.4493(4)
H4 H -0.91030 -0.14640 -0.45710
O17 O -0.4552(5) -0.3448(5) -0.1742(3)
O18 O -0.2900(5) -0.5765(5) -0.2418(3)
O19 O -0.1109(5) -0.2899(5) -0.1418(3)
O20 O -0.2729(4) -0.2943(5) -0.1745(3)
O21 O 0.0473(5) -0.6222(6) -0.2542(4)
O22 O -0.2131(5) -0.1399(5) -0.1326(3)
O23 O -0.0722(5) -0.5848(5) -0.3294(3)
O24 O -0.2365(4) -0.5491(5) -0.3355(3)
O25 O 0.0831(5) -0.1446(5) -0.2517(3)
O26 O -0.1064(4) -0.4216(5) -0.3088(3)
O27 O -0.0755(5) -0.1630(5) -0.2024(3)
O28 O 0.1131(5) -0.3609(5) -0.3879(3)
O29 O -0.0357(5) -0.4658(5) -0.3962(3)
O30 O -0.1217(5) -0.5647(5) -0.2349(3)
O31 O -0.4085(5) -0.1505(5) -0.1785(3)
O32 O -0.2383(4) -0.4178(4) -0.2567(3)
O33 O 0.0331(5) -0.2910(6) -0.1979(3)
O34 O -0.0003(5) -0.4554(5) -0.2190(3)
O35 O -0.3085(5) -0.4604(5) -0.1686(3)
O36 O -0.1369(5) -0.4513(5) -0.1649(3)
O37 O 0.0200(5) -0.4078(6) -0.1177(3)
O38 O -0.1195(4) -0.3119(5) -0.2400(3)
O39 O -0.4118(5) -0.5883(5) -0.3201(3)
O40 O 0.0372(5) -0.3039(5) -0.2969(3)
O41 O -0.4023(4) -0.4531(5) -0.2494(3)
O42 O 0.0549(4) -0.4733(5) -0.3122(3)
O43 O -0.2165(5) -0.6118(5) -0.1476(3)
C1 C -0.6029(6) -0.1962(8) -0.3407(5)
C2 C -0.6146(7) -0.1742(10) -0.3911(5)
H5 H -0.56680 -0.16790 -0.41190
C3 C -0.6922(8) -0.1619(10) -0.4101(5)
H6 H -0.69830 -0.14560 -0.44370
C4 C -0.7651(7) -0.1732(8) -0.3801(5)
C5 C -0.7568(6) -0.1947(8) -0.3298(4)
H7 H -0.80540 -0.20230 -0.30980
C6 C -0.6750(7) -0.2048(7) -0.3092(4)
C7 C -0.5142(6) -0.2097(7) -0.3193(4)
C8 C -0.6629(7) -0.2252(7) -0.2542(4)
C9 C -0.8536(8) -0.1626(10) -0.4029(5)
O44 O -0.3779(9) -0.0226(6) -0.2510(5)
O45 O -0.1927(7) -0.0214(6) -0.3116(5)
O46 O -0.0438(6) -0.0284(6) -0.3905(5)
O47 O -0.0231(5) -0.1822(7) -0.4622(3)
O48 O -0.6003(6) -0.4570(8) -0.1882(5)
O49 O -0.5640(5) -0.4275(5) 0.6963(3)
O50 O -0.300(2) 0.0326(18) 0.8401(13)
O51 O -0.5553(14) -0.5223(17) 0.6066(9)
O52 O -0.2833(5) -0.1902(5) 0.9599(3)
O53 O -0.3723(10) -0.7665(7) 0.6811(5)
O54 O -0.3939(10) -0.1914(8) 0.5197(6)
C10 C -0.6143(10) -0.0229(10) 0.7553(6)
H8 H -0.67350 -0.02140 0.74500
H9 H -0.60580 0.01600 0.78300
H10 H -0.59950 -0.08020 0.76560
C11 C -0.557(5) 0.004(6) 0.711(2)
H11 H -0.52620 -0.04090 0.69260
C12 C -0.520(3) 0.097(2) 0.7097(17)
H12 H -0.56710 0.13650 0.70230
H13 H -0.47960 0.10100 0.68210
N1 N -0.470(3) 0.132(3) 0.7635(17)
H14 H -0.41960 0.15520 0.75550
H15 H -0.46200 0.08760 0.78420
H16 H -0.50280 0.17120 0.77870
N2 N -0.633(3) 0.044(3) 0.687(2)
H17 H -0.68040 0.01880 0.69850
H18 H -0.62960 0.03630 0.65360
H19 H -0.63400 0.09960 0.69390
Ni4* Ni -1.04160(9) -0.16325(9) -0.38572(6)
Ni5B Ni -0.70523(8) -0.18522(8) -0.14899(5)
Ni6C Ni -0.32810(8) -0.41397(8) -0.42059(5)
W2B W -0.48135(3) -0.14105(3) -0.128850(16)
O6B O -0.7090(4) -0.3139(4) -0.1530(3)
H3B H -0.75170 -0.34000 -0.17560
O7B O -0.5777(5) -0.3538(4) -0.0921(3)
O9C O -0.2003(4) -0.4258(4) -0.4000(3)
O14C O -0.1772(5) -0.2955(5) -0.4743(3)
O15* O 0.0831(5) -0.1621(6) -0.3717(3)
O31C O -0.1505(5) -0.5915(5) -0.4285(3)
#END
