
#######################################################################
#
#                 Cambridge Crystallographic Data Centre
#                                CCDC
#
#######################################################################
#
# If this CIF has been generated from an entry in the Cambridge
# Structural Database, then it will include bibliographic, chemical,
# crystal, experimental, refinement or atomic coordinate data resulting
# from the CCDC's data processing and validation procedures.
#
#######################################################################

data_CSD_CIF_POCBUG
_audit_creation_date 2014-05-22
_audit_creation_method CSD-ConQuest-V1
_database_code_CSD POCBUG
_database_code_depnum_ccdc_archive 'CCDC 1004772'
_chemical_formula_sum 'C14 H16 In2 N6 O19'
_chemical_formula_moiety
;
(H4 N1 1+)2n,n(C14 H2 In2 N4 O16 2-),3n(H2 O1)
;
_journal_coden_Cambridge 9
_journal_volume 53
_journal_year 2014
_journal_page_first 2492
_journal_name_full 'Inorg.Chem. '
loop_
_publ_author_name
"Xiang Zhao"
"Chengyu Mao"
"Xianhui Bu"
"Pingyun Feng"
_chemical_name_systematic
;
catena-[bis(Ammonium) 
bis(\m~2~-4,5-dicarboxylatoimidazolyl)-bis(\m~2~-oxalato)-di-indium 
trihydrate]
;
_cell_volume   9928.429
_exptl_crystal_colour 'colorless'
_exptl_crystal_density_diffrn 2.146
_exptl_crystal_description 'disc'
_diffrn_ambient_temperature 150
_refine_special_details
;
O10 disordered by symmetry over two configurations with occupancy 0.50.

;
#These two values have been output from a single CSD field.
_refine_ls_R_factor_gt 0.0239
_refine_ls_wR_factor_gt 0.0239
_symmetry_cell_setting orthorhombic
_symmetry_space_group_name_H-M 'F d d d'
_symmetry_Int_Tables_number 70
loop_
_symmetry_equiv_pos_site_id
_symmetry_equiv_pos_as_xyz
1 x,y,z
2 3/4-x,3/4-y,z
3 3/4-x,y,3/4-z
4 x,3/4-y,3/4-z
5 x,1/2+y,1/2+z
6 3/4-x,1/4-y,1/2+z
7 3/4-x,1/2+y,1/4-z
8 x,1/4-y,1/4-z
9 1/2+x,y,1/2+z
10 1/4-x,3/4-y,1/2+z
11 1/4-x,y,1/4-z
12 1/2+x,3/4-y,1/4-z
13 1/2+x,1/2+y,z
14 1/4-x,1/4-y,z
15 1/4-x,1/2+y,3/4-z
16 1/2+x,1/4-y,3/4-z
17 -x,-y,-z
18 -3/4+x,-3/4+y,-z
19 -3/4+x,-y,-3/4+z
20 -x,-3/4+y,-3/4+z
21 -x,-1/2-y,-1/2-z
22 -3/4+x,-1/4+y,-1/2-z
23 -3/4+x,-1/2-y,-1/4+z
24 -x,-1/4+y,-1/4+z
25 -1/2-x,-y,-1/2-z
26 -1/4+x,-3/4+y,-1/2-z
27 -1/4+x,-y,-1/4+z
28 -1/2-x,-3/4+y,-1/4+z
29 -1/2-x,-1/2-y,-z
30 -1/4+x,-1/4+y,-z
31 -1/4+x,-1/2-y,-3/4+z
32 -1/2-x,-1/4+y,-3/4+z
_cell_length_a 17.2988(15)
_cell_length_b 18.1190(16)
_cell_length_c 31.676(3)
_cell_angle_alpha 90
_cell_angle_beta 90
_cell_angle_gamma 90
_cell_formula_units_Z 16
loop_
_atom_type_symbol
_atom_type_radius_bond
C 0.68
H 0.23
In 1.42
N 0.68
O 0.68
loop_
_atom_site_label
_atom_site_type_symbol
_atom_site_fract_x
_atom_site_fract_y
_atom_site_fract_z
In1 In 0.12500 0.386358(8) 0.12500
O1 O 0.02440(8) 0.43709(7) 0.08798(4)
O2 O 0.10798(8) 0.33866(7) 0.05431(4)
O3 O 0.06997(8) 0.47640(7) 0.16502(4)
N1 N 0.21388(9) 0.29967(8) 0.11278(5)
C1 C -0.0076(1) 0.49244(8) 0.10335(6)
C2 C 0.14687(10) 0.28266(9) 0.04531(6)
C3 C 0.01668(10) 0.51402(9) 0.14860(6)
C4 C 0.27267(11) 0.26733(9) 0.13352(6)
C5 C 0.20616(10) 0.26069(9) 0.07589(5)
O4 O -0.05645(8) 0.53281(7) 0.08577(4)
O5 O 0.13762(8) 0.24421(8) 0.01181(5)
O6 O -0.01727(8) 0.56836(7) 0.16489(4)
H1 H 0.2923(12) 0.2846(11) 0.1601(6)
N2 N 0.30293(9) 0.21012(8) 0.11214(5)
C6 C 0.26075(10) 0.20563(9) 0.07543(5)
In2 In -0.108544(10) 0.62500 0.12500
C7 C 0.27844(10) 0.14859(9) 0.04402(6)
O7 O 0.33473(8) 0.10731(7) 0.05186(4)
O8 O 0.23592(9) 0.14372(8) 0.01113(5)
O9 O 0.61198(10) 0.23812(9) 0.00217(5)
H2 H 0.6022(19) 0.2709(19) -0.0129(10)
H3 H 0.5983(17) 0.2560(15) 0.0271(9)
N3 N 0.75739(13) 0.36153(12) 0.99793(6)
H4 H 0.793(2) 0.3260(19) 0.9967(8)
H5 H 0.720(2) 0.3644(17) 1.0181(11)
H6 H 0.731(2) 0.3588(18) 0.9743(11)
H7 H 0.781(2) 0.404(2) 0.9985(9)
O10? O 0.9042(4) 0.4050(3) 0.18091(15)
O1G O 0.02440(8) 0.81291(7) 0.16202(4)
O3G O 0.06997(8) 0.77360(7) 0.08498(4)
C1G C -0.0076(1) 0.75756(8) 0.14665(6)
C3G C 0.01668(10) 0.73598(9) 0.10140(6)
O4G O -0.05645(8) 0.71719(7) 0.16423(4)
O6G O -0.01727(8) 0.68164(7) 0.08511(4)
O2J O 0.14202(8) 0.33866(7) 0.19569(4)
N1J N 0.03612(9) 0.29967(8) 0.13722(5)
C2J C 0.10313(10) 0.28266(9) 0.20469(6)
C4J C -0.02267(11) 0.26733(9) 0.11648(6)
C5J C 0.04384(10) 0.26069(9) 0.17411(5)
O5J O 0.11238(8) 0.24421(8) 0.23819(5)
H1J H -0.0423(12) 0.2846(11) 0.0899(6)
N2J N -0.05293(9) 0.21012(8) 0.13786(5)
C6J C -0.01075(10) 0.20563(9) 0.17457(5)
C7J C -0.02844(10) 0.14859(9) 0.20598(6)
O7J O -0.08473(8) 0.10731(7) 0.19814(4)
O8J O 0.01408(9) 0.14372(8) 0.23887(5)
In1G In 0.12500 0.863642(8) 0.12500
O1J O 0.22560(8) 0.43709(7) 0.16202(4)
O3J O 0.18003(8) 0.47640(7) 0.08498(4)
N2K N -0.19707(9) 0.53988(8) 0.13786(5)
N2L N -0.19707(9) 0.71012(8) 0.11214(5)
In2A In -0.141456(10) 0.12500 0.12500
In2K In 0.391456(10) 0.12500 0.12500
O7K O -0.16527(8) 0.64269(7) 0.19814(4)
O7L O -0.16527(8) 0.60731(7) 0.05186(4)
#END
