
#######################################################################
#
#                 Cambridge Crystallographic Data Centre
#                                CCDC
#
#######################################################################
#
# If this CIF has been generated from an entry in the Cambridge
# Structural Database, then it will include bibliographic, chemical,
# crystal, experimental, refinement or atomic coordinate data resulting
# from the CCDC's data processing and validation procedures.
#
#######################################################################

data_CSD_CIF_POCDOD
_audit_creation_date 2019-04-30
_audit_creation_method CSD-ConQuest-V1
_database_code_CSD POCDOD
_database_code_depnum_ccdc_archive 'CCDC 1894911'
_chemical_formula_sum 'C52 H39 N2 Ni0.5 O31 S3 U4'
_chemical_formula_moiety
;
(C42 H24 O28 S3 U4 2-)n,C10 H9 N2 1+,0.5(H12 Ni1 O6 2+)
;
_journal_coden_Cambridge 9
_journal_volume 58
_journal_year 2019
_journal_page_first 6934
_journal_name_full 'Inorg.Chem. '
loop_
_publ_author_name
"Shu-wen An"
"Lei Mei"
"Kong-qiu Hu"
"Fei-ze Li"
"Chuan-qin Xia"
"Zhi-fang Chai"
"Wei-qun Shi"
_chemical_name_systematic
;
catena-[hemikis(hexa-aqua-nickel(ii) 4-(pyridin-4-yl)pyridin-1-ium) 
tris(\m-4,4'-sulfonyldibenzoato)-bis(\m-oxo)-octaoxo-tetra-uranium unknown 
solvate]
;
_cell_volume   6822.370
_exptl_crystal_colour 'green'
_exptl_crystal_description 'plate'
_diffrn_ambient_temperature 294.3
_refine_special_details
;
The structure is disordered. Disordered solvent molecules were not modelled 
and the disordered density was taken into account using the SQUEEZE/PLATON 
procedure.
;
#These two values have been output from a single CSD field.
_refine_ls_R_factor_gt 0.041
_refine_ls_wR_factor_gt 0.041
_symmetry_cell_setting monoclinic
_symmetry_space_group_name_H-M 'P 21/c'
_symmetry_Int_Tables_number 14
loop_
_symmetry_equiv_pos_site_id
_symmetry_equiv_pos_as_xyz
1 x,y,z
2 -x,1/2+y,1/2-z
3 -x,-y,-z
4 x,-1/2-y,-1/2+z
_cell_length_a 12.0104(4)
_cell_length_b 20.1349(6)
_cell_length_c 28.2209(9)
_cell_angle_alpha 90
_cell_angle_beta 91.468(1)
_cell_angle_gamma 90
_cell_formula_units_Z 4
loop_
_atom_type_symbol
_atom_type_radius_bond
C 0.68
H 0.23
N 0.68
Ni 1.24
O 0.68
S 1.02
U 1.96
loop_
_atom_site_label
_atom_site_type_symbol
_atom_site_fract_x
_atom_site_fract_y
_atom_site_fract_z
U1 U 0.46370(3) 0.81404(2) 0.42375(2)
S1 S 0.2465(2) 0.98149(13) 0.14985(10)
O1 O 0.4103(8) 0.7327(4) 0.4202(3)
U2 U 0.41157(3) 0.77883(2) 0.55411(2)
S2 S 0.0662(4) 0.8893(2) 0.8010(2)
O2 O 0.5190(6) 0.8951(4) 0.4255(2)
U3 U 0.65259(3) 0.71310(2) 0.65232(2)
S3 S 0.8712(2) 0.49041(14) 0.90786(10)
O3 O 0.3843(7) 0.6976(3) 0.5323(3)
U4 U 0.70217(3) 0.76362(2) 0.52407(2)
O4 O 0.4272(6) 0.8595(4) 0.5763(3)
O5 O 0.7194(6) 0.7886(4) 0.6657(3)
O6 O 0.5895(6) 0.6354(4) 0.6411(2)
O7 O 0.6730(6) 0.6836(4) 0.5013(3)
O8 O 0.7403(6) 0.8436(4) 0.5451(3)
O9 O 0.5355(5) 0.7965(4) 0.4958(2)
O10 O 0.9205(7) 0.4302(4) 0.8927(3)
O11 O 0.7733(6) 0.4892(4) 0.9366(3)
O12 O 0.5821(5) 0.7510(4) 0.5836(2)
O13 O 0.3138(6) 0.8612(5) 0.3725(3)
C1 C 0.3711(9) 0.8521(6) 0.3357(4)
O14 O 0.4591(6) 0.8193(4) 0.3378(2)
C2 C 0.3358(8) 0.8834(5) 0.2897(4)
O15 O -0.2076(5) 0.8036(4) 0.0928(2)
C3 C 0.2366(8) 0.9201(6) 0.2851(4)
H1 H 0.18960 0.92390 0.31067
O16 O 0.2016(6) 1.0460(4) 0.1578(3)
C4 C 0.2796(8) 0.9434(5) 0.2050(4)
O17 O -0.1013(6) 0.7725(4) 0.0355(3)
C5 C 0.2093(8) 0.9503(6) 0.2429(4)
H2 H 0.14428 0.97511 0.23966
O18 O 0.3437(6) 0.9746(4) 0.1217(3)
C6 C 0.3761(7) 0.9068(5) 0.2085(3)
H3 H 0.42149 0.90168 0.18257
O19 O 0.4856(6) 0.7559(4) 0.6847(2)
C7 C -0.1151(8) 0.8054(5) 0.0725(4)
O20 O 0.3543(6) 0.7441(4) 0.6285(3)
C8 C 0.4040(8) 0.8777(5) 0.2517(3)
H4 H 0.47001 0.85380 0.25500
O21 O 0.1394(11) 0.9186(6) 0.8405(5)
C9 C -0.0253(7) 0.8494(5) 0.0910(3)
O22 O 0.0006(11) 0.9265(7) 0.7708(5)
C10 C -0.0515(8) 0.9041(5) 0.1189(4)
H5 H -0.12513 0.91286 0.12620
O23 O 1.3238(5) 0.6606(4) 0.9812(2)
C11 C 0.0845(8) 0.8359(5) 0.0806(4)
H6 H 0.10169 0.79956 0.06177
O24 O 1.2111(5) 0.6926(4) 1.0363(2)
C12 C 0.1679(7) 0.8764(5) 0.0981(4)
H7 H 0.24180 0.86727 0.09161
O25 O -0.3647(6) 0.7308(4) 0.8950(3)
C13 C 0.1415(7) 0.9306(5) 0.1254(3)
O26 O -0.2335(6) 0.7074(4) 0.9490(3)
C14 C 0.0309(8) 0.9443(5) 0.1354(4)
H8 H 0.01362 0.98138 0.15347
O27 O 0.6559(6) 0.6868(4) 0.7369(2)
C15 C 0.3869(8) 0.7587(6) 0.6705(4)
O28 O 0.7950(6) 0.6470(4) 0.6971(2)
C16 C 0.3011(8) 0.7848(5) 0.7029(4)
C17 C 0.3253(10) 0.7878(5) 0.7511(4)
H9 H 0.39198 0.76998 0.76275
C18 C 0.2535(12) 0.8164(6) 0.7823(5)
H10 H 0.27058 0.81862 0.81461
C19 C 0.1546(14) 0.8418(6) 0.7637(7)
C20 C 0.1263(11) 0.8371(7) 0.7165(7)
H11 H 0.05857 0.85387 0.70526
C21 C 0.1997(10) 0.8069(7) 0.6853(5)
H12 H 0.18035 0.80197 0.65337
C22 C -0.2657(9) 0.7310(5) 0.9104(4)
C23 C -0.1783(9) 0.7629(5) 0.8803(4)
C24 C -0.0757(11) 0.7776(7) 0.9000(5)
H13 H -0.05847 0.76417 0.93089
C25 C 0.0015(13) 0.8117(8) 0.8751(7)
H14 H 0.07129 0.82080 0.88865
C26 C -0.0240(13) 0.8322(6) 0.8308(7)
C27 C -0.1243(13) 0.8156(6) 0.8074(5)
H15 H -0.13792 0.82701 0.77587
C28 C -0.2039(10) 0.7806(6) 0.8337(4)
H16 H -0.27272 0.76967 0.81996
C29 C 0.7416(8) 0.6514(5) 0.7350(3)
C30 C 0.7764(8) 0.6109(5) 0.7774(3)
C31 C 0.7190(8) 0.6179(5) 0.8188(3)
H17 H 0.65906 0.64711 0.81950
C32 C 0.7484(8) 0.5827(5) 0.8593(4)
H18 H 0.71100 0.58908 0.88738
C33 C 0.8356(8) 0.5374(5) 0.8567(3)
C34 C 0.8931(9) 0.5292(6) 0.8150(4)
H19 H 0.95092 0.49853 0.81375
C35 C 0.8646(9) 0.5664(6) 0.7751(4)
H20 H 0.90388 0.56173 0.74735
C36 C 1.2275(7) 0.6590(5) 1.0000(3)
C37 C 1.1386(7) 0.6176(5) 0.9779(3)
C38 C 1.0286(7) 0.6245(5) 0.9906(4)
H21 H 1.01026 0.65572 1.01337
C39 C 0.9464(9) 0.5860(6) 0.9702(4)
H22 H 0.87240 0.59145 0.97836
C40 C 0.9758(8) 0.5395(5) 0.9375(3)
C41 C 1.0851(8) 0.5292(5) 0.9245(4)
H23 H 1.10297 0.49719 0.90215
C42 C 1.1665(8) 0.5685(6) 0.9459(4)
H24 H 1.24083 0.56181 0.93876
C43 C 0.6443(13) 0.9366(8) 0.6493(6)
H25 H 0.71407 0.92662 0.63769
N1 N 0.4591(10) 0.9155(6) 0.8618(5)
H26 H 0.44953 0.91115 0.89171
C44 C 0.6249(10) 0.9273(6) 0.6969(5)
H27 H 0.68119 0.91141 0.71708
N2 N 0.5653(11) 0.9595(5) 0.6198(4)
C45 C 0.5218(12) 0.9417(6) 0.7140(5)
C46 C 0.4410(12) 0.9615(7) 0.6812(5)
H28 H 0.36873 0.96751 0.69139
C47 C 0.4616(14) 0.9723(7) 0.6357(6)
H29 H 0.40602 0.98841 0.61523
C48 C 0.5263(12) 0.8772(8) 0.8383(5)
H30 H 0.56076 0.84285 0.85514
C49 C 0.4963(9) 0.9326(5) 0.7637(4)
C50 C 0.5510(11) 0.8827(7) 0.7907(5)
H31 H 0.60216 0.85444 0.77697
C51 C 0.4229(11) 0.9721(7) 0.7884(5)
H32 H 0.38536 1.00554 0.77183
C52 C 0.4031(12) 0.9651(7) 0.8341(6)
H33 H 0.35194 0.99293 0.84827
Ni1 Ni 0.50000 0.50000 0.50000
O29 O 0.5111(17) 0.5609(7) 0.5592(4)
O30 O 0.4910(19) 0.5844(7) 0.4571(4)
O31 O 0.3090(13) 0.4964(10) 0.5017(7)
Ni2? Ni 0.4268(8) 0.5055(5) 0.4821(5)
U1C U -0.53630(3) 0.68596(2) 0.92375(2)
U1C* U 1.46370(3) 0.68596(2) 0.92375(2)
U2C U 1.41157(3) 0.72117(2) 1.05411(2)
U3C U -0.34741(3) 0.78690(2) 0.15232(2)
U4C U -0.29783(3) 0.73638(2) 0.02407(2)
U4C* U -0.29783(3) 0.73638(2) 1.02407(2)
O15C O 0.7924(5) 0.6964(4) 0.5928(2)
O17C O 0.8987(6) 0.7275(4) 0.5355(3)
O23C O 0.3238(5) 0.8394(4) 0.4812(2)
O24C O 0.2111(5) 0.8074(4) 0.5363(2)
O25C O 0.6353(6) 0.7692(4) 0.3950(3)
O26C O 0.7665(6) 0.7926(4) 0.4490(3)
O29B O 0.4889(17) 0.4391(7) 0.4408(4)
O30B O 0.5090(19) 0.4156(7) 0.5429(4)
O31B O 0.6910(13) 0.5036(10) 0.4983(7)
#END
