
#######################################################################
#
#                 Cambridge Crystallographic Data Centre
#                                CCDC
#
#######################################################################
#
# If this CIF has been generated from an entry in the Cambridge
# Structural Database, then it will include bibliographic, chemical,
# crystal, experimental, refinement or atomic coordinate data resulting
# from the CCDC's data processing and validation procedures.
#
#######################################################################

data_CSD_CIF_POCDIX
_audit_creation_date 2019-04-30
_audit_creation_method CSD-ConQuest-V1
_database_code_CSD POCDIX
_database_code_depnum_ccdc_archive 'CCDC 1894910'
_chemical_formula_sum 'C52 H34 N2 O28 S3 U4'
_chemical_formula_moiety
;
(C42 H24 O28 S3 U4 2-)n,C10 H10 N2 2+
;
_journal_coden_Cambridge 9
_journal_volume 58
_journal_year 2019
_journal_page_first 6934
_journal_name_full 'Inorg.Chem. '
loop_
_publ_author_name
"Shu-wen An"
"Lei Mei"
"Kong-qiu Hu"
"Fei-ze Li"
"Chuan-qin Xia"
"Zhi-fang Chai"
"Wei-qun Shi"
_chemical_name_systematic
;
catena-[4,4'-bipyridin-1-ium 
tris(\m-4,4'-sulfonyldibenzoato)-octaoxo-tetra-uranium unknown solvate]
;
_cell_volume   3347.838
_exptl_crystal_colour 'yellow'
_exptl_crystal_density_diffrn 2.166
_exptl_crystal_description 'block'
_diffrn_ambient_temperature 170
_refine_special_details
;
Disordered solvent molecules were not modelled and the disordered density was 
taken into account using the SQUEEZE/PLATON procedure.
;
#These two values have been output from a single CSD field.
_refine_ls_R_factor_gt 0.0279
_refine_ls_wR_factor_gt 0.0279
_symmetry_cell_setting triclinic
_symmetry_space_group_name_H-M 'P -1'
_symmetry_Int_Tables_number 2
loop_
_symmetry_equiv_pos_site_id
_symmetry_equiv_pos_as_xyz
1 x,y,z
2 -x,-y,-z
_cell_length_a 10.2086(2)
_cell_length_b 12.0001(2)
_cell_length_c 28.0552(5)
_cell_angle_alpha 92.453(1)
_cell_angle_beta 100.048(1)
_cell_angle_gamma 97.476(1)
_cell_formula_units_Z 2
loop_
_atom_type_symbol
_atom_type_radius_bond
C 0.68
H 0.23
N 0.68
O 0.68
S 1.02
U 1.96
loop_
_atom_site_label
_atom_site_type_symbol
_atom_site_fract_x
_atom_site_fract_y
_atom_site_fract_z
U1 U 0.38124(2) 0.57313(2) 0.10670(2)
U2 U 0.49243(2) 0.64703(2) -0.01235(2)
U3 U 0.38741(2) 1.38475(2) 0.37897(2)
U4 U 0.48464(3) 1.35397(2) 0.51533(2)
O1 O -0.1477(5) 1.0516(4) 0.09028(17)
O2 O 0.5360(5) 0.6583(4) 0.13129(18)
O3 O -0.0246(5) 1.2151(4) 0.05703(16)
O4 O 0.4698(5) 0.4124(4) 0.14159(16)
O5 O 0.6438(6) 1.3337(5) 0.50094(18)
O6 O -0.1356(5) 0.7828(4) 0.33243(19)
O7 O 0.4285(5) 0.8378(4) 0.00077(17)
C1 C 0.4719(7) 0.3156(5) 0.1234(2)
C2 C 0.5921(7) -0.2033(7) 0.2591(3)
H1 H 0.60060 -0.22440 0.22690
O8 O -0.0034(5) 0.6552(4) 0.38226(17)
C3 C 0.0699(6) 0.7166(5) 0.3021(2)
C4 C 0.5180(7) -0.2483(5) 0.3339(2)
C5 C 0.3515(7) 0.8117(5) 0.0299(2)
O9 O 0.5463(6) 1.3402(4) 0.37953(18)
C6 C 0.2865(7) 0.9423(5) 0.4426(2)
H2 H 0.35890 0.93320 0.46780
C7 C 0.0583(8) 0.7837(6) 0.2631(2)
H3 H 0.00590 0.84370 0.26200
C8 C 0.2578(7) 0.8886(5) 0.0430(2)
C9 C 0.1971(7) 0.6700(5) 0.2265(2)
C10 C 0.2637(6) 1.0495(5) 0.4294(2)
C11 C 0.5291(6) 0.2309(6) 0.1558(2)
C12 C 0.1591(7) 1.0650(6) 0.3926(2)
H4 H 0.14590 1.13880 0.38360
C13 C 0.0978(6) 0.8655(5) 0.3827(2)
C14 C 0.1154(7) 1.1379(6) 0.2300(2)
H5 H 0.10350 1.09480 0.25700
C15 C 0.2259(6) 1.2993(5) 0.1973(2)
H6 H 0.28750 1.36710 0.20200
C16 C 0.5659(8) 0.1362(7) 0.1349(3)
H7 H 0.54940 0.12330 0.10060
C17 C 0.2711(7) 0.9977(5) 0.0303(3)
H8 H 0.34000 1.02430 0.01310
C18 C 0.5524(7) 0.2518(6) 0.2063(3)
H9 H 0.52600 0.31660 0.22050
C19 C 0.1845(7) 1.0700(6) 0.0425(2)
H10 H 0.19500 1.14640 0.03440
C20 C 0.6153(7) 0.1753(7) 0.2351(3)
H11 H 0.63290 0.18760 0.26950
C21 C 0.0642(6) 1.1656(5) 0.1454(2)
C22 C 0.6516(8) 0.0820(7) 0.2134(3)
C23 C 0.5334(7) -0.2798(6) 0.2874(2)
H12 H 0.50320 -0.35520 0.27470
C24 C 0.1414(6) 0.6268(5) 0.3044(2)
H13 H 0.14760 0.58230 0.33180
C25 C 0.2033(6) 0.8495(5) 0.4189(2)
H14 H 0.21820 0.77560 0.42730
C26 C 0.0827(7) 1.0290(5) 0.0665(2)
O10 O 0.3505(5) 0.7151(4) 0.04844(16)
O11 O 0.4499(5) 0.5164(4) 0.04074(15)
O12 O 0.4497(5) 1.4685(4) 0.45343(14)
S1 S -0.02350(16) 1.11842(14) 0.08628(5)
S2 S -0.00921(16) 0.74774(13) 0.35144(6)
S3 S 0.7471(2) -0.0070(2) 0.24973(11)
O13 O 0.3333(5) 0.6121(4) -0.05005(18)
O14 O 0.3360(5) 0.5623(4) 0.18907(15)
O15 O 0.2556(6) 0.6982(4) 0.14845(16)
O16 O 0.4261(5) 0.2838(4) 0.07976(15)
O17 O 0.6526(5) 0.6949(4) 0.02330(17)
O18 O 0.2718(6) 1.2227(4) 0.32244(16)
O19 O 0.2213(5) 0.4920(4) 0.08507(15)
O20 O 0.3552(5) 1.3737(4) 0.29060(15)
O21 O 0.2246(5) 1.4236(4) 0.37580(16)
O22 O 0.4680(5) -0.4367(4) 0.35321(16)
C27 C 0.2043(6) 0.6028(5) 0.2658(2)
H15 H 0.25250 0.54010 0.26630
C28 C 0.0618(8) 0.9163(6) 0.0771(2)
H16 H -0.01230 0.88780 0.09140
C29 C 0.2666(7) 0.6431(5) 0.1860(2)
C30 C 0.0744(7) 0.9723(5) 0.3691(2)
H17 H 0.00140 0.98120 0.34410
C31 C 0.1549(6) 1.2630(5) 0.1512(2)
H18 H 0.16870 1.30470 0.12400
C32 C 0.2066(6) 1.2363(5) 0.2365(2)
C33 C 0.1515(8) 0.8477(6) 0.0662(3)
H19 H 0.14170 0.77140 0.07440
O23 O 0.8036(6) -0.0783(7) 0.2180(3)
O24 O 0.4153(5) 1.1445(4) 0.49807(15)
O25 O 0.4411(5) -0.3013(4) 0.40610(15)
O26 O 0.3244(6) 1.3592(4) 0.53129(18)
O27 O 0.3522(5) 1.2458(4) 0.43663(15)
C34 C 0.3500(7) 1.1499(5) 0.4563(2)
C35 C 0.1258(8) 0.7605(6) 0.2255(2)
H20 H 0.12280 0.80730 0.19890
C36 C 0.0420(7) 1.1028(6) 0.1845(2)
H21 H -0.02260 1.03690 0.18000
O28 O 0.8347(7) 0.0644(7) 0.2869(3)
C37 C 0.2832(7) 1.2781(5) 0.2860(2)
C38 C 0.4709(7) -0.3362(5) 0.3668(2)
C39 C 0.6196(9) -0.0606(7) 0.3246(3)
H22 H 0.64960 0.01490 0.33720
C40 C 0.6271(8) 0.0598(7) 0.1642(3)
H23 H 0.65120 -0.00640 0.15020
C41 C 0.5561(8) -0.1377(6) 0.3517(3)
H24 H 0.53900 -0.11410 0.38250
C42 C 0.6380(7) -0.0953(7) 0.2794(3)
C43 C 0.8560(9) 1.5070(9) 0.1846(4)
C44 C 0.8409(8) 1.4636(8) 0.2326(4)
C45 C 0.820(1) 1.6058(9) 0.1723(4)
H25 H 0.78680 1.65110 0.19480
N1 N 0.8829(8) 1.5798(10) 0.0953(4)
H26 H 0.89340 1.60280 0.06670
C46 C 0.9226(10) 1.3907(9) 0.2537(5)
H27 H 0.98650 1.36330 0.23700
C47 C 0.9019(11) 1.4389(11) 0.1515(4)
H28 H 0.92060 1.36540 0.15880
C48 C 0.9112(12) 1.3564(10) 0.3005(5)
H29 H 0.96580 1.30310 0.31400
N2 N 0.8262(9) 1.3959(8) 0.3270(4)
H30 H 0.82200 1.37340 0.35620
C49 C 0.7556(11) 1.5067(9) 0.2600(5)
H31 H 0.70120 1.56080 0.24730
C50 C 0.7502(13) 1.4688(11) 0.3079(5)
H32 H 0.69010 1.49730 0.32610
C51 C 0.8311(12) 1.6454(12) 0.1246(5)
H33 H 0.80280 1.71460 0.11490
C52 C 0.9195(12) 1.4809(14) 0.1076(5)
H34 H 0.95840 1.43840 0.08580
U2A U 0.50757(2) 0.35297(2) 0.01235(2)
U3* U 0.38741(2) -0.61525(2) 0.37897(2)
U4A U 0.51536(3) -0.35397(2) 0.48467(2)
U4A* U 0.51536(3) 1.64603(2) 0.48467(2)
O11A O 0.5501(5) 0.4836(4) -0.04074(15)
O12A O 0.5503(5) 1.5315(4) 0.54657(14)
O16A O 0.5739(5) 0.7162(4) -0.07976(15)
O22* O 0.4680(5) 1.5633(4) 0.35321(16)
O25A O 0.5589(5) 1.3013(4) 0.59390(15)
#END
