
#######################################################################
#
#                 Cambridge Crystallographic Data Centre
#                                CCDC
#
#######################################################################
#
# If this CIF has been generated from an entry in the Cambridge
# Structural Database, then it will include bibliographic, chemical,
# crystal, experimental, refinement or atomic coordinate data resulting
# from the CCDC's data processing and validation procedures.
#
#######################################################################

data_CSD_CIF_POHSIP
_audit_creation_date 2009-03-09
_audit_creation_method CSD-ConQuest-V1
_database_code_CSD POHSIP
_database_code_depnum_ccdc_archive 'CCDC 236407'
_chemical_formula_sum 'C62 H97 Br4 Cu6 Mo2 N8 O2.5 S6'
_chemical_formula_moiety
;
(C16 H36 N1 1+)2n,n(C30 H24 Br4 Cu6 Mo2 N6 O2 S6 2-),0.5n(H2 O1)
;
_journal_coden_Cambridge 702
_journal_volume 24
_journal_year 2008
_journal_page_first 1543
_journal_name_full 'Wuji Huaxue Xuebao(Chin.)(Chin.J.Inorg.Chem.) '
loop_
_publ_author_name
"Kai Liang"
"Ya-Li Ji"
"Chun-Ying Xian"
"Yi-Zhi Li"
"He-Gen Zheng"
_chemical_name_systematic
;
catena-(bis(Tetra-n-butylammonium) 
hexakis(\m~3~-sulfido)-tris(\m~2~-4,4'-bipyridine-N,N')-tetrabromo-dioxo-hexa-
copper-di-molybdenum hemihydrate)
;
_cell_volume   2005.125
_exptl_crystal_colour 'black'
_exptl_crystal_density_diffrn 1.722
_exptl_crystal_description 'block'
_diffrn_ambient_temperature 293
#These two values have been output from a single CSD field.
_refine_ls_R_factor_gt 0.0407
_refine_ls_wR_factor_gt 0.0407
_symmetry_cell_setting triclinic
_symmetry_space_group_name_H-M 'P -1'
_symmetry_Int_Tables_number 2
loop_
_symmetry_equiv_pos_site_id
_symmetry_equiv_pos_as_xyz
1 x,y,z
2 -x,-y,-z
_cell_length_a 9.824(1)
_cell_length_b 12.937(1)
_cell_length_c 17.374(2)
_cell_angle_alpha 97.81(1)
_cell_angle_beta 101.39(1)
_cell_angle_gamma 108.52(1)
_cell_formula_units_Z 1
loop_
_atom_type_symbol
_atom_type_radius_bond
C 0.68
H 0.23
Br 1.21
Cu 1.38
Mo 1.41
N 0.68
O 0.68
S 1.02
loop_
_atom_site_label
_atom_site_type_symbol
_atom_site_fract_x
_atom_site_fract_y
_atom_site_fract_z
Mo1 Mo 0.25887(5) 0.22028(4) 0.19622(3)
Cu1 Cu 0.03335(7) 0.26534(6) 0.23443(4)
Cu2 Cu 0.41780(8) 0.43376(6) 0.21827(4)
Cu3 Cu 0.37507(7) 0.23458(6) 0.35271(4)
O1 O 0.2366(4) 0.1188(3) 0.1160(2)
S1 S 0.13176(15) 0.14230(12) 0.28067(8)
S2 S 0.17501(17) 0.35520(14) 0.15799(9)
S3 S 0.49939(15) 0.30492(13) 0.26422(9)
Br1 Br 0.5723(1) 0.60785(7) 0.22898(5)
Br2 Br 0.49648(8) 0.14059(7) 0.43405(5)
N1 N -0.1680(4) 0.1696(4) 0.1467(2)
N2 N -0.3421(5) 0.6469(4) 0.5625(3)
N3 N -0.0432(5) 0.3499(4) 0.3107(3)
N4 N 0.2067(6) 0.7968(4) 0.1939(3)
C1 C -0.1683(6) 0.0974(5) 0.0837(3)
H1 H -0.07840 0.09140 0.07870
C2 C -0.2949(6) 0.0318(5) 0.0264(3)
H2 H -0.28840 -0.01680 -0.01620
C3 C -0.4317(5) 0.0359(4) 0.0300(3)
C4 C -0.4296(6) 0.1104(5) 0.0940(3)
H3 H -0.51820 0.11770 0.10020
C5 C -0.2979(6) 0.1758(5) 0.1500(3)
H4 H -0.30160 0.22670 0.19210
C6 C -0.3052(7) 0.6786(6) 0.4985(4)
H5 H -0.31550 0.74440 0.48730
C7 C -0.2523(7) 0.6204(6) 0.4474(4)
H6 H -0.22780 0.64750 0.40310
C8 C -0.2355(6) 0.5241(5) 0.4606(3)
C9 C -0.2747(6) 0.4919(5) 0.5237(3)
H7 H -0.26590 0.42600 0.53560
C10 C -0.3289(6) 0.5533(5) 0.5732(3)
H8 H -0.35730 0.52560 0.61650
C11 C -0.1699(6) 0.4627(5) 0.4079(3)
C12 C -0.1591(7) 0.3616(5) 0.4178(3)
H9 H -0.19500 0.32760 0.45720
C13 C -0.1213(7) 0.5031(5) 0.3452(4)
H10 H -0.13120 0.56890 0.33380
C14 C -0.0577(7) 0.4458(5) 0.2992(4)
H11 H -0.02320 0.47580 0.25810
C15 C -0.0932(6) 0.3112(5) 0.3674(3)
H12 H -0.08500 0.24370 0.37580
C16 C 0.0950(7) 0.8390(5) 0.1473(4)
H13 H 0.09520 0.90490 0.18150
H14 H 0.12910 0.86200 0.10150
C17 C -0.0615(7) 0.7593(6) 0.1174(4)
H15 H -0.09610 0.73410 0.16250
H16 H -0.06400 0.69460 0.08090
C18 C -0.1656(8) 0.8097(6) 0.0746(4)
H17 H -0.16150 0.87480 0.11130
H18 H -0.12960 0.83510 0.02980
C19 C -0.3230(8) 0.7348(6) 0.0434(4)
H19 H -0.32770 0.65960 0.02700
H20 H -0.36920 0.75790 -0.00180
H21 H -0.37410 0.73850 0.08490
C20 C 0.1674(7) 0.7692(5) 0.2695(4)
H22 H 0.24150 0.74320 0.29750
H23 H 0.07300 0.70760 0.25460
C21 C 0.1555(7) 0.8623(5) 0.3276(4)
H24 H 0.24870 0.92500 0.34300
H25 H 0.07850 0.88720 0.30140
C22 C 0.1204(8) 0.8250(6) 0.3995(4)
H26 H 0.19810 0.80020 0.42490
H27 H 0.02840 0.76110 0.38310
C23 C 0.1045(9) 0.9122(6) 0.4609(4)
H28 H 0.20090 0.96540 0.48890
H29 H 0.05710 0.87680 0.49860
H30 H 0.04530 0.94960 0.43420
C24 C 0.2111(7) 0.6923(5) 0.1444(4)
H31 H 0.28570 0.67050 0.17640
H32 H 0.11610 0.63350 0.13680
C25 C 0.2418(8) 0.6946(5) 0.0637(4)
H33 H 0.16650 0.71390 0.02980
H34 H 0.33720 0.75220 0.06970
C26 C 0.2433(8) 0.5874(5) 0.0242(4)
H35 H 0.15370 0.52880 0.02570
H36 H 0.32710 0.57360 0.05490
C27 C 0.2527(8) 0.5792(6) -0.0610(4)
H37 H 0.17880 0.60290 -0.09060
H38 H 0.23580 0.50320 -0.08470
H39 H 0.34950 0.62610 -0.06260
C28 C 0.3581(7) 0.8933(5) 0.2130(4)
H40 H 0.38230 0.90660 0.16290
H41 H 0.34910 0.96060 0.24000
C29 C 0.4823(7) 0.8713(6) 0.2643(5)
H42 H 0.48160 0.79780 0.24300
H43 H 0.47020 0.87360 0.31850
C30 C 0.6321(8) 0.9617(6) 0.2655(5)
H44 H 0.64160 0.96190 0.21100
H45 H 0.63450 1.03480 0.28920
C31 C 0.7550(8) 0.9378(6) 0.3123(5)
H46 H 0.75050 0.94480 0.36740
H47 H 0.84750 0.98980 0.30920
H48 H 0.74780 0.86320 0.29110
O2 O 0.3941(15) 0.6916(11) 0.3731(8)
H49 H 0.35600 0.63370 0.33530
H50 H 0.43760 0.67590 0.41480
Mo1A Mo -1.25887(5) -0.22028(4) -0.19622(3)
Mo1A* Mo -0.25887(5) 0.77972(4) 0.80378(3)
Cu1A Cu -1.03335(7) -0.26534(6) -0.23443(4)
Cu1A* Cu -0.03335(7) 0.73466(6) 0.76557(4)
Cu2A Cu -1.41780(8) -0.43376(6) -0.21827(4)
Cu2A* Cu -0.41780(8) 0.56624(6) 0.78173(4)
Cu3A Cu -0.37507(7) 0.76542(6) 0.64729(4)
Cu3A* Cu -1.37507(7) -0.23458(6) -0.35271(4)
O1A O -1.2366(4) -0.1188(3) -0.1160(2)
S1A S -1.13176(15) -0.14230(12) -0.28067(8)
S1A* S -0.13176(15) 0.85770(12) 0.71933(8)
S2A S -1.17501(17) -0.35520(14) -0.15799(9)
S3A S -0.49939(15) 0.69508(13) 0.73578(9)
S3A* S -1.49939(15) -0.30492(13) -0.26422(9)
Br1A Br -1.5723(1) -0.60785(7) -0.22898(5)
Br2A Br -0.49648(8) 0.85941(7) 0.56595(5)
N1A N -0.8320(4) -0.1696(4) -0.1467(2)
N2A N 0.3421(5) 0.3531(4) 0.4375(3)
N3A N 0.0432(5) 0.6501(4) 0.6893(3)
N3A* N -0.9568(5) -0.3499(4) -0.3107(3)
C1A C -0.8317(6) -0.0974(5) -0.0837(3)
H1A H -0.92160 -0.09140 -0.07870
C2A C -0.7051(6) -0.0318(5) -0.0264(3)
H2A H -0.71160 0.01680 0.01620
C3A C -0.5683(5) -0.0359(4) -0.0300(3)
C4A C -0.5704(6) -0.1104(5) -0.0940(3)
H3A H -0.48180 -0.11770 -0.10020
C5A C -0.7021(6) -0.1758(5) -0.1500(3)
H4A H -0.69840 -0.22670 -0.19210
C6A C 0.3052(7) 0.3214(6) 0.5015(4)
H5A H 0.31550 0.25560 0.51270
C7A C 0.2523(7) 0.3796(6) 0.5526(4)
H6A H 0.22780 0.35250 0.59690
C8A C 0.2355(6) 0.4759(5) 0.5394(3)
C9A C 0.2747(6) 0.5081(5) 0.4763(3)
H7A H 0.26590 0.57400 0.46440
C10A C 0.3289(6) 0.4467(5) 0.4268(3)
H8A H 0.35730 0.47440 0.38350
C11A C 0.1699(6) 0.5373(5) 0.5921(3)
C12A C 0.1591(7) 0.6384(5) 0.5822(3)
H9A H 0.19500 0.67240 0.54280
C13A C 0.1213(7) 0.4969(5) 0.6548(4)
H10A H 0.13120 0.43110 0.66620
C14A C 0.0577(7) 0.5542(5) 0.7008(4)
H11A H 0.02320 0.52420 0.74190
C15A C 0.0932(6) 0.6888(5) 0.6326(3)
H12A H 0.08500 0.75630 0.62420
#END
