
#######################################################################
#
#                 Cambridge Crystallographic Data Centre
#                                CCDC
#
#######################################################################
#
# If this CIF has been generated from an entry in the Cambridge
# Structural Database, then it will include bibliographic, chemical,
# crystal, experimental, refinement or atomic coordinate data resulting
# from the CCDC's data processing and validation procedures.
#
#######################################################################

data_CSD_CIF_POJLIK
_audit_creation_date 2009-03-09
_audit_creation_method CSD-ConQuest-V1
_database_code_CSD POJLIK
_database_code_depnum_ccdc_archive 'CCDC 651942'
_chemical_formula_sum 'C48 H42 Cu13 N24 O36'
_chemical_formula_moiety
;
(H12 Cu1 O6 2+)n,n(C48 H30 Cu12 N24 O30 2-)
;
_journal_coden_Cambridge 1220
_journal_volume 14
_journal_year 2008
_journal_page_first 7127
_journal_name_full 'Chem.-Eur.J. '
loop_
_publ_author_name
"Yong-Fei Zeng"
"Xin Hu"
"Jiong-Peng Zhao"
"Bo-Wen Hu"
"E.C.Sanudo"
"Fu-Chen Li"
"Xian-He Bu"
_chemical_name_systematic
;
catena-(Hexaaqua-copper(ii) 
hexakis(\m~3~-phthalato)-hexakis(\m~3~-hydroxo)-bis(\m~3~-azido)-hexakis(\m~2~
-azido)-dodeca-copper(ii))
;
_cell_volume   1987.350
_exptl_crystal_colour 'green'
_exptl_crystal_density_diffrn 1.969
_exptl_special_details
;
antiferromagnetic

;
_exptl_crystal_description 'hexagonal'
_diffrn_ambient_temperature 294
#These two values have been output from a single CSD field.
_refine_ls_R_factor_gt 0.0372
_refine_ls_wR_factor_gt 0.0372
_symmetry_cell_setting hexagonal
_symmetry_space_group_name_H-M 'P -3'
_symmetry_Int_Tables_number 147
loop_
_symmetry_equiv_pos_site_id
_symmetry_equiv_pos_as_xyz
1 x,y,z
2 -y,x-y,z
3 -x+y,-x,z
4 -x,-y,-z
5 y,-x+y,-z
6 x-y,x,-z
_cell_length_a 13.8310(12)
_cell_length_b 13.8310(12)
_cell_length_c 11.996(2)
_cell_angle_alpha 90
_cell_angle_beta 90
_cell_angle_gamma 120
_cell_formula_units_Z 1
loop_
_atom_type_symbol
_atom_type_radius_bond
C 0.68
H 0.23
Cu 1.30
N 0.68
O 0.68
loop_
_atom_site_label
_atom_site_type_symbol
_atom_site_fract_x
_atom_site_fract_y
_atom_site_fract_z
Cu1 Cu 0.29974(6) -0.19356(6) 0.06386(6)
Cu2 Cu 0.42321(6) 0.01566(6) -0.07794(7)
Cu3 Cu 0.00000 0.00000 0.00000
O1 O 0.3046(4) -0.0856(3) -0.1760(4)
O2 O 0.2394(4) -0.2510(3) -0.0901(4)
O3 O 0.4437(3) -0.1043(3) -0.0128(3)
H1 H 0.45610 -0.14750 -0.07010
N1 N 0.1464(4) -0.2681(4) 0.1298(5)
N2 N 0.1310(5) -0.2217(5) 0.2090(5)
N3 N 0.1179(6) -0.1780(7) 0.2827(7)
N4 N 0.33330 -0.33330 0.1152(8)
N5 N 0.33330 -0.33330 0.2173(8)
N6 N 0.33330 -0.33330 0.3113(9)
C1 C 0.2460(5) -0.1906(5) -0.1729(5)
O4 O -0.0740(7) -0.1432(7) 0.1018(8)
O5 O -0.0914(3) -0.4609(3) -0.1922(4)
O6 O 0.0127(4) -0.3006(4) -0.1038(4)
C2 C 0.0722(5) -0.3286(5) -0.2850(5)
C3 C 0.0273(6) -0.3761(6) -0.3880(6)
H2 H -0.04830 -0.42870 -0.39380
C4 C 0.0942(7) -0.3457(6) -0.4816(6)
H3 H 0.06310 -0.37930 -0.54950
C5 C 0.2055(7) -0.2673(7) -0.4769(6)
H4 H 0.24950 -0.24710 -0.54080
C6 C 0.2512(6) -0.2185(6) -0.3745(6)
H5 H 0.32670 -0.16540 -0.37010
C7 C 0.1861(5) -0.2477(5) -0.2788(5)
C8 C -0.0062(5) -0.3630(5) -0.1861(5)
Cu1E Cu 0.49330(6) 0.29974(6) -0.06386(6)
Cu1B Cu 0.50670(6) -0.29974(6) 0.06386(6)
Cu1A Cu 0.19356(6) -0.50670(6) 0.06386(6)
Cu1D Cu -0.19356(6) -0.49330(6) -0.06386(6)
Cu1A* Cu 0.19356(6) 0.49330(6) 0.06386(6)
Cu1C Cu 0.70026(6) 0.19356(6) -0.06386(6)
Cu1D* Cu 0.80644(6) 0.50670(6) -0.06386(6)
Cu1D** Cu 0.80644(6) -0.49330(6) -0.06386(6)
Cu1E* Cu 0.49330(6) -0.70026(6) -0.06386(6)
Cu2E Cu 0.40755(6) 0.42321(6) 0.07794(7)
Cu2C Cu 0.57679(6) -0.01566(6) 0.07794(7)
Cu2D Cu 0.01566(6) -0.40755(6) 0.07794(7)
Cu2A Cu -0.01566(6) 0.40755(6) -0.07794(7)
Cu2B Cu 0.59245(6) -0.42321(6) -0.07794(7)
Cu2B* Cu 0.59245(6) 0.57679(6) -0.07794(7)
Cu2E* Cu 0.40755(6) -0.57679(6) 0.07794(7)
Cu2D* Cu 1.01566(6) -0.40755(6) 0.07794(7)
Cu2A* Cu -0.01566(6) -0.59245(6) -0.07794(7)
Cu2B** Cu -0.40755(6) -0.42321(6) -0.07794(7)
O1E O 0.3902(4) 0.3046(3) 0.1760(4)
O1A O 0.0856(4) 0.3902(3) -0.1760(4)
O1B O 0.6098(4) -0.3046(3) -0.1760(4)
O1D O 0.9144(4) -0.3902(3) 0.1760(4)
O1A* O 0.0856(4) -0.6098(3) -0.1760(4)
O1C O 0.6954(4) 0.0856(3) 0.1760(4)
O1D* O -0.0856(4) -0.3902(3) 0.1760(4)
O2E O 0.4904(4) 0.2394(3) 0.0901(4)
O2A O 0.2510(4) 0.4904(3) -0.0901(4)
O2B O 0.5096(4) -0.2394(3) -0.0901(4)
O2D O 0.7490(4) -0.4904(3) 0.0901(4)
O2A* O 0.2510(4) -0.5096(3) -0.0901(4)
O2D* O -0.2510(4) -0.4904(3) 0.0901(4)
O3C O 0.5563(3) 0.1043(3) 0.0128(3)
O3E O 0.5480(3) 0.4437(3) 0.0128(3)
O3B O 0.4520(3) -0.4437(3) -0.0128(3)
O3A O 0.1043(3) -0.4520(3) -0.0128(3)
O3D O -0.1043(3) -0.5480(3) 0.0128(3)
O3B* O 0.4520(3) 0.5563(3) -0.0128(3)
O3A* O 0.1043(3) 0.5480(3) -0.0128(3)
O3D* O -0.1043(3) 0.4520(3) 0.0128(3)
O3E* O 0.5480(3) -0.5563(3) 0.0128(3)
H1C H 0.54390 0.14750 0.07010
H1E H 0.60360 0.45610 0.07010
H1B H 0.39640 -0.45610 -0.07010
H1A H 0.14750 -0.39640 -0.07010
H1D H -0.14750 -0.60360 0.07010
H1B* H 0.39640 0.54390 -0.07010
H1A* H 0.14750 0.60360 -0.07010
H1D* H -0.14750 0.39640 0.07010
H1E* H 0.60360 -0.54390 0.07010
N1E N 0.4145(4) 0.1464(4) -0.1298(5)
N1B N 0.5855(4) -0.1464(4) 0.1298(5)
N1A N 0.2681(4) -0.5855(4) 0.1298(5)
N1D N -0.2681(4) -0.4145(4) -0.1298(5)
N1A* N 0.2681(4) 0.4145(4) 0.1298(5)
N1C N -0.1464(4) 0.2681(4) -0.1298(5)
N1D* N 0.7319(4) -0.4145(4) -0.1298(5)
N2E N 0.3527(5) 0.1310(5) -0.2090(5)
N2B N 0.6473(5) -0.1310(5) 0.2090(5)
N2A N 0.2217(5) -0.6473(5) 0.2090(5)
N2D N -0.2217(5) -0.3527(5) -0.2090(5)
N2A* N 0.2217(5) 0.3527(5) 0.2090(5)
N3E N 0.2959(6) 0.1179(7) -0.2827(7)
N3B N 0.7041(6) -0.1179(7) 0.2827(7)
N3A N 0.1780(6) -0.7041(7) 0.2827(7)
N3D N -0.1780(6) -0.2959(7) -0.2827(7)
N3A* N 0.1780(6) 0.2959(7) 0.2827(7)
N4E N 0.66660 0.33330 -0.1152(8)
N4C N -0.33330 -0.66670 -0.1152(8)
N4* N 0.33330 0.66670 0.1152(8)
N5E N 0.66660 0.33330 -0.2173(8)
N6E N 0.66660 0.33330 -0.3113(9)
C1E C 0.4366(5) 0.2460(5) 0.1729(5)
C1A C 0.1906(5) 0.4366(5) -0.1729(5)
C1B C 0.5634(5) -0.2460(5) -0.1729(5)
C1D C 0.8094(5) -0.4366(5) 0.1729(5)
C1A* C 0.1906(5) -0.5634(5) -0.1729(5)
O4A O 0.1432(7) 0.0692(7) 0.1018(8)
O4B O -0.0692(7) 0.0740(7) 0.1018(8)
O4C O 0.0740(7) 0.1432(7) -0.1018(8)
O4D O -0.1432(7) -0.0692(7) -0.1018(8)
O4E O 0.0692(7) -0.0740(7) -0.1018(8)
O5E O 0.3695(3) -0.0914(3) 0.1922(4)
O5A O 0.4609(3) 0.3695(3) -0.1922(4)
O5B O 0.6305(3) 0.0914(3) -0.1922(4)
O5D O 0.5391(3) -0.3695(3) 0.1922(4)
O5A* O 0.4609(3) -0.6305(3) -0.1922(4)
O5C O 0.0914(3) -0.5391(3) 0.1922(4)
O5C* O 0.0914(3) 0.4609(3) 0.1922(4)
O6E O 0.3133(4) 0.0127(4) 0.1038(4)
O6A O 0.3006(4) 0.3133(4) -0.1038(4)
O6B O 0.6867(4) -0.0127(4) -0.1038(4)
O6D O 0.6994(4) -0.3133(4) 0.1038(4)
O6A* O 0.3006(4) -0.6867(4) -0.1038(4)
C2E C 0.4008(5) 0.0722(5) 0.2850(5)
C2A C 0.3286(5) 0.4008(5) -0.2850(5)
C2B C 0.5992(5) -0.0722(5) -0.2850(5)
C2D C 0.6714(5) -0.4008(5) 0.2850(5)
C2A* C 0.3286(5) -0.5992(5) -0.2850(5)
C3E C 0.4034(6) 0.0273(6) 0.3880(6)
C3A C 0.3761(6) 0.4034(6) -0.3880(6)
C3B C 0.5966(6) -0.0273(6) -0.3880(6)
C3D C 0.6239(6) -0.4034(6) 0.3880(6)
C3A* C 0.3761(6) -0.5966(6) -0.3880(6)
H2E H 0.38040 -0.04830 0.39380
H2A H 0.42870 0.38040 -0.39380
H2B H 0.61960 0.04830 -0.39380
H2D H 0.57130 -0.38040 0.39380
H2A* H 0.42870 -0.61960 -0.39380
C4E C 0.4399(7) 0.0942(6) 0.4816(6)
C4A C 0.3457(7) 0.4399(6) -0.4816(6)
C4B C 0.5601(7) -0.0942(6) -0.4816(6)
C4D C 0.6543(7) -0.4399(6) 0.4816(6)
C4A* C 0.3457(7) -0.5601(6) -0.4816(6)
H3E H 0.44240 0.06310 0.54950
H3A H 0.37930 0.44240 -0.54950
H3B H 0.55760 -0.06310 -0.54950
H3D H 0.62070 -0.44240 0.54950
H3A* H 0.37930 -0.55760 -0.54950
C5E C 0.4728(7) 0.2055(7) 0.4769(6)
C5A C 0.2673(7) 0.4728(7) -0.4769(6)
C5B C 0.5272(7) -0.2055(7) -0.4769(6)
C5D C 0.7327(7) -0.4728(7) 0.4769(6)
C5A* C 0.2673(7) -0.5272(7) -0.4769(6)
H4E H 0.49660 0.24950 0.54080
H4A H 0.24710 0.49660 -0.54080
H4B H 0.50340 -0.24950 -0.54080
H4D H 0.75290 -0.49660 0.54080
H4A* H 0.24710 -0.50340 -0.54080
C6E C 0.4697(6) 0.2512(6) 0.3745(6)
C6A C 0.2185(6) 0.4697(6) -0.3745(6)
C6B C 0.5303(6) -0.2512(6) -0.3745(6)
C6D C 0.7815(6) -0.4697(6) 0.3745(6)
C6A* C 0.2185(6) -0.5303(6) -0.3745(6)
H5E H 0.49210 0.32670 0.37010
H5A H 0.16540 0.49210 -0.37010
H5B H 0.50790 -0.32670 -0.37010
H5D H 0.83460 -0.49210 0.37010
H5A* H 0.16540 -0.50790 -0.37010
C7E C 0.4338(5) 0.1861(5) 0.2788(5)
C7A C 0.2477(5) 0.4338(5) -0.2788(5)
C7B C 0.5662(5) -0.1861(5) -0.2788(5)
C7D C 0.7523(5) -0.4338(5) 0.2788(5)
C7A* C 0.2477(5) -0.5662(5) -0.2788(5)
C8E C 0.3568(5) -0.0062(5) 0.1861(5)
C8A C 0.3630(5) 0.3568(5) -0.1861(5)
C8B C 0.6432(5) 0.0062(5) -0.1861(5)
C8D C 0.6370(5) -0.3568(5) 0.1861(5)
C8A* C 0.3630(5) -0.6432(5) -0.1861(5)
#END
