
#######################################################################
#
#                 Cambridge Crystallographic Data Centre
#                                CCDC
#
#######################################################################
#
# If this CIF has been generated from an entry in the Cambridge
# Structural Database, then it will include bibliographic, chemical,
# crystal, experimental, refinement or atomic coordinate data resulting
# from the CCDC's data processing and validation procedures.
#
#######################################################################

data_CSD_CIF_POKDIF01
_audit_creation_date 2019-05-06
_audit_creation_method CSD-ConQuest-V1
_database_code_CSD POKDIF01
_database_code_depnum_ccdc_archive 'CCDC 1893170'
_chemical_formula_sum 'C31 H21 Cu1 N3 O7'
_chemical_formula_moiety
;
(C31 H18 Cu1 N3 O6 1-)n,n(H3 O1 1+)
;
_journal_coden_Cambridge 1220
_journal_volume 25
_journal_year 2019
_journal_page_first 10366
_journal_name_full 'Chem.-Eur.J. '
loop_
_publ_author_name
"Hongwei Hou"
"Chao Huang"
"Gaoxiang Li"
"Lin Zhang"
"Yingying Zhang"
"Liwei Mi"
_chemical_name_systematic
;
catena-(oxonium 
(\m-4,4'-bipyridine)-(\m-9-(4-carboxylatophenyl)-9H-carbazole-3,6-dicarboxylat
o)-copper unknown solvate)
;
_cell_volume   1930.805
_exptl_crystal_colour 'blue'
_exptl_crystal_density_diffrn 1.051
_exptl_crystal_description 'block'
_diffrn_ambient_temperature 273.1
_refine_special_details
;
Some disordered solvent was taken into account using PLATON/SQUEEZE.

;
#These two values have been output from a single CSD field.
_refine_ls_R_factor_gt 0.0436
_refine_ls_wR_factor_gt 0.0436
_symmetry_cell_setting triclinic
_symmetry_space_group_name_H-M 'P -1'
_symmetry_Int_Tables_number 2
loop_
_symmetry_equiv_pos_site_id
_symmetry_equiv_pos_as_xyz
1 x,y,z
2 -x,-y,-z
_cell_length_a 11.072(2)
_cell_length_b 13.535(3)
_cell_length_c 14.475(3)
_cell_angle_alpha 66.229(7)
_cell_angle_beta 77.520(7)
_cell_angle_gamma 80.473(7)
_cell_formula_units_Z 2
loop_
_atom_type_symbol
_atom_type_radius_bond
C 0.68
H 0.23
Cu 1.32
N 0.68
O 0.68
loop_
_atom_site_label
_atom_site_type_symbol
_atom_site_fract_x
_atom_site_fract_y
_atom_site_fract_z
O1 O 0.67731(13) 0.07203(11) 1.09423(10)
Cu1 Cu 0.67622(2) 0.93960(2) 0.22096(2)
O2 O 0.63844(17) 0.13137(12) 1.22027(11)
O3 O 0.65415(15) 0.84839(15) 0.36682(11)
N1 N 0.6606(2) 0.57984(15) 0.84268(13)
N2 N 0.49517(15) 0.93461(14) 0.22397(12)
N3 N -0.14196(15) 0.94223(15) 0.21670(13)
O4 O 0.7224(3) 0.66062(17) 1.22360(15)
C1 C 0.7150(2) 0.73588(17) 1.13839(18)
C2 C 0.65472(19) 0.14893(17) 1.12723(15)
C3 C 0.6982(2) 0.69687(18) 1.05660(16)
C4 C 0.6998(2) 0.77084(19) 0.95580(18)
C5 C 0.6868(3) 0.74137(18) 0.87891(17)
H1 H 0.68781 0.79169 0.81215
O5 O 0.72184(15) 0.83130(13) 1.11624(12)
C6 C 0.6718(2) 0.63264(17) 0.90479(15)
C7 C 0.6712(2) 0.55591(16) 1.00563(15)
O6 O 0.7806(2) 0.70424(18) 0.36161(14)
C8 C 0.6843(2) 0.58868(17) 1.08190(16)
C9 C 0.6605(2) 0.45225(17) 1.00407(15)
C10 C 0.6575(2) 0.34748(16) 1.07818(15)
H2 H 0.66001 0.33474 1.14588
C11 C 0.6506(2) 0.26232(16) 1.05006(15)
C12 C 0.6415(2) 0.28304(18) 0.94883(17)
H3 H 0.63436 0.22542 0.93146
C13 C 0.6428(3) 0.38595(19) 0.87416(17)
H4 H 0.63585 0.39860 0.80735
C14 C 0.6549(2) 0.47026(17) 0.90214(15)
C15 C 0.6728(2) 0.62648(18) 0.73417(16)
C16 C 0.5994(3) 0.7194(2) 0.68623(18)
H5 H 0.54103 0.75181 0.72452
C17 C 0.6148(3) 0.7632(2) 0.57999(18)
H6 H 0.56764 0.82656 0.54708
C18 C 0.7710(3) 0.6217(2) 0.57190(18)
H7 H 0.82803 0.58834 0.53365
C19 C 0.7596(3) 0.5782(2) 0.67706(18)
H8 H 0.80978 0.51686 0.70947
C20 C 0.6990(2) 0.71419(19) 0.52249(16)
C21 C 0.7120(2) 0.7584(2) 0.40838(17)
C22 C 0.4088(2) 0.9353(3) 0.30357(18)
H9 H 0.43408 0.93374 0.36144
C23 C 0.2847(2) 0.9384(3) 0.30401(19)
H10 H 0.22773 0.93902 0.36133
C24 C 0.24365(19) 0.94039(19) 0.21949(16)
C25 C 0.33352(18) 0.94158(17) 0.13577(15)
H11 H 0.31076 0.94439 0.07650
C26 C 0.45654(18) 0.93855(17) 0.14139(15)
H12 H 0.51574 0.93929 0.08476
C27 C 0.10985(19) 0.94253(19) 0.21739(16)
C28 C 0.0196(2) 0.9643(3) 0.2881(3)
H13 H 0.04137 0.98017 0.33885
C29 C -0.1040(2) 0.9633(3) 0.2858(3)
H14 H -0.16326 0.97838 0.33574
C30 C -0.0551(2) 0.9187(3) 0.1475(2)
H15 H -0.07970 0.90160 0.09856
C31 C 0.0701(2) 0.9187(3) 0.1455(2)
H16 H 0.12792 0.90251 0.09541
H17 H 0.681(2) 0.540(2) 1.1476(19)
H18 H 0.717(2) 0.841(2) 0.937(2)
O7 O 0.6391(7) 0.0557(6) 1.4418(6)
O1* O 0.67731(13) 1.07203(11) 0.09423(10)
Cu1* Cu -0.32378(2) 0.93960(2) 0.22096(2)
Cu1** Cu 0.67622(2) -0.06040(2) 1.22096(2)
Cu1*** Cu 0.67622(2) 0.93960(2) 1.22096(2)
O2* O 0.63844(17) 1.13137(12) 0.22027(11)
N3* N 0.85804(15) 0.94223(15) 0.21670(13)
O5* O 0.72184(15) 0.83130(13) 0.11624(12)
#END
