
#######################################################################
#
#                 Cambridge Crystallographic Data Centre
#                                CCDC
#
#######################################################################
#
# If this CIF has been generated from an entry in the Cambridge
# Structural Database, then it will include bibliographic, chemical,
# crystal, experimental, refinement or atomic coordinate data resulting
# from the CCDC's data processing and validation procedures.
#
#######################################################################

data_CSD_CIF_POLLIO
_audit_creation_date 2019-05-07
_audit_creation_method CSD-ConQuest-V1
_database_code_CSD POLLIO
_database_code_depnum_ccdc_archive 'CCDC 1890604'
_chemical_formula_sum 'C46 H54 Cr2 Mn2 N4 O24'
_chemical_formula_moiety
;
(C12 Cr2 Mn2 O24 2-)n,2(C17 H27 N2 1+)
;
_journal_coden_Cambridge 261
_journal_volume 22
_journal_year 2019
_journal_page_first 534
_journal_name_full 'Comptes Rendus Chimie '
loop_
_publ_author_name
"C.Maxim"
"S.Ferlay"
"C.Train"
_chemical_name_systematic
;
catena-(bis(3-hexyl-1-methyl-2-phenyl-3,4,5,6-tetrahydropyrimidin-1-ium) 
hexakis(\m-oxalato)-di-chromium-di-manganese)
;
_cell_volume   2714.356
_exptl_crystal_colour 'purple'
_exptl_crystal_density_diffrn 1.543
_exptl_crystal_description 'prism'
_diffrn_ambient_temperature 173
_refine_special_details
;
C24A,C25A,C26A and C24,C25,C26 disordered over two sites with occupancies 
0.599:0.401.
;
#These two values have been output from a single CSD field.
_refine_ls_R_factor_gt 0.0914
_refine_ls_wR_factor_gt 0.0914
_symmetry_cell_setting monoclinic
_symmetry_space_group_name_H-M 'P 21'
_symmetry_Int_Tables_number 4
loop_
_symmetry_equiv_pos_site_id
_symmetry_equiv_pos_as_xyz
1 x,y,z
2 -x,1/2+y,-z
_cell_length_a 9.3876(2)
_cell_length_b 17.8144(4)
_cell_length_c 16.2318(4)
_cell_angle_alpha 90
_cell_angle_beta 90.623(1)
_cell_angle_gamma 90
_cell_formula_units_Z 2
loop_
_atom_type_symbol
_atom_type_radius_bond
C 0.68
H 0.23
Cr 1.39
Mn 1.61
N 0.68
O 0.68
loop_
_atom_site_label
_atom_site_type_symbol
_atom_site_fract_x
_atom_site_fract_y
_atom_site_fract_z
C1 C 0.8808(9) 0.5557(5) 0.5766(5)
N1 N 0.7431(8) 0.5522(4) 0.5558(4)
C2 C 0.6978(11) 0.5643(6) 0.4702(5)
H1 H 0.66750 0.61720 0.46330
H2 H 0.61470 0.53190 0.45770
C3 C 0.8152(11) 0.5473(6) 0.4098(5)
H3 H 0.83370 0.49260 0.40850
H4 H 0.78600 0.56350 0.35380
C4 C 0.9478(11) 0.5883(5) 0.4361(4)
H5 H 1.02850 0.57170 0.40180
H6 H 0.93430 0.64280 0.42740
N2 N 0.9814(8) 0.5739(4) 0.5237(4)
C5 C 0.6299(10) 0.5332(6) 0.6138(5)
H7 H 0.67150 0.52800 0.66980
H8 H 0.58760 0.48430 0.59800
C6 C 0.5085(10) 0.5950(12) 0.6151(6)
H9 H 0.47360 0.60350 0.55810
H10 H 0.42770 0.57590 0.64770
C7 C 0.5572(12) 0.6695(8) 0.6513(9)
H11 H 0.65060 0.68240 0.62720
H12 H 0.48870 0.70880 0.63370
C8 C 0.5716(12) 0.6725(8) 0.7423(10)
H13 H 0.64750 0.63650 0.75800
H14 H 0.48170 0.65270 0.76510
C9 C 0.6060(17) 0.7501(9) 0.7902(12)
H15 H 0.52970 0.78670 0.77720
H16 H 0.60410 0.74050 0.85030
C10 C 0.7410(16) 0.7832(10) 0.7702(12)
H17 H 0.81810 0.75280 0.79390
H18 H 0.74600 0.83420 0.79280
H19 H 0.75090 0.78520 0.71020
C11 C 1.1339(10) 0.5780(6) 0.5455(6)
H20 H 1.14450 0.58880 0.60450
H21 H 1.17900 0.61800 0.51360
H22 H 1.17950 0.52990 0.53300
C12 C 0.9250(8) 0.5425(4) 0.6633(4)
C13 C 0.9496(11) 0.4703(5) 0.6919(5)
H23 H 0.93410 0.42880 0.65610
C14 C 0.9960(11) 0.4579(5) 0.7709(5)
H24 H 1.01160 0.40810 0.78970
C15 C 1.0203(10) 0.5180(5) 0.8240(5)
H25 H 1.05490 0.50960 0.87840
C16 C 0.9934(11) 0.5902(6) 0.7966(5)
H26 H 1.00660 0.63130 0.83330
C17 C 0.9477(10) 0.6036(5) 0.7169(5)
H27 H 0.93170 0.65350 0.69840
C18 C 0.5579(12) 0.5447(6) 0.0814(6)
N3 N 0.699(1) 0.5447(5) 0.0651(5)
C19 C 0.7537(14) 0.5501(7) -0.0197(6)
H28 H 0.84420 0.52190 -0.02360
H29 H 0.77340 0.60330 -0.03300
C20 C 0.6477(17) 0.5190(8) -0.0807(7)
H30 H 0.64220 0.46380 -0.07490
H31 H 0.67820 0.53070 -0.13740
C21 C 0.5015(16) 0.5537(8) -0.0651(6)
H32 H 0.50250 0.60690 -0.08280
H33 H 0.42900 0.52710 -0.09880
N4 N 0.4617(12) 0.5499(5) 0.0215(5)
C22 C 0.8085(13) 0.5360(6) 0.1295(7)
H34 H 0.86620 0.49080 0.11760
H35 H 0.76160 0.52810 0.18320
C23 C 0.9035(14) 0.6020(6) 0.1357(8)
H36 H 0.84640 0.64680 0.15000
H37 H 0.94750 0.61120 0.08150
C24 C 0.995(2) 0.6208(12) 0.2115(9)
H38 H 0.93330 0.63320 0.25850
H39 H 1.05410 0.57670 0.22690
C25 C 1.092(2) 0.6880(12) 0.1922(10)
H40 H 1.04110 0.72490 0.15720
H41 H 1.17820 0.67100 0.16260
C26 C 1.136(2) 0.7242(11) 0.2758(9)
H42 H 1.05230 0.74710 0.30320
H43 H 1.17990 0.68700 0.31340
C27 C 1.2414(14) 0.7833(8) 0.2501(7)
C28 C 0.3089(13) 0.5494(6) 0.0349(6)
H44 H 0.29030 0.54690 0.09410
H45 H 0.26650 0.50570 0.00740
H46 H 0.26680 0.59540 0.01210
C29 C 0.5088(11) 0.5394(5) 0.1681(5)
C30 C 0.5045(12) 0.6035(5) 0.2147(6)
H47 H 0.53370 0.65030 0.19240
C31 C 0.4571(13) 0.5986(6) 0.2945(5)
H48 H 0.45550 0.64280 0.32720
C32 C 0.4129(11) 0.5335(6) 0.3279(6)
H49 H 0.37850 0.53190 0.38270
C33 C 0.4188(14) 0.4692(7) 0.2805(6)
H50 H 0.38940 0.42270 0.30340
C34 C 0.4662(14) 0.4714(6) 0.2013(7)
H51 H 0.46980 0.42690 0.16920
C35? C 1.022(3) 0.5911(12) 0.2011(15)
H52? H 0.98640 0.55550 0.24300
H53? H 1.10400 0.56690 0.17410
C36? C 1.076(3) 0.6610(15) 0.2459(12)
H54? H 0.99350 0.68450 0.27280
H55? H 1.14120 0.64360 0.29050
C37? C 1.154(3) 0.7228(15) 0.1995(13)
H56? H 1.08230 0.74990 0.16560
H57? H 1.22040 0.69830 0.16090
Mn1 Mn 0.16077(13) 0.80070(8) 0.91991(7)
Cr1 Cr 0.66357(13) 0.81625(7) 0.08603(7)
Mn2 Mn 0.65391(13) 0.82470(8) 0.41987(7)
Cr2 Cr 0.15698(13) 0.81103(8) 0.58681(7)
O1 O 0.0740(6) 0.8644(3) 0.8223(3)
O2 O 0.2297(7) 0.7385(4) 0.8186(4)
C38 C 0.1086(9) 0.8414(5) 0.7533(5)
C39 C 0.1971(9) 0.7672(5) 0.7511(5)
O3 O 0.0790(7) 0.8693(4) 0.6844(4)
O4 O 0.2277(7) 0.7433(4) 0.6808(4)
O5 O 0.2820(7) 0.7393(3) 1.0069(3)
O6 O 0.3446(7) 0.8663(4) 0.9262(3)
C40 C 0.3958(9) 0.7685(4) 1.0253(5)
C41 C 0.4359(9) 0.8419(4) 0.9782(5)
O7 O 0.4859(7) 0.7478(4) 1.0783(4)
O8 O 0.5527(7) 0.8717(3) 0.9953(3)
O9 O 0.0540(7) 0.8706(4) 1.0050(4)
O10 O -0.0229(7) 0.7369(3) 0.9397(3)
C42 C -0.0632(8) 0.8458(5) 1.0224(5)
C43 C -0.1089(9) 0.7704(4) 0.9862(5)
O11 O -0.1548(7) 0.8778(3) 1.0685(4)
O12 O -0.2331(7) 0.7469(4) 1.0042(3)
O13 O 0.3373(7) 0.8741(4) 0.5812(4)
O14 O 0.2636(7) 0.7527(4) 0.4968(3)
C44 C 0.4266(9) 0.8520(5) 0.5276(5)
C45 C 0.3833(10) 0.7812(5) 0.4804(5)
O15 O 0.5392(7) 0.8842(4) 0.5099(4)
O16 O 0.4698(7) 0.7566(4) 0.4284(4)
O17 O 1.0526(7) 0.8788(3) 0.5035(3)
O18 O 0.9735(7) 0.7496(3) 0.5717(3)
C46 C 0.8854(9) 0.7799(4) 0.5248(5)
C47 C 0.9283(9) 0.8551(5) 0.4851(5)
O19 O 0.7639(7) 0.7557(3) 0.5053(3)
O20 O 0.8382(7) 0.8865(3) 0.4377(4)
O21 O 0.7402(7) 0.7614(4) 0.3240(4)
O22 O 0.5817(6) 0.8880(3) 0.3180(4)
C48 C 0.7066(9) 0.7884(5) 0.2537(4)
C49 C 0.6167(8) 0.8597(5) 0.2501(6)
O23 O 0.7432(7) 0.7606(3) 0.1860(4)
O24 O 0.5868(7) 0.8842(4) 0.1800(4)
Cr1* Cr -0.33643(13) 0.81625(7) 1.08603(7)
Cr1** Cr 0.66357(13) 0.81625(7) 1.08603(7)
Cr2* Cr 1.15698(13) 0.81103(8) 0.58681(7)
O7* O 0.4859(7) 0.7478(4) 0.0783(4)
O8* O 0.5527(7) 0.8717(3) -0.0047(3)
O11* O 0.8452(7) 0.8778(3) 0.0685(4)
O12* O 0.7669(7) 0.7469(4) 0.0042(3)
O17* O 0.0526(7) 0.8788(3) 0.5035(3)
O18* O -0.0265(7) 0.7496(3) 0.5717(3)
#END
