
#######################################################################
#
#                 Cambridge Crystallographic Data Centre
#                                CCDC
#
#######################################################################
#
# If this CIF has been generated from an entry in the Cambridge
# Structural Database, then it will include bibliographic, chemical,
# crystal, experimental, refinement or atomic coordinate data resulting
# from the CCDC's data processing and validation procedures.
#
#######################################################################

data_CSD_CIF_POLLEK
_audit_creation_date 2019-05-07
_audit_creation_method CSD-ConQuest-V1
_database_code_CSD POLLEK
_database_code_depnum_ccdc_archive 'CCDC 1890603'
_chemical_formula_sum 'C40 H42 Cr2 Mn2 N4 O24'
_chemical_formula_moiety
;
(C12 Cr2 Mn2 O24 2-)n,2n(C14 H21 N2 1+)
;
_journal_coden_Cambridge 261
_journal_volume 22
_journal_year 2019
_journal_page_first 534
_journal_name_full 'Comptes Rendus Chimie '
loop_
_publ_author_name
"C.Maxim"
"S.Ferlay"
"C.Train"
_chemical_name_systematic
;
catena-(bis(1-methyl-2-phenyl-3-propyl-3,4,5,6-tetrahydropyrimidin-1-ium) 
hexakis(\m-oxalato)-di-chromium-di-manganese)
;
_cell_volume   2612.932
_exptl_crystal_colour 'violet'
_exptl_crystal_density_diffrn 1.496
_exptl_crystal_description 'prism'
_diffrn_ambient_temperature 173
#These two values have been output from a single CSD field.
_refine_ls_R_factor_gt 0.0963
_refine_ls_wR_factor_gt 0.0963
_symmetry_cell_setting monoclinic
_symmetry_space_group_name_H-M 'P c'
_symmetry_Int_Tables_number 7
loop_
_symmetry_equiv_pos_site_id
_symmetry_equiv_pos_as_xyz
1 x,y,z
2 x,-y,1/2+z
_cell_length_a 16.033(3)
_cell_length_b 9.4755(19)
_cell_length_c 17.770(4)
_cell_angle_alpha 90
_cell_angle_beta 104.56(3)
_cell_angle_gamma 90
_cell_formula_units_Z 2
loop_
_atom_type_symbol
_atom_type_radius_bond
C 0.68
H 0.23
Cr 1.39
Mn 1.61
N 0.68
O 0.68
loop_
_atom_site_label
_atom_site_type_symbol
_atom_site_fract_x
_atom_site_fract_y
_atom_site_fract_z
C1 C -0.0330(5) 0.0228(7) 0.8366(4)
C2 C -0.0607(4) 0.1108(6) 0.7617(4)
C3 C 0.2149(4) 0.3139(7) 0.7567(4)
C4 C 0.1860(4) 0.3542(7) 0.8314(4)
C5 C 0.4496(4) 0.6236(7) 0.7762(4)
C6 C 0.4635(5) 0.5362(8) 0.8518(4)
C7 C 0.1724(4) 0.8066(8) 0.7536(4)
C8 C 0.2364(4) 0.8506(6) 0.8319(4)
C9 C 0.7044(5) 0.8406(7) 0.8612(5)
C10 C 0.7233(4) 0.7975(7) 0.7832(5)
C11 C 0.6724(5) 0.2902(9) 0.7846(5)
C12 C 0.7436(4) 0.3341(7) 0.8582(4)
Mn1 Mn 0.11964(6) 0.07808(9) 0.78892(7)
Mn2 Mn 0.62897(6) 0.5697(1) 0.82487(7)
Cr1 Cr 0.28559(6) 0.57886(10) 0.80107(6)
Cr2 Cr 0.79001(7) 1.06812(10) 0.81377(7)
O1 O -0.0917(4) -0.0059(5) 0.8704(3)
O2 O -0.1408(3) 0.1455(5) 0.7408(3)
O3 O -0.0054(3) 0.1448(5) 0.7275(3)
O4 O 0.0442(3) -0.0096(5) 0.8588(3)
O5 O 0.2282(3) 0.9707(5) 0.8563(3)
O6 O 0.1170(3) 0.8910(6) 0.7232(3)
O7 O 0.1850(3) 0.6849(5) 0.7298(3)
O8 O 0.2916(3) 0.7600(5) 0.8639(3)
O9 O 0.3966(4) 0.5036(5) 0.8737(3)
O10 O 0.3704(3) 0.6548(5) 0.7431(3)
O11 O 0.5147(3) 0.6557(5) 0.7545(3)
O12 O 0.5397(4) 0.5060(5) 0.8867(3)
O13 O 0.8039(3) 0.2462(5) 0.8815(3)
O14 O 0.6814(4) 0.1724(7) 0.7566(4)
O15 O 0.6141(4) 0.3780(6) 0.7588(3)
O16 O 0.7355(3) 0.4515(6) 0.8883(3)
O17 O 0.7616(3) 0.8852(6) 0.7510(3)
O18 O 0.7312(3) 0.9619(5) 0.8859(3)
O19 O 0.6997(3) 0.6762(5) 0.7573(3)
O20 O 0.6649(4) 0.7532(5) 0.8910(3)
O21 O 0.1417(3) 0.2656(5) 0.8562(3)
O22 O 0.1922(3) 0.1953(5) 0.7271(3)
O23 O 0.2107(3) 0.4731(6) 0.8592(3)
O24 O 0.2616(4) 0.4000(5) 0.7321(3)
C13 C 0.9415(5) 0.6509(8) 0.5522(4)
C14 C 0.9840(5) 0.5223(8) 0.5320(5)
C15 C 1.0625(5) 0.4784(9) 0.5793(5)
H1 H 1.08820 0.52590 0.62510
C16 C 1.1017(5) 0.3596(9) 0.5556(5)
H2 H 1.15330 0.32610 0.58700
C17 C 1.0661(7) 0.2935(10) 0.4886(6)
H3 H 1.09430 0.21740 0.47290
C18 C 0.9864(7) 0.3388(11) 0.4419(6)
H4 H 0.96090 0.29030 0.39650
C19 C 0.9464(6) 0.4529(10) 0.4628(7)
H5 H 0.89430 0.48440 0.43130
C20 C 1.0483(7) 0.7990(11) 0.5166(6)
H6 H 1.05880 0.89860 0.51510
H7 H 1.03970 0.76040 0.46530
H8 H 1.09700 0.75410 0.55090
C21 C 0.9357(7) 0.9060(8) 0.5662(6)
H9 H 0.90720 0.95720 0.51960
H10 H 0.98150 0.96530 0.59610
C22 C 0.8698(8) 0.8744(12) 0.6151(8)
H11 H 0.90030 0.85140 0.66810
H12 H 0.83480 0.95750 0.61650
C23 C 0.8143(7) 0.7563(9) 0.5810(7)
H13 H 0.77850 0.78370 0.53050
H14 H 0.77670 0.73210 0.61410
C24 C 0.8320(11) 0.4924(11) 0.586(1)
H15 H 0.77180 0.48410 0.55830
H16 H 0.86420 0.41840 0.56830
C25 C 0.8417(11) 0.4813(12) 0.6696(11)
H17 H 0.80240 0.54970 0.68240
H18 H 0.81980 0.38900 0.67850
C26 C 0.9195(19) 0.4974(13) 0.7251(9)
H19 H 0.90990 0.48920 0.77610
H20 H 0.94320 0.58860 0.71940
H21 H 0.95900 0.42550 0.71800
N1 N 0.8662(5) 0.6341(7) 0.5723(5)
N2 N 0.9730(4) 0.7752(6) 0.5443(4)
C27 C 0.4479(6) 0.6527(7) 0.5508(4)
C28 C 0.5019(5) 0.7790(8) 0.5400(5)
C29 C 0.5160(7) 0.8059(11) 0.4674(6)
H22 H 0.49300 0.74670 0.42560
C30 C 0.5656(8) 0.9239(10) 0.4580(7)
H23 H 0.57520 0.94550 0.40980
C31 C 0.5988(8) 1.0048(11) 0.5208(8)
H24 H 0.63290 1.08140 0.51490
C32 C 0.5853(7) 0.9806(10) 0.5936(7)
H25 H 0.60920 1.03940 0.63540
C33 C 0.5340(6) 0.8637(8) 0.6025(5)
H26 H 0.52230 0.84480 0.65020
C34 C 0.5826(7) 0.5164(11) 0.5780(6)
H27 H 0.59940 0.42060 0.59130
H28 H 0.61280 0.57820 0.61860
H29 H 0.59670 0.54080 0.53020
C35 C 0.4410(11) 0.4046(11) 0.5754(14)
H30 H 0.45370 0.33410 0.54030
H31 H 0.46210 0.36850 0.62780
C36 C 0.3526(11) 0.4163(11) 0.5607(15)
H32 H 0.33540 0.36380 0.60120
H33 H 0.32860 0.36690 0.51230
C37 C 0.3104(7) 0.5497(10) 0.5549(6)
H34 H 0.29320 0.56780 0.60260
H35 H 0.25860 0.54660 0.51270
C38 C 0.3211(6) 0.8023(9) 0.5196(5)
H36 H 0.26820 0.78610 0.47980
H37 H 0.35790 0.86160 0.49720
C39 C 0.2994(7) 0.8816(11) 0.5872(6)
H38 H 0.26230 0.82340 0.60990
H39 H 0.35200 0.89980 0.62700
C40 C 0.2555(8) 1.0173(11) 0.5609(8)
H40 H 0.24230 1.06440 0.60430
H41 H 0.20320 0.99940 0.52190
H42 H 0.29270 1.07590 0.53950
N3 N 0.4904(6) 0.5313(8) 0.5685(4)
N4 N 0.3648(5) 0.6645(6) 0.5414(4)
Mn1* Mn 0.11964(6) 1.07808(9) 0.78892(7)
Cr2* Cr -0.20999(7) 0.06812(10) 0.81377(7)
Cr2** Cr 0.79001(7) 0.06812(10) 0.81377(7)
O1* O 0.9083(4) 0.9941(5) 0.8704(3)
O2* O 0.8592(3) 1.1455(5) 0.7408(3)
O5* O 0.2282(3) -0.0293(5) 0.8563(3)
O6* O 0.1170(3) -0.1090(6) 0.7232(3)
O13* O 0.8039(3) 1.2462(5) 0.8815(3)
O14* O 0.6814(4) 1.1724(7) 0.7566(4)
#END
