
#######################################################################
#
#                 Cambridge Crystallographic Data Centre
#                                CCDC
#
#######################################################################
#
# If this CIF has been generated from an entry in the Cambridge
# Structural Database, then it will include bibliographic, chemical,
# crystal, experimental, refinement or atomic coordinate data resulting
# from the CCDC's data processing and validation procedures.
#
#######################################################################

data_CSD_CIF_POLNUA
_audit_creation_date 2009-03-09
_audit_creation_method CSD-ConQuest-V1
_database_code_CSD POLNUA
_database_code_depnum_ccdc_archive 'CCDC 664327'
_chemical_formula_sum 'C64 H118 Fe2 N48 O132 P4 W36'
_chemical_formula_moiety
;
(C48 H72 Fe2 N36 O124 P4 W36 6-)n,2n(C8 H15 N6 3+),8n(H2 O1)
;
_journal_coden_Cambridge 1295
_journal_volume 11
_journal_year 2008
_journal_page_first 1132
_journal_name_full 'Inorg.Chem.Commun. '
loop_
_publ_author_name
"Aixiang Tian"
"Jun Ying"
"Jun Peng"
"Jingquan Sha"
"Dongxia Zhu"
"Haijun Pang"
"Pengpeng Zhang"
"Yuan Chen"
"Min Zhu"
_chemical_name_systematic
;
catena-(1,2-bis(1,2,4-triazolium)butane 
tetrakis(\m~9~-phosphato)-bis(\m~2~-1,4-bis(1,2,4-triazol-1-yl)butane)-hexahep
tacontakis(\m~2~-oxo)-tetrakis(1,4-bis(1,2,4-triazol-1-yl)butane)-dotriacontao
xo-di-iron(iii)-hexatriaconta-tungsten(vi) solvate octahydrate)
;
_cell_volume   4776.376
_exptl_crystal_colour 'red'
_exptl_crystal_density_diffrn 3.652
_exptl_special_details
;
The NH protons on the cation are not located crystallographically

;
_exptl_crystal_description 'block'
_diffrn_ambient_temperature 187
#These two values have been output from a single CSD field.
_refine_ls_R_factor_gt 0.0609
_refine_ls_wR_factor_gt 0.0609
_symmetry_cell_setting triclinic
_symmetry_space_group_name_H-M 'P -1'
_symmetry_Int_Tables_number 2
loop_
_symmetry_equiv_pos_site_id
_symmetry_equiv_pos_as_xyz
1 x,y,z
2 -x,-y,-z
_cell_length_a 14.841(2)
_cell_length_b 14.922(2)
_cell_length_c 22.270(3)
_cell_angle_alpha 89.452(2)
_cell_angle_beta 89.428(2)
_cell_angle_gamma 75.592(2)
_cell_formula_units_Z 1
loop_
_atom_type_symbol
_atom_type_radius_bond
C 0.68
H 0.23
Fe 1.34
N 0.68
O 0.68
P 1.05
W 1.37
loop_
_atom_site_label
_atom_site_type_symbol
_atom_site_fract_x
_atom_site_fract_y
_atom_site_fract_z
P1 P 0.2338(3) 1.1229(3) 0.27389(18)
P2 P 0.2678(3) 1.3774(3) 0.27213(18)
W1 W 0.13798(5) 1.41926(5) 0.40594(3)
W2 W 0.17754(5) 1.60998(5) 0.22531(4)
W3 W 0.29155(6) 1.56737(5) 0.35700(4)
W4 W 0.36179(5) 1.08187(5) 0.40748(3)
W5 W 0.10848(5) 1.17643(5) 0.40914(3)
W6 W 0.20805(6) 0.93397(6) 0.36194(4)
W7 W 0.38732(5) 1.32822(6) 0.13342(3)
W8 W 0.32389(6) 0.89052(6) 0.23012(4)
W9 W 0.39135(5) 1.32481(5) 0.40674(3)
W10 W 0.50968(5) 1.28001(5) 0.27691(3)
W11 W 0.09005(5) 0.97730(6) 0.23147(4)
W12 W -0.00860(5) 1.22083(5) 0.27972(3)
W13 W 0.47705(5) 1.03831(5) 0.27628(3)
W14 W 0.41128(5) 1.52330(6) 0.22654(4)
W15 W 0.02412(5) 1.46258(5) 0.27501(3)
W16 W 0.15628(5) 1.40974(6) 0.13385(3)
W17 W 0.34590(5) 1.09015(6) 0.13540(3)
W18 W 0.11485(5) 1.17184(6) 0.13574(3)
O1 O 0.2375(9) 1.1503(9) 0.2076(6)
O2 O 0.3853(15) -0.1039(17) -1.4250(9)
O3 O 0.3246(8) 1.1190(8) 0.3055(5)
O4 O -0.1141(16) 0.3942(16) -0.5757(10)
O5 O 0.1506(8) 1.1843(8) 0.3064(5)
O6 O 0.3450(11) 0.7477(15) -1.4818(9)
O7 O 0.2180(9) 1.0206(9) 0.2735(5)
O8 O -0.1565(12) -0.7455(15) -1.5162(8)
O9 O 0.2810(9) 1.4798(9) 0.2715(5)
O10 O 0.3507(8) 1.3158(9) 0.3044(5)
O11 O 0.1750(9) 1.3823(8) 0.3044(5)
O12 O 0.2638(8) 1.3491(8) 0.2058(5)
O13 O 0.4648(9) 1.2748(9) 0.1976(5)
O14 O 0.5030(9) 1.1562(9) 0.2888(6)
O15 O 0.4349(9) 1.0765(9) 0.1977(5)
O16 O 0.113(1) 1.7122(10) 0.1952(6)
O17 O 0.4958(10) 1.5709(10) 0.1987(7)
O18 O 0.3892(10) 0.7895(10) 0.2022(6)
O19 O 0.3031(10) 1.6437(10) 0.4111(6)
O20 O 0.4324(9) 1.3318(9) 0.4763(6)
O21 O 0.3530(9) 1.2114(10) 0.1250(5)
O22 O 0.2372(10) 1.1499(9) 0.4227(6)
O23 O 0.1082(9) 0.9204(9) 0.3097(6)
O24 O 0.0662(9) 1.1716(9) 0.4796(6)
O25 O 0.3999(10) 1.0439(11) 0.4787(6)
O26 O 0.3011(10) 1.6101(10) 0.1995(6)
O27 O 0.0042(10) 0.9297(10) 0.2041(6)
O28 O 0.2923(9) 0.8517(10) 0.3086(7)
O29 O 0.1491(9) 1.2848(9) 0.1247(6)
O30 O 0.3919(9) 1.5787(9) 0.3046(5)
O31 O 0.4643(11) 1.3172(11) 0.0746(6)
O32 O 0.3966(10) 1.1955(10) 0.4059(6)
O33 O 0.0303(8) 1.4744(8) 0.3596(5)
O34 O 0.1933(9) 1.5210(9) 0.3860(6)
O35 O 0.5876(9) 0.9744(10) 0.2628(6)
O36 O 0.4704(8) 1.0246(8) 0.3624(5)
O37 O 0.1744(9) 1.5247(9) 0.1625(6)
O38 O 0.625(1) 1.2601(10) 0.2658(6)
O39 O -0.1247(9) 1.2420(9) 0.2692(6)
O40 O 0.1969(9) 0.8592(9) 0.4176(6)
O41 O 0.262(1) 1.3512(9) 0.4203(5)
O42 O 0.2085(9) 1.6455(9) 0.3037(6)
O43 O 0.0996(9) 1.4564(9) 0.4770(6)
O44 O 0.0199(9) 1.0888(9) 0.2677(6)
O45 O -0.0037(9) 1.2004(9) 0.3649(5)
O46 O 0.3280(9) 0.9730(9) 0.1665(5)
O47 O -0.0865(9) 1.5248(9) 0.2621(7)
O48 O 0.3066(9) 0.9806(9) 0.3892(5)
O49 O 0.0852(9) 1.4545(9) 0.0738(6)
O50 O 0.4172(9) 1.0457(9) 0.0749(5)
O51 O 0.1069(9) 1.0546(9) 0.1661(6)
O52 O 0.4810(9) 1.4122(9) 0.2638(5)
O53 O 0.1296(9) 1.0473(9) 0.3902(5)
O54 O 0.3944(9) 1.4446(9) 0.1620(6)
O55 O 0.1026(9) 1.3056(9) 0.4064(6)
O56 O 0.3709(8) 1.4533(8) 0.3860(6)
O57 O 0.4159(9) 0.9405(9) 0.2654(5)
O58 O -0.0017(9) 1.3446(9) 0.2894(5)
O59 O 0.5048(9) 1.3004(9) 0.3618(5)
O60 O 0.0850(8) 1.5596(9) 0.2630(6)
O61 O 0.2302(9) 1.1124(10) 0.0957(6)
O62 O 0.0385(10) 1.1838(10) 0.0769(6)
O63 O 0.0673(8) 1.4220(8) 0.1973(5)
O64 O 0.2738(9) 1.3854(9) 0.0920(5)
O65 O 0.0373(8) 1.2240(9) 0.2002(6)
O66 O 0.2008(9) 0.8882(9) 0.2045(7)
Fe1 Fe 0.50000 1.00000 0.00000
Fe2 Fe 0.00000 1.50000 0.00000
C1 C 0.607(2) 0.7908(18) 0.0318(11)
H1 H 0.61960 0.77540 -0.00840
C2 C 0.5550(15) 0.8661(15) 0.1104(9)
H2 H 0.52590 0.91260 0.13670
C3 C 0.6231(15) 0.7418(16) 0.1875(10)
H3 H 0.59530 0.68990 0.19340
H4 H 0.59700 0.78820 0.21740
C4 C 0.7260(16) 0.7101(15) 0.1952(9)
H5 H 0.75140 0.66690 0.16340
H6 H 0.73860 0.67690 0.23310
C5 C 0.7771(15) 0.7882(15) 0.1943(9)
H7 H 0.75310 0.83030 0.16140
H8 H 0.76300 0.82280 0.23130
C6 C 0.8785(18) 0.7564(18) 0.1876(11)
H9 H 0.90320 0.70920 0.21760
H10 H 0.90680 0.80760 0.19330
C7 C 0.897(2) 0.7103(19) 0.0318(11)
H11 H 0.88570 0.72600 -0.00840
C8 C 0.9459(16) 0.6351(16) 0.1090(11)
H12 H 0.97520 0.58840 0.13530
C9 C 0.2996(19) 0.986(3) -0.0255(13)
H13 H 0.27990 1.01990 0.00890
C10 C 0.3879(16) 0.9066(16) -0.0878(11)
H14 H 0.44090 0.87660 -0.10910
C11 C 0.266(2) 0.8816(19) -0.1616(12)
H15 H 0.21630 0.85200 -0.15330
H16 H 0.31670 0.83660 -0.18090
C12 C 0.2323(15) 0.9617(17) -0.2033(10)
H17 H 0.17870 1.00330 -0.18480
H18 H 0.28060 0.99490 -0.20730
C13 C 0.206(2) 0.9397(18) -0.2641(13)
H19 H 0.25900 0.89710 -0.28250
H20 H 0.15660 0.90780 -0.26030
C14 C 0.1745(18) 1.0196(19) -0.3047(10)
H21 H 0.11880 1.06010 -0.28770
H22 H 0.22210 1.05400 -0.30620
C15 C 0.2028(17) 1.514(2) -0.0303(12)
H23 H 0.22420 1.47870 0.00380
C16 C 0.1132(18) 1.5955(19) -0.0909(11)
H24 H 0.06070 1.62930 -0.11070
C17 C 0.233(2) 1.614(2) -0.1666(13)
H25 H 0.28290 1.64300 -0.15870
H26 H 0.18330 1.65960 -0.18590
C18 C 0.2674(16) 1.5371(17) -0.2093(11)
H27 H 0.22090 1.50170 -0.21160
H28 H 0.32280 1.49660 -0.19220
C19 C 0.2909(19) 1.561(2) -0.2727(11)
H29 H 0.23450 1.59500 -0.29220
H30 H 0.33350 1.60030 -0.27140
C20 C 0.332(2) 1.481(2) -0.3078(12)
H31 H 0.29010 1.44030 -0.30670
H32 H 0.38910 1.44860 -0.28850
C21 C 0.0017(18) -0.6793(17) -1.4369(10)
H33 H -0.00060 -0.64780 -1.47330
C22 C -0.0296(17) -0.7582(17) -1.3633(12)
H34 H -0.06050 -0.79320 -1.33980
C23 C 0.1434(15) -0.6407(17) -1.3945(13)
H35 H 0.15050 -0.61920 -1.35420
H36 H 0.12910 -0.58720 -1.42100
C24 C 0.233(3) -0.705(3) -1.414(2)
H37 H 0.22500 -0.72710 -1.45410
H38 H 0.28070 -0.67110 -1.41640
C25 C 0.262(3) -0.780(3) -1.3762(19)
H39 H 0.21200 -0.81140 -1.37290
H40 H 0.27040 -0.75690 -1.33660
C26 C 0.3551(15) -0.8543(16) -1.3947(11)
H41 H 0.36540 -0.90680 -1.36740
H42 H 0.34900 -0.87650 -1.43490
C27 C 0.4974(17) -0.8167(16) -1.4354(12)
H43 H 0.49850 -0.84770 -1.47150
C28 C 0.5264(16) -0.7364(16) -1.3621(10)
H44 H 0.55450 -0.69980 -1.33870
N1 N 0.5564(13) 0.8745(13) 0.0512(7)
N2 N 0.637(2) 0.7337(19) 0.0775(11)
N3 N 0.6015(15) 0.7812(14) 0.1267(8)
N4 N 0.868(2) 0.7684(18) 0.0759(11)
N5 N 0.9005(12) 0.7178(13) 0.1265(9)
N6 N 0.9460(12) 0.6250(13) 0.0505(8)
N7 N 0.3885(12) 0.9494(12) -0.0386(7)
N8 N 0.2401(16) 0.968(2) -0.0671(13)
N9 N 0.2993(14) 0.9108(15) -0.1050(9)
N10 N 0.1561(18) 0.9985(17) -0.3613(9)
N11 N 0.2192(17) 1.008(2) -0.4080(13)
C29 C 0.179(2) 0.992(2) -0.4635(10)
H45 H 0.20600 0.99380 -0.50130
N12 N 0.0918(19) 0.9732(19) -0.4511(11)
C30 C 0.0774(17) 0.977(2) -0.3879(12)
H46 H 0.02550 0.96760 -0.36750
N13 N 0.2584(16) 1.534(2) -0.0722(11)
N14 N 0.1111(12) 1.5502(13) -0.0420(7)
N15 N 0.1976(14) 1.5883(15) -0.1091(9)
N16 N 0.2936(15) 1.501(2) -0.4139(9)
N17 N 0.3528(15) 1.4964(18) -0.3699(8)
C31 C 0.4308(13) 1.509(2) -0.3928(10)
H47 H 0.48440 1.50870 -0.37160
N18 N 0.4198(17) 1.521(2) -0.451(1)
C32 C 0.3350(18) 1.516(2) -0.4641(10)
H48 H 0.30880 1.52220 -0.50210
N19 N -0.0584(14) -0.7259(13) -1.4169(9)
N20 N 0.0449(14) -0.7371(13) -1.3463(8)
N21 N 0.0651(12) -0.6866(12) -1.3949(8)
N22 N 0.4517(15) -0.7631(13) -1.3464(9)
N23 N 0.4367(12) -0.8113(13) -1.3928(8)
N24 N 0.5578(13) -0.7700(14) -1.4183(11)
P1A P 0.7662(3) 0.8771(3) -0.27389(18)
P2A P 0.7322(3) 0.6226(3) -0.27213(18)
W1A W 0.86202(5) 0.58074(5) -0.40594(3)
W2A W 0.82246(5) 0.39002(5) -0.22531(4)
W3A W 0.70845(6) 0.43263(5) -0.35700(4)
W4A W 0.63821(5) 0.91813(5) -0.40748(3)
W5A W 0.89152(5) 0.82357(5) -0.40914(3)
W6A W 0.79195(6) 1.06603(6) -0.36194(4)
W7A W 0.61268(5) 0.67178(6) -0.13342(3)
W8A W 0.67611(6) 1.10948(6) -0.23012(4)
W9A W 0.60865(5) 0.67519(5) -0.40674(3)
W10A W 0.49032(5) 0.71999(5) -0.27691(3)
W11A W 0.90995(5) 1.02270(6) -0.23147(4)
W12A W 1.00860(5) 0.77917(5) -0.27972(3)
W13A W 0.52295(5) 0.96169(5) -0.27628(3)
W14A W 0.58872(5) 0.47670(6) -0.22654(4)
W15A W 0.97588(5) 0.53742(5) -0.27501(3)
W16A W 0.84372(5) 0.59026(6) -0.13385(3)
W17A W 0.65410(5) 0.90985(6) -0.13540(3)
W18A W 0.88515(5) 0.82816(6) -0.13574(3)
O1A O 0.7625(9) 0.8497(9) -0.2076(6)
O3A O 0.6754(8) 0.8810(8) -0.3055(5)
O5A O 0.8494(8) 0.8157(8) -0.3064(5)
O7A O 0.7820(9) 0.9794(9) -0.2735(5)
O9A O 0.7190(9) 0.5202(9) -0.2715(5)
O10A O 0.6493(8) 0.6842(9) -0.3044(5)
O11A O 0.8250(9) 0.6177(8) -0.3044(5)
O12A O 0.7362(8) 0.6509(8) -0.2058(5)
O13A O 0.5352(9) 0.7252(9) -0.1976(5)
O14A O 0.4970(9) 0.8438(9) -0.2888(6)
O15A O 0.5651(9) 0.9235(9) -0.1977(5)
O16A O 0.887(1) 0.2878(10) -0.1952(6)
O17A O 0.5042(10) 0.4291(10) -0.1987(7)
O18A O 0.6108(10) 1.2105(10) -0.2022(6)
O19A O 0.6969(10) 0.3563(10) -0.4111(6)
O20A O 0.5676(9) 0.6682(9) -0.4763(6)
O21A O 0.6470(9) 0.7886(10) -0.1250(5)
O22A O 0.7628(10) 0.8501(9) -0.4227(6)
O23A O 0.8918(9) 1.0796(9) -0.3097(6)
O24A O 0.9338(9) 0.8284(9) -0.4796(6)
O25A O 0.6001(10) 0.9561(11) -0.4787(6)
O26A O 0.6989(10) 0.3899(10) -0.1995(6)
O27A O 0.9958(10) 1.0703(10) -0.2041(6)
O28A O 0.7077(9) 1.1483(10) -0.3086(7)
O29A O 0.8509(9) 0.7152(9) -0.1247(6)
O30A O 0.6081(9) 0.4213(9) -0.3046(5)
O31A O 0.5357(11) 0.6828(11) -0.0746(6)
O32A O 0.6034(10) 0.8045(10) -0.4059(6)
O33A O 0.9697(8) 0.5256(8) -0.3596(5)
O34A O 0.8067(9) 0.4790(9) -0.3860(6)
O35A O 0.4124(9) 1.0256(10) -0.2628(6)
O36A O 0.5296(8) 0.9754(8) -0.3624(5)
O37A O 0.8256(9) 0.4753(9) -0.1625(6)
O38A O 0.375(1) 0.7399(10) -0.2658(6)
O39A O 1.1247(9) 0.7580(9) -0.2692(6)
O40A O 0.8031(9) 1.1408(9) -0.4176(6)
O41A O 0.738(1) 0.6488(9) -0.4203(5)
O42A O 0.7915(9) 0.3545(9) -0.3037(6)
O43A O 0.9004(9) 0.5436(9) -0.4770(6)
O44A O 0.9801(9) 0.9112(9) -0.2677(6)
O45A O 1.0037(9) 0.7996(9) -0.3649(5)
O46A O 0.6720(9) 1.0270(9) -0.1665(5)
O47A O 1.0865(9) 0.4752(9) -0.2621(7)
O48A O 0.6934(9) 1.0194(9) -0.3892(5)
O49A O 0.9148(9) 0.5455(9) -0.0738(6)
O49A* O -0.0852(9) 1.5455(9) -0.0738(6)
O50A O 0.5828(9) 0.9543(9) -0.0749(5)
O51A O 0.8931(9) 0.9454(9) -0.1661(6)
O52A O 0.5190(9) 0.5878(9) -0.2638(5)
O53A O 0.8704(9) 0.9527(9) -0.3902(5)
O54A O 0.6056(9) 0.5554(9) -0.1620(6)
O55A O 0.8974(9) 0.6944(9) -0.4064(6)
O56A O 0.6291(8) 0.5467(8) -0.3860(6)
O57A O 0.5841(9) 1.0595(9) -0.2654(5)
O58A O 1.0017(9) 0.6554(9) -0.2894(5)
O59A O 0.4952(9) 0.6996(9) -0.3618(5)
O60A O 0.9150(8) 0.4404(9) -0.2630(6)
O61A O 0.7698(9) 0.8876(10) -0.0957(6)
O62A O 0.9615(10) 0.8162(10) -0.0769(6)
O63A O 0.9327(8) 0.5780(8) -0.1973(5)
O64A O 0.7262(9) 0.6146(9) -0.0920(5)
O65A O 0.9627(8) 0.7760(9) -0.2002(6)
O66A O 0.7992(9) 1.1118(9) -0.2045(7)
Fe2* Fe 1.00000 0.50000 0.00000
C1A C 0.393(2) 1.2092(18) -0.0318(11)
H1A H 0.38040 1.22460 0.00840
C2A C 0.4450(15) 1.1339(15) -0.1104(9)
H2A H 0.47410 1.08740 -0.13670
C3A C 0.3769(15) 1.2582(16) -0.1875(10)
H3A H 0.40470 1.31010 -0.19340
H4A H 0.40300 1.21180 -0.21740
C4A C 0.2740(16) 1.2899(15) -0.1952(9)
H5A H 0.24860 1.33310 -0.16340
H6A H 0.26140 1.32310 -0.23310
C5A C 0.2229(15) 1.2118(15) -0.1943(9)
H7A H 0.24690 1.16970 -0.16140
H8A H 0.23700 1.17720 -0.23130
C6A C 0.1215(18) 1.2436(18) -0.1876(11)
H9A H 0.09680 1.29080 -0.21760
H10A H 0.09320 1.19240 -0.19330
C7A C 0.103(2) 1.2897(19) -0.0318(11)
H11A H 0.11430 1.27400 0.00840
C8A C 0.0541(16) 1.3649(16) -0.1090(11)
H12A H 0.02480 1.41160 -0.13530
C9A C 0.7004(19) 1.014(3) 0.0255(13)
H13A H 0.72010 0.98010 -0.00890
C10A C 0.6121(16) 1.0934(16) 0.0878(11)
H14A H 0.55910 1.12340 0.10910
C11A C 0.734(2) 1.1184(19) 0.1616(12)
H15A H 0.78370 1.14800 0.15330
H16A H 0.68330 1.16340 0.18090
C12A C 0.7677(15) 1.0383(17) 0.2033(10)
H17A H 0.82130 0.99670 0.18480
H18A H 0.71940 1.00510 0.20730
C13A C 0.794(2) 1.0603(18) 0.2641(13)
H19A H 0.74100 1.10290 0.28250
H20A H 0.84340 1.09220 0.26030
C14A C 0.8255(18) 0.9804(19) 0.3047(10)
H21A H 0.88120 0.93990 0.28770
H22A H 0.77790 0.94600 0.30620
C15A C -0.2028(17) 1.486(2) 0.0303(12)
H23A H -0.22420 1.52130 -0.00380
C16A C -0.1132(18) 1.4045(19) 0.0909(11)
H24A H -0.06070 1.37070 0.11070
C17A C -0.233(2) 1.386(2) 0.1666(13)
H25A H -0.28290 1.35700 0.15870
H26A H -0.18330 1.34040 0.18590
C18A C -0.2674(16) 1.4629(17) 0.2093(11)
H27A H -0.22090 1.49830 0.21160
H28A H -0.32280 1.50340 0.19220
C19A C -0.2909(19) 1.439(2) 0.2727(11)
H29A H -0.23450 1.40500 0.29220
H30A H -0.33350 1.39970 0.27140
C20A C -0.332(2) 1.519(2) 0.3078(12)
H31A H -0.29010 1.55970 0.30670
H32A H -0.38910 1.55140 0.28850
N1A N 0.4436(13) 1.1255(13) -0.0512(7)
N2A N 0.363(2) 1.2663(19) -0.0775(11)
N3A N 0.3985(15) 1.2188(14) -0.1267(8)
N4A N 0.132(2) 1.2316(18) -0.0759(11)
N5A N 0.0995(12) 1.2822(13) -0.1265(9)
N6A N 0.0540(12) 1.3750(13) -0.0505(8)
N6* N -0.0540(12) 1.6250(13) 0.0505(8)
N7A N 0.6115(12) 1.0506(12) 0.0386(7)
N8A N 0.7599(16) 1.032(2) 0.0671(13)
N9A N 0.7007(14) 1.0892(15) 0.1050(9)
N10A N 0.8439(18) 1.0015(17) 0.3613(9)
N11A N 0.7808(17) 0.992(2) 0.4080(13)
C29A C 0.821(2) 1.008(2) 0.4635(10)
H45A H 0.79400 1.00620 0.50130
N12A N 0.9082(19) 1.0268(19) 0.4511(11)
C30A C 0.9226(17) 1.023(2) 0.3879(12)
H46A H 0.97450 1.03240 0.36750
N13A N -0.2584(16) 1.466(2) 0.0722(11)
N14A N -0.1111(12) 1.4498(13) 0.0420(7)
N15A N -0.1976(14) 1.4117(15) 0.1091(9)
N16A N -0.2936(15) 1.499(2) 0.4139(9)
N17A N -0.3528(15) 1.5036(18) 0.3699(8)
C31A C -0.4308(13) 1.491(2) 0.3928(10)
H47A H -0.48440 1.49130 0.37160
N18A N -0.4198(17) 1.479(2) 0.451(1)
C32A C -0.3350(18) 1.484(2) 0.4641(10)
H48A H -0.30880 1.47780 0.50210
#END
