
#######################################################################
#
#                 Cambridge Crystallographic Data Centre
#                                CCDC
#
#######################################################################
#
# If this CIF has been generated from an entry in the Cambridge
# Structural Database, then it will include bibliographic, chemical,
# crystal, experimental, refinement or atomic coordinate data resulting
# from the CCDC's data processing and validation procedures.
#
#######################################################################

data_CSD_CIF_POLPEM
_audit_creation_date 2009-03-09
_audit_creation_method CSD-ConQuest-V1
_database_code_CSD POLPEM
_database_code_depnum_ccdc_archive 'CCDC 676213'
_chemical_formula_sum 'C12 H56 Cu2 N6 O46 V10'
_chemical_formula_moiety
;
(H4 N1 1+)2n,n(C12 H28 Cu2 N4 O36 V10 2-),10n(H2 O1)
;
_journal_coden_Cambridge 1295
_journal_volume 11
_journal_year 2008
_journal_page_first 1140
_journal_name_full 'Inorg.Chem.Commun. '
loop_
_publ_author_name
"L.Klistincova"
"E.Rakovsky"
"P.Schwendt"
_chemical_name_systematic
;
catena-(di-ammonium 
bis(\m~6~-oxo)-tetrakis(\m~3~-oxo)-tetrakis(\m~2~-\b-alanine)-hexadecakis(\m~2
~-oxo)-hexaoxo-deca-vanadium-di-copper(ii) decahydrate)
;
_cell_volume   1193.582
_exptl_crystal_colour 'green'
_exptl_crystal_density_diffrn 2.305
_exptl_crystal_description 'prism'
_exptl_crystal_preparation 'ethanol'
_diffrn_ambient_temperature 100
_refine_special_details
;
One water molecule is disordered over two sites with occupancies 0.577:0.423.

;
#These two values have been output from a single CSD field.
_refine_ls_R_factor_gt 0.0293
_refine_ls_wR_factor_gt 0.0293
_symmetry_cell_setting triclinic
_symmetry_space_group_name_H-M 'P -1'
_symmetry_Int_Tables_number 2
loop_
_symmetry_equiv_pos_site_id
_symmetry_equiv_pos_as_xyz
1 x,y,z
2 -x,-y,-z
_cell_length_a 10.4546(3)
_cell_length_b 11.1659(4)
_cell_length_c 12.8258(3)
_cell_angle_alpha 110.214(3)
_cell_angle_beta 95.780(2)
_cell_angle_gamma 116.818(3)
_cell_formula_units_Z 1
loop_
_atom_type_symbol
_atom_type_radius_bond
C 0.68
H 0.23
Cu 1.09
N 0.68
O 0.68
V 1.31
loop_
_atom_site_label
_atom_site_type_symbol
_atom_site_fract_x
_atom_site_fract_y
_atom_site_fract_z
Cu1 Cu 0.39400(4) 0.01890(4) 0.46186(3)
O1 O 0.5559(2) 0.1820(2) 0.44360(17)
C1 C 0.6915(3) 0.2190(3) 0.4727(2)
O2 O 0.7402(2) 0.1533(2) 0.51379(18)
C2 C 0.8049(3) 0.3485(3) 0.4567(3)
H1 H 0.83970 0.31020 0.39090
H2 H 0.89310 0.41400 0.52790
C3 C 0.7463(3) 0.4408(3) 0.4330(2)
H3 H 0.70020 0.46920 0.49360
H4 H 0.83180 0.53390 0.43880
N1 N 0.6324(3) 0.3602(3) 0.3154(2)
H5 H 0.67770 0.34630 0.25910
H6 H 0.59190 0.41540 0.30900
H7 H 0.55830 0.27000 0.30660
O3 O 0.4393(2) 0.1517(2) 0.62555(17)
C4 C 0.5439(3) 0.1792(3) 0.7056(2)
O4 O 0.6254(2) 0.1222(2) 0.69019(17)
C5 C 0.5710(3) 0.2833(3) 0.8279(2)
H8 H 0.47770 0.24110 0.84950
H9 H 0.59180 0.37990 0.82980
C6 C 0.7000(3) 0.3126(3) 0.9189(3)
H10 H 0.79310 0.35000 0.89630
H11 H 0.71750 0.39050 0.99520
N2 N 0.6657(3) 0.1741(3) 0.9301(2)
H12 H 0.57790 0.13750 0.94770
H13 H 0.74160 0.19510 0.98790
H14 H 0.65650 0.10490 0.86140
V1 V 0.20193(5) 0.34229(5) 0.23808(4)
V2 V 0.17547(5) 0.07654(5) 0.27471(4)
V3 V 0.01893(5) 0.14371(5) -0.02033(4)
V4 V -0.11933(5) 0.07061(5) 0.17342(4)
V5 V 0.30077(5) 0.14068(5) 0.07998(4)
O5 O 0.2803(2) 0.5195(2) 0.31400(17)
O6 O 0.1131(2) 0.3230(2) 0.08073(17)
O7 O 0.3517(2) 0.3278(2) 0.17186(17)
O8 O 0.2473(2) 0.2761(2) 0.34057(16)
O9 O 0.0057(2) 0.2718(2) 0.24805(16)
O10 O 0.3217(2) 0.0935(2) 0.20519(16)
O11 O 0.2244(2) 0.0472(2) 0.38301(17)
O12 O -0.0221(2) 0.0381(2) 0.28026(16)
O13 O -0.2703(2) 0.0456(2) 0.20718(17)
O14 O -0.0544(2) 0.1384(2) -0.14706(16)
O15 O 0.1906(2) 0.1365(2) -0.05486(16)
O16 O 0.4514(2) 0.1598(2) 0.04761(18)
O17 O 0.08229(19) 0.0904(2) 0.11213(16)
O18 O -0.1617(2) 0.0799(2) 0.02425(16)
O19 O 0.4044(3) 0.3935(3) 0.5848(2)
O20 O 0.0285(3) 0.1958(4) 0.5169(3)
H15 H 0.01820 0.14470 0.44740
H16 H -0.05640 0.18200 0.52080
O21 O 0.4167(5) 0.4951(5) 0.9009(4)
O22? O 0.3508(7) 0.4140(7) 0.9278(5)
O23 O 0.1707(2) 0.6257(2) 0.81703(19)
O24 O 0.0218(3) 0.6678(3) 0.2457(2)
N3 N 0.2125(3) 0.2173(3) 0.6975(3)
H17 H 0.479(3) 0.381(5) 0.588(3)
H18 H 0.357(4) 0.355(5) 0.5126(13)
H19 H 0.114(4) 0.646(4) 0.785(3)
H20 H 0.119(4) 0.5323(12) 0.790(4)
H21 H 0.111(2) 0.711(4) 0.288(3)
H22 H 0.026(4) 0.716(4) 0.206(3)
H23 H 0.259(3) 0.304(2) 0.7646(16)
H24 H 0.159(3) 0.136(2) 0.709(3)
H25 H 0.151(3) 0.222(3) 0.644(2)
H26 H 0.286(3) 0.209(3) 0.665(3)
Cu1A Cu 0.60600(4) -0.01890(4) 0.53814(3)
Cu1A* Cu -0.39400(4) -0.01890(4) -0.46186(3)
O1A O 0.4441(2) -0.1820(2) 0.55640(17)
C1A C 0.3085(3) -0.2190(3) 0.5273(2)
O2A O 0.2598(2) -0.1533(2) 0.48621(18)
C2A C 0.1951(3) -0.3485(3) 0.5433(3)
H1A H 0.16030 -0.31020 0.60910
H2A H 0.10690 -0.41400 0.47210
C3A C 0.2537(3) -0.4408(3) 0.5670(2)
H3A H 0.29980 -0.46920 0.50640
H4A H 0.16820 -0.53390 0.56120
N1A N 0.3676(3) -0.3602(3) 0.6846(2)
H5A H 0.32230 -0.34630 0.74090
H6A H 0.40810 -0.41540 0.69100
H7A H 0.44170 -0.27000 0.69340
O3A O 0.5607(2) -0.1517(2) 0.37445(17)
C4A C 0.4561(3) -0.1792(3) 0.2944(2)
O4A O 0.3746(2) -0.1222(2) 0.30981(17)
C5A C 0.4290(3) -0.2833(3) 0.1721(2)
H8A H 0.52230 -0.24110 0.15050
H9A H 0.40820 -0.37990 0.17020
C6A C 0.3000(3) -0.3126(3) 0.0811(3)
H10A H 0.20690 -0.35000 0.10370
H11A H 0.28250 -0.39050 0.00480
N2A N 0.3343(3) -0.1741(3) 0.0699(2)
H12A H 0.42210 -0.13750 0.05230
H13A H 0.25840 -0.19510 0.01210
H14A H 0.34350 -0.10490 0.13860
V1A V -0.20193(5) -0.34229(5) -0.23808(4)
V2A V -0.17547(5) -0.07654(5) -0.27471(4)
V3A V -0.01893(5) -0.14371(5) 0.02033(4)
V4A V 0.11933(5) -0.07061(5) -0.17342(4)
V5A V -0.30077(5) -0.14068(5) -0.07998(4)
O5A O -0.2803(2) -0.5195(2) -0.31400(17)
O6A O -0.1131(2) -0.3230(2) -0.08073(17)
O7A O -0.3517(2) -0.3278(2) -0.17186(17)
O8A O -0.2473(2) -0.2761(2) -0.34057(16)
O9A O -0.0057(2) -0.2718(2) -0.24805(16)
O10A O -0.3217(2) -0.0935(2) -0.20519(16)
O11A O -0.2244(2) -0.0472(2) -0.38301(17)
O11A* O 0.7756(2) -0.0472(2) 0.61699(17)
O12A O 0.0221(2) -0.0381(2) -0.28026(16)
O13A O 0.2703(2) -0.0456(2) -0.20718(17)
O14A O 0.0544(2) -0.1384(2) 0.14706(16)
O15A O -0.1906(2) -0.1365(2) 0.05486(16)
O16A O -0.4514(2) -0.1598(2) -0.04761(18)
O17A O -0.08229(19) -0.0904(2) -0.11213(16)
O18A O 0.1617(2) -0.0799(2) -0.02425(16)
#END
