
#######################################################################
#
#                 Cambridge Crystallographic Data Centre
#                                CCDC
#
#######################################################################
#
# If this CIF has been generated from an entry in the Cambridge
# Structural Database, then it will include bibliographic, chemical,
# crystal, experimental, refinement or atomic coordinate data resulting
# from the CCDC's data processing and validation procedures.
#
#######################################################################

data_CSD_CIF_POMLAG03
_audit_creation_date 2017-03-24
_audit_creation_method CSD-ConQuest-V1
_database_code_CSD POMLAG03
_database_code_depnum_ccdc_archive 'CCDC 1540132'
_chemical_formula_sum 'C35 H67 Cu2 N3 O16'
_chemical_formula_moiety
;
(C8 H1 Cu2 O16 3-)n,3(C9 H22 N1 1+)
;
_journal_coden_Cambridge 1078
_journal_year 2017
_journal_name_full 'CSD Communication(Private Communication) '
loop_
_publ_author_name
"Bin Zhang"
_chemical_name_systematic
;
catena-[tris(N,N,N-tripropylaminium) bis(\m~2~-oxalato)-(hydrogen 
oxalato)-(oxalato)-di-copper]
;
_cell_volume   4437.436
_exptl_crystal_colour 'blue'
_exptl_crystal_density_diffrn 1.367
_exptl_crystal_description 'plate'
_diffrn_ambient_temperature 120
#These two values have been output from a single CSD field.
_refine_ls_R_factor_gt 0.0435
_refine_ls_wR_factor_gt 0.0435
_symmetry_cell_setting monoclinic
_symmetry_space_group_name_H-M 'P 21/n'
_symmetry_Int_Tables_number 14
loop_
_symmetry_equiv_pos_site_id
_symmetry_equiv_pos_as_xyz
1 x,y,z
2 1/2-x,1/2+y,1/2-z
3 -x,-y,-z
4 -1/2+x,-1/2-y,-1/2+z
_cell_length_a 9.3783(2)
_cell_length_b 21.8365(5)
_cell_length_c 21.6778(8)
_cell_angle_alpha 90
_cell_angle_beta 91.696(3)
_cell_angle_gamma 90
_cell_formula_units_Z 4
loop_
_atom_type_symbol
_atom_type_radius_bond
C 0.68
H 0.23
Cu 1.32
N 0.68
O 0.68
loop_
_atom_site_label
_atom_site_type_symbol
_atom_site_fract_x
_atom_site_fract_y
_atom_site_fract_z
C1 C 0.5786(3) 0.38673(13) 0.15294(13)
H1 H 0.57840 0.43200 0.15460
H2 H 0.50420 0.37190 0.18070
C2 C 0.5398(3) 0.36677(14) 0.08752(14)
H3 H 0.59800 0.38970 0.05800
H4 H 0.56020 0.32260 0.08270
C3 C 0.3827(4) 0.37878(19) 0.07385(18)
H5 H 0.35820 0.36600 0.03150
H6 H 0.36310 0.42260 0.07850
H7 H 0.32540 0.35550 0.10270
C4 C 0.8436(3) 0.38014(12) 0.13664(13)
H8 H 0.83160 0.35810 0.09690
H9 H 0.93300 0.36530 0.15700
C5 C 0.8594(3) 0.44814(13) 0.12322(14)
H10 H 0.85810 0.47160 0.16230
H11 H 0.77850 0.46220 0.09650
C6 C 0.9995(4) 0.45957(18) 0.09115(19)
H12 H 1.00130 0.43550 0.05300
H13 H 1.07950 0.44740 0.11860
H14 H 1.00770 0.50320 0.08130
C7 C 0.7486(3) 0.38288(12) 0.24260(12)
H15 H 0.73710 0.42780 0.24610
H16 H 0.84830 0.37270 0.25490
C8 C 0.6484(3) 0.35161(13) 0.28641(13)
H17 H 0.54980 0.36640 0.27830
H18 H 0.64990 0.30680 0.27920
C9 C 0.6924(4) 0.36490(17) 0.35288(14)
H19 H 0.68890 0.40920 0.36020
H20 H 0.78980 0.35000 0.36100
H21 H 0.62710 0.34410 0.38040
N1 N 0.7212(2) 0.36402(10) 0.17663(10)
H22 H 0.71510 0.31830 0.17670
C10 C 0.0764(3) 0.64518(14) 0.15110(15)
H23 H 0.07800 0.60030 0.15720
H24 H 0.00320 0.66230 0.17820
C11 C 0.0339(4) 0.65801(18) 0.08669(19)
H25 H 0.08950 0.63220 0.05860
H26 H 0.05220 0.70150 0.07690
C12 C -0.1292(5) 0.6435(2) 0.0784(3)
H27 H -0.16340 0.65740 0.03760
H28 H -0.18190 0.66470 0.11040
H29 H -0.14430 0.59920 0.08190
C13 C 0.3392(3) 0.64978(13) 0.13121(13)
H30 H 0.42990 0.66640 0.14870
H31 H 0.32460 0.66750 0.08940
C14 C 0.3538(3) 0.58082(13) 0.12519(15)
H32 H 0.27230 0.56430 0.10040
H33 H 0.35340 0.56160 0.16660
C15 C 0.4930(4) 0.56580(17) 0.09394(17)
H34 H 0.49460 0.58630 0.05370
H35 H 0.50020 0.52140 0.08810
H36 H 0.57370 0.58010 0.11990
C16 C 0.2519(3) 0.65796(13) 0.23814(13)
H37 H 0.35250 0.66900 0.24790
H38 H 0.24070 0.61360 0.24600
C17 C 0.1559(3) 0.69331(15) 0.28052(14)
H39 H 0.06050 0.67390 0.28040
H40 H 0.14450 0.73580 0.26520
C18 C 0.2184(4) 0.69447(18) 0.34603(16)
H41 H 0.31030 0.71590 0.34660
H42 H 0.23250 0.65240 0.36080
H43 H 0.15280 0.71590 0.37300
N2 N 0.2192(2) 0.67065(10) 0.17086(11)
H44 H 0.21270 0.71610 0.16630
C19 C 0.6409(3) 0.63828(13) 0.48893(13)
H45 H 0.64540 0.64090 0.53450
H46 H 0.56400 0.60910 0.47720
C20 C 0.6022(3) 0.70068(15) 0.46315(15)
H47 H 0.60930 0.70010 0.41770
H48 H 0.67010 0.73160 0.47990
C21 C 0.4516(3) 0.71806(16) 0.48007(16)
H49 H 0.38350 0.69000 0.45970
H50 H 0.43150 0.76010 0.46650
H51 H 0.44240 0.71530 0.52490
C22 C 0.9040(3) 0.65750(14) 0.47398(14)
H52 H 0.99050 0.63730 0.45860
H53 H 0.88400 0.69360 0.44750
C23 C 0.9347(3) 0.67929(14) 0.53897(14)
H54 H 0.96180 0.64410 0.56560
H55 H 0.84840 0.69850 0.55570
C24 C 1.0573(3) 0.72611(15) 0.53872(16)
H56 H 1.02930 0.76120 0.51290
H57 H 1.14250 0.70690 0.52210
H58 H 1.07840 0.74010 0.58100
C25 C 0.8172(3) 0.55247(13) 0.49686(13)
H59 H 0.83830 0.55890 0.54140
H60 H 0.90460 0.53640 0.47820
C26 C 0.6994(3) 0.50517(13) 0.48944(13)
H61 H 0.65600 0.50760 0.44730
H62 H 0.62400 0.51330 0.51940
C27 C 0.7621(3) 0.44164(13) 0.50049(14)
H63 H 0.83710 0.43400 0.47090
H64 H 0.68680 0.41080 0.49510
H65 H 0.80280 0.43920 0.54260
N3 N 0.7799(2) 0.61340(11) 0.46739(11)
H66 H 0.76610 0.60540 0.42220
C28 C 1.3435(3) -0.17071(12) 0.20831(12)
C29 C 1.2169(3) -0.16127(12) 0.16150(12)
O1 O 1.3769(2) -0.13004(8) 0.24464(9)
O2 O 1.18702(18) -0.10621(8) 0.14848(8)
O3 O 1.4043(2) -0.22341(8) 0.2032(1)
O4 O 1.15670(19) -0.20724(8) 0.13946(9)
C30 C 1.0188(3) 0.00764(11) 0.22863(12)
C31 C 1.0462(3) 0.04437(11) 0.16887(12)
O5 O 0.90288(18) 0.01762(8) 0.25493(8)
O6 O 0.94633(18) 0.08154(8) 0.15303(8)
O7 O 1.11217(18) -0.02930(8) 0.24787(8)
O8 O 1.15903(19) 0.03603(9) 0.14267(9)
C32 C 0.5165(3) 0.02642(11) 0.22991(12)
C33 C 0.5466(3) -0.00177(11) 0.16561(12)
O9 O 0.61184(18) 0.05791(8) 0.25657(8)
O10 O 0.66054(19) 0.01108(8) 0.14161(9)
O11 O 0.39618(18) 0.01545(8) 0.25128(8)
O12 O 0.44951(18) -0.03707(8) 0.14414(8)
Cu1 Cu 1.28151(3) -0.03965(2) 0.19619(2)
Cu2 Cu 0.78375(3) 0.07675(2) 0.20860(2)
H67 H 1.498(5) -0.230(2) 0.238(2)
C34 C 0.8369(3) 0.20704(11) 0.22618(12)
C35 C 0.7140(3) 0.19803(11) 0.17753(12)
O13 O 0.8698(2) 0.16444(8) 0.26106(9)
O14 O 0.68200(18) 0.14306(8) 0.16412(8)
O15 O 0.8953(2) 0.25994(8) 0.2240(1)
O16 O 0.6548(2) 0.24354(8) 0.15477(9)
O11* O 1.39618(18) 0.01545(8) 0.25128(8)
O12* O 1.44951(18) -0.03707(8) 0.14414(8)
Cu1* Cu 0.28151(3) -0.03965(2) 0.19619(2)
#END
