
#######################################################################
#
#                 Cambridge Crystallographic Data Centre
#                                CCDC
#
#######################################################################
#
# If this CIF has been generated from an entry in the Cambridge
# Structural Database, then it will include bibliographic, chemical,
# crystal, experimental, refinement or atomic coordinate data resulting
# from the CCDC's data processing and validation procedures.
#
#######################################################################

data_CSD_CIF_POMLAG
_audit_creation_date 2014-10-23
_audit_creation_method CSD-ConQuest-V1
_database_code_CSD POMLAG
_database_code_depnum_ccdc_archive 'CCDC 1030699'
_chemical_formula_sum 'C35 H67 Cu2 N3 O16'
_chemical_formula_moiety
;
3(C9 H22 N1 1+),n(C8 H1 Cu2 O16 3-)
;
_journal_coden_Cambridge 1078
_journal_year 2014
_journal_name_full 'CSD Communication(Private Communication) '
loop_
_publ_author_name
"Bin Zhang"
_chemical_name_systematic
;
catena-[tris(N,N,N-tripropylaminium) bis(\m~2~-oxalato)-(hydrogen 
oxalato)-(oxalato)-di-copper]
;
_cell_volume   4407.255
_exptl_crystal_colour 'blue'
_exptl_crystal_density_diffrn 1.374
_exptl_special_details
;
A ligand H atom has been added in the 2D diagram to balance the charges

;
_exptl_crystal_description 'needle'
_diffrn_ambient_temperature 100
_diffrn_radiation_probe x-ray
_diffrn_source synchrotron
#These two values have been output from a single CSD field.
_refine_ls_R_factor_gt 0.0556
_refine_ls_wR_factor_gt 0.0556
_symmetry_cell_setting monoclinic
_symmetry_space_group_name_H-M 'P 21/n'
_symmetry_Int_Tables_number 14
loop_
_symmetry_equiv_pos_site_id
_symmetry_equiv_pos_as_xyz
1 x,y,z
2 1/2-x,1/2+y,1/2-z
3 -x,-y,-z
4 -1/2+x,-1/2-y,-1/2+z
_cell_length_a 9.377(1)
_cell_length_b 21.783(1)
_cell_length_c 21.589(1)
_cell_angle_alpha 90
_cell_angle_beta 91.928(1)
_cell_angle_gamma 90
_cell_formula_units_Z 4
loop_
_atom_type_symbol
_atom_type_radius_bond
C 0.68
H 0.23
Cu 1.32
N 0.68
O 0.68
loop_
_atom_site_label
_atom_site_type_symbol
_atom_site_fract_x
_atom_site_fract_y
_atom_site_fract_z
Cu1 Cu 0.78153(3) 0.039540(15) 0.696082(16)
Cu2 Cu 1.28389(3) -0.076902(15) 0.709106(16)
O1 O 0.9040(2) 0.22343(9) 0.70287(11)
O2 O 0.6563(2) 0.20728(9) 0.63921(10)
O3 O 0.8770(2) 0.12979(9) 0.74446(10)
O4 O 0.6858(2) 0.10608(9) 0.64782(9)
O5 O 1.6120(2) 0.02921(9) 0.74835(9)
O6 O 0.9495(2) 0.03667(9) 0.64372(10)
O7 O 0.8974(2) -0.01552(9) 0.75176(9)
O8 O 1.1602(2) -0.01132(9) 0.64174(10)
O9 O 1.1120(2) -0.05793(9) 0.75707(9)
O10 O 1.4045(2) -0.01789(9) 0.75561(9)
O11 O 1.4469(2) -0.08175(9) 0.65291(9)
O12 O 1.1817(2) -0.14321(9) 0.66430(9)
O13 O 1.3699(2) -0.16474(9) 0.7614(1)
O14 O 1.1550(2) -0.24390(9) 0.65484(10)
O15 O 1.3949(2) -0.26033(9) 0.72411(11)
O16 O 1.6583(2) -0.03617(9) 0.64269(10)
C1 C 0.8428(3) 0.17087(12) 0.70764(13)
C2 C 0.7160(3) 0.16145(12) 0.66075(13)
C3 C 1.0163(3) -0.02649(12) 0.73003(13)
C4 C 1.0469(3) 0.00169(12) 0.66586(13)
C5 C 1.3369(3) -0.20761(12) 0.72650(13)
C6 C 1.2140(3) -0.19840(12) 0.67793(13)
C7 C 1.5460(3) -0.04467(12) 0.66906(13)
C8 C 1.5190(3) -0.00776(12) 0.72887(12)
N1 N 0.7799(3) 0.11316(12) 0.46699(12)
H1 H 0.76690 0.10570 0.42480
C9 C 0.6407(3) 0.13831(14) 0.48868(14)
H2 H 0.64570 0.14120 0.53450
H3 H 0.56360 0.10900 0.47710
C10 C 0.6020(4) 0.20058(16) 0.46245(16)
H4 H 0.60820 0.19970 0.41680
H5 H 0.67030 0.23170 0.47890
C11 C 0.4519(4) 0.21806(17) 0.47968(18)
H6 H 0.38350 0.18930 0.46030
H7 H 0.43070 0.25980 0.46510
H8 H 0.44430 0.21640 0.52480
C12 C 0.8167(3) 0.05228(13) 0.49648(14)
H9 H 0.83850 0.05880 0.54120
H10 H 0.90400 0.03610 0.47770
C13 C 0.6998(3) 0.00482(14) 0.48940(15)
H11 H 0.65570 0.00700 0.44710
H12 H 0.62480 0.01300 0.51960
C14 C 0.7627(3) -0.05860(14) 0.50064(14)
H13 H 0.83900 -0.06590 0.47160
H14 H 0.68800 -0.08960 0.49430
H15 H 0.80170 -0.06120 0.54320
C15 C 0.9037(3) 0.15739(15) 0.47384(15)
H16 H 0.99040 0.13720 0.45860
H17 H 0.88370 0.19360 0.44720
C16 C 0.9338(3) 0.17902(15) 0.53914(15)
H18 H 0.96080 0.14370 0.56590
H19 H 0.84740 0.19830 0.55570
C17 C 1.0568(4) 0.22600(16) 0.53888(19)
H20 H 1.02990 0.26050 0.51170
H21 H 1.14270 0.20630 0.52360
H22 H 1.07590 0.24110 0.58110
N2 N 0.7190(3) 0.32978(11) 0.67044(12)
H23 H 0.71290 0.28730 0.66640
C18 C 0.5767(3) 0.35501(15) 0.64975(18)
H24 H 0.50320 0.33800 0.67680
H25 H 0.57810 0.40010 0.65570
C19 C 0.5346(5) 0.3421(2) 0.5858(2)
H26 H 0.55320 0.29850 0.57610
H27 H 0.59010 0.36790 0.55760
C20 C 0.3708(6) 0.3565(2) 0.5770(3)
H28 H 0.33730 0.34300 0.53570
H29 H 0.35510 0.40070 0.58120
H30 H 0.31790 0.33460 0.60850
C21 C 0.8391(3) 0.35017(14) 0.63095(14)
H31 H 0.82520 0.33190 0.58920
H32 H 0.92980 0.33380 0.64910
C22 C 0.8529(4) 0.41932(15) 0.62421(17)
H33 H 0.85020 0.43900 0.66550
H34 H 0.77200 0.43530 0.59840
C23 C 0.9936(5) 0.4348(2) 0.59398(19)
H35 H 0.99780 0.41370 0.55400
H36 H 1.07360 0.42140 0.62110
H37 H 0.99960 0.47920 0.58750
C24 C 0.7517(3) 0.34244(14) 0.73755(14)
H38 H 0.74100 0.38700 0.74540
H39 H 0.85210 0.33120 0.74760
C25 C 0.6549(4) 0.30724(16) 0.77974(16)
H40 H 0.64290 0.26470 0.76430
H41 H 0.55980 0.32690 0.77940
C26 C 0.7176(4) 0.30597(19) 0.84550(17)
H42 H 0.80900 0.28420 0.84620
H43 H 0.65160 0.28480 0.87250
H44 H 0.73250 0.34810 0.86030
N3 N 0.2784(3) 0.1356(1) 0.82380(11)
H45 H 0.28370 0.17820 0.82370
C27 C 0.1556(3) 0.11937(14) 0.86344(15)
H46 H 0.06620 0.13370 0.84240
H47 H 0.16640 0.14190 0.90320
C28 C 0.1414(4) 0.05148(15) 0.87733(16)
H48 H 0.22140 0.03800 0.90520
H49 H 0.14500 0.02760 0.83840
C29 C -0.0012(5) 0.0399(2) 0.9084(2)
H50 H -0.08020 0.04880 0.87880
H51 H -0.00820 0.06670 0.94460
H52 H -0.00620 -0.00310 0.92150
C30 C 0.2514(3) 0.11659(12) 0.75746(13)
H53 H 0.15170 0.12680 0.74480
H54 H 0.26280 0.07150 0.75410
C31 C 0.3515(3) 0.14769(14) 0.71371(14)
H55 H 0.35030 0.19260 0.72090
H56 H 0.45000 0.13280 0.72210
C32 C 0.3076(4) 0.13446(18) 0.64705(15)
H57 H 0.37460 0.15440 0.61960
H58 H 0.21130 0.15040 0.63840
H59 H 0.30860 0.09000 0.64000
C33 C 0.4210(3) 0.11323(14) 0.84725(15)
H60 H 0.49500 0.12860 0.81950
H61 H 0.42210 0.06780 0.84530
C34 C 0.4591(4) 0.13302(16) 0.91293(15)
H62 H 0.40160 0.10960 0.94240
H63 H 0.43770 0.17720 0.91800
C35 C 0.6170(4) 0.1215(2) 0.9265(2)
H64 H 0.67340 0.14470 0.89710
H65 H 0.63730 0.07760 0.92230
H66 H 0.64210 0.13480 0.96880
Cu1* Cu 1.78153(3) 0.039540(15) 0.696082(16)
O5* O 0.6120(2) 0.02921(9) 0.74835(9)
O16* O 0.6583(2) -0.03617(9) 0.64269(10)
#END
