
#######################################################################
#
#                 Cambridge Crystallographic Data Centre
#                                CCDC
#
#######################################################################
#
# If this CIF has been generated from an entry in the Cambridge
# Structural Database, then it will include bibliographic, chemical,
# crystal, experimental, refinement or atomic coordinate data resulting
# from the CCDC's data processing and validation procedures.
#
#######################################################################

data_CSD_CIF_PONJEI
_audit_creation_date 2009-03-09
_audit_creation_method CSD-ConQuest-V1
_database_code_CSD PONJEI
_database_code_depnum_ccdc_archive 'CCDC 1236747'
_chemical_formula_sum 'C2 H2 K1 Np1 O6'
_chemical_formula_moiety
;
(K1 1+)n,n(C2 H2 Np1 O6 1-)
;
_journal_coden_Cambridge 513
_journal_volume 50
_journal_year 2008
_journal_page_first 31
_journal_name_full 'Radiokhimiya(Russ.)(Radiochem.) '
loop_
_publ_author_name
"I.A.Charushnokova"
"N.N.Krot"
"Z.A.Starikova"
"F.M.Dolgushin"
"I.N.Polyakova"
_chemical_name_systematic
;
catena-(Potassium bis(\m~2~-formato)-dioxo-neptunium(v))
;
_cell_volume    327.497
_exptl_crystal_colour 'green-blue'
_exptl_crystal_density_diffrn 4.037
_exptl_special_details
;
a=4.375(1), b=6.932(1), c=10.803(3), beta=91,46(2), sp.grp=I2/m

;
_exptl_crystal_description 'prism'
_diffrn_ambient_temperature 295
#These two values have been output from a single CSD field.
_refine_ls_R_factor_gt 0.0387
_refine_ls_wR_factor_gt 0.0387
_symmetry_cell_setting monoclinic
_symmetry_space_group_name_H-M 'C 2/m'
_symmetry_Int_Tables_number 12
loop_
_symmetry_equiv_pos_site_id
_symmetry_equiv_pos_as_xyz
1 x,y,z
2 1/2+x,1/2+y,z
3 -x,y,-z
4 1/2-x,1/2+y,-z
5 -x,-y,-z
6 -1/2-x,-1/2-y,-z
7 x,-y,z
8 -1/2+x,-1/2-y,z
_cell_length_a 11.551(3)
_cell_length_b 6.9325(14)
_cell_length_c 4.3746(13)
_cell_angle_alpha 90
_cell_angle_beta 110.79(2)
_cell_angle_gamma 90
_cell_formula_units_Z 2
loop_
_atom_type_symbol
_atom_type_radius_bond
C 0.68
H 0.23
K 1.33
Np 1.56
O 0.68
loop_
_atom_site_label
_atom_site_type_symbol
_atom_site_fract_x
_atom_site_fract_y
_atom_site_fract_z
Np1 Np 0.00000 0.00000 -1.00000
O1 O 0.00000 -0.2636(8) -1.00000
O2 O 0.1190(4) 0.00000 -0.3771(12)
O3 O 0.2403(5) 0.00000 -1.6584(14)
C1 C 0.2241(5) 0.00000 -1.3928(14)
H1 H 0.29270 0.00000 -1.20000
K1 K 0.00000 -0.50000 -0.50000
Np1* Np 0.00000 0.00000 0.00000
Np1** Np 0.00000 0.00000 -2.00000
O1F O 0.00000 0.2636(8) -1.00000
O2* O 0.1190(4) 0.00000 -1.3771(12)
O2D O -0.1190(4) 0.00000 -1.6229(12)
O2D* O -0.1190(4) 0.00000 -0.6229(12)
O3* O 0.2403(5) 0.00000 -0.6584(14)
O3D O -0.2403(5) 0.00000 -1.3416(14)
C1* C 0.2241(5) 0.00000 -0.3928(14)
H1* H 0.29270 0.00000 -0.20000
#END
