
#######################################################################
#
#                 Cambridge Crystallographic Data Centre
#                                CCDC
#
#######################################################################
#
# If this CIF has been generated from an entry in the Cambridge
# Structural Database, then it will include bibliographic, chemical,
# crystal, experimental, refinement or atomic coordinate data resulting
# from the CCDC's data processing and validation procedures.
#
#######################################################################

data_CSD_CIF_POPNOA
_audit_creation_date 2019-09-03
_audit_creation_method CSD-ConQuest-V1
_database_code_CSD POPNOA
_database_code_depnum_ccdc_archive 'CCDC 1903198'
_chemical_formula_sum 'C68 H74 N4 O30 P8 U3'
_chemical_formula_moiety
;
(C50 H40 O30 P8 U3 2-)n,2(C9 H17 N2 1+)
;
_journal_coden_Cambridge 1220
_journal_year 2019
_journal_name_full 'Chem.-Eur.J. '
loop_
_publ_author_name
"Yi Wang"
"Xiangxiang Wang"
"Yan Huang"
"Fan Zhou"
"Chao Qi"
"Tao Zheng"
"Jiansheng Li"
"Zhifang Chai"
"Shuao Wang"
_chemical_name_systematic
;
catena-[bis(3-butyl-1,2-dimethyl-1H-imidazol-3-ium) 
bis(\m-[methanetetrayltetra(4,1-phenylene)]tetrakis[hydrogen 
;
_cell_volume   7909.836
_exptl_crystal_colour 'yellow'
_exptl_crystal_density_diffrn 2.0
_exptl_crystal_description 'block'
_diffrn_ambient_temperature 293
#These two values have been output from a single CSD field.
_refine_ls_R_factor_gt 0.0332
_refine_ls_wR_factor_gt 0.0332
_symmetry_cell_setting monoclinic
_symmetry_space_group_name_H-M 'C 2/c'
_symmetry_Int_Tables_number 15
loop_
_symmetry_equiv_pos_site_id
_symmetry_equiv_pos_as_xyz
1 x,y,z
2 -x,y,1/2-z
3 1/2+x,1/2+y,z
4 1/2-x,1/2+y,1/2-z
5 -x,-y,-z
6 x,-y,-1/2+z
7 -1/2-x,-1/2-y,-z
8 -1/2+x,-1/2-y,-1/2+z
_cell_length_a 21.8092(16)
_cell_length_b 13.8175(10)
_cell_length_c 28.020(2)
_cell_angle_alpha 90
_cell_angle_beta 110.485(2)
_cell_angle_gamma 90
_cell_formula_units_Z 4
loop_
_atom_type_symbol
_atom_type_radius_bond
C 0.68
H 0.23
N 0.68
O 0.68
P 1.05
U 1.96
loop_
_atom_site_label
_atom_site_type_symbol
_atom_site_fract_x
_atom_site_fract_y
_atom_site_fract_z
U1 U 0.84711(2) 0.60008(2) 0.53457(2)
O1 O 0.95613(17) 0.5503(3) 0.43947(13)
C1 C 0.8503(2) 0.4314(4) 0.39613(16)
P1 P 0.91710(6) 0.47079(9) 0.45106(4)
U2 U 0.50000 -0.13203(2) 0.25000
O2 O 0.88887(16) 0.4990(3) 0.49094(12)
C2 C 0.7864(2) 0.4469(4) 0.39325(17)
H1 H 0.77815 0.47495 0.42055
P2 P 0.55064(7) 0.04206(9) 0.35327(4)
P3 P 0.76313(6) 0.21114(9) 0.08361(4)
O3 O 0.95815(18) 0.3758(3) 0.46977(14)
C3 C 0.7349(2) 0.4208(3) 0.35003(17)
H2 H 0.69226 0.43212 0.34865
P4 P 0.48991(8) 0.66996(11) 0.15741(6)
O4 O 0.5066(2) -0.0169(3) 0.31061(13)
C4 C 0.7451(2) 0.3781(3) 0.30863(16)
O5 O 0.6013(2) -0.0172(3) 0.39232(13)
C5 C 0.8089(3) 0.3614(4) 0.31220(19)
H3 H 0.81708 0.33111 0.28537
O6 O 0.5104(2) 0.1037(3) 0.37800(18)
C6 C 0.8610(3) 0.3886(4) 0.3549(2)
H4 H 0.90357 0.37816 0.35596
O7 O 0.8099(2) 0.1249(3) 0.10157(17)
C7 C 0.5912(2) 0.1320(3) 0.32861(16)
O8 O 0.70290(18) 0.1769(3) 0.04093(12)
C8 C 0.5625(3) 0.2200(4) 0.3132(2)
H5 H 0.52278 0.23392 0.31706
C9 C 0.5919(3) 0.2901(4) 0.2917(2)
H6 H 0.57197 0.35002 0.28237
O9 O 0.7957(2) 0.2962(3) 0.06953(13)
C10 C 0.6496(2) 0.2708(3) 0.28453(15)
O10 O 0.4268(2) 0.6236(4) 0.1358(3)
C11 C 0.6505(3) 0.1143(4) 0.3232(2)
H7 H 0.67122 0.05518 0.33373
O11 O 0.4959(3) 0.7523(4) 0.19125(18)
C12 C 0.6801(3) 0.1831(4) 0.3022(2)
H8 H 0.72089 0.17022 0.30001
O12 O 0.5128(3) 0.7025(5) 0.1125(2)
C13 C 0.7425(3) 0.3662(4) 0.19971(19)
H9 H 0.75664 0.42594 0.21479
C14 C 0.7038(2) 0.3081(3) 0.21834(15)
C15 C 0.6820(3) 0.2215(4) 0.19385(19)
H10 H 0.65585 0.18136 0.20527
O13 O 0.5869(2) -0.1297(4) 0.26867(19)
C16 C 0.6987(3) 0.1933(4) 0.15218(19)
H11 H 0.68210 0.13570 0.13550
O14 O 0.91510(16) 0.6803(2) 0.54730(13)
C17 C 0.7388(2) 0.2485(3) 0.13545(15)
O15 O 0.78044(18) 0.5185(3) 0.52208(15)
C18 C 0.7601(3) 0.3367(4) 0.15927(18)
H12 H 0.78658 0.37637 0.14784
C19 C 0.6385(2) 0.4331(3) 0.23861(16)
C20 C 0.6507(3) 0.5279(4) 0.2532(2)
H13 H 0.68913 0.54426 0.27955
C21 C 0.6058(3) 0.6004(4) 0.2290(2)
H14 H 0.61436 0.66415 0.23988
C22 C 0.5491(3) 0.5784(4) 0.1891(2)
C23 C 0.5811(3) 0.4127(4) 0.19819(19)
H15 H 0.57210 0.34917 0.18698
C24 C 0.5370(3) 0.4848(4) 0.1744(2)
H16 H 0.49866 0.46883 0.14786
C25 C 0.6848(2) 0.3475(3) 0.26270(16)
N1 N 0.6467(3) 0.4543(5) 0.5018(4)
N2 N 0.6549(3) 0.3077(5) 0.4793(3)
C26 C 0.6673(6) 0.3362(9) 0.5703(4)
H17 H 0.63507 0.28889 0.57025
H18 H 0.66369 0.39135 0.58995
H19 H 0.71022 0.30858 0.58491
C27 C 0.6447(5) 0.5437(8) 0.5264(6)
H20 H 0.66178 0.59470 0.51072
H21 H 0.67255 0.53944 0.56193
C28 C 0.5774(5) 0.5688(9) 0.5230(5)
H22 H 0.55872 0.51459 0.53516
H23 H 0.55085 0.57983 0.48760
C29 C 0.5751(5) 0.6559(9) 0.5530(4)
H24 H 0.60408 0.64538 0.58782
H25 H 0.59260 0.70983 0.53967
C30 C 0.5111(5) 0.6847(8) 0.5543(4)
H26 H 0.48225 0.69909 0.52033
H27 H 0.51602 0.74103 0.57531
H28 H 0.49315 0.63275 0.56798
C31 C 0.6623(6) 0.2032(6) 0.4791(4)
H29 H 0.66315 0.18283 0.44662
H30 H 0.62614 0.17291 0.48531
H31 H 0.70245 0.18476 0.50537
C32 C 0.6379(5) 0.4513(8) 0.4466(5)
H32 H 0.63016 0.50389 0.42463
C33 C 0.6430(6) 0.3599(10) 0.4349(4)
H33 H 0.63927 0.33547 0.40304
C34 C 0.6564(4) 0.3668(7) 0.5173(4)
U1A U 0.15289(2) 0.60008(2) -0.03457(2)
O1A O 0.04387(17) 0.5503(3) 0.06053(13)
C1A C 0.1497(2) 0.4314(4) 0.10387(16)
P1A P 0.08290(6) 0.47079(9) 0.04894(4)
O2A O 0.11113(16) 0.4990(3) 0.00906(12)
C2A C 0.2136(2) 0.4469(4) 0.10675(17)
H1A H 0.22185 0.47495 0.07945
P2A P 0.44936(7) 0.04206(9) 0.14673(4)
P3A P 0.23687(6) 0.21114(9) 0.41639(4)
O3A O 0.04185(18) 0.3758(3) 0.03023(14)
C3A C 0.2651(2) 0.4208(3) 0.14997(17)
H2A H 0.30774 0.43212 0.15135
P4A P 0.51009(8) 0.66996(11) 0.34259(6)
O4A O 0.4934(2) -0.0169(3) 0.18939(13)
C4A C 0.2549(2) 0.3781(3) 0.19137(16)
O5A O 0.3987(2) -0.0172(3) 0.10768(13)
C5A C 0.1911(3) 0.3614(4) 0.18780(19)
H3A H 0.18292 0.33111 0.21463
O6A O 0.4896(2) 0.1037(3) 0.12200(18)
C6A C 0.1390(3) 0.3886(4) 0.1451(2)
H4A H 0.09643 0.37816 0.14404
O7A O 0.1901(2) 0.1249(3) 0.39843(17)
C7A C 0.4088(2) 0.1320(3) 0.17139(16)
O8A O 0.29710(18) 0.1769(3) 0.45907(12)
C8A C 0.4375(3) 0.2200(4) 0.1868(2)
H5A H 0.47722 0.23392 0.18294
C9A C 0.4081(3) 0.2901(4) 0.2083(2)
H6A H 0.42803 0.35002 0.21763
O9A O 0.2043(2) 0.2962(3) 0.43047(13)
C10A C 0.3504(2) 0.2708(3) 0.21547(15)
O10A O 0.5732(2) 0.6236(4) 0.3642(3)
C11A C 0.3495(3) 0.1143(4) 0.1768(2)
H7A H 0.32878 0.05518 0.16627
O11A O 0.5041(3) 0.7523(4) 0.30875(18)
C12A C 0.3199(3) 0.1831(4) 0.1978(2)
H8A H 0.27911 0.17022 0.19999
O12A O 0.4872(3) 0.7025(5) 0.3875(2)
C13A C 0.2575(3) 0.3662(4) 0.30029(19)
H9A H 0.24336 0.42594 0.28521
C14A C 0.2962(2) 0.3081(3) 0.28166(15)
C15A C 0.3180(3) 0.2215(4) 0.30615(19)
H10A H 0.34415 0.18136 0.29473
O13A O 0.4131(2) -0.1297(4) 0.23133(19)
C16A C 0.3013(3) 0.1933(4) 0.34782(19)
H11A H 0.31790 0.13570 0.36450
O14A O 0.08490(16) 0.6803(2) -0.04730(13)
C17A C 0.2612(2) 0.2485(3) 0.36455(15)
O15A O 0.21956(18) 0.5185(3) -0.02208(15)
C18A C 0.2399(3) 0.3367(4) 0.34073(18)
H12A H 0.21342 0.37637 0.35216
C19A C 0.3615(2) 0.4331(3) 0.26139(16)
C20A C 0.3493(3) 0.5279(4) 0.2468(2)
H13A H 0.31087 0.54426 0.22045
C21A C 0.3942(3) 0.6004(4) 0.2710(2)
H14A H 0.38564 0.66415 0.26012
C22A C 0.4509(3) 0.5784(4) 0.3109(2)
C23A C 0.4189(3) 0.4127(4) 0.30181(19)
H15A H 0.42790 0.34917 0.31302
C24A C 0.4630(3) 0.4848(4) 0.3256(2)
H16A H 0.50134 0.46883 0.35214
C25A C 0.3152(2) 0.3475(3) 0.23730(16)
U1B U 0.34711(2) 0.10008(2) 0.53457(2)
U1C U 0.65289(2) 0.10008(2) -0.03457(2)
U1D U 0.15289(2) 0.39992(2) 0.46543(2)
U1E U 0.84711(2) 0.39992(2) 0.03457(2)
U1F U 0.65289(2) -0.10008(2) 0.46543(2)
U1G U 0.34711(2) -0.10008(2) 0.03457(2)
U2* U 0.50000 0.86797(2) 0.25000
O5F O 0.8987(2) 0.5172(3) 0.60768(13)
O5G O 0.1013(2) 0.5172(3) -0.10768(13)
O8B O 0.20290(18) 0.6769(3) 0.04093(12)
O8C O 0.79710(18) 0.6769(3) 0.45907(12)
O9D O 0.2043(2) 0.7038(3) -0.06953(13)
O9E O 0.7957(2) 0.7038(3) 0.56953(13)
O11* O 0.4959(3) -0.2477(4) 0.19125(18)
O11A* O 0.5041(3) -0.2477(4) 0.30875(18)
#END
