
#######################################################################
#
#                 Cambridge Crystallographic Data Centre
#                                CCDC
#
#######################################################################
#
# If this CIF has been generated from an entry in the Cambridge
# Structural Database, then it will include bibliographic, chemical,
# crystal, experimental, refinement or atomic coordinate data resulting
# from the CCDC's data processing and validation procedures.
#
#######################################################################

data_CSD_CIF_POPPES
_audit_creation_date 2019-09-03
_audit_creation_method CSD-ConQuest-V1
_database_code_CSD POPPES
_database_code_depnum_ccdc_archive 'CCDC 1812895'
_chemical_formula_sum 'C39 H44 N4 O15 P4 U1'
_chemical_formula_moiety
;
(C25 H20 O14 P4 U1 2-)n,2(C7 H11 N2 1+),H2 O1
;
_journal_coden_Cambridge 1220
_journal_year 2019
_journal_name_full 'Chem.-Eur.J. '
loop_
_publ_author_name
"Yi Wang"
"Xiangxiang Wang"
"Yan Huang"
"Fan Zhou"
"Chao Qi"
"Tao Zheng"
"Jiansheng Li"
"Zhifang Chai"
"Shuao Wang"
_chemical_name_systematic
;
catena-[bis(1-methyl-3-(prop-2-en-1-yl)-1H-imidazol-3-ium) 
(\m-[methanetetrayltetra(4,1-phenylene)]tetrakis[hydrogen 
(phosphonato)])-bis(oxido)-uranium monohydrate]
;
_cell_volume   4557.579
_exptl_crystal_colour 'yellow'
_exptl_crystal_description 'Block'
_diffrn_ambient_temperature 293
_refine_special_details
;
Disordered solvent molecules were not modelled and the disordered density was 
taken into account using the SQUEEZE/PLATON procedure.
;
#These two values have been output from a single CSD field.
_refine_ls_R_factor_gt 0.0289
_refine_ls_wR_factor_gt 0.0289
_symmetry_cell_setting monoclinic
_symmetry_space_group_name_H-M 'I 2/a'
_symmetry_Int_Tables_number 15
loop_
_symmetry_equiv_pos_site_id
_symmetry_equiv_pos_as_xyz
1 x,y,z
2 1/2-x,y,-z
3 1/2+x,1/2+y,1/2+z
4 -x,1/2+y,1/2-z
5 -x,-y,-z
6 -1/2+x,-y,z
7 -1/2-x,-1/2-y,-1/2-z
8 x,-1/2-y,-1/2+z
_cell_length_a 15.9527(10)
_cell_length_b 16.420(1)
_cell_length_c 18.1080(9)
_cell_angle_alpha 90
_cell_angle_beta 106.085(4)
_cell_angle_gamma 90
_cell_formula_units_Z 4
loop_
_atom_type_symbol
_atom_type_radius_bond
C 0.68
H 0.23
N 0.68
O 0.68
P 1.05
U 1.96
loop_
_atom_site_label
_atom_site_type_symbol
_atom_site_fract_x
_atom_site_fract_y
_atom_site_fract_z
U1 U 0.75000 -0.25000 0.75000
P1 P 0.67862(9) -0.03973(8) 0.75874(9)
P2 P 0.44495(8) 0.36815(8) 0.29707(8)
O1 O 0.6862(2) -0.1265(2) 0.7344(2)
O2 O 0.7549(3) -0.0200(3) 0.8317(2)
H1 H 0.80130 -0.03450 0.82470
O3 O 0.5956(3) -0.0193(2) 0.7753(3)
O4 O 0.4097(3) 0.4233(3) 0.3464(2)
O5 O 0.3795(2) 0.3081(2) 0.2500(2)
O6 O 0.4800(2) 0.4134(2) 0.2369(2)
H2 H 0.51970 0.44390 0.25890
O7 O 0.7246(3) -0.2606(2) 0.6482(2)
C1 C 0.75000 0.1692(4) 0.50000
C2 C 0.7271(3) 0.1161(3) 0.5621(3)
C3 C 0.6686(4) 0.1411(4) 0.6009(4)
H3 H 0.63880 0.18990 0.58710
C4 C 0.6532(4) 0.0950(4) 0.6600(4)
H4 H 0.61320 0.11350 0.68500
C5 C 0.6960(3) 0.0224(3) 0.6826(3)
C6 C 0.7565(4) -0.0018(4) 0.6447(3)
H5 H 0.78700 -0.05020 0.65880
C7 C 0.7720(4) 0.0446(4) 0.5869(3)
H6 H 0.81400 0.02730 0.56350
C8 C 0.6731(3) 0.2212(3) 0.4532(3)
C9 C 0.6874(3) 0.2942(4) 0.4207(4)
H7 H 0.74400 0.31440 0.43100
C10 C 0.6197(4) 0.3379(4) 0.3733(4)
H8 H 0.63160 0.38710 0.35290
C11 C 0.5339(3) 0.3100(3) 0.3554(3)
C12 C 0.5205(4) 0.2354(4) 0.3856(4)
H9 H 0.46440 0.21380 0.37350
C13 C 0.5886(3) 0.1919(4) 0.4335(4)
H10 H 0.57710 0.14190 0.45290
N1 N -0.0388(6) 0.1462(5) 0.8419(5)
N2 N 0.0638(6) 0.2065(7) 0.9263(5)
C14 C -0.0406(10) 0.1152(8) 0.9108(8)
H11 H -0.08160 0.08010 0.92120
C15 C -0.0981(8) 0.1246(8) 0.7677(7)
H12 H -0.06540 0.11610 0.73110
H13 H -0.13930 0.16780 0.75020
H14 H -0.12870 0.07550 0.77280
C16 C 0.0298(10) 0.1467(9) 0.9600(8)
H15 H 0.05240 0.12970 1.01060
C17 C 0.0224(6) 0.2003(8) 0.8543(5)
H16 H 0.03520 0.23120 0.81570
C18 C 0.1304(10) 0.2636(8) 0.9586(8)
H17 H 0.17450 0.26080 0.93100
H18 H 0.15790 0.24890 1.01160
C19 C 0.0983(9) 0.3475(10) 0.9559(8)
H19 H 0.07550 0.36950 0.90720
C20 C 0.0976(9) 0.3944(10) 1.0123(9)
H20 H 0.11950 0.37590 1.06250
H21 H 0.07520 0.44680 1.00300
P1A P 0.82138(9) -0.03973(8) 0.24126(9)
P2A P 1.05505(8) 0.36815(8) 0.70293(8)
O1A O 0.8138(2) -0.1265(2) 0.2656(2)
O2A O 0.7451(3) -0.0200(3) 0.1683(2)
H1A H 0.69870 -0.03450 0.17530
O3A O 0.9044(3) -0.0193(2) 0.2247(3)
O4A O 1.0903(3) 0.4233(3) 0.6536(2)
O5A O 1.1205(2) 0.3081(2) 0.7500(2)
O6A O 1.0200(2) 0.4134(2) 0.7631(2)
H2A H 0.98030 0.44390 0.74110
C2A C 0.7729(3) 0.1161(3) 0.4379(3)
C3A C 0.8314(4) 0.1411(4) 0.3991(4)
H3A H 0.86120 0.18990 0.41290
C4A C 0.8468(4) 0.0950(4) 0.3400(4)
H4A H 0.88680 0.11350 0.31500
C5A C 0.8040(3) 0.0224(3) 0.3174(3)
C6A C 0.7435(4) -0.0018(4) 0.3553(3)
H5A H 0.71300 -0.05020 0.34120
C7A C 0.7280(4) 0.0446(4) 0.4131(3)
H6A H 0.68600 0.02730 0.43650
C8A C 0.8269(3) 0.2212(3) 0.5468(3)
C9A C 0.8126(3) 0.2942(4) 0.5793(4)
H7A H 0.75600 0.31440 0.56900
C10A C 0.8803(4) 0.3379(4) 0.6267(4)
H8A H 0.86840 0.38710 0.64710
C11A C 0.9661(3) 0.3100(3) 0.6446(3)
C12A C 0.9795(4) 0.2354(4) 0.6144(4)
H9A H 1.03560 0.21380 0.62650
C13A C 0.9114(3) 0.1919(4) 0.5665(4)
H10A H 0.92290 0.14190 0.54710
O7F O 0.7754(3) -0.2394(2) 0.8518(2)
U1A U 0.75000 -0.25000 0.25000
U1B U 0.25000 0.25000 0.25000
U1C U 1.25000 0.25000 0.75000
O1F O 0.8138(2) -0.3735(2) 0.7656(2)
O5B O 0.8795(2) -0.1919(2) 0.7500(2)
O5D O 0.6205(2) -0.3081(2) 0.7500(2)
#END
