
#######################################################################
#
#                 Cambridge Crystallographic Data Centre
#                                CCDC
#
#######################################################################
#
# If this CIF has been generated from an entry in the Cambridge
# Structural Database, then it will include bibliographic, chemical,
# crystal, experimental, refinement or atomic coordinate data resulting
# from the CCDC's data processing and validation procedures.
#
#######################################################################

data_CSD_CIF_PORMIV
_audit_creation_date 2019-09-05
_audit_creation_method CSD-ConQuest-V1
_database_code_CSD PORMIV
_database_code_depnum_ccdc_archive 'CCDC 1540120'
_chemical_formula_sum 'C6 H20 Mn1 N18 O6'
_chemical_formula_moiety
;
(C6 H4 Mn1 N16 2-)n,2(H4 N1 O1 1+),4(H2 O1)
;
_journal_coden_Cambridge 9
_journal_volume 58
_journal_year 2019
_journal_page_first 12228
_journal_name_full 'Inorg.Chem. '
loop_
_publ_author_name
"Yongan Feng"
"Sitong Chen"
"Mucong Deng"
"Tonglai Zhang"
"Qinghua Zhang"
_chemical_name_systematic
;
catena-[bis(hydroxyammonium) 
bis(\m-5-[(1H-tetrazol-5-yl)methyl]tetrazolato)-manganese tetrahydrate]
;
_cell_volume   1931.152
_exptl_crystal_colour 'colorless'
_exptl_crystal_density_diffrn 1.704
_exptl_crystal_description 'Prism'
_diffrn_ambient_temperature 153.2
#These two values have been output from a single CSD field.
_refine_ls_R_factor_gt 0.0472
_refine_ls_wR_factor_gt 0.0472
_symmetry_cell_setting orthorhombic
_symmetry_space_group_name_H-M 'P b c n'
_symmetry_Int_Tables_number 60
loop_
_symmetry_equiv_pos_site_id
_symmetry_equiv_pos_as_xyz
1 x,y,z
2 1/2-x,1/2-y,1/2+z
3 -x,y,1/2-z
4 1/2+x,1/2-y,-z
5 -x,-y,-z
6 -1/2+x,-1/2+y,-1/2-z
7 x,-y,-1/2+z
8 -1/2-x,-1/2+y,z
_cell_length_a 9.541(2)
_cell_length_b 8.8198(19)
_cell_length_c 22.949(5)
_cell_angle_alpha 90
_cell_angle_beta 90
_cell_angle_gamma 90
_cell_formula_units_Z 4
loop_
_atom_type_symbol
_atom_type_radius_bond
C 0.68
H 0.23
Mn 1.61
N 0.68
O 0.68
loop_
_atom_site_label
_atom_site_type_symbol
_atom_site_fract_x
_atom_site_fract_y
_atom_site_fract_z
Mn1 Mn 0.50000 0.05360(4) 0.25000
N1 N 0.61566(14) 0.07290(16) 0.33657(6)
N2 N 0.56991(15) 0.03096(17) 0.38999(6)
N3 N 0.67027(15) 0.05272(18) 0.42794(6)
N4 N 0.78406(15) 0.11067(17) 0.40097(6)
N5 N 0.84084(15) 0.37891(16) 0.22255(6)
N6 N 0.74908(16) 0.42023(17) 0.18026(6)
N7 N 0.63918(15) 0.33287(17) 0.18309(6)
N8 N 0.65523(14) 0.23135(16) 0.22677(6)
C1 C 0.74725(17) 0.12127(18) 0.34490(7)
C2 C 0.84637(17) 0.1734(2) 0.29842(8)
H1 H 0.89320 0.08350 0.28150
H2 H 0.91970 0.23700 0.31670
C3 C 0.77990(16) 0.26198(18) 0.25005(7)
N9 N 0.29917(16) 0.02035(18) 0.44857(7)
O1 O 0.26277(15) 0.17501(15) 0.44389(7)
H3 H 0.173(3) 0.184(3) 0.4530(11)
H4 H 0.324(3) -0.004(3) 0.4864(11)
H5 H 0.224(3) -0.041(3) 0.4344(11)
H6 H 0.379(3) 0.009(3) 0.4241(11)
O2 O 0.97906(13) 0.09571(16) 0.57641(6)
H7 H 1.039(2) 0.029(2) 0.5815(11)
H8 H 0.958(3) 0.135(3) 0.6088(7)
O3 O 1.01139(14) 0.25247(16) 0.47332(6)
H9 H 0.995(3) 0.213(3) 0.5059(6)
H10 H 0.946(2) 0.229(3) 0.4509(11)
N1B N 0.38434(14) 0.07290(16) 0.16343(6)
N2B N 0.43009(15) 0.03096(17) 0.11001(6)
N3B N 0.32973(15) 0.05272(18) 0.07206(6)
N4B N 0.21594(15) 0.11067(17) 0.09903(6)
N5B N 0.15916(15) 0.37891(16) 0.27745(6)
N6B N 0.25092(16) 0.42023(17) 0.31974(6)
N7B N 0.36082(15) 0.33287(17) 0.31691(6)
N8B N 0.34477(14) 0.23135(16) 0.27323(6)
C1B C 0.25275(17) 0.12127(18) 0.15510(7)
C2B C 0.15363(17) 0.1734(2) 0.20158(8)
H1B H 0.10680 0.08350 0.21850
H2B H 0.08030 0.23700 0.18330
C3B C 0.22010(16) 0.26198(18) 0.24995(7)
Mn1E Mn 0.00000 0.55360(4) 0.25000
Mn1E* Mn 1.00000 0.55360(4) 0.25000
N5E N 0.34084(15) -0.12109(16) 0.27745(6)
N5G N 0.65916(15) -0.12109(16) 0.22255(6)
#END
