
#######################################################################
#
#                 Cambridge Crystallographic Data Centre
#                                CCDC
#
#######################################################################
#
# If this CIF has been generated from an entry in the Cambridge
# Structural Database, then it will include bibliographic, chemical,
# crystal, experimental, refinement or atomic coordinate data resulting
# from the CCDC's data processing and validation procedures.
#
#######################################################################

data_CSD_CIF_PORMOB
_audit_creation_date 2019-09-05
_audit_creation_method CSD-ConQuest-V1
_database_code_CSD PORMOB
_database_code_depnum_ccdc_archive 'CCDC 1430316'
_chemical_formula_sum 'C6 H12 Cu1 N18 O2'
_chemical_formula_moiety
;
(C6 H4 Cu1 N16 2-)n,2(H4 N1 O1 1+)
;
_journal_coden_Cambridge 9
_journal_volume 58
_journal_year 2019
_journal_page_first 12228
_journal_name_full 'Inorg.Chem. '
loop_
_publ_author_name
"Yongan Feng"
"Sitong Chen"
"Mucong Deng"
"Tonglai Zhang"
"Qinghua Zhang"
_chemical_name_systematic
;
catena-[bis(hydroxyammonium) 
bis(\m-5-[(1H-tetrazol-5-yl)methyl]tetrazolato)-copper(ii)]
;
_cell_volume    759.041
_exptl_crystal_colour 'blue'
_exptl_crystal_density_diffrn 1.89
_exptl_crystal_description 'block'
_diffrn_ambient_temperature 102.1
#These two values have been output from a single CSD field.
_refine_ls_R_factor_gt 0.0501
_refine_ls_wR_factor_gt 0.0501
_symmetry_cell_setting monoclinic
_symmetry_space_group_name_H-M 'P 21/c'
_symmetry_Int_Tables_number 14
loop_
_symmetry_equiv_pos_site_id
_symmetry_equiv_pos_as_xyz
1 x,y,z
2 -x,1/2+y,1/2-z
3 -x,-y,-z
4 x,-1/2-y,-1/2+z
_cell_length_a 9.5832(6)
_cell_length_b 9.3291(4)
_cell_length_c 8.8500(5)
_cell_angle_alpha 90
_cell_angle_beta 106.395(6)
_cell_angle_gamma 90
_cell_formula_units_Z 2
loop_
_atom_type_symbol
_atom_type_radius_bond
C 0.68
H 0.23
Cu 1.32
N 0.68
O 0.68
loop_
_atom_site_label
_atom_site_type_symbol
_atom_site_fract_x
_atom_site_fract_y
_atom_site_fract_z
Cu1 Cu 1.00000 1.00000 0.00000
N1 N 1.4439(4) 0.9362(4) 0.1766(4)
N2 N 1.3243(4) 1.0045(3) 0.1733(4)
N3 N 1.4220(4) 0.8493(4) 0.0491(4)
N4 N 0.9745(3) 0.8104(3) -0.1075(4)
N5 N 1.2191(4) 0.9643(4) 0.0419(4)
C1 C 1.0602(4) 0.7437(4) -0.1819(5)
N6 N 0.8683(4) 0.6168(4) -0.2157(4)
N7 N 0.9965(4) 0.6245(4) -0.2521(4)
C2 C 1.2836(4) 0.8701(4) -0.0311(5)
N8 N 0.8557(4) 0.7267(4) -0.1292(4)
C3 C 1.2082(4) 0.7956(4) -0.1817(5)
H1 H 1.26770 0.71300 -0.19680
H2 H 1.19890 0.86240 -0.27090
N9 N 1.3455(4) 0.3492(4) -0.0365(4)
H3 H 1.31340 0.36180 -0.14270
H4 H 1.27900 0.29730 -0.00390
H5 H 1.43190 0.30150 -0.01150
O1 O 1.3648(4) 0.4853(4) 0.0395(4)
H6 H 1.42640 0.47820 0.12800
N1B N 0.5561(4) 1.0638(4) -0.1766(4)
N2B N 0.6757(4) 0.9955(3) -0.1733(4)
N3B N 0.5780(4) 1.1507(4) -0.0491(4)
N4B N 1.0255(3) 1.1896(3) 0.1075(4)
N5B N 0.7809(4) 1.0357(4) -0.0419(4)
C1B C 0.9398(4) 1.2563(4) 0.1819(5)
N6B N 1.1317(4) 1.3832(4) 0.2157(4)
N7B N 1.0035(4) 1.3755(4) 0.2521(4)
C2B C 0.7164(4) 1.1299(4) 0.0311(5)
N8B N 1.1443(4) 1.2733(4) 0.1292(4)
C3B C 0.7918(4) 1.2044(4) 0.1817(5)
H1B H 0.73230 1.28700 0.19680
H2B H 0.80110 1.13760 0.27090
Cu1A Cu 1.00000 0.50000 -0.50000
Cu1A* Cu 1.00000 1.50000 0.50000
N7A N 1.0035(4) 1.1245(4) -0.2479(4)
N7C N 0.9965(4) 0.8755(4) 0.2479(4)
#END
