
#######################################################################
#
#                 Cambridge Crystallographic Data Centre
#                                CCDC
#
#######################################################################
#
# If this CIF has been generated from an entry in the Cambridge
# Structural Database, then it will include bibliographic, chemical,
# crystal, experimental, refinement or atomic coordinate data resulting
# from the CCDC's data processing and validation procedures.
#
#######################################################################

data_CSD_CIF_POXBAH
_audit_creation_date 2015-03-19
_audit_creation_method CSD-ConQuest-V1
_database_code_CSD POXBAH
_database_code_depnum_ccdc_archive 'CCDC 1054988'
_chemical_formula_sum 'C89 H120 Cd1 N2 O21'
_chemical_formula_moiety
;
(C84 H92 Cd1 O16 2-)n,2n(C2 H8 N1 1+),n(C1 H4 O1),4n(H2 O1)
;
_journal_coden_Cambridge 9
_journal_volume 54
_journal_year 2015
_journal_page_first 1744
_journal_name_full 'Inorg.Chem. '
loop_
_publ_author_name
"Li-Li Lv"
"Jin Yang"
"Hong-Mei Zhang"
"Ying-Ying Liu"
"Jian-Fang Ma"
_chemical_name_systematic
;
catena-(bis(Dimethylammonium) 
(\m~4~-2,8,14,20-tetra-n-pentyl-4,10,16,22-tetrakis(4-carboxylatobenzyloxy)-6,
12,18,24-tetramethoxyresorcin(4)arene)-cadmium methanol solvate tetrahydrate)
;
_cell_volume  10122.123
_exptl_crystal_colour 'colorless'
_exptl_crystal_density_diffrn 1.093
_exptl_crystal_description 'block'
_diffrn_ambient_temperature 293
_refine_special_details
;
The SQUEEZE/PLATON program was used to model the cations and solvent 
molecules.
;
#These two values have been output from a single CSD field.
_refine_ls_R_factor_gt 0.0877
_refine_ls_wR_factor_gt 0.0877
_symmetry_cell_setting monoclinic
_symmetry_space_group_name_H-M 'P 21/n'
_symmetry_Int_Tables_number 14
loop_
_symmetry_equiv_pos_site_id
_symmetry_equiv_pos_as_xyz
1 x,y,z
2 1/2-x,1/2+y,1/2-z
3 -x,-y,-z
4 -1/2+x,-1/2-y,-1/2+z
_cell_length_a 23.617(5)
_cell_length_b 16.814(5)
_cell_length_c 26.617(5)
_cell_angle_alpha 90
_cell_angle_beta 106.730(5)
_cell_angle_gamma 90
_cell_formula_units_Z 4
loop_
_atom_type_symbol
_atom_type_radius_bond
C 0.68
H 0.23
Cd 1.44
O 0.68
loop_
_atom_site_label
_atom_site_type_symbol
_atom_site_fract_x
_atom_site_fract_y
_atom_site_fract_z
Cd1 Cd 0.14504(2) 0.20935(3) 0.60720(2)
C1 C 0.7376(3) 0.0332(3) 0.6663(3)
C2 C 0.7391(3) 0.0317(3) 0.7175(3)
H1 H 0.77510 0.02900 0.74350
C3 C 0.6866(3) 0.0344(3) 0.7310(3)
C4 C 0.6331(3) 0.0379(3) 0.6928(3)
C5 C 0.6343(3) 0.0362(3) 0.6413(3)
H2 H 0.59820 0.03760 0.61540
C6 C 0.6840(3) 0.0326(3) 0.6254(3)
C7 C 0.6845(3) 0.0268(3) 0.5687(3)
H3 H 0.71230 -0.01600 0.56770
C8 C 0.7083(3) 0.1019(3) 0.5478(3)
C9 C 0.7364(3) 0.0983(4) 0.5101(3)
C10 C 0.7579(3) 0.1639(4) 0.4912(3)
H4 H 0.77600 0.15920 0.46460
C11 C 0.7521(3) 0.2367(4) 0.5125(3)
C12 C 0.7232(3) 0.2465(3) 0.5506(3)
C13 C 0.7014(3) 0.1777(3) 0.5676(3)
H5 H 0.68150 0.18200 0.59300
C14 C 0.7135(3) 0.3277(3) 0.5699(3)
H6 H 0.75000 0.35700 0.57220
C15 C 0.7079(3) 0.3275(3) 0.6250(3)
C16 C 0.6545(3) 0.3349(3) 0.6354(3)
H7 H 0.62050 0.33950 0.60730
C17 C 0.6482(3) 0.3357(4) 0.6866(3)
C18 C 0.6992(4) 0.3259(3) 0.7272(3)
C19 C 0.7542(3) 0.3173(4) 0.7193(4)
H8 H 0.78790 0.31110 0.74750
C20 C 0.7581(3) 0.3182(3) 0.6688(4)
C21 C 0.5897(3) 0.3454(4) 0.6997(3)
H9 H 0.59740 0.38430 0.72830
C22 C 0.5699(3) 0.2705(4) 0.7213(3)
C23 C 0.5821(3) 0.1951(4) 0.7078(3)
H10 H 0.60380 0.19010 0.68390
C24 C 0.5642(3) 0.1249(4) 0.7275(3)
C25 C 0.5320(3) 0.1349(4) 0.7626(3)
C26 C 0.5179(3) 0.2078(5) 0.7766(3)
H11 H 0.49550 0.21230 0.80010
C27 C 0.5364(3) 0.2762(4) 0.7564(4)
C28 C 0.5765(3) 0.0422(3) 0.7094(3)
H12 H 0.58280 0.00740 0.74010
C29 C 0.7392(3) 0.0357(4) 0.8229(3)
H13 H 0.73110 0.03720 0.85620
H14 H 0.76190 0.08160 0.81940
H15 H 0.76120 -0.01160 0.82070
C30 C 0.8418(3) 0.0392(5) 0.6868(4)
H16 H 0.85310 -0.01250 0.70280
H17 H 0.83870 0.07580 0.71400
C31 C 0.8881(3) 0.0681(5) 0.6626(4)
C32 C 0.8763(4) 0.1156(6) 0.6196(5)
H18 H 0.83700 0.12570 0.60140
C33 C 0.9211(5) 0.1500(7) 0.6013(5)
H19 H 0.91180 0.18380 0.57250
C34 C 0.9780(4) 0.1326(5) 0.6270(4)
C35 C 0.9908(4) 0.0894(7) 0.6708(5)
H20 H 1.02990 0.08300 0.69060
C36 C 0.9452(4) 0.0530(6) 0.6875(5)
H21 H 0.95480 0.01840 0.71600
C37 C 1.0269(6) 0.1727(8) 0.6087(5)
C38 C 0.7747(6) 0.0111(6) 0.4551(5)
H22 H 0.77470 -0.04420 0.44600
H23 H 0.81460 0.02870 0.47050
H24 H 0.75690 0.04170 0.42410
C39 C 0.7986(4) 0.3022(4) 0.4558(4)
H25 H 0.77180 0.27690 0.42550
H26 H 0.83430 0.27050 0.46690
C40 C 0.8134(4) 0.3845(4) 0.4417(3)
C41 C 0.8626(4) 0.4012(5) 0.4291(4)
H27 H 0.88860 0.35980 0.42860
C42 C 0.8770(5) 0.4755(6) 0.4169(4)
H28 H 0.91260 0.48310 0.40920
C43 C 0.8420(4) 0.5374(4) 0.4157(4)
C44 C 0.7920(5) 0.5244(5) 0.4297(5)
H29 H 0.76660 0.56670 0.42960
C45 C 0.7777(5) 0.4489(6) 0.4441(5)
H30 H 0.74420 0.44180 0.45540
C46 C 0.8634(4) 0.3065(6) 0.7006(5)
H31 H 0.89690 0.30180 0.68720
H32 H 0.86130 0.26070 0.72150
H33 H 0.86740 0.35350 0.72180
C47 C 0.7317(5) 0.2889(7) 0.8173(5)
H34 H 0.76960 0.31600 0.82660
H35 H 0.73760 0.23540 0.80610
C48 C 0.7091(4) 0.2854(7) 0.8633(4)
C49 C 0.7329(6) 0.3230(7) 0.9046(6)
H36 H 0.76710 0.35190 0.90670
C50 C 0.7101(5) 0.3236(6) 0.9479(5)
H37 H 0.72940 0.35520 0.97630
C51 C 0.6656(4) 0.2848(5) 0.9515(4)
C52 C 0.6465(6) 0.2238(8) 0.9125(6)
H38 H 0.62110 0.18380 0.91680
C53 C 0.6675(6) 0.2255(8) 0.8659(6)
H39 H 0.65420 0.18870 0.83900
C54 C 0.6428(5) 0.2810(7) 0.9968(5)
C55 C 0.4836(7) 0.3575(6) 0.8001(6)
H40 H 0.47780 0.41260 0.80660
H41 H 0.49930 0.33030 0.83290
H42 H 0.44640 0.33410 0.78140
C56 C 0.4755(3) 0.0678(5) 0.8129(3)
H43 H 0.48870 0.10780 0.84000
H44 H 0.47530 0.01700 0.83010
C57 C 0.4151(3) 0.0868(4) 0.7815(3)
C58 C 0.3825(4) 0.1463(5) 0.7948(4)
H45 H 0.39910 0.17500 0.82540
C59 C 0.3249(4) 0.1660(6) 0.7640(4)
H46 H 0.30360 0.20700 0.77350
C60 C 0.3011(3) 0.1208(5) 0.7184(4)
C61 C 0.3319(4) 0.0621(5) 0.7069(4)
H47 H 0.31520 0.03080 0.67750
C62 C 0.3886(4) 0.0463(5) 0.7376(4)
H48 H 0.40950 0.00550 0.72740
C63 C 0.2440(5) 0.1511(8) 0.6855(5)
C64 C 0.6255(3) 0.0022(3) 0.5302(3)
H49 H 0.59480 0.03730 0.53490
H50 H 0.62800 0.00990 0.49470
C65 C 0.6071(3) -0.0827(3) 0.5355(3)
H51 H 0.63680 -0.11770 0.52880
H52 H 0.60720 -0.09110 0.57160
C66 C 0.5495(3) -0.1066(4) 0.5014(4)
H53 H 0.54750 -0.09190 0.46570
H54 H 0.51930 -0.07660 0.51130
C67 C 0.5353(4) -0.1928(5) 0.5023(5)
H55 H 0.53730 -0.20790 0.53790
H56 H 0.56510 -0.22310 0.49200
C68 C 0.4743(5) -0.2149(5) 0.4661(5)
H57 H 0.46750 -0.27070 0.46930
H58 H 0.47260 -0.20290 0.43050
H59 H 0.44450 -0.18500 0.47590
C69 C 0.6655(3) 0.3728(3) 0.5300(3)
H60 H 0.62720 0.35230 0.53040
H61 H 0.66960 0.36340 0.49520
C70 C 0.6673(4) 0.4625(4) 0.5403(4)
H62 H 0.65660 0.47260 0.57220
H63 H 0.70740 0.48150 0.54550
C71 C 0.6264(5) 0.5082(5) 0.4961(4)
H64 H 0.64120 0.50100 0.46600
H65 H 0.58860 0.48100 0.48780
C72 C 0.6131(6) 0.5945(7) 0.4979(7)
H66 H 0.58690 0.61250 0.46460
H67 H 0.59490 0.60590 0.52550
C73 C 0.6706(7) 0.6318(7) 0.5086(8)
H68 H 0.66620 0.68860 0.50920
H69 H 0.68850 0.61750 0.48180
H70 H 0.69530 0.61420 0.54210
C74 C 0.5398(3) 0.3806(5) 0.6554(3)
H71 H 0.53070 0.34250 0.62680
H72 H 0.50510 0.38420 0.66790
C75 C 0.5479(6) 0.4605(6) 0.6327(6)
H73 H 0.58210 0.45740 0.61960
H74 H 0.51370 0.47040 0.60280
C76 C 0.5556(9) 0.5293(9) 0.6682(7)
H75 H 0.59450 0.52710 0.69350
H76 H 0.52630 0.52740 0.68720
C77 C 0.5492(9) 0.6068(9) 0.6374(7)
H77 H 0.56160 0.60010 0.60590
H78 H 0.50860 0.62530 0.62750
C78 C 0.5890(9) 0.6635(11) 0.6746(8)
H79 H 0.58640 0.71510 0.65860
H80 H 0.62910 0.64480 0.68290
H81 H 0.57720 0.66700 0.70620
C79 C 0.5212(3) 0.0105(4) 0.6685(3)
H82 H 0.48660 0.02480 0.67920
H83 H 0.51790 0.03630 0.63520
C80 C 0.5214(4) -0.0791(4) 0.6607(4)
H84 H 0.52980 -0.10510 0.69460
H85 H 0.55270 -0.09300 0.64530
C81 C 0.4603(6) -0.1106(6) 0.6240(6)
H86 H 0.42880 -0.08540 0.63490
H87 H 0.45660 -0.09310 0.58840
C82 C 0.4514(8) -0.1891(9) 0.6229(7)
H88 H 0.45440 -0.20800 0.65800
H89 H 0.48160 -0.21560 0.61080
C83 C 0.3890(9) -0.2094(10) 0.5854(9)
H90 H 0.38190 -0.26550 0.58670
H91 H 0.38720 -0.19440 0.55020
H92 H 0.35940 -0.18080 0.59630
O1 O 0.6854(2) 0.0354(3) 0.7821(2)
O2 O 0.78655(18) 0.0333(2) 0.64793(19)
O3 O 1.0144(4) 0.2000(7) 0.5665(4)
O4 O 1.0761(3) 0.1574(5) 0.6353(4)
O5 O 0.7417(3) 0.0215(3) 0.4917(2)
O6 O 0.7726(2) 0.3067(2) 0.4958(2)
O7 O 0.8105(2) 0.3119(3) 0.6578(2)
O8 O 0.6922(2) 0.3289(3) 0.7769(3)
O9 O 0.6683(4) 0.3192(4) 1.0355(3)
O10 O 0.5996(4) 0.2373(7) 0.9954(3)
O11 O 0.5235(3) 0.3508(3) 0.7700(3)
O12 O 0.51642(19) 0.0642(3) 0.7831(2)
O13 O 0.2185(3) 0.2096(3) 0.6920(3)
O14 O 0.2189(3) 0.1102(4) 0.6459(3)
C84 C 0.8576(5) 0.6201(5) 0.4018(5)
O15 O 0.8190(4) 0.6671(4) 0.3899(4)
O16 O 0.9088(4) 0.6354(4) 0.4090(4)
Cd1* Cd 1.14504(2) 0.20935(3) 0.60720(2)
Cd1B Cd 0.85496(2) 0.79065(3) 0.39280(2)
Cd1C Cd 0.64504(2) 0.29065(3) 1.10720(2)
O4* O 0.0761(3) 0.1574(5) 0.6353(4)
O9C O 0.1683(4) 0.1808(4) 0.5355(3)
O15B O 0.1810(4) 0.3329(4) 0.6101(4)
#END
