
#######################################################################
#
#                 Cambridge Crystallographic Data Centre
#                                CCDC
#
#######################################################################
#
# If this CIF has been generated from an entry in the Cambridge
# Structural Database, then it will include bibliographic, chemical,
# crystal, experimental, refinement or atomic coordinate data resulting
# from the CCDC's data processing and validation procedures.
#
#######################################################################

data_CSD_CIF_POXBEL
_audit_creation_date 2015-03-19
_audit_creation_method CSD-ConQuest-V1
_database_code_CSD POXBEL
_database_code_depnum_ccdc_archive 'CCDC 1054989'
_chemical_formula_sum 'C170 H198 N1 Na3 O35 Zn2'
_chemical_formula_moiety
;
(C168 H184 O32 Zn2 4-)n,n(C2 H8 N1 1+),3n(Na1 1+),3n(H2 O1)
;
_journal_coden_Cambridge 9
_journal_volume 54
_journal_year 2015
_journal_page_first 1744
_journal_name_full 'Inorg.Chem. '
loop_
_publ_author_name
"Li-Li Lv"
"Jin Yang"
"Hong-Mei Zhang"
"Ying-Ying Liu"
"Jian-Fang Ma"
_chemical_name_systematic
;
catena-(Dimethyammonium tri-sodium 
(\m~4~-2,8,14,20-tetra-n-pentyl-4,10,16,22-tetrakis(4-carboxylatobenzyloxy)-6,
12,18,24-tetramethoxyresorcin(4)arene-O,O',O'',O''',O'''')-(\m~4~-2,8,14,20-te
tra-n-pentyl-4,10,16,22-tetrakis(4-carboxylatobenzyloxy)-6,12,18,24-tetrametho
xyresorcin(4)arene-O,O',O'',O''')-di-zinc trihydrate)
;
_cell_volume  10850.810
_exptl_crystal_colour 'colorless'
_exptl_crystal_density_diffrn 0.922
_exptl_crystal_description 'block'
_diffrn_ambient_temperature 293
_refine_special_details
;
The structure is disordered.

;
#These two values have been output from a single CSD field.
_refine_ls_R_factor_gt 0.1208
_refine_ls_wR_factor_gt 0.1208
_symmetry_cell_setting triclinic
_symmetry_space_group_name_H-M 'P -1'
_symmetry_Int_Tables_number 2
loop_
_symmetry_equiv_pos_site_id
_symmetry_equiv_pos_as_xyz
1 x,y,z
2 -x,-y,-z
_cell_length_a 18.4227(8)
_cell_length_b 25.1622(10)
_cell_length_c 26.4861(12)
_cell_angle_alpha 102.226(4)
_cell_angle_beta 108.386(4)
_cell_angle_gamma 102.380(4)
_cell_formula_units_Z 2
loop_
_atom_type_symbol
_atom_type_radius_bond
C 0.68
H 0.23
N 0.68
Na 1.66
O 0.68
Zn 1.22
loop_
_atom_site_label
_atom_site_type_symbol
_atom_site_fract_x
_atom_site_fract_y
_atom_site_fract_z
Zn1 Zn 0.55436(6) 0.43670(4) 0.88468(4)
Zn2 Zn -0.23286(6) 0.50272(5) 1.29076(5)
C1 C -0.2152(5) 0.2381(5) 0.8740(4)
C2 C -0.2408(5) 0.1795(4) 0.8596(4)
C3 C -0.2015(5) 0.1498(4) 0.8313(4)
H1 H -0.21620 0.11030 0.82320
C4 C -0.1422(5) 0.1757(5) 0.8145(4)
C5 C -0.1190(5) 0.2331(5) 0.8295(4)
C6 C -0.1534(5) 0.2665(4) 0.8601(5)
H2 H -0.13540 0.30610 0.87050
C7 C -0.1034(5) 0.1425(4) 0.7821(4)
H3 H -0.09270 0.16390 0.75700
C8 C -0.0208(6) 0.1413(4) 0.8193(5)
C9 C 0.0367(7) 0.1394(4) 0.7970(5)
C10 C 0.1133(6) 0.1388(4) 0.8287(5)
H4 H 0.15060 0.13520 0.81240
C11 C 0.1323(6) 0.1435(4) 0.8841(5)
C12 C 0.0768(5) 0.1475(4) 0.9094(4)
C13 C -0.0014(5) 0.1471(4) 0.8725(5)
H5 H -0.03960 0.15120 0.88780
C14 C 0.1005(5) 0.1531(4) 0.9714(4)
H6 H 0.15750 0.17510 0.98950
C15 C 0.0563(5) 0.1873(5) 0.9982(4)
C16 C 0.0745(5) 0.2457(4) 1.0058(4)
C17 C 0.0393(5) 0.2790(4) 1.0315(4)
H7 H 0.05270 0.31790 1.03590
C18 C -0.0160(5) 0.2546(5) 1.0507(4)
C19 C -0.0379(5) 0.1972(5) 1.0446(4)
C20 C -0.0010(5) 0.1646(4) 1.0173(4)
H8 H -0.01590 0.12540 1.01180
C21 C -0.1035(6) 0.1710(4) 1.0649(5)
H9 H -0.09180 0.19690 1.10170
C22 C -0.1863(6) 0.1692(4) 1.0277(6)
C23 C -0.2439(7) 0.1780(4) 1.0505(5)
C24 C -0.3206(5) 0.1756(4) 1.0149(6)
H10 H -0.35810 0.18150 1.03040
C25 C -0.3413(7) 0.1654(4) 0.9604(6)
C26 C -0.2846(6) 0.1589(4) 0.9356(5)
C27 C -0.2121(6) 0.1607(4) 0.9685(6)
H11 H -0.17520 0.15610 0.95200
C28 C -0.3101(5) 0.1499(4) 0.8738(5)
H12 H -0.35120 0.16900 0.86370
C29 C -0.2275(7) 0.3299(5) 0.9189(6)
H13 H -0.25870 0.34360 0.93860
H14 H -0.23600 0.34220 0.88620
H15 H -0.17160 0.34470 0.94270
C30 C -0.0347(8) 0.3216(6) 0.8308(6)
H16 H -0.00840 0.33860 0.87090
H17 H -0.08050 0.33510 0.81710
C31 C 0.0264(9) 0.3347(7) 0.8001(7)
C32 C 0.0208(9) 0.3700(7) 0.7680(7)
H18 H -0.02510 0.38140 0.75700
C33 C 0.0823(8) 0.3889(7) 0.7517(7)
H19 H 0.07630 0.41040 0.72690
C34 C 0.1554(8) 0.3760(5) 0.7722(6)
C35 C 0.1615(7) 0.3436(7) 0.8043(5)
H20 H 0.21050 0.33740 0.82010
C36 C 0.0921(8) 0.3163(6) 0.8163(6)
H21 H 0.09320 0.28810 0.83390
C37 C 0.2265(7) 0.4029(4) 0.7592(6)
C38 C 0.060(1) 0.1167(9) 0.7096(7)
H22 H 0.03450 0.11540 0.67150
H23 H 0.06380 0.07950 0.71110
H24 H 0.11290 0.14350 0.72540
C39 C 0.2697(5) 0.1498(4) 0.8966(4)
H25 H 0.24980 0.12170 0.86010
H26 H 0.31420 0.14120 0.92110
C40 C 0.2990(5) 0.2080(4) 0.8915(4)
C41 C 0.2813(5) 0.2557(4) 0.9153(4)
H27 H 0.24520 0.25190 0.93320
C42 C 0.3170(5) 0.3088(4) 0.9127(4)
H28 H 0.30820 0.34080 0.93190
C43 C 0.3652(5) 0.3157(4) 0.8823(4)
C44 C 0.3795(5) 0.2676(4) 0.8561(4)
H29 H 0.41250 0.27140 0.83600
C45 C 0.3464(5) 0.2140(4) 0.8588(4)
H30 H 0.35520 0.18220 0.83930
C46 C 0.4085(6) 0.3739(5) 0.8829(4)
C47 C 0.1380(7) 0.3193(5) 0.9766(6)
H31 H 0.18050 0.32900 0.96340
H32 H 0.14890 0.34800 1.01070
H33 H 0.08810 0.31730 0.94900
C48 C -0.0924(10) 0.3166(7) 1.0521(7)
H34 H -0.13600 0.29120 1.01820
H35 H -0.05710 0.34290 1.04170
C49 C -0.1260(12) 0.3497(7) 1.0892(8)
C50 C -0.0789(8) 0.3882(8) 1.1420(7)
H36 H -0.02360 0.39460 1.15560
C51 C -0.1122(7) 0.4168(7) 1.1744(5)
H37 H -0.07990 0.44020 1.21050
C52 C -0.1938(5) 0.4108(4) 1.1536(4)
C53 C -0.2352(7) 0.3751(5) 1.1037(5)
H38 H -0.28970 0.37080 1.08810
C54 C -0.2020(9) 0.3428(5) 1.0723(6)
H39 H -0.23580 0.31570 1.03830
C55 C -0.2307(7) 0.4442(4) 1.1862(5)
C56 C -0.2684(9) 0.2091(9) 1.1355(7)
H40 H -0.24450 0.21480 1.17490
H41 H -0.32060 0.18140 1.12040
H42 H -0.27360 0.24450 1.12920
C57 C -0.4704(5) 0.1790(4) 0.9499(5)
H43 H -0.46620 0.16700 0.98290
H44 H -0.52520 0.16120 0.92320
C58 C -0.4539(5) 0.2412(4) 0.9652(5)
C59 C -0.4174(5) 0.2740(4) 0.9387(4)
H45 H -0.39840 0.25730 0.91270
C60 C -0.4097(5) 0.3314(4) 0.9512(4)
H46 H -0.38330 0.35290 0.93410
C61 C -0.4391(5) 0.3589(4) 0.9880(3)
C62 C -0.4729(5) 0.3263(5) 1.0144(4)
H47 H -0.49000 0.34330 1.04140
C63 C -0.4825(5) 0.2683(5) 1.0020(5)
H48 H -0.50910 0.24700 1.01920
C64 C -0.4333(5) 0.4181(5) 0.9960(4)
C65 C -0.1571(6) 0.0840(4) 0.7449(5)
H49 H -0.17430 0.06250 0.76770
H50 H -0.12610 0.06440 0.72860
C66 C -0.2304(8) 0.0834(7) 0.6986(6)
H51 H -0.26540 0.04430 0.68170
H52 H -0.25890 0.10540 0.71510
C67 C -0.2174(11) 0.1057(8) 0.6532(7)
H53 H -0.18450 0.08730 0.63800
H54 H -0.19090 0.14660 0.66730
C68 C -0.2997(11) 0.0923(12) 0.6093(10)
C69 C -0.2960(19) 0.1025(19) 0.556(1)
C70 C 0.0941(5) 0.0948(4) 0.9801(5)
H55 H 0.11670 0.07390 0.95710
H56 H 0.03790 0.07360 0.96800
C71 C 0.1380(6) 0.0983(5) 1.0420(5)
H57 H 0.19480 0.11770 1.05330
H58 H 0.11760 0.12120 1.06520
C72 C 0.1283(7) 0.0398(5) 1.0525(6)
H59 H 0.07250 0.02220 1.04590
H60 H 0.14310 0.01510 1.02650
C73 C 0.1781(9) 0.0452(6) 1.1092(6)
H61 H 0.16790 0.07360 1.13490
H62 H 0.23410 0.05870 1.11420
C74 C 0.1626(11) -0.0120(8) 1.1239(10)
H63 H 0.19580 -0.00570 1.16200
H64 H 0.17520 -0.03980 1.09980
H65 H 0.10720 -0.02570 1.11870
C75 C -0.1028(6) 0.1133(5) 1.0729(5)
H66 H -0.15130 0.09670 1.07840
H67 H -0.10350 0.08850 1.03930
C76 C -0.0312(7) 0.1158(7) 1.1217(6)
H68 H 0.01690 0.12560 1.11350
H69 H -0.02470 0.14540 1.15440
C77 C -0.0414(14) 0.0597(8) 1.1336(9)
C78 C 0.0159(13) 0.0663(9) 1.1904(10)
C79 C 0.003(2) 0.0131(14) 1.2077(12)
C80 C -0.3506(6) 0.0862(4) 0.8402(5)
H70 H -0.30970 0.06690 0.84510
H71 H -0.38780 0.06970 0.85580
C81 C -0.3946(6) 0.0745(6) 0.7797(6)
H72 H -0.36300 0.10080 0.76710
H73 H -0.44430 0.08380 0.77500
C82 C -0.4151(10) 0.0162(6) 0.7418(8)
H74 H -0.36530 0.00790 0.74390
H75 H -0.44330 -0.01060 0.75580
C83 C -0.4639(11) 0.0054(8) 0.6827(9)
H76 H -0.51560 0.01050 0.68010
H77 H -0.43800 0.03400 0.66930
C84 C -0.4780(15) -0.0511(9) 0.6455(9)
H78 H -0.51010 -0.05380 0.60800
H79 H -0.50560 -0.07990 0.65730
H80 H -0.42750 -0.05640 0.64670
C85 C 0.6980(8) 0.7915(4) 0.7841(5)
C86 C 0.6433(7) 0.8017(4) 0.7374(5)
C87 C 0.5725(6) 0.8073(4) 0.7384(4)
H81 H 0.53570 0.81100 0.70700
C88 C 0.5525(7) 0.8077(4) 0.7855(5)
C89 C 0.6070(7) 0.8014(4) 0.8306(5)
C90 C 0.6789(7) 0.7908(4) 0.8315(4)
H82 H 0.71250 0.78360 0.86200
C91 C 0.4733(5) 0.8207(4) 0.7862(4)
H83 H 0.46560 0.81140 0.81860
C92 C 0.3990(5) 0.7832(4) 0.7361(4)
C93 C 0.3526(6) 0.7316(4) 0.7373(5)
C94 C 0.2833(6) 0.6991(4) 0.6937(5)
H84 H 0.25420 0.66530 0.69610
C95 C 0.2566(6) 0.7139(5) 0.6488(5)
C96 C 0.2932(7) 0.7654(5) 0.6423(5)
C97 C 0.3690(7) 0.7987(4) 0.6899(5)
H85 H 0.39810 0.83280 0.68790
C98 C 0.2577(7) 0.7875(5) 0.5952(4)
H86 H 0.19950 0.77490 0.58540
C99 C 0.2711(7) 0.7634(5) 0.5432(5)
C100 C 0.3487(7) 0.7687(5) 0.5433(5)
H87 H 0.39190 0.78550 0.57730
C101 C 0.3646(7) 0.7507(5) 0.4966(5)
C102 C 0.2991(7) 0.7205(6) 0.4459(5)
C103 C 0.2211(8) 0.7143(6) 0.4441(5)
H88 H 0.17740 0.69570 0.41070
C104 C 0.2089(8) 0.7362(6) 0.4932(5)
C105 C 0.4520(7) 0.7626(5) 0.4974(6)
H89 H 0.44860 0.73980 0.46140
C106 C 0.5021(7) 0.7428(7) 0.5414(6)
C107 C 0.5567(8) 0.7796(5) 0.5925(6)
H90 H 0.55850 0.81780 0.59970
C108 C 0.6072(8) 0.7658(6) 0.6328(6)
C109 C 0.6047(7) 0.7075(7) 0.6218(6)
C110 C 0.5510(8) 0.6669(5) 0.5718(6)
H91 H 0.54920 0.62870 0.56470
C111 C 0.5022(8) 0.6847(7) 0.5345(6)
C112 C 0.6711(6) 0.8046(4) 0.6881(5)
H92 H 0.71880 0.79170 0.69450
C113 C 0.816(1) 0.7638(8) 0.8257(8)
H93 H 0.86490 0.76220 0.82050
H94 H 0.78500 0.72620 0.82160
H95 H 0.82850 0.78840 0.86230
C114 C 0.6276(6) 0.7862(4) 0.9207(4)
H96 H 0.61630 0.79990 0.95360
H97 H 0.68480 0.80210 0.93030
C115 C 0.6069(6) 0.7219(4) 0.9055(4)
C116 C 0.5331(5) 0.6885(4) 0.8652(4)
H98 H 0.49820 0.70530 0.84540
C117 C 0.5114(5) 0.6296(4) 0.8547(4)
H99 H 0.46190 0.60750 0.82710
C118 C 0.5594(5) 0.6031(4) 0.8829(4)
C119 C 0.6352(5) 0.6386(5) 0.9230(4)
H100 H 0.67100 0.62230 0.94270
C120 C 0.6566(6) 0.6964(4) 0.9333(4)
H101 H 0.70660 0.71880 0.96010
C121 C 0.5324(6) 0.5417(4) 0.8737(4)
C122 C 0.3303(5) 0.6712(4) 0.7938(4)
H102 H 0.35670 0.66590 0.82910
H103 H 0.31860 0.63720 0.76430
H104 H 0.28120 0.67910 0.79280
C123 C 0.1392(7) 0.6313(6) 0.6060(5)
H105 H 0.16990 0.60440 0.60980
H106 H 0.12500 0.63960 0.63840
C124 C 0.0672(9) 0.6061(7) 0.5562(7)
C125 C -0.0028(9) 0.6203(7) 0.5528(6)
H107 H -0.00240 0.64610 0.58380
C126 C -0.0698(7) 0.5992(7) 0.5079(5)
H108 H -0.11650 0.60650 0.50970
C127 C -0.0712(6) 0.5655(5) 0.4570(4)
C128 C -0.0013(6) 0.5493(6) 0.4578(6)
H109 H 0.00160 0.52560 0.42680
C129 C 0.0628(8) 0.5725(6) 0.5100(6)
H110 H 0.10890 0.56220 0.51180
C130 C -0.1465(5) 0.5459(4) 0.4037(4)
C131 C 0.0621(7) 0.6924(6) 0.4424(6)
H111 H 0.01360 0.69350 0.44830
H112 H 0.06580 0.65420 0.43680
H113 H 0.06160 0.70390 0.41000
C132 C 0.2542(7) 0.6634(7) 0.3521(5)
H114 H 0.21110 0.67810 0.33520
H115 H 0.23250 0.63160 0.36380
C133 C 0.2923(8) 0.6439(6) 0.3104(5)
C134 C 0.3664(10) 0.6383(6) 0.3284(5)
H116 H 0.39480 0.64700 0.36650
C135 C 0.4010(7) 0.6201(6) 0.2915(5)
H117 H 0.45160 0.61540 0.30470
C136 C 0.3599(6) 0.6086(5) 0.2348(5)
C137 C 0.2858(8) 0.6127(6) 0.2177(5)
H118 H 0.25530 0.60240 0.17970
C138 C 0.2535(7) 0.6321(6) 0.2563(6)
H119 H 0.20290 0.63690 0.24350
C139 C 0.4009(8) 0.5907(5) 0.1952(6)
C140 C 0.4530(9) 0.5946(6) 0.4650(6)
H120 H 0.41430 0.57390 0.42800
H121 H 0.44250 0.57540 0.49080
H122 H 0.50590 0.59650 0.46580
C141 C 0.6508(6) 0.6329(6) 0.6574(5)
H123 H 0.69890 0.63030 0.68410
H124 H 0.64580 0.61290 0.62030
C142 C 0.5789(6) 0.6054(6) 0.6682(5)
C143 C 0.5438(6) 0.6337(5) 0.6972(4)
H125 H 0.56390 0.67330 0.71120
C144 C 0.4780(6) 0.6056(5) 0.7069(4)
H126 H 0.45140 0.62640 0.72390
C145 C 0.4524(5) 0.5462(4) 0.6911(4)
C146 C 0.4872(6) 0.5175(4) 0.6623(5)
H127 H 0.46870 0.47780 0.64990
C147 C 0.5510(7) 0.5460(6) 0.6504(5)
H128 H 0.57470 0.52530 0.63060
C148 C 0.3815(6) 0.5114(5) 0.7001(4)
C149 C 0.4835(6) 0.8839(3) 0.7971(4)
H129 H 0.53370 0.90480 0.82830
H130 H 0.48700 0.89440 0.76460
C150 C 0.4164(8) 0.9015(5) 0.8099(7)
H131 H 0.36560 0.87790 0.78040
H132 H 0.41620 0.89440 0.84440
C151 C 0.4225(9) 0.9633(5) 0.8154(7)
H133 H 0.47530 0.98730 0.84170
H134 H 0.41490 0.96990 0.77950
C152 C 0.3599(10) 0.9777(7) 0.8351(8)
H135 H 0.36880 0.97610 0.87280
H136 H 0.30590 0.95450 0.81010
C153 C 0.3792(12) 1.0375(7) 0.832(1)
H137 H 0.34010 1.05450 0.83920
H138 H 0.37820 1.03700 0.79540
H139 H 0.43160 1.05930 0.85930
C154 C 0.2822(10) 0.8523(6) 0.6081(7)
H140 H 0.27990 0.86920 0.64390
H141 H 0.33720 0.86590 0.61120
C155 C 0.2291(11) 0.8719(9) 0.5641(7)
C156 C 0.268(3) 0.9516(14) 0.6512(13)
C157 C 0.2492(16) 0.9729(12) 0.7019(12)
C158 C 0.4864(8) 0.8244(5) 0.5028(6)
C159 C 0.5596(8) 0.8372(7) 0.4881(7)
H142 H 0.60640 0.84070 0.51990
H143 H 0.55390 0.80550 0.45750
C160 C 0.5728(14) 0.8912(10) 0.4717(12)
H144 H 0.59670 0.92410 0.50480
H145 H 0.60930 0.89170 0.45210
C161 C 0.494(2) 0.8938(17) 0.4347(16)
C162 C 0.496(4) 0.9216(13) 0.491(2)
C163 C 0.6947(8) 0.8660(5) 0.6884(5)
H146 H 0.64680 0.87750 0.67570
H147 H 0.72740 0.89010 0.72620
C164 C 0.7407(10) 0.8743(7) 0.6516(6)
C165 C 0.8179(15) 0.9166(11) 0.6627(13)
C166 C 0.858(3) 0.898(2) 0.624(2)
C167 C 0.832(7) 0.834(2) 0.599(4)
O1 O -0.2525(3) 0.2664(3) 0.9023(3)
O2 O -0.0578(4) 0.2603(3) 0.8154(3)
O3 O 0.2056(4) 0.4198(3) 0.7133(3)
O4 O 0.2920(4) 0.4126(3) 0.7904(3)
O5 O 0.0139(4) 0.1339(4) 0.7406(4)
O6 O 0.2061(4) 0.1457(3) 0.9186(3)
O7 O 0.4512(3) 0.3757(2) 0.8539(3)
O8 O 0.4026(4) 0.4165(3) 0.9131(3)
O9 O 0.1329(3) 0.2675(3) 0.9861(3)
O10 O -0.0515(4) 0.2862(3) 1.0792(3)
O11 O -0.2888(4) 0.4579(3) 1.1642(3)
O12 O -0.1953(4) 0.4583(3) 1.2398(3)
O13 O -0.2168(4) 0.1883(4) 1.1078(4)
O14 O -0.4169(4) 0.1585(3) 0.9259(4)
O15 O -0.4533(3) 0.4450(3) 1.0342(3)
O16 O -0.4080(3) 0.4450(2) 0.9662(3)
O17 O 0.7702(5) 0.7860(4) 0.7841(4)
O18 O 0.5859(4) 0.8070(3) 0.8782(3)
O19 O 0.5820(4) 0.5199(3) 0.9035(3)
O20 O 0.4672(3) 0.5111(2) 0.8385(3)
O21 O 0.3813(4) 0.7177(3) 0.7868(3)
O22 O 0.1878(5) 0.6833(4) 0.6034(3)
O23 O -0.2059(5) 0.5712(4) 0.4041(3)
O24 O -0.1418(4) 0.5086(3) 0.3590(3)
O25 O 0.1297(6) 0.7303(5) 0.4900(4)
O26 O 0.3167(4) 0.7073(4) 0.3991(3)
O27 O 0.3667(4) 0.5893(3) 0.1445(3)
O28 O 0.4633(4) 0.5786(3) 0.2123(3)
O29 O 0.4473(5) 0.6495(4) 0.4798(4)
O30 O 0.6576(5) 0.6923(4) 0.6618(4)
O31 O 0.3358(4) 0.5409(3) 0.7129(3)
O32 O 0.3694(4) 0.4615(3) 0.6952(3)
C168 C 0.235(3) 0.9344(13) 0.5886(14)
Na1 Na -0.4085(2) 0.54022(15) 1.00135(16)
Na2 Na -0.36429(18) 0.50818(14) 1.12591(14)
Na3 Na 0.4080(2) 0.42174(17) 0.76773(17)
Na4 Na -0.2657(4) 0.6200(2) 0.3604(2)
O33 O 0.2802(10) 0.4157(7) 0.9799(9)
O34 O -0.3440(6) 0.6691(4) 0.3027(4)
O35 O 0.1821(7) 0.4928(6) 0.9613(6)
O36 O 0.6246(17) 0.9721(11) 0.9842(11)
O37 O 0.5874(13) 0.8943(10) 1.0011(11)
O38 O 0.7608(13) 0.5714(10) 0.8342(10)
O39 O 0.8423(17) 0.5651(13) 0.9029(13)
N1 N 0.2799(13) 0.5874(9) 0.5063(11)
C169 C 0.3247(15) 0.6023(16) 0.5611(14)
C170 C 0.2313(10) 0.5642(10) 0.4494(9)
C171? C -0.117(3) 0.055(3) 1.145(4)
C172? C -0.110(4) -0.004(3) 1.130(3)
C173? C 0.766(2) 0.9268(15) 0.6485(14)
C174? C 0.8419(16) 0.9307(14) 0.6128(12)
C175? C 0.943(3) 0.908(2) 0.649(2)
C176? C 0.4483(17) 0.838(2) 0.4206(11)
C177? C 0.164(5) 1.004(4) 0.517(4)
C178? C 0.232(8) 0.989(3) 0.574(6)
C179? C 0.2930(19) 0.9296(10) 0.5810(15)
C180? C -0.356(5) 0.122(4) 0.609(4)
Zn1* Zn -0.44564(6) 0.43670(4) 0.88468(4)
Zn1A Zn 0.44564(6) 0.56330(4) 0.11532(4)
Zn2* Zn -0.23286(6) 0.50272(5) 0.29076(5)
Zn2A Zn 0.23286(6) 0.49728(5) 0.70924(5)
O3A O -0.2056(4) 0.5802(3) 1.2867(3)
O16* O 0.5920(3) 0.4450(2) 0.9662(3)
O24* O -0.1418(4) 0.5086(3) 1.3590(3)
O27A O 0.6333(4) 0.4107(3) 0.8555(3)
O28A O 0.5367(4) 0.4214(3) 0.7877(3)
O31A O -0.3358(4) 0.4591(3) 1.2871(3)
#END
