
#######################################################################
#
#                 Cambridge Crystallographic Data Centre
#                                CCDC
#
#######################################################################
#
# If this CIF has been generated from an entry in the Cambridge
# Structural Database, then it will include bibliographic, chemical,
# crystal, experimental, refinement or atomic coordinate data resulting
# from the CCDC's data processing and validation procedures.
#
#######################################################################

data_CSD_CIF_POXMEU
_audit_creation_date 1998-11-26
_audit_creation_method CSD-ConQuest-V1
_database_code_CSD POXMEU
_chemical_formula_sum 'C10 H31 Cl1 F2 N4 O17 P2 Zr1'
_chemical_formula_moiety
;
(C10 H17 F2 N2 O14 P2 Zr1 1-)n,2n(H4 N1 1+),n(Cl1 1-),3n(H2 O1)
;
_journal_coden_Cambridge 9
_journal_volume 37
_journal_year 1998
_journal_page_first 249
_journal_name_full 'Inorg.Chem. '
loop_
_publ_author_name
"B.Zhang"
"D.M.Poojary"
"A.Clearfield"
_chemical_name_systematic
;
catena-(Diammonium 
bis(\m~2~-N-(phosphonomethyl)iminodiacetato)-difluoro-zirconium chloride 
trihydrate)
;
_cell_volume    647.003
_exptl_crystal_colour 'colorless'
_exptl_crystal_density_diffrn 1.812
_exptl_crystal_description 'platelike'
_diffrn_ambient_temperature 163.15
_refine_special_details
;
The Cl ion and a water molecule were each refined at half occupancy, and the 
water molecule has been suppressed.
;
#These two values have been output from a single CSD field.
_refine_ls_R_factor_gt 0.025
_refine_ls_wR_factor_gt 0.025
_symmetry_cell_setting triclinic
_symmetry_space_group_name_H-M 'P -1'
_symmetry_Int_Tables_number 2
loop_
_symmetry_equiv_pos_site_id
_symmetry_equiv_pos_as_xyz
1 x,y,z
2 -x,-y,-z
_cell_length_a 10.743(2)
_cell_length_b 11.483(2)
_cell_length_c 5.330(1)
_cell_angle_alpha 90.63(2)
_cell_angle_beta 96.65(2)
_cell_angle_gamma 97.68(2)
_cell_formula_units_Z 1
loop_
_atom_type_symbol
_atom_type_radius_bond
C 0.68
H 0.23
Cl 0.99
F 0.64
N 0.68
O 0.68
P 1.05
Zr 1.56
loop_
_atom_site_label
_atom_site_type_symbol
_atom_site_fract_x
_atom_site_fract_y
_atom_site_fract_z
Zr1 Zr 0.00000 0.00000 0.00000
Cl1 Cl 0.4559(2) 0.5289(2) 0.2728(4)
P1 P 0.21344(6) 0.02873(6) 0.5690(1)
F1 F 0.0285(2) 0.1710(1) -0.0542(3)
O1 O 0.1292(2) 0.0162(2) 0.3192(3)
O2 O 0.2516(2) 0.3786(2) 0.5403(5)
O3 O -0.1439(2) 0.0269(2) 0.2185(3)
O4? O 0.4118(6) 0.5595(5) 0.181(1)
O5 O 0.2783(2) 0.1510(2) 0.6267(3)
O6 O 0.6116(2) -0.2189(2) 0.9441(4)
O7 O 0.4444(2) -0.1461(2) 1.0654(4)
O8 O 0.1490(2) -0.3560(2) 0.7789(4)
O9 O 0.0633(2) -0.4241(2) 0.3923(4)
N1 N 0.3075(2) -0.1864(2) 0.6117(5)
N2 N 0.1488(3) 0.4038(2) 1.0156(5)
C1 C 0.3395(2) -0.0600(2) 0.5467(5)
C2 C 0.4250(3) -0.2439(2) 0.6653(5)
C3 C 0.4946(2) -0.1975(2) 0.9153(5)
C4 C 0.2135(3) -0.2559(2) 0.4173(5)
C5 C 0.1372(3) -0.3530(2) 0.5483(5)
H1 H 0.40930 -0.02650 0.67380
H2 H 0.36920 -0.05660 0.36940
H3 H 0.25260 -0.28220 0.29030
H4 H 0.47110 -0.22600 0.51430
H5 H 0.40410 -0.32990 0.67360
H6 H 0.26350 -0.19140 0.75520
H7 H 0.16300 -0.19890 0.35430
H8 H 0.25930 0.29390 0.56060
H9 H 0.34100 0.41880 0.54510
H10 H 0.12520 0.46920 0.98810
H11 H 0.18840 0.39040 0.88050
H12 H 0.09330 0.36170 1.00910
H13 H 0.18870 0.40340 1.13570
H14 H 0.00000 -0.50000 0.50000
F1A F -0.0285(2) -0.1710(1) 0.0542(3)
O3A O 0.1439(2) -0.0269(2) 0.7815(3)
Zr1A Zr 0.00000 0.00000 1.00000
O1A O -0.1292(2) -0.0162(2) 0.6808(3)
P1A P -0.21344(6) -0.02873(6) 0.4310(1)
O1A* O -0.1292(2) -0.0162(2) -0.3192(3)
O3A* O 0.1439(2) -0.0269(2) -0.2185(3)
O5A O -0.2783(2) -0.1510(2) 0.3733(3)
C1A C -0.3395(2) 0.0600(2) 0.4533(5)
N1A N -0.3075(2) 0.1864(2) 0.3883(5)
C2A C -0.4250(3) 0.2439(2) 0.3347(5)
C3A C -0.4946(2) 0.1975(2) 0.0847(5)
O6A O -0.6116(2) 0.2189(2) 0.0559(4)
O7A O -0.4444(2) 0.1461(2) -0.0654(4)
H4A H -0.47110 0.22600 0.48570
H5A H -0.40410 0.32990 0.32640
C4A C -0.2135(3) 0.2559(2) 0.5827(5)
C5A C -0.1372(3) 0.3530(2) 0.4517(5)
O8A O -0.1490(2) 0.3560(2) 0.2211(4)
O9A O -0.0633(2) 0.4241(2) 0.6077(4)
H14A H 0.00000 0.50000 0.50000
O9* O 0.0633(2) 0.5759(2) 0.3923(4)
H3A H -0.25260 0.28220 0.70970
H7A H -0.16300 0.19890 0.64570
H6A H -0.26350 0.19140 0.24480
H1A H -0.40930 0.02650 0.32620
H2A H -0.36920 0.05660 0.63060
#END
