
#######################################################################
#
#                 Cambridge Crystallographic Data Centre
#                                CCDC
#
#######################################################################
#
# If this CIF has been generated from an entry in the Cambridge
# Structural Database, then it will include bibliographic, chemical,
# crystal, experimental, refinement or atomic coordinate data resulting
# from the CCDC's data processing and validation procedures.
#
#######################################################################

data_CSD_CIF_POYVEE
_audit_creation_date 1998-11-26
_audit_creation_method CSD-ConQuest-V1
_database_code_CSD POYVEE
_database_code_depnum_ccdc_archive 'CCDC 1237673'
_chemical_formula_sum 'C24 H20 Cd2 N8 O20'
_chemical_formula_moiety
;
(C24 H8 Cd2 N8 O16 4-)n,4n(H3 O1 1+)
;
_journal_coden_Cambridge 15
_journal_volume 74
_journal_year 1996
_journal_page_first 2413
_journal_name_full 'Can.J.Chem. '
loop_
_publ_author_name
"Long Mao"
"S.J.Rettig"
"R.C.Thompson"
"J.Trotter"
"Shihua Xia"
_chemical_name_systematic
;
catena-(Dioxonium tetrakis(\m~2~-pyrazine-2,3-dicarboxylato)-cadmium(ii))
;
_cell_volume   1474.380
_exptl_crystal_colour 'colorless'
_exptl_crystal_density_diffrn 2.174
_exptl_special_details
;
Data for deposition has not been received

;
_exptl_crystal_description 'prism'
_diffrn_ambient_temperature ?
_diffrn_special_details
;
The study was carried out at room temperature,in the range 283-303K

;
#These two values have been output from a single CSD field.
_refine_ls_R_factor_gt 0.025
_refine_ls_wR_factor_gt 0.025
_symmetry_cell_setting monoclinic
_symmetry_space_group_name_H-M 'C 2/c'
_symmetry_Int_Tables_number 15
loop_
_symmetry_equiv_pos_site_id
_symmetry_equiv_pos_as_xyz
1 x,y,z
2 -x,y,1/2-z
3 1/2+x,1/2+y,z
4 1/2-x,1/2+y,1/2-z
5 -x,-y,-z
6 x,-y,-1/2+z
7 -1/2-x,-1/2-y,-z
8 -1/2+x,-1/2-y,-1/2+z
_cell_length_a 14.4857(9)
_cell_length_b 8.502(1)
_cell_length_c 14.9803(7)
_cell_angle_alpha 90
_cell_angle_beta 126.951(2)
_cell_angle_gamma 90
_cell_formula_units_Z 2
loop_
_atom_type_symbol
_atom_type_radius_bond
C 0.68
Cd 1.69
N 0.68
O 0.68
loop_
_atom_site_label
_atom_site_type_symbol
_atom_site_fract_x
_atom_site_fract_y
_atom_site_fract_z
Cd1 Cd 0.00000 0.25533(1) 0.25000
O1 O 0.03518(8) 0.2078(1) 0.41645(7)
O2 O 0.13543(8) 0.0652(1) 0.57223(7)
O3 O 0.33613(10) -0.2094(1) 0.66853(8)
O4 O 0.38720(8) 0.0382(1) 0.72517(7)
N1 N 0.16801(8) 0.0988(1) 0.35722(7)
N2 N 0.36534(8) -0.0747(1) 0.50639(8)
C1 C 0.19672(8) 0.0604(1) 0.45812(8)
C2 C 0.29726(8) -0.0249(1) 0.53389(8)
C3 C 0.3360(1) -0.0346(2) 0.40629(9)
C4 C 0.2375(1) 0.0538(1) 0.33147(9)
C5 C 0.11510(9) 0.1159(1) 0.48332(8)
C6 C 0.34212(8) -0.0666(1) 0.65215(8)
O5 O 0.02801(9) 0.1925(1) 0.63518(8)
O1A O -0.03518(8) 0.2078(1) 0.08355(7)
O2A O -0.13543(8) 0.0652(1) -0.07223(7)
O3A O -0.33613(10) -0.2094(1) -0.16853(8)
O4A O -0.38720(8) 0.0382(1) -0.22517(7)
N1A N -0.16801(8) 0.0988(1) 0.14278(7)
N2A N -0.36534(8) -0.0747(1) -0.00639(8)
C1A C -0.19672(8) 0.0604(1) 0.04188(8)
C2A C -0.29726(8) -0.0249(1) -0.03389(8)
C3A C -0.3360(1) -0.0346(2) 0.09371(9)
C4A C -0.2375(1) 0.0538(1) 0.16853(9)
C5A C -0.11510(9) 0.1159(1) 0.01668(8)
C6A C -0.34212(8) -0.0666(1) -0.15215(8)
O1F O 0.46482(8) 0.2922(1) 0.58355(7)
O2F O 0.36457(8) 0.4348(1) 0.42777(7)
O3F O 0.16387(10) 0.7094(1) 0.33147(8)
O4F O 0.11280(8) 0.4618(1) 0.27483(7)
N1F N 0.33199(8) 0.4012(1) 0.64278(7)
N2F N 0.13466(8) 0.5747(1) 0.49361(8)
C1F C 0.30328(8) 0.4396(1) 0.54188(8)
C2F C 0.20274(8) 0.5249(1) 0.46611(8)
C3F C 0.1640(1) 0.5346(2) 0.59371(9)
C4F C 0.2625(1) 0.4462(1) 0.66853(9)
C5F C 0.38490(9) 0.3841(1) 0.51668(8)
C6F C 0.15788(8) 0.5666(1) 0.34785(8)
O1G O -0.46482(8) 0.2922(1) -0.08355(7)
O2G O -0.36457(8) 0.4348(1) 0.07223(7)
O3G O -0.16387(10) 0.7094(1) 0.16853(8)
O4G O -0.11280(8) 0.4618(1) 0.22517(7)
N1G N -0.33199(8) 0.4012(1) -0.14278(7)
N2G N -0.13466(8) 0.5747(1) 0.00639(8)
C1G C -0.30328(8) 0.4396(1) -0.04188(8)
C2G C -0.20274(8) 0.5249(1) 0.03389(8)
C3G C -0.1640(1) 0.5346(2) -0.09371(9)
C4G C -0.2625(1) 0.4462(1) -0.16853(9)
C5G C -0.38490(9) 0.3841(1) -0.01668(8)
C6G C -0.15788(8) 0.5666(1) 0.15215(8)
Cd1F Cd 0.50000 0.24467(1) 0.75000
Cd1G Cd -0.50000 0.24467(1) -0.25000
O1G* O 0.53518(8) 0.2922(1) 0.91645(7)
N1G* N 0.66801(8) 0.4012(1) 0.85722(7)
O4A* O 0.61280(8) 0.0382(1) 0.77483(7)
#END
