
#######################################################################
#
#                 Cambridge Crystallographic Data Centre
#                                CCDC
#
#######################################################################
#
# If this CIF has been generated from an entry in the Cambridge
# Structural Database, then it will include bibliographic, chemical,
# crystal, experimental, refinement or atomic coordinate data resulting
# from the CCDC's data processing and validation procedures.
#
#######################################################################

data_CSD_CIF_PRDSBA10
_audit_creation_date 1981-12-23
_audit_creation_method CSD-ConQuest-V1
_database_code_CSD PRDSBA10
_database_code_depnum_ccdc_archive 'CCDC 1237991'
_chemical_formula_sum 'C22 H12 Cl12 N2 O4 Sb2'
_chemical_formula_moiety
;
(C12 Cl12 O4 Sb2 2-)n,2n(C5 H6 N1 1+)
;
_journal_coeditor_code "IUCr A20152"
_journal_coden_Cambridge 107
_journal_volume 37
_journal_year 1981
_journal_page_first 1284
_journal_name_full 'Acta Crystallogr.,Sect.B:Struct.Crystallogr.Cryst.Chem. '
loop_
_publ_author_name
"M.Alamgir"
"N.Allen"
"P.W.C.Barnard"
"J.D.Donaldson"
"J.Silver"
_chemical_name_systematic
;
catena-[di-pyridinium 
bis(\m~2~-chloro)-dichloro-bis(3,4,5,6-tetrachloro-pyrocatecholato)-di-antimon
y(iii)]
;
_chemical_melting_point 482
_cell_volume   1950.024
_exptl_crystal_density_diffrn 1.77
_exptl_special_details
;
Melting point range 482-3K

;
_diffrn_ambient_temperature ?
_diffrn_special_details
;
The study was carried out at room temperature,in the range 283-303K

;
#These two values have been output from a single CSD field.
_refine_ls_R_factor_gt 0.081
_refine_ls_wR_factor_gt 0.081
_symmetry_cell_setting monoclinic
_symmetry_space_group_name_H-M 'P 21/c'
_symmetry_Int_Tables_number 14
loop_
_symmetry_equiv_pos_site_id
_symmetry_equiv_pos_as_xyz
1 x,y,z
2 -x,1/2+y,1/2-z
3 -x,-y,-z
4 x,-1/2-y,-1/2+z
_cell_length_a 14.051(9)
_cell_length_b 8.494(6)
_cell_length_c 16.508(11)
_cell_angle_alpha 90
_cell_angle_beta 98.21(5)
_cell_angle_gamma 90
_cell_formula_units_Z 2
loop_
_atom_type_symbol
_atom_type_radius_bond
C 0.68
Cl 0.99
N 0.68
O 0.68
Sb 1.62
loop_
_atom_site_label
_atom_site_type_symbol
_atom_site_fract_x
_atom_site_fract_y
_atom_site_fract_z
Sb1 Sb 0.09500 0.07540 0.17010
Cl1 Cl -0.00710 0.30780 0.26420
Cl2 Cl 0.19990 0.28170 0.12540
Cl3 Cl 0.35220 -0.30260 0.11080
Cl4 Cl 0.51430 -0.33800 0.26150
Cl5 Cl 0.49230 -0.17020 0.42500
Cl6 Cl 0.31070 0.03820 0.43690
O1 O 0.18210 0.06380 0.28080
O2 O 0.19390 -0.08960 0.14360
C1 C 0.25430 -0.02510 0.28000
C2 C 0.26410 -0.11390 0.20620
C3 C 0.34300 -0.21020 0.20030
C4 C 0.41460 -0.22840 0.26980
C5 C 0.40440 -0.14720 0.34250
C6 C 0.32560 -0.05210 0.34570
C7 C 0.37570 0.09130 -0.11090
C8 C 0.30660 0.09060 -0.18380
C9 C 0.21950 0.03190 -0.18070
C10 C 0.19050 0.02190 -0.09710
C11 C 0.34470 0.02780 -0.02740
N1 N 0.25330 0.00460 -0.02690
Cl1A Cl 0.00710 -0.19220 0.23580
Sb1A Sb -0.09500 0.57540 0.32990
Sb1A* Sb -0.09500 -0.42460 0.32990
Cl1A* Cl 0.00710 0.80780 0.23580
Cl2A Cl -0.19990 0.78170 0.37460
O1A O -0.18210 0.56380 0.21920
O2A O -0.19390 0.41040 0.35640
C1A C -0.25430 0.47490 0.22000
C2A C -0.26410 0.38610 0.29380
C6A C -0.32560 0.44790 0.15430
C3A C -0.34300 0.28980 0.29970
Cl6A Cl -0.31070 0.53820 0.06310
C5A C -0.40440 0.35280 0.15750
Cl3A Cl -0.35220 0.19740 0.38920
C4A C -0.41460 0.27160 0.23020
Cl5A Cl -0.49230 0.32980 0.07500
Cl4A Cl -0.51430 0.16200 0.23850
#END
