
#######################################################################
#
#                 Cambridge Crystallographic Data Centre
#                                CCDC
#
#######################################################################
#
# If this CIF has been generated from an entry in the Cambridge
# Structural Database, then it will include bibliographic, chemical,
# crystal, experimental, refinement or atomic coordinate data resulting
# from the CCDC's data processing and validation procedures.
#
#######################################################################

data_CSD_CIF_PUBCEV
_audit_creation_date 2009-12-22
_audit_creation_method CSD-ConQuest-V1
_database_code_CSD PUBCEV
_database_code_depnum_ccdc_archive 'CCDC 696244'
_chemical_formula_sum 'C148 H181 N12 Na10 O81 S8'
_chemical_formula_moiety
;
(C44 H38 N8 4+)1.5n,n(C72 H52 Na10 O50 S8 6-),n(C10 H22 O6),25n(H2 O1)
;
_journal_coden_Cambridge 4
_journal_volume 131
_journal_year 2009
_journal_page_first 2487
_journal_name_full 'J.Am.Chem.Soc. '
loop_
_publ_author_name
"R.De Zorzi"
"N.Guidolin"
"L.Randaccio"
"R.Purrello"
"S.Geremia"
_chemical_name_systematic
;
catena-[sesquikis(meso-5,10,15,20-tetrakis(1-methylpyridinium-4-yl)porphyrin) 
(\m~7~-5,11,17,23-tetrasulfonato-25,26,27,28-tetrakis((carboxylato)methoxy)cal
ix(4)arene)-(\m~4~-5,11,17,23-tetrasulfonato-25,26,27,28-tetrakis((carboxylato
)methoxy)calix(4)arene)-(\m~2~-aqua)-aqua-deca-sodium 
3,6,9,12-tetraoxatetradecane-1,14-diol solvate pentacosahydrate]
;
_cell_volume 121911.321
_exptl_crystal_density_diffrn 0.852
_exptl_special_details
;
cone conformation
The exact coordination of the Na atoms surrounding the sulfonate groups is 
unclear in the paper
;
_diffrn_ambient_temperature 100
_diffrn_radiation_probe x-ray
_diffrn_source synchrotron
_refine_special_details
;
A phenylsulfonato group is disordered over two sites with occupancies 
0.67:0.33. Two Na atoms are disordered equally over two sites. A number of 
uncoordinated water molecules were not modelled and the disordered density 
was taken into account using the SQUEEZE/PLATON procedure.
;
#These two values have been output from a single CSD field.
_refine_ls_R_factor_gt 0.1173
_refine_ls_wR_factor_gt 0.1173
_symmetry_cell_setting tetragonal
_symmetry_space_group_name_H-M 'I 41/a'
_symmetry_Int_Tables_number 88
loop_
_symmetry_equiv_pos_site_id
_symmetry_equiv_pos_as_xyz
1 x,y,z
2 3/4-y,1/4+x,1/4+z
3 1/2-x,-y,1/2+z
4 3/4+y,3/4-x,3/4+z
5 1/2+x,1/2+y,1/2+z
6 1/4-y,3/4+x,3/4+z
7 -x,1/2-y,z
8 1/4+y,1/4-x,1/4+z
9 -x,-y,-z
10 -3/4+y,-1/4-x,-1/4-z
11 -1/2+x,y,-1/2-z
12 -3/4-y,-3/4+x,-3/4-z
13 -1/2-x,-1/2-y,-1/2-z
14 -1/4+y,-3/4-x,-3/4-z
15 x,-1/2+y,-z
16 -1/4-y,-1/4+x,-1/4-z
_cell_length_a 50.3695(7)
_cell_length_b 50.3695(7)
_cell_length_c 48.0517(6)
_cell_angle_alpha 90
_cell_angle_beta 90
_cell_angle_gamma 90
_cell_formula_units_Z 16
loop_
_atom_type_symbol
_atom_type_radius_bond
C 0.68
H 0.19
N 0.68
Na 1.78
O 0.69
S 1.02
loop_
_atom_site_label
_atom_site_type_symbol
_atom_site_fract_x
_atom_site_fract_y
_atom_site_fract_z
N1 N 0.46625(11) 0.07524(10) 0.46212(9)
C1 C 0.43978(13) 0.08051(13) 0.46183(12)
C2 C 0.42887(14) 0.07477(14) 0.43489(13)
H1 H 0.41070 0.07630 0.42970
C3 C 0.44886(13) 0.06688(13) 0.41844(13)
H2 H 0.44740 0.06220 0.39930
C4 C 0.47320(13) 0.06666(13) 0.43497(13)
C5 C 0.49849(14) 0.06065(13) 0.42621(12)
C6 C 0.50153(12) 0.05511(16) 0.39544(13)
C7 C 0.49732(16) 0.07429(19) 0.37624(18)
H3 H 0.49300 0.09170 0.38220
C8 C 0.4992(2) 0.0690(3) 0.3488(2)
H4 H 0.49630 0.08300 0.33590
N2 N 0.50469(16) 0.0461(4) 0.33956(18)
C9 C 0.50928(18) 0.0265(3) 0.3571(3)
H5 H 0.51340 0.00940 0.35010
C10 C 0.50819(14) 0.03029(19) 0.38566(17)
H6 H 0.51190 0.01610 0.39810
C11 C 0.5065(2) 0.0383(4) 0.30964(18)
H7 H 0.49490 0.02300 0.30620
H8 H 0.50090 0.05320 0.29790
H9 H 0.52490 0.03350 0.30520
N3 N 0.46166(10) 0.09676(10) 0.51722(9)
C12 C 0.46369(13) 0.10662(12) 0.54439(12)
C13 C 0.43744(13) 0.11523(12) 0.55283(13)
H10 H 0.43300 0.12280 0.57030
C14 C 0.42034(13) 0.11073(12) 0.53188(11)
H11 H 0.40180 0.11430 0.53190
C15 C 0.43559(12) 0.09936(12) 0.50935(12)
C16 C 0.42537(12) 0.09120(12) 0.48381(11)
C17 C 0.39673(13) 0.09632(14) 0.47824(11)
C18 C 0.38619(16) 0.12181(16) 0.47878(12)
H12 H 0.39700 0.13650 0.48370
C19 C 0.35943(17) 0.12553(17) 0.47204(14)
H13 H 0.35200 0.14290 0.47260
N4 N 0.34459(11) 0.10536(16) 0.46494(10)
C20 C 0.35358(16) 0.08055(18) 0.46504(12)
H14 H 0.34200 0.06620 0.46070
C21 C 0.37935(16) 0.07579(15) 0.47143(12)
H15 H 0.38570 0.05800 0.47130
C22 C 0.31614(13) 0.11018(18) 0.45729(17)
H16 H 0.31390 0.12860 0.45130
H17 H 0.31100 0.09820 0.44210
H18 H 0.30480 0.10680 0.47350
N5 N 0.51800(11) 0.08769(10) 0.52581(9)
C23 C 0.54450(14) 0.08401(13) 0.52527(12)
C24 C 0.55544(14) 0.09079(15) 0.55187(13)
H19 H 0.57360 0.08960 0.55700
C25 C 0.53543(14) 0.09914(15) 0.56828(13)
H20 H 0.53690 0.10500 0.58700
C26 C 0.51119(14) 0.09745(14) 0.55190(13)
C27 C 0.48632(13) 0.10611(13) 0.56079(12)
C28 C 0.48454(12) 0.11678(15) 0.58970(12)
C29 C 0.47803(14) 0.14285(17) 0.59482(15)
H21 H 0.47330 0.15420 0.57980
C30 C 0.47834(15) 0.15248(16) 0.62173(17)
H22 H 0.47370 0.17040 0.62550
N6 N 0.48543(11) 0.13592(17) 0.64262(12)
C31 C 0.49126(13) 0.11081(18) 0.63827(14)
H23 H 0.49560 0.09960 0.65350
C32 C 0.49109(12) 0.10102(15) 0.61177(13)
H24 H 0.49560 0.08290 0.60860
C33 C 0.48560(18) 0.1471(2) 0.67160(15)
H25 H 0.49670 0.13600 0.68360
H26 H 0.49280 0.16520 0.67120
H27 H 0.46740 0.14750 0.67890
N7 N 0.52272(10) 0.06686(10) 0.46962(10)
C34 C 0.52164(13) 0.05997(13) 0.44195(13)
C35 C 0.54777(14) 0.05500(14) 0.43198(13)
H28 H 0.55240 0.04970 0.41370
C36 C 0.56454(13) 0.05913(13) 0.45303(13)
H29 H 0.58330 0.05730 0.45250
C37 C 0.54871(13) 0.06693(12) 0.47693(12)
C38 C 0.55916(12) 0.07513(13) 0.50246(12)
C39 C 0.58819(14) 0.07492(15) 0.50584(11)
C40 C 0.60284(16) 0.05195(15) 0.50566(12)
H30 H 0.59450 0.03560 0.50090
C41 C 0.62963(16) 0.05233(17) 0.51230(12)
H31 H 0.63950 0.03630 0.51200
N8 N 0.64119(12) 0.07416(16) 0.51887(10)
C42 C 0.62757(17) 0.09871(17) 0.51834(14)
H32 H 0.63650 0.11480 0.52250
C43 C 0.60122(15) 0.09868(17) 0.51164(13)
H33 H 0.59170 0.11500 0.51090
C44 C 0.66935(13) 0.07324(19) 0.52797(14)
H34 H 0.67980 0.06300 0.51450
H35 H 0.67640 0.09130 0.52910
H36 H 0.67050 0.06480 0.54630
N9 N 0.00249(9) -0.01374(10) 0.04023(9)
C45 C -0.01793(13) -0.01790(13) 0.05899(12)
C46 C -0.00711(14) -0.02999(14) 0.08298(12)
H37 H -0.01700 -0.03550 0.09880
C47 C 0.01891(15) -0.03240(13) 0.07998(11)
H38 H 0.03090 -0.03940 0.09330
C48 C 0.02579(14) -0.02246(12) 0.05293(12)
C49 C 0.05108(12) -0.02126(11) 0.04082(12)
C50 C 0.07318(12) -0.02859(13) 0.05973(11)
C51 C 0.07595(15) -0.05340(17) 0.07225(17)
H39 H 0.06270 -0.06660 0.06990
C52 C 0.0982(2) -0.05851(18) 0.08802(18)
H40 H 0.10050 -0.07580 0.09560
N10 N 0.11644(11) -0.04048(13) 0.09309(10)
C53 C 0.11381(15) -0.01677(19) 0.08343(15)
H41 H 0.12670 -0.00370 0.08790
C54 C 0.09250(17) -0.00996(16) 0.06654(14)
H42 H 0.09110 0.00760 0.05950
C55 C 0.13973(13) -0.04720(15) 0.10996(13)
H43 H 0.15480 -0.05090 0.09770
H44 H 0.13590 -0.06300 0.12120
H45 H 0.14400 -0.03230 0.12220
N11 N 0.04015(9) -0.00407(9) -0.00567(10)
C56 C 0.05748(12) -0.01420(12) 0.01384(12)
C57 C 0.08292(12) -0.01783(12) 0.00159(12)
H46 H 0.09830 -0.02450 0.01060
C58 C 0.08100(13) -0.00996(12) -0.02538(13)
H47 H 0.09480 -0.01060 -0.03890
C59 C 0.05487(12) -0.00057(12) -0.02989(11)
C60 C -0.04415(13) -0.01063(13) 0.05466(11)
C61 C -0.06316(13) -0.01487(13) 0.07794(12)
C62 C -0.08513(17) -0.02978(17) 0.07505(15)
H48 H -0.08910 -0.03700 0.05730
C63 C -0.10254(15) -0.03517(17) 0.09726(16)
H49 H -0.11790 -0.04570 0.09450
N12 N -0.09696(12) -0.02525(13) 0.12178(11)
C64 C -0.0761(2) -0.00973(19) 0.12482(15)
H50 H -0.07300 -0.00190 0.14250
C65 C -0.05888(16) -0.00442(17) 0.10409(16)
H51 H -0.04380 0.00650 0.10750
C66 C -0.11407(15) -0.03184(17) 0.14607(14)
H52 H -0.10420 -0.04330 0.15890
H53 H -0.13000 -0.04110 0.13960
H54 H -0.11920 -0.01540 0.15570
C67 C 0.22866(15) -0.04539(15) 0.09517(14)
H55 H 0.23940 -0.04540 0.07790
H56 H 0.24100 -0.04510 0.11120
C68 C 0.21233(15) -0.07012(14) 0.09619(14)
C69 C 0.20889(16) -0.08390(15) 0.12139(14)
C70 C 0.19223(17) -0.10517(15) 0.12414(14)
C71 C 0.17951(16) -0.11403(15) 0.10045(17)
H57 H 0.16800 -0.12890 0.10160
C72 C 0.18320(18) -0.10183(18) 0.07556(17)
C73 C 0.19949(16) -0.07964(17) 0.07334(14)
H58 H 0.20170 -0.07110 0.05580
O1 O 0.22378(10) -0.07536(9) 0.14460(8)
C74 C 0.24865(18) -0.09002(16) 0.14651(16)
H59 H 0.25660 -0.09170 0.12780
H60 H 0.24510 -0.10810 0.15360
C75 C 0.26750(16) -0.0762(2) 0.16538(15)
O2 O 0.28858(13) -0.09005(12) 0.17068(11)
O3 O 0.26416(10) -0.05335(12) 0.17300(9)
S1 S 0.16700(6) -0.11411(5) 0.04465(5)
O4 O 0.1795(2) -0.13846(17) 0.03832(18)
O5 O 0.1721(2) -0.09569(18) 0.02288(14)
O6 O 0.14070(14) -0.1157(3) 0.05055(17)
C76 C 0.18227(13) 0.02705(14) 0.14956(12)
H61 H 0.19670 0.02410 0.16320
H62 H 0.17970 0.04640 0.14740
C77 C 0.18971(14) 0.01484(13) 0.12175(11)
C78 C 0.20754(13) -0.00654(14) 0.12011(12)
C79 C 0.21136(13) -0.02047(13) 0.09584(13)
C80 C 0.19740(14) -0.01241(14) 0.07201(12)
H63 H 0.19900 -0.02220 0.05520
C81 C 0.18138(14) 0.00961(14) 0.07308(11)
C82 C 0.17682(13) 0.02266(13) 0.09766(12)
H64 H 0.16470 0.03710 0.09820
O7 O 0.22216(8) -0.01267(8) 0.14386(7)
C83 C 0.24697(13) 0.00155(14) 0.14402(12)
H65 H 0.24420 0.01970 0.13670
H66 H 0.25980 -0.00760 0.13170
C84 C 0.25828(17) 0.00318(14) 0.17329(13)
O8 O 0.28213(10) 0.01145(9) 0.17323(8)
O9 O 0.24514(8) -0.00229(8) 0.19400(8)
S2 S 0.16496(5) 0.02144(4) 0.04249(4)
O10 O 0.16386(12) -0.00119(12) 0.02383(9)
O11 O 0.18270(12) 0.04128(14) 0.03018(11)
O12 O 0.14004(10) 0.03239(12) 0.05145(9)
C85 C 0.13517(15) -0.04516(17) 0.20451(14)
H67 H 0.11940 -0.04530 0.21680
H68 H 0.15120 -0.04420 0.21640
C86 C 0.13408(15) -0.02088(15) 0.18557(13)
C87 C 0.15692(14) -0.00702(15) 0.17864(13)
C88 C 0.15726(13) 0.01455(14) 0.15979(12)
C89 C 0.13260(15) 0.02186(15) 0.14882(13)
H69 H 0.13180 0.03610 0.13590
C90 C 0.10950(16) 0.00923(19) 0.15592(15)
C91 C 0.11049(16) -0.01359(17) 0.17403(14)
H70 H 0.09480 -0.02340 0.17790
O13 O 0.18078(8) -0.01344(8) 0.19170(7)
C92 C 0.18519(13) 0.00324(14) 0.21591(12)
H71 H 0.16820 0.00620 0.22570
H72 H 0.19220 0.02070 0.20990
C93 C 0.20429(13) -0.00953(17) 0.23496(13)
O14 O 0.21107(9) 0.00645(9) 0.25514(9)
O15 O 0.21110(9) -0.03231(11) 0.23256(8)
S3 S 0.07880(5) 0.01836(6) 0.14180(5)
O16 O 0.08375(11) 0.03832(12) 0.12143(12)
O17 O 0.06531(12) 0.02804(16) 0.16516(12)
O18 O 0.06682(11) -0.00526(12) 0.12918(12)
C94 C 0.18595(18) -0.11744(16) 0.15215(16)
H73 H 0.18450 -0.13700 0.15040
H74 H 0.20010 -0.11330 0.16570
C95 C 0.16005(19) -0.10588(18) 0.16156(17)
C96 C 0.15875(19) -0.08384(19) 0.18036(18)
C97 C 0.1358(2) -0.07094(18) 0.18705(15)
C98 C 0.11199(19) -0.0796(2) 0.17667(19)
H75 H 0.09570 -0.07110 0.18120
C99 C 0.1130(2) -0.1022(2) 0.1586(2)
C100 C 0.1365(2) -0.1152(2) 0.15116(18)
H76 H 0.13610 -0.13010 0.13910
O19 O 0.18246(10) -0.07605(9) 0.19327(8)
C101 C 0.18522(18) -0.08945(17) 0.22003(17)
H77 H 0.17910 -0.10810 0.21850
H78 H 0.17440 -0.08030 0.23430
C102 C 0.2144(2) -0.08868(16) 0.22798(18)
O20 O 0.21673(12) -0.09807(11) 0.25362(11)
O21 O 0.23207(12) -0.08328(10) 0.21262(12)
S4 S 0.08227(7) -0.11680(7) 0.14668(7)
O22 O 0.0624(2) -0.0984(2) 0.1572(3)
O23 O 0.07881(19) -0.14104(18) 0.1594(2)
O24 O 0.08084(17) -0.1145(2) 0.11942(14)
Na1 Na 0.21689(5) -0.04412(5) 0.18257(4)
C103 C 0.30214(14) -0.06106(15) 0.36265(12)
H79 H 0.29250 -0.06760 0.37920
H80 H 0.28970 -0.06150 0.34670
C104 C 0.32498(14) -0.07883(14) 0.35681(14)
C105 C 0.33294(16) -0.08590(15) 0.33067(15)
C106 C 0.35647(18) -0.09920(16) 0.32458(17)
C107 C 0.37156(18) -0.10795(17) 0.34684(19)
H81 H 0.38730 -0.11780 0.34360
C108 C 0.3638(2) -0.10245(17) 0.3732(2)
C109 C 0.34072(18) -0.08767(15) 0.37842(15)
H82 H 0.33590 -0.08370 0.39710
O25 O 0.31645(10) -0.07834(9) 0.30779(8)
C110 C 0.29735(17) -0.09972(15) 0.30170(17)
H83 H 0.29010 -0.10700 0.31920
H84 H 0.30620 -0.11430 0.29140
C111 C 0.27543(17) -0.0881(2) 0.28440(15)
O26 O 0.26048(13) -0.10682(11) 0.27499(11)
O27 O 0.27183(9) -0.06449(12) 0.28187(8)
S5 S 0.38278(8) -0.11329(7) 0.40256(7)
O28 O 0.3724(3) -0.1370(2) 0.4101(3)
O29 O 0.38095(11) -0.09308(13) 0.42309(11)
O30 O 0.4100(2) -0.1154(3) 0.39313(17)
C112 C 0.32716(13) 0.03025(14) 0.32555(12)
H85 H 0.31400 0.02650 0.31080
H86 H 0.32460 0.04880 0.33190
C113 C 0.32292(12) 0.01127(14) 0.34995(11)
C114 C 0.31200(12) -0.01381(15) 0.34630(11)
C115 C 0.31098(12) -0.03305(13) 0.36764(11)
C116 C 0.32071(13) -0.02577(15) 0.39342(13)
H87 H 0.32090 -0.03830 0.40820
C117 C 0.33028(12) 0.00006(15) 0.39785(12)
C118 C 0.33249(12) 0.01796(13) 0.37628(11)
H88 H 0.34050 0.03480 0.37930
O31 O 0.30012(8) -0.01995(8) 0.32073(7)
C119 C 0.27257(13) -0.01433(14) 0.32179(11)
H89 H 0.26980 0.00200 0.33290
H90 H 0.26340 -0.02910 0.33140
C120 C 0.26045(17) -0.01058(12) 0.29375(13)
O32 O 0.23512(10) -0.01103(9) 0.29462(8)
O33 O 0.27420(9) -0.00667(9) 0.27284(9)
S6 S 0.34075(4) 0.01007(4) 0.43175(3)
O34 O 0.32013(9) 0.02807(9) 0.44141(7)
O35 O 0.36616(9) 0.02263(10) 0.42830(8)
O36 O 0.34182(10) -0.01424(9) 0.44843(8)
C121 C 0.39216(16) -0.01370(19) 0.25886(16)
H91 H 0.40720 -0.00680 0.24770
H92 H 0.37650 -0.01480 0.24650
C122 C 0.38624(16) 0.00571(17) 0.28216(14)
C123 C 0.36063(15) 0.01112(15) 0.29119(13)
C124 C 0.35463(14) 0.02703(15) 0.31405(13)
C125 C 0.37583(16) 0.03927(15) 0.32742(13)
H93 H 0.37250 0.05060 0.34280
C126 C 0.40168(17) 0.03519(18) 0.31871(15)
C127 C 0.40689(16) 0.0193(2) 0.29706(19)
H94 H 0.42480 0.01690 0.29140
O37 O 0.33994(8) 0.00017(9) 0.27587(8)
C128 C 0.33049(13) 0.01953(13) 0.25607(12)
H95 H 0.34570 0.02900 0.24770
H96 H 0.31910 0.03270 0.26560
C129 C 0.31483(13) 0.00581(17) 0.23352(12)
O38 O 0.30282(9) 0.02270(9) 0.21740(8)
O39 O 0.31448(8) -0.01809(12) 0.23095(8)
S7 S 0.42872(5) 0.05279(7) 0.33379(5)
O40 O 0.43626(15) 0.07285(16) 0.31418(13)
O41 O 0.41868(13) 0.06332(17) 0.35895(14)
O42 O 0.44972(13) 0.03375(18) 0.33770(19)
C130 C 0.3677(2) -0.10286(19) 0.29461(17)
H97 H 0.37470 -0.12120 0.29310
H98 H 0.35270 -0.10140 0.28140
O43 O 0.35607(9) -0.0585(1) 0.26195(9)
C131 C 0.35699(17) -0.06576(19) 0.23182(15)
H99 H 0.36870 -0.08130 0.22900
H100 H 0.36400 -0.05080 0.22080
C132 C 0.3290(2) -0.07227(17) 0.2227(2)
O44 O 0.32810(12) -0.07595(12) 0.19590(11)
O45 O 0.31022(12) -0.07502(10) 0.23900(11)
S8 S 0.46685(10) -0.07748(14) 0.29576(14)
O46 O 0.4815(4) -0.0531(3) 0.2945(4)
O47 O 0.4638(5) -0.0841(4) 0.3240(3)
O48 O 0.4734(6) -0.1009(4) 0.2784(5)
C133 C 0.3876(3) -0.0854(4) 0.2859(4)
C134 C 0.3807(3) -0.0627(3) 0.2735(3)
C135 C 0.3993(3) -0.0430(3) 0.2696(3)
C136 C 0.4259(3) -0.0475(3) 0.2784(3)
H101 H 0.43900 -0.03410 0.27690
C137 C 0.4319(3) -0.0724(3) 0.2892(3)
C138 C 0.4137(2) -0.0901(3) 0.2941(3)
H102 H 0.41820 -0.10620 0.30320
Na2 Na 0.31424(5) -0.04032(5) 0.27690(4)
Na3 Na 0.26567(3) -0.04328(3) 0.22940(3)
Na4 Na 0.20652(5) 0.00076(5) -0.01433(5)
Na5 Na 0.37674(11) 0.06686(12) 0.39628(11)
Na6 Na 0.13601(13) -0.04840(14) 0.03457(12)
Na7 Na 0.04406(19) -0.05005(19) 0.14637(19)
Na8 Na 0.1167(3) -0.1530(2) 0.0854(3)
Na9 Na 0.1209(3) 0.0708(4) 0.0916(4)
Na10 Na 0.4467(3) -0.1302(5) 0.3599(5)
O49 O 0.3343(2) 0.0969(3) 0.3807(3)
O50 O -0.0010(6) -0.0367(4) 0.1526(4)
O51 O 0.0707(5) -0.0019(12) 0.2320(6)
C139 C 0.0873(5) -0.0032(6) 0.2557(6)
C140 C 0.1115(6) 0.0137(5) 0.2485(4)
O52 O 0.1296(6) 0.0095(5) 0.2706(7)
C141 C 0.1388(4) -0.0167(4) 0.2731(4)
C142 C 0.1565(7) -0.0224(5) 0.2972(6)
O53 O 0.1692(9) -0.0481(7) 0.2935(7)
C143 C 0.180(1) -0.0582(15) 0.3182(10)
C144 C 0.2084(7) -0.0660(14) 0.3211(10)
O54 O 0.2105(5) -0.0804(6) 0.3473(6)
C145 C 0.2174(7) -0.0623(7) 0.3688(9)
C146 C 0.2195(7) -0.0763(6) 0.3963(7)
O55 O 0.2415(5) -0.0936(5) 0.3971(4)
C147 C 0.2440(7) -0.1078(6) 0.4215(6)
C148 C 0.2729(7) -0.1127(7) 0.4254(5)
O56 O 0.2846(7) -0.1341(6) 0.4124(6)
O57 O 0.3895(3) 0.0627(3) 0.2351(4)
O58 O 0.0925(4) -0.0574(5) 0.2750(5)
O59 O 0.2566(5) -0.1278(4) 0.3501(3)
S9? S 0.46231(19) -0.0587(2) 0.3266(2)
O60? O 0.4709(6) -0.0322(4) 0.3236(7)
O61? O 0.4545(5) -0.0646(5) 0.3541(4)
O62? O 0.4758(5) -0.0796(4) 0.3145(6)
C149? C 0.3868(9) -0.0780(9) 0.2929(10)
C150? C 0.3862(7) -0.0521(8) 0.2751(6)
C151? C 0.3984(6) -0.0313(8) 0.2722(6)
C152? C 0.4246(8) -0.0338(9) 0.2903(9)
H103? H 0.43660 -0.01920 0.29060
C153? C 0.4313(6) -0.0580(7) 0.3069(7)
C154? C 0.4134(6) -0.0786(6) 0.3085(7)
H104? H 0.41760 -0.09370 0.31950
Na11? Na 0.1452(5) 0.0920(4) 0.0532(4)
Na12? Na 0.4432(3) -0.0674(3) 0.3701(3)
N9H N -0.00249(9) 0.01374(10) -0.04023(9)
C45H C 0.01793(13) 0.01790(13) -0.05899(12)
C46H C 0.00711(14) 0.02999(14) -0.08298(12)
H37H H 0.01700 0.03550 -0.09880
C47H C -0.01891(15) 0.03240(13) -0.07998(11)
H38H H -0.03090 0.03940 -0.09330
C48H C -0.02579(14) 0.02246(12) -0.05293(12)
C49H C -0.05108(12) 0.02126(11) -0.04082(12)
C50H C -0.07318(12) 0.02859(13) -0.05973(11)
C51H C -0.07595(15) 0.05340(17) -0.07225(17)
H39H H -0.06270 0.06660 -0.06990
C52H C -0.0982(2) 0.05851(18) -0.08802(18)
H40H H -0.10050 0.07580 -0.09560
N10H N -0.11644(11) 0.04048(13) -0.09309(10)
C53H C -0.11381(15) 0.01677(19) -0.08343(15)
H41H H -0.12670 0.00370 -0.08790
C54H C -0.09250(17) 0.00996(16) -0.06654(14)
H42H H -0.09110 -0.00760 -0.05950
C55H C -0.13973(13) 0.04720(15) -0.10996(13)
H43H H -0.15480 0.05090 -0.09770
H44H H -0.13590 0.06300 -0.12120
H45H H -0.14400 0.03230 -0.12220
N11H N -0.04015(9) 0.00407(9) 0.00567(10)
C56H C -0.05748(12) 0.01420(12) -0.01384(12)
C57H C -0.08292(12) 0.01783(12) -0.00159(12)
H46H H -0.09830 0.02450 -0.01060
C58H C -0.08100(13) 0.00996(12) 0.02538(13)
H47H H -0.09480 0.01060 0.03890
C59H C -0.05487(12) 0.00057(12) 0.02989(11)
C60H C 0.04415(13) 0.01063(13) -0.05466(11)
C61H C 0.06316(13) 0.01487(13) -0.07794(12)
C62H C 0.08513(17) 0.02978(17) -0.07505(15)
H48H H 0.08910 0.03700 -0.05730
C63H C 0.10254(15) 0.03517(17) -0.09726(16)
H49H H 0.11790 0.04570 -0.09450
N12H N 0.09696(12) 0.02525(13) -0.12178(11)
C64H C 0.0761(2) 0.00973(19) -0.12482(15)
H50H H 0.07300 0.00190 -0.14250
C65H C 0.05888(16) 0.00442(17) -0.10409(16)
H51H H 0.04380 -0.00650 -0.10750
C66H C 0.11407(15) 0.03184(17) -0.14607(14)
H52H H 0.10420 0.04330 -0.15890
H53H H 0.13000 0.04110 -0.13960
H54H H 0.11920 0.01540 -0.15570
Na9G Na 0.3208(3) 0.1291(4) 0.3416(4)
O49E O 0.1531(2) 0.0843(3) 0.1307(3)
#END
