
#######################################################################
#
#                 Cambridge Crystallographic Data Centre
#                                CCDC
#
#######################################################################
#
# If this CIF has been generated from an entry in the Cambridge
# Structural Database, then it will include bibliographic, chemical,
# crystal, experimental, refinement or atomic coordinate data resulting
# from the CCDC's data processing and validation procedures.
#
#######################################################################

data_CSD_CIF_PUBCIZ
_audit_creation_date 2009-12-22
_audit_creation_method CSD-ConQuest-V1
_database_code_CSD PUBCIZ
_database_code_depnum_ccdc_archive 'CCDC 696245'
_chemical_formula_sum 'C138 H177 Cl2 N12 Na8 O84 S8 Zn2'
_chemical_formula_moiety
;
(C44 H38 N8 4+)1.5n,n(C72 H56 Cl2 Na8 O52 S8 Zn2 6-),32n(H2 O1)
;
_journal_coden_Cambridge 4
_journal_volume 131
_journal_year 2009
_journal_page_first 2487
_journal_name_full 'J.Am.Chem.Soc. '
loop_
_publ_author_name
"R.De Zorzi"
"N.Guidolin"
"L.Randaccio"
"R.Purrello"
"S.Geremia"
_chemical_name_systematic
;
catena-[sesquikis(meso-5,10,15,20-tetrakis(1-methylpyridinium-4-yl)porphyrin) 
bis(\m~8~-5,11,17,23-tetrasulfonato-25,26,27,28-tetrakis((carboxylato)methoxy)
calix(4)arene)-tris(\m~2~-aqua)-aqua-dichloro-octa-sodium-di-zinc(ii) 
dotriacontahydrate]
;
_cell_volume 120254.032
_exptl_crystal_colour 'brown-red'
_exptl_crystal_density_diffrn 0.882
_exptl_special_details
;
cone conformation
The exact coordination of the Na atoms surrounding the sulfonate groups is 
unclear in the paper
;
_diffrn_ambient_temperature 100
_diffrn_radiation_probe x-ray
_diffrn_source synchrotron
_refine_special_details
;
Two Na atoms are disordered equally over two sites. A number of uncoordinated 
water molecules were not modelled and the disordered density was taken into 
account using the SQUEEZE/PLATON procedure.
;
#These two values have been output from a single CSD field.
_refine_ls_R_factor_gt 0.0985
_refine_ls_wR_factor_gt 0.0985
_symmetry_cell_setting tetragonal
_symmetry_space_group_name_H-M 'I 41/a'
_symmetry_Int_Tables_number 88
loop_
_symmetry_equiv_pos_site_id
_symmetry_equiv_pos_as_xyz
1 x,y,z
2 1/2-x,-y,1/2+z
3 3/4-y,1/4+x,1/4+z
4 3/4+y,3/4-x,3/4+z
5 1/2+x,1/2+y,1/2+z
6 -x,1/2-y,z
7 1/4-y,3/4+x,3/4+z
8 1/4+y,1/4-x,1/4+z
9 -x,-y,-z
10 -1/2+x,y,-1/2-z
11 -3/4+y,-1/4-x,-1/4-z
12 -3/4-y,-3/4+x,-3/4-z
13 -1/2-x,-1/2-y,-1/2-z
14 x,-1/2+y,-z
15 -1/4+y,-3/4-x,-3/4-z
16 -1/4-y,-1/4+x,-1/4-z
_cell_length_a 49.1400(7)
_cell_length_b 49.1400(7)
_cell_length_c 49.8000(6)
_cell_angle_alpha 90
_cell_angle_beta 90
_cell_angle_gamma 90
_cell_formula_units_Z 16
loop_
_atom_type_symbol
_atom_type_radius_bond
C 0.68
H 0.10
Cl 0.99
N 0.68
Na 1.94
O 0.73
S 0.92
Zn 1.22
loop_
_atom_site_label
_atom_site_type_symbol
_atom_site_fract_x
_atom_site_fract_y
_atom_site_fract_z
N1 N -0.02641(14) 0.06936(12) 0.02833(13)
C1 C -0.0529(2) 0.07040(15) 0.02009(16)
C2 C -0.07044(16) 0.06177(15) 0.04125(15)
H1 H -0.08970 0.06080 0.04060
C3 C -0.05457(19) 0.05515(15) 0.06249(15)
H2 H -0.06050 0.04830 0.07940
C4 C -0.0270(2) 0.06058(15) 0.05439(17)
C5 C -0.0042(2) 0.05867(15) 0.07103(15)
C6 C -0.00948(15) 0.0497(2) 0.09881(17)
C7 C -0.00701(17) 0.0674(2) 0.1187(2)
H3 H -0.00390 0.08620 0.11510
C8 C -0.00912(19) 0.0576(3) 0.1463(2)
H4 H -0.00800 0.07010 0.16070
N2 N -0.01240(14) 0.0323(3) 0.15122(18)
C9 C -0.01636(18) 0.0151(3) 0.1324(3)
H5 H -0.02050 -0.00330 0.13650
C10 C -0.01463(16) 0.0234(2) 0.10570(19)
H6 H -0.01710 0.01030 0.09190
C11 C -0.01229(19) 0.0227(2) 0.18013(16)
H7 H -0.00930 0.03840 0.19200
H8 H 0.00230 0.00940 0.18270
H9 H -0.02980 0.01430 0.18440
N3 N -0.01685(16) 0.09445(12) -0.02373(12)
C12 C -0.0075(2) 0.10543(17) -0.04713(16)
C13 C -0.03058(19) 0.10909(18) -0.06481(16)
H10 H -0.03030 0.11580 -0.08270
C14 C -0.05274(19) 0.10100(18) -0.05070(17)
H11 H -0.07100 0.10170 -0.05690
C15 C -0.0443(2) 0.09121(16) -0.02506(15)
C16 C -0.06200(19) 0.08116(15) -0.00512(16)
C17 C -0.0908(2) 0.0823(3) -0.01083(13)
C18 C -0.1037(3) 0.1076(2) -0.01621(15)
H12 H -0.09370 0.12400 -0.01490
C19 C -0.1316(3) 0.1080(3) -0.02354(16)
H13 H -0.14050 0.12480 -0.02710
N4 N -0.14507(18) 0.0849(3) -0.02532(12)
C20 C -0.1346(2) 0.0614(2) -0.01890(16)
H14 H -0.14550 0.04540 -0.01950
C21 C -0.1069(2) 0.0598(2) -0.01111(12)
H15 H -0.09950 0.04270 -0.00600
C22 C -0.17346(16) 0.0868(2) -0.03523(18)
H16 H -0.17530 0.07610 -0.05170
H17 H -0.17790 0.10580 -0.03890
H18 H -0.18590 0.07960 -0.02160
N5 N 0.04162(15) 0.09929(12) -0.01103(12)
C23 C 0.06817(18) 0.09999(16) -0.00196(17)
C24 C 0.08459(17) 0.11318(17) -0.02129(17)
H19 H 0.10350 0.11710 -0.01980
C25 C 0.0685(2) 0.11903(16) -0.04189(16)
H20 H 0.07430 0.12750 -0.05810
C26 C 0.0418(2) 0.11096(15) -0.03631(16)
C27 C 0.0188(2) 0.11301(16) -0.05321(15)
C28 C 0.02322(16) 0.1257(2) -0.0799(2)
C29 C 0.03194(18) 0.1539(2) -0.0827(2)
H21 H 0.03620 0.16490 -0.06750
C30 C 0.0337(2) 0.1640(2) -0.1087(3)
H22 H 0.03990 0.18200 -0.11160
N6 N 0.02684(18) 0.1483(3) -0.12982(19)
C31 C 0.0197(2) 0.1225(3) -0.1276(3)
H23 H 0.01620 0.11190 -0.14310
C32 C 0.01752(15) 0.1112(2) -0.1028(2)
H24 H 0.01190 0.09270 -0.10120
C33 C 0.0287(3) 0.1654(3) -0.1556(2)
H25 H 0.04780 0.16880 -0.15980
H26 H 0.01920 0.18270 -0.15290
H27 H 0.02020 0.15540 -0.17040
N7 N 0.03113(16) 0.07363(13) 0.04005(12)
C34 C 0.0229(2) 0.06375(16) 0.06471(18)
C35 C 0.04551(19) 0.06101(17) 0.08160(14)
H28 H 0.04520 0.05430 0.09950
C36 C 0.0673(2) 0.06938(19) 0.06848(17)
H29 H 0.08550 0.06990 0.07500
C37 C 0.0579(2) 0.07750(16) 0.04218(14)
C38 C 0.07608(18) 0.08980(16) 0.02290(16)
C39 C 0.1048(2) 0.0927(3) 0.03017(13)
C40 C 0.1204(2) 0.0694(2) 0.03556(15)
H30 H 0.11250 0.05190 0.03320
C41 C 0.1450(4) 0.0710(2) 0.04356(17)
H31 H 0.15490 0.05460 0.04620
N8 N 0.15715(17) 0.0942(3) 0.04828(12)
C42 C 0.1446(3) 0.1191(3) 0.04300(18)
H32 H 0.15350 0.13600 0.04570
C43 C 0.1179(3) 0.1175(2) 0.03342(15)
H33 H 0.10850 0.13380 0.02900
C44 C 0.18627(17) 0.1002(2) 0.05841(18)
H34 H 0.18540 0.11290 0.07350
H35 H 0.19700 0.10820 0.04380
H36 H 0.19480 0.08320 0.06430
N9 N 0.49465(14) -0.01766(11) 0.4627(1)
C45 C 0.47037(18) -0.02610(15) 0.45193(14)
C46 C 0.4761(2) -0.03898(14) 0.42645(13)
H37 H 0.46300 -0.04680 0.41470
C47 C 0.50216(19) -0.03805(16) 0.42227(14)
H38 H 0.51150 -0.04560 0.40730
C48 C 0.51443(19) -0.02360(14) 0.44417(14)
C49 C 0.54194(19) -0.01689(15) 0.44659(14)
C50 C 0.55871(16) -0.02218(17) 0.42301(15)
C51 C 0.5819(2) -0.03938(19) 0.42427(15)
H39 H 0.58670 -0.04760 0.44080
C52 C 0.59719(18) -0.04420(17) 0.4020(2)
H40 H 0.61240 -0.05600 0.40330
N10 N 0.59131(15) -0.03265(16) 0.37805(12)
C53 C 0.5709(2) -0.0161(2) 0.37608(15)
H41 H 0.56730 -0.00720 0.35950
C54 C 0.55424(17) -0.01130(18) 0.39852(19)
H42 H 0.53890 0.00030 0.39630
C55 C 0.60941(16) -0.03778(18) 0.35399(13)
H43 H 0.60270 -0.02730 0.33860
H44 H 0.62810 -0.03220 0.35820
H45 H 0.60920 -0.05720 0.34950
N11 N 0.54113(11) 0.00071(11) 0.49239(11)
C56 C 0.55459(17) -0.00499(15) 0.46851(15)
C57 C 0.58148(18) 0.00352(16) 0.47092(15)
H46 H 0.59480 0.00270 0.45710
C58 C 0.58569(16) 0.01325(15) 0.49634(16)
H47 H 0.60240 0.01970 0.50350
C59 C 0.56074(17) 0.01192(15) 0.50978(15)
C60 C 0.44499(16) -0.02181(14) 0.46463(14)
C61 C 0.42038(18) -0.0285(2) 0.44856(13)
C62 C 0.4157(2) -0.0555(2) 0.43933(18)
H48 H 0.42840 -0.06980 0.44220
C63 C 0.3894(3) -0.0593(3) 0.4248(2)
H49 H 0.38490 -0.07720 0.41900
N12 N 0.37311(16) -0.0408(2) 0.41993(13)
C64 C 0.3781(2) -0.0158(3) 0.42898(18)
H50 H 0.36520 -0.00190 0.42550
C65 C 0.4008(2) -0.0095(2) 0.44291(16)
H51 H 0.40330 0.00870 0.44900
C66 C 0.34765(16) -0.04887(19) 0.40549(15)
H52 H 0.33370 -0.05420 0.41860
H53 H 0.34100 -0.03350 0.39490
H54 H 0.35150 -0.06430 0.39360
C67 C 0.19155(19) -0.0721(2) 0.14937(14)
H55 H 0.20440 -0.07920 0.13570
H56 H 0.20080 -0.07260 0.16700
C68 C 0.16733(19) -0.08941(16) 0.15023(19)
C69 C 0.1537(2) -0.09509(19) 0.1738(2)
C70 C 0.1282(3) -0.10794(19) 0.17536(18)
C71 C 0.1173(2) -0.11764(17) 0.1500(2)
H57 H 0.10040 -0.12700 0.14940
C72 C 0.1323(3) -0.11282(19) 0.12649(18)
C73 C 0.1565(2) -0.0993(2) 0.12686(18)
H58 H 0.16610 -0.09670 0.11050
O1 O 0.16611(11) -0.08795(11) 0.1981(1)
C74 C 0.1815(2) -0.11123(19) 0.20775(17)
H59 H 0.19400 -0.11750 0.19340
H60 H 0.16870 -0.12630 0.21180
C75 C 0.1975(2) -0.1048(3) 0.2321(2)
O2 O 0.20737(15) -0.12533(17) 0.24450(14)
O3 O 0.20085(18) -0.0807(2) 0.23848(15)
S1 S 0.11800(8) -0.12503(8) 0.09525(6)
O4 O 0.13842(19) -0.14277(18) 0.08378(16)
O5 O 0.11603(13) -0.10061(17) 0.07885(13)
O6 O 0.0926(2) -0.1365(2) 0.10117(15)
C76 C 0.16697(18) 0.02316(16) 0.17989(13)
H61 H 0.17760 0.01820 0.19610
H62 H 0.17290 0.04150 0.17400
C77 C 0.17243(16) 0.0022(2) 0.15728(15)
C78 C 0.18215(15) -0.0237(2) 0.16233(16)
C79 C 0.18420(15) -0.04372(18) 0.14274(17)
C80 C 0.17768(15) -0.0363(2) 0.11672(15)
H63 H 0.17940 -0.04910 0.10250
C81 C 0.16860(16) -0.0102(2) 0.11143(16)
C82 C 0.16624(14) 0.00958(18) 0.13119(17)
H64 H 0.16060 0.02760 0.12690
O7 O 0.18938(11) -0.03007(10) 0.1888(1)
C83 C 0.2181(2) -0.0249(2) 0.19201(16)
H65 H 0.22290 -0.00810 0.18210
H66 H 0.22840 -0.04010 0.18380
C84 C 0.2270(3) -0.0219(2) 0.2204(2)
O8 O 0.25214(16) -0.02151(14) 0.22449(11)
O9 O 0.20934(15) -0.01951(14) 0.23767(13)
S2 S 0.16188(6) -0.00022(5) 0.07698(4)
O10 O 0.16227(13) -0.02541(12) 0.06163(9)
O11 O 0.18325(13) 0.01818(13) 0.06930(9)
O12 O 0.13536(13) 0.01264(12) 0.07777(9)
C85 C 0.08708(18) -0.0153(2) 0.23186(16)
H67 H 0.10110 -0.01910 0.24570
H68 H 0.07080 -0.00800 0.24100
C86 C 0.0978(2) 0.00558(17) 0.21246(15)
C87 C 0.1260(2) 0.00782(18) 0.20720(17)
C88 C 0.13703(18) 0.02365(17) 0.18661(15)
C89 C 0.1190(2) 0.03843(16) 0.17091(14)
H69 H 0.12560 0.04930 0.15660
C90 C 0.0912(2) 0.03721(17) 0.17623(15)
C91 C 0.08066(18) 0.02070(19) 0.19593(17)
H70 H 0.06150 0.01960 0.19830
O13 O 0.14405(10) -0.00555(10) 0.22482(9)
C92 C 0.15352(17) 0.01278(16) 0.24553(15)
H71 H 0.16850 0.02400 0.23820
H72 H 0.13850 0.02520 0.25060
C93 C 0.1630(2) -0.0012(2) 0.26927(18)
O14 O 0.17446(12) 0.01181(12) 0.28855(10)
O15 O 0.15953(13) -0.02718(19) 0.27101(10)
S3 S 0.06775(6) 0.05681(6) 0.15727(5)
O16 O 0.08310(12) 0.06979(13) 0.13650(12)
O17 O 0.05559(18) 0.07549(17) 0.17594(13)
O18 O 0.04725(12) 0.03760(14) 0.14688(11)
C94 C 0.11153(19) -0.1102(2) 0.20050(16)
H73 H 0.12370 -0.11000 0.21640
H74 H 0.10150 -0.12770 0.20050
C95 C 0.0915(2) -0.0867(2) 0.20218(19)
C96 C 0.0960(2) -0.0641(3) 0.21782(16)
C97 C 0.0799(2) -0.0411(3) 0.21792(16)
C98 C 0.0578(2) -0.0405(2) 0.2011(2)
H75 H 0.04670 -0.02470 0.20040
C99 C 0.0514(2) -0.0623(3) 0.1851(2)
C100 C 0.0682(2) -0.0853(3) 0.18480(17)
H76 H 0.06410 -0.10000 0.17310
O19 O 0.11855(12) -0.06461(12) 0.23520(11)
C101 C 0.1110(2) -0.0713(3) 0.2627(2)
H77 H 0.09790 -0.08660 0.26260
H78 H 0.10200 -0.05540 0.27110
C102 C 0.1349(4) -0.0789(5) 0.2785(3)
O20 O 0.1329(2) -0.0760(3) 0.3038(2)
O21 O 0.1550(3) -0.0884(3) 0.2667(3)
S4 S 0.02294(6) -0.06397(8) 0.16296(6)
O22 O 0.01265(17) -0.03627(18) 0.16266(17)
O23 O 0.00470(15) -0.08498(18) 0.17483(15)
O24 O 0.03356(14) -0.07330(16) 0.13636(14)
Na1 Na 0.16577(6) -0.04960(6) 0.22862(5)
C103 C 0.25795(19) -0.0399(2) 0.42475(15)
H79 H 0.24850 -0.03780 0.44220
H80 H 0.24390 -0.04000 0.41050
C104 C 0.27243(19) -0.0663(2) 0.4245(2)
C105 C 0.2757(2) -0.0832(3) 0.4015(2)
C106 C 0.2919(2) -0.1060(2) 0.4003(2)
C107 C 0.3071(2) -0.1131(2) 0.4226(2)
H81 H 0.31940 -0.12800 0.42240
C108 C 0.3033(2) -0.0968(3) 0.4456(2)
C109 C 0.2876(2) -0.0737(3) 0.4468(2)
H82 H 0.28710 -0.06300 0.46270
O25 O 0.25928(16) -0.07643(12) 0.37959(11)
C110 C 0.2348(3) -0.0936(3) 0.3802(2)
H83 H 0.22800 -0.09430 0.39890
H84 H 0.24000 -0.11230 0.37490
C111 C 0.2126(4) -0.0842(3) 0.3625(4)
O26 O 0.1944(2) -0.0990(3) 0.3543(2)
O27 O 0.21360(17) -0.0591(2) 0.35654(16)
S5 S 0.32332(9) -0.10851(9) 0.47516(8)
O28 O 0.3099(2) -0.1324(2) 0.48467(19)
O29 O 0.3175(2) -0.0883(3) 0.4945(2)
O30 O 0.3501(2) -0.1112(4) 0.4680(2)
C112 C 0.30706(17) 0.02601(17) 0.36402(15)
H85 H 0.31120 0.04570 0.36520
H86 H 0.29170 0.02350 0.35140
C113 C 0.29952(19) 0.0150(2) 0.39156(14)
C114 C 0.2802(2) -0.0047(2) 0.39553(17)
C115 C 0.27638(17) -0.01632(18) 0.42057(19)
C116 C 0.2919(2) -0.0056(2) 0.44246(15)
H87 H 0.28960 -0.01300 0.45990
C117 C 0.30989(19) 0.0149(2) 0.43850(17)
C118 C 0.31411(15) 0.02578(17) 0.41364(18)
H88 H 0.32660 0.04030 0.41120
O31 O 0.26451(11) -0.0128(1) 0.37408(9)
C119 C 0.24022(18) 0.00381(18) 0.37256(15)
H89 H 0.24540 0.02320 0.37470
H90 H 0.22800 -0.00110 0.38760
C120 C 0.2250(2) 0.0005(2) 0.34639(18)
O32 O 0.20181(14) 0.01120(14) 0.34631(11)
O33 O 0.23594(12) -0.01263(14) 0.32732(12)
S6 S 0.32653(6) 0.02912(6) 0.46711(5)
O34 O 0.31095(16) 0.0517(2) 0.47627(14)
O35 O 0.35321(15) 0.03579(14) 0.45729(11)
O36 O 0.32661(16) 0.00765(17) 0.48801(13)
C121 C 0.34867(19) -0.0550(2) 0.3144(2)
H91 H 0.33150 -0.05470 0.30390
H92 H 0.36400 -0.05660 0.30150
C122 C 0.3514(3) -0.0279(2) 0.33054(17)
C123 C 0.32976(19) -0.0120(2) 0.33761(18)
C124 C 0.3320(2) 0.01049(19) 0.35391(16)
C125 C 0.3578(3) 0.0175(2) 0.36292(15)
H93 H 0.36020 0.03310 0.37390
C126 C 0.3796(2) 0.0020(3) 0.35613(17)
C127 C 0.3765(2) -0.0212(2) 0.3402(2)
H94 H 0.39180 -0.03220 0.33600
O37 O 0.30445(11) -0.01888(10) 0.32653(10)
C128 C 0.29848(19) -0.00251(18) 0.30299(15)
H95 H 0.31550 0.00080 0.29280
H96 H 0.29110 0.01530 0.30870
C129 C 0.2781(2) -0.0166(3) 0.2851(2)
O38 O 0.26969(13) -0.00189(14) 0.26591(13)
O39 O 0.27250(14) -0.04108(19) 0.28871(11)
S7 S 0.41242(5) 0.01191(7) 0.36709(6)
O40 O 0.42575(13) 0.01831(18) 0.34318(14)
O41 O 0.40971(14) 0.03350(15) 0.38590(13)
O42 O 0.42372(13) -0.01352(16) 0.38129(12)
C130 C 0.2973(3) -0.1209(2) 0.3744(3)
H97 H 0.28180 -0.11810 0.36200
H98 H 0.29880 -0.14060 0.37810
O43 O 0.29985(14) -0.08289(11) 0.33070(12)
C131 C 0.2950(2) -0.0991(2) 0.3071(2)
H99 H 0.30230 -0.11770 0.30980
H100 H 0.30420 -0.09090 0.29140
C132 C 0.2651(3) -0.1003(2) 0.3024(3)
O44 O 0.25639(16) -0.11353(18) 0.28297(17)
O45 O 0.24838(16) -0.08766(17) 0.31770(17)
S8 S 0.40293(9) -0.12558(11) 0.37297(11)
O46 O 0.4175(4) -0.1303(6) 0.3517(3)
O47 O 0.4121(2) -0.1118(3) 0.39233(19)
O48 O 0.3962(6) -0.1486(4) 0.3896(12)
C133 C 0.3238(3) -0.1106(3) 0.3611(3)
C134 C 0.3254(3) -0.0908(3) 0.3417(2)
C135 C 0.3487(3) -0.0788(3) 0.3327(2)
C136 C 0.3724(3) -0.0909(3) 0.3435(3)
H101 H 0.38930 -0.08400 0.33720
C137 C 0.3735(3) -0.1105(4) 0.3610(3)
C138 C 0.3495(4) -0.1201(2) 0.3699(2)
H102 H 0.34980 -0.13420 0.38300
Na2 Na 0.26578(6) -0.04831(6) 0.34002(5)
Zn1 Zn 0.17095(2) 0.00092(2) 0.325251(19)
Zn2 Zn 0.21946(4) -0.12743(3) 0.28075(3)
Cl1 Cl 0.21899(19) -0.16941(15) 0.29413(18)
Na3 Na 0.21491(8) -0.04999(8) 0.28645(6)
Cl2 Cl 0.13555(6) 0.02295(9) 0.34214(6)
Na4 Na 0.21406(13) -0.02086(14) 0.02928(11)
Na5 Na 0.3764(2) 0.0703(3) 0.4147(2)
Na6 Na 0.04723(15) -0.12730(16) 0.12919(13)
Na7 Na 0.12650(12) 0.06306(12) 0.10383(10)
Na8 Na 0.3677(4) -0.1563(3) 0.4365(3)
O49 O 0.19123(18) -0.1047(2) 0.30030(18)
O50 O 0.17150(15) -0.03891(14) 0.32918(13)
O51 O 0.3389(2) 0.08396(18) 0.3802(2)
O52 O 0.0470(5) -0.1598(5) 0.1756(5)
O53 O 0.0205(4) 0.0201(5) 0.2427(4)
O54 O 0.0881(4) 0.0648(4) 0.2616(4)
O55 O 0.3956(5) -0.0719(5) 0.2540(6)
O56 O 0.4567(5) -0.0698(7) 0.3169(5)
Na9? Na 0.35493(17) -0.04041(19) 0.47975(16)
Na10? Na 0.4420(2) -0.0604(2) 0.3645(2)
N9H N 0.50535(14) 0.01766(11) 0.5373(1)
C45H C 0.52963(18) 0.02610(15) 0.54807(14)
C46H C 0.5239(2) 0.03898(14) 0.57355(13)
H37H H 0.53700 0.04680 0.58530
C47H C 0.49784(19) 0.03805(16) 0.57773(14)
H38H H 0.48850 0.04560 0.59270
C48H C 0.48557(19) 0.02360(14) 0.55583(14)
C49H C 0.45806(19) 0.01689(15) 0.55341(14)
C50H C 0.44129(16) 0.02218(17) 0.57699(15)
C51H C 0.4181(2) 0.03938(19) 0.57573(15)
H39H H 0.41330 0.04760 0.55920
C52H C 0.40281(18) 0.04420(17) 0.5980(2)
H40H H 0.38760 0.05600 0.59670
N10H N 0.40869(15) 0.03265(16) 0.62195(12)
C53H C 0.4291(2) 0.0161(2) 0.62392(15)
H41H H 0.43270 0.00720 0.64050
C54H C 0.44576(17) 0.01130(18) 0.60148(19)
H42H H 0.46110 -0.00030 0.60370
C55H C 0.39059(16) 0.03778(18) 0.64601(13)
H43H H 0.39730 0.02730 0.66140
H44H H 0.37190 0.03220 0.64180
H45H H 0.39080 0.05720 0.65050
N11H N 0.45887(11) -0.00071(11) 0.50761(11)
C56H C 0.44541(17) 0.00499(15) 0.53149(15)
C57H C 0.41852(18) -0.00352(16) 0.52908(15)
H46H H 0.40520 -0.00270 0.54290
C58H C 0.41431(16) -0.01325(15) 0.50366(16)
H47H H 0.39760 -0.01970 0.49650
C59H C 0.43926(17) -0.01192(15) 0.49022(15)
C60H C 0.55501(16) 0.02181(14) 0.53537(14)
C61H C 0.57962(18) 0.0285(2) 0.55144(13)
C62H C 0.5843(2) 0.0555(2) 0.56067(18)
H48H H 0.57160 0.06980 0.55780
C63H C 0.6106(3) 0.0593(3) 0.5752(2)
H49H H 0.61510 0.07720 0.58100
N12H N 0.62689(16) 0.0408(2) 0.58007(13)
C64H C 0.6219(2) 0.0158(3) 0.57102(18)
H50H H 0.63480 0.00190 0.57450
C65H C 0.5992(2) 0.0095(2) 0.55709(16)
H51H H 0.59670 -0.00870 0.55100
C66H C 0.65235(16) 0.04887(19) 0.59451(15)
H52H H 0.66630 0.05420 0.58140
H53H H 0.65900 0.03350 0.60510
H54H H 0.64850 0.06430 0.60640
O14F O 0.23819(12) -0.07554(12) 0.03855(10)
O36A O 0.17339(16) -0.00765(17) -0.01199(13)
O38F O 0.25189(13) 0.01969(14) 0.01591(13)
Na4G Na 0.22914(13) 0.03594(14) 0.27928(11)
Na4A Na 0.28594(13) 0.02086(14) 0.52928(11)
Na7G Na 0.31306(12) 0.12350(12) 0.35383(10)
O51F O 0.16604(20) 0.08890(18) 0.1302(2)
#END
