
#######################################################################
#
#                 Cambridge Crystallographic Data Centre
#                                CCDC
#
#######################################################################
#
# If this CIF has been generated from an entry in the Cambridge
# Structural Database, then it will include bibliographic, chemical,
# crystal, experimental, refinement or atomic coordinate data resulting
# from the CCDC's data processing and validation procedures.
#
#######################################################################

data_CSD_CIF_PUFNUB
_audit_creation_date 2015-03-20
_audit_creation_method CSD-ConQuest-V1
_database_code_CSD PUFNUB
_database_code_depnum_ccdc_archive 'CCDC 1017821'
_chemical_formula_sum 'C44 H29 N4 O13 S4 Sm1'
_chemical_formula_moiety
;
(C44 H26 N4 O12 S4 Sm1 1-)n,n(H3 O1 1+)
;
_journal_coden_Cambridge 603
_journal_volume 34
_journal_year 2015
_journal_page_first 279
_journal_name_full 'Jiegou Huaxue(Chin.)(Chin.J.Struct.Chem.) '
loop_
_publ_author_name
"Wen-Tong Chen"
"Rong-Hua Hu"
"Zhi-Gang Luo"
"Hua-Long Chen"
"Juan Liu"
_chemical_name_systematic
;
catena-[oxonium 
(\m-5,10,15,20-tetrakis(4-sulfonatophenyl)porphyrinato)-samarium]
;
_cell_volume   2337.047
_exptl_crystal_colour 'purple'
_exptl_crystal_density_diffrn 1.564
_exptl_crystal_description 'block'
_diffrn_ambient_temperature 123.2
#These two values have been output from a single CSD field.
_refine_ls_R_factor_gt 0.0583
_refine_ls_wR_factor_gt 0.0583
_symmetry_cell_setting tetragonal
_symmetry_space_group_name_H-M 'P 4/m c c'
_symmetry_Int_Tables_number 124
loop_
_symmetry_equiv_pos_site_id
_symmetry_equiv_pos_as_xyz
1 x,y,z
2 -x,-y,z
3 -y,x,z
4 y,-x,z
5 -x,y,1/2-z
6 x,-y,1/2-z
7 y,x,1/2-z
8 -y,-x,1/2-z
9 -x,-y,-z
10 x,y,-z
11 y,-x,-z
12 -y,x,-z
13 x,-y,-1/2+z
14 -x,y,-1/2+z
15 -y,-x,-1/2+z
16 y,x,-1/2+z
_cell_length_a 15.3683(12)
_cell_length_b 15.3683(12)
_cell_length_c 9.895(2)
_cell_angle_alpha 90
_cell_angle_beta 90
_cell_angle_gamma 90
_cell_formula_units_Z 2
loop_
_atom_type_symbol
_atom_type_radius_bond
C 0.68
H 0.23
N 0.68
O 0.68
S 1.02
Sm 1.98
loop_
_atom_site_label
_atom_site_type_symbol
_atom_site_fract_x
_atom_site_fract_y
_atom_site_fract_z
Sm1 Sm 0.00000 0.00000 0.25000
S1 S 0.18079(6) 0.02778(7) 0.00000
O1 O 0.12862(15) 0.03213(14) 0.1217(3)
O2 O 0.24849(18) 0.09052(18) 0.00000
N1 N 0.3696(2) -0.4690(2) 0.00000
C1 C 0.2343(2) -0.0750(2) 0.00000
C2 C 0.25741(19) -0.11224(19) -0.1223(3)
H1 H 0.24030 -0.08710 -0.20360
C3 C 0.30617(19) -0.18713(19) -0.1207(3)
H2 H 0.32260 -0.21240 -0.20220
C4 C 0.3316(2) -0.2261(2) 0.00000
C5 C 0.3832(2) -0.3099(3) 0.00000
C6 C 0.3350(2) -0.3864(3) 0.00000
C7 C 0.2418(3) -0.3926(3) 0.00000
H3 H 0.20230 -0.34670 0.00000
C8 C 0.2226(3) -0.4789(3) 0.00000
H4 H 0.16690 -0.50260 0.00000
C9 C 0.3017(3) -0.5273(3) 0.00000
O3 O 0.50000 -0.50000 0.25000
S1B S -0.02778(6) -0.81921(7) 0.00000
O1B O -0.03213(15) -0.87138(14) 0.1217(3)
O2B O -0.09052(18) -0.75151(18) 0.00000
N1B N 0.4690(2) -0.6304(2) 0.00000
C1B C 0.0750(2) -0.7657(2) 0.00000
C2B C 0.11224(19) -0.74259(19) -0.1223(3)
H1B H 0.08710 -0.75970 -0.20360
C3B C 0.18713(19) -0.69383(19) -0.1207(3)
H2B H 0.21240 -0.67740 -0.20220
C4B C 0.2261(2) -0.6684(2) 0.00000
C5B C 0.3099(2) -0.6168(3) 0.00000
C6B C 0.3864(2) -0.6650(3) 0.00000
C7B C 0.3926(3) -0.7582(3) 0.00000
H3B H 0.34670 -0.79770 0.00000
C8B C 0.4789(3) -0.7774(3) 0.00000
H4B H 0.50260 -0.83310 0.00000
C9B C 0.5273(3) -0.6983(3) 0.00000
S1C S 1.02778(6) -0.18079(7) 0.00000
O1C O 1.03213(15) -0.12862(14) 0.1217(3)
O2C O 1.09052(18) -0.24849(18) 0.00000
N1C N 0.5310(2) -0.3696(2) 0.00000
C1C C 0.9250(2) -0.2343(2) 0.00000
C2C C 0.88776(19) -0.25741(19) -0.1223(3)
H1C H 0.91290 -0.24030 -0.20360
C3C C 0.81287(19) -0.30617(19) -0.1207(3)
H2C H 0.78760 -0.32260 -0.20220
C4C C 0.7739(2) -0.3316(2) 0.00000
C5C C 0.6901(2) -0.3832(3) 0.00000
C6C C 0.6136(2) -0.3350(3) 0.00000
C7C C 0.6074(3) -0.2418(3) 0.00000
H3C H 0.65330 -0.20230 0.00000
C8C C 0.5211(3) -0.2226(3) 0.00000
H4C H 0.49740 -0.16690 0.00000
C9C C 0.4727(3) -0.3017(3) 0.00000
O1I O 0.12862(15) 0.03213(14) -0.1217(3)
C2I C 0.25741(19) -0.11224(19) 0.1223(3)
H1I H 0.24030 -0.08710 0.20360
C3I C 0.30617(19) -0.18713(19) 0.1207(3)
H2I H 0.32260 -0.21240 0.20220
O1J O 1.03213(15) -0.12862(14) -0.1217(3)
C2J C 0.88776(19) -0.25741(19) 0.1223(3)
H1J H 0.91290 -0.24030 0.20360
C3J C 0.81287(19) -0.30617(19) 0.1207(3)
H2J H 0.78760 -0.32260 0.20220
O1K O -0.03213(15) -0.87138(14) -0.1217(3)
C2K C 0.11224(19) -0.74259(19) 0.1223(3)
H1K H 0.08710 -0.75970 0.20360
C3K C 0.18713(19) -0.69383(19) 0.1207(3)
H2K H 0.21240 -0.67740 0.20220
S1A S 0.81921(6) -1.02778(7) 0.00000
O1A O 0.87138(15) -1.03213(14) 0.1217(3)
O2A O 0.75151(18) -1.09052(18) 0.00000
N1A N 0.6304(2) -0.5310(2) 0.00000
C1A C 0.7657(2) -0.9250(2) 0.00000
C2A C 0.74259(19) -0.88776(19) -0.1223(3)
H1A H 0.75970 -0.91290 -0.20360
C3A C 0.69383(19) -0.81287(19) -0.1207(3)
H2A H 0.67740 -0.78760 -0.20220
C4A C 0.6684(2) -0.7739(2) 0.00000
C5A C 0.6168(2) -0.6901(3) 0.00000
C6A C 0.6650(2) -0.6136(3) 0.00000
C7A C 0.7582(3) -0.6074(3) 0.00000
H3A H 0.79770 -0.65330 0.00000
C8A C 0.7774(3) -0.5211(3) 0.00000
H4A H 0.83310 -0.49740 0.00000
C9A C 0.6983(3) -0.4727(3) 0.00000
O1H O 0.87138(15) -1.03213(14) -0.1217(3)
C2H C 0.74259(19) -0.88776(19) 0.1223(3)
H1H H 0.75970 -0.91290 0.20360
C3H C 0.69383(19) -0.81287(19) 0.1207(3)
H2H H 0.67740 -0.78760 0.20220
Sm1* Sm 0.00000 -1.00000 0.25000
Sm1** Sm 1.00000 -1.00000 0.25000
Sm1*** Sm 1.00000 0.00000 0.25000
Sm1H Sm 0.00000 -1.00000 -0.25000
Sm1H* Sm 0.00000 0.00000 -0.25000
Sm1H** Sm 1.00000 -1.00000 -0.25000
Sm1H*** Sm 1.00000 0.00000 -0.25000
O1A* O -0.12862(15) -0.03213(14) 0.1217(3)
O1B* O -0.03213(15) 0.12862(14) 0.1217(3)
O1C* O 0.03213(15) -0.12862(14) 0.1217(3)
O1D O -0.12862(15) 0.03213(14) 0.3783(3)
O1E O 0.12862(15) -0.03213(14) 0.3783(3)
O1F O 0.03213(15) 0.12862(14) 0.3783(3)
O1G O -0.03213(15) -0.12862(14) 0.3783(3)
#END
