
#######################################################################
#
#                 Cambridge Crystallographic Data Centre
#                                CCDC
#
#######################################################################
#
# If this CIF has been generated from an entry in the Cambridge
# Structural Database, then it will include bibliographic, chemical,
# crystal, experimental, refinement or atomic coordinate data resulting
# from the CCDC's data processing and validation procedures.
#
#######################################################################

data_CSD_CIF_PUFQUE
_audit_creation_date 2015-03-20
_audit_creation_method CSD-ConQuest-V1
_database_code_CSD PUFQUE
_database_code_depnum_ccdc_archive 'CCDC 1016128'
_chemical_formula_sum 'C76 H52 N6 O34 Zn8'
_chemical_formula_moiety
;
(C72 H36 N4 O34 Zn8 2-)n,2n(C2 H8 N1 1+)
;
_journal_coden_Cambridge 9
_journal_volume 54
_journal_year 2015
_journal_page_first 1645
_journal_name_full 'Inorg.Chem. '
loop_
_publ_author_name
"Jingui Duan"
"M.Higuchi"
"S.Kitagawa"
_chemical_name_systematic
;
catena-[bis(dimethylammonium) 
tetrakis(\m-5-((4-carboxylatobenzoyl)amino)isophthalato)-bis(\m-oxo)-(\m-terep
hthalato)-octa-zinc unknown solvate]
;
_cell_volume   9729.663
_exptl_crystal_density_diffrn 0.721
_diffrn_ambient_temperature 293
_refine_special_details
;
Disordered solvent molecules were not modelled and the disordered density was 
taken into account using the SQUEEZE/PLATON procedure.
;
#These two values have been output from a single CSD field.
_refine_ls_R_factor_gt 0.0799
_refine_ls_wR_factor_gt 0.0799
_symmetry_cell_setting monoclinic
_symmetry_space_group_name_H-M 'P 21/n'
_symmetry_Int_Tables_number 14
loop_
_symmetry_equiv_pos_site_id
_symmetry_equiv_pos_as_xyz
1 x,y,z
2 1/2-x,1/2+y,1/2-z
3 -x,-y,-z
4 -1/2+x,-1/2-y,-1/2+z
_cell_length_a 10.2970(6)
_cell_length_b 30.9262(17)
_cell_length_c 30.5635(16)
_cell_angle_alpha 90
_cell_angle_beta 91.468(1)
_cell_angle_gamma 90
_cell_formula_units_Z 2
loop_
_atom_type_symbol
_atom_type_radius_bond
C 0.68
H 0.23
N 0.68
O 0.68
Zn 1.22
loop_
_atom_site_label
_atom_site_type_symbol
_atom_site_fract_x
_atom_site_fract_y
_atom_site_fract_z
C1 C -0.2289(5) 0.31328(16) 0.41092(16)
C2 C -0.3531(5) 0.30095(15) 0.43378(16)
C3 C -0.3483(4) 0.28717(16) 0.47757(15)
H1 H -0.26910 0.28430 0.49270
C4 C -0.4656(5) 0.27776(16) 0.49814(17)
C5 C -0.5834(5) 0.28544(16) 0.47611(17)
H2 H -0.66130 0.28110 0.49020
C6 C -0.5841(4) 0.29943(16) 0.43337(15)
C7 C -0.4707(5) 0.30696(15) 0.41171(16)
H3 H -0.47310 0.31600 0.38270
C8 C -0.7110(5) 0.30818(14) 0.40881(15)
C9 C -0.5381(5) 0.23773(18) 0.56296(17)
C10 C -0.5037(6) 0.22408(19) 0.60903(18)
C11 C -0.3849(5) 0.23360(19) 0.62908(18)
H4 H -0.32330 0.24940 0.61410
C12 C -0.3570(6) 0.21916(19) 0.67252(18)
H5 H -0.27700 0.22500 0.68600
C13 C -0.4522(5) 0.19596(17) 0.69467(16)
C14 C -0.5699(6) 0.18633(19) 0.67509(18)
H6 H -0.63160 0.17070 0.69010
C15 C -0.5961(6) 0.20050(18) 0.63181(18)
H7 H -0.67570 0.19410 0.61830
C16 C -0.4345(5) 0.18115(17) 0.74009(15)
C17 C 0.2783(5) 0.41887(15) 0.30559(17)
C18 C 0.4031(5) 0.44214(15) 0.29551(15)
C19 C 0.4006(5) 0.48564(16) 0.28267(17)
H8 H 0.32250 0.50060 0.27970
C20 C 0.5188(5) 0.50595(15) 0.27440(17)
C21 C 0.6344(4) 0.48445(15) 0.28041(15)
H9 H 0.71230 0.49890 0.27620
C22 C 0.6357(4) 0.44063(15) 0.29299(15)
C23 C 0.5186(5) 0.41925(15) 0.29959(15)
H10 H 0.51800 0.39000 0.30660
C24 C 0.7612(4) 0.41637(15) 0.30012(15)
C25 C 0.6007(6) 0.58049(19) 0.2621(2)
C26 C 0.5735(6) 0.6257(2) 0.2452(2)
C27 C 0.4560(5) 0.6374(2) 0.22722(19)
H11 H 0.38860 0.61740 0.22590
C28 C 0.4358(6) 0.67949(18) 0.2106(2)
H12 H 0.35630 0.68760 0.19810
C29 C 0.5379(5) 0.70821(18) 0.2136(2)
C30 C 0.6582(6) 0.69601(19) 0.23243(19)
H13 H 0.72620 0.71580 0.23410
C31 C 0.6753(6) 0.65500(18) 0.24828(18)
H14 H 0.75450 0.64680 0.26100
C32 C 0.5279(5) 0.74950(16) 0.18653(19)
C33 C 0.0191(5) 0.43546(16) 0.43187(17)
C34 C 0.0109(5) 0.46820(16) 0.46765(17)
C35 C 0.0126(6) 0.45677(17) 0.51046(16)
H15 H 0.02110 0.42780 0.51820
C36 C -0.0018(6) 0.51189(17) 0.45679(18)
H16 H -0.00300 0.52020 0.42750
N1 N -0.4579(4) 0.26208(15) 0.54105(13)
H17 H -0.38900 0.26970 0.55560
N2 N 0.5104(4) 0.55165(12) 0.26383(15)
H18 H 0.43330 0.56090 0.25780
O1 O 0.0232(3) 0.35663(10) 0.34909(10)
O2 O -0.1245(3) 0.31279(11) 0.43271(11)
O3 O -0.2420(3) 0.32147(12) 0.37182(12)
O4 O -0.7061(3) 0.30786(10) 0.36797(10)
O5 O -0.8118(3) 0.31430(11) 0.43076(11)
O6 O -0.6460(4) 0.23123(12) 0.54512(12)
O7 O -0.5229(4) 0.16143(12) 0.75416(11)
O8 O -0.3334(3) 0.19105(11) 0.76156(11)
O9 O 0.1776(3) 0.44147(10) 0.30918(11)
O10 O 0.2867(3) 0.37959(11) 0.30968(12)
O11 O 0.7510(3) 0.37594(11) 0.29861(12)
O12 O 0.8612(3) 0.43772(10) 0.30753(11)
O13 O 0.7075(4) 0.56878(13) 0.27763(12)
O14 O 0.6300(3) 0.76955(12) 0.19775(12)
O15 O 0.4341(4) 0.76351(11) 0.16698(12)
O16 O 0.0268(3) 0.39703(10) 0.44313(11)
O17 O 0.0176(3) 0.44887(11) 0.39315(11)
Zn1 Zn -0.12534(5) 0.330460(18) 0.318320(17)
Zn2 Zn 0.02680(5) 0.342020(18) 0.410080(18)
Zn3 Zn 0.02341(5) 0.417540(17) 0.336830(18)
Zn4 Zn 0.16829(5) 0.326870(17) 0.321860(18)
C37 C 0.1731(6) 0.58248(19) 0.0088(2)
H19 H 0.18180 0.60500 -0.01260
H20 H 0.20520 0.59260 0.03670
H21 H 0.08310 0.57470 0.01090
C38 C 0.3128(6) 0.5201(2) 0.0329(2)
H22 H 0.40440 0.51820 0.02820
H23 H 0.27680 0.49150 0.03450
H24 H 0.29810 0.53520 0.05970
N3 N 0.2485(5) 0.54422(17) -0.00452(17)
H25 H 0.31010 0.55280 -0.02300
H26 H 0.19510 0.52600 -0.01920
C33B C -0.0191(5) 0.56454(16) 0.56813(17)
C34B C -0.0109(5) 0.53180(16) 0.53235(17)
C35B C -0.0126(6) 0.54323(17) 0.48954(16)
H15B H -0.02110 0.57220 0.48180
C36B C 0.0018(6) 0.48811(17) 0.54321(18)
H16B H 0.00300 0.47980 0.57250
O16B O -0.0268(3) 0.60297(10) 0.55687(11)
O17B O -0.0176(3) 0.55113(11) 0.60685(11)
C1B C 0.2289(5) 0.68672(16) 0.58908(16)
C2B C 0.3531(5) 0.69905(15) 0.56622(16)
C3B C 0.3483(4) 0.71283(16) 0.52243(15)
H1B H 0.26910 0.71570 0.50730
C4B C 0.4656(5) 0.72224(16) 0.50186(17)
C5B C 0.5834(5) 0.71456(16) 0.52389(17)
H2B H 0.66130 0.71890 0.50980
C6B C 0.5841(4) 0.70057(16) 0.56663(15)
C7B C 0.4707(5) 0.69304(15) 0.58829(16)
H3B H 0.47310 0.68400 0.61730
C8B C 0.7110(5) 0.69182(14) 0.59119(15)
C9B C 0.5381(5) 0.76227(18) 0.43704(17)
C10B C 0.5037(6) 0.77592(19) 0.39097(18)
C11B C 0.3849(5) 0.76640(19) 0.37092(18)
H4B H 0.32330 0.75060 0.38590
C12B C 0.3570(6) 0.78084(19) 0.32748(18)
H5B H 0.27700 0.77500 0.31400
C13B C 0.4522(5) 0.80404(17) 0.30533(16)
C14B C 0.5699(6) 0.81367(19) 0.32491(18)
H6B H 0.63160 0.82930 0.30990
C15B C 0.5961(6) 0.79950(18) 0.36819(18)
H7B H 0.67570 0.80590 0.38170
C16B C 0.4345(5) 0.81885(17) 0.25991(15)
C17B C -0.2783(5) 0.58113(15) 0.69441(17)
C18B C -0.4031(5) 0.55786(15) 0.70449(15)
C19B C -0.4006(5) 0.51436(16) 0.71733(17)
H8B H -0.32250 0.49940 0.72030
C20B C -0.5188(5) 0.49405(15) 0.72560(17)
C21B C -0.6344(4) 0.51555(15) 0.71959(15)
H9B H -0.71230 0.50110 0.72380
C22B C -0.6357(4) 0.55937(15) 0.70701(15)
C23B C -0.5186(5) 0.58075(15) 0.70041(15)
H10B H -0.51800 0.61000 0.69340
C24B C -0.7612(4) 0.58363(15) 0.69988(15)
C25B C -0.6007(6) 0.41951(19) 0.7379(2)
C26B C -0.5735(6) 0.3743(2) 0.7548(2)
C27B C -0.4560(5) 0.3626(2) 0.77278(19)
H11B H -0.38860 0.38260 0.77410
C28B C -0.4358(6) 0.32051(18) 0.7894(2)
H12B H -0.35630 0.31240 0.80190
C29B C -0.5379(5) 0.29179(18) 0.7864(2)
C30B C -0.6582(6) 0.30399(19) 0.76757(19)
H13B H -0.72620 0.28420 0.76590
C31B C -0.6753(6) 0.34500(18) 0.75172(18)
H14B H -0.75450 0.35320 0.73900
C32B C -0.5279(5) 0.25050(16) 0.81347(19)
N1B N 0.4579(4) 0.73792(15) 0.45895(13)
H17B H 0.38900 0.73030 0.44440
N2B N -0.5104(4) 0.44835(12) 0.73617(15)
H18B H -0.43330 0.43910 0.74220
O1B O -0.0232(3) 0.64337(10) 0.65091(10)
O2B O 0.1245(3) 0.68721(11) 0.56729(11)
O3B O 0.2420(3) 0.67853(12) 0.62818(12)
O4B O 0.7061(3) 0.69214(10) 0.63203(10)
O5B O 0.8118(3) 0.68570(11) 0.56924(11)
O6B O 0.6460(4) 0.76877(12) 0.45488(12)
O7B O 0.5229(4) 0.83857(12) 0.24584(11)
O8B O 0.3334(3) 0.80895(11) 0.23844(11)
O9B O -0.1776(3) 0.55853(10) 0.69082(11)
O10B O -0.2867(3) 0.62041(11) 0.69032(12)
O11B O -0.7510(3) 0.62406(11) 0.70139(12)
O12B O -0.8612(3) 0.56228(10) 0.69247(11)
O13B O -0.7075(4) 0.43122(13) 0.72237(12)
O14B O -0.6300(3) 0.23045(12) 0.80225(12)
O15B O -0.4341(4) 0.23649(11) 0.83302(12)
Zn1B Zn 0.12534(5) 0.669540(18) 0.681680(17)
Zn2B Zn -0.02680(5) 0.657980(18) 0.589920(18)
Zn3B Zn -0.02341(5) 0.582460(17) 0.663170(18)
Zn4B Zn -0.16829(5) 0.673130(17) 0.678140(18)
O4* O 0.2939(3) 0.30786(10) 0.36797(10)
O4B* O -0.2939(3) 0.69214(10) 0.63203(10)
O5* O 0.1882(3) 0.31430(11) 0.43076(11)
O5B* O -0.1882(3) 0.68570(11) 0.56924(11)
O7A O 0.0229(4) 0.66143(12) 0.74584(11)
O7C O -0.0229(4) 0.33857(12) 0.25416(11)
O8A O -0.1666(3) 0.69105(11) 0.73844(11)
O8C O 0.1666(3) 0.30895(11) 0.26156(11)
O11* O -0.2490(3) 0.37594(11) 0.29861(12)
O11B* O 0.2490(3) 0.62406(11) 0.70139(12)
O12* O -0.1388(3) 0.43772(10) 0.30753(11)
O12B* O 0.1388(3) 0.56228(10) 0.69247(11)
O14A O -0.1300(3) 0.26955(12) 0.30225(12)
O14C O 0.1300(3) 0.73045(12) 0.69775(12)
O15A O 0.0659(4) 0.26351(11) 0.33302(12)
O15C O -0.0659(4) 0.73649(11) 0.66698(12)
Zn1* Zn 0.87466(5) 0.330460(18) 0.318320(17)
Zn1A Zn 0.62534(5) 0.830460(18) 0.181680(17)
Zn1B* Zn -0.87466(5) 0.669540(18) 0.681680(17)
Zn1C Zn -0.62534(5) 0.169540(18) 0.818320(17)
Zn2* Zn -0.97320(5) 0.342020(18) 0.410080(18)
Zn2B* Zn 0.97320(5) 0.657980(18) 0.589920(18)
Zn3* Zn 1.02341(5) 0.417540(17) 0.336830(18)
Zn3B* Zn -1.02341(5) 0.582460(17) 0.663170(18)
Zn4* Zn -0.83171(5) 0.326870(17) 0.321860(18)
Zn4A Zn 0.33171(5) 0.826870(17) 0.178140(18)
Zn4B* Zn 0.83171(5) 0.673130(17) 0.678140(18)
Zn4C Zn -0.33171(5) 0.173130(17) 0.821860(18)
#END
