
#######################################################################
#
#                 Cambridge Crystallographic Data Centre
#                                CCDC
#
#######################################################################
#
# If this CIF has been generated from an entry in the Cambridge
# Structural Database, then it will include bibliographic, chemical,
# crystal, experimental, refinement or atomic coordinate data resulting
# from the CCDC's data processing and validation procedures.
#
#######################################################################

data_CSD_CIF_PUFQOY
_audit_creation_date 2015-03-20
_audit_creation_method CSD-ConQuest-V1
_database_code_CSD PUFQOY
_database_code_depnum_ccdc_archive 'CCDC 1016130'
_chemical_formula_sum 'C80 H54 N6 O34 Zn8'
_chemical_formula_moiety
;
(C76 H38 N4 O34 Zn8 2-)n,2n(C2 H8 N1 1+)
;
_journal_coden_Cambridge 9
_journal_volume 54
_journal_year 2015
_journal_page_first 1645
_journal_name_full 'Inorg.Chem. '
loop_
_publ_author_name
"Jingui Duan"
"M.Higuchi"
"S.Kitagawa"
_chemical_name_systematic
;
catena-[bis(dimethylammonium) 
tetrakis(\m-5-((4-carboxylatobenzoyl)amino)isophthalato)-(\m-naphthalene-2,6-d
icarboxylato)-bis(\m-oxo)-octa-zinc unknown solvate]
;
_cell_volume  10155.825
_exptl_crystal_density_diffrn 0.708
_diffrn_ambient_temperature 291
_refine_special_details
;
Disordered solvent molecules were not modelled and the disordered density was 
taken into account using the SQUEEZE/PLATON procedure.
;
#These two values have been output from a single CSD field.
_refine_ls_R_factor_gt 0.0367
_refine_ls_wR_factor_gt 0.0367
_symmetry_cell_setting monoclinic
_symmetry_space_group_name_H-M 'P 21/c'
_symmetry_Int_Tables_number 14
loop_
_symmetry_equiv_pos_site_id
_symmetry_equiv_pos_as_xyz
1 x,y,z
2 -x,1/2+y,1/2-z
3 -x,-y,-z
4 x,-1/2-y,-1/2+z
_cell_length_a 10.298(3)
_cell_length_b 31.469(8)
_cell_length_c 32.722(8)
_cell_angle_alpha 90
_cell_angle_beta 106.720(8)
_cell_angle_gamma 90
_cell_formula_units_Z 2
loop_
_atom_type_symbol
_atom_type_radius_bond
C 0.68
H 0.23
N 0.68
O 0.68
Zn 1.22
loop_
_atom_site_label
_atom_site_type_symbol
_atom_site_fract_x
_atom_site_fract_y
_atom_site_fract_z
C1 C 1.0050(2) 0.60473(7) 0.28536(7)
C2 C 0.8737(2) 0.58141(7) 0.27724(7)
C3 C 0.7619(2) 0.60414(7) 0.27819(7)
H1 H 0.76670 0.63360 0.28100
C4 C 0.6390(2) 0.58278(7) 0.27490(7)
C5 C 0.6281(2) 0.54005(7) 0.26669(7)
H2 H 0.54600 0.52620 0.26340
C6 C 0.7420(2) 0.51735(7) 0.26324(7)
C7 C 0.8657(2) 0.53846(7) 0.26890(7)
H3 H 0.94180 0.52360 0.26700
C8 C 0.5292(2) 0.60624(7) 0.28259(7)
C9 C 0.6331(2) 0.44967(7) 0.24674(7)
C10 C 0.6576(2) 0.40425(7) 0.23574(7)
C11 C 0.5476(2) 0.37732(7) 0.23680(7)
H4 H 0.47300 0.38780 0.24420
C12 C 0.5556(2) 0.33481(7) 0.22646(7)
H5 H 0.48510 0.31640 0.22640
C13 C 0.6703(2) 0.31976(7) 0.21609(7)
C14 C 0.7758(2) 0.34457(7) 0.21409(7)
H6 H 0.85050 0.33410 0.20670
C15 C 0.7629(3) 0.38633(8) 0.22397(8)
H7 H 0.83290 0.40440 0.22260
C16 C 0.6789(2) 0.27574(7) 0.20565(6)
C17 C 0.9023(2) 0.21085(7) 0.11297(7)
C18 C 1.0042(2) 0.21855(7) 0.08888(7)
C19 C 0.9630(2) 0.22696(7) 0.04503(7)
H8 H 0.87120 0.22910 0.03050
C20 C 1.0594(2) 0.23205(7) 0.02333(7)
C21 C 1.1966(2) 0.22782(7) 0.04471(7)
H9 H 1.26100 0.23080 0.03000
C22 C 1.2368(2) 0.21923(7) 0.08801(7)
C23 C 1.1414(2) 0.21444(7) 0.11000(7)
H10 H 1.16920 0.20840 0.13910
C24 C 1.3804(2) 0.20713(7) 0.11115(7)
C25 C 0.9170(2) 0.26868(7) -0.04435(7)
C26 C 0.9030(2) 0.27724(7) -0.09058(7)
C27 C 0.7791(2) 0.29192(7) -0.11628(7)
H11 H 0.70920 0.29760 -0.10430
C28 C 0.7589(2) 0.29823(8) -0.15965(7)
H12 H 0.67620 0.30860 -0.17650
C29 C 0.8621(2) 0.28911(7) -0.17800(7)
C30 C 0.9866(2) 0.27402(7) -0.15287(7)
H13 H 1.05570 0.26800 -0.16510
C31 C 1.0068(2) 0.26804(7) -0.10914(7)
H14 H 1.08970 0.25790 -0.09220
C32 C 0.8302(2) 0.29910(7) -0.21802(7)
C33 C 0.6148(2) 0.08730(7) 0.09113(7)
C34 C 0.5715(2) 0.05474(7) 0.05594(8)
C35 C 0.4970(2) 0.07648(7) 0.01910(7)
H15 H 0.48640 0.10580 0.01950
C36 C 0.4389(2) 0.05318(7) -0.01820(7)
H16 H 0.38820 0.06710 -0.04270
C37 C 0.4566(2) 0.00975(7) -0.01879(7)
C38 C 0.5898(2) 0.01124(7) 0.05499(7)
H17 H 0.63470 -0.00320 0.07980
N1 N 0.72850(19) 0.47525(6) 0.25290(6)
H18 H 0.80160 0.46410 0.25000
H19 H 1.07020 0.23280 -0.03330
N2 N 1.01959(18) 0.24366(6) -0.01914(6)
O1 O 0.69548(16) 0.16684(5) 0.17038(5)
O2 O 1.00598(15) 0.64285(5) 0.29155(5)
O3 O 1.11115(15) 0.58202(5) 0.29096(5)
O4 O 0.53171(15) 0.64519(5) 0.28067(5)
O5 O 0.43368(15) 0.58563(5) 0.28892(5)
O6 O 0.58854(16) 0.25415(5) 0.21596(5)
O7 O 0.76694(15) 0.26577(5) 0.18860(5)
O8 O 0.51739(14) 0.45653(5) 0.24872(5)
O9 O 0.94519(16) 0.21172(5) 0.15174(5)
O10 O 0.78376(16) 0.20549(5) 0.09122(5)
O11 O 1.41126(16) 0.20009(5) 0.14881(5)
O12 O 1.46459(16) 0.20659(5) 0.08951(5)
O13 O 0.92371(15) 0.28845(5) -0.24336(5)
O14 O 0.72238(16) 0.31568(5) -0.23413(5)
O15 O 0.83675(16) 0.28503(5) -0.03126(5)
O16 O 0.64804(16) 0.07559(5) 0.12889(5)
O17 O 0.60426(15) 0.12673(5) 0.07873(5)
Zn1 Zn 0.86763(3) 0.194270(8) 0.198432(8)
Zn2 Zn 0.70849(3) 0.106261(8) 0.182841(8)
Zn3 Zn 0.57754(3) 0.190964(8) 0.201298(8)
Zn4 Zn 0.64179(3) 0.178848(9) 0.111568(8)
C39 C -0.0192(2) 0.09965(8) 0.09108(7)
H20 H -0.05860 0.07180 0.08690
H21 H -0.07560 0.11900 0.07090
H22 H -0.01190 0.10910 0.11950
C40 C 0.2330(2) 0.09653(7) 0.12325(7)
H23 H 0.20290 0.10430 0.14740
H24 H 0.30210 0.11590 0.12070
H25 H 0.26910 0.06820 0.12710
N3 N 0.1189(2) 0.09827(6) 0.08466(6)
H26 H 0.12310 0.07540 0.06860
H27 H 0.12870 0.12140 0.06970
C33B C 0.3852(2) -0.08730(7) -0.09113(7)
C34B C 0.4285(2) -0.05474(7) -0.05594(8)
C35B C 0.5030(2) -0.07648(7) -0.01910(7)
H15B H 0.51360 -0.10580 -0.01950
C36B C 0.5611(2) -0.05318(7) 0.01820(7)
H16B H 0.61180 -0.06710 0.04270
C37B C 0.5434(2) -0.00975(7) 0.01879(7)
C38B C 0.4102(2) -0.01124(7) -0.05499(7)
H17B H 0.36530 0.00320 -0.07980
O16B O 0.35196(16) -0.07559(5) -0.12889(5)
O17B O 0.39574(15) -0.12673(5) -0.07873(5)
C1B C -0.0050(2) -0.60473(7) -0.28536(7)
C2B C 0.1263(2) -0.58141(7) -0.27724(7)
C3B C 0.2381(2) -0.60414(7) -0.27819(7)
H1B H 0.23330 -0.63360 -0.28100
C4B C 0.3610(2) -0.58278(7) -0.27490(7)
C5B C 0.3719(2) -0.54005(7) -0.26669(7)
H2B H 0.45400 -0.52620 -0.26340
C6B C 0.2580(2) -0.51735(7) -0.26324(7)
C7B C 0.1343(2) -0.53846(7) -0.26890(7)
H3B H 0.05820 -0.52360 -0.26700
C8B C 0.4708(2) -0.60624(7) -0.28259(7)
C9B C 0.3669(2) -0.44967(7) -0.24674(7)
C10B C 0.3424(2) -0.40425(7) -0.23574(7)
C11B C 0.4524(2) -0.37732(7) -0.23680(7)
H4B H 0.52700 -0.38780 -0.24420
C12B C 0.4444(2) -0.33481(7) -0.22646(7)
H5B H 0.51490 -0.31640 -0.22640
C13B C 0.3297(2) -0.31976(7) -0.21609(7)
C14B C 0.2242(2) -0.34457(7) -0.21409(7)
H6B H 0.14950 -0.33410 -0.20670
C15B C 0.2371(3) -0.38633(8) -0.22397(8)
H7B H 0.16710 -0.40440 -0.22260
C16B C 0.3211(2) -0.27574(7) -0.20565(6)
C17B C 0.0977(2) -0.21085(7) -0.11297(7)
C18B C -0.0042(2) -0.21855(7) -0.08888(7)
C19B C 0.0370(2) -0.22696(7) -0.04503(7)
H8B H 0.12880 -0.22910 -0.03050
C20B C -0.0594(2) -0.23205(7) -0.02333(7)
C21B C -0.1966(2) -0.22782(7) -0.04471(7)
H9B H -0.26100 -0.23080 -0.03000
C22B C -0.2368(2) -0.21923(7) -0.08801(7)
C23B C -0.1414(2) -0.21444(7) -0.11000(7)
H10B H -0.16920 -0.20840 -0.13910
C24B C -0.3804(2) -0.20713(7) -0.11115(7)
C25B C 0.0830(2) -0.26868(7) 0.04435(7)
C26B C 0.0970(2) -0.27724(7) 0.09058(7)
C27B C 0.2209(2) -0.29192(7) 0.11628(7)
H11B H 0.29080 -0.29760 0.10430
C28B C 0.2411(2) -0.29823(8) 0.15965(7)
H12B H 0.32380 -0.30860 0.17650
C29B C 0.1379(2) -0.28911(7) 0.17800(7)
C30B C 0.0134(2) -0.27402(7) 0.15287(7)
H13B H -0.05570 -0.26800 0.16510
C31B C -0.0068(2) -0.26804(7) 0.10914(7)
H14B H -0.08970 -0.25790 0.09220
C32B C 0.1698(2) -0.29910(7) 0.21802(7)
N1B N 0.27150(19) -0.47525(6) -0.25290(6)
H18B H 0.19840 -0.46410 -0.25000
H19B H -0.07020 -0.23280 0.03330
N2B N -0.01959(18) -0.24366(6) 0.01914(6)
O1B O 0.30452(16) -0.16684(5) -0.17038(5)
O2B O -0.00598(15) -0.64285(5) -0.29155(5)
O3B O -0.11115(15) -0.58202(5) -0.29096(5)
O4B O 0.46829(15) -0.64519(5) -0.28067(5)
O5B O 0.56632(15) -0.58563(5) -0.28892(5)
O6B O 0.41146(16) -0.25415(5) -0.21596(5)
O7B O 0.23306(15) -0.26577(5) -0.18860(5)
O8B O 0.48261(14) -0.45653(5) -0.24872(5)
O9B O 0.05481(16) -0.21172(5) -0.15174(5)
O10B O 0.21624(16) -0.20549(5) -0.09122(5)
O11B O -0.41126(16) -0.20009(5) -0.14881(5)
O12B O -0.46459(16) -0.20659(5) -0.08951(5)
O13B O 0.07629(15) -0.28845(5) 0.24336(5)
O14B O 0.27762(16) -0.31568(5) 0.23413(5)
O15B O 0.16325(16) -0.28503(5) 0.03126(5)
Zn1B Zn 0.13237(3) -0.194270(8) -0.198432(8)
Zn2B Zn 0.29151(3) -0.106261(8) -0.182841(8)
Zn3B Zn 0.42246(3) -0.190964(8) -0.201298(8)
Zn4B Zn 0.35821(3) -0.178848(9) -0.111568(8)
O2A O 0.99402(15) 0.14285(5) 0.20845(5)
O2C O 0.00598(15) -0.14285(5) -0.20845(5)
O3A O 0.88885(15) 0.08202(5) 0.20904(5)
O3C O 0.11115(15) -0.08202(5) -0.20904(5)
O4A O 0.46829(15) 0.14519(5) 0.21933(5)
O4C O 0.53171(15) -0.14519(5) -0.21933(5)
O5A O 0.56632(15) 0.08563(5) 0.21108(5)
O5C O 0.43368(15) -0.08563(5) -0.21108(5)
O11* O 0.41126(16) 0.20009(5) 0.14881(5)
O11B* O 0.58874(16) -0.20009(5) -0.14881(5)
O12* O 0.46459(16) 0.20659(5) 0.08951(5)
O12B* O 0.53541(16) -0.20659(5) -0.08951(5)
O13A O 0.07629(15) -0.21155(5) -0.25664(5)
O13C O 0.92371(15) 0.21155(5) 0.25664(5)
O14A O 0.27762(16) -0.18432(5) -0.26587(5)
O14C O 0.72238(16) 0.18432(5) 0.26587(5)
Zn1A Zn 0.13237(3) -0.305730(8) 0.301568(8)
Zn1A* Zn 1.13237(3) 0.694270(8) 0.301568(8)
Zn1C Zn -0.13237(3) -0.694270(8) -0.301568(8)
Zn1C* Zn 0.86763(3) 0.305730(8) -0.301568(8)
Zn2A Zn 0.29151(3) 0.606261(8) 0.317159(8)
Zn2A* Zn 1.29151(3) 0.606261(8) 0.317159(8)
Zn2C Zn -0.29151(3) -0.606261(8) -0.317159(8)
Zn2C* Zn 0.70849(3) -0.606261(8) -0.317159(8)
Zn3* Zn 1.57754(3) 0.190964(8) 0.201298(8)
Zn3A Zn 0.42246(3) -0.309036(8) 0.298702(8)
Zn3A* Zn 0.42246(3) 0.690964(8) 0.298702(8)
Zn3B* Zn -0.57754(3) -0.190964(8) -0.201298(8)
Zn3C Zn 0.57754(3) -0.690964(8) -0.298702(8)
Zn3C* Zn 0.57754(3) 0.309036(8) -0.298702(8)
Zn4* Zn 1.64179(3) 0.178848(9) 0.111568(8)
Zn4B* Zn -0.64179(3) -0.178848(9) -0.111568(8)
#END
