
#######################################################################
#
#                 Cambridge Crystallographic Data Centre
#                                CCDC
#
#######################################################################
#
# If this CIF has been generated from an entry in the Cambridge
# Structural Database, then it will include bibliographic, chemical,
# crystal, experimental, refinement or atomic coordinate data resulting
# from the CCDC's data processing and validation procedures.
#
#######################################################################

data_CSD_CIF_PUFRIT
_audit_creation_date 2015-03-20
_audit_creation_method CSD-ConQuest-V1
_database_code_CSD PUFRIT
_database_code_depnum_ccdc_archive 'CCDC 1016131'
_chemical_formula_sum 'C82 H56 N6 O34 Zn8'
_chemical_formula_moiety
;
(C78 H40 N4 O34 Zn8 2-)n,2n(C2 H8 N1 1+)
;
_journal_coden_Cambridge 9
_journal_volume 54
_journal_year 2015
_journal_page_first 1645
_journal_name_full 'Inorg.Chem. '
loop_
_publ_author_name
"Jingui Duan"
"M.Higuchi"
"S.Kitagawa"
_chemical_name_systematic
;
catena-[bis(dimethylammonium) 
(\m-biphenyl-4,4'-dicarboxylato)-tetrakis(\m-5-((4-carboxylatobenzoyl)amino)is
ophthalato)-bis(\m-oxo)-octa-zinc unknown solvate]
;
_cell_volume  10555.016
_exptl_crystal_density_diffrn 0.69
_diffrn_ambient_temperature 291
_refine_special_details
;
Disordered solvent molecules were not modelled and the disordered density was 
taken into account using the SQUEEZE/PLATON procedure.
;
#These two values have been output from a single CSD field.
_refine_ls_R_factor_gt 0.0393
_refine_ls_wR_factor_gt 0.0393
_symmetry_cell_setting monoclinic
_symmetry_space_group_name_H-M 'P 21/n'
_symmetry_Int_Tables_number 14
loop_
_symmetry_equiv_pos_site_id
_symmetry_equiv_pos_as_xyz
1 x,y,z
2 1/2-x,1/2+y,1/2-z
3 -x,-y,-z
4 -1/2+x,-1/2-y,-1/2+z
_cell_length_a 10.3371(8)
_cell_length_b 31.988(2)
_cell_length_c 31.939(2)
_cell_angle_alpha 90
_cell_angle_beta 91.937(1)
_cell_angle_gamma 90
_cell_formula_units_Z 2
loop_
_atom_type_symbol
_atom_type_radius_bond
C 0.68
H 0.23
N 0.68
O 0.68
Zn 1.22
loop_
_atom_site_label
_atom_site_type_symbol
_atom_site_fract_x
_atom_site_fract_y
_atom_site_fract_z
C1 C 0.4707(2) 0.88992(7) 0.11218(7)
C2 C 0.4794(2) 0.92328(7) 0.07864(7)
C3 C 0.4736(2) 0.91138(8) 0.03656(7)
H1 H 0.46340 0.88340 0.02910
C4 C 0.4829(2) 0.94085(8) 0.00726(8)
H2 H 0.48090 0.93280 -0.02070
C5 C 0.4956(2) 0.98368(7) 0.01701(7)
C6 C 0.5015(2) 0.99356(8) 0.06066(7)
H3 H 0.51240 1.02130 0.06870
C7 C 0.4921(2) 0.96479(7) 0.08988(7)
H4 H 0.49390 0.97240 0.11800
C8 C 0.7255(2) 0.77312(7) 0.13040(7)
C9 C 0.8479(2) 0.76411(7) 0.10869(6)
C10 C 0.96702(19) 0.76652(6) 0.13137(6)
H5 H 0.96980 0.77030 0.16030
C11 C 1.08069(19) 0.76313(6) 0.10928(6)
C12 C 1.0772(2) 0.75568(7) 0.06657(7)
H6 H 1.15420 0.75270 0.05260
C13 C 0.9616(2) 0.75267(7) 0.04464(7)
C14 C 0.8444(2) 0.75723(7) 0.06555(7)
H7 H 0.76560 0.75570 0.05070
C15 C 1.2052(2) 0.76762(7) 0.13321(7)
C16 C 0.8661(2) 0.74069(8) -0.02569(7)
C17 C 0.8947(2) 0.73836(8) -0.07130(7)
C18 C 1.0156(2) 0.72526(9) -0.08548(7)
H8 H 1.08480 0.72100 -0.06660
C19 C 1.0301(2) 0.71875(8) -0.12833(7)
H9 H 1.10910 0.70970 -0.13810
C20 C 0.9273(2) 0.72574(7) -0.15621(7)
C21 C 0.8073(2) 0.73819(8) -0.14187(8)
H10 H 0.73700 0.74170 -0.16050
C22 C 0.7942(2) 0.74544(8) -0.09835(8)
H11 H 0.71610 0.75510 -0.08850
C23 C 0.9341(2) 0.71878(7) -0.20278(7)
C24 C 0.2803(2) 0.37278(7) 0.26946(7)
C25 C 0.4032(2) 0.39568(6) 0.26196(6)
C26 C 0.40647(19) 0.43936(7) 0.25531(7)
H12 H 0.32960 0.45450 0.25340
C27 C 0.5234(2) 0.45961(7) 0.25159(7)
C28 C 0.63757(18) 0.43751(6) 0.25293(7)
H13 H 0.71540 0.45140 0.24930
C29 C 0.6376(2) 0.39459(7) 0.25970(7)
C30 C 0.5199(2) 0.37354(6) 0.26323(7)
H14 H 0.51930 0.34460 0.26640
C31 C 0.75942(19) 0.37024(6) 0.26403(6)
C32 C 0.6139(2) 0.52996(7) 0.24092(7)
C33 C 0.5822(2) 0.57538(7) 0.23706(7)
C34 C 0.4603(2) 0.59068(7) 0.22617(7)
H15 H 0.39070 0.57250 0.22240
C35 C 0.4428(2) 0.63328(7) 0.22092(7)
H16 H 0.36080 0.64360 0.21390
C36 C 0.5450(2) 0.66066(7) 0.22596(7)
C37 C 0.6690(2) 0.64545(7) 0.23716(7)
H17 H 0.73800 0.66390 0.24110
C38 C 0.6880(2) 0.60269(7) 0.24234(8)
H18 H 0.76990 0.59230 0.24920
C39 C 0.5269(2) 0.70710(6) 0.22146(7)
N1 N 0.95938(17) 0.74623(6) 0.00084(5)
H19 H 1.03460 0.74600 -0.00980
N2 N 0.51850(18) 0.50302(5) 0.24555(6)
H20 H 0.44210 0.51370 0.24470
O1 O 0.47494(13) 0.81261(4) 0.19148(4)
O2 O 0.47520(14) 0.90205(4) 0.14917(5)
O3 O 0.46758(14) 0.85279(4) 0.10045(4)
O4 O 0.62224(14) 0.77282(4) 0.11025(4)
O5 O 0.73824(14) 0.77874(5) 0.16929(5)
O6 O 1.20150(13) 0.76566(4) 0.17225(4)
O7 O 1.30707(14) 0.77423(5) 0.11270(5)
O8 O 0.74740(15) 0.74083(5) -0.01517(5)
O9 O 0.83636(14) 0.72955(5) -0.22343(5)
O10 O 1.03773(15) 0.70575(5) -0.21640(5)
O11 O 0.17893(13) 0.39461(4) 0.27134(4)
O12 O 0.28756(14) 0.33475(4) 0.27309(5)
O13 O 0.75130(13) 0.33134(4) 0.26126(4)
O14 O 0.86158(13) 0.39043(4) 0.27063(4)
O15 O 0.72532(15) 0.51681(5) 0.23489(5)
O16 O 0.42386(14) 0.72051(4) 0.20850(5)
O17 O 0.62393(14) 0.72787(4) 0.23212(4)
Zn1 Zn 0.62304(2) 0.787939(7) 0.221637(8)
Zn2 Zn 0.47424(2) 0.871327(7) 0.202720(8)
Zn3 Zn 0.46984(2) 0.800104(7) 0.132487(7)
Zn4 Zn 0.33195(2) 0.782246(8) 0.216387(8)
C40 C 0.5873(2) 0.23984(7) 0.17241(7)
H21 H 0.62580 0.22060 0.15340
H22 H 0.65380 0.25660 0.18570
H23 H 0.52740 0.25760 0.15720
C41 C 0.4639(2) 0.17667(7) 0.18730(8)
H24 H 0.44080 0.18040 0.15820
H25 H 0.38830 0.16910 0.20220
H26 H 0.52750 0.15490 0.19030
N3 N 0.5180(2) 0.21620(6) 0.20460(7)
H27 H 0.45340 0.23200 0.21420
H28 H 0.57290 0.21040 0.22630
C1B C 0.5293(2) 1.11008(7) -0.11218(7)
C2B C 0.5206(2) 1.07672(7) -0.07864(7)
C3B C 0.5264(2) 1.08862(8) -0.03656(7)
H1B H 0.53660 1.11660 -0.02910
C4B C 0.5171(2) 1.05915(8) -0.00726(8)
H2B H 0.51910 1.06720 0.02070
C5B C 0.5044(2) 1.01632(7) -0.01701(7)
C6B C 0.4985(2) 1.00644(8) -0.06066(7)
H3B H 0.48760 0.97870 -0.06870
C7B C 0.5079(2) 1.03521(7) -0.08988(7)
H4B H 0.50610 1.02760 -0.11800
O2B O 0.52480(14) 1.09795(4) -0.14917(5)
O3B O 0.53242(14) 1.14721(4) -0.10045(4)
C8B C 0.2745(2) 1.22688(7) -0.13040(7)
C9B C 0.1521(2) 1.23589(7) -0.10869(6)
C10B C 0.03298(19) 1.23348(6) -0.13137(6)
H5B H 0.03020 1.22970 -0.16030
C11B C -0.08069(19) 1.23687(6) -0.10928(6)
C12B C -0.0772(2) 1.24432(7) -0.06657(7)
H6B H -0.15420 1.24730 -0.05260
C13B C 0.0384(2) 1.24733(7) -0.04464(7)
C14B C 0.1556(2) 1.24277(7) -0.06555(7)
H7B H 0.23440 1.24430 -0.05070
C15B C -0.2052(2) 1.23238(7) -0.13321(7)
C16B C 0.1339(2) 1.25931(8) 0.02569(7)
C17B C 0.1053(2) 1.26164(8) 0.07130(7)
C18B C -0.0156(2) 1.27474(9) 0.08548(7)
H8B H -0.08480 1.27900 0.06660
C19B C -0.0301(2) 1.28125(8) 0.12833(7)
H9B H -0.10910 1.29030 0.13810
C20B C 0.0727(2) 1.27426(7) 0.15621(7)
C21B C 0.1927(2) 1.26181(8) 0.14187(8)
H10B H 0.26300 1.25830 0.16050
C22B C 0.2058(2) 1.25456(8) 0.09835(8)
H11B H 0.28390 1.24490 0.08850
C23B C 0.0659(2) 1.28122(7) 0.20278(7)
C24B C 0.7197(2) 1.62722(7) -0.26946(7)
C25B C 0.5968(2) 1.60432(6) -0.26196(6)
C26B C 0.59353(19) 1.56064(7) -0.25531(7)
H12B H 0.67040 1.54550 -0.25340
C27B C 0.4766(2) 1.54039(7) -0.25159(7)
C28B C 0.36243(18) 1.56249(6) -0.25293(7)
H13B H 0.28460 1.54860 -0.24930
C29B C 0.3624(2) 1.60541(7) -0.25970(7)
C30B C 0.4801(2) 1.62646(6) -0.26323(7)
H14B H 0.48070 1.65540 -0.26640
C31B C 0.24058(19) 1.62976(6) -0.26403(6)
C32B C 0.3861(2) 1.47004(7) -0.24092(7)
C33B C 0.4178(2) 1.42462(7) -0.23706(7)
C34B C 0.5397(2) 1.40932(7) -0.22617(7)
H15B H 0.60930 1.42750 -0.22240
C35B C 0.5572(2) 1.36672(7) -0.22092(7)
H16B H 0.63920 1.35640 -0.21390
C36B C 0.4550(2) 1.33934(7) -0.22596(7)
C37B C 0.3310(2) 1.35455(7) -0.23716(7)
H17B H 0.26200 1.33610 -0.24110
C38B C 0.3120(2) 1.39731(7) -0.24234(8)
H18B H 0.23010 1.40770 -0.24920
C39B C 0.4731(2) 1.29290(6) -0.22146(7)
N1B N 0.04062(17) 1.25377(6) -0.00084(5)
H19B H -0.03460 1.25400 0.00980
N2B N 0.48150(18) 1.49698(5) -0.24555(6)
H20B H 0.55790 1.48630 -0.24470
O1B O 0.52506(13) 1.18739(4) -0.19148(4)
O4B O 0.37776(14) 1.22718(4) -0.11025(4)
O5B O 0.26176(14) 1.22126(5) -0.16929(5)
O6B O -0.20150(13) 1.23434(4) -0.17225(4)
O7B O -0.30707(14) 1.22577(5) -0.11270(5)
O8B O 0.25260(15) 1.25917(5) 0.01517(5)
O9B O 0.16364(14) 1.27045(5) 0.22343(5)
O10B O -0.03773(15) 1.29425(5) 0.21640(5)
O11B O 0.82107(13) 1.60539(4) -0.27134(4)
O12B O 0.71244(14) 1.66525(4) -0.27309(5)
O13B O 0.24870(13) 1.66866(4) -0.26126(4)
O14B O 0.13842(13) 1.60957(4) -0.27063(4)
O15B O 0.27468(15) 1.48319(5) -0.23489(5)
O16B O 0.57614(14) 1.27949(4) -0.20850(5)
O17B O 0.37607(14) 1.27213(4) -0.23212(4)
Zn1B Zn 0.37696(2) 1.212061(7) -0.221637(8)
Zn2B Zn 0.52576(2) 1.128673(7) -0.202720(8)
Zn3B Zn 0.53016(2) 1.199896(7) -0.132487(7)
Zn4B Zn 0.66805(2) 1.217754(8) -0.216387(8)
O6* O 0.20150(13) 0.76566(4) 0.17225(4)
O6B* O 0.79850(13) 1.23434(4) -0.17225(4)
O7* O 0.30707(14) 0.77423(5) 0.11270(5)
O7B* O 0.69293(14) 1.22577(5) -0.11270(5)
O9A O 0.66364(14) 1.22955(5) -0.27657(5)
O9C O 0.33636(14) 0.77045(5) 0.27657(5)
O10A O 0.46227(15) 1.20575(5) -0.28360(5)
O10C O 0.53773(15) 0.79425(5) 0.28360(5)
O11A O 0.32107(13) 0.89461(4) 0.22866(4)
O11C O 0.67893(13) 1.10539(4) -0.22866(4)
O12A O 0.21244(14) 0.83475(4) 0.22691(5)
O12C O 0.78756(14) 1.16525(4) -0.22691(5)
O13A O 0.74870(13) 0.83134(4) 0.23874(4)
O13C O 0.25130(13) 1.16866(4) -0.23874(4)
O14A O 0.63842(13) 0.89043(4) 0.22937(4)
O14C O 0.36158(13) 1.10957(4) -0.22937(4)
Zn1A Zn -0.12304(2) 1.287939(7) 0.278363(8)
Zn1A* Zn 0.87696(2) 0.287939(7) 0.278363(8)
Zn1C Zn 0.12304(2) 1.712061(7) -0.278363(8)
Zn1C* Zn 1.12304(2) 0.712061(7) -0.278363(8)
Zn2A Zn 0.02576(2) 0.371327(7) 0.297280(8)
Zn2A* Zn 1.02576(2) 0.371327(7) 0.297280(8)
Zn2C Zn -0.02576(2) 1.628673(7) -0.297280(8)
Zn2C* Zn 0.97424(2) 1.628673(7) -0.297280(8)
Zn3* Zn 1.46984(2) 0.800104(7) 0.132487(7)
Zn3B* Zn -0.46984(2) 1.199896(7) -0.132487(7)
Zn4* Zn 1.33195(2) 0.782246(8) 0.216387(8)
Zn4A Zn 0.16805(2) 0.282246(8) 0.283613(8)
Zn4A* Zn 0.16805(2) 1.282246(8) 0.283613(8)
Zn4B* Zn -0.33195(2) 1.217754(8) -0.216387(8)
Zn4C Zn 0.83195(2) 0.717754(8) -0.283613(8)
Zn4C* Zn 0.83195(2) 1.717754(8) -0.283613(8)
#END
