
#######################################################################
#
#                 Cambridge Crystallographic Data Centre
#                                CCDC
#
#######################################################################
#
# If this CIF has been generated from an entry in the Cambridge
# Structural Database, then it will include bibliographic, chemical,
# crystal, experimental, refinement or atomic coordinate data resulting
# from the CCDC's data processing and validation procedures.
#
#######################################################################

data_CSD_CIF_PUGSER
_audit_creation_date 2015-03-20
_audit_creation_method CSD-ConQuest-V1
_database_code_CSD PUGSER
_database_code_depnum_ccdc_archive 'CCDC 1016123'
_chemical_formula_sum 'C34 H25 N1 O15 Zn4'
_chemical_formula_moiety
;
(C32 H17 O15 Zn4 1-)n,n(C2 H8 N1 1+)
;
_journal_coden_Cambridge 9
_journal_volume 54
_journal_year 2015
_journal_page_first 1645
_journal_name_full 'Inorg.Chem. '
loop_
_publ_author_name
"Jingui Duan"
"M.Higuchi"
"S.Kitagawa"
_chemical_name_systematic
;
catena-(Dimethylammonium 
(\m~6~-biphenyl-3,4',5-tricarboxylato)-(\m~4~-oxo)-(\m~2~-acetato-O,O')-tetra-
zinc unknown solvate)
;
_cell_volume   7491.562
_exptl_crystal_colour 'colorless'
_exptl_crystal_density_diffrn 0.841
_exptl_crystal_description 'block'
_diffrn_ambient_temperature 223
_refine_special_details
;
The SQUEEZE/PLATON program was used to model the disordered solvent 
;
#These two values have been output from a single CSD field.
_refine_ls_R_factor_gt 0.0624
_refine_ls_wR_factor_gt 0.0624
_symmetry_cell_setting monoclinic
_symmetry_space_group_name_H-M 'P 21/n'
_symmetry_Int_Tables_number 14
loop_
_symmetry_equiv_pos_site_id
_symmetry_equiv_pos_as_xyz
1 x,y,z
2 1/2-x,1/2+y,1/2-z
3 -x,-y,-z
4 -1/2+x,-1/2-y,-1/2+z
_cell_length_a 10.316(2)
_cell_length_b 26.096(5)
_cell_length_c 27.889(6)
_cell_angle_alpha 90
_cell_angle_beta 93.78(3)
_cell_angle_gamma 90
_cell_formula_units_Z 4
loop_
_atom_type_symbol
_atom_type_radius_bond
C 0.68
H 0.23
N 0.68
O 0.68
Zn 1.22
loop_
_atom_site_label
_atom_site_type_symbol
_atom_site_fract_x
_atom_site_fract_y
_atom_site_fract_z
C1 C 0.6916(4) 0.23837(17) 0.56686(16)
C2 C 0.5615(4) 0.23512(18) 0.53805(16)
C3 C 0.4490(4) 0.23582(18) 0.56169(16)
H1 H 0.45320 0.23430 0.59540
C4 C 0.3302(4) 0.23866(19) 0.53638(16)
C5 C 0.3238(4) 0.2370(2) 0.48736(17)
H2 H 0.24230 0.23790 0.47020
C6 C 0.4382(4) 0.2339(2) 0.46178(17)
C7 C 0.5555(4) 0.2338(2) 0.48882(18)
H3 H 0.63310 0.23270 0.47300
C8 C 0.2076(4) 0.24317(18) 0.56328(17)
C9 C 0.4326(5) 0.2335(2) 0.40852(18)
C10 C 0.3321(6) 0.2563(2) 0.3810(2)
H4 H 0.26580 0.27300 0.39650
C11 C 0.3263(6) 0.2552(2) 0.3317(2)
H5 H 0.25630 0.27100 0.31410
C12 C 0.4221(5) 0.2311(2) 0.30737(17)
C13 C 0.5236(6) 0.2095(3) 0.3347(2)
H6 H 0.59330 0.19500 0.31940
C14 C 0.5244(6) 0.2089(3) 0.3845(2)
H7 H 0.59070 0.19100 0.40210
C15 C 0.4188(6) 0.2302(2) 0.2537(2)
C16 C 0.9444(6) 0.3965(3) 0.5564(3)
C17 C 0.9359(11) 0.4429(3) 0.5240(4)
H8 H 0.84730 0.45560 0.52150
H9 H 0.96160 0.43360 0.49230
H10 H 0.99340 0.46950 0.53740
C18 C 1.2416(4) 0.35767(16) 0.69099(16)
C19 C 1.3648(4) 0.38504(17) 0.70301(17)
C20 C 1.4800(4) 0.36201(17) 0.69177(18)
H11 H 1.48000 0.32850 0.67930
C21 C 1.5966(4) 0.38932(17) 0.69922(18)
C22 C 1.5961(5) 0.43732(18) 0.72015(19)
H12 H 1.67520 0.45480 0.72590
C23 C 1.4825(4) 0.46052(18) 0.7329(2)
C24 C 1.3657(5) 0.43415(18) 0.72238(19)
H13 H 1.28660 0.44990 0.72850
C25 C 1.7172(4) 0.36382(17) 0.68335(18)
C26 C 1.4840(5) 0.51203(19) 0.75317(19)
C27 C 1.5903(5) 0.5300(2) 0.7818(2)
H14 H 1.66390 0.50920 0.78760
C28 C 1.5874(5) 0.5788(2) 0.8019(2)
H15 H 1.65870 0.59000 0.82190
C29 C 1.4838(4) 0.61073(18) 0.79336(19)
C30 C 1.3804(5) 0.5938(2) 0.7649(2)
H16 H 1.30770 0.61520 0.75910
C31 C 1.3810(5) 0.5464(2) 0.7447(2)
H17 H 1.30930 0.53640 0.72430
C32 C 1.4862(5) 0.66425(17) 0.81442(17)
O1 O 0.9663(2) 0.29017(9) 0.63349(9)
O2 O 0.7876(3) 0.25198(13) 0.54321(12)
O3 O 0.6923(3) 0.23041(11) 0.61069(10)
O4 O 0.2189(3) 0.23664(13) 0.60716(11)
O5 O 0.1040(3) 0.25442(14) 0.53831(12)
O6 O 0.3240(4) 0.25164(15) 0.23129(13)
O7 O 0.5116(4) 0.2106(2) 0.23539(15)
O8 O 1.1364(3) 0.38278(11) 0.68729(12)
O9 O 1.2501(3) 0.30901(12) 0.68551(12)
O10 O 1.7075(3) 0.32153(12) 0.66388(14)
O11 O 1.8241(3) 0.38851(13) 0.69155(13)
O12 O 1.5846(3) 0.67914(12) 0.83884(12)
O13 O 1.3843(3) 0.69181(12) 0.80522(12)
O14 O 0.9588(4) 0.40381(15) 0.59969(17)
O15 O 0.9404(4) 0.35356(17) 0.53615(15)
Zn1 Zn 1.11818(4) 0.258192(17) 0.665610(17)
Zn2 Zn 0.82389(4) 0.253038(17) 0.661049(17)
Zn3 Zn 0.96788(5) 0.35923(2) 0.65913(2)
Zn4 Zn 0.95220(5) 0.28501(2) 0.565654(18)
C33 C 0.7965(16) 0.5306(6) 0.6418(6)
H18 H 0.78180 0.49460 0.64820
H19 H 0.74530 0.54070 0.61290
H20 H 0.77090 0.55090 0.66870
C34 C 1.0319(15) 0.5044(6) 0.6716(6)
H21 H 0.98660 0.49620 0.70000
H22 H 1.11040 0.52340 0.68090
H23 H 1.05450 0.47290 0.65570
N1 N 0.9377(15) 0.5392(6) 0.6349(6)
H24 H 0.95680 0.57290 0.63980
H25 H 0.95390 0.53140 0.60410
O4* O 1.2189(3) 0.23664(13) 0.60716(11)
O5* O 1.1040(3) 0.25442(14) 0.53831(12)
O6C O 0.8240(4) 0.24836(15) 0.73129(13)
O7C O 1.0116(4) 0.2894(2) 0.73539(15)
O10* O 0.7075(3) 0.32153(12) 0.66388(14)
O11* O 0.8241(3) 0.38851(13) 0.69155(13)
O12A O 0.9154(3) 0.17914(12) 0.66116(12)
O13A O 1.1157(3) 0.19181(12) 0.69478(12)
Zn1* Zn 0.11818(4) 0.258192(17) 0.665610(17)
Zn1A Zn 1.38182(4) 0.758192(17) 0.834390(17)
Zn1C Zn 0.61818(4) 0.241808(17) 0.165610(17)
Zn2* Zn 1.82389(4) 0.253038(17) 0.661049(17)
Zn2A Zn 1.67611(4) 0.753038(17) 0.838951(17)
Zn2C Zn 0.32389(4) 0.246962(17) 0.161049(17)
Zn3* Zn 1.96788(5) 0.35923(2) 0.65913(2)
Zn4* Zn -0.04780(5) 0.28501(2) 0.565654(18)
#END
