
#######################################################################
#
#                 Cambridge Crystallographic Data Centre
#                                CCDC
#
#######################################################################
#
# If this CIF has been generated from an entry in the Cambridge
# Structural Database, then it will include bibliographic, chemical,
# crystal, experimental, refinement or atomic coordinate data resulting
# from the CCDC's data processing and validation procedures.
#
#######################################################################

data_CSD_CIF_PUGSUH
_audit_creation_date 2015-03-20
_audit_creation_method CSD-ConQuest-V1
_database_code_CSD PUGSUH
_database_code_depnum_ccdc_archive 'CCDC 1016126'
_chemical_formula_sum 'C76 H50 N2 O30 Zn8'
_chemical_formula_moiety
;
(C72 H34 O30 Zn8 2-)n,2n(C2 H8 N1 1+)
;
_journal_coden_Cambridge 9
_journal_volume 54
_journal_year 2015
_journal_page_first 1645
_journal_name_full 'Inorg.Chem. '
loop_
_publ_author_name
"Jingui Duan"
"M.Higuchi"
"S.Kitagawa"
_chemical_name_systematic
;
catena-(bis(Dimethylammonium) 
tetrakis(\m~6~-biphenyl-3,4',5-tricarboxylato)-(\m~4~-naphthalene-2,6-dicarbox
;
_cell_volume   7689.206
_exptl_crystal_density_diffrn 0.861
_diffrn_ambient_temperature 223
_refine_special_details
;
The SQUEEZE/PLATON program was used to model some disordered solvent.

;
#These two values have been output from a single CSD field.
_refine_ls_R_factor_gt 0.0693
_refine_ls_wR_factor_gt 0.0693
_symmetry_cell_setting monoclinic
_symmetry_space_group_name_H-M 'P 21/n'
_symmetry_Int_Tables_number 14
loop_
_symmetry_equiv_pos_site_id
_symmetry_equiv_pos_as_xyz
1 x,y,z
2 1/2-x,1/2+y,1/2-z
3 -x,-y,-z
4 -1/2+x,-1/2-y,-1/2+z
_cell_length_a 10.364(2)
_cell_length_b 26.746(5)
_cell_length_c 27.804(6)
_cell_angle_alpha 90
_cell_angle_beta 93.91(3)
_cell_angle_gamma 90
_cell_formula_units_Z 2
loop_
_atom_type_symbol
_atom_type_radius_bond
C 0.68
H 0.23
N 0.68
O 0.68
Zn 1.22
loop_
_atom_site_label
_atom_site_type_symbol
_atom_site_fract_x
_atom_site_fract_y
_atom_site_fract_z
C1 C 0.9636(7) 0.3710(3) 0.0715(3)
C2 C 0.9703(7) 0.4169(3) 0.0379(3)
C3 C 0.9556(10) 0.4083(4) -0.0124(4)
H1 H 0.93730 0.37580 -0.02400
C4 C 0.9916(8) 0.4620(3) 0.0560(3)
H2 H 0.99670 0.46690 0.08950
C5 C 1.0071(8) 0.5040(3) 0.0238(3)
C6 C 1.0322(11) 0.5527(4) 0.0448(4)
H3 H 1.03990 0.55770 0.07830
C7 C 1.2451(6) 0.3358(2) 0.2064(2)
C8 C 1.3673(5) 0.3633(2) 0.2152(2)
C9 C 1.4856(5) 0.3403(2) 0.2066(2)
H4 H 1.48690 0.30670 0.19680
C10 C 1.5985(5) 0.3665(2) 0.2125(2)
C11 C 1.5994(6) 0.4153(2) 0.2280(2)
H5 H 1.67820 0.43280 0.23190
C12 C 1.4846(6) 0.4392(2) 0.2380(3)
C13 C 1.3692(6) 0.4125(2) 0.2307(3)
H6 H 1.29080 0.42830 0.23660
C14 C 1.7215(6) 0.3412(2) 0.1979(2)
C15 C 1.4868(6) 0.4918(2) 0.2552(3)
C16 C 1.5908(7) 0.5129(3) 0.2804(3)
H7 H 1.66460 0.49310 0.28740
C17 C 1.5923(7) 0.5613(3) 0.2960(3)
H8 H 1.66590 0.57390 0.31360
C18 C 1.4845(6) 0.5927(2) 0.2858(2)
C19 C 1.3784(7) 0.5730(3) 0.2592(3)
H9 H 1.30630 0.59340 0.25110
C20 C 1.3779(6) 0.5231(3) 0.2443(3)
H10 H 1.30450 0.51000 0.22690
C21 C 1.4874(6) 0.6456(2) 0.3008(2)
C22 C 0.6918(5) 0.2223(2) 0.0819(2)
C23 C 0.5648(5) 0.2193(2) 0.0537(2)
C24 C 0.4523(5) 0.2186(2) 0.0785(2)
H11 H 0.45680 0.21630 0.11230
C25 C 0.3322(5) 0.2215(2) 0.0521(2)
C26 C 0.3249(5) 0.2248(3) 0.0023(2)
H12 H 0.24360 0.22690 -0.01470
C27 C 0.4365(6) 0.2248(2) -0.0230(2)
C28 C 0.5589(5) 0.2244(2) 0.0038(2)
H13 H 0.63540 0.22750 -0.01220
C29 C 0.2126(5) 0.2250(2) 0.0788(2)
C30 C 0.4309(6) 0.2294(3) -0.0757(2)
C31 C 0.3326(7) 0.2550(3) -0.1011(3)
H14 H 0.26580 0.26920 -0.08440
C32 C 0.3306(7) 0.2601(3) -0.1503(2)
H15 H 0.25990 0.27600 -0.16690
C33 C 0.4293(6) 0.2424(3) -0.1755(2)
C34 C 0.5257(7) 0.2174(4) -0.1499(3)
H16 H 0.59360 0.20430 -0.16680
C35 C 0.5296(8) 0.2100(4) -0.1004(3)
H17 H 0.59790 0.19230 -0.08430
C36 C 0.4291(6) 0.2497(3) -0.2294(2)
O1 O 0.9705(3) 0.26971(13) 0.15053(12)
O2 O 0.9476(5) 0.3297(2) 0.05093(19)
O3 O 0.9690(5) 0.3801(2) 0.1151(2)
O4 O 1.2562(4) 0.28814(17) 0.20118(17)
O5 O 1.1419(4) 0.36016(15) 0.20333(15)
O6 O 1.7114(4) 0.29980(17) 0.17835(17)
O7 O 1.8277(4) 0.36491(16) 0.20625(16)
O8 O 1.5874(5) 0.66140(17) 0.32335(18)
O9 O 1.3852(4) 0.67106(17) 0.29198(17)
O10 O 0.6955(3) 0.21220(14) 0.12588(13)
O11 O 0.7906(4) 0.23381(17) 0.05919(14)
O12 O 0.2217(4) 0.21736(17) 0.12337(14)
O13 O 0.1068(4) 0.23408(18) 0.05397(15)
O14 O 0.3300(4) 0.2674(2) -0.25177(16)
O15 O 0.5230(6) 0.2327(3) -0.2489(2)
Zn1 Zn 1.12219(6) 0.23806(2) 0.18285(2)
Zn2 Zn 0.82782(6) 0.23343(2) 0.17772(2)
Zn3 Zn 0.95543(6) 0.26408(3) 0.08185(2)
Zn4 Zn 0.97311(6) 0.33657(2) 0.17495(2)
C37 C 0.5846(6) 0.3606(3) 0.9476(2)
H18 H 0.66450 0.37690 0.95900
H19 H 0.55590 0.37370 0.91610
H20 H 0.59910 0.32480 0.94520
C38 C 0.4745(6) 0.3633(3) 1.0371(2)
H21 H 0.53190 0.33640 1.04810
H22 H 0.38650 0.35500 1.04400
H23 H 0.50050 0.39390 1.05370
N1 N 0.4818(6) 0.3704(3) 0.9828(2)
H24 H 0.41180 0.35330 0.96990
H25 H 0.46210 0.40320 0.97810
C1B C 1.0364(7) 0.6290(3) -0.0715(3)
C2B C 1.0297(7) 0.5831(3) -0.0379(3)
C3B C 1.0444(10) 0.5917(4) 0.0124(4)
H1B H 1.06270 0.62420 0.02400
C4B C 1.0084(8) 0.5380(3) -0.0560(3)
H2B H 1.00330 0.53310 -0.08950
C5B C 0.9929(8) 0.4960(3) -0.0238(3)
C6B C 0.9678(11) 0.4473(4) -0.0448(4)
H3B H 0.96010 0.44230 -0.07830
O2B O 1.0524(5) 0.6703(2) -0.05093(19)
O3B O 1.0310(5) 0.6199(2) -0.1151(2)
C7B C 0.7549(6) 0.6642(2) -0.2064(2)
C8B C 0.6327(5) 0.6367(2) -0.2152(2)
C9B C 0.5144(5) 0.6597(2) -0.2066(2)
H4B H 0.51310 0.69330 -0.19680
C10B C 0.4015(5) 0.6335(2) -0.2125(2)
C11B C 0.4006(6) 0.5847(2) -0.2280(2)
H5B H 0.32180 0.56720 -0.23190
C12B C 0.5154(6) 0.5608(2) -0.2380(3)
C13B C 0.6308(6) 0.5875(2) -0.2307(3)
H6B H 0.70920 0.57170 -0.23660
C14B C 0.2785(6) 0.6588(2) -0.1979(2)
C15B C 0.5132(6) 0.5082(2) -0.2552(3)
C16B C 0.4092(7) 0.4871(3) -0.2804(3)
H7B H 0.33540 0.50690 -0.28740
C17B C 0.4077(7) 0.4387(3) -0.2960(3)
H8B H 0.33410 0.42610 -0.31360
C18B C 0.5155(6) 0.4073(2) -0.2858(2)
C19B C 0.6216(7) 0.4270(3) -0.2592(3)
H9B H 0.69370 0.40660 -0.25110
C20B C 0.6221(6) 0.4769(3) -0.2443(3)
H10B H 0.69550 0.49000 -0.22690
C21B C 0.5126(6) 0.3544(2) -0.3008(2)
C22B C 1.3082(5) 0.7777(2) -0.0819(2)
C23B C 1.4352(5) 0.7807(2) -0.0537(2)
C24B C 1.5477(5) 0.7814(2) -0.0785(2)
H11B H 1.54320 0.78370 -0.11230
C25B C 1.6678(5) 0.7785(2) -0.0521(2)
C26B C 1.6751(5) 0.7752(3) -0.0023(2)
H12B H 1.75640 0.77310 0.01470
C27B C 1.5635(6) 0.7752(2) 0.0230(2)
C28B C 1.4411(5) 0.7756(2) -0.0038(2)
H13B H 1.36460 0.77250 0.01220
C29B C 1.7874(5) 0.7750(2) -0.0788(2)
C30B C 1.5691(6) 0.7706(3) 0.0757(2)
C31B C 1.6674(7) 0.7450(3) 0.1011(3)
H14B H 1.73420 0.73080 0.08440
C32B C 1.6694(7) 0.7399(3) 0.1503(2)
H15B H 1.74010 0.72400 0.16690
C33B C 1.5707(6) 0.7576(3) 0.1755(2)
C34B C 1.4743(7) 0.7826(4) 0.1499(3)
H16B H 1.40640 0.79570 0.16680
C35B C 1.4704(8) 0.7900(4) 0.1004(3)
H17B H 1.40210 0.80770 0.08430
C36B C 1.5709(6) 0.7503(3) 0.2294(2)
O1B O 1.0295(3) 0.73029(13) -0.15053(12)
O4B O 0.7438(4) 0.71186(17) -0.20118(17)
O5B O 0.8581(4) 0.63984(15) -0.20333(15)
O6B O 0.2886(4) 0.70020(17) -0.17835(17)
O7B O 0.1723(4) 0.63509(16) -0.20625(16)
O8B O 0.4126(5) 0.33860(17) -0.32335(18)
O9B O 0.6148(4) 0.32894(17) -0.29198(17)
O10B O 1.3045(3) 0.78780(14) -0.12588(13)
O11B O 1.2094(4) 0.76619(17) -0.05919(14)
O12B O 1.7783(4) 0.78264(17) -0.12337(14)
O13B O 1.8932(4) 0.76592(18) -0.05397(15)
O14B O 1.6700(4) 0.7326(2) 0.25177(16)
O15B O 1.4770(6) 0.7673(3) 0.2489(2)
Zn1B Zn 0.87781(6) 0.76194(2) -0.18285(2)
Zn2B Zn 1.17218(6) 0.76657(2) -0.17772(2)
Zn3B Zn 1.04457(6) 0.73592(3) -0.08185(2)
Zn4B Zn 1.02689(6) 0.66343(2) -0.17495(2)
O6* O 0.7114(4) 0.29980(17) 0.17835(17)
O6B* O 1.2886(4) 0.70020(17) -0.17835(17)
O7* O 0.8277(4) 0.36491(16) 0.20625(16)
O7B* O 1.1723(4) 0.63509(16) -0.20625(16)
O8A O 0.9126(5) 0.16140(17) 0.17665(18)
O8C O 1.0874(5) 0.83860(17) -0.17665(18)
O9A O 1.1148(4) 0.17106(17) 0.20802(17)
O9C O 0.8852(4) 0.82894(17) -0.20802(17)
O12* O 1.2217(4) 0.21736(17) 0.12337(14)
O12B* O 0.7783(4) 0.78264(17) -0.12337(14)
O13* O 1.1068(4) 0.23408(18) 0.05397(15)
O13B* O 0.8932(4) 0.76592(18) -0.05397(15)
O14A O 1.1700(4) 0.7674(2) -0.24823(16)
O14C O 0.8300(4) 0.2326(2) 0.24823(16)
O15A O 0.9770(6) 0.7327(3) -0.2511(2)
O15C O 1.0230(6) 0.2673(3) 0.2511(2)
Zn1* Zn 0.12219(6) 0.23806(2) 0.18285(2)
Zn1A Zn 1.37781(6) 0.73806(2) 0.31715(2)
Zn1B* Zn 1.87781(6) 0.76194(2) -0.18285(2)
Zn1C Zn 0.62219(6) 0.26194(2) -0.31715(2)
Zn2* Zn 1.82782(6) 0.23343(2) 0.17772(2)
Zn2A Zn 1.67218(6) 0.73343(2) 0.32228(2)
Zn2B* Zn 0.17218(6) 0.76657(2) -0.17772(2)
Zn2C Zn 0.32782(6) 0.26657(2) -0.32228(2)
Zn3* Zn -0.04457(6) 0.26408(3) 0.08185(2)
Zn3B* Zn 2.04457(6) 0.73592(3) -0.08185(2)
Zn4* Zn 1.97311(6) 0.33657(2) 0.17495(2)
Zn4B* Zn 0.02689(6) 0.66343(2) -0.17495(2)
#END
