
#######################################################################
#
#                 Cambridge Crystallographic Data Centre
#                                CCDC
#
#######################################################################
#
# If this CIF has been generated from an entry in the Cambridge
# Structural Database, then it will include bibliographic, chemical,
# crystal, experimental, refinement or atomic coordinate data resulting
# from the CCDC's data processing and validation procedures.
#
#######################################################################

data_CSD_CIF_PUGSIV
_audit_creation_date 2015-03-20
_audit_creation_method CSD-ConQuest-V1
_database_code_CSD PUGSIV
_database_code_depnum_ccdc_archive 'CCDC 1016124'
_chemical_formula_sum 'C72 H48 N2 O30 Zn8'
_chemical_formula_moiety
;
(C68 H32 O30 Zn8 2-)n,2n(C2 H8 N1 1+)
;
_journal_coden_Cambridge 9
_journal_volume 54
_journal_year 2015
_journal_page_first 1645
_journal_name_full 'Inorg.Chem. '
loop_
_publ_author_name
"Jingui Duan"
"M.Higuchi"
"S.Kitagawa"
_chemical_name_systematic
;
catena-(bis(Dimethylammonium) 
tetrakis(\m~6~-biphenyl-3,4',5-tricarboxylato)-(\m~4~-terephthalato)-bis(\m~4~
-oxo)-octa-zinc unknown solvate)
;
_cell_volume   7505.286
_exptl_crystal_colour 'colorless'
_exptl_crystal_density_diffrn 0.86
_exptl_crystal_description 'block'
_diffrn_ambient_temperature 223
_refine_special_details
;
The SQUEEZE/PLATON program has been used to model some disorder.

;
#These two values have been output from a single CSD field.
_refine_ls_R_factor_gt 0.0455
_refine_ls_wR_factor_gt 0.0455
_symmetry_cell_setting monoclinic
_symmetry_space_group_name_H-M 'P 21/n'
_symmetry_Int_Tables_number 14
loop_
_symmetry_equiv_pos_site_id
_symmetry_equiv_pos_as_xyz
1 x,y,z
2 1/2-x,1/2+y,1/2-z
3 -x,-y,-z
4 -1/2+x,-1/2-y,-1/2+z
_cell_length_a 10.306(2)
_cell_length_b 27.776(6)
_cell_length_c 26.232(5)
_cell_angle_alpha 90
_cell_angle_beta 91.84(3)
_cell_angle_gamma 90
_cell_formula_units_Z 2
loop_
_atom_type_symbol
_atom_type_radius_bond
C 0.68
H 0.23
N 0.68
O 0.68
Zn 1.22
loop_
_atom_site_label
_atom_site_type_symbol
_atom_site_fract_x
_atom_site_fract_y
_atom_site_fract_z
C1 C 0.3097(3) 0.69610(11) 0.37021(12)
C2 C 0.4348(3) 0.70841(12) 0.39815(13)
C3 C 0.5500(3) 0.69719(13) 0.37461(12)
H1 H 0.54790 0.68420 0.34190
C4 C 0.6677(3) 0.70533(13) 0.39994(13)
C5 C 0.6714(3) 0.72535(14) 0.44854(13)
H2 H 0.75110 0.73100 0.46510
C6 C 0.5568(3) 0.73718(15) 0.47291(13)
C7 C 0.4386(3) 0.72776(13) 0.44713(13)
H3 H 0.36120 0.73450 0.46300
C8 C 0.7899(3) 0.68888(13) 0.37543(13)
C9 C 0.5612(3) 0.75801(15) 0.52504(14)
C10 C 0.6619(4) 0.7475(2) 0.55901(16)
H4 H 0.72890 0.72770 0.54870
C11 C 0.6657(4) 0.76559(19) 0.60783(16)
H5 H 0.73490 0.75780 0.62990
C12 C 0.5688(4) 0.79508(15) 0.62442(14)
C13 C 0.4669(4) 0.80610(17) 0.59089(16)
H6 H 0.40080 0.82630 0.60110
C14 C 0.4632(4) 0.78711(18) 0.54225(16)
H7 H 0.39280 0.79410 0.52050
C15 C 0.5726(3) 0.81453(14) 0.67795(13)
C16 C -0.2231(3) 0.56723(11) 0.25418(12)
C17 C -0.3483(3) 0.53958(11) 0.24951(12)
C18 C -0.4641(3) 0.56407(11) 0.25231(13)
H8 H -0.46430 0.59750 0.25470
C19 C -0.5804(3) 0.53892(11) 0.25155(13)
C20 C -0.5799(3) 0.48911(11) 0.24635(14)
H9 H -0.65820 0.47240 0.24540
C21 C -0.4631(3) 0.46359(12) 0.24248(15)
C22 C -0.3475(3) 0.48999(12) 0.24518(14)
H10 H -0.26850 0.47390 0.24400
C23 C -0.7051(3) 0.56575(11) 0.25889(13)
C24 C -0.4643(3) 0.41082(12) 0.23673(16)
C25 C -0.5666(4) 0.38767(15) 0.2113(2)
H11 H -0.63510 0.40560 0.19720
C26 C -0.5673(4) 0.33776(15) 0.2066(2)
H12 H -0.63690 0.32280 0.18960
C27 C -0.4683(4) 0.31025(13) 0.22630(17)
C28 C -0.3656(4) 0.33315(14) 0.2508(2)
H13 H -0.29680 0.31500 0.26420
C29 C -0.3629(4) 0.38242(14) 0.2559(2)
H14 H -0.29210 0.39700 0.27250
C30 C -0.4720(4) 0.25666(13) 0.22077(17)
C31 C 0.0327(4) 0.56008(14) 0.41080(15)
C32 C 0.0152(4) 0.52890(15) 0.45724(15)
C33 C 0.0128(6) 0.48039(19) 0.45325(19)
H15 H 0.02450 0.46600 0.42170
C34 C 0.0070(6) 0.54809(18) 0.50430(17)
H16 H 0.01490 0.58120 0.50830
O1 O 0.04229(17) 0.63662(7) 0.30456(7)
O2 O 0.2099(2) 0.69135(9) 0.39667(9)
O3 O 0.3158(2) 0.69061(9) 0.32303(9)
O4 O 0.7784(2) 0.66732(11) 0.33416(11)
O5 O 0.8961(2) 0.69725(9) 0.39923(10)
O6 O 0.6728(2) 0.80427(10) 0.7050(1)
O7 O 0.4787(3) 0.83823(10) 0.6927(1)
O8 O -0.2298(2) 0.61148(8) 0.24523(9)
O9 O -0.1221(2) 0.54424(8) 0.26697(10)
O10 O -0.7017(2) 0.61004(8) 0.2543(1)
O11 O -0.8044(2) 0.54094(8) 0.26968(9)
O12 O -0.5677(3) 0.23804(11) 0.19919(15)
O13 O -0.3778(3) 0.23345(9) 0.24053(12)
O14 O 0.0416(3) 0.60414(10) 0.41799(10)
O15 O 0.0359(3) 0.53896(10) 0.36828(10)
Zn1 Zn 0.18552(3) 0.668494(12) 0.272614(13)
Zn2 Zn -0.10807(3) 0.663264(12) 0.266623(13)
Zn3 Zn 0.04443(3) 0.662907(13) 0.372541(14)
Zn4 Zn 0.04077(3) 0.567871(12) 0.299933(13)
N1 N 0.4992(6) 0.53512(18) 0.39280(17)
H17 H 0.47960 0.51580 0.36610
H18 H 0.48730 0.51770 0.42120
C35 C 0.6327(6) 0.54569(18) 0.39120(17)
H19 H 0.64410 0.57950 0.38510
H20 H 0.67060 0.52760 0.36430
H21 H 0.67440 0.53720 0.42320
C36 C 0.4100(6) 0.57119(18) 0.39222(17)
H22 H 0.44990 0.60020 0.40490
H23 H 0.33950 0.56250 0.41340
H24 H 0.37760 0.57630 0.35790
C31B C -0.0327(4) 0.43992(14) 0.58920(15)
C32B C -0.0152(4) 0.47110(15) 0.54276(15)
C33B C -0.0128(6) 0.51961(19) 0.54675(19)
H15B H -0.02450 0.53400 0.57830
C34B C -0.0070(6) 0.45191(18) 0.49570(17)
H16B H -0.01490 0.41880 0.49170
O14B O -0.0416(3) 0.39586(10) 0.58201(10)
O15B O -0.0359(3) 0.46104(10) 0.63172(10)
C1B C -0.3097(3) 0.30390(11) 0.62979(12)
C2B C -0.4348(3) 0.29159(12) 0.60185(13)
C3B C -0.5500(3) 0.30281(13) 0.62539(12)
H1B H -0.54790 0.31580 0.65810
C4B C -0.6677(3) 0.29467(13) 0.60006(13)
C5B C -0.6714(3) 0.27465(14) 0.55146(13)
H2B H -0.75110 0.26900 0.53490
C6B C -0.5568(3) 0.26282(15) 0.52709(13)
C7B C -0.4386(3) 0.27224(13) 0.55287(13)
H3B H -0.36120 0.26550 0.53700
C8B C -0.7899(3) 0.31112(13) 0.62457(13)
C9B C -0.5612(3) 0.24199(15) 0.47496(14)
C10B C -0.6619(4) 0.2525(2) 0.44099(16)
H4B H -0.72890 0.27230 0.45130
C11B C -0.6657(4) 0.23441(19) 0.39217(16)
H5B H -0.73490 0.24220 0.37010
C12B C -0.5688(4) 0.20492(15) 0.37558(14)
C13B C -0.4669(4) 0.19390(17) 0.40911(16)
H6B H -0.40080 0.17370 0.39890
C14B C -0.4632(4) 0.21289(18) 0.45775(16)
H7B H -0.39280 0.20590 0.47950
C15B C -0.5726(3) 0.18547(14) 0.32205(13)
C16B C 0.2231(3) 0.43277(11) 0.74582(12)
C17B C 0.3483(3) 0.46042(11) 0.75049(12)
C18B C 0.4641(3) 0.43593(11) 0.74769(13)
H8B H 0.46430 0.40250 0.74530
C19B C 0.5804(3) 0.46108(11) 0.74845(13)
C20B C 0.5799(3) 0.51089(11) 0.75365(14)
H9B H 0.65820 0.52760 0.75460
C21B C 0.4631(3) 0.53641(12) 0.75752(15)
C22B C 0.3475(3) 0.51001(12) 0.75482(14)
H10B H 0.26850 0.52610 0.75600
C23B C 0.7051(3) 0.43425(11) 0.74111(13)
C24B C 0.4643(3) 0.58918(12) 0.76327(16)
C25B C 0.5666(4) 0.61233(15) 0.7887(2)
H11B H 0.63510 0.59440 0.80280
C26B C 0.5673(4) 0.66224(15) 0.7934(2)
H12B H 0.63690 0.67720 0.81040
C27B C 0.4683(4) 0.68975(13) 0.77370(17)
C28B C 0.3656(4) 0.66685(14) 0.7492(2)
H13B H 0.29680 0.68500 0.73580
C29B C 0.3629(4) 0.61758(14) 0.7441(2)
H14B H 0.29210 0.60300 0.72750
C30B C 0.4720(4) 0.74334(13) 0.77923(17)
O1B O -0.04229(17) 0.36338(7) 0.69544(7)
O2B O -0.2099(2) 0.30865(9) 0.60333(9)
O3B O -0.3158(2) 0.30939(9) 0.67697(9)
O4B O -0.7784(2) 0.33268(11) 0.66584(11)
O5B O -0.8961(2) 0.30275(9) 0.60077(10)
O6B O -0.6728(2) 0.19573(10) 0.2950(1)
O7B O -0.4787(3) 0.16177(10) 0.3073(1)
O8B O 0.2298(2) 0.38852(8) 0.75477(9)
O9B O 0.1221(2) 0.45576(8) 0.73303(10)
O10B O 0.7017(2) 0.38996(8) 0.7457(1)
O11B O 0.8044(2) 0.45906(8) 0.73032(9)
O12B O 0.5677(3) 0.76196(11) 0.80081(15)
O13B O 0.3778(3) 0.76655(9) 0.75947(12)
Zn1B Zn -0.18552(3) 0.331506(12) 0.727386(13)
Zn2B Zn 0.10807(3) 0.336736(12) 0.733377(13)
Zn3B Zn -0.04443(3) 0.337093(13) 0.627459(14)
Zn4B Zn -0.04077(3) 0.432129(12) 0.700067(13)
O4* O -0.2216(2) 0.66732(11) 0.33416(11)
O4B* O 0.2216(2) 0.33268(11) 0.66584(11)
O5* O -0.1039(2) 0.69725(9) 0.39923(10)
O5B* O 0.1039(2) 0.30275(9) 0.60077(10)
O6A O -0.1728(2) 0.30427(10) 0.7950(1)
O6C O 0.1728(2) 0.69573(10) 0.2050(1)
O7A O 0.0213(3) 0.33823(10) 0.8073(1)
O7C O -0.0213(3) 0.66177(10) 0.1927(1)
O10* O 0.2983(2) 0.61004(8) 0.2543(1)
O10B* O -0.2983(2) 0.38996(8) 0.7457(1)
O11* O 0.1956(2) 0.54094(8) 0.26968(9)
O11B* O -0.1956(2) 0.45906(8) 0.73032(9)
O12A O 0.0677(3) 0.73804(11) 0.30081(15)
O12C O -0.0677(3) 0.26196(11) 0.69919(15)
O13A O -0.1222(3) 0.73345(9) 0.25947(12)
O13C O 0.1222(3) 0.26655(9) 0.74053(12)
Zn1* Zn -0.81448(3) 0.668494(12) 0.272614(13)
Zn1A Zn -0.68552(3) 0.168494(12) 0.227386(13)
Zn1B* Zn 0.81448(3) 0.331506(12) 0.727386(13)
Zn1C Zn 0.68552(3) 0.831506(12) 0.772614(13)
Zn2* Zn 0.89193(3) 0.663264(12) 0.266623(13)
Zn2A Zn -0.39193(3) 0.163264(12) 0.233377(13)
Zn2B* Zn -0.89193(3) 0.336736(12) 0.733377(13)
Zn2C Zn 0.39193(3) 0.836736(12) 0.766623(13)
Zn3* Zn 1.04443(3) 0.662907(13) 0.372541(14)
Zn3B* Zn -1.04443(3) 0.337093(13) 0.627459(14)
Zn4* Zn -0.95923(3) 0.567871(12) 0.299933(13)
Zn4B* Zn 0.95923(3) 0.432129(12) 0.700067(13)
#END
