
#######################################################################
#
#                 Cambridge Crystallographic Data Centre
#                                CCDC
#
#######################################################################
#
# If this CIF has been generated from an entry in the Cambridge
# Structural Database, then it will include bibliographic, chemical,
# crystal, experimental, refinement or atomic coordinate data resulting
# from the CCDC's data processing and validation procedures.
#
#######################################################################

data_CSD_CIF_PUHLIP
_audit_creation_date 2015-03-20
_audit_creation_method CSD-ConQuest-V1
_database_code_CSD PUHLIP
_database_code_depnum_ccdc_archive 'CCDC 1011419'
_chemical_formula_sum 'C15 H44.6 Cu7 N0.6 O48.4'
_chemical_formula_moiety
;
(C15 H19 Cu7 O37 1-)n,0.6n(H4 N1 1+),0.4n(H3 O1 1+),11n(H2 O1)
;
_journal_coden_Cambridge 9
_journal_volume 54
_journal_year 2015
_journal_page_first 1597
_journal_name_full 'Inorg.Chem. '
loop_
_publ_author_name
"B.Gil-Hernandez"
"S.Savvin"
"G.Makhloufi"
"P.Nunez"
"C.Janiak"
"Joaquin Sanchiz"
_chemical_name_systematic
;
catena-[(Ammonium oxonium) 
pentakis(\m-hydroxy(oxido)propanedioato)-hepta-aqua-hepta-copper(ii) 
undecahydrate]
;
_cell_volume   2148.753
_exptl_crystal_colour 'blue'
_exptl_crystal_density_diffrn 2.245
_exptl_special_details
;
magnetic properties; proton conductivity

;
_exptl_crystal_description 'prismatic'
_exptl_crystal_preparation 'water'
_diffrn_ambient_temperature 100
#These two values have been output from a single CSD field.
_refine_ls_R_factor_gt 0.0462
_refine_ls_wR_factor_gt 0.0462
_symmetry_cell_setting triclinic
_symmetry_space_group_name_H-M 'P -1'
_symmetry_Int_Tables_number 2
loop_
_symmetry_equiv_pos_site_id
_symmetry_equiv_pos_as_xyz
1 x,y,z
2 -x,-y,-z
_cell_length_a 8.0421(4)
_cell_length_b 16.7490(7)
_cell_length_c 17.8590(5)
_cell_angle_alpha 63.935(4)
_cell_angle_beta 85.106(4)
_cell_angle_gamma 84.616(4)
_cell_formula_units_Z 2
loop_
_atom_type_symbol
_atom_type_radius_bond
C 0.68
H 0.23
Cu 1.32
N 0.68
O 0.68
loop_
_atom_site_label
_atom_site_type_symbol
_atom_site_fract_x
_atom_site_fract_y
_atom_site_fract_z
Cu1 Cu 0.33385(8) 0.09224(4) 0.44194(4)
Cu2 Cu 0.44465(8) 0.20756(4) 0.23082(4)
Cu3 Cu 0.63643(8) 0.25696(5) 0.36016(4)
Cu4 Cu 0.59411(9) 0.11762(5) 0.70376(4)
Cu5 Cu 0.80942(8) 0.49218(4) 0.03707(4)
Cu6 Cu 0.75249(9) 0.86976(5) 0.02820(5)
Cu7 Cu 0.50104(9) 0.71669(5) 0.09533(5)
C1 C 0.2627(6) 0.0756(3) 0.2364(3)
C2 C 0.6050(5) 0.3458(3) 0.1150(3)
C3 C 0.4575(6) 0.0762(3) 0.5839(3)
C4 C 0.5953(6) 0.9106(3) 0.1490(3)
C5 C 0.8117(5) 0.6427(3) -0.1070(3)
C6 C 0.1829(6) 0.1011(3) 0.3061(3)
C7 C 0.5867(5) 0.3678(3) 0.1916(3)
C8 C 0.4906(6) 0.1726(3) 0.5201(3)
C9 C 0.5760(6) 0.8095(3) 0.1847(3)
C10 C 0.9150(6) 0.6611(3) -0.0472(3)
C11 C 0.1246(6) 0.0188(3) 0.3841(3)
C12 C 0.7638(6) 0.3799(3) 0.2121(3)
C13 C 0.6662(6) 0.1975(3) 0.5274(3)
C14 C 0.3855(7) 0.7961(3) 0.1957(3)
C15 C 0.7985(6) 0.7115(3) -0.0050(3)
O1 O 0.3783(4) 0.1252(2) 0.1907(2)
O2 O 0.5665(4) 0.2710(2) 0.1255(2)
O3 O 0.3918(4) 0.0282(2) 0.5584(2)
O4 O 0.6643(5) 0.9504(2) 0.0772(2)
O5 O 0.7426(4) 0.5679(2) -0.07597(19)
O6 O 0.7047(5) 0.1395(2) 0.3228(2)
H1 H 0.80880 0.14020 0.30370
H2 H 0.69170 0.08820 0.36600
O7 O 0.2115(4) 0.0128(2) 0.2279(2)
O8 O 0.6548(4) 0.4049(2) 0.04592(19)
O9 O 0.4883(4) 0.0494(2) 0.6593(2)
O10 O 0.5390(5) 0.9491(2) 0.1929(2)
O11 O 0.7993(4) 0.6990(2) -0.1799(2)
O12 O 0.5022(5) 0.8722(2) -0.0370(2)
H3 H 0.43380 0.91820 -0.04150
H4 H 0.52540 0.87580 -0.08740
O13 O 0.2978(4) 0.1454(2) 0.32604(19)
O14 O 0.5106(4) 0.3008(2) 0.25927(19)
O15 O 0.4714(4) 0.1823(2) 0.44054(19)
O16 O 0.6545(4) 0.7766(2) 0.1309(2)
O17 O 0.9704(4) 0.5794(2) 0.01508(19)
O18 O 0.8242(8) 0.9742(3) -0.0735(3)
H5 H 0.88340 1.00510 -0.06010
H6 H 0.88200 0.95690 -0.10660
O19 O 0.0360(4) 0.1553(2) 0.2738(2)
H7 H 0.06120 0.20350 0.23580
O20 O 0.4969(4) 0.4514(2) 0.1680(2)
H8 H 0.41810 0.45430 0.14040
O21 O 0.3754(5) 0.2288(2) 0.5431(2)
H9 H 0.27960 0.21910 0.53840
O22 O 0.6335(5) 0.7672(3) 0.2661(2)
H10 H 0.73030 0.77960 0.26570
O23 O 1.0434(4) 0.7127(2) -0.0948(2)
H11 H 1.05070 0.75380 -0.08230
O24 O 0.5286(7) 0.5826(3) 0.2200(3)
H12 H 0.44050 0.57690 0.25470
H13 H 0.53820 0.53560 0.20930
O25 O 0.0034(4) -0.0186(2) 0.3799(2)
O26 O 0.8558(4) 0.4335(2) 0.1560(2)
O27 O 0.7153(5) 0.1845(2) 0.5975(2)
O28 O 0.2986(5) 0.8211(3) 0.2445(2)
O29 O 0.6705(4) 0.6734(2) 0.0350(2)
O30 O 0.3229(5) 0.6743(3) 0.0592(3)
H14 H 0.33930 0.65460 0.01650
H15 H 0.24900 0.65390 0.09890
O31 O 0.2093(4) -0.0043(2) 0.4484(2)
O32 O 0.8059(4) 0.3349(2) 0.2859(2)
O33 O 0.7533(5) 0.2339(2) 0.4602(2)
O34 O 0.3268(5) 0.7616(3) 0.1546(2)
O35 O 0.8450(5) 0.7847(3) -0.0144(2)
O36 O 0.1077(5) 0.1659(3) 0.4949(3)
H16 H 0.06560 0.11280 0.53180
H17 H 0.08670 0.15200 0.46320
O37 O 1.0369(8) 0.8783(4) 0.0639(6)
H18 H 1.11510 0.83830 0.06950
H19 H 0.99850 0.87170 0.11220
O38 O 0.479(3) 0.3921(8) 0.3850(8)
H20 H 0.43820 0.44560 0.36500
H21 H 0.50860 0.37670 0.43430
N1 N 0.8365(5) 0.0005(3) 0.2434(3)
H22 H 0.73680 -0.00480 0.26420
H23 H 0.83990 0.04650 0.19690
H24 H 0.88420 -0.06040 0.25100
H25 H 0.91570 -0.00140 0.27740
O39 O 0.1563(7) 0.3863(4) 0.2901(3)
H26 H 0.18210 0.34360 0.27690
H27 H 0.12380 0.43230 0.24750
O40 O 0.1001(5) 0.5630(3) 0.1587(3)
H28 H 0.03020 0.59530 0.17340
H29 H 0.06880 0.57110 0.11160
O41 O 0.0774(8) 0.1656(4) 0.7443(4)
O42 O 0.8348(5) 0.1414(3) 0.0855(3)
H30 H 0.88840 0.12440 0.05030
H31 H 0.73140 0.15480 0.06880
O43 O 0.1446(10) 0.3817(5) 0.7609(5)
H32 H 0.19460 0.32880 0.75880
H33 H 0.26720 0.37820 0.77010
O44 O 0.161(6) 0.460(3) 0.6032(13)
H34 H 0.15470 0.43500 0.65630
H35 H 0.10540 0.42820 0.60150
O45 O 0.431(2) 0.3954(7) 0.5426(9)
H36 H 0.44100 0.39330 0.58930
H37 H 0.37080 0.33750 0.56610
O46 O 0.067(3) 0.6873(12) 0.4145(10)
H38 H -0.01180 0.71940 0.44360
H39 H 0.14780 0.72660 0.41110
O47 O 0.048(4) 0.4150(11) 0.4308(10)
H40 H 0.04470 0.47540 0.38580
H41 H 0.05950 0.37620 0.39680
O48 O 0.329(3) 0.5741(10) 0.3651(8)
H42 H 0.35180 0.53390 0.41330
H43 H 0.22330 0.57960 0.36040
Cu2A Cu 0.55535(8) 0.79244(4) -0.23082(4)
Cu4A Cu 0.40589(9) -0.11762(5) 0.29624(4)
Cu4A* Cu 0.40589(9) 0.88238(5) 0.29624(4)
Cu5A Cu 1.19058(8) 0.50782(4) -0.03707(4)
O7A O 0.7885(4) -0.0128(2) 0.7721(2)
O10A O 0.4610(5) 0.0509(2) 0.8071(2)
O11A O 0.2007(4) 0.3010(2) 0.1799(2)
O17A O 1.0296(4) 0.4206(2) -0.01508(19)
O28A O 0.7014(5) 0.1789(3) 0.7555(2)
#END
