
#######################################################################
#
#                 Cambridge Crystallographic Data Centre
#                                CCDC
#
#######################################################################
#
# If this CIF has been generated from an entry in the Cambridge
# Structural Database, then it will include bibliographic, chemical,
# crystal, experimental, refinement or atomic coordinate data resulting
# from the CCDC's data processing and validation procedures.
#
#######################################################################

data_CSD_CIF_PUKBOO
_audit_creation_date 2015-08-19
_audit_creation_method CSD-ConQuest-V1
_database_code_CSD PUKBOO
_database_code_depnum_ccdc_archive 'CCDC 955517'
_chemical_formula_sum 'C28 H40 Co3 N6 O18 P4'
_chemical_formula_moiety
;
(C28 H28 Co3 N4 O16 P4 2-)n,2n(H4 N1 1+),2n(H2 O1)
;
_journal_coden_Cambridge 315
_journal_volume 153
_journal_year 2016
_journal_page_first 171
_journal_name_full 'Spectrochim.Acta,Part A '
loop_
_publ_author_name
"Chen Zhao"
"Kui-Rong Ma"
"Yu Zhang"
"Yu-He Kan"
"Rong-Qing Li"
"Hua-You Hu"
_chemical_name_systematic
;
catena-(bis(Ammonium) bis(\m~3~-hydrogen 
ethane-1,1,1-triphosphonato)-diaqua-bis(1,10-phenanthroline)-tri-cobalt 
dihydrate)
;
_cell_volume    949.517
_exptl_crystal_colour 'pink'
_exptl_crystal_density_diffrn 1.835
_exptl_crystal_description 'rodlike'
_diffrn_ambient_temperature 293
#These two values have been output from a single CSD field.
_refine_ls_R_factor_gt 0.0377
_refine_ls_wR_factor_gt 0.0377
_symmetry_cell_setting triclinic
_symmetry_space_group_name_H-M 'P -1'
_symmetry_Int_Tables_number 2
loop_
_symmetry_equiv_pos_site_id
_symmetry_equiv_pos_as_xyz
1 x,y,z
2 -x,-y,-z
_cell_length_a 6.5167(9)
_cell_length_b 11.8741(16)
_cell_length_c 12.6240(17)
_cell_angle_alpha 95.531(2)
_cell_angle_beta 102.070(2)
_cell_angle_gamma 91.744(2)
_cell_formula_units_Z 1
loop_
_atom_type_symbol
_atom_type_radius_bond
C 0.68
H 0.23
Co 1.26
N 0.68
O 0.68
P 1.05
loop_
_atom_site_label
_atom_site_type_symbol
_atom_site_fract_x
_atom_site_fract_y
_atom_site_fract_z
Co1 Co 0.88614(7) 0.74844(4) 0.28545(4)
Co2 Co 0.50000 1.00000 0.50000
P1 P 0.39027(13) 0.79849(7) 0.32895(7)
P2 P 0.12004(13) 1.00280(7) 0.31451(7)
N1 N 0.8418(4) 0.5685(2) 0.2764(2)
N2 N 0.8088(4) 0.6996(3) 0.1128(2)
C1 C 0.3448(5) 0.9350(3) 0.2714(3)
C2 C 0.3274(6) 0.9257(3) 0.1490(3)
H1 H 0.31350 0.99970 0.12440
H2 H 0.20640 0.87790 0.11340
H3 H 0.45140 0.89370 0.13170
C3 C 0.8500(6) 0.5045(3) 0.3575(3)
H4 H 0.87330 0.54010 0.42820
C4 C 0.8257(7) 0.3874(4) 0.3423(4)
H5 H 0.83130 0.34570 0.40140
C5 C 0.7934(7) 0.3344(4) 0.2391(4)
H6 H 0.77850 0.25580 0.22770
C6 C 0.7826(6) 0.3978(3) 0.1500(4)
C7 C 0.7430(6) 0.3508(4) 0.0390(4)
H7 H 0.72730 0.27250 0.02320
C8 C 0.7276(6) 0.4152(4) -0.0432(4)
H8 H 0.70400 0.38090 -0.11440
C9 C 0.7469(6) 0.5364(4) -0.0232(3)
C10 C 0.7265(6) 0.6098(4) -0.1048(3)
H9 H 0.70060 0.58060 -0.17770
C11 C 0.7444(6) 0.7230(4) -0.0775(3)
H10 H 0.72900 0.77200 -0.13150
C12 C 0.7864(6) 0.7662(4) 0.0324(3)
H11 H 0.79910 0.84440 0.05010
C13 C 0.7895(5) 0.5863(3) 0.0864(3)
C14 C 0.8063(5) 0.5158(3) 0.1725(3)
O1 O 0.5828(4) 0.7551(2) 0.2944(2)
O2 O 0.4219(4) 0.8306(2) 0.45233(19)
O3 O 0.1976(3) 0.7191(2) 0.28563(19)
O4 O 0.1906(4) 1.0324(2) 0.43636(19)
O5 O -0.0763(4) 0.9275(2) 0.2735(2)
O6 O 0.0882(4) 1.1155(2) 0.2579(2)
O7 O 0.5263(4) 1.0094(2) 0.3287(2)
H12 H 0.63310 0.98210 0.31420
O8 O 0.9872(4) 0.7848(2) 0.4606(2)
H13 H 1.11460 0.79400 0.46940
H14 H 0.92670 0.83070 0.49340
N3 N 0.3470(6) 0.5197(3) 0.3904(3)
H15 H 0.32340 0.53170 0.46140
H16 H 0.29550 0.45030 0.35520
H17 H 0.28030 0.57890 0.34970
H18 H 0.49370 0.53120 0.39310
O9 O 0.3458(5) 0.2742(3) 0.3711(3)
H19 H 0.41800 0.26140 0.42980
H20 H 0.30700 0.33930 0.36670
Co1A Co 0.11386(7) 1.25156(4) 0.71455(4)
P1A P 0.60973(13) 1.20151(7) 0.67105(7)
P2A P 0.87996(13) 0.99720(7) 0.68549(7)
N1A N 0.1582(4) 1.4315(2) 0.7236(2)
N2A N 0.1912(4) 1.3004(3) 0.8872(2)
C1A C 0.6552(5) 1.0650(3) 0.7286(3)
C2A C 0.6726(6) 1.0743(3) 0.8510(3)
H1A H 0.68650 1.00030 0.87560
H2A H 0.79360 1.12210 0.88660
H3A H 0.54860 1.10630 0.86830
C3A C 0.1500(6) 1.4955(3) 0.6425(3)
H4A H 0.12670 1.45990 0.57180
C4A C 0.1743(7) 1.6126(4) 0.6577(4)
H5A H 0.16870 1.65430 0.59860
C5A C 0.2066(7) 1.6656(4) 0.7609(4)
H6A H 0.22150 1.74420 0.77230
C6A C 0.2174(6) 1.6022(3) 0.8500(4)
C7A C 0.2570(6) 1.6492(4) 0.9610(4)
H7A H 0.27270 1.72750 0.97680
C8A C 0.2724(6) 1.5848(4) 1.0432(4)
H8A H 0.29600 1.61910 1.11440
C9A C 0.2531(6) 1.4636(4) 1.0232(3)
C10A C 0.2735(6) 1.3902(4) 1.1048(3)
H9A H 0.29940 1.41940 1.17770
C11A C 0.2556(6) 1.2770(4) 1.0775(3)
H10A H 0.27100 1.22800 1.13150
C12A C 0.2136(6) 1.2338(4) 0.9676(3)
H11A H 0.20090 1.15560 0.94990
C13A C 0.2105(5) 1.4137(3) 0.9136(3)
C14A C 0.1937(5) 1.4842(3) 0.8275(3)
O1A O 0.4172(4) 1.2449(2) 0.7056(2)
O2A O 0.5781(4) 1.1694(2) 0.54767(19)
O3A O 0.8024(3) 1.2809(2) 0.71437(19)
O4A O 0.8094(4) 0.9676(2) 0.56364(19)
O5A O 1.0763(4) 1.0725(2) 0.7265(2)
O6A O 0.9118(4) 0.8845(2) 0.7421(2)
O7A O 0.4737(4) 0.9906(2) 0.6713(2)
H12A H 0.36690 1.01790 0.68580
O8A O 0.0128(4) 1.2152(2) 0.5394(2)
H13A H -0.11460 1.20600 0.53060
H14A H 0.07330 1.16930 0.50660
Co1* Co -0.11386(7) 0.74844(4) 0.28545(4)
Co1A* Co 1.11386(7) 1.25156(4) 0.71455(4)
O3* O 1.1976(3) 0.7191(2) 0.28563(19)
O3A* O -0.1976(3) 1.2809(2) 0.71437(19)
O5* O 0.9237(4) 0.9275(2) 0.2735(2)
O5A* O 0.0763(4) 1.0725(2) 0.7265(2)
#END
