
#######################################################################
#
#                 Cambridge Crystallographic Data Centre
#                                CCDC
#
#######################################################################
#
# If this CIF has been generated from an entry in the Cambridge
# Structural Database, then it will include bibliographic, chemical,
# crystal, experimental, refinement or atomic coordinate data resulting
# from the CCDC's data processing and validation procedures.
#
#######################################################################

data_CSD_CIF_PUKZUT
_audit_creation_date 2020-06-09
_audit_creation_method CSD-ConQuest-V1
_database_code_CSD PUKZUT
_database_code_depnum_ccdc_archive 'CCDC 1847142'
_chemical_formula_sum 'C60 H54 Cu2 Mo12 N16 O51 P1'
_chemical_formula_moiety
;
(C60 H48 Cu2 N16 O9 2+)n,2n(H2 O1),n(H2 Mo12 O40 P1 2-)
;
_journal_coden_Cambridge 29
_journal_volume 646
_journal_year 2020
_journal_page_first 452
_journal_name_full 'Z.Anorg.Allg.Chem. '
loop_
_publ_author_name
"Xu Li"
"Xiao-Lin Chi"
"Dong-Rong Xiao"
"Jun Shen"
_chemical_name_systematic
;
catena-(bis(\m-4-{[3-(pyrazin-2-yl)-1H-pyrazol-1-yl]methyl}benzoato)-bis(4-{[3
-(pyrazin-2-yl)-1H-pyrazol-1-yl]methyl}benzoic acid)-di-copper 
bis(\m-hydroxo)-docosakis(\m-oxo)-(\m-phosphato)-dodecaoxo-dodeca-molybdenum 
dihydrate)
;
_cell_volume   4311.732
_exptl_crystal_density_diffrn 2.399
_exptl_special_details
;
It appears that two of the ligands of the cation should be disordered. In 
order to maintain charge balance, we have added two protons to the anion
;
_diffrn_ambient_temperature 296
_refine_special_details
;
The phosphate moieties are disordered.

;
#These two values have been output from a single CSD field.
_refine_ls_R_factor_gt 0.0551
_refine_ls_wR_factor_gt 0.0551
_symmetry_cell_setting triclinic
_symmetry_space_group_name_H-M 'P -1'
_symmetry_Int_Tables_number 2
loop_
_symmetry_equiv_pos_site_id
_symmetry_equiv_pos_as_xyz
1 x,y,z
2 -x,-y,-z
_cell_length_a 11.1001(7)
_cell_length_b 12.2336(8)
_cell_length_c 32.336(2)
_cell_angle_alpha 100.801(1)
_cell_angle_beta 91.338(1)
_cell_angle_gamma 90.457(1)
_cell_formula_units_Z 2
loop_
_atom_type_symbol
_atom_type_radius_bond
C 0.68
H 0.23
Cu 1.32
Mo 1.54
N 0.68
O 0.68
P 1.05
loop_
_atom_site_label
_atom_site_type_symbol
_atom_site_fract_x
_atom_site_fract_y
_atom_site_fract_z
Cu1 Cu 0.17371(10) 1.48405(8) 0.35790(3)
Cu2 Cu 0.68728(8) 1.52204(8) 0.13832(3)
C1 C 0.4082(8) 1.3759(11) 0.3376(3)
H1 H 0.43780 1.44730 0.33760
C2 C 0.4797(12) 1.2809(14) 0.3267(4)
H2 H 0.55720 1.29100 0.31760
C3 C 0.3335(11) 1.1675(9) 0.3386(3)
H3 H 0.30500 1.09580 0.33850
C4 C 0.2544(8) 1.2577(7) 0.3497(3)
C5 C 0.1303(8) 1.2434(7) 0.3613(2)
C6 C 0.0637(10) 1.1480(8) 0.3676(3)
H4 H 0.09010 1.07520 0.36540
C7 C -0.0446(10) 1.1879(10) 0.3773(3)
H5 H -0.10990 1.14560 0.38310
C8 C -0.1421(9) 1.3771(10) 0.3888(3)
H6 H -0.11060 1.43650 0.41060
H7 H -0.20630 1.34020 0.40090
C9 C -0.1964(7) 1.4292(8) 0.3537(3)
C10 C -0.2663(8) 1.5194(8) 0.3652(3)
H8 H -0.27850 1.54770 0.39360
C11 C -0.3194(8) 1.5690(9) 0.3344(3)
H9 H -0.36680 1.63150 0.34220
C12 C -0.3029(7) 1.5269(7) 0.2920(3)
C13 C -0.2349(8) 1.4334(6) 0.2807(3)
H10 H -0.22580 1.40240 0.25240
C14 C -0.1799(9) 1.3854(8) 0.3118(3)
H11 H -0.13160 1.32340 0.30430
C15 C -0.3427(7) 1.5901(7) 0.2582(3)
C16 C 0.2815(13) 1.4733(9) 0.4461(3)
H12 H 0.33770 1.42250 0.43340
C17 C 0.2752(14) 1.4994(12) 0.4904(4)
H13 H 0.33000 1.46810 0.50680
C18 C 0.1182(13) 1.6143(10) 0.4865(4)
H14 H 0.05970 1.66170 0.49960
C19 C 0.1246(12) 1.5939(8) 0.4418(3)
C20 C 0.0501(12) 1.6453(9) 0.4149(4)
C21 C -0.0285(12) 1.7373(10) 0.4235(5)
C22 C -0.0648(11) 1.7518(9) 0.3848(4)
H15 H -0.12140 1.80340 0.37940
C23 C -0.0180(9) 1.6685(8) 0.3095(4)
H16 H -0.09250 1.62910 0.29970
H17 H 0.04820 1.62360 0.29690
C24 C -0.0162(8) 1.7802(8) 0.2944(3)
C25 C -0.1202(8) 1.8380(8) 0.2920(4)
H18 H -0.19280 1.80840 0.29890
C26 C -0.1189(8) 1.9355(8) 0.2799(3)
H19 H -0.19070 1.97270 0.27750
C27 C -0.0073(8) 1.9845(8) 0.2705(3)
C28 C 0.0967(8) 1.9254(8) 0.2730(3)
H20 H 0.17020 1.95430 0.26650
C29 C 0.0917(7) 1.8220(7) 0.2853(3)
H21 H 0.16180 1.78200 0.28730
C30 C -0.0066(9) 2.0954(9) 0.2593(3)
C31 C 0.9157(9) 1.6541(9) 0.1627(3)
H22 H 0.95390 1.58750 0.16400
C32 C 0.9790(11) 1.7554(10) 0.1724(3)
H23 H 1.06070 1.75460 0.17940
C33 C 0.8137(11) 1.8491(8) 0.1601(3)
H24 H 0.77670 1.91620 0.15850
C34 C 0.7471(9) 1.7525(8) 0.1499(2)
C35 C 0.6188(8) 1.7435(7) 0.1384(2)
C36 C 0.5382(11) 1.8265(9) 0.1292(3)
H25 H 0.55330 1.90150 0.12960
C37 C 0.4323(9) 1.7668(7) 0.1195(3)
H26 H 0.35940 1.79580 0.11210
C38 C 0.3586(7) 1.5718(7) 0.1168(2)
H27 H 0.39220 1.50490 0.10040
H28 H 0.29200 1.59390 0.10030
C39 C 0.3094(7) 1.5434(7) 0.1566(3)
C40 C 0.3408(8) 1.6035(7) 0.1956(2)
H29 H 0.39290 1.66440 0.19800
C41 C 0.2954(8) 1.5742(6) 0.2317(3)
H30 H 0.31600 1.61600 0.25800
C42 C 0.2177(8) 1.4803(7) 0.2284(3)
C43 C 0.1881(8) 1.4220(7) 0.1879(3)
H31 H 0.13710 1.36020 0.18470
C44 C 0.2324(8) 1.4539(9) 0.1527(3)
H32 H 0.21010 1.41460 0.12610
C45 C 0.1759(8) 1.4459(7) 0.2669(3)
C46 C 0.7739(10) 1.5184(8) 0.0391(3)
H33 H 0.83490 1.57000 0.04890
C47 C 0.7527(12) 1.4855(9) -0.0034(3)
H34 H 0.80210 1.51450 -0.02170
C48 C 0.5997(10) 1.3704(8) 0.0077(3)
H35 H 0.53940 1.31850 -0.00260
C49 C 0.6199(9) 1.4003(7) 0.0503(3)
C50 C 0.5569(8) 1.3562(6) 0.0807(3)
C51 C 0.4707(9) 1.2634(7) 0.0759(3)
H36 H 0.43940 1.22140 0.05090
C52 C 0.4466(8) 1.2519(7) 0.1151(3)
H37 H 0.39420 1.19860 0.12200
C53 C 0.5101(9) 1.3387(7) 0.1882(3)
H38 H 0.44320 1.38470 0.19930
H39 H 0.58390 1.37780 0.19910
C54 C 0.5039(8) 1.2346(7) 0.2038(3)
C55 C 0.3917(8) 1.1888(7) 0.2114(3)
H40 H 0.32110 1.22630 0.20750
C56 C 0.3869(8) 1.0892(7) 0.2244(3)
H41 H 0.31260 1.06050 0.23010
C57 C 0.4911(7) 1.0293(7) 0.2292(3)
C58 C 0.6010(8) 1.0724(8) 0.2217(3)
H42 H 0.67090 1.03340 0.22520
C59 C 0.6077(8) 1.1754(8) 0.2086(3)
H43 H 0.68220 1.20420 0.20320
C60 C 0.4874(9) 0.9215(8) 0.2440(3)
N1 N 0.2926(7) 1.3569(7) 0.3481(2)
N2 N 0.4458(9) 1.1812(10) 0.3283(3)
N3 N 0.0623(6) 1.3367(6) 0.3674(2)
N4 N -0.0473(7) 1.2981(7) 0.3774(2)
N5 N 0.2063(8) 1.5219(6) 0.4224(3)
N6 N 0.1919(13) 1.5683(10) 0.5090(4)
N7 N 0.0626(8) 1.6116(6) 0.3734(3)
N8 N -0.0077(8) 1.6814(7) 0.3552(3)
N9 N 0.7984(6) 1.6550(5) 0.1512(2)
N10 N 0.9283(10) 1.8505(9) 0.1722(3)
N11 N 0.5670(6) 1.6470(6) 0.13496(19)
N12 N 0.4512(7) 1.6600(6) 0.1223(2)
N13 N 0.7079(7) 1.4769(5) 0.0664(2)
N14 N 0.6662(10) 1.4153(8) -0.0199(3)
N15 N 0.5752(6) 1.3914(5) 0.1222(2)
N16 N 0.5068(6) 1.3260(5) 0.1428(2)
O1 O -0.4021(7) 1.6811(6) 0.2725(2)
O2 O -0.3204(6) 1.5608(5) 0.22148(19)
O3 O -0.0960(7) 2.1423(7) 0.2515(3)
O4 O 0.1033(6) 2.1402(6) 0.2599(2)
O5 O 0.1120(7) 1.3553(6) 0.2634(3)
O6 O 0.2021(6) 1.5069(5) 0.3016(2)
O7 O 0.5697(7) 0.8550(6) 0.2385(2)
O8 O 0.3906(7) 0.9014(6) 0.2632(3)
O9 O 0.8257(6) 1.4215(6) 0.14575(19)
H44 H -0.048(8) 1.773(7) 0.4512(13)
O10 O 0.0843(8) 0.9725(8) 0.0350(3)
O11 O -0.0167(8) 1.0781(7) 0.0407(3)
O12 O -0.1298(8) 0.9995(7) 0.0150(3)
O13 O -0.0307(8) 0.8785(8) 0.0050(3)
O14 O 0.1660(6) 1.2704(8) 0.0209(2)
O15 O 0.3384(5) 1.2551(5) -0.0375(2)
O16 O 0.2406(8) 1.0464(5) -0.0705(2)
O17 O 0.3134(8) 1.0936(5) 0.0089(2)
O18 O 0.4467(5) 0.9354(6) 0.0414(2)
O19 O 0.2970(8) 0.8879(5) -0.0295(2)
O20 O 0.3004(6) 0.8452(6) -0.1168(2)
O21 O 0.1286(5) 0.7581(5) -0.0714(2)
O22 O -0.0260(6) 0.5844(5) -0.0740(2)
O23 O 0.0592(6) 0.7041(8) 0.0010(2)
O24 O 0.1052(6) 0.6873(5) 0.0843(2)
O25 O -0.0976(6) 0.7817(8) 0.0587(2)
O26 O 0.0778(7) 0.9143(5) 0.0997(3)
O27 O 0.2293(7) 0.8303(5) 0.0428(3)
O28 O 0.2484(7) 1.0434(5) 0.0794(3)
O29 O -0.0690(6) 1.0834(6) 0.1121(3)
O30 O 0.1481(7) 1.1082(7) 0.1565(2)
O31 O 0.0952(5) 1.2115(5) 0.0910(2)
Mo1 Mo 0.23280(6) 1.17507(7) -0.02532(3)
Mo2 Mo 0.20759(6) 0.89682(6) -0.07932(2)
Mo3 Mo -0.01519(7) 0.71610(6) -0.05031(2)
Mo4 Mo 0.06953(7) 0.78794(6) 0.05816(3)
Mo5 Mo 0.10194(7) 1.07320(6) 0.10708(2)
Mo6 Mo 0.30474(6) 0.95324(6) 0.02835(3)
P1 P 0.00000 1.00000 0.00000
O32 O 0.4189(8) 0.9699(9) 0.5348(3)
O33 O 0.3703(8) 0.9982(8) 0.4853(3)
O34 O 0.4775(8) 0.9366(7) 0.4595(3)
O35 O 0.5307(8) 0.8715(8) 0.4997(3)
O36 O 0.2469(8) 1.0639(5) 0.4339(2)
O37 O 0.1543(6) 1.2678(5) 0.4739(2)
O38 O 0.1890(8) 1.0931(6) 0.5135(2)
O39 O 0.3417(7) 1.2696(9) 0.5298(2)
O40 O 0.1970(8) 0.8896(5) 0.4684(2)
O41 O 0.0596(5) 0.9195(6) 0.5381(2)
O42 O 0.2784(7) 0.8192(6) 0.5381(3)
O43 O 0.4373(7) 0.8947(5) 0.5966(3)
O44 O 0.4116(6) 0.6701(5) 0.5766(2)
O45 O 0.6065(7) 0.7688(9) 0.5496(2)
O46 O 0.4376(7) 0.7029(9) 0.4936(2)
O47 O 0.4999(6) 0.5949(5) 0.4157(3)
O48 O 0.3553(5) 0.7734(5) 0.4242(2)
O49 O 0.5791(5) 0.8031(5) 0.4043(2)
O50 O 0.7378(7) 0.9779(6) 0.4192(3)
O51 O 0.6267(7) 0.9211(8) 0.3434(2)
O52 O 0.4139(5) 0.9394(5) 0.3878(2)
O53 O 0.1797(7) 0.8709(7) 0.3807(2)
Mo7 Mo 0.59053(6) 0.94465(6) 0.39322(2)
Mo8 Mo 0.49606(7) 0.72248(7) 0.44283(2)
Mo9 Mo 0.44251(7) 0.77595(7) 0.55295(3)
Mo10 Mo 0.19889(6) 0.93910(6) 0.52543(3)
Mo11 Mo 0.26327(7) 1.18315(8) 0.48394(3)
Mo12 Mo 0.28075(6) 0.91618(6) 0.41857(2)
P2 P 0.50000 1.00000 0.50000
O54 O 0.9051(7) 1.2868(7) 0.1928(2)
O55 O 0.3856(7) 0.7522(6) 0.3142(2)
Cu2* Cu -0.31272(8) 1.52204(8) 0.13832(3)
O2* O 0.6796(6) 1.5608(5) 0.22148(19)
O10A O -0.0843(8) 1.0275(8) -0.0350(3)
O11A O 0.0167(8) 0.9219(7) -0.0407(3)
O12A O 0.1298(8) 1.0005(7) -0.0150(3)
O13A O 0.0307(8) 1.1215(8) -0.0050(3)
O14A O -0.1660(6) 0.7296(8) -0.0209(2)
O15A O -0.3384(5) 0.7449(5) 0.0375(2)
O16A O -0.2406(8) 0.9536(5) 0.0705(2)
O17A O -0.3134(8) 0.9064(5) -0.0089(2)
O18A O -0.4467(5) 1.0646(6) -0.0414(2)
O19A O -0.2970(8) 1.1121(5) 0.0295(2)
O20A O -0.3004(6) 1.1548(6) 0.1168(2)
O21A O -0.1286(5) 1.2419(5) 0.0714(2)
O22A O 0.0260(6) 1.4156(5) 0.0740(2)
O23A O -0.0592(6) 1.2959(8) -0.0010(2)
O24A O -0.1052(6) 1.3127(5) -0.0843(2)
O25A O 0.0976(6) 1.2183(8) -0.0587(2)
O26A O -0.0778(7) 1.0857(5) -0.0997(3)
O27A O -0.2293(7) 1.1697(5) -0.0428(3)
O28A O -0.2484(7) 0.9566(5) -0.0794(3)
O29A O 0.0690(6) 0.9166(6) -0.1121(3)
O30A O -0.1481(7) 0.8918(7) -0.1565(2)
O31A O -0.0952(5) 0.7885(5) -0.0910(2)
Mo1A Mo -0.23280(6) 0.82493(7) 0.02532(3)
Mo2A Mo -0.20759(6) 1.10318(6) 0.07932(2)
Mo3A Mo 0.01519(7) 1.28390(6) 0.05031(2)
Mo4A Mo -0.06953(7) 1.21206(6) -0.05816(3)
Mo5A Mo -0.10194(7) 0.92680(6) -0.10708(2)
Mo6A Mo -0.30474(6) 1.04676(6) -0.02835(3)
O32A O 0.5811(8) 1.0301(9) 0.4652(3)
O33A O 0.6297(8) 1.0018(8) 0.5147(3)
O34A O 0.5225(8) 1.0634(7) 0.5405(3)
O35A O 0.4693(8) 1.1285(8) 0.5003(3)
O36A O 0.7531(8) 0.9361(5) 0.5661(2)
O37A O 0.8457(6) 0.7322(5) 0.5261(2)
O38A O 0.8110(8) 0.9069(6) 0.4865(2)
O39A O 0.6583(7) 0.7304(9) 0.4702(2)
O40A O 0.8030(8) 1.1104(5) 0.5316(2)
O41A O 0.9404(5) 1.0805(6) 0.4619(2)
O42A O 0.7216(7) 1.1808(6) 0.4619(3)
O43A O 0.5627(7) 1.1053(5) 0.4034(3)
O44A O 0.5884(6) 1.3299(5) 0.4234(2)
O45A O 0.3935(7) 1.2312(9) 0.4504(2)
O46A O 0.5624(7) 1.2971(9) 0.5064(2)
O47A O 0.5001(6) 1.4051(5) 0.5843(3)
O48A O 0.6447(5) 1.2266(5) 0.5758(2)
O49A O 0.4209(5) 1.1969(5) 0.5957(2)
O50A O 0.2622(7) 1.0221(6) 0.5808(3)
O51A O 0.3733(7) 1.0789(8) 0.6566(2)
O52A O 0.5861(5) 1.0606(5) 0.6122(2)
O53A O 0.8203(7) 1.1291(7) 0.6193(2)
Mo7A Mo 0.40947(6) 1.05535(6) 0.60678(2)
Mo8A Mo 0.50394(7) 1.27752(7) 0.55717(2)
Mo9A Mo 0.55749(7) 1.22405(7) 0.44705(3)
Mo10A Mo 0.80111(6) 1.06090(6) 0.47457(3)
Mo11A Mo 0.73673(7) 0.81685(8) 0.51606(3)
Mo12A Mo 0.71925(6) 1.08382(6) 0.58143(2)
#END
