
#######################################################################
#
#                 Cambridge Crystallographic Data Centre
#                                CCDC
#
#######################################################################
#
# If this CIF has been generated from an entry in the Cambridge
# Structural Database, then it will include bibliographic, chemical,
# crystal, experimental, refinement or atomic coordinate data resulting
# from the CCDC's data processing and validation procedures.
#
#######################################################################

data_CSD_CIF_PUKZON
_audit_creation_date 2020-06-09
_audit_creation_method CSD-ConQuest-V1
_database_code_CSD PUKZON
_database_code_depnum_ccdc_archive 'CCDC 1847141'
_chemical_formula_sum 'C36 H33 Cu1 Mo12 N10 O41.5 Si1'
_chemical_formula_moiety
;
(C36 H29 Cu1 Mo12 N10 O40 Si1 1-)n,0.5n(H2 O1),n(H3 O1 1+)
;
_journal_coden_Cambridge 29
_journal_volume 646
_journal_year 2020
_journal_page_first 452
_journal_name_full 'Z.Anorg.Allg.Chem. '
loop_
_publ_author_name
"Xu Li"
"Xiao-Lin Chi"
"Dong-Rong Xiao"
"Jun Shen"
_chemical_name_systematic
;
catena-(oxonium 
(\m-silicato)-(\m-4,5-bis(4-pyridyl)-2-(4-pyridinio)imidazole)-pentacosakis(\m
-oxo)-(4,5-bis(4-pyridyl)-2-(4-pyridinio)imidazole)-undecaoxo-copper-dodeca-mo
lybdenum hemihydrate)
;
_cell_volume   5964.861
_exptl_crystal_colour 'brown'
_exptl_crystal_density_diffrn 2.797
_exptl_crystal_description 'block'
_diffrn_ambient_temperature 296
#These two values have been output from a single CSD field.
_refine_ls_R_factor_gt 0.0331
_refine_ls_wR_factor_gt 0.0331
_symmetry_cell_setting monoclinic
_symmetry_space_group_name_H-M 'P 21/c'
_symmetry_Int_Tables_number 14
loop_
_symmetry_equiv_pos_site_id
_symmetry_equiv_pos_as_xyz
1 x,y,z
2 -x,1/2+y,1/2-z
3 -x,-y,-z
4 x,-1/2-y,-1/2+z
_cell_length_a 15.8615(11)
_cell_length_b 15.1481(10)
_cell_length_c 24.8944(17)
_cell_angle_alpha 90
_cell_angle_beta 94.264(1)
_cell_angle_gamma 90
_cell_formula_units_Z 4
loop_
_atom_type_symbol
_atom_type_radius_bond
C 0.68
H 0.23
Cu 1.32
Mo 1.54
N 0.68
O 0.68
Si 1.20
loop_
_atom_site_label
_atom_site_type_symbol
_atom_site_fract_x
_atom_site_fract_y
_atom_site_fract_z
Cu1 Cu 0.63899(5) 0.89536(5) 0.16314(3)
Si1 Si 0.21303(8) 0.89819(8) 0.13824(5)
C1 C 0.5955(3) 0.9261(3) 0.2683(2)
H1 H 0.61040 0.98220 0.25710
C2 C 0.5764(3) 0.9150(3) 0.3202(2)
H2 H 0.57980 0.96280 0.34370
C3 C 0.5516(3) 0.8317(3) 0.3388(2)
C4 C 0.5496(3) 0.7643(3) 0.3010(2)
H3 H 0.53370 0.70780 0.31080
C5 C 0.5707(3) 0.7797(3) 0.2495(2)
H4 H 0.56900 0.73280 0.22530
C6 C 0.5303(3) 0.8235(3) 0.3945(2)
C7 C 0.5363(3) 0.8597(3) 0.4785(2)
C8 C 0.4796(3) 0.7632(3) 0.4205(2)
C9 C 0.5585(3) 0.9069(3) 0.5290(2)
C10 C 0.6130(3) 0.9786(3) 0.5297(2)
H5 H 0.63520 0.99710 0.49810
C11 C 0.6344(3) 1.0223(3) 0.5776(2)
H6 H 0.67050 1.07070 0.57850
C12 C 0.5489(4) 0.9253(3) 0.6232(2)
H7 H 0.52750 0.90760 0.65530
C13 C 0.5257(4) 0.8811(3) 0.5764(2)
H8 H 0.48820 0.83390 0.57650
C14 C 0.4327(3) 0.6830(3) 0.4028(2)
C15 C 0.4311(3) 0.6109(3) 0.4379(2)
H9 H 0.45350 0.61540 0.47340
C16 C 0.3952(4) 0.5321(3) 0.4185(2)
H10 H 0.39400 0.48470 0.44210
C17 C 0.3581(4) 0.5928(4) 0.3365(2)
H11 H 0.33110 0.58790 0.30210
C18 C 0.3923(3) 0.6745(3) 0.3526(2)
H12 H 0.38760 0.72270 0.32950
C19 C 0.7304(4) 0.7274(4) 0.1438(2)
H13 H 0.70890 0.70310 0.17430
C20 C 0.7578(3) 0.6710(3) 0.1055(2)
H14 H 0.75570 0.61020 0.11040
C21 C 0.7889(3) 0.7064(3) 0.0588(2)
C22 C 0.7938(3) 0.7967(3) 0.0545(2)
H15 H 0.81490 0.82240 0.02430
C23 C 0.7669(4) 0.8497(3) 0.0960(2)
H16 H 0.77270 0.91060 0.09340
C24 C 0.8112(3) 0.6500(3) 0.0140(2)
C25 C 0.8472(3) 0.5655(3) 0.0108(2)
C26 C 0.8147(3) 0.6076(3) -0.0702(2)
C27 C 0.8871(3) 0.5095(3) 0.0523(2)
C28 C 0.9183(3) 0.5390(4) 0.1024(2)
H17 H 0.91470 0.59860 0.11080
C29 C 0.9545(4) 0.4818(4) 0.1396(2)
H18 H 0.97340 0.50200 0.17370
C30 C 0.9367(4) 0.3656(4) 0.0791(3)
H19 H 0.94470 0.30620 0.07160
C31 C 0.8981(4) 0.4200(3) 0.0403(2)
H20 H 0.87970 0.39770 0.00670
C32 C 0.8054(3) 0.6094(3) -0.1288(2)
C33 C 0.8214(4) 0.5319(4) -0.1569(2)
H21 H 0.83250 0.47930 -0.13840
C34 C 0.8206(4) 0.5344(4) -0.2120(3)
H22 H 0.83410 0.48410 -0.23100
C35 C 0.7818(4) 0.6829(4) -0.2137(2)
H23 H 0.76830 0.73360 -0.23360
C36 C 0.7824(4) 0.6844(4) -0.1585(2)
H24 H 0.76740 0.73570 -0.14100
N1 N 0.5935(3) 0.8596(3) 0.23228(18)
N2 N 0.5645(3) 0.8831(3) 0.43178(18)
N3 N 0.4847(3) 0.7885(3) 0.47293(17)
H25 H 0.45960 0.76350 0.49830
N4 N 0.6017(3) 0.9934(3) 0.62289(18)
H26 H 0.61570 1.02000 0.65270
N5 N 0.3627(3) 0.5205(3) 0.3688(2)
N6 N 0.7330(3) 0.8158(3) 0.1395(2)
N7 N 0.8470(3) 0.5410(3) -0.04225(19)
N8 N 0.7928(3) 0.6750(3) -0.03796(17)
H27 H 0.77120 0.72470 -0.04860
N9 N 0.9626(3) 0.3975(3) 0.1272(2)
H28 H 0.98540 0.36210 0.15110
N10 N 0.8003(3) 0.6093(3) -0.2384(2)
H29 H 0.79920 0.60930 -0.27300
Mo1 Mo 0.42231(3) 0.86070(3) 0.106954(17)
Mo2 Mo 0.31315(3) 1.07416(3) 0.075411(17)
Mo3 Mo 0.37084(3) 1.00952(3) 0.217724(17)
Mo4 Mo 0.32864(3) 0.70965(3) 0.180136(18)
Mo5 Mo 0.26914(3) 0.73011(3) 0.048370(18)
Mo6 Mo 0.18055(3) 0.94463(3) -0.000754(17)
Mo7 Mo 0.24474(3) 0.86583(3) 0.277956(17)
Mo8 Mo 0.10370(3) 1.08652(3) 0.087335(18)
Mo9 Mo 0.16884(3) 1.06117(3) 0.233740(18)
Mo10 Mo 0.09672(3) 0.72453(3) 0.192287(18)
Mo11 Mo 0.04409(3) 0.78708(3) 0.065566(18)
Mo12 Mo -0.00065(3) 0.91951(3) 0.167901(18)
O1 O 0.5280(2) 0.8606(2) 0.10156(15)
O2 O 0.3886(2) 0.7833(2) 0.05196(14)
O3 O 0.3857(2) 0.9619(2) 0.07505(14)
O4 O 0.4176(2) 0.9254(2) 0.17698(14)
O5 O 0.4269(2) 0.7551(2) 0.15730(14)
O6 O 0.3811(2) 1.1465(2) 0.05111(16)
O7 O 0.3427(2) 1.0727(2) 0.14835(14)
O8 O 0.4554(2) 1.0680(2) 0.24254(16)
O9 O 0.3542(2) 0.9397(2) 0.27768(14)
O10 O 0.3168(2) 0.7820(2) 0.23772(14)
O11 O 0.3633(3) 0.6149(2) 0.20857(16)
O12 O 0.3067(2) 0.6590(2) 0.10472(14)
O13 O 0.2823(2) 0.6647(2) -0.00528(15)
O14 O 0.2442(2) 0.8461(2) 0.01004(14)
O15 O 0.2688(2) 1.0258(2) 0.00520(14)
O16 O 0.2846(2) 0.8267(2) 0.12317(13)
O17 O 0.2181(2) 1.1450(2) 0.07710(14)
O18 O 0.2826(2) 1.0921(2) 0.24298(14)
O19 O 0.2665(2) 0.8283(2) 0.34133(15)
O20 O 0.2038(2) 0.6893(2) 0.18002(14)
O21 O 0.1565(2) 0.7265(2) 0.05611(14)
O22 O 0.1567(2) 0.9456(2) -0.06791(15)
O23 O 0.2066(2) 0.9750(2) 0.09256(13)
O24 O 0.2408(2) 0.9419(2) 0.19681(13)
O25 O 0.0473(2) 1.1806(2) 0.08100(15)
O26 O 0.1477(2) 1.1020(2) 0.16577(14)
O27 O 0.1260(2) 1.1381(2) 0.27205(15)
O28 O 0.1912(2) 0.9710(2) 0.29174(14)
O29 O 0.1561(2) 0.8015(2) 0.25160(14)
O30 O 0.0634(2) 0.6415(2) 0.23071(16)
O31 O 0.0449(2) 0.6980(2) 0.12639(16)
O32 O -0.0176(2) 0.7275(2) 0.02104(16)
O33 O 0.0857(2) 0.8751(2) 0.02510(14)
O34 O 0.1047(2) 1.0467(2) 0.01820(14)
O35 O 0.1221(2) 0.8494(2) 0.14074(13)
O36 O 0.0309(2) 1.0084(2) 0.11384(14)
O37 O 0.0675(2) 0.9813(2) 0.21619(14)
O38 O 0.0039(2) 0.8118(2) 0.20327(15)
O39 O -0.0335(2) 0.8505(2) 0.10021(15)
O40 O -0.0990(2) 0.9539(3) 0.17993(16)
O41 O 1.0320(4) 0.2711(3) 0.19054(19)
H30 H 1.045(5) 0.269(4) 0.2236(7)
H31 H 1.003(4) 0.228(3) 0.181(2)
O42 O 0.8857(8) 0.1805(7) 0.1502(5)
Cu1A Cu 0.36101(5) 0.39536(5) 0.33686(3)
N5A N 0.6373(3) 1.0205(3) 0.1312(2)
#END
