
#######################################################################
#
#                 Cambridge Crystallographic Data Centre
#                                CCDC
#
#######################################################################
#
# If this CIF has been generated from an entry in the Cambridge
# Structural Database, then it will include bibliographic, chemical,
# crystal, experimental, refinement or atomic coordinate data resulting
# from the CCDC's data processing and validation procedures.
#
#######################################################################

data_CSD_CIF_PULMIU
_audit_creation_date 2015-08-20
_audit_creation_method CSD-ConQuest-V1
_database_code_CSD PULMIU
_database_code_depnum_ccdc_archive 'CCDC 917197'
_chemical_formula_sum 'C41 H41 N5 O22 S3 Zn3'
_chemical_formula_moiety
;
(C34 H18 N2 O21 S3 Zn3 2-)n,C3 H7 N1 O1,2(C2 H8 N1 1+)
;
_journal_coden_Cambridge 182
_journal_volume 50
_journal_year 2014
_journal_page_first 1144
_journal_name_full 'Chem.Commun. '
loop_
_publ_author_name
"P.Ramaswamy"
"R.Matsuda"
"W.Kosaka"
"G.Akiyama"
"Hyung Joon Jeon"
"S.Kitagawa"
_chemical_name_systematic
;
catena-[bis(N,N-dimethylammonium) 
bis(\m~5~-5-sulfonatobenzene-1,3-dicarboxylato)-(\m~4~-5-sulfobenzene-1,3-dica
rboxylato)-(\m~2~-4,4'-bipyridine)-tri-zinc N,N-dimethylformamide unknown 
solvate]
;
_cell_volume   6708.340
_exptl_crystal_colour 'colorless'
_exptl_crystal_density_diffrn 1.235
_exptl_crystal_description 'plate-like'
_diffrn_ambient_temperature 123
_refine_special_details
;
Disordered solvent molecules were not modelled and the disordered density was 
taken into account using the SQUEEZE/PLATON procedure.
;
#These two values have been output from a single CSD field.
_refine_ls_R_factor_gt 0.0866
_refine_ls_wR_factor_gt 0.0866
_symmetry_cell_setting monoclinic
_symmetry_space_group_name_H-M 'P 21/c'
_symmetry_Int_Tables_number 14
loop_
_symmetry_equiv_pos_site_id
_symmetry_equiv_pos_as_xyz
1 x,y,z
2 -x,1/2+y,1/2-z
3 -x,-y,-z
4 x,-1/2-y,-1/2+z
_cell_length_a 17.614(4)
_cell_length_b 21.916(4)
_cell_length_c 18.046(4)
_cell_angle_alpha 90
_cell_angle_beta 105.64(3)
_cell_angle_gamma 90
_cell_formula_units_Z 4
loop_
_atom_type_symbol
_atom_type_radius_bond
C 0.68
H 0.23
N 0.68
O 0.68
S 1.02
Zn 1.22
loop_
_atom_site_label
_atom_site_type_symbol
_atom_site_fract_x
_atom_site_fract_y
_atom_site_fract_z
Zn1 Zn 0.49405(3) 0.17977(3) 0.49215(3)
Zn2 Zn 0.30802(4) 0.23757(3) 0.48934(4)
Zn3 Zn 0.67548(4) 0.25715(3) 0.98931(4)
S1 S 0.06994(10) -0.01124(8) 0.35536(14)
S2 S 0.63665(8) 0.12333(7) 0.87713(8)
S3 S 0.34036(8) 0.36499(7) 0.60605(8)
O1 O 0.3498(2) 0.19990(17) 0.5954(2)
O2 O 0.6677(2) 0.16208(16) 0.9456(2)
O3 O 0.3185(2) 0.33208(17) 0.5332(2)
C1 C 0.2962(3) 0.0505(3) 0.4223(3)
O4 O 0.4044(2) 0.24323(17) 0.9515(2)
O5 O 0.4095(2) 0.11198(17) 0.4594(2)
O6 O 0.6879(2) 0.28867(19) 0.6182(2)
O7 O 0.2962(2) 0.21732(18) 0.8630(2)
O8 O 0.5116(2) 0.31945(17) 0.8880(2)
O9 O 0.5804(2) 0.26020(17) 0.5291(2)
O10 O 0.4182(2) -0.11566(17) 0.4677(2)
O11 O 0.6326(2) 0.29296(18) 0.8841(2)
O12 O 0.4765(2) 0.18463(16) 0.5966(2)
O13 O 0.2930(2) 0.3502(2) 0.6580(3)
O14 O 0.6232(3) 0.06055(19) 0.8989(3)
O15 O 0.3040(2) -0.1649(2) 0.4463(3)
O16 O 0.2909(2) 0.15899(18) 0.4273(2)
O17 O 0.3432(2) 0.43057(18) 0.5933(2)
O18 O 0.6844(3) 0.1269(2) 0.8243(2)
C2 C 0.3930(3) 0.1972(2) 0.7577(3)
H1 H 0.34200 0.21020 0.73410
C3 C 0.3002(3) -0.0591(3) 0.4269(3)
C4 C 0.5398(3) 0.3200(2) 0.7684(3)
C5 C 0.5925(3) 0.3046(2) 0.7239(3)
H2 H 0.64450 0.29410 0.74780
C6 C 0.5652(3) 0.3056(2) 0.6439(3)
C7 C 0.3699(3) 0.2201(3) 0.8857(3)
C8 C 0.2186(3) -0.0615(3) 0.4024(3)
H3 H 0.19310 -0.09900 0.39490
C9 C 0.5179(3) 0.1559(2) 0.7495(3)
H4 H 0.55140 0.14310 0.72060
C10 C 0.4199(3) 0.1961(2) 0.8369(3)
C11 C 0.4391(3) 0.3425(2) 0.6528(3)
C12 C 0.4884(3) 0.3258(2) 0.6071(3)
H5 H 0.47090 0.32800 0.55370
C13 C 0.3374(4) -0.0041(2) 0.4359(3)
H6 H 0.39220 -0.00310 0.45170
N1 N 0.7913(3) 0.2523(2) 0.9908(3)
C14 C 0.2128(3) 0.0491(3) 0.3973(3)
H7 H 0.18340 0.08490 0.38640
C15 C 0.6168(3) 0.2838(3) 0.5953(3)
C16 C 0.5417(3) 0.1528(2) 0.8303(3)
N2 N 1.1908(3) 0.2584(2) 0.9843(3)
C17 C 0.4423(3) 0.1789(2) 0.7133(3)
C18 C 0.8889(4) 0.2439(3) 0.9219(4)
H8 H 0.90070 0.23670 0.87540
C19 C 0.4927(3) 0.1737(2) 0.8734(3)
H9 H 0.50940 0.17250 0.92690
C20 C 0.9285(4) 0.2739(3) 1.0532(4)
H10 H 0.96670 0.28720 1.09650
C21 C 0.3364(3) 0.1113(3) 0.4363(3)
C22 C 0.4204(3) 0.1880(2) 0.6275(3)
C23 C 0.4632(3) 0.3392(2) 0.7327(3)
H11 H 0.42890 0.34970 0.76180
C24 C 1.0343(4) 0.2593(3) 0.9861(4)
C25 C 0.5644(3) 0.3107(2) 0.8529(3)
C26 C 0.1760(4) -0.0089(3) 0.3894(5)
C27 C 0.3452(3) -0.1175(3) 0.4494(3)
C28 C 0.8133(4) 0.2397(3) 0.9270(4)
H12 H 0.77470 0.22730 0.88350
C29 C 0.9485(4) 0.2592(3) 0.9878(4)
C30 C 1.1705(4) 0.2476(3) 1.0495(4)
H13 H 1.20990 0.24020 1.09450
C31 C 1.0550(4) 0.2717(3) 0.9188(4)
H14 H 1.01620 0.28050 0.87370
C32 C 0.8492(4) 0.2686(3) 1.0545(4)
H15 H 0.83600 0.27640 1.10020
C33 C 1.0903(4) 0.2472(3) 1.0516(5)
H16 H 1.07700 0.23880 1.09700
C34 C 1.1340(4) 0.2710(3) 0.9190(4)
H17 H 1.14790 0.27920 0.87380
O19 O 0.0421(3) 0.0465(3) 0.3796(5)
O20 O 0.0505(4) -0.0245(5) 0.2787(5)
O21 O 0.0445(3) -0.0608(3) 0.4005(4)
H18 H 0.05680 -0.05160 0.44620
N3 N 0.4947(4) -0.0019(2) 0.7022(4)
C35 C 0.5811(5) -0.0074(3) 0.7205(5)
H19 H 0.59750 -0.00420 0.67400
H20 H 0.59710 -0.04620 0.74430
H21 H 0.60510 0.02470 0.75510
C36 C 0.4613(5) -0.0039(3) 0.7604(4)
C37 C 0.4528(6) 0.0082(3) 0.6222(5)
H22 H 0.48960 0.00840 0.59150
H23 H 0.42590 0.04670 0.61720
H24 H 0.41500 -0.02390 0.60500
O22 O 0.3884(4) -0.0005(3) 0.7504(4)
N4 N 0.6590(4) -0.0005(2) 1.0517(4)
H25 H 0.65150 0.00230 1.00040
H26 H 0.71080 -0.00680 1.07300
C38 C 0.6364(5) 0.0584(3) 1.0803(4)
H27 H 0.66760 0.09060 1.06760
H28 H 0.64540 0.05630 1.13510
H29 H 0.58160 0.06620 1.05660
C39 C 0.6151(5) -0.0536(4) 1.0680(5)
H30 H 0.63270 -0.08970 1.04750
H31 H 0.55980 -0.04790 1.04450
H32 H 0.62410 -0.05790 1.12260
N5 N 0.2077(3) 0.4981(2) 0.6043(4)
H33 H 0.19870 0.53460 0.58090
H34 H 0.25650 0.48590 0.60450
C40 C 0.1479(5) 0.4524(5) 0.5609(6)
H35 H 0.15180 0.44900 0.50900
H36 H 0.09590 0.46570 0.56040
H37 H 0.15810 0.41330 0.58570
C41 C 0.2015(6) 0.5039(4) 0.6906(6)
H38 H 0.23930 0.53320 0.71790
H39 H 0.21210 0.46490 0.71570
H40 H 0.14930 0.51690 0.69020
Zn1B Zn 0.50595(3) -0.17977(3) 0.50785(3)
Zn1C Zn 0.49405(3) 0.32023(3) 0.99215(3)
Zn2C Zn 0.30802(4) 0.26243(3) 0.98934(4)
Zn2C* Zn 1.30802(4) 0.26243(3) 0.98934(4)
Zn3A Zn 0.32452(4) -0.24285(3) 0.51069(4)
Zn3C Zn 0.67548(4) 0.24285(3) 0.48931(4)
O4C O 0.4044(2) 0.25677(17) 0.4515(2)
O6C O 0.6879(2) 0.21133(19) 1.1182(2)
O7C O 0.2962(2) 0.28268(18) 0.3630(2)
O8C O 0.5116(2) 0.18055(17) 0.3880(2)
O9C O 0.5804(2) 0.23980(17) 1.0291(2)
O10B O 0.5818(2) 0.11566(17) 0.5323(2)
O15A O 0.6960(2) 0.3351(2) 1.0537(3)
N2C N 0.1908(3) 0.2416(2) 0.4843(3)
#END
