
#######################################################################
#
#                 Cambridge Crystallographic Data Centre
#                                CCDC
#
#######################################################################
#
# If this CIF has been generated from an entry in the Cambridge
# Structural Database, then it will include bibliographic, chemical,
# crystal, experimental, refinement or atomic coordinate data resulting
# from the CCDC's data processing and validation procedures.
#
#######################################################################

data_CSD_CIF_PULVUO
_audit_creation_date 2010-09-06
_audit_creation_method CSD-ConQuest-V1
_database_code_CSD PULVUO
_database_code_depnum_ccdc_archive 'CCDC 691125'
_chemical_formula_sum 'C53 H75.5 As2 Cu6.5 N17 O65.5 W18'
_chemical_formula_moiety
;
(As2 O62 W18 9-)n,2n(C4 H16 Cu1 N4 2+),1.5n(C30 H24 Cu3 N6 3+),0.5n(H3 O1 
1+),3n(H2 O1)
;
_journal_coden_Cambridge 211
_journal_volume 63
_journal_year 2010
_journal_page_first 196
_journal_name_full 'J.Coord.Chem. '
loop_
_publ_author_name
"Feng Yao"
"Fan-Xia Meng"
"Ya-Guang Chen"
"Chun-Jing Zhang"
_chemical_name_systematic
;
catena-(sesquikis(tris(\m~2~-4,4'-Bipyridine-N,N')-tri-copper(i)) 
bis(bis(ethylenediamine)-copper(ii)) hemikis(oxonium) 
bis(\m~9~-arsenato)-hexatriacontakis(\m~2~-oxo)-octadecaoxo-tri-tungsten(v)-pe
ntadeca-tungsten(vi) trihydrate)
;
_cell_volume   5458.848
_exptl_crystal_colour 'brown'
_exptl_crystal_density_diffrn 3.566
_exptl_crystal_description 'block'
_diffrn_ambient_temperature 293
_refine_special_details
;
Some of the water molecules are disordered.

;
#These two values have been output from a single CSD field.
_refine_ls_R_factor_gt 0.0608
_refine_ls_wR_factor_gt 0.0608
_symmetry_cell_setting triclinic
_symmetry_space_group_name_H-M 'P -1'
_symmetry_Int_Tables_number 2
loop_
_symmetry_equiv_pos_site_id
_symmetry_equiv_pos_as_xyz
1 x,y,z
2 -x,-y,-z
_cell_length_a 13.249(5)
_cell_length_b 17.813(5)
_cell_length_c 23.940(5)
_cell_angle_alpha 82.266(5)
_cell_angle_beta 78.135(5)
_cell_angle_gamma 83.648(5)
_cell_formula_units_Z 2
loop_
_atom_type_symbol
_atom_type_radius_bond
C 0.71
H 0.23
As 1.21
Cu 1.19
N 0.68
O 0.68
W 1.42
loop_
_atom_site_label
_atom_site_type_symbol
_atom_site_fract_x
_atom_site_fract_y
_atom_site_fract_z
O1 O -0.1172(9) -0.3538(6) -0.2406(5)
O2 O -0.036(2) -0.3987(17) -0.9406(13)
H1 H -0.08020 -0.36590 -0.96220
H2 H -0.04420 -0.45080 -0.94370
O3 O -0.1248(10) -0.2079(7) -0.2082(5)
O4 O -0.053(2) -0.3901(15) -0.8268(12)
H3 H -0.09590 -0.35760 -0.84950
H4 H 0.01800 -0.38040 -0.84070
O5 O -0.1603(14) -0.9052(9) -0.4580(8)
H5 H -0.22680 -0.91660 -0.46290
H6 H -0.11090 -0.91000 -0.49310
O6 O -0.3022(9) -0.2844(7) -0.1846(5)
O7 O -0.3524(8) -0.2229(6) -0.2926(5)
O8 O -0.1768(9) -0.1459(6) -0.3141(5)
O9 O -0.2684(9) -0.1691(6) -0.4008(4)
O10 O -0.1698(8) -0.2895(6) -0.3483(5)
O11 O -0.1460(9) -0.3350(6) -0.1263(4)
O12 O -0.4202(8) -0.1252(6) -0.4525(5)
O13 O -0.4453(9) -0.2521(6) -0.3829(5)
O14 O -0.2731(10) -0.3167(6) -0.4349(5)
O15 O -0.0724(9) -0.2299(6) -0.4605(5)
O16 O -0.0786(9) -0.0936(6) -0.4301(4)
O17 O -0.4570(9) -0.0918(6) -0.3447(5)
O18 O -0.2861(9) -0.0200(6) -0.3650(5)
O19 O -0.2400(9) -0.1902(6) -0.5065(5)
O20 O -0.2477(9) -0.0519(6) -0.4738(5)
O21 O -0.3656(10) -0.0712(7) -0.2620(5)
O22 O -0.5470(9) -0.2105(6) -0.2786(5)
O23 O -0.3489(9) -0.3686(6) -0.3300(5)
O24 O -0.0840(9) -0.3797(6) -0.4189(5)
O25 O 0.1110(9) -0.3199(7) -0.4533(5)
O26 O 0.0213(9) -0.2105(6) -0.3779(5)
O27 O -0.1035(9) -0.0197(6) -0.3367(5)
O28 O -0.0531(12) -0.4504(9) -0.0758(7)
O29 O -0.2298(13) -0.3890(9) -0.0227(7)
O30 O -0.0438(12) -0.2761(9) -0.0719(7)
O31 O -0.3312(9) -0.2608(7) -0.0653(5)
O32 O -0.3187(10) -0.4216(7) -0.1035(5)
O33 O -0.1508(10) -0.4850(7) -0.1576(5)
O34 O 0.0496(9) -0.3984(6) -0.1828(5)
O35 O 0.0449(10) -0.2624(7) -0.1503(5)
O36 O -0.1661(10) -0.1888(7) -0.0887(5)
O37 O -0.4740(9) -0.3086(7) -0.1177(5)
O38 O -0.3148(10) -0.1406(7) -0.1427(6)
O39 O -0.0264(9) -0.1151(6) -0.1746(5)
O40 O 0.0729(10) -0.2805(7) -0.2596(5)
O41 O -0.0113(9) -0.4756(6) -0.2582(5)
O42 O -0.2959(9) -0.4356(6) -0.2137(5)
O43 O 0.0291(9) -0.3575(6) -0.3405(5)
O44 O -0.4595(10) -0.3387(7) -0.2283(5)
O45 O -0.4715(9) -0.1766(7) -0.1889(5)
O46 O -0.1909(9) -0.0559(6) -0.2250(5)
O47 O 0.0243(10) -0.1331(7) -0.2896(5)
O48 O -0.4269(10) -0.2577(7) -0.5015(6)
O49 O -0.4384(10) 0.0299(7) -0.4355(6)
O50 O -0.0685(10) -0.1058(6) -0.5479(5)
O51 O -0.5717(10) -0.3512(8) -0.3091(5)
O52 O -0.5834(10) -0.0630(7) -0.2442(6)
O53 O -0.2716(11) 0.0690(8) -0.2858(6)
O54 O 0.1030(11) -0.0664(7) -0.3975(6)
O55 O -0.1726(9) -0.4446(6) -0.3143(5)
O56 O -0.2435(11) -0.4696(6) -0.4082(5)
O57 O -0.1757(11) -0.5712(7) -0.2375(6)
O58 O -0.4929(10) -0.4535(8) -0.1402(6)
O59 O -0.5125(12) -0.1679(8) -0.0721(6)
O60 O -0.1966(12) -0.0340(7) -0.1111(6)
O61 O 0.1707(10) -0.1687(7) -0.2237(5)
O62 O 0.1826(9) -0.4207(7) -0.2848(6)
O63 O 0.1325(11) -0.3871(8) -0.0847(6)
O64 O -0.2246(12) -0.5406(7) -0.0392(6)
O65 O -0.2356(12) -0.2532(8) 0.0285(6)
O66 O -1.503(3) -0.085(2) -0.7371(16)
H7 H -1.57090 -0.09820 -0.71790
H8 H -1.50880 -0.03340 -0.75550
W1 W -0.41468(6) -0.21211(5) -0.12074(4)
W2 W -0.23922(6) -0.02587(4) -0.29373(4)
W3 W -0.01434(6) -0.10624(4) -0.36263(3)
W4 W -0.19538(6) -0.45492(4) -0.08254(3)
W5 W 0.02048(6) -0.36137(4) -0.11050(3)
W6 W -0.17815(6) -0.11042(4) -0.15151(4)
W7 W -0.14041(6) -0.13478(4) -0.48225(3)
W8 W 0.05732(6) -0.38388(4) -0.26595(3)
W9 W -0.40488(6) -0.38605(4) -0.16301(3)
W10 W -0.15885(6) -0.47669(4) -0.23735(3)
W11 W 0.04710(6) -0.19131(4) -0.22014(3)
W12 W -0.20492(6) -0.27917(4) -0.04098(3)
W13 W -0.36890(6) -0.05392(4) -0.41207(3)
W14 W -0.35859(6) -0.22786(4) -0.45557(3)
W15 W -0.47901(6) -0.12725(4) -0.26195(3)
W16 W -0.46873(6) -0.30105(4) -0.30465(3)
W17 W -0.00418(6) -0.29763(4) -0.40726(3)
W18 W -0.22113(6) -0.39121(4) -0.37918(3)
Cu1 Cu -1.00000 -0.50000 -0.50000
Cu2 Cu 0.0480(3) -0.99935(18) -0.14076(13)
Cu3 Cu 0.2979(3) -1.32815(17) 0.22969(13)
Cu4 Cu 0.3126(2) -0.39927(15) -0.12258(11)
Cu5 Cu 0.29127(19) -0.08863(13) -0.38747(10)
Cu6 Cu -0.2245(2) -0.57363(13) -0.45756(11)
Cu7 Cu -1.4261(4) -0.1700(3) -0.8044(2)
C1 C 0.178(3) -1.076(2) 0.0053(16)
H9 H 0.23040 -1.05890 0.02220
C2 C 0.0584(16) -1.1624(13) 0.0028(10)
H10 H 0.02700 -1.20870 0.01830
C3 C 0.2097(19) -1.1450(13) 0.1185(11)
H11 H 0.22260 -1.09220 0.11130
C4 C 0.1595(18) -1.1803(12) 0.0814(8)
C5 C 0.1479(19) -1.2546(11) 0.0918(10)
H12 H 0.11580 -1.27900 0.06730
C6 C 0.1877(19) -1.2991(14) 0.1399(10)
H13 H 0.18000 -1.35270 0.14750
C7 C 0.2397(17) -1.1927(12) 0.1628(9)
H14 H 0.26980 -1.17010 0.18900
C8 C 0.126(2) -1.1370(12) 0.0304(9)
C9 C 0.4052(17) -1.4429(13) 0.2943(11)
H15 H 0.38100 -1.47600 0.27240
C10 C 0.3927(19) -1.3301(13) 0.3304(10)
H16 H 0.36150 -1.28090 0.33280
C11 C 0.4561(17) -1.3576(10) 0.3685(10)
H17 H 0.46750 -1.32570 0.39550
C12 C 0.4750(17) -1.4733(11) 0.3308(8)
H18 H 0.50440 -1.52490 0.32940
C13 C 0.4991(14) -1.4305(10) 0.3699(8)
C14 C 0.5601(13) -1.4631(9) 0.4114(8)
C15 C 0.5727(15) -1.426(1) 0.4569(7)
H19 H 0.53510 -1.37790 0.46420
C16 C 0.6205(16) -1.5342(11) 0.4054(9)
H20 H 0.61810 -1.56090 0.37350
C17 C 0.6845(18) -1.5618(11) 0.4433(9)
H21 H 0.72200 -1.61070 0.43950
C18 C 0.6398(14) -1.459(1) 0.4909(8)
H22 H 0.64780 -1.43190 0.52160
C19 C -0.1332(16) -0.7175(10) -0.4174(8)
H23 H -0.14060 -0.73040 -0.45390
C20 C -0.1256(16) -0.6278(12) -0.3620(8)
H24 H -0.13650 -0.57520 -0.35540
C21 C -0.0977(17) -0.7754(10) -0.3791(8)
H25 H -0.09480 -0.82790 -0.38510
C22 C -0.0808(14) -0.6782(9) -0.3232(7)
H26 H -0.06180 -0.66030 -0.29110
C23 C -0.0670(15) -0.7544(9) -0.3290(8)
C24 C -0.0258(14) -0.8130(9) -0.2874(7)
C25 C -0.0341(16) -0.8907(9) -0.2897(8)
H27 H -0.05580 -0.90680 -0.32180
C26 C -0.0120(15) -0.9426(11) -0.2466(8)
H28 H -0.02490 -0.99440 -0.24730
C27 C 0.0129(17) -0.7914(11) -0.2436(9)
H29 H 0.01930 -0.73890 -0.24100
C28 C 0.0397(18) -0.8521(11) -0.2002(8)
H30 H 0.06910 -0.83910 -0.16970
C29 C 0.0328(17) -1.1188(12) -0.0484(10)
H31 H -0.01350 -1.13770 -0.06820
C30 C 0.155(3) -1.033(2) -0.0472(15)
H32 H 0.19040 -0.98900 -0.06500
C31 C -1.499(3) -0.033(2) -0.9681(15)
C32 C -1.404(4) -0.081(2) -0.974(2)
H33 H -1.34630 -0.07790 -1.00550
C33 C -1.423(4) -0.131(3) -0.923(2)
H34 H -1.39270 -0.18210 -0.92610
C34 C -1.534(3) -0.047(2) -0.8754(19)
H35 H -1.57960 -0.03760 -0.84000
C35 C -1.552(3) -0.0090(16) -0.9196(13)
H36 H -1.60190 0.03440 -0.91960
C36 C -1.385(2) -0.2202(14) -0.6890(14)
H37 H -1.43910 -0.18260 -0.67590
C37 C -1.3248(18) -0.2621(11) -0.6528(10)
H38 H -1.33730 -0.25160 -0.61360
C38 C -1.2457(18) -0.3168(11) -0.6717(10)
C39 C -1.230(2) -0.3323(13) -0.7271(12)
H39 H -1.17890 -0.37100 -0.74160
C40 C -1.287(3) -0.290(2) -0.7649(16)
H40 H -1.27610 -0.30080 -0.80410
C41 C -1.1809(15) -0.3593(10) -0.6344(8)
C42 C -1.1421(17) -0.4312(10) -0.6387(9)
H41 H -1.15200 -0.45620 -0.67010
C43 C -1.0865(17) -0.4692(13) -0.5973(10)
H42 H -1.05510 -0.51960 -0.60260
C44 C -1.1616(17) -0.3307(12) -0.5877(8)
H43 H -1.18370 -0.27840 -0.58300
C45 C -1.1132(17) -0.3735(12) -0.5500(9)
H44 H -1.10770 -0.35170 -0.51630
C46 C 0.225(3) 0.041(2) -0.3325(18)
H45 H 0.16210 0.05570 -0.34610
H46 H 0.22440 0.06830 -0.30040
C47 C 0.314(3) 0.064(2) -0.3770(16)
H47 H 0.37500 0.06250 -0.36060
H48 H 0.30020 0.11560 -0.39340
C48 C 0.294(2) -0.2107(14) -0.4538(12)
H49 H 0.22210 -0.20210 -0.45720
H50 H 0.32860 -0.24250 -0.48230
C49 C 0.2993(19) -0.2489(13) -0.3963(10)
H51 H 0.36880 -0.27130 -0.39690
H52 H 0.25420 -0.28920 -0.38730
C50 C 0.280(2) -0.2799(14) -0.0554(11)
H53 H 0.30650 -0.25250 -0.03050
H54 H 0.20700 -0.28210 -0.04100
C51 C 0.294(2) -0.2345(14) -0.1166(11)
H55 H 0.23510 -0.19930 -0.12050
H56 H 0.35400 -0.20620 -0.12280
C52 C 0.303(3) -0.5578(16) -0.1302(15)
H57 H 0.23760 -0.57900 -0.12340
H58 H 0.35540 -0.59910 -0.12700
C53 C 0.321(4) -0.525(2) -0.1829(15)
H59 H 0.39190 -0.53880 -0.19940
H60 H 0.27930 -0.54630 -0.20430
N1 N 0.0286(14) -0.9248(10) -0.2028(7)
N2 N 0.0708(16) -1.0571(10) -0.0697(9)
N3 N 0.337(2) -0.1356(11) -0.4627(7)
H61 H 0.37700 -0.11570 -0.49520
N4 N 0.2328(15) -1.2678(10) 0.1733(7)
N5 N 0.3082(14) -0.2886(11) -0.1596(10)
H62 H 0.31480 -0.27530 -0.19770
N6 N 0.3279(13) -0.3564(10) -0.0543(8)
H63 H 0.36040 -0.38030 -0.02650
N7 N 0.2430(15) -0.0413(10) -0.3144(7)
H64 H 0.22820 -0.06430 -0.27820
N8 N 0.2677(15) -0.1966(8) -0.3502(8)
H65 H 0.24500 -0.21050 -0.31250
N9 N 0.3362(15) 0.0148(9) -0.4222(7)
H66 H 0.36480 0.02820 -0.45920
N10 N 0.3711(13) -1.3695(10) 0.2884(8)
N11 N 0.6945(13) -1.5253(9) 0.4872(7)
N12 N -0.1542(13) -0.6476(8) -0.4077(7)
N13 N -1.364(2) -0.2330(13) -0.7477(10)
N14 N -1.0732(12) -0.4422(10) -0.5546(7)
N15 N -1.456(2) -0.1090(17) -0.8731(13)
N16 N 0.3082(13) -0.511(1) -0.0864(7)
H67 H 0.30650 -0.52680 -0.04900
N17 N 0.3116(18) -0.4427(12) -0.1957(8)
H68 H 0.30270 -0.41530 -0.22900
As1 As -0.23976(12) -0.20776(8) -0.33669(7)
As2 As -0.17416(12) -0.29466(9) -0.19140(7)
O67? O -0.9609(13) -0.5515(9) -0.8919(8)
O68? O -0.9402(12) -0.6859(9) -0.9544(7)
O69? O -0.7448(13) -0.6343(9) -0.9595(7)
Cu6* Cu 0.7755(2) -1.57363(13) 0.54244(11)
Cu7A Cu -1.5739(4) 0.1700(3) -1.1956(2)
Cu7A* Cu -0.5739(4) -0.8300(3) -0.1956(2)
C31A C -1.501(3) 0.033(2) -1.0319(15)
C32A C -1.596(4) 0.081(2) -1.026(2)
H33A H -1.65370 0.07790 -0.99450
C33A C -1.577(4) 0.131(3) -1.077(2)
H34A H -1.60730 0.18210 -1.07390
C34A C -1.466(3) 0.047(2) -1.1246(19)
H35A H -1.42040 0.03760 -1.16000
C35A C -1.448(3) 0.0090(16) -1.0804(13)
H36A H -1.39810 -0.03440 -1.08040
C36A C -0.615(2) -0.7798(14) -0.3110(14)
H37A H -0.56090 -0.81740 -0.32410
C37A C -0.6752(18) -0.7379(11) -0.3472(10)
H38A H -0.66270 -0.74840 -0.38640
C38A C -0.7543(18) -0.6832(11) -0.3283(10)
C39A C -0.770(2) -0.6677(13) -0.2729(12)
H39A H -0.82110 -0.62900 -0.25840
C40A C -0.713(3) -0.710(2) -0.2351(16)
H40A H -0.72390 -0.69920 -0.19590
C41A C -0.8191(15) -0.6407(10) -0.3656(8)
C42A C -0.8579(17) -0.5688(10) -0.3613(9)
H41A H -0.84800 -0.54380 -0.32990
C43A C -0.9135(17) -0.5308(13) -0.4027(10)
H42A H -0.94490 -0.48040 -0.39740
C44A C -0.8384(17) -0.6693(12) -0.4123(8)
H43A H -0.81630 -0.72160 -0.41700
C45A C -0.8868(17) -0.6265(12) -0.4500(9)
H44A H -0.89230 -0.64830 -0.48370
N11* N -0.3055(13) -0.5253(9) -0.5128(7)
N13A N -1.636(2) 0.2330(13) -1.2523(10)
N13A* N -0.636(2) -0.7670(13) -0.2523(10)
N14A N -0.9268(12) -0.5578(10) -0.4454(7)
N15A N -1.544(2) 0.1090(17) -1.1269(13)
#END
