
#######################################################################
#
#                 Cambridge Crystallographic Data Centre
#                                CCDC
#
#######################################################################
#
# If this CIF has been generated from an entry in the Cambridge
# Structural Database, then it will include bibliographic, chemical,
# crystal, experimental, refinement or atomic coordinate data resulting
# from the CCDC's data processing and validation procedures.
#
#######################################################################

data_CSD_CIF_PUMDIM
_audit_creation_date 2015-08-21
_audit_creation_method CSD-ConQuest-V1
_database_code_CSD PUMDIM
_database_code_depnum_ccdc_archive 'CCDC 960996'
_chemical_formula_sum 'C51 H43 Co7 O43.5'
_chemical_formula_moiety
;
(C17 H9 Co2 O12 1-)3n,n(H12 Co1 O6 2+),n(H3 O1 1+),0.5n(H2 O1)
;
_journal_coden_Cambridge 1350
_journal_volume 17
_journal_year 2015
_journal_page_first 7034
_journal_name_full 'CrystEngComm '
loop_
_publ_author_name
"Jun Zhao"
"Bo Liu"
"Ya-Pan Wu"
"Liang Bai"
"Jian Zhang"
"Dong-Sheng Li"
_chemical_name_systematic
;
catena-(Hexa-aqua-cobalt oxonium 
(\m~8~-biphenyl-2,3',4,5',6-pentacarboxylato)-diaqua-di-cobalt hemihydrate)
;
_cell_volume   3961.349
_exptl_crystal_colour 'red'
_exptl_crystal_density_diffrn 1.479
_exptl_crystal_description 'prism'
_diffrn_ambient_temperature 296
#These two values have been output from a single CSD field.
_refine_ls_R_factor_gt 0.0534
_refine_ls_wR_factor_gt 0.0534
_symmetry_cell_setting hexagonal
_symmetry_space_group_name_H-M 'P 31 c'
_symmetry_Int_Tables_number 159
loop_
_symmetry_equiv_pos_site_id
_symmetry_equiv_pos_as_xyz
1 x,y,z
2 -y,x-y,z
3 -x+y,-x,z
4 y,x,1/2+z
5 x-y,-y,1/2+z
6 -x,-x+y,1/2+z
_cell_length_a 16.2712(4)
_cell_length_b 16.2712(4)
_cell_length_c 17.2772(8)
_cell_angle_alpha 90
_cell_angle_beta 90
_cell_angle_gamma 120
_cell_formula_units_Z 2
loop_
_atom_type_symbol
_atom_type_radius_bond
C 0.68
H 0.23
Co 1.26
O 0.68
loop_
_atom_site_label
_atom_site_type_symbol
_atom_site_fract_x
_atom_site_fract_y
_atom_site_fract_z
Co1 Co 0.94408(5) 0.59801(5) 0.79344(4)
Co2 Co 0.96506(5) 0.72431(5) 0.95064(4)
O1 O 0.8289(3) 0.6123(3) 0.7768(3)
O2 O 0.8763(3) 0.7269(3) 0.8637(3)
O3 O 0.7204(4) 0.9187(3) 0.8831(3)
O4 O 0.6723(4) 0.9463(3) 0.7703(3)
O5 O 0.7450(4) 0.8024(4) 0.5484(4)
O6 O 0.6393(3) 0.8475(3) 0.5145(3)
O7 O 0.4019(4) 0.5392(3) 0.3605(3)
O8 O 0.3690(3) 0.4054(3) 0.4132(2)
O9 O 0.4636(3) 0.4016(3) 0.6910(3)
O10 O 0.4601(4) 0.5153(4) 0.7557(3)
O11 O 0.9746(3) 0.8534(3) 0.9891(3)
O12 O 1.0591(4) 0.7401(4) 1.0421(4)
C1 C 0.7535(4) 0.7052(4) 0.7783(3)
C2 C 0.7533(4) 0.7823(4) 0.8114(4)
H1 H 0.79170 0.81290 0.85380
C3 C 0.6939(4) 0.8141(4) 0.7796(4)
C4 C 0.6372(4) 0.7687(4) 0.7167(4)
H2 H 0.60020 0.79140 0.69480
C5 C 0.6354(4) 0.6880(4) 0.6858(3)
C6 C 0.6935(4) 0.6579(4) 0.7170(3)
H3 H 0.69250 0.60460 0.69640
C7 C 0.8242(4) 0.6792(4) 0.8093(3)
C8 C 0.6965(4) 0.9005(4) 0.8138(4)
C9 C 0.5716(4) 0.6387(4) 0.6178(3)
C10 C 0.5819(4) 0.6879(4) 0.5499(3)
C11 C 0.5237(4) 0.6423(4) 0.4848(3)
H4 H 0.52980 0.67680 0.44020
C12 C 0.4578(4) 0.5460(4) 0.4877(3)
C13 C 0.4478(4) 0.4959(4) 0.5565(3)
H5 H 0.40530 0.43100 0.55840
C14 C 0.5008(4) 0.5422(4) 0.6219(3)
C15 C 0.6607(4) 0.7865(4) 0.5379(3)
C16 C 0.4054(4) 0.4950(4) 0.4176(3)
C17 C 0.4754(4) 0.4855(4) 0.6956(3)
Co3 Co 0.66670 0.33330 0.67580(8)
O13 O 0.5595(3) 0.2341(3) 0.7466(3)
O14 O 0.5669(5) 0.3435(5) 0.6065(4)
O15 O 0.00000 0.00000 0.8888(7)
O16 O 0.00000 0.00000 0.7218(13)
Co1A Co 0.40199(5) 0.34607(5) 0.79344(4)
Co1B Co 0.65393(5) 1.05592(5) 0.79344(4)
Co1D Co 0.34607(5) 0.40199(5) 0.29344(4)
Co2B Co 0.75925(5) 1.03494(5) 0.95064(4)
Co2C Co 0.72431(5) 0.96506(5) 0.45064(4)
Co2D Co 0.24075(5) 0.27569(5) 0.45064(4)
O3A O 1.0813(4) 0.8017(3) 0.8831(3)
O4A O 1.0537(4) 0.7260(3) 0.7703(3)
O6C O 0.8475(3) 0.6393(3) 1.0145(3)
O7D O 0.8627(4) 0.4608(3) 0.8605(3)
O8D O 0.9636(3) 0.5946(3) 0.9132(2)
O9B O 0.9380(3) 0.5364(3) 0.6910(3)
O13A O 0.7659(3) 0.3254(3) 0.7466(3)
O14A O 0.6565(5) 0.2234(5) 0.6065(4)
O13B O 0.6746(3) 0.4405(3) 0.7466(3)
O14B O 0.7766(5) 0.4331(5) 0.6065(4)
#END
