
#######################################################################
#
#                 Cambridge Crystallographic Data Centre
#                                CCDC
#
#######################################################################
#
# If this CIF has been generated from an entry in the Cambridge
# Structural Database, then it will include bibliographic, chemical,
# crystal, experimental, refinement or atomic coordinate data resulting
# from the CCDC's data processing and validation procedures.
#
#######################################################################

data_CSD_CIF_PUNDUA
_audit_creation_date 2020-06-10
_audit_creation_method CSD-ConQuest-V1
_database_code_CSD PUNDUA
_database_code_depnum_ccdc_archive 'CCDC 1893470'
_chemical_formula_sum 'C30 H34 N6 O22 Zn3'
_chemical_formula_moiety
;
(C28 H20 N4 O20 Zn3 2-)n,C2 H10 N2 2+,2(H2 O1)
;
_journal_coden_Cambridge 580
_journal_volume 186
_journal_year 2020
_journal_page_first 114628
_journal_name_full 'Polyhedron '
loop_
_publ_author_name
"L.S.Flores"
"R.I.Rosa"
"D.F.Assis"
"G.S.G.de Carvalho"
"K.Krambrock"
"R.Diniz"
"C.C.Correa"
_chemical_name_systematic
;
catena-[ethane-1,2-diaminium 
tetrakis(\m-pyridine-2,5-dicarboxylato)-tetraaqua-tri-zinc dihydrate]
;
_cell_volume    885.440
_exptl_crystal_colour 'colorless'
_exptl_crystal_density_diffrn 1.926
_exptl_crystal_description 'block'
_diffrn_ambient_temperature 293
#These two values have been output from a single CSD field.
_refine_ls_R_factor_gt 0.0197
_refine_ls_wR_factor_gt 0.0197
_symmetry_cell_setting triclinic
_symmetry_space_group_name_H-M 'P -1'
_symmetry_Int_Tables_number 2
loop_
_symmetry_equiv_pos_site_id
_symmetry_equiv_pos_as_xyz
1 x,y,z
2 -x,-y,-z
_cell_length_a 8.2500(2)
_cell_length_b 10.9869(3)
_cell_length_c 11.5083(3)
_cell_angle_alpha 113.131(3)
_cell_angle_beta 108.515(3)
_cell_angle_gamma 94.301(2)
_cell_formula_units_Z 1
loop_
_atom_type_symbol
_atom_type_radius_bond
C 0.68
H 0.23
N 0.68
O 0.68
Zn 1.22
loop_
_atom_site_label
_atom_site_type_symbol
_atom_site_fract_x
_atom_site_fract_y
_atom_site_fract_z
Zn1 Zn 0.76356(2) 0.54544(2) 0.43176(2)
Zn2 Zn 1.50000 1.00000 1.00000
O1 O 1.49238(15) 1.12616(12) 1.19132(12)
O2 O 0.90382(16) 0.60843(13) 0.63094(12)
O3 O 0.71378(17) 0.35077(13) 0.41257(13)
H1 H 0.80837 0.33320 0.45693
O4 O 1.32959(16) 1.14280(12) 1.31592(11)
O5 O 0.95979(16) 0.67787(13) 0.43749(12)
O6 O 0.55397(18) 0.62139(15) 0.44096(15)
O7 O 0.37144(16) 0.12425(12) -0.10054(13)
N1 N 1.25748(17) 0.91258(13) 0.97763(13)
N2 N 0.70562(18) 0.48128(14) 0.22180(14)
O8 O 0.72323(18) 0.57788(15) 0.73217(14)
O9 O 1.0545(2) 0.74564(15) 0.30704(15)
O10 O 0.4052(2) 0.19586(16) -0.24935(14)
C1 C 1.3582(2) 1.08710(16) 1.21039(16)
C2 C 1.1406(2) 0.80888(16) 0.86645(16)
H2 H 1.16433 0.77540 0.78726
C3 C 0.9849(2) 0.74876(16) 0.86399(16)
C4 C 1.2227(2) 0.96343(15) 1.09188(15)
C5 C 0.9511(2) 0.79956(17) 0.98229(17)
H3 H 0.84841 0.76078 0.98423
C6 C 0.8188(2) 0.55322(16) 0.19735(17)
C7 C 1.0711(2) 0.90862(17) 1.09798(16)
H4 H 1.04996 0.94423 1.17822
C8 C 0.5709(2) 0.33472(16) -0.01769(17)
C9 C 0.5830(2) 0.37511(16) 0.11562(17)
H5 H 0.50277 0.32650 0.13202
C10 C 0.9565(2) 0.66973(17) 0.32251(18)
C11 C 0.8572(2) 0.63424(17) 0.73113(17)
C12 C 0.8124(2) 0.52120(18) 0.06729(18)
H6 H 0.89162 0.57327 0.05321
C13 C 0.4381(2) 0.20779(17) -0.13305(17)
C14 C 0.6867(2) 0.41079(18) -0.04204(18)
H7 H 0.68001 0.38789 -0.13057
H8 H 0.458(4) 0.565(3) 0.401(3)
H9 H 0.564(4) 0.670(3) 0.513(3)
H10 H 0.652(3) 0.285(3) 0.347(3)
O11 O -0.0775(2) 0.04243(15) -0.64521(16)
H11 H -0.17192 0.01058 -0.71575
H12 H -0.07338 0.12693 -0.60662
N3 N 0.26903(19) 0.01730(16) -0.52212(15)
H13 H 0.26047 0.06770 -0.56737
H14 H 0.29034 0.07041 -0.43485
H15 H 0.16883 -0.04443 -0.55827
C15 C 0.4138(2) -0.05189(19) -0.5318(2)
H16 H 0.39122 -0.10941 -0.62689
H17 H 0.42100 -0.10915 -0.48501
Zn1A Zn 1.23644(2) 0.45456(2) 0.56824(2)
O1A O 0.50762(15) -0.12616(12) -0.19132(12)
O2A O 1.09618(16) 0.39157(13) 0.36906(12)
O3A O 1.28622(17) 0.64923(13) 0.58743(13)
H1A H 1.19163 0.66680 0.54307
O4A O 0.67041(16) -0.14280(12) -0.31592(11)
O5A O 1.04021(16) 0.32213(13) 0.56251(12)
O6A O 1.44603(18) 0.37861(15) 0.55904(15)
O7A O 1.62856(16) 0.87575(12) 1.10054(13)
N1A N 0.74252(17) 0.08742(13) 0.02237(13)
N2A N 1.29438(18) 0.51872(14) 0.77820(14)
O8A O 1.27677(18) 0.42212(15) 0.26783(14)
O9A O 0.9455(2) 0.25436(15) 0.69296(15)
O10A O 1.5948(2) 0.80414(16) 1.24935(14)
C1A C 0.6418(2) -0.08710(16) -0.21039(16)
C2A C 0.8594(2) 0.19112(16) 0.13355(16)
H2A H 0.83567 0.22460 0.21274
C3A C 1.0151(2) 0.25124(16) 0.13601(16)
C4A C 0.7773(2) 0.03657(15) -0.09188(15)
C5A C 1.0489(2) 0.20044(17) 0.01771(17)
H3A H 1.15159 0.23922 0.01577
C6A C 1.1812(2) 0.44678(16) 0.80265(17)
C7A C 0.9289(2) 0.09138(17) -0.09798(16)
H4A H 0.95004 0.05577 -0.17822
C8A C 1.4291(2) 0.66528(16) 1.01769(17)
C9A C 1.4170(2) 0.62489(16) 0.88438(17)
H5A H 1.49723 0.67350 0.86798
C10A C 1.0435(2) 0.33027(17) 0.67749(18)
C11A C 1.1428(2) 0.36576(17) 0.26887(17)
C12A C 1.1876(2) 0.47880(18) 0.93271(18)
H6A H 1.10838 0.42673 0.94679
C13A C 1.5619(2) 0.79221(17) 1.13305(17)
C14A C 1.3133(2) 0.58921(18) 1.04204(18)
H7A H 1.31999 0.61211 1.13057
H8A H 1.542(4) 0.435(3) 0.599(3)
H9A H 1.436(4) 0.330(3) 0.487(3)
H10A H 1.348(3) 0.715(3) 0.653(3)
Zn2* Zn 0.50000 0.00000 0.00000
O1A* O 1.50762(15) 0.87384(12) 0.80868(12)
O7* O 1.37144(16) 1.12425(12) 0.89946(13)
N1A* N 1.74252(17) 1.08742(13) 1.02237(13)
N3A N 0.73097(19) -0.01730(16) -0.47788(15)
H13A H 0.73953 -0.06770 -0.43263
H14A H 0.70966 -0.07041 -0.56515
H15A H 0.83117 0.04443 -0.44173
C15A C 0.5862(2) 0.05189(19) -0.4682(2)
H16A H 0.60878 0.10941 -0.37311
H17A H 0.57900 0.10915 -0.51499
#END
