
#######################################################################
#
#                 Cambridge Crystallographic Data Centre
#                                CCDC
#
#######################################################################
#
# If this CIF has been generated from an entry in the Cambridge
# Structural Database, then it will include bibliographic, chemical,
# crystal, experimental, refinement or atomic coordinate data resulting
# from the CCDC's data processing and validation procedures.
#
#######################################################################

data_CSD_CIF_PUNKOA
_audit_creation_date 2015-08-24
_audit_creation_method CSD-ConQuest-V1
_database_code_CSD PUNKOA
_database_code_depnum_ccdc_archive 'CCDC 1058973'
_chemical_formula_sum 'C30 H24 Ag3 I5 Mn1 N6'
_chemical_formula_moiety
;
(C30 H24 Mn1 N6 2+)n,n(Ag3 I5 2-)
;
_journal_coden_Cambridge 1290
_journal_year 2015
_journal_page_first 4412
_journal_name_full 'Eur.J.Inorg.Chem. '
loop_
_publ_author_name
"Xiao-Wu Lei"
"Cheng-Yang Yue"
"Jian-Qiang Zhao"
"Yong-Fang Han"
"Zhong-Ren Ba"
"Chen Wang"
"Xin-Ying Liu"
"Ya-Ping Gong"
"Xin-Yue Liu"
_chemical_name_systematic
;
catena-[tris(2,2'-bipyridine)-manganese tetrakis(\m-iodo)-iodo-tri-silver]
;
_cell_volume   3854.886
_exptl_crystal_colour 'rufous'
_exptl_crystal_density_diffrn 2.553
_exptl_crystal_description 'block'
_diffrn_ambient_temperature 296
#These two values have been output from a single CSD field.
_refine_ls_R_factor_gt 0.0273
_refine_ls_wR_factor_gt 0.0273
_symmetry_cell_setting orthorhombic
_symmetry_space_group_name_H-M 'P 21 21 21'
_symmetry_Int_Tables_number 19
loop_
_symmetry_equiv_pos_site_id
_symmetry_equiv_pos_as_xyz
1 x,y,z
2 1/2-x,-y,1/2+z
3 -x,1/2+y,1/2-z
4 1/2+x,1/2-y,-z
_cell_length_a 12.8572(5)
_cell_length_b 16.5936(6)
_cell_length_c 18.0686(7)
_cell_angle_alpha 90
_cell_angle_beta 90
_cell_angle_gamma 90
_cell_formula_units_Z 4
loop_
_atom_type_symbol
_atom_type_radius_bond
C 0.68
H 0.23
Ag 1.45
I 1.40
Mn 1.61
N 0.68
loop_
_atom_site_label
_atom_site_type_symbol
_atom_site_fract_x
_atom_site_fract_y
_atom_site_fract_z
I1 I 0.11397(3) 0.87196(2) 0.98482(2)
I2 I 0.33066(3) 0.95651(2) 0.80987(2)
I3 I 0.31387(3) 0.68164(2) 0.86389(2)
I4 I -0.03692(3) 0.63479(2) 0.95470(3)
I5 I 0.26492(3) 0.61324(3) 1.10172(2)
Ag1 Ag 0.16718(4) 0.70141(3) 0.98812(3)
Ag2 Ag 0.32325(5) 0.84161(3) 0.92082(3)
Ag3 Ag -0.08929(4) 0.79846(3) 0.97731(4)
Mn1 Mn -0.17466(6) 0.78253(4) 0.59199(4)
N1 N -0.1252(3) 0.8267(3) 0.4800(2)
N2 N -0.3097(3) 0.8642(2) 0.6012(2)
N3 N -0.2288(3) 0.6916(3) 0.5106(2)
N4 N -0.0667(4) 0.8621(3) 0.6557(2)
C1 C -0.1993(4) 0.7020(3) 0.4395(3)
C2 C -0.1436(4) 0.7769(3) 0.4221(3)
C3 C -0.3721(4) 0.8546(3) 0.6601(3)
C4 C -0.2801(5) 0.6246(4) 0.5289(3)
H1 H -0.30030 0.61810 0.57800
N5 N -0.2642(4) 0.7420(3) 0.6923(2)
C5 C -0.0477(5) 0.9224(4) 0.3977(4)
H2 H -0.01630 0.97240 0.39070
C6 C -0.1115(5) 0.7976(4) 0.3512(3)
H3 H -0.12150 0.76230 0.31190
C7 C 0.0082(4) 0.8225(5) 0.6935(3)
C8 C -0.0644(5) 0.8715(5) 0.3402(3)
H4 H -0.04390 0.88650 0.29280
N6 N -0.0351(4) 0.7070(3) 0.6225(3)
C9 C -0.3489(4) 0.7863(3) 0.7092(3)
C10 C -0.0168(6) 0.6308(4) 0.5988(4)
H5 H -0.06400 0.60630 0.56700
C11 C -0.3049(5) 0.5650(3) 0.4799(4)
H6 H -0.34060 0.51910 0.49490
C12 C 0.0295(5) 0.7407(4) 0.6702(3)
C13 C -0.3824(6) 0.7048(5) 0.8150(3)
H7 H -0.42220 0.69200 0.85630
C14 C -0.2397(6) 0.6813(4) 0.7366(3)
H8 H -0.18080 0.65100 0.72560
C15 C -0.4095(5) 0.9807(4) 0.5658(4)
H9 H -0.42070 1.02250 0.53240
C16 C -0.4099(5) 0.7687(4) 0.7705(3)
H10 H -0.46840 0.79950 0.78130
C17 C -0.2972(7) 0.6608(4) 0.7982(3)
H11 H -0.27760 0.61740 0.82770
C18 C -0.4711(6) 0.9710(4) 0.6247(5)
H12 H -0.52570 1.00660 0.63320
C19 C -0.0790(5) 0.8974(4) 0.4667(3)
H13 H -0.06730 0.93170 0.50650
C20 C -0.3290(5) 0.9271(3) 0.5560(3)
H14 H -0.28510 0.93470 0.51570
C21 C -0.2233(5) 0.6439(4) 0.3869(3)
H15 H -0.20430 0.65160 0.33780
C22 C -0.4532(5) 0.9079(4) 0.6728(4)
H16 H -0.49580 0.90100 0.71400
C23 C 0.1180(6) 0.6973(7) 0.6948(5)
H17 H 0.16320 0.72050 0.72880
C24 C 0.1370(6) 0.6216(7) 0.6688(6)
H18 H 0.19550 0.59330 0.68430
C25 C -0.0267(8) 0.9830(6) 0.7203(5)
H19 H -0.03670 1.03800 0.72680
C26 C -0.0831(6) 0.9408(5) 0.6682(4)
H20 H -0.13380 0.96760 0.64090
C27 C 0.0626(6) 0.8625(7) 0.7491(4)
H21 H 0.11140 0.83460 0.77720
C28 C 0.0455(7) 0.9411(8) 0.7628(5)
H22 H 0.08160 0.96720 0.80040
C29 C -0.2748(6) 0.5755(4) 0.4072(4)
H23 H -0.28960 0.53610 0.37210
C30 C 0.0705(8) 0.5889(6) 0.6208(5)
H24 H 0.08310 0.53760 0.60200
I3C I -0.18613(3) 0.81836(2) 1.13611(2)
I4C I 0.46308(3) 0.86521(2) 1.04530(3)
I5C I -0.23508(3) 0.88676(3) 0.89828(2)
Ag2C Ag -0.17675(5) 0.65839(3) 1.07918(3)
Ag3C Ag 0.41071(4) 0.70154(3) 1.02269(4)
#END
