
#######################################################################
#
#                 Cambridge Crystallographic Data Centre
#                                CCDC
#
#######################################################################
#
# If this CIF has been generated from an entry in the Cambridge
# Structural Database, then it will include bibliographic, chemical,
# crystal, experimental, refinement or atomic coordinate data resulting
# from the CCDC's data processing and validation procedures.
#
#######################################################################

data_CSD_CIF_PUNKIU
_audit_creation_date 2015-08-24
_audit_creation_method CSD-ConQuest-V1
_database_code_CSD PUNKIU
_database_code_depnum_ccdc_archive 'CCDC 1058972'
_chemical_formula_sum 'C30 H24 Ag3 I5 N6 Zn1'
_chemical_formula_moiety
;
(C30 H24 N6 Zn1 2+)n,n(Ag3 I5 2-)
;
_journal_coden_Cambridge 1290
_journal_year 2015
_journal_page_first 4412
_journal_name_full 'Eur.J.Inorg.Chem. '
loop_
_publ_author_name
"Xiao-Wu Lei"
"Cheng-Yang Yue"
"Jian-Qiang Zhao"
"Yong-Fang Han"
"Zhong-Ren Ba"
"Chen Wang"
"Xin-Ying Liu"
"Ya-Ping Gong"
"Xin-Yue Liu"
_chemical_name_systematic
;
catena-[tris(2,2'-bipyridine)-zinc tetrakis(\m-iodo)-iodo-tri-silver]
;
_cell_volume   3799.673
_exptl_crystal_colour 'rufous'
_exptl_crystal_density_diffrn 2.608
_exptl_crystal_description 'block'
_diffrn_ambient_temperature 296
#These two values have been output from a single CSD field.
_refine_ls_R_factor_gt 0.0313
_refine_ls_wR_factor_gt 0.0313
_symmetry_cell_setting orthorhombic
_symmetry_space_group_name_H-M 'P 21 21 21'
_symmetry_Int_Tables_number 19
loop_
_symmetry_equiv_pos_site_id
_symmetry_equiv_pos_as_xyz
1 x,y,z
2 1/2-x,-y,1/2+z
3 -x,1/2+y,1/2-z
4 1/2+x,1/2-y,-z
_cell_length_a 12.8912(8)
_cell_length_b 16.4601(10)
_cell_length_c 17.9069(11)
_cell_angle_alpha 90
_cell_angle_beta 90
_cell_angle_gamma 90
_cell_formula_units_Z 4
loop_
_atom_type_symbol
_atom_type_radius_bond
C 0.68
H 0.23
Ag 1.45
I 1.40
N 0.68
Zn 1.22
loop_
_atom_site_label
_atom_site_type_symbol
_atom_site_fract_x
_atom_site_fract_y
_atom_site_fract_z
I1 I 0.61446(3) 0.12867(3) 0.98176(2)
I2 I 0.81473(4) 0.32326(3) 0.86261(2)
I3 I 0.83097(3) 0.04498(3) 0.80450(2)
I4 I 0.46244(3) 0.36614(3) 0.95876(3)
I5 I 0.76611(4) 0.38860(3) 1.10400(3)
Ag1 Ag 0.66847(5) 0.30024(4) 0.98890(3)
Ag2 Ag 0.82237(5) 0.16086(4) 0.91629(3)
Ag3 Ag 0.41032(5) 0.20053(4) 0.97689(4)
Zn1 Zn 0.67373(5) -0.28637(4) 0.90573(3)
N1 N 0.6211(3) -0.3290(3) 1.0140(3)
N2 N 0.7269(4) -0.1959(3) 0.9816(3)
N3 N 0.8069(4) -0.3614(3) 0.9017(2)
C1 C 0.6971(4) -0.2036(4) 1.0540(3)
N4 N 0.5783(4) -0.3689(4) 0.8442(3)
C2 C 0.7785(5) -0.1279(4) 0.9606(4)
H1 H 0.79830 -0.12250 0.91090
C3 C 0.8702(4) -0.3515(4) 0.8427(3)
C4 C 0.8281(5) -0.4236(4) 0.9486(4)
H2 H 0.78490 -0.43130 0.98960
N5 N 0.7559(4) -0.2433(3) 0.8069(3)
C5 C 0.6419(4) -0.2785(4) 1.0719(3)
C6 C 0.6113(5) -0.2989(4) 1.1446(3)
H3 H 0.62290 -0.26310 1.18390
C7 C 0.8442(4) -0.2847(4) 0.7917(3)
C8 C 0.5460(5) -0.4253(5) 1.0988(4)
H4 H 0.51580 -0.47590 1.10650
C9 C 0.5637(5) -0.3728(5) 1.1573(4)
H5 H 0.54360 -0.38710 1.20540
C10 C 0.8027(5) -0.0670(4) 1.0095(4)
H6 H 0.83950 -0.02160 0.99370
C11 C 0.5139(6) -0.1398(5) 0.9005(4)
H7 H 0.56030 -0.11410 0.93250
N6 N 0.5348(4) -0.2151(4) 0.8788(3)
C12 C 0.7196(5) -0.1434(4) 1.1054(3)
H8 H 0.70000 -0.14910 1.15510
C13 C 0.4968(5) -0.3352(6) 0.8086(4)
C14 C 0.3831(6) -0.2113(7) 0.8034(5)
H9 H 0.33980 -0.23630 0.76870
C15 C 0.4709(5) -0.2514(5) 0.8310(4)
C16 C 0.8765(6) -0.2008(6) 0.6858(4)
H10 H 0.91770 -0.18600 0.64540
C17 C 0.7283(6) -0.1840(4) 0.7609(4)
H11 H 0.66670 -0.15640 0.77040
C18 C 0.7861(7) -0.1612(5) 0.6998(4)
H12 H 0.76370 -0.11950 0.66860
C19 C 0.9062(5) -0.2629(5) 0.7322(4)
H13 H 0.96810 -0.29030 0.72360
C20 C 0.5744(5) -0.4005(4) 1.0290(4)
H14 H 0.56050 -0.43510 0.98920
C21 C 0.7715(6) -0.0747(4) 1.0821(4)
H15 H 0.78530 -0.03330 1.11600
C22 C 0.9114(6) -0.4770(4) 0.9390(4)
H16 H 0.92340 -0.51900 0.97260
C23 C 0.5392(8) -0.4968(6) 0.7872(5)
H17 H 0.55070 -0.55240 0.78300
C24 C 0.5989(6) -0.4485(5) 0.8322(4)
H18 H 0.65630 -0.47150 0.85570
C25 C 0.9737(6) -0.4655(5) 0.8794(5)
H19 H 1.03040 -0.49940 0.87170
C26 C 0.9534(6) -0.4041(5) 0.8305(4)
H20 H 0.99530 -0.39720 0.78870
C27 C 0.4576(7) -0.4566(9) 0.7468(5)
H21 H 0.41810 -0.48550 0.71240
C28 C 0.4380(6) -0.3772(7) 0.7586(5)
H22 H 0.38470 -0.35140 0.73290
C29 C 0.3627(7) -0.1352(8) 0.8282(7)
H23 H 0.30410 -0.10820 0.81110
C30 C 0.4266(7) -0.0978(6) 0.8779(5)
H24 H 0.41210 -0.04600 0.89590
I2C I 0.31473(4) 0.17674(3) 1.13739(2)
I4C I 0.96244(3) 0.13386(3) 1.04124(3)
I5C I 0.26611(4) 0.11140(3) 0.89600(3)
Ag2C Ag 0.32237(5) 0.33914(4) 1.08371(3)
Ag3C Ag 0.91032(5) 0.29947(4) 1.02311(4)
#END
