
#######################################################################
#
#                 Cambridge Crystallographic Data Centre
#                                CCDC
#
#######################################################################
#
# If this CIF has been generated from an entry in the Cambridge
# Structural Database, then it will include bibliographic, chemical,
# crystal, experimental, refinement or atomic coordinate data resulting
# from the CCDC's data processing and validation procedures.
#
#######################################################################

data_CSD_CIF_PUNLAN
_audit_creation_date 2015-08-24
_audit_creation_method CSD-ConQuest-V1
_database_code_CSD PUNLAN
_database_code_depnum_ccdc_archive 'CCDC 1058975'
_chemical_formula_sum 'C30 H24 Ag3 Co1 I5 N6'
_chemical_formula_moiety
;
(C30 H24 Co1 N6 2+)n,n(Ag3 I5 2-)
;
_journal_coden_Cambridge 1290
_journal_year 2015
_journal_page_first 4412
_journal_name_full 'Eur.J.Inorg.Chem. '
loop_
_publ_author_name
"Xiao-Wu Lei"
"Cheng-Yang Yue"
"Jian-Qiang Zhao"
"Yong-Fang Han"
"Zhong-Ren Ba"
"Chen Wang"
"Xin-Ying Liu"
"Ya-Ping Gong"
"Xin-Yue Liu"
_chemical_name_systematic
;
catena-[tris(2,2'-bipyridine)-cobalt tetrakis(\m-iodo)-iodo-tri-silver]
;
_cell_volume   3786.672
_exptl_crystal_colour 'rufous'
_exptl_crystal_density_diffrn 2.606
_exptl_crystal_description 'block'
_diffrn_ambient_temperature 293
#These two values have been output from a single CSD field.
_refine_ls_R_factor_gt 0.0275
_refine_ls_wR_factor_gt 0.0275
_symmetry_cell_setting orthorhombic
_symmetry_space_group_name_H-M 'P 21 21 21'
_symmetry_Int_Tables_number 19
loop_
_symmetry_equiv_pos_site_id
_symmetry_equiv_pos_as_xyz
1 x,y,z
2 1/2-x,-y,1/2+z
3 -x,1/2+y,1/2-z
4 1/2+x,1/2-y,-z
_cell_length_a 12.9149(19)
_cell_length_b 16.413(3)
_cell_length_c 17.864(3)
_cell_angle_alpha 90
_cell_angle_beta 90
_cell_angle_gamma 90
_cell_formula_units_Z 4
loop_
_atom_type_symbol
_atom_type_radius_bond
C 0.68
H 0.23
Ag 1.45
Co 1.26
I 1.40
N 0.68
loop_
_atom_site_label
_atom_site_type_symbol
_atom_site_fract_x
_atom_site_fract_y
_atom_site_fract_z
Ag1 Ag 0.32217(5) 0.16128(3) 0.91479(3)
I1 I 0.46267(3) 0.13348(2) 1.03986(3)
I2 I 0.31588(3) 0.32471(2) 0.862205(19)
Ag2 Ag 0.66943(4) 0.19948(3) 1.01079(3)
Ag3 Ag 0.41039(4) 0.29991(3) 1.02262(4)
I3 I 0.76706(3) 0.11074(2) 0.89529(2)
I4 I 0.61505(3) 0.37121(2) 1.01920(2)
I5 I 0.83150(3) 0.45524(2) 1.197397(19)
Co1 Co 0.82789(5) 0.21256(3) 0.59549(3)
N1 N 0.8799(3) 0.1702(2) 0.4886(2)
N2 N 0.6931(3) 0.1393(2) 0.5972(2)
N3 N 0.7722(3) 0.3035(2) 0.5215(2)
C1 C 0.8031(4) 0.2962(3) 0.4490(2)
C2 C 0.6727(5) 0.0782(3) 0.5490(3)
H1 H 0.71570 0.07100 0.50770
C3 C 0.6589(4) 0.2165(3) 0.7076(3)
C4 C 0.7210(5) 0.3704(3) 0.5424(3)
H2 H 0.69980 0.37480 0.59200
N4 N 0.9181(4) 0.1290(3) 0.6577(2)
C5 C 0.8591(4) 0.2200(3) 0.4307(2)
C6 C 0.6323(4) 0.1497(3) 0.6567(3)
N5 N 0.7483(4) 0.2539(2) 0.6942(2)
C7 C 0.9266(4) 0.0988(3) 0.4747(3)
H3 H 0.94060 0.06420 0.51470
N6 N 0.9650(4) 0.2802(3) 0.6215(2)
C8 C 0.9879(6) 0.3561(4) 0.5993(3)
H4 H 0.94300 0.38160 0.56600
C9 C 0.8960(6) 0.0496(4) 0.6683(4)
H5 H 0.83740 0.02820 0.64530
C10 C 0.9551(5) 0.0744(3) 0.4032(4)
H6 H 0.98610 0.02410 0.39490
C11 C 0.6981(5) 0.4327(3) 0.4944(3)
H7 H 0.66270 0.47860 0.51090
C12 C 0.9360(5) 0.1265(4) 0.3454(3)
H8 H 0.95510 0.11190 0.29700
C13 C 0.8892(5) 0.1997(4) 0.3579(3)
H9 H 0.87750 0.23560 0.31850
C14 C 0.7795(5) 0.3565(3) 0.3976(3)
H10 H 0.79790 0.35010 0.34770
C15 C 0.7290(5) 0.4255(3) 0.4203(3)
H11 H 0.71560 0.46720 0.38640
C16 C 0.5961(5) 0.2399(4) 0.7674(3)
H12 H 0.53320 0.21370 0.77540
C17 C 0.7201(6) 0.3378(4) 0.8021(3)
H13 H 0.74390 0.37840 0.83410
C18 C 0.5895(5) 0.0257(4) 0.5589(4)
H14 H 0.57730 -0.01590 0.52470
C19 C 0.9557(8) -0.0011(5) 0.7114(5)
H15 H 0.94190 -0.05670 0.71420
C20 C 0.6264(6) 0.3009(5) 0.8140(3)
H16 H 0.58410 0.31730 0.85340
C21 C 1.0030(4) 0.1604(4) 0.6913(3)
C22 C 0.5267(6) 0.0353(4) 0.6182(5)
H17 H 0.47050 0.00080 0.62560
C23 C 0.7791(5) 0.3129(4) 0.7406(3)
H18 H 0.84230 0.33830 0.73180
C24 C 1.1157(5) 0.2852(7) 0.6971(5)
H19 H 1.15840 0.26050 0.73230
C25 C 1.0289(4) 0.2443(4) 0.6703(3)
C26 C 1.0741(7) 0.3987(5) 0.6228(5)
H20 H 1.08720 0.45110 0.60540
C27 C 1.1383(6) 0.3626(6) 0.6714(6)
H21 H 1.19760 0.38940 0.68770
C28 C 0.5480(5) 0.0983(4) 0.6683(4)
H22 H 0.50560 0.10610 0.70980
C29 C 1.0614(6) 0.1145(7) 0.7412(5)
H23 H 1.11560 0.13830 0.76760
C30 C 1.0383(7) 0.0338(7) 0.7511(5)
H24 H 1.07720 0.00230 0.78400
I2C I 0.81588(3) 0.17529(2) 1.137795(19)
I3C I 0.26706(3) 0.38926(2) 1.10471(2)
Ag3C Ag 0.91039(4) 0.20009(3) 0.97738(4)
Ag1C Ag 0.82217(5) 0.33872(3) 1.08521(3)
I1C I 0.96267(3) 0.36652(2) 0.96014(3)
#END
