
#######################################################################
#
#                 Cambridge Crystallographic Data Centre
#                                CCDC
#
#######################################################################
#
# If this CIF has been generated from an entry in the Cambridge
# Structural Database, then it will include bibliographic, chemical,
# crystal, experimental, refinement or atomic coordinate data resulting
# from the CCDC's data processing and validation procedures.
#
#######################################################################

data_CSD_CIF_PUNYON
_audit_creation_date 2010-09-06
_audit_creation_method CSD-ConQuest-V1
_database_code_CSD PUNYON
_database_code_depnum_ccdc_archive 'CCDC 724748'
_chemical_formula_sum 'C15 H19 N1 Ni3 O16'
_chemical_formula_moiety
;
(C2 H8 N1 1+)n,n(C13 H9 Ni3 O15 1-),n(H2 O1)
;
_journal_coden_Cambridge 155
_journal_volume 363
_journal_year 2010
_journal_page_first 645
_journal_name_full 'Inorg.Chim.Acta '
loop_
_publ_author_name
"Ying Fu"
"Jie Su"
"Sihai Yang"
"Guobao Li"
"Fuhui Liao"
"Ming Xiong"
"Jianhua Lin"
_chemical_name_systematic
;
catena-(Dimethylammonium 
(\m~6~-benzene-1,3,5-tricarboxylato)-tris(\m~3~-formato)-(\m~2~-formato)-aqua-
tri-nickel monohydrate)
;
_cell_volume   1992.260
_exptl_crystal_colour 'green'
_exptl_crystal_density_diffrn 2.152
_exptl_special_details
;
isostructural with the Mn and Co analogues

;
_exptl_crystal_description 'block'
_diffrn_ambient_temperature 120
#These two values have been output from a single CSD field.
_refine_ls_R_factor_gt 0.0421
_refine_ls_wR_factor_gt 0.0421
_symmetry_cell_setting monoclinic
_symmetry_space_group_name_H-M 'P 21/c'
_symmetry_Int_Tables_number 14
loop_
_symmetry_equiv_pos_site_id
_symmetry_equiv_pos_as_xyz
1 x,y,z
2 -x,1/2+y,1/2-z
3 -x,-y,-z
4 x,-1/2-y,-1/2+z
_cell_length_a 9.5399(19)
_cell_length_b 13.783(3)
_cell_length_c 15.154(3)
_cell_angle_alpha 90
_cell_angle_beta 91.02(3)
_cell_angle_gamma 90
_cell_formula_units_Z 4
loop_
_atom_type_symbol
_atom_type_radius_bond
C 0.68
H 0.23
N 0.68
Ni 1.29
O 0.68
loop_
_atom_site_label
_atom_site_type_symbol
_atom_site_fract_x
_atom_site_fract_y
_atom_site_fract_z
Ni1 Ni 0.78596(5) -0.11429(4) 0.05199(3)
Ni2 Ni 1.46389(5) -0.26676(4) 0.52093(3)
Ni3 Ni 0.69252(5) 0.10290(3) 0.15238(3)
O1 O 1.4249(3) -0.1801(2) 0.41298(19)
O2 O 0.9073(3) 0.0782(2) 0.15647(19)
O3 O 0.9386(3) -0.0829(2) 0.14178(19)
O4 O 1.3818(3) 0.16886(19) 0.44911(18)
O5 O 1.2190(3) 0.2565(2) 0.37567(19)
O6 O 1.3327(3) -0.1744(2) 0.58921(18)
O7 O 0.5199(3) -0.1237(2) -0.16609(18)
O8 O 0.9233(3) -0.1792(2) -0.03409(18)
H1 H 0.97400 -0.14850 -0.06720
H2 H 0.96820 -0.21820 -0.00410
O9 O 0.6862(3) 0.1316(2) 0.01879(18)
O10 O 1.3053(3) -0.0855(2) 0.71020(19)
O11 O 0.6493(3) -0.0429(2) 0.13233(18)
O12 O 0.4821(3) -0.1572(2) 0.13873(18)
O13 O 0.6175(3) -0.1495(2) -0.03210(18)
O14 O 1.2621(3) -0.2569(2) 0.3288(2)
O15 O 0.8169(3) 0.0062(2) -0.02646(18)
C1 C 1.1319(4) 0.0878(3) 0.2799(3)
H3 H 1.08850 0.14580 0.26410
C2 C 1.1538(4) -0.0864(3) 0.2652(3)
H4 H 1.12520 -0.14450 0.23940
C3 C 1.2400(4) 0.0878(3) 0.3439(3)
C4 C 1.3048(4) 0.0001(3) 0.3671(3)
H5 H 1.37800 -0.00030 0.40850
C5 C 1.2832(4) 0.1794(3) 0.3928(3)
C6 C 0.6216(4) -0.1259(3) -0.1136(3)
H6 H 0.70850 -0.10880 -0.13570
C7 C 1.3224(4) -0.1819(3) 0.3592(3)
C8 C 1.3632(4) -0.1532(3) 0.6681(3)
H7 H 1.43220 -0.18950 0.69700
C9 C 1.0887(4) 0.0007(3) 0.2396(2)
C10 C 0.9682(4) -0.0012(3) 0.1732(2)
C11 C 0.7628(4) 0.0874(3) -0.0362(3)
H8 H 0.77980 0.11920 -0.08910
C12 C 0.5416(4) -0.0816(3) 0.1645(3)
H9 H 0.50260 -0.05030 0.21250
C13 C 1.2602(4) -0.0866(3) 0.3287(3)
N1 N 0.7267(4) -0.0841(3) 0.3898(2)
H10 H 0.66810 -0.10530 0.43150
H11 H 0.68460 -0.03450 0.36130
C14 C 0.7524(5) -0.1637(3) 0.3262(3)
H12 H 0.80140 -0.13860 0.27630
H13 H 0.66450 -0.19080 0.30670
H14 H 0.80810 -0.21320 0.35430
C15 C 0.8587(5) -0.0488(3) 0.4330(3)
H15 H 0.90120 -0.10060 0.46630
H16 H 0.83770 0.00410 0.47190
H17 H 0.92220 -0.02700 0.38870
O16 O 1.0543(3) -0.3085(2) 0.0637(2)
H18 H 1.14010 -0.31170 0.06390
H19 H 1.02750 -0.29760 0.11390
Ni1A Ni 1.21404(5) 0.38571(4) 0.44801(3)
Ni2B Ni 1.53611(5) 0.26676(4) 0.47907(3)
Ni2A Ni 0.53611(5) 0.23324(4) -0.02093(3)
Ni2C Ni 0.46389(5) -0.23324(4) 0.02093(3)
Ni3B Ni 0.30748(5) -0.10290(3) -0.15238(3)
Ni3B* Ni 1.30748(5) -0.10290(3) 0.84762(3)
Ni3A Ni 1.30748(5) -0.39710(3) 0.34762(3)
O4B O 1.6182(3) -0.16886(19) 0.55089(18)
O5A O 0.7810(3) -0.2435(2) 0.12433(19)
O7B O 0.4801(3) 0.1237(2) 0.16609(18)
O9A O 1.3138(3) -0.3684(2) 0.48121(18)
O10B O 0.6947(3) 0.0855(2) 0.28980(19)
O12C O 1.4821(3) -0.3428(2) 0.63873(18)
O13C O 1.6175(3) -0.3505(2) 0.46790(18)
O14A O 0.7379(3) 0.2431(2) 0.1712(2)
#END
