
#######################################################################
#
#                 Cambridge Crystallographic Data Centre
#                                CCDC
#
#######################################################################
#
# If this CIF has been generated from an entry in the Cambridge
# Structural Database, then it will include bibliographic, chemical,
# crystal, experimental, refinement or atomic coordinate data resulting
# from the CCDC's data processing and validation procedures.
#
#######################################################################

data_CSD_CIF_PURNEX
_audit_creation_date 2015-08-25
_audit_creation_method CSD-ConQuest-V1
_database_code_CSD PURNEX
_database_code_depnum_ccdc_archive 'CCDC 1056908'
_chemical_formula_sum 'C24 H26 Cu1 N8 O42 Si1 W12'
_chemical_formula_moiety
;
(C12 H10 Cu1 N4 O40 Si1 W12 2-)n,n(C12 H12 N4 2+),2n(H2 O1)
;
_journal_coden_Cambridge 920
_journal_volume 10
_journal_year 2015
_journal_page_first 1676
_journal_name_full 'Chem.Asian J. '
loop_
_publ_author_name
"Hong-Fang Hao"
"Hua-Qiao Tan"
"Yong-Hui Wang"
"Hong-Ying Zang"
"Yang-Guang Li"
_chemical_name_systematic
;
catena-(1,1'-(1,4-phenylene)bis(1H-imidazol-3-ium) 
(\m~12~-silicato)-octacosakis(\m~2~-oxo)-(\m~2~-1,1'-(1,4-phenylene)bis(1H-imi
dazole))-octaoxo-copper-dodeca-tungsten dihydrate)
;
_cell_volume   5154.072
_exptl_crystal_colour 'yellow'
_exptl_crystal_density_diffrn 4.377
_exptl_crystal_description 'block'
_diffrn_ambient_temperature 298
#These two values have been output from a single CSD field.
_refine_ls_R_factor_gt 0.0664
_refine_ls_wR_factor_gt 0.0664
_symmetry_cell_setting monoclinic
_symmetry_space_group_name_H-M 'C 2/c'
_symmetry_Int_Tables_number 15
loop_
_symmetry_equiv_pos_site_id
_symmetry_equiv_pos_as_xyz
1 x,y,z
2 -x,y,1/2-z
3 1/2+x,1/2+y,z
4 1/2-x,1/2+y,1/2-z
5 -x,-y,-z
6 x,-y,-1/2+z
7 -1/2-x,-1/2-y,-z
8 -1/2+x,-1/2-y,-1/2+z
_cell_length_a 24.6803(12)
_cell_length_b 10.5966(6)
_cell_length_c 19.9825(11)
_cell_angle_alpha 90
_cell_angle_beta 99.515(5)
_cell_angle_gamma 90
_cell_formula_units_Z 4
loop_
_atom_type_symbol
_atom_type_radius_bond
C 0.68
H 0.23
Cu 1.32
N 0.68
O 0.68
Si 1.20
W 1.62
loop_
_atom_site_label
_atom_site_type_symbol
_atom_site_fract_x
_atom_site_fract_y
_atom_site_fract_z
W1 W 0.39665(3) -0.22851(8) 0.71032(4)
W2 W 0.38151(3) -0.01046(7) 0.82811(4)
W3 W 0.48530(3) 0.24111(8) 0.86776(4)
W4 W 0.39832(3) 0.22945(8) 0.69858(4)
W5 W 0.47565(3) -0.24003(8) 0.86331(4)
W6 W 0.42312(3) 0.01187(8) 0.58521(5)
Si1 Si 0.50000 0.0000(6) 0.75000
O1 O 0.4558(4) -0.0923(11) 0.7782(6)
O2 O 0.3757(5) 0.1389(13) 0.6172(7)
O3 O 0.5298(5) 0.0870(12) 0.8103(7)
O4 O 0.5490(5) 0.3147(12) 0.8474(7)
O5 O 0.3513(5) -0.1419(12) 0.7613(7)
O6 O 0.3727(5) 0.1023(12) 0.7507(7)
O7 O 0.5368(5) -0.2782(13) 0.8214(8)
O8 O 0.4271(5) -0.3186(13) 0.7936(7)
O9 O 0.4683(5) 0.1419(13) 0.5631(7)
O10 O 0.4130(5) -0.1463(13) 0.8841(7)
O11 O 0.4443(5) 0.2783(13) 0.7823(8)
O12 O 0.5200(5) -0.1083(13) 0.9086(7)
O13 O 0.4318(5) 0.1084(12) 0.8722(7)
O14 O 0.3910(5) -0.1042(12) 0.6454(7)
O15 O 0.3503(5) -0.3378(13) 0.6761(7)
O16 O 0.3235(5) 0.0188(12) 0.8589(7)
O17 O 0.3470(6) 0.3355(13) 0.6941(7)
O18 O 0.3854(6) -0.0167(13) 0.5071(8)
O19 O 0.4642(5) 0.3551(12) 0.9205(7)
O20 O 0.4803(5) -0.3546(13) 0.9240(7)
Cu1 Cu 0.50000 0.50000 1.00000
N1 N 0.5730(4) 0.4756(11) 0.9803(7)
C1 C 0.6068(5) 0.3723(10) 0.9968(7)
H1 H 0.59790 0.29950 1.01860
N2 N 0.6562(4) 0.3961(11) 0.9751(7)
C2 C 0.6529(5) 0.5141(12) 0.9451(8)
H2 H 0.68040 0.55350 0.92620
C3 C 0.6015(5) 0.5632(11) 0.9483(8)
H3 H 0.58840 0.64150 0.93190
C4 C 0.7099(8) 0.2328(17) 1.0396(9)
H4 H 0.68270 0.22170 1.06620
C5 C 0.7028(7) 0.3205(17) 0.9878(9)
C6 C 0.7429(8) 0.338(2) 0.9480(12)
H5 H 0.73800 0.39770 0.91330
N3 N 0.7262(6) 0.4584(14) 1.1858(8)
H6 H 0.73850 0.40240 1.21560
C7 C 0.7562(5) 0.5201(15) 1.1431(8)
H7 H 0.79330 0.50820 1.14150
N4 N 0.7213(6) 0.6025(13) 1.1031(7)
C8 C 0.6697(5) 0.5918(15) 1.1211(8)
H8 H 0.63850 0.63650 1.10220
C9 C 0.6727(6) 0.5027(15) 1.1722(9)
H9 H 0.64390 0.47710 1.19370
C10 C 0.7765(8) 0.638(2) 1.0178(11)
H10 H 0.79360 0.56090 1.02810
C11 C 0.7364(8) 0.6779(16) 1.0535(9)
C12 C 0.7085(9) 0.787(2) 1.0334(14)
H11 H 0.67920 0.81190 1.05440
O21 O 0.2469(6) -0.2486(14) 0.7539(11)
H12 H 0.27410 -0.20380 0.74730
H13 H 0.22750 -0.20460 0.77660
O1A O 0.5442(4) -0.0923(11) 0.7218(6)
O3A O 0.4702(5) 0.0870(12) 0.6897(7)
N1F N 0.9270(4) 0.0244(11) 1.0197(7)
C1F C 0.8932(5) 0.1277(10) 1.0032(7)
H1F H 0.90210 0.20050 0.98140
N2F N 0.8438(4) 0.1039(11) 1.0249(7)
C2F C 0.8471(5) -0.0141(12) 1.0549(8)
H2F H 0.81960 -0.05350 1.07380
C3F C 0.8985(5) -0.0632(11) 1.0517(8)
H3F H 0.91160 -0.14150 1.06810
C4F C 0.7901(8) 0.2672(17) 0.9604(9)
H4F H 0.81730 0.27830 0.93380
C5F C 0.7972(7) 0.1795(17) 1.0122(9)
C6F C 0.7571(8) 0.162(2) 1.0520(12)
H5F H 0.76200 0.10230 1.08670
W1A W 0.60335(3) -0.22851(8) 0.78968(4)
W2A W 0.61849(3) -0.01046(7) 0.67189(4)
W3A W 0.51470(3) 0.24111(8) 0.63224(4)
W4A W 0.60168(3) 0.22945(8) 0.80142(4)
W5A W 0.52435(3) -0.24003(8) 0.63669(4)
W6A W 0.57688(3) 0.01187(8) 0.91479(5)
O2A O 0.6243(5) 0.1389(13) 0.8828(7)
O4A O 0.4510(5) 0.3147(12) 0.6526(7)
O5A O 0.6487(5) -0.1419(12) 0.7387(7)
O6A O 0.6273(5) 0.1023(12) 0.7493(7)
O7A O 0.4632(5) -0.2782(13) 0.6786(8)
O8A O 0.5729(5) -0.3186(13) 0.7064(7)
O9A O 0.5317(5) 0.1419(13) 0.9369(7)
O10A O 0.5870(5) -0.1463(13) 0.6159(7)
O11A O 0.5557(5) 0.2783(13) 0.7177(8)
O12A O 0.4800(5) -0.1083(13) 0.5914(7)
O13A O 0.5682(5) 0.1084(12) 0.6278(7)
O14A O 0.6090(5) -0.1042(12) 0.8546(7)
O15A O 0.6497(5) -0.3378(13) 0.8239(7)
O16A O 0.6765(5) 0.0188(12) 0.6411(7)
O17A O 0.6530(6) 0.3355(13) 0.8059(7)
O18A O 0.6146(6) -0.0167(13) 0.9929(8)
O19A O 0.5358(5) 0.3551(12) 0.5795(7)
O20A O 0.5197(5) -0.3546(13) 0.5760(7)
O19D O 0.5358(5) 0.6449(12) 1.0795(7)
O20* O 0.4803(5) 0.6454(13) 0.9240(7)
O20D O 0.5197(5) 0.3546(13) 1.0760(7)
Cu1* Cu 0.50000 -0.50000 1.00000
Cu1A Cu 0.50000 -0.50000 0.50000
Cu1A* Cu 0.50000 0.50000 0.50000
Cu1B Cu 1.00000 0.00000 1.00000
N1D N 0.4270(4) 0.5244(11) 1.0197(7)
N3F N 0.7738(6) 1.0416(14) 0.8142(8)
H6F H 0.76150 1.09760 0.78440
C7F C 0.7438(5) 0.9799(15) 0.8569(8)
H7F H 0.70670 0.99180 0.85850
N4F N 0.7787(6) 0.8975(13) 0.8969(7)
C8F C 0.8303(5) 0.9082(15) 0.8789(8)
H8F H 0.86150 0.86350 0.89780
C9F C 0.8273(6) 0.9973(15) 0.8278(9)
H9F H 0.85610 1.02290 0.80630
C10F C 0.7235(8) 0.862(2) 0.9822(11)
H10F H 0.70640 0.93910 0.97190
C11F C 0.7636(8) 0.8221(16) 0.9465(9)
C12F C 0.7915(9) 0.713(2) 0.9666(14)
H11F H 0.82080 0.68810 0.94560
#END
