
#######################################################################
#
#                 Cambridge Crystallographic Data Centre
#                                CCDC
#
#######################################################################
#
# If this CIF has been generated from an entry in the Cambridge
# Structural Database, then it will include bibliographic, chemical,
# crystal, experimental, refinement or atomic coordinate data resulting
# from the CCDC's data processing and validation procedures.
#
#######################################################################

data_CSD_CIF_PURTIG
_audit_creation_date 2010-10-03
_audit_creation_method CSD-ConQuest-V1
_database_code_CSD PURTIG
_database_code_depnum_ccdc_archive 'CCDC 741953'
_chemical_formula_sum 'C16 H14.42 Li3 N3 O8.21'
_chemical_formula_moiety
;
(C2 H8 N1 1+)n,n(C14 H6 Li3 N2 O8 1-),0.21n(H2 O1)
;
_journal_coden_Cambridge 1147
_journal_volume 10
_journal_year 2010
_journal_page_first 709
_journal_name_full 'Cryst.Growth Des. '
loop_
_publ_author_name
"D.Banerjee"
"Sun Jin Kim"
"L.A.Borkowski"
"Wenqian Xu"
"J.B.Parise"
_chemical_name_systematic
;
catena-(dimethylammonium 
(\m~6~-pyridine-2,6-dicarboxylato)-(\m~4~-pyridine-2,6-dicarboxylato)-tri-lith
ium hydrate)
;
_chemical_name_common
;
ULCP-1
;
_cell_volume   1899.397
_exptl_crystal_colour 'colorless'
_exptl_crystal_density_diffrn 1.401
_exptl_crystal_description 'plate'
_diffrn_ambient_temperature 293
#These two values have been output from a single CSD field.
_refine_ls_R_factor_gt 0.0436
_refine_ls_wR_factor_gt 0.0436
_symmetry_cell_setting monoclinic
_symmetry_space_group_name_H-M 'P 21/c'
_symmetry_Int_Tables_number 14
loop_
_symmetry_equiv_pos_site_id
_symmetry_equiv_pos_as_xyz
1 x,y,z
2 -x,1/2+y,1/2-z
3 -x,-y,-z
4 x,-1/2-y,-1/2+z
_cell_length_a 11.510(2)
_cell_length_b 15.330(3)
_cell_length_c 10.930(2)
_cell_angle_alpha 90
_cell_angle_beta 99.98(3)
_cell_angle_gamma 90
_cell_formula_units_Z 4
loop_
_atom_type_symbol
_atom_type_radius_bond
C 0.68
H 0.23
Li 1.14
N 0.68
O 0.68
loop_
_atom_site_label
_atom_site_type_symbol
_atom_site_fract_x
_atom_site_fract_y
_atom_site_fract_z
O1 O -0.59905(14) -0.06888(10) -0.16375(13)
O2 O -0.31664(14) 0.19171(10) 0.00452(12)
N1 N -0.59187(15) 0.10772(11) -0.37048(14)
O3 O -0.55687(15) 0.27159(10) -0.43380(13)
O4 O -0.52552(15) 0.06519(10) -0.13308(13)
O5 O -0.34784(14) 0.23527(10) -0.19393(13)
N2 N -0.14966(16) 0.32785(12) -0.16004(14)
O6 O -0.11895(16) 0.42308(12) -0.35146(15)
O7 O -0.60401(16) 0.23942(11) -0.63580(13)
C1 C -0.0528(2) 0.37720(16) -0.14592(19)
C2 C -0.60602(19) 0.02482(15) -0.33762(18)
C3 C -0.6583(2) 0.06701(17) -0.5814(2)
H1 H -0.67660 0.08350 -0.66440
C4 C -0.2885(2) 0.23226(14) -0.08613(19)
C5 C -0.6176(2) 0.12791(15) -0.49078(18)
C6 C -0.5743(2) 0.00571(16) -0.19949(18)
C7 C -0.5922(2) 0.22089(16) -0.5233(2)
C8 C -0.1744(2) 0.28416(15) -0.06184(18)
C9 C -0.6428(2) -0.04000(15) -0.4231(2)
H2 H -0.64820 -0.09750 -0.39750
C10 C -0.1036(2) 0.29103(17) 0.0538(2)
H3 H -0.12290 0.26130 0.12170
O8 O 0.06170(17) 0.46305(14) -0.26130(16)
C11 C 0.0226(2) 0.38586(17) -0.0348(2)
H4 H 0.09010 0.42010 -0.02820
C12 C -0.0348(3) 0.42560(17) -0.2624(2)
C13 C -0.6715(2) -0.01835(18) -0.5471(2)
H5 H -0.69910 -0.06050 -0.60620
C14 C -0.0048(3) 0.34225(19) 0.0668(2)
H6 H 0.04370 0.34760 0.14390
Li1 Li -0.4688(4) 0.1309(2) 0.0100(3)
Li2 Li -0.7283(4) -0.1539(3) -0.1785(3)
Li3 Li -0.5193(4) 0.2101(3) -0.2547(3)
N3 N -0.1559(2) -0.04890(19) 0.9749(2)
H7 H -0.115(2) -0.045(2) 0.911(2)
H8 H -0.130(3) -0.0079(17) 1.031(2)
C15 C -0.2822(3) -0.0356(2) 0.9236(3)
H9 H -0.29240 0.01990 0.88220
H10 H -0.32710 -0.03670 0.98980
H11 H -0.30900 -0.08120 0.86530
C16 C -0.1318(4) -0.1330(2) 1.0396(4)
H12 H -0.04880 -0.13800 1.07070
H13 H -0.15650 -0.17980 0.98270
H14 H -0.17450 -0.13590 1.10760
O9 O -0.1749(10) -0.2232(11) 0.7624(15)
H15 H -0.224(18) -0.224(17) 0.694(12)
H16 H -0.237(15) -0.250(16) 0.77(3)
O1B O -0.40095(14) 0.06888(10) 0.16375(13)
O2B O -0.68336(14) -0.19171(10) -0.00452(12)
O3C O -0.55687(15) 0.22841(10) 0.06620(13)
N2A N -0.85034(16) -0.17215(12) -0.33996(14)
O6A O -0.88105(16) -0.07692(12) -0.14854(15)
O7C O -0.60401(16) 0.26058(11) -0.13580(13)
Li1B Li -0.5312(4) -0.1309(2) -0.0100(3)
Li1C Li -0.4688(4) 0.3691(2) -0.4900(3)
Li2A Li -0.2717(4) 0.3461(3) -0.3215(3)
Li2B Li -0.2717(4) 0.1539(3) 0.1785(3)
Li3C Li -0.5193(4) 0.2899(3) -0.7547(3)
#END
