
#######################################################################
#
#                 Cambridge Crystallographic Data Centre
#                                CCDC
#
#######################################################################
#
# If this CIF has been generated from an entry in the Cambridge
# Structural Database, then it will include bibliographic, chemical,
# crystal, experimental, refinement or atomic coordinate data resulting
# from the CCDC's data processing and validation procedures.
#
#######################################################################

data_CSD_CIF_PUSXIL01
_audit_creation_date 2010-06-29
_audit_creation_method CSD-ConQuest-V1
_database_code_CSD PUSXIL01
_database_code_depnum_ccdc_archive 'CCDC 746472'
_chemical_formula_sum 'C16 H12 O16 P2 Zn3'
_chemical_formula_moiety
;
(C16 H6 O14 P2 Zn3 2-)n,2n(H3 O1 1+)
;
_journal_coden_Cambridge 182
_journal_volume 46
_journal_year 2010
_journal_page_first 1100
_journal_name_full 'Chem.Commun. '
loop_
_publ_author_name
"Teng-Biao Liao"
"Yun Ling"
"Zhen-Xia Chen"
"Ya-Ming Zhou"
"Lin-Hong Weng"
_chemical_name_systematic
;
catena-(bis(\m~6~-5-phosphonoisophthato)-tri-zinc(ii) bis(oxonium))
;
_cell_volume   7816.803
_exptl_crystal_colour 'colorless'
_exptl_crystal_density_diffrn 1.221
_exptl_special_details
;
polymorph 1b

;
_exptl_crystal_description 'rod'
_diffrn_ambient_temperature 293
#These two values have been output from a single CSD field.
_refine_ls_R_factor_gt 0.0649
_refine_ls_wR_factor_gt 0.0649
_symmetry_cell_setting tetragonal
_symmetry_space_group_name_H-M 'I -4 2 d'
_symmetry_Int_Tables_number 122
loop_
_symmetry_equiv_pos_site_id
_symmetry_equiv_pos_as_xyz
1 x,y,z
2 -x,-y,z
3 y,-x,-z
4 -y,x,-z
5 1/2-x,y,3/4-z
6 1/2+x,-y,3/4-z
7 1/2-y,-x,3/4+z
8 1/2+y,x,3/4+z
9 1/2+x,1/2+y,1/2+z
10 1/2-x,1/2-y,1/2+z
11 1/2+y,1/2-x,1/2-z
12 1/2-y,1/2+x,1/2-z
13 -x,1/2+y,1/4-z
14 x,1/2-y,1/4-z
15 -y,1/2-x,1/4+z
16 y,1/2+x,1/4+z
_cell_length_a 18.218(4)
_cell_length_b 18.218(4)
_cell_length_c 23.552(7)
_cell_angle_alpha 90
_cell_angle_beta 90
_cell_angle_gamma 90
_cell_formula_units_Z 8
loop_
_atom_type_symbol
_atom_type_radius_bond
C 0.68
H 0.23
O 0.68
P 1.05
Zn 1.34
loop_
_atom_site_label
_atom_site_type_symbol
_atom_site_fract_x
_atom_site_fract_y
_atom_site_fract_z
Zn1 Zn 0.28309(7) 0.27122(8) 0.02850(5)
Zn2 Zn 0.13068(11) 0.25000 0.12500
P1 P 0.2620(2) 0.14023(19) 0.10779(12)
O1 O 0.2983(5) 0.1719(5) 0.0554(4)
O2 O 0.1807(5) 0.1578(5) 0.1113(3)
O3 O 0.3017(5) 0.1596(5) 0.1623(4)
O4 O 0.2795(7) -0.1890(6) 0.1970(4)
O5 O 0.2809(8) -0.0893(6) 0.2457(4)
O6 O 0.2811(6) -0.1751(5) -0.0130(4)
O7 O 0.2603(6) -0.0682(5) -0.0564(3)
C1 C 0.2708(8) 0.0428(7) 0.0998(5)
C2 C 0.2723(9) -0.0012(7) 0.1481(5)
H1 H 0.27050 0.02100 0.18370
C3 C 0.2763(9) -0.0776(7) 0.1448(5)
C4 C 0.2779(8) -0.1114(7) 0.0932(5)
H2 H 0.28290 -0.16210 0.09080
C5 C 0.2720(8) -0.0696(7) 0.0446(4)
C6 C 0.2689(8) 0.0068(7) 0.0483(4)
H3 H 0.26540 0.03420 0.01510
C7 C 0.2810(9) -0.1228(10) 0.1995(6)
C8 C 0.2693(9) -0.1085(7) -0.0124(5)
O8 O 0.193(2) 0.012(2) 0.3403(17)
H4 H 0.17570 0.00410 0.38030
H5 H 0.21660 0.06210 0.33920
H6 H 0.19890 -0.03670 0.30230
Zn1M Zn 0.28309(7) 0.22878(8) 0.22150(5)
Zn1O Zn 0.27122(7) -0.21691(8) 0.27850(5)
Zn1B Zn 0.27122(7) -0.28309(8) -0.02850(5)
Zn1B* Zn 0.27122(7) 0.71691(8) -0.02850(5)
Zn1O* Zn 0.27122(7) 0.78309(8) 0.27850(5)
Zn2B Zn 0.25000(11) -0.13068 -0.12500
Zn2K Zn 0.25000(11) 0.63068 0.37500
P1M P 0.2620(2) 0.35977(19) 0.14221(12)
O1M O 0.2983(5) 0.3281(5) 0.1946(4)
O2M O 0.1807(5) 0.3422(5) 0.1387(3)
O3M O 0.3017(5) 0.3404(5) 0.0877(4)
O4M O 0.2795(7) 0.6890(6) 0.0530(4)
O4G O 0.3110(7) 0.2795(6) -0.0530(4)
O4J O 0.3110(7) 0.2205(6) 0.3030(4)
O5M O 0.2809(8) 0.5893(6) 0.0043(4)
O6M O 0.2811(6) 0.6751(5) 0.2630(4)
O6C O 0.1751(6) 0.2811(5) 0.0130(4)
O6N O 0.1751(6) 0.2189(5) 0.2370(4)
O7M O 0.2603(6) 0.5682(5) 0.3064(3)
O7C O 0.0682(6) 0.2603(5) 0.0564(3)
O7N O 0.0682(6) 0.2397(5) 0.1936(3)
C1M C 0.2708(8) 0.4572(7) 0.1502(5)
C2M C 0.2723(9) 0.5012(7) 0.1019(5)
H1M H 0.27050 0.47900 0.06630
C3M C 0.2763(9) 0.5776(7) 0.1052(5)
C4M C 0.2779(8) 0.6114(7) 0.1568(5)
H2M H 0.28290 0.66210 0.15920
C5M C 0.2720(8) 0.5696(7) 0.2054(4)
C6M C 0.2689(8) 0.4932(7) 0.2017(4)
H3M H 0.26540 0.46580 0.23490
C7M C 0.2810(9) 0.6228(10) 0.0505(6)
C8M C 0.2693(9) 0.6085(7) 0.2624(5)
#END
