
#######################################################################
#
#                 Cambridge Crystallographic Data Centre
#                                CCDC
#
#######################################################################
#
# If this CIF has been generated from an entry in the Cambridge
# Structural Database, then it will include bibliographic, chemical,
# crystal, experimental, refinement or atomic coordinate data resulting
# from the CCDC's data processing and validation procedures.
#
#######################################################################

data_CSD_CIF_PUSXIL
_audit_creation_date 2010-06-29
_audit_creation_method CSD-ConQuest-V1
_database_code_CSD PUSXIL
_database_code_depnum_ccdc_archive 'CCDC 746203'
_chemical_formula_sum 'C16 H12 O16 P2 Zn3'
_chemical_formula_moiety
;
(C16 H6 O14 P2 Zn3 2-)n,2n(H3 O1 1+)
;
_journal_coden_Cambridge 182
_journal_volume 46
_journal_year 2010
_journal_page_first 1100
_journal_name_full 'Chem.Commun. '
loop_
_publ_author_name
"Teng-Biao Liao"
"Yun Ling"
"Zhen-Xia Chen"
"Ya-Ming Zhou"
"Lin-Hong Weng"
_chemical_name_systematic
;
catena-(bis(oxonium) bis(\m~6~-5-phosphonoisophthalato)-tri-zinc)
;
_chemical_name_common
;
catena-(bis(oxonium)) bis(mu!6$-5-phosphonoisophthalato)-tri-zinc(ii); 
catena-(bis(mu!6$-5-phosphonoisophthato)-tri-zinc(ii) bis(oxonium))
;
_cell_volume   7785.317
_exptl_crystal_colour 'colorless'
_exptl_crystal_density_diffrn 1.226
_exptl_special_details
;
polymorph 1a

;
_exptl_crystal_description 'rod'
_diffrn_ambient_temperature 293
_refine_special_details
;
The oxonium ions are disordered.

;
#These two values have been output from a single CSD field.
_refine_ls_R_factor_gt 0.0402
_refine_ls_wR_factor_gt 0.0402
_symmetry_cell_setting tetragonal
_symmetry_space_group_name_H-M 'I -4 2 d'
_symmetry_Int_Tables_number 122
loop_
_symmetry_equiv_pos_site_id
_symmetry_equiv_pos_as_xyz
1 x,y,z
2 y,-x,-z
3 -x,-y,z
4 -y,x,-z
5 x,1/2-y,1/4-z
6 1/2-y,-x,3/4+z
7 -x,1/2+y,1/4-z
8 1/2+y,x,3/4+z
9 1/2+x,1/2+y,1/2+z
10 1/2+y,1/2-x,1/2-z
11 1/2-x,1/2-y,1/2+z
12 1/2-y,1/2+x,1/2-z
13 1/2+x,-y,3/4-z
14 -y,1/2-x,1/4+z
15 1/2-x,y,3/4-z
16 y,1/2+x,1/4+z
_cell_length_a 18.310(6)
_cell_length_b 18.310(6)
_cell_length_c 23.222(11)
_cell_angle_alpha 90
_cell_angle_beta 90
_cell_angle_gamma 90
_cell_formula_units_Z 8
loop_
_atom_type_symbol
_atom_type_radius_bond
C 0.68
H 0.23
O 0.68
P 1.05
Zn 1.23
loop_
_atom_site_label
_atom_site_type_symbol
_atom_site_fract_x
_atom_site_fract_y
_atom_site_fract_z
Zn1 Zn 0.28051(4) 0.22488(4) 0.22233(3)
Zn2 Zn 0.13207(6) 0.25000 0.12500
C1 C 0.2727(4) 0.4539(3) 0.1509(3)
C2 C 0.2787(4) 0.4944(4) 0.1000(3)
H1 H 0.27800 0.47040 0.06480
C3 C 0.2858(4) 0.5715(4) 0.1014(3)
C4 C 0.2867(4) 0.6072(3) 0.1533(3)
H2 H 0.29200 0.65760 0.15440
C5 C 0.2798(4) 0.5680(3) 0.2039(3)
C6 C 0.2733(4) 0.4909(4) 0.2026(3)
H3 H 0.26940 0.46510 0.23700
C7 C 0.2884(5) 0.6121(4) 0.0450(3)
C8 C 0.2761(4) 0.6088(4) 0.2604(3)
O1 O 0.2943(3) 0.3269(3) 0.2010(2)
O2 O 0.1819(3) 0.3420(3) 0.1397(2)
O3 O 0.3052(3) 0.3336(3) 0.0932(2)
O4 O 0.2939(3) 0.6796(3) 0.0481(2)
O5 O 0.2810(5) 0.5784(3) -0.0003(2)
O6 O 0.2883(4) 0.6752(3) 0.2590(2)
O7 O 0.2646(3) 0.5715(2) 0.30577(17)
P1 P 0.26261(10) 0.35775(9) 0.14601(7)
O8 O 0.0451(10) 0.25000 0.62500
H4? H 0.05870 0.25760 0.57450
H5? H 0.03190 0.29120 0.64830
H6? H 0.02360 0.20510 0.63900
O9? O -0.011(2) 0.25000 0.62500
Zn1I Zn -0.27512(4) 0.21949(4) 0.27767(3)
Zn1D Zn 0.28051(4) 0.27512(4) 0.02767(3)
Zn1E Zn 0.27512(4) 0.71949(4) -0.02767(3)
Zn1K Zn 0.27512(4) 0.78051(4) 0.27767(3)
Zn1M Zn -0.22488(4) 0.21949(4) 0.47233(3)
Zn1N Zn 0.21949(4) 0.22488(4) 0.52767(3)
Zn2K Zn 0.25000(6) 0.63207 0.37500
Zn2I Zn -0.25000(6) 0.36793 0.37500
C1I C -0.0461(4) 0.2273(3) 0.3491(3)
C2I C -0.0056(4) 0.2213(4) 0.4000(3)
H1I H -0.02960 0.22200 0.43520
C3I C 0.0715(4) 0.2142(4) 0.3986(3)
C4I C 0.1072(4) 0.2133(3) 0.3467(3)
H2I H 0.15760 0.20800 0.34560
C5I C 0.0680(4) 0.2202(3) 0.2961(3)
C6I C -0.0091(4) 0.2267(4) 0.2974(3)
H3I H -0.03490 0.23060 0.26300
C7I C 0.1121(5) 0.2116(4) 0.4550(3)
C8I C 0.1088(4) 0.2239(4) 0.2396(3)
O1I O -0.1731(3) 0.2057(3) 0.2990(2)
O2I O -0.1580(3) 0.3181(3) 0.3603(2)
O2D O 0.1819(3) 0.1580(3) 0.1103(2)
O3I O -0.1664(3) 0.1948(3) 0.4068(2)
O3D O 0.3052(3) 0.1664(3) 0.1568(2)
O3M O -0.3336(3) 0.1948(3) 0.3432(2)
O4I O 0.1796(3) 0.2061(3) 0.4519(2)
O4M O 0.3204(3) 0.2061(3) 0.2981(2)
O4F O -0.2939(3) 0.1796(3) 0.2019(2)
O5I O 0.0784(5) 0.2190(3) 0.5003(2)
O6I O 0.1752(4) 0.2117(3) 0.2410(2)
O6B O -0.2883(4) 0.3248(3) 0.2590(2)
O7I O 0.0715(3) 0.2354(2) 0.19423(17)
O7G O 0.0715(3) 0.2646(2) 0.05577(17)
P1I P -0.14225(10) 0.23739(9) 0.35399(7)
#END
