
#######################################################################
#
#                 Cambridge Crystallographic Data Centre
#                                CCDC
#
#######################################################################
#
# If this CIF has been generated from an entry in the Cambridge
# Structural Database, then it will include bibliographic, chemical,
# crystal, experimental, refinement or atomic coordinate data resulting
# from the CCDC's data processing and validation procedures.
#
#######################################################################

data_CSD_CIF_PUWDEQ
_audit_creation_date 2002-10-14
_audit_creation_method CSD-ConQuest-V1
_database_code_CSD PUWDEQ
_chemical_formula_sum 'C70 H82 Cl2 N4 O14 Zn2'
_chemical_formula_moiety
;
(C6 H16 N1 1+)2n,n(C36 H18 O12 Zn2 2-),2n(C5 H11 N1 O1),2n(C6 H5 Cl1)
;
_journal_coden_Cambridge 4
_journal_volume 123
_journal_year 2001
_journal_page_first 8239
_journal_name_full 'J.Am.Chem.Soc. '
loop_
_publ_author_name
"Jaheon Kim"
"Banglin Chen"
"T.M.Reineke"
"Hailian Li"
"M.Eddaoudi"
"D.B.Moler"
"M.O'Keeffe"
"O.M.Yaghi"
_chemical_name_systematic
;
catena-(bis(Triethylammonium) 
(\m~4~-naphthalene-2,6-dicarboxylato)-bis(\m~2~-naphthalene-2,6-dicarboxylato)
-di-zinc(ii) bis(chlorobenzene) bis(N,N-diethylformamide) clathrate)
;
_cell_volume   1692.134
_exptl_crystal_colour 'colorless'
_exptl_crystal_density_diffrn 1.379
_exptl_crystal_description 'block'
_diffrn_ambient_temperature 158
#These two values have been output from a single CSD field.
_refine_ls_R_factor_gt 0.0588
_refine_ls_wR_factor_gt 0.0588
_symmetry_cell_setting triclinic
_symmetry_space_group_name_H-M 'P -1'
_symmetry_Int_Tables_number 2
loop_
_symmetry_equiv_pos_site_id
_symmetry_equiv_pos_as_xyz
1 x,y,z
2 -x,-y,-z
_cell_length_a 9.9518(8)
_cell_length_b 11.5761(9)
_cell_length_c 15.5562(12)
_cell_angle_alpha 72.377(1)
_cell_angle_beta 83.165(1)
_cell_angle_gamma 84.326(1)
_cell_formula_units_Z 1
loop_
_atom_type_symbol
_atom_type_radius_bond
C 0.68
H 0.23
Cl 0.99
N 0.68
O 0.68
Zn 1.45
loop_
_atom_site_label
_atom_site_type_symbol
_atom_site_fract_x
_atom_site_fract_y
_atom_site_fract_z
Zn1 Zn 0.4146(1) 0.0927(1) 0.8878(1)
Cl1 Cl 0.5097(2) 1.2046(2) 0.3389(2)
O1 O 0.2867(3) 0.1906(3) 0.9439(2)
O2 O 0.0973(3) 0.1275(3) 0.9131(3)
O3 O 0.4210(3) -0.0814(3) 0.9025(2)
O4 O 0.4197(3) -0.1049(3) 1.0499(2)
O5 O 0.4782(4) 0.1935(3) 0.7675(3)
O6 O 0.2742(4) 0.1737(4) 0.7294(3)
O7 O -0.0347(4) 0.6673(4) 0.5282(3)
C1 C 0.1571(5) 0.1976(5) 0.9384(3)
C2 C 0.0800(5) 0.3023(5) 0.9650(3)
C3 C 0.1447(5) 0.3919(5) 0.9793(3)
C4 C 0.0720(5) 0.4961(5) 0.9979(4)
C5 C 0.1370(5) 0.5915(5) 1.0123(4)
C6 C -0.0640(5) 0.3121(5) 0.9701(4)
C7 C 0.4307(5) -0.1464(5) 0.9842(4)
C8 C 0.4546(5) -0.2829(5) 1.0023(4)
C9 C 0.4805(5) -0.3334(5) 0.9333(5)
C10 C 0.5039(5) -0.4667(5) 0.9542(4)
C11 C 0.5299(6) -0.5170(6) 0.8844(5)
C12 C 0.4505(5) -0.3579(5) 1.0943(5)
C13 C 0.3852(6) 0.2215(5) 0.7143(4)
C14 C 0.4111(5) 0.3210(5) 0.6271(4)
C15 C 0.3245(6) 0.3448(5) 0.5576(4)
C16 C 0.3452(6) 0.4375(5) 0.4788(4)
C17 C 0.4557(5) 0.5119(5) 0.4658(4)
C18 C 0.5198(5) 0.3917(5) 0.6157(4)
C19 C 0.3980(7) 1.0909(8) 0.3974(5)
C20 C 0.4337(9) 0.9749(9) 0.3995(6)
C21 C 0.3425(11) 0.8891(9) 0.4467(7)
C22 C 0.2129(8) 0.9121(8) 0.4919(5)
C23 C 0.1874(8) 1.0382(8) 0.4815(5)
C24 C 0.2761(7) 1.1267(7) 0.4369(5)
N1 N -0.0013(5) 0.0670(4) 0.7731(3)
N2 N 0.0401(4) 0.5795(4) 0.6676(3)
C25 C 0.2529(6) 0.5245(6) 0.7441(5)
C26 C 0.1257(6) 0.4822(5) 0.7250(4)
C27 C -0.0394(6) 0.6649(5) 0.7088(4)
C28 C -0.1772(6) 0.6189(6) 0.7523(4)
C29 C 0.0341(6) 0.5881(6) 0.5809(4)
C30 C 0.1527(6) -0.1228(6) 0.7970(5)
C31 C 0.0834(6) -0.0196(6) 0.7308(4)
C32 C -0.2166(6) -0.0452(6) 0.8081(5)
C33 C -0.1114(6) 0.0078(5) 0.8443(4)
C34 C -0.0529(6) 0.1743(5) 0.7007(4)
C35 C -0.1375(7) 0.2677(6) 0.7373(5)
H1 H 0.24090 0.38530 0.97680
H2 H 0.23320 0.58750 1.00960
H3 H -0.11000 0.24930 0.96100
H4 H 0.48360 -0.28350 0.87220
H5 H 0.53430 -0.46750 0.82320
H6 H 0.43390 -0.32110 1.14180
H7 H 0.25030 0.29580 0.56540
H8 H 0.28560 0.45190 0.43270
H9 H 0.57850 0.37590 0.66240
H10 H 0.51720 0.95290 0.37020
H11 H 0.36850 0.80700 0.44940
H12 H 0.15270 0.85150 0.52420
H13 H 0.10260 1.06380 0.50720
H14 H 0.25360 1.20960 0.43360
H15 H 0.049(5) 0.092(5) 0.803(4)
H16 H 0.30480 0.45540 0.78220
H17 H 0.22980 0.58620 0.77590
H18 H 0.30750 0.55950 0.68700
H19 H 0.15000 0.41810 0.69470
H20 H 0.07230 0.44550 0.78320
H21 H -0.05310 0.74370 0.66190
H22 H 0.01140 0.67840 0.75550
H23 H -0.22750 0.67870 0.77910
H24 H -0.16410 0.54160 0.79960
H25 H -0.22860 0.60680 0.70610
H26 H 0.08650 0.52920 0.55770
H27 H 0.20500 -0.17590 0.76490
H28 H 0.08470 -0.16910 0.84160
H29 H 0.21390 -0.09110 0.82810
H30 H 0.02470 -0.05270 0.69810
H31 H 0.15290 0.02580 0.68570
H32 H -0.28450 -0.08120 0.85760
H33 H -0.17280 -0.10810 0.78180
H34 H -0.26080 0.01900 0.76140
H35 H -0.06870 -0.05750 0.89230
H36 H -0.15710 0.06910 0.87250
H37 H -0.10830 0.14570 0.66330
H38 H 0.02530 0.21340 0.66090
H39 H -0.16870 0.33510 0.68680
H40 H -0.08270 0.29860 0.77280
H41 H -0.21610 0.23020 0.77600
C4A C -0.0720(5) 0.5039(5) 1.0021(4)
C3A C -0.1447(5) 0.6081(5) 1.0207(3)
C2A C -0.0800(5) 0.6977(5) 1.0350(3)
C1A C -0.1571(5) 0.8024(5) 1.0616(3)
O1A O -0.2867(3) 0.8094(3) 1.0561(2)
O2A O -0.0973(3) 0.8725(3) 1.0869(3)
C6A C 0.0640(5) 0.6879(5) 1.0299(4)
H3A H 0.11000 0.75070 1.03900
H1A H -0.24090 0.61470 1.02320
C5A C -0.1370(5) 0.4085(5) 0.9877(4)
H2A H -0.23320 0.41250 0.99040
C10A C 0.4961(5) -0.5333(5) 1.0458(4)
C9A C 0.5195(5) -0.6666(5) 1.0667(5)
C8A C 0.5454(5) -0.7171(5) 0.9977(4)
C7A C 0.5693(5) -0.8536(5) 1.0158(4)
O3A O 0.5790(3) -0.9186(3) 1.0975(2)
O4A O 0.5803(3) -0.8951(3) 0.9501(2)
C12A C 0.5495(5) -0.6421(5) 0.9057(5)
H6A H 0.56610 -0.67890 0.85820
H4A H 0.51640 -0.71650 1.12780
C11A C 0.4701(6) -0.4830(6) 1.1156(5)
H5A H 0.46570 -0.53250 1.17680
C17A C 0.5443(5) 0.4881(5) 0.5342(4)
C16A C 0.6548(6) 0.5625(5) 0.5212(4)
C15A C 0.6755(6) 0.6552(5) 0.4424(4)
C14A C 0.5889(5) 0.6790(5) 0.3729(4)
C13A C 0.6148(6) 0.7785(5) 0.2857(4)
O5A O 0.5218(4) 0.8065(3) 0.2325(3)
O6A O 0.7258(4) 0.8263(4) 0.2706(3)
C18A C 0.4802(5) 0.6083(5) 0.3843(4)
H9A H 0.42150 0.62410 0.33760
H7A H 0.74970 0.70420 0.43460
H8A H 0.71440 0.54810 0.56730
Zn1A Zn -0.4146(1) 0.9073(1) 1.1122(1)
O4A* O 0.5803(3) 0.1049(3) 0.9501(2)
Zn1A* Zn 0.5854(1) -0.0927(1) 1.1122(1)
Zn1A** Zn 0.5854(1) -1.0927(1) 1.1122(1)
Zn1* Zn 0.4146(1) -0.9073(1) 0.8878(1)
Zn1A*** Zn 0.5854(1) 0.9073(1) 0.1122(1)
O3A* O -0.4210(3) 1.0814(3) 1.0975(2)
O4* O -0.5803(3) 0.8951(3) 1.0499(2)
O5A* O -0.4782(4) 0.8065(3) 1.2325(3)
#END
