
#######################################################################
#
#                 Cambridge Crystallographic Data Centre
#                                CCDC
#
#######################################################################
#
# If this CIF has been generated from an entry in the Cambridge
# Structural Database, then it will include bibliographic, chemical,
# crystal, experimental, refinement or atomic coordinate data resulting
# from the CCDC's data processing and validation procedures.
#
#######################################################################

data_CSD_CIF_PUYZEP
_audit_creation_date 2011-02-04
_audit_creation_method CSD-ConQuest-V1
_database_code_CSD PUYZEP
_database_code_depnum_ccdc_archive 'CCDC 704800'
_chemical_formula_sum 'C18 H32 Cd1 Mg1 N6 S4'
_chemical_formula_moiety
;
(C6 H24 Mg1 N6 2+)n,n(C12 H8 Cd1 S4 2-)
;
_journal_coden_Cambridge 222
_journal_volume 39
_journal_year 2010
_journal_page_first 5070
_journal_name_full 'Dalton Trans. '
loop_
_publ_author_name
"D.L.Turner"
"K.H.Stone"
"P.W.Stephens"
"T.P.Vaid"
_chemical_name_systematic
;
catena-(tris(ethylenediamine)-magnesium 
bis(\m~2~-benzene-1,4-dithiolato)-cadmium)
;
_cell_volume   2555.619
_exptl_special_details
;
powder data

;
_diffrn_ambient_temperature 298
_diffrn_radiation_probe x-ray
_diffrn_source synchrotron
_refine_special_details
;
The Mg atom is mixed disordered with Mg:Ca occupancies 0.81:0.19, 
respectively. The sum formula is (C6 H24 Ca0.19 Mg0.81 N6 2+)n,n(C12 H8 Cd1 
S4 2-).
;
#These two values have been output from a single CSD field.
_refine_ls_R_factor_gt 0.0452
_refine_ls_wR_factor_gt 0.0452
_symmetry_cell_setting monoclinic
_symmetry_space_group_name_H-M 'C 2/c'
_symmetry_Int_Tables_number 15
loop_
_symmetry_equiv_pos_site_id
_symmetry_equiv_pos_as_xyz
1 x,y,z
2 1/2+x,1/2+y,z
3 -x,y,1/2-z
4 1/2-x,1/2+y,1/2-z
5 -x,-y,-z
6 -1/2-x,-1/2-y,-z
7 x,-y,-1/2+z
8 -1/2+x,-1/2-y,-1/2+z
_cell_length_a 11.87713(27)
_cell_length_b 14.71177(43)
_cell_length_c 14.62618(29)
_cell_angle_alpha 90
_cell_angle_beta 90.41268(95)
_cell_angle_gamma 90
_cell_formula_units_Z 4
loop_
_atom_type_symbol
_atom_type_radius_bond
C 0.68
H 0.23
Cd 1.44
Mg 1.41
N 0.68
S 1.02
loop_
_atom_site_label
_atom_site_type_symbol
_atom_site_fract_x
_atom_site_fract_y
_atom_site_fract_z
Cd1 Cd 0.50000 0.22608(12) 0.25000
S1 S 0.3779(3) 0.3411(3) 0.3345(3)
S2 S 0.3869(3) 0.1231(3) 0.1425(3)
C1 C 0.23826 0.15498 -0.00382
C2 C 0.32635 0.28949 0.06223
C3 C 0.31460 0.19448 0.05841
C4 C 0.20823 0.33168 0.46317
C5 C 0.34626 0.20930 0.46244
C6 C 0.30449 0.29098 0.42561
N1 N 0.02852 0.12641 0.39728
N2 N 0.15132 0.06388 0.24721
C7 C 0.09292 0.04795 0.41179
C8 C 0.19563 0.04262 0.33355
N3 N -0.11180 0.28967 0.27324
C9 C -0.04090 0.36267 0.29503
Cd2? Cd 0.00000 0.1631(3) 0.25000
Mg1 Mg 0.00000 0.1631(3) 0.25000
H1 H 0.22990 0.08740 -0.00654
H2 H 0.38065 0.31758 0.10650
H3 H 0.17852 0.38978 0.43697
H4 H 0.41473 0.18036 0.43572
H5 H 0.04771 -0.00937 0.40987
H6 H 0.12670 0.04432 0.47451
H7 H 0.25936 0.08295 0.35265
H8 H 0.23242 -0.01848 0.33629
H9 H -0.03260 0.12958 0.44384
H10 H 0.07412 0.18122 0.41379
H11 H 0.21245 0.06070 0.20065
H12 H 0.10079 0.01360 0.22612
H13 H 0.00752 0.35144 0.35010
H14 H -0.08237 0.41861 0.31413
H15 H -0.16048 0.27531 0.32684
H16 H -0.16940 0.30976 0.22730
Cd1G Cd 0.00000 0.27392(12) 0.75000
Cd1G* Cd 0.00000 0.27392(12) -0.25000
S1E S 0.1221(3) 0.1589(3) 0.6655(3)
S1B S 0.6221(3) 0.3411(3) 0.1655(3)
S2E S 0.1131(3) 0.3769(3) -0.1425(3)
S2B S 0.6131(3) 0.1231(3) 0.3575(3)
C1E C 0.26174 0.34502 0.00382
C2E C 0.17365 0.21051 -0.06223
C3E C 0.18540 0.30552 -0.05841
C4E C 0.29177 0.16832 0.53683
C5E C 0.15374 0.29070 0.53756
C6E C 0.19551 0.20902 0.57439
N1B N -0.02852 0.12641 0.10272
N2B N -0.15132 0.06388 0.25279
C7B C -0.09292 0.04795 0.08821
C8B C -0.19563 0.04262 0.16645
N3B N 0.11180 0.28967 0.22676
C9B C 0.04090 0.36267 0.20497
H1E H 0.27010 0.41260 0.00654
H2E H 0.11935 0.18242 -0.10650
H3E H 0.32148 0.11022 0.56303
H4E H 0.08527 0.31964 0.56428
H5B H -0.04771 -0.00937 0.09013
H6B H -0.12670 0.04432 0.02549
H7B H -0.25936 0.08295 0.14735
H8B H -0.23242 -0.01848 0.16371
H9B H 0.03260 0.12958 0.05616
H10B H -0.07412 0.18122 0.08621
H11B H -0.21245 0.06070 0.29935
H12B H -0.10079 0.01360 0.27388
H13B H -0.00752 0.35144 0.14990
H14B H 0.08237 0.41861 0.18587
H15B H 0.16048 0.27531 0.17316
H16B H 0.16940 0.30976 0.27270
#END
