
#######################################################################
#
#                 Cambridge Crystallographic Data Centre
#                                CCDC
#
#######################################################################
#
# If this CIF has been generated from an entry in the Cambridge
# Structural Database, then it will include bibliographic, chemical,
# crystal, experimental, refinement or atomic coordinate data resulting
# from the CCDC's data processing and validation procedures.
#
#######################################################################

data_CSD_CIF_PUYZUF
_audit_creation_date 2011-02-04
_audit_creation_method CSD-ConQuest-V1
_database_code_CSD PUYZUF
_database_code_depnum_ccdc_archive 'CCDC 704803'
_chemical_formula_sum 'C26 H36 Cd2 N2 S6'
_chemical_formula_moiety
;
(C4 H12 N1 1+)2n,n(C18 H12 Cd2 S6 2-)
;
_journal_coden_Cambridge 222
_journal_volume 39
_journal_year 2010
_journal_page_first 5070
_journal_name_full 'Dalton Trans. '
loop_
_publ_author_name
"D.L.Turner"
"K.H.Stone"
"P.W.Stephens"
"T.P.Vaid"
_chemical_name_systematic
;
catena-(bis(tetramethylammonium) 
(\m~4~-benzene-1,4-dithiolato)-bis(\m~2~-benzene-1,4-dithiolato)-di-cadmium)
;
_cell_volume    844.045
_exptl_special_details
;
powder data

;
_diffrn_ambient_temperature 298
_diffrn_radiation_probe x-ray
_diffrn_source synchrotron
#These two values have been output from a single CSD field.
_refine_ls_R_factor_gt 0.067
_refine_ls_wR_factor_gt 0.067
_symmetry_cell_setting triclinic
_symmetry_space_group_name_H-M 'P -1'
_symmetry_Int_Tables_number 2
loop_
_symmetry_equiv_pos_site_id
_symmetry_equiv_pos_as_xyz
1 x,y,z
2 -x,-y,-z
_cell_length_a 11.49545(56)
_cell_length_b 10.67562(51)
_cell_length_c 8.70190(36)
_cell_angle_alpha 58.523(2)
_cell_angle_beta 106.4984(32)
_cell_angle_gamma 110.9806(28)
_cell_formula_units_Z 1
loop_
_atom_type_symbol
_atom_type_radius_bond
C 0.68
H 0.23
Cd 1.44
N 0.68
S 1.02
loop_
_atom_site_label
_atom_site_type_symbol
_atom_site_fract_x
_atom_site_fract_y
_atom_site_fract_z
Cd1 Cd 0.15569 0.11661 0.97645
S1 S 0.03308 -0.11616 0.93426
S2 S 0.33517 0.03562 1.20534
S3 S 0.22588 0.35553 0.72429
C1 C 0.01379 -0.04844 0.68108
C2 C 0.10615 -0.04023 0.60522
C3 C -0.09235 -0.00821 0.57586
C4 C 0.52875 -0.04609 1.18090
C5 C 0.40078 0.06132 0.90688
C6 C 0.42954 0.01523 1.08778
C7 C -0.01337 0.35086 0.55826
C8 C 0.09804 0.43729 0.59735
C9 C 0.11141 0.58643 0.53909
N1 N 0.29935 0.53382 0.16186
C10 C 0.31406 0.57706 -0.02784
C11 C 0.29382 0.67105 0.16596
C12 C 0.40254 0.46834 0.30299
C13 C 0.17744 0.41183 0.19218
H1 H 0.18436 -0.06987 0.68276
H2 H -0.16041 -0.01426 0.63176
H3 H 0.54994 -0.08005 1.31421
H4 H 0.32767 0.10650 0.83826
H5 H -0.02323 0.24095 0.60119
H6 H 0.19352 0.65013 0.56790
H7 H 0.33427 0.49260 -0.02600
H8 H 0.23683 0.60472 -0.11123
H9 H 0.37835 0.67636 -0.07839
H10 H 0.33675 0.66800 0.28477
H11 H 0.33006 0.76539 0.05846
H12 H 0.20450 0.67558 0.14001
H13 H 0.40969 0.48327 0.40992
H14 H 0.38635 0.35956 0.33450
H15 H 0.48224 0.51447 0.24692
H16 H 0.16294 0.36177 0.32185
H17 H 0.10799 0.45682 0.10371
H18 H 0.17881 0.33950 0.15296
Cd1A Cd -0.15569 -0.11661 0.02355
Cd1A* Cd -0.15569 -0.11661 1.02355
Cd1* Cd 0.15569 0.11661 -0.02355
Cd1A** Cd 0.84431 -0.11661 1.02355
Cd1A*** Cd -0.15569 0.88339 0.02355
S1A S -0.03308 0.11616 0.06574
S1A* S -0.03308 0.11616 1.06574
S1* S 0.03308 -0.11616 -0.06574
S2A S 0.66483 -0.03562 0.79466
S2A* S -0.33517 -0.03562 -0.20534
S3A S -0.22588 0.64447 0.27571
S3A* S -0.22588 -0.35553 0.27571
C1A C -0.01379 0.04844 0.31892
C2A C -0.10615 0.04023 0.39478
C3A C 0.09235 0.00821 0.42414
C4A C 0.47125 0.04609 0.81910
C5A C 0.59922 -0.06132 1.09312
C6A C 0.57046 -0.01523 0.91222
C7A C 0.01337 0.64914 0.44174
C8A C -0.09804 0.56271 0.40265
C9A C -0.11141 0.41357 0.46091
H1A H -0.18436 0.06987 0.31724
H2A H 0.16041 0.01426 0.36824
H3A H 0.45006 0.08005 0.68579
H4A H 0.67233 -0.10650 1.16174
H5A H 0.02323 0.75905 0.39881
H6A H -0.19352 0.34987 0.43210
#END
