
#######################################################################
#
#                 Cambridge Crystallographic Data Centre
#                                CCDC
#
#######################################################################
#
# If this CIF has been generated from an entry in the Cambridge
# Structural Database, then it will include bibliographic, chemical,
# crystal, experimental, refinement or atomic coordinate data resulting
# from the CCDC's data processing and validation procedures.
#
#######################################################################

data_CSD_CIF_PUYZOZ
_audit_creation_date 2011-02-04
_audit_creation_method CSD-ConQuest-V1
_database_code_CSD PUYZOZ
_database_code_depnum_ccdc_archive 'CCDC 704802'
_chemical_formula_sum 'C18 H32 N6 S4 Zn2'
_chemical_formula_moiety
;
(C6 H24 N6 Zn1 2+)n,n(C12 H8 S4 Zn1 2-)
;
_journal_coden_Cambridge 222
_journal_volume 39
_journal_year 2010
_journal_page_first 5070
_journal_name_full 'Dalton Trans. '
loop_
_publ_author_name
"D.L.Turner"
"K.H.Stone"
"P.W.Stephens"
"T.P.Vaid"
_chemical_name_systematic
;
catena-(tris(ethylenediamine)-zinc bis(\m~2~-benzene-1,4-dithiolato)-zinc)
;
_cell_volume   2526.416
_exptl_special_details
;
powder data
isostructural with the Cd-Se and Cd-S analogues

;
_diffrn_ambient_temperature 298
_diffrn_radiation_probe x-ray
_diffrn_source synchrotron
#These two values have been output from a single CSD field.
_refine_ls_R_factor_gt 0.1143
_refine_ls_wR_factor_gt 0.1143
_symmetry_cell_setting monoclinic
_symmetry_space_group_name_H-M 'C 2/c'
_symmetry_Int_Tables_number 15
loop_
_symmetry_equiv_pos_site_id
_symmetry_equiv_pos_as_xyz
1 x,y,z
2 1/2+x,1/2+y,z
3 -x,y,1/2-z
4 1/2-x,1/2+y,1/2-z
5 -x,-y,-z
6 -1/2-x,-1/2-y,-z
7 x,-y,-1/2+z
8 -1/2+x,-1/2-y,-1/2+z
_cell_length_a 11.65582(32)
_cell_length_b 15.24511(54)
_cell_length_c 14.21869(40)
_cell_angle_alpha 90
_cell_angle_beta 90.6517(13)
_cell_angle_gamma 90
_cell_formula_units_Z 4
loop_
_atom_type_symbol
_atom_type_radius_bond
C 0.68
H 0.23
N 0.68
S 1.02
Zn 1.34
loop_
_atom_site_label
_atom_site_type_symbol
_atom_site_fract_x
_atom_site_fract_y
_atom_site_fract_z
Zn1 Zn 0.50000 0.2364(3) 0.25000
S1 S 0.39281 0.14302 0.14640
S2 S 0.38877 0.32897 0.33083
C1 C 0.31261 0.20310 0.06418
C2 C 0.25653 0.16092 -0.00739
C3 C 0.30608 0.29218 0.07157
C4 C 0.20952 0.32210 0.45348
C5 C 0.35053 0.21207 0.47332
C6 C 0.31005 0.28417 0.42679
Zn2 Zn 0.00000 0.1484(3) 0.25000
N1 N 0.01924 0.14311 0.40122
N2 N 0.15592 0.06248 0.24408
N3 N 0.13668 0.25479 0.22249
C7 C 0.08282 0.05475 0.41372
C8 C 0.19357 0.05332 0.34828
C9 C 0.04148 0.32387 0.20558
H1 H 0.26131 0.09562 -0.01281
H2 H 0.34718 0.32310 0.12403
H3 H 0.17985 0.37495 0.41938
H4 H 0.42421 0.18427 0.45376
H5 H 0.03378 0.00251 0.39940
H6 H 0.10630 0.04241 0.48027
H7 H 0.24856 0.09984 0.36945
H8 H 0.23922 -0.00094 0.36142
H9 H -0.04998 0.14401 0.44212
H10 H 0.06610 0.19128 0.43000
H11 H 0.22514 0.06158 0.20318
H12 H 0.11599 0.00764 0.22329
H13 H -0.00497 0.31312 0.14715
H14 H 0.07178 0.38408 0.19315
H15 H 0.18853 0.25310 0.16697
H16 H 0.19054 0.27606 0.27276
Zn1G Zn 0.00000 0.2636(3) -0.25000
Zn1G* Zn 0.00000 0.2636(3) 0.75000
S1E S 0.10719 0.35698 -0.14640
S1B S 0.60719 0.14302 0.35360
S2E S 0.11123 0.17103 0.66917
S2B S 0.61123 0.32897 0.16917
C1E C 0.18739 0.29690 -0.06418
C2E C 0.24347 0.33908 0.00739
C3E C 0.19392 0.20782 -0.07157
C4E C 0.29048 0.17790 0.54652
C5E C 0.14947 0.28793 0.52668
C6E C 0.18995 0.21583 0.57321
N1B N -0.01924 0.14311 0.09878
N2B N -0.15592 0.06248 0.25592
N3B N -0.13668 0.25479 0.27751
C7B C -0.08282 0.05475 0.08628
C8B C -0.19357 0.05332 0.15172
C9B C -0.04148 0.32387 0.29442
H1E H 0.23869 0.40438 0.01281
H2E H 0.15282 0.17690 -0.12403
H3E H 0.32015 0.12505 0.58062
H4E H 0.07579 0.31573 0.54624
H5B H -0.03378 0.00251 0.10060
H6B H -0.10630 0.04241 0.01973
H7B H -0.24856 0.09984 0.13055
H8B H -0.23922 -0.00094 0.13858
H9B H 0.04998 0.14401 0.05788
H10B H -0.06610 0.19128 0.07000
H11B H -0.22514 0.06158 0.29682
H12B H -0.11599 0.00764 0.27671
H13B H 0.00497 0.31312 0.35285
H14B H -0.07178 0.38408 0.30685
H15B H -0.18853 0.25310 0.33303
H16B H -0.19054 0.27606 0.22724
#END
