
#######################################################################
#
#                 Cambridge Crystallographic Data Centre
#                                CCDC
#
#######################################################################
#
# If this CIF has been generated from an entry in the Cambridge
# Structural Database, then it will include bibliographic, chemical,
# crystal, experimental, refinement or atomic coordinate data resulting
# from the CCDC's data processing and validation procedures.
#
#######################################################################

data_CSD_CIF_PUZBAO
_audit_creation_date 2011-02-04
_audit_creation_method CSD-ConQuest-V1
_database_code_CSD PUZBAO
_database_code_depnum_ccdc_archive 'CCDC 704804'
_chemical_formula_sum 'C34 H52 Cd2 N2 S6'
_chemical_formula_moiety
;
(C8 H20 N1 1+)2n,n(C18 H12 Cd2 S6 2-)
;
_journal_coden_Cambridge 222
_journal_volume 39
_journal_year 2010
_journal_page_first 5070
_journal_name_full 'Dalton Trans. '
loop_
_publ_author_name
"D.L.Turner"
"K.H.Stone"
"P.W.Stephens"
"T.P.Vaid"
_chemical_name_systematic
;
catena-(bis(tetraethylammonium) 
(\m~4~-benzene-1,4-dithiolato)-bis(\m~2~-benzene-1,4-dithiolato)-di-cadmium)
;
_cell_volume    958.486
_exptl_special_details
;
powder data

;
_diffrn_ambient_temperature 298
_diffrn_radiation_probe x-ray
_diffrn_source synchrotron
#These two values have been output from a single CSD field.
_refine_ls_R_factor_gt 0.0738
_refine_ls_wR_factor_gt 0.0738
_symmetry_cell_setting triclinic
_symmetry_space_group_name_H-M 'P -1'
_symmetry_Int_Tables_number 2
loop_
_symmetry_equiv_pos_site_id
_symmetry_equiv_pos_as_xyz
1 x,y,z
2 -x,-y,-z
_cell_length_a 9.04393(76)
_cell_length_b 9.60952(71)
_cell_length_c 12.1736(11)
_cell_angle_alpha 94.7168(68)
_cell_angle_beta 80.1422(79)
_cell_angle_gamma 68.6195(69)
_cell_formula_units_Z 1
loop_
_atom_type_symbol
_atom_type_radius_bond
C 0.68
H 0.23
Cd 1.44
N 0.68
S 1.02
loop_
_atom_site_label
_atom_site_type_symbol
_atom_site_fract_x
_atom_site_fract_y
_atom_site_fract_z
Cd1 Cd -0.06694 0.09047 0.14503
S1 S 0.20415 -0.10188 0.02467
S2 S -0.15279 -0.02517 0.29976
S3 S -0.06265 0.33793 0.21575
C1 C 0.06681 0.02063 0.39803
C2 C -0.13465 -0.03181 0.51307
C3 C -0.06783 -0.01118 0.41110
C4 C -0.02611 0.43245 0.08993
C5 C -0.07395 0.58408 0.10270
C6 C 0.04783 0.34837 -0.01277
C7 C 0.42221 0.00318 -0.08534
C8 C 0.45107 -0.04682 0.09591
C9 C 0.37328 -0.04364 0.01057
N1 N 0.35979 0.43988 0.27491
C10 C 0.50642 0.49246 0.30523
C11 C 0.38066 0.27522 0.31851
C12 C 0.37298 0.42086 0.13582
C13 C 0.17911 0.57088 0.34003
C14 C 0.45597 0.65207 0.31097
C15 C 0.38339 0.28790 0.43549
C16 C 0.27716 0.56128 0.10688
C17 C 0.18839 0.62942 0.44887
H1 H 0.11641 0.03595 0.32232
H2 H -0.23461 -0.05542 0.52278
H3 H -0.12885 0.64650 0.17894
H4 H 0.08335 0.23579 -0.02225
H5 H 0.36445 0.00554 -0.14871
H6 H 0.41474 -0.08158 0.16712
H7 H 0.52868 0.46374 0.37967
H8 H 0.60753 0.44060 0.24496
H9 H 0.37119 0.68930 0.26550
H10 H 0.40970 0.70206 0.39145
H11 H 0.55161 0.67686 0.27997
H12 H 0.28719 0.24813 0.30652
H13 H 0.48475 0.19466 0.27448
H14 H 0.44217 0.18542 0.45409
H15 H 0.44055 0.35585 0.45308
H16 H 0.26935 0.33134 0.48138
H17 H 0.48904 0.39002 0.09593
H18 H 0.33214 0.34166 0.11264
H19 H 0.16819 0.56137 0.10099
H20 H 0.26302 0.64585 0.16663
H21 H 0.33303 0.57516 0.03270
H22 H 0.14732 0.65480 0.29444
H23 H 0.09603 0.52439 0.34822
H24 H 0.13378 0.58682 0.50783
H25 H 0.30509 0.60027 0.45300
H26 H 0.13282 0.74224 0.46216
Cd1A Cd 1.06694 -0.09047 -0.14503
Cd1A* Cd 0.06694 -0.09047 -0.14503
Cd1* Cd 0.93306 0.09047 0.14503
Cd1A** Cd 0.06694 -0.09047 0.85497
Cd1A*** Cd 0.06694 0.90953 -0.14503
S1A S 0.79585 0.10188 -0.02467
S1A* S -0.20415 0.10188 -0.02467
S1* S 1.20415 -0.10188 0.02467
S2A S 0.15279 0.02517 0.70024
S2A* S 1.15279 0.02517 -0.29976
S3A S 0.06265 0.66207 -0.21575
S3A* S 1.06265 -0.33793 -0.21575
C1A C -0.06681 -0.02063 0.60197
C2A C 0.13465 0.03181 0.48693
C3A C 0.06783 0.01118 0.58890
C4A C 0.02611 0.56755 -0.08993
C5A C 0.07395 0.41592 -0.10270
C6A C -0.04783 0.65163 0.01277
C7A C 0.57779 -0.00318 0.08534
C8A C 0.54893 0.04682 -0.09591
C9A C 0.62672 0.04364 -0.01057
H1A H -0.11641 -0.03595 0.67768
H2A H 0.23461 0.05542 0.47722
H3A H 0.12885 0.35350 -0.17894
H4A H -0.08335 0.76421 0.02225
H5A H 0.63555 -0.00554 0.14871
H6A H 0.58526 0.08158 -0.16712
#END
