
#######################################################################
#
#                 Cambridge Crystallographic Data Centre
#                                CCDC
#
#######################################################################
#
# If this CIF has been generated from an entry in the Cambridge
# Structural Database, then it will include bibliographic, chemical,
# crystal, experimental, refinement or atomic coordinate data resulting
# from the CCDC's data processing and validation procedures.
#
#######################################################################

data_CSD_CIF_PUZBIW
_audit_creation_date 2011-02-04
_audit_creation_method CSD-ConQuest-V1
_database_code_CSD PUZBIW
_database_code_depnum_ccdc_archive 'CCDC 757366'
_chemical_formula_sum 'C54 H98 N18 S10 Zn5'
_chemical_formula_moiety
;
(C8 H26 N6 Zn1 2+)3n,n(C30 H20 S10 Zn2 6-)
;
_journal_coden_Cambridge 222
_journal_volume 39
_journal_year 2010
_journal_page_first 5070
_journal_name_full 'Dalton Trans. '
loop_
_publ_author_name
"D.L.Turner"
"K.H.Stone"
"P.W.Stephens"
"T.P.Vaid"
_chemical_name_systematic
;
catena-(tris(bis(diethylenetriamine)-zinc) 
tris(\m~2~-benzene-1,4-dithiolato)-bis(benzene-1,4-dithiolato)-di-zinc)
;
_cell_volume   6989.348
_exptl_special_details
;
powder data

;
_diffrn_ambient_temperature 298
_diffrn_radiation_probe x-ray
_diffrn_source synchrotron
#These two values have been output from a single CSD field.
_refine_ls_R_factor_gt 0.0633
_refine_ls_wR_factor_gt 0.0633
_symmetry_cell_setting monoclinic
_symmetry_space_group_name_H-M 'C 2/c'
_symmetry_Int_Tables_number 15
loop_
_symmetry_equiv_pos_site_id
_symmetry_equiv_pos_as_xyz
1 x,y,z
2 1/2+x,1/2+y,z
3 -x,y,1/2-z
4 1/2-x,1/2+y,1/2-z
5 -x,-y,-z
6 -1/2-x,-1/2-y,-z
7 x,-y,-1/2+z
8 -1/2+x,-1/2-y,-1/2+z
_cell_length_a 43.68499(25)
_cell_length_b 8.815705(44)
_cell_length_c 18.89291(11)
_cell_angle_alpha 90
_cell_angle_beta 73.86574(36)
_cell_angle_gamma 90
_cell_formula_units_Z 4
loop_
_atom_type_symbol
_atom_type_radius_bond
C 0.68
H 0.23
N 0.68
S 1.02
Zn 1.22
loop_
_atom_site_label
_atom_site_type_symbol
_atom_site_fract_x
_atom_site_fract_y
_atom_site_fract_z
Zn1 Zn 0.08426(7) 0.8922(3) 0.10003(16)
S1 S 0.07966(17) 0.7950(7) 0.2180(4)
S2 S 0.12968(15) 1.0579(7) 0.0709(4)
S3 S 0.03323(16) 1.0088(7) 0.1280(3)
S4 S 0.08674(16) 1.7157(8) 0.0011(4)
S5 S 0.20816(16) 0.5847(8) 0.2897(3)
C1 C 0.11663 0.74258 0.23813
C2 C 0.12267 1.51681 0.05812
C3 C -0.01710 0.99933 0.07444
C4 C 0.11637 0.68698 0.30754
C5 C 0.13278 1.37108 0.07004
C6 C 0.01617 1.00445 0.05421
C7 C 0.14456 0.63493 0.32034
C8 C 0.11855 1.24440 0.04797
C9 C 0.03327 1.00511 -0.02022
C10 C 0.17302 0.63849 0.26372
C11 C 0.09420 1.26345 0.01397
C12 C 0.17329 0.69409 0.19431
C13 C 0.08409 1.40919 0.00205
C14 C 0.14509 0.74614 0.18151
C15 C 0.09832 1.53587 0.02413
Zn2 Zn 0.18471 0.07790 0.35222
N1 N 0.17096 0.25329 0.43432
N2 N 0.23264 0.12928 0.37501
N3 N 0.19290 -0.11519 0.40928
N4 N 0.13562 0.02000 0.36425
N5 N 0.17349 0.24184 0.26873
N6 N 0.21028 -0.02201 0.24927
C16 C 0.19598 0.27216 0.47198
C17 C 0.22798 0.27284 0.41620
C18 C 0.24421 -0.00545 0.40554
C19 C 0.21639 -0.09403 0.45106
C20 C 0.12477 0.09466 0.30596
C21 C 0.13853 0.25129 0.29327
C22 C 0.18963 0.18856 0.19394
C23 C 0.21894 0.10140 0.19505
Zn3 Zn 0.00000 0.4830(5) 0.25000
N7 N 0.05098 0.42351 0.19040
N8 N 0.01656 0.34977 0.33257
N9 N 0.00895 0.65167 0.32660
C24 C 0.06697 0.34089 0.23763
C25 C 0.04288 0.25035 0.29365
C26 C 0.01898 0.43691 0.39713
C27 C 0.00142 0.58396 0.40054
H1 H 0.13286 1.60748 0.07393
H2 H -0.02934 0.99886 0.12771
H3 H 0.09599 0.68443 0.34807
H4 H 0.15021 1.35743 0.09438
H5 H 0.14438 0.59513 0.37002
H6 H 0.05709 1.00877 -0.03469
H7 H 0.08401 1.17278 -0.00184
H8 H 0.19366 0.69664 0.15378
H9 H 0.06666 1.42283 -0.02229
H10 H 0.14528 0.78593 0.13183
H11 H 0.16610 0.34854 0.41080
H12 H 0.14959 0.22886 0.46850
H13 H 0.25129 0.13889 0.33039
H14 H 0.19164 0.36562 0.50318
H15 H 0.19371 0.19168 0.51039
H16 H 0.22987 0.36448 0.38407
H17 H 0.18282 0.34265 0.27537
H18 H 0.24488 0.29370 0.44137
H19 H 0.25846 -0.06571 0.36461
H20 H 0.25952 0.02633 0.43343
H21 H 0.22410 -0.19144 0.46712
H22 H 0.20750 -0.04218 0.49951
H23 H 0.19937 -0.20304 0.37488
H24 H 0.17247 -0.15360 0.44296
H25 H 0.13326 -0.09285 0.36472
H26 H 0.12251 0.04636 0.41512
H27 H 0.13028 0.02994 0.26071
H28 H 0.10096 0.09283 0.31927
H29 H 0.12918 0.30633 0.25791
H30 H 0.13025 0.31342 0.33887
H31 H 0.17432 0.12895 0.17425
H32 H 0.19403 0.27680 0.15932
H33 H 0.22997 0.06552 0.14413
H34 H 0.23523 0.17248 0.20443
H35 H 0.19826 -0.10192 0.23057
H36 H 0.22989 -0.07907 0.25064
H37 H 0.00655 0.24683 0.33862
H38 H 0.05996 0.52833 0.18121
H39 H 0.05283 0.36429 0.14425
H40 H 0.08464 0.27802 0.20628
H41 H 0.07916 0.41402 0.25986
H42 H 0.03582 0.16186 0.26902
H43 H 0.05359 0.19777 0.32718
H44 H 0.01121 0.37357 0.44249
H45 H 0.04193 0.44995 0.39528
H46 H -0.02188 0.56651 0.42301
H47 H 0.00655 0.65164 0.43817
H48 H -0.01073 0.69814 0.31870
H49 H 0.02694 0.72510 0.32047
Zn1* Zn 0.08426(7) -0.1078(3) 0.10003(16)
Zn1** Zn 0.08426(7) 1.8922(3) 0.10003(16)
Zn1D Zn -0.08426(7) 1.1078(3) -0.10003(16)
S1* S 0.07966(17) -0.2050(7) 0.2180(4)
S2* S 0.12968(15) 0.0579(7) 0.0709(4)
S3D S -0.03323(16) 0.9912(7) -0.1280(3)
S3* S 0.03323(16) 0.0088(7) 0.1280(3)
S4* S 0.08674(16) 0.7157(8) 0.0011(4)
S4** S 0.08674(16) -0.2843(8) 0.0011(4)
S5* S 0.20816(16) -0.4153(8) 0.2897(3)
C1* C 0.11663 -0.25742 0.23813
C2* C 0.12267 0.51681 0.05812
C3D C 0.01710 1.00067 -0.07444
C4* C 0.11637 -0.31302 0.30754
C5* C 0.13278 0.37108 0.07004
C6D C -0.01617 0.99555 -0.05421
C7* C 0.14456 -0.36507 0.32034
C8* C 0.11855 0.24440 0.04797
C9D C -0.03327 0.99489 0.02022
C10* C 0.17302 -0.36151 0.26372
C11* C 0.09420 0.26345 0.01397
C12* C 0.17329 -0.30591 0.19431
C13* C 0.08409 0.40919 0.00205
C14* C 0.14509 -0.25386 0.18151
C15* C 0.09832 0.53587 0.02413
N7B N -0.05098 0.42351 0.30960
N8B N -0.01656 0.34977 0.16743
N9B N -0.00895 0.65167 0.17340
C24B C -0.06697 0.34089 0.26237
C25B C -0.04288 0.25035 0.20635
C26B C -0.01898 0.43691 0.10287
C27B C -0.00142 0.58396 0.09946
H1* H 0.13286 0.60748 0.07393
H2D H 0.02934 1.00114 -0.12771
H3* H 0.09599 -0.31557 0.34807
H4* H 0.15021 0.35743 0.09438
H5* H 0.14438 -0.40487 0.37002
H6D H -0.05709 0.99123 0.03469
H7* H 0.08401 0.17278 -0.00184
H8* H 0.19366 -0.30336 0.15378
H9* H 0.06666 0.42283 -0.02229
H10* H 0.14528 -0.21407 0.13183
H37B H -0.00655 0.24683 0.16138
H38B H -0.05996 0.52833 0.31879
H39B H -0.05283 0.36429 0.35575
H40B H -0.08464 0.27802 0.29372
H41B H -0.07916 0.41402 0.24014
H42B H -0.03582 0.16186 0.23098
H43B H -0.05359 0.19777 0.17282
H44B H -0.01121 0.37357 0.05751
H45B H -0.04193 0.44995 0.10472
H46B H 0.02188 0.56651 0.07699
H47B H -0.00655 0.65164 0.06183
H48B H 0.01073 0.69814 0.18130
H49B H -0.02694 0.72510 0.17953
#END
