
#######################################################################
#
#                 Cambridge Crystallographic Data Centre
#                                CCDC
#
#######################################################################
#
# If this CIF has been generated from an entry in the Cambridge
# Structural Database, then it will include bibliographic, chemical,
# crystal, experimental, refinement or atomic coordinate data resulting
# from the CCDC's data processing and validation procedures.
#
#######################################################################

data_CSD_CIF_PUZKEC
_audit_creation_date 2015-12-16
_audit_creation_method CSD-ConQuest-V1
_database_code_CSD PUZKEC
_database_code_depnum_ccdc_archive 'CCDC 1418710'
_chemical_formula_sum 'C72 H48 Ag10 I14 Mn2 N12'
_chemical_formula_moiety
;
(C36 H24 Mn1 N6 2+)2n,n(Ag10 I14 4-)
;
_journal_coden_Cambridge 1350
_journal_volume 18
_journal_year 2016
_journal_page_first 427
_journal_name_full 'CrystEngComm '
loop_
_publ_author_name
"Xiao-Wu Lei"
"Cheng-Yang Yue"
"Li-Juan Feng"
"Yong-Fang Han"
"Rong-Rong Meng"
"Jiang-Tao Yang"
"Hao Ding"
"Chuan-Sheng Gao"
"Chun-Yan Wang"
_chemical_name_systematic
;
catena-(bis(tris(1,10-Phenanthroline)-manganese) 
(\m~4~-iodo)-decakis(\m~3~-iodo)-tris(\m~2~-iodo)-deca-silver)
;
_cell_volume   5020.595
_exptl_crystal_colour 'dark red'
_exptl_crystal_density_diffrn 2.677
_exptl_crystal_description 'block'
_diffrn_ambient_temperature 296
_refine_special_details
;
The SQUEEZE/PLATON program has been used to model some disorder.

;
#These two values have been output from a single CSD field.
_refine_ls_R_factor_gt 0.052
_refine_ls_wR_factor_gt 0.052
_symmetry_cell_setting triclinic
_symmetry_space_group_name_H-M 'P -1'
_symmetry_Int_Tables_number 2
loop_
_symmetry_equiv_pos_site_id
_symmetry_equiv_pos_as_xyz
1 x,y,z
2 -x,-y,-z
_cell_length_a 14.7523(14)
_cell_length_b 14.7794(14)
_cell_length_c 27.291(3)
_cell_angle_alpha 76.780(1)
_cell_angle_beta 86.843(1)
_cell_angle_gamma 60.318(1)
_cell_formula_units_Z 2
loop_
_atom_type_symbol
_atom_type_radius_bond
C 0.68
H 0.23
Ag 1.45
I 1.40
Mn 1.61
N 0.68
loop_
_atom_site_label
_atom_site_type_symbol
_atom_site_fract_x
_atom_site_fract_y
_atom_site_fract_z
I1 I 0.14554(5) 0.24294(5) 0.33275(2)
I2 I -0.51865(5) 0.55928(6) 0.38222(3)
I3 I -0.46032(6) 0.76722(6) 0.23441(3)
I4 I -0.02370(6) 0.63464(6) 0.28639(3)
I5 I -0.65892(6) 0.38260(6) 0.34801(3)
I6 I -0.19337(6) 0.43638(6) 0.35061(3)
I7 I -0.40584(6) 0.43067(6) 0.23203(3)
I8 I -0.71429(6) 0.90133(6) 0.34672(3)
I9 I -0.08058(6) 0.40906(7) 0.19743(3)
I10 I -0.07093(6) 0.11006(7) 0.28602(3)
I11 I 0.22436(8) 0.42527(7) 0.18803(3)
I12 I -0.74960(6) 0.70207(7) 0.23321(3)
I13 I 0.21849(7) 0.09997(7) 0.18513(3)
Ag1 Ag -0.62313(8) 0.73894(8) 0.29202(4)
Ag2 Ag -0.57678(8) 0.51024(8) 0.29378(4)
I14 I 0.49171(7) 0.07118(8) 0.28003(4)
Ag3 Ag -0.03377(8) 0.45163(8) 0.28854(4)
Ag4 Ag -0.39069(8) 0.55732(8) 0.29557(4)
Ag5 Ag 0.12416(8) 0.09436(9) 0.28350(4)
Ag6 Ag 0.14083(9) 0.28695(9) 0.22295(4)
Ag7 Ag 0.31988(9) 0.26632(9) 0.28377(4)
Ag8 Ag -0.18692(10) 0.33192(9) 0.27403(4)
Ag9 Ag 0.18860(9) 0.53657(10) 0.26811(4)
Ag10 Ag -0.6163(1) 0.96832(11) 0.26518(5)
Mn1 Mn 0.17323(10) 0.14377(10) 0.54388(5)
N1 N 0.0796(6) 0.3116(6) 0.4958(3)
N2 N 0.1085(7) 0.0804(7) 0.4962(3)
N3 N 0.2782(6) 0.1748(6) 0.5839(3)
N4 N 0.0294(6) 0.2231(6) 0.5844(3)
N5 N 0.2316(6) -0.0259(6) 0.5846(3)
N6 N 0.3099(6) 0.1113(6) 0.4957(3)
C1 C 0.2176(7) -0.0859(8) 0.5565(4)
C2 C 0.3558(7) 0.1799(7) 0.5564(4)
C3 C 0.1072(9) 0.3554(8) 0.4532(4)
H1 H 0.17590 0.31980 0.44430
C4 C -0.0959(8) 0.4626(8) 0.4791(4)
C5 C 0.3709(7) 0.1473(7) 0.5091(3)
C6 C 0.1552(7) -0.0291(8) 0.5099(4)
C7 C -0.0188(7) 0.3633(7) 0.5097(4)
C8 C 0.3266(8) 0.0767(9) 0.4531(4)
H2 H 0.28490 0.05110 0.44430
C9 C 0.2894(9) -0.0772(9) 0.6284(4)
H3 H 0.29720 -0.03720 0.64790
C10 C 0.0490(8) 0.1318(9) 0.4540(4)
H4 H 0.01800 0.20600 0.44510
C11 C 0.0054(8) 0.1817(9) 0.6275(4)
H5 H 0.05710 0.11640 0.64630
C12 C -0.0459(7) 0.3190(7) 0.5561(4)
C13 C 0.2631(8) 0.2034(9) 0.6279(4)
H6 H 0.21140 0.19820 0.64740
C14 C 0.0368(11) 0.4518(8) 0.4222(4)
H7 H 0.05800 0.48080 0.39300
C15 C 0.4179(8) 0.2155(8) 0.5721(4)
C16 C 0.4500(9) 0.1528(9) 0.4787(5)
C17 C 0.2638(9) -0.1956(8) 0.5712(4)
C18 C 0.140(1) -0.0859(10) 0.4793(5)
C19 C 0.4649(9) 0.1160(9) 0.4334(4)
H8 H 0.51580 0.11840 0.41240
C20 C -0.1477(8) 0.3708(9) 0.5730(5)
C21 C 0.3378(9) -0.1870(9) 0.6461(5)
H9 H 0.37830 -0.22000 0.67650
C22 C 0.3250(9) -0.2481(9) 0.6173(5)
H10 H 0.35650 -0.32210 0.62850
C23 C 0.3997(10) 0.2467(10) 0.6165(6)
H11 H 0.43980 0.27210 0.62720
C24 C 0.4047(9) 0.0772(10) 0.4210(4)
H12 H 0.41490 0.05170 0.39190
C25 C 0.4957(10) 0.2240(11) 0.5394(6)
H13 H 0.53600 0.25030 0.54900
C26 C -0.1675(10) 0.3220(12) 0.6200(5)
H14 H -0.23340 0.35510 0.63230
C27 C -0.2243(9) 0.4701(11) 0.5391(6)
H15 H -0.29280 0.50500 0.54830
C28 C 0.0296(10) 0.0819(12) 0.4218(4)
H16 H -0.01410 0.12190 0.39260
C29 C 0.0751(11) -0.0252(13) 0.4339(5)
H17 H 0.06430 -0.06010 0.41240
C30 C 0.3227(12) 0.2413(10) 0.6460(5)
H18 H 0.31050 0.26180 0.67650
C31 C -0.0927(10) 0.2294(10) 0.6467(4)
H19 H -0.10550 0.19700 0.67760
C32 C -0.1998(9) 0.5118(10) 0.4959(6)
H20 H -0.25150 0.57510 0.47570
C33 C -0.0640(11) 0.5039(9) 0.4347(5)
H21 H -0.11220 0.56780 0.41330
C34 C 0.1950(13) -0.2014(12) 0.4957(6)
H22 H 0.19020 -0.24050 0.47470
C35 C 0.5099(9) 0.1947(11) 0.4959(7)
H23 H 0.56010 0.20120 0.47560
C36 C 0.2500(12) -0.2525(10) 0.5376(6)
H24 H 0.28160 -0.32670 0.54680
Mn2 Mn -0.34498(14) 0.67943(16) 0.02306(6)
N7 N -0.2376(8) 0.6775(8) 0.0810(3)
N8 N -0.1937(8) 0.6437(8) -0.0140(3)
N9 N -0.3167(8) 0.5133(9) 0.0569(4)
N10 N -0.4924(8) 0.7725(9) 0.0601(3)
N11 N -0.4295(8) 0.8479(9) -0.0277(4)
C37 C -0.1460(9) 0.6657(9) 0.0644(4)
C38 C -0.258(1) 0.6917(10) 0.1274(4)
H25 H -0.32200 0.70230 0.13920
C39 C -0.1868(11) 0.6914(10) 0.1592(4)
H26 H -0.20260 0.69760 0.19210
N12 N -0.4044(9) 0.6289(12) -0.0368(4)
C40 C -0.5313(9) 0.9026(10) -0.0176(5)
C41 C -0.1230(9) 0.6498(10) 0.0139(4)
C42 C 0.0216(11) 0.6591(13) 0.0728(6)
H27 H 0.07120 0.65840 0.09270
C43 C -0.5627(10) 0.8658(11) 0.0297(5)
C44 C -0.0293(10) 0.6428(11) -0.0066(5)
C45 C -0.0725(10) 0.6708(10) 0.0931(5)
C46 C -0.0811(12) 0.6160(12) -0.0811(5)
H28 H -0.06830 0.60260 -0.11320
C47 C -0.3744(12) 0.5273(18) -0.0263(5)
C48 C -0.6053(10) 0.9984(12) -0.0522(6)
C49 C -0.0978(12) 0.6825(10) 0.1431(5)
H29 H -0.05150 0.68380 0.16430
C50 C -0.2754(12) 0.4574(12) 0.1039(5)
H30 H -0.26840 0.49270 0.12640
C51 C -0.328(1) 0.4622(12) 0.0249(5)
C52 C 0.0412(11) 0.6488(16) 0.0238(6)
H31 H 0.10180 0.64570 0.01050
C53 C -0.1718(10) 0.6265(12) -0.0589(5)
H32 H -0.21950 0.62100 -0.07720
C54 C -0.6192(16) 0.7988(18) 0.1212(5)
H33 H -0.63600 0.77610 0.15330
C55 C -0.397(1) 0.8841(12) -0.0705(5)
H34 H -0.32670 0.84650 -0.07680
C56 C -0.6657(12) 0.9292(14) 0.0411(6)
C57 C -0.5200(12) 0.7405(14) 0.1047(5)
H35 H -0.47140 0.67670 0.12590
C58 C -0.2424(14) 0.3481(14) 0.1206(6)
H36 H -0.21430 0.31220 0.15350
C59 C -0.6889(14) 0.8874(17) 0.0898(8)
H37 H -0.75640 0.92440 0.09990
C60 C -0.0136(13) 0.6251(14) -0.0561(6)
H38 H 0.04630 0.61990 -0.07130
C61 C -0.2964(13) 0.3531(15) 0.0383(6)
C62 C -0.7389(11) 1.0254(15) 0.0031(8)
H39 H -0.80820 1.06600 0.01020
C63 C -0.4647(14) 0.9764(15) -0.1063(6)
H40 H -0.43990 1.00030 -0.13560
C64 C -0.5676(15) 1.0302(13) -0.0972(7)
H41 H -0.61390 1.08940 -0.12150
C65 C -0.7061(13) 1.0540(14) -0.0409(7)
H42 H -0.75350 1.11380 -0.06460
C66 C -0.3836(16) 0.467(2) -0.0590(8)
C67 C -0.4664(16) 0.636(3) -0.1184(7)
H43 H -0.50060 0.67790 -0.14970
C68 C -0.2518(14) 0.2947(14) 0.0882(7)
H44 H -0.22960 0.22200 0.09850
C69 C -0.432(2) 0.531(3) -0.1063(10)
H45 H -0.44030 0.49980 -0.13030
C70 C -0.4499(13) 0.6827(18) -0.0824(5)
H46 H -0.47240 0.75560 -0.09140
C71 C -0.352(2) 0.361(3) -0.0446(12)
H47 H -0.36060 0.32680 -0.06740
C72 C -0.309(2) 0.305(2) 0.0016(11)
H48 H -0.28670 0.23160 0.01030
I5* I 0.34108(6) 0.38260(6) 0.34801(3)
I8* I 0.28571(6) -0.09867(6) 0.34672(3)
I12* I 0.25040(6) 0.70207(7) 0.23321(3)
I13* I -0.78151(7) 1.09997(7) 0.18513(3)
I14* I -0.50829(7) 1.07118(8) 0.28003(4)
Ag5* Ag -0.87584(8) 1.09436(9) 0.28350(4)
Ag7* Ag -0.68012(9) 0.26632(9) 0.28377(4)
Ag9* Ag -0.81140(9) 0.53657(10) 0.26811(4)
Ag10* Ag 0.3837(1) -0.03168(11) 0.26518(5)
#END
