
#######################################################################
#
#                 Cambridge Crystallographic Data Centre
#                                CCDC
#
#######################################################################
#
# If this CIF has been generated from an entry in the Cambridge
# Structural Database, then it will include bibliographic, chemical,
# crystal, experimental, refinement or atomic coordinate data resulting
# from the CCDC's data processing and validation procedures.
#
#######################################################################

data_CSD_CIF_PUZLAZ
_audit_creation_date 2015-12-16
_audit_creation_method CSD-ConQuest-V1
_database_code_CSD PUZLAZ
_database_code_depnum_ccdc_archive 'CCDC 1426842'
_chemical_formula_sum 'C14 H12 In1 N1 O8 S2'
_chemical_formula_moiety
;
(C12 H4 In1 O8 S2 1-)n,n(C2 H8 N1 1+)
;
_journal_coden_Cambridge 1350
_journal_volume 18
_journal_year 2016
_journal_page_first 536
_journal_name_full 'CrystEngComm '
loop_
_publ_author_name
"Prabu M."
"K.S.Asha"
"M.Sinha"
"A.Poduval"
"S.Mandal"
_chemical_name_systematic
;
catena-(Dimethylammonium bis(\m~2~-thiophene-2,5-dicarboxylato)-indium)
;
_cell_volume   2878.025
_exptl_crystal_colour 'colorless'
_exptl_crystal_density_diffrn 1.138
_exptl_crystal_description 'platelike'
_diffrn_ambient_temperature 298
#These two values have been output from a single CSD field.
_refine_ls_R_factor_gt 0.0364
_refine_ls_wR_factor_gt 0.0364
_symmetry_cell_setting tetragonal
_symmetry_space_group_name_H-M 'P 43 2 2'
_symmetry_Int_Tables_number 95
loop_
_symmetry_equiv_pos_site_id
_symmetry_equiv_pos_as_xyz
1 x,y,z
2 -x,-y,1/2+z
3 x,-y,1/2-z
4 -x,y,-z
5 -y,-x,3/4-z
6 y,x,1/4-z
7 y,-x,1/4+z
8 -y,x,3/4+z
_cell_length_a 13.5642(13)
_cell_length_b 13.5642(13)
_cell_length_c 15.6425(12)
_cell_angle_alpha 90
_cell_angle_beta 90
_cell_angle_gamma 90
_cell_formula_units_Z 4
loop_
_atom_type_symbol
_atom_type_radius_bond
C 0.68
H 0.23
In 1.42
N 0.68
O 0.68
S 1.02
loop_
_atom_site_label
_atom_site_type_symbol
_atom_site_fract_x
_atom_site_fract_y
_atom_site_fract_z
In1 In 0.50000 0.07660 0.00000
S1 S 0.72360 -0.21530 -0.10790
O1 O 0.62100 -0.04870 -0.01450
O2 O 0.52720 -0.00300 -0.12140
O3 O 0.80740 -0.39340 -0.29150
O4 O 0.85230 -0.38570 -0.15780
C1 C 0.79890 -0.35550 -0.21760
C2 C 0.59380 -0.05790 -0.09000
C3 C 0.63680 -0.13520 -0.14570
C4 C 0.73090 -0.27300 -0.20510
C5 C 0.66780 -0.23420 -0.26280
H1 H 0.65980 -0.25790 -0.31820
C6 C 0.61550 -0.15290 -0.22870
H2 H 0.57090 -0.11550 -0.26020
N1 N 0.67970 0.00000 0.25000
C7 C 0.68590 -0.08260 0.18630
S1C S 0.27640 -0.21530 0.10790
O1C O 0.37900 -0.04870 0.01450
O2C O 0.47280 -0.00300 0.12140
O3C O 0.19260 -0.39340 0.29150
O4C O 0.14770 -0.38570 0.15780
C1C C 0.20110 -0.35550 0.21760
C2C C 0.40620 -0.05790 0.09000
C3C C 0.36320 -0.13520 0.14570
C4C C 0.26910 -0.27300 0.20510
C5C C 0.33220 -0.23420 0.26280
H1C H 0.34020 -0.25790 0.31820
C6C C 0.38450 -0.15290 0.22870
H2C H 0.42910 -0.11550 0.26020
In1D In 0.92340 -0.50000 -0.25000
In1E In 0.07660 -0.50000 0.25000
O3D O 0.39340 0.19260 0.04150
O3F O 0.60660 0.19260 -0.04150
O4D O 0.38570 0.14770 -0.09220
O4F O 0.61430 0.14770 0.09220
C7B C 0.68590 0.08260 0.31370
#END
