
#######################################################################
#
#                 Cambridge Crystallographic Data Centre
#                                CCDC
#
#######################################################################
#
# If this CIF has been generated from an entry in the Cambridge
# Structural Database, then it will include bibliographic, chemical,
# crystal, experimental, refinement or atomic coordinate data resulting
# from the CCDC's data processing and validation procedures.
#
#######################################################################

data_CSD_CIF_QACGEK
_audit_creation_date 2020-12-10
_audit_creation_method CSD-ConQuest-V1
_database_code_CSD QACGEK
_database_code_depnum_ccdc_archive 'CCDC 2042906'
_chemical_formula_sum 'C83 H95 N7 Na2 O19 Zn2'
_chemical_formula_moiety
;
(C76 H72 N4 Na2 O18 Zn2 2-)n,2(C2 H8 N1 1+),C3 H7 N1 O1
;
_journal_coden_Cambridge 1350
_journal_volume 23
_journal_year 2021
_journal_page_first 569
_journal_name_full 'CrystEngComm '
loop_
_publ_author_name
"Ali Y.Chahine"
"D.R.Turner"
"S.R.Batten"
_chemical_name_systematic
;
catena-[bis(dimethylammonium) 
bis(\m-4-({(4-{bis[(4-carboxylatophenyl)methyl]amino}cyclohexyl)[(4-carboxylat
ophenyl)methyl]amino}methyl)benzoato)-bis(\m-aqua)-di-sodium-di-zinc(ii) 
N,N-dimethylformamide solvate]
;
_cell_volume   1963.950
_exptl_crystal_colour 'colorless'
_exptl_crystal_description 'plate'
_diffrn_ambient_temperature 100
_diffrn_radiation_probe x-ray
_diffrn_source synchrotron
_refine_special_details
;
Sodium coordinated N,N-dimethylformamide molecule is disordered by symmetry 
and has been represented as a solvent molecule for clarity.
;
#These two values have been output from a single CSD field.
_refine_ls_R_factor_gt 0.0853
_refine_ls_wR_factor_gt 0.0853
_symmetry_cell_setting triclinic
_symmetry_space_group_name_H-M 'P -1'
_symmetry_Int_Tables_number 2
loop_
_symmetry_equiv_pos_site_id
_symmetry_equiv_pos_as_xyz
1 x,y,z
2 -x,-y,-z
_cell_length_a 10.508(2)
_cell_length_b 14.186(3)
_cell_length_c 14.263(3)
_cell_angle_alpha 111.15(3)
_cell_angle_beta 97.39(3)
_cell_angle_gamma 90.01(3)
_cell_formula_units_Z 1
loop_
_atom_type_symbol
_atom_type_radius_bond
C 0.68
H 0.23
N 0.68
Na 1.66
O 0.68
Zn 1.22
loop_
_atom_site_label
_atom_site_type_symbol
_atom_site_fract_x
_atom_site_fract_y
_atom_site_fract_z
Na1 Na 0.7596(3) 0.6220(2) 0.9059(2)
Zn1 Zn 0.74517(7) 0.83432(5) 1.07396(5)
O1 O 0.4816(5) 0.7606(3) 0.0608(3)
O2 O 0.6446(4) 0.8363(3) 0.1816(3)
O3 O 0.6438(5) 0.6991(4) 0.8603(4)
O4 O 0.6546(4) 0.8637(3) 0.9605(3)
O5 O 0.8521(5) 0.6125(4) 0.7804(4)
O6 O 0.8793(7) 0.5218(6) 0.8798(5)
O7 O 0.8833(4) -0.0590(3) 0.1412(3)
O8 O 1.0420(4) -0.1674(3) 0.1309(4)
O9 O 0.8363(5) 0.7064(3) 1.0457(4)
N1 N 0.2022(5) 0.8729(4) 0.5379(4)
N2 N 1.3142(5) 0.3384(4) 0.4788(4)
C1 C 0.5335(6) 0.7957(4) 0.1526(5)
C2 C 1.0670(6) 0.1071(5) 0.2328(5)
H1 H 0.99054 0.12044 0.20016
C3 C 0.3482(6) 0.7246(5) 0.2071(5)
H2 H 0.32659 0.68104 0.14012
C4 C 0.2740(6) 0.7212(5) 0.2799(5)
H3 H 0.20331 0.67561 0.26107
C5 C 0.3044(6) 0.7852(5) 0.3805(5)
C6 C 0.4087(6) 0.8543(5) 0.4065(5)
H4 H 0.42824 0.89938 0.47307
C7 C 0.4840(6) 0.8567(5) 0.3342(5)
H5 H 0.55521 0.90180 0.35328
C8 C 0.2257(6) 0.7762(5) 0.4589(5)
H6 H 0.14343 0.74235 0.42420
H7 H 0.26941 0.73364 0.49150
C9 C 0.1085(5) 0.9321(4) 0.4978(5)
H8 H 0.13092 0.92726 0.43171
C10 C -0.0311(6) 0.8930(5) 0.4798(5)
H9 H -0.05677 0.89562 0.54360
H10 H -0.03885 0.82292 0.43380
C11 C 0.1214(6) 1.0443(4) 0.5654(5)
H11 H 0.20951 1.06928 0.57286
H12 H 0.10131 1.05226 0.63222
C12 C 0.1654(6) 0.8537(5) 0.6254(5)
H13 H 0.10561 0.79520 0.60135
H14 H 0.12181 0.91140 0.66590
C13 C 0.2800(6) 0.8350(5) 0.6916(5)
C14 C 0.3667(6) 0.9154(5) 0.7494(5)
H15 H 0.35594 0.97876 0.74485
C15 C 0.4694(7) 0.9010(5) 0.8139(5)
H16 H 0.52462 0.95577 0.85457
C16 C 0.4912(6) 0.8053(5) 0.8186(5)
C17 C 0.6051(6) 0.7878(5) 0.8844(5)
C18 C 0.4045(6) 0.7239(5) 0.7589(5)
H17 H 0.41813 0.65960 0.76017
C19 C 0.2981(6) 0.7393(5) 0.6978(5)
H18 H 0.23891 0.68595 0.66098
C20 C 1.1546(6) 0.1876(5) 0.2927(5)
H19 H 1.13628 0.25359 0.29914
C21 C 0.4540(6) 0.7919(4) 0.2329(5)
C22 C 0.9039(7) 0.5412(6) 0.8062(5)
C23 C 1.0053(7) 0.4839(5) 0.7444(5)
C24 C 1.0782(8) 0.4155(6) 0.7743(6)
H20 H 1.06449 0.40503 0.83299
C25 C 1.1718(7) 0.3621(6) 0.7180(6)
H21 H 1.22082 0.31776 0.74026
C26 C 1.1922(6) 0.3749(5) 0.6283(5)
C27 C 1.1158(6) 0.4424(5) 0.5960(5)
H22 H 1.12560 0.45019 0.53531
C28 C 1.0252(7) 0.4975(6) 0.6553(6)
H23 H 0.97777 0.54385 0.63499
C29 C 1.2898(7) 0.3119(5) 0.5656(6)
H24 H 1.37042 0.31888 0.60967
H25 H 1.26014 0.24134 0.54057
C30 C 1.3969(6) 0.4336(5) 0.5106(5)
H26 H 1.36766 0.48193 0.57167
C31 C 1.3797(6) 0.4804(5) 0.4291(5)
H27 H 1.40677 0.43364 0.36725
H28 H 1.28950 0.49160 0.41448
C32 C 1.4569(6) 0.5797(5) 0.4624(5)
H29 H 1.42546 0.62804 0.52125
H30 H 1.44536 0.60644 0.40832
C33 C 1.3683(6) 0.2538(5) 0.4031(6)
H31 H 1.43726 0.22759 0.43731
H32 H 1.40477 0.27844 0.35671
C34 C 1.2697(6) 0.1685(4) 0.3429(5)
C35 C 1.2946(6) 0.0687(5) 0.3303(5)
H33 H 1.37110 0.05539 0.36275
C36 C 1.2097(6) -0.0115(5) 0.2711(5)
H34 H 1.22929 -0.07743 0.26404
C37 C 1.0931(6) 0.0079(4) 0.2217(5)
C38 C 0.9990(7) -0.0799(5) 0.1603(5)
N3 N 1.2305(6) 0.8009(4) 1.0091(4)
H35 H 1.19222 0.81343 1.06420
H36 H 1.31146 0.78718 1.02426
C39 C 1.2304(7) 0.8928(6) 0.9833(6)
H37 H 1.26589 0.87873 0.92121
H38 H 1.28138 0.94618 1.03693
H39 H 1.14388 0.91325 0.97515
C40 C 1.1647(9) 0.7098(7) 0.9267(7)
H40 H 1.20943 0.69223 0.86852
H41 H 1.07781 0.72428 0.90833
H42 H 1.16454 0.65431 0.95008
O10? O 0.613(2) 0.5369(15) 0.9256(16)
N4? N 0.50000 0.50000 1.00000
C41? C 0.488(2) 0.5146(16) 0.8831(16)
C42? C 0.6235(15) 0.5351(11) 1.0276(12)
O1A O -0.4816(5) 1.2394(3) 0.9392(3)
O2A O -0.6446(4) 1.1637(3) 0.8184(3)
O3A O -0.6438(5) 1.3009(4) 0.1397(4)
O4A O -0.6546(4) 1.1363(3) 0.0395(3)
N1A N -0.2022(5) 1.1271(4) 0.4621(4)
C1A C -0.5335(6) 1.2043(4) 0.8474(5)
C3A C -0.3482(6) 1.2754(5) 0.7929(5)
H2A H -0.32659 1.31896 0.85988
C4A C -0.2740(6) 1.2788(5) 0.7201(5)
H3A H -0.20331 1.32439 0.73893
C5A C -0.3044(6) 1.2148(5) 0.6195(5)
C6A C -0.4087(6) 1.1457(5) 0.5935(5)
H4A H -0.42824 1.10062 0.52693
C7A C -0.4840(6) 1.1433(5) 0.6658(5)
H5A H -0.55521 1.09820 0.64672
C8A C -0.2257(6) 1.2238(5) 0.5411(5)
H6A H -0.14343 1.25765 0.57580
H7A H -0.26941 1.26636 0.50850
C9A C -0.1085(5) 1.0679(4) 0.5022(5)
H8A H -0.13092 1.07274 0.56829
C10A C 0.0311(6) 1.1070(5) 0.5202(5)
H9A H 0.05677 1.10438 0.45640
H10A H 0.03885 1.17708 0.56620
C11A C -0.1214(6) 0.9557(4) 0.4346(5)
H11A H -0.20951 0.93072 0.42714
H12A H -0.10131 0.94774 0.36778
C12A C -0.1654(6) 1.1463(5) 0.3746(5)
H13A H -0.10561 1.20480 0.39865
H14A H -0.12181 1.08860 0.33410
C13A C -0.2800(6) 1.1650(5) 0.3084(5)
C14A C -0.3667(6) 1.0846(5) 0.2506(5)
H15A H -0.35594 1.02124 0.25515
C15A C -0.4694(7) 1.0990(5) 0.1861(5)
H16A H -0.52462 1.04423 0.14543
C16A C -0.4912(6) 1.1947(5) 0.1814(5)
C17A C -0.6051(6) 1.2122(5) 0.1156(5)
C18A C -0.4045(6) 1.2761(5) 0.2411(5)
H17A H -0.41813 1.34040 0.23983
C19A C -0.2981(6) 1.2607(5) 0.3022(5)
H18A H -0.23891 1.31405 0.33902
C21A C -0.4540(6) 1.2081(4) 0.7671(5)
O5A O 2.1479(5) 0.3875(4) 0.2196(4)
O6A O 2.1207(7) 0.4782(6) 0.1202(5)
O7A O 2.1167(4) 1.0590(3) 0.8588(3)
O8A O 1.9580(4) 1.1674(3) 0.8691(4)
N2A N 1.6858(5) 0.6616(4) 0.5212(4)
C2A C 1.9330(6) 0.8929(5) 0.7672(5)
H1A H 2.00946 0.87956 0.79984
C20A C 1.8454(6) 0.8124(5) 0.7073(5)
H19A H 1.86372 0.74641 0.70086
C22A C 2.0961(7) 0.4588(6) 0.1938(5)
C23A C 1.9947(7) 0.5161(5) 0.2556(5)
C24A C 1.9218(8) 0.5845(6) 0.2257(6)
H20A H 1.93551 0.59497 0.16701
C25A C 1.8282(7) 0.6379(6) 0.2820(6)
H21A H 1.77918 0.68224 0.25974
C26A C 1.8078(6) 0.6251(5) 0.3717(5)
C27A C 1.8842(6) 0.5576(5) 0.4040(5)
H22A H 1.87440 0.54981 0.46469
C28A C 1.9748(7) 0.5025(6) 0.3447(6)
H23A H 2.02223 0.45615 0.36501
C29A C 1.7102(7) 0.6881(5) 0.4344(6)
H24A H 1.62958 0.68112 0.39033
H25A H 1.73986 0.75866 0.45943
C30A C 1.6031(6) 0.5664(5) 0.4894(5)
H26A H 1.63234 0.51807 0.42833
C31A C 1.6203(6) 0.5196(5) 0.5709(5)
H27A H 1.59323 0.56636 0.63275
H28A H 1.71050 0.50840 0.58552
C32A C 1.5431(6) 0.4203(5) 0.5376(5)
H29A H 1.57454 0.37196 0.47875
H30A H 1.55464 0.39356 0.59168
C33A C 1.6317(6) 0.7462(5) 0.5969(6)
H31A H 1.56274 0.77241 0.56269
H32A H 1.59523 0.72155 0.64329
C34A C 1.7303(6) 0.8315(4) 0.6571(5)
C35A C 1.7054(6) 0.9313(5) 0.6697(5)
H33A H 1.62890 0.94461 0.63725
C36A C 1.7903(6) 1.0115(5) 0.7289(5)
H34A H 1.77071 1.07743 0.73596
C37A C 1.9069(6) 0.9921(4) 0.7783(5)
C38A C 2.0010(7) 1.0799(5) 0.8397(5)
Na1A Na -0.7596(3) 1.3780(2) 0.0941(2)
Zn1A Zn -0.74517(7) 1.16568(5) -0.07396(5)
O9A O -0.8363(5) 1.2936(3) -0.0457(4)
Na1A* Na 2.2404(3) 0.3780(2) 0.0941(2)
Zn1* Zn 0.74517(7) -0.16568(5) 0.07396(5)
Zn1** Zn 0.74517(7) 0.83432(5) 0.07396(5)
Zn1A* Zn -0.74517(7) 1.16568(5) 0.92604(5)
Zn1A** Zn 2.25483(7) 1.16568(5) 0.92604(5)
O2* O 0.6446(4) 0.8363(3) 1.1816(3)
O2A* O -0.6446(4) 1.1637(3) -0.1816(3)
O5A* O -0.8521(5) 1.3875(4) 0.2196(4)
O6A* O -0.8793(7) 1.4782(6) 0.1202(5)
O7* O 0.8833(4) 0.9410(3) 1.1412(3)
O7A* O -0.8833(4) 1.0590(3) -0.1412(3)
#END
