
#######################################################################
#
#                 Cambridge Crystallographic Data Centre
#                                CCDC
#
#######################################################################
#
# If this CIF has been generated from an entry in the Cambridge
# Structural Database, then it will include bibliographic, chemical,
# crystal, experimental, refinement or atomic coordinate data resulting
# from the CCDC's data processing and validation procedures.
#
#######################################################################

data_CSD_CIF_QACJAJ
_audit_creation_date 2020-12-10
_audit_creation_method CSD-ConQuest-V1
_database_code_CSD QACJAJ
_database_code_depnum_ccdc_archive 'CCDC 2042916'
_chemical_formula_sum 'C42.5 H44.5 Co1 K2 N3.5 O9.5'
_chemical_formula_moiety
;
(C38 H34 Co1 N2 O8 2-)n,1.5(C3 H7 N1 O1),2(K1 1+)
;
_journal_coden_Cambridge 1350
_journal_volume 23
_journal_year 2021
_journal_page_first 569
_journal_name_full 'CrystEngComm '
loop_
_publ_author_name
"Ali Y.Chahine"
"D.R.Turner"
"S.R.Batten"
_chemical_name_systematic
;
catena-[di-potassium 
(\m-4,4',4'',4'''-{cyclohexane-1,4-diylbis[nitrilobis(methylene)]}tetrabenzoat
o)-cobalt N,N-dimethylformamide unknown solvate]
;
_cell_volume  10205.706
_exptl_crystal_colour 'pink'
_exptl_crystal_density_diffrn 1.163
_exptl_crystal_description 'plate'
_diffrn_ambient_temperature 100
_diffrn_radiation_probe x-ray
_diffrn_source synchrotron
_refine_special_details
;
C39B,C40A,C41B,N4B,O10B and C39A,C40B,C41A,N4A,O10A disordered over two sites 
with occupancies 0.5:0.5; C42,C43,N3,O9 disordered by symmetry over two 
configurations with occupancy 0.5; C42A and C42B disordered over two sites 
with occupancies 0.25:0.25; Disordered solvent molecules were not modelled 
and the disordered density was taken into account using the SQUEEZE/PLATON 
procedure.
;
#These two values have been output from a single CSD field.
_refine_ls_R_factor_gt 0.1093
_refine_ls_wR_factor_gt 0.1093
_symmetry_cell_setting monoclinic
_symmetry_space_group_name_H-M 'C 2/c'
_symmetry_Int_Tables_number 15
loop_
_symmetry_equiv_pos_site_id
_symmetry_equiv_pos_as_xyz
1 x,y,z
2 -x,y,1/2-z
3 1/2+x,1/2+y,z
4 1/2-x,1/2+y,1/2-z
5 -x,-y,-z
6 x,-y,-1/2+z
7 -1/2-x,-1/2-y,-z
8 -1/2+x,-1/2-y,-1/2+z
_cell_length_a 32.349(7)
_cell_length_b 12.005(2)
_cell_length_c 26.750(5)
_cell_angle_alpha 90
_cell_angle_beta 100.76(3)
_cell_angle_gamma 90
_cell_formula_units_Z 8
loop_
_atom_type_symbol
_atom_type_radius_bond
C 0.68
H 0.23
Co 1.26
K 2.03
N 0.68
O 0.68
loop_
_atom_site_label
_atom_site_type_symbol
_atom_site_fract_x
_atom_site_fract_y
_atom_site_fract_z
Co1 Co 0.78774(2) 0.45812(5) 0.73050(2)
O1 O 0.72792(11) 0.4872(3) 0.26789(13)
O2 O 0.74871(10) 0.6571(3) 0.25356(12)
O3 O 0.31700(11) 0.9459(3) 0.28746(13)
O4 O 0.33883(13) 1.0987(3) 0.33024(15)
O5 O 0.32636(11) 0.7288(3) 0.70857(15)
O6 O 0.33714(10) 0.9111(3) 0.70007(13)
O7 O 0.75763(11) 0.5524(3) 0.67345(12)
O8 O 0.73853(13) 0.3933(3) 0.63238(14)
N1 N 0.61520(12) 0.7285(3) 0.43984(14)
N2 N 0.46003(12) 0.7550(3) 0.51849(14)
C1 C 0.72429(14) 0.5902(4) 0.27204(16)
C2 C 0.69257(14) 0.6373(4) 0.30018(17)
C3 C 0.68110(15) 0.7495(4) 0.29582(18)
H1 H 0.69277 0.79559 0.27420
C4 C 0.65250(15) 0.7932(4) 0.32334(18)
H2 H 0.64493 0.86793 0.31975
C5 C 0.63493(15) 0.7249(4) 0.35660(18)
C6 C 0.6469(2) 0.6147(5) 0.3611(2)
H3 H 0.63573 0.56903 0.38336
C7 C 0.67546(18) 0.5693(5) 0.3333(2)
H4 H 0.68290 0.49445 0.33683
C8 C 0.60489(15) 0.7711(4) 0.38778(18)
H5 H 0.60651 0.85174 0.38819
H6 H 0.57635 0.74990 0.37264
C9 C 0.58141(14) 0.7330(4) 0.46967(17)
H7 H 0.59406 0.71297 0.50471
C10 C 0.56053(15) 0.8470(4) 0.47193(19)
H8 H 0.54648 0.86859 0.43805
H9 H 0.58186 0.90243 0.48412
C11 C 0.52789(15) 0.8427(4) 0.50812(19)
H10 H 0.54202 0.82449 0.54240
H11 H 0.51453 0.91487 0.50892
C12 C 0.49445(14) 0.7536(4) 0.48864(17)
H12 H 0.48170 0.77506 0.45383
C13 C 0.51458(15) 0.6407(4) 0.48492(19)
H13 H 0.49301 0.58700 0.47126
H14 H 0.52778 0.61609 0.51867
C14 C 0.54754(15) 0.6450(4) 0.45082(19)
H15 H 0.53391 0.66266 0.41628
H16 H 0.56072 0.57253 0.45048
C15 C 0.42110(15) 0.7062(4) 0.4898(2)
H17 H 0.40149 0.69405 0.51263
H18 H 0.42742 0.63439 0.47639
C16 C 0.40061(14) 0.7804(4) 0.44619(18)
C17 C 0.39779(17) 0.8930(5) 0.45423(19)
H19 H 0.40943 0.92287 0.48580
C18 C 0.37742(19) 0.9638(4) 0.4151(2)
H20 H 0.37582 1.03987 0.42108
C19 C 0.35986(15) 0.9208(4) 0.36800(18)
C20 C 0.36286(16) 0.8058(4) 0.36053(19)
H21 H 0.35110 0.77523 0.32914
C21 C 0.38282(16) 0.7370(4) 0.39866(19)
H22 H 0.38448 0.66098 0.39270
C22 C 0.33715(15) 0.9957(5) 0.32579(19)
C23 C 0.47184(16) 0.7049(5) 0.56916(19)
H23 H 0.49966 0.73052 0.58495
H24 H 0.47290 0.62450 0.56589
C24 C 0.44003(15) 0.7360(4) 0.60326(18)
C25 C 0.42784(16) 0.8456(5) 0.60928(19)
H25 H 0.43951 0.90284 0.59301
C26 C 0.39816(16) 0.8706(4) 0.6396(2)
H26 H 0.39067 0.94443 0.64361
C27 C 0.37979(15) 0.7871(4) 0.66375(18)
C28 C 0.39343(19) 0.6761(5) 0.6591(2)
H27 H 0.38260 0.61925 0.67646
C29 C 0.42282(18) 0.6513(5) 0.6289(2)
H28 H 0.43111 0.57786 0.62579
C30 C 0.34518(14) 0.8095(4) 0.69332(18)
C31 C 0.65488(15) 0.7751(4) 0.4680(2)
H29 H 0.64915 0.84685 0.48189
H30 H 0.67386 0.78739 0.44439
C32 C 0.67651(16) 0.7010(4) 0.51095(19)
C33 C 0.66741(17) 0.5875(4) 0.5133(2)
H31 H 0.64749 0.55575 0.48773
C34 C 0.68731(17) 0.5215(5) 0.55287(19)
H32 H 0.68027 0.44667 0.55439
C35 C 0.71858(16) 0.5690(4) 0.59108(17)
C36 C 0.72809(18) 0.6802(5) 0.58867(19)
H33 H 0.74875 0.71191 0.61342
C37 C 0.70672(19) 0.7449(5) 0.5492(2)
H34 H 0.71298 0.82047 0.54839
C38 C 0.73950(15) 0.4966(5) 0.63461(17)
K1 K 0.25656(4) 0.81054(9) 0.32820(4)
K2 K 0.30748(4) 0.68926(11) 0.80154(5)
O9 O 0.3749(3) 0.5582(8) 0.8325(4)
N3 N 0.4249(4) 0.4605(11) 0.8027(5)
C39 C 0.3872(4) 0.4982(13) 0.8014(5)
H35 H 0.36713 0.47718 0.77337
C40 C 0.4575(5) 0.475(2) 0.8506(7)
H36 H 0.47596 0.41178 0.85507
H37 H 0.44380 0.48163 0.87930
H38 H 0.47360 0.54134 0.84779
C41 C 0.4338(14) 0.370(3) 0.7684(16)
H39 H 0.46343 0.35382 0.77516
H40 H 0.41842 0.30444 0.77418
H41 H 0.42545 0.39330 0.73364
C42 C 0.8006(14) 0.4387(18) 0.5215(18)
H42 H 0.82821 0.46890 0.52250
H43 H 0.79344 0.44377 0.55467
H44 H 0.78052 0.48008 0.49759
O10 O 0.7713(4) 0.3769(9) 0.4253(4)
N4 N 0.7999(4) 0.3192(11) 0.5054(4)
C43 C 0.7847(4) 0.3065(12) 0.4573(4)
H45 H 0.78378 0.23348 0.44550
C44 C 0.8156(4) 0.2385(11) 0.5396(5)
H46 H 0.79779 0.23095 0.56437
H47 H 0.84348 0.25875 0.55642
H48 H 0.81665 0.16898 0.52216
O11? O 0.7504(5) 0.4094(12) 0.4154(5)
N5? N 0.7873(4) 0.3799(15) 0.4967(4)
C45? C 0.7626(4) 0.4416(10) 0.4592(5)
H49? H 0.75458 0.51257 0.46764
C46? C 0.8003(5) 0.2637(19) 0.4871(8)
H50? H 0.77687 0.21423 0.48655
H51? H 0.82299 0.24154 0.51377
H52? H 0.80939 0.26046 0.45501
C47? C 0.4369(15) 0.425(3) 0.759(2)
H53? H 0.46551 0.39995 0.76602
H54? H 0.41895 0.36524 0.74403
H55? H 0.43446 0.48592 0.73482
C48? C 0.8008(8) 0.432(2) 0.5430(12)
H56? H 0.78961 0.50596 0.54180
H57? H 0.83098 0.43490 0.55002
H58? H 0.79120 0.39035 0.56935
Co1B Co 0.28774(2) 0.95812(5) 0.73050(2)
Co1E Co 0.78774(2) 0.54188(5) 0.23050(2)
Co1G Co 0.28774(2) 1.04188(5) 0.23050(2)
O1E O 0.72792(11) 0.5128(3) 0.76789(13)
O2E O 0.74871(10) 0.3429(3) 0.75356(12)
O3G O 0.81700(11) 0.5541(3) 0.78746(13)
O6B O 0.83714(10) 0.4111(3) 0.70007(13)
#END
