
#######################################################################
#
#                 Cambridge Crystallographic Data Centre
#                                CCDC
#
#######################################################################
#
# If this CIF has been generated from an entry in the Cambridge
# Structural Database, then it will include bibliographic, chemical,
# crystal, experimental, refinement or atomic coordinate data resulting
# from the CCDC's data processing and validation procedures.
#
#######################################################################

data_CSD_CIF_QAFLES
_audit_creation_date 2020-12-11
_audit_creation_method CSD-ConQuest-V1
_database_code_CSD QAFLES
_database_code_depnum_ccdc_archive 'CCDC 2035308'
_chemical_formula_sum 'C14 H35 Al1 Cu1 Mo6 N6 O32'
_chemical_formula_moiety
;
(C14 H21 Cu1 N6 O4 3+)n,H6 Al1 Mo6 O24 3-,4(H2 O1)
;
_journal_coden_Cambridge 580
_journal_volume 194
_journal_year 2021
_journal_page_first 114943
_journal_name_full 'Polyhedron '
loop_
_publ_author_name
"Zi-Wei Cui"
"Hong-Yan Lin"
"Jian Luan"
_chemical_name_systematic
;
catena-[(\m-3-((4-(pyrazine-2-carboxamido)butyl)carbamoyl)pyrazin-1-ium)-diaqu
a-copper(ii) hexakis(\m-hydroxo)-hexakis(\m-oxo)-aluminium-hexa-molybdenum 
tetrahydrate]
;
_cell_volume    994.895
_exptl_crystal_colour 'blue'
_exptl_crystal_description 'block'
_diffrn_ambient_temperature 296.1
_refine_special_details
;
C7 and C7' disordered over two sites with occupancies 0.514:0.486.

;
#These two values have been output from a single CSD field.
_refine_ls_R_factor_gt 0.0549
_refine_ls_wR_factor_gt 0.0549
_symmetry_cell_setting triclinic
_symmetry_space_group_name_H-M 'P -1'
_symmetry_Int_Tables_number 2
loop_
_symmetry_equiv_pos_site_id
_symmetry_equiv_pos_as_xyz
1 x,y,z
2 -x,-y,-z
_cell_length_a 7.9143(10)
_cell_length_b 9.5735(13)
_cell_length_c 13.9890(18)
_cell_angle_alpha 94.208(3)
_cell_angle_beta 101.769(3)
_cell_angle_gamma 104.694(3)
_cell_formula_units_Z 1
loop_
_atom_type_symbol
_atom_type_radius_bond
C 0.68
H 0.23
Al 1.21
Cu 1.32
Mo 1.54
N 0.68
O 0.68
loop_
_atom_site_label
_atom_site_type_symbol
_atom_site_fract_x
_atom_site_fract_y
_atom_site_fract_z
Mo1 Mo -0.06115(9) 0.42456(8) 0.25781(5)
Al1 Al 0.00000 0.50000 0.50000
O1 O 0.0574(6) 0.6719(5) 0.5934(3)
Mo2 Mo -0.25856(9) 0.64987(8) 0.34665(5)
O2 O 0.0127(6) 0.6016(5) 0.3890(3)
Mo3 Mo -0.20857(9) 0.72417(8) 0.58611(6)
O3 O 0.2382(6) 0.4813(5) 0.5208(4)
O4 O -0.2815(6) 0.4615(6) 0.2738(4)
O5 O -0.4367(7) 0.6919(6) 0.5676(4)
O6 O -0.1179(8) 0.8830(6) 0.6612(4)
O7 O -0.4827(7) 0.6250(7) 0.3356(4)
O8 O -0.1504(8) 0.2561(6) 0.1920(4)
O9 O 0.0005(8) 0.5404(7) 0.1776(4)
O10 O -0.2016(8) 0.7631(6) 0.2639(4)
O11 O -0.1681(7) 0.7890(6) 0.4648(4)
O12 O -0.1846(7) 0.5900(6) 0.6860(4)
Cu1 Cu 1.00000 1.00000 1.00000
O13 O 0.7996(9) 0.9697(7) 1.1138(5)
H1 H 0.79640 1.05233 1.13881
H2 H 0.79724 0.91410 1.15848
N1 N 0.8084(9) 1.0217(7) 0.8942(5)
C1 C 0.7411(10) 0.7673(9) 0.8933(5)
N2 N 0.5268(9) 1.0122(8) 0.7438(5)
C2 C 0.693(1) 0.8942(8) 0.8493(6)
N3 N 0.6304(9) 0.6360(7) 0.8646(4)
H3 H 0.53754 0.62422 0.81727
C3 C 0.6606(11) 0.5096(9) 0.9107(7)
C4 C 0.5514(11) 0.8898(9) 0.7741(6)
H4 H 0.47220 0.80077 0.74409
O14 O 0.8833(7) 0.7916(6) 0.9581(4)
C5 C 0.7816(12) 1.1426(10) 0.8615(6)
H5 H 0.86085 1.23227 0.89025
C6 C 0.6402(12) 1.137(1) 0.7870(7)
H6 H 0.62290 1.22320 0.76583
C7 C 0.599(2) 0.5040(18) 1.0079(13)
H7 H 0.62036 0.41947 1.03708
H8 H 0.66870 0.59018 1.05346
O15 O 0.3129(9) 0.8099(7) 0.4165(5)
H9 H 0.26298 0.71911 0.41167
H10 H 0.30367 0.83302 0.35851
O16 O 0.2557(7) 0.9425(6) 0.5767(4)
H11 H 0.17505 0.86568 0.57882
H12 H 0.20337 1.00555 0.55605
C8? C 0.509(3) 0.4486(19) 0.9595(14)
H13? H 0.39706 0.42033 0.90967
H14? H 0.52667 0.36134 0.98612
H15? H 0.43758 1.01023 0.69637
Mo1A Mo 0.06115(9) 0.57544(8) 0.74219(5)
O1A O -0.0574(6) 0.3281(5) 0.4066(3)
Mo2A Mo 0.25856(9) 0.35013(8) 0.65335(5)
O2A O -0.0127(6) 0.3984(5) 0.6110(3)
Mo3A Mo 0.20857(9) 0.27583(8) 0.41389(6)
O3A O -0.2382(6) 0.5187(5) 0.4792(4)
O4A O 0.2815(6) 0.5385(6) 0.7262(4)
O5A O 0.4367(7) 0.3081(6) 0.4324(4)
O6A O 0.1179(8) 0.1170(6) 0.3388(4)
O7A O 0.4827(7) 0.3750(7) 0.6644(4)
O8A O 0.1504(8) 0.7439(6) 0.8080(4)
O9A O -0.0005(8) 0.4596(7) 0.8224(4)
O10A O 0.2016(8) 0.2369(6) 0.7361(4)
O11A O 0.1681(7) 0.2110(6) 0.5352(4)
O12A O 0.1846(7) 0.4100(6) 0.3140(4)
N1A N 0.1916(9) -0.0217(7) 1.1058(5)
C1A C 0.2589(10) 0.2327(9) 1.1067(5)
N2A N 0.4732(9) -0.0122(8) 1.2562(5)
C2A C 0.307(1) 0.1058(8) 1.1507(6)
N3A N 0.3696(9) 0.3640(7) 1.1354(4)
H3A H 0.46246 0.37578 1.18273
C3A C 0.3394(11) 0.4904(9) 1.0893(7)
C4A C 0.4486(11) 0.1102(9) 1.2259(6)
H4A H 0.52780 0.19923 1.25591
O14A O 0.1167(7) 0.2084(6) 1.0419(4)
C5A C 0.2184(12) -0.1426(10) 1.1385(6)
H5A H 0.13915 -0.23227 1.10975
C6A C 0.3598(12) -0.137(1) 1.2130(7)
H6A H 0.37710 -0.22320 1.23417
C7A C 0.401(2) 0.4960(18) 0.9921(13)
H7A H 0.37964 0.58052 0.96292
H8A H 0.33130 0.40982 0.94654
O13A O 1.2004(9) 1.0303(7) 0.8862(5)
H1A H 1.20359 0.94767 0.86119
H2A H 1.20276 1.08590 0.84152
Cu1* Cu 0.00000 0.00000 1.00000
N1A* N 1.1916(9) 0.9783(7) 1.1058(5)
O14A* O 1.1167(7) 1.2084(6) 1.0419(4)
#END
