
#######################################################################
#
#                 Cambridge Crystallographic Data Centre
#                                CCDC
#
#######################################################################
#
# If this CIF has been generated from an entry in the Cambridge
# Structural Database, then it will include bibliographic, chemical,
# crystal, experimental, refinement or atomic coordinate data resulting
# from the CCDC's data processing and validation procedures.
#
#######################################################################

data_CSD_CIF_QAFSAV
_audit_creation_date 2020-12-11
_audit_creation_method CSD-ConQuest-V1
_database_code_CSD QAFSAV
_database_code_depnum_ccdc_archive 'CCDC 1891447'
_chemical_formula_sum 'C2 H14 Al4 B14 K4 N2 O32'
_chemical_formula_moiety
;
(C2 H10 Al4 B14 N2 O30 4-)n,2(H2 O1),4(K1 1+)
;
_journal_coden_Cambridge 9
_journal_volume 59
_journal_year 2020
_journal_page_first 18366
_journal_name_full 'Inorg.Chem. '
loop_
_publ_author_name
"Chong-An Chen"
"Rui Pan"
"Tian-Jiao Zhang"
"Xu-Yan Li"
"Guo-Yu Yang"
_chemical_name_systematic
;
catena-[tetra-potassium 
(\m-2-(boronatooxy)-4-hydroxy-2,6-dioxido-1,3,5,2,4,6-trioxatriborinan-2-uide)
-(\m-2,2'-(ethane-1,2-diylbis(azanediyl))bis(2,4,6-trioxido-1,3,5,2,4,6-trioxa
triborinan-2-uide))-tetra-aluminium dihydrate unknown solvate]
;
_cell_volume    928.248
_exptl_crystal_colour 'colorless'
_exptl_crystal_description 'block'
_diffrn_ambient_temperature 293
_refine_special_details
;
O1WA and O1WB disordered over two sites with occupancies 0.6:0.4; Disordered 
solvent molecules were not modelled and the disordered density was taken into 
account using the SQUEEZE/PLATON procedure.
;
#These two values have been output from a single CSD field.
_refine_ls_R_factor_gt 0.0483
_refine_ls_wR_factor_gt 0.0483
_symmetry_cell_setting triclinic
_symmetry_space_group_name_H-M 'P -1'
_symmetry_Int_Tables_number 2
loop_
_symmetry_equiv_pos_site_id
_symmetry_equiv_pos_as_xyz
1 x,y,z
2 -x,-y,-z
_cell_length_a 7.0972(2)
_cell_length_b 11.8913(6)
_cell_length_c 12.1505(5)
_cell_angle_alpha 109.108(4)
_cell_angle_beta 90.871(3)
_cell_angle_gamma 105.403(4)
_cell_formula_units_Z 1
loop_
_atom_type_symbol
_atom_type_radius_bond
C 0.68
H 0.23
Al 1.21
B 0.83
K 2.03
N 0.68
O 0.68
loop_
_atom_site_label
_atom_site_type_symbol
_atom_site_fract_x
_atom_site_fract_y
_atom_site_fract_z
Al1 Al 0.71389(16) 1.04037(11) 0.83452(10)
O1 O -0.0132(4) 0.8302(3) 0.6167(2)
O2 O 1.1300(4) 0.8886(3) 1.0348(2)
O3 O 0.1765(4) 0.9040(3) 0.2710(3)
B1 B 0.2159(7) 0.8744(4) 0.3635(4)
O4 O 0.0691(4) 0.8435(3) 0.4294(3)
B2 B 0.0950(6) 0.7946(4) 0.5223(4)
O5 O 0.3030(4) 0.8195(3) 0.5624(2)
B3 B 0.4491(7) 0.8483(4) 0.4956(4)
O6 O 0.5182(4) 0.9380(3) 1.1470(2)
Al2 Al 0.74002(17) 0.80993(11) 0.62453(10)
B4 B 0.6611(6) 0.7992(4) 0.8503(4)
B5 B 0.5377(7) 0.6028(4) 0.6724(4)
B6 B 0.9364(7) 0.8635(4) 1.0052(4)
B7 B 0.6222(6) 0.8963(4) 1.0595(4)
C1 C 0.0407(7) 0.5687(4) 0.5312(4)
N1 N 0.0155(6) 0.6408(3) 0.4558(3)
O7 O 0.5526(4) 0.8540(3) 0.9444(2)
O8 O 0.8569(4) 0.8022(3) 0.8925(2)
O9 O 0.5422(4) 0.6724(3) 0.7869(2)
O10 O 0.6872(4) 0.8766(3) 0.7705(2)
O11 O 0.4357(5) 0.4787(3) 0.6398(3)
H1 H 0.42500 0.44680 0.56820
O12 O 0.6220(4) 0.6504(3) 0.5928(2)
O13 O 0.6365(4) 0.8561(3) 0.5232(2)
O14 O 0.4053(4) 0.8711(3) 0.3941(3)
O15 O 0.8154(4) 0.9023(3) 1.0919(2)
H2 H 0.173(8) 0.581(5) 0.549(4)
H3 H -0.029(8) 0.583(5) 0.595(5)
H4 H -0.109(9) 0.616(5) 0.439(5)
H5 H 0.067(9) 0.606(6) 0.400(6)
K1 K 0.21620(14) 0.81473(10) 0.79895(8)
K2 K 0.21308(14) 1.08696(10) 0.67387(9)
O16 O -0.191(2) 0.4451(15) 0.7644(14)
O17? O -0.029(3) 0.543(2) 0.7847(18)
O1A O 0.0132(4) 0.1698(3) 0.3833(2)
O3A O -0.1765(4) 0.0960(3) 0.7290(3)
B1A B -0.2159(7) 0.1256(4) 0.6365(4)
O4A O -0.0691(4) 0.1565(3) 0.5706(3)
B2A B -0.0950(6) 0.2054(4) 0.4777(4)
O5A O -0.3030(4) 0.1805(3) 0.4376(2)
B3A B -0.4491(7) 0.1517(4) 0.5044(4)
C1A C -0.0407(7) 0.4313(4) 0.4688(4)
N1A N -0.0155(6) 0.3592(3) 0.5442(3)
O13A O -0.6365(4) 0.1439(3) 0.4768(2)
O14A O -0.4053(4) 0.1289(3) 0.6059(3)
H2A H -0.173(8) 0.419(5) 0.451(4)
H3A H 0.029(8) 0.417(5) 0.405(5)
H4A H 0.109(9) 0.384(5) 0.561(5)
H5A H -0.067(9) 0.394(6) 0.600(6)
Al1A Al -0.71389(16) -0.04037(11) 0.16548(10)
O2A O -1.1300(4) 0.1114(3) -0.0348(2)
O6A O -0.5182(4) 0.0620(3) -0.1470(2)
Al2A Al -0.74002(17) 0.19007(11) 0.37547(10)
B4A B -0.6611(6) 0.2008(4) 0.1497(4)
B5A B -0.5377(7) 0.3972(4) 0.3276(4)
B6A B -0.9364(7) 0.1365(4) -0.0052(4)
B7A B -0.6222(6) 0.1037(4) -0.0595(4)
O7A O -0.5526(4) 0.1460(3) 0.0556(2)
O8A O -0.8569(4) 0.1978(3) 0.1075(2)
O9A O -0.5422(4) 0.3276(3) 0.2131(2)
O10A O -0.6872(4) 0.1234(3) 0.2295(2)
O11A O -0.4357(5) 0.5213(3) 0.3602(3)
H1A H -0.42500 0.55320 0.43180
O12A O -0.6220(4) 0.3496(3) 0.4072(2)
O15A O -0.8154(4) 0.0977(3) -0.0919(2)
Al1* Al -1.28611(16) 0.04037(11) -0.16548(10)
Al1** Al -0.28611(16) 0.04037(11) -0.16548(10)
Al1*** Al -0.28611(16) 0.04037(11) 0.83452(10)
Al1A* Al 0.28611(16) 0.95963(11) 0.16548(10)
Al1A** Al 0.28611(16) 0.95963(11) 1.16548(10)
Al1A*** Al 1.28611(16) 0.95963(11) 1.16548(10)
O1* O 0.9868(4) 0.8302(3) 0.6167(2)
O1A* O -0.9868(4) 0.1698(3) 0.3833(2)
O2* O -0.8700(4) -0.1114(3) 0.0348(2)
O2A* O 0.8700(4) 1.1114(3) 0.9652(2)
O3* O -0.8235(4) -0.0960(3) 0.2710(3)
O3A* O 0.8235(4) 1.0960(3) 0.7290(3)
O6* O -0.4818(4) -0.0620(3) 0.1470(2)
O6A* O 0.4818(4) 1.0620(3) 0.8530(2)
Al2* Al -0.25998(17) 0.80993(11) 0.62453(10)
Al2A* Al 0.25998(17) 0.19007(11) 0.37547(10)
#END
