
#######################################################################
#
#                 Cambridge Crystallographic Data Centre
#                                CCDC
#
#######################################################################
#
# If this CIF has been generated from an entry in the Cambridge
# Structural Database, then it will include bibliographic, chemical,
# crystal, experimental, refinement or atomic coordinate data resulting
# from the CCDC's data processing and validation procedures.
#
#######################################################################

data_CSD_CIF_QAFSEZ
_audit_creation_date 2020-12-11
_audit_creation_method CSD-ConQuest-V1
_database_code_CSD QAFSEZ
_database_code_depnum_ccdc_archive 'CCDC 1891446'
_chemical_formula_sum 'C2 H10 B14 Ga4 K4 N2 O30'
_chemical_formula_moiety
;
(C2 H10 B14 Ga4 N2 O30 4-)n,4(K1 1+)
;
_journal_coden_Cambridge 9
_journal_volume 59
_journal_year 2020
_journal_page_first 18366
_journal_name_full 'Inorg.Chem. '
loop_
_publ_author_name
"Chong-An Chen"
"Rui Pan"
"Tian-Jiao Zhang"
"Xu-Yan Li"
"Guo-Yu Yang"
_chemical_name_systematic
;
catena-[tetra-potassium 
(\m-2-(boronatooxy)-4-hydroxy-2,6-dioxido-1,3,5,2,4,6-trioxatriborinan-2-uide)
-(\m-2,2'-(ethane-1,2-diylbis(azanediyl))bis(2,4,6-trioxido-1,3,5,2,4,6-trioxa
triborinan-2-uide))-tetra-gallium unknown solvate]
;
_cell_volume    963.576
_exptl_crystal_colour 'colorless'
_exptl_crystal_density_diffrn 1.945
_exptl_crystal_description 'block'
_diffrn_ambient_temperature 293
_refine_special_details
;
Disordered solvent molecules were not modelled and the disordered density was 
taken into account using the SQUEEZE/PLATON procedure.
;
#These two values have been output from a single CSD field.
_refine_ls_R_factor_gt 0.057
_refine_ls_wR_factor_gt 0.057
_symmetry_cell_setting triclinic
_symmetry_space_group_name_H-M 'P -1'
_symmetry_Int_Tables_number 2
loop_
_symmetry_equiv_pos_site_id
_symmetry_equiv_pos_as_xyz
1 x,y,z
2 -x,-y,-z
_cell_length_a 7.1132(3)
_cell_length_b 12.2052(7)
_cell_length_c 12.3686(7)
_cell_angle_alpha 109.731(6)
_cell_angle_beta 106.266(4)
_cell_angle_gamma 90.672(4)
_cell_formula_units_Z 1
loop_
_atom_type_symbol
_atom_type_radius_bond
C 0.68
H 0.23
B 0.83
Ga 1.22
K 2.03
N 0.68
O 0.68
loop_
_atom_site_label
_atom_site_type_symbol
_atom_site_fract_x
_atom_site_fract_y
_atom_site_fract_z
Ga1 Ga 1.21201(11) 0.83885(7) 1.04506(8)
O1 O 0.6600(8) 0.2694(5) 0.8995(6)
O2 O 0.5667(8) 0.4277(5) 0.8416(7)
B1 B 0.5994(16) 0.5186(10) 0.7958(10)
O3 O 0.8068(8) 0.5559(5) 0.8219(6)
B2 B 0.9512(13) 0.4888(8) 0.8521(9)
O4 O 1.1375(7) 0.5113(4) 0.8586(6)
O5 O 0.9017(8) 0.3904(5) 0.8771(6)
Ga2 Ga 1.23618(12) 0.61873(7) 0.81094(8)
O6 O 0.4973(8) 0.6177(5) 0.8345(6)
O7 O 1.6324(7) 1.0217(4) 0.8843(5)
O8 O 1.3229(8) 1.0857(4) 0.9016(5)
O9 O 1.0544(7) 0.9448(4) 0.8584(5)
O10 O 1.3527(8) 0.8843(4) 0.8079(5)
O11 O 1.0331(8) 1.1497(4) 0.9374(5)
O12 O 1.1758(8) 0.7692(4) 0.8791(5)
O13 O 1.0325(8) 0.7833(5) 0.6828(5)
O14 O 0.9362(10) 0.6434(5) 0.4890(6)
H1 H 0.92760 0.57250 0.45370
O15 O 1.1123(8) 0.5869(5) 0.6492(5)
N1 N 0.5109(14) 0.4554(8) 0.6437(9)
H2 H 0.57470 0.38530 0.61900
H3 H 0.37120 0.43060 0.62260
B3 B 1.1325(13) 1.0584(8) 0.8986(9)
B4 B 1.4379(13) 0.9976(7) 0.8650(8)
B5 B 1.1553(12) 0.8467(8) 0.8044(9)
B6 B 1.0288(13) 0.6700(8) 0.6087(9)
C1 C 0.5373(18) 0.5325(13) 0.5676(12)
H4 H 0.46730 0.60060 0.58800
H5 H 0.67610 0.56020 0.59000
B7 B 0.7099(13) 0.3606(8) 0.875(1)
K1 K 0.7206(3) 0.79291(18) 0.8159(2)
K2 K 1.2861(4) 0.3213(3) 0.9144(4)
O1A O 0.3400(8) 0.7306(5) 0.1005(6)
O2A O 0.4333(8) 0.5723(5) 0.1584(7)
B1A B 0.4006(16) 0.4814(10) 0.2042(10)
O3A O 0.1932(8) 0.4441(5) 0.1781(6)
B2A B 0.0488(13) 0.5112(8) 0.1479(9)
O4A O -0.1375(7) 0.4887(4) 0.1414(6)
O5A O 0.0983(8) 0.6096(5) 0.1229(6)
O6A O 0.5027(8) 0.3823(5) 0.1655(6)
N1A N 0.4891(14) 0.5446(8) 0.3563(9)
H2A H 0.42530 0.61470 0.38100
H3A H 0.62880 0.56940 0.37740
C1A C 0.4627(18) 0.4675(13) 0.4324(12)
H4A H 0.53270 0.39940 0.41200
H5A H 0.32390 0.43980 0.41000
B7A B 0.2901(13) 0.6394(8) 0.125(1)
Ga1A Ga -0.21201(11) 0.16115(7) -0.04506(8)
Ga2A Ga -0.23618(12) 0.38127(7) 0.18906(8)
O7A O -0.6324(7) -0.0217(4) 0.1157(5)
O8A O -0.3229(8) -0.0857(4) 0.0984(5)
O9A O -0.0544(7) 0.0552(4) 0.1416(5)
O10A O -0.3527(8) 0.1157(4) 0.1921(5)
O11A O -0.0331(8) -0.1497(4) 0.0626(5)
O12A O -0.1758(8) 0.2308(4) 0.1209(5)
O13A O -0.0325(8) 0.2167(5) 0.3172(5)
O14A O 0.0638(10) 0.3566(5) 0.5110(6)
H1A H 0.07240 0.42750 0.54630
O15A O -0.1123(8) 0.4131(5) 0.3508(5)
B3A B -0.1325(13) -0.0584(8) 0.1014(9)
B4A B -0.4379(13) 0.0024(7) 0.1350(8)
B5A B -0.1553(12) 0.1533(8) 0.1956(9)
B6A B -0.0288(13) 0.3300(8) 0.3913(9)
Ga1* Ga -0.78799(11) -0.16115(7) 0.04506(8)
Ga1** Ga 0.21201(11) -0.16115(7) 0.04506(8)
Ga1*** Ga 0.21201(11) 0.83885(7) 0.04506(8)
Ga1A* Ga 0.78799(11) 0.16115(7) 0.95494(8)
Ga1A** Ga 0.78799(11) 1.16115(7) 0.95494(8)
Ga1A*** Ga 1.78799(11) 1.16115(7) 0.95494(8)
O1* O -0.3400(8) 0.2694(5) -0.1005(6)
O1A* O 1.3400(8) 0.7306(5) 1.1005(6)
Ga2* Ga 0.23618(12) 0.61873(7) 0.81094(8)
Ga2A* Ga 0.76382(12) 0.38127(7) 0.18906(8)
O6* O 1.4973(8) 0.6177(5) 0.8345(6)
O6A* O -0.4973(8) 0.3823(5) 0.1655(6)
O7* O -0.3676(7) 0.0217(4) -0.1157(5)
O7A* O 1.3676(7) 0.9783(4) 1.1157(5)
O11* O 0.0331(8) 0.1497(4) -0.0626(5)
O11A* O 0.9669(8) 0.8503(4) 1.0626(5)
#END
