
#######################################################################
#
#                 Cambridge Crystallographic Data Centre
#                                CCDC
#
#######################################################################
#
# If this CIF has been generated from an entry in the Cambridge
# Structural Database, then it will include bibliographic, chemical,
# crystal, experimental, refinement or atomic coordinate data resulting
# from the CCDC's data processing and validation procedures.
#
#######################################################################

data_CSD_CIF_QAGDUY
_audit_creation_date 2003-05-06
_audit_creation_method CSD-ConQuest-V1
_database_code_CSD QAGDUY
_database_code_depnum_ccdc_archive 'CCDC 181841'
_chemical_formula_sum 'C24 H52 Ag2 Ba1 N4 O10 S8 W2'
_chemical_formula_moiety
;
(C24 H52 Ba1 N4 O10 2+)n,n(Ag2 S8 W2 2-)
;
_journal_coden_Cambridge 1186
_journal_volume 15
_journal_year 2003
_journal_page_first 127
_journal_name_full 'Supramol.Chem. '
loop_
_publ_author_name
"Biao Wu"
"Xiaojuan Yang"
"Wen-Hua Sun"
"Tianzhu Zhang"
_chemical_name_systematic
;
catena-(tetrakis(dimethylformamide)-(18-crown-6)-barium 
bis(\m~3~-sulfido)-tetrakis(\m~2~-sulfido)-dithio-di-silver-di-tungsten)
;
_cell_volume   2380.376
_exptl_crystal_colour 'orange'
_exptl_crystal_description 'Block'
_diffrn_ambient_temperature 293
#These two values have been output from a single CSD field.
_refine_ls_R_factor_gt 0.0323
_refine_ls_wR_factor_gt 0.0323
_symmetry_cell_setting monoclinic
_symmetry_space_group_name_H-M 'P 21'
_symmetry_Int_Tables_number 4
loop_
_symmetry_equiv_pos_site_id
_symmetry_equiv_pos_as_xyz
1 x,y,z
2 -x,1/2+y,-z
_cell_length_a 8.4524(1)
_cell_length_b 18.0486(1)
_cell_length_c 15.6294(1)
_cell_angle_alpha 90
_cell_angle_beta 93.299(1)
_cell_angle_gamma 90
_cell_formula_units_Z 2
loop_
_atom_type_symbol
_atom_type_radius_bond
C 0.63
H 0.23
Ag 1.59
Ba 1.89
N 0.68
O 0.68
S 1.02
W 1.37
loop_
_atom_site_label
_atom_site_type_symbol
_atom_site_fract_x
_atom_site_fract_y
_atom_site_fract_z
W1 W 0.34231(4) 0.48063(2) 0.20346(2)
W2 W 0.85149(4) 0.25809(2) 0.29899(2)
Ag1 Ag 0.09351(10) 0.37172(6) 0.25412(6)
Ag2 Ag 0.59779(10) 0.37048(6) 0.25352(6)
S1 S 0.3331(4) 0.5487(2) 0.0898(2)
S2 S 0.1399(4) 0.5100(2) 0.2796(2)
S3 S 0.5617(4) 0.5084(2) 0.2796(2)
S4 S 0.3334(3) 0.36192(15) 0.1618(2)
S5 S 0.6517(4) 0.2816(2) 0.3780(2)
S6 S 0.8387(3) 0.3229(2) 0.1756(2)
S7 S 0.8422(5) 0.1423(2) 0.2669(3)
S8 S 0.0725(3) 0.2781(2) 0.3767(2)
Ba1 Ba 0.23713(6) -0.12652(3) 0.23110(3)
O1 O 0.3801(12) -0.2602(5) 0.2990(8)
O2 O 0.4939(9) -0.2000(4) 0.1480(7)
O3 O 0.2732(8) -0.1154(4) 0.0503(4)
O4 O -0.0004(8) -0.0601(4) 0.1125(5)
O5 O -0.0958(8) -0.1337(5) 0.2579(5)
O6 O 0.1142(11) -0.2113(4) 0.3688(5)
O7 O 0.1001(12) -0.2432(6) 0.1467(6)
O8 O 0.4711(7) -0.0975(4) 0.3592(4)
O9 O 0.1414(8) -0.0169(5) 0.3418(5)
O10 O 0.4056(10) -0.0031(4) 0.1907(5)
N1 N -0.0199(17) -0.3236(7) 0.0567(12)
N2 N 0.6032(9) -0.0248(6) 0.4581(5)
N3 N 0.1512(10) 0.0261(5) 0.4767(5)
N4 N 0.4188(11) 0.1193(4) 0.1605(6)
C1 C 0.5276(28) -0.2722(10) 0.2763(15)
H1 H 0.5617(28) -0.3205(10) 0.2976(15)
H2 H 0.5968(28) -0.2355(10) 0.3041(15)
C2 C 0.5470(18) -0.2697(8) 0.1867(15)
H3 H 0.4877(18) -0.3100(8) 0.1592(15)
H4 H 0.6580(18) -0.2769(8) 0.1764(15)
C3 C 0.4937(17) -0.1956(9) 0.0580(11)
H5 H 0.4293(17) -0.2354(9) 0.0330(11)
H6 H 0.6010(17) -0.2021(9) 0.0404(11)
C4 C 0.4314(15) -0.1240(9) 0.0254(8)
H7 H 0.4969(15) -0.0839(9) 0.0487(8)
H8 H 0.4333(15) -0.1227(9) -0.0366(8)
C5 C 0.1932(15) -0.0568(7) 0.0077(7)
H9 H 0.2105(15) -0.0584(7) -0.0531(7)
H10 H 0.2318(15) -0.0097(7) 0.0303(7)
C6 C 0.0228(16) -0.0651(8) 0.0218(8)
H11 H -0.0371(16) -0.0265(8) -0.0087(8)
H12 H -0.0147(16) -0.1127(8) 0.0000(8)
C7 C -0.1643(13) -0.0724(8) 0.1304(11)
H13 H -0.2298(13) -0.0335(8) 0.1042(11)
H14 H -0.1999(13) -0.1194(8) 0.1061(11)
C8 C -0.1803(14) -0.0729(8) 0.2208(10)
H15 H -0.1392(14) -0.0270(8) 0.2456(10)
H16 H -0.2914(14) -0.0767(8) 0.2327(10)
C9 C -0.1227(15) -0.1437(8) 0.3456(9)
H17 H -0.2356(15) -0.1432(8) 0.3537(9)
H18 H -0.0736(15) -0.1038(8) 0.3791(9)
C10 C -0.0532(17) -0.2166(8) 0.3743(9)
H19 H -0.0787(17) -0.2269(8) 0.4329(9)
H20 H -0.0954(17) -0.2562(8) 0.3379(9)
C11 C 0.1874(21) -0.2761(8) 0.3982(10)
H21 H 0.1439(21) -0.3180(8) 0.3661(10)
H22 H 0.1676(21) -0.2834(8) 0.4582(10)
C12 C 0.3571(23) -0.2712(9) 0.3882(11)
H23 H 0.4018(23) -0.2301(9) 0.4215(11)
H24 H 0.4089(23) -0.3165(9) 0.4082(11)
C13 C 0.0560(25) -0.2766(17) 0.1036(32)
C14 C -0.0215(35) -0.3416(17) -0.0280(16)
H25 H -0.0964(35) -0.3808(17) -0.0399(16)
H26 H 0.0821(35) -0.3577(17) -0.0419(16)
H27 H -0.0514(35) -0.2990(17) -0.0620(16)
C15 C -0.0848(22) -0.3768(13) 0.1151(12)
H28 H -0.1438(22) -0.4139(13) 0.0828(12)
H29 H -0.1536(22) -0.3518(13) 0.1524(12)
H30 H 0.0001(22) -0.4000(13) 0.1487(12)
C16 C 0.5199(12) -0.0371(6) 0.3847(7)
H31 H 0.4968(12) 0.0036(6) 0.3497(7)
C17 C 0.6594(19) 0.0445(8) 0.4829(10)
H32 H 0.7161(19) 0.0408(8) 0.5378(10)
H33 H 0.5719(19) 0.0780(8) 0.4869(10)
H34 H 0.7292(19) 0.0627(8) 0.4414(10)
C18 C 0.6361(14) -0.0858(7) 0.5173(7)
H35 H 0.6968(14) -0.0680(7) 0.5669(7)
H36 H 0.6950(14) -0.1234(7) 0.4897(7)
H37 H 0.5380(14) -0.1062(7) 0.5346(7)
C19 C 0.1367(12) 0.0331(6) 0.3940(7)
H38 H 0.1213(12) 0.0808(6) 0.3726(7)
C20 C 0.1455(17) 0.0895(8) 0.5325(8)
H39 H 0.1583(17) 0.0735(8) 0.5911(8)
H40 H 0.0452(17) 0.1140(8) 0.5232(8)
H41 H 0.2293(17) 0.1232(8) 0.5205(8)
C21 C 0.1728(14) -0.0460(7) 0.5165(7)
H42 H 0.1812(14) -0.0404(7) 0.5777(7)
H43 H 0.2678(14) -0.0684(7) 0.4977(7)
H44 H 0.0836(14) -0.0770(7) 0.5005(7)
C22 C 0.4538(17) 0.0506(9) 0.1549(10)
H45 H 0.5304(17) 0.0403(9) 0.1162(10)
C23 C 0.3299(22) 0.1408(10) 0.2289(11)
H46 H 0.3114(22) 0.1933(10) 0.2261(11)
H47 H 0.3869(22) 0.1289(10) 0.2820(11)
H48 H 0.2303(22) 0.1152(10) 0.2256(11)
C24 C 0.4897(21) 0.1749(8) 0.1087(11)
H49 H 0.4483(21) 0.2228(8) 0.1222(11)
H50 H 0.4655(21) 0.1643(8) 0.0492(11)
H51 H 0.6025(21) 0.1747(8) 0.1201(11)
Ag1* Ag 1.09351(10) 0.37172(6) 0.25412(6)
S6* S -0.1613(3) 0.3229(2) 0.1756(2)
S8* S 1.0725(3) 0.2781(2) 0.3767(2)
W2* W -0.14851(4) 0.25809(2) 0.29899(2)
Ag2* Ag -0.40221(10) 0.37048(6) 0.25352(6)
#END
