
#######################################################################
#
#                 Cambridge Crystallographic Data Centre
#                                CCDC
#
#######################################################################
#
# If this CIF has been generated from an entry in the Cambridge
# Structural Database, then it will include bibliographic, chemical,
# crystal, experimental, refinement or atomic coordinate data resulting
# from the CCDC's data processing and validation procedures.
#
#######################################################################

data_CSD_CIF_QAGFIR
_audit_creation_date 2020-12-11
_audit_creation_method CSD-ConQuest-V1
_database_code_CSD QAGFIR
_database_code_depnum_ccdc_archive 'CCDC 1442769'
_chemical_formula_sum 'C20 H16 Li5 N1 O13'
_chemical_formula_moiety
;
(C18 H8 Li5 O13 1-)n,C2 H8 N1 1+
;
_journal_coden_Cambridge 1267
_journal_volume 235
_journal_year 2020
_journal_page_first 1289
_journal_name_full 'Z.Kristallogr.-New Cryst.Struct. '
loop_
_publ_author_name
"Ying Li"
"Yu-Cai Qin"
"Bao-Kuan Chen"
_chemical_name_systematic
;
catena-[dimethylammonium 
bis(\m-benzene-1,3,5-tricarboxylato)-aqua-penta-lithium]
;
_cell_volume   1978.353
_exptl_crystal_colour 'colorless'
_exptl_crystal_density_diffrn 1.722
_exptl_crystal_description 'block'
_diffrn_ambient_temperature 172.9
#These two values have been output from a single CSD field.
_refine_ls_R_factor_gt 0.0439
_refine_ls_wR_factor_gt 0.0439
_symmetry_cell_setting orthorhombic
_symmetry_space_group_name_H-M 'P n m a'
_symmetry_Int_Tables_number 62
loop_
_symmetry_equiv_pos_site_id
_symmetry_equiv_pos_as_xyz
1 x,y,z
2 1/2-x,-y,1/2+z
3 -x,1/2+y,-z
4 1/2+x,1/2-y,1/2-z
5 -x,-y,-z
6 -1/2+x,y,-1/2-z
7 x,-1/2-y,z
8 -1/2-x,-1/2+y,-1/2+z
_cell_length_a 9.9218(8)
_cell_length_b 14.6941(11)
_cell_length_c 13.5697(10)
_cell_angle_alpha 90
_cell_angle_beta 90
_cell_angle_gamma 90
_cell_formula_units_Z 4
loop_
_atom_type_symbol
_atom_type_radius_bond
C 0.68
H 0.23
Li 1.28
N 0.68
O 0.68
loop_
_atom_site_label
_atom_site_type_symbol
_atom_site_fract_x
_atom_site_fract_y
_atom_site_fract_z
C1 C 0.3316(2) 0.61540(14) 0.98985(15)
C2 C 0.3527(2) 0.58610(14) 0.89394(15)
H1 H 0.27752 0.57583 0.85205
C3 C 0.4824(2) 0.57152(14) 0.85810(15)
C4 C 0.5925(2) 0.58884(14) 0.91913(15)
H2 H 0.68119 0.57755 0.89576
C5 C 0.5737(2) 0.62253(14) 1.01400(15)
C6 C 0.4426(2) 0.63586(14) 1.04877(16)
H3 H 0.42904 0.65914 1.11333
C7 C 0.1928(2) 0.61438(15) 1.03547(15)
C8 C 0.5016(2) 0.52939(14) 0.75820(15)
C9 C 0.6919(2) 0.63341(14) 1.08296(15)
Li1 Li 0.2258(4) 0.5644(3) 1.2248(3)
Li2 Li 0.0494(4) 0.4660(3) 0.9122(3)
Li3 Li 0.1297(6) 0.75000 1.2191(4)
O1 O 0.18033(14) 0.64744(10) 1.12066(10)
O2 O 0.09736(14) 0.57719(10) 0.98906(10)
O3 O 0.40498(14) 0.53272(10) 0.69771(10)
O4 O 0.61176(15) 0.49114(10) 0.73767(10)
O5 O 0.80962(14) 0.62671(11) 1.04832(10)
O6 O 0.66678(14) 0.64572(10) 1.17317(10)
O7 O -0.0669(2) 0.75000 1.20898(17)
H4 H -0.101(2) 0.7056(14) 1.1784(16)
C10 C 1.0615(4) 0.75000 0.8549(3)
H5 H 1.13486 0.75000 0.90321
H6 H 1.06814 0.80446 0.81348
C11 C 0.8155(4) 0.75000 0.8361(3)
H7 H 0.73041 0.75000 0.87275
H8 H 0.82020 0.69554 0.79451
N1 N 0.9301(3) 0.75000 0.9062(2)
H9 H 0.925(3) 0.7991(14) 0.9455(16)
H4F H -0.101(2) 0.7944(14) 1.1784(16)
C1D C -0.3316(2) 0.38460(14) 1.01015(15)
C2D C -0.3527(2) 0.41390(14) 1.10606(15)
H1D H -0.27752 0.42417 1.14795
C3D C -0.4824(2) 0.42848(14) 1.14190(15)
C4D C -0.5925(2) 0.41116(14) 1.08087(15)
H2D H -0.68119 0.42245 1.10424
C5D C -0.5737(2) 0.37747(14) 0.98600(15)
C6D C -0.4426(2) 0.36414(14) 0.95123(16)
H3D H -0.42904 0.34086 0.88667
C7D C -0.1928(2) 0.38562(15) 0.96453(15)
C8D C -0.5016(2) 0.47061(14) 1.24180(15)
C9D C -0.6919(2) 0.36659(14) 0.91704(15)
Li1D Li -0.2258(4) 0.4356(3) 0.7752(3)
Li2D Li -0.0494(4) 0.5340(3) 1.0878(3)
O1D O -0.18033(14) 0.35256(10) 0.87934(10)
O2D O -0.09736(14) 0.42281(10) 1.01094(10)
O3D O -0.40498(14) 0.46728(10) 1.30229(10)
O4D O -0.61176(15) 0.50886(10) 1.26233(10)
O5D O -0.80962(14) 0.37329(11) 0.95168(10)
O6D O -0.66678(14) 0.35428(10) 0.82683(10)
Li1* Li -0.7742(4) 0.5644(3) 1.2248(3)
Li1A Li -0.7258(4) 0.4356(3) 0.7248(3)
Li1A* Li 0.2742(4) 0.4356(3) 0.7248(3)
Li1D* Li 0.7742(4) 0.4356(3) 0.7752(3)
Li1E Li -0.2742(4) 0.5644(3) 1.2752(3)
Li1E* Li 0.7258(4) 0.5644(3) 1.2752(3)
Li2* Li -0.9506(4) 0.4660(3) 0.9122(3)
Li2A Li -0.5494(4) 0.5340(3) 1.4122(3)
Li2D* Li 0.9506(4) 0.5340(3) 1.0878(3)
Li2E Li 0.5494(4) 0.4660(3) 0.5878(3)
Li3A Li -0.6297(6) 0.25000 0.7191(4)
Li3B Li -0.1297(6) 0.25000 0.7809(4)
Li3C Li 0.6297(6) 0.75000 1.2809(4)
O1F O 0.18033(14) 0.85256(10) 1.12066(10)
O3A O 0.09502(14) 0.46728(10) 1.19771(10)
O3E O -0.09502(14) 0.53272(10) 0.80229(10)
O4* O -0.38824(15) 0.49114(10) 0.73767(10)
O4A O -0.11176(15) 0.50886(10) 1.23767(10)
O4D* O 0.38824(15) 0.50886(10) 1.26233(10)
O4E O 0.11176(15) 0.49114(10) 0.76233(10)
O5* O -0.19038(14) 0.62671(11) 1.04832(10)
O5D* O 0.19038(14) 0.37329(11) 0.95168(10)
O6A O -0.16678(14) 0.35428(10) 0.67317(10)
O6C O 0.16678(14) 0.85428(10) 1.32683(10)
O6E O 0.16678(14) 0.64572(10) 1.32683(10)
H6F H 1.06814 0.69554 0.81348
H8F H 0.82020 0.80446 0.79451
H9F H 0.925(3) 0.7009(14) 0.9455(16)
#END
