
#######################################################################
#
#                 Cambridge Crystallographic Data Centre
#                                CCDC
#
#######################################################################
#
# If this CIF has been generated from an entry in the Cambridge
# Structural Database, then it will include bibliographic, chemical,
# crystal, experimental, refinement or atomic coordinate data resulting
# from the CCDC's data processing and validation procedures.
#
#######################################################################

data_CSD_CIF_QAHPEX05
_audit_creation_date 2016-05-18
_audit_creation_method CSD-ConQuest-V1
_database_code_CSD QAHPEX05
_database_code_depnum_ccdc_archive 'CCDC 1450836'
_chemical_formula_sum 'C10 H20 Mn2 N2 O12'
_chemical_formula_moiety
;
(C6 H6 Mn2 O12 2-)n,C4 H14 N2 2+
;
_journal_coden_Cambridge 1220
_journal_volume 22
_journal_year 2016
_journal_page_first 6199
_journal_name_full 'Chem.-Eur.J. '
loop_
_publ_author_name
"Ran Shang"
"Sa Chen"
"Ke-Li Hu"
"Bing-Wu Wang"
"Zhe-Ming Wang"
"Song Gao"
_chemical_name_systematic
;
catena-[butane-1,4-diaminium hexakis(\m-formato)-di-manganese]
;
_cell_volume   1777.011
_exptl_crystal_colour 'colorless'
_exptl_crystal_density_diffrn 1.757
_exptl_special_details
;
low-temperature polymorph
345 K

;
_exptl_crystal_description 'block'
_diffrn_ambient_temperature 100
#These two values have been output from a single CSD field.
_refine_ls_R_factor_gt 0.0193
_refine_ls_wR_factor_gt 0.0193
_symmetry_cell_setting monoclinic
_symmetry_space_group_name_H-M 'C c'
_symmetry_Int_Tables_number 9
loop_
_symmetry_equiv_pos_site_id
_symmetry_equiv_pos_as_xyz
1 x,y,z
2 x,-y,1/2+z
3 1/2+x,1/2+y,z
4 1/2+x,1/2-y,1/2+z
_cell_length_a 8.5514(2)
_cell_length_b 15.2754(3)
_cell_length_c 13.6038(3)
_cell_angle_alpha 90
_cell_angle_beta 90.017(2)
_cell_angle_gamma 90
_cell_formula_units_Z 4
loop_
_atom_type_symbol
_atom_type_radius_bond
C 0.68
H 0.23
Mn 1.61
N 0.68
O 0.68
loop_
_atom_site_label
_atom_site_type_symbol
_atom_site_fract_x
_atom_site_fract_y
_atom_site_fract_z
Mn1 Mn 0.11684(4) 0.336465(13) 0.31992(2)
Mn2 Mn 0.11652(4) -0.00140(2) 0.56736(2)
O1 O 0.03039(15) 0.24140(9) 0.42871(9)
O2 O 0.00753(16) 0.10532(9) 0.48449(9)
O3 O 0.20774(16) 0.23658(9) 0.22169(9)
O4 O 0.22088(17) 0.10583(9) 0.15207(9)
O5 O 0.34527(18) 0.33264(8) 0.38361(11)
O6 O 0.53398(16) 0.40168(10) 0.46507(10)
O7 O 0.20412(16) 0.43148(9) 0.21294(9)
O8 O 0.39120(16) 0.50853(9) 0.1402(1)
O9 O -0.10466(18) 0.33211(8) 0.24156(11)
O10 O -0.30539(16) 0.39533(9) 0.16505(9)
O11 O 0.03604(15) 0.44145(10) 0.41716(9)
O12 O -0.15967(16) 0.50966(9) 0.49281(10)
C1 C 0.0768(3) 0.16416(12) 0.43705(14)
H1 H 0.17170 0.14880 0.40510
C2 C 0.1466(2) 0.16610(12) 0.19218(15)
H2 H 0.03730 0.15860 0.20110
C3 C 0.3948(2) 0.37971(13) 0.45166(13)
H3 H 0.32000 0.40080 0.49750
C4 C 0.3385(2) 0.46497(13) 0.20999(13)
H4 H 0.40470 0.45630 0.26520
C5 C -0.1722(2) 0.39650(13) 0.20495(13)
H5 H -0.11910 0.45110 0.20730
C6 C -0.1044(2) 0.44557(13) 0.44700(13)
H6 H -0.17140 0.39740 0.43390
N1 N 0.51732(16) 0.23846(9) 0.15114(10)
H7 H 0.41850 0.24080 0.17570
H8 H 0.51350 0.24040 0.08430
H9 H 0.57340 0.28490 0.17390
N2 N 0.67421(15) 0.09742(9) 0.50336(10)
H10 H 0.62870 0.05250 0.47000
H11 H 0.65590 0.09100 0.56880
H12 H 0.77910 0.09700 0.49220
C7 C 0.5940(2) 0.15504(12) 0.18315(13)
H13 H 0.70820 0.15930 0.17210
H14 H 0.55380 0.10600 0.14290
C8 C 0.5628(2) 0.13614(11) 0.29175(12)
H15 H 0.44870 0.13870 0.30370
H16 H 0.59820 0.07590 0.30690
C9 C 0.64426(19) 0.19973(11) 0.36151(12)
H17 H 0.75870 0.19520 0.35190
H18 H 0.61250 0.26020 0.34460
C10 C 0.6066(2) 0.18265(13) 0.46891(13)
H19 H 0.64910 0.23090 0.50950
H20 H 0.49170 0.18160 0.47780
Mn2A Mn 0.11652(4) 0.00140(2) 0.06736(2)
Mn2B Mn -0.38348(4) 0.49860(2) 0.56736(2)
Mn2B* Mn 0.61652(4) 0.49860(2) 0.56736(2)
Mn2C Mn -0.38348(4) 0.50140(2) 0.06736(2)
Mn2C* Mn 0.61652(4) 0.50140(2) 0.06736(2)
O4A O 0.22088(17) -0.10583(9) 0.65207(9)
O6B O 0.03398(16) -0.09832(10) 0.46507(10)
O8C O -0.10880(16) -0.00853(9) 0.6402(1)
O10C O 0.19461(16) 0.10467(9) 0.66505(9)
O12B O 0.34033(16) 0.00966(9) 0.49281(10)
#END
