
#######################################################################
#
#                 Cambridge Crystallographic Data Centre
#                                CCDC
#
#######################################################################
#
# If this CIF has been generated from an entry in the Cambridge
# Structural Database, then it will include bibliographic, chemical,
# crystal, experimental, refinement or atomic coordinate data resulting
# from the CCDC's data processing and validation procedures.
#
#######################################################################

data_CSD_CIF_QAHPEX06
_audit_creation_date 2016-05-18
_audit_creation_method CSD-ConQuest-V1
_database_code_CSD QAHPEX06
_database_code_depnum_ccdc_archive 'CCDC 1450837'
_chemical_formula_sum 'C10 H20 Mn2 N2 O12'
_chemical_formula_moiety
;
(C6 H6 Mn2 O12 2-)n,C4 H14 N2 2+
;
_journal_coden_Cambridge 1220
_journal_volume 22
_journal_year 2016
_journal_page_first 6199
_journal_name_full 'Chem.-Eur.J. '
loop_
_publ_author_name
"Ran Shang"
"Sa Chen"
"Ke-Li Hu"
"Bing-Wu Wang"
"Zhe-Ming Wang"
"Song Gao"
_chemical_name_systematic
;
catena-[butane-1,4-diaminium hexakis(\m-formato)-di-manganese]
;
_cell_volume   1792.530
_exptl_crystal_colour 'colorless'
_exptl_crystal_density_diffrn 1.742
_exptl_special_details
;
low-temperature polymorph

;
_exptl_crystal_description 'block'
_diffrn_ambient_temperature 290
_refine_special_details
;
C81,C91 and C82,C92 disordered over two sites with occupancies 0.776:0.22.

;
#These two values have been output from a single CSD field.
_refine_ls_R_factor_gt 0.0349
_refine_ls_wR_factor_gt 0.0349
_symmetry_cell_setting monoclinic
_symmetry_space_group_name_H-M 'C c'
_symmetry_Int_Tables_number 9
loop_
_symmetry_equiv_pos_site_id
_symmetry_equiv_pos_as_xyz
1 x,y,z
2 x,-y,1/2+z
3 1/2+x,1/2+y,z
4 1/2+x,1/2-y,1/2+z
_cell_length_a 8.5712(3)
_cell_length_b 15.3307(5)
_cell_length_c 13.6416(5)
_cell_angle_alpha 90
_cell_angle_beta 90.1970(14)
_cell_angle_gamma 90
_cell_formula_units_Z 4
loop_
_atom_type_symbol
_atom_type_radius_bond
C 0.68
H 0.23
Mn 1.61
N 0.68
O 0.68
loop_
_atom_site_label
_atom_site_type_symbol
_atom_site_fract_x
_atom_site_fract_y
_atom_site_fract_z
Mn1 Mn 0.1166(2) 0.33568(3) 0.32001(11)
Mn2 Mn 0.11543(19) -0.00169(6) 0.56765(10)
O1 O 0.0279(5) 0.2388(3) 0.4258(3)
O2 O 0.0070(6) 0.1053(3) 0.4850(3)
O3 O 0.2093(5) 0.2368(3) 0.2226(3)
O4 O 0.2187(6) 0.1070(3) 0.1516(3)
O5 O 0.3413(6) 0.3328(2) 0.3885(4)
O6 O 0.5292(6) 0.4020(3) 0.4664(3)
O7 O 0.2065(6) 0.4306(3) 0.2150(3)
O8 O 0.3933(6) 0.5071(2) 0.1420(3)
O9 O -0.1008(7) 0.3330(2) 0.2386(4)
O10 O -0.3029(6) 0.3962(3) 0.1627(3)
O11 O 0.0324(5) 0.4395(3) 0.4180(3)
O12 O -0.1611(6) 0.5065(2) 0.4924(3)
C1 C 0.0726(10) 0.1624(4) 0.4374(5)
H1 H 0.16540 0.14690 0.40700
C2 C 0.1486(9) 0.1684(3) 0.1919(5)
H2 H 0.04140 0.16250 0.19970
C3 C 0.3974(9) 0.3809(4) 0.4515(5)
H3 H 0.32520 0.40480 0.49470
C4 C 0.3394(9) 0.4647(4) 0.2091(5)
H4 H 0.40470 0.45650 0.26290
C5 C -0.1702(9) 0.3958(4) 0.2039(5)
H5 H -0.11960 0.44940 0.20820
C6 C -0.1024(9) 0.4428(4) 0.4463(5)
H6 H -0.16640 0.39520 0.43310
N1 N 0.5202(4) 0.2390(2) 0.1518(3)
H7 H 0.42600 0.24150 0.17890
H8 H 0.51070 0.23840 0.08680
H9 H 0.57550 0.28540 0.17010
N2 N 0.6715(4) 0.0962(2) 0.5032(3)
H10 H 0.62880 0.05140 0.47140
H11 H 0.65580 0.08990 0.56730
H12 H 0.77340 0.09770 0.49130
C7 C 0.6016(8) 0.1579(3) 0.1849(4)
H13 H 0.71340 0.16540 0.17800
H14 H 0.56980 0.10940 0.14380
C8 C 0.5625(8) 0.1375(4) 0.2928(4)
H15 H 0.45060 0.14160 0.30210
H16 H 0.59390 0.07810 0.30770
C9 C 0.6426(7) 0.1985(4) 0.3615(4)
H17 H 0.61360 0.25800 0.34550
H18 H 0.75460 0.19300 0.35380
C10 C 0.5984(10) 0.1790(4) 0.4692(4)
H19 H 0.63300 0.22660 0.51070
H20 H 0.48590 0.17450 0.47470
H21? H 0.68740 0.14560 0.14090
H22? H 0.52940 0.10930 0.18190
C11? C 0.665(2) 0.1671(15) 0.2911(9)
H23? H 0.74050 0.12130 0.30430
H24? H 0.71720 0.22290 0.29870
C12? C 0.532(2) 0.1606(13) 0.3624(9)
H25? H 0.48630 0.10290 0.35950
H26? H 0.45240 0.20300 0.34600
H27? H 0.67510 0.22550 0.46760
H28? H 0.51470 0.19600 0.51290
Mn2A Mn 0.11543(19) 0.00169(6) 0.06765(10)
Mn2B Mn -0.38457(19) 0.49831(6) 0.56765(10)
Mn2B* Mn 0.61543(19) 0.49831(6) 0.56765(10)
Mn2C Mn -0.38457(19) 0.50169(6) 0.06765(10)
Mn2C* Mn 0.61543(19) 0.50169(6) 0.06765(10)
O4A O 0.2187(6) -0.1070(3) 0.6516(3)
O6B O 0.0292(6) -0.0980(3) 0.4664(3)
O8C O -0.1067(6) -0.0071(2) 0.6420(3)
O10C O 0.1971(6) 0.1038(3) 0.6627(3)
O12B O 0.3389(6) 0.0065(2) 0.4924(3)
#END
