
#######################################################################
#
#                 Cambridge Crystallographic Data Centre
#                                CCDC
#
#######################################################################
#
# If this CIF has been generated from an entry in the Cambridge
# Structural Database, then it will include bibliographic, chemical,
# crystal, experimental, refinement or atomic coordinate data resulting
# from the CCDC's data processing and validation procedures.
#
#######################################################################

data_CSD_CIF_QAHPEX04
_audit_creation_date 2016-03-16
_audit_creation_method CSD-ConQuest-V1
_database_code_CSD QAHPEX04
_database_code_depnum_ccdc_archive 'CCDC 1446780'
_chemical_formula_sum 'C10 H20 Mn2 N2 O12'
_chemical_formula_moiety
;
(C6 H6 Mn2 O12 2-)n,n(C4 H14 N2 2+)
;
_journal_coden_Cambridge 1695
_journal_volume 4
_journal_year 2016
_journal_page_first 3185
_journal_name_full 'J.Mater.Chem.C '
loop_
_publ_author_name
"M.Maczka"
"A.Gagor"
"N.L.M.Costa"
"W.Paraguassu"
"A.Sieradzki"
"A.Pikul"
_chemical_name_systematic
;
catena-[butane-1,4-diaminium hexakis(\m-formato)-di-manganese]
;
_cell_volume   1794.229
_exptl_crystal_density_diffrn 1.74
_exptl_special_details
;
low-temperature polymorph

;
_exptl_crystal_description 'prism'
_diffrn_ambient_temperature 345
_diffrn_special_details
;
twin

;
_refine_special_details
;
C12,C13 and C15,C16 disordered over two sites with occupancies 0.701:0.299.

;
#These two values have been output from a single CSD field.
_refine_ls_R_factor_gt 0.0307
_refine_ls_wR_factor_gt 0.0307
_symmetry_cell_setting monoclinic
_symmetry_space_group_name_H-M 'C c'
_symmetry_Int_Tables_number 9
loop_
_symmetry_equiv_pos_site_id
_symmetry_equiv_pos_as_xyz
1 x,y,z
2 x,-y,1/2+z
3 1/2+x,1/2+y,z
4 1/2+x,1/2-y,1/2+z
_cell_length_a 8.5685(2)
_cell_length_b 15.3292(4)
_cell_length_c 13.6602(3)
_cell_angle_alpha 90
_cell_angle_beta 90.226(2)
_cell_angle_gamma 90
_cell_formula_units_Z 4
loop_
_atom_type_symbol
_atom_type_radius_bond
C 0.68
H 0.23
Mn 1.61
N 0.68
O 0.68
loop_
_atom_site_label
_atom_site_type_symbol
_atom_site_fract_x
_atom_site_fract_y
_atom_site_fract_z
Mn1 Mn 0.2184(2) 0.83558(4) 0.98772(12)
Mn2 Mn 0.2163(2) 0.50213(8) 0.73527(12)
O1 O 0.3111(7) 0.9303(4) 0.8826(4)
O2 O 0.1339(7) 0.9392(4) 1.0850(4)
O3 O 0.3130(7) 0.7368(4) 0.8894(4)
O4 O 0.1312(7) 0.7380(4) 1.0919(4)
O5 O 0.4431(9) 0.8328(3) 1.0563(5)
O6 O 0.0015(8) 0.8342(3) 0.9058(5)
O7 O -0.0619(7) 1.0049(3) 1.1610(4)
O8 O 0.3196(7) 0.6085(4) 0.8172(4)
O9 O 0.4939(7) 1.0068(3) 0.8112(4)
O10 O 0.1092(7) 0.6053(4) 1.1524(4)
O11 O 0.6298(8) 0.9029(5) 1.1338(5)
O12 O -0.1987(6) 0.8968(4) 0.8307(4)
C1 C 0.2489(13) 0.6685(5) 0.8578(6)
H1 H 0.14160 0.66290 0.86560
C2 C 0.1746(11) 0.6624(5) 1.1043(6)
H2 H 0.26720 0.64660 1.07390
C3 C -0.0677(11) 0.8977(6) 0.8709(6)
H3 H -0.01750 0.95140 0.87500
C4 C 0.4978(11) 0.8799(6) 1.1190(6)
H4 H 0.42530 0.90200 1.16300
C5 C -0.0058(10) 0.9421(5) 1.1148(5)
H5 H -0.07020 0.89470 1.10140
C6 C 0.4399(10) 0.9647(5) 0.8788(6)
H6 H 0.50360 0.95800 0.93350
N1 N 0.1229(6) 0.7609(4) 0.3201(4)
H7 H 0.17640 0.71480 0.34130
H8 H 0.11760 0.75980 0.25510
H9 H 0.02690 0.75950 0.34470
N2 N 0.2731(6) 0.9050(3) 0.6705(4)
H10 H 0.37590 0.90330 0.66170
H11 H 0.25270 0.91110 0.73400
H12 H 0.23320 0.95000 0.63770
C7 C 0.2025(13) 0.8231(6) 0.6343(6)
H13 H 0.08990 0.82770 0.63920
H14 H 0.23570 0.77560 0.67640
C8 C 0.2447(11) 0.8010(6) 0.5292(5)
H15 H 0.35660 0.80650 0.52030
H16 H 0.21520 0.74130 0.51480
C9 C 0.1611(11) 0.8620(6) 0.4609(5)
H17 H 0.19030 0.92160 0.47600
H18 H 0.04930 0.85640 0.47030
C10 C 0.2019(13) 0.8415(5) 0.3521(6)
H19 H 0.16930 0.88980 0.31080
H20 H 0.31390 0.83470 0.34550
C11? C 0.145(3) 0.8368(18) 0.5303(12)
C12? C 0.266(3) 0.8387(18) 0.4549(12)
Mn2A Mn 0.2163(2) 0.49787(8) 1.23527(12)
Mn2B Mn -0.2837(2) 1.00213(8) 0.73527(12)
Mn2B* Mn 0.7163(2) 1.00213(8) 0.73527(12)
Mn2C Mn -0.2837(2) 0.99787(8) 1.23527(12)
Mn2C* Mn 0.7163(2) 0.99787(8) 1.23527(12)
O7C O 0.4381(7) 0.4951(3) 0.6610(4)
O9B O -0.0061(7) 0.5068(3) 0.8112(4)
O10A O 0.1092(7) 0.3947(4) 0.6524(4)
O11C O 0.1298(8) 0.5971(5) 0.6338(5)
O12B O 0.3013(6) 0.3968(4) 0.8307(4)
#END
