
#######################################################################
#
#                 Cambridge Crystallographic Data Centre
#                                CCDC
#
#######################################################################
#
# If this CIF has been generated from an entry in the Cambridge
# Structural Database, then it will include bibliographic, chemical,
# crystal, experimental, refinement or atomic coordinate data resulting
# from the CCDC's data processing and validation procedures.
#
#######################################################################

data_CSD_CIF_QAHPEX
_audit_creation_date 2016-03-16
_audit_creation_method CSD-ConQuest-V1
_database_code_CSD QAHPEX
_database_code_depnum_ccdc_archive 'CCDC 1446778'
_chemical_formula_sum 'C10 H20 Mn2 N2 O12'
_chemical_formula_moiety
;
(C6 H6 Mn2 O12 2-)n,n(C4 H14 N2 2+)
;
_journal_coden_Cambridge 1695
_journal_volume 4
_journal_year 2016
_journal_page_first 3185
_journal_name_full 'J.Mater.Chem.C '
loop_
_publ_author_name
"M.Maczka"
"A.Gagor"
"N.L.M.Costa"
"W.Paraguassu"
"A.Sieradzki"
"A.Pikul"
_chemical_name_systematic
;
catena-[butane-1,4-diaminium hexakis(\m-formato)-di-manganese]
;
_cell_volume   1777.622
_exptl_crystal_density_diffrn 1.757
_exptl_special_details
;
low-temperature polymorph

;
_exptl_crystal_description 'prism'
_diffrn_ambient_temperature 90
_diffrn_special_details
;
twin

;
#These two values have been output from a single CSD field.
_refine_ls_R_factor_gt 0.0255
_refine_ls_wR_factor_gt 0.0255
_symmetry_cell_setting monoclinic
_symmetry_space_group_name_H-M 'C c'
_symmetry_Int_Tables_number 9
loop_
_symmetry_equiv_pos_site_id
_symmetry_equiv_pos_as_xyz
1 x,y,z
2 x,-y,1/2+z
3 1/2+x,1/2+y,z
4 1/2+x,1/2-y,1/2+z
_cell_length_a 8.5477(2)
_cell_length_b 15.2820(3)
_cell_length_c 13.6085(3)
_cell_angle_alpha 90
_cell_angle_beta 90.060(2)
_cell_angle_gamma 90
_cell_formula_units_Z 4
loop_
_atom_type_symbol
_atom_type_radius_bond
C 0.68
H 0.23
Mn 1.61
N 0.68
O 0.68
loop_
_atom_site_label
_atom_site_type_symbol
_atom_site_fract_x
_atom_site_fract_y
_atom_site_fract_z
Mn1 Mn 0.21792(8) 0.83650(2) 0.98797(5)
Mn2 Mn 0.21761(8) 0.50143(4) 0.73529(5)
O1 O 0.3053(3) 0.93129(17) 0.88103(18)
O2 O 0.1371(3) 0.94165(18) 1.08493(17)
O3 O 0.3089(3) 0.73669(17) 0.88980(18)
O4 O 0.1319(3) 0.74154(17) 1.09681(18)
O5 O 0.4469(3) 0.83260(16) 1.0514(2)
O6 O -0.0030(3) 0.83214(15) 0.9091(2)
O7 O -0.0586(3) 1.00984(16) 1.16053(19)
O8 O 0.3222(3) 0.60573(17) 0.81995(18)
O9 O 0.4923(3) 1.00869(16) 0.80788(19)
O10 O 0.1084(3) 0.60525(16) 1.15239(17)
O11 O 0.6351(3) 0.90194(19) 1.1329(2)
O12 O -0.2041(3) 0.89509(17) 0.83302(18)
C1 C 0.2475(5) 0.6663(2) 0.8598(3)
H1 H 0.14020 0.65920 0.86790
C2 C 0.1781(5) 0.6640(2) 1.1051(3)
H2 H 0.27080 0.64880 1.07390
C3 C -0.0716(4) 0.8965(2) 0.8729(3)
H3 H -0.02020 0.95010 0.87570
C4 C 0.4962(4) 0.8791(2) 1.1192(3)
H4 H 0.42290 0.89890 1.16440
C5 C -0.0030(4) 0.9458(2) 1.1147(3)
H5 H -0.06850 0.89860 1.10190
C6 C 0.4394(4) 0.9649(2) 0.8777(3)
H6 H 0.50460 0.95640 0.93170
C7 C 0.2079(4) 0.8175(2) 0.6368(2)
H7 H 0.09530 0.81860 0.64540
H8 H 0.24960 0.77020 0.67650
C8 C 0.2454(4) 0.8006(2) 0.5291(2)
H9 H 0.35750 0.80510 0.51980
H10 H 0.21450 0.74130 0.51250
C9 C 0.1641(4) 0.8635(2) 0.4598(2)
H11 H 0.19870 0.92250 0.47470
H12 H 0.05230 0.86090 0.47150
C10 C 0.1942(4) 0.8452(2) 0.3511(3)
H13 H 0.15370 0.89320 0.31200
H14 H 0.30610 0.84150 0.33990
N1 N 0.1183(3) 0.76175(17) 0.31921(19)
H15 H 0.17550 0.71660 0.33970
H16 H 0.11140 0.76070 0.25390
H17 H 0.02290 0.75830 0.34490
N2 N 0.2757(3) 0.90242(17) 0.67138(19)
H18 H 0.22920 0.94650 0.64000
H19 H 0.37790 0.90340 0.65890
H20 H 0.26040 0.90790 0.73570
Mn2A Mn 0.21761(8) 0.49857(4) 1.23529(5)
Mn2B Mn -0.28239(8) 1.00143(4) 0.73529(5)
Mn2B* Mn 0.71761(8) 1.00143(4) 0.73529(5)
Mn2C Mn -0.28239(8) 0.99857(4) 1.23529(5)
Mn2C* Mn 0.71761(8) 0.99857(4) 1.23529(5)
O7C O 0.4414(3) 0.49016(16) 0.66053(19)
O9B O -0.0077(3) 0.50869(16) 0.80788(19)
O10A O 0.1084(3) 0.39475(16) 0.65239(17)
O11C O 0.1351(3) 0.59806(19) 0.6329(2)
O12B O 0.2959(3) 0.39509(17) 0.83302(18)
#END
