
#######################################################################
#
#                 Cambridge Crystallographic Data Centre
#                                CCDC
#
#######################################################################
#
# If this CIF has been generated from an entry in the Cambridge
# Structural Database, then it will include bibliographic, chemical,
# crystal, experimental, refinement or atomic coordinate data resulting
# from the CCDC's data processing and validation procedures.
#
#######################################################################

data_CSD_CIF_QAHVIG
_audit_creation_date 2011-02-02
_audit_creation_method CSD-ConQuest-V1
_database_code_CSD QAHVIG
_database_code_depnum_ccdc_archive 'CCDC 807251'
_chemical_formula_sum 'C50 H54 Cd1 N4 O10'
_chemical_formula_moiety
;
(C40 H24 Cd1 O8 2-)n,2n(C3 H7 N1 O1),2n(C2 H8 N1 1+)
;
_journal_coeditor_code "IUCr LH5182"
_journal_coden_Cambridge 1370
_journal_volume 67
_journal_year 2011
_journal_page_first m71
_journal_name_full 'Acta Crystallogr.,Sect.E:Struct.Rep.Online '
loop_
_publ_author_name
"Sang-Wook Park"
"Ja-Min Gu"
"Youngmee Kim"
"Seong Huh"
_chemical_name_systematic
;
catena-(bis(Dimethylammonium) 
bis(\m~2~-1,1':4',1''-terphenyl-3,3''-dicarboxylato)-cadmium(ii) 
dimethylformamide solvate)
;
_cell_volume   4972.175
_exptl_crystal_colour 'colorless'
_exptl_crystal_density_diffrn 1.314
_exptl_crystal_description 'block'
_diffrn_ambient_temperature 293
#These two values have been output from a single CSD field.
_refine_ls_R_factor_gt 0.0455
_refine_ls_wR_factor_gt 0.0455
_symmetry_cell_setting monoclinic
_symmetry_space_group_name_H-M 'C 2/c'
_symmetry_Int_Tables_number 15
loop_
_symmetry_equiv_pos_site_id
_symmetry_equiv_pos_as_xyz
1 x,y,z
2 -x,y,1/2-z
3 1/2+x,1/2+y,z
4 1/2-x,1/2+y,1/2-z
5 -x,-y,-z
6 x,-y,-1/2+z
7 -1/2-x,-1/2-y,-z
8 -1/2+x,-1/2-y,-1/2+z
_cell_length_a 28.525(4)
_cell_length_b 9.3267(13)
_cell_length_c 20.580(3)
_cell_angle_alpha 90
_cell_angle_beta 114.752(2)
_cell_angle_gamma 90
_cell_formula_units_Z 4
loop_
_atom_type_symbol
_atom_type_radius_bond
C 0.68
H 0.23
Cd 1.44
N 0.68
O 0.68
loop_
_atom_site_label
_atom_site_type_symbol
_atom_site_fract_x
_atom_site_fract_y
_atom_site_fract_z
Cd1 Cd 1.00000 0.22586(5) 0.75000
O1 O 0.58028(11) 0.1791(3) 0.27314(16)
O2 O 0.51785(11) 0.0960(3) 0.17570(16)
O3 O 0.95903(10) 0.0827(3) 0.65658(14)
O4 O 1.03902(12) 0.0114(4) 0.68232(16)
C1 C 0.56411(17) 0.0993(5) 0.2194(2)
C2 C 0.60258(15) 0.0045(4) 0.2074(2)
C3 C 0.65225(14) -0.0095(4) 0.2608(2)
H1 H 0.66100 0.03810 0.30400
C4 C 0.68932(14) -0.0936(4) 0.2510(2)
C5 C 0.67464(16) -0.1611(5) 0.1854(2)
H2 H 0.69870 -0.21640 0.17700
C6 C 0.62548(16) -0.1485(5) 0.1323(2)
H3 H 0.61670 -0.19510 0.08880
C7 C 0.58924(16) -0.0672(5) 0.1433(2)
H4 H 0.55580 -0.06050 0.10770
C8 C 0.74239(14) -0.1084(4) 0.3083(2)
C9 C 0.76565(15) 0.0007(5) 0.3571(2)
H5 H 0.74670 0.08270 0.35600
C10 C 0.81649(16) -0.0094(5) 0.4076(2)
H6 H 0.83080 0.06570 0.43950
C11 C 0.84628(15) -0.1288(5) 0.4114(2)
C12 C 0.82222(15) -0.2418(5) 0.3648(2)
H7 H 0.84040 -0.32600 0.36770
C13 C 0.77171(15) -0.2300(5) 0.3145(2)
H8 H 0.75690 -0.30660 0.28370
C14 C 0.90158(15) -0.1368(4) 0.4619(2)
C15 C 0.92021(15) -0.0652(4) 0.5273(2)
H9 H 0.89750 -0.01310 0.54000
C16 C 0.97212(15) -0.0706(4) 0.5738(2)
C17 C 1.00572(16) -0.1481(5) 0.5552(2)
H10 H 1.04060 -0.15230 0.58610
C18 C 0.98748(16) -0.2195(5) 0.4906(2)
H11 H 1.01020 -0.27240 0.47820
C19 C 0.93633(16) -0.2132(5) 0.4445(2)
H12 H 0.92480 -0.26090 0.40090
C20 C 0.99169(17) 0.0116(5) 0.6434(2)
N1 N 0.1478(2) 0.4189(6) 0.9596(2)
O5 O 0.16600(16) 0.1981(4) 0.9324(2)
C21 C 0.1350(2) 0.2929(7) 0.9302(3)
H13 H 0.10000 0.27270 0.90570
C22 C 0.2015(3) 0.4610(9) 0.9988(4)
H14 H 0.22350 0.38260 0.99960
H15 H 0.20770 0.48630 1.04690
H16 H 0.20880 0.54200 0.97570
C23 C 0.1082(3) 0.5226(8) 0.9496(3)
H17 H 0.11430 0.60680 0.92750
H18 H 0.10880 0.54750 0.99520
H19 H 0.07520 0.48280 0.91960
N2 N 0.12647(13) 1.0202(4) 0.80646(18)
H20 H 0.13020 1.07700 0.84360
H21 H 0.09430 1.03310 0.77240
C24 C 0.16355(19) 1.0657(7) 0.7781(3)
H22 H 0.19800 1.05790 0.81490
H23 H 0.15680 1.16340 0.76230
H24 H 0.16010 1.00550 0.73850
C25 C 0.1320(2) 0.8719(6) 0.8299(3)
H25 H 0.13100 0.81070 0.79190
H26 H 0.10420 0.84710 0.84260
H27 H 0.16430 0.85990 0.87080
Cd1F Cd 0.50000 0.27414(5) 0.25000
Cd1F* Cd 1.50000 0.27414(5) 1.25000
O1F O 0.91972(11) 0.3209(3) 0.72686(16)
O1G O 1.08028(11) 0.3209(3) 0.77314(16)
O1A O 1.41972(11) 0.1791(3) 1.22686(16)
O2F O 0.98215(11) 0.4040(3) 0.82430(16)
O2G O 1.01785(11) 0.4040(3) 0.67570(16)
O2A O 1.48215(11) 0.0960(3) 1.32430(16)
O3A O 1.04097(10) 0.0827(3) 0.84342(14)
O4A O 0.96098(12) 0.0114(4) 0.81768(16)
C1A C 1.43589(17) 0.0993(5) 1.2806(2)
C2A C 1.39742(15) 0.0045(4) 1.2926(2)
C3A C 1.34775(14) -0.0095(4) 1.2392(2)
H1A H 1.33900 0.03810 1.19600
C4A C 1.31068(14) -0.0936(4) 1.2490(2)
C5A C 1.32536(16) -0.1611(5) 1.3146(2)
H2A H 1.30130 -0.21640 1.32300
C6A C 1.37452(16) -0.1485(5) 1.3677(2)
H3A H 1.38330 -0.19510 1.41120
C7A C 1.41076(16) -0.0672(5) 1.3567(2)
H4A H 1.44420 -0.06050 1.39230
C8A C 1.25761(14) -0.1084(4) 1.1917(2)
C9A C 1.23435(15) 0.0007(5) 1.1429(2)
H5A H 1.25330 0.08270 1.14400
C10A C 1.18351(16) -0.0094(5) 1.0924(2)
H6A H 1.16920 0.06570 1.06050
C11A C 1.15372(15) -0.1288(5) 1.0886(2)
C12A C 1.17778(15) -0.2418(5) 1.1352(2)
H7A H 1.15960 -0.32600 1.13230
C13A C 1.22829(15) -0.2300(5) 1.1855(2)
H8A H 1.24310 -0.30660 1.21630
C14A C 1.09842(15) -0.1368(4) 1.0381(2)
C15A C 1.07979(15) -0.0652(4) 0.9727(2)
H9A H 1.10250 -0.01310 0.96000
C16A C 1.02788(15) -0.0706(4) 0.9262(2)
C17A C 0.99428(16) -0.1481(5) 0.9448(2)
H10A H 0.95940 -0.15230 0.91390
C18A C 1.01252(16) -0.2195(5) 1.0094(2)
H11A H 0.98980 -0.27240 1.02180
C19A C 1.06367(16) -0.2132(5) 1.0555(2)
H12A H 1.07520 -0.26090 1.09910
C20A C 1.00831(17) 0.0116(5) 0.8566(2)
#END
