
#######################################################################
#
#                 Cambridge Crystallographic Data Centre
#                                CCDC
#
#######################################################################
#
# If this CIF has been generated from an entry in the Cambridge
# Structural Database, then it will include bibliographic, chemical,
# crystal, experimental, refinement or atomic coordinate data resulting
# from the CCDC's data processing and validation procedures.
#
#######################################################################

data_CSD_CIF_QAJHOA
_audit_creation_date 2011-02-04
_audit_creation_method CSD-ConQuest-V1
_database_code_CSD QAJHOA
_database_code_depnum_ccdc_archive 'CCDC 727157'
_chemical_formula_sum 'C47 H45 N1 O6 Sn1'
_chemical_formula_moiety
;
(C6 H16 N1 1+)n,n(C41 H29 O6 Sn1 1-)
;
_journal_coeditor_code "IUCr BH2324"
_journal_coden_Cambridge 1370
_journal_volume 67
_journal_year 2011
_journal_page_first m122
_journal_name_full 'Acta Crystallogr.,Sect.E:Struct.Rep.Online '
loop_
_publ_author_name
"Lijun Liu"
"Shuwen Gong"
_chemical_name_systematic
;
catena-(triethylammonium 
[\m~2~-2,2'-dihydroxy-4,4'-methylenedi-2-naphthoato]triphenyltin(iv))
;
_chemical_melting_point 458
_cell_volume   4101.636
_exptl_crystal_colour 'colorless'
_exptl_crystal_density_diffrn 1.358
_exptl_crystal_description 'block'
_exptl_crystal_preparation 'dichloromethane'
_diffrn_ambient_temperature 298
#These two values have been output from a single CSD field.
_refine_ls_R_factor_gt 0.0697
_refine_ls_wR_factor_gt 0.0697
_symmetry_cell_setting monoclinic
_symmetry_space_group_name_H-M 'C c'
_symmetry_Int_Tables_number 9
loop_
_symmetry_equiv_pos_site_id
_symmetry_equiv_pos_as_xyz
1 x,y,z
2 x,-y,1/2+z
3 1/2+x,1/2+y,z
4 1/2+x,1/2-y,1/2+z
_cell_length_a 13.2590(14)
_cell_length_b 16.3231(16)
_cell_length_c 19.166(2)
_cell_angle_alpha 90
_cell_angle_beta 98.580(2)
_cell_angle_gamma 90
_cell_formula_units_Z 4
loop_
_atom_type_symbol
_atom_type_radius_bond
C 0.68
H 0.23
N 0.68
O 0.68
Sn 1.39
loop_
_atom_site_label
_atom_site_type_symbol
_atom_site_fract_x
_atom_site_fract_y
_atom_site_fract_z
Sn1 Sn 0.76424(5) 0.44960(4) 0.08738(4)
N1 N 0.5704(7) 0.6521(6) 0.2187(5)
H1 H 0.55060 0.60550 0.19430
O1 O 0.5920(9) 0.4307(6) 0.0488(6)
O2 O 0.5631(6) 0.5121(5) 0.1380(4)
O3 O 0.4525(6) 0.4040(5) -0.0559(4)
H2 H 0.50790 0.40030 -0.03050
O4 O -0.0694(9) 0.5407(6) -0.3737(6)
O5 O -0.0922(7) 0.4481(5) -0.2913(5)
O6 O 0.0543(6) 0.4086(5) -0.1970(4)
H3 H -0.00230 0.40680 -0.22100
C1 C 0.5324(9) 0.4761(7) 0.0813(6)
C2 C 0.3574(9) 0.5325(6) 0.0775(6)
H4 H 0.37890 0.55360 0.12230
C3 C 0.4245(8) 0.4854(7) 0.0451(6)
C4 C 0.3884(14) 0.4520(7) -0.0235(9)
C5 C 0.2893(10) 0.4648(8) -0.0581(7)
C6 C 0.2219(8) 0.5155(7) -0.0229(6)
C7 C 0.2572(8) 0.5490(6) 0.0438(6)
C8 C 0.1909(9) 0.6002(7) 0.0782(6)
H5 H 0.21340 0.62110 0.12300
C9 C 0.0950(9) 0.6178(8) 0.0452(6)
H6 H 0.05350 0.65360 0.06580
C10 C 0.0601(9) 0.5819(8) -0.0195(7)
H7 H -0.00690 0.59150 -0.04020
C11 C 0.1191(9) 0.5338(7) -0.0532(6)
H8 H 0.09270 0.51200 -0.09690
C12 C -0.0368(9) 0.4983(8) -0.3198(6)
C13 C 0.1374(14) 0.5601(9) -0.3157(10)
H9 H 0.11130 0.58800 -0.35670
C14 C 0.0735(8) 0.5065(7) -0.2880(6)
C15 C 0.1138(8) 0.4628(6) -0.2259(5)
C16 C 0.2141(8) 0.4744(6) -0.1926(6)
C17 C 0.2795(9) 0.5318(7) -0.2227(7)
C18 C 0.2383(10) 0.5756(8) -0.2865(7)
C19 C 0.3028(8) 0.6304(7) -0.3155(6)
H10 H 0.27650 0.66020 -0.35550
C20 C 0.4025(9) 0.6414(8) -0.2870(6)
H11 H 0.44390 0.67680 -0.30800
C21 C 0.4406(10) 0.5991(7) -0.2268(7)
H12 H 0.50790 0.60780 -0.20650
C22 C 0.3820(9) 0.5444(7) -0.1954(6)
H13 H 0.41110 0.51550 -0.15560
C23 C 0.2537(9) 0.4235(8) -0.1279(6)
H14 H 0.20010 0.38550 -0.12050
H15 H 0.31020 0.39100 -0.13940
C24 C 0.7979(12) 0.3698(9) 0.0041(8)
C25 C 0.7434(11) 0.2978(8) -0.0158(6)
H16 H 0.68550 0.28510 0.00410
C26 C 0.7759(12) 0.2445(8) -0.0659(7)
H17 H 0.74040 0.19610 -0.07780
C27 C 0.8593(13) 0.2632(10) -0.0969(9)
H18 H 0.87780 0.22910 -0.13170
C28 C 0.9164(11) 0.3327(9) -0.0770(6)
H19 H 0.97430 0.34430 -0.09730
C29 C 0.8866(9) 0.3854(8) -0.0263(6)
H20 H 0.92590 0.43140 -0.01240
C30 C 0.7482(9) 0.5751(7) 0.0484(6)
C31 C 0.6617(11) 0.5948(9) -0.0028(7)
H21 H 0.61340 0.55530 -0.01900
C32 C 0.6520(12) 0.6747(9) -0.0276(7)
H22 H 0.59450 0.68880 -0.05930
C33 C 0.7264(12) 0.7352(9) -0.0065(7)
H23 H 0.71780 0.78880 -0.02260
C34 C 0.8115(12) 0.7121(8) 0.0385(7)
H24 H 0.86590 0.74830 0.04910
C35 C 0.8164(11) 0.6348(8) 0.0680(6)
H25 H 0.87010 0.62330 0.10370
C36 C 0.7411(13) 0.3798(10) 0.1791(8)
C37 C 0.7771(11) 0.4021(10) 0.2489(6)
H26 H 0.81410 0.45030 0.25790
C38 C 0.7585(12) 0.3532(10) 0.3055(7)
H27 H 0.78400 0.36820 0.35160
C39 C 0.7018(14) 0.2820(11) 0.2924(9)
H28 H 0.68920 0.24940 0.32990
C40 C 0.6642(13) 0.2591(9) 0.2248(8)
H29 H 0.62360 0.21260 0.21630
C41 C 0.6876(11) 0.3068(9) 0.1687(6)
H30 H 0.66650 0.28890 0.12280
C42 C 0.5879(11) 0.7165(9) 0.1637(7)
H31 H 0.64050 0.69720 0.13760
H32 H 0.61220 0.76660 0.18770
C43 C 0.4911(13) 0.7356(10) 0.1115(8)
H33 H 0.45650 0.68540 0.09680
H34 H 0.50940 0.76340 0.07110
H35 H 0.44670 0.76990 0.13400
C44 C 0.4862(11) 0.6733(9) 0.2603(7)
H36 H 0.42410 0.68260 0.22760
H37 H 0.47450 0.62660 0.28940
C45 C 0.5061(15) 0.7465(11) 0.3066(8)
H38 H 0.57420 0.74370 0.33190
H39 H 0.45830 0.74770 0.33950
H40 H 0.49870 0.79520 0.27820
C46 C 0.6704(11) 0.6326(9) 0.2641(7)
H41 H 0.71780 0.61240 0.23420
H42 H 0.69850 0.68280 0.28620
C47 C 0.6621(14) 0.5712(10) 0.3200(8)
H43 H 0.61680 0.59120 0.35080
H44 H 0.72830 0.56170 0.34670
H45 H 0.63590 0.52080 0.29870
Sn1A Sn -0.23576(5) 0.55040(4) -0.41262(4)
O4A O 0.9306(9) 0.4593(6) 0.1263(6)
#END
