
#######################################################################
#
#                 Cambridge Crystallographic Data Centre
#                                CCDC
#
#######################################################################
#
# If this CIF has been generated from an entry in the Cambridge
# Structural Database, then it will include bibliographic, chemical,
# crystal, experimental, refinement or atomic coordinate data resulting
# from the CCDC's data processing and validation procedures.
#
#######################################################################

data_CSD_CIF_QAJLET
_audit_creation_date 2005-03-31
_audit_creation_method CSD-ConQuest-V1
_database_code_CSD QAJLET
_database_code_depnum_ccdc_archive 'CCDC 234304'
_chemical_formula_sum 'C84 H70 Mo8 N12 Na4 Nd8 O91'
_chemical_formula_moiety
;
(C84 H52 Mo8 N12 Nd8 O82 4-)n,4n(Na1 1+),9n(H2 O1)
;
_journal_coden_Cambridge 208
_journal_volume 177
_journal_year 2004
_journal_page_first 4372
_journal_name_full 'J.Solid State Chem. '
loop_
_publ_author_name
"Enhong Shen"
"Jian Lu"
"Yangguang Li"
"Enbo Wang"
"Changwen Hu"
"Lin Xu"
_chemical_name_systematic
;
catena-(Tetra-sodium 
(\m~4~-polyoxo-octa-molybdate)-decakis(\m~3~-pyridine-2,6-dicarboxylato)-bis(\
m~2~-pyridine-2,6-dicarboxylato)-octa-aqua-octa-neodymium nonahydrate)
;
_cell_volume   6332.419
_exptl_crystal_colour 'colorless'
_exptl_crystal_density_diffrn 2.474
_exptl_special_details
;
The 2D diagram is a basic representation of the metal atom environments. In 
the diagram eight water molecules are shown bound to the complex with nine 
solvating molecules; the paper has nine coordinating and eight solvating 
water molecules
;
_exptl_crystal_description 'block'
_diffrn_ambient_temperature 293
_refine_special_details
;
A number of water molecules are disordered.

;
#These two values have been output from a single CSD field.
_refine_ls_R_factor_gt 0.0474
_refine_ls_wR_factor_gt 0.0474
_symmetry_cell_setting monoclinic
_symmetry_space_group_name_H-M 'P 21/n'
_symmetry_Int_Tables_number 14
loop_
_symmetry_equiv_pos_site_id
_symmetry_equiv_pos_as_xyz
1 x,y,z
2 1/2+x,1/2-y,1/2+z
3 -x,-y,-z
4 -1/2-x,-1/2+y,-1/2-z
_cell_length_a 21.868(4)
_cell_length_b 13.039(3)
_cell_length_c 22.479(5)
_cell_angle_alpha 90
_cell_angle_beta 98.90(3)
_cell_angle_gamma 90
_cell_formula_units_Z 2
loop_
_atom_type_symbol
_atom_type_radius_bond
C 0.68
H 0.23
Mo 1.37
N 0.68
Na 0.97
Nd 1.81
O 0.68
loop_
_atom_site_label
_atom_site_type_symbol
_atom_site_fract_x
_atom_site_fract_y
_atom_site_fract_z
Na1 Na 0.68381(13) 0.2394(2) 0.32475(13)
Na2 Na 0.80372(16) 1.2715(3) -0.32605(15)
Nd1 Nd 0.735730(17) 0.48557(3) 0.231799(17)
Nd2 Nd 0.754320(17) 0.24672(3) 0.498460(16)
Nd3 Nd 0.732310(17) 0.52769(3) -0.261780(17)
Nd4 Nd 0.507700(18) 0.20778(3) 0.305360(18)
Mo1 Mo 0.61346(3) 0.64819(5) 0.09753(3)
Mo2 Mo 0.48730(3) 0.63415(5) -0.01446(3)
Mo3 Mo 0.62582(3) 0.50510(5) -0.01761(3)
Mo4 Mo 0.49693(3) 0.51634(5) 0.12649(3)
O1 O 0.7434(2) 0.6741(4) 0.2347(2)
O2 O 0.7083(3) 0.8299(4) 0.2511(3)
O3 O 0.6496(2) 0.3822(4) 0.2632(2)
O4 O 0.5604(3) 0.3692(4) 0.2999(3)
O5 O 0.7306(2) 0.3530(4) 0.4047(2)
O6 O 0.7510(3) 0.4795(4) 0.3429(2)
O7 O 0.8425(3) 0.2806(4) 0.5798(2)
O8 O 0.9338(3) 0.3542(5) 0.6152(3)
O9 O 0.7661(3) 0.6829(4) -0.0992(2)
O10 O 0.7876(3) 0.5610(5) -0.1622(2)
O11 O 0.7671(2) 0.6400(4) 0.0941(2)
O12 O 0.7906(3) 0.4958(4) 0.1456(2)
O13 O 0.7380(3) 0.4199(4) 0.6477(2)
O14 O 0.7299(2) 0.4108(4) 0.5474(2)
O15 O 0.7461(3) 0.7163(4) 0.7453(2)
O16 O 0.7758(4) 0.8657(5) 0.7119(4)
O17 O 1.0977(3) 0.6298(6) 0.2262(4)
O18 O 1.1607(3) 0.5067(5) 0.2659(3)
O19 O 0.8976(2) 0.6397(4) 0.2249(3)
O20 O 0.8436(2) 0.5295(4) 0.2718(3)
O21 O 0.4236(3) 0.3370(5) 0.2994(3)
O22 O 0.3586(3) 0.4386(8) 0.3382(4)
O23 O 0.5975(2) 0.2103(5) 0.3925(3)
O24 O 0.6409(3) 0.2596(5) 0.4845(3)
O25 O 0.6584(2) 0.5613(4) 0.1415(2)
O26 O 0.5488(3) 0.4321(5) 0.1633(2)
O27 O 0.5524(2) 0.5169(4) 0.0434(2)
O28 O 0.6417(3) 0.7636(4) 0.1221(2)
O29 O 0.6622(2) 0.5174(4) -0.0789(2)
O30 O 0.8515(2) 0.1340(4) 0.4773(2)
O31 O 0.5373(3) 0.7214(4) 0.0275(2)
O32 O 0.4358(2) 0.7061(4) -0.0605(3)
O33 O 0.4382(2) 0.5995(4) 0.0490(2)
O34 O 0.5419(2) 0.6389(4) 0.1375(2)
O35 O 0.4428(3) 0.5328(5) 0.1723(3)
O36 O 0.6718(2) 0.4239(4) 0.0289(3)
O37 O 0.5426(2) 0.5910(4) -0.0691(2)
O38 O 0.6873(3) 0.3493(5) 0.1523(3)
H1 H 0.68040 0.34850 0.11450
H2 H 0.66580 0.30560 0.16160
O39 O 0.6246(7) 0.4259(14) -0.2699(8)
O40 O 0.6540(2) 0.6030(5) -0.2010(3)
O41 O 0.4875(3) 0.2606(5) 0.2009(3)
H3 H 0.509(4) 0.305(7) 0.186(5)
H4 H 0.475(5) 0.217(7) 0.174(4)
O42 O 0.4836(9) 0.0790(15) 0.3796(9)
O43? O 0.9927(9) 0.5520(15) 0.1234(10)
N1 N 0.6458(3) 0.5846(5) 0.2685(3)
N2 N 0.8325(3) 0.3893(5) 0.4802(3)
N3 N 0.7907(3) 0.5608(5) -0.0061(3)
N4 N 0.7604(3) 0.6207(5) 0.6460(3)
N5 N 1.0018(3) 0.5419(5) 0.2603(3)
C1 C 0.6478(4) 0.6863(6) 0.2710(4)
C2 C 0.6017(4) 0.7432(7) 0.2909(5)
H5 H 0.60410 0.81440 0.29250
C3 C 0.5516(5) 0.6924(7) 0.3084(6)
H6 H 0.52030 0.72890 0.32270
C4 C 0.5488(4) 0.5862(8) 0.3041(5)
H7 H 0.51470 0.55030 0.31340
C5 C 0.5985(3) 0.5353(6) 0.2856(3)
C6 C 0.7040(3) 0.7345(6) 0.2507(3)
C7 C 0.6028(3) 0.4197(6) 0.2820(3)
C8 C 0.8218(3) 0.4504(6) 0.4305(3)
C9 C 0.8601(4) 0.5316(6) 0.4220(4)
H8 H 0.85100 0.57400 0.38850
C10 C 0.9130(4) 0.5488(7) 0.4648(4)
H9 H 0.94130 0.59990 0.45910
C11 C 0.9219(4) 0.4881(6) 0.5150(4)
H10 H 0.95520 0.50070 0.54510
C12 C 0.8819(3) 0.4082(6) 0.5215(3)
C13 C 0.7635(3) 0.4253(6) 0.3890(3)
C14 C 0.8880(4) 0.3418(6) 0.5765(3)
C15 C 0.8048(4) 0.5243(6) -0.0583(3)
C16 C 0.8334(5) 0.4319(7) -0.0628(4)
H11 H 0.84330 0.41020 -0.09960
C17 C 0.8477(6) 0.3702(8) -0.0115(5)
H12 H 0.86600 0.30610 -0.01350
C18 C 0.8335(5) 0.4083(7) 0.0427(4)
H13 H 0.84380 0.37110 0.07820
C19 C 0.8041(3) 0.5015(6) 0.0433(4)
C20 C 0.7847(3) 0.5950(6) -0.1103(3)
C21 C 0.7867(3) 0.5489(5) 0.0990(3)
C22 C 0.7592(4) 0.5688(6) 0.5944(3)
C23 C 0.7785(5) 0.6150(7) 0.5453(4)
H14 H 0.77960 0.57760 0.51020
C24 C 0.7962(6) 0.7162(8) 0.5484(5)
H15 H 0.80970 0.74790 0.51570
C25 C 0.7937(6) 0.7709(8) 0.6016(5)
H16 H 0.80450 0.83990 0.60470
C26 C 0.7752(4) 0.7206(6) 0.6485(4)
C27 C 0.7408(3) 0.4570(6) 0.5963(3)
C28 C 0.7650(5) 0.7727(6) 0.7061(4)
C29 C 1.0562(3) 0.4958(6) 0.2767(4)
C30 C 1.0622(4) 0.4099(7) 0.3136(5)
H17 H 1.10050 0.37870 0.32460
C31 C 1.0100(4) 0.3718(7) 0.3336(5)
H18 H 1.01270 0.31360 0.35770
C32 C 0.9542(4) 0.4203(6) 0.3175(5)
H19 H 0.91900 0.39690 0.33180
C33 C 0.9509(3) 0.5041(6) 0.2799(4)
C34 C 1.1088(4) 0.5478(7) 0.2547(4)
C35 C 0.8919(3) 0.5621(6) 0.2570(3)
N6 N 0.4946(3) 0.3099(6) 0.4019(3)
C36 C 0.4422(4) 0.3632(8) 0.4040(4)
C37 C 0.4268(5) 0.4003(10) 0.4564(5)
H20 H 0.38970 0.43500 0.45700
C38 C 0.4682(6) 0.3846(12) 0.5091(6)
H21 H 0.45840 0.40670 0.54580
C39 C 0.5233(5) 0.3367(10) 0.5068(5)
H22 H 0.55200 0.32840 0.54150
C40 C 0.5356(4) 0.3008(8) 0.4524(4)
C41 C 0.4054(3) 0.3790(8) 0.3417(4)
C42 C 0.5963(3) 0.2520(6) 0.4427(4)
O44 O 0.7631(8) 0.1893(11) 0.1057(7)
H23 H 0.746(11) 0.144(15) 0.124(11)
H24 H 0.741(10) 0.211(19) 0.074(7)
O45 O 0.8820(6) 0.8015(10) -0.1377(7)
H25 H 0.86380 0.74100 -0.15890
H26 H 0.90430 0.81910 -0.17030
O46 O 1.0746(6) 0.3955(11) 0.1415(7)
O47? O 1.0119(4) 0.4724(6) 0.0830(3)
O48? O 0.9590(14) 0.570(3) -0.0014(15)
O49 O 1.00000 0.50000 0.00000
O50 O 1.1481(12) 0.9732(19) -0.0591(12)
O51 O 0.6038(18) 0.282(3) 0.1744(18)
O1C O 0.7566(2) 0.1741(4) 0.2653(2)
O2C O 0.7917(3) 0.3299(4) 0.2489(3)
O3C O 0.8504(2) -0.1178(4) 0.2368(2)
O4C O 0.9396(3) -0.1308(4) 0.2001(3)
N1C N 0.8542(3) 0.0846(5) 0.2315(3)
C1C C 0.8522(4) 0.1863(6) 0.2290(4)
C2C C 0.8983(4) 0.2432(7) 0.2091(5)
H5C H 0.89590 0.31440 0.20750
C3C C 0.9484(5) 0.1924(7) 0.1916(6)
H6C H 0.97970 0.22890 0.17730
C4C C 0.9512(4) 0.0862(8) 0.1959(5)
H7C H 0.98530 0.05030 0.18660
C5C C 0.9015(3) 0.0353(6) 0.2144(3)
C6C C 0.7960(3) 0.2345(6) 0.2493(3)
C7C C 0.8972(3) -0.0803(6) 0.2180(3)
Nd1C Nd 0.764270(17) -0.01443(3) 0.268201(17)
Nd1C* Nd 0.764270(17) 0.98557(3) 0.268201(17)
Nd2C Nd 0.745680(17) 0.74672(3) 0.001540(16)
Nd3B Nd 1.267690(17) 0.47231(3) 0.261780(17)
Nd4C Nd 0.992300(18) -0.29222(3) 0.194640(18)
Nd4C* Nd 0.992300(18) 0.70778(3) 0.194640(18)
O9C O 0.7339(3) 0.1829(4) 0.5992(2)
O10C O 0.7124(3) 0.0610(5) 0.6622(2)
O11C O 0.7329(2) 0.1400(4) 0.4059(2)
O12C O 0.7094(3) -0.0042(4) 0.3544(2)
N3C N 0.7093(3) 0.0608(5) 0.5061(3)
C15C C 0.6952(4) 0.0243(6) 0.5583(3)
C16C C 0.6666(5) -0.0681(7) 0.5628(4)
H11C H 0.65670 -0.08980 0.59960
C17C C 0.6523(6) -0.1298(8) 0.5115(5)
H12C H 0.63400 -0.19390 0.51350
C18C C 0.6665(5) -0.0917(7) 0.4573(4)
H13C H 0.65620 -0.12890 0.42180
C19C C 0.6959(3) 0.0015(6) 0.4567(4)
C20C C 0.7153(3) 0.0950(6) 0.6103(3)
C21C C 0.7133(3) 0.0489(5) 0.4010(3)
O13* O 0.7380(3) 0.4199(4) -0.3523(2)
O14* O 0.7299(2) 0.4108(4) -0.4526(2)
O15* O 0.7461(3) 0.7163(4) -0.2547(2)
O16* O 0.7758(4) 0.8657(5) -0.2881(4)
N4* N 0.7604(3) 0.6207(5) -0.3540(3)
C22* C 0.7592(4) 0.5688(6) -0.4056(3)
C23* C 0.7785(5) 0.6150(7) -0.4547(4)
H14* H 0.77960 0.57760 -0.48980
C24* C 0.7962(6) 0.7162(8) -0.4516(5)
H15* H 0.80970 0.74790 -0.48430
C25* C 0.7937(6) 0.7709(8) -0.3984(5)
H16* H 0.80450 0.83990 -0.39530
C26* C 0.7752(4) 0.7206(6) -0.3515(4)
C27* C 0.7408(3) 0.4570(6) -0.4037(3)
C28* C 0.7650(5) 0.7727(6) -0.2939(4)
O13C O 0.7620(3) -0.0801(4) -0.1477(2)
O14C O 0.7701(2) -0.0892(4) -0.0474(2)
O15C O 0.7539(3) 0.2163(4) -0.2453(2)
O16C O 0.7242(4) 0.3657(5) -0.2119(4)
N4C N 0.7396(3) 0.1207(5) -0.1460(3)
C22C C 0.7408(4) 0.0688(6) -0.0944(3)
C23C C 0.7215(5) 0.1150(7) -0.0453(4)
H14C H 0.72040 0.07760 -0.01020
C24C C 0.7038(6) 0.2162(8) -0.0484(5)
H15C H 0.69030 0.24790 -0.01570
C25C C 0.7063(6) 0.2709(8) -0.1016(5)
H16C H 0.69550 0.33990 -0.10470
C26C C 0.7248(4) 0.2206(6) -0.1485(4)
C27C C 0.7592(3) -0.0430(6) -0.0963(3)
C28C C 0.7350(5) 0.2727(6) -0.2061(4)
O17B O 0.9023(3) 0.3702(6) -0.2262(4)
O18B O 0.8393(3) 0.4933(5) -0.2659(3)
O19B O 1.1024(2) 0.3603(4) -0.2249(3)
O20B O 1.1564(2) 0.4705(4) -0.2718(3)
N5B N 0.9982(3) 0.4581(5) -0.2603(3)
C29B C 0.9438(3) 0.5042(6) -0.2767(4)
C30B C 0.9378(4) 0.5901(7) -0.3136(5)
H17B H 0.89950 0.62130 -0.32460
C31B C 0.9900(4) 0.6282(7) -0.3336(5)
H18B H 0.98730 0.68640 -0.35770
C32B C 1.0458(4) 0.5797(6) -0.3175(5)
H19B H 1.08100 0.60310 -0.33180
C33B C 1.0491(3) 0.4959(6) -0.2799(4)
C34B C 0.8912(4) 0.4522(7) -0.2547(4)
C35B C 1.1081(3) 0.4379(6) -0.2570(3)
O21B O 0.5764(3) 0.6630(5) -0.2994(3)
O22B O 0.6414(3) 0.5614(8) -0.3382(4)
O23B O 0.4025(2) 0.7897(5) -0.3925(3)
O24B O 0.3591(3) 0.7404(5) -0.4845(3)
N6B N 0.5054(3) 0.6901(6) -0.4019(3)
C36B C 0.5578(4) 0.6368(8) -0.4040(4)
C37B C 0.5732(5) 0.5997(10) -0.4564(5)
H20B H 0.61030 0.56500 -0.45700
C38B C 0.5318(6) 0.6154(12) -0.5091(6)
H21B H 0.54160 0.59330 -0.54580
C39B C 0.4767(5) 0.6633(10) -0.5068(5)
H22B H 0.44800 0.67160 -0.54150
C40B C 0.4644(4) 0.6992(8) -0.4524(4)
C41B C 0.5946(3) 0.6210(8) -0.3417(4)
C42B C 0.4037(3) 0.7480(6) -0.4427(4)
O17C O 0.4023(3) 0.1298(6) 0.2738(4)
O18C O 0.3393(3) 0.0067(5) 0.2341(3)
O19C O 0.6024(2) 0.1397(4) 0.2751(3)
O20C O 0.6564(2) 0.0295(4) 0.2282(3)
N5C N 0.4982(3) 0.0419(5) 0.2397(3)
C29C C 0.4438(3) -0.0042(6) 0.2233(4)
C30C C 0.4378(4) -0.0901(7) 0.1864(5)
H17C H 0.39950 -0.12130 0.17540
C31C C 0.4900(4) -0.1282(7) 0.1664(5)
H18C H 0.48730 -0.18640 0.14230
C32C C 0.5458(4) -0.0797(6) 0.1825(5)
H19C H 0.58100 -0.10310 0.16820
C33C C 0.5491(3) 0.0041(6) 0.2201(4)
C34C C 0.3912(4) 0.0478(7) 0.2453(4)
C35C C 0.6081(3) 0.0621(6) 0.2430(3)
O30C O 0.6485(2) 0.6340(4) 0.0227(2)
O9B O 1.2339(3) 0.3171(4) 0.0992(2)
O10B O 1.2124(3) 0.4390(5) 0.1622(2)
O11B O 1.2329(2) 0.3600(4) -0.0941(2)
O12B O 1.2094(3) 0.5042(4) -0.1456(2)
N3B N 1.2093(3) 0.4392(5) 0.0061(3)
C15B C 1.1952(4) 0.4757(6) 0.0583(3)
C16B C 1.1666(5) 0.5681(7) 0.0628(4)
H11B H 1.15670 0.58980 0.09960
C17B C 1.1523(6) 0.6298(8) 0.0115(5)
H12B H 1.13400 0.69390 0.01350
C18B C 1.1665(5) 0.5917(7) -0.0427(4)
H13B H 1.15620 0.62890 -0.07820
C19B C 1.1959(3) 0.4985(6) -0.0433(4)
C20B C 1.2153(3) 0.4050(6) 0.1103(3)
C21B C 1.2133(3) 0.4511(5) -0.0990(3)
O13B O 1.2620(3) 0.5801(4) 0.3523(2)
O14B O 1.2701(2) 0.5892(4) 0.4526(2)
O15B O 1.2539(3) 0.2837(4) 0.2547(2)
O16B O 1.2242(4) 0.1343(5) 0.2881(4)
N4B N 1.2396(3) 0.3793(5) 0.3540(3)
C22B C 1.2408(4) 0.4312(6) 0.4056(3)
C23B C 1.2215(5) 0.3850(7) 0.4547(4)
H14B H 1.22040 0.42240 0.48980
C24B C 1.2038(6) 0.2838(8) 0.4516(5)
H15B H 1.19030 0.25210 0.48430
C25B C 1.2063(6) 0.2291(8) 0.3984(5)
H16B H 1.19550 0.16010 0.39530
C26B C 1.2248(4) 0.2794(6) 0.3515(4)
C27B C 1.2592(3) 0.5430(6) 0.4037(3)
C28B C 1.2350(5) 0.2273(6) 0.2939(4)
O13A O 1.2380(3) 1.0801(4) 0.1477(2)
O14A O 1.2299(2) 1.0892(4) 0.0474(2)
O15A O 1.2461(3) 0.7837(4) 0.2453(2)
O16A O 1.2758(4) 0.6343(5) 0.2119(4)
N4A N 1.2604(3) 0.8793(5) 0.1460(3)
C22A C 1.2592(4) 0.9312(6) 0.0944(3)
C23A C 1.2785(5) 0.8850(7) 0.0453(4)
H14A H 1.27960 0.92240 0.01020
C24A C 1.2962(6) 0.7838(8) 0.0484(5)
H15A H 1.30970 0.75210 0.01570
C25A C 1.2937(6) 0.7291(8) 0.1016(5)
H16A H 1.30450 0.66010 0.10470
C26A C 1.2752(4) 0.7794(6) 0.1485(4)
C27A C 1.2408(3) 1.0430(6) 0.0963(3)
C28A C 1.2650(5) 0.7273(6) 0.2061(4)
O21* O 1.4236(3) 0.3370(5) 0.2994(3)
O22* O 1.3586(3) 0.4386(8) 0.3382(4)
O23* O 1.5975(2) 0.2103(5) 0.3925(3)
O24* O 1.6409(3) 0.2596(5) 0.4845(3)
N6* N 1.4946(3) 0.3099(6) 0.4019(3)
C36* C 1.4422(4) 0.3632(8) 0.4040(4)
C37* C 1.4268(5) 0.4003(10) 0.4564(5)
H20* H 1.38970 0.43500 0.45700
C38* C 1.4682(6) 0.3846(12) 0.5091(6)
H21* H 1.45840 0.40670 0.54580
C39* C 1.5233(5) 0.3367(10) 0.5068(5)
H22* H 1.55200 0.32840 0.54150
C40* C 1.5356(4) 0.3008(8) 0.4524(4)
C41* C 1.4054(3) 0.3790(8) 0.3417(4)
C42* C 1.5963(3) 0.2520(6) 0.4427(4)
O39B O 1.3754(7) 0.5741(14) 0.2699(8)
O40B O 1.3460(2) 0.3970(5) 0.2010(3)
Nd1B Nd 1.264270(17) 0.51443(3) -0.231799(17)
Nd2A Nd 1.254320(17) 0.25328(3) -0.001540(16)
Nd2* Nd 0.754320(17) 0.24672(3) -0.501540(16)
Nd2C* Nd 0.745680(17) -0.25328(3) 0.001540(16)
Nd2B Nd 1.245680(17) 0.75328(3) 0.501540(16)
Nd2A* Nd 1.254320(17) 1.25328(3) -0.001540(16)
Nd2B* Nd 0.245680(17) 0.75328(3) -0.498460(16)
Nd2** Nd 1.754320(17) 0.24672(3) 0.498460(16)
Nd3C Nd 0.767690(17) 0.02769(3) 0.761780(17)
Nd3* Nd 0.732310(17) 0.52769(3) 0.738220(17)
Nd3C* Nd 0.767690(17) 0.02769(3) -0.238220(17)
Nd3A Nd 1.232310(17) 0.97231(3) 0.238220(17)
Nd3C** Nd 0.767690(17) 1.02769(3) 0.761780(17)
Nd3C*** Nd 0.767690(17) 1.02769(3) -0.238220(17)
Nd3A* Nd 1.232310(17) -0.02769(3) 0.238220(17)
Nd3A** Nd 0.232310(17) -0.02769(3) 0.238220(17)
Nd3B* Nd 0.267690(17) 0.47231(3) 0.261780(17)
Nd4A Nd 1.007700(18) 0.29222(3) -0.194640(18)
Nd4B Nd 0.492300(18) 0.79222(3) -0.305360(18)
Nd4* Nd 1.507700(18) 0.20778(3) 0.305360(18)
Mo1C Mo 0.88654(3) 0.14819(5) 0.40247(3)
Mo2B Mo 0.51270(3) 0.36585(5) 0.01446(3)
Mo3C Mo 0.87418(3) 0.00510(5) 0.51761(3)
O27B O 0.4476(2) 0.4831(4) -0.0434(2)
O33B O 0.5618(2) 0.4005(4) -0.0490(2)
O37B O 0.4574(2) 0.4090(4) 0.0691(2)
O1B O 1.2566(2) 0.3259(4) -0.2347(2)
O2B O 1.2917(3) 0.1701(4) -0.2511(3)
O3B O 1.3504(2) 0.6178(4) -0.2632(2)
O4B O 1.4396(3) 0.6308(4) -0.2999(3)
N1B N 1.3542(3) 0.4154(5) -0.2685(3)
C1B C 1.3522(4) 0.3137(6) -0.2710(4)
C2B C 1.3983(4) 0.2568(7) -0.2909(5)
H5B H 1.39590 0.18560 -0.29250
C3B C 1.4484(5) 0.3076(7) -0.3084(6)
H6B H 1.47970 0.27110 -0.32270
C4B C 1.4512(4) 0.4138(8) -0.3041(5)
H7B H 1.48530 0.44970 -0.31340
C5B C 1.4015(3) 0.4647(6) -0.2856(3)
C6B C 1.2960(3) 0.2655(6) -0.2507(3)
C7B C 1.3972(3) 0.5803(6) -0.2820(3)
O1A O 1.2434(2) 0.8259(4) -0.2653(2)
O2A O 1.2083(3) 0.6701(4) -0.2489(3)
O3A O 1.1496(2) 1.1178(4) -0.2368(2)
O4A O 1.0604(3) 1.1308(4) -0.2001(3)
N1A N 1.1458(3) 0.9154(5) -0.2315(3)
C1A C 1.1478(4) 0.8137(6) -0.2290(4)
C2A C 1.1017(4) 0.7568(7) -0.2091(5)
H5A H 1.10410 0.68560 -0.20750
C3A C 1.0516(5) 0.8076(7) -0.1916(6)
H6A H 1.02030 0.77110 -0.17730
C4A C 1.0488(4) 0.9138(8) -0.1959(5)
H7A H 1.01470 0.94970 -0.18660
C5A C 1.0985(3) 0.9647(6) -0.2144(3)
C6A C 1.2040(3) 0.7655(6) -0.2493(3)
C7A C 1.1028(3) 1.0803(6) -0.2180(3)
O5B O 1.2694(2) 0.6470(4) -0.4047(2)
O6B O 1.2490(3) 0.5205(4) -0.3429(2)
O7B O 1.1575(3) 0.7194(4) -0.5798(2)
O8B O 1.0662(3) 0.6458(5) -0.6152(3)
N2B N 1.1675(3) 0.6107(5) -0.4802(3)
C8B C 1.1782(3) 0.5496(6) -0.4305(3)
C9B C 1.1399(4) 0.4684(6) -0.4220(4)
H8B H 1.14900 0.42600 -0.38850
C10B C 1.0870(4) 0.4512(7) -0.4648(4)
H9B H 1.05870 0.40010 -0.45910
C11B C 1.0781(4) 0.5119(6) -0.5150(4)
H10B H 1.04480 0.49930 -0.54510
C12B C 1.1181(3) 0.5918(6) -0.5215(3)
C13B C 1.2365(3) 0.5747(6) -0.3890(3)
C14B C 1.1120(4) 0.6582(6) -0.5765(3)
O25B O 1.3416(2) 0.4387(4) -0.1415(2)
O38B O 1.3127(3) 0.6507(5) -0.1523(3)
H1B H 1.31960 0.65150 -0.11450
H2B H 1.33420 0.69440 -0.16160
O5B* O 1.2694(2) 0.6470(4) 0.5953(2)
O6B* O 1.2490(3) 0.5205(4) 0.6571(2)
O7B* O 1.1575(3) 0.7194(4) 0.4202(2)
O8B* O 1.0662(3) 0.6458(5) 0.3848(3)
N2B* N 1.1675(3) 0.6107(5) 0.5198(3)
C8B* C 1.1782(3) 0.5496(6) 0.5695(3)
C9B* C 1.1399(4) 0.4684(6) 0.5780(4)
H8B* H 1.14900 0.42600 0.61150
C10B* C 1.0870(4) 0.4512(7) 0.5352(4)
H9B* H 1.05870 0.40010 0.54090
C11B* C 1.0781(4) 0.5119(6) 0.4850(4)
H10B* H 1.04480 0.49930 0.45490
C12B* C 1.1181(3) 0.5918(6) 0.4785(3)
C13B* C 1.2365(3) 0.5747(6) 0.6110(3)
C14B* C 1.1120(4) 0.6582(6) 0.4235(3)
O9A O 1.2661(3) 0.8171(4) 0.4008(2)
O10A O 1.2876(3) 0.9390(5) 0.3378(2)
O11A O 1.2671(2) 0.8600(4) 0.5941(2)
O12A O 1.2906(3) 1.0042(4) 0.6456(2)
N3A N 1.2907(3) 0.9392(5) 0.4939(3)
C15A C 1.3048(4) 0.9757(6) 0.4417(3)
C16A C 1.3334(5) 1.0681(7) 0.4372(4)
H11A H 1.34330 1.08980 0.40040
C17A C 1.3477(6) 1.1298(8) 0.4885(5)
H12A H 1.36600 1.19390 0.48650
C18A C 1.3335(5) 1.0917(7) 0.5427(4)
H13A H 1.34380 1.12890 0.57820
C19A C 1.3041(3) 0.9985(6) 0.5433(4)
C20A C 1.2847(3) 0.9050(6) 0.3897(3)
C21A C 1.2867(3) 0.9511(5) 0.5990(3)
O21B* O 1.5764(3) 0.6630(5) 0.7006(3)
O22B* O 1.6414(3) 0.5614(8) 0.6618(4)
O23B* O 1.4025(2) 0.7897(5) 0.6075(3)
O24B* O 1.3591(3) 0.7404(5) 0.5155(3)
N6B* N 1.5054(3) 0.6901(6) 0.5981(3)
C36B* C 1.5578(4) 0.6368(8) 0.5960(4)
C37B* C 1.5732(5) 0.5997(10) 0.5436(5)
H20B* H 1.61030 0.56500 0.54300
C38B* C 1.5318(6) 0.6154(12) 0.4909(6)
H21B* H 1.54160 0.59330 0.45420
C39B* C 1.4767(5) 0.6633(10) 0.4932(5)
H22B* H 1.44800 0.67160 0.45850
C40B* C 1.4644(4) 0.6992(8) 0.5476(4)
C41B* C 1.5946(3) 0.6210(8) 0.6583(4)
C42B* C 1.4037(3) 0.7480(6) 0.5573(4)
O30B O 1.1485(2) 0.8660(4) 0.5227(2)
O1B* O 0.2566(2) 0.3259(4) -0.2347(2)
O2B* O 0.2917(3) 0.1701(4) -0.2511(3)
O3B* O 0.3504(2) 0.6178(4) -0.2632(2)
O4B* O 0.4396(3) 0.6308(4) -0.2999(3)
N1B* N 0.3542(3) 0.4154(5) -0.2685(3)
C1B* C 0.3522(4) 0.3137(6) -0.2710(4)
C2B* C 0.3983(4) 0.2568(7) -0.2909(5)
H5B* H 0.39590 0.18560 -0.29250
C3B* C 0.4484(5) 0.3076(7) -0.3084(6)
H6B* H 0.47970 0.27110 -0.32270
C4B* C 0.4512(4) 0.4138(8) -0.3041(5)
H7B* H 0.48530 0.44970 -0.31340
C5B* C 0.4015(3) 0.4647(6) -0.2856(3)
C6B* C 0.2960(3) 0.2655(6) -0.2507(3)
C7B* C 0.3972(3) 0.5803(6) -0.2820(3)
O17A O 0.5977(3) 0.8702(6) -0.2738(4)
O18A O 0.6607(3) 0.9933(5) -0.2341(3)
O19A O 0.3976(2) 0.8603(4) -0.2751(3)
O20A O 0.3436(2) 0.9705(4) -0.2282(3)
N5A N 0.5018(3) 0.9581(5) -0.2397(3)
C29A C 0.5562(3) 1.0042(6) -0.2233(4)
C30A C 0.5622(4) 1.0901(7) -0.1864(5)
H17A H 0.60050 1.12130 -0.17540
C31A C 0.5100(4) 1.1282(7) -0.1664(5)
H18A H 0.51270 1.18640 -0.14230
C32A C 0.4542(4) 1.0797(6) -0.1825(5)
H19A H 0.41900 1.10310 -0.16820
C33A C 0.4509(3) 0.9959(6) -0.2201(4)
C34A C 0.6088(4) 0.9522(7) -0.2453(4)
C35A C 0.3919(3) 0.9379(6) -0.2430(3)
O41B O 0.5125(3) 0.7394(5) -0.2009(3)
H3B H 0.491(4) 0.695(7) -0.186(5)
H4B H 0.525(5) 0.783(7) -0.174(4)
O42B O 0.5164(9) 0.9210(15) -0.3796(9)
O31B O 0.4627(3) 0.2786(4) -0.0275(2)
O32B O 0.5642(2) 0.2939(4) 0.0605(3)
Nd1A Nd 1.235730(17) 1.01443(3) -0.268201(17)
Nd1B* Nd 0.264270(17) 0.51443(3) -0.231799(17)
Nd1A* Nd 1.235730(17) 0.01443(3) -0.268201(17)
Nd1A** Nd 0.235730(17) 0.01443(3) -0.268201(17)
Nd1B** Nd 1.264270(17) 0.51443(3) 0.768201(17)
Nd1A*** Nd 1.235730(17) 1.01443(3) 0.731799(17)
Nd1A**** Nd 0.235730(17) 1.01443(3) -0.268201(17)
Nd2B** Nd 1.245680(17) 0.75328(3) -0.498460(16)
Nd3** Nd 1.732310(17) 0.52769(3) 0.738220(17)
Nd4B* Nd 1.492300(18) 0.79222(3) -0.305360(18)
Nd4A* Nd 1.007700(18) 1.29222(3) -0.194640(18)
Nd4B** Nd 1.492300(18) 0.79222(3) 0.694640(18)
Mo1B Mo 1.38654(3) 0.35181(5) -0.09753(3)
Mo1B* Mo 0.38654(3) 0.35181(5) -0.09753(3)
Mo1A Mo 1.11346(3) 0.85181(5) 0.59753(3)
Mo3B Mo 0.37418(3) 0.49490(5) 0.01761(3)
Mo3A Mo 1.12582(3) 0.99490(5) 0.48239(3)
Mo4B Mo 0.50307(3) 0.48366(5) -0.12649(3)
O27B* O 1.4476(2) 0.4831(4) -0.0434(2)
O28B O 1.3583(3) 0.2364(4) -0.1221(2)
O30A O 1.3515(2) 0.3660(4) -0.0227(2)
O31B* O 1.4627(3) 0.2786(4) -0.0275(2)
O34B O 1.4581(2) 0.3611(4) -0.1375(2)
O29B O 0.3378(2) 0.4826(4) 0.0789(2)
O30A* O 0.3515(2) 0.3660(4) -0.0227(2)
O36B O 0.3282(2) 0.5761(4) -0.0289(3)
O26B O 0.4512(3) 0.5679(5) -0.1633(2)
O34B* O 0.4581(2) 0.3611(4) -0.1375(2)
O35B O 0.5572(3) 0.4672(5) -0.1723(3)
Nd2A** Nd 0.254320(17) 0.25328(3) -0.001540(16)
Mo2B* Mo 1.51270(3) 0.36585(5) 0.01446(3)
Mo2* Mo 1.48730(3) 0.63415(5) -0.01446(3)
Mo3B* Mo 1.37418(3) 0.49490(5) 0.01761(3)
Mo4B* Mo 1.50307(3) 0.48366(5) -0.12649(3)
#END
