
#######################################################################
#
#                 Cambridge Crystallographic Data Centre
#                                CCDC
#
#######################################################################
#
# If this CIF has been generated from an entry in the Cambridge
# Structural Database, then it will include bibliographic, chemical,
# crystal, experimental, refinement or atomic coordinate data resulting
# from the CCDC's data processing and validation procedures.
#
#######################################################################

data_CSD_CIF_QAJPIE
_audit_creation_date 2020-12-14
_audit_creation_method CSD-ConQuest-V1
_database_code_CSD QAJPIE
_database_code_depnum_ccdc_archive 'CCDC 2025578'
_chemical_formula_sum 'C54 H62.66 Ba3 Fe4 N12 O58.33'
_chemical_formula_moiety
;
(C24 H12 Ba3 Fe4 O54 6-)n,6(C5 H7 N2 1+),4.33(H2 O1)
;
_journal_coden_Cambridge 580
_journal_volume 193
_journal_year 2021
_journal_page_first 114885
_journal_name_full 'Polyhedron '
loop_
_publ_author_name
"C.M.N.Choubeu"
"B.N.Ndosiri"
"H.Vezin"
"C.Minaud"
"J.B.Orton"
"S.J.Coles"
"J.Nenwa"
_chemical_name_systematic
;
catena-[hexakis(3-amino-pyridinium) 
dodecakis(\m-oxalato)-hexa-aqua-tri-barium(ii)-tetra-iron(iii) hydrate]
;
_cell_volume   8396.737
_exptl_crystal_colour 'brown'
_exptl_crystal_density_diffrn 1.937
_exptl_crystal_description 'cut block'
_exptl_crystal_preparation 'water'
_diffrn_ambient_temperature 100
_refine_special_details
;
C30A,C31A,C32A,C33A,C34A,N3A,N4A and C30B,C31B,C32B,C33B,C34B,N3B,N4B 
disordered over two sites with occupancies 0.6667:0.3333; 
C35B,C36B,C37B,C38B,C39B,N5B,N6B and C35A,C36A,C37A,C38A,C39A,N5A,N6A and 
C35A,C36A,C37A,C38A,C39A,N5A,N6A disordered over three sites with occupancies 
0.3333:0.6667:0.6667; O30 disordered by symmetry over two configurations with 
occupancy 0.5.
;
#These two values have been output from a single CSD field.
_refine_ls_R_factor_gt 0.0281
_refine_ls_wR_factor_gt 0.0281
_symmetry_cell_setting monoclinic
_symmetry_space_group_name_H-M 'C 2/c'
_symmetry_Int_Tables_number 15
loop_
_symmetry_equiv_pos_site_id
_symmetry_equiv_pos_as_xyz
1 x,y,z
2 -x,y,1/2-z
3 1/2+x,1/2+y,z
4 1/2-x,1/2+y,1/2-z
5 -x,-y,-z
6 x,-y,-1/2+z
7 -1/2-x,-1/2-y,-z
8 -1/2+x,-1/2-y,-1/2+z
_cell_length_a 11.4905(1)
_cell_length_b 19.3736(3)
_cell_length_c 37.7473(5)
_cell_angle_alpha 90
_cell_angle_beta 92.215(1)
_cell_angle_gamma 90
_cell_formula_units_Z 4
loop_
_atom_type_symbol
_atom_type_radius_bond
C 0.68
H 0.23
Ba 2.15
Fe 1.52
N 0.68
O 0.68
loop_
_atom_site_label
_atom_site_type_symbol
_atom_site_fract_x
_atom_site_fract_y
_atom_site_fract_z
Ba1 Ba 1.00000 0.07066(2) 0.25000
Ba2 Ba 1.16994(2) 0.36150(2) 0.48250(2)
C1 C 1.0414(2) 0.08067(13) 0.34855(7)
C2 C 0.9060(2) 0.07752(13) 0.34370(7)
C3 C 1.1873(2) 0.20991(13) 0.28291(7)
C4 C 1.0668(2) 0.23404(13) 0.29593(7)
C5 C 1.4038(2) 0.41780(13) 0.29628(7)
C6 C 1.2939(2) 0.43660(13) 0.27331(7)
C7 C 1.2397(2) 0.31020(13) 0.39407(7)
C8 C 1.1792(2) 0.38141(13) 0.38830(7)
C9 C 1.3931(2) 0.47073(14) 0.44911(7)
C10 C 1.2981(2) 0.52316(14) 0.45897(7)
C11 C 1.4194(2) 0.31367(14) 0.53821(7)
C12 C 1.5089(2) 0.26844(14) 0.55946(7)
Fe1 Fe 0.95506(3) 0.09537(2) 0.41646(2)
Fe2 Fe 1.22818(3) 0.33285(2) 0.32092(2)
O1 O 1.10182(15) 0.07462(10) 0.32259(5)
O2 O 1.07874(15) 0.08919(10) 0.38055(5)
O3 O 0.86013(15) 0.07089(10) 0.31427(5)
O4 O 0.85411(15) 0.08289(10) 0.37321(5)
O5 O 1.19606(15) 0.15674(10) 0.26559(5)
O6 O 1.27118(14) 0.25085(9) 0.29184(5)
O7 O 0.98032(15) 0.19847(10) 0.28921(5)
O8 O 1.06932(14) 0.29102(9) 0.31285(5)
O9 O 1.38921(15) 0.37259(9) 0.32000(5)
O10 O 1.49688(15) 0.44676(10) 0.29042(5)
O11 O 1.20479(15) 0.39898(10) 0.28024(5)
O12 O 1.29607(15) 0.48200(9) 0.25092(5)
O13 O 1.27216(15) 0.28133(9) 0.36583(5)
O14 O 1.25223(18) 0.28709(10) 0.42445(5)
O15 O 1.16722(15) 0.39957(9) 0.35585(5)
O16 O 1.14710(18) 0.41427(10) 0.41399(5)
O17 O 1.38611(17) 0.41117(10) 0.46001(5)
O18 O 1.47311(15) 0.49505(9) 0.42993(5)
O19 O 1.21604(18) 0.50455(10) 0.47639(6)
O20 O 1.31564(16) 0.58459(9) 0.44751(5)
O21 O 1.35207(16) 0.28676(10) 0.51620(5)
O22 O 1.42344(16) 0.37790(9) 0.54604(5)
O23 O 1.51633(18) 0.20663(10) 0.55322(6)
O24 O 1.57046(16) 0.30215(9) 0.58265(5)
O25 O 1.0917(2) 0.30874(12) 0.54781(6)
H1 H 1.06073 0.34036 0.56030
H2 H 1.14896 0.29320 0.56041
O26 O 0.9469(2) 0.41082(12) 0.49184(7)
H3 H 0.90943 0.45216 0.49309
H4 H 0.90094 0.37527 0.48195
O27 O 1.2082(4) 0.4459(2) 0.54701(10)
H5 H 1.27983 0.43184 0.54583
H6 H 1.20938 0.48492 0.55877
O28 O 0.9952(13) 0.4538(3) 0.2533(5)
H7 H 0.94408 0.42718 0.24261
H8 H 1.05256 0.42637 0.25936
C13 C 0.8795(18) 0.5960(9) 0.3739(5)
H9 H 0.82680 0.60520 0.39205
C14 C 0.9977(16) 0.5916(7) 0.3811(5)
H10 H 1.02638 0.59905 0.40476
C15 C 1.0704(17) 0.5777(8) 0.3571(6)
H11 H 1.15094 0.57226 0.36319
C16 C 1.0276(18) 0.5705(9) 0.3206(6)
C17 C 0.9086(18) 0.5736(11) 0.3126(6)
H12 H 0.87686 0.56684 0.28925
N1 N 0.8416(16) 0.5869(11) 0.3401(5)
N2 N 1.1053(8) 0.5586(5) 0.2971(3)
H13 H 1.08730 0.52015 0.28190
H14 H 1.18452 0.54841 0.30568
H15 H 0.77075 0.58371 0.32328
C18 C 1.6496(3) 0.22630(17) 0.29253(8)
H16 H 1.64176 0.21854 0.26771
C19 C 1.5539(2) 0.24186(16) 0.31196(8)
H17 H 1.47935 0.24628 0.30043
C20 C 1.5665(2) 0.25102(15) 0.34809(8)
H18 H 1.50019 0.26137 0.36139
C21 C 1.6757(2) 0.24522(15) 0.36531(8)
C22 C 1.7706(2) 0.23144(14) 0.34423(7)
H19 H 1.84688 0.22859 0.35477
N3 N 1.7542(2) 0.22236(13) 0.30954(6)
H20 H 1.81527 0.21325 0.29699
N4 N 1.6919(3) 0.25159(17) 0.40072(7)
H21 H 1.63212 0.25976 0.41400
H22 H 1.76225 0.24758 0.41056
N5 N 0.6781(8) 0.4214(10) 0.3350(3)
H23 H 0.61900 0.42853 0.31990
N6 N 0.7278(9) 0.4177(4) 0.42980(17)
H24 H 0.65310 0.40880 0.43272
H25 H 0.76993 0.38665 0.44186
C23 C 0.7826(7) 0.4108(6) 0.3221(2)
H26 H 0.79243 0.40990 0.29727
C24 C 0.7496(8) 0.4129(3) 0.39418(19)
C25 C 0.6582(9) 0.4218(5) 0.3693(3)
H27 H 0.58123 0.42826 0.37703
C26 C 0.8757(8) 0.4012(6) 0.3453(2)
H28 H 0.95103 0.39363 0.33648
C27 C 0.8606(8) 0.4026(4) 0.3813(2)
H29 H 0.92557 0.39661 0.39738
O29 O 1.5488(2) 0.30786(14) 0.45584(8)
H30 H 1.50716 0.27209 0.45871
H31 H 1.50207 0.34132 0.45759
O30 O 1.7448(2) 0.32019(13) 0.49858(7)
H32 H 1.67592 0.33293 0.49074
H33 H 1.74751 0.33112 0.52092
H34? H 0.76609 0.58988 0.33565
N7? N 0.8437(8) 0.5780(5) 0.3307(2)
N8? N 1.0127(5) 0.5749(3) 0.41274(15)
H35? H 0.96854 0.55496 0.42869
H36? H 1.08476 0.55790 0.41809
C28? C 1.0703(8) 0.5609(4) 0.3522(3)
H37? H 1.14983 0.55635 0.35965
C29? C 0.9236(10) 0.5663(6) 0.3061(3)
H38? H 0.90215 0.56414 0.28159
C30? C 0.9825(7) 0.5716(4) 0.3780(3)
C31? C 0.8687(8) 0.5814(4) 0.3656(2)
H39? H 0.80902 0.59058 0.38167
C32? C 1.0391(9) 0.5575(5) 0.3182(3)
H40? H 1.09694 0.54874 0.30141
C33? C 0.8043(18) 0.4064(13) 0.3262(5)
H41? H 0.82134 0.39832 0.30207
C34? C 0.8900(18) 0.4046(11) 0.3517(5)
H42? H 0.96716 0.39335 0.34551
C35? C 0.8676(15) 0.4186(9) 0.3862(5)
H43? H 0.92871 0.41748 0.40384
C36? C 0.7537(14) 0.4348(7) 0.3954(4)
C37? C 0.6667(17) 0.4334(10) 0.3687(5)
H44? H 0.58791 0.44208 0.37401
N9? N 0.6954(18) 0.420(2) 0.3352(5)
H45? H 0.63984 0.41943 0.31847
N10? N 0.7348(10) 0.4514(5) 0.4298(3)
H46? H 0.79999 0.46335 0.44239
H47? H 0.68670 0.48785 0.43117
Ba2A Ba 0.83006(2) 0.36150(2) 0.01750(2)
C1A C 0.9586(2) 0.08067(13) 0.15145(7)
C2A C 1.0940(2) 0.07752(13) 0.15630(7)
C3A C 0.8127(2) 0.20991(13) 0.21709(7)
C4A C 0.9332(2) 0.23404(13) 0.20407(7)
C5A C 0.5962(2) 0.41780(13) 0.20372(7)
C6A C 0.7061(2) 0.43660(13) 0.22669(7)
C7A C 0.7603(2) 0.31020(13) 0.10593(7)
C8A C 0.8208(2) 0.38141(13) 0.11170(7)
C9A C 0.6069(2) 0.47073(14) 0.05089(7)
C10A C 0.7019(2) 0.52316(14) 0.04103(7)
C11A C 0.5806(2) 0.31367(14) -0.03821(7)
C12A C 0.4911(2) 0.26844(14) -0.05946(7)
Fe1A Fe 1.04494(3) 0.09537(2) 0.08354(2)
Fe2A Fe 0.77182(3) 0.33285(2) 0.17908(2)
O1A O 0.89818(15) 0.07462(10) 0.17741(5)
O2A O 0.92126(15) 0.08919(10) 0.11945(5)
O3A O 1.13987(15) 0.07089(10) 0.18573(5)
O4A O 1.14589(15) 0.08289(10) 0.12679(5)
O5A O 0.80394(15) 0.15674(10) 0.23441(5)
O6A O 0.72882(14) 0.25085(9) 0.20816(5)
O7A O 1.01968(15) 0.19847(10) 0.21079(5)
O8A O 0.93068(14) 0.29102(9) 0.18715(5)
O9A O 0.61079(15) 0.37259(9) 0.18000(5)
O10A O 0.50312(15) 0.44676(10) 0.20958(5)
O11A O 0.79521(15) 0.39898(10) 0.21976(5)
O12A O 0.70393(15) 0.48200(9) 0.24908(5)
O13A O 0.72784(15) 0.28133(9) 0.13417(5)
O14A O 0.74777(18) 0.28709(10) 0.07555(5)
O15A O 0.83278(15) 0.39957(9) 0.14415(5)
O16A O 0.85290(18) 0.41427(10) 0.08601(5)
O17A O 0.61389(17) 0.41117(10) 0.03999(5)
O18A O 0.52689(15) 0.49505(9) 0.07007(5)
O19A O 0.78396(18) 0.50455(10) 0.02361(6)
O20A O 0.68436(16) 0.58459(9) 0.05249(5)
O21A O 0.64793(16) 0.28676(10) -0.01620(5)
O22A O 0.57656(16) 0.37790(9) -0.04604(5)
O23A O 0.48367(18) 0.20663(10) -0.05322(6)
O24A O 0.42954(16) 0.30215(9) -0.08265(5)
O25A O 0.9083(2) 0.30874(12) -0.04781(6)
H1A H 0.93927 0.34036 -0.06030
H2A H 0.85104 0.29320 -0.06041
O26A O 1.0531(2) 0.41082(12) 0.00816(7)
H3A H 1.09057 0.45216 0.00691
H4A H 1.09906 0.37527 0.01805
O27A O 0.7918(4) 0.4459(2) -0.04701(10)
H5A H 0.72017 0.43184 -0.04583
H6A H 0.79062 0.48492 -0.05877
Ba1B Ba 0.50000 0.57066(2) 0.25000
Ba1B* Ba 1.50000 0.57066(2) 0.25000
Ba2F Ba 1.33006(2) 0.13850(2) 0.51750(2)
Ba2G Ba 0.66994(2) 0.13850(2) -0.01750(2)
Fe1B Fe 1.45506(3) 0.59537(2) 0.41646(2)
Fe1C Fe 0.54494(3) 0.59537(2) 0.08354(2)
Fe1F Fe 1.54494(3) 0.40463(2) 0.58354(2)
Fe1G Fe 0.45506(3) 0.40463(2) -0.08354(2)
O10B O 0.99688(15) -0.05324(10) 0.29042(5)
O10C O 1.00312(15) -0.05324(10) 0.20958(5)
O12B O 0.79607(15) -0.01800(9) 0.25092(5)
O12C O 1.20393(15) -0.01800(9) 0.24908(5)
O18B O 0.97311(15) -0.00495(9) 0.42993(5)
O18C O 1.02689(15) -0.00495(9) 0.07007(5)
O20B O 0.81564(16) 0.08459(9) 0.44751(5)
O20C O 1.18436(16) 0.08459(9) 0.05249(5)
O21F O 1.14793(16) 0.21324(10) 0.48380(5)
O21G O 0.85207(16) 0.21324(10) 0.01620(5)
O22F O 1.07656(16) 0.12210(9) 0.45396(5)
O22G O 0.92344(16) 0.12210(9) 0.04604(5)
O23F O 0.98367(18) 0.29337(10) 0.44678(6)
O23G O 1.01633(18) 0.29337(10) 0.05322(6)
O24F O 0.92954(16) 0.19785(9) 0.41735(5)
O24G O 1.07046(16) 0.19785(9) 0.08265(5)
O28A O 1.0048(13) 0.4538(3) 0.2467(5)
H7A H 1.05592 0.42718 0.25739
H8A H 0.94744 0.42637 0.24064
#END
