
#######################################################################
#
#                 Cambridge Crystallographic Data Centre
#                                CCDC
#
#######################################################################
#
# If this CIF has been generated from an entry in the Cambridge
# Structural Database, then it will include bibliographic, chemical,
# crystal, experimental, refinement or atomic coordinate data resulting
# from the CCDC's data processing and validation procedures.
#
#######################################################################

data_CSD_CIF_QAKZAD
_audit_creation_date 2001-03-02
_audit_creation_method CSD-ConQuest-V1
_database_code_CSD QAKZAD
_database_code_depnum_ccdc_archive 'CCDC 138267'
_chemical_formula_sum 'C22 H30 N1 Na1 O5 S2 Zn1'
_chemical_formula_moiety
;
(C14 H10 Na1 O5 S2 Zn1 1-)n,n(C8 H20 N1 1+)
;
_journal_coden_Cambridge 9
_journal_volume 39
_journal_year 2000
_journal_page_first 4821
_journal_name_full 'Inorg.Chem. '
loop_
_publ_author_name
"N.Duran"
"W.Clegg"
"L.Cucurull-Sanchez"
"R.A.Coxall"
"H.R.Jimenez"
"J.-M.Moratal"
"F.Lloret"
"P.Gonzalez-Duarte"
_chemical_name_systematic
;
catena-(Tetraethylammonium 
(\m~3~-thiosalicylato-O,O,O',O',S)-(\m~2~-thiosalicylato-O,O,O',S)-aqua-sodium
-zinc(ii))
;
_cell_volume   2428.827
_exptl_crystal_colour 'colorless'
_exptl_crystal_density_diffrn 1.479
_exptl_special_details
;
Absolute configuration

;
_exptl_crystal_description 'Block'
_exptl_crystal_preparation 'ether/acetonitrile/acetone'
_diffrn_ambient_temperature 160
#These two values have been output from a single CSD field.
_refine_ls_R_factor_gt 0.0335
_refine_ls_wR_factor_gt 0.0335
_symmetry_cell_setting orthorhombic
_symmetry_space_group_name_H-M 'P 21 21 21'
_symmetry_Int_Tables_number 19
loop_
_symmetry_equiv_pos_site_id
_symmetry_equiv_pos_as_xyz
1 x,y,z
2 1/2-x,-y,1/2+z
3 -x,1/2+y,1/2-z
4 1/2+x,1/2-y,-z
_cell_length_a 7.8669(10)
_cell_length_b 14.358(2)
_cell_length_c 21.503(3)
_cell_angle_alpha 90
_cell_angle_beta 90
_cell_angle_gamma 90
_cell_formula_units_Z 4
loop_
_atom_type_symbol
_atom_type_radius_bond
C 0.68
H 0.23
N 0.68
Na 1.72
O 0.68
S 1.02
Zn 1.45
loop_
_atom_site_label
_atom_site_type_symbol
_atom_site_fract_x
_atom_site_fract_y
_atom_site_fract_z
Zn1 Zn 0.28508(5) 0.08577(3) 0.88812(2)
S1 S 0.27446(12) 0.09116(7) 0.78329(4)
C1 C 0.4119(4) 0.1829(3) 0.7613(2)
C2 C 0.4049(5) 0.2033(3) 0.6970(2)
H1 H 0.3259(5) 0.1703(3) 0.6719(2)
C3 C 0.5073(5) 0.2689(3) 0.6693(2)
H2 H 0.5012(5) 0.2790(3) 0.6257(2)
C4 C 0.6193(5) 0.3202(3) 0.7053(2)
H3 H 0.6909(5) 0.3658(3) 0.6869(2)
C5 C 0.6249(5) 0.3038(3) 0.7684(2)
H4 H 0.6995(5) 0.3403(3) 0.7932(2)
C6 C 0.5255(4) 0.2355(3) 0.7979(2)
C7 C 0.5556(4) 0.2285(3) 0.8674(2)
O1 O 0.4772(3) 0.1696(2) 0.90119(11)
O2 O 0.6592(3) 0.2832(2) 0.89156(13)
S2 S 0.29905(13) -0.04359(6) 0.94924(4)
C8 C 0.0767(4) -0.0656(2) 0.9558(2)
C9 C 0.0315(5) -0.1599(3) 0.9563(2)
H5 H 0.1182(5) -0.2055(3) 0.9518(2)
C10 C -0.1350(5) -0.1888(3) 0.9631(2)
H6 H -0.1620(5) -0.2533(3) 0.9632(2)
C11 C -0.2622(5) -0.1228(3) 0.9699(2)
H7 H -0.3773(5) -0.1417(3) 0.9744(2)
C12 C -0.2207(5) -0.0293(2) 0.96991(15)
H8 H -0.3086(5) 0.0154(2) 0.97487(15)
C13 C -0.0529(4) 0.0015(2) 0.9629(2)
C14 C -0.0273(4) 0.1054(2) 0.9652(2)
O3 O 0.0968(3) 0.1442(2) 0.93635(11)
O4 O -0.1295(3) 0.1522(2) 0.99699(11)
Na1 Na 0.6007(2) 0.22049(10) 0.99778(6)
N1 N 0.6907(4) 0.0177(2) 1.19388(14)
C15 C 0.7964(5) 0.0510(3) 1.1390(2)
H9 H 0.7237(5) 0.0507(3) 1.1014(2)
H10 H 0.8307(5) 0.1163(3) 1.1467(2)
C16 C 0.9552(5) -0.0057(3) 1.1253(2)
H11 H 1.0177(19) 0.0230(11) 1.0909(9)
H12 H 0.9227(5) -0.0693(6) 1.1140(12)
H13 H 1.0276(17) -0.0072(16) 1.1624(5)
C17 C 0.5312(5) 0.0773(3) 1.1981(2)
H14 H 0.4587(5) 0.0529(3) 1.2320(2)
H15 H 0.4668(5) 0.0711(3) 1.1588(2)
C18 C 0.5653(6) 0.1800(3) 1.2100(3)
H16 H 0.4574(7) 0.2142(5) 1.2103(18)
H17 H 0.6387(39) 0.2047(7) 1.1771(10)
H18 H 0.6218(43) 0.1874(4) 1.2503(8)
C19 C 0.7985(6) 0.0281(3) 1.2520(2)
H19 H 0.8406(6) 0.0930(3) 1.2541(2)
H20 H 0.8987(6) -0.0132(3) 1.2482(2)
C20 C 0.7067(7) 0.0055(4) 1.3126(2)
H21 H 0.7842(17) 0.0151(26) 1.3477(2)
H22 H 0.6691(42) -0.0596(8) 1.3120(8)
H23 H 0.6077(29) 0.0464(18) 1.3172(9)
C21 C 0.6387(5) -0.0833(3) 1.1875(2)
H24 H 0.5651(5) -0.0999(3) 1.2232(2)
H25 H 0.7420(5) -0.1225(3) 1.1900(2)
C22 C 0.5453(7) -0.1065(3) 1.1279(2)
H26 H 0.5127(38) -0.1724(7) 1.1283(7)
H27 H 0.6197(16) -0.0944(22) 1.0923(2)
H28 H 0.4431(24) -0.0678(17) 1.1247(8)
O5 O 0.4219(4) 0.1174(2) 1.05174(14)
H29 H 0.3469(49) 0.1454(31) 1.0644(20)
H30 H 0.3797(58) 0.0773(28) 1.0335(20)
Na1C Na 0.1007(2) 0.27951(10) 1.00222(6)
Na1* Na -0.3993(2) 0.22049(10) 0.99778(6)
O3C O 0.5968(3) 0.3558(2) 1.06365(11)
O4* O 0.8705(3) 0.1522(2) 0.99699(11)
O4C O 0.3705(3) 0.3478(2) 1.00301(11)
#END
