
#######################################################################
#
#                 Cambridge Crystallographic Data Centre
#                                CCDC
#
#######################################################################
#
# If this CIF has been generated from an entry in the Cambridge
# Structural Database, then it will include bibliographic, chemical,
# crystal, experimental, refinement or atomic coordinate data resulting
# from the CCDC's data processing and validation procedures.
#
#######################################################################

data_CSD_CIF_QALHIX
_audit_creation_date 2016-03-17
_audit_creation_method CSD-ConQuest-V1
_database_code_CSD QALHIX
_database_code_depnum_ccdc_archive 'CCDC 1430722'
_chemical_formula_sum 'C148 H256 Cd7 N34 O92'
_chemical_formula_moiety
;
(C108 H56 Cd7 N24 O52 10-)n,10(C4 H12 N1 1+),40(H2 O1)
;
_journal_coden_Cambridge 9
_journal_volume 55
_journal_year 2016
_journal_page_first 2641
_journal_name_full 'Inorg.Chem. '
loop_
_publ_author_name
"Xu-Sheng Wang"
"Jun Liang"
"Lan Li"
"Zu-Jin Lin"
"P.P.Bag"
"Shui-Ying Gao"
"Yuan-Biao Huang"
"Rong Cao"
_chemical_name_systematic
;
catena-[decakis(diemthylammonium) 
tetrakis(\m-5,5',5''-(1,3,5-triazine-2,4,6-triyltriazanediyl)tri(benzene-1,3-d
icarboxylato))-tetra-aqua-hepta-cadmium tetracontahydrate]
;
_chemical_name_common
;
FJI-C2
;
_cell_volume  29014.451
_exptl_crystal_colour 'colorless'
_exptl_crystal_density_diffrn 0.752
_exptl_crystal_description 'rodlike'
_diffrn_ambient_temperature 293
_refine_special_details
;
Disordered cation and solvent molecules were not modelled and the disordered 
density was taken into account using the SQUEEZE/PLATON procedure.
;
#These two values have been output from a single CSD field.
_refine_ls_R_factor_gt 0.0522
_refine_ls_wR_factor_gt 0.0522
_symmetry_cell_setting tetragonal
_symmetry_space_group_name_H-M 'P -4 21 c'
_symmetry_Int_Tables_number 114
loop_
_symmetry_equiv_pos_site_id
_symmetry_equiv_pos_as_xyz
1 x,y,z
2 y,-x,-z
3 1/2+x,1/2-y,1/2-z
4 -x,-y,z
5 1/2+y,1/2+x,1/2+z
6 1/2-y,1/2-x,1/2+z
7 -y,x,-z
8 1/2-x,1/2+y,1/2-z
_cell_length_a 32.9676(3)
_cell_length_b 32.9676(3)
_cell_length_c 26.6956(4)
_cell_angle_alpha 90
_cell_angle_beta 90
_cell_angle_gamma 90
_cell_formula_units_Z 4
loop_
_atom_type_symbol
_atom_type_radius_bond
C 0.68
H 0.23
Cd 1.44
N 0.68
O 0.68
loop_
_atom_site_label
_atom_site_type_symbol
_atom_site_fract_x
_atom_site_fract_y
_atom_site_fract_z
Cd1 Cd 0.50000 0.50000 0.661272(14)
Cd2 Cd 0.358145(11) 0.370581(12) 0.062763(13)
O1 O 0.32035(14) 0.37225(13) 0.70810(12)
O2 O 0.45824(10) 0.47416(10) 0.27291(13)
O3 O 0.17762(13) 0.19422(12) 0.54541(12)
O4 O 0.33309(11) 0.37127(13) 0.14498(13)
O5 O 0.43907(10) 0.46175(13) 0.67499(14)
O6 O 0.43874(10) 0.46219(12) 0.34995(12)
O7 O 0.45709(11) 0.47395(12) 0.59804(13)
O8 O 0.28846(14) 0.34340(13) 0.64638(13)
O9 O 0.38810(13) 0.40744(14) 0.13107(13)
O10 O 0.21012(13) 0.26122(14) 0.29409(13)
O11 O 0.16701(13) 0.21100(13) 0.31057(13)
O12 O 0.15307(16) 0.15884(14) 0.48347(15)
O13 O 0.42713(13) 0.36371(17) 0.03440(16)
O14 O 0.40061(11) 0.31608(15) 0.08173(15)
C1 C 0.43433(16) 0.45774(15) 0.30442(18)
C2 C 0.31499(18) 0.36828(19) 0.6618(2)
N1 N 0.31667(18) 0.3657(2) 0.33032(15)
H1 H 0.29920 0.35140 0.31420
O15 O 0.62085(14) 0.22783(16) 0.26260(18)
N2 N 0.2899(2) 0.3343(2) 0.39670(18)
C3 C 0.36243(15) 0.39288(17) 0.15959(19)
N3 N 0.3559(2) 0.4047(2) 0.48914(17)
H2 H 0.36920 0.42280 0.47280
C4 C 0.17476(18) 0.18779(16) 0.4994(2)
C5 C 0.34386(19) 0.3889(2) 0.3000(2)
N4 N 0.3369(2) 0.3876(2) 0.41032(16)
C6 C 0.1945(2) 0.21525(19) 0.4633(2)
C7 C 0.43438(17) 0.45761(15) 0.62919(17)
C8 C 0.39172(18) 0.4294(2) 0.55859(19)
H3 H 0.40900 0.44230 0.53610
C9 C 0.19396(19) 0.23700(19) 0.3244(2)
O16 O 0.66929(15) 0.19768(18) 0.30334(17)
C10 C 0.3736(2) 0.4138(2) 0.3180(2)
H4 H 0.37620 0.41820 0.35230
N5 N 0.3084(2) 0.3530(2) 0.47998(17)
C11 C 0.42964(19) 0.3304(2) 0.0559(2)
C12 C 0.40025(17) 0.43283(17) 0.2841(2)
C13 C 0.20244(19) 0.24006(19) 0.3788(2)
C14 C 0.3595(2) 0.4066(2) 0.54109(19)
C15 C 0.39610(16) 0.42648(16) 0.23326(18)
H5 H 0.41400 0.43870 0.21100
C16 C 0.39864(17) 0.43326(18) 0.61146(19)
C17 C 0.3338(2) 0.3863(2) 0.5746(2)
C18 C 0.6346(2) 0.1961(2) 0.2830(3)
C19 C 0.36491(17) 0.40156(17) 0.21533(18)
C20 C 0.34067(16) 0.39046(17) 0.62649(18)
C21 C 0.2208(2) 0.2450(2) 0.4800(2)
H6 H 0.22660 0.24680 0.51400
C22 C 0.3144(3) 0.3630(3) 0.3834(2)
C23 C 0.1851(2) 0.21249(17) 0.4137(2)
H7 H 0.16730 0.19250 0.40260
C24 C 0.33917(18) 0.38314(19) 0.24890(18)
H8 H 0.31840 0.36660 0.23720
C25 C 0.3337(3) 0.3776(3) 0.4599(2)
C26 C 0.2302(2) 0.2690(2) 0.39564(19)
H9 H 0.24300 0.28610 0.37280
C27 C 0.2388(2) 0.2725(3) 0.4467(2)
C28 C 0.6100(2) 0.1581(2) 0.2822(3)
C29 C 0.4679(2) 0.3063(3) 0.0537(3)
C30 C 0.4989(2) 0.3183(3) 0.0209(2)
H10 H 0.49600 0.34150 0.00160
O17 O 0.22060(14) 0.17357(18) 0.2350(2)
O18 O 0.24879(14) 0.22485(18) 0.1941(2)
C31 C 0.2884(3) 0.3295(3) 0.4466(2)
N6 N 0.2641(3) 0.3011(2) 0.46785(18)
H11 H 0.26450 0.30080 0.50010
C32 C 0.37348(17) 0.41471(18) 0.64345(17)
H12 H 0.37760 0.41780 0.67770
O19 O 0.5677(2) 0.3444(4) -0.0307(3)
N7 N 0.52006(19) 0.2188(3) 0.1150(3)
H13 H 0.54520 0.21180 0.11580
N8 N 0.39346(16) 0.1843(3) 0.1711(3)
H14 H 0.38580 0.20220 0.14970
N9 N 0.5069(2) 0.1267(3) 0.2439(4)
H15 H 0.49040 0.10990 0.25770
C33 C 0.5399(2) 0.2630(3) 0.0483(3)
H16 H 0.56450 0.24920 0.04670
C34 C 0.5466(2) 0.1254(3) 0.2609(4)
C35 C 0.4348(2) 0.1777(4) 0.1742(4)
N10 N 0.45588(19) 0.2017(3) 0.1414(3)
C36 C 0.4950(2) 0.1983(3) 0.1458(4)
C37 C 0.5706(2) 0.1596(2) 0.2596(3)
H17 H 0.56150 0.18320 0.24420
C38 C 0.47371(19) 0.2731(2) 0.0828(3)
H18 H 0.45280 0.26520 0.10400
C39 C 0.5103(2) 0.2497(3) 0.0826(3)
N11 N 0.51452(16) 0.1714(2) 0.1770(3)
C40 C 0.3665(2) 0.1337(3) 0.2292(4)
H19 H 0.39150 0.12080 0.23270
C41 C 0.2907(2) 0.1705(3) 0.2200(3)
N12 N 0.4496(2) 0.1519(2) 0.2062(3)
C42 C 0.3242(2) 0.1842(3) 0.1925(3)
H20 H 0.32140 0.20570 0.17030
C43 C 0.24995(18) 0.1917(3) 0.2137(3)
C44 C 0.2960(2) 0.1375(3) 0.2492(3)
H21 H 0.27360 0.12630 0.26530
C45 C 0.6234(2) 0.1229(3) 0.3030(3)
H22 H 0.64900 0.12220 0.31770
C46 C 0.3623(2) 0.1653(3) 0.1988(4)
C47 C 0.5340(2) 0.2954(4) 0.0173(2)
C48 C 0.6004(2) 0.0887(3) 0.3028(3)
O20 O 0.6491(3) 0.0472(3) 0.3384(6)
C49 C 0.6151(3) 0.0492(3) 0.3232(5)
O21 O 0.5961(3) 0.0201(2) 0.3252(6)
O22 O 0.3732(2) 0.0662(2) 0.2958(4)
C50 C 0.5605(2) 0.0895(3) 0.2814(4)
H23 H 0.54430 0.06630 0.28130
O23 O 0.3098(2) 0.0743(3) 0.3210(4)
C51 C 0.4904(2) 0.1519(3) 0.2070(4)
C52 C 0.3330(3) 0.1202(3) 0.2557(5)
C53 C 0.3394(3) 0.0856(3) 0.2950(5)
O24 O 0.5904(2) 0.2789(3) -0.0358(3)
C54 C 0.5668(3) 0.3069(5) -0.0193(4)
Cd3 Cd 0.65089(4) -0.01994(2) 0.35313(6)
O25 O 0.6160(6) -0.0489(5) 0.4287(4)
O26 O 0.7141(5) -0.0078(4) 0.3936(8)
Cd4 Cd 0.267138(13) 0.320368(11) 0.722943(13)
Cd2A Cd 0.370581(11) 0.641855(12) -0.062763(13)
O1A O 0.37225(14) 0.67965(13) -0.70810(12)
O2A O 0.47416(10) 0.54176(10) -0.27291(13)
O3A O 0.19422(13) 0.82238(12) -0.54541(12)
O4A O 0.37127(11) 0.66691(13) -0.14498(13)
O5A O 0.46175(10) 0.56093(13) -0.67499(14)
O6A O 0.46219(10) 0.56126(12) -0.34995(12)
O7A O 0.47395(11) 0.54291(12) -0.59804(13)
O8A O 0.34340(14) 0.71154(13) -0.64638(13)
O9A O 0.40744(13) 0.61190(14) -0.13107(13)
O10A O 0.26122(13) 0.78988(14) -0.29409(13)
O11A O 0.21100(13) 0.83299(13) -0.31057(13)
O12A O 0.15884(16) 0.84693(14) -0.48347(15)
O13A O 0.36371(13) 0.57287(17) -0.03440(16)
O14A O 0.31608(11) 0.59939(15) -0.08173(15)
C1A C 0.45774(16) 0.56567(15) -0.30442(18)
C2A C 0.36828(18) 0.68501(19) -0.6618(2)
N1A N 0.36570(18) 0.68333(20) -0.33032(15)
H1A H 0.35140 0.70080 -0.31420
O15A O 0.22783(14) 0.37915(16) -0.26260(18)
N2A N 0.3343(2) 0.7101(2) -0.39670(18)
C3A C 0.39288(15) 0.63757(17) -0.15959(19)
N3A N 0.4047(2) 0.6441(2) -0.48914(17)
H2A H 0.42280 0.63080 -0.47280
C4A C 0.18779(18) 0.82524(16) -0.4994(2)
C5A C 0.38890(19) 0.65614(20) -0.3000(2)
N4A N 0.3876(2) 0.6631(2) -0.41032(16)
C6A C 0.21525(20) 0.80550(19) -0.4633(2)
C7A C 0.45761(17) 0.56562(15) -0.62919(17)
C8A C 0.42940(18) 0.60828(20) -0.55859(19)
H3A H 0.44230 0.59100 -0.53610
C9A C 0.23700(19) 0.80604(19) -0.3244(2)
O16A O 0.19768(15) 0.33071(18) -0.30334(17)
C10A C 0.4138(2) 0.6264(2) -0.3180(2)
H4A H 0.41820 0.62380 -0.35230
N5A N 0.3530(2) 0.6916(2) -0.47998(17)
C11A C 0.33040(19) 0.57036(20) -0.0559(2)
C12A C 0.43283(17) 0.59975(17) -0.2841(2)
C13A C 0.24006(19) 0.79756(19) -0.3788(2)
C14A C 0.4066(2) 0.6405(2) -0.54109(19)
C15A C 0.42648(16) 0.60390(16) -0.23326(18)
H5A H 0.43870 0.58600 -0.21100
C16A C 0.43326(17) 0.60136(18) -0.61146(19)
C17A C 0.3863(2) 0.6662(2) -0.5746(2)
C18A C 0.1961(2) 0.3654(2) -0.2830(3)
C19A C 0.40156(17) 0.63509(17) -0.21533(18)
C20A C 0.39046(16) 0.65933(17) -0.62649(18)
C21A C 0.2450(2) 0.7792(2) -0.4800(2)
H6A H 0.24680 0.77340 -0.51400
C22A C 0.3630(3) 0.6856(3) -0.3834(2)
C23A C 0.21249(20) 0.81490(17) -0.4137(2)
H7A H 0.19250 0.83270 -0.40260
C24A C 0.38314(18) 0.66083(19) -0.24890(18)
H8A H 0.36660 0.68160 -0.23720
C25A C 0.3776(3) 0.6663(3) -0.4599(2)
C26A C 0.2690(2) 0.7698(2) -0.39564(19)
H9A H 0.28610 0.75700 -0.37280
C27A C 0.2725(2) 0.7612(3) -0.4467(2)
C28A C 0.1581(2) 0.3900(2) -0.2822(3)
C29A C 0.3063(2) 0.5321(3) -0.0537(3)
C30A C 0.3183(2) 0.5011(3) -0.0209(2)
H10A H 0.34150 0.50400 -0.00160
O17A O 0.17357(14) 0.77940(18) -0.2350(2)
O18A O 0.22485(14) 0.75121(18) -0.1941(2)
C31A C 0.3295(3) 0.7116(3) -0.4466(2)
N6A N 0.3011(3) 0.7359(2) -0.46785(18)
H11A H 0.30080 0.73550 -0.50010
C32A C 0.41471(17) 0.62652(18) -0.64345(17)
H12A H 0.41780 0.62240 -0.67770
O19A O 0.3444(2) 0.4323(4) 0.0307(3)
N7A N 0.21880(19) 0.47994(30) -0.1150(3)
H13A H 0.21180 0.45480 -0.11580
N8A N 0.18430(16) 0.60654(30) -0.1711(3)
H14A H 0.20220 0.61420 -0.14970
N9A N 0.1267(2) 0.4931(3) -0.2439(4)
H15A H 0.10990 0.50960 -0.25770
C33A C 0.2630(2) 0.4601(3) -0.0483(3)
H16A H 0.24920 0.43550 -0.04670
C34A C 0.1254(2) 0.4534(3) -0.2609(4)
C35A C 0.1777(2) 0.5652(4) -0.1742(4)
N10A N 0.20170(19) 0.54412(30) -0.1414(3)
C36A C 0.1983(2) 0.5050(3) -0.1458(4)
C37A C 0.1596(2) 0.4294(2) -0.2596(3)
H17A H 0.18320 0.43850 -0.24420
C38A C 0.27310(19) 0.52629(20) -0.0828(3)
H18A H 0.26520 0.54720 -0.10400
C39A C 0.2497(2) 0.4897(3) -0.0826(3)
N11A N 0.17140(16) 0.48548(20) -0.1770(3)
C40A C 0.1337(2) 0.6335(3) -0.2292(4)
H19A H 0.12080 0.60850 -0.23270
C41A C 0.1705(2) 0.7093(3) -0.2200(3)
N12A N 0.1519(2) 0.5504(2) -0.2062(3)
C42A C 0.1842(2) 0.6758(3) -0.1925(3)
H20A H 0.20570 0.67860 -0.17030
C43A C 0.19170(18) 0.75005(30) -0.2137(3)
C44A C 0.1375(2) 0.7040(3) -0.2492(3)
H21A H 0.12630 0.72640 -0.26530
C45A C 0.1229(2) 0.3766(3) -0.3030(3)
H22A H 0.12220 0.35100 -0.31770
C46A C 0.1653(2) 0.6377(3) -0.1988(4)
C47A C 0.2954(2) 0.4660(4) -0.0173(2)
C48A C 0.0887(2) 0.3996(3) -0.3028(3)
O20A O 0.0472(3) 0.3509(3) -0.3384(6)
C49A C 0.0492(3) 0.3849(3) -0.3232(5)
O21A O 0.0201(3) 0.4039(2) -0.3252(6)
O22A O 0.0662(2) 0.6268(2) -0.2958(4)
C50A C 0.0895(2) 0.4395(3) -0.2814(4)
H23A H 0.06630 0.45570 -0.28130
O23A O 0.0743(2) 0.6902(3) -0.3210(4)
C51A C 0.1519(2) 0.5096(3) -0.2070(4)
C52A C 0.1202(3) 0.6670(3) -0.2557(5)
C53A C 0.0856(3) 0.6606(3) -0.2950(5)
O24A O 0.2789(2) 0.4096(3) 0.0358(3)
C54A C 0.3069(3) 0.4332(5) 0.0193(4)
Cd3A Cd -0.01994(4) 0.34911(2) -0.35313(6)
O25A O -0.0489(6) 0.3840(5) -0.4287(4)
O26A O -0.0078(5) 0.2859(4) -0.3936(8)
Cd4A Cd 0.320368(13) 0.732862(11) -0.722943(13)
Cd1* Cd 0.50000 0.50000 -0.338728(14)
Cd1A Cd 0.50000 0.50000 -0.661272(14)
Cd1A* Cd 0.50000 0.50000 0.338728(14)
Cd2E Cd 0.129419(11) 0.141855(12) 0.562763(13)
Cd2F Cd 0.629419(11) 0.358145(12) -0.062763(13)
Cd2G Cd 0.141855(11) 0.870581(12) -0.562763(13)
O2A* O 0.47416(10) 0.54176(10) 0.72709(13)
O2F O 0.52584(10) 0.45824(10) 0.72709(13)
O3E O 0.30578(13) 0.32238(12) 0.04541(12)
O3G O 0.32238(13) 0.69422(12) -0.04541(12)
O5C O 0.56093(10) 0.53825(13) 0.67499(14)
O6A* O 0.46219(10) 0.56126(12) 0.65005(12)
O6F O 0.53781(10) 0.43874(12) 0.65005(12)
O7C O 0.54291(11) 0.52605(12) 0.59804(13)
O10E O 0.23878(13) 0.28988(14) 0.79409(13)
O10G O 0.28988(13) 0.76122(14) -0.79409(13)
O11E O 0.28900(13) 0.33299(13) 0.81057(13)
O11G O 0.33299(13) 0.71100(13) -0.81057(13)
O12E O 0.34116(16) 0.34693(14) -0.01653(15)
O12G O 0.34693(16) 0.65884(14) 0.01653(15)
O15A* O 0.22783(14) 0.37915(16) 0.73740(18)
O15C O 0.37915(14) 0.77217(16) -0.73740(18)
O16A* O 0.19768(15) 0.33071(18) 0.69666(17)
O16C O 0.33071(15) 0.80232(18) -0.69666(17)
O17E O 0.32643(14) 0.27940(18) 0.7350(2)
O17G O 0.27940(14) 0.67357(18) -0.7350(2)
O18E O 0.27515(14) 0.25121(18) 0.6941(2)
O18G O 0.25121(14) 0.72485(18) -0.6941(2)
O19C O 0.4323(2) 0.6556(4) -0.0307(3)
O22C O 0.6268(2) -0.0662(2) 0.2958(4)
O22F O -0.0662(2) 0.3732(2) -0.2958(4)
O23C O 0.6902(2) -0.0743(3) 0.3210(4)
O23F O -0.0743(2) 0.3098(3) -0.3210(4)
Cd3C Cd 0.34911(4) 0.01994(2) 0.35313(6)
Cd3F Cd 0.01994(4) 0.65089(2) -0.35313(6)
Cd4* Cd 0.267138(13) 0.320368(11) -0.277057(13)
Cd4E Cd 0.179632(13) 0.232862(11) 0.222943(13)
Cd4F Cd 0.679632(13) 0.267138(11) 0.277057(13)
Cd4G Cd 0.232862(13) 0.820368(11) -0.222943(13)
#END
