
#######################################################################
#
#                 Cambridge Crystallographic Data Centre
#                                CCDC
#
#######################################################################
#
# If this CIF has been generated from an entry in the Cambridge
# Structural Database, then it will include bibliographic, chemical,
# crystal, experimental, refinement or atomic coordinate data resulting
# from the CCDC's data processing and validation procedures.
#
#######################################################################

data_CSD_CIF_QALMIZ
_audit_creation_date 2001-03-02
_audit_creation_method CSD-ConQuest-V1
_database_code_CSD QALMIZ
_database_code_depnum_ccdc_archive 'CCDC 138365'
_chemical_formula_sum 'C136 H245 Cl2 Na4 O149 Rh7 S16'
_chemical_formula_moiety
;
(C56 H40 Cl1 Na1 O37 S8 7-)n,n(C56 H41 Cl1 Na1 O37 S8 6-),2n(C12 H28 Na1 O8 
1+),n(H24 O14 Rh3 5+),n(H30 O18 Rh4 6+),27n(H2 O1)
;
_journal_coden_Cambridge 1290
_journal_year 2000
_journal_page_first 2221
_journal_name_full 'Eur.J.Inorg.Chem. '
loop_
_publ_author_name
"A.Drljaca"
"M.J.Hardie"
"T.J.Ness"
"C.L.Raston"
_chemical_name_systematic
;
catena-(tetrakis(\m~2~-Hydroxo)-deca-aqua-tri-rhodium(ii) 
hexakis(\m~2~-hydroxo)-dodeca-aqua-tetra-rhodium(ii) 
bis(diaqua-(18-crown-6-O,O',O'',O''',O'''')-sodium) 
bis((\m~2~-5,11,17,23-tetrakis(sulfonato)-25,26,27,28-tetrahydroxycalix(4)aren
e-O,O')-(\m~2~-perchlorato-O,O')-(5,11,17,23-tetrakis(sulfonato)-25,26,27,28-t
etrahydroxycalix(4)arene-O)-aqua-sodium) hydrate)
;
_cell_volume   5667.908
_exptl_crystal_colour 'yellow'
_exptl_crystal_density_diffrn 1.66
_exptl_crystal_description 'prismatic'
_diffrn_ambient_temperature 123
_refine_special_details
;
The trinuclear rhodium cation is disordered about a crystallographic 
inversion centre. The sulfonato group through which the bridging 
calix(4)arene binds to the sodium is disordered. A number of water molecules 
are disordered.
;
#These two values have been output from a single CSD field.
_refine_ls_R_factor_gt 0.1151
_refine_ls_wR_factor_gt 0.1151
_symmetry_cell_setting triclinic
_symmetry_space_group_name_H-M 'P -1'
_symmetry_Int_Tables_number 2
loop_
_symmetry_equiv_pos_site_id
_symmetry_equiv_pos_as_xyz
1 x,y,z
2 -x,-y,-z
_cell_length_a 13.8992(2)
_cell_length_b 17.0191(5)
_cell_length_c 26.6441(7)
_cell_angle_alpha 75.268(5)
_cell_angle_beta 88.328(5)
_cell_angle_gamma 68.768(5)
_cell_formula_units_Z 1
loop_
_atom_type_symbol
_atom_type_radius_bond
C 0.68
H 0.23
Cl 0.99
Na 1.67
O 0.68
Rh 1.26
S 1.01
loop_
_atom_site_label
_atom_site_type_symbol
_atom_site_fract_x
_atom_site_fract_y
_atom_site_fract_z
Rh1 Rh 1.5327(2) -0.40293(17) 0.45799(14)
Rh2 Rh 1.6896(2) -0.54105(16) 0.50395(10)
Rh3 Rh 1.43258(17) -0.40726(13) 0.52060(9)
Rh4 Rh 1.03548(4) 0.01371(4) 0.94577(2)
Rh5 Rh 1.21658(4) 0.00211(4) 1.04448(2)
Cl1 Cl 0.11996(19) 0.45140(19) 0.07308(9)
Na1 Na 0.5870(3) 0.2071(2) 0.76303(15)
Na2 Na -0.0555(2) 0.3658(2) 0.03557(13)
O1 O 1.5490(19) -0.3385(17) 0.3903(7)
O2 O 1.505(2) -0.3068(16) 0.468(4)
O3 O 1.5809(19) -0.5045(10) 0.4300(6)
O4 O 1.5550(14) -0.5080(12) 0.5167(8)
O5 O 1.3841(15) -0.3766(12) 0.4639(8)
O6 O 1.7528(14) -0.6383(8) 0.4817(5)
O7 O 1.7637(16) -0.4566(12) 0.4679(7)
O8 O 1.7617(11) -0.5721(10) 0.5694(6)
O9 O 1.684(2) -0.4220(16) 0.4615(19)
O10 O 1.5925(13) -0.4416(10) 0.5216(7)
O11 O 1.4242(12) -0.3056(10) 0.4554(7)
O12 O 1.392(2) -0.3067(18) 0.5637(7)
O13 O 1.1103(5) -0.0638(4) 0.8982(2)
O14 O 1.0366(4) 0.1167(4) 0.8871(2)
O15 O 0.9722(4) 0.0840(3) 0.9964(2)
O16 O 1.1768(3) -0.0064(3) 0.9748(2)
O17 O 1.1159(4) 0.1286(3) 1.0296(2)
O18 O 1.2692(4) 0.0102(4) 1.1134(2)
O19 O 1.3190(4) -0.1227(4) 1.0597(2)
O20 O 1.3271(4) 0.0423(3) 1.0071(2)
O21 O 0.8914(4) 0.0365(4) 0.9177(2)
O22 O 0.5532(4) 0.1098(4) 0.8363(2)
O23 O 0.6236(7) 0.2867(6) 0.6868(3)
O24 O 0.7450(8) 0.0681(10) 0.7476(8)
O25 O 0.8155(8) 0.1455(7) 0.8126(5)
O26 O 0.6402(7) 0.2817(8) 0.8233(6)
O27 O 0.4472(6) 0.3387(5) 0.7859(3)
O28 O 0.3973(6) 0.2682(7) 0.7102(3)
O29 O 0.5478(7) 0.0953(6) 0.7253(4)
O30 O -0.2350(4) 0.8062(4) 0.0633(2)
O31 O -0.2614(5) 0.7801(4) 0.1556(2)
O32 O -0.4071(4) 0.8332(3) 0.0925(2)
O33 O -0.2461(6) 0.2385(7) 0.0445(3)
O34 O -0.1383(5) 0.3077(5) -0.0096(4)
O35 O -0.2072(4) 0.2178(3) -0.0382(2)
O36 O -0.5875(11) 0.5525(12) 0.3340(8)
O37 O -0.6964(13) 0.4583(7) 0.3476(5)
O38 O -0.7348(9) 0.5882(7) 0.2809(4)
O39 O -0.0557(9) 0.3540(7) 0.4080(4)
O40 O -0.0603(13) 0.4871(8) 0.3563(4)
O41 O -0.2082(9) 0.4735(15) 0.3949(7)
O42 O -0.2057(4) 0.4253(3) 0.0882(2)
O43 O -0.4005(4) 0.4201(4) 0.0955(3)
O44 O -0.3953(5) 0.2955(4) 0.1829(3)
O45 O -0.2293(5) 0.3432(4) 0.1913(2)
O46 O 0.1087(9) 0.1449(9) 0.1260(5)
O47? O 1.0517(11) 0.2205(10) 0.0994(5)
O48 O -0.0493(8) 0.2740(6) 0.1135(4)
O49? O 0.8909(9) 0.2250(9) 0.1436(5)
O50 O -0.0492(10) 0.1344(8) 0.1662(5)
O51? O 1.0213(11) 0.0953(8) 0.1542(5)
O52 O 0.5198(12) 0.1756(11) 0.1157(6)
O53 O 0.6524(6) 0.0639(8) 0.1808(5)
O54 O 0.5033(5) 0.0360(5) 0.1647(3)
O55 O 0.6569(11) -0.2673(8) 0.4734(9)
O56 O 0.7700(7) -0.2038(7) 0.4843(4)
O57 O 0.7427(15) -0.2170(11) 0.4044(5)
O58 O 0.1131(8) -0.2100(6) 0.4427(4)
O59 O 0.0857(7) -0.1552(5) 0.3525(4)
O60 O 0.2529(6) -0.2319(5) 0.3904(3)
O61 O 0.1464(4) 0.2633(4) 0.3281(2)
O62 O 0.3436(5) 0.2667(4) 0.3307(2)
O63 O 0.3642(4) 0.1380(4) 0.4169(3)
O64 O 0.1627(4) 0.1523(4) 0.4218(2)
O65 O 0.0219(5) 0.4438(5) 0.0715(3)
O66 O 0.1440(5) 0.4917(5) 0.0244(3)
O67 O 0.2025(6) 0.3623(5) 0.0885(4)
O68 O 0.1322(6) 0.4858(6) 0.1139(3)
O69 O 0.0874(7) 0.3376(6) -0.0170(4)
S1 S -0.29854(16) 0.78119(13) 0.10505(9)
S2 S -0.22415(16) 0.27822(16) -0.00722(10)
S3 S -0.6706(3) 0.5116(3) 0.31045(19)
S4 S -0.1134(3) 0.4315(3) 0.37262(14)
S5 S 0.00549(16) 0.18897(14) 0.14618(9)
S6 S 0.5527(2) 0.0895(3) 0.17281(18)
S7 S 0.6998(3) -0.2040(2) 0.44893(17)
S8 S 0.1522(2) -0.17643(17) 0.39606(11)
C1 C 0.8268(9) 0.0565(9) 0.7567(6)
H1 H 0.85740 0.05530 0.72360
H2 H 0.85420 -0.00350 0.77770
C2 C 0.8744(11) 0.0964(11) 0.7782(6)
H3 H 0.89460 0.13560 0.75060
H4 H 0.93720 0.05260 0.79740
C3 C 0.8101(10) 0.2296(8) 0.8078(6)
H5 H 0.80480 0.25800 0.77090
H6 H 0.87560 0.22580 0.82200
C4 C 0.7336(9) 0.2830(8) 0.8299(5)
H7 H 0.75190 0.26720 0.86690
H8 H 0.73050 0.34240 0.81580
C5 C 0.5621(9) 0.3253(8) 0.8486(6)
H9 H 0.58670 0.35590 0.86820
H10 H 0.53880 0.28400 0.87300
C6 C 0.4803(9) 0.3845(7) 0.8142(5)
H11 H 0.50200 0.42790 0.79080
H12 H 0.42410 0.41430 0.83320
C7 C 0.3718(9) 0.3926(9) 0.7445(5)
H13 H 0.40410 0.41870 0.71570
H14 H 0.31980 0.43920 0.75600
C8 C 0.3239(8) 0.3395(9) 0.7280(5)
H15 H 0.28970 0.31570 0.75690
H16 H 0.27140 0.37640 0.70010
C9 C 0.3726(10) 0.1975(10) 0.7125(6)
H17 H 0.30780 0.21730 0.69200
H18 H 0.35970 0.17510 0.74830
C10 C 0.4473(12) 0.1231(12) 0.6952(6)
H19 H 0.42270 0.07520 0.70160
H20 H 0.45540 0.14100 0.65820
C11 C 0.6304(10) 0.0402(9) 0.7053(7)
H21 H 0.60940 -0.00170 0.69430
H22 H 0.65190 0.07400 0.67510
C12 C 0.7088(10) -0.0015(10) 0.7411(8)
H23 H 0.76340 -0.04630 0.72940
H24 H 0.68620 -0.02840 0.77350
C13 C -0.2337(6) 0.5057(5) 0.0969(3)
C14 C -0.1804(6) 0.5188(5) 0.1353(3)
C15 C -0.2057(6) 0.6040(5) 0.1396(3)
H25 H -0.17150 0.61470 0.16510
C16 C -0.2810(5) 0.6717(5) 0.1061(3)
C17 C -0.3355(6) 0.6590(5) 0.0682(3)
H26 H -0.38630 0.70620 0.04600
C18 C -0.3135(6) 0.5763(6) 0.0638(3)
C19 C -0.3740(6) 0.5610(6) 0.0221(3)
H27 H -0.33420 0.50580 0.01460
H28 H -0.38470 0.60710 -0.00980
C20 C -0.4867(6) 0.4901(5) 0.0776(4)
C21 C -0.4778(6) 0.5599(5) 0.0406(3)
C22 C -0.5675(6) 0.6306(6) 0.0187(4)
H29 H -0.56310 0.67770 -0.00680
C23 C -0.3364(6) 0.3691(5) -0.0349(4)
C24 C -0.3289(7) 0.4374(6) -0.0715(4)
H30 H -0.26340 0.43590 -0.08090
C25 C -0.5831(7) 0.4877(6) 0.0967(4)
C26 C -0.5935(8) 0.4144(6) 0.1368(5)
H31 H -0.55510 0.36060 0.12740
H32 H -0.66580 0.42100 0.13680
C27 C -0.4586(7) 0.3485(6) 0.2131(4)
C28 C -0.5572(7) 0.4064(6) 0.1898(5)
C29 C -0.6205(8) 0.4560(7) 0.2215(6)
H33 H -0.68730 0.49410 0.20900
C30 C -0.5842(9) 0.4487(7) 0.2720(5)
C31 C -0.4921(8) 0.3960(7) 0.2900(5)
H34 H -0.47040 0.39220 0.32350
C32 C -0.4228(7) 0.3438(6) 0.2614(4)
C33 C -0.3119(7) 0.2906(6) 0.2835(4)
H35 H -0.28230 0.24530 0.26560
H36 H -0.31330 0.26200 0.31990
C34 C -0.2024(6) 0.3675(5) 0.2329(3)
C35 C -0.2417(7) 0.3412(6) 0.2799(4)
C36 C -0.2148(7) 0.3624(6) 0.3207(4)
H37 H -0.23990 0.34520 0.35270
C37 C -0.1377(6) 0.4142(5) 0.2262(3)
C38 C -0.1501(8) 0.4097(6) 0.3168(4)
C39 C -0.1114(7) 0.4351(6) 0.2695(4)
H38 H -0.06770 0.46620 0.26680
C40 C -0.0989(6) 0.4445(5) 0.1732(3)
H39 H -0.07200 0.39530 0.15800
H40 H -0.04210 0.46260 0.17840
C41 C 0.1168(5) 0.2425(5) 0.2869(3)
C42 C 0.1522(6) 0.2680(5) 0.2391(3)
C43 C 0.1193(6) 0.2482(5) 0.1963(3)
H41 H 0.14330 0.26430 0.16380
C44 C 0.0521(6) 0.2052(5) 0.2023(3)
C45 C 0.0158(6) 0.1799(5) 0.2494(3)
H42 H -0.03050 0.15110 0.25250
C46 C 0.0488(6) 0.1976(5) 0.2933(3)
C47 C 0.0116(6) 0.1670(6) 0.3471(3)
H43 H -0.05460 0.16170 0.34270
H44 H 0.00180 0.21050 0.36620
C48 C 0.1637(7) 0.0762(6) 0.4137(3)
C49 C 0.0887(6) 0.0794(5) 0.3783(3)
C50 C 0.0885(6) 0.0015(6) 0.3733(3)
H45 H 0.03810 0.00230 0.35080
C51 C 0.1593(7) -0.0782(6) 0.3999(3)
C52 C 0.2327(7) -0.0796(6) 0.4334(4)
H46 H 0.27990 -0.13320 0.45210
C53 C 0.2393(7) -0.0039(6) 0.4405(3)
C54 C 0.3237(8) -0.0071(7) 0.4781(4)
H47 H 0.29960 0.04570 0.49010
H48 H 0.33540 -0.05640 0.50830
C55 C 0.4378(7) 0.0579(6) 0.4214(4)
C56 C 0.4246(7) -0.0153(7) 0.4532(4)
C57 C 0.5037(8) -0.0977(7) 0.4609(4)
H49 H 0.49510 -0.14760 0.48120
C58 C 0.5922(9) -0.1023(7) 0.4380(5)
C59 C 0.6103(8) -0.0274(7) 0.4041(4)
H50 H 0.67240 -0.03280 0.38860
C60 C 0.5300(7) 0.0515(7) 0.3967(4)
C61 C 0.5428(7) 0.1334(6) 0.3619(4)
H51 H 0.51350 0.18140 0.37790
H52 H 0.61590 0.12280 0.35900
C62 C 0.3931(6) 0.2221(6) 0.2953(3)
C63 C 0.4904(6) 0.1589(6) 0.3079(4)
C64 C 0.5380(7) 0.1194(7) 0.2700(4)
H53 H 0.60540 0.07910 0.27720
C65 C 0.4914(7) 0.1366(8) 0.2230(5)
C66 C 0.3905(7) 0.2035(7) 0.2101(4)
H54 H 0.35830 0.21840 0.17710
C67 C 0.3420(6) 0.2452(6) 0.2463(3)
C68 C 0.2332(6) 0.3112(5) 0.2319(4)
H55 H 0.22830 0.34410 0.19590
H56 H 0.21840 0.35190 0.25340
O70 O 1.0053(7) 0.2627(5) 0.9120(3)
O71 O 0.0959(18) 0.6702(12) 0.3432(9)
O72 O 0.0643(11) 0.6171(9) 0.2683(6)
O73 O 0.0578(10) 0.5972(8) 0.1826(6)
O74 O 0.2957(7) 0.1718(7) 0.0859(5)
O75 O 0.4913(5) 0.0169(4) 0.0642(3)
O76 O 1.8493(19) -0.3411(12) 0.5721(9)
O77 O 1.9113(12) -0.0974(12) 0.4613(8)
O78 O 1.8108(10) 0.0833(16) 0.4072(9)
O79 O 0.5950(11) 0.6918(8) 0.5789(5)
O80 O 0.2469(19) 0.8008(13) 0.5656(7)
O81 O 0.7198(19) 0.1337(15) 1.0794(8)
O82 O -0.081(2) 0.7770(18) 0.2580(11)
O83 O 0.1962(9) 0.0993(8) 0.8270(4)
O84 O 1.4650(12) -0.150(1) 0.9977(6)
O85 O 0.1632(13) 0.9552(10) 0.6879(11)
O86 O 0.2319(7) 0.8483(7) 0.7944(4)
O87 O 0.2371(9) 0.0573(9) 0.8725(6)
O88? O 1.2534(10) -0.4816(9) 0.4684(5)
O89? O 1.411(2) -0.1439(16) 0.977(1)
O90? O 1.9689(16) 0.0160(17) 0.4942(11)
O91 O 2.062(2) -0.1760(18) 0.5303(11)
O4A O 1.4450(14) -0.4920(12) 0.4833(8)
Rh3A Rh 1.56742(17) -0.59274(13) 0.47940(9)
O5A O 1.6159(15) -0.6234(12) 0.5361(8)
O3A O 1.4191(19) -0.4955(10) 0.5700(6)
Rh2A Rh 1.3104(2) -0.45895(16) 0.49605(10)
O15A O 1.0278(4) -0.0840(3) 1.0036(2)
O21A O 1.1086(4) -0.0365(4) 1.0823(2)
O66A O -0.1440(5) 0.5083(5) -0.0244(3)
Rh1A Rh 1.4673(2) -0.59707(17) 0.54201(14)
Rh4A Rh 0.96452(4) -0.01371(4) 1.05423(2)
Rh5A Rh 0.78342(4) -0.00211(4) 0.95552(2)
Na2A Na 0.0555(2) 0.6342(2) -0.03557(13)
C23A C -0.6636(6) 0.6309(5) 0.0349(4)
C22A C -0.4325(6) 0.3694(6) -0.0187(4)
C25A C -0.4169(7) 0.5123(6) -0.0967(4)
C24A C -0.6711(7) 0.5626(6) 0.0715(4)
#END
