
#######################################################################
#
#                 Cambridge Crystallographic Data Centre
#                                CCDC
#
#######################################################################
#
# If this CIF has been generated from an entry in the Cambridge
# Structural Database, then it will include bibliographic, chemical,
# crystal, experimental, refinement or atomic coordinate data resulting
# from the CCDC's data processing and validation procedures.
#
#######################################################################

data_CSD_CIF_QALWUZ
_audit_creation_date 2020-12-15
_audit_creation_method CSD-ConQuest-V1
_database_code_CSD QALWUZ
_database_code_depnum_ccdc_archive 'CCDC 1907875'
_chemical_formula_sum 'C26 H28 N6 O16 Zn3'
_chemical_formula_moiety
;
(C26 H18 N6 O12 Zn3 2-)n,2(H2 O1),2(H3 O1 1+)
;
_journal_coden_Cambridge 1747
_journal_year 2021
_journal_name_full 'Inorg.Chem.Front. '
loop_
_publ_author_name
"Jiaxing Zhu"
"Yi Yu"
"Hongchuan Fan"
"Huaqiang Cai"
"Zhenxia Chen"
"Linhong Weng"
"Yun Ling"
"Yaming Zhou"
_chemical_name_systematic
;
catena-[bis(oxonium) 
bis(\m-benzene-1,3,5-tricarboxylato)-bis(\m-3,5-dimethyl-1,2,4-triazolato)-tri
-zinc(ii) dihydrate unknown solvate]
;
_cell_volume   5594.010
_exptl_crystal_colour 'colorless'
_exptl_crystal_density_diffrn 1.041
_exptl_crystal_description 'cubic'
_diffrn_ambient_temperature 173
_refine_special_details
;
Disordered solvent molecules were not modelled and the disordered density was 
taken into account using the SQUEEZE/PLATON procedure.
;
#These two values have been output from a single CSD field.
_refine_ls_R_factor_gt 0.0385
_refine_ls_wR_factor_gt 0.0385
_symmetry_cell_setting monoclinic
_symmetry_space_group_name_H-M 'C 2/c'
_symmetry_Int_Tables_number 15
loop_
_symmetry_equiv_pos_site_id
_symmetry_equiv_pos_as_xyz
1 x,y,z
2 -x,y,1/2-z
3 1/2+x,1/2+y,z
4 1/2-x,1/2+y,1/2-z
5 -x,-y,-z
6 x,-y,-1/2+z
7 -1/2-x,-1/2-y,-z
8 -1/2+x,-1/2-y,-1/2+z
_cell_length_a 19.322(9)
_cell_length_b 18.552(9)
_cell_length_c 15.606(8)
_cell_angle_alpha 90
_cell_angle_beta 90.411(6)
_cell_angle_gamma 90
_cell_formula_units_Z 4
loop_
_atom_type_symbol
_atom_type_radius_bond
C 0.68
H 0.23
N 0.68
O 0.68
Zn 1.22
loop_
_atom_site_label
_atom_site_type_symbol
_atom_site_fract_x
_atom_site_fract_y
_atom_site_fract_z
Zn1 Zn 0.50000 0.77399(2) 0.25000
Zn2 Zn 0.40681(2) 1.01845(2) 0.47939(2)
O1 O 0.36086(10) 1.06533(12) 0.38454(14)
O2 O 0.26744(13) 1.10667(18) 0.44968(16)
O3 O 0.35777(11) 1.01535(12) 0.07980(15)
O4 O 0.29124(16) 1.07839(18) -0.00608(17)
O5 O 0.07884(15) 1.1897(2) 0.12857(19)
O6 O 0.08424(10) 1.21755(11) 0.26454(14)
N1 N 0.46284(11) 0.93939(12) 0.42468(15)
N2 N 0.52620(11) 0.91650(12) 0.45711(15)
N3 N 0.49593(11) 0.84440(12) 0.34954(15)
C1 C 0.30001(16) 1.09166(18) 0.3849(2)
C2 C 0.26801(15) 1.10374(17) 0.2974(2)
C3 C 0.30065(15) 1.07763(17) 0.2246(2)
H1 H 0.34340 1.05273 0.23036
C4 C 0.27189(15) 1.08730(17) 0.1440(2)
C5 C 0.30901(16) 1.05934(19) 0.0654(2)
C6 C 0.20886(15) 1.12330(18) 0.1360(2)
H2 H 0.18853 1.12989 0.08096
C7 C 0.17581(15) 1.14946(17) 0.2079(2)
C8 C 0.10840(16) 1.18796(19) 0.1981(2)
C9 C 0.20567(14) 1.13958(17) 0.2888(2)
H3 H 0.18300 1.15761 0.33816
C10 C 0.44703(13) 0.89513(15) 0.36148(19)
C11 C 0.54440(14) 0.86055(16) 0.4110(2)
C12 C 0.38195(16) 0.89924(19) 0.3093(2)
H4 H 0.34754 0.92809 0.33982
H5 H 0.36379 0.85053 0.29986
H6 H 0.39185 0.92178 0.25390
C13 C 0.60894(19) 0.8190(2) 0.4257(3)
H7 H 0.63698 0.84302 0.46979
H8 H 0.63517 0.81647 0.37224
H9 H 0.59734 0.77020 0.44468
O7 O 1.00000 0.6250(13) 0.25000
O8 O 0.7068(9) 0.7120(9) 0.5794(19)
Zn2A Zn 0.59319(2) 1.01845(2) 0.02061(2)
O1A O 0.63914(10) 1.06533(12) 0.11546(14)
O2A O 0.73256(13) 1.10667(18) 0.05032(16)
O3A O 0.64223(11) 1.01535(12) 0.42020(15)
O4A O 0.70876(16) 1.07839(18) 0.50608(17)
O5A O 0.92116(15) 1.1897(2) 0.37143(19)
O6A O 0.91576(10) 1.21755(11) 0.23546(14)
N1A N 0.53716(11) 0.93939(12) 0.07532(15)
N2A N 0.47380(11) 0.91650(12) 0.04289(15)
N3A N 0.50407(11) 0.84440(12) 0.15046(15)
C1A C 0.69999(16) 1.09166(18) 0.1151(2)
C2A C 0.73199(15) 1.10374(17) 0.2026(2)
C3A C 0.69935(15) 1.07763(17) 0.2754(2)
H1A H 0.65660 1.05273 0.26964
C4A C 0.72811(15) 1.08730(17) 0.3560(2)
C5A C 0.69099(16) 1.05934(19) 0.4346(2)
C6A C 0.79114(15) 1.12330(18) 0.3640(2)
H2A H 0.81147 1.12989 0.41904
C7A C 0.82419(15) 1.14946(17) 0.2921(2)
C8A C 0.89160(16) 1.18796(19) 0.3019(2)
C9A C 0.79433(14) 1.13958(17) 0.2112(2)
H3A H 0.81700 1.15761 0.16184
C10A C 0.55297(13) 0.89513(15) 0.13852(19)
C11A C 0.45560(14) 0.86055(16) 0.0890(2)
C12A C 0.61805(16) 0.89924(19) 0.1907(2)
H4A H 0.65246 0.92809 0.16018
H5A H 0.63621 0.85053 0.20014
H6A H 0.60815 0.92178 0.24610
C13A C 0.39106(19) 0.8190(2) 0.0743(3)
H7A H 0.36302 0.84302 0.03021
H8A H 0.36483 0.81647 0.12776
H9A H 0.40266 0.77020 0.05532
Zn1B Zn 0.00000 1.27399(2) 0.25000
Zn1B* Zn 1.00000 1.27399(2) 0.25000
Zn2D Zn 0.59319(2) 0.98155(2) 0.52061(2)
Zn2E Zn 0.40681(2) 0.98155(2) -0.02061(2)
O3D O 0.64223(11) 0.98465(12) -0.07980(15)
O3E O 0.35777(11) 0.98465(12) 0.57980(15)
O6B O 0.58424(10) 0.71755(11) 0.26454(14)
O6C O 0.41576(10) 0.71755(11) 0.23546(14)
N2D N 0.47380(11) 1.08350(12) 0.54289(15)
N2E N 0.52620(11) 1.08350(12) -0.04289(15)
#END
