
#######################################################################
#
#                 Cambridge Crystallographic Data Centre
#                                CCDC
#
#######################################################################
#
# If this CIF has been generated from an entry in the Cambridge
# Structural Database, then it will include bibliographic, chemical,
# crystal, experimental, refinement or atomic coordinate data resulting
# from the CCDC's data processing and validation procedures.
#
#######################################################################

data_CSD_CIF_QALXEK
_audit_creation_date 2020-12-15
_audit_creation_method CSD-ConQuest-V1
_database_code_CSD QALXEK
_database_code_depnum_ccdc_archive 'CCDC 1907877'
_chemical_formula_sum 'C22 H30 N18 O15 Zn3'
_chemical_formula_moiety
;
(C22 H14 N18 O8 Zn3 2-)n,5(H2 O1),2(H3 O1 1+)
;
_journal_coden_Cambridge 1747
_journal_year 2021
_journal_name_full 'Inorg.Chem.Front. '
loop_
_publ_author_name
"Jiaxing Zhu"
"Yi Yu"
"Hongchuan Fan"
"Huaqiang Cai"
"Zhenxia Chen"
"Linhong Weng"
"Yun Ling"
"Yaming Zhou"
_chemical_name_systematic
;
catena-[bis(oxonium) 
bis(\m-5-(3,5-dicarboxylatophenyl)-2H-tetrazol-2-yl)-bis(\m-3,5-diamino-1,2,4-
triazolato)-tri-zinc(ii) pentahydrate unknown solvate]
;
_cell_volume   6075.062
_exptl_crystal_colour 'colorless'
_exptl_crystal_density_diffrn 1.075
_exptl_crystal_description 'cubic'
_diffrn_ambient_temperature 293
_refine_special_details
;
Disordered solvent molecules were not modelled and the disordered density was 
taken into account using the SQUEEZE/PLATON procedure.
;
#These two values have been output from a single CSD field.
_refine_ls_R_factor_gt 0.0936
_refine_ls_wR_factor_gt 0.0936
_symmetry_cell_setting monoclinic
_symmetry_space_group_name_H-M 'C 2/c'
_symmetry_Int_Tables_number 15
loop_
_symmetry_equiv_pos_site_id
_symmetry_equiv_pos_as_xyz
1 x,y,z
2 -x,y,1/2-z
3 1/2+x,1/2+y,z
4 1/2-x,1/2+y,1/2-z
5 -x,-y,-z
6 x,-y,-1/2+z
7 -1/2-x,-1/2-y,-z
8 -1/2+x,-1/2-y,-1/2+z
_cell_length_a 19.55(3)
_cell_length_b 18.20(3)
_cell_length_c 17.24(2)
_cell_angle_alpha 90
_cell_angle_beta 97.96(2)
_cell_angle_gamma 90
_cell_formula_units_Z 4
loop_
_atom_type_symbol
_atom_type_radius_bond
C 0.68
H 0.23
N 0.68
O 0.68
Zn 1.22
loop_
_atom_site_label
_atom_site_type_symbol
_atom_site_fract_x
_atom_site_fract_y
_atom_site_fract_z
Zn1 Zn 0.50000 0.29271(7) 0.75000
Zn2 Zn 0.41101(4) 0.52284(5) 0.96436(5)
N1 N 0.4679(3) 0.4469(4) 0.9173(3)
N2 N 0.5334(3) 0.4247(4) 0.9505(3)
N3 N 0.5021(3) 0.3613(4) 0.8417(3)
N4 N 0.6104(3) 0.3370(5) 0.9122(4)
H1 H 0.64127 0.34695 0.95131
H2 H 0.61813 0.30378 0.87902
N5 N 0.3928(3) 0.4168(5) 0.8051(5)
H3 H 0.36139 0.44671 0.81576
H4 H 0.38611 0.39054 0.76326
N6 N 0.3323(3) 0.5235(5) 0.5078(4)
N7 N 0.2742(4) 0.5420(8) 0.4651(5)
N8 N 0.2344(4) 0.5717(10) 0.5167(5)
N9 N 0.3334(3) 0.5445(4) 0.5806(4)
O1 O 0.3671(2) 0.5698(4) 0.8697(3)
O2 O 0.3060(3) 0.6477(5) 0.9309(4)
O3 O 0.0545(3) 0.6942(4) 0.6606(4)
O4 O 0.0926(2) 0.7491(3) 0.7724(3)
C1 C 0.3184(4) 0.6161(5) 0.8718(5)
C2 C 0.2729(4) 0.6268(5) 0.7937(4)
C3 C 0.2906(4) 0.5968(5) 0.7281(5)
H5 H 0.33170 0.57053 0.73091
C4 C 0.2495(4) 0.6039(5) 0.6569(4)
C5 C 0.2711(4) 0.5736(6) 0.5865(5)
C6 C 0.1860(4) 0.6364(5) 0.6566(5)
H6 H 0.15531 0.63673 0.61035
C7 C 0.1664(4) 0.6683(5) 0.7219(4)
C8 C 0.0992(4) 0.7043(5) 0.7170(5)
C9 C 0.2104(3) 0.6630(5) 0.7912(4)
H7 H 0.19819 0.68390 0.83660
C10 C 0.5513(3) 0.3725(4) 0.9032(4)
C11 C 0.4521(4) 0.4110(5) 0.8536(4)
O5 O 0.7874(11) 0.3102(16) 0.9531(16)
O6 O 0.2049(11) 0.557(3) 0.3050(12)
Zn2A Zn 0.58899(4) 0.52284(5) 0.53564(5)
N1A N 0.5321(3) 0.4469(4) 0.5827(3)
N2A N 0.4666(3) 0.4247(4) 0.5495(3)
N3A N 0.4979(3) 0.3613(4) 0.6583(3)
N4A N 0.3896(3) 0.3370(5) 0.5878(4)
H1A H 0.35873 0.34695 0.54869
H2A H 0.38187 0.30378 0.62098
N5A N 0.6072(3) 0.4168(5) 0.6949(5)
H3A H 0.63861 0.44671 0.68424
H4A H 0.61389 0.39054 0.73674
N6A N 0.6677(3) 0.5235(5) 0.9922(4)
N7A N 0.7258(4) 0.5420(8) 1.0349(5)
N8A N 0.7656(4) 0.5717(10) 0.9833(5)
N9A N 0.6666(3) 0.5445(4) 0.9194(4)
O1A O 0.6329(2) 0.5698(4) 0.6303(3)
O2A O 0.6940(3) 0.6477(5) 0.5691(4)
O3A O 0.9455(3) 0.6942(4) 0.8394(4)
O4A O 0.9074(2) 0.7491(3) 0.7276(3)
C1A C 0.6816(4) 0.6161(5) 0.6282(5)
C2A C 0.7271(4) 0.6268(5) 0.7063(4)
C3A C 0.7094(4) 0.5968(5) 0.7719(5)
H5A H 0.66830 0.57053 0.76909
C4A C 0.7505(4) 0.6039(5) 0.8431(4)
C5A C 0.7289(4) 0.5736(6) 0.9135(5)
C6A C 0.8140(4) 0.6364(5) 0.8434(5)
H6A H 0.84469 0.63673 0.88965
C7A C 0.8336(4) 0.6683(5) 0.7781(4)
C8A C 0.9008(4) 0.7043(5) 0.7830(5)
C9A C 0.7896(3) 0.6630(5) 0.7088(4)
H7A H 0.80181 0.68390 0.66340
C10A C 0.4487(3) 0.3725(4) 0.5968(4)
C11A C 0.5479(4) 0.4110(5) 0.6464(4)
Zn1B Zn 0.00000 0.79271(7) 0.75000
Zn1B* Zn 1.00000 0.79271(7) 0.75000
Zn2D Zn 0.58899(4) 0.47716(5) 1.03564(5)
Zn2E Zn 0.41101(4) 0.47716(5) 0.46436(5)
N2D N 0.4666(3) 0.5753(4) 1.0495(3)
N2E N 0.5334(3) 0.5753(4) 0.4505(3)
N6D N 0.6677(3) 0.4765(5) 0.4922(4)
N6E N 0.3323(3) 0.4765(5) 1.0078(4)
O4B O 0.5926(2) 0.2491(3) 0.7724(3)
O4C O 0.4074(2) 0.2491(3) 0.7276(3)
#END
