
#######################################################################
#
#                 Cambridge Crystallographic Data Centre
#                                CCDC
#
#######################################################################
#
# If this CIF has been generated from an entry in the Cambridge
# Structural Database, then it will include bibliographic, chemical,
# crystal, experimental, refinement or atomic coordinate data resulting
# from the CCDC's data processing and validation procedures.
#
#######################################################################

data_CSD_CIF_QALXUA01
_audit_creation_date 2020-12-15
_audit_creation_method CSD-ConQuest-V1
_database_code_CSD QALXUA01
_database_code_depnum_ccdc_archive 'CCDC 1907881'
_chemical_formula_sum 'C26 H24 N14 O10 Zn3'
_chemical_formula_moiety
;
(C26 H18 N14 O8 Zn3 2-)n,2(H3 O1 1+)
;
_journal_coden_Cambridge 1747
_journal_year 2021
_journal_name_full 'Inorg.Chem.Front. '
loop_
_publ_author_name
"Jiaxing Zhu"
"Yi Yu"
"Hongchuan Fan"
"Huaqiang Cai"
"Zhenxia Chen"
"Linhong Weng"
"Yun Ling"
"Yaming Zhou"
_chemical_name_systematic
;
catena-[bis(oxonium) 
bis(\m-5-(3,5-dicarboxylatophenyl)-2H-tetrazol-2-yl)-bis(\m-3,5-dimethyl-1,2,4
-triazolato)-tri-zinc(ii) unknown solvate]
;
_cell_volume   5210.376
_exptl_crystal_colour 'colorless'
_exptl_crystal_density_diffrn 1.133
_exptl_special_details
;
polymorph II

;
_exptl_crystal_description 'cubic'
_diffrn_ambient_temperature 296
_diffrn_special_details
;
twin

;
_refine_special_details
;
Disordered oxonium cation and solvent molecules were not modelled and the 
disordered density was taken into account using the SQUEEZE/PLATON procedure.
;
#These two values have been output from a single CSD field.
_refine_ls_R_factor_gt 0.0622
_refine_ls_wR_factor_gt 0.0622
_symmetry_cell_setting orthorhombic
_symmetry_space_group_name_H-M 'C m c 21'
_symmetry_Int_Tables_number 36
loop_
_symmetry_equiv_pos_site_id
_symmetry_equiv_pos_as_xyz
1 x,y,z
2 -x,-y,1/2+z
3 x,-y,1/2+z
4 -x,y,z
5 1/2+x,1/2+y,z
6 1/2-x,1/2-y,1/2+z
7 1/2+x,1/2-y,1/2+z
8 1/2-x,1/2+y,z
_cell_length_a 12.042(2)
_cell_length_b 23.990(4)
_cell_length_c 18.036(3)
_cell_angle_alpha 90
_cell_angle_beta 90
_cell_angle_gamma 90
_cell_formula_units_Z 4
loop_
_atom_type_symbol
_atom_type_radius_bond
C 0.68
H 0.23
N 0.68
O 0.68
Zn 1.22
loop_
_atom_site_label
_atom_site_type_symbol
_atom_site_fract_x
_atom_site_fract_y
_atom_site_fract_z
Zn1 Zn 0.50000 0.85156(4) 1.00076(10)
Zn2 Zn 0.34577(6) 1.00012(5) 0.75053(10)
C1 C 0.2084(8) 0.8816(3) 0.6035(4)
C2 C 0.1777(7) 0.8262(3) 0.6115(4)
H1 H 0.17186 0.81067 0.65856
C3 C 0.1556(6) 0.7941(3) 0.5494(4)
C4 C 0.1642(6) 0.8173(3) 0.4794(4)
H2 H 0.14932 0.79578 0.43768
C5 C 0.1949(6) 0.8726(3) 0.4714(4)
C6 C 0.2170(7) 0.9047(3) 0.5334(4)
H3 H 0.23761 0.94189 0.52806
C7 C 0.2354(9) 0.9134(5) 0.6723(6)
C8 C 0.1179(11) 0.7334(4) 0.5568(6)
C9 C 0.2054(8) 0.8925(5) 0.3963(5)
C10 C 0.4101(9) 1.0776(4) 0.6278(5)
C11 C 0.2971(9) 1.0881(5) 0.6061(6)
H4 H 0.29611 1.11214 0.56365
H5 H 0.26153 1.05342 0.59398
H6 H 0.25810 1.10556 0.64631
C12 C 0.4127(10) 0.9227(5) 0.8756(6)
C13 C 0.2909(10) 0.9141(5) 0.8965(6)
H7 H 0.28645 0.89110 0.94001
H8 H 0.25697 0.94951 0.90636
H9 H 0.25275 0.89612 0.85633
N1 N 0.161(1) 0.8771(4) 0.3365(5)
N2 N 0.1932(9) 0.9099(4) 0.2812(4)
N3 N 0.2562(8) 0.9501(3) 0.3095(4)
N4 N 0.2629(7) 0.9422(3) 0.3822(5)
N5 N 0.4415(7) 1.0460(3) 0.6844(4)
N6 N 0.50000 1.0949(5) 0.5872(7)
N7 N 0.4448(8) 0.9529(3) 0.8173(4)
N8 N 0.50000 0.8995(4) 0.9101(5)
O1 O 0.2777(8) 0.9615(3) 0.6651(5)
O2 O 0.2143(12) 0.8959(4) 0.7323(4)
O3 O 0.1209(5) 0.70344(18) 0.5018(5)
O4 O 0.0845(9) 0.7173(3) 0.6191(4)
C10C C 0.5899(9) 1.0776(4) 0.6278(5)
C11C C 0.7029(9) 1.0881(5) 0.6061(6)
H4C H 0.70389 1.11214 0.56365
H5C H 0.73847 1.05342 0.59398
H6C H 0.74190 1.10556 0.64631
N5C N 0.5585(7) 1.0460(3) 0.6844(4)
C12C C 0.5873(10) 0.9227(5) 0.8756(6)
C13C C 0.7091(10) 0.9141(5) 0.8965(6)
H7C H 0.71355 0.89110 0.94001
H8C H 0.74303 0.94951 0.90636
H9C H 0.74725 0.89612 0.85633
N7C N 0.5552(8) 0.9529(3) 0.8173(4)
Zn2C Zn 0.65423(6) 1.00012(5) 0.75053(10)
C1C C 0.7916(8) 0.8816(3) 0.6035(4)
C2C C 0.8223(7) 0.8262(3) 0.6115(4)
H1C H 0.82814 0.81067 0.65856
C3C C 0.8444(6) 0.7941(3) 0.5494(4)
C4C C 0.8358(6) 0.8173(3) 0.4794(4)
H2C H 0.85068 0.79578 0.43768
C5C C 0.8051(6) 0.8726(3) 0.4714(4)
C6C C 0.7830(7) 0.9047(3) 0.5334(4)
H3C H 0.76239 0.94189 0.52806
C7C C 0.7646(9) 0.9134(5) 0.6723(6)
C8C C 0.8821(11) 0.7334(4) 0.5568(6)
C9C C 0.7946(8) 0.8925(5) 0.3963(5)
N1C N 0.839(1) 0.8771(4) 0.3365(5)
N2C N 0.8068(9) 0.9099(4) 0.2812(4)
N3C N 0.7438(8) 0.9501(3) 0.3095(4)
N4C N 0.7371(7) 0.9422(3) 0.3822(5)
O1C O 0.7223(8) 0.9615(3) 0.6651(5)
O2C O 0.7857(12) 0.8959(4) 0.7323(4)
O3C O 0.8791(5) 0.70344(18) 0.5018(5)
O4C O 0.9155(9) 0.7173(3) 0.6191(4)
Zn1A Zn 0.50000 1.14844(4) 0.50076(10)
Zn1E Zn 0.00000 0.64844(4) 0.50076(10)
Zn1E* Zn 1.00000 0.64844(4) 0.50076(10)
Zn2A Zn 0.65423(6) 0.99988(5) 0.25053(10)
Zn2B Zn 0.34577(6) 0.99988(5) 0.25053(10)
N3A N 0.7438(8) 1.0499(3) 0.8095(4)
N3B N 0.2562(8) 1.0499(3) 0.8095(4)
N6A N 0.50000 0.9051(5) 1.0872(7)
O3E O 0.3791(5) 0.79656(18) 1.0018(5)
O3F O 0.6209(5) 0.79656(18) 1.0018(5)
#END
