
#######################################################################
#
#                 Cambridge Crystallographic Data Centre
#                                CCDC
#
#######################################################################
#
# If this CIF has been generated from an entry in the Cambridge
# Structural Database, then it will include bibliographic, chemical,
# crystal, experimental, refinement or atomic coordinate data resulting
# from the CCDC's data processing and validation procedures.
#
#######################################################################

data_CSD_CIF_QALXOU
_audit_creation_date 2020-12-15
_audit_creation_method CSD-ConQuest-V1
_database_code_CSD QALXOU
_database_code_depnum_ccdc_archive 'CCDC 1907879'
_chemical_formula_sum 'C26 H32 N14 O14 Zn3'
_chemical_formula_moiety
;
(C26 H18 N14 O8 Zn3 2-)n,4(H2 O1),2(H3 O1 1+)
;
_journal_coden_Cambridge 1747
_journal_year 2021
_journal_name_full 'Inorg.Chem.Front. '
loop_
_publ_author_name
"Jiaxing Zhu"
"Yi Yu"
"Hongchuan Fan"
"Huaqiang Cai"
"Zhenxia Chen"
"Linhong Weng"
"Yun Ling"
"Yaming Zhou"
_chemical_name_systematic
;
catena-[bis(oxonium) 
bis(\m-5-(3,5-dicarboxylatophenyl)-2H-tetrazol-2-yl)-bis(\m-3,5-dimethyl-1,2,4
-triazolato)-tri-zinc(ii) tetrahydrate unknown solvate]
;
_cell_volume   6268.504
_exptl_crystal_colour 'colorless'
_exptl_crystal_density_diffrn 1.018
_exptl_crystal_description 'square'
_diffrn_ambient_temperature 293
_refine_special_details
;
Disordered solvent molecules were not modelled and the disordered density was 
taken into account using the SQUEEZE/PLATON procedure.
;
#These two values have been output from a single CSD field.
_refine_ls_R_factor_gt 0.053
_refine_ls_wR_factor_gt 0.053
_symmetry_cell_setting orthorhombic
_symmetry_space_group_name_H-M 'P b c n'
_symmetry_Int_Tables_number 60
loop_
_symmetry_equiv_pos_site_id
_symmetry_equiv_pos_as_xyz
1 x,y,z
2 1/2-x,1/2-y,1/2+z
3 -x,y,1/2-z
4 1/2+x,1/2-y,-z
5 -x,-y,-z
6 -1/2+x,-1/2+y,-1/2-z
7 x,-y,-1/2+z
8 -1/2-x,-1/2+y,z
_cell_length_a 19.76(2)
_cell_length_b 18.00(2)
_cell_length_c 17.624(19)
_cell_angle_alpha 90
_cell_angle_beta 90
_cell_angle_gamma 90
_cell_formula_units_Z 4
loop_
_atom_type_symbol
_atom_type_radius_bond
C 0.68
H 0.23
N 0.68
O 0.68
Zn 1.22
loop_
_atom_site_label
_atom_site_type_symbol
_atom_site_fract_x
_atom_site_fract_y
_atom_site_fract_z
Zn1 Zn 1.00000 0.70554(4) 0.75000
Zn2 Zn 0.90741(2) 0.49343(2) 0.50691(2)
N1 N 0.96737(14) 0.55931(17) 0.56980(17)
N2 N 1.03631(13) 0.56577(17) 0.56414(16)
N3 N 1.00244(12) 0.63610(19) 0.65875(19)
N4 N 0.83798(16) 0.4440(2) 0.87227(19)
N5 N 0.84629(17) 0.4431(2) 0.9470(2)
N6 N 0.8005(3) 0.4015(4) 0.9787(3)
N7 N 0.7633(3) 0.3720(4) 0.9223(3)
O1 O 0.86195(14) 0.44269(18) 0.58767(16)
O2 O 0.7795(2) 0.4026(3) 0.5164(2)
O3 O 0.58166(14) 0.26395(18) 0.75839(14)
O4 O 0.57271(15) 0.2979(2) 0.63903(19)
C1 C 0.8045(2) 0.4121(3) 0.5786(3)
C2 C 0.7681(2) 0.3895(3) 0.6491(2)
C3 C 0.7943(2) 0.4029(3) 0.7190(2)
H1 H 0.83626 0.42597 0.72308
C4 C 0.7598(2) 0.3829(3) 0.7843(2)
C5 C 0.7873(2) 0.3984(3) 0.8592(2)
C6 C 0.6979(2) 0.3474(2) 0.7772(2)
H2 H 0.67475 0.33225 0.82053
C7 C 0.67028(19) 0.3343(2) 0.7071(2)
C8 C 0.60261(19) 0.2968(2) 0.7006(3)
C9 C 0.7055(2) 0.3552(2) 0.6428(2)
H3 H 0.68713 0.34624 0.59510
C10 C 0.94918(18) 0.6021(2) 0.6266(2)
C11 C 1.05510(18) 0.6117(2) 0.6181(2)
C12 C 0.8777(2) 0.6105(3) 0.6516(3)
H4 H 0.85764 0.65218 0.62614
H5 H 0.87648 0.61862 0.70546
H6 H 0.85295 0.56622 0.63949
C13 C 1.1267(2) 0.6326(3) 0.6319(3)
H7 H 1.15223 0.62662 0.58596
H8 H 1.14539 0.60115 0.67068
H9 H 1.12892 0.68344 0.64811
O5 O 0.6994(6) 0.3153(8) 0.4180(8)
O6 O 0.00000 0.387(2) 0.75000
Zn2B Zn 1.09259(2) 0.49343(2) 0.99309(2)
N1B N 1.03263(14) 0.55931(17) 0.93020(17)
N2B N 0.96369(13) 0.56577(17) 0.93586(16)
N3B N 0.99756(12) 0.63610(19) 0.84125(19)
N4B N 1.16202(16) 0.4440(2) 0.62773(19)
N5B N 1.15371(17) 0.4431(2) 0.5530(2)
N6B N 1.1995(3) 0.4015(4) 0.5213(3)
N7B N 1.2367(3) 0.3720(4) 0.5777(3)
O1B O 1.13805(14) 0.44269(18) 0.91233(16)
O2B O 1.2205(2) 0.4026(3) 0.9836(2)
O3B O 1.41834(14) 0.26395(18) 0.74161(14)
O4B O 1.42729(15) 0.2979(2) 0.86097(19)
C1B C 1.1955(2) 0.4121(3) 0.9214(3)
C2B C 1.2319(2) 0.3895(3) 0.8509(2)
C3B C 1.2057(2) 0.4029(3) 0.7810(2)
H1B H 1.16374 0.42597 0.77692
C4B C 1.2402(2) 0.3829(3) 0.7157(2)
C5B C 1.2127(2) 0.3984(3) 0.6408(2)
C6B C 1.3021(2) 0.3474(2) 0.7228(2)
H2B H 1.32525 0.33225 0.67947
C7B C 1.32972(19) 0.3343(2) 0.7929(2)
C8B C 1.39739(19) 0.2968(2) 0.7994(3)
C9B C 1.2945(2) 0.3552(2) 0.8572(2)
H3B H 1.31287 0.34624 0.90490
C10B C 1.05082(18) 0.6021(2) 0.8734(2)
C11B C 0.94490(18) 0.6117(2) 0.8819(2)
C12B C 1.1223(2) 0.6105(3) 0.8484(3)
H4B H 1.14236 0.65218 0.87386
H5B H 1.12352 0.61862 0.79454
H6B H 1.14705 0.56622 0.86051
C13B C 0.8733(2) 0.6326(3) 0.8681(3)
H7B H 0.84777 0.62662 0.91404
H8B H 0.85461 0.60115 0.82932
H9B H 0.87108 0.68344 0.85189
Zn1E Zn 0.50000 0.20554(4) 0.75000
Zn1E* Zn 1.50000 0.20554(4) 0.75000
Zn2D Zn 1.09259(2) 0.50657(2) 0.49309(2)
Zn2F Zn 0.90741(2) 0.50657(2) 1.00691(2)
N2D N 0.96369(13) 0.43423(17) 0.43586(16)
N2F N 1.03631(13) 0.43423(17) 1.06414(16)
N5D N 1.15371(17) 0.5569(2) 1.0530(2)
N5F N 0.84629(17) 0.5569(2) 0.4470(2)
O3E O 1.08166(14) 0.76395(18) 0.74161(14)
O3G O 0.91834(14) 0.76395(18) 0.75839(14)
#END
