
#######################################################################
#
#                 Cambridge Crystallographic Data Centre
#                                CCDC
#
#######################################################################
#
# If this CIF has been generated from an entry in the Cambridge
# Structural Database, then it will include bibliographic, chemical,
# crystal, experimental, refinement or atomic coordinate data resulting
# from the CCDC's data processing and validation procedures.
#
#######################################################################

data_CSD_CIF_QALXAG
_audit_creation_date 2020-12-15
_audit_creation_method CSD-ConQuest-V1
_database_code_CSD QALXAG
_database_code_depnum_ccdc_archive 'CCDC 1907876'
_chemical_formula_sum 'C25 H31 N11 O17 Zn3'
_chemical_formula_moiety
;
(C22 H14 N10 O12 Zn3 2-)n,C3 H7 N1 O1,2(H2 O1),2(H3 O1 1+)
;
_journal_coden_Cambridge 1747
_journal_year 2021
_journal_name_full 'Inorg.Chem.Front. '
loop_
_publ_author_name
"Jiaxing Zhu"
"Yi Yu"
"Hongchuan Fan"
"Huaqiang Cai"
"Zhenxia Chen"
"Linhong Weng"
"Yun Ling"
"Yaming Zhou"
_chemical_name_systematic
;
catena-[bis(oxonium) 
bis(\m-benzene-1,3,5-tricarboxylato)-bis(\m-3,5-diamino-1,2,4-triazolato)-tri-
;
_cell_volume   5540.810
_exptl_crystal_colour 'colorless'
_exptl_crystal_density_diffrn 1.143
_exptl_crystal_description 'cubic'
_diffrn_ambient_temperature 296
_refine_special_details
;
O7 disordered by symmetry over two configurations with occupancy 0.5; 
Disordered solvent molecules were not modelled and the disordered density was 
taken into account using the SQUEEZE/PLATON procedure.
;
#These two values have been output from a single CSD field.
_refine_ls_R_factor_gt 0.0462
_refine_ls_wR_factor_gt 0.0462
_symmetry_cell_setting monoclinic
_symmetry_space_group_name_H-M 'C 2/c'
_symmetry_Int_Tables_number 15
loop_
_symmetry_equiv_pos_site_id
_symmetry_equiv_pos_as_xyz
1 x,y,z
2 -x,y,1/2-z
3 1/2+x,1/2+y,z
4 1/2-x,1/2+y,1/2-z
5 -x,-y,-z
6 x,-y,-1/2+z
7 -1/2-x,-1/2-y,-z
8 -1/2+x,-1/2-y,-1/2+z
_cell_length_a 19.309(2)
_cell_length_b 18.583(2)
_cell_length_c 15.4488(19)
_cell_angle_alpha 90
_cell_angle_beta 91.726(2)
_cell_angle_gamma 90
_cell_formula_units_Z 4
loop_
_atom_type_symbol
_atom_type_radius_bond
C 0.68
H 0.23
N 0.68
O 0.68
Zn 1.22
loop_
_atom_site_label
_atom_site_type_symbol
_atom_site_fract_x
_atom_site_fract_y
_atom_site_fract_z
Zn1 Zn 0.40660(2) 0.01267(2) 0.48405(2)
Zn2 Zn 0.50000 -0.22458(3) 0.25000
N1 N 0.46101(14) -0.06737(16) 0.43503(18)
N2 N 0.53098(14) -0.08258(17) 0.45637(18)
N3 N 0.49575(14) -0.15742(15) 0.35208(18)
N4 N 0.38023(19) -0.1168(3) 0.3341(3)
H1 H 0.34840 -0.08730 0.34910
H2 H 0.37166 -0.14809 0.29425
N5 N 0.6128(2) -0.1641(3) 0.4039(3)
H3 H 0.64517 -0.14752 0.43777
H4 H 0.62140 -0.19892 0.36911
O1 O 0.35817(13) 0.04889(16) 0.38138(15)
O2 O 0.29069(16) 0.1257(2) 0.44939(19)
O3 O 0.35066(15) 0.01953(18) 0.07802(17)
O4 O 0.2734(2) 0.0720(3) -0.0082(2)
O5 O 0.06068(17) 0.1716(2) 0.1491(2)
O6 O 0.09010(13) 0.22879(14) 0.26937(17)
C1 C 0.30771(18) 0.0932(2) 0.3845(2)
C2 C 0.26909(19) 0.1032(2) 0.2993(2)
C3 C 0.29687(19) 0.0754(2) 0.2242(2)
H5 H 0.33872 0.05064 0.22751
C4 C 0.2628(2) 0.0842(2) 0.1444(2)
C5 C 0.2964(2) 0.0558(2) 0.0644(2)
C6 C 0.1994(2) 0.1194(2) 0.1403(2)
H6 H 0.17585 0.12461 0.08732
C7 C 0.1708(2) 0.1469(2) 0.2152(2)
C8 C 0.1026(2) 0.1843(2) 0.2100(2)
C9 C 0.20618(19) 0.1401(2) 0.2947(2)
H7 H 0.18797 0.15999 0.34434
C10 C 0.44379(18) -0.1138(2) 0.3733(3)
C11 C 0.54860(18) -0.1357(2) 0.4054(2)
N6 N 0.50000 0.1139(4) 0.25000
C12 C 0.50000 0.0363(4) 0.25000
C13 C 0.4840(4) 0.1489(5) 0.1717(5)
O7 O 0.4894(9) 0.2126(6) 0.1559(8)
O8 O 0.1852(15) 0.8829(17) 0.2197(15)
O9 O 0.1401(9) 0.9674(15) 0.9860(14)
O10 O 0.0283(15) 0.0217(10) 0.1279(15)
O11 O 0.2195(10) 0.2252(9) 0.5455(16)
Zn1A Zn 0.59340(2) 0.01267(2) 0.01595(2)
N1A N 0.53899(14) -0.06737(16) 0.06497(18)
N2A N 0.46902(14) -0.08258(17) 0.04363(18)
N3A N 0.50425(14) -0.15742(15) 0.14792(18)
N4A N 0.61977(19) -0.1168(3) 0.1659(3)
H1A H 0.65160 -0.08730 0.15090
H2A H 0.62834 -0.14809 0.20575
N5A N 0.3872(2) -0.1641(3) 0.0961(3)
H3A H 0.35483 -0.14752 0.06223
H4A H 0.37860 -0.19892 0.13089
O1A O 0.64183(13) 0.04889(16) 0.11862(15)
O2A O 0.70931(16) 0.1257(2) 0.05061(19)
O3A O 0.64934(15) 0.01953(18) 0.42198(17)
O4A O 0.7266(2) 0.0720(3) 0.5082(2)
O5A O 0.93932(17) 0.1716(2) 0.3509(2)
O6A O 0.90990(13) 0.22879(14) 0.23063(17)
C1A C 0.69229(18) 0.0932(2) 0.1155(2)
C2A C 0.73091(19) 0.1032(2) 0.2007(2)
C3A C 0.70313(19) 0.0754(2) 0.2758(2)
H5A H 0.66128 0.05064 0.27249
C4A C 0.7372(2) 0.0842(2) 0.3556(2)
C5A C 0.7036(2) 0.0558(2) 0.4356(2)
C6A C 0.8006(2) 0.1194(2) 0.3597(2)
H6A H 0.82415 0.12461 0.41268
C7A C 0.8292(2) 0.1469(2) 0.2848(2)
C8A C 0.8974(2) 0.1843(2) 0.2900(2)
C9A C 0.79382(19) 0.1401(2) 0.2053(2)
H7A H 0.81203 0.15999 0.15566
C10A C 0.55621(18) -0.1138(2) 0.1267(3)
C11A C 0.45140(18) -0.1357(2) 0.0946(2)
Zn1D Zn 0.59340(2) -0.01267(2) 0.51595(2)
Zn1E Zn 0.40660(2) -0.01267(2) -0.01595(2)
Zn2B Zn 0.00000 0.27542(3) 0.25000
Zn2B* Zn 1.00000 0.27542(3) 0.25000
N2D N 0.46902(14) 0.08258(17) 0.54363(18)
N2E N 0.53098(14) 0.08258(17) -0.04363(18)
O3D O 0.64934(15) -0.01953(18) -0.07802(17)
O3E O 0.35066(15) -0.01953(18) 0.57802(17)
O6B O 0.59010(13) -0.27121(14) 0.26937(17)
O6C O 0.40990(13) -0.27121(14) 0.23063(17)
C13A C 0.5160(4) 0.1489(5) 0.3283(5)
O7A O 0.5106(9) 0.2126(6) 0.3441(8)
#END
