
#######################################################################
#
#                 Cambridge Crystallographic Data Centre
#                                CCDC
#
#######################################################################
#
# If this CIF has been generated from an entry in the Cambridge
# Structural Database, then it will include bibliographic, chemical,
# crystal, experimental, refinement or atomic coordinate data resulting
# from the CCDC's data processing and validation procedures.
#
#######################################################################

data_CSD_CIF_QANSII
_audit_creation_date 2006-05-29
_audit_creation_method CSD-ConQuest-V1
_database_code_CSD QANSII
_database_code_depnum_ccdc_archive 'CCDC 198457'
_chemical_formula_sum 'C18 H98 N18 O55 V18 Zn4'
_chemical_formula_moiety
;
(C8 H32 N8 O42 V18 Zn2 4-)n,n(C10 H40 N10 Zn2 4+),13n(H2 O1)
;
_journal_coden_Cambridge 597
_journal_volume 118
_journal_year 2006
_journal_page_first 57
_journal_name_full 'J.Chem.Sci.(Bangalore,India) '
loop_
_publ_author_name
"S.Natarajan"
"K.S.Narayan"
"S.K.Pati"
_chemical_name_systematic
;
catena-((\m~2~-1,2-Ethylenediamine)-tetrakis(1,2-ethylenediamine)-di-zinc 
tetracosakis(\m~3~-oxo)-tetrakis(\m~2~-oxo)-tetrakis(1,2-ethylenediamine)-tetr
adecaoxo-octadeca-vanadium(iv)-di-zinc tridecahydrate)
;
_cell_volume   4184.578
_exptl_crystal_colour 'black'
_exptl_crystal_density_diffrn 2.063
_exptl_special_details
;
antiferromagnetic

;
_exptl_crystal_description 'plate-like'
_diffrn_ambient_temperature 293
#These two values have been output from a single CSD field.
_refine_ls_R_factor_gt 0.0458
_refine_ls_wR_factor_gt 0.0458
_symmetry_cell_setting monoclinic
_symmetry_space_group_name_H-M 'P 21/m'
_symmetry_Int_Tables_number 11
loop_
_symmetry_equiv_pos_site_id
_symmetry_equiv_pos_as_xyz
1 x,y,z
2 -x,1/2+y,-z
3 -x,-y,-z
4 x,-1/2-y,z
_cell_length_a 12.5537(1)
_cell_length_b 21.1451(3)
_cell_length_c 15.8920(2)
_cell_angle_alpha 90
_cell_angle_beta 97.273(1)
_cell_angle_gamma 90
_cell_formula_units_Z 2
loop_
_atom_type_symbol
_atom_type_radius_bond
C 0.68
H 0.23
N 0.68
O 0.68
V 1.18
Zn 1.45
loop_
_atom_site_label
_atom_site_type_symbol
_atom_site_fract_x
_atom_site_fract_y
_atom_site_fract_z
Zn1 Zn -0.50000 0.00000 -0.50000
V1 V -0.59812(10) 0.25000 -0.21912(9)
V2 V -0.36312(11) 0.25000 -0.47380(9)
V3 V -0.03899(11) 0.25000 -0.0780(1)
Zn2 Zn 0.14929(9) 0.25000 -0.47124(7)
V4 V -0.48041(7) 0.12505(4) -0.34510(6)
V5 V -0.12450(11) 0.25000 -0.41601(9)
V6 V -0.56518(10) 0.25000 -0.40046(9)
V7 V -0.04289(8) 0.16240(5) -0.21546(6)
V8 V -0.46148(11) 0.25000 -0.04711(9)
V9 V -0.20446(8) 0.16135(5) -0.03433(6)
V10 V -0.19044(8) 0.12206(5) -0.37116(6)
V11 V -0.42964(8) 0.12316(4) -0.10910(6)
V12 V -0.29377(8) 0.07051(5) -0.22888(6)
O1 O -0.5512(3) 0.06819(19) -0.3953(3)
N1 N -0.6390(5) 0.0328(3) -0.5737(4)
H1 H -0.65730 0.00670 -0.61780
H2 H -0.69380 0.03450 -0.54240
C1 C -0.6159(7) 0.0967(4) -0.6046(5)
H3 H -0.61960 0.12750 -0.55990
H4 H -0.66850 0.10800 -0.65230
C2 C -0.5048(7) 0.0964(4) -0.6314(5)
H5 H -0.50250 0.06730 -0.67840
H6 H -0.48710 0.13830 -0.65010
N2 N -0.4265(5) 0.0768(3) -0.5593(4)
H7 H -0.41200 0.10900 -0.52260
H8 H -0.36480 0.06410 -0.57740
O2 O -0.7258(5) 0.25000 -0.2110(4)
O3 O -0.5757(3) 0.19002(18) -0.3091(2)
O4 O -0.5284(3) 0.19103(18) -0.1335(2)
O5 O -0.0874(3) 0.16427(19) -0.1042(3)
O6 O -0.3910(5) 0.25000 -0.5759(4)
O7 O -0.4588(3) 0.18994(18) -0.4283(2)
O8 O -0.2444(3) 0.19131(18) -0.4438(3)
O9 O 0.0708(5) 0.25000 -0.0120(4)
O10 O -0.1647(4) 0.25000 -0.0188(4)
O11 O -0.0119(5) 0.25000 -0.1950(4)
N3 N 0.1286(5) 0.1728(3) -0.5576(4)
H9 H 0.07300 0.18030 -0.59790
H10 H 0.18810 0.16760 -0.58310
C3 C 0.1082(8) 0.1158(4) -0.5103(7)
H11 H 0.12630 0.07870 -0.54140
H12 H 0.03260 0.11350 -0.50340
C4 C 0.1740(8) 0.1169(4) -0.4253(7)
H13 H 0.15400 0.08150 -0.39180
H14 H 0.24930 0.11250 -0.43210
N4 N 0.1579(5) 0.1757(3) -0.3811(4)
H15 H 0.21290 0.18240 -0.34000
H16 H 0.09670 0.17390 -0.35720
O12 O -0.6739(5) 0.25000 -0.4718(4)
O13 O -0.4411(3) 0.10009(19) -0.2264(2)
O14 O -0.0434(5) 0.25000 -0.4899(4)
O15 O -0.0773(3) 0.18365(19) -0.3359(3)
O16 O 0.0687(4) 0.1234(2) -0.2090(3)
O17 O -0.1565(3) 0.10337(19) -0.2498(3)
O18 O -0.5304(5) 0.25000 0.0320(4)
O19 O -0.3553(3) 0.18444(19) -0.0301(3)
O20 O -0.1615(4) 0.1252(2) 0.0538(3)
O21 O -0.2793(3) 0.10072(19) -0.1135(3)
O22 O -0.1456(4) 0.0654(2) -0.4278(3)
O23 O -0.3315(3) 0.09985(19) -0.3454(2)
O24 O -0.4873(3) 0.06940(19) -0.0568(3)
O25 O -0.2877(4) -0.0067(2) -0.2285(3)
Zn3 Zn -0.73340(6) 0.05420(4) -0.06668(5)
N5 N -0.6669(5) -0.0364(3) -0.1046(4)
H17 H -0.61110 -0.04790 -0.06640
H18 H -0.71740 -0.06670 -0.10650
C5 C -0.6316(9) -0.0292(5) -0.1875(6)
H19 H -0.63670 -0.06960 -0.21670
H20 H -0.55710 -0.01590 -0.18080
C6 C -0.6977(8) 0.0179(5) -0.2386(5)
H21 H -0.66480 0.02750 -0.28910
H22 H -0.76820 0.00010 -0.25650
N6 N -0.7100(5) 0.0761(3) -0.1922(4)
H23 H -0.76660 0.09810 -0.21750
H24 H -0.65090 0.10020 -0.19220
N7 N -0.7419(5) 0.1531(3) -0.0327(5)
H25 H -0.68960 0.17530 -0.05300
H26 H -0.80580 0.16960 -0.05370
C7 C -0.7278(7) 0.1544(4) 0.0616(6)
H27 H -0.79310 0.14000 0.08240
H28 H -0.71340 0.19730 0.08150
C8 C -0.6345(7) 0.1114(3) 0.0951(5)
H29 H -0.56800 0.12730 0.07800
H30 H -0.62690 0.10980 0.15660
N8 N -0.6583(4) 0.0478(2) 0.0591(3)
H31 H -0.70150 0.02700 0.09080
H32 H -0.59680 0.02570 0.06030
N9 N -0.8937(5) 0.0213(3) -0.0709(4)
H33 H -0.93530 0.04720 -0.10600
H34 H -0.89650 -0.01700 -0.09570
C9 C -0.9449(6) 0.0153(4) 0.0070(5)
H35 H -0.95160 0.05700 0.03110
H36 H -0.89870 -0.00970 0.04780
O26 O -0.3027(10) 0.25000 -0.2351(8)
O27 O -0.1410(4) 0.25000 -0.7579(3)
O28 O 0.0205(7) -0.0014(5) -0.3201(7)
O29 O -0.1752(7) 0.0720(5) -0.6038(5)
O30 O -0.6470(17) 0.25000 -0.6518(10)
O31 O -0.1083(10) -0.0852(6) -0.2413(9)
O32 O 0.025(2) 0.1932(11) -0.8334(16)
O33 O -0.152(3) 0.1865(11) -0.6498(13)
Zn1C Zn -0.50000 0.50000 -0.50000
Zn2* Zn -0.85071(9) 0.25000 -0.47124(7)
V4C V -0.48041(7) 0.37495(4) -0.34510(6)
V7C V -0.04289(8) 0.33760(5) -0.21546(6)
V9C V -0.20446(8) 0.33865(5) -0.03433(6)
V10C V -0.19044(8) 0.37794(5) -0.37116(6)
V11C V -0.42964(8) 0.37684(4) -0.10910(6)
V12C V -0.29377(8) 0.42949(5) -0.22888(6)
O1B O -0.4488(3) -0.06819(19) -0.6047(3)
O1C O -0.5512(3) 0.43181(19) -0.3953(3)
N1B N -0.3610(5) -0.0328(3) -0.4263(4)
H1B H -0.34270 -0.00670 -0.38220
H2B H -0.30620 -0.03450 -0.45760
C1B C -0.3841(7) -0.0967(4) -0.3954(5)
H3B H -0.38040 -0.12750 -0.44010
H4B H -0.33150 -0.10800 -0.34770
C2B C -0.4952(7) -0.0964(4) -0.3686(5)
H5B H -0.49750 -0.06730 -0.32160
H6B H -0.51290 -0.13830 -0.34990
N2B N -0.5735(5) -0.0768(3) -0.4407(4)
H7B H -0.58800 -0.10900 -0.47740
H8B H -0.63520 -0.06410 -0.42260
O3C O -0.5757(3) 0.30998(18) -0.3091(2)
O4C O -0.5284(3) 0.30897(18) -0.1335(2)
O5C O -0.0874(3) 0.33573(19) -0.1042(3)
O7C O -0.4588(3) 0.31006(18) -0.4283(2)
O8C O -0.2444(3) 0.30869(18) -0.4438(3)
N3C N 0.1286(5) 0.3272(3) -0.5576(4)
H9C H 0.07300 0.31970 -0.59790
H10C H 0.18810 0.33240 -0.58310
C3C C 0.1082(8) 0.3842(4) -0.5103(7)
H11C H 0.12630 0.42130 -0.54140
H12C H 0.03260 0.38650 -0.50340
C4C C 0.1740(8) 0.3831(4) -0.4253(7)
H13C H 0.15400 0.41850 -0.39180
H14C H 0.24930 0.38750 -0.43210
N4C N 0.1579(5) 0.3243(3) -0.3811(4)
H15C H 0.21290 0.31760 -0.34000
H16C H 0.09670 0.32610 -0.35720
O12* O 0.3261(5) 0.25000 -0.4718(4)
O13C O -0.4411(3) 0.39991(19) -0.2264(2)
O15C O -0.0773(3) 0.31635(19) -0.3359(3)
O16C O 0.0687(4) 0.3766(2) -0.2090(3)
O17C O -0.1565(3) 0.39663(19) -0.2498(3)
O19C O -0.3553(3) 0.31556(19) -0.0301(3)
O20C O -0.1615(4) 0.3748(2) 0.0538(3)
O21C O -0.2793(3) 0.39928(19) -0.1135(3)
O22C O -0.1456(4) 0.4346(2) -0.4278(3)
O23C O -0.3315(3) 0.40015(19) -0.3454(2)
O24C O -0.4873(3) 0.43060(19) -0.0568(3)
O25C O -0.2877(4) 0.5067(2) -0.2285(3)
Zn3B Zn -1.26660(6) -0.05420(4) 0.06668(5)
N5B N -1.3331(5) 0.0364(3) 0.1046(4)
H17B H -1.38890 0.04790 0.06640
H18B H -1.28260 0.06670 0.10650
C5B C -1.3684(9) 0.0292(5) 0.1875(6)
H19B H -1.36330 0.06960 0.21670
H20B H -1.44290 0.01590 0.18080
C6B C -1.3023(8) -0.0179(5) 0.2386(5)
H21B H -1.33520 -0.02750 0.28910
H22B H -1.23180 -0.00010 0.25650
N6B N -1.2900(5) -0.0761(3) 0.1922(4)
H23B H -1.23340 -0.09810 0.21750
H24B H -1.34910 -0.10020 0.19220
N7B N -1.2581(5) -0.1531(3) 0.0327(5)
H25B H -1.31040 -0.17530 0.05300
H26B H -1.19420 -0.16960 0.05370
C7B C -1.2722(7) -0.1544(4) -0.0616(6)
H27B H -1.20690 -0.14000 -0.08240
H28B H -1.28660 -0.19730 -0.08150
C8B C -1.3655(7) -0.1114(3) -0.0951(5)
H29B H -1.43200 -0.12730 -0.07800
H30B H -1.37310 -0.10980 -0.15660
N8B N -1.3417(4) -0.0478(2) -0.0591(3)
H31B H -1.29850 -0.02700 -0.09080
H32B H -1.40320 -0.02570 -0.06030
N9B N -1.1063(5) -0.0213(3) 0.0709(4)
H33B H -1.06470 -0.04720 0.10600
H34B H -1.10350 0.01700 0.09570
C9B C -1.0551(6) -0.0153(4) -0.0070(5)
H35B H -1.04840 -0.05700 -0.03110
H36B H -1.10130 0.00970 -0.04780
#END
