
#######################################################################
#
#                 Cambridge Crystallographic Data Centre
#                                CCDC
#
#######################################################################
#
# If this CIF has been generated from an entry in the Cambridge
# Structural Database, then it will include bibliographic, chemical,
# crystal, experimental, refinement or atomic coordinate data resulting
# from the CCDC's data processing and validation procedures.
#
#######################################################################

data_CSD_CIF_QAPYOY
_audit_creation_date 2017-05-05
_audit_creation_method CSD-ConQuest-V1
_database_code_CSD QAPYOY
_database_code_depnum_ccdc_archive 'CCDC 1525621'
_chemical_formula_sum 'C38 H30 Cd4 N2 O20'
_chemical_formula_moiety
;
(C34 H14 Cd4 O20 2-)n,2(C2 H8 N1 1+)
;
_journal_coden_Cambridge 1295
_journal_volume 79
_journal_year 2017
_journal_page_first 29
_journal_name_full 'Inorg.Chem.Commun. '
loop_
_publ_author_name
"Wenjie Chen"
"Yanna Lin"
"Xiaoping Zhang"
"Na Xu"
"Peng Cheng"
_chemical_name_systematic
;
catena-(bis(dimethylammonium) 
bis(\m-3,3',5,5'-biphenyltetracarboxylato)-bis(\m-formato)-di-cadmium)
;
_cell_volume   1875.875
_exptl_crystal_colour 'colorless'
_exptl_crystal_density_diffrn 2.26
_exptl_special_details
;
Three water molecules mentioned in the formula do not appear to have been 
located in the structure
;
_exptl_crystal_description 'needle'
_diffrn_ambient_temperature 132.3
#These two values have been output from a single CSD field.
_refine_ls_R_factor_gt 0.0323
_refine_ls_wR_factor_gt 0.0323
_symmetry_cell_setting monoclinic
_symmetry_space_group_name_H-M 'P 21/c'
_symmetry_Int_Tables_number 14
loop_
_symmetry_equiv_pos_site_id
_symmetry_equiv_pos_as_xyz
1 x,y,z
2 -x,1/2+y,1/2-z
3 -x,-y,-z
4 x,-1/2-y,-1/2+z
_cell_length_a 7.6090(3)
_cell_length_b 16.8735(6)
_cell_length_c 14.8822(5)
_cell_angle_alpha 90
_cell_angle_beta 100.961(3)
_cell_angle_gamma 90
_cell_formula_units_Z 2
loop_
_atom_type_symbol
_atom_type_radius_bond
C 0.68
H 0.23
Cd 1.44
N 0.68
O 0.68
loop_
_atom_site_label
_atom_site_type_symbol
_atom_site_fract_x
_atom_site_fract_y
_atom_site_fract_z
Cd1 Cd 0.38239(4) 0.34629(2) 0.65374(2)
Cd2 Cd -0.13294(4) 0.37773(2) 0.62683(2)
O1 O 0.1630(4) 0.38906(18) 0.7363(2)
O2 O 0.0702(4) 0.32091(18) 0.5426(2)
O3 O 0.2807(4) 0.5682(2) 0.5007(2)
O4 O 0.2462(4) 0.23123(19) 0.6239(2)
O5 O -0.0075(4) 0.49298(19) 0.6888(2)
O6 O -0.3486(4) 0.09959(18) 0.2296(2)
O7 O 0.1536(4) 0.75380(18) 0.8266(2)
O8 O 0.4060(4) 0.77382(19) 0.9274(2)
C1 C -0.3341(6) 0.1492(3) 0.2960(3)
C2 C -0.1435(5) 0.0583(3) 0.4041(3)
H1 H -0.19420 0.01660 0.36710
O9 O 0.3720(4) 0.4626(2) 0.5842(3)
C3 C 0.1155(6) 0.2496(3) 0.5624(3)
C4 C 0.4343(6) 0.6029(3) 0.9513(3)
H2 H 0.50480 0.63390 0.99580
C5 C 0.4456(5) 0.5202(3) 0.9585(3)
C6 C 0.3483(6) 0.4762(3) 0.8869(3)
H3 H 0.35870 0.42130 0.88780
C7 C -0.0215(6) 0.0416(3) 0.4841(3)
C8 C 0.2177(6) 0.5940(3) 0.8114(3)
H4 H 0.13720 0.61810 0.76450
C9 C 0.3213(6) 0.6397(3) 0.8798(3)
C10 C 0.2360(5) 0.5125(3) 0.8141(3)
C11 C 0.0604(6) 0.1060(3) 0.5335(3)
H5 H 0.14680 0.09670 0.58570
C12 C -0.1913(6) 0.1356(3) 0.3779(3)
C13 C 0.2951(6) 0.7285(3) 0.8780(3)
C14 C -0.1136(5) 0.1992(3) 0.4308(3)
H6 H -0.14870 0.25090 0.41510
C15 C 0.1253(6) 0.4617(3) 0.7406(3)
C16 C 0.0173(6) 0.1838(3) 0.5074(3)
O10 O -0.4424(4) 0.20551(18) 0.2948(2)
C17 C 0.2664(6) 0.4960(3) 0.5214(3)
N1 N 0.4468(5) 0.3452(2) 0.3622(3)
H7 H 0.50240 0.37000 0.41320
H8 H 0.52480 0.31070 0.34530
C18 C 0.3944(7) 0.4034(3) 0.2896(4)
H9 H 0.33480 0.37710 0.23500
H10 H 0.49910 0.43000 0.27750
H11 H 0.31490 0.44150 0.30840
C19 C 0.2915(7) 0.3015(4) 0.3820(4)
H12 H 0.22990 0.27620 0.32720
H13 H 0.21180 0.33770 0.40390
H14 H 0.33120 0.26210 0.42790
O1B O 0.8370(4) 0.61094(18) 1.2637(2)
O5B O 1.0075(4) 0.50702(19) 1.3112(2)
O7B O 0.8464(4) 0.24620(18) 1.1734(2)
O8B O 0.5940(4) 0.22618(19) 1.0726(2)
C4B C 0.5657(6) 0.3971(3) 1.0487(3)
H2B H 0.49520 0.36610 1.00420
C5B C 0.5544(5) 0.4798(3) 1.0415(3)
C6B C 0.6517(6) 0.5238(3) 1.1131(3)
H3B H 0.64130 0.57870 1.11220
C8B C 0.7823(6) 0.4060(3) 1.1886(3)
H4B H 0.86280 0.38190 1.23550
C9B C 0.6787(6) 0.3603(3) 1.1202(3)
C10B C 0.7640(5) 0.4875(3) 1.1859(3)
C13B C 0.7049(6) 0.2715(3) 1.1220(3)
C15B C 0.8747(6) 0.5383(3) 1.2594(3)
O2B O -0.0702(4) -0.32091(18) 0.4574(2)
O4B O -0.2462(4) -0.23123(19) 0.3761(2)
O6B O 0.3486(4) -0.09959(18) 0.7704(2)
C1B C 0.3341(6) -0.1492(3) 0.7040(3)
C2B C 0.1435(5) -0.0583(3) 0.5959(3)
H1B H 0.19420 -0.01660 0.63290
C3B C -0.1155(6) -0.2496(3) 0.4376(3)
C7B C 0.0215(6) -0.0416(3) 0.5159(3)
C11B C -0.0604(6) -0.1060(3) 0.4665(3)
H5B H -0.14680 -0.09670 0.41430
C12B C 0.1913(6) -0.1356(3) 0.6221(3)
C14B C 0.1136(5) -0.1992(3) 0.5692(3)
H6B H 0.14870 -0.25090 0.58490
C16B C -0.0173(6) -0.1838(3) 0.4926(3)
O10B O 0.4424(4) -0.20551(18) 0.7052(2)
Cd1B Cd -0.38239(4) -0.34629(2) 0.34626(2)
Cd2B Cd 0.13294(4) -0.37773(2) 0.37317(2)
O3B O -0.2807(4) -0.5682(2) 0.4993(2)
O9B O -0.3720(4) -0.4626(2) 0.4158(3)
C17B C -0.2664(6) -0.4960(3) 0.4786(3)
Cd1A Cd 0.61761(4) -0.15371(2) 0.84626(2)
Cd1A* Cd 0.61761(4) 0.84629(2) 0.84626(2)
Cd1B* Cd 0.61761(4) 0.65371(2) 1.34626(2)
Cd1C Cd -0.61761(4) 0.15371(2) 0.15374(2)
Cd1C* Cd 0.38239(4) 0.15371(2) 1.15374(2)
Cd2* Cd -0.13294(4) -0.62227(2) 0.62683(2)
Cd2A Cd 0.13294(4) -0.12227(2) 0.87317(2)
Cd2A* Cd 0.13294(4) 0.87773(2) 0.87317(2)
Cd2B* Cd 0.13294(4) 0.62227(2) 0.37317(2)
Cd2B** Cd 1.13294(4) 0.62227(2) 1.37317(2)
Cd2C Cd -0.13294(4) 0.12227(2) 0.12683(2)
Cd2C* Cd 0.86706(4) 0.12227(2) 1.12683(2)
O1B* O -0.1630(4) -0.38906(18) 0.2637(2)
O3* O 0.2807(4) -0.4318(2) 0.5007(2)
O3B* O -0.2807(4) 0.4318(2) 0.4993(2)
O5B* O 0.0075(4) -0.49298(19) 0.3112(2)
O6A O -0.6514(4) -0.40041(18) 0.2704(2)
O6A* O 0.3486(4) -0.40041(18) 0.2704(2)
O6C O -0.3486(4) 0.40041(18) 0.7296(2)
O6C* O 0.6514(4) 0.40041(18) 0.7296(2)
O7A O -0.1536(4) 0.25380(18) 0.6734(2)
O7C O 0.1536(4) -0.25380(18) 0.3266(2)
O8A O -0.4060(4) 0.27382(19) 0.5726(2)
O8A* O 0.5940(4) 0.27382(19) 0.5726(2)
O8C O -0.5940(4) -0.27382(19) 0.4274(2)
O8C* O 0.4060(4) -0.27382(19) 0.4274(2)
O10A O -0.5576(4) -0.29449(18) 0.2052(2)
O10C O 0.5576(4) 0.29449(18) 0.7948(2)
#END
