
#######################################################################
#
#                 Cambridge Crystallographic Data Centre
#                                CCDC
#
#######################################################################
#
# If this CIF has been generated from an entry in the Cambridge
# Structural Database, then it will include bibliographic, chemical,
# crystal, experimental, refinement or atomic coordinate data resulting
# from the CCDC's data processing and validation procedures.
#
#######################################################################

data_CSD_CIF_QATKII
_audit_creation_date 2017-05-09
_audit_creation_method CSD-ConQuest-V1
_database_code_CSD QATKII
_database_code_depnum_ccdc_archive 'CCDC 1524171'
_chemical_formula_sum 'C29 H36 Eu1 N3 O12'
_chemical_formula_moiety
;
(C24 H15 Eu1 N1 O8 1-)n,n(C2 H8 N1 1+),n(C3 H7 N1 O1),3n(H2 O1)
;
_journal_coden_Cambridge 580
_journal_volume 133
_journal_year 2017
_journal_page_first 238
_journal_name_full 'Polyhedron '
loop_
_publ_author_name
"Xiaohai Guo"
"Yongsheng Li"
"Qingyuan Peng"
"Zhiming Duan"
"Mingxing Li"
"Min Shao"
"Xiang He"
_chemical_name_systematic
;
catena-(dimethylammonium 
(\m-5-{bis[(4-carboxylatophenyl)methyl]amino}benzene-1,3-dicarboxylato)-europi
um(iii) dimethylformamide solvate trihydrate)
;
_cell_volume   3260.891
_exptl_crystal_colour 'white'
_exptl_crystal_description 'block'
_diffrn_ambient_temperature 296
_refine_special_details
;
The cation and some of the solvent was taken into account using 
PLATON/SQUEEZE. O10 and O11 disordered over two sites with occupancies 
0.50:0.50.
;
#These two values have been output from a single CSD field.
_refine_ls_R_factor_gt 0.082
_refine_ls_wR_factor_gt 0.082
_symmetry_cell_setting monoclinic
_symmetry_space_group_name_H-M 'P 2/c'
_symmetry_Int_Tables_number 13
loop_
_symmetry_equiv_pos_site_id
_symmetry_equiv_pos_as_xyz
1 x,y,z
2 -x,y,1/2-z
3 -x,-y,-z
4 x,-y,-1/2+z
_cell_length_a 15.849(9)
_cell_length_b 10.271(6)
_cell_length_c 21.178(13)
_cell_angle_alpha 90
_cell_angle_beta 108.936(7)
_cell_angle_gamma 90
_cell_formula_units_Z 4
loop_
_atom_type_symbol
_atom_type_radius_bond
C 0.68
H 0.23
Eu 1.98
N 0.68
O 0.68
loop_
_atom_site_label
_atom_site_type_symbol
_atom_site_fract_x
_atom_site_fract_y
_atom_site_fract_z
Eu1 Eu 0.39255(3) 0.54098(5) 0.53337(2)
O1 O 0.3895(5) 0.6599(8) 0.4348(3)
C1 C 0.4162(7) 0.6317(11) 0.3860(5)
C2 C 0.3554(6) 0.6609(10) 0.3156(5)
C3 C 0.3718(7) 0.6005(11) 0.2618(5)
H1 H 0.41920 0.54280 0.26870
C4 C 0.3161(6) 0.6285(10) 0.1979(5)
C5 C 0.2486(6) 0.7173(11) 0.1865(5)
H2 H 0.21410 0.73640 0.14280
C6 C 0.2299(6) 0.7818(10) 0.2407(5)
C7 C 0.2849(6) 0.748(1) 0.3060(5)
H3 H 0.27380 0.78430 0.34280
C8 C 0.3346(7) 0.5648(11) 0.1383(6)
C9 C 0.1116(8) 0.9192(12) 0.1645(6)
H4 H 0.14930 0.91330 0.13650
H5 H 0.09800 1.01050 0.16790
C10 C 0.0260(7) 0.8479(12) 0.1307(5)
C11 C 0.0036(7) 0.7306(12) 0.1526(6)
H6 H 0.04190 0.69290 0.19130
C12 C -0.0755(7) 0.6680(12) 0.1178(6)
H7 H -0.08870 0.58820 0.13320
C13 C -0.1353(6) 0.7216(12) 0.0605(5)
C14 C -0.1157(7) 0.8444(15) 0.0395(6)
H8 H -0.15670 0.88530 0.00320
C15 C -0.0351(8) 0.9048(13) 0.0730(6)
H9 H -0.02110 0.98380 0.05730
C16 C -0.2204(7) 0.6544(14) 0.0237(5)
C17 C 0.1489(7) 0.9417(10) 0.2871(6)
H10 H 0.14640 0.87960 0.32100
H11 H 0.09160 0.98550 0.27130
C18 C 0.2199(7) 1.0416(9) 0.3192(6)
C19 C 0.2178(8) 1.1098(13) 0.3739(6)
H12 H 0.17080 1.09590 0.39030
C20 C 0.2836(8) 1.1994(13) 0.4058(6)
H13 H 0.27860 1.24570 0.44220
C21 C 0.3557(7) 1.2208(11) 0.3849(5)
C22 C 0.3564(7) 1.1555(11) 0.3259(5)
H14 H 0.40230 1.17070 0.30850
C23 C 0.2900(8) 1.0706(11) 0.2950(6)
H15 H 0.29130 1.03010 0.25600
C24 C 0.4334(7) 1.3039(11) 0.4218(5)
N1 N 0.1620(5) 0.8705(8) 0.2316(4)
O2 O 0.3691(6) 0.4564(7) 0.1452(4)
O3 O 0.3151(6) 0.6283(8) 0.0831(3)
O4 O -0.2342(5) 0.5383(7) 0.0400(5)
O5 O -0.2806(5) 0.7166(9) -0.0227(4)
O6 O 0.4234(5) 1.3838(8) 0.4646(4)
O7 O 0.5069(5) 1.2894(8) 0.4102(4)
O8 O 0.4905(5) 0.5821(9) 0.3915(4)
O9 O 0.50000 0.2832(19) 0.25000
O10 O 0.2071(15) 0.851(2) 0.0368(12)
O11 O 0.365(4) 1.024(5) 0.073(3)
O12? O 0.448(3) 0.922(4) 0.082(2)
Eu1* Eu 0.39255(3) 1.54098(5) 0.53337(2)
Eu1A Eu -0.39255(3) 0.54098(5) -0.03337(2)
Eu1B Eu 0.60745(3) 0.45902(5) 0.46663(2)
Eu1B* Eu 0.60745(3) 1.45902(5) 0.46663(2)
Eu1C Eu 0.39255(3) 0.45902(5) 0.03337(2)
O2C O 0.3691(6) 0.5436(7) 0.6452(4)
O3C O 0.3151(6) 0.3717(8) 0.5831(3)
O4A O 0.2342(5) 0.5383(7) 0.4600(5)
O5A O 0.2806(5) 0.7166(9) 0.5227(4)
O6* O 0.4234(5) 0.3838(8) 0.4646(4)
O7B O 0.4931(5) 0.7106(8) 0.5898(4)
O8B O 0.5095(5) 0.4179(9) 0.6085(4)
#END
