
#######################################################################
#
#                 Cambridge Crystallographic Data Centre
#                                CCDC
#
#######################################################################
#
# If this CIF has been generated from an entry in the Cambridge
# Structural Database, then it will include bibliographic, chemical,
# crystal, experimental, refinement or atomic coordinate data resulting
# from the CCDC's data processing and validation procedures.
#
#######################################################################

data_CSD_CIF_QATQOU
_audit_creation_date 2017-05-09
_audit_creation_method CSD-ConQuest-V1
_database_code_CSD QATQOU
_database_code_depnum_ccdc_archive 'CCDC 1503032'
_chemical_formula_sum 'C14 H11 Gd1 Na2 O12'
_chemical_formula_moiety
;
2(Na1 1+),n(C14 H8 Gd1 O10 1-),H1 O1 1-,H2 O1
;
_journal_coden_Cambridge 580
_journal_volume 132
_journal_year 2017
_journal_page_first 123
_journal_name_full 'Polyhedron '
loop_
_publ_author_name
"Shi-Yong Zhang"
"Fu-Yong Liang"
"He-Rui Wen"
"Sui-Jun Liu"
"Xiao-Neng Lu"
"Zi-Yi Du"
_chemical_name_systematic
;
catena-[bis(sodium) 
(\m-naphthalene-1,4,5,8-tetracarboxylato)-diaqua-gadolinium hydroxide 
monohydrate]
;
_cell_volume   3338.465
_exptl_crystal_colour 'yellow'
_exptl_crystal_density_diffrn 2.286
_exptl_crystal_description 'granulous'
_diffrn_ambient_temperature 293
_refine_special_details
;
The structure is disordered.

;
#These two values have been output from a single CSD field.
_refine_ls_R_factor_gt 0.0206
_refine_ls_wR_factor_gt 0.0206
_symmetry_cell_setting orthorhombic
_symmetry_space_group_name_H-M 'C m c a'
_symmetry_Int_Tables_number 64
loop_
_symmetry_equiv_pos_site_id
_symmetry_equiv_pos_as_xyz
1 x,y,z
2 -x,1/2-y,1/2+z
3 -x,1/2+y,1/2-z
4 x,-y,-z
5 1/2+x,1/2+y,z
6 1/2-x,-y,1/2+z
7 1/2-x,y,1/2-z
8 1/2+x,1/2-y,-z
9 -x,-y,-z
10 x,-1/2+y,-1/2-z
11 x,-1/2-y,-1/2+z
12 -x,y,z
13 -1/2-x,-1/2-y,-z
14 -1/2+x,y,-1/2-z
15 -1/2+x,-y,-1/2+z
16 -1/2-x,-1/2+y,z
_cell_length_a 20.2666(9)
_cell_length_b 9.6487(5)
_cell_length_c 17.0725(8)
_cell_angle_alpha 90
_cell_angle_beta 90
_cell_angle_gamma 90
_cell_formula_units_Z 8
loop_
_atom_type_symbol
_atom_type_radius_bond
C 0.68
H 0.23
Gd 1.96
Na 1.66
O 0.68
loop_
_atom_site_label
_atom_site_type_symbol
_atom_site_fract_x
_atom_site_fract_y
_atom_site_fract_z
Gd1 Gd 0.75000 0.130369(18) 0.75000
C1 C 0.93098(16) 0.3800(3) 0.82617(18)
C2 C 0.93077(17) 0.1290(3) 0.86735(19)
C3 C 0.96543(15) 0.4999(3) 0.81601(18)
H1 H 0.94280 0.58280 0.80900
C4 C 0.96544(15) 0.0091(3) 0.8806(2)
H2 H 0.94280 -0.07320 0.88970
C5 C 0.96462(14) 0.2537(3) 0.84600(18)
C6 C 0.85848(17) 0.1274(3) 0.8874(2)
C7 C 0.85896(16) 0.3856(3) 0.80509(19)
O1 O 0.82093(10) 0.0409(2) 0.85225(14)
O2 O 0.83989(12) 0.2074(3) 0.93952(14)
O3 O 0.83585(11) 0.2852(2) 0.76747(13)
O4 O 0.82715(10) 0.4935(2) 0.82146(14)
O5 O 0.71854(12) 0.2551(2) 0.87395(15)
H3 H 0.7016(19) 0.334(3) 0.868(2)
H4 H 0.7508(15) 0.253(4) 0.904(2)
Na1 Na 0.8588(2) 0.3978(4) 1.0413(3)
O6 O 0.76197(19) 0.50000 1.00000
O7 O 0.9687(3) 0.3064(6) 1.0378(3)
Na2? Na 0.8973(4) 0.3883(6) 1.0331(4)
C1K C 1.06902(16) 0.3800(3) 0.82617(18)
C2K C 1.06923(17) 0.1290(3) 0.86735(19)
C3K C 1.03457(15) 0.4999(3) 0.81601(18)
H1K H 1.05720 0.58280 0.80900
C4K C 1.03456(15) 0.0091(3) 0.8806(2)
H2K H 1.05720 -0.07320 0.88970
C5K C 1.03538(14) 0.2537(3) 0.84600(18)
C6K C 1.14152(17) 0.1274(3) 0.8874(2)
C7K C 1.14104(16) 0.3856(3) 0.80509(19)
O1K O 1.17907(10) 0.0409(2) 0.85225(14)
O2K O 1.16011(12) 0.2074(3) 0.93952(14)
O3K O 1.16415(11) 0.2852(2) 0.76747(13)
O4K O 1.17285(10) 0.4935(2) 0.82146(14)
O5F O 0.78146(12) 0.2551(2) 0.62605(15)
H3F H 0.7984(19) 0.334(3) 0.632(2)
H4F H 0.7492(15) 0.253(4) 0.596(2)
Gd1B Gd 1.25000 0.630369(18) 0.75000
Gd1I Gd 0.75000 0.630369(18) 0.75000
Gd1K Gd 1.25000 0.130369(18) 0.75000
O1F O 0.67907(10) 0.0409(2) 0.64775(14)
O3F O 0.66415(11) 0.2852(2) 0.73253(13)
O4I O 0.82715(10) -0.0065(2) 0.67854(14)
O4O O 0.67285(10) -0.0065(2) 0.82146(14)
#END
