
#######################################################################
#
#                 Cambridge Crystallographic Data Centre
#                                CCDC
#
#######################################################################
#
# If this CIF has been generated from an entry in the Cambridge
# Structural Database, then it will include bibliographic, chemical,
# crystal, experimental, refinement or atomic coordinate data resulting
# from the CCDC's data processing and validation procedures.
#
#######################################################################

data_CSD_CIF_QATXIU
_audit_creation_date 2012-06-01
_audit_creation_method CSD-ConQuest-V1
_database_code_CSD QATXIU
_database_code_depnum_ccdc_archive 'CCDC 827949'
_chemical_formula_sum 'C76 H72 Cd5 N6 O32'
_chemical_formula_moiety
;
(C64 H24 Cd5 O32 6-)n,6n(C2 H8 N1 1+)
;
_journal_coden_Cambridge 1295
_journal_volume 15
_journal_year 2012
_journal_page_first 202
_journal_name_full 'Inorg.Chem.Commun. '
loop_
_publ_author_name
"Lin Cheng"
"Huayou Hu"
"Liming Zhang"
"Shaohua Gou"
_chemical_name_systematic
;
catena-(hexakis(dimethylammonium) 
tetrakis(\m~4~-biphenyl-2,2',6,6'-tetracarboxylato)-penta-cadmium)
;
_cell_volume  30373.956
_exptl_crystal_colour 'yellow'
_exptl_crystal_density_diffrn 1.406
_exptl_crystal_description 'block'
_diffrn_ambient_temperature 293
#These two values have been output from a single CSD field.
_refine_ls_R_factor_gt 0.0716
_refine_ls_wR_factor_gt 0.0716
_symmetry_cell_setting cubic
_symmetry_space_group_name_H-M 'I -4 3 d'
_symmetry_Int_Tables_number 220
loop_
_symmetry_equiv_pos_site_id
_symmetry_equiv_pos_as_xyz
1 x,y,z
2 1/2-x,-y,1/2+z
3 -x,1/2+y,1/2-z
4 1/2+x,1/2-y,-z
5 z,x,y
6 1/2+z,1/2-x,-y
7 1/2-z,-x,1/2+y
8 -z,1/2+x,1/2-y
9 y,z,x
10 -y,1/2+z,1/2-x
11 1/2+y,1/2-z,-x
12 1/2-y,-z,1/2+x
13 1/4+y,1/4+x,1/4+z
14 1/4-y,3/4-x,3/4+z
15 3/4+y,1/4-x,3/4-z
16 3/4-y,3/4+x,1/4-z
17 1/4+x,1/4+z,1/4+y
18 3/4-x,3/4+z,1/4-y
19 1/4-x,3/4-z,3/4+y
20 3/4+x,1/4-z,3/4-y
21 1/4+z,1/4+y,1/4+x
22 3/4+z,1/4-y,3/4-x
23 3/4-z,3/4+y,1/4-x
24 1/4-z,3/4-y,3/4+x
25 1/2+x,1/2+y,1/2+z
26 -x,1/2-y,z
27 1/2-x,y,-z
28 x,-y,1/2-z
29 1/2+z,1/2+x,1/2+y
30 z,-x,1/2-y
31 -z,1/2-x,y
32 1/2-z,x,-y
33 1/2+y,1/2+z,1/2+x
34 1/2-y,z,-x
35 y,-z,1/2-x
36 -y,1/2-z,x
37 3/4+y,3/4+x,3/4+z
38 3/4-y,1/4-x,1/4+z
39 1/4+y,3/4-x,1/4-z
40 1/4-y,1/4+x,3/4-z
41 3/4+x,3/4+z,3/4+y
42 1/4-x,1/4+z,3/4-y
43 3/4-x,1/4-z,1/4+y
44 1/4+x,3/4-z,1/4-y
45 3/4+z,3/4+y,3/4+x
46 1/4+z,3/4-y,1/4-x
47 1/4-z,1/4+y,3/4-x
48 3/4-z,1/4-y,1/4+x
_cell_length_a 31.2009(10)
_cell_length_b 31.2009(10)
_cell_length_c 31.2009(10)
_cell_angle_alpha 90
_cell_angle_beta 90
_cell_angle_gamma 90
_cell_formula_units_Z 12
loop_
_atom_type_symbol
_atom_type_radius_bond
C 0.68
H 0.23
Cd 1.49
N 0.68
O 0.73
loop_
_atom_site_label
_atom_site_type_symbol
_atom_site_fract_x
_atom_site_fract_y
_atom_site_fract_z
Cd1 Cd 0.75000 0.12500 1.00000
Cd2 Cd 1.06204(5) 0.12044(5) 0.92395(5)
C1 C 0.8807(4) 0.1644(4) 1.0064(4)
C2 C 0.8859(6) 0.2019(6) 1.0325(7)
H1 H 0.86390 0.21210 1.04980
C3 C 0.9267(6) 0.2228(6) 1.0305(8)
H2 H 0.93150 0.24940 1.04320
C4 C 0.9580(5) 0.2015(6) 1.0089(7)
H3 H 0.98520 0.21360 1.00970
C5 C 0.9540(5) 0.1657(4) 0.9869(5)
C6 C 0.9154(4) 0.1462(4) 0.9859(4)
C7 C 0.9118(4) 0.1027(4) 0.9630(4)
C8 C 0.9182(4) 0.0649(4) 0.9876(4)
C9 C 0.9160(5) 0.0257(4) 0.9676(6)
H4 H 0.92000 0.00120 0.98400
C10 C 0.9081(5) 0.0210(5) 0.9235(7)
H5 H 0.90680 -0.00570 0.91040
C11 C 0.9026(4) 0.0583(6) 0.9015(5)
H6 H 0.89720 0.05640 0.87220
C12 C 0.9043(4) 0.0985(4) 0.9190(5)
C13 C 0.8373(5) 0.1455(5) 1.0065(4)
C14 C 0.9930(5) 0.1498(5) 0.9614(8)
C15 C 0.9212(6) 0.0655(5) 1.0358(5)
C16 C 0.8956(5) 0.1358(5) 0.8886(6)
O1 O 0.8311(3) 0.1074(3) 1.0091(4)
O2 O 0.8055(3) 0.1724(3) 1.0025(3)
O3 O 0.9962(7) 0.1497(7) 0.9260(5)
O4 O 1.0193(7) 0.131(1) 0.9777(6)
O5 O 0.9464(4) 0.0896(4) 1.0533(4)
O6 O 0.9001(4) 0.0386(5) 1.0553(5)
O7 O 0.8994(4) 0.1304(4) 0.8503(4)
O8 O 0.8818(4) 0.1707(3) 0.9046(3)
N1 N 1.0260(5) 0.0518(5) 0.8181(5)
H7 H 1.04550 0.05590 0.79720
H8 H 1.03960 0.05240 0.84360
C17 C 1.0034(6) 0.0093(6) 0.8120(6)
H9 H 1.02410 -0.01340 0.81230
H10 H 0.98850 0.00940 0.78510
H11 H 0.98320 0.00510 0.83490
C18 C 0.9913(6) 0.0867(6) 0.8163(6)
H12 H 1.00440 0.11440 0.81950
H13 H 0.97110 0.08230 0.83900
H14 H 0.97680 0.08530 0.78920
C19 C 1.006(3) 0.111(4) 1.147(2)
H15 H 0.98240 0.09070 1.14420
H16 H 1.01790 0.10800 1.17520
H17 H 1.02710 0.10460 1.12590
C20 C 1.025(3) 0.184(2) 1.138(2)
H18 H 1.01470 0.21060 1.12700
H19 H 1.04630 0.17250 1.11840
H20 H 1.03770 0.18780 1.16550
N2 N 0.990(3) 0.154(3) 1.1410(16)
H21 H 0.97310 0.16100 1.16340
H22 H 0.97390 0.15480 1.11710
Cd2U Cd 0.67395(5) 0.12956(5) 0.68796(5)
Cd2Z Cd 0.43796(5) 0.12044(5) 1.07605(5)
Cd2UA Cd 0.82605(5) 0.12956(5) 1.31204(5)
Cd2D Cd 0.92395(5) 0.06204(5) 1.12044(5)
Cd2N Cd 0.87044(5) 0.18796(5) 0.82605(5)
Cd2EA Cd 0.57605(5) 0.06204(5) 0.87956(5)
Cd2KA Cd 0.62956(5) 0.18796(5) 1.17395(5)
C1U C 0.7564(4) 0.0856(4) 0.8693(4)
C1Z C 0.6193(4) 0.1644(4) 0.9936(4)
C1UA C 0.7436(4) 0.0856(4) 1.1307(4)
C2U C 0.7825(6) 0.0481(6) 0.8641(7)
C2Z C 0.6141(6) 0.2019(6) 0.9675(7)
C2UA C 0.7175(6) 0.0481(6) 1.1359(7)
H1U H 0.79980 0.03790 0.88610
H1Z H 0.63610 0.21210 0.95020
H1UA H 0.70020 0.03790 1.11390
C3U C 0.7805(6) 0.0272(6) 0.8233(8)
C3Z C 0.5733(6) 0.2228(6) 0.9695(8)
C3UA C 0.7195(6) 0.0272(6) 1.1767(8)
H2U H 0.79320 0.00060 0.81850
H2Z H 0.56850 0.24940 0.95680
H2UA H 0.70680 0.00060 1.18150
C4U C 0.7589(5) 0.0485(6) 0.7920(7)
C4Z C 0.5420(5) 0.2015(6) 0.9911(7)
C4UA C 0.7411(5) 0.0485(6) 1.2080(7)
H3U H 0.75970 0.03640 0.76480
H3Z H 0.51480 0.21360 0.99030
H3UA H 0.74030 0.03640 1.23520
C5U C 0.7369(5) 0.0843(4) 0.7960(5)
C5Z C 0.5460(5) 0.1657(4) 1.0131(5)
C5UA C 0.7631(5) 0.0843(4) 1.2040(5)
C6U C 0.7359(4) 0.1038(4) 0.8346(4)
C6Z C 0.5846(4) 0.1462(4) 1.0141(4)
C6UA C 0.7641(4) 0.1038(4) 1.1654(4)
C7U C 0.7130(4) 0.1473(4) 0.8382(4)
C7Z C 0.5882(4) 0.1027(4) 1.0370(4)
C7UA C 0.7870(4) 0.1473(4) 1.1618(4)
C8U C 0.7376(4) 0.1851(4) 0.8318(4)
C8Z C 0.5818(4) 0.0649(4) 1.0124(4)
C8UA C 0.7624(4) 0.1851(4) 1.1682(4)
C9U C 0.7176(5) 0.2243(4) 0.8340(6)
C9Z C 0.5840(5) 0.0257(4) 1.0324(6)
C9UA C 0.7824(5) 0.2243(4) 1.1660(6)
H4U H 0.73400 0.24880 0.83000
H4Z H 0.58000 0.00120 1.01600
H4UA H 0.76600 0.24880 1.17000
C10U C 0.6735(5) 0.2290(5) 0.8419(7)
C10Z C 0.5919(5) 0.0210(5) 1.0765(7)
C10UA C 0.8265(5) 0.2290(5) 1.1581(7)
H5U H 0.66040 0.25570 0.84320
H5Z H 0.59320 -0.00570 1.08960
H5UA H 0.83960 0.25570 1.15680
C11U C 0.6515(4) 0.1917(6) 0.8474(5)
C11Z C 0.5974(4) 0.0583(6) 1.0985(5)
C11UA C 0.8485(4) 0.1917(6) 1.1526(5)
H6U H 0.62220 0.19360 0.85280
H6Z H 0.60280 0.05640 1.12780
H6UA H 0.87780 0.19360 1.14720
C12U C 0.6690(4) 0.1515(4) 0.8457(5)
C12Z C 0.5957(4) 0.0985(4) 1.0810(5)
C12UA C 0.8310(4) 0.1515(4) 1.1543(5)
C13U C 0.7565(5) 0.1045(5) 0.9127(4)
C13Z C 0.6627(5) 0.1455(5) 0.9935(4)
C13UA C 0.7435(5) 0.1045(5) 1.0873(4)
C14U C 0.7114(5) 0.1002(5) 0.7570(8)
C14Z C 0.5070(5) 0.1498(5) 1.0386(8)
C14UA C 0.7886(5) 0.1002(5) 1.2430(8)
C15U C 0.7858(6) 0.1845(5) 0.8288(5)
C15Z C 0.5788(6) 0.0655(5) 0.9642(5)
C15UA C 0.7142(6) 0.1845(5) 1.1712(5)
C16U C 0.6386(5) 0.1142(5) 0.8544(6)
C16Z C 0.6044(5) 0.1358(5) 1.1114(6)
C16UA C 0.8614(5) 0.1142(5) 1.1456(6)
O1U O 0.7591(3) 0.1426(3) 0.9189(4)
O1Z O 0.6689(3) 0.1074(3) 0.9909(4)
O1UA O 0.7409(3) 0.1426(3) 1.0811(4)
O2U O 0.7525(3) 0.0776(3) 0.9445(3)
O2Z O 0.6945(3) 0.1724(3) 0.9975(3)
O2UA O 0.7475(3) 0.0776(3) 1.0555(3)
O3U O 0.6760(7) 0.1003(7) 0.7538(5)
O3Z O 0.5038(7) 0.1497(7) 1.0740(5)
O3UA O 0.8240(7) 0.1003(7) 1.2462(5)
O4U O 0.7277(7) 0.119(1) 0.7307(6)
O4Z O 0.4807(7) 0.131(1) 1.0223(6)
O4UA O 0.7723(7) 0.119(1) 1.2693(6)
O5U O 0.8033(4) 0.1604(4) 0.8036(4)
O5Z O 0.5536(4) 0.0896(4) 0.9467(4)
O5UA O 0.6967(4) 0.1604(4) 1.1964(4)
O5H O 1.0896(4) 0.0533(4) 0.9464(4)
O5S O 0.6964(4) 0.1967(4) 0.6604(4)
O5GA O 0.4104(4) 0.0533(4) 1.0536(4)
O5PA O 0.8036(4) 0.1967(4) 1.3396(4)
O6U O 0.8053(4) 0.2114(5) 0.8499(5)
O6Z O 0.5999(4) 0.0386(5) 0.9447(5)
O6UA O 0.6947(4) 0.2114(5) 1.1501(5)
O6H O 1.0386(4) 0.0553(5) 0.9001(5)
O6S O 0.6501(4) 0.1947(5) 0.7114(5)
O6GA O 0.4614(4) 0.0553(5) 1.0999(5)
O6PA O 0.8499(4) 0.1947(5) 1.2886(5)
O7U O 0.6003(4) 0.1196(4) 0.8506(4)
O7Z O 0.6006(4) 0.1304(4) 1.1497(4)
O7UA O 0.8997(4) 0.1196(4) 1.1494(4)
O7MA O 1.1196(4) 0.1494(4) 0.8997(4)
O7F O 0.6497(4) 0.1006(4) 0.6304(4)
O7L O 0.3804(4) 0.1494(4) 1.1003(4)
O7CA O 0.8503(4) 0.1006(4) 1.3696(4)
O8U O 0.6546(4) 0.0793(3) 0.8682(3)
O8Z O 0.6182(4) 0.1707(3) 1.0954(3)
O8UA O 0.8454(4) 0.0793(3) 1.1318(3)
O8MA O 1.0793(4) 0.1318(3) 0.8454(3)
O8F O 0.5954(4) 0.1182(3) 0.6707(3)
O8L O 0.4207(4) 0.1318(3) 1.1546(3)
O8CA O 0.9046(4) 0.1182(3) 1.3293(3)
#END
