
#######################################################################
#
#                 Cambridge Crystallographic Data Centre
#                                CCDC
#
#######################################################################
#
# If this CIF has been generated from an entry in the Cambridge
# Structural Database, then it will include bibliographic, chemical,
# crystal, experimental, refinement or atomic coordinate data resulting
# from the CCDC's data processing and validation procedures.
#
#######################################################################

data_CSD_CIF_QAVBOG
_audit_creation_date 2012-06-19
_audit_creation_method CSD-ConQuest-V1
_database_code_CSD QAVBOG
_database_code_depnum_ccdc_archive 'CCDC 768809'
_chemical_formula_sum 'C26 H28 Cd1 N2 O9'
_chemical_formula_moiety
;
(C2 H8 N1 1+)2n,n(C22 H12 Cd1 O9 2-)
;
_journal_coden_Cambridge 1295
_journal_volume 15
_journal_year 2012
_journal_page_first 256
_journal_name_full 'Inorg.Chem.Commun. '
loop_
_publ_author_name
"Fei-Long Hu"
"Xian-Hong Yin"
_chemical_name_systematic
;
catena-[bis(Dimethylammonium) 
(\m~2~-4,4'-oxydibenzoato)-(\m~2~-terephthalato)-cadmium(ii)]
;
_cell_volume   2899.023
_exptl_crystal_colour 'colorless'
_exptl_crystal_density_diffrn 1.432
_exptl_crystal_description 'block'
_diffrn_ambient_temperature 296
#These two values have been output from a single CSD field.
_refine_ls_R_factor_gt 0.0419
_refine_ls_wR_factor_gt 0.0419
_symmetry_cell_setting orthorhombic
_symmetry_space_group_name_H-M 'P 21 21 21'
_symmetry_Int_Tables_number 19
loop_
_symmetry_equiv_pos_site_id
_symmetry_equiv_pos_as_xyz
1 x,y,z
2 1/2-x,-y,1/2+z
3 -x,1/2+y,1/2-z
4 1/2+x,1/2-y,-z
_cell_length_a 13.5289(6)
_cell_length_b 13.9881(6)
_cell_length_c 15.3190(7)
_cell_angle_alpha 90
_cell_angle_beta 90
_cell_angle_gamma 90
_cell_formula_units_Z 4
loop_
_atom_type_symbol
_atom_type_radius_bond
C 0.68
H 0.23
Cd 1.48
N 0.68
O 0.68
loop_
_atom_site_label
_atom_site_type_symbol
_atom_site_fract_x
_atom_site_fract_y
_atom_site_fract_z
Cd1 Cd 0.53457(3) 0.79392(3) 0.14360(3)
O1 O 0.5767(3) 0.6243(3) 0.1390(3)
O2 O 0.6629(3) 0.8015(4) 0.2542(3)
C1 C 0.5349(5) 0.5227(4) 0.0185(4)
C2 C 0.6453(5) 0.8875(5) 0.2647(4)
C3 C 0.8228(4) 1.0530(5) 0.4409(4)
C4 C 0.2443(4) 0.2133(5) -0.2261(4)
O3 O 0.5769(3) 0.9292(3) 0.2250(3)
C5 C 0.5308(5) 0.6177(4) 0.0659(4)
O4 O 0.4868(3) 0.6846(3) 0.0316(3)
C6 C 0.7086(4) 0.9457(4) 0.3254(4)
C7 C 0.1488(5) 0.2049(6) -0.2757(5)
C8 C 0.5255(5) 0.3475(4) -0.0614(5)
C9 C 0.7424(5) 1.0927(5) 0.3989(5)
H1 H 0.72480 1.15570 0.41040
C10 C 0.6881(5) 1.0403(5) 0.3405(5)
H2 H 0.63650 1.06940 0.31050
C11 C 0.8807(5) 1.1105(5) 0.5058(4)
O5 O 0.1439(4) 0.1519(4) -0.3407(4)
O6 O 0.0773(4) 0.2511(4) -0.2492(3)
C12 C 0.4184(5) 0.1821(6) -0.2112(6)
H3 H 0.47520 0.15120 -0.23040
C13 C 0.7908(5) 0.9063(5) 0.3655(6)
H4 H 0.80820 0.84320 0.35400
C14 C 0.8469(5) 0.9601(5) 0.4222(5)
H5 H 0.90210 0.93280 0.44830
C15 C 0.4209(5) 0.2427(5) -0.1398(6)
C16 C 0.2496(5) 0.2718(5) -0.1547(5)
H6 H 0.19270 0.30190 -0.13460
O7 O 0.5130(3) 0.2583(3) -0.1024(4)
C17 C 0.3384(5) 0.2870(7) -0.1119(5)
H7 H 0.34100 0.32760 -0.06390
C18 C 0.3278(6) 0.1687(5) -0.2535(5)
H8 H 0.32470 0.12820 -0.30160
C19 C 0.5148(6) 0.5161(5) -0.0671(5)
H9 H 0.50450 0.57160 -0.09930
O8 O 0.9666(4) 1.0897(3) 0.5233(3)
O9 O 0.8353(3) 1.1773(3) 0.5439(3)
N1 N 0.3330(5) 0.7903(9) 0.9428(6)
H10 H 0.28110 0.75210 0.95440
H11 H 0.38010 0.77730 0.98260
C20 C 0.5551(6) 0.4393(5) 0.0643(5)
H12 H 0.57190 0.44210 0.12310
C21 C 0.5501(6) 0.3525(5) 0.0222(6)
H13 H 0.56420 0.29670 0.05290
C22 C 0.5094(7) 0.4286(6) -0.1080(5)
H14 H 0.49470 0.42510 -0.16720
N2 N 0.5864(9) 0.5639(6) 0.3153(5)
H15 H 0.56330 0.58700 0.26440
H16 H 0.57280 0.50090 0.31650
C23 C 0.5344(10) 0.6075(7) 0.3828(8)
H17 H 0.54690 0.57400 0.43640
H18 H 0.46500 0.60580 0.37020
H19 H 0.55560 0.67270 0.38850
C24 C 0.3725(9) 0.7647(11) 0.8540(8)
H20 H 0.32480 0.78150 0.81030
H21 H 0.38520 0.69720 0.85160
H22 H 0.43280 0.79900 0.84360
C25 C 0.3027(9) 0.8860(9) 0.9544(9)
H23 H 0.35570 0.92810 0.93840
H24 H 0.28540 0.89630 1.01450
H25 H 0.24630 0.89860 0.91820
C26 C 0.6940(9) 0.5756(8) 0.3162(9)
H26 H 0.71020 0.64180 0.30810
H27 H 0.72260 0.53860 0.26980
H28 H 0.71980 0.55400 0.37110
Cd1A Cd -0.03457(3) 0.20608(3) -0.35640(3)
Cd1A* Cd 0.96543(3) 1.20608(3) 0.64360(3)
O5A O 0.3561(4) 0.8481(4) 0.1593(4)
O6A O 0.4227(4) 0.7489(4) 0.2508(3)
O8A O 0.5334(4) 0.9103(3) 0.0233(3)
O9A O 0.6647(3) 0.8227(3) 0.0439(3)
#END
