
#######################################################################
#
#                 Cambridge Crystallographic Data Centre
#                                CCDC
#
#######################################################################
#
# If this CIF has been generated from an entry in the Cambridge
# Structural Database, then it will include bibliographic, chemical,
# crystal, experimental, refinement or atomic coordinate data resulting
# from the CCDC's data processing and validation procedures.
#
#######################################################################

data_CSD_CIF_QAVFOK
_audit_creation_date 2012-06-19
_audit_creation_method CSD-ConQuest-V1
_database_code_CSD QAVFOK
_database_code_depnum_ccdc_archive 'CCDC 841906'
_chemical_formula_sum 'C120 H179 Cu12 Mo24 N48 O83'
_chemical_formula_moiety
;
(H3 O1 1+)3n,n(C120 H170 Cu12 Mo24 N48 O80 3-)
;
_journal_coden_Cambridge 1295
_journal_volume 15
_journal_year 2012
_journal_page_first 305
_journal_name_full 'Inorg.Chem.Commun. '
loop_
_publ_author_name
"Yi-Ming Xie"
"Ji-Huai Wu"
_chemical_name_systematic
;
catena-[tris(Oxonium) 
tetrakis(\m~4~-oxo)-hexadecakis(\m~3~-oxo)-dodecakis(\m~2~-3,3',5,5'-tetrameth
yl-1H,1'H-4,4'-bipyrazole)-icosakis(\m~2~-oxo)-diaqua-octatriaconta-oxo-dodeca
-copper(i)-tetracosa-molybdenum]
;
_cell_volume  10009.806
_exptl_crystal_colour 'yellow'
_exptl_crystal_density_diffrn 2.224
_exptl_special_details
;
Large structure in which program limits have been exceeded. The 2D 
representation shows one of two independent polymeric units. The sum formula 
has 1.5(H2 Mo8 O28)6- and 1.5(Mo8 O26)4- metal complexes per 12 copper 
cations
;
_exptl_crystal_description 'block'
_diffrn_ambient_temperature 293
#These two values have been output from a single CSD field.
_refine_ls_R_factor_gt 0.0627
_refine_ls_wR_factor_gt 0.0627
_symmetry_cell_setting triclinic
_symmetry_space_group_name_H-M 'P -1'
_symmetry_Int_Tables_number 2
loop_
_symmetry_equiv_pos_site_id
_symmetry_equiv_pos_as_xyz
1 x,y,z
2 -x,-y,-z
_cell_length_a 20.0534(3)
_cell_length_b 24.1087(1)
_cell_length_c 24.2218(1)
_cell_angle_alpha 117.760(4)
_cell_angle_beta 98.364(7)
_cell_angle_gamma 96.981(5)
_cell_formula_units_Z 2
loop_
_atom_type_symbol
_atom_type_radius_bond
C 0.68
H 0.23
Cu 1.32
Mo 1.40
N 0.68
O 0.68
loop_
_atom_site_label
_atom_site_type_symbol
_atom_site_fract_x
_atom_site_fract_y
_atom_site_fract_z
Mo1 Mo 0.55479(4) 0.73021(3) 0.18012(3)
Mo2 Mo 0.43734(3) 0.82431(3) 0.20557(3)
Mo3 Mo 0.55942(4) 0.84240(3) 0.12746(3)
Mo4 Mo 0.33660(4) 0.79408(3) 0.05651(3)
Mo5 Mo 0.65609(4) 0.87199(3) 0.27732(3)
Mo6 Mo 0.44076(4) 0.93622(3) 0.15257(3)
Mo7 Mo 0.61334(4) 0.99311(3) 0.26276(4)
Mo8 Mo 0.38227(4) 0.67569(3) 0.07276(3)
Mo9 Mo 0.82057(4) 0.71962(3) 1.11521(3)
Mo10 Mo 1.17478(4) 0.94683(3) 1.21855(3)
Mo11 Mo 1.09299(4) 0.93532(3) 1.32177(3)
Mo12 Mo 0.90305(4) 0.73138(3) 1.01304(3)
Mo13 Mo 1.03537(4) 0.84924(3) 1.06217(3)
Mo14 Mo 0.92557(3) 0.86371(3) 1.16634(3)
Mo15 Mo 1.07048(3) 0.80195(3) 1.16771(3)
Mo16 Mo 0.96113(4) 0.81579(3) 1.27140(3)
Mo17 Mo 0.12000(4) 0.59301(3) 0.65765(3)
Mo18 Mo 0.15954(4) 0.60667(3) 0.53687(3)
Mo19 Mo -0.05323(4) 0.48831(3) 0.60397(3)
Mo20 Mo 0.06084(3) 0.45920(3) 0.50844(3)
Mo21 Mo 0.59413(4) 0.65307(3) 1.60559(3)
Mo22 Mo 0.67419(4) 0.54846(3) 1.61960(3)
Mo23 Mo 0.46502(4) 0.60671(3) 1.48352(3)
Mo24 Mo 0.57438(3) 0.50045(3) 1.47276(3)
Cu1 Cu 1.05354(6) 0.69822(5) 1.24771(5)
Cu2 Cu 0.85880(7) 0.27256(6) 1.08723(7)
Cu3 Cu 0.58022(6) -0.08944(5) 1.01013(5)
Cu4 Cu 1.34474(7) 0.74921(7) 1.59677(6)
Cu5 Cu 0.93782(6) 0.96169(5) 1.08074(5)
Cu6 Cu 0.64118(6) 0.90077(6) 0.72662(5)
Cu7 Cu 0.40814(6) 0.74969(5) 0.31552(5)
Cu8 Cu 1.12636(7) 1.38364(5) 1.23197(6)
Cu9 Cu 0.37619(7) 0.42856(6) 0.94354(5)
Cu10 Cu 0.08760(6) 0.34351(5) 0.57882(5)
Cu11 Cu -0.15618(7) -0.06324(5) 0.42321(6)
Cu12 Cu 0.55773(6) 0.58723(5) 1.37144(5)
O1 O 0.6858(4) 1.0255(3) 0.2520(4)
O2 O 0.7386(4) -0.1248(4) 1.1191(4)
H1 H 0.70050 -0.14750 1.12550
H2 H 0.75170 -0.15340 1.08090
H3 H 0.77700 -0.10830 1.15520
O3 O 0.3624(4) 0.7106(3) 0.0205(3)
O4 O 1.2453(4) 0.4486(4) -0.4594(4)
H4 H 1.20880 0.45810 -0.48180
H5 H 1.28590 0.48210 -0.44330
H6 H 1.25510 0.40840 -0.48820
O5 O 0.3107(4) 0.6412(3) 0.0826(4)
O6 O 0.2524(4) 0.7789(4) 0.2048(4)
H7 H 0.28100 0.79000 0.18130
H8 H 0.20480 0.76760 0.18290
H9 H 0.25920 0.81500 0.24700
O7 O 0.4511(4) 0.9424(3) 0.0882(3)
O8 O 0.6293(4) 0.9558(3) 0.3131(3)
O9 O 0.5785(3) -0.1429(3) 1.0692(3)
O10 O 0.3583(3) 0.8097(3) -0.0007(3)
O11 O 0.5848(4) 1.0565(3) 0.3123(3)
O12 O 0.4254(4) 1.0079(3) 0.2044(3)
O13 O 0.4164(4) 0.6146(3) 0.0253(3)
O14 O 0.6326(3) 0.8561(3) 0.3339(2)
O15 O 0.5414(3) 0.9490(3) 0.1886(3)
O16 O 0.5459(3) 0.7204(3) 0.2431(3)
O17 O 0.5343(3) 0.8277(2) 0.2168(2)
O18 O 0.4165(3) 0.8104(3) 0.2646(3)
O19 O 0.5677(3) 0.6591(3) 0.1238(3)
O20 O 0.2499(3) 0.7732(3) 0.0366(3)
O21 O 0.5609(3) 0.7632(3) 0.1003(2)
O22 O 0.4348(3) 0.9044(3) 0.2322(2)
O23 O 0.4541(3) 0.7215(3) 0.1478(2)
O24 O 0.7419(3) 0.8924(3) 0.2988(3)
O25 O 0.4639(3) 0.8390(2) 0.1181(2)
O26 O 0.6364(3) 0.8873(3) 0.1954(3)
O27 O 0.3490(3) 0.8827(3) 0.1217(2)
O28 O 0.6460(3) 0.7836(3) 0.2121(2)
O29 O 0.3594(3) 0.7786(3) 0.1374(2)
O30 O 0.7407(4) 0.7022(4) 1.0669(3)
O31 O 1.2532(4) 0.9644(4) 1.2661(4)
O32 O 1.0466(4) 0.9168(3) 1.0548(3)
O33 O 0.9519(4) 0.7482(3) 1.2789(3)
O34 O 0.8160(4) 0.6666(3) 1.1421(3)
O35 O 1.1778(4) 0.9992(3) 1.1904(3)
O36 O 0.9499(3) 0.6799(3) 0.9719(3)
O37 O 0.7743(3) 0.7876(3) 1.1884(3)
H10 H 0.73360 0.77160 1.18220
O38 O 1.2222(3) 0.8788(3) 1.1462(3)
H11 H 1.26260 0.89540 1.15210
O39 O 0.9101(3) 0.8609(3) 1.3163(3)
O40 O 1.0831(3) 0.8010(3) 1.0161(3)
O41 O 0.8277(3) 0.7104(3) 0.9590(3)
O42 O 0.9450(3) 0.8063(3) 1.0106(2)
O43 O 1.1688(3) 0.9565(3) 1.3753(3)
O44 O 1.0471(3) 0.9878(3) 1.3638(3)
O45 O 1.0312(3) 0.7570(2) 1.1982(2)
O46 O 1.0513(3) 0.8597(3) 1.3232(2)
O47 O 0.8766(3) 0.6856(2) 1.0576(3)
O48 O 0.9652(3) 0.9083(2) 1.1357(2)
O49 O 1.1187(3) 0.9804(2) 1.2755(3)
O50 O 0.8766(3) 0.9104(3) 1.2134(3)
O51 O 1.1181(3) 0.7542(3) 1.1201(3)
O52 O 1.0949(3) 0.8784(2) 1.1453(2)
O53 O 1.0040(2) 0.8744(2) 1.2306(2)
O54 O 0.9008(3) 0.7877(2) 1.1881(2)
O55 O 1.1367(3) 0.8643(2) 1.2404(2)
O56 O 0.9918(2) 0.7914(2) 1.1037(2)
O57 O 0.8590(3) 0.8014(2) 1.0935(2)
O58 O 0.1926(4) 0.5799(4) 0.6902(3)
O59 O 0.1344(3) 0.6638(3) 0.5216(3)
O60 O 0.1386(3) 0.5251(3) 0.5515(3)
O61 O 0.1376(4) 0.6443(3) 0.6216(3)
O62 O -0.0448(3) 0.4251(3) 0.6129(3)
O63 O 0.0474(3) 0.5191(3) 0.6128(3)
O64 O -0.0643(3) 0.5452(3) 0.6756(3)
O65 O 0.0605(3) 0.4310(2) 0.4287(3)
O66 O 0.0907(4) 0.6423(3) 0.7213(3)
O67 O 0.1452(3) 0.5404(2) 0.4475(3)
O68 O 0.2471(3) 0.6255(3) 0.5557(3)
O69 O 0.0360(3) 0.5490(2) 0.4944(2)
O70 O 0.0813(3) 0.3995(3) 0.5217(3)
O71 O 0.6751(3) 0.5177(3) 1.6699(3)
O72 O 0.7547(3) 0.5971(3) 1.6440(3)
O73 O 0.7251(3) 0.4777(3) 1.5546(3)
H12 H 0.70530 0.46470 1.51740
O74 O 0.4151(3) 0.6537(3) 1.5275(3)
O75 O 0.6705(3) 0.7047(3) 1.6283(3)
O76 O 0.4589(4) 0.6159(3) 1.4171(3)
O77 O 0.5377(3) 0.5323(2) 1.4270(2)
O78 O 0.5552(3) 0.6564(2) 1.5303(3)
O79 O 0.5472(3) 0.6968(3) 1.6563(3)
O80 O 0.6162(3) 0.6054(3) 1.6509(2)
O81 O 0.6243(3) 0.4532(3) 1.4292(3)
O82 O 0.5055(3) 0.5634(2) 1.5416(2)
O83 O 0.6393(3) 0.5720(2) 1.5382(2)
O84 O 0.4046(3) 0.5241(2) 1.4522(2)
N1 N 1.1289(4) 0.7520(3) 1.3199(3)
N2 N 1.1810(4) 0.7950(3) 1.3212(3)
H13 H 1.18190 0.80450 1.29120
N3 N 1.3057(4) 0.7819(4) 1.5462(3)
N4 N 1.3065(4) 0.8453(4) 1.5712(3)
H14 H 1.32540 0.87340 1.61050
N5 N 0.9991(4) 0.6161(3) 1.1829(3)
N6 N 0.9443(4) 0.6097(3) 1.1382(3)
H15 H 0.93260 0.64100 1.13430
N7 N 0.8929(4) 0.3433(3) 1.0793(4)
N8 N 0.9081(4) 0.3386(3) 1.0243(3)
H16 H 0.90290 0.30290 0.98950
N9 N 0.8239(4) 0.2397(3) 1.1781(4)
H17 H 0.84370 0.27780 1.20830
N10 N 0.8218(4) 0.2180(3) 1.1149(3)
N11 N 0.7074(4) -0.0199(4) 1.1051(3)
H18 H 0.71100 -0.05250 1.11020
N12 N 0.6526(4) -0.0178(3) 1.0664(3)
N13 N 0.5147(4) -0.1502(3) 0.9347(3)
N14 N 0.4585(4) -0.1899(3) 0.9330(3)
H19 H 0.44910 -0.19070 0.96620
N15 N 1.3837(4) 0.7402(4) 1.6658(3)
N16 N 1.3981(4) 0.6850(4) 1.6620(3)
H20 H 1.38950 0.64900 1.62690
N17 N 0.9905(4) 1.0446(3) 1.1455(3)
N18 N 1.0432(4) 1.0541(3) 1.1927(3)
H21 H 1.05520 1.02380 1.19860
N19 N 1.0814(4) 1.3161(3) 1.2416(3)
N20 N 1.0691(4) 1.3234(3) 1.2979(4)
H22 H 1.07250 1.36000 1.33120
N21 N 0.8124(4) 0.8648(3) 1.0063(3)
H23 H 0.81260 0.85380 1.03540
N22 N 0.8628(4) 0.9091(3) 1.0095(3)
N23 N 0.6980(4) 0.8114(3) 0.7523(3)
H24 H 0.68380 0.78310 0.71240
N24 N 0.6899(4) 0.8731(3) 0.7777(3)
N25 N 0.5942(4) 0.9120(3) 0.6607(3)
N26 N 0.5834(4) 0.9683(3) 0.6670(3)
H25 H 0.59270 1.00340 0.70300
N27 N 0.4726(3) 0.8109(3) 0.3917(3)
N28 N 0.5254(4) 0.8555(3) 0.3971(3)
H26 H 0.53440 0.85940 0.36530
N29 N 0.3365(4) 0.6773(3) 0.2601(3)
N30 N 0.2824(4) 0.6761(3) 0.2188(3)
H27 H 0.27730 0.70740 0.21190
N31 N 1.1766(4) 1.4357(3) 1.2071(3)
N32 N 1.1885(4) 1.4136(3) 1.1472(3)
H28 H 1.17650 1.37400 1.11760
N33 N 0.4543(3) 0.4733(3) 1.2783(3)
H29 H 0.44170 0.46820 1.30840
N34 N 0.5065(3) 0.5221(3) 1.2884(3)
N35 N 0.4294(4) 0.3655(4) 1.0105(3)
H30 H 0.42640 0.33120 0.97500
N36 N 0.4132(4) 0.4205(4) 1.0146(3)
N37 N 0.3325(4) 0.4533(3) 0.8875(3)
N38 N 0.3304(5) 0.5160(4) 0.9082(4)
H31 H 0.34850 0.54630 0.94670
N39 N 0.1599(4) 0.4008(3) 0.6504(3)
N40 N 0.2130(4) 0.4389(4) 0.6481(4)
H32 H 0.21510 0.44360 0.61530
N41 N 0.0223(4) 0.2687(3) 0.5184(3)
N42 N -0.0335(3) 0.2666(3) 0.4778(3)
H33 H -0.04330 0.29960 0.47610
N43 N -0.1096(4) 0.0011(3) 0.4122(3)
N44 N -0.1011(4) -0.0038(3) 0.3563(3)
H34 H -0.11330 -0.03900 0.32030
N45 N -0.2052(4) -0.0844(3) 0.5172(3)
H35 H -0.18930 -0.04450 0.54500
N46 N -0.2018(4) -0.1105(3) 0.4546(3)
N47 N 0.6857(4) 0.6633(4) 1.4682(4)
H36 H 0.68820 0.63390 1.47860
N48 N 0.6323(4) 0.6605(3) 1.4246(3)
C1 C 1.0993(4) 0.7094(4) 1.3891(4)
H37 H 1.05810 0.68740 1.35550
H38 H 1.08720 0.73580 1.42870
H39 H 1.12260 0.67860 1.39320
C2 C 1.1458(4) 0.7506(3) 1.3733(4)
C3 C 1.2118(4) 0.7913(4) 1.4096(4)
C4 C 1.2307(5) 0.8208(4) 1.3753(4)
C5 C 1.2927(5) 0.8688(5) 1.3867(5)
H40 H 1.28800 0.87870 1.35250
H41 H 1.33310 0.85150 1.38850
H42 H 1.29700 0.90720 1.42660
C6 C 1.2610(5) 0.6849(4) 1.4419(4)
H43 H 1.28000 0.66580 1.46580
H44 H 1.28490 0.67830 1.40840
H45 H 1.21290 0.66550 1.42330
C7 C 1.2693(4) 0.7549(4) 1.4853(4)
C8 C 1.2493(5) 0.8023(4) 1.4720(4)
C9 C 1.2746(5) 0.8599(4) 1.5281(4)
C10 C 1.2693(6) 0.9266(4) 1.5470(5)
H46 H 1.29380 0.95450 1.59080
H47 H 1.22170 0.92930 1.54260
H48 H 1.28910 0.93950 1.51980
C11 C 1.0526(5) 0.5448(5) 1.2143(5)
H49 H 1.08260 0.58480 1.24660
H50 H 1.07930 0.51720 1.18820
H51 H 1.02980 0.52450 1.23450
C12 C 0.9999(4) 0.5571(4) 1.1732(4)
C13 C 0.9464(4) 0.5119(4) 1.1208(3)
C14 C 0.9103(5) 0.5467(4) 1.1004(4)
C15 C 0.8481(6) 0.5269(5) 1.0485(5)
H52 H 0.83670 0.56410 1.04790
H53 H 0.81010 0.50510 1.05610
H54 H 0.85720 0.49850 1.00800
C16 C 0.8971(6) 0.4308(5) 1.1874(5)
H55 H 0.88010 0.39520 1.19300
H56 H 0.86510 0.45860 1.19560
H57 H 0.94110 0.45420 1.21660
C17 C 0.9052(5) 0.4064(4) 1.1203(4)
C18 C 0.9291(4) 0.4420(4) 1.0918(4)
C19 C 0.9320(4) 0.3958(4) 1.0311(4)
C20 C 0.9601(5) 0.4027(4) 0.9807(4)
H58 H 0.95420 0.36110 0.94390
H59 H 1.00830 0.42270 0.99690
H60 H 0.93600 0.42890 0.96860
C21 C 0.7860(7) 0.2074(5) 1.2537(5)
H61 H 0.80910 0.25090 1.28430
H62 H 0.80730 0.17860 1.26370
H63 H 0.73830 0.20130 1.25550
C22 C 0.7910(6) 0.1940(5) 1.1872(4)
C23 C 0.7662(5) 0.1395(4) 1.1282(4)
C24 C 0.7876(4) 0.1561(4) 1.0847(4)
C25 C 0.7795(5) 0.1158(4) 1.0149(4)
H64 H 0.79950 0.14120 0.99820
H65 H 0.73130 0.09910 0.99450
H66 H 0.80230 0.08090 1.00670
C26 C 0.8190(5) 0.0453(5) 1.1817(5)
H67 H 0.81930 0.00720 1.18490
H68 H 0.81950 0.08060 1.22280
H69 H 0.85900 0.05490 1.16760
C27 C 0.7554(4) 0.0351(4) 1.1345(4)
C28 C 0.7304(5) 0.0746(4) 1.1130(4)
C29 C 0.6663(4) 0.0404(4) 1.0724(4)
C30 C 0.6140(5) 0.0586(5) 1.0363(5)
H70 H 0.57480 0.02340 1.01220
H71 H 0.63430 0.06860 1.00760
H72 H 0.59940 0.09540 1.06610
C31 C 0.3538(5) -0.2726(5) 0.8570(4)
H73 H 0.34450 -0.27040 0.89570
H74 H 0.35710 -0.31550 0.82810
H75 H 0.31700 -0.26110 0.83730
C32 C 0.4195(4) -0.2278(4) 0.8725(4)
C33 C 0.4538(4) -0.2146(4) 0.8336(4)
C34 C 0.5114(5) -0.1659(4) 0.8738(4)
C35 C 0.5645(5) -0.1322(6) 0.8567(5)
H76 H 0.59760 -0.10040 0.89490
H77 H 0.54280 -0.11170 0.83550
H78 H 0.58740 -0.16260 0.82860
C36 C 1.4540(6) 0.6418(4) 1.7268(4)
H79 H 1.44330 0.60300 1.68620
H80 H 1.43310 0.63420 1.75660
H81 H 1.50310 0.65530 1.74300
C37 C 1.4266(4) 0.6931(4) 1.7186(4)
C38 C 0.4294(4) -0.2440(4) 0.7630(3)
C39 C 1.4034(5) 0.7837(4) 1.7285(4)
C40 C 1.3982(6) 0.8516(4) 1.7520(5)
H82 H 1.37820 0.85660 1.71660
H83 H 1.44340 0.87890 1.77220
H84 H 1.36960 0.86310 1.78250
C41 C 1.1340(6) 1.1375(4) 1.2836(4)
H85 H 1.14710 1.10100 1.28490
H86 H 1.12160 1.16430 1.32290
H87 H 1.17220 1.16140 1.27840
C42 C 1.0742(4) 1.1153(4) 1.2289(4)
C43 C 1.0374(4) 1.1493(4) 1.2076(3)
C44 C 0.9858(4) 1.1027(4) 1.1539(4)
C45 C 0.9339(5) 1.1105(4) 1.1086(5)
H88 H 0.90600 1.06920 1.07690
H89 H 0.95740 1.12980 1.08790
H90 H 0.90500 1.13750 1.13180
C46 C 1.0313(6) 1.2624(4) 1.3495(4)
H91 H 1.03710 1.30480 1.38500
H92 H 1.06000 1.23910 1.36180
H93 H 0.98380 1.24040 1.33700
C47 C 1.0510(5) 1.2668(4) 1.2951(4)
C48 C 1.0513(5) 1.2196(4) 1.2339(4)
C49 C 1.0691(4) 1.2528(4) 1.2018(4)
C50 C 1.0756(5) 1.2274(4) 1.1341(4)
H94 H 1.08850 1.26260 1.12670
H95 H 1.03220 1.20100 1.10550
H96 H 1.11040 1.20230 1.12660
C51 C 0.6983(5) 0.7909(5) 0.9399(5)
H97 H 0.70130 0.78070 0.97390
H98 H 0.69510 0.75270 0.90010
H99 H 0.65820 0.80830 0.93690
C52 C 0.7618(4) 0.8397(4) 0.9535(4)
C53 C 0.7815(4) 0.8695(4) 0.9191(4)
C54 C 0.8445(4) 0.9129(4) 0.9563(4)
C55 C 0.8892(4) 0.9562(4) 0.9419(4)
H100 H 0.92910 0.98010 0.97670
H101 H 0.86380 0.98530 0.93660
H102 H 0.90360 0.93100 0.90320
C56 C 0.7464(5) 0.7354(4) 0.7791(4)
H103 H 0.72840 0.70740 0.73390
H104 H 0.72510 0.71790 0.80230
H105 H 0.79540 0.73930 0.78930
C57 C 0.7310(4) 0.8002(3) 0.7976(4)
C58 C 0.7442(4) 0.8568(4) 0.8544(3)
C59 C 0.7199(4) 0.9016(4) 0.8401(3)
C60 C 0.7187(5) 0.9698(4) 0.8838(4)
H106 H 0.69860 0.98780 0.85920
H107 H 0.76500 0.99370 0.90630
H108 H 0.69170 0.97170 0.91400
C61 C 0.5772(6) 0.8013(4) 0.5728(4)
H109 H 0.59520 0.79510 0.60800
H110 H 0.60690 0.78980 0.54320
H111 H 0.53170 0.77480 0.55130
C62 C 0.5740(5) 0.8689(4) 0.5970(4)
C63 C 0.5517(4) 0.9013(4) 0.5647(4)
C64 C 0.5566(5) 0.9633(4) 0.6105(4)
C65 C 0.5371(6) 1.0201(4) 0.6069(5)
H112 H 0.51890 1.00790 0.56290
H113 H 0.57710 1.05430 0.62440
H114 H 0.50270 1.03420 0.63100
C66 C 0.4234(5) 0.7826(5) 0.4649(5)
H115 H 0.39220 0.75030 0.42560
H116 H 0.39790 0.80990 0.49280
H117 H 0.44710 0.76230 0.48530
C67 C 0.4748(4) 0.8217(4) 0.4509(4)
C68 C 0.5294(4) 0.8731(4) 0.4941(3)
C69 C 0.5617(4) 0.8928(4) 0.4577(4)
C70 C 0.6252(5) 0.9440(4) 0.4760(4)
H118 H 0.63350 0.94500 0.43840
H119 H 0.66440 0.93460 0.49520
H120 H 0.61820 0.98510 0.50600
C71 C 0.3760(5) 0.6038(4) 0.2944(5)
H121 H 0.41360 0.64030 0.32040
H122 H 0.39340 0.56820 0.26610
H123 H 0.35400 0.59250 0.32150
C72 C 0.3249(4) 0.6199(4) 0.2559(4)
C73 C 0.2636(4) 0.5818(4) 0.2126(4)
C74 C 0.2381(4) 0.6198(4) 0.1905(4)
C75 C 0.1757(5) 0.6064(5) 0.1410(5)
H124 H 0.17330 0.64420 0.13750
H125 H 0.13520 0.59430 0.15320
H126 H 0.17820 0.57200 0.10050
C76 C 1.2000(5) 1.5407(4) 1.3054(4)
H127 H 1.17760 1.51470 1.32050
H128 H 1.17460 1.57280 1.30830
H129 H 1.24610 1.56110 1.33120
C77 C 1.2027(4) 1.4997(4) 1.2379(3)
C78 C 0.2308(4) 0.5167(4) 0.1973(4)
C79 C 1.2211(5) 1.4607(4) 1.1399(4)
C80 C 1.2403(6) 1.4445(5) 1.0783(4)
H130 H 1.22440 1.39920 1.04920
H131 H 1.28960 1.45580 1.08550
H132 H 1.21940 1.46790 1.06010
C81 C 0.3645(5) 0.3810(4) 1.1931(4)
H133 H 0.35430 0.37750 1.22900
H134 H 0.37480 0.34160 1.16310
H135 H 0.32540 0.38930 1.17250
C82 C 0.4257(4) 0.4351(4) 1.2159(3)
C83 C 0.4591(4) 0.4581(3) 1.1826(3)
C84 C 0.5083(4) 0.5127(4) 1.2301(3)
C85 C 0.5586(5) 0.5582(5) 1.2224(4)
H136 H 0.58530 0.59100 1.26380
H137 H 0.53390 0.57750 1.20140
H138 H 0.58870 0.53520 1.19700
C86 C 0.4705(6) 0.3153(4) 1.0716(4)
H139 H 0.46710 0.28060 1.02930
H140 H 0.44040 0.30140 1.09230
H141 H 0.51720 0.32800 1.09600
C87 C 0.4500(5) 0.3710(4) 1.0673(4)
C88 C 0.4455(4) 0.4317(4) 1.1135(4)
C89 C 0.4235(5) 0.4606(4) 1.0776(4)
C90 C 0.4120(6) 0.5283(4) 1.1026(5)
H142 H 0.39710 0.53510 1.06720
H143 H 0.45440 0.55840 1.12950
H144 H 0.37730 0.53420 1.12710
C91 C 0.2913(4) 0.3521(4) 0.7859(4)
H145 H 0.31190 0.33550 0.81180
H146 H 0.31460 0.34420 0.75190
H147 H 0.24340 0.33130 0.76810
C92 C 0.2976(4) 0.4216(4) 0.8258(4)
C93 C 0.2746(5) 0.4650(4) 0.8082(4)
C94 C 0.2975(6) 0.5255(4) 0.8627(5)
C95 C 0.2866(8) 0.5904(5) 0.8746(6)
H148 H 0.30900 0.62210 0.91790
H149 H 0.23800 0.58970 0.86780
H150 H 0.30560 0.60080 0.84560
C96 C 0.1249(5) 0.3722(5) 0.7274(4)
H151 H 0.08570 0.34680 0.69220
H152 H 0.10990 0.40260 0.76340
H153 H 0.14680 0.34470 0.73900
C97 C 0.1739(5) 0.4066(4) 0.7087(4)
C98 C 0.2375(5) 0.4486(4) 0.7434(4)
C99 C 0.2619(5) 0.4686(4) 0.7024(5)
C100 C 0.3234(6) 0.5159(5) 0.7132(5)
H154 H 0.32410 0.51760 0.67440
H155 H 0.36430 0.50340 0.72540
H156 H 0.32190 0.55750 0.74670
C101 C 0.0744(6) 0.1904(5) 0.5402(6)
H157 H 0.10780 0.22860 0.57150
H158 H 0.09690 0.16130 0.51020
H159 H 0.05320 0.17030 0.56130
C102 C 0.0201(4) 0.2079(4) 0.5052(4)
C103 C -0.0383(4) 0.1683(4) 0.4569(4)
C104 C -0.0715(4) 0.2069(4) 0.4410(4)
C105 C -0.1387(5) 0.1925(4) 0.3947(4)
H160 H -0.14650 0.23130 0.39540
H161 H -0.17580 0.17540 0.40710
H162 H -0.13650 0.16170 0.35220
C106 C -0.0856(6) 0.0875(4) 0.5249(4)
H163 H -0.10470 0.05280 0.53090
H164 H -0.11270 0.11970 0.53850
H165 H -0.03900 0.10590 0.54980
C107 C -0.0862(5) 0.0631(4) 0.4561(4)
C108 C -0.0631(4) 0.0978(4) 0.4270(4)
C109 C -0.0714(5) 0.0526(4) 0.3632(4)
C110 C -0.0487(5) 0.0597(4) 0.3100(4)
H166 H -0.06240 0.01920 0.27110
H167 H 0.00070 0.07370 0.32090
H168 H -0.06970 0.09090 0.30410
C111 C -0.2457(5) -0.1077(4) 0.5962(4)
H169 H -0.22570 -0.06270 0.62360
H170 H -0.22360 -0.13190 0.61260
H171 H -0.29410 -0.11540 0.59490
C112 C -0.2358(4) -0.1276(4) 0.5309(4)
C113 C -0.2539(4) -0.1854(3) 0.4732(3)
C114 C -0.2313(4) -0.1730(4) 0.4271(4)
C115 C -0.2358(5) -0.2167(4) 0.3591(4)
H172 H -0.21580 -0.19310 0.34050
H173 H -0.28330 -0.23590 0.33720
H174 H -0.21120 -0.24970 0.35500
C116 C 0.7973(6) 0.7310(5) 1.5417(5)
H175 H 0.79600 0.69660 1.55140
H176 H 0.79970 0.77040 1.58000
H177 H 0.83710 0.73490 1.52500
C117 C 0.7330(5) 0.7170(4) 1.4926(4)
C118 C -0.2892(4) -0.2492(4) 0.4630(4)
C119 C 0.6476(5) 0.7123(4) 1.4205(4)
C120 C 0.6002(5) 0.7257(4) 1.3770(5)
H178 H 0.56110 0.69040 1.35330
H179 H 0.62420 0.73120 1.34770
H180 H 0.58490 0.76420 1.40190
Mo1* Mo 0.55479(4) -0.26979(3) 1.18012(3)
Mo2* Mo 0.43734(3) -0.17569(3) 1.20557(3)
Mo3* Mo 0.55942(4) -0.15760(3) 1.12746(3)
Mo4* Mo 0.33660(4) -0.20592(3) 1.05651(3)
Mo5* Mo 0.65609(4) -0.12801(3) 1.27732(3)
Mo6* Mo 0.44076(4) -0.06378(3) 1.15257(3)
Mo7* Mo 0.61334(4) -0.00689(3) 1.26276(4)
Mo8* Mo 0.38227(4) -0.32431(3) 1.07276(3)
Mo18A Mo -0.15954(4) 0.39333(3) 0.46313(3)
Mo19A Mo 0.05323(4) 0.51169(3) 0.39603(3)
Mo20A Mo -0.06084(3) 0.54080(3) 0.49156(3)
Mo21A Mo 0.40587(4) 0.34693(3) 1.39441(3)
Mo22A Mo 0.32581(4) 0.45154(3) 1.38040(3)
Mo23A Mo 0.53498(4) 0.39329(3) 1.51648(3)
Mo24A Mo 0.42562(3) 0.49955(3) 1.52724(3)
Cu1* Cu 0.05354(6) -0.30178(5) 0.24771(5)
Cu3* Cu 1.58022(6) 0.91056(5) 2.01013(5)
Cu3** Cu 0.58022(6) 0.91056(5) 0.01013(5)
Cu4* Cu 0.34474(7) -0.25079(7) 0.59677(6)
Cu5* Cu -0.06218(6) -0.03831(5) 0.08074(5)
Cu7* Cu 1.40814(6) 1.74969(5) 1.31552(5)
Cu7** Cu 0.40814(6) -0.25031(5) 1.31552(5)
Cu8* Cu 0.12636(7) 0.38364(5) 0.23197(6)
O1* O 0.6858(4) 0.0255(3) 1.2520(4)
O3* O 0.3624(4) -0.2894(3) 1.0205(3)
O5* O 0.3107(4) -0.3588(3) 1.0826(4)
O7* O 0.4511(4) -0.0576(3) 1.0882(3)
O8* O 0.6293(4) -0.0442(3) 1.3131(3)
O9* O 0.5785(3) 0.8571(3) 0.0692(3)
O10* O 0.3583(3) -0.1903(3) 0.9993(3)
O11* O 0.5848(4) 0.0565(3) 1.3123(3)
O12* O 0.4254(4) 0.0079(3) 1.2044(3)
O13* O 0.4164(4) -0.3854(3) 1.0253(3)
O14* O 0.6326(3) -0.1439(3) 1.3339(2)
O15* O 0.5414(3) -0.0510(3) 1.1886(3)
O16* O 0.5459(3) -0.2796(3) 1.2431(3)
O17* O 0.5343(3) -0.1723(2) 1.2168(2)
O18* O 0.4165(3) -0.1896(3) 1.2646(3)
O19* O 0.5677(3) -0.3409(3) 1.1238(3)
O20* O 0.2499(3) -0.2268(3) 1.0366(3)
O21* O 0.5609(3) -0.2368(3) 1.1003(2)
O22* O 0.4348(3) -0.0956(3) 1.2322(2)
O23* O 0.4541(3) -0.2785(3) 1.1478(2)
O24* O 0.7419(3) -0.1076(3) 1.2988(3)
O25* O 0.4639(3) -0.1610(2) 1.1181(2)
O26* O 0.6364(3) -0.1127(3) 1.1954(3)
O27* O 0.3490(3) -0.1173(3) 1.1217(2)
O28* O 0.6460(3) -0.2164(3) 1.2121(2)
O29* O 0.3594(3) -0.2214(3) 1.1374(2)
O45* O 0.0312(3) -0.2430(2) 0.1982(2)
O48* O -0.0348(3) -0.0917(2) 0.1357(2)
O60A O -0.1386(3) 0.4749(3) 0.4485(3)
O62A O 0.0448(3) 0.5749(3) 0.3871(3)
O63A O -0.0474(3) 0.4809(3) 0.3872(3)
O64A O 0.0643(3) 0.4548(3) 0.3244(3)
O65A O -0.0605(3) 0.5690(2) 0.5713(3)
O67A O -0.1452(3) 0.4596(2) 0.5525(3)
O69A O -0.0360(3) 0.4510(2) 0.5056(2)
O70A O -0.0813(3) 0.6005(3) 0.4783(3)
O71A O 0.3249(3) 0.4823(3) 1.3301(3)
O72A O 0.2453(3) 0.4029(3) 1.3560(3)
O73A O 0.2749(3) 0.5223(3) 1.4454(3)
H12A H 0.29470 0.53530 1.48260
O77A O 0.4623(3) 0.4677(2) 1.5730(2)
O80A O 0.3838(3) 0.3946(3) 1.3491(2)
O81A O 0.3757(3) 0.5468(3) 1.5708(3)
O82A O 0.4945(3) 0.4366(2) 1.4584(2)
O83A O 0.3607(3) 0.4280(2) 1.4618(2)
O84A O 0.5954(3) 0.4759(2) 1.5478(2)
N1* N 0.1289(4) -0.2480(3) 0.3199(3)
N2* N 0.1810(4) -0.2050(3) 0.3212(3)
H13* H 0.18190 -0.19550 0.29120
N3* N 0.3057(4) -0.2181(4) 0.5462(3)
N4* N 0.3065(4) -0.1547(4) 0.5712(3)
H14* H 0.32540 -0.12660 0.61050
N5* N -0.0009(4) -0.3839(3) 0.1829(3)
N13* N 1.5147(4) 0.8498(3) 1.9347(3)
N14* N 1.4585(4) 0.8101(3) 1.9330(3)
H19* H 1.44910 0.80930 1.96620
N15* N 0.3837(4) -0.2598(4) 0.6658(3)
N16* N 0.3981(4) -0.3150(4) 0.6620(3)
H20* H 0.38950 -0.35100 0.62690
N17* N -0.0095(4) 0.0446(3) 0.1455(3)
N18* N 0.0432(4) 0.0541(3) 0.1927(3)
H21* H 0.05520 0.02380 0.19860
N19* N 0.0814(4) 0.3161(3) 0.2416(3)
N20* N 0.0691(4) 0.3234(3) 0.2979(4)
H22* H 0.07250 0.36000 0.33120
N22* N -0.1372(4) -0.0909(3) 0.0095(3)
N29* N 1.3365(4) 1.6773(3) 1.2601(3)
N30* N 1.2824(4) 1.6761(3) 1.2188(3)
H27* H 1.27730 1.70740 1.21190
N31* N 0.1766(4) 0.4357(3) 0.2071(3)
N32* N 0.1885(4) 0.4136(3) 0.1472(3)
H28* H 0.17650 0.37400 0.11760
N47* N -0.3143(4) -0.3367(4) 0.4682(4)
H36* H -0.31180 -0.36610 0.47860
N48* N -0.3677(4) -0.3395(3) 0.4246(3)
C1* C 0.0993(4) -0.2906(4) 0.3891(4)
H37* H 0.05810 -0.31260 0.35550
H38* H 0.08720 -0.26420 0.42870
H39* H 0.12260 -0.32140 0.39320
C2* C 0.1458(4) -0.2494(3) 0.3733(4)
C3* C 0.2118(4) -0.2087(4) 0.4096(4)
C4* C 0.2307(5) -0.1792(4) 0.3753(4)
C5* C 0.2927(5) -0.1312(5) 0.3867(5)
H40* H 0.28800 -0.12130 0.35250
H41* H 0.33310 -0.14850 0.38850
H42* H 0.29700 -0.09280 0.42660
C6* C 0.2610(5) -0.3151(4) 0.4419(4)
H43* H 0.28000 -0.33420 0.46580
H44* H 0.28490 -0.32170 0.40840
H45* H 0.21290 -0.33450 0.42330
C7* C 0.2693(4) -0.2451(4) 0.4853(4)
C8* C 0.2493(5) -0.1977(4) 0.4720(4)
C9* C 0.2746(5) -0.1401(4) 0.5281(4)
C10* C 0.2693(6) -0.0734(4) 0.5470(5)
H46* H 0.29380 -0.04550 0.59080
H47* H 0.22170 -0.07070 0.54260
H48* H 0.28910 -0.06050 0.51980
C31* C 1.3538(5) 0.7274(5) 1.8570(4)
H73* H 1.34450 0.72960 1.89570
H74* H 1.35710 0.68450 1.82810
H75* H 1.31700 0.73890 1.83730
C32* C 1.4195(4) 0.7722(4) 1.8725(4)
C33* C 1.4538(4) 0.7854(4) 1.8336(4)
C34* C 1.5114(5) 0.8341(4) 1.8738(4)
C35* C 1.5645(5) 0.8678(6) 1.8567(5)
H76* H 1.59760 0.89960 1.89490
H77* H 1.54280 0.88830 1.83550
H78* H 1.58740 0.83740 1.82860
C36* C 0.4540(6) -0.3582(4) 0.7268(4)
H79* H 0.44330 -0.39700 0.68620
H80* H 0.43310 -0.36580 0.75660
H81* H 0.50310 -0.34470 0.74300
C37* C 0.4266(4) -0.3069(4) 0.7186(4)
C38* C 1.4294(4) 0.7560(4) 1.7630(3)
C39* C 0.4034(5) -0.2163(4) 0.7285(4)
C40* C 0.3982(6) -0.1484(4) 0.7520(5)
H82* H 0.37820 -0.14340 0.71660
H83* H 0.44340 -0.12110 0.77220
H84* H 0.36960 -0.13690 0.78250
C41* C 0.1340(6) 0.1375(4) 0.2836(4)
H85* H 0.14710 0.10100 0.28490
H86* H 0.12160 0.16430 0.32290
H87* H 0.17220 0.16140 0.27840
C42* C 0.0742(4) 0.1153(4) 0.2289(4)
C43* C 0.0374(4) 0.1493(4) 0.2076(3)
C44* C -0.0142(4) 0.1027(4) 0.1539(4)
C45* C -0.0661(5) 0.1105(4) 0.1086(5)
H88* H -0.09400 0.06920 0.07690
H89* H -0.04260 0.12980 0.08790
H90* H -0.09500 0.13750 0.13180
C46* C 0.0313(6) 0.2624(4) 0.3495(4)
H91* H 0.03710 0.30480 0.38500
H92* H 0.06000 0.23910 0.36180
H93* H -0.01620 0.24040 0.33700
C47* C 0.0510(5) 0.2668(4) 0.2951(4)
C48* C 0.0513(5) 0.2196(4) 0.2339(4)
C49* C 0.0691(4) 0.2528(4) 0.2018(4)
C50* C 0.0756(5) 0.2274(4) 0.1341(4)
H94* H 0.08850 0.26260 0.12670
H95* H 0.03220 0.20100 0.10550
H96* H 0.11040 0.20230 0.12660
C71* C 1.3760(5) 1.6038(4) 1.2944(5)
H121* H 1.41360 1.64030 1.32040
H122* H 1.39340 1.56820 1.26610
H123* H 1.35400 1.59250 1.32150
C72* C 1.3249(4) 1.6199(4) 1.2559(4)
C73* C 1.2636(4) 1.5818(4) 1.2126(4)
C74* C 1.2381(4) 1.6198(4) 1.1905(4)
C75* C 1.1757(5) 1.6064(5) 1.1410(5)
H124* H 1.17330 1.64420 1.13750
H125* H 1.13520 1.59430 1.15320
H126* H 1.17820 1.57200 1.10050
C76* C 0.2000(5) 0.5407(4) 0.3054(4)
H127* H 0.17760 0.51470 0.32050
H128* H 0.17460 0.57280 0.30830
H129* H 0.24610 0.56110 0.33120
C77* C 0.2027(4) 0.4997(4) 0.2379(3)
C78* C 1.2308(4) 1.5167(4) 1.1973(4)
C79* C 0.2211(5) 0.4607(4) 0.1399(4)
C80* C 0.2403(6) 0.4445(5) 0.0783(4)
H130* H 0.22440 0.39920 0.04920
H131* H 0.28960 0.45580 0.08550
H132* H 0.21940 0.46790 0.06010
C113* C 0.7461(4) 0.8146(3) 1.4732(3)
C116* C -0.2027(6) -0.2690(5) 0.5417(5)
H175* H -0.20400 -0.30340 0.55140
H176* H -0.20030 -0.22960 0.58000
H177* H -0.16290 -0.26510 0.52500
C117* C -0.2670(5) -0.2830(4) 0.4926(4)
C118* C 0.7108(4) 0.7508(4) 1.4630(4)
C119* C -0.3524(5) -0.2877(4) 0.4205(4)
C120* C -0.3998(5) -0.2743(4) 0.3770(5)
H178* H -0.43890 -0.30960 0.35330
H179* H -0.37580 -0.26880 0.34770
H180* H -0.41510 -0.23580 0.40190
#END
