
#######################################################################
#
#                 Cambridge Crystallographic Data Centre
#                                CCDC
#
#######################################################################
#
# If this CIF has been generated from an entry in the Cambridge
# Structural Database, then it will include bibliographic, chemical,
# crystal, experimental, refinement or atomic coordinate data resulting
# from the CCDC's data processing and validation procedures.
#
#######################################################################

data_CSD_CIF_QAXSIT01
_audit_creation_date 2012-06-19
_audit_creation_method CSD-ConQuest-V1
_database_code_CSD QAXSIT01
_database_code_depnum_ccdc_archive 'CCDC 837034'
_chemical_formula_sum 'C52 H37 Fe1 I1 K1 O12 S32'
_chemical_formula_moiety
;
(C10 H8 S8 1+)2n,n(C6 Fe1 K1 O12 2-),n(C6 H5 I1),2n(C10 H8 S8)
;
_journal_coden_Cambridge 9
_journal_volume 51
_journal_year 2012
_journal_page_first 1111
_journal_name_full 'Inorg.Chem. '
loop_
_publ_author_name
"E.Coronado"
"S.Curreli"
"C.Gimenez-Saiz"
"C.J.Gomez-Garcia"
_chemical_name_systematic
;
catena-(tetrakis(\b''-4,5:4',5'-bis(Ethylenedithio)-1,1',3,3'-tetrathiafulvale
ne) tris(\m~2~-oxalato-O,O',O'',O''')-iron(iii)-potassium iodobenzene 
clathrate)
;
_cell_volume   7128.703
_exptl_crystal_colour 'black'
_exptl_crystal_density_diffrn 1.958
_exptl_crystal_description 'prism'
_diffrn_ambient_temperature 120
_refine_special_details
;
C17A,C18A and C17B,C18B disordered over two sites with occupancies 
0.870:0.130; C19A,C20A and C19B,C20B disordered over two sites with 
occupancies 0.911:0.089.
;
#These two values have been output from a single CSD field.
_refine_ls_R_factor_gt 0.033
_refine_ls_wR_factor_gt 0.033
_symmetry_cell_setting monoclinic
_symmetry_space_group_name_H-M 'C 2/c'
_symmetry_Int_Tables_number 15
loop_
_symmetry_equiv_pos_site_id
_symmetry_equiv_pos_as_xyz
1 x,y,z
2 -x,y,1/2-z
3 1/2+x,1/2+y,z
4 1/2-x,1/2+y,1/2-z
5 -x,-y,-z
6 x,-y,-1/2+z
7 -1/2-x,-1/2-y,-z
8 -1/2+x,-1/2-y,-1/2+z
_cell_length_a 10.1637(3)
_cell_length_b 19.7251(6)
_cell_length_c 35.6405(11)
_cell_angle_alpha 90
_cell_angle_beta 93.895(3)
_cell_angle_gamma 90
_cell_formula_units_Z 4
loop_
_atom_type_symbol
_atom_type_radius_bond
C 0.68
H 0.23
Fe 1.52
I 1.40
K 2.03
O 0.68
S 1.02
loop_
_atom_site_label
_atom_site_type_symbol
_atom_site_fract_x
_atom_site_fract_y
_atom_site_fract_z
S1 S -0.07958(5) 0.21285(3) 0.008370(14)
S2 S 0.16869(5) 0.14344(3) 0.031635(14)
S3 S 0.03603(5) 0.24484(3) -0.073027(14)
S4 S 0.28018(5) 0.17313(3) -0.048237(14)
S5 S -0.20385(5) 0.19179(3) 0.079209(15)
S6 S 0.09605(5) 0.11195(3) 0.108753(14)
S7 S 0.10953(6) 0.27175(3) -0.149708(15)
S8 S 0.40810(5) 0.19357(3) -0.119118(15)
C1 C 0.07607(19) 0.18711(11) -0.00334(5)
C2 C 0.12475(19) 0.20064(10) -0.03732(5)
C3 C -0.06420(19) 0.17904(10) 0.05403(6)
C4 C 0.04984(19) 0.14749(10) 0.06490(5)
C5 C 0.1574(2) 0.23880(11) -0.10532(5)
C6 C 0.27080(19) 0.20749(11) -0.09351(5)
C7 C -0.1430(2) 0.16942(12) 0.12672(6)
H1 H -0.08880 0.20730 0.13750
H2 H -0.21920 0.16370 0.14230
C8 C -0.0612(2) 0.10510(11) 0.12900(6)
H3 H -0.11240 0.06830 0.11600
H4 H -0.04600 0.09200 0.15580
C9 C 0.2563(2) 0.26028(13) -0.17495(6)
H5 H 0.23140 0.26190 -0.20230
H6 H 0.31710 0.29860 -0.16890
C10 C 0.3289(2) 0.19451(13) -0.16613(6)
H7 H 0.39640 0.18770 -0.18450
H8 H 0.26570 0.15630 -0.16880
S9 S 0.52511(5) 0.08773(3) 0.020303(13)
S10 S 0.76323(5) 0.01124(3) 0.045142(13)
S11 S 0.64197(5) 0.11629(3) -0.059064(13)
S12 S 0.88345(5) 0.04134(3) -0.035344(13)
S13 S 0.39294(5) 0.07077(3) 0.089971(15)
S14 S 0.67952(5) -0.01736(3) 0.121739(15)
S15 S 0.73283(6) 0.15899(3) -0.132378(15)
S16 S 1.01518(5) 0.07235(3) -0.105485(14)
C11 C 0.68005(19) 0.05855(10) 0.01009(5)
C12 C 0.73096(19) 0.07142(10) -0.02376(5)
C13 C 0.53218(19) 0.05396(11) 0.06565(5)
C14 C 0.64216(19) 0.01916(11) 0.07766(5)
C15 C 0.7687(2) 0.11698(11) -0.08988(5)
C16 C 0.88000(19) 0.08321(11) -0.07866(5)
C17 C 0.4558(4) 0.0529(2) 0.13815(10)
H9 H 0.51920 0.08880 0.14660
H10 H 0.38160 0.05420 0.15480
C18 C 0.5229(2) -0.01504(13) 0.14201(7)
H11 H 0.46470 -0.04990 0.12970
H12 H 0.53570 -0.02670 0.16900
C19 C 0.8514(2) 0.12716(15) -0.16343(6)
H13 H 0.80550 0.11930 -0.18850
H14 H 0.91850 0.16280 -0.16650
C20 C 0.9217(3) 0.06255(15) -0.15110(6)
H15 H 0.98270 0.04920 -0.17030
H16 H 0.85610 0.02580 -0.14930
Fe1 Fe 1.00000 0.08345(2) 0.25000
C21 C 1.0473(2) 0.22167(12) 0.26842(6)
C22 C 0.7694(2) 0.01977(12) 0.27212(6)
C23 C 0.7869(2) -0.00497(11) 0.23119(6)
O1 O 1.07467(16) 0.16201(8) 0.28102(4)
O2 O 1.08625(17) 0.27578(9) 0.28204(5)
O3 O 0.85227(15) 0.06584(8) 0.28374(4)
O4 O 0.89113(15) 0.01797(8) 0.21727(4)
O5 O 0.68299(16) -0.00553(9) 0.29002(5)
O6 O 0.70508(16) -0.04299(9) 0.21553(5)
I1 I 0.50000 0.358696(13) 0.25000
C24 C 0.50000 0.25311(18) 0.25000
C25 C 0.5934(3) 0.21860(14) 0.23059(7)
H17 H 0.65680 0.24280 0.21750
C26 C 0.5923(3) 0.14830(15) 0.2307(1)
H18 H 0.65510 0.12380 0.21750
C27 C 0.50000 0.1140(2) 0.25000
H19 H 0.50000 0.06590 0.25000
K1 K 0.50000 -0.09834(4) 0.25000
C28? C 0.420(2) 0.0330(15) 0.1317(7)
C29? C 0.5644(17) 0.0387(9) 0.1471(4)
C30? C 0.830(2) 0.0910(14) -0.1588(6)
C31? C 0.977(3) 0.0902(14) -0.1501(7)
H20? H 0.36220 0.05410 0.14990
H21? H 0.39510 -0.01540 0.12930
H22? H 0.57050 0.02650 0.17410
H23? H 0.59340 0.08640 0.14500
H24? H 0.79480 0.04570 -0.15290
H25? H 0.81260 0.09830 -0.18620
H26? H 1.01360 0.13500 -0.15610
H27? H 1.01690 0.05590 -0.16610
Fe1B Fe 0.50000 -0.41655(2) 0.25000
C21A C 0.9527(2) 0.22167(12) 0.23158(6)
C21B C 0.5473(2) -0.27833(12) 0.26842(6)
C21C C 0.4527(2) -0.27833(12) 0.23158(6)
O1A O 0.92533(16) 0.16201(8) 0.21898(4)
O1B O 0.57467(16) -0.33799(8) 0.28102(4)
O1C O 0.42533(16) -0.33799(8) 0.21898(4)
O2A O 0.91375(17) 0.27578(9) 0.21796(5)
O2B O 0.58625(17) -0.22422(9) 0.28204(5)
O2C O 0.41375(17) -0.22422(9) 0.21796(5)
O3A O 1.14773(15) 0.06584(8) 0.21626(4)
O4A O 1.10887(15) 0.01797(8) 0.28273(4)
O5A O 0.31701(16) -0.00553(9) 0.20998(5)
O6A O 0.29492(16) -0.04299(9) 0.28447(5)
C25A C 0.4066(3) 0.21860(14) 0.26941(7)
H17A H 0.34320 0.24280 0.28250
C26A C 0.4077(3) 0.14830(15) 0.2693(1)
H18A H 0.34490 0.12380 0.28250
K1B K 1.00000 0.40166(4) 0.25000
#END
