
#######################################################################
#
#                 Cambridge Crystallographic Data Centre
#                                CCDC
#
#######################################################################
#
# If this CIF has been generated from an entry in the Cambridge
# Structural Database, then it will include bibliographic, chemical,
# crystal, experimental, refinement or atomic coordinate data resulting
# from the CCDC's data processing and validation procedures.
#
#######################################################################

data_CSD_CIF_QAXSIT
_audit_creation_date 2012-06-19
_audit_creation_method CSD-ConQuest-V1
_database_code_CSD QAXSIT
_database_code_depnum_ccdc_archive 'CCDC 837030'
_chemical_formula_sum 'C52 H37 Fe1 I1 K1 O12 S32'
_chemical_formula_moiety
;
(C10 H8 S8 1+)2n,n(C6 Fe1 K1 O12 2-),n(C6 H5 I1),2n(C10 H8 S8)
;
_journal_coden_Cambridge 9
_journal_volume 51
_journal_year 2012
_journal_page_first 1111
_journal_name_full 'Inorg.Chem. '
loop_
_publ_author_name
"E.Coronado"
"S.Curreli"
"C.Gimenez-Saiz"
"C.J.Gomez-Garcia"
_chemical_name_systematic
;
catena-(tetrakis(\b''-4,5:4',5'-bis(Ethylenedithio)-1,1',3,3'-tetrathiafulvale
ne) tris(\m~2~-oxalato-O,O',O'',O''')-iron(iii)-potassium iodobenzene 
clathrate)
;
_cell_volume   7302.828
_exptl_crystal_colour 'black'
_exptl_crystal_density_diffrn 1.911
_exptl_crystal_description 'prism'
_diffrn_ambient_temperature 292
_refine_special_details
;
C17A,C18A and C17B,C18B disordered over two sites with occupancies 
0.663:0.337; C19A,C20A and C19B,C20B disordered over two sites with 
occupancies 0.75:0.25.
;
#These two values have been output from a single CSD field.
_refine_ls_R_factor_gt 0.0486
_refine_ls_wR_factor_gt 0.0486
_symmetry_cell_setting monoclinic
_symmetry_space_group_name_H-M 'C 2/c'
_symmetry_Int_Tables_number 15
loop_
_symmetry_equiv_pos_site_id
_symmetry_equiv_pos_as_xyz
1 x,y,z
2 -x,y,1/2-z
3 1/2+x,1/2+y,z
4 1/2-x,1/2+y,1/2-z
5 -x,-y,-z
6 x,-y,-1/2+z
7 -1/2-x,-1/2-y,-z
8 -1/2+x,-1/2-y,-1/2+z
_cell_length_a 10.2260(2)
_cell_length_b 19.9234(2)
_cell_length_c 35.9064(4)
_cell_angle_alpha 90
_cell_angle_beta 93.3664(6)
_cell_angle_gamma 90
_cell_formula_units_Z 4
loop_
_atom_type_symbol
_atom_type_radius_bond
C 0.68
H 0.23
Fe 1.52
I 1.40
K 2.03
O 0.68
S 1.02
loop_
_atom_site_label
_atom_site_type_symbol
_atom_site_fract_x
_atom_site_fract_y
_atom_site_fract_z
S1 S -0.07821(11) 0.21348(6) 0.00917(3)
S2 S 0.16717(11) 0.14416(6) 0.03164(3)
S3 S 0.03486(11) 0.24335(6) -0.07197(3)
S4 S 0.27756(11) 0.17295(6) -0.04854(3)
S5 S -0.20140(11) 0.19419(7) 0.07999(3)
S6 S 0.09453(11) 0.11368(6) 0.10823(3)
S7 S 0.10556(14) 0.26886(7) -0.14861(3)
S8 S 0.40208(12) 0.19069(6) -0.11964(4)
C1 C 0.0759(4) 0.1878(2) -0.00315(11)
C2 C 0.1234(4) 0.2000(2) -0.03702(11)
C3 C -0.0638(4) 0.1809(2) 0.05446(12)
C4 C 0.0490(4) 0.1499(2) 0.06502(11)
C5 C 0.1553(4) 0.2365(2) -0.10470(11)
C6 C 0.2667(4) 0.2056(2) -0.09360(11)
C7 C -0.1399(5) 0.1731(2) 0.12694(13)
H1 H -0.08630 0.21000 0.13680
H2 H -0.21360 0.16850 0.14260
C8 C -0.0602(4) 0.1097(2) 0.12951(13)
H3 H -0.11160 0.07370 0.11780
H4 H -0.04400 0.09830 0.15560
C9 C 0.2521(6) 0.2578(3) -0.17373(14)
H5 H 0.22840 0.25970 -0.20030
H6 H 0.31090 0.29500 -0.16780
C10 C 0.3231(6) 0.1942(3) -0.16559(14)
H7 H 0.38870 0.18830 -0.18380
H8 H 0.26170 0.15720 -0.16850
S9 S 0.52526(11) 0.08852(6) 0.02034(3)
S10 S 0.76200(11) 0.01318(6) 0.04462(3)
S11 S 0.64272(11) 0.11552(6) -0.05907(3)
S12 S 0.88171(11) 0.04124(6) -0.03552(3)
S13 S 0.39477(13) 0.07348(8) 0.08990(4)
S14 S 0.67811(11) -0.01369(7) 0.12093(3)
S15 S 0.73527(14) 0.15494(7) -0.13241(3)
S16 S 1.01454(11) 0.06986(6) -0.10516(3)
C11 C 0.6795(4) 0.0594(2) 0.00959(11)
C12 C 0.7293(4) 0.0716(2) -0.02392(11)
C13 C 0.5327(4) 0.0561(2) 0.06532(11)
C14 C 0.6416(4) 0.0218(2) 0.07709(11)
C15 C 0.7685(4) 0.1149(2) -0.08979(11)
C16 C 0.8787(4) 0.0816(2) -0.07881(11)
C17 C 0.4595(14) 0.0571(10) 0.1372(6)
H9 H 0.52310 0.09150 0.14450
H10 H 0.38870 0.06000 0.15400
C18 C 0.5243(7) -0.0113(4) 0.14171(18)
H11 H 0.46690 -0.04510 0.13020
H12 H 0.53710 -0.02180 0.16810
C19 C 0.8521(15) 0.1235(7) -0.1629(3)
H13 H 0.80780 0.11550 -0.18710
H14 H 0.91740 0.15800 -0.16610
C20 C 0.9207(12) 0.0607(6) -0.15064(19)
H15 H 0.98020 0.04750 -0.16940
H16 H 0.85670 0.02510 -0.14870
Fe1 Fe 1.00000 0.08757(4) 0.25000
C21 C 1.0458(5) 0.2248(2) 0.26814(13)
C22 C 0.7687(5) 0.0253(2) 0.27169(13)
C23 C 0.7879(5) 0.0005(2) 0.23126(13)
O1 O 1.0720(3) 0.16590(16) 0.28068(8)
O2 O 1.0827(4) 0.27800(17) 0.28194(10)
O3 O 0.8514(3) 0.06990(16) 0.28332(8)
O4 O 0.8924(3) 0.02347(15) 0.21753(8)
O5 O 0.6812(3) 0.00081(19) 0.28915(10)
O6 O 0.7072(3) -0.03695(17) 0.21556(10)
I1 I 0.50000 0.36270(3) 0.25000
C24 C 0.50000 0.2584(3) 0.25000
C25 C 0.5941(5) 0.2253(3) 0.23073(14)
H17 H 0.65550 0.24910 0.21790
C26 C 0.5943(6) 0.1568(3) 0.2310(2)
H18 H 0.65710 0.13330 0.21860
C27 C 0.50000 0.1222(4) 0.25000
H19 H 0.50000 0.07550 0.25000
K1 K 0.50000 -0.09379(7) 0.25000
C28? C 0.422(2) 0.040(2) 0.1347(12)
C29? C 0.5632(18) 0.0410(12) 0.1465(4)
C30? C 0.828(3) 0.094(2) -0.1592(10)
C31? C 0.974(3) 0.0904(19) -0.1501(6)
H20? H 0.37430 0.06640 0.15220
H21? H 0.39000 -0.00550 0.13510
H22? H 0.57140 0.02860 0.17260
H23? H 0.59370 0.08690 0.14480
H24? H 0.79080 0.05010 -0.15540
H25? H 0.81330 0.10510 -0.18540
H26? H 1.01290 0.13360 -0.15540
H27? H 1.01130 0.05740 -0.16620
Fe1* Fe 0.00000 0.08757(4) 0.25000
C21A C 0.9542(5) 0.2248(2) 0.23186(13)
C22A C 0.2313(5) 0.0253(2) 0.22831(13)
C23A C 0.2121(5) 0.0005(2) 0.26874(13)
O1A O 0.9280(3) 0.16590(16) 0.21932(8)
O2A O 0.9173(4) 0.27800(17) 0.21806(10)
O2B O 0.5827(4) -0.22200(17) 0.28194(10)
O2C O 0.4173(4) -0.22200(17) 0.21806(10)
O3A O 0.1486(3) 0.06990(16) 0.21668(8)
O3A* O 1.1486(3) 0.06990(16) 0.21668(8)
O4A O 0.1076(3) 0.02347(15) 0.28247(8)
O4A* O 1.1076(3) 0.02347(15) 0.28247(8)
O5A O 0.3188(3) 0.00081(19) 0.21085(10)
O6A O 0.2928(3) -0.03695(17) 0.28444(10)
C25A C 0.4059(5) 0.2253(3) 0.26927(14)
H17A H 0.34450 0.24910 0.28210
C26A C 0.4057(6) 0.1568(3) 0.2690(2)
H18A H 0.34290 0.13330 0.28140
K1B K 1.00000 0.40621(7) 0.25000
#END
