
#######################################################################
#
#                 Cambridge Crystallographic Data Centre
#                                CCDC
#
#######################################################################
#
# If this CIF has been generated from an entry in the Cambridge
# Structural Database, then it will include bibliographic, chemical,
# crystal, experimental, refinement or atomic coordinate data resulting
# from the CCDC's data processing and validation procedures.
#
#######################################################################

data_CSD_CIF_QAYXEV
_audit_creation_date 2012-12-11
_audit_creation_method CSD-ConQuest-V1
_database_code_CSD QAYXEV
_database_code_depnum_ccdc_archive 'CCDC 856241'
_chemical_formula_sum 'C44 H52 Cd4 F4 N4 O26'
_chemical_formula_moiety
;
(C32 H16 Cd3 F4 O18 2-)n,n(C6 H22 Cd1 N2 O6 2+),2n(C3 H7 N1 O1)
;
_journal_coden_Cambridge 155
_journal_volume 390
_journal_year 2012
_journal_page_first 61
_journal_name_full 'Inorg.Chim.Acta '
loop_
_publ_author_name
"Sheng-Chun Chen"
"Rui-Rui Qin"
"Zhi-Hui Zhang"
"Jing Qin"
"Hai-Bo Gao"
"Fu-An Sun"
"Ming-Yang He"
"Qun Chen"
_chemical_name_systematic
;
catena-(tetraaqua-bis(N,N-dimethylformamide)-cadmium 
bis(\m~4~-5-fluoroisophthalato)-bis(\m~3~-5-fluoroisophthalato)-diaqua-tri-cad
mium N,N-dimethylformamide solvate)
;
_cell_volume   1426.028
_exptl_crystal_colour 'colorless'
_exptl_crystal_density_diffrn 1.838
_exptl_crystal_description 'block'
_diffrn_ambient_temperature 296
#These two values have been output from a single CSD field.
_refine_ls_R_factor_gt 0.0445
_refine_ls_wR_factor_gt 0.0445
_symmetry_cell_setting triclinic
_symmetry_space_group_name_H-M 'P -1'
_symmetry_Int_Tables_number 2
loop_
_symmetry_equiv_pos_site_id
_symmetry_equiv_pos_as_xyz
1 x,y,z
2 -x,-y,-z
_cell_length_a 9.7958(15)
_cell_length_b 11.9927(19)
_cell_length_c 13.362(2)
_cell_angle_alpha 114.579(3)
_cell_angle_beta 91.172(3)
_cell_angle_gamma 91.630(3)
_cell_formula_units_Z 1
loop_
_atom_type_symbol
_atom_type_radius_bond
C 0.68
H 0.23
Cd 1.44
F 0.64
N 0.68
O 0.68
loop_
_atom_site_label
_atom_site_type_symbol
_atom_site_fract_x
_atom_site_fract_y
_atom_site_fract_z
C1 C 0.4821(7) 0.8954(6) -0.3127(5)
Cd1 Cd 0.50000 1.00000 -0.50000
Cd2 Cd 0.44880(4) 0.81372(3) -0.80237(3)
Cd3 Cd 0.00000 0.50000 0.00000
C2 C 0.2108(6) 0.8565(6) -0.6626(7)
C3 C 0.0739(6) 0.8441(6) -0.6176(5)
C4 C -0.0478(5) 0.8272(5) -0.6785(4)
H1 H -0.04500 0.82000 -0.75050
C5 C -0.1709(5) 0.8210(5) -0.6353(4)
C6 C -0.1756(6) 0.8264(6) -0.5302(5)
H2 H -0.25880 0.82060 -0.50000
C7 C -0.0551(8) 0.8406(8) -0.4713(6)
C8 C 0.0686(6) 0.8516(7) -0.5117(6)
H3 H 0.14820 0.86410 -0.46880
C9 C -0.3025(5) 0.8121(5) -0.6981(4)
C10 C 0.4457(7) 0.7830(5) -0.2934(5)
C11 C 0.4464(6) 0.7871(5) -0.1890(5)
H4 H 0.46870 0.86090 -0.12910
C12 C 0.4146(7) 0.6836(5) -0.1714(5)
C13 C 0.3788(10) 0.5734(6) -0.2618(6)
H5 H 0.35800 0.50220 -0.25260
C14 C 0.3752(11) 0.5737(7) -0.3632(6)
C15 C 0.4087(9) 0.6729(7) -0.3847(5)
H6 H 0.40720 0.66780 -0.45610
C16 C 0.4213(7) 0.6857(6) -0.0579(5)
C17 C 0.075(2) 0.4887(19) 0.2155(17)
H7 H -0.01970 0.49290 0.21610
C18 C 0.240(2) 0.393(2) 0.288(2)
H8 H 0.28730 0.37850 0.22160
H9 H 0.22140 0.31680 0.29300
H10 H 0.29650 0.44620 0.35040
C19 C 0.029(4) 0.439(3) 0.365(3)
H11 H -0.01430 0.35880 0.33520
H12 H -0.03870 0.49990 0.38370
H13 H 0.08280 0.45090 0.43000
C20 C 0.8405(18) 1.079(3) 0.007(3)
H14 H 0.81340 1.05960 -0.06540
C21 C 0.852(3) 1.021(2) 0.1639(17)
H15 H 0.77410 1.05050 0.20870
H16 H 0.92910 1.07680 0.19670
H17 H 0.87220 0.94130 0.15820
C22 C 0.7441(19) 0.9015(17) 0.011(2)
H18 H 0.71170 0.88090 -0.06290
H19 H 0.66760 0.90880 0.05700
H20 H 0.80100 0.83820 0.01240
F1 F -0.0587(6) 0.8497(7) -0.3671(4)
F2 F 0.3375(10) 0.4653(5) -0.4505(4)
N1 N 0.1144(15) 0.4506(11) 0.2871(10)
N2 N 0.8209(7) 1.0150(8) 0.0514(8)
O1 O 0.3068(5) 0.8980(6) -0.5940(6)
O2 O 0.2222(4) 0.8237(5) -0.7637(5)
O3 O -0.3032(4) 0.7767(4) -0.7985(3)
O4 O -0.4099(4) 0.8419(4) -0.6463(3)
O5 O 0.4820(7) 0.8816(5) -0.4109(4)
O6 O 0.5113(6) 0.9913(4) -0.2298(4)
O7 O 0.4338(5) 0.7865(4) 0.0212(3)
O8 O 0.4148(8) 0.5836(5) -0.0506(5)
O9 O 0.4133(6) 0.6138(4) -0.8279(5)
H21 H 0.44410 0.56880 -0.88720
H22 H 0.43270 0.60590 -0.77130
O10 O 0.1095(13) 0.5151(9) 0.1604(8)
O11 O 0.1881(9) 0.4427(6) -0.0886(8)
H23 H 0.24460 0.43880 -0.04410
H24 H 0.15150 0.37760 -0.13840
O12 O -0.0604(7) 0.3040(5) -0.0517(5)
H25 H -0.05060 0.25780 -0.11650
H26 H -0.10320 0.28160 -0.01070
O13 O 0.9144(9) 1.1971(8) 0.0811(8)
C1A C 0.5179(7) 1.1046(6) -0.6873(5)
Cd1* Cd -0.50000 1.00000 -0.50000
Cd1** Cd 1.50000 1.00000 -0.50000
Cd2A Cd 0.55120(4) 1.18628(3) -0.19763(3)
Cd2* Cd -0.55120(4) 0.81372(3) -0.80237(3)
Cd2** Cd 0.44880(4) 0.81372(3) 0.19763(3)
Cd2A* Cd 1.55120(4) 1.18628(3) -0.19763(3)
Cd2A** Cd 0.55120(4) 1.18628(3) -1.19763(3)
C2A C 0.7892(6) 1.1435(6) -0.3374(7)
C3A C 0.9261(6) 1.1559(6) -0.3824(5)
C4A C 1.0478(5) 1.1728(5) -0.3215(4)
H1A H 1.04500 1.18000 -0.24950
C5A C 1.1709(5) 1.1790(5) -0.3647(4)
C6A C 1.1756(6) 1.1736(6) -0.4698(5)
H2A H 1.25880 1.17940 -0.50000
C7A C 1.0551(8) 1.1594(8) -0.5287(6)
C8A C 0.9314(6) 1.1484(7) -0.4883(6)
H3A H 0.85180 1.13590 -0.53120
C9A C 1.3025(5) 1.1879(5) -0.3019(4)
C10A C 0.5543(7) 1.2170(5) -0.7066(5)
C11A C 0.5536(6) 1.2129(5) -0.8110(5)
H4A H 0.53130 1.13910 -0.87090
C12A C 0.5854(7) 1.3164(5) -0.8286(5)
C13A C 0.6212(10) 1.4266(6) -0.7382(6)
H5A H 0.64200 1.49780 -0.74740
C14A C 0.6248(11) 1.4263(7) -0.6368(6)
C15A C 0.5913(9) 1.3271(7) -0.6153(5)
H6A H 0.59280 1.33220 -0.54390
C16A C 0.5787(7) 1.3143(6) -0.9421(5)
C17A C -0.075(2) 0.5113(19) -0.2155(17)
H7A H 0.01970 0.50710 -0.21610
C18A C -0.240(2) 0.607(2) -0.288(2)
H8A H -0.28730 0.62150 -0.22160
H9A H -0.22140 0.68320 -0.29300
H10A H -0.29650 0.55380 -0.35040
C19A C -0.029(4) 0.561(3) -0.365(3)
H11A H 0.01430 0.64120 -0.33520
H12A H 0.03870 0.50010 -0.38370
H13A H -0.08280 0.54910 -0.43000
F1A F 1.0587(6) 1.1503(7) -0.6329(4)
F2A F 0.6625(10) 1.5347(5) -0.5495(4)
N1A N -0.1144(15) 0.5494(11) -0.2871(10)
O1A O 0.6932(5) 1.1020(6) -0.4060(6)
O2A O 0.7778(4) 1.1763(5) -0.2363(5)
O3A O 1.3032(4) 1.2233(4) -0.2015(3)
O3* O 0.6968(4) 0.7767(4) -0.7985(3)
O3A* O 0.3032(4) 1.2233(4) -0.2015(3)
O4A O 1.4099(4) 1.1581(4) -0.3537(3)
O4* O 0.5901(4) 0.8419(4) -0.6463(3)
O4A* O 0.4099(4) 1.1581(4) -0.3537(3)
O5A O 0.5180(7) 1.1184(5) -0.5891(4)
O6A O 0.4887(6) 1.0087(4) -0.7702(4)
O7A O 0.5662(5) 1.2135(4) -1.0212(3)
O7* O 0.4338(5) 0.7865(4) -0.9788(3)
O7A* O 0.5662(5) 1.2135(4) -0.0212(3)
O8A O 0.5852(8) 1.4164(5) -0.9494(5)
O9A O 0.5867(6) 1.3862(4) -0.1721(5)
H21A H 0.55590 1.43120 -0.11280
H22A H 0.56730 1.39410 -0.22870
O10A O -0.1095(13) 0.4849(9) -0.1604(8)
O11A O -0.1881(9) 0.5573(6) 0.0886(8)
H23A H -0.24460 0.56120 0.04410
H24A H -0.15150 0.62240 0.13840
O12A O 0.0604(7) 0.6960(5) 0.0517(5)
H25A H 0.05060 0.74220 0.11650
H26A H 0.10320 0.71840 0.01070
#END
