
#######################################################################
#
#                 Cambridge Crystallographic Data Centre
#                                CCDC
#
#######################################################################
#
# If this CIF has been generated from an entry in the Cambridge
# Structural Database, then it will include bibliographic, chemical,
# crystal, experimental, refinement or atomic coordinate data resulting
# from the CCDC's data processing and validation procedures.
#
#######################################################################

data_CSD_CIF_QECHOY
_audit_creation_date 2017-09-01
_audit_creation_method CSD-ConQuest-V1
_database_code_CSD QECHOY
_database_code_depnum_ccdc_archive 'CCDC 1549068'
_chemical_formula_sum 'C228 H376 Mo36 N9 O144 P3 Zn12'
_chemical_formula_moiety
;
(C84 H52 Mo36 O144 P3 Zn12 9-)n,9(C16 H36 N1 1+)
;
_journal_coden_Cambridge 1147
_journal_volume 17
_journal_year 2017
_journal_page_first 5309
_journal_name_full 'Cryst.Growth Des. '
loop_
_publ_author_name
"Bao-Xia Dong"
"Fan-Yan Bu"
"Yi-Chen Wu"
"Juan Zhao"
"Yun-Lei Teng"
"Wen-Long Liu"
"Zong-Wei Li"
_chemical_name_systematic
;
nonakis(\m-tetra-n-butylammonium)  
tris(\m-phosphato)-tetrakis(\m-1,1':3',1''-terphenyl-3,3'',5'-tricarboxylato)-
tetrahexacontakis(\m-oxo)-octakis(\m-hydroxo)-hexatriacontaoxo-cosa-molybdenum
(v)-hexadeca-molybdenum(vi)-dodeca-zinc(ii) unknown solvate]
;
_chemical_name_common
;
YZU-103
;
_cell_volume  67838.017
_exptl_crystal_colour 'black'
_exptl_crystal_density_diffrn 1.954
_exptl_special_details
;
, Electrocatalytic properties
,

;
_exptl_crystal_description 'block'
_exptl_crystal_preparation 'Hydrothermal syntheis'
_diffrn_ambient_temperature 150
_diffrn_special_details
;
twin

;
_refine_special_details
;
Disordered tetra-n-butylammonium cation and solvent molecules were not 
modelled and the disordered density was taken into account using the 
SQUEEZE/PLATON procedure.
;
#These two values have been output from a single CSD field.
_refine_ls_R_factor_gt 0.0866
_refine_ls_wR_factor_gt 0.0866
_symmetry_cell_setting orthorhombic
_symmetry_space_group_name_H-M 'F d d 2'
_symmetry_Int_Tables_number 43
loop_
_symmetry_equiv_pos_site_id
_symmetry_equiv_pos_as_xyz
1 x,y,z
2 -x,-y,z
3 1/4+x,1/4-y,1/4+z
4 1/4-x,1/4+y,1/4+z
5 x,1/2+y,1/2+z
6 -x,1/2-y,1/2+z
7 1/4+x,3/4-y,3/4+z
8 1/4-x,3/4+y,3/4+z
9 1/2+x,y,1/2+z
10 1/2-x,-y,1/2+z
11 3/4+x,1/4-y,3/4+z
12 3/4-x,1/4+y,3/4+z
13 1/2+x,1/2+y,z
14 1/2-x,1/2-y,z
15 3/4+x,3/4-y,1/4+z
16 3/4-x,3/4+y,1/4+z
_cell_length_a 52.935(4)
_cell_length_b 55.018(4)
_cell_length_c 23.2930(15)
_cell_angle_alpha 90
_cell_angle_beta 90
_cell_angle_gamma 90
_cell_formula_units_Z 8
loop_
_atom_type_symbol
_atom_type_radius_bond
C 0.68
H 0.23
Mo 1.54
O 0.68
P 1.05
Zn 1.22
loop_
_atom_site_label
_atom_site_type_symbol
_atom_site_fract_x
_atom_site_fract_y
_atom_site_fract_z
Zn1 Zn -0.03038(15) -0.11755(16) -0.3734(3)
Zn2 Zn 0.04789(12) -0.12113(11) -0.1792(3)
Zn3 Zn 0.0404(2) -0.19824(15) -0.3670(5)
Zn4 Zn -0.0346(2) -0.1904(2) -0.1741(5)
Zn5 Zn 0.05018(9) -0.0207(1) 0.1417(2)
Zn6 Zn 0.02182(10) 0.04840(9) 0.3374(2)
Mo1 Mo -0.0170(2) -0.21784(15) -0.3090(4)
Mo2 Mo -0.01809(13) -0.17678(12) -0.4170(3)
Mo3 Mo 0.02723(11) -0.14023(10) -0.4202(2)
Mo4 Mo 0.06899(12) -0.17723(12) -0.2311(3)
Mo5 Mo 0.07152(10) -0.14579(12) -0.3143(3)
Mo6 Mo 0.0179(2) -0.21910(13) -0.2290(4)
Mo7 Mo -0.06037(12) -0.16790(19) -0.3115(3)
Mo8 Mo -0.00566(13) -0.09191(11) -0.2390(2)
Mo9 Mo -0.01278(10) -0.13267(15) -0.1290(2)
Mo10 Mo 0.02625(12) -0.17666(12) -0.1258(3)
Mo11 Mo 0.02829(13) -0.09655(10) -0.3181(2)
Mo12 Mo -0.05715(11) -0.1336(2) -0.2351(3)
Mo13 Mo -0.00789(8) 0.06449(7) 0.20051(19)
Mo14 Mo -0.02772(8) 0.01095(7) 0.38508(18)
Mo15 Mo 0.06754(7) 0.00770(7) 0.27779(18)
Mo16 Mo -0.04025(9) 0.05197(7) 0.27878(19)
Mo17 Mo 0.01168(7) 0.02633(8) 0.09344(17)
Mo18 Mo 0.05451(8) 0.03859(7) 0.19947(18)
P1 P 0.00000 0.00000 0.2398(8)
P2 P 0.0056(3) -0.1564(3) -0.2720(8)
O1 O 0.0704(19) -0.2357(13) -0.312(3)
O2 O 0.0630(11) -0.2915(12) -0.639(2)
O3 O 0.2008(11) -0.1551(9) -0.6714(16)
O4 O 0.2054(7) -0.1592(6) 0.0483(17)
O5 O 0.2156(5) -0.1753(4) 0.1329(13)
O6 O 0.0977(5) -0.0443(6) 0.1837(14)
O7 O 0.0782(5) -0.0366(5) 0.1035(13)
O8 O 0.0726(8) -0.1017(6) -0.1419(12)
O9 O 0.0893(7) -0.0887(8) -0.2270(14)
O10 O -0.0169(7) -0.1267(10) -0.0601(18)
O11 O -0.0224(7) -0.1818(9) -0.492(2)
O12 O 0.0255(8) -0.1079(8) -0.3970(17)
O13 O -0.0505(7) -0.1684(11) -0.3907(19)
O14 O -0.0160(12) -0.2111(10) -0.392(2)
O15 O -0.0452(7) -0.1363(11) -0.1532(18)
O16 O -0.0280(19) -0.2459(11) -0.315(3)
O17 O 0.0586(8) -0.1471(8) -0.3980(16)
O18 O 0.0288(11) -0.1382(8) -0.4947(18)
O19 O 0.0237(10) -0.2141(5) -0.316(2)
O20 O 0.0245(17) -0.2497(10) -0.227(3)
O21 O 0.0653(5) -0.1423(6) -0.2313(13)
O22 O -0.0041(7) -0.1021(7) -0.1617(14)
O23 O 0.0576(8) -0.1759(7) -0.1513(14)
O24 O -0.0898(10) -0.1680(17) -0.329(3)
O25 O -0.0121(14) -0.0636(8) -0.231(2)
O26 O 0.0649(8) -0.1095(8) -0.3169(17)
O27 O -0.0877(10) -0.126(2) -0.229(2)
O28 O -0.0171(14) -0.2108(12) -0.235(2)
O29 O 0.1019(7) -0.1441(12) -0.324(2)
O30 O 0.0304(11) -0.1798(9) -0.054(2)
O31 O -0.0097(8) -0.0997(6) -0.3203(16)
O32 O -0.0103(7) -0.1709(8) -0.1350(18)
O33 O 0.0626(9) -0.1809(8) -0.3150(19)
O34 O 0.0176(9) -0.2067(7) -0.146(2)
O35 O -0.0089(5) -0.1383(7) -0.2345(16)
O36 O 0.0238(4) -0.1415(6) -0.1363(12)
O37 O 0.0564(12) -0.2110(7) -0.228(2)
O38 O 0.0233(6) -0.1420(6) -0.3115(14)
O39 O -0.0104(6) -0.1400(6) -0.4111(12)
O40 O -0.0405(10) -0.0935(14) -0.247(2)
O41 O -0.0504(10) -0.1316(11) -0.321(2)
O42 O -0.0561(6) 0.0778(5) 0.2851(15)
O43 O -0.0225(4) 0.0097(4) 0.2785(10)
O44 O 0.0820(5) 0.0527(6) 0.1910(14)
O45 O -0.0160(7) 0.0934(5) 0.1900(13)
O46 O -0.0046(5) 0.0547(5) 0.1193(12)
O47 O 0.0296(6) 0.0679(4) 0.2030(13)
O48 O 0.0132(6) 0.0292(8) 0.0221(14)
O49 O -0.0706(5) 0.0291(6) 0.2718(13)
O50 O -0.0202(4) 0.0084(5) 0.0986(11)
O51 O 0.0555(5) 0.0043(5) 0.3585(10)
O52 O 0.0078(5) 0.0194(4) 0.3786(11)
O53 O 0.0435(5) 0.0344(5) 0.1210(12)
O54 O -0.0316(5) 0.0123(5) 0.4539(11)
O55 O -0.0045(5) 0.0595(4) 0.2823(12)
O56 O 0.0625(4) 0.0039(5) 0.1952(11)
O57 O 0.0470(4) 0.0387(5) 0.2836(11)
O58 O 0.0196(7) -0.1758(7) -0.4055(15)
O59 O -0.0391(4) 0.0463(5) 0.1997(11)
O60 O 0.0977(6) 0.0158(7) 0.2865(14)
O61 O -0.0363(5) 0.0421(4) 0.3615(10)
O62 O 0.0092(5) 0.0214(4) 0.2021(9)
O63 O -0.0140(7) -0.1740(6) -0.3076(15)
O64 O 0.0217(5) -0.1732(5) -0.2332(13)
O65 O 0.0303(7) -0.1013(6) -0.2321(14)
O66 O 0.1008(9) -0.1826(12) -0.229(3)
O67 O -0.0564(12) -0.1683(12) -0.227(3)
O68 O 0.0357(10) -0.0679(6) -0.3301(16)
C1 C 0.0808(15) -0.2338(18) -0.370(4)
C2 C 0.0978(9) -0.2469(8) -0.394(2)
C3 C 0.1175(12) -0.2573(9) -0.3629(13)
H1 H 0.11710 -0.25760 -0.32210
C4 C 0.1380(9) -0.2673(9) -0.392(2)
H2 H 0.15150 -0.27440 -0.37090
C5 C 0.1387(9) -0.2670(9) -0.451(2)
H3 H 0.15270 -0.27380 -0.47130
C6 C 0.1189(11) -0.2566(9) -0.4822(13)
C7 C 0.0985(8) -0.2466(8) -0.453(2)
H4 H 0.08500 -0.23950 -0.47420
C8 C 0.1161(11) -0.2564(10) -0.5469(14)
C9 C 0.0978(9) -0.2691(10) -0.577(2)
H5 H 0.08580 -0.27880 -0.55760
C10 C 0.0970(9) -0.2675(10) -0.637(2)
C11 C 0.1145(11) -0.2532(10) -0.6659(14)
H6 H 0.11400 -0.25210 -0.70660
C12 C 0.1329(9) -0.2406(9) -0.635(2)
C13 C 0.1337(9) -0.2422(9) -0.576(2)
H7 H 0.14620 -0.23350 -0.55500
C14 C 0.1510(9) -0.2262(10) -0.671(3)
C15 C 0.1617(11) -0.2058(11) -0.645(2)
H8 H 0.15810 -0.20220 -0.60620
C16 C 0.1776(10) -0.1908(8) -0.677(3)
C17 C 0.1828(10) -0.1961(12) -0.734(3)
H9 H 0.19370 -0.18580 -0.75540
C18 C 0.1721(14) -0.2165(14) -0.759(2)
H10 H 0.17570 -0.22010 -0.79850
C19 C 0.1562(12) -0.2316(9) -0.728(3)
H11 H 0.14900 -0.24550 -0.74540
C20 C 0.1903(14) -0.1721(13) -0.641(4)
C21 C 0.2061(10) -0.1571(8) 0.108(3)
C22 C 0.1969(5) -0.1366(5) 0.1302(13)
C23 C 0.1801(5) -0.1214(6) 0.1018(9)
H12 H 0.17610 -0.12430 0.06260
C24 C 0.1690(5) -0.1020(5) 0.1308(12)
C25 C 0.1749(5) -0.0979(4) 0.1882(12)
H13 H 0.16730 -0.08460 0.20800
C26 C 0.1917(5) -0.1131(5) 0.2166(10)
H14 H 0.19570 -0.11030 0.25580
C27 C 0.2027(5) -0.1325(5) 0.1876(13)
H15 H 0.21420 -0.14290 0.20700
C28 C 0.1508(5) -0.0847(5) 0.0995(12)
C29 C 0.1322(5) -0.0719(5) 0.1290(9)
H16 H 0.13210 -0.07180 0.16970
C30 C 0.1138(5) -0.0592(5) 0.0987(13)
C31 C 0.1140(5) -0.0593(5) 0.0391(13)
H17 H 0.10140 -0.05060 0.01840
C32 C 0.1326(6) -0.0721(6) 0.0096(9)
C33 C 0.1510(5) -0.0848(5) 0.0398(12)
H18 H 0.16370 -0.09350 0.01970
C34 C 0.0986(9) -0.0470(8) 0.134(2)
C35 C 0.1325(6) -0.0705(5) -0.0558(11)
C36 C 0.1117(5) -0.0809(5) -0.0828(14)
H19 H 0.09790 -0.08660 -0.06050
C37 C 0.1112(6) -0.0829(6) -0.1422(14)
C38 C 0.1314(7) -0.0746(6) -0.1748(11)
H20 H 0.13100 -0.07610 -0.21540
C39 C 0.1522(6) -0.0643(6) -0.1478(15)
H21 H 0.16610 -0.05860 -0.17010
C40 C 0.1528(5) -0.0622(6) -0.0884(16)
H22 H 0.16700 -0.05510 -0.07000
C41 C 0.0923(10) -0.0908(11) -0.172(3)
O69 O 0.1908(10) -0.1722(10) -0.590(3)
C42 C 0.0819(9) -0.2847(16) -0.670(3)
O70 O 0.0745(13) -0.2762(13) -0.721(3)
O71 O 0.0629(11) -0.2228(9) -0.395(3)
O72 O -0.0505(18) -0.2082(16) -0.318(4)
O43A O 0.0225(4) -0.0097(4) 0.2785(10)
O62A O -0.0092(5) -0.0214(4) 0.2021(9)
Zn1A Zn 0.03038(15) 0.11755(16) -0.3734(3)
Zn2A Zn -0.04789(12) 0.12113(11) -0.1792(3)
Zn3A Zn -0.0404(2) 0.19824(15) -0.3670(5)
Zn4A Zn 0.0346(2) 0.1904(2) -0.1741(5)
Zn5A Zn -0.05018(9) 0.0207(1) 0.1417(2)
Zn6A Zn -0.02182(10) -0.04840(9) 0.3374(2)
Mo1A Mo 0.0170(2) 0.21784(15) -0.3090(4)
Mo2A Mo 0.01809(13) 0.17678(12) -0.4170(3)
Mo3A Mo -0.02723(11) 0.14023(10) -0.4202(2)
Mo4A Mo -0.06899(12) 0.17723(12) -0.2311(3)
Mo5A Mo -0.07152(10) 0.14579(12) -0.3143(3)
Mo6A Mo -0.0179(2) 0.21910(13) -0.2290(4)
Mo7A Mo 0.06037(12) 0.16790(19) -0.3115(3)
Mo8A Mo 0.00566(13) 0.09191(11) -0.2390(2)
Mo9A Mo 0.01278(10) 0.13267(15) -0.1290(2)
Mo10A Mo -0.02625(12) 0.17666(12) -0.1258(3)
Mo11A Mo -0.02829(13) 0.09655(10) -0.3181(2)
Mo12A Mo 0.05715(11) 0.1336(2) -0.2351(3)
Mo13A Mo 0.00789(8) -0.06449(7) 0.20051(19)
Mo14A Mo 0.02772(8) -0.01095(7) 0.38508(18)
Mo15A Mo -0.06754(7) -0.00770(7) 0.27779(18)
Mo16A Mo 0.04025(9) -0.05197(7) 0.27878(19)
Mo17A Mo -0.01168(7) -0.02633(8) 0.09344(17)
Mo18A Mo -0.05451(8) -0.03859(7) 0.19947(18)
P2A P -0.0056(3) 0.1564(3) -0.2720(8)
O1A O -0.0704(19) 0.2357(13) -0.312(3)
O2A O -0.0630(11) 0.2915(12) -0.639(2)
O3A O -0.2008(11) 0.1551(9) -0.6714(16)
O4A O -0.2054(7) 0.1592(6) 0.0483(17)
O5A O -0.2156(5) 0.1753(4) 0.1329(13)
O6A O -0.0977(5) 0.0443(6) 0.1837(14)
O7A O -0.0782(5) 0.0366(5) 0.1035(13)
O8A O -0.0726(8) 0.1017(6) -0.1419(12)
O9A O -0.0893(7) 0.0887(8) -0.2270(14)
O10A O 0.0169(7) 0.1267(10) -0.0601(18)
O11A O 0.0224(7) 0.1818(9) -0.492(2)
O12A O -0.0255(8) 0.1079(8) -0.3970(17)
O13A O 0.0505(7) 0.1684(11) -0.3907(19)
O14A O 0.0160(12) 0.2111(10) -0.392(2)
O15A O 0.0452(7) 0.1363(11) -0.1532(18)
O16A O 0.0280(19) 0.2459(11) -0.315(3)
O17A O -0.0586(8) 0.1471(8) -0.3980(16)
O18A O -0.0288(11) 0.1382(8) -0.4947(18)
O19A O -0.0237(10) 0.2141(5) -0.316(2)
O20A O -0.0245(17) 0.2497(10) -0.227(3)
O21A O -0.0653(5) 0.1423(6) -0.2313(13)
O22A O 0.0041(7) 0.1021(7) -0.1617(14)
O23A O -0.0576(8) 0.1759(7) -0.1513(14)
O24A O 0.0898(10) 0.1680(17) -0.329(3)
O25A O 0.0121(14) 0.0636(8) -0.231(2)
O26A O -0.0649(8) 0.1095(8) -0.3169(17)
O27A O 0.0877(10) 0.126(2) -0.229(2)
O28A O 0.0171(14) 0.2108(12) -0.235(2)
O29A O -0.1019(7) 0.1441(12) -0.324(2)
O30A O -0.0304(11) 0.1798(9) -0.054(2)
O31A O 0.0097(8) 0.0997(6) -0.3203(16)
O32A O 0.0103(7) 0.1709(8) -0.1350(18)
O33A O -0.0626(9) 0.1809(8) -0.3150(19)
O34A O -0.0176(9) 0.2067(7) -0.146(2)
O35A O 0.0089(5) 0.1383(7) -0.2345(16)
O36A O -0.0238(4) 0.1415(6) -0.1363(12)
O37A O -0.0564(12) 0.2110(7) -0.228(2)
O38A O -0.0233(6) 0.1420(6) -0.3115(14)
O39A O 0.0104(6) 0.1400(6) -0.4111(12)
O40A O 0.0405(10) 0.0935(14) -0.247(2)
O41A O 0.0504(10) 0.1316(11) -0.321(2)
O42A O 0.0561(6) -0.0778(5) 0.2851(15)
O44A O -0.0820(5) -0.0527(6) 0.1910(14)
O45A O 0.0160(7) -0.0934(5) 0.1900(13)
O46A O 0.0046(5) -0.0547(5) 0.1193(12)
O47A O -0.0296(6) -0.0679(4) 0.2030(13)
O48A O -0.0132(6) -0.0292(8) 0.0221(14)
O49A O 0.0706(5) -0.0291(6) 0.2718(13)
O50A O 0.0202(4) -0.0084(5) 0.0986(11)
O51A O -0.0555(5) -0.0043(5) 0.3585(10)
O52A O -0.0078(5) -0.0194(4) 0.3786(11)
O53A O -0.0435(5) -0.0344(5) 0.1210(12)
O54A O 0.0316(5) -0.0123(5) 0.4539(11)
O55A O 0.0045(5) -0.0595(4) 0.2823(12)
O56A O -0.0625(4) -0.0039(5) 0.1952(11)
O57A O -0.0470(4) -0.0387(5) 0.2836(11)
O58A O -0.0196(7) 0.1758(7) -0.4055(15)
O59A O 0.0391(4) -0.0463(5) 0.1997(11)
O60A O -0.0977(6) -0.0158(7) 0.2865(14)
O61A O 0.0363(5) -0.0421(4) 0.3615(10)
O63A O 0.0140(7) 0.1740(6) -0.3076(15)
O64A O -0.0217(5) 0.1732(5) -0.2332(13)
O65A O -0.0303(7) 0.1013(6) -0.2321(14)
O66A O -0.1008(9) 0.1826(12) -0.229(3)
O67A O 0.0564(12) 0.1683(12) -0.227(3)
O68A O -0.0357(10) 0.0679(6) -0.3301(16)
C1A C -0.0808(15) 0.2338(18) -0.370(4)
C2A C -0.0978(9) 0.2469(8) -0.394(2)
C3A C -0.1175(12) 0.2573(9) -0.3629(13)
H1A H -0.11710 0.25760 -0.32210
C4A C -0.1380(9) 0.2673(9) -0.392(2)
H2A H -0.15150 0.27440 -0.37090
C5A C -0.1387(9) 0.2670(9) -0.451(2)
H3A H -0.15270 0.27380 -0.47130
C6A C -0.1189(11) 0.2566(9) -0.4822(13)
C7A C -0.0985(8) 0.2466(8) -0.453(2)
H4A H -0.08500 0.23950 -0.47420
C8A C -0.1161(11) 0.2564(10) -0.5469(14)
C9A C -0.0978(9) 0.2691(10) -0.577(2)
H5A H -0.08580 0.27880 -0.55760
C10A C -0.0970(9) 0.2675(10) -0.637(2)
C11A C -0.1145(11) 0.2532(10) -0.6659(14)
H6A H -0.11400 0.25210 -0.70660
C12A C -0.1329(9) 0.2406(9) -0.635(2)
C13A C -0.1337(9) 0.2422(9) -0.576(2)
H7A H -0.14620 0.23350 -0.55500
C14A C -0.1510(9) 0.2262(10) -0.671(3)
C15A C -0.1617(11) 0.2058(11) -0.645(2)
H8A H -0.15810 0.20220 -0.60620
C16A C -0.1776(10) 0.1908(8) -0.677(3)
C17A C -0.1828(10) 0.1961(12) -0.734(3)
H9A H -0.19370 0.18580 -0.75540
C18A C -0.1721(14) 0.2165(14) -0.759(2)
H10A H -0.17570 0.22010 -0.79850
C19A C -0.1562(12) 0.2316(9) -0.728(3)
H11A H -0.14900 0.24550 -0.74540
C20A C -0.1903(14) 0.1721(13) -0.641(4)
C21A C -0.2061(10) 0.1571(8) 0.108(3)
C22A C -0.1969(5) 0.1366(5) 0.1302(13)
C23A C -0.1801(5) 0.1214(6) 0.1018(9)
H12A H -0.17610 0.12430 0.06260
C24A C -0.1690(5) 0.1020(5) 0.1308(12)
C25A C -0.1749(5) 0.0979(4) 0.1882(12)
H13A H -0.16730 0.08460 0.20800
C26A C -0.1917(5) 0.1131(5) 0.2166(10)
H14A H -0.19570 0.11030 0.25580
C27A C -0.2027(5) 0.1325(5) 0.1876(13)
H15A H -0.21420 0.14290 0.20700
C28A C -0.1508(5) 0.0847(5) 0.0995(12)
C29A C -0.1322(5) 0.0719(5) 0.1290(9)
H16A H -0.13210 0.07180 0.16970
C30A C -0.1138(5) 0.0592(5) 0.0987(13)
C31A C -0.1140(5) 0.0593(5) 0.0391(13)
H17A H -0.10140 0.05060 0.01840
C32A C -0.1326(6) 0.0721(6) 0.0096(9)
C33A C -0.1510(5) 0.0848(5) 0.0398(12)
H18A H -0.16370 0.09350 0.01970
C34A C -0.0986(9) 0.0470(8) 0.134(2)
C35A C -0.1325(6) 0.0705(5) -0.0558(11)
C36A C -0.1117(5) 0.0809(5) -0.0828(14)
H19A H -0.09790 0.08660 -0.06050
C37A C -0.1112(6) 0.0829(6) -0.1422(14)
C38A C -0.1314(7) 0.0746(6) -0.1748(11)
H20A H -0.13100 0.07610 -0.21540
C39A C -0.1522(6) 0.0643(6) -0.1478(15)
H21A H -0.16610 0.05860 -0.17010
C40A C -0.1528(5) 0.0622(6) -0.0884(16)
H22A H -0.16700 0.05510 -0.07000
C41A C -0.0923(10) 0.0908(11) -0.172(3)
O69A O -0.1908(10) 0.1722(10) -0.590(3)
C42A C -0.0819(9) 0.2847(16) -0.670(3)
O70A O -0.0745(13) 0.2762(13) -0.721(3)
O71A O -0.0629(11) 0.2228(9) -0.395(3)
O72A O 0.0505(18) 0.2082(16) -0.318(4)
Zn1F Zn 0.21962(15) -0.13245(16) -0.6234(3)
Zn1K Zn -0.21962(15) 0.13245(16) -0.6234(3)
Zn4D Zn -0.0346(2) 0.3096(2) -0.6741(5)
Zn4E Zn 0.0346(2) -0.3096(2) -0.6741(5)
Zn6G Zn 0.22818(10) -0.20160(9) 0.0874(2)
Zn6J Zn -0.22818(10) 0.20160(9) 0.0874(2)
O2D O 0.0630(11) 0.2085(12) -0.139(2)
O2E O -0.0630(11) -0.2085(12) -0.139(2)
O3C O 0.0492(11) 0.0949(9) -0.4214(16)
O3N O -0.0492(11) -0.0949(9) -0.4214(16)
O5C O 0.0344(5) 0.0747(4) 0.3829(13)
O5N O -0.0344(5) -0.0747(4) 0.3829(13)
#END
