
#######################################################################
#
#                 Cambridge Crystallographic Data Centre
#                                CCDC
#
#######################################################################
#
# If this CIF has been generated from an entry in the Cambridge
# Structural Database, then it will include bibliographic, chemical,
# crystal, experimental, refinement or atomic coordinate data resulting
# from the CCDC's data processing and validation procedures.
#
#######################################################################

data_CSD_CIF_QEFPOJ
_audit_creation_date 2017-09-04
_audit_creation_method CSD-ConQuest-V1
_database_code_CSD QEFPOJ
_database_code_depnum_ccdc_archive 'CCDC 1470627'
_chemical_formula_sum 'C54 H53 Cl6 Fe2 N6 O26'
_chemical_formula_moiety
;
(C18 Cl6 Fe2 O12 1-)n,3(C12 H8 N2),13(H2 O1),H3 O1 1+
;
_journal_coden_Cambridge 1440
_journal_volume 9
_journal_year 2017
_journal_page_first 26210
_journal_name_full 'ACS Applied Materials and Interfaces '
loop_
_publ_author_name
"S.Benmansour"
"A.Abherve"
"P.Gomez-Claramunt"
"C.Valles-Garcia"
"C.J.Gomez-Garcia"
_chemical_name_systematic
;
catena-[oxonium tris(phenazine) 
tris(\m-2,5-dichloro-3,6-dioxocyclohexa-1,4-diene-1,4-diolato)-di-iron 
tridecahydrate]
;
_cell_volume   1492.902
_exptl_crystal_colour 'black'
_exptl_crystal_density_diffrn 1.665
_exptl_crystal_description 'Hexagonal_prism'
_diffrn_ambient_temperature 120
#These two values have been output from a single CSD field.
_refine_ls_R_factor_gt 0.0381
_refine_ls_wR_factor_gt 0.0381
_symmetry_cell_setting hexagonal
_symmetry_space_group_name_H-M 'P -3 1 m'
_symmetry_Int_Tables_number 162
loop_
_symmetry_equiv_pos_site_id
_symmetry_equiv_pos_as_xyz
1 x,y,z
2 -y,x-y,z
3 -x+y,-x,z
4 -y,-x,-z
5 x,x-y,-z
6 -x+y,y,-z
7 -x,-y,-z
8 y,-x+y,-z
9 x-y,x,-z
10 y,x,z
11 -x,-x+y,z
12 x-y,-y,z
_cell_length_a 13.6909(3)
_cell_length_b 13.6909(3)
_cell_length_c 9.1968(3)
_cell_angle_alpha 90
_cell_angle_beta 90
_cell_angle_gamma 120
_cell_formula_units_Z 1
loop_
_atom_type_symbol
_atom_type_radius_bond
C 0.68
H 0.23
Cl 0.99
Fe 1.52
N 0.68
O 0.68
loop_
_atom_site_label
_atom_site_type_symbol
_atom_site_fract_x
_atom_site_fract_y
_atom_site_fract_z
Fe1 Fe 0.66670 0.33330 0.50000
O1 O 0.65775(15) 0.19838(16) 0.3884(2)
C1 C 0.5878(2) 0.1017(2) 0.4377(3)
C2 C 0.5736(3) 0.00000 0.3868(4)
Cl1 Cl 0.66304(7) 0.00000 0.2531(1)
N1 N 0.55932(15) 0.1186(3) 0.00000
C3 C 0.4675(3) 0.0606(2) 0.0847(3)
C4 C 0.4295(3) 0.1189(3) 0.1751(3)
H1 H 0.46830 0.19910 0.17560
C5 C 0.3373(3) 0.0596(3) 0.2608(3)
H2 H 0.31250 0.09900 0.32170
O2 O 0.66670 0.33330 0.00000
O3 O 0.9473(7) 0.0527(7) 0.50000
O4 O 0.9245(18) 0.00000 -0.028(10)
O1E O 0.54063(15) 0.19838(16) 0.6116(2)
C1E C 0.5139(2) 0.1017(2) 0.5623(3)
C2E C 0.4264(3) 0.00000 0.6132(4)
Cl1E Cl 0.33696(7) 0.00000 0.7469(1)
O1F O 0.34225(15) -0.19838(16) 0.6116(2)
C1F C 0.4122(2) -0.1017(2) 0.5623(3)
O1K O 0.45937(15) -0.19838(16) 0.3884(2)
C1K C 0.4861(2) -0.1017(2) 0.4377(3)
O1A O 0.80162(15) 0.45937(16) 0.3884(2)
C1A C 0.8983(2) 0.4861(2) 0.4377(3)
C2A C 1.0000(3) 0.57360 0.3868(4)
Cl1A Cl 1.00000(7) 0.66304 0.2531(1)
O1C O 0.80162(15) 0.34225(16) 0.6116(2)
C1C C 0.8983(2) 0.4122(2) 0.5623(3)
C2C C 1.0000(3) 0.42640 0.6132(4)
Cl1C Cl 1.00000(7) 0.33696 0.7469(1)
O1G O 1.19838(15) 0.54063(16) 0.6116(2)
C1G C 1.1017(2) 0.5139(2) 0.5623(3)
O1I O 1.19838(15) 0.65775(16) 0.3884(2)
C1I C 1.1017(2) 0.5878(2) 0.4377(3)
O1B O 0.54063(15) 0.34225(16) 0.3884(2)
C1B C 0.5139(2) 0.4122(2) 0.4377(3)
C2B C 0.4264(3) 0.42640 0.3868(4)
Cl1B Cl 0.33696(7) 0.33696 0.2531(1)
O1D O 0.65775(15) 0.45937(16) 0.6116(2)
C1D C 0.5878(2) 0.4861(2) 0.5623(3)
C2D C 0.5736(3) 0.57360 0.6132(4)
Cl1D Cl 0.66304(7) 0.66304 0.7469(1)
O1H O 0.45937(15) 0.65775(16) 0.6116(2)
C1H C 0.4861(2) 0.5878(2) 0.5623(3)
O1J O 0.34225(15) 0.54063(16) 0.3884(2)
C1J C 0.4122(2) 0.5139(2) 0.4377(3)
Fe1F Fe 0.33330 -0.33330 0.50000
Fe1F* Fe 0.33330 0.66670 0.50000
Fe1F** Fe 1.33330 0.66670 0.50000
O1G* O 0.19838(15) -0.45937(16) 0.6116(2)
O1H* O 0.45937(15) -0.34225(16) 0.6116(2)
O1I* O 0.19838(15) -0.34225(16) 0.3884(2)
O1J* O 0.34225(15) -0.45937(16) 0.3884(2)
C3E C 0.5931(3) 0.0606(2) -0.0847(3)
C4E C 0.6894(3) 0.1189(3) -0.1751(3)
H1E H 0.73080 0.19910 -0.17560
C5E C 0.7223(3) 0.0596(3) -0.2608(3)
H2E H 0.78650 0.09900 -0.32170
N1F N 0.44068(15) -0.1186(3) 0.00000
C3F C 0.5325(3) -0.0606(2) -0.0847(3)
C4F C 0.5705(3) -0.1189(3) -0.1751(3)
H1F H 0.53170 -0.19910 -0.17560
C5F C 0.6627(3) -0.0596(3) -0.2608(3)
H2F H 0.68750 -0.09900 -0.32170
C3K C 0.4069(3) -0.0606(2) 0.0847(3)
C4K C 0.3106(3) -0.1189(3) 0.1751(3)
H1K H 0.26920 -0.19910 0.17560
C5K C 0.2777(3) -0.0596(3) 0.2608(3)
H2K H 0.21350 -0.09900 0.32170
#END
