
#######################################################################
#
#                 Cambridge Crystallographic Data Centre
#                                CCDC
#
#######################################################################
#
# If this CIF has been generated from an entry in the Cambridge
# Structural Database, then it will include bibliographic, chemical,
# crystal, experimental, refinement or atomic coordinate data resulting
# from the CCDC's data processing and validation procedures.
#
#######################################################################

data_CSD_CIF_QEHCIS
_audit_creation_date 2017-09-05
_audit_creation_method CSD-ConQuest-V1
_database_code_CSD QEHCIS
_database_code_depnum_ccdc_archive 'CCDC 1561462'
_chemical_formula_sum 'C48 H24 Cd3 Li6 O24'
_chemical_formula_moiety
;
(C48 H24 Cd3 Li2 O24 4-)n,4(Li1 1+)
;
_journal_coden_Cambridge 182
_journal_volume 53
_journal_year 2017
_journal_page_first 10318
_journal_name_full 'Chem.Commun. '
loop_
_publ_author_name
"Xiujuan Qi"
"Yunhe Jin"
"Na Li"
"Zhi Wang"
"Kangcai Wang"
"Qinghua Zhang"
_chemical_name_systematic
;
catena-[tetra-lithium 
hexakis(\m-benzene-1,4-dicarboxylato)-tri-cadmium-di-lithium unknown solvate]
;
_cell_volume   6969.051
_exptl_crystal_density_diffrn 1.3
_exptl_crystal_description 'block'
_diffrn_ambient_temperature 100.2
_refine_special_details
;
The SQUEEZE/PLATON program has been used to model some disorder.

;
#These two values have been output from a single CSD field.
_refine_ls_R_factor_gt 0.0613
_refine_ls_wR_factor_gt 0.0613
_symmetry_cell_setting monoclinic
_symmetry_space_group_name_H-M 'C 2/c'
_symmetry_Int_Tables_number 15
loop_
_symmetry_equiv_pos_site_id
_symmetry_equiv_pos_as_xyz
1 x,y,z
2 -x,y,1/2-z
3 1/2+x,1/2+y,z
4 1/2-x,1/2+y,1/2-z
5 -x,-y,-z
6 x,-y,-1/2+z
7 -1/2-x,-1/2-y,-z
8 -1/2+x,-1/2-y,-1/2+z
_cell_length_a 6.5914(11)
_cell_length_b 34.784(6)
_cell_length_c 30.396(5)
_cell_angle_alpha 90
_cell_angle_beta 90
_cell_angle_gamma 90
_cell_formula_units_Z 4
loop_
_atom_type_symbol
_atom_type_radius_bond
C 0.68
H 0.23
Cd 1.44
Li 1.28
O 0.68
loop_
_atom_site_label
_atom_site_type_symbol
_atom_site_fract_x
_atom_site_fract_y
_atom_site_fract_z
Cd1 Cd 0.83405(18) 0.130115(16) 0.41663(4)
Cd2 Cd 0.00000 0.36998(3) 0.25000
O1 O 0.8503(15) 0.1822(2) 0.4717(3)
O2 O 0.8248(13) 0.0800(2) 0.4657(3)
C1 C 0.3060(14) 0.2823(3) 0.3162(3)
O3 O 1.1442(17) 0.0954(2) 0.3842(3)
C2 C 0.6987(16) 0.0079(4) 0.5046(4)
H1 H 0.83900 0.01370 0.50750
C3 C 0.6176(18) 0.2469(3) 0.3252(4)
H2 H 0.75970 0.24520 0.32040
O4 O 1.1247(12) 0.1594(2) 0.4450(2)
C4 C 0.656(2) 0.0733(3) 0.4676(4)
C5 C 0.6400(16) 0.1845(3) 0.3651(4)
O5 O 0.2963(11) 0.3415(2) 0.2770(3)
C6 C 0.1971(17) 0.3160(3) 0.2976(3)
C7 C 0.3118(17) 0.2230(3) 0.3576(4)
H3 H 0.24230 0.20450 0.37510
C8 C 1.3518(18) 0.2227(4) 0.4761(4)
H4 H 1.42210 0.20380 0.45940
C9 C 1.0276(12) -0.02437(19) 0.3117(2)
H5 H 0.93370 -0.04080 0.29720
C10 C 0.9644(12) 0.0110(2) 0.3277(2)
H6 H 0.82730 0.01880 0.32420
C11 C 1.1019(13) 0.03514(19) 0.3489(3)
C12 C 1.3025(13) 0.0238(2) 0.3541(3)
H7 H 1.39640 0.04030 0.36860
C13 C 1.3657(12) -0.0116(2) 0.3381(3)
H8 H 1.50280 -0.01930 0.34160
C14 C 1.2283(12) -0.03569(19) 0.3169(2)
O6 O 0.5346(13) 0.1596(2) 0.3886(3)
C15 C 1.041(2) 0.0729(4) 0.3667(5)
O7 O 1.1792(14) -0.0949(2) 0.2827(3)
C16 C 1.454(2) 0.2538(4) 0.4923(5)
H9 H 1.59590 0.25650 0.48710
C17 C 0.3697(17) 0.0249(3) 0.4801(4)
H10 H 0.27690 0.04180 0.46610
O8 O 0.8517(16) 0.0805(3) 0.3655(3)
O9 O 1.5006(16) -0.0797(3) 0.3030(3)
C18 C 0.504(2) 0.2780(3) 0.3097(5)
H11 H 0.57300 0.29730 0.29350
O10 O 0.0025(13) 0.3177(2) 0.3018(3)
O11 O 0.5124(19) 0.0966(3) 0.4511(4)
O12 O 0.8214(12) 0.1832(3) 0.3648(3)
C19 C 1.1485(18) 0.2185(3) 0.4837(4)
C20 C 0.5091(18) 0.2178(3) 0.3485(4)
C21 C 0.208(2) 0.2545(4) 0.3421(4)
H12 H 0.06830 0.25750 0.34900
C22 C 1.0424(18) 0.1857(4) 0.4648(4)
C23 C 1.316(2) -0.0737(3) 0.2976(4)
C24 C 0.5647(17) 0.0357(3) 0.4833(4)
Li1 Li 0.332(3) 0.1279(3) 0.4173(8)
Li2 Li 1.175(4) 0.1098(6) 0.5837(8)
Li3 Li 0.50000 0.1075(10) 0.25000
Li4 Li 0.811(5) 0.3035(8) 0.4162(14)
O1F O 1.6497(15) 0.3178(2) 0.5283(3)
O4F O 1.3753(12) 0.3406(2) 0.5550(2)
C8F C 1.1482(18) 0.2773(4) 0.5239(4)
H4F H 1.07790 0.29620 0.54060
C16F C 1.046(2) 0.2462(4) 0.5077(5)
H9F H 0.90410 0.24350 0.51290
C19F C 1.3515(18) 0.2815(3) 0.5163(4)
C22F C 1.4576(18) 0.3143(4) 0.5352(4)
O2D O 0.1752(13) -0.0800(2) 0.5343(3)
C2D C 0.3013(16) -0.0079(4) 0.4954(4)
H1D H 0.16100 -0.01370 0.49250
C4D C 0.344(2) -0.0733(3) 0.5324(4)
C17D C 0.6303(17) -0.0249(3) 0.5199(4)
H10D H 0.72310 -0.04180 0.53390
O11D O 0.4876(19) -0.0966(3) 0.5489(4)
C24D C 0.4353(17) -0.0357(3) 0.5167(4)
Cd1A Cd -0.83405(18) 0.130115(16) 0.08337(4)
C1A C -0.3060(14) 0.2823(3) 0.1838(3)
O3A O -1.1442(17) 0.0954(2) 0.1158(3)
C3A C -0.6176(18) 0.2469(3) 0.1748(4)
H2A H -0.75970 0.24520 0.17960
C5A C -0.6400(16) 0.1845(3) 0.1349(4)
O5A O -0.2963(11) 0.3415(2) 0.2230(3)
C6A C -0.1971(17) 0.3160(3) 0.2024(3)
C7A C -0.3118(17) 0.2230(3) 0.1424(4)
H3A H -0.24230 0.20450 0.12490
C9A C -1.0276(12) -0.02437(19) 0.1883(2)
H5A H -0.93370 -0.04080 0.20280
C10A C -0.9644(12) 0.0110(2) 0.1723(2)
H6A H -0.82730 0.01880 0.17580
C11A C -1.1019(13) 0.03514(19) 0.1511(3)
C12A C -1.3025(13) 0.0238(2) 0.1459(3)
H7A H -1.39640 0.04030 0.13140
C13A C -1.3657(12) -0.0116(2) 0.1619(3)
H8A H -1.50280 -0.01930 0.15840
C14A C -1.2283(12) -0.03569(19) 0.1831(2)
O6A O -0.5346(13) 0.1596(2) 0.1114(3)
C15A C -1.041(2) 0.0729(4) 0.1333(5)
O7A O -1.1792(14) -0.0949(2) 0.2173(3)
O8A O -0.8517(16) 0.0805(3) 0.1345(3)
O9A O -1.5006(16) -0.0797(3) 0.1970(3)
C18A C -0.504(2) 0.2780(3) 0.1903(5)
H11A H -0.57300 0.29730 0.20650
O10A O -0.0025(13) 0.3177(2) 0.1982(3)
O12A O -0.8214(12) 0.1832(3) 0.1352(3)
C20A C -0.5091(18) 0.2178(3) 0.1515(4)
C21A C -0.208(2) 0.2545(4) 0.1579(4)
H12A H -0.06830 0.25750 0.15100
C23A C -1.316(2) -0.0737(3) 0.2024(4)
Li1A Li -0.332(3) 0.1279(3) 0.0827(8)
Cd1D Cd 0.16595(18) -0.130115(16) 0.58337(4)
Cd1F Cd 1.66595(18) 0.369885(16) 0.58337(4)
Cd2B Cd -1.50000 -0.13002(3) 0.25000
Cd2B* Cd 1.50000 -0.13002(3) 0.25000
O1A O -0.8503(15) 0.1822(2) 0.0283(3)
O2A O -0.8248(13) 0.0800(2) 0.0343(3)
O3* O 0.1442(17) 0.0954(2) 0.3842(3)
O3A* O -0.1442(17) 0.0954(2) 0.1158(3)
O4* O 0.1247(12) 0.1594(2) 0.4450(2)
O4A O -1.1247(12) 0.1594(2) 0.0550(2)
O4A* O -0.1247(12) 0.1594(2) 0.0550(2)
O7B O -0.3208(14) 0.4051(2) 0.2827(3)
O7C O 0.3208(14) 0.4051(2) 0.2173(3)
O9B O 0.0006(16) 0.4203(3) 0.3030(3)
O9C O -0.0006(16) 0.4203(3) 0.1970(3)
O11A O -0.5124(19) 0.0966(3) 0.0489(4)
Li1* Li 1.332(3) 0.1279(3) 0.4173(8)
Li1A* Li -1.332(3) 0.1279(3) 0.0827(8)
Li1D Li 0.668(3) -0.1279(3) 0.5827(8)
Li1F Li 1.168(3) 0.3721(3) 0.5827(8)
#END
