
#######################################################################
#
#                 Cambridge Crystallographic Data Centre
#                                CCDC
#
#######################################################################
#
# If this CIF has been generated from an entry in the Cambridge
# Structural Database, then it will include bibliographic, chemical,
# crystal, experimental, refinement or atomic coordinate data resulting
# from the CCDC's data processing and validation procedures.
#
#######################################################################

data_CSD_CIF_QEJQON
_audit_creation_date 2012-12-31
_audit_creation_method CSD-ConQuest-V1
_database_code_CSD QEJQON
_database_code_depnum_ccdc_archive 'CCDC 902104'
_chemical_formula_sum 'C10 H33 N2 O16.5 P4 Zr1'
_chemical_formula_moiety
;
(H1 1+)2n,n(C10 H20 N2 O12 P4 Zr1 2-),n(H2),4.5n(H2 O1)
;
_journal_coden_Cambridge 9
_journal_volume 51
_journal_year 2012
_journal_page_first 6992
_journal_name_full 'Inorg.Chem. '
loop_
_publ_author_name
"F.Costantino"
"A.Donnadio"
"M.Casciola"
_chemical_name_systematic
;
catena-[Dihydrogen (\m~6~-dihydrogen 
(cyclohexane-1,4-diylbis(nitrilodimethanediyl))tetrakis(phosphonate))-zirconiu
m(iv) dihydrogen hydrate]
;
_cell_volume   2296.472
_exptl_crystal_colour 'white'
_exptl_special_details
;
powder data

;
_diffrn_ambient_temperature ?
_diffrn_special_details
;
The study was carried out at room temperature,in the range 283-303K

;
#These two values have been output from a single CSD field.
_refine_ls_R_factor_gt 0.0711
_refine_ls_wR_factor_gt 0.0711
_symmetry_cell_setting monoclinic
_symmetry_space_group_name_H-M 'C 2/c'
_symmetry_Int_Tables_number 15
loop_
_symmetry_equiv_pos_site_id
_symmetry_equiv_pos_as_xyz
1 x,y,z
2 -x,y,1/2-z
3 1/2+x,1/2+y,z
4 1/2-x,1/2+y,1/2-z
5 -x,-y,-z
6 x,-y,-1/2+z
7 -1/2-x,-1/2-y,-z
8 -1/2+x,-1/2-y,-1/2+z
_cell_length_a 23.038(1)
_cell_length_b 13.1094(7)
_cell_length_c 7.6853(4)
_cell_angle_alpha 90
_cell_angle_beta 98.349(3)
_cell_angle_gamma 90
_cell_formula_units_Z 4
loop_
_atom_type_symbol
_atom_type_radius_bond
C 0.68
N 0.68
O 0.68
P 1.05
Zr 1.65
loop_
_atom_site_label
_atom_site_type_symbol
_atom_site_fract_x
_atom_site_fract_y
_atom_site_fract_z
O1 O 0.0557(5) 0.7574(8) -0.1253(19)
O2 O 0.0619(4) 1.0211(9) 0.3404(25)
O3 O 0.0976(10) 0.5853(14) -0.1672(23)
C1 C 0.1089(9) 0.8310(14) 0.2739(23)
P1 P 0.0849(5) 0.6607(7) -0.0276(13)
O4 O 0.0430(8) 0.6195(17) 0.0907(24)
O5 O 0.1458(6) 0.9505(15) 0.5642(24)
P2 P 0.0914(5) 0.9229(10) 0.4424(16)
N1 N 0.1431(6) 0.7327(15) 0.2840(21)
C2 C 0.2372(9) 0.8208(16) 0.3522(27)
C3 C 0.1533(6) 0.6996(17) 0.1111(22)
C4 C 0.1924(6) 0.7488(11) 0.4185(16)
C5 C 0.2226(9) 0.6485(11) 0.4706(32)
O6 O 0.0444(7) 0.8771(14) 0.5412(18)
Zr1 Zr 0.00000 0.8716(5) -0.25000
O7 O 0.0794(14) 0.4009(25) 0.023(4)
O8 O 0.2343(16) 0.5330(24) -0.078(4)
O9 O 0.2016(15) 0.8609(29) 0.871(4)
O1F O 0.4443(5) 0.7426(8) 1.1253(19)
O1A O -0.0557(5) 0.7574(8) -0.3747(19)
O2F O 0.4381(4) 0.4789(9) 0.6596(25)
O2D O -0.0619(4) 0.9789(9) -0.3404(25)
O2E O 0.0619(4) 0.9789(9) -0.1596(25)
O3F O 0.4024(10) 0.9147(14) 1.1672(23)
C1F C 0.3911(9) 0.6690(14) 0.7261(23)
P1F P 0.4151(5) 0.8393(7) 1.0276(13)
O4F O 0.4570(8) 0.8805(17) 0.9093(24)
O5F O 0.3542(6) 0.5495(15) 0.4358(24)
P2F P 0.4086(5) 0.5771(10) 0.5576(16)
N1F N 0.3569(6) 0.7673(15) 0.7160(21)
C2F C 0.2628(9) 0.6792(16) 0.6478(27)
C3F C 0.3467(6) 0.8004(17) 0.8889(22)
C4F C 0.3076(6) 0.7512(11) 0.5815(16)
C5F C 0.2774(9) 0.8515(11) 0.5294(32)
O6F O 0.4556(7) 0.6229(14) 0.4588(18)
O6* O 0.0444(7) 0.8771(14) -0.4588(18)
O6A O -0.0444(7) 0.8771(14) -0.0412(18)
Zr1D Zr 0.00000 1.1284(5) 0.25000
Zr1* Zr 0.00000 0.8716(5) 0.75000
Zr1B Zr 0.50000 0.3716(5) 0.75000
Zr1F Zr 0.50000 0.6284(5) 0.25000
Zr1F* Zr 0.50000 0.6284(5) 1.25000
#END
