
#######################################################################
#
#                 Cambridge Crystallographic Data Centre
#                                CCDC
#
#######################################################################
#
# If this CIF has been generated from an entry in the Cambridge
# Structural Database, then it will include bibliographic, chemical,
# crystal, experimental, refinement or atomic coordinate data resulting
# from the CCDC's data processing and validation procedures.
#
#######################################################################

data_CSD_CIF_QEJYIO
_audit_creation_date 2006-09-20
_audit_creation_method CSD-ConQuest-V1
_database_code_CSD QEJYIO
_database_code_depnum_ccdc_archive 'CCDC 613487'
_chemical_formula_sum 'C68 H76 Cd4 Cl1 N8 Na1 O26'
_chemical_formula_moiety
;
(Na1 1+)n,n(C68 H68 Cd4 Cl1 N8 O22 1-),4n(H2 O1)
;
_journal_coden_Cambridge 1147
_journal_volume 6
_journal_year 2006
_journal_page_first 1351
_journal_name_full 'Cryst.Growth Des. '
loop_
_publ_author_name
"Ruihu Wang"
"Daqiang Yuan"
"Feilong Jiang"
"Lei Han"
"Yaqiong Gong"
"Maochun Hong"
_chemical_name_systematic
;
catena-(sodium 
tetrakis(\m~2~-1,1'-biphenyl-2,2'-dicarboxylato-O,O',O'',O''')-(\m~2~-chloro)-
(\m~2~-hexamethylenetetramine-N,N')-hexa-aqua-(hexamethylenetetramine-N)-tetra
-cadmium(ii) tetrahydrate)
;
_cell_volume   7374.402
_exptl_crystal_colour 'colorless'
_exptl_crystal_density_diffrn 1.738
_exptl_special_details
;
fluorescent

;
_exptl_crystal_description 'prism'
_diffrn_ambient_temperature 293
#These two values have been output from a single CSD field.
_refine_ls_R_factor_gt 0.0518
_refine_ls_wR_factor_gt 0.0518
_symmetry_cell_setting orthorhombic
_symmetry_space_group_name_H-M 'P n m a'
_symmetry_Int_Tables_number 62
loop_
_symmetry_equiv_pos_site_id
_symmetry_equiv_pos_as_xyz
1 x,y,z
2 1/2-x,-y,1/2+z
3 1/2+x,1/2-y,1/2-z
4 -x,1/2+y,-z
5 -x,-y,-z
6 -1/2+x,y,-1/2-z
7 -1/2-x,-1/2+y,-1/2+z
8 x,-1/2-y,z
_cell_length_a 11.303
_cell_length_b 26.8081(10)
_cell_length_c 24.337(1)
_cell_angle_alpha 90
_cell_angle_beta 90
_cell_angle_gamma 90
_cell_formula_units_Z 4
loop_
_atom_type_symbol
_atom_type_radius_bond
C 0.68
H 0.23
Cd 1.64
Cl 0.99
N 0.68
Na 0.97
O 0.68
loop_
_atom_site_label
_atom_site_type_symbol
_atom_site_fract_x
_atom_site_fract_y
_atom_site_fract_z
Cd1 Cd 0.74603(5) 0.25000 -0.16984(2)
Cd2 Cd 0.41464(4) 0.341389(16) -0.015093(17)
Cd3 Cd 0.64663(5) 0.25000 0.16563(2)
Cl1 Cl 0.3282(2) 0.25000 -0.00316(9)
Na1 Na 0.50000 0.50000 0.00000
N1 N 0.6607(5) 0.25000 -0.2643(2)
N2 N 0.4776(5) 0.25000 -0.3203(3)
N3 N 0.6543(4) 0.29577(17) -0.35126(19)
N4 N 0.5648(5) 0.25000 0.2600(2)
N5 N 0.3858(5) 0.25000 0.3184(2)
N6 N 0.5653(4) 0.29537(18) 0.34732(18)
O1 O 0.5508(5) 0.25000 -0.1421(3)
O2 O 0.2306(4) 0.36788(18) -0.0489(2)
O3 O 0.5991(4) 0.3050(2) -0.0072(2)
O4 O 0.4518(5) 0.25000 0.1318(2)
O5 O 0.8947(9) 0.2993(3) 0.0049(3)
O6 O 0.0779(5) 0.3604(2) 0.0401(3)
O7 O 0.7534(3) 0.33437(13) -0.17843(15)
O8 O 0.7759(4) 0.31120(14) -0.09336(15)
O9 O 0.4481(4) 0.33727(14) -0.11121(19)
O10 O 0.5049(4) 0.40711(16) -0.07197(17)
O11 O 0.4409(5) 0.41180(18) 0.05356(18)
O12 O 0.3850(5) 0.33884(15) 0.0792(2)
O13 O 0.6970(3) 0.31349(13) 0.09465(15)
O14 O 0.6457(3) 0.33388(13) 0.17820(15)
C1 C 0.5288(6) 0.25000 -0.2643(3)
C2 C 0.5254(4) 0.2945(2) -0.3492(2)
H1 H 0.49480 0.29500 -0.38640
H2 H 0.49740 0.32430 -0.33080
C3 C 0.6953(7) 0.25000 -0.3790(3)
C4 C 0.7002(5) 0.2952(2) -0.2948(2)
H3 H 0.67310 0.32480 -0.27560
H4 H 0.78600 0.29610 -0.29580
C5 C 0.6077(6) 0.25000 0.3749(3)
C6 C 0.4354(4) 0.2944(2) 0.3466(2)
H5 H 0.40670 0.32420 0.32840
H6 H 0.40660 0.29500 0.38420
C7 C 0.4333(6) 0.25000 0.2611(3)
C8 C 0.6075(5) 0.2948(2) 0.2900(2)
H7 H 0.69330 0.29530 0.28970
H8 H 0.58000 0.32460 0.27140
C9 C 0.7683(4) 0.34448(18) -0.1287(2)
C10 C 0.7855(4) 0.39812(18) -0.1127(2)
C11 C 0.7201(4) 0.43684(18) -0.1373(2)
C12 C 0.7482(6) 0.4856(2) -0.1235(3)
H9 H 0.70620 0.51160 -0.13960
C13 C 0.8370(7) 0.4965(2) -0.0865(3)
H10 H 0.85420 0.52950 -0.07790
C14 C 0.9001(6) 0.4585(3) -0.0625(3)
H11 H 0.96050 0.46560 -0.03780
C15 C 0.8733(5) 0.4096(2) -0.0753(2)
H12 H 0.91520 0.38400 -0.05840
C16 C 0.4924(4) 0.3807(2) -0.1133(2)
C17 C 0.5237(4) 0.40062(18) -0.1694(2)
C18 C 0.6281(5) 0.42778(18) -0.1798(2)
C19 C 0.6464(5) 0.4465(2) -0.2321(3)
H13 H 0.71470 0.46480 -0.23910
C20 C 0.5671(7) 0.4390(2) -0.2741(3)
H14 H 0.58170 0.45150 -0.30910
C21 C 0.4645(6) 0.4123(2) -0.2631(3)
H15 H 0.40940 0.40710 -0.29080
C22 C 0.4439(5) 0.3934(2) -0.2116(3)
H16 H 0.37490 0.37550 -0.20500
C23 C 0.4141(4) 0.3825(2) 0.0902(2)
C24 C 0.4155(4) 0.39769(17) 0.1493(2)
C25 C 0.5104(5) 0.42406(18) 0.1724(2)
C26 C 0.5025(5) 0.4389(2) 0.2277(2)
H17 H 0.56380 0.45700 0.24360
C27 C 0.4028(6) 0.4263(2) 0.2591(3)
H18 H 0.39870 0.43570 0.29580
C28 C 0.3109(6) 0.4001(2) 0.2355(3)
H19 H 0.24440 0.39220 0.25630
C29 C 0.3176(5) 0.3858(2) 0.1815(2)
H20 H 0.25560 0.36770 0.16610
C30 C 0.6755(4) 0.34582(18) 0.1303(2)
C31 C 0.6920(4) 0.40039(18) 0.1183(2)
C32 C 0.6181(4) 0.43694(18) 0.1408(2)
C33 C 0.6454(6) 0.4870(2) 0.1320(3)
H21 H 0.59730 0.51160 0.14710
C34 C 0.7430(7) 0.5006(3) 0.1012(3)
H22 H 0.76030 0.53420 0.09580
C35 C 0.8139(6) 0.4649(3) 0.0788(3)
H23 H 0.87960 0.47420 0.05820
C36 C 0.7885(5) 0.4150(2) 0.0866(3)
H24 H 0.83640 0.39080 0.07050
Cd1E Cd 0.24603(5) 0.25000 -0.33016(2)
Cd2G Cd 0.41464(4) 0.158611(16) -0.015093(17)
N2E N 0.9776(5) 0.25000 -0.1797(3)
N3G N 0.6543(4) 0.20423(17) -0.35126(19)
N6G N 0.5653(4) 0.20463(18) 0.34732(18)
O2G O 0.2306(4) 0.13212(18) -0.0489(2)
O3G O 0.5991(4) 0.1950(2) -0.0072(2)
O7G O 0.7534(3) 0.16563(13) -0.17843(15)
O8G O 0.7759(4) 0.18880(14) -0.09336(15)
O9G O 0.4481(4) 0.16273(14) -0.11121(19)
O10G O 0.5049(4) 0.09289(16) -0.07197(17)
O11G O 0.4409(5) 0.08820(18) 0.05356(18)
O12G O 0.3850(5) 0.16116(15) 0.0792(2)
O13G O 0.6970(3) 0.18651(13) 0.09465(15)
O14G O 0.6457(3) 0.16612(13) 0.17820(15)
C2G C 0.5254(4) 0.2055(2) -0.3492(2)
H1G H 0.49480 0.20500 -0.38640
H2G H 0.49740 0.17570 -0.33080
C4G C 0.7002(5) 0.2048(2) -0.2948(2)
H3G H 0.67310 0.17520 -0.27560
H4G H 0.78600 0.20390 -0.29580
C6G C 0.4354(4) 0.2056(2) 0.3466(2)
H5G H 0.40670 0.17580 0.32840
H6G H 0.40660 0.20500 0.38420
C8G C 0.6075(5) 0.2052(2) 0.2900(2)
H7G H 0.69330 0.20470 0.28970
H8G H 0.58000 0.17540 0.27140
C9G C 0.7683(4) 0.15552(18) -0.1287(2)
C10G C 0.7855(4) 0.10188(18) -0.1127(2)
C11G C 0.7201(4) 0.06316(18) -0.1373(2)
C12G C 0.7482(6) 0.0144(2) -0.1235(3)
H9G H 0.70620 -0.01160 -0.13960
C13G C 0.8370(7) 0.0035(2) -0.0865(3)
H10G H 0.85420 -0.02950 -0.07790
C14G C 0.9001(6) 0.0415(3) -0.0625(3)
H11G H 0.96050 0.03440 -0.03780
C15G C 0.8733(5) 0.0904(2) -0.0753(2)
H12G H 0.91520 0.11600 -0.05840
C16G C 0.4924(4) 0.1193(2) -0.1133(2)
C17G C 0.5237(4) 0.09938(18) -0.1694(2)
C18G C 0.6281(5) 0.07222(18) -0.1798(2)
C19G C 0.6464(5) 0.0535(2) -0.2321(3)
H13G H 0.71470 0.03520 -0.23910
C20G C 0.5671(7) 0.0610(2) -0.2741(3)
H14G H 0.58170 0.04850 -0.30910
C21G C 0.4645(6) 0.0877(2) -0.2631(3)
H15G H 0.40940 0.09290 -0.29080
C22G C 0.4439(5) 0.1066(2) -0.2116(3)
H16G H 0.37490 0.12450 -0.20500
C23G C 0.4141(4) 0.1175(2) 0.0902(2)
C24G C 0.4155(4) 0.10231(17) 0.1493(2)
C25G C 0.5104(5) 0.07594(18) 0.1724(2)
C26G C 0.5025(5) 0.0611(2) 0.2277(2)
H17G H 0.56380 0.04300 0.24360
C27G C 0.4028(6) 0.0737(2) 0.2591(3)
H18G H 0.39870 0.06430 0.29580
C28G C 0.3109(6) 0.0999(2) 0.2355(3)
H19G H 0.24440 0.10780 0.25630
C29G C 0.3176(5) 0.1142(2) 0.1815(2)
H20G H 0.25560 0.13230 0.16610
C30G C 0.6755(4) 0.15418(18) 0.1303(2)
C31G C 0.6920(4) 0.09961(18) 0.1183(2)
C32G C 0.6181(4) 0.06306(18) 0.1408(2)
C33G C 0.6454(6) 0.0130(2) 0.1320(3)
H21G H 0.59730 -0.01160 0.14710
C34G C 0.7430(7) -0.0006(3) 0.1012(3)
H22G H 0.76030 -0.03420 0.09580
C35G C 0.8139(6) 0.0351(3) 0.0788(3)
H23G H 0.87960 0.02580 0.05820
C36G C 0.7885(5) 0.0850(2) 0.0866(3)
H24G H 0.83640 0.10920 0.07050
#END
