
#######################################################################
#
#                 Cambridge Crystallographic Data Centre
#                                CCDC
#
#######################################################################
#
# If this CIF has been generated from an entry in the Cambridge
# Structural Database, then it will include bibliographic, chemical,
# crystal, experimental, refinement or atomic coordinate data resulting
# from the CCDC's data processing and validation procedures.
#
#######################################################################

data_CSD_CIF_QEKCUH
_audit_creation_date 2017-09-06
_audit_creation_method CSD-ConQuest-V1
_database_code_CSD QEKCUH
_database_code_depnum_ccdc_archive 'CCDC 1510027'
_chemical_formula_sum 'C60 H152.2 Ca2 Co2 Mo15 N20 O105.1 P6'
_chemical_formula_moiety
;
(H16 Ca2 Mo15 O77 P6 14-)n,2(C30 H24 Co1 N6 3+),8(H4 N1 1+),28.1(H2 O1)
;
_journal_coden_Cambridge 1290
_journal_year 2017
_journal_page_first 3525
_journal_name_full 'Eur.J.Inorg.Chem. '
loop_
_publ_author_name
"H.I.Buvailo"
"V.G.Makhankova"
"V.N.Kokozay"
"I.V.Omelchenko"
"S.V.Shishkina"
"P.Zabierowski"
"D.Matoga"
"J.Jezierska"
_chemical_name_systematic
;
catena-[octakis(ammonium) bis(tris(2,2'-bipyridine)-cobalt(iii)) 
hexakis(\m-phosphato)-pentadecakis(\m-oxo)-octa-aqua-triacontaoxo-di-calcium-p
entadeca-molybdenum hydrate]
;
_cell_volume  29170.808
_exptl_crystal_colour 'dark blue'
_exptl_crystal_density_diffrn 2.121
_exptl_special_details
;
, Magnetic properties

;
_exptl_crystal_description 'block'
_diffrn_ambient_temperature 100
_refine_special_details
;
O19S and O20S disordered over two sites with occupancies 0.6:0.4; O24S and 
O10S disordered over two sites with occupancies 0.75:0.25; O25S,O26S,O28S,O7S 
and O16S,O17S,O18S,O22S,O23S disordered over two sites with occupancies 
0.75:0.25; O2S and O14S disordered over two sites with occupancies 0.65:0.35; 
O8S and O11S disordered over two sites with occupancies 0.5:0.5.
;
#These two values have been output from a single CSD field.
_refine_ls_R_factor_gt 0.0571
_refine_ls_wR_factor_gt 0.0571
_symmetry_cell_setting orthorhombic
_symmetry_space_group_name_H-M 'F d d 2'
_symmetry_Int_Tables_number 43
loop_
_symmetry_equiv_pos_site_id
_symmetry_equiv_pos_as_xyz
1 x,y,z
2 -x,-y,z
3 1/4-x,1/4+y,1/4+z
4 1/4+x,1/4-y,1/4+z
5 x,1/2+y,1/2+z
6 -x,1/2-y,1/2+z
7 1/4-x,3/4+y,3/4+z
8 1/4+x,3/4-y,3/4+z
9 1/2+x,y,1/2+z
10 1/2-x,-y,1/2+z
11 3/4-x,1/4+y,3/4+z
12 3/4+x,1/4-y,3/4+z
13 1/2+x,1/2+y,z
14 1/2-x,1/2-y,z
15 3/4-x,3/4+y,1/4+z
16 3/4+x,3/4-y,1/4+z
_cell_length_a 60.289(3)
_cell_length_b 34.7893(15)
_cell_length_c 13.9080(4)
_cell_angle_alpha 90
_cell_angle_beta 90
_cell_angle_gamma 90
_cell_formula_units_Z 8
loop_
_atom_type_symbol
_atom_type_radius_bond
C 0.68
H 0.23
Ca 1.76
Co 1.26
Mo 1.54
N 0.68
O 0.68
P 1.05
loop_
_atom_site_label
_atom_site_type_symbol
_atom_site_fract_x
_atom_site_fract_y
_atom_site_fract_z
Co1 Co 0.51003(3) 0.32504(5) 0.13276(12)
N1 N 0.53655(16) 0.3417(3) 0.0674(7)
N2 N 0.49633(17) 0.3316(3) 0.0070(7)
N3 N 0.51189(18) 0.2721(3) 0.0969(7)
N4 N 0.48237(18) 0.3081(3) 0.1935(7)
N5 N 0.52482(18) 0.3180(3) 0.2546(8)
N6 N 0.50645(18) 0.3766(3) 0.1772(7)
C1 C 0.5559(2) 0.3508(4) 0.1057(9)
H1 H 0.55803 0.34596 0.17228
C2 C 0.5731(2) 0.3667(4) 0.0558(9)
H2 H 0.58645 0.37403 0.08730
C3 C 0.5705(2) 0.3719(4) -0.0426(10)
H3 H 0.58218 0.38195 -0.08060
C4 C 0.5503(2) 0.3619(4) -0.0841(10)
H4 H 0.54793 0.36598 -0.15090
C5 C 0.5341(2) 0.3466(4) -0.0295(9)
C6 C 0.5118(2) 0.3376(4) -0.0638(8)
C7 C 0.5060(2) 0.3351(4) -0.1604(8)
H5 H 0.51659 0.33981 -0.20940
C8 C 0.4846(2) 0.3258(4) -0.1832(9)
H6 H 0.48043 0.32265 -0.24864
C9 C 0.4691(2) 0.3210(4) -0.1120(9)
H7 H 0.45410 0.31581 -0.12837
C10 C 0.4753(2) 0.3238(4) -0.0166(9)
H8 H 0.46450 0.32009 0.03249
C11 C 0.5282(2) 0.2560(4) 0.0434(9)
H9 H 0.54075 0.27092 0.02581
C12 C 0.5269(3) 0.2185(4) 0.0144(10)
H10 H 0.53832 0.20778 -0.02427
C13 C 0.5086(2) 0.1955(4) 0.0415(9)
H11 H 0.50746 0.16953 0.02067
C14 C 0.4927(2) 0.2112(4) 0.0976(9)
H12 H 0.48050 0.19601 0.11860
C15 C 0.4941(2) 0.2500(4) 0.1247(8)
C16 C 0.4778(2) 0.2705(4) 0.1828(9)
C17 C 0.4589(3) 0.2549(5) 0.2183(11)
H13 H 0.45582 0.22836 0.20962
C18 C 0.4441(3) 0.2786(5) 0.2679(12)
H14 H 0.43070 0.26821 0.29242
C19 C 0.4488(3) 0.3161(5) 0.2812(11)
H15 H 0.43902 0.33225 0.31625
C20 C 0.4685(2) 0.3307(5) 0.242(1)
H16 H 0.47199 0.35708 0.25022
C21 C 0.5352(2) 0.2863(4) 0.2838(9)
H17 H 0.53551 0.26449 0.24276
C22 C 0.5456(2) 0.2843(4) 0.3719(9)
H18 H 0.55281 0.26133 0.39153
C23 C 0.5453(2) 0.3151(4) 0.4294(9)
H19 H 0.55230 0.31407 0.49053
C24 C 0.5347(2) 0.3492(4) 0.3998(9)
H20 H 0.53460 0.37140 0.43943
C25 C 0.5243(2) 0.3492(4) 0.3115(9)
C26 C 0.5131(2) 0.3824(4) 0.2688(10)
C27 C 0.5086(2) 0.4165(4) 0.3154(10)
H21 H 0.51340 0.42061 0.37967
C28 C 0.4970(3) 0.4450(4) 0.2657(11)
H22 H 0.49278 0.46806 0.29757
C29 C 0.4916(3) 0.4396(4) 0.1712(11)
H23 H 0.48470 0.45956 0.13533
C30 C 0.4964(2) 0.4049(4) 0.1288(10)
H24 H 0.49236 0.40085 0.06346
Mo1 Mo 0.64716(2) 0.41374(4) 0.61144(8)
Mo2 Mo 0.59911(2) 0.37303(4) 0.54953(8)
Mo3 Mo 0.58874(2) 0.39409(4) 0.31855(9)
Mo4 Mo 0.64045(2) 0.43171(6) 0.22227(9)
Mo5 Mo 0.67064(2) 0.45570(6) 0.41695(9)
Mo6 Mo 0.50795(2) 0.44932(4) 0.87716(8)
Mo7 Mo 0.50510(2) 0.42139(3) 0.64769(8)
Mo8 Mo 0.50000 0.50000 0.50866(11)
Ca1 Ca 0.58209(5) 0.52490(12) 0.5735(3)
P1 P 0.64327(6) 0.36519(14) 0.3955(3)
P2 P 0.61504(6) 0.46070(12) 0.4457(3)
P3 P 0.53146(6) 0.50784(10) 0.7151(3)
O1 O 0.57907(15) 0.3889(3) 0.4496(7)
O2 O 0.5552(2) 0.5552(4) 0.4770(9)
H25 H 0.56037 0.56001 0.41863
H26 H 0.54045 0.54588 0.49365
O3 O 0.58685(16) 0.3469(3) 0.2813(7)
O4 O 0.6490(2) 0.4125(5) 0.1182(9)
O5 O 0.56374(16) 0.4657(3) 0.5348(8)
H27 H 0.56146 0.46341 0.47150
H28 H 0.55050 0.46436 0.56337
O6 O 0.63681(16) 0.4376(3) 0.7088(6)
O7 O 0.5962(3) 0.5725(6) 0.4239(13)
H29 H 0.60085 0.55864 0.36776
H30 H 0.60867 0.58821 0.44105
O8 O 0.62850(15) 0.3697(3) 0.6092(7)
O9 O 0.59982(19) 0.4899(3) 0.7007(10)
H31 H 0.61096 0.47627 0.67859
H32 H 0.59041 0.47412 0.72791
O10 O 0.67027(14) 0.3923(3) 0.6561(7)
O11 O 0.65673(15) 0.3928(3) 0.4619(7)
O12 O 0.65919(15) 0.4580(3) 0.5472(6)
O13 O 0.58480(15) 0.3909(3) 0.6443(7)
O14 O 0.59360(18) 0.3251(3) 0.5533(8)
O15 O 0.61822(15) 0.3716(3) 0.4140(7)
O16 O 0.59484(14) 0.4512(3) 0.3821(6)
O17 O 0.56540(15) 0.4128(3) 0.2696(7)
O18 O 0.61089(16) 0.4138(3) 0.2334(7)
O19 O 0.64774(19) 0.3790(4) 0.2904(8)
O20 O 0.61650(14) 0.4307(3) 0.5295(6)
O21 O 0.6343(2) 0.4776(4) 0.1865(8)
O22 O 0.66832(17) 0.4437(4) 0.2833(7)
O23 O 0.63553(15) 0.4566(3) 0.3812(7)
O24 O 0.69584(18) 0.4367(4) 0.4363(7)
O25 O 0.67574(19) 0.5037(4) 0.4099(8)
O26 O 0.65009(18) 0.3244(4) 0.4057(9)
O27 O 0.61290(17) 0.5011(3) 0.4859(7)
O28 O 0.50000 0.50000 0.9159(9)
O29 O 0.48509(16) 0.4238(3) 0.9139(6)
O30 O 0.52631(16) 0.4373(3) 0.9644(7)
O31 O 0.53482(14) 0.4835(3) 0.8061(6)
O32 O 0.51741(14) 0.4168(3) 0.7728(6)
O33 O 0.51341(14) 0.5383(2) 0.7400(6)
O34 O 0.48592(15) 0.3855(2) 0.6491(6)
O35 O 0.52666(15) 0.4036(3) 0.5822(6)
O36 O 0.52286(14) 0.4815(2) 0.6333(6)
O37 O 0.49034(15) 0.4507(3) 0.5461(6)
O38 O 0.55285(15) 0.5269(3) 0.6865(7)
O39 O 0.47890(15) 0.5103(3) 0.4314(6)
N7 N 0.5464(2) 0.4844(4) 0.1076(9)
H33 H 0.55193 0.48383 0.16826
H34 H 0.53531 0.47345 0.10348
H35 H 0.54610 0.50758 0.09859
H36 H 0.55795 0.47687 0.07638
N8 N 0.5496(2) 0.6322(4) 0.4959(10)
H37 H 0.55454 0.65085 0.52890
H38 H 0.55781 0.62865 0.44716
H39 H 0.54752 0.60942 0.52875
H40 H 0.53642 0.63816 0.48569
N9 N 0.55160(18) 0.5985(3) 0.7769(9)
H41 H 0.56443 0.60394 0.81959
H42 H 0.54455 0.61779 0.75560
H43 H 0.54192 0.58186 0.77719
H44 H 0.55682 0.58673 0.72689
N10 N 0.6445(2) 0.5314(3) 0.6301(10)
H45 H 0.63445 0.51635 0.60921
H46 H 0.64760 0.54786 0.58708
H47 H 0.65387 0.51279 0.63910
H48 H 0.64311 0.54559 0.68456
O40 O 0.6950(3) 0.3480(7) 0.8197(18)
H49 H 0.69215 0.36674 0.78368
H50 H 0.69578 0.32513 0.79839
O41 O 0.6242(5) 0.3732(10) 0.996(2)
H51 H 0.61951 0.37135 1.05331
H52 H 0.63017 0.39077 1.00532
O42 O 0.6220(2) 0.3558(5) 0.8126(11)
H53 H 0.61999 0.37266 0.85603
H54 H 0.61228 0.33824 0.81793
O43 O 0.54759(14) 0.3381(3) 0.6810(6)
H55 H 0.55852 0.33585 0.63801
H56 H 0.53839 0.35900 0.67558
O44 O 0.5739(2) 0.5708(5) 0.2454(10)
H57 H 0.57291 0.58312 0.19280
H58 H 0.56149 0.57204 0.27525
O45 O 0.6009(2) 0.5462(4) 0.8628(11)
H59 H 0.60744 0.53366 0.90669
H60 H 0.60491 0.53783 0.80806
O46 O 0.6381(4) 0.5078(7) 0.9142(17)
H61 H 0.64476 0.52019 0.95815
H62 H 0.62765 0.48977 0.95209
O47 O 0.6375(4) 0.5471(8) 0.337(2)
H63 H 0.62372 0.55216 0.33972
H64 H 0.64475 0.56794 0.32981
O48 O 0.57311(17) 0.4404(3) 0.7964(7)
H65 H 0.57297 0.42366 0.75195
H66 H 0.56038 0.45071 0.80096
O49 O 0.5863(2) 0.3089(4) 0.7768(8)
H67 H 0.58553 0.30825 0.83781
H68 H 0.57348 0.31360 0.75372
O50 O 0.5591(2) 0.5312(4) 0.9487(10)
H69 H 0.56572 0.50891 0.95828
H70 H 0.56748 0.54562 0.90856
O51 O 0.5599(2) 0.4974(4) 0.3067(9)
H71 H 0.54988 0.50892 0.33814
H72 H 0.56942 0.48807 0.34547
O52 O 0.6759(2) 0.5270(4) 0.2025(9)
H73 H 0.67824 0.54931 0.22527
H74 H 0.66280 0.51991 0.21655
O53 O 0.5902(4) 0.4655(7) 0.0990(16)
H75 H 0.59828 0.45753 0.14311
H76 H 0.59488 0.47389 0.04528
O54 O 0.6724(2) 0.4964(5) 0.7789(10)
H77 H 0.66849 0.51130 0.82421
H78 H 0.66131 0.48347 0.75987
O55? O 0.6051(5) 0.4485(9) 0.940(2)
H79? H 0.61048 0.42866 0.97066
H80? H 0.59782 0.44743 0.88823
O56? O 0.6232(9) 0.4302(14) 0.950(3)
H81? H 0.62419 0.40907 0.92041
H82? H 0.63431 0.44420 0.93773
O57? O 0.6394(7) 0.4034(13) 0.932(3)
H83? H 0.64931 0.39498 0.97022
H84? H 0.63284 0.38465 0.90541
O58? O 0.6796(6) 0.4196(12) 0.835(3)
H85? H 0.67410 0.41701 0.89065
H86? H 0.67346 0.43508 0.79910
O59? O 0.6579(8) 0.4378(15) 0.888(3)
H87? H 0.64543 0.43360 0.91390
H88? H 0.66339 0.41662 0.86813
O60? O 0.6872(8) 0.3742(15) 0.865(3)
H89? H 0.67799 0.36828 0.82561
H90? H 0.69848 0.38870 0.85923
O61? O 0.6052(6) 0.5348(12) 0.130(4)
H91? H 0.60295 0.53656 0.07025
H92? H 0.61395 0.55424 0.15837
O62? O 0.6164(5) 0.5583(9) 0.205(2)
H93? H 0.61077 0.54416 0.24823
H94? H 0.61426 0.58183 0.21884
O63? O 0.6274(7) 0.5675(11) 0.408(3)
H95? H 0.62891 0.58686 0.44526
H96? H 0.61781 0.57259 0.36539
O64? O 0.6376(7) 0.5008(11) 0.985(3)
H97? H 0.64714 0.49233 0.88752
H98? H 0.63341 0.52346 0.99927
Mo1A Mo 0.35284(2) 0.58626(4) 0.61144(8)
Mo2A Mo 0.40089(2) 0.62697(4) 0.54953(8)
Mo3A Mo 0.41126(2) 0.60591(4) 0.31855(9)
Mo4A Mo 0.35955(2) 0.56829(6) 0.22227(9)
Mo5A Mo 0.32936(2) 0.54430(6) 0.41695(9)
Mo6A Mo 0.49205(2) 0.55068(4) 0.87716(8)
Mo7A Mo 0.49490(2) 0.57861(3) 0.64769(8)
Ca1A Ca 0.41791(5) 0.47510(12) 0.5735(3)
P1A P 0.35673(6) 0.63481(14) 0.3955(3)
P2A P 0.38496(6) 0.53930(12) 0.4457(3)
P3A P 0.46854(6) 0.49216(10) 0.7151(3)
O1A O 0.42093(15) 0.6111(3) 0.4496(7)
O2A O 0.4448(2) 0.4448(4) 0.4770(9)
H25A H 0.43963 0.43999 0.41863
H26A H 0.45955 0.45412 0.49365
O3A O 0.41315(16) 0.6531(3) 0.2813(7)
O4A O 0.3510(2) 0.5875(5) 0.1182(9)
O5A O 0.43626(16) 0.5343(3) 0.5348(8)
H27A H 0.43854 0.53659 0.47150
H28A H 0.44950 0.53564 0.56337
O6A O 0.36319(16) 0.5624(3) 0.7088(6)
O7A O 0.4038(3) 0.4275(6) 0.4239(13)
H29A H 0.39915 0.44136 0.36776
H30A H 0.39133 0.41179 0.44105
O8A O 0.37150(15) 0.6303(3) 0.6092(7)
O9A O 0.40018(19) 0.5101(3) 0.7007(10)
H31A H 0.38904 0.52373 0.67859
H32A H 0.40959 0.52588 0.72791
O10A O 0.32973(14) 0.6077(3) 0.6561(7)
O11A O 0.34327(15) 0.6072(3) 0.4619(7)
O12A O 0.34081(15) 0.5420(3) 0.5472(6)
O13A O 0.41520(15) 0.6091(3) 0.6443(7)
O14A O 0.40640(18) 0.6749(3) 0.5533(8)
O15A O 0.38178(15) 0.6284(3) 0.4140(7)
O16A O 0.40516(14) 0.5488(3) 0.3821(6)
O17A O 0.43460(15) 0.5872(3) 0.2696(7)
O18A O 0.38911(16) 0.5862(3) 0.2334(7)
O19A O 0.35226(19) 0.6210(4) 0.2904(8)
O20A O 0.38350(14) 0.5693(3) 0.5295(6)
O21A O 0.3657(2) 0.5224(4) 0.1865(8)
O22A O 0.33168(17) 0.5563(4) 0.2833(7)
O23A O 0.36447(15) 0.5434(3) 0.3812(7)
O24A O 0.30416(18) 0.5633(4) 0.4363(7)
O25A O 0.32426(19) 0.4963(4) 0.4099(8)
O26A O 0.34991(18) 0.6756(4) 0.4057(9)
O27A O 0.38710(17) 0.4989(3) 0.4859(7)
O29A O 0.51491(16) 0.5762(3) 0.9139(6)
O30A O 0.47369(16) 0.5627(3) 0.9644(7)
O31A O 0.46518(14) 0.5165(3) 0.8061(6)
O32A O 0.48259(14) 0.5832(3) 0.7728(6)
O33A O 0.48659(14) 0.4617(2) 0.7400(6)
O34A O 0.51408(15) 0.6145(2) 0.6491(6)
O35A O 0.47334(15) 0.5964(3) 0.5822(6)
O36A O 0.47714(14) 0.5185(2) 0.6333(6)
O37A O 0.50966(15) 0.5493(3) 0.5461(6)
O38A O 0.44715(15) 0.4731(3) 0.6865(7)
O39A O 0.52110(15) 0.4897(3) 0.4314(6)
Ca1F Ca 0.66791(5) 0.27490(12) 0.3235(3)
Ca1K Ca 0.33209(5) 0.72510(12) 0.3235(3)
O26B O 0.59991(18) 0.5744(4) 0.6557(9)
O26O O 0.40009(18) 0.4256(4) 0.6557(9)
#END
