
#######################################################################
#
#                 Cambridge Crystallographic Data Centre
#                                CCDC
#
#######################################################################
#
# If this CIF has been generated from an entry in the Cambridge
# Structural Database, then it will include bibliographic, chemical,
# crystal, experimental, refinement or atomic coordinate data resulting
# from the CCDC's data processing and validation procedures.
#
#######################################################################

data_CSD_CIF_QELSUW
_audit_creation_date 2006-09-20
_audit_creation_method CSD-ConQuest-V1
_database_code_CSD QELSUW
_database_code_depnum_ccdc_archive 'CCDC 616768'
_chemical_formula_sum 'C8 H18 N8 O16 U2'
_chemical_formula_moiety
;
(C2 H7 N4 O1 1+)2n,n(C4 H4 O14 U2 2-)
;
_journal_coden_Cambridge 367
_journal_volume 32
_journal_year 2006
_journal_page_first 230
_journal_name_full 'Koord.Khim.(Russ.)(Coord.Chem.) '
loop_
_publ_author_name
"Zh.V.Akhmerkina"
"E.V.Peresypkina"
"A.V.Virovets"
"L.B.Serezhkina"
_chemical_name_systematic
;
catena-(bis(1-Carbamoylguanidinium) 
bis(\m~2~-hydroxo)-oxalato-bis(formato-O)-tetraoxo-di-uranium(vi))
;
_cell_volume    532.703
_exptl_crystal_colour 'yellow'
_exptl_crystal_density_diffrn 2.988
_diffrn_ambient_temperature 295
#These two values have been output from a single CSD field.
_refine_ls_R_factor_gt 0.0209
_refine_ls_wR_factor_gt 0.0209
_symmetry_cell_setting triclinic
_symmetry_space_group_name_H-M 'P -1'
_symmetry_Int_Tables_number 2
loop_
_symmetry_equiv_pos_site_id
_symmetry_equiv_pos_as_xyz
1 x,y,z
2 -x,-y,-z
_cell_length_a 5.5621(8)
_cell_length_b 8.149(1)
_cell_length_c 11.876(2)
_cell_angle_alpha 88.866(7)
_cell_angle_beta 82.204(6)
_cell_angle_gamma 87.378(6)
_cell_formula_units_Z 1
loop_
_atom_type_symbol
_atom_type_radius_bond
C 0.68
H 0.23
N 0.68
O 0.68
U 1.48
loop_
_atom_site_label
_atom_site_type_symbol
_atom_site_fract_x
_atom_site_fract_y
_atom_site_fract_z
U1 U 0.12692(2) 0.303971(15) 0.066509(11)
O1 O 0.3536(6) 0.4164(4) 0.1204(3)
O2 O -0.1004(6) 0.1894(4) 0.0179(3)
O3 O -0.1529(6) 0.5256(4) 0.0953(3)
H1 H -0.278(12) 0.505(8) 0.110(6)
C1 C 0.4787(7) -0.0339(5) 0.0606(3)
O4 O 0.3337(5) 0.0500(4) 0.1304(2)
O5 O 0.5857(5) -0.1655(4) 0.0820(3)
C2 C -0.2166(12) 0.1701(9) 0.2960(6)
H2 H -0.31920 0.14270 0.24430
O6 O -0.0440(7) 0.2486(5) 0.2563(3)
O7 O -0.2770(7) 0.1213(6) 0.3940(4)
N1 N 0.0148(10) 0.2452(7) 0.5409(4)
H3 H -0.04040 0.21200 0.48150
N2 N 0.2703(10) 0.3974(7) 0.4162(5)
H4 H 0.38480 0.46440 0.39840
H5 H 0.19500 0.35960 0.36430
C3 C -0.0896(12) 0.1921(8) 0.6422(6)
N3 N -0.0168(13) 0.2313(8) 0.7397(5)
H6 H 0.10340 0.29400 0.73980
H7 H -0.08990 0.19400 0.80290
N4 N -0.2767(10) 0.0920(7) 0.6384(5)
H8 H -0.35160 0.05210 0.70030
H9 H -0.32030 0.06850 0.57410
O8 O 0.3060(9) 0.3993(6) 0.6046(4)
C4 C 0.2093(11) 0.3520(8) 0.5247(5)
U1A U -0.12692(2) 0.696029(15) -0.066509(11)
U1A* U 0.87308(2) -0.303971(15) -0.066509(11)
O1A O -0.3536(6) 0.5836(4) -0.1204(3)
O2A O 0.1004(6) 0.8106(4) -0.0179(3)
O3A O 0.1529(6) 0.4744(4) -0.0953(3)
H1A H 0.278(12) 0.495(8) -0.110(6)
C1A C 0.5213(7) 0.0339(5) -0.0606(3)
O4A O 0.6663(5) -0.0500(4) -0.1304(2)
O4A* O -0.3337(5) 0.9500(4) -0.1304(2)
O5A O 0.4143(5) 0.1655(4) -0.0820(3)
O5* O -0.4143(5) 0.8345(4) 0.0820(3)
C2A C 0.2166(12) 0.8299(9) -0.2960(6)
H2A H 0.31920 0.85730 -0.24430
O6A O 0.0440(7) 0.7514(5) -0.2563(3)
O7A O 0.2770(7) 0.8787(6) -0.3940(4)
#END
