
#######################################################################
#
#                 Cambridge Crystallographic Data Centre
#                                CCDC
#
#######################################################################
#
# If this CIF has been generated from an entry in the Cambridge
# Structural Database, then it will include bibliographic, chemical,
# crystal, experimental, refinement or atomic coordinate data resulting
# from the CCDC's data processing and validation procedures.
#
#######################################################################

data_CSD_CIF_QEMFOD01
_audit_creation_date 2001-05-23
_audit_creation_method CSD-ConQuest-V1
_database_code_CSD QEMFOD01
_database_code_depnum_ccdc_archive 'CCDC 159198'
_chemical_formula_sum 'C4 H20 B1 N1 O14 Sr1'
_chemical_formula_moiety
;
(C4 H8 B1 O10 Sr1 1-)n,n(H4 N1 1+),4n(H2 O1)
;
_journal_coden_Cambridge 1197
_journal_year 1998
_journal_page_first 95-2
_journal_name_full 'Latv.Khim.Z.(Latv.)(Latvian J.Chem.) '
loop_
_publ_author_name
"I.Zviedre"
"E.Shvarts"
"V.Bel'sky"
_chemical_name_systematic
;
catena-(Ammonium (\m~3~-tartratoborate)-diaqua-strontium tetrahydrate)
;
_cell_volume    301.090
_diffrn_ambient_temperature ?
_diffrn_special_details
;
The study was carried out at room temperature,in the range 283-303K

;
#These two values have been output from a single CSD field.
_refine_ls_R_factor_gt 0.044
_refine_ls_wR_factor_gt 0.044
_symmetry_cell_setting triclinic
_symmetry_space_group_name_H-M 'P 1'
_symmetry_Int_Tables_number 1
loop_
_symmetry_equiv_pos_site_id
_symmetry_equiv_pos_as_xyz
1 x,y,z
_cell_length_a 7.043(1)
_cell_length_b 7.076(1)
_cell_length_c 6.459(1)
_cell_angle_alpha 102.37(1)
_cell_angle_beta 106.70(1)
_cell_angle_gamma 85.33(1)
_cell_formula_units_Z 1
loop_
_atom_type_symbol
_atom_type_radius_bond
C 0.68
H 0.23
B 0.83
N 0.68
O 0.68
Sr 1.72
loop_
_atom_site_label
_atom_site_type_symbol
_atom_site_fract_x
_atom_site_fract_y
_atom_site_fract_z
Sr1 Sr 0.00000 0.00000 0.00000
O1 O -0.1522(11) -0.3211(11) -0.2356(13)
O2 O 0.0511(14) 0.3979(15) 0.1605(18)
O3 O -0.3789(14) -0.5097(13) -0.0525(15)
O4 O 0.5947(17) -0.6854(13) 0.4234(15)
O5 O 0.2755(11) -0.2652(11) -0.8676(13)
O6 O 0.5784(11) -0.3037(10) -0.6466(12)
O7 O 0.17176(97) -0.14116(95) -0.3370(12)
O8 O 0.1965(10) 0.0536(10) -0.5805(12)
O9 O -0.0529(10) 0.1219(11) -0.3716(12)
O10 O -0.0843(11) -0.1398(11) -0.6919(12)
O11 O 0.6399(11) 0.0924(10) -0.0746(13)
O12 O 0.3547(11) 0.1270(11) 0.0144(12)
N1 N 0.2033(15) -0.5495(13) -0.3210(18)
C1 C 0.4090(13) -0.2195(12) -0.6937(15)
C2 C 0.3820(13) -0.0457(13) -0.5180(14)
C3 C 0.3749(14) -0.1116(12) -0.3082(14)
C4 C 0.4614(14) 0.0464(14) -0.1056(16)
B1 B 0.0467(14) -0.0256(14) -0.5022(18)
H1 H 0.48573 0.04651 -0.48349
H2 H 0.45059 -0.22881 -0.29720
H3 H 0.17204 -0.59218 -0.47082
H4 H 0.33607 -0.55263 -0.27246
H5 H 0.15022 -0.62566 -0.25825
H6 H 0.15592 -0.42730 -0.28820
H7 H -0.20977 -0.31309 -0.36851
H8 H -0.03659 -0.31403 -0.24705
H9 H 0.16116 0.41930 0.14056
H10 H -0.05007 0.46674 0.10919
H11 H -0.35532 -0.50654 0.08372
H12 H -0.28367 -0.44122 -0.04536
H13 H 0.51454 -0.73113 0.29937
H14 H 0.63560 -0.75372 0.52205
O8* O 0.1965(10) 0.0536(10) 0.4195(12)
O10* O -0.0843(11) -0.1398(11) 0.3081(12)
O11* O -0.3601(11) 0.0924(10) -0.0746(13)
Sr1* Sr 0.00000 0.00000 -1.00000
Sr1** Sr 1.00000 0.00000 0.00000
O5* O 0.2755(11) -0.2652(11) 0.1324(13)
#END
