
#######################################################################
#
#                 Cambridge Crystallographic Data Centre
#                                CCDC
#
#######################################################################
#
# If this CIF has been generated from an entry in the Cambridge
# Structural Database, then it will include bibliographic, chemical,
# crystal, experimental, refinement or atomic coordinate data resulting
# from the CCDC's data processing and validation procedures.
#
#######################################################################

data_CSD_CIF_QEMZUG
_audit_creation_date 2018-01-13
_audit_creation_method CSD-ConQuest-V1
_database_code_CSD QEMZUG
_database_code_depnum_ccdc_archive 'CCDC 1810807'
_chemical_formula_sum 'C8 H22 Cd3 Cl8 N16 O2'
_chemical_formula_moiety
;
(C4 H8 Cd3 Cl8 N8 2-)n,2(C2 H5 N4 1+),2(H2 O1)
;
_journal_coeditor_code "xi2006"
_journal_coden_Cambridge 1828
_journal_volume 74
_journal_year 2018
_journal_page_first 147
_journal_name_full 'Acta Crystallogr.,Sect.E:Cryst.Commun. '
loop_
_publ_author_name
"M.Said"
"H.Boughzala"
_chemical_name_systematic
;
catena-(bis(4-amino-4H-1,2,4-triazol-1-ium) 
hexakis(\m-chloro)-bis(\m-4H-1,2,4-triazol-4-amine)-dichloro-tri-cadmium 
dihydrate)
;
_cell_volume   1438.687
_exptl_crystal_colour 'colorless'
_exptl_crystal_density_diffrn 2.298
_exptl_crystal_description 'prism'
_diffrn_ambient_temperature 298
#These two values have been output from a single CSD field.
_refine_ls_R_factor_gt 0.0401
_refine_ls_wR_factor_gt 0.0401
_symmetry_cell_setting monoclinic
_symmetry_space_group_name_H-M 'P 21/c'
_symmetry_Int_Tables_number 14
loop_
_symmetry_equiv_pos_site_id
_symmetry_equiv_pos_as_xyz
1 x,y,z
2 -x,1/2+y,1/2-z
3 -x,-y,-z
4 x,-1/2-y,-1/2+z
_cell_length_a 12.685(3)
_cell_length_b 15.498(3)
_cell_length_c 7.375(2)
_cell_angle_alpha 90
_cell_angle_beta 97.12(3)
_cell_angle_gamma 90
_cell_formula_units_Z 2
loop_
_atom_type_symbol
_atom_type_radius_bond
C 0.68
H 0.23
Cd 1.44
Cl 0.99
N 0.68
O 0.68
loop_
_atom_site_label
_atom_site_type_symbol
_atom_site_fract_x
_atom_site_fract_y
_atom_site_fract_z
Cd1 Cd 0.72922(3) 0.36225(2) 0.60671(4)
Cd2 Cd 0.50000 0.50000 0.50000
Cl1 Cl 0.6552(1) 0.45547(8) 0.31268(16)
Cl2 Cl 0.78296(10) 0.26723(9) 0.89644(16)
Cl3 Cl 0.63396(12) 0.47886(9) 0.79095(17)
Cl4 Cl 0.91217(11) 0.42626(9) 0.6250(2)
N1 N 0.5591(3) 0.2978(3) 0.5599(6)
N2 N 0.4709(4) 0.3474(3) 0.5015(6)
N3 N 0.4303(4) 0.2130(3) 0.4573(6)
N4 N 0.3704(5) 0.1390(3) 0.3952(8)
C1 C 0.5314(4) 0.2172(3) 0.5326(7)
H1 H 0.57550 0.16990 0.56130
C2 C 0.3953(4) 0.2949(4) 0.4392(8)
H2 H 0.32730 0.31140 0.38950
H3 H 0.42980 0.09770 0.36120
H4 H 0.350(6) 0.120(4) 0.516(11)
N5 N 1.0964(5) 0.2603(4) 0.1439(8)
N6 N 1.1503(5) 0.3284(4) 0.0808(9)
N7 N 0.9940(4) 0.3688(3) 0.1463(6)
N8 N 0.9074(4) 0.4233(3) 0.1599(6)
C3 C 1.0035(5) 0.2844(4) 0.1816(8)
H5 H 0.95280 0.24930 0.22530
C4 C 1.0865(6) 0.3931(4) 0.0848(11)
H6 H 1.103(5) 0.450(4) 0.066(9)
H7 H 1.127(6) 0.219(5) 0.158(11)
H8 H 0.85240 0.40020 0.10150
H9 H 0.91530 0.42710 0.28270
O1 O 0.1792(5) 0.3900(4) 0.5653(10)
H10 H 0.237(4) 0.396(5) 0.638(9)
H11 H 0.142(6) 0.435(4) 0.580(14)
Cd1B Cd 0.27078(3) 0.63775(2) 0.39329(4)
Cl1B Cl 0.3448(1) 0.54453(8) 0.68732(16)
Cl2B Cl 0.21704(10) 0.73277(9) 0.10356(16)
Cl3B Cl 0.36604(12) 0.52114(9) 0.20905(17)
Cl4B Cl 0.08783(11) 0.57374(9) 0.3750(2)
N1B N 0.4409(3) 0.7022(3) 0.4401(6)
N2B N 0.5291(4) 0.6526(3) 0.4985(6)
N3B N 0.5697(4) 0.7870(3) 0.5427(6)
N4B N 0.6296(5) 0.8610(3) 0.6048(8)
C1B C 0.4686(4) 0.7828(3) 0.4674(7)
H1B H 0.42450 0.83010 0.43870
C2B C 0.6047(4) 0.7051(4) 0.5608(8)
H2B H 0.67270 0.68860 0.61050
H3B H 0.57020 0.90230 0.63880
H4B H 0.650(6) 0.880(4) 0.484(11)
Cd1A Cd 0.27078(3) 0.86225(2) -0.10671(4)
Cd1C Cd 0.72922(3) 0.13775(2) 1.10671(4)
Cl2A Cl 0.21704(10) 0.76723(9) 0.60356(16)
Cl2C Cl 0.78296(10) 0.23277(9) 0.39644(16)
#END
