
#######################################################################
#
#                 Cambridge Crystallographic Data Centre
#                                CCDC
#
#######################################################################
#
# If this CIF has been generated from an entry in the Cambridge
# Structural Database, then it will include bibliographic, chemical,
# crystal, experimental, refinement or atomic coordinate data resulting
# from the CCDC's data processing and validation procedures.
#
#######################################################################

data_CSD_CIF_QENQUV
_audit_creation_date 2001-06-22
_audit_creation_method CSD-ConQuest-V1
_database_code_CSD QENQUV
_database_code_depnum_ccdc_archive 'CCDC 146132'
_chemical_formula_sum 'C60 H50 Br1 O4 P1 Se1 Sn2'
_chemical_formula_moiety
;
(C24 H20 P1 1+)n,n(C36 H30 Br1 O4 Se1 Sn2 1-)
;
_journal_coden_Cambridge 644
_journal_volume 56
_journal_year 2001
_journal_page_first 233
_journal_name_full 'Z.Naturforsch.,B:Chem.Sci. '
loop_
_publ_author_name
"C.A.Diop"
"L.Diop"
"U.Russo"
"A.Sanchez-Diaz"
"A.Castineiras"
_chemical_name_systematic
;
catena-[Tetraphenylphosphonium (\m~3~-selenato)-bromo-hexaphenyl-di-tin]
;
_chemical_melting_point 454.15
_cell_volume   5304.478
_exptl_crystal_colour 'colorless'
_exptl_crystal_density_diffrn 1.581
_exptl_special_details
;
Melting point range 454.15-455.15K

;
_exptl_crystal_description 'prism'
_exptl_crystal_preparation 'chloroform'
_diffrn_ambient_temperature ?
_diffrn_special_details
;
The study was carried out at room temperature,in the range 283-303K

;
#These two values have been output from a single CSD field.
_refine_ls_R_factor_gt 0.0428
_refine_ls_wR_factor_gt 0.0428
_symmetry_cell_setting monoclinic
_symmetry_space_group_name_H-M 'P 21/n'
_symmetry_Int_Tables_number 14
loop_
_symmetry_equiv_pos_site_id
_symmetry_equiv_pos_as_xyz
1 x,y,z
2 1/2+x,1/2-y,1/2+z
3 -x,-y,-z
4 -1/2-x,-1/2+y,-1/2-z
_cell_length_a 13.9434(10)
_cell_length_b 11.9926(10)
_cell_length_c 31.732(2)
_cell_angle_alpha 90
_cell_angle_beta 91.438(6)
_cell_angle_gamma 90
_cell_formula_units_Z 4
loop_
_atom_type_symbol
_atom_type_radius_bond
C 0.68
H 0.23
Br 1.21
O 0.68
P 1.05
Se 1.22
Sn 1.46
loop_
_atom_site_label
_atom_site_type_symbol
_atom_site_fract_x
_atom_site_fract_y
_atom_site_fract_z
Sn1 Sn 0.26126(2) 0.08377(3) 0.244816(9)
Sn2 Sn 0.54436(3) 0.32811(3) 0.131361(11)
Br1 Br 0.70338(5) 0.28558(6) 0.08736(3)
Se1 Se 0.31469(3) 0.35157(3) 0.191180(13)
O1 O 0.3353(2) 0.2281(2) 0.21174(9)
O2 O 0.4042(2) 0.3801(3) 0.16091(11)
O3 O 0.3213(2) 0.4416(3) 0.23021(10)
O4 O 0.2144(3) 0.3624(3) 0.16569(12)
C1 C 0.2727(4) 0.1687(4) 0.30383(14)
C2 C 0.2124(4) 0.1471(4) 0.33679(15)
H1 H 0.16450 0.09350 0.33360
C3 C 0.2226(5) 0.2041(5) 0.37430(17)
H2 H 0.18070 0.18970 0.39600
C4 C 0.2936(5) 0.2814(5) 0.37996(18)
H3 H 0.29970 0.31950 0.40540
C5 C 0.3564(5) 0.3031(5) 0.34821(18)
H4 H 0.40550 0.35480 0.35220
C6 C 0.3455(4) 0.2474(4) 0.31040(15)
H5 H 0.38750 0.26250 0.28880
C7 C 0.3868(3) -0.0097(4) 0.23188(14)
C8 C 0.4773(4) 0.0344(6) 0.2403(2)
H6 H 0.48300 0.10710 0.25030
C9 C 0.5596(4) -0.0283(7) 0.2340(2)
H7 H 0.61980 0.00200 0.24010
C10 C 0.5516(5) -0.1342(7) 0.2190(3)
H8 H 0.60610 -0.17600 0.21370
C11 C 0.4635(6) -0.1775(6) 0.2119(4)
H9 H 0.45770 -0.25080 0.20270
C12 C 0.3816(4) -0.1154(5) 0.2180(3)
H10 H 0.32180 -0.14730 0.21250
C13 C 0.1429(4) 0.0959(4) 0.20053(15)
C14 C 0.1590(5) 0.1128(5) 0.15866(17)
H11 H 0.22150 0.11810 0.14930
C15 C 0.0819(7) 0.1222(6) 0.1298(2)
H12 H 0.09360 0.13380 0.10140
C16 C -0.0067(7) 0.1147(7) 0.1423(3)
H13 H -0.05720 0.12410 0.12290
C17 C -0.0259(6) 0.093(1) 0.1840(3)
H14 H -0.08870 0.08460 0.19260
C18 C 0.0509(5) 0.0840(8) 0.2132(2)
H15 H 0.03900 0.06970 0.24130
C19 C 0.4737(4) 0.1918(4) 0.10040(15)
C20 C 0.4751(5) 0.1793(5) 0.05703(18)
H16 H 0.50500 0.23280 0.04070
C21 C 0.4324(5) 0.0883(7) 0.0378(2)
H17 H 0.43220 0.08160 0.00860
C22 C 0.3911(5) 0.0091(7) 0.0614(3)
H18 H 0.36230 -0.05210 0.04830
C23 C 0.3910(5) 0.0174(6) 0.1043(2)
H19 H 0.36340 -0.03830 0.12040
C24 C 0.4324(4) 0.1100(5) 0.12364(19)
H20 H 0.43200 0.11640 0.15280
C25 C 0.6105(4) 0.2976(5) 0.19174(18)
C26 C 0.5691(5) 0.3358(7) 0.2279(2)
H21 H 0.51430 0.37990 0.22610
C27 C 0.6092(5) 0.3085(9) 0.2675(2)
H22 H 0.58080 0.33430 0.29190
C28 C 0.6897(6) 0.2443(9) 0.2705(3)
H23 H 0.71500 0.22440 0.29680
C29 C 0.7331(6) 0.2095(8) 0.2350(3)
H24 H 0.78930 0.16800 0.23700
C30 C 0.6941(5) 0.2356(6) 0.1961(2)
H25 H 0.72450 0.21110 0.17210
C31 C 0.5403(4) 0.4933(5) 0.10648(18)
C32 C 0.5482(6) 0.5827(6) 0.1309(3)
H26 H 0.55340 0.57330 0.15990
C33 C 0.5489(7) 0.6907(7) 0.1144(4)
H27 H 0.55830 0.75150 0.13220
C34 C 0.5358(6) 0.7065(7) 0.0725(3)
H28 H 0.53100 0.77790 0.06120
C35 C 0.5340(8) 0.5134(6) 0.0654(2)
H29 H 0.53200 0.45280 0.04720
C36 C 0.5301(9) 0.6182(8) 0.0483(3)
H30 H 0.52330 0.62660 0.01930
P1 P 0.87792(10) 0.70993(12) 0.05234(4)
C37 C 0.8057(3) 0.8129(4) 0.07696(15)
C38 C 0.7364(4) 0.8724(5) 0.05474(17)
H31 H 0.72500 0.85660 0.02640
C39 C 0.6842(4) 0.9539(5) 0.0736(2)
H32 H 0.63830 0.99290 0.05770
C40 C 0.6983(4) 0.9792(5) 0.1154(2)
H33 H 0.66220 1.03420 0.12830
C41 C 0.7670(5) 0.9211(6) 0.1373(2)
H34 H 0.77730 0.93730 0.16580
C42 C 0.8219(5) 0.8393(6) 0.11937(18)
H35 H 0.86900 0.80220 0.13520
C43 C 0.9157(4) 0.6092(5) 0.09077(16)
C44 C 1.0113(4) 0.5790(5) 0.09419(19)
H36 H 1.05600 0.61090 0.07660
C45 C 1.0400(5) 0.5004(6) 0.1241(2)
H37 H 1.10440 0.48110 0.12710
C46 C 0.9746(7) 0.4521(6) 0.1489(3)
H38 H 0.99470 0.39900 0.16850
C47 C 0.8774(6) 0.4803(7) 0.1456(2)
H39 H 0.83270 0.44620 0.16270
C48 C 0.8496(5) 0.5604(6) 0.11629(19)
H40 H 0.78550 0.58130 0.11380
C49 C 0.8132(4) 0.6455(5) 0.00942(15)
C50 C 0.7811(5) 0.5380(6) 0.0119(2)
H41 H 0.79100 0.49690 0.03650
C51 C 0.7329(6) 0.4902(7) -0.0232(3)
H42 H 0.70920 0.41790 -0.02170
C52 C 0.7212(6) 0.5501(8) -0.0590(2)
H43 H 0.69060 0.51710 -0.08210
C53 C 0.7525(7) 0.6561(8) -0.0623(2)
H44 H 0.74270 0.69570 -0.08720
C54 C 0.7989(5) 0.7045(6) -0.02836(18)
H45 H 0.82110 0.77740 -0.03040
C55 C 0.9799(4) 0.7761(5) 0.03013(19)
C56 C 1.0128(4) 0.8762(6) 0.0444(2)
H46 H 0.98170 0.91250 0.06610
C57 C 1.0930(5) 0.9244(7) 0.0266(3)
H47 H 1.11640 0.99240 0.03660
C58 C 1.1371(6) 0.8707(11) -0.0055(4)
H48 H 1.18960 0.90360 -0.01810
C59 C 1.1059(7) 0.7718(10) -0.0193(3)
H49 H 1.13830 0.73470 -0.04040
C60 C 1.0255(5) 0.7244(7) -0.0021(2)
H50 H 1.00220 0.65690 -0.01250
O3C O 0.1787(2) -0.0584(3) 0.26979(10)
Sn1C Sn 0.23874(2) 0.58377(3) 0.255184(9)
#END
