
#######################################################################
#
#                 Cambridge Crystallographic Data Centre
#                                CCDC
#
#######################################################################
#
# If this CIF has been generated from an entry in the Cambridge
# Structural Database, then it will include bibliographic, chemical,
# crystal, experimental, refinement or atomic coordinate data resulting
# from the CCDC's data processing and validation procedures.
#
#######################################################################

data_CSD_CIF_QENRUW
_audit_creation_date 2001-06-22
_audit_creation_method CSD-ConQuest-V1
_database_code_CSD QENRUW
_database_code_depnum_ccdc_archive 'CCDC 146133'
_chemical_formula_sum 'C60 H50 Cl1 O4 P1 Se1 Sn2'
_chemical_formula_moiety
;
(C24 H20 P1 1+)n,n(C36 H30 Cl1 O4 Se1 Sn2 1-)
;
_journal_coden_Cambridge 644
_journal_volume 56
_journal_year 2001
_journal_page_first 233
_journal_name_full 'Z.Naturforsch.,B:Chem.Sci. '
loop_
_publ_author_name
"C.A.Diop"
"L.Diop"
"U.Russo"
"A.Sanchez-Diaz"
"A.Castineiras"
_chemical_name_systematic
;
catena-[Tetraphenylphosphonium (\m~3~-selenato)-chloro-hexaphenyl-di-tin]
;
_chemical_melting_point 501.15
_cell_volume   5249.008
_exptl_crystal_colour 'colorless'
_exptl_crystal_density_diffrn 1.541
_exptl_special_details
;
Melting point range 501.15-503.15K

;
_exptl_crystal_description 'prism'
_exptl_crystal_preparation 'chloroform'
_diffrn_ambient_temperature ?
_diffrn_special_details
;
The study was carried out at room temperature,in the range 283-303K

;
#These two values have been output from a single CSD field.
_refine_ls_R_factor_gt 0.0654
_refine_ls_wR_factor_gt 0.0654
_symmetry_cell_setting monoclinic
_symmetry_space_group_name_H-M 'P 21/n'
_symmetry_Int_Tables_number 14
loop_
_symmetry_equiv_pos_site_id
_symmetry_equiv_pos_as_xyz
1 x,y,z
2 1/2+x,1/2-y,1/2+z
3 -x,-y,-z
4 -1/2-x,-1/2+y,-1/2-z
_cell_length_a 13.851(1)
_cell_length_b 11.9611(8)
_cell_length_c 31.689(2)
_cell_angle_alpha 90
_cell_angle_beta 91.124(6)
_cell_angle_gamma 90
_cell_formula_units_Z 4
loop_
_atom_type_symbol
_atom_type_radius_bond
C 0.68
H 0.23
Cl 0.99
O 0.68
P 1.05
Se 1.22
Sn 1.46
loop_
_atom_site_label
_atom_site_type_symbol
_atom_site_fract_x
_atom_site_fract_y
_atom_site_fract_z
Sn1 Sn 0.26170(7) 0.08716(7) 0.24526(3)
Sn2 Sn 0.55180(6) 0.32888(8) 0.13220(3)
Se1 Se 0.31751(9) 0.35476(10) 0.19139(4)
Cl1 Cl 0.7037(2) 0.2866(3) 0.09195(11)
O1 O 0.3387(5) 0.2301(6) 0.2125(2)
O2 O 0.4072(5) 0.3822(5) 0.1615(2)
O3 O 0.3238(5) 0.4466(6) 0.2301(2)
O4 O 0.2189(6) 0.3641(6) 0.1656(2)
C1 C 0.2733(9) 0.1718(10) 0.3037(3)
C2 C 0.2116(10) 0.1492(10) 0.3374(4)
H1 H 0.16370 0.09520 0.33440
C3 C 0.2221(11) 0.2071(11) 0.3750(4)
H2 H 0.17840 0.19370 0.39630
C4 C 0.2957(12) 0.2846(12) 0.3819(4)
H3 H 0.30380 0.32090 0.40770
C5 C 0.3554(10) 0.3045(11) 0.3489(4)
H4 H 0.40440 0.35690 0.35260
C6 C 0.3469(9) 0.2509(10) 0.3103(4)
H5 H 0.38970 0.26720 0.28890
C7 C 0.3878(9) -0.0081(10) 0.2326(4)
C8 C 0.4773(10) 0.0294(12) 0.2407(5)
H6 H 0.48360 0.10150 0.25140
C9 C 0.5580(11) -0.0284(14) 0.2347(5)
H7 H 0.61800 0.00360 0.24060
C10 C 0.5518(12) -0.1320(13) 0.2202(5)
H8 H 0.60750 -0.17440 0.21720
C11 C 0.4647(13) -0.1766(14) 0.2095(6)
H9 H 0.45990 -0.24720 0.19740
C12 C 0.3823(10) -0.1124(12) 0.2174(5)
H10 H 0.32170 -0.14330 0.21180
C13 C 0.1456(9) 0.0986(9) 0.2004(4)
C14 C 0.1623(11) 0.1144(10) 0.1584(5)
H11 H 0.22570 0.12090 0.14960
C15 C 0.0884(15) 0.1208(12) 0.1288(5)
H12 H 0.10140 0.12870 0.10030
C16 C -0.0044(14) 0.1154(14) 0.1424(6)
H13 H -0.05520 0.12340 0.12300
C17 C -0.0232(14) 0.0990(18) 0.1829(6)
H14 H -0.08670 0.09170 0.19140
C18 C 0.0524(11) 0.0927(14) 0.2126(4)
H15 H 0.03870 0.08450 0.24110
C19 C 0.4807(8) 0.1951(9) 0.1007(4)
C20 C 0.4817(10) 0.1826(12) 0.0575(4)
H16 H 0.51310 0.23640 0.04160
C21 C 0.4384(11) 0.0944(14) 0.0368(4)
H17 H 0.43870 0.09030 0.00750
C22 C 0.3946(11) 0.0124(13) 0.0599(5)
H18 H 0.36430 -0.04730 0.04630
C23 C 0.3956(12) 0.0184(12) 0.1028(5)
H19 H 0.37000 -0.03960 0.11860
C24 C 0.4353(9) 0.1119(11) 0.1229(4)
H20 H 0.43080 0.11840 0.15210
C25 C 0.6157(11) 0.2963(11) 0.1933(4)
C26 C 0.5723(10) 0.3387(13) 0.2291(5)
H21 H 0.51870 0.38520 0.22680
C27 C 0.6112(11) 0.3097(16) 0.2689(5)
H22 H 0.58190 0.33570 0.29320
C28 C 0.6906(13) 0.2444(18) 0.2723(6)
H23 H 0.71540 0.22530 0.29880
C29 C 0.7337(12) 0.2071(15) 0.2373(6)
H24 H 0.78850 0.16250 0.24030
C30 C 0.7000(11) 0.2323(13) 0.1975(5)
H25 H 0.73230 0.20740 0.17380
C31 C 0.5497(9) 0.4940(11) 0.1063(5)
C32 C 0.5458(13) 0.5860(13) 0.1303(5)
H26 H 0.54530 0.57900 0.15960
C33 C 0.5427(15) 0.6938(13) 0.1119(6)
H27 H 0.54210 0.75620 0.12940
C34 C 0.5406(13) 0.7077(15) 0.0712(7)
H28 H 0.54010 0.77890 0.05940
C35 C 0.5489(13) 0.5097(12) 0.0654(5)
H29 H 0.55480 0.44800 0.04780
C36 C 0.5393(16) 0.6169(16) 0.0470(5)
H30 H 0.53210 0.62390 0.01790
P1 P 0.8785(2) 0.7052(3) 0.04932(10)
C37 C 0.8082(9) 0.8115(10) 0.0743(4)
C38 C 0.7378(9) 0.8692(10) 0.0526(4)
H31 H 0.72450 0.85100 0.02450
C39 C 0.6858(9) 0.9545(11) 0.0715(4)
H32 H 0.63950 0.99450 0.05610
C40 C 0.7039(10) 0.9780(11) 0.1125(5)
H33 H 0.66620 1.03160 0.12560
C41 C 0.7748(11) 0.9266(12) 0.1354(5)
H34 H 0.78920 0.94820 0.16300
C42 C 0.8259(9) 0.8396(12) 0.1161(4)
H35 H 0.87240 0.80030 0.13160
C43 C 0.9204(10) 0.6081(9) 0.0884(4)
C44 C 1.016(1) 0.5785(11) 0.0919(4)
H36 H 1.06190 0.60950 0.07430
C45 C 1.0415(12) 0.5019(13) 0.1222(5)
H37 H 1.10680 0.48470 0.12520
C46 C 0.9801(17) 0.4489(15) 0.1481(6)
H38 H 1.00160 0.39630 0.16780
C47 C 0.8847(14) 0.4769(14) 0.1437(5)
H39 H 0.84020 0.44210 0.16100
C48 C 0.8514(10) 0.5554(12) 0.1145(5)
H40 H 0.78610 0.57290 0.11210
C49 C 0.8120(9) 0.6404(13) 0.0078(4)
C50 C 0.7771(11) 0.5308(13) 0.0108(5)
H41 H 0.78800 0.48990 0.03540
C51 C 0.7272(13) 0.4838(15) -0.0224(6)
H42 H 0.70500 0.41080 -0.02020
C52 C 0.7098(14) 0.5418(17) -0.0583(6)
H43 H 0.67460 0.50890 -0.08030
C53 C 0.7426(12) 0.6454(16) -0.0624(5)
H44 H 0.73200 0.68400 -0.08750
C54 C 0.7919(10) 0.6954(12) -0.0297(4)
H45 H 0.81260 0.76890 -0.03280
C55 C 0.9809(9) 0.7699(13) 0.0252(4)
C56 C 1.0178(11) 0.8705(13) 0.0396(5)
H46 H 0.98850 0.90720 0.06180
C57 C 1.0998(12) 0.9177(15) 0.0207(6)
H47 H 1.12340 0.98710 0.02920
C58 C 1.1438(13) 0.8583(16) -0.0107(7)
H48 H 1.20110 0.88430 -0.02190
C59 C 1.1032(14) 0.7601(18) -0.0256(6)
H49 H 1.13040 0.72460 -0.04860
C60 C 1.0235(11) 0.7137(13) -0.0072(5)
H50 H 0.99900 0.64550 -0.01650
O3C O 0.1762(5) -0.0534(6) 0.2699(2)
Sn1C Sn 0.23830(7) 0.58716(7) 0.25474(3)
#END
