
#######################################################################
#
#                 Cambridge Crystallographic Data Centre
#                                CCDC
#
#######################################################################
#
# If this CIF has been generated from an entry in the Cambridge
# Structural Database, then it will include bibliographic, chemical,
# crystal, experimental, refinement or atomic coordinate data resulting
# from the CCDC's data processing and validation procedures.
#
#######################################################################

data_CSD_CIF_QEQTOV
_audit_creation_date 2001-05-23
_audit_creation_method CSD-ConQuest-V1
_database_code_CSD QEQTOV
_database_code_depnum_ccdc_archive 'CCDC 159251'
_chemical_formula_sum 'C8 H24 B1 Cd1 N3 O16'
_chemical_formula_moiety
;
(C8 H4 B1 Cd1 O12 3-)n,3n(H4 N1 1+),4n(H2 O1)
;
_journal_coden_Cambridge 1197
_journal_year 2000
_journal_page_first 15-3
_journal_name_full 'Latv.Khim.Z.(Latv.)(Latvian J.Chem.) '
loop_
_publ_author_name
"I.Zviedre"
"V.Bel'sky"
"J.Ronis"
"J.Schwartz"
"A.Anderson"
_chemical_name_systematic
;
catena(Triammonium (\m~2~-bis((+)-tartrato)borate)-cadmium(ii) tetrahydrate)
;
_cell_volume   1028.007
_exptl_crystal_density_diffrn 1.75
_exptl_special_details
;
dx is 1.75, not 1.808 as published

;
_exptl_crystal_description 'prism'
_diffrn_ambient_temperature ?
_diffrn_special_details
;
The study was carried out at room temperature,in the range 283-303K

;
#These two values have been output from a single CSD field.
_refine_ls_R_factor_gt 0.0303
_refine_ls_wR_factor_gt 0.0303
_symmetry_cell_setting tetragonal
_symmetry_space_group_name_H-M 'P 4 21 2'
_symmetry_Int_Tables_number 90
loop_
_symmetry_equiv_pos_site_id
_symmetry_equiv_pos_as_xyz
1 x,y,z
2 -x,-y,z
3 1/2-y,1/2+x,z
4 1/2+y,1/2-x,z
5 1/2-x,1/2+y,-z
6 1/2+x,1/2-y,-z
7 y,x,-z
8 -y,-x,-z
_cell_length_a 12.951(2)
_cell_length_b 12.951(2)
_cell_length_c 6.129(1)
_cell_angle_alpha 90
_cell_angle_beta 90
_cell_angle_gamma 90
_cell_formula_units_Z 2
loop_
_atom_type_symbol
_atom_type_radius_bond
C 0.68
H 0.23
B 0.83
Cd 1.49
N 0.68
O 0.68
loop_
_atom_site_label
_atom_site_type_symbol
_atom_site_fract_x
_atom_site_fract_y
_atom_site_fract_z
Cd1 Cd 0.50000 0.50000 0.00000
O1 O 0.3337(2) 0.5164(3) 0.1063(5)
O2 O 0.2245(3) 0.6349(3) 0.2327(8)
O3 O 0.4932(3) 0.5927(2) 0.3602(4)
C1 C 0.3112(3) 0.5929(4) 0.2267(8)
C2 C 0.3919(3) 0.6366(3) 0.3830(7)
B1 B 0.50000 0.50000 0.50000
O4 O 0.8085(3) 0.5992(3) 0.8692(7)
N1 N 0.00000 0.50000 0.713(2)
N2 N 0.00000 0.50000 0.274(4)
N3 N 0.3098(3) 0.3098(3) 0.50000
H1 H 0.41600 0.70680 0.37050
H2 H 0.86040 0.62380 0.94100
H3 H 0.79310 0.54540 0.94540
H4 H -0.00960 0.56750 0.74950
H5 H -0.00680 0.43260 0.24110
H6 H 0.25230 0.31230 0.41560
H7 H 0.35810 0.31520 0.39670
O3A O 0.5068(3) 0.4073(2) 0.3602(4)
C2A C 0.6081(3) 0.3634(3) 0.3830(7)
C1A C 0.6888(3) 0.4071(4) 0.2267(8)
O1A O 0.6663(2) 0.4836(3) 0.1063(5)
O2A O 0.7755(3) 0.3651(3) 0.2327(8)
C2F C 0.6366(3) 0.3919(3) 0.6170(7)
O3F O 0.5927(3) 0.4932(2) 0.6398(4)
O3G O 0.4073(3) 0.5068(2) 0.6398(4)
C2G C 0.3634(3) 0.6081(3) 0.6170(7)
C1G C 0.4071(3) 0.6888(4) 0.7733(8)
O1G O 0.4836(2) 0.6663(3) 0.8937(5)
O2G O 0.3651(3) 0.7755(3) 0.7673(8)
H1G H 0.29320 0.58400 0.62950
C1F C 0.5929(3) 0.3112(4) 0.7733(8)
O1F O 0.5164(2) 0.3337(3) 0.8937(5)
O2F O 0.6349(3) 0.2245(3) 0.7673(8)
H1F H 0.70680 0.41600 0.62950
H1A H 0.58400 0.29320 0.37050
H4A H 0.00960 0.43250 0.74950
H4B H -0.06750 0.49040 0.74950
H4C H 0.06750 0.50960 0.74950
H5A H 0.00680 0.56740 0.24110
H5B H 0.06740 0.49320 0.24110
H5C H -0.06740 0.50680 0.24110
H6F H 0.31230 0.25230 0.58440
H7F H 0.31520 0.35810 0.60330
O1F* O 0.5164(2) 0.3337(3) -0.1063(5)
O1G* O 0.4836(2) 0.6663(3) -0.1063(5)
O3F* O 0.5927(3) 0.4932(2) -0.3602(4)
O3G* O 0.4073(3) 0.5068(2) -0.3602(4)
Cd1* Cd 0.50000 0.50000 1.00000
#END
