
#######################################################################
#
#                 Cambridge Crystallographic Data Centre
#                                CCDC
#
#######################################################################
#
# If this CIF has been generated from an entry in the Cambridge
# Structural Database, then it will include bibliographic, chemical,
# crystal, experimental, refinement or atomic coordinate data resulting
# from the CCDC's data processing and validation procedures.
#
#######################################################################

data_CSD_CIF_QERSOW
_audit_creation_date 2007-01-05
_audit_creation_method CSD-ConQuest-V1
_database_code_CSD QERSOW
_database_code_depnum_ccdc_archive 'CCDC 628041'
_chemical_formula_sum 'C32 H36 Mn2 N6 O16 S2'
_chemical_formula_moiety
;
(C10 H10 N2 2+)n,n(C22 H22 Mn2 N4 O14 S2 2-),2n(H2 O1)
;
_journal_coeditor_code "IUCr OB2092"
_journal_coden_Cambridge 1370
_journal_volume 62
_journal_year 2006
_journal_page_first m3131
_journal_name_full 'Acta Crystallogr.,Sect.E:Struct.Rep.Online '
loop_
_publ_author_name
"Jian-Li Lin"
"Yue-Qing Zheng"
_chemical_name_systematic
;
catena-(4,4'-Bipyridinium 
bis(\m~2~-4,4'-bipyridine-N,N')-bis(\m~2~-formato-O,O)-bis(aqua-(sulfato-O)-ma
nganese(ii)) dihydrate)
;
_cell_volume    939.235
_exptl_crystal_colour 'yellow'
_exptl_crystal_density_diffrn 1.652
_exptl_crystal_description 'block'
_diffrn_ambient_temperature 296
#These two values have been output from a single CSD field.
_refine_ls_R_factor_gt 0.0374
_refine_ls_wR_factor_gt 0.0374
_symmetry_cell_setting triclinic
_symmetry_space_group_name_H-M 'P -1'
_symmetry_Int_Tables_number 2
loop_
_symmetry_equiv_pos_site_id
_symmetry_equiv_pos_as_xyz
1 x,y,z
2 -x,-y,-z
_cell_length_a 9.3630(19)
_cell_length_b 9.991(2)
_cell_length_c 10.629(2)
_cell_angle_alpha 89.79(3)
_cell_angle_beta 79.70(3)
_cell_angle_gamma 73.99(3)
_cell_formula_units_Z 1
loop_
_atom_type_symbol
_atom_type_radius_bond
C 0.68
H 0.23
Mn 1.35
N 0.68
O 0.68
S 1.02
loop_
_atom_site_label
_atom_site_type_symbol
_atom_site_fract_x
_atom_site_fract_y
_atom_site_fract_z
Mn1 Mn 0.49164(4) 0.00534(4) 0.16747(4)
N1 N 0.2931(3) 0.2009(3) 0.1851(2)
N2 N -0.3135(3) 0.8047(2) 0.1512(2)
C1 C 0.1511(3) 0.1949(3) 0.2016(3)
H1 H 0.13240 0.10900 0.21720
C2 C 0.0290(3) 0.3097(3) 0.1968(3)
H2 H -0.06820 0.29970 0.20790
C3 C 0.0529(3) 0.4402(3) 0.1752(3)
C4 C 0.2015(3) 0.4472(3) 0.1635(3)
H3 H 0.22340 0.53220 0.15170
C5 C 0.3164(3) 0.3265(3) 0.1696(3)
H4 H 0.41450 0.33340 0.16260
C6 C -0.0733(3) 0.5655(3) 0.1658(3)
C7 C -0.2208(3) 0.5592(3) 0.1771(3)
H5 H -0.24280 0.47440 0.19030
C8 C -0.3358(3) 0.6790(3) 0.1689(3)
H6 H -0.43370 0.67140 0.17610
C9 C -0.1713(3) 0.8107(3) 0.1386(3)
H7 H -0.15260 0.89680 0.12470
C10 C -0.0492(3) 0.6961(3) 0.1450(3)
H8 H 0.04790 0.70640 0.13540
O1 O 0.3497(3) -0.0862(3) 0.3068(2)
H9 H 0.358(5) -0.132(5) 0.365(5)
H10 H 0.327(5) -0.137(5) 0.263(5)
O2 O 0.6007(2) 0.0792(2) -0.01133(19)
C11 C 0.6876(4) 0.1582(4) -0.0215(3)
H11 H 0.71490 0.18290 0.05320
O3 O 0.7383(4) 0.2045(4) -0.1213(3)
S1 S 0.65558(8) 0.17856(7) 0.35859(6)
O4 O 0.5901(3) 0.0795(3) 0.3039(3)
O5 O 0.6511(3) 0.2978(2) 0.2787(2)
O6 O 0.8133(3) 0.1058(3) 0.3671(3)
O7 O 0.5667(3) 0.2235(3) 0.4874(2)
N3 N 0.1262(3) 0.1465(3) 0.5557(3)
H12 H 0.159(5) 0.063(5) 0.583(4)
C12 C -0.0206(4) 0.2069(4) 0.5658(4)
H13 H -0.08840 0.15430 0.58860
C13 C -0.0747(4) 0.3456(3) 0.5431(4)
H14 H -0.17790 0.38640 0.54900
C14 C 0.0275(3) 0.4246(3) 0.5111(3)
C15 C 0.1813(3) 0.3569(3) 0.5000(3)
H15 H 0.25250 0.40590 0.47720
C16 C 0.2270(4) 0.2173(3) 0.5231(3)
H16 H 0.32950 0.17220 0.51580
O8 O 0.5749(3) 0.4552(3) 0.6360(3)
H17 H 0.548(6) 0.403(7) 0.587(6)
H18 H 0.496(6) 0.528(7) 0.655(6)
Mn1* Mn 1.49164(4) -0.99466(4) 0.16747(4)
Mn1** Mn -0.50836(4) 1.00534(4) 0.16747(4)
Mn1A Mn 0.50836(4) -0.00534(4) -0.16747(4)
N1* N 1.2931(3) -0.7991(3) 0.1851(2)
N2* N 0.6865(3) -0.1953(2) 0.1512(2)
N2** N 1.6865(3) -1.1953(2) 0.1512(2)
C1* C 1.1511(3) -0.8051(3) 0.2016(3)
H1* H 1.13240 -0.89100 0.21720
C2* C 1.0290(3) -0.6903(3) 0.1968(3)
H2* H 0.93180 -0.70030 0.20790
C3* C 1.0529(3) -0.5598(3) 0.1752(3)
C4* C 1.2015(3) -0.5528(3) 0.1635(3)
H3* H 1.22340 -0.46780 0.15170
C5* C 1.3164(3) -0.6735(3) 0.1696(3)
H4* H 1.41450 -0.66660 0.16260
C6* C 0.9267(3) -0.4345(3) 0.1658(3)
C7* C 0.7792(3) -0.4408(3) 0.1771(3)
H5* H 0.75720 -0.52560 0.19030
C8* C 0.6642(3) -0.3210(3) 0.1689(3)
H6* H 0.56630 -0.32860 0.17610
C9* C 0.8287(3) -0.1893(3) 0.1386(3)
H7* H 0.84740 -0.10320 0.12470
C10* C 0.9508(3) -0.3039(3) 0.1450(3)
H8* H 1.04790 -0.29360 0.13540
O1* O 1.3497(3) -1.0862(3) 0.3068(2)
H9* H 1.358(5) -1.132(5) 0.365(5)
H10* H 1.327(5) -1.137(5) 0.263(5)
O2A O 0.3993(2) -0.0792(2) 0.01133(19)
O2* O 1.6007(2) -0.9208(2) -0.01133(19)
O2A* O 1.3993(2) -1.0792(2) 0.01133(19)
C11A C 0.3124(4) -0.1582(4) 0.0215(3)
H11A H 0.28510 -0.18290 -0.05320
O3A O 0.2617(4) -0.2045(4) 0.1213(3)
S1* S 1.65558(8) -0.82144(7) 0.35859(6)
O4* O 1.5901(3) -0.9205(3) 0.3039(3)
O5* O 1.6511(3) -0.7022(2) 0.2787(2)
O6* O 1.8133(3) -0.8942(3) 0.3671(3)
O7* O 1.5667(3) -0.7765(3) 0.4874(2)
N3A N -0.1262(3) 0.8535(3) 0.4443(3)
H12A H -0.159(5) 0.937(5) 0.417(4)
C12A C 0.0206(4) 0.7931(4) 0.4342(4)
H13A H 0.08840 0.84570 0.41140
C13A C 0.0747(4) 0.6544(3) 0.4569(4)
H14A H 0.17790 0.61360 0.45100
C14A C -0.0275(3) 0.5754(3) 0.4889(3)
C15A C -0.1813(3) 0.6431(3) 0.5000(3)
H15A H -0.25250 0.59410 0.52280
C16A C -0.2270(4) 0.7827(3) 0.4769(3)
H16A H -0.32950 0.82780 0.48420
#END
