
#######################################################################
#
#                 Cambridge Crystallographic Data Centre
#                                CCDC
#
#######################################################################
#
# If this CIF has been generated from an entry in the Cambridge
# Structural Database, then it will include bibliographic, chemical,
# crystal, experimental, refinement or atomic coordinate data resulting
# from the CCDC's data processing and validation procedures.
#
#######################################################################

data_CSD_CIF_QESFIG
_audit_creation_date 2018-01-17
_audit_creation_method CSD-ConQuest-V1
_database_code_CSD QESFIG
_database_code_depnum_ccdc_archive 'CCDC 1557643'
_chemical_formula_sum 'C18 H20 Cu1 Mo6 N12 O27'
_chemical_formula_moiety
;
(C18 H20 Cu1 N12 O8 2+)n,Mo6 O19 2-
;
_journal_coden_Cambridge 208
_journal_volume 258
_journal_year 2018
_journal_page_first 737
_journal_name_full 'J.Solid State Chem. '
loop_
_publ_author_name
"Xiaoyu Zhang"
"Rui Xi"
"Sulu Yin"
"Xiaoran Cao"
"Yongliang Zhang"
"Ling Lin"
"Rui Chen"
"Hua Wu"
_chemical_name_systematic
;
catena-[bis(\m-1,3-bis(4-nitro-1H-imidazol-1-yl)propane)-copper(ii) 
tridecakis(\m-oxido)-hexa-oxo-hexa-molybdenum(vi)]
;
_cell_volume   3713.599
_exptl_crystal_density_diffrn 2.639
_exptl_special_details
;
Author confirms the structure includes a polymeric [Cu(ii)(bnip)2] chain 
rather than the [Cu(i)(bnip)]2 chain as described in the paper
;
_diffrn_ambient_temperature 293
#These two values have been output from a single CSD field.
_refine_ls_R_factor_gt 0.0231
_refine_ls_wR_factor_gt 0.0231
_symmetry_cell_setting orthorhombic
_symmetry_space_group_name_H-M 'P b c n'
_symmetry_Int_Tables_number 60
loop_
_symmetry_equiv_pos_site_id
_symmetry_equiv_pos_as_xyz
1 x,y,z
2 1/2-x,1/2-y,1/2+z
3 1/2+x,1/2-y,-z
4 -x,y,1/2-z
5 -x,-y,-z
6 -1/2+x,-1/2+y,-1/2-z
7 -1/2-x,-1/2+y,z
8 x,-y,-1/2+z
_cell_length_a 15.0066(11)
_cell_length_b 16.7843(13)
_cell_length_c 14.7438(12)
_cell_angle_alpha 90
_cell_angle_beta 90
_cell_angle_gamma 90
_cell_formula_units_Z 4
loop_
_atom_type_symbol
_atom_type_radius_bond
C 0.68
H 0.23
Cu 1.32
Mo 1.54
N 0.68
O 0.68
loop_
_atom_site_label
_atom_site_type_symbol
_atom_site_fract_x
_atom_site_fract_y
_atom_site_fract_z
Mo1 Mo 1.00000 0.062640(18) 0.75000
Mo2 Mo 0.869888(15) -0.075001(14) 0.835258(17)
Mo3 Mo 1.00000 -0.213311(19) 0.75000
Mo4 Mo 0.916550(16) -0.074206(14) 0.617384(17)
O1 O 1.00000 -0.07524(13) 0.75000
O2 O 0.77485(14) -0.07506(12) 0.89621(16)
O3 O 1.00000 0.16275(16) 0.75000
O4 O 0.93477(13) 0.03649(11) 0.64215(13)
O5 O 0.82687(13) -0.07553(12) 0.71008(15)
O6 O 0.85389(16) -0.07420(15) 0.52325(16)
O7 O 0.89315(12) 0.03619(11) 0.81571(13)
O8 O 1.03958(14) -0.07561(12) 0.57438(14)
O9 O 0.93524(14) -0.18585(12) 0.64179(17)
O10 O 0.89317(13) -0.18715(12) 0.81703(17)
O11 O 1.00000 -0.31340(19) 0.75000
Cu1 Cu 1.00000 0.42097(3) 0.75000
N1 N 0.95083(14) 0.34270(12) 0.66008(15)
C1 C 0.99691(17) 0.28681(15) 0.61224(17)
N2 N 0.86049(14) 0.27553(12) 0.57046(14)
O12 O 1.13214(14) 0.32413(15) 0.66838(17)
N3 N 1.09029(15) 0.27410(15) 0.62607(16)
O13 O 1.12243(15) 0.21292(16) 0.59558(19)
C2 C 0.71741(18) 0.20433(16) 0.5895(2)
H1 H 0.70670 0.23530 0.64400
H2 H 0.66040 0.19530 0.56020
C3 C 0.94277(18) 0.24442(16) 0.55677(18)
H3 H 0.95860 0.20310 0.51790
C4 C 0.77723(18) 0.25185(16) 0.52593(19)
H4 H 0.79090 0.21990 0.47290
H5 H 0.74580 0.29910 0.50570
C5 C 0.7573(2) 0.12571(17) 0.6154(2)
H6 H 0.76460 0.09310 0.56160
H7 H 0.81580 0.13420 0.64180
C6 C 0.86731(17) 0.33385(15) 0.63305(18)
H8 H 0.81960 0.36390 0.65440
N4 N 0.69987(16) 0.08389(13) 0.68115(17)
C7 C 0.63726(19) 0.02969(16) 0.66056(19)
H9 H 0.62370 0.01330 0.60190
C8 C 0.70049(19) 0.09463(17) 0.7724(2)
H10 H 0.73630 0.12890 0.80600
N5 N 0.59744(15) 0.00263(13) 0.73408(15)
N6 N 0.61146(17) 0.02994(15) 0.89568(16)
O14 O 0.64727(19) 0.07064(15) 0.95403(17)
C9 C 0.63637(18) 0.04344(15) 0.80392(19)
O15 O 0.55632(16) -0.02208(14) 0.91096(15)
Mo2C Mo 1.130112(15) -0.075001(14) 0.664742(17)
Mo4C Mo 1.083450(16) -0.074206(14) 0.882616(17)
O2C O 1.22515(14) -0.07506(12) 0.60379(16)
O4C O 1.06523(13) 0.03649(11) 0.85785(13)
O5C O 1.17313(13) -0.07553(12) 0.78992(15)
O6C O 1.14611(16) -0.07420(15) 0.97675(16)
O7C O 1.10685(12) 0.03619(11) 0.68429(13)
O8C O 0.96042(14) -0.07561(12) 0.92562(14)
O9C O 1.06476(14) -0.18585(12) 0.85821(17)
O10C O 1.10683(13) -0.18715(12) 0.68297(17)
N1C N 1.04917(14) 0.34270(12) 0.83992(15)
C1C C 1.00309(17) 0.28681(15) 0.88776(17)
N2C N 1.13951(14) 0.27553(12) 0.92954(14)
O12C O 0.86786(14) 0.32413(15) 0.83162(17)
N3C N 0.90971(15) 0.27410(15) 0.87393(16)
O13C O 0.87757(15) 0.21292(16) 0.90442(19)
C2C C 1.28259(18) 0.20433(16) 0.9105(2)
H1C H 1.29330 0.23530 0.85600
H2C H 1.33960 0.19530 0.93980
C3C C 1.05723(18) 0.24442(16) 0.94323(18)
H3C H 1.04140 0.20310 0.98210
C4C C 1.22277(18) 0.25185(16) 0.97407(19)
H4C H 1.20910 0.21990 1.02710
H5C H 1.25420 0.29910 0.99430
C5C C 1.2427(2) 0.12571(17) 0.8846(2)
H6C H 1.23540 0.09310 0.93840
H7C H 1.18420 0.13420 0.85820
C6C C 1.13269(17) 0.33385(15) 0.86695(18)
H8C H 1.18040 0.36390 0.84560
N4C N 1.30013(16) 0.08389(13) 0.81885(17)
C7C C 1.36274(19) 0.02969(16) 0.83944(19)
H9C H 1.37630 0.01330 0.89810
C8C C 1.29951(19) 0.09463(17) 0.7276(2)
H10C H 1.26370 0.12890 0.69400
N5C N 1.40256(15) 0.00263(13) 0.76592(15)
N6C N 1.38854(17) 0.02994(15) 0.60432(16)
O14C O 1.35273(19) 0.07064(15) 0.54597(17)
C9C C 1.36363(18) 0.04344(15) 0.69608(19)
O15C O 1.44368(16) -0.02208(14) 0.58904(15)
Cu1E Cu 0.50000 -0.07903(3) 0.75000
Cu1E* Cu 1.50000 -0.07903(3) 0.75000
N5E N 1.09744(15) 0.50263(13) 0.76592(15)
N5F N 0.90256(15) 0.50263(13) 0.73408(15)
O15E O 1.05632(16) 0.47792(14) 0.58904(15)
O15F O 0.94368(16) 0.47792(14) 0.91096(15)
#END
