
#######################################################################
#
#                 Cambridge Crystallographic Data Centre
#                                CCDC
#
#######################################################################
#
# If this CIF has been generated from an entry in the Cambridge
# Structural Database, then it will include bibliographic, chemical,
# crystal, experimental, refinement or atomic coordinate data resulting
# from the CCDC's data processing and validation procedures.
#
#######################################################################

data_CSD_CIF_QESFUS
_audit_creation_date 2018-01-17
_audit_creation_method CSD-ConQuest-V1
_database_code_CSD QESFUS
_database_code_depnum_ccdc_archive 'CCDC 1557646'
_chemical_formula_sum 'C24 H34 Cu2 Mo6 N12 O28'
_chemical_formula_moiety
;
(C12 H16 Cu1 N6 O4 1+)2n,Mo6 O19 2-,H2 O1
;
_journal_coden_Cambridge 208
_journal_volume 258
_journal_year 2018
_journal_page_first 737
_journal_name_full 'J.Solid State Chem. '
loop_
_publ_author_name
"Xiaoyu Zhang"
"Rui Xi"
"Sulu Yin"
"Xiaoran Cao"
"Yongliang Zhang"
"Ling Lin"
"Rui Chen"
"Hua Wu"
_chemical_name_systematic
;
catena-[bis((\m-1,1'-(hexane-1,6-diyl)bis(4-nitro-1H-imidazole))-copper(i)) 
tridecakis(\m-oxo)-hexaoxo-hexa-molybdenum monohydrate]
;
_cell_volume   4525.782
_exptl_crystal_density_diffrn 2.4
_diffrn_ambient_temperature 293
_refine_special_details
;
C25,C25' disordered by symmetry over two configurations with occupancy 0.50.

;
#These two values have been output from a single CSD field.
_refine_ls_R_factor_gt 0.0442
_refine_ls_wR_factor_gt 0.0442
_symmetry_cell_setting monoclinic
_symmetry_space_group_name_H-M 'P 21/n'
_symmetry_Int_Tables_number 14
loop_
_symmetry_equiv_pos_site_id
_symmetry_equiv_pos_as_xyz
1 x,y,z
2 1/2-x,1/2+y,1/2-z
3 -x,-y,-z
4 -1/2+x,-1/2-y,-1/2+z
_cell_length_a 12.3656(4)
_cell_length_b 23.5108(7)
_cell_length_c 15.6675(4)
_cell_angle_alpha 90
_cell_angle_beta 96.486(1)
_cell_angle_gamma 90
_cell_formula_units_Z 4
loop_
_atom_type_symbol
_atom_type_radius_bond
C 0.68
H 0.23
Cu 1.32
Mo 1.54
N 0.68
O 0.68
loop_
_atom_site_label
_atom_site_type_symbol
_atom_site_fract_x
_atom_site_fract_y
_atom_site_fract_z
Mo1 Mo 0.31819(4) 0.35357(2) 0.58581(3)
O1 O 0.4684(3) 0.35197(17) 0.6358(2)
O2 O 0.3216(3) 0.43385(16) 0.6102(2)
O3 O 0.3280(4) 0.3515(2) 0.4799(2)
O4 O 0.1641(3) 0.35680(17) 0.5918(2)
O5 O 0.3058(2) 0.35665(13) 0.73192(17)
O6 O 0.3111(3) 0.27471(16) 0.6171(2)
Mo2 Mo 0.49424(3) 0.35472(2) 0.75874(3)
Mo3 Mo 0.31013(4) 0.454974(18) 0.72711(3)
Mo4 Mo 0.11749(3) 0.35876(2) 0.70551(3)
Mo5 Mo 0.29350(3) 0.359944(18) 0.87847(2)
Mo6 Mo 0.30103(4) 0.258391(19) 0.73618(3)
O7 O 0.4621(3) 0.43427(17) 0.7504(2)
O8 O 0.6306(3) 0.3535(2) 0.7791(3)
O9 O 0.4531(3) 0.27515(17) 0.7573(3)
O10 O 0.4479(3) 0.35719(17) 0.8723(2)
O11 O 0.3003(3) 0.43867(15) 0.8463(2)
O12 O 0.3145(4) 0.52641(17) 0.7233(3)
O13 O 0.1593(3) 0.43834(16) 0.7068(2)
O14 O -0.0190(3) 0.3625(2) 0.6860(3)
O15 O 0.1491(3) 0.27977(17) 0.7136(3)
O16 O 0.1440(3) 0.36179(16) 0.8285(2)
O17 O 0.2837(3) 0.36296(19) 0.9851(2)
O18 O 0.2900(3) 0.28020(16) 0.8531(2)
O19 O 0.2969(5) 0.18718(18) 0.7386(3)
Cu1 Cu -0.18360(6) 0.42363(3) 0.75504(5)
C1 C -0.0179(4) 0.44438(18) 0.9001(3)
C2 C 0.0189(4) 0.4246(2) 0.9781(3)
H1 H 0.08010 0.43650 1.01340
C3 C -0.1287(4) 0.3797(2) 0.9261(3)
H2 H -0.18670 0.35420 0.92130
C4 C -0.0455(5) 0.3457(2) 1.0700(3)
H3 H -0.11350 0.32530 1.07100
H4 H -0.03380 0.36860 1.12160
C5 C 0.0467(4) 0.3032(2) 1.0693(3)
H5 H 0.05150 0.28050 1.12120
H6 H 0.11500 0.32350 1.06870
C6 C 0.0292(4) 0.2642(2) 0.9909(3)
H7 H -0.04290 0.24760 0.98790
H8 H 0.03280 0.28670 0.93940
C7 C 0.1123(4) 0.2174(2) 0.9938(3)
H9 H 0.18320 0.23400 0.98900
H10 H 0.11590 0.19860 1.04920
C8 C 0.0887(4) 0.1737(2) 0.9242(3)
H11 H 0.08350 0.19230 0.86870
H12 H 0.01920 0.15580 0.93000
C9 C 0.1769(5) 0.1284(3) 0.9285(4)
H13 H 0.16100 0.10240 0.88070
H14 H 0.24620 0.14640 0.92250
C10 C 0.1288(4) 0.0494(2) 1.0276(4)
H15 H 0.07560 0.03060 0.99140
C11 C 0.1647(4) 0.0361(2) 1.1094(4)
C12 C 0.2546(4) 0.1087(2) 1.0799(4)
H16 H 0.30310 0.13900 1.08370
N1 N -0.1103(3) 0.41697(17) 0.8668(3)
N2 N -0.0532(4) 0.38299(16) 0.9945(3)
N3 N 0.1862(3) 0.09599(18) 1.0089(3)
N4 N 0.2442(3) 0.07294(19) 1.1429(3)
N5 N 0.1308(4) -0.0098(2) 1.1606(4)
N6 N 0.0255(4) 0.49000(19) 0.8548(4)
O20 O 0.1773(4) -0.0165(2) 1.2329(3)
O21 O 0.0555(4) -0.0395(2) 1.1299(3)
O22 O 0.1077(4) 0.51327(19) 0.8896(4)
O23 O -0.0229(4) 0.5035(2) 0.7848(4)
Cu2 Cu 0.31867(5) 0.33464(3) 1.24339(4)
C13 C 0.4597(3) 0.30228(19) 1.1170(3)
C14 C 0.5439(4) 0.3203(2) 1.0756(3)
H17 H 0.57200 0.30310 1.02940
C15 C 0.5152(4) 0.3786(2) 1.1794(3)
H18 H 0.52320 0.40950 1.21660
C16 C 0.6617(4) 0.4072(3) 1.0904(4)
H19 H 0.72170 0.38490 1.07350
H20 H 0.68940 0.43060 1.13900
C17 C 0.6180(4) 0.4452(2) 1.0164(4)
H21 H 0.60120 0.42210 0.96530
H22 H 0.67400 0.47220 1.00500
C18 C 0.5162(4) 0.4779(2) 1.0337(3)
H23 H 0.45660 0.45130 1.03600
H24 H 0.52930 0.49640 1.08930
C19 C 0.1576(4) 0.3039(2) 1.3553(3)
C20 C 0.0666(4) 0.3213(2) 1.3872(3)
H25 H 0.02900 0.30280 1.42720
C21 C 0.1185(4) 0.3829(3) 1.2953(3)
H26 H 0.11990 0.41520 1.26120
C22 C -0.0505(6) 0.4092(3) 1.3600(5)
H27 H -0.11580 0.38640 1.35950
H28 H -0.06160 0.43600 1.31260
N7 N 0.1914(3) 0.34188(19) 1.2982(3)
N8 N 0.0416(4) 0.3723(2) 1.3477(3)
N9 N 0.4404(3) 0.33849(18) 1.1817(2)
N10 N 0.5779(3) 0.36889(18) 1.1164(3)
N11 N 0.3940(3) 0.25307(18) 1.0984(3)
N12 N 0.2195(4) 0.25394(18) 1.3780(3)
O24 O 0.1902(4) 0.22297(18) 1.4341(3)
O25 O 0.3003(3) 0.24482(18) 1.3417(3)
O26 O 0.4147(4) 0.22267(17) 1.0382(3)
O27 O 0.3216(3) 0.24352(18) 1.1433(3)
C23 C -0.0319(13) 0.4417(4) 1.4438(6)
C24 C -0.0779(13) 0.4930(9) 1.4716(12)
C25 C 0.0378(15) 0.4788(6) 1.4502(8)
O28 O 0.2831(7) -0.0631(4) 1.3825(5)
Cu1C Cu 0.31640(6) 0.07637(3) 1.25504(5)
N4C N -0.2558(3) 0.42706(19) 0.6429(3)
C13B C 0.5403(3) 0.69772(19) 0.8830(3)
C14B C 0.4561(4) 0.6797(2) 0.9244(3)
H17B H 0.42800 0.69690 0.97060
C15B C 0.4848(4) 0.6214(2) 0.8206(3)
H18B H 0.47680 0.59050 0.78340
C16B C 0.3383(4) 0.5928(3) 0.9096(4)
H19B H 0.27830 0.61510 0.92650
H20B H 0.31060 0.56940 0.86100
C17B C 0.3820(4) 0.5548(2) 0.9836(4)
H21B H 0.39880 0.57790 1.03470
H22B H 0.32600 0.52780 0.99500
C18B C 0.4838(4) 0.5221(2) 0.9663(3)
H23B H 0.54340 0.54870 0.96400
H24B H 0.47070 0.50360 0.91070
N9B N 0.5596(3) 0.66151(18) 0.8183(2)
N10B N 0.4221(3) 0.63111(18) 0.8836(3)
N11B N 0.6060(3) 0.74693(18) 0.9016(3)
O26B O 0.5853(4) 0.77733(17) 0.9618(3)
O27B O 0.6784(3) 0.75648(18) 0.8567(3)
C19B C -0.1576(4) 0.6961(2) 1.6447(3)
C20B C -0.0666(4) 0.6787(2) 1.6128(3)
H25B H -0.02900 0.69720 1.57280
C21B C -0.1185(4) 0.6171(3) 1.7047(3)
H26B H -0.11990 0.58480 1.73880
C22B C 0.0505(6) 0.5908(3) 1.6400(5)
H27B H 0.11580 0.61360 1.64050
H28B H 0.06160 0.56400 1.68740
N7B N -0.1914(3) 0.65812(19) 1.7018(3)
N8B N -0.0416(4) 0.6277(2) 1.6523(3)
N12B N -0.2195(4) 0.74606(18) 1.6220(3)
O24B O -0.1902(4) 0.77703(18) 1.5659(3)
O25B O -0.3003(3) 0.75518(18) 1.6583(3)
C23B C 0.0319(13) 0.5583(4) 1.5562(6)
C24B C 0.0779(13) 0.5070(9) 1.5284(12)
C25B C -0.0378(15) 0.5212(6) 1.5498(8)
Cu2B Cu -0.31867(5) 0.66536(3) 1.75661(4)
Cu2B* Cu 0.68133(5) 0.66536(3) 0.75661(4)
N9B* N -0.4404(3) 0.66151(18) 1.8183(2)
#END
