
#######################################################################
#
#                 Cambridge Crystallographic Data Centre
#                                CCDC
#
#######################################################################
#
# If this CIF has been generated from an entry in the Cambridge
# Structural Database, then it will include bibliographic, chemical,
# crystal, experimental, refinement or atomic coordinate data resulting
# from the CCDC's data processing and validation procedures.
#
#######################################################################

data_CSD_CIF_QESLEG
_audit_creation_date 2007-04-03
_audit_creation_method CSD-ConQuest-V1
_database_code_CSD QESLEG
_database_code_depnum_ccdc_archive 'CCDC 626602'
_chemical_formula_sum 'C2 H4 In2 Na2 O14 P2'
_chemical_formula_moiety
;
(Na1 1+)2n,n(C2 In2 O12 P2 2-),2n(H2 O1)
;
_journal_coden_Cambridge 550
_journal_volume 49
_journal_year 2004
_journal_page_first 658
_journal_name_full 'Chin.Sci.Bull. '
loop_
_publ_author_name
"Zhenxia Chen"
"Linhong Weng"
"Jinxi Chen"
"Dongyuan Zhao"
_chemical_name_systematic
;
catena-(Disodium bis(\m~4~-phosphato)-(\m~2~-oxalato)-di-indium dihydrate)
;
_cell_volume    296.564
_exptl_crystal_density_diffrn 3.301
_diffrn_ambient_temperature 293
#These two values have been output from a single CSD field.
_refine_ls_R_factor_gt 0.0273
_refine_ls_wR_factor_gt 0.0273
_symmetry_cell_setting triclinic
_symmetry_space_group_name_H-M 'P -1'
_symmetry_Int_Tables_number 2
loop_
_symmetry_equiv_pos_site_id
_symmetry_equiv_pos_as_xyz
1 x,y,z
2 -x,-y,-z
_cell_length_a 5.5662(17)
_cell_length_b 6.454(2)
_cell_length_c 8.966(3)
_cell_angle_alpha 102.609(4)
_cell_angle_beta 107.319(3)
_cell_angle_gamma 94.426(4)
_cell_formula_units_Z 1
loop_
_atom_type_symbol
_atom_type_radius_bond
C 0.68
In 1.63
Na 0.97
O 0.68
P 1.05
loop_
_atom_site_label
_atom_site_type_symbol
_atom_site_fract_x
_atom_site_fract_y
_atom_site_fract_z
In1 In 0.2188(1) 0.6955(1) 0.8486(1)
P1 P 0.1739(2) 0.2071(2) 0.9254(1)
O1 O 0.2996(6) 0.6439(5) 0.6099(4)
O2 O 0.2618(6) 0.3761(5) 0.8486(4)
O3 O 0.1495(6) 0.4614(5) 0.3520(4)
O4 O -0.0718(6) 0.2511(5) 0.9605(4)
O5 O 0.1166(6) -0.0112(5) 0.7987(4)
O6 O 0.3870(6) 0.2002(5) 1.0789(4)
O7 O 0.4525(8) 0.1918(7) 0.6114(5)
C1 C 0.1293(8) 0.5302(7) 0.4892(5)
Na1 Na 0.3770(4) 0.0936(3) 0.3179(2)
In1A In -0.2188(1) 0.3045(1) 0.1514(1)
In1A* In -0.2188(1) 0.3045(1) 1.1514(1)
In1* In 0.2188(1) -0.3045(1) 0.8486(1)
In1A** In 0.7812(1) 0.3045(1) 1.1514(1)
In1A*** In -0.2188(1) 1.3045(1) 1.1514(1)
In1** In -0.7812(1) 0.6955(1) 0.8486(1)
P1A P -0.1739(2) 0.7929(2) 1.0746(1)
O1A O -0.2996(6) 0.3561(5) 0.3901(4)
O2A O -0.2618(6) 0.6239(5) 1.1514(4)
O2A* O -0.2618(6) 0.6239(5) 0.1514(4)
O3A O -0.1495(6) 0.5386(5) 0.6480(4)
O4A O 0.0718(6) 0.7489(5) 1.0395(4)
O4* O -0.0718(6) 0.2511(5) -0.0395(4)
O5A O -0.1166(6) 1.0112(5) 1.2013(4)
O5* O 0.1166(6) 0.9888(5) 0.7987(4)
O5A* O -0.1166(6) 0.0112(5) 0.2013(4)
O6A O -0.3870(6) 0.7998(5) 0.9211(4)
O6A* O 0.6130(6) 0.7998(5) 0.9211(4)
O6* O -0.6130(6) 0.2002(5) 0.0789(4)
C1A C -0.1293(8) 0.4698(7) 0.5108(5)
#END
