
#######################################################################
#
#                 Cambridge Crystallographic Data Centre
#                                CCDC
#
#######################################################################
#
# If this CIF has been generated from an entry in the Cambridge
# Structural Database, then it will include bibliographic, chemical,
# crystal, experimental, refinement or atomic coordinate data resulting
# from the CCDC's data processing and validation procedures.
#
#######################################################################

data_CSD_CIF_QESLIK
_audit_creation_date 2007-04-03
_audit_creation_method CSD-ConQuest-V1
_database_code_CSD QESLIK
_database_code_depnum_ccdc_archive 'CCDC 626603'
_chemical_formula_sum 'C4 H10 In2 N2 O12 P2'
_chemical_formula_moiety
;
(C2 H10 N2 2+)n,n(C2 In2 O12 P2 2-)
;
_journal_coden_Cambridge 550
_journal_volume 49
_journal_year 2004
_journal_page_first 658
_journal_name_full 'Chin.Sci.Bull. '
loop_
_publ_author_name
"Zhenxia Chen"
"Linhong Weng"
"Jinxi Chen"
"Dongyuan Zhao"
_chemical_name_systematic
;
catena-(Ethylenediamine bis(\m~4~-phosphato)-(\m~2~-oxalato)-indium)
;
_cell_volume    321.036
_exptl_crystal_density_diffrn 2.947
_diffrn_ambient_temperature 293
_refine_special_details
;
One nitrogen atom is disordered over two sites.

;
#These two values have been output from a single CSD field.
_refine_ls_R_factor_gt 0.0659
_refine_ls_wR_factor_gt 0.0659
_symmetry_cell_setting triclinic
_symmetry_space_group_name_H-M 'P -1'
_symmetry_Int_Tables_number 2
loop_
_symmetry_equiv_pos_site_id
_symmetry_equiv_pos_as_xyz
1 x,y,z
2 -x,-y,-z
_cell_length_a 5.653(4)
_cell_length_b 6.627(4)
_cell_length_c 9.391(8)
_cell_angle_alpha 70.788(8)
_cell_angle_beta 75.836(12)
_cell_angle_gamma 89.68(9)
_cell_formula_units_Z 1
loop_
_atom_type_symbol
_atom_type_radius_bond
C 0.68
In 1.63
N 0.68
O 0.68
P 1.05
loop_
_atom_site_label
_atom_site_type_symbol
_atom_site_fract_x
_atom_site_fract_y
_atom_site_fract_z
In1 In -0.7136(2) -0.6683(2) -0.1606(1)
P1 P -0.6940(6) -0.2098(6) -0.0760(5)
O1 O -0.723(2) -0.3460(15) -0.1754(14)
O2 O -0.5522(18) -0.7598(17) 0.0305(12)
O3 O -0.093(2) -0.745(2) -0.0687(14)
O4 O -0.316(2) -1.0251(16) 0.1899(13)
O5 O -0.8109(19) -0.5581(16) -0.3955(13)
O6 O -0.3601(19) -0.5740(17) -0.3450(12)
C1 C -0.628(2) -0.494(2) -0.5126(17)
C2 C -0.095(3) -0.053(3) -0.428(2)
N1 N -0.100(3) 0.026(3) -0.2981(19)
N2? N -0.096(1) -0.221(9) -0.309(7)
In1A In -0.2864(2) -0.3317(2) 0.1606(1)
In1A* In -0.2864(2) -0.3317(2) -0.8394(1)
In1A** In -1.2864(2) -0.3317(2) 0.1606(1)
In1A*** In -0.2864(2) -1.3317(2) 0.1606(1)
In1* In 0.2864(2) -0.6683(2) -0.1606(1)
In1** In -0.7136(2) 0.3317(2) -0.1606(1)
P1A P -0.3060(6) -0.7902(6) 0.0760(5)
O1A O -0.277(2) -0.6540(15) 0.1754(14)
O2A O -0.4478(18) -0.2402(17) -0.0305(12)
O3* O -1.093(2) -0.745(2) -0.0687(14)
O3A O 0.093(2) -0.255(2) 0.0687(14)
O3A* O -0.907(2) -0.255(2) 0.0687(14)
O4A O -0.684(2) -0.9749(16) -0.1899(13)
O4* O -0.316(2) -0.0251(16) 0.1899(13)
O4A* O -0.684(2) 0.0251(16) -0.1899(13)
O5A O -0.1891(19) -0.4419(16) -0.6045(13)
O5A* O -0.1891(19) -0.4419(16) 0.3955(13)
O6A O -0.6399(19) -0.4260(17) -0.6550(12)
O6A* O -0.6399(19) -0.4260(17) 0.3450(12)
C1A C -0.372(2) -0.506(2) -0.4874(17)
C2A C 0.095(3) 0.053(3) -0.572(2)
N1A N 0.100(3) -0.026(3) -0.7019(19)
#END
