
#######################################################################
#
#                 Cambridge Crystallographic Data Centre
#                                CCDC
#
#######################################################################
#
# If this CIF has been generated from an entry in the Cambridge
# Structural Database, then it will include bibliographic, chemical,
# crystal, experimental, refinement or atomic coordinate data resulting
# from the CCDC's data processing and validation procedures.
#
#######################################################################

data_CSD_CIF_QESPEM
_audit_creation_date 2018-01-17
_audit_creation_method CSD-ConQuest-V1
_database_code_CSD QESPEM
_database_code_depnum_ccdc_archive 'CCDC 1575470'
_chemical_formula_sum 'C36 H40 Eu4 N4 O40'
_chemical_formula_moiety
;
(C16 H8 Eu4 O36 4-)n,4(C5 H6 N1 1+),4(H2 O1)
;
_journal_coden_Cambridge 29
_journal_volume 644
_journal_year 2018
_journal_page_first 43
_journal_name_full 'Z.Anorg.Allg.Chem. '
loop_
_publ_author_name
"Ximing Luo"
"Xingxiang He"
"Jie Shi"
"Chenhui Cui"
"Yan Xu"
_chemical_name_systematic
;
catena-(tetrakis(pyridinium) octakis(\m-oxalato)-tetra-aqua-tetra-europium 
tetrahydrate)
;
_cell_volume   2563.179
_exptl_crystal_colour 'yellow'
_exptl_crystal_density_diffrn 2.302
_exptl_crystal_description 'block'
_diffrn_ambient_temperature 296
#These two values have been output from a single CSD field.
_refine_ls_R_factor_gt 0.0232
_refine_ls_wR_factor_gt 0.0232
_symmetry_cell_setting monoclinic
_symmetry_space_group_name_H-M 'P 21/n'
_symmetry_Int_Tables_number 14
loop_
_symmetry_equiv_pos_site_id
_symmetry_equiv_pos_as_xyz
1 x,y,z
2 1/2-x,1/2+y,1/2-z
3 -x,-y,-z
4 -1/2+x,-1/2-y,-1/2+z
_cell_length_a 10.3724(18)
_cell_length_b 17.180(3)
_cell_length_c 14.543(3)
_cell_angle_alpha 90
_cell_angle_beta 98.483(2)
_cell_angle_gamma 90
_cell_formula_units_Z 2
loop_
_atom_type_symbol
_atom_type_radius_bond
C 0.68
H 0.23
Eu 1.98
N 0.68
O 0.68
loop_
_atom_site_label
_atom_site_type_symbol
_atom_site_fract_x
_atom_site_fract_y
_atom_site_fract_z
Eu1 Eu 0.50313(2) 0.12731(2) 0.34338(2)
Eu2 Eu 1.01992(2) 0.33498(2) 0.40913(2)
O1 O 0.8590(3) 0.25797(16) 0.47643(18)
O2 O 0.6609(3) 0.20793(16) 0.27156(19)
O3 O 0.8484(3) 0.27478(16) 0.29411(19)
O4 O 0.6817(3) 0.18266(16) 0.45411(19)
O5 O 1.4266(3) 0.25665(15) 0.3768(2)
O6 O 1.0979(3) 0.20906(16) 0.3707(2)
O7 O 1.2591(3) 0.32897(15) 0.4093(2)
O8 O 1.2630(3) 0.13662(15) 0.3365(2)
O9 O 0.6158(3) 0.01184(16) 0.4261(2)
O10 O 0.5690(3) -0.09245(15) 0.50807(19)
O11 O 1.1233(3) 0.46313(15) 0.44240(19)
O12 O 1.0789(3) 0.58654(15) 0.47741(18)
O13 O 0.3904(3) 0.00187(16) 0.2985(2)
O14 O 0.6099(3) 0.05116(15) 0.23779(19)
O15 O 0.6260(3) -0.06423(15) 0.16995(19)
O16 O 0.4213(3) -0.11671(15) 0.24068(19)
C1 C 0.7682(4) 0.2251(2) 0.4264(3)
C2 C 0.7576(4) 0.2366(2) 0.3212(3)
C3 C 1.2155(4) 0.1988(2) 0.3623(3)
C4 C 1.3090(4) 0.2678(2) 0.3849(3)
C5 C 0.5544(4) -0.0229(2) 0.4805(3)
C6 C 1.0587(4) 0.5145(2) 0.4772(3)
C7 C 0.4503(4) -0.0465(2) 0.2567(3)
C8 C 0.5734(4) -0.0169(2) 0.2185(3)
O17 O 1.1282(3) 0.2976(2) 0.5637(2)
H1 H 1.202(3) 0.276(3) 0.571(3)
H2 H 1.110(5) 0.296(3) 0.6168(18)
O18 O 0.4031(3) 0.16785(18) 0.1864(2)
H3 H 0.405(4) 0.141(2) 0.137(2)
H4 H 0.346(4) 0.2032(19) 0.174(3)
C9 C 1.1010(6) 0.0098(4) 0.6186(5)
H5 H 1.18080 -0.01170 0.61040
C10 C 1.0836(6) 0.0885(4) 0.6170(5)
H6 H 1.15240 0.12100 0.60820
N1 N 0.8881(4) -0.0055(3) 0.6428(3)
H7 H 0.82460 -0.03570 0.65100
C11 C 0.9999(5) -0.0365(3) 0.6324(4)
H8 H 1.01010 -0.09030 0.63440
C12 C 0.8687(6) 0.0706(4) 0.6413(5)
H9 H 0.78770 0.09050 0.64910
C13 C 0.9670(7) 0.1196(4) 0.6282(6)
H10 H 0.95450 0.17330 0.62700
N2 N -0.1096(7) 0.0671(4) 0.1308(4)
H11 H -0.17850 0.09380 0.13540
C14 C 0.0070(8) 0.1051(4) 0.1222(5)
H12 H 0.01280 0.15910 0.12280
C15 C 0.1108(6) 0.0600(5) 0.1129(5)
H13 H 0.18930 0.08410 0.10660
C16 C 0.1056(6) -0.0157(4) 0.1124(4)
H14 H 0.17920 -0.04490 0.10560
C17 C -0.0049(8) -0.0508(4) 0.1216(4)
H15 H -0.00760 -0.10490 0.12100
C18 C -0.1144(6) -0.0112(4) 0.1319(4)
H16 H -0.19070 -0.03720 0.13950
O19 O 0.6934(4) 0.2307(2) 0.6470(2)
H17 H 0.685(5) 0.220(3) 0.5900(16)
H18 H 0.653(5) 0.197(3) 0.673(3)
O20 O 0.3503(4) 0.2145(2) 0.6017(2)
H19 H 0.356(5) 0.210(3) 0.6597(15)
H20 H 0.375(5) 0.174(2) 0.578(4)
O9B O 0.3842(3) -0.01184(16) 0.5739(2)
O10B O 0.4310(3) 0.09245(15) 0.49193(19)
C5B C 0.4456(4) 0.0229(2) 0.5195(3)
O11B O 0.8767(3) 0.53687(15) 0.55760(19)
O12B O 0.9211(3) 0.41346(15) 0.52259(18)
C6B C 0.9413(4) 0.4855(2) 0.5228(3)
Eu1B Eu 0.49687(2) -0.12731(2) 0.65662(2)
Eu2B Eu -0.01992(2) -0.33498(2) 0.59087(2)
O1B O 0.1410(3) -0.25797(16) 0.52357(18)
O2B O 0.3391(3) -0.20793(16) 0.72844(19)
O3B O 0.1516(3) -0.27478(16) 0.70589(19)
O4B O 0.3183(3) -0.18266(16) 0.54589(19)
O5B O -0.4266(3) -0.25665(15) 0.6232(2)
O6B O -0.0979(3) -0.20906(16) 0.6293(2)
O7B O -0.2591(3) -0.32897(15) 0.5907(2)
O8B O -0.2630(3) -0.13662(15) 0.6635(2)
O13B O 0.6096(3) -0.00187(16) 0.7015(2)
O14B O 0.3901(3) -0.05116(15) 0.76221(19)
O15B O 0.3740(3) 0.06423(15) 0.83005(19)
O16B O 0.5787(3) 0.11671(15) 0.75932(19)
C1B C 0.2318(4) -0.2251(2) 0.5736(3)
C2B C 0.2424(4) -0.2366(2) 0.6788(3)
C3B C -0.2155(4) -0.1988(2) 0.6377(3)
C4B C -0.3090(4) -0.2678(2) 0.6151(3)
C7B C 0.5497(4) 0.0465(2) 0.7433(3)
C8B C 0.4266(4) 0.0169(2) 0.7815(3)
O17B O -0.1282(3) -0.2976(2) 0.4363(2)
H1B H -0.202(3) -0.276(3) 0.429(3)
H2B H -0.110(5) -0.296(3) 0.3832(18)
O18B O 0.5969(3) -0.16785(18) 0.8136(2)
H3B H 0.595(4) -0.141(2) 0.863(2)
H4B H 0.654(4) -0.2032(19) 0.826(3)
Eu1* Eu 1.50313(2) 0.12731(2) 0.34338(2)
Eu1B* Eu -0.50313(2) -0.12731(2) 0.65662(2)
Eu2A Eu 0.48008(2) -0.16502(2) 0.09087(2)
Eu2B* Eu 0.98008(2) 0.66502(2) 0.59087(2)
Eu2C Eu 0.51992(2) 0.16502(2) 0.90913(2)
O5* O 0.4266(3) 0.25665(15) 0.3768(2)
O5B* O 0.5734(3) -0.25665(15) 0.6232(2)
O8* O 0.2630(3) 0.13662(15) 0.3365(2)
O8B* O 0.7370(3) -0.13662(15) 0.6635(2)
O11B* O -0.1233(3) -0.46313(15) 0.55760(19)
O12* O 0.0789(3) -0.41346(15) 0.47741(18)
O15A O 0.8740(3) 0.43577(15) 0.33005(19)
O15C O 0.1260(3) -0.43577(15) 0.66995(19)
O16A O 1.0787(3) 0.38329(15) 0.25932(19)
O16C O -0.0787(3) -0.38329(15) 0.74068(19)
#END
