
#######################################################################
#
#                 Cambridge Crystallographic Data Centre
#                                CCDC
#
#######################################################################
#
# If this CIF has been generated from an entry in the Cambridge
# Structural Database, then it will include bibliographic, chemical,
# crystal, experimental, refinement or atomic coordinate data resulting
# from the CCDC's data processing and validation procedures.
#
#######################################################################

data_CSD_CIF_QESPOW
_audit_creation_date 2018-01-17
_audit_creation_method CSD-ConQuest-V1
_database_code_CSD QESPOW
_database_code_depnum_ccdc_archive 'CCDC 1575463'
_chemical_formula_sum 'C36 H40 N4 O40 Tb4'
_chemical_formula_moiety
;
(C16 H8 O36 Tb4 4-)n,4(C5 H6 N1 1+),4(H2 O1)
;
_journal_coden_Cambridge 29
_journal_volume 644
_journal_year 2018
_journal_page_first 43
_journal_name_full 'Z.Anorg.Allg.Chem. '
loop_
_publ_author_name
"Ximing Luo"
"Xingxiang He"
"Jie Shi"
"Chenhui Cui"
"Yan Xu"
_chemical_name_systematic
;
catena-(tetrakis(pyridinium) octakis(\m-oxalato)-tetra-aqua-tetra-terbium 
tetrahydrate)
;
_cell_volume   2560.518
_exptl_crystal_colour 'yellow'
_exptl_crystal_density_diffrn 2.34
_exptl_crystal_description 'block'
_diffrn_ambient_temperature 296
#These two values have been output from a single CSD field.
_refine_ls_R_factor_gt 0.0189
_refine_ls_wR_factor_gt 0.0189
_symmetry_cell_setting monoclinic
_symmetry_space_group_name_H-M 'P 21/n'
_symmetry_Int_Tables_number 14
loop_
_symmetry_equiv_pos_site_id
_symmetry_equiv_pos_as_xyz
1 x,y,z
2 1/2-x,1/2+y,1/2-z
3 -x,-y,-z
4 -1/2+x,-1/2-y,-1/2+z
_cell_length_a 10.343(10)
_cell_length_b 17.134(17)
_cell_length_c 14.609(15)
_cell_angle_alpha 90
_cell_angle_beta 98.501(12)
_cell_angle_gamma 90
_cell_formula_units_Z 2
loop_
_atom_type_symbol
_atom_type_radius_bond
C 0.68
H 0.23
N 0.68
O 0.68
Tb 1.94
loop_
_atom_site_label
_atom_site_type_symbol
_atom_site_fract_x
_atom_site_fract_y
_atom_site_fract_z
Tb1 Tb 0.50249(2) 0.12738(2) 0.34323(2)
Tb2 Tb 1.01960(2) 0.33515(2) 0.40875(2)
O1 O 0.8608(2) 0.25725(13) 0.47588(14)
O2 O 0.6588(2) 0.20887(13) 0.27095(14)
O3 O 0.8476(2) 0.27611(13) 0.29376(14)
O4 O 0.6821(2) 0.18132(13) 0.45334(14)
O5 O 1.4272(2) 0.25593(12) 0.37743(15)
O6 O 1.0969(2) 0.21011(13) 0.36907(17)
O7 O 1.2598(2) 0.32948(12) 0.41046(15)
O8 O 1.2628(2) 0.13661(12) 0.33567(15)
O9 O 0.6155(2) 0.01130(13) 0.42593(15)
O10 O 0.5691(2) -0.09297(13) 0.50938(14)
O11 O 1.1232(2) 0.46279(12) 0.44269(14)
O12 O 1.0796(2) 0.58707(12) 0.47861(14)
O13 O 0.3886(2) 0.00235(13) 0.29805(15)
O14 O 0.6094(2) 0.05196(12) 0.23872(14)
O15 O 0.6248(2) -0.06373(12) 0.16889(14)
O16 O 0.4200(2) -0.11707(12) 0.23981(14)
C1 C 0.7675(3) 0.22444(17) 0.4260(2)
C2 C 0.7562(3) 0.23775(17) 0.3203(2)
C3 C 1.2146(3) 0.19867(17) 0.3611(2)
C4 C 1.3095(3) 0.26794(17) 0.38525(19)
C5 C 0.5534(3) -0.02323(18) 0.48144(19)
C6 C 1.0585(3) 0.51426(17) 0.47742(19)
C7 C 0.4496(3) -0.04632(18) 0.25640(19)
C8 C 0.5729(3) -0.01675(17) 0.21883(19)
O17 O 1.1273(2) 0.29840(16) 0.56222(15)
H1 H 1.200(3) 0.275(2) 0.569(3)
H2 H 1.111(4) 0.301(2) 0.6171(16)
O18 O 0.4025(2) 0.16762(14) 0.18726(15)
H3 H 0.409(4) 0.1456(19) 0.1352(17)
H4 H 0.340(3) 0.2007(18) 0.175(2)
C9 C 1.1027(5) 0.0098(3) 0.6179(4)
H5 H 1.18210 -0.01210 0.60890
C10 C 1.0868(5) 0.0895(3) 0.6182(4)
H6 H 1.15570 0.12200 0.60890
N1 N 0.8879(3) -0.0041(2) 0.6448(3)
H7 H 0.82410 -0.03390 0.65380
C11 C 1.0004(4) -0.0366(3) 0.6311(3)
H8 H 1.00890 -0.09060 0.63070
C12 C 0.8710(5) 0.0724(3) 0.6449(4)
H9 H 0.79060 0.09300 0.65390
C13 C 0.9704(6) 0.1208(3) 0.6320(5)
H10 H 0.95910 0.17470 0.63250
N2 N -0.1095(5) 0.0664(4) 0.1319(4)
H11 H -0.17900 0.09230 0.13800
C14 C 0.0041(6) 0.1061(3) 0.1222(4)
H12 H 0.00750 0.16040 0.12270
C15 C 0.1099(5) 0.0624(4) 0.1121(4)
H13 H 0.18770 0.08760 0.10590
C16 C 0.1071(4) -0.0148(3) 0.1106(3)
H14 H 0.18160 -0.04280 0.10240
C17 C -0.0020(6) -0.0519(3) 0.1207(4)
H15 H -0.00300 -0.10620 0.12010
C18 C -0.1131(5) -0.0123(3) 0.1319(3)
H16 H -0.18930 -0.03890 0.13940
O19 O 0.6929(3) 0.23084(17) 0.64630(19)
H17 H 0.682(5) 0.220(3) 0.5900(15)
H18 H 0.662(3) 0.1937(14) 0.673(3)
O20 O 0.3507(3) 0.21557(17) 0.60109(17)
H19 H 0.355(4) 0.211(3) 0.6577(14)
H20 H 0.369(5) 0.1758(18) 0.573(3)
O9B O 0.3845(2) -0.01130(13) 0.57407(15)
O10B O 0.4309(2) 0.09297(13) 0.49062(14)
C5B C 0.4466(3) 0.02323(18) 0.51856(19)
O11B O 0.8768(2) 0.53721(12) 0.55731(14)
O12B O 0.9204(2) 0.41293(12) 0.52139(14)
C6B C 0.9415(3) 0.48574(17) 0.52258(19)
Tb1B Tb 0.49751(2) -0.12738(2) 0.65677(2)
Tb2B Tb -0.01960(2) -0.33515(2) 0.59125(2)
O1B O 0.1392(2) -0.25725(13) 0.52412(14)
O2B O 0.3412(2) -0.20887(13) 0.72905(14)
O3B O 0.1524(2) -0.27611(13) 0.70624(14)
O4B O 0.3179(2) -0.18132(13) 0.54666(14)
O5B O -0.4272(2) -0.25593(12) 0.62257(15)
O6B O -0.0969(2) -0.21011(13) 0.63093(17)
O7B O -0.2598(2) -0.32948(12) 0.58954(15)
O8B O -0.2628(2) -0.13661(12) 0.66433(15)
O13B O 0.6114(2) -0.00235(13) 0.70195(15)
O14B O 0.3906(2) -0.05196(12) 0.76128(14)
O15B O 0.3752(2) 0.06373(12) 0.83111(14)
O16B O 0.5800(2) 0.11707(12) 0.76019(14)
C1B C 0.2325(3) -0.22444(17) 0.5740(2)
C2B C 0.2438(3) -0.23775(17) 0.6797(2)
C3B C -0.2146(3) -0.19867(17) 0.6389(2)
C4B C -0.3095(3) -0.26794(17) 0.61475(19)
C7B C 0.5504(3) 0.04632(18) 0.74360(19)
C8B C 0.4271(3) 0.01675(17) 0.78117(19)
O17B O -0.1273(2) -0.29840(16) 0.43778(15)
H1B H -0.200(3) -0.275(2) 0.431(3)
H2B H -0.111(4) -0.301(2) 0.3829(16)
O18B O 0.5975(2) -0.16762(14) 0.81274(15)
H3B H 0.591(4) -0.1456(19) 0.8648(17)
H4B H 0.660(3) -0.2007(18) 0.825(2)
Tb1* Tb 1.50249(2) 0.12738(2) 0.34323(2)
Tb1B* Tb -0.50249(2) -0.12738(2) 0.65677(2)
Tb2A Tb 0.48040(2) -0.16485(2) 0.09125(2)
Tb2B* Tb 0.98040(2) 0.66485(2) 0.59125(2)
Tb2C Tb 0.51960(2) 0.16485(2) 0.90875(2)
O5* O 0.4272(2) 0.25593(12) 0.37743(15)
O5B* O 0.5728(2) -0.25593(12) 0.62257(15)
O8* O 0.2628(2) 0.13661(12) 0.33567(15)
O8B* O 0.7372(2) -0.13661(12) 0.66433(15)
O11B* O -0.1232(2) -0.46279(12) 0.55731(14)
O12* O 0.0796(2) -0.41293(12) 0.47861(14)
O15A O 0.8752(2) 0.43627(12) 0.33111(14)
O15C O 0.1248(2) -0.43627(12) 0.66889(14)
O16A O 1.0800(2) 0.38293(12) 0.26019(14)
O16C O -0.0800(2) -0.38293(12) 0.73981(14)
#END
