
#######################################################################
#
#                 Cambridge Crystallographic Data Centre
#                                CCDC
#
#######################################################################
#
# If this CIF has been generated from an entry in the Cambridge
# Structural Database, then it will include bibliographic, chemical,
# crystal, experimental, refinement or atomic coordinate data resulting
# from the CCDC's data processing and validation procedures.
#
#######################################################################

data_CSD_CIF_QETBEX
_audit_creation_date 2007-04-03
_audit_creation_method CSD-ConQuest-V1
_database_code_CSD QETBEX
_database_code_depnum_ccdc_archive 'CCDC 260359'
_chemical_formula_sum 'C60 H69 Mn3 N48 O27.5 Re8 Te8'
_chemical_formula_moiety
;
(C60 H58 Mn3 N48 O23 Re8 Te8 2-)n,2n(H3 O1 1+),2.5n(H2 O1)
;
_journal_coden_Cambridge 82
_journal_volume 46
_journal_year 2005
_journal_page_first S119
_journal_name_full 'Zh.Strukt.Khim.(Russ.)(J.Struct.Chem.) '
loop_
_publ_author_name
"D.G.Samsonenko"
"Yu.V.Mironov"
"O.A.Efremova"
"D.Yu.Naumov"
"O.A.Gerasko"
"V.P.Fedin"
"V.E.Fedorov"
"W.S.Sheldrick"
_chemical_name_systematic
;
catena-(bis(Oxonium) 
bis(\m~4~-(tetrakis(\m~3~-tellurido)-tetrakis(\m~2~-cyano)-octacyano-tetra-rhe
nium))-(\m~2~-cucurbituril-O,O')-undeca-aqua-tri-manganese(ii) hydrate)
;
_cell_volume   3229.648
_exptl_crystal_colour 'black'
_exptl_crystal_density_diffrn 2.354
_exptl_crystal_description 'needle'
_diffrn_ambient_temperature 295
_refine_special_details
;
The structure is disordered.

;
#These two values have been output from a single CSD field.
_refine_ls_R_factor_gt 0.0417
_refine_ls_wR_factor_gt 0.0417
_symmetry_cell_setting triclinic
_symmetry_space_group_name_H-M 'P -1'
_symmetry_Int_Tables_number 2
loop_
_symmetry_equiv_pos_site_id
_symmetry_equiv_pos_as_xyz
1 x,y,z
2 -x,-y,-z
_cell_length_a 13.049(3)
_cell_length_b 14.300(4)
_cell_length_c 18.533(9)
_cell_angle_alpha 101.80(3)
_cell_angle_beta 103.68(3)
_cell_angle_gamma 97.57(2)
_cell_formula_units_Z 1
loop_
_atom_type_symbol
_atom_type_radius_bond
C 0.68
H 0.23
Mn 1.35
N 0.68
O 0.68
Re 1.20
Te 1.47
loop_
_atom_site_label
_atom_site_type_symbol
_atom_site_fract_x
_atom_site_fract_y
_atom_site_fract_z
O1 O 0.8870(17) -1.2280(15) -0.2541(13)
O2 O 1.572(2) -0.052(2) 0.7503(17)
O3 O 1.256(3) -0.430(3) 0.262(2)
O4 O 1.562(7) 0.344(6) 0.644(5)
O5 O 1.130(5) -0.575(4) 0.322(3)
O6 O 1.053(4) 0.104(4) 0.478(3)
O7 O 0.587(5) -1.269(5) -0.272(4)
Re1 Re 0.80043(3) -0.80035(3) -0.00189(3)
Re2 Re 0.64982(3) -0.67941(3) -0.04618(3)
Re3 Re 0.82789(3) -0.60674(3) 0.08825(3)
Re4 Re 0.65402(3) -0.75320(3) 0.08689(3)
Te1 Te 0.85157(6) -0.64463(5) -0.05128(5)
Te2 Te 0.85685(5) -0.75579(5) 0.14881(4)
Te3 Te 0.63167(6) -0.57322(5) 0.08248(5)
Te4 Te 0.59137(5) -0.86492(5) -0.05319(4)
C1 C 0.7991(8) -0.9418(7) 0.0100(7)
N1 N 0.7996(7) -1.0228(6) 0.0091(6)
C2 C 0.7985(9) -0.8746(9) -0.1124(8)
N2 N 0.7964(11) -0.9199(9) -0.1707(7)
C3 C 0.9647(8) -0.8066(7) 0.0150(6)
N3 N 1.0514(7) -0.8153(7) 0.0255(7)
C4 C 0.6223(10) -0.7311(9) -0.1672(8)
N4 N 0.6058(11) -0.7591(9) -0.2297(7)
C5 C 0.4831(9) -0.6865(8) -0.0804(7)
N5 N 0.3915(9) -0.6904(9) -0.0992(7)
C6 C 0.6424(9) -0.5478(8) -0.0803(8)
N6 N 0.6297(10) -0.4789(8) -0.0999(8)
C7 C 0.8567(11) -0.5345(8) 0.2029(8)
N7 N 0.8716(13) -0.4965(10) 0.2662(8)
C8 C 0.8622(9) -0.4613(8) 0.0806(8)
N8 N 0.8872(8) -0.3837(7) 0.0776(8)
C9 C 0.9967(9) -0.5793(8) 0.1184(8)
N9 N 1.0879(9) -0.5615(8) 0.1376(9)
C10 C 0.4886(9) -0.7785(8) 0.0757(7)
N10 N 0.3982(8) -0.7958(7) 0.0708(6)
C11 C 0.6350(8) -0.8881(8) 0.1158(7)
N11 N 0.6268(9) -0.9610(8) 0.1316(7)
C12 C 0.6533(10) -0.7027(8) 0.2000(8)
N12 N 0.6498(11) -0.6774(9) 0.2623(8)
Mn1 Mn 0.77719(12) -1.17690(11) -0.05139(11)
O8 O 0.7474(6) -1.3237(5) -0.1292(5)
O9 O 0.7835(6) -1.2346(5) 0.0506(5)
O10 O 0.7846(9) -1.1264(7) -0.1555(6)
O11 O 0.8973(9) 0.1338(8) 0.2950(6)
C13 C 0.8308(12) 0.059(1) 0.2817(8)
O12 O 0.6971(10) -0.2296(8) 0.3687(6)
C14 C 0.7053(13) -0.1720(11) 0.3288(9)
C15 C 0.6744(11) -0.0472(9) 0.2703(8)
H1 H 0.60750 -0.04720 0.23270
C16 C 0.7488(11) -0.1040(8) 0.2341(8)
H2 H 0.71600 -0.13390 0.17950
N13 N 0.8436(10) -0.0317(9) 0.2465(7)
N14 N 0.7667(10) -0.1758(8) 0.2771(7)
N15 N 0.6556(10) -0.0960(8) 0.3296(7)
N16 N 0.7401(9) 0.0511(8) 0.3037(7)
C17 C 0.9302(14) -0.0467(12) 0.2107(9)
H3 H 0.89970 -0.08920 0.15990
H4 H 0.96270 0.01540 0.20500
C18 C 0.8185(12) -0.2573(10) 0.2557(9)
H5 H 0.79950 -0.27910 0.20030
H6 H 0.79190 -0.31090 0.27530
O13 O 1.1387(9) 0.0502(8) 0.3135(6)
C19 C 1.1083(13) -0.0402(12) 0.2969(9)
O14 O 0.9521(9) -0.3087(7) 0.3836(6)
C20 C 0.9929(13) -0.2687(9) 0.3416(9)
C21 C 1.0049(11) -0.1888(11) 0.2451(8)
H7 H 0.98700 -0.22440 0.19130
C22 C 1.1164(12) -0.2004(11) 0.2896(9)
H8 H 1.15420 -0.23330 0.25520
N17 N 1.1700(9) -0.0999(9) 0.3252(6)
N18 N 1.0954(11) -0.2559(9) 0.3418(8)
N19 N 0.9354(11) -0.2324(9) 0.2851(7)
N20 N 1.0125(9) -0.0880(9) 0.2523(7)
C23 C 1.2865(11) -0.0753(13) 0.3543(8)
H9 H 1.31160 -0.01390 0.34380
H10 H 1.31720 -0.12470 0.32690
C24 C 1.1773(14) -0.2844(11) 0.3919(10)
H11 H 1.22780 -0.30580 0.36420
H12 H 1.14580 -0.33980 0.40730
O15 O 1.3587(10) 0.0992(9) 0.4773(7)
C25 C 1.3547(11) 0.0179(11) 0.4893(8)
O16 O 1.1446(10) -0.2658(8) 0.5430(7)
C26 C 1.2194(13) -0.2131(11) 0.5301(11)
C27 C 1.3336(13) -0.1481(12) 0.4676(9)
H13 H 1.38420 -0.18510 0.44890
C28 C 1.3778(11) -0.1006(11) 0.5556(9)
H14 H 1.44850 -0.11520 0.57670
N21 N 1.3829(10) 0.0001(9) 0.5608(7)
N22 N 1.2966(10) -0.1465(8) 0.5847(7)
N23 N 1.2354(11) -0.2107(9) 0.4595(8)
N24 N 1.3258(10) -0.0675(10) 0.4364(7)
C29 C 0.5748(12) -0.0763(10) 0.3692(8)
H15 H 0.51650 -0.05730 0.33560
H16 H 0.54580 -0.13540 0.38130
C30 C 0.6988(13) 0.1336(11) 0.3335(9)
H17 H 0.73950 0.19150 0.32680
H18 H 0.62470 0.12680 0.30440
Mn2 Mn 0.8791(7) -0.4474(6) 0.3943(5)
O17 O 0.715(3) -0.422(2) 0.3619(19)
O18 O 0.799(3) -0.574(2) 0.4081(19)
O19 O 1.025(3) -0.497(2) 0.4277(18)
O20 O 0.935(3) -0.353(2) 0.5218(19)
O21? O 1.538(8) 0.302(7) 0.627(6)
O22? O 1.485(6) 0.315(5) 0.583(4)
O23? O 1.00000 0.00000 0.50000
O24? O 0.939(12) 0.015(11) 0.486(9)
Re1A Re 1.19957(3) -1.19965(3) 0.00189(3)
Re2A Re 1.35018(3) -1.32059(3) 0.04618(3)
Re3A Re 1.17211(3) -1.39326(3) -0.08825(3)
Re4A Re 1.34598(3) -1.24680(3) -0.08689(3)
Te1A Te 1.14843(6) -1.35537(5) 0.05128(5)
Te2A Te 1.14315(5) -1.24421(5) -0.14881(4)
Te3A Te 1.36833(6) -1.42678(5) -0.08248(5)
Te4A Te 1.40863(5) -1.13508(5) 0.05319(4)
C1A C 1.2009(8) -1.0582(7) -0.0100(7)
N1A N 1.2004(7) -0.9772(6) -0.0091(6)
C2A C 1.2015(9) -1.1254(9) 0.1124(8)
N2A N 1.2036(11) -1.0801(9) 0.1707(7)
C3A C 1.0353(8) -1.1934(7) -0.0150(6)
N3A N 0.9486(7) -1.1847(7) -0.0255(7)
C4A C 1.3777(10) -1.2689(9) 0.1672(8)
N4A N 1.3942(11) -1.2409(9) 0.2297(7)
C5A C 1.5169(9) -1.3135(8) 0.0804(7)
N5A N 1.6085(9) -1.3096(9) 0.0992(7)
C6A C 1.3576(9) -1.4522(8) 0.0803(8)
N6A N 1.3703(10) -1.5211(8) 0.0999(8)
C7A C 1.1433(11) -1.4655(8) -0.2029(8)
N7A N 1.1284(13) 0.4965(10) 0.7338(8)
N7A* N 1.1284(13) -1.5035(10) -0.2662(8)
C8A C 1.1378(9) -1.5387(8) -0.0806(8)
N8A N 1.1128(8) -1.6163(7) -0.0776(8)
C9A C 1.0033(9) -1.4207(8) -0.1184(8)
N9A N 0.9121(9) -1.4385(8) -0.1376(9)
C10A C 1.5114(9) -1.2215(8) -0.0757(7)
N10A N 0.6018(8) -1.2042(7) -0.0708(6)
N10* N 1.3982(8) -0.7958(7) 0.0708(6)
N10A* N 1.6018(8) -1.2042(7) -0.0708(6)
C11A C 1.3650(8) -1.1119(8) -0.1158(7)
N11A N 1.3732(9) -1.0390(8) -0.1316(7)
C12A C 1.3467(10) -1.2973(8) -0.2000(8)
N12A N 1.3502(11) -1.3226(9) -0.2623(8)
Mn1A Mn 1.22281(12) -0.82310(11) 0.05139(11)
Mn1A* Mn 0.22281(12) -0.82310(11) 0.05139(11)
Mn1* Mn 1.77719(12) -1.17690(11) -0.05139(11)
O8A O 1.2526(6) -0.6763(5) 0.1292(5)
O9A O 1.2165(6) -0.7654(5) -0.0506(5)
O10A O 1.2154(9) -0.8736(7) 0.1555(6)
O11A O 1.1027(9) -0.1338(8) 0.7050(6)
C13A C 1.1692(12) -0.059(1) 0.7183(8)
O12A O 1.3029(10) 0.2296(8) 0.6313(6)
C14A C 1.2947(13) 0.1720(11) 0.6712(9)
C15A C 1.3256(11) 0.0472(9) 0.7297(8)
H1A H 1.39250 0.04720 0.76730
C16A C 1.2512(11) 0.1040(8) 0.7659(8)
H2A H 1.28400 0.13390 0.82050
N13A N 1.1564(10) 0.0317(9) 0.7535(7)
N14A N 1.2333(10) 0.1758(8) 0.7229(7)
N15A N 1.3444(10) 0.0960(8) 0.6704(7)
N16A N 1.2599(9) -0.0511(8) 0.6963(7)
C17A C 1.0698(14) 0.0467(12) 0.7893(9)
H3A H 1.10030 0.08920 0.84010
H4A H 1.03730 -0.01540 0.79500
C18A C 1.1815(12) 0.2573(10) 0.7443(9)
H5A H 1.20050 0.27910 0.79970
H6A H 1.20810 0.31090 0.72470
O13A O 0.8613(9) -0.0502(8) 0.6865(6)
C19A C 0.8917(13) 0.0402(12) 0.7031(9)
O14A O 1.0479(9) 0.3087(7) 0.6164(6)
C20A C 1.0071(13) 0.2687(9) 0.6584(9)
C21A C 0.9951(11) 0.1888(11) 0.7549(8)
H7A H 1.01300 0.22440 0.80870
C22A C 0.8836(12) 0.2004(11) 0.7104(9)
H8A H 0.84580 0.23330 0.74480
N17A N 0.8300(9) 0.0999(9) 0.6748(6)
N18A N 0.9046(11) 0.2559(9) 0.6582(8)
N19A N 1.0646(11) 0.2324(9) 0.7149(7)
N20A N 0.9875(9) 0.0880(9) 0.7477(7)
C23A C 0.7135(11) 0.0753(13) 0.6457(8)
H9A H 0.68840 0.01390 0.65620
H10A H 0.68280 0.12470 0.67310
C24A C 0.8227(14) 0.2844(11) 0.6081(10)
H11A H 0.77220 0.30580 0.63580
H12A H 0.85420 0.33980 0.59270
O15A O 0.6413(10) -0.0992(9) 0.5227(7)
C25A C 0.6453(11) -0.0179(11) 0.5107(8)
O16A O 0.8554(10) 0.2658(8) 0.4570(7)
C26A C 0.7806(13) 0.2131(11) 0.4699(11)
C27A C 0.6664(13) 0.1481(12) 0.5324(9)
H13A H 0.61580 0.18510 0.55110
C28A C 0.6222(11) 0.1006(11) 0.4444(9)
N21A N 0.6171(10) -0.0001(9) 0.4392(7)
N22A N 0.7034(10) 0.1465(8) 0.4153(7)
N23A N 0.7646(11) 0.2107(9) 0.5405(8)
N24A N 0.6742(10) 0.0675(10) 0.5636(7)
C29A C 1.4252(12) 0.0763(10) 0.6308(8)
H15A H 1.48350 0.05730 0.66440
H16A H 1.45420 0.13540 0.61870
C30A C 1.3012(13) -0.1336(11) 0.6665(9)
H17A H 1.26050 -0.19150 0.67320
H18A H 1.37530 -0.12680 0.69560
Mn2A Mn 1.1209(7) 0.4474(6) 0.6057(5)
Mn2A* Mn 1.1209(7) -1.5526(6) -0.3943(5)
O17A O 1.285(3) 0.422(2) 0.6381(19)
O18A O 1.201(3) 0.574(2) 0.5919(19)
O19A O 0.975(3) 0.497(2) 0.5723(18)
O20A O 1.065(3) 0.353(2) 0.4782(19)
#END
