
#######################################################################
#
#                 Cambridge Crystallographic Data Centre
#                                CCDC
#
#######################################################################
#
# If this CIF has been generated from an entry in the Cambridge
# Structural Database, then it will include bibliographic, chemical,
# crystal, experimental, refinement or atomic coordinate data resulting
# from the CCDC's data processing and validation procedures.
#
#######################################################################

data_CSD_CIF_QETYOG
_audit_creation_date 2018-01-18
_audit_creation_method CSD-ConQuest-V1
_database_code_CSD QETYOG
_database_code_depnum_ccdc_archive 'CCDC 1588091'
_chemical_formula_sum 'C8 H70 As2 Na4 O110 Pr2 W21'
_chemical_formula_moiety
;
(C8 H22 As2 O86 Pr2 W21 4-)n,24(H2 O1),4(Na1 1+)
;
_journal_coden_Cambridge 222
_journal_volume 47
_journal_year 2018
_journal_page_first 1958
_journal_name_full 'Dalton Trans. '
loop_
_publ_author_name
"Hechen Wu"
"Rong Wan"
"Yanan Si"
"Pengtao Ma"
"Jingping Wang"
"Jingyang Niu"
_chemical_name_systematic
;
catena-[tetra-sodium 
bis(\m-arsenato)-octakis(\m-hydroxy)-dotetracontakis(\m-oxo)bis(malato)-tetra-
aqua-hexadecaoxo-di-praseodymium(iii) henicosa-tungsten tetracosahydrate 
unknown solvate]
;
_cell_volume  11345.212
_exptl_crystal_colour 'colorless'
_exptl_crystal_density_diffrn 3.627
_exptl_special_details
;
Luminescent
The anion H atoms have not been located and have been placed arbitrarily in 
the 2D diagram
;
_exptl_crystal_description 'block'
_diffrn_ambient_temperature 296.1
_refine_special_details
;
The MASK/OLEX2 program has been used to model some disorder.

;
#These two values have been output from a single CSD field.
_refine_ls_R_factor_gt 0.0454
_refine_ls_wR_factor_gt 0.0454
_symmetry_cell_setting monoclinic
_symmetry_space_group_name_H-M 'C 2/c'
_symmetry_Int_Tables_number 15
loop_
_symmetry_equiv_pos_site_id
_symmetry_equiv_pos_as_xyz
1 x,y,z
2 -x,y,1/2-z
3 1/2+x,1/2+y,z
4 1/2-x,1/2+y,1/2-z
5 -x,-y,-z
6 x,-y,-1/2+z
7 -1/2-x,-1/2-y,-z
8 -1/2+x,-1/2-y,-1/2+z
_cell_length_a 19.802(5)
_cell_length_b 28.389(8)
_cell_length_c 21.365(9)
_cell_angle_alpha 90
_cell_angle_beta 109.160(4)
_cell_angle_gamma 90
_cell_formula_units_Z 4
loop_
_atom_type_symbol
_atom_type_radius_bond
C 0.68
H 0.23
As 1.21
Na 1.66
O 0.68
Pr 2.03
W 1.62
loop_
_atom_site_label
_atom_site_type_symbol
_atom_site_fract_x
_atom_site_fract_y
_atom_site_fract_z
Pr1 Pr 0.89805(2) 0.23185(2) 0.11219(2)
W1 W 0.86175(2) 0.04203(2) 0.16487(2)
W2 W 0.76615(2) 0.11665(2) 0.04553(2)
W3 W 0.68096(2) 0.05052(2) 0.12811(2)
W4 W 0.88205(2) 0.08015(2) 0.33297(2)
W5 W 0.70468(2) 0.08503(2) 0.29961(2)
W6 W 0.80645(2) 0.17884(2) 0.36608(2)
W7 W 0.68122(2) 0.22248(2) 0.07921(2)
W8 W 0.59489(2) 0.15980(2) 0.16411(2)
W9 W 0.69514(2) 0.25487(2) 0.23300(2)
W10 W 0.89669(2) 0.27041(2) 0.29883(2)
W11 W 1.00000 0.13378(2) 0.25000
As1 As 0.79789(4) 0.15740(3) 0.20376(4)
O1 O 0.8995(4) -0.0115(2) 0.1589(4)
O2 O 0.7484(3) 0.1101(2) -0.0388(3)
O3 O 0.6169(4) 0.0075(2) 0.1044(4)
O4 O 0.9453(3) 0.0463(2) 0.3855(3)
O5 O 0.6552(3) 0.0516(2) 0.3361(3)
O6 O 0.8234(3) 0.2064(2) 0.4416(3)
O7 O 0.6364(3) 0.2507(2) 0.0055(2)
O8 O 0.5063(3) 0.1486(3) 0.1522(3)
O9 O 0.6617(3) 0.3030(2) 0.2619(3)
O10 O 0.9847(3) 0.26991(19) 0.3542(3)
O11 O 1.0499(3) 0.17295(18) 0.3093(2)
O12 O 0.8294(3) 0.0621(2) 0.0754(3)
O13 O 0.6873(3) 0.0693(2) 0.0481(3)
O14 O 0.7637(3) 0.0142(2) 0.1470(3)
O15 O 0.6988(3) 0.0516(2) 0.2244(3)
O16 O 0.7978(3) 0.0568(2) 0.3457(3)
O17 O 0.8686(3) 0.21368(19) 0.3277(2)
O18 O 0.7708(3) 0.2390(2) 0.0970(2)
O19 O 0.9360(3) 0.12103(19) 0.2957(2)
O20 O 0.9093(3) 0.2563(2) 0.2248(2)
O21 O 0.6230(3) 0.1036(2) 0.1306(3)
O22 O 0.6075(3) 0.2153(2) 0.2137(2)
O23 O 0.8338(3) 0.15820(19) 0.0690(2)
O24 O 0.7770(3) 0.1059(2) 0.1526(2)
O25 O 0.8608(3) 0.04365(18) 0.2553(3)
O26 O 0.5901(3) 0.1911(2) 0.0880(3)
O27 O 0.8809(3) 0.1318(2) 0.3931(2)
O28 O 0.7324(3) 0.2158(2) 0.3108(2)
O29 O 0.6642(3) 0.26773(19) 0.1401(2)
O30 O 0.7902(3) 0.1304(2) 0.2764(2)
O31 O 0.7122(2) 0.18599(17) 0.1780(2)
O32 O 0.7407(3) 0.1328(2) 0.3718(3)
O33 O 0.6955(3) 0.1632(2) 0.0470(3)
O34 O 0.7849(3) 0.27145(19) 0.2447(2)
O35 O 0.9382(3) 0.0791(2) 0.1893(3)
O36 O 0.6395(3) 0.1271(2) 0.2502(3)
O37 O 0.8555(3) 0.3012(2) 0.3699(2)
O38 O 0.8129(5) 0.3666(4) 0.4001(4)
O39 O 0.8897(3) 0.33690(19) 0.2783(2)
O40 O 0.8306(7) 0.4333(5) 0.1925(7)
O41 O 0.9247(7) 0.4654(5) 0.2636(7)
C1 C 0.8372(5) 0.3413(4) 0.3617(5)
C2 C 0.8521(8) 0.36421(18) 0.3058(8)
H1 H 0.80506 0.35895 0.27252
C3 C 0.8517(9) 0.41662(18) 0.3020(8)
H2 H 0.88378 0.42850 0.34380
H3 H 0.80400 0.42741 0.29805
C4 C 0.8731(9) 0.4394(6) 0.2457(8)
O42 O 0.9806(2) 0.1860(2) 0.06589(19)
H4 H 1.0194(3) 0.1962(5) 0.0650(7)
H5 H 0.9534(5) 0.1793(7) 0.0283(3)
O43 O 0.8770(2) 0.31934(18) 0.1051(2)
H6 H 0.9047(3) 0.3362(3) 0.0929(4)
H7 H 0.8727(5) 0.3294(5) 0.1401(2)
Na1 Na 0.9373(2) 0.48575(15) 0.1688(2)
O44 O 1.00000 0.56629(16) 0.25000
H8 H 0.9836(12) 0.5425(2) 0.2276(6)
O45 O 0.8479(3) 0.4767(2) 0.0799(3)
H9 H 0.8359(9) 0.4954(3) 0.0484(3)
H10 H 0.8897(3) 0.4674(4) 0.0877(11)
O46 O 0.9822(5) 0.53311(17) 0.1323(3)
H11 H 0.9570(8) 0.5462(3) 0.0977(4)
H12 H 0.9841(18) 0.50420(18) 0.1270(11)
Na2 Na 0.92205(18) -0.08843(11) 0.12394(15)
O47 O 0.3906(2) 0.20172(18) 0.1403(2)
H13 H 0.39768 0.21588 0.10889
H14 H 0.41139 0.17586 0.14655
O48 O 0.7312(3) 0.1571(3) -0.1444(3)
H15 H 0.77271 0.15048 -0.14297
H16 H 0.71473 0.13604 -0.12660
O49 O 0.9350(4) 0.0958(3) 0.0177(4)
H17 H 0.90756 0.11423 0.02769
H18 H 0.91800 0.06868 0.01212
O50 O 0.5000(2) 0.2657(2) 0.2500(2)
H19 H 0.53608 0.28086 0.27335
O51 O 0.4615(2) 0.2274(2) -0.0024(2)
H20 H 0.46062 0.24573 0.02771
H21 H 0.44394 0.20144 0.00197
O52 O 0.8326(3) 0.2897(4) 0.4999(3)
H22 H 0.81235 0.31414 0.47925
H23 H 0.80215 0.26780 0.48545
O53 O 0.9675(4) 0.3724(3) 0.2010(4)
H24 H 0.97022 0.39980 0.18590
H25 H 1.00963 0.36150 0.21100
H26? H 0.49265 0.27009 0.21040
H27? H 0.9735(5) 0.5894(2) 0.2368(15)
Pr1A Pr 1.10195(2) 0.23185(2) 0.38781(2)
W1A W 1.13825(2) 0.04203(2) 0.33513(2)
W2A W 1.23385(2) 0.11665(2) 0.45447(2)
W3A W 1.31904(2) 0.05052(2) 0.37189(2)
W4A W 1.11795(2) 0.08015(2) 0.16703(2)
W5A W 1.29532(2) 0.08503(2) 0.20039(2)
W6A W 1.19355(2) 0.17884(2) 0.13392(2)
W7A W 1.31878(2) 0.22248(2) 0.42079(2)
W8A W 1.40511(2) 0.15980(2) 0.33589(2)
W9A W 1.30486(2) 0.25487(2) 0.26700(2)
W10A W 1.10331(2) 0.27041(2) 0.20117(2)
As1A As 1.20211(4) 0.15740(3) 0.29624(4)
O1A O 1.1005(4) -0.0115(2) 0.3411(4)
O2A O 1.2516(3) 0.1101(2) 0.5388(3)
O3A O 1.3831(4) 0.0075(2) 0.3956(4)
O4A O 1.0547(3) 0.0463(2) 0.1145(3)
O5A O 1.3448(3) 0.0516(2) 0.1639(3)
O6A O 1.1766(3) 0.2064(2) 0.0584(3)
O7A O 1.3636(3) 0.2507(2) 0.4945(2)
O8A O 1.4937(3) 0.1486(3) 0.3478(3)
O9A O 1.3383(3) 0.3030(2) 0.2381(3)
O10A O 1.0153(3) 0.26991(19) 0.1458(3)
O11A O 0.9501(3) 0.17295(18) 0.1907(2)
O12A O 1.1706(3) 0.0621(2) 0.4246(3)
O13A O 1.3127(3) 0.0693(2) 0.4519(3)
O14A O 1.2363(3) 0.0142(2) 0.3530(3)
O15A O 1.3012(3) 0.0516(2) 0.2756(3)
O16A O 1.2022(3) 0.0568(2) 0.1543(3)
O17A O 1.1314(3) 0.21368(19) 0.1723(2)
O18A O 1.2292(3) 0.2390(2) 0.4030(2)
O19A O 1.0640(3) 0.12103(19) 0.2043(2)
O20A O 1.0907(3) 0.2563(2) 0.2752(2)
O21A O 1.3770(3) 0.1036(2) 0.3694(3)
O22A O 1.3925(3) 0.2153(2) 0.2863(2)
O23A O 1.1662(3) 0.15820(19) 0.4310(2)
O24A O 1.2230(3) 0.1059(2) 0.3474(2)
O25A O 1.1392(3) 0.04365(18) 0.2447(3)
O26A O 1.4099(3) 0.1911(2) 0.4120(3)
O27A O 1.1191(3) 0.1318(2) 0.1069(2)
O28A O 1.2676(3) 0.2158(2) 0.1892(2)
O29A O 1.3358(3) 0.26773(19) 0.3599(2)
O30A O 1.2098(3) 0.1304(2) 0.2236(2)
O31A O 1.2878(2) 0.18599(17) 0.3220(2)
O32A O 1.2593(3) 0.1328(2) 0.1282(3)
O33A O 1.3045(3) 0.1632(2) 0.4530(3)
O34A O 1.2151(3) 0.27145(19) 0.2553(2)
O35A O 1.0618(3) 0.0791(2) 0.3107(3)
O36A O 1.3605(3) 0.1271(2) 0.2498(3)
O37A O 1.1445(3) 0.3012(2) 0.1301(2)
O38A O 1.1871(5) 0.3666(4) 0.0999(4)
O39A O 1.1103(3) 0.33690(19) 0.2217(2)
O40A O 1.1694(7) 0.4333(5) 0.3075(7)
O41A O 1.0753(7) 0.4654(5) 0.2364(7)
C1A C 1.1628(5) 0.3413(4) 0.1383(5)
C2A C 1.1479(8) 0.36421(18) 0.1942(8)
H1A H 1.19494 0.35895 0.22748
C3A C 1.1483(9) 0.41662(18) 0.1980(8)
H2A H 1.11622 0.42850 0.15620
H3A H 1.19600 0.42741 0.20195
C4A C 1.1269(9) 0.4394(6) 0.2543(8)
O42A O 1.0194(2) 0.1860(2) 0.43411(19)
H4A H 0.9806(3) 0.1962(5) 0.4350(7)
H5A H 1.0466(5) 0.1793(7) 0.4717(3)
O43A O 1.1230(2) 0.31934(18) 0.3949(2)
H6A H 1.0953(3) 0.3362(3) 0.4071(4)
H7A H 1.1273(5) 0.3294(5) 0.3599(2)
Pr1F Pr 0.60195(2) 0.26815(2) -0.11219(2)
Pr1G Pr 1.39805(2) 0.26815(2) 0.61219(2)
O7F O 0.8636(3) 0.2493(2) -0.0055(2)
O7G O 1.1364(3) 0.2493(2) 0.5055(2)
H8A H 1.0164(12) 0.5425(2) 0.2724(6)
O45A O 1.1521(3) 0.4767(2) 0.4201(3)
H9A H 1.1641(9) 0.4954(3) 0.4516(3)
H10A H 1.1103(3) 0.4674(4) 0.4123(11)
O46A O 1.0178(5) 0.53311(17) 0.3677(3)
H11A H 1.0430(8) 0.5462(3) 0.4023(4)
H12A H 1.0159(18) 0.50420(18) 0.3730(11)
H19A H 0.46392 0.28086 0.22665
#END
