
#######################################################################
#
#                 Cambridge Crystallographic Data Centre
#                                CCDC
#
#######################################################################
#
# If this CIF has been generated from an entry in the Cambridge
# Structural Database, then it will include bibliographic, chemical,
# crystal, experimental, refinement or atomic coordinate data resulting
# from the CCDC's data processing and validation procedures.
#
#######################################################################

data_CSD_CIF_QEYGAE
_audit_creation_date 2013-05-28
_audit_creation_method CSD-ConQuest-V1
_database_code_CSD QEYGAE
_database_code_depnum_ccdc_archive 'CCDC 899488'
_chemical_formula_sum 'C56 H64 Dy2 N14 O35 Sr1'
_chemical_formula_moiety
;
(C42 H28 Dy2 N6 O29 Sr1 4-)n,4n(C3 H5 N2 1+),n(C2 H6 O1),5n(H2 O1)
;
_journal_coden_Cambridge 222
_journal_volume 42
_journal_year 2013
_journal_page_first 10011
_journal_name_full 'Dalton Trans. '
loop_
_publ_author_name
"Yanmei Chen"
"Yanyuan Cao"
"Wenqian Chen"
"Qian Gao"
"Lei Li"
"Dandan Gao"
"Wei Liu"
"Yahong Li"
"Wu Li"
_chemical_name_systematic
;
catena-(tetrakis(Imidazolium) 
tris(\m~2~-pyridine-2,6-dicarboxylato)-penta-aqua-tris(pyridine-2,6-dicarboxyl
ato)-di-dysprosium-strontium ethanol solvate pentahydrate)
;
_cell_volume   3430.604
_exptl_crystal_colour 'colorless'
_exptl_crystal_density_diffrn 1.845
_exptl_crystal_description 'rod'
_diffrn_ambient_temperature 293
#These two values have been output from a single CSD field.
_refine_ls_R_factor_gt 0.0363
_refine_ls_wR_factor_gt 0.0363
_symmetry_cell_setting triclinic
_symmetry_space_group_name_H-M 'P -1'
_symmetry_Int_Tables_number 2
loop_
_symmetry_equiv_pos_site_id
_symmetry_equiv_pos_as_xyz
1 x,y,z
2 -x,-y,-z
_cell_length_a 10.394(2)
_cell_length_b 11.066(2)
_cell_length_c 30.409(6)
_cell_angle_alpha 88.42(3)
_cell_angle_beta 87.81(3)
_cell_angle_gamma 79.04(3)
_cell_formula_units_Z 2
loop_
_atom_type_symbol
_atom_type_radius_bond
C 0.68
H 0.23
Dy 1.92
N 0.68
O 0.68
Sr 1.95
loop_
_atom_site_label
_atom_site_type_symbol
_atom_site_fract_x
_atom_site_fract_y
_atom_site_fract_z
Dy1 Dy 0.44482(2) 0.34524(2) 0.373244(7)
O1 O 0.5324(3) 0.4903(3) 0.32480(11)
N1 N 0.6778(4) 0.3628(3) 0.38388(12)
C1 C 0.7347(5) 0.4442(4) 0.36003(16)
C2 C 1.1309(6) 0.8983(5) 0.02393(19)
H1 H 1.14250 0.82530 0.00860
Dy2 Dy 0.87684(2) 1.04570(2) 0.149637(8)
O2 O 0.6974(4) 0.5827(3) 0.29993(11)
N2 N 0.2985(4) 0.3416(4) 0.44056(13)
C3 C 0.8613(5) 0.4583(5) 0.36511(18)
H2 H 0.89710 0.51620 0.34840
Sr1 Sr 0.73041(5) 0.57040(4) 0.214945(16)
O3 O 0.5586(3) 0.2047(3) 0.42702(11)
N3 N 0.3688(4) 0.3282(3) 0.29757(13)
C4 C 0.9336(5) 0.3841(5) 0.39567(19)
H3 H 1.01970 0.39160 0.40020
O4 O 0.7373(4) 0.1232(4) 0.46189(13)
N4 N 0.6428(4) 1.0276(3) 0.14750(12)
C5 C 0.8783(5) 0.2988(5) 0.41956(17)
H4 H 0.92720 0.24710 0.44000
O5 O 0.4401(4) 0.5111(3) 0.42224(11)
C6 C 0.7495(5) 0.2902(4) 0.41313(16)
N5 N 1.0293(4) 1.0195(3) 0.08305(13)
O6 O 0.3689(5) 0.6108(3) 0.48400(13)
C7 C 0.6475(5) 0.5126(4) 0.32541(16)
N6 N 0.9665(4) 1.0894(4) 0.22001(14)
O7 O 0.3185(4) 0.1790(3) 0.37881(11)
C8 C 0.6775(5) 0.1996(4) 0.43657(16)
O8 O 0.1812(4) 0.0756(3) 0.41517(13)
C9 C 0.2946(5) 0.4274(5) 0.47061(17)
O9 O 0.5761(3) 0.1920(3) 0.32935(11)
C10 C 0.2222(6) 0.4257(5) 0.50965(19)
H5 H 0.21940 0.48740 0.53000
O10 O 0.6236(4) 0.0907(3) 0.26676(11)
C11 C 0.1538(6) 0.3308(6) 0.5181(2)
H6 H 0.10500 0.32800 0.54430
O11 O 0.2440(3) 0.4796(3) 0.35489(12)
C12 C 0.1592(6) 0.2407(5) 0.48720(18)
H7 H 0.11520 0.17560 0.49200
O12 O 0.0972(4) 0.5663(4) 0.30656(13)
C13 C 0.2329(5) 0.2509(5) 0.44847(17)
O13 O 0.8038(3) 0.9054(3) 0.20249(11)
C14 C 0.3747(6) 0.5244(5) 0.45828(18)
O14 O 0.6525(3) 0.8028(3) 0.23142(11)
C15 C 0.2440(5) 0.1587(5) 0.41161(18)
O15 O 0.7584(4) 1.1607(3) 0.09184(11)
C16 C 0.4413(5) 0.2505(4) 0.26934(17)
O16 O 0.5712(4) 1.2426(4) 0.06147(13)
C17 C 0.4094(6) 0.2441(5) 0.22617(19)
H8 H 0.46240 0.18990 0.20720
O17 O 0.8743(4) 0.8639(3) 0.10624(12)
C18 C 0.2983(7) 0.3188(6) 0.2116(2)
H9 H 0.27470 0.31590 0.18250
O18 O 0.9875(4) 0.7207(3) 0.06268(14)
C19 C 0.2221(6) 0.3980(5) 0.24023(19)
H10 H 0.14540 0.44840 0.23110
O19 O 1.0021(4) 1.2097(3) 0.13409(12)
C20 C 0.2618(5) 0.4014(5) 0.28314(17)
O20 O 1.1330(4) 1.3028(4) 0.08945(13)
C21 C 0.5577(5) 0.1715(4) 0.28960(16)
O21 O 1.0700(4) 0.9090(3) 0.16904(13)
C22 C 0.1937(5) 0.4909(5) 0.31691(19)
O22 O 1.2097(4) 0.8281(4) 0.22006(15)
C23 C 0.5908(5) 0.9529(4) 0.17596(16)
O23 O 0.7580(3) 1.2213(3) 0.18800(11)
C24 C 0.4610(6) 0.9429(5) 0.17600(18)
H11 H 0.42860 0.88870 0.19550
O24 O 0.7374(4) 1.3531(3) 0.24325(12)
C25 C 0.3802(6) 1.0140(6) 0.14688(19)
H12 H 0.29150 1.01060 0.14660
O25 O 0.7407(4) 0.6817(3) 0.13991(12)
H13 H 0.79440 0.73080 0.14010
H14 H 0.67080 0.68420 0.12600
C26 C 0.4332(6) 1.0907(5) 0.11800(18)
H15 H 0.38010 1.13950 0.09790
O26 O 0.9312(4) 0.4367(3) 0.17522(14)
H16 H 0.99190 0.48720 0.17510
H17 H 0.96210 0.36540 0.15960
C27 C 0.5654(5) 1.0957(5) 0.11872(16)
O27 O 0.6249(4) 0.4448(4) 0.15694(13)
H18 H 0.58400 0.49250 0.13760
H19 H 0.65730 0.37820 0.14400
C28 C 0.6898(5) 0.8808(4) 0.20604(16)
O28 O 0.4842(4) 0.5913(4) 0.23873(13)
H20 H 0.43000 0.60490 0.21810
H21 H 0.45710 0.52560 0.24600
C29 C 0.6362(5) 1.1736(5) 0.08823(16)
O29 O 0.9457(4) 0.6566(4) 0.22720(16)
H22 H 1.00100 0.64630 0.24750
H23 H 0.95210 0.71850 0.21070
C30 C 1.0447(5) 0.9162(5) 0.06062(17)
C31 C 1.1984(6) 0.9889(5) 0.01062(18)
H24 H 1.25460 0.97840 -0.01410
C32 C 1.1822(5) 1.0950(5) 0.03417(18)
H25 H 1.22660 1.15780 0.02570
C33 C 1.0983(5) 1.1063(4) 0.07076(16)
C34 C 0.9622(6) 0.8258(5) 0.07787(19)
C35 C 1.0750(5) 1.2163(5) 0.10044(17)
C36 C 1.0726(5) 1.0153(5) 0.23471(18)
C37 C 1.1317(7) 1.0410(7) 0.2724(2)
H26 H 1.20600 0.98800 0.28220
C38 C 1.0807(7) 1.1440(7) 0.2950(2)
H27 H 1.12090 1.16360 0.31990
C39 C 0.9679(7) 1.2193(6) 0.2804(2)
H28 H 0.93000 1.28990 0.29550
C40 C 0.9137(6) 1.1871(5) 0.24311(17)
C41 C 1.1217(5) 0.9072(5) 0.2059(2)
C42 C 0.7928(6) 1.2604(5) 0.22389(17)
N7 N 0.8391(5) 0.5527(4) 0.04259(18)
H29 H 0.88400 0.60150 0.05370
N8 N 0.7250(6) 0.4132(5) 0.03658(18)
H30 H 0.68190 0.35580 0.04320
C43 C 0.7861(8) 0.4696(6) 0.0643(2)
H31 H 0.79100 0.45330 0.09450
C44 C 0.8112(8) 0.5484(6) 0.0000(2)
H32 H 0.83610 0.59810 -0.02270
C45 C 0.7418(9) 0.4608(6) -0.0040(2)
H33 H 0.71050 0.43660 -0.02990
N9 N 0.3761(5) 0.9466(4) 0.34085(15)
H34 H 0.36820 1.02000 0.35060
N10 N 0.4396(5) 0.7893(5) 0.30281(18)
H35 H 0.48050 0.74060 0.28310
C46 C 0.4536(6) 0.9014(5) 0.3079(2)
H36 H 0.50890 0.94280 0.29120
C47 C 0.3504(7) 0.7596(6) 0.3333(2)
H37 H 0.32310 0.68440 0.33660
C48 C 0.3099(6) 0.8593(6) 0.3573(2)
H38 H 0.24870 0.86770 0.38070
N11 N 0.9459(6) 0.8158(6) 0.3442(2)
H39 H 0.99320 0.74500 0.35000
N12 N 0.8139(5) 0.9548(5) 0.31325(16)
H40 H 0.75850 0.99330 0.29500
C49 C 0.8718(7) 0.8403(6) 0.3111(2)
H41 H 0.86140 0.78570 0.28940
C50 C 0.8555(7) 1.0025(7) 0.3491(2)
H42 H 0.82920 1.08290 0.35860
C51 C 0.9390(8) 0.9164(9) 0.3683(3)
H43 H 0.98460 0.92340 0.39350
N13 N 0.5433(8) 0.9545(6) 0.4344(2)
H44 H 0.54680 1.03150 0.43500
N14 N 0.4902(6) 0.7800(5) 0.45063(17)
H45 H 0.45660 0.72320 0.46400
C52 C 0.4645(9) 0.8968(7) 0.4599(2)
H46 H 0.40230 0.93370 0.48070
C53 C 0.5783(7) 0.7632(7) 0.4164(2)
H47 H 0.60670 0.68970 0.40180
C54 C 0.6177(8) 0.8686(8) 0.4071(2)
H48 H 0.68220 0.88180 0.38650
C55 C 0.5453(9) 0.8269(9) 0.0408(3)
H49 H 0.57220 0.88310 0.06040
H50 H 0.49780 0.87230 0.01720
H51 H 0.62120 0.77290 0.02890
C56 C 0.4590(11) 0.7526(11) 0.0654(4)
H52 H 0.37680 0.80680 0.07300
H53 H 0.43940 0.69150 0.04570
O30 O 0.5049(6) 0.6957(8) 0.1014(3)
H54 H 0.44380 0.68200 0.11740
O31 O 0.3166(5) 0.6400(5) 0.16864(19)
H55 H 0.28540 0.60440 0.14830
H56 H 0.24590 0.67880 0.18040
O32 O 0.1284(5) 0.5334(5) 0.12142(18)
H57 H 0.11450 0.58360 0.09970
H58 H 0.12290 0.46090 0.11430
O33 O 0.0945(4) 0.6608(4) 0.40608(15)
H59 H 0.15610 0.60590 0.39590
H60 H 0.12730 0.69930 0.42530
O34 O 0.1179(5) 0.8636(5) 0.46211(16)
H61 H 0.13150 0.93220 0.45160
H62 H 0.14770 0.86450 0.48770
O35 O 0.4088(8) 0.4384(7) 0.1005(2)
H63 H 0.32590 0.44710 0.10310
H64 H 0.44630 0.37370 0.08730
Sr1* Sr 0.73041(5) 1.57040(4) 0.214945(16)
O24* O 0.7374(4) 0.3531(3) 0.24325(12)
#END
