
#######################################################################
#
#                 Cambridge Crystallographic Data Centre
#                                CCDC
#
#######################################################################
#
# If this CIF has been generated from an entry in the Cambridge
# Structural Database, then it will include bibliographic, chemical,
# crystal, experimental, refinement or atomic coordinate data resulting
# from the CCDC's data processing and validation procedures.
#
#######################################################################

data_CSD_CIF_QEYPAN
_audit_creation_date 2013-05-28
_audit_creation_method CSD-ConQuest-V1
_database_code_CSD QEYPAN
_database_code_depnum_ccdc_archive 'CCDC 773354'
_chemical_formula_sum 'C56 H62 N14 O34 Sm2 Sr1'
_chemical_formula_moiety
;
(C42 H28 N6 O29 Sm2 Sr1 4-)n,4n(C3 H5 N2 1+),n(C2 H6 O1),4n(H2 O1)
;
_journal_coden_Cambridge 222
_journal_volume 42
_journal_year 2013
_journal_page_first 10011
_journal_name_full 'Dalton Trans. '
loop_
_publ_author_name
"Yanmei Chen"
"Yanyuan Cao"
"Wenqian Chen"
"Qian Gao"
"Lei Li"
"Dandan Gao"
"Wei Liu"
"Yahong Li"
"Wu Li"
_chemical_name_systematic
;
catena-[tetrakis(1H-Imidazol-3-ium) 
tris(\m~2~-pyridine-2,6-dicarboxylato)-tris(pyridine-2,6-dicarboxylato)-penta-
aqua-strontium-di-samarium ethanol solvate tetrahydrate]
;
_cell_volume   3430.604
_exptl_crystal_colour 'colorless'
_exptl_crystal_density_diffrn 1.804
_exptl_crystal_description 'block'
_diffrn_ambient_temperature 293
#These two values have been output from a single CSD field.
_refine_ls_R_factor_gt 0.0286
_refine_ls_wR_factor_gt 0.0286
_symmetry_cell_setting triclinic
_symmetry_space_group_name_H-M 'P -1'
_symmetry_Int_Tables_number 2
loop_
_symmetry_equiv_pos_site_id
_symmetry_equiv_pos_as_xyz
1 x,y,z
2 -x,-y,-z
_cell_length_a 10.394(2)
_cell_length_b 11.066(2)
_cell_length_c 30.409(6)
_cell_angle_alpha 88.42(3)
_cell_angle_beta 87.81(3)
_cell_angle_gamma 79.04(3)
_cell_formula_units_Z 2
loop_
_atom_type_symbol
_atom_type_radius_bond
C 0.68
H 0.23
N 0.68
O 0.68
Sm 1.98
Sr 1.95
loop_
_atom_site_label
_atom_site_type_symbol
_atom_site_fract_x
_atom_site_fract_y
_atom_site_fract_z
Sm1 Sm 0.441781(19) 0.344897(17) 0.372814(6)
O1 O 0.5332(3) 0.4913(2) 0.32412(8)
N1 N 0.6792(3) 0.3605(3) 0.38301(9)
C1 C 0.7351(4) 0.4411(3) 0.35861(12)
C2 C 1.1286(4) 0.8872(4) 0.02190(13)
H1 H 1.14010 0.81370 0.00690
Sm2 Sm 0.86938(2) 1.041788(17) 0.147246(6)
O2 O 0.6965(3) 0.5826(2) 0.29881(8)
N2 N 0.2950(3) 0.3411(3) 0.44177(10)
C3 C 0.8623(4) 0.4544(4) 0.36399(13)
H2 H 0.89800 0.51250 0.34740
Sr1 Sr 0.72691(4) 0.56876(3) 0.213718(12)
O3 O 0.5636(3) 0.2003(2) 0.42674(8)
N3 N 0.3626(3) 0.3302(3) 0.29538(10)
C4 C 0.9357(4) 0.3798(4) 0.39446(14)
H3 H 1.02210 0.38680 0.39870
O4 O 0.7429(3) 0.1218(3) 0.46226(9)
N4 N 0.6291(3) 1.0294(3) 0.14628(10)
C5 C 0.8797(4) 0.2947(4) 0.41858(13)
H4 H 0.92850 0.24240 0.43890
O5 O 0.4330(3) 0.5136(2) 0.42340(9)
C6 C 0.7521(4) 0.2879(3) 0.41242(12)
N5 N 1.0256(3) 1.0121(3) 0.08009(10)
O6 O 0.3616(4) 0.6117(3) 0.48506(10)
C7 C 0.6484(4) 0.5114(3) 0.32419(12)
N6 N 0.9657(3) 1.0812(3) 0.21865(10)
O7 O 0.3144(3) 0.1768(2) 0.38019(8)
C8 C 0.6812(4) 0.1961(3) 0.43632(12)
O8 O 0.1783(3) 0.0743(3) 0.41662(10)
C9 C 0.2903(4) 0.4274(3) 0.47165(12)
O9 O 0.5701(3) 0.1875(2) 0.32701(8)
C10 C 0.2183(5) 0.4254(4) 0.51058(14)
H5 H 0.21550 0.48710 0.53090
O10 O 0.6171(3) 0.0897(2) 0.26366(9)
C11 C 0.1508(5) 0.3314(4) 0.51910(14)
H6 H 0.10140 0.32920 0.54520
O11 O 0.2366(3) 0.4825(2) 0.35282(9)
C12 C 0.1572(4) 0.2401(4) 0.48852(13)
H7 H 0.11400 0.17460 0.49380
O12 O 0.0904(3) 0.5704(3) 0.30459(10)
C13 C 0.2300(4) 0.2489(3) 0.44957(12)
O13 O 0.7920(3) 0.8991(2) 0.20039(8)
C14 C 0.3678(4) 0.5261(4) 0.45921(13)
O14 O 0.6398(3) 0.8011(2) 0.22964(9)
C15 C 0.2403(4) 0.1582(4) 0.41324(13)
O15 O 0.7417(3) 1.1655(2) 0.09073(9)
C16 C 0.4348(4) 0.2523(3) 0.26731(12)
O16 O 0.5534(3) 1.2536(3) 0.06263(11)
C17 C 0.4047(5) 0.2478(4) 0.22387(14)
H8 H 0.45860 0.19500 0.20470
O17 O 0.8684(3) 0.8573(2) 0.10223(9)
C18 C 0.2932(5) 0.3230(5) 0.20946(15)
H9 H 0.26910 0.32010 0.18040
O18 O 0.9843(3) 0.7113(3) 0.05972(11)
C19 C 0.2172(5) 0.4028(4) 0.23824(15)
H10 H 0.14090 0.45400 0.22910
O19 O 0.9974(3) 1.2057(2) 0.13038(9)
C20 C 0.2567(4) 0.4053(3) 0.28116(13)
O20 O 1.1298(3) 1.2952(3) 0.08632(10)
C21 C 0.5509(4) 0.1709(3) 0.28725(13)
O21 O 1.0642(3) 0.8962(3) 0.16782(10)
C22 C 0.1868(4) 0.4938(4) 0.31508(14)
O22 O 1.2084(3) 0.8133(3) 0.21741(11)
C23 C 0.5783(4) 0.9544(3) 0.17432(12)
O23 O 0.7569(3) 1.2218(2) 0.18808(9)
C24 C 0.4489(4) 0.9460(4) 0.17528(14)
H11 H 0.41650 0.89130 0.19450
O24 O 0.7423(3) 1.3515(3) 0.24400(9)
C25 C 0.3670(4) 1.0220(4) 0.14650(15)
H12 H 0.27810 1.01920 0.14640
O25 O 0.7321(3) 0.6796(3) 0.13840(9)
H13 H 0.78580 0.72870 0.13850
H14 H 0.66220 0.68210 0.12450
C26 C 0.4183(4) 1.1010(4) 0.11819(13)
H15 H 0.36440 1.15330 0.09920
O26 O 0.9262(3) 0.4343(3) 0.1727(1)
H16 H 0.97810 0.47440 0.15920
H17 H 0.94510 0.36500 0.16020
C27 C 0.5500(4) 1.1014(3) 0.11844(12)
O27 O 0.6154(3) 0.4433(3) 0.15714(10)
H18 H 0.57460 0.49110 0.13780
H19 H 0.64790 0.37680 0.14420
C28 C 0.6770(4) 0.8786(3) 0.20426(12)
O28 O 0.4797(3) 0.5881(3) 0.23783(10)
H20 H 0.42560 0.60160 0.21720
H21 H 0.45270 0.52230 0.24510
C29 C 0.6201(4) 1.1806(4) 0.08816(13)
O29 O 0.9389(3) 0.6561(3) 0.22497(11)
H22 H 0.99420 0.64580 0.24530
H23 H 0.94520 0.71800 0.20840
C30 C 1.0416(4) 0.9078(3) 0.05768(12)
C31 C 1.1979(4) 0.9769(4) 0.00878(14)
H24 H 1.25540 0.96540 -0.01560
C32 C 1.1812(4) 1.0839(4) 0.03214(13)
H25 H 1.22720 1.14550 0.02380
C33 C 1.0952(4) 1.0982(3) 0.06809(12)
C34 C 0.9583(4) 0.8174(4) 0.07447(14)
C35 C 1.0723(4) 1.2102(4) 0.09680(13)
C36 C 1.0718(4) 1.0045(4) 0.23254(13)
C37 C 1.1338(5) 1.0272(5) 0.27008(17)
H26 H 1.20740 0.97250 0.27950
C38 C 1.0849(6) 1.1314(6) 0.29298(18)
H27 H 1.12650 1.14930 0.31790
C39 C 0.9739(5) 1.2099(5) 0.27923(15)
H28 H 0.93920 1.28080 0.29470
C40 C 0.9157(4) 1.1808(4) 0.24204(13)
C41 C 1.1197(4) 0.8949(4) 0.20401(15)
C42 C 0.7949(4) 1.2580(4) 0.22368(13)
N7 N 0.8273(4) 0.5501(4) 0.03906(14)
H29 H 0.87830 0.59410 0.04950
N8 N 0.7016(4) 0.4197(3) 0.03449(13)
H30 H 0.65670 0.36380 0.04140
C43 C 0.7750(6) 0.4660(5) 0.06110(17)
H31 H 0.78800 0.44340 0.09050
C44 C 0.7876(7) 0.5549(5) -0.00190(18)
H32 H 0.81090 0.60580 -0.02450
C45 C 0.7083(7) 0.4740(5) -0.00526(17)
H33 H 0.66590 0.45850 -0.03030
N9 N 0.3728(4) 0.9456(3) 0.34110(12)
H34 H 0.36440 1.01880 0.35100
N10 N 0.4381(4) 0.7897(4) 0.30277(14)
H35 H 0.47930 0.74210 0.28290
C46 C 0.4510(5) 0.9017(5) 0.30844(16)
H36 H 0.50640 0.94390 0.29210
C47 C 0.3503(5) 0.7582(4) 0.33270(18)
H37 H 0.32460 0.68230 0.33590
C48 C 0.3073(5) 0.8593(5) 0.35701(15)
H38 H 0.24510 0.86750 0.38010
N11 N 0.9416(4) 0.8153(4) 0.34275(19)
H39 H 0.99050 0.74530 0.34870
N12 N 0.8075(4) 0.9535(3) 0.31158(12)
H40 H 0.75180 0.99110 0.29320
C49 C 0.8652(5) 0.8397(5) 0.30947(18)
H41 H 0.85410 0.78490 0.28790
C50 C 0.8474(5) 1.0036(5) 0.34649(18)
H42 H 0.82090 1.08460 0.35530
C51 C 0.9311(6) 0.9175(7) 0.36619(19)
H43 H 0.97500 0.92590 0.39170
N13 N 0.5380(4) 0.9542(4) 0.43416(14)
H44 H 0.54160 1.03130 0.43390
N14 N 0.4829(4) 0.7815(4) 0.45089(13)
H45 H 0.44640 0.72660 0.46420
C52 C 0.4596(5) 0.9001(5) 0.45964(16)
H46 H 0.39830 0.93870 0.48030
C53 C 0.5726(5) 0.7610(5) 0.41776(17)
H47 H 0.60160 0.68630 0.40390
C54 C 0.6131(6) 0.8660(5) 0.40808(18)
H48 H 0.67910 0.87750 0.38780
C55 C 0.5439(7) 0.8308(6) 0.0431(2)
H49 H 0.58970 0.86730 0.06450
H50 H 0.49810 0.89420 0.02420
H51 H 0.60570 0.77400 0.02590
C56 C 0.4491(7) 0.7647(7) 0.0659(2)
H52 H 0.38040 0.82460 0.07980
H53 H 0.40880 0.72280 0.04410
O30 O 0.5010(4) 0.6819(5) 0.09655(19)
H54 H 0.44250 0.66670 0.11350
O31 O 0.3168(4) 0.6290(4) 0.16260(14)
H55 H 0.28550 0.59330 0.14220
H56 H 0.24600 0.66780 0.17440
O32 O 0.1245(4) 0.5257(3) 0.11984(12)
H57 H 0.09070 0.58250 0.10210
H58 H 0.13510 0.45850 0.10610
O33 O 0.0903(3) 0.6623(3) 0.40551(11)
H59 H 0.15200 0.60740 0.39530
H60 H 0.12310 0.70080 0.42470
O34 O 0.1146(4) 0.8607(4) 0.46166(12)
H61 H 0.12820 0.92930 0.45110
H62 H 0.14440 0.86160 0.48730
Sr1* Sr 0.72691(4) 1.56876(3) 0.213718(12)
O24* O 0.7423(3) 0.3515(3) 0.24400(9)
#END
