
#######################################################################
#
#                 Cambridge Crystallographic Data Centre
#                                CCDC
#
#######################################################################
#
# If this CIF has been generated from an entry in the Cambridge
# Structural Database, then it will include bibliographic, chemical,
# crystal, experimental, refinement or atomic coordinate data resulting
# from the CCDC's data processing and validation procedures.
#
#######################################################################

data_CSD_CIF_QEZLAJ
_audit_creation_date 2007-07-11
_audit_creation_method CSD-ConQuest-V1
_database_code_CSD QEZLAJ
_database_code_depnum_ccdc_archive 'CCDC 256014'
_chemical_formula_sum 'C16 H14 Cd2 N8 O4 S4'
_chemical_formula_moiety
;
(C6 Cd2 N4 O4 S4 2-)n,2n(C5 H7 N2 1+)
;
_journal_coden_Cambridge 211
_journal_volume 60
_journal_year 2007
_journal_page_first 257
_journal_name_full 'J.Coord.Chem. '
loop_
_publ_author_name
"Maw-Cherng Suen"
"Ju-Chun Wang"
_chemical_name_systematic
;
catena-(bis(2-Aminopyridinium) 
tetrakis(\m~2~-thiocyanato-N,S)-(\m~2~-oxalato-O,O',O'',O''')-di-cadmium(ii))
;
_cell_volume    641.143
_exptl_crystal_colour 'pale yellow'
_exptl_crystal_density_diffrn 1.905
_exptl_crystal_description 'block'
_diffrn_ambient_temperature 298
#These two values have been output from a single CSD field.
_refine_ls_R_factor_gt 0.0157
_refine_ls_wR_factor_gt 0.0157
_symmetry_cell_setting triclinic
_symmetry_space_group_name_H-M 'P -1'
_symmetry_Int_Tables_number 2
loop_
_symmetry_equiv_pos_site_id
_symmetry_equiv_pos_as_xyz
1 x,y,z
2 -x,-y,-z
_cell_length_a 8.9872(14)
_cell_length_b 9.1559(14)
_cell_length_c 9.2538(14)
_cell_angle_alpha 112.213(2)
_cell_angle_beta 108.439(2)
_cell_angle_gamma 97.480(2)
_cell_formula_units_Z 1
loop_
_atom_type_symbol
_atom_type_radius_bond
C 0.68
H 0.23
Cd 1.69
N 0.68
O 0.68
S 1.02
loop_
_atom_site_label
_atom_site_type_symbol
_atom_site_fract_x
_atom_site_fract_y
_atom_site_fract_z
Cd1 Cd 0.218162(13) 0.847128(13) 0.677274(13)
S1 S 0.31885(5) 1.02385(6) 0.54061(6)
S2 S 0.49287(6) 0.74611(6) 0.71581(6)
N1 N 0.03201(19) 1.0858(2) 0.3792(2)
N2 N 0.69550(19) 0.9873(2) 1.04257(19)
O1 O 0.11165(15) 0.60120(14) 0.42429(14)
O2 O -0.06470(15) 0.35312(13) 0.28947(13)
C1 C 0.15009(19) 1.06140(18) 0.44749(19)
C2 C 0.61128(19) 0.88895(19) 0.90806(19)
C3 C 0.01320(17) 0.48634(18) 0.41744(17)
N3 N 0.8079(2) 0.4923(2) 0.85669(19)
N4 N 0.9660(3) 0.7611(3) 0.9968(3)
C4 C 0.8635(2) 0.6407(2) 0.9913(2)
C5 C 0.8091(3) 0.6577(3) 1.1224(2)
C6 C 0.7066(3) 0.5273(3) 1.1088(3)
C7 C 0.6508(3) 0.3761(3) 0.9659(3)
C8 C 0.7034(3) 0.3622(3) 0.8417(3)
H1 H 1.005(3) 0.851(3) 1.073(3)
H2 H 0.999(3) 0.747(3) 0.926(3)
H3 H 0.832(3) 0.481(3) 0.780(3)
H4 H 0.846(3) 0.757(3) 1.212(3)
H5 H 0.668(3) 0.537(3) 1.198(3)
H6 H 0.591(3) 0.283(3) 0.952(3)
H7 H 0.671(3) 0.270(3) 0.739(3)
Cd1A Cd -0.218162(13) 1.152872(13) 0.322726(13)
Cd1A* Cd 0.781838(13) 1.152872(13) 1.322726(13)
Cd1A** Cd -0.218162(13) 0.152872(13) 0.322726(13)
S1A S -0.31885(5) 0.97615(6) 0.45939(6)
S2A S 0.50713(6) 1.25389(6) 1.28419(6)
S2A* S -0.49287(6) 1.25389(6) 0.28419(6)
N1A N -0.03201(19) 0.9142(2) 0.6208(2)
N2A N 0.30450(19) 1.0127(2) 0.95743(19)
N2* N -0.30450(19) 0.9873(2) 0.04257(19)
O1A O -0.11165(15) 0.39880(14) 0.57571(14)
O1A* O -0.11165(15) 1.39880(14) 0.57571(14)
O2A O 0.06470(15) 0.64688(13) 0.71053(13)
O2* O -0.06470(15) 1.35312(13) 0.28947(13)
C1A C -0.15009(19) 0.93860(18) 0.55251(19)
C2A C 0.38872(19) 1.11105(19) 1.09194(19)
C3A C -0.01320(17) 0.51366(18) 0.58256(17)
#END
