
#######################################################################
#
#                 Cambridge Crystallographic Data Centre
#                                CCDC
#
#######################################################################
#
# If this CIF has been generated from an entry in the Cambridge
# Structural Database, then it will include bibliographic, chemical,
# crystal, experimental, refinement or atomic coordinate data resulting
# from the CCDC's data processing and validation procedures.
#
#######################################################################

data_CSD_CIF_QICQEB
_audit_creation_date 2018-06-02
_audit_creation_method CSD-ConQuest-V1
_database_code_CSD QICQEB
_database_code_depnum_ccdc_archive 'CCDC 1846858'
_chemical_formula_sum 'C51 H43 Cu2 N21 O20 W6'
_chemical_formula_moiety
;
(C24 H18 Cu1 N10 2+)2n,O19 W6 4-,C3 H7 N1 O1
;
_journal_coden_Cambridge 1078
_journal_year 2018
_journal_name_full 'CSD Communication(Private Communication) '
loop_
_publ_author_name
"Dongying Shi"
_chemical_name_systematic
;
catena-[bis((\m-4-(4H-1,2,4-triazol-4-yl)-N,N-bis[4-(4H-1,2,4-triazol-4-yl)phe
nyl]aniline)-copper) tridecakis(\m-oxido)-hexakis(oxido)-hexa-tungsten 
N,N-dimethylformamide solvate]
;
_cell_volume   3425.748
_exptl_crystal_colour 'orange'
_exptl_crystal_density_diffrn 2.424
_exptl_crystal_description 'block'
_diffrn_ambient_temperature 293
#These two values have been output from a single CSD field.
_refine_ls_R_factor_gt 0.0517
_refine_ls_wR_factor_gt 0.0517
_symmetry_cell_setting monoclinic
_symmetry_space_group_name_H-M 'P 21/c'
_symmetry_Int_Tables_number 14
loop_
_symmetry_equiv_pos_site_id
_symmetry_equiv_pos_as_xyz
1 x,y,z
2 -x,1/2+y,1/2-z
3 -x,-y,-z
4 x,-1/2-y,-1/2+z
_cell_length_a 16.4114(5)
_cell_length_b 8.7003(3)
_cell_length_c 25.2295(10)
_cell_angle_alpha 90
_cell_angle_beta 108.016(4)
_cell_angle_gamma 90
_cell_formula_units_Z 2
loop_
_atom_type_symbol
_atom_type_radius_bond
C 0.68
H 0.23
Cu 1.32
N 0.68
O 0.68
W 1.62
loop_
_atom_site_label
_atom_site_type_symbol
_atom_site_fract_x
_atom_site_fract_y
_atom_site_fract_z
W1 W 0.09883(3) 0.33376(5) 0.482113(18)
W2 W -0.07565(3) 0.28969(6) 0.51788(2)
W3 W -0.08093(3) 0.49139(6) 0.406375(18)
O1 O 0.00000 0.50000 0.50000
O2 O 0.0155(5) 0.3589(9) 0.4105(3)
O3 O -0.1409(4) 0.4656(9) 0.5279(3)
O4 O 0.0191(4) 0.1977(8) 0.5006(3)
O5 O 0.1444(4) 0.3734(9) 0.5605(3)
O6 O -0.1242(4) 0.3228(9) 0.4396(3)
O7 O 0.0039(5) 0.3385(10) 0.5898(3)
O8 O 0.1745(5) 0.2155(10) 0.4700(3)
O9 O -0.1333(6) 0.1394(11) 0.5311(4)
O10 O -0.1412(6) 0.4845(12) 0.3378(3)
Cu1 Cu 0.57667(8) 0.1139(2) 0.55458(6)
N1 N 1.1670(5) 0.0076(11) 0.7402(3)
N2 N 1.3797(5) 0.1255(10) 0.9586(3)
N3 N 1.4930(6) 0.2009(12) 1.0252(4)
N4 N 1.4301(6) 0.1652(13) 1.0489(4)
N5 N 0.8079(5) 0.0513(10) 0.6738(3)
N6 N 0.6775(5) 0.0905(11) 0.6205(3)
N7 N 0.6770(5) 0.0912(13) 0.6752(3)
N8 N 1.3610(5) -0.0294(11) 0.5928(3)
N9 N 1.4733(5) -0.0172(11) 0.5642(3)
N10 N 1.4027(5) -0.0492(12) 0.5187(3)
C1 C 1.2172(6) 0.0420(12) 0.7966(4)
C2 C 1.2786(6) 0.1578(13) 0.8069(4)
H1 H 1.28390 0.21760 0.77760
C3 C 1.3316(7) 0.1843(13) 0.8604(4)
H2 H 1.37320 0.26080 0.86720
C4 C 1.3224(5) 0.0969(12) 0.9036(4)
C5 C 1.2608(6) -0.0143(13) 0.8948(4)
H3 H 1.25550 -0.07250 0.92440
C6 C 1.2062(6) -0.0398(13) 0.8412(4)
H4 H 1.16230 -0.11160 0.83520
C7 C 1.4624(6) 0.1745(13) 0.9718(4)
H5 H 1.49270 0.18730 0.94650
C8 C 1.3639(6) 0.1203(15) 1.0081(4)
H6 H 1.31230 0.08860 1.01250
C9 C 1.0765(5) 0.0188(11) 0.7243(4)
C10 C 1.0277(6) -0.0588(12) 0.6769(4)
H7 H 1.05450 -0.11770 0.65640
C11 C 0.9379(6) -0.0483(13) 0.6601(4)
H8 H 0.90460 -0.09790 0.62800
C12 C 0.9003(5) 0.0366(12) 0.6919(4)
C13 C 0.9472(6) 0.1116(12) 0.7391(4)
H9 H 0.91990 0.16850 0.75990
C14 C 1.0367(5) 0.1020(13) 0.7559(4)
H10 H 1.06930 0.15130 0.78820
C15 C 0.7565(6) 0.0655(13) 0.6212(4)
H11 H 0.77430 0.05860 0.58970
C16 C 0.7556(6) 0.0679(14) 0.7057(4)
H12 H 0.77370 0.06330 0.74450
C17 C 1.2114(5) -0.0061(12) 0.7008(4)
C18 C 1.2898(6) -0.0868(13) 0.7159(4)
H13 H 1.30950 -0.13440 0.75060
C19 C 1.3371(6) -0.0954(14) 0.6799(4)
H14 H 1.38910 -0.14770 0.69030
C20 C 1.3081(6) -0.0274(13) 0.6287(4)
C21 C 1.2314(6) 0.0507(14) 0.6123(4)
H15 H 1.21220 0.09550 0.57720
C22 C 1.1826(6) 0.0624(14) 0.6485(4)
H16 H 1.13100 0.11590 0.63780
C23 C 1.4476(6) -0.0067(12) 0.6074(4)
H17 H 1.48290 0.01340 0.64340
C24 C 1.3367(6) -0.0556(14) 0.5373(4)
H18 H 1.28080 -0.07550 0.51540
O11 O 1.4653(13) -0.337(3) 0.6390(8)
N11 N 1.4220(13) -0.539(2) 0.6768(8)
C25 C 1.4836(19) -0.467(3) 0.6662(12)
H19 H 1.53910 -0.50540 0.67750
C26 C 1.441(4) -0.647(8) 0.703(3)
H20 H 1.39160 -0.69250 0.70920
H21 H 1.48230 -0.62160 0.73830
H22 H 1.46640 -0.71970 0.68390
C27 C 1.362(5) -0.524(8) 0.672(3)
H23 H 1.34420 -0.42890 0.65220
H24 H 1.35310 -0.51970 0.70740
H25 H 1.33030 -0.60730 0.65030
W1B W -0.09883(3) 0.66624(5) 0.517887(18)
W2B W 0.07565(3) 0.71031(6) 0.48212(2)
W3B W 0.08093(3) 0.50861(6) 0.593625(18)
O2B O -0.0155(5) 0.6411(9) 0.5895(3)
O3B O 0.1409(4) 0.5344(9) 0.4721(3)
O4B O -0.0191(4) 0.8023(8) 0.4994(3)
O5B O -0.1444(4) 0.6266(9) 0.4395(3)
O6B O 0.1242(4) 0.6772(9) 0.5604(3)
O7B O -0.0039(5) 0.6615(10) 0.4102(3)
O8B O -0.1745(5) 0.7845(10) 0.5300(3)
O9B O 0.1333(6) 0.8606(11) 0.4689(4)
O10B O 0.1412(6) 0.5155(12) 0.6622(3)
Cu1* Cu 1.57667(8) 0.1139(2) 0.55458(6)
Cu1B Cu 1.42333(8) -0.1139(2) 0.44542(6)
Cu1C Cu 1.57667(8) 0.3861(2) 1.05458(6)
N3C N 0.4930(6) 0.2991(12) 0.5252(4)
N9* N 0.4733(5) -0.0172(11) 0.5642(3)
N10B N 0.5973(5) 0.0492(12) 0.4813(3)
#END
