
#######################################################################
#
#                 Cambridge Crystallographic Data Centre
#                                CCDC
#
#######################################################################
#
# If this CIF has been generated from an entry in the Cambridge
# Structural Database, then it will include bibliographic, chemical,
# crystal, experimental, refinement or atomic coordinate data resulting
# from the CCDC's data processing and validation procedures.
#
#######################################################################

data_CSD_CIF_QIGDEP
_audit_creation_date 2001-06-05
_audit_creation_method CSD-ConQuest-V1
_database_code_CSD QIGDEP
_database_code_depnum_ccdc_archive 'CCDC 151824'
_chemical_formula_sum 'C20 H40 N4 O22 Zn2'
_chemical_formula_moiety
;
(C6 H14 N2 2+)2n,n(C8 O16 Zn2 4-),6n(H2 O1)
;
_journal_coden_Cambridge 186
_journal_year 2001
_journal_page_first 699
_journal_name_full 'J.Chem.Soc.,Dalton Trans. '
loop_
_publ_author_name
"R.Vaidhyanathan"
"S.Natarajan"
"C.N.R.Rao"
_chemical_name_systematic
;
catena-(bis(1,4-Diazoniabicyclo(2.2.2)octane) 
bis(\m~2~-oxalato-O,O',O'',O''')-bis(oxalato-O,O')-di-zinc hexahydrate)
;
_cell_volume   1556.148
_exptl_crystal_density_diffrn 1.749
_exptl_special_details
;
polymorph I

;
_diffrn_ambient_temperature ?
_diffrn_special_details
;
The study was carried out at room temperature,in the range 283-303K

;
#These two values have been output from a single CSD field.
_refine_ls_R_factor_gt 0.0482
_refine_ls_wR_factor_gt 0.0482
_symmetry_cell_setting monoclinic
_symmetry_space_group_name_H-M 'P 21/n'
_symmetry_Int_Tables_number 14
loop_
_symmetry_equiv_pos_site_id
_symmetry_equiv_pos_as_xyz
1 x,y,z
2 1/2-x,1/2+y,1/2-z
3 -x,-y,-z
4 -1/2+x,-1/2-y,-1/2+z
_cell_length_a 9.4328(8)
_cell_length_b 16.8597(15)
_cell_length_c 9.7878(8)
_cell_angle_alpha 90
_cell_angle_beta 91.373(1)
_cell_angle_gamma 90
_cell_formula_units_Z 2
loop_
_atom_type_symbol
_atom_type_radius_bond
C 0.68
H 0.23
N 0.68
O 0.68
Zn 1.45
loop_
_atom_site_label
_atom_site_type_symbol
_atom_site_fract_x
_atom_site_fract_y
_atom_site_fract_z
Zn1 Zn 0.09927(7) 0.45422(4) 0.25142(7)
O1 O -0.0780(4) 0.4417(2) 0.3710(4)
O2 O 0.0441(4) 0.5568(2) 0.1437(4)
O3 O 0.3119(4) 0.4614(2) 0.1978(4)
O4 O 0.1712(4) 0.3416(2) 0.3144(4)
O5 O -0.0293(4) 0.5954(2) -0.0634(4)
O6 O -0.1604(4) 0.4761(2) 0.5750(4)
C1 C -0.0682(6) 0.4758(4) 0.4844(6)
C2 C 0.3768(7) 0.3983(4) 0.2159(6)
C3 C 0.2945(7) 0.3275(4) 0.2764(6)
C4 C 0.0039(6) 0.5438(4) 0.0237(6)
O7 O 0.3554(5) 0.2618(3) 0.2802(5)
O8 O 0.5035(5) 0.3863(3) 0.1887(6)
O9 O 0.4397(8) 0.5834(6) 0.4865(10)
H1 H 0.4483(90) 0.5331(51) 0.4831(94)
H2 H 0.400(11) 0.5834(69) 0.553(10)
O10 O 0.1533(7) 0.1396(5) 0.3152(8)
H3 H 0.175(11) 0.1093(60) 0.288(11)
H4 H 0.230(12) 0.1794(70) 0.299(11)
O11 O 0.6779(7) 0.5027(4) 0.0873(7)
H5 H 0.585(12) 0.4811(62) 0.151(10)
H6 H 0.6851(78) 0.5057(45) 0.0125(70)
N1 N -0.1201(5) 0.1749(3) 0.2341(5)
H7 H -0.0391(5) 0.1456(3) 0.2383(5)
N2 N -0.3396(5) 0.2545(3) 0.2220(5)
H8 H -0.4202(5) 0.2841(3) 0.2177(5)
C5 C -0.2237(7) 0.2990(4) 0.1552(7)
H9 H -0.1979(7) 0.3452(4) 0.2092(7)
H10 H -0.2551(7) 0.3166(4) 0.0651(7)
C6 C -0.0983(7) 0.2448(4) 0.1436(7)
H11 H -0.0892(7) 0.2276(4) 0.0497(7)
H12 H -0.0122(7) 0.2726(4) 0.1711(7)
C7 C -0.2383(7) 0.1251(4) 0.1736(7)
H13 H -0.2610(7) 0.0822(4) 0.2354(7)
H14 H -0.2095(7) 0.1022(4) 0.0876(7)
C8 C -0.3660(7) 0.1777(4) 0.1507(6)
H15 H -0.3819(7) 0.1867(4) 0.0537(6)
H16 H -0.4497(7) 0.1524(4) 0.1865(6)
C9 C -0.1553(8) 0.2004(5) 0.3715(6)
H17 H -0.0846(8) 0.2377(5) 0.4056(6)
H18 H -0.1555(8) 0.1550(5) 0.4324(6)
C10 C -0.3007(7) 0.2394(5) 0.3682(6)
H19 H -0.3699(7) 0.2047(5) 0.4091(6)
H20 H -0.2978(7) 0.2888(5) 0.4188(6)
C1B C 0.0682(6) 0.5242(4) 0.5156(6)
O1B O 0.0780(4) 0.5583(2) 0.6290(4)
O6B O 0.1604(4) 0.5239(2) 0.4250(4)
C4B C -0.0039(6) 0.4562(4) -0.0237(6)
O2B O -0.0441(4) 0.4432(2) -0.1437(4)
O5B O 0.0293(4) 0.4046(2) 0.0634(4)
Zn1B Zn -0.09927(7) 0.54578(4) 0.74858(7)
O3B O -0.3119(4) 0.5386(2) 0.8022(4)
O4B O -0.1712(4) 0.6584(2) 0.6856(4)
C2B C -0.3768(7) 0.6017(4) 0.7841(6)
C3B C -0.2945(7) 0.6725(4) 0.7236(6)
O7B O -0.3554(5) 0.7382(3) 0.7198(5)
O8B O -0.5035(5) 0.6137(3) 0.8113(6)
Zn1B* Zn -0.09927(7) 0.54578(4) -0.25142(7)
O2B* O -0.0441(4) 0.4432(2) 0.8563(4)
O5* O -0.0293(4) 0.5954(2) 0.9366(4)
#END
