
#######################################################################
#
#                 Cambridge Crystallographic Data Centre
#                                CCDC
#
#######################################################################
#
# If this CIF has been generated from an entry in the Cambridge
# Structural Database, then it will include bibliographic, chemical,
# crystal, experimental, refinement or atomic coordinate data resulting
# from the CCDC's data processing and validation procedures.
#
#######################################################################

data_CSD_CIF_QIGDEP15
_audit_creation_date 2018-07-30
_audit_creation_method CSD-ConQuest-V1
_database_code_CSD QIGDEP15
_database_code_depnum_ccdc_archive 'CCDC 1582482'
_chemical_formula_sum 'C20 H40 N4 O22 Zn2'
_chemical_formula_moiety
;
(C8 O16 Zn2 4-)n,2(C6 H14 N2 2+),6(H2 O1)
;
_journal_coden_Cambridge 222
_journal_volume 47
_journal_year 2018
_journal_page_first 11308
_journal_name_full 'Dalton Trans. '
loop_
_publ_author_name
"K.Pasinska"
"A.Piecha-Bisiorek"
"V.Kinzhybalo"
"A.Cizman"
"A.Gagor"
"A.Pietraszko"
_chemical_name_systematic
;
catena-[bis(1,4-diazabicyclo[2.2.2]octane-1,4-diium) 
bis(\m-oxalato)-bis(oxalato)-di-zinc hexahydrate]
;
_cell_volume   1551.433
_exptl_crystal_colour 'colorless'
_exptl_crystal_density_diffrn 1.754
_exptl_special_details
;
polymorph I
reversible phase transition at 207 K

;
_exptl_crystal_description 'needle'
_diffrn_ambient_temperature 270
#These two values have been output from a single CSD field.
_refine_ls_R_factor_gt 0.0336
_refine_ls_wR_factor_gt 0.0336
_symmetry_cell_setting monoclinic
_symmetry_space_group_name_H-M 'P 21/n'
_symmetry_Int_Tables_number 14
loop_
_symmetry_equiv_pos_site_id
_symmetry_equiv_pos_as_xyz
1 x,y,z
2 1/2-x,1/2+y,1/2-z
3 -x,-y,-z
4 -1/2+x,-1/2-y,-1/2+z
_cell_length_a 9.434(3)
_cell_length_b 16.817(5)
_cell_length_c 9.782(3)
_cell_angle_alpha 90
_cell_angle_beta 91.45(3)
_cell_angle_gamma 90
_cell_formula_units_Z 2
loop_
_atom_type_symbol
_atom_type_radius_bond
C 0.68
H 0.23
N 0.68
O 0.68
Zn 1.22
loop_
_atom_site_label
_atom_site_type_symbol
_atom_site_fract_x
_atom_site_fract_y
_atom_site_fract_z
Zn1 Zn 0.09958(3) 0.45398(2) 0.25152(3)
O1 O -0.07763(18) 0.44073(11) 0.37156(18)
O2 O 0.04399(19) 0.55707(10) 0.14427(17)
O3 O 0.31143(18) 0.46162(11) 0.19792(19)
O4 O 0.17215(18) 0.34135(11) 0.31389(18)
O5 O -0.03044(18) 0.59566(10) -0.06437(17)
O6 O -0.16025(18) 0.47628(11) 0.57420(17)
C1 C -0.0688(2) 0.47555(15) 0.4842(3)
C2 C 0.3784(3) 0.39791(17) 0.2155(3)
C3 C 0.2959(3) 0.32658(17) 0.2743(3)
C4 C 0.0042(3) 0.54381(14) 0.0232(3)
O7 O 0.3559(2) 0.26120(13) 0.2784(3)
O8 O 0.5036(2) 0.38677(14) 0.1874(3)
O9 O 0.4414(3) 0.58192(19) 0.4871(3)
H1 H 0.35900 0.57140 0.45400
H2 H 0.44580 0.56910 0.57130
O10 O 0.1524(2) 0.13916(14) 0.3150(3)
H3 H 0.21830 0.17230 0.29950
H4 H 0.18370 0.09200 0.30530
O11 O 0.67876(17) 0.50295(14) 0.0855(2)
H5 H 0.66530 0.50940 -0.00030
H6 H 0.61130 0.47520 0.11690
N1 N -0.11899(10) 0.17457(6) 0.23317(13)
H7 H -0.03190 0.14290 0.23820
N2 N -0.33924(10) 0.25458(7) 0.22114(14)
H8 H -0.42620 0.28640 0.21660
C5 C -0.2239(1) 0.29901(6) 0.15387(14)
H9 H -0.19920 0.34600 0.20690
H10 H -0.25530 0.31580 0.06320
C6 C -0.09589(10) 0.24488(6) 0.14399(10)
H11 H -0.08450 0.22800 0.05010
H12 H -0.01070 0.27300 0.17370
C7 C -0.23616(12) 0.12482(6) 0.17377(16)
H13 H -0.25820 0.08190 0.23590
H14 H -0.20760 0.10180 0.08780
C8 C -0.36542(11) 0.17729(8) 0.15061(12)
H15 H -0.38190 0.18600 0.05350
H16 H -0.44860 0.15180 0.18700
C9 C -0.15426(12) 0.20120(9) 0.37253(11)
H17 H -0.08430 0.23930 0.40580
H18 H -0.15390 0.15610 0.43450
C10 C -0.29966(12) 0.23923(9) 0.36710(12)
H19 H -0.36840 0.20400 0.40760
H20 H -0.29810 0.28870 0.41800
O1B O 0.07763(18) 0.55927(11) 0.62844(18)
O6B O 0.16025(18) 0.52372(11) 0.42580(17)
C1B C 0.0688(2) 0.52445(15) 0.5158(3)
O2B O -0.04399(19) 0.44293(10) -0.14427(17)
O5B O 0.03044(18) 0.40434(10) 0.06437(17)
C4B C -0.0042(3) 0.45619(14) -0.0232(3)
Zn1B Zn -0.09958(3) 0.54602(2) -0.25152(3)
O3B O -0.31143(18) 0.53838(11) -0.19792(19)
O4B O -0.17215(18) 0.65865(11) -0.31389(18)
C2B C -0.3784(3) 0.60209(17) -0.2155(3)
C3B C -0.2959(3) 0.67342(17) -0.2743(3)
O7B O -0.3559(2) 0.73880(13) -0.2784(3)
O8B O -0.5036(2) 0.61323(14) -0.1874(3)
Zn1B* Zn -0.09958(3) 0.54602(2) 0.74848(3)
O1B* O 0.07763(18) 0.55927(11) -0.37156(18)
O6* O -0.16025(18) 0.47628(11) -0.42580(17)
#END
